 "x_c",  "y_c",  "u_c",  "v_c",  "exx",  "eyy",  "exy",  "e1",  "e2",  "gamma",  "e_vonmises",  "sigma",  "x",  "y",  "u",  "v"
-700,715,0,0,0,0,0,0,0,0,0,-1,524,309,0,0
-693,715,0,0,0,0,0,0,0,0,0,-1,531,309,0,0
-686,715,0,0,0,0,0,0,0,0,0,-1,538,309,0,0
-679,715,0,0,0,0,0,0,0,0,0,-1,545,309,0,0
-672,715,0,0,0,0,0,0,0,0,0,-1,552,309,0,0
-665,715,0,0,0,0,0,0,0,0,0,-1,559,309,0,0
-658,715,0,0,0,0,0,0,0,0,0,-1,566,309,0,0
-651,715,0,0,0,0,0,0,0,0,0,-1,573,309,0,0
-644,715,0,0,0,0,0,0,0,0,0,-1,580,309,0,0
-637,715,0,0,0,0,0,0,0,0,0,-1,587,309,0,0
-630,715,0,0,0,0,0,0,0,0,0,-1,594,309,0,0
-623,715,0,0,0,0,0,0,0,0,0,-1,601,309,0,0
-616,715,0,0,0,0,0,0,0,0,0,-1,608,309,0,0
-609,715,0,0,0,0,0,0,0,0,0,-1,615,309,0,0
-602,715,0,0,0,0,0,0,0,0,0,-1,622,309,0,0
-595,715,0,0,0,0,0,0,0,0,0,-1,629,309,0,0
-588,715,0,0,0,0,0,0,0,0,0,-1,636,309,0,0
-581,715,0,0,0,0,0,0,0,0,0,-1,643,309,0,0
-574,715,0,0,0,0,0,0,0,0,0,-1,650,309,0,0
-567,715,0,0,0,0,0,0,0,0,0,-1,657,309,0,0
-560,715,0,0,0,0,0,0,0,0,0,-1,664,309,0,0
-553,715,0,0,0,0,0,0,0,0,0,-1,671,309,0,0
-546,715,0,0,0,0,0,0,0,0,0,-1,678,309,0,0
-539,715,0,0,0,0,0,0,0,0,0,-1,685,309,0,0
-532,715,0,0,0,0,0,0,0,0,0,-1,692,309,0,0
-525,715,0,0,0,0,0,0,0,0,0,-1,699,309,0,0
-518,715,0,0,0,0,0,0,0,0,0,-1,706,309,0,0
-511,715,0,0,0,0,0,0,0,0,0,-1,713,309,0,0
-504,715,0,0,0,0,0,0,0,0,0,-1,720,309,0,0
-497,715,0,0,0,0,0,0,0,0,0,-1,727,309,0,0
-490,715,0,0,0,0,0,0,0,0,0,-1,734,309,0,0
-483,715,0,0,0,0,0,0,0,0,0,-1,741,309,0,0
-476,715,0,0,0,0,0,0,0,0,0,-1,748,309,0,0
-469,715,0,0,0,0,0,0,0,0,0,-1,755,309,0,0
-462,715,0,0,0,0,0,0,0,0,0,-1,762,309,0,0
-455,715,0,0,0,0,0,0,0,0,0,-1,769,309,0,0
-448,715,0,0,0,0,0,0,0,0,0,-1,776,309,0,0
-441,715,0,0,0,0,0,0,0,0,0,-1,783,309,0,0
-434,715,0,0,0,0,0,0,0,0,0,-1,790,309,0,0
-427,715,0,0,0,0,0,0,0,0,0,-1,797,309,0,0
-420,715,0,0,0,0,0,0,0,0,0,-1,804,309,0,0
-413,715,0,0,0,0,0,0,0,0,0,-1,811,309,0,0
-406,715,0,0,0,0,0,0,0,0,0,-1,818,309,0,0
-399,715,0,0,0,0,0,0,0,0,0,-1,825,309,0,0
-392,715,0,0,0,0,0,0,0,0,0,-1,832,309,0,0
-385,715,0,0,0,0,0,0,0,0,0,-1,839,309,0,0
-378,715,0,0,0,0,0,0,0,0,0,-1,846,309,0,0
-371,715,0,0,0,0,0,0,0,0,0,-1,853,309,0,0
-364,715,0,0,0,0,0,0,0,0,0,-1,860,309,0,0
-357,715,0,0,0,0,0,0,0,0,0,-1,867,309,0,0
-350,715,0,0,0,0,0,0,0,0,0,-1,874,309,0,0
-343,715,0,0,0,0,0,0,0,0,0,-1,881,309,0,0
-336,715,0,0,0,0,0,0,0,0,0,-1,888,309,0,0
-329,715,0,0,0,0,0,0,0,0,0,-1,895,309,0,0
-322,715,0,0,0,0,0,0,0,0,0,-1,902,309,0,0
-315,715,0,0,0,0,0,0,0,0,0,-1,909,309,0,0
-308,715,0,0,0,0,0,0,0,0,0,-1,916,309,0,0
-301,715,0,0,0,0,0,0,0,0,0,-1,923,309,0,0
-294,715,0,0,0,0,0,0,0,0,0,-1,930,309,0,0
-287,715,0,0,0,0,0,0,0,0,0,-1,937,309,0,0
-280,715,0,0,0,0,0,0,0,0,0,-1,944,309,0,0
-273,715,0,0,0,0,0,0,0,0,0,-1,951,309,0,0
-266,715,0,0,0,0,0,0,0,0,0,-1,958,309,0,0
-259,715,0,0,0,0,0,0,0,0,0,-1,965,309,0,0
-252,715,0,0,0,0,0,0,0,0,0,-1,972,309,0,0
-245,715,0,0,0,0,0,0,0,0,0,-1,979,309,0,0
-238,715,0,0,0,0,0,0,0,0,0,-1,986,309,0,0
-231,715,0,0,0,0,0,0,0,0,0,-1,993,309,0,0
-224,715,0,0,0,0,0,0,0,0,0,-1,1000,309,0,0
-217,715,0,0,0,0,0,0,0,0,0,-1,1007,309,0,0
-210,715,0,0,0,0,0,0,0,0,0,-1,1014,309,0,0
-203,715,0,0,0,0,0,0,0,0,0,-1,1021,309,0,0
-196,715,0,0,0,0,0,0,0,0,0,-1,1028,309,0,0
-189,715,0,0,0,0,0,0,0,0,0,-1,1035,309,0,0
-182,715,0,0,0,0,0,0,0,0,0,-1,1042,309,0,0
-175,715,0,0,0,0,0,0,0,0,0,-1,1049,309,0,0
-168,715,0,0,0,0,0,0,0,0,0,-1,1056,309,0,0
-161,715,0,0,0,0,0,0,0,0,0,-1,1063,309,0,0
-154,715,0,0,0,0,0,0,0,0,0,-1,1070,309,0,0
-147,715,0,0,0,0,0,0,0,0,0,-1,1077,309,0,0
-140,715,0,0,0,0,0,0,0,0,0,-1,1084,309,0,0
-133,715,0,0,0,0,0,0,0,0,0,-1,1091,309,0,0
-126,715,0,0,0,0,0,0,0,0,0,-1,1098,309,0,0
-119,715,0,0,0,0,0,0,0,0,0,-1,1105,309,0,0
-112,715,0,0,0,0,0,0,0,0,0,-1,1112,309,0,0
-105,715,0,0,0,0,0,0,0,0,0,-1,1119,309,0,0
-98,715,0,0,0,0,0,0,0,0,0,-1,1126,309,0,0
-91,715,0,0,0,0,0,0,0,0,0,-1,1133,309,0,0
-84,715,0,0,0,0,0,0,0,0,0,-1,1140,309,0,0
-77,715,0,0,0,0,0,0,0,0,0,-1,1147,309,0,0
-70,715,0,0,0,0,0,0,0,0,0,-1,1154,309,0,0
-63,715,0,0,0,0,0,0,0,0,0,-1,1161,309,0,0
-56,715,0,0,0,0,0,0,0,0,0,-1,1168,309,0,0
-49,715,0,0,0,0,0,0,0,0,0,-1,1175,309,0,0
-42,715,0,0,0,0,0,0,0,0,0,-1,1182,309,0,0
-35,715,0,0,0,0,0,0,0,0,0,-1,1189,309,0,0
-28,715,0,0,0,0,0,0,0,0,0,-1,1196,309,0,0
-21,715,0,0,0,0,0,0,0,0,0,-1,1203,309,0,0
-14,715,0,0,0,0,0,0,0,0,0,-1,1210,309,0,0
-7,715,0,0,0,0,0,0,0,0,0,-1,1217,309,0,0
0,715,0,0,0,0,0,0,0,0,0,-1,1224,309,0,0
7,715,0,0,0,0,0,0,0,0,0,-1,1231,309,0,0
14,715,0,0,0,0,0,0,0,0,0,-1,1238,309,0,0
21,715,0,0,0,0,0,0,0,0,0,-1,1245,309,0,0
28,715,0,0,0,0,0,0,0,0,0,-1,1252,309,0,0
35,715,0,0,0,0,0,0,0,0,0,-1,1259,309,0,0
42,715,0,0,0,0,0,0,0,0,0,-1,1266,309,0,0
49,715,0,0,0,0,0,0,0,0,0,-1,1273,309,0,0
56,715,0,0,0,0,0,0,0,0,0,-1,1280,309,0,0
63,715,2.97852,-14.468,0.0108691,0.0384348,-0.00488373,0.0392745,0.0100295,-1.40053,0.0235624,0.044792,1287,309,2.97847,14.468
70,715,2.83679,-14.5372,0.00853176,0.0265741,-0.0128809,0.0332786,0.00182719,-1.09088,0.0216025,0.044663,1294,309,2.83677,14.5372
77,715,0,0,0,0,0,0,0,0,0,-1,1301,309,0,0
84,715,0,0,0,0,0,0,0,0,0,-1,1308,309,0,0
91,715,0,0,0,0,0,0,0,0,0,-1,1315,309,0,0
98,715,0,0,0,0,0,0,0,0,0,-1,1322,309,0,0
105,715,0,0,0,0,0,0,0,0,0,-1,1329,309,0,0
112,715,0,0,0,0,0,0,0,0,0,-1,1336,309,0,0
119,715,0,0,0,0,0,0,0,0,0,-1,1343,309,0,0
126,715,0,0,0,0,0,0,0,0,0,-1,1350,309,0,0
133,715,0,0,0,0,0,0,0,0,0,-1,1357,309,0,0
140,715,0,0,0,0,0,0,0,0,0,-1,1364,309,0,0
147,715,0,0,0,0,0,0,0,0,0,-1,1371,309,0,0
154,715,0,0,0,0,0,0,0,0,0,-1,1378,309,0,0
161,715,0,0,0,0,0,0,0,0,0,-1,1385,309,0,0
168,715,0,0,0,0,0,0,0,0,0,-1,1392,309,0,0
175,715,0,0,0,0,0,0,0,0,0,-1,1399,309,0,0
182,715,0,0,0,0,0,0,0,0,0,-1,1406,309,0,0
189,715,0,0,0,0,0,0,0,0,0,-1,1413,309,0,0
196,715,0,0,0,0,0,0,0,0,0,-1,1420,309,0,0
203,715,0,0,0,0,0,0,0,0,0,-1,1427,309,0,0
210,715,0,0,0,0,0,0,0,0,0,-1,1434,309,0,0
217,715,0,0,0,0,0,0,0,0,0,-1,1441,309,0,0
224,715,0,0,0,0,0,0,0,0,0,-1,1448,309,0,0
231,715,0,0,0,0,0,0,0,0,0,-1,1455,309,0,0
238,715,0,0,0,0,0,0,0,0,0,-1,1462,309,0,0
245,715,0,0,0,0,0,0,0,0,0,-1,1469,309,0,0
252,715,0,0,0,0,0,0,0,0,0,-1,1476,309,0,0
259,715,0,0,0,0,0,0,0,0,0,-1,1483,309,0,0
266,715,0,0,0,0,0,0,0,0,0,-1,1490,309,0,0
273,715,0,0,0,0,0,0,0,0,0,-1,1497,309,0,0
280,715,0,0,0,0,0,0,0,0,0,-1,1504,309,0,0
287,715,0,0,0,0,0,0,0,0,0,-1,1511,309,0,0
294,715,0,0,0,0,0,0,0,0,0,-1,1518,309,0,0
301,715,0,0,0,0,0,0,0,0,0,-1,1525,309,0,0
308,715,0,0,0,0,0,0,0,0,0,-1,1532,309,0,0
315,715,0,0,0,0,0,0,0,0,0,-1,1539,309,0,0
322,715,0,0,0,0,0,0,0,0,0,-1,1546,309,0,0
329,715,0,0,0,0,0,0,0,0,0,-1,1553,309,0,0
336,715,0,0,0,0,0,0,0,0,0,-1,1560,309,0,0
343,715,0,0,0,0,0,0,0,0,0,-1,1567,309,0,0
350,715,0,0,0,0,0,0,0,0,0,-1,1574,309,0,0
357,715,0,0,0,0,0,0,0,0,0,-1,1581,309,0,0
364,715,0,0,0,0,0,0,0,0,0,-1,1588,309,0,0
371,715,0,0,0,0,0,0,0,0,0,-1,1595,309,0,0
378,715,0,0,0,0,0,0,0,0,0,-1,1602,309,0,0
385,715,0,0,0,0,0,0,0,0,0,-1,1609,309,0,0
392,715,0,0,0,0,0,0,0,0,0,-1,1616,309,0,0
399,715,0,0,0,0,0,0,0,0,0,-1,1623,309,0,0
406,715,0,0,0,0,0,0,0,0,0,-1,1630,309,0,0
413,715,0,0,0,0,0,0,0,0,0,-1,1637,309,0,0
420,715,0,0,0,0,0,0,0,0,0,-1,1644,309,0,0
427,715,0,0,0,0,0,0,0,0,0,-1,1651,309,0,0
434,715,0,0,0,0,0,0,0,0,0,-1,1658,309,0,0
441,715,0,0,0,0,0,0,0,0,0,-1,1665,309,0,0
448,715,0,0,0,0,0,0,0,0,0,-1,1672,309,0,0
455,715,0,0,0,0,0,0,0,0,0,-1,1679,309,0,0
462,715,0,0,0,0,0,0,0,0,0,-1,1686,309,0,0
469,715,0,0,0,0,0,0,0,0,0,-1,1693,309,0,0
476,715,0,0,0,0,0,0,0,0,0,-1,1700,309,0,0
483,715,0,0,0,0,0,0,0,0,0,-1,1707,309,0,0
490,715,0,0,0,0,0,0,0,0,0,-1,1714,309,0,0
497,715,0,0,0,0,0,0,0,0,0,-1,1721,309,0,0
504,715,0,0,0,0,0,0,0,0,0,-1,1728,309,0,0
511,715,0,0,0,0,0,0,0,0,0,-1,1735,309,0,0
518,715,0,0,0,0,0,0,0,0,0,-1,1742,309,0,0
525,715,0,0,0,0,0,0,0,0,0,-1,1749,309,0,0
532,715,0,0,0,0,0,0,0,0,0,-1,1756,309,0,0
539,715,0,0,0,0,0,0,0,0,0,-1,1763,309,0,0
546,715,0,0,0,0,0,0,0,0,0,-1,1770,309,0,0
553,715,0,0,0,0,0,0,0,0,0,-1,1777,309,0,0
560,715,0,0,0,0,0,0,0,0,0,-1,1784,309,0,0
567,715,0,0,0,0,0,0,0,0,0,-1,1791,309,0,0
574,715,0,0,0,0,0,0,0,0,0,-1,1798,309,0,0
581,715,0,0,0,0,0,0,0,0,0,-1,1805,309,0,0
588,715,0,0,0,0,0,0,0,0,0,-1,1812,309,0,0
595,715,0,0,0,0,0,0,0,0,0,-1,1819,309,0,0
602,715,0,0,0,0,0,0,0,0,0,-1,1826,309,0,0
609,715,0,0,0,0,0,0,0,0,0,-1,1833,309,0,0
616,715,0,0,0,0,0,0,0,0,0,-1,1840,309,0,0
623,715,0,0,0,0,0,0,0,0,0,-1,1847,309,0,0
630,715,0,0,0,0,0,0,0,0,0,-1,1854,309,0,0
637,715,0,0,0,0,0,0,0,0,0,-1,1861,309,0,0
644,715,0,0,0,0,0,0,0,0,0,-1,1868,309,0,0
651,715,0,0,0,0,0,0,0,0,0,-1,1875,309,0,0
658,715,0,0,0,0,0,0,0,0,0,-1,1882,309,0,0
665,715,0,0,0,0,0,0,0,0,0,-1,1889,309,0,0
672,715,0,0,0,0,0,0,0,0,0,-1,1896,309,0,0
679,715,0,0,0,0,0,0,0,0,0,-1,1903,309,0,0
686,715,0,0,0,0,0,0,0,0,0,-1,1910,309,0,0
693,715,0,0,0,0,0,0,0,0,0,-1,1917,309,0,0
700,715,0,0,0,0,0,0,0,0,0,-1,1924,309,0,0
707,715,0,0,0,0,0,0,0,0,0,-1,1931,309,0,0
714,715,0,0,0,0,0,0,0,0,0,-1,1938,309,0,0
721,715,0,0,0,0,0,0,0,0,0,-1,1945,309,0,0
728,715,0,0,0,0,0,0,0,0,0,-1,1952,309,0,0
735,715,0,0,0,0,0,0,0,0,0,-1,1959,309,0,0
742,715,0,0,0,0,0,0,0,0,0,-1,1966,309,0,0
749,715,0,0,0,0,0,0,0,0,0,-1,1973,309,0,0
756,715,0,0,0,0,0,0,0,0,0,-1,1980,309,0,0
763,715,0,0,0,0,0,0,0,0,0,-1,1987,309,0,0
770,715,0,0,0,0,0,0,0,0,0,-1,1994,309,0,0
777,715,0,0,0,0,0,0,0,0,0,-1,2001,309,0,0
784,715,0,0,0,0,0,0,0,0,0,-1,2008,309,0,0
791,715,0,0,0,0,0,0,0,0,0,-1,2015,309,0,0
798,715,0,0,0,0,0,0,0,0,0,-1,2022,309,0,0
805,715,0,0,0,0,0,0,0,0,0,-1,2029,309,0,0
812,715,0,0,0,0,0,0,0,0,0,-1,2036,309,0,0
-700,708,0,0,0,0,0,0,0,0,0,-1,524,316,0,0
-693,708,0,0,0,0,0,0,0,0,0,-1,531,316,0,0
-686,708,0,0,0,0,0,0,0,0,0,-1,538,316,0,0
-679,708,0,0,0,0,0,0,0,0,0,-1,545,316,0,0
-672,708,0,0,0,0,0,0,0,0,0,-1,552,316,0,0
-665,708,0,0,0,0,0,0,0,0,0,-1,559,316,0,0
-658,708,0,0,0,0,0,0,0,0,0,-1,566,316,0,0
-651,708,0,0,0,0,0,0,0,0,0,-1,573,316,0,0
-644,708,0,0,0,0,0,0,0,0,0,-1,580,316,0,0
-637,708,0,0,0,0,0,0,0,0,0,-1,587,316,0,0
-630,708,0,0,0,0,0,0,0,0,0,-1,594,316,0,0
-623,708,0,0,0,0,0,0,0,0,0,-1,601,316,0,0
-616,708,0,0,0,0,0,0,0,0,0,-1,608,316,0,0
-609,708,0,0,0,0,0,0,0,0,0,-1,615,316,0,0
-602,708,0,0,0,0,0,0,0,0,0,-1,622,316,0,0
-595,708,0,0,0,0,0,0,0,0,0,-1,629,316,0,0
-588,708,0,0,0,0,0,0,0,0,0,-1,636,316,0,0
-581,708,0,0,0,0,0,0,0,0,0,-1,643,316,0,0
-574,708,0,0,0,0,0,0,0,0,0,-1,650,316,0,0
-567,708,0,0,0,0,0,0,0,0,0,-1,657,316,0,0
-560,708,0,0,0,0,0,0,0,0,0,-1,664,316,0,0
-553,708,0,0,0,0,0,0,0,0,0,-1,671,316,0,0
-546,708,0,0,0,0,0,0,0,0,0,-1,678,316,0,0
-539,708,0,0,0,0,0,0,0,0,0,-1,685,316,0,0
-532,708,0,0,0,0,0,0,0,0,0,-1,692,316,0,0
-525,708,0,0,0,0,0,0,0,0,0,-1,699,316,0,0
-518,708,0,0,0,0,0,0,0,0,0,-1,706,316,0,0
-511,708,0,0,0,0,0,0,0,0,0,-1,713,316,0,0
-504,708,0,0,0,0,0,0,0,0,0,-1,720,316,0,0
-497,708,0,0,0,0,0,0,0,0,0,-1,727,316,0,0
-490,708,0,0,0,0,0,0,0,0,0,-1,734,316,0,0
-483,708,0,0,0,0,0,0,0,0,0,-1,741,316,0,0
-476,708,0,0,0,0,0,0,0,0,0,-1,748,316,0,0
-469,708,0,0,0,0,0,0,0,0,0,-1,755,316,0,0
-462,708,0,0,0,0,0,0,0,0,0,-1,762,316,0,0
-455,708,0,0,0,0,0,0,0,0,0,-1,769,316,0,0
-448,708,0,0,0,0,0,0,0,0,0,-1,776,316,0,0
-441,708,0,0,0,0,0,0,0,0,0,-1,783,316,0,0
-434,708,0,0,0,0,0,0,0,0,0,-1,790,316,0,0
-427,708,0,0,0,0,0,0,0,0,0,-1,797,316,0,0
-420,708,0,0,0,0,0,0,0,0,0,-1,804,316,0,0
-413,708,0,0,0,0,0,0,0,0,0,-1,811,316,0,0
-406,708,0,0,0,0,0,0,0,0,0,-1,818,316,0,0
-399,708,0,0,0,0,0,0,0,0,0,-1,825,316,0,0
-392,708,0,0,0,0,0,0,0,0,0,-1,832,316,0,0
-385,708,0,0,0,0,0,0,0,0,0,-1,839,316,0,0
-378,708,0,0,0,0,0,0,0,0,0,-1,846,316,0,0
-371,708,0,0,0,0,0,0,0,0,0,-1,853,316,0,0
-364,708,0,0,0,0,0,0,0,0,0,-1,860,316,0,0
-357,708,0,0,0,0,0,0,0,0,0,-1,867,316,0,0
-350,708,0,0,0,0,0,0,0,0,0,-1,874,316,0,0
-343,708,0,0,0,0,0,0,0,0,0,-1,881,316,0,0
-336,708,0,0,0,0,0,0,0,0,0,-1,888,316,0,0
-329,708,0,0,0,0,0,0,0,0,0,-1,895,316,0,0
-322,708,0,0,0,0,0,0,0,0,0,-1,902,316,0,0
-315,708,0,0,0,0,0,0,0,0,0,-1,909,316,0,0
-308,708,0,0,0,0,0,0,0,0,0,-1,916,316,0,0
-301,708,0,0,0,0,0,0,0,0,0,-1,923,316,0,0
-294,708,0,0,0,0,0,0,0,0,0,-1,930,316,0,0
-287,708,0,0,0,0,0,0,0,0,0,-1,937,316,0,0
-280,708,0,0,0,0,0,0,0,0,0,-1,944,316,0,0
-273,708,0,0,0,0,0,0,0,0,0,-1,951,316,0,0
-266,708,0,0,0,0,0,0,0,0,0,-1,958,316,0,0
-259,708,0,0,0,0,0,0,0,0,0,-1,965,316,0,0
-252,708,0,0,0,0,0,0,0,0,0,-1,972,316,0,0
-245,708,0,0,0,0,0,0,0,0,0,-1,979,316,0,0
-238,708,0,0,0,0,0,0,0,0,0,-1,986,316,0,0
-231,708,0,0,0,0,0,0,0,0,0,-1,993,316,0,0
-224,708,0,0,0,0,0,0,0,0,0,-1,1000,316,0,0
-217,708,0,0,0,0,0,0,0,0,0,-1,1007,316,0,0
-210,708,0,0,0,0,0,0,0,0,0,-1,1014,316,0,0
-203,708,0,0,0,0,0,0,0,0,0,-1,1021,316,0,0
-196,708,0,0,0,0,0,0,0,0,0,-1,1028,316,0,0
-189,708,0,0,0,0,0,0,0,0,0,-1,1035,316,0,0
-182,708,0,0,0,0,0,0,0,0,0,-1,1042,316,0,0
-175,708,0,0,0,0,0,0,0,0,0,-1,1049,316,0,0
-168,708,0,0,0,0,0,0,0,0,0,-1,1056,316,0,0
-161,708,0,0,0,0,0,0,0,0,0,-1,1063,316,0,0
-154,708,0,0,0,0,0,0,0,0,0,-1,1070,316,0,0
-147,708,0,0,0,0,0,0,0,0,0,-1,1077,316,0,0
-140,708,0,0,0,0,0,0,0,0,0,-1,1084,316,0,0
-133,708,0,0,0,0,0,0,0,0,0,-1,1091,316,0,0
-126,708,0,0,0,0,0,0,0,0,0,-1,1098,316,0,0
-119,708,0,0,0,0,0,0,0,0,0,-1,1105,316,0,0
-112,708,0,0,0,0,0,0,0,0,0,-1,1112,316,0,0
-105,708,0,0,0,0,0,0,0,0,0,-1,1119,316,0,0
-98,708,0,0,0,0,0,0,0,0,0,-1,1126,316,0,0
-91,708,0,0,0,0,0,0,0,0,0,-1,1133,316,0,0
-84,708,0,0,0,0,0,0,0,0,0,-1,1140,316,0,0
-77,708,0,0,0,0,0,0,0,0,0,-1,1147,316,0,0
-70,708,0,0,0,0,0,0,0,0,0,-1,1154,316,0,0
-63,708,0,0,0,0,0,0,0,0,0,-1,1161,316,0,0
-56,708,0,0,0,0,0,0,0,0,0,-1,1168,316,0,0
-49,708,0,0,0,0,0,0,0,0,0,-1,1175,316,0,0
-42,708,0,0,0,0,0,0,0,0,0,-1,1182,316,0,0
-35,708,-2.71204,-6.31558,0,0,0,0,0,0,0,-1,1189,316,-2.712,6.3156
-28,708,-2.92371,-5.53253,0,0,0,0,0,0,0,-1,1196,316,-2.92375,5.53254
-21,708,-10.6349,-7.11816,0,0,0,0,0,0,0,-1,1203,316,-10.6349,7.11818
-14,708,1.34766,-17.1283,0,0,0,0,0,0,0,-1,1210,316,1.34766,17.1283
-7,708,2.56458,-17.0468,0,0,0,0,0,0,0,-1,1217,316,2.56461,17.0468
0,708,3.58643,-16.5573,0,0,0,0,0,0,0,-1,1224,316,3.58645,16.5573
7,708,2.10547,-15.1113,0,0,0,0,0,0,0,-1,1231,316,2.10547,15.1113
14,708,0.807617,-19.0682,0,0,0,0,0,0,0,-1,1238,316,0.807657,19.0682
21,708,1.39502,-18.5597,0.0589958,0.0619928,0.00642097,0.0670878,0.0539008,0.900033,0.0410419,0.0455982,1245,316,1.39504,18.5597
28,708,1.44714,-17.9635,0.0443068,0.064336,0.00679142,0.0664216,0.0422212,1.27284,0.0388162,0.0492514,1252,316,1.44717,17.9635
35,708,1.82056,-17.5074,0.0327925,0.0634204,0.00683793,0.0648777,0.0313352,1.36082,0.0374644,0.0476256,1259,316,1.82059,17.5074
42,708,1.54736,-16.6672,0.0218732,0.0615604,0.00692248,0.0627332,0.0207004,1.40297,0.0369104,0.0440053,1266,316,1.54731,16.6672
49,708,2.12952,-15.6057,0,0,0,0,0,0,0,-1,1273,316,2.12957,15.6057
56,708,2.12158,-14.8079,0.00942637,0.0500127,0.0027474,0.0501978,0.00924123,1.50351,0.0308497,0.0447743,1280,316,2.12157,14.8079
63,708,3.18286,-14.4105,0.00943209,0.0398511,-0.00162061,0.0399372,0.009346,-1.51772,0.0241208,0.0410965,1287,316,3.18287,14.4105
70,708,2.94507,-14.4674,0.00879148,0.0305016,-0.00763164,0.0329158,0.00637724,-1.26441,0.0201573,0.0413583,1294,316,2.9451,14.4674
77,708,2.57849,-14.4724,0.00780608,0.0210518,-0.0144758,0.0303478,-0.00148995,-0.99994,0.0207464,0.0421988,1301,316,2.57851,14.4724
84,708,2.19739,-14.408,0,0,0,0,0,0,0,-1,1308,316,2.19739,14.408
91,708,1.91699,-14.3843,0,0,0,0,0,0,0,-1,1315,316,1.91696,14.3844
98,708,1.04712,-14.6353,0,0,0,0,0,0,0,-1,1322,316,1.04712,14.6352
105,708,2.06213,-15.6491,0,0,0,0,0,0,0,-1,1329,316,2.0621,15.6491
112,708,1.52295,-15.576,0,0,0,0,0,0,0,-1,1336,316,1.52291,15.576
119,708,1.50635,-15.5123,-0.000551658,-0.00589034,-0.0523736,0.0492206,-0.0556626,-0.759937,0.0605924,0.0407748,1343,316,1.50641,15.5123
126,708,1.54407,-15.725,-0.000590834,-0.00791676,-0.0554908,0.0513577,-0.0598653,-0.752441,0.0642773,0.0423403,1350,316,1.54409,15.725
133,708,1.5592,-15.5341,-0.00346709,-0.0104147,-0.0558067,0.0489738,-0.0628556,-0.754315,0.0647304,0.0479524,1357,316,1.55922,15.5341
140,708,2.10181,-15.3078,0,0,0,0,0,0,0,-1,1364,316,2.10183,15.3078
147,708,2.04004,-15.4232,0,0,0,0,0,0,0,-1,1371,316,2.04003,15.4232
154,708,0,0,0,0,0,0,0,0,0,-1,1378,316,0,0
161,708,0,0,0,0,0,0,0,0,0,-1,1385,316,0,0
168,708,0,0,0,0,0,0,0,0,0,-1,1392,316,0,0
175,708,0,0,0,0,0,0,0,0,0,-1,1399,316,0,0
182,708,0,0,0,0,0,0,0,0,0,-1,1406,316,0,0
189,708,0,0,0,0,0,0,0,0,0,-1,1413,316,0,0
196,708,0,0,0,0,0,0,0,0,0,-1,1420,316,0,0
203,708,0,0,0,0,0,0,0,0,0,-1,1427,316,0,0
210,708,0,0,0,0,0,0,0,0,0,-1,1434,316,0,0
217,708,0,0,0,0,0,0,0,0,0,-1,1441,316,0,0
224,708,0,0,0,0,0,0,0,0,0,-1,1448,316,0,0
231,708,0,0,0,0,0,0,0,0,0,-1,1455,316,0,0
238,708,0,0,0,0,0,0,0,0,0,-1,1462,316,0,0
245,708,0,0,0,0,0,0,0,0,0,-1,1469,316,0,0
252,708,0,0,0,0,0,0,0,0,0,-1,1476,316,0,0
259,708,0,0,0,0,0,0,0,0,0,-1,1483,316,0,0
266,708,0,0,0,0,0,0,0,0,0,-1,1490,316,0,0
273,708,0,0,0,0,0,0,0,0,0,-1,1497,316,0,0
280,708,0,0,0,0,0,0,0,0,0,-1,1504,316,0,0
287,708,0,0,0,0,0,0,0,0,0,-1,1511,316,0,0
294,708,0,0,0,0,0,0,0,0,0,-1,1518,316,0,0
301,708,0,0,0,0,0,0,0,0,0,-1,1525,316,0,0
308,708,0,0,0,0,0,0,0,0,0,-1,1532,316,0,0
315,708,0,0,0,0,0,0,0,0,0,-1,1539,316,0,0
322,708,0,0,0,0,0,0,0,0,0,-1,1546,316,0,0
329,708,0,0,0,0,0,0,0,0,0,-1,1553,316,0,0
336,708,0,0,0,0,0,0,0,0,0,-1,1560,316,0,0
343,708,0,0,0,0,0,0,0,0,0,-1,1567,316,0,0
350,708,0,0,0,0,0,0,0,0,0,-1,1574,316,0,0
357,708,0,0,0,0,0,0,0,0,0,-1,1581,316,0,0
364,708,0,0,0,0,0,0,0,0,0,-1,1588,316,0,0
371,708,0,0,0,0,0,0,0,0,0,-1,1595,316,0,0
378,708,0,0,0,0,0,0,0,0,0,-1,1602,316,0,0
385,708,0,0,0,0,0,0,0,0,0,-1,1609,316,0,0
392,708,0,0,0,0,0,0,0,0,0,-1,1616,316,0,0
399,708,0,0,0,0,0,0,0,0,0,-1,1623,316,0,0
406,708,0,0,0,0,0,0,0,0,0,-1,1630,316,0,0
413,708,0,0,0,0,0,0,0,0,0,-1,1637,316,0,0
420,708,0,0,0,0,0,0,0,0,0,-1,1644,316,0,0
427,708,0,0,0,0,0,0,0,0,0,-1,1651,316,0,0
434,708,0,0,0,0,0,0,0,0,0,-1,1658,316,0,0
441,708,0,0,0,0,0,0,0,0,0,-1,1665,316,0,0
448,708,0,0,0,0,0,0,0,0,0,-1,1672,316,0,0
455,708,0,0,0,0,0,0,0,0,0,-1,1679,316,0,0
462,708,0,0,0,0,0,0,0,0,0,-1,1686,316,0,0
469,708,0,0,0,0,0,0,0,0,0,-1,1693,316,0,0
476,708,0,0,0,0,0,0,0,0,0,-1,1700,316,0,0
483,708,0,0,0,0,0,0,0,0,0,-1,1707,316,0,0
490,708,0,0,0,0,0,0,0,0,0,-1,1714,316,0,0
497,708,0,0,0,0,0,0,0,0,0,-1,1721,316,0,0
504,708,0,0,0,0,0,0,0,0,0,-1,1728,316,0,0
511,708,0,0,0,0,0,0,0,0,0,-1,1735,316,0,0
518,708,0,0,0,0,0,0,0,0,0,-1,1742,316,0,0
525,708,0,0,0,0,0,0,0,0,0,-1,1749,316,0,0
532,708,0,0,0,0,0,0,0,0,0,-1,1756,316,0,0
539,708,0,0,0,0,0,0,0,0,0,-1,1763,316,0,0
546,708,0,0,0,0,0,0,0,0,0,-1,1770,316,0,0
553,708,0,0,0,0,0,0,0,0,0,-1,1777,316,0,0
560,708,0,0,0,0,0,0,0,0,0,-1,1784,316,0,0
567,708,0,0,0,0,0,0,0,0,0,-1,1791,316,0,0
574,708,0,0,0,0,0,0,0,0,0,-1,1798,316,0,0
581,708,0,0,0,0,0,0,0,0,0,-1,1805,316,0,0
588,708,0,0,0,0,0,0,0,0,0,-1,1812,316,0,0
595,708,0,0,0,0,0,0,0,0,0,-1,1819,316,0,0
602,708,0,0,0,0,0,0,0,0,0,-1,1826,316,0,0
609,708,0,0,0,0,0,0,0,0,0,-1,1833,316,0,0
616,708,0,0,0,0,0,0,0,0,0,-1,1840,316,0,0
623,708,0,0,0,0,0,0,0,0,0,-1,1847,316,0,0
630,708,0,0,0,0,0,0,0,0,0,-1,1854,316,0,0
637,708,0,0,0,0,0,0,0,0,0,-1,1861,316,0,0
644,708,0,0,0,0,0,0,0,0,0,-1,1868,316,0,0
651,708,0,0,0,0,0,0,0,0,0,-1,1875,316,0,0
658,708,0,0,0,0,0,0,0,0,0,-1,1882,316,0,0
665,708,0,0,0,0,0,0,0,0,0,-1,1889,316,0,0
672,708,0,0,0,0,0,0,0,0,0,-1,1896,316,0,0
679,708,0,0,0,0,0,0,0,0,0,-1,1903,316,0,0
686,708,0,0,0,0,0,0,0,0,0,-1,1910,316,0,0
693,708,0,0,0,0,0,0,0,0,0,-1,1917,316,0,0
700,708,0,0,0,0,0,0,0,0,0,-1,1924,316,0,0
707,708,0,0,0,0,0,0,0,0,0,-1,1931,316,0,0
714,708,0,0,0,0,0,0,0,0,0,-1,1938,316,0,0
721,708,0,0,0,0,0,0,0,0,0,-1,1945,316,0,0
728,708,0,0,0,0,0,0,0,0,0,-1,1952,316,0,0
735,708,0,0,0,0,0,0,0,0,0,-1,1959,316,0,0
742,708,0,0,0,0,0,0,0,0,0,-1,1966,316,0,0
749,708,0,0,0,0,0,0,0,0,0,-1,1973,316,0,0
756,708,0,0,0,0,0,0,0,0,0,-1,1980,316,0,0
763,708,0,0,0,0,0,0,0,0,0,-1,1987,316,0,0
770,708,0,0,0,0,0,0,0,0,0,-1,1994,316,0,0
777,708,0,0,0,0,0,0,0,0,0,-1,2001,316,0,0
784,708,0,0,0,0,0,0,0,0,0,-1,2008,316,0,0
791,708,0,0,0,0,0,0,0,0,0,-1,2015,316,0,0
798,708,0,0,0,0,0,0,0,0,0,-1,2022,316,0,0
805,708,0,0,0,0,0,0,0,0,0,-1,2029,316,0,0
812,708,0,0,0,0,0,0,0,0,0,-1,2036,316,0,0
-700,701,0,0,0,0,0,0,0,0,0,-1,524,323,0,0
-693,701,0,0,0,0,0,0,0,0,0,-1,531,323,0,0
-686,701,0,0,0,0,0,0,0,0,0,-1,538,323,0,0
-679,701,0,0,0,0,0,0,0,0,0,-1,545,323,0,0
-672,701,0,0,0,0,0,0,0,0,0,-1,552,323,0,0
-665,701,0,0,0,0,0,0,0,0,0,-1,559,323,0,0
-658,701,0,0,0,0,0,0,0,0,0,-1,566,323,0,0
-651,701,0,0,0,0,0,0,0,0,0,-1,573,323,0,0
-644,701,0,0,0,0,0,0,0,0,0,-1,580,323,0,0
-637,701,0,0,0,0,0,0,0,0,0,-1,587,323,0,0
-630,701,0,0,0,0,0,0,0,0,0,-1,594,323,0,0
-623,701,0,0,0,0,0,0,0,0,0,-1,601,323,0,0
-616,701,0,0,0,0,0,0,0,0,0,-1,608,323,0,0
-609,701,0,0,0,0,0,0,0,0,0,-1,615,323,0,0
-602,701,0,0,0,0,0,0,0,0,0,-1,622,323,0,0
-595,701,0,0,0,0,0,0,0,0,0,-1,629,323,0,0
-588,701,0,0,0,0,0,0,0,0,0,-1,636,323,0,0
-581,701,0,0,0,0,0,0,0,0,0,-1,643,323,0,0
-574,701,0,0,0,0,0,0,0,0,0,-1,650,323,0,0
-567,701,0,0,0,0,0,0,0,0,0,-1,657,323,0,0
-560,701,0,0,0,0,0,0,0,0,0,-1,664,323,0,0
-553,701,0,0,0,0,0,0,0,0,0,-1,671,323,0,0
-546,701,0,0,0,0,0,0,0,0,0,-1,678,323,0,0
-539,701,0,0,0,0,0,0,0,0,0,-1,685,323,0,0
-532,701,0,0,0,0,0,0,0,0,0,-1,692,323,0,0
-525,701,0,0,0,0,0,0,0,0,0,-1,699,323,0,0
-518,701,0,0,0,0,0,0,0,0,0,-1,706,323,0,0
-511,701,0,0,0,0,0,0,0,0,0,-1,713,323,0,0
-504,701,0,0,0,0,0,0,0,0,0,-1,720,323,0,0
-497,701,0,0,0,0,0,0,0,0,0,-1,727,323,0,0
-490,701,0,0,0,0,0,0,0,0,0,-1,734,323,0,0
-483,701,0,0,0,0,0,0,0,0,0,-1,741,323,0,0
-476,701,0,0,0,0,0,0,0,0,0,-1,748,323,0,0
-469,701,0,0,0,0,0,0,0,0,0,-1,755,323,0,0
-462,701,0,0,0,0,0,0,0,0,0,-1,762,323,0,0
-455,701,0,0,0,0,0,0,0,0,0,-1,769,323,0,0
-448,701,0,0,0,0,0,0,0,0,0,-1,776,323,0,0
-441,701,0,0,0,0,0,0,0,0,0,-1,783,323,0,0
-434,701,0,0,0,0,0,0,0,0,0,-1,790,323,0,0
-427,701,0,0,0,0,0,0,0,0,0,-1,797,323,0,0
-420,701,0,0,0,0,0,0,0,0,0,-1,804,323,0,0
-413,701,0,0,0,0,0,0,0,0,0,-1,811,323,0,0
-406,701,0,0,0,0,0,0,0,0,0,-1,818,323,0,0
-399,701,0,0,0,0,0,0,0,0,0,-1,825,323,0,0
-392,701,0,0,0,0,0,0,0,0,0,-1,832,323,0,0
-385,701,0,0,0,0,0,0,0,0,0,-1,839,323,0,0
-378,701,0,0,0,0,0,0,0,0,0,-1,846,323,0,0
-371,701,0,0,0,0,0,0,0,0,0,-1,853,323,0,0
-364,701,0,0,0,0,0,0,0,0,0,-1,860,323,0,0
-357,701,0,0,0,0,0,0,0,0,0,-1,867,323,0,0
-350,701,0,0,0,0,0,0,0,0,0,-1,874,323,0,0
-343,701,0,0,0,0,0,0,0,0,0,-1,881,323,0,0
-336,701,0,0,0,0,0,0,0,0,0,-1,888,323,0,0
-329,701,0,0,0,0,0,0,0,0,0,-1,895,323,0,0
-322,701,0,0,0,0,0,0,0,0,0,-1,902,323,0,0
-315,701,0,0,0,0,0,0,0,0,0,-1,909,323,0,0
-308,701,0,0,0,0,0,0,0,0,0,-1,916,323,0,0
-301,701,0,0,0,0,0,0,0,0,0,-1,923,323,0,0
-294,701,0,0,0,0,0,0,0,0,0,-1,930,323,0,0
-287,701,0,0,0,0,0,0,0,0,0,-1,937,323,0,0
-280,701,0,0,0,0,0,0,0,0,0,-1,944,323,0,0
-273,701,0,0,0,0,0,0,0,0,0,-1,951,323,0,0
-266,701,0,0,0,0,0,0,0,0,0,-1,958,323,0,0
-259,701,0,0,0,0,0,0,0,0,0,-1,965,323,0,0
-252,701,0,0,0,0,0,0,0,0,0,-1,972,323,0,0
-245,701,0,0,0,0,0,0,0,0,0,-1,979,323,0,0
-238,701,0,0,0,0,0,0,0,0,0,-1,986,323,0,0
-231,701,0,0,0,0,0,0,0,0,0,-1,993,323,0,0
-224,701,0,0,0,0,0,0,0,0,0,-1,1000,323,0,0
-217,701,0,0,0,0,0,0,0,0,0,-1,1007,323,0,0
-210,701,0,0,0,0,0,0,0,0,0,-1,1014,323,0,0
-203,701,0,0,0,0,0,0,0,0,0,-1,1021,323,0,0
-196,701,0,0,0,0,0,0,0,0,0,-1,1028,323,0,0
-189,701,0,0,0,0,0,0,0,0,0,-1,1035,323,0,0
-182,701,0,0,0,0,0,0,0,0,0,-1,1042,323,0,0
-175,701,0,0,0,0,0,0,0,0,0,-1,1049,323,0,0
-168,701,0,0,0,0,0,0,0,0,0,-1,1056,323,0,0
-161,701,0,0,0,0,0,0,0,0,0,-1,1063,323,0,0
-154,701,0,0,0,0,0,0,0,0,0,-1,1070,323,0,0
-147,701,0,0,0,0,0,0,0,0,0,-1,1077,323,0,0
-140,701,0,0,0,0,0,0,0,0,0,-1,1084,323,0,0
-133,701,0,0,0,0,0,0,0,0,0,-1,1091,323,0,0
-126,701,0,0,0,0,0,0,0,0,0,-1,1098,323,0,0
-119,701,0,0,0,0,0,0,0,0,0,-1,1105,323,0,0
-112,701,0,0,0,0,0,0,0,0,0,-1,1112,323,0,0
-105,701,0,0,0,0,0,0,0,0,0,-1,1119,323,0,0
-98,701,0,0,0,0,0,0,0,0,0,-1,1126,323,0,0
-91,701,0,0,0,0,0,0,0,0,0,-1,1133,323,0,0
-84,701,0,0,0,0,0,0,0,0,0,-1,1140,323,0,0
-77,701,0,0,0,0,0,0,0,0,0,-1,1147,323,0,0
-70,701,-2.36731,-1.49271,0,0,0,0,0,0,0,-1,1154,323,-2.36729,1.4927
-63,701,-2.479,-0.295959,0,0,0,0,0,0,0,-1,1161,323,-2.47895,0.295961
-56,701,-0.420166,-0.101776,0,0,0,0,0,0,0,-1,1168,323,-0.420119,0.101777
-49,701,-1.09021,-0.155762,0,0,0,0,0,0,0,-1,1175,323,-1.09024,0.155768
-42,701,-0.210327,-0.299133,0,0,0,0,0,0,0,-1,1182,323,-0.210379,0.29914
-35,701,-2.9635,-7.98676,0,0,0,0,0,0,0,-1,1189,323,-2.9635,7.98676
-28,701,-6.64417,-5.4917,0,0,0,0,0,0,0,-1,1196,323,-6.64411,5.4917
-21,701,0.526123,-16.8483,0,0,0,0,0,0,0,-1,1203,323,0.526111,16.8483
-14,701,1.62012,-16.6431,0.132945,-0.0122521,-0.00147886,0.132961,-0.0122672,-0.0101838,0.0929995,0.0469301,1210,323,1.62008,16.6431
-7,701,2.6925,-16.3941,0.111419,0.00607626,0.00119646,0.111432,0.00606268,0.0113559,0.0723522,0.0447484,1217,323,2.69246,16.3941
0,701,3.82874,-16.3902,0.0911637,0.0224513,0.00344313,0.0913358,0.0222792,0.0499425,0.0549897,0.0499352,1224,323,3.82878,16.3902
7,701,1.4375,-21.0085,0,0,0,0,0,0,0,-1,1231,323,1.43751,21.0085
14,701,1.64429,-20.3474,0.0591491,0.0443575,0.00646409,0.0615759,0.0419308,0.359138,0.0363187,0.0462878,1238,323,1.64428,20.3474
21,701,2.02576,-19.5889,0.0450903,0.0489095,0.00699868,0.0542544,0.0397454,0.918581,0.0324337,0.0467709,1245,323,2.02574,19.5889
28,701,2.30725,-18.8029,0.0334101,0.0518403,0.00723326,0.05434,0.0309103,1.23805,0.0314722,0.0480293,1252,323,2.30723,18.8029
35,701,2.38184,-18.0666,0.0245372,0.0523363,0.0073201,0.054146,0.0227275,1.32843,0.0313952,0.0459448,1259,323,2.38186,18.0666
42,701,2.44043,-17.2654,0.0159483,0.0518155,0.00735799,0.0532663,0.0144975,1.37612,0.0317997,0.0455836,1266,323,2.4404,17.2654
49,701,2.45483,-16.1394,0.00991076,0.0490205,0.00615388,0.049966,0.00896531,1.41835,0.0307608,0.0446947,1273,323,2.45478,16.1394
56,701,2.52515,-15.1905,0.00674862,0.0450103,0.00374433,0.0453733,0.00638564,1.47416,0.028361,0.0417559,1280,323,2.52511,15.1905
63,701,2.74268,-14.4931,0,0,0,0,0,0,0,-1,1287,323,2.74265,14.4931
70,701,2.86841,-14.5001,0.0080876,0.0308914,-0.00400485,0.0315743,0.00740471,-1.40191,0.0190667,0.0422926,1294,323,2.86836,14.5001
77,701,2.63013,-14.8408,0.00848067,0.0237463,-0.00927822,0.0281279,0.00409912,-1.1296,0.0175459,0.0446154,1301,323,2.63008,14.8408
84,701,2.28333,-14.8654,0,0,0,0,0,0,0,-1,1308,323,2.28338,14.8653
91,701,2.05017,-15.1933,0,0,0,0,0,0,0,-1,1315,323,2.05018,15.1933
98,701,2.19604,-15.3046,0,0,0,0,0,0,0,-1,1322,323,2.19602,15.3046
105,701,2.50037,-15.4413,0,0,0,0,0,0,0,-1,1329,323,2.50032,15.4413
112,701,1.97937,-15.4296,0,0,0,0,0,0,0,-1,1336,323,1.97939,15.4296
119,701,2.34155,-15.5631,0.00275166,0.00256442,-0.0388256,0.0414838,-0.0361677,-0.784193,0.0448671,0.0395771,1343,323,2.34153,15.5631
126,701,2.30017,-15.5819,0.00157079,0.000783661,-0.0412271,0.0424062,-0.0400518,-0.780625,0.0476136,0.0450325,1350,323,2.30018,15.5819
133,701,2.21155,-15.428,-0.00163373,-0.0013213,-0.0420029,0.0405257,-0.0434807,-0.787258,0.0485111,0.0479529,1357,323,2.21149,15.428
140,701,2.1665,-15.5118,-0.00649191,-0.00216209,-0.0415576,0.0372869,-0.0459409,-0.811422,0.0481381,0.0496986,1364,323,2.16655,15.5118
147,701,2.20068,-15.502,-0.0102642,-0.00505873,-0.0415453,0.0339653,-0.0492883,-0.816682,0.0483371,0.0484531,1371,323,2.20063,15.5021
154,701,2.25232,-15.8714,0,0,0,0,0,0,0,-1,1378,323,2.25236,15.8714
161,701,2.35474,-16.3341,0,0,0,0,0,0,0,-1,1385,323,2.35478,16.3341
168,701,6.88513,-0.0237427,0,0,0,0,0,0,0,-1,1392,323,6.88517,0.0237498
175,701,6.94556,0.0693054,0,0,0,0,0,0,0,-1,1399,323,6.94555,-0.0692958
182,701,8.80652,5.42807,0,0,0,0,0,0,0,-1,1406,323,8.8065,-5.42808
189,701,8.58081,4.24493,0,0,0,0,0,0,0,-1,1413,323,8.58082,-4.24494
196,701,0,0,0,0,0,0,0,0,0,-1,1420,323,0,0
203,701,0,0,0,0,0,0,0,0,0,-1,1427,323,0,0
210,701,0,0,0,0,0,0,0,0,0,-1,1434,323,0,0
217,701,0,0,0,0,0,0,0,0,0,-1,1441,323,0,0
224,701,0,0,0,0,0,0,0,0,0,-1,1448,323,0,0
231,701,0,0,0,0,0,0,0,0,0,-1,1455,323,0,0
238,701,0,0,0,0,0,0,0,0,0,-1,1462,323,0,0
245,701,0,0,0,0,0,0,0,0,0,-1,1469,323,0,0
252,701,0,0,0,0,0,0,0,0,0,-1,1476,323,0,0
259,701,0,0,0,0,0,0,0,0,0,-1,1483,323,0,0
266,701,0,0,0,0,0,0,0,0,0,-1,1490,323,0,0
273,701,0,0,0,0,0,0,0,0,0,-1,1497,323,0,0
280,701,0,0,0,0,0,0,0,0,0,-1,1504,323,0,0
287,701,0,0,0,0,0,0,0,0,0,-1,1511,323,0,0
294,701,0,0,0,0,0,0,0,0,0,-1,1518,323,0,0
301,701,0,0,0,0,0,0,0,0,0,-1,1525,323,0,0
308,701,0,0,0,0,0,0,0,0,0,-1,1532,323,0,0
315,701,0,0,0,0,0,0,0,0,0,-1,1539,323,0,0
322,701,0,0,0,0,0,0,0,0,0,-1,1546,323,0,0
329,701,0,0,0,0,0,0,0,0,0,-1,1553,323,0,0
336,701,0,0,0,0,0,0,0,0,0,-1,1560,323,0,0
343,701,0,0,0,0,0,0,0,0,0,-1,1567,323,0,0
350,701,0,0,0,0,0,0,0,0,0,-1,1574,323,0,0
357,701,0,0,0,0,0,0,0,0,0,-1,1581,323,0,0
364,701,0,0,0,0,0,0,0,0,0,-1,1588,323,0,0
371,701,0,0,0,0,0,0,0,0,0,-1,1595,323,0,0
378,701,0,0,0,0,0,0,0,0,0,-1,1602,323,0,0
385,701,0,0,0,0,0,0,0,0,0,-1,1609,323,0,0
392,701,0,0,0,0,0,0,0,0,0,-1,1616,323,0,0
399,701,0,0,0,0,0,0,0,0,0,-1,1623,323,0,0
406,701,0,0,0,0,0,0,0,0,0,-1,1630,323,0,0
413,701,0,0,0,0,0,0,0,0,0,-1,1637,323,0,0
420,701,0,0,0,0,0,0,0,0,0,-1,1644,323,0,0
427,701,0,0,0,0,0,0,0,0,0,-1,1651,323,0,0
434,701,0,0,0,0,0,0,0,0,0,-1,1658,323,0,0
441,701,0,0,0,0,0,0,0,0,0,-1,1665,323,0,0
448,701,0,0,0,0,0,0,0,0,0,-1,1672,323,0,0
455,701,0,0,0,0,0,0,0,0,0,-1,1679,323,0,0
462,701,0,0,0,0,0,0,0,0,0,-1,1686,323,0,0
469,701,0,0,0,0,0,0,0,0,0,-1,1693,323,0,0
476,701,0,0,0,0,0,0,0,0,0,-1,1700,323,0,0
483,701,0,0,0,0,0,0,0,0,0,-1,1707,323,0,0
490,701,0,0,0,0,0,0,0,0,0,-1,1714,323,0,0
497,701,0,0,0,0,0,0,0,0,0,-1,1721,323,0,0
504,701,0,0,0,0,0,0,0,0,0,-1,1728,323,0,0
511,701,0,0,0,0,0,0,0,0,0,-1,1735,323,0,0
518,701,0,0,0,0,0,0,0,0,0,-1,1742,323,0,0
525,701,0,0,0,0,0,0,0,0,0,-1,1749,323,0,0
532,701,0,0,0,0,0,0,0,0,0,-1,1756,323,0,0
539,701,0,0,0,0,0,0,0,0,0,-1,1763,323,0,0
546,701,0,0,0,0,0,0,0,0,0,-1,1770,323,0,0
553,701,0,0,0,0,0,0,0,0,0,-1,1777,323,0,0
560,701,0,0,0,0,0,0,0,0,0,-1,1784,323,0,0
567,701,0,0,0,0,0,0,0,0,0,-1,1791,323,0,0
574,701,0,0,0,0,0,0,0,0,0,-1,1798,323,0,0
581,701,0,0,0,0,0,0,0,0,0,-1,1805,323,0,0
588,701,0,0,0,0,0,0,0,0,0,-1,1812,323,0,0
595,701,0,0,0,0,0,0,0,0,0,-1,1819,323,0,0
602,701,0,0,0,0,0,0,0,0,0,-1,1826,323,0,0
609,701,0,0,0,0,0,0,0,0,0,-1,1833,323,0,0
616,701,0,0,0,0,0,0,0,0,0,-1,1840,323,0,0
623,701,0,0,0,0,0,0,0,0,0,-1,1847,323,0,0
630,701,0,0,0,0,0,0,0,0,0,-1,1854,323,0,0
637,701,0,0,0,0,0,0,0,0,0,-1,1861,323,0,0
644,701,0,0,0,0,0,0,0,0,0,-1,1868,323,0,0
651,701,0,0,0,0,0,0,0,0,0,-1,1875,323,0,0
658,701,0,0,0,0,0,0,0,0,0,-1,1882,323,0,0
665,701,0,0,0,0,0,0,0,0,0,-1,1889,323,0,0
672,701,0,0,0,0,0,0,0,0,0,-1,1896,323,0,0
679,701,0,0,0,0,0,0,0,0,0,-1,1903,323,0,0
686,701,0,0,0,0,0,0,0,0,0,-1,1910,323,0,0
693,701,0,0,0,0,0,0,0,0,0,-1,1917,323,0,0
700,701,0,0,0,0,0,0,0,0,0,-1,1924,323,0,0
707,701,0,0,0,0,0,0,0,0,0,-1,1931,323,0,0
714,701,0,0,0,0,0,0,0,0,0,-1,1938,323,0,0
721,701,0,0,0,0,0,0,0,0,0,-1,1945,323,0,0
728,701,0,0,0,0,0,0,0,0,0,-1,1952,323,0,0
735,701,0,0,0,0,0,0,0,0,0,-1,1959,323,0,0
742,701,0,0,0,0,0,0,0,0,0,-1,1966,323,0,0
749,701,0,0,0,0,0,0,0,0,0,-1,1973,323,0,0
756,701,0,0,0,0,0,0,0,0,0,-1,1980,323,0,0
763,701,0,0,0,0,0,0,0,0,0,-1,1987,323,0,0
770,701,0,0,0,0,0,0,0,0,0,-1,1994,323,0,0
777,701,0,0,0,0,0,0,0,0,0,-1,2001,323,0,0
784,701,0,0,0,0,0,0,0,0,0,-1,2008,323,0,0
791,701,0,0,0,0,0,0,0,0,0,-1,2015,323,0,0
798,701,0,0,0,0,0,0,0,0,0,-1,2022,323,0,0
805,701,0,0,0,0,0,0,0,0,0,-1,2029,323,0,0
812,701,0,0,0,0,0,0,0,0,0,-1,2036,323,0,0
-700,694,0,0,0,0,0,0,0,0,0,-1,524,330,0,0
-693,694,0,0,0,0,0,0,0,0,0,-1,531,330,0,0
-686,694,0,0,0,0,0,0,0,0,0,-1,538,330,0,0
-679,694,0,0,0,0,0,0,0,0,0,-1,545,330,0,0
-672,694,0,0,0,0,0,0,0,0,0,-1,552,330,0,0
-665,694,0,0,0,0,0,0,0,0,0,-1,559,330,0,0
-658,694,0,0,0,0,0,0,0,0,0,-1,566,330,0,0
-651,694,0,0,0,0,0,0,0,0,0,-1,573,330,0,0
-644,694,0,0,0,0,0,0,0,0,0,-1,580,330,0,0
-637,694,0,0,0,0,0,0,0,0,0,-1,587,330,0,0
-630,694,0,0,0,0,0,0,0,0,0,-1,594,330,0,0
-623,694,0,0,0,0,0,0,0,0,0,-1,601,330,0,0
-616,694,0,0,0,0,0,0,0,0,0,-1,608,330,0,0
-609,694,0,0,0,0,0,0,0,0,0,-1,615,330,0,0
-602,694,0,0,0,0,0,0,0,0,0,-1,622,330,0,0
-595,694,0,0,0,0,0,0,0,0,0,-1,629,330,0,0
-588,694,0,0,0,0,0,0,0,0,0,-1,636,330,0,0
-581,694,0,0,0,0,0,0,0,0,0,-1,643,330,0,0
-574,694,0,0,0,0,0,0,0,0,0,-1,650,330,0,0
-567,694,0,0,0,0,0,0,0,0,0,-1,657,330,0,0
-560,694,0,0,0,0,0,0,0,0,0,-1,664,330,0,0
-553,694,0,0,0,0,0,0,0,0,0,-1,671,330,0,0
-546,694,0,0,0,0,0,0,0,0,0,-1,678,330,0,0
-539,694,0,0,0,0,0,0,0,0,0,-1,685,330,0,0
-532,694,0,0,0,0,0,0,0,0,0,-1,692,330,0,0
-525,694,0,0,0,0,0,0,0,0,0,-1,699,330,0,0
-518,694,0,0,0,0,0,0,0,0,0,-1,706,330,0,0
-511,694,0,0,0,0,0,0,0,0,0,-1,713,330,0,0
-504,694,0,0,0,0,0,0,0,0,0,-1,720,330,0,0
-497,694,0,0,0,0,0,0,0,0,0,-1,727,330,0,0
-490,694,0,0,0,0,0,0,0,0,0,-1,734,330,0,0
-483,694,0,0,0,0,0,0,0,0,0,-1,741,330,0,0
-476,694,0,0,0,0,0,0,0,0,0,-1,748,330,0,0
-469,694,0,0,0,0,0,0,0,0,0,-1,755,330,0,0
-462,694,0,0,0,0,0,0,0,0,0,-1,762,330,0,0
-455,694,0,0,0,0,0,0,0,0,0,-1,769,330,0,0
-448,694,0,0,0,0,0,0,0,0,0,-1,776,330,0,0
-441,694,0,0,0,0,0,0,0,0,0,-1,783,330,0,0
-434,694,0,0,0,0,0,0,0,0,0,-1,790,330,0,0
-427,694,0,0,0,0,0,0,0,0,0,-1,797,330,0,0
-420,694,0,0,0,0,0,0,0,0,0,-1,804,330,0,0
-413,694,0,0,0,0,0,0,0,0,0,-1,811,330,0,0
-406,694,0,0,0,0,0,0,0,0,0,-1,818,330,0,0
-399,694,0,0,0,0,0,0,0,0,0,-1,825,330,0,0
-392,694,0,0,0,0,0,0,0,0,0,-1,832,330,0,0
-385,694,0,0,0,0,0,0,0,0,0,-1,839,330,0,0
-378,694,0,0,0,0,0,0,0,0,0,-1,846,330,0,0
-371,694,0,0,0,0,0,0,0,0,0,-1,853,330,0,0
-364,694,0,0,0,0,0,0,0,0,0,-1,860,330,0,0
-357,694,0,0,0,0,0,0,0,0,0,-1,867,330,0,0
-350,694,0,0,0,0,0,0,0,0,0,-1,874,330,0,0
-343,694,0,0,0,0,0,0,0,0,0,-1,881,330,0,0
-336,694,0,0,0,0,0,0,0,0,0,-1,888,330,0,0
-329,694,0,0,0,0,0,0,0,0,0,-1,895,330,0,0
-322,694,0,0,0,0,0,0,0,0,0,-1,902,330,0,0
-315,694,0,0,0,0,0,0,0,0,0,-1,909,330,0,0
-308,694,0,0,0,0,0,0,0,0,0,-1,916,330,0,0
-301,694,0,0,0,0,0,0,0,0,0,-1,923,330,0,0
-294,694,0,0,0,0,0,0,0,0,0,-1,930,330,0,0
-287,694,0,0,0,0,0,0,0,0,0,-1,937,330,0,0
-280,694,0,0,0,0,0,0,0,0,0,-1,944,330,0,0
-273,694,0,0,0,0,0,0,0,0,0,-1,951,330,0,0
-266,694,0,0,0,0,0,0,0,0,0,-1,958,330,0,0
-259,694,0,0,0,0,0,0,0,0,0,-1,965,330,0,0
-252,694,0,0,0,0,0,0,0,0,0,-1,972,330,0,0
-245,694,0,0,0,0,0,0,0,0,0,-1,979,330,0,0
-238,694,0,0,0,0,0,0,0,0,0,-1,986,330,0,0
-231,694,0,0,0,0,0,0,0,0,0,-1,993,330,0,0
-224,694,0,0,0,0,0,0,0,0,0,-1,1000,330,0,0
-217,694,0,0,0,0,0,0,0,0,0,-1,1007,330,0,0
-210,694,0,0,0,0,0,0,0,0,0,-1,1014,330,0,0
-203,694,0,0,0,0,0,0,0,0,0,-1,1021,330,0,0
-196,694,0,0,0,0,0,0,0,0,0,-1,1028,330,0,0
-189,694,0,0,0,0,0,0,0,0,0,-1,1035,330,0,0
-182,694,0,0,0,0,0,0,0,0,0,-1,1042,330,0,0
-175,694,0,0,0,0,0,0,0,0,0,-1,1049,330,0,0
-168,694,0,0,0,0,0,0,0,0,0,-1,1056,330,0,0
-161,694,0,0,0,0,0,0,0,0,0,-1,1063,330,0,0
-154,694,0,0,0,0,0,0,0,0,0,-1,1070,330,0,0
-147,694,0,0,0,0,0,0,0,0,0,-1,1077,330,0,0
-140,694,0,0,0,0,0,0,0,0,0,-1,1084,330,0,0
-133,694,0,0,0,0,0,0,0,0,0,-1,1091,330,0,0
-126,694,0,0,0,0,0,0,0,0,0,-1,1098,330,0,0
-119,694,0,0,0,0,0,0,0,0,0,-1,1105,330,0,0
-112,694,0,0,0,0,0,0,0,0,0,-1,1112,330,0,0
-105,694,-1.35962,-7.57141,0,0,0,0,0,0,0,-1,1119,330,-1.3596,7.57142
-98,694,1.34875,-10.1051,0,0,0,0,0,0,0,-1,1126,330,1.34874,10.1051
-91,694,1.35474,-9.22229,0,0,0,0,0,0,0,-1,1133,330,1.35476,9.22229
-84,694,-4.39136,-4.62332,0,0,0,0,0,0,0,-1,1140,330,-4.3914,4.62331
-77,694,-4.93396,-10.2672,0,0,0,0,0,0,0,-1,1147,330,-4.9339,10.2672
-70,694,-6.49402,-10.0714,0,0,0,0,0,0,0,-1,1154,330,-6.49399,10.0714
-63,694,-5.80835,-4.75275,0,0,0,0,0,0,0,-1,1161,330,-5.80834,4.75274
-56,694,-6.50623,-0.649139,0,0,0,0,0,0,0,-1,1168,330,-6.5062,0.649126
-49,694,-1.11426,0.0341797,0,0,0,0,0,0,0,-1,1175,330,-1.11424,-0.0341846
-42,694,-0.346313,-0.709595,0,0,0,0,0,0,0,-1,1182,330,-0.346298,0.709581
-35,694,-0.459106,-1.24713,0,0,0,0,0,0,0,-1,1189,330,-0.459142,1.24714
-28,694,-6.48413,-3.95972,0,0,0,0,0,0,0,-1,1196,330,-6.48414,3.9597
-21,694,1.28943,-16.5405,0,0,0,0,0,0,0,-1,1203,330,1.28944,16.5405
-14,694,2.14661,-16.316,0.100763,-0.00710914,0.000371575,0.100764,-0.00711042,0.00344455,0.0696671,0.0453068,1210,330,2.14662,16.3161
-7,694,3.00757,-16.0364,0.0849193,0.00542893,0.00223199,0.0849819,0.00536631,0.0280493,0.0549532,0.042908,1217,330,3.00755,16.0364
0,694,3.77026,-15.6989,0.0696297,0.0168726,0.00392649,0.0699203,0.016582,0.0738835,0.0421868,0.0467002,1224,330,3.7703,15.6989
7,694,4.57117,-15.3321,0,0,0,0,0,0,0,-1,1231,330,4.57115,15.3321
14,694,2.48682,-21.6107,0,0,0,0,0,0,0,-1,1238,330,2.48687,21.6107
21,694,2.8302,-20.946,0,0,0,0,0,0,0,-1,1245,330,2.83023,20.946
28,694,3.15942,-19.5699,0,0,0,0,0,0,0,-1,1252,330,3.15943,19.5699
35,694,3.35999,-19.0215,0,0,0,0,0,0,0,-1,1259,330,3.35995,19.0215
42,694,2.4856,-15.703,0,0,0,0,0,0,0,-1,1266,330,2.48562,15.703
49,694,2.69885,-15.9726,0.00656917,0.041252,0.00596641,0.0422497,0.00557148,1.40511,0.0265052,0.0482386,1273,330,2.69883,15.9726
56,694,2.5603,-15.4448,0.00454588,0.0390581,0.00401467,0.039519,0.00408503,1.4565,0.0250954,0.0436058,1280,330,2.56024,15.4448
63,694,2.5083,-14.8883,0.00597804,0.0342914,0.00145224,0.0343657,0.00590375,1.51968,0.0212181,0.0410945,1287,330,2.50836,14.8883
70,694,2.58154,-14.5721,0.00697358,0.0292154,-0.00155566,0.0293237,0.00686529,-1.5013,0.0177099,0.0429638,1294,330,2.58152,14.5721
77,694,2.42847,-14.6122,0.00814365,0.0240104,-0.00546123,0.0257084,0.00644565,-1.26935,0.0154454,0.0461351,1301,330,2.4285,14.6122
84,694,2.46606,-14.7831,0.00859732,0.0196068,-0.00939675,0.0249925,0.00321166,-1.05036,0.015701,0.0432217,1308,330,2.46604,14.783
91,694,2.58398,-14.913,0.00850027,0.0160868,-0.0136972,0.0265062,-0.00191918,-0.920481,0.018344,0.0460522,1315,330,2.58399,14.913
98,694,2.70044,-15.0436,0.00829044,0.0130858,-0.0175951,0.0284459,-0.00706961,-0.853116,0.0217077,0.0491568,1322,330,2.70048,15.0436
105,694,2.80664,-15.1666,0.0077035,0.0117237,-0.0215503,0.0313574,-0.0119302,-0.831901,0.0258175,0.0477625,1329,330,2.80661,15.1666
112,694,2.85864,-15.3822,0.00587968,0.00939364,-0.0251789,0.0328768,-0.0176035,-0.820232,0.0295861,0.0443748,1336,330,2.85867,15.3822
119,694,2.98547,-15.5456,0.00431512,0.00783042,-0.0277313,0.0338597,-0.0217142,-0.817047,0.03234,0.0429151,1343,330,2.98544,15.5456
126,694,2.97205,-15.4319,0.0026914,0.00627696,-0.0296577,0.034196,-0.0252276,-0.815586,0.0344382,0.0452453,1350,330,2.97206,15.4319
133,694,2.75854,-15.3204,-0.000331017,0.00449661,-0.0307003,0.0328779,-0.0287123,-0.82463,0.0355862,0.0475105,1357,330,2.75857,15.3204
140,694,2.5509,-15.3639,-0.00437537,0.00348008,-0.0310812,0.0308807,-0.031776,-0.84825,0.0361761,0.048103,1364,330,2.5509,15.3639
147,694,2.40039,-15.4388,-0.00751011,0.00127806,-0.0316693,0.0288567,-0.0350887,-0.854333,0.0369773,0.0478106,1371,330,2.40035,15.4388
154,694,2.16187,-15.4968,0,0,0,0,0,0,0,-1,1378,330,2.16191,15.4968
161,694,1.87231,-12.4088,0,0,0,0,0,0,0,-1,1385,330,1.87227,12.4088
168,694,6.77161,1.01288,0,0,0,0,0,0,0,-1,1392,330,6.77156,-1.01287
175,694,6.72839,0.473175,0,0,0,0,0,0,0,-1,1399,330,6.72838,-0.473182
182,694,8.29028,5.75238,0,0,0,0,0,0,0,-1,1406,330,8.29034,-5.75237
189,694,7.9801,4.46118,0,0,0,0,0,0,0,-1,1413,330,7.9801,-4.46118
196,694,7.39331,3.32632,0,0,0,0,0,0,0,-1,1420,330,7.39329,-3.32633
203,694,7.04492,2.20529,0,0,0,0,0,0,0,-1,1427,330,7.04496,-2.20529
210,694,6.44714,0.646912,0,0,0,0,0,0,0,-1,1434,330,6.44717,-0.646903
217,694,7.12061,-0.644958,0,0,0,0,0,0,0,-1,1441,330,7.12059,0.644961
224,694,6.74011,-1.70544,0,0,0,0,0,0,0,-1,1448,330,6.74013,1.70546
231,694,0,0,0,0,0,0,0,0,0,-1,1455,330,0,0
238,694,0,0,0,0,0,0,0,0,0,-1,1462,330,0,0
245,694,0,0,0,0,0,0,0,0,0,-1,1469,330,0,0
252,694,0,0,0,0,0,0,0,0,0,-1,1476,330,0,0
259,694,0,0,0,0,0,0,0,0,0,-1,1483,330,0,0
266,694,0,0,0,0,0,0,0,0,0,-1,1490,330,0,0
273,694,0,0,0,0,0,0,0,0,0,-1,1497,330,0,0
280,694,0,0,0,0,0,0,0,0,0,-1,1504,330,0,0
287,694,0,0,0,0,0,0,0,0,0,-1,1511,330,0,0
294,694,0,0,0,0,0,0,0,0,0,-1,1518,330,0,0
301,694,0,0,0,0,0,0,0,0,0,-1,1525,330,0,0
308,694,0,0,0,0,0,0,0,0,0,-1,1532,330,0,0
315,694,0,0,0,0,0,0,0,0,0,-1,1539,330,0,0
322,694,0,0,0,0,0,0,0,0,0,-1,1546,330,0,0
329,694,0,0,0,0,0,0,0,0,0,-1,1553,330,0,0
336,694,0,0,0,0,0,0,0,0,0,-1,1560,330,0,0
343,694,0,0,0,0,0,0,0,0,0,-1,1567,330,0,0
350,694,0,0,0,0,0,0,0,0,0,-1,1574,330,0,0
357,694,0,0,0,0,0,0,0,0,0,-1,1581,330,0,0
364,694,0,0,0,0,0,0,0,0,0,-1,1588,330,0,0
371,694,0,0,0,0,0,0,0,0,0,-1,1595,330,0,0
378,694,0,0,0,0,0,0,0,0,0,-1,1602,330,0,0
385,694,0,0,0,0,0,0,0,0,0,-1,1609,330,0,0
392,694,0,0,0,0,0,0,0,0,0,-1,1616,330,0,0
399,694,0,0,0,0,0,0,0,0,0,-1,1623,330,0,0
406,694,0,0,0,0,0,0,0,0,0,-1,1630,330,0,0
413,694,0,0,0,0,0,0,0,0,0,-1,1637,330,0,0
420,694,0,0,0,0,0,0,0,0,0,-1,1644,330,0,0
427,694,0,0,0,0,0,0,0,0,0,-1,1651,330,0,0
434,694,0,0,0,0,0,0,0,0,0,-1,1658,330,0,0
441,694,0,0,0,0,0,0,0,0,0,-1,1665,330,0,0
448,694,0,0,0,0,0,0,0,0,0,-1,1672,330,0,0
455,694,0,0,0,0,0,0,0,0,0,-1,1679,330,0,0
462,694,0,0,0,0,0,0,0,0,0,-1,1686,330,0,0
469,694,0,0,0,0,0,0,0,0,0,-1,1693,330,0,0
476,694,0,0,0,0,0,0,0,0,0,-1,1700,330,0,0
483,694,0,0,0,0,0,0,0,0,0,-1,1707,330,0,0
490,694,0,0,0,0,0,0,0,0,0,-1,1714,330,0,0
497,694,0,0,0,0,0,0,0,0,0,-1,1721,330,0,0
504,694,0,0,0,0,0,0,0,0,0,-1,1728,330,0,0
511,694,0,0,0,0,0,0,0,0,0,-1,1735,330,0,0
518,694,0,0,0,0,0,0,0,0,0,-1,1742,330,0,0
525,694,0,0,0,0,0,0,0,0,0,-1,1749,330,0,0
532,694,0,0,0,0,0,0,0,0,0,-1,1756,330,0,0
539,694,0,0,0,0,0,0,0,0,0,-1,1763,330,0,0
546,694,0,0,0,0,0,0,0,0,0,-1,1770,330,0,0
553,694,0,0,0,0,0,0,0,0,0,-1,1777,330,0,0
560,694,0,0,0,0,0,0,0,0,0,-1,1784,330,0,0
567,694,0,0,0,0,0,0,0,0,0,-1,1791,330,0,0
574,694,0,0,0,0,0,0,0,0,0,-1,1798,330,0,0
581,694,0,0,0,0,0,0,0,0,0,-1,1805,330,0,0
588,694,0,0,0,0,0,0,0,0,0,-1,1812,330,0,0
595,694,0,0,0,0,0,0,0,0,0,-1,1819,330,0,0
602,694,0,0,0,0,0,0,0,0,0,-1,1826,330,0,0
609,694,0,0,0,0,0,0,0,0,0,-1,1833,330,0,0
616,694,0,0,0,0,0,0,0,0,0,-1,1840,330,0,0
623,694,0,0,0,0,0,0,0,0,0,-1,1847,330,0,0
630,694,0,0,0,0,0,0,0,0,0,-1,1854,330,0,0
637,694,0,0,0,0,0,0,0,0,0,-1,1861,330,0,0
644,694,0,0,0,0,0,0,0,0,0,-1,1868,330,0,0
651,694,0,0,0,0,0,0,0,0,0,-1,1875,330,0,0
658,694,0,0,0,0,0,0,0,0,0,-1,1882,330,0,0
665,694,0,0,0,0,0,0,0,0,0,-1,1889,330,0,0
672,694,0,0,0,0,0,0,0,0,0,-1,1896,330,0,0
679,694,0,0,0,0,0,0,0,0,0,-1,1903,330,0,0
686,694,0,0,0,0,0,0,0,0,0,-1,1910,330,0,0
693,694,0,0,0,0,0,0,0,0,0,-1,1917,330,0,0
700,694,0,0,0,0,0,0,0,0,0,-1,1924,330,0,0
707,694,0,0,0,0,0,0,0,0,0,-1,1931,330,0,0
714,694,0,0,0,0,0,0,0,0,0,-1,1938,330,0,0
721,694,0,0,0,0,0,0,0,0,0,-1,1945,330,0,0
728,694,0,0,0,0,0,0,0,0,0,-1,1952,330,0,0
735,694,0,0,0,0,0,0,0,0,0,-1,1959,330,0,0
742,694,0,0,0,0,0,0,0,0,0,-1,1966,330,0,0
749,694,0,0,0,0,0,0,0,0,0,-1,1973,330,0,0
756,694,0,0,0,0,0,0,0,0,0,-1,1980,330,0,0
763,694,0,0,0,0,0,0,0,0,0,-1,1987,330,0,0
770,694,0,0,0,0,0,0,0,0,0,-1,1994,330,0,0
777,694,0,0,0,0,0,0,0,0,0,-1,2001,330,0,0
784,694,0,0,0,0,0,0,0,0,0,-1,2008,330,0,0
791,694,0,0,0,0,0,0,0,0,0,-1,2015,330,0,0
798,694,0,0,0,0,0,0,0,0,0,-1,2022,330,0,0
805,694,0,0,0,0,0,0,0,0,0,-1,2029,330,0,0
812,694,0,0,0,0,0,0,0,0,0,-1,2036,330,0,0
-700,687,0,0,0,0,0,0,0,0,0,-1,524,337,0,0
-693,687,0,0,0,0,0,0,0,0,0,-1,531,337,0,0
-686,687,0,0,0,0,0,0,0,0,0,-1,538,337,0,0
-679,687,0,0,0,0,0,0,0,0,0,-1,545,337,0,0
-672,687,0,0,0,0,0,0,0,0,0,-1,552,337,0,0
-665,687,0,0,0,0,0,0,0,0,0,-1,559,337,0,0
-658,687,0,0,0,0,0,0,0,0,0,-1,566,337,0,0
-651,687,0,0,0,0,0,0,0,0,0,-1,573,337,0,0
-644,687,0,0,0,0,0,0,0,0,0,-1,580,337,0,0
-637,687,0,0,0,0,0,0,0,0,0,-1,587,337,0,0
-630,687,0,0,0,0,0,0,0,0,0,-1,594,337,0,0
-623,687,0,0,0,0,0,0,0,0,0,-1,601,337,0,0
-616,687,0,0,0,0,0,0,0,0,0,-1,608,337,0,0
-609,687,0,0,0,0,0,0,0,0,0,-1,615,337,0,0
-602,687,0,0,0,0,0,0,0,0,0,-1,622,337,0,0
-595,687,0,0,0,0,0,0,0,0,0,-1,629,337,0,0
-588,687,0,0,0,0,0,0,0,0,0,-1,636,337,0,0
-581,687,0,0,0,0,0,0,0,0,0,-1,643,337,0,0
-574,687,0,0,0,0,0,0,0,0,0,-1,650,337,0,0
-567,687,0,0,0,0,0,0,0,0,0,-1,657,337,0,0
-560,687,0,0,0,0,0,0,0,0,0,-1,664,337,0,0
-553,687,0,0,0,0,0,0,0,0,0,-1,671,337,0,0
-546,687,0,0,0,0,0,0,0,0,0,-1,678,337,0,0
-539,687,0,0,0,0,0,0,0,0,0,-1,685,337,0,0
-532,687,0,0,0,0,0,0,0,0,0,-1,692,337,0,0
-525,687,0,0,0,0,0,0,0,0,0,-1,699,337,0,0
-518,687,0,0,0,0,0,0,0,0,0,-1,706,337,0,0
-511,687,0,0,0,0,0,0,0,0,0,-1,713,337,0,0
-504,687,0,0,0,0,0,0,0,0,0,-1,720,337,0,0
-497,687,0,0,0,0,0,0,0,0,0,-1,727,337,0,0
-490,687,0,0,0,0,0,0,0,0,0,-1,734,337,0,0
-483,687,0,0,0,0,0,0,0,0,0,-1,741,337,0,0
-476,687,0,0,0,0,0,0,0,0,0,-1,748,337,0,0
-469,687,0,0,0,0,0,0,0,0,0,-1,755,337,0,0
-462,687,0,0,0,0,0,0,0,0,0,-1,762,337,0,0
-455,687,0,0,0,0,0,0,0,0,0,-1,769,337,0,0
-448,687,0,0,0,0,0,0,0,0,0,-1,776,337,0,0
-441,687,0,0,0,0,0,0,0,0,0,-1,783,337,0,0
-434,687,0,0,0,0,0,0,0,0,0,-1,790,337,0,0
-427,687,0,0,0,0,0,0,0,0,0,-1,797,337,0,0
-420,687,0,0,0,0,0,0,0,0,0,-1,804,337,0,0
-413,687,0,0,0,0,0,0,0,0,0,-1,811,337,0,0
-406,687,0,0,0,0,0,0,0,0,0,-1,818,337,0,0
-399,687,0,0,0,0,0,0,0,0,0,-1,825,337,0,0
-392,687,0,0,0,0,0,0,0,0,0,-1,832,337,0,0
-385,687,0,0,0,0,0,0,0,0,0,-1,839,337,0,0
-378,687,0,0,0,0,0,0,0,0,0,-1,846,337,0,0
-371,687,0,0,0,0,0,0,0,0,0,-1,853,337,0,0
-364,687,0,0,0,0,0,0,0,0,0,-1,860,337,0,0
-357,687,0,0,0,0,0,0,0,0,0,-1,867,337,0,0
-350,687,0,0,0,0,0,0,0,0,0,-1,874,337,0,0
-343,687,0,0,0,0,0,0,0,0,0,-1,881,337,0,0
-336,687,0,0,0,0,0,0,0,0,0,-1,888,337,0,0
-329,687,0,0,0,0,0,0,0,0,0,-1,895,337,0,0
-322,687,0,0,0,0,0,0,0,0,0,-1,902,337,0,0
-315,687,0,0,0,0,0,0,0,0,0,-1,909,337,0,0
-308,687,0,0,0,0,0,0,0,0,0,-1,916,337,0,0
-301,687,0,0,0,0,0,0,0,0,0,-1,923,337,0,0
-294,687,0,0,0,0,0,0,0,0,0,-1,930,337,0,0
-287,687,0,0,0,0,0,0,0,0,0,-1,937,337,0,0
-280,687,0,0,0,0,0,0,0,0,0,-1,944,337,0,0
-273,687,0,0,0,0,0,0,0,0,0,-1,951,337,0,0
-266,687,0,0,0,0,0,0,0,0,0,-1,958,337,0,0
-259,687,0,0,0,0,0,0,0,0,0,-1,965,337,0,0
-252,687,0,0,0,0,0,0,0,0,0,-1,972,337,0,0
-245,687,0,0,0,0,0,0,0,0,0,-1,979,337,0,0
-238,687,0,0,0,0,0,0,0,0,0,-1,986,337,0,0
-231,687,0,0,0,0,0,0,0,0,0,-1,993,337,0,0
-224,687,0,0,0,0,0,0,0,0,0,-1,1000,337,0,0
-217,687,0,0,0,0,0,0,0,0,0,-1,1007,337,0,0
-210,687,0,0,0,0,0,0,0,0,0,-1,1014,337,0,0
-203,687,0,0,0,0,0,0,0,0,0,-1,1021,337,0,0
-196,687,0,0,0,0,0,0,0,0,0,-1,1028,337,0,0
-189,687,0,0,0,0,0,0,0,0,0,-1,1035,337,0,0
-182,687,0,0,0,0,0,0,0,0,0,-1,1042,337,0,0
-175,687,0,0,0,0,0,0,0,0,0,-1,1049,337,0,0
-168,687,0,0,0,0,0,0,0,0,0,-1,1056,337,0,0
-161,687,0,0,0,0,0,0,0,0,0,-1,1063,337,0,0
-154,687,0,0,0,0,0,0,0,0,0,-1,1070,337,0,0
-147,687,0,0,0,0,0,0,0,0,0,-1,1077,337,0,0
-140,687,0,0,0,0,0,0,0,0,0,-1,1084,337,0,0
-133,687,3.42676,-17.0036,0,0,0,0,0,0,0,-1,1091,337,3.42681,17.0036
-126,687,3.6261,-16.4479,0,0,0,0,0,0,0,-1,1098,337,3.62611,16.4479
-119,687,4.30652,-15.8505,0,0,0,0,0,0,0,-1,1105,337,4.30647,15.8505
-112,687,5.13892,-15.471,0,0,0,0,0,0,0,-1,1112,337,5.13889,15.471
-105,687,5.94409,-14.8406,0,0,0,0,0,0,0,-1,1119,337,5.9441,14.8406
-98,687,3.3291,-14.513,0,0,0,0,0,0,0,-1,1126,337,3.32905,14.513
-91,687,2.28162,-7.72437,0,0,0,0,0,0,0,-1,1133,337,2.28167,7.72437
-84,687,-0.867676,-5.7392,0,0,0,0,0,0,0,-1,1140,337,-0.867619,5.73919
-77,687,-3.63806,-12.9185,0,0,0,0,0,0,0,-1,1147,337,-3.6381,12.9185
-70,687,-6.24756,-13.2618,0,0,0,0,0,0,0,-1,1154,337,-6.24752,13.2618
-63,687,-8.37585,-12.8959,0,0,0,0,0,0,0,-1,1161,337,-8.3758,12.8959
-56,687,-10.7112,-8.02322,0,0,0,0,0,0,0,-1,1168,337,-10.7112,8.02323
-49,687,-7.44934,-0.550262,0,0,0,0,0,0,0,-1,1175,337,-7.44938,0.550261
-42,687,-4.2019,-0.405609,0,0,0,0,0,0,0,-1,1182,337,-4.20192,0.405614
-35,687,-4.42273,-0.688171,0,0,0,0,0,0,0,-1,1189,337,-4.42276,0.688178
-28,687,-1.14038,-1.39072,0,0,0,0,0,0,0,-1,1196,337,-1.14035,1.3907
-21,687,1.9967,-16.6698,0,0,0,0,0,0,0,-1,1203,337,1.99673,16.6698
-14,687,2.58557,-16.2881,0.074321,-0.00372006,0.00131137,0.074343,-0.00374208,0.0167972,0.0508553,0.04356,1210,337,2.58561,16.2881
-7,687,3.17297,-15.8771,0.0628469,0.0048959,0.00258925,0.0629623,0.00478045,0.0445616,0.0404756,0.0423406,1217,337,3.17297,15.8771
0,687,3.73816,-15.4295,0.0515701,0.0127396,0.00384114,0.0519464,0.0123632,0.0976594,0.0313337,0.0456517,1224,337,3.73812,15.4295
7,687,3.87817,-14.6406,0.0417281,0.0200398,0.00503028,0.042838,0.0189299,0.217165,0.0247881,0.0461997,1231,337,3.87814,14.6406
14,687,3.93445,-13.9507,0,0,0,0,0,0,0,-1,1238,337,3.93441,13.9507
21,687,2.76172,-16.2083,0.023999,0.0294746,0.00603543,0.0333641,0.0201094,0.99833,0.0193978,0.0466918,1245,337,2.76174,16.2083
28,687,2.01294,-15.5495,0.0170866,0.0323228,0.00613185,0.034484,0.0149254,1.23193,0.0199692,0.0448881,1252,337,2.01292,15.5495
35,687,3.31067,-15.1972,0,0,0,0,0,0,0,-1,1259,337,3.31063,15.1972
42,687,2.65637,-15.7314,0,0,0,0,0,0,0,-1,1266,337,2.65637,15.7314
49,687,2.46826,-15.651,0,0,0,0,0,0,0,-1,1273,337,2.46825,15.651
56,687,2.90747,-15.3455,0.00283349,0.0328967,0.0038395,0.0333793,0.00235088,1.44576,0.0215121,0.0464355,1280,337,2.90752,15.3455
63,687,2.4812,-15.0968,0.00446807,0.0298398,0.00197395,0.0299925,0.00431541,1.49361,0.018723,0.0419594,1287,337,2.48126,15.0968
70,687,2.3374,-15.0025,0.00574018,0.0263572,1.8262e-05,0.0263572,0.00574016,1.56991,0.016005,0.0405101,1294,337,2.33739,15.0025
77,687,2.73523,-15.3849,0.00726595,0.0227179,-0.00275176,0.0231934,0.00679053,-1.39972,0.0137687,0.0456339,1301,337,2.73518,15.3849
84,687,2.91882,-14.4608,0.00811155,0.019529,-0.00554378,0.0217778,0.00586269,-1.18543,0.0130123,0.0419324,1308,337,2.9188,14.4608
91,687,3.19177,-14.5766,0.00825053,0.0169889,-0.00862133,0.022285,0.00295446,-1.01993,0.0139763,0.0448406,1315,337,3.19174,14.5766
98,687,3.32776,-14.7556,0.00814809,0.0148191,-0.0114101,0.0233712,-0.000404013,-0.9276,0.0157172,0.0476474,1322,337,3.32772,14.7556
105,687,3.64868,-15.1205,0.00768515,0.013839,-0.0142596,0.0253499,-0.00382567,-0.891659,0.0183088,0.0465794,1329,337,3.64874,15.1205
112,687,4.07153,-15.4505,0.00627258,0.0120882,-0.0169488,0.0263768,-0.00801602,-0.870353,0.0207785,0.0474933,1336,337,4.07157,15.4505
119,687,4.44348,-15.7611,0,0,0,0,0,0,0,-1,1343,337,4.44353,15.7611
126,687,3.13293,-15.2319,0,0,0,0,0,0,0,-1,1350,337,3.13296,15.2319
133,687,3.18616,-15.1969,0,0,0,0,0,0,0,-1,1357,337,3.1862,15.1969
140,687,1.60205,-14.4064,0,0,0,0,0,0,0,-1,1364,337,1.60202,14.4064
147,687,1.7323,-14.704,0,0,0,0,0,0,0,-1,1371,337,1.73233,14.704
154,687,1.76819,-15.0138,0,0,0,0,0,0,0,-1,1378,337,1.76819,15.0138
161,687,1.80078,-12.469,0,0,0,0,0,0,0,-1,1385,337,1.80076,12.469
168,687,6.66968,1.37039,0,0,0,0,0,0,0,-1,1392,337,6.6697,-1.37039
175,687,6.64075,0.771606,0,0,0,0,0,0,0,-1,1399,337,6.64073,-0.771595
182,687,6.67249,0.289917,0,0,0,0,0,0,0,-1,1406,337,6.67247,-0.289916
189,687,7.76062,4.53635,0,0,0,0,0,0,0,-1,1413,337,7.76064,-4.53636
196,687,6.99048,3.2966,0,0,0,0,0,0,0,-1,1420,337,6.99046,-3.2966
203,687,6.36499,2.1445,0,0,0,0,0,0,0,-1,1427,337,6.36499,-2.14451
210,687,6.68066,0.674652,0,0,0,0,0,0,0,-1,1434,337,6.68062,-0.674655
217,687,5.99683,-0.630493,0,0,0,0,0,0,0,-1,1441,337,5.99684,0.630497
224,687,5.52917,0.524902,0,0,0,0,0,0,0,-1,1448,337,5.5292,-0.524915
231,687,5.85583,-1.73651,0,0,0,0,0,0,0,-1,1455,337,5.85577,1.73651
238,687,5.96582,-2.96774,0,0,0,0,0,0,0,-1,1462,337,5.96577,2.96773
245,687,1.28259,2.32211,0,0,0,0,0,0,0,-1,1469,337,1.28258,-2.32211
252,687,1.97278,3.88422,0,0,0,0,0,0,0,-1,1476,337,1.97281,-3.88421
259,687,0,0,0,0,0,0,0,0,0,-1,1483,337,0,0
266,687,0,0,0,0,0,0,0,0,0,-1,1490,337,0,0
273,687,0,0,0,0,0,0,0,0,0,-1,1497,337,0,0
280,687,0,0,0,0,0,0,0,0,0,-1,1504,337,0,0
287,687,0,0,0,0,0,0,0,0,0,-1,1511,337,0,0
294,687,0,0,0,0,0,0,0,0,0,-1,1518,337,0,0
301,687,0,0,0,0,0,0,0,0,0,-1,1525,337,0,0
308,687,0,0,0,0,0,0,0,0,0,-1,1532,337,0,0
315,687,0,0,0,0,0,0,0,0,0,-1,1539,337,0,0
322,687,0,0,0,0,0,0,0,0,0,-1,1546,337,0,0
329,687,0,0,0,0,0,0,0,0,0,-1,1553,337,0,0
336,687,0,0,0,0,0,0,0,0,0,-1,1560,337,0,0
343,687,0,0,0,0,0,0,0,0,0,-1,1567,337,0,0
350,687,0,0,0,0,0,0,0,0,0,-1,1574,337,0,0
357,687,0,0,0,0,0,0,0,0,0,-1,1581,337,0,0
364,687,0,0,0,0,0,0,0,0,0,-1,1588,337,0,0
371,687,0,0,0,0,0,0,0,0,0,-1,1595,337,0,0
378,687,0,0,0,0,0,0,0,0,0,-1,1602,337,0,0
385,687,0,0,0,0,0,0,0,0,0,-1,1609,337,0,0
392,687,0,0,0,0,0,0,0,0,0,-1,1616,337,0,0
399,687,0,0,0,0,0,0,0,0,0,-1,1623,337,0,0
406,687,0,0,0,0,0,0,0,0,0,-1,1630,337,0,0
413,687,0,0,0,0,0,0,0,0,0,-1,1637,337,0,0
420,687,0,0,0,0,0,0,0,0,0,-1,1644,337,0,0
427,687,0,0,0,0,0,0,0,0,0,-1,1651,337,0,0
434,687,0,0,0,0,0,0,0,0,0,-1,1658,337,0,0
441,687,0,0,0,0,0,0,0,0,0,-1,1665,337,0,0
448,687,0,0,0,0,0,0,0,0,0,-1,1672,337,0,0
455,687,0,0,0,0,0,0,0,0,0,-1,1679,337,0,0
462,687,0,0,0,0,0,0,0,0,0,-1,1686,337,0,0
469,687,0,0,0,0,0,0,0,0,0,-1,1693,337,0,0
476,687,0,0,0,0,0,0,0,0,0,-1,1700,337,0,0
483,687,0,0,0,0,0,0,0,0,0,-1,1707,337,0,0
490,687,0,0,0,0,0,0,0,0,0,-1,1714,337,0,0
497,687,0,0,0,0,0,0,0,0,0,-1,1721,337,0,0
504,687,0,0,0,0,0,0,0,0,0,-1,1728,337,0,0
511,687,0,0,0,0,0,0,0,0,0,-1,1735,337,0,0
518,687,0,0,0,0,0,0,0,0,0,-1,1742,337,0,0
525,687,0,0,0,0,0,0,0,0,0,-1,1749,337,0,0
532,687,0,0,0,0,0,0,0,0,0,-1,1756,337,0,0
539,687,0,0,0,0,0,0,0,0,0,-1,1763,337,0,0
546,687,0,0,0,0,0,0,0,0,0,-1,1770,337,0,0
553,687,0,0,0,0,0,0,0,0,0,-1,1777,337,0,0
560,687,0,0,0,0,0,0,0,0,0,-1,1784,337,0,0
567,687,0,0,0,0,0,0,0,0,0,-1,1791,337,0,0
574,687,0,0,0,0,0,0,0,0,0,-1,1798,337,0,0
581,687,0,0,0,0,0,0,0,0,0,-1,1805,337,0,0
588,687,0,0,0,0,0,0,0,0,0,-1,1812,337,0,0
595,687,0,0,0,0,0,0,0,0,0,-1,1819,337,0,0
602,687,0,0,0,0,0,0,0,0,0,-1,1826,337,0,0
609,687,0,0,0,0,0,0,0,0,0,-1,1833,337,0,0
616,687,0,0,0,0,0,0,0,0,0,-1,1840,337,0,0
623,687,0,0,0,0,0,0,0,0,0,-1,1847,337,0,0
630,687,0,0,0,0,0,0,0,0,0,-1,1854,337,0,0
637,687,0,0,0,0,0,0,0,0,0,-1,1861,337,0,0
644,687,0,0,0,0,0,0,0,0,0,-1,1868,337,0,0
651,687,0,0,0,0,0,0,0,0,0,-1,1875,337,0,0
658,687,0,0,0,0,0,0,0,0,0,-1,1882,337,0,0
665,687,0,0,0,0,0,0,0,0,0,-1,1889,337,0,0
672,687,0,0,0,0,0,0,0,0,0,-1,1896,337,0,0
679,687,0,0,0,0,0,0,0,0,0,-1,1903,337,0,0
686,687,0,0,0,0,0,0,0,0,0,-1,1910,337,0,0
693,687,0,0,0,0,0,0,0,0,0,-1,1917,337,0,0
700,687,0,0,0,0,0,0,0,0,0,-1,1924,337,0,0
707,687,0,0,0,0,0,0,0,0,0,-1,1931,337,0,0
714,687,0,0,0,0,0,0,0,0,0,-1,1938,337,0,0
721,687,0,0,0,0,0,0,0,0,0,-1,1945,337,0,0
728,687,0,0,0,0,0,0,0,0,0,-1,1952,337,0,0
735,687,0,0,0,0,0,0,0,0,0,-1,1959,337,0,0
742,687,0,0,0,0,0,0,0,0,0,-1,1966,337,0,0
749,687,0,0,0,0,0,0,0,0,0,-1,1973,337,0,0
756,687,0,0,0,0,0,0,0,0,0,-1,1980,337,0,0
763,687,0,0,0,0,0,0,0,0,0,-1,1987,337,0,0
770,687,0,0,0,0,0,0,0,0,0,-1,1994,337,0,0
777,687,0,0,0,0,0,0,0,0,0,-1,2001,337,0,0
784,687,0,0,0,0,0,0,0,0,0,-1,2008,337,0,0
791,687,0,0,0,0,0,0,0,0,0,-1,2015,337,0,0
798,687,0,0,0,0,0,0,0,0,0,-1,2022,337,0,0
805,687,0,0,0,0,0,0,0,0,0,-1,2029,337,0,0
812,687,0,0,0,0,0,0,0,0,0,-1,2036,337,0,0
-700,680,0,0,0,0,0,0,0,0,0,-1,524,344,0,0
-693,680,0,0,0,0,0,0,0,0,0,-1,531,344,0,0
-686,680,0,0,0,0,0,0,0,0,0,-1,538,344,0,0
-679,680,0,0,0,0,0,0,0,0,0,-1,545,344,0,0
-672,680,0,0,0,0,0,0,0,0,0,-1,552,344,0,0
-665,680,0,0,0,0,0,0,0,0,0,-1,559,344,0,0
-658,680,0,0,0,0,0,0,0,0,0,-1,566,344,0,0
-651,680,0,0,0,0,0,0,0,0,0,-1,573,344,0,0
-644,680,0,0,0,0,0,0,0,0,0,-1,580,344,0,0
-637,680,0,0,0,0,0,0,0,0,0,-1,587,344,0,0
-630,680,0,0,0,0,0,0,0,0,0,-1,594,344,0,0
-623,680,0,0,0,0,0,0,0,0,0,-1,601,344,0,0
-616,680,0,0,0,0,0,0,0,0,0,-1,608,344,0,0
-609,680,0,0,0,0,0,0,0,0,0,-1,615,344,0,0
-602,680,0,0,0,0,0,0,0,0,0,-1,622,344,0,0
-595,680,0,0,0,0,0,0,0,0,0,-1,629,344,0,0
-588,680,0,0,0,0,0,0,0,0,0,-1,636,344,0,0
-581,680,0,0,0,0,0,0,0,0,0,-1,643,344,0,0
-574,680,0,0,0,0,0,0,0,0,0,-1,650,344,0,0
-567,680,0,0,0,0,0,0,0,0,0,-1,657,344,0,0
-560,680,0,0,0,0,0,0,0,0,0,-1,664,344,0,0
-553,680,0,0,0,0,0,0,0,0,0,-1,671,344,0,0
-546,680,0,0,0,0,0,0,0,0,0,-1,678,344,0,0
-539,680,0,0,0,0,0,0,0,0,0,-1,685,344,0,0
-532,680,0,0,0,0,0,0,0,0,0,-1,692,344,0,0
-525,680,0,0,0,0,0,0,0,0,0,-1,699,344,0,0
-518,680,0,0,0,0,0,0,0,0,0,-1,706,344,0,0
-511,680,0,0,0,0,0,0,0,0,0,-1,713,344,0,0
-504,680,0,0,0,0,0,0,0,0,0,-1,720,344,0,0
-497,680,0,0,0,0,0,0,0,0,0,-1,727,344,0,0
-490,680,0,0,0,0,0,0,0,0,0,-1,734,344,0,0
-483,680,0,0,0,0,0,0,0,0,0,-1,741,344,0,0
-476,680,0,0,0,0,0,0,0,0,0,-1,748,344,0,0
-469,680,0,0,0,0,0,0,0,0,0,-1,755,344,0,0
-462,680,0,0,0,0,0,0,0,0,0,-1,762,344,0,0
-455,680,0,0,0,0,0,0,0,0,0,-1,769,344,0,0
-448,680,0,0,0,0,0,0,0,0,0,-1,776,344,0,0
-441,680,0,0,0,0,0,0,0,0,0,-1,783,344,0,0
-434,680,0,0,0,0,0,0,0,0,0,-1,790,344,0,0
-427,680,0,0,0,0,0,0,0,0,0,-1,797,344,0,0
-420,680,0,0,0,0,0,0,0,0,0,-1,804,344,0,0
-413,680,0,0,0,0,0,0,0,0,0,-1,811,344,0,0
-406,680,0,0,0,0,0,0,0,0,0,-1,818,344,0,0
-399,680,0,0,0,0,0,0,0,0,0,-1,825,344,0,0
-392,680,0,0,0,0,0,0,0,0,0,-1,832,344,0,0
-385,680,0,0,0,0,0,0,0,0,0,-1,839,344,0,0
-378,680,0,0,0,0,0,0,0,0,0,-1,846,344,0,0
-371,680,0,0,0,0,0,0,0,0,0,-1,853,344,0,0
-364,680,0,0,0,0,0,0,0,0,0,-1,860,344,0,0
-357,680,0,0,0,0,0,0,0,0,0,-1,867,344,0,0
-350,680,0,0,0,0,0,0,0,0,0,-1,874,344,0,0
-343,680,0,0,0,0,0,0,0,0,0,-1,881,344,0,0
-336,680,0,0,0,0,0,0,0,0,0,-1,888,344,0,0
-329,680,0,0,0,0,0,0,0,0,0,-1,895,344,0,0
-322,680,0,0,0,0,0,0,0,0,0,-1,902,344,0,0
-315,680,0,0,0,0,0,0,0,0,0,-1,909,344,0,0
-308,680,0,0,0,0,0,0,0,0,0,-1,916,344,0,0
-301,680,0,0,0,0,0,0,0,0,0,-1,923,344,0,0
-294,680,0,0,0,0,0,0,0,0,0,-1,930,344,0,0
-287,680,0,0,0,0,0,0,0,0,0,-1,937,344,0,0
-280,680,0,0,0,0,0,0,0,0,0,-1,944,344,0,0
-273,680,0,0,0,0,0,0,0,0,0,-1,951,344,0,0
-266,680,0,0,0,0,0,0,0,0,0,-1,958,344,0,0
-259,680,0,0,0,0,0,0,0,0,0,-1,965,344,0,0
-252,680,0,0,0,0,0,0,0,0,0,-1,972,344,0,0
-245,680,0,0,0,0,0,0,0,0,0,-1,979,344,0,0
-238,680,0,0,0,0,0,0,0,0,0,-1,986,344,0,0
-231,680,0,0,0,0,0,0,0,0,0,-1,993,344,0,0
-224,680,0,0,0,0,0,0,0,0,0,-1,1000,344,0,0
-217,680,0,0,0,0,0,0,0,0,0,-1,1007,344,0,0
-210,680,0,0,0,0,0,0,0,0,0,-1,1014,344,0,0
-203,680,0,0,0,0,0,0,0,0,0,-1,1021,344,0,0
-196,680,0,0,0,0,0,0,0,0,0,-1,1028,344,0,0
-189,680,0,0,0,0,0,0,0,0,0,-1,1035,344,0,0
-182,680,0,0,0,0,0,0,0,0,0,-1,1042,344,0,0
-175,680,0,0,0,0,0,0,0,0,0,-1,1049,344,0,0
-168,680,0,0,0,0,0,0,0,0,0,-1,1056,344,0,0
-161,680,0,0,0,0,0,0,0,0,0,-1,1063,344,0,0
-154,680,2.93018,-16.3629,0,0,0,0,0,0,0,-1,1070,344,2.93013,16.3629
-147,680,3.67163,-17.456,0,0,0,0,0,0,0,-1,1077,344,3.67165,17.456
-140,680,2.87256,-16.0148,0,0,0,0,0,0,0,-1,1084,344,2.87261,16.0148
-133,680,3.36353,-15.4333,0,0,0,0,0,0,0,-1,1091,344,3.36352,15.4333
-126,680,3.65332,-15.9799,0,0,0,0,0,0,0,-1,1098,344,3.65331,15.9799
-119,680,3.76086,-15.3449,0,0,0,0,0,0,0,-1,1105,344,3.76085,15.3449
-112,680,3.53906,-15.1996,0,0,0,0,0,0,0,-1,1112,344,3.53912,15.1995
-105,680,3.23926,-14.884,0,0,0,0,0,0,0,-1,1119,344,3.2393,14.884
-98,680,3.24158,-14.4062,0,0,0,0,0,0,0,-1,1126,344,3.24155,14.4062
-91,680,3.14526,-13.6926,0,0,0,0,0,0,0,-1,1133,344,3.14532,13.6926
-84,680,1.92285,-8.71033,0,0,0,0,0,0,0,-1,1140,344,1.92286,8.71034
-77,680,-1.90417,-7.02802,0,0,0,0,0,0,0,-1,1147,344,-1.90412,7.02801
-70,680,-4.04382,-16.124,0,0,0,0,0,0,0,-1,1154,344,-4.04388,16.124
-63,680,-5.41333,-13.0013,0,0,0,0,0,0,0,-1,1161,344,-5.41332,13.0013
-56,680,-6.96912,-8.83356,0,0,0,0,0,0,0,-1,1168,344,-6.96907,8.83354
-49,680,-6.7677,-2.24063,0,0,0,0,0,0,0,-1,1175,344,-6.76772,2.24063
-42,680,-1.02368,0.618805,0,0,0,0,0,0,0,-1,1182,344,-1.0237,-0.618797
-35,680,-0.947876,-0.942719,0,0,0,0,0,0,0,-1,1189,344,-0.947842,0.942731
-28,680,-1.46118,-1.10574,0,0,0,0,0,0,0,-1,1196,344,-1.4612,1.10575
-21,680,5.13452,-15.4271,0,0,0,0,0,0,0,-1,1203,344,5.13453,15.4271
-14,680,2.74084,-15.7123,0,0,0,0,0,0,0,-1,1210,344,2.74084,15.7123
-7,680,3.04175,-15.7972,0,0,0,0,0,0,0,-1,1217,344,3.04174,15.7972
0,680,3.00378,-15.905,0,0,0,0,0,0,0,-1,1224,344,3.00383,15.905
7,680,4.38135,-14.7148,0,0,0,0,0,0,0,-1,1231,344,4.38141,14.7148
14,680,4.4801,-14.1812,0,0,0,0,0,0,0,-1,1238,344,4.48006,14.1811
21,680,2.83081,-16.0144,0.0164343,0.0223194,0.00511383,0.0252769,0.0134769,1.04647,0.0146043,0.0443452,1245,344,2.83076,16.0144
28,680,2.40759,-15.9662,0.0113658,0.0248575,0.005175,0.0266139,0.00960948,1.24361,0.015562,0.0434357,1252,344,2.40762,15.9662
35,680,2.49023,-15.8741,0,0,0,0,0,0,0,-1,1259,344,2.49028,15.8741
42,680,2.51294,-15.8521,0.00431141,0.027381,0.00531547,0.0285468,0.00314559,1.35489,0.0180742,0.0460976,1266,344,2.5129,15.8521
49,680,2.53027,-15.8553,0.00209424,0.0272246,0.00458153,0.0280338,0.00128504,1.39598,0.0182759,0.041151,1273,344,2.53029,15.8553
56,680,2.63123,-15.7534,0.00158004,0.0269677,0.00342852,0.0274226,0.00112518,1.4389,0.0179185,0.0394723,1280,344,2.63125,15.7534
63,680,2.58606,-15.5447,0.0032161,0.025145,0.00213052,0.0253501,0.00301102,1.47484,0.0159911,0.0378195,1287,344,2.58603,15.5447
70,680,2.55212,-15.5974,0.00454282,0.0228981,0.000970246,0.0229492,0.00449167,1.51813,0.0140437,0.0364414,1294,344,2.55215,15.5974
77,680,2.57788,-15.6137,0.00613317,0.0204711,-0.000892351,0.0205264,0.00607785,-1.50888,0.012175,0.0432027,1301,344,2.57787,15.6137
84,680,2.60706,-15.4664,0.00711277,0.0182642,-0.00276102,0.0189104,0.0064666,-1.3409,0.0110982,0.0469654,1308,344,2.607,15.4664
91,680,3.25037,-14.5232,0.00735088,0.016508,-0.00484452,0.0185952,0.00526366,-1.16399,0.0110676,0.0439272,1315,344,3.25042,14.5232
98,680,3.34546,-14.6538,0.00731038,0.0149968,-0.00674678,0.0189182,0.00338897,-1.0443,0.011648,0.0455142,1322,344,3.34542,14.6538
105,680,3.77271,-14.8411,0.00695299,0.0143244,-0.00871545,0.0201014,0.00117595,-0.985441,0.0130267,0.0438741,1329,344,3.77273,14.8411
112,680,4.46313,-14.9713,0.00588481,0.0130554,-0.0106289,0.0206874,-0.00174719,-0.948063,0.0144093,0.0431982,1336,344,4.46312,14.9713
119,680,4.51465,-15.3737,0.00461079,0.0120269,-0.012053,0.0209293,-0.00429168,-0.934626,0.0155817,0.0424785,1343,344,4.51467,15.3738
126,680,2.56311,-15.4293,0,0,0,0,0,0,0,-1,1350,344,2.56307,15.4293
133,680,2.35742,-14.9832,0.000914181,0.00980085,-0.0142467,0.0202811,-0.00956604,-0.93656,0.0175985,0.0456266,1357,344,2.35744,14.9832
140,680,2.22168,-15.149,-0.00167619,0.00886961,-0.0151153,0.0196053,-0.0124119,-0.953221,0.01864,0.0478201,1364,344,2.22172,15.149
147,680,2.01489,-15.1544,-0.00377147,0.00783043,-0.015872,0.0189283,-0.0148694,-0.960599,0.0195599,0.0449302,1371,344,2.01488,15.1544
154,680,2.02515,-15.2566,-0.00510867,0.00615758,-0.0167533,0.0181994,-0.0171505,-0.94758,0.0204123,0.0461841,1378,344,2.02519,15.2566
161,680,2.09741,-15.4935,0,0,0,0,0,0,0,-1,1385,344,2.0974,15.4935
168,680,6.85046,1.69257,0,0,0,0,0,0,0,-1,1392,344,6.85045,-1.69257
175,680,6.66541,0.942078,0,0,0,0,0,0,0,-1,1399,344,6.66538,-0.942088
182,680,6.52917,0.532379,0,0,0,0,0,0,0,-1,1406,344,6.52922,-0.532385
189,680,7.55884,4.77695,0,0,0,0,0,0,0,-1,1413,344,7.55886,-4.77694
196,680,6.55627,3.35254,0,0,0,0,0,0,0,-1,1420,344,6.55622,-3.35255
203,680,5.7334,1.90753,0,0,0,0,0,0,0,-1,1427,344,5.73341,-1.90754
210,680,5.27515,0.493622,0,0,0,0,0,0,0,-1,1434,344,5.27514,-0.493632
217,680,6.56384,-0.374176,0,0,0,0,0,0,0,-1,1441,344,6.56379,0.374176
224,680,3.9491,-0.640228,0,0,0,0,0,0,0,-1,1448,344,3.94908,0.64024
231,680,4.24866,-1.96881,0,0,0,0,0,0,0,-1,1455,344,4.2486,1.96882
238,680,4.29333,-3.23984,0,0,0,0,0,0,0,-1,1462,344,4.29332,3.23984
245,680,2.44397,0.985382,0,0,0,0,0,0,0,-1,1469,344,2.44402,-0.985394
252,680,3.07349,2.18951,0,0,0,0,0,0,0,-1,1476,344,3.0735,-2.18952
259,680,2.82971,1.30682,0,0,0,0,0,0,0,-1,1483,344,2.82972,-1.30684
266,680,2.67554,1.44067,0,0,0,0,0,0,0,-1,1490,344,2.67551,-1.44066
273,680,2.46411,1.54666,0,0,0,0,0,0,0,-1,1497,344,2.46407,-1.54666
280,680,0,0,0,0,0,0,0,0,0,-1,1504,344,0,0
287,680,0,0,0,0,0,0,0,0,0,-1,1511,344,0,0
294,680,0,0,0,0,0,0,0,0,0,-1,1518,344,0,0
301,680,0,0,0,0,0,0,0,0,0,-1,1525,344,0,0
308,680,0,0,0,0,0,0,0,0,0,-1,1532,344,0,0
315,680,0,0,0,0,0,0,0,0,0,-1,1539,344,0,0
322,680,0,0,0,0,0,0,0,0,0,-1,1546,344,0,0
329,680,0,0,0,0,0,0,0,0,0,-1,1553,344,0,0
336,680,0,0,0,0,0,0,0,0,0,-1,1560,344,0,0
343,680,0,0,0,0,0,0,0,0,0,-1,1567,344,0,0
350,680,0,0,0,0,0,0,0,0,0,-1,1574,344,0,0
357,680,0,0,0,0,0,0,0,0,0,-1,1581,344,0,0
364,680,0,0,0,0,0,0,0,0,0,-1,1588,344,0,0
371,680,0,0,0,0,0,0,0,0,0,-1,1595,344,0,0
378,680,0,0,0,0,0,0,0,0,0,-1,1602,344,0,0
385,680,0,0,0,0,0,0,0,0,0,-1,1609,344,0,0
392,680,0,0,0,0,0,0,0,0,0,-1,1616,344,0,0
399,680,0,0,0,0,0,0,0,0,0,-1,1623,344,0,0
406,680,0,0,0,0,0,0,0,0,0,-1,1630,344,0,0
413,680,0,0,0,0,0,0,0,0,0,-1,1637,344,0,0
420,680,0,0,0,0,0,0,0,0,0,-1,1644,344,0,0
427,680,0,0,0,0,0,0,0,0,0,-1,1651,344,0,0
434,680,0,0,0,0,0,0,0,0,0,-1,1658,344,0,0
441,680,0,0,0,0,0,0,0,0,0,-1,1665,344,0,0
448,680,0,0,0,0,0,0,0,0,0,-1,1672,344,0,0
455,680,0,0,0,0,0,0,0,0,0,-1,1679,344,0,0
462,680,0,0,0,0,0,0,0,0,0,-1,1686,344,0,0
469,680,0,0,0,0,0,0,0,0,0,-1,1693,344,0,0
476,680,0,0,0,0,0,0,0,0,0,-1,1700,344,0,0
483,680,0,0,0,0,0,0,0,0,0,-1,1707,344,0,0
490,680,0,0,0,0,0,0,0,0,0,-1,1714,344,0,0
497,680,0,0,0,0,0,0,0,0,0,-1,1721,344,0,0
504,680,0,0,0,0,0,0,0,0,0,-1,1728,344,0,0
511,680,0,0,0,0,0,0,0,0,0,-1,1735,344,0,0
518,680,0,0,0,0,0,0,0,0,0,-1,1742,344,0,0
525,680,0,0,0,0,0,0,0,0,0,-1,1749,344,0,0
532,680,0,0,0,0,0,0,0,0,0,-1,1756,344,0,0
539,680,0,0,0,0,0,0,0,0,0,-1,1763,344,0,0
546,680,0,0,0,0,0,0,0,0,0,-1,1770,344,0,0
553,680,0,0,0,0,0,0,0,0,0,-1,1777,344,0,0
560,680,0,0,0,0,0,0,0,0,0,-1,1784,344,0,0
567,680,0,0,0,0,0,0,0,0,0,-1,1791,344,0,0
574,680,0,0,0,0,0,0,0,0,0,-1,1798,344,0,0
581,680,0,0,0,0,0,0,0,0,0,-1,1805,344,0,0
588,680,0,0,0,0,0,0,0,0,0,-1,1812,344,0,0
595,680,0,0,0,0,0,0,0,0,0,-1,1819,344,0,0
602,680,0,0,0,0,0,0,0,0,0,-1,1826,344,0,0
609,680,0,0,0,0,0,0,0,0,0,-1,1833,344,0,0
616,680,0,0,0,0,0,0,0,0,0,-1,1840,344,0,0
623,680,0,0,0,0,0,0,0,0,0,-1,1847,344,0,0
630,680,0,0,0,0,0,0,0,0,0,-1,1854,344,0,0
637,680,0,0,0,0,0,0,0,0,0,-1,1861,344,0,0
644,680,0,0,0,0,0,0,0,0,0,-1,1868,344,0,0
651,680,0,0,0,0,0,0,0,0,0,-1,1875,344,0,0
658,680,0,0,0,0,0,0,0,0,0,-1,1882,344,0,0
665,680,0,0,0,0,0,0,0,0,0,-1,1889,344,0,0
672,680,0,0,0,0,0,0,0,0,0,-1,1896,344,0,0
679,680,0,0,0,0,0,0,0,0,0,-1,1903,344,0,0
686,680,0,0,0,0,0,0,0,0,0,-1,1910,344,0,0
693,680,0,0,0,0,0,0,0,0,0,-1,1917,344,0,0
700,680,0,0,0,0,0,0,0,0,0,-1,1924,344,0,0
707,680,0,0,0,0,0,0,0,0,0,-1,1931,344,0,0
714,680,0,0,0,0,0,0,0,0,0,-1,1938,344,0,0
721,680,0,0,0,0,0,0,0,0,0,-1,1945,344,0,0
728,680,0,0,0,0,0,0,0,0,0,-1,1952,344,0,0
735,680,0,0,0,0,0,0,0,0,0,-1,1959,344,0,0
742,680,0,0,0,0,0,0,0,0,0,-1,1966,344,0,0
749,680,0,0,0,0,0,0,0,0,0,-1,1973,344,0,0
756,680,0,0,0,0,0,0,0,0,0,-1,1980,344,0,0
763,680,0,0,0,0,0,0,0,0,0,-1,1987,344,0,0
770,680,0,0,0,0,0,0,0,0,0,-1,1994,344,0,0
777,680,0,0,0,0,0,0,0,0,0,-1,2001,344,0,0
784,680,0,0,0,0,0,0,0,0,0,-1,2008,344,0,0
791,680,0,0,0,0,0,0,0,0,0,-1,2015,344,0,0
798,680,0,0,0,0,0,0,0,0,0,-1,2022,344,0,0
805,680,0,0,0,0,0,0,0,0,0,-1,2029,344,0,0
812,680,0,0,0,0,0,0,0,0,0,-1,2036,344,0,0
-700,673,0,0,0,0,0,0,0,0,0,-1,524,351,0,0
-693,673,0,0,0,0,0,0,0,0,0,-1,531,351,0,0
-686,673,0,0,0,0,0,0,0,0,0,-1,538,351,0,0
-679,673,0,0,0,0,0,0,0,0,0,-1,545,351,0,0
-672,673,0,0,0,0,0,0,0,0,0,-1,552,351,0,0
-665,673,0,0,0,0,0,0,0,0,0,-1,559,351,0,0
-658,673,0,0,0,0,0,0,0,0,0,-1,566,351,0,0
-651,673,0,0,0,0,0,0,0,0,0,-1,573,351,0,0
-644,673,0,0,0,0,0,0,0,0,0,-1,580,351,0,0
-637,673,0,0,0,0,0,0,0,0,0,-1,587,351,0,0
-630,673,0,0,0,0,0,0,0,0,0,-1,594,351,0,0
-623,673,0,0,0,0,0,0,0,0,0,-1,601,351,0,0
-616,673,0,0,0,0,0,0,0,0,0,-1,608,351,0,0
-609,673,0,0,0,0,0,0,0,0,0,-1,615,351,0,0
-602,673,0,0,0,0,0,0,0,0,0,-1,622,351,0,0
-595,673,0,0,0,0,0,0,0,0,0,-1,629,351,0,0
-588,673,0,0,0,0,0,0,0,0,0,-1,636,351,0,0
-581,673,0,0,0,0,0,0,0,0,0,-1,643,351,0,0
-574,673,0,0,0,0,0,0,0,0,0,-1,650,351,0,0
-567,673,0,0,0,0,0,0,0,0,0,-1,657,351,0,0
-560,673,0,0,0,0,0,0,0,0,0,-1,664,351,0,0
-553,673,0,0,0,0,0,0,0,0,0,-1,671,351,0,0
-546,673,0,0,0,0,0,0,0,0,0,-1,678,351,0,0
-539,673,0,0,0,0,0,0,0,0,0,-1,685,351,0,0
-532,673,0,0,0,0,0,0,0,0,0,-1,692,351,0,0
-525,673,0,0,0,0,0,0,0,0,0,-1,699,351,0,0
-518,673,0,0,0,0,0,0,0,0,0,-1,706,351,0,0
-511,673,0,0,0,0,0,0,0,0,0,-1,713,351,0,0
-504,673,0,0,0,0,0,0,0,0,0,-1,720,351,0,0
-497,673,0,0,0,0,0,0,0,0,0,-1,727,351,0,0
-490,673,0,0,0,0,0,0,0,0,0,-1,734,351,0,0
-483,673,0,0,0,0,0,0,0,0,0,-1,741,351,0,0
-476,673,0,0,0,0,0,0,0,0,0,-1,748,351,0,0
-469,673,0,0,0,0,0,0,0,0,0,-1,755,351,0,0
-462,673,0,0,0,0,0,0,0,0,0,-1,762,351,0,0
-455,673,0,0,0,0,0,0,0,0,0,-1,769,351,0,0
-448,673,0,0,0,0,0,0,0,0,0,-1,776,351,0,0
-441,673,0,0,0,0,0,0,0,0,0,-1,783,351,0,0
-434,673,0,0,0,0,0,0,0,0,0,-1,790,351,0,0
-427,673,0,0,0,0,0,0,0,0,0,-1,797,351,0,0
-420,673,0,0,0,0,0,0,0,0,0,-1,804,351,0,0
-413,673,0,0,0,0,0,0,0,0,0,-1,811,351,0,0
-406,673,0,0,0,0,0,0,0,0,0,-1,818,351,0,0
-399,673,0,0,0,0,0,0,0,0,0,-1,825,351,0,0
-392,673,0,0,0,0,0,0,0,0,0,-1,832,351,0,0
-385,673,0,0,0,0,0,0,0,0,0,-1,839,351,0,0
-378,673,0,0,0,0,0,0,0,0,0,-1,846,351,0,0
-371,673,0,0,0,0,0,0,0,0,0,-1,853,351,0,0
-364,673,0,0,0,0,0,0,0,0,0,-1,860,351,0,0
-357,673,0,0,0,0,0,0,0,0,0,-1,867,351,0,0
-350,673,0,0,0,0,0,0,0,0,0,-1,874,351,0,0
-343,673,0,0,0,0,0,0,0,0,0,-1,881,351,0,0
-336,673,0,0,0,0,0,0,0,0,0,-1,888,351,0,0
-329,673,0,0,0,0,0,0,0,0,0,-1,895,351,0,0
-322,673,0,0,0,0,0,0,0,0,0,-1,902,351,0,0
-315,673,0,0,0,0,0,0,0,0,0,-1,909,351,0,0
-308,673,0,0,0,0,0,0,0,0,0,-1,916,351,0,0
-301,673,0,0,0,0,0,0,0,0,0,-1,923,351,0,0
-294,673,0,0,0,0,0,0,0,0,0,-1,930,351,0,0
-287,673,0,0,0,0,0,0,0,0,0,-1,937,351,0,0
-280,673,0,0,0,0,0,0,0,0,0,-1,944,351,0,0
-273,673,0,0,0,0,0,0,0,0,0,-1,951,351,0,0
-266,673,0,0,0,0,0,0,0,0,0,-1,958,351,0,0
-259,673,0,0,0,0,0,0,0,0,0,-1,965,351,0,0
-252,673,0,0,0,0,0,0,0,0,0,-1,972,351,0,0
-245,673,0,0,0,0,0,0,0,0,0,-1,979,351,0,0
-238,673,0,0,0,0,0,0,0,0,0,-1,986,351,0,0
-231,673,0,0,0,0,0,0,0,0,0,-1,993,351,0,0
-224,673,0,0,0,0,0,0,0,0,0,-1,1000,351,0,0
-217,673,0,0,0,0,0,0,0,0,0,-1,1007,351,0,0
-210,673,0,0,0,0,0,0,0,0,0,-1,1014,351,0,0
-203,673,0,0,0,0,0,0,0,0,0,-1,1021,351,0,0
-196,673,0,0,0,0,0,0,0,0,0,-1,1028,351,0,0
-189,673,0,0,0,0,0,0,0,0,0,-1,1035,351,0,0
-182,673,0,0,0,0,0,0,0,0,0,-1,1042,351,0,0
-175,673,2.65991,-15.9225,0,0,0,0,0,0,0,-1,1049,351,2.65986,15.9225
-168,673,0.9375,-13.6093,0,0,0,0,0,0,0,-1,1056,351,0.937509,13.6093
-161,673,2.07959,-14.7435,0,0,0,0,0,0,0,-1,1063,351,2.07955,14.7435
-154,673,3.1676,-15.8547,0,0,0,0,0,0,0,-1,1070,351,3.16758,15.8547
-147,673,5.65417,-17.6095,0,0,0,0,0,0,0,-1,1077,351,5.65415,17.6095
-140,673,0.220703,-14.9859,0,0,0,0,0,0,0,-1,1084,351,0.220665,14.9859
-133,673,3.53357,-15.8437,0,0,0,0,0,0,0,-1,1091,351,3.53357,15.8437
-126,673,3.71814,-15.5347,-0.010946,0.0305412,0.0299297,0.046213,-0.0266178,1.08843,0.0425532,0.0441012,1098,351,3.71816,15.5347
-119,673,3.72791,-15.3059,-0.0113591,0.0300901,0.0300045,0.0458317,-0.0271007,1.08763,0.0425679,0.0438912,1105,351,3.72785,15.3059
-112,673,3.53333,-15.1871,-0.0112469,0.0287443,0.0295122,0.0443969,-0.0268995,1.08314,0.0415741,0.0419061,1112,351,3.53328,15.1871
-105,673,3.30298,-14.8849,-0.0109657,0.027181,0.02901,0.0428261,-0.0266108,1.0762,0.0404522,0.0423073,1119,351,3.30293,14.8849
-98,673,3.14258,-14.4264,-0.010725,0.0255102,0.0284869,0.0411528,-0.0263676,1.06863,0.0392932,0.0431279,1126,351,3.14252,14.4264
-91,673,2.97766,-13.8267,0,0,0,0,0,0,0,-1,1133,351,2.97764,13.8267
-84,673,3.59192,-12.5205,0,0,0,0,0,0,0,-1,1140,351,3.59196,12.5205
-77,673,1.60266,-8.87473,0,0,0,0,0,0,0,-1,1147,351,1.60268,8.87474
-70,673,1.88684,-4.7381,0,0,0,0,0,0,0,-1,1154,351,1.88682,4.73809
-63,673,1.11719,-2.95016,0,0,0,0,0,0,0,-1,1161,351,1.11724,2.95016
-56,673,-6.18872,-9.52338,0,0,0,0,0,0,0,-1,1168,351,-6.18874,9.52336
-49,673,-0.926758,-0.115448,0,0,0,0,0,0,0,-1,1175,351,-0.926732,0.115444
-42,673,-1.15015,0.289917,0,0,0,0,0,0,0,-1,1182,351,-1.15017,-0.289932
-35,673,-0.919556,-1.00711,0,0,0,0,0,0,0,-1,1189,351,-0.919514,1.00711
-28,673,1.03564,-2.58228,0,0,0,0,0,0,0,-1,1196,351,1.0356,2.58229
-21,673,2.75134,-15.7719,0,0,0,0,0,0,0,-1,1203,351,2.75131,15.7718
-14,673,2.7301,-15.7952,0.035936,-0.000351279,0.00166758,0.0360125,-0.000427753,0.0458262,0.0241522,0.0432066,1210,351,2.7301,15.7952
-7,673,2.77661,-15.864,0.0305597,0.00355495,0.0022443,0.030745,0.0033697,0.0823547,0.0194708,0.0405856,1217,351,2.77663,15.864
0,673,2.8855,-15.934,0.025045,0.00700851,0.00288314,0.0254947,0.00655885,0.154715,0.0152866,0.0439162,1224,351,2.88547,15.934
7,673,2.73657,-16.0144,0.0199682,0.0106537,0.00356139,0.0211738,0.00944804,0.326421,0.0122483,0.0445754,1231,351,2.73652,16.0144
14,673,2.73169,-16.0509,0.0150625,0.0138642,0.00397485,0.0184831,0.0104436,0.710594,0.0107012,0.0389365,1238,351,2.73169,16.0509
21,673,2.76123,-15.9999,0.010656,0.0165347,0.00412944,0.0186641,0.00852663,1.0947,0.0107891,0.0254278,1245,351,2.76119,15.9999
28,673,2.73865,-16.0192,0.0070913,0.018696,0.00416996,0.020039,0.00574831,1.25922,0.0119148,0.0179729,1252,351,2.73868,16.0192
35,673,2.71118,-16.0413,0,0,0,0,0,0,0,-1,1259,351,2.71121,16.0413
42,673,2.64343,-16.0625,0.00225892,0.0211816,0.00431011,0.0221171,0.00132343,1.35707,0.014324,0.0287671,1266,351,2.64341,16.0625
49,673,2.61829,-16.0181,0.000826395,0.0213284,0.00374033,0.0219895,0.000165335,1.39586,0.0146049,0.0187953,1273,351,2.61834,16.0181
56,673,2.62036,-16.0032,0.000734558,0.0215113,0.00290893,0.0219109,0.000334969,1.43428,0.0144969,0.0151415,1280,351,2.62042,16.0032
63,673,2.65588,-15.9607,0.00223723,0.020541,0.00205717,0.0207693,0.00200887,1.46024,0.0132275,0.017694,1287,351,2.65592,15.9607
70,673,2.60425,-15.8484,0.00347159,0.0192024,0.00146731,0.0193381,0.00333589,1.47858,0.0119365,0.0274467,1294,351,2.60427,15.8484
77,673,2.57922,-15.8639,0.00494067,0.0176733,0.000295434,0.0176801,0.00493382,1.54761,0.0105346,0.0372621,1301,351,2.57916,15.8639
84,673,2.56177,-15.945,0.00588932,0.0162243,-0.000868758,0.0162968,0.0058168,-1.48752,0.00953649,0.0412889,1308,351,2.56183,15.945
91,673,3.29114,-14.6642,0,0,0,0,0,0,0,-1,1315,351,3.29108,14.6642
98,673,3.53076,-14.6284,0,0,0,0,0,0,0,-1,1322,351,3.53075,14.6284
105,673,2.33801,-15.9162,0.00586096,0.0136239,-0.00471331,0.0158482,0.00363659,-1.12985,0.00958604,0.0411999,1329,351,2.33799,15.9162
112,673,2.38574,-15.9587,0.00507365,0.0127378,-0.0060097,0.0160332,0.00177821,-1.06922,0.0101481,0.0395682,1336,351,2.3857,15.9587
119,673,2.57129,-15.6904,0.0040421,0.0119534,-0.00701215,0.0160487,-5.31813e-05,-1.04221,0.0107169,0.0374481,1343,351,2.57131,15.6904
126,673,2.46545,-15.5486,0.0027615,0.0111138,-0.00787528,0.0158517,-0.0019764,-1.02919,0.0112844,0.0389653,1350,351,2.46542,15.5486
133,673,2.58838,-15.4125,0.00104257,0.0102293,-0.00872197,0.0154935,-0.00422165,-1.02776,0.0119866,0.0404193,1357,351,2.58836,15.4125
140,673,2.48389,-15.5122,-0.000947045,0.00942519,-0.00952616,0.0150854,-0.00660729,-1.03467,0.0128392,0.0407204,1364,351,2.48383,15.5122
147,673,2.18762,-15.4443,-0.00260335,0.00876058,-0.0101571,0.0147169,-0.00855971,-1.04042,0.0135946,0.0370397,1371,351,2.18757,15.4443
154,673,2.21533,-15.3976,-0.00369648,0.00768596,-0.0107582,0.0141656,-0.0101761,-1.02869,0.0141165,0.0351812,1378,351,2.21538,15.3975
161,673,2.24084,-15.2723,0,0,0,0,0,0,0,-1,1385,351,2.24085,15.2723
168,673,6.87061,1.83954,0,0,0,0,0,0,0,-1,1392,351,6.87063,-1.83953
175,673,6.6228,1.1459,0,0,0,0,0,0,0,-1,1399,351,6.62276,-1.14591
182,673,6.37244,0.796112,0,0,0,0,0,0,0,-1,1406,351,6.3724,-0.796102
189,673,6.12097,0.265472,0,0,0,0,0,0,0,-1,1413,351,6.121,-0.265482
196,673,6.02173,3.12717,0,0,0,0,0,0,0,-1,1420,351,6.02176,-3.12717
203,673,5.04456,1.6351,0,0,0,0,0,0,0,-1,1427,351,5.04455,-1.63509
210,673,4.79224,0.447479,0,0,0,0,0,0,0,-1,1434,351,4.79229,-0.447469
217,673,2.01648,0.972687,0,0,0,0,0,0,0,-1,1441,351,2.01644,-0.972691
224,673,2.3689,-1.80539,0,0,0,0,0,0,0,-1,1448,351,2.36896,1.80539
231,673,2.65857,-2.18497,0,0,0,0,0,0,0,-1,1455,351,2.65852,2.18496
238,673,3.24146,-1.01593,0,0,0,0,0,0,0,-1,1462,351,3.24142,1.01593
245,673,3.5376,-0.190399,0,0,0,0,0,0,0,-1,1469,351,3.53759,0.1904
252,673,3.80518,0.55603,0,0,0,0,0,0,0,-1,1476,351,3.80519,-0.556022
259,673,3.88562,1.29617,0,0,0,0,0,0,0,-1,1483,351,3.88562,-1.29618
266,673,4.22424,2.04834,0,0,0,0,0,0,0,-1,1490,351,4.22429,-2.04834
273,673,6.07886,0.385895,0,0,0,0,0,0,0,-1,1497,351,6.0789,-0.385906
280,673,6.97534,-0.0820007,0,0,0,0,0,0,0,-1,1504,351,6.97536,0.0820122
287,673,7.66968,-0.348541,0,0,0,0,0,0,0,-1,1511,351,7.66969,0.348534
294,673,8.20996,0.28537,0,0,0,0,0,0,0,-1,1518,351,8.20993,-0.28536
301,673,0,0,0,0,0,0,0,0,0,-1,1525,351,0,0
308,673,0,0,0,0,0,0,0,0,0,-1,1532,351,0,0
315,673,0,0,0,0,0,0,0,0,0,-1,1539,351,0,0
322,673,0,0,0,0,0,0,0,0,0,-1,1546,351,0,0
329,673,0,0,0,0,0,0,0,0,0,-1,1553,351,0,0
336,673,0,0,0,0,0,0,0,0,0,-1,1560,351,0,0
343,673,0,0,0,0,0,0,0,0,0,-1,1567,351,0,0
350,673,0,0,0,0,0,0,0,0,0,-1,1574,351,0,0
357,673,0,0,0,0,0,0,0,0,0,-1,1581,351,0,0
364,673,0,0,0,0,0,0,0,0,0,-1,1588,351,0,0
371,673,0,0,0,0,0,0,0,0,0,-1,1595,351,0,0
378,673,0,0,0,0,0,0,0,0,0,-1,1602,351,0,0
385,673,0,0,0,0,0,0,0,0,0,-1,1609,351,0,0
392,673,0,0,0,0,0,0,0,0,0,-1,1616,351,0,0
399,673,0,0,0,0,0,0,0,0,0,-1,1623,351,0,0
406,673,0,0,0,0,0,0,0,0,0,-1,1630,351,0,0
413,673,0,0,0,0,0,0,0,0,0,-1,1637,351,0,0
420,673,0,0,0,0,0,0,0,0,0,-1,1644,351,0,0
427,673,0,0,0,0,0,0,0,0,0,-1,1651,351,0,0
434,673,0,0,0,0,0,0,0,0,0,-1,1658,351,0,0
441,673,0,0,0,0,0,0,0,0,0,-1,1665,351,0,0
448,673,0,0,0,0,0,0,0,0,0,-1,1672,351,0,0
455,673,0,0,0,0,0,0,0,0,0,-1,1679,351,0,0
462,673,0,0,0,0,0,0,0,0,0,-1,1686,351,0,0
469,673,0,0,0,0,0,0,0,0,0,-1,1693,351,0,0
476,673,0,0,0,0,0,0,0,0,0,-1,1700,351,0,0
483,673,0,0,0,0,0,0,0,0,0,-1,1707,351,0,0
490,673,0,0,0,0,0,0,0,0,0,-1,1714,351,0,0
497,673,0,0,0,0,0,0,0,0,0,-1,1721,351,0,0
504,673,0,0,0,0,0,0,0,0,0,-1,1728,351,0,0
511,673,0,0,0,0,0,0,0,0,0,-1,1735,351,0,0
518,673,0,0,0,0,0,0,0,0,0,-1,1742,351,0,0
525,673,0,0,0,0,0,0,0,0,0,-1,1749,351,0,0
532,673,0,0,0,0,0,0,0,0,0,-1,1756,351,0,0
539,673,0,0,0,0,0,0,0,0,0,-1,1763,351,0,0
546,673,0,0,0,0,0,0,0,0,0,-1,1770,351,0,0
553,673,0,0,0,0,0,0,0,0,0,-1,1777,351,0,0
560,673,0,0,0,0,0,0,0,0,0,-1,1784,351,0,0
567,673,0,0,0,0,0,0,0,0,0,-1,1791,351,0,0
574,673,0,0,0,0,0,0,0,0,0,-1,1798,351,0,0
581,673,0,0,0,0,0,0,0,0,0,-1,1805,351,0,0
588,673,0,0,0,0,0,0,0,0,0,-1,1812,351,0,0
595,673,0,0,0,0,0,0,0,0,0,-1,1819,351,0,0
602,673,0,0,0,0,0,0,0,0,0,-1,1826,351,0,0
609,673,0,0,0,0,0,0,0,0,0,-1,1833,351,0,0
616,673,0,0,0,0,0,0,0,0,0,-1,1840,351,0,0
623,673,0,0,0,0,0,0,0,0,0,-1,1847,351,0,0
630,673,0,0,0,0,0,0,0,0,0,-1,1854,351,0,0
637,673,0,0,0,0,0,0,0,0,0,-1,1861,351,0,0
644,673,0,0,0,0,0,0,0,0,0,-1,1868,351,0,0
651,673,0,0,0,0,0,0,0,0,0,-1,1875,351,0,0
658,673,0,0,0,0,0,0,0,0,0,-1,1882,351,0,0
665,673,0,0,0,0,0,0,0,0,0,-1,1889,351,0,0
672,673,0,0,0,0,0,0,0,0,0,-1,1896,351,0,0
679,673,0,0,0,0,0,0,0,0,0,-1,1903,351,0,0
686,673,0,0,0,0,0,0,0,0,0,-1,1910,351,0,0
693,673,0,0,0,0,0,0,0,0,0,-1,1917,351,0,0
700,673,0,0,0,0,0,0,0,0,0,-1,1924,351,0,0
707,673,0,0,0,0,0,0,0,0,0,-1,1931,351,0,0
714,673,0,0,0,0,0,0,0,0,0,-1,1938,351,0,0
721,673,0,0,0,0,0,0,0,0,0,-1,1945,351,0,0
728,673,0,0,0,0,0,0,0,0,0,-1,1952,351,0,0
735,673,0,0,0,0,0,0,0,0,0,-1,1959,351,0,0
742,673,0,0,0,0,0,0,0,0,0,-1,1966,351,0,0
749,673,0,0,0,0,0,0,0,0,0,-1,1973,351,0,0
756,673,0,0,0,0,0,0,0,0,0,-1,1980,351,0,0
763,673,0,0,0,0,0,0,0,0,0,-1,1987,351,0,0
770,673,0,0,0,0,0,0,0,0,0,-1,1994,351,0,0
777,673,0,0,0,0,0,0,0,0,0,-1,2001,351,0,0
784,673,0,0,0,0,0,0,0,0,0,-1,2008,351,0,0
791,673,0,0,0,0,0,0,0,0,0,-1,2015,351,0,0
798,673,0,0,0,0,0,0,0,0,0,-1,2022,351,0,0
805,673,0,0,0,0,0,0,0,0,0,-1,2029,351,0,0
812,673,0,0,0,0,0,0,0,0,0,-1,2036,351,0,0
-700,666,0,0,0,0,0,0,0,0,0,-1,524,358,0,0
-693,666,0,0,0,0,0,0,0,0,0,-1,531,358,0,0
-686,666,0,0,0,0,0,0,0,0,0,-1,538,358,0,0
-679,666,0,0,0,0,0,0,0,0,0,-1,545,358,0,0
-672,666,0,0,0,0,0,0,0,0,0,-1,552,358,0,0
-665,666,0,0,0,0,0,0,0,0,0,-1,559,358,0,0
-658,666,0,0,0,0,0,0,0,0,0,-1,566,358,0,0
-651,666,0,0,0,0,0,0,0,0,0,-1,573,358,0,0
-644,666,0,0,0,0,0,0,0,0,0,-1,580,358,0,0
-637,666,0,0,0,0,0,0,0,0,0,-1,587,358,0,0
-630,666,0,0,0,0,0,0,0,0,0,-1,594,358,0,0
-623,666,0,0,0,0,0,0,0,0,0,-1,601,358,0,0
-616,666,0,0,0,0,0,0,0,0,0,-1,608,358,0,0
-609,666,0,0,0,0,0,0,0,0,0,-1,615,358,0,0
-602,666,0,0,0,0,0,0,0,0,0,-1,622,358,0,0
-595,666,0,0,0,0,0,0,0,0,0,-1,629,358,0,0
-588,666,0,0,0,0,0,0,0,0,0,-1,636,358,0,0
-581,666,0,0,0,0,0,0,0,0,0,-1,643,358,0,0
-574,666,0,0,0,0,0,0,0,0,0,-1,650,358,0,0
-567,666,0,0,0,0,0,0,0,0,0,-1,657,358,0,0
-560,666,0,0,0,0,0,0,0,0,0,-1,664,358,0,0
-553,666,0,0,0,0,0,0,0,0,0,-1,671,358,0,0
-546,666,0,0,0,0,0,0,0,0,0,-1,678,358,0,0
-539,666,0,0,0,0,0,0,0,0,0,-1,685,358,0,0
-532,666,0,0,0,0,0,0,0,0,0,-1,692,358,0,0
-525,666,0,0,0,0,0,0,0,0,0,-1,699,358,0,0
-518,666,0,0,0,0,0,0,0,0,0,-1,706,358,0,0
-511,666,0,0,0,0,0,0,0,0,0,-1,713,358,0,0
-504,666,0,0,0,0,0,0,0,0,0,-1,720,358,0,0
-497,666,0,0,0,0,0,0,0,0,0,-1,727,358,0,0
-490,666,0,0,0,0,0,0,0,0,0,-1,734,358,0,0
-483,666,0,0,0,0,0,0,0,0,0,-1,741,358,0,0
-476,666,0,0,0,0,0,0,0,0,0,-1,748,358,0,0
-469,666,0,0,0,0,0,0,0,0,0,-1,755,358,0,0
-462,666,0,0,0,0,0,0,0,0,0,-1,762,358,0,0
-455,666,0,0,0,0,0,0,0,0,0,-1,769,358,0,0
-448,666,0,0,0,0,0,0,0,0,0,-1,776,358,0,0
-441,666,0,0,0,0,0,0,0,0,0,-1,783,358,0,0
-434,666,0,0,0,0,0,0,0,0,0,-1,790,358,0,0
-427,666,0,0,0,0,0,0,0,0,0,-1,797,358,0,0
-420,666,0,0,0,0,0,0,0,0,0,-1,804,358,0,0
-413,666,0,0,0,0,0,0,0,0,0,-1,811,358,0,0
-406,666,0,0,0,0,0,0,0,0,0,-1,818,358,0,0
-399,666,0,0,0,0,0,0,0,0,0,-1,825,358,0,0
-392,666,0,0,0,0,0,0,0,0,0,-1,832,358,0,0
-385,666,0,0,0,0,0,0,0,0,0,-1,839,358,0,0
-378,666,0,0,0,0,0,0,0,0,0,-1,846,358,0,0
-371,666,0,0,0,0,0,0,0,0,0,-1,853,358,0,0
-364,666,0,0,0,0,0,0,0,0,0,-1,860,358,0,0
-357,666,0,0,0,0,0,0,0,0,0,-1,867,358,0,0
-350,666,0,0,0,0,0,0,0,0,0,-1,874,358,0,0
-343,666,0,0,0,0,0,0,0,0,0,-1,881,358,0,0
-336,666,0,0,0,0,0,0,0,0,0,-1,888,358,0,0
-329,666,0,0,0,0,0,0,0,0,0,-1,895,358,0,0
-322,666,0,0,0,0,0,0,0,0,0,-1,902,358,0,0
-315,666,0,0,0,0,0,0,0,0,0,-1,909,358,0,0
-308,666,0,0,0,0,0,0,0,0,0,-1,916,358,0,0
-301,666,0,0,0,0,0,0,0,0,0,-1,923,358,0,0
-294,666,0,0,0,0,0,0,0,0,0,-1,930,358,0,0
-287,666,0,0,0,0,0,0,0,0,0,-1,937,358,0,0
-280,666,0,0,0,0,0,0,0,0,0,-1,944,358,0,0
-273,666,0,0,0,0,0,0,0,0,0,-1,951,358,0,0
-266,666,0,0,0,0,0,0,0,0,0,-1,958,358,0,0
-259,666,0,0,0,0,0,0,0,0,0,-1,965,358,0,0
-252,666,0,0,0,0,0,0,0,0,0,-1,972,358,0,0
-245,666,0,0,0,0,0,0,0,0,0,-1,979,358,0,0
-238,666,0,0,0,0,0,0,0,0,0,-1,986,358,0,0
-231,666,0,0,0,0,0,0,0,0,0,-1,993,358,0,0
-224,666,0,0,0,0,0,0,0,0,0,-1,1000,358,0,0
-217,666,0,0,0,0,0,0,0,0,0,-1,1007,358,0,0
-210,666,0,0,0,0,0,0,0,0,0,-1,1014,358,0,0
-203,666,0,0,0,0,0,0,0,0,0,-1,1021,358,0,0
-196,666,4.0769,-19.0127,0,0,0,0,0,0,0,-1,1028,358,4.07693,19.0127
-189,666,3.37659,-17.8461,0,0,0,0,0,0,0,-1,1035,358,3.37657,17.8461
-182,666,2.59351,-16.6118,0,0,0,0,0,0,0,-1,1042,358,2.59354,16.6118
-175,666,0.871094,-17.0322,0,0,0,0,0,0,0,-1,1049,358,0.871064,17.0322
-168,666,1.55603,-14.8302,0,0,0,0,0,0,0,-1,1056,358,1.55599,14.8302
-161,666,2.2666,-15.1104,0,0,0,0,0,0,0,-1,1063,358,2.26666,15.1104
-154,666,5.74841,-17.1528,0,0,0,0,0,0,0,-1,1070,358,5.74836,17.1528
-147,666,5.19275,-16.7028,0,0,0,0,0,0,0,-1,1077,358,5.1928,16.7028
-140,666,4.63721,-16.2528,0,0,0,0,0,0,0,-1,1084,358,4.63723,16.2529
-133,666,3.50781,-14.0721,-0.00836001,0.0221931,0.0219604,0.0336678,-0.0198348,1.0893,0.031232,0.0457279,1091,358,3.50776,14.0721
-126,666,2.74353,-15.858,-0.00867795,0.0224004,0.0223827,0.0341092,-0.0203867,1.08883,0.031794,0.0404608,1098,358,2.74348,15.858
-119,666,2.94263,-15.7148,-0.00907177,0.0225082,0.0223599,0.0340913,-0.0206549,1.09283,0.0319235,0.0392843,1105,358,2.94257,15.7148
-112,666,3.39832,-15.5279,-0.00901607,0.0217511,0.0217717,0.0330257,-0.0202907,1.09296,0.0310736,0.0385468,1112,358,3.3983,15.5279
-105,666,3.37952,-15.0736,-0.00876828,0.0207242,0.0211078,0.0317266,-0.0197707,1.0903,0.0299979,0.0414501,1119,358,3.37947,15.0736
-98,666,3.13098,-14.6836,-0.00849209,0.0194737,0.0203602,0.0301902,-0.0192086,1.0863,0.0287543,0.0455269,1126,358,3.13094,14.6836
-91,666,2.95544,-14.3308,0,0,0,0,0,0,0,-1,1133,358,2.95547,14.3308
-84,666,3.45264,-13.0934,0,0,0,0,0,0,0,-1,1140,358,3.45259,13.0934
-77,666,0.964722,-10.3601,0,0,0,0,0,0,0,-1,1147,358,0.964669,10.3601
-70,666,2.05957,-6.51086,0,0,0,0,0,0,0,-1,1154,358,2.05959,6.51088
-63,666,1.47485,-3.79593,0,0,0,0,0,0,0,-1,1161,358,1.47481,3.79593
-56,666,0.424683,-2.04132,0,0,0,0,0,0,0,-1,1168,358,0.424665,2.04132
-49,666,0.754395,-2.23169,0,0,0,0,0,0,0,-1,1175,358,0.754383,2.23169
-42,666,1.34473,-3.53897,0,0,0,0,0,0,0,-1,1182,358,1.34476,3.53896
-35,666,2.53845,-15.9836,0,0,0,0,0,0,0,-1,1189,358,2.53846,15.9836
-28,666,2.77563,-15.8981,0,0,0,0,0,0,0,-1,1196,358,2.77569,15.8981
-21,666,2.74219,-15.8325,0.0259935,-0.00183747,0.000999201,0.0260293,-0.0018733,0.0358409,0.0180098,0.0334918,1203,358,2.74221,15.8325
-14,666,2.72815,-15.8782,0.0231771,0.000307286,0.00147685,0.0232721,0.000212311,0.0642211,0.0154444,0.0240213,1210,358,2.7281,15.8782
-7,666,2.74219,-15.9121,0.0197768,0.00283376,0.00184665,0.0199757,0.00263482,0.107313,0.0125315,0.0165555,1217,358,2.74218,15.9121
0,666,2.77002,-15.9497,0.0161888,0.00503895,0.00227653,0.0166357,0.00459205,0.193843,0.0099206,0.0119489,1224,358,2.76998,15.9497
7,666,2.69434,-15.9927,0.0127935,0.00751941,0.00276304,0.013976,0.00633699,0.404362,0.00808068,0.014787,1231,358,2.69432,15.9927
14,666,2.6554,-16.0031,0.00946648,0.00984267,0.00306124,0.0127216,0.00658756,0.816082,0.00734637,0.0151512,1238,358,2.65544,16.0031
21,666,2.64502,-16.0306,0.00648718,0.0119446,0.00317139,0.0133996,0.00503215,1.14065,0.00781573,0.0117044,1245,358,2.64507,16.0306
28,666,2.6322,-16.0525,0.00409991,0.0137068,0.00319863,0.0146744,0.00313237,1.27706,0.00892397,0.012318,1252,358,2.63221,16.0525
35,666,2.64502,-16.041,0.00256178,0.0151433,0.00331904,0.0159652,0.00173989,1.32805,0.0101135,0.0109065,1259,358,2.64507,16.041
42,666,2.61743,-16.0544,0.000951956,0.0159566,0.00333203,0.0166633,0.000245307,1.36181,0.011028,0.0118074,1266,358,2.61743,16.0544
49,666,2.58887,-16.0511,8.81873e-05,0.0162568,0.00291319,0.0167657,-0.000420683,1.39786,0.0113199,0.0108274,1273,358,2.58891,16.0511
56,666,2.58997,-16.0508,0.000240883,0.016663,0.00234523,0.0169914,-8.74717e-05,1.43169,0.0113569,0.0122495,1280,358,2.59001,16.0507
63,666,2.5509,-16.0544,0.00153177,0.0162496,0.00182904,0.0164735,0.00130787,1.44899,0.0105733,0.0136537,1287,358,2.55091,16.0544
70,666,2.53235,-16.0239,0.00259031,0.0155428,0.00162033,0.0157425,0.00239069,1.44822,0.00979581,0.0138209,1294,358,2.53232,16.0239
77,666,2.53333,-15.9849,0.00383462,0.014646,0.000946256,0.0147282,0.00375243,1.48415,0.00883766,0.0164587,1301,358,2.53331,15.9849
84,666,2.49683,-16.0161,0.00465815,0.0137537,0.000288462,0.0137628,0.00464901,1.53912,0.00808415,0.0213806,1308,358,2.49679,16.0161
91,666,2.47168,-16.0043,0.0048757,0.0130382,-0.000487697,0.0130672,0.00484666,-1.51133,0.00762771,0.0207274,1315,358,2.47171,16.0043
98,666,2.46643,-15.9642,0.00487564,0.0124057,-0.00122286,0.0125994,0.00468203,-1.41377,0.00735375,0.0182311,1322,358,2.4664,15.9642
105,666,2.43347,-15.9102,0.00467317,0.0121373,-0.00202509,0.0126513,0.00415914,-1.32222,0.00744568,0.0182293,1329,358,2.43348,15.9102
112,666,2.41309,-15.864,0.00410613,0.0115386,-0.00285308,0.0125075,0.00313723,-1.24342,0.00751419,0.0203952,1336,358,2.41308,15.864
119,666,2.41113,-15.7737,0.0033139,0.010959,-0.00352205,0.0123342,0.0019387,-1.19854,0.00765883,0.0228769,1343,358,2.41118,15.7737
126,666,2.37231,-15.6708,0.00229902,0.0103112,-0.00412156,0.0120528,0.000557417,-1.17099,0.007856,0.0248846,1350,358,2.37233,15.6708
133,666,2.36377,-15.6116,0.000989069,0.00964545,-0.00477421,0.0117614,-0.00112683,-1.15362,0.00824223,0.0233249,1357,358,2.36381,15.6116
140,666,2.32446,-15.5911,-0.000495028,0.00896669,-0.00544029,0.0114454,-0.00297373,-1.14328,0.0087908,0.0215617,1364,358,2.32446,15.5911
147,666,2.27161,-15.5341,-0.00176581,0.00853094,-0.00593001,0.0112356,-0.00447051,-1.14288,0.00934414,0.0196927,1371,358,2.27166,15.5341
154,666,2.29358,-15.4311,-0.00262932,0.00782195,-0.00632619,0.0108017,-0.00560905,-1.1306,0.00963154,0.0184785,1378,358,2.29361,15.4311
161,666,2.3363,-15.3539,-0.00327857,0.00679174,-0.00660468,0.0100617,-0.00654851,-1.11108,0.00966113,0.0246855,1385,358,2.33627,15.3539
168,666,2.3645,-15.2952,0,0,0,0,0,0,0,-1,1392,358,2.36445,15.2952
175,666,2.49207,-15.4134,0,0,0,0,0,0,0,-1,1399,358,2.49207,15.4134
182,666,2.60876,-5.17068,0,0,0,0,0,0,0,-1,1406,358,2.6088,5.17068
189,666,2.46973,-5.49979,0,0,0,0,0,0,0,-1,1413,358,2.46975,5.49979
196,666,2.32458,-5.23651,0,0,0,0,0,0,0,-1,1420,358,2.32461,5.23653
203,666,2.28064,-3.88004,0,0,0,0,0,0,0,-1,1427,358,2.28059,3.88003
210,666,3.02576,-5.83548,0,0,0,0,0,0,0,-1,1434,358,3.02581,5.83547
217,666,2.30444,-5.36011,0,0,0,0,0,0,0,-1,1441,358,2.30447,5.3601
224,666,1.82324,-6.03101,0,0,0,0,0,0,0,-1,1448,358,1.82322,6.031
231,666,2.29797,-10.1093,0,0,0,0,0,0,0,-1,1455,358,2.29801,10.1093
238,666,2.52429,-6.10568,0,0,0,0,0,0,0,-1,1462,358,2.52423,6.10567
245,666,4.53345,-1.38205,0,0,0,0,0,0,0,-1,1469,358,4.53349,1.38204
252,666,4.77405,-0.246979,0,0,0,0,0,0,0,-1,1476,358,4.77405,0.246993
259,666,4.83655,1.14087,0,0,0,0,0,0,0,-1,1483,358,4.83652,-1.14087
266,666,6.14148,0.749512,0,0,0,0,0,0,0,-1,1490,358,6.14144,-0.749519
273,666,2.61304,-1.53772,0,0,0,0,0,0,0,-1,1497,358,2.613,1.53773
280,666,8.70898,-0.836975,0,0,0,0,0,0,0,-1,1504,358,8.70894,0.836988
287,666,2.27039,-4.09058,0,0,0,0,0,0,0,-1,1511,358,2.27042,4.09059
294,666,1.43115,-13.1906,0,0,0,0,0,0,0,-1,1518,358,1.4311,13.1906
301,666,1.35095,-11.8304,0,0,0,0,0,0,0,-1,1525,358,1.3509,11.8304
308,666,1.08496,-1.87576,0,0,0,0,0,0,0,-1,1532,358,1.08491,1.87575
315,666,1.76294,-0.284027,0,0,0,0,0,0,0,-1,1539,358,1.76291,0.284016
322,666,0,0,0,0,0,0,0,0,0,-1,1546,358,0,0
329,666,0,0,0,0,0,0,0,0,0,-1,1553,358,0,0
336,666,0,0,0,0,0,0,0,0,0,-1,1560,358,0,0
343,666,0,0,0,0,0,0,0,0,0,-1,1567,358,0,0
350,666,0,0,0,0,0,0,0,0,0,-1,1574,358,0,0
357,666,0,0,0,0,0,0,0,0,0,-1,1581,358,0,0
364,666,0,0,0,0,0,0,0,0,0,-1,1588,358,0,0
371,666,0,0,0,0,0,0,0,0,0,-1,1595,358,0,0
378,666,0,0,0,0,0,0,0,0,0,-1,1602,358,0,0
385,666,0,0,0,0,0,0,0,0,0,-1,1609,358,0,0
392,666,0,0,0,0,0,0,0,0,0,-1,1616,358,0,0
399,666,0,0,0,0,0,0,0,0,0,-1,1623,358,0,0
406,666,0,0,0,0,0,0,0,0,0,-1,1630,358,0,0
413,666,0,0,0,0,0,0,0,0,0,-1,1637,358,0,0
420,666,0,0,0,0,0,0,0,0,0,-1,1644,358,0,0
427,666,0,0,0,0,0,0,0,0,0,-1,1651,358,0,0
434,666,0,0,0,0,0,0,0,0,0,-1,1658,358,0,0
441,666,0,0,0,0,0,0,0,0,0,-1,1665,358,0,0
448,666,0,0,0,0,0,0,0,0,0,-1,1672,358,0,0
455,666,0,0,0,0,0,0,0,0,0,-1,1679,358,0,0
462,666,0,0,0,0,0,0,0,0,0,-1,1686,358,0,0
469,666,0,0,0,0,0,0,0,0,0,-1,1693,358,0,0
476,666,0,0,0,0,0,0,0,0,0,-1,1700,358,0,0
483,666,0,0,0,0,0,0,0,0,0,-1,1707,358,0,0
490,666,0,0,0,0,0,0,0,0,0,-1,1714,358,0,0
497,666,0,0,0,0,0,0,0,0,0,-1,1721,358,0,0
504,666,0,0,0,0,0,0,0,0,0,-1,1728,358,0,0
511,666,0,0,0,0,0,0,0,0,0,-1,1735,358,0,0
518,666,0,0,0,0,0,0,0,0,0,-1,1742,358,0,0
525,666,0,0,0,0,0,0,0,0,0,-1,1749,358,0,0
532,666,0,0,0,0,0,0,0,0,0,-1,1756,358,0,0
539,666,0,0,0,0,0,0,0,0,0,-1,1763,358,0,0
546,666,0,0,0,0,0,0,0,0,0,-1,1770,358,0,0
553,666,0,0,0,0,0,0,0,0,0,-1,1777,358,0,0
560,666,0,0,0,0,0,0,0,0,0,-1,1784,358,0,0
567,666,0,0,0,0,0,0,0,0,0,-1,1791,358,0,0
574,666,0,0,0,0,0,0,0,0,0,-1,1798,358,0,0
581,666,0,0,0,0,0,0,0,0,0,-1,1805,358,0,0
588,666,0,0,0,0,0,0,0,0,0,-1,1812,358,0,0
595,666,0,0,0,0,0,0,0,0,0,-1,1819,358,0,0
602,666,0,0,0,0,0,0,0,0,0,-1,1826,358,0,0
609,666,0,0,0,0,0,0,0,0,0,-1,1833,358,0,0
616,666,0,0,0,0,0,0,0,0,0,-1,1840,358,0,0
623,666,0,0,0,0,0,0,0,0,0,-1,1847,358,0,0
630,666,0,0,0,0,0,0,0,0,0,-1,1854,358,0,0
637,666,0,0,0,0,0,0,0,0,0,-1,1861,358,0,0
644,666,0,0,0,0,0,0,0,0,0,-1,1868,358,0,0
651,666,0,0,0,0,0,0,0,0,0,-1,1875,358,0,0
658,666,0,0,0,0,0,0,0,0,0,-1,1882,358,0,0
665,666,0,0,0,0,0,0,0,0,0,-1,1889,358,0,0
672,666,0,0,0,0,0,0,0,0,0,-1,1896,358,0,0
679,666,0,0,0,0,0,0,0,0,0,-1,1903,358,0,0
686,666,0,0,0,0,0,0,0,0,0,-1,1910,358,0,0
693,666,0,0,0,0,0,0,0,0,0,-1,1917,358,0,0
700,666,0,0,0,0,0,0,0,0,0,-1,1924,358,0,0
707,666,0,0,0,0,0,0,0,0,0,-1,1931,358,0,0
714,666,0,0,0,0,0,0,0,0,0,-1,1938,358,0,0
721,666,0,0,0,0,0,0,0,0,0,-1,1945,358,0,0
728,666,0,0,0,0,0,0,0,0,0,-1,1952,358,0,0
735,666,0,0,0,0,0,0,0,0,0,-1,1959,358,0,0
742,666,0,0,0,0,0,0,0,0,0,-1,1966,358,0,0
749,666,0,0,0,0,0,0,0,0,0,-1,1973,358,0,0
756,666,0,0,0,0,0,0,0,0,0,-1,1980,358,0,0
763,666,0,0,0,0,0,0,0,0,0,-1,1987,358,0,0
770,666,0,0,0,0,0,0,0,0,0,-1,1994,358,0,0
777,666,0,0,0,0,0,0,0,0,0,-1,2001,358,0,0
784,666,0,0,0,0,0,0,0,0,0,-1,2008,358,0,0
791,666,0,0,0,0,0,0,0,0,0,-1,2015,358,0,0
798,666,0,0,0,0,0,0,0,0,0,-1,2022,358,0,0
805,666,0,0,0,0,0,0,0,0,0,-1,2029,358,0,0
812,666,0,0,0,0,0,0,0,0,0,-1,2036,358,0,0
-700,659,0,0,0,0,0,0,0,0,0,-1,524,365,0,0
-693,659,0,0,0,0,0,0,0,0,0,-1,531,365,0,0
-686,659,0,0,0,0,0,0,0,0,0,-1,538,365,0,0
-679,659,0,0,0,0,0,0,0,0,0,-1,545,365,0,0
-672,659,0,0,0,0,0,0,0,0,0,-1,552,365,0,0
-665,659,0,0,0,0,0,0,0,0,0,-1,559,365,0,0
-658,659,0,0,0,0,0,0,0,0,0,-1,566,365,0,0
-651,659,0,0,0,0,0,0,0,0,0,-1,573,365,0,0
-644,659,0,0,0,0,0,0,0,0,0,-1,580,365,0,0
-637,659,0,0,0,0,0,0,0,0,0,-1,587,365,0,0
-630,659,0,0,0,0,0,0,0,0,0,-1,594,365,0,0
-623,659,0,0,0,0,0,0,0,0,0,-1,601,365,0,0
-616,659,0,0,0,0,0,0,0,0,0,-1,608,365,0,0
-609,659,0,0,0,0,0,0,0,0,0,-1,615,365,0,0
-602,659,0,0,0,0,0,0,0,0,0,-1,622,365,0,0
-595,659,0,0,0,0,0,0,0,0,0,-1,629,365,0,0
-588,659,0,0,0,0,0,0,0,0,0,-1,636,365,0,0
-581,659,0,0,0,0,0,0,0,0,0,-1,643,365,0,0
-574,659,0,0,0,0,0,0,0,0,0,-1,650,365,0,0
-567,659,0,0,0,0,0,0,0,0,0,-1,657,365,0,0
-560,659,0,0,0,0,0,0,0,0,0,-1,664,365,0,0
-553,659,0,0,0,0,0,0,0,0,0,-1,671,365,0,0
-546,659,0,0,0,0,0,0,0,0,0,-1,678,365,0,0
-539,659,0,0,0,0,0,0,0,0,0,-1,685,365,0,0
-532,659,0,0,0,0,0,0,0,0,0,-1,692,365,0,0
-525,659,0,0,0,0,0,0,0,0,0,-1,699,365,0,0
-518,659,0,0,0,0,0,0,0,0,0,-1,706,365,0,0
-511,659,0,0,0,0,0,0,0,0,0,-1,713,365,0,0
-504,659,0,0,0,0,0,0,0,0,0,-1,720,365,0,0
-497,659,0,0,0,0,0,0,0,0,0,-1,727,365,0,0
-490,659,0,0,0,0,0,0,0,0,0,-1,734,365,0,0
-483,659,0,0,0,0,0,0,0,0,0,-1,741,365,0,0
-476,659,0,0,0,0,0,0,0,0,0,-1,748,365,0,0
-469,659,0,0,0,0,0,0,0,0,0,-1,755,365,0,0
-462,659,0,0,0,0,0,0,0,0,0,-1,762,365,0,0
-455,659,0,0,0,0,0,0,0,0,0,-1,769,365,0,0
-448,659,0,0,0,0,0,0,0,0,0,-1,776,365,0,0
-441,659,0,0,0,0,0,0,0,0,0,-1,783,365,0,0
-434,659,0,0,0,0,0,0,0,0,0,-1,790,365,0,0
-427,659,0,0,0,0,0,0,0,0,0,-1,797,365,0,0
-420,659,0,0,0,0,0,0,0,0,0,-1,804,365,0,0
-413,659,0,0,0,0,0,0,0,0,0,-1,811,365,0,0
-406,659,0,0,0,0,0,0,0,0,0,-1,818,365,0,0
-399,659,0,0,0,0,0,0,0,0,0,-1,825,365,0,0
-392,659,0,0,0,0,0,0,0,0,0,-1,832,365,0,0
-385,659,0,0,0,0,0,0,0,0,0,-1,839,365,0,0
-378,659,0,0,0,0,0,0,0,0,0,-1,846,365,0,0
-371,659,0,0,0,0,0,0,0,0,0,-1,853,365,0,0
-364,659,0,0,0,0,0,0,0,0,0,-1,860,365,0,0
-357,659,0,0,0,0,0,0,0,0,0,-1,867,365,0,0
-350,659,0,0,0,0,0,0,0,0,0,-1,874,365,0,0
-343,659,0,0,0,0,0,0,0,0,0,-1,881,365,0,0
-336,659,0,0,0,0,0,0,0,0,0,-1,888,365,0,0
-329,659,0,0,0,0,0,0,0,0,0,-1,895,365,0,0
-322,659,0,0,0,0,0,0,0,0,0,-1,902,365,0,0
-315,659,0,0,0,0,0,0,0,0,0,-1,909,365,0,0
-308,659,0,0,0,0,0,0,0,0,0,-1,916,365,0,0
-301,659,0,0,0,0,0,0,0,0,0,-1,923,365,0,0
-294,659,0,0,0,0,0,0,0,0,0,-1,930,365,0,0
-287,659,0,0,0,0,0,0,0,0,0,-1,937,365,0,0
-280,659,0,0,0,0,0,0,0,0,0,-1,944,365,0,0
-273,659,0,0,0,0,0,0,0,0,0,-1,951,365,0,0
-266,659,0,0,0,0,0,0,0,0,0,-1,958,365,0,0
-259,659,0,0,0,0,0,0,0,0,0,-1,965,365,0,0
-252,659,0,0,0,0,0,0,0,0,0,-1,972,365,0,0
-245,659,0,0,0,0,0,0,0,0,0,-1,979,365,0,0
-238,659,0,0,0,0,0,0,0,0,0,-1,986,365,0,0
-231,659,0,0,0,0,0,0,0,0,0,-1,993,365,0,0
-224,659,0,0,0,0,0,0,0,0,0,-1,1000,365,0,0
-217,659,1.16412,-8.94662,0,0,0,0,0,0,0,-1,1007,365,1.16415,8.94662
-210,659,1.49689,-9.77625,0,0,0,0,0,0,0,-1,1014,365,1.4969,9.77625
-203,659,1.96698,-10.6201,0,0,0,0,0,0,0,-1,1021,365,1.96698,10.62
-196,659,3.35767,-16.0435,0,0,0,0,0,0,0,-1,1028,365,3.35766,16.0435
-189,659,1.54797,-16.3171,0,0,0,0,0,0,0,-1,1035,365,1.54799,16.3171
-182,659,1.21863,-16.1056,0,0,0,0,0,0,0,-1,1042,365,1.21863,16.1056
-175,659,1.50964,-15.934,0,0,0,0,0,0,0,-1,1049,365,1.50965,15.934
-168,659,1.80066,-15.7625,0,0,0,0,0,0,0,-1,1056,365,1.80066,15.7625
-161,659,2.33862,-14.0818,0,0,0,0,0,0,0,-1,1063,365,2.33862,14.0818
-154,659,5.47485,-15.9063,0,0,0,0,0,0,0,-1,1070,365,5.47485,15.9063
-147,659,4.87561,-15.6524,0,0,0,0,0,0,0,-1,1077,365,4.87565,15.6524
-140,659,4.27649,-15.3985,0,0,0,0,0,0,0,-1,1084,365,4.27645,15.3985
-133,659,3.11121,-14.2175,0,0,0,0,0,0,0,-1,1091,365,3.11116,14.2175
-126,659,3.17297,-14.3725,0,0,0,0,0,0,0,-1,1098,365,3.17293,14.3725
-119,659,3.02417,-14.4986,0,0,0,0,0,0,0,-1,1105,365,3.02417,14.4986
-112,659,2.99402,-14.6901,-0.00715409,0.0163057,0.0157804,0.0242382,-0.0150866,1.10501,0.0229082,0.0393618,1112,365,2.994,14.6901
-105,659,3.12341,-14.6501,-0.00693924,0.0156554,0.0150681,0.023191,-0.0144748,1.10707,0.0219395,0.0390445,1119,365,3.12337,14.6501
-98,659,3.00867,-14.7554,-0.00666347,0.0147389,0.0142515,0.0218597,-0.0137842,1.10743,0.0207543,0.0427515,1126,365,3.00861,14.7554
-91,659,2.95654,-14.8036,-0.00638053,0.0137033,0.0133017,0.020328,-0.0130052,1.10872,0.0193991,0.0456382,1133,365,2.95656,14.8036
-84,659,2.76245,-15.0129,0,0,0,0,0,0,0,-1,1140,365,2.76241,15.0129
-77,659,2.7489,-14.2508,0,0,0,0,0,0,0,-1,1147,365,2.74893,14.2508
-70,659,2.9353,-12.7028,0,0,0,0,0,0,0,-1,1154,365,2.93533,12.7028
-63,659,2.11267,-9.7796,0,0,0,0,0,0,0,-1,1161,365,2.11266,9.7796
-56,659,2.11182,-9.91541,0,0,0,0,0,0,0,-1,1168,365,2.11178,9.91541
-49,659,2.7489,-15.5455,0,0,0,0,0,0,0,-1,1175,365,2.74894,15.5455
-42,659,2.78735,-15.6807,0,0,0,0,0,0,0,-1,1182,365,2.78735,15.6807
-35,659,2.72961,-15.8429,0.0177136,-0.00282091,-3.49525e-05,0.0177136,-0.00282096,-0.00170213,0.012853,0.0447546,1189,365,2.72961,15.8429
-28,659,2.77209,-15.8426,0.0170326,-0.00201927,0.000580828,0.0170503,-0.00203696,0.0304489,0.0121031,0.0170122,1196,365,2.77211,15.8426
-21,659,2.74097,-15.8648,0.0156239,-0.000655046,0.000871572,0.0156704,-0.000701576,0.0533365,0.0106885,0.0115721,1203,365,2.74103,15.8648
-14,659,2.71643,-15.9216,0.0140984,0.000608861,0.00119968,0.0142043,0.000502999,0.0880137,0.0093064,0.00846258,1210,365,2.71644,15.9216
-7,659,2.70215,-15.9546,0.0120994,0.00215685,0.00142976,0.0123009,0.00195533,0.140023,0.00763277,0.0083332,1217,365,2.70221,15.9546
0,659,2.69934,-15.9794,0.00990449,0.00350207,0.00169961,0.0103277,0.00307886,0.244042,0.00612257,0.00821092,1224,365,2.69931,15.9794
7,659,2.66699,-16.0062,0.0077623,0.00512398,0.00202605,0.0088608,0.00402548,0.496824,0.0051229,0.00754639,1231,365,2.66694,16.0062
14,659,2.6261,-16.0254,0.00565051,0.00676783,0.00224567,0.00852329,0.00389505,0.907309,0.00492699,0.00993624,1238,365,2.62604,16.0254
21,659,2.62109,-16.0443,0.00376379,0.0083924,0.00233675,0.00936693,0.00278926,1.17568,0.00555348,0.0107582,1245,365,2.62109,16.0443
28,659,2.62219,-16.0604,0.00225891,0.00978993,0.00236203,0.0104694,0.0015794,1.29068,0.00651727,0.0101175,1252,365,2.6222,16.0604
35,659,2.62354,-16.0695,0.00133235,0.0110252,0.00247951,0.0116227,0.000734893,1.33435,0.00751547,0.0101737,1259,365,2.62351,16.0695
42,659,2.59985,-16.0843,0.000342407,0.0117598,0.00251377,0.0122888,-0.000186544,1.3634,0.0082554,0.0109555,1266,365,2.59986,16.0843
49,659,2.55786,-16.1057,-0.000128276,0.0121348,0.00223362,0.012529,-0.00052244,1.39613,0.00853215,0.0113993,1273,365,2.55781,16.1057
56,659,2.56836,-16.0935,0.000144262,0.0126398,0.00187479,0.0129151,-0.000130963,1.42503,0.00865402,0.0152112,1280,365,2.56841,16.0935
63,659,2.56372,-16.0877,0.0012027,0.0125667,0.0015955,0.0127864,0.000982944,1.43392,0.00821626,0.0168966,1287,365,2.56374,16.0877
70,659,2.53223,-16.0822,0.00205364,0.0122608,0.00161701,0.0125109,0.0018036,1.41738,0.00780912,0.0170627,1294,365,2.53228,16.0822
77,659,2.50281,-16.0458,0.00303786,0.0117697,0.00126837,0.0119502,0.00285735,1.42943,0.00720573,0.0167339,1301,365,2.50278,16.0458
84,659,2.49854,-16.034,0.00368774,0.0112363,0.00093396,0.0113502,0.0035739,1.44951,0.00670106,0.0119638,1308,365,2.49859,16.034
91,659,2.47046,-16.0162,0.00383386,0.0107964,0.000505303,0.0108329,0.00379738,1.49872,0.00634681,0.0104373,1315,365,2.4704,16.0162
98,659,2.46899,-15.9654,0.00381324,0.0103974,8.8852e-05,0.0103986,0.00381204,1.5573,0.00607443,0.00806323,1322,365,2.46902,15.9654
105,659,2.46545,-15.9016,0.0036431,0.0102209,-0.000385378,0.0102434,0.00362059,-1.51247,0.00599809,0.00879956,1329,365,2.4654,15.9016
112,659,2.45984,-15.8585,0.00322513,0.00980825,-0.000889638,0.00992636,0.00310702,-1.43881,0.00586306,0.00979796,1336,365,2.45984,15.8585
119,659,2.46045,-15.8061,0.00261317,0.00936323,-0.00132125,0.00961264,0.00236377,-1.38423,0.00578381,0.0111285,1343,365,2.46046,15.8061
126,659,2.41797,-15.7458,0.00182709,0.00885504,-0.00171964,0.00925325,0.00142888,-1.34324,0.00575201,0.0128481,1350,365,2.41792,15.7458
133,659,2.38684,-15.6863,0.000868228,0.0083655,-0.00219522,0.00896098,0.000272756,-1.30591,0.00588517,0.0116891,1357,365,2.38685,15.6863
140,659,2.36511,-15.6346,-0.000199349,0.00781863,-0.0027079,0.00864748,-0.0010282,-1.27376,0.0061365,0.00947068,1364,365,2.36512,15.6346
147,659,2.36194,-15.5651,-0.00113751,0.00753386,-0.00306878,0.00851001,-0.00211366,-1.26283,0.00649359,0.00859505,1371,365,2.36189,15.5651
154,659,2.34937,-15.4711,-0.00178981,0.00705694,-0.00333014,0.00817035,-0.00290323,-1.24814,0.00663003,0.00966001,1378,365,2.3494,15.4711
161,659,2.34412,-15.3905,-0.00234813,0.00621334,-0.00353569,0.0074847,-0.00361949,-1.22561,0.00653919,0.0107079,1385,365,2.34416,15.3905
168,659,2.36292,-15.3249,-0.00287729,0.00542352,-0.00347492,0.00668615,-0.00413992,-1.22227,0.0063078,0.0181186,1392,365,2.3629,15.3249
175,659,2.36169,-15.2697,-0.00313156,0.00488779,-0.00332713,0.00608842,-0.00433219,-1.22448,0.00604475,0.0422881,1399,365,2.36171,15.2698
182,659,2.25867,-15.162,0,0,0,0,0,0,0,-1,1406,365,2.25861,15.162
189,659,2.35205,-14.9778,0,0,0,0,0,0,0,-1,1413,365,2.35204,14.9778
196,659,2.41248,-13.4371,0,0,0,0,0,0,0,-1,1420,365,2.41243,13.4371
203,659,2.38623,-12.2163,0,0,0,0,0,0,0,-1,1427,365,2.38617,12.2163
210,659,2.20789,-13.9792,0,0,0,0,0,0,0,-1,1434,365,2.20794,13.9792
217,659,2.24121,-13.487,0,0,0,0,0,0,0,-1,1441,365,2.24116,13.487
224,659,2.33081,-14.2963,0,0,0,0,0,0,0,-1,1448,365,2.33076,14.2963
231,659,2.25,-14.3012,0,0,0,0,0,0,0,-1,1455,365,2.24997,14.3012
238,659,2.58789,-14.7343,0,0,0,0,0,0,0,-1,1462,365,2.58784,14.7343
245,659,2.27991,-14.7887,0,0,0,0,0,0,0,-1,1469,365,2.27989,14.7887
252,659,2.03247,-14.7551,0,0,0,0,0,0,0,-1,1476,365,2.03247,14.7551
259,659,2.33069,-3.36703,0,0,0,0,0,0,0,-1,1483,365,2.33073,3.36702
266,659,1.34119,-13.3278,0,0,0,0,0,0,0,-1,1490,365,1.34113,13.3278
273,659,2.03247,-12.7754,0,0,0,0,0,0,0,-1,1497,365,2.03247,12.7754
280,659,1.70947,-9.4129,0,0,0,0,0,0,0,-1,1504,365,1.70952,9.4129
287,659,2.91333,-12.2255,0,0,0,0,0,0,0,-1,1511,365,2.91333,12.2255
294,659,0.327393,-13.792,0,0,0,0,0,0,0,-1,1518,365,0.327345,13.792
301,659,4.13623,-10.1861,0,0,0,0,0,0,0,-1,1525,365,4.13619,10.1861
308,659,3.95068,-8.49731,0,0,0,0,0,0,0,-1,1532,365,3.9507,8.49732
315,659,2.02905,-3.83633,0,0,0,0,0,0,0,-1,1539,365,2.0291,3.83632
322,659,0.382813,-2.2424,0,0,0,0,0,0,0,-1,1546,365,0.382801,2.2424
329,659,0.604004,-1.75998,0,0,0,0,0,0,0,-1,1553,365,0.603966,1.75998
336,659,2.09851,-1.17941,0,0,0,0,0,0,0,-1,1560,365,2.09857,1.17942
343,659,0,0,0,0,0,0,0,0,0,-1,1567,365,0,0
350,659,0,0,0,0,0,0,0,0,0,-1,1574,365,0,0
357,659,0,0,0,0,0,0,0,0,0,-1,1581,365,0,0
364,659,0,0,0,0,0,0,0,0,0,-1,1588,365,0,0
371,659,0,0,0,0,0,0,0,0,0,-1,1595,365,0,0
378,659,0,0,0,0,0,0,0,0,0,-1,1602,365,0,0
385,659,0,0,0,0,0,0,0,0,0,-1,1609,365,0,0
392,659,0,0,0,0,0,0,0,0,0,-1,1616,365,0,0
399,659,0,0,0,0,0,0,0,0,0,-1,1623,365,0,0
406,659,0,0,0,0,0,0,0,0,0,-1,1630,365,0,0
413,659,0,0,0,0,0,0,0,0,0,-1,1637,365,0,0
420,659,0,0,0,0,0,0,0,0,0,-1,1644,365,0,0
427,659,0,0,0,0,0,0,0,0,0,-1,1651,365,0,0
434,659,0,0,0,0,0,0,0,0,0,-1,1658,365,0,0
441,659,0,0,0,0,0,0,0,0,0,-1,1665,365,0,0
448,659,0,0,0,0,0,0,0,0,0,-1,1672,365,0,0
455,659,0,0,0,0,0,0,0,0,0,-1,1679,365,0,0
462,659,0,0,0,0,0,0,0,0,0,-1,1686,365,0,0
469,659,0,0,0,0,0,0,0,0,0,-1,1693,365,0,0
476,659,0,0,0,0,0,0,0,0,0,-1,1700,365,0,0
483,659,0,0,0,0,0,0,0,0,0,-1,1707,365,0,0
490,659,0,0,0,0,0,0,0,0,0,-1,1714,365,0,0
497,659,0,0,0,0,0,0,0,0,0,-1,1721,365,0,0
504,659,0,0,0,0,0,0,0,0,0,-1,1728,365,0,0
511,659,0,0,0,0,0,0,0,0,0,-1,1735,365,0,0
518,659,0,0,0,0,0,0,0,0,0,-1,1742,365,0,0
525,659,0,0,0,0,0,0,0,0,0,-1,1749,365,0,0
532,659,0,0,0,0,0,0,0,0,0,-1,1756,365,0,0
539,659,0,0,0,0,0,0,0,0,0,-1,1763,365,0,0
546,659,0,0,0,0,0,0,0,0,0,-1,1770,365,0,0
553,659,0,0,0,0,0,0,0,0,0,-1,1777,365,0,0
560,659,0,0,0,0,0,0,0,0,0,-1,1784,365,0,0
567,659,0,0,0,0,0,0,0,0,0,-1,1791,365,0,0
574,659,0,0,0,0,0,0,0,0,0,-1,1798,365,0,0
581,659,0,0,0,0,0,0,0,0,0,-1,1805,365,0,0
588,659,0,0,0,0,0,0,0,0,0,-1,1812,365,0,0
595,659,0,0,0,0,0,0,0,0,0,-1,1819,365,0,0
602,659,0,0,0,0,0,0,0,0,0,-1,1826,365,0,0
609,659,0,0,0,0,0,0,0,0,0,-1,1833,365,0,0
616,659,0,0,0,0,0,0,0,0,0,-1,1840,365,0,0
623,659,0,0,0,0,0,0,0,0,0,-1,1847,365,0,0
630,659,0,0,0,0,0,0,0,0,0,-1,1854,365,0,0
637,659,0,0,0,0,0,0,0,0,0,-1,1861,365,0,0
644,659,0,0,0,0,0,0,0,0,0,-1,1868,365,0,0
651,659,0,0,0,0,0,0,0,0,0,-1,1875,365,0,0
658,659,0,0,0,0,0,0,0,0,0,-1,1882,365,0,0
665,659,0,0,0,0,0,0,0,0,0,-1,1889,365,0,0
672,659,0,0,0,0,0,0,0,0,0,-1,1896,365,0,0
679,659,0,0,0,0,0,0,0,0,0,-1,1903,365,0,0
686,659,0,0,0,0,0,0,0,0,0,-1,1910,365,0,0
693,659,0,0,0,0,0,0,0,0,0,-1,1917,365,0,0
700,659,0,0,0,0,0,0,0,0,0,-1,1924,365,0,0
707,659,0,0,0,0,0,0,0,0,0,-1,1931,365,0,0
714,659,0,0,0,0,0,0,0,0,0,-1,1938,365,0,0
721,659,0,0,0,0,0,0,0,0,0,-1,1945,365,0,0
728,659,0,0,0,0,0,0,0,0,0,-1,1952,365,0,0
735,659,0,0,0,0,0,0,0,0,0,-1,1959,365,0,0
742,659,0,0,0,0,0,0,0,0,0,-1,1966,365,0,0
749,659,0,0,0,0,0,0,0,0,0,-1,1973,365,0,0
756,659,0,0,0,0,0,0,0,0,0,-1,1980,365,0,0
763,659,0,0,0,0,0,0,0,0,0,-1,1987,365,0,0
770,659,0,0,0,0,0,0,0,0,0,-1,1994,365,0,0
777,659,0,0,0,0,0,0,0,0,0,-1,2001,365,0,0
784,659,0,0,0,0,0,0,0,0,0,-1,2008,365,0,0
791,659,0,0,0,0,0,0,0,0,0,-1,2015,365,0,0
798,659,0,0,0,0,0,0,0,0,0,-1,2022,365,0,0
805,659,0,0,0,0,0,0,0,0,0,-1,2029,365,0,0
812,659,0,0,0,0,0,0,0,0,0,-1,2036,365,0,0
-700,652,0,0,0,0,0,0,0,0,0,-1,524,372,0,0
-693,652,0,0,0,0,0,0,0,0,0,-1,531,372,0,0
-686,652,0,0,0,0,0,0,0,0,0,-1,538,372,0,0
-679,652,0,0,0,0,0,0,0,0,0,-1,545,372,0,0
-672,652,0,0,0,0,0,0,0,0,0,-1,552,372,0,0
-665,652,0,0,0,0,0,0,0,0,0,-1,559,372,0,0
-658,652,0,0,0,0,0,0,0,0,0,-1,566,372,0,0
-651,652,0,0,0,0,0,0,0,0,0,-1,573,372,0,0
-644,652,0,0,0,0,0,0,0,0,0,-1,580,372,0,0
-637,652,0,0,0,0,0,0,0,0,0,-1,587,372,0,0
-630,652,0,0,0,0,0,0,0,0,0,-1,594,372,0,0
-623,652,0,0,0,0,0,0,0,0,0,-1,601,372,0,0
-616,652,0,0,0,0,0,0,0,0,0,-1,608,372,0,0
-609,652,0,0,0,0,0,0,0,0,0,-1,615,372,0,0
-602,652,0,0,0,0,0,0,0,0,0,-1,622,372,0,0
-595,652,0,0,0,0,0,0,0,0,0,-1,629,372,0,0
-588,652,0,0,0,0,0,0,0,0,0,-1,636,372,0,0
-581,652,0,0,0,0,0,0,0,0,0,-1,643,372,0,0
-574,652,0,0,0,0,0,0,0,0,0,-1,650,372,0,0
-567,652,0,0,0,0,0,0,0,0,0,-1,657,372,0,0
-560,652,0,0,0,0,0,0,0,0,0,-1,664,372,0,0
-553,652,0,0,0,0,0,0,0,0,0,-1,671,372,0,0
-546,652,0,0,0,0,0,0,0,0,0,-1,678,372,0,0
-539,652,0,0,0,0,0,0,0,0,0,-1,685,372,0,0
-532,652,0,0,0,0,0,0,0,0,0,-1,692,372,0,0
-525,652,0,0,0,0,0,0,0,0,0,-1,699,372,0,0
-518,652,0,0,0,0,0,0,0,0,0,-1,706,372,0,0
-511,652,0,0,0,0,0,0,0,0,0,-1,713,372,0,0
-504,652,0,0,0,0,0,0,0,0,0,-1,720,372,0,0
-497,652,0,0,0,0,0,0,0,0,0,-1,727,372,0,0
-490,652,0,0,0,0,0,0,0,0,0,-1,734,372,0,0
-483,652,0,0,0,0,0,0,0,0,0,-1,741,372,0,0
-476,652,0,0,0,0,0,0,0,0,0,-1,748,372,0,0
-469,652,0,0,0,0,0,0,0,0,0,-1,755,372,0,0
-462,652,0,0,0,0,0,0,0,0,0,-1,762,372,0,0
-455,652,0,0,0,0,0,0,0,0,0,-1,769,372,0,0
-448,652,0,0,0,0,0,0,0,0,0,-1,776,372,0,0
-441,652,0,0,0,0,0,0,0,0,0,-1,783,372,0,0
-434,652,0,0,0,0,0,0,0,0,0,-1,790,372,0,0
-427,652,0,0,0,0,0,0,0,0,0,-1,797,372,0,0
-420,652,0,0,0,0,0,0,0,0,0,-1,804,372,0,0
-413,652,0,0,0,0,0,0,0,0,0,-1,811,372,0,0
-406,652,0,0,0,0,0,0,0,0,0,-1,818,372,0,0
-399,652,0,0,0,0,0,0,0,0,0,-1,825,372,0,0
-392,652,0,0,0,0,0,0,0,0,0,-1,832,372,0,0
-385,652,0,0,0,0,0,0,0,0,0,-1,839,372,0,0
-378,652,0,0,0,0,0,0,0,0,0,-1,846,372,0,0
-371,652,0,0,0,0,0,0,0,0,0,-1,853,372,0,0
-364,652,0,0,0,0,0,0,0,0,0,-1,860,372,0,0
-357,652,0,0,0,0,0,0,0,0,0,-1,867,372,0,0
-350,652,0,0,0,0,0,0,0,0,0,-1,874,372,0,0
-343,652,0,0,0,0,0,0,0,0,0,-1,881,372,0,0
-336,652,0,0,0,0,0,0,0,0,0,-1,888,372,0,0
-329,652,0,0,0,0,0,0,0,0,0,-1,895,372,0,0
-322,652,0,0,0,0,0,0,0,0,0,-1,902,372,0,0
-315,652,0,0,0,0,0,0,0,0,0,-1,909,372,0,0
-308,652,0,0,0,0,0,0,0,0,0,-1,916,372,0,0
-301,652,0,0,0,0,0,0,0,0,0,-1,923,372,0,0
-294,652,0,0,0,0,0,0,0,0,0,-1,930,372,0,0
-287,652,0,0,0,0,0,0,0,0,0,-1,937,372,0,0
-280,652,0,0,0,0,0,0,0,0,0,-1,944,372,0,0
-273,652,0,0,0,0,0,0,0,0,0,-1,951,372,0,0
-266,652,0,0,0,0,0,0,0,0,0,-1,958,372,0,0
-259,652,0,0,0,0,0,0,0,0,0,-1,965,372,0,0
-252,652,0,0,0,0,0,0,0,0,0,-1,972,372,0,0
-245,652,0,0,0,0,0,0,0,0,0,-1,979,372,0,0
-238,652,0,0,0,0,0,0,0,0,0,-1,986,372,0,0
-231,652,1.35083,-7.55121,0,0,0,0,0,0,0,-1,993,372,1.3508,7.55121
-224,652,1.83624,-9.07111,0,0,0,0,0,0,0,-1,1000,372,1.83626,9.0711
-217,652,2.31848,-10.5264,0,0,0,0,0,0,0,-1,1007,372,2.31846,10.5264
-210,652,2.63263,-11.4522,0,0,0,0,0,0,0,-1,1014,372,2.6326,11.4522
-203,652,3.34729,-16.3435,0,0,0,0,0,0,0,-1,1021,372,3.34723,16.3435
-196,652,2.16321,-15.8413,0,0,0,0,0,0,0,-1,1028,372,2.16321,15.8413
-189,652,1.98657,-15.1986,-0.00377334,-0.0618371,0.00517533,-0.00331566,-0.0622948,0.0882052,0.0404699,0.0439494,1035,372,1.98652,15.1986
-182,652,1.9314,-14.8789,0,0,0,0,0,0,0,-1,1042,372,1.93141,14.8789
-175,652,2.18005,-14.7986,0,0,0,0,0,0,0,-1,1049,372,2.18006,14.7986
-168,652,3.27161,-14.103,0,0,0,0,0,0,0,-1,1056,372,3.27156,14.103
-161,652,3.76245,-14.1003,0,0,0,0,0,0,0,-1,1063,372,3.76251,14.1002
-154,652,4.13599,-14.3574,0,0,0,0,0,0,0,-1,1070,372,4.13596,14.3574
-147,652,4.48901,-14.6732,0,0,0,0,0,0,0,-1,1077,372,4.48906,14.6732
-140,652,3.21277,-14.1352,0,0,0,0,0,0,0,-1,1084,372,3.21272,14.1352
-133,652,3.04626,-14.1894,-0.005183,0.0112875,0.0116846,0.0173474,-0.0112429,1.09237,0.0166315,0.0422769,1091,372,3.04626,14.1894
-126,652,3.03857,-14.3531,-0.00534242,0.0117091,0.011859,0.017789,-0.0114223,1.09706,0.0169981,0.0391913,1098,372,3.03857,14.3531
-119,652,2.94006,-14.5104,-0.0056161,0.0121837,0.0117821,0.0180495,-0.0114819,1.10886,0.0171899,0.0331837,1105,372,2.9401,14.5104
-112,652,2.89001,-14.6672,-0.00559606,0.0120573,0.011221,0.0175072,-0.011046,1.11866,0.0166253,0.0236956,1112,372,2.88997,14.6672
-105,652,2.89465,-14.7273,-0.00540541,0.0116711,0.0105308,0.0166901,-0.0104244,1.12604,0.0157933,0.0202408,1119,372,2.89461,14.7273
-98,652,2.88477,-14.8681,-0.00514866,0.0110131,0.00974409,0.0155911,-0.0097267,1.13158,0.0147474,0.0235369,1126,372,2.88482,14.8681
-91,652,2.87903,-15.0143,-0.00479279,0.0102313,0.00886477,0.0143388,-0.00890035,1.13689,0.0135391,0.0243338,1133,372,2.879,15.0143
-84,652,2.83813,-15.1494,-0.00438795,0.00890921,0.0078599,0.0125554,-0.00803411,1.13645,0.0119825,0.0315152,1140,372,2.83808,15.1494
-77,652,2.80029,-15.2535,0,0,0,0,0,0,0,-1,1147,372,2.80023,15.2535
-70,652,2.78333,-15.373,0,0,0,0,0,0,0,-1,1154,372,2.78335,15.3729
-63,652,2.79944,-15.4608,0,0,0,0,0,0,0,-1,1161,372,2.7994,15.4608
-56,652,2.76074,-15.558,0,0,0,0,0,0,0,-1,1168,372,2.76069,15.558
-49,652,2.75183,-15.6063,0.00641529,0.00104736,0.000395818,0.00644432,0.00101833,0.0732099,0.00400021,0.0339898,1175,372,2.75189,15.6063
-42,652,2.73779,-15.6744,0.00864636,-0.000603859,-0.000294188,0.00865571,-0.000613206,-0.0317606,0.00598535,0.011494,1182,372,2.73775,15.6744
-35,652,2.72974,-15.7404,0.00965534,-0.00104073,-6.51115e-05,0.00965573,-0.00104113,-0.00608712,0.00681078,0.00919839,1189,372,2.72979,15.7404
-28,652,2.71143,-15.809,0.0094736,-0.000979484,0.000413299,0.00948991,-0.0009958,0.0394563,0.00668332,0.00753529,1196,372,2.71145,15.809
-21,652,2.67981,-15.8656,0.00881304,-0.000445296,0.00067915,0.00886259,-0.00049485,0.0728359,0.00608006,0.0079662,1203,372,2.67985,15.8656
-14,652,2.68005,-15.9122,0.00811971,1.69865e-05,0.000939381,0.00822719,-9.04943e-05,0.113921,0.00551521,0.00964476,1210,372,2.68001,15.9122
-7,652,2.67297,-15.9655,0.00711675,0.000708595,0.00110892,0.00730322,0.000522126,0.166596,0.00470444,0.0122482,1217,372,2.67297,15.9655
0,652,2.65808,-15.9978,0.00588334,0.00135615,0.00129112,0.00622567,0.00101382,0.259179,0.00385718,0.0125187,1224,372,2.65813,15.9978
7,652,2.64185,-15.9947,0.00450335,0.00226186,0.00152601,0.00527596,0.00148926,0.468666,0.00314087,0.012705,1231,372,2.64189,15.9947
14,652,2.6178,-16.0359,0.00311241,0.00331983,0.00168885,0.00490815,0.00152408,0.816065,0.00290075,0.0104268,1238,372,2.6178,16.0359
21,652,2.60791,-16.0666,0.00189137,0.00448193,0.00174928,0.00536328,0.00101002,1.10408,0.00329092,0.00975112,1245,372,2.60793,16.0666
28,652,2.60962,-16.0829,0.000925938,0.00554602,0.00176162,0.00614108,0.000330883,1.24504,0.00398834,0.00907671,1252,372,2.60967,16.0829
35,652,2.60303,-16.0987,0.000329903,0.00660631,0.00185998,0.0071161,-0.000179886,1.30328,0.00480515,0.00968818,1259,372,2.60301,16.0987
42,652,2.58435,-16.1078,-0.000307193,0.00728832,0.00190066,0.00773738,-0.000756253,1.33879,0.00542793,0.0110742,1266,372,2.58441,16.1078
49,652,2.56433,-16.128,-0.000564694,0.00773682,0.00170488,0.00807331,-0.000901187,1.37593,0.00570637,0.0133022,1273,372,2.56439,16.128
56,652,2.55066,-16.1188,-0.000254133,0.00834168,0.00147193,0.00858674,-0.000499196,1.40582,0.00589794,0.0152878,1280,372,2.55062,16.1188
63,652,2.54907,-16.1114,0.000626987,0.00854665,0.00132836,0.00876352,0.000410119,1.40896,0.00571055,0.01848,1287,372,2.5491,16.1114
70,652,2.54395,-16.0836,0.00134825,0.008573,0.00149711,0.00887094,0.00105031,1.37435,0.00559681,0.0157097,1294,372,2.54396,16.0836
77,652,2.52454,-16.0455,0.00217575,0.00848266,0.0013936,0.00877687,0.00188154,1.36274,0.00533582,0.0154497,1301,372,2.52456,16.0455
84,652,2.52087,-16.0482,0.00275195,0.00830632,0.00129796,0.00859466,0.00246361,1.3522,0.0051105,0.0130364,1308,372,2.52084,16.0482
91,652,2.47937,-16.0419,0.00290397,0.00813182,0.00112284,0.00836278,0.00267301,1.36793,0.00493186,0.0157293,1315,372,2.47941,16.0419
98,652,2.49695,-15.9615,0.00289566,0.00795849,0.000946989,0.00812982,0.00272433,1.39181,0.00477808,0.0132648,1322,372,2.49696,15.9614
105,652,2.49768,-15.8924,0.00278854,0.00788253,0.000718964,0.00798206,0.00268901,1.43324,0.00468948,0.0108606,1329,372,2.49771,15.8924
112,652,2.49121,-15.8608,0.00255901,0.00765392,0.000454785,0.0076942,0.00251873,1.48246,0.00452966,0.00922581,1336,372,2.49119,15.8608
119,652,2.49341,-15.8054,0.00212493,0.00736902,0.000207115,0.00737719,0.00211677,1.53138,0.00438623,0.0101088,1343,372,2.49337,15.8054
126,652,2.4519,-15.7666,0.00151008,0.00704336,-3.32855e-05,0.00704356,0.00150988,-1.56478,0.00428208,0.012549,1350,372,2.45192,15.7666
133,652,2.4209,-15.7131,0.000785913,0.00675113,-0.000361715,0.00677299,0.00076406,-1.51045,0.00428341,0.0128376,1357,372,2.42093,15.7131
140,652,2.42578,-15.6415,1.89741e-05,0.006356,-0.000751252,0.00644384,-6.88685e-05,-1.4544,0.00431904,0.0097754,1364,372,2.42573,15.6415
147,652,2.43738,-15.5655,-0.000674273,0.0062172,-0.00102281,0.00636579,-0.000822871,-1.42652,0.00454306,0.00976239,1371,372,2.43734,15.5655
154,652,2.42761,-15.4806,-0.00115696,0.00593432,-0.00121084,0.00613537,-0.00135801,-1.40625,0.00461008,0.00983922,1378,372,2.42756,15.4806
161,652,2.4115,-15.3985,-0.00160853,0.00530334,-0.00138342,0.00556995,-0.00187514,-1.38041,0.00447139,0.0105756,1385,372,2.41144,15.3985
168,652,2.38953,-15.328,-0.00207091,0.00469618,-0.00139182,0.00497126,-0.00234599,-1.37567,0.0043143,0.0110392,1392,372,2.38955,15.328
175,652,2.37305,-15.2224,-0.0022681,0.00423911,-0.00148626,0.00456251,-0.00259149,-1.35655,0.00418229,0.0115294,1399,372,2.37307,15.2224
182,652,2.34277,-15.1432,-0.00216996,0.00438228,-0.000979109,0.00452546,-0.00231314,-1.42559,0.00401654,0.0169561,1406,372,2.34277,15.1432
189,652,2.36365,-15.0319,-0.0019183,0.00344104,-4.79169e-05,0.00344147,-0.00191873,-1.56186,0.00313606,0.026178,1413,372,2.36361,15.0319
196,652,2.32617,-14.8749,0,0,0,0,0,0,0,-1,1420,372,2.32615,14.8749
203,652,2.3136,-14.7737,0,0,0,0,0,0,0,-1,1427,372,2.31365,14.7737
210,652,2.36536,-14.649,0,0,0,0,0,0,0,-1,1434,372,2.3654,14.649
217,652,2.35962,-14.5058,0,0,0,0,0,0,0,-1,1441,372,2.35956,14.5058
224,652,2.33777,-14.3468,-0.00314392,-0.00193406,0.00254841,8.02323e-05,-0.00515821,0.901929,0.00346586,0.039785,1448,372,2.33781,14.3468
231,652,2.3136,-14.1692,-0.00287532,-0.00242195,0.0028039,0.000164414,-0.00546169,0.825734,0.00369715,0.0386408,1455,372,2.31357,14.1692
238,652,2.4187,-14.3049,-0.00275705,-0.00250944,0.00316959,0.000538763,-0.00580525,0.804918,0.00406168,0.0411899,1462,372,2.41868,14.3049
245,652,2.28699,-14.2461,-0.00297317,-0.00286383,0.00310671,0.000188693,-0.00602569,0.794196,0.00408148,0.0407049,1469,372,2.28693,14.2461
252,652,2.14905,-14.0829,-0.00267839,-0.00246935,0.00323041,0.000658228,-0.00580597,0.80157,0.00410768,0.0466077,1476,372,2.1491,14.0829
259,652,1.86902,-13.1824,0,0,0,0,0,0,0,-1,1483,372,1.86904,13.1824
266,652,1.81689,-13.2806,0,0,0,0,0,0,0,-1,1490,372,1.81694,13.2806
273,652,2.01196,-13.2747,0,0,0,0,0,0,0,-1,1497,372,2.01199,13.2748
280,652,2.17456,-13.2116,0,0,0,0,0,0,0,-1,1504,372,2.17454,13.2116
287,652,0.892822,-13.059,0,0,0,0,0,0,0,-1,1511,372,0.892875,13.059
294,652,1.54138,-14.8461,0,0,0,0,0,0,0,-1,1518,372,1.54137,14.8461
301,652,4.0199,-10.2797,0,0,0,0,0,0,0,-1,1525,372,4.01988,10.2797
308,652,4.33411,-7.9241,0,0,0,0,0,0,0,-1,1532,372,4.33412,7.92409
315,652,4.38037,-5.87537,0,0,0,0,0,0,0,-1,1539,372,4.38043,5.87536
322,652,2.1803,-12.6603,0,0,0,0,0,0,0,-1,1546,372,2.18031,12.6603
329,652,0.724365,-9.5701,0,0,0,0,0,0,0,-1,1553,372,0.724335,9.57008
336,652,4.60815,-2.13776,0,0,0,0,0,0,0,-1,1560,372,4.6082,2.13775
343,652,4.18225,-6.7092,0,0,0,0,0,0,0,-1,1567,372,4.18231,6.70921
350,652,4.64563,-7.2074,0,0,0,0,0,0,0,-1,1574,372,4.6456,7.2074
357,652,0,0,0,0,0,0,0,0,0,-1,1581,372,0,0
364,652,0,0,0,0,0,0,0,0,0,-1,1588,372,0,0
371,652,0,0,0,0,0,0,0,0,0,-1,1595,372,0,0
378,652,0,0,0,0,0,0,0,0,0,-1,1602,372,0,0
385,652,0,0,0,0,0,0,0,0,0,-1,1609,372,0,0
392,652,0,0,0,0,0,0,0,0,0,-1,1616,372,0,0
399,652,0,0,0,0,0,0,0,0,0,-1,1623,372,0,0
406,652,0,0,0,0,0,0,0,0,0,-1,1630,372,0,0
413,652,0,0,0,0,0,0,0,0,0,-1,1637,372,0,0
420,652,0,0,0,0,0,0,0,0,0,-1,1644,372,0,0
427,652,0,0,0,0,0,0,0,0,0,-1,1651,372,0,0
434,652,0,0,0,0,0,0,0,0,0,-1,1658,372,0,0
441,652,0,0,0,0,0,0,0,0,0,-1,1665,372,0,0
448,652,0,0,0,0,0,0,0,0,0,-1,1672,372,0,0
455,652,0,0,0,0,0,0,0,0,0,-1,1679,372,0,0
462,652,0,0,0,0,0,0,0,0,0,-1,1686,372,0,0
469,652,0,0,0,0,0,0,0,0,0,-1,1693,372,0,0
476,652,0,0,0,0,0,0,0,0,0,-1,1700,372,0,0
483,652,0,0,0,0,0,0,0,0,0,-1,1707,372,0,0
490,652,0,0,0,0,0,0,0,0,0,-1,1714,372,0,0
497,652,0,0,0,0,0,0,0,0,0,-1,1721,372,0,0
504,652,0,0,0,0,0,0,0,0,0,-1,1728,372,0,0
511,652,0,0,0,0,0,0,0,0,0,-1,1735,372,0,0
518,652,0,0,0,0,0,0,0,0,0,-1,1742,372,0,0
525,652,0,0,0,0,0,0,0,0,0,-1,1749,372,0,0
532,652,0,0,0,0,0,0,0,0,0,-1,1756,372,0,0
539,652,0,0,0,0,0,0,0,0,0,-1,1763,372,0,0
546,652,0,0,0,0,0,0,0,0,0,-1,1770,372,0,0
553,652,0,0,0,0,0,0,0,0,0,-1,1777,372,0,0
560,652,0,0,0,0,0,0,0,0,0,-1,1784,372,0,0
567,652,0,0,0,0,0,0,0,0,0,-1,1791,372,0,0
574,652,0,0,0,0,0,0,0,0,0,-1,1798,372,0,0
581,652,0,0,0,0,0,0,0,0,0,-1,1805,372,0,0
588,652,0,0,0,0,0,0,0,0,0,-1,1812,372,0,0
595,652,0,0,0,0,0,0,0,0,0,-1,1819,372,0,0
602,652,0,0,0,0,0,0,0,0,0,-1,1826,372,0,0
609,652,0,0,0,0,0,0,0,0,0,-1,1833,372,0,0
616,652,0,0,0,0,0,0,0,0,0,-1,1840,372,0,0
623,652,0,0,0,0,0,0,0,0,0,-1,1847,372,0,0
630,652,0,0,0,0,0,0,0,0,0,-1,1854,372,0,0
637,652,0,0,0,0,0,0,0,0,0,-1,1861,372,0,0
644,652,0,0,0,0,0,0,0,0,0,-1,1868,372,0,0
651,652,0,0,0,0,0,0,0,0,0,-1,1875,372,0,0
658,652,0,0,0,0,0,0,0,0,0,-1,1882,372,0,0
665,652,0,0,0,0,0,0,0,0,0,-1,1889,372,0,0
672,652,0,0,0,0,0,0,0,0,0,-1,1896,372,0,0
679,652,0,0,0,0,0,0,0,0,0,-1,1903,372,0,0
686,652,0,0,0,0,0,0,0,0,0,-1,1910,372,0,0
693,652,0,0,0,0,0,0,0,0,0,-1,1917,372,0,0
700,652,0,0,0,0,0,0,0,0,0,-1,1924,372,0,0
707,652,0,0,0,0,0,0,0,0,0,-1,1931,372,0,0
714,652,0,0,0,0,0,0,0,0,0,-1,1938,372,0,0
721,652,0,0,0,0,0,0,0,0,0,-1,1945,372,0,0
728,652,0,0,0,0,0,0,0,0,0,-1,1952,372,0,0
735,652,0,0,0,0,0,0,0,0,0,-1,1959,372,0,0
742,652,0,0,0,0,0,0,0,0,0,-1,1966,372,0,0
749,652,0,0,0,0,0,0,0,0,0,-1,1973,372,0,0
756,652,0,0,0,0,0,0,0,0,0,-1,1980,372,0,0
763,652,0,0,0,0,0,0,0,0,0,-1,1987,372,0,0
770,652,0,0,0,0,0,0,0,0,0,-1,1994,372,0,0
777,652,0,0,0,0,0,0,0,0,0,-1,2001,372,0,0
784,652,0,0,0,0,0,0,0,0,0,-1,2008,372,0,0
791,652,0,0,0,0,0,0,0,0,0,-1,2015,372,0,0
798,652,0,0,0,0,0,0,0,0,0,-1,2022,372,0,0
805,652,0,0,0,0,0,0,0,0,0,-1,2029,372,0,0
812,652,0,0,0,0,0,0,0,0,0,-1,2036,372,0,0
-700,645,0,0,0,0,0,0,0,0,0,-1,524,379,0,0
-693,645,0,0,0,0,0,0,0,0,0,-1,531,379,0,0
-686,645,0,0,0,0,0,0,0,0,0,-1,538,379,0,0
-679,645,0,0,0,0,0,0,0,0,0,-1,545,379,0,0
-672,645,0,0,0,0,0,0,0,0,0,-1,552,379,0,0
-665,645,0,0,0,0,0,0,0,0,0,-1,559,379,0,0
-658,645,0,0,0,0,0,0,0,0,0,-1,566,379,0,0
-651,645,0,0,0,0,0,0,0,0,0,-1,573,379,0,0
-644,645,0,0,0,0,0,0,0,0,0,-1,580,379,0,0
-637,645,0,0,0,0,0,0,0,0,0,-1,587,379,0,0
-630,645,0,0,0,0,0,0,0,0,0,-1,594,379,0,0
-623,645,0,0,0,0,0,0,0,0,0,-1,601,379,0,0
-616,645,0,0,0,0,0,0,0,0,0,-1,608,379,0,0
-609,645,0,0,0,0,0,0,0,0,0,-1,615,379,0,0
-602,645,0,0,0,0,0,0,0,0,0,-1,622,379,0,0
-595,645,0,0,0,0,0,0,0,0,0,-1,629,379,0,0
-588,645,0,0,0,0,0,0,0,0,0,-1,636,379,0,0
-581,645,0,0,0,0,0,0,0,0,0,-1,643,379,0,0
-574,645,0,0,0,0,0,0,0,0,0,-1,650,379,0,0
-567,645,0,0,0,0,0,0,0,0,0,-1,657,379,0,0
-560,645,0,0,0,0,0,0,0,0,0,-1,664,379,0,0
-553,645,0,0,0,0,0,0,0,0,0,-1,671,379,0,0
-546,645,0,0,0,0,0,0,0,0,0,-1,678,379,0,0
-539,645,0,0,0,0,0,0,0,0,0,-1,685,379,0,0
-532,645,0,0,0,0,0,0,0,0,0,-1,692,379,0,0
-525,645,0,0,0,0,0,0,0,0,0,-1,699,379,0,0
-518,645,0,0,0,0,0,0,0,0,0,-1,706,379,0,0
-511,645,0,0,0,0,0,0,0,0,0,-1,713,379,0,0
-504,645,0,0,0,0,0,0,0,0,0,-1,720,379,0,0
-497,645,0,0,0,0,0,0,0,0,0,-1,727,379,0,0
-490,645,0,0,0,0,0,0,0,0,0,-1,734,379,0,0
-483,645,0,0,0,0,0,0,0,0,0,-1,741,379,0,0
-476,645,0,0,0,0,0,0,0,0,0,-1,748,379,0,0
-469,645,0,0,0,0,0,0,0,0,0,-1,755,379,0,0
-462,645,0,0,0,0,0,0,0,0,0,-1,762,379,0,0
-455,645,0,0,0,0,0,0,0,0,0,-1,769,379,0,0
-448,645,0,0,0,0,0,0,0,0,0,-1,776,379,0,0
-441,645,0,0,0,0,0,0,0,0,0,-1,783,379,0,0
-434,645,0,0,0,0,0,0,0,0,0,-1,790,379,0,0
-427,645,0,0,0,0,0,0,0,0,0,-1,797,379,0,0
-420,645,0,0,0,0,0,0,0,0,0,-1,804,379,0,0
-413,645,0,0,0,0,0,0,0,0,0,-1,811,379,0,0
-406,645,0,0,0,0,0,0,0,0,0,-1,818,379,0,0
-399,645,0,0,0,0,0,0,0,0,0,-1,825,379,0,0
-392,645,0,0,0,0,0,0,0,0,0,-1,832,379,0,0
-385,645,0,0,0,0,0,0,0,0,0,-1,839,379,0,0
-378,645,0,0,0,0,0,0,0,0,0,-1,846,379,0,0
-371,645,0,0,0,0,0,0,0,0,0,-1,853,379,0,0
-364,645,0,0,0,0,0,0,0,0,0,-1,860,379,0,0
-357,645,0,0,0,0,0,0,0,0,0,-1,867,379,0,0
-350,645,0,0,0,0,0,0,0,0,0,-1,874,379,0,0
-343,645,0,0,0,0,0,0,0,0,0,-1,881,379,0,0
-336,645,0,0,0,0,0,0,0,0,0,-1,888,379,0,0
-329,645,0,0,0,0,0,0,0,0,0,-1,895,379,0,0
-322,645,0,0,0,0,0,0,0,0,0,-1,902,379,0,0
-315,645,0,0,0,0,0,0,0,0,0,-1,909,379,0,0
-308,645,0,0,0,0,0,0,0,0,0,-1,916,379,0,0
-301,645,0,0,0,0,0,0,0,0,0,-1,923,379,0,0
-294,645,0,0,0,0,0,0,0,0,0,-1,930,379,0,0
-287,645,0,0,0,0,0,0,0,0,0,-1,937,379,0,0
-280,645,0,0,0,0,0,0,0,0,0,-1,944,379,0,0
-273,645,0,0,0,0,0,0,0,0,0,-1,951,379,0,0
-266,645,0,0,0,0,0,0,0,0,0,-1,958,379,0,0
-259,645,0,0,0,0,0,0,0,0,0,-1,965,379,0,0
-252,645,1.22064,-13.4645,0,0,0,0,0,0,0,-1,972,379,1.22063,13.4645
-245,645,1.57947,-12.8639,0,0,0,0,0,0,0,-1,979,379,1.57948,12.8639
-238,645,2.3678,-12.5787,0,0,0,0,0,0,0,-1,986,379,2.36781,12.5787
-231,645,2.24493,-9.26569,0,0,0,0,0,0,0,-1,993,379,2.24495,9.26568
-224,645,2.80713,-10.7619,0,0,0,0,0,0,0,-1,1000,379,2.80711,10.7619
-217,645,3.3772,-12.1184,0,0,0,0,0,0,0,-1,1007,379,3.37718,12.1184
-210,645,4.03253,-13.1274,0,0,0,0,0,0,0,-1,1014,379,4.03254,13.1274
-203,645,2.80164,-15.6908,0,0,0,0,0,0,0,-1,1021,379,2.80166,15.6908
-196,645,2.52295,-14.7768,-0.0043629,-0.0436772,0.00240327,-0.00421654,-0.0438236,0.0608276,0.0279166,0.0450696,1028,379,2.52295,14.7768
-189,645,2.32007,-14.2055,-0.00412239,-0.0383896,0.00359621,-0.00374905,-0.038763,0.103444,0.0246874,0.0409901,1035,379,2.32007,14.2055
-182,645,3.17578,-13.0518,0,0,0,0,0,0,0,-1,1042,379,3.17578,13.0518
-175,645,2.73682,-13.7122,-0.00354848,-0.0229548,0.0033386,-0.00299018,-0.0235131,0.165693,0.0147799,0.0464601,1049,379,2.73685,13.7122
-168,645,3.04333,-13.7531,-0.00306649,-0.0147643,0.005059,-0.00118215,-0.0166487,0.356554,0.0107268,0.0459622,1056,379,3.04333,13.753
-161,645,3.26099,-13.9221,-0.00289156,-0.00864667,0.00620933,0.00107457,-0.0126128,0.568418,0.00878865,0.0442324,1063,379,3.26094,13.9222
-154,645,3.50073,-14.0874,-0.00326552,-0.00353243,0.0071821,0.00378436,-0.0105823,0.776108,0.00859855,0.0410635,1070,379,3.50075,14.0874
-147,645,3.70984,-14.3115,-0.00379339,0.000791168,0.00783262,0.00666005,-0.00966227,0.927752,0.00947668,0.0394106,1077,379,3.70983,14.3115
-140,645,3.02588,-14.1335,-0.00393558,0.00473023,0.00805704,0.00954555,-0.0087509,1.0321,0.0105668,0.0381917,1084,379,3.02591,14.1335
-133,645,2.89612,-14.3136,-0.00402334,0.00791336,0.00826822,0.0121423,-0.00825228,1.09802,0.011846,0.0320925,1091,379,2.89615,14.3136
-126,645,2.90649,-14.4328,-0.00409107,0.00828812,0.00836524,0.0125047,-0.00830764,1.10391,0.0120972,0.0252078,1098,379,2.90644,14.4328
-119,645,2.86096,-14.5931,-0.00427234,0.00880128,0.00826649,0.0128032,-0.00827426,1.11994,0.0122624,0.0164695,1105,379,2.86093,14.5931
-112,645,2.81909,-14.7448,-0.00423622,0.00881361,0.00774855,0.0124186,-0.00784118,1.13534,0.0117961,0.0112746,1112,379,2.8191,14.7448
-105,645,2.79712,-14.8561,-0.00405295,0.008598,0.00710395,0.0117845,-0.00723945,1.14915,0.0110875,0.0112901,1119,379,2.79706,14.8561
-98,645,2.76221,-14.9669,-0.00380775,0.00813793,0.00638252,0.0109064,-0.00657627,1.16152,0.0101963,0.0126383,1126,379,2.7622,14.9669
-91,645,2.75806,-15.0786,-0.00342481,0.00757301,0.00560844,0.00992856,-0.00578036,1.17317,0.00917435,0.0128729,1133,379,2.75805,15.0786
-84,645,2.75427,-15.1865,-0.00302098,0.00656119,0.00490534,0.00862699,-0.00508678,1.17221,0.00800511,0.0123372,1140,379,2.7543,15.1865
-77,645,2.72363,-15.3183,-0.00263002,0.00550957,0.00466442,0.00763009,-0.00475055,1.14411,0.00721212,0.0114191,1147,379,2.72367,15.3183
-70,645,2.73108,-15.4035,-0.00245658,0.00421873,0.00346254,0.00569035,-0.0039282,1.16892,0.00558425,0.0107523,1154,379,2.73102,15.4035
-63,645,2.73218,-15.4729,-0.00133996,0.00290108,0.00183127,0.00358237,-0.00202126,1.21463,0.00327684,0.0113398,1161,379,2.73213,15.4729
-56,645,2.70947,-15.5291,6.86008e-05,0.00263069,0.000871369,0.00289896,-0.000199663,1.27214,0.00200251,0.0123864,1168,379,2.7095,15.5291
-49,645,2.6958,-15.6032,0.00163629,0.00182879,0.000352664,0.0020981,0.00136697,0.918616,0.00122974,0.0101718,1175,379,2.69579,15.6032
-42,645,2.68677,-15.688,0.00275136,0.000795668,-2.84804e-05,0.00275177,0.000795254,-0.0145587,0.00163521,0.00930455,1182,379,2.6868,15.688
-35,645,2.67517,-15.7645,0.00321629,0.000138729,0.000155004,0.00322408,0.000130942,0.0501964,0.0021071,0.0096683,1189,379,2.67511,15.7645
-28,645,2.64392,-15.8323,0.00310847,-0.000173602,0.000499753,0.00318288,-0.000248011,0.147806,0.00220924,0.00862183,1196,379,2.64387,15.8323
-21,645,2.62036,-15.8724,0.00283689,-0.000154838,0.000690629,0.00298862,-0.000306572,0.216267,0.00210207,0.0101685,1203,379,2.62031,15.8724
-14,645,2.63928,-15.9092,0.00259819,-0.000255708,0.00087704,0.00284617,-0.000503687,0.275553,0.00208571,0.0096276,1210,379,2.6393,15.9092
-7,645,2.66968,-15.9821,0.00222969,-0.000191829,0.000971024,0.00257097,-0.000533109,0.337978,0.00191656,0.0129066,1217,379,2.6697,15.9821
0,645,2.66748,-16.019,0.00172799,-7.57279e-05,0.00102951,0.00219479,-0.000542531,0.425697,0.00167361,0.0243312,1224,379,2.66751,16.019
7,645,2.62573,-16.0298,0.00111291,0.000251598,0.00111599,0.00187845,-0.000513943,0.601252,0.00145421,0.0162667,1231,379,2.62579,16.0298
14,645,2.6106,-16.0522,0.000481683,0.00078005,0.00117397,0.00181428,-0.000552549,0.848597,0.00142975,0.0146159,1238,379,2.61056,16.0522
21,645,2.58362,-16.0692,-4.07572e-05,0.00148468,0.00115474,0.00210586,-0.000661931,1.07726,0.0016689,0.00984756,1245,379,2.58362,16.0692
28,645,2.5824,-16.0939,-0.000404715,0.00221104,0.0010952,0.00260903,-0.000802714,1.22223,0.00205974,0.00869318,1252,379,2.58234,16.0939
35,645,2.58069,-16.1125,-0.000564704,0.00304518,0.00110273,0.00335538,-0.000874907,1.29658,0.00257852,0.00869541,1259,379,2.58075,16.1125
42,645,2.58252,-16.1216,-0.000711613,0.00361829,0.00107771,0.0038717,-0.000965024,1.33985,0.0029558,0.00840623,1266,379,2.58247,16.1216
49,645,2.58948,-16.1231,-0.000642473,0.00405087,0.000908277,0.00422051,-0.000812115,1.38615,0.00311981,0.010872,1273,379,2.58951,16.1231
56,645,2.58301,-16.1153,-0.000214622,0.00464072,0.000751909,0.00475449,-0.000328399,1.42062,0.00328461,0.0112196,1280,379,2.58303,16.1153
63,645,2.56665,-16.1118,0.000480483,0.00500125,0.000689722,0.00510414,0.000377596,1.42272,0.00328414,0.0109942,1287,379,2.56669,16.1118
70,645,2.56677,-16.0812,0.00104394,0.00527815,0.00090904,0.00546506,0.000857032,1.36801,0.00339396,0.0141645,1294,379,2.5668,16.0812
77,645,2.56738,-16.0611,0.00165126,0.00539277,0.000965121,0.00562705,0.00141697,1.33265,0.00337955,0.0179859,1301,379,2.56737,16.0611
84,645,2.57104,-16.0416,0.00208894,0.00541212,0.00103701,0.00570917,0.00179189,1.29182,0.00337147,0.0135438,1308,379,2.5711,16.0416
91,645,2.53711,-16.0275,0.00220225,0.00542663,0.00104362,0.00573493,0.00189395,1.28355,0.00337407,0.0143968,1315,379,2.53713,16.0275
98,645,2.54712,-15.9584,0.00218734,0.00539284,0.00106794,0.00571605,0.00186413,1.27692,0.00336602,0.0128088,1322,379,2.54718,15.9584
105,645,2.53821,-15.9078,0.00213145,0.00534116,0.00104966,0.00565395,0.00181867,1.28119,0.0033328,0.0103942,1329,379,2.53827,15.9078
112,645,2.52686,-15.8745,0.00200289,0.00522639,0.000981612,0.00550178,0.0017275,1.29728,0.0032489,0.00919549,1336,379,2.52684,15.8745
119,645,2.53198,-15.8204,0.00172332,0.00508899,0.000874833,0.0053028,0.00150951,1.33109,0.0031548,0.00897578,1343,379,2.53199,15.8204
126,645,2.51697,-15.7743,0.00128872,0.00493156,0.000760143,0.00508382,0.00113646,1.37312,0.00308106,0.0118607,1350,379,2.51692,15.7743
133,645,2.50256,-15.7073,0.000785108,0.00479262,0.000566481,0.00487116,0.000706573,1.43304,0.00303942,0.0133818,1357,379,2.50254,15.7073
140,645,2.48889,-15.6334,0.000259835,0.00454379,0.000304708,0.00456535,0.000238271,1.50014,0.00296733,0.0123845,1364,379,2.48886,15.6334
147,645,2.45813,-15.5633,-0.000236602,0.00451383,0.000101302,0.00451599,-0.000238761,1.54948,0.00309332,0.0126579,1371,379,2.45813,15.5633
154,645,2.46326,-15.4879,-0.000573947,0.00440444,-3.79485e-05,0.00440473,-0.000574236,-1.56317,0.00314542,0.0117091,1378,379,2.4633,15.4879
161,645,2.48352,-15.4035,-0.00089477,0.00402368,-0.000182329,0.00403043,-0.00090152,-1.53379,0.00303246,0.013693,1385,379,2.48346,15.4035
168,645,2.46887,-15.3287,-0.00124969,0.00367095,-0.000237524,0.00368239,-0.00126113,-1.52267,0.00296606,0.0162907,1392,379,2.46887,15.3287
175,645,2.47644,-15.2422,-0.00142068,0.00338936,-0.000428908,0.00342731,-0.00145862,-1.48255,0.00289622,0.0138839,1399,379,2.47647,15.2422
182,645,2.4613,-15.1359,-0.00139904,0.00346122,-0.000174684,0.00346749,-0.00140531,-1.53492,0.00289607,0.00993643,1406,379,2.46125,15.1359
189,645,2.44666,-15.0123,-0.00127236,0.00275844,0.000366195,0.00279144,-0.00130536,1.48093,0.0024166,0.0108495,1413,379,2.4466,15.0123
196,645,2.41821,-14.917,-0.00116006,0.00180228,0.0009352,0.00207281,-0.00143059,1.2892,0.00203399,0.0111607,1420,379,2.41819,14.917
203,645,2.39282,-14.7944,-0.00137104,0.000522488,0.00140589,0.00127068,-0.00211924,1.08173,0.0019775,0.011153,1427,379,2.39276,14.7944
210,645,2.42871,-14.6703,-0.00188881,-0.000141931,0.00179846,0.000983967,-0.00301471,1.01145,0.00240583,0.014194,1434,379,2.42868,14.6703
217,645,2.40735,-14.5541,-0.00231623,-0.000603404,0.00182352,0.000554793,-0.00347443,1.00494,0.00252165,0.014073,1441,379,2.40735,14.5541
224,645,2.36609,-14.4235,-0.00249033,-0.000914946,0.00191069,0.000364046,-0.00376932,0.980912,0.0026426,0.013004,1448,379,2.36606,14.4235
231,645,2.35376,-14.2585,-0.00223098,-0.00114881,0.00217379,0.000550229,-0.00393002,0.907375,0.00282136,0.0147594,1455,379,2.3537,14.2585
238,645,2.33276,-14.1087,-0.00209367,-0.000982451,0.00255981,0.00108135,-0.00415747,0.892267,0.00319371,0.0115156,1462,379,2.33282,14.1087
245,645,2.3418,-13.9617,-0.00226161,-0.00113314,0.00256937,0.000933223,-0.00432797,0.893482,0.00324148,0.0114677,1469,379,2.34183,13.9617
252,645,2.36316,-13.7683,-0.00204141,-0.000692422,0.00273067,0.00144582,-0.00417965,0.906478,0.00337329,0.0165691,1476,379,2.36314,13.7684
259,645,2.27271,-13.5691,-0.00179257,8.02655e-05,0.0028964,0.00218786,-0.00390016,0.941747,0.00356096,0.0269865,1483,379,2.27275,13.5691
266,645,2.20239,-13.4411,-0.00177118,0.00112492,0.00234925,0.00243655,-0.00308281,1.06159,0.00319387,0.0261756,1490,379,2.20237,13.4411
273,645,2.22791,-13.2944,-0.00185947,0.000986975,0.0013464,0.00152293,-0.00239542,1.19196,0.00228088,0.027108,1497,379,2.22789,13.2944
280,645,2.39551,-13.114,-0.00179222,0.00116379,0.000352018,0.00120513,-0.00183356,1.45389,0.00176685,0.0465915,1504,379,2.39551,13.1139
287,645,2.55579,-13.0299,0,0,0,0,0,0,0,-1,1511,379,2.55576,13.0299
294,645,2.16992,-13.9409,0,0,0,0,0,0,0,-1,1518,379,2.16992,13.9408
301,645,2.79333,-14.1902,0,0,0,0,0,0,0,-1,1525,379,2.79335,14.1902
308,645,4.71753,-7.35086,0,0,0,0,0,0,0,-1,1532,379,4.71753,7.35087
315,645,2.08142,-12.2893,0,0,0,0,0,0,0,-1,1539,379,2.08146,12.2893
322,645,2.22974,-12.7031,0,0,0,0,0,0,0,-1,1546,379,2.22978,12.7031
329,645,2.07788,-12.2062,0,0,0,0,0,0,0,-1,1553,379,2.07782,12.2062
336,645,0.905884,-8.53455,0,0,0,0,0,0,0,-1,1560,379,0.90586,8.53454
343,645,3.48962,-5.22675,0,0,0,0,0,0,0,-1,1567,379,3.48959,5.22675
350,645,3.93213,-5.72198,0,0,0,0,0,0,0,-1,1574,379,3.9321,5.72198
357,645,1.63928,-6.465,0,0,0,0,0,0,0,-1,1581,379,1.63926,6.46499
364,645,-0.0794678,-3.22021,0,0,0,0,0,0,0,-1,1588,379,-0.0794987,3.22021
371,645,0,0,0,0,0,0,0,0,0,-1,1595,379,0,0
378,645,0,0,0,0,0,0,0,0,0,-1,1602,379,0,0
385,645,0,0,0,0,0,0,0,0,0,-1,1609,379,0,0
392,645,0,0,0,0,0,0,0,0,0,-1,1616,379,0,0
399,645,0,0,0,0,0,0,0,0,0,-1,1623,379,0,0
406,645,0,0,0,0,0,0,0,0,0,-1,1630,379,0,0
413,645,0,0,0,0,0,0,0,0,0,-1,1637,379,0,0
420,645,0,0,0,0,0,0,0,0,0,-1,1644,379,0,0
427,645,0,0,0,0,0,0,0,0,0,-1,1651,379,0,0
434,645,0,0,0,0,0,0,0,0,0,-1,1658,379,0,0
441,645,0,0,0,0,0,0,0,0,0,-1,1665,379,0,0
448,645,0,0,0,0,0,0,0,0,0,-1,1672,379,0,0
455,645,0,0,0,0,0,0,0,0,0,-1,1679,379,0,0
462,645,0,0,0,0,0,0,0,0,0,-1,1686,379,0,0
469,645,0,0,0,0,0,0,0,0,0,-1,1693,379,0,0
476,645,0,0,0,0,0,0,0,0,0,-1,1700,379,0,0
483,645,0,0,0,0,0,0,0,0,0,-1,1707,379,0,0
490,645,0,0,0,0,0,0,0,0,0,-1,1714,379,0,0
497,645,0,0,0,0,0,0,0,0,0,-1,1721,379,0,0
504,645,0,0,0,0,0,0,0,0,0,-1,1728,379,0,0
511,645,0,0,0,0,0,0,0,0,0,-1,1735,379,0,0
518,645,0,0,0,0,0,0,0,0,0,-1,1742,379,0,0
525,645,0,0,0,0,0,0,0,0,0,-1,1749,379,0,0
532,645,0,0,0,0,0,0,0,0,0,-1,1756,379,0,0
539,645,0,0,0,0,0,0,0,0,0,-1,1763,379,0,0
546,645,0,0,0,0,0,0,0,0,0,-1,1770,379,0,0
553,645,0,0,0,0,0,0,0,0,0,-1,1777,379,0,0
560,645,0,0,0,0,0,0,0,0,0,-1,1784,379,0,0
567,645,0,0,0,0,0,0,0,0,0,-1,1791,379,0,0
574,645,0,0,0,0,0,0,0,0,0,-1,1798,379,0,0
581,645,0,0,0,0,0,0,0,0,0,-1,1805,379,0,0
588,645,0,0,0,0,0,0,0,0,0,-1,1812,379,0,0
595,645,0,0,0,0,0,0,0,0,0,-1,1819,379,0,0
602,645,0,0,0,0,0,0,0,0,0,-1,1826,379,0,0
609,645,0,0,0,0,0,0,0,0,0,-1,1833,379,0,0
616,645,0,0,0,0,0,0,0,0,0,-1,1840,379,0,0
623,645,0,0,0,0,0,0,0,0,0,-1,1847,379,0,0
630,645,0,0,0,0,0,0,0,0,0,-1,1854,379,0,0
637,645,0,0,0,0,0,0,0,0,0,-1,1861,379,0,0
644,645,0,0,0,0,0,0,0,0,0,-1,1868,379,0,0
651,645,0,0,0,0,0,0,0,0,0,-1,1875,379,0,0
658,645,0,0,0,0,0,0,0,0,0,-1,1882,379,0,0
665,645,0,0,0,0,0,0,0,0,0,-1,1889,379,0,0
672,645,0,0,0,0,0,0,0,0,0,-1,1896,379,0,0
679,645,0,0,0,0,0,0,0,0,0,-1,1903,379,0,0
686,645,0,0,0,0,0,0,0,0,0,-1,1910,379,0,0
693,645,0,0,0,0,0,0,0,0,0,-1,1917,379,0,0
700,645,0,0,0,0,0,0,0,0,0,-1,1924,379,0,0
707,645,0,0,0,0,0,0,0,0,0,-1,1931,379,0,0
714,645,0,0,0,0,0,0,0,0,0,-1,1938,379,0,0
721,645,0,0,0,0,0,0,0,0,0,-1,1945,379,0,0
728,645,0,0,0,0,0,0,0,0,0,-1,1952,379,0,0
735,645,0,0,0,0,0,0,0,0,0,-1,1959,379,0,0
742,645,0,0,0,0,0,0,0,0,0,-1,1966,379,0,0
749,645,0,0,0,0,0,0,0,0,0,-1,1973,379,0,0
756,645,0,0,0,0,0,0,0,0,0,-1,1980,379,0,0
763,645,0,0,0,0,0,0,0,0,0,-1,1987,379,0,0
770,645,0,0,0,0,0,0,0,0,0,-1,1994,379,0,0
777,645,0,0,0,0,0,0,0,0,0,-1,2001,379,0,0
784,645,0,0,0,0,0,0,0,0,0,-1,2008,379,0,0
791,645,0,0,0,0,0,0,0,0,0,-1,2015,379,0,0
798,645,0,0,0,0,0,0,0,0,0,-1,2022,379,0,0
805,645,0,0,0,0,0,0,0,0,0,-1,2029,379,0,0
812,645,0,0,0,0,0,0,0,0,0,-1,2036,379,0,0
-700,638,0,0,0,0,0,0,0,0,0,-1,524,386,0,0
-693,638,0,0,0,0,0,0,0,0,0,-1,531,386,0,0
-686,638,0,0,0,0,0,0,0,0,0,-1,538,386,0,0
-679,638,0,0,0,0,0,0,0,0,0,-1,545,386,0,0
-672,638,0,0,0,0,0,0,0,0,0,-1,552,386,0,0
-665,638,0,0,0,0,0,0,0,0,0,-1,559,386,0,0
-658,638,0,0,0,0,0,0,0,0,0,-1,566,386,0,0
-651,638,0,0,0,0,0,0,0,0,0,-1,573,386,0,0
-644,638,0,0,0,0,0,0,0,0,0,-1,580,386,0,0
-637,638,0,0,0,0,0,0,0,0,0,-1,587,386,0,0
-630,638,0,0,0,0,0,0,0,0,0,-1,594,386,0,0
-623,638,0,0,0,0,0,0,0,0,0,-1,601,386,0,0
-616,638,0,0,0,0,0,0,0,0,0,-1,608,386,0,0
-609,638,0,0,0,0,0,0,0,0,0,-1,615,386,0,0
-602,638,0,0,0,0,0,0,0,0,0,-1,622,386,0,0
-595,638,0,0,0,0,0,0,0,0,0,-1,629,386,0,0
-588,638,0,0,0,0,0,0,0,0,0,-1,636,386,0,0
-581,638,0,0,0,0,0,0,0,0,0,-1,643,386,0,0
-574,638,0,0,0,0,0,0,0,0,0,-1,650,386,0,0
-567,638,0,0,0,0,0,0,0,0,0,-1,657,386,0,0
-560,638,0,0,0,0,0,0,0,0,0,-1,664,386,0,0
-553,638,0,0,0,0,0,0,0,0,0,-1,671,386,0,0
-546,638,0,0,0,0,0,0,0,0,0,-1,678,386,0,0
-539,638,0,0,0,0,0,0,0,0,0,-1,685,386,0,0
-532,638,0,0,0,0,0,0,0,0,0,-1,692,386,0,0
-525,638,0,0,0,0,0,0,0,0,0,-1,699,386,0,0
-518,638,0,0,0,0,0,0,0,0,0,-1,706,386,0,0
-511,638,0,0,0,0,0,0,0,0,0,-1,713,386,0,0
-504,638,0,0,0,0,0,0,0,0,0,-1,720,386,0,0
-497,638,0,0,0,0,0,0,0,0,0,-1,727,386,0,0
-490,638,0,0,0,0,0,0,0,0,0,-1,734,386,0,0
-483,638,0,0,0,0,0,0,0,0,0,-1,741,386,0,0
-476,638,0,0,0,0,0,0,0,0,0,-1,748,386,0,0
-469,638,0,0,0,0,0,0,0,0,0,-1,755,386,0,0
-462,638,0,0,0,0,0,0,0,0,0,-1,762,386,0,0
-455,638,0,0,0,0,0,0,0,0,0,-1,769,386,0,0
-448,638,0,0,0,0,0,0,0,0,0,-1,776,386,0,0
-441,638,0,0,0,0,0,0,0,0,0,-1,783,386,0,0
-434,638,0,0,0,0,0,0,0,0,0,-1,790,386,0,0
-427,638,0,0,0,0,0,0,0,0,0,-1,797,386,0,0
-420,638,0,0,0,0,0,0,0,0,0,-1,804,386,0,0
-413,638,0,0,0,0,0,0,0,0,0,-1,811,386,0,0
-406,638,0,0,0,0,0,0,0,0,0,-1,818,386,0,0
-399,638,0,0,0,0,0,0,0,0,0,-1,825,386,0,0
-392,638,0,0,0,0,0,0,0,0,0,-1,832,386,0,0
-385,638,0,0,0,0,0,0,0,0,0,-1,839,386,0,0
-378,638,0,0,0,0,0,0,0,0,0,-1,846,386,0,0
-371,638,0,0,0,0,0,0,0,0,0,-1,853,386,0,0
-364,638,0,0,0,0,0,0,0,0,0,-1,860,386,0,0
-357,638,0,0,0,0,0,0,0,0,0,-1,867,386,0,0
-350,638,0,0,0,0,0,0,0,0,0,-1,874,386,0,0
-343,638,0,0,0,0,0,0,0,0,0,-1,881,386,0,0
-336,638,0,0,0,0,0,0,0,0,0,-1,888,386,0,0
-329,638,0,0,0,0,0,0,0,0,0,-1,895,386,0,0
-322,638,0,0,0,0,0,0,0,0,0,-1,902,386,0,0
-315,638,0,0,0,0,0,0,0,0,0,-1,909,386,0,0
-308,638,0,0,0,0,0,0,0,0,0,-1,916,386,0,0
-301,638,0,0,0,0,0,0,0,0,0,-1,923,386,0,0
-294,638,0,0,0,0,0,0,0,0,0,-1,930,386,0,0
-287,638,0,0,0,0,0,0,0,0,0,-1,937,386,0,0
-280,638,0,0,0,0,0,0,0,0,0,-1,944,386,0,0
-273,638,0,0,0,0,0,0,0,0,0,-1,951,386,0,0
-266,638,0.603821,-10.3962,0,0,0,0,0,0,0,-1,958,386,0.603829,10.3962
-259,638,1.22852,-12.639,0,0,0,0,0,0,0,-1,965,386,1.22853,12.639
-252,638,1.82166,-12.43,0,0,0,0,0,0,0,-1,972,386,1.82167,12.43
-245,638,2.47107,-12.2099,0,0,0,0,0,0,0,-1,979,386,2.47105,12.2099
-238,638,3.37762,-12.1555,0,0,0,0,0,0,0,-1,986,386,3.37763,12.1556
-231,638,4.06219,-12.2823,0,0,0,0,0,0,0,-1,993,386,4.0622,12.2823
-224,638,3.90192,-12.6979,0,0,0,0,0,0,0,-1,1000,386,3.90192,12.6979
-217,638,4.58875,-13.7002,0,0,0,0,0,0,0,-1,1007,386,4.58873,13.7002
-210,638,3.2359,-16.5951,0,0,0,0,0,0,0,-1,1014,386,3.23593,16.5951
-203,638,3.07666,-15.1693,0,0,0,0,0,0,0,-1,1021,386,3.07665,15.1693
-196,638,2.82068,-13.7701,0,0,0,0,0,0,0,-1,1028,386,2.82071,13.7701
-189,638,3.08044,-12.8994,0,0,0,0,0,0,0,-1,1035,386,3.08049,12.8994
-182,638,2.98779,-13.0248,-0.00366695,-0.0186977,0.00178654,-0.00345752,-0.0189071,0.116693,0.0116249,0.0472229,1042,386,2.98777,13.0248
-175,638,2.80701,-13.4805,-0.00315283,-0.0142396,0.00241862,-0.00264817,-0.0147443,0.205704,0.0090765,0.0433271,1049,386,2.80703,13.4805
-168,638,2.77979,-13.6521,-0.00271192,-0.00957097,0.00354132,-0.00121168,-0.0110712,0.400718,0.0070119,0.0327507,1056,386,2.77975,13.6521
-161,638,2.78687,-13.776,-0.00250444,-0.00575866,0.00436792,0.000529587,-0.00879269,0.607104,0.00604606,0.0277947,1063,386,2.78687,13.776
-154,638,2.82983,-13.9234,-0.00267827,-0.00240716,0.00507223,0.00253133,-0.00761675,0.798757,0.00609929,0.023266,1070,386,2.82978,13.9234
-147,638,2.84265,-14.0771,-0.00298581,0.000500728,0.00550652,0.00453334,-0.00701842,0.938698,0.00672066,0.0206002,1077,386,2.84265,14.0771
-140,638,2.79407,-14.2298,-0.00303589,0.0032554,0.00561431,0.00654524,-0.00632573,1.04075,0.00743142,0.0160802,1084,386,2.79402,14.2298
-133,638,2.77576,-14.3954,-0.00304138,0.00550971,0.00569267,0.00835363,-0.00588529,1.10749,0.00826192,0.0121124,1091,386,2.77578,14.3954
-126,638,2.74829,-14.5189,-0.00302333,0.00579599,0.00572611,0.0086136,-0.00584095,1.11352,0.00839636,0.01304,1098,386,2.74833,14.5189
-119,638,2.71436,-14.6306,-0.00310647,0.00628006,0.00560132,0.00889443,-0.00572084,1.13411,0.00850418,0.0143524,1105,386,2.71441,14.6306
-112,638,2.70605,-14.7621,-0.003035,0.00635791,0.0051292,0.00861598,-0.00529307,1.15609,0.00810642,0.0136126,1112,386,2.70609,14.7622
-105,638,2.65479,-14.8973,-0.00284099,0.0062466,0.00454097,0.00812671,-0.0047211,1.17825,0.00750405,0.0159501,1119,386,2.65476,14.8973
-98,638,2.66626,-15.0055,-0.00259718,0.00593114,0.00389396,0.00744158,-0.00410762,1.20077,0.00675991,0.0158785,1126,386,2.6663,15.0055
-91,638,2.66101,-15.1057,-0.00221998,0.00553327,0.00322586,0.0066999,-0.00338661,1.22378,0.00592725,0.0120952,1133,386,2.66103,15.1057
-84,638,2.63867,-15.2116,-0.00184086,0.00477835,0.00273166,0.00576007,-0.00282258,1.22579,0.00505101,0.0132126,1140,386,2.63865,15.2116
-77,638,2.64001,-15.3311,-0.00154734,0.00399918,0.00257248,0.0050086,-0.00255676,1.19687,0.00444366,0.0108497,1147,386,2.64,15.331
-70,638,2.66272,-15.4088,-0.0014022,0.00310086,0.00185108,0.0037641,-0.00206544,1.22675,0.00341298,0.0104212,1154,386,2.6627,15.4088
-63,638,2.65796,-15.4831,-0.00106058,0.00225264,0.000982432,0.00252205,-0.00132999,1.30315,0.00225919,0.0114173,1161,386,2.658,15.4831
-56,638,2.64185,-15.5574,-0.000583111,0.00210786,0.000443266,0.002179,-0.000654246,1.41167,0.00171291,0.0146286,1168,386,2.64185,15.5574
-49,638,2.62537,-15.627,5.17414e-06,0.00167509,0.000141981,0.00168707,-6.81146e-06,1.48658,0.00112699,0.0120475,1175,386,2.6254,15.627
-42,638,2.62036,-15.7103,0.00049023,0.000988811,-2.38123e-05,0.000989945,0.000489095,-1.52318,0.000571559,0.010094,1182,386,2.62032,15.7103
-35,638,2.62451,-15.7791,0.000693086,0.000493678,0.000141398,0.000766397,0.000420367,0.478318,0.000443173,0.00999339,1189,386,2.62455,15.7791
-28,638,2.61438,-15.8434,0.000671969,0.000188325,0.000395938,0.000894092,-3.37974e-05,0.511252,0.00060764,0.0105037,1196,386,2.61443,15.8434
-21,638,2.57886,-15.8853,0.000602598,8.92811e-05,0.000550067,0.000952938,-0.000261059,0.567114,0.00073787,0.0115037,1203,386,2.57887,15.8853
-14,638,2.57959,-15.9262,0.000582028,-0.000133747,0.000694996,0.00100587,-0.00055759,0.547631,0.00091495,0.0109936,1210,386,2.57961,15.9262
-7,638,2.61145,-15.9986,0.000550267,-0.000206351,0.000735074,0.00099867,-0.000654754,0.547747,0.000961463,0.0158895,1217,386,2.61148,15.9986
0,638,2.6427,-16.0164,0.000440428,-0.000200312,0.000744634,0.000930686,-0.000690569,0.582249,0.000939448,0.0279557,1224,386,2.64267,16.0164
7,638,2.60095,-16.0341,0.000257475,-4.68116e-05,0.000761341,0.000881726,-0.000671062,0.686779,0.000899249,0.0223618,1231,386,2.60092,16.0341
14,638,2.58252,-16.0411,4.20989e-05,0.000193346,0.000777686,0.000899077,-0.000663632,0.833867,0.000905637,0.0124941,1238,386,2.58247,16.0411
21,638,2.56714,-16.0731,-0.00012586,0.000552276,0.000694796,0.000986325,-0.000559909,1.0124,0.000903963,0.0103253,1245,386,2.56712,16.0731
28,638,2.56738,-16.0956,-0.000225461,0.000910451,0.000554349,0.00113614,-0.000451153,1.18416,0.000944442,0.00806601,1252,386,2.56743,16.0956
35,638,2.57849,-16.1156,-0.000239129,0.00140933,0.000497453,0.00154781,-0.000377611,1.29929,0.00117809,0.00972357,1259,386,2.57843,16.1156
42,638,2.5968,-16.1353,-0.000175885,0.00173268,0.00046953,0.00184194,-0.000285141,1.34217,0.00133321,0.00913204,1266,386,2.59679,16.1353
49,638,2.59717,-16.1241,4.97773e-06,0.00193275,0.000368608,0.00200083,-6.30992e-05,1.38817,0.00135541,0.00778649,1273,386,2.59716,16.1241
56,638,2.58801,-16.1213,0.000374979,0.00226827,0.00031472,0.00231921,0.000324034,1.41031,0.00145025,0.0104175,1280,386,2.58804,16.1213
63,638,2.599,-16.1295,0.000881432,0.00247144,0.000363811,0.00255073,0.000802142,1.35621,0.00150608,0.0123328,1287,386,2.59894,16.1296
70,638,2.59949,-16.0964,0.00129296,0.00262112,0.0006339,0.0028751,0.00103898,1.18972,0.00168107,0.0167502,1294,386,2.59948,16.0964
77,638,2.59827,-16.0602,0.00173983,0.00267083,0.000819403,0.00314773,0.00126293,1.04371,0.00182912,0.0180328,1301,386,2.59822,16.0602
84,638,2.60156,-16.0262,0.002092,0.00267464,0.00102993,0.00345366,0.00131298,0.923223,0.00201297,0.0131863,1308,386,2.60159,16.0262
91,638,2.58716,-16.0035,0.00219322,0.00270452,0.00116495,0.00364154,0.0012562,0.893411,0.00213587,0.0130851,1315,386,2.58721,16.0035
98,638,2.58728,-15.9618,0.00216151,0.00270012,0.00131181,0.00376999,0.00109164,0.886638,0.00223994,0.0116233,1322,386,2.58728,15.9618
105,638,2.578,-15.9317,0.00209825,0.00262744,0.00138681,0.00377467,0.000951019,0.879663,0.00226694,0.00940185,1329,386,2.57794,15.9317
112,638,2.57935,-15.8893,0.00198402,0.00256052,0.0014059,0.00370742,0.000837125,0.886511,0.00224521,0.00932526,1336,386,2.57936,15.8893
119,638,2.58447,-15.8311,0.00177479,0.00256268,0.00133808,0.0035636,0.000773865,0.928559,0.0021644,0.0115019,1343,386,2.58453,15.8311
126,638,2.57935,-15.7698,0.00144595,0.0025515,0.00126187,0.00337636,0.000621088,0.991838,0.0020751,0.0155056,1350,386,2.5793,15.7698
133,638,2.56763,-15.7074,0.00108237,0.00255695,0.00109732,0.00314167,0.000497651,1.08121,0.00194985,0.0166351,1357,386,2.56757,15.7074
140,638,2.547,-15.6509,0.000713876,0.00241234,0.00081719,0.00274167,0.000384552,1.18771,0.00171403,0.0160773,1364,386,2.54702,15.6509
147,638,2.55127,-15.5919,0.000345385,0.00243478,0.000536552,0.00256451,0.000215655,1.33356,0.00164251,0.0159765,1371,386,2.55121,15.5919
154,638,2.55151,-15.519,0.000116346,0.0024183,0.000332604,0.00246539,6.92521e-05,1.43014,0.001621,0.0146813,1378,386,2.55152,15.519
161,638,2.55469,-15.4062,-7.32379e-05,0.00222317,0.000134691,0.00223105,-8.11109e-05,1.51241,0.00151512,0.0177974,1385,386,2.5547,15.4062
168,638,2.57703,-15.2944,-0.000318427,0.00209244,-1.55736e-06,0.00209244,-0.000318428,-1.57015,0.00151232,0.0233005,1392,386,2.577,15.2944
175,638,2.6156,-15.198,-0.000478238,0.00200176,-0.000170285,0.0020134,-0.000489876,-1.50256,0.00153189,0.0189855,1399,386,2.61557,15.198
182,638,2.5675,-15.1331,-0.000543695,0.00211334,-3.56353e-05,0.00211382,-0.000544173,-1.55739,0.00162134,0.0128864,1406,386,2.56745,15.1331
189,638,2.54199,-15.0417,-0.000577632,0.00172793,0.000270357,0.00175921,-0.000608911,1.45561,0.00141998,0.0118138,1413,386,2.54205,15.0417
196,638,2.53833,-14.924,-0.000638447,0.0011653,0.000621896,0.00135893,-0.000832078,1.26895,0.00127711,0.0139991,1420,386,2.53829,14.9241
203,638,2.51025,-14.8158,-0.00090402,0.000405699,0.000923921,0.000883301,-0.00138162,1.0937,0.00131816,0.0201199,1427,386,2.51031,14.8158
210,638,2.52185,-14.7068,-0.00130241,8.12014e-05,0.00120245,0.000776653,-0.00199786,1.04644,0.00165278,0.0158389,1434,386,2.5218,14.7068
217,638,2.52429,-14.5777,-0.00164356,-0.00015504,0.00127314,0.000575426,-0.00237403,1.0499,0.00180533,0.0110239,1441,386,2.52428,14.5777
224,638,2.48694,-14.4378,-0.00179913,-0.000321018,0.00138903,0.000513334,-0.00263349,1.02988,0.00194943,0.0102254,1448,386,2.48692,14.4378
231,638,2.45227,-14.2999,-0.00159587,-0.000424291,0.00165276,0.000743416,-0.00276358,0.955707,0.0021338,0.0111551,1455,386,2.45226,14.2999
238,638,2.44543,-14.1683,-0.00147914,-0.00016988,0.00202984,0.00130828,-0.00295729,0.941384,0.00252333,0.0124756,1462,386,2.44539,14.1683
245,638,2.44751,-13.9927,-0.00161633,-0.000222363,0.0020902,0.001284,-0.00312269,0.946327,0.00261699,0.0138703,1469,386,2.44748,13.9927
252,638,2.43726,-13.8157,-0.00146473,0.000181202,0.00226383,0.00176701,-0.00305054,0.959736,0.00281413,0.0148193,1476,386,2.43727,13.8157
259,638,2.43286,-13.6797,-0.00132613,0.000785775,0.00243858,0.00238721,-0.00292756,0.98972,0.00307377,0.0142315,1483,386,2.43282,13.6797
266,638,2.40479,-13.5386,-0.00138337,0.00155173,0.00206032,0.00261374,-0.00244537,1.09486,0.00292142,0.0112448,1490,386,2.40483,13.5386
273,638,2.39026,-13.3879,-0.00150198,0.00140385,0.00134742,0.00193248,-0.0020306,1.19692,0.00228832,0.0111051,1497,386,2.39023,13.3879
280,638,2.46387,-13.1407,-0.00146906,0.00148855,0.000693581,0.00164313,-0.00162363,1.35152,0.00188607,0.0222997,1504,386,2.46391,13.1407
287,638,2.77515,-12.7209,-0.00154267,0.00086071,-6.07201e-05,0.000862243,-0.00154421,-1.54555,0.00140784,0.0395783,1511,386,2.77514,12.721
294,638,2.45178,-13.0125,-0.00180792,0.000483406,-0.00125053,0.00103373,-0.00235824,-1.15623,0.00200751,0.049018,1518,386,2.45175,13.0125
301,638,2.35889,-12.5726,0,0,0,0,0,0,0,-1,1525,386,2.35887,12.5726
308,638,2.29041,-12.2921,0,0,0,0,0,0,0,-1,1532,386,2.29039,12.2921
315,638,2.20923,-12.2441,-0.00237823,-0.00513177,-0.00595768,0.00235969,-0.00986969,-0.671846,0.00749128,0.0454803,1539,386,2.20925,12.2441
322,638,2.14941,-12.5977,-0.00243162,-0.00834893,-0.00749322,0.00266591,-0.0134465,-0.597371,0.00997243,0.0491281,1546,386,2.14943,12.5977
329,638,2.0929,-12.2654,0,0,0,0,0,0,0,-1,1553,386,2.09288,12.2654
336,638,2.9165,-13.3095,0,0,0,0,0,0,0,-1,1560,386,2.91649,13.3095
343,638,1.04028,-10.3387,0,0,0,0,0,0,0,-1,1567,386,1.04031,10.3387
350,638,2.3783,-11.33,0,0,0,0,0,0,0,-1,1574,386,2.37831,11.33
357,638,0.130371,-3.02618,0,0,0,0,0,0,0,-1,1581,386,0.130345,3.0262
364,638,3.78149,-6.45215,0,0,0,0,0,0,0,-1,1588,386,3.78155,6.45216
371,638,4.18604,-6.71164,0,0,0,0,0,0,0,-1,1595,386,4.18598,6.71164
378,638,4.59045,-6.97113,0,0,0,0,0,0,0,-1,1602,386,4.5904,6.97112
385,638,0,0,0,0,0,0,0,0,0,-1,1609,386,0,0
392,638,0,0,0,0,0,0,0,0,0,-1,1616,386,0,0
399,638,0,0,0,0,0,0,0,0,0,-1,1623,386,0,0
406,638,0,0,0,0,0,0,0,0,0,-1,1630,386,0,0
413,638,0,0,0,0,0,0,0,0,0,-1,1637,386,0,0
420,638,0,0,0,0,0,0,0,0,0,-1,1644,386,0,0
427,638,0,0,0,0,0,0,0,0,0,-1,1651,386,0,0
434,638,0,0,0,0,0,0,0,0,0,-1,1658,386,0,0
441,638,0,0,0,0,0,0,0,0,0,-1,1665,386,0,0
448,638,0,0,0,0,0,0,0,0,0,-1,1672,386,0,0
455,638,0,0,0,0,0,0,0,0,0,-1,1679,386,0,0
462,638,0,0,0,0,0,0,0,0,0,-1,1686,386,0,0
469,638,0,0,0,0,0,0,0,0,0,-1,1693,386,0,0
476,638,0,0,0,0,0,0,0,0,0,-1,1700,386,0,0
483,638,0,0,0,0,0,0,0,0,0,-1,1707,386,0,0
490,638,0,0,0,0,0,0,0,0,0,-1,1714,386,0,0
497,638,0,0,0,0,0,0,0,0,0,-1,1721,386,0,0
504,638,0,0,0,0,0,0,0,0,0,-1,1728,386,0,0
511,638,0,0,0,0,0,0,0,0,0,-1,1735,386,0,0
518,638,0,0,0,0,0,0,0,0,0,-1,1742,386,0,0
525,638,0,0,0,0,0,0,0,0,0,-1,1749,386,0,0
532,638,0,0,0,0,0,0,0,0,0,-1,1756,386,0,0
539,638,0,0,0,0,0,0,0,0,0,-1,1763,386,0,0
546,638,0,0,0,0,0,0,0,0,0,-1,1770,386,0,0
553,638,0,0,0,0,0,0,0,0,0,-1,1777,386,0,0
560,638,0,0,0,0,0,0,0,0,0,-1,1784,386,0,0
567,638,0,0,0,0,0,0,0,0,0,-1,1791,386,0,0
574,638,0,0,0,0,0,0,0,0,0,-1,1798,386,0,0
581,638,0,0,0,0,0,0,0,0,0,-1,1805,386,0,0
588,638,0,0,0,0,0,0,0,0,0,-1,1812,386,0,0
595,638,0,0,0,0,0,0,0,0,0,-1,1819,386,0,0
602,638,0,0,0,0,0,0,0,0,0,-1,1826,386,0,0
609,638,0,0,0,0,0,0,0,0,0,-1,1833,386,0,0
616,638,0,0,0,0,0,0,0,0,0,-1,1840,386,0,0
623,638,0,0,0,0,0,0,0,0,0,-1,1847,386,0,0
630,638,0,0,0,0,0,0,0,0,0,-1,1854,386,0,0
637,638,0,0,0,0,0,0,0,0,0,-1,1861,386,0,0
644,638,0,0,0,0,0,0,0,0,0,-1,1868,386,0,0
651,638,0,0,0,0,0,0,0,0,0,-1,1875,386,0,0
658,638,0,0,0,0,0,0,0,0,0,-1,1882,386,0,0
665,638,0,0,0,0,0,0,0,0,0,-1,1889,386,0,0
672,638,0,0,0,0,0,0,0,0,0,-1,1896,386,0,0
679,638,0,0,0,0,0,0,0,0,0,-1,1903,386,0,0
686,638,0,0,0,0,0,0,0,0,0,-1,1910,386,0,0
693,638,0,0,0,0,0,0,0,0,0,-1,1917,386,0,0
700,638,0,0,0,0,0,0,0,0,0,-1,1924,386,0,0
707,638,0,0,0,0,0,0,0,0,0,-1,1931,386,0,0
714,638,0,0,0,0,0,0,0,0,0,-1,1938,386,0,0
721,638,0,0,0,0,0,0,0,0,0,-1,1945,386,0,0
728,638,0,0,0,0,0,0,0,0,0,-1,1952,386,0,0
735,638,0,0,0,0,0,0,0,0,0,-1,1959,386,0,0
742,638,0,0,0,0,0,0,0,0,0,-1,1966,386,0,0
749,638,0,0,0,0,0,0,0,0,0,-1,1973,386,0,0
756,638,0,0,0,0,0,0,0,0,0,-1,1980,386,0,0
763,638,0,0,0,0,0,0,0,0,0,-1,1987,386,0,0
770,638,0,0,0,0,0,0,0,0,0,-1,1994,386,0,0
777,638,0,0,0,0,0,0,0,0,0,-1,2001,386,0,0
784,638,0,0,0,0,0,0,0,0,0,-1,2008,386,0,0
791,638,0,0,0,0,0,0,0,0,0,-1,2015,386,0,0
798,638,0,0,0,0,0,0,0,0,0,-1,2022,386,0,0
805,638,0,0,0,0,0,0,0,0,0,-1,2029,386,0,0
812,638,0,0,0,0,0,0,0,0,0,-1,2036,386,0,0
-700,631,0,0,0,0,0,0,0,0,0,-1,524,393,0,0
-693,631,0,0,0,0,0,0,0,0,0,-1,531,393,0,0
-686,631,0,0,0,0,0,0,0,0,0,-1,538,393,0,0
-679,631,0,0,0,0,0,0,0,0,0,-1,545,393,0,0
-672,631,0,0,0,0,0,0,0,0,0,-1,552,393,0,0
-665,631,0,0,0,0,0,0,0,0,0,-1,559,393,0,0
-658,631,0,0,0,0,0,0,0,0,0,-1,566,393,0,0
-651,631,0,0,0,0,0,0,0,0,0,-1,573,393,0,0
-644,631,0,0,0,0,0,0,0,0,0,-1,580,393,0,0
-637,631,0,0,0,0,0,0,0,0,0,-1,587,393,0,0
-630,631,0,0,0,0,0,0,0,0,0,-1,594,393,0,0
-623,631,0,0,0,0,0,0,0,0,0,-1,601,393,0,0
-616,631,0,0,0,0,0,0,0,0,0,-1,608,393,0,0
-609,631,0,0,0,0,0,0,0,0,0,-1,615,393,0,0
-602,631,0,0,0,0,0,0,0,0,0,-1,622,393,0,0
-595,631,0,0,0,0,0,0,0,0,0,-1,629,393,0,0
-588,631,0,0,0,0,0,0,0,0,0,-1,636,393,0,0
-581,631,0,0,0,0,0,0,0,0,0,-1,643,393,0,0
-574,631,0,0,0,0,0,0,0,0,0,-1,650,393,0,0
-567,631,0,0,0,0,0,0,0,0,0,-1,657,393,0,0
-560,631,0,0,0,0,0,0,0,0,0,-1,664,393,0,0
-553,631,0,0,0,0,0,0,0,0,0,-1,671,393,0,0
-546,631,0,0,0,0,0,0,0,0,0,-1,678,393,0,0
-539,631,0,0,0,0,0,0,0,0,0,-1,685,393,0,0
-532,631,0,0,0,0,0,0,0,0,0,-1,692,393,0,0
-525,631,0,0,0,0,0,0,0,0,0,-1,699,393,0,0
-518,631,0,0,0,0,0,0,0,0,0,-1,706,393,0,0
-511,631,0,0,0,0,0,0,0,0,0,-1,713,393,0,0
-504,631,0,0,0,0,0,0,0,0,0,-1,720,393,0,0
-497,631,0,0,0,0,0,0,0,0,0,-1,727,393,0,0
-490,631,0,0,0,0,0,0,0,0,0,-1,734,393,0,0
-483,631,0,0,0,0,0,0,0,0,0,-1,741,393,0,0
-476,631,0,0,0,0,0,0,0,0,0,-1,748,393,0,0
-469,631,0,0,0,0,0,0,0,0,0,-1,755,393,0,0
-462,631,0,0,0,0,0,0,0,0,0,-1,762,393,0,0
-455,631,0,0,0,0,0,0,0,0,0,-1,769,393,0,0
-448,631,0,0,0,0,0,0,0,0,0,-1,776,393,0,0
-441,631,0,0,0,0,0,0,0,0,0,-1,783,393,0,0
-434,631,0,0,0,0,0,0,0,0,0,-1,790,393,0,0
-427,631,0,0,0,0,0,0,0,0,0,-1,797,393,0,0
-420,631,0,0,0,0,0,0,0,0,0,-1,804,393,0,0
-413,631,0,0,0,0,0,0,0,0,0,-1,811,393,0,0
-406,631,0,0,0,0,0,0,0,0,0,-1,818,393,0,0
-399,631,0,0,0,0,0,0,0,0,0,-1,825,393,0,0
-392,631,0,0,0,0,0,0,0,0,0,-1,832,393,0,0
-385,631,0,0,0,0,0,0,0,0,0,-1,839,393,0,0
-378,631,0,0,0,0,0,0,0,0,0,-1,846,393,0,0
-371,631,0,0,0,0,0,0,0,0,0,-1,853,393,0,0
-364,631,0,0,0,0,0,0,0,0,0,-1,860,393,0,0
-357,631,0,0,0,0,0,0,0,0,0,-1,867,393,0,0
-350,631,0,0,0,0,0,0,0,0,0,-1,874,393,0,0
-343,631,0,0,0,0,0,0,0,0,0,-1,881,393,0,0
-336,631,0,0,0,0,0,0,0,0,0,-1,888,393,0,0
-329,631,0,0,0,0,0,0,0,0,0,-1,895,393,0,0
-322,631,0,0,0,0,0,0,0,0,0,-1,902,393,0,0
-315,631,0,0,0,0,0,0,0,0,0,-1,909,393,0,0
-308,631,0,0,0,0,0,0,0,0,0,-1,916,393,0,0
-301,631,0,0,0,0,0,0,0,0,0,-1,923,393,0,0
-294,631,0,0,0,0,0,0,0,0,0,-1,930,393,0,0
-287,631,0,0,0,0,0,0,0,0,0,-1,937,393,0,0
-280,631,1.38763,-14.3453,0,0,0,0,0,0,0,-1,944,393,1.38762,14.3453
-273,631,2.6192,-11.8094,0,0,0,0,0,0,0,-1,951,393,2.61918,11.8094
-266,631,0.616394,-9.4404,0,0,0,0,0,0,0,-1,958,393,0.616411,9.4404
-259,631,2.41724,-11.1745,0,0,0,0,0,0,0,-1,965,393,2.41723,11.1745
-252,631,3.24622,-11.8033,0,0,0,0,0,0,0,-1,972,393,3.24619,11.8033
-245,631,3.36444,-12.3994,0,0,0,0,0,0,0,-1,979,393,3.36445,12.3994
-238,631,4.40826,-11.8533,0,0,0,0,0,0,0,-1,986,393,4.40829,11.8533
-231,631,5.26642,-12.2423,0,0,0,0,0,0,0,-1,993,393,5.26643,12.2423
-224,631,3.33148,-11.726,0,0,0,0,0,0,0,-1,1000,393,3.33146,11.726
-217,631,2.8056,-11.3224,0,0,0,0,0,0,0,-1,1007,393,2.80559,11.3224
-210,631,2.78754,-12.5855,0,0,0,0,0,0,0,-1,1014,393,2.78753,12.5855
-203,631,2.88507,-12.7542,0,0,0,0,0,0,0,-1,1021,393,2.88506,12.7541
-196,631,2.97058,-12.7641,0,0,0,0,0,0,0,-1,1028,393,2.97056,12.7641
-189,631,2.93787,-12.9176,-0.00377097,-0.0118141,0.00154312,-0.00348508,-0.0121,0.183193,0.00719218,0.0484508,1035,393,2.93789,12.9176
-182,631,2.87268,-13.1217,-0.00328813,-0.0102079,0.00126489,-0.00306417,-0.0104319,0.175246,0.00619133,0.0465393,1042,393,2.87267,13.1217
-175,631,2.75232,-13.4665,-0.00274573,-0.0081382,0.00164732,-0.00228232,-0.00860161,0.274224,0.00514523,0.0350167,1049,393,2.7523,13.4665
-168,631,2.69165,-13.6805,-0.00233624,-0.00573208,0.00238786,-0.00110417,-0.00696415,0.476342,0.00432198,0.0186502,1056,393,2.69164,13.6805
-161,631,2.66858,-13.8398,-0.00210621,-0.00351055,0.00298242,0.000255585,-0.00587234,0.669785,0.00400281,0.009319,1063,393,2.66855,13.8397
-154,631,2.66797,-13.9925,-0.00213587,-0.00143554,0.00348595,0.00171779,-0.0052892,0.835455,0.00421701,0.0089464,1070,393,2.66799,13.9925
-147,631,2.66406,-14.1375,-0.00227424,0.000406134,0.00377369,0.00307055,-0.00493865,0.956021,0.00466586,0.0101982,1077,393,2.66402,14.1375
-140,631,2.65283,-14.2911,-0.0022374,0.00223178,0.00381369,0.00441733,-0.00442295,1.05041,0.00510394,0.00975725,1084,393,2.65288,14.2911
-133,631,2.63501,-14.4265,-0.00216437,0.0037565,0.00381145,0.00562218,-0.00403004,1.11559,0.00559793,0.00861902,1091,393,2.63503,14.4265
-126,631,2.62903,-14.5306,-0.00206364,0.0039404,0.00379817,0.00577969,-0.00390292,1.11982,0.00562515,0.0120699,1098,393,2.62899,14.5306
-119,631,2.61035,-14.6343,-0.00204008,0.0043635,0.00365005,0.00601705,-0.00369363,1.14543,0.00565971,0.0144895,1105,393,2.6104,14.6343
-112,631,2.58032,-14.7593,-0.00190748,0.00447172,0.00322748,0.00581976,-0.00325551,1.17515,0.00530888,0.0139052,1112,393,2.58036,14.7593
-105,631,2.57568,-14.8954,-0.00167527,0.00443435,0.00270265,0.00545829,-0.00269921,1.20864,0.00479869,0.0185354,1119,393,2.57563,14.8954
-98,631,2.57813,-15.0166,-0.00141163,0.00423468,0.00213317,0.00494997,-0.00212692,1.24726,0.00419281,0.0159258,1126,393,2.57809,15.0166
-91,631,2.57922,-15.1214,-0.0010527,0.00396978,0.0015655,0.00441778,-0.0015007,1.29207,0.00355269,0.0172583,1133,393,2.57924,15.1214
-84,631,2.56555,-15.2141,-0.000714392,0.00342661,0.00120954,0.00375401,-0.0010418,1.30644,0.00291272,0.0163089,1140,393,2.5655,15.2141
-77,631,2.55322,-15.3157,-0.000491319,0.00286497,0.00108012,0.00318253,-0.000808876,1.28485,0.00243649,0.0106576,1147,393,2.55319,15.3157
-70,631,2.56958,-15.3918,-0.000355458,0.00226382,0.000695697,0.00243713,-0.000528771,1.32664,0.0018267,0.0114769,1154,393,2.56955,15.3918
-63,631,2.56641,-15.4796,-0.000316272,0.00171505,0.000300786,0.00175865,-0.000359874,1.42684,0.00130899,0.0127262,1161,393,2.56643,15.4796
-56,631,2.547,-15.5867,-0.000197871,0.00154105,4.95816e-05,0.00154246,-0.000199284,1.54231,0.00110076,0.0133578,1168,393,2.54696,15.5867
-49,631,2.54431,-15.6488,-4.53016e-05,0.00120832,-8.67107e-05,0.00121429,-5.12707e-05,-1.50206,0.000827146,0.0103931,1175,393,2.54425,15.6488
-42,631,2.55115,-15.7055,4.06072e-05,0.000698032,-0.000107957,0.000715306,2.33333e-05,-1.41213,0.000469286,0.00817442,1182,393,2.55112,15.7055
-35,631,2.56104,-15.7687,7.51979e-05,0.000286621,4.9374e-05,0.000297583,6.42359e-05,1.35232,0.000180821,0.00946171,1189,393,2.56108,15.7687
-28,631,2.55249,-15.8271,8.45174e-05,-2.14057e-05,0.000205093,0.000243377,-0.000180265,0.659043,0.000245493,0.0126242,1196,393,2.55255,15.8271
-21,631,2.52222,-15.9,9.19601e-05,-0.000215777,0.000313034,0.000286898,-0.000410715,0.55697,0.000404876,0.0112279,1203,393,2.52216,15.9
-14,631,2.50671,-15.9505,0.00016207,-0.000556598,0.000417806,0.00035381,-0.000748338,0.430248,0.000649773,0.0133219,1210,393,2.50674,15.9505
-7,631,2.51074,-16.0236,0.000311161,-0.000729322,0.000394359,0.000443737,-0.000861898,0.324311,0.000766587,0.0200251,1217,393,2.51075,16.0235
0,631,2.54651,-16.0455,0.000397979,-0.000805838,0.000370364,0.000502798,-0.000910657,0.275802,0.000827306,0.0198394,1224,393,2.54654,16.0455
7,631,2.54028,-16.0104,0.000436866,-0.000853543,0.000380699,0.000540808,-0.000957485,0.266533,0.000876119,0.0165869,1231,393,2.54025,16.0104
14,631,2.55347,-16.0488,0.000451991,-0.000933915,0.000429283,0.000574187,-0.00105611,0.277317,0.000954863,0.0103503,1238,393,2.5535,16.0488
21,631,2.56799,-16.0935,0.000507575,-0.000930298,0.000333871,0.000581318,-0.00100404,0.21738,0.000926089,0.0116351,1245,393,2.56801,16.0935
28,631,2.58069,-16.1018,0.000597794,-0.000968406,0.000110906,0.000605608,-0.000976221,0.0703444,0.000921587,0.0126788,1252,393,2.58064,16.1018
35,631,2.57825,-16.1102,0.000654025,-0.000878409,-1.75281e-05,0.000654225,-0.000878609,-0.0114361,0.000888138,0.0126978,1259,393,2.5782,16.1102
42,631,2.58923,-16.1378,0.000941217,-0.000955442,-4.64875e-05,0.000942356,-0.000956581,-0.0244906,0.00109636,0.011867,1266,393,2.58919,16.1378
49,631,2.58118,-16.1233,0.00120262,-0.00110458,-0.000179375,0.00121649,-0.00111844,-0.0771283,0.00134847,0.010323,1273,393,2.58114,16.1233
56,631,2.59192,-16.1208,0.00148458,-0.00129705,-0.00028583,0.00151365,-0.00132611,-0.101345,0.00164073,0.0116971,1280,393,2.59189,16.1208
63,631,2.60168,-16.1336,0.00180949,-0.00138774,-0.000266518,0.00183155,-0.0014098,-0.0825994,0.00187667,0.0141658,1287,393,2.60171,16.1336
70,631,2.60864,-16.1114,0.00203457,-0.00150406,-8.23038e-05,0.00203648,-0.00150597,-0.0232419,0.00205287,0.0143812,1294,393,2.60862,16.1114
77,631,2.61536,-16.0756,0.00220136,-0.00161472,0.000143076,0.00220672,-0.00162008,0.0374228,0.00221804,0.0143363,1301,393,2.61541,16.0756
84,631,2.61633,-16.0436,0.00235885,-0.00169912,0.000364997,0.00239141,-0.00173168,0.0889941,0.00239061,0.011864,1308,393,2.61629,16.0436
91,631,2.61157,-16.0115,0.00233402,-0.00170081,0.000521983,0.00240046,-0.00176724,0.126593,0.00241546,0.0143026,1315,393,2.61153,16.0115
98,631,2.61743,-15.9848,0.00214746,-0.00169236,0.000719531,0.00227786,-0.00182276,0.179286,0.00237235,0.0122942,1322,393,2.61738,15.9848
105,631,2.61597,-15.9442,0.00195719,-0.00171764,0.000852384,0.00214527,-0.00190573,0.217178,0.00234021,0.0102753,1329,393,2.61597,15.9442
112,631,2.61548,-15.8854,0.00173247,-0.0016283,0.00090466,0.00196051,-0.00185634,0.246934,0.00220394,0.0109461,1336,393,2.61542,15.8854
119,631,2.62378,-15.8344,0.00145347,-0.00137656,0.000868438,0.00169871,-0.0016218,0.275228,0.00191727,0.0124071,1343,393,2.62383,15.8344
126,631,2.62439,-15.77,0.0011022,-0.00112273,0.000860072,0.0013959,-0.00141643,0.329067,0.00162372,0.0168469,1350,393,2.62441,15.77
133,631,2.62817,-15.7106,0.00078531,-0.000826918,0.000792559,0.00110967,-0.00115128,0.38846,0.00130543,0.0177456,1357,393,2.62812,15.7106
140,631,2.62256,-15.6539,0.000568813,-0.000671282,0.000537076,0.000769076,-0.000871546,0.356908,0.000947829,0.0186079,1364,393,2.62256,15.6539
147,631,2.62964,-15.5986,0.000298762,-0.000402261,0.000200237,0.000351926,-0.000455424,0.259514,0.000467398,0.0212566,1371,393,2.62968,15.5986
154,631,2.62732,-15.5341,0.000204519,-0.000152008,-1.72752e-05,0.000205354,-0.000152844,-0.0483034,0.000207545,0.0193764,1378,393,2.62736,15.5341
161,631,2.64355,-15.4063,0.000246519,4.24761e-05,-0.000209299,0.000377337,-8.83421e-05,-0.558622,0.000285597,0.0222149,1385,393,2.64358,15.4064
168,631,2.68079,-15.2762,0.000212486,0.000140244,-0.000350669,0.000528889,-0.00017616,-0.734076,0.000423701,0.0278864,1392,393,2.68078,15.2762
175,631,2.69568,-15.1935,0.000155082,0.000316055,-0.000429777,0.000672817,-0.00020168,-0.877963,0.000528752,0.0211351,1399,393,2.69572,15.1935
182,631,2.66833,-15.1394,0.000105675,0.000578829,-0.00036666,0.00077861,-9.4106e-05,-1.0719,0.000553117,0.0117085,1406,393,2.6684,15.1394
189,631,2.66187,-15.0342,-3.25086e-06,0.000578632,-0.000163561,0.000621456,-4.60746e-05,-1.31472,0.000430485,0.0114834,1413,393,2.6619,15.0343
196,631,2.65503,-14.9333,-0.000125209,0.000478311,0.000131693,0.000505795,-0.000152694,1.36505,0.000397982,0.0119336,1420,393,2.65501,14.9333
203,631,2.65149,-14.8264,-0.000347437,0.000220212,0.000393174,0.000421302,-0.000548528,1.09803,0.000561535,0.0140472,1427,393,2.65154,14.8264
210,631,2.67078,-14.7165,-0.000660461,0.000200324,0.00062207,0.000526376,-0.000986513,1.08802,0.000886831,0.014926,1434,393,2.6708,14.7165
217,631,2.66431,-14.5941,-0.00095188,0.000179634,0.00074715,0.000551061,-0.00132331,1.10945,0.00111236,0.0151547,1441,393,2.66434,14.5941
224,631,2.59888,-14.4615,-0.00111352,0.000137256,0.000899696,0.000607569,-0.00158384,1.08912,0.00130639,0.0129232,1448,393,2.59892,14.4615
231,631,2.57678,-14.3216,-0.000991977,0.000136911,0.00116539,0.000867353,-0.00172242,1.01092,0.00152213,0.0109396,1455,393,2.57683,14.3216
238,631,2.59216,-14.1812,-0.000915561,0.000417634,0.00152486,0.00141523,-0.00191316,0.991458,0.0019288,0.0170973,1462,393,2.59213,14.1812
245,631,2.59412,-14.0169,-0.00103146,0.000433228,0.00162962,0.00148749,-0.00208573,0.996575,0.00207262,0.0184979,1469,393,2.5941,14.0169
252,631,2.55042,-13.8514,-0.0009423,0.00077954,0.0018088,0.00192186,-0.00208462,1.00751,0.00231377,0.0173204,1476,393,2.55045,13.8514
259,631,2.56067,-13.7047,-0.000888214,0.00122686,0.00198237,0.00241614,-0.0020775,1.03043,0.00259686,0.0128878,1483,393,2.56062,13.7048
266,631,2.5824,-13.5466,-0.000993125,0.00175596,0.00172819,0.00258958,-0.00182675,1.12135,0.00256242,0.0113353,1490,393,2.58234,13.5466
273,631,2.5697,-13.3823,-0.00113064,0.0015889,0.00122051,0.00205632,-0.00159806,1.20506,0.00211538,0.0131256,1497,393,2.5697,13.3822
280,631,2.54626,-13.2346,-0.00111608,0.00157851,0.000795625,0.0017959,-0.00133346,1.30408,0.0018133,0.0121348,1504,393,2.54623,13.2346
287,631,2.5592,-13.0262,-0.00117392,0.000998556,0.000305976,0.00104083,-0.00121619,1.43351,0.0013044,0.0143608,1511,393,2.55918,13.0263
294,631,2.54016,-12.7948,-0.0014038,0.000637783,-0.000489686,0.000749161,-0.00151517,-1.34715,0.00133202,0.0187595,1518,393,2.54012,12.7948
301,631,2.49622,-12.5795,-0.00154103,-8.08622e-05,-0.00144463,0.00080769,-0.00242958,-1.01937,0.00194566,0.0271865,1525,393,2.49622,12.5795
308,631,2.53699,-12.4173,-0.00163012,-0.00129916,-0.00243997,0.000980932,-0.00391021,-0.819256,0.00298795,0.0320852,1532,393,2.53695,12.4173
315,631,2.44324,-12.3035,-0.00176381,-0.00341509,-0.00342654,0.000935152,-0.00611406,-0.667174,0.00442085,0.0346407,1539,393,2.44321,12.3035
322,631,2.30847,-12.2289,-0.00173559,-0.00549649,-0.00428539,0.00106377,-0.00829585,-0.578646,0.00591712,0.0417541,1546,393,2.30849,12.2288
329,631,3.63501,-13.5567,0,0,0,0,0,0,0,-1,1553,393,3.63506,13.5567
336,631,3.04602,-12.556,0,0,0,0,0,0,0,-1,1560,393,3.04605,12.556
343,631,2.45703,-11.5554,0,0,0,0,0,0,0,-1,1567,393,2.45703,11.5554
350,631,2.1344,-9.23401,0,0,0,0,0,0,0,-1,1574,393,2.13439,9.23401
357,631,2.6449,-9.60303,0,0,0,0,0,0,0,-1,1581,393,2.64491,9.60304
364,631,3.39136,-5.7594,0,0,0,0,0,0,0,-1,1588,393,3.39137,5.75939
371,631,3.72839,-6.0574,0,0,0,0,0,0,0,-1,1595,393,3.72845,6.05742
378,631,4.06555,-6.35544,0,0,0,0,0,0,0,-1,1602,393,4.06553,6.35544
385,631,3.90442,-3.58298,0,0,0,0,0,0,0,-1,1609,393,3.90437,3.58299
392,631,0.352295,-2.21301,0,0,0,0,0,0,0,-1,1616,393,0.352345,2.213
399,631,0,0,0,0,0,0,0,0,0,-1,1623,393,0,0
406,631,0,0,0,0,0,0,0,0,0,-1,1630,393,0,0
413,631,0,0,0,0,0,0,0,0,0,-1,1637,393,0,0
420,631,0,0,0,0,0,0,0,0,0,-1,1644,393,0,0
427,631,0,0,0,0,0,0,0,0,0,-1,1651,393,0,0
434,631,0,0,0,0,0,0,0,0,0,-1,1658,393,0,0
441,631,0,0,0,0,0,0,0,0,0,-1,1665,393,0,0
448,631,0,0,0,0,0,0,0,0,0,-1,1672,393,0,0
455,631,0,0,0,0,0,0,0,0,0,-1,1679,393,0,0
462,631,0,0,0,0,0,0,0,0,0,-1,1686,393,0,0
469,631,0,0,0,0,0,0,0,0,0,-1,1693,393,0,0
476,631,0,0,0,0,0,0,0,0,0,-1,1700,393,0,0
483,631,0,0,0,0,0,0,0,0,0,-1,1707,393,0,0
490,631,0,0,0,0,0,0,0,0,0,-1,1714,393,0,0
497,631,0,0,0,0,0,0,0,0,0,-1,1721,393,0,0
504,631,0,0,0,0,0,0,0,0,0,-1,1728,393,0,0
511,631,0,0,0,0,0,0,0,0,0,-1,1735,393,0,0
518,631,0,0,0,0,0,0,0,0,0,-1,1742,393,0,0
525,631,0,0,0,0,0,0,0,0,0,-1,1749,393,0,0
532,631,0,0,0,0,0,0,0,0,0,-1,1756,393,0,0
539,631,0,0,0,0,0,0,0,0,0,-1,1763,393,0,0
546,631,0,0,0,0,0,0,0,0,0,-1,1770,393,0,0
553,631,0,0,0,0,0,0,0,0,0,-1,1777,393,0,0
560,631,0,0,0,0,0,0,0,0,0,-1,1784,393,0,0
567,631,0,0,0,0,0,0,0,0,0,-1,1791,393,0,0
574,631,0,0,0,0,0,0,0,0,0,-1,1798,393,0,0
581,631,0,0,0,0,0,0,0,0,0,-1,1805,393,0,0
588,631,0,0,0,0,0,0,0,0,0,-1,1812,393,0,0
595,631,0,0,0,0,0,0,0,0,0,-1,1819,393,0,0
602,631,0,0,0,0,0,0,0,0,0,-1,1826,393,0,0
609,631,0,0,0,0,0,0,0,0,0,-1,1833,393,0,0
616,631,0,0,0,0,0,0,0,0,0,-1,1840,393,0,0
623,631,0,0,0,0,0,0,0,0,0,-1,1847,393,0,0
630,631,0,0,0,0,0,0,0,0,0,-1,1854,393,0,0
637,631,0,0,0,0,0,0,0,0,0,-1,1861,393,0,0
644,631,0,0,0,0,0,0,0,0,0,-1,1868,393,0,0
651,631,0,0,0,0,0,0,0,0,0,-1,1875,393,0,0
658,631,0,0,0,0,0,0,0,0,0,-1,1882,393,0,0
665,631,0,0,0,0,0,0,0,0,0,-1,1889,393,0,0
672,631,0,0,0,0,0,0,0,0,0,-1,1896,393,0,0
679,631,0,0,0,0,0,0,0,0,0,-1,1903,393,0,0
686,631,0,0,0,0,0,0,0,0,0,-1,1910,393,0,0
693,631,0,0,0,0,0,0,0,0,0,-1,1917,393,0,0
700,631,0,0,0,0,0,0,0,0,0,-1,1924,393,0,0
707,631,0,0,0,0,0,0,0,0,0,-1,1931,393,0,0
714,631,0,0,0,0,0,0,0,0,0,-1,1938,393,0,0
721,631,0,0,0,0,0,0,0,0,0,-1,1945,393,0,0
728,631,0,0,0,0,0,0,0,0,0,-1,1952,393,0,0
735,631,0,0,0,0,0,0,0,0,0,-1,1959,393,0,0
742,631,0,0,0,0,0,0,0,0,0,-1,1966,393,0,0
749,631,0,0,0,0,0,0,0,0,0,-1,1973,393,0,0
756,631,0,0,0,0,0,0,0,0,0,-1,1980,393,0,0
763,631,0,0,0,0,0,0,0,0,0,-1,1987,393,0,0
770,631,0,0,0,0,0,0,0,0,0,-1,1994,393,0,0
777,631,0,0,0,0,0,0,0,0,0,-1,2001,393,0,0
784,631,0,0,0,0,0,0,0,0,0,-1,2008,393,0,0
791,631,0,0,0,0,0,0,0,0,0,-1,2015,393,0,0
798,631,0,0,0,0,0,0,0,0,0,-1,2022,393,0,0
805,631,0,0,0,0,0,0,0,0,0,-1,2029,393,0,0
812,631,0,0,0,0,0,0,0,0,0,-1,2036,393,0,0
-700,624,0,0,0,0,0,0,0,0,0,-1,524,400,0,0
-693,624,0,0,0,0,0,0,0,0,0,-1,531,400,0,0
-686,624,0,0,0,0,0,0,0,0,0,-1,538,400,0,0
-679,624,0,0,0,0,0,0,0,0,0,-1,545,400,0,0
-672,624,0,0,0,0,0,0,0,0,0,-1,552,400,0,0
-665,624,0,0,0,0,0,0,0,0,0,-1,559,400,0,0
-658,624,0,0,0,0,0,0,0,0,0,-1,566,400,0,0
-651,624,0,0,0,0,0,0,0,0,0,-1,573,400,0,0
-644,624,0,0,0,0,0,0,0,0,0,-1,580,400,0,0
-637,624,0,0,0,0,0,0,0,0,0,-1,587,400,0,0
-630,624,0,0,0,0,0,0,0,0,0,-1,594,400,0,0
-623,624,0,0,0,0,0,0,0,0,0,-1,601,400,0,0
-616,624,0,0,0,0,0,0,0,0,0,-1,608,400,0,0
-609,624,0,0,0,0,0,0,0,0,0,-1,615,400,0,0
-602,624,0,0,0,0,0,0,0,0,0,-1,622,400,0,0
-595,624,0,0,0,0,0,0,0,0,0,-1,629,400,0,0
-588,624,0,0,0,0,0,0,0,0,0,-1,636,400,0,0
-581,624,0,0,0,0,0,0,0,0,0,-1,643,400,0,0
-574,624,0,0,0,0,0,0,0,0,0,-1,650,400,0,0
-567,624,0,0,0,0,0,0,0,0,0,-1,657,400,0,0
-560,624,0,0,0,0,0,0,0,0,0,-1,664,400,0,0
-553,624,0,0,0,0,0,0,0,0,0,-1,671,400,0,0
-546,624,0,0,0,0,0,0,0,0,0,-1,678,400,0,0
-539,624,0,0,0,0,0,0,0,0,0,-1,685,400,0,0
-532,624,0,0,0,0,0,0,0,0,0,-1,692,400,0,0
-525,624,0,0,0,0,0,0,0,0,0,-1,699,400,0,0
-518,624,0,0,0,0,0,0,0,0,0,-1,706,400,0,0
-511,624,0,0,0,0,0,0,0,0,0,-1,713,400,0,0
-504,624,0,0,0,0,0,0,0,0,0,-1,720,400,0,0
-497,624,0,0,0,0,0,0,0,0,0,-1,727,400,0,0
-490,624,0,0,0,0,0,0,0,0,0,-1,734,400,0,0
-483,624,0,0,0,0,0,0,0,0,0,-1,741,400,0,0
-476,624,0,0,0,0,0,0,0,0,0,-1,748,400,0,0
-469,624,0,0,0,0,0,0,0,0,0,-1,755,400,0,0
-462,624,0,0,0,0,0,0,0,0,0,-1,762,400,0,0
-455,624,0,0,0,0,0,0,0,0,0,-1,769,400,0,0
-448,624,0,0,0,0,0,0,0,0,0,-1,776,400,0,0
-441,624,0,0,0,0,0,0,0,0,0,-1,783,400,0,0
-434,624,0,0,0,0,0,0,0,0,0,-1,790,400,0,0
-427,624,0,0,0,0,0,0,0,0,0,-1,797,400,0,0
-420,624,0,0,0,0,0,0,0,0,0,-1,804,400,0,0
-413,624,0,0,0,0,0,0,0,0,0,-1,811,400,0,0
-406,624,0,0,0,0,0,0,0,0,0,-1,818,400,0,0
-399,624,0,0,0,0,0,0,0,0,0,-1,825,400,0,0
-392,624,0,0,0,0,0,0,0,0,0,-1,832,400,0,0
-385,624,0,0,0,0,0,0,0,0,0,-1,839,400,0,0
-378,624,0,0,0,0,0,0,0,0,0,-1,846,400,0,0
-371,624,0,0,0,0,0,0,0,0,0,-1,853,400,0,0
-364,624,0,0,0,0,0,0,0,0,0,-1,860,400,0,0
-357,624,0,0,0,0,0,0,0,0,0,-1,867,400,0,0
-350,624,0,0,0,0,0,0,0,0,0,-1,874,400,0,0
-343,624,0,0,0,0,0,0,0,0,0,-1,881,400,0,0
-336,624,0,0,0,0,0,0,0,0,0,-1,888,400,0,0
-329,624,0,0,0,0,0,0,0,0,0,-1,895,400,0,0
-322,624,0,0,0,0,0,0,0,0,0,-1,902,400,0,0
-315,624,0,0,0,0,0,0,0,0,0,-1,909,400,0,0
-308,624,0,0,0,0,0,0,0,0,0,-1,916,400,0,0
-301,624,0,0,0,0,0,0,0,0,0,-1,923,400,0,0
-294,624,-0.912903,-12.9461,0,0,0,0,0,0,0,-1,930,400,-0.912926,12.9461
-287,624,0.12146,-15.0862,0,0,0,0,0,0,0,-1,937,400,0.121451,15.0862
-280,624,1.44836,-13.0475,0,0,0,0,0,0,0,-1,944,400,1.44835,13.0475
-273,624,2.56573,-11.0646,0,0,0,0,0,0,0,-1,951,400,2.56571,11.0646
-266,624,2.44116,-9.66605,0,0,0,0,0,0,0,-1,958,400,2.44115,9.66605
-259,624,2.53748,-10.3835,0.0222421,-0.00825184,-0.0316166,0.0420961,-0.0281058,-0.560726,0.0407985,0.0419038,965,400,2.5375,10.3835
-252,624,2.85516,-11.4686,0.017275,-0.00545688,-0.028499,0.036591,-0.0247728,-0.595654,0.0356468,0.042243,972,400,2.85519,11.4686
-245,624,2.875,-12.2827,0.0119948,-0.00515663,-0.0240171,0.0289213,-0.0220832,-0.61392,0.0295355,0.0443591,979,400,2.87502,12.2827
-238,624,3.92938,-11.5721,0,0,0,0,0,0,0,-1,986,400,3.92938,11.5721
-231,624,3.32599,-11.2551,0,0,0,0,0,0,0,-1,993,400,3.32598,11.2551
-224,624,3.23438,-11.2378,0,0,0,0,0,0,0,-1,1000,400,3.23439,11.2378
-217,624,3.12079,-12.1516,0,0,0,0,0,0,0,-1,1007,400,3.12078,12.1517
-210,624,2.65204,-12.6542,-0.00199753,-0.00611581,-0.00440535,0.000806165,-0.0089195,-0.566776,0.00623246,0.0465981,1014,400,2.65204,12.6542
-203,624,2.68109,-12.8013,-0.00297193,-0.00666927,-0.00110666,-0.002666,-0.0069752,-0.269705,0.00406421,0.0389059,1021,400,2.6811,12.8013
-196,624,2.71997,-12.8701,-0.00322778,-0.00573023,0.000463192,-0.0031448,-0.00581321,0.177274,0.00336001,0.035025,1028,400,2.71993,12.8701
-189,624,2.65283,-13.052,-0.00329015,-0.00525601,0.000939393,-0.00291344,-0.00563272,0.381376,0.0032527,0.0336074,1035,400,2.65288,13.052
-182,624,2.63245,-13.2419,-0.0028175,-0.00486156,0.000844385,-0.00251381,-0.00516525,0.345252,0.00298251,0.0287941,1042,400,2.63244,13.2419
-175,624,2.61157,-13.4893,-0.00228956,-0.00418311,0.00106652,-0.0018102,-0.00466247,0.422403,0.00271419,0.0177544,1049,400,2.61158,13.4893
-168,624,2.59155,-13.6928,-0.0019124,-0.00317074,0.00154734,-0.000871209,-0.00421193,0.592301,0.00256731,0.0120981,1056,400,2.59156,13.6928
-161,624,2.55151,-13.8606,-0.00167631,-0.00199928,0.00195775,0.000126602,-0.00380219,0.744248,0.00257803,0.0104001,1063,400,2.55155,13.8606
-154,624,2.53296,-13.9999,-0.00160878,-0.000793686,0.00231705,0.00115138,-0.00355385,0.872453,0.00283214,0.00934917,1070,400,2.53295,13.9999
-147,624,2.52234,-14.1497,-0.00163158,0.000300645,0.00249201,0.00200727,-0.0033382,0.97032,0.00311793,0.0107898,1077,400,2.52231,14.1497
-140,624,2.50977,-14.2976,-0.00156879,0.00144464,0.00247971,0.00283951,-0.00296365,1.0584,0.00335071,0.0101624,1084,400,2.50982,14.2976
-133,624,2.50427,-14.4344,-0.00148734,0.00242594,0.00242084,0.00358201,-0.0026434,1.12527,0.00360783,0.0113778,1091,400,2.50424,14.4344
-126,624,2.50537,-14.532,-0.00139685,0.00252105,0.0023641,0.00363235,-0.00250815,1.13137,0.00356497,0.0126707,1098,400,2.50539,14.532
-119,624,2.48792,-14.6484,-0.00135044,0.0028717,0.0021906,0.00380289,-0.00228163,1.16885,0.00354931,0.0139333,1105,400,2.48797,14.6484
-112,624,2.48193,-14.7575,-0.00121614,0.00298547,0.0018173,0.00366243,-0.00189309,1.21421,0.00326126,0.015877,1112,400,2.48199,14.7575
-105,624,2.49072,-14.8863,-0.000972786,0.00299677,0.00136289,0.00341965,-0.00139567,1.26993,0.00286082,0.0122418,1119,400,2.49074,14.8863
-98,624,2.48291,-15.0232,-0.00067964,0.00288611,0.000881296,0.00309204,-0.000885565,1.34125,0.00241137,0.0130852,1126,400,2.48292,15.0232
-91,624,2.474,-15.129,-0.00031124,0.00272976,0.000421753,0.00278717,-0.000368648,1.43551,0.0019924,0.0191845,1133,400,2.47403,15.129
-84,624,2.47827,-15.2301,2.62499e-05,0.00237026,0.000170329,0.00238257,1.39375e-05,1.49864,0.00158375,0.0178404,1140,400,2.47823,15.2301
-77,624,2.48682,-15.3381,0.00025194,0.00199059,6.52393e-05,0.00199303,0.000249495,1.53334,0.00125383,0.0129624,1147,400,2.48684,15.3381
-70,624,2.47705,-15.4016,0.000442459,0.00163488,-8.71922e-05,0.00164122,0.000436117,-1.49819,0.000981619,0.0137406,1154,400,2.47709,15.4016
-63,624,2.4679,-15.4777,0.000394959,0.00134099,-0.000185875,0.0013762,0.000359749,-1.38359,0.000824155,0.0150888,1161,400,2.4679,15.4777
-56,624,2.47607,-15.5807,0.000483585,0.00113724,-0.000200315,0.00119374,0.000427082,-1.29587,0.000698439,0.0124256,1168,400,2.47607,15.5808
-49,624,2.48828,-15.6476,0.00053177,0.000792902,-0.000199747,0.00090097,0.000423702,-1.07487,0.000520482,0.010214,1175,400,2.4883,15.6476
-42,624,2.48816,-15.7026,0.000381948,0.000370068,-6.11648e-05,0.000437461,0.000314556,-0.736992,0.000260522,0.00973052,1182,400,2.48817,15.7026
-35,624,2.48718,-15.7642,0.000359159,-3.88268e-05,0.000163268,0.000417566,-9.72338e-05,0.34355,0.000315818,0.0143895,1189,400,2.4872,15.7642
-28,624,2.47253,-15.8439,0.000375664,-0.000460989,0.000323352,0.000486066,-0.000571391,0.329019,0.000611185,0.0190252,1196,400,2.4725,15.8439
-21,624,2.46497,-15.9074,0.000403633,-0.000762857,0.000469536,0.000569147,-0.00092837,0.338903,0.000872844,0.0145672,1203,400,2.46492,15.9074
-14,624,2.47693,-15.9279,0.000537316,-0.00128866,0.000605448,0.000719825,-0.00147117,0.292782,0.00128952,0.0156852,1210,400,2.47687,15.9278
-7,624,2.44592,-15.9695,0.000792748,-0.00158174,0.000552669,0.000915081,-0.00170407,0.217837,0.00153487,0.018531,1217,400,2.44592,15.9695
0,624,2.48718,-16.0075,0.000915833,-0.00178163,0.000460944,0.000992425,-0.00185822,0.164658,0.00167093,0.0171271,1224,400,2.48714,16.0075
7,624,2.49878,-16.0147,0.000938791,-0.00217069,0.000407499,0.000991307,-0.00222321,0.128167,0.00190079,0.0127635,1231,400,2.49878,16.0147
14,624,2.53027,-16.0742,0.000953203,-0.00266456,0.000384279,0.000993571,-0.00270493,0.104664,0.00221021,0.0113946,1238,400,2.53032,16.0742
21,624,2.54272,-16.092,0.00107249,-0.00308926,0.000104813,0.00107513,-0.0030919,0.0251635,0.00249799,0.0120583,1245,400,2.54277,16.092
28,624,2.53979,-16.0988,0.00120792,-0.00353037,-0.000326192,0.00123027,-0.00355272,-0.0684114,0.00286792,0.0111396,1252,400,2.53981,16.0988
35,624,2.5365,-16.1115,0.00124395,-0.00386548,-0.000651451,0.0013257,-0.00394723,-0.124839,0.00316726,0.0154487,1259,400,2.53651,16.1115
42,624,2.57739,-16.1315,0.00169613,-0.00438705,-0.000806575,0.00180126,-0.00449218,-0.129608,0.00374259,0.0174004,1266,400,2.57735,16.1315
49,624,2.59802,-16.1152,0.00208292,-0.00496064,-0.00108682,0.00224681,-0.00512452,-0.149664,0.0043626,0.0176241,1273,400,2.59797,16.1152
56,624,2.61182,-16.1233,0.00238486,-0.00575568,-0.00143003,0.00262876,-0.00599959,-0.168932,0.00510672,0.0170721,1280,400,2.61179,16.1233
63,624,2.62915,-16.1158,0.00265819,-0.0063403,-0.00166253,0.00295552,-0.00663764,-0.176976,0.00567298,0.0138045,1287,400,2.62919,16.1158
70,624,2.62073,-16.0992,0.00278702,-0.00683469,-0.00167712,0.00307098,-0.00711864,-0.167719,0.00603572,0.012108,1294,400,2.62071,16.0992
77,624,2.62207,-16.0783,0.00276606,-0.00720599,-0.0015449,0.00299992,-0.00743985,-0.150233,0.00620644,0.0121933,1301,400,2.62205,16.0783
84,624,2.6355,-16.0522,0.00283609,-0.00752115,-0.00139979,0.00302194,-0.007707,-0.131997,0.00638818,0.0116819,1308,400,2.63549,16.0522
91,624,2.64026,-16.022,0.00270431,-0.00765233,-0.00126035,0.00285548,-0.0078035,-0.119374,0.00637116,0.012527,1315,400,2.64028,16.022
98,624,2.65112,-15.9946,0.00235386,-0.00769397,-0.00102241,0.00245684,-0.00779695,-0.100384,0.00618185,0.0120357,1322,400,2.65107,15.9946
105,624,2.65454,-15.9529,0.0020087,-0.00767814,-0.000777094,0.00207064,-0.00774008,-0.0795438,0.00597117,0.0125451,1329,400,2.65452,15.9528
112,624,2.65747,-15.8861,0.0016463,-0.0073565,-0.000600141,0.00168613,-0.00739633,-0.0662708,0.00557852,0.0129545,1336,400,2.65753,15.8862
119,624,2.66943,-15.8329,0.00121868,-0.00678276,-0.000479789,0.00124735,-0.00681143,-0.0596778,0.00500878,0.0141524,1343,400,2.66943,15.8329
126,624,2.68909,-15.7821,0.00072385,-0.00613706,-0.00026383,0.00073398,-0.00614719,-0.0383785,0.00436341,0.0169615,1350,400,2.68907,15.7821
133,624,2.72192,-15.6995,0.000353956,-0.0054099,-0.000115409,0.000356266,-0.00541221,-0.0200122,0.00373257,0.0171035,1357,400,2.72192,15.6995
140,624,2.71973,-15.6293,0.000192908,-0.00475617,-0.00020798,0.000201633,-0.00476489,-0.0419255,0.0032459,0.0172935,1364,400,2.7197,15.6293
147,624,2.69653,-15.5731,-0.0001014,-0.00397909,-0.000462721,-4.69484e-05,-0.00403354,-0.117138,0.00267352,0.0220442,1371,400,2.69651,15.5731
154,624,2.69604,-15.5244,-0.000150105,-0.00320027,-0.000569265,-4.73239e-05,-0.00330305,-0.178626,0.00218643,0.0237513,1378,400,2.69604,15.5244
161,624,2.72681,-15.4409,0.000119176,-0.0023208,-0.000595172,0.000256612,-0.00245824,-0.22694,0.00173072,0.0224547,1385,400,2.72677,15.4409
168,624,2.76672,-15.3477,0.000372787,-0.00182006,-0.000624922,0.000538375,-0.00198565,-0.259021,0.00153502,0.0229028,1392,400,2.76677,15.3476
175,624,2.77393,-15.2639,0.000600764,-0.00138757,-0.000716052,0.000831791,-0.00161859,-0.312095,0.00143884,0.0167666,1399,400,2.77397,15.2639
182,624,2.77148,-15.1602,0.000763046,-0.00100263,-0.000783245,0.00106041,-0.0013,-0.362846,0.00136512,0.0098448,1406,400,2.77143,15.1602
189,624,2.77661,-15.033,0.000597018,-0.000647176,-0.000671389,0.000890217,-0.000940375,-0.411744,0.00105703,0.0101191,1413,400,2.77665,15.033
196,624,2.76233,-14.9362,0.000447174,-0.000296943,-0.00040773,0.000627086,-0.000476855,-0.415556,0.000639325,0.0111241,1420,400,2.76232,14.9363
203,624,2.76099,-14.8404,0.000299201,-6.84355e-05,-0.000172534,0.000367488,-0.000136723,-0.376872,0.000301098,0.0137826,1427,400,2.76093,14.8404
210,624,2.80164,-14.7284,6.01781e-05,0.000236022,2.03777e-05,0.000238353,5.78475e-05,1.45692,0.000143559,0.0167618,1434,400,2.80163,14.7284
217,624,2.77747,-14.5831,-0.000204123,0.000455133,0.000201271,0.000511724,-0.000260713,1.29671,0.000453748,0.0192592,1441,400,2.77746,14.5831
224,624,2.74939,-14.4365,-0.000388134,0.000547001,0.000395685,0.000691957,-0.00053309,1.21964,0.000709261,0.0156154,1448,400,2.74935,14.4365
231,624,2.74377,-14.3254,-0.000363242,0.000657844,0.000669521,0.00098927,-0.000694669,1.11114,0.000977169,0.011623,1455,400,2.74372,14.3254
238,624,2.73694,-14.1837,-0.000338381,0.000951645,0.00101388,0.0015083,-0.000895032,1.0687,0.00140254,0.0173118,1462,400,2.73691,14.1837
245,624,2.74268,-14.045,-0.000441426,0.00103871,0.00116266,0.00167685,-0.00107957,1.06882,0.00160383,0.0178395,1469,400,2.74263,14.0451
252,624,2.72327,-13.8792,-0.000409621,0.00134341,0.00134892,0.00207558,-0.00114179,1.07351,0.00188345,0.0127311,1476,400,2.7233,13.8792
259,624,2.71863,-13.7284,-0.000424878,0.00167881,0.00152539,0.00247985,-0.00122592,1.08724,0.00217997,0.00878204,1483,400,2.71862,13.7284
266,624,2.74292,-13.5506,-0.000564107,0.00203966,0.00137943,0.00263454,-0.00115899,1.16364,0.00224475,0.012018,1490,400,2.74295,13.5506
273,624,2.72217,-13.3913,-0.000720746,0.00187289,0.00103769,0.00223696,-0.00108481,1.23337,0.0019559,0.0153252,1497,400,2.72214,13.3913
280,624,2.68713,-13.2542,-0.000758453,0.00180995,0.000779443,0.00202798,-0.000976485,1.29804,0.00176969,0.01414,1504,400,2.68717,13.2543
287,624,2.68164,-13.0711,-0.000817233,0.00129171,0.000495835,0.00140247,-0.000927993,1.35102,0.00135476,0.0104271,1511,400,2.68166,13.0711
294,624,2.66553,-12.8695,-0.00101137,0.000929134,-1.36126e-05,0.000929229,-0.00101147,-1.56378,0.0011208,0.00893519,1518,400,2.66556,12.8695
301,624,2.64526,-12.6925,-0.00113302,0.000289247,-0.000626819,0.000526066,-0.00136984,-1.20956,0.00113016,0.0104516,1525,400,2.64525,12.6925
308,624,2.66565,-12.4892,-0.00119186,-0.000662807,-0.00123375,0.000334455,-0.00218912,-0.891003,0.00158272,0.0141448,1532,400,2.66566,12.4892
315,624,2.66382,-12.2831,-0.00127284,-0.00212053,-0.00179698,0.000149608,-0.00354298,-0.669582,0.0024134,0.0162965,1539,400,2.66379,12.2831
322,624,2.60242,-12.1419,-0.00124753,-0.00345052,-0.00224257,0.000149452,-0.0048475,-0.557117,0.00328262,0.0246571,1546,400,2.60239,12.1419
329,624,2.73975,-11.9987,-0.00117377,-0.00450635,-0.00259386,0.000242897,-0.00592302,-0.499892,0.00403209,0.0402441,1553,400,2.73979,11.9987
336,624,2.8894,-12.0027,-0.00129931,-0.00531489,-0.00301079,0.00031175,-0.00692595,-0.491329,0.00472465,0.0413609,1560,400,2.88937,12.0026
343,624,2.95825,-11.6158,0,0,0,0,0,0,0,-1,1567,400,2.95819,11.6157
350,624,1.99194,-7.29742,0,0,0,0,0,0,0,-1,1574,400,1.99198,7.29741
357,624,2.64075,-3.13092,0,0,0,0,0,0,0,-1,1581,400,2.64076,3.13091
364,624,3.16565,-4.9458,0,0,0,0,0,0,0,-1,1588,400,3.16564,4.94579
371,624,3.37561,-5.23529,0,0,0,0,0,0,0,-1,1595,400,3.37563,5.23529
378,624,1.50439,-5.22165,0,0,0,0,0,0,0,-1,1602,400,1.50438,5.22164
385,624,1.2301,-10.5866,0,0,0,0,0,0,0,-1,1609,400,1.2301,10.5866
392,624,4.26819,-5.14236,0,0,0,0,0,0,0,-1,1616,400,4.26818,5.14236
399,624,3.86841,-2.36917,0,0,0,0,0,0,0,-1,1623,400,3.86838,2.36916
406,624,4.35376,-2.6962,0,0,0,0,0,0,0,-1,1630,400,4.35373,2.69619
413,624,0,0,0,0,0,0,0,0,0,-1,1637,400,0,0
420,624,0,0,0,0,0,0,0,0,0,-1,1644,400,0,0
427,624,0,0,0,0,0,0,0,0,0,-1,1651,400,0,0
434,624,0,0,0,0,0,0,0,0,0,-1,1658,400,0,0
441,624,0,0,0,0,0,0,0,0,0,-1,1665,400,0,0
448,624,0,0,0,0,0,0,0,0,0,-1,1672,400,0,0
455,624,0,0,0,0,0,0,0,0,0,-1,1679,400,0,0
462,624,0,0,0,0,0,0,0,0,0,-1,1686,400,0,0
469,624,0,0,0,0,0,0,0,0,0,-1,1693,400,0,0
476,624,0,0,0,0,0,0,0,0,0,-1,1700,400,0,0
483,624,0,0,0,0,0,0,0,0,0,-1,1707,400,0,0
490,624,0,0,0,0,0,0,0,0,0,-1,1714,400,0,0
497,624,0,0,0,0,0,0,0,0,0,-1,1721,400,0,0
504,624,0,0,0,0,0,0,0,0,0,-1,1728,400,0,0
511,624,0,0,0,0,0,0,0,0,0,-1,1735,400,0,0
518,624,0,0,0,0,0,0,0,0,0,-1,1742,400,0,0
525,624,0,0,0,0,0,0,0,0,0,-1,1749,400,0,0
532,624,0,0,0,0,0,0,0,0,0,-1,1756,400,0,0
539,624,0,0,0,0,0,0,0,0,0,-1,1763,400,0,0
546,624,0,0,0,0,0,0,0,0,0,-1,1770,400,0,0
553,624,0,0,0,0,0,0,0,0,0,-1,1777,400,0,0
560,624,0,0,0,0,0,0,0,0,0,-1,1784,400,0,0
567,624,0,0,0,0,0,0,0,0,0,-1,1791,400,0,0
574,624,0,0,0,0,0,0,0,0,0,-1,1798,400,0,0
581,624,0,0,0,0,0,0,0,0,0,-1,1805,400,0,0
588,624,0,0,0,0,0,0,0,0,0,-1,1812,400,0,0
595,624,0,0,0,0,0,0,0,0,0,-1,1819,400,0,0
602,624,0,0,0,0,0,0,0,0,0,-1,1826,400,0,0
609,624,0,0,0,0,0,0,0,0,0,-1,1833,400,0,0
616,624,0,0,0,0,0,0,0,0,0,-1,1840,400,0,0
623,624,0,0,0,0,0,0,0,0,0,-1,1847,400,0,0
630,624,0,0,0,0,0,0,0,0,0,-1,1854,400,0,0
637,624,0,0,0,0,0,0,0,0,0,-1,1861,400,0,0
644,624,0,0,0,0,0,0,0,0,0,-1,1868,400,0,0
651,624,0,0,0,0,0,0,0,0,0,-1,1875,400,0,0
658,624,0,0,0,0,0,0,0,0,0,-1,1882,400,0,0
665,624,0,0,0,0,0,0,0,0,0,-1,1889,400,0,0
672,624,0,0,0,0,0,0,0,0,0,-1,1896,400,0,0
679,624,0,0,0,0,0,0,0,0,0,-1,1903,400,0,0
686,624,0,0,0,0,0,0,0,0,0,-1,1910,400,0,0
693,624,0,0,0,0,0,0,0,0,0,-1,1917,400,0,0
700,624,0,0,0,0,0,0,0,0,0,-1,1924,400,0,0
707,624,0,0,0,0,0,0,0,0,0,-1,1931,400,0,0
714,624,0,0,0,0,0,0,0,0,0,-1,1938,400,0,0
721,624,0,0,0,0,0,0,0,0,0,-1,1945,400,0,0
728,624,0,0,0,0,0,0,0,0,0,-1,1952,400,0,0
735,624,0,0,0,0,0,0,0,0,0,-1,1959,400,0,0
742,624,0,0,0,0,0,0,0,0,0,-1,1966,400,0,0
749,624,0,0,0,0,0,0,0,0,0,-1,1973,400,0,0
756,624,0,0,0,0,0,0,0,0,0,-1,1980,400,0,0
763,624,0,0,0,0,0,0,0,0,0,-1,1987,400,0,0
770,624,0,0,0,0,0,0,0,0,0,-1,1994,400,0,0
777,624,0,0,0,0,0,0,0,0,0,-1,2001,400,0,0
784,624,0,0,0,0,0,0,0,0,0,-1,2008,400,0,0
791,624,0,0,0,0,0,0,0,0,0,-1,2015,400,0,0
798,624,0,0,0,0,0,0,0,0,0,-1,2022,400,0,0
805,624,0,0,0,0,0,0,0,0,0,-1,2029,400,0,0
812,624,0,0,0,0,0,0,0,0,0,-1,2036,400,0,0
-700,617,0,0,0,0,0,0,0,0,0,-1,524,407,0,0
-693,617,0,0,0,0,0,0,0,0,0,-1,531,407,0,0
-686,617,0,0,0,0,0,0,0,0,0,-1,538,407,0,0
-679,617,0,0,0,0,0,0,0,0,0,-1,545,407,0,0
-672,617,0,0,0,0,0,0,0,0,0,-1,552,407,0,0
-665,617,0,0,0,0,0,0,0,0,0,-1,559,407,0,0
-658,617,0,0,0,0,0,0,0,0,0,-1,566,407,0,0
-651,617,0,0,0,0,0,0,0,0,0,-1,573,407,0,0
-644,617,0,0,0,0,0,0,0,0,0,-1,580,407,0,0
-637,617,0,0,0,0,0,0,0,0,0,-1,587,407,0,0
-630,617,0,0,0,0,0,0,0,0,0,-1,594,407,0,0
-623,617,0,0,0,0,0,0,0,0,0,-1,601,407,0,0
-616,617,0,0,0,0,0,0,0,0,0,-1,608,407,0,0
-609,617,0,0,0,0,0,0,0,0,0,-1,615,407,0,0
-602,617,0,0,0,0,0,0,0,0,0,-1,622,407,0,0
-595,617,0,0,0,0,0,0,0,0,0,-1,629,407,0,0
-588,617,0,0,0,0,0,0,0,0,0,-1,636,407,0,0
-581,617,0,0,0,0,0,0,0,0,0,-1,643,407,0,0
-574,617,0,0,0,0,0,0,0,0,0,-1,650,407,0,0
-567,617,0,0,0,0,0,0,0,0,0,-1,657,407,0,0
-560,617,0,0,0,0,0,0,0,0,0,-1,664,407,0,0
-553,617,0,0,0,0,0,0,0,0,0,-1,671,407,0,0
-546,617,0,0,0,0,0,0,0,0,0,-1,678,407,0,0
-539,617,0,0,0,0,0,0,0,0,0,-1,685,407,0,0
-532,617,0,0,0,0,0,0,0,0,0,-1,692,407,0,0
-525,617,0,0,0,0,0,0,0,0,0,-1,699,407,0,0
-518,617,0,0,0,0,0,0,0,0,0,-1,706,407,0,0
-511,617,0,0,0,0,0,0,0,0,0,-1,713,407,0,0
-504,617,0,0,0,0,0,0,0,0,0,-1,720,407,0,0
-497,617,0,0,0,0,0,0,0,0,0,-1,727,407,0,0
-490,617,0,0,0,0,0,0,0,0,0,-1,734,407,0,0
-483,617,0,0,0,0,0,0,0,0,0,-1,741,407,0,0
-476,617,0,0,0,0,0,0,0,0,0,-1,748,407,0,0
-469,617,0,0,0,0,0,0,0,0,0,-1,755,407,0,0
-462,617,0,0,0,0,0,0,0,0,0,-1,762,407,0,0
-455,617,0,0,0,0,0,0,0,0,0,-1,769,407,0,0
-448,617,0,0,0,0,0,0,0,0,0,-1,776,407,0,0
-441,617,0,0,0,0,0,0,0,0,0,-1,783,407,0,0
-434,617,0,0,0,0,0,0,0,0,0,-1,790,407,0,0
-427,617,0,0,0,0,0,0,0,0,0,-1,797,407,0,0
-420,617,0,0,0,0,0,0,0,0,0,-1,804,407,0,0
-413,617,0,0,0,0,0,0,0,0,0,-1,811,407,0,0
-406,617,0,0,0,0,0,0,0,0,0,-1,818,407,0,0
-399,617,0,0,0,0,0,0,0,0,0,-1,825,407,0,0
-392,617,0,0,0,0,0,0,0,0,0,-1,832,407,0,0
-385,617,0,0,0,0,0,0,0,0,0,-1,839,407,0,0
-378,617,0,0,0,0,0,0,0,0,0,-1,846,407,0,0
-371,617,0,0,0,0,0,0,0,0,0,-1,853,407,0,0
-364,617,0,0,0,0,0,0,0,0,0,-1,860,407,0,0
-357,617,0,0,0,0,0,0,0,0,0,-1,867,407,0,0
-350,617,0,0,0,0,0,0,0,0,0,-1,874,407,0,0
-343,617,0,0,0,0,0,0,0,0,0,-1,881,407,0,0
-336,617,0,0,0,0,0,0,0,0,0,-1,888,407,0,0
-329,617,0,0,0,0,0,0,0,0,0,-1,895,407,0,0
-322,617,0,0,0,0,0,0,0,0,0,-1,902,407,0,0
-315,617,0,0,0,0,0,0,0,0,0,-1,909,407,0,0
-308,617,0,0,0,0,0,0,0,0,0,-1,916,407,0,0
-301,617,-1.61346,-11.4687,0,0,0,0,0,0,0,-1,923,407,-1.61344,11.4687
-294,617,-0.867493,-11.1655,0,0,0,0,0,0,0,-1,930,407,-0.867487,11.1655
-287,617,-0.212524,-10.7744,0,0,0,0,0,0,0,-1,937,407,-0.212541,10.7743
-280,617,2.19739,-11.6377,0,0,0,0,0,0,0,-1,944,407,2.19737,11.6377
-273,617,2.36188,-10.5736,0,0,0,0,0,0,0,-1,951,407,2.36188,10.5736
-266,617,2.45978,-8.86865,0,0,0,0,0,0,0,-1,958,407,2.45977,8.86865
-259,617,2.50787,-9.81519,0.0161957,-0.00308294,-0.0206133,0.0293122,-0.0161994,-0.566691,0.0266372,0.0450328,965,407,2.50789,9.81519
-252,617,2.54358,-11.0427,0.0121813,-0.00140686,-0.0190071,0.0255721,-0.0147977,-0.613751,0.0235826,0.0434533,972,407,2.54361,11.0427
-245,617,2.45428,-11.9915,0.00815074,-0.000815698,-0.0167479,0.0210051,-0.01367,-0.65462,0.0201684,0.0404043,979,407,2.45426,11.9915
-238,617,2.97351,-11.6876,0,0,0,0,0,0,0,-1,986,407,2.97349,11.6876
-231,617,2.92639,-11.6052,0.0015835,-0.00147075,-0.0101026,0.0102737,-0.0101609,-0.710385,0.011798,0.0455412,993,407,2.92641,11.6052
-224,617,2.78906,-11.6896,-0.00012679,-0.00131738,-0.00734707,0.00664906,-0.00809323,-0.744974,0.00852507,0.0467236,1000,407,2.78907,11.6896
-217,617,2.72217,-12.3135,-0.0012428,-0.0012057,-0.00508401,0.00385979,-0.00630829,-0.787223,0.00592701,0.0378454,1007,407,2.72215,12.3136
-210,617,2.63885,-12.6379,-0.00190885,-0.00111656,-0.00338885,0.00189922,-0.00492463,-0.843583,0.00406677,0.0251256,1014,407,2.63886,12.6379
-203,617,2.49164,-12.8631,-0.00257041,-0.00183252,-0.000972817,-0.00116104,-0.0032419,-0.966646,0.00189666,0.019589,1021,407,2.49162,12.8631
-196,617,2.47156,-12.9855,-0.00269825,-0.00146616,0.000188931,-0.00143784,-0.00272657,1.42201,0.00157497,0.0151377,1028,407,2.47154,12.9855
-189,617,2.4436,-13.1614,-0.00273393,-0.00149839,0.000531854,-0.00130099,-0.00293133,1.21539,0.00169596,0.0118725,1035,407,2.44365,13.1614
-182,617,2.42798,-13.3437,-0.00228569,-0.00171116,0.000505257,-0.00141721,-0.00257964,1.04389,0.00149177,0.0129722,1042,407,2.42795,13.3437
-175,617,2.44446,-13.5079,-0.00176429,-0.00183153,0.000524983,-0.00127185,-0.00232397,0.753425,0.00134374,0.0123523,1049,407,2.44441,13.5079
-168,617,2.43152,-13.6966,-0.00137623,-0.0016728,0.000721678,-0.000787759,-0.00226127,0.684072,0.0013254,0.00983913,1056,407,2.43154,13.6966
-161,617,2.40417,-13.869,-0.00110341,-0.00119914,0.000899361,-0.000250644,-0.00205191,0.758812,0.00129252,0.0111777,1063,407,2.4042,13.869
-154,617,2.37805,-14.0097,-0.000943861,-0.000579959,0.00107518,0.000328561,-0.00185238,0.869218,0.00135776,0.0111784,1070,407,2.37807,14.0097
-147,617,2.37292,-14.1546,-0.000815348,-1.48906e-05,0.00108227,0.000738782,-0.00156902,0.962503,0.00136085,0.0151136,1077,407,2.37291,14.1546
-140,617,2.37805,-14.3047,-0.00067575,0.000628605,0.000972431,0.00114731,-0.00119445,1.08078,0.00135211,0.0119132,1084,407,2.37804,14.3047
-133,617,2.38403,-14.4391,-0.000538778,0.00120128,0.000836679,0.00153831,-0.000875804,1.18787,0.00141117,0.0140912,1091,407,2.38406,14.4391
-126,617,2.36304,-14.5353,-0.000413508,0.0012178,0.000736534,0.00150113,-0.000696843,1.20356,0.00129701,0.0136454,1098,407,2.36302,14.5353
-119,617,2.35498,-14.6672,-0.000324511,0.00150505,0.000565765,0.00166586,-0.00048533,1.29385,0.00130284,0.0133649,1105,407,2.35493,14.6672
-112,617,2.35876,-14.7737,-0.000189917,0.0016349,0.000299029,0.00168265,-0.000237669,1.41244,0.0012088,0.0142594,1112,407,2.35877,14.7737
-105,617,2.37317,-14.8788,2.37177e-05,0.00172081,2.59037e-06,0.00172082,2.37137e-05,1.56927,0.00113939,0.0150587,1119,407,2.37323,14.8788
-98,617,2.37219,-15.0289,0.000277028,0.00173418,-0.000281254,0.00178659,0.000224626,-1.38659,0.00112369,0.0129929,1126,407,2.3722,15.0289
-91,617,2.37683,-15.1338,0.000576966,0.00173213,-0.000531036,0.00193915,0.000369947,-1.19908,0.0011888,0.0182222,1133,407,2.37682,15.1338
-84,617,2.38965,-15.2477,0.000821069,0.00158535,-0.000605827,0.00191949,0.000486929,-1.06677,0.00115218,0.0180919,1140,407,2.38961,15.2477
-77,617,2.39514,-15.3454,0.000956571,0.00138586,-0.000586215,0.00179549,0.000546941,-0.960896,0.00106268,0.0139971,1147,407,2.39512,15.3454
-70,617,2.39905,-15.4096,0.00119755,0.00124839,-0.000561361,0.00178491,0.000661035,-0.808025,0.001042,0.0151267,1154,407,2.39904,15.4096
-63,617,2.39282,-15.4832,0.000984342,0.00117806,-0.000500993,0.00159147,0.000570932,-0.880889,0.00093098,0.0170433,1161,407,2.39284,15.4832
-56,617,2.41064,-15.5674,0.00106077,0.000967558,-0.00038304,0.00140003,0.000628301,-0.724857,0.000809721,0.0129032,1168,407,2.4107,15.5674
-49,617,2.42688,-15.6385,0.00101936,0.000602714,-0.000364667,0.00123101,0.00039106,-0.525887,0.000726305,0.0107686,1175,407,2.42684,15.6385
-42,617,2.43176,-15.7191,0.000583895,0.000214301,-0.00012942,0.000624707,0.000173489,-0.305475,0.000372366,0.0117519,1182,407,2.43171,15.7191
-35,617,2.42908,-15.7831,0.000472164,-0.000213103,0.00019126,0.000521931,-0.00026287,0.254561,0.000461261,0.016145,1189,407,2.42912,15.7831
-28,617,2.41785,-15.8381,0.000440551,-0.000784861,0.00038406,0.000550971,-0.00089528,0.279956,0.000842844,0.0185669,1196,407,2.4178,15.8381
-21,617,2.44678,-15.8817,0.000452028,-0.00119693,0.000579528,0.000635328,-0.00138023,0.306336,0.00118988,0.0145851,1203,407,2.44674,15.8817
-14,617,2.44727,-15.8994,0.00063284,-0.0019517,0.000771252,0.000845493,-0.00216435,0.269039,0.00179248,0.016406,1210,407,2.44731,15.8994
-7,617,2.41699,-15.9255,0.000996729,-0.00237201,0.00068854,0.00113203,-0.00250731,0.194027,0.0021506,0.0177865,1217,407,2.41698,15.9255
0,617,2.45032,-15.9857,0.00113513,-0.0027683,0.000465975,0.00118998,-0.00282316,0.117182,0.00238008,0.0147511,1224,407,2.45028,15.9857
7,617,2.48779,-16.0369,0.00110134,-0.00360623,0.000296261,0.00111992,-0.0036248,0.0626036,0.00286379,0.0106668,1231,407,2.48782,16.0369
14,617,2.49609,-16.072,0.00108513,-0.00462186,0.000135487,0.00108835,-0.00462508,0.0237228,0.00350298,0.0130968,1238,407,2.49609,16.072
21,617,2.505,-16.0864,0.00128252,-0.00558024,-0.000406229,0.00130648,-0.0056042,-0.058919,0.00423928,0.0123244,1245,407,2.50501,16.0864
28,617,2.5166,-16.0993,0.00151628,-0.0062901,-0.00115905,0.00168473,-0.00645856,-0.144328,0.00496352,0.0102342,1252,407,2.51665,16.0993
35,617,2.51379,-16.1129,0.00159799,-0.00697052,-0.00170643,0.00192532,-0.00729785,-0.189522,0.00561807,0.0135452,1259,407,2.51375,16.1129
42,617,2.58289,-16.1023,0.00230368,-0.00787804,-0.00201316,0.00268728,-0.00826163,-0.188287,0.00658879,0.0199424,1266,407,2.58284,16.1023
49,617,2.61548,-16.1108,0.00291809,-0.00886215,-0.00248906,0.00342242,-0.00936647,-0.199911,0.00764489,0.0189747,1273,407,2.61546,16.1108
56,617,2.60327,-16.1227,0.00342838,-0.0102552,-0.00304615,0.00407586,-0.0109026,-0.20944,0.00894222,0.0135413,1280,407,2.60326,16.1227
63,617,2.62927,-16.1071,0.0038963,-0.0115102,-0.00350084,0.00465449,-0.0122684,-0.213279,0.0100947,0.00963838,1287,407,2.62929,16.1071
70,617,2.62659,-16.089,0.00416967,-0.0124824,-0.00365659,0.00493723,-0.01325,-0.206908,0.0108598,0.0139297,1294,407,2.62661,16.089
77,617,2.65979,-16.0633,0.00422856,-0.0132695,-0.00356869,0.0049284,-0.0139694,-0.193647,0.0113192,0.0120964,1301,407,2.65982,16.0633
84,617,2.66638,-16.0363,0.00440021,-0.0140318,-0.00346197,0.005029,-0.0146605,-0.17967,0.0118124,0.0102752,1308,407,2.66641,16.0362
91,617,2.69006,-16.0258,0.004299,-0.0145074,-0.00330993,0.00486454,-0.0150729,-0.169228,0.0120033,0.010017,1315,407,2.69009,16.0258
98,617,2.69446,-15.9992,0.00386625,-0.0147998,-0.00299411,0.00433476,-0.0152683,-0.155218,0.0118902,0.0106757,1322,407,2.69445,15.9992
105,617,2.70715,-15.9506,0.00339337,-0.014912,-0.00260415,0.00375663,-0.0152753,-0.138599,0.0116396,0.0115718,1329,407,2.70717,15.9506
112,617,2.72656,-15.8789,0.0028705,-0.0144898,-0.00226762,0.00316181,-0.0147811,-0.127765,0.0110597,0.0144587,1336,407,2.72653,15.8789
119,617,2.74084,-15.815,0.0022093,-0.0136223,-0.0019452,0.00244481,-0.0138578,-0.120481,0.0101521,0.0181439,1343,407,2.74079,15.815
126,617,2.74353,-15.7712,0.00139834,-0.0125062,-0.00146073,0.00155014,-0.012658,-0.103548,0.00899998,0.0195652,1350,407,2.74356,15.7712
133,617,2.76282,-15.7063,0.000737688,-0.011341,-0.00102964,0.000824829,-0.0114281,-0.0844322,0.00790805,0.0168861,1357,407,2.7628,15.7063
140,617,2.7959,-15.6527,0.000386222,-0.00998376,-0.000987814,0.00047948,-0.010077,-0.0941291,0.00688341,0.0149367,1364,407,2.79584,15.6527
147,617,2.79773,-15.5793,-0.00018541,-0.00844838,-0.00118613,-1.85147e-05,-0.00861527,-0.139788,0.00573735,0.018711,1371,407,2.79779,15.5793
154,617,2.80408,-15.5161,-0.000461754,-0.00680594,-0.00115818,-0.000256931,-0.00701077,-0.175038,0.0045906,0.0217641,1378,407,2.80408,15.516
161,617,2.81372,-15.4269,-0.000177223,-0.00485996,-0.00103953,4.31705e-05,-0.00508035,-0.20892,0.00340138,0.0224925,1385,407,2.81369,15.4269
168,617,2.83398,-15.371,0.00024998,-0.00353475,-0.000967906,0.000483147,-0.00376792,-0.236394,0.00268751,0.021034,1392,407,2.83402,15.371
175,617,2.84998,-15.2942,0.00087212,-0.00292641,-0.00120229,0.00122068,-0.00327497,-0.282177,0.00268437,0.016747,1399,407,2.84998,15.2942
182,617,2.87097,-15.166,0.00139469,-0.00248047,-0.00144543,0.00187444,-0.00296022,-0.320467,0.00281466,0.00988844,1406,407,2.87099,15.166
189,617,2.86011,-15.0389,0.00120371,-0.00184518,-0.00137106,0.00172957,-0.00237104,-0.366237,0.00237712,0.0100649,1413,407,2.86012,15.039
196,617,2.84998,-14.9503,0.00106918,-0.00109177,-0.00106628,0.00150672,-0.00152931,-0.389393,0.00175287,0.0141819,1420,407,2.84993,14.9503
203,617,2.85486,-14.8422,0.00102143,-0.000429403,-0.000805062,0.00137969,-0.000787662,-0.418695,0.00126679,0.0142861,1427,407,2.85482,14.8422
210,617,2.87561,-14.731,0.000835507,0.000193336,-0.000599054,0.0011941,-0.000165256,-0.539387,0.000856483,0.0134876,1434,407,2.87566,14.731
217,617,2.87903,-14.5616,0.000577772,0.000671048,-0.000356537,0.000983985,0.000264835,-0.850433,0.000587942,0.0171942,1441,407,2.87902,14.5616
224,617,2.87988,-14.4319,0.000359533,0.000900657,-0.000113849,0.000923635,0.000336555,-1.37165,0.00053976,0.0166866,1448,407,2.87983,14.432
231,617,2.89258,-14.326,0.000281714,0.00112659,0.000175296,0.00116152,0.000246788,1.37413,0.0007066,0.0132639,1455,407,2.89252,14.3259
238,617,2.89429,-14.203,0.000250469,0.00142138,0.000503536,0.00160814,6.37163e-05,1.21564,0.0010515,0.0151846,1462,407,2.89427,14.203
245,617,2.90662,-14.0791,0.00015424,0.00157205,0.0006914,0.00185339,-0.000127097,1.18435,0.00128006,0.0131276,1469,407,2.90667,14.0791
252,617,2.90393,-13.8959,0.000129416,0.00182742,0.000886459,0.00220586,-0.000249024,1.16731,0.00156022,0.0137188,1476,407,2.90399,13.8959
259,617,2.87,-13.7287,5.17324e-05,0.00205035,0.00106645,0.00251253,-0.000410444,1.16185,0.00182726,0.0109031,1483,407,2.86995,13.7287
266,617,2.8678,-13.563,-0.000112422,0.00225433,0.00101677,0.00263114,-0.000489237,1.21589,0.00193787,0.0130208,1490,407,2.86784,13.563
273,617,2.86792,-13.4025,-0.00028189,0.00208196,0.000818372,0.00233763,-0.000537559,1.26799,0.00176511,0.0147199,1497,407,2.8679,13.4025
280,617,2.83826,-13.2593,-0.00037099,0.00197115,0.00068987,0.00215925,-0.000559083,1.30462,0.00165759,0.0132483,1504,407,2.83826,13.2593
287,617,2.83044,-13.0689,-0.000435315,0.00151494,0.000564919,0.00166676,-0.000587134,1.30826,0.00135013,0.011584,1511,407,2.83039,13.0689
294,617,2.82971,-12.8791,-0.000596307,0.00115398,0.000266895,0.00119377,-0.0006361,1.42279,0.00107271,0.0100026,1518,407,2.82968,12.8791
301,617,2.828,-12.6966,-0.000708776,0.000581457,-0.000106749,0.00059023,-0.000717548,-1.4888,0.000756238,0.00792732,1525,407,2.82795,12.6966
308,617,2.82349,-12.5143,-0.000753835,-0.000155654,-0.000453558,8.85512e-05,-0.00099804,-1.07689,0.000696755,0.00816495,1532,407,2.82353,12.5143
315,617,2.81567,-12.3247,-0.000814074,-0.0011507,-0.000750783,-0.000212969,-0.00175181,-0.67513,0.00110375,0.00975108,1539,407,2.81563,12.3247
322,617,2.80139,-12.1129,-0.000816355,-0.00198505,-0.000953718,-0.000282202,-0.0025192,-0.510544,0.00159375,0.0127919,1546,407,2.80141,12.1129
329,617,2.78918,-11.9435,-0.000779283,-0.00255551,-0.00107404,-0.000273732,-0.00306106,-0.439935,0.00195586,0.0120845,1553,407,2.78913,11.9435
336,617,2.81372,-11.7397,-0.000895195,-0.00293559,-0.00124541,-0.000305468,-0.00352532,-0.442239,0.0022553,0.0239648,1560,407,2.81371,11.7397
343,617,2.7019,-11.3843,0,0,0,0,0,0,0,-1,1567,407,2.70191,11.3843
350,617,2.88098,-10.0063,0,0,0,0,0,0,0,-1,1574,407,2.88098,10.0063
357,617,2.1748,-7.16504,0,0,0,0,0,0,0,-1,1581,407,2.1748,7.16505
364,617,2.30127,-7.60257,0,0,0,0,0,0,0,-1,1588,407,2.30125,7.60258
371,617,2.60266,-6.20667,0,0,0,0,0,0,0,-1,1595,407,2.60261,6.20668
378,617,1.56921,-10.3601,0,0,0,0,0,0,0,-1,1602,407,1.56918,10.3601
385,617,1.74146,-10.3561,0,0,0,0,0,0,0,-1,1609,407,1.7414,10.3561
392,617,1.91357,-10.3521,0,0,0,0,0,0,0,-1,1616,407,1.91362,10.3521
399,617,3.25,-2.14835,0,0,0,0,0,0,0,-1,1623,407,3.25006,2.14836
406,617,3.02429,-3.19577,0,0,0,0,0,0,0,-1,1630,407,3.02431,3.19577
413,617,2.92786,-3.80649,0,0,0,0,0,0,0,-1,1637,407,2.92788,3.8065
420,617,3.42737,-4.47391,0,0,0,0,0,0,0,-1,1644,407,3.42737,4.47391
427,617,0,0,0,0,0,0,0,0,0,-1,1651,407,0,0
434,617,0,0,0,0,0,0,0,0,0,-1,1658,407,0,0
441,617,0,0,0,0,0,0,0,0,0,-1,1665,407,0,0
448,617,0,0,0,0,0,0,0,0,0,-1,1672,407,0,0
455,617,0,0,0,0,0,0,0,0,0,-1,1679,407,0,0
462,617,0,0,0,0,0,0,0,0,0,-1,1686,407,0,0
469,617,0,0,0,0,0,0,0,0,0,-1,1693,407,0,0
476,617,0,0,0,0,0,0,0,0,0,-1,1700,407,0,0
483,617,0,0,0,0,0,0,0,0,0,-1,1707,407,0,0
490,617,0,0,0,0,0,0,0,0,0,-1,1714,407,0,0
497,617,0,0,0,0,0,0,0,0,0,-1,1721,407,0,0
504,617,0,0,0,0,0,0,0,0,0,-1,1728,407,0,0
511,617,0,0,0,0,0,0,0,0,0,-1,1735,407,0,0
518,617,0,0,0,0,0,0,0,0,0,-1,1742,407,0,0
525,617,0,0,0,0,0,0,0,0,0,-1,1749,407,0,0
532,617,0,0,0,0,0,0,0,0,0,-1,1756,407,0,0
539,617,0,0,0,0,0,0,0,0,0,-1,1763,407,0,0
546,617,0,0,0,0,0,0,0,0,0,-1,1770,407,0,0
553,617,0,0,0,0,0,0,0,0,0,-1,1777,407,0,0
560,617,0,0,0,0,0,0,0,0,0,-1,1784,407,0,0
567,617,0,0,0,0,0,0,0,0,0,-1,1791,407,0,0
574,617,0,0,0,0,0,0,0,0,0,-1,1798,407,0,0
581,617,0,0,0,0,0,0,0,0,0,-1,1805,407,0,0
588,617,0,0,0,0,0,0,0,0,0,-1,1812,407,0,0
595,617,0,0,0,0,0,0,0,0,0,-1,1819,407,0,0
602,617,0,0,0,0,0,0,0,0,0,-1,1826,407,0,0
609,617,0,0,0,0,0,0,0,0,0,-1,1833,407,0,0
616,617,0,0,0,0,0,0,0,0,0,-1,1840,407,0,0
623,617,0,0,0,0,0,0,0,0,0,-1,1847,407,0,0
630,617,0,0,0,0,0,0,0,0,0,-1,1854,407,0,0
637,617,0,0,0,0,0,0,0,0,0,-1,1861,407,0,0
644,617,0,0,0,0,0,0,0,0,0,-1,1868,407,0,0
651,617,0,0,0,0,0,0,0,0,0,-1,1875,407,0,0
658,617,0,0,0,0,0,0,0,0,0,-1,1882,407,0,0
665,617,0,0,0,0,0,0,0,0,0,-1,1889,407,0,0
672,617,0,0,0,0,0,0,0,0,0,-1,1896,407,0,0
679,617,0,0,0,0,0,0,0,0,0,-1,1903,407,0,0
686,617,0,0,0,0,0,0,0,0,0,-1,1910,407,0,0
693,617,0,0,0,0,0,0,0,0,0,-1,1917,407,0,0
700,617,0,0,0,0,0,0,0,0,0,-1,1924,407,0,0
707,617,0,0,0,0,0,0,0,0,0,-1,1931,407,0,0
714,617,0,0,0,0,0,0,0,0,0,-1,1938,407,0,0
721,617,0,0,0,0,0,0,0,0,0,-1,1945,407,0,0
728,617,0,0,0,0,0,0,0,0,0,-1,1952,407,0,0
735,617,0,0,0,0,0,0,0,0,0,-1,1959,407,0,0
742,617,0,0,0,0,0,0,0,0,0,-1,1966,407,0,0
749,617,0,0,0,0,0,0,0,0,0,-1,1973,407,0,0
756,617,0,0,0,0,0,0,0,0,0,-1,1980,407,0,0
763,617,0,0,0,0,0,0,0,0,0,-1,1987,407,0,0
770,617,0,0,0,0,0,0,0,0,0,-1,1994,407,0,0
777,617,0,0,0,0,0,0,0,0,0,-1,2001,407,0,0
784,617,0,0,0,0,0,0,0,0,0,-1,2008,407,0,0
791,617,0,0,0,0,0,0,0,0,0,-1,2015,407,0,0
798,617,0,0,0,0,0,0,0,0,0,-1,2022,407,0,0
805,617,0,0,0,0,0,0,0,0,0,-1,2029,407,0,0
812,617,0,0,0,0,0,0,0,0,0,-1,2036,407,0,0
-700,610,0,0,0,0,0,0,0,0,0,-1,524,414,0,0
-693,610,0,0,0,0,0,0,0,0,0,-1,531,414,0,0
-686,610,0,0,0,0,0,0,0,0,0,-1,538,414,0,0
-679,610,0,0,0,0,0,0,0,0,0,-1,545,414,0,0
-672,610,0,0,0,0,0,0,0,0,0,-1,552,414,0,0
-665,610,0,0,0,0,0,0,0,0,0,-1,559,414,0,0
-658,610,0,0,0,0,0,0,0,0,0,-1,566,414,0,0
-651,610,0,0,0,0,0,0,0,0,0,-1,573,414,0,0
-644,610,0,0,0,0,0,0,0,0,0,-1,580,414,0,0
-637,610,0,0,0,0,0,0,0,0,0,-1,587,414,0,0
-630,610,0,0,0,0,0,0,0,0,0,-1,594,414,0,0
-623,610,0,0,0,0,0,0,0,0,0,-1,601,414,0,0
-616,610,0,0,0,0,0,0,0,0,0,-1,608,414,0,0
-609,610,0,0,0,0,0,0,0,0,0,-1,615,414,0,0
-602,610,0,0,0,0,0,0,0,0,0,-1,622,414,0,0
-595,610,0,0,0,0,0,0,0,0,0,-1,629,414,0,0
-588,610,0,0,0,0,0,0,0,0,0,-1,636,414,0,0
-581,610,0,0,0,0,0,0,0,0,0,-1,643,414,0,0
-574,610,0,0,0,0,0,0,0,0,0,-1,650,414,0,0
-567,610,0,0,0,0,0,0,0,0,0,-1,657,414,0,0
-560,610,0,0,0,0,0,0,0,0,0,-1,664,414,0,0
-553,610,0,0,0,0,0,0,0,0,0,-1,671,414,0,0
-546,610,0,0,0,0,0,0,0,0,0,-1,678,414,0,0
-539,610,0,0,0,0,0,0,0,0,0,-1,685,414,0,0
-532,610,0,0,0,0,0,0,0,0,0,-1,692,414,0,0
-525,610,0,0,0,0,0,0,0,0,0,-1,699,414,0,0
-518,610,0,0,0,0,0,0,0,0,0,-1,706,414,0,0
-511,610,0,0,0,0,0,0,0,0,0,-1,713,414,0,0
-504,610,0,0,0,0,0,0,0,0,0,-1,720,414,0,0
-497,610,0,0,0,0,0,0,0,0,0,-1,727,414,0,0
-490,610,0,0,0,0,0,0,0,0,0,-1,734,414,0,0
-483,610,0,0,0,0,0,0,0,0,0,-1,741,414,0,0
-476,610,0,0,0,0,0,0,0,0,0,-1,748,414,0,0
-469,610,0,0,0,0,0,0,0,0,0,-1,755,414,0,0
-462,610,0,0,0,0,0,0,0,0,0,-1,762,414,0,0
-455,610,0,0,0,0,0,0,0,0,0,-1,769,414,0,0
-448,610,0,0,0,0,0,0,0,0,0,-1,776,414,0,0
-441,610,0,0,0,0,0,0,0,0,0,-1,783,414,0,0
-434,610,0,0,0,0,0,0,0,0,0,-1,790,414,0,0
-427,610,0,0,0,0,0,0,0,0,0,-1,797,414,0,0
-420,610,0,0,0,0,0,0,0,0,0,-1,804,414,0,0
-413,610,0,0,0,0,0,0,0,0,0,-1,811,414,0,0
-406,610,0,0,0,0,0,0,0,0,0,-1,818,414,0,0
-399,610,0,0,0,0,0,0,0,0,0,-1,825,414,0,0
-392,610,0,0,0,0,0,0,0,0,0,-1,832,414,0,0
-385,610,0,0,0,0,0,0,0,0,0,-1,839,414,0,0
-378,610,0,0,0,0,0,0,0,0,0,-1,846,414,0,0
-371,610,0,0,0,0,0,0,0,0,0,-1,853,414,0,0
-364,610,0,0,0,0,0,0,0,0,0,-1,860,414,0,0
-357,610,0,0,0,0,0,0,0,0,0,-1,867,414,0,0
-350,610,0,0,0,0,0,0,0,0,0,-1,874,414,0,0
-343,610,0,0,0,0,0,0,0,0,0,-1,881,414,0,0
-336,610,0,0,0,0,0,0,0,0,0,-1,888,414,0,0
-329,610,0,0,0,0,0,0,0,0,0,-1,895,414,0,0
-322,610,0,0,0,0,0,0,0,0,0,-1,902,414,0,0
-315,610,4.81293,-11.4127,0,0,0,0,0,0,0,-1,909,414,4.8129,11.4127
-308,610,4.28925,-11.2898,0,0,0,0,0,0,0,-1,916,414,4.28927,11.2898
-301,610,3.93689,-11.1922,0,0,0,0,0,0,0,-1,923,414,3.93687,11.1922
-294,610,-1.43835,-9.29047,0,0,0,0,0,0,0,-1,930,414,-1.43836,9.29047
-287,610,2.08557,-11.9136,0,0,0,0,0,0,0,-1,937,414,2.08555,11.9136
-280,610,2.25854,-11.0924,0,0,0,0,0,0,0,-1,944,414,2.25856,11.0924
-273,610,2.44586,-10.2559,0,0,0,0,0,0,0,-1,951,414,2.44589,10.2559
-266,610,2.61005,-11.8292,0,0,0,0,0,0,0,-1,958,414,2.61005,11.8292
-259,610,3.32556,-12.2338,0,0,0,0,0,0,0,-1,965,414,3.32559,12.2338
-252,610,2.27783,-11.5605,0,0,0,0,0,0,0,-1,972,414,2.27781,11.5606
-245,610,2.39136,-11.792,0,0,0,0,0,0,0,-1,979,414,2.39136,11.792
-238,610,2.4682,-11.6366,0,0,0,0,0,0,0,-1,986,414,2.4682,11.6366
-231,610,2.41608,-11.8934,0.000600351,0.00111364,-0.00717219,0.00803377,-0.00631978,-0.803282,0.0083067,0.0347881,993,414,2.41608,11.8934
-224,610,2.33832,-12.229,-0.000545819,0.00130383,-0.00523907,0.00569908,-0.00494107,-0.87276,0.00614829,0.0262467,1000,414,2.33834,12.229
-217,610,2.35016,-12.4829,-0.00126368,0.00137811,-0.00368341,0.0039703,-0.00385588,-0.957559,0.00451861,0.0152236,1007,414,2.35016,12.4829
-210,610,2.34442,-12.6801,-0.00169268,0.00137536,-0.00252661,0.00279717,-0.00311449,-1.05823,0.00341474,0.0104014,1014,414,2.34441,12.6801
-203,610,2.32849,-12.8525,-0.00210611,0.000676872,-0.000810493,0.000895705,-0.00232495,-1.30708,0.00191951,0.0127481,1021,414,2.32851,12.8525
-196,610,2.3136,-13.0297,-0.00211036,0.000747148,9.71116e-06,0.000747181,-0.00211039,1.5674,0.00171125,0.0134171,1028,414,2.31365,13.0297
-189,610,2.29871,-13.2026,-0.00204672,0.000491003,0.000225429,0.000510873,-0.00206659,1.48288,0.00157587,0.0102616,1035,414,2.29865,13.2026
-182,610,2.28406,-13.373,-0.00148369,2.50343e-05,0.000254353,6.67612e-05,-0.00152542,1.40819,0.00103991,0.0110248,1042,414,2.2841,13.3729
-175,610,2.26831,-13.5224,-0.000896792,-0.000433016,0.000236885,-0.000333412,-0.000996395,1.17277,0.000585665,0.0118105,1049,414,2.26832,13.5224
-168,610,2.26172,-13.6865,-0.000486691,-0.000681171,0.000293761,-0.000274494,-0.000893368,0.625566,0.000528406,0.01038,1056,414,2.26171,13.6865
-161,610,2.24976,-13.882,-0.000218677,-0.00054461,0.000334661,-9.4118e-06,-0.000753875,0.558818,0.000499476,0.0108205,1063,414,2.24972,13.882
-154,610,2.23438,-14.0283,-3.92303e-05,-0.00023934,0.000417408,0.000289948,-0.000568518,0.667765,0.000504258,0.0135945,1070,414,2.23433,14.0283
-147,610,2.23669,-14.1447,0.00016313,1.11151e-05,0.000339115,0.000434651,-0.000260406,0.675153,0.000405473,0.0133697,1077,414,2.23664,14.1448
-140,610,2.24561,-14.2887,0.000295897,0.000323504,0.000181065,0.000491291,0.00012811,0.823441,0.000294271,0.0112365,1084,414,2.24561,14.2887
-133,610,2.25232,-14.4233,0.000394451,0.00062505,4.3619e-06,0.000625132,0.000394369,1.55189,0.000365017,0.0136746,1091,414,2.25235,14.4234
-126,610,2.25439,-14.5492,0.00045313,0.000610536,-0.000139672,0.000692153,0.000371514,-1.04197,0.000399974,0.0120925,1098,414,2.25441,14.5492
-119,610,2.23853,-14.6717,0.000496556,0.000852045,-0.000332758,0.00105156,0.000297045,-1.0307,0.000625973,0.0100057,1105,414,2.23851,14.6717
-112,610,2.23889,-14.7792,0.000574458,0.000986115,-0.000542987,0.00136098,0.000199597,-0.966564,0.000848646,0.016576,1112,414,2.23883,14.7792
-105,610,2.2428,-14.9057,0.000715862,0.0011098,-0.000736725,0.00167543,0.000150232,-0.916023,0.0010704,0.0163627,1119,414,2.24275,14.9057
-98,610,2.25903,-15.0184,0.000898249,0.00117405,-0.000849694,0.00189696,0.000175339,-0.865845,0.00121044,0.0116887,1126,414,2.25898,15.0184
-91,610,2.27417,-15.1114,0.00117323,0.00126413,-0.000935426,0.00215521,0.000282153,-0.809673,0.0013526,0.0130666,1133,414,2.27414,15.1114
-84,610,2.29639,-15.2279,0.0013683,0.00124575,-0.000871985,0.00218116,0.000432892,-0.75032,0.00133344,0.0145131,1140,414,2.29637,15.2279
-77,610,2.28223,-15.3418,0.00149791,0.00112069,-0.000676706,0.0020118,0.000606799,-0.649487,0.0011916,0.0113209,1147,414,2.28227,15.3418
-70,610,2.30066,-15.4169,0.00184156,0.00107001,-0.000564078,0.00213917,0.000772409,-0.485478,0.00125084,0.0132772,1154,414,2.30062,15.4169
-63,610,2.30554,-15.4933,0.00130574,0.00119386,-0.000572825,0.00182535,0.000674253,-0.736724,0.00106579,0.0132015,1161,414,2.30552,15.4933
-56,610,2.32019,-15.5553,0.00138588,0.00107742,-0.000476855,0.00173283,0.000730475,-0.628992,0.00100454,0.0115745,1168,414,2.32021,15.5553
-49,610,2.33691,-15.6255,0.0013187,0.000724284,-0.000626189,0.00171463,0.00032835,-0.563826,0.00105088,0.0120677,1175,414,2.33686,15.6255
-42,610,2.34192,-15.7171,0.000497865,0.000351812,-0.000375669,0.00080754,4.21376e-05,-0.6894,0.000524878,0.0148784,1182,414,2.34188,15.7171
-35,610,2.35156,-15.7875,0.000219827,-7.86786e-05,7.09654e-05,0.000235839,-9.46907e-05,0.221916,0.000196546,0.0143576,1189,414,2.35152,15.7875
-28,610,2.36707,-15.8328,9.00527e-05,-0.000819536,0.000326943,0.000195374,-0.000924858,0.311643,0.000690966,0.0122654,1196,414,2.36703,15.8328
-21,610,2.40332,-15.875,6.77238e-05,-0.00136332,0.000609257,0.000291971,-0.00158757,0.352678,0.00116793,0.0111179,1203,414,2.40335,15.875
-14,610,2.41443,-15.9133,0.000310516,-0.00241253,0.000901718,0.000582039,-0.00268406,0.292482,0.00201165,0.0125142,1210,414,2.41448,15.9133
-7,610,2.41602,-15.9422,0.000837244,-0.0030123,0.000810455,0.00100091,-0.00317597,0.199267,0.00251815,0.0139916,1217,414,2.41603,15.9422
0,610,2.43445,-15.9951,0.00103318,-0.00368034,0.000442644,0.00107439,-0.00372155,0.0928279,0.00290613,0.010839,1224,414,2.43443,15.9951
7,610,2.46423,-16.0248,0.000963242,-0.00517138,0.000165762,0.000967718,-0.00517586,0.0269945,0.00381428,0.0109806,1231,414,2.46425,16.0248
14,610,2.50256,-16.041,0.0009582,-0.00685852,-0.000129992,0.000960361,-0.00686068,-0.0166238,0.00492522,0.0130302,1238,414,2.50255,16.041
21,610,2.52454,-16.07,0.00131925,-0.00838675,-0.000967648,0.00141478,-0.00848228,-0.0984054,0.00618066,0.0116961,1245,414,2.52449,16.07
28,610,2.53638,-16.1001,0.0017481,-0.00936963,-0.00194521,0.00207862,-0.00970014,-0.168306,0.00725952,0.0112512,1252,414,2.53635,16.1001
35,610,2.58374,-16.0965,0.00191503,-0.0104688,-0.00257368,0.0024286,-0.0109824,-0.196962,0.00825116,0.0153242,1259,414,2.58374,16.0965
42,610,2.57898,-16.0711,0.00296945,-0.0118995,-0.00286245,0.00350147,-0.0124315,-0.183765,0.00966854,0.0150591,1266,414,2.579,16.0711
49,610,2.58032,-16.1105,0.00386648,-0.0133798,-0.0033692,0.00450131,-0.0140146,-0.186239,0.0111506,0.0147541,1273,414,2.58038,16.1105
56,610,2.6189,-16.1202,0.00465718,-0.0154886,-0.00395295,0.00540506,-0.0162364,-0.186984,0.0130059,0.0131715,1280,414,2.61888,16.1202
63,610,2.63843,-16.0903,0.00530367,-0.0174646,-0.00437408,0.00611507,-0.018276,-0.183417,0.014654,0.0155928,1287,414,2.63843,16.0903
70,610,2.71326,-16.0548,0.00568219,-0.0189805,-0.00441587,0.00644901,-0.0197474,-0.171937,0.0157607,0.0216923,1294,414,2.7132,16.0548
77,610,2.7218,-16.064,0.00582187,-0.0202753,-0.00415547,0.00646757,-0.020921,-0.154153,0.0165305,0.0278785,1301,414,2.72175,16.064
84,610,2.70483,-16.0697,0.00606897,-0.0215845,-0.00389982,0.00660842,-0.0221239,-0.137454,0.0173761,0.0295184,1308,414,2.70489,16.0697
91,610,2.75403,-16.003,0.00594815,-0.0225238,-0.00360119,0.00639657,-0.0229722,-0.123883,0.0178336,0.02523,1315,414,2.754,16.003
98,610,2.75195,-16.0135,0.00538392,-0.0231837,-0.00313958,0.00572489,-0.0235247,-0.10818,0.0178992,0.0237283,1322,414,2.75196,16.0135
105,610,2.77686,-15.9488,0.00472845,-0.0235672,-0.00261197,0.00496754,-0.0238063,-0.0912818,0.0177598,0.0182941,1329,414,2.77691,15.9488
112,610,2.79028,-15.8867,0.00397894,-0.0231939,-0.00218407,0.00415337,-0.0233684,-0.0796951,0.017132,0.0125621,1336,414,2.79025,15.8867
119,610,2.78784,-15.8359,0.00303863,-0.0222228,-0.00178262,0.0031638,-0.022348,-0.070104,0.0160575,0.0177769,1343,414,2.78785,15.8359
126,610,2.79968,-15.7632,0.00190499,-0.020826,-0.0012289,0.00197124,-0.0208922,-0.0538535,0.0146296,0.0240842,1350,414,2.79974,15.7633
133,610,2.81323,-15.6991,0.000952123,-0.0193261,-0.000818079,0.000985073,-0.019359,-0.0402556,0.0132466,0.0192466,1357,414,2.81319,15.6991
140,610,2.84558,-15.6697,0.00040947,-0.017245,-0.000905022,0.000455742,-0.0172913,-0.0510844,0.0116824,0.0150488,1364,414,2.84561,15.6697
147,610,2.86035,-15.5948,-0.000444461,-0.0148551,-0.001255,-0.000335982,-0.0149636,-0.086223,0.00986564,0.0158119,1371,414,2.86034,15.5948
154,610,2.85962,-15.4914,-0.00103977,-0.0121456,-0.00128106,-0.000893916,-0.0122915,-0.113366,0.0079132,0.0206325,1378,414,2.85959,15.4914
161,610,2.88989,-15.3995,-0.000854224,-0.00861558,-0.0011419,-0.000689709,-0.00878009,-0.143088,0.00563757,0.0251304,1385,414,2.88991,15.3995
168,610,2.91626,-15.3388,-0.000138126,-0.00588529,-0.00110054,6.54117e-05,-0.00608883,-0.182877,0.0040812,0.0249727,1392,414,2.91621,15.3388
175,610,2.94385,-15.2456,0.00110894,-0.00481857,-0.00161985,0.00152272,-0.00523235,-0.250097,0.00409138,0.0202354,1399,414,2.9439,15.2456
182,610,2.97278,-15.1466,0.0020832,-0.00409595,-0.0021827,0.00277643,-0.00478919,-0.307528,0.00441924,0.0144672,1406,414,2.97281,15.1467
189,610,2.979,-15.0384,0.00186428,-0.00316804,-0.00215446,0.00266064,-0.0039644,-0.354055,0.00384958,0.0132709,1413,414,2.979,15.0384
196,610,2.97644,-14.9447,0.0017603,-0.0019718,-0.00178633,0.00247749,-0.00268899,-0.381788,0.0029837,0.0129461,1420,414,2.97641,14.9447
203,610,2.98242,-14.8319,0.001828,-0.000865937,-0.00148271,0.00248422,-0.00152215,-0.416666,0.0023352,0.0130699,1427,414,2.98237,14.8319
210,610,2.99048,-14.7151,0.00167654,0.000103063,-0.00125113,0.00236774,-0.000588132,-0.504727,0.00180673,0.00946491,1434,414,2.99043,14.7151
217,610,2.98511,-14.5778,0.00140737,0.000869707,-0.000941128,0.00211731,0.000159769,-0.646278,0.00136141,0.0140793,1441,414,2.98509,14.5778
224,610,3.00403,-14.4465,0.00114365,0.00124911,-0.000643499,0.00184204,0.000550724,-0.826278,0.00109178,0.0174478,1448,414,3.00404,14.4465
231,610,3.0105,-14.3239,0.000959788,0.00160315,-0.000329369,0.00174186,0.000821075,-1.17219,0.00100621,0.0140298,1455,414,3.01054,14.3238
238,610,3.01685,-14.1905,0.000867442,0.00190389,-1.06758e-05,0.001904,0.000867332,-1.5605,0.00110072,0.0106458,1462,414,3.0169,14.1905
245,610,3.04089,-14.0628,0.000769191,0.00211864,0.000216283,0.00215245,0.000735374,1.4157,0.00126332,0.0121589,1469,414,3.04085,14.0628
252,610,3.0415,-13.8957,0.00069633,0.00231494,0.000434958,0.00242442,0.000586851,1.32422,0.0014605,0.013682,1476,414,3.04155,13.8956
259,610,3.01465,-13.7328,0.000566759,0.0024174,0.000625431,0.00260894,0.000375217,1.27361,0.00162869,0.0124357,1483,414,3.01461,13.7328
266,610,3.01013,-13.5629,0.000385172,0.00246916,0.000663464,0.00266245,0.000191878,1.2873,0.00171459,0.013041,1490,414,3.01008,13.5629
273,610,3.02527,-13.4021,0.000206672,0.00226333,0.000586233,0.0024187,5.13076e-05,1.31173,0.00159564,0.0103418,1497,414,3.02531,13.4021
280,610,3.00342,-13.2333,6.32807e-05,0.00209217,0.000556635,0.00223485,-7.94008e-05,1.31987,0.00151706,0.00928146,1504,414,3.00341,13.2333
287,610,2.98486,-13.0534,-1.6265e-05,0.00168202,0.000550509,0.00184486,-0.000179102,1.2832,0.00129375,0.0112127,1511,414,2.98488,13.0534
294,610,3.01038,-12.878,-0.000158548,0.0013085,0.000399929,0.00141044,-0.000260488,1.32122,0.00103808,0.0102981,1518,414,3.0104,12.878
301,610,3.01672,-12.7189,-0.000282824,0.000775818,0.000180076,0.000805611,-0.000312617,1.40684,0.000666195,0.00962722,1525,414,3.0167,12.7189
308,610,3.0105,-12.5404,-0.000343744,0.000197785,-9.80218e-06,0.000197963,-0.000343922,-1.5527,0.000316618,0.0114287,1532,414,3.01054,12.5404
315,610,2.99841,-12.3637,-0.000421138,-0.000480291,-0.000156323,-0.000291618,-0.000609811,-0.691903,0.000352186,0.0127394,1539,414,2.99842,12.3637
322,610,2.97681,-12.1539,-0.000480153,-0.000986399,-0.000229318,-0.000391724,-0.00107483,-0.368048,0.000628108,0.0120634,1546,414,2.97684,12.1539
329,610,2.95154,-11.9348,-0.000505409,-0.00124906,-0.000230271,-0.00043988,-0.00131459,-0.277245,0.000772693,0.0109619,1553,414,2.95151,11.9348
336,610,2.96106,-11.7039,-0.000637671,-0.0013656,-0.000266777,-0.00055037,-0.0014529,-0.316259,0.000847005,0.0111295,1560,414,2.96104,11.704
343,610,2.95483,-11.4981,-0.000626891,-0.00136288,-0.000239029,-0.000556075,-0.00143369,-0.288028,0.000834654,0.0238883,1567,414,2.95477,11.4981
350,610,2.96985,-11.295,0,0,0,0,0,0,0,-1,1574,414,2.96985,11.2951
357,610,2.99353,-10.9352,0,0,0,0,0,0,0,-1,1581,414,2.99355,10.9352
364,610,3.02136,-10.7211,0,0,0,0,0,0,0,-1,1588,414,3.02133,10.7211
371,610,2.88428,-10.3401,0,0,0,0,0,0,0,-1,1595,414,2.88431,10.3401
378,610,2.83386,-10.0545,0,0,0,0,0,0,0,-1,1602,414,2.83387,10.0545
385,610,2.71582,-10.0341,0,0,0,0,0,0,0,-1,1609,414,2.71581,10.0341
392,610,2.35229,-10.3207,0,0,0,0,0,0,0,-1,1616,414,2.35227,10.3207
399,610,3.03833,-2.82547,0,0,0,0,0,0,0,-1,1623,414,3.03827,2.82546
406,610,2.91687,-2.9166,0,0,0,0,0,0,0,-1,1630,414,2.91688,2.91659
413,610,3.01929,-3.20306,0,0,0,0,0,0,0,-1,1637,414,3.01929,3.20306
420,610,4.78149,-3.64041,0,0,0,0,0,0,0,-1,1644,414,4.78152,3.64042
427,610,5.20764,-4.67545,0,0,0,0,0,0,0,-1,1651,414,5.20759,4.67545
434,610,5.39233,-5.45441,0,0,0,0,0,0,0,-1,1658,414,5.39228,5.4544
441,610,0,0,0,0,0,0,0,0,0,-1,1665,414,0,0
448,610,0,0,0,0,0,0,0,0,0,-1,1672,414,0,0
455,610,0,0,0,0,0,0,0,0,0,-1,1679,414,0,0
462,610,0,0,0,0,0,0,0,0,0,-1,1686,414,0,0
469,610,0,0,0,0,0,0,0,0,0,-1,1693,414,0,0
476,610,0,0,0,0,0,0,0,0,0,-1,1700,414,0,0
483,610,0,0,0,0,0,0,0,0,0,-1,1707,414,0,0
490,610,0,0,0,0,0,0,0,0,0,-1,1714,414,0,0
497,610,0,0,0,0,0,0,0,0,0,-1,1721,414,0,0
504,610,0,0,0,0,0,0,0,0,0,-1,1728,414,0,0
511,610,0,0,0,0,0,0,0,0,0,-1,1735,414,0,0
518,610,0,0,0,0,0,0,0,0,0,-1,1742,414,0,0
525,610,0,0,0,0,0,0,0,0,0,-1,1749,414,0,0
532,610,0,0,0,0,0,0,0,0,0,-1,1756,414,0,0
539,610,0,0,0,0,0,0,0,0,0,-1,1763,414,0,0
546,610,0,0,0,0,0,0,0,0,0,-1,1770,414,0,0
553,610,0,0,0,0,0,0,0,0,0,-1,1777,414,0,0
560,610,0,0,0,0,0,0,0,0,0,-1,1784,414,0,0
567,610,0,0,0,0,0,0,0,0,0,-1,1791,414,0,0
574,610,0,0,0,0,0,0,0,0,0,-1,1798,414,0,0
581,610,0,0,0,0,0,0,0,0,0,-1,1805,414,0,0
588,610,0,0,0,0,0,0,0,0,0,-1,1812,414,0,0
595,610,0,0,0,0,0,0,0,0,0,-1,1819,414,0,0
602,610,0,0,0,0,0,0,0,0,0,-1,1826,414,0,0
609,610,0,0,0,0,0,0,0,0,0,-1,1833,414,0,0
616,610,0,0,0,0,0,0,0,0,0,-1,1840,414,0,0
623,610,0,0,0,0,0,0,0,0,0,-1,1847,414,0,0
630,610,0,0,0,0,0,0,0,0,0,-1,1854,414,0,0
637,610,0,0,0,0,0,0,0,0,0,-1,1861,414,0,0
644,610,0,0,0,0,0,0,0,0,0,-1,1868,414,0,0
651,610,0,0,0,0,0,0,0,0,0,-1,1875,414,0,0
658,610,0,0,0,0,0,0,0,0,0,-1,1882,414,0,0
665,610,0,0,0,0,0,0,0,0,0,-1,1889,414,0,0
672,610,0,0,0,0,0,0,0,0,0,-1,1896,414,0,0
679,610,0,0,0,0,0,0,0,0,0,-1,1903,414,0,0
686,610,0,0,0,0,0,0,0,0,0,-1,1910,414,0,0
693,610,0,0,0,0,0,0,0,0,0,-1,1917,414,0,0
700,610,0,0,0,0,0,0,0,0,0,-1,1924,414,0,0
707,610,0,0,0,0,0,0,0,0,0,-1,1931,414,0,0
714,610,0,0,0,0,0,0,0,0,0,-1,1938,414,0,0
721,610,0,0,0,0,0,0,0,0,0,-1,1945,414,0,0
728,610,0,0,0,0,0,0,0,0,0,-1,1952,414,0,0
735,610,0,0,0,0,0,0,0,0,0,-1,1959,414,0,0
742,610,0,0,0,0,0,0,0,0,0,-1,1966,414,0,0
749,610,0,0,0,0,0,0,0,0,0,-1,1973,414,0,0
756,610,0,0,0,0,0,0,0,0,0,-1,1980,414,0,0
763,610,0,0,0,0,0,0,0,0,0,-1,1987,414,0,0
770,610,0,0,0,0,0,0,0,0,0,-1,1994,414,0,0
777,610,0,0,0,0,0,0,0,0,0,-1,2001,414,0,0
784,610,0,0,0,0,0,0,0,0,0,-1,2008,414,0,0
791,610,0,0,0,0,0,0,0,0,0,-1,2015,414,0,0
798,610,0,0,0,0,0,0,0,0,0,-1,2022,414,0,0
805,610,0,0,0,0,0,0,0,0,0,-1,2029,414,0,0
812,610,0,0,0,0,0,0,0,0,0,-1,2036,414,0,0
-700,603,0,0,0,0,0,0,0,0,0,-1,524,421,0,0
-693,603,0,0,0,0,0,0,0,0,0,-1,531,421,0,0
-686,603,0,0,0,0,0,0,0,0,0,-1,538,421,0,0
-679,603,0,0,0,0,0,0,0,0,0,-1,545,421,0,0
-672,603,0,0,0,0,0,0,0,0,0,-1,552,421,0,0
-665,603,0,0,0,0,0,0,0,0,0,-1,559,421,0,0
-658,603,0,0,0,0,0,0,0,0,0,-1,566,421,0,0
-651,603,0,0,0,0,0,0,0,0,0,-1,573,421,0,0
-644,603,0,0,0,0,0,0,0,0,0,-1,580,421,0,0
-637,603,0,0,0,0,0,0,0,0,0,-1,587,421,0,0
-630,603,0,0,0,0,0,0,0,0,0,-1,594,421,0,0
-623,603,0,0,0,0,0,0,0,0,0,-1,601,421,0,0
-616,603,0,0,0,0,0,0,0,0,0,-1,608,421,0,0
-609,603,0,0,0,0,0,0,0,0,0,-1,615,421,0,0
-602,603,0,0,0,0,0,0,0,0,0,-1,622,421,0,0
-595,603,0,0,0,0,0,0,0,0,0,-1,629,421,0,0
-588,603,0,0,0,0,0,0,0,0,0,-1,636,421,0,0
-581,603,0,0,0,0,0,0,0,0,0,-1,643,421,0,0
-574,603,0,0,0,0,0,0,0,0,0,-1,650,421,0,0
-567,603,0,0,0,0,0,0,0,0,0,-1,657,421,0,0
-560,603,0,0,0,0,0,0,0,0,0,-1,664,421,0,0
-553,603,0,0,0,0,0,0,0,0,0,-1,671,421,0,0
-546,603,0,0,0,0,0,0,0,0,0,-1,678,421,0,0
-539,603,0,0,0,0,0,0,0,0,0,-1,685,421,0,0
-532,603,0,0,0,0,0,0,0,0,0,-1,692,421,0,0
-525,603,0,0,0,0,0,0,0,0,0,-1,699,421,0,0
-518,603,0,0,0,0,0,0,0,0,0,-1,706,421,0,0
-511,603,0,0,0,0,0,0,0,0,0,-1,713,421,0,0
-504,603,0,0,0,0,0,0,0,0,0,-1,720,421,0,0
-497,603,0,0,0,0,0,0,0,0,0,-1,727,421,0,0
-490,603,0,0,0,0,0,0,0,0,0,-1,734,421,0,0
-483,603,0,0,0,0,0,0,0,0,0,-1,741,421,0,0
-476,603,0,0,0,0,0,0,0,0,0,-1,748,421,0,0
-469,603,0,0,0,0,0,0,0,0,0,-1,755,421,0,0
-462,603,0,0,0,0,0,0,0,0,0,-1,762,421,0,0
-455,603,0,0,0,0,0,0,0,0,0,-1,769,421,0,0
-448,603,0,0,0,0,0,0,0,0,0,-1,776,421,0,0
-441,603,0,0,0,0,0,0,0,0,0,-1,783,421,0,0
-434,603,0,0,0,0,0,0,0,0,0,-1,790,421,0,0
-427,603,0,0,0,0,0,0,0,0,0,-1,797,421,0,0
-420,603,0,0,0,0,0,0,0,0,0,-1,804,421,0,0
-413,603,0,0,0,0,0,0,0,0,0,-1,811,421,0,0
-406,603,0,0,0,0,0,0,0,0,0,-1,818,421,0,0
-399,603,0,0,0,0,0,0,0,0,0,-1,825,421,0,0
-392,603,0,0,0,0,0,0,0,0,0,-1,832,421,0,0
-385,603,0,0,0,0,0,0,0,0,0,-1,839,421,0,0
-378,603,0,0,0,0,0,0,0,0,0,-1,846,421,0,0
-371,603,0,0,0,0,0,0,0,0,0,-1,853,421,0,0
-364,603,0,0,0,0,0,0,0,0,0,-1,860,421,0,0
-357,603,0,0,0,0,0,0,0,0,0,-1,867,421,0,0
-350,603,0,0,0,0,0,0,0,0,0,-1,874,421,0,0
-343,603,0,0,0,0,0,0,0,0,0,-1,881,421,0,0
-336,603,0,0,0,0,0,0,0,0,0,-1,888,421,0,0
-329,603,4.6095,-8.85309,0,0,0,0,0,0,0,-1,895,421,4.60952,8.8531
-322,603,4.4209,-8.48056,0,0,0,0,0,0,0,-1,902,421,4.42093,8.48056
-315,603,3.88525,-10.2508,0,0,0,0,0,0,0,-1,909,421,3.88525,10.2508
-308,603,3.35522,-10.1391,0,0,0,0,0,0,0,-1,916,421,3.35525,10.1391
-301,603,3.12939,-10.0707,0,0,0,0,0,0,0,-1,923,421,3.12942,10.0707
-294,603,3.67969,-9.39362,0,0,0,0,0,0,0,-1,930,421,3.67966,9.3936
-287,603,3.80811,-9.60947,0,0,0,0,0,0,0,-1,937,421,3.80809,9.60946
-280,603,2.37079,-10.1415,0,0,0,0,0,0,0,-1,944,421,2.37081,10.1416
-273,603,2.41528,-10.9214,0,0,0,0,0,0,0,-1,951,421,2.4153,10.9214
-266,603,2.45026,-11.3678,0.0112611,0.00169481,-0.00683837,0.0148232,-0.0018672,-0.480216,0.0105597,0.0457924,958,421,2.45023,11.3678
-259,603,2.52258,-11.5252,0.00823763,0.00157205,-0.00772536,0.0133184,-0.00350877,-0.581755,0.0102507,0.0461591,965,421,2.52257,11.5252
-252,603,2.22455,-11.5507,0.0057793,0.0020126,-0.00763991,0.0117646,-0.00397268,-0.66455,0.00944985,0.0445041,972,421,2.22455,11.5506
-245,603,2.2337,-11.7391,0.00344645,0.00243715,-0.00751136,0.0104701,-0.00458649,-0.751856,0.00891141,0.0329588,979,421,2.2337,11.7391
-238,603,2.2439,-11.8785,0.00147263,0.00181779,-0.0062487,0.00789629,-0.00460588,-0.799204,0.00730099,0.0198856,986,421,2.24393,11.8785
-231,603,2.20978,-12.1112,1.81616e-05,0.00210911,-0.00496723,0.0061397,-0.00401243,-0.889121,0.00590407,0.0131084,993,421,2.20978,12.1112
-224,603,2.16748,-12.3243,-0.000699118,0.00226383,-0.00364344,0.00471548,-0.00315076,-0.978496,0.00457143,0.0127208,1000,421,2.16747,12.3243
-217,603,2.15979,-12.4961,-0.00111878,0.00230553,-0.00259288,0.00370055,-0.00251379,-1.0772,0.00360959,0.0113757,1007,421,2.15978,12.4961
-210,603,2.17163,-12.6906,-0.00133639,0.00225552,-0.00181672,0.00301415,-0.00209503,-1.17522,0.00296565,0.00946958,1014,421,2.17161,12.6906
-203,603,2.17944,-12.9062,-0.00150423,0.00164512,-0.000653417,0.00177531,-0.00163442,-1.37413,0.00196916,0.015398,1021,421,2.17943,12.9062
-196,603,2.16614,-13.0923,-0.001413,0.00154249,-8.68335e-05,0.00154504,-0.00141554,-1.54145,0.00170984,0.0163371,1028,421,2.16608,13.0923
-189,603,2.15576,-13.2105,-0.00125921,0.00119158,3.94323e-05,0.00119221,-0.00125985,1.55471,0.00141588,0.0126903,1035,421,2.15571,13.2105
-182,603,2.13159,-13.3936,-0.000675629,0.000701693,-2.28833e-05,0.000702073,-0.000676009,-1.55419,0.000795683,0.0102989,1042,421,2.13158,13.3936
-175,603,2.1051,-13.5449,-8.40467e-05,0.000197878,-0.000117683,0.000240545,-0.000126713,-1.22298,0.000215405,0.0109007,1049,421,2.10513,13.5449
-168,603,2.10925,-13.6925,0.000359275,-0.000135811,-0.000178537,0.000416942,-0.000193478,-0.312418,0.000360212,0.0126861,1056,421,2.10925,13.6925
-161,603,2.09753,-13.8712,0.000623543,-0.000119397,-0.000279932,0.00071721,-0.000213063,-0.322894,0.000562769,0.0127197,1063,421,2.09753,13.8712
-154,603,2.09729,-14.0321,0.00078476,6.18646e-05,-0.00027977,0.000880385,-3.37606e-05,-0.329351,0.000598494,0.0121869,1070,421,2.09734,14.0321
-147,603,2.10046,-14.1502,0.00103615,0.00017841,-0.000420366,0.00120781,6.74993e-06,-0.387692,0.000802968,0.0126498,1077,421,2.10042,14.1502
-140,603,2.11963,-14.2765,0.00116071,0.000293532,-0.000603687,0.00147038,-1.61414e-05,-0.473969,0.000985678,0.0110185,1084,421,2.11958,14.2765
-133,603,2.12061,-14.4025,0.00121976,0.000417997,-0.000773212,0.00168983,-5.20775e-05,-0.546245,0.00114431,0.0115926,1091,421,2.12057,14.4025
-126,603,2.12195,-14.5319,0.00121007,0.000387312,-0.000901102,0.00178926,-0.000191873,-0.571263,0.00126167,0.0101361,1098,421,2.12196,14.5319
-119,603,2.13245,-14.6606,0.00119447,0.000539186,-0.0010454,0.00196237,-0.000228708,-0.633539,0.00139076,0.00987075,1105,421,2.13242,14.6606
-112,603,2.13062,-14.7723,0.00120903,0.000608227,-0.00114639,0.00209372,-0.000276462,-0.657258,0.0014965,0.014254,1112,421,2.13056,14.7723
-105,603,2.13379,-14.9065,0.00127447,0.000687704,-0.00121143,0.00222754,-0.000265368,-0.666597,0.00158092,0.0140346,1119,421,2.1338,14.9065
-98,603,2.146,-15.0075,0.00138591,0.000716686,-0.00115919,0.00225782,-0.000155222,-0.644888,0.00155953,0.0111224,1126,421,2.14605,15.0075
-91,603,2.15759,-15.1008,0.00164094,0.000826574,-0.00111437,0.00242019,4.73249e-05,-0.610237,0.00159792,0.00810271,1133,421,2.15763,15.1008
-84,603,2.17908,-15.2187,0.00178508,0.000888923,-0.000955079,0.00239196,0.000282036,-0.566065,0.00150944,0.00881934,1140,421,2.17914,15.2187
-77,603,2.1958,-15.3427,0.00187077,0.000797334,-0.000614561,0.00214999,0.000518116,-0.426455,0.00129563,0.0119317,1147,421,2.19577,15.3427
-70,603,2.28687,-15.5932,0.00234844,0.000854372,-0.00046065,0.00247905,0.000723762,-0.276281,0.001472,0.0335918,1154,421,2.28683,15.5932
-63,603,2.36523,-15.8756,0,0,0,0,0,0,0,-1,1161,421,2.36528,15.8756
-56,603,2.19751,-15.5469,0,0,0,0,0,0,0,-1,1168,421,2.19749,15.5469
-49,603,2.24585,-15.6256,0,0,0,0,0,0,0,-1,1175,421,2.24585,15.6256
-42,603,2.24658,-15.699,0,0,0,0,0,0,0,-1,1182,421,2.2466,15.699
-35,603,2.19702,-15.7381,-0.000694876,0.000396046,-0.000268739,0.000458655,-0.000757484,-1.34191,0.000709168,0.0414586,1189,421,2.19702,15.7381
-28,603,2.25977,-15.7855,-0.001036,-0.000502021,7.26174e-05,-0.000492322,-0.0010457,1.43802,0.00060408,0.0234478,1196,421,2.25971,15.7855
-21,603,2.3219,-15.8403,-0.00113606,-0.00116568,0.000475047,-0.00067559,-0.00162615,0.769816,0.000943319,0.0196809,1203,421,2.32194,15.8403
-14,603,2.34155,-15.8853,-0.000816828,-0.00255389,0.000919765,-0.000420325,-0.0029504,0.40702,0.00184287,0.0204852,1210,421,2.34152,15.8853
-7,603,2.35413,-15.9225,-4.24094e-05,-0.00337661,0.000849661,0.000161626,-0.00358065,0.235674,0.00244276,0.0227004,1217,421,2.35413,15.9225
0,603,2.3772,-15.9817,0.000276095,-0.00450774,0.000239723,0.000288078,-0.00451972,0.0499444,0.00311362,0.0267234,1224,421,2.37722,15.9817
7,603,2.41614,-15.9363,0.000199254,-0.00708928,-0.000207977,0.000205184,-0.00709521,-0.028504,0.00479999,0.0310866,1231,421,2.4161,15.9364
14,603,2.56714,-15.9113,0.000278418,-0.00980858,-0.000727107,0.000330561,-0.00986072,-0.0715903,0.00668672,0.0276024,1238,421,2.56716,15.9113
21,603,2.58374,-15.9804,0.000942413,-0.0121519,-0.00196619,0.00123128,-0.0124407,-0.145872,0.00873324,0.0209662,1245,421,2.58376,15.9804
28,603,2.63684,-16.0346,0.00171708,-0.013629,-0.00309537,0.00231791,-0.0142298,-0.191721,0.0103461,0.0240998,1252,421,2.63688,16.0346
35,603,2.66101,-15.972,0.0020613,-0.0153301,-0.00365846,0.00279956,-0.0160683,-0.19912,0.011757,0.0322737,1259,421,2.66098,15.9721
42,603,2.65332,-16.0396,0.00359902,-0.017464,-0.0037711,0.00425384,-0.0181188,-0.171927,0.0137188,0.0294707,1266,421,2.65326,16.0396
49,603,2.62659,-16.0945,0.00480877,-0.0194987,-0.00418963,0.00551063,-0.0202005,-0.165981,0.0156311,0.0162447,1273,421,2.62663,16.0945
56,603,2.62537,-16.0641,0.0059083,-0.0222743,-0.00466758,0.00666123,-0.0230272,-0.159932,0.0179878,0.0287772,1280,421,2.62531,16.0641
63,603,2.65601,-15.9179,0.00680248,-0.0248864,-0.00494657,0.00755668,-0.0256406,-0.151304,0.020092,0.0373283,1287,421,2.65606,15.9179
70,603,2.73279,-15.7668,0.00737285,-0.0268684,-0.00479325,0.00803117,-0.0275267,-0.13649,0.0215333,0.0420765,1294,421,2.73273,15.7668
77,603,2.69922,-16.0747,0.00765996,-0.0285825,-0.00432389,0.00816868,-0.0290912,-0.117115,0.0226143,0.0464905,1301,421,2.69918,16.0747
84,603,2.58154,-16.2695,0.00806629,-0.0303886,-0.00387467,0.00845281,-0.0307751,-0.0994273,0.0238392,0.0458716,1308,421,2.58158,16.2695
91,603,2.65149,-16.0012,0.00804306,-0.0317525,-0.00335152,0.00832335,-0.0320328,-0.0834353,0.0246035,0.0474221,1315,421,2.65152,16.0012
98,603,2.89404,-15.8968,0.00745105,-0.0327441,-0.00271588,0.00763372,-0.0329267,-0.0671606,0.0248891,0.0480391,1322,421,2.89406,15.8968
105,603,2.91089,-15.8288,0.00673337,-0.0333871,-0.00203169,0.00683599,-0.0334898,-0.0504676,0.0249197,0.0414558,1329,421,2.91084,15.8288
112,603,2.95532,-15.7715,0.00588939,-0.0331117,-0.00149738,0.00594679,-0.0331691,-0.038318,0.0243384,0.0320157,1336,421,2.95535,15.7715
119,603,2.89258,-15.769,0.00482828,-0.0321577,-0.00100398,0.00485551,-0.0321849,-0.0271183,0.0232448,0.0333011,1343,421,2.89257,15.769
126,603,2.93286,-15.7385,0.00359462,-0.0306978,-0.000411245,0.00359955,-0.0307027,-0.01199,0.0217678,0.0394832,1350,421,2.93283,15.7385
133,603,2.95007,-15.641,0.00260907,-0.0291355,-8.59253e-05,0.0026093,-0.0291358,-0.00270674,0.0203494,0.0346048,1357,421,2.95011,15.641
140,603,2.979,-15.5788,0.002062,-0.0267769,-0.000331351,0.00206581,-0.0267807,-0.0114877,0.0185807,0.0215519,1364,421,2.97905,15.5788
147,603,2.96899,-15.5571,0.00113641,-0.0240292,-0.00082916,0.0011637,-0.0240565,-0.0329005,0.0164393,0.0160182,1371,421,2.96904,15.5571
154,603,2.91736,-15.4655,0.000311978,-0.0206836,-0.000940766,0.000354048,-0.0207257,-0.0446885,0.0139366,0.0249923,1378,421,2.91732,15.4655
161,603,2.96167,-15.3852,0.000249016,-0.0158042,-0.000840528,0.000292906,-0.0158481,-0.0521688,0.0106644,0.0292302,1385,421,2.96163,15.3852
168,603,3.04639,-15.3199,0.000946144,-0.0113753,-0.000835181,0.0010025,-0.0114317,-0.0673717,0.00797633,0.0263327,1392,421,3.04644,15.32
175,603,3.1532,-15.208,0.0025457,-0.00925152,-0.0016729,0.00277834,-0.00948416,-0.138177,0.00742424,0.0299479,1399,421,3.15325,15.208
182,603,3.24939,-15.146,0.00378342,-0.00755916,-0.00263564,0.00436594,-0.00814168,-0.217519,0.00733013,0.0374871,1406,421,3.24935,15.146
189,603,3.24426,-14.9961,0.00303875,-0.00537136,-0.00275183,0.00385914,-0.00619175,-0.289735,0.00585474,0.0327938,1413,421,3.24427,14.996
196,603,3.1311,-14.8666,0.00255017,-0.0029865,-0.0025649,0.00355575,-0.00399207,-0.373636,0.00436016,0.0239984,1420,421,3.13111,14.8666
203,603,3.10437,-14.795,0.00273865,-0.00137538,-0.00220906,0.00370012,-0.00233685,-0.410512,0.00351494,0.013353,1427,421,3.10441,14.7949
210,603,3.10034,-14.7274,0.00260718,-6.27805e-06,-0.00194908,0.00364704,-0.00104614,-0.490096,0.00284492,0.0104719,1434,421,3.10038,14.7274
217,603,3.11536,-14.5911,0.00230325,0.00108743,-0.00156841,0.00337744,1.32392e-05,-0.600514,0.00224723,0.0127616,1441,421,3.11536,14.5911
224,603,3.13623,-14.4582,0.00198103,0.00163707,-0.00120937,0.00303058,0.00058751,-0.714768,0.00185581,0.0157491,1448,421,3.13629,14.4582
231,603,3.13184,-14.3113,0.0016882,0.00214069,-0.000858204,0.00280197,0.00102692,-0.914279,0.00163683,0.0136276,1455,421,3.13182,14.3113
238,603,3.14819,-14.1814,0.00152952,0.00245918,-0.000540333,0.00270711,0.00128159,-1.14061,0.00156369,0.0101048,1462,421,3.14816,14.1814
245,603,3.16248,-14.0519,0.00141685,0.00273734,-0.00027346,0.00279173,0.00136246,-1.37446,0.00161196,0.0108049,1469,421,3.16252,14.0519
252,603,3.1698,-13.8903,0.00129235,0.00287294,-2.36346e-05,0.00287329,0.001292,-1.55585,0.0016617,0.00948257,1476,421,3.16975,13.8903
259,603,3.16577,-13.734,0.00111162,0.00285433,0.000183707,0.00287349,0.00109247,1.4669,0.00167481,0.0103531,1483,421,3.16581,13.734
266,603,3.15686,-13.5665,0.000912351,0.00275634,0.000302462,0.00280469,0.000864007,1.4123,0.00165858,0.0124245,1490,421,3.15684,13.5665
273,603,3.16895,-13.3953,0.000699999,0.00245797,0.0003126,0.0025119,0.000646068,1.39995,0.00150617,0.010957,1497,421,3.16892,13.3953
280,603,3.18115,-13.2119,0.000477064,0.0021908,0.00034842,0.00225893,0.000408935,1.3777,0.00138984,0.0112947,1504,421,3.18119,13.2119
287,603,3.18811,-13.0426,0.000366133,0.00179326,0.000424023,0.00190974,0.000249655,1.30271,0.00119864,0.0102198,1511,421,3.18805,13.0426
294,603,3.18738,-12.8938,0.000232815,0.00137484,0.000373476,0.00148614,0.000121523,1.28119,0.000952836,0.00929081,1518,421,3.18737,12.8938
301,603,3.1759,-12.7188,9.05162e-05,0.000840367,0.000249765,0.000915943,1.49403e-05,1.27697,0.00060571,0.0112993,1525,421,3.17592,12.7188
308,603,3.17383,-12.5256,1.29723e-05,0.000365387,0.00015476,0.000423699,-4.53402e-05,1.21045,0.000298729,0.0168921,1532,421,3.17386,12.5256
315,603,3.16492,-12.3537,-7.36653e-05,-0.000103796,9.81888e-05,1.0607e-05,-0.000188069,0.709275,0.00012906,0.0149803,1539,421,3.16487,12.3537
322,603,3.16284,-12.1515,-0.00015992,-0.000399888,0.00010747,-0.000118827,-0.000440981,0.365218,0.000263467,0.0141418,1546,421,3.16281,12.1515
329,603,3.1405,-11.9245,-0.000206253,-0.000471106,0.0001889,-0.000107985,-0.000569374,0.479687,0.000349198,0.0111072,1553,421,3.14052,11.9245
336,603,3.14465,-11.7255,-0.000319634,-0.000422478,0.000253787,-0.000112112,-0.00063,0.685442,0.000388066,0.0102813,1560,421,3.14471,11.7255
343,603,3.14014,-11.5336,-0.000361867,-0.000252081,0.000373034,7.00772e-05,-0.000684026,0.85845,0.00048108,0.0120109,1567,421,3.14016,11.5336
350,603,3.10388,-11.3265,-0.000258888,0.0005165,0.000756013,0.000978431,-0.000720819,1.02232,0.000984813,0.0218548,1574,421,3.10388,11.3265
357,603,3.12317,-11.0555,-0.000379669,0.00124072,0.00109022,0.00178884,-0.000927782,1.10495,0.00159449,0.0282251,1581,421,3.12321,11.0555
364,603,3.10474,-10.7868,-0.00060067,0.00209654,0.00134173,0.00265029,-0.00115442,1.17938,0.00225253,0.0298067,1588,421,3.10475,10.7868
371,603,3.06104,-10.5346,-0.000722133,0.00312178,0.00191491,0.00391291,-0.00151326,1.17902,0.0032333,0.0331761,1595,421,3.06104,10.5346
378,603,3.05347,-10.3065,-0.00104671,0.00491501,0.00238815,0.00575368,-0.00188538,1.23307,0.00459504,0.0400802,1602,421,3.05342,10.3065
385,603,3.02063,-10.1414,-0.00199505,0.00589593,0.00203419,0.00638945,-0.00248857,1.33278,0.00528809,0.0466116,1609,421,3.0206,10.1414
392,603,3.08472,-10.0166,0,0,0,0,0,0,0,-1,1616,421,3.08468,10.0166
399,603,2.38013,-5.37076,0,0,0,0,0,0,0,-1,1623,421,2.38016,5.37075
406,603,3.01917,-2.37219,0,0,0,0,0,0,0,-1,1630,421,3.01915,2.37219
413,603,2.38928,-2.41275,0,0,0,0,0,0,0,-1,1637,421,2.38926,2.41274
420,603,2.74866,-2.30066,0,0,0,0,0,0,0,-1,1644,421,2.74867,2.30065
427,603,7.11548,-3.35352,0,0,0,0,0,0,0,-1,1651,421,7.11549,3.35351
434,603,7.32153,-4.50525,0,0,0,0,0,0,0,-1,1658,421,7.32149,4.50525
441,603,3.18213,-0.250946,0,0,0,0,0,0,0,-1,1665,421,3.18212,0.250944
448,603,2.95667,-0.066925,0,0,0,0,0,0,0,-1,1672,421,2.95662,0.0669226
455,603,0,0,0,0,0,0,0,0,0,-1,1679,421,0,0
462,603,0,0,0,0,0,0,0,0,0,-1,1686,421,0,0
469,603,0,0,0,0,0,0,0,0,0,-1,1693,421,0,0
476,603,0,0,0,0,0,0,0,0,0,-1,1700,421,0,0
483,603,0,0,0,0,0,0,0,0,0,-1,1707,421,0,0
490,603,0,0,0,0,0,0,0,0,0,-1,1714,421,0,0
497,603,0,0,0,0,0,0,0,0,0,-1,1721,421,0,0
504,603,0,0,0,0,0,0,0,0,0,-1,1728,421,0,0
511,603,0,0,0,0,0,0,0,0,0,-1,1735,421,0,0
518,603,0,0,0,0,0,0,0,0,0,-1,1742,421,0,0
525,603,0,0,0,0,0,0,0,0,0,-1,1749,421,0,0
532,603,0,0,0,0,0,0,0,0,0,-1,1756,421,0,0
539,603,0,0,0,0,0,0,0,0,0,-1,1763,421,0,0
546,603,0,0,0,0,0,0,0,0,0,-1,1770,421,0,0
553,603,0,0,0,0,0,0,0,0,0,-1,1777,421,0,0
560,603,0,0,0,0,0,0,0,0,0,-1,1784,421,0,0
567,603,0,0,0,0,0,0,0,0,0,-1,1791,421,0,0
574,603,0,0,0,0,0,0,0,0,0,-1,1798,421,0,0
581,603,0,0,0,0,0,0,0,0,0,-1,1805,421,0,0
588,603,0,0,0,0,0,0,0,0,0,-1,1812,421,0,0
595,603,0,0,0,0,0,0,0,0,0,-1,1819,421,0,0
602,603,0,0,0,0,0,0,0,0,0,-1,1826,421,0,0
609,603,0,0,0,0,0,0,0,0,0,-1,1833,421,0,0
616,603,0,0,0,0,0,0,0,0,0,-1,1840,421,0,0
623,603,0,0,0,0,0,0,0,0,0,-1,1847,421,0,0
630,603,0,0,0,0,0,0,0,0,0,-1,1854,421,0,0
637,603,0,0,0,0,0,0,0,0,0,-1,1861,421,0,0
644,603,0,0,0,0,0,0,0,0,0,-1,1868,421,0,0
651,603,0,0,0,0,0,0,0,0,0,-1,1875,421,0,0
658,603,0,0,0,0,0,0,0,0,0,-1,1882,421,0,0
665,603,0,0,0,0,0,0,0,0,0,-1,1889,421,0,0
672,603,0,0,0,0,0,0,0,0,0,-1,1896,421,0,0
679,603,0,0,0,0,0,0,0,0,0,-1,1903,421,0,0
686,603,0,0,0,0,0,0,0,0,0,-1,1910,421,0,0
693,603,0,0,0,0,0,0,0,0,0,-1,1917,421,0,0
700,603,0,0,0,0,0,0,0,0,0,-1,1924,421,0,0
707,603,0,0,0,0,0,0,0,0,0,-1,1931,421,0,0
714,603,0,0,0,0,0,0,0,0,0,-1,1938,421,0,0
721,603,0,0,0,0,0,0,0,0,0,-1,1945,421,0,0
728,603,0,0,0,0,0,0,0,0,0,-1,1952,421,0,0
735,603,0,0,0,0,0,0,0,0,0,-1,1959,421,0,0
742,603,0,0,0,0,0,0,0,0,0,-1,1966,421,0,0
749,603,0,0,0,0,0,0,0,0,0,-1,1973,421,0,0
756,603,0,0,0,0,0,0,0,0,0,-1,1980,421,0,0
763,603,0,0,0,0,0,0,0,0,0,-1,1987,421,0,0
770,603,0,0,0,0,0,0,0,0,0,-1,1994,421,0,0
777,603,0,0,0,0,0,0,0,0,0,-1,2001,421,0,0
784,603,0,0,0,0,0,0,0,0,0,-1,2008,421,0,0
791,603,0,0,0,0,0,0,0,0,0,-1,2015,421,0,0
798,603,0,0,0,0,0,0,0,0,0,-1,2022,421,0,0
805,603,0,0,0,0,0,0,0,0,0,-1,2029,421,0,0
812,603,0,0,0,0,0,0,0,0,0,-1,2036,421,0,0
-700,596,0,0,0,0,0,0,0,0,0,-1,524,428,0,0
-693,596,0,0,0,0,0,0,0,0,0,-1,531,428,0,0
-686,596,0,0,0,0,0,0,0,0,0,-1,538,428,0,0
-679,596,0,0,0,0,0,0,0,0,0,-1,545,428,0,0
-672,596,0,0,0,0,0,0,0,0,0,-1,552,428,0,0
-665,596,0,0,0,0,0,0,0,0,0,-1,559,428,0,0
-658,596,0,0,0,0,0,0,0,0,0,-1,566,428,0,0
-651,596,0,0,0,0,0,0,0,0,0,-1,573,428,0,0
-644,596,0,0,0,0,0,0,0,0,0,-1,580,428,0,0
-637,596,0,0,0,0,0,0,0,0,0,-1,587,428,0,0
-630,596,0,0,0,0,0,0,0,0,0,-1,594,428,0,0
-623,596,0,0,0,0,0,0,0,0,0,-1,601,428,0,0
-616,596,0,0,0,0,0,0,0,0,0,-1,608,428,0,0
-609,596,0,0,0,0,0,0,0,0,0,-1,615,428,0,0
-602,596,0,0,0,0,0,0,0,0,0,-1,622,428,0,0
-595,596,0,0,0,0,0,0,0,0,0,-1,629,428,0,0
-588,596,0,0,0,0,0,0,0,0,0,-1,636,428,0,0
-581,596,0,0,0,0,0,0,0,0,0,-1,643,428,0,0
-574,596,0,0,0,0,0,0,0,0,0,-1,650,428,0,0
-567,596,0,0,0,0,0,0,0,0,0,-1,657,428,0,0
-560,596,0,0,0,0,0,0,0,0,0,-1,664,428,0,0
-553,596,0,0,0,0,0,0,0,0,0,-1,671,428,0,0
-546,596,0,0,0,0,0,0,0,0,0,-1,678,428,0,0
-539,596,0,0,0,0,0,0,0,0,0,-1,685,428,0,0
-532,596,0,0,0,0,0,0,0,0,0,-1,692,428,0,0
-525,596,0,0,0,0,0,0,0,0,0,-1,699,428,0,0
-518,596,0,0,0,0,0,0,0,0,0,-1,706,428,0,0
-511,596,0,0,0,0,0,0,0,0,0,-1,713,428,0,0
-504,596,0,0,0,0,0,0,0,0,0,-1,720,428,0,0
-497,596,0,0,0,0,0,0,0,0,0,-1,727,428,0,0
-490,596,0,0,0,0,0,0,0,0,0,-1,734,428,0,0
-483,596,0,0,0,0,0,0,0,0,0,-1,741,428,0,0
-476,596,0,0,0,0,0,0,0,0,0,-1,748,428,0,0
-469,596,0,0,0,0,0,0,0,0,0,-1,755,428,0,0
-462,596,0,0,0,0,0,0,0,0,0,-1,762,428,0,0
-455,596,0,0,0,0,0,0,0,0,0,-1,769,428,0,0
-448,596,0,0,0,0,0,0,0,0,0,-1,776,428,0,0
-441,596,0,0,0,0,0,0,0,0,0,-1,783,428,0,0
-434,596,0,0,0,0,0,0,0,0,0,-1,790,428,0,0
-427,596,0,0,0,0,0,0,0,0,0,-1,797,428,0,0
-420,596,0,0,0,0,0,0,0,0,0,-1,804,428,0,0
-413,596,0,0,0,0,0,0,0,0,0,-1,811,428,0,0
-406,596,0,0,0,0,0,0,0,0,0,-1,818,428,0,0
-399,596,0,0,0,0,0,0,0,0,0,-1,825,428,0,0
-392,596,0,0,0,0,0,0,0,0,0,-1,832,428,0,0
-385,596,0,0,0,0,0,0,0,0,0,-1,839,428,0,0
-378,596,0,0,0,0,0,0,0,0,0,-1,846,428,0,0
-371,596,0,0,0,0,0,0,0,0,0,-1,853,428,0,0
-364,596,0,0,0,0,0,0,0,0,0,-1,860,428,0,0
-357,596,0,0,0,0,0,0,0,0,0,-1,867,428,0,0
-350,596,0,0,0,0,0,0,0,0,0,-1,874,428,0,0
-343,596,0,0,0,0,0,0,0,0,0,-1,881,428,0,0
-336,596,1.89813,-9.66019,0,0,0,0,0,0,0,-1,888,428,1.89813,9.6602
-329,596,1.54865,-9.16202,0,0,0,0,0,0,0,-1,895,428,1.54866,9.16203
-322,596,2.35809,-9.06784,0,0,0,0,0,0,0,-1,902,428,2.35812,9.06783
-315,596,2.86914,-8.61859,0,0,0,0,0,0,0,-1,909,428,2.86912,8.6186
-308,596,2.59137,-8.94223,0,0,0,0,0,0,0,-1,916,428,2.59138,8.94224
-301,596,2.44952,-9.159,0.0223022,0.00822204,0.00979063,0.0273211,0.00320314,0.473694,0.0172458,0.0480808,923,428,2.44952,9.15899
-294,596,2.64606,-9.31796,0.0196579,0.00622982,0.00589221,0.0218768,0.00401098,0.360148,0.0134484,0.0454942,930,428,2.64607,9.31797
-287,596,2.8158,-9.76349,0.0170513,0.00461611,0.00250699,0.0175377,0.00412972,0.191635,0.0105872,0.049635,937,428,2.81579,9.76348
-280,596,2.26923,-10.379,0,0,0,0,0,0,0,-1,944,428,2.26925,10.379
-273,596,2.18146,-10.8906,0.0107324,0.0031681,-0.00231905,0.0113868,0.00251374,-0.275019,0.00690745,0.0446826,951,428,2.18145,10.8906
-266,596,2.21552,-11.1072,0.00812274,0.00253629,-0.00350222,0.0098092,0.000849825,-0.448773,0.0062754,0.0372411,958,428,2.2155,11.1072
-259,596,2.06049,-11.2883,0.00580619,0.00225162,-0.00440291,0.00877699,-0.000719189,-0.593569,0.00610519,0.0327897,965,428,2.06047,11.2883
-252,596,2.04773,-11.5237,0.0039513,0.00241515,-0.00460365,0.00785052,-0.00148406,-0.702739,0.00579209,0.0176753,972,428,2.04774,11.5237
-245,596,2.04016,-11.7214,0.00220404,0.00265717,-0.00485918,0.00729507,-0.00243385,-0.808694,0.00584606,0.0126132,979,428,2.04014,11.7214
-238,596,2.04114,-11.9142,0.00076488,0.00222976,-0.00414982,0.00571128,-0.00271665,-0.872748,0.0049672,0.0108494,986,428,2.04114,11.9142
-231,596,2.01013,-12.1165,-0.000249974,0.00230957,-0.00332842,0.00459578,-0.00253618,-0.968934,0.00417448,0.0121036,993,428,2.01015,12.1165
-224,596,1.98462,-12.3249,-0.000674597,0.0024135,-0.00240384,0.00372647,-0.00198756,-1.07088,0.00334953,0.0129162,1000,428,1.9846,12.3249
-217,596,1.99438,-12.5117,-0.000890239,0.0024303,-0.00167404,0.00312776,-0.0015877,-1.17603,0.00277045,0.0131127,1007,428,1.99441,12.5118
-210,596,2.00928,-12.7116,-0.000946077,0.00235417,-0.00113725,0.00270811,-0.00130001,-1.26908,0.00236121,0.0107787,1014,428,2.0093,12.7116
-203,596,1.99384,-12.9117,-0.000907659,0.00185915,-0.000382041,0.00191093,-0.000959442,-1.43607,0.00168729,0.0138676,1021,428,1.99384,12.9117
-196,596,1.97937,-13.0755,-0.000729575,0.0016638,-9.25554e-06,0.00166384,-0.00072961,-1.56693,0.00141651,0.013562,1028,428,1.97932,13.0755
-189,596,1.97046,-13.2255,-0.00046531,0.00129479,3.29328e-05,0.0012954,-0.000465926,1.55209,0.00105382,0.0106364,1035,428,1.97048,13.2255
-182,596,1.95813,-13.3907,0.000193819,0.000860743,-0.000142332,0.000889848,0.000164713,-1.36909,0.000546663,0.0111982,1042,428,1.95812,13.3907
-175,596,1.94836,-13.5439,0.000835391,0.000397685,-0.000336403,0.00101787,0.000215211,-0.497012,0.00061943,0.0137524,1049,428,1.94836,13.5439
-168,596,1.96423,-13.6991,0.00134903,6.81065e-05,-0.000538793,0.00154552,-0.000128384,-0.349698,0.0010757,0.0156231,1056,428,1.96423,13.6991
-161,596,1.97192,-13.8605,0.00165074,-1.58215e-06,-0.000797029,0.00197253,-0.000323374,-0.383726,0.00143501,0.0139745,1063,428,1.97187,13.8605
-154,596,1.97131,-14.0202,0.0018081,0.000100139,-0.000894113,0.00219054,-0.000282294,-0.404175,0.00156298,0.0118893,1070,428,1.97129,14.0202
-147,596,1.98975,-14.1483,0.00211959,0.000158685,-0.00113041,0.00263551,-0.000357232,-0.428161,0.00188739,0.0125198,1077,428,1.98973,14.1483
-140,596,2.00171,-14.2606,0.00223627,0.000174202,-0.00137174,0.00292124,-0.000510774,-0.463128,0.00213819,0.0124429,1084,428,2.00173,14.2606
-133,596,2.0072,-14.3949,0.00222449,0.000168011,-0.00153836,0.00304661,-0.000654112,-0.490798,0.0022806,0.0123089,1091,428,2.00726,14.3949
-126,596,2.00378,-14.5199,0.00209437,0.000131868,-0.00165381,0.00303612,-0.000809881,-0.517648,0.00234121,0.00983293,1098,428,2.00375,14.5199
-119,596,2.01599,-14.6616,0.00194615,0.000223862,-0.0017555,0.00304034,-0.000870328,-0.557372,0.00237087,0.0125519,1105,428,2.01599,14.6616
-112,596,1.99719,-14.7794,0.0018144,0.000281048,-0.00176615,0.0029731,-0.000877648,-0.580623,0.00233037,0.0144137,1112,428,1.99714,14.7795
-105,596,2.01306,-14.8974,0.00170421,0.000403798,-0.00172689,0.00289924,-0.000791234,-0.605347,0.00224357,0.0145693,1119,428,2.01303,14.8974
-98,596,2.05078,-14.998,0.00164273,0.000506923,-0.00152217,0.00269948,-0.000549827,-0.60685,0.00200818,0.00946262,1126,428,2.05079,14.998
-91,596,2.05249,-15.1196,0.00183947,0.000775462,-0.0013839,0.0027901,-0.000175169,-0.601895,0.00192112,0.0101919,1133,428,2.0525,15.1196
-84,596,2.10327,-15.3189,0.00190454,0.000995808,-0.00114567,0.00268266,0.000217691,-0.596615,0.00172047,0.0189414,1140,428,2.1033,15.3189
-77,596,2.15857,-15.5326,0,0,0,0,0,0,0,-1,1147,428,2.15856,15.5326
-70,596,2.21509,-15.8598,0,0,0,0,0,0,0,-1,1154,428,2.21505,15.8598
-63,596,1.95569,-12.2758,0,0,0,0,0,0,0,-1,1161,428,1.95563,12.2759
-56,596,1.60107,-10.5827,0,0,0,0,0,0,0,-1,1168,428,1.60108,10.5827
-49,596,1.59473,-10.0393,0,0,0,0,0,0,0,-1,1175,428,1.59472,10.0393
-42,596,1.99585,-6.6246,0,0,0,0,0,0,0,-1,1182,428,1.99586,6.62459
-35,596,1.90735,-15.5954,0,0,0,0,0,0,0,-1,1189,428,1.9073,15.5954
-28,596,2.16296,-15.7194,0,0,0,0,0,0,0,-1,1196,428,2.16299,15.7194
-21,596,2.24255,-15.7707,0,0,0,0,0,0,0,-1,1203,428,2.24258,15.7707
-14,596,2.22852,-15.7377,-0.00344353,-0.00197193,0.000592167,-0.00176324,-0.00365222,1.23197,0.00210903,0.0460045,1210,428,2.22855,15.7377
-7,596,2.25134,-15.7974,-0.00224913,-0.00311653,0.000609937,-0.00193442,-0.00343124,0.476345,0.00198639,0.0484005,1217,428,2.25134,15.7974
0,596,2.3031,-15.9591,0,0,0,0,0,0,0,-1,1224,428,2.3031,15.9591
7,596,2.31946,-15.8191,-0.00160969,-0.00952569,-0.00111403,-0.00145589,-0.00967948,-0.137182,0.0060266,0.0440949,1231,428,2.31943,15.8191
14,596,2.22937,-15.8709,-0.00126415,-0.013795,-0.00197354,-0.00096068,-0.0140984,-0.152576,0.00909566,0.0434097,1238,428,2.22943,15.8709
21,596,2.4856,-15.9022,-5.26583e-05,-0.0172683,-0.00371643,0.000715365,-0.0180363,-0.203787,0.0122696,0.0452268,1245,428,2.48565,15.9022
28,596,2.474,-15.9424,0.00127486,-0.0191444,-0.00494357,0.00240874,-0.0202783,-0.225466,0.0143892,0.04354,1252,428,2.47403,15.9424
35,596,2.50928,-15.7225,0.0018996,-0.0214897,-0.00537912,0.0030774,-0.0226675,-0.215555,0.0162349,0.0418169,1259,428,2.50932,15.7225
42,596,2.77625,-15.9615,0.00403634,-0.0243426,-0.00528548,0.00498878,-0.0252951,-0.178285,0.0187489,0.0441476,1266,428,2.77626,15.9615
49,596,2.81311,-16.0195,0.00558076,-0.0267958,-0.00560247,0.00652281,-0.0277378,-0.16659,0.0210065,0.0424225,1273,428,2.81315,16.0195
56,596,2.55444,-16.1206,0.00708275,-0.0301155,-0.00597326,0.0080184,-0.0310511,-0.155377,0.0238276,0.0416855,1280,428,2.5545,16.1206
63,596,2.4375,-16.0741,0.00832257,-0.0333636,-0.00612084,0.00920272,-0.0342438,-0.142816,0.0264362,0.0464802,1287,428,2.43753,16.0741
70,596,2.44495,-15.9467,0,0,0,0,0,0,0,-1,1294,428,2.445,15.9467
77,596,2.5282,-15.7006,0.00958504,-0.0379663,-0.0050921,0.0101242,-0.0385055,-0.105492,0.0296274,0.0429567,1301,428,2.52821,15.7006
84,596,2.48828,-16.2237,0.0100731,-0.0403152,-0.00443751,0.0104609,-0.040703,-0.0871722,0.0312122,0.0446073,1308,428,2.48833,16.2237
91,596,2.52124,-15.9994,0,0,0,0,0,0,0,-1,1315,428,2.52119,15.9994
98,596,3.05383,-15.4365,0,0,0,0,0,0,0,-1,1322,428,3.05381,15.4365
105,596,3.06738,-15.5963,0,0,0,0,0,0,0,-1,1329,428,3.06743,15.5963
112,596,3.08179,-15.5855,0.00720441,-0.0442231,-0.00126274,0.00723539,-0.0442541,-0.0245342,0.0321868,0.0415355,1336,428,3.08173,15.5855
119,596,3.06238,-15.5644,0.00580215,-0.0432547,-0.000622952,0.00581006,-0.0432626,-0.0126958,0.0309607,0.0438022,1343,428,3.06235,15.5644
126,596,2.96973,-15.592,0.00429124,-0.0417179,6.02137e-05,0.00429132,-0.041718,0.00130873,0.0293472,0.046332,1350,428,2.96971,15.592
133,596,2.87646,-15.5722,0.00317808,-0.0401289,0.000360173,0.00318108,-0.0401319,0.00831596,0.0278755,0.0455183,1357,428,2.87652,15.5722
140,596,3.25525,-15.4631,0.00263035,-0.0376181,5.61514e-05,0.00263043,-0.0376181,0.00139512,0.026,0.0425719,1364,428,3.25519,15.4631
147,596,3.15613,-15.3783,0.00182028,-0.0348883,-0.000449768,0.00182579,-0.0348938,-0.0122499,0.0238944,0.0368677,1371,428,3.1561,15.3783
154,596,3.03125,-15.2367,0.00100744,-0.0315158,-0.00057917,0.00101776,-0.0315261,-0.0178004,0.0213647,0.0442629,1378,428,3.03126,15.2367
161,596,3.04651,-15.2036,0.000802889,-0.026055,-0.000443612,0.000810214,-0.0260624,-0.016511,0.0176512,0.0475247,1385,428,3.04648,15.2036
168,596,3.05554,-15.1299,0,0,0,0,0,0,0,-1,1392,428,3.05557,15.1299
175,596,3.37463,-15.0594,0,0,0,0,0,0,0,-1,1399,428,3.37468,15.0594
182,596,3.47253,-15.1024,0,0,0,0,0,0,0,-1,1406,428,3.47254,15.1024
189,596,3.41577,-14.9621,0,0,0,0,0,0,0,-1,1413,428,3.41581,14.9621
196,596,3.31262,-14.6955,0,0,0,0,0,0,0,-1,1420,428,3.31259,14.6955
203,596,3.20703,-14.7827,0,0,0,0,0,0,0,-1,1427,428,3.20704,14.7827
210,596,3.18652,-14.7485,0,0,0,0,0,0,0,-1,1434,428,3.18656,14.7485
217,596,3.21399,-14.6056,0.00326744,0.00104881,-0.00227256,0.00468698,-0.00037073,-0.558343,0.00325527,0.0196993,1441,428,3.21401,14.6056
224,596,3.25818,-14.4729,0.00285128,0.00182217,-0.00184037,0.00424768,0.00042578,-0.649082,0.00270107,0.0120481,1448,428,3.2582,14.4729
231,596,3.29297,-14.315,0.00243007,0.0025479,-0.00143764,0.00392783,0.00105015,-0.805877,0.00234813,0.0119228,1455,428,3.29302,14.315
238,596,3.30627,-14.1701,0.00219936,0.00294253,-0.00111012,0.0037416,0.00140028,-0.946899,0.00218287,0.0142196,1462,428,3.30623,14.1701
245,596,3.32507,-14.0349,0.00206582,0.00333116,-0.000797716,0.00371664,0.00168035,-1.12066,0.00214908,0.0124701,1469,428,3.32513,14.0349
252,596,3.32813,-13.8789,0.00189949,0.00343791,-0.000496274,0.00358411,0.00175329,-1.28431,0.00206945,0.00904215,1476,428,3.32817,13.8789
259,596,3.32568,-13.7213,0.00168127,0.0033271,-0.000258371,0.00336671,0.00164166,-1.41868,0.00194397,0.00854123,1483,428,3.32565,13.7213
266,596,3.31421,-13.5661,0.00147481,0.00311381,-5.9542e-05,0.00311597,0.00147265,-1.53453,0.00179991,0.0105501,1490,428,3.3142,13.5661
273,596,3.32104,-13.4041,0.00123804,0.00273029,2.71736e-05,0.00273079,0.00123754,1.55259,0.00157892,0.0126075,1497,428,3.3211,13.4041
280,596,3.34998,-13.228,0.000936419,0.00237884,0.00011467,0.0023879,0.00092736,1.49196,0.00139007,0.01267,1504,428,3.34992,13.228
287,596,3.35742,-13.059,0.000774249,0.00200072,0.000228111,0.00204177,0.000733197,1.39274,0.00119432,0.0110452,1511,428,3.35743,13.059
294,596,3.34387,-12.9047,0.000628244,0.00151282,0.000233695,0.00157076,0.0005703,1.32775,0.000918146,0.00911113,1518,428,3.34385,12.9047
301,596,3.34277,-12.7182,0.000439298,0.00092949,0.000155789,0.000974811,0.000393977,1.2877,0.000566244,0.0105356,1525,428,3.34272,12.7182
308,596,3.36682,-12.5247,0.000312877,0.000479575,9.46819e-05,0.000522368,0.000270085,1.14631,0.000301647,0.0169495,1532,428,3.36676,12.5247
315,596,3.34998,-12.3401,0.000193075,0.000122703,7.05318e-05,0.00023671,7.90675e-05,0.554026,0.000139152,0.0152813,1539,428,3.35001,12.3401
322,596,3.34631,-12.1274,6.22692e-05,-7.45913e-05,0.000109059,0.000122589,-0.000134911,0.505214,0.000148724,0.0123609,1546,428,3.3463,12.1274
329,596,3.32935,-11.9327,-1.86221e-05,-7.35899e-05,0.000223529,0.000179107,-0.000271319,0.724228,0.000261864,0.0100449,1553,428,3.32932,11.9327
336,596,3.31628,-11.7455,-0.000125635,2.68084e-05,0.000342031,0.000301008,-0.000399834,0.895032,0.00040597,0.00989232,1560,428,3.31624,11.7455
343,596,3.3197,-11.5499,-0.000198092,0.000241904,0.000511656,0.000578854,-0.000535042,0.988435,0.000643274,0.0117944,1567,428,3.31965,11.5499
350,596,3.30139,-11.3298,-0.000157854,0.000880599,0.000865472,0.00137065,-0.000647903,1.05558,0.00119005,0.0111933,1574,428,3.30145,11.3298
357,596,3.29736,-11.0964,-0.000263694,0.00151511,0.001173,0.00209777,-0.000846357,1.10977,0.00175023,0.0088474,1581,428,3.2974,11.0964
364,596,3.30261,-10.8623,-0.000451297,0.00222478,0.00140964,0.0028303,-0.00105682,1.16507,0.00232078,0.00943904,1588,428,3.30261,10.8623
371,596,3.29785,-10.6445,-0.000592656,0.00303266,0.00180247,0.00377629,-0.00133629,1.17951,0.00306176,0.0110527,1595,428,3.29781,10.6445
378,596,3.27222,-10.4225,-0.000902323,0.0041665,0.00206295,0.00489996,-0.00163579,1.22919,0.00392715,0.0150123,1602,428,3.27223,10.4225
385,596,3.28223,-10.1303,-0.00158418,0.00477305,0.0017926,0.00524368,-0.00205481,1.31405,0.00434579,0.0256891,1609,428,3.28218,10.1303
392,596,3.23804,-9.8717,-0.00217599,0.00567869,0.00138372,0.00591532,-0.00241263,1.40142,0.00494787,0.0369343,1616,428,3.2381,9.8717
399,596,3.28418,-9.47986,0,0,0,0,0,0,0,-1,1623,428,3.28413,9.47987
406,596,3.19409,-8.76471,0,0,0,0,0,0,0,-1,1630,428,3.19407,8.76471
413,596,3.39124,-2.63528,0,0,0,0,0,0,0,-1,1637,428,3.39122,2.6353
420,596,2.6344,-3.06308,0,0,0,0,0,0,0,-1,1644,428,2.63439,3.06308
427,596,2.99329,-1.90512,0,0,0,0,0,0,0,-1,1651,428,2.99327,1.90512
434,596,3.80896,-0.253998,0,0,0,0,0,0,0,-1,1658,428,3.80902,0.254004
441,596,3.86401,-0.131622,0,0,0,0,0,0,0,-1,1665,428,3.86406,0.131613
448,596,1.0769,0.0083313,0,0,0,0,0,0,0,-1,1672,428,1.07684,-0.00832231
455,596,2.00769,-1.43329,0,0,0,0,0,0,0,-1,1679,428,2.00765,1.4333
462,596,0,0,0,0,0,0,0,0,0,-1,1686,428,0,0
469,596,0,0,0,0,0,0,0,0,0,-1,1693,428,0,0
476,596,0,0,0,0,0,0,0,0,0,-1,1700,428,0,0
483,596,0,0,0,0,0,0,0,0,0,-1,1707,428,0,0
490,596,0,0,0,0,0,0,0,0,0,-1,1714,428,0,0
497,596,0,0,0,0,0,0,0,0,0,-1,1721,428,0,0
504,596,0,0,0,0,0,0,0,0,0,-1,1728,428,0,0
511,596,0,0,0,0,0,0,0,0,0,-1,1735,428,0,0
518,596,0,0,0,0,0,0,0,0,0,-1,1742,428,0,0
525,596,0,0,0,0,0,0,0,0,0,-1,1749,428,0,0
532,596,0,0,0,0,0,0,0,0,0,-1,1756,428,0,0
539,596,0,0,0,0,0,0,0,0,0,-1,1763,428,0,0
546,596,0,0,0,0,0,0,0,0,0,-1,1770,428,0,0
553,596,0,0,0,0,0,0,0,0,0,-1,1777,428,0,0
560,596,0,0,0,0,0,0,0,0,0,-1,1784,428,0,0
567,596,0,0,0,0,0,0,0,0,0,-1,1791,428,0,0
574,596,0,0,0,0,0,0,0,0,0,-1,1798,428,0,0
581,596,0,0,0,0,0,0,0,0,0,-1,1805,428,0,0
588,596,0,0,0,0,0,0,0,0,0,-1,1812,428,0,0
595,596,0,0,0,0,0,0,0,0,0,-1,1819,428,0,0
602,596,0,0,0,0,0,0,0,0,0,-1,1826,428,0,0
609,596,0,0,0,0,0,0,0,0,0,-1,1833,428,0,0
616,596,0,0,0,0,0,0,0,0,0,-1,1840,428,0,0
623,596,0,0,0,0,0,0,0,0,0,-1,1847,428,0,0
630,596,0,0,0,0,0,0,0,0,0,-1,1854,428,0,0
637,596,0,0,0,0,0,0,0,0,0,-1,1861,428,0,0
644,596,0,0,0,0,0,0,0,0,0,-1,1868,428,0,0
651,596,0,0,0,0,0,0,0,0,0,-1,1875,428,0,0
658,596,0,0,0,0,0,0,0,0,0,-1,1882,428,0,0
665,596,0,0,0,0,0,0,0,0,0,-1,1889,428,0,0
672,596,0,0,0,0,0,0,0,0,0,-1,1896,428,0,0
679,596,0,0,0,0,0,0,0,0,0,-1,1903,428,0,0
686,596,0,0,0,0,0,0,0,0,0,-1,1910,428,0,0
693,596,0,0,0,0,0,0,0,0,0,-1,1917,428,0,0
700,596,0,0,0,0,0,0,0,0,0,-1,1924,428,0,0
707,596,0,0,0,0,0,0,0,0,0,-1,1931,428,0,0
714,596,0,0,0,0,0,0,0,0,0,-1,1938,428,0,0
721,596,0,0,0,0,0,0,0,0,0,-1,1945,428,0,0
728,596,0,0,0,0,0,0,0,0,0,-1,1952,428,0,0
735,596,0,0,0,0,0,0,0,0,0,-1,1959,428,0,0
742,596,0,0,0,0,0,0,0,0,0,-1,1966,428,0,0
749,596,0,0,0,0,0,0,0,0,0,-1,1973,428,0,0
756,596,0,0,0,0,0,0,0,0,0,-1,1980,428,0,0
763,596,0,0,0,0,0,0,0,0,0,-1,1987,428,0,0
770,596,0,0,0,0,0,0,0,0,0,-1,1994,428,0,0
777,596,0,0,0,0,0,0,0,0,0,-1,2001,428,0,0
784,596,0,0,0,0,0,0,0,0,0,-1,2008,428,0,0
791,596,0,0,0,0,0,0,0,0,0,-1,2015,428,0,0
798,596,0,0,0,0,0,0,0,0,0,-1,2022,428,0,0
805,596,0,0,0,0,0,0,0,0,0,-1,2029,428,0,0
812,596,0,0,0,0,0,0,0,0,0,-1,2036,428,0,0
-700,589,0,0,0,0,0,0,0,0,0,-1,524,435,0,0
-693,589,0,0,0,0,0,0,0,0,0,-1,531,435,0,0
-686,589,0,0,0,0,0,0,0,0,0,-1,538,435,0,0
-679,589,0,0,0,0,0,0,0,0,0,-1,545,435,0,0
-672,589,0,0,0,0,0,0,0,0,0,-1,552,435,0,0
-665,589,0,0,0,0,0,0,0,0,0,-1,559,435,0,0
-658,589,0,0,0,0,0,0,0,0,0,-1,566,435,0,0
-651,589,0,0,0,0,0,0,0,0,0,-1,573,435,0,0
-644,589,0,0,0,0,0,0,0,0,0,-1,580,435,0,0
-637,589,0,0,0,0,0,0,0,0,0,-1,587,435,0,0
-630,589,0,0,0,0,0,0,0,0,0,-1,594,435,0,0
-623,589,0,0,0,0,0,0,0,0,0,-1,601,435,0,0
-616,589,0,0,0,0,0,0,0,0,0,-1,608,435,0,0
-609,589,0,0,0,0,0,0,0,0,0,-1,615,435,0,0
-602,589,0,0,0,0,0,0,0,0,0,-1,622,435,0,0
-595,589,0,0,0,0,0,0,0,0,0,-1,629,435,0,0
-588,589,0,0,0,0,0,0,0,0,0,-1,636,435,0,0
-581,589,0,0,0,0,0,0,0,0,0,-1,643,435,0,0
-574,589,0,0,0,0,0,0,0,0,0,-1,650,435,0,0
-567,589,0,0,0,0,0,0,0,0,0,-1,657,435,0,0
-560,589,0,0,0,0,0,0,0,0,0,-1,664,435,0,0
-553,589,0,0,0,0,0,0,0,0,0,-1,671,435,0,0
-546,589,0,0,0,0,0,0,0,0,0,-1,678,435,0,0
-539,589,0,0,0,0,0,0,0,0,0,-1,685,435,0,0
-532,589,0,0,0,0,0,0,0,0,0,-1,692,435,0,0
-525,589,0,0,0,0,0,0,0,0,0,-1,699,435,0,0
-518,589,0,0,0,0,0,0,0,0,0,-1,706,435,0,0
-511,589,0,0,0,0,0,0,0,0,0,-1,713,435,0,0
-504,589,0,0,0,0,0,0,0,0,0,-1,720,435,0,0
-497,589,0,0,0,0,0,0,0,0,0,-1,727,435,0,0
-490,589,0,0,0,0,0,0,0,0,0,-1,734,435,0,0
-483,589,0,0,0,0,0,0,0,0,0,-1,741,435,0,0
-476,589,0,0,0,0,0,0,0,0,0,-1,748,435,0,0
-469,589,0,0,0,0,0,0,0,0,0,-1,755,435,0,0
-462,589,0,0,0,0,0,0,0,0,0,-1,762,435,0,0
-455,589,0,0,0,0,0,0,0,0,0,-1,769,435,0,0
-448,589,0,0,0,0,0,0,0,0,0,-1,776,435,0,0
-441,589,0,0,0,0,0,0,0,0,0,-1,783,435,0,0
-434,589,0,0,0,0,0,0,0,0,0,-1,790,435,0,0
-427,589,0,0,0,0,0,0,0,0,0,-1,797,435,0,0
-420,589,0,0,0,0,0,0,0,0,0,-1,804,435,0,0
-413,589,0,0,0,0,0,0,0,0,0,-1,811,435,0,0
-406,589,0,0,0,0,0,0,0,0,0,-1,818,435,0,0
-399,589,0,0,0,0,0,0,0,0,0,-1,825,435,0,0
-392,589,0,0,0,0,0,0,0,0,0,-1,832,435,0,0
-385,589,0,0,0,0,0,0,0,0,0,-1,839,435,0,0
-378,589,0,0,0,0,0,0,0,0,0,-1,846,435,0,0
-371,589,0,0,0,0,0,0,0,0,0,-1,853,435,0,0
-364,589,0,0,0,0,0,0,0,0,0,-1,860,435,0,0
-357,589,0,0,0,0,0,0,0,0,0,-1,867,435,0,0
-350,589,-0.262695,-13.5742,0,0,0,0,0,0,0,-1,874,435,-0.262715,13.5742
-343,589,0.187195,-13.2853,0,0,0,0,0,0,0,-1,881,435,0.187181,13.2853
-336,589,0.677856,-12.7685,0,0,0,0,0,0,0,-1,888,435,0.677838,12.7685
-329,589,0.0882568,-9.79782,0,0,0,0,0,0,0,-1,895,435,0.0882795,9.79781
-322,589,1.23315,-8.96872,0,0,0,0,0,0,0,-1,902,435,1.23317,8.96873
-315,589,0.836182,-9.40192,0,0,0,0,0,0,0,-1,909,435,0.836191,9.40192
-308,589,0.97876,-8.36142,0,0,0,0,0,0,0,-1,916,435,0.978778,8.36143
-301,589,1.23108,-8.88892,0.0159852,0.00720824,0.00692203,0.0197926,0.00340079,0.50288,0.0122203,0.0472934,923,435,1.23106,8.88893
-294,589,1.55951,-9.38809,0.0142629,0.00581531,0.00462539,0.0163029,0.00377536,0.415374,0.00985424,0.0442132,930,435,1.55951,9.38808
-287,589,1.93109,-9.8811,0.0125051,0.00459211,0.00252541,0.0132424,0.00385483,0.28405,0.0078648,0.0414415,937,435,1.9311,9.8811
-280,589,2.01068,-10.4698,0.0101617,0.00383222,0.000786921,0.0102581,0.00373585,0.121855,0.00599489,0.0328408,944,435,2.01065,10.4699
-273,589,1.94739,-10.856,0.00781059,0.00337302,-0.000731718,0.00792813,0.00325548,-0.159276,0.00460162,0.020221,951,435,1.9474,10.856
-266,589,1.92297,-11.0874,0.0058288,0.00274235,-0.00160251,0.00651034,0.00206081,-0.402121,0.00384216,0.0167949,958,435,1.92294,11.0874
-259,589,1.88702,-11.2928,0.00409556,0.00238887,-0.00238185,0.00577231,0.000712117,-0.613386,0.00363417,0.0145225,965,435,1.88703,11.2929
-252,589,1.87201,-11.5241,0.00273294,0.0023431,-0.00266296,0.00520811,-0.000132065,-0.748865,0.00351692,0.0101883,972,435,1.87201,11.5241
-245,589,1.87103,-11.7182,0.00147048,0.00250273,-0.00306293,0.00509271,-0.0011195,-0.868868,0.00382334,0.0103872,979,435,1.87101,11.7182
-238,589,1.85706,-11.9124,0.000451837,0.0021135,-0.0026631,0.00407236,-0.00150702,-0.936604,0.00333282,0.013747,986,435,1.85707,11.9124
-231,589,1.8363,-12.1097,-0.000227013,0.00203404,-0.00212282,0.0033086,-0.00150157,-1.03008,0.00284173,0.0147517,993,435,1.83632,12.1097
-224,589,1.79443,-12.3283,-0.000463574,0.00210811,-0.00146708,0.00277309,-0.00112855,-1.14523,0.00231836,0.0141578,1000,435,1.79446,12.3283
-217,589,1.80585,-12.5242,-0.000558627,0.00211593,-0.000962811,0.00242648,-0.000869171,-1.25879,0.00197228,0.013785,1007,435,1.80582,12.5242
-210,589,1.82007,-12.7063,-0.000511595,0.00203724,-0.000606713,0.00217429,-0.000648645,-1.34864,0.00170732,0.0125896,1014,435,1.82009,12.7063
-203,589,1.81598,-12.8662,-0.000326157,0.00167868,-0.000198774,0.0016982,-0.000345675,-1.47292,0.00126322,0.0100547,1021,435,1.81596,12.8662
-196,589,1.81531,-13.0352,-7.59126e-05,0.00145183,-2.62994e-05,0.00145228,-7.63652e-05,-1.55359,0.000994618,0.0121121,1028,435,1.81536,13.0352
-189,589,1.79541,-13.2625,0.00031922,0.00109404,-8.87759e-05,0.00110408,0.000309178,-1.45817,0.000657685,0.0153704,1035,435,1.79544,13.2624
-182,589,1.78088,-13.3837,0.00109949,0.000755352,-0.000399721,0.0013626,0.000492237,-0.582152,0.000796731,0.0124319,1042,435,1.78094,13.3837
-175,589,1.78528,-13.5173,0.00183194,0.000367148,-0.000700883,0.00211327,8.58173e-05,-0.381708,0.00138113,0.0156401,1049,435,1.78526,13.5173
-168,589,1.82275,-13.6888,0.00246471,7.99005e-05,-0.00104841,0.00286006,-0.000315459,-0.360614,0.00202009,0.0132624,1056,435,1.82275,13.6888
-161,589,1.8302,-13.8565,0.00284965,-3.53295e-05,-0.00146644,0.00346416,-0.000649836,-0.396816,0.00255376,0.0121372,1063,435,1.83026,13.8565
-154,589,1.83423,-14.0058,0.00302691,5.59185e-05,-0.00164367,0.00375689,-0.000674061,-0.417951,0.00275689,0.0118678,1070,435,1.83428,14.0058
-147,589,1.849,-14.1415,0.00343633,0.000122222,-0.00196525,0.00434989,-0.000791337,-0.435139,0.00319652,0.0119619,1077,435,1.84904,14.1415
-140,589,1.86035,-14.2628,0.00356193,0.000141974,-0.00225906,0.00468521,-0.000981309,-0.461433,0.00349678,0.012228,1084,435,1.86038,14.2628
-133,589,1.88586,-14.3961,0.00346238,0.000130928,-0.00241156,0.00472757,-0.00113426,-0.483161,0.00359004,0.0118486,1091,435,1.88582,14.3961
-126,589,1.90356,-14.5238,0.00314411,0.000104914,-0.00248776,0.00453967,-0.00129064,-0.511225,0.00353606,0.0095609,1098,435,1.9036,14.5238
-119,589,1.87927,-14.6604,0.00271791,0.000139357,-0.00249159,0.00423402,-0.00137676,-0.546643,0.0033765,0.0151961,1105,435,1.87929,14.6604
-112,589,1.86353,-14.7858,0.00226562,0.000180585,-0.00236737,0.00380986,-0.00136365,-0.57799,0.00309622,0.0162438,1112,435,1.86357,14.7858
-105,589,1.89795,-14.9112,0.00177256,0.000361227,-0.00219438,0.00337195,-0.00123816,-0.62983,0.00275504,0.0157676,1119,435,1.89794,14.9112
-98,589,1.98157,-14.9842,0.00131431,0.000554952,-0.00182173,0.0027955,-0.00092624,-0.68266,0.00223727,0.0171985,1126,435,1.98156,14.9842
-91,589,2.02649,-15.1038,0.00144661,0.00105757,-0.00168768,0.00295094,-0.000446762,-0.728023,0.00213188,0.025417,1133,435,2.02643,15.1038
-84,589,2.01721,-15.4207,0,0,0,0,0,0,0,-1,1140,435,2.01719,15.4207
-77,589,2.18152,-14.8023,0,0,0,0,0,0,0,-1,1147,435,2.18155,14.8023
-70,589,1.48267,-9.90961,0,0,0,0,0,0,0,-1,1154,435,1.48264,9.9096
-63,589,0.880127,-5.50586,0,0,0,0,0,0,0,-1,1161,435,0.880186,5.50587
-56,589,-2.78052,-7.28082,0,0,0,0,0,0,0,-1,1168,435,-2.78053,7.28082
-49,589,-0.525757,-2.76703,0,0,0,0,0,0,0,-1,1175,435,-0.525771,2.76702
-42,589,-2.7738,-2.87921,0,0,0,0,0,0,0,-1,1182,435,-2.77383,2.87922
-35,589,-2.55225,-3.27551,0,0,0,0,0,0,0,-1,1189,435,-2.55223,3.27552
-28,589,-0.0632324,-3.42938,0,0,0,0,0,0,0,-1,1196,435,-0.063241,3.42938
-21,589,2.16626,-15.2681,0,0,0,0,0,0,0,-1,1203,435,2.16628,15.2681
-14,589,2.12061,-15.6139,0,0,0,0,0,0,0,-1,1210,435,2.12065,15.6139
-7,589,2.42175,-16.0477,0,0,0,0,0,0,0,-1,1217,435,2.42177,16.0477
0,589,1.95313,-16.2163,0,0,0,0,0,0,0,-1,1224,435,1.95308,16.2163
7,589,2.23035,-15.8752,0,0,0,0,0,0,0,-1,1231,435,2.23037,15.8753
14,589,1.90454,-15.8939,0,0,0,0,0,0,0,-1,1238,435,1.90453,15.8938
21,589,2.36621,-15.8822,0,0,0,0,0,0,0,-1,1245,435,2.36622,15.8822
28,589,2.30859,-15.9151,0,0,0,0,0,0,0,-1,1252,435,2.3086,15.9151
35,589,2.44507,-15.5115,0,0,0,0,0,0,0,-1,1259,435,2.44503,15.5115
42,589,2.93347,-15.9449,0,0,0,0,0,0,0,-1,1266,435,2.93349,15.9448
49,589,2.61646,-16.2198,0.00598178,-0.0357487,-0.0071586,0.00717563,-0.0369425,-0.165252,0.027336,0.0468957,1273,435,2.61647,16.2197
56,589,2.54297,-16.2405,0.00795265,-0.0393659,-0.0072414,0.00903604,-0.0404493,-0.148508,0.0304288,0.0432454,1280,435,2.54292,16.2405
63,589,2.52014,-16.047,0.00964928,-0.043174,-0.00711382,0.0105905,-0.0441153,-0.13155,0.0335031,0.041894,1287,435,2.52014,16.047
70,589,2.24866,-15.3875,0.0108879,-0.0461141,-0.00646955,0.011613,-0.0468391,-0.111606,0.0357318,0.0391612,1294,435,2.24869,15.3874
77,589,2.55334,-15.4677,0.0115855,-0.0487279,-0.00552177,0.0120869,-0.0492292,-0.0905484,0.0375034,0.0390671,1301,435,2.55334,15.4677
84,589,2.6571,-15.756,0.0122413,-0.0516544,-0.00460858,0.012572,-0.0519851,-0.0716324,0.0395197,0.0390741,1308,435,2.65713,15.756
91,589,3.04968,-15.4895,0.0122698,-0.0539776,-0.00354779,0.0124593,-0.0541671,-0.0533503,0.040902,0.0404602,1315,435,3.04964,15.4895
98,589,3.58923,-15.3585,0.0114022,-0.0557601,-0.00248399,0.0114939,-0.0558518,-0.0369177,0.0415986,0.0454115,1322,435,3.58921,15.3585
105,589,4.07837,-15.4179,0,0,0,0,0,0,0,-1,1329,435,4.07832,15.4179
112,589,3.14685,-15.464,0,0,0,0,0,0,0,-1,1336,435,3.14683,15.464
119,589,2.95288,-15.4982,0,0,0,0,0,0,0,-1,1343,435,2.95287,15.4982
126,589,2.93628,-15.4759,0,0,0,0,0,0,0,-1,1350,435,2.93634,15.4759
133,589,2.8147,-15.5724,0,0,0,0,0,0,0,-1,1357,435,2.81473,15.5724
140,589,3.45068,-15.3784,0,0,0,0,0,0,0,-1,1364,435,3.45074,15.3784
147,589,3.48108,-15.1825,0,0,0,0,0,0,0,-1,1371,435,3.48112,15.1825
154,589,3.14758,-15.0323,0,0,0,0,0,0,0,-1,1378,435,3.14757,15.0323
161,589,3.24536,-14.9071,0,0,0,0,0,0,0,-1,1385,435,3.24533,14.9071
168,589,3.73804,-14.7879,0,0,0,0,0,0,0,-1,1392,435,3.73803,14.7879
175,589,8.66992,-7.65527,0,0,0,0,0,0,0,-1,1399,435,8.66994,7.65528
182,589,3.8136,-2.45389,0,0,0,0,0,0,0,-1,1406,435,3.81363,2.4539
189,589,3.69983,-3.68149,0,0,0,0,0,0,0,-1,1413,435,3.69987,3.68147
196,589,3.31055,-5.31677,0,0,0,0,0,0,0,-1,1420,435,3.31059,5.31678
203,589,2.72559,-8.84338,0,0,0,0,0,0,0,-1,1427,435,2.72558,8.84338
210,589,3.62378,-14.4032,0,0,0,0,0,0,0,-1,1434,435,3.62378,14.4032
217,589,3.3396,-14.6004,0,0,0,0,0,0,0,-1,1441,435,3.33957,14.6004
224,589,3.40442,-14.4843,0.0039737,0.00240581,-0.00250576,0.00581529,0.00056423,-0.633793,0.00370314,0.0211496,1448,435,3.40445,14.4843
231,589,3.43274,-14.3563,0.00343372,0.00337237,-0.00203195,0.00543523,0.00137086,-0.777851,0.00326395,0.0199567,1455,435,3.43279,14.3563
238,589,3.46191,-14.227,0.00309342,0.00379485,-0.00169894,0.00517889,0.00170938,-0.887185,0.00304706,0.0224646,1462,435,3.46193,14.227
245,589,3.48511,-14.0149,0.00289999,0.00423713,-0.00134349,0.00506922,0.00206791,-1.01628,0.0029432,0.0202806,1469,435,3.48514,14.0149
252,589,3.50391,-13.8682,0.00266418,0.00421901,-0.000970546,0.00468511,0.00219808,-1.12308,0.00270666,0.0130659,1476,435,3.50389,13.8681
259,589,3.49426,-13.7216,0.00238178,0.00392573,-0.000694527,0.00419217,0.00211534,-1.20448,0.00242038,0.00899128,1483,435,3.49426,13.7217
266,589,3.49414,-13.5531,0.00214022,0.00353702,-0.000415693,0.00365137,0.00202587,-1.30235,0.00211234,0.00917911,1490,435,3.4941,13.5531
273,589,3.49915,-13.412,0.00183504,0.00297891,-0.000276333,0.00304217,0.00177178,-1.34576,0.00176433,0.0122147,1497,435,3.49914,13.412
280,589,3.51868,-13.2567,0.00141417,0.00249346,-0.000162085,0.00251727,0.00139035,-1.42491,0.001456,0.0131071,1504,435,3.51869,13.2567
287,589,3.53564,-13.0865,0.00117183,0.00209392,-2.48879e-05,0.00209459,0.00117116,-1.54383,0.00121213,0.0111867,1511,435,3.53565,13.0865
294,589,3.53174,-12.9081,0.0009962,0.0015202,1.33041e-05,0.00152053,0.000995863,1.54543,0.00089182,0.0101329,1518,435,3.5317,12.9081
301,589,3.52832,-12.7143,0.000757536,0.000872103,-4.94822e-05,0.000890516,0.000739124,-1.21457,0.0005502,0.0107304,1525,435,3.52838,12.7143
308,589,3.54224,-12.5186,0.000557017,0.000407619,-0.000120965,0.000624489,0.000340147,-0.508795,0.000361028,0.0110362,1532,435,3.54228,12.5186
315,589,3.54858,-12.3262,0.000374134,9.90566e-05,-0.000155812,0.000444428,2.87627e-05,-0.423805,0.000287178,0.0105043,1539,435,3.5486,12.3262
322,589,3.55164,-12.1434,0.000184871,-4.26366e-05,-0.00012571,0.000240654,-9.84204e-05,-0.417644,0.000201424,0.0107715,1546,435,3.55158,12.1434
329,589,3.53906,-11.9492,6.35875e-05,1.75648e-06,-1.03586e-05,6.52767e-05,6.72371e-08,-0.161653,4.34954e-05,0.00993152,1553,435,3.53901,11.9492
336,589,3.5282,-11.7534,-4.20924e-05,0.000137537,0.000130475,0.000206121,-0.000110677,1.08684,0.00018565,0.00989239,1560,435,3.52816,11.7533
343,589,3.52356,-11.555,-0.000141054,0.000380166,0.000318931,0.000531423,-0.000292311,1.12795,0.000482216,0.0107303,1567,435,3.52361,11.555
350,589,3.51331,-11.3344,-0.000133111,0.000927741,0.00064116,0.00122944,-0.000434813,1.13098,0.0009967,0.015267,1574,435,3.51325,11.3344
357,589,3.50964,-11.0921,-0.000209457,0.00150644,0.000927834,0.0019122,-0.000615213,1.15854,0.0015219,0.0126627,1581,435,3.50965,11.0921
364,589,3.51208,-10.8608,-0.000338644,0.00212454,0.00117416,0.00259456,-0.000808657,1.19003,0.00205305,0.0103972,1588,435,3.51206,10.8608
371,589,3.505,-10.6422,-0.000440633,0.00278168,0.00149675,0.00336963,-0.00102858,1.1965,0.00265651,0.0106179,1595,435,3.50504,10.6422
378,589,3.49646,-10.4037,-0.000673732,0.00355101,0.00169495,0.00414696,-0.00126968,1.2327,0.00327106,0.0122972,1602,435,3.49646,10.4037
385,589,3.4967,-10.1712,-0.00114755,0.00394043,0.00152423,0.0043621,-0.00156923,1.3009,0.00354874,0.015447,1609,435,3.49668,10.1712
392,589,3.49268,-9.90479,-0.0015129,0.00440621,0.00127435,0.00466891,-0.0017756,1.3675,0.0038437,0.0173102,1616,435,3.49266,9.90479
399,589,3.49255,-9.5914,-0.00135217,0.0043526,0.00135122,0.00465646,-0.00165603,1.3496,0.00377926,0.0249164,1623,435,3.49259,9.59141
406,589,3.48669,-9.33896,0,0,0,0,0,0,0,-1,1630,435,3.48666,9.33896
413,589,3.34875,-9.30112,0,0,0,0,0,0,0,-1,1637,435,3.34881,9.3011
420,589,2.79724,-5.79956,0,0,0,0,0,0,0,-1,1644,435,2.7973,5.79955
427,589,2.87976,-5.28177,0,0,0,0,0,0,0,-1,1651,435,2.87972,5.28177
434,589,2.52734,-2.73029,0,0,0,0,0,0,0,-1,1658,435,2.52736,2.73029
441,589,3.17639,-2.02435,0,0,0,0,0,0,0,-1,1665,435,3.17643,2.02435
448,589,0.453735,-3.2868,0,0,0,0,0,0,0,-1,1672,435,0.453701,3.28681
455,589,0.664307,-3.46848,0,0,0,0,0,0,0,-1,1679,435,0.66425,3.46846
462,589,3.46716,-4.41891,0,0,0,0,0,0,0,-1,1686,435,3.4672,4.41891
469,589,0.0238037,-3.81497,0,0,0,0,0,0,0,-1,1693,435,0.0237965,3.81498
476,589,0,0,0,0,0,0,0,0,0,-1,1700,435,0,0
483,589,0,0,0,0,0,0,0,0,0,-1,1707,435,0,0
490,589,0,0,0,0,0,0,0,0,0,-1,1714,435,0,0
497,589,0,0,0,0,0,0,0,0,0,-1,1721,435,0,0
504,589,0,0,0,0,0,0,0,0,0,-1,1728,435,0,0
511,589,0,0,0,0,0,0,0,0,0,-1,1735,435,0,0
518,589,0,0,0,0,0,0,0,0,0,-1,1742,435,0,0
525,589,0,0,0,0,0,0,0,0,0,-1,1749,435,0,0
532,589,0,0,0,0,0,0,0,0,0,-1,1756,435,0,0
539,589,0,0,0,0,0,0,0,0,0,-1,1763,435,0,0
546,589,0,0,0,0,0,0,0,0,0,-1,1770,435,0,0
553,589,0,0,0,0,0,0,0,0,0,-1,1777,435,0,0
560,589,0,0,0,0,0,0,0,0,0,-1,1784,435,0,0
567,589,0,0,0,0,0,0,0,0,0,-1,1791,435,0,0
574,589,0,0,0,0,0,0,0,0,0,-1,1798,435,0,0
581,589,0,0,0,0,0,0,0,0,0,-1,1805,435,0,0
588,589,0,0,0,0,0,0,0,0,0,-1,1812,435,0,0
595,589,0,0,0,0,0,0,0,0,0,-1,1819,435,0,0
602,589,0,0,0,0,0,0,0,0,0,-1,1826,435,0,0
609,589,0,0,0,0,0,0,0,0,0,-1,1833,435,0,0
616,589,0,0,0,0,0,0,0,0,0,-1,1840,435,0,0
623,589,0,0,0,0,0,0,0,0,0,-1,1847,435,0,0
630,589,0,0,0,0,0,0,0,0,0,-1,1854,435,0,0
637,589,0,0,0,0,0,0,0,0,0,-1,1861,435,0,0
644,589,0,0,0,0,0,0,0,0,0,-1,1868,435,0,0
651,589,0,0,0,0,0,0,0,0,0,-1,1875,435,0,0
658,589,0,0,0,0,0,0,0,0,0,-1,1882,435,0,0
665,589,0,0,0,0,0,0,0,0,0,-1,1889,435,0,0
672,589,0,0,0,0,0,0,0,0,0,-1,1896,435,0,0
679,589,0,0,0,0,0,0,0,0,0,-1,1903,435,0,0
686,589,0,0,0,0,0,0,0,0,0,-1,1910,435,0,0
693,589,0,0,0,0,0,0,0,0,0,-1,1917,435,0,0
700,589,0,0,0,0,0,0,0,0,0,-1,1924,435,0,0
707,589,0,0,0,0,0,0,0,0,0,-1,1931,435,0,0
714,589,0,0,0,0,0,0,0,0,0,-1,1938,435,0,0
721,589,0,0,0,0,0,0,0,0,0,-1,1945,435,0,0
728,589,0,0,0,0,0,0,0,0,0,-1,1952,435,0,0
735,589,0,0,0,0,0,0,0,0,0,-1,1959,435,0,0
742,589,0,0,0,0,0,0,0,0,0,-1,1966,435,0,0
749,589,0,0,0,0,0,0,0,0,0,-1,1973,435,0,0
756,589,0,0,0,0,0,0,0,0,0,-1,1980,435,0,0
763,589,0,0,0,0,0,0,0,0,0,-1,1987,435,0,0
770,589,0,0,0,0,0,0,0,0,0,-1,1994,435,0,0
777,589,0,0,0,0,0,0,0,0,0,-1,2001,435,0,0
784,589,0,0,0,0,0,0,0,0,0,-1,2008,435,0,0
791,589,0,0,0,0,0,0,0,0,0,-1,2015,435,0,0
798,589,0,0,0,0,0,0,0,0,0,-1,2022,435,0,0
805,589,0,0,0,0,0,0,0,0,0,-1,2029,435,0,0
812,589,0,0,0,0,0,0,0,0,0,-1,2036,435,0,0
-700,582,0,0,0,0,0,0,0,0,0,-1,524,442,0,0
-693,582,0,0,0,0,0,0,0,0,0,-1,531,442,0,0
-686,582,0,0,0,0,0,0,0,0,0,-1,538,442,0,0
-679,582,0,0,0,0,0,0,0,0,0,-1,545,442,0,0
-672,582,0,0,0,0,0,0,0,0,0,-1,552,442,0,0
-665,582,0,0,0,0,0,0,0,0,0,-1,559,442,0,0
-658,582,0,0,0,0,0,0,0,0,0,-1,566,442,0,0
-651,582,0,0,0,0,0,0,0,0,0,-1,573,442,0,0
-644,582,0,0,0,0,0,0,0,0,0,-1,580,442,0,0
-637,582,0,0,0,0,0,0,0,0,0,-1,587,442,0,0
-630,582,0,0,0,0,0,0,0,0,0,-1,594,442,0,0
-623,582,0,0,0,0,0,0,0,0,0,-1,601,442,0,0
-616,582,0,0,0,0,0,0,0,0,0,-1,608,442,0,0
-609,582,0,0,0,0,0,0,0,0,0,-1,615,442,0,0
-602,582,0,0,0,0,0,0,0,0,0,-1,622,442,0,0
-595,582,0,0,0,0,0,0,0,0,0,-1,629,442,0,0
-588,582,0,0,0,0,0,0,0,0,0,-1,636,442,0,0
-581,582,0,0,0,0,0,0,0,0,0,-1,643,442,0,0
-574,582,0,0,0,0,0,0,0,0,0,-1,650,442,0,0
-567,582,0,0,0,0,0,0,0,0,0,-1,657,442,0,0
-560,582,0,0,0,0,0,0,0,0,0,-1,664,442,0,0
-553,582,0,0,0,0,0,0,0,0,0,-1,671,442,0,0
-546,582,0,0,0,0,0,0,0,0,0,-1,678,442,0,0
-539,582,0,0,0,0,0,0,0,0,0,-1,685,442,0,0
-532,582,0,0,0,0,0,0,0,0,0,-1,692,442,0,0
-525,582,0,0,0,0,0,0,0,0,0,-1,699,442,0,0
-518,582,0,0,0,0,0,0,0,0,0,-1,706,442,0,0
-511,582,0,0,0,0,0,0,0,0,0,-1,713,442,0,0
-504,582,0,0,0,0,0,0,0,0,0,-1,720,442,0,0
-497,582,0,0,0,0,0,0,0,0,0,-1,727,442,0,0
-490,582,0,0,0,0,0,0,0,0,0,-1,734,442,0,0
-483,582,0,0,0,0,0,0,0,0,0,-1,741,442,0,0
-476,582,0,0,0,0,0,0,0,0,0,-1,748,442,0,0
-469,582,0,0,0,0,0,0,0,0,0,-1,755,442,0,0
-462,582,0,0,0,0,0,0,0,0,0,-1,762,442,0,0
-455,582,0,0,0,0,0,0,0,0,0,-1,769,442,0,0
-448,582,0,0,0,0,0,0,0,0,0,-1,776,442,0,0
-441,582,0,0,0,0,0,0,0,0,0,-1,783,442,0,0
-434,582,0,0,0,0,0,0,0,0,0,-1,790,442,0,0
-427,582,0,0,0,0,0,0,0,0,0,-1,797,442,0,0
-420,582,0,0,0,0,0,0,0,0,0,-1,804,442,0,0
-413,582,0,0,0,0,0,0,0,0,0,-1,811,442,0,0
-406,582,0,0,0,0,0,0,0,0,0,-1,818,442,0,0
-399,582,0,0,0,0,0,0,0,0,0,-1,825,442,0,0
-392,582,0,0,0,0,0,0,0,0,0,-1,832,442,0,0
-385,582,0,0,0,0,0,0,0,0,0,-1,839,442,0,0
-378,582,0,0,0,0,0,0,0,0,0,-1,846,442,0,0
-371,582,0,0,0,0,0,0,0,0,0,-1,853,442,0,0
-364,582,0,0,0,0,0,0,0,0,0,-1,860,442,0,0
-357,582,6.4043,-4.18127,0,0,0,0,0,0,0,-1,867,442,6.40427,4.18126
-350,582,-1.12933,-15.713,0,0,0,0,0,0,0,-1,874,442,-1.12935,15.713
-343,582,-0.551086,-15.4312,0,0,0,0,0,0,0,-1,881,442,-0.5511,15.4311
-336,582,0.0556641,-4.78558,0,0,0,0,0,0,0,-1,888,442,0.0556634,4.78559
-329,582,1.31299,-8.57224,0,0,0,0,0,0,0,-1,895,442,1.31298,8.57224
-322,582,1.20837,-8.75989,0.00983282,0.0077073,0.00597737,0.0148412,0.00269895,0.697419,0.00912845,0.0492307,902,442,1.20837,8.75988
-315,582,1.18396,-9.22116,0,0,0,0,0,0,0,-1,909,442,1.18396,9.22116
-308,582,1.19183,-10.0381,0,0,0,0,0,0,0,-1,916,442,1.19185,10.0381
-301,582,1.29681,-9.71533,0,0,0,0,0,0,0,-1,923,442,1.29683,9.71535
-294,582,1.3631,-9.95837,0.0100393,0.00505454,0.00320707,0.0116086,0.00348525,0.45507,0.00687826,0.0441084,930,442,1.3631,9.95837
-287,582,1.578,-10.2871,0.00895085,0.00416295,0.00199519,0.00967327,0.00344052,0.347398,0.00566189,0.0337747,937,442,1.57797,10.2871
-280,582,1.74463,-10.5965,0.00733441,0.00357891,0.000958249,0.00756479,0.00334854,0.235934,0.0043771,0.0164634,944,442,1.74461,10.5965
-273,582,1.72101,-10.8263,0.00564221,0.00314777,-2.94603e-05,0.00564256,0.00314742,-0.0118082,0.00326498,0.0109484,951,442,1.72102,10.8263
-266,582,1.6947,-11.0773,0.00419785,0.00253818,-0.000610555,0.00439826,0.00233777,-0.317161,0.00254102,0.0100959,958,442,1.69472,11.0773
-259,582,1.68134,-11.3134,0.00295001,0.00213939,-0.00122059,0.00383083,0.00125858,-0.625095,0.00225466,0.00844112,965,442,1.68132,11.3135
-252,582,1.68201,-11.5294,0.00195876,0.00193124,-0.00147765,0.00342272,0.000467286,-0.780742,0.0021431,0.00779055,972,442,1.68202,11.5295
-245,582,1.68958,-11.7347,0.00102391,0.00180425,-0.0018398,0.0032948,-0.000466638,-0.889886,0.00236746,0.0120348,979,442,1.68958,11.7347
-238,582,1.68396,-11.9177,0.000269334,0.00121379,-0.00156607,0.00237728,-0.000894158,-0.931831,0.00195239,0.0169216,986,442,1.68396,11.9177
-231,582,1.67554,-12.1227,-0.000190675,0.00087509,-0.00115377,0.0016131,-0.000928682,-1.00173,0.00148512,0.0129424,993,442,1.67552,12.1228
-224,582,1.65063,-12.3217,-0.000288913,0.000746904,-0.000640602,0.00105277,-0.000594776,-1.12534,0.000963383,0.00991601,1000,442,1.65061,12.3218
-217,582,1.62445,-12.5044,-0.000286609,0.000594197,-0.000243125,0.000656849,-0.000349261,-1.31859,0.000589857,0.0111504,1007,442,1.62446,12.5044
-210,582,1.63422,-12.6839,-0.000122027,0.000392822,3.58157e-05,0.000395301,-0.000124506,1.50167,0.000313392,0.0114862,1014,442,1.63421,12.6839
-203,582,1.65173,-12.8625,0.000258385,9.53878e-05,0.000209267,0.000401464,-4.76902e-05,0.599709,0.000284873,0.010278,1021,442,1.65173,12.8625
-196,582,1.65405,-13.0531,0.000613827,-0.000142354,0.000259139,0.000694109,-0.000222637,0.300427,0.000552123,0.0144756,1028,442,1.65405,13.0531
-189,582,1.63245,-13.2463,0.00117632,-0.000384236,0.00011693,0.00118503,-0.000392949,0.0743753,0.000948533,0.0199883,1035,442,1.63249,13.2463
-182,582,1.60522,-13.3925,0.00215129,-0.000446771,-0.000343416,0.00219591,-0.000491398,-0.129226,0.00165228,0.0152654,1042,442,1.60525,13.3925
-175,582,1.63635,-13.5015,0.00304469,-0.000548261,-0.000765914,0.00320115,-0.000704718,-0.201503,0.00240369,0.0126404,1049,442,1.63634,13.5015
-168,582,1.64844,-13.6725,0.00386844,-0.00058223,-0.00130408,0.00422239,-0.000936186,-0.265037,0.00317336,0.0109436,1056,442,1.64845,13.6725
-161,582,1.67383,-13.8409,0.0043866,-0.000546118,-0.00195666,0.00506849,-0.00122801,-0.335334,0.0038541,0.012967,1063,442,1.67378,13.8409
-154,582,1.69617,-13.9903,0.00457501,-0.000257536,-0.00228384,0.00548354,-0.00116606,-0.378615,0.00410003,0.0124237,1070,442,1.69611,13.9903
-147,582,1.71021,-14.1349,0.00508282,2.55131e-05,-0.00278626,0.00631679,-0.00120845,-0.416914,0.00466647,0.0112528,1077,442,1.71018,14.1349
-140,582,1.71936,-14.2503,0.00520491,0.000254364,-0.00323602,0.0068038,-0.00134452,-0.45891,0.00504413,0.0117748,1084,442,1.71936,14.2503
-133,582,1.7561,-14.3967,0.00496394,0.000342686,-0.00345268,0.00680782,-0.0015012,-0.490512,0.00511295,0.0143376,1091,442,1.7561,14.3967
-126,582,1.78271,-14.4937,0.00439308,0.000379243,-0.00353286,0.00644927,-0.00167695,-0.527093,0.00495402,0.0124835,1098,442,1.78273,14.4936
-119,582,1.75403,-14.5999,0.00359454,0.000352259,-0.00344019,0.00577643,-0.00182963,-0.565212,0.00458419,0.0158452,1105,442,1.75406,14.5999
-112,582,1.6991,-14.7761,0.00270636,0.000337259,-0.00318653,0.00492139,-0.00187777,-0.607445,0.00405448,0.0224917,1112,442,1.69912,14.7761
-105,582,1.65942,-14.9804,0.00166856,0.000512208,-0.00286269,0.00401088,-0.0018301,-0.685753,0.00344975,0.0317437,1119,442,1.65943,14.9804
-98,582,1.93213,-15.0366,0.000622788,0.000699336,-0.00224792,0.00290931,-0.00158719,-0.793911,0.0026332,0.036668,1126,442,1.93218,15.0366
-91,582,2.03894,-15.1045,0,0,0,0,0,0,0,-1,1133,442,2.03897,15.1045
-84,582,2.44141,-14.7665,0,0,0,0,0,0,0,-1,1140,442,2.44141,14.7665
-77,582,2.30212,-11.4907,0,0,0,0,0,0,0,-1,1147,442,2.30207,11.4907
-70,582,1.49255,-6.36548,0,0,0,0,0,0,0,-1,1154,442,1.49251,6.36549
-63,582,-4.62915,-4.0347,0,0,0,0,0,0,0,-1,1161,442,-4.6292,4.03471
-56,582,-5.81714,-5.24149,0,0,0,0,0,0,0,-1,1168,442,-5.81718,5.24149
-49,582,-3.88672,-10.1064,0,0,0,0,0,0,0,-1,1175,442,-3.88678,10.1064
-42,582,-0.948975,1.13968,0,0,0,0,0,0,0,-1,1182,442,-0.949003,-1.13969
-35,582,-2.58435,-3.86911,0,0,0,0,0,0,0,-1,1189,442,-2.58437,3.86912
-28,582,-0.825317,-3.45941,0,0,0,0,0,0,0,-1,1196,442,-0.825377,3.45942
-21,582,3.86243,-16.2553,0,0,0,0,0,0,0,-1,1203,442,3.8624,16.2553
-14,582,3.20532,-16.4276,-0.018332,0.0052023,-0.0022177,0.00540945,-0.0185392,-1.47766,0.0145029,0.0461894,1210,442,3.2053,16.4276
-7,582,2.50806,-16.6047,0,0,0,0,0,0,0,-1,1217,442,2.5081,16.6047
0,582,1.82886,-16.802,0,0,0,0,0,0,0,-1,1224,442,1.8288,16.802
7,582,2.23303,-16.0571,0,0,0,0,0,0,0,-1,1231,442,2.23305,16.0571
14,582,2.50635,-16.6089,0,0,0,0,0,0,0,-1,1238,442,2.50638,16.6089
21,582,1.70605,-15.0274,0,0,0,0,0,0,0,-1,1245,442,1.706,15.0274
28,582,2.19238,-15.887,0,0,0,0,0,0,0,-1,1252,442,2.19236,15.887
35,582,1.3009,-15.431,0,0,0,0,0,0,0,-1,1259,442,1.30088,15.431
42,582,1.81787,-15.3436,0,0,0,0,0,0,0,-1,1266,442,1.81791,15.3436
49,582,2.93054,-14.8191,0,0,0,0,0,0,0,-1,1273,442,2.93055,14.8191
56,582,3.02417,-16.447,0.00822229,-0.049847,-0.00823238,0.00936682,-0.0509915,-0.138143,0.0375085,0.0439809,1280,442,3.02415,16.447
63,582,2.76477,-15.4329,0.0105406,-0.0540608,-0.00764789,0.0114337,-0.0549539,-0.116245,0.0409823,0.0389143,1287,442,2.76473,15.4329
70,582,2.86487,-15.4543,0.0123691,-0.0574923,-0.00662223,0.0129913,-0.0581144,-0.0936792,0.0437216,0.0405391,1294,442,2.86489,15.4543
77,582,3.54456,-15.1884,0.0135075,-0.0606266,-0.00537681,0.0138954,-0.0610145,-0.0720258,0.0460129,0.0416236,1301,442,3.5445,15.1884
84,582,3.85522,-15.2773,0,0,0,0,0,0,0,-1,1308,442,3.85518,15.2773
91,582,2.96936,-14.8906,0.014555,-0.0670023,-0.00284109,0.0146538,-0.0671012,-0.0347793,0.0503348,0.0435865,1315,442,2.96941,14.8906
98,582,3.62549,-14.9144,0.0136323,-0.0692299,-0.00158322,0.0136625,-0.0692601,-0.0190974,0.0513372,0.0441572,1322,442,3.62551,14.9144
105,582,3.67139,-16.5417,0.0122939,-0.0706751,-0.00034435,0.0122954,-0.0706765,-0.00415025,0.0517057,0.0443119,1329,442,3.67135,16.5417
112,582,3.35706,-16.1714,0.0105379,-0.0705089,0.000594925,0.0105423,-0.0705133,0.00733999,0.0508883,0.0438576,1336,442,3.35705,16.1714
119,582,2.99695,-15.7352,0.00840078,-0.0692808,0.00146863,0.00842854,-0.0693085,0.0188968,0.0492562,0.0430605,1343,442,2.99692,15.7352
126,582,2.5719,-15.1138,0.00645809,-0.0672116,0.00215819,0.00652127,-0.0672748,0.029262,0.0471741,0.044162,1350,442,2.57196,15.1138
133,582,1.86255,-14.6427,0,0,0,0,0,0,0,-1,1357,442,1.86256,14.6427
140,582,1.07544,-14.0856,0,0,0,0,0,0,0,-1,1364,442,1.07546,14.0856
147,582,0.332764,-13.5005,0,0,0,0,0,0,0,-1,1371,442,0.332733,13.5005
154,582,10.5457,-16.0814,0,0,0,0,0,0,0,-1,1378,442,10.5457,16.0814
161,582,3.59302,-14.5957,0,0,0,0,0,0,0,-1,1385,442,3.59301,14.5957
168,582,22.1532,-13.8998,0,0,0,0,0,0,0,-1,1392,442,22.1532,13.8998
175,582,6.50549,-2.00424,0,0,0,0,0,0,0,-1,1399,442,6.50546,2.00425
182,582,5.18958,-2.18652,0,0,0,0,0,0,0,-1,1406,442,5.1896,2.18652
189,582,6.19751,-0.880951,0,0,0,0,0,0,0,-1,1413,442,6.19754,0.88096
196,582,4.87354,-2.22327,0,0,0,0,0,0,0,-1,1420,442,4.87348,2.22325
203,582,3.11401,-4.48257,0,0,0,0,0,0,0,-1,1427,442,3.11404,4.48259
210,582,2.93115,-11.0731,0,0,0,0,0,0,0,-1,1434,442,2.93113,11.0731
217,582,3.50623,-14.5506,0,0,0,0,0,0,0,-1,1441,442,3.50618,14.5506
224,582,3.54639,-14.4368,0.00535022,0.00376399,-0.00344741,0.00809457,0.00101964,-0.672335,0.00509065,0.0419063,1448,442,3.54642,14.4368
231,582,3.74023,-14.2603,0.00472893,0.00504047,-0.00277818,0.00766724,0.00210216,-0.813404,0.00457471,0.044818,1455,442,3.74025,14.2603
238,582,3.63159,-14.2809,0.00427551,0.00557364,-0.00233344,0.00734661,0.00250254,-0.921048,0.00431278,0.0425669,1462,442,3.63165,14.2809
245,582,3.64453,-14.2864,0.00388605,0.00592049,-0.00196761,0.00711827,0.00268826,-1.02397,0.00415054,0.0427505,1469,442,3.64452,14.2864
252,582,3.70581,-14.0168,0.00355484,0.00562448,-0.00145626,0.00637615,0.00280317,-1.0943,0.00369021,0.0298508,1476,442,3.70576,14.0168
259,582,3.61401,-13.8317,0.0031825,0.00499601,-0.00111066,0.00552305,0.00265546,-1.12773,0.00318952,0.0234358,1483,442,3.61396,13.8317
266,582,3.61243,-13.6582,0.00287856,0.004331,-0.000812208,0.00469431,0.00251525,-1.15018,0.00271258,0.0174974,1490,442,3.61242,13.6582
273,582,3.67786,-13.4499,0.00246192,0.0033695,-0.000706605,0.00375548,0.00207594,-1.07084,0.00217225,0.0145512,1497,442,3.67789,13.4499
280,582,3.69287,-13.2767,0.00188781,0.00263334,-0.000606408,0.00297239,0.00154876,-1.06098,0.00171662,0.0119718,1504,442,3.6929,13.2767
287,582,3.71863,-13.0818,0.00155002,0.00214254,-0.000483805,0.00241358,0.00127897,-1.06012,0.00139431,0.0106834,1511,442,3.71858,13.0819
294,582,3.7251,-12.911,0.00134774,0.00143712,-0.000426354,0.00182112,0.00096374,-0.837614,0.00105202,0.00924908,1518,442,3.7251,12.911
301,582,3.73193,-12.7212,0.00106523,0.000702773,-0.000466666,0.00138462,0.000383381,-0.600189,0.000825515,0.0104859,1525,442,3.73196,12.7212
308,582,3.74463,-12.5337,0.000804726,0.000220259,-0.000520365,0.0011093,-8.43163e-05,-0.529548,0.000769181,0.0132794,1532,442,3.74457,12.5337
315,582,3.74121,-12.339,0.000574248,-5.41259e-05,-0.000526308,0.000873016,-0.000352893,-0.516306,0.000728704,0.0135395,1539,442,3.74117,12.339
322,582,3.74561,-12.142,0.000337476,-0.000139431,-0.000453719,0.000611585,-0.00041354,-0.543458,0.000595527,0.0105483,1546,442,3.74555,12.142
329,582,3.73267,-11.946,0.000177478,-5.41938e-05,-0.000296325,0.000379804,-0.000256519,-0.599076,0.000369672,0.0102575,1553,442,3.73264,11.946
336,582,3.71692,-11.7452,6.54815e-05,0.000110996,-0.000114953,0.000205423,-2.89452e-05,-0.88312,0.000147547,0.0107843,1560,442,3.71692,11.7452
343,582,3.72766,-11.5299,-5.7306e-05,0.000375104,9.77736e-05,0.000396184,-7.83862e-05,1.35844,0.000293759,0.0128634,1567,442,3.72772,11.5299
350,582,3.73181,-11.3102,-9.83008e-05,0.000805483,0.00037538,0.000941057,-0.000233875,1.22421,0.000718138,0.0156394,1574,442,3.73186,11.3102
357,582,3.72705,-11.0794,-0.000165484,0.00129557,0.000626579,0.00152747,-0.000397387,1.21632,0.00117342,0.0137742,1581,442,3.72701,11.0794
364,582,3.72058,-10.8634,-0.000263931,0.00179761,0.000862551,0.00211089,-0.000577215,1.2224,0.00163401,0.0105081,1588,442,3.72064,10.8634
371,582,3.7063,-10.6432,-0.000351212,0.00229745,0.00109738,0.00269304,-0.000746794,1.22482,0.00208926,0.013428,1595,442,3.70627,10.6432
378,582,3.70251,-10.4178,-0.000540388,0.0027741,0.0012355,0.00318396,-0.000950245,1.25048,0.00250032,0.0150323,1602,442,3.70253,10.4178
385,582,3.70642,-10.1971,-0.000891974,0.00302291,0.00113836,0.00332986,-0.00119892,1.30742,0.00270945,0.011565,1609,442,3.7064,10.1971
392,582,3.6803,-9.95624,-0.0011352,0.00323081,0.000998917,0.00344851,-0.00135289,1.35622,0.00285874,0.00954806,1616,442,3.68033,9.95624
399,582,3.6593,-9.72192,-0.000975926,0.00314194,0.00111582,0.00342486,-0.00125884,1.32248,0.00279886,0.0139879,1623,442,3.65929,9.72194
406,582,3.68469,-9.40955,-0.000550939,0.00329366,0.00166521,0.00391461,-0.0011719,1.21387,0.00307572,0.0224712,1630,442,3.68474,9.40954
413,582,3.63574,-9.22537,-0.000416366,0.00310591,0.00199718,0.00400754,-0.001318,1.14673,0.00320274,0.0387354,1637,442,3.63572,9.22539
420,582,3.62,-8.96408,0,0,0,0,0,0,0,-1,1644,442,3.62003,8.96408
427,582,3.50757,-8.74207,0,0,0,0,0,0,0,-1,1651,442,3.50759,8.74206
434,582,3.19788,-8.45407,0,0,0,0,0,0,0,-1,1658,442,3.19792,8.45408
441,582,3.54187,-8.09869,0,0,0,0,0,0,0,-1,1665,442,3.54185,8.0987
448,582,1.52722,-2.85928,0,0,0,0,0,0,0,-1,1672,442,1.52724,2.85927
455,582,3.6698,-4.4032,0,0,0,0,0,0,0,-1,1679,442,3.66983,4.40319
462,582,1.38074,-3.94418,0,0,0,0,0,0,0,-1,1686,442,1.38074,3.94419
469,582,2.32849,-9.08713,0,0,0,0,0,0,0,-1,1693,442,2.32844,9.08713
476,582,1.93945,-8.07642,0,0,0,0,0,0,0,-1,1700,442,1.93949,8.0764
483,582,0,0,0,0,0,0,0,0,0,-1,1707,442,0,0
490,582,0,0,0,0,0,0,0,0,0,-1,1714,442,0,0
497,582,0,0,0,0,0,0,0,0,0,-1,1721,442,0,0
504,582,0,0,0,0,0,0,0,0,0,-1,1728,442,0,0
511,582,0,0,0,0,0,0,0,0,0,-1,1735,442,0,0
518,582,0,0,0,0,0,0,0,0,0,-1,1742,442,0,0
525,582,0,0,0,0,0,0,0,0,0,-1,1749,442,0,0
532,582,0,0,0,0,0,0,0,0,0,-1,1756,442,0,0
539,582,0,0,0,0,0,0,0,0,0,-1,1763,442,0,0
546,582,0,0,0,0,0,0,0,0,0,-1,1770,442,0,0
553,582,0,0,0,0,0,0,0,0,0,-1,1777,442,0,0
560,582,0,0,0,0,0,0,0,0,0,-1,1784,442,0,0
567,582,0,0,0,0,0,0,0,0,0,-1,1791,442,0,0
574,582,0,0,0,0,0,0,0,0,0,-1,1798,442,0,0
581,582,0,0,0,0,0,0,0,0,0,-1,1805,442,0,0
588,582,0,0,0,0,0,0,0,0,0,-1,1812,442,0,0
595,582,0,0,0,0,0,0,0,0,0,-1,1819,442,0,0
602,582,0,0,0,0,0,0,0,0,0,-1,1826,442,0,0
609,582,0,0,0,0,0,0,0,0,0,-1,1833,442,0,0
616,582,0,0,0,0,0,0,0,0,0,-1,1840,442,0,0
623,582,0,0,0,0,0,0,0,0,0,-1,1847,442,0,0
630,582,0,0,0,0,0,0,0,0,0,-1,1854,442,0,0
637,582,0,0,0,0,0,0,0,0,0,-1,1861,442,0,0
644,582,0,0,0,0,0,0,0,0,0,-1,1868,442,0,0
651,582,0,0,0,0,0,0,0,0,0,-1,1875,442,0,0
658,582,0,0,0,0,0,0,0,0,0,-1,1882,442,0,0
665,582,0,0,0,0,0,0,0,0,0,-1,1889,442,0,0
672,582,0,0,0,0,0,0,0,0,0,-1,1896,442,0,0
679,582,0,0,0,0,0,0,0,0,0,-1,1903,442,0,0
686,582,0,0,0,0,0,0,0,0,0,-1,1910,442,0,0
693,582,0,0,0,0,0,0,0,0,0,-1,1917,442,0,0
700,582,0,0,0,0,0,0,0,0,0,-1,1924,442,0,0
707,582,0,0,0,0,0,0,0,0,0,-1,1931,442,0,0
714,582,0,0,0,0,0,0,0,0,0,-1,1938,442,0,0
721,582,0,0,0,0,0,0,0,0,0,-1,1945,442,0,0
728,582,0,0,0,0,0,0,0,0,0,-1,1952,442,0,0
735,582,0,0,0,0,0,0,0,0,0,-1,1959,442,0,0
742,582,0,0,0,0,0,0,0,0,0,-1,1966,442,0,0
749,582,0,0,0,0,0,0,0,0,0,-1,1973,442,0,0
756,582,0,0,0,0,0,0,0,0,0,-1,1980,442,0,0
763,582,0,0,0,0,0,0,0,0,0,-1,1987,442,0,0
770,582,0,0,0,0,0,0,0,0,0,-1,1994,442,0,0
777,582,0,0,0,0,0,0,0,0,0,-1,2001,442,0,0
784,582,0,0,0,0,0,0,0,0,0,-1,2008,442,0,0
791,582,0,0,0,0,0,0,0,0,0,-1,2015,442,0,0
798,582,0,0,0,0,0,0,0,0,0,-1,2022,442,0,0
805,582,0,0,0,0,0,0,0,0,0,-1,2029,442,0,0
812,582,0,0,0,0,0,0,0,0,0,-1,2036,442,0,0
-700,575,0,0,0,0,0,0,0,0,0,-1,524,449,0,0
-693,575,0,0,0,0,0,0,0,0,0,-1,531,449,0,0
-686,575,0,0,0,0,0,0,0,0,0,-1,538,449,0,0
-679,575,0,0,0,0,0,0,0,0,0,-1,545,449,0,0
-672,575,0,0,0,0,0,0,0,0,0,-1,552,449,0,0
-665,575,0,0,0,0,0,0,0,0,0,-1,559,449,0,0
-658,575,0,0,0,0,0,0,0,0,0,-1,566,449,0,0
-651,575,0,0,0,0,0,0,0,0,0,-1,573,449,0,0
-644,575,0,0,0,0,0,0,0,0,0,-1,580,449,0,0
-637,575,0,0,0,0,0,0,0,0,0,-1,587,449,0,0
-630,575,0,0,0,0,0,0,0,0,0,-1,594,449,0,0
-623,575,0,0,0,0,0,0,0,0,0,-1,601,449,0,0
-616,575,0,0,0,0,0,0,0,0,0,-1,608,449,0,0
-609,575,0,0,0,0,0,0,0,0,0,-1,615,449,0,0
-602,575,0,0,0,0,0,0,0,0,0,-1,622,449,0,0
-595,575,0,0,0,0,0,0,0,0,0,-1,629,449,0,0
-588,575,0,0,0,0,0,0,0,0,0,-1,636,449,0,0
-581,575,0,0,0,0,0,0,0,0,0,-1,643,449,0,0
-574,575,0,0,0,0,0,0,0,0,0,-1,650,449,0,0
-567,575,0,0,0,0,0,0,0,0,0,-1,657,449,0,0
-560,575,0,0,0,0,0,0,0,0,0,-1,664,449,0,0
-553,575,0,0,0,0,0,0,0,0,0,-1,671,449,0,0
-546,575,0,0,0,0,0,0,0,0,0,-1,678,449,0,0
-539,575,0,0,0,0,0,0,0,0,0,-1,685,449,0,0
-532,575,0,0,0,0,0,0,0,0,0,-1,692,449,0,0
-525,575,0,0,0,0,0,0,0,0,0,-1,699,449,0,0
-518,575,0,0,0,0,0,0,0,0,0,-1,706,449,0,0
-511,575,0,0,0,0,0,0,0,0,0,-1,713,449,0,0
-504,575,0,0,0,0,0,0,0,0,0,-1,720,449,0,0
-497,575,0,0,0,0,0,0,0,0,0,-1,727,449,0,0
-490,575,0,0,0,0,0,0,0,0,0,-1,734,449,0,0
-483,575,0,0,0,0,0,0,0,0,0,-1,741,449,0,0
-476,575,0,0,0,0,0,0,0,0,0,-1,748,449,0,0
-469,575,0,0,0,0,0,0,0,0,0,-1,755,449,0,0
-462,575,0,0,0,0,0,0,0,0,0,-1,762,449,0,0
-455,575,0,0,0,0,0,0,0,0,0,-1,769,449,0,0
-448,575,0,0,0,0,0,0,0,0,0,-1,776,449,0,0
-441,575,0,0,0,0,0,0,0,0,0,-1,783,449,0,0
-434,575,0,0,0,0,0,0,0,0,0,-1,790,449,0,0
-427,575,0,0,0,0,0,0,0,0,0,-1,797,449,0,0
-420,575,0,0,0,0,0,0,0,0,0,-1,804,449,0,0
-413,575,0,0,0,0,0,0,0,0,0,-1,811,449,0,0
-406,575,0,0,0,0,0,0,0,0,0,-1,818,449,0,0
-399,575,0,0,0,0,0,0,0,0,0,-1,825,449,0,0
-392,575,0,0,0,0,0,0,0,0,0,-1,832,449,0,0
-385,575,0,0,0,0,0,0,0,0,0,-1,839,449,0,0
-378,575,0,0,0,0,0,0,0,0,0,-1,846,449,0,0
-371,575,0.56897,-3.52304,0,0,0,0,0,0,0,-1,853,449,0.568955,3.52306
-364,575,1.49805,-4.67191,0,0,0,0,0,0,0,-1,860,449,1.49803,4.6719
-357,575,3.15521,-8.29892,0,0,0,0,0,0,0,-1,867,449,3.15521,8.29891
-350,575,2.76715,-7.23752,0,0,0,0,0,0,0,-1,874,449,2.76717,7.2375
-343,575,0.6922,-9.68082,0,0,0,0,0,0,0,-1,881,449,0.692185,9.68081
-336,575,0.509949,-9.33444,0,0,0,0,0,0,0,-1,888,449,0.509958,9.33444
-329,575,1.24707,-8.75833,0,0,0,0,0,0,0,-1,895,449,1.2471,8.75832
-322,575,1.35266,-8.82675,0,0,0,0,0,0,0,-1,902,449,1.35264,8.82674
-315,575,1.45819,-8.89517,0,0,0,0,0,0,0,-1,909,449,1.45818,8.89516
-308,575,1.45355,-10.0353,0.00751957,0.00526365,0.00305289,0.00964621,0.00313701,0.60844,0.00568155,0.0431385,916,449,1.45357,10.0353
-301,575,1.54224,-10.0195,0.00735334,0.00469316,0.00254526,0.00889509,0.00315141,0.544626,0.00520777,0.0332264,923,449,1.54221,10.0195
-294,575,1.49731,-10.1868,0.00683946,0.0041172,0.00194238,0.00785015,0.00310651,0.479782,0.00456502,0.0241061,930,449,1.49732,10.1868
-287,575,1.51477,-10.4195,0.00625429,0.00346005,0.00131764,0.00677762,0.00293673,0.378064,0.00392465,0.017123,937,449,1.51475,10.4195
-280,575,1.52509,-10.6432,0.00520674,0.00298215,0.000770423,0.0054475,0.00274139,0.302886,0.00314514,0.0130051,944,449,1.52507,10.6432
-273,575,1.51263,-10.8586,0.0040517,0.00256235,0.000189327,0.00407539,0.00253866,0.124483,0.00237651,0.0112076,951,449,1.51264,10.8586
-266,575,1.48914,-11.0984,0.00305411,0.00197229,-0.000146509,0.0030736,0.0019528,-0.132255,0.00179608,0.0123182,958,449,1.48915,11.0984
-259,575,1.48877,-11.3405,0.00222285,0.00152018,-0.000576465,0.0025466,0.00119642,-0.511724,0.00147117,0.0119408,965,449,1.48877,11.3405
-252,575,1.48212,-11.5473,0.00155794,0.0011574,-0.000753166,0.00213701,0.000578335,-0.655453,0.00127634,0.0102365,972,449,1.4821,11.5473
-245,575,1.48364,-11.7529,0.000919436,0.000777454,-0.00100288,0.00185384,-0.000156948,-0.750064,0.00129139,0.0137787,979,449,1.48365,11.7529
-238,575,1.49146,-11.9441,0.000412803,3.33172e-05,-0.000773116,0.00101912,-0.000572999,-0.665064,0.000931161,0.0143305,986,449,1.49143,11.9441
-231,575,1.47559,-12.1208,0.000133221,-0.000521355,-0.000423964,0.000341529,-0.000729663,-0.456691,0.000631841,0.0120689,993,449,1.47559,12.1208
-224,575,1.45428,-12.3009,0.000131296,-0.000858715,-1.58354e-06,0.000131298,-0.000858717,-0.00159952,0.000620889,0.011617,1000,449,1.45428,12.3009
-217,575,1.45459,-12.4887,0.000187991,-0.00118697,0.000343548,0.000269051,-0.00126803,0.231712,0.000947852,0.00983607,1007,449,1.4546,12.4887
-210,575,1.4704,-12.7051,0.000430612,-0.00152888,0.000593656,0.000596436,-0.00169471,0.272383,0.00137252,0.0084592,1014,449,1.47037,12.7051
-203,575,1.47675,-12.8833,0.000961939,-0.00178144,0.000605134,0.00108949,-0.00190899,0.207739,0.00175259,0.0109295,1021,449,1.47673,12.8833
-196,575,1.47717,-13.0446,0.00139077,-0.00201684,0.000574834,0.00148512,-0.00211119,0.162696,0.0020868,0.0129909,1028,449,1.47721,13.0446
-189,575,1.474,-13.2129,0.00210162,-0.00211117,0.000358327,0.00213188,-0.00214143,0.0842505,0.0024672,0.0145698,1035,449,1.47399,13.2129
-182,575,1.47314,-13.3634,0.00327575,-0.00185058,-0.000257246,0.00328862,-0.00186345,-0.0500139,0.00301225,0.0146077,1042,449,1.47312,13.3634
-175,575,1.49695,-13.5161,0.00433854,-0.00158255,-0.000810263,0.00444742,-0.00169143,-0.133573,0.00366139,0.011482,1049,449,1.49696,13.5161
-168,575,1.47595,-13.6769,0.00542287,-0.00129796,-0.00158707,0.00577879,-0.00165388,-0.220615,0.00450615,0.0101909,1056,449,1.4759,13.6769
-161,575,1.5022,-13.8384,0.00615364,-0.00102609,-0.00255142,0.00696796,-0.00184041,-0.308944,0.00536505,0.0146238,1063,449,1.50226,13.8384
-154,575,1.54871,-13.9698,0.00641663,-0.000428902,-0.00311865,0.00762434,-0.00163661,-0.36947,0.0057072,0.0164686,1070,449,1.54876,13.9697
-147,575,1.58337,-14.0615,0.00710986,0.000215539,-0.00392293,0.00888499,-0.00155959,-0.424932,0.0065058,0.0160315,1077,449,1.58332,14.0615
-140,575,1.53223,-14.1524,0.00728684,0.0008048,-0.00465966,0.00972179,-0.00163015,-0.481532,0.00708735,0.0264451,1084,449,1.53221,14.1524
-133,575,1.67798,-14.327,0.00689346,0.00103359,-0.00503082,0.00978536,-0.00185831,-0.52171,0.00722313,0.0348892,1091,449,1.67797,14.327
-126,575,1.72095,-14.356,0.00600351,0.00116496,-0.0051834,0.00930442,-0.00213595,-0.567056,0.00702403,0.0410969,1098,449,1.72089,14.356
-119,575,1.67236,-14.4676,0.00467716,0.00100117,-0.00498883,0.0081558,-0.00247747,-0.608903,0.00642428,0.0404808,1105,449,1.67241,14.4676
-112,575,1.61169,-14.664,0.00313901,0.000829168,-0.00456684,0.0066947,-0.00272652,-0.661548,0.00559786,0.0429701,1112,449,1.61164,14.664
-105,575,1.00745,-15.0218,0.00124323,0.000865869,-0.00400443,0.00506343,-0.00295433,-0.761857,0.00468213,0.0469086,1119,449,1.00748,15.0218
-98,575,1.90601,-15.0309,0,0,0,0,0,0,0,-1,1126,449,1.906,15.0309
-91,575,1.34473,-14.8264,0,0,0,0,0,0,0,-1,1133,449,1.34471,14.8264
-84,575,1.16553,-11.9056,0,0,0,0,0,0,0,-1,1140,449,1.16558,11.9056
-77,575,0.205078,-11.2584,0,0,0,0,0,0,0,-1,1147,449,0.205117,11.2584
-70,575,-4.2467,-1.78738,0,0,0,0,0,0,0,-1,1154,449,-4.24674,1.78739
-63,575,-4.52209,-3.48798,0,0,0,0,0,0,0,-1,1161,449,-4.5221,3.48796
-56,575,-5.5968,-5.4928,0,0,0,0,0,0,0,-1,1168,449,-5.59683,5.49281
-49,575,-5.96863,-7.17612,0,0,0,0,0,0,0,-1,1175,449,-5.96868,7.1761
-42,575,-0.830322,0.773499,0,0,0,0,0,0,0,-1,1182,449,-0.83038,-0.77351
-35,575,-0.62085,0.205139,0,0,0,0,0,0,0,-1,1189,449,-0.620855,-0.205126
-28,575,0.49292,-3.87988,0,0,0,0,0,0,0,-1,1196,449,0.492941,3.87989
-21,575,3.45667,-16.2715,0,0,0,0,0,0,0,-1,1203,449,3.45661,16.2715
-14,575,3.42993,-16.7979,0,0,0,0,0,0,0,-1,1210,449,3.42996,16.7979
-7,575,2.60156,-17.0569,0,0,0,0,0,0,0,-1,1217,449,2.60152,17.0569
0,575,1.52832,-17.0463,0,0,0,0,0,0,0,-1,1224,449,1.52833,17.0463
7,575,2.21741,-17.1585,0,0,0,0,0,0,0,-1,1231,449,2.21741,17.1585
14,575,1.77246,-15.3221,0,0,0,0,0,0,0,-1,1238,449,1.7725,15.3221
21,575,1.65588,-15.19,0,0,0,0,0,0,0,-1,1245,449,1.65588,15.19
28,575,1.9176,-15.5118,0,0,0,0,0,0,0,-1,1252,449,1.91764,15.5118
35,575,2.00195,-15.3734,0,0,0,0,0,0,0,-1,1259,449,2.00191,15.3734
42,575,3.43994,-14.0935,0,0,0,0,0,0,0,-1,1266,449,3.43993,14.0935
49,575,3.39343,-14.3227,0.00434432,-0.0585438,-0.0098973,0.00586518,-0.0600647,-0.152471,0.0421345,0.0474292,1273,449,3.39341,14.3227
56,575,3.30762,-14.5222,0.00748416,-0.0612466,-0.00860195,0.00854438,-0.0623068,-0.122635,0.0446593,0.0438482,1280,449,3.30763,14.5222
63,575,3.16748,-14.7169,0.0106769,-0.0656068,-0.00731505,0.011372,-0.0663019,-0.0947423,0.048439,0.0430388,1287,449,3.16745,14.7169
70,575,3.4071,-15.1729,0.0133771,-0.069565,-0.00581187,0.0137824,-0.0699703,-0.0696181,0.0518551,0.0437377,1294,449,3.40713,15.1728
77,575,4.5127,-15.0385,0,0,0,0,0,0,0,-1,1301,449,4.51271,15.0385
84,575,2.60083,-14.7979,0,0,0,0,0,0,0,-1,1308,449,2.60085,14.798
91,575,2.91235,-14.3791,0.0168131,-0.0808369,-0.00125752,0.0168293,-0.0808531,-0.0128749,0.0602998,0.0468474,1315,449,2.91236,14.3791
98,575,3.479,-14.1836,0.0159482,-0.0835397,9.26275e-05,0.0159483,-0.0835398,0.000931042,0.0617002,0.0435423,1322,449,3.47896,14.1836
105,575,3.93286,-13.9339,0.0145235,-0.0852348,0.00137114,0.0145423,-0.0852536,0.0137412,0.062252,0.0421006,1329,449,3.93281,13.9339
112,575,3.39294,-16.1785,0.0125016,-0.0850464,0.00228797,0.0125553,-0.0851,0.0234376,0.0613482,0.0448626,1336,449,3.39293,16.1785
119,575,2.85327,-15.599,0.0100219,-0.0835831,0.00311241,0.0101253,-0.0836865,0.0332016,0.0594542,0.0428161,1343,449,2.85332,15.599
126,575,2.11121,-15.348,0.00796372,-0.0810239,0.00360356,0.00810941,-0.0811696,0.0404069,0.0570088,0.0437619,1350,449,2.11118,15.348
133,575,1.29895,-15.2055,0,0,0,0,0,0,0,-1,1357,449,1.29897,15.2056
140,575,0.323608,-14.5544,0,0,0,0,0,0,0,-1,1364,449,0.323654,14.5544
147,575,9.54602,-14.9237,0,0,0,0,0,0,0,-1,1371,449,9.546,14.9237
154,575,10.4966,-16.0625,0,0,0,0,0,0,0,-1,1378,449,10.4966,16.0625
161,575,11.4615,-17.2199,0,0,0,0,0,0,0,-1,1385,449,11.4616,17.2199
168,575,9.2522,-0.307129,0,0,0,0,0,0,0,-1,1392,449,9.25225,0.307127
175,575,4.32617,1.93634,0,0,0,0,0,0,0,-1,1399,449,4.32612,-1.93634
182,575,6.3147,-2.88345,0,0,0,0,0,0,0,-1,1406,449,6.31466,2.88346
189,575,6.10449,-1.30817,0,0,0,0,0,0,0,-1,1413,449,6.10455,1.30817
196,575,5.79895,0.818359,0,0,0,0,0,0,0,-1,1420,449,5.79895,-0.81837
203,575,3.29724,-1.46378,0,0,0,0,0,0,0,-1,1427,449,3.29722,1.46377
210,575,2.32739,-7.74503,0,0,0,0,0,0,0,-1,1434,449,2.32741,7.74502
217,575,3.33618,-11.5521,0,0,0,0,0,0,0,-1,1441,449,3.3362,11.5521
224,575,3.70044,-14.4596,0,0,0,0,0,0,0,-1,1448,449,3.70043,14.4596
231,575,4.10413,-14.3186,0,0,0,0,0,0,0,-1,1455,449,4.10415,14.3186
238,575,4.02441,-14.4627,0,0,0,0,0,0,0,-1,1462,449,4.02444,14.4627
245,575,3.93042,-14.7085,0,0,0,0,0,0,0,-1,1469,449,3.9304,14.7085
252,575,3.88489,-14.3201,0,0,0,0,0,0,0,-1,1476,449,3.88489,14.3201
259,575,3.75537,-14.1202,0,0,0,0,0,0,0,-1,1483,449,3.75534,14.1202
266,575,3.71997,-13.8931,0,0,0,0,0,0,0,-1,1490,449,3.71993,13.8931
273,575,3.82275,-13.5297,0,0,0,0,0,0,0,-1,1497,449,3.82277,13.5297
280,575,3.85803,-13.2919,0,0,0,0,0,0,0,-1,1504,449,3.85802,13.2919
287,575,3.85083,-13.1014,0.00182752,0.00225652,-0.000928671,0.00299514,0.0010889,-0.898894,0.00175058,0.0168947,1511,449,3.85084,13.1014
294,575,3.90454,-12.9194,0.00157382,0.00134392,-0.000930656,0.0023966,0.00052114,-0.72395,0.00145546,0.0103204,1518,449,3.90454,12.9194
301,575,3.92761,-12.7329,0.00122901,0.000450744,-0.00103897,0.00194933,-0.000269576,-0.606217,0.0013981,0.0100669,1525,449,3.92755,12.7329
308,575,3.93933,-12.5456,0.000884685,-0.000135154,-0.00117331,0.0016541,-0.000904564,-0.580413,0.00149822,0.0104753,1532,449,3.93929,12.5456
315,575,3.9292,-12.349,0.000599602,-0.000444091,-0.00122504,0.00140931,-0.0012538,-0.584046,0.00153842,0.0105199,1539,449,3.92925,12.349
322,575,3.93823,-12.1386,0.000327145,-0.000518069,-0.00115961,0.00113875,-0.00132968,-0.610658,0.00142657,0.00979318,1546,449,3.93823,12.1386
329,575,3.91504,-11.9524,0.000142624,-0.000417449,-0.000987115,0.000888656,-0.00116348,-0.647184,0.00118834,0.0103659,1553,449,3.91504,11.9524
336,575,3.89355,-11.7416,2.84412e-05,-0.000230919,-0.00077454,0.000684082,-0.00088656,-0.702453,0.000909319,0.0118937,1560,449,3.8935,11.7416
343,575,3.93652,-11.5053,-9.79781e-05,4.2123e-05,-0.000521524,0.00049828,-0.000554135,-0.852158,0.000607897,0.0120974,1567,449,3.93653,11.5053
350,575,3.95508,-11.2936,-0.000124978,0.000402365,-0.00021588,0.000479468,-0.000202081,-1.22776,0.000404209,0.0113069,1574,449,3.95508,11.2936
357,575,3.95764,-11.0816,-0.000166777,0.000839512,5.34978e-05,0.000842348,-0.000169613,1.51783,0.000625812,0.0109921,1581,449,3.95761,11.0816
364,575,3.94287,-10.8772,-0.000217952,0.00127419,0.000339721,0.00134789,-0.000291657,1.35715,0.00100995,0.010674,1588,449,3.94283,10.8772
371,575,3.92847,-10.665,-0.000260247,0.00166803,0.000612935,0.00184636,-0.000438585,1.28766,0.00140019,0.0183635,1595,449,3.92846,10.665
378,575,3.93042,-10.4336,-0.000376156,0.0020395,0.000805516,0.00228346,-0.000620122,1.27671,0.00176569,0.0173727,1602,449,3.93042,10.4336
385,575,3.93188,-10.1951,-0.000607798,0.00222724,0.000796325,0.00243561,-0.000816161,1.31488,0.00195348,0.0111533,1609,449,3.93184,10.1951
392,575,3.90527,-9.94986,-0.000742336,0.00230638,0.000761915,0.00248619,-0.000922144,1.33904,0.00203569,0.00859031,1616,449,3.90528,9.94987
399,575,3.89148,-9.73398,-0.000572935,0.00221775,0.000908169,0.00248726,-0.000842451,1.28231,0.00199907,0.00881478,1623,449,3.89147,9.73399
406,575,3.89087,-9.48285,-0.000200548,0.00234232,0.00142508,0.00298071,-0.00083893,1.14964,0.00231795,0.0103618,1630,449,3.8909,9.48285
413,575,3.88025,-9.2406,-6.53506e-05,0.00222358,0.00176844,0.00318558,-0.00102735,1.07259,0.00253649,0.0117696,1637,449,3.88025,9.24059
420,575,3.86365,-8.9859,0.000126262,0.00164151,0.00199927,0.00302189,-0.00125412,0.966513,0.00253811,0.0131281,1644,449,3.8636,8.98591
427,575,3.80334,-8.75754,0.000127778,-0.000633521,0.00205569,0.00183777,-0.00234351,0.693851,0.00241994,0.0199178,1651,449,3.80333,8.75754
434,575,3.69507,-8.56335,0.000398722,-0.0023617,0.00239075,0.00177907,-0.00374204,0.523613,0.00325408,0.0311246,1658,449,3.69504,8.56335
441,575,3.79919,-8.3537,0,0,0,0,0,0,0,-1,1665,449,3.79919,8.3537
448,575,4.29736,-7.87366,0,0,0,0,0,0,0,-1,1672,449,4.29731,7.87366
455,575,4.67908,-7.45175,0,0,0,0,0,0,0,-1,1679,449,4.67907,7.45175
462,575,2.07434,-7.07288,0,0,0,0,0,0,0,-1,1686,449,2.07432,7.07287
469,575,3.01648,-7.43079,0,0,0,0,0,0,0,-1,1693,449,3.0165,7.43078
476,575,2.82593,-7.49521,-0.00185523,-0.023307,0.000901152,-0.00181744,-0.0233448,0.0419098,0.0149942,0.0494115,1700,449,2.82591,7.49522
483,575,2.66467,-6.96179,0,0,0,0,0,0,0,-1,1707,449,2.66467,6.96181
490,575,2.59277,-6.34253,0,0,0,0,0,0,0,-1,1714,449,2.59275,6.34252
497,575,0,0,0,0,0,0,0,0,0,-1,1721,449,0,0
504,575,0,0,0,0,0,0,0,0,0,-1,1728,449,0,0
511,575,0,0,0,0,0,0,0,0,0,-1,1735,449,0,0
518,575,0,0,0,0,0,0,0,0,0,-1,1742,449,0,0
525,575,0,0,0,0,0,0,0,0,0,-1,1749,449,0,0
532,575,0,0,0,0,0,0,0,0,0,-1,1756,449,0,0
539,575,0,0,0,0,0,0,0,0,0,-1,1763,449,0,0
546,575,0,0,0,0,0,0,0,0,0,-1,1770,449,0,0
553,575,0,0,0,0,0,0,0,0,0,-1,1777,449,0,0
560,575,0,0,0,0,0,0,0,0,0,-1,1784,449,0,0
567,575,0,0,0,0,0,0,0,0,0,-1,1791,449,0,0
574,575,0,0,0,0,0,0,0,0,0,-1,1798,449,0,0
581,575,0,0,0,0,0,0,0,0,0,-1,1805,449,0,0
588,575,0,0,0,0,0,0,0,0,0,-1,1812,449,0,0
595,575,0,0,0,0,0,0,0,0,0,-1,1819,449,0,0
602,575,0,0,0,0,0,0,0,0,0,-1,1826,449,0,0
609,575,0,0,0,0,0,0,0,0,0,-1,1833,449,0,0
616,575,0,0,0,0,0,0,0,0,0,-1,1840,449,0,0
623,575,0,0,0,0,0,0,0,0,0,-1,1847,449,0,0
630,575,0,0,0,0,0,0,0,0,0,-1,1854,449,0,0
637,575,0,0,0,0,0,0,0,0,0,-1,1861,449,0,0
644,575,0,0,0,0,0,0,0,0,0,-1,1868,449,0,0
651,575,0,0,0,0,0,0,0,0,0,-1,1875,449,0,0
658,575,0,0,0,0,0,0,0,0,0,-1,1882,449,0,0
665,575,0,0,0,0,0,0,0,0,0,-1,1889,449,0,0
672,575,0,0,0,0,0,0,0,0,0,-1,1896,449,0,0
679,575,0,0,0,0,0,0,0,0,0,-1,1903,449,0,0
686,575,0,0,0,0,0,0,0,0,0,-1,1910,449,0,0
693,575,0,0,0,0,0,0,0,0,0,-1,1917,449,0,0
700,575,0,0,0,0,0,0,0,0,0,-1,1924,449,0,0
707,575,0,0,0,0,0,0,0,0,0,-1,1931,449,0,0
714,575,0,0,0,0,0,0,0,0,0,-1,1938,449,0,0
721,575,0,0,0,0,0,0,0,0,0,-1,1945,449,0,0
728,575,0,0,0,0,0,0,0,0,0,-1,1952,449,0,0
735,575,0,0,0,0,0,0,0,0,0,-1,1959,449,0,0
742,575,0,0,0,0,0,0,0,0,0,-1,1966,449,0,0
749,575,0,0,0,0,0,0,0,0,0,-1,1973,449,0,0
756,575,0,0,0,0,0,0,0,0,0,-1,1980,449,0,0
763,575,0,0,0,0,0,0,0,0,0,-1,1987,449,0,0
770,575,0,0,0,0,0,0,0,0,0,-1,1994,449,0,0
777,575,0,0,0,0,0,0,0,0,0,-1,2001,449,0,0
784,575,0,0,0,0,0,0,0,0,0,-1,2008,449,0,0
791,575,0,0,0,0,0,0,0,0,0,-1,2015,449,0,0
798,575,0,0,0,0,0,0,0,0,0,-1,2022,449,0,0
805,575,0,0,0,0,0,0,0,0,0,-1,2029,449,0,0
812,575,0,0,0,0,0,0,0,0,0,-1,2036,449,0,0
-700,568,0,0,0,0,0,0,0,0,0,-1,524,456,0,0
-693,568,0,0,0,0,0,0,0,0,0,-1,531,456,0,0
-686,568,0,0,0,0,0,0,0,0,0,-1,538,456,0,0
-679,568,0,0,0,0,0,0,0,0,0,-1,545,456,0,0
-672,568,0,0,0,0,0,0,0,0,0,-1,552,456,0,0
-665,568,0,0,0,0,0,0,0,0,0,-1,559,456,0,0
-658,568,0,0,0,0,0,0,0,0,0,-1,566,456,0,0
-651,568,0,0,0,0,0,0,0,0,0,-1,573,456,0,0
-644,568,0,0,0,0,0,0,0,0,0,-1,580,456,0,0
-637,568,0,0,0,0,0,0,0,0,0,-1,587,456,0,0
-630,568,0,0,0,0,0,0,0,0,0,-1,594,456,0,0
-623,568,0,0,0,0,0,0,0,0,0,-1,601,456,0,0
-616,568,0,0,0,0,0,0,0,0,0,-1,608,456,0,0
-609,568,0,0,0,0,0,0,0,0,0,-1,615,456,0,0
-602,568,0,0,0,0,0,0,0,0,0,-1,622,456,0,0
-595,568,0,0,0,0,0,0,0,0,0,-1,629,456,0,0
-588,568,0,0,0,0,0,0,0,0,0,-1,636,456,0,0
-581,568,0,0,0,0,0,0,0,0,0,-1,643,456,0,0
-574,568,0,0,0,0,0,0,0,0,0,-1,650,456,0,0
-567,568,0,0,0,0,0,0,0,0,0,-1,657,456,0,0
-560,568,0,0,0,0,0,0,0,0,0,-1,664,456,0,0
-553,568,0,0,0,0,0,0,0,0,0,-1,671,456,0,0
-546,568,0,0,0,0,0,0,0,0,0,-1,678,456,0,0
-539,568,0,0,0,0,0,0,0,0,0,-1,685,456,0,0
-532,568,0,0,0,0,0,0,0,0,0,-1,692,456,0,0
-525,568,0,0,0,0,0,0,0,0,0,-1,699,456,0,0
-518,568,0,0,0,0,0,0,0,0,0,-1,706,456,0,0
-511,568,0,0,0,0,0,0,0,0,0,-1,713,456,0,0
-504,568,0,0,0,0,0,0,0,0,0,-1,720,456,0,0
-497,568,0,0,0,0,0,0,0,0,0,-1,727,456,0,0
-490,568,0,0,0,0,0,0,0,0,0,-1,734,456,0,0
-483,568,0,0,0,0,0,0,0,0,0,-1,741,456,0,0
-476,568,0,0,0,0,0,0,0,0,0,-1,748,456,0,0
-469,568,0,0,0,0,0,0,0,0,0,-1,755,456,0,0
-462,568,0,0,0,0,0,0,0,0,0,-1,762,456,0,0
-455,568,0,0,0,0,0,0,0,0,0,-1,769,456,0,0
-448,568,0,0,0,0,0,0,0,0,0,-1,776,456,0,0
-441,568,0,0,0,0,0,0,0,0,0,-1,783,456,0,0
-434,568,0,0,0,0,0,0,0,0,0,-1,790,456,0,0
-427,568,0,0,0,0,0,0,0,0,0,-1,797,456,0,0
-420,568,0,0,0,0,0,0,0,0,0,-1,804,456,0,0
-413,568,0,0,0,0,0,0,0,0,0,-1,811,456,0,0
-406,568,0,0,0,0,0,0,0,0,0,-1,818,456,0,0
-399,568,0,0,0,0,0,0,0,0,0,-1,825,456,0,0
-392,568,0,0,0,0,0,0,0,0,0,-1,832,456,0,0
-385,568,0,0,0,0,0,0,0,0,0,-1,839,456,0,0
-378,568,0.321777,-7.29929,0,0,0,0,0,0,0,-1,846,456,0.321806,7.29927
-371,568,1.09595,-7.46707,0,0,0,0,0,0,0,-1,853,456,1.09597,7.46707
-364,568,1.87787,-7.61115,0,0,0,0,0,0,0,-1,860,456,1.87784,7.61116
-357,568,2.14166,-7.67645,0,0,0,0,0,0,0,-1,867,456,2.14167,7.67646
-350,568,1.29108,-9.94327,0,0,0,0,0,0,0,-1,874,456,1.29105,9.94326
-343,568,1.79224,-8.04129,0,0,0,0,0,0,0,-1,881,456,1.79225,8.04129
-336,568,1.25745,-8.504,0,0,0,0,0,0,0,-1,888,456,1.25745,8.50401
-329,568,1.22064,-9.00827,0,0,0,0,0,0,0,-1,895,456,1.22063,9.00827
-322,568,1.39117,-9.20386,0.00258498,0.00443038,0.000607975,0.00461268,0.00240269,1.27949,0.0026639,0.0417052,902,456,1.39119,9.20385
-315,568,1.44971,-9.61438,0.00384816,0.00397651,0.00131412,0.00522802,0.00259664,0.809797,0.00301842,0.0354911,909,456,1.4497,9.61437
-308,568,1.36237,-9.83282,0.0044605,0.00403275,0.00145004,0.00571236,0.0027809,0.712177,0.00329841,0.0261174,916,456,1.36234,9.83283
-301,568,1.36414,-9.99615,0.00456659,0.00380333,0.00143128,0.00566625,0.00270368,0.655112,0.00327255,0.0147043,923,456,1.36414,9.99616
-294,568,1.33508,-10.1841,0.00439926,0.00350417,0.00128694,0.00531426,0.00258918,0.61806,0.00306852,0.0109916,930,456,1.33506,10.1841
-287,568,1.32037,-10.4244,0.00416825,0.0030207,0.00106018,0.00479996,0.00238899,0.537367,0.00277127,0.0105116,937,456,1.32035,10.4244
-280,568,1.3194,-10.6625,0.00353776,0.00262483,0.000843262,0.00404018,0.00212242,0.537325,0.00233359,0.0106616,944,456,1.31943,10.6625
-273,568,1.31482,-10.8708,0.00276119,0.00225134,0.000550727,0.00311313,0.0018994,0.568639,0.00181184,0.0118932,951,456,1.31482,10.8708
-266,568,1.29547,-11.1025,0.00209127,0.00170949,0.000391982,0.00233637,0.00146439,0.558806,0.00136328,0.0118884,958,456,1.29547,11.1025
-259,568,1.28284,-11.3382,0.00158024,0.00122265,0.000101016,0.0016068,0.00119608,0.257137,0.000963916,0.0121805,965,456,1.28283,11.3382
-252,568,1.26324,-11.5351,0.00117653,0.00070904,-1.81203e-05,0.00117723,0.000708338,-0.0386837,0.000684343,0.0115995,972,456,1.26323,11.5351
-245,568,1.27405,-11.7281,0.000793338,7.33741e-05,-0.000178275,0.000835064,3.16486e-05,-0.229913,0.000546465,0.0127961,979,456,1.27405,11.728
-238,568,1.29883,-11.9312,0.000509831,-0.000837725,4.55894e-06,0.000509846,-0.000837741,0.00338307,0.000785669,0.0117209,986,456,1.29883,11.9312
-231,568,1.27075,-12.1071,0.000392942,-0.00164642,0.000285442,0.000432141,-0.00168562,0.136473,0.00129211,0.0105477,993,456,1.27078,12.1071
-224,568,1.25372,-12.2901,0.000473716,-0.00226382,0.000614948,0.00060551,-0.00239561,0.211124,0.00183257,0.0121352,1000,456,1.25371,12.2901
-217,568,1.28375,-12.4822,0.000574476,-0.00284954,0.000909869,0.000801239,-0.0030763,0.24425,0.00236366,0.0110099,1007,456,1.28377,12.4823
-210,568,1.30408,-12.6877,0.000885597,-0.00340706,0.00113617,0.00116777,-0.00368923,0.243427,0.00292744,0.0102067,1014,456,1.30406,12.6877
-203,568,1.29852,-12.8816,0.00154775,-0.0036662,0.00103011,0.00174389,-0.00386234,0.188152,0.00331289,0.00884209,1021,456,1.29851,12.8816
-196,568,1.31824,-13.0277,0.00205909,-0.00390654,0.000952879,0.0022076,-0.00405505,0.154605,0.00366781,0.0117412,1028,456,1.3182,13.0277
-189,568,1.31836,-13.1896,0.00295242,-0.00385725,0.000678698,0.0030194,-0.00392423,0.0983774,0.00402024,0.0127777,1035,456,1.31836,13.1896
-182,568,1.33142,-13.3559,0.00440514,-0.00328062,-0.000108447,0.00440667,-0.00328215,-0.0141064,0.00445494,0.0144492,1042,456,1.3314,13.3559
-175,568,1.35693,-13.5266,0.00574045,-0.00261295,-0.000817819,0.00581976,-0.00269227,-0.0966794,0.00502378,0.0120548,1049,456,1.35698,13.5266
-168,568,1.34753,-13.6565,0.00722625,-0.00196339,-0.00189623,0.00760215,-0.00233929,-0.195699,0.0060018,0.0152255,1056,456,1.34751,13.6565
-161,568,1.34131,-13.7743,0.00831923,-0.00140912,-0.00328165,0.00932271,-0.0024126,-0.296757,0.00715622,0.0259383,1063,456,1.34129,13.7743
-154,568,1.49915,-14.0196,0.00873052,-0.000396098,-0.00417888,0.0103548,-0.00202042,-0.370726,0.00766597,0.0346371,1070,456,1.4992,14.0196
-147,568,1.58594,-14.156,0.00972373,0.000758415,-0.00543806,0.0122885,-0.00180639,-0.440703,0.00885611,0.0408083,1077,456,1.58588,14.156
-140,568,1.55542,-14.2558,0.0100594,0.001868,-0.00663618,0.013762,-0.00183461,-0.508922,0.00984335,0.0456019,1084,456,1.55539,14.2558
-133,568,2.03748,-14.4711,0.0095199,0.00228491,-0.00725899,0.0140128,-0.00220803,-0.554236,0.0101582,0.047001,1091,456,2.03751,14.4711
-126,568,2.31458,-14.6797,0,0,0,0,0,0,0,-1,1098,456,2.31454,14.6797
-119,568,1.54114,-14.2608,0,0,0,0,0,0,0,-1,1105,456,1.5411,14.2608
-112,568,1.54346,-14.4908,0,0,0,0,0,0,0,-1,1112,456,1.5435,14.4908
-105,568,0.514893,-14.9781,0,0,0,0,0,0,0,-1,1119,456,0.514915,14.9782
-98,568,1.47131,-14.329,0,0,0,0,0,0,0,-1,1126,456,1.47133,14.329
-91,568,1.11621,-11.1853,0,0,0,0,0,0,0,-1,1133,456,1.11626,11.1853
-84,568,0.461792,-9.7959,0,0,0,0,0,0,0,-1,1140,456,0.461793,9.7959
-77,568,-1.13806,-8.57822,0,0,0,0,0,0,0,-1,1147,456,-1.13807,8.57821
-70,568,-4.09766,-1.42911,0,0,0,0,0,0,0,-1,1154,456,-4.09767,1.4291
-63,568,-5.92273,-3.70752,0,0,0,0,0,0,0,-1,1161,456,-5.92272,3.70751
-56,568,-5.24158,-6.01385,0,0,0,0,0,0,0,-1,1168,456,-5.24161,6.01386
-49,568,-5.24365,-8.33557,0,0,0,0,0,0,0,-1,1175,456,-5.24371,8.33557
-42,568,-0.664795,0.521973,0,0,0,0,0,0,0,-1,1182,456,-0.664829,-0.521984
-35,568,-0.153076,-1.67731,0,0,0,0,0,0,0,-1,1189,456,-0.153068,1.67731
-28,568,1.25439,-4.48798,0,0,0,0,0,0,0,-1,1196,456,1.2544,4.48797
-21,568,-0.942017,-16.6924,0,0,0,0,0,0,0,-1,1203,456,-0.941978,16.6924
-14,568,3.36426,-17.3788,0,0,0,0,0,0,0,-1,1210,456,3.36421,17.3788
-7,568,0.959839,-17.4217,0,0,0,0,0,0,0,-1,1217,456,0.959838,17.4217
0,568,1.66211,-17.7016,0,0,0,0,0,0,0,-1,1224,456,1.66212,17.7016
7,568,1.89734,-15.6878,0,0,0,0,0,0,0,-1,1231,456,1.89737,15.6878
14,568,1.76013,-15.5305,0,0,0,0,0,0,0,-1,1238,456,1.76007,15.5305
21,568,1.59766,-15.4021,0,0,0,0,0,0,0,-1,1245,456,1.59766,15.4021
28,568,1.62683,-15.2813,0,0,0,0,0,0,0,-1,1252,456,1.62685,15.2813
35,568,1.84229,-15.2569,0,0,0,0,0,0,0,-1,1259,456,1.84226,15.2569
42,568,3.86768,-13.6362,0,0,0,0,0,0,0,-1,1266,456,3.86766,13.6362
49,568,3.84607,-13.8647,0.00130828,-0.0721001,-0.0104508,0.00276713,-0.0735589,-0.138695,0.0499872,0.0499675,1273,456,3.8461,13.8647
56,568,3.79639,-13.9593,0.00518668,-0.0730895,-0.00786472,0.00596907,-0.0738719,-0.0991535,0.0513534,0.0487375,1280,456,3.79636,13.9592
63,568,3.64441,-14.0662,0.00962683,-0.0772136,-0.00553626,0.00997835,-0.0775651,-0.0634099,0.0553369,0.0474114,1287,456,3.64445,14.0662
70,568,3.68152,-14.2234,0.0135969,-0.0817882,-0.00344745,0.0137214,-0.0819126,-0.0360797,0.0597101,0.0463968,1294,456,3.68147,14.2234
77,568,3.80933,-14.5251,0.0164097,-0.0862434,-0.00164017,0.0164359,-0.0862696,-0.0159724,0.0637024,0.0465065,1301,456,3.80928,14.5251
84,568,2.5752,-14.2438,0,0,0,0,0,0,0,-1,1308,456,2.57518,14.2438
91,568,2.85681,-13.8116,0,0,0,0,0,0,0,-1,1315,456,2.85685,13.8116
98,568,3.85535,-13.4214,0.0183005,-0.0981922,0.00285109,0.0183702,-0.0982619,0.0244549,0.0724123,0.0415801,1322,456,3.85538,13.4214
105,568,4.14746,-13.564,0.0169568,-0.100172,0.00394853,0.0170898,-0.100305,0.0336601,0.0732342,0.047235,1329,456,4.14751,13.564
112,568,4.56018,-13.2144,0.0147871,-0.0999894,0.00461314,0.0149723,-0.100175,0.0401061,0.0722924,0.0462501,1336,456,4.56024,13.2145
119,568,2.86353,-15.4348,0,0,0,0,0,0,0,-1,1343,456,2.86354,15.4348
126,568,2.79175,-14.8524,0,0,0,0,0,0,0,-1,1350,456,2.79173,14.8524
133,568,2.22937,-14.8849,0,0,0,0,0,0,0,-1,1357,456,2.22934,14.8849
140,568,6.69946,-16.4707,0,0,0,0,0,0,0,-1,1364,456,6.69944,16.4707
147,568,9.34766,-14.9638,0,0,0,0,0,0,0,-1,1371,456,9.34769,14.9638
154,568,10.2979,-16.1237,0,0,0,0,0,0,0,-1,1378,456,10.2979,16.1237
161,568,10.1455,-15.5122,0,0,0,0,0,0,0,-1,1385,456,10.1455,15.5122
168,568,-0.458252,-13.0519,0,0,0,0,0,0,0,-1,1392,456,-0.458298,13.0519
175,568,10.5151,0.747498,0,0,0,0,0,0,0,-1,1399,456,10.5152,-0.747501
182,568,6.35095,-3.63361,0,0,0,0,0,0,0,-1,1406,456,6.35093,3.63359
189,568,6.17493,-1.70911,0,0,0,0,0,0,0,-1,1413,456,6.17497,1.70911
196,568,6.04724,0.200836,0,0,0,0,0,0,0,-1,1420,456,6.04724,-0.200835
203,568,5.9281,2.08649,0,0,0,0,0,0,0,-1,1427,456,5.92812,-2.08648
210,568,1.46216,-2.50446,0,0,0,0,0,0,0,-1,1434,456,1.46219,2.50446
217,568,2.62366,-7.86703,0,0,0,0,0,0,0,-1,1441,456,2.62365,7.86704
224,568,3.43494,-12.1555,0,0,0,0,0,0,0,-1,1448,456,3.43492,12.1555
231,568,4.38245,-9.3205,0,0,0,0,0,0,0,-1,1455,456,4.38244,9.32048
238,568,3.88123,-9.43616,0,0,0,0,0,0,0,-1,1462,456,3.88117,9.43617
245,568,3.34387,-10.6774,0,0,0,0,0,0,0,-1,1469,456,3.34389,10.6774
252,568,3.56946,-9.28928,0,0,0,0,0,0,0,-1,1476,456,3.56948,9.28928
259,568,3.38843,-8.73068,0,0,0,0,0,0,0,-1,1483,456,3.38842,8.73068
266,568,3.104,-9.16876,0,0,0,0,0,0,0,-1,1490,456,3.10397,9.16876
273,568,3.77869,-13.1147,0,0,0,0,0,0,0,-1,1497,456,3.77869,13.1147
280,568,3.87292,-13.4386,0,0,0,0,0,0,0,-1,1504,456,3.87289,13.4386
287,568,4.11169,-13.093,0.00233651,0.00217753,-0.00149951,0.00375864,0.000755405,-0.758918,0.00229576,0.0458704,1511,456,4.11166,13.093
294,568,4.15149,-12.9268,0.00201033,0.00102308,-0.0015662,0.00315885,-0.000125438,-0.632739,0.00214893,0.0276427,1518,456,4.15151,12.9268
301,568,4.13391,-12.7226,0.00156061,-4.95213e-05,-0.00175598,0.00268728,-0.00117619,-0.57046,0.00228674,0.0197137,1525,456,4.13386,12.7226
308,568,4.12708,-12.5156,0.00104419,-0.000769711,-0.00199964,0.00233294,-0.00205846,-0.572494,0.00253703,0.0119188,1532,456,4.12703,12.5156
315,568,4.11719,-12.3304,0.000617212,-0.00111363,-0.00211052,0.00203285,-0.00252927,-0.590827,0.00263913,0.00766491,1539,456,4.11725,12.3304
322,568,4.12061,-12.1313,0.000244143,-0.00114457,-0.0020462,0.00171058,-0.00261101,-0.621825,0.00251306,0.00963435,1546,456,4.12064,12.1313
329,568,4.13,-11.9418,-9.36397e-06,-0.000994273,-0.00184431,0.0014071,-0.00241074,-0.654935,0.00222948,0.0105306,1553,456,4.13007,11.9418
336,568,4.13171,-11.7278,-0.00015166,-0.000756946,-0.00158636,0.00116067,-0.00206928,-0.691142,0.00188925,0.010751,1560,456,4.13171,11.7278
343,568,4.16223,-11.4884,-0.000290472,-0.000451842,-0.00128289,0.000914264,-0.00165658,-0.753993,0.00150476,0.0110227,1567,456,4.16227,11.4884
350,568,4.16711,-11.2965,-0.000303788,-0.000131786,-0.000938816,0.00072496,-0.00116053,-0.831073,0.00109823,0.0101787,1574,456,4.1671,11.2965
357,568,4.16797,-11.0841,-0.000310997,0.000262782,-0.000638,0.000675428,-0.000723643,-0.996688,0.000807914,0.00947739,1581,456,4.16791,11.0841
364,568,4.17163,-10.8929,-0.000294146,0.000666306,-0.000277825,0.00074088,-0.00036872,-1.30856,0.000652529,0.0116628,1588,456,4.17163,10.8929
371,568,4.1637,-10.6476,-0.000260862,0.00099962,6.003e-05,0.00100247,-0.000263714,1.52331,0.000771395,0.0203637,1595,456,4.16364,10.6476
378,568,4.15698,-10.4229,-0.000270005,0.00135914,0.000335121,0.00142538,-0.000336248,1.37565,0.00107993,0.0176238,1602,456,4.15701,10.4229
385,568,4.146,-10.2094,-0.000383767,0.00153231,0.000425795,0.00162267,-0.000474127,1.36168,0.00126968,0.00861013,1609,456,4.14602,10.2094
392,568,4.1189,-9.96863,-0.00042692,0.00154214,0.000506067,0.00166459,-0.000549369,1.3334,0.00133119,0.00945985,1616,456,4.11889,9.96864
399,568,4.10205,-9.75565,-0.00027481,0.0014955,0.000688999,0.00173205,-0.000511359,1.24008,0.00135764,0.0154086,1623,456,4.10201,9.75566
406,568,4.11951,-9.48495,2.27703e-05,0.00162601,0.00117835,0.00224956,-0.000600779,1.08409,0.00173499,0.0146056,1630,456,4.11953,9.48496
413,568,4.10742,-9.22693,0.000143366,0.00160493,0.00154573,0.00258392,-0.000835624,1.00621,0.00205849,0.0122721,1637,456,4.10745,9.22693
420,568,4.11389,-8.96179,0.000309933,0.00119926,0.00181003,0.00261844,-0.00110925,0.905846,0.0022102,0.0105291,1644,456,4.11391,8.96179
427,568,4.10535,-8.70032,0.000368622,-0.000356658,0.00197914,0.00201807,-0.00200611,0.694788,0.00232336,0.0125282,1651,456,4.10537,8.70032
434,568,4.11365,-8.47897,0.000623456,-0.00152659,0.00234387,0.00212708,-0.00303021,0.570386,0.00299274,0.0167084,1658,456,4.11369,8.47898
441,568,4.09668,-8.29779,0.000849229,-0.00302463,0.00270077,0.00223583,-0.00441123,0.474318,0.00390559,0.0246225,1665,456,4.09666,8.29779
448,568,4.33728,-7.93726,0.000910383,-0.00495722,0.00294424,0.00213299,-0.00617983,0.393587,0.00498538,0.0406077,1672,456,4.33729,7.93725
455,568,4.5929,-7.46515,0.000696478,-0.00759366,0.00295764,0.00164348,-0.00854067,0.309875,0.00631332,0.0486597,1679,456,4.59294,7.46515
462,568,3.56836,-7.86472,0,0,0,0,0,0,0,-1,1686,456,3.56841,7.8647
469,568,3.61804,-7.284,0.000696453,-0.0122179,0.00286398,0.00130309,-0.0128246,0.208732,0.00901552,0.0457631,1693,456,3.61804,7.284
476,568,3.52563,-6.96393,0.000883117,-0.0145513,0.00242325,0.00125463,-0.0149228,0.152129,0.010392,0.0457208,1700,456,3.52558,6.96392
483,568,3.46252,-6.30411,0,0,0,0,0,0,0,-1,1707,456,3.46256,6.3041
490,568,4.8728,-4.79684,0,0,0,0,0,0,0,-1,1714,456,4.87274,4.79683
497,568,6.58289,-3.47745,0,0,0,0,0,0,0,-1,1721,456,6.58294,3.47744
504,568,0,0,0,0,0,0,0,0,0,-1,1728,456,0,0
511,568,0,0,0,0,0,0,0,0,0,-1,1735,456,0,0
518,568,0,0,0,0,0,0,0,0,0,-1,1742,456,0,0
525,568,0,0,0,0,0,0,0,0,0,-1,1749,456,0,0
532,568,0,0,0,0,0,0,0,0,0,-1,1756,456,0,0
539,568,0,0,0,0,0,0,0,0,0,-1,1763,456,0,0
546,568,0,0,0,0,0,0,0,0,0,-1,1770,456,0,0
553,568,0,0,0,0,0,0,0,0,0,-1,1777,456,0,0
560,568,0,0,0,0,0,0,0,0,0,-1,1784,456,0,0
567,568,0,0,0,0,0,0,0,0,0,-1,1791,456,0,0
574,568,0,0,0,0,0,0,0,0,0,-1,1798,456,0,0
581,568,0,0,0,0,0,0,0,0,0,-1,1805,456,0,0
588,568,0,0,0,0,0,0,0,0,0,-1,1812,456,0,0
595,568,0,0,0,0,0,0,0,0,0,-1,1819,456,0,0
602,568,0,0,0,0,0,0,0,0,0,-1,1826,456,0,0
609,568,0,0,0,0,0,0,0,0,0,-1,1833,456,0,0
616,568,0,0,0,0,0,0,0,0,0,-1,1840,456,0,0
623,568,0,0,0,0,0,0,0,0,0,-1,1847,456,0,0
630,568,0,0,0,0,0,0,0,0,0,-1,1854,456,0,0
637,568,0,0,0,0,0,0,0,0,0,-1,1861,456,0,0
644,568,0,0,0,0,0,0,0,0,0,-1,1868,456,0,0
651,568,0,0,0,0,0,0,0,0,0,-1,1875,456,0,0
658,568,0,0,0,0,0,0,0,0,0,-1,1882,456,0,0
665,568,0,0,0,0,0,0,0,0,0,-1,1889,456,0,0
672,568,0,0,0,0,0,0,0,0,0,-1,1896,456,0,0
679,568,0,0,0,0,0,0,0,0,0,-1,1903,456,0,0
686,568,0,0,0,0,0,0,0,0,0,-1,1910,456,0,0
693,568,0,0,0,0,0,0,0,0,0,-1,1917,456,0,0
700,568,0,0,0,0,0,0,0,0,0,-1,1924,456,0,0
707,568,0,0,0,0,0,0,0,0,0,-1,1931,456,0,0
714,568,0,0,0,0,0,0,0,0,0,-1,1938,456,0,0
721,568,0,0,0,0,0,0,0,0,0,-1,1945,456,0,0
728,568,0,0,0,0,0,0,0,0,0,-1,1952,456,0,0
735,568,0,0,0,0,0,0,0,0,0,-1,1959,456,0,0
742,568,0,0,0,0,0,0,0,0,0,-1,1966,456,0,0
749,568,0,0,0,0,0,0,0,0,0,-1,1973,456,0,0
756,568,0,0,0,0,0,0,0,0,0,-1,1980,456,0,0
763,568,0,0,0,0,0,0,0,0,0,-1,1987,456,0,0
770,568,0,0,0,0,0,0,0,0,0,-1,1994,456,0,0
777,568,0,0,0,0,0,0,0,0,0,-1,2001,456,0,0
784,568,0,0,0,0,0,0,0,0,0,-1,2008,456,0,0
791,568,0,0,0,0,0,0,0,0,0,-1,2015,456,0,0
798,568,0,0,0,0,0,0,0,0,0,-1,2022,456,0,0
805,568,0,0,0,0,0,0,0,0,0,-1,2029,456,0,0
812,568,0,0,0,0,0,0,0,0,0,-1,2036,456,0,0
-700,561,0,0,0,0,0,0,0,0,0,-1,524,463,0,0
-693,561,0,0,0,0,0,0,0,0,0,-1,531,463,0,0
-686,561,0,0,0,0,0,0,0,0,0,-1,538,463,0,0
-679,561,0,0,0,0,0,0,0,0,0,-1,545,463,0,0
-672,561,0,0,0,0,0,0,0,0,0,-1,552,463,0,0
-665,561,0,0,0,0,0,0,0,0,0,-1,559,463,0,0
-658,561,0,0,0,0,0,0,0,0,0,-1,566,463,0,0
-651,561,0,0,0,0,0,0,0,0,0,-1,573,463,0,0
-644,561,0,0,0,0,0,0,0,0,0,-1,580,463,0,0
-637,561,0,0,0,0,0,0,0,0,0,-1,587,463,0,0
-630,561,0,0,0,0,0,0,0,0,0,-1,594,463,0,0
-623,561,0,0,0,0,0,0,0,0,0,-1,601,463,0,0
-616,561,0,0,0,0,0,0,0,0,0,-1,608,463,0,0
-609,561,0,0,0,0,0,0,0,0,0,-1,615,463,0,0
-602,561,0,0,0,0,0,0,0,0,0,-1,622,463,0,0
-595,561,0,0,0,0,0,0,0,0,0,-1,629,463,0,0
-588,561,0,0,0,0,0,0,0,0,0,-1,636,463,0,0
-581,561,0,0,0,0,0,0,0,0,0,-1,643,463,0,0
-574,561,0,0,0,0,0,0,0,0,0,-1,650,463,0,0
-567,561,0,0,0,0,0,0,0,0,0,-1,657,463,0,0
-560,561,0,0,0,0,0,0,0,0,0,-1,664,463,0,0
-553,561,0,0,0,0,0,0,0,0,0,-1,671,463,0,0
-546,561,0,0,0,0,0,0,0,0,0,-1,678,463,0,0
-539,561,0,0,0,0,0,0,0,0,0,-1,685,463,0,0
-532,561,0,0,0,0,0,0,0,0,0,-1,692,463,0,0
-525,561,0,0,0,0,0,0,0,0,0,-1,699,463,0,0
-518,561,0,0,0,0,0,0,0,0,0,-1,706,463,0,0
-511,561,0,0,0,0,0,0,0,0,0,-1,713,463,0,0
-504,561,0,0,0,0,0,0,0,0,0,-1,720,463,0,0
-497,561,0,0,0,0,0,0,0,0,0,-1,727,463,0,0
-490,561,0,0,0,0,0,0,0,0,0,-1,734,463,0,0
-483,561,0,0,0,0,0,0,0,0,0,-1,741,463,0,0
-476,561,0,0,0,0,0,0,0,0,0,-1,748,463,0,0
-469,561,0,0,0,0,0,0,0,0,0,-1,755,463,0,0
-462,561,0,0,0,0,0,0,0,0,0,-1,762,463,0,0
-455,561,0,0,0,0,0,0,0,0,0,-1,769,463,0,0
-448,561,0,0,0,0,0,0,0,0,0,-1,776,463,0,0
-441,561,0,0,0,0,0,0,0,0,0,-1,783,463,0,0
-434,561,0,0,0,0,0,0,0,0,0,-1,790,463,0,0
-427,561,0,0,0,0,0,0,0,0,0,-1,797,463,0,0
-420,561,0,0,0,0,0,0,0,0,0,-1,804,463,0,0
-413,561,0,0,0,0,0,0,0,0,0,-1,811,463,0,0
-406,561,0,0,0,0,0,0,0,0,0,-1,818,463,0,0
-399,561,0,0,0,0,0,0,0,0,0,-1,825,463,0,0
-392,561,4.92407,-2.54578,0,0,0,0,0,0,0,-1,832,463,4.92408,2.54576
-385,561,5.55634,-1.02338,0,0,0,0,0,0,0,-1,839,463,5.55634,1.02338
-378,561,0.495178,-7.37878,0,0,0,0,0,0,0,-1,846,463,0.495164,7.37879
-371,561,1.06299,-7.56818,0,0,0,0,0,0,0,-1,853,463,1.06297,7.56817
-364,561,1.45264,-7.57684,0,0,0,0,0,0,0,-1,860,463,1.45264,7.57684
-357,561,1.11652,-7.33923,0,0,0,0,0,0,0,-1,867,463,1.11652,7.33924
-350,561,1.45264,-8.11682,0,0,0,0,0,0,0,-1,874,463,1.45264,8.11681
-343,561,1.43768,-8.2449,-0.00596831,0.0047552,-0.00287538,0.00547754,-0.00669066,-1.32467,0.00703694,0.0491757,881,463,1.43767,8.2449
-336,561,1.15253,-8.62137,-0.00312854,0.00432717,-0.00190291,0.00478477,-0.00358613,-1.33481,0.00484943,0.0499137,888,463,1.15255,8.62138
-329,561,1.06,-9.05344,-0.000966655,0.00376815,-0.0011,0.00401122,-0.00120973,-1.35331,0.00315566,0.0346068,895,463,1.06,9.05344
-322,561,1.13678,-9.26904,0.000680225,0.00328817,-0.000389976,0.00334523,0.000623159,-1.4255,0.00205419,0.0256312,902,463,1.13678,9.26904
-315,561,1.1814,-9.44937,0.00179975,0.00295003,0.000167674,0.00297397,0.0017758,1.42896,0.00172778,0.0182421,909,463,1.18142,9.44936
-308,561,1.17041,-9.69516,0.00248103,0.00272267,0.000540449,0.00315564,0.00204806,0.895366,0.00184869,0.0145143,916,463,1.17042,9.69517
-301,561,1.14886,-9.97406,0.00278343,0.00255509,0.000753309,0.00343117,0.00190735,0.710191,0.00198511,0.0111311,923,463,1.14885,9.97407
-294,561,1.11401,-10.1987,0.00283304,0.00228857,0.000839065,0.00344293,0.00167868,0.628531,0.00198798,0.00953639,930,463,1.11399,10.1987
-287,561,1.09735,-10.4297,0.00285783,0.00180317,0.000844458,0.00332608,0.00133492,0.506294,0.00193273,0.00884977,937,463,1.09732,10.4297
-280,561,1.09393,-10.657,0.0025642,0.00133048,0.000802509,0.00295953,0.000935145,0.457728,0.00174684,0.0113109,944,463,1.09393,10.6569
-273,561,1.09088,-10.8841,0.00209771,0.000876037,0.000686195,0.00240556,0.000568187,0.421717,0.00145186,0.0145421,951,463,1.09085,10.8841
-266,561,1.09509,-11.0993,0.00170426,0.000321405,0.000638828,0.0019542,7.14642e-05,0.372939,0.00127964,0.00971859,958,463,1.09507,11.0993
-259,561,1.06995,-11.306,0.00146565,-0.000201366,0.000444729,0.00157687,-0.00031259,0.245069,0.00116945,0.0102419,965,463,1.06993,11.306
-252,561,1.03052,-11.4915,0.00127824,-0.000809778,0.000376318,0.00134399,-0.000875531,0.172979,0.00129092,0.014275,972,463,1.03052,11.4915
-245,561,1.04211,-11.7092,0.00109934,-0.00159578,0.000315285,0.00113573,-0.00163217,0.114917,0.00160659,0.016339,979,463,1.04211,11.7092
-238,561,1.08612,-11.9258,0.000986544,-0.00252254,0.000477478,0.00105035,-0.00258635,0.132852,0.00216118,0.012783,986,463,1.08612,11.9258
-231,561,1.07385,-12.1185,0.000966853,-0.00340564,0.000736316,0.00108752,-0.0035263,0.162431,0.00278507,0.0101374,993,463,1.07383,12.1185
-224,561,1.07471,-12.2968,0.00104556,-0.00412336,0.00104309,0.00124812,-0.00432592,0.191803,0.00337775,0.0100331,1000,463,1.07471,12.2968
-217,561,1.10272,-12.4801,0.00111398,-0.004805,0.00135522,0.00140952,-0.00510054,0.214712,0.00395483,0.0112299,1007,463,1.10275,12.4801
-210,561,1.11652,-12.6867,0.00141595,-0.00544797,0.00162841,0.00178269,-0.00581471,0.221514,0.00458764,0.011756,1014,463,1.11654,12.6867
-203,561,1.11926,-12.8766,0.00212894,-0.00568252,0.00153374,0.00241929,-0.00597287,0.187095,0.00498791,0.0124871,1021,463,1.11924,12.8766
-196,561,1.13062,-13.0301,0.00267254,-0.00582836,0.00147439,0.002921,-0.00607681,0.166946,0.00530033,0.0131349,1028,463,1.13066,13.0301
-189,561,1.1084,-13.1885,0.00371348,-0.00556828,0.00114151,0.0038518,-0.00570661,0.12059,0.00555308,0.0153722,1035,463,1.10835,13.1885
-182,561,1.12268,-13.3714,0.00549189,-0.00463401,0.000150303,0.00549412,-0.00463624,0.014839,0.00585575,0.0179679,1042,463,1.12262,13.3714
-175,561,1.16638,-13.5246,0.00717899,-0.00355294,-0.000772542,0.00723432,-0.00360827,-0.0714941,0.00637559,0.0271354,1049,463,1.16635,13.5246
-168,561,1.19055,-13.7192,0.00924297,-0.00264996,-0.00223315,0.00964847,-0.00305545,-0.179623,0.00765678,0.0390413,1056,463,1.19056,13.7192
-161,561,1.19897,-13.8885,0.0109037,-0.00184128,-0.00415164,0.0121368,-0.00307436,-0.288712,0.0092872,0.0435475,1063,463,1.199,13.8885
-154,561,1.64941,-14.2259,0.0116378,-0.000275629,-0.00550217,0.0137901,-0.00242794,-0.372876,0.0101005,0.0441653,1070,463,1.64943,14.2259
-147,561,1.78931,-14.3494,0,0,0,0,0,0,0,-1,1077,463,1.78926,14.3494
-140,561,1.63916,-14.312,0,0,0,0,0,0,0,-1,1084,463,1.63918,14.312
-133,561,1.88586,-14.3758,0,0,0,0,0,0,0,-1,1091,463,1.88592,14.3758
-126,561,1.19836,-12.106,0,0,0,0,0,0,0,-1,1098,463,1.19839,12.106
-119,561,1.06567,-12.5626,0,0,0,0,0,0,0,-1,1105,463,1.06562,12.5626
-112,561,0.836548,-13.0954,0,0,0,0,0,0,0,-1,1112,463,0.836578,13.0954
-105,561,0.530518,-13.5379,0,0,0,0,0,0,0,-1,1119,463,0.530477,13.5379
-98,561,1.5387,-7.54352,0,0,0,0,0,0,0,-1,1126,463,1.53871,7.54351
-91,561,1.29553,-6.57968,0,0,0,0,0,0,0,-1,1133,463,1.29549,6.5797
-84,561,1.23364,-5.84555,0,0,0,0,0,0,0,-1,1140,463,1.23363,5.84556
-77,561,-2.36023,1.00204,0,0,0,0,0,0,0,-1,1147,463,-2.3602,-1.00205
-70,561,-3.90015,-1.41541,0,0,0,0,0,0,0,-1,1154,463,-3.90009,1.4154
-63,561,-6.95691,-4.02756,0,0,0,0,0,0,0,-1,1161,463,-6.95696,4.02756
-56,561,-5.37988,-6.66855,0,0,0,0,0,0,0,-1,1168,463,-5.37988,6.66854
-49,561,-5.7439,-9.11029,0,0,0,0,0,0,0,-1,1175,463,-5.74387,9.1103
-42,561,-1.72644,-5.63065,0,0,0,0,0,0,0,-1,1182,463,-1.72648,5.63064
-35,561,-1.65674,-4.87994,0,0,0,0,0,0,0,-1,1189,463,-1.6567,4.87993
-28,561,-1.91418,-3.86896,0,0,0,0,0,0,0,-1,1196,463,-1.91414,3.86895
-21,561,3.53357,-13.3235,0,0,0,0,0,0,0,-1,1203,463,3.53354,13.3235
-14,561,0.440674,-17.8518,0,0,0,0,0,0,0,-1,1210,463,0.440654,17.8518
-7,561,0.945557,-18.2194,0,0,0,0,0,0,0,-1,1217,463,0.94556,18.2194
0,561,1.54285,-18.0879,0,0,0,0,0,0,0,-1,1224,463,1.5429,18.0879
7,561,1.73987,-15.3269,0,0,0,0,0,0,0,-1,1231,463,1.73983,15.3269
14,561,1.52783,-15.4469,0,0,0,0,0,0,0,-1,1238,463,1.52779,15.4469
21,561,1.27112,-15.5194,0,0,0,0,0,0,0,-1,1245,463,1.2711,15.5194
28,561,1.50818,-15.2836,0,0,0,0,0,0,0,-1,1252,463,1.50813,15.2836
35,561,1.77319,-15.1467,0,0,0,0,0,0,0,-1,1259,463,1.77322,15.1467
42,561,2.23022,-14.8843,0,0,0,0,0,0,0,-1,1266,463,2.23028,14.8843
49,561,4.33887,-13.353,0,0,0,0,0,0,0,-1,1273,463,4.33892,13.353
56,561,4.25525,-13.334,0,0,0,0,0,0,0,-1,1280,463,4.25528,13.334
63,561,4.10669,-13.4075,0,0,0,0,0,0,0,-1,1287,463,4.10672,13.4075
70,561,3.98511,-13.5757,0,0,0,0,0,0,0,-1,1294,463,3.98512,13.5758
77,561,4.34875,-15.1429,0.0168202,-0.0985327,0.00337168,0.0169187,-0.0986312,0.029196,0.0720588,0.0467628,1301,463,4.34876,15.1429
84,561,4.34167,-14.0736,0.0191802,-0.1039,0.00494518,0.0193786,-0.104098,0.0400924,0.076679,0.0422275,1308,463,4.34162,14.0736
91,561,4.11426,-13.095,0.020672,-0.108477,0.00640567,0.0209889,-0.108793,0.0494375,0.0804433,0.0380318,1315,463,4.11431,13.095
98,561,4.15271,-12.2375,0.0205846,-0.112322,0.00719657,0.0209731,-0.11271,0.0539376,0.0830189,0.0414473,1322,463,4.15273,12.2375
105,561,4.58508,-11.3481,0.0196035,-0.114708,0.00774673,0.0200489,-0.115154,0.0574234,0.084251,0.0478061,1329,463,4.58508,11.3481
112,561,4.92065,-10.6335,0.0175136,-0.114681,0.00777447,0.0179693,-0.115136,0.0585419,0.0833952,0.0494918,1336,463,4.92063,10.6335
119,561,4.16443,-9.71768,0.0147057,-0.112797,0.0076349,0.0151612,-0.113252,0.0595967,0.0810293,0.0436942,1343,463,4.16447,9.71768
126,561,4.4646,-8.95706,0.0126763,-0.108925,0.00691862,0.0130687,-0.109318,0.056652,0.0776025,0.0437097,1350,463,4.46463,8.95707
133,561,4.5459,-8.24298,0,0,0,0,0,0,0,-1,1357,463,4.54586,8.24298
140,561,5.36121,-7.9191,0,0,0,0,0,0,0,-1,1364,463,5.36123,7.91909
147,561,8.09924,-17.2148,0,0,0,0,0,0,0,-1,1371,463,8.09921,17.2148
154,561,8.83252,-16.7587,0,0,0,0,0,0,0,-1,1378,463,8.83253,16.7587
161,561,9.73315,-16.5651,0,0,0,0,0,0,0,-1,1385,463,9.73311,16.5651
168,561,-1.68591,-18.2095,0,0,0,0,0,0,0,-1,1392,463,-1.68589,18.2095
175,561,10.4185,0.276398,0,0,0,0,0,0,0,-1,1399,463,10.4185,-0.276394
182,561,6.45703,-4.02127,0,0,0,0,0,0,0,-1,1406,463,6.45704,4.02127
189,561,6.50854,-2.08685,0,0,0,0,0,0,0,-1,1413,463,6.50851,2.08686
196,561,6.44775,-0.27182,0,0,0,0,0,0,0,-1,1420,463,6.44773,0.271814
203,561,6.18591,1.1301,0,0,0,0,0,0,0,-1,1427,463,6.18592,-1.13009
210,561,5.68713,2.68427,0,0,0,0,0,0,0,-1,1434,463,5.6871,-2.68425
217,561,3.61743,-7.33582,0,0,0,0,0,0,0,-1,1441,463,3.61738,7.33581
224,561,4.27466,-8.59171,0,0,0,0,0,0,0,-1,1448,463,4.27466,8.59171
231,561,4.93188,-9.8476,0,0,0,0,0,0,0,-1,1455,463,4.93193,9.84761
238,561,2.18018,-5.18359,0,0,0,0,0,0,0,-1,1462,463,2.18023,5.18359
245,561,3.07568,-3.50238,0,0,0,0,0,0,0,-1,1469,463,3.0757,3.50238
252,561,3.47412,-3.71109,0,0,0,0,0,0,0,-1,1476,463,3.47413,3.71109
259,561,3.42212,-3.2334,0,0,0,0,0,0,0,-1,1483,463,3.42214,3.2334
266,561,4.44373,-5.90027,0,0,0,0,0,0,0,-1,1490,463,4.44372,5.90026
273,561,2.59485,-3.65268,0,0,0,0,0,0,0,-1,1497,463,2.5948,3.65268
280,561,3.10767,-6.38235,0,0,0,0,0,0,0,-1,1504,463,3.10766,6.38235
287,561,4.43933,-13.0262,0,0,0,0,0,0,0,-1,1511,463,4.4393,13.0262
294,561,4.22668,-12.877,0,0,0,0,0,0,0,-1,1518,463,4.22663,12.877
301,561,4.22229,-12.6893,0.00165318,-0.000789173,-0.00259594,0.00330083,-0.00243682,-0.565546,0.00332513,0.0404736,1525,463,4.22233,12.6893
308,561,4.30237,-12.4741,0.00094048,-0.00165148,-0.00298051,0.00289458,-0.00360558,-0.58032,0.00376034,0.0334326,1532,463,4.30235,12.4741
315,561,4.30261,-12.3615,0.000382154,-0.00202389,-0.00316175,0.00256202,-0.00420375,-0.60361,0.00394437,0.0234724,1539,463,4.30261,12.3615
322,561,4.32874,-12.1735,-3.88385e-05,-0.00198606,-0.00308633,0.0022238,-0.0042487,-0.632609,0.00379737,0.0245098,1546,463,4.3287,12.1735
329,561,4.33984,-11.9466,-0.00029683,-0.00177637,-0.00283666,0.00189494,-0.00396814,-0.657845,0.00345487,0.015705,1553,463,4.33981,11.9466
336,561,4.37329,-11.7198,-0.000406613,-0.00148532,-0.00251751,0.00162867,-0.00352061,-0.679873,0.00303909,0.0106228,1560,463,4.37325,11.7198
343,561,4.37439,-11.5127,-0.000512691,-0.00113315,-0.00214745,0.00134682,-0.00299266,-0.713662,0.00256476,0.00961892,1567,463,4.37438,11.5127
350,561,4.36658,-11.3085,-0.000477868,-0.000839423,-0.00174503,0.00109572,-0.00241301,-0.733784,0.00207281,0.00972873,1574,463,4.3666,11.3085
357,561,4.37268,-11.0996,-0.000468244,-0.000509795,-0.00145018,0.000961309,-0.00193935,-0.778235,0.00170613,0.0102132,1581,463,4.37265,11.0996
364,561,4.38208,-10.8943,-0.000395423,-9.76526e-05,-0.00101808,0.000782372,-0.00127545,-0.858004,0.0011994,0.0099923,1588,463,4.38204,10.8943
371,561,4.38525,-10.6655,-0.000292676,0.000225465,-0.000612641,0.000631561,-0.000698772,-0.985433,0.000768395,0.0168285,1595,463,4.38522,10.6655
378,561,4.37354,-10.4426,-0.000218322,0.000628481,-0.000248281,0.000695907,-0.000285748,-1.30562,0.000583016,0.0116607,1602,463,4.37349,10.4426
385,561,4.37073,-10.1982,-0.000251031,0.000839341,-5.71617e-05,0.000842329,-0.00025402,-1.51856,0.000662659,0.00933138,1609,463,4.37069,10.1982
392,561,4.35547,-9.95206,-0.000239374,0.000861435,0.000134181,0.000877555,-0.000255493,1.45124,0.000686242,0.0129711,1616,463,4.35547,9.95206
399,561,4.34656,-9.7265,-0.000104917,0.000871627,0.000350787,0.000984571,-0.000217862,1.2593,0.000739773,0.0197484,1623,463,4.34652,9.72649
406,561,4.35706,-9.47772,0.000133695,0.00101961,0.00081111,0.00150083,-0.000347528,1.03533,0.00113429,0.0181538,1630,463,4.35703,9.47773
413,561,4.35083,-9.20984,0.000266753,0.00110205,0.00120766,0.00196225,-0.000593441,0.951877,0.00154446,0.0179547,1637,463,4.35087,9.20985
420,561,4.34497,-8.94937,0.000431084,0.000865043,0.00150889,0.00217248,-0.000876351,0.856809,0.00181249,0.0144361,1644,463,4.34501,8.94937
427,561,4.35266,-8.69455,0.000530836,-0.000136001,0.00175826,0.00198701,-0.00159218,0.691696,0.00207063,0.0106466,1651,463,4.35267,8.69454
434,561,4.35925,-8.4534,0.000770025,-0.000900034,0.00213423,0.00222677,-0.00235678,0.598926,0.00264667,0.0116767,1658,463,4.35925,8.45341
441,561,4.36328,-8.21606,0.000996487,-0.00192386,0.00250609,0.00243676,-0.00336413,0.521616,0.00336338,0.0144006,1665,463,4.36325,8.21607
448,561,4.37671,-7.97455,0.00110369,-0.00322959,0.00280827,0.00248397,-0.00460987,0.456832,0.00415649,0.0191893,1672,463,4.37674,7.97455
455,561,4.49817,-7.67053,0.00106903,-0.00501024,0.00294706,0.00226313,-0.00620434,0.384968,0.00506214,0.0352262,1679,463,4.49814,7.67054
462,561,4.36145,-7.311,0.00126086,-0.00647663,0.00299922,0.00228727,-0.00750303,0.329731,0.00591377,0.0357189,1686,463,4.36149,7.31102
469,561,4.22681,-7.08301,0.00185319,-0.00744721,0.00319593,0.00284553,-0.00843955,0.301065,0.00677703,0.0252398,1693,463,4.22678,7.08301
476,561,4.10315,-6.35959,0.00258951,-0.00854488,0.00314011,0.00341402,-0.00936939,0.256778,0.00764281,0.0391216,1700,463,4.10311,6.35959
483,561,3.95593,-5.4675,0,0,0,0,0,0,0,-1,1707,463,3.95593,5.46751
490,561,6.13135,-2.58374,0,0,0,0,0,0,0,-1,1714,463,6.13139,2.58373
497,561,7.30652,-2.46649,0,0,0,0,0,0,0,-1,1721,463,7.30649,2.4665
504,561,6.45044,-2.35263,0,0,0,0,0,0,0,-1,1728,463,6.4504,2.35263
511,561,0,0,0,0,0,0,0,0,0,-1,1735,463,0,0
518,561,0,0,0,0,0,0,0,0,0,-1,1742,463,0,0
525,561,0,0,0,0,0,0,0,0,0,-1,1749,463,0,0
532,561,0,0,0,0,0,0,0,0,0,-1,1756,463,0,0
539,561,0,0,0,0,0,0,0,0,0,-1,1763,463,0,0
546,561,0,0,0,0,0,0,0,0,0,-1,1770,463,0,0
553,561,0,0,0,0,0,0,0,0,0,-1,1777,463,0,0
560,561,0,0,0,0,0,0,0,0,0,-1,1784,463,0,0
567,561,0,0,0,0,0,0,0,0,0,-1,1791,463,0,0
574,561,0,0,0,0,0,0,0,0,0,-1,1798,463,0,0
581,561,0,0,0,0,0,0,0,0,0,-1,1805,463,0,0
588,561,0,0,0,0,0,0,0,0,0,-1,1812,463,0,0
595,561,0,0,0,0,0,0,0,0,0,-1,1819,463,0,0
602,561,0,0,0,0,0,0,0,0,0,-1,1826,463,0,0
609,561,0,0,0,0,0,0,0,0,0,-1,1833,463,0,0
616,561,0,0,0,0,0,0,0,0,0,-1,1840,463,0,0
623,561,0,0,0,0,0,0,0,0,0,-1,1847,463,0,0
630,561,0,0,0,0,0,0,0,0,0,-1,1854,463,0,0
637,561,0,0,0,0,0,0,0,0,0,-1,1861,463,0,0
644,561,0,0,0,0,0,0,0,0,0,-1,1868,463,0,0
651,561,0,0,0,0,0,0,0,0,0,-1,1875,463,0,0
658,561,0,0,0,0,0,0,0,0,0,-1,1882,463,0,0
665,561,0,0,0,0,0,0,0,0,0,-1,1889,463,0,0
672,561,0,0,0,0,0,0,0,0,0,-1,1896,463,0,0
679,561,0,0,0,0,0,0,0,0,0,-1,1903,463,0,0
686,561,0,0,0,0,0,0,0,0,0,-1,1910,463,0,0
693,561,0,0,0,0,0,0,0,0,0,-1,1917,463,0,0
700,561,0,0,0,0,0,0,0,0,0,-1,1924,463,0,0
707,561,0,0,0,0,0,0,0,0,0,-1,1931,463,0,0
714,561,0,0,0,0,0,0,0,0,0,-1,1938,463,0,0
721,561,0,0,0,0,0,0,0,0,0,-1,1945,463,0,0
728,561,0,0,0,0,0,0,0,0,0,-1,1952,463,0,0
735,561,0,0,0,0,0,0,0,0,0,-1,1959,463,0,0
742,561,0,0,0,0,0,0,0,0,0,-1,1966,463,0,0
749,561,0,0,0,0,0,0,0,0,0,-1,1973,463,0,0
756,561,0,0,0,0,0,0,0,0,0,-1,1980,463,0,0
763,561,0,0,0,0,0,0,0,0,0,-1,1987,463,0,0
770,561,0,0,0,0,0,0,0,0,0,-1,1994,463,0,0
777,561,0,0,0,0,0,0,0,0,0,-1,2001,463,0,0
784,561,0,0,0,0,0,0,0,0,0,-1,2008,463,0,0
791,561,0,0,0,0,0,0,0,0,0,-1,2015,463,0,0
798,561,0,0,0,0,0,0,0,0,0,-1,2022,463,0,0
805,561,0,0,0,0,0,0,0,0,0,-1,2029,463,0,0
812,561,0,0,0,0,0,0,0,0,0,-1,2036,463,0,0
-700,554,0,0,0,0,0,0,0,0,0,-1,524,470,0,0
-693,554,0,0,0,0,0,0,0,0,0,-1,531,470,0,0
-686,554,0,0,0,0,0,0,0,0,0,-1,538,470,0,0
-679,554,0,0,0,0,0,0,0,0,0,-1,545,470,0,0
-672,554,0,0,0,0,0,0,0,0,0,-1,552,470,0,0
-665,554,0,0,0,0,0,0,0,0,0,-1,559,470,0,0
-658,554,0,0,0,0,0,0,0,0,0,-1,566,470,0,0
-651,554,0,0,0,0,0,0,0,0,0,-1,573,470,0,0
-644,554,0,0,0,0,0,0,0,0,0,-1,580,470,0,0
-637,554,0,0,0,0,0,0,0,0,0,-1,587,470,0,0
-630,554,0,0,0,0,0,0,0,0,0,-1,594,470,0,0
-623,554,0,0,0,0,0,0,0,0,0,-1,601,470,0,0
-616,554,0,0,0,0,0,0,0,0,0,-1,608,470,0,0
-609,554,0,0,0,0,0,0,0,0,0,-1,615,470,0,0
-602,554,0,0,0,0,0,0,0,0,0,-1,622,470,0,0
-595,554,0,0,0,0,0,0,0,0,0,-1,629,470,0,0
-588,554,0,0,0,0,0,0,0,0,0,-1,636,470,0,0
-581,554,0,0,0,0,0,0,0,0,0,-1,643,470,0,0
-574,554,0,0,0,0,0,0,0,0,0,-1,650,470,0,0
-567,554,0,0,0,0,0,0,0,0,0,-1,657,470,0,0
-560,554,0,0,0,0,0,0,0,0,0,-1,664,470,0,0
-553,554,0,0,0,0,0,0,0,0,0,-1,671,470,0,0
-546,554,0,0,0,0,0,0,0,0,0,-1,678,470,0,0
-539,554,0,0,0,0,0,0,0,0,0,-1,685,470,0,0
-532,554,0,0,0,0,0,0,0,0,0,-1,692,470,0,0
-525,554,0,0,0,0,0,0,0,0,0,-1,699,470,0,0
-518,554,0,0,0,0,0,0,0,0,0,-1,706,470,0,0
-511,554,0,0,0,0,0,0,0,0,0,-1,713,470,0,0
-504,554,0,0,0,0,0,0,0,0,0,-1,720,470,0,0
-497,554,0,0,0,0,0,0,0,0,0,-1,727,470,0,0
-490,554,0,0,0,0,0,0,0,0,0,-1,734,470,0,0
-483,554,0,0,0,0,0,0,0,0,0,-1,741,470,0,0
-476,554,0,0,0,0,0,0,0,0,0,-1,748,470,0,0
-469,554,0,0,0,0,0,0,0,0,0,-1,755,470,0,0
-462,554,0,0,0,0,0,0,0,0,0,-1,762,470,0,0
-455,554,0,0,0,0,0,0,0,0,0,-1,769,470,0,0
-448,554,0,0,0,0,0,0,0,0,0,-1,776,470,0,0
-441,554,0,0,0,0,0,0,0,0,0,-1,783,470,0,0
-434,554,0,0,0,0,0,0,0,0,0,-1,790,470,0,0
-427,554,0,0,0,0,0,0,0,0,0,-1,797,470,0,0
-420,554,0,0,0,0,0,0,0,0,0,-1,804,470,0,0
-413,554,0,0,0,0,0,0,0,0,0,-1,811,470,0,0
-406,554,0,0,0,0,0,0,0,0,0,-1,818,470,0,0
-399,554,4.31549,-3.60254,0,0,0,0,0,0,0,-1,825,470,4.31548,3.60254
-392,554,3.92578,-3.02924,0,0,0,0,0,0,0,-1,832,470,3.92577,3.02924
-385,554,4.06689,-2.14221,0,0,0,0,0,0,0,-1,839,470,4.06687,2.14222
-378,554,5.68042,-0.171387,0,0,0,0,0,0,0,-1,846,470,5.68039,0.171378
-371,554,1.24487,-7.94312,0,0,0,0,0,0,0,-1,853,470,1.24484,7.94311
-364,554,1.04883,-7.68756,0,0,0,0,0,0,0,-1,860,470,1.0488,7.68757
-357,554,0.87793,-7.5083,0,0,0,0,0,0,0,-1,867,470,0.877958,7.50829
-350,554,1.17737,-8.26816,0,0,0,0,0,0,0,-1,874,470,1.17737,8.26815
-343,554,1.09943,-8.44373,-0.00529733,0.00342753,-0.00228305,0.00398883,-0.00585863,-1.32972,0.0057195,0.043347,881,470,1.09944,8.44372
-336,554,1.00989,-8.68796,-0.00331317,0.00318267,-0.00174162,0.00362016,-0.00375066,-1.32469,0.00425577,0.0332859,888,470,1.00991,8.68796
-329,554,0.933716,-9.01868,-0.00167784,0.00275955,-0.00124899,0.00308695,-0.00200524,-1.31444,0.002962,0.0159821,895,470,0.933715,9.01867
-322,554,0.91156,-9.26639,-0.000365944,0.00236162,-0.000768171,0.00256309,-0.000567405,-1.31431,0.00192592,0.00947609,902,470,0.911551,9.26639
-315,554,0.939209,-9.49655,0.000584161,0.00212334,-0.000361224,0.0022039,0.000503603,-1.35137,0.00133348,0.00979081,909,470,0.939201,9.49657
-308,554,0.930054,-9.72971,0.00125358,0.00193893,-8.40042e-05,0.00194907,0.00124343,-1.4506,0.00113949,0.0124639,916,470,0.930081,9.72971
-301,554,0.912292,-9.97192,0.0016368,0.00178778,0.000117346,0.00185182,0.00157276,1.07123,0.00115284,0.0127439,923,470,0.912317,9.97192
-294,554,0.875793,-10.2099,0.0018343,0.00151447,0.000247427,0.00196899,0.00137978,0.498511,0.00116694,0.010594,930,470,0.875816,10.2099
-287,554,0.866028,-10.425,0.00203624,0.00101021,0.000326176,0.00213115,0.000915301,0.283166,0.00123449,0.0105825,937,470,0.866009,10.4249
-280,554,0.878906,-10.6403,0.00200225,0.000440394,0.000351153,0.00207757,0.000365076,0.211286,0.00128081,0.0110141,944,470,0.878904,10.6403
-273,554,0.889038,-10.8848,0.00178678,-9.08473e-05,0.000334442,0.00184457,-0.000148639,0.171111,0.00128214,0.0145159,951,470,0.889035,10.8848
-266,554,0.886047,-11.1032,0.00162902,-0.000683951,0.000365128,0.00168529,-0.000740222,0.152909,0.00143536,0.0118411,958,470,0.886023,11.1032
-259,554,0.845581,-11.2805,0.00161551,-0.0013019,0.000280509,0.00164223,-0.00132863,0.0949904,0.00171841,0.0118145,965,470,0.845605,11.2805
-252,554,0.828003,-11.4611,0.00159603,-0.00207145,0.00031858,0.0016235,-0.00209892,0.0860076,0.00215497,0.0140244,972,470,0.828022,11.461
-245,554,0.827332,-11.6837,0.00157111,-0.00306172,0.000436779,0.00161193,-0.00310254,0.0931849,0.00276688,0.0159292,979,470,0.827302,11.6837
-238,554,0.867126,-11.92,0.00157675,-0.00404176,0.000671784,0.00165596,-0.00412097,0.117362,0.00343503,0.0116435,986,470,0.867124,11.92
-231,554,0.872009,-12.1229,0.00160564,-0.00503538,0.00101222,0.0017565,-0.00518624,0.147946,0.00416824,0.00935612,993,470,0.871984,12.1229
-224,554,0.890564,-12.2999,0.0016382,-0.0058999,0.0014004,0.00188996,-0.00615166,0.177872,0.00485529,0.00942761,1000,470,0.890576,12.2999
-217,554,0.914246,-12.4748,0.00163254,-0.0067314,0.00181876,0.00201092,-0.00710977,0.205115,0.00553333,0.0104067,1007,470,0.914234,12.4748
-210,554,0.941895,-12.7007,0.00189135,-0.00751439,0.00220693,0.00238344,-0.00800647,0.219382,0.00628463,0.0137795,1014,470,0.94191,12.7007
-203,554,0.946533,-12.9115,0.00264744,-0.00776012,0.00215846,0.00307733,-0.00819001,0.196594,0.00672474,0.0206757,1021,470,0.946529,12.9115
-196,554,0.911865,-12.9298,0.00325012,-0.00788091,0.00212995,0.00364377,-0.00827456,0.182754,0.00705206,0.0263091,1028,470,0.911909,12.9299
-189,554,0.909546,-13.0294,0.00451311,-0.00746674,0.00173845,0.00476029,-0.00771391,0.141234,0.00726897,0.030567,1035,470,0.90956,13.0293
-182,554,0.869751,-13.1172,0.00669476,-0.00615909,0.000526085,0.00671625,-0.00618059,0.0408371,0.00744814,0.0377124,1042,470,0.869745,13.1172
-175,554,0.953003,-13.5378,0,0,0,0,0,0,0,-1,1049,470,0.953063,13.5378
-168,554,1.0304,-13.7908,0,0,0,0,0,0,0,-1,1056,470,1.03036,13.7908
-161,554,1.86194,-14.421,0,0,0,0,0,0,0,-1,1063,470,1.86197,14.4209
-154,554,1.90955,-14.4673,0,0,0,0,0,0,0,-1,1070,470,1.90952,14.4673
-147,554,1.95703,-14.5136,0,0,0,0,0,0,0,-1,1077,470,1.95708,14.5136
-140,554,1.66357,-14.3699,0,0,0,0,0,0,0,-1,1084,470,1.66359,14.3699
-133,554,1.99255,-14.459,0,0,0,0,0,0,0,-1,1091,470,1.99257,14.459
-126,554,-0.195923,-8.76236,0,0,0,0,0,0,0,-1,1098,470,-0.195888,8.76235
-119,554,0.944702,-12.1022,0,0,0,0,0,0,0,-1,1105,470,0.944726,12.1022
-112,554,0.837524,-12.4395,0,0,0,0,0,0,0,-1,1112,470,0.837493,12.4395
-105,554,2.82129,-9.46112,0,0,0,0,0,0,0,-1,1119,470,2.82127,9.46112
-98,554,1.51929,-7.3624,0,0,0,0,0,0,0,-1,1126,470,1.51928,7.36241
-91,554,1.41089,-6.5864,0,0,0,0,0,0,0,-1,1133,470,1.41093,6.58638
-84,554,1.62305,-5.87186,0,0,0,0,0,0,0,-1,1140,470,1.62299,5.87186
-77,554,-2.56958,1.33258,0,0,0,0,0,0,0,-1,1147,470,-2.56959,-1.33257
-70,554,-3.68164,-1.18332,0,0,0,0,0,0,0,-1,1154,470,-3.68158,1.18331
-63,554,-4.86853,-3.88708,0,0,0,0,0,0,0,-1,1161,470,-4.86853,3.88708
-56,554,-5.69958,-6.45422,0,0,0,0,0,0,0,-1,1168,470,-5.69955,6.45422
-49,554,-6.23645,-8.8569,0,0,0,0,0,0,0,-1,1175,470,-6.23643,8.85689
-42,554,-6.62524,-11.5382,0,0,0,0,0,0,0,-1,1182,470,-6.62522,11.5382
-35,554,-2.40173,-4.59482,0,0,0,0,0,0,0,-1,1189,470,-2.40169,4.59481
-28,554,-0.760132,-1.65555,0,0,0,0,0,0,0,-1,1196,470,-0.760095,1.65556
-21,554,4.19897,-12.6041,0,0,0,0,0,0,0,-1,1203,470,4.19894,12.6041
-14,554,0.443726,-18.7556,0,0,0,0,0,0,0,-1,1210,470,0.443774,18.7556
-7,554,0.941528,-19.1894,0,0,0,0,0,0,0,-1,1217,470,0.941479,19.1894
0,554,3.43384,-15.7317,0,0,0,0,0,0,0,-1,1224,470,3.4338,15.7317
7,554,2.74292,-15.8106,0,0,0,0,0,0,0,-1,1231,470,2.74289,15.8106
14,554,1.99268,-15.9591,0,0,0,0,0,0,0,-1,1238,470,1.99271,15.9591
21,554,1.11938,-16.0495,0,0,0,0,0,0,0,-1,1245,470,1.11936,16.0495
28,554,1.27612,-15.3629,0,0,0,0,0,0,0,-1,1252,470,1.27609,15.3629
35,554,1.74951,-15.0512,0,0,0,0,0,0,0,-1,1259,470,1.7495,15.0512
42,554,2.13025,-14.4118,0,0,0,0,0,0,0,-1,1266,470,2.13026,14.4118
49,554,2.68518,-14.0435,0,0,0,0,0,0,0,-1,1273,470,2.68522,14.0435
56,554,2.68311,-13.7778,0,0,0,0,0,0,0,-1,1280,470,2.68314,13.7778
63,554,4.50562,-12.7209,0,0,0,0,0,0,0,-1,1287,470,4.50557,12.7209
70,554,4.2688,-15.0294,0,0,0,0,0,0,0,-1,1294,470,4.26886,15.0294
77,554,4.33228,-14.2123,0.0157563,-0.108618,0.0124113,0.0169827,-0.109845,0.0984953,0.0794977,0.0459017,1301,470,4.33224,14.2123
84,554,4.36938,-13.4479,0.0190278,-0.11451,0.013545,0.0203879,-0.11587,0.100074,0.0848627,0.0424522,1308,470,4.3694,13.4479
91,554,4.3363,-12.2587,0.0215824,-0.119723,0.014322,0.0230194,-0.12116,0.0999999,0.0894397,0.0410423,1315,470,4.33632,12.2587
98,554,4.50439,-11.1976,0.0225084,-0.124323,0.0140955,0.0238493,-0.125664,0.094844,0.0927533,0.0428873,1322,470,4.50433,11.1976
105,554,4.66663,-10.4952,0.0223696,-0.127364,0.0135202,0.0235806,-0.128575,0.0893321,0.0945622,0.0457723,1329,470,4.6666,10.4952
112,554,4.73535,-9.82312,0.020774,-0.127863,0.0123062,0.021786,-0.128875,0.0820488,0.094024,0.0441926,1336,470,4.73534,9.82311
119,554,4.89197,-9.01483,0.0182157,-0.126214,0.0109031,0.0190341,-0.127032,0.0749252,0.0916938,0.040816,1343,470,4.89192,9.01484
126,554,5.09326,-8.20581,0.0163837,-0.121968,0.00887979,0.0169513,-0.122536,0.0638335,0.0878878,0.040437,1350,470,5.09321,8.20581
133,554,5.42566,-7.62234,0.0163461,-0.114255,0.00648561,0.0166674,-0.114576,0.0494975,0.0825028,0.0453128,1357,470,5.42569,7.62234
140,554,5.93396,-7.01862,0.0176378,-0.106771,0.00613256,0.0179394,-0.107073,0.0491347,0.078052,0.0497735,1364,470,5.93395,7.01861
147,554,6.46826,-6.39621,0,0,0,0,0,0,0,-1,1371,470,6.46832,6.39621
154,554,9.74463,-18.1017,0,0,0,0,0,0,0,-1,1378,470,9.74467,18.1017
161,554,11.5851,-18.0481,0,0,0,0,0,0,0,-1,1385,470,11.5851,18.0481
168,554,13.5839,-17.6145,0,0,0,0,0,0,0,-1,1392,470,13.5838,17.6145
175,554,10.663,0.286957,0,0,0,0,0,0,0,-1,1399,470,10.663,-0.286966
182,554,6.71106,-4.50217,0,0,0,0,0,0,0,-1,1406,470,6.71107,4.50215
189,554,6.90479,-2.50348,0,0,0,0,0,0,0,-1,1413,470,6.90477,2.50348
196,554,6.96216,-0.740906,0,0,0,0,0,0,0,-1,1420,470,6.96214,0.740912
203,554,6.43518,0.414154,0,0,0,0,0,0,0,-1,1427,470,6.43523,-0.414141
210,554,6.21167,1.96707,0,0,0,0,0,0,0,-1,1434,470,6.21165,-1.96706
217,554,5.64551,3.4989,0,0,0,0,0,0,0,-1,1441,470,5.64555,-3.49891
224,554,4.85144,-8.85172,0,0,0,0,0,0,0,-1,1448,470,4.85146,8.85173
231,554,3.25073,-5.29642,0,0,0,0,0,0,0,-1,1455,470,3.25078,5.29642
238,554,4.28625,-3.25253,0,0,0,0,0,0,0,-1,1462,470,4.28622,3.25252
245,554,4.0752,-2.90033,0,0,0,0,0,0,0,-1,1469,470,4.07515,2.90032
252,554,3.52112,-0.934998,0,0,0,0,0,0,0,-1,1476,470,3.52113,0.934996
259,554,3.96448,-2.16425,0,0,0,0,0,0,0,-1,1483,470,3.96446,2.16424
266,554,3.0592,-2.71716,0,0,0,0,0,0,0,-1,1490,470,3.05923,2.71718
273,554,2.58521,-3.06876,0,0,0,0,0,0,0,-1,1497,470,2.58524,3.06874
280,554,2.83301,-0.991699,0,0,0,0,0,0,0,-1,1504,470,2.83303,0.991704
287,554,3.54126,-4.12277,0,0,0,0,0,0,0,-1,1511,470,3.54123,4.12277
294,554,3.62036,-8.50146,0,0,0,0,0,0,0,-1,1518,470,3.62031,8.50145
301,554,4.20996,-12.4743,0,0,0,0,0,0,0,-1,1525,470,4.20996,12.4743
308,554,4.48779,-12.4782,0,0,0,0,0,0,0,-1,1532,470,4.48781,12.4782
315,554,4.49915,-12.435,0,0,0,0,0,0,0,-1,1539,470,4.49917,12.435
322,554,4.68713,-11.9453,-0.000652685,-0.00292695,-0.00442215,0.0027762,-0.00635583,-0.659553,0.00540571,0.0496793,1546,470,4.68714,11.9452
329,554,4.57373,-11.8316,-0.000855307,-0.00263876,-0.00404851,0.00239852,-0.00589258,-0.676999,0.00492652,0.0301367,1553,470,4.5737,11.8316
336,554,4.55542,-11.7092,-0.000871797,-0.00229112,-0.0036075,0.00209518,-0.0052581,-0.688279,0.00437437,0.0144091,1560,470,4.55546,11.7092
343,554,4.56384,-11.5375,-0.000899377,-0.00187849,-0.00312099,0.00177022,-0.00454808,-0.707602,0.00376356,0.0104789,1567,470,4.56386,11.5375
350,554,4.58789,-11.3337,-0.000779664,-0.00162069,-0.00262434,0.00145764,-0.003858,-0.705956,0.00317157,0.0096497,1574,470,4.58792,11.3337
357,554,4.60864,-11.1253,-0.000719792,-0.00135009,-0.00230642,0.00129292,-0.0033628,-0.717499,0.00277511,0.0109809,1581,470,4.60867,11.1253
364,554,4.59302,-10.9077,-0.000566384,-0.000909564,-0.00178123,0.00105151,-0.00252745,-0.73738,0.00212408,0.00925251,1588,470,4.59306,10.9077
371,554,4.59204,-10.6818,-0.00038571,-0.000553381,-0.00129024,0.00082342,-0.00176251,-0.752956,0.00152545,0.00886595,1595,470,4.5921,10.6818
378,554,4.6106,-10.4308,-0.000223754,-7.48083e-05,-0.000831675,0.000685722,-0.000984284,-0.830052,0.000969301,0.00993974,1602,470,4.61063,10.4309
385,554,4.61926,-10.191,-0.000179932,0.000205644,-0.000544681,0.00059065,-0.000564937,-0.955491,0.000667233,0.00927991,1609,470,4.61921,10.191
392,554,4.61707,-9.9592,-0.000130526,0.000278866,-0.000261947,0.00040661,-0.00025827,-1.11706,0.00038704,0.0127358,1616,470,4.61705,9.95921
399,554,4.62085,-9.69934,-3.36559e-05,0.000350181,-3.86014e-05,0.000354024,-3.74995e-05,-1.47155,0.000249457,0.0176182,1623,470,4.62082,9.69933
406,554,4.62122,-9.4519,0.000131228,0.000514465,0.000357949,0.000728858,-8.31652e-05,1.03115,0.000515866,0.0163651,1630,470,4.62125,9.45191
413,554,4.60303,-9.1962,0.000262476,0.000689066,0.000746786,0.00125242,-0.000300878,0.924503,0.000951236,0.0170328,1637,470,4.60309,9.19619
420,554,4.60278,-8.92691,0.00040972,0.000593298,0.0010525,0.001558,-0.000554985,0.828893,0.00126492,0.0179611,1644,470,4.6028,8.92692
427,554,4.59937,-8.69693,0.000523522,9.78067e-07,0.00134159,0.00162904,-0.00110454,0.689228,0.00158789,0.0119627,1651,470,4.5994,8.69693
434,554,4.57495,-8.47711,0.000739606,-0.00048337,0.00170774,0.00194203,-0.0016858,0.613476,0.00209627,0.010369,1658,470,4.57501,8.47711
441,554,4.58179,-8.19223,0.00096143,-0.00118594,0.00207877,0.00222742,-0.00245193,0.547018,0.00270266,0.0107614,1665,470,4.58173,8.19223
448,554,4.58508,-7.91428,0.00110181,-0.00208217,0.00240871,0.00239709,-0.00337745,0.493388,0.00334991,0.0134581,1672,470,4.58509,7.91428
455,554,4.57324,-7.66714,0.00119247,-0.00329494,0.00262517,0.00240212,-0.0045046,0.431793,0.00404872,0.0151825,1679,470,4.57324,7.66715
462,554,4.53491,-7.39371,0.00163419,-0.00402981,0.00281811,0.00279744,-0.00519305,0.39147,0.00468191,0.0169121,1686,470,4.53492,7.3937
469,554,4.53687,-7.09705,0.00248521,-0.00424579,0.0031754,0.00374678,-0.00550736,0.378171,0.00537501,0.0225789,1693,470,4.53688,7.09703
476,554,4.66602,-6.54727,0.00336813,-0.00454939,0.00335951,0.00460149,-0.00578274,0.351848,0.00600825,0.0468266,1700,470,4.66604,6.54727
483,554,4.77222,-5.97681,0,0,0,0,0,0,0,-1,1707,470,4.77221,5.97682
490,554,7.31543,-3.51794,0,0,0,0,0,0,0,-1,1714,470,7.3154,3.51794
497,554,7.9751,-2.43454,0,0,0,0,0,0,0,-1,1721,470,7.97505,2.43453
504,554,2.13257,-3.81628,0,0,0,0,0,0,0,-1,1728,470,2.1326,3.8163
511,554,1.31396,-4.02713,0,0,0,0,0,0,0,-1,1735,470,1.31398,4.02712
518,554,-1.15686,-2.436,0,0,0,0,0,0,0,-1,1742,470,-1.15691,2.43599
525,554,0,0,0,0,0,0,0,0,0,-1,1749,470,0,0
532,554,0,0,0,0,0,0,0,0,0,-1,1756,470,0,0
539,554,0,0,0,0,0,0,0,0,0,-1,1763,470,0,0
546,554,0,0,0,0,0,0,0,0,0,-1,1770,470,0,0
553,554,0,0,0,0,0,0,0,0,0,-1,1777,470,0,0
560,554,0,0,0,0,0,0,0,0,0,-1,1784,470,0,0
567,554,0,0,0,0,0,0,0,0,0,-1,1791,470,0,0
574,554,0,0,0,0,0,0,0,0,0,-1,1798,470,0,0
581,554,0,0,0,0,0,0,0,0,0,-1,1805,470,0,0
588,554,0,0,0,0,0,0,0,0,0,-1,1812,470,0,0
595,554,0,0,0,0,0,0,0,0,0,-1,1819,470,0,0
602,554,0,0,0,0,0,0,0,0,0,-1,1826,470,0,0
609,554,0,0,0,0,0,0,0,0,0,-1,1833,470,0,0
616,554,0,0,0,0,0,0,0,0,0,-1,1840,470,0,0
623,554,0,0,0,0,0,0,0,0,0,-1,1847,470,0,0
630,554,0,0,0,0,0,0,0,0,0,-1,1854,470,0,0
637,554,0,0,0,0,0,0,0,0,0,-1,1861,470,0,0
644,554,0,0,0,0,0,0,0,0,0,-1,1868,470,0,0
651,554,0,0,0,0,0,0,0,0,0,-1,1875,470,0,0
658,554,0,0,0,0,0,0,0,0,0,-1,1882,470,0,0
665,554,0,0,0,0,0,0,0,0,0,-1,1889,470,0,0
672,554,0,0,0,0,0,0,0,0,0,-1,1896,470,0,0
679,554,0,0,0,0,0,0,0,0,0,-1,1903,470,0,0
686,554,0,0,0,0,0,0,0,0,0,-1,1910,470,0,0
693,554,0,0,0,0,0,0,0,0,0,-1,1917,470,0,0
700,554,0,0,0,0,0,0,0,0,0,-1,1924,470,0,0
707,554,0,0,0,0,0,0,0,0,0,-1,1931,470,0,0
714,554,0,0,0,0,0,0,0,0,0,-1,1938,470,0,0
721,554,0,0,0,0,0,0,0,0,0,-1,1945,470,0,0
728,554,0,0,0,0,0,0,0,0,0,-1,1952,470,0,0
735,554,0,0,0,0,0,0,0,0,0,-1,1959,470,0,0
742,554,0,0,0,0,0,0,0,0,0,-1,1966,470,0,0
749,554,0,0,0,0,0,0,0,0,0,-1,1973,470,0,0
756,554,0,0,0,0,0,0,0,0,0,-1,1980,470,0,0
763,554,0,0,0,0,0,0,0,0,0,-1,1987,470,0,0
770,554,0,0,0,0,0,0,0,0,0,-1,1994,470,0,0
777,554,0,0,0,0,0,0,0,0,0,-1,2001,470,0,0
784,554,0,0,0,0,0,0,0,0,0,-1,2008,470,0,0
791,554,0,0,0,0,0,0,0,0,0,-1,2015,470,0,0
798,554,0,0,0,0,0,0,0,0,0,-1,2022,470,0,0
805,554,0,0,0,0,0,0,0,0,0,-1,2029,470,0,0
812,554,0,0,0,0,0,0,0,0,0,-1,2036,470,0,0
-700,547,0,0,0,0,0,0,0,0,0,-1,524,477,0,0
-693,547,0,0,0,0,0,0,0,0,0,-1,531,477,0,0
-686,547,0,0,0,0,0,0,0,0,0,-1,538,477,0,0
-679,547,0,0,0,0,0,0,0,0,0,-1,545,477,0,0
-672,547,0,0,0,0,0,0,0,0,0,-1,552,477,0,0
-665,547,0,0,0,0,0,0,0,0,0,-1,559,477,0,0
-658,547,0,0,0,0,0,0,0,0,0,-1,566,477,0,0
-651,547,0,0,0,0,0,0,0,0,0,-1,573,477,0,0
-644,547,0,0,0,0,0,0,0,0,0,-1,580,477,0,0
-637,547,0,0,0,0,0,0,0,0,0,-1,587,477,0,0
-630,547,0,0,0,0,0,0,0,0,0,-1,594,477,0,0
-623,547,0,0,0,0,0,0,0,0,0,-1,601,477,0,0
-616,547,0,0,0,0,0,0,0,0,0,-1,608,477,0,0
-609,547,0,0,0,0,0,0,0,0,0,-1,615,477,0,0
-602,547,0,0,0,0,0,0,0,0,0,-1,622,477,0,0
-595,547,0,0,0,0,0,0,0,0,0,-1,629,477,0,0
-588,547,0,0,0,0,0,0,0,0,0,-1,636,477,0,0
-581,547,0,0,0,0,0,0,0,0,0,-1,643,477,0,0
-574,547,0,0,0,0,0,0,0,0,0,-1,650,477,0,0
-567,547,0,0,0,0,0,0,0,0,0,-1,657,477,0,0
-560,547,0,0,0,0,0,0,0,0,0,-1,664,477,0,0
-553,547,0,0,0,0,0,0,0,0,0,-1,671,477,0,0
-546,547,0,0,0,0,0,0,0,0,0,-1,678,477,0,0
-539,547,0,0,0,0,0,0,0,0,0,-1,685,477,0,0
-532,547,0,0,0,0,0,0,0,0,0,-1,692,477,0,0
-525,547,0,0,0,0,0,0,0,0,0,-1,699,477,0,0
-518,547,0,0,0,0,0,0,0,0,0,-1,706,477,0,0
-511,547,0,0,0,0,0,0,0,0,0,-1,713,477,0,0
-504,547,0,0,0,0,0,0,0,0,0,-1,720,477,0,0
-497,547,0,0,0,0,0,0,0,0,0,-1,727,477,0,0
-490,547,0,0,0,0,0,0,0,0,0,-1,734,477,0,0
-483,547,0,0,0,0,0,0,0,0,0,-1,741,477,0,0
-476,547,0,0,0,0,0,0,0,0,0,-1,748,477,0,0
-469,547,0,0,0,0,0,0,0,0,0,-1,755,477,0,0
-462,547,0,0,0,0,0,0,0,0,0,-1,762,477,0,0
-455,547,0,0,0,0,0,0,0,0,0,-1,769,477,0,0
-448,547,0,0,0,0,0,0,0,0,0,-1,776,477,0,0
-441,547,0,0,0,0,0,0,0,0,0,-1,783,477,0,0
-434,547,0,0,0,0,0,0,0,0,0,-1,790,477,0,0
-427,547,0,0,0,0,0,0,0,0,0,-1,797,477,0,0
-420,547,0,0,0,0,0,0,0,0,0,-1,804,477,0,0
-413,547,0,0,0,0,0,0,0,0,0,-1,811,477,0,0
-406,547,-0.397644,-6.30316,0,0,0,0,0,0,0,-1,818,477,-0.397624,6.30315
-399,547,0.303162,-6.16772,0,0,0,0,0,0,0,-1,825,477,0.303136,6.16772
-392,547,2.92407,-3.52106,0,0,0,0,0,0,0,-1,832,477,2.92407,3.52107
-385,547,2.76971,-3.02631,0,0,0,0,0,0,0,-1,839,477,2.76972,3.0263
-378,547,2.87183,-2.31735,0,0,0,0,0,0,0,-1,846,477,2.87181,2.31736
-371,547,1.20789,-8.06766,0,0,0,0,0,0,0,-1,853,477,1.20791,8.06765
-364,547,0.271729,-4.58582,0,0,0,0,0,0,0,-1,860,477,0.271753,4.5858
-357,547,1.13318,-6.4292,0,0,0,0,0,0,0,-1,867,477,1.1332,6.4292
-350,547,0.863586,-8.10141,0,0,0,0,0,0,0,-1,874,477,0.863612,8.10141
-343,547,0.783386,-8.43143,-0.00450308,0.00237014,-0.00166383,0.00275172,-0.00488467,-1.34535,0.00446583,0.0339876,881,477,0.783395,8.43142
-336,547,0.726196,-8.75955,-0.00313094,0.00223182,-0.0014036,0.00257697,-0.00347609,-1.32968,0.00350756,0.0151767,888,477,0.726186,8.75956
-329,547,0.702087,-9.01456,-0.00188952,0.00192928,-0.00113735,0.00224235,-0.00220259,-1.30219,0.00256632,0.00886565,895,477,0.702107,9.01456
-322,547,0.690308,-9.26755,-0.00084253,0.00162238,-0.000838095,0.00188035,-0.00110049,-1.2722,0.00174051,0.0104529,902,477,0.690277,9.26756
-315,547,0.690735,-9.51776,-3.87312e-05,0.0015107,-0.00056872,0.00169704,-0.000225071,-1.25417,0.00121336,0.0101039,909,477,0.690733,9.51775
-308,547,0.695496,-9.74213,0.000618152,0.00139659,-0.000401649,0.00156667,0.000448074,-1.17024,0.000931721,0.0111436,916,477,0.695516,9.74212
-301,547,0.684753,-9.98434,0.00106218,0.00127705,-0.000241347,0.0014338,0.000905438,-0.994806,0.000837292,0.010635,923,477,0.684728,9.98434
-294,547,0.666077,-10.2161,0.00135914,0.000996841,-0.000103691,0.00138672,0.000969263,-0.259939,0.000821481,0.00919285,930,477,0.666106,10.2161
-287,547,0.646301,-10.4208,0.00167518,0.000452406,8.43555e-06,0.00167524,0.000452348,0.00689824,0.00100072,0.0107728,937,477,0.646329,10.4208
-280,547,0.659912,-10.6441,0.00182301,-0.000238441,5.18073e-05,0.00182431,-0.000239742,0.0251104,0.00130349,0.0121843,944,477,0.659916,10.6441
-273,547,0.664673,-10.856,0.00178404,-0.000869571,9.51055e-05,0.00178745,-0.000872975,0.0357788,0.00156595,0.0124239,951,477,0.664702,10.856
-266,547,0.650757,-11.075,0.00180087,-0.00154358,0.000189159,0.00181154,-0.00155425,0.0563196,0.00194513,0.0125135,958,477,0.650753,11.075
-259,547,0.634583,-11.2889,0.00195714,-0.00231559,0.000200974,0.00196657,-0.00232502,0.0468984,0.00248063,0.0113393,965,477,0.634565,11.2889
-252,547,0.651001,-11.4845,0.00205629,-0.00331707,0.000341066,0.00207785,-0.00333863,0.0631358,0.00315532,0.0107637,972,477,0.651019,11.4845
-245,547,0.665527,-11.7,0.00213593,-0.00458792,0.000633611,0.00219511,-0.0046471,0.0931409,0.00403402,0.011883,979,477,0.665545,11.7
-238,547,0.675232,-11.9188,0.00223996,-0.00570468,0.00093835,0.00234928,-0.00581401,0.115985,0.00485252,0.00820509,986,477,0.675207,11.9188
-231,547,0.665771,-12.1146,0.00230391,-0.00689315,0.00136605,0.00250252,-0.00709177,0.14438,0.00574661,0.00767439,993,477,0.665743,12.1145
-224,547,0.686829,-12.2864,0.0022731,-0.00801045,0.00186077,0.00259944,-0.00833679,0.173615,0.00659731,0.0105699,1000,477,0.686809,12.2864
-217,547,0.730164,-12.4753,0.00217311,-0.00911175,0.00240953,0.00266606,-0.0096047,0.201798,0.00745251,0.0152839,1007,477,0.73018,12.4753
-210,547,0.762817,-12.6694,0.0023413,-0.010102,0.00292215,0.00299336,-0.010754,0.219548,0.00834798,0.0267572,1014,477,0.762847,12.6694
-203,547,0.720337,-12.6197,0.00314103,-0.0103887,0.00288902,0.0037321,-0.0109798,0.201808,0.00883079,0.0378215,1021,477,0.72031,12.6197
-196,547,0.674927,-12.5885,0.0038434,-0.0105473,0.00289343,0.00440337,-0.0111073,0.191169,0.00922968,0.0430016,1028,477,0.674922,12.5885
-189,547,0.677002,-12.5929,0,0,0,0,0,0,0,-1,1035,477,0.677045,12.5929
-182,547,0.625977,-12.9241,0,0,0,0,0,0,0,-1,1042,477,0.626017,12.9241
-175,547,-0.350098,-12.3584,0,0,0,0,0,0,0,-1,1049,477,-0.350098,12.3584
-168,547,1.12463,-8.66785,0,0,0,0,0,0,0,-1,1056,477,1.12461,8.66786
-161,547,1.93481,-12.2681,0,0,0,0,0,0,0,-1,1063,477,1.93484,12.2681
-154,547,1.85547,-14.6818,0,0,0,0,0,0,0,-1,1070,477,1.8555,14.6818
-147,547,1.35852,-13.8968,0,0,0,0,0,0,0,-1,1077,477,1.35853,13.8968
-140,547,1.94788,-14.2635,0,0,0,0,0,0,0,-1,1084,477,1.94786,14.2635
-133,547,2.53723,-14.6302,0,0,0,0,0,0,0,-1,1091,477,2.5372,14.6302
-126,547,0.784302,-9.76431,0,0,0,0,0,0,0,-1,1098,477,0.78428,9.76432
-119,547,-0.531006,-10.0229,0,0,0,0,0,0,0,-1,1105,477,-0.530984,10.0229
-112,547,4.36194,-9.23029,0,0,0,0,0,0,0,-1,1112,477,4.36195,9.23029
-105,547,4.448,-9.17819,0,0,0,0,0,0,0,-1,1119,477,4.44799,9.1782
-98,547,1.50391,-7.20621,0,0,0,0,0,0,0,-1,1126,477,1.50395,7.20621
-91,547,1.37805,-7.12024,0,0,0,0,0,0,0,-1,1133,477,1.37804,7.12025
-84,547,1.94202,-6.66241,0,0,0,0,0,0,0,-1,1140,477,1.94201,6.66241
-77,547,-2.28357,1.8588,0,0,0,0,0,0,0,-1,1147,477,-2.28356,-1.85879
-70,547,-3.70178,-0.874908,0,0,0,0,0,0,0,-1,1154,477,-3.70182,0.874918
-63,547,-5.12012,-3.60861,0,0,0,0,0,0,0,-1,1161,477,-5.12009,3.60862
-56,547,-6.01917,-6.2399,0,0,0,0,0,0,0,-1,1168,477,-6.01921,6.23991
-49,547,-6.729,-8.60349,0,0,0,0,0,0,0,-1,1175,477,-6.72899,8.60348
-42,547,-2.41736,-5.53012,0,0,0,0,0,0,0,-1,1182,477,-2.41734,5.53011
-35,547,-2.96838,-4.45734,0,0,0,0,0,0,0,-1,1189,477,-2.96839,4.45734
-28,547,-0.869141,-1.29901,0,0,0,0,0,0,0,-1,1196,477,-0.869135,1.29901
-21,547,4.33044,-12.4018,0,0,0,0,0,0,0,-1,1203,477,4.33042,12.4018
-14,547,-0.154785,-19.4613,0,0,0,0,0,0,0,-1,1210,477,-0.154837,19.4613
-7,547,0.72229,-20.0677,0,0,0,0,0,0,0,-1,1217,477,0.72225,20.0678
0,547,1.60205,-20.6646,0,0,0,0,0,0,0,-1,1224,477,1.602,20.6646
7,547,2.91492,-16.6486,0,0,0,0,0,0,0,-1,1231,477,2.91495,16.6486
14,547,0,0,0,0,0,0,0,0,0,-1,1238,477,0,0
21,547,0,0,0,0,0,0,0,0,0,-1,1245,477,0,0
28,547,0,0,0,0,0,0,0,0,0,-1,1252,477,0,0
35,547,0,0,0,0,0,0,0,0,0,-1,1259,477,0,0
42,547,0,0,0,0,0,0,0,0,0,-1,1266,477,0,0
49,547,0,0,0,0,0,0,0,0,0,-1,1273,477,0,0
56,547,0,0,0,0,0,0,0,0,0,-1,1280,477,0,0
63,547,0,0,0,0,0,0,0,0,0,-1,1287,477,0,0
70,547,0,0,0,0,0,0,0,0,0,-1,1294,477,0,0
77,547,0,0,0,0,0,0,0,0,0,-1,1301,477,0,0
84,547,0,0,0,0,0,0,0,0,0,-1,1308,477,0,0
91,547,0,0,0,0,0,0,0,0,0,-1,1315,477,0,0
98,547,0,0,0,0,0,0,0,0,0,-1,1322,477,0,0
105,547,5.19995,-9.8634,0,0,0,0,0,0,0,-1,1329,477,5.19998,9.8634
112,547,5.38171,-9.2081,0,0,0,0,0,0,0,-1,1336,477,5.3817,9.20811
119,547,5.64453,-8.2558,0,0,0,0,0,0,0,-1,1343,477,5.64454,8.25578
126,547,6.23132,-7.36594,0.0221785,-0.133092,0.0117685,0.0230654,-0.133979,0.0752207,0.0979174,0.0401674,1350,477,6.23138,7.36595
133,547,6.04395,-6.59546,0.0221964,-0.124698,0.00758312,0.0225868,-0.125089,0.0514406,0.0918517,0.0431729,1357,477,6.0439,6.59545
140,547,5.96082,-6.06628,0.0224356,-0.115318,0.00701712,0.0227922,-0.115674,0.0507646,0.0857295,0.0412831,1364,477,5.96086,6.0663
147,547,6.39758,-5.82562,0,0,0,0,0,0,0,-1,1371,477,6.39761,5.82561
154,547,6.89441,-5.57199,0,0,0,0,0,0,0,-1,1378,477,6.89438,5.572
161,547,11.4034,-19.6718,0,0,0,0,0,0,0,-1,1385,477,11.4034,19.6718
168,547,-1.09973,-17.3397,0,0,0,0,0,0,0,-1,1392,477,-1.09977,17.3397
175,547,3.35034,-0.26532,0,0,0,0,0,0,0,-1,1399,477,3.3503,0.265306
182,547,4.26038,3.72672,0,0,0,0,0,0,0,-1,1406,477,4.26039,-3.7267
189,547,3.40454,1.28671,0,0,0,0,0,0,0,-1,1413,477,3.40457,-1.28673
196,547,3.53931,1.87793,0,0,0,0,0,0,0,-1,1420,477,3.53928,-1.87794
203,547,6.49414,-0.425842,0,0,0,0,0,0,0,-1,1427,477,6.4941,0.425844
210,547,4.82092,0.53595,0,0,0,0,0,0,0,-1,1434,477,4.82096,-0.535942
217,547,4.68579,0.480072,0,0,0,0,0,0,0,-1,1441,477,4.68577,-0.480069
224,547,4.55615,0.739807,0,0,0,0,0,0,0,-1,1448,477,4.55613,-0.73981
231,547,5.90869,-3.57721,0,0,0,0,0,0,0,-1,1455,477,5.90871,3.57722
238,547,5.50049,-3.15356,0,0,0,0,0,0,0,-1,1462,477,5.50045,3.15356
245,547,5.13708,-2.65213,0,0,0,0,0,0,0,-1,1469,477,5.13708,2.65212
252,547,3.73511,-0.645233,0,0,0,0,0,0,0,-1,1476,477,3.73515,0.645237
259,547,5.86816,-3.20816,0,0,0,0,0,0,0,-1,1483,477,5.86815,3.20816
266,547,5.40222,-2.45731,0,0,0,0,0,0,0,-1,1490,477,5.40221,2.45732
273,547,3.05737,0.495789,0,0,0,0,0,0,0,-1,1497,477,3.05742,-0.49578
280,547,2.0885,1.47797,0,0,0,0,0,0,0,-1,1504,477,2.08848,-1.47795
287,547,2.31177,-2.21716,0,0,0,0,0,0,0,-1,1511,477,2.31174,2.21717
294,547,2.4823,-3.03659,0,0,0,0,0,0,0,-1,1518,477,2.48229,3.0366
301,547,4.72119,-3.93454,0,0,0,0,0,0,0,-1,1525,477,4.72119,3.93453
308,547,4.07471,-5.42175,0,0,0,0,0,0,0,-1,1532,477,4.07468,5.42174
315,547,3.58496,-6.62112,0,0,0,0,0,0,0,-1,1539,477,3.58497,6.62113
322,547,4.99792,-11.8866,0,0,0,0,0,0,0,-1,1546,477,4.99793,11.8866
329,547,4.97363,-11.8663,0,0,0,0,0,0,0,-1,1553,477,4.97358,11.8663
336,547,4.93604,-11.717,-0.00174939,-0.00307375,-0.00499571,0.00262783,-0.00745098,-0.719507,0.00603702,0.035146,1560,477,4.93609,11.717
343,547,4.83765,-11.5932,-0.00162033,-0.00255371,-0.00431927,0.00225739,-0.00643142,-0.731583,0.00520586,0.0273247,1567,477,4.83768,11.5932
350,547,4.83704,-11.381,-0.00134507,-0.0023521,-0.00367655,0.00186229,-0.00555945,-0.717345,0.00445865,0.0206066,1574,477,4.83705,11.3809
357,547,4.82947,-11.1401,-0.00119647,-0.00218859,-0.00334135,0.00168545,-0.0050705,-0.711706,0.00406048,0.0145559,1581,477,4.82943,11.1401
364,547,4.80261,-10.895,-0.000915342,-0.00170861,-0.00269082,0.00140792,-0.00403187,-0.712224,0.00326018,0.0100255,1588,477,4.80256,10.895
371,547,4.81152,-10.6611,-0.000616275,-0.00131895,-0.00209088,0.00115258,-0.00308781,-0.702159,0.00253175,0.00895816,1595,477,4.81148,10.6611
378,547,4.82227,-10.4343,-0.000368488,-0.000776076,-0.00154059,0.00098173,-0.00212629,-0.719639,0.00183453,0.00997553,1602,477,4.82221,10.4343
385,547,4.84009,-10.1971,-0.00025721,-0.000438914,-0.0011623,0.000817779,-0.0015139,-0.746394,0.00136605,0.0105782,1609,477,4.84011,10.1971
392,547,4.84509,-9.95987,-0.000178737,-0.000309143,-0.000786823,0.00054558,-0.00103346,-0.744058,0.00092605,0.0108463,1616,477,4.84515,9.95987
399,547,4.85083,-9.70108,-0.000121672,-0.000174955,-0.000554904,0.00040723,-0.000703856,-0.761411,0.000649061,0.0124828,1623,477,4.85077,9.70107
406,547,4.87012,-9.4549,-1.94239e-05,1.29465e-05,-0.000217873,0.000215235,-0.000221712,-0.822474,0.000252281,0.0131416,1630,477,4.87011,9.45491
413,547,4.85059,-9.20181,0.000122255,0.000286619,0.000172181,0.000395226,1.36491e-05,1.00806,0.000259054,0.014352,1637,477,4.85059,9.2018
420,547,4.85828,-8.935,0.000260928,0.00033039,0.000493198,0.000790079,-0.00019876,0.82055,0.000603975,0.0163354,1644,477,4.85823,8.93499
427,547,4.86401,-8.70502,0.000384341,5.43724e-05,0.000814373,0.00105027,-0.000611561,0.685456,0.000970541,0.0151607,1651,477,4.86405,8.70501
434,547,4.82544,-8.47876,0.000591684,-0.000212367,0.00118179,0.00143796,-0.00105865,0.621447,0.00144695,0.00967545,1658,477,4.8254,8.47875
441,547,4.81506,-8.19516,0.000823216,-0.0006829,0.00155881,0.00180134,-0.00166102,0.560381,0.00199954,0.0090524,1665,477,4.81504,8.19515
448,547,4.81396,-7.93192,0.00100847,-0.00129928,0.00191817,0.00209307,-0.00238389,0.514619,0.00258659,0.010369,1672,477,4.81396,7.93192
455,547,4.81226,-7.67249,0.00120252,-0.00212023,0.0021987,0.00229695,-0.00321465,0.461855,0.00319679,0.010149,1679,477,4.81224,7.6725
462,547,4.80139,-7.39734,0.00181142,-0.00238662,0.00250219,0.00297841,-0.00355361,0.436398,0.00377614,0.0097923,1686,477,4.80137,7.39734
469,547,4.78638,-7.12326,0.00278792,-0.002189,0.00295427,0.00416212,-0.0035632,0.435387,0.00446468,0.0185344,1693,477,4.78641,7.12326
476,547,4.83643,-6.79135,0.00371009,-0.00205316,0.00325981,0.00517934,-0.00352242,0.42345,0.00505423,0.0421661,1700,477,4.83642,6.79136
483,547,4.91199,-6.40704,0,0,0,0,0,0,0,-1,1707,477,4.91194,6.40704
490,547,3.65271,-3.71707,0,0,0,0,0,0,0,-1,1714,477,3.65277,3.71708
497,547,2.55481,-3.81421,0,0,0,0,0,0,0,-1,1721,477,2.55476,3.8142
504,547,4.01953,-2.22714,0,0,0,0,0,0,0,-1,1728,477,4.0195,2.22713
511,547,4.82495,-1.45642,0,0,0,0,0,0,0,-1,1735,477,4.82495,1.45641
518,547,6.19897,-3.8425,0,0,0,0,0,0,0,-1,1742,477,6.19897,3.84249
525,547,0.781616,-3.76355,0,0,0,0,0,0,0,-1,1749,477,0.781645,3.76354
532,547,0,0,0,0,0,0,0,0,0,-1,1756,477,0,0
539,547,0,0,0,0,0,0,0,0,0,-1,1763,477,0,0
546,547,0,0,0,0,0,0,0,0,0,-1,1770,477,0,0
553,547,0,0,0,0,0,0,0,0,0,-1,1777,477,0,0
560,547,0,0,0,0,0,0,0,0,0,-1,1784,477,0,0
567,547,0,0,0,0,0,0,0,0,0,-1,1791,477,0,0
574,547,0,0,0,0,0,0,0,0,0,-1,1798,477,0,0
581,547,0,0,0,0,0,0,0,0,0,-1,1805,477,0,0
588,547,0,0,0,0,0,0,0,0,0,-1,1812,477,0,0
595,547,0,0,0,0,0,0,0,0,0,-1,1819,477,0,0
602,547,0,0,0,0,0,0,0,0,0,-1,1826,477,0,0
609,547,0,0,0,0,0,0,0,0,0,-1,1833,477,0,0
616,547,0,0,0,0,0,0,0,0,0,-1,1840,477,0,0
623,547,0,0,0,0,0,0,0,0,0,-1,1847,477,0,0
630,547,0,0,0,0,0,0,0,0,0,-1,1854,477,0,0
637,547,0,0,0,0,0,0,0,0,0,-1,1861,477,0,0
644,547,0,0,0,0,0,0,0,0,0,-1,1868,477,0,0
651,547,0,0,0,0,0,0,0,0,0,-1,1875,477,0,0
658,547,0,0,0,0,0,0,0,0,0,-1,1882,477,0,0
665,547,0,0,0,0,0,0,0,0,0,-1,1889,477,0,0
672,547,0,0,0,0,0,0,0,0,0,-1,1896,477,0,0
679,547,0,0,0,0,0,0,0,0,0,-1,1903,477,0,0
686,547,0,0,0,0,0,0,0,0,0,-1,1910,477,0,0
693,547,0,0,0,0,0,0,0,0,0,-1,1917,477,0,0
700,547,0,0,0,0,0,0,0,0,0,-1,1924,477,0,0
707,547,0,0,0,0,0,0,0,0,0,-1,1931,477,0,0
714,547,0,0,0,0,0,0,0,0,0,-1,1938,477,0,0
721,547,0,0,0,0,0,0,0,0,0,-1,1945,477,0,0
728,547,0,0,0,0,0,0,0,0,0,-1,1952,477,0,0
735,547,0,0,0,0,0,0,0,0,0,-1,1959,477,0,0
742,547,0,0,0,0,0,0,0,0,0,-1,1966,477,0,0
749,547,0,0,0,0,0,0,0,0,0,-1,1973,477,0,0
756,547,0,0,0,0,0,0,0,0,0,-1,1980,477,0,0
763,547,0,0,0,0,0,0,0,0,0,-1,1987,477,0,0
770,547,0,0,0,0,0,0,0,0,0,-1,1994,477,0,0
777,547,0,0,0,0,0,0,0,0,0,-1,2001,477,0,0
784,547,0,0,0,0,0,0,0,0,0,-1,2008,477,0,0
791,547,0,0,0,0,0,0,0,0,0,-1,2015,477,0,0
798,547,0,0,0,0,0,0,0,0,0,-1,2022,477,0,0
805,547,0,0,0,0,0,0,0,0,0,-1,2029,477,0,0
812,547,0,0,0,0,0,0,0,0,0,-1,2036,477,0,0
-700,540,0,0,0,0,0,0,0,0,0,-1,524,484,0,0
-693,540,0,0,0,0,0,0,0,0,0,-1,531,484,0,0
-686,540,0,0,0,0,0,0,0,0,0,-1,538,484,0,0
-679,540,0,0,0,0,0,0,0,0,0,-1,545,484,0,0
-672,540,0,0,0,0,0,0,0,0,0,-1,552,484,0,0
-665,540,0,0,0,0,0,0,0,0,0,-1,559,484,0,0
-658,540,0,0,0,0,0,0,0,0,0,-1,566,484,0,0
-651,540,0,0,0,0,0,0,0,0,0,-1,573,484,0,0
-644,540,0,0,0,0,0,0,0,0,0,-1,580,484,0,0
-637,540,0,0,0,0,0,0,0,0,0,-1,587,484,0,0
-630,540,0,0,0,0,0,0,0,0,0,-1,594,484,0,0
-623,540,0,0,0,0,0,0,0,0,0,-1,601,484,0,0
-616,540,0,0,0,0,0,0,0,0,0,-1,608,484,0,0
-609,540,0,0,0,0,0,0,0,0,0,-1,615,484,0,0
-602,540,0,0,0,0,0,0,0,0,0,-1,622,484,0,0
-595,540,0,0,0,0,0,0,0,0,0,-1,629,484,0,0
-588,540,0,0,0,0,0,0,0,0,0,-1,636,484,0,0
-581,540,0,0,0,0,0,0,0,0,0,-1,643,484,0,0
-574,540,0,0,0,0,0,0,0,0,0,-1,650,484,0,0
-567,540,0,0,0,0,0,0,0,0,0,-1,657,484,0,0
-560,540,0,0,0,0,0,0,0,0,0,-1,664,484,0,0
-553,540,0,0,0,0,0,0,0,0,0,-1,671,484,0,0
-546,540,0,0,0,0,0,0,0,0,0,-1,678,484,0,0
-539,540,0,0,0,0,0,0,0,0,0,-1,685,484,0,0
-532,540,0,0,0,0,0,0,0,0,0,-1,692,484,0,0
-525,540,0,0,0,0,0,0,0,0,0,-1,699,484,0,0
-518,540,0,0,0,0,0,0,0,0,0,-1,706,484,0,0
-511,540,0,0,0,0,0,0,0,0,0,-1,713,484,0,0
-504,540,0,0,0,0,0,0,0,0,0,-1,720,484,0,0
-497,540,0,0,0,0,0,0,0,0,0,-1,727,484,0,0
-490,540,0,0,0,0,0,0,0,0,0,-1,734,484,0,0
-483,540,0,0,0,0,0,0,0,0,0,-1,741,484,0,0
-476,540,0,0,0,0,0,0,0,0,0,-1,748,484,0,0
-469,540,0,0,0,0,0,0,0,0,0,-1,755,484,0,0
-462,540,0,0,0,0,0,0,0,0,0,-1,762,484,0,0
-455,540,0,0,0,0,0,0,0,0,0,-1,769,484,0,0
-448,540,0,0,0,0,0,0,0,0,0,-1,776,484,0,0
-441,540,0,0,0,0,0,0,0,0,0,-1,783,484,0,0
-434,540,0,0,0,0,0,0,0,0,0,-1,790,484,0,0
-427,540,0,0,0,0,0,0,0,0,0,-1,797,484,0,0
-420,540,-1.60455,-6.24124,0,0,0,0,0,0,0,-1,804,484,-1.60457,6.24123
-413,540,-0.793945,-6.14838,0,0,0,0,0,0,0,-1,811,484,-0.793936,6.14839
-406,540,-0.0821533,-6.01089,0,0,0,0,0,0,0,-1,818,484,-0.0821245,6.0109
-399,540,0.651489,-5.85809,0,0,0,0,0,0,0,-1,825,484,0.651462,5.85809
-392,540,1.58423,-5.67072,0,0,0,0,0,0,0,-1,832,484,1.58425,5.67072
-385,540,1.2442,-4.01782,0,0,0,0,0,0,0,-1,839,484,1.24422,4.01782
-378,540,-3.828,-3.2016,0,0,0,0,0,0,0,-1,846,484,-3.82798,3.20159
-371,540,-0.0177002,-4.21246,0,0,0,0,0,0,0,-1,853,484,-0.0176722,4.21247
-364,540,0.764282,-7.81177,0,0,0,0,0,0,0,-1,860,484,0.76431,7.81178
-357,540,0.733521,-8.14069,0,0,0,0,0,0,0,-1,867,484,0.73354,8.14069
-350,540,0.579834,-8.21744,-0.00429602,0.00134454,-0.00156365,0.00174901,-0.00470048,-1.31768,0.00385139,0.0327068,874,484,0.579852,8.21745
-343,540,0.507202,-8.48077,-0.00365297,0.0016277,-0.00148163,0.00201501,-0.00404028,-1.31511,0.0035606,0.0135535,881,484,0.50723,8.48078
-336,540,0.464905,-8.77777,-0.00277273,0.00153625,-0.00144644,0.00197676,-0.00321324,-1.27517,0.00302466,0.0109056,888,484,0.464882,8.77778
-329,540,0.454529,-9.0051,-0.00186408,0.00131565,-0.00135342,0.0018137,-0.00236213,-1.21818,0.00241784,0.00936711,895,484,0.454517,9.00508
-322,540,0.445251,-9.24954,-0.0010645,0.00107953,-0.00118996,0.00160915,-0.00159412,-1.15205,0.00184941,0.0139016,902,484,0.44524,9.24956
-315,540,0.430176,-9.50684,-0.000401844,0.00102965,-0.00100599,0.00154853,-0.000920724,-1.09459,0.0014409,0.0125295,909,484,0.430183,9.50683
-308,540,0.436035,-9.74011,0.000208491,0.000928405,-0.000869573,0.00150958,-0.000372683,-0.981634,0.00115091,0.0116958,916,484,0.436035,9.74012
-301,540,0.438049,-9.96066,0.000671269,0.000801146,-0.000678584,0.00141789,5.45232e-05,-0.833101,0.000927621,0.0116907,923,484,0.438068,9.96067
-294,540,0.445923,-10.1887,0.0010422,0.000475184,-0.000457742,0.00129712,0.000220264,-0.508132,0.000801477,0.0106696,930,484,0.445941,10.1887
-287,540,0.449402,-10.4252,0.00135182,-0.000503481,-0.000147395,0.00136345,-0.000515118,-0.0787869,0.00112085,0.00817823,937,484,0.449419,10.4252
-280,540,0.433289,-10.6452,0.0014908,-0.00198092,0.000137498,0.00149624,-0.00198635,0.0395225,0.0020173,0.00930185,944,484,0.433314,10.6452
-273,540,0.434326,-10.8537,0.00145893,-0.00331683,0.000442122,0.00149952,-0.00335741,0.0915395,0.00287172,0.0117574,951,484,0.434352,10.8537
-266,540,0.440247,-11.0817,0.00143455,-0.0048462,0.000834103,0.00154343,-0.00495508,0.129806,0.00392048,0.0129815,958,484,0.440268,11.0817
-259,540,0.441345,-11.3095,0.00149051,-0.00671649,0.00118772,0.00165894,-0.00688492,0.140871,0.00523135,0.011924,965,484,0.441337,11.3095
-252,540,0.456787,-11.5016,0.00138252,-0.00902554,0.00169093,0.00165034,-0.00929337,0.157083,0.00681265,0.0116965,972,484,0.456812,11.5016
-245,540,0.470703,-11.7094,0.00119152,-0.0116971,0.00237035,0.00161362,-0.0121192,0.176231,0.00866754,0.0116311,979,484,0.47072,11.7094
-238,540,0.466736,-11.9172,0.00100943,-0.0140995,0.00296319,0.00156979,-0.0146599,0.186901,0.0103363,0.00876496,986,484,0.466731,11.9172
-231,540,0.456421,-12.0981,0.000743448,-0.0165369,0.00367759,0.00149355,-0.017287,0.201206,0.0120534,0.0112109,993,484,0.456444,12.0981
-224,540,0.468445,-12.2806,0.000355883,-0.0188353,0.00449391,0.00135607,-0.0198355,0.218996,0.0136981,0.0168028,1000,484,0.468468,12.2807
-217,540,0.476929,-12.4777,-4.95817e-05,-0.0208357,0.00530842,0.00122762,-0.0221129,0.236112,0.0151677,0.0291874,1007,484,0.476934,12.4777
-210,540,0.616516,-12.6312,-8.5943e-05,-0.0224269,0.00602165,0.00143373,-0.0239466,0.247206,0.0164631,0.0446888,1014,484,0.616526,12.6312
-203,540,0.710205,-12.9824,0,0,0,0,0,0,0,-1,1021,484,0.710225,12.9824
-196,540,0.382568,-12.4068,0,0,0,0,0,0,0,-1,1028,484,0.382628,12.4068
-189,540,0.203125,-12.196,0,0,0,0,0,0,0,-1,1035,484,0.203093,12.1961
-182,540,0.33606,-11.9593,0,0,0,0,0,0,0,-1,1042,484,0.336047,11.9593
-175,540,1.73413,-10.728,0,0,0,0,0,0,0,-1,1049,484,1.73414,10.728
-168,540,1.18164,-7.65347,0,0,0,0,0,0,0,-1,1056,484,1.18163,7.65347
-161,540,-1.31653,-9.93869,0,0,0,0,0,0,0,-1,1063,484,-1.31651,9.93868
-154,540,0.921631,-11.8871,0,0,0,0,0,0,0,-1,1070,484,0.921581,11.8871
-147,540,0.0668945,-15.2919,0,0,0,0,0,0,0,-1,1077,484,0.0669551,15.2919
-140,540,1.90015,-14.3463,0,0,0,0,0,0,0,-1,1084,484,1.90011,14.3462
-133,540,1.94531,-14.4299,0,0,0,0,0,0,0,-1,1091,484,1.94536,14.4299
-126,540,1.06201,-9.57385,0,0,0,0,0,0,0,-1,1098,484,1.06204,9.57385
-119,540,6.18579,-10.4846,0,0,0,0,0,0,0,-1,1105,484,6.18582,10.4846
-112,540,5.8468,-9.65106,0,0,0,0,0,0,0,-1,1112,484,5.84681,9.65106
-105,540,5.50781,-8.81754,0,0,0,0,0,0,0,-1,1119,484,5.5078,8.81753
-98,540,0.73877,-3.08093,0,0,0,0,0,0,0,-1,1126,484,0.738754,3.08092
-91,540,1.56519,-7.48666,0,0,0,0,0,0,0,-1,1133,484,1.56514,7.48667
-84,540,-0.945923,4.43073,0,0,0,0,0,0,0,-1,1140,484,-0.945891,-4.43074
-77,540,-2.28894,2.14368,0,0,0,0,0,0,0,-1,1147,484,-2.28894,-2.14368
-70,540,-3.75244,-0.452576,0,0,0,0,0,0,0,-1,1154,484,-3.75244,0.452576
-63,540,-5.26257,-3.04767,0,0,0,0,0,0,0,-1,1161,484,-5.26262,3.04766
-56,540,-5.19055,-6.12595,0,0,0,0,0,0,0,-1,1168,484,-5.19057,6.12595
-49,540,-5.63867,-8.52298,0,0,0,0,0,0,0,-1,1175,484,-5.63871,8.52298
-42,540,0,0,0,0,0,0,0,0,0,-1,1182,484,0,0
-35,540,0,0,0,0,0,0,0,0,0,-1,1189,484,0,0
-28,540,0,0,0,0,0,0,0,0,0,-1,1196,484,0,0
-21,540,0,0,0,0,0,0,0,0,0,-1,1203,484,0,0
-14,540,0,0,0,0,0,0,0,0,0,-1,1210,484,0,0
-7,540,0,0,0,0,0,0,0,0,0,-1,1217,484,0,0
0,540,0,0,0,0,0,0,0,0,0,-1,1224,484,0,0
7,540,0,0,0,0,0,0,0,0,0,-1,1231,484,0,0
14,540,0,0,0,0,0,0,0,0,0,-1,1238,484,0,0
21,540,0,0,0,0,0,0,0,0,0,-1,1245,484,0,0
28,540,0,0,0,0,0,0,0,0,0,-1,1252,484,0,0
35,540,0,0,0,0,0,0,0,0,0,-1,1259,484,0,0
42,540,0,0,0,0,0,0,0,0,0,-1,1266,484,0,0
49,540,0,0,0,0,0,0,0,0,0,-1,1273,484,0,0
56,540,0,0,0,0,0,0,0,0,0,-1,1280,484,0,0
63,540,0,0,0,0,0,0,0,0,0,-1,1287,484,0,0
70,540,0,0,0,0,0,0,0,0,0,-1,1294,484,0,0
77,540,0,0,0,0,0,0,0,0,0,-1,1301,484,0,0
84,540,0,0,0,0,0,0,0,0,0,-1,1308,484,0,0
91,540,0,0,0,0,0,0,0,0,0,-1,1315,484,0,0
98,540,0,0,0,0,0,0,0,0,0,-1,1322,484,0,0
105,540,0,0,0,0,0,0,0,0,0,-1,1329,484,0,0
112,540,0,0,0,0,0,0,0,0,0,-1,1336,484,0,0
119,540,0,0,0,0,0,0,0,0,0,-1,1343,484,0,0
126,540,0,0,0,0,0,0,0,0,0,-1,1350,484,0,0
133,540,0,0,0,0,0,0,0,0,0,-1,1357,484,0,0
140,540,0,0,0,0,0,0,0,0,0,-1,1364,484,0,0
147,540,0,0,0,0,0,0,0,0,0,-1,1371,484,0,0
154,540,0,0,0,0,0,0,0,0,0,-1,1378,484,0,0
161,540,0,0,0,0,0,0,0,0,0,-1,1385,484,0,0
168,540,3.05078,-0.0010376,0,0,0,0,0,0,0,-1,1392,484,3.05084,0.00102554
175,540,3.37708,0.617035,0,0,0,0,0,0,0,-1,1399,484,3.37707,-0.617046
182,540,3.32678,1.23267,0,0,0,0,0,0,0,-1,1406,484,3.32678,-1.23266
189,540,3.5813,2.15619,0,0,0,0,0,0,0,-1,1413,484,3.58129,-2.1562
196,540,1.84448,-0.801483,0,0,0,0,0,0,0,-1,1420,484,1.84446,0.80148
203,540,4.14648,0.702087,0,0,0,0,0,0,0,-1,1427,484,4.14645,-0.702089
210,540,4.50671,-0.56076,0,0,0,0,0,0,0,-1,1434,484,4.50667,0.560771
217,540,5.00452,-0.278717,0,0,0,0,0,0,0,-1,1441,484,5.00452,0.278709
224,540,6.44458,-2.83527,0,0,0,0,0,0,0,-1,1448,484,6.44457,2.83525
231,540,6.9231,-3.10504,0,0,0,0,0,0,0,-1,1455,484,6.92307,3.10505
238,540,6.4823,-2.58365,0,0,0,0,0,0,0,-1,1462,484,6.48225,2.58363
245,540,6.02087,-1.97916,0,0,0,0,0,0,0,-1,1469,484,6.02088,1.97915
252,540,6.50647,-3.56006,0,0,0,0,0,0,0,-1,1476,484,6.50649,3.56006
259,540,6.01941,-2.798,0,0,0,0,0,0,0,-1,1483,484,6.01941,2.79801
266,540,5.5332,-2.02853,0,0,0,0,0,0,0,-1,1490,484,5.53323,2.02855
273,540,5.06787,-1.28137,0,0,0,0,0,0,0,-1,1497,484,5.06786,1.28136
280,540,1.62903,-2.14609,0,0,0,0,0,0,0,-1,1504,484,1.62906,2.1461
287,540,1.97156,-2.45053,0,0,0,0,0,0,0,-1,1511,484,1.97159,2.45053
294,540,2.44165,-2.6185,0,0,0,0,0,0,0,-1,1518,484,2.44167,2.6185
301,540,4.36169,-2.54272,0,0,0,0,0,0,0,-1,1525,484,4.36165,2.54272
308,540,4.2019,-4.30469,0,0,0,0,0,0,0,-1,1532,484,4.20193,4.3047
315,540,4.45923,-5.32101,0,0,0,0,0,0,0,-1,1539,484,4.45923,5.32103
322,540,4.71655,-6.33737,0,0,0,0,0,0,0,-1,1546,484,4.71653,6.33736
329,540,5.45947,-12.0461,0,0,0,0,0,0,0,-1,1553,484,5.45941,12.0461
336,540,5.4762,-11.8987,0,0,0,0,0,0,0,-1,1560,484,5.47621,11.8987
343,540,5.12268,-11.7126,0,0,0,0,0,0,0,-1,1567,484,5.12266,11.7126
350,540,5.04956,-11.4678,0,0,0,0,0,0,0,-1,1574,484,5.04956,11.4678
357,540,5.19446,-10.9384,-0.00194158,-0.00319863,-0.00460215,0.00207477,-0.00721498,-0.717532,0.00563047,0.0442618,1581,484,5.19446,10.9384
364,540,5.0481,-10.8008,-0.00148954,-0.00260767,-0.00378549,0.00177794,-0.00587515,-0.712084,0.00462477,0.0253582,1588,484,5.04815,10.8008
371,540,5.0343,-10.6604,-0.00103948,-0.00211572,-0.00304556,0.00151514,-0.00467034,-0.697956,0.00372284,0.0158446,1595,484,5.03431,10.6604
378,540,5.05676,-10.437,-0.000678696,-0.00147095,-0.00238673,0.00134456,-0.0034942,-0.703163,0.00288409,0.0125686,1602,484,5.0567,10.437
385,540,5.06921,-10.1904,-0.000555731,-0.00107779,-0.00195616,0.00115674,-0.00279026,-0.71907,0.00234295,0.0136823,1609,484,5.06923,10.1904
392,540,5.08362,-9.94684,-0.000482493,-0.000865707,-0.00150049,0.000838576,-0.00218678,-0.721894,0.00180357,0.0111854,1616,484,5.08367,9.94684
399,540,5.08618,-9.72296,-0.000469643,-0.000670172,-0.00126042,0.000694495,-0.00183431,-0.745708,0.00150863,0.0147625,1623,484,5.08616,9.72295
406,540,5.09033,-9.48154,-0.00042055,-0.000457898,-0.000978999,0.000539953,-0.0014184,-0.775862,0.00116796,0.0174374,1630,484,5.09028,9.48155
413,540,5.08191,-9.21646,-0.000260248,-0.000100104,-0.00058209,0.000407396,-0.000767748,-0.853749,0.00068902,0.0137251,1637,484,5.08196,9.21646
420,540,5.09546,-8.94876,-0.000117496,5.48712e-05,-0.000235049,0.000219039,-0.000281664,-0.961119,0.000289833,0.011933,1644,484,5.09541,8.94875
427,540,5.08923,-8.70782,2.01972e-05,-3.47947e-06,0.000122247,0.000131178,-0.00011446,0.737129,0.000141929,0.0129322,1651,484,5.0892,8.70781
434,540,5.0531,-8.45593,0.000238593,-0.00011641,0.000513132,0.000604056,-0.000481874,0.618881,0.000628283,0.0151027,1658,484,5.05311,8.45594
441,540,5.0614,-8.19312,0.000504153,-0.000407709,0.000922339,0.0010771,-0.000980653,0.555852,0.00118848,0.0167494,1665,484,5.06135,8.19312
448,540,5.07605,-7.95889,0.000751299,-0.000820577,0.00131788,0.0014998,-0.00156908,0.516527,0.00177197,0.0107526,1672,484,5.07606,7.95889
455,540,5.06702,-7.69064,0.00104702,-0.0013593,0.00166083,0.0018947,-0.00220698,0.47193,0.00237039,0.00944688,1679,484,5.06703,7.69063
462,540,5.04907,-7.37964,0.00176996,-0.00133324,0.00205529,0.00279356,-0.00235685,0.462074,0.00297715,0.00969605,1686,484,5.04909,7.37963
469,540,5.03601,-7.12405,0.00278918,-0.000937437,0.00255657,0.00408941,-0.00223767,0.470491,0.00370472,0.0134716,1693,484,5.03603,7.12405
476,540,5.01611,-6.91742,0.00368466,-0.00058704,0.00292368,0.00516955,-0.00207193,0.469935,0.00430648,0.020787,1700,484,5.0161,6.91742
483,540,5.04468,-6.68915,0.00483133,0.000468496,0.00325737,0.00657025,-0.00127042,0.490353,0.00485931,0.0387139,1707,484,5.04464,6.68916
490,540,5.20203,-6.66379,0,0,0,0,0,0,0,-1,1714,484,5.202,6.66378
497,540,4.27393,-2.67752,0,0,0,0,0,0,0,-1,1721,484,4.27395,2.67751
504,540,5.52747,-4.4433,0,0,0,0,0,0,0,-1,1728,484,5.5275,4.44329
511,540,5.69934,-4.29648,0,0,0,0,0,0,0,-1,1735,484,5.69929,4.29648
518,540,6.22681,-4.27097,0,0,0,0,0,0,0,-1,1742,484,6.22676,4.27097
525,540,6.50134,-4.24448,0,0,0,0,0,0,0,-1,1749,484,6.50136,4.24448
532,540,2.84265,-1.07925,0,0,0,0,0,0,0,-1,1756,484,2.84269,1.07927
539,540,0,0,0,0,0,0,0,0,0,-1,1763,484,0,0
546,540,0,0,0,0,0,0,0,0,0,-1,1770,484,0,0
553,540,0,0,0,0,0,0,0,0,0,-1,1777,484,0,0
560,540,0,0,0,0,0,0,0,0,0,-1,1784,484,0,0
567,540,0,0,0,0,0,0,0,0,0,-1,1791,484,0,0
574,540,0,0,0,0,0,0,0,0,0,-1,1798,484,0,0
581,540,0,0,0,0,0,0,0,0,0,-1,1805,484,0,0
588,540,0,0,0,0,0,0,0,0,0,-1,1812,484,0,0
595,540,0,0,0,0,0,0,0,0,0,-1,1819,484,0,0
602,540,0,0,0,0,0,0,0,0,0,-1,1826,484,0,0
609,540,0,0,0,0,0,0,0,0,0,-1,1833,484,0,0
616,540,0,0,0,0,0,0,0,0,0,-1,1840,484,0,0
623,540,0,0,0,0,0,0,0,0,0,-1,1847,484,0,0
630,540,0,0,0,0,0,0,0,0,0,-1,1854,484,0,0
637,540,0,0,0,0,0,0,0,0,0,-1,1861,484,0,0
644,540,0,0,0,0,0,0,0,0,0,-1,1868,484,0,0
651,540,0,0,0,0,0,0,0,0,0,-1,1875,484,0,0
658,540,0,0,0,0,0,0,0,0,0,-1,1882,484,0,0
665,540,0,0,0,0,0,0,0,0,0,-1,1889,484,0,0
672,540,0,0,0,0,0,0,0,0,0,-1,1896,484,0,0
679,540,0,0,0,0,0,0,0,0,0,-1,1903,484,0,0
686,540,0,0,0,0,0,0,0,0,0,-1,1910,484,0,0
693,540,0,0,0,0,0,0,0,0,0,-1,1917,484,0,0
700,540,0,0,0,0,0,0,0,0,0,-1,1924,484,0,0
707,540,0,0,0,0,0,0,0,0,0,-1,1931,484,0,0
714,540,0,0,0,0,0,0,0,0,0,-1,1938,484,0,0
721,540,0,0,0,0,0,0,0,0,0,-1,1945,484,0,0
728,540,0,0,0,0,0,0,0,0,0,-1,1952,484,0,0
735,540,0,0,0,0,0,0,0,0,0,-1,1959,484,0,0
742,540,0,0,0,0,0,0,0,0,0,-1,1966,484,0,0
749,540,0,0,0,0,0,0,0,0,0,-1,1973,484,0,0
756,540,0,0,0,0,0,0,0,0,0,-1,1980,484,0,0
763,540,0,0,0,0,0,0,0,0,0,-1,1987,484,0,0
770,540,0,0,0,0,0,0,0,0,0,-1,1994,484,0,0
777,540,0,0,0,0,0,0,0,0,0,-1,2001,484,0,0
784,540,0,0,0,0,0,0,0,0,0,-1,2008,484,0,0
791,540,0,0,0,0,0,0,0,0,0,-1,2015,484,0,0
798,540,0,0,0,0,0,0,0,0,0,-1,2022,484,0,0
805,540,0,0,0,0,0,0,0,0,0,-1,2029,484,0,0
812,540,0,0,0,0,0,0,0,0,0,-1,2036,484,0,0
-700,533,0,0,0,0,0,0,0,0,0,-1,524,491,0,0
-693,533,0,0,0,0,0,0,0,0,0,-1,531,491,0,0
-686,533,0,0,0,0,0,0,0,0,0,-1,538,491,0,0
-679,533,0,0,0,0,0,0,0,0,0,-1,545,491,0,0
-672,533,0,0,0,0,0,0,0,0,0,-1,552,491,0,0
-665,533,0,0,0,0,0,0,0,0,0,-1,559,491,0,0
-658,533,0,0,0,0,0,0,0,0,0,-1,566,491,0,0
-651,533,0,0,0,0,0,0,0,0,0,-1,573,491,0,0
-644,533,0,0,0,0,0,0,0,0,0,-1,580,491,0,0
-637,533,0,0,0,0,0,0,0,0,0,-1,587,491,0,0
-630,533,0,0,0,0,0,0,0,0,0,-1,594,491,0,0
-623,533,0,0,0,0,0,0,0,0,0,-1,601,491,0,0
-616,533,0,0,0,0,0,0,0,0,0,-1,608,491,0,0
-609,533,0,0,0,0,0,0,0,0,0,-1,615,491,0,0
-602,533,0,0,0,0,0,0,0,0,0,-1,622,491,0,0
-595,533,0,0,0,0,0,0,0,0,0,-1,629,491,0,0
-588,533,0,0,0,0,0,0,0,0,0,-1,636,491,0,0
-581,533,0,0,0,0,0,0,0,0,0,-1,643,491,0,0
-574,533,0,0,0,0,0,0,0,0,0,-1,650,491,0,0
-567,533,0,0,0,0,0,0,0,0,0,-1,657,491,0,0
-560,533,0,0,0,0,0,0,0,0,0,-1,664,491,0,0
-553,533,0,0,0,0,0,0,0,0,0,-1,671,491,0,0
-546,533,0,0,0,0,0,0,0,0,0,-1,678,491,0,0
-539,533,0,0,0,0,0,0,0,0,0,-1,685,491,0,0
-532,533,0,0,0,0,0,0,0,0,0,-1,692,491,0,0
-525,533,0,0,0,0,0,0,0,0,0,-1,699,491,0,0
-518,533,0,0,0,0,0,0,0,0,0,-1,706,491,0,0
-511,533,0,0,0,0,0,0,0,0,0,-1,713,491,0,0
-504,533,0,0,0,0,0,0,0,0,0,-1,720,491,0,0
-497,533,0,0,0,0,0,0,0,0,0,-1,727,491,0,0
-490,533,0,0,0,0,0,0,0,0,0,-1,734,491,0,0
-483,533,0,0,0,0,0,0,0,0,0,-1,741,491,0,0
-476,533,0,0,0,0,0,0,0,0,0,-1,748,491,0,0
-469,533,0,0,0,0,0,0,0,0,0,-1,755,491,0,0
-462,533,0,0,0,0,0,0,0,0,0,-1,762,491,0,0
-455,533,0,0,0,0,0,0,0,0,0,-1,769,491,0,0
-448,533,0,0,0,0,0,0,0,0,0,-1,776,491,0,0
-441,533,0,0,0,0,0,0,0,0,0,-1,783,491,0,0
-434,533,0,0,0,0,0,0,0,0,0,-1,790,491,0,0
-427,533,-1.67474,-5.60538,0,0,0,0,0,0,0,-1,797,491,-1.67473,5.60539
-420,533,-1.35437,-5.75763,0,0,0,0,0,0,0,-1,804,491,-1.35439,5.75763
-413,533,-0.617004,-5.81683,0,0,0,0,0,0,0,-1,811,491,-0.617024,5.81684
-406,533,0.76532,-8.01389,0,0,0,0,0,0,0,-1,818,491,0.765295,8.01389
-399,533,1.49323,-5.71405,0,0,0,0,0,0,0,-1,825,491,1.49324,5.71405
-392,533,2.41144,-5.43213,0,0,0,0,0,0,0,-1,832,491,2.41144,5.43214
-385,533,0.191895,-4.85858,0,0,0,0,0,0,0,-1,839,491,0.191883,4.85857
-378,533,-0.761414,-5.15549,0,0,0,0,0,0,0,-1,846,491,-0.761387,5.15549
-371,533,0.525024,-7.46677,0,0,0,0,0,0,0,-1,853,491,0.524998,7.46678
-364,533,0.449341,-7.80673,-0.003198,0.000706175,-0.0014989,0.00121526,-0.00370708,-1.24338,0.00296081,0.0428036,860,491,0.449324,7.80673
-357,533,0.331543,-8.05063,-0.0033492,0.000726688,-0.00123593,0.00107217,-0.00369469,-1.29822,0.00288765,0.0267516,867,491,0.331537,8.05063
-350,533,0.29071,-8.23108,-0.0031914,0.000698681,-0.00110465,0.000990476,-0.0034832,-1.31254,0.00271324,0.0109524,874,491,0.29072,8.23107
-343,533,0.274292,-8.50879,-0.00287049,0.000989159,-0.00110146,0.00128137,-0.0031627,-1.31148,0.00264131,0.0100512,881,491,0.27432,8.50878
-336,533,0.214966,-8.79007,-0.00228018,0.000935234,-0.00116466,0.00131276,-0.0026577,-1.25733,0.00233577,0.0143459,888,491,0.214983,8.79006
-329,533,0.21521,-9.01215,-0.00157601,0.000776072,-0.00117039,0.00125921,-0.00205915,-1.1793,0.00193433,0.0136008,895,491,0.2152,9.01214
-322,533,0.223877,-9.24768,-0.000929051,0.000604167,-0.00109099,0.00117095,-0.00149584,-1.09166,0.00154348,0.0116949,902,491,0.223902,9.24768
-315,533,0.210632,-9.49948,-0.000353773,0.000597263,-0.000963334,0.00119605,-0.00095256,-1.01466,0.00124315,0.0128566,909,491,0.210661,9.49949
-308,533,0.209534,-9.73114,0.000234208,0.00049863,-0.000842927,0.00121965,-0.000486814,-0.863188,0.00101506,0.0120614,916,491,0.209544,9.73115
-301,533,0.191528,-9.94589,0.000730167,0.000370079,-0.000642418,0.00121729,-0.000117047,-0.648773,0.000853225,0.0124594,923,491,0.191554,9.94588
-294,533,0.210693,-10.1718,0.0011775,9.70813e-06,-0.000381025,0.00129082,-0.000103616,-0.289086,0.000897082,0.0114876,930,491,0.210665,10.1717
-287,533,0.224548,-10.4098,0.00132607,-0.00193016,0.000178125,0.00133578,-0.00193987,0.0544861,0.00190189,0.00880642,937,491,0.224565,10.4098
-280,533,0.217957,-10.6417,0.00121156,-0.00503014,0.000823055,0.00131827,-0.00513685,0.128928,0.00393823,0.00857207,944,491,0.21797,10.6417
-273,533,0.212402,-10.8619,0.000967948,-0.00778572,0.00147601,0.00121013,-0.00802789,0.162627,0.00579756,0.0122092,951,491,0.2124,10.8619
-266,533,0.233704,-11.0836,0.000609263,-0.011128,0.00233295,0.00105597,-0.0115747,0.189187,0.00809147,0.0112052,958,491,0.233705,11.0836
-259,533,0.245056,-11.3024,0.000233113,-0.0152034,0.00319938,0.000869946,-0.0158402,0.196481,0.0108617,0.0112778,965,491,0.245053,11.3024
-252,533,0.253845,-11.486,-0.000452928,-0.0200418,0.00427284,0.000438521,-0.0209332,0.205681,0.0141039,0.0135447,972,491,0.253816,11.4859
-245,533,0.310791,-11.6753,-0.00133512,-0.0253474,0.00553547,-0.000120489,-0.0265621,0.216004,0.017668,0.0192944,979,491,0.310815,11.6753
-238,533,0.271606,-11.8064,-0.00220164,-0.0302348,0.00665354,-0.000702615,-0.0317338,0.221598,0.0209256,0.0210931,986,491,0.271604,11.8064
-231,533,0.386719,-11.9622,-0.00316842,-0.0350404,0.00789086,-0.0013218,-0.0368871,0.229884,0.0241628,0.0294663,993,491,0.386726,11.9622
-224,533,0.19812,-12.2563,-0.0042375,-0.0395642,0.00927571,-0.00195009,-0.0418516,0.241778,0.0272743,0.0392802,1000,491,0.198134,12.2563
-217,533,0.0728149,-12.5455,-0.00521084,-0.0433654,0.0105703,-0.00247817,-0.046098,0.252984,0.0299402,0.0472608,1007,491,0.0728143,12.5455
-210,533,0.515686,-12.6006,0,0,0,0,0,0,0,-1,1014,491,0.51571,12.6006
-203,533,0.630432,-12.1779,0,0,0,0,0,0,0,-1,1021,491,0.63044,12.1779
-196,533,-0.179688,-12.2691,0,0,0,0,0,0,0,-1,1028,491,-0.179674,12.2691
-189,533,0.143921,-12.2712,0,0,0,0,0,0,0,-1,1035,491,0.14387,12.2712
-182,533,1.26123,-11.4969,0,0,0,0,0,0,0,-1,1042,491,1.26128,11.4969
-175,533,0.937744,-7.36966,0,0,0,0,0,0,0,-1,1049,491,0.937769,7.36965
-168,533,2.64807,-2.7543,0,0,0,0,0,0,0,-1,1056,491,2.64812,2.7543
-161,533,1.91833,-1.76553,0,0,0,0,0,0,0,-1,1063,491,1.91836,1.76554
-154,533,-1.24805,-5.92294,0,0,0,0,0,0,0,-1,1070,491,-1.24806,5.92295
-147,533,0.383789,-12.1586,0,0,0,0,0,0,0,-1,1077,491,0.383829,12.1586
-140,533,1.1853,-13.7035,0,0,0,0,0,0,0,-1,1084,491,1.18525,13.7035
-133,533,1.23474,-8.92532,0,0,0,0,0,0,0,-1,1091,491,1.2347,8.92532
-126,533,2.89612,-2.59003,0,0,0,0,0,0,0,-1,1098,491,2.89608,2.59003
-119,533,3.00842,-12.8239,0,0,0,0,0,0,0,-1,1105,491,3.00841,12.8239
-112,533,7.05884,-10.21,0,0,0,0,0,0,0,-1,1112,491,7.0588,10.21
-105,533,3.84839,1.12769,0,0,0,0,0,0,0,-1,1119,491,3.84843,-1.12769
-98,533,-1.39392,-5.16367,0,0,0,0,0,0,0,-1,1126,491,-1.39394,5.16367
-91,533,0.367432,4.49753,0,0,0,0,0,0,0,-1,1133,491,0.367468,-4.49754
-84,533,-0.88623,3.03604,0,0,0,0,0,0,0,-1,1140,491,-0.886288,-3.03605
-77,533,0,0,0,0,0,0,0,0,0,-1,1147,491,0,0
-70,533,0,0,0,0,0,0,0,0,0,-1,1154,491,0,0
-63,533,0,0,0,0,0,0,0,0,0,-1,1161,491,0,0
-56,533,0,0,0,0,0,0,0,0,0,-1,1168,491,0,0
-49,533,0,0,0,0,0,0,0,0,0,-1,1175,491,0,0
-42,533,0,0,0,0,0,0,0,0,0,-1,1182,491,0,0
-35,533,0,0,0,0,0,0,0,0,0,-1,1189,491,0,0
-28,533,0,0,0,0,0,0,0,0,0,-1,1196,491,0,0
-21,533,0,0,0,0,0,0,0,0,0,-1,1203,491,0,0
-14,533,0,0,0,0,0,0,0,0,0,-1,1210,491,0,0
-7,533,0,0,0,0,0,0,0,0,0,-1,1217,491,0,0
0,533,0,0,0,0,0,0,0,0,0,-1,1224,491,0,0
7,533,0,0,0,0,0,0,0,0,0,-1,1231,491,0,0
14,533,0,0,0,0,0,0,0,0,0,-1,1238,491,0,0
21,533,0,0,0,0,0,0,0,0,0,-1,1245,491,0,0
28,533,0,0,0,0,0,0,0,0,0,-1,1252,491,0,0
35,533,0,0,0,0,0,0,0,0,0,-1,1259,491,0,0
42,533,0,0,0,0,0,0,0,0,0,-1,1266,491,0,0
49,533,0,0,0,0,0,0,0,0,0,-1,1273,491,0,0
56,533,0,0,0,0,0,0,0,0,0,-1,1280,491,0,0
63,533,0,0,0,0,0,0,0,0,0,-1,1287,491,0,0
70,533,0,0,0,0,0,0,0,0,0,-1,1294,491,0,0
77,533,0,0,0,0,0,0,0,0,0,-1,1301,491,0,0
84,533,0,0,0,0,0,0,0,0,0,-1,1308,491,0,0
91,533,0,0,0,0,0,0,0,0,0,-1,1315,491,0,0
98,533,0,0,0,0,0,0,0,0,0,-1,1322,491,0,0
105,533,0,0,0,0,0,0,0,0,0,-1,1329,491,0,0
112,533,0,0,0,0,0,0,0,0,0,-1,1336,491,0,0
119,533,0,0,0,0,0,0,0,0,0,-1,1343,491,0,0
126,533,0,0,0,0,0,0,0,0,0,-1,1350,491,0,0
133,533,0,0,0,0,0,0,0,0,0,-1,1357,491,0,0
140,533,0,0,0,0,0,0,0,0,0,-1,1364,491,0,0
147,533,0,0,0,0,0,0,0,0,0,-1,1371,491,0,0
154,533,0,0,0,0,0,0,0,0,0,-1,1378,491,0,0
161,533,0,0,0,0,0,0,0,0,0,-1,1385,491,0,0
168,533,0,0,0,0,0,0,0,0,0,-1,1392,491,0,0
175,533,0,0,0,0,0,0,0,0,0,-1,1399,491,0,0
182,533,0,0,0,0,0,0,0,0,0,-1,1406,491,0,0
189,533,0,0,0,0,0,0,0,0,0,-1,1413,491,0,0
196,533,0,0,0,0,0,0,0,0,0,-1,1420,491,0,0
203,533,3.7887,1.16193,0,0,0,0,0,0,0,-1,1427,491,3.78872,-1.16193
210,533,5.09558,-0.216034,0,0,0,0,0,0,0,-1,1434,491,5.09559,0.216028
217,533,6.91614,-2.46814,0,0,0,0,0,0,0,-1,1441,491,6.91618,2.46814
224,533,7.23621,-2.1857,0,0,0,0,0,0,0,-1,1448,491,7.23621,2.1857
231,533,7.23474,-1.92282,0,0,0,0,0,0,0,-1,1455,491,7.2347,1.92282
238,533,7.23535,-1.67258,0,0,0,0,0,0,0,-1,1462,491,7.23539,1.67258
245,533,6.86682,-1.2301,0,0,0,0,0,0,0,-1,1469,491,6.86686,1.23011
252,533,6.63354,-3.07825,0,0,0,0,0,0,0,-1,1476,491,6.6335,3.07824
259,533,6.16431,-2.35037,0,0,0,0,0,0,0,-1,1483,491,6.1643,2.35037
266,533,5.68884,-1.6214,0,0,0,0,0,0,0,-1,1490,491,5.68885,1.6214
273,533,5.21399,-0.864227,0,0,0,0,0,0,0,-1,1497,491,5.21403,0.864227
280,533,1.41089,-1.97946,0,0,0,0,0,0,0,-1,1504,491,1.41087,1.97946
287,533,1.6814,-2.44443,0,0,0,0,0,0,0,-1,1511,491,1.6814,2.44444
294,533,2.2384,-2.57626,0,0,0,0,0,0,0,-1,1518,491,2.23839,2.57625
301,533,3.39941,-4.0817,0,0,0,0,0,0,0,-1,1525,491,3.3994,4.08171
308,533,4.13733,-4.14752,0,0,0,0,0,0,0,-1,1532,491,4.13727,4.14752
315,533,4.80762,-5.29349,0,0,0,0,0,0,0,-1,1539,491,4.80762,5.29347
322,533,5.47803,-6.43942,0,0,0,0,0,0,0,-1,1546,491,5.47798,6.43943
329,533,3.88477,-3.86301,0,0,0,0,0,0,0,-1,1553,491,3.88475,3.86299
336,533,5.84106,-12.1275,0,0,0,0,0,0,0,-1,1560,491,5.84103,12.1275
343,533,5.87952,-6.38858,0,0,0,0,0,0,0,-1,1567,491,5.87953,6.38857
350,533,5.62915,-8.02426,0,0,0,0,0,0,0,-1,1574,491,5.6291,8.02426
357,533,5.49451,-10.7719,0,0,0,0,0,0,0,-1,1581,491,5.49452,10.7719
364,533,5.25427,-11.0215,0,0,0,0,0,0,0,-1,1588,491,5.25421,11.0215
371,533,5.23499,-10.6843,-0.00165914,-0.00299773,-0.00415318,0.00187833,-0.0065352,-0.705509,0.00509955,0.0390808,1595,491,5.23501,10.6843
378,533,5.24951,-10.4242,-0.00117734,-0.00219404,-0.0033809,0.00173322,-0.0051046,-0.710777,0.00410465,0.0280308,1602,491,5.24946,10.4242
385,533,5.3241,-10.1535,-0.00103079,-0.00171801,-0.00289268,0.00153861,-0.00428741,-0.726282,0.00348622,0.0237591,1609,491,5.32414,10.1535
392,533,5.33264,-9.94574,-0.000950463,-0.00141093,-0.00235291,0.00118345,-0.00354485,-0.736628,0.0028411,0.0139707,1616,491,5.33262,9.94574
399,533,5.35254,-9.73538,-0.000954034,-0.00117339,-0.00210092,0.00104007,-0.00316749,-0.75932,0.00253063,0.0116311,1623,491,5.35248,9.73537
406,533,5.34192,-9.49545,-0.000920689,-0.000943511,-0.00188079,0.000948724,-0.00281292,-0.782365,0.00225894,0.0145305,1630,491,5.34189,9.49546
413,533,5.33301,-9.21616,-0.000713274,-0.00051066,-0.00146859,0.000860112,-0.00208405,-0.819835,0.00174808,0.0130891,1637,491,5.333,9.21615
420,533,5.32813,-8.95905,-0.000547252,-0.000265776,-0.00108431,0.000686891,-0.00149992,-0.849935,0.00129131,0.0115519,1644,491,5.32813,8.95905
427,533,5.34521,-8.68536,-0.00038918,-0.00017481,-0.000687662,0.00041397,-0.00097796,-0.86271,0.000825328,0.011853,1651,491,5.34516,8.68538
434,533,5.32568,-8.4393,-0.000156497,-0.000167648,-0.000263324,0.000101311,-0.000425456,-0.774813,0.000322752,0.0121928,1658,491,5.32568,8.43929
441,533,5.33276,-8.18985,0.000137847,-0.000309527,0.000187146,0.000205809,-0.000377489,0.348344,0.000341595,0.0144258,1665,491,5.33276,8.18985
448,533,5.34851,-7.96609,0.000434409,-0.000569325,0.000626773,0.000735483,-0.000870399,0.447809,0.000928247,0.0147111,1672,491,5.34849,7.96611
455,533,5.32166,-7.7056,0.000783833,-0.000891626,0.00103118,0.00127468,-0.00138248,0.444271,0.00153453,0.0142666,1679,491,5.32169,7.70559
462,533,5.29724,-7.34747,0.00153116,-0.000704449,0.00149799,0.00228243,-0.00145572,0.464864,0.00217575,0.0140744,1686,491,5.29724,7.34748
469,533,5.30383,-7.10956,0.00249222,-0.000262172,0.00201861,0.00355868,-0.00132863,0.486041,0.00291796,0.00952307,1693,491,5.30388,7.10956
476,533,5.31726,-6.85281,0.00327302,0.000148629,0.00241419,0.00458637,-0.00116472,0.498235,0.00351082,0.0109404,1700,491,5.31722,6.85281
483,533,5.36218,-6.56113,0.00420617,0.00118094,0.00275159,0.00583349,-0.000446385,0.534082,0.00404601,0.0199929,1707,491,5.36216,6.56112
490,533,5.43286,-6.47531,0.00542044,0.00263636,0.00316631,0.00748721,0.000569601,0.578295,0.00481285,0.04512,1714,491,5.4328,6.47532
497,533,5.54626,-6.39883,0,0,0,0,0,0,0,-1,1721,491,5.5463,6.39883
504,533,5.51025,-5.57538,0,0,0,0,0,0,0,-1,1728,491,5.51024,5.57539
511,533,5.9668,-4.83594,0.010859,0.0151807,0.00604851,0.0194427,0.00659693,0.956959,0.0114169,0.0457004,1735,491,5.96675,4.83594
518,533,6.28784,-4.71921,0.0136515,0.022986,0.00801635,0.0275948,0.00904273,1.04902,0.0162441,0.0474429,1742,491,6.28784,4.71921
525,533,6.54382,-4.67462,0,0,0,0,0,0,0,-1,1749,491,6.54383,4.67463
532,533,3.24243,0.0737,0,0,0,0,0,0,0,-1,1756,491,3.24239,-0.0737072
539,533,3.61609,1.62427,0,0,0,0,0,0,0,-1,1763,491,3.61606,-1.62426
546,533,3.59607,1.65799,0,0,0,0,0,0,0,-1,1770,491,3.59605,-1.658
553,533,0,0,0,0,0,0,0,0,0,-1,1777,491,0,0
560,533,0,0,0,0,0,0,0,0,0,-1,1784,491,0,0
567,533,0,0,0,0,0,0,0,0,0,-1,1791,491,0,0
574,533,0,0,0,0,0,0,0,0,0,-1,1798,491,0,0
581,533,0,0,0,0,0,0,0,0,0,-1,1805,491,0,0
588,533,0,0,0,0,0,0,0,0,0,-1,1812,491,0,0
595,533,0,0,0,0,0,0,0,0,0,-1,1819,491,0,0
602,533,0,0,0,0,0,0,0,0,0,-1,1826,491,0,0
609,533,0,0,0,0,0,0,0,0,0,-1,1833,491,0,0
616,533,0,0,0,0,0,0,0,0,0,-1,1840,491,0,0
623,533,0,0,0,0,0,0,0,0,0,-1,1847,491,0,0
630,533,0,0,0,0,0,0,0,0,0,-1,1854,491,0,0
637,533,0,0,0,0,0,0,0,0,0,-1,1861,491,0,0
644,533,0,0,0,0,0,0,0,0,0,-1,1868,491,0,0
651,533,0,0,0,0,0,0,0,0,0,-1,1875,491,0,0
658,533,0,0,0,0,0,0,0,0,0,-1,1882,491,0,0
665,533,0,0,0,0,0,0,0,0,0,-1,1889,491,0,0
672,533,0,0,0,0,0,0,0,0,0,-1,1896,491,0,0
679,533,0,0,0,0,0,0,0,0,0,-1,1903,491,0,0
686,533,0,0,0,0,0,0,0,0,0,-1,1910,491,0,0
693,533,0,0,0,0,0,0,0,0,0,-1,1917,491,0,0
700,533,0,0,0,0,0,0,0,0,0,-1,1924,491,0,0
707,533,0,0,0,0,0,0,0,0,0,-1,1931,491,0,0
714,533,0,0,0,0,0,0,0,0,0,-1,1938,491,0,0
721,533,0,0,0,0,0,0,0,0,0,-1,1945,491,0,0
728,533,0,0,0,0,0,0,0,0,0,-1,1952,491,0,0
735,533,0,0,0,0,0,0,0,0,0,-1,1959,491,0,0
742,533,0,0,0,0,0,0,0,0,0,-1,1966,491,0,0
749,533,0,0,0,0,0,0,0,0,0,-1,1973,491,0,0
756,533,0,0,0,0,0,0,0,0,0,-1,1980,491,0,0
763,533,0,0,0,0,0,0,0,0,0,-1,1987,491,0,0
770,533,0,0,0,0,0,0,0,0,0,-1,1994,491,0,0
777,533,0,0,0,0,0,0,0,0,0,-1,2001,491,0,0
784,533,0,0,0,0,0,0,0,0,0,-1,2008,491,0,0
791,533,0,0,0,0,0,0,0,0,0,-1,2015,491,0,0
798,533,0,0,0,0,0,0,0,0,0,-1,2022,491,0,0
805,533,0,0,0,0,0,0,0,0,0,-1,2029,491,0,0
812,533,0,0,0,0,0,0,0,0,0,-1,2036,491,0,0
-700,526,0,0,0,0,0,0,0,0,0,-1,524,498,0,0
-693,526,0,0,0,0,0,0,0,0,0,-1,531,498,0,0
-686,526,0,0,0,0,0,0,0,0,0,-1,538,498,0,0
-679,526,0,0,0,0,0,0,0,0,0,-1,545,498,0,0
-672,526,0,0,0,0,0,0,0,0,0,-1,552,498,0,0
-665,526,0,0,0,0,0,0,0,0,0,-1,559,498,0,0
-658,526,0,0,0,0,0,0,0,0,0,-1,566,498,0,0
-651,526,0,0,0,0,0,0,0,0,0,-1,573,498,0,0
-644,526,0,0,0,0,0,0,0,0,0,-1,580,498,0,0
-637,526,0,0,0,0,0,0,0,0,0,-1,587,498,0,0
-630,526,0,0,0,0,0,0,0,0,0,-1,594,498,0,0
-623,526,0,0,0,0,0,0,0,0,0,-1,601,498,0,0
-616,526,0,0,0,0,0,0,0,0,0,-1,608,498,0,0
-609,526,0,0,0,0,0,0,0,0,0,-1,615,498,0,0
-602,526,0,0,0,0,0,0,0,0,0,-1,622,498,0,0
-595,526,0,0,0,0,0,0,0,0,0,-1,629,498,0,0
-588,526,0,0,0,0,0,0,0,0,0,-1,636,498,0,0
-581,526,0,0,0,0,0,0,0,0,0,-1,643,498,0,0
-574,526,0,0,0,0,0,0,0,0,0,-1,650,498,0,0
-567,526,0,0,0,0,0,0,0,0,0,-1,657,498,0,0
-560,526,0,0,0,0,0,0,0,0,0,-1,664,498,0,0
-553,526,0,0,0,0,0,0,0,0,0,-1,671,498,0,0
-546,526,0,0,0,0,0,0,0,0,0,-1,678,498,0,0
-539,526,0,0,0,0,0,0,0,0,0,-1,685,498,0,0
-532,526,0,0,0,0,0,0,0,0,0,-1,692,498,0,0
-525,526,0,0,0,0,0,0,0,0,0,-1,699,498,0,0
-518,526,0,0,0,0,0,0,0,0,0,-1,706,498,0,0
-511,526,0,0,0,0,0,0,0,0,0,-1,713,498,0,0
-504,526,0,0,0,0,0,0,0,0,0,-1,720,498,0,0
-497,526,0,0,0,0,0,0,0,0,0,-1,727,498,0,0
-490,526,0,0,0,0,0,0,0,0,0,-1,734,498,0,0
-483,526,0,0,0,0,0,0,0,0,0,-1,741,498,0,0
-476,526,0,0,0,0,0,0,0,0,0,-1,748,498,0,0
-469,526,0,0,0,0,0,0,0,0,0,-1,755,498,0,0
-462,526,0,0,0,0,0,0,0,0,0,-1,762,498,0,0
-455,526,0,0,0,0,0,0,0,0,0,-1,769,498,0,0
-448,526,0,0,0,0,0,0,0,0,0,-1,776,498,0,0
-441,526,0,0,0,0,0,0,0,0,0,-1,783,498,0,0
-434,526,-1.56085,-4.98352,0,0,0,0,0,0,0,-1,790,498,-1.56087,4.98351
-427,526,-1.31689,-5.00308,0,0,0,0,0,0,0,-1,797,498,-1.31692,5.00307
-420,526,-1.13147,-5.33841,0,0,0,0,0,0,0,-1,804,498,-1.13147,5.33839
-413,526,1.00775,-7.75235,0,0,0,0,0,0,0,-1,811,498,1.00775,7.75234
-406,526,0.702454,-7.49567,0,0,0,0,0,0,0,-1,818,498,0.702482,7.49567
-399,526,0.397217,-7.23898,0,0,0,0,0,0,0,-1,825,498,0.39721,7.239
-392,526,-0.111877,-5.55533,0,0,0,0,0,0,0,-1,832,498,-0.111896,5.55532
-385,526,0.134583,-6.22723,0,0,0,0,0,0,0,-1,839,498,0.134555,6.22723
-378,526,0.0116577,-7.26801,0,0,0,0,0,0,0,-1,846,498,0.0116349,7.268
-371,526,0.02771,-7.52664,-0.00151292,-0.000364029,-0.00144199,0.000613723,-0.00249067,-0.974949,0.00189838,0.0417681,853,498,0.0277327,7.52664
-364,526,0.0874634,-7.81595,-0.0019754,5.16498e-05,-0.00106229,0.000506352,-0.0024301,-1.16635,0.00181258,0.022919,860,498,0.0874653,7.81594
-357,526,0.00854492,-7.98026,-0.00217923,0.000144081,-0.00078929,0.000386855,-0.002422,-1.2724,0.00175787,0.014673,867,498,0.00852079,7.98025
-350,526,0.0386963,-8.22656,-0.00208728,0.000219414,-0.000684374,0.000407178,-0.00227504,-1.30303,0.00166906,0.0103088,874,498,0.0387251,8.22657
-343,526,0.0240479,-8.50888,-0.00190098,0.000497138,-0.000662306,0.000667893,-0.00207173,-1.31847,0.00164949,0.0143727,881,498,0.0240264,8.50888
-336,526,-0.0223389,-8.76303,-0.00146401,0.000465908,-0.000736495,0.000714857,-0.00171296,-1.24484,0.00144064,0.0150496,888,498,-0.0223449,8.76304
-329,526,-0.0267334,-8.99023,-0.000883937,0.000361104,-0.000797375,0.000750186,-0.00127302,-1.11683,0.00118103,0.0146859,895,498,-0.0267262,8.99022
-322,526,0.00012207,-9.22437,-0.000338028,0.000255699,-0.000781056,0.000794405,-0.000876734,-0.967006,0.000965223,0.0102334,902,498,0.000149778,9.22436
-315,526,0.00238037,-9.48715,0.000180132,0.000305189,-0.000714089,0.000959482,-0.000474161,-0.829069,0.000843375,0.00962022,909,498,0.00235764,9.48717
-308,526,-0.00134277,-9.73322,0.000750618,0.000239286,-0.000640725,0.0011848,-0.000194898,-0.595565,0.000862208,0.00878822,916,498,-0.00132691,9.73321
-301,526,-0.0237427,-9.94958,0.00126561,0.000149597,-0.000491702,0.00145134,-3.61315e-05,-0.361159,0.000979823,0.00937549,923,498,-0.0237574,9.94958
-294,526,-0.0211792,-10.1782,0.00175958,-0.000201,-0.000264239,0.00179457,-0.000235989,-0.131647,0.0012823,0.00960629,930,498,-0.0211747,10.1782
-287,526,-0.0129395,-10.4126,0.00122318,-0.00414504,0.000657448,0.00130252,-0.00422439,0.120106,0.00333629,0.00932381,937,498,-0.0129099,10.4126
-280,526,-0.0255737,-10.6363,9.2855e-05,-0.0103561,0.00194552,0.000443341,-0.0107065,0.178239,0.00728997,0.0120911,944,498,-0.0255696,10.6363
-273,526,-0.0180054,-10.8571,-0.00100195,-0.0157427,0.00314666,-0.00035835,-0.0163864,0.201753,0.0108068,0.0107664,951,498,-0.0179788,10.8571
-266,526,0.00183105,-11.0715,-0.00246687,-0.0223329,0.00475034,-0.00138941,-0.0234103,0.223044,0.015165,0.00951511,958,498,0.00181874,11.0715
-259,526,0.0288086,-11.2714,-0.00415068,-0.030131,0.00641416,-0.00265341,-0.0316283,0.229326,0.0202591,0.0157925,965,498,0.0288116,11.2714
-252,526,0.072998,-11.4106,-0.00629875,-0.0388688,0.00831547,-0.00429856,-0.040869,0.236054,0.0259322,0.0308334,972,498,0.0729896,11.4106
-245,526,0.107727,-11.4676,-0.00868262,-0.0479986,0.0104022,-0.00610008,-0.0505812,0.24335,0.0318826,0.0413925,979,498,0.107708,11.4676
-238,526,0.181274,-11.5059,-0.0109021,-0.0561457,0.0122129,-0.00781596,-0.0592319,0.247517,0.0371576,0.0412745,986,498,0.181282,11.5058
-231,526,0.397522,-11.6322,-0.0131803,-0.0639249,0.0140962,-0.00952755,-0.0675777,0.253556,0.0422357,0.0497207,993,498,0.397525,11.6322
-224,526,0.653259,-11.8283,0,0,0,0,0,0,0,-1,1000,498,0.65328,11.8283
-217,526,-0.320251,-12.5515,0,0,0,0,0,0,0,-1,1007,498,-0.32028,12.5514
-210,526,0.171021,-8.39801,0,0,0,0,0,0,0,-1,1014,498,0.170997,8.398
-203,526,0.437927,-12.3958,0,0,0,0,0,0,0,-1,1021,498,0.437931,12.3958
-196,526,-0.53125,-12.0952,0,0,0,0,0,0,0,-1,1028,498,-0.531204,12.0951
-189,526,0.401245,-5.96826,0,0,0,0,0,0,0,-1,1035,498,0.401197,5.96826
-182,526,1.7323,-2.99405,0,0,0,0,0,0,0,-1,1042,498,1.73226,2.99404
-175,526,2.27637,-2.07983,0,0,0,0,0,0,0,-1,1049,498,2.27639,2.07984
-168,526,2.12036,-1.66049,0,0,0,0,0,0,0,-1,1056,498,2.12035,1.66048
-161,526,2.09082,-1.20572,0,0,0,0,0,0,0,-1,1063,498,2.09086,1.2057
-154,526,-1.3446,-5.37799,0,0,0,0,0,0,0,-1,1070,498,-1.34457,5.37799
-147,526,-0.472656,-6.64996,0,0,0,0,0,0,0,-1,1077,498,-0.472659,6.64997
-140,526,0.422852,-8.03339,0,0,0,0,0,0,0,-1,1084,498,0.422844,8.0334
-133,526,1.09583,-9.2215,0,0,0,0,0,0,0,-1,1091,498,1.09581,9.2215
-126,526,3.42529,-2.36053,0,0,0,0,0,0,0,-1,1098,498,3.42523,2.36052
-119,526,2.7771,-0.764099,0,0,0,0,0,0,0,-1,1105,498,2.7771,0.764107
-112,526,2.57715,-1.1893,0,0,0,0,0,0,0,-1,1112,498,2.57718,1.1893
-105,526,0,0,0,0,0,0,0,0,0,-1,1119,498,0,0
-98,526,0,0,0,0,0,0,0,0,0,-1,1126,498,0,0
-91,526,0,0,0,0,0,0,0,0,0,-1,1133,498,0,0
-84,526,0,0,0,0,0,0,0,0,0,-1,1140,498,0,0
-77,526,0,0,0,0,0,0,0,0,0,-1,1147,498,0,0
-70,526,0,0,0,0,0,0,0,0,0,-1,1154,498,0,0
-63,526,0,0,0,0,0,0,0,0,0,-1,1161,498,0,0
-56,526,0,0,0,0,0,0,0,0,0,-1,1168,498,0,0
-49,526,0,0,0,0,0,0,0,0,0,-1,1175,498,0,0
-42,526,0,0,0,0,0,0,0,0,0,-1,1182,498,0,0
-35,526,0,0,0,0,0,0,0,0,0,-1,1189,498,0,0
-28,526,0,0,0,0,0,0,0,0,0,-1,1196,498,0,0
-21,526,0,0,0,0,0,0,0,0,0,-1,1203,498,0,0
-14,526,0,0,0,0,0,0,0,0,0,-1,1210,498,0,0
-7,526,0,0,0,0,0,0,0,0,0,-1,1217,498,0,0
0,526,0,0,0,0,0,0,0,0,0,-1,1224,498,0,0
7,526,0,0,0,0,0,0,0,0,0,-1,1231,498,0,0
14,526,0,0,0,0,0,0,0,0,0,-1,1238,498,0,0
21,526,0,0,0,0,0,0,0,0,0,-1,1245,498,0,0
28,526,0,0,0,0,0,0,0,0,0,-1,1252,498,0,0
35,526,0,0,0,0,0,0,0,0,0,-1,1259,498,0,0
42,526,0,0,0,0,0,0,0,0,0,-1,1266,498,0,0
49,526,0,0,0,0,0,0,0,0,0,-1,1273,498,0,0
56,526,0,0,0,0,0,0,0,0,0,-1,1280,498,0,0
63,526,0,0,0,0,0,0,0,0,0,-1,1287,498,0,0
70,526,0,0,0,0,0,0,0,0,0,-1,1294,498,0,0
77,526,0,0,0,0,0,0,0,0,0,-1,1301,498,0,0
84,526,0,0,0,0,0,0,0,0,0,-1,1308,498,0,0
91,526,0,0,0,0,0,0,0,0,0,-1,1315,498,0,0
98,526,0,0,0,0,0,0,0,0,0,-1,1322,498,0,0
105,526,0,0,0,0,0,0,0,0,0,-1,1329,498,0,0
112,526,0,0,0,0,0,0,0,0,0,-1,1336,498,0,0
119,526,0,0,0,0,0,0,0,0,0,-1,1343,498,0,0
126,526,0,0,0,0,0,0,0,0,0,-1,1350,498,0,0
133,526,0,0,0,0,0,0,0,0,0,-1,1357,498,0,0
140,526,0,0,0,0,0,0,0,0,0,-1,1364,498,0,0
147,526,0,0,0,0,0,0,0,0,0,-1,1371,498,0,0
154,526,0,0,0,0,0,0,0,0,0,-1,1378,498,0,0
161,526,0,0,0,0,0,0,0,0,0,-1,1385,498,0,0
168,526,0,0,0,0,0,0,0,0,0,-1,1392,498,0,0
175,526,0,0,0,0,0,0,0,0,0,-1,1399,498,0,0
182,526,0,0,0,0,0,0,0,0,0,-1,1406,498,0,0
189,526,0,0,0,0,0,0,0,0,0,-1,1413,498,0,0
196,526,0,0,0,0,0,0,0,0,0,-1,1420,498,0,0
203,526,0,0,0,0,0,0,0,0,0,-1,1427,498,0,0
210,526,0,0,0,0,0,0,0,0,0,-1,1434,498,0,0
217,526,0,0,0,0,0,0,0,0,0,-1,1441,498,0,0
224,526,0,0,0,0,0,0,0,0,0,-1,1448,498,0,0
231,526,7.93237,-1.30618,0,0,0,0,0,0,0,-1,1455,498,7.93238,1.30618
238,526,7.97717,-1.08197,0,0,0,0,0,0,0,-1,1462,498,7.97723,1.08196
245,526,7.2793,-0.792938,0,0,0,0,0,0,0,-1,1469,498,7.27931,0.792926
252,526,6.73523,-2.23608,0,0,0,0,0,0,0,-1,1476,498,6.73525,2.23608
259,526,6.22949,-1.84967,0,0,0,0,0,0,0,-1,1483,498,6.22953,1.84968
266,526,5.72375,-1.46329,0,0,0,0,0,0,0,-1,1490,498,5.72381,1.46328
273,526,4.33984,0.49173,0,0,0,0,0,0,0,-1,1497,498,4.33979,-0.491727
280,526,1.4585,-1.59897,0,0,0,0,0,0,0,-1,1504,498,1.45846,1.59895
287,526,1.46411,-2.40134,0,0,0,0,0,0,0,-1,1511,498,1.46406,2.40133
294,526,5.57471,-4.59085,0,0,0,0,0,0,0,-1,1518,498,5.57466,4.59084
301,526,4.42786,-3.99677,0,0,0,0,0,0,0,-1,1525,498,4.42788,3.99676
308,526,5.79529,-4.19366,0,0,0,0,0,0,0,-1,1532,498,5.79528,4.19368
315,526,5.09851,-5.20068,0,0,0,0,0,0,0,-1,1539,498,5.09851,5.20068
322,526,5.50708,-4.72348,0,0,0,0,0,0,0,-1,1546,498,5.50713,4.72347
329,526,3.88672,-4.345,0,0,0,0,0,0,0,-1,1553,498,3.88674,4.34501
336,526,4.97876,-2.23828,0,0,0,0,0,0,0,-1,1560,498,4.97877,2.23828
343,526,3.31665,-2.69696,0,0,0,0,0,0,0,-1,1567,498,3.31667,2.69696
350,526,6.06287,-6.12015,0,0,0,0,0,0,0,-1,1574,498,6.06286,6.12014
357,526,5.79736,-7.7854,0,0,0,0,0,0,0,-1,1581,498,5.79734,7.78539
364,526,5.47217,-10.7784,0,0,0,0,0,0,0,-1,1588,498,5.4722,10.7784
371,526,5.46411,-11.0986,0,0,0,0,0,0,0,-1,1595,498,5.46411,11.0986
378,526,5.41907,-10.7396,0,0,0,0,0,0,0,-1,1602,498,5.41907,10.7396
385,526,5.51965,-10.2866,0,0,0,0,0,0,0,-1,1609,498,5.51966,10.2866
392,526,5.62854,-9.97931,-0.00178989,-0.00201356,-0.0035175,0.00161755,-0.005421,-0.769507,0.00425689,0.0337997,1616,498,5.62856,9.9793
399,526,5.55505,-9.72662,-0.00174884,-0.00171887,-0.00319131,0.00145749,-0.0049252,-0.787746,0.00386208,0.0183302,1623,498,5.55507,9.72663
406,526,5.60046,-9.46036,-0.00173329,-0.00145637,-0.00302633,0.00143467,-0.00462433,-0.808258,0.00365617,0.0119686,1630,498,5.60043,9.46035
413,526,5.57776,-9.20578,-0.0014697,-0.00092531,-0.00256168,0.00137859,-0.00377361,-0.838328,0.00307989,0.0121068,1637,498,5.57775,9.20578
420,526,5.5675,-8.95639,-0.00125994,-0.000589781,-0.00210273,0.0012044,-0.00305412,-0.864411,0.00253479,0.0126812,1644,498,5.56751,8.95638
427,526,5.59607,-8.69202,-0.00107002,-0.000387675,-0.00164561,0.00095176,-0.00240945,-0.887611,0.0020005,0.0131858,1651,498,5.59612,8.692
434,526,5.59387,-8.41513,-0.000810485,-0.000272567,-0.00116523,0.00065434,-0.00173739,-0.898822,0.00142728,0.0114943,1658,498,5.59388,8.41512
441,526,5.58569,-8.1741,-0.000474755,-0.000281931,-0.000653703,0.000282432,-0.00103912,-0.858613,0.000803607,0.0107542,1665,498,5.58571,8.17411
448,526,5.57666,-7.94312,-0.000110574,-0.000419931,-0.000153828,-4.71049e-05,-0.0004834,-0.391321,0.000307769,0.0101816,1672,498,5.57665,7.94311
455,526,5.56799,-7.69916,0.00030934,-0.000583454,0.000318502,0.000411317,-0.000685431,0.309863,0.000639766,0.0128629,1679,498,5.56794,7.69915
462,526,5.57483,-7.38168,0.00108239,-0.000325001,0.000856586,0.00148727,-0.000729875,0.441537,0.00130473,0.0099115,1686,498,5.57478,7.38167
469,526,5.57922,-7.1167,0.00199046,6.60857e-05,0.00138474,0.00271449,-0.000657938,0.481767,0.00206422,0.00757614,1693,498,5.57924,7.1167
476,526,5.58215,-6.85303,0.00269008,0.000437509,0.00179682,0.00368442,-0.000556834,0.505443,0.00266138,0.00938566,1700,498,5.5822,6.85302
483,526,5.59729,-6.54266,0.00346006,0.00134293,0.00212314,0.00477389,2.9098e-05,0.554141,0.00317294,0.0110703,1707,498,5.59727,6.54265
490,526,5.67419,-6.21671,0.00438476,0.00248121,0.00248086,0.00609015,0.000775818,0.602233,0.00382779,0.022414,1714,498,5.67414,6.2167
497,526,5.58997,-6.07574,0.00533284,0.0045301,0.00303982,0.00799768,0.00186527,0.719759,0.00483158,0.0297578,1721,498,5.59001,6.07576
504,526,5.59924,-5.73453,0.00640107,0.00822224,0.00398741,0.0114017,0.0032216,0.897656,0.00678712,0.030846,1728,498,5.59926,5.73452
511,526,5.90576,-5.39252,0.0075547,0.0125684,0.00474173,0.0154252,0.00469795,1.02856,0.00912968,0.0356801,1735,498,5.90573,5.39252
518,526,6.16235,-5.12024,0.00881031,0.0187724,0.00617154,0.0217222,0.00586047,1.12493,0.0129769,0.0453773,1742,498,6.16235,5.12023
525,526,6.39331,-4.87238,0,0,0,0,0,0,0,-1,1749,498,6.39336,4.87238
532,526,3.54285,-2.81274,0,0,0,0,0,0,0,-1,1756,498,3.54284,2.81273
539,526,3.29407,0.932312,0,0,0,0,0,0,0,-1,1763,498,3.2941,-0.93232
546,526,3.36731,1.07721,0,0,0,0,0,0,0,-1,1770,498,3.36735,-1.07719
553,526,3.40796,1.37137,0,0,0,0,0,0,0,-1,1777,498,3.40792,-1.37138
560,526,0,0,0,0,0,0,0,0,0,-1,1784,498,0,0
567,526,0,0,0,0,0,0,0,0,0,-1,1791,498,0,0
574,526,0,0,0,0,0,0,0,0,0,-1,1798,498,0,0
581,526,0,0,0,0,0,0,0,0,0,-1,1805,498,0,0
588,526,0,0,0,0,0,0,0,0,0,-1,1812,498,0,0
595,526,0,0,0,0,0,0,0,0,0,-1,1819,498,0,0
602,526,0,0,0,0,0,0,0,0,0,-1,1826,498,0,0
609,526,0,0,0,0,0,0,0,0,0,-1,1833,498,0,0
616,526,0,0,0,0,0,0,0,0,0,-1,1840,498,0,0
623,526,0,0,0,0,0,0,0,0,0,-1,1847,498,0,0
630,526,0,0,0,0,0,0,0,0,0,-1,1854,498,0,0
637,526,0,0,0,0,0,0,0,0,0,-1,1861,498,0,0
644,526,0,0,0,0,0,0,0,0,0,-1,1868,498,0,0
651,526,0,0,0,0,0,0,0,0,0,-1,1875,498,0,0
658,526,0,0,0,0,0,0,0,0,0,-1,1882,498,0,0
665,526,0,0,0,0,0,0,0,0,0,-1,1889,498,0,0
672,526,0,0,0,0,0,0,0,0,0,-1,1896,498,0,0
679,526,0,0,0,0,0,0,0,0,0,-1,1903,498,0,0
686,526,0,0,0,0,0,0,0,0,0,-1,1910,498,0,0
693,526,0,0,0,0,0,0,0,0,0,-1,1917,498,0,0
700,526,0,0,0,0,0,0,0,0,0,-1,1924,498,0,0
707,526,0,0,0,0,0,0,0,0,0,-1,1931,498,0,0
714,526,0,0,0,0,0,0,0,0,0,-1,1938,498,0,0
721,526,0,0,0,0,0,0,0,0,0,-1,1945,498,0,0
728,526,0,0,0,0,0,0,0,0,0,-1,1952,498,0,0
735,526,0,0,0,0,0,0,0,0,0,-1,1959,498,0,0
742,526,0,0,0,0,0,0,0,0,0,-1,1966,498,0,0
749,526,0,0,0,0,0,0,0,0,0,-1,1973,498,0,0
756,526,0,0,0,0,0,0,0,0,0,-1,1980,498,0,0
763,526,0,0,0,0,0,0,0,0,0,-1,1987,498,0,0
770,526,0,0,0,0,0,0,0,0,0,-1,1994,498,0,0
777,526,0,0,0,0,0,0,0,0,0,-1,2001,498,0,0
784,526,0,0,0,0,0,0,0,0,0,-1,2008,498,0,0
791,526,0,0,0,0,0,0,0,0,0,-1,2015,498,0,0
798,526,0,0,0,0,0,0,0,0,0,-1,2022,498,0,0
805,526,0,0,0,0,0,0,0,0,0,-1,2029,498,0,0
812,526,0,0,0,0,0,0,0,0,0,-1,2036,498,0,0
-700,519,0,0,0,0,0,0,0,0,0,-1,524,505,0,0
-693,519,0,0,0,0,0,0,0,0,0,-1,531,505,0,0
-686,519,0,0,0,0,0,0,0,0,0,-1,538,505,0,0
-679,519,0,0,0,0,0,0,0,0,0,-1,545,505,0,0
-672,519,0,0,0,0,0,0,0,0,0,-1,552,505,0,0
-665,519,0,0,0,0,0,0,0,0,0,-1,559,505,0,0
-658,519,0,0,0,0,0,0,0,0,0,-1,566,505,0,0
-651,519,0,0,0,0,0,0,0,0,0,-1,573,505,0,0
-644,519,0,0,0,0,0,0,0,0,0,-1,580,505,0,0
-637,519,0,0,0,0,0,0,0,0,0,-1,587,505,0,0
-630,519,0,0,0,0,0,0,0,0,0,-1,594,505,0,0
-623,519,0,0,0,0,0,0,0,0,0,-1,601,505,0,0
-616,519,0,0,0,0,0,0,0,0,0,-1,608,505,0,0
-609,519,0,0,0,0,0,0,0,0,0,-1,615,505,0,0
-602,519,0,0,0,0,0,0,0,0,0,-1,622,505,0,0
-595,519,0,0,0,0,0,0,0,0,0,-1,629,505,0,0
-588,519,0,0,0,0,0,0,0,0,0,-1,636,505,0,0
-581,519,0,0,0,0,0,0,0,0,0,-1,643,505,0,0
-574,519,0,0,0,0,0,0,0,0,0,-1,650,505,0,0
-567,519,0,0,0,0,0,0,0,0,0,-1,657,505,0,0
-560,519,0,0,0,0,0,0,0,0,0,-1,664,505,0,0
-553,519,0,0,0,0,0,0,0,0,0,-1,671,505,0,0
-546,519,0,0,0,0,0,0,0,0,0,-1,678,505,0,0
-539,519,0,0,0,0,0,0,0,0,0,-1,685,505,0,0
-532,519,0,0,0,0,0,0,0,0,0,-1,692,505,0,0
-525,519,0,0,0,0,0,0,0,0,0,-1,699,505,0,0
-518,519,0,0,0,0,0,0,0,0,0,-1,706,505,0,0
-511,519,0,0,0,0,0,0,0,0,0,-1,713,505,0,0
-504,519,0,0,0,0,0,0,0,0,0,-1,720,505,0,0
-497,519,0,0,0,0,0,0,0,0,0,-1,727,505,0,0
-490,519,0,0,0,0,0,0,0,0,0,-1,734,505,0,0
-483,519,0,0,0,0,0,0,0,0,0,-1,741,505,0,0
-476,519,0,0,0,0,0,0,0,0,0,-1,748,505,0,0
-469,519,0,0,0,0,0,0,0,0,0,-1,755,505,0,0
-462,519,0,0,0,0,0,0,0,0,0,-1,762,505,0,0
-455,519,0,0,0,0,0,0,0,0,0,-1,769,505,0,0
-448,519,0,0,0,0,0,0,0,0,0,-1,776,505,0,0
-441,519,0.808167,-6.55032,0,0,0,0,0,0,0,-1,783,505,0.808177,6.55033
-434,519,0.69165,-6.67197,0,0,0,0,0,0,0,-1,790,505,0.691649,6.67195
-427,519,-1.04236,-4.40891,0,0,0,0,0,0,0,-1,797,505,-1.04238,4.40891
-420,519,1.37213,-6.97879,0,0,0,0,0,0,0,-1,804,505,1.37215,6.9788
-413,519,-0.483459,-6.4874,0,0,0,0,0,0,0,-1,811,505,-0.48343,6.48739
-406,519,-0.746094,-6.61493,0,0,0,0,0,0,0,-1,818,505,-0.746083,6.61493
-399,519,-0.655518,-6.82367,0,0,0,0,0,0,0,-1,825,505,-0.655504,6.82366
-392,519,-0.316162,-6.77252,0,0,0,0,0,0,0,-1,832,505,-0.316166,6.77253
-385,519,-0.184875,-6.88849,0,0,0,0,0,0,0,-1,839,505,-0.184878,6.88849
-378,519,-0.204407,-7.06604,0.000388506,-0.000701371,-0.00216912,0.0020801,-0.00239296,-0.662332,0.00258462,0.0362153,846,505,-0.204417,7.06604
-371,519,-0.179749,-7.44055,-0.000459556,-0.000634872,-0.00136508,0.000820678,-0.00191511,-0.753335,0.00162109,0.0192934,853,505,-0.179735,7.44056
-364,519,-0.233704,-7.69409,-0.000909074,-0.000301933,-0.000992311,0.000432204,-0.00164321,-0.933839,0.00126441,0.0122528,860,505,-0.233699,7.69411
-357,519,-0.211121,-7.96936,-0.00116723,-0.00015538,-0.000727155,0.000224536,-0.00154715,-1.08934,0.00111385,0.00919751,867,505,-0.211142,7.96934
-350,519,-0.212891,-8.22369,-0.0011414,-2.74202e-06,-0.000654773,0.000295605,-0.00143975,-1.14325,0.00107204,0.0110428,874,505,-0.212905,8.22371
-343,519,-0.23291,-8.48413,-0.00102892,0.000300078,-0.000632216,0.00055278,-0.00128162,-1.19054,0.0010866,0.014826,881,505,-0.232928,8.48412
-336,519,-0.267578,-8.7312,-0.000684022,0.00032418,-0.000706957,0.000688357,-0.0010482,-1.09512,0.00100975,0.0147319,888,505,-0.267608,8.73118
-329,519,-0.25946,-8.9682,-0.000173898,0.000286811,-0.000797447,0.000886507,-0.000773594,-0.926003,0.000959199,0.0120267,895,505,-0.259478,8.96822
-322,519,-0.237183,-9.22217,0.000321848,0.000253195,-0.000812605,0.00110085,-0.000525808,-0.764289,0.000958514,0.00994884,902,505,-0.237203,9.22215
-315,519,-0.231262,-9.49335,0.000834248,0.000340622,-0.000767378,0.00139353,-0.000218658,-0.629807,0.00100983,0.0086887,909,505,-0.231267,9.49335
-308,519,-0.227783,-9.76044,0.00142679,0.000279217,-0.000690572,0.00175085,-4.48385e-05,-0.438752,0.00118246,0.00733722,916,505,-0.227777,9.76045
-301,519,-0.244141,-9.98157,0.001989,0.00018405,-0.000543901,0.00214023,3.28219e-05,-0.271192,0.00141601,0.0111276,923,505,-0.24413,9.98154
-294,519,-0.258667,-10.1797,0.00253616,-0.00020986,-0.000306083,0.00256986,-0.000243564,-0.109671,0.00179993,0.0148495,930,505,-0.25866,10.1797
-287,519,-0.264404,-10.4124,0.00106837,-0.00704837,0.00120314,0.00124295,-0.00722296,0.144102,0.00527863,0.0104042,937,505,-0.264407,10.4123
-280,519,-0.268921,-10.6492,-0.00140704,-0.0175406,0.00343032,-0.00070797,-0.0182396,0.201038,0.0119308,0.0148629,944,505,-0.268891,10.6493
-273,519,-0.234619,-10.8819,-0.00362498,-0.0264519,0.00543214,-0.00239822,-0.0276787,0.222108,0.0177072,0.0227228,951,505,-0.234621,10.8819
-266,519,-0.244446,-11.1089,-0.00647366,-0.037248,0.00804957,-0.00449533,-0.0392263,0.240992,0.0247887,0.0293052,958,505,-0.244432,11.109
-259,519,-0.115295,-11.178,-0.00963127,-0.0494649,0.0107211,-0.00692905,-0.0521671,0.246906,0.0327139,0.0450897,965,505,-0.115319,11.178
-252,519,-0.129211,-11.4174,0,0,0,0,0,0,0,-1,972,505,-0.129202,11.4173
-245,519,-0.116272,-11.2235,0,0,0,0,0,0,0,-1,979,505,-0.116244,11.2235
-238,519,0.0769043,-11.1618,0,0,0,0,0,0,0,-1,986,505,0.0769194,11.1618
-231,519,0.337585,-11.2798,0,0,0,0,0,0,0,-1,993,505,0.337568,11.2798
-224,519,-0.0494995,-7.97394,0,0,0,0,0,0,0,-1,1000,505,-0.0495123,7.97392
-217,519,-2.97125,-4.84393,0,0,0,0,0,0,0,-1,1007,505,-2.97128,4.84393
-210,519,-2.14398,-4.74774,0,0,0,0,0,0,0,-1,1014,505,-2.14397,4.74775
-203,519,-0.513611,-5.39017,0,0,0,0,0,0,0,-1,1021,505,-0.513585,5.39017
-196,519,-0.374023,-5.41635,0,0,0,0,0,0,0,-1,1028,505,-0.374047,5.41635
-189,519,-0.234497,-5.44254,0,0,0,0,0,0,0,-1,1035,505,-0.234508,5.44253
-182,519,2.76697,-1.19659,0,0,0,0,0,0,0,-1,1042,505,2.76696,1.19661
-175,519,2.31323,-0.960938,0,0,0,0,0,0,0,-1,1049,505,2.31319,0.960941
-168,519,2.01074,-0.721405,0,0,0,0,0,0,0,-1,1056,505,2.01072,0.721407
-161,519,2.32056,-0.522339,0,0,0,0,0,0,0,-1,1063,505,2.32057,0.522328
-154,519,2.55566,0.116669,0,0,0,0,0,0,0,-1,1070,505,2.55563,-0.116661
-147,519,-0.55127,-6.14001,0,0,0,0,0,0,0,-1,1077,505,-0.551252,6.14001
-140,519,0.240601,-7.53503,0,0,0,0,0,0,0,-1,1084,505,0.240653,7.53501
-133,519,2.70911,-4.4516,0,0,0,0,0,0,0,-1,1091,505,2.70915,4.45161
-126,519,0,0,0,0,0,0,0,0,0,-1,1098,505,0,0
-119,519,0,0,0,0,0,0,0,0,0,-1,1105,505,0,0
-112,519,0,0,0,0,0,0,0,0,0,-1,1112,505,0,0
-105,519,0,0,0,0,0,0,0,0,0,-1,1119,505,0,0
-98,519,0,0,0,0,0,0,0,0,0,-1,1126,505,0,0
-91,519,0,0,0,0,0,0,0,0,0,-1,1133,505,0,0
-84,519,0,0,0,0,0,0,0,0,0,-1,1140,505,0,0
-77,519,0,0,0,0,0,0,0,0,0,-1,1147,505,0,0
-70,519,0,0,0,0,0,0,0,0,0,-1,1154,505,0,0
-63,519,0,0,0,0,0,0,0,0,0,-1,1161,505,0,0
-56,519,0,0,0,0,0,0,0,0,0,-1,1168,505,0,0
-49,519,0,0,0,0,0,0,0,0,0,-1,1175,505,0,0
-42,519,0,0,0,0,0,0,0,0,0,-1,1182,505,0,0
-35,519,0,0,0,0,0,0,0,0,0,-1,1189,505,0,0
-28,519,0,0,0,0,0,0,0,0,0,-1,1196,505,0,0
-21,519,0,0,0,0,0,0,0,0,0,-1,1203,505,0,0
-14,519,0,0,0,0,0,0,0,0,0,-1,1210,505,0,0
-7,519,0,0,0,0,0,0,0,0,0,-1,1217,505,0,0
0,519,0,0,0,0,0,0,0,0,0,-1,1224,505,0,0
7,519,0,0,0,0,0,0,0,0,0,-1,1231,505,0,0
14,519,0,0,0,0,0,0,0,0,0,-1,1238,505,0,0
21,519,0,0,0,0,0,0,0,0,0,-1,1245,505,0,0
28,519,0,0,0,0,0,0,0,0,0,-1,1252,505,0,0
35,519,0,0,0,0,0,0,0,0,0,-1,1259,505,0,0
42,519,0,0,0,0,0,0,0,0,0,-1,1266,505,0,0
49,519,0,0,0,0,0,0,0,0,0,-1,1273,505,0,0
56,519,0,0,0,0,0,0,0,0,0,-1,1280,505,0,0
63,519,0,0,0,0,0,0,0,0,0,-1,1287,505,0,0
70,519,0,0,0,0,0,0,0,0,0,-1,1294,505,0,0
77,519,0,0,0,0,0,0,0,0,0,-1,1301,505,0,0
84,519,0,0,0,0,0,0,0,0,0,-1,1308,505,0,0
91,519,0,0,0,0,0,0,0,0,0,-1,1315,505,0,0
98,519,0,0,0,0,0,0,0,0,0,-1,1322,505,0,0
105,519,0,0,0,0,0,0,0,0,0,-1,1329,505,0,0
112,519,0,0,0,0,0,0,0,0,0,-1,1336,505,0,0
119,519,0,0,0,0,0,0,0,0,0,-1,1343,505,0,0
126,519,0,0,0,0,0,0,0,0,0,-1,1350,505,0,0
133,519,0,0,0,0,0,0,0,0,0,-1,1357,505,0,0
140,519,0,0,0,0,0,0,0,0,0,-1,1364,505,0,0
147,519,0,0,0,0,0,0,0,0,0,-1,1371,505,0,0
154,519,0,0,0,0,0,0,0,0,0,-1,1378,505,0,0
161,519,0,0,0,0,0,0,0,0,0,-1,1385,505,0,0
168,519,0,0,0,0,0,0,0,0,0,-1,1392,505,0,0
175,519,0,0,0,0,0,0,0,0,0,-1,1399,505,0,0
182,519,0,0,0,0,0,0,0,0,0,-1,1406,505,0,0
189,519,0,0,0,0,0,0,0,0,0,-1,1413,505,0,0
196,519,0,0,0,0,0,0,0,0,0,-1,1420,505,0,0
203,519,0,0,0,0,0,0,0,0,0,-1,1427,505,0,0
210,519,0,0,0,0,0,0,0,0,0,-1,1434,505,0,0
217,519,0,0,0,0,0,0,0,0,0,-1,1441,505,0,0
224,519,0,0,0,0,0,0,0,0,0,-1,1448,505,0,0
231,519,0,0,0,0,0,0,0,0,0,-1,1455,505,0,0
238,519,0,0,0,0,0,0,0,0,0,-1,1462,505,0,0
245,519,0,0,0,0,0,0,0,0,0,-1,1469,505,0,0
252,519,5.26208,0.0938416,0,0,0,0,0,0,0,-1,1476,505,5.26207,-0.0938493
259,519,6.14246,-1.36441,0,0,0,0,0,0,0,-1,1483,505,6.14241,1.36441
266,519,5.31909,-0.400787,0,0,0,0,0,0,0,-1,1490,505,5.31912,0.400773
273,519,4.02393,0.325531,0,0,0,0,0,0,0,-1,1497,505,4.0239,-0.325522
280,519,4.68848,0.53006,0,0,0,0,0,0,0,-1,1504,505,4.68842,-0.530073
287,519,7.9519,-3.80801,0,0,0,0,0,0,0,-1,1511,505,7.95193,3.808
294,519,6.92273,-3.38889,0,0,0,0,0,0,0,-1,1518,505,6.92268,3.38888
301,519,5.35669,-2.92661,0,0,0,0,0,0,0,-1,1525,505,5.35675,2.9266
308,519,7.37549,-5.64529,0,0,0,0,0,0,0,-1,1532,505,7.3755,5.64529
315,519,6.30029,-4.53754,0,0,0,0,0,0,0,-1,1539,505,6.30024,4.53753
322,519,5.84302,-5.45117,0,0,0,0,0,0,0,-1,1546,505,5.84303,5.45116
329,519,4.92407,0.62384,0,0,0,0,0,0,0,-1,1553,505,4.92403,-0.623832
336,519,3.10095,-0.329285,0,0,0,0,0,0,0,-1,1560,505,3.1009,0.329283
343,519,2.49146,-2.31119,0,0,0,0,0,0,0,-1,1567,505,2.49145,2.31119
350,519,3.47729,-2.22516,0,0,0,0,0,0,0,-1,1574,505,3.47726,2.22515
357,519,4.51917,-4.51691,0,0,0,0,0,0,0,-1,1581,505,4.51914,4.51691
364,519,3.54626,-7.20673,0,0,0,0,0,0,0,-1,1588,505,3.54622,7.20675
371,519,5.349,-8.20068,0,0,0,0,0,0,0,-1,1595,505,5.34898,8.20068
378,519,6.36597,-10.0967,0,0,0,0,0,0,0,-1,1602,505,6.36597,10.0967
385,519,6.24756,-9.72186,0,0,0,0,0,0,0,-1,1609,505,6.24752,9.72183
392,519,5.69653,-10.2017,0,0,0,0,0,0,0,-1,1616,505,5.69658,10.2017
399,519,5.84167,-9.60284,-0.00312883,-0.0025839,-0.00478607,0.00193746,-0.00765018,-0.813832,0.00585381,0.0414775,1623,505,5.84167,9.60287
406,519,5.81494,-9.48071,-0.00299504,-0.002191,-0.0045721,0.00199673,-0.00718276,-0.82925,0.00557459,0.024983,1630,505,5.81489,9.48071
413,519,5.85657,-9.23511,-0.00256168,-0.00149162,-0.00395266,0.00196206,-0.00601536,-0.852669,0.00479985,0.013557,1637,505,5.85652,9.23511
420,519,5.828,-8.94928,-0.0022105,-0.00101548,-0.00332551,0.00176577,-0.00499175,-0.874287,0.00404694,0.01512,1644,505,5.82794,8.94928
427,519,5.84924,-8.71729,-0.00190259,-0.000727907,-0.00273534,0.00148244,-0.00411294,-0.891154,0.00334737,0.0139487,1651,505,5.84925,8.71726
434,519,5.86609,-8.45319,-0.00153763,-0.000456487,-0.00212291,0.00119359,-0.00318771,-0.910067,0.00261543,0.0121522,1658,505,5.86604,8.45321
441,519,5.8562,-8.18713,-0.00110034,-0.000295835,-0.0014943,0.00084941,-0.00224559,-0.916877,0.00184651,0.0120194,1665,505,5.8562,8.18715
448,519,5.84888,-7.92902,-0.000622091,-0.000280746,-0.000893263,0.000458004,-0.00136084,-0.879794,0.00109238,0.00973549,1672,505,5.84889,7.92901
455,519,5.83374,-7.67194,-0.00011162,-0.000266529,-0.000330023,0.000149915,-0.000528065,-0.670137,0.000411227,0.0108706,1679,505,5.83375,7.67195
462,519,5.83728,-7.39459,0.000677782,5.51173e-05,0.000286799,0.000789748,-5.6849e-05,0.372203,0.000546435,0.00993966,1686,505,5.83733,7.3946
469,519,5.84412,-7.11096,0.00151552,0.000394202,0.000822553,0.00195032,-4.05941e-05,0.48626,0.00131395,0.0102839,1693,505,5.84408,7.11093
476,519,5.85742,-6.84314,0.0021194,0.000739758,0.00124025,0.00284876,1.04005e-05,0.531604,0.00189572,0.0128385,1700,505,5.85745,6.84313
483,519,5.83875,-6.55582,0.00272012,0.00153099,0.00153971,0.00377608,0.00047503,0.601141,0.00237493,0.0132144,1707,505,5.83875,6.55582
490,519,5.83069,-6.23611,0.00336811,0.00240666,0.00182336,0.00477306,0.00100172,0.656507,0.00290626,0.0109165,1714,505,5.83072,6.23613
497,519,5.83044,-5.98703,0.00391223,0.00399874,0.00225714,0.00621304,0.00169793,0.794978,0.00370798,0.0132712,1721,505,5.83048,5.98704
504,519,5.8125,-5.72183,0.00441537,0.00709715,0.0030473,0.00908553,0.00242699,0.992662,0.00543187,0.0132648,1728,505,5.81248,5.72182
511,519,5.85474,-5.46228,0.00479927,0.0104782,0.0035853,0.0122122,0.00306522,1.12031,0.00733637,0.0183075,1735,505,5.85471,5.46227
518,519,5.88733,-5.51248,0.00502058,0.0151963,0.00458692,0.0169587,0.00325817,1.20396,0.0103914,0.0410195,1742,505,5.88729,5.51247
525,519,5.9895,-5.52585,0,0,0,0,0,0,0,-1,1749,505,5.98955,5.52585
532,519,3.5155,-2.86511,0,0,0,0,0,0,0,-1,1756,505,3.51554,2.8651
539,519,3.30005,0.0229797,0,0,0,0,0,0,0,-1,1763,505,3.30008,-0.0229869
546,519,4.62024,-2.89774,0,0,0,0,0,0,0,-1,1770,505,4.62023,2.89775
553,519,4.14136,0.0667419,0,0,0,0,0,0,0,-1,1777,505,4.14141,-0.0667503
560,519,3.77856,0.279724,0,0,0,0,0,0,0,-1,1784,505,3.77861,-0.279731
567,519,0,0,0,0,0,0,0,0,0,-1,1791,505,0,0
574,519,0,0,0,0,0,0,0,0,0,-1,1798,505,0,0
581,519,0,0,0,0,0,0,0,0,0,-1,1805,505,0,0
588,519,0,0,0,0,0,0,0,0,0,-1,1812,505,0,0
595,519,0,0,0,0,0,0,0,0,0,-1,1819,505,0,0
602,519,0,0,0,0,0,0,0,0,0,-1,1826,505,0,0
609,519,0,0,0,0,0,0,0,0,0,-1,1833,505,0,0
616,519,0,0,0,0,0,0,0,0,0,-1,1840,505,0,0
623,519,0,0,0,0,0,0,0,0,0,-1,1847,505,0,0
630,519,0,0,0,0,0,0,0,0,0,-1,1854,505,0,0
637,519,0,0,0,0,0,0,0,0,0,-1,1861,505,0,0
644,519,0,0,0,0,0,0,0,0,0,-1,1868,505,0,0
651,519,0,0,0,0,0,0,0,0,0,-1,1875,505,0,0
658,519,0,0,0,0,0,0,0,0,0,-1,1882,505,0,0
665,519,0,0,0,0,0,0,0,0,0,-1,1889,505,0,0
672,519,0,0,0,0,0,0,0,0,0,-1,1896,505,0,0
679,519,0,0,0,0,0,0,0,0,0,-1,1903,505,0,0
686,519,0,0,0,0,0,0,0,0,0,-1,1910,505,0,0
693,519,0,0,0,0,0,0,0,0,0,-1,1917,505,0,0
700,519,0,0,0,0,0,0,0,0,0,-1,1924,505,0,0
707,519,0,0,0,0,0,0,0,0,0,-1,1931,505,0,0
714,519,0,0,0,0,0,0,0,0,0,-1,1938,505,0,0
721,519,0,0,0,0,0,0,0,0,0,-1,1945,505,0,0
728,519,0,0,0,0,0,0,0,0,0,-1,1952,505,0,0
735,519,0,0,0,0,0,0,0,0,0,-1,1959,505,0,0
742,519,0,0,0,0,0,0,0,0,0,-1,1966,505,0,0
749,519,0,0,0,0,0,0,0,0,0,-1,1973,505,0,0
756,519,0,0,0,0,0,0,0,0,0,-1,1980,505,0,0
763,519,0,0,0,0,0,0,0,0,0,-1,1987,505,0,0
770,519,0,0,0,0,0,0,0,0,0,-1,1994,505,0,0
777,519,0,0,0,0,0,0,0,0,0,-1,2001,505,0,0
784,519,0,0,0,0,0,0,0,0,0,-1,2008,505,0,0
791,519,0,0,0,0,0,0,0,0,0,-1,2015,505,0,0
798,519,0,0,0,0,0,0,0,0,0,-1,2022,505,0,0
805,519,0,0,0,0,0,0,0,0,0,-1,2029,505,0,0
812,519,0,0,0,0,0,0,0,0,0,-1,2036,505,0,0
-700,512,0,0,0,0,0,0,0,0,0,-1,524,512,0,0
-693,512,0,0,0,0,0,0,0,0,0,-1,531,512,0,0
-686,512,0,0,0,0,0,0,0,0,0,-1,538,512,0,0
-679,512,0,0,0,0,0,0,0,0,0,-1,545,512,0,0
-672,512,0,0,0,0,0,0,0,0,0,-1,552,512,0,0
-665,512,0,0,0,0,0,0,0,0,0,-1,559,512,0,0
-658,512,0,0,0,0,0,0,0,0,0,-1,566,512,0,0
-651,512,0,0,0,0,0,0,0,0,0,-1,573,512,0,0
-644,512,0,0,0,0,0,0,0,0,0,-1,580,512,0,0
-637,512,0,0,0,0,0,0,0,0,0,-1,587,512,0,0
-630,512,0,0,0,0,0,0,0,0,0,-1,594,512,0,0
-623,512,0,0,0,0,0,0,0,0,0,-1,601,512,0,0
-616,512,0,0,0,0,0,0,0,0,0,-1,608,512,0,0
-609,512,0,0,0,0,0,0,0,0,0,-1,615,512,0,0
-602,512,0,0,0,0,0,0,0,0,0,-1,622,512,0,0
-595,512,0,0,0,0,0,0,0,0,0,-1,629,512,0,0
-588,512,0,0,0,0,0,0,0,0,0,-1,636,512,0,0
-581,512,0,0,0,0,0,0,0,0,0,-1,643,512,0,0
-574,512,0,0,0,0,0,0,0,0,0,-1,650,512,0,0
-567,512,0,0,0,0,0,0,0,0,0,-1,657,512,0,0
-560,512,0,0,0,0,0,0,0,0,0,-1,664,512,0,0
-553,512,0,0,0,0,0,0,0,0,0,-1,671,512,0,0
-546,512,0,0,0,0,0,0,0,0,0,-1,678,512,0,0
-539,512,0,0,0,0,0,0,0,0,0,-1,685,512,0,0
-532,512,0,0,0,0,0,0,0,0,0,-1,692,512,0,0
-525,512,0,0,0,0,0,0,0,0,0,-1,699,512,0,0
-518,512,0,0,0,0,0,0,0,0,0,-1,706,512,0,0
-511,512,0,0,0,0,0,0,0,0,0,-1,713,512,0,0
-504,512,0,0,0,0,0,0,0,0,0,-1,720,512,0,0
-497,512,0,0,0,0,0,0,0,0,0,-1,727,512,0,0
-490,512,0,0,0,0,0,0,0,0,0,-1,734,512,0,0
-483,512,0,0,0,0,0,0,0,0,0,-1,741,512,0,0
-476,512,0,0,0,0,0,0,0,0,0,-1,748,512,0,0
-469,512,0,0,0,0,0,0,0,0,0,-1,755,512,0,0
-462,512,0,0,0,0,0,0,0,0,0,-1,762,512,0,0
-455,512,0,0,0,0,0,0,0,0,0,-1,769,512,0,0
-448,512,-0.901306,-6.79834,0,0,0,0,0,0,0,-1,776,512,-0.90133,6.79831
-441,512,-0.159119,-6.37024,0,0,0,0,0,0,0,-1,783,512,-0.159125,6.37025
-434,512,0.656006,-5.95892,0,0,0,0,0,0,0,-1,790,512,0.655993,5.9589
-427,512,0.532898,-5.37317,0,0,0,0,0,0,0,-1,797,512,0.532919,5.3732
-420,512,0.219666,-5.37921,0,0,0,0,0,0,0,-1,804,512,0.219688,5.37919
-413,512,-0.248901,-5.86871,0,0,0,0,0,0,0,-1,811,512,-0.24893,5.86869
-406,512,-0.770447,-6.37933,0,0,0,0,0,0,0,-1,818,512,-0.770426,6.37931
-399,512,-0.690979,-6.60577,0.00442482,-0.00340798,-0.00897818,0.0103036,-0.00928678,-0.579733,0.0113156,0.0446632,825,512,-0.690974,6.60579
-392,512,-0.514648,-6.72461,0.00275002,-0.00182443,-0.00570225,0.00660666,-0.00568106,-0.594667,0.00710103,0.0354894,832,512,-0.514619,6.72461
-385,512,-0.450684,-6.90009,0.00194775,-0.000334165,-0.00281272,0.00384212,-0.00222853,-0.592718,0.00354592,0.0192388,839,512,-0.450681,6.90008
-378,512,-0.458679,-7.16644,0.00094311,-0.000364369,-0.0019661,0.00236131,-0.00178257,-0.624896,0.00240023,0.0149271,846,512,-0.458699,7.16646
-371,512,-0.463867,-7.4444,0.000219926,-0.000555137,-0.00124745,0.00113865,-0.00147386,-0.634795,0.00151247,0.0114848,853,512,-0.463888,7.44442
-364,512,-0.464844,-7.73096,-0.000190259,-0.000375136,-0.000908648,0.00063064,-0.00119604,-0.734706,0.00107134,0.00896805,860,512,-0.464855,7.73098
-357,512,-0.454346,-7.97522,-0.00043699,-0.000318498,-0.000670379,0.000295248,-0.00105074,-0.829472,0.00081689,0.00974207,867,512,-0.454365,7.97519
-350,512,-0.453796,-8.22186,-0.000434267,-0.000206422,-0.000647524,0.000337125,-0.000977814,-0.872475,0.000788647,0.0105344,874,512,-0.453821,8.22185
-343,512,-0.491638,-8.47821,-0.000361338,3.06136e-05,-0.000665773,0.000528655,-0.000859379,-0.928535,0.000808929,0.0120084,881,512,-0.491641,8.47822
-336,512,-0.504456,-8.74091,-7.59292e-05,4.09909e-05,-0.000771226,0.000755969,-0.000790908,-0.823227,0.000893166,0.0120994,888,512,-0.504434,8.7409
-329,512,-0.484192,-8.96948,0.000390328,2.21229e-05,-0.000913203,0.0011378,-0.00072535,-0.685931,0.00108444,0.0121325,895,512,-0.484176,8.96951
-322,512,-0.488708,-9.22638,0.000863173,3.51793e-05,-0.000989537,0.00152182,-0.000623473,-0.587276,0.00127427,0.0106042,902,512,-0.488725,9.22637
-315,512,-0.489502,-9.50226,0.00140032,0.000139956,-0.000997571,0.00195008,-0.000409811,-0.503691,0.00145601,0.0104905,909,512,-0.489531,9.50225
-308,512,-0.487366,-9.75995,0.0020448,7.29087e-05,-0.000941419,0.00242207,-0.000304362,-0.38115,0.00172514,0.0106668,916,512,-0.487377,9.75995
-301,512,-0.488403,-9.98883,0.00267748,-3.79481e-05,-0.000815443,0.00290354,-0.000264007,-0.270431,0.00202942,0.0149677,923,512,-0.488394,9.98884
-294,512,-0.491089,-10.1859,0.00328402,-0.000459691,-0.00057933,0.00337162,-0.000547291,-0.150073,0.00245063,0.0144635,930,512,-0.491101,10.1859
-287,512,-0.561768,-10.3568,0.000181751,-0.0120843,0.00193208,0.000478882,-0.0123815,0.152593,0.00841848,0.0204314,937,512,-0.561797,10.3567
-280,512,-0.427795,-10.6312,-0.00442977,-0.0291166,0.0057083,-0.00317375,-0.0303727,0.216582,0.0192778,0.0305014,944,512,-0.427805,10.6312
-273,512,-0.351563,-10.9266,0,0,0,0,0,0,0,-1,951,512,-0.351569,10.9266
-266,512,-0.437134,-11.2049,0,0,0,0,0,0,0,-1,958,512,-0.437142,11.2049
-259,512,-0.357422,-11.2753,0,0,0,0,0,0,0,-1,965,512,-0.357444,11.2753
-252,512,1.45941,-3.43475,0,0,0,0,0,0,0,-1,972,512,1.45938,3.43475
-245,512,4.12927,-11.272,0,0,0,0,0,0,0,-1,979,512,4.1293,11.272
-238,512,0.227051,-8.92969,0,0,0,0,0,0,0,-1,986,512,0.227073,8.92968
-231,512,-2.54437,-10.169,0,0,0,0,0,0,0,-1,993,512,-2.54439,10.169
-224,512,-4.84601,-7.52783,0,0,0,0,0,0,0,-1,1000,512,-4.84602,7.52786
-217,512,-7.37274,-3.89563,0,0,0,0,0,0,0,-1,1007,512,-7.37274,3.89561
-210,512,-3.76642,-1.94702,0,0,0,0,0,0,0,-1,1014,512,-3.76641,1.94702
-203,512,-2.48328,-5.19061,0,0,0,0,0,0,0,-1,1021,512,-2.48328,5.19059
-196,512,-1.14929,-4.63202,0,0,0,0,0,0,0,-1,1028,512,-1.14934,4.632
-189,512,0.197998,4.55505,0,0,0,0,0,0,0,-1,1035,512,0.197996,-4.55506
-182,512,2.73938,0.0778503,0,0,0,0,0,0,0,-1,1042,512,2.73944,-0.077852
-175,512,2.29565,0.209808,0,0,0,0,0,0,0,-1,1049,512,2.29565,-0.209813
-168,512,2.09399,-0.302856,0,0,0,0,0,0,0,-1,1056,512,2.09403,0.302826
-161,512,2.76636,0.0921021,0,0,0,0,0,0,0,-1,1063,512,2.76633,-0.0921104
-154,512,3.41382,0.466187,0,0,0,0,0,0,0,-1,1070,512,3.41382,-0.466178
-147,512,0,0,0,0,0,0,0,0,0,-1,1077,512,0,0
-140,512,0,0,0,0,0,0,0,0,0,-1,1084,512,0,0
-133,512,0,0,0,0,0,0,0,0,0,-1,1091,512,0,0
-126,512,0,0,0,0,0,0,0,0,0,-1,1098,512,0,0
-119,512,0,0,0,0,0,0,0,0,0,-1,1105,512,0,0
-112,512,0,0,0,0,0,0,0,0,0,-1,1112,512,0,0
-105,512,0,0,0,0,0,0,0,0,0,-1,1119,512,0,0
-98,512,0,0,0,0,0,0,0,0,0,-1,1126,512,0,0
-91,512,0,0,0,0,0,0,0,0,0,-1,1133,512,0,0
-84,512,0,0,0,0,0,0,0,0,0,-1,1140,512,0,0
-77,512,0,0,0,0,0,0,0,0,0,-1,1147,512,0,0
-70,512,0,0,0,0,0,0,0,0,0,-1,1154,512,0,0
-63,512,0,0,0,0,0,0,0,0,0,-1,1161,512,0,0
-56,512,0,0,0,0,0,0,0,0,0,-1,1168,512,0,0
-49,512,0,0,0,0,0,0,0,0,0,-1,1175,512,0,0
-42,512,0,0,0,0,0,0,0,0,0,-1,1182,512,0,0
-35,512,0,0,0,0,0,0,0,0,0,-1,1189,512,0,0
-28,512,0,0,0,0,0,0,0,0,0,-1,1196,512,0,0
-21,512,0,0,0,0,0,0,0,0,0,-1,1203,512,0,0
-14,512,0,0,0,0,0,0,0,0,0,-1,1210,512,0,0
-7,512,0,0,0,0,0,0,0,0,0,-1,1217,512,0,0
0,512,0,0,0,0,0,0,0,0,0,-1,1224,512,0,0
7,512,0,0,0,0,0,0,0,0,0,-1,1231,512,0,0
14,512,0,0,0,0,0,0,0,0,0,-1,1238,512,0,0
21,512,0,0,0,0,0,0,0,0,0,-1,1245,512,0,0
28,512,0,0,0,0,0,0,0,0,0,-1,1252,512,0,0
35,512,0,0,0,0,0,0,0,0,0,-1,1259,512,0,0
42,512,0,0,0,0,0,0,0,0,0,-1,1266,512,0,0
49,512,0,0,0,0,0,0,0,0,0,-1,1273,512,0,0
56,512,0,0,0,0,0,0,0,0,0,-1,1280,512,0,0
63,512,0,0,0,0,0,0,0,0,0,-1,1287,512,0,0
70,512,0,0,0,0,0,0,0,0,0,-1,1294,512,0,0
77,512,0,0,0,0,0,0,0,0,0,-1,1301,512,0,0
84,512,0,0,0,0,0,0,0,0,0,-1,1308,512,0,0
91,512,0,0,0,0,0,0,0,0,0,-1,1315,512,0,0
98,512,0,0,0,0,0,0,0,0,0,-1,1322,512,0,0
105,512,0,0,0,0,0,0,0,0,0,-1,1329,512,0,0
112,512,0,0,0,0,0,0,0,0,0,-1,1336,512,0,0
119,512,0,0,0,0,0,0,0,0,0,-1,1343,512,0,0
126,512,0,0,0,0,0,0,0,0,0,-1,1350,512,0,0
133,512,0,0,0,0,0,0,0,0,0,-1,1357,512,0,0
140,512,0,0,0,0,0,0,0,0,0,-1,1364,512,0,0
147,512,0,0,0,0,0,0,0,0,0,-1,1371,512,0,0
154,512,0,0,0,0,0,0,0,0,0,-1,1378,512,0,0
161,512,0,0,0,0,0,0,0,0,0,-1,1385,512,0,0
168,512,0,0,0,0,0,0,0,0,0,-1,1392,512,0,0
175,512,0,0,0,0,0,0,0,0,0,-1,1399,512,0,0
182,512,0,0,0,0,0,0,0,0,0,-1,1406,512,0,0
189,512,0,0,0,0,0,0,0,0,0,-1,1413,512,0,0
196,512,0,0,0,0,0,0,0,0,0,-1,1420,512,0,0
203,512,0,0,0,0,0,0,0,0,0,-1,1427,512,0,0
210,512,0,0,0,0,0,0,0,0,0,-1,1434,512,0,0
217,512,0,0,0,0,0,0,0,0,0,-1,1441,512,0,0
224,512,0,0,0,0,0,0,0,0,0,-1,1448,512,0,0
231,512,0,0,0,0,0,0,0,0,0,-1,1455,512,0,0
238,512,0,0,0,0,0,0,0,0,0,-1,1462,512,0,0
245,512,0,0,0,0,0,0,0,0,0,-1,1469,512,0,0
252,512,0,0,0,0,0,0,0,0,0,-1,1476,512,0,0
259,512,0,0,0,0,0,0,0,0,0,-1,1483,512,0,0
266,512,0,0,0,0,0,0,0,0,0,-1,1490,512,0,0
273,512,4.00745,0.618622,0,0,0,0,0,0,0,-1,1497,512,4.00747,-0.618611
280,512,4.49609,0.649841,0,0,0,0,0,0,0,-1,1504,512,4.49612,-0.649834
287,512,4.77234,0.458069,0,0,0,0,0,0,0,-1,1511,512,4.77233,-0.458083
294,512,8.54956,-2.36273,0,0,0,0,0,0,0,-1,1518,512,8.54952,2.36274
301,512,6.302,-1.69092,0,0,0,0,0,0,0,-1,1525,512,6.30196,1.69093
308,512,8.2439,-6.22754,0,0,0,0,0,0,0,-1,1532,512,8.24394,6.22757
315,512,7.53687,-6.04211,0,0,0,0,0,0,0,-1,1539,512,7.53691,6.04211
322,512,6.82983,-5.85663,0,0,0,0,0,0,0,-1,1546,512,6.82988,5.85666
329,512,4.38147,-0.329651,0,0,0,0,0,0,0,-1,1553,512,4.38144,0.329662
336,512,4.41467,-0.741455,0,0,0,0,0,0,0,-1,1560,512,4.41467,0.741442
343,512,4.44727,-1.21667,0,0,0,0,0,0,0,-1,1567,512,4.44732,1.21666
350,512,4.55469,-1.65082,0,0,0,0,0,0,0,-1,1574,512,4.5547,1.65083
357,512,5.79993,-2.67456,0,0,0,0,0,0,0,-1,1581,512,5.79991,2.67454
364,512,5.18298,-6.80133,0,0,0,0,0,0,0,-1,1588,512,5.18296,6.80132
371,512,5.28467,-7.69269,0,0,0,0,0,0,0,-1,1595,512,5.28464,7.69269
378,512,6.29407,-9.88055,0,0,0,0,0,0,0,-1,1602,512,6.29412,9.88057
385,512,6.45569,-9.32233,0,0,0,0,0,0,0,-1,1609,512,6.45565,9.3223
392,512,6.35522,-8.98425,0,0,0,0,0,0,0,-1,1616,512,6.35526,8.98422
399,512,6.14294,-9.33545,0,0,0,0,0,0,0,-1,1623,512,6.14291,9.33545
406,512,6.24219,-9.28009,-0.00431742,-0.00319175,-0.006386,0.00265617,-0.0101653,-0.829353,0.00781424,0.046585,1630,512,6.24222,9.28008
413,512,6.07556,-9.30688,-0.00371879,-0.00222455,-0.00554745,0.00262586,-0.00856921,-0.852334,0.00676028,0.037957,1637,512,6.07551,9.30689
420,512,6.14221,-8.97418,-0.00328995,-0.00160294,-0.00476006,0.00238778,-0.00728067,-0.87309,0.00581547,0.0196239,1644,512,6.14225,8.97421
427,512,6.12952,-8.71643,-0.00292619,-0.00127247,-0.00404739,0.00203166,-0.00623032,-0.886159,0.00497114,0.0152473,1651,512,6.12952,8.71645
434,512,6.1239,-8.47504,-0.00246704,-0.00078567,-0.00324733,0.00172803,-0.00498074,-0.91206,0.0040222,0.0116301,1658,512,6.12387,8.47505
441,512,6.11743,-8.20465,-0.00194095,-0.00043644,-0.00246945,0.00139279,-0.00377018,-0.933246,0.00308438,0.012894,1665,512,6.11747,8.20467
448,512,6.10303,-7.93158,-0.00135926,-0.000259132,-0.0017432,0.00101873,-0.00263712,-0.938228,0.00217856,0.00884261,1672,512,6.10301,7.93159
455,512,6.09595,-7.64355,-0.000766445,-8.09846e-05,-0.00106431,0.000694414,-0.00154184,-0.941166,0.00132164,0.00876691,1679,512,6.09592,7.64353
462,512,6.10645,-7.37067,3.56431e-05,0.000272882,-0.000345375,0.000519439,-0.000210914,-0.950813,0.00043403,0.0092939,1686,512,6.10646,7.3707
469,512,6.10498,-7.10376,0.000823789,0.00054407,0.000225588,0.000949355,0.000418504,0.507909,0.000549388,0.0105882,1693,512,6.10499,7.10373
476,512,6.10437,-6.83929,0.00137659,0.000845623,0.000674533,0.00183601,0.00038621,0.597917,0.00111774,0.0136798,1700,512,6.10435,6.83927
483,512,6.10486,-6.54114,0.00187481,0.0015035,0.000981575,0.00268813,0.000690178,0.691933,0.00161205,0.0134341,1707,512,6.10484,6.54117
490,512,6.11694,-6.24194,0.00233523,0.00213311,0.00122999,0.0034683,0.00100004,0.744409,0.00206137,0.0107963,1714,512,6.11691,6.24196
497,512,6.11536,-5.96448,0.00257935,0.00329683,0.00154908,0.00452816,0.00134802,0.899185,0.00268472,0.0114074,1721,512,6.11532,5.96446
504,512,6.0874,-5.66174,0.0026737,0.00586013,0.00220363,0.00698616,0.00154767,1.0984,0.00423685,0.0116645,1728,512,6.08743,5.66175
511,512,6.0625,-5.36157,0.00252795,0.00846321,0.00259072,0.00943495,0.00155621,1.21195,0.00584075,0.0129602,1735,512,6.06245,5.36155
518,512,6.09827,-5.15009,0.00205221,0.0120266,0.00323794,0.0129855,0.00109328,1.28287,0.00831657,0.0211438,1742,512,6.09826,5.15006
525,512,6.21313,-4.91815,0,0,0,0,0,0,0,-1,1749,512,6.21312,4.91818
532,512,4.94055,-3.92755,0,0,0,0,0,0,0,-1,1756,512,4.9405,3.92753
539,512,4.39929,-3.11737,0,0,0,0,0,0,0,-1,1763,512,4.3993,3.11735
546,512,2.77551,-0.66449,0,0,0,0,0,0,0,-1,1770,512,2.77548,0.664503
553,512,3.927,-0.448853,0,0,0,0,0,0,0,-1,1777,512,3.92704,0.448843
560,512,3.55762,-0.201233,0,0,0,0,0,0,0,-1,1784,512,3.55768,0.201259
567,512,3.09045,0.191193,0,0,0,0,0,0,0,-1,1791,512,3.09045,-0.191203
574,512,0,0,0,0,0,0,0,0,0,-1,1798,512,0,0
581,512,0,0,0,0,0,0,0,0,0,-1,1805,512,0,0
588,512,0,0,0,0,0,0,0,0,0,-1,1812,512,0,0
595,512,0,0,0,0,0,0,0,0,0,-1,1819,512,0,0
602,512,0,0,0,0,0,0,0,0,0,-1,1826,512,0,0
609,512,0,0,0,0,0,0,0,0,0,-1,1833,512,0,0
616,512,0,0,0,0,0,0,0,0,0,-1,1840,512,0,0
623,512,0,0,0,0,0,0,0,0,0,-1,1847,512,0,0
630,512,0,0,0,0,0,0,0,0,0,-1,1854,512,0,0
637,512,0,0,0,0,0,0,0,0,0,-1,1861,512,0,0
644,512,0,0,0,0,0,0,0,0,0,-1,1868,512,0,0
651,512,0,0,0,0,0,0,0,0,0,-1,1875,512,0,0
658,512,0,0,0,0,0,0,0,0,0,-1,1882,512,0,0
665,512,0,0,0,0,0,0,0,0,0,-1,1889,512,0,0
672,512,0,0,0,0,0,0,0,0,0,-1,1896,512,0,0
679,512,0,0,0,0,0,0,0,0,0,-1,1903,512,0,0
686,512,0,0,0,0,0,0,0,0,0,-1,1910,512,0,0
693,512,0,0,0,0,0,0,0,0,0,-1,1917,512,0,0
700,512,0,0,0,0,0,0,0,0,0,-1,1924,512,0,0
707,512,0,0,0,0,0,0,0,0,0,-1,1931,512,0,0
714,512,0,0,0,0,0,0,0,0,0,-1,1938,512,0,0
721,512,0,0,0,0,0,0,0,0,0,-1,1945,512,0,0
728,512,0,0,0,0,0,0,0,0,0,-1,1952,512,0,0
735,512,0,0,0,0,0,0,0,0,0,-1,1959,512,0,0
742,512,0,0,0,0,0,0,0,0,0,-1,1966,512,0,0
749,512,0,0,0,0,0,0,0,0,0,-1,1973,512,0,0
756,512,0,0,0,0,0,0,0,0,0,-1,1980,512,0,0
763,512,0,0,0,0,0,0,0,0,0,-1,1987,512,0,0
770,512,0,0,0,0,0,0,0,0,0,-1,1994,512,0,0
777,512,0,0,0,0,0,0,0,0,0,-1,2001,512,0,0
784,512,0,0,0,0,0,0,0,0,0,-1,2008,512,0,0
791,512,0,0,0,0,0,0,0,0,0,-1,2015,512,0,0
798,512,0,0,0,0,0,0,0,0,0,-1,2022,512,0,0
805,512,0,0,0,0,0,0,0,0,0,-1,2029,512,0,0
812,512,0,0,0,0,0,0,0,0,0,-1,2036,512,0,0
-700,505,0,0,0,0,0,0,0,0,0,-1,524,519,0,0
-693,505,0,0,0,0,0,0,0,0,0,-1,531,519,0,0
-686,505,0,0,0,0,0,0,0,0,0,-1,538,519,0,0
-679,505,0,0,0,0,0,0,0,0,0,-1,545,519,0,0
-672,505,0,0,0,0,0,0,0,0,0,-1,552,519,0,0
-665,505,0,0,0,0,0,0,0,0,0,-1,559,519,0,0
-658,505,0,0,0,0,0,0,0,0,0,-1,566,519,0,0
-651,505,0,0,0,0,0,0,0,0,0,-1,573,519,0,0
-644,505,0,0,0,0,0,0,0,0,0,-1,580,519,0,0
-637,505,0,0,0,0,0,0,0,0,0,-1,587,519,0,0
-630,505,0,0,0,0,0,0,0,0,0,-1,594,519,0,0
-623,505,0,0,0,0,0,0,0,0,0,-1,601,519,0,0
-616,505,0,0,0,0,0,0,0,0,0,-1,608,519,0,0
-609,505,0,0,0,0,0,0,0,0,0,-1,615,519,0,0
-602,505,0,0,0,0,0,0,0,0,0,-1,622,519,0,0
-595,505,0,0,0,0,0,0,0,0,0,-1,629,519,0,0
-588,505,0,0,0,0,0,0,0,0,0,-1,636,519,0,0
-581,505,0,0,0,0,0,0,0,0,0,-1,643,519,0,0
-574,505,0,0,0,0,0,0,0,0,0,-1,650,519,0,0
-567,505,0,0,0,0,0,0,0,0,0,-1,657,519,0,0
-560,505,0,0,0,0,0,0,0,0,0,-1,664,519,0,0
-553,505,0,0,0,0,0,0,0,0,0,-1,671,519,0,0
-546,505,0,0,0,0,0,0,0,0,0,-1,678,519,0,0
-539,505,0,0,0,0,0,0,0,0,0,-1,685,519,0,0
-532,505,0,0,0,0,0,0,0,0,0,-1,692,519,0,0
-525,505,0,0,0,0,0,0,0,0,0,-1,699,519,0,0
-518,505,0,0,0,0,0,0,0,0,0,-1,706,519,0,0
-511,505,0,0,0,0,0,0,0,0,0,-1,713,519,0,0
-504,505,0,0,0,0,0,0,0,0,0,-1,720,519,0,0
-497,505,0,0,0,0,0,0,0,0,0,-1,727,519,0,0
-490,505,0,0,0,0,0,0,0,0,0,-1,734,519,0,0
-483,505,0,0,0,0,0,0,0,0,0,-1,741,519,0,0
-476,505,0,0,0,0,0,0,0,0,0,-1,748,519,0,0
-469,505,0,0,0,0,0,0,0,0,0,-1,755,519,0,0
-462,505,0,0,0,0,0,0,0,0,0,-1,762,519,0,0
-455,505,-2.63678,-7.51263,0,0,0,0,0,0,0,-1,769,519,-2.6368,7.51263
-448,505,-2.04388,-6.93677,0,0,0,0,0,0,0,-1,776,519,-2.04389,6.93677
-441,505,4.2735,-3.92358,0,0,0,0,0,0,0,-1,783,519,4.27352,3.9236
-434,505,3.87756,-5.69495,0,0,0,0,0,0,0,-1,790,519,3.87758,5.69492
-427,505,-0.134399,-5.5473,0,0,0,0,0,0,0,-1,797,519,-0.134394,5.5473
-420,505,-0.296753,-5.57709,0,0,0,0,0,0,0,-1,804,519,-0.296752,5.57709
-413,505,-0.0144043,-5.25,0,0,0,0,0,0,0,-1,811,519,-0.0144292,5.24998
-406,505,-0.7677,-6.01825,0,0,0,0,0,0,0,-1,818,519,-0.767688,6.01825
-399,505,-0.712524,-6.3385,0.00351818,-0.00144916,-0.00776851,0.00919039,-0.00712137,-0.630678,0.00944282,0.0423018,825,519,-0.71251,6.33848
-392,505,-0.65741,-6.63629,0.00252008,-0.000686197,-0.00499798,0.00616573,-0.00433185,-0.630203,0.00609153,0.02027,832,519,-0.6574,6.63629
-385,505,-0.702942,-6.90424,0.00210525,0.000179776,-0.00249988,0.00382137,-0.00153635,-0.601595,0.00318568,0.00912099,839,519,-0.702941,6.90421
-378,505,-0.732544,-7.19073,0.0013674,-0.000139386,-0.00171521,0.00248738,-0.00125937,-0.578462,0.00220158,0.010858,846,519,-0.73257,7.19076
-371,505,-0.726868,-7.49652,0.00078962,-0.000571669,-0.00110202,0.00140425,-0.0011863,-0.508757,0.00149742,0.0139338,853,519,-0.726843,7.4965
-364,505,-0.727478,-7.75104,0.000414782,-0.000630053,-0.000804675,0.00085175,-0.00106702,-0.497482,0.00111013,0.0146174,860,519,-0.727462,7.75101
-357,505,-0.700256,-7.98059,0.000153645,-0.00076536,-0.000608573,0.000456707,-0.00106842,-0.462036,0.000903834,0.0112336,867,519,-0.700286,7.98058
-350,505,-0.713928,-8.23627,9.25875e-05,-0.000786344,-0.000647664,0.000435808,-0.00112956,-0.487309,0.000932885,0.0106271,874,519,-0.713928,8.23625
-343,505,-0.738525,-8.49854,6.71275e-05,-0.000703836,-0.000737047,0.000513412,-0.00115012,-0.544456,0.000983611,0.00907456,881,519,-0.738497,8.49854
-336,505,-0.744812,-8.73425,0.000220215,-0.000774803,-0.000912184,0.000761741,-0.00131633,-0.535744,0.00121393,0.010631,888,519,-0.744789,8.73423
-329,505,-0.727783,-8.95526,0.000564274,-0.000814261,-0.00114644,0.0012127,-0.00146268,-0.514738,0.00154688,0.0136283,895,519,-0.727762,8.95525
-322,505,-0.738403,-9.21472,0.000945196,-0.000761842,-0.00133673,0.00167766,-0.00149431,-0.50127,0.00183236,0.0160964,902,519,-0.738414,9.2147
-315,505,-0.748047,-9.48267,0.00145878,-0.000629691,-0.00145366,0.00220439,-0.0013753,-0.473929,0.00208513,0.013781,909,519,-0.748076,9.48266
-308,505,-0.748474,-9.72937,0.00213165,-0.000676918,-0.00145816,0.00275178,-0.00129704,-0.402108,0.00238735,0.0123108,916,519,-0.748465,9.72939
-301,505,-0.722778,-9.99976,0.00282022,-0.000762506,-0.00138774,0.00329487,-0.00123715,-0.329556,0.00270497,0.0180414,923,519,-0.722757,9.99978
-294,505,-0.720398,-10.1895,0,0,0,0,0,0,0,-1,930,519,-0.720391,10.1894
-287,505,-0.7771,-10.466,0,0,0,0,0,0,0,-1,937,519,-0.777077,10.466
-280,505,-0.585266,-10.8328,0,0,0,0,0,0,0,-1,944,519,-0.585255,10.8327
-273,505,-0.0680542,-9.44867,0,0,0,0,0,0,0,-1,951,519,-0.0680462,9.44866
-266,505,-0.036377,-9.07922,0,0,0,0,0,0,0,-1,958,519,-0.0364055,9.0792
-259,505,0.10321,-6.69824,0,0,0,0,0,0,0,-1,965,519,0.103235,6.69826
-252,505,6.82312,-15.6972,0,0,0,0,0,0,0,-1,972,519,6.82314,15.6972
-245,505,4.26727,-12.9861,0,0,0,0,0,0,0,-1,979,519,4.2673,12.9861
-238,505,1.67432,-11.2307,0,0,0,0,0,0,0,-1,986,519,1.67429,11.2307
-231,505,-0.958435,-8.3075,0,0,0,0,0,0,0,-1,993,519,-0.958421,8.30751
-224,505,-3.69653,-5.12732,0,0,0,0,0,0,0,-1,1000,519,-3.69653,5.12733
-217,505,-6.34302,-1.65533,0,0,0,0,0,0,0,-1,1007,519,-6.34299,1.65535
-210,505,-3.06128,-0.396301,0,0,0,0,0,0,0,-1,1014,519,-3.06129,0.396294
-203,505,-4.26465,2.03607,0,0,0,0,0,0,0,-1,1021,519,-4.26462,-2.03606
-196,505,-5.47595,4.27295,0,0,0,0,0,0,0,-1,1028,519,-5.47597,-4.27292
-189,505,1.51526,5.56207,0,0,0,0,0,0,0,-1,1035,519,1.51523,-5.56209
-182,505,2.97815,7.5097,0,0,0,0,0,0,0,-1,1042,519,2.97812,-7.5097
-175,505,-2.38416,-2.17548,0,0,0,0,0,0,0,-1,1049,519,-2.38411,2.1755
-168,505,0,0,0,0,0,0,0,0,0,-1,1056,519,0,0
-161,505,0,0,0,0,0,0,0,0,0,-1,1063,519,0,0
-154,505,0,0,0,0,0,0,0,0,0,-1,1070,519,0,0
-147,505,0,0,0,0,0,0,0,0,0,-1,1077,519,0,0
-140,505,0,0,0,0,0,0,0,0,0,-1,1084,519,0,0
-133,505,0,0,0,0,0,0,0,0,0,-1,1091,519,0,0
-126,505,0,0,0,0,0,0,0,0,0,-1,1098,519,0,0
-119,505,0,0,0,0,0,0,0,0,0,-1,1105,519,0,0
-112,505,0,0,0,0,0,0,0,0,0,-1,1112,519,0,0
-105,505,0,0,0,0,0,0,0,0,0,-1,1119,519,0,0
-98,505,0,0,0,0,0,0,0,0,0,-1,1126,519,0,0
-91,505,0,0,0,0,0,0,0,0,0,-1,1133,519,0,0
-84,505,0,0,0,0,0,0,0,0,0,-1,1140,519,0,0
-77,505,0,0,0,0,0,0,0,0,0,-1,1147,519,0,0
-70,505,0,0,0,0,0,0,0,0,0,-1,1154,519,0,0
-63,505,0,0,0,0,0,0,0,0,0,-1,1161,519,0,0
-56,505,0,0,0,0,0,0,0,0,0,-1,1168,519,0,0
-49,505,0,0,0,0,0,0,0,0,0,-1,1175,519,0,0
-42,505,0,0,0,0,0,0,0,0,0,-1,1182,519,0,0
-35,505,0,0,0,0,0,0,0,0,0,-1,1189,519,0,0
-28,505,0,0,0,0,0,0,0,0,0,-1,1196,519,0,0
-21,505,0,0,0,0,0,0,0,0,0,-1,1203,519,0,0
-14,505,0,0,0,0,0,0,0,0,0,-1,1210,519,0,0
-7,505,0,0,0,0,0,0,0,0,0,-1,1217,519,0,0
0,505,0,0,0,0,0,0,0,0,0,-1,1224,519,0,0
7,505,0,0,0,0,0,0,0,0,0,-1,1231,519,0,0
14,505,0,0,0,0,0,0,0,0,0,-1,1238,519,0,0
21,505,0,0,0,0,0,0,0,0,0,-1,1245,519,0,0
28,505,0,0,0,0,0,0,0,0,0,-1,1252,519,0,0
35,505,0,0,0,0,0,0,0,0,0,-1,1259,519,0,0
42,505,0,0,0,0,0,0,0,0,0,-1,1266,519,0,0
49,505,0,0,0,0,0,0,0,0,0,-1,1273,519,0,0
56,505,0,0,0,0,0,0,0,0,0,-1,1280,519,0,0
63,505,0,0,0,0,0,0,0,0,0,-1,1287,519,0,0
70,505,0,0,0,0,0,0,0,0,0,-1,1294,519,0,0
77,505,0,0,0,0,0,0,0,0,0,-1,1301,519,0,0
84,505,0,0,0,0,0,0,0,0,0,-1,1308,519,0,0
91,505,0,0,0,0,0,0,0,0,0,-1,1315,519,0,0
98,505,0,0,0,0,0,0,0,0,0,-1,1322,519,0,0
105,505,0,0,0,0,0,0,0,0,0,-1,1329,519,0,0
112,505,0,0,0,0,0,0,0,0,0,-1,1336,519,0,0
119,505,0,0,0,0,0,0,0,0,0,-1,1343,519,0,0
126,505,0,0,0,0,0,0,0,0,0,-1,1350,519,0,0
133,505,0,0,0,0,0,0,0,0,0,-1,1357,519,0,0
140,505,0,0,0,0,0,0,0,0,0,-1,1364,519,0,0
147,505,0,0,0,0,0,0,0,0,0,-1,1371,519,0,0
154,505,0,0,0,0,0,0,0,0,0,-1,1378,519,0,0
161,505,0,0,0,0,0,0,0,0,0,-1,1385,519,0,0
168,505,0,0,0,0,0,0,0,0,0,-1,1392,519,0,0
175,505,0,0,0,0,0,0,0,0,0,-1,1399,519,0,0
182,505,0,0,0,0,0,0,0,0,0,-1,1406,519,0,0
189,505,0,0,0,0,0,0,0,0,0,-1,1413,519,0,0
196,505,0,0,0,0,0,0,0,0,0,-1,1420,519,0,0
203,505,0,0,0,0,0,0,0,0,0,-1,1427,519,0,0
210,505,0,0,0,0,0,0,0,0,0,-1,1434,519,0,0
217,505,0,0,0,0,0,0,0,0,0,-1,1441,519,0,0
224,505,0,0,0,0,0,0,0,0,0,-1,1448,519,0,0
231,505,0,0,0,0,0,0,0,0,0,-1,1455,519,0,0
238,505,0,0,0,0,0,0,0,0,0,-1,1462,519,0,0
245,505,0,0,0,0,0,0,0,0,0,-1,1469,519,0,0
252,505,0,0,0,0,0,0,0,0,0,-1,1476,519,0,0
259,505,0,0,0,0,0,0,0,0,0,-1,1483,519,0,0
266,505,0,0,0,0,0,0,0,0,0,-1,1490,519,0,0
273,505,0,0,0,0,0,0,0,0,0,-1,1497,519,0,0
280,505,0,0,0,0,0,0,0,0,0,-1,1504,519,0,0
287,505,4.39478,0.499512,0,0,0,0,0,0,0,-1,1511,519,4.39476,-0.499506
294,505,4.88867,0.0822754,0,0,0,0,0,0,0,-1,1518,519,4.88871,-0.0822748
301,505,4.82153,-0.0704346,0,0,0,0,0,0,0,-1,1525,519,4.82156,0.0704312
308,505,4.67761,-0.29187,0,0,0,0,0,0,0,-1,1532,519,4.67762,0.291845
315,505,8.44055,-6.54352,0,0,0,0,0,0,0,-1,1539,519,8.44059,6.54349
322,505,4.78955,-0.594116,0,0,0,0,0,0,0,-1,1546,519,4.78957,0.594096
329,505,5.16321,0.434631,0,0,0,0,0,0,0,-1,1553,519,5.16316,-0.434614
336,505,4.94495,-0.920471,0,0,0,0,0,0,0,-1,1560,519,4.945,0.920495
343,505,5.01855,-1.4823,0,0,0,0,0,0,0,-1,1567,519,5.01851,1.48227
350,505,5.33154,-1.77838,0,0,0,0,0,0,0,-1,1574,519,5.33152,1.77838
357,505,5.56567,-1.9425,0,0,0,0,0,0,0,-1,1581,519,5.56562,1.94248
364,505,5.85205,-2.6579,0,0,0,0,0,0,0,-1,1588,519,5.85211,2.65788
371,505,5.88477,-7.00922,0,0,0,0,0,0,0,-1,1595,519,5.88473,7.00924
378,505,5.44104,-7.10162,0,0,0,0,0,0,0,-1,1602,519,5.44099,7.10162
385,505,6.64661,-8.65015,0,0,0,0,0,0,0,-1,1609,519,6.64662,8.65014
392,505,6.34558,-8.3429,0,0,0,0,0,0,0,-1,1616,519,6.34554,8.34288
399,505,7.28967,-9.14899,0,0,0,0,0,0,0,-1,1623,519,7.28964,9.149
406,505,6.9071,-8.98907,0,0,0,0,0,0,0,-1,1630,519,6.90712,8.98905
413,505,6.30664,-9.41315,0,0,0,0,0,0,0,-1,1637,519,6.30666,9.41316
420,505,6.43066,-9.03021,-0.00507131,-0.00236043,-0.00650599,0.00292981,-0.0103616,-0.888098,0.00806372,0.0406896,1644,519,6.43071,9.03024
427,505,6.39709,-8.72046,-0.00449101,-0.00193095,-0.00554595,0.00248078,-0.00890274,-0.898814,0.0069121,0.0151494,1651,519,6.39709,8.72047
434,505,6.37988,-8.45245,-0.00378006,-0.00120167,-0.00449803,0.00218827,-0.00717,-0.924964,0.00565243,0.0103523,1658,519,6.37992,8.45247
441,505,6.38477,-8.16595,-0.0030207,-0.000659739,-0.00353621,0.00188782,-0.00556826,-0.946495,0.00447618,0.0103505,1665,519,6.38482,8.16595
448,505,6.38477,-7.90186,-0.00221137,-0.000320243,-0.0026592,0.00155651,-0.00408812,-0.956217,0.00336641,0.0104225,1672,519,6.3848,7.90184
455,505,6.38428,-7.63739,-0.00144177,-1.35273e-05,-0.00185914,0.00126392,-0.00271922,-0.968767,0.00235027,0.0107313,1679,519,6.38431,7.6374
462,505,6.38074,-7.3573,-0.000566164,0.000318143,-0.00105245,0.00101755,-0.00126557,-0.984263,0.00132074,0.0109354,1686,519,6.38079,7.35728
469,505,6.3667,-7.09113,0.000223722,0.000492765,-0.000456603,0.00083425,-0.000117763,-0.928652,0.000599291,0.0107361,1693,519,6.36675,7.09113
476,505,6.36255,-6.82867,0.000781803,0.000722353,1.71126e-05,0.000786377,0.000717779,0.26118,0.000502947,0.0109497,1700,519,6.36255,6.82869
483,505,6.38477,-6.55408,0.00123909,0.00123228,0.000349025,0.00158473,0.000886641,0.780516,0.000917098,0.0124229,1707,519,6.38476,6.5541
490,505,6.40393,-6.26031,0.00159232,0.00165786,0.000603386,0.00222937,0.00102082,0.812525,0.00128865,0.0119293,1714,519,6.40395,6.26031
497,505,6.39587,-5.97052,0.00163818,0.00247037,0.000853879,0.00300414,0.00110441,1.01211,0.00175458,0.0121069,1721,519,6.39589,5.97055
504,505,6.37073,-5.66272,0.00146085,0.00458777,0.00140908,0.00512904,0.000919572,1.20404,0.00315779,0.0130814,1728,519,6.37073,5.66269
511,505,6.35278,-5.388,0.00100654,0.00659355,0.00171899,0.00708007,0.000520015,1.29498,0.00455661,0.0141778,1735,519,6.35279,5.38798
518,505,6.43445,-5.14868,0.0001741,0.00934153,0.00216961,0.00982908,-0.000313445,1.34975,0.00665966,0.0247564,1742,519,6.43449,5.1487
525,505,6.06091,-4.85474,-0.00106582,0.0130138,0.00287258,0.0135773,-0.00162934,1.37708,0.00964068,0.0365271,1749,519,6.06091,4.85472
532,505,5.74133,-4.39899,-0.00273736,0.0179281,0.00400312,0.0186764,-0.00348571,1.38599,0.0137608,0.0432696,1756,519,5.74128,4.39901
539,505,5.70264,-4.08838,0,0,0,0,0,0,0,-1,1763,519,5.70262,4.08837
546,505,4.69727,-1.47705,0,0,0,0,0,0,0,-1,1770,519,4.69723,1.47703
553,505,2.82837,0.162659,0,0,0,0,0,0,0,-1,1777,519,2.82841,-0.162672
560,505,3.66223,-0.479797,0,0,0,0,0,0,0,-1,1784,519,3.66219,0.47982
567,505,4.65271,-0.950256,0,0,0,0,0,0,0,-1,1791,519,4.65274,0.95028
574,505,5.54443,-1.19977,0,0,0,0,0,0,0,-1,1798,519,5.54443,1.19974
581,505,0,0,0,0,0,0,0,0,0,-1,1805,519,0,0
588,505,0,0,0,0,0,0,0,0,0,-1,1812,519,0,0
595,505,0,0,0,0,0,0,0,0,0,-1,1819,519,0,0
602,505,0,0,0,0,0,0,0,0,0,-1,1826,519,0,0
609,505,0,0,0,0,0,0,0,0,0,-1,1833,519,0,0
616,505,0,0,0,0,0,0,0,0,0,-1,1840,519,0,0
623,505,0,0,0,0,0,0,0,0,0,-1,1847,519,0,0
630,505,0,0,0,0,0,0,0,0,0,-1,1854,519,0,0
637,505,0,0,0,0,0,0,0,0,0,-1,1861,519,0,0
644,505,0,0,0,0,0,0,0,0,0,-1,1868,519,0,0
651,505,0,0,0,0,0,0,0,0,0,-1,1875,519,0,0
658,505,0,0,0,0,0,0,0,0,0,-1,1882,519,0,0
665,505,0,0,0,0,0,0,0,0,0,-1,1889,519,0,0
672,505,0,0,0,0,0,0,0,0,0,-1,1896,519,0,0
679,505,0,0,0,0,0,0,0,0,0,-1,1903,519,0,0
686,505,0,0,0,0,0,0,0,0,0,-1,1910,519,0,0
693,505,0,0,0,0,0,0,0,0,0,-1,1917,519,0,0
700,505,0,0,0,0,0,0,0,0,0,-1,1924,519,0,0
707,505,0,0,0,0,0,0,0,0,0,-1,1931,519,0,0
714,505,0,0,0,0,0,0,0,0,0,-1,1938,519,0,0
721,505,0,0,0,0,0,0,0,0,0,-1,1945,519,0,0
728,505,0,0,0,0,0,0,0,0,0,-1,1952,519,0,0
735,505,0,0,0,0,0,0,0,0,0,-1,1959,519,0,0
742,505,0,0,0,0,0,0,0,0,0,-1,1966,519,0,0
749,505,0,0,0,0,0,0,0,0,0,-1,1973,519,0,0
756,505,0,0,0,0,0,0,0,0,0,-1,1980,519,0,0
763,505,0,0,0,0,0,0,0,0,0,-1,1987,519,0,0
770,505,0,0,0,0,0,0,0,0,0,-1,1994,519,0,0
777,505,0,0,0,0,0,0,0,0,0,-1,2001,519,0,0
784,505,0,0,0,0,0,0,0,0,0,-1,2008,519,0,0
791,505,0,0,0,0,0,0,0,0,0,-1,2015,519,0,0
798,505,0,0,0,0,0,0,0,0,0,-1,2022,519,0,0
805,505,0,0,0,0,0,0,0,0,0,-1,2029,519,0,0
812,505,0,0,0,0,0,0,0,0,0,-1,2036,519,0,0
-700,498,0,0,0,0,0,0,0,0,0,-1,524,526,0,0
-693,498,0,0,0,0,0,0,0,0,0,-1,531,526,0,0
-686,498,0,0,0,0,0,0,0,0,0,-1,538,526,0,0
-679,498,0,0,0,0,0,0,0,0,0,-1,545,526,0,0
-672,498,0,0,0,0,0,0,0,0,0,-1,552,526,0,0
-665,498,0,0,0,0,0,0,0,0,0,-1,559,526,0,0
-658,498,0,0,0,0,0,0,0,0,0,-1,566,526,0,0
-651,498,0,0,0,0,0,0,0,0,0,-1,573,526,0,0
-644,498,0,0,0,0,0,0,0,0,0,-1,580,526,0,0
-637,498,0,0,0,0,0,0,0,0,0,-1,587,526,0,0
-630,498,0,0,0,0,0,0,0,0,0,-1,594,526,0,0
-623,498,0,0,0,0,0,0,0,0,0,-1,601,526,0,0
-616,498,0,0,0,0,0,0,0,0,0,-1,608,526,0,0
-609,498,0,0,0,0,0,0,0,0,0,-1,615,526,0,0
-602,498,0,0,0,0,0,0,0,0,0,-1,622,526,0,0
-595,498,0,0,0,0,0,0,0,0,0,-1,629,526,0,0
-588,498,0,0,0,0,0,0,0,0,0,-1,636,526,0,0
-581,498,0,0,0,0,0,0,0,0,0,-1,643,526,0,0
-574,498,0,0,0,0,0,0,0,0,0,-1,650,526,0,0
-567,498,0,0,0,0,0,0,0,0,0,-1,657,526,0,0
-560,498,0,0,0,0,0,0,0,0,0,-1,664,526,0,0
-553,498,0,0,0,0,0,0,0,0,0,-1,671,526,0,0
-546,498,0,0,0,0,0,0,0,0,0,-1,678,526,0,0
-539,498,0,0,0,0,0,0,0,0,0,-1,685,526,0,0
-532,498,0,0,0,0,0,0,0,0,0,-1,692,526,0,0
-525,498,0,0,0,0,0,0,0,0,0,-1,699,526,0,0
-518,498,0,0,0,0,0,0,0,0,0,-1,706,526,0,0
-511,498,0,0,0,0,0,0,0,0,0,-1,713,526,0,0
-504,498,0,0,0,0,0,0,0,0,0,-1,720,526,0,0
-497,498,0,0,0,0,0,0,0,0,0,-1,727,526,0,0
-490,498,0,0,0,0,0,0,0,0,0,-1,734,526,0,0
-483,498,0,0,0,0,0,0,0,0,0,-1,741,526,0,0
-476,498,0,0,0,0,0,0,0,0,0,-1,748,526,0,0
-469,498,0,0,0,0,0,0,0,0,0,-1,755,526,0,0
-462,498,6.81024,1.15515,0,0,0,0,0,0,0,-1,762,526,6.81026,-1.15514
-455,498,5.67346,-0.137817,0,0,0,0,0,0,0,-1,769,526,5.67348,0.137819
-448,498,4.4436,-2.14856,0,0,0,0,0,0,0,-1,776,526,4.44361,2.14859
-441,498,4.02985,-3.26361,0.00437038,-0.0126697,-0.0506277,0.04719,-0.0554893,-0.702035,0.0593464,0.0474945,783,526,4.02984,3.26359
-434,498,3.64233,-5.00665,0,0,0,0,0,0,0,-1,790,526,3.64232,5.00665
-427,498,3.24963,-6.72388,0,0,0,0,0,0,0,-1,797,526,3.24961,6.72387
-420,498,-0.372192,-5.84454,0,0,0,0,0,0,0,-1,804,526,-0.372162,5.84455
-413,498,-1.16803,-5.42645,0,0,0,0,0,0,0,-1,811,526,-1.16806,5.42646
-406,498,-0.931152,-6.01361,0.00375228,-0.000484301,-0.00959181,0.0114569,-0.00818894,-0.676721,0.0113947,0.0447873,818,526,-0.931175,6.0136
-399,498,-0.937744,-6.33636,0.00287515,-0.000235857,-0.00652554,0.00802802,-0.00538873,-0.668396,0.00779597,0.0244811,825,526,-0.937747,6.33634
-392,498,-0.945129,-6.63684,0.00217744,-9.78742e-05,-0.0042727,0.00546134,-0.00338177,-0.655286,0.00515242,0.0122111,832,526,-0.945125,6.63681
-385,498,-0.967407,-6.89771,0.00188269,0.000303962,-0.00222716,0.00345623,-0.00126958,-0.615092,0.00282413,0.00891696,839,526,-0.967406,6.8977
-378,498,-0.976563,-7.17737,0.00135797,-0.000172483,-0.00154156,0.00231378,-0.0011283,-0.555018,0.00202619,0.0101867,846,526,-0.976542,7.17739
-371,498,-0.966187,-7.46014,0.000930953,-0.000713221,-0.00103506,0.00143067,-0.00121294,-0.449789,0.00152802,0.0157568,853,526,-0.966185,7.46012
-364,498,-0.961182,-7.716,0.000627514,-0.000915035,-0.000785403,0.000957022,-0.00124454,-0.397237,0.00127468,0.0160316,860,526,-0.961193,7.71602
-357,498,-0.964111,-7.96649,0.000412015,-0.00116285,-0.000642908,0.000641136,-0.00139197,-0.342349,0.0012002,0.0110153,867,526,-0.964111,7.96648
-350,498,-0.982666,-8.22644,0.000361586,-0.00126053,-0.000743857,0.000651046,-0.00154999,-0.371104,0.00130562,0.0109715,874,526,-0.982657,8.22643
-343,498,-0.973328,-8.49127,0.000320165,-0.0013015,-0.000904073,0.000723745,-0.00170508,-0.419858,0.00143993,0.0114523,881,526,-0.973317,8.49128
-336,498,-0.969299,-8.73724,0.000417905,-0.0014365,-0.00114067,0.000960678,-0.00197927,-0.444132,0.00173101,0.0144147,888,526,-0.969329,8.73726
-329,498,-0.978333,-8.9577,0.000698474,-0.00149553,-0.00145434,0.00142316,-0.00222021,-0.462277,0.00212021,0.0190911,895,526,-0.978348,8.95771
-322,498,-0.978149,-9.22284,0.00102778,-0.00140703,-0.00175527,0.00194651,-0.00232576,-0.4822,0.00246983,0.0194145,902,526,-0.978126,9.22283
-315,498,-0.993958,-9.48053,0.00153473,-0.00126893,-0.00198936,0.00256656,-0.00230076,-0.478474,0.00281154,0.0164237,909,526,-0.993957,9.48051
-308,498,-0.984314,-9.72943,0.00222376,-0.00133113,-0.00208423,0.00318553,-0.00229291,-0.432338,0.00317694,0.0194,916,526,-0.984322,9.72943
-301,498,-0.870789,-10.0712,0.00293336,-0.00139999,-0.00209989,0.00378397,-0.0022506,-0.384873,0.00352135,0.0351471,923,526,-0.870777,10.0712
-294,498,-0.786316,-10.442,0,0,0,0,0,0,0,-1,930,526,-0.786331,10.442
-287,498,-0.57666,-10.2085,0,0,0,0,0,0,0,-1,937,526,-0.576653,10.2085
-280,498,-0.341614,-8.66608,0,0,0,0,0,0,0,-1,944,526,-0.341589,8.66606
-273,498,-0.988892,-8.62921,0,0,0,0,0,0,0,-1,951,526,-0.988906,8.62922
-266,498,0.362488,-6.33545,0,0,0,0,0,0,0,-1,958,526,0.362478,6.33547
-259,498,10.9454,-17.3615,0,0,0,0,0,0,0,-1,965,526,10.9454,17.3614
-252,498,8.56586,-14.6886,0,0,0,0,0,0,0,-1,972,526,8.56584,14.6886
-245,498,5.97382,-11.928,0,0,0,0,0,0,0,-1,979,526,5.97381,11.928
-238,498,2.24841,-13.8145,0,0,0,0,0,0,0,-1,986,526,2.24838,13.8145
-231,498,0.665894,-10.4898,0,0,0,0,0,0,0,-1,993,526,0.665863,10.4898
-224,498,-2.11243,-4.76312,0,0,0,0,0,0,0,-1,1000,526,-2.11245,4.76314
-217,498,-3.82239,-1.42841,0,0,0,0,0,0,0,-1,1007,526,-3.82241,1.42843
-210,498,-1.80591,-0.358215,0,0,0,0,0,0,0,-1,1014,526,-1.8059,0.3582
-203,498,-3.17316,1.06641,0,0,0,0,0,0,0,-1,1021,526,-3.17313,-1.0664
-196,498,-0.103271,5.40527,0,0,0,0,0,0,0,-1,1028,526,-0.103285,-5.40528
-189,498,3.00256,6.47137,0,0,0,0,0,0,0,-1,1035,526,3.00256,-6.47139
-182,498,0,0,0,0,0,0,0,0,0,-1,1042,526,0,0
-175,498,0,0,0,0,0,0,0,0,0,-1,1049,526,0,0
-168,498,0,0,0,0,0,0,0,0,0,-1,1056,526,0,0
-161,498,0,0,0,0,0,0,0,0,0,-1,1063,526,0,0
-154,498,0,0,0,0,0,0,0,0,0,-1,1070,526,0,0
-147,498,0,0,0,0,0,0,0,0,0,-1,1077,526,0,0
-140,498,0,0,0,0,0,0,0,0,0,-1,1084,526,0,0
-133,498,0,0,0,0,0,0,0,0,0,-1,1091,526,0,0
-126,498,0,0,0,0,0,0,0,0,0,-1,1098,526,0,0
-119,498,0,0,0,0,0,0,0,0,0,-1,1105,526,0,0
-112,498,0,0,0,0,0,0,0,0,0,-1,1112,526,0,0
-105,498,0,0,0,0,0,0,0,0,0,-1,1119,526,0,0
-98,498,0,0,0,0,0,0,0,0,0,-1,1126,526,0,0
-91,498,0,0,0,0,0,0,0,0,0,-1,1133,526,0,0
-84,498,0,0,0,0,0,0,0,0,0,-1,1140,526,0,0
-77,498,0,0,0,0,0,0,0,0,0,-1,1147,526,0,0
-70,498,0,0,0,0,0,0,0,0,0,-1,1154,526,0,0
-63,498,0,0,0,0,0,0,0,0,0,-1,1161,526,0,0
-56,498,0,0,0,0,0,0,0,0,0,-1,1168,526,0,0
-49,498,0,0,0,0,0,0,0,0,0,-1,1175,526,0,0
-42,498,0,0,0,0,0,0,0,0,0,-1,1182,526,0,0
-35,498,0,0,0,0,0,0,0,0,0,-1,1189,526,0,0
-28,498,0,0,0,0,0,0,0,0,0,-1,1196,526,0,0
-21,498,0,0,0,0,0,0,0,0,0,-1,1203,526,0,0
-14,498,0,0,0,0,0,0,0,0,0,-1,1210,526,0,0
-7,498,0,0,0,0,0,0,0,0,0,-1,1217,526,0,0
0,498,0,0,0,0,0,0,0,0,0,-1,1224,526,0,0
7,498,0,0,0,0,0,0,0,0,0,-1,1231,526,0,0
14,498,0,0,0,0,0,0,0,0,0,-1,1238,526,0,0
21,498,0,0,0,0,0,0,0,0,0,-1,1245,526,0,0
28,498,0,0,0,0,0,0,0,0,0,-1,1252,526,0,0
35,498,0,0,0,0,0,0,0,0,0,-1,1259,526,0,0
42,498,0,0,0,0,0,0,0,0,0,-1,1266,526,0,0
49,498,0,0,0,0,0,0,0,0,0,-1,1273,526,0,0
56,498,0,0,0,0,0,0,0,0,0,-1,1280,526,0,0
63,498,0,0,0,0,0,0,0,0,0,-1,1287,526,0,0
70,498,0,0,0,0,0,0,0,0,0,-1,1294,526,0,0
77,498,0,0,0,0,0,0,0,0,0,-1,1301,526,0,0
84,498,0,0,0,0,0,0,0,0,0,-1,1308,526,0,0
91,498,0,0,0,0,0,0,0,0,0,-1,1315,526,0,0
98,498,0,0,0,0,0,0,0,0,0,-1,1322,526,0,0
105,498,0,0,0,0,0,0,0,0,0,-1,1329,526,0,0
112,498,0,0,0,0,0,0,0,0,0,-1,1336,526,0,0
119,498,0,0,0,0,0,0,0,0,0,-1,1343,526,0,0
126,498,0,0,0,0,0,0,0,0,0,-1,1350,526,0,0
133,498,0,0,0,0,0,0,0,0,0,-1,1357,526,0,0
140,498,0,0,0,0,0,0,0,0,0,-1,1364,526,0,0
147,498,0,0,0,0,0,0,0,0,0,-1,1371,526,0,0
154,498,0,0,0,0,0,0,0,0,0,-1,1378,526,0,0
161,498,0,0,0,0,0,0,0,0,0,-1,1385,526,0,0
168,498,0,0,0,0,0,0,0,0,0,-1,1392,526,0,0
175,498,0,0,0,0,0,0,0,0,0,-1,1399,526,0,0
182,498,0,0,0,0,0,0,0,0,0,-1,1406,526,0,0
189,498,0,0,0,0,0,0,0,0,0,-1,1413,526,0,0
196,498,0,0,0,0,0,0,0,0,0,-1,1420,526,0,0
203,498,0,0,0,0,0,0,0,0,0,-1,1427,526,0,0
210,498,0,0,0,0,0,0,0,0,0,-1,1434,526,0,0
217,498,0,0,0,0,0,0,0,0,0,-1,1441,526,0,0
224,498,0,0,0,0,0,0,0,0,0,-1,1448,526,0,0
231,498,0,0,0,0,0,0,0,0,0,-1,1455,526,0,0
238,498,0,0,0,0,0,0,0,0,0,-1,1462,526,0,0
245,498,0,0,0,0,0,0,0,0,0,-1,1469,526,0,0
252,498,0,0,0,0,0,0,0,0,0,-1,1476,526,0,0
259,498,0,0,0,0,0,0,0,0,0,-1,1483,526,0,0
266,498,0,0,0,0,0,0,0,0,0,-1,1490,526,0,0
273,498,0,0,0,0,0,0,0,0,0,-1,1497,526,0,0
280,498,0,0,0,0,0,0,0,0,0,-1,1504,526,0,0
287,498,0,0,0,0,0,0,0,0,0,-1,1511,526,0,0
294,498,0,0,0,0,0,0,0,0,0,-1,1518,526,0,0
301,498,0,0,0,0,0,0,0,0,0,-1,1525,526,0,0
308,498,4.77942,-0.293884,0,0,0,0,0,0,0,-1,1532,526,4.77939,0.293899
315,498,4.56091,-0.564148,0,0,0,0,0,0,0,-1,1539,526,4.56097,0.564142
322,498,4.52344,-0.447266,0,0,0,0,0,0,0,-1,1546,526,4.52341,0.447295
329,498,4.63232,-0.156982,0,0,0,0,0,0,0,-1,1553,526,4.63238,0.156991
336,498,5.22644,0.0925903,0,0,0,0,0,0,0,-1,1560,526,5.22648,-0.0926188
343,498,6.22607,-1.67615,0,0,0,0,0,0,0,-1,1567,526,6.22605,1.67617
350,498,6.19373,-1.59906,0,0,0,0,0,0,0,-1,1574,526,6.19367,1.59906
357,498,6.21472,-1.58929,0,0,0,0,0,0,0,-1,1581,526,6.21476,1.58927
364,498,5.73547,-1.2019,0,0,0,0,0,0,0,-1,1588,526,5.73547,1.20192
371,498,3.27087,-4.55334,0,0,0,0,0,0,0,-1,1595,526,3.27089,4.55332
378,498,8.42944,-4.70624,0,0,0,0,0,0,0,-1,1602,526,8.42942,4.70624
385,498,4.7793,-5.15314,0,0,0,0,0,0,0,-1,1609,526,4.77935,5.15311
392,498,9.12439,-8.57953,0,0,0,0,0,0,0,-1,1616,526,9.12443,8.57955
399,498,8.7478,-7.63019,0,0,0,0,0,0,0,-1,1623,526,8.74786,7.63021
406,498,7.55212,-8.78101,0,0,0,0,0,0,0,-1,1630,526,7.55216,8.78102
413,498,6.5979,-7.42371,0,0,0,0,0,0,0,-1,1637,526,6.59788,7.4237
420,498,6.76208,-8.9646,0,0,0,0,0,0,0,-1,1644,526,6.76211,8.96459
427,498,6.83606,-8.66193,-0.00646449,-0.00257358,-0.00739524,0.00312781,-0.0121659,-0.914018,0.00932964,0.0411655,1651,526,6.83608,8.66191
434,498,6.71545,-8.4342,-0.00536211,-0.00151533,-0.00594954,0.00281399,-0.00969144,-0.941738,0.00757523,0.0185095,1658,526,6.71543,8.43423
441,498,6.65308,-8.15009,-0.00428705,-0.000747192,-0.00470098,0.00250601,-0.00754026,-0.965442,0.00603809,0.0101056,1665,526,6.65303,8.15006
448,498,6.66602,-7.88745,-0.00320369,-0.000237921,-0.00359816,0.00217094,-0.00561255,-0.980855,0.00463792,0.0101317,1672,526,6.66598,7.88744
455,498,6.67981,-7.63812,-0.00222414,0.000184723,-0.00260854,0.00185346,-0.00389288,-1.00168,0.00338659,0.0141305,1679,526,6.67985,7.63814
462,498,6.69189,-7.38257,-0.00126892,0.000456278,-0.00166914,0.00147254,-0.00228518,-1.02389,0.00218636,0.0158144,1686,526,6.69188,7.38254
469,498,6.66101,-7.10541,-0.000462833,0.000515975,-0.0010124,0.00115106,-0.00109791,-1.01054,0.00129856,0.0130326,1693,526,6.66107,7.10539
476,498,6.6449,-6.82373,0.000128496,0.000655258,-0.000481466,0.000940675,-0.000156921,-1.03568,0.000685438,0.00984953,1700,526,6.64484,6.82371
483,498,6.64343,-6.52936,0.000587198,0.00100189,-8.89938e-05,0.00102018,0.000568907,-1.36808,0.000590304,0.00848102,1707,526,6.64345,6.52935
490,498,6.64343,-6.26007,0.000899479,0.00125913,0.000204287,0.00135147,0.000807146,1.1463,0.000785172,0.0103066,1714,526,6.64347,6.26004
497,498,6.64893,-5.97363,0.000846563,0.00178112,0.000413652,0.00193791,0.000689777,1.2085,0.00113423,0.0122746,1721,526,6.64887,5.97362
504,498,6.65112,-5.67566,0.000527241,0.00349863,0.000879986,0.00373968,0.000286186,1.30342,0.00240341,0.0147929,1728,526,6.65107,5.67564
511,498,6.63904,-5.37823,-4.713e-05,0.00502887,0.0011426,0.00527421,-0.000292471,1.35929,0.00361757,0.0155038,1735,526,6.63908,5.37826
518,498,6.70227,-5.0929,-0.000991262,0.00714883,0.00146531,0.00740457,-0.001247,1.39801,0.00540025,0.0173362,1742,526,6.70224,5.0929
525,498,6.55859,-4.8147,-0.00226046,0.0100018,0.00199487,0.0103182,-0.00257683,1.41351,0.00787947,0.0291126,1749,526,6.55855,4.81467
532,498,6.41711,-4.61688,-0.00387034,0.0139051,0.00288347,0.0143611,-0.00432638,1.41394,0.0112958,0.0424647,1756,526,6.41712,4.6169
539,498,6.39624,-4.45654,-0.0057141,0.0193777,0.00441267,0.0201311,-0.0064675,1.40169,0.0160179,0.0484055,1763,526,6.39622,4.45655
546,498,6.32385,-4.27502,0,0,0,0,0,0,0,-1,1770,526,6.32382,4.27501
553,498,5.93958,-1.71448,0,0,0,0,0,0,0,-1,1777,526,5.93956,1.71447
560,498,3.69385,-0.615112,0,0,0,0,0,0,0,-1,1784,526,3.69381,0.615118
567,498,5.12695,-0.581604,0,0,0,0,0,0,0,-1,1791,526,5.12699,0.58159
574,498,3.88,0.0286255,0,0,0,0,0,0,0,-1,1798,526,3.87999,-0.0286535
581,498,10.8722,2.58551,0,0,0,0,0,0,0,-1,1805,526,10.8723,-2.58551
588,498,0,0,0,0,0,0,0,0,0,-1,1812,526,0,0
595,498,0,0,0,0,0,0,0,0,0,-1,1819,526,0,0
602,498,0,0,0,0,0,0,0,0,0,-1,1826,526,0,0
609,498,0,0,0,0,0,0,0,0,0,-1,1833,526,0,0
616,498,0,0,0,0,0,0,0,0,0,-1,1840,526,0,0
623,498,0,0,0,0,0,0,0,0,0,-1,1847,526,0,0
630,498,0,0,0,0,0,0,0,0,0,-1,1854,526,0,0
637,498,0,0,0,0,0,0,0,0,0,-1,1861,526,0,0
644,498,0,0,0,0,0,0,0,0,0,-1,1868,526,0,0
651,498,0,0,0,0,0,0,0,0,0,-1,1875,526,0,0
658,498,0,0,0,0,0,0,0,0,0,-1,1882,526,0,0
665,498,0,0,0,0,0,0,0,0,0,-1,1889,526,0,0
672,498,0,0,0,0,0,0,0,0,0,-1,1896,526,0,0
679,498,0,0,0,0,0,0,0,0,0,-1,1903,526,0,0
686,498,0,0,0,0,0,0,0,0,0,-1,1910,526,0,0
693,498,0,0,0,0,0,0,0,0,0,-1,1917,526,0,0
700,498,0,0,0,0,0,0,0,0,0,-1,1924,526,0,0
707,498,0,0,0,0,0,0,0,0,0,-1,1931,526,0,0
714,498,0,0,0,0,0,0,0,0,0,-1,1938,526,0,0
721,498,0,0,0,0,0,0,0,0,0,-1,1945,526,0,0
728,498,0,0,0,0,0,0,0,0,0,-1,1952,526,0,0
735,498,0,0,0,0,0,0,0,0,0,-1,1959,526,0,0
742,498,0,0,0,0,0,0,0,0,0,-1,1966,526,0,0
749,498,0,0,0,0,0,0,0,0,0,-1,1973,526,0,0
756,498,0,0,0,0,0,0,0,0,0,-1,1980,526,0,0
763,498,0,0,0,0,0,0,0,0,0,-1,1987,526,0,0
770,498,0,0,0,0,0,0,0,0,0,-1,1994,526,0,0
777,498,0,0,0,0,0,0,0,0,0,-1,2001,526,0,0
784,498,0,0,0,0,0,0,0,0,0,-1,2008,526,0,0
791,498,0,0,0,0,0,0,0,0,0,-1,2015,526,0,0
798,498,0,0,0,0,0,0,0,0,0,-1,2022,526,0,0
805,498,0,0,0,0,0,0,0,0,0,-1,2029,526,0,0
812,498,0,0,0,0,0,0,0,0,0,-1,2036,526,0,0
-700,491,0,0,0,0,0,0,0,0,0,-1,524,533,0,0
-693,491,0,0,0,0,0,0,0,0,0,-1,531,533,0,0
-686,491,0,0,0,0,0,0,0,0,0,-1,538,533,0,0
-679,491,0,0,0,0,0,0,0,0,0,-1,545,533,0,0
-672,491,0,0,0,0,0,0,0,0,0,-1,552,533,0,0
-665,491,0,0,0,0,0,0,0,0,0,-1,559,533,0,0
-658,491,0,0,0,0,0,0,0,0,0,-1,566,533,0,0
-651,491,0,0,0,0,0,0,0,0,0,-1,573,533,0,0
-644,491,0,0,0,0,0,0,0,0,0,-1,580,533,0,0
-637,491,0,0,0,0,0,0,0,0,0,-1,587,533,0,0
-630,491,0,0,0,0,0,0,0,0,0,-1,594,533,0,0
-623,491,0,0,0,0,0,0,0,0,0,-1,601,533,0,0
-616,491,0,0,0,0,0,0,0,0,0,-1,608,533,0,0
-609,491,0,0,0,0,0,0,0,0,0,-1,615,533,0,0
-602,491,0,0,0,0,0,0,0,0,0,-1,622,533,0,0
-595,491,0,0,0,0,0,0,0,0,0,-1,629,533,0,0
-588,491,0,0,0,0,0,0,0,0,0,-1,636,533,0,0
-581,491,0,0,0,0,0,0,0,0,0,-1,643,533,0,0
-574,491,0,0,0,0,0,0,0,0,0,-1,650,533,0,0
-567,491,0,0,0,0,0,0,0,0,0,-1,657,533,0,0
-560,491,0,0,0,0,0,0,0,0,0,-1,664,533,0,0
-553,491,0,0,0,0,0,0,0,0,0,-1,671,533,0,0
-546,491,0,0,0,0,0,0,0,0,0,-1,678,533,0,0
-539,491,0,0,0,0,0,0,0,0,0,-1,685,533,0,0
-532,491,0,0,0,0,0,0,0,0,0,-1,692,533,0,0
-525,491,0,0,0,0,0,0,0,0,0,-1,699,533,0,0
-518,491,0,0,0,0,0,0,0,0,0,-1,706,533,0,0
-511,491,0,0,0,0,0,0,0,0,0,-1,713,533,0,0
-504,491,0,0,0,0,0,0,0,0,0,-1,720,533,0,0
-497,491,0,0,0,0,0,0,0,0,0,-1,727,533,0,0
-490,491,0,0,0,0,0,0,0,0,0,-1,734,533,0,0
-483,491,0,0,0,0,0,0,0,0,0,-1,741,533,0,0
-476,491,0,0,0,0,0,0,0,0,0,-1,748,533,0,0
-469,491,-5.85913,4.55011,0,0,0,0,0,0,0,-1,755,533,-5.8591,-4.55009
-462,491,-9.93713,4.90381,0,0,0,0,0,0,0,-1,762,533,-9.93716,-4.9038
-455,491,4.79871,0.433533,0,0,0,0,0,0,0,-1,769,533,4.7987,-0.433547
-448,491,4.26001,-1.09589,0,0,0,0,0,0,0,-1,776,533,4.26003,1.09591
-441,491,3.82452,-2.71826,0,0,0,0,0,0,0,-1,783,533,3.82453,2.71826
-434,491,3.46295,-4.54407,0,0,0,0,0,0,0,-1,790,533,3.46295,4.5441
-427,491,-1.38965,-4.43634,0,0,0,0,0,0,0,-1,797,533,-1.38966,4.43633
-420,491,-1.48376,-5.14618,0,0,0,0,0,0,0,-1,804,533,-1.48374,5.14616
-413,491,-1.30811,-5.60675,0.00373691,0.000785605,-0.0110465,0.0134059,-0.00888337,-0.718998,0.0129567,0.0445706,811,533,-1.30808,5.60674
-406,491,-1.19745,-6.06732,0.00310061,0.000692762,-0.00775965,0.00974918,-0.00595581,-0.708436,0.00915502,0.0235827,818,533,-1.19746,6.06731
-399,491,-1.19495,-6.37146,0.0024561,0.000538595,-0.00535812,0.00694057,-0.00394587,-0.696868,0.00636407,0.0105604,825,533,-1.19492,6.37145
-392,491,-1.22455,-6.63495,0.00191984,0.00027246,-0.00351949,0.00471074,-0.00251844,-0.670449,0.00423726,0.00942104,832,533,-1.22457,6.63495
-385,491,-1.23114,-6.88928,0.00164101,0.00033205,-0.00188064,0.0029778,-0.00100474,-0.617948,0.00239153,0.00933451,839,533,-1.23117,6.88927
-378,491,-1.21704,-7.15857,0.00122861,-0.000262903,-0.00129828,0.00198008,-0.00101437,-0.524699,0.00175856,0.0132731,846,533,-1.21704,7.15855
-371,491,-1.22015,-7.42847,0.000876234,-0.000894568,-0.000896489,0.00125084,-0.00126918,-0.39581,0.00145495,0.0144246,853,533,-1.22014,7.42846
-364,491,-1.21735,-7.68927,0.000584369,-0.0012447,-0.000702293,0.000822912,-0.00148324,-0.327437,0.00134953,0.0138089,860,533,-1.21734,7.68927
-357,491,-1.24615,-7.95782,0.000363775,-0.00162478,-0.000630963,0.000547081,-0.00180809,-0.282735,0.00142324,0.0122326,867,533,-1.24614,7.95784
-350,491,-1.24585,-8.1972,0.000280551,-0.00184236,-0.00080775,0.000552943,-0.00211475,-0.325247,0.0016258,0.0150402,874,533,-1.24585,8.19723
-343,491,-1.19806,-8.44965,0.000187916,-0.00206196,-0.00106162,0.000609759,-0.00248381,-0.378225,0.00189216,0.0237105,881,533,-1.19803,8.44962
-336,491,-1.17822,-8.69409,0.000201958,-0.00232242,-0.00138413,0.000812988,-0.00293345,-0.415723,0.00227557,0.0232204,888,533,-1.17819,8.69409
-329,491,-1.22125,-8.94611,0.000392347,-0.00246825,-0.00180029,0.00126135,-0.00333725,-0.449714,0.00274369,0.0235811,895,533,-1.22125,8.9461
-322,491,-1.22369,-9.21246,0.000646326,-0.002414,-0.00224069,0.00182948,-0.00359715,-0.485821,0.003188,0.0221025,902,533,-1.22372,9.21247
-315,491,-1.26764,-9.44592,0.00113373,-0.00234951,-0.00262859,0.00254532,-0.0037611,-0.492818,0.00366349,0.0204424,909,533,-1.26767,9.44592
-308,491,-1.1983,-9.86353,0,0,0,0,0,0,0,-1,916,533,-1.19829,9.86355
-301,491,-1.11517,-10.551,0,0,0,0,0,0,0,-1,923,533,-1.11515,10.551
-294,491,-0.777283,-8.60913,0,0,0,0,0,0,0,-1,930,533,-0.777288,8.6091
-287,491,-0.26123,-8.69055,0,0,0,0,0,0,0,-1,937,533,-0.261204,8.69053
-280,491,0.2948,-5.99219,0,0,0,0,0,0,0,-1,944,533,0.294811,5.99221
-273,491,0.369995,-5.33691,0,0,0,0,0,0,0,-1,951,533,0.369985,5.33693
-266,491,1.1167,-5.0321,0,0,0,0,0,0,0,-1,958,533,1.11668,5.0321
-259,491,12.0862,-16.9615,0,0,0,0,0,0,0,-1,965,533,12.0862,16.9615
-252,491,9.72443,-13.8417,0,0,0,0,0,0,0,-1,972,533,9.72444,13.8418
-245,491,5.27258,-14.3619,0,0,0,0,0,0,0,-1,979,533,5.27255,14.3619
-238,491,3.65381,-11.1472,-0.0755218,-0.240337,0.0535196,-0.0596677,-0.256191,0.287994,0.154787,0.0479702,986,533,3.6538,11.1472
-231,491,2.17719,-7.86835,-0.079428,-0.252342,0.0563107,-0.0627069,-0.269063,0.28865,0.162556,0.0452328,993,533,2.17719,7.86832
-224,491,0.554626,-4.61725,0,0,0,0,0,0,0,-1,1000,533,0.554608,4.61727
-217,491,-2.92743,-1.0766,0,0,0,0,0,0,0,-1,1007,533,-2.92743,1.07659
-210,491,-0.92395,0.374512,0,0,0,0,0,0,0,-1,1014,533,-0.923959,-0.374531
-203,491,0.417419,4.77161,0,0,0,0,0,0,0,-1,1021,533,0.417446,-4.77162
-196,491,0,0,0,0,0,0,0,0,0,-1,1028,533,0,0
-189,491,0,0,0,0,0,0,0,0,0,-1,1035,533,0,0
-182,491,0,0,0,0,0,0,0,0,0,-1,1042,533,0,0
-175,491,0,0,0,0,0,0,0,0,0,-1,1049,533,0,0
-168,491,0,0,0,0,0,0,0,0,0,-1,1056,533,0,0
-161,491,0,0,0,0,0,0,0,0,0,-1,1063,533,0,0
-154,491,0,0,0,0,0,0,0,0,0,-1,1070,533,0,0
-147,491,0,0,0,0,0,0,0,0,0,-1,1077,533,0,0
-140,491,0,0,0,0,0,0,0,0,0,-1,1084,533,0,0
-133,491,0,0,0,0,0,0,0,0,0,-1,1091,533,0,0
-126,491,0,0,0,0,0,0,0,0,0,-1,1098,533,0,0
-119,491,0,0,0,0,0,0,0,0,0,-1,1105,533,0,0
-112,491,0,0,0,0,0,0,0,0,0,-1,1112,533,0,0
-105,491,0,0,0,0,0,0,0,0,0,-1,1119,533,0,0
-98,491,0,0,0,0,0,0,0,0,0,-1,1126,533,0,0
-91,491,0,0,0,0,0,0,0,0,0,-1,1133,533,0,0
-84,491,0,0,0,0,0,0,0,0,0,-1,1140,533,0,0
-77,491,0,0,0,0,0,0,0,0,0,-1,1147,533,0,0
-70,491,0,0,0,0,0,0,0,0,0,-1,1154,533,0,0
-63,491,0,0,0,0,0,0,0,0,0,-1,1161,533,0,0
-56,491,0,0,0,0,0,0,0,0,0,-1,1168,533,0,0
-49,491,0,0,0,0,0,0,0,0,0,-1,1175,533,0,0
-42,491,0,0,0,0,0,0,0,0,0,-1,1182,533,0,0
-35,491,0,0,0,0,0,0,0,0,0,-1,1189,533,0,0
-28,491,0,0,0,0,0,0,0,0,0,-1,1196,533,0,0
-21,491,0,0,0,0,0,0,0,0,0,-1,1203,533,0,0
-14,491,0,0,0,0,0,0,0,0,0,-1,1210,533,0,0
-7,491,0,0,0,0,0,0,0,0,0,-1,1217,533,0,0
0,491,0,0,0,0,0,0,0,0,0,-1,1224,533,0,0
7,491,0,0,0,0,0,0,0,0,0,-1,1231,533,0,0
14,491,0,0,0,0,0,0,0,0,0,-1,1238,533,0,0
21,491,0,0,0,0,0,0,0,0,0,-1,1245,533,0,0
28,491,0,0,0,0,0,0,0,0,0,-1,1252,533,0,0
35,491,0,0,0,0,0,0,0,0,0,-1,1259,533,0,0
42,491,0,0,0,0,0,0,0,0,0,-1,1266,533,0,0
49,491,0,0,0,0,0,0,0,0,0,-1,1273,533,0,0
56,491,0,0,0,0,0,0,0,0,0,-1,1280,533,0,0
63,491,0,0,0,0,0,0,0,0,0,-1,1287,533,0,0
70,491,0,0,0,0,0,0,0,0,0,-1,1294,533,0,0
77,491,0,0,0,0,0,0,0,0,0,-1,1301,533,0,0
84,491,0,0,0,0,0,0,0,0,0,-1,1308,533,0,0
91,491,0,0,0,0,0,0,0,0,0,-1,1315,533,0,0
98,491,0,0,0,0,0,0,0,0,0,-1,1322,533,0,0
105,491,0,0,0,0,0,0,0,0,0,-1,1329,533,0,0
112,491,0,0,0,0,0,0,0,0,0,-1,1336,533,0,0
119,491,0,0,0,0,0,0,0,0,0,-1,1343,533,0,0
126,491,0,0,0,0,0,0,0,0,0,-1,1350,533,0,0
133,491,0,0,0,0,0,0,0,0,0,-1,1357,533,0,0
140,491,0,0,0,0,0,0,0,0,0,-1,1364,533,0,0
147,491,0,0,0,0,0,0,0,0,0,-1,1371,533,0,0
154,491,0,0,0,0,0,0,0,0,0,-1,1378,533,0,0
161,491,0,0,0,0,0,0,0,0,0,-1,1385,533,0,0
168,491,0,0,0,0,0,0,0,0,0,-1,1392,533,0,0
175,491,0,0,0,0,0,0,0,0,0,-1,1399,533,0,0
182,491,0,0,0,0,0,0,0,0,0,-1,1406,533,0,0
189,491,0,0,0,0,0,0,0,0,0,-1,1413,533,0,0
196,491,0,0,0,0,0,0,0,0,0,-1,1420,533,0,0
203,491,0,0,0,0,0,0,0,0,0,-1,1427,533,0,0
210,491,0,0,0,0,0,0,0,0,0,-1,1434,533,0,0
217,491,0,0,0,0,0,0,0,0,0,-1,1441,533,0,0
224,491,0,0,0,0,0,0,0,0,0,-1,1448,533,0,0
231,491,0,0,0,0,0,0,0,0,0,-1,1455,533,0,0
238,491,0,0,0,0,0,0,0,0,0,-1,1462,533,0,0
245,491,0,0,0,0,0,0,0,0,0,-1,1469,533,0,0
252,491,0,0,0,0,0,0,0,0,0,-1,1476,533,0,0
259,491,0,0,0,0,0,0,0,0,0,-1,1483,533,0,0
266,491,0,0,0,0,0,0,0,0,0,-1,1490,533,0,0
273,491,0,0,0,0,0,0,0,0,0,-1,1497,533,0,0
280,491,0,0,0,0,0,0,0,0,0,-1,1504,533,0,0
287,491,0,0,0,0,0,0,0,0,0,-1,1511,533,0,0
294,491,0,0,0,0,0,0,0,0,0,-1,1518,533,0,0
301,491,0,0,0,0,0,0,0,0,0,-1,1525,533,0,0
308,491,0,0,0,0,0,0,0,0,0,-1,1532,533,0,0
315,491,0,0,0,0,0,0,0,0,0,-1,1539,533,0,0
322,491,4.26331,-0.734314,0,0,0,0,0,0,0,-1,1546,533,4.26326,0.734324
329,491,4.25354,-0.783752,0,0,0,0,0,0,0,-1,1553,533,4.25359,0.783734
336,491,4.81604,-0.722107,0,0,0,0,0,0,0,-1,1560,533,4.81605,0.722115
343,491,6.14478,-1.44281,0,0,0,0,0,0,0,-1,1567,533,6.14474,1.44281
350,491,6.36353,-1.30792,0,0,0,0,0,0,0,-1,1574,533,6.36352,1.3079
357,491,6.69482,-1.06018,0,0,0,0,0,0,0,-1,1581,533,6.69489,1.06018
364,491,8.01086,-1.69604,0,0,0,0,0,0,0,-1,1588,533,8.01087,1.69607
371,491,8.2135,-0.539307,0,0,0,0,0,0,0,-1,1595,533,8.21348,0.53929
378,491,13.3589,2.17267,0,0,0,0,0,0,0,-1,1602,533,13.3589,-2.17264
385,491,8.08228,-4.95471,0,0,0,0,0,0,0,-1,1609,533,8.08227,4.95474
392,491,2.88721,-4.30988,0,0,0,0,0,0,0,-1,1616,533,2.88716,4.30986
399,491,8.95862,-8.55518,0,0,0,0,0,0,0,-1,1623,533,8.95864,8.55516
406,491,8.59888,-7.00525,0,0,0,0,0,0,0,-1,1630,533,8.5989,7.00525
413,491,5.31848,-3.7124,0,0,0,0,0,0,0,-1,1637,533,5.31849,3.7124
420,491,4.86389,-3.95892,0,0,0,0,0,0,0,-1,1644,533,4.86387,3.95893
427,491,7.39282,-8.51898,0,0,0,0,0,0,0,-1,1651,533,7.39281,8.51899
434,491,7.22107,-8.29852,-0.00745807,-0.0017333,-0.00772951,0.0036468,-0.0128382,-0.962729,0.00999858,0.0453926,1658,533,7.22103,8.2985
441,491,6.96472,-8.18811,-0.0058906,-0.000690202,-0.00605972,0.00330363,-0.00988443,-0.988065,0.00792382,0.0233228,1665,533,6.96469,8.18814
448,491,6.93811,-7.89221,-0.00439762,4.00485e-05,-0.00462438,0.00295036,-0.00730793,-1.00908,0.00609814,0.012473,1672,533,6.93807,7.89219
455,491,6.94092,-7.6297,-0.00309932,0.000594858,-0.00336502,0.0025864,-0.00509086,-1.0364,0.0045104,0.0120036,1679,533,6.94087,7.62972
462,491,6.94861,-7.37897,-0.00195035,0.000815703,-0.00221834,0.00204683,-0.00318147,-1.06414,0.00304216,0.0157452,1686,533,6.94858,7.37895
469,491,6.93225,-7.11133,-0.00102516,0.000787937,-0.0014446,0.00158688,-0.0018241,-1.06561,0.00197092,0.0143624,1693,533,6.93226,7.11131
476,491,6.93652,-6.82117,-0.000305015,0.000856785,-0.00081121,0.00127364,-0.000721866,-1.09612,0.00116669,0.00998645,1700,533,6.93654,6.82114
483,491,6.93494,-6.52216,0.000242788,0.00104937,-0.000315376,0.00115805,0.000134117,-1.23896,0.000731435,0.0117551,1707,533,6.93488,6.52216
490,491,6.92676,-6.25653,0.000597606,0.00118202,4.5055e-05,0.00118547,0.000594152,1.4943,0.000684434,0.0100694,1714,533,6.92672,6.25653
497,491,6.91528,-5.98645,0.000534494,0.00145099,0.000229093,0.00150507,0.000480419,1.339,0.000887687,0.0110142,1721,533,6.91531,5.98647
504,491,6.93103,-5.68732,0.000169671,0.00275827,0.000605529,0.00289292,3.50282e-05,1.352,0.00191704,0.0128068,1728,533,6.93099,5.68731
511,491,6.92419,-5.37134,-0.000417101,0.00388006,0.000841115,0.00403883,-0.000575872,1.38423,0.00290361,0.0117593,1735,533,6.9242,5.37134
518,491,6.92139,-5.09991,-0.00137105,0.00546397,0.00106006,0.00562461,-0.00153168,1.42041,0.00435111,0.00924007,1742,533,6.92137,5.09991
525,491,6.92358,-4.81708,-0.00259071,0.00764705,0.00144233,0.00784637,-0.00279003,1.43347,0.00636802,0.00926121,1749,533,6.92357,4.81708
532,491,6.94128,-4.53748,-0.00405997,0.0106974,0.00212402,0.010997,-0.00435959,1.43066,0.00913804,0.018858,1756,533,6.94125,4.53746
539,491,6.86707,-4.35681,-0.00564957,0.0148051,0.0032796,0.015318,-0.00616254,1.41564,0.0127718,0.0282194,1763,533,6.86706,4.35681
546,491,6.50928,-3.66943,-0.00726721,0.0198062,0.00492195,0.0206732,-0.00813425,1.39643,0.0171491,0.03725,1770,533,6.50929,3.66946
553,491,6.39551,-2.37665,-0.00890252,0.0259661,0.00713052,0.0273679,-0.0103043,1.37668,0.0224815,0.0480345,1777,533,6.39553,2.37667
560,491,6.28455,-1.43585,0,0,0,0,0,0,0,-1,1784,533,6.28458,1.43586
567,491,5.67651,-1.3562,0,0,0,0,0,0,0,-1,1791,533,5.67649,1.3562
574,491,8.0719,1.58325,0,0,0,0,0,0,0,-1,1798,533,8.07195,-1.58326
581,491,9.44812,1.60931,0,0,0,0,0,0,0,-1,1805,533,9.44808,-1.60933
588,491,11.0497,1.54962,0,0,0,0,0,0,0,-1,1812,533,11.0496,-1.54963
595,491,0,0,0,0,0,0,0,0,0,-1,1819,533,0,0
602,491,0,0,0,0,0,0,0,0,0,-1,1826,533,0,0
609,491,0,0,0,0,0,0,0,0,0,-1,1833,533,0,0
616,491,0,0,0,0,0,0,0,0,0,-1,1840,533,0,0
623,491,0,0,0,0,0,0,0,0,0,-1,1847,533,0,0
630,491,0,0,0,0,0,0,0,0,0,-1,1854,533,0,0
637,491,0,0,0,0,0,0,0,0,0,-1,1861,533,0,0
644,491,0,0,0,0,0,0,0,0,0,-1,1868,533,0,0
651,491,0,0,0,0,0,0,0,0,0,-1,1875,533,0,0
658,491,0,0,0,0,0,0,0,0,0,-1,1882,533,0,0
665,491,0,0,0,0,0,0,0,0,0,-1,1889,533,0,0
672,491,0,0,0,0,0,0,0,0,0,-1,1896,533,0,0
679,491,0,0,0,0,0,0,0,0,0,-1,1903,533,0,0
686,491,0,0,0,0,0,0,0,0,0,-1,1910,533,0,0
693,491,0,0,0,0,0,0,0,0,0,-1,1917,533,0,0
700,491,0,0,0,0,0,0,0,0,0,-1,1924,533,0,0
707,491,0,0,0,0,0,0,0,0,0,-1,1931,533,0,0
714,491,0,0,0,0,0,0,0,0,0,-1,1938,533,0,0
721,491,0,0,0,0,0,0,0,0,0,-1,1945,533,0,0
728,491,0,0,0,0,0,0,0,0,0,-1,1952,533,0,0
735,491,0,0,0,0,0,0,0,0,0,-1,1959,533,0,0
742,491,0,0,0,0,0,0,0,0,0,-1,1966,533,0,0
749,491,0,0,0,0,0,0,0,0,0,-1,1973,533,0,0
756,491,0,0,0,0,0,0,0,0,0,-1,1980,533,0,0
763,491,0,0,0,0,0,0,0,0,0,-1,1987,533,0,0
770,491,0,0,0,0,0,0,0,0,0,-1,1994,533,0,0
777,491,0,0,0,0,0,0,0,0,0,-1,2001,533,0,0
784,491,0,0,0,0,0,0,0,0,0,-1,2008,533,0,0
791,491,0,0,0,0,0,0,0,0,0,-1,2015,533,0,0
798,491,0,0,0,0,0,0,0,0,0,-1,2022,533,0,0
805,491,0,0,0,0,0,0,0,0,0,-1,2029,533,0,0
812,491,0,0,0,0,0,0,0,0,0,-1,2036,533,0,0
-700,484,0,0,0,0,0,0,0,0,0,-1,524,540,0,0
-693,484,0,0,0,0,0,0,0,0,0,-1,531,540,0,0
-686,484,0,0,0,0,0,0,0,0,0,-1,538,540,0,0
-679,484,0,0,0,0,0,0,0,0,0,-1,545,540,0,0
-672,484,0,0,0,0,0,0,0,0,0,-1,552,540,0,0
-665,484,0,0,0,0,0,0,0,0,0,-1,559,540,0,0
-658,484,0,0,0,0,0,0,0,0,0,-1,566,540,0,0
-651,484,0,0,0,0,0,0,0,0,0,-1,573,540,0,0
-644,484,0,0,0,0,0,0,0,0,0,-1,580,540,0,0
-637,484,0,0,0,0,0,0,0,0,0,-1,587,540,0,0
-630,484,0,0,0,0,0,0,0,0,0,-1,594,540,0,0
-623,484,0,0,0,0,0,0,0,0,0,-1,601,540,0,0
-616,484,0,0,0,0,0,0,0,0,0,-1,608,540,0,0
-609,484,0,0,0,0,0,0,0,0,0,-1,615,540,0,0
-602,484,0,0,0,0,0,0,0,0,0,-1,622,540,0,0
-595,484,0,0,0,0,0,0,0,0,0,-1,629,540,0,0
-588,484,0,0,0,0,0,0,0,0,0,-1,636,540,0,0
-581,484,0,0,0,0,0,0,0,0,0,-1,643,540,0,0
-574,484,0,0,0,0,0,0,0,0,0,-1,650,540,0,0
-567,484,0,0,0,0,0,0,0,0,0,-1,657,540,0,0
-560,484,0,0,0,0,0,0,0,0,0,-1,664,540,0,0
-553,484,0,0,0,0,0,0,0,0,0,-1,671,540,0,0
-546,484,0,0,0,0,0,0,0,0,0,-1,678,540,0,0
-539,484,0,0,0,0,0,0,0,0,0,-1,685,540,0,0
-532,484,0,0,0,0,0,0,0,0,0,-1,692,540,0,0
-525,484,0,0,0,0,0,0,0,0,0,-1,699,540,0,0
-518,484,0,0,0,0,0,0,0,0,0,-1,706,540,0,0
-511,484,0,0,0,0,0,0,0,0,0,-1,713,540,0,0
-504,484,0,0,0,0,0,0,0,0,0,-1,720,540,0,0
-497,484,0,0,0,0,0,0,0,0,0,-1,727,540,0,0
-490,484,0,0,0,0,0,0,0,0,0,-1,734,540,0,0
-483,484,0,0,0,0,0,0,0,0,0,-1,741,540,0,0
-476,484,-8.46552,1.44702,0,0,0,0,0,0,0,-1,748,540,-8.46554,-1.44702
-469,484,-7.82343,1.70355,0,0,0,0,0,0,0,-1,755,540,-7.82345,-1.70355
-462,484,-8.36987,3.08612,0,0,0,0,0,0,0,-1,762,540,-8.36988,-3.0861
-455,484,-6.77197,2.07092,0,0,0,0,0,0,0,-1,769,540,-6.77197,-2.07094
-448,484,4.07648,-0.0432739,0,0,0,0,0,0,0,-1,776,540,4.07646,0.0432449
-441,484,3.6438,-2.12158,0,0,0,0,0,0,0,-1,783,540,3.64383,2.1216
-434,484,-1.60059,-4.39233,0,0,0,0,0,0,0,-1,790,540,-1.60058,4.39231
-427,484,-1.53082,-4.79626,0.00375631,0.00203588,-0.0162376,0.0191564,-0.0133642,-0.758934,0.0188748,0.0482004,797,540,-1.53083,4.79627
-420,484,-1.43494,-5.39795,0.00350878,0.0020691,-0.0119587,0.0147692,-0.00919137,-0.755338,0.0139581,0.0392081,804,540,-1.43491,5.39798
-413,484,-1.4422,-5.72083,0.003108,0.00177561,-0.0086645,0.0111319,-0.00624827,-0.74703,0.0101656,0.0242227,811,540,-1.4422,5.72081
-406,484,-1.42596,-6.08087,0.00258658,0.00139285,-0.00617356,0.00819206,-0.00421263,-0.737207,0.00728366,0.014183,818,540,-1.42597,6.08089
-399,484,-1.47534,-6.36755,0.00210455,0.000977998,-0.00428585,0.00586398,-0.00278144,-0.720059,0.0050961,0.0153325,825,540,-1.47537,6.36754
-392,484,-1.50269,-6.62567,0.00163771,0.000409694,-0.00277329,0.00386415,-0.00181674,-0.676455,0.00335012,0.0173083,832,540,-1.50266,6.6257
-385,484,-1.48456,-6.87927,0.00129806,0.000189448,-0.00147065,0.0023154,-0.000827886,-0.605174,0.00188129,0.0127694,839,540,-1.48454,6.87924
-378,484,-1.48749,-7.15771,0.00091159,-0.000519084,-0.000962848,0.00139575,-0.00100324,-0.465915,0.00139122,0.0139889,846,540,-1.48749,7.15771
-371,484,-1.48938,-7.41229,0.00055818,-0.00124739,-0.000639208,0.000761563,-0.00145077,-0.308051,0.00129779,0.0151682,853,540,-1.4894,7.41227
-364,484,-1.50403,-7.66742,0.000214571,-0.00176468,-0.000486573,0.00032772,-0.00187783,-0.228483,0.00137421,0.0111528,860,540,-1.50403,7.66742
-357,484,-1.53082,-7.9549,-7.26568e-05,-0.0023044,-0.000483635,2.76429e-05,-0.0024047,-0.204489,0.00161242,0.0122039,867,540,-1.53083,7.95492
-350,484,-1.51422,-8.18921,-0.000253353,-0.00268975,-0.000735074,-4.87582e-05,-0.00289434,-0.271462,0.00191352,0.0149616,874,540,-1.5142,8.18919
-343,484,-1.44476,-8.4494,-0.000468471,-0.00314225,-0.00109242,-7.89032e-05,-0.00353182,-0.342551,0.00232869,0.0231317,881,540,-1.44477,8.4494
-336,484,-1.40845,-8.71033,-0.000613372,-0.00359405,-0.00151945,2.46337e-05,-0.00423205,-0.397536,0.00282962,0.0259624,888,540,-1.40842,8.71035
-329,484,-1.40845,-8.91571,-0.000596695,-0.00390126,-0.00206473,0.000395481,-0.00489343,-0.447955,0.00340179,0.0319039,895,540,-1.40845,8.91574
-322,484,-1.29553,-9.28204,-0.000504938,-0.00395894,-0.00269628,0.000970005,-0.00543388,-0.50056,0.00398547,0.0418366,902,540,-1.29551,9.28204
-315,484,-1.28461,-9.58118,0,0,0,0,0,0,0,-1,909,540,-1.2846,9.58118
-308,484,-1.32623,-8.9317,0,0,0,0,0,0,0,-1,916,540,-1.32626,8.93173
-301,484,-1.33453,-6.52667,0,0,0,0,0,0,0,-1,923,540,-1.33454,6.5267
-294,484,-1.61224,-8.17059,0,0,0,0,0,0,0,-1,930,540,-1.61227,8.17058
-287,484,-0.715759,-5.62103,0,0,0,0,0,0,0,-1,937,540,-0.715772,5.62105
-280,484,2.66742,-1.6795,0,0,0,0,0,0,0,-1,944,540,2.6674,1.67949
-273,484,2.53125,-2.22296,0,0,0,0,0,0,0,-1,951,540,2.53128,2.22295
-266,484,2.6778,-2.72058,0,0,0,0,0,0,0,-1,958,540,2.6778,2.72061
-259,484,2.41718,-2.59894,0,0,0,0,0,0,0,-1,965,540,2.41717,2.59892
-252,484,10.6069,-11.696,0,0,0,0,0,0,0,-1,972,540,10.6069,11.696
-245,484,6.34106,-11.6107,0,0,0,0,0,0,0,-1,979,540,6.34104,11.6107
-238,484,4.89319,-8.54059,-0.0918895,-0.279928,0.0622495,-0.0731496,-0.298668,0.292415,0.17976,0.0425353,986,540,4.89321,8.5406
-231,484,3.47675,-5.22064,-0.0956281,-0.293063,0.065305,-0.0759823,-0.312709,0.292221,0.188326,0.0459673,993,540,3.47676,5.22067
-224,484,1.71344,-2.03473,0,0,0,0,0,0,0,-1,1000,540,1.71342,2.03472
-217,484,-0.745056,1.17358,0,0,0,0,0,0,0,-1,1007,540,-0.745043,-1.17359
-210,484,0,0,0,0,0,0,0,0,0,-1,1014,540,0,0
-203,484,0,0,0,0,0,0,0,0,0,-1,1021,540,0,0
-196,484,0,0,0,0,0,0,0,0,0,-1,1028,540,0,0
-189,484,0,0,0,0,0,0,0,0,0,-1,1035,540,0,0
-182,484,0,0,0,0,0,0,0,0,0,-1,1042,540,0,0
-175,484,0,0,0,0,0,0,0,0,0,-1,1049,540,0,0
-168,484,0,0,0,0,0,0,0,0,0,-1,1056,540,0,0
-161,484,0,0,0,0,0,0,0,0,0,-1,1063,540,0,0
-154,484,0,0,0,0,0,0,0,0,0,-1,1070,540,0,0
-147,484,0,0,0,0,0,0,0,0,0,-1,1077,540,0,0
-140,484,0,0,0,0,0,0,0,0,0,-1,1084,540,0,0
-133,484,0,0,0,0,0,0,0,0,0,-1,1091,540,0,0
-126,484,0,0,0,0,0,0,0,0,0,-1,1098,540,0,0
-119,484,0,0,0,0,0,0,0,0,0,-1,1105,540,0,0
-112,484,0,0,0,0,0,0,0,0,0,-1,1112,540,0,0
-105,484,0,0,0,0,0,0,0,0,0,-1,1119,540,0,0
-98,484,0,0,0,0,0,0,0,0,0,-1,1126,540,0,0
-91,484,0,0,0,0,0,0,0,0,0,-1,1133,540,0,0
-84,484,0,0,0,0,0,0,0,0,0,-1,1140,540,0,0
-77,484,0,0,0,0,0,0,0,0,0,-1,1147,540,0,0
-70,484,0,0,0,0,0,0,0,0,0,-1,1154,540,0,0
-63,484,0,0,0,0,0,0,0,0,0,-1,1161,540,0,0
-56,484,0,0,0,0,0,0,0,0,0,-1,1168,540,0,0
-49,484,0,0,0,0,0,0,0,0,0,-1,1175,540,0,0
-42,484,0,0,0,0,0,0,0,0,0,-1,1182,540,0,0
-35,484,0,0,0,0,0,0,0,0,0,-1,1189,540,0,0
-28,484,0,0,0,0,0,0,0,0,0,-1,1196,540,0,0
-21,484,0,0,0,0,0,0,0,0,0,-1,1203,540,0,0
-14,484,0,0,0,0,0,0,0,0,0,-1,1210,540,0,0
-7,484,0,0,0,0,0,0,0,0,0,-1,1217,540,0,0
0,484,0,0,0,0,0,0,0,0,0,-1,1224,540,0,0
7,484,0,0,0,0,0,0,0,0,0,-1,1231,540,0,0
14,484,0,0,0,0,0,0,0,0,0,-1,1238,540,0,0
21,484,0,0,0,0,0,0,0,0,0,-1,1245,540,0,0
28,484,0,0,0,0,0,0,0,0,0,-1,1252,540,0,0
35,484,0,0,0,0,0,0,0,0,0,-1,1259,540,0,0
42,484,0,0,0,0,0,0,0,0,0,-1,1266,540,0,0
49,484,0,0,0,0,0,0,0,0,0,-1,1273,540,0,0
56,484,0,0,0,0,0,0,0,0,0,-1,1280,540,0,0
63,484,0,0,0,0,0,0,0,0,0,-1,1287,540,0,0
70,484,0,0,0,0,0,0,0,0,0,-1,1294,540,0,0
77,484,0,0,0,0,0,0,0,0,0,-1,1301,540,0,0
84,484,0,0,0,0,0,0,0,0,0,-1,1308,540,0,0
91,484,0,0,0,0,0,0,0,0,0,-1,1315,540,0,0
98,484,0,0,0,0,0,0,0,0,0,-1,1322,540,0,0
105,484,0,0,0,0,0,0,0,0,0,-1,1329,540,0,0
112,484,0,0,0,0,0,0,0,0,0,-1,1336,540,0,0
119,484,0,0,0,0,0,0,0,0,0,-1,1343,540,0,0
126,484,0,0,0,0,0,0,0,0,0,-1,1350,540,0,0
133,484,0,0,0,0,0,0,0,0,0,-1,1357,540,0,0
140,484,0,0,0,0,0,0,0,0,0,-1,1364,540,0,0
147,484,0,0,0,0,0,0,0,0,0,-1,1371,540,0,0
154,484,0,0,0,0,0,0,0,0,0,-1,1378,540,0,0
161,484,0,0,0,0,0,0,0,0,0,-1,1385,540,0,0
168,484,0,0,0,0,0,0,0,0,0,-1,1392,540,0,0
175,484,0,0,0,0,0,0,0,0,0,-1,1399,540,0,0
182,484,0,0,0,0,0,0,0,0,0,-1,1406,540,0,0
189,484,0,0,0,0,0,0,0,0,0,-1,1413,540,0,0
196,484,0,0,0,0,0,0,0,0,0,-1,1420,540,0,0
203,484,0,0,0,0,0,0,0,0,0,-1,1427,540,0,0
210,484,0,0,0,0,0,0,0,0,0,-1,1434,540,0,0
217,484,0,0,0,0,0,0,0,0,0,-1,1441,540,0,0
224,484,0,0,0,0,0,0,0,0,0,-1,1448,540,0,0
231,484,0,0,0,0,0,0,0,0,0,-1,1455,540,0,0
238,484,0,0,0,0,0,0,0,0,0,-1,1462,540,0,0
245,484,0,0,0,0,0,0,0,0,0,-1,1469,540,0,0
252,484,0,0,0,0,0,0,0,0,0,-1,1476,540,0,0
259,484,0,0,0,0,0,0,0,0,0,-1,1483,540,0,0
266,484,0,0,0,0,0,0,0,0,0,-1,1490,540,0,0
273,484,0,0,0,0,0,0,0,0,0,-1,1497,540,0,0
280,484,0,0,0,0,0,0,0,0,0,-1,1504,540,0,0
287,484,0,0,0,0,0,0,0,0,0,-1,1511,540,0,0
294,484,0,0,0,0,0,0,0,0,0,-1,1518,540,0,0
301,484,0,0,0,0,0,0,0,0,0,-1,1525,540,0,0
308,484,0,0,0,0,0,0,0,0,0,-1,1532,540,0,0
315,484,0,0,0,0,0,0,0,0,0,-1,1539,540,0,0
322,484,0,0,0,0,0,0,0,0,0,-1,1546,540,0,0
329,484,0,0,0,0,0,0,0,0,0,-1,1553,540,0,0
336,484,4.38708,-1.64136,0,0,0,0,0,0,0,-1,1560,540,4.38704,1.64138
343,484,7.57996,-1.05457,0,0,0,0,0,0,0,-1,1567,540,7.57995,1.05454
350,484,8.10425,-1.18878,0,0,0,0,0,0,0,-1,1574,540,8.1043,1.18877
357,484,7.74902,-3.80286,0,0,0,0,0,0,0,-1,1581,540,7.74901,3.80287
364,484,6.31262,-3.87213,0,0,0,0,0,0,0,-1,1588,540,6.31263,3.87215
371,484,7.21008,0.973511,0,0,0,0,0,0,0,-1,1595,540,7.21014,-0.973541
378,484,11.0563,1.5014,0,0,0,0,0,0,0,-1,1602,540,11.0563,-1.5014
385,484,14.3469,2.5545,0,0,0,0,0,0,0,-1,1609,540,14.3469,-2.55453
392,484,7.39453,-4.95026,0,0,0,0,0,0,0,-1,1616,540,7.39448,4.95023
399,484,7.14417,-2.5639,0,0,0,0,0,0,0,-1,1623,540,7.14417,2.56391
406,484,7.88953,-2.47321,0,0,0,0,0,0,0,-1,1630,540,7.88954,2.47323
413,484,4.4895,-1.08673,0,0,0,0,0,0,0,-1,1637,540,4.48952,1.08674
420,484,4.50012,-2.11255,0,0,0,0,0,0,0,-1,1644,540,4.50012,2.11256
427,484,5.28601,-3.54053,0,0,0,0,0,0,0,-1,1651,540,5.28599,3.54051
434,484,7.85645,-8.15686,0,0,0,0,0,0,0,-1,1658,540,7.85646,8.15688
441,484,7.3468,-8.20966,0,0,0,0,0,0,0,-1,1665,540,7.34682,8.20966
448,484,7.19324,-7.80261,-0.00584358,0.000343625,-0.00587825,0.00389263,-0.00939259,-1.02762,0.00788628,0.0384147,1672,540,7.19321,7.80262
455,484,7.20398,-7.61993,-0.00408559,0.00108619,-0.0042233,0.00345238,-0.00645178,-1.0601,0.00580492,0.0194347,1679,540,7.20393,7.61991
462,484,7.22021,-7.36212,-0.00264432,0.00129465,-0.0027789,0.00273121,-0.00408088,-1.09368,0.00395861,0.0148883,1686,540,7.2202,7.36212
469,484,7.24915,-7.08167,-0.001509,0.00123407,-0.00181235,0.00213536,-0.00241029,-1.10931,0.00262603,0.0166189,1693,540,7.2492,7.08164
476,484,7.23181,-6.79626,-0.000580798,0.00127927,-0.00101273,0.00172422,-0.00102575,-1.15683,0.00160468,0.0149707,1700,540,7.23177,6.79624
483,484,7.22217,-6.53009,0.000118868,0.00134503,-0.000361153,0.0014435,2.0402e-05,-1.30462,0.000955605,0.012018,1707,540,7.22211,6.53012
490,484,7.21313,-6.25867,0.000573866,0.00140762,9.86389e-05,0.00141913,0.000562356,1.45463,0.000825195,0.0120451,1714,540,7.21315,6.25864
497,484,7.20361,-5.98999,0.000562667,0.00145518,0.000272871,0.001532,0.000485852,1.29639,0.000904001,0.0129917,1721,540,7.20361,5.98999
504,484,7.21191,-5.69275,0.000216621,0.00232027,0.000551519,0.00245609,8.07971e-05,1.32933,0.00161114,0.0152884,1728,540,7.21188,5.69275
511,484,7.21191,-5.39429,-0.000313012,0.00307828,0.000770219,0.00324501,-0.000479744,1.35761,0.00233971,0.0174531,1735,540,7.21188,5.39431
518,484,7.19922,-5.11078,-0.00120764,0.00419235,0.00089547,0.00433697,-0.00135226,1.41068,0.00343205,0.0145565,1742,540,7.19917,5.11076
525,484,7.2041,-4.82196,-0.00232664,0.00579371,0.00113641,0.00594975,-0.00248268,1.43434,0.00500376,0.0123427,1749,540,7.20405,4.82194
532,484,7.22351,-4.51654,-0.00361868,0.00809095,0.00162008,0.00831096,-0.00383869,1.43582,0.00717126,0.0148665,1756,540,7.22347,4.51656
539,484,7.19873,-4.19769,-0.00495304,0.0110664,0.0024482,0.0114322,-0.00531883,1.42248,0.00988356,0.0229991,1763,540,7.19878,4.19769
546,484,7.06641,-3.9502,-0.00624131,0.0147004,0.00368614,0.0153303,-0.00687119,1.40155,0.0131245,0.0251439,1770,540,7.06637,3.95019
553,484,6.86365,-3.26202,-0.00751906,0.0190201,0.00526061,0.0200248,-0.00852378,1.38208,0.0169225,0.0369685,1777,540,6.8636,3.26202
560,484,6.73975,-2.62726,0,0,0,0,0,0,0,-1,1784,540,6.73974,2.62726
567,484,7.78223,-1.38312,0,0,0,0,0,0,0,-1,1791,540,7.78224,1.38311
574,484,5.74463,1.50922,0,0,0,0,0,0,0,-1,1798,540,5.74463,-1.50924
581,484,10.34,2.9491,0,0,0,0,0,0,0,-1,1805,540,10.34,-2.94912
588,484,10.6669,2.88568,0,0,0,0,0,0,0,-1,1812,540,10.6669,-2.88567
595,484,10.7233,1.04767,0,0,0,0,0,0,0,-1,1819,540,10.7233,-1.04766
602,484,0,0,0,0,0,0,0,0,0,-1,1826,540,0,0
609,484,0,0,0,0,0,0,0,0,0,-1,1833,540,0,0
616,484,0,0,0,0,0,0,0,0,0,-1,1840,540,0,0
623,484,0,0,0,0,0,0,0,0,0,-1,1847,540,0,0
630,484,0,0,0,0,0,0,0,0,0,-1,1854,540,0,0
637,484,0,0,0,0,0,0,0,0,0,-1,1861,540,0,0
644,484,0,0,0,0,0,0,0,0,0,-1,1868,540,0,0
651,484,0,0,0,0,0,0,0,0,0,-1,1875,540,0,0
658,484,0,0,0,0,0,0,0,0,0,-1,1882,540,0,0
665,484,0,0,0,0,0,0,0,0,0,-1,1889,540,0,0
672,484,0,0,0,0,0,0,0,0,0,-1,1896,540,0,0
679,484,0,0,0,0,0,0,0,0,0,-1,1903,540,0,0
686,484,0,0,0,0,0,0,0,0,0,-1,1910,540,0,0
693,484,0,0,0,0,0,0,0,0,0,-1,1917,540,0,0
700,484,0,0,0,0,0,0,0,0,0,-1,1924,540,0,0
707,484,0,0,0,0,0,0,0,0,0,-1,1931,540,0,0
714,484,0,0,0,0,0,0,0,0,0,-1,1938,540,0,0
721,484,0,0,0,0,0,0,0,0,0,-1,1945,540,0,0
728,484,0,0,0,0,0,0,0,0,0,-1,1952,540,0,0
735,484,0,0,0,0,0,0,0,0,0,-1,1959,540,0,0
742,484,0,0,0,0,0,0,0,0,0,-1,1966,540,0,0
749,484,0,0,0,0,0,0,0,0,0,-1,1973,540,0,0
756,484,0,0,0,0,0,0,0,0,0,-1,1980,540,0,0
763,484,0,0,0,0,0,0,0,0,0,-1,1987,540,0,0
770,484,0,0,0,0,0,0,0,0,0,-1,1994,540,0,0
777,484,0,0,0,0,0,0,0,0,0,-1,2001,540,0,0
784,484,0,0,0,0,0,0,0,0,0,-1,2008,540,0,0
791,484,0,0,0,0,0,0,0,0,0,-1,2015,540,0,0
798,484,0,0,0,0,0,0,0,0,0,-1,2022,540,0,0
805,484,0,0,0,0,0,0,0,0,0,-1,2029,540,0,0
812,484,0,0,0,0,0,0,0,0,0,-1,2036,540,0,0
-700,477,0,0,0,0,0,0,0,0,0,-1,524,547,0,0
-693,477,0,0,0,0,0,0,0,0,0,-1,531,547,0,0
-686,477,0,0,0,0,0,0,0,0,0,-1,538,547,0,0
-679,477,0,0,0,0,0,0,0,0,0,-1,545,547,0,0
-672,477,0,0,0,0,0,0,0,0,0,-1,552,547,0,0
-665,477,0,0,0,0,0,0,0,0,0,-1,559,547,0,0
-658,477,0,0,0,0,0,0,0,0,0,-1,566,547,0,0
-651,477,0,0,0,0,0,0,0,0,0,-1,573,547,0,0
-644,477,0,0,0,0,0,0,0,0,0,-1,580,547,0,0
-637,477,0,0,0,0,0,0,0,0,0,-1,587,547,0,0
-630,477,0,0,0,0,0,0,0,0,0,-1,594,547,0,0
-623,477,0,0,0,0,0,0,0,0,0,-1,601,547,0,0
-616,477,0,0,0,0,0,0,0,0,0,-1,608,547,0,0
-609,477,0,0,0,0,0,0,0,0,0,-1,615,547,0,0
-602,477,0,0,0,0,0,0,0,0,0,-1,622,547,0,0
-595,477,0,0,0,0,0,0,0,0,0,-1,629,547,0,0
-588,477,0,0,0,0,0,0,0,0,0,-1,636,547,0,0
-581,477,0,0,0,0,0,0,0,0,0,-1,643,547,0,0
-574,477,0,0,0,0,0,0,0,0,0,-1,650,547,0,0
-567,477,0,0,0,0,0,0,0,0,0,-1,657,547,0,0
-560,477,0,0,0,0,0,0,0,0,0,-1,664,547,0,0
-553,477,0,0,0,0,0,0,0,0,0,-1,671,547,0,0
-546,477,0,0,0,0,0,0,0,0,0,-1,678,547,0,0
-539,477,0,0,0,0,0,0,0,0,0,-1,685,547,0,0
-532,477,0,0,0,0,0,0,0,0,0,-1,692,547,0,0
-525,477,0,0,0,0,0,0,0,0,0,-1,699,547,0,0
-518,477,0,0,0,0,0,0,0,0,0,-1,706,547,0,0
-511,477,0,0,0,0,0,0,0,0,0,-1,713,547,0,0
-504,477,0,0,0,0,0,0,0,0,0,-1,720,547,0,0
-497,477,0,0,0,0,0,0,0,0,0,-1,727,547,0,0
-490,477,0,0,0,0,0,0,0,0,0,-1,734,547,0,0
-483,477,-7.73151,-0.224182,0,0,0,0,0,0,0,-1,741,547,-7.73152,0.224176
-476,477,-6.25806,-0.310547,0,0,0,0,0,0,0,-1,748,547,-6.25804,0.310549
-469,477,-7.26617,0.525085,0,0,0,0,0,0,0,-1,755,547,-7.2662,-0.525111
-462,477,-6.65143,1.06042,0,0,0,0,0,0,0,-1,762,547,-6.65143,-1.06043
-455,477,-5.31757,0.429016,0,0,0,0,0,0,0,-1,769,547,-5.31756,-0.42902
-448,477,-3.77142,-0.38324,0,0,0,0,0,0,0,-1,776,547,-3.77141,0.38322
-441,477,-1.89709,-4.51685,0,0,0,0,0,0,0,-1,783,547,-1.89708,4.51684
-434,477,-1.78339,-4.85846,0.00333551,0.0029871,-0.0161774,0.0193397,-0.0130171,-0.780014,0.0187997,0.0443431,790,547,-1.78339,4.85846
-427,477,-1.70618,-5.15942,0.00310467,0.0030605,-0.012266,0.0153486,-0.00918346,-0.784498,0.0143119,0.0250123,797,547,-1.70617,5.15945
-420,477,-1.74921,-5.37793,0.00283606,0.00270665,-0.00915105,0.0119226,-0.00637993,-0.781863,0.0107273,0.0212539,804,547,-1.74921,5.37793
-413,477,-1.73328,-5.75159,0.00248209,0.00216593,-0.00670605,0.00903192,-0.0043839,-0.773614,0.00789907,0.0161723,811,547,-1.7333,5.75158
-406,477,-1.7359,-6.05548,0.00207413,0.00165744,-0.00479912,0.00666943,-0.00293785,-0.763705,0.00568452,0.0106879,818,547,-1.7359,6.05547
-399,477,-1.74628,-6.3429,0.00170924,0.00110843,-0.00328643,0.00470897,-0.0018913,-0.739821,0.0039247,0.0185401,825,547,-1.74629,6.34287
-392,477,-1.77594,-6.6264,0.00128618,0.000341184,-0.00202408,0.00289218,-0.00126481,-0.670732,0.00246058,0.0171165,832,547,-1.77593,6.62637
-385,477,-1.74719,-6.87048,0.000878784,-8.93204e-05,-0.000995014,0.00150124,-0.000711776,-0.559013,0.0013045,0.0144713,839,547,-1.74717,6.87046
-378,477,-1.7442,-7.15186,0.000500057,-0.000889184,-0.000547001,0.000689579,-0.00107871,-0.333531,0.00102913,0.012889,846,547,-1.74419,7.15184
-371,477,-1.75421,-7.40619,0.000127958,-0.00170437,-0.000292202,0.000173427,-0.00174984,-0.154371,0.00122846,0.0127094,853,547,-1.75423,7.40619
-364,477,-1.771,-7.65393,-0.000287949,-0.00240525,-0.00018029,-0.000272707,-0.00242049,-0.0843417,0.00153088,0.0126547,860,547,-1.77097,7.65396
-357,477,-1.77911,-7.93451,-0.00067915,-0.00314653,-0.000246668,-0.000654732,-0.00317095,-0.0986706,0.00193304,0.0102745,867,547,-1.77913,7.93449
-350,477,-1.77325,-8.19977,-0.00102256,-0.00378241,-0.000568871,-0.000909897,-0.00389507,-0.19551,0.00235281,0.00994261,874,547,-1.77323,8.19979
-343,477,-1.68121,-8.47186,-0.00146129,-0.00458309,-0.00103171,-0.00115114,-0.00489324,-0.292026,0.00295418,0.0187617,881,547,-1.68122,8.47184
-336,477,-2.14154,-8.93292,0,0,0,0,0,0,0,-1,888,547,-2.14152,8.93293
-329,477,-2.10608,-9.21326,0,0,0,0,0,0,0,-1,895,547,-2.10607,9.21328
-322,477,-1.58191,-9.50745,0,0,0,0,0,0,0,-1,902,547,-1.58191,9.50742
-315,477,-1.67358,-9.15253,0,0,0,0,0,0,0,-1,909,547,-1.67356,9.15253
-308,477,-1.30127,-6.55188,0,0,0,0,0,0,0,-1,916,547,-1.30128,6.55185
-301,477,-1.21185,-6.28351,0,0,0,0,0,0,0,-1,923,547,-1.21184,6.28352
-294,477,-0.352905,3.27142,0,0,0,0,0,0,0,-1,930,547,-0.35292,-3.27144
-287,477,3.54364,2.15399,0,0,0,0,0,0,0,-1,937,547,3.54362,-2.15396
-280,477,1.97308,-0.954163,0,0,0,0,0,0,0,-1,944,547,1.9731,0.954178
-273,477,2.11621,-3.76709,0,0,0,0,0,0,0,-1,951,547,2.11619,3.76706
-266,477,2.04669,-3.42389,0,0,0,0,0,0,0,-1,958,547,2.04671,3.42391
-259,477,-1.33478,-3.41205,0,0,0,0,0,0,0,-1,965,547,-1.3348,3.41206
-252,477,0.597168,-5.32922,0,0,0,0,0,0,0,-1,972,547,0.597144,5.32924
-245,477,8.2309,-8.48492,0,0,0,0,0,0,0,-1,979,547,8.23091,8.48494
-238,477,6.60938,-5.64063,-0.113834,-0.315856,0.0686888,-0.0926917,-0.336998,0.298593,0.201022,0.0457936,986,547,6.60938,5.64063
-231,477,4.71716,-2.52484,-0.11451,-0.332928,0.0736715,-0.0919844,-0.355454,0.296735,0.213033,0.0478612,993,547,4.71716,2.52483
-224,477,0,0,0,0,0,0,0,0,0,-1,1000,547,0,0
-217,477,0,0,0,0,0,0,0,0,0,-1,1007,547,0,0
-210,477,0,0,0,0,0,0,0,0,0,-1,1014,547,0,0
-203,477,0,0,0,0,0,0,0,0,0,-1,1021,547,0,0
-196,477,0,0,0,0,0,0,0,0,0,-1,1028,547,0,0
-189,477,0,0,0,0,0,0,0,0,0,-1,1035,547,0,0
-182,477,0,0,0,0,0,0,0,0,0,-1,1042,547,0,0
-175,477,0,0,0,0,0,0,0,0,0,-1,1049,547,0,0
-168,477,0,0,0,0,0,0,0,0,0,-1,1056,547,0,0
-161,477,0,0,0,0,0,0,0,0,0,-1,1063,547,0,0
-154,477,0,0,0,0,0,0,0,0,0,-1,1070,547,0,0
-147,477,0,0,0,0,0,0,0,0,0,-1,1077,547,0,0
-140,477,0,0,0,0,0,0,0,0,0,-1,1084,547,0,0
-133,477,0,0,0,0,0,0,0,0,0,-1,1091,547,0,0
-126,477,0,0,0,0,0,0,0,0,0,-1,1098,547,0,0
-119,477,0,0,0,0,0,0,0,0,0,-1,1105,547,0,0
-112,477,0,0,0,0,0,0,0,0,0,-1,1112,547,0,0
-105,477,0,0,0,0,0,0,0,0,0,-1,1119,547,0,0
-98,477,0,0,0,0,0,0,0,0,0,-1,1126,547,0,0
-91,477,0,0,0,0,0,0,0,0,0,-1,1133,547,0,0
-84,477,0,0,0,0,0,0,0,0,0,-1,1140,547,0,0
-77,477,0,0,0,0,0,0,0,0,0,-1,1147,547,0,0
-70,477,0,0,0,0,0,0,0,0,0,-1,1154,547,0,0
-63,477,0,0,0,0,0,0,0,0,0,-1,1161,547,0,0
-56,477,0,0,0,0,0,0,0,0,0,-1,1168,547,0,0
-49,477,0,0,0,0,0,0,0,0,0,-1,1175,547,0,0
-42,477,0,0,0,0,0,0,0,0,0,-1,1182,547,0,0
-35,477,0,0,0,0,0,0,0,0,0,-1,1189,547,0,0
-28,477,0,0,0,0,0,0,0,0,0,-1,1196,547,0,0
-21,477,0,0,0,0,0,0,0,0,0,-1,1203,547,0,0
-14,477,0,0,0,0,0,0,0,0,0,-1,1210,547,0,0
-7,477,0,0,0,0,0,0,0,0,0,-1,1217,547,0,0
0,477,0,0,0,0,0,0,0,0,0,-1,1224,547,0,0
7,477,0,0,0,0,0,0,0,0,0,-1,1231,547,0,0
14,477,0,0,0,0,0,0,0,0,0,-1,1238,547,0,0
21,477,0,0,0,0,0,0,0,0,0,-1,1245,547,0,0
28,477,0,0,0,0,0,0,0,0,0,-1,1252,547,0,0
35,477,0,0,0,0,0,0,0,0,0,-1,1259,547,0,0
42,477,0,0,0,0,0,0,0,0,0,-1,1266,547,0,0
49,477,0,0,0,0,0,0,0,0,0,-1,1273,547,0,0
56,477,0,0,0,0,0,0,0,0,0,-1,1280,547,0,0
63,477,0,0,0,0,0,0,0,0,0,-1,1287,547,0,0
70,477,0,0,0,0,0,0,0,0,0,-1,1294,547,0,0
77,477,0,0,0,0,0,0,0,0,0,-1,1301,547,0,0
84,477,0,0,0,0,0,0,0,0,0,-1,1308,547,0,0
91,477,0,0,0,0,0,0,0,0,0,-1,1315,547,0,0
98,477,0,0,0,0,0,0,0,0,0,-1,1322,547,0,0
105,477,0,0,0,0,0,0,0,0,0,-1,1329,547,0,0
112,477,0,0,0,0,0,0,0,0,0,-1,1336,547,0,0
119,477,0,0,0,0,0,0,0,0,0,-1,1343,547,0,0
126,477,0,0,0,0,0,0,0,0,0,-1,1350,547,0,0
133,477,0,0,0,0,0,0,0,0,0,-1,1357,547,0,0
140,477,0,0,0,0,0,0,0,0,0,-1,1364,547,0,0
147,477,0,0,0,0,0,0,0,0,0,-1,1371,547,0,0
154,477,0,0,0,0,0,0,0,0,0,-1,1378,547,0,0
161,477,0,0,0,0,0,0,0,0,0,-1,1385,547,0,0
168,477,0,0,0,0,0,0,0,0,0,-1,1392,547,0,0
175,477,0,0,0,0,0,0,0,0,0,-1,1399,547,0,0
182,477,0,0,0,0,0,0,0,0,0,-1,1406,547,0,0
189,477,0,0,0,0,0,0,0,0,0,-1,1413,547,0,0
196,477,0,0,0,0,0,0,0,0,0,-1,1420,547,0,0
203,477,0,0,0,0,0,0,0,0,0,-1,1427,547,0,0
210,477,0,0,0,0,0,0,0,0,0,-1,1434,547,0,0
217,477,0,0,0,0,0,0,0,0,0,-1,1441,547,0,0
224,477,0,0,0,0,0,0,0,0,0,-1,1448,547,0,0
231,477,0,0,0,0,0,0,0,0,0,-1,1455,547,0,0
238,477,0,0,0,0,0,0,0,0,0,-1,1462,547,0,0
245,477,0,0,0,0,0,0,0,0,0,-1,1469,547,0,0
252,477,0,0,0,0,0,0,0,0,0,-1,1476,547,0,0
259,477,0,0,0,0,0,0,0,0,0,-1,1483,547,0,0
266,477,0,0,0,0,0,0,0,0,0,-1,1490,547,0,0
273,477,0,0,0,0,0,0,0,0,0,-1,1497,547,0,0
280,477,0,0,0,0,0,0,0,0,0,-1,1504,547,0,0
287,477,0,0,0,0,0,0,0,0,0,-1,1511,547,0,0
294,477,0,0,0,0,0,0,0,0,0,-1,1518,547,0,0
301,477,0,0,0,0,0,0,0,0,0,-1,1525,547,0,0
308,477,0,0,0,0,0,0,0,0,0,-1,1532,547,0,0
315,477,0,0,0,0,0,0,0,0,0,-1,1539,547,0,0
322,477,0,0,0,0,0,0,0,0,0,-1,1546,547,0,0
329,477,0,0,0,0,0,0,0,0,0,-1,1553,547,0,0
336,477,0,0,0,0,0,0,0,0,0,-1,1560,547,0,0
343,477,0,0,0,0,0,0,0,0,0,-1,1567,547,0,0
350,477,1.7699,-3.32275,0,0,0,0,0,0,0,-1,1574,547,1.7699,3.32272
357,477,3.073,-4.83313,0,0,0,0,0,0,0,-1,1581,547,3.07303,4.83316
364,477,4.30127,-4.22864,0,0,0,0,0,0,0,-1,1588,547,4.30125,4.22865
371,477,4.57703,0.283264,0,0,0,0,0,0,0,-1,1595,547,4.57706,-0.283262
378,477,8.57947,1.05969,0,0,0,0,0,0,0,-1,1602,547,8.5795,-1.05972
385,477,12.3726,2.02356,0,0,0,0,0,0,0,-1,1609,547,12.3725,-2.02355
392,477,16.4678,2.76843,0,0,0,0,0,0,0,-1,1616,547,16.4678,-2.76845
399,477,8.00037,-2.29523,0,0,0,0,0,0,0,-1,1623,547,8.00031,2.2952
406,477,4.82495,2.7475,0,0,0,0,0,0,0,-1,1630,547,4.825,-2.74752
413,477,4.88171,-0.336426,0,0,0,0,0,0,0,-1,1637,547,4.88169,0.336398
420,477,3.34875,0.102722,0,0,0,0,0,0,0,-1,1644,547,3.34871,-0.1027
427,477,1.66772,-0.373108,0,0,0,0,0,0,0,-1,1651,547,1.66768,0.373104
434,477,3.76978,-2.30798,0,0,0,0,0,0,0,-1,1658,547,3.76974,2.30801
441,477,4.05444,-2.80402,0,0,0,0,0,0,0,-1,1665,547,4.05444,2.804
448,477,7.44934,-7.74176,0,0,0,0,0,0,0,-1,1672,547,7.44934,7.74175
455,477,7.79517,-7.57648,-0.00499659,0.00153188,-0.00517353,0.00438489,-0.0078496,-1.06683,0.00715737,0.0494475,1679,547,7.79513,7.5765
462,477,7.54297,-7.4408,-0.00306884,0.00199517,-0.00331422,0.00363391,-0.00470757,-1.11159,0.00482923,0.0365094,1686,547,7.543,7.44082
469,477,7.54199,-7.0813,-0.00159571,0.00205405,-0.00207041,0.00298902,-0.00253068,-1.14662,0.00319046,0.0230525,1693,547,7.54205,7.08128
476,477,7.51672,-6.81207,-0.000405588,0.002096,-0.00102671,0.00246342,-0.000773012,-1.22713,0.00195167,0.0179024,1700,547,7.51676,6.81205
483,477,7.52637,-6.53107,0.000448821,0.00200558,-0.000167737,0.00202345,0.000430953,-1.46467,0.00123073,0.0119581,1707,547,7.52632,6.53108
490,477,7.50378,-6.26544,0.000972296,0.00197095,0.000400082,0.00211146,0.000831784,1.23305,0.00122816,0.0120364,1714,547,7.5038,6.26546
497,477,7.49829,-5.9704,0.000958498,0.0017234,0.000549845,0.00201072,0.000671175,1.08927,0.00118208,0.0134266,1721,547,7.49829,5.97037
504,477,7.50757,-5.67505,0.000565604,0.00201229,0.000692051,0.00229003,0.000287868,1.18915,0.00144035,0.0176599,1728,547,7.5076,5.67506
511,477,7.55957,-5.41943,1.92667e-05,0.00235442,0.000864947,0.0026399,-0.000266211,1.252,0.00185505,0.0222884,1735,547,7.55956,5.41946
518,477,7.53528,-5.11237,-0.000892845,0.0029796,0.000869224,0.00316576,-0.001079,1.35982,0.00254752,0.0199146,1742,547,7.53531,5.1124
525,477,7.50684,-4.79065,-0.00199103,0.00401873,0.000949184,0.00416508,-0.00213738,1.41782,0.00370097,0.0164889,1749,547,7.50679,4.79068
532,477,7.47131,-4.51471,-0.00319164,0.0056306,0.00122331,0.00579708,-0.00335812,1.43553,0.00534792,0.0185955,1756,547,7.47131,4.51471
539,477,7.47766,-4.1687,-0.00437031,0.0076835,0.00174093,0.0079299,-0.00461672,1.43019,0.0073275,0.0163667,1763,547,7.47762,4.16871
546,477,7.4679,-3.89398,-0.00543137,0.0102258,0.00260024,0.0106463,-0.0058519,1.41045,0.0096584,0.0205891,1770,547,7.46786,3.89401
553,477,7.27454,-3.76459,0,0,0,0,0,0,0,-1,1777,547,7.27448,3.7646
560,477,7.41333,-3.1604,0,0,0,0,0,0,0,-1,1784,547,7.41328,3.16038
567,477,7.41833,-2.70294,0,0,0,0,0,0,0,-1,1791,547,7.41838,2.70293
574,477,6.82593,-0.916992,0,0,0,0,0,0,0,-1,1798,547,6.82598,0.916977
581,477,9.29321,-0.557007,0,0,0,0,0,0,0,-1,1805,547,9.29324,0.55703
588,477,9.75195,0.422729,0,0,0,0,0,0,0,-1,1812,547,9.75198,-0.42273
595,477,9.89172,1.21326,0,0,0,0,0,0,0,-1,1819,547,9.89174,-1.21328
602,477,6.5271,-0.964417,0,0,0,0,0,0,0,-1,1826,547,6.52706,0.964427
609,477,0,0,0,0,0,0,0,0,0,-1,1833,547,0,0
616,477,0,0,0,0,0,0,0,0,0,-1,1840,547,0,0
623,477,0,0,0,0,0,0,0,0,0,-1,1847,547,0,0
630,477,0,0,0,0,0,0,0,0,0,-1,1854,547,0,0
637,477,0,0,0,0,0,0,0,0,0,-1,1861,547,0,0
644,477,0,0,0,0,0,0,0,0,0,-1,1868,547,0,0
651,477,0,0,0,0,0,0,0,0,0,-1,1875,547,0,0
658,477,0,0,0,0,0,0,0,0,0,-1,1882,547,0,0
665,477,0,0,0,0,0,0,0,0,0,-1,1889,547,0,0
672,477,0,0,0,0,0,0,0,0,0,-1,1896,547,0,0
679,477,0,0,0,0,0,0,0,0,0,-1,1903,547,0,0
686,477,0,0,0,0,0,0,0,0,0,-1,1910,547,0,0
693,477,0,0,0,0,0,0,0,0,0,-1,1917,547,0,0
700,477,0,0,0,0,0,0,0,0,0,-1,1924,547,0,0
707,477,0,0,0,0,0,0,0,0,0,-1,1931,547,0,0
714,477,0,0,0,0,0,0,0,0,0,-1,1938,547,0,0
721,477,0,0,0,0,0,0,0,0,0,-1,1945,547,0,0
728,477,0,0,0,0,0,0,0,0,0,-1,1952,547,0,0
735,477,0,0,0,0,0,0,0,0,0,-1,1959,547,0,0
742,477,0,0,0,0,0,0,0,0,0,-1,1966,547,0,0
749,477,0,0,0,0,0,0,0,0,0,-1,1973,547,0,0
756,477,0,0,0,0,0,0,0,0,0,-1,1980,547,0,0
763,477,0,0,0,0,0,0,0,0,0,-1,1987,547,0,0
770,477,0,0,0,0,0,0,0,0,0,-1,1994,547,0,0
777,477,0,0,0,0,0,0,0,0,0,-1,2001,547,0,0
784,477,0,0,0,0,0,0,0,0,0,-1,2008,547,0,0
791,477,0,0,0,0,0,0,0,0,0,-1,2015,547,0,0
798,477,0,0,0,0,0,0,0,0,0,-1,2022,547,0,0
805,477,0,0,0,0,0,0,0,0,0,-1,2029,547,0,0
812,477,0,0,0,0,0,0,0,0,0,-1,2036,547,0,0
-700,470,0,0,0,0,0,0,0,0,0,-1,524,554,0,0
-693,470,0,0,0,0,0,0,0,0,0,-1,531,554,0,0
-686,470,0,0,0,0,0,0,0,0,0,-1,538,554,0,0
-679,470,0,0,0,0,0,0,0,0,0,-1,545,554,0,0
-672,470,0,0,0,0,0,0,0,0,0,-1,552,554,0,0
-665,470,0,0,0,0,0,0,0,0,0,-1,559,554,0,0
-658,470,0,0,0,0,0,0,0,0,0,-1,566,554,0,0
-651,470,0,0,0,0,0,0,0,0,0,-1,573,554,0,0
-644,470,0,0,0,0,0,0,0,0,0,-1,580,554,0,0
-637,470,0,0,0,0,0,0,0,0,0,-1,587,554,0,0
-630,470,0,0,0,0,0,0,0,0,0,-1,594,554,0,0
-623,470,0,0,0,0,0,0,0,0,0,-1,601,554,0,0
-616,470,0,0,0,0,0,0,0,0,0,-1,608,554,0,0
-609,470,0,0,0,0,0,0,0,0,0,-1,615,554,0,0
-602,470,0,0,0,0,0,0,0,0,0,-1,622,554,0,0
-595,470,0,0,0,0,0,0,0,0,0,-1,629,554,0,0
-588,470,0,0,0,0,0,0,0,0,0,-1,636,554,0,0
-581,470,0,0,0,0,0,0,0,0,0,-1,643,554,0,0
-574,470,0,0,0,0,0,0,0,0,0,-1,650,554,0,0
-567,470,0,0,0,0,0,0,0,0,0,-1,657,554,0,0
-560,470,0,0,0,0,0,0,0,0,0,-1,664,554,0,0
-553,470,0,0,0,0,0,0,0,0,0,-1,671,554,0,0
-546,470,0,0,0,0,0,0,0,0,0,-1,678,554,0,0
-539,470,0,0,0,0,0,0,0,0,0,-1,685,554,0,0
-532,470,0,0,0,0,0,0,0,0,0,-1,692,554,0,0
-525,470,0,0,0,0,0,0,0,0,0,-1,699,554,0,0
-518,470,0,0,0,0,0,0,0,0,0,-1,706,554,0,0
-511,470,0,0,0,0,0,0,0,0,0,-1,713,554,0,0
-504,470,0,0,0,0,0,0,0,0,0,-1,720,554,0,0
-497,470,0,0,0,0,0,0,0,0,0,-1,727,554,0,0
-490,470,-9.13263,-1.03125,0,0,0,0,0,0,0,-1,734,554,-9.1326,1.03127
-483,470,-7.68677,-1.03955,0,0,0,0,0,0,0,-1,741,554,-7.68678,1.03958
-476,470,-6.17969,-1.03394,0,0,0,0,0,0,0,-1,748,554,-6.17971,1.03395
-469,470,-6.23016,-0.651855,0,0,0,0,0,0,0,-1,755,554,-6.23014,0.651829
-462,470,-4.87915,-1.03705,0,0,0,0,0,0,0,-1,762,554,-4.87914,1.03702
-455,470,-3.55457,-1.53186,0,0,0,0,0,0,0,-1,769,554,-3.55456,1.53187
-448,470,-2.46844,-3.79291,0,0,0,0,0,0,0,-1,776,554,-2.46844,3.79293
-441,470,-2.02539,-4.62878,0.00333372,0.00396936,-0.0155904,0.0192452,-0.0119421,-0.79559,0.0181699,0.0484136,783,554,-2.0254,4.62881
-434,470,-1.93024,-4.96997,0.00285277,0.003671,-0.0120161,0.0152849,-0.00876116,-0.802415,0.0140523,0.0269919,790,554,-1.93021,4.96999
-427,470,-2.02374,-5.19293,0.00250574,0.00333213,-0.00917738,0.0121056,-0.00626774,-0.807894,0.0107849,0.0133756,797,554,-2.02377,5.19295
-420,470,-2.01349,-5.49854,0.00222364,0.00281496,-0.00688328,0.00940893,-0.00437033,-0.806862,0.00813081,0.0119921,804,554,-2.01347,5.49852
-413,470,-2.01935,-5.79803,0.00185856,0.00219155,-0.00502238,0.00705019,-0.00300008,-0.801967,0.00595751,0.0117607,811,554,-2.01933,5.79802
-406,470,-2.0235,-6.05298,0.00150421,0.00164271,-0.00352777,0.00510191,-0.00195498,-0.795212,0.00420717,0.0100417,818,554,-2.0235,6.05296
-399,470,-2.00659,-6.33752,0.00119035,0.00103055,-0.00228308,0.00339492,-0.00117403,-0.767907,0.0027398,0.0137365,825,554,-2.0066,6.33753
-392,470,-2.01642,-6.63025,0.000761203,0.000124291,-0.00121198,0.00169587,-0.000810373,-0.656924,0.00147678,0.0139333,832,554,-2.01643,6.63027
-385,470,-2.00128,-6.86432,0.000249472,-0.000480568,-0.000399753,0.000425785,-0.000656881,-0.415391,0.000629806,0.0109826,839,554,-2.0013,6.8643
-378,470,-1.99646,-7.14813,-0.000169919,-0.00137129,5.65818e-06,-0.000169893,-0.00137132,0.00470963,0.000863172,0.0151352,846,554,-1.99645,7.14811
-371,470,-2.01721,-7.40546,-0.000602753,-0.00228901,0.000205385,-0.000578098,-0.00231367,0.119473,0.0013904,0.0132317,853,554,-2.01723,7.40545
-364,470,-2.01898,-7.64716,-0.00112293,-0.00321536,0.000277813,-0.00108667,-0.00325161,0.129776,0.00191142,0.013437,860,554,-2.01901,7.64716
-357,470,-2.03137,-7.91107,-0.00165336,-0.00423176,0.000135663,-0.00164625,-0.00423887,0.0524224,0.00246756,0.013002,867,554,-2.03136,7.91106
-350,470,-2.01831,-8.19904,-0.00220754,-0.00524154,-0.000264682,-0.00218462,-0.00526446,-0.0863691,0.00305405,0.0101432,874,554,-2.01828,8.19906
-343,470,-1.92822,-8.48163,-0.00293605,-0.00654844,-0.000857955,-0.00274264,-0.00674185,-0.221727,0.00391488,0.0244014,881,554,-1.92825,8.48164
-336,470,-2.14685,-8.68256,-0.00373582,-0.00787304,-0.00157763,-0.00320287,-0.00840598,-0.325775,0.00489878,0.038193,888,554,-2.14688,8.68254
-329,470,-2.04315,-8.72504,0,0,0,0,0,0,0,-1,895,554,-2.04314,8.72503
-322,470,-1.76782,-8.82794,0,0,0,0,0,0,0,-1,902,554,-1.7678,8.82792
-315,470,-1.04797,-8.29529,0,0,0,0,0,0,0,-1,909,554,-1.04797,8.29526
-308,470,-1.39368,-6.68152,0,0,0,0,0,0,0,-1,916,554,-1.39369,6.68149
-301,470,-0.0340576,3.34888,0,0,0,0,0,0,0,-1,923,554,-0.0340496,-3.3489
-294,470,-1.18378,3.22266,0,0,0,0,0,0,0,-1,930,554,-1.18376,-3.22268
-287,470,-2.15454,3.2204,0,0,0,0,0,0,0,-1,937,554,-2.15452,-3.22037
-280,470,-3.00537,3.099,0,0,0,0,0,0,0,-1,944,554,-3.00536,-3.09898
-273,470,-12.3932,3.65009,0,0,0,0,0,0,0,-1,951,554,-12.3932,-3.65011
-266,470,-9.78772,1.09131,0,0,0,0,0,0,0,-1,958,554,-9.7877,-1.09132
-259,470,-6.93353,-1.54871,0,0,0,0,0,0,0,-1,965,554,-6.93355,1.54868
-252,470,-0.144348,-5.13593,0,0,0,0,0,0,0,-1,972,554,-0.144336,5.13594
-245,470,1.33221,-6.81122,0,0,0,0,0,0,0,-1,979,554,1.33223,6.8112
-238,470,0,0,0,0,0,0,0,0,0,-1,986,554,0,0
-231,470,0,0,0,0,0,0,0,0,0,-1,993,554,0,0
-224,470,0,0,0,0,0,0,0,0,0,-1,1000,554,0,0
-217,470,0,0,0,0,0,0,0,0,0,-1,1007,554,0,0
-210,470,0,0,0,0,0,0,0,0,0,-1,1014,554,0,0
-203,470,0,0,0,0,0,0,0,0,0,-1,1021,554,0,0
-196,470,0,0,0,0,0,0,0,0,0,-1,1028,554,0,0
-189,470,0,0,0,0,0,0,0,0,0,-1,1035,554,0,0
-182,470,0,0,0,0,0,0,0,0,0,-1,1042,554,0,0
-175,470,0,0,0,0,0,0,0,0,0,-1,1049,554,0,0
-168,470,0,0,0,0,0,0,0,0,0,-1,1056,554,0,0
-161,470,0,0,0,0,0,0,0,0,0,-1,1063,554,0,0
-154,470,0,0,0,0,0,0,0,0,0,-1,1070,554,0,0
-147,470,0,0,0,0,0,0,0,0,0,-1,1077,554,0,0
-140,470,0,0,0,0,0,0,0,0,0,-1,1084,554,0,0
-133,470,0,0,0,0,0,0,0,0,0,-1,1091,554,0,0
-126,470,0,0,0,0,0,0,0,0,0,-1,1098,554,0,0
-119,470,0,0,0,0,0,0,0,0,0,-1,1105,554,0,0
-112,470,0,0,0,0,0,0,0,0,0,-1,1112,554,0,0
-105,470,0,0,0,0,0,0,0,0,0,-1,1119,554,0,0
-98,470,0,0,0,0,0,0,0,0,0,-1,1126,554,0,0
-91,470,0,0,0,0,0,0,0,0,0,-1,1133,554,0,0
-84,470,0,0,0,0,0,0,0,0,0,-1,1140,554,0,0
-77,470,0,0,0,0,0,0,0,0,0,-1,1147,554,0,0
-70,470,0,0,0,0,0,0,0,0,0,-1,1154,554,0,0
-63,470,0,0,0,0,0,0,0,0,0,-1,1161,554,0,0
-56,470,0,0,0,0,0,0,0,0,0,-1,1168,554,0,0
-49,470,0,0,0,0,0,0,0,0,0,-1,1175,554,0,0
-42,470,0,0,0,0,0,0,0,0,0,-1,1182,554,0,0
-35,470,0,0,0,0,0,0,0,0,0,-1,1189,554,0,0
-28,470,0,0,0,0,0,0,0,0,0,-1,1196,554,0,0
-21,470,0,0,0,0,0,0,0,0,0,-1,1203,554,0,0
-14,470,0,0,0,0,0,0,0,0,0,-1,1210,554,0,0
-7,470,0,0,0,0,0,0,0,0,0,-1,1217,554,0,0
0,470,0,0,0,0,0,0,0,0,0,-1,1224,554,0,0
7,470,0,0,0,0,0,0,0,0,0,-1,1231,554,0,0
14,470,0,0,0,0,0,0,0,0,0,-1,1238,554,0,0
21,470,0,0,0,0,0,0,0,0,0,-1,1245,554,0,0
28,470,0,0,0,0,0,0,0,0,0,-1,1252,554,0,0
35,470,0,0,0,0,0,0,0,0,0,-1,1259,554,0,0
42,470,0,0,0,0,0,0,0,0,0,-1,1266,554,0,0
49,470,0,0,0,0,0,0,0,0,0,-1,1273,554,0,0
56,470,0,0,0,0,0,0,0,0,0,-1,1280,554,0,0
63,470,0,0,0,0,0,0,0,0,0,-1,1287,554,0,0
70,470,0,0,0,0,0,0,0,0,0,-1,1294,554,0,0
77,470,0,0,0,0,0,0,0,0,0,-1,1301,554,0,0
84,470,0,0,0,0,0,0,0,0,0,-1,1308,554,0,0
91,470,0,0,0,0,0,0,0,0,0,-1,1315,554,0,0
98,470,0,0,0,0,0,0,0,0,0,-1,1322,554,0,0
105,470,0,0,0,0,0,0,0,0,0,-1,1329,554,0,0
112,470,0,0,0,0,0,0,0,0,0,-1,1336,554,0,0
119,470,0,0,0,0,0,0,0,0,0,-1,1343,554,0,0
126,470,0,0,0,0,0,0,0,0,0,-1,1350,554,0,0
133,470,0,0,0,0,0,0,0,0,0,-1,1357,554,0,0
140,470,0,0,0,0,0,0,0,0,0,-1,1364,554,0,0
147,470,0,0,0,0,0,0,0,0,0,-1,1371,554,0,0
154,470,0,0,0,0,0,0,0,0,0,-1,1378,554,0,0
161,470,0,0,0,0,0,0,0,0,0,-1,1385,554,0,0
168,470,0,0,0,0,0,0,0,0,0,-1,1392,554,0,0
175,470,0,0,0,0,0,0,0,0,0,-1,1399,554,0,0
182,470,0,0,0,0,0,0,0,0,0,-1,1406,554,0,0
189,470,0,0,0,0,0,0,0,0,0,-1,1413,554,0,0
196,470,0,0,0,0,0,0,0,0,0,-1,1420,554,0,0
203,470,0,0,0,0,0,0,0,0,0,-1,1427,554,0,0
210,470,0,0,0,0,0,0,0,0,0,-1,1434,554,0,0
217,470,0,0,0,0,0,0,0,0,0,-1,1441,554,0,0
224,470,0,0,0,0,0,0,0,0,0,-1,1448,554,0,0
231,470,0,0,0,0,0,0,0,0,0,-1,1455,554,0,0
238,470,0,0,0,0,0,0,0,0,0,-1,1462,554,0,0
245,470,0,0,0,0,0,0,0,0,0,-1,1469,554,0,0
252,470,0,0,0,0,0,0,0,0,0,-1,1476,554,0,0
259,470,0,0,0,0,0,0,0,0,0,-1,1483,554,0,0
266,470,0,0,0,0,0,0,0,0,0,-1,1490,554,0,0
273,470,0,0,0,0,0,0,0,0,0,-1,1497,554,0,0
280,470,0,0,0,0,0,0,0,0,0,-1,1504,554,0,0
287,470,0,0,0,0,0,0,0,0,0,-1,1511,554,0,0
294,470,0,0,0,0,0,0,0,0,0,-1,1518,554,0,0
301,470,0,0,0,0,0,0,0,0,0,-1,1525,554,0,0
308,470,0,0,0,0,0,0,0,0,0,-1,1532,554,0,0
315,470,0,0,0,0,0,0,0,0,0,-1,1539,554,0,0
322,470,0,0,0,0,0,0,0,0,0,-1,1546,554,0,0
329,470,0,0,0,0,0,0,0,0,0,-1,1553,554,0,0
336,470,0,0,0,0,0,0,0,0,0,-1,1560,554,0,0
343,470,0,0,0,0,0,0,0,0,0,-1,1567,554,0,0
350,470,0,0,0,0,0,0,0,0,0,-1,1574,554,0,0
357,470,0,0,0,0,0,0,0,0,0,-1,1581,554,0,0
364,470,1.33423,0.293335,0,0,0,0,0,0,0,-1,1588,554,1.33422,-0.293348
371,470,2.22498,-0.0305176,0,0,0,0,0,0,0,-1,1595,554,2.22494,0.0305046
378,470,6.27051,0.710083,0,0,0,0,0,0,0,-1,1602,554,6.27054,-0.710093
385,470,10.3657,1.47296,0,0,0,0,0,0,0,-1,1609,554,10.3657,-1.47299
392,470,15.3881,3.01935,0,0,0,0,0,0,0,-1,1616,554,15.388,-3.01937
399,470,18.4479,2.93793,0,0,0,0,0,0,0,-1,1623,554,18.4479,-2.93792
406,470,15.1896,1.36676,0,0,0,0,0,0,0,-1,1630,554,15.1896,-1.36679
413,470,6.55383,1.99207,0,0,0,0,0,0,0,-1,1637,554,6.5538,-1.99208
420,470,4.47095,0.845703,0,0,0,0,0,0,0,-1,1644,554,4.47098,-0.845718
427,470,3.51038,1.19684,0,0,0,0,0,0,0,-1,1651,554,3.51039,-1.19684
434,470,3.31775,-1.37427,0,0,0,0,0,0,0,-1,1658,554,3.31781,1.37426
441,470,2.55457,-2.05902,0,0,0,0,0,0,0,-1,1665,554,2.55461,2.05904
448,470,3.27258,-2.64032,0,0,0,0,0,0,0,-1,1672,554,3.27257,2.64029
455,470,8.505,-7.64087,0,0,0,0,0,0,0,-1,1679,554,8.50506,7.64088
462,470,7.88269,-7.46686,0,0,0,0,0,0,0,-1,1686,554,7.88271,7.46685
469,470,7.70544,-7.16174,0,0,0,0,0,0,0,-1,1693,554,7.70545,7.16177
476,470,7.75439,-6.82208,0.000234993,0.00326335,-0.000544883,0.0033584,0.000139937,-1.39808,0.00219378,0.0335498,1700,554,7.75433,6.82207
483,470,7.80969,-6.5354,0.00130325,0.00298053,0.000487006,0.00311168,0.0011721,1.30774,0.00181465,0.0151411,1707,554,7.80966,6.53538
490,470,7.78259,-6.26837,0.00191021,0.00287563,0.00108321,0.00357882,0.00120702,0.995004,0.00210239,0.0121002,1714,554,7.78259,6.2684
497,470,7.79529,-5.97321,0.00188633,0.00234053,0.0011148,0.00325113,0.000975733,0.88588,0.00192638,0.0121346,1721,554,7.79527,5.97321
504,470,7.82104,-5.67242,0.00143593,0.00203252,0.00102203,0.0027989,0.000669548,0.927387,0.00168762,0.0195619,1728,554,7.82109,5.67242
511,470,7.88831,-5.39832,0.000868689,0.00204436,0.00108914,0.00269418,0.000218875,1.03286,0.00172779,0.0270444,1735,554,7.8883,5.39834
518,470,7.90686,-5.11835,-6.11248e-05,0.00228477,0.000940245,0.00261511,-0.000391463,1.23294,0.00188747,0.0257569,1742,554,7.9069,5.11836
525,470,7.82971,-4.7644,-0.00114266,0.00288538,0.00085567,0.00305962,-0.0013169,1.36992,0.0025927,0.0155476,1749,554,7.82974,4.7644
532,470,7.79529,-4.45459,-0.00226906,0.00395067,0.000937812,0.004089,-0.00240739,1.42435,0.00379235,0.0123906,1756,554,7.79527,4.4546
539,470,7.77808,-4.16498,-0.00332971,0.00527482,0.00119944,0.00543889,-0.00349378,1.43485,0.00519788,0.0142162,1763,554,7.77806,4.165
546,470,7.78223,-3.8772,-0.00423294,0.00699623,0.001775,0.00727012,-0.00450683,1.4177,0.00686154,0.0136694,1770,554,7.78218,3.87721
553,470,7.79993,-3.59351,-0.00510438,0.00896542,0.00244476,0.00937812,-0.00551708,1.40357,0.00869552,0.0122386,1777,554,7.7999,3.59352
560,470,7.80066,-3.27435,-0.00576627,0.0110589,0.00334236,0.0116985,-0.00640592,1.38171,0.0106004,0.018244,1784,554,7.8007,3.27433
567,470,7.75525,-2.9649,-0.00620472,0.0132046,0.00445957,0.0141802,-0.00718033,1.35542,0.0125513,0.0200315,1791,554,7.75521,2.96493
574,470,7.86865,-2.52808,0,0,0,0,0,0,0,-1,1798,554,7.86862,2.52807
581,470,8.24646,-4.06317,0,0,0,0,0,0,0,-1,1805,554,8.24648,4.06318
588,470,11.1803,1.74927,0,0,0,0,0,0,0,-1,1812,554,11.1803,-1.74926
595,470,4.72192,3.44116,0,0,0,0,0,0,0,-1,1819,554,4.72191,-3.44116
602,470,14.4307,2.76141,0,0,0,0,0,0,0,-1,1826,554,14.4306,-2.76139
609,470,20.9181,4.41058,0,0,0,0,0,0,0,-1,1833,554,20.9181,-4.4106
616,470,0,0,0,0,0,0,0,0,0,-1,1840,554,0,0
623,470,0,0,0,0,0,0,0,0,0,-1,1847,554,0,0
630,470,0,0,0,0,0,0,0,0,0,-1,1854,554,0,0
637,470,0,0,0,0,0,0,0,0,0,-1,1861,554,0,0
644,470,0,0,0,0,0,0,0,0,0,-1,1868,554,0,0
651,470,0,0,0,0,0,0,0,0,0,-1,1875,554,0,0
658,470,0,0,0,0,0,0,0,0,0,-1,1882,554,0,0
665,470,0,0,0,0,0,0,0,0,0,-1,1889,554,0,0
672,470,0,0,0,0,0,0,0,0,0,-1,1896,554,0,0
679,470,0,0,0,0,0,0,0,0,0,-1,1903,554,0,0
686,470,0,0,0,0,0,0,0,0,0,-1,1910,554,0,0
693,470,0,0,0,0,0,0,0,0,0,-1,1917,554,0,0
700,470,0,0,0,0,0,0,0,0,0,-1,1924,554,0,0
707,470,0,0,0,0,0,0,0,0,0,-1,1931,554,0,0
714,470,0,0,0,0,0,0,0,0,0,-1,1938,554,0,0
721,470,0,0,0,0,0,0,0,0,0,-1,1945,554,0,0
728,470,0,0,0,0,0,0,0,0,0,-1,1952,554,0,0
735,470,0,0,0,0,0,0,0,0,0,-1,1959,554,0,0
742,470,0,0,0,0,0,0,0,0,0,-1,1966,554,0,0
749,470,0,0,0,0,0,0,0,0,0,-1,1973,554,0,0
756,470,0,0,0,0,0,0,0,0,0,-1,1980,554,0,0
763,470,0,0,0,0,0,0,0,0,0,-1,1987,554,0,0
770,470,0,0,0,0,0,0,0,0,0,-1,1994,554,0,0
777,470,0,0,0,0,0,0,0,0,0,-1,2001,554,0,0
784,470,0,0,0,0,0,0,0,0,0,-1,2008,554,0,0
791,470,0,0,0,0,0,0,0,0,0,-1,2015,554,0,0
798,470,0,0,0,0,0,0,0,0,0,-1,2022,554,0,0
805,470,0,0,0,0,0,0,0,0,0,-1,2029,554,0,0
812,470,0,0,0,0,0,0,0,0,0,-1,2036,554,0,0
-700,463,0,0,0,0,0,0,0,0,0,-1,524,561,0,0
-693,463,0,0,0,0,0,0,0,0,0,-1,531,561,0,0
-686,463,0,0,0,0,0,0,0,0,0,-1,538,561,0,0
-679,463,0,0,0,0,0,0,0,0,0,-1,545,561,0,0
-672,463,0,0,0,0,0,0,0,0,0,-1,552,561,0,0
-665,463,0,0,0,0,0,0,0,0,0,-1,559,561,0,0
-658,463,0,0,0,0,0,0,0,0,0,-1,566,561,0,0
-651,463,0,0,0,0,0,0,0,0,0,-1,573,561,0,0
-644,463,0,0,0,0,0,0,0,0,0,-1,580,561,0,0
-637,463,0,0,0,0,0,0,0,0,0,-1,587,561,0,0
-630,463,0,0,0,0,0,0,0,0,0,-1,594,561,0,0
-623,463,0,0,0,0,0,0,0,0,0,-1,601,561,0,0
-616,463,0,0,0,0,0,0,0,0,0,-1,608,561,0,0
-609,463,0,0,0,0,0,0,0,0,0,-1,615,561,0,0
-602,463,0,0,0,0,0,0,0,0,0,-1,622,561,0,0
-595,463,0,0,0,0,0,0,0,0,0,-1,629,561,0,0
-588,463,0,0,0,0,0,0,0,0,0,-1,636,561,0,0
-581,463,0,0,0,0,0,0,0,0,0,-1,643,561,0,0
-574,463,0,0,0,0,0,0,0,0,0,-1,650,561,0,0
-567,463,0,0,0,0,0,0,0,0,0,-1,657,561,0,0
-560,463,0,0,0,0,0,0,0,0,0,-1,664,561,0,0
-553,463,0,0,0,0,0,0,0,0,0,-1,671,561,0,0
-546,463,0,0,0,0,0,0,0,0,0,-1,678,561,0,0
-539,463,0,0,0,0,0,0,0,0,0,-1,685,561,0,0
-532,463,0,0,0,0,0,0,0,0,0,-1,692,561,0,0
-525,463,0,0,0,0,0,0,0,0,0,-1,699,561,0,0
-518,463,0,0,0,0,0,0,0,0,0,-1,706,561,0,0
-511,463,0,0,0,0,0,0,0,0,0,-1,713,561,0,0
-504,463,0,0,0,0,0,0,0,0,0,-1,720,561,0,0
-497,463,-9.81451,-1.67126,0,0,0,0,0,0,0,-1,727,561,-9.81452,1.67127
-490,463,-8.57043,-1.58942,0,0,0,0,0,0,0,-1,734,561,-8.57045,1.58944
-483,463,-7.29224,-1.7226,0,0,0,0,0,0,0,-1,741,561,-7.29226,1.72261
-476,463,-5.77704,-1.7312,0,0,0,0,0,0,0,-1,748,561,-5.77703,1.73121
-469,463,-5.14545,-2.138,0,0,0,0,0,0,0,-1,755,561,-5.14546,2.13799
-462,463,-3.13672,-3.07977,0,0,0,0,0,0,0,-1,762,561,-3.13672,3.07974
-455,463,-2.38489,-3.4353,0,0,0,0,0,0,0,-1,769,561,-2.3849,3.43529
-448,463,-2.39349,-3.99176,0.00354804,0.00501453,-0.0146377,0.0189373,-0.0103747,-0.810424,0.0171623,0.0453377,776,561,-2.3935,3.99178
-441,463,-2.1521,-4.6062,0.00294496,0.00434982,-0.01148,0.0151489,-0.00785409,-0.815954,0.0135015,0.0330229,783,561,-2.15208,4.60617
-434,463,-2.27405,-4.92267,0.00242359,0.00372021,-0.00888765,0.0119832,-0.00583936,-0.821806,0.0104917,0.0143739,790,561,-2.27402,4.92266
-427,463,-2.26672,-5.20917,0.0020015,0.00314861,-0.00678562,0.00938488,-0.00423477,-0.82756,0.00804852,0.00965671,797,561,-2.26675,5.20914
-420,463,-2.25574,-5.49243,0.00167535,0.00254709,-0.00504918,0.00717918,-0.00295674,-0.828454,0.00601886,0.00974381,804,561,-2.25576,5.49242
-413,463,-2.27667,-5.7735,0.00123812,0.00187318,-0.0035578,0.00512759,-0.00201629,-0.829905,0.00425291,0.00822066,811,561,-2.27668,5.77352
-406,463,-2.29138,-6.0509,0.000855337,0.0012896,-0.00231685,0.00339947,-0.00125453,-0.832121,0.00278049,0.00846686,818,561,-2.29139,6.05091
-399,463,-2.28412,-6.32965,0.000503837,0.000616203,-0.00122458,0.00178589,-0.000665846,-0.808322,0.00146392,0.0104082,825,561,-2.28409,6.32968
-392,463,-2.29205,-6.60516,-4.22011e-06,-0.000410513,-0.000263302,0.000125194,-0.000539927,-0.456828,0.000408134,0.0102516,832,561,-2.29207,6.60518
-385,463,-2.29004,-6.87732,-0.000676438,-0.00117984,0.000417126,-0.000440956,-0.00141532,0.513934,0.000836257,0.0105419,839,561,-2.29007,6.87733
-378,463,-2.28253,-7.14905,-0.00121344,-0.00217237,0.00082434,-0.000739271,-0.00264654,0.521995,0.00157681,0.0110571,846,561,-2.28253,7.14907
-371,463,-2.28198,-7.42426,-0.00177861,-0.00320244,0.00100244,-0.00126101,-0.00372004,0.476634,0.00218458,0.0107641,853,561,-2.28198,7.42427
-364,463,-2.28302,-7.65735,-0.0024699,-0.00436667,0.00104623,-0.00200618,-0.00483039,0.417207,0.00280213,0.0131726,860,561,-2.28299,7.65734
-357,463,-2.30963,-7.89722,-0.00322007,-0.00568788,0.000822821,-0.00297089,-0.00593707,0.294062,0.00342777,0.0165227,867,561,-2.30962,7.89723
-350,463,-2.24823,-8.21313,-0.00408484,-0.00713342,0.00031377,-0.00405288,-0.00716538,0.101505,0.00414879,0.0193423,874,561,-2.24825,8.21311
-343,463,-2.14844,-8.37518,-0.00523352,-0.009028,-0.000477515,-0.00517435,-0.00908717,-0.123284,0.0052633,0.0355958,881,561,-2.14842,8.37521
-336,463,-2.3703,-8.7608,-0.0065434,-0.0110765,-0.00149646,-0.00609395,-0.0115259,-0.291771,0.00665815,0.0415935,888,561,-2.37031,8.76081
-329,463,-1.98022,-8.23676,0,0,0,0,0,0,0,-1,895,561,-1.9802,8.23678
-322,463,-1.23309,-8.07733,0,0,0,0,0,0,0,-1,902,561,-1.23307,8.0773
-315,463,-0.944763,-5.96234,0,0,0,0,0,0,0,-1,909,561,-0.94479,5.96237
-308,463,-1.1535,-3.17889,0,0,0,0,0,0,0,-1,916,561,-1.15352,3.17889
-301,463,-1.50366,-3.15338,0,0,0,0,0,0,0,-1,923,561,-1.50364,3.15341
-294,463,-2.35889,-3.93463,0,0,0,0,0,0,0,-1,930,561,-2.35886,3.93465
-287,463,-2.80322,2.73999,0,0,0,0,0,0,0,-1,937,561,-2.80322,-2.74
-280,463,-12.864,5.25146,0,0,0,0,0,0,0,-1,944,561,-12.864,-5.25149
-273,463,-10.2264,2.63672,0,0,0,0,0,0,0,-1,951,561,-10.2264,-2.63675
-266,463,-7.65808,0.0662231,0,0,0,0,0,0,0,-1,958,561,-7.65808,-0.0662199
-259,463,-5.16095,-3.31085,0,0,0,0,0,0,0,-1,965,561,-5.16093,3.31085
-252,463,0,0,0,0,0,0,0,0,0,-1,972,561,0,0
-245,463,0,0,0,0,0,0,0,0,0,-1,979,561,0,0
-238,463,0,0,0,0,0,0,0,0,0,-1,986,561,0,0
-231,463,0,0,0,0,0,0,0,0,0,-1,993,561,0,0
-224,463,0,0,0,0,0,0,0,0,0,-1,1000,561,0,0
-217,463,0,0,0,0,0,0,0,0,0,-1,1007,561,0,0
-210,463,0,0,0,0,0,0,0,0,0,-1,1014,561,0,0
-203,463,0,0,0,0,0,0,0,0,0,-1,1021,561,0,0
-196,463,0,0,0,0,0,0,0,0,0,-1,1028,561,0,0
-189,463,0,0,0,0,0,0,0,0,0,-1,1035,561,0,0
-182,463,0,0,0,0,0,0,0,0,0,-1,1042,561,0,0
-175,463,0,0,0,0,0,0,0,0,0,-1,1049,561,0,0
-168,463,0,0,0,0,0,0,0,0,0,-1,1056,561,0,0
-161,463,0,0,0,0,0,0,0,0,0,-1,1063,561,0,0
-154,463,0,0,0,0,0,0,0,0,0,-1,1070,561,0,0
-147,463,0,0,0,0,0,0,0,0,0,-1,1077,561,0,0
-140,463,0,0,0,0,0,0,0,0,0,-1,1084,561,0,0
-133,463,0,0,0,0,0,0,0,0,0,-1,1091,561,0,0
-126,463,0,0,0,0,0,0,0,0,0,-1,1098,561,0,0
-119,463,0,0,0,0,0,0,0,0,0,-1,1105,561,0,0
-112,463,0,0,0,0,0,0,0,0,0,-1,1112,561,0,0
-105,463,0,0,0,0,0,0,0,0,0,-1,1119,561,0,0
-98,463,0,0,0,0,0,0,0,0,0,-1,1126,561,0,0
-91,463,0,0,0,0,0,0,0,0,0,-1,1133,561,0,0
-84,463,0,0,0,0,0,0,0,0,0,-1,1140,561,0,0
-77,463,0,0,0,0,0,0,0,0,0,-1,1147,561,0,0
-70,463,0,0,0,0,0,0,0,0,0,-1,1154,561,0,0
-63,463,0,0,0,0,0,0,0,0,0,-1,1161,561,0,0
-56,463,0,0,0,0,0,0,0,0,0,-1,1168,561,0,0
-49,463,0,0,0,0,0,0,0,0,0,-1,1175,561,0,0
-42,463,0,0,0,0,0,0,0,0,0,-1,1182,561,0,0
-35,463,0,0,0,0,0,0,0,0,0,-1,1189,561,0,0
-28,463,0,0,0,0,0,0,0,0,0,-1,1196,561,0,0
-21,463,0,0,0,0,0,0,0,0,0,-1,1203,561,0,0
-14,463,0,0,0,0,0,0,0,0,0,-1,1210,561,0,0
-7,463,0,0,0,0,0,0,0,0,0,-1,1217,561,0,0
0,463,0,0,0,0,0,0,0,0,0,-1,1224,561,0,0
7,463,0,0,0,0,0,0,0,0,0,-1,1231,561,0,0
14,463,0,0,0,0,0,0,0,0,0,-1,1238,561,0,0
21,463,0,0,0,0,0,0,0,0,0,-1,1245,561,0,0
28,463,0,0,0,0,0,0,0,0,0,-1,1252,561,0,0
35,463,0,0,0,0,0,0,0,0,0,-1,1259,561,0,0
42,463,0,0,0,0,0,0,0,0,0,-1,1266,561,0,0
49,463,0,0,0,0,0,0,0,0,0,-1,1273,561,0,0
56,463,0,0,0,0,0,0,0,0,0,-1,1280,561,0,0
63,463,0,0,0,0,0,0,0,0,0,-1,1287,561,0,0
70,463,0,0,0,0,0,0,0,0,0,-1,1294,561,0,0
77,463,0,0,0,0,0,0,0,0,0,-1,1301,561,0,0
84,463,0,0,0,0,0,0,0,0,0,-1,1308,561,0,0
91,463,0,0,0,0,0,0,0,0,0,-1,1315,561,0,0
98,463,0,0,0,0,0,0,0,0,0,-1,1322,561,0,0
105,463,0,0,0,0,0,0,0,0,0,-1,1329,561,0,0
112,463,0,0,0,0,0,0,0,0,0,-1,1336,561,0,0
119,463,0,0,0,0,0,0,0,0,0,-1,1343,561,0,0
126,463,0,0,0,0,0,0,0,0,0,-1,1350,561,0,0
133,463,0,0,0,0,0,0,0,0,0,-1,1357,561,0,0
140,463,0,0,0,0,0,0,0,0,0,-1,1364,561,0,0
147,463,0,0,0,0,0,0,0,0,0,-1,1371,561,0,0
154,463,0,0,0,0,0,0,0,0,0,-1,1378,561,0,0
161,463,0,0,0,0,0,0,0,0,0,-1,1385,561,0,0
168,463,0,0,0,0,0,0,0,0,0,-1,1392,561,0,0
175,463,0,0,0,0,0,0,0,0,0,-1,1399,561,0,0
182,463,0,0,0,0,0,0,0,0,0,-1,1406,561,0,0
189,463,0,0,0,0,0,0,0,0,0,-1,1413,561,0,0
196,463,0,0,0,0,0,0,0,0,0,-1,1420,561,0,0
203,463,0,0,0,0,0,0,0,0,0,-1,1427,561,0,0
210,463,0,0,0,0,0,0,0,0,0,-1,1434,561,0,0
217,463,0,0,0,0,0,0,0,0,0,-1,1441,561,0,0
224,463,0,0,0,0,0,0,0,0,0,-1,1448,561,0,0
231,463,0,0,0,0,0,0,0,0,0,-1,1455,561,0,0
238,463,0,0,0,0,0,0,0,0,0,-1,1462,561,0,0
245,463,0,0,0,0,0,0,0,0,0,-1,1469,561,0,0
252,463,0,0,0,0,0,0,0,0,0,-1,1476,561,0,0
259,463,0,0,0,0,0,0,0,0,0,-1,1483,561,0,0
266,463,0,0,0,0,0,0,0,0,0,-1,1490,561,0,0
273,463,0,0,0,0,0,0,0,0,0,-1,1497,561,0,0
280,463,0,0,0,0,0,0,0,0,0,-1,1504,561,0,0
287,463,0,0,0,0,0,0,0,0,0,-1,1511,561,0,0
294,463,0,0,0,0,0,0,0,0,0,-1,1518,561,0,0
301,463,0,0,0,0,0,0,0,0,0,-1,1525,561,0,0
308,463,0,0,0,0,0,0,0,0,0,-1,1532,561,0,0
315,463,0,0,0,0,0,0,0,0,0,-1,1539,561,0,0
322,463,0,0,0,0,0,0,0,0,0,-1,1546,561,0,0
329,463,0,0,0,0,0,0,0,0,0,-1,1553,561,0,0
336,463,0,0,0,0,0,0,0,0,0,-1,1560,561,0,0
343,463,0,0,0,0,0,0,0,0,0,-1,1567,561,0,0
350,463,0,0,0,0,0,0,0,0,0,-1,1574,561,0,0
357,463,0,0,0,0,0,0,0,0,0,-1,1581,561,0,0
364,463,0,0,0,0,0,0,0,0,0,-1,1588,561,0,0
371,463,1.75842,0.152588,0,0,0,0,0,0,0,-1,1595,561,1.75844,-0.152558
378,463,4.58813,-0.0444336,0,0,0,0,0,0,0,-1,1602,561,4.58809,0.0444505
385,463,8.88574,1.65057,0,0,0,0,0,0,0,-1,1609,561,8.88575,-1.65055
392,463,13.4452,2.6582,0,0,0,0,0,0,0,-1,1616,561,13.4452,-2.65821
399,463,19.6376,3.51965,0,0,0,0,0,0,0,-1,1623,561,19.6376,-3.51966
406,463,7.28088,1.38538,0,0,0,0,0,0,0,-1,1630,561,7.28091,-1.38537
413,463,26.1475,1.70752,0,0,0,0,0,0,0,-1,1637,561,26.1474,-1.70752
420,463,8.849,2.26611,0,0,0,0,0,0,0,-1,1644,561,8.84899,-2.26613
427,463,5.12207,1.69183,0,0,0,0,0,0,0,-1,1651,561,5.12206,-1.69184
434,463,4.59814,1.81995,0,0,0,0,0,0,0,-1,1658,561,4.59812,-1.81994
441,463,1.76392,-5.99225,0,0,0,0,0,0,0,-1,1665,561,1.7639,5.99225
448,463,2.49939,-4.30536,0,0,0,0,0,0,0,-1,1672,561,2.49941,4.30536
455,463,4.40295,-3.02557,0,0,0,0,0,0,0,-1,1679,561,4.40299,3.02558
462,463,5.38293,-4.06445,0,0,0,0,0,0,0,-1,1686,561,5.38289,4.06444
469,463,5.94373,-4.50647,0,0,0,0,0,0,0,-1,1693,561,5.94368,4.50646
476,463,7.93225,-7.07275,0,0,0,0,0,0,0,-1,1700,561,7.93222,7.07275
483,463,7.96069,-6.73621,0.00221792,0.00393779,0.00130531,0.00464097,0.00151474,1.07666,0.00273278,0.0416239,1707,561,7.96068,6.73623
490,463,8.07874,-6.27521,0.00297658,0.00383338,0.00194809,0.00539961,0.00141034,0.893629,0.00323382,0.0202521,1714,561,8.07877,6.27521
497,463,8.07935,-5.95654,0.00301437,0.00305484,0.00188141,0.00491612,0.00115309,0.790776,0.00296866,0.0117988,1721,561,8.0794,5.95655
504,463,8.10779,-5.65302,0.00257177,0.00218873,0.00157298,0.00396485,0.000795653,0.724818,0.00242198,0.0161472,1728,561,8.10777,5.65303
511,463,8.11499,-5.36127,0.00204078,0.00198927,0.00157659,0.00359183,0.000438222,0.777232,0.00226267,0.0233924,1735,561,8.11504,5.36129
518,463,8.1676,-5.06848,0.00113911,0.00197185,0.00132581,0.00294513,0.000165829,0.937546,0.00191054,0.0234436,1742,561,8.16756,5.06846
525,463,8.13452,-4.79004,0.000100258,0.00227508,0.00112674,0.00275355,-0.000378221,1.16922,0.00197389,0.0176823,1749,561,8.13449,4.79006
532,463,8.12793,-4.48303,-0.000954115,0.00293041,0.00105661,0.00319921,-0.00122292,1.32168,0.00263673,0.0144426,1756,561,8.12789,4.48302
539,463,8.08655,-4.16656,-0.00193386,0.00369719,0.00110341,0.00390569,-0.00214235,1.38404,0.00354096,0.0160169,1763,561,8.08653,4.16654
546,463,8.07288,-3.89642,-0.00273614,0.0048095,0.00144161,0.00507554,-0.00300218,1.3883,0.00471461,0.0131054,1770,561,8.07283,3.89644
553,463,8.08105,-3.5777,-0.00350181,0.00602731,0.00181199,0.00636024,-0.00383474,1.38909,0.00594597,0.0111092,1777,561,8.0811,3.57771
560,463,8.08972,-3.21912,-0.00409303,0.00726839,0.00233885,0.00773103,-0.00455567,1.37551,0.00717226,0.012771,1784,561,8.08973,3.21911
567,463,8.0188,-2.94312,-0.00449302,0.00846104,0.00301843,0.00912984,-0.00516181,1.35275,0.00835663,0.0191514,1791,561,8.01878,2.94313
574,463,8.09033,-2.65698,0,0,0,0,0,0,0,-1,1798,561,8.09039,2.657
581,463,7.77832,-2.18085,0,0,0,0,0,0,0,-1,1805,561,7.77828,2.18082
588,463,1.97424,2.16016,0,0,0,0,0,0,0,-1,1812,561,1.97422,-2.16013
595,463,9.98657,2.99854,0,0,0,0,0,0,0,-1,1819,561,9.98662,-2.99856
602,463,17.2202,4.91302,0,0,0,0,0,0,0,-1,1826,561,17.2202,-4.91305
609,463,17.96,4.03131,0,0,0,0,0,0,0,-1,1833,561,17.96,-4.03132
616,463,20.8352,3.15131,0,0,0,0,0,0,0,-1,1840,561,20.8352,-3.1513
623,463,0,0,0,0,0,0,0,0,0,-1,1847,561,0,0
630,463,0,0,0,0,0,0,0,0,0,-1,1854,561,0,0
637,463,0,0,0,0,0,0,0,0,0,-1,1861,561,0,0
644,463,0,0,0,0,0,0,0,0,0,-1,1868,561,0,0
651,463,0,0,0,0,0,0,0,0,0,-1,1875,561,0,0
658,463,0,0,0,0,0,0,0,0,0,-1,1882,561,0,0
665,463,0,0,0,0,0,0,0,0,0,-1,1889,561,0,0
672,463,0,0,0,0,0,0,0,0,0,-1,1896,561,0,0
679,463,0,0,0,0,0,0,0,0,0,-1,1903,561,0,0
686,463,0,0,0,0,0,0,0,0,0,-1,1910,561,0,0
693,463,0,0,0,0,0,0,0,0,0,-1,1917,561,0,0
700,463,0,0,0,0,0,0,0,0,0,-1,1924,561,0,0
707,463,0,0,0,0,0,0,0,0,0,-1,1931,561,0,0
714,463,0,0,0,0,0,0,0,0,0,-1,1938,561,0,0
721,463,0,0,0,0,0,0,0,0,0,-1,1945,561,0,0
728,463,0,0,0,0,0,0,0,0,0,-1,1952,561,0,0
735,463,0,0,0,0,0,0,0,0,0,-1,1959,561,0,0
742,463,0,0,0,0,0,0,0,0,0,-1,1966,561,0,0
749,463,0,0,0,0,0,0,0,0,0,-1,1973,561,0,0
756,463,0,0,0,0,0,0,0,0,0,-1,1980,561,0,0
763,463,0,0,0,0,0,0,0,0,0,-1,1987,561,0,0
770,463,0,0,0,0,0,0,0,0,0,-1,1994,561,0,0
777,463,0,0,0,0,0,0,0,0,0,-1,2001,561,0,0
784,463,0,0,0,0,0,0,0,0,0,-1,2008,561,0,0
791,463,0,0,0,0,0,0,0,0,0,-1,2015,561,0,0
798,463,0,0,0,0,0,0,0,0,0,-1,2022,561,0,0
805,463,0,0,0,0,0,0,0,0,0,-1,2029,561,0,0
812,463,0,0,0,0,0,0,0,0,0,-1,2036,561,0,0
-700,456,0,0,0,0,0,0,0,0,0,-1,524,568,0,0
-693,456,0,0,0,0,0,0,0,0,0,-1,531,568,0,0
-686,456,0,0,0,0,0,0,0,0,0,-1,538,568,0,0
-679,456,0,0,0,0,0,0,0,0,0,-1,545,568,0,0
-672,456,0,0,0,0,0,0,0,0,0,-1,552,568,0,0
-665,456,0,0,0,0,0,0,0,0,0,-1,559,568,0,0
-658,456,0,0,0,0,0,0,0,0,0,-1,566,568,0,0
-651,456,0,0,0,0,0,0,0,0,0,-1,573,568,0,0
-644,456,0,0,0,0,0,0,0,0,0,-1,580,568,0,0
-637,456,0,0,0,0,0,0,0,0,0,-1,587,568,0,0
-630,456,0,0,0,0,0,0,0,0,0,-1,594,568,0,0
-623,456,0,0,0,0,0,0,0,0,0,-1,601,568,0,0
-616,456,0,0,0,0,0,0,0,0,0,-1,608,568,0,0
-609,456,0,0,0,0,0,0,0,0,0,-1,615,568,0,0
-602,456,0,0,0,0,0,0,0,0,0,-1,622,568,0,0
-595,456,0,0,0,0,0,0,0,0,0,-1,629,568,0,0
-588,456,0,0,0,0,0,0,0,0,0,-1,636,568,0,0
-581,456,0,0,0,0,0,0,0,0,0,-1,643,568,0,0
-574,456,0,0,0,0,0,0,0,0,0,-1,650,568,0,0
-567,456,0,0,0,0,0,0,0,0,0,-1,657,568,0,0
-560,456,0,0,0,0,0,0,0,0,0,-1,664,568,0,0
-553,456,0,0,0,0,0,0,0,0,0,-1,671,568,0,0
-546,456,0,0,0,0,0,0,0,0,0,-1,678,568,0,0
-539,456,0,0,0,0,0,0,0,0,0,-1,685,568,0,0
-532,456,0,0,0,0,0,0,0,0,0,-1,692,568,0,0
-525,456,0,0,0,0,0,0,0,0,0,-1,699,568,0,0
-518,456,0,0,0,0,0,0,0,0,0,-1,706,568,0,0
-511,456,0,0,0,0,0,0,0,0,0,-1,713,568,0,0
-504,456,-10.3994,-2.34839,0,0,0,0,0,0,0,-1,720,568,-10.3994,2.3484
-497,456,-9.21375,-2.38068,0,0,0,0,0,0,0,-1,727,568,-9.21372,2.38069
-490,456,-8.09058,-2.31824,0,0,0,0,0,0,0,-1,734,568,-8.09057,2.31821
-483,456,-6.66119,-2.24329,0,0,0,0,0,0,0,-1,741,568,-6.66121,2.24331
-476,456,-5.1499,-2.21185,0,0,0,0,0,0,0,-1,748,568,-5.14992,2.21184
-469,456,-2.81238,-3.51501,0,0,0,0,0,0,0,-1,755,568,-2.81237,3.51501
-462,456,-2.53406,-3.711,0,0,0,0,0,0,0,-1,762,568,-2.53405,3.71102
-455,456,-2.36353,-3.52014,0,0,0,0,0,0,0,-1,769,568,-2.36352,3.52014
-448,456,-2.39038,-4.09717,0.00293432,0.00506532,-0.0105891,0.0146424,-0.00664278,-0.83554,0.012575,0.0358755,776,568,-2.39039,4.09719
-441,456,-2.4964,-4.62347,0.00236783,0.00425705,-0.00836761,0.0117332,-0.00510832,-0.841604,0.00997107,0.0169864,783,568,-2.4964,4.6235
-434,456,-2.54419,-4.92383,0.00180402,0.00344336,-0.00647068,0.00914608,-0.0038987,-0.8484,0.00773185,0.00985098,790,568,-2.54417,4.92382
-427,456,-2.52863,-5.20459,0.00135314,0.00277366,-0.00489058,0.00700529,-0.00287848,-0.857509,0.00586986,0.00890975,797,568,-2.52862,5.20462
-420,456,-2.53296,-5.48962,0.00100042,0.00214048,-0.00355937,0.00517518,-0.00203428,-0.864798,0.00429203,0.00966843,804,568,-2.53297,5.4896
-413,456,-2.55865,-5.76495,0.000510222,0.00144282,-0.00233687,0.00335946,-0.00140642,-0.883875,0.00282755,0.00852562,811,568,-2.55867,5.76496
-406,456,-2.58081,-6.04193,0.000108149,0.000833091,-0.00129074,0.00181129,-0.000870054,-0.922284,0.00157955,0.00843973,818,568,-2.58084,6.04193
-399,456,-2.56952,-6.32257,-0.000279035,0.000100159,-0.000318304,0.000281054,-0.00045993,-1.054,0.000431942,0.0103212,825,568,-2.5695,6.3226
-392,456,-2.56183,-6.59052,-0.000854506,-0.00103524,0.000552701,-0.000384833,-0.00150491,0.704365,0.000902766,0.00987859,832,568,-2.56186,6.59051
-385,456,-2.55927,-6.86475,-0.00167522,-0.00197429,0.00114544,-0.0006696,-0.00297991,0.720492,0.00180529,0.00930845,839,568,-2.55928,6.86475
-378,456,-2.56531,-7.14532,-0.00235193,-0.00310777,0.00157949,-0.00110578,-0.00435392,0.667971,0.00261321,0.00976593,846,568,-2.56528,7.1453
-371,456,-2.56628,-7.40552,-0.00309218,-0.00430106,0.00177755,-0.00181911,-0.00557412,0.62151,0.00328228,0.0101564,853,568,-2.56629,7.4055
-364,456,-2.56097,-7.64886,-0.00402017,-0.00576554,0.0018384,-0.00285783,-0.00692787,0.563798,0.00402017,0.0145117,860,568,-2.56095,7.64887
-357,456,-2.53491,-7.91351,-0.00509452,-0.00747682,0.00157855,-0.00430814,-0.00826321,0.462183,0.00477222,0.0182355,867,568,-2.53493,7.91352
-350,456,-2.34552,-8.01416,-0.00643235,-0.00946794,0.000978795,-0.00614411,-0.00975618,0.286383,0.00569562,0.0363658,874,568,-2.34555,8.01414
-343,456,-2.32904,-7.8587,-0.00825815,-0.0119521,3.06158e-05,-0.0082579,-0.0119524,0.00828731,0.00706637,0.0437635,881,568,-2.32907,7.85871
-336,456,-2.7666,-8.51044,-0.0104233,-0.0149328,-0.00127366,-0.0100884,-0.0152677,-0.257096,0.0089654,0.0483724,888,568,-2.76657,8.51041
-329,456,-2.7934,-8.82599,0,0,0,0,0,0,0,-1,895,568,-2.79342,8.82598
-322,456,-0.662537,-7.66632,0,0,0,0,0,0,0,-1,902,568,-0.662564,7.66633
-315,456,-0.675476,-3.38397,0,0,0,0,0,0,0,-1,909,568,-0.675473,3.38399
-308,456,-1.1618,-3.15314,0,0,0,0,0,0,0,-1,916,568,-1.16178,3.15314
-301,456,-1.83551,-3.26447,0,0,0,0,0,0,0,-1,923,568,-1.8355,3.26449
-294,456,-2.93414,-3.35449,0,0,0,0,0,0,0,-1,930,568,-2.93413,3.35451
-287,456,-3.7569,-3.53101,0,0,0,0,0,0,0,-1,937,568,-3.75692,3.53101
-280,456,-11.2036,5.02667,0,0,0,0,0,0,0,-1,944,568,-11.2036,-5.02667
-273,456,-8.0708,1.68311,0,0,0,0,0,0,0,-1,951,568,-8.07081,-1.68313
-266,456,-5.90527,-1.0705,0,0,0,0,0,0,0,-1,958,568,-5.90525,1.07047
-259,456,0,0,0,0,0,0,0,0,0,-1,965,568,0,0
-252,456,0,0,0,0,0,0,0,0,0,-1,972,568,0,0
-245,456,0,0,0,0,0,0,0,0,0,-1,979,568,0,0
-238,456,0,0,0,0,0,0,0,0,0,-1,986,568,0,0
-231,456,0,0,0,0,0,0,0,0,0,-1,993,568,0,0
-224,456,0,0,0,0,0,0,0,0,0,-1,1000,568,0,0
-217,456,0,0,0,0,0,0,0,0,0,-1,1007,568,0,0
-210,456,0,0,0,0,0,0,0,0,0,-1,1014,568,0,0
-203,456,0,0,0,0,0,0,0,0,0,-1,1021,568,0,0
-196,456,0,0,0,0,0,0,0,0,0,-1,1028,568,0,0
-189,456,0,0,0,0,0,0,0,0,0,-1,1035,568,0,0
-182,456,0,0,0,0,0,0,0,0,0,-1,1042,568,0,0
-175,456,0,0,0,0,0,0,0,0,0,-1,1049,568,0,0
-168,456,0,0,0,0,0,0,0,0,0,-1,1056,568,0,0
-161,456,0,0,0,0,0,0,0,0,0,-1,1063,568,0,0
-154,456,0,0,0,0,0,0,0,0,0,-1,1070,568,0,0
-147,456,0,0,0,0,0,0,0,0,0,-1,1077,568,0,0
-140,456,0,0,0,0,0,0,0,0,0,-1,1084,568,0,0
-133,456,0,0,0,0,0,0,0,0,0,-1,1091,568,0,0
-126,456,0,0,0,0,0,0,0,0,0,-1,1098,568,0,0
-119,456,0,0,0,0,0,0,0,0,0,-1,1105,568,0,0
-112,456,0,0,0,0,0,0,0,0,0,-1,1112,568,0,0
-105,456,0,0,0,0,0,0,0,0,0,-1,1119,568,0,0
-98,456,0,0,0,0,0,0,0,0,0,-1,1126,568,0,0
-91,456,0,0,0,0,0,0,0,0,0,-1,1133,568,0,0
-84,456,0,0,0,0,0,0,0,0,0,-1,1140,568,0,0
-77,456,0,0,0,0,0,0,0,0,0,-1,1147,568,0,0
-70,456,0,0,0,0,0,0,0,0,0,-1,1154,568,0,0
-63,456,0,0,0,0,0,0,0,0,0,-1,1161,568,0,0
-56,456,0,0,0,0,0,0,0,0,0,-1,1168,568,0,0
-49,456,0,0,0,0,0,0,0,0,0,-1,1175,568,0,0
-42,456,0,0,0,0,0,0,0,0,0,-1,1182,568,0,0
-35,456,0,0,0,0,0,0,0,0,0,-1,1189,568,0,0
-28,456,0,0,0,0,0,0,0,0,0,-1,1196,568,0,0
-21,456,0,0,0,0,0,0,0,0,0,-1,1203,568,0,0
-14,456,0,0,0,0,0,0,0,0,0,-1,1210,568,0,0
-7,456,0,0,0,0,0,0,0,0,0,-1,1217,568,0,0
0,456,0,0,0,0,0,0,0,0,0,-1,1224,568,0,0
7,456,0,0,0,0,0,0,0,0,0,-1,1231,568,0,0
14,456,0,0,0,0,0,0,0,0,0,-1,1238,568,0,0
21,456,0,0,0,0,0,0,0,0,0,-1,1245,568,0,0
28,456,0,0,0,0,0,0,0,0,0,-1,1252,568,0,0
35,456,0,0,0,0,0,0,0,0,0,-1,1259,568,0,0
42,456,0,0,0,0,0,0,0,0,0,-1,1266,568,0,0
49,456,0,0,0,0,0,0,0,0,0,-1,1273,568,0,0
56,456,0,0,0,0,0,0,0,0,0,-1,1280,568,0,0
63,456,0,0,0,0,0,0,0,0,0,-1,1287,568,0,0
70,456,0,0,0,0,0,0,0,0,0,-1,1294,568,0,0
77,456,0,0,0,0,0,0,0,0,0,-1,1301,568,0,0
84,456,0,0,0,0,0,0,0,0,0,-1,1308,568,0,0
91,456,0,0,0,0,0,0,0,0,0,-1,1315,568,0,0
98,456,0,0,0,0,0,0,0,0,0,-1,1322,568,0,0
105,456,0,0,0,0,0,0,0,0,0,-1,1329,568,0,0
112,456,0,0,0,0,0,0,0,0,0,-1,1336,568,0,0
119,456,0,0,0,0,0,0,0,0,0,-1,1343,568,0,0
126,456,0,0,0,0,0,0,0,0,0,-1,1350,568,0,0
133,456,0,0,0,0,0,0,0,0,0,-1,1357,568,0,0
140,456,0,0,0,0,0,0,0,0,0,-1,1364,568,0,0
147,456,0,0,0,0,0,0,0,0,0,-1,1371,568,0,0
154,456,0,0,0,0,0,0,0,0,0,-1,1378,568,0,0
161,456,0,0,0,0,0,0,0,0,0,-1,1385,568,0,0
168,456,0,0,0,0,0,0,0,0,0,-1,1392,568,0,0
175,456,0,0,0,0,0,0,0,0,0,-1,1399,568,0,0
182,456,0,0,0,0,0,0,0,0,0,-1,1406,568,0,0
189,456,0,0,0,0,0,0,0,0,0,-1,1413,568,0,0
196,456,0,0,0,0,0,0,0,0,0,-1,1420,568,0,0
203,456,0,0,0,0,0,0,0,0,0,-1,1427,568,0,0
210,456,0,0,0,0,0,0,0,0,0,-1,1434,568,0,0
217,456,0,0,0,0,0,0,0,0,0,-1,1441,568,0,0
224,456,0,0,0,0,0,0,0,0,0,-1,1448,568,0,0
231,456,0,0,0,0,0,0,0,0,0,-1,1455,568,0,0
238,456,0,0,0,0,0,0,0,0,0,-1,1462,568,0,0
245,456,0,0,0,0,0,0,0,0,0,-1,1469,568,0,0
252,456,0,0,0,0,0,0,0,0,0,-1,1476,568,0,0
259,456,0,0,0,0,0,0,0,0,0,-1,1483,568,0,0
266,456,0,0,0,0,0,0,0,0,0,-1,1490,568,0,0
273,456,0,0,0,0,0,0,0,0,0,-1,1497,568,0,0
280,456,0,0,0,0,0,0,0,0,0,-1,1504,568,0,0
287,456,0,0,0,0,0,0,0,0,0,-1,1511,568,0,0
294,456,0,0,0,0,0,0,0,0,0,-1,1518,568,0,0
301,456,0,0,0,0,0,0,0,0,0,-1,1525,568,0,0
308,456,0,0,0,0,0,0,0,0,0,-1,1532,568,0,0
315,456,0,0,0,0,0,0,0,0,0,-1,1539,568,0,0
322,456,0,0,0,0,0,0,0,0,0,-1,1546,568,0,0
329,456,0,0,0,0,0,0,0,0,0,-1,1553,568,0,0
336,456,0,0,0,0,0,0,0,0,0,-1,1560,568,0,0
343,456,0,0,0,0,0,0,0,0,0,-1,1567,568,0,0
350,456,0,0,0,0,0,0,0,0,0,-1,1574,568,0,0
357,456,0,0,0,0,0,0,0,0,0,-1,1581,568,0,0
364,456,0,0,0,0,0,0,0,0,0,-1,1588,568,0,0
371,456,0,0,0,0,0,0,0,0,0,-1,1595,568,0,0
378,456,0,0,0,0,0,0,0,0,0,-1,1602,568,0,0
385,456,5.66284,0.660645,0,0,0,0,0,0,0,-1,1609,568,5.66285,-0.660615
392,456,15.1713,4.17755,0,0,0,0,0,0,0,-1,1616,568,15.1713,-4.17755
399,456,18.0848,4.00708,0,0,0,0,0,0,0,-1,1623,568,18.0848,-4.00706
406,456,22.7371,3.56232,0,0,0,0,0,0,0,-1,1630,568,22.7371,-3.5623
413,456,23.4919,2.00922,0,0,0,0,0,0,0,-1,1637,568,23.492,-2.00924
420,456,23.4626,0.21521,0,0,0,0,0,0,0,-1,1644,568,23.4627,-0.215188
427,456,6.21375,2.02905,0,0,0,0,0,0,0,-1,1651,568,6.21372,-2.02904
434,456,3.0719,-4.86285,0,0,0,0,0,0,0,-1,1658,568,3.07184,4.86287
441,456,2.90344,-4.70459,0,0,0,0,0,0,0,-1,1665,568,2.90346,4.7046
448,456,3.06995,-4.93689,0,0,0,0,0,0,0,-1,1672,568,3.06991,4.93687
455,456,3.46582,-3.43701,0,0,0,0,0,0,0,-1,1679,568,3.46585,3.43698
462,456,4.68445,-4.45831,0,0,0,0,0,0,0,-1,1686,568,4.68439,4.45833
469,456,4.93201,-2.289,0,0,0,0,0,0,0,-1,1693,568,4.93197,2.28903
476,456,4.8363,-2.79364,0,0,0,0,0,0,0,-1,1700,568,4.83636,2.79363
483,456,7.99072,-7.16449,0,0,0,0,0,0,0,-1,1707,568,7.99074,7.16448
490,456,8.34009,-6.33246,0,0,0,0,0,0,0,-1,1714,568,8.34006,6.33246
497,456,8.41406,-6.04987,0.00426646,0.00374727,0.00276017,0.00677922,0.00123451,0.738511,0.00416935,0.0390038,1721,568,8.41402,6.04988
504,456,8.3728,-5.65833,0.00378096,0.00232259,0.00219074,0.00536069,0.000742866,0.624741,0.00335371,0.0113576,1728,568,8.37284,5.65835
511,456,8.39258,-5.34998,0.00323972,0.00195995,0.00210024,0.0047954,0.00040428,0.637529,0.00307105,0.0139261,1735,568,8.39252,5.35
518,456,8.41626,-5.06689,0.00232668,0.00174952,0.00173378,0.00379574,0.000280466,0.702931,0.00244238,0.0166178,1742,568,8.41632,5.06687
525,456,8.4187,-4.80273,0.00129137,0.00184456,0.00142217,0.00301678,0.000119147,0.881443,0.00197267,0.0156425,1749,568,8.41875,4.80274
532,456,8.40906,-4.48846,0.000270602,0.00218772,0.00121726,0.00277854,-0.000320216,1.11892,0.0019678,0.0148705,1756,568,8.40909,4.48844
539,456,8.37549,-4.16742,-0.00066687,0.00254818,0.00108813,0.00288183,-0.00100052,1.27327,0.00232755,0.0192366,1763,568,8.37547,4.16745
546,456,8.35889,-3.854,-0.00141158,0.00322667,0.00123965,0.0035372,-0.00172211,1.32535,0.00309615,0.0215686,1770,568,8.35894,3.85403
553,456,8.35425,-3.52991,-0.00211225,0.00394248,0.0014076,0.00425372,-0.00242349,1.35318,0.00390306,0.0134248,1777,568,8.35421,3.52993
560,456,8.37012,-3.2561,-0.00266553,0.00464733,0.00170035,0.00502335,-0.00304155,1.35315,0.0047029,0.0103851,1784,568,8.37015,3.25611
567,456,8.37793,-2.94452,-0.00303977,0.00532919,0.00214177,0.00584546,-0.00355604,1.33426,0.00548134,0.0142506,1791,568,8.37798,2.94449
574,456,8.3512,-2.80371,-0.00331478,0.00593369,0.00264506,0.00663674,-0.00401783,1.31101,0.00621305,0.0403565,1798,568,8.35122,2.80373
581,456,8.37939,-2.65161,0,0,0,0,0,0,0,-1,1805,568,8.37938,2.65161
588,456,5.23901,-0.0901489,0,0,0,0,0,0,0,-1,1812,568,5.23906,0.0901656
595,456,6.90063,3.14886,0,0,0,0,0,0,0,-1,1819,568,6.90066,-3.14887
602,456,16.894,4.10938,0,0,0,0,0,0,0,-1,1826,568,16.8941,-4.1094
609,456,14.9966,3.5708,0,0,0,0,0,0,0,-1,1833,568,14.9966,-3.57083
616,456,17.7407,2.6579,0,0,0,0,0,0,0,-1,1840,568,17.7408,-2.6579
623,456,20.6838,1.7121,0,0,0,0,0,0,0,-1,1847,568,20.6838,-1.71208
630,456,0,0,0,0,0,0,0,0,0,-1,1854,568,0,0
637,456,0,0,0,0,0,0,0,0,0,-1,1861,568,0,0
644,456,0,0,0,0,0,0,0,0,0,-1,1868,568,0,0
651,456,0,0,0,0,0,0,0,0,0,-1,1875,568,0,0
658,456,0,0,0,0,0,0,0,0,0,-1,1882,568,0,0
665,456,0,0,0,0,0,0,0,0,0,-1,1889,568,0,0
672,456,0,0,0,0,0,0,0,0,0,-1,1896,568,0,0
679,456,0,0,0,0,0,0,0,0,0,-1,1903,568,0,0
686,456,0,0,0,0,0,0,0,0,0,-1,1910,568,0,0
693,456,0,0,0,0,0,0,0,0,0,-1,1917,568,0,0
700,456,0,0,0,0,0,0,0,0,0,-1,1924,568,0,0
707,456,0,0,0,0,0,0,0,0,0,-1,1931,568,0,0
714,456,0,0,0,0,0,0,0,0,0,-1,1938,568,0,0
721,456,0,0,0,0,0,0,0,0,0,-1,1945,568,0,0
728,456,0,0,0,0,0,0,0,0,0,-1,1952,568,0,0
735,456,0,0,0,0,0,0,0,0,0,-1,1959,568,0,0
742,456,0,0,0,0,0,0,0,0,0,-1,1966,568,0,0
749,456,0,0,0,0,0,0,0,0,0,-1,1973,568,0,0
756,456,0,0,0,0,0,0,0,0,0,-1,1980,568,0,0
763,456,0,0,0,0,0,0,0,0,0,-1,1987,568,0,0
770,456,0,0,0,0,0,0,0,0,0,-1,1994,568,0,0
777,456,0,0,0,0,0,0,0,0,0,-1,2001,568,0,0
784,456,0,0,0,0,0,0,0,0,0,-1,2008,568,0,0
791,456,0,0,0,0,0,0,0,0,0,-1,2015,568,0,0
798,456,0,0,0,0,0,0,0,0,0,-1,2022,568,0,0
805,456,0,0,0,0,0,0,0,0,0,-1,2029,568,0,0
812,456,0,0,0,0,0,0,0,0,0,-1,2036,568,0,0
-700,449,0,0,0,0,0,0,0,0,0,-1,524,575,0,0
-693,449,0,0,0,0,0,0,0,0,0,-1,531,575,0,0
-686,449,0,0,0,0,0,0,0,0,0,-1,538,575,0,0
-679,449,0,0,0,0,0,0,0,0,0,-1,545,575,0,0
-672,449,0,0,0,0,0,0,0,0,0,-1,552,575,0,0
-665,449,0,0,0,0,0,0,0,0,0,-1,559,575,0,0
-658,449,0,0,0,0,0,0,0,0,0,-1,566,575,0,0
-651,449,0,0,0,0,0,0,0,0,0,-1,573,575,0,0
-644,449,0,0,0,0,0,0,0,0,0,-1,580,575,0,0
-637,449,0,0,0,0,0,0,0,0,0,-1,587,575,0,0
-630,449,0,0,0,0,0,0,0,0,0,-1,594,575,0,0
-623,449,0,0,0,0,0,0,0,0,0,-1,601,575,0,0
-616,449,0,0,0,0,0,0,0,0,0,-1,608,575,0,0
-609,449,0,0,0,0,0,0,0,0,0,-1,615,575,0,0
-602,449,0,0,0,0,0,0,0,0,0,-1,622,575,0,0
-595,449,0,0,0,0,0,0,0,0,0,-1,629,575,0,0
-588,449,0,0,0,0,0,0,0,0,0,-1,636,575,0,0
-581,449,0,0,0,0,0,0,0,0,0,-1,643,575,0,0
-574,449,0,0,0,0,0,0,0,0,0,-1,650,575,0,0
-567,449,0,0,0,0,0,0,0,0,0,-1,657,575,0,0
-560,449,0,0,0,0,0,0,0,0,0,-1,664,575,0,0
-553,449,0,0,0,0,0,0,0,0,0,-1,671,575,0,0
-546,449,0,0,0,0,0,0,0,0,0,-1,678,575,0,0
-539,449,0,0,0,0,0,0,0,0,0,-1,685,575,0,0
-532,449,0,0,0,0,0,0,0,0,0,-1,692,575,0,0
-525,449,0,0,0,0,0,0,0,0,0,-1,699,575,0,0
-518,449,0,0,0,0,0,0,0,0,0,-1,706,575,0,0
-511,449,-0.941345,-4.4519,0,0,0,0,0,0,0,-1,713,575,-0.941356,4.45191
-504,449,-14.1078,0.318237,0,0,0,0,0,0,0,-1,720,575,-14.1078,-0.318231
-497,449,-8.61292,-3.09009,0,0,0,0,0,0,0,-1,727,575,-8.61291,3.09011
-490,449,-7.50995,-2.96252,0,0,0,0,0,0,0,-1,734,575,-7.50995,2.96251
-483,449,-5.77789,-2.50061,0,0,0,0,0,0,0,-1,741,575,-5.77792,2.50059
-476,449,-4.1723,-2.07739,0,0,0,0,0,0,0,-1,748,575,-4.17228,2.0774
-469,449,-2.26245,-2.37378,0,0,0,0,0,0,0,-1,755,575,-2.26244,2.37376
-462,449,-2.74811,-3.86548,0,0,0,0,0,0,0,-1,762,575,-2.74808,3.86546
-455,449,-2.94183,-4.05066,0,0,0,0,0,0,0,-1,769,575,-2.94186,4.05066
-448,449,-2.79846,-4.30426,0.00251452,0.00447084,-0.00773433,0.0112886,-0.00430327,-0.848299,0.00929824,0.0259208,776,575,-2.79849,4.30428
-441,449,-2.7937,-4.66992,0.00198168,0.00370553,-0.00612471,0.00902867,-0.00334146,-0.855304,0.00738921,0.014458,783,575,-2.79371,4.66995
-434,449,-2.81616,-4.91931,0.00135565,0.00281108,-0.00461626,0.00675663,-0.0025899,-0.863575,0.0055721,0.0112924,790,575,-2.81617,4.91932
-427,449,-2.82684,-5.19647,0.000836988,0.00209783,-0.00332874,0.00485532,-0.0019205,-0.878983,0.00403248,0.012036,797,575,-2.82686,5.19647
-420,449,-2.82605,-5.49078,0.000409525,0.0014572,-0.00222893,0.00322302,-0.0013563,-0.900812,0.00271611,0.0126625,804,575,-2.82607,5.49078
-413,449,-2.83893,-5.77124,-0.000186718,0.000754758,-0.00114697,0.00152383,-0.000955795,-0.980126,0.00144408,0.0102929,811,575,-2.83892,5.77126
-406,449,-2.85925,-6.04749,-0.000679241,0.000127026,-0.00019452,0.000171503,-0.000723717,-1.34601,0.000548655,0.00880803,818,575,-2.85928,6.0475
-399,449,-2.85547,-6.32709,-0.00118182,-0.000651554,0.000732543,-0.000137638,-0.00169573,0.959031,0.00108752,0.00857639,825,575,-2.85548,6.32709
-392,449,-2.82727,-6.59082,-0.00189848,-0.00186364,0.00156271,-0.000318252,-0.00344387,0.790972,0.00219752,0.00949673,832,575,-2.82726,6.59083
-385,449,-2.82098,-6.85565,-0.00294165,-0.00296221,0.00212207,-0.000829834,-0.00507402,0.782976,0.0031428,0.00988006,839,575,-2.82098,6.85564
-378,449,-2.84601,-7.12042,-0.00386503,-0.00424498,0.00261729,-0.00143083,-0.00667919,0.74917,0.00406076,0.00936909,846,575,-2.84598,7.12043
-371,449,-2.8421,-7.38947,-0.00490622,-0.00562767,0.00286983,-0.00237453,-0.00815936,0.722879,0.00484603,0.009504,853,575,-2.84208,7.38948
-364,449,-2.84167,-7.66937,-0.00621044,-0.00743854,0.00297175,-0.00378996,-0.00985902,0.683518,0.00574258,0.0188254,860,575,-2.84167,7.66939
-357,449,-2.76788,-7.87915,-0.00776921,-0.00963495,0.00269055,-0.00585439,-0.0115498,0.618524,0.00666847,0.0397206,867,575,-2.76785,7.87917
-350,449,-2.58197,-8.1441,0,0,0,0,0,0,0,-1,874,575,-2.58194,8.14413
-343,449,-2.59741,-7.51392,0,0,0,0,0,0,0,-1,881,575,-2.59744,7.51392
-336,449,-3.13892,-8.27374,0,0,0,0,0,0,0,-1,888,575,-3.13893,8.27373
-329,449,-0.733398,-7.78937,0,0,0,0,0,0,0,-1,895,575,-0.733398,7.78937
-322,449,-0.628845,-3.16669,0,0,0,0,0,0,0,-1,902,575,-0.628861,3.16667
-315,449,-0.540344,-3.21918,0,0,0,0,0,0,0,-1,909,575,-0.540336,3.21917
-308,449,-1.04413,-2.99341,0,0,0,0,0,0,0,-1,916,575,-1.04415,2.99338
-301,449,-1.58691,-2.80725,0,0,0,0,0,0,0,-1,923,575,-1.58692,2.80728
-294,449,-3.71118,-2.76086,0,0,0,0,0,0,0,-1,930,575,-3.71119,2.76087
-287,449,-4.4082,-2.69525,0,0,0,0,0,0,0,-1,937,575,-4.40822,2.69526
-280,449,-5.09955,-2.96295,0,0,0,0,0,0,0,-1,944,575,-5.09953,2.96297
-273,449,0,0,0,0,0,0,0,0,0,-1,951,575,0,0
-266,449,0,0,0,0,0,0,0,0,0,-1,958,575,0,0
-259,449,0,0,0,0,0,0,0,0,0,-1,965,575,0,0
-252,449,0,0,0,0,0,0,0,0,0,-1,972,575,0,0
-245,449,0,0,0,0,0,0,0,0,0,-1,979,575,0,0
-238,449,0,0,0,0,0,0,0,0,0,-1,986,575,0,0
-231,449,0,0,0,0,0,0,0,0,0,-1,993,575,0,0
-224,449,0,0,0,0,0,0,0,0,0,-1,1000,575,0,0
-217,449,0,0,0,0,0,0,0,0,0,-1,1007,575,0,0
-210,449,0,0,0,0,0,0,0,0,0,-1,1014,575,0,0
-203,449,0,0,0,0,0,0,0,0,0,-1,1021,575,0,0
-196,449,0,0,0,0,0,0,0,0,0,-1,1028,575,0,0
-189,449,0,0,0,0,0,0,0,0,0,-1,1035,575,0,0
-182,449,0,0,0,0,0,0,0,0,0,-1,1042,575,0,0
-175,449,0,0,0,0,0,0,0,0,0,-1,1049,575,0,0
-168,449,0,0,0,0,0,0,0,0,0,-1,1056,575,0,0
-161,449,0,0,0,0,0,0,0,0,0,-1,1063,575,0,0
-154,449,0,0,0,0,0,0,0,0,0,-1,1070,575,0,0
-147,449,0,0,0,0,0,0,0,0,0,-1,1077,575,0,0
-140,449,0,0,0,0,0,0,0,0,0,-1,1084,575,0,0
-133,449,0,0,0,0,0,0,0,0,0,-1,1091,575,0,0
-126,449,0,0,0,0,0,0,0,0,0,-1,1098,575,0,0
-119,449,0,0,0,0,0,0,0,0,0,-1,1105,575,0,0
-112,449,0,0,0,0,0,0,0,0,0,-1,1112,575,0,0
-105,449,0,0,0,0,0,0,0,0,0,-1,1119,575,0,0
-98,449,0,0,0,0,0,0,0,0,0,-1,1126,575,0,0
-91,449,0,0,0,0,0,0,0,0,0,-1,1133,575,0,0
-84,449,0,0,0,0,0,0,0,0,0,-1,1140,575,0,0
-77,449,0,0,0,0,0,0,0,0,0,-1,1147,575,0,0
-70,449,0,0,0,0,0,0,0,0,0,-1,1154,575,0,0
-63,449,0,0,0,0,0,0,0,0,0,-1,1161,575,0,0
-56,449,0,0,0,0,0,0,0,0,0,-1,1168,575,0,0
-49,449,0,0,0,0,0,0,0,0,0,-1,1175,575,0,0
-42,449,0,0,0,0,0,0,0,0,0,-1,1182,575,0,0
-35,449,0,0,0,0,0,0,0,0,0,-1,1189,575,0,0
-28,449,0,0,0,0,0,0,0,0,0,-1,1196,575,0,0
-21,449,0,0,0,0,0,0,0,0,0,-1,1203,575,0,0
-14,449,0,0,0,0,0,0,0,0,0,-1,1210,575,0,0
-7,449,0,0,0,0,0,0,0,0,0,-1,1217,575,0,0
0,449,0,0,0,0,0,0,0,0,0,-1,1224,575,0,0
7,449,0,0,0,0,0,0,0,0,0,-1,1231,575,0,0
14,449,0,0,0,0,0,0,0,0,0,-1,1238,575,0,0
21,449,0,0,0,0,0,0,0,0,0,-1,1245,575,0,0
28,449,0,0,0,0,0,0,0,0,0,-1,1252,575,0,0
35,449,0,0,0,0,0,0,0,0,0,-1,1259,575,0,0
42,449,0,0,0,0,0,0,0,0,0,-1,1266,575,0,0
49,449,0,0,0,0,0,0,0,0,0,-1,1273,575,0,0
56,449,0,0,0,0,0,0,0,0,0,-1,1280,575,0,0
63,449,0,0,0,0,0,0,0,0,0,-1,1287,575,0,0
70,449,0,0,0,0,0,0,0,0,0,-1,1294,575,0,0
77,449,0,0,0,0,0,0,0,0,0,-1,1301,575,0,0
84,449,0,0,0,0,0,0,0,0,0,-1,1308,575,0,0
91,449,0,0,0,0,0,0,0,0,0,-1,1315,575,0,0
98,449,0,0,0,0,0,0,0,0,0,-1,1322,575,0,0
105,449,0,0,0,0,0,0,0,0,0,-1,1329,575,0,0
112,449,0,0,0,0,0,0,0,0,0,-1,1336,575,0,0
119,449,0,0,0,0,0,0,0,0,0,-1,1343,575,0,0
126,449,0,0,0,0,0,0,0,0,0,-1,1350,575,0,0
133,449,0,0,0,0,0,0,0,0,0,-1,1357,575,0,0
140,449,0,0,0,0,0,0,0,0,0,-1,1364,575,0,0
147,449,0,0,0,0,0,0,0,0,0,-1,1371,575,0,0
154,449,0,0,0,0,0,0,0,0,0,-1,1378,575,0,0
161,449,0,0,0,0,0,0,0,0,0,-1,1385,575,0,0
168,449,0,0,0,0,0,0,0,0,0,-1,1392,575,0,0
175,449,0,0,0,0,0,0,0,0,0,-1,1399,575,0,0
182,449,0,0,0,0,0,0,0,0,0,-1,1406,575,0,0
189,449,0,0,0,0,0,0,0,0,0,-1,1413,575,0,0
196,449,0,0,0,0,0,0,0,0,0,-1,1420,575,0,0
203,449,0,0,0,0,0,0,0,0,0,-1,1427,575,0,0
210,449,0,0,0,0,0,0,0,0,0,-1,1434,575,0,0
217,449,0,0,0,0,0,0,0,0,0,-1,1441,575,0,0
224,449,0,0,0,0,0,0,0,0,0,-1,1448,575,0,0
231,449,0,0,0,0,0,0,0,0,0,-1,1455,575,0,0
238,449,0,0,0,0,0,0,0,0,0,-1,1462,575,0,0
245,449,0,0,0,0,0,0,0,0,0,-1,1469,575,0,0
252,449,0,0,0,0,0,0,0,0,0,-1,1476,575,0,0
259,449,0,0,0,0,0,0,0,0,0,-1,1483,575,0,0
266,449,0,0,0,0,0,0,0,0,0,-1,1490,575,0,0
273,449,0,0,0,0,0,0,0,0,0,-1,1497,575,0,0
280,449,0,0,0,0,0,0,0,0,0,-1,1504,575,0,0
287,449,0,0,0,0,0,0,0,0,0,-1,1511,575,0,0
294,449,0,0,0,0,0,0,0,0,0,-1,1518,575,0,0
301,449,0,0,0,0,0,0,0,0,0,-1,1525,575,0,0
308,449,0,0,0,0,0,0,0,0,0,-1,1532,575,0,0
315,449,0,0,0,0,0,0,0,0,0,-1,1539,575,0,0
322,449,0,0,0,0,0,0,0,0,0,-1,1546,575,0,0
329,449,0,0,0,0,0,0,0,0,0,-1,1553,575,0,0
336,449,0,0,0,0,0,0,0,0,0,-1,1560,575,0,0
343,449,0,0,0,0,0,0,0,0,0,-1,1567,575,0,0
350,449,0,0,0,0,0,0,0,0,0,-1,1574,575,0,0
357,449,0,0,0,0,0,0,0,0,0,-1,1581,575,0,0
364,449,0,0,0,0,0,0,0,0,0,-1,1588,575,0,0
371,449,0,0,0,0,0,0,0,0,0,-1,1595,575,0,0
378,449,0,0,0,0,0,0,0,0,0,-1,1602,575,0,0
385,449,0,0,0,0,0,0,0,0,0,-1,1609,575,0,0
392,449,7.95471,3.66217,0,0,0,0,0,0,0,-1,1616,575,7.95471,-3.66218
399,449,19.9791,5.565,0,0,0,0,0,0,0,-1,1623,575,19.9791,-5.56499
406,449,20.1846,3.82263,0,0,0,0,0,0,0,-1,1630,575,20.1846,-3.82261
413,449,20.5931,2.22522,0,0,0,0,0,0,0,-1,1637,575,20.5931,-2.22521
420,449,20.7426,0.528564,0,0,0,0,0,0,0,-1,1644,575,20.7425,-0.528559
427,449,8.96924,-4.53351,0,0,0,0,0,0,0,-1,1651,575,8.96925,4.53353
434,449,4.12927,-7.06952,0,0,0,0,0,0,0,-1,1658,575,4.12932,7.06952
441,449,3.89856,-6.06458,0,0,0,0,0,0,0,-1,1665,575,3.89855,6.06459
448,449,4.03198,-5.18207,0,0,0,0,0,0,0,-1,1672,575,4.03197,5.18207
455,449,4.21948,-4.09467,0,0,0,0,0,0,0,-1,1679,575,4.21952,4.09465
462,449,4.23181,-2.96924,0,0,0,0,0,0,0,-1,1686,575,4.23185,2.96926
469,449,4.51672,-2.95135,0,0,0,0,0,0,0,-1,1693,575,4.51672,2.95135
476,449,4.71838,-1.86688,0,0,0,0,0,0,0,-1,1700,575,4.71842,1.86689
483,449,4.87878,-1.73126,0,0,0,0,0,0,0,-1,1707,575,4.87875,1.73128
490,449,5.73279,-2.74573,0,0,0,0,0,0,0,-1,1714,575,5.73282,2.74575
497,449,8.68738,-6.27234,0,0,0,0,0,0,0,-1,1721,575,8.68736,6.27233
504,449,8.63831,-5.70392,0.00446757,0.00282296,0.00282123,0.00658389,0.000706634,0.643592,0.0041737,0.0413651,1728,575,8.63825,5.70392
511,449,8.68384,-5.35736,0.00401836,0.00221839,0.00261758,0.00588635,0.000350404,0.619817,0.0038128,0.0111564,1735,575,8.68386,5.35735
518,449,8.70752,-5.06885,0.00320021,0.00176219,0.00214266,0.00474128,0.000221121,0.623518,0.00308978,0.0131369,1742,575,8.70748,5.06885
525,449,8.69458,-4.78931,0.00224974,0.00164238,0.00174224,0.00371457,0.000177559,0.699113,0.00241937,0.0127233,1749,575,8.69454,4.78933
532,449,8.67175,-4.48706,0.00133044,0.00168824,0.00143489,0.00295535,6.33395e-05,0.847417,0.00194946,0.0101414,1756,575,8.67175,4.48704
539,449,8.64209,-4.16876,0.000482961,0.00172222,0.0011758,0.00243166,-0.000226486,1.0279,0.00170164,0.0129284,1763,575,8.64207,4.16876
546,449,8.6499,-3.85736,-0.000181896,0.00205822,0.00117887,0.00256428,-0.000687956,1.16531,0.00197911,0.0224752,1770,575,8.64991,3.85733
553,449,8.64136,-3.56976,-0.000803866,0.00241183,0.00120157,0.00281121,-0.00120324,1.24991,0.00237891,0.0158751,1777,575,8.64131,3.56979
560,449,8.67163,-3.27283,-0.00131931,0.00276418,0.00132237,0.003155,-0.00171013,1.28343,0.00284988,0.0138175,1784,575,8.67165,3.27282
567,449,8.65454,-2.9632,-0.0016548,0.00314202,0.00158959,0.00362097,-0.00213375,1.27815,0.00335927,0.00989718,1791,575,8.65452,2.96317
574,449,8.66431,-2.62347,-0.00182886,0.00350895,0.00198036,0.00416342,-0.00248334,1.25161,0.00387816,0.0198619,1798,575,8.66433,2.62346
581,449,8.71216,-2.15839,0,0,0,0,0,0,0,-1,1805,575,8.7122,2.1584
588,449,8.66479,-1.75879,0,0,0,0,0,0,0,-1,1812,575,8.66474,1.75876
595,449,9.00342,-1.33105,0,0,0,0,0,0,0,-1,1819,575,9.0034,1.33105
602,449,9.46167,4.17444,0,0,0,0,0,0,0,-1,1826,575,9.46164,-4.17442
609,449,12.2028,3.18652,0,0,0,0,0,0,0,-1,1833,575,12.2027,-3.18655
616,449,14.9438,2.19867,0,0,0,0,0,0,0,-1,1840,575,14.9438,-2.19867
623,449,9.83789,-0.0820313,0,0,0,0,0,0,0,-1,1847,575,9.83794,0.0820443
630,449,8.90686,4.99329,0,0,0,0,0,0,0,-1,1854,575,8.90685,-4.99327
637,449,0,0,0,0,0,0,0,0,0,-1,1861,575,0,0
644,449,0,0,0,0,0,0,0,0,0,-1,1868,575,0,0
651,449,0,0,0,0,0,0,0,0,0,-1,1875,575,0,0
658,449,0,0,0,0,0,0,0,0,0,-1,1882,575,0,0
665,449,0,0,0,0,0,0,0,0,0,-1,1889,575,0,0
672,449,0,0,0,0,0,0,0,0,0,-1,1896,575,0,0
679,449,0,0,0,0,0,0,0,0,0,-1,1903,575,0,0
686,449,0,0,0,0,0,0,0,0,0,-1,1910,575,0,0
693,449,0,0,0,0,0,0,0,0,0,-1,1917,575,0,0
700,449,0,0,0,0,0,0,0,0,0,-1,1924,575,0,0
707,449,0,0,0,0,0,0,0,0,0,-1,1931,575,0,0
714,449,0,0,0,0,0,0,0,0,0,-1,1938,575,0,0
721,449,0,0,0,0,0,0,0,0,0,-1,1945,575,0,0
728,449,0,0,0,0,0,0,0,0,0,-1,1952,575,0,0
735,449,0,0,0,0,0,0,0,0,0,-1,1959,575,0,0
742,449,0,0,0,0,0,0,0,0,0,-1,1966,575,0,0
749,449,0,0,0,0,0,0,0,0,0,-1,1973,575,0,0
756,449,0,0,0,0,0,0,0,0,0,-1,1980,575,0,0
763,449,0,0,0,0,0,0,0,0,0,-1,1987,575,0,0
770,449,0,0,0,0,0,0,0,0,0,-1,1994,575,0,0
777,449,0,0,0,0,0,0,0,0,0,-1,2001,575,0,0
784,449,0,0,0,0,0,0,0,0,0,-1,2008,575,0,0
791,449,0,0,0,0,0,0,0,0,0,-1,2015,575,0,0
798,449,0,0,0,0,0,0,0,0,0,-1,2022,575,0,0
805,449,0,0,0,0,0,0,0,0,0,-1,2029,575,0,0
812,449,0,0,0,0,0,0,0,0,0,-1,2036,575,0,0
-700,442,0,0,0,0,0,0,0,0,0,-1,524,582,0,0
-693,442,0,0,0,0,0,0,0,0,0,-1,531,582,0,0
-686,442,0,0,0,0,0,0,0,0,0,-1,538,582,0,0
-679,442,0,0,0,0,0,0,0,0,0,-1,545,582,0,0
-672,442,0,0,0,0,0,0,0,0,0,-1,552,582,0,0
-665,442,0,0,0,0,0,0,0,0,0,-1,559,582,0,0
-658,442,0,0,0,0,0,0,0,0,0,-1,566,582,0,0
-651,442,0,0,0,0,0,0,0,0,0,-1,573,582,0,0
-644,442,0,0,0,0,0,0,0,0,0,-1,580,582,0,0
-637,442,0,0,0,0,0,0,0,0,0,-1,587,582,0,0
-630,442,0,0,0,0,0,0,0,0,0,-1,594,582,0,0
-623,442,0,0,0,0,0,0,0,0,0,-1,601,582,0,0
-616,442,0,0,0,0,0,0,0,0,0,-1,608,582,0,0
-609,442,0,0,0,0,0,0,0,0,0,-1,615,582,0,0
-602,442,0,0,0,0,0,0,0,0,0,-1,622,582,0,0
-595,442,0,0,0,0,0,0,0,0,0,-1,629,582,0,0
-588,442,0,0,0,0,0,0,0,0,0,-1,636,582,0,0
-581,442,0,0,0,0,0,0,0,0,0,-1,643,582,0,0
-574,442,0,0,0,0,0,0,0,0,0,-1,650,582,0,0
-567,442,0,0,0,0,0,0,0,0,0,-1,657,582,0,0
-560,442,0,0,0,0,0,0,0,0,0,-1,664,582,0,0
-553,442,0,0,0,0,0,0,0,0,0,-1,671,582,0,0
-546,442,0,0,0,0,0,0,0,0,0,-1,678,582,0,0
-539,442,0,0,0,0,0,0,0,0,0,-1,685,582,0,0
-532,442,0,0,0,0,0,0,0,0,0,-1,692,582,0,0
-525,442,0,0,0,0,0,0,0,0,0,-1,699,582,0,0
-518,442,-0.493774,-5.72943,0,0,0,0,0,0,0,-1,706,582,-0.493791,5.72946
-511,442,-1.68738,-5.91357,0,0,0,0,0,0,0,-1,713,582,-1.68736,5.91359
-504,442,-3.20807,-6.34082,0,0,0,0,0,0,0,-1,720,582,-3.2081,6.34083
-497,442,-13.6886,-0.250122,0,0,0,0,0,0,0,-1,727,582,-13.6886,0.250143
-490,442,-7.30066,-3.28326,0,0,0,0,0,0,0,-1,734,582,-7.30064,3.28329
-483,442,-4.65228,-1.36835,0,0,0,0,0,0,0,-1,741,582,-4.6523,1.36837
-476,442,-2.94043,-2.28052,0,0,0,0,0,0,0,-1,748,582,-2.94043,2.28052
-469,442,-2.81604,-3.41125,0,0,0,0,0,0,0,-1,755,582,-2.81605,3.41129
-462,442,-2.99139,-3.83173,0.00492195,0.00540948,-0.00703212,0.0122021,-0.00187063,-0.802724,0.00882458,0.037254,762,582,-2.9914,3.83175
-455,442,-3.13806,-4.07312,0.00317527,0.00526217,-0.00645567,0.0107582,-0.00232074,-0.865522,0.00805787,0.0288562,769,582,-3.13808,4.07311
-448,442,-3.07971,-4.34979,0.00228218,0.00427524,-0.00505409,0.0084301,-0.00187268,-0.882736,0.00633721,0.0145138,776,582,-3.07969,4.34979
-441,442,-3.08002,-4.62921,0.00174617,0.00344489,-0.003959,0.00664461,-0.00145355,-0.891066,0.0049854,0.0136905,783,582,-3.08001,4.62923
-434,442,-3.09552,-4.90771,0.00104625,0.00240107,-0.00280595,0.00461022,-0.00116289,-0.903842,0.00352563,0.0123937,790,582,-3.09555,4.90773
-427,442,-3.11884,-5.17596,0.000452007,0.00156813,-0.00181451,0.00290846,-0.000888319,-0.934585,0.00229317,0.0125647,797,582,-3.11886,5.17598
-420,442,-3.11707,-5.49603,-7.26711e-05,0.000837991,-0.000958805,0.00144409,-0.00067877,-1.00708,0.0012519,0.0128615,804,582,-3.11708,5.49606
-413,442,-3.09686,-5.7677,-0.000804377,6.1709e-05,-2.79187e-05,6.2608e-05,-0.000805276,-1.53861,0.00055889,0.0105842,811,582,-3.09684,5.76771
-406,442,-3.11194,-6.03619,-0.00144665,-0.000649228,0.000831237,-0.000126023,-0.00196985,1.00902,0.00127331,0.00852455,818,582,-3.11191,6.03617
-399,442,-3.11725,-6.32642,-0.00214365,-0.00151678,0.00172375,-7.8203e-05,-0.00358222,0.875333,0.00236251,0.00809203,825,582,-3.11726,6.3264
-392,442,-3.0943,-6.58905,-0.00308474,-0.00281243,0.00254115,-0.000403795,-0.00549338,0.812163,0.00353535,0.0101663,832,582,-3.09429,6.58903
-385,442,-3.0918,-6.84265,-0.00442652,-0.00405417,0.00316367,-0.00107121,-0.00740949,0.814788,0.00462413,0.011653,839,582,-3.09181,6.84268
-378,442,-3.1004,-7.12476,-0.00572651,-0.00551208,0.00380043,-0.00181735,-0.00942124,0.7995,0.00577123,0.0120033,846,582,-3.10041,7.12476
-371,442,-3.10944,-7.43103,-0.0072268,-0.00712743,0.00420413,-0.00297269,-0.0113815,0.791307,0.0068164,0.0211894,853,582,-3.10946,7.43105
-364,442,-3.24603,-7.73248,-0.00909881,-0.00935184,0.00444339,-0.00478014,-0.0136705,0.771166,0.00801071,0.0357377,860,582,-3.24604,7.73251
-357,442,-3.31879,-8.01593,0,0,0,0,0,0,0,-1,867,582,-3.31879,8.01594
-350,442,-1.75372,-6.27618,0,0,0,0,0,0,0,-1,874,582,-1.75371,6.27618
-343,442,-1.4599,-4.63605,0,0,0,0,0,0,0,-1,881,582,-1.4599,4.63607
-336,442,-1.4054,-2.64313,0,0,0,0,0,0,0,-1,888,582,-1.40539,2.64315
-329,442,-0.952576,-2.76923,0,0,0,0,0,0,0,-1,895,582,-0.952571,2.7692
-322,442,-0.972534,-2.63208,0,0,0,0,0,0,0,-1,902,582,-0.972512,2.6321
-315,442,-0.445557,-2.89764,0,0,0,0,0,0,0,-1,909,582,-0.445582,2.89765
-308,442,-0.654175,-3.07831,0,0,0,0,0,0,0,-1,916,582,-0.654145,3.07832
-301,442,-1.37427,-2.41455,0,0,0,0,0,0,0,-1,923,582,-1.37425,2.41453
-294,442,-2.99963,-2.07855,0,0,0,0,0,0,0,-1,930,582,-2.99964,2.07857
-287,442,-5.62799,-2.76422,0,0,0,0,0,0,0,-1,937,582,-5.628,2.76424
-280,442,0,0,0,0,0,0,0,0,0,-1,944,582,0,0
-273,442,0,0,0,0,0,0,0,0,0,-1,951,582,0,0
-266,442,0,0,0,0,0,0,0,0,0,-1,958,582,0,0
-259,442,0,0,0,0,0,0,0,0,0,-1,965,582,0,0
-252,442,0,0,0,0,0,0,0,0,0,-1,972,582,0,0
-245,442,0,0,0,0,0,0,0,0,0,-1,979,582,0,0
-238,442,0,0,0,0,0,0,0,0,0,-1,986,582,0,0
-231,442,0,0,0,0,0,0,0,0,0,-1,993,582,0,0
-224,442,0,0,0,0,0,0,0,0,0,-1,1000,582,0,0
-217,442,0,0,0,0,0,0,0,0,0,-1,1007,582,0,0
-210,442,0,0,0,0,0,0,0,0,0,-1,1014,582,0,0
-203,442,0,0,0,0,0,0,0,0,0,-1,1021,582,0,0
-196,442,0,0,0,0,0,0,0,0,0,-1,1028,582,0,0
-189,442,0,0,0,0,0,0,0,0,0,-1,1035,582,0,0
-182,442,0,0,0,0,0,0,0,0,0,-1,1042,582,0,0
-175,442,0,0,0,0,0,0,0,0,0,-1,1049,582,0,0
-168,442,0,0,0,0,0,0,0,0,0,-1,1056,582,0,0
-161,442,0,0,0,0,0,0,0,0,0,-1,1063,582,0,0
-154,442,0,0,0,0,0,0,0,0,0,-1,1070,582,0,0
-147,442,0,0,0,0,0,0,0,0,0,-1,1077,582,0,0
-140,442,0,0,0,0,0,0,0,0,0,-1,1084,582,0,0
-133,442,0,0,0,0,0,0,0,0,0,-1,1091,582,0,0
-126,442,0,0,0,0,0,0,0,0,0,-1,1098,582,0,0
-119,442,0,0,0,0,0,0,0,0,0,-1,1105,582,0,0
-112,442,0,0,0,0,0,0,0,0,0,-1,1112,582,0,0
-105,442,0,0,0,0,0,0,0,0,0,-1,1119,582,0,0
-98,442,0,0,0,0,0,0,0,0,0,-1,1126,582,0,0
-91,442,0,0,0,0,0,0,0,0,0,-1,1133,582,0,0
-84,442,0,0,0,0,0,0,0,0,0,-1,1140,582,0,0
-77,442,0,0,0,0,0,0,0,0,0,-1,1147,582,0,0
-70,442,0,0,0,0,0,0,0,0,0,-1,1154,582,0,0
-63,442,0,0,0,0,0,0,0,0,0,-1,1161,582,0,0
-56,442,0,0,0,0,0,0,0,0,0,-1,1168,582,0,0
-49,442,0,0,0,0,0,0,0,0,0,-1,1175,582,0,0
-42,442,0,0,0,0,0,0,0,0,0,-1,1182,582,0,0
-35,442,0,0,0,0,0,0,0,0,0,-1,1189,582,0,0
-28,442,0,0,0,0,0,0,0,0,0,-1,1196,582,0,0
-21,442,0,0,0,0,0,0,0,0,0,-1,1203,582,0,0
-14,442,0,0,0,0,0,0,0,0,0,-1,1210,582,0,0
-7,442,0,0,0,0,0,0,0,0,0,-1,1217,582,0,0
0,442,0,0,0,0,0,0,0,0,0,-1,1224,582,0,0
7,442,0,0,0,0,0,0,0,0,0,-1,1231,582,0,0
14,442,0,0,0,0,0,0,0,0,0,-1,1238,582,0,0
21,442,0,0,0,0,0,0,0,0,0,-1,1245,582,0,0
28,442,0,0,0,0,0,0,0,0,0,-1,1252,582,0,0
35,442,0,0,0,0,0,0,0,0,0,-1,1259,582,0,0
42,442,0,0,0,0,0,0,0,0,0,-1,1266,582,0,0
49,442,0,0,0,0,0,0,0,0,0,-1,1273,582,0,0
56,442,0,0,0,0,0,0,0,0,0,-1,1280,582,0,0
63,442,0,0,0,0,0,0,0,0,0,-1,1287,582,0,0
70,442,0,0,0,0,0,0,0,0,0,-1,1294,582,0,0
77,442,0,0,0,0,0,0,0,0,0,-1,1301,582,0,0
84,442,0,0,0,0,0,0,0,0,0,-1,1308,582,0,0
91,442,0,0,0,0,0,0,0,0,0,-1,1315,582,0,0
98,442,0,0,0,0,0,0,0,0,0,-1,1322,582,0,0
105,442,0,0,0,0,0,0,0,0,0,-1,1329,582,0,0
112,442,0,0,0,0,0,0,0,0,0,-1,1336,582,0,0
119,442,0,0,0,0,0,0,0,0,0,-1,1343,582,0,0
126,442,0,0,0,0,0,0,0,0,0,-1,1350,582,0,0
133,442,0,0,0,0,0,0,0,0,0,-1,1357,582,0,0
140,442,0,0,0,0,0,0,0,0,0,-1,1364,582,0,0
147,442,0,0,0,0,0,0,0,0,0,-1,1371,582,0,0
154,442,0,0,0,0,0,0,0,0,0,-1,1378,582,0,0
161,442,0,0,0,0,0,0,0,0,0,-1,1385,582,0,0
168,442,0,0,0,0,0,0,0,0,0,-1,1392,582,0,0
175,442,0,0,0,0,0,0,0,0,0,-1,1399,582,0,0
182,442,0,0,0,0,0,0,0,0,0,-1,1406,582,0,0
189,442,0,0,0,0,0,0,0,0,0,-1,1413,582,0,0
196,442,0,0,0,0,0,0,0,0,0,-1,1420,582,0,0
203,442,0,0,0,0,0,0,0,0,0,-1,1427,582,0,0
210,442,0,0,0,0,0,0,0,0,0,-1,1434,582,0,0
217,442,0,0,0,0,0,0,0,0,0,-1,1441,582,0,0
224,442,0,0,0,0,0,0,0,0,0,-1,1448,582,0,0
231,442,0,0,0,0,0,0,0,0,0,-1,1455,582,0,0
238,442,0,0,0,0,0,0,0,0,0,-1,1462,582,0,0
245,442,0,0,0,0,0,0,0,0,0,-1,1469,582,0,0
252,442,0,0,0,0,0,0,0,0,0,-1,1476,582,0,0
259,442,0,0,0,0,0,0,0,0,0,-1,1483,582,0,0
266,442,0,0,0,0,0,0,0,0,0,-1,1490,582,0,0
273,442,0,0,0,0,0,0,0,0,0,-1,1497,582,0,0
280,442,0,0,0,0,0,0,0,0,0,-1,1504,582,0,0
287,442,0,0,0,0,0,0,0,0,0,-1,1511,582,0,0
294,442,0,0,0,0,0,0,0,0,0,-1,1518,582,0,0
301,442,0,0,0,0,0,0,0,0,0,-1,1525,582,0,0
308,442,0,0,0,0,0,0,0,0,0,-1,1532,582,0,0
315,442,0,0,0,0,0,0,0,0,0,-1,1539,582,0,0
322,442,0,0,0,0,0,0,0,0,0,-1,1546,582,0,0
329,442,0,0,0,0,0,0,0,0,0,-1,1553,582,0,0
336,442,0,0,0,0,0,0,0,0,0,-1,1560,582,0,0
343,442,0,0,0,0,0,0,0,0,0,-1,1567,582,0,0
350,442,0,0,0,0,0,0,0,0,0,-1,1574,582,0,0
357,442,0,0,0,0,0,0,0,0,0,-1,1581,582,0,0
364,442,0,0,0,0,0,0,0,0,0,-1,1588,582,0,0
371,442,0,0,0,0,0,0,0,0,0,-1,1595,582,0,0
378,442,0,0,0,0,0,0,0,0,0,-1,1602,582,0,0
385,442,0,0,0,0,0,0,0,0,0,-1,1609,582,0,0
392,442,0,0,0,0,0,0,0,0,0,-1,1616,582,0,0
399,442,0,0,0,0,0,0,0,0,0,-1,1623,582,0,0
406,442,17.6321,4.08295,0,0,0,0,0,0,0,-1,1630,582,17.6321,-4.08293
413,442,17.6935,2.57434,0,0,0,0,0,0,0,-1,1637,582,17.6934,-2.57437
420,442,4.69055,3.09448,0,0,0,0,0,0,0,-1,1644,582,4.69054,-3.0945
427,442,2.44519,-1.35358,0,0,0,0,0,0,0,-1,1651,582,2.44514,1.35361
434,442,8.45898,-3.86719,0,0,0,0,0,0,0,-1,1658,582,8.45904,3.86719
441,442,4.89368,-7.42456,0,0,0,0,0,0,0,-1,1665,582,4.89365,7.42457
448,442,4.7749,-5.88562,0,0,0,0,0,0,0,-1,1672,582,4.7749,5.8856
455,442,4.87024,-4.60687,0,0,0,0,0,0,0,-1,1679,582,4.87019,4.60686
462,442,5.02307,-3.72821,0,0,0,0,0,0,0,-1,1686,582,5.02311,3.7282
469,442,5.12976,-2.98834,0,0,0,0,0,0,0,-1,1693,582,5.12971,2.98834
476,442,5.4624,1.76947,0,0,0,0,0,0,0,-1,1700,582,5.46234,-1.76944
483,442,5.98486,1.87042,0,0,0,0,0,0,0,-1,1707,582,5.98492,-1.87045
490,442,5.04407,-2.35834,0,0,0,0,0,0,0,-1,1714,582,5.04411,2.35837
497,442,6.20984,-3.07831,0,0,0,0,0,0,0,-1,1721,582,6.2098,3.07833
504,442,8.78845,-5.79706,0,0,0,0,0,0,0,-1,1728,582,8.78846,5.79704
511,442,8.90247,-5.38708,0.00496025,0.00255722,0.00293588,0.00693097,0.000586508,0.59117,0.00443808,0.0256551,1735,582,8.9025,5.3871
518,442,8.98914,-5.05402,0.00407497,0.00190382,0.00241698,0.00563897,0.000339814,0.574326,0.00365132,0.0113364,1742,582,8.98914,5.054
525,442,8.97766,-4.76636,0.00306487,0.00165142,0.00199276,0.00447251,0.000243781,0.614993,0.00290383,0.0108083,1749,582,8.97763,4.76635
532,442,8.98096,-4.45734,0.00212767,0.00148232,0.00164524,0.00348157,0.000128408,0.688564,0.00227945,0.0105654,1756,582,8.98094,4.45731
539,442,8.97095,-4.15656,0.00127365,0.00131292,0.00132045,0.00261388,-2.73079e-05,0.792833,0.00175176,0.0110236,1763,582,8.97093,4.15658
546,442,8.95837,-3.87994,0.000609732,0.0014163,0.00122027,0.0022982,-0.000272166,0.944992,0.00163044,0.0145186,1770,582,8.9584,3.87996
553,442,8.94373,-3.58472,1.07693e-05,0.00154046,0.00115395,0.00216002,-0.000608791,1.07806,0.00168012,0.015518,1777,582,8.94373,3.58472
560,442,8.96362,-3.26575,-0.000502877,0.00168854,0.00116242,0.00219027,-0.0010046,1.16333,0.00188642,0.0148041,1784,582,8.96368,3.26574
567,442,8.9386,-2.93781,-0.000845504,0.00190373,0.00131057,0.00242837,-0.00137014,1.19002,0.00222126,0.0108597,1791,582,8.9386,2.93778
574,442,8.93884,-2.62097,-0.000981282,0.00217161,0.00162398,0.00285845,-0.00166813,1.17067,0.00264337,0.0133432,1798,582,8.9389,2.62095
581,442,8.9823,-2.28387,-0.00100276,0.002595,0.0021199,0.0035764,-0.00198416,1.13723,0.00325397,0.0209148,1805,582,8.98233,2.2839
588,442,8.93982,-2.14203,-0.000840299,0.00317838,0.00286655,0.00466969,-0.00233161,1.09108,0.00411665,0.031502,1812,582,8.93979,2.14203
595,442,8.99805,-1.64758,-0.000476446,0.00425338,0.00389909,0.0064487,-0.00267177,1.058,0.00541412,0.0445,1819,582,8.998,1.64759
602,442,8.7146,-1.19244,0,0,0,0,0,0,0,-1,1826,582,8.71463,1.19243
609,442,9.38428,2.86908,0,0,0,0,0,0,0,-1,1833,582,9.38429,-2.86906
616,442,9.78345,-0.103394,0,0,0,0,0,0,0,-1,1840,582,9.78341,0.103424
623,442,9.23828,0.326721,0,0,0,0,0,0,0,-1,1847,582,9.23829,-0.326727
630,442,7.74304,2.3924,0,0,0,0,0,0,0,-1,1854,582,7.7431,-2.39238
637,442,5.87805,1.84027,0,0,0,0,0,0,0,-1,1861,582,5.87807,-1.84025
644,442,0,0,0,0,0,0,0,0,0,-1,1868,582,0,0
651,442,0,0,0,0,0,0,0,0,0,-1,1875,582,0,0
658,442,0,0,0,0,0,0,0,0,0,-1,1882,582,0,0
665,442,0,0,0,0,0,0,0,0,0,-1,1889,582,0,0
672,442,0,0,0,0,0,0,0,0,0,-1,1896,582,0,0
679,442,0,0,0,0,0,0,0,0,0,-1,1903,582,0,0
686,442,0,0,0,0,0,0,0,0,0,-1,1910,582,0,0
693,442,0,0,0,0,0,0,0,0,0,-1,1917,582,0,0
700,442,0,0,0,0,0,0,0,0,0,-1,1924,582,0,0
707,442,0,0,0,0,0,0,0,0,0,-1,1931,582,0,0
714,442,0,0,0,0,0,0,0,0,0,-1,1938,582,0,0
721,442,0,0,0,0,0,0,0,0,0,-1,1945,582,0,0
728,442,0,0,0,0,0,0,0,0,0,-1,1952,582,0,0
735,442,0,0,0,0,0,0,0,0,0,-1,1959,582,0,0
742,442,0,0,0,0,0,0,0,0,0,-1,1966,582,0,0
749,442,0,0,0,0,0,0,0,0,0,-1,1973,582,0,0
756,442,0,0,0,0,0,0,0,0,0,-1,1980,582,0,0
763,442,0,0,0,0,0,0,0,0,0,-1,1987,582,0,0
770,442,0,0,0,0,0,0,0,0,0,-1,1994,582,0,0
777,442,0,0,0,0,0,0,0,0,0,-1,2001,582,0,0
784,442,0,0,0,0,0,0,0,0,0,-1,2008,582,0,0
791,442,0,0,0,0,0,0,0,0,0,-1,2015,582,0,0
798,442,0,0,0,0,0,0,0,0,0,-1,2022,582,0,0
805,442,0,0,0,0,0,0,0,0,0,-1,2029,582,0,0
812,442,0,0,0,0,0,0,0,0,0,-1,2036,582,0,0
-700,435,0,0,0,0,0,0,0,0,0,-1,524,589,0,0
-693,435,0,0,0,0,0,0,0,0,0,-1,531,589,0,0
-686,435,0,0,0,0,0,0,0,0,0,-1,538,589,0,0
-679,435,0,0,0,0,0,0,0,0,0,-1,545,589,0,0
-672,435,0,0,0,0,0,0,0,0,0,-1,552,589,0,0
-665,435,0,0,0,0,0,0,0,0,0,-1,559,589,0,0
-658,435,0,0,0,0,0,0,0,0,0,-1,566,589,0,0
-651,435,0,0,0,0,0,0,0,0,0,-1,573,589,0,0
-644,435,0,0,0,0,0,0,0,0,0,-1,580,589,0,0
-637,435,0,0,0,0,0,0,0,0,0,-1,587,589,0,0
-630,435,0,0,0,0,0,0,0,0,0,-1,594,589,0,0
-623,435,0,0,0,0,0,0,0,0,0,-1,601,589,0,0
-616,435,0,0,0,0,0,0,0,0,0,-1,608,589,0,0
-609,435,0,0,0,0,0,0,0,0,0,-1,615,589,0,0
-602,435,0,0,0,0,0,0,0,0,0,-1,622,589,0,0
-595,435,0,0,0,0,0,0,0,0,0,-1,629,589,0,0
-588,435,0,0,0,0,0,0,0,0,0,-1,636,589,0,0
-581,435,0,0,0,0,0,0,0,0,0,-1,643,589,0,0
-574,435,0,0,0,0,0,0,0,0,0,-1,650,589,0,0
-567,435,0,0,0,0,0,0,0,0,0,-1,657,589,0,0
-560,435,0,0,0,0,0,0,0,0,0,-1,664,589,0,0
-553,435,0,0,0,0,0,0,0,0,0,-1,671,589,0,0
-546,435,0,0,0,0,0,0,0,0,0,-1,678,589,0,0
-539,435,0,0,0,0,0,0,0,0,0,-1,685,589,0,0
-532,435,0,0,0,0,0,0,0,0,0,-1,692,589,0,0
-525,435,-10.0776,10.0547,0,0,0,0,0,0,0,-1,699,589,-10.0776,-10.0547
-518,435,-0.928711,-4.91492,0,0,0,0,0,0,0,-1,706,589,-0.928723,4.91489
-511,435,-2.43555,-5.38599,0,0,0,0,0,0,0,-1,713,589,-2.43553,5.38597
-504,435,-3.89355,-5.72308,0,0,0,0,0,0,0,-1,720,589,-3.89353,5.72309
-497,435,-6.31012,-5.84698,0,0,0,0,0,0,0,-1,727,589,-6.31012,5.84697
-490,435,-5.46594,-1.20123,0,0,0,0,0,0,0,-1,734,589,-5.46594,1.20122
-483,435,-4.67786,-1.65143,0,0,0,0,0,0,0,-1,741,589,-4.67784,1.65144
-476,435,-3.44452,-2.91846,0,0,0,0,0,0,0,-1,748,589,-3.44452,2.91845
-469,435,-3.34229,-3.31091,0.00664309,0.00150046,-0.0043429,0.0091188,-0.000975251,-0.518113,0.00642899,0.0315169,755,589,-3.34226,3.3109
-462,435,-3.2876,-3.78363,0.00405738,0.00370548,-0.00497579,0.00886033,-0.00109747,-0.767725,0.00630463,0.0161717,762,589,-3.2876,3.78365
-455,435,-3.36554,-4.02307,0.00255508,0.00405383,-0.00492287,0.00828403,-0.00167512,-0.86093,0.00615749,0.0149421,769,589,-3.36557,4.0231
-448,435,-3.36853,-4.33545,0.00179972,0.00316114,-0.00377059,0.00631197,-0.00135111,-0.874702,0.00472321,0.0130654,776,589,-3.36852,4.33547
-441,435,-3.36432,-4.61963,0.00129454,0.00246109,-0.00287145,0.00480791,-0.00105227,-0.885599,0.00360755,0.0112648,783,589,-3.36433,4.61963
-434,435,-3.38568,-4.85797,0.000551072,0.00145158,-0.00180692,0.0028635,-0.000860846,-0.907503,0.00225149,0.0117973,790,589,-3.38567,4.85795
-427,435,-3.3949,-5.17389,-9.19618e-05,0.000643636,-0.000884002,0.0012333,-0.000681626,-0.982536,0.00112077,0.00966442,797,589,-3.39493,5.17392
-420,435,-3.38934,-5.47919,-0.000703761,-7.1001e-05,-7.5742e-05,-6.2061e-05,-0.000712701,-1.45331,0.000455858,0.0101722,804,589,-3.38932,5.47921
-413,435,-3.37848,-5.75513,-0.00157023,-0.0008493,0.000853612,-0.000283162,-0.00213636,0.98518,0.00133987,0.0111255,811,589,-3.37846,5.75512
-406,435,-3.3811,-6.01984,-0.00239004,-0.00160579,0.00174626,-0.000208173,-0.00378766,0.895842,0.00245866,0.010995,818,589,-3.38111,6.01986
-399,435,-3.39545,-6.31439,-0.00332509,-0.0025399,0.00270354,-0.0002006,-0.00566439,0.857501,0.0037112,0.00903089,825,589,-3.39547,6.31437
-392,435,-3.39362,-6.58795,-0.00454563,-0.00389702,0.0035894,-0.000617304,-0.00782535,0.830451,0.00502379,0.0101996,832,589,-3.39359,6.58798
-385,435,-3.38129,-6.86322,-0.00626128,-0.00531572,0.0043448,-0.00141805,-0.010159,0.839592,0.00635293,0.012823,839,589,-3.38129,6.86321
-378,435,-3.36707,-7.11694,-0.00806617,-0.00701262,0.00519897,-0.00231381,-0.012765,0.835888,0.00785317,0.0203765,846,589,-3.36708,7.11695
-371,435,-3.48688,-7.35742,-0.0101594,-0.00893031,0.0058372,-0.00367538,-0.0154143,0.837843,0.00929648,0.0374053,853,589,-3.48686,7.35745
-364,435,-3.78125,-7.62854,-0.0127724,-0.0116594,0.0063105,-0.00588094,-0.0185509,0.829379,0.0109468,0.0451589,860,589,-3.78128,7.62855
-357,435,-4.00598,-8.04492,0,0,0,0,0,0,0,-1,867,589,-4.006,8.0449
-350,435,-0.86676,-3.69836,0,0,0,0,0,0,0,-1,874,589,-0.866784,3.69834
-343,435,-1.60706,-2.36835,0,0,0,0,0,0,0,-1,881,589,-1.60706,2.36838
-336,435,-2.07263,-1.94012,0,0,0,0,0,0,0,-1,888,589,-2.07265,1.94014
-329,435,-2.55963,-1.5517,0,0,0,0,0,0,0,-1,895,589,-2.5596,1.55168
-322,435,-3.08545,-1.55255,0,0,0,0,0,0,0,-1,902,589,-3.08544,1.55254
-315,435,-0.404297,-2.63763,0,0,0,0,0,0,0,-1,909,589,-0.404276,2.63761
-308,435,-1.70056,-1.90369,0,0,0,0,0,0,0,-1,916,589,-1.70056,1.90367
-301,435,-1.25232,-2.05511,0,0,0,0,0,0,0,-1,923,589,-1.25234,2.05514
-294,435,-1.79974,-1.97321,0,0,0,0,0,0,0,-1,930,589,-1.79973,1.97322
-287,435,0,0,0,0,0,0,0,0,0,-1,937,589,0,0
-280,435,0,0,0,0,0,0,0,0,0,-1,944,589,0,0
-273,435,0,0,0,0,0,0,0,0,0,-1,951,589,0,0
-266,435,0,0,0,0,0,0,0,0,0,-1,958,589,0,0
-259,435,0,0,0,0,0,0,0,0,0,-1,965,589,0,0
-252,435,0,0,0,0,0,0,0,0,0,-1,972,589,0,0
-245,435,0,0,0,0,0,0,0,0,0,-1,979,589,0,0
-238,435,0,0,0,0,0,0,0,0,0,-1,986,589,0,0
-231,435,0,0,0,0,0,0,0,0,0,-1,993,589,0,0
-224,435,0,0,0,0,0,0,0,0,0,-1,1000,589,0,0
-217,435,0,0,0,0,0,0,0,0,0,-1,1007,589,0,0
-210,435,0,0,0,0,0,0,0,0,0,-1,1014,589,0,0
-203,435,0,0,0,0,0,0,0,0,0,-1,1021,589,0,0
-196,435,0,0,0,0,0,0,0,0,0,-1,1028,589,0,0
-189,435,0,0,0,0,0,0,0,0,0,-1,1035,589,0,0
-182,435,0,0,0,0,0,0,0,0,0,-1,1042,589,0,0
-175,435,0,0,0,0,0,0,0,0,0,-1,1049,589,0,0
-168,435,0,0,0,0,0,0,0,0,0,-1,1056,589,0,0
-161,435,0,0,0,0,0,0,0,0,0,-1,1063,589,0,0
-154,435,0,0,0,0,0,0,0,0,0,-1,1070,589,0,0
-147,435,0,0,0,0,0,0,0,0,0,-1,1077,589,0,0
-140,435,0,0,0,0,0,0,0,0,0,-1,1084,589,0,0
-133,435,0,0,0,0,0,0,0,0,0,-1,1091,589,0,0
-126,435,0,0,0,0,0,0,0,0,0,-1,1098,589,0,0
-119,435,0,0,0,0,0,0,0,0,0,-1,1105,589,0,0
-112,435,0,0,0,0,0,0,0,0,0,-1,1112,589,0,0
-105,435,0,0,0,0,0,0,0,0,0,-1,1119,589,0,0
-98,435,0,0,0,0,0,0,0,0,0,-1,1126,589,0,0
-91,435,0,0,0,0,0,0,0,0,0,-1,1133,589,0,0
-84,435,0,0,0,0,0,0,0,0,0,-1,1140,589,0,0
-77,435,0,0,0,0,0,0,0,0,0,-1,1147,589,0,0
-70,435,0,0,0,0,0,0,0,0,0,-1,1154,589,0,0
-63,435,0,0,0,0,0,0,0,0,0,-1,1161,589,0,0
-56,435,0,0,0,0,0,0,0,0,0,-1,1168,589,0,0
-49,435,0,0,0,0,0,0,0,0,0,-1,1175,589,0,0
-42,435,0,0,0,0,0,0,0,0,0,-1,1182,589,0,0
-35,435,0,0,0,0,0,0,0,0,0,-1,1189,589,0,0
-28,435,0,0,0,0,0,0,0,0,0,-1,1196,589,0,0
-21,435,0,0,0,0,0,0,0,0,0,-1,1203,589,0,0
-14,435,0,0,0,0,0,0,0,0,0,-1,1210,589,0,0
-7,435,0,0,0,0,0,0,0,0,0,-1,1217,589,0,0
0,435,0,0,0,0,0,0,0,0,0,-1,1224,589,0,0
7,435,0,0,0,0,0,0,0,0,0,-1,1231,589,0,0
14,435,0,0,0,0,0,0,0,0,0,-1,1238,589,0,0
21,435,0,0,0,0,0,0,0,0,0,-1,1245,589,0,0
28,435,0,0,0,0,0,0,0,0,0,-1,1252,589,0,0
35,435,0,0,0,0,0,0,0,0,0,-1,1259,589,0,0
42,435,0,0,0,0,0,0,0,0,0,-1,1266,589,0,0
49,435,0,0,0,0,0,0,0,0,0,-1,1273,589,0,0
56,435,0,0,0,0,0,0,0,0,0,-1,1280,589,0,0
63,435,0,0,0,0,0,0,0,0,0,-1,1287,589,0,0
70,435,0,0,0,0,0,0,0,0,0,-1,1294,589,0,0
77,435,0,0,0,0,0,0,0,0,0,-1,1301,589,0,0
84,435,0,0,0,0,0,0,0,0,0,-1,1308,589,0,0
91,435,0,0,0,0,0,0,0,0,0,-1,1315,589,0,0
98,435,0,0,0,0,0,0,0,0,0,-1,1322,589,0,0
105,435,0,0,0,0,0,0,0,0,0,-1,1329,589,0,0
112,435,0,0,0,0,0,0,0,0,0,-1,1336,589,0,0
119,435,0,0,0,0,0,0,0,0,0,-1,1343,589,0,0
126,435,0,0,0,0,0,0,0,0,0,-1,1350,589,0,0
133,435,0,0,0,0,0,0,0,0,0,-1,1357,589,0,0
140,435,0,0,0,0,0,0,0,0,0,-1,1364,589,0,0
147,435,0,0,0,0,0,0,0,0,0,-1,1371,589,0,0
154,435,0,0,0,0,0,0,0,0,0,-1,1378,589,0,0
161,435,0,0,0,0,0,0,0,0,0,-1,1385,589,0,0
168,435,0,0,0,0,0,0,0,0,0,-1,1392,589,0,0
175,435,0,0,0,0,0,0,0,0,0,-1,1399,589,0,0
182,435,0,0,0,0,0,0,0,0,0,-1,1406,589,0,0
189,435,0,0,0,0,0,0,0,0,0,-1,1413,589,0,0
196,435,0,0,0,0,0,0,0,0,0,-1,1420,589,0,0
203,435,0,0,0,0,0,0,0,0,0,-1,1427,589,0,0
210,435,0,0,0,0,0,0,0,0,0,-1,1434,589,0,0
217,435,0,0,0,0,0,0,0,0,0,-1,1441,589,0,0
224,435,0,0,0,0,0,0,0,0,0,-1,1448,589,0,0
231,435,0,0,0,0,0,0,0,0,0,-1,1455,589,0,0
238,435,0,0,0,0,0,0,0,0,0,-1,1462,589,0,0
245,435,0,0,0,0,0,0,0,0,0,-1,1469,589,0,0
252,435,0,0,0,0,0,0,0,0,0,-1,1476,589,0,0
259,435,0,0,0,0,0,0,0,0,0,-1,1483,589,0,0
266,435,0,0,0,0,0,0,0,0,0,-1,1490,589,0,0
273,435,0,0,0,0,0,0,0,0,0,-1,1497,589,0,0
280,435,0,0,0,0,0,0,0,0,0,-1,1504,589,0,0
287,435,0,0,0,0,0,0,0,0,0,-1,1511,589,0,0
294,435,0,0,0,0,0,0,0,0,0,-1,1518,589,0,0
301,435,0,0,0,0,0,0,0,0,0,-1,1525,589,0,0
308,435,0,0,0,0,0,0,0,0,0,-1,1532,589,0,0
315,435,0,0,0,0,0,0,0,0,0,-1,1539,589,0,0
322,435,0,0,0,0,0,0,0,0,0,-1,1546,589,0,0
329,435,0,0,0,0,0,0,0,0,0,-1,1553,589,0,0
336,435,0,0,0,0,0,0,0,0,0,-1,1560,589,0,0
343,435,0,0,0,0,0,0,0,0,0,-1,1567,589,0,0
350,435,0,0,0,0,0,0,0,0,0,-1,1574,589,0,0
357,435,0,0,0,0,0,0,0,0,0,-1,1581,589,0,0
364,435,0,0,0,0,0,0,0,0,0,-1,1588,589,0,0
371,435,0,0,0,0,0,0,0,0,0,-1,1595,589,0,0
378,435,0,0,0,0,0,0,0,0,0,-1,1602,589,0,0
385,435,0,0,0,0,0,0,0,0,0,-1,1609,589,0,0
392,435,0,0,0,0,0,0,0,0,0,-1,1616,589,0,0
399,435,0,0,0,0,0,0,0,0,0,-1,1623,589,0,0
406,435,0,0,0,0,0,0,0,0,0,-1,1630,589,0,0
413,435,3.62073,3.42682,0,0,0,0,0,0,0,-1,1637,589,3.62069,-3.4268
420,435,3.6062,3.71564,0,0,0,0,0,0,0,-1,1644,589,3.60616,-3.71562
427,435,3.11963,0.640198,0,0,0,0,0,0,0,-1,1651,589,3.11967,-0.640192
434,435,2.72107,-1.34802,0,0,0,0,0,0,0,-1,1658,589,2.7211,1.34803
441,435,7.33191,-1.57452,0,0,0,0,0,0,0,-1,1665,589,7.33193,1.57452
448,435,7.4585,-0.00292969,0,0,0,0,0,0,0,-1,1672,589,7.45848,0.00294131
455,435,5.49915,-5.047,0,0,0,0,0,0,0,-1,1679,589,5.49914,5.04703
462,435,5.60669,-4.71466,0,0,0,0,0,0,0,-1,1686,589,5.60675,4.71469
469,435,5.87708,1.22351,0,0,0,0,0,0,0,-1,1693,589,5.87703,-1.22351
476,435,6.14136,1.37714,0,0,0,0,0,0,0,-1,1700,589,6.14138,-1.37712
483,435,6.49243,1.36169,0,0,0,0,0,0,0,-1,1707,589,6.49242,-1.36171
490,435,4.38391,-1.36218,0,0,0,0,0,0,0,-1,1714,589,4.38389,1.3622
497,435,7.23499,-3.64551,0,0,0,0,0,0,0,-1,1721,589,7.23495,3.64551
504,435,7.31189,-3.75909,0,0,0,0,0,0,0,-1,1728,589,7.31184,3.75911
511,435,9.15662,-5.42786,0,0,0,0,0,0,0,-1,1735,589,9.15666,5.42783
518,435,9.28699,-5.0694,0.00471988,0.00302511,0.00337097,0.00734834,0.000396645,0.662261,0.00477218,0.0200349,1742,589,9.28698,5.06942
525,435,9.2876,-4.74994,0.00363074,0.00242651,0.00265832,0.00575428,0.000302976,0.674026,0.00373929,0.0124222,1749,589,9.28764,4.74994
532,435,9.3031,-4.43958,0.00267551,0.00182546,0.00203249,0.00432693,0.000174035,0.682326,0.0028284,0.0139004,1756,589,9.30305,4.43956
539,435,9.29858,-4.14264,0.0018259,0.0012753,0.00143654,0.00301328,8.79179e-05,0.690725,0.0019802,0.0144511,1763,589,9.2986,4.14265
546,435,9.2699,-3.84137,0.00117574,0.000972107,0.00105938,0.00213819,9.6648e-06,0.737489,0.00142225,0.0135875,1770,589,9.26986,3.84135
553,435,9.2605,-3.56567,0.000623136,0.000746327,0.000794827,0.00148194,-0.000112479,0.824069,0.00102751,0.0102092,1777,589,9.26052,3.5657
560,435,9.25879,-3.25476,0.00013989,0.000614663,0.000635939,0.00105608,-0.000301525,0.964031,0.000823178,0.00927433,1784,589,9.25883,3.25478
567,435,9.26709,-2.92639,-0.000186415,0.0006333,0.000655778,0.000996765,-0.000549881,1.0647,0.000905296,0.00926877,1791,589,9.26712,2.92637
574,435,9.24646,-2.62823,-0.000274706,0.000794863,0.000899722,0.00130674,-0.00078658,1.05354,0.00122095,0.0108118,1798,589,9.24645,2.62826
581,435,9.22644,-2.35132,-0.000240355,0.00118749,0.00133956,0.00199149,-0.00104436,1.03023,0.00178096,0.0181594,1805,589,9.22642,2.35134
588,435,9.23474,-2.05896,-6.34688e-05,0.00179659,0.00202243,0.00309259,-0.00135946,1.00091,0.00263451,0.0239326,1812,589,9.23479,2.05894
595,435,9.17151,-1.76721,0.000317105,0.00284794,0.00302398,0.0048606,-0.00169555,0.983558,0.00392947,0.0255568,1819,589,9.17154,1.76719
602,435,9.08423,-1.32922,0.000774342,0.00428648,0.00429544,0.00717094,-0.00211013,0.979442,0.0056177,0.0451211,1826,589,9.08427,1.32921
609,435,9.04626,-0.977783,0,0,0,0,0,0,0,-1,1833,589,9.04627,0.97778
616,435,5.05151,-2.75269,0,0,0,0,0,0,0,-1,1840,589,5.05157,2.7527
623,435,11.7588,3.9704,0,0,0,0,0,0,0,-1,1847,589,11.7587,-3.97043
630,435,4.72742,-0.87561,0,0,0,0,0,0,0,-1,1854,589,4.7274,0.875636
637,435,5.05286,1.48792,0,0,0,0,0,0,0,-1,1861,589,5.05291,-1.48792
644,435,0,0,0,0,0,0,0,0,0,-1,1868,589,0,0
651,435,0,0,0,0,0,0,0,0,0,-1,1875,589,0,0
658,435,0,0,0,0,0,0,0,0,0,-1,1882,589,0,0
665,435,0,0,0,0,0,0,0,0,0,-1,1889,589,0,0
672,435,0,0,0,0,0,0,0,0,0,-1,1896,589,0,0
679,435,0,0,0,0,0,0,0,0,0,-1,1903,589,0,0
686,435,0,0,0,0,0,0,0,0,0,-1,1910,589,0,0
693,435,0,0,0,0,0,0,0,0,0,-1,1917,589,0,0
700,435,0,0,0,0,0,0,0,0,0,-1,1924,589,0,0
707,435,0,0,0,0,0,0,0,0,0,-1,1931,589,0,0
714,435,0,0,0,0,0,0,0,0,0,-1,1938,589,0,0
721,435,0,0,0,0,0,0,0,0,0,-1,1945,589,0,0
728,435,0,0,0,0,0,0,0,0,0,-1,1952,589,0,0
735,435,0,0,0,0,0,0,0,0,0,-1,1959,589,0,0
742,435,0,0,0,0,0,0,0,0,0,-1,1966,589,0,0
749,435,0,0,0,0,0,0,0,0,0,-1,1973,589,0,0
756,435,0,0,0,0,0,0,0,0,0,-1,1980,589,0,0
763,435,0,0,0,0,0,0,0,0,0,-1,1987,589,0,0
770,435,0,0,0,0,0,0,0,0,0,-1,1994,589,0,0
777,435,0,0,0,0,0,0,0,0,0,-1,2001,589,0,0
784,435,0,0,0,0,0,0,0,0,0,-1,2008,589,0,0
791,435,0,0,0,0,0,0,0,0,0,-1,2015,589,0,0
798,435,0,0,0,0,0,0,0,0,0,-1,2022,589,0,0
805,435,0,0,0,0,0,0,0,0,0,-1,2029,589,0,0
812,435,0,0,0,0,0,0,0,0,0,-1,2036,589,0,0
-700,428,0,0,0,0,0,0,0,0,0,-1,524,596,0,0
-693,428,0,0,0,0,0,0,0,0,0,-1,531,596,0,0
-686,428,0,0,0,0,0,0,0,0,0,-1,538,596,0,0
-679,428,0,0,0,0,0,0,0,0,0,-1,545,596,0,0
-672,428,0,0,0,0,0,0,0,0,0,-1,552,596,0,0
-665,428,0,0,0,0,0,0,0,0,0,-1,559,596,0,0
-658,428,0,0,0,0,0,0,0,0,0,-1,566,596,0,0
-651,428,0,0,0,0,0,0,0,0,0,-1,573,596,0,0
-644,428,0,0,0,0,0,0,0,0,0,-1,580,596,0,0
-637,428,0,0,0,0,0,0,0,0,0,-1,587,596,0,0
-630,428,0,0,0,0,0,0,0,0,0,-1,594,596,0,0
-623,428,0,0,0,0,0,0,0,0,0,-1,601,596,0,0
-616,428,0,0,0,0,0,0,0,0,0,-1,608,596,0,0
-609,428,0,0,0,0,0,0,0,0,0,-1,615,596,0,0
-602,428,0,0,0,0,0,0,0,0,0,-1,622,596,0,0
-595,428,0,0,0,0,0,0,0,0,0,-1,629,596,0,0
-588,428,0,0,0,0,0,0,0,0,0,-1,636,596,0,0
-581,428,0,0,0,0,0,0,0,0,0,-1,643,596,0,0
-574,428,0,0,0,0,0,0,0,0,0,-1,650,596,0,0
-567,428,0,0,0,0,0,0,0,0,0,-1,657,596,0,0
-560,428,0,0,0,0,0,0,0,0,0,-1,664,596,0,0
-553,428,0,0,0,0,0,0,0,0,0,-1,671,596,0,0
-546,428,0,0,0,0,0,0,0,0,0,-1,678,596,0,0
-539,428,0,0,0,0,0,0,0,0,0,-1,685,596,0,0
-532,428,0,0,0,0,0,0,0,0,0,-1,692,596,0,0
-525,428,-9.59918,7.58618,0,0,0,0,0,0,0,-1,699,596,-9.59918,-7.5862
-518,428,-1.78259,-8.1123,0,0,0,0,0,0,0,-1,706,596,-1.78261,8.11233
-511,428,-3.32758,-4.85852,0,0,0,0,0,0,0,-1,713,596,-3.32759,4.85853
-504,428,-4.19916,-4.97797,0,0,0,0,0,0,0,-1,720,596,-4.19918,4.97795
-497,428,-2.85516,-3.52179,0,0,0,0,0,0,0,-1,727,596,-2.85517,3.52181
-490,428,-4.53705,-1.94257,0,0,0,0,0,0,0,-1,734,596,-4.53705,1.94259
-483,428,-4.91663,-2.45776,0,0,0,0,0,0,0,-1,741,596,-4.91666,2.45775
-476,428,-4.2771,-2.92267,0,0,0,0,0,0,0,-1,748,596,-4.27708,2.92267
-469,428,-3.6134,-3.42719,0.00566038,-0.000151762,-0.00238299,0.00651249,-0.00100386,-0.343409,0.00471206,0.0199029,755,596,-3.61338,3.42717
-462,428,-3.64612,-3.72302,0.00338251,0.00234445,-0.00336817,0.00627141,-0.000544445,-0.70895,0.00437373,0.0177407,762,596,-3.64614,3.72301
-455,428,-3.67615,-4.03351,0.00206991,0.00291983,-0.00362042,0.00614015,-0.00115041,-0.84382,0.0045259,0.0128419,769,596,-3.67617,4.03349
-448,428,-3.68176,-4.30267,0.00143605,0.0021165,-0.00267978,0.00447756,-0.000925015,-0.848541,0.0033364,0.0109617,776,596,-3.68174,4.30265
-441,428,-3.66565,-4.60675,0.000940373,0.00153705,-0.00194041,0.00320192,-0.000724498,-0.861676,0.00241265,0.0130983,783,596,-3.66566,4.60676
-434,428,-3.66272,-4.91821,0.000146593,0.000562792,-0.000947354,0.00132463,-0.000615248,-0.893513,0.00114468,0.0101146,790,596,-3.66271,4.9182
-427,428,-3.66144,-5.22223,-0.000556359,-0.000223664,-7.98473e-05,-0.000205493,-0.00057453,-1.34704,0.000336155,0.0104164,797,596,-3.66144,5.22223
-420,428,-3.65417,-5.47675,-0.00128173,-0.000940034,0.000702478,-0.000387926,-0.00183384,0.904686,0.00111596,0.0110922,804,596,-3.65417,5.47672
-413,428,-3.64844,-5.72754,-0.00231978,-0.00174287,0.001651,-0.00035532,-0.00370733,0.871883,0.00236204,0.0138226,811,596,-3.64845,5.72754
-406,428,-3.65643,-6.00525,-0.00339366,-0.00258455,0.00261403,-0.000343957,-0.00563425,0.862171,0.00364693,0.0166101,818,596,-3.65644,6.00522
-399,428,-3.65649,-6.2865,-0.00466673,-0.00363149,0.0036806,-0.000432288,-0.00786593,0.855257,0.00510596,0.0141493,825,596,-3.65647,6.28648
-392,428,-3.6532,-6.58282,-0.00629718,-0.0050897,0.00469974,-0.000955075,-0.0104318,0.849279,0.00665905,0.0142492,832,596,-3.65321,6.5828
-385,428,-3.67676,-6.85742,-0.00855678,-0.00677454,0.00568495,-0.00191129,-0.01342,0.863141,0.00838254,0.0241222,839,596,-3.67678,6.8574
-378,428,-3.81409,-6.99316,-0.0110934,-0.0087954,0.00685969,-0.00298914,-0.0168996,0.868377,0.010414,0.0439213,846,596,-3.81408,6.99314
-371,428,-3.74835,-7.28961,0,0,0,0,0,0,0,-1,853,596,-3.74836,7.28964
-364,428,-4.22369,-7.48334,0,0,0,0,0,0,0,-1,860,596,-4.22372,7.48334
-357,428,-3.20996,-4.70966,0,0,0,0,0,0,0,-1,867,596,-3.20997,4.70965
-350,428,-1.62793,-3.94055,0,0,0,0,0,0,0,-1,874,596,-1.62794,3.94055
-343,428,-0.0567017,-4.80994,0,0,0,0,0,0,0,-1,881,596,-0.0567096,4.80996
-336,428,-3.29175,-1.39569,0,0,0,0,0,0,0,-1,888,596,-3.29172,1.39568
-329,428,-3.71564,-0.791321,0,0,0,0,0,0,0,-1,895,596,-3.71564,0.791299
-322,428,-5.52863,-3.59827,0,0,0,0,0,0,0,-1,902,596,-5.52865,3.59829
-315,428,-4.57172,-1.22052,0,0,0,0,0,0,0,-1,909,596,-4.57171,1.22052
-308,428,-5.26538,-1.1521,0,0,0,0,0,0,0,-1,916,596,-5.26539,1.15209
-301,428,0,0,0,0,0,0,0,0,0,-1,923,596,0,0
-294,428,0,0,0,0,0,0,0,0,0,-1,930,596,0,0
-287,428,0,0,0,0,0,0,0,0,0,-1,937,596,0,0
-280,428,0,0,0,0,0,0,0,0,0,-1,944,596,0,0
-273,428,0,0,0,0,0,0,0,0,0,-1,951,596,0,0
-266,428,0,0,0,0,0,0,0,0,0,-1,958,596,0,0
-259,428,0,0,0,0,0,0,0,0,0,-1,965,596,0,0
-252,428,0,0,0,0,0,0,0,0,0,-1,972,596,0,0
-245,428,0,0,0,0,0,0,0,0,0,-1,979,596,0,0
-238,428,0,0,0,0,0,0,0,0,0,-1,986,596,0,0
-231,428,0,0,0,0,0,0,0,0,0,-1,993,596,0,0
-224,428,0,0,0,0,0,0,0,0,0,-1,1000,596,0,0
-217,428,0,0,0,0,0,0,0,0,0,-1,1007,596,0,0
-210,428,0,0,0,0,0,0,0,0,0,-1,1014,596,0,0
-203,428,0,0,0,0,0,0,0,0,0,-1,1021,596,0,0
-196,428,0,0,0,0,0,0,0,0,0,-1,1028,596,0,0
-189,428,0,0,0,0,0,0,0,0,0,-1,1035,596,0,0
-182,428,0,0,0,0,0,0,0,0,0,-1,1042,596,0,0
-175,428,0,0,0,0,0,0,0,0,0,-1,1049,596,0,0
-168,428,0,0,0,0,0,0,0,0,0,-1,1056,596,0,0
-161,428,0,0,0,0,0,0,0,0,0,-1,1063,596,0,0
-154,428,0,0,0,0,0,0,0,0,0,-1,1070,596,0,0
-147,428,0,0,0,0,0,0,0,0,0,-1,1077,596,0,0
-140,428,0,0,0,0,0,0,0,0,0,-1,1084,596,0,0
-133,428,0,0,0,0,0,0,0,0,0,-1,1091,596,0,0
-126,428,0,0,0,0,0,0,0,0,0,-1,1098,596,0,0
-119,428,0,0,0,0,0,0,0,0,0,-1,1105,596,0,0
-112,428,0,0,0,0,0,0,0,0,0,-1,1112,596,0,0
-105,428,0,0,0,0,0,0,0,0,0,-1,1119,596,0,0
-98,428,0,0,0,0,0,0,0,0,0,-1,1126,596,0,0
-91,428,0,0,0,0,0,0,0,0,0,-1,1133,596,0,0
-84,428,0,0,0,0,0,0,0,0,0,-1,1140,596,0,0
-77,428,0,0,0,0,0,0,0,0,0,-1,1147,596,0,0
-70,428,0,0,0,0,0,0,0,0,0,-1,1154,596,0,0
-63,428,0,0,0,0,0,0,0,0,0,-1,1161,596,0,0
-56,428,0,0,0,0,0,0,0,0,0,-1,1168,596,0,0
-49,428,0,0,0,0,0,0,0,0,0,-1,1175,596,0,0
-42,428,0,0,0,0,0,0,0,0,0,-1,1182,596,0,0
-35,428,0,0,0,0,0,0,0,0,0,-1,1189,596,0,0
-28,428,0,0,0,0,0,0,0,0,0,-1,1196,596,0,0
-21,428,0,0,0,0,0,0,0,0,0,-1,1203,596,0,0
-14,428,0,0,0,0,0,0,0,0,0,-1,1210,596,0,0
-7,428,0,0,0,0,0,0,0,0,0,-1,1217,596,0,0
0,428,0,0,0,0,0,0,0,0,0,-1,1224,596,0,0
7,428,0,0,0,0,0,0,0,0,0,-1,1231,596,0,0
14,428,0,0,0,0,0,0,0,0,0,-1,1238,596,0,0
21,428,0,0,0,0,0,0,0,0,0,-1,1245,596,0,0
28,428,0,0,0,0,0,0,0,0,0,-1,1252,596,0,0
35,428,0,0,0,0,0,0,0,0,0,-1,1259,596,0,0
42,428,0,0,0,0,0,0,0,0,0,-1,1266,596,0,0
49,428,0,0,0,0,0,0,0,0,0,-1,1273,596,0,0
56,428,0,0,0,0,0,0,0,0,0,-1,1280,596,0,0
63,428,0,0,0,0,0,0,0,0,0,-1,1287,596,0,0
70,428,0,0,0,0,0,0,0,0,0,-1,1294,596,0,0
77,428,0,0,0,0,0,0,0,0,0,-1,1301,596,0,0
84,428,0,0,0,0,0,0,0,0,0,-1,1308,596,0,0
91,428,0,0,0,0,0,0,0,0,0,-1,1315,596,0,0
98,428,0,0,0,0,0,0,0,0,0,-1,1322,596,0,0
105,428,0,0,0,0,0,0,0,0,0,-1,1329,596,0,0
112,428,0,0,0,0,0,0,0,0,0,-1,1336,596,0,0
119,428,0,0,0,0,0,0,0,0,0,-1,1343,596,0,0
126,428,0,0,0,0,0,0,0,0,0,-1,1350,596,0,0
133,428,0,0,0,0,0,0,0,0,0,-1,1357,596,0,0
140,428,0,0,0,0,0,0,0,0,0,-1,1364,596,0,0
147,428,0,0,0,0,0,0,0,0,0,-1,1371,596,0,0
154,428,0,0,0,0,0,0,0,0,0,-1,1378,596,0,0
161,428,0,0,0,0,0,0,0,0,0,-1,1385,596,0,0
168,428,0,0,0,0,0,0,0,0,0,-1,1392,596,0,0
175,428,0,0,0,0,0,0,0,0,0,-1,1399,596,0,0
182,428,0,0,0,0,0,0,0,0,0,-1,1406,596,0,0
189,428,0,0,0,0,0,0,0,0,0,-1,1413,596,0,0
196,428,0,0,0,0,0,0,0,0,0,-1,1420,596,0,0
203,428,0,0,0,0,0,0,0,0,0,-1,1427,596,0,0
210,428,0,0,0,0,0,0,0,0,0,-1,1434,596,0,0
217,428,0,0,0,0,0,0,0,0,0,-1,1441,596,0,0
224,428,0,0,0,0,0,0,0,0,0,-1,1448,596,0,0
231,428,0,0,0,0,0,0,0,0,0,-1,1455,596,0,0
238,428,0,0,0,0,0,0,0,0,0,-1,1462,596,0,0
245,428,0,0,0,0,0,0,0,0,0,-1,1469,596,0,0
252,428,0,0,0,0,0,0,0,0,0,-1,1476,596,0,0
259,428,0,0,0,0,0,0,0,0,0,-1,1483,596,0,0
266,428,0,0,0,0,0,0,0,0,0,-1,1490,596,0,0
273,428,0,0,0,0,0,0,0,0,0,-1,1497,596,0,0
280,428,0,0,0,0,0,0,0,0,0,-1,1504,596,0,0
287,428,0,0,0,0,0,0,0,0,0,-1,1511,596,0,0
294,428,0,0,0,0,0,0,0,0,0,-1,1518,596,0,0
301,428,0,0,0,0,0,0,0,0,0,-1,1525,596,0,0
308,428,0,0,0,0,0,0,0,0,0,-1,1532,596,0,0
315,428,0,0,0,0,0,0,0,0,0,-1,1539,596,0,0
322,428,0,0,0,0,0,0,0,0,0,-1,1546,596,0,0
329,428,0,0,0,0,0,0,0,0,0,-1,1553,596,0,0
336,428,0,0,0,0,0,0,0,0,0,-1,1560,596,0,0
343,428,0,0,0,0,0,0,0,0,0,-1,1567,596,0,0
350,428,0,0,0,0,0,0,0,0,0,-1,1574,596,0,0
357,428,0,0,0,0,0,0,0,0,0,-1,1581,596,0,0
364,428,0,0,0,0,0,0,0,0,0,-1,1588,596,0,0
371,428,0,0,0,0,0,0,0,0,0,-1,1595,596,0,0
378,428,0,0,0,0,0,0,0,0,0,-1,1602,596,0,0
385,428,0,0,0,0,0,0,0,0,0,-1,1609,596,0,0
392,428,0,0,0,0,0,0,0,0,0,-1,1616,596,0,0
399,428,0,0,0,0,0,0,0,0,0,-1,1623,596,0,0
406,428,0,0,0,0,0,0,0,0,0,-1,1630,596,0,0
413,428,0,0,0,0,0,0,0,0,0,-1,1637,596,0,0
420,428,2.95886,0.551819,0,0,0,0,0,0,0,-1,1644,596,2.9589,-0.551797
427,428,3.19385,0.384705,0,0,0,0,0,0,0,-1,1651,596,3.19383,-0.384692
434,428,8.18152,1.80432,0,0,0,0,0,0,0,-1,1658,596,8.18148,-1.80434
441,428,8.17993,0.607483,0,0,0,0,0,0,0,-1,1665,596,8.17997,-0.607513
448,428,7.84338,-0.385986,0,0,0,0,0,0,0,-1,1672,596,7.84336,0.385978
455,428,6.64038,2.1123,0,0,0,0,0,0,0,-1,1679,596,6.64037,-2.11229
462,428,4.84106,4.12341,0,0,0,0,0,0,0,-1,1686,596,4.84107,-4.12339
469,428,7.83789,3.10083,0,0,0,0,0,0,0,-1,1693,596,7.83785,-3.10086
476,428,7.61255,1.73956,0,0,0,0,0,0,0,-1,1700,596,7.61252,-1.73958
483,428,7.22766,1.05121,0,0,0,0,0,0,0,-1,1707,596,7.2277,-1.05121
490,428,5.4071,-3.2793,0,0,0,0,0,0,0,-1,1714,596,5.40707,3.27929
497,428,7.84106,-3.65491,0,0,0,0,0,0,0,-1,1721,596,7.84107,3.65491
504,428,6.92139,-2.83356,0,0,0,0,0,0,0,-1,1728,596,6.92137,2.83353
511,428,7.88501,-3.78723,0,0,0,0,0,0,0,-1,1735,596,7.88502,3.78722
518,428,9.55103,-5.12927,0,0,0,0,0,0,0,-1,1742,596,9.551,5.12924
525,428,9.50012,-4.83051,0.00379698,0.00390056,0.00320435,0.00705354,0.000644,0.793479,0.00450307,0.0389881,1749,596,9.50008,4.83049
532,428,9.57068,-4.43164,0.00282699,0.00284591,0.00239946,0.00523593,0.000436973,0.787369,0.00335446,0.0190447,1756,596,9.57067,4.43166
539,428,9.59717,-4.13,0.00200063,0.00193947,0.00165484,0.00362517,0.00031493,0.77616,0.00231894,0.0199439,1763,596,9.59714,4.13
546,428,9.57532,-3.82642,0.00139118,0.00125162,0.00111613,0.00243971,0.000203086,0.75418,0.00156318,0.0154033,1770,596,9.5753,3.82639
553,428,9.5564,-3.54285,0.000919109,0.000713105,0.000766929,0.00158992,4.22923e-05,0.718645,0.00104614,0.0107136,1777,596,9.55636,3.54283
560,428,9.57556,-3.22638,0.000502167,0.000345863,0.000543401,0.000973007,-0.000124977,0.713977,0.000694091,0.0118227,1784,596,9.57562,3.2264
567,428,9.57166,-2.9491,0.000233631,0.000192911,0.0005113,0.000724976,-0.000298434,0.765499,0.000607732,0.0112199,1791,596,9.57162,2.94911
574,428,9.55835,-2.65552,0.000221662,0.000245379,0.000727329,0.000960946,-0.000493905,0.793549,0.000854264,0.0128799,1798,596,9.5584,2.65554
581,428,9.53784,-2.32526,0.000336244,0.000562591,0.00113147,0.00158653,-0.000687698,0.835244,0.00134678,0.0110513,1805,596,9.53786,2.32523
588,428,9.52942,-2.01343,0.000567701,0.00112897,0.00176475,0.00263526,-0.000938588,0.864249,0.00213947,0.0147068,1812,596,9.52943,2.0134
595,428,9.51855,-1.70807,0.00100487,0.00209427,0.0026808,0.00428515,-0.00118601,0.885626,0.00332341,0.0103249,1819,596,9.51856,1.70807
602,428,9.48511,-1.39294,0.00156389,0.00346938,0.00385947,0.00649197,-0.0014587,0.906408,0.00488732,0.0187885,1826,596,9.48516,1.39297
609,428,9.44397,-1.03058,0,0,0,0,0,0,0,-1,1833,596,9.44402,1.0306
616,428,5.88977,-0.239319,0,0,0,0,0,0,0,-1,1840,596,5.88983,0.239293
623,428,8.51599,1.32434,0,0,0,0,0,0,0,-1,1847,596,8.516,-1.32434
630,428,5.9585,3.97223,0,0,0,0,0,0,0,-1,1854,596,5.95847,-3.97224
637,428,3.95435,1.90857,0,0,0,0,0,0,0,-1,1861,596,3.95439,-1.90858
644,428,5.75476,0.888977,0,0,0,0,0,0,0,-1,1868,596,5.75472,-0.888955
651,428,0,0,0,0,0,0,0,0,0,-1,1875,596,0,0
658,428,0,0,0,0,0,0,0,0,0,-1,1882,596,0,0
665,428,0,0,0,0,0,0,0,0,0,-1,1889,596,0,0
672,428,0,0,0,0,0,0,0,0,0,-1,1896,596,0,0
679,428,0,0,0,0,0,0,0,0,0,-1,1903,596,0,0
686,428,0,0,0,0,0,0,0,0,0,-1,1910,596,0,0
693,428,0,0,0,0,0,0,0,0,0,-1,1917,596,0,0
700,428,0,0,0,0,0,0,0,0,0,-1,1924,596,0,0
707,428,0,0,0,0,0,0,0,0,0,-1,1931,596,0,0
714,428,0,0,0,0,0,0,0,0,0,-1,1938,596,0,0
721,428,0,0,0,0,0,0,0,0,0,-1,1945,596,0,0
728,428,0,0,0,0,0,0,0,0,0,-1,1952,596,0,0
735,428,0,0,0,0,0,0,0,0,0,-1,1959,596,0,0
742,428,0,0,0,0,0,0,0,0,0,-1,1966,596,0,0
749,428,0,0,0,0,0,0,0,0,0,-1,1973,596,0,0
756,428,0,0,0,0,0,0,0,0,0,-1,1980,596,0,0
763,428,0,0,0,0,0,0,0,0,0,-1,1987,596,0,0
770,428,0,0,0,0,0,0,0,0,0,-1,1994,596,0,0
777,428,0,0,0,0,0,0,0,0,0,-1,2001,596,0,0
784,428,0,0,0,0,0,0,0,0,0,-1,2008,596,0,0
791,428,0,0,0,0,0,0,0,0,0,-1,2015,596,0,0
798,428,0,0,0,0,0,0,0,0,0,-1,2022,596,0,0
805,428,0,0,0,0,0,0,0,0,0,-1,2029,596,0,0
812,428,0,0,0,0,0,0,0,0,0,-1,2036,596,0,0
-700,421,0,0,0,0,0,0,0,0,0,-1,524,603,0,0
-693,421,0,0,0,0,0,0,0,0,0,-1,531,603,0,0
-686,421,0,0,0,0,0,0,0,0,0,-1,538,603,0,0
-679,421,0,0,0,0,0,0,0,0,0,-1,545,603,0,0
-672,421,0,0,0,0,0,0,0,0,0,-1,552,603,0,0
-665,421,0,0,0,0,0,0,0,0,0,-1,559,603,0,0
-658,421,0,0,0,0,0,0,0,0,0,-1,566,603,0,0
-651,421,0,0,0,0,0,0,0,0,0,-1,573,603,0,0
-644,421,0,0,0,0,0,0,0,0,0,-1,580,603,0,0
-637,421,0,0,0,0,0,0,0,0,0,-1,587,603,0,0
-630,421,0,0,0,0,0,0,0,0,0,-1,594,603,0,0
-623,421,0,0,0,0,0,0,0,0,0,-1,601,603,0,0
-616,421,0,0,0,0,0,0,0,0,0,-1,608,603,0,0
-609,421,0,0,0,0,0,0,0,0,0,-1,615,603,0,0
-602,421,0,0,0,0,0,0,0,0,0,-1,622,603,0,0
-595,421,0,0,0,0,0,0,0,0,0,-1,629,603,0,0
-588,421,0,0,0,0,0,0,0,0,0,-1,636,603,0,0
-581,421,0,0,0,0,0,0,0,0,0,-1,643,603,0,0
-574,421,0,0,0,0,0,0,0,0,0,-1,650,603,0,0
-567,421,0,0,0,0,0,0,0,0,0,-1,657,603,0,0
-560,421,0,0,0,0,0,0,0,0,0,-1,664,603,0,0
-553,421,0,0,0,0,0,0,0,0,0,-1,671,603,0,0
-546,421,0,0,0,0,0,0,0,0,0,-1,678,603,0,0
-539,421,0,0,0,0,0,0,0,0,0,-1,685,603,0,0
-532,421,-8.97382,6.95636,0,0,0,0,0,0,0,-1,692,603,-8.97384,-6.95634
-525,421,-2.11481,-8.04272,0,0,0,0,0,0,0,-1,699,603,-2.11483,8.0427
-518,421,-3.05908,-5.07233,0,0,0,0,0,0,0,-1,706,603,-3.0591,5.07235
-511,421,-1.7608,-6.12946,0,0,0,0,0,0,0,-1,713,603,-1.76081,6.12944
-504,421,-4.97272,-4.38385,0,0,0,0,0,0,0,-1,720,603,-4.9727,4.38383
-497,421,-4.51349,-1.80811,0,0,0,0,0,0,0,-1,727,603,-4.5135,1.80812
-490,421,-4.39734,-2.1485,0.0159692,-0.0150626,0.00593361,0.0170651,-0.0161585,0.18263,0.019184,0.0488993,734,603,-4.39736,2.14852
-483,421,-4.10925,-2.67859,0.0109217,-0.00823429,0.00224872,0.0111822,-0.00849473,0.115302,0.0113957,0.0430014,741,603,-4.10928,2.67859
-476,421,-4.11584,-3.16992,0,0,0,0,0,0,0,-1,748,603,-4.11585,3.16992
-469,421,-3.94604,-3.43964,0.00481797,-0.00140539,-0.00103031,0.00498411,-0.00157153,-0.159874,0.00395214,0.0186551,755,603,-3.94603,3.43961
-462,421,-3.95813,-3.76843,0.00284805,0.0012855,-0.00220533,0.00440641,-0.000272856,-0.615163,0.00303265,0.0193019,762,603,-3.95815,3.76841
-455,421,-3.96179,-4.04633,0.00174031,0.00206658,-0.00269946,0.00460784,-0.000800941,-0.815578,0.00337074,0.0186526,769,603,-3.96182,4.04634
-448,421,-3.9613,-4.30798,0.00123513,0.00135595,-0.00195631,0.00325278,-0.000661701,-0.800833,0.00241944,0.017071,776,603,-3.9613,4.30798
-441,421,-3.96173,-4.61188,0.000754516,0.000881091,-0.00135489,0.00217417,-0.000538563,-0.808736,0.00165838,0.0135319,783,603,-3.9617,4.61185
-434,421,-3.9502,-4.92133,-7.48746e-05,-5.9556e-05,-0.000422722,0.000355576,-0.000490007,-0.794457,0.00049025,0.0103015,790,603,-3.95017,4.92132
-427,421,-3.93506,-5.20135,-0.000843452,-0.00084373,0.000415708,-0.000427882,-0.0012593,0.785231,0.000739395,0.00984744,797,603,-3.93509,5.20137
-420,421,-3.93494,-5.45917,-0.00171914,-0.00160803,0.00122729,-0.000435038,-0.00289213,0.808015,0.00180068,0.0111376,804,603,-3.93496,5.45919
-413,421,-3.94263,-5.72717,-0.00298231,-0.00248954,0.00225934,-0.000463188,-0.00500866,0.839709,0.00319592,0.0126765,811,603,-3.9426,5.72716
-406,421,-3.95386,-6.01794,-0.00440535,-0.00349428,0.00338124,-0.000538022,-0.0073616,0.852357,0.00473859,0.0173376,818,603,-3.95388,6.01796
-399,421,-3.90741,-6.34412,-0.00613742,-0.00474054,0.00465913,-0.000727792,-0.0101502,0.859798,0.0065377,0.0181049,825,603,-3.90743,6.3441
-392,421,-3.96527,-6.57227,-0.00835503,-0.00639405,0.00594898,-0.0013453,-0.0134038,0.867072,0.00852288,0.0221371,832,603,-3.9653,6.57226
-385,421,-4.11371,-6.80603,-0.0113897,-0.00848315,0.00734458,-0.00244943,-0.0174234,0.883071,0.0108913,0.0457218,839,603,-4.11369,6.80603
-378,421,-4.37769,-7.07611,0,0,0,0,0,0,0,-1,846,603,-4.37767,7.07613
-371,421,-4.12274,-6.8927,0,0,0,0,0,0,0,-1,853,603,-4.12276,6.89272
-364,421,-5.06079,-5.61859,0,0,0,0,0,0,0,-1,860,603,-5.0608,5.61861
-357,421,-5.57581,-5.5918,0,0,0,0,0,0,0,-1,867,603,-5.5758,5.59181
-350,421,-5.38019,-3.75024,0,0,0,0,0,0,0,-1,874,603,-5.38017,3.75026
-343,421,-6.22797,-2.57123,0,0,0,0,0,0,0,-1,881,603,-6.22798,2.57121
-336,421,-6.22882,-2.59369,0,0,0,0,0,0,0,-1,888,603,-6.22883,2.5937
-329,421,-4.50134,-1.49469,0,0,0,0,0,0,0,-1,895,603,-4.50137,1.49468
-322,421,-6.30377,-0.285339,0,0,0,0,0,0,0,-1,902,603,-6.30379,0.285355
-315,421,-4.47821,-1.26733,0,0,0,0,0,0,0,-1,909,603,-4.47824,1.26732
-308,421,0,0,0,0,0,0,0,0,0,-1,916,603,0,0
-301,421,0,0,0,0,0,0,0,0,0,-1,923,603,0,0
-294,421,0,0,0,0,0,0,0,0,0,-1,930,603,0,0
-287,421,0,0,0,0,0,0,0,0,0,-1,937,603,0,0
-280,421,0,0,0,0,0,0,0,0,0,-1,944,603,0,0
-273,421,0,0,0,0,0,0,0,0,0,-1,951,603,0,0
-266,421,0,0,0,0,0,0,0,0,0,-1,958,603,0,0
-259,421,0,0,0,0,0,0,0,0,0,-1,965,603,0,0
-252,421,0,0,0,0,0,0,0,0,0,-1,972,603,0,0
-245,421,0,0,0,0,0,0,0,0,0,-1,979,603,0,0
-238,421,0,0,0,0,0,0,0,0,0,-1,986,603,0,0
-231,421,0,0,0,0,0,0,0,0,0,-1,993,603,0,0
-224,421,0,0,0,0,0,0,0,0,0,-1,1000,603,0,0
-217,421,0,0,0,0,0,0,0,0,0,-1,1007,603,0,0
-210,421,0,0,0,0,0,0,0,0,0,-1,1014,603,0,0
-203,421,0,0,0,0,0,0,0,0,0,-1,1021,603,0,0
-196,421,0,0,0,0,0,0,0,0,0,-1,1028,603,0,0
-189,421,0,0,0,0,0,0,0,0,0,-1,1035,603,0,0
-182,421,0,0,0,0,0,0,0,0,0,-1,1042,603,0,0
-175,421,0,0,0,0,0,0,0,0,0,-1,1049,603,0,0
-168,421,0,0,0,0,0,0,0,0,0,-1,1056,603,0,0
-161,421,0,0,0,0,0,0,0,0,0,-1,1063,603,0,0
-154,421,0,0,0,0,0,0,0,0,0,-1,1070,603,0,0
-147,421,0,0,0,0,0,0,0,0,0,-1,1077,603,0,0
-140,421,0,0,0,0,0,0,0,0,0,-1,1084,603,0,0
-133,421,0,0,0,0,0,0,0,0,0,-1,1091,603,0,0
-126,421,0,0,0,0,0,0,0,0,0,-1,1098,603,0,0
-119,421,0,0,0,0,0,0,0,0,0,-1,1105,603,0,0
-112,421,0,0,0,0,0,0,0,0,0,-1,1112,603,0,0
-105,421,0,0,0,0,0,0,0,0,0,-1,1119,603,0,0
-98,421,0,0,0,0,0,0,0,0,0,-1,1126,603,0,0
-91,421,0,0,0,0,0,0,0,0,0,-1,1133,603,0,0
-84,421,0,0,0,0,0,0,0,0,0,-1,1140,603,0,0
-77,421,0,0,0,0,0,0,0,0,0,-1,1147,603,0,0
-70,421,0,0,0,0,0,0,0,0,0,-1,1154,603,0,0
-63,421,0,0,0,0,0,0,0,0,0,-1,1161,603,0,0
-56,421,0,0,0,0,0,0,0,0,0,-1,1168,603,0,0
-49,421,0,0,0,0,0,0,0,0,0,-1,1175,603,0,0
-42,421,0,0,0,0,0,0,0,0,0,-1,1182,603,0,0
-35,421,0,0,0,0,0,0,0,0,0,-1,1189,603,0,0
-28,421,0,0,0,0,0,0,0,0,0,-1,1196,603,0,0
-21,421,0,0,0,0,0,0,0,0,0,-1,1203,603,0,0
-14,421,0,0,0,0,0,0,0,0,0,-1,1210,603,0,0
-7,421,0,0,0,0,0,0,0,0,0,-1,1217,603,0,0
0,421,0,0,0,0,0,0,0,0,0,-1,1224,603,0,0
7,421,0,0,0,0,0,0,0,0,0,-1,1231,603,0,0
14,421,0,0,0,0,0,0,0,0,0,-1,1238,603,0,0
21,421,0,0,0,0,0,0,0,0,0,-1,1245,603,0,0
28,421,0,0,0,0,0,0,0,0,0,-1,1252,603,0,0
35,421,0,0,0,0,0,0,0,0,0,-1,1259,603,0,0
42,421,0,0,0,0,0,0,0,0,0,-1,1266,603,0,0
49,421,0,0,0,0,0,0,0,0,0,-1,1273,603,0,0
56,421,0,0,0,0,0,0,0,0,0,-1,1280,603,0,0
63,421,0,0,0,0,0,0,0,0,0,-1,1287,603,0,0
70,421,0,0,0,0,0,0,0,0,0,-1,1294,603,0,0
77,421,0,0,0,0,0,0,0,0,0,-1,1301,603,0,0
84,421,0,0,0,0,0,0,0,0,0,-1,1308,603,0,0
91,421,0,0,0,0,0,0,0,0,0,-1,1315,603,0,0
98,421,0,0,0,0,0,0,0,0,0,-1,1322,603,0,0
105,421,0,0,0,0,0,0,0,0,0,-1,1329,603,0,0
112,421,0,0,0,0,0,0,0,0,0,-1,1336,603,0,0
119,421,0,0,0,0,0,0,0,0,0,-1,1343,603,0,0
126,421,0,0,0,0,0,0,0,0,0,-1,1350,603,0,0
133,421,0,0,0,0,0,0,0,0,0,-1,1357,603,0,0
140,421,0,0,0,0,0,0,0,0,0,-1,1364,603,0,0
147,421,0,0,0,0,0,0,0,0,0,-1,1371,603,0,0
154,421,0,0,0,0,0,0,0,0,0,-1,1378,603,0,0
161,421,0,0,0,0,0,0,0,0,0,-1,1385,603,0,0
168,421,0,0,0,0,0,0,0,0,0,-1,1392,603,0,0
175,421,0,0,0,0,0,0,0,0,0,-1,1399,603,0,0
182,421,0,0,0,0,0,0,0,0,0,-1,1406,603,0,0
189,421,0,0,0,0,0,0,0,0,0,-1,1413,603,0,0
196,421,0,0,0,0,0,0,0,0,0,-1,1420,603,0,0
203,421,0,0,0,0,0,0,0,0,0,-1,1427,603,0,0
210,421,0,0,0,0,0,0,0,0,0,-1,1434,603,0,0
217,421,0,0,0,0,0,0,0,0,0,-1,1441,603,0,0
224,421,0,0,0,0,0,0,0,0,0,-1,1448,603,0,0
231,421,0,0,0,0,0,0,0,0,0,-1,1455,603,0,0
238,421,0,0,0,0,0,0,0,0,0,-1,1462,603,0,0
245,421,0,0,0,0,0,0,0,0,0,-1,1469,603,0,0
252,421,0,0,0,0,0,0,0,0,0,-1,1476,603,0,0
259,421,0,0,0,0,0,0,0,0,0,-1,1483,603,0,0
266,421,0,0,0,0,0,0,0,0,0,-1,1490,603,0,0
273,421,0,0,0,0,0,0,0,0,0,-1,1497,603,0,0
280,421,0,0,0,0,0,0,0,0,0,-1,1504,603,0,0
287,421,0,0,0,0,0,0,0,0,0,-1,1511,603,0,0
294,421,0,0,0,0,0,0,0,0,0,-1,1518,603,0,0
301,421,0,0,0,0,0,0,0,0,0,-1,1525,603,0,0
308,421,0,0,0,0,0,0,0,0,0,-1,1532,603,0,0
315,421,0,0,0,0,0,0,0,0,0,-1,1539,603,0,0
322,421,0,0,0,0,0,0,0,0,0,-1,1546,603,0,0
329,421,0,0,0,0,0,0,0,0,0,-1,1553,603,0,0
336,421,0,0,0,0,0,0,0,0,0,-1,1560,603,0,0
343,421,0,0,0,0,0,0,0,0,0,-1,1567,603,0,0
350,421,0,0,0,0,0,0,0,0,0,-1,1574,603,0,0
357,421,0,0,0,0,0,0,0,0,0,-1,1581,603,0,0
364,421,0,0,0,0,0,0,0,0,0,-1,1588,603,0,0
371,421,0,0,0,0,0,0,0,0,0,-1,1595,603,0,0
378,421,0,0,0,0,0,0,0,0,0,-1,1602,603,0,0
385,421,0,0,0,0,0,0,0,0,0,-1,1609,603,0,0
392,421,0,0,0,0,0,0,0,0,0,-1,1616,603,0,0
399,421,0,0,0,0,0,0,0,0,0,-1,1623,603,0,0
406,421,0,0,0,0,0,0,0,0,0,-1,1630,603,0,0
413,421,0,0,0,0,0,0,0,0,0,-1,1637,603,0,0
420,421,0,0,0,0,0,0,0,0,0,-1,1644,603,0,0
427,421,0,0,0,0,0,0,0,0,0,-1,1651,603,0,0
434,421,3.68176,-0.0327759,0,0,0,0,0,0,0,-1,1658,603,3.6818,0.0328037
441,421,8.06689,0.527832,0,0,0,0,0,0,0,-1,1665,603,8.06693,-0.527851
448,421,6.93921,0.802246,0,0,0,0,0,0,0,-1,1672,603,6.93923,-0.802251
455,421,7.29456,2.14825,0,0,0,0,0,0,0,-1,1679,603,7.29461,-2.14827
462,421,7.86902,3.53174,0,0,0,0,0,0,0,-1,1686,603,7.869,-3.53173
469,421,8.06604,2.81213,0,0,0,0,0,0,0,-1,1693,603,8.06606,-2.81212
476,421,8.26306,2.09253,0,0,0,0,0,0,0,-1,1700,603,8.26312,-2.09251
483,421,8.05322,0.798096,0,0,0,0,0,0,0,-1,1707,603,8.05323,-0.7981
490,421,7.51233,0.213074,0,0,0,0,0,0,0,-1,1714,603,7.51235,-0.213043
497,421,7.49634,-2.86688,0,0,0,0,0,0,0,-1,1721,603,7.4963,2.86688
504,421,6.90491,-2.18671,0,0,0,0,0,0,0,-1,1728,603,6.90491,2.18669
511,421,6.31348,-1.50653,0,0,0,0,0,0,0,-1,1735,603,6.31353,1.5065
518,421,6.27588,-2.49878,0,0,0,0,0,0,0,-1,1742,603,6.2759,2.4988
525,421,9.6604,-4.93945,0,0,0,0,0,0,0,-1,1749,603,9.66042,4.93944
532,421,9.7738,-4.47955,0.00312647,0.00399657,0.00303106,0.00662365,0.000499394,0.856677,0.00425907,0.0355429,1756,603,9.77386,4.47956
539,421,9.88611,-4.12463,0.0022294,0.00299492,0.00216655,0.00481227,0.000412059,0.87283,0.00308003,0.0215902,1763,603,9.88616,4.12465
546,421,9.86597,-3.82922,0.00157228,0.00213254,0.00147359,0.00335239,0.000352426,0.879328,0.00212721,0.0126248,1770,603,9.86597,3.82922
553,421,9.86218,-3.52319,0.00110298,0.00143465,0.0010305,0.00231257,0.000225058,0.865177,0.00147244,0.0120301,1777,603,9.86214,3.52318
560,421,9.87134,-3.20905,0.000680722,0.000933946,0.000714393,0.00153286,8.18075e-05,0.873103,0.000995758,0.0150651,1784,603,9.87138,3.20903
567,421,9.8783,-2.92554,0.000407368,0.000639474,0.000583176,0.00111803,-7.11897e-05,0.883616,0.000770182,0.0171888,1791,603,9.87824,2.92554
574,421,9.88245,-2.6416,0.000407329,0.000558668,0.000706577,0.00119362,-0.000227619,0.838741,0.000881468,0.0183898,1798,603,9.88239,2.64159
581,421,9.87341,-2.30347,0.000546882,0.000731199,0.00100781,0.00165106,-0.000372975,0.830993,0.00124381,0.0154927,1805,603,9.87341,2.30349
588,421,9.85156,-2.02368,0.000801284,0.0011407,0.0015194,0.00249984,-0.000557852,0.841015,0.0018803,0.0110727,1812,603,9.8516,2.02365
595,421,9.86523,-1.69165,0.00129396,0.00190715,0.0022873,0.00390831,-0.0007072,0.852023,0.00287046,0.0143138,1819,603,9.86525,1.69165
602,421,9.84631,-1.40344,0.00195495,0.00303749,0.0032999,0.00584022,-0.000847779,0.866687,0.00420466,0.0149949,1826,603,9.84626,1.40346
609,421,9.75964,-1.09802,0,0,0,0,0,0,0,-1,1833,603,9.75969,1.09804
616,421,9.9834,-0.681458,0,0,0,0,0,0,0,-1,1840,603,9.98339,0.681452
623,421,6.19885,0.376648,0,0,0,0,0,0,0,-1,1847,603,6.19881,-0.376624
630,421,6.54993,0.778748,0,0,0,0,0,0,0,-1,1854,603,6.54991,-0.778744
637,421,3.74512,1.65405,0,0,0,0,0,0,0,-1,1861,603,3.74517,-1.65407
644,421,3.58081,0.354675,0,0,0,0,0,0,0,-1,1868,603,3.58082,-0.354704
651,421,3.28687,3.66351,0,0,0,0,0,0,0,-1,1875,603,3.28688,-3.66353
658,421,0,0,0,0,0,0,0,0,0,-1,1882,603,0,0
665,421,0,0,0,0,0,0,0,0,0,-1,1889,603,0,0
672,421,0,0,0,0,0,0,0,0,0,-1,1896,603,0,0
679,421,0,0,0,0,0,0,0,0,0,-1,1903,603,0,0
686,421,0,0,0,0,0,0,0,0,0,-1,1910,603,0,0
693,421,0,0,0,0,0,0,0,0,0,-1,1917,603,0,0
700,421,0,0,0,0,0,0,0,0,0,-1,1924,603,0,0
707,421,0,0,0,0,0,0,0,0,0,-1,1931,603,0,0
714,421,0,0,0,0,0,0,0,0,0,-1,1938,603,0,0
721,421,0,0,0,0,0,0,0,0,0,-1,1945,603,0,0
728,421,0,0,0,0,0,0,0,0,0,-1,1952,603,0,0
735,421,0,0,0,0,0,0,0,0,0,-1,1959,603,0,0
742,421,0,0,0,0,0,0,0,0,0,-1,1966,603,0,0
749,421,0,0,0,0,0,0,0,0,0,-1,1973,603,0,0
756,421,0,0,0,0,0,0,0,0,0,-1,1980,603,0,0
763,421,0,0,0,0,0,0,0,0,0,-1,1987,603,0,0
770,421,0,0,0,0,0,0,0,0,0,-1,1994,603,0,0
777,421,0,0,0,0,0,0,0,0,0,-1,2001,603,0,0
784,421,0,0,0,0,0,0,0,0,0,-1,2008,603,0,0
791,421,0,0,0,0,0,0,0,0,0,-1,2015,603,0,0
798,421,0,0,0,0,0,0,0,0,0,-1,2022,603,0,0
805,421,0,0,0,0,0,0,0,0,0,-1,2029,603,0,0
812,421,0,0,0,0,0,0,0,0,0,-1,2036,603,0,0
-700,414,0,0,0,0,0,0,0,0,0,-1,524,610,0,0
-693,414,0,0,0,0,0,0,0,0,0,-1,531,610,0,0
-686,414,0,0,0,0,0,0,0,0,0,-1,538,610,0,0
-679,414,0,0,0,0,0,0,0,0,0,-1,545,610,0,0
-672,414,0,0,0,0,0,0,0,0,0,-1,552,610,0,0
-665,414,0,0,0,0,0,0,0,0,0,-1,559,610,0,0
-658,414,0,0,0,0,0,0,0,0,0,-1,566,610,0,0
-651,414,0,0,0,0,0,0,0,0,0,-1,573,610,0,0
-644,414,0,0,0,0,0,0,0,0,0,-1,580,610,0,0
-637,414,0,0,0,0,0,0,0,0,0,-1,587,610,0,0
-630,414,0,0,0,0,0,0,0,0,0,-1,594,610,0,0
-623,414,0,0,0,0,0,0,0,0,0,-1,601,610,0,0
-616,414,0,0,0,0,0,0,0,0,0,-1,608,610,0,0
-609,414,0,0,0,0,0,0,0,0,0,-1,615,610,0,0
-602,414,0,0,0,0,0,0,0,0,0,-1,622,610,0,0
-595,414,0,0,0,0,0,0,0,0,0,-1,629,610,0,0
-588,414,0,0,0,0,0,0,0,0,0,-1,636,610,0,0
-581,414,0,0,0,0,0,0,0,0,0,-1,643,610,0,0
-574,414,0,0,0,0,0,0,0,0,0,-1,650,610,0,0
-567,414,0,0,0,0,0,0,0,0,0,-1,657,610,0,0
-560,414,0,0,0,0,0,0,0,0,0,-1,664,610,0,0
-553,414,0,0,0,0,0,0,0,0,0,-1,671,610,0,0
-546,414,0,0,0,0,0,0,0,0,0,-1,678,610,0,0
-539,414,-7.50146,5.65619,0,0,0,0,0,0,0,-1,685,610,-7.50149,-5.65617
-532,414,-8.15204,4.01605,0,0,0,0,0,0,0,-1,692,610,-8.15206,-4.01606
-525,414,-3.47137,-3.27924,0,0,0,0,0,0,0,-1,699,610,-3.47136,3.27922
-518,414,-3.41998,-4.42413,0,0,0,0,0,0,0,-1,706,610,-3.42001,4.4241
-511,414,-3.92542,-4.97021,0,0,0,0,0,0,0,-1,713,610,-3.92542,4.97023
-504,414,-1.62408,-3.64496,0,0,0,0,0,0,0,-1,720,610,-1.62406,3.64499
-497,414,-4.56024,-2.13269,0,0,0,0,0,0,0,-1,727,610,-4.56024,2.13266
-490,414,-4.3952,-2.42004,0.0129234,-0.0150961,0.0066725,0.0144312,-0.016604,0.222244,0.0179328,0.0364065,734,610,-4.39523,2.42002
-483,414,-4.18805,-2.8443,0.00894002,-0.00866432,0.00316763,0.00949264,-0.00921694,0.17272,0.0108024,0.0180987,741,610,-4.18802,2.84429
-476,414,-4.20154,-3.18231,0.00610581,-0.00445717,0.000951716,0.00619087,-0.00454223,0.0891426,0.00622108,0.0124258,748,610,-4.20156,3.1823
-469,414,-4.23145,-3.45245,0.00405029,-0.00210977,-0.000107506,0.00405217,-0.00211164,-0.017445,0.00361699,0.0124676,755,610,-4.23144,3.45243
-462,414,-4.23248,-3.77026,0.00242946,0.000651369,-0.00138261,0.00318419,-0.000103364,-0.499672,0.00215808,0.0224566,762,610,-4.23249,3.77024
-455,414,-4.22467,-4.04919,0.00152319,0.00152827,-0.00200044,0.00352617,-0.000474711,-0.786033,0.00252394,0.0238765,769,610,-4.22464,4.04918
-448,414,-4.22491,-4.30566,0.00112513,0.000874423,-0.00140724,0.00241258,-0.000413031,-0.740976,0.00176228,0.0215779,776,610,-4.2249,4.30566
-441,414,-4.23541,-4.60303,0.000645713,0.000456925,-0.0009059,0.00146212,-0.000359486,-0.733486,0.00111408,0.0158422,783,610,-4.23541,4.60301
-434,414,-4.22498,-4.90198,-0.000211285,-0.000467391,-2.7499e-05,-0.000208365,-0.00047031,-0.105767,0.00027212,0.00923234,790,610,-4.22499,4.90198
-427,414,-4.21857,-5.17822,-0.00104928,-0.00128656,0.000789011,-0.00037004,-0.0019658,0.710774,0.00120626,0.00989659,797,610,-4.21859,5.17824
-420,414,-4.22491,-5.45227,-0.00210666,-0.00216282,0.00165183,-0.00048267,-0.00378681,0.776899,0.00238002,0.0102013,804,610,-4.22492,5.45229
-413,414,-4.2403,-5.74786,-0.00363805,-0.0031948,0.00279137,-0.000616271,-0.00621658,0.825014,0.003955,0.00955215,811,610,-4.24027,5.74786
-406,414,-4.22498,-6.10864,-0.0054913,-0.00446557,0.0041151,-0.000831497,-0.00912537,0.847394,0.00582623,0.0164614,818,610,-4.22498,6.10862
-399,414,-4.22974,-6.32422,-0.00780638,-0.00603221,0.00567507,-0.00117532,-0.0126633,0.862927,0.00807896,0.026422,825,610,-4.22971,6.32419
-392,414,-4.32794,-6.48334,-0.0107869,-0.00802724,0.00735936,-0.00191946,-0.0168947,0.878069,0.0106809,0.0318429,832,610,-4.32796,6.48333
-385,414,-4.6897,-6.52454,-0.014792,-0.0106568,0.00930652,-0.00319096,-0.0222578,0.894707,0.0138976,0.0449132,839,610,-4.68972,6.52455
-378,414,-4.9704,-6.60114,0,0,0,0,0,0,0,-1,846,610,-4.97039,6.60116
-371,414,-4.46875,-6.17603,0,0,0,0,0,0,0,-1,853,610,-4.46873,6.17605
-364,414,-4.47827,-6.2514,0,0,0,0,0,0,0,-1,860,610,-4.47828,6.25142
-357,414,-5.95874,-2.51605,0,0,0,0,0,0,0,-1,867,610,-5.95872,2.51603
-350,414,-6.4502,-2.41821,0,0,0,0,0,0,0,-1,874,610,-6.45021,2.41822
-343,414,-6.80249,-2.32117,0,0,0,0,0,0,0,-1,881,610,-6.80252,2.32116
-336,414,-7.11017,-2.52026,0,0,0,0,0,0,0,-1,888,610,-7.11016,2.52026
-329,414,-7.59747,-2.70313,0,0,0,0,0,0,0,-1,895,610,-7.59747,2.70315
-322,414,-4.42236,-1.29163,0,0,0,0,0,0,0,-1,902,610,-4.42238,1.2916
-315,414,0,0,0,0,0,0,0,0,0,-1,909,610,0,0
-308,414,0,0,0,0,0,0,0,0,0,-1,916,610,0,0
-301,414,0,0,0,0,0,0,0,0,0,-1,923,610,0,0
-294,414,0,0,0,0,0,0,0,0,0,-1,930,610,0,0
-287,414,0,0,0,0,0,0,0,0,0,-1,937,610,0,0
-280,414,0,0,0,0,0,0,0,0,0,-1,944,610,0,0
-273,414,0,0,0,0,0,0,0,0,0,-1,951,610,0,0
-266,414,0,0,0,0,0,0,0,0,0,-1,958,610,0,0
-259,414,0,0,0,0,0,0,0,0,0,-1,965,610,0,0
-252,414,0,0,0,0,0,0,0,0,0,-1,972,610,0,0
-245,414,0,0,0,0,0,0,0,0,0,-1,979,610,0,0
-238,414,0,0,0,0,0,0,0,0,0,-1,986,610,0,0
-231,414,0,0,0,0,0,0,0,0,0,-1,993,610,0,0
-224,414,0,0,0,0,0,0,0,0,0,-1,1000,610,0,0
-217,414,0,0,0,0,0,0,0,0,0,-1,1007,610,0,0
-210,414,0,0,0,0,0,0,0,0,0,-1,1014,610,0,0
-203,414,0,0,0,0,0,0,0,0,0,-1,1021,610,0,0
-196,414,0,0,0,0,0,0,0,0,0,-1,1028,610,0,0
-189,414,0,0,0,0,0,0,0,0,0,-1,1035,610,0,0
-182,414,0,0,0,0,0,0,0,0,0,-1,1042,610,0,0
-175,414,0,0,0,0,0,0,0,0,0,-1,1049,610,0,0
-168,414,0,0,0,0,0,0,0,0,0,-1,1056,610,0,0
-161,414,0,0,0,0,0,0,0,0,0,-1,1063,610,0,0
-154,414,0,0,0,0,0,0,0,0,0,-1,1070,610,0,0
-147,414,0,0,0,0,0,0,0,0,0,-1,1077,610,0,0
-140,414,0,0,0,0,0,0,0,0,0,-1,1084,610,0,0
-133,414,0,0,0,0,0,0,0,0,0,-1,1091,610,0,0
-126,414,0,0,0,0,0,0,0,0,0,-1,1098,610,0,0
-119,414,0,0,0,0,0,0,0,0,0,-1,1105,610,0,0
-112,414,0,0,0,0,0,0,0,0,0,-1,1112,610,0,0
-105,414,0,0,0,0,0,0,0,0,0,-1,1119,610,0,0
-98,414,0,0,0,0,0,0,0,0,0,-1,1126,610,0,0
-91,414,0,0,0,0,0,0,0,0,0,-1,1133,610,0,0
-84,414,0,0,0,0,0,0,0,0,0,-1,1140,610,0,0
-77,414,0,0,0,0,0,0,0,0,0,-1,1147,610,0,0
-70,414,0,0,0,0,0,0,0,0,0,-1,1154,610,0,0
-63,414,0,0,0,0,0,0,0,0,0,-1,1161,610,0,0
-56,414,0,0,0,0,0,0,0,0,0,-1,1168,610,0,0
-49,414,0,0,0,0,0,0,0,0,0,-1,1175,610,0,0
-42,414,0,0,0,0,0,0,0,0,0,-1,1182,610,0,0
-35,414,0,0,0,0,0,0,0,0,0,-1,1189,610,0,0
-28,414,0,0,0,0,0,0,0,0,0,-1,1196,610,0,0
-21,414,0,0,0,0,0,0,0,0,0,-1,1203,610,0,0
-14,414,0,0,0,0,0,0,0,0,0,-1,1210,610,0,0
-7,414,0,0,0,0,0,0,0,0,0,-1,1217,610,0,0
0,414,0,0,0,0,0,0,0,0,0,-1,1224,610,0,0
7,414,0,0,0,0,0,0,0,0,0,-1,1231,610,0,0
14,414,0,0,0,0,0,0,0,0,0,-1,1238,610,0,0
21,414,0,0,0,0,0,0,0,0,0,-1,1245,610,0,0
28,414,0,0,0,0,0,0,0,0,0,-1,1252,610,0,0
35,414,0,0,0,0,0,0,0,0,0,-1,1259,610,0,0
42,414,0,0,0,0,0,0,0,0,0,-1,1266,610,0,0
49,414,0,0,0,0,0,0,0,0,0,-1,1273,610,0,0
56,414,0,0,0,0,0,0,0,0,0,-1,1280,610,0,0
63,414,0,0,0,0,0,0,0,0,0,-1,1287,610,0,0
70,414,0,0,0,0,0,0,0,0,0,-1,1294,610,0,0
77,414,0,0,0,0,0,0,0,0,0,-1,1301,610,0,0
84,414,0,0,0,0,0,0,0,0,0,-1,1308,610,0,0
91,414,0,0,0,0,0,0,0,0,0,-1,1315,610,0,0
98,414,0,0,0,0,0,0,0,0,0,-1,1322,610,0,0
105,414,0,0,0,0,0,0,0,0,0,-1,1329,610,0,0
112,414,0,0,0,0,0,0,0,0,0,-1,1336,610,0,0
119,414,0,0,0,0,0,0,0,0,0,-1,1343,610,0,0
126,414,0,0,0,0,0,0,0,0,0,-1,1350,610,0,0
133,414,0,0,0,0,0,0,0,0,0,-1,1357,610,0,0
140,414,0,0,0,0,0,0,0,0,0,-1,1364,610,0,0
147,414,0,0,0,0,0,0,0,0,0,-1,1371,610,0,0
154,414,0,0,0,0,0,0,0,0,0,-1,1378,610,0,0
161,414,0,0,0,0,0,0,0,0,0,-1,1385,610,0,0
168,414,0,0,0,0,0,0,0,0,0,-1,1392,610,0,0
175,414,0,0,0,0,0,0,0,0,0,-1,1399,610,0,0
182,414,0,0,0,0,0,0,0,0,0,-1,1406,610,0,0
189,414,0,0,0,0,0,0,0,0,0,-1,1413,610,0,0
196,414,0,0,0,0,0,0,0,0,0,-1,1420,610,0,0
203,414,0,0,0,0,0,0,0,0,0,-1,1427,610,0,0
210,414,0,0,0,0,0,0,0,0,0,-1,1434,610,0,0
217,414,0,0,0,0,0,0,0,0,0,-1,1441,610,0,0
224,414,0,0,0,0,0,0,0,0,0,-1,1448,610,0,0
231,414,0,0,0,0,0,0,0,0,0,-1,1455,610,0,0
238,414,0,0,0,0,0,0,0,0,0,-1,1462,610,0,0
245,414,0,0,0,0,0,0,0,0,0,-1,1469,610,0,0
252,414,0,0,0,0,0,0,0,0,0,-1,1476,610,0,0
259,414,0,0,0,0,0,0,0,0,0,-1,1483,610,0,0
266,414,0,0,0,0,0,0,0,0,0,-1,1490,610,0,0
273,414,0,0,0,0,0,0,0,0,0,-1,1497,610,0,0
280,414,0,0,0,0,0,0,0,0,0,-1,1504,610,0,0
287,414,0,0,0,0,0,0,0,0,0,-1,1511,610,0,0
294,414,0,0,0,0,0,0,0,0,0,-1,1518,610,0,0
301,414,0,0,0,0,0,0,0,0,0,-1,1525,610,0,0
308,414,0,0,0,0,0,0,0,0,0,-1,1532,610,0,0
315,414,0,0,0,0,0,0,0,0,0,-1,1539,610,0,0
322,414,0,0,0,0,0,0,0,0,0,-1,1546,610,0,0
329,414,0,0,0,0,0,0,0,0,0,-1,1553,610,0,0
336,414,0,0,0,0,0,0,0,0,0,-1,1560,610,0,0
343,414,0,0,0,0,0,0,0,0,0,-1,1567,610,0,0
350,414,0,0,0,0,0,0,0,0,0,-1,1574,610,0,0
357,414,0,0,0,0,0,0,0,0,0,-1,1581,610,0,0
364,414,0,0,0,0,0,0,0,0,0,-1,1588,610,0,0
371,414,0,0,0,0,0,0,0,0,0,-1,1595,610,0,0
378,414,0,0,0,0,0,0,0,0,0,-1,1602,610,0,0
385,414,0,0,0,0,0,0,0,0,0,-1,1609,610,0,0
392,414,0,0,0,0,0,0,0,0,0,-1,1616,610,0,0
399,414,0,0,0,0,0,0,0,0,0,-1,1623,610,0,0
406,414,0,0,0,0,0,0,0,0,0,-1,1630,610,0,0
413,414,0,0,0,0,0,0,0,0,0,-1,1637,610,0,0
420,414,0,0,0,0,0,0,0,0,0,-1,1644,610,0,0
427,414,0,0,0,0,0,0,0,0,0,-1,1651,610,0,0
434,414,0,0,0,0,0,0,0,0,0,-1,1658,610,0,0
441,414,7.84375,0.584412,0,0,0,0,0,0,0,-1,1665,610,7.84379,-0.584394
448,414,7.40808,1.25446,0,0,0,0,0,0,0,-1,1672,610,7.40807,-1.25446
455,414,6.3512,1.73846,0,0,0,0,0,0,0,-1,1679,610,6.3512,-1.73847
462,414,8.18103,3.22113,0,0,0,0,0,0,0,-1,1686,610,8.18108,-3.22112
469,414,8.38513,2.49579,0,0,0,0,0,0,0,-1,1693,610,8.38516,-2.49576
476,414,8.64099,1.71161,0,0,0,0,0,0,0,-1,1700,610,8.64097,-1.71164
483,414,8.62744,0.687622,0,0,0,0,0,0,0,-1,1707,610,8.62749,-0.687615
490,414,8.38831,-0.0302734,0,0,0,0,0,0,0,-1,1714,610,8.38835,0.0302913
497,414,4.71094,-0.110046,0,0,0,0,0,0,0,-1,1721,610,4.71089,0.110024
504,414,7.19568,-1.43835,0,0,0,0,0,0,0,-1,1728,610,7.19563,1.43836
511,414,5.94153,-1.28772,0,0,0,0,0,0,0,-1,1735,610,5.94151,1.28769
518,414,4.53381,-0.0996704,0,0,0,0,0,0,0,-1,1742,610,4.53378,0.0996819
525,414,6.18811,-1.64056,0,0,0,0,0,0,0,-1,1749,610,6.18814,1.64055
532,414,10.0549,-4.68445,0,0,0,0,0,0,0,-1,1756,610,10.0549,4.68445
539,414,10.1326,-4.2356,0.00221628,0.00398653,0.00255231,0.00580283,0.000399973,0.952305,0.00374236,0.0447205,1763,610,10.1325,4.2356
546,414,10.1671,-3.828,0.00153791,0.00290793,0.00169243,0.00404873,0.000397113,0.977696,0.002577,0.0128057,1770,610,10.1671,3.82799
553,414,10.1826,-3.54169,0.00110609,0.0020442,0.00117225,0.00283776,0.000312536,0.975707,0.00179674,0.011386,1777,610,10.1826,3.5417
560,414,10.1951,-3.22375,0.000711374,0.001434,0.000795491,0.00194639,0.000198987,0.99857,0.00123661,0.0142647,1784,610,10.1951,3.22374
567,414,10.2052,-2.88611,0.000461986,0.00102954,0.000603936,0.00141305,7.84791e-05,1.00503,0.000916991,0.0237898,1791,610,10.2052,2.8861
574,414,10.1779,-2.61371,0.000489006,0.000859469,0.000671562,0.00137088,-2.24014e-05,0.919963,0.000921476,0.0210486,1798,610,10.1778,2.61371
581,414,10.1932,-2.29352,0.000669099,0.000946818,0.000915564,0.00173399,-0.000118075,0.860657,0.0011973,0.0150797,1805,610,10.1933,2.29353
588,414,10.1693,-2.01801,0.000961026,0.00126536,0.00135131,0.00247305,-0.00024666,0.841465,0.00173677,0.0144738,1812,610,10.1693,2.01799
595,414,10.1792,-1.65698,0.0014973,0.00190994,0.00201788,0.00373202,-0.000324773,0.836344,0.00260303,0.0196499,1819,610,10.1792,1.657
602,414,10.1774,-1.34656,0.00223097,0.00289322,0.00292075,0.00550155,-0.000377363,0.841843,0.00379974,0.0238841,1826,610,10.1773,1.34658
609,414,10.1628,-1.08289,0,0,0,0,0,0,0,-1,1833,610,10.1629,1.08287
616,414,10.4229,-0.559265,0,0,0,0,0,0,0,-1,1840,610,10.4229,0.559295
623,414,9.6969,0.0378418,0,0,0,0,0,0,0,-1,1847,610,9.69685,-0.0378644
630,414,5.47144,0.499329,0,0,0,0,0,0,0,-1,1854,610,5.47142,-0.499303
637,414,6.57898,2.38019,0,0,0,0,0,0,0,-1,1861,610,6.579,-2.38019
644,414,5.87073,1.51422,0,0,0,0,0,0,0,-1,1868,610,5.87076,-1.51424
651,414,3.6377,0.820557,0,0,0,0,0,0,0,-1,1875,610,3.6377,-0.820543
658,414,2.29761,3.87323,0,0,0,0,0,0,0,-1,1882,610,2.29758,-3.87325
665,414,0,0,0,0,0,0,0,0,0,-1,1889,610,0,0
672,414,0,0,0,0,0,0,0,0,0,-1,1896,610,0,0
679,414,0,0,0,0,0,0,0,0,0,-1,1903,610,0,0
686,414,0,0,0,0,0,0,0,0,0,-1,1910,610,0,0
693,414,0,0,0,0,0,0,0,0,0,-1,1917,610,0,0
700,414,0,0,0,0,0,0,0,0,0,-1,1924,610,0,0
707,414,0,0,0,0,0,0,0,0,0,-1,1931,610,0,0
714,414,0,0,0,0,0,0,0,0,0,-1,1938,610,0,0
721,414,0,0,0,0,0,0,0,0,0,-1,1945,610,0,0
728,414,0,0,0,0,0,0,0,0,0,-1,1952,610,0,0
735,414,0,0,0,0,0,0,0,0,0,-1,1959,610,0,0
742,414,0,0,0,0,0,0,0,0,0,-1,1966,610,0,0
749,414,0,0,0,0,0,0,0,0,0,-1,1973,610,0,0
756,414,0,0,0,0,0,0,0,0,0,-1,1980,610,0,0
763,414,0,0,0,0,0,0,0,0,0,-1,1987,610,0,0
770,414,0,0,0,0,0,0,0,0,0,-1,1994,610,0,0
777,414,0,0,0,0,0,0,0,0,0,-1,2001,610,0,0
784,414,0,0,0,0,0,0,0,0,0,-1,2008,610,0,0
791,414,0,0,0,0,0,0,0,0,0,-1,2015,610,0,0
798,414,0,0,0,0,0,0,0,0,0,-1,2022,610,0,0
805,414,0,0,0,0,0,0,0,0,0,-1,2029,610,0,0
812,414,0,0,0,0,0,0,0,0,0,-1,2036,610,0,0
-700,407,0,0,0,0,0,0,0,0,0,-1,524,617,0,0
-693,407,0,0,0,0,0,0,0,0,0,-1,531,617,0,0
-686,407,0,0,0,0,0,0,0,0,0,-1,538,617,0,0
-679,407,0,0,0,0,0,0,0,0,0,-1,545,617,0,0
-672,407,0,0,0,0,0,0,0,0,0,-1,552,617,0,0
-665,407,0,0,0,0,0,0,0,0,0,-1,559,617,0,0
-658,407,0,0,0,0,0,0,0,0,0,-1,566,617,0,0
-651,407,0,0,0,0,0,0,0,0,0,-1,573,617,0,0
-644,407,0,0,0,0,0,0,0,0,0,-1,580,617,0,0
-637,407,0,0,0,0,0,0,0,0,0,-1,587,617,0,0
-630,407,0,0,0,0,0,0,0,0,0,-1,594,617,0,0
-623,407,0,0,0,0,0,0,0,0,0,-1,601,617,0,0
-616,407,0,0,0,0,0,0,0,0,0,-1,608,617,0,0
-609,407,0,0,0,0,0,0,0,0,0,-1,615,617,0,0
-602,407,0,0,0,0,0,0,0,0,0,-1,622,617,0,0
-595,407,0,0,0,0,0,0,0,0,0,-1,629,617,0,0
-588,407,0,0,0,0,0,0,0,0,0,-1,636,617,0,0
-581,407,0,0,0,0,0,0,0,0,0,-1,643,617,0,0
-574,407,0,0,0,0,0,0,0,0,0,-1,650,617,0,0
-567,407,0,0,0,0,0,0,0,0,0,-1,657,617,0,0
-560,407,0,0,0,0,0,0,0,0,0,-1,664,617,0,0
-553,407,0,0,0,0,0,0,0,0,0,-1,671,617,0,0
-546,407,-8.54517,-0.658142,0,0,0,0,0,0,0,-1,678,617,-8.54515,0.658112
-539,407,-6.09442,-1.01154,0,0,0,0,0,0,0,-1,685,617,-6.09441,1.01155
-532,407,-7.75665,1.62152,0,0,0,0,0,0,0,-1,692,617,-7.75667,-1.62154
-525,407,-3.78247,-2.67639,0,0,0,0,0,0,0,-1,699,617,-3.78246,2.67638
-518,407,-4.77777,-6.01947,0,0,0,0,0,0,0,-1,706,617,-4.77777,6.01945
-511,407,-4.26392,-4.37659,0,0,0,0,0,0,0,-1,713,617,-4.26393,4.37658
-504,407,-4.53821,-2.54376,0,0,0,0,0,0,0,-1,720,617,-4.53823,2.54376
-497,407,-4.4823,-2.58191,0.0146787,-0.0228127,0.0110885,0.0177127,-0.0258467,0.267082,0.0252948,0.0402499,727,617,-4.48227,2.58191
-490,407,-4.48944,-2.57343,0.0103444,-0.0145007,0.00675931,0.0120643,-0.0162205,0.249157,0.0163889,0.0221407,734,617,-4.48946,2.57343
-483,407,-4.45374,-2.85681,0.00721061,-0.00862298,0.00370175,0.0080333,-0.00944567,0.218689,0.0101025,0.0139756,741,617,-4.45373,2.85683
-476,407,-4.4743,-3.14557,0.00493973,-0.00467104,0.00163141,0.00520911,-0.00494042,0.163644,0.00586052,0.010777,748,617,-4.47427,3.14558
-469,407,-4.50403,-3.43262,0.00328272,-0.00249761,0.000570369,0.00333846,-0.00255335,0.0974223,0.00341169,0.0123733,755,617,-4.50406,3.43259
-462,407,-4.50873,-3.74799,0.00200266,0.000192671,-0.000733706,0.00226271,-6.73836e-05,-0.340625,0.00153143,0.0202701,762,617,-4.50872,3.74796
-455,407,-4.48657,-4.04071,0.00131272,0.00107201,-0.00138913,0.0025867,-0.00020197,-0.742187,0.00179558,0.0213192,769,617,-4.48655,4.04068
-448,407,-4.47803,-4.30115,0.00103727,0.000479058,-0.000950831,0.00174912,-0.000232783,-0.642638,0.00125091,0.0171369,776,617,-4.478,4.30115
-441,407,-4.49054,-4.57599,0.000584821,0.000104918,-0.000560686,0.000954743,-0.000265004,-0.583211,0.000740802,0.0131646,783,617,-4.49051,4.57598
-434,407,-4.50629,-4.87598,-0.000247779,-0.00077395,0.00021813,-0.000169112,-0.000852617,0.346123,0.000521266,0.00944021,790,617,-4.50626,4.87596
-427,407,-4.50983,-5.16785,-0.00111362,-0.00161932,0.000969317,-0.000364718,-0.00236822,0.657815,0.00147238,0.00980014,797,617,-4.50984,5.16787
-420,407,-4.5033,-5.45013,-0.00234654,-0.00262986,0.00186054,-0.000622275,-0.00435413,0.747402,0.00271917,0.0104418,804,617,-4.50332,5.4501
-413,407,-4.50293,-5.75214,-0.00416214,-0.00385152,0.00309446,-0.00090847,-0.00710519,0.810472,0.00446488,0.0112932,811,617,-4.50294,5.75212
-406,407,-4.54303,-5.98401,-0.00651763,-0.00548029,0.00464035,-0.00132972,-0.0106682,0.841054,0.00671294,0.024489,818,617,-4.54305,5.98403
-399,407,-4.51343,-6.06036,-0.00956391,-0.00749427,0.00655047,-0.00189739,-0.0151608,0.863739,0.00953785,0.0392857,825,617,-4.51345,6.06039
-392,407,-4.63049,-6.54517,-0.0135952,-0.00994685,0.00885914,-0.00272605,-0.020816,0.886934,0.0130638,0.0486363,832,617,-4.63051,6.54515
-385,407,-4.81018,-6.99664,0,0,0,0,0,0,0,-1,839,617,-4.81019,6.99664
-378,407,-4.86646,-5.67694,0,0,0,0,0,0,0,-1,846,617,-4.86649,5.67691
-371,407,-4.8147,-5.45941,0,0,0,0,0,0,0,-1,853,617,-4.81469,5.45939
-364,407,-6.26666,-1.91302,0,0,0,0,0,0,0,-1,860,617,-6.26669,1.91305
-357,407,-6.64447,-1.83337,0,0,0,0,0,0,0,-1,867,617,-6.64446,1.8334
-350,407,-7.03351,-1.77551,0,0,0,0,0,0,0,-1,874,617,-7.03349,1.77551
-343,407,-7.40967,-1.95026,0,0,0,0,0,0,0,-1,881,617,-7.40969,1.95026
-336,407,-8.10229,-2.40662,0,0,0,0,0,0,0,-1,888,617,-8.10229,2.40664
-329,407,-8.81232,-2.76331,0,0,0,0,0,0,0,-1,895,617,-8.81235,2.76331
-322,407,0,0,0,0,0,0,0,0,0,-1,902,617,0,0
-315,407,0,0,0,0,0,0,0,0,0,-1,909,617,0,0
-308,407,0,0,0,0,0,0,0,0,0,-1,916,617,0,0
-301,407,0,0,0,0,0,0,0,0,0,-1,923,617,0,0
-294,407,0,0,0,0,0,0,0,0,0,-1,930,617,0,0
-287,407,0,0,0,0,0,0,0,0,0,-1,937,617,0,0
-280,407,0,0,0,0,0,0,0,0,0,-1,944,617,0,0
-273,407,0,0,0,0,0,0,0,0,0,-1,951,617,0,0
-266,407,0,0,0,0,0,0,0,0,0,-1,958,617,0,0
-259,407,0,0,0,0,0,0,0,0,0,-1,965,617,0,0
-252,407,0,0,0,0,0,0,0,0,0,-1,972,617,0,0
-245,407,0,0,0,0,0,0,0,0,0,-1,979,617,0,0
-238,407,0,0,0,0,0,0,0,0,0,-1,986,617,0,0
-231,407,0,0,0,0,0,0,0,0,0,-1,993,617,0,0
-224,407,0,0,0,0,0,0,0,0,0,-1,1000,617,0,0
-217,407,0,0,0,0,0,0,0,0,0,-1,1007,617,0,0
-210,407,0,0,0,0,0,0,0,0,0,-1,1014,617,0,0
-203,407,0,0,0,0,0,0,0,0,0,-1,1021,617,0,0
-196,407,0,0,0,0,0,0,0,0,0,-1,1028,617,0,0
-189,407,0,0,0,0,0,0,0,0,0,-1,1035,617,0,0
-182,407,0,0,0,0,0,0,0,0,0,-1,1042,617,0,0
-175,407,0,0,0,0,0,0,0,0,0,-1,1049,617,0,0
-168,407,0,0,0,0,0,0,0,0,0,-1,1056,617,0,0
-161,407,0,0,0,0,0,0,0,0,0,-1,1063,617,0,0
-154,407,0,0,0,0,0,0,0,0,0,-1,1070,617,0,0
-147,407,0,0,0,0,0,0,0,0,0,-1,1077,617,0,0
-140,407,0,0,0,0,0,0,0,0,0,-1,1084,617,0,0
-133,407,0,0,0,0,0,0,0,0,0,-1,1091,617,0,0
-126,407,0,0,0,0,0,0,0,0,0,-1,1098,617,0,0
-119,407,0,0,0,0,0,0,0,0,0,-1,1105,617,0,0
-112,407,0,0,0,0,0,0,0,0,0,-1,1112,617,0,0
-105,407,0,0,0,0,0,0,0,0,0,-1,1119,617,0,0
-98,407,0,0,0,0,0,0,0,0,0,-1,1126,617,0,0
-91,407,0,0,0,0,0,0,0,0,0,-1,1133,617,0,0
-84,407,0,0,0,0,0,0,0,0,0,-1,1140,617,0,0
-77,407,0,0,0,0,0,0,0,0,0,-1,1147,617,0,0
-70,407,0,0,0,0,0,0,0,0,0,-1,1154,617,0,0
-63,407,0,0,0,0,0,0,0,0,0,-1,1161,617,0,0
-56,407,0,0,0,0,0,0,0,0,0,-1,1168,617,0,0
-49,407,0,0,0,0,0,0,0,0,0,-1,1175,617,0,0
-42,407,0,0,0,0,0,0,0,0,0,-1,1182,617,0,0
-35,407,0,0,0,0,0,0,0,0,0,-1,1189,617,0,0
-28,407,0,0,0,0,0,0,0,0,0,-1,1196,617,0,0
-21,407,0,0,0,0,0,0,0,0,0,-1,1203,617,0,0
-14,407,0,0,0,0,0,0,0,0,0,-1,1210,617,0,0
-7,407,0,0,0,0,0,0,0,0,0,-1,1217,617,0,0
0,407,0,0,0,0,0,0,0,0,0,-1,1224,617,0,0
7,407,0,0,0,0,0,0,0,0,0,-1,1231,617,0,0
14,407,0,0,0,0,0,0,0,0,0,-1,1238,617,0,0
21,407,0,0,0,0,0,0,0,0,0,-1,1245,617,0,0
28,407,0,0,0,0,0,0,0,0,0,-1,1252,617,0,0
35,407,0,0,0,0,0,0,0,0,0,-1,1259,617,0,0
42,407,0,0,0,0,0,0,0,0,0,-1,1266,617,0,0
49,407,0,0,0,0,0,0,0,0,0,-1,1273,617,0,0
56,407,0,0,0,0,0,0,0,0,0,-1,1280,617,0,0
63,407,0,0,0,0,0,0,0,0,0,-1,1287,617,0,0
70,407,0,0,0,0,0,0,0,0,0,-1,1294,617,0,0
77,407,0,0,0,0,0,0,0,0,0,-1,1301,617,0,0
84,407,0,0,0,0,0,0,0,0,0,-1,1308,617,0,0
91,407,0,0,0,0,0,0,0,0,0,-1,1315,617,0,0
98,407,0,0,0,0,0,0,0,0,0,-1,1322,617,0,0
105,407,0,0,0,0,0,0,0,0,0,-1,1329,617,0,0
112,407,0,0,0,0,0,0,0,0,0,-1,1336,617,0,0
119,407,0,0,0,0,0,0,0,0,0,-1,1343,617,0,0
126,407,0,0,0,0,0,0,0,0,0,-1,1350,617,0,0
133,407,0,0,0,0,0,0,0,0,0,-1,1357,617,0,0
140,407,0,0,0,0,0,0,0,0,0,-1,1364,617,0,0
147,407,0,0,0,0,0,0,0,0,0,-1,1371,617,0,0
154,407,0,0,0,0,0,0,0,0,0,-1,1378,617,0,0
161,407,0,0,0,0,0,0,0,0,0,-1,1385,617,0,0
168,407,0,0,0,0,0,0,0,0,0,-1,1392,617,0,0
175,407,0,0,0,0,0,0,0,0,0,-1,1399,617,0,0
182,407,0,0,0,0,0,0,0,0,0,-1,1406,617,0,0
189,407,0,0,0,0,0,0,0,0,0,-1,1413,617,0,0
196,407,0,0,0,0,0,0,0,0,0,-1,1420,617,0,0
203,407,0,0,0,0,0,0,0,0,0,-1,1427,617,0,0
210,407,0,0,0,0,0,0,0,0,0,-1,1434,617,0,0
217,407,0,0,0,0,0,0,0,0,0,-1,1441,617,0,0
224,407,0,0,0,0,0,0,0,0,0,-1,1448,617,0,0
231,407,0,0,0,0,0,0,0,0,0,-1,1455,617,0,0
238,407,0,0,0,0,0,0,0,0,0,-1,1462,617,0,0
245,407,0,0,0,0,0,0,0,0,0,-1,1469,617,0,0
252,407,0,0,0,0,0,0,0,0,0,-1,1476,617,0,0
259,407,0,0,0,0,0,0,0,0,0,-1,1483,617,0,0
266,407,0,0,0,0,0,0,0,0,0,-1,1490,617,0,0
273,407,0,0,0,0,0,0,0,0,0,-1,1497,617,0,0
280,407,0,0,0,0,0,0,0,0,0,-1,1504,617,0,0
287,407,0,0,0,0,0,0,0,0,0,-1,1511,617,0,0
294,407,0,0,0,0,0,0,0,0,0,-1,1518,617,0,0
301,407,0,0,0,0,0,0,0,0,0,-1,1525,617,0,0
308,407,0,0,0,0,0,0,0,0,0,-1,1532,617,0,0
315,407,0,0,0,0,0,0,0,0,0,-1,1539,617,0,0
322,407,0,0,0,0,0,0,0,0,0,-1,1546,617,0,0
329,407,0,0,0,0,0,0,0,0,0,-1,1553,617,0,0
336,407,0,0,0,0,0,0,0,0,0,-1,1560,617,0,0
343,407,0,0,0,0,0,0,0,0,0,-1,1567,617,0,0
350,407,0,0,0,0,0,0,0,0,0,-1,1574,617,0,0
357,407,0,0,0,0,0,0,0,0,0,-1,1581,617,0,0
364,407,0,0,0,0,0,0,0,0,0,-1,1588,617,0,0
371,407,0,0,0,0,0,0,0,0,0,-1,1595,617,0,0
378,407,0,0,0,0,0,0,0,0,0,-1,1602,617,0,0
385,407,0,0,0,0,0,0,0,0,0,-1,1609,617,0,0
392,407,0,0,0,0,0,0,0,0,0,-1,1616,617,0,0
399,407,0,0,0,0,0,0,0,0,0,-1,1623,617,0,0
406,407,0,0,0,0,0,0,0,0,0,-1,1630,617,0,0
413,407,0,0,0,0,0,0,0,0,0,-1,1637,617,0,0
420,407,0,0,0,0,0,0,0,0,0,-1,1644,617,0,0
427,407,0,0,0,0,0,0,0,0,0,-1,1651,617,0,0
434,407,0,0,0,0,0,0,0,0,0,-1,1658,617,0,0
441,407,0,0,0,0,0,0,0,0,0,-1,1665,617,0,0
448,407,7.02893,2.13843,0,0,0,0,0,0,0,-1,1672,617,7.02899,-2.13844
455,407,7.55237,2.29242,0,0,0,0,0,0,0,-1,1679,617,7.55236,-2.29244
462,407,8.2926,2.46173,0,0,0,0,0,0,0,-1,1686,617,8.29261,-2.46174
469,407,8.71509,2.22681,0,0,0,0,0,0,0,-1,1693,617,8.71511,-2.22681
476,407,8.89917,1.47766,0,0,0,0,0,0,0,-1,1700,617,8.89914,-1.47768
483,407,9.02612,0.682983,0,0,0,0,0,0,0,-1,1707,617,9.02608,-0.683004
490,407,9.12659,0.000671387,0,0,0,0,0,0,0,-1,1714,617,9.12653,-0.000675931
497,407,7.76819,0.855835,0,0,0,0,0,0,0,-1,1721,617,7.7682,-0.855865
504,407,4.69336,0.160706,0,0,0,0,0,0,0,-1,1728,617,4.69337,-0.1607
511,407,4.07104,-0.00140381,0,0,0,0,0,0,0,-1,1735,617,4.07109,0.00141425
518,407,6.09534,1.9411,0,0,0,0,0,0,0,-1,1742,617,6.09532,-1.94113
525,407,5.72534,-1.35986,0,0,0,0,0,0,0,-1,1749,617,5.72529,1.35988
532,407,7.31763,-2.34937,0,0,0,0,0,0,0,-1,1756,617,7.31766,2.34937
539,407,10.3373,-4.34204,0,0,0,0,0,0,0,-1,1763,617,10.3373,4.34203
546,407,10.4701,-3.82031,0.00114462,0.00378804,0.00186582,0.00475285,0.000179804,1.09356,0.00311036,0.01554,1770,617,10.4701,3.8203
553,407,10.4618,-3.54187,0.000784083,0.0027051,0.0012597,0.0033287,0.000160477,1.11112,0.00216762,0.0130734,1777,617,10.4618,3.54184
560,407,10.4948,-3.21136,0.000441175,0.0019441,0.00082243,0.00230668,7.85956e-05,1.15557,0.00151227,0.0144488,1784,617,10.4947,3.21137
567,407,10.4838,-2.89026,0.0002374,0.00139576,0.000572242,0.00163078,2.38785e-06,1.18111,0.00108639,0.0273381,1791,617,10.4838,2.89025
574,407,10.4697,-2.62982,0.000313967,0.00111394,0.000584031,0.00142182,6.08282e-06,1.08565,0.000945862,0.0241796,1798,617,10.4697,2.62985
581,407,10.4756,-2.29834,0.000567812,0.00110966,0.00078252,0.00166683,1.06435e-05,0.95205,0.00110769,0.0154833,1805,617,10.4755,2.29833
588,407,10.4575,-2.00861,0.000938532,0.00134631,0.00116712,0.00232721,-4.2376e-05,0.871872,0.00156579,0.01061,1812,617,10.4575,2.00863
595,407,10.4875,-1.69092,0.00155687,0.00188563,0.00176336,0.00349225,-4.97542e-05,0.831874,0.00234493,0.0203306,1819,617,10.4875,1.69091
602,407,10.4803,-1.36395,0.00235309,0.00274006,0.0025851,0.0051389,-4.57538e-05,0.822751,0.00344129,0.0179914,1826,617,10.4803,1.36397
609,407,10.4469,-1.04248,0.00327326,0.00384304,0.00354901,0.00711858,-2.28104e-06,0.825449,0.00474648,0.0160249,1833,617,10.4469,1.04245
616,407,10.5065,-0.626221,0.00422078,0.00566239,0.00479694,0.00979238,9.0789e-05,0.859972,0.0064982,0.0279568,1840,617,10.5065,0.626239
623,407,10.7382,-0.124512,0,0,0,0,0,0,0,-1,1847,617,10.7381,0.12452
630,407,7.06177,0.814575,0,0,0,0,0,0,0,-1,1854,617,7.06178,-0.814579
637,407,6.27808,1.17114,0,0,0,0,0,0,0,-1,1861,617,6.27803,-1.17116
644,407,5.09766,2.27747,0,0,0,0,0,0,0,-1,1868,617,5.09764,-2.27746
651,407,7.37524,0.0513916,0,0,0,0,0,0,0,-1,1875,617,7.3752,-0.0513923
658,407,3.76685,0.594177,0,0,0,0,0,0,0,-1,1882,617,3.76683,-0.594184
665,407,5.76123,0.375061,0,0,0,0,0,0,0,-1,1889,617,5.76118,-0.37509
672,407,0,0,0,0,0,0,0,0,0,-1,1896,617,0,0
679,407,0,0,0,0,0,0,0,0,0,-1,1903,617,0,0
686,407,0,0,0,0,0,0,0,0,0,-1,1910,617,0,0
693,407,0,0,0,0,0,0,0,0,0,-1,1917,617,0,0
700,407,0,0,0,0,0,0,0,0,0,-1,1924,617,0,0
707,407,0,0,0,0,0,0,0,0,0,-1,1931,617,0,0
714,407,0,0,0,0,0,0,0,0,0,-1,1938,617,0,0
721,407,0,0,0,0,0,0,0,0,0,-1,1945,617,0,0
728,407,0,0,0,0,0,0,0,0,0,-1,1952,617,0,0
735,407,0,0,0,0,0,0,0,0,0,-1,1959,617,0,0
742,407,0,0,0,0,0,0,0,0,0,-1,1966,617,0,0
749,407,0,0,0,0,0,0,0,0,0,-1,1973,617,0,0
756,407,0,0,0,0,0,0,0,0,0,-1,1980,617,0,0
763,407,0,0,0,0,0,0,0,0,0,-1,1987,617,0,0
770,407,0,0,0,0,0,0,0,0,0,-1,1994,617,0,0
777,407,0,0,0,0,0,0,0,0,0,-1,2001,617,0,0
784,407,0,0,0,0,0,0,0,0,0,-1,2008,617,0,0
791,407,0,0,0,0,0,0,0,0,0,-1,2015,617,0,0
798,407,0,0,0,0,0,0,0,0,0,-1,2022,617,0,0
805,407,0,0,0,0,0,0,0,0,0,-1,2029,617,0,0
812,407,0,0,0,0,0,0,0,0,0,-1,2036,617,0,0
-700,400,0,0,0,0,0,0,0,0,0,-1,524,624,0,0
-693,400,0,0,0,0,0,0,0,0,0,-1,531,624,0,0
-686,400,0,0,0,0,0,0,0,0,0,-1,538,624,0,0
-679,400,0,0,0,0,0,0,0,0,0,-1,545,624,0,0
-672,400,0,0,0,0,0,0,0,0,0,-1,552,624,0,0
-665,400,0,0,0,0,0,0,0,0,0,-1,559,624,0,0
-658,400,0,0,0,0,0,0,0,0,0,-1,566,624,0,0
-651,400,0,0,0,0,0,0,0,0,0,-1,573,624,0,0
-644,400,0,0,0,0,0,0,0,0,0,-1,580,624,0,0
-637,400,0,0,0,0,0,0,0,0,0,-1,587,624,0,0
-630,400,0,0,0,0,0,0,0,0,0,-1,594,624,0,0
-623,400,0,0,0,0,0,0,0,0,0,-1,601,624,0,0
-616,400,0,0,0,0,0,0,0,0,0,-1,608,624,0,0
-609,400,0,0,0,0,0,0,0,0,0,-1,615,624,0,0
-602,400,0,0,0,0,0,0,0,0,0,-1,622,624,0,0
-595,400,0,0,0,0,0,0,0,0,0,-1,629,624,0,0
-588,400,0,0,0,0,0,0,0,0,0,-1,636,624,0,0
-581,400,0,0,0,0,0,0,0,0,0,-1,643,624,0,0
-574,400,0,0,0,0,0,0,0,0,0,-1,650,624,0,0
-567,400,0,0,0,0,0,0,0,0,0,-1,657,624,0,0
-560,400,0,0,0,0,0,0,0,0,0,-1,664,624,0,0
-553,400,0,0,0,0,0,0,0,0,0,-1,671,624,0,0
-546,400,-8.41174,-1.4599,0,0,0,0,0,0,0,-1,678,624,-8.41173,1.45989
-539,400,-5.69104,-1.7337,0,0,0,0,0,0,0,-1,685,624,-5.69103,1.7337
-532,400,-3.03632,-2.03912,0,0,0,0,0,0,0,-1,692,624,-3.03632,2.03909
-525,400,-5.53925,-6.37646,0,0,0,0,0,0,0,-1,699,624,-5.53922,6.37643
-518,400,-4.9964,-5.26758,0.0251341,-0.0550802,0.0212406,0.0304113,-0.0603575,0.243521,0.0533476,0.0498949,706,624,-4.99638,5.26759
-511,400,-4.42615,-3.93616,0.0206202,-0.0418807,0.0183234,0.025596,-0.0468565,0.265158,0.0424265,0.0453425,713,624,-4.42613,3.93614
-504,400,-4.15369,-2.97144,0,0,0,0,0,0,0,-1,720,624,-4.15367,2.97142
-497,400,-4.67438,-2.40326,0.0115347,-0.0202953,0.00946764,0.0141378,-0.0228985,0.268326,0.0215814,0.0331274,727,624,-4.6744,2.40326
-490,400,-4.76129,-2.54236,0.00825552,-0.0132874,0.00611655,0.00987101,-0.0149028,0.258222,0.0144012,0.0163437,734,624,-4.76129,2.54236
-483,400,-4.7832,-2.85522,0.00583266,-0.00808473,0.00357146,0.00669565,-0.00894771,0.23709,0.00906285,0.0148948,741,624,-4.7832,2.85525
-476,400,-4.78363,-3.13214,0.00408744,-0.0044818,0.00173239,0.00442442,-0.00481878,0.192116,0.00533818,0.012562,748,624,-4.78362,3.13214
-469,400,-4.80945,-3.41382,0.00281304,-0.00251591,0.000745815,0.00291546,-0.00261832,0.136463,0.00319646,0.0138276,755,624,-4.80945,3.41379
-462,400,-4.77771,-3.72791,0.00186279,-4.48699e-05,-0.000496546,0.0019843,-0.000166377,-0.239989,0.00138167,0.0194789,762,624,-4.77772,3.72788
-455,400,-4.77734,-4.03418,0.00136437,0.000738986,-0.00109092,0.00218653,-8.31725e-05,-0.645824,0.00148619,0.0195212,769,624,-4.77732,4.03415
-448,400,-4.78082,-4.30707,0.00115928,0.000218377,-0.000778215,0.00159819,-0.000220535,-0.513527,0.00114607,0.0141175,776,624,-4.78084,4.30706
-441,400,-4.77081,-4.56555,0.000681548,-0.000123315,-0.000464533,0.000893723,-0.000335491,-0.428454,0.000733676,0.013236,783,624,-4.7708,4.56556
-434,400,-4.78906,-4.85736,-0.00016034,-0.000912691,0.000218911,-0.000101279,-0.000971752,0.263516,0.000616852,0.0103125,790,624,-4.78909,4.85736
-427,400,-4.80127,-5.15216,-0.00109802,-0.00175086,0.000916469,-0.000451572,-0.0023973,0.614317,0.00147097,0.00960131,797,624,-4.80128,5.15219
-420,400,-4.75751,-5.45758,-0.00257427,-0.00288591,0.00186219,-0.000861388,-0.00459879,0.743659,0.00282289,0.0138475,804,624,-4.7575,5.45761
-413,400,-4.79553,-5.71796,-0.00475412,-0.00429908,0.00321365,-0.00130491,-0.00774829,0.820739,0.00479018,0.029292,811,624,-4.79555,5.71798
-406,400,-5.01385,-5.78625,-0.00772951,-0.00633272,0.00502273,-0.00196006,-0.0121022,0.854479,0.00750062,0.0398617,818,624,-5.01387,5.78625
-399,400,-5.02356,-5.94855,0,0,0,0,0,0,0,-1,825,624,-5.02359,5.94857
-392,400,-4.90198,-6.60291,0,0,0,0,0,0,0,-1,832,624,-4.90198,6.60292
-385,400,-3.68738,-5.04205,0,0,0,0,0,0,0,-1,839,624,-3.68736,5.04207
-378,400,-6.84064,-1.28662,0,0,0,0,0,0,0,-1,846,624,-6.84062,1.28662
-371,400,-6.98865,-1.2572,0,0,0,0,0,0,0,-1,853,624,-6.98865,1.25721
-364,400,-6.97247,-1.24133,0,0,0,0,0,0,0,-1,860,624,-6.97249,1.24135
-357,400,-7.18329,-1.23218,0,0,0,0,0,0,0,-1,867,624,-7.18327,1.2322
-350,400,-7.40186,-1.19409,0,0,0,0,0,0,0,-1,874,624,-7.40187,1.19407
-343,400,-8.09357,-1.51147,0,0,0,0,0,0,0,-1,881,624,-8.09355,1.51148
-336,400,0,0,0,0,0,0,0,0,0,-1,888,624,0,0
-329,400,0,0,0,0,0,0,0,0,0,-1,895,624,0,0
-322,400,0,0,0,0,0,0,0,0,0,-1,902,624,0,0
-315,400,0,0,0,0,0,0,0,0,0,-1,909,624,0,0
-308,400,0,0,0,0,0,0,0,0,0,-1,916,624,0,0
-301,400,0,0,0,0,0,0,0,0,0,-1,923,624,0,0
-294,400,0,0,0,0,0,0,0,0,0,-1,930,624,0,0
-287,400,0,0,0,0,0,0,0,0,0,-1,937,624,0,0
-280,400,0,0,0,0,0,0,0,0,0,-1,944,624,0,0
-273,400,0,0,0,0,0,0,0,0,0,-1,951,624,0,0
-266,400,0,0,0,0,0,0,0,0,0,-1,958,624,0,0
-259,400,0,0,0,0,0,0,0,0,0,-1,965,624,0,0
-252,400,0,0,0,0,0,0,0,0,0,-1,972,624,0,0
-245,400,0,0,0,0,0,0,0,0,0,-1,979,624,0,0
-238,400,0,0,0,0,0,0,0,0,0,-1,986,624,0,0
-231,400,0,0,0,0,0,0,0,0,0,-1,993,624,0,0
-224,400,0,0,0,0,0,0,0,0,0,-1,1000,624,0,0
-217,400,0,0,0,0,0,0,0,0,0,-1,1007,624,0,0
-210,400,0,0,0,0,0,0,0,0,0,-1,1014,624,0,0
-203,400,0,0,0,0,0,0,0,0,0,-1,1021,624,0,0
-196,400,0,0,0,0,0,0,0,0,0,-1,1028,624,0,0
-189,400,0,0,0,0,0,0,0,0,0,-1,1035,624,0,0
-182,400,0,0,0,0,0,0,0,0,0,-1,1042,624,0,0
-175,400,0,0,0,0,0,0,0,0,0,-1,1049,624,0,0
-168,400,0,0,0,0,0,0,0,0,0,-1,1056,624,0,0
-161,400,0,0,0,0,0,0,0,0,0,-1,1063,624,0,0
-154,400,0,0,0,0,0,0,0,0,0,-1,1070,624,0,0
-147,400,0,0,0,0,0,0,0,0,0,-1,1077,624,0,0
-140,400,0,0,0,0,0,0,0,0,0,-1,1084,624,0,0
-133,400,0,0,0,0,0,0,0,0,0,-1,1091,624,0,0
-126,400,0,0,0,0,0,0,0,0,0,-1,1098,624,0,0
-119,400,0,0,0,0,0,0,0,0,0,-1,1105,624,0,0
-112,400,0,0,0,0,0,0,0,0,0,-1,1112,624,0,0
-105,400,0,0,0,0,0,0,0,0,0,-1,1119,624,0,0
-98,400,0,0,0,0,0,0,0,0,0,-1,1126,624,0,0
-91,400,0,0,0,0,0,0,0,0,0,-1,1133,624,0,0
-84,400,0,0,0,0,0,0,0,0,0,-1,1140,624,0,0
-77,400,0,0,0,0,0,0,0,0,0,-1,1147,624,0,0
-70,400,0,0,0,0,0,0,0,0,0,-1,1154,624,0,0
-63,400,0,0,0,0,0,0,0,0,0,-1,1161,624,0,0
-56,400,0,0,0,0,0,0,0,0,0,-1,1168,624,0,0
-49,400,0,0,0,0,0,0,0,0,0,-1,1175,624,0,0
-42,400,0,0,0,0,0,0,0,0,0,-1,1182,624,0,0
-35,400,0,0,0,0,0,0,0,0,0,-1,1189,624,0,0
-28,400,0,0,0,0,0,0,0,0,0,-1,1196,624,0,0
-21,400,0,0,0,0,0,0,0,0,0,-1,1203,624,0,0
-14,400,0,0,0,0,0,0,0,0,0,-1,1210,624,0,0
-7,400,0,0,0,0,0,0,0,0,0,-1,1217,624,0,0
0,400,0,0,0,0,0,0,0,0,0,-1,1224,624,0,0
7,400,0,0,0,0,0,0,0,0,0,-1,1231,624,0,0
14,400,0,0,0,0,0,0,0,0,0,-1,1238,624,0,0
21,400,0,0,0,0,0,0,0,0,0,-1,1245,624,0,0
28,400,0,0,0,0,0,0,0,0,0,-1,1252,624,0,0
35,400,0,0,0,0,0,0,0,0,0,-1,1259,624,0,0
42,400,0,0,0,0,0,0,0,0,0,-1,1266,624,0,0
49,400,0,0,0,0,0,0,0,0,0,-1,1273,624,0,0
56,400,0,0,0,0,0,0,0,0,0,-1,1280,624,0,0
63,400,0,0,0,0,0,0,0,0,0,-1,1287,624,0,0
70,400,0,0,0,0,0,0,0,0,0,-1,1294,624,0,0
77,400,0,0,0,0,0,0,0,0,0,-1,1301,624,0,0
84,400,0,0,0,0,0,0,0,0,0,-1,1308,624,0,0
91,400,0,0,0,0,0,0,0,0,0,-1,1315,624,0,0
98,400,0,0,0,0,0,0,0,0,0,-1,1322,624,0,0
105,400,0,0,0,0,0,0,0,0,0,-1,1329,624,0,0
112,400,0,0,0,0,0,0,0,0,0,-1,1336,624,0,0
119,400,0,0,0,0,0,0,0,0,0,-1,1343,624,0,0
126,400,0,0,0,0,0,0,0,0,0,-1,1350,624,0,0
133,400,0,0,0,0,0,0,0,0,0,-1,1357,624,0,0
140,400,0,0,0,0,0,0,0,0,0,-1,1364,624,0,0
147,400,0,0,0,0,0,0,0,0,0,-1,1371,624,0,0
154,400,0,0,0,0,0,0,0,0,0,-1,1378,624,0,0
161,400,0,0,0,0,0,0,0,0,0,-1,1385,624,0,0
168,400,0,0,0,0,0,0,0,0,0,-1,1392,624,0,0
175,400,0,0,0,0,0,0,0,0,0,-1,1399,624,0,0
182,400,0,0,0,0,0,0,0,0,0,-1,1406,624,0,0
189,400,0,0,0,0,0,0,0,0,0,-1,1413,624,0,0
196,400,0,0,0,0,0,0,0,0,0,-1,1420,624,0,0
203,400,0,0,0,0,0,0,0,0,0,-1,1427,624,0,0
210,400,0,0,0,0,0,0,0,0,0,-1,1434,624,0,0
217,400,0,0,0,0,0,0,0,0,0,-1,1441,624,0,0
224,400,0,0,0,0,0,0,0,0,0,-1,1448,624,0,0
231,400,0,0,0,0,0,0,0,0,0,-1,1455,624,0,0
238,400,0,0,0,0,0,0,0,0,0,-1,1462,624,0,0
245,400,0,0,0,0,0,0,0,0,0,-1,1469,624,0,0
252,400,0,0,0,0,0,0,0,0,0,-1,1476,624,0,0
259,400,0,0,0,0,0,0,0,0,0,-1,1483,624,0,0
266,400,0,0,0,0,0,0,0,0,0,-1,1490,624,0,0
273,400,0,0,0,0,0,0,0,0,0,-1,1497,624,0,0
280,400,0,0,0,0,0,0,0,0,0,-1,1504,624,0,0
287,400,0,0,0,0,0,0,0,0,0,-1,1511,624,0,0
294,400,0,0,0,0,0,0,0,0,0,-1,1518,624,0,0
301,400,0,0,0,0,0,0,0,0,0,-1,1525,624,0,0
308,400,0,0,0,0,0,0,0,0,0,-1,1532,624,0,0
315,400,0,0,0,0,0,0,0,0,0,-1,1539,624,0,0
322,400,0,0,0,0,0,0,0,0,0,-1,1546,624,0,0
329,400,0,0,0,0,0,0,0,0,0,-1,1553,624,0,0
336,400,0,0,0,0,0,0,0,0,0,-1,1560,624,0,0
343,400,0,0,0,0,0,0,0,0,0,-1,1567,624,0,0
350,400,0,0,0,0,0,0,0,0,0,-1,1574,624,0,0
357,400,0,0,0,0,0,0,0,0,0,-1,1581,624,0,0
364,400,0,0,0,0,0,0,0,0,0,-1,1588,624,0,0
371,400,0,0,0,0,0,0,0,0,0,-1,1595,624,0,0
378,400,0,0,0,0,0,0,0,0,0,-1,1602,624,0,0
385,400,0,0,0,0,0,0,0,0,0,-1,1609,624,0,0
392,400,0,0,0,0,0,0,0,0,0,-1,1616,624,0,0
399,400,0,0,0,0,0,0,0,0,0,-1,1623,624,0,0
406,400,0,0,0,0,0,0,0,0,0,-1,1630,624,0,0
413,400,0,0,0,0,0,0,0,0,0,-1,1637,624,0,0
420,400,0,0,0,0,0,0,0,0,0,-1,1644,624,0,0
427,400,0,0,0,0,0,0,0,0,0,-1,1651,624,0,0
434,400,0,0,0,0,0,0,0,0,0,-1,1658,624,0,0
441,400,0,0,0,0,0,0,0,0,0,-1,1665,624,0,0
448,400,0,0,0,0,0,0,0,0,0,-1,1672,624,0,0
455,400,8.91309,2.75885,0,0,0,0,0,0,0,-1,1679,624,8.91312,-2.75885
462,400,8.90356,2.37878,0,0,0,0,0,0,0,-1,1686,624,8.90353,-2.37878
469,400,9.14429,1.76849,0,0,0,0,0,0,0,-1,1693,624,9.14432,-1.76847
476,400,9.23254,1.25995,0,0,0,0,0,0,0,-1,1700,624,9.23252,-1.25994
483,400,9.59766,0.562439,0,0,0,0,0,0,0,-1,1707,624,9.59771,-0.56242
490,400,9.92578,-0.213745,0,0,0,0,0,0,0,-1,1714,624,9.92579,0.21376
497,400,9.19141,0.175232,0,0,0,0,0,0,0,-1,1721,624,9.19138,-0.175209
504,400,9.23438,0.00823975,0,0,0,0,0,0,0,-1,1728,624,9.23436,-0.00823766
511,400,6.16687,3.3501,0,0,0,0,0,0,0,-1,1735,624,6.16682,-3.35007
518,400,6.55237,1.74994,0,0,0,0,0,0,0,-1,1742,624,6.55236,-1.74993
525,400,6.99731,1.08783,0,0,0,0,0,0,0,-1,1749,624,6.99736,-1.08785
532,400,6.96582,-1.74982,0,0,0,0,0,0,0,-1,1756,624,6.96585,1.74983
539,400,10.8811,-4.14502,0,0,0,0,0,0,0,-1,1763,624,10.8811,4.14505
546,400,10.8588,-3.85791,0.000752912,0.00485671,0.00202029,0.00568437,-7.47482e-05,1.18198,0.00381474,0.0305947,1770,624,10.8587,3.85793
553,400,10.7424,-3.52319,0.000461296,0.00351679,0.00134983,0.00402768,-4.95976e-05,1.20897,0.00270181,0.0169925,1777,624,10.7424,3.52317
560,400,10.7804,-3.19147,0.000172775,0.00256927,0.000866123,0.00284952,-0.000107479,1.25786,0.0019365,0.01365,1784,624,10.7804,3.19148
567,400,10.8107,-2.90002,1.22092e-06,0.00184068,0.000556107,0.00199574,-0.000153832,1.29888,0.00138462,0.017453,1791,624,10.8107,2.90002
574,400,10.7911,-2.61456,9.48055e-05,0.00141678,0.000503607,0.00158677,-7.5185e-05,1.24526,0.00108378,0.0195596,1798,624,10.7911,2.61453
581,400,10.7523,-2.2876,0.000385513,0.0012913,0.000654584,0.00163439,4.24213e-05,1.08803,0.00107573,0.0176637,1805,624,10.7524,2.28758
588,400,10.7667,-1.96399,0.000788715,0.00142745,0.000990404,0.00214871,6.74601e-05,0.941366,0.00141052,0.0137126,1812,624,10.7668,1.964
595,400,10.7736,-1.68115,0.0014139,0.00185337,0.00151727,0.00316674,0.000100533,0.85731,0.00207846,0.0129168,1819,624,10.7735,1.68118
602,400,10.7855,-1.37207,0.00219111,0.00257226,0.00225695,0.00464666,0.000116698,0.827518,0.00305962,0.0125653,1826,624,10.7855,1.37208
609,400,10.7384,-1.05646,0.00294723,0.00350323,0.00305465,0.00629251,0.000157959,0.830778,0.00414335,0.0128299,1833,624,10.7384,1.05645
616,400,10.74,-0.741089,0.00352181,0.00490778,0.00394377,0.00821899,0.000210601,0.872369,0.00541049,0.0169326,1840,624,10.74,0.741072
623,400,10.9829,-0.274475,0.00425636,0.0064138,0.004963,0.010414,0.000256203,0.89241,0.00685883,0.0462623,1847,624,10.9829,0.274503
630,400,11.3174,0.147888,0,0,0,0,0,0,0,-1,1854,624,11.3174,-0.14789
637,400,6.92896,1.01917,0,0,0,0,0,0,0,-1,1861,624,6.92899,-1.01918
644,400,8.65381,1.4599,0,0,0,0,0,0,0,-1,1868,624,8.65379,-1.45991
651,400,7.90601,0.424072,0,0,0,0,0,0,0,-1,1875,624,7.90598,-0.424097
658,400,8.69031,1.0484,0,0,0,0,0,0,0,-1,1882,624,8.6903,-1.0484
665,400,5.98438,0.522522,0,0,0,0,0,0,0,-1,1889,624,5.98442,-0.522552
672,400,0,0,0,0,0,0,0,0,0,-1,1896,624,0,0
679,400,0,0,0,0,0,0,0,0,0,-1,1903,624,0,0
686,400,0,0,0,0,0,0,0,0,0,-1,1910,624,0,0
693,400,0,0,0,0,0,0,0,0,0,-1,1917,624,0,0
700,400,0,0,0,0,0,0,0,0,0,-1,1924,624,0,0
707,400,0,0,0,0,0,0,0,0,0,-1,1931,624,0,0
714,400,0,0,0,0,0,0,0,0,0,-1,1938,624,0,0
721,400,0,0,0,0,0,0,0,0,0,-1,1945,624,0,0
728,400,0,0,0,0,0,0,0,0,0,-1,1952,624,0,0
735,400,0,0,0,0,0,0,0,0,0,-1,1959,624,0,0
742,400,0,0,0,0,0,0,0,0,0,-1,1966,624,0,0
749,400,0,0,0,0,0,0,0,0,0,-1,1973,624,0,0
756,400,0,0,0,0,0,0,0,0,0,-1,1980,624,0,0
763,400,0,0,0,0,0,0,0,0,0,-1,1987,624,0,0
770,400,0,0,0,0,0,0,0,0,0,-1,1994,624,0,0
777,400,0,0,0,0,0,0,0,0,0,-1,2001,624,0,0
784,400,0,0,0,0,0,0,0,0,0,-1,2008,624,0,0
791,400,0,0,0,0,0,0,0,0,0,-1,2015,624,0,0
798,400,0,0,0,0,0,0,0,0,0,-1,2022,624,0,0
805,400,0,0,0,0,0,0,0,0,0,-1,2029,624,0,0
812,400,0,0,0,0,0,0,0,0,0,-1,2036,624,0,0
-700,393,0,0,0,0,0,0,0,0,0,-1,524,631,0,0
-693,393,0,0,0,0,0,0,0,0,0,-1,531,631,0,0
-686,393,0,0,0,0,0,0,0,0,0,-1,538,631,0,0
-679,393,0,0,0,0,0,0,0,0,0,-1,545,631,0,0
-672,393,0,0,0,0,0,0,0,0,0,-1,552,631,0,0
-665,393,0,0,0,0,0,0,0,0,0,-1,559,631,0,0
-658,393,0,0,0,0,0,0,0,0,0,-1,566,631,0,0
-651,393,0,0,0,0,0,0,0,0,0,-1,573,631,0,0
-644,393,0,0,0,0,0,0,0,0,0,-1,580,631,0,0
-637,393,0,0,0,0,0,0,0,0,0,-1,587,631,0,0
-630,393,0,0,0,0,0,0,0,0,0,-1,594,631,0,0
-623,393,0,0,0,0,0,0,0,0,0,-1,601,631,0,0
-616,393,0,0,0,0,0,0,0,0,0,-1,608,631,0,0
-609,393,0,0,0,0,0,0,0,0,0,-1,615,631,0,0
-602,393,0,0,0,0,0,0,0,0,0,-1,622,631,0,0
-595,393,0,0,0,0,0,0,0,0,0,-1,629,631,0,0
-588,393,0,0,0,0,0,0,0,0,0,-1,636,631,0,0
-581,393,0,0,0,0,0,0,0,0,0,-1,643,631,0,0
-574,393,0,0,0,0,0,0,0,0,0,-1,650,631,0,0
-567,393,0,0,0,0,0,0,0,0,0,-1,657,631,0,0
-560,393,0,0,0,0,0,0,0,0,0,-1,664,631,0,0
-553,393,-2.35107,3.92633,0,0,0,0,0,0,0,-1,671,631,-2.35108,-3.92634
-546,393,-1.78778,2.4856,0,0,0,0,0,0,0,-1,678,631,-1.78778,-2.48557
-539,393,-5.2113,-2.20245,0,0,0,0,0,0,0,-1,685,631,-5.21128,2.20247
-532,393,-2.83643,-2.01624,0,0,0,0,0,0,0,-1,692,631,-2.83642,2.01626
-525,393,-5.43378,-4.97723,0,0,0,0,0,0,0,-1,699,631,-5.4338,4.97722
-518,393,-5.03784,-4.22455,0.0177209,-0.0443756,0.013285,0.0204437,-0.0470984,0.202155,0.0399949,0.0475508,706,631,-5.03787,4.22453
-511,393,-4.84906,-3.31445,0.0149584,-0.0341897,0.012621,0.0180099,-0.0372412,0.23723,0.032537,0.0469794,713,631,-4.84904,3.31444
-504,393,-5.19946,-1.75482,0,0,0,0,0,0,0,-1,720,631,-5.19946,1.75484
-497,393,-5.06,-2.15479,0.00880536,-0.0171282,0.00746237,0.0107993,-0.0191222,0.261104,0.0174966,0.0254329,727,631,-5.05997,2.15477
-490,393,-5.05688,-2.56622,0.00636289,-0.0113924,0.00505169,0.00769955,-0.0127291,0.25867,0.011913,0.0142915,734,631,-5.0569,2.56621
-483,393,-5.05994,-2.85608,0.00453982,-0.00696238,0.00303803,0.00529294,-0.00771549,0.242996,0.00755371,0.0181802,741,631,-5.05994,2.85608
-476,393,-5.05756,-3.11053,0.00325669,-0.00379386,0.00145531,0.00354527,-0.00408244,0.195755,0.0044075,0.0147776,748,631,-5.05758,3.11051
-469,393,-5.07941,-3.39868,0.00233162,-0.00207452,0.000560627,0.00240183,-0.00214473,0.124593,0.00262636,0.0118534,755,631,-5.07942,3.39869
-462,393,-5.0752,-3.72906,0.00171122,6.46494e-05,-0.000563777,0.00188575,-0.000109885,-0.300223,0.00129535,0.0136878,762,631,-5.07522,3.72909
-455,393,-5.08112,-4.04053,0.00142174,0.000663917,-0.00102431,0.00213498,-4.9324e-05,-0.608245,0.00144004,0.0136567,769,631,-5.08111,4.0405
-448,393,-5.09399,-4.32239,0.00129938,0.000226168,-0.000821122,0.00174369,-0.000218137,-0.49598,0.00124157,0.0134366,776,631,-5.09397,4.32236
-441,393,-5.08014,-4.58716,0.000831412,-0.000102216,-0.000559466,0.00109324,-0.000364043,-0.437717,0.000875769,0.0117698,783,631,-5.08011,4.58717
-434,393,-5.07379,-4.84857,4.16608e-05,-0.000778857,3.32236e-05,4.30038e-05,-0.0007802,0.0404028,0.000535044,0.0106939,790,631,-5.07382,4.84857
-427,393,-5.0495,-5.1582,-0.000905635,-0.00159452,0.000687522,-0.000481101,-0.00201906,0.553177,0.00121777,0.0181921,797,631,-5.04952,5.15818
-420,393,-5.03986,-5.4364,-0.0025806,-0.00286329,0.00170597,-0.00101013,-0.00443375,0.744066,0.00268327,0.0373178,804,631,-5.03987,5.4364
-413,393,-5.0827,-5.77972,0,0,0,0,0,0,0,-1,811,631,-5.08273,5.77972
-406,393,-5.41718,-5.7243,0,0,0,0,0,0,0,-1,818,631,-5.41718,5.72429
-399,393,-5.07343,-5.92365,0,0,0,0,0,0,0,-1,825,631,-5.07344,5.92364
-392,393,-2.08063,-3.02386,0,0,0,0,0,0,0,-1,832,631,-2.08063,3.02384
-385,393,-3.16931,-0.624756,0,0,0,0,0,0,0,-1,839,631,-3.16928,0.624764
-378,393,-7.33081,-0.872314,0,0,0,0,0,0,0,-1,846,631,-7.33081,0.872325
-371,393,-7.47858,-0.811096,0,0,0,0,0,0,0,-1,853,631,-7.47859,0.811075
-364,393,-7.64917,-0.662415,0,0,0,0,0,0,0,-1,860,631,-7.64917,0.662406
-357,393,-8.09686,-0.726013,0,0,0,0,0,0,0,-1,867,631,-8.09689,0.726029
-350,393,-8.38788,-0.511841,0,0,0,0,0,0,0,-1,874,631,-8.38785,0.511811
-343,393,0,0,0,0,0,0,0,0,0,-1,881,631,0,0
-336,393,0,0,0,0,0,0,0,0,0,-1,888,631,0,0
-329,393,0,0,0,0,0,0,0,0,0,-1,895,631,0,0
-322,393,0,0,0,0,0,0,0,0,0,-1,902,631,0,0
-315,393,0,0,0,0,0,0,0,0,0,-1,909,631,0,0
-308,393,0,0,0,0,0,0,0,0,0,-1,916,631,0,0
-301,393,0,0,0,0,0,0,0,0,0,-1,923,631,0,0
-294,393,0,0,0,0,0,0,0,0,0,-1,930,631,0,0
-287,393,0,0,0,0,0,0,0,0,0,-1,937,631,0,0
-280,393,0,0,0,0,0,0,0,0,0,-1,944,631,0,0
-273,393,0,0,0,0,0,0,0,0,0,-1,951,631,0,0
-266,393,0,0,0,0,0,0,0,0,0,-1,958,631,0,0
-259,393,0,0,0,0,0,0,0,0,0,-1,965,631,0,0
-252,393,0,0,0,0,0,0,0,0,0,-1,972,631,0,0
-245,393,0,0,0,0,0,0,0,0,0,-1,979,631,0,0
-238,393,0,0,0,0,0,0,0,0,0,-1,986,631,0,0
-231,393,0,0,0,0,0,0,0,0,0,-1,993,631,0,0
-224,393,0,0,0,0,0,0,0,0,0,-1,1000,631,0,0
-217,393,0,0,0,0,0,0,0,0,0,-1,1007,631,0,0
-210,393,0,0,0,0,0,0,0,0,0,-1,1014,631,0,0
-203,393,0,0,0,0,0,0,0,0,0,-1,1021,631,0,0
-196,393,0,0,0,0,0,0,0,0,0,-1,1028,631,0,0
-189,393,0,0,0,0,0,0,0,0,0,-1,1035,631,0,0
-182,393,0,0,0,0,0,0,0,0,0,-1,1042,631,0,0
-175,393,0,0,0,0,0,0,0,0,0,-1,1049,631,0,0
-168,393,0,0,0,0,0,0,0,0,0,-1,1056,631,0,0
-161,393,0,0,0,0,0,0,0,0,0,-1,1063,631,0,0
-154,393,0,0,0,0,0,0,0,0,0,-1,1070,631,0,0
-147,393,0,0,0,0,0,0,0,0,0,-1,1077,631,0,0
-140,393,0,0,0,0,0,0,0,0,0,-1,1084,631,0,0
-133,393,0,0,0,0,0,0,0,0,0,-1,1091,631,0,0
-126,393,0,0,0,0,0,0,0,0,0,-1,1098,631,0,0
-119,393,0,0,0,0,0,0,0,0,0,-1,1105,631,0,0
-112,393,0,0,0,0,0,0,0,0,0,-1,1112,631,0,0
-105,393,0,0,0,0,0,0,0,0,0,-1,1119,631,0,0
-98,393,0,0,0,0,0,0,0,0,0,-1,1126,631,0,0
-91,393,0,0,0,0,0,0,0,0,0,-1,1133,631,0,0
-84,393,0,0,0,0,0,0,0,0,0,-1,1140,631,0,0
-77,393,0,0,0,0,0,0,0,0,0,-1,1147,631,0,0
-70,393,0,0,0,0,0,0,0,0,0,-1,1154,631,0,0
-63,393,0,0,0,0,0,0,0,0,0,-1,1161,631,0,0
-56,393,0,0,0,0,0,0,0,0,0,-1,1168,631,0,0
-49,393,0,0,0,0,0,0,0,0,0,-1,1175,631,0,0
-42,393,0,0,0,0,0,0,0,0,0,-1,1182,631,0,0
-35,393,0,0,0,0,0,0,0,0,0,-1,1189,631,0,0
-28,393,0,0,0,0,0,0,0,0,0,-1,1196,631,0,0
-21,393,0,0,0,0,0,0,0,0,0,-1,1203,631,0,0
-14,393,0,0,0,0,0,0,0,0,0,-1,1210,631,0,0
-7,393,0,0,0,0,0,0,0,0,0,-1,1217,631,0,0
0,393,0,0,0,0,0,0,0,0,0,-1,1224,631,0,0
7,393,0,0,0,0,0,0,0,0,0,-1,1231,631,0,0
14,393,0,0,0,0,0,0,0,0,0,-1,1238,631,0,0
21,393,0,0,0,0,0,0,0,0,0,-1,1245,631,0,0
28,393,0,0,0,0,0,0,0,0,0,-1,1252,631,0,0
35,393,0,0,0,0,0,0,0,0,0,-1,1259,631,0,0
42,393,0,0,0,0,0,0,0,0,0,-1,1266,631,0,0
49,393,0,0,0,0,0,0,0,0,0,-1,1273,631,0,0
56,393,0,0,0,0,0,0,0,0,0,-1,1280,631,0,0
63,393,0,0,0,0,0,0,0,0,0,-1,1287,631,0,0
70,393,0,0,0,0,0,0,0,0,0,-1,1294,631,0,0
77,393,0,0,0,0,0,0,0,0,0,-1,1301,631,0,0
84,393,0,0,0,0,0,0,0,0,0,-1,1308,631,0,0
91,393,0,0,0,0,0,0,0,0,0,-1,1315,631,0,0
98,393,0,0,0,0,0,0,0,0,0,-1,1322,631,0,0
105,393,0,0,0,0,0,0,0,0,0,-1,1329,631,0,0
112,393,0,0,0,0,0,0,0,0,0,-1,1336,631,0,0
119,393,0,0,0,0,0,0,0,0,0,-1,1343,631,0,0
126,393,0,0,0,0,0,0,0,0,0,-1,1350,631,0,0
133,393,0,0,0,0,0,0,0,0,0,-1,1357,631,0,0
140,393,0,0,0,0,0,0,0,0,0,-1,1364,631,0,0
147,393,0,0,0,0,0,0,0,0,0,-1,1371,631,0,0
154,393,0,0,0,0,0,0,0,0,0,-1,1378,631,0,0
161,393,0,0,0,0,0,0,0,0,0,-1,1385,631,0,0
168,393,0,0,0,0,0,0,0,0,0,-1,1392,631,0,0
175,393,0,0,0,0,0,0,0,0,0,-1,1399,631,0,0
182,393,0,0,0,0,0,0,0,0,0,-1,1406,631,0,0
189,393,0,0,0,0,0,0,0,0,0,-1,1413,631,0,0
196,393,0,0,0,0,0,0,0,0,0,-1,1420,631,0,0
203,393,0,0,0,0,0,0,0,0,0,-1,1427,631,0,0
210,393,0,0,0,0,0,0,0,0,0,-1,1434,631,0,0
217,393,0,0,0,0,0,0,0,0,0,-1,1441,631,0,0
224,393,0,0,0,0,0,0,0,0,0,-1,1448,631,0,0
231,393,0,0,0,0,0,0,0,0,0,-1,1455,631,0,0
238,393,0,0,0,0,0,0,0,0,0,-1,1462,631,0,0
245,393,0,0,0,0,0,0,0,0,0,-1,1469,631,0,0
252,393,0,0,0,0,0,0,0,0,0,-1,1476,631,0,0
259,393,0,0,0,0,0,0,0,0,0,-1,1483,631,0,0
266,393,0,0,0,0,0,0,0,0,0,-1,1490,631,0,0
273,393,0,0,0,0,0,0,0,0,0,-1,1497,631,0,0
280,393,0,0,0,0,0,0,0,0,0,-1,1504,631,0,0
287,393,0,0,0,0,0,0,0,0,0,-1,1511,631,0,0
294,393,0,0,0,0,0,0,0,0,0,-1,1518,631,0,0
301,393,0,0,0,0,0,0,0,0,0,-1,1525,631,0,0
308,393,0,0,0,0,0,0,0,0,0,-1,1532,631,0,0
315,393,0,0,0,0,0,0,0,0,0,-1,1539,631,0,0
322,393,0,0,0,0,0,0,0,0,0,-1,1546,631,0,0
329,393,0,0,0,0,0,0,0,0,0,-1,1553,631,0,0
336,393,0,0,0,0,0,0,0,0,0,-1,1560,631,0,0
343,393,0,0,0,0,0,0,0,0,0,-1,1567,631,0,0
350,393,0,0,0,0,0,0,0,0,0,-1,1574,631,0,0
357,393,0,0,0,0,0,0,0,0,0,-1,1581,631,0,0
364,393,0,0,0,0,0,0,0,0,0,-1,1588,631,0,0
371,393,0,0,0,0,0,0,0,0,0,-1,1595,631,0,0
378,393,0,0,0,0,0,0,0,0,0,-1,1602,631,0,0
385,393,0,0,0,0,0,0,0,0,0,-1,1609,631,0,0
392,393,0,0,0,0,0,0,0,0,0,-1,1616,631,0,0
399,393,0,0,0,0,0,0,0,0,0,-1,1623,631,0,0
406,393,0,0,0,0,0,0,0,0,0,-1,1630,631,0,0
413,393,0,0,0,0,0,0,0,0,0,-1,1637,631,0,0
420,393,0,0,0,0,0,0,0,0,0,-1,1644,631,0,0
427,393,0,0,0,0,0,0,0,0,0,-1,1651,631,0,0
434,393,0,0,0,0,0,0,0,0,0,-1,1658,631,0,0
441,393,0,0,0,0,0,0,0,0,0,-1,1665,631,0,0
448,393,0,0,0,0,0,0,0,0,0,-1,1672,631,0,0
455,393,0,0,0,0,0,0,0,0,0,-1,1679,631,0,0
462,393,8.51099,1.89502,0,0,0,0,0,0,0,-1,1686,631,8.51103,-1.89504
469,393,9.39465,1.51703,0,0,0,0,0,0,0,-1,1693,631,9.39465,-1.51703
476,393,9.95569,1.185,0,0,0,0,0,0,0,-1,1700,631,9.95575,-1.18497
483,393,10.5267,0.887329,0,0,0,0,0,0,0,-1,1707,631,10.5267,-0.887321
490,393,10.9303,0.761414,0,0,0,0,0,0,0,-1,1714,631,10.9303,-0.761386
497,393,8.32153,1.88104,0,0,0,0,0,0,0,-1,1721,631,8.32148,-1.88103
504,393,9.46985,1.78711,0,0,0,0,0,0,0,-1,1728,631,9.46986,-1.78713
511,393,9.66565,-0.375977,0,0,0,0,0,0,0,-1,1735,631,9.66571,0.375949
518,393,7.01599,1.62482,0,0,0,0,0,0,0,-1,1742,631,7.01597,-1.62483
525,393,7.88245,-1.13422,0,0,0,0,0,0,0,-1,1749,631,7.88246,1.13423
532,393,7.06335,-1.18103,0,0,0,0,0,0,0,-1,1756,631,7.06332,1.18101
539,393,9.91626,-2.46301,0,0,0,0,0,0,0,-1,1763,631,9.91625,2.46302
546,393,11.2017,-3.89447,0,0,0,0,0,0,0,-1,1770,631,11.2017,3.89445
553,393,11.0822,-3.47668,-6.60657e-05,0.00463186,0.00159334,0.00512127,-0.000555475,1.27278,0.0036136,0.0272396,1777,631,11.0821,3.4767
560,393,11.1023,-3.21222,-0.00029199,0.00338426,0.000990289,0.00363405,-0.000541777,1.32371,0.00262202,0.0147315,1784,631,11.1023,3.21224
567,393,11.1039,-2.88153,-0.000444453,0.00237831,0.000558375,0.00248475,-0.000550892,1.38243,0.00186742,0.0139618,1791,631,11.1039,2.88152
574,393,11.0963,-2.58685,-0.000357032,0.00173117,0.000381121,0.00179856,-0.000424417,1.3958,0.00136272,0.0156818,1798,631,11.0963,2.58686
581,393,11.0774,-2.25726,-4.00128e-05,0.00141696,0.000442314,0.00154073,-0.000163778,1.29796,0.00108587,0.0141754,1805,631,11.0774,2.25725
588,393,11.0752,-1.93701,0.000405852,0.00140752,0.000703859,0.00177055,4.28272e-05,1.09462,0.00116635,0.0160411,1812,631,11.0752,1.93703
595,393,11.0819,-1.65918,0.00105401,0.00169339,0.00114922,0.00256656,0.000180841,0.921057,0.00165406,0.0138383,1819,631,11.0819,1.65918
602,393,11.0824,-1.3645,0.00183316,0.00226712,0.00180194,0.00386509,0.000235187,0.845317,0.00250202,0.0150702,1826,631,11.0824,1.36448
609,393,11.0627,-1.06451,0.0025033,0.00304731,0.00246864,0.00525888,0.000291731,0.840269,0.00341284,0.0154164,1833,631,11.0628,1.06454
616,393,11.0553,-0.753235,0.0029177,0.00410631,0.00308891,0.00665757,0.000366443,0.880436,0.00432141,0.016282,1840,631,11.0553,0.753263
623,393,11.0837,-0.390808,0.00343685,0.0052936,0.00379799,0.00827503,0.000455415,0.905267,0.00537132,0.0238547,1847,631,11.0837,0.390812
630,393,11.2502,0.0449219,0.00361925,0.006443,0.00427886,0.0095369,0.000525347,0.944756,0.00619025,0.0497709,1854,631,11.2502,-0.0449396
637,393,11.3373,0.568298,0,0,0,0,0,0,0,-1,1861,631,11.3373,-0.568269
644,393,8.97583,1.30585,0,0,0,0,0,0,0,-1,1868,631,8.97586,-1.30584
651,393,9.58679,0.726563,0,0,0,0,0,0,0,-1,1875,631,9.58684,-0.726583
658,393,9.21338,1.50836,0,0,0,0,0,0,0,-1,1882,631,9.21338,-1.50834
665,393,6.1001,2.32129,0,0,0,0,0,0,0,-1,1889,631,6.10012,-2.3213
672,393,7.14575,2.43225,0,0,0,0,0,0,0,-1,1896,631,7.14572,-2.43222
679,393,0,0,0,0,0,0,0,0,0,-1,1903,631,0,0
686,393,0,0,0,0,0,0,0,0,0,-1,1910,631,0,0
693,393,0,0,0,0,0,0,0,0,0,-1,1917,631,0,0
700,393,0,0,0,0,0,0,0,0,0,-1,1924,631,0,0
707,393,0,0,0,0,0,0,0,0,0,-1,1931,631,0,0
714,393,0,0,0,0,0,0,0,0,0,-1,1938,631,0,0
721,393,0,0,0,0,0,0,0,0,0,-1,1945,631,0,0
728,393,0,0,0,0,0,0,0,0,0,-1,1952,631,0,0
735,393,0,0,0,0,0,0,0,0,0,-1,1959,631,0,0
742,393,0,0,0,0,0,0,0,0,0,-1,1966,631,0,0
749,393,0,0,0,0,0,0,0,0,0,-1,1973,631,0,0
756,393,0,0,0,0,0,0,0,0,0,-1,1980,631,0,0
763,393,0,0,0,0,0,0,0,0,0,-1,1987,631,0,0
770,393,0,0,0,0,0,0,0,0,0,-1,1994,631,0,0
777,393,0,0,0,0,0,0,0,0,0,-1,2001,631,0,0
784,393,0,0,0,0,0,0,0,0,0,-1,2008,631,0,0
791,393,0,0,0,0,0,0,0,0,0,-1,2015,631,0,0
798,393,0,0,0,0,0,0,0,0,0,-1,2022,631,0,0
805,393,0,0,0,0,0,0,0,0,0,-1,2029,631,0,0
812,393,0,0,0,0,0,0,0,0,0,-1,2036,631,0,0
-700,386,0,0,0,0,0,0,0,0,0,-1,524,638,0,0
-693,386,0,0,0,0,0,0,0,0,0,-1,531,638,0,0
-686,386,0,0,0,0,0,0,0,0,0,-1,538,638,0,0
-679,386,0,0,0,0,0,0,0,0,0,-1,545,638,0,0
-672,386,0,0,0,0,0,0,0,0,0,-1,552,638,0,0
-665,386,0,0,0,0,0,0,0,0,0,-1,559,638,0,0
-658,386,0,0,0,0,0,0,0,0,0,-1,566,638,0,0
-651,386,0,0,0,0,0,0,0,0,0,-1,573,638,0,0
-644,386,0,0,0,0,0,0,0,0,0,-1,580,638,0,0
-637,386,0,0,0,0,0,0,0,0,0,-1,587,638,0,0
-630,386,0,0,0,0,0,0,0,0,0,-1,594,638,0,0
-623,386,0,0,0,0,0,0,0,0,0,-1,601,638,0,0
-616,386,0,0,0,0,0,0,0,0,0,-1,608,638,0,0
-609,386,0,0,0,0,0,0,0,0,0,-1,615,638,0,0
-602,386,0,0,0,0,0,0,0,0,0,-1,622,638,0,0
-595,386,0,0,0,0,0,0,0,0,0,-1,629,638,0,0
-588,386,0,0,0,0,0,0,0,0,0,-1,636,638,0,0
-581,386,0,0,0,0,0,0,0,0,0,-1,643,638,0,0
-574,386,0,0,0,0,0,0,0,0,0,-1,650,638,0,0
-567,386,0,0,0,0,0,0,0,0,0,-1,657,638,0,0
-560,386,-3.97229,-5.13898,0,0,0,0,0,0,0,-1,664,638,-3.97232,5.13897
-553,386,-4.94244,-5.54309,0,0,0,0,0,0,0,-1,671,638,-4.94242,5.5431
-546,386,-1.78668,1.72827,0,0,0,0,0,0,0,-1,678,638,-1.78668,-1.72829
-539,386,-0.879456,-2.90009,0,0,0,0,0,0,0,-1,685,638,-0.879442,2.90008
-532,386,-4.83362,1.61053,0,0,0,0,0,0,0,-1,692,638,-4.83361,-1.61051
-525,386,-4.97809,-4.11273,0,0,0,0,0,0,0,-1,699,638,-4.97808,4.11274
-518,386,-4.71771,-3.14178,0.0124437,-0.0342203,0.00689202,0.0134403,-0.035217,0.143611,0.0290149,0.0488896,706,638,-4.7177,3.14179
-511,386,-5.29352,-1.61792,0.0108986,-0.0267304,0.00787918,0.0124818,-0.0283136,0.198296,0.0241372,0.0470579,713,638,-5.29349,1.61795
-504,386,-5.34552,-1.97064,0.00878268,-0.019458,0.00698297,0.010415,-0.0210903,0.229632,0.0185344,0.0298726,720,638,-5.34553,1.97064
-497,386,-5.37024,-2.2774,0.00669642,-0.0136225,0.00540411,0.0080443,-0.0149704,0.244431,0.0134866,0.0129711,727,638,-5.37024,2.27739
-490,386,-5.33716,-2.59595,0.00490635,-0.00912889,0.00380897,0.00587342,-0.010096,0.248639,0.00932674,0.0119889,734,638,-5.33714,2.59597
-483,386,-5.32178,-2.88074,0.00357242,-0.00548571,0.0022905,0.00411867,-0.00603196,0.234112,0.00589507,0.0148837,741,638,-5.32175,2.88074
-476,386,-5.32593,-3.13776,0.0026744,-0.00279992,0.000962132,0.00283858,-0.0029641,0.169008,0.00335044,0.0136592,748,638,-5.32596,3.13773
-469,386,-5.35278,-3.41479,0.00204751,-0.00134355,0.000143847,0.0020536,-0.00134964,0.0423182,0.00197883,0.0106663,755,638,-5.35277,3.41482
-462,386,-5.35931,-3.73285,0.00171986,0.000366803,-0.000841036,0.0021227,-3.6035e-05,-0.446689,0.0014273,0.00997949,762,638,-5.35933,3.73285
-455,386,-5.38245,-4.01123,0.00161077,0.000687937,-0.00112146,0.00236202,-6.33193e-05,-0.590232,0.00159621,0.0119968,769,638,-5.38245,4.01126
-448,386,-5.38672,-4.29773,0.0015386,0.000313206,-0.00102922,0.00212369,-0.000271881,-0.516918,0.00151458,0.0125826,776,638,-5.38672,4.29772
-441,386,-5.38934,-4.57904,0.00106732,-4.8086e-05,-0.000826733,0.00150687,-0.00048764,-0.488666,0.0012006,0.0124191,783,638,-5.38936,4.57904
-434,386,-5.33099,-4.91321,0.000331638,-0.000635685,-0.000347036,0.00044326,-0.000747307,-0.311193,0.000694805,0.0225913,790,638,-5.331,4.9132
-427,386,-5.27179,-5.21674,0,0,0,0,0,0,0,-1,797,638,-5.27177,5.21674
-420,386,-5.31958,-5.45642,0,0,0,0,0,0,0,-1,804,638,-5.31957,5.45643
-413,386,-5.45691,-5.35785,0,0,0,0,0,0,0,-1,811,638,-5.45691,5.35783
-406,386,-4.51135,-4.10999,0,0,0,0,0,0,0,-1,818,638,-4.51135,4.10996
-399,386,-3.57117,-3.42126,0,0,0,0,0,0,0,-1,825,638,-3.57116,3.42129
-392,386,-4.00977,0.403625,0,0,0,0,0,0,0,-1,832,638,-4.0098,-0.403616
-385,386,-3.2406,-0.118469,0,0,0,0,0,0,0,-1,839,638,-3.24058,0.118485
-378,386,-2.55243,-1.22748,0,0,0,0,0,0,0,-1,846,638,-2.55243,1.22748
-371,386,-7.95807,-0.330261,0,0,0,0,0,0,0,-1,853,638,-7.95806,0.330284
-364,386,-8.90637,-0.665955,0,0,0,0,0,0,0,-1,860,638,-8.90635,0.665951
-357,386,-9.10364,-0.388733,0,0,0,0,0,0,0,-1,867,638,-9.10364,0.388744
-350,386,0,0,0,0,0,0,0,0,0,-1,874,638,0,0
-343,386,0,0,0,0,0,0,0,0,0,-1,881,638,0,0
-336,386,0,0,0,0,0,0,0,0,0,-1,888,638,0,0
-329,386,0,0,0,0,0,0,0,0,0,-1,895,638,0,0
-322,386,0,0,0,0,0,0,0,0,0,-1,902,638,0,0
-315,386,0,0,0,0,0,0,0,0,0,-1,909,638,0,0
-308,386,0,0,0,0,0,0,0,0,0,-1,916,638,0,0
-301,386,0,0,0,0,0,0,0,0,0,-1,923,638,0,0
-294,386,0,0,0,0,0,0,0,0,0,-1,930,638,0,0
-287,386,0,0,0,0,0,0,0,0,0,-1,937,638,0,0
-280,386,0,0,0,0,0,0,0,0,0,-1,944,638,0,0
-273,386,0,0,0,0,0,0,0,0,0,-1,951,638,0,0
-266,386,0,0,0,0,0,0,0,0,0,-1,958,638,0,0
-259,386,0,0,0,0,0,0,0,0,0,-1,965,638,0,0
-252,386,0,0,0,0,0,0,0,0,0,-1,972,638,0,0
-245,386,0,0,0,0,0,0,0,0,0,-1,979,638,0,0
-238,386,0,0,0,0,0,0,0,0,0,-1,986,638,0,0
-231,386,0,0,0,0,0,0,0,0,0,-1,993,638,0,0
-224,386,0,0,0,0,0,0,0,0,0,-1,1000,638,0,0
-217,386,0,0,0,0,0,0,0,0,0,-1,1007,638,0,0
-210,386,0,0,0,0,0,0,0,0,0,-1,1014,638,0,0
-203,386,0,0,0,0,0,0,0,0,0,-1,1021,638,0,0
-196,386,0,0,0,0,0,0,0,0,0,-1,1028,638,0,0
-189,386,0,0,0,0,0,0,0,0,0,-1,1035,638,0,0
-182,386,0,0,0,0,0,0,0,0,0,-1,1042,638,0,0
-175,386,0,0,0,0,0,0,0,0,0,-1,1049,638,0,0
-168,386,0,0,0,0,0,0,0,0,0,-1,1056,638,0,0
-161,386,0,0,0,0,0,0,0,0,0,-1,1063,638,0,0
-154,386,0,0,0,0,0,0,0,0,0,-1,1070,638,0,0
-147,386,0,0,0,0,0,0,0,0,0,-1,1077,638,0,0
-140,386,0,0,0,0,0,0,0,0,0,-1,1084,638,0,0
-133,386,0,0,0,0,0,0,0,0,0,-1,1091,638,0,0
-126,386,0,0,0,0,0,0,0,0,0,-1,1098,638,0,0
-119,386,0,0,0,0,0,0,0,0,0,-1,1105,638,0,0
-112,386,0,0,0,0,0,0,0,0,0,-1,1112,638,0,0
-105,386,0,0,0,0,0,0,0,0,0,-1,1119,638,0,0
-98,386,0,0,0,0,0,0,0,0,0,-1,1126,638,0,0
-91,386,0,0,0,0,0,0,0,0,0,-1,1133,638,0,0
-84,386,0,0,0,0,0,0,0,0,0,-1,1140,638,0,0
-77,386,0,0,0,0,0,0,0,0,0,-1,1147,638,0,0
-70,386,0,0,0,0,0,0,0,0,0,-1,1154,638,0,0
-63,386,0,0,0,0,0,0,0,0,0,-1,1161,638,0,0
-56,386,0,0,0,0,0,0,0,0,0,-1,1168,638,0,0
-49,386,0,0,0,0,0,0,0,0,0,-1,1175,638,0,0
-42,386,0,0,0,0,0,0,0,0,0,-1,1182,638,0,0
-35,386,0,0,0,0,0,0,0,0,0,-1,1189,638,0,0
-28,386,0,0,0,0,0,0,0,0,0,-1,1196,638,0,0
-21,386,0,0,0,0,0,0,0,0,0,-1,1203,638,0,0
-14,386,0,0,0,0,0,0,0,0,0,-1,1210,638,0,0
-7,386,0,0,0,0,0,0,0,0,0,-1,1217,638,0,0
0,386,0,0,0,0,0,0,0,0,0,-1,1224,638,0,0
7,386,0,0,0,0,0,0,0,0,0,-1,1231,638,0,0
14,386,0,0,0,0,0,0,0,0,0,-1,1238,638,0,0
21,386,0,0,0,0,0,0,0,0,0,-1,1245,638,0,0
28,386,0,0,0,0,0,0,0,0,0,-1,1252,638,0,0
35,386,0,0,0,0,0,0,0,0,0,-1,1259,638,0,0
42,386,0,0,0,0,0,0,0,0,0,-1,1266,638,0,0
49,386,0,0,0,0,0,0,0,0,0,-1,1273,638,0,0
56,386,0,0,0,0,0,0,0,0,0,-1,1280,638,0,0
63,386,0,0,0,0,0,0,0,0,0,-1,1287,638,0,0
70,386,0,0,0,0,0,0,0,0,0,-1,1294,638,0,0
77,386,0,0,0,0,0,0,0,0,0,-1,1301,638,0,0
84,386,0,0,0,0,0,0,0,0,0,-1,1308,638,0,0
91,386,0,0,0,0,0,0,0,0,0,-1,1315,638,0,0
98,386,0,0,0,0,0,0,0,0,0,-1,1322,638,0,0
105,386,0,0,0,0,0,0,0,0,0,-1,1329,638,0,0
112,386,0,0,0,0,0,0,0,0,0,-1,1336,638,0,0
119,386,0,0,0,0,0,0,0,0,0,-1,1343,638,0,0
126,386,0,0,0,0,0,0,0,0,0,-1,1350,638,0,0
133,386,0,0,0,0,0,0,0,0,0,-1,1357,638,0,0
140,386,0,0,0,0,0,0,0,0,0,-1,1364,638,0,0
147,386,0,0,0,0,0,0,0,0,0,-1,1371,638,0,0
154,386,0,0,0,0,0,0,0,0,0,-1,1378,638,0,0
161,386,0,0,0,0,0,0,0,0,0,-1,1385,638,0,0
168,386,0,0,0,0,0,0,0,0,0,-1,1392,638,0,0
175,386,0,0,0,0,0,0,0,0,0,-1,1399,638,0,0
182,386,0,0,0,0,0,0,0,0,0,-1,1406,638,0,0
189,386,0,0,0,0,0,0,0,0,0,-1,1413,638,0,0
196,386,0,0,0,0,0,0,0,0,0,-1,1420,638,0,0
203,386,0,0,0,0,0,0,0,0,0,-1,1427,638,0,0
210,386,0,0,0,0,0,0,0,0,0,-1,1434,638,0,0
217,386,0,0,0,0,0,0,0,0,0,-1,1441,638,0,0
224,386,0,0,0,0,0,0,0,0,0,-1,1448,638,0,0
231,386,0,0,0,0,0,0,0,0,0,-1,1455,638,0,0
238,386,0,0,0,0,0,0,0,0,0,-1,1462,638,0,0
245,386,0,0,0,0,0,0,0,0,0,-1,1469,638,0,0
252,386,0,0,0,0,0,0,0,0,0,-1,1476,638,0,0
259,386,0,0,0,0,0,0,0,0,0,-1,1483,638,0,0
266,386,0,0,0,0,0,0,0,0,0,-1,1490,638,0,0
273,386,0,0,0,0,0,0,0,0,0,-1,1497,638,0,0
280,386,0,0,0,0,0,0,0,0,0,-1,1504,638,0,0
287,386,0,0,0,0,0,0,0,0,0,-1,1511,638,0,0
294,386,0,0,0,0,0,0,0,0,0,-1,1518,638,0,0
301,386,0,0,0,0,0,0,0,0,0,-1,1525,638,0,0
308,386,0,0,0,0,0,0,0,0,0,-1,1532,638,0,0
315,386,0,0,0,0,0,0,0,0,0,-1,1539,638,0,0
322,386,0,0,0,0,0,0,0,0,0,-1,1546,638,0,0
329,386,0,0,0,0,0,0,0,0,0,-1,1553,638,0,0
336,386,0,0,0,0,0,0,0,0,0,-1,1560,638,0,0
343,386,0,0,0,0,0,0,0,0,0,-1,1567,638,0,0
350,386,0,0,0,0,0,0,0,0,0,-1,1574,638,0,0
357,386,0,0,0,0,0,0,0,0,0,-1,1581,638,0,0
364,386,0,0,0,0,0,0,0,0,0,-1,1588,638,0,0
371,386,0,0,0,0,0,0,0,0,0,-1,1595,638,0,0
378,386,0,0,0,0,0,0,0,0,0,-1,1602,638,0,0
385,386,0,0,0,0,0,0,0,0,0,-1,1609,638,0,0
392,386,0,0,0,0,0,0,0,0,0,-1,1616,638,0,0
399,386,0,0,0,0,0,0,0,0,0,-1,1623,638,0,0
406,386,0,0,0,0,0,0,0,0,0,-1,1630,638,0,0
413,386,0,0,0,0,0,0,0,0,0,-1,1637,638,0,0
420,386,0,0,0,0,0,0,0,0,0,-1,1644,638,0,0
427,386,0,0,0,0,0,0,0,0,0,-1,1651,638,0,0
434,386,0,0,0,0,0,0,0,0,0,-1,1658,638,0,0
441,386,0,0,0,0,0,0,0,0,0,-1,1665,638,0,0
448,386,0,0,0,0,0,0,0,0,0,-1,1672,638,0,0
455,386,0,0,0,0,0,0,0,0,0,-1,1679,638,0,0
462,386,0,0,0,0,0,0,0,0,0,-1,1686,638,0,0
469,386,9.84692,1.55804,0,0,0,0,0,0,0,-1,1693,638,9.84691,-1.55807
476,386,10.6145,0.986511,0,0,0,0,0,0,0,-1,1700,638,10.6145,-0.986529
483,386,11.4113,0.732971,0,0,0,0,0,0,0,-1,1707,638,11.4112,-0.732958
490,386,7.79785,1.79572,0,0,0,0,0,0,0,-1,1714,638,7.79788,-1.7957
497,386,8.96362,1.77081,0,0,0,0,0,0,0,-1,1721,638,8.96357,-1.77081
504,386,10.0555,1.69427,0,0,0,0,0,0,0,-1,1728,638,10.0555,-1.69426
511,386,11.2172,1.534,0,0,0,0,0,0,0,-1,1735,638,11.2172,-1.53398
518,386,7.41553,1.75238,0,0,0,0,0,0,0,-1,1742,638,7.41547,-1.75238
525,386,8.82422,-1.1449,0,0,0,0,0,0,0,-1,1749,638,8.82426,1.14492
532,386,10.6432,0.617371,0,0,0,0,0,0,0,-1,1756,638,10.6432,-0.617359
539,386,9.62061,-0.393616,0,0,0,0,0,0,0,-1,1763,638,9.62059,0.393634
546,386,10.7963,-2.854,0,0,0,0,0,0,0,-1,1770,638,10.7962,2.854
553,386,11.4631,-3.47308,0,0,0,0,0,0,0,-1,1777,638,11.4632,3.4731
560,386,11.438,-3.08972,-0.000887046,0.00457329,0.00132214,0.00487658,-0.00119034,1.3453,0.003712,0.029381,1784,638,11.438,3.08973
567,386,11.3792,-2.86041,-0.000990574,0.00313494,0.000695955,0.00324918,-0.00110481,1.4081,0.00261343,0.0183822,1791,638,11.3792,2.8604
574,386,11.403,-2.57568,-0.000907999,0.00215321,0.000330325,0.00218845,-0.000943238,1.46452,0.00185511,0.0132594,1798,638,11.4029,2.5757
581,386,11.3824,-2.28375,-0.000564362,0.00156919,0.000252771,0.00159873,-0.0005939,1.45447,0.00130948,0.0133632,1805,638,11.3825,2.28377
588,386,11.3896,-1.97681,-7.27541e-05,0.00136318,0.000404242,0.00146916,-0.000178734,1.3144,0.00104413,0.0129313,1812,638,11.3896,1.97679
595,386,11.3729,-1.67694,0.000585592,0.00147583,0.000742454,0.00189637,0.000165049,1.05543,0.00121298,0.0138579,1819,638,11.373,1.67695
602,386,11.3629,-1.37885,0.00134536,0.0018843,0.00128482,0.0029276,0.000302056,0.888767,0.00185925,0.0150878,1826,638,11.3629,1.37884
609,386,11.3813,-1.07666,0.0019297,0.00250276,0.00181553,0.00405423,0.00037823,0.863663,0.00258598,0.0150081,1833,638,11.3813,1.07668
616,386,11.379,-0.75177,0.00220167,0.00323851,0.00220413,0.00498436,0.00045581,0.900901,0.00318187,0.0126652,1840,638,11.379,0.751797
623,386,11.3534,-0.439941,0.00251283,0.0041545,0.00267262,0.0061295,0.000537834,0.93439,0.00391937,0.0111587,1847,638,11.3533,0.439952
630,386,11.4344,-0.142822,0.0024462,0.00497914,0.00292162,0.00689698,0.000528359,0.989915,0.00443238,0.023246,1854,638,11.4344,0.142814
637,386,11.3789,0.23645,0.00143477,0.00573797,0.0026935,0.00703374,0.000139006,1.12241,0.00464352,0.0479317,1861,638,11.379,-0.236462
644,386,11.4019,0.34906,0,0,0,0,0,0,0,-1,1868,638,11.4019,-0.349031
651,386,9.3866,1.31097,0,0,0,0,0,0,0,-1,1875,638,9.3866,-1.31095
658,386,12.6449,-0.269226,0,0,0,0,0,0,0,-1,1882,638,12.6449,0.269219
665,386,6.33167,1.78601,0,0,0,0,0,0,0,-1,1889,638,6.33171,-1.78601
672,386,7.23352,2.14435,0,0,0,0,0,0,0,-1,1896,638,7.23353,-2.14433
679,386,8.07764,2.57104,0,0,0,0,0,0,0,-1,1903,638,8.07758,-2.57103
686,386,0,0,0,0,0,0,0,0,0,-1,1910,638,0,0
693,386,0,0,0,0,0,0,0,0,0,-1,1917,638,0,0
700,386,0,0,0,0,0,0,0,0,0,-1,1924,638,0,0
707,386,0,0,0,0,0,0,0,0,0,-1,1931,638,0,0
714,386,0,0,0,0,0,0,0,0,0,-1,1938,638,0,0
721,386,0,0,0,0,0,0,0,0,0,-1,1945,638,0,0
728,386,0,0,0,0,0,0,0,0,0,-1,1952,638,0,0
735,386,0,0,0,0,0,0,0,0,0,-1,1959,638,0,0
742,386,0,0,0,0,0,0,0,0,0,-1,1966,638,0,0
749,386,0,0,0,0,0,0,0,0,0,-1,1973,638,0,0
756,386,0,0,0,0,0,0,0,0,0,-1,1980,638,0,0
763,386,0,0,0,0,0,0,0,0,0,-1,1987,638,0,0
770,386,0,0,0,0,0,0,0,0,0,-1,1994,638,0,0
777,386,0,0,0,0,0,0,0,0,0,-1,2001,638,0,0
784,386,0,0,0,0,0,0,0,0,0,-1,2008,638,0,0
791,386,0,0,0,0,0,0,0,0,0,-1,2015,638,0,0
798,386,0,0,0,0,0,0,0,0,0,-1,2022,638,0,0
805,386,0,0,0,0,0,0,0,0,0,-1,2029,638,0,0
812,386,0,0,0,0,0,0,0,0,0,-1,2036,638,0,0
-700,379,0,0,0,0,0,0,0,0,0,-1,524,645,0,0
-693,379,0,0,0,0,0,0,0,0,0,-1,531,645,0,0
-686,379,0,0,0,0,0,0,0,0,0,-1,538,645,0,0
-679,379,0,0,0,0,0,0,0,0,0,-1,545,645,0,0
-672,379,0,0,0,0,0,0,0,0,0,-1,552,645,0,0
-665,379,0,0,0,0,0,0,0,0,0,-1,559,645,0,0
-658,379,0,0,0,0,0,0,0,0,0,-1,566,645,0,0
-651,379,0,0,0,0,0,0,0,0,0,-1,573,645,0,0
-644,379,0,0,0,0,0,0,0,0,0,-1,580,645,0,0
-637,379,0,0,0,0,0,0,0,0,0,-1,587,645,0,0
-630,379,0,0,0,0,0,0,0,0,0,-1,594,645,0,0
-623,379,0,0,0,0,0,0,0,0,0,-1,601,645,0,0
-616,379,0,0,0,0,0,0,0,0,0,-1,608,645,0,0
-609,379,0,0,0,0,0,0,0,0,0,-1,615,645,0,0
-602,379,0,0,0,0,0,0,0,0,0,-1,622,645,0,0
-595,379,0,0,0,0,0,0,0,0,0,-1,629,645,0,0
-588,379,0,0,0,0,0,0,0,0,0,-1,636,645,0,0
-581,379,0,0,0,0,0,0,0,0,0,-1,643,645,0,0
-574,379,0,0,0,0,0,0,0,0,0,-1,650,645,0,0
-567,379,-8.78058,0.59668,0,0,0,0,0,0,0,-1,657,645,-8.7806,-0.596692
-560,379,-9.53485,-0.211304,0,0,0,0,0,0,0,-1,664,645,-9.53487,0.211282
-553,379,-5.17108,-4.53119,0,0,0,0,0,0,0,-1,671,645,-5.17106,4.53117
-546,379,-6.23053,-4.92102,0,0,0,0,0,0,0,-1,678,645,-6.23054,4.92105
-539,379,-0.71698,-2.19427,0,0,0,0,0,0,0,-1,685,645,-0.716959,2.19427
-532,379,-6.65527,1.83105,0,0,0,0,0,0,0,-1,692,645,-6.65528,-1.83103
-525,379,-6.41168,0.310242,0,0,0,0,0,0,0,-1,699,645,-6.4117,-0.310234
-518,379,-4.38568,-2.19824,0,0,0,0,0,0,0,-1,706,645,-4.38567,2.19827
-511,379,-5.51746,-1.82123,0.00767252,-0.0200553,0.00412191,0.00827229,-0.0206551,0.144494,0.0172037,0.0336831,713,645,-5.51743,1.82125
-504,379,-5.6004,-2.04956,0.00637107,-0.0146437,0.00428538,0.00721135,-0.015484,0.193625,0.0133902,0.0184577,720,645,-5.6004,2.04958
-497,379,-5.63654,-2.30017,0.00496726,-0.0103123,0.00356592,0.0057585,-0.0111035,0.218351,0.00989698,0.0102692,727,645,-5.63655,2.30018
-490,379,-5.62238,-2.58911,0.00372605,-0.00695428,0.00261572,0.00433226,-0.00756048,0.227736,0.00695009,0.0107855,734,645,-5.62237,2.58914
-483,379,-5.60718,-2.87347,0.00282878,-0.00407635,0.00153074,0.00315291,-0.00440047,0.208661,0.00438073,0.0121201,741,645,-5.60718,2.87346
-476,379,-5.60516,-3.11981,0.00229082,-0.00189085,0.000447013,0.00233807,-0.0019381,0.105313,0.00247245,0.0116174,748,645,-5.60516,3.11979
-469,379,-5.63824,-3.38812,0.0019765,-0.000662286,-0.000331395,0.00201748,-0.000703268,-0.123041,0.00163076,0.0109516,755,645,-5.63826,3.38812
-462,379,-5.646,-3.70135,0.00196479,0.000586642,-0.00118908,0.00265003,-9.86004e-05,-0.522794,0.00180045,0.00888391,762,645,-5.646,3.70135
-455,379,-5.6615,-3.98511,0.00207899,0.000599279,-0.00128427,0.00282128,-0.000143004,-0.524071,0.00193029,0.0094932,769,645,-5.66152,3.98512
-448,379,-5.66339,-4.26178,0.00211423,0.000319381,-0.00132821,0.00281978,-0.000386166,-0.488295,0.00202091,0.0115904,776,645,-5.6634,4.26179
-441,379,-5.62927,-4.59033,0.00170672,-4.98022e-05,-0.00122404,0.00233498,-0.000678066,-0.474207,0.00182516,0.0166198,783,645,-5.62925,4.59032
-434,379,-5.526,-5.0321,0,0,0,0,0,0,0,-1,790,645,-5.52601,5.03208
-427,379,-4.16113,-4.13452,0,0,0,0,0,0,0,-1,797,645,-4.16116,4.1345
-420,379,-4.63953,-3.46869,0,0,0,0,0,0,0,-1,804,645,-4.63953,3.46872
-413,379,-4.62543,-3.7912,0,0,0,0,0,0,0,-1,811,645,-4.62541,3.79123
-406,379,-4.64063,-4.38489,0,0,0,0,0,0,0,-1,818,645,-4.64065,4.3849
-399,379,-2.93536,-1.40118,0,0,0,0,0,0,0,-1,825,645,-2.93534,1.40119
-392,379,-4.16711,-0.466003,0,0,0,0,0,0,0,-1,832,645,-4.16714,0.465992
-385,379,-3.51862,0.441101,0,0,0,0,0,0,0,-1,839,645,-3.51859,-0.441072
-378,379,-5.3504,0.212219,0,0,0,0,0,0,0,-1,846,645,-5.35038,-0.212241
-371,379,-4.32092,-0.186707,0,0,0,0,0,0,0,-1,853,645,-4.3209,0.186707
-364,379,-3.40887,-0.549805,0,0,0,0,0,0,0,-1,860,645,-3.4089,0.549802
-357,379,0,0,0,0,0,0,0,0,0,-1,867,645,0,0
-350,379,0,0,0,0,0,0,0,0,0,-1,874,645,0,0
-343,379,0,0,0,0,0,0,0,0,0,-1,881,645,0,0
-336,379,0,0,0,0,0,0,0,0,0,-1,888,645,0,0
-329,379,0,0,0,0,0,0,0,0,0,-1,895,645,0,0
-322,379,0,0,0,0,0,0,0,0,0,-1,902,645,0,0
-315,379,0,0,0,0,0,0,0,0,0,-1,909,645,0,0
-308,379,0,0,0,0,0,0,0,0,0,-1,916,645,0,0
-301,379,0,0,0,0,0,0,0,0,0,-1,923,645,0,0
-294,379,0,0,0,0,0,0,0,0,0,-1,930,645,0,0
-287,379,0,0,0,0,0,0,0,0,0,-1,937,645,0,0
-280,379,0,0,0,0,0,0,0,0,0,-1,944,645,0,0
-273,379,0,0,0,0,0,0,0,0,0,-1,951,645,0,0
-266,379,0,0,0,0,0,0,0,0,0,-1,958,645,0,0
-259,379,0,0,0,0,0,0,0,0,0,-1,965,645,0,0
-252,379,0,0,0,0,0,0,0,0,0,-1,972,645,0,0
-245,379,0,0,0,0,0,0,0,0,0,-1,979,645,0,0
-238,379,0,0,0,0,0,0,0,0,0,-1,986,645,0,0
-231,379,0,0,0,0,0,0,0,0,0,-1,993,645,0,0
-224,379,0,0,0,0,0,0,0,0,0,-1,1000,645,0,0
-217,379,0,0,0,0,0,0,0,0,0,-1,1007,645,0,0
-210,379,0,0,0,0,0,0,0,0,0,-1,1014,645,0,0
-203,379,0,0,0,0,0,0,0,0,0,-1,1021,645,0,0
-196,379,0,0,0,0,0,0,0,0,0,-1,1028,645,0,0
-189,379,0,0,0,0,0,0,0,0,0,-1,1035,645,0,0
-182,379,0,0,0,0,0,0,0,0,0,-1,1042,645,0,0
-175,379,0,0,0,0,0,0,0,0,0,-1,1049,645,0,0
-168,379,0,0,0,0,0,0,0,0,0,-1,1056,645,0,0
-161,379,0,0,0,0,0,0,0,0,0,-1,1063,645,0,0
-154,379,0,0,0,0,0,0,0,0,0,-1,1070,645,0,0
-147,379,0,0,0,0,0,0,0,0,0,-1,1077,645,0,0
-140,379,0,0,0,0,0,0,0,0,0,-1,1084,645,0,0
-133,379,0,0,0,0,0,0,0,0,0,-1,1091,645,0,0
-126,379,0,0,0,0,0,0,0,0,0,-1,1098,645,0,0
-119,379,0,0,0,0,0,0,0,0,0,-1,1105,645,0,0
-112,379,0,0,0,0,0,0,0,0,0,-1,1112,645,0,0
-105,379,0,0,0,0,0,0,0,0,0,-1,1119,645,0,0
-98,379,0,0,0,0,0,0,0,0,0,-1,1126,645,0,0
-91,379,0,0,0,0,0,0,0,0,0,-1,1133,645,0,0
-84,379,0,0,0,0,0,0,0,0,0,-1,1140,645,0,0
-77,379,0,0,0,0,0,0,0,0,0,-1,1147,645,0,0
-70,379,0,0,0,0,0,0,0,0,0,-1,1154,645,0,0
-63,379,0,0,0,0,0,0,0,0,0,-1,1161,645,0,0
-56,379,0,0,0,0,0,0,0,0,0,-1,1168,645,0,0
-49,379,0,0,0,0,0,0,0,0,0,-1,1175,645,0,0
-42,379,0,0,0,0,0,0,0,0,0,-1,1182,645,0,0
-35,379,0,0,0,0,0,0,0,0,0,-1,1189,645,0,0
-28,379,0,0,0,0,0,0,0,0,0,-1,1196,645,0,0
-21,379,0,0,0,0,0,0,0,0,0,-1,1203,645,0,0
-14,379,0,0,0,0,0,0,0,0,0,-1,1210,645,0,0
-7,379,0,0,0,0,0,0,0,0,0,-1,1217,645,0,0
0,379,0,0,0,0,0,0,0,0,0,-1,1224,645,0,0
7,379,0,0,0,0,0,0,0,0,0,-1,1231,645,0,0
14,379,0,0,0,0,0,0,0,0,0,-1,1238,645,0,0
21,379,0,0,0,0,0,0,0,0,0,-1,1245,645,0,0
28,379,0,0,0,0,0,0,0,0,0,-1,1252,645,0,0
35,379,0,0,0,0,0,0,0,0,0,-1,1259,645,0,0
42,379,0,0,0,0,0,0,0,0,0,-1,1266,645,0,0
49,379,0,0,0,0,0,0,0,0,0,-1,1273,645,0,0
56,379,0,0,0,0,0,0,0,0,0,-1,1280,645,0,0
63,379,0,0,0,0,0,0,0,0,0,-1,1287,645,0,0
70,379,0,0,0,0,0,0,0,0,0,-1,1294,645,0,0
77,379,0,0,0,0,0,0,0,0,0,-1,1301,645,0,0
84,379,0,0,0,0,0,0,0,0,0,-1,1308,645,0,0
91,379,0,0,0,0,0,0,0,0,0,-1,1315,645,0,0
98,379,0,0,0,0,0,0,0,0,0,-1,1322,645,0,0
105,379,0,0,0,0,0,0,0,0,0,-1,1329,645,0,0
112,379,0,0,0,0,0,0,0,0,0,-1,1336,645,0,0
119,379,0,0,0,0,0,0,0,0,0,-1,1343,645,0,0
126,379,0,0,0,0,0,0,0,0,0,-1,1350,645,0,0
133,379,0,0,0,0,0,0,0,0,0,-1,1357,645,0,0
140,379,0,0,0,0,0,0,0,0,0,-1,1364,645,0,0
147,379,0,0,0,0,0,0,0,0,0,-1,1371,645,0,0
154,379,0,0,0,0,0,0,0,0,0,-1,1378,645,0,0
161,379,0,0,0,0,0,0,0,0,0,-1,1385,645,0,0
168,379,0,0,0,0,0,0,0,0,0,-1,1392,645,0,0
175,379,0,0,0,0,0,0,0,0,0,-1,1399,645,0,0
182,379,0,0,0,0,0,0,0,0,0,-1,1406,645,0,0
189,379,0,0,0,0,0,0,0,0,0,-1,1413,645,0,0
196,379,0,0,0,0,0,0,0,0,0,-1,1420,645,0,0
203,379,0,0,0,0,0,0,0,0,0,-1,1427,645,0,0
210,379,0,0,0,0,0,0,0,0,0,-1,1434,645,0,0
217,379,0,0,0,0,0,0,0,0,0,-1,1441,645,0,0
224,379,0,0,0,0,0,0,0,0,0,-1,1448,645,0,0
231,379,0,0,0,0,0,0,0,0,0,-1,1455,645,0,0
238,379,0,0,0,0,0,0,0,0,0,-1,1462,645,0,0
245,379,0,0,0,0,0,0,0,0,0,-1,1469,645,0,0
252,379,0,0,0,0,0,0,0,0,0,-1,1476,645,0,0
259,379,0,0,0,0,0,0,0,0,0,-1,1483,645,0,0
266,379,0,0,0,0,0,0,0,0,0,-1,1490,645,0,0
273,379,0,0,0,0,0,0,0,0,0,-1,1497,645,0,0
280,379,0,0,0,0,0,0,0,0,0,-1,1504,645,0,0
287,379,0,0,0,0,0,0,0,0,0,-1,1511,645,0,0
294,379,0,0,0,0,0,0,0,0,0,-1,1518,645,0,0
301,379,0,0,0,0,0,0,0,0,0,-1,1525,645,0,0
308,379,0,0,0,0,0,0,0,0,0,-1,1532,645,0,0
315,379,0,0,0,0,0,0,0,0,0,-1,1539,645,0,0
322,379,0,0,0,0,0,0,0,0,0,-1,1546,645,0,0
329,379,0,0,0,0,0,0,0,0,0,-1,1553,645,0,0
336,379,0,0,0,0,0,0,0,0,0,-1,1560,645,0,0
343,379,0,0,0,0,0,0,0,0,0,-1,1567,645,0,0
350,379,0,0,0,0,0,0,0,0,0,-1,1574,645,0,0
357,379,0,0,0,0,0,0,0,0,0,-1,1581,645,0,0
364,379,0,0,0,0,0,0,0,0,0,-1,1588,645,0,0
371,379,0,0,0,0,0,0,0,0,0,-1,1595,645,0,0
378,379,0,0,0,0,0,0,0,0,0,-1,1602,645,0,0
385,379,0,0,0,0,0,0,0,0,0,-1,1609,645,0,0
392,379,0,0,0,0,0,0,0,0,0,-1,1616,645,0,0
399,379,0,0,0,0,0,0,0,0,0,-1,1623,645,0,0
406,379,0,0,0,0,0,0,0,0,0,-1,1630,645,0,0
413,379,0,0,0,0,0,0,0,0,0,-1,1637,645,0,0
420,379,0,0,0,0,0,0,0,0,0,-1,1644,645,0,0
427,379,0,0,0,0,0,0,0,0,0,-1,1651,645,0,0
434,379,0,0,0,0,0,0,0,0,0,-1,1658,645,0,0
441,379,0,0,0,0,0,0,0,0,0,-1,1665,645,0,0
448,379,0,0,0,0,0,0,0,0,0,-1,1672,645,0,0
455,379,0,0,0,0,0,0,0,0,0,-1,1679,645,0,0
462,379,0,0,0,0,0,0,0,0,0,-1,1686,645,0,0
469,379,0,0,0,0,0,0,0,0,0,-1,1693,645,0,0
476,379,11.1787,0.830383,0,0,0,0,0,0,0,-1,1700,645,11.1787,-0.830365
483,379,7.4231,1.54321,0,0,0,0,0,0,0,-1,1707,645,7.42314,-1.54324
490,379,8.52881,1.56677,0,0,0,0,0,0,0,-1,1714,645,8.52878,-1.56677
497,379,9.63599,1.49573,0,0,0,0,0,0,0,-1,1721,645,9.63604,-1.4957
504,379,10.0833,1.35229,0,0,0,0,0,0,0,-1,1728,645,10.0832,-1.35227
511,379,8.14343,1.59912,0,0,0,0,0,0,0,-1,1735,645,8.14347,-1.59912
518,379,12.7955,-0.324097,0,0,0,0,0,0,0,-1,1742,645,12.7955,0.324101
525,379,6.03711,1.10352,0,0,0,0,0,0,0,-1,1749,645,6.03711,-1.10351
532,379,8.70947,0.887817,0,0,0,0,0,0,0,-1,1756,645,8.70953,-0.887808
539,379,9.87097,0.111389,0,0,0,0,0,0,0,-1,1763,645,9.87095,-0.111395
546,379,8.42383,-0.730652,0,0,0,0,0,0,0,-1,1770,645,8.42378,0.730638
553,379,11.8601,-3.46918,0,0,0,0,0,0,0,-1,1777,645,11.8601,3.46919
560,379,11.7893,-3.09271,-0.00178025,0.0060494,0.00172163,0.00641123,-0.00214209,1.36364,0.00513921,0.0354576,1784,645,11.7893,3.09271
567,379,11.6318,-2.83765,-0.00175509,0.00406123,0.00087172,0.00418907,-0.00188293,1.42518,0.00358896,0.0218769,1791,645,11.6319,2.83765
574,379,11.7073,-2.57538,-0.00159916,0.00266895,0.000316304,0.00269227,-0.00162248,1.49722,0.00251651,0.0125737,1798,645,11.7073,2.57539
581,379,11.698,-2.26294,-0.00114494,0.00177157,0.000112657,0.00177591,-0.00114928,1.53225,0.00170173,0.0148321,1805,645,11.6981,2.26292
588,379,11.6943,-1.96875,-0.000536423,0.00134906,0.00017366,0.00136493,-0.000552284,1.47971,0.00113956,0.0177858,1812,645,11.6944,1.96877
595,379,11.6736,-1.68054,0.000177465,0.001279,0.000426205,0.00142465,3.18159e-05,1.2415,0.00093934,0.0147942,1819,645,11.6735,1.68056
602,379,11.6752,-1.38788,0.000947233,0.00152262,0.000872919,0.00215404,0.000315822,0.944582,0.00134318,0.0138921,1826,645,11.6752,1.38791
609,379,11.66,-1.08759,0.00147298,0.00197754,0.00128846,0.00303819,0.000412335,0.882075,0.00190297,0.0141745,1833,645,11.6601,1.08758
616,379,11.66,-0.766479,0.00163217,0.00240741,0.00148029,0.00354999,0.000489592,0.913451,0.00222152,0.0119837,1840,645,11.66,0.7665
623,379,11.6719,-0.423889,0.00174126,0.00307997,0.00174454,0.00427917,0.000542072,0.968579,0.00269035,0.0118551,1847,645,11.6718,0.423881
630,379,11.6755,-0.135986,0.00142001,0.00363087,0.00180531,0.0046423,0.000408579,1.06011,0.00296807,0.013122,1854,645,11.6756,0.135956
637,379,11.6874,0.197754,0.000252333,0.00403888,0.00139273,0.00449597,-0.00020475,1.25368,0.00306784,0.0200759,1861,645,11.6874,-0.197755
644,379,11.6571,0.61084,-0.00170449,0.00413181,0.00054481,0.00418223,-0.00175491,1.47851,0.00352201,0.0347615,1868,645,11.6571,-0.610848
651,379,11.975,1.02899,0,0,0,0,0,0,0,-1,1875,645,11.975,-1.02898
658,379,11.6809,0.201965,0,0,0,0,0,0,0,-1,1882,645,11.6809,-0.201954
665,379,12.1384,0.0682373,0,0,0,0,0,0,0,-1,1889,645,12.1384,-0.0682143
672,379,7.57605,2.15326,0,0,0,0,0,0,0,-1,1896,645,7.57599,-2.15326
679,379,8.55078,2.50409,0,0,0,0,0,0,0,-1,1903,645,8.55073,-2.50406
686,379,0,0,0,0,0,0,0,0,0,-1,1910,645,0,0
693,379,0,0,0,0,0,0,0,0,0,-1,1917,645,0,0
700,379,0,0,0,0,0,0,0,0,0,-1,1924,645,0,0
707,379,0,0,0,0,0,0,0,0,0,-1,1931,645,0,0
714,379,0,0,0,0,0,0,0,0,0,-1,1938,645,0,0
721,379,0,0,0,0,0,0,0,0,0,-1,1945,645,0,0
728,379,0,0,0,0,0,0,0,0,0,-1,1952,645,0,0
735,379,0,0,0,0,0,0,0,0,0,-1,1959,645,0,0
742,379,0,0,0,0,0,0,0,0,0,-1,1966,645,0,0
749,379,0,0,0,0,0,0,0,0,0,-1,1973,645,0,0
756,379,0,0,0,0,0,0,0,0,0,-1,1980,645,0,0
763,379,0,0,0,0,0,0,0,0,0,-1,1987,645,0,0
770,379,0,0,0,0,0,0,0,0,0,-1,1994,645,0,0
777,379,0,0,0,0,0,0,0,0,0,-1,2001,645,0,0
784,379,0,0,0,0,0,0,0,0,0,-1,2008,645,0,0
791,379,0,0,0,0,0,0,0,0,0,-1,2015,645,0,0
798,379,0,0,0,0,0,0,0,0,0,-1,2022,645,0,0
805,379,0,0,0,0,0,0,0,0,0,-1,2029,645,0,0
812,379,0,0,0,0,0,0,0,0,0,-1,2036,645,0,0
-700,372,0,0,0,0,0,0,0,0,0,-1,524,652,0,0
-693,372,0,0,0,0,0,0,0,0,0,-1,531,652,0,0
-686,372,0,0,0,0,0,0,0,0,0,-1,538,652,0,0
-679,372,0,0,0,0,0,0,0,0,0,-1,545,652,0,0
-672,372,0,0,0,0,0,0,0,0,0,-1,552,652,0,0
-665,372,0,0,0,0,0,0,0,0,0,-1,559,652,0,0
-658,372,0,0,0,0,0,0,0,0,0,-1,566,652,0,0
-651,372,0,0,0,0,0,0,0,0,0,-1,573,652,0,0
-644,372,0,0,0,0,0,0,0,0,0,-1,580,652,0,0
-637,372,0,0,0,0,0,0,0,0,0,-1,587,652,0,0
-630,372,0,0,0,0,0,0,0,0,0,-1,594,652,0,0
-623,372,0,0,0,0,0,0,0,0,0,-1,601,652,0,0
-616,372,0,0,0,0,0,0,0,0,0,-1,608,652,0,0
-609,372,0,0,0,0,0,0,0,0,0,-1,615,652,0,0
-602,372,0,0,0,0,0,0,0,0,0,-1,622,652,0,0
-595,372,0,0,0,0,0,0,0,0,0,-1,629,652,0,0
-588,372,0,0,0,0,0,0,0,0,0,-1,636,652,0,0
-581,372,0,0,0,0,0,0,0,0,0,-1,643,652,0,0
-574,372,0,0,0,0,0,0,0,0,0,-1,650,652,0,0
-567,372,-7.93744,0.73407,0,0,0,0,0,0,0,-1,657,652,-7.93741,-0.734076
-560,372,-8.78552,-0.158203,0,0,0,0,0,0,0,-1,664,652,-8.78552,0.158216
-553,372,-7.95551,1.61694,0,0,0,0,0,0,0,-1,671,652,-7.95552,-1.61697
-546,372,-4.2403,-3.75372,0,0,0,0,0,0,0,-1,678,652,-4.24028,3.75369
-539,372,-6.12787,1.69818,0,0,0,0,0,0,0,-1,685,652,-6.12788,-1.69816
-532,372,-6.39636,1.11011,0,0,0,0,0,0,0,-1,692,652,-6.39638,-1.11011
-525,372,-6.19427,-0.112,0.00514031,-0.0224938,-0.00539784,0.00615726,-0.0235108,-0.186217,0.0180792,0.0473457,699,652,-6.19428,0.11202
-518,372,-5.88507,-1.40674,0.00568206,-0.018584,-0.00122456,0.0057437,-0.0186457,-0.0502936,0.0147233,0.0341837,706,652,-5.88505,1.40675
-511,372,-5.89752,-1.74652,0.00538176,-0.0146511,0.00125768,0.00546041,-0.0147297,0.0624543,0.0120593,0.0203242,713,652,-5.89755,1.74654
-504,372,-5.92401,-1.98206,0.00465921,-0.0105981,0.00208812,0.00493983,-0.0108787,0.133588,0.00934494,0.0118895,720,652,-5.924,1.98204
-497,372,-5.90942,-2.29565,0.00376408,-0.00738663,0.00194549,0.00409377,-0.00771631,0.167867,0.00692465,0.0106233,727,652,-5.90944,2.29568
-490,372,-5.92328,-2.58197,0.00294162,-0.00490784,0.00145556,0.00320283,-0.00516905,0.177572,0.00487774,0.0119633,734,652,-5.92328,2.58198
-483,372,-5.92194,-2.84723,0.00239048,-0.00268305,0.000703671,0.00248626,-0.00277884,0.135293,0.00304137,0.0125286,741,652,-5.92192,2.84724
-476,372,-5.90051,-3.09906,0.00214825,-0.000942416,-0.000186647,0.00215948,-0.000953647,-0.0600994,0.00184176,0.0130917,748,652,-5.90051,3.09904
-469,372,-5.92224,-3.3736,0.00211479,0.000151618,-0.000984034,0.00252311,-0.0002567,-0.393322,0.00177384,0.0108757,755,652,-5.92227,3.37359
-462,372,-5.93463,-3.68475,0.00237877,0.00096021,-0.00173774,0.00354641,-0.00020743,-0.591637,0.00243636,0.00979406,762,652,-5.93463,3.68475
-455,372,-5.94659,-3.96735,0.00268735,0.000681735,-0.00165005,0.00361542,-0.000246331,-0.51235,0.00249644,0.00998126,769,652,-5.94662,3.96737
-448,372,-5.93909,-4.24951,0.002828,0.000532542,-0.00182373,0.0038351,-0.000474557,-0.504545,0.00272871,0.0113161,776,652,-5.93908,4.24954
-441,372,-5.8147,-4.70929,0.00251572,0.000203336,-0.00182349,0.00351867,-0.00079961,-0.502856,0.00265279,0.0370695,783,652,-5.81469,4.70927
-434,372,-5.79199,-5.27686,0,0,0,0,0,0,0,-1,790,652,-5.79199,5.27683
-427,372,-4.54248,-3.56268,0,0,0,0,0,0,0,-1,797,652,-4.54247,3.56266
-420,372,-4.66168,-2.93597,0,0,0,0,0,0,0,-1,804,652,-4.66166,2.93599
-413,372,-4.74762,-3.29541,0,0,0,0,0,0,0,-1,811,652,-4.74763,3.29542
-406,372,-0.885437,-0.583923,0,0,0,0,0,0,0,-1,818,652,-0.885437,0.5839
-399,372,-3.97357,-0.825012,0,0,0,0,0,0,0,-1,825,652,-3.97359,0.825037
-392,372,-7.64337,0.173035,0,0,0,0,0,0,0,-1,832,652,-7.64337,-0.173019
-385,372,-6.48871,-0.0271606,0,0,0,0,0,0,0,-1,839,652,-6.48874,0.0271353
-378,372,-5.33044,-0.242432,0,0,0,0,0,0,0,-1,846,652,-5.33042,0.242457
-371,372,-4.40802,-0.495667,0,0,0,0,0,0,0,-1,853,652,-4.40802,0.495661
-364,372,0,0,0,0,0,0,0,0,0,-1,860,652,0,0
-357,372,0,0,0,0,0,0,0,0,0,-1,867,652,0,0
-350,372,0,0,0,0,0,0,0,0,0,-1,874,652,0,0
-343,372,0,0,0,0,0,0,0,0,0,-1,881,652,0,0
-336,372,0,0,0,0,0,0,0,0,0,-1,888,652,0,0
-329,372,0,0,0,0,0,0,0,0,0,-1,895,652,0,0
-322,372,0,0,0,0,0,0,0,0,0,-1,902,652,0,0
-315,372,0,0,0,0,0,0,0,0,0,-1,909,652,0,0
-308,372,0,0,0,0,0,0,0,0,0,-1,916,652,0,0
-301,372,0,0,0,0,0,0,0,0,0,-1,923,652,0,0
-294,372,0,0,0,0,0,0,0,0,0,-1,930,652,0,0
-287,372,0,0,0,0,0,0,0,0,0,-1,937,652,0,0
-280,372,0,0,0,0,0,0,0,0,0,-1,944,652,0,0
-273,372,0,0,0,0,0,0,0,0,0,-1,951,652,0,0
-266,372,0,0,0,0,0,0,0,0,0,-1,958,652,0,0
-259,372,0,0,0,0,0,0,0,0,0,-1,965,652,0,0
-252,372,0,0,0,0,0,0,0,0,0,-1,972,652,0,0
-245,372,0,0,0,0,0,0,0,0,0,-1,979,652,0,0
-238,372,0,0,0,0,0,0,0,0,0,-1,986,652,0,0
-231,372,0,0,0,0,0,0,0,0,0,-1,993,652,0,0
-224,372,0,0,0,0,0,0,0,0,0,-1,1000,652,0,0
-217,372,0,0,0,0,0,0,0,0,0,-1,1007,652,0,0
-210,372,0,0,0,0,0,0,0,0,0,-1,1014,652,0,0
-203,372,0,0,0,0,0,0,0,0,0,-1,1021,652,0,0
-196,372,0,0,0,0,0,0,0,0,0,-1,1028,652,0,0
-189,372,0,0,0,0,0,0,0,0,0,-1,1035,652,0,0
-182,372,0,0,0,0,0,0,0,0,0,-1,1042,652,0,0
-175,372,0,0,0,0,0,0,0,0,0,-1,1049,652,0,0
-168,372,0,0,0,0,0,0,0,0,0,-1,1056,652,0,0
-161,372,0,0,0,0,0,0,0,0,0,-1,1063,652,0,0
-154,372,0,0,0,0,0,0,0,0,0,-1,1070,652,0,0
-147,372,0,0,0,0,0,0,0,0,0,-1,1077,652,0,0
-140,372,0,0,0,0,0,0,0,0,0,-1,1084,652,0,0
-133,372,0,0,0,0,0,0,0,0,0,-1,1091,652,0,0
-126,372,0,0,0,0,0,0,0,0,0,-1,1098,652,0,0
-119,372,0,0,0,0,0,0,0,0,0,-1,1105,652,0,0
-112,372,0,0,0,0,0,0,0,0,0,-1,1112,652,0,0
-105,372,0,0,0,0,0,0,0,0,0,-1,1119,652,0,0
-98,372,0,0,0,0,0,0,0,0,0,-1,1126,652,0,0
-91,372,0,0,0,0,0,0,0,0,0,-1,1133,652,0,0
-84,372,0,0,0,0,0,0,0,0,0,-1,1140,652,0,0
-77,372,0,0,0,0,0,0,0,0,0,-1,1147,652,0,0
-70,372,0,0,0,0,0,0,0,0,0,-1,1154,652,0,0
-63,372,0,0,0,0,0,0,0,0,0,-1,1161,652,0,0
-56,372,0,0,0,0,0,0,0,0,0,-1,1168,652,0,0
-49,372,0,0,0,0,0,0,0,0,0,-1,1175,652,0,0
-42,372,0,0,0,0,0,0,0,0,0,-1,1182,652,0,0
-35,372,0,0,0,0,0,0,0,0,0,-1,1189,652,0,0
-28,372,0,0,0,0,0,0,0,0,0,-1,1196,652,0,0
-21,372,0,0,0,0,0,0,0,0,0,-1,1203,652,0,0
-14,372,0,0,0,0,0,0,0,0,0,-1,1210,652,0,0
-7,372,0,0,0,0,0,0,0,0,0,-1,1217,652,0,0
0,372,0,0,0,0,0,0,0,0,0,-1,1224,652,0,0
7,372,0,0,0,0,0,0,0,0,0,-1,1231,652,0,0
14,372,0,0,0,0,0,0,0,0,0,-1,1238,652,0,0
21,372,0,0,0,0,0,0,0,0,0,-1,1245,652,0,0
28,372,0,0,0,0,0,0,0,0,0,-1,1252,652,0,0
35,372,0,0,0,0,0,0,0,0,0,-1,1259,652,0,0
42,372,0,0,0,0,0,0,0,0,0,-1,1266,652,0,0
49,372,0,0,0,0,0,0,0,0,0,-1,1273,652,0,0
56,372,0,0,0,0,0,0,0,0,0,-1,1280,652,0,0
63,372,0,0,0,0,0,0,0,0,0,-1,1287,652,0,0
70,372,0,0,0,0,0,0,0,0,0,-1,1294,652,0,0
77,372,0,0,0,0,0,0,0,0,0,-1,1301,652,0,0
84,372,0,0,0,0,0,0,0,0,0,-1,1308,652,0,0
91,372,0,0,0,0,0,0,0,0,0,-1,1315,652,0,0
98,372,0,0,0,0,0,0,0,0,0,-1,1322,652,0,0
105,372,0,0,0,0,0,0,0,0,0,-1,1329,652,0,0
112,372,0,0,0,0,0,0,0,0,0,-1,1336,652,0,0
119,372,0,0,0,0,0,0,0,0,0,-1,1343,652,0,0
126,372,0,0,0,0,0,0,0,0,0,-1,1350,652,0,0
133,372,0,0,0,0,0,0,0,0,0,-1,1357,652,0,0
140,372,0,0,0,0,0,0,0,0,0,-1,1364,652,0,0
147,372,0,0,0,0,0,0,0,0,0,-1,1371,652,0,0
154,372,0,0,0,0,0,0,0,0,0,-1,1378,652,0,0
161,372,0,0,0,0,0,0,0,0,0,-1,1385,652,0,0
168,372,0,0,0,0,0,0,0,0,0,-1,1392,652,0,0
175,372,0,0,0,0,0,0,0,0,0,-1,1399,652,0,0
182,372,0,0,0,0,0,0,0,0,0,-1,1406,652,0,0
189,372,0,0,0,0,0,0,0,0,0,-1,1413,652,0,0
196,372,0,0,0,0,0,0,0,0,0,-1,1420,652,0,0
203,372,0,0,0,0,0,0,0,0,0,-1,1427,652,0,0
210,372,0,0,0,0,0,0,0,0,0,-1,1434,652,0,0
217,372,0,0,0,0,0,0,0,0,0,-1,1441,652,0,0
224,372,0,0,0,0,0,0,0,0,0,-1,1448,652,0,0
231,372,0,0,0,0,0,0,0,0,0,-1,1455,652,0,0
238,372,0,0,0,0,0,0,0,0,0,-1,1462,652,0,0
245,372,0,0,0,0,0,0,0,0,0,-1,1469,652,0,0
252,372,0,0,0,0,0,0,0,0,0,-1,1476,652,0,0
259,372,0,0,0,0,0,0,0,0,0,-1,1483,652,0,0
266,372,0,0,0,0,0,0,0,0,0,-1,1490,652,0,0
273,372,0,0,0,0,0,0,0,0,0,-1,1497,652,0,0
280,372,0,0,0,0,0,0,0,0,0,-1,1504,652,0,0
287,372,0,0,0,0,0,0,0,0,0,-1,1511,652,0,0
294,372,0,0,0,0,0,0,0,0,0,-1,1518,652,0,0
301,372,0,0,0,0,0,0,0,0,0,-1,1525,652,0,0
308,372,0,0,0,0,0,0,0,0,0,-1,1532,652,0,0
315,372,0,0,0,0,0,0,0,0,0,-1,1539,652,0,0
322,372,0,0,0,0,0,0,0,0,0,-1,1546,652,0,0
329,372,0,0,0,0,0,0,0,0,0,-1,1553,652,0,0
336,372,0,0,0,0,0,0,0,0,0,-1,1560,652,0,0
343,372,0,0,0,0,0,0,0,0,0,-1,1567,652,0,0
350,372,0,0,0,0,0,0,0,0,0,-1,1574,652,0,0
357,372,0,0,0,0,0,0,0,0,0,-1,1581,652,0,0
364,372,0,0,0,0,0,0,0,0,0,-1,1588,652,0,0
371,372,0,0,0,0,0,0,0,0,0,-1,1595,652,0,0
378,372,0,0,0,0,0,0,0,0,0,-1,1602,652,0,0
385,372,0,0,0,0,0,0,0,0,0,-1,1609,652,0,0
392,372,0,0,0,0,0,0,0,0,0,-1,1616,652,0,0
399,372,0,0,0,0,0,0,0,0,0,-1,1623,652,0,0
406,372,0,0,0,0,0,0,0,0,0,-1,1630,652,0,0
413,372,0,0,0,0,0,0,0,0,0,-1,1637,652,0,0
420,372,0,0,0,0,0,0,0,0,0,-1,1644,652,0,0
427,372,0,0,0,0,0,0,0,0,0,-1,1651,652,0,0
434,372,0,0,0,0,0,0,0,0,0,-1,1658,652,0,0
441,372,0,0,0,0,0,0,0,0,0,-1,1665,652,0,0
448,372,0,0,0,0,0,0,0,0,0,-1,1672,652,0,0
455,372,0,0,0,0,0,0,0,0,0,-1,1679,652,0,0
462,372,0,0,0,0,0,0,0,0,0,-1,1686,652,0,0
469,372,0,0,0,0,0,0,0,0,0,-1,1693,652,0,0
476,372,0,0,0,0,0,0,0,0,0,-1,1700,652,0,0
483,372,8.74182,1.53125,0,0,0,0,0,0,0,-1,1707,652,8.74186,-1.53126
490,372,9.78455,1.67096,0,0,0,0,0,0,0,-1,1714,652,9.7846,-1.67093
497,372,9.97644,1.46069,0,0,0,0,0,0,0,-1,1721,652,9.97647,-1.46071
504,372,10.1216,1.28375,0,0,0,0,0,0,0,-1,1728,652,10.1216,-1.28376
511,372,11.7367,-0.0272217,0,0,0,0,0,0,0,-1,1735,652,11.7367,0.0272326
518,372,12.0657,-0.0995483,0,0,0,0,0,0,0,-1,1742,652,12.0657,0.0995285
525,372,12.3947,-0.171814,0,0,0,0,0,0,0,-1,1749,652,12.3946,0.171824
532,372,9.36597,1.72034,0,0,0,0,0,0,0,-1,1756,652,9.36597,-1.72036
539,372,7.82886,-0.0865479,0,0,0,0,0,0,0,-1,1763,652,7.82882,0.0865771
546,372,10.953,-0.187195,0,0,0,0,0,0,0,-1,1770,652,10.953,0.187181
553,372,11.7705,-4.1922,0,0,0,0,0,0,0,-1,1777,652,11.7704,4.19219
560,372,11.9651,-3.51611,-0.00293599,0.00759842,0.00197287,0.00795577,-0.00329334,1.39161,0.00667804,0.0441934,1784,652,11.9651,3.51609
567,372,11.988,-2.87305,-0.00271772,0.00496864,0.000914215,0.00507588,-0.00282496,1.45403,0.00462285,0.026749,1791,652,11.9881,2.87306
574,372,12.0461,-2.52911,-0.00246706,0.0031228,0.000190312,0.00312927,-0.00247353,1.5368,0.00324216,0.0175712,1798,652,12.0461,2.5291
581,372,12.0217,-2.2702,-0.00188168,0.0019014,-0.000104733,0.0019043,-0.00188458,-1.54314,0.00218752,0.0156034,1805,652,12.0218,2.27023
588,372,12.0023,-1.9707,-0.00115046,0.00127088,-0.000100811,0.00127507,-0.00115465,-1.52926,0.00140338,0.0167352,1812,652,12.0023,1.97068
595,372,11.9901,-1.67053,-0.000385565,0.00102872,9.54105e-05,0.00103513,-0.000391973,1.50374,0.000851373,0.0142692,1819,652,11.9901,1.67054
602,372,12.009,-1.38092,0.000394862,0.00113328,0.000475592,0.00136615,0.000161989,1.11546,0.000861863,0.0129507,1826,652,12.009,1.38093
609,372,11.9545,-1.07373,0.000897555,0.00145539,0.000819837,0.00204246,0.000310488,0.949362,0.00127085,0.0131996,1833,652,11.9544,1.07375
616,372,11.9648,-0.751465,0.00101226,0.00164285,0.000879549,0.0022619,0.000393197,0.957499,0.00139546,0.0133178,1840,652,11.9648,0.751452
623,372,11.9965,-0.422852,0.000999775,0.00213574,0.00100254,0.00272001,0.000415502,1.04313,0.00169193,0.0113256,1847,652,11.9965,0.422824
630,372,11.9742,-0.124695,0.000543318,0.00249297,0.000929683,0.00286522,0.000171075,1.18995,0.00185575,0.0159143,1854,652,11.9742,0.12468
637,372,11.9895,0.163513,-0.00063423,0.00266348,0.000409691,0.00271362,-0.000684366,1.44903,0.00207516,0.0198237,1861,652,11.9895,-0.16351
644,372,12.0565,0.542664,-0.00255607,0.00250767,-0.00055523,0.00256784,-0.00261624,-1.46286,0.00299307,0.0246954,1868,652,12.0566,-0.542661
651,372,12.2296,0.325989,0,0,0,0,0,0,0,-1,1875,652,12.2296,-0.325986
658,372,11.6975,0.432739,0,0,0,0,0,0,0,-1,1882,652,11.6975,-0.432724
665,372,11.1654,0.53949,0,0,0,0,0,0,0,-1,1889,652,11.1654,-0.539461
672,372,9.34106,1.48444,0,0,0,0,0,0,0,-1,1896,652,9.34109,-1.48444
679,372,10.7308,2.32391,0,0,0,0,0,0,0,-1,1903,652,10.7309,-2.3239
686,372,11.6295,2.52997,0,0,0,0,0,0,0,-1,1910,652,11.6296,-2.52996
693,372,0,0,0,0,0,0,0,0,0,-1,1917,652,0,0
700,372,0,0,0,0,0,0,0,0,0,-1,1924,652,0,0
707,372,0,0,0,0,0,0,0,0,0,-1,1931,652,0,0
714,372,0,0,0,0,0,0,0,0,0,-1,1938,652,0,0
721,372,0,0,0,0,0,0,0,0,0,-1,1945,652,0,0
728,372,0,0,0,0,0,0,0,0,0,-1,1952,652,0,0
735,372,0,0,0,0,0,0,0,0,0,-1,1959,652,0,0
742,372,0,0,0,0,0,0,0,0,0,-1,1966,652,0,0
749,372,0,0,0,0,0,0,0,0,0,-1,1973,652,0,0
756,372,0,0,0,0,0,0,0,0,0,-1,1980,652,0,0
763,372,0,0,0,0,0,0,0,0,0,-1,1987,652,0,0
770,372,0,0,0,0,0,0,0,0,0,-1,1994,652,0,0
777,372,0,0,0,0,0,0,0,0,0,-1,2001,652,0,0
784,372,0,0,0,0,0,0,0,0,0,-1,2008,652,0,0
791,372,0,0,0,0,0,0,0,0,0,-1,2015,652,0,0
798,372,0,0,0,0,0,0,0,0,0,-1,2022,652,0,0
805,372,0,0,0,0,0,0,0,0,0,-1,2029,652,0,0
812,372,0,0,0,0,0,0,0,0,0,-1,2036,652,0,0
-700,365,0,0,0,0,0,0,0,0,0,-1,524,659,0,0
-693,365,0,0,0,0,0,0,0,0,0,-1,531,659,0,0
-686,365,0,0,0,0,0,0,0,0,0,-1,538,659,0,0
-679,365,0,0,0,0,0,0,0,0,0,-1,545,659,0,0
-672,365,0,0,0,0,0,0,0,0,0,-1,552,659,0,0
-665,365,0,0,0,0,0,0,0,0,0,-1,559,659,0,0
-658,365,0,0,0,0,0,0,0,0,0,-1,566,659,0,0
-651,365,0,0,0,0,0,0,0,0,0,-1,573,659,0,0
-644,365,0,0,0,0,0,0,0,0,0,-1,580,659,0,0
-637,365,0,0,0,0,0,0,0,0,0,-1,587,659,0,0
-630,365,0,0,0,0,0,0,0,0,0,-1,594,659,0,0
-623,365,0,0,0,0,0,0,0,0,0,-1,601,659,0,0
-616,365,0,0,0,0,0,0,0,0,0,-1,608,659,0,0
-609,365,0,0,0,0,0,0,0,0,0,-1,615,659,0,0
-602,365,0,0,0,0,0,0,0,0,0,-1,622,659,0,0
-595,365,0,0,0,0,0,0,0,0,0,-1,629,659,0,0
-588,365,0,0,0,0,0,0,0,0,0,-1,636,659,0,0
-581,365,0,0,0,0,0,0,0,0,0,-1,643,659,0,0
-574,365,-6.86823,1.67981,-0.0271831,-0.0223973,-0.0737509,0.0489996,-0.0985799,-0.801615,0.0867931,0.0458002,650,659,-6.8682,-1.67982
-567,365,-7.18616,0.927856,-0.0189711,-0.0257628,-0.0614813,0.0392081,-0.0839419,-0.757809,0.0726474,0.046687,657,659,-7.18616,-0.927844
-560,365,-7.17767,0.275757,0,0,0,0,0,0,0,-1,664,659,-7.17768,-0.27577
-553,365,-6.84509,0.0856323,0,0,0,0,0,0,0,-1,671,659,-6.8451,-0.085632
-546,365,-6.72443,-0.223755,0,0,0,0,0,0,0,-1,678,659,-6.7244,0.223756
-539,365,-6.69537,-1.20728,0,0,0,0,0,0,0,-1,685,659,-6.6954,1.20729
-532,365,-6.77777,-1.34119,0,0,0,0,0,0,0,-1,692,659,-6.77779,1.34116
-525,365,-6.00525,-0.669739,0.00295172,-0.0160921,-0.00753064,0.00556971,-0.0187101,-0.334576,0.0146863,0.0461153,699,659,-6.00526,0.66971
-518,365,-6.0376,-1.47913,0.00360517,-0.013304,-0.00329978,0.00422629,-0.0139252,-0.186056,0.0109671,0.0315115,706,659,-6.03762,1.47911
-511,365,-6.20294,-1.69421,0.0035275,-0.0106638,-0.000470767,0.0035431,-0.0106794,-0.0331243,0.00854901,0.0213904,713,659,-6.20297,1.69421
-504,365,-6.19128,-1.97754,0.00321854,-0.00759034,0.000721278,0.00326646,-0.00763825,0.0663382,0.00646229,0.0116438,720,659,-6.1913,1.97753
-497,365,-6.19708,-2.29053,0.00273479,-0.00518262,0.00091289,0.00283869,-0.00528651,0.113321,0.00476152,0.0120006,727,659,-6.19708,2.29051
-490,365,-6.21198,-2.58862,0.00227251,-0.00334174,0.000692512,0.00235667,-0.0034259,0.120934,0.00335754,0.0130515,734,659,-6.212,2.58861
-483,365,-6.2384,-2.85358,0.00204985,-0.00160387,0.00011922,0.00205374,-0.00160776,0.0325836,0.00211919,0.0125766,741,659,-6.23841,2.85358
-476,365,-6.19708,-3.11615,0.00212491,-0.000181256,-0.000707911,0.00232488,-0.000381221,-0.275299,0.00169137,0.013327,748,659,-6.19706,3.11614
-469,365,-6.19452,-3.39636,0.00244469,0.000943854,-0.00166973,0.00352488,-0.000136334,-0.57421,0.00239666,0.0133329,755,659,-6.19452,3.39636
-462,365,-6.21136,-3.67535,0.00307237,0.00143706,-0.00247114,0.00485762,-0.000348184,-0.625627,0.00336049,0.0131731,762,659,-6.21137,3.67535
-455,365,-6.21423,-3.94916,0.00369423,0.000954552,-0.00234516,0.00504031,-0.000391534,-0.52107,0.00349803,0.0145458,769,659,-6.21422,3.94916
-448,365,-6.14551,-4.30969,0.0040943,0.00101114,-0.0027742,0.00572647,-0.000621025,-0.531799,0.00404059,0.0233899,776,659,-6.14552,4.30968
-441,365,-5.98895,-4.7464,0,0,0,0,0,0,0,-1,783,659,-5.98896,4.74642
-434,365,-5.45056,-3.98041,0,0,0,0,0,0,0,-1,790,659,-5.45055,3.98042
-427,365,-5.05377,-4.74689,0,0,0,0,0,0,0,-1,797,659,-5.05376,4.7469
-420,365,-4.58813,-3.16376,0,0,0,0,0,0,0,-1,804,659,-4.58816,3.16374
-413,365,0.141357,0.672729,0,0,0,0,0,0,0,-1,811,659,0.141365,-0.672714
-406,365,-1.75067,-0.934448,0,0,0,0,0,0,0,-1,818,659,-1.7507,0.934424
-399,365,-4.10242,-1.25439,0,0,0,0,0,0,0,-1,825,659,-4.10244,1.25438
-392,365,-7.46545,-0.779724,0,0,0,0,0,0,0,-1,832,659,-7.46543,0.779744
-385,365,-6.27875,-0.887573,0,0,0,0,0,0,0,-1,839,659,-6.27874,0.887545
-378,365,-5.34503,-0.263306,0,0,0,0,0,0,0,-1,846,659,-5.34504,0.263275
-371,365,0,0,0,0,0,0,0,0,0,-1,853,659,0,0
-364,365,0,0,0,0,0,0,0,0,0,-1,860,659,0,0
-357,365,0,0,0,0,0,0,0,0,0,-1,867,659,0,0
-350,365,0,0,0,0,0,0,0,0,0,-1,874,659,0,0
-343,365,0,0,0,0,0,0,0,0,0,-1,881,659,0,0
-336,365,0,0,0,0,0,0,0,0,0,-1,888,659,0,0
-329,365,0,0,0,0,0,0,0,0,0,-1,895,659,0,0
-322,365,0,0,0,0,0,0,0,0,0,-1,902,659,0,0
-315,365,0,0,0,0,0,0,0,0,0,-1,909,659,0,0
-308,365,0,0,0,0,0,0,0,0,0,-1,916,659,0,0
-301,365,0,0,0,0,0,0,0,0,0,-1,923,659,0,0
-294,365,0,0,0,0,0,0,0,0,0,-1,930,659,0,0
-287,365,0,0,0,0,0,0,0,0,0,-1,937,659,0,0
-280,365,0,0,0,0,0,0,0,0,0,-1,944,659,0,0
-273,365,0,0,0,0,0,0,0,0,0,-1,951,659,0,0
-266,365,0,0,0,0,0,0,0,0,0,-1,958,659,0,0
-259,365,0,0,0,0,0,0,0,0,0,-1,965,659,0,0
-252,365,0,0,0,0,0,0,0,0,0,-1,972,659,0,0
-245,365,0,0,0,0,0,0,0,0,0,-1,979,659,0,0
-238,365,0,0,0,0,0,0,0,0,0,-1,986,659,0,0
-231,365,0,0,0,0,0,0,0,0,0,-1,993,659,0,0
-224,365,0,0,0,0,0,0,0,0,0,-1,1000,659,0,0
-217,365,0,0,0,0,0,0,0,0,0,-1,1007,659,0,0
-210,365,0,0,0,0,0,0,0,0,0,-1,1014,659,0,0
-203,365,0,0,0,0,0,0,0,0,0,-1,1021,659,0,0
-196,365,0,0,0,0,0,0,0,0,0,-1,1028,659,0,0
-189,365,0,0,0,0,0,0,0,0,0,-1,1035,659,0,0
-182,365,0,0,0,0,0,0,0,0,0,-1,1042,659,0,0
-175,365,0,0,0,0,0,0,0,0,0,-1,1049,659,0,0
-168,365,0,0,0,0,0,0,0,0,0,-1,1056,659,0,0
-161,365,0,0,0,0,0,0,0,0,0,-1,1063,659,0,0
-154,365,0,0,0,0,0,0,0,0,0,-1,1070,659,0,0
-147,365,0,0,0,0,0,0,0,0,0,-1,1077,659,0,0
-140,365,0,0,0,0,0,0,0,0,0,-1,1084,659,0,0
-133,365,0,0,0,0,0,0,0,0,0,-1,1091,659,0,0
-126,365,0,0,0,0,0,0,0,0,0,-1,1098,659,0,0
-119,365,0,0,0,0,0,0,0,0,0,-1,1105,659,0,0
-112,365,0,0,0,0,0,0,0,0,0,-1,1112,659,0,0
-105,365,0,0,0,0,0,0,0,0,0,-1,1119,659,0,0
-98,365,0,0,0,0,0,0,0,0,0,-1,1126,659,0,0
-91,365,0,0,0,0,0,0,0,0,0,-1,1133,659,0,0
-84,365,0,0,0,0,0,0,0,0,0,-1,1140,659,0,0
-77,365,0,0,0,0,0,0,0,0,0,-1,1147,659,0,0
-70,365,0,0,0,0,0,0,0,0,0,-1,1154,659,0,0
-63,365,0,0,0,0,0,0,0,0,0,-1,1161,659,0,0
-56,365,0,0,0,0,0,0,0,0,0,-1,1168,659,0,0
-49,365,0,0,0,0,0,0,0,0,0,-1,1175,659,0,0
-42,365,0,0,0,0,0,0,0,0,0,-1,1182,659,0,0
-35,365,0,0,0,0,0,0,0,0,0,-1,1189,659,0,0
-28,365,0,0,0,0,0,0,0,0,0,-1,1196,659,0,0
-21,365,0,0,0,0,0,0,0,0,0,-1,1203,659,0,0
-14,365,0,0,0,0,0,0,0,0,0,-1,1210,659,0,0
-7,365,0,0,0,0,0,0,0,0,0,-1,1217,659,0,0
0,365,0,0,0,0,0,0,0,0,0,-1,1224,659,0,0
7,365,0,0,0,0,0,0,0,0,0,-1,1231,659,0,0
14,365,0,0,0,0,0,0,0,0,0,-1,1238,659,0,0
21,365,0,0,0,0,0,0,0,0,0,-1,1245,659,0,0
28,365,0,0,0,0,0,0,0,0,0,-1,1252,659,0,0
35,365,0,0,0,0,0,0,0,0,0,-1,1259,659,0,0
42,365,0,0,0,0,0,0,0,0,0,-1,1266,659,0,0
49,365,0,0,0,0,0,0,0,0,0,-1,1273,659,0,0
56,365,0,0,0,0,0,0,0,0,0,-1,1280,659,0,0
63,365,0,0,0,0,0,0,0,0,0,-1,1287,659,0,0
70,365,0,0,0,0,0,0,0,0,0,-1,1294,659,0,0
77,365,0,0,0,0,0,0,0,0,0,-1,1301,659,0,0
84,365,0,0,0,0,0,0,0,0,0,-1,1308,659,0,0
91,365,0,0,0,0,0,0,0,0,0,-1,1315,659,0,0
98,365,0,0,0,0,0,0,0,0,0,-1,1322,659,0,0
105,365,0,0,0,0,0,0,0,0,0,-1,1329,659,0,0
112,365,0,0,0,0,0,0,0,0,0,-1,1336,659,0,0
119,365,0,0,0,0,0,0,0,0,0,-1,1343,659,0,0
126,365,0,0,0,0,0,0,0,0,0,-1,1350,659,0,0
133,365,0,0,0,0,0,0,0,0,0,-1,1357,659,0,0
140,365,0,0,0,0,0,0,0,0,0,-1,1364,659,0,0
147,365,0,0,0,0,0,0,0,0,0,-1,1371,659,0,0
154,365,0,0,0,0,0,0,0,0,0,-1,1378,659,0,0
161,365,0,0,0,0,0,0,0,0,0,-1,1385,659,0,0
168,365,0,0,0,0,0,0,0,0,0,-1,1392,659,0,0
175,365,0,0,0,0,0,0,0,0,0,-1,1399,659,0,0
182,365,0,0,0,0,0,0,0,0,0,-1,1406,659,0,0
189,365,0,0,0,0,0,0,0,0,0,-1,1413,659,0,0
196,365,0,0,0,0,0,0,0,0,0,-1,1420,659,0,0
203,365,0,0,0,0,0,0,0,0,0,-1,1427,659,0,0
210,365,0,0,0,0,0,0,0,0,0,-1,1434,659,0,0
217,365,0,0,0,0,0,0,0,0,0,-1,1441,659,0,0
224,365,0,0,0,0,0,0,0,0,0,-1,1448,659,0,0
231,365,0,0,0,0,0,0,0,0,0,-1,1455,659,0,0
238,365,0,0,0,0,0,0,0,0,0,-1,1462,659,0,0
245,365,0,0,0,0,0,0,0,0,0,-1,1469,659,0,0
252,365,0,0,0,0,0,0,0,0,0,-1,1476,659,0,0
259,365,0,0,0,0,0,0,0,0,0,-1,1483,659,0,0
266,365,0,0,0,0,0,0,0,0,0,-1,1490,659,0,0
273,365,0,0,0,0,0,0,0,0,0,-1,1497,659,0,0
280,365,0,0,0,0,0,0,0,0,0,-1,1504,659,0,0
287,365,0,0,0,0,0,0,0,0,0,-1,1511,659,0,0
294,365,0,0,0,0,0,0,0,0,0,-1,1518,659,0,0
301,365,0,0,0,0,0,0,0,0,0,-1,1525,659,0,0
308,365,0,0,0,0,0,0,0,0,0,-1,1532,659,0,0
315,365,0,0,0,0,0,0,0,0,0,-1,1539,659,0,0
322,365,0,0,0,0,0,0,0,0,0,-1,1546,659,0,0
329,365,0,0,0,0,0,0,0,0,0,-1,1553,659,0,0
336,365,0,0,0,0,0,0,0,0,0,-1,1560,659,0,0
343,365,0,0,0,0,0,0,0,0,0,-1,1567,659,0,0
350,365,0,0,0,0,0,0,0,0,0,-1,1574,659,0,0
357,365,0,0,0,0,0,0,0,0,0,-1,1581,659,0,0
364,365,0,0,0,0,0,0,0,0,0,-1,1588,659,0,0
371,365,0,0,0,0,0,0,0,0,0,-1,1595,659,0,0
378,365,0,0,0,0,0,0,0,0,0,-1,1602,659,0,0
385,365,0,0,0,0,0,0,0,0,0,-1,1609,659,0,0
392,365,0,0,0,0,0,0,0,0,0,-1,1616,659,0,0
399,365,0,0,0,0,0,0,0,0,0,-1,1623,659,0,0
406,365,0,0,0,0,0,0,0,0,0,-1,1630,659,0,0
413,365,0,0,0,0,0,0,0,0,0,-1,1637,659,0,0
420,365,0,0,0,0,0,0,0,0,0,-1,1644,659,0,0
427,365,0,0,0,0,0,0,0,0,0,-1,1651,659,0,0
434,365,0,0,0,0,0,0,0,0,0,-1,1658,659,0,0
441,365,0,0,0,0,0,0,0,0,0,-1,1665,659,0,0
448,365,0,0,0,0,0,0,0,0,0,-1,1672,659,0,0
455,365,0,0,0,0,0,0,0,0,0,-1,1679,659,0,0
462,365,0,0,0,0,0,0,0,0,0,-1,1686,659,0,0
469,365,0,0,0,0,0,0,0,0,0,-1,1693,659,0,0
476,365,0,0,0,0,0,0,0,0,0,-1,1700,659,0,0
483,365,0,0,0,0,0,0,0,0,0,-1,1707,659,0,0
490,365,8.39551,0.471252,0,0,0,0,0,0,0,-1,1714,659,8.39551,-0.471241
497,365,9.89233,1.35394,0,0,0,0,0,0,0,-1,1721,659,9.89237,-1.35396
504,365,10.1414,1.18005,0,0,0,0,0,0,0,-1,1728,659,10.1413,-1.18004
511,365,10.5151,0.993896,0,0,0,0,0,0,0,-1,1735,659,10.5152,-0.993894
518,365,11.2029,0.398132,0,0,0,0,0,0,0,-1,1742,659,11.2029,-0.398136
525,365,15.5748,3.85303,0,0,0,0,0,0,0,-1,1749,659,15.5748,-3.85303
532,365,11.2446,1.00629,0,0,0,0,0,0,0,-1,1756,659,11.2446,-1.00631
539,365,12.6301,1.03204,0,0,0,0,0,0,0,-1,1763,659,12.6302,-1.03204
546,365,11.647,0.84198,0,0,0,0,0,0,0,-1,1770,659,11.6469,-0.841955
553,365,12.028,-0.558899,0,0,0,0,0,0,0,-1,1777,659,12.028,0.558873
560,365,12.3269,-3.98462,0,0,0,0,0,0,0,-1,1784,659,12.3269,3.98464
567,365,12.4468,-3.04285,0,0,0,0,0,0,0,-1,1791,659,12.4468,3.04287
574,365,12.5032,-2.54266,0,0,0,0,0,0,0,-1,1798,659,12.5031,2.54266
581,365,12.3363,-2.36139,-0.00266864,0.00194091,-0.000345929,0.00196672,-0.00269445,-1.49631,0.00270204,0.0229947,1805,659,12.3364,2.36139
588,365,12.2848,-2.01233,-0.0017721,0.00113322,-0.000379274,0.00118191,-0.0018208,-1.4431,0.00174665,0.0130176,1812,659,12.2847,2.01235
595,365,12.3021,-1.66132,-0.000937031,0.000747902,-0.000224232,0.000777232,-0.000966362,-1.44073,0.00100864,0.0131569,1819,659,12.3021,1.66132
602,365,12.2941,-1.34766,-0.00012749,0.000742583,9.86188e-05,0.000753621,-0.000138528,1.45933,0.000554389,0.0136349,1826,659,12.2941,1.34763
609,365,12.2457,-1.03741,0.000402056,0.00096752,0.000401016,0.00117545,0.000194124,1.09245,0.000727611,0.0143796,1833,659,12.2458,1.03741
616,365,12.2729,-0.710754,0.000539745,0.000983655,0.000387361,0.00120814,0.000315256,1.04556,0.00072361,0.0157608,1840,659,12.2729,0.710779
623,365,12.3134,-0.410828,0.000463985,0.00133693,0.000411629,0.00150042,0.000300503,1.19274,0.000916678,0.0108307,1847,659,12.3133,0.410836
630,365,12.2786,-0.117493,-6.15389e-05,0.00154444,0.000250821,0.0015827,-9.98006e-05,1.41942,0.00108992,0.0152834,1854,659,12.2786,0.117473
637,365,12.2927,0.169067,-0.00119398,0.00154724,-0.000320023,0.00158411,-0.00123085,-1.45611,0.00162948,0.0199939,1861,659,12.2927,-0.169074
644,365,12.3119,0.471863,-0.00299737,0.00124066,-0.00131302,0.00161448,-0.00337119,-1.29343,0.00293744,0.014962,1868,659,12.3118,-0.471876
651,365,12.3015,0.661621,0,0,0,0,0,0,0,-1,1875,659,12.3016,-0.661596
658,365,11.8817,0.749512,0,0,0,0,0,0,0,-1,1882,659,11.8817,-0.749524
665,365,11.4829,1.02405,0,0,0,0,0,0,0,-1,1889,659,11.4829,-1.02406
672,365,10.0579,2.15088,0,0,0,0,0,0,0,-1,1896,659,10.0579,-2.15088
679,365,10.9718,2.19208,0,0,0,0,0,0,0,-1,1903,659,10.9718,-2.19211
686,365,12.2134,2.17108,0,0,0,0,0,0,0,-1,1910,659,12.2134,-2.17109
693,365,13.7141,1.98279,0,0,0,0,0,0,0,-1,1917,659,13.7141,-1.98278
700,365,0,0,0,0,0,0,0,0,0,-1,1924,659,0,0
707,365,0,0,0,0,0,0,0,0,0,-1,1931,659,0,0
714,365,0,0,0,0,0,0,0,0,0,-1,1938,659,0,0
721,365,0,0,0,0,0,0,0,0,0,-1,1945,659,0,0
728,365,0,0,0,0,0,0,0,0,0,-1,1952,659,0,0
735,365,0,0,0,0,0,0,0,0,0,-1,1959,659,0,0
742,365,0,0,0,0,0,0,0,0,0,-1,1966,659,0,0
749,365,0,0,0,0,0,0,0,0,0,-1,1973,659,0,0
756,365,0,0,0,0,0,0,0,0,0,-1,1980,659,0,0
763,365,0,0,0,0,0,0,0,0,0,-1,1987,659,0,0
770,365,0,0,0,0,0,0,0,0,0,-1,1994,659,0,0
777,365,0,0,0,0,0,0,0,0,0,-1,2001,659,0,0
784,365,0,0,0,0,0,0,0,0,0,-1,2008,659,0,0
791,365,0,0,0,0,0,0,0,0,0,-1,2015,659,0,0
798,365,0,0,0,0,0,0,0,0,0,-1,2022,659,0,0
805,365,0,0,0,0,0,0,0,0,0,-1,2029,659,0,0
812,365,0,0,0,0,0,0,0,0,0,-1,2036,659,0,0
-700,358,0,0,0,0,0,0,0,0,0,-1,524,666,0,0
-693,358,0,0,0,0,0,0,0,0,0,-1,531,666,0,0
-686,358,0,0,0,0,0,0,0,0,0,-1,538,666,0,0
-679,358,0,0,0,0,0,0,0,0,0,-1,545,666,0,0
-672,358,0,0,0,0,0,0,0,0,0,-1,552,666,0,0
-665,358,0,0,0,0,0,0,0,0,0,-1,559,666,0,0
-658,358,0,0,0,0,0,0,0,0,0,-1,566,666,0,0
-651,358,0,0,0,0,0,0,0,0,0,-1,573,666,0,0
-644,358,0,0,0,0,0,0,0,0,0,-1,580,666,0,0
-637,358,0,0,0,0,0,0,0,0,0,-1,587,666,0,0
-630,358,0,0,0,0,0,0,0,0,0,-1,594,666,0,0
-623,358,0,0,0,0,0,0,0,0,0,-1,601,666,0,0
-616,358,0,0,0,0,0,0,0,0,0,-1,608,666,0,0
-609,358,0,0,0,0,0,0,0,0,0,-1,615,666,0,0
-602,358,0,0,0,0,0,0,0,0,0,-1,622,666,0,0
-595,358,0,0,0,0,0,0,0,0,0,-1,629,666,0,0
-588,358,0,0,0,0,0,0,0,0,0,-1,636,666,0,0
-581,358,-6.38348,2.40674,-0.0322032,-0.00358084,-0.0838876,0.0672076,-0.102992,-0.869884,0.0989859,0.0495692,643,666,-6.38347,-2.40674
-574,358,-6.60022,1.71234,-0.0261009,-0.0173489,-0.0688899,0.0473038,-0.0907536,-0.817116,0.0810126,0.0472302,650,666,-6.60024,-1.71232
-567,358,-6.79169,1.01038,-0.0187619,-0.0190139,-0.058381,0.0394932,-0.077269,-0.784319,0.0685786,0.0490853,657,666,-6.79169,-1.01039
-560,358,-6.87006,0.443665,-0.0125453,-0.0199549,-0.047123,0.0310183,-0.0635185,-0.746169,0.0556456,0.0488318,664,666,-6.87003,-0.443651
-553,358,-6.7887,0.0745239,-0.00775818,-0.0193413,-0.0369523,0.0238537,-0.0509532,-0.707665,0.0441243,0.0456908,671,666,-6.78867,-0.0745217
-546,358,-6.86322,-0.23999,-0.00409303,-0.0177749,-0.0279069,0.0177992,-0.0396671,-0.665201,0.0339695,0.0464934,678,666,-6.86319,0.239973
-539,358,-6.79675,-0.779724,-0.00136138,-0.0156513,-0.0201161,0.012841,-0.0298536,-0.614755,0.0252937,0.0455669,685,666,-6.79673,0.779722
-532,358,-6.75592,-1.13074,0.000445489,-0.0134024,-0.0137045,0.00887586,-0.0218328,-0.551486,0.0182481,0.0432211,692,666,-6.7559,1.13074
-525,358,-6.47125,-1.3125,0.00160795,-0.0112473,-0.00847544,0.0058174,-0.0154568,-0.460976,0.012696,0.0330922,699,666,-6.47125,1.31248
-518,358,-6.38391,-1.34772,0.0023288,-0.00922481,-0.00446873,0.00385549,-0.0107515,-0.329206,0.00874101,0.0294398,706,666,-6.38394,1.34771
-511,358,-6.47498,-1.69604,0.00242654,-0.00740787,-0.00164484,0.00269435,-0.00767568,-0.161403,0.00621312,0.0153809,713,666,-6.47495,1.69602
-504,358,-6.48004,-1.98602,0.00241144,-0.00509543,-0.000299399,0.00242336,-0.00510735,-0.0397991,0.00443895,0.0111607,720,666,-6.48005,1.986
-497,358,-6.4729,-2.2818,0.00223925,-0.00334788,0.000105742,0.00224125,-0.00334988,0.018917,0.00324913,0.0110701,727,666,-6.47288,2.28179
-490,358,-6.46826,-2.56067,0.00206243,-0.00205276,0.000100279,0.00206487,-0.00205521,0.0243488,0.00237873,0.0105799,734,666,-6.46827,2.56068
-483,358,-6.4931,-2.82697,0.00210738,-0.00078147,-0.000277156,0.00213373,-0.00080782,-0.0947878,0.00175487,0.0097231,741,666,-6.49307,2.82695
-476,358,-6.48029,-3.08105,0.00243768,0.000285228,-0.000942928,0.00279232,-6.94119e-05,-0.359739,0.00188511,0.0110218,748,666,-6.48027,3.08103
-469,358,-6.48181,-3.36285,0.00305988,0.00139103,-0.00189664,0.00429753,0.000153382,-0.578166,0.00281529,0.0142636,755,666,-6.48183,3.36286
-462,358,-6.4964,-3.66492,0.00397101,0.00156343,-0.00252908,0.00556817,-3.37332e-05,-0.563274,0.00372341,0.0165424,762,666,-6.49638,3.6649
-455,358,-6.44739,-3.97406,0.00484664,0.000883767,-0.00213282,0.00577639,-4.59799e-05,-0.411087,0.00386634,0.0240076,769,666,-6.44739,3.97409
-448,358,-6.30127,-4.45941,0,0,0,0,0,0,0,-1,776,666,-6.30124,4.45944
-441,358,-5.56293,-3.98041,0,0,0,0,0,0,0,-1,783,666,-5.56291,3.98043
-434,358,-5.21558,-4.43127,0,0,0,0,0,0,0,-1,790,666,-5.21559,4.43125
-427,358,-3.56189,-3.15729,0,0,0,0,0,0,0,-1,797,666,-3.56192,3.15729
-420,358,0.200195,1.08234,0,0,0,0,0,0,0,-1,804,666,0.200174,-1.08231
-413,358,0.0325317,0.161072,0,0,0,0,0,0,0,-1,811,666,0.0325501,-0.161098
-406,358,-3.85846,0.753113,0,0,0,0,0,0,0,-1,818,666,-3.85846,-0.753129
-399,358,-1.31213,0.190735,0,0,0,0,0,0,0,-1,825,666,-1.31215,-0.190763
-392,358,-3.73914,-0.832214,0,0,0,0,0,0,0,-1,832,666,-3.73915,0.832202
-385,358,-5.95178,-1.69141,0,0,0,0,0,0,0,-1,839,666,-5.9518,1.69143
-378,358,0,0,0,0,0,0,0,0,0,-1,846,666,0,0
-371,358,0,0,0,0,0,0,0,0,0,-1,853,666,0,0
-364,358,0,0,0,0,0,0,0,0,0,-1,860,666,0,0
-357,358,0,0,0,0,0,0,0,0,0,-1,867,666,0,0
-350,358,0,0,0,0,0,0,0,0,0,-1,874,666,0,0
-343,358,0,0,0,0,0,0,0,0,0,-1,881,666,0,0
-336,358,0,0,0,0,0,0,0,0,0,-1,888,666,0,0
-329,358,0,0,0,0,0,0,0,0,0,-1,895,666,0,0
-322,358,0,0,0,0,0,0,0,0,0,-1,902,666,0,0
-315,358,0,0,0,0,0,0,0,0,0,-1,909,666,0,0
-308,358,0,0,0,0,0,0,0,0,0,-1,916,666,0,0
-301,358,0,0,0,0,0,0,0,0,0,-1,923,666,0,0
-294,358,0,0,0,0,0,0,0,0,0,-1,930,666,0,0
-287,358,0,0,0,0,0,0,0,0,0,-1,937,666,0,0
-280,358,0,0,0,0,0,0,0,0,0,-1,944,666,0,0
-273,358,0,0,0,0,0,0,0,0,0,-1,951,666,0,0
-266,358,0,0,0,0,0,0,0,0,0,-1,958,666,0,0
-259,358,0,0,0,0,0,0,0,0,0,-1,965,666,0,0
-252,358,0,0,0,0,0,0,0,0,0,-1,972,666,0,0
-245,358,0,0,0,0,0,0,0,0,0,-1,979,666,0,0
-238,358,0,0,0,0,0,0,0,0,0,-1,986,666,0,0
-231,358,0,0,0,0,0,0,0,0,0,-1,993,666,0,0
-224,358,0,0,0,0,0,0,0,0,0,-1,1000,666,0,0
-217,358,0,0,0,0,0,0,0,0,0,-1,1007,666,0,0
-210,358,0,0,0,0,0,0,0,0,0,-1,1014,666,0,0
-203,358,0,0,0,0,0,0,0,0,0,-1,1021,666,0,0
-196,358,0,0,0,0,0,0,0,0,0,-1,1028,666,0,0
-189,358,0,0,0,0,0,0,0,0,0,-1,1035,666,0,0
-182,358,0,0,0,0,0,0,0,0,0,-1,1042,666,0,0
-175,358,0,0,0,0,0,0,0,0,0,-1,1049,666,0,0
-168,358,0,0,0,0,0,0,0,0,0,-1,1056,666,0,0
-161,358,0,0,0,0,0,0,0,0,0,-1,1063,666,0,0
-154,358,0,0,0,0,0,0,0,0,0,-1,1070,666,0,0
-147,358,0,0,0,0,0,0,0,0,0,-1,1077,666,0,0
-140,358,0,0,0,0,0,0,0,0,0,-1,1084,666,0,0
-133,358,0,0,0,0,0,0,0,0,0,-1,1091,666,0,0
-126,358,0,0,0,0,0,0,0,0,0,-1,1098,666,0,0
-119,358,0,0,0,0,0,0,0,0,0,-1,1105,666,0,0
-112,358,0,0,0,0,0,0,0,0,0,-1,1112,666,0,0
-105,358,0,0,0,0,0,0,0,0,0,-1,1119,666,0,0
-98,358,0,0,0,0,0,0,0,0,0,-1,1126,666,0,0
-91,358,0,0,0,0,0,0,0,0,0,-1,1133,666,0,0
-84,358,0,0,0,0,0,0,0,0,0,-1,1140,666,0,0
-77,358,0,0,0,0,0,0,0,0,0,-1,1147,666,0,0
-70,358,0,0,0,0,0,0,0,0,0,-1,1154,666,0,0
-63,358,0,0,0,0,0,0,0,0,0,-1,1161,666,0,0
-56,358,0,0,0,0,0,0,0,0,0,-1,1168,666,0,0
-49,358,0,0,0,0,0,0,0,0,0,-1,1175,666,0,0
-42,358,0,0,0,0,0,0,0,0,0,-1,1182,666,0,0
-35,358,0,0,0,0,0,0,0,0,0,-1,1189,666,0,0
-28,358,0,0,0,0,0,0,0,0,0,-1,1196,666,0,0
-21,358,0,0,0,0,0,0,0,0,0,-1,1203,666,0,0
-14,358,0,0,0,0,0,0,0,0,0,-1,1210,666,0,0
-7,358,0,0,0,0,0,0,0,0,0,-1,1217,666,0,0
0,358,0,0,0,0,0,0,0,0,0,-1,1224,666,0,0
7,358,0,0,0,0,0,0,0,0,0,-1,1231,666,0,0
14,358,0,0,0,0,0,0,0,0,0,-1,1238,666,0,0
21,358,0,0,0,0,0,0,0,0,0,-1,1245,666,0,0
28,358,0,0,0,0,0,0,0,0,0,-1,1252,666,0,0
35,358,0,0,0,0,0,0,0,0,0,-1,1259,666,0,0
42,358,0,0,0,0,0,0,0,0,0,-1,1266,666,0,0
49,358,0,0,0,0,0,0,0,0,0,-1,1273,666,0,0
56,358,0,0,0,0,0,0,0,0,0,-1,1280,666,0,0
63,358,0,0,0,0,0,0,0,0,0,-1,1287,666,0,0
70,358,0,0,0,0,0,0,0,0,0,-1,1294,666,0,0
77,358,0,0,0,0,0,0,0,0,0,-1,1301,666,0,0
84,358,0,0,0,0,0,0,0,0,0,-1,1308,666,0,0
91,358,0,0,0,0,0,0,0,0,0,-1,1315,666,0,0
98,358,0,0,0,0,0,0,0,0,0,-1,1322,666,0,0
105,358,0,0,0,0,0,0,0,0,0,-1,1329,666,0,0
112,358,0,0,0,0,0,0,0,0,0,-1,1336,666,0,0
119,358,0,0,0,0,0,0,0,0,0,-1,1343,666,0,0
126,358,0,0,0,0,0,0,0,0,0,-1,1350,666,0,0
133,358,0,0,0,0,0,0,0,0,0,-1,1357,666,0,0
140,358,0,0,0,0,0,0,0,0,0,-1,1364,666,0,0
147,358,0,0,0,0,0,0,0,0,0,-1,1371,666,0,0
154,358,0,0,0,0,0,0,0,0,0,-1,1378,666,0,0
161,358,0,0,0,0,0,0,0,0,0,-1,1385,666,0,0
168,358,0,0,0,0,0,0,0,0,0,-1,1392,666,0,0
175,358,0,0,0,0,0,0,0,0,0,-1,1399,666,0,0
182,358,0,0,0,0,0,0,0,0,0,-1,1406,666,0,0
189,358,0,0,0,0,0,0,0,0,0,-1,1413,666,0,0
196,358,0,0,0,0,0,0,0,0,0,-1,1420,666,0,0
203,358,0,0,0,0,0,0,0,0,0,-1,1427,666,0,0
210,358,0,0,0,0,0,0,0,0,0,-1,1434,666,0,0
217,358,0,0,0,0,0,0,0,0,0,-1,1441,666,0,0
224,358,0,0,0,0,0,0,0,0,0,-1,1448,666,0,0
231,358,0,0,0,0,0,0,0,0,0,-1,1455,666,0,0
238,358,0,0,0,0,0,0,0,0,0,-1,1462,666,0,0
245,358,0,0,0,0,0,0,0,0,0,-1,1469,666,0,0
252,358,0,0,0,0,0,0,0,0,0,-1,1476,666,0,0
259,358,0,0,0,0,0,0,0,0,0,-1,1483,666,0,0
266,358,0,0,0,0,0,0,0,0,0,-1,1490,666,0,0
273,358,0,0,0,0,0,0,0,0,0,-1,1497,666,0,0
280,358,0,0,0,0,0,0,0,0,0,-1,1504,666,0,0
287,358,0,0,0,0,0,0,0,0,0,-1,1511,666,0,0
294,358,0,0,0,0,0,0,0,0,0,-1,1518,666,0,0
301,358,0,0,0,0,0,0,0,0,0,-1,1525,666,0,0
308,358,0,0,0,0,0,0,0,0,0,-1,1532,666,0,0
315,358,0,0,0,0,0,0,0,0,0,-1,1539,666,0,0
322,358,0,0,0,0,0,0,0,0,0,-1,1546,666,0,0
329,358,0,0,0,0,0,0,0,0,0,-1,1553,666,0,0
336,358,0,0,0,0,0,0,0,0,0,-1,1560,666,0,0
343,358,0,0,0,0,0,0,0,0,0,-1,1567,666,0,0
350,358,0,0,0,0,0,0,0,0,0,-1,1574,666,0,0
357,358,0,0,0,0,0,0,0,0,0,-1,1581,666,0,0
364,358,0,0,0,0,0,0,0,0,0,-1,1588,666,0,0
371,358,0,0,0,0,0,0,0,0,0,-1,1595,666,0,0
378,358,0,0,0,0,0,0,0,0,0,-1,1602,666,0,0
385,358,0,0,0,0,0,0,0,0,0,-1,1609,666,0,0
392,358,0,0,0,0,0,0,0,0,0,-1,1616,666,0,0
399,358,0,0,0,0,0,0,0,0,0,-1,1623,666,0,0
406,358,0,0,0,0,0,0,0,0,0,-1,1630,666,0,0
413,358,0,0,0,0,0,0,0,0,0,-1,1637,666,0,0
420,358,0,0,0,0,0,0,0,0,0,-1,1644,666,0,0
427,358,0,0,0,0,0,0,0,0,0,-1,1651,666,0,0
434,358,0,0,0,0,0,0,0,0,0,-1,1658,666,0,0
441,358,0,0,0,0,0,0,0,0,0,-1,1665,666,0,0
448,358,0,0,0,0,0,0,0,0,0,-1,1672,666,0,0
455,358,0,0,0,0,0,0,0,0,0,-1,1679,666,0,0
462,358,0,0,0,0,0,0,0,0,0,-1,1686,666,0,0
469,358,0,0,0,0,0,0,0,0,0,-1,1693,666,0,0
476,358,0,0,0,0,0,0,0,0,0,-1,1700,666,0,0
483,358,0,0,0,0,0,0,0,0,0,-1,1707,666,0,0
490,358,0,0,0,0,0,0,0,0,0,-1,1714,666,0,0
497,358,8.57239,1.1322,0,0,0,0,0,0,0,-1,1721,666,8.57234,-1.13219
504,358,10.5972,0.832947,0,0,0,0,0,0,0,-1,1728,666,10.5972,-0.832968
511,358,10.6873,0.868469,0,0,0,0,0,0,0,-1,1735,666,10.6872,-0.868484
518,358,16.5884,2.34894,0,0,0,0,0,0,0,-1,1742,666,16.5884,-2.34894
525,358,15.7626,3.65344,0,0,0,0,0,0,0,-1,1749,666,15.7626,-3.65342
532,358,14.9368,4.95789,0,0,0,0,0,0,0,-1,1756,666,14.9367,-4.9579
539,358,15.1597,3.42694,0,0,0,0,0,0,0,-1,1763,666,15.1597,-3.42692
546,358,12.3792,1.53558,0,0,0,0,0,0,0,-1,1770,666,12.3792,-1.5356
553,358,11.6584,1.26172,0,0,0,0,0,0,0,-1,1777,666,11.6585,-1.26175
560,358,10.8234,1.43042,0,0,0,0,0,0,0,-1,1784,666,10.8233,-1.43041
567,358,10.1333,-0.955139,0,0,0,0,0,0,0,-1,1791,666,10.1333,0.955132
574,358,13.1351,-2.5553,0,0,0,0,0,0,0,-1,1798,666,13.1352,2.55532
581,358,12.7921,-2.25006,-0.00326375,0.0019495,-0.000496519,0.00199637,-0.00331061,-1.47668,0.00309515,0.0390919,1805,666,12.7921,2.25007
588,358,12.5472,-2.03308,-0.00224106,0.000984721,-0.000571968,0.00108313,-0.00233947,-1.4004,0.00201993,0.0187602,1812,666,12.5472,2.03307
595,358,12.6079,-1.64752,-0.00134035,0.000485065,-0.000445099,0.000587812,-0.0014431,-1.34393,0.00120671,0.0129566,1819,666,12.608,1.64751
602,358,12.5961,-1.31732,-0.00049163,0.000388579,-0.000178035,0.000423225,-0.000526276,-1.37859,0.00054927,0.0123263,1826,666,12.5961,1.31732
609,358,12.5492,-1.04291,0.000101682,0.000545304,0.000105604,0.00056916,7.78256e-05,1.34862,0.000356342,0.0151888,1833,666,12.5492,1.04293
616,358,12.5516,-0.716797,0.000305388,0.000462161,7.57683e-05,0.000492794,0.000274755,1.18659,0.000285142,0.0148095,1840,666,12.5516,0.71682
623,358,12.6036,-0.40918,0.000189684,0.000717028,3.76846e-05,0.000719708,0.000187005,1.49982,0.000431206,0.0137761,1847,666,12.6037,0.409156
630,358,12.6077,-0.120239,-0.000358918,0.000822545,-0.000174294,0.000847721,-0.000384094,-1.42734,0.000727786,0.0172339,1854,666,12.6077,0.120248
637,358,12.6,0.16272,-0.00141202,0.000729943,-0.000738104,0.000959653,-0.00164173,-1.26908,0.00151902,0.0230416,1861,666,12.6,-0.162694
644,358,12.6038,0.463806,-0.00310385,0.000413215,-0.00167446,0.00108291,-0.00377354,-1.19034,0.00294382,0.0182547,1868,666,12.6037,-0.463822
651,358,12.6653,0.829956,-0.00530338,-0.000164963,-0.00297239,0.00119469,-0.00666303,-1.14178,0.00488915,0.0214204,1875,666,12.6653,-0.829968
658,358,12.3777,1.03827,-0.00818225,-0.00112989,-0.0047476,0.00125779,-0.0105699,-1.10481,0.00750111,0.037821,1882,666,12.3777,-1.03825
665,358,11.9976,1.09717,-0.0117581,-0.00240968,-0.00690136,0.00125139,-0.0154192,-1.08306,0.010721,0.0472321,1889,666,11.9976,-1.09719
672,358,11.7698,1.34961,0,0,0,0,0,0,0,-1,1896,666,11.7698,-1.34958
679,358,12.1294,2.19702,0,0,0,0,0,0,0,-1,1903,666,12.1294,-2.19703
686,358,11.9557,2.2002,0,0,0,0,0,0,0,-1,1910,666,11.9557,-2.20021
693,358,13.188,2.52203,0,0,0,0,0,0,0,-1,1917,666,13.188,-2.52202
700,358,0,0,0,0,0,0,0,0,0,-1,1924,666,0,0
707,358,0,0,0,0,0,0,0,0,0,-1,1931,666,0,0
714,358,0,0,0,0,0,0,0,0,0,-1,1938,666,0,0
721,358,0,0,0,0,0,0,0,0,0,-1,1945,666,0,0
728,358,0,0,0,0,0,0,0,0,0,-1,1952,666,0,0
735,358,0,0,0,0,0,0,0,0,0,-1,1959,666,0,0
742,358,0,0,0,0,0,0,0,0,0,-1,1966,666,0,0
749,358,0,0,0,0,0,0,0,0,0,-1,1973,666,0,0
756,358,0,0,0,0,0,0,0,0,0,-1,1980,666,0,0
763,358,0,0,0,0,0,0,0,0,0,-1,1987,666,0,0
770,358,0,0,0,0,0,0,0,0,0,-1,1994,666,0,0
777,358,0,0,0,0,0,0,0,0,0,-1,2001,666,0,0
784,358,0,0,0,0,0,0,0,0,0,-1,2008,666,0,0
791,358,0,0,0,0,0,0,0,0,0,-1,2015,666,0,0
798,358,0,0,0,0,0,0,0,0,0,-1,2022,666,0,0
805,358,0,0,0,0,0,0,0,0,0,-1,2029,666,0,0
812,358,0,0,0,0,0,0,0,0,0,-1,2036,666,0,0
-700,351,0,0,0,0,0,0,0,0,0,-1,524,673,0,0
-693,351,0,0,0,0,0,0,0,0,0,-1,531,673,0,0
-686,351,0,0,0,0,0,0,0,0,0,-1,538,673,0,0
-679,351,0,0,0,0,0,0,0,0,0,-1,545,673,0,0
-672,351,0,0,0,0,0,0,0,0,0,-1,552,673,0,0
-665,351,0,0,0,0,0,0,0,0,0,-1,559,673,0,0
-658,351,0,0,0,0,0,0,0,0,0,-1,566,673,0,0
-651,351,0,0,0,0,0,0,0,0,0,-1,573,673,0,0
-644,351,0,0,0,0,0,0,0,0,0,-1,580,673,0,0
-637,351,0,0,0,0,0,0,0,0,0,-1,587,673,0,0
-630,351,0,0,0,0,0,0,0,0,0,-1,594,673,0,0
-623,351,0,0,0,0,0,0,0,0,0,-1,601,673,0,0
-616,351,0,0,0,0,0,0,0,0,0,-1,608,673,0,0
-609,351,0,0,0,0,0,0,0,0,0,-1,615,673,0,0
-602,351,0,0,0,0,0,0,0,0,0,-1,622,673,0,0
-595,351,0,0,0,0,0,0,0,0,0,-1,629,673,0,0
-588,351,0,0,0,0,0,0,0,0,0,-1,636,673,0,0
-581,351,-6.02448,2.47565,0,0,0,0,0,0,0,-1,643,673,-6.0245,-2.47562
-574,351,-6.27118,1.76733,0,0,0,0,0,0,0,-1,650,673,-6.27117,-1.76734
-567,351,-6.62561,1.36572,0,0,0,0,0,0,0,-1,657,673,-6.62559,-1.36575
-560,351,-6.69965,0.774414,-0.0132881,-0.014881,-0.0422802,0.0282031,-0.0563722,-0.77598,0.0497242,0.0454433,664,673,-6.69967,-0.774409
-553,351,-6.90619,0.0968628,-0.00864666,-0.014251,-0.0332729,0.0219418,-0.0448395,-0.743389,0.0393044,0.0427639,671,673,-6.90616,-0.0968914
-546,351,-6.9519,-0.250244,-0.00509919,-0.0128734,-0.0252792,0.0165901,-0.0345626,-0.709113,0.0301345,0.0428853,678,673,-6.95192,0.250272
-539,351,-6.78894,-0.419495,-0.0024792,-0.0111252,-0.0184398,0.0121376,-0.025742,-0.670258,0.022335,0.0432313,685,673,-6.78892,0.419464
-532,351,-6.68384,-0.84845,-0.000679517,-0.00934475,-0.0128611,0.00855911,-0.0185834,-0.622929,0.016023,0.0317211,692,673,-6.68384,0.848444
-525,351,-6.73822,-1.20679,0.000560565,-0.00766905,-0.00829484,0.00570513,-0.0128136,-0.555149,0.0109512,0.0220629,699,673,-6.73821,1.20676
-518,351,-6.7746,-1.39404,0.00142149,-0.00616383,-0.00483583,0.00377452,-0.00851686,-0.452856,0.00727037,0.0126244,706,673,-6.7746,1.39402
-511,351,-6.75641,-1.67676,0.00175198,-0.00492495,-0.00227365,0.00245267,-0.00562565,-0.298946,0.00478244,0.0111872,713,673,-6.75642,1.67673
-504,351,-6.77289,-1.98413,0.00202973,-0.00317668,-0.000979474,0.0022079,-0.00335485,-0.179936,0.00323433,0.0104427,720,673,-6.7729,1.9841
-497,351,-6.763,-2.2597,0.00211196,-0.00196233,-0.000474927,0.00216658,-0.00201696,-0.114521,0.00241588,0.0104572,727,673,-6.76297,2.25971
-490,351,-6.7605,-2.53064,0.00216737,-0.00110622,-0.000356346,0.00220571,-0.00114456,-0.107182,0.00196636,0.00977926,734,673,-6.76047,2.53064
-483,351,-6.77185,-2.80676,0.00243162,-0.000302633,-0.000466402,0.00250899,-0.000380001,-0.164387,0.00181265,0.0113156,741,673,-6.77182,2.80675
-476,351,-6.78375,-3.07385,0.00295011,0.000369641,-0.000861577,0.00321133,0.000108418,-0.294382,0.00210568,0.0109326,748,673,-6.78373,3.07385
-469,351,-6.78229,-3.34088,0.0037892,0.00135491,-0.00154934,0.00454231,0.000601804,-0.452453,0.00284887,0.013453,755,673,-6.78227,3.34086
-462,351,-6.76642,-3.6701,0.00484368,0.0011419,-0.00162061,0.00545291,0.000532675,-0.359581,0.00347137,0.0200804,762,673,-6.76644,3.67009
-455,351,-6.73676,-4.02155,0,0,0,0,0,0,0,-1,769,673,-6.73677,4.02153
-448,351,-6.00604,-3.9574,0,0,0,0,0,0,0,-1,776,673,-6.00607,3.95739
-441,351,-4.31567,-2.3009,0,0,0,0,0,0,0,-1,783,673,-4.31565,2.30089
-434,351,-3.81708,-2.28003,0,0,0,0,0,0,0,-1,790,673,-3.81706,2.28006
-427,351,-2.05157,-2.7785,0,0,0,0,0,0,0,-1,797,673,-2.05157,2.77848
-420,351,-1.06989,-2.43665,0,0,0,0,0,0,0,-1,804,673,-1.06991,2.43663
-413,351,-0.392334,-2.06671,0,0,0,0,0,0,0,-1,811,673,-0.392363,2.06672
-406,351,-1.86316,-2.58105,0,0,0,0,0,0,0,-1,818,673,-1.86313,2.58106
-399,351,1.00952,-1.53455,0,0,0,0,0,0,0,-1,825,673,1.00954,1.53457
-392,351,-1.02197,0.877136,0,0,0,0,0,0,0,-1,832,673,-1.02195,-0.877143
-385,351,-1.47205,1.04437,0,0,0,0,0,0,0,-1,839,673,-1.47207,-1.04435
-378,351,0,0,0,0,0,0,0,0,0,-1,846,673,0,0
-371,351,0,0,0,0,0,0,0,0,0,-1,853,673,0,0
-364,351,0,0,0,0,0,0,0,0,0,-1,860,673,0,0
-357,351,0,0,0,0,0,0,0,0,0,-1,867,673,0,0
-350,351,0,0,0,0,0,0,0,0,0,-1,874,673,0,0
-343,351,0,0,0,0,0,0,0,0,0,-1,881,673,0,0
-336,351,0,0,0,0,0,0,0,0,0,-1,888,673,0,0
-329,351,0,0,0,0,0,0,0,0,0,-1,895,673,0,0
-322,351,0,0,0,0,0,0,0,0,0,-1,902,673,0,0
-315,351,0,0,0,0,0,0,0,0,0,-1,909,673,0,0
-308,351,0,0,0,0,0,0,0,0,0,-1,916,673,0,0
-301,351,0,0,0,0,0,0,0,0,0,-1,923,673,0,0
-294,351,0,0,0,0,0,0,0,0,0,-1,930,673,0,0
-287,351,0,0,0,0,0,0,0,0,0,-1,937,673,0,0
-280,351,0,0,0,0,0,0,0,0,0,-1,944,673,0,0
-273,351,0,0,0,0,0,0,0,0,0,-1,951,673,0,0
-266,351,0,0,0,0,0,0,0,0,0,-1,958,673,0,0
-259,351,0,0,0,0,0,0,0,0,0,-1,965,673,0,0
-252,351,0,0,0,0,0,0,0,0,0,-1,972,673,0,0
-245,351,0,0,0,0,0,0,0,0,0,-1,979,673,0,0
-238,351,0,0,0,0,0,0,0,0,0,-1,986,673,0,0
-231,351,0,0,0,0,0,0,0,0,0,-1,993,673,0,0
-224,351,0,0,0,0,0,0,0,0,0,-1,1000,673,0,0
-217,351,0,0,0,0,0,0,0,0,0,-1,1007,673,0,0
-210,351,0,0,0,0,0,0,0,0,0,-1,1014,673,0,0
-203,351,0,0,0,0,0,0,0,0,0,-1,1021,673,0,0
-196,351,0,0,0,0,0,0,0,0,0,-1,1028,673,0,0
-189,351,0,0,0,0,0,0,0,0,0,-1,1035,673,0,0
-182,351,0,0,0,0,0,0,0,0,0,-1,1042,673,0,0
-175,351,0,0,0,0,0,0,0,0,0,-1,1049,673,0,0
-168,351,0,0,0,0,0,0,0,0,0,-1,1056,673,0,0
-161,351,0,0,0,0,0,0,0,0,0,-1,1063,673,0,0
-154,351,0,0,0,0,0,0,0,0,0,-1,1070,673,0,0
-147,351,0,0,0,0,0,0,0,0,0,-1,1077,673,0,0
-140,351,0,0,0,0,0,0,0,0,0,-1,1084,673,0,0
-133,351,0,0,0,0,0,0,0,0,0,-1,1091,673,0,0
-126,351,0,0,0,0,0,0,0,0,0,-1,1098,673,0,0
-119,351,0,0,0,0,0,0,0,0,0,-1,1105,673,0,0
-112,351,0,0,0,0,0,0,0,0,0,-1,1112,673,0,0
-105,351,0,0,0,0,0,0,0,0,0,-1,1119,673,0,0
-98,351,0,0,0,0,0,0,0,0,0,-1,1126,673,0,0
-91,351,0,0,0,0,0,0,0,0,0,-1,1133,673,0,0
-84,351,0,0,0,0,0,0,0,0,0,-1,1140,673,0,0
-77,351,0,0,0,0,0,0,0,0,0,-1,1147,673,0,0
-70,351,0,0,0,0,0,0,0,0,0,-1,1154,673,0,0
-63,351,0,0,0,0,0,0,0,0,0,-1,1161,673,0,0
-56,351,0,0,0,0,0,0,0,0,0,-1,1168,673,0,0
-49,351,0,0,0,0,0,0,0,0,0,-1,1175,673,0,0
-42,351,0,0,0,0,0,0,0,0,0,-1,1182,673,0,0
-35,351,0,0,0,0,0,0,0,0,0,-1,1189,673,0,0
-28,351,0,0,0,0,0,0,0,0,0,-1,1196,673,0,0
-21,351,0,0,0,0,0,0,0,0,0,-1,1203,673,0,0
-14,351,0,0,0,0,0,0,0,0,0,-1,1210,673,0,0
-7,351,0,0,0,0,0,0,0,0,0,-1,1217,673,0,0
0,351,0,0,0,0,0,0,0,0,0,-1,1224,673,0,0
7,351,0,0,0,0,0,0,0,0,0,-1,1231,673,0,0
14,351,0,0,0,0,0,0,0,0,0,-1,1238,673,0,0
21,351,0,0,0,0,0,0,0,0,0,-1,1245,673,0,0
28,351,0,0,0,0,0,0,0,0,0,-1,1252,673,0,0
35,351,0,0,0,0,0,0,0,0,0,-1,1259,673,0,0
42,351,0,0,0,0,0,0,0,0,0,-1,1266,673,0,0
49,351,0,0,0,0,0,0,0,0,0,-1,1273,673,0,0
56,351,0,0,0,0,0,0,0,0,0,-1,1280,673,0,0
63,351,0,0,0,0,0,0,0,0,0,-1,1287,673,0,0
70,351,0,0,0,0,0,0,0,0,0,-1,1294,673,0,0
77,351,0,0,0,0,0,0,0,0,0,-1,1301,673,0,0
84,351,0,0,0,0,0,0,0,0,0,-1,1308,673,0,0
91,351,0,0,0,0,0,0,0,0,0,-1,1315,673,0,0
98,351,0,0,0,0,0,0,0,0,0,-1,1322,673,0,0
105,351,0,0,0,0,0,0,0,0,0,-1,1329,673,0,0
112,351,0,0,0,0,0,0,0,0,0,-1,1336,673,0,0
119,351,0,0,0,0,0,0,0,0,0,-1,1343,673,0,0
126,351,0,0,0,0,0,0,0,0,0,-1,1350,673,0,0
133,351,0,0,0,0,0,0,0,0,0,-1,1357,673,0,0
140,351,0,0,0,0,0,0,0,0,0,-1,1364,673,0,0
147,351,0,0,0,0,0,0,0,0,0,-1,1371,673,0,0
154,351,0,0,0,0,0,0,0,0,0,-1,1378,673,0,0
161,351,0,0,0,0,0,0,0,0,0,-1,1385,673,0,0
168,351,0,0,0,0,0,0,0,0,0,-1,1392,673,0,0
175,351,0,0,0,0,0,0,0,0,0,-1,1399,673,0,0
182,351,0,0,0,0,0,0,0,0,0,-1,1406,673,0,0
189,351,0,0,0,0,0,0,0,0,0,-1,1413,673,0,0
196,351,0,0,0,0,0,0,0,0,0,-1,1420,673,0,0
203,351,0,0,0,0,0,0,0,0,0,-1,1427,673,0,0
210,351,0,0,0,0,0,0,0,0,0,-1,1434,673,0,0
217,351,0,0,0,0,0,0,0,0,0,-1,1441,673,0,0
224,351,0,0,0,0,0,0,0,0,0,-1,1448,673,0,0
231,351,0,0,0,0,0,0,0,0,0,-1,1455,673,0,0
238,351,0,0,0,0,0,0,0,0,0,-1,1462,673,0,0
245,351,0,0,0,0,0,0,0,0,0,-1,1469,673,0,0
252,351,0,0,0,0,0,0,0,0,0,-1,1476,673,0,0
259,351,0,0,0,0,0,0,0,0,0,-1,1483,673,0,0
266,351,0,0,0,0,0,0,0,0,0,-1,1490,673,0,0
273,351,0,0,0,0,0,0,0,0,0,-1,1497,673,0,0
280,351,0,0,0,0,0,0,0,0,0,-1,1504,673,0,0
287,351,0,0,0,0,0,0,0,0,0,-1,1511,673,0,0
294,351,0,0,0,0,0,0,0,0,0,-1,1518,673,0,0
301,351,0,0,0,0,0,0,0,0,0,-1,1525,673,0,0
308,351,0,0,0,0,0,0,0,0,0,-1,1532,673,0,0
315,351,0,0,0,0,0,0,0,0,0,-1,1539,673,0,0
322,351,0,0,0,0,0,0,0,0,0,-1,1546,673,0,0
329,351,0,0,0,0,0,0,0,0,0,-1,1553,673,0,0
336,351,0,0,0,0,0,0,0,0,0,-1,1560,673,0,0
343,351,0,0,0,0,0,0,0,0,0,-1,1567,673,0,0
350,351,0,0,0,0,0,0,0,0,0,-1,1574,673,0,0
357,351,0,0,0,0,0,0,0,0,0,-1,1581,673,0,0
364,351,0,0,0,0,0,0,0,0,0,-1,1588,673,0,0
371,351,0,0,0,0,0,0,0,0,0,-1,1595,673,0,0
378,351,0,0,0,0,0,0,0,0,0,-1,1602,673,0,0
385,351,0,0,0,0,0,0,0,0,0,-1,1609,673,0,0
392,351,0,0,0,0,0,0,0,0,0,-1,1616,673,0,0
399,351,0,0,0,0,0,0,0,0,0,-1,1623,673,0,0
406,351,0,0,0,0,0,0,0,0,0,-1,1630,673,0,0
413,351,0,0,0,0,0,0,0,0,0,-1,1637,673,0,0
420,351,0,0,0,0,0,0,0,0,0,-1,1644,673,0,0
427,351,0,0,0,0,0,0,0,0,0,-1,1651,673,0,0
434,351,0,0,0,0,0,0,0,0,0,-1,1658,673,0,0
441,351,0,0,0,0,0,0,0,0,0,-1,1665,673,0,0
448,351,0,0,0,0,0,0,0,0,0,-1,1672,673,0,0
455,351,0,0,0,0,0,0,0,0,0,-1,1679,673,0,0
462,351,0,0,0,0,0,0,0,0,0,-1,1686,673,0,0
469,351,0,0,0,0,0,0,0,0,0,-1,1693,673,0,0
476,351,0,0,0,0,0,0,0,0,0,-1,1700,673,0,0
483,351,0,0,0,0,0,0,0,0,0,-1,1707,673,0,0
490,351,0,0,0,0,0,0,0,0,0,-1,1714,673,0,0
497,351,0,0,0,0,0,0,0,0,0,-1,1721,673,0,0
504,351,10.8842,1.61615,0,0,0,0,0,0,0,-1,1728,673,10.8842,-1.61618
511,351,15.4548,0.0236816,0,0,0,0,0,0,0,-1,1735,673,15.4549,-0.0236664
518,351,16.7448,2.49268,0,0,0,0,0,0,0,-1,1742,673,16.7448,-2.49269
525,351,16.0701,3.43225,0,0,0,0,0,0,0,-1,1749,673,16.07,-3.43227
532,351,16.4181,3.33472,0,0,0,0,0,0,0,-1,1756,673,16.4181,-3.33473
539,351,15.3387,3.54486,0,0,0,0,0,0,0,-1,1763,673,15.3387,-3.54485
546,351,13.9387,4.59357,0,0,0,0,0,0,0,-1,1770,673,13.9388,-4.59359
553,351,12.0682,2.02832,0,0,0,0,0,0,0,-1,1777,673,12.0683,-2.02831
560,351,12.0173,0.55304,0,0,0,0,0,0,0,-1,1784,673,12.0174,-0.553028
567,351,10.7827,0.130188,0,0,0,0,0,0,0,-1,1791,673,10.7827,-0.130183
574,351,13.405,-1.09204,0,0,0,0,0,0,0,-1,1798,673,13.405,1.09207
581,351,12.6663,-1.90515,0,0,0,0,0,0,0,-1,1805,673,12.6662,1.90515
588,351,12.8607,-1.9198,-0.00259622,0.00096165,-0.000529853,0.00103888,-0.00267345,-1.42606,0.00221149,0.0389263,1812,673,12.8608,1.9198
595,351,12.8881,-1.70135,-0.00164687,0.000300997,-0.000489984,0.000417308,-0.00176318,-1.33773,0.00133645,0.0216502,1819,673,12.8881,1.70133
602,351,12.9115,-1.35437,-0.000742466,0.000105019,-0.00031068,0.000206709,-0.000844156,-1.25447,0.000642849,0.0173693,1826,673,12.9115,1.35437
609,351,12.9153,-1.04602,-4.06023e-05,0.000195088,-3.80522e-05,0.000201079,-4.65935e-05,-1.41463,0.000151984,0.0157548,1833,673,12.9152,1.04603
616,351,12.8892,-0.723267,0.000267251,5.86673e-05,-4.7444e-05,0.000277536,4.83829e-05,-0.213467,0.000171191,0.0136149,1840,673,12.8892,0.723269
623,351,12.9077,-0.405457,0.000135427,0.000246053,-0.000130016,0.000332033,4.94469e-05,-0.986515,0.000206853,0.0149648,1847,673,12.9077,0.405432
630,351,12.9104,-0.123169,-0.000394926,0.000288607,-0.000373945,0.000453436,-0.000559755,-1.15563,0.000586039,0.0244379,1854,673,12.9104,0.123178
637,351,12.9218,0.177124,-0.0013414,0.000155052,-0.000907228,0.000582796,-0.00176914,-1.13022,0.0014143,0.0271679,1861,673,12.9217,-0.177103
644,351,12.8982,0.473572,-0.00289062,-0.000129672,-0.00177718,0.000740201,-0.00376049,-1.11561,0.00278669,0.0194812,1868,673,12.8982,-0.473564
651,351,12.9122,0.789246,-0.00485236,-0.000663446,-0.00293044,0.000844075,-0.00635988,-1.09567,0.00454747,0.0145365,1875,673,12.9122,-0.789242
658,351,12.8754,1.12079,-0.00731629,-0.00144956,-0.00441829,0.000920461,-0.00968631,-1.07845,0.0067852,0.0258618,1882,673,12.8753,-1.1208
665,351,12.5638,1.2395,-0.010301,-0.00244082,-0.00616882,0.000943468,-0.0136852,-1.06902,0.00945369,0.0327198,1889,673,12.5638,-1.23947
672,351,12.3646,1.49268,0,0,0,0,0,0,0,-1,1896,673,12.3646,-1.49269
679,351,12.4382,2.06042,0,0,0,0,0,0,0,-1,1903,673,12.4383,-2.06043
686,351,13.0294,2.1189,0,0,0,0,0,0,0,-1,1910,673,13.0294,-2.11892
693,351,13.5187,2.34595,0,0,0,0,0,0,0,-1,1917,673,13.5187,-2.34596
700,351,14.5629,-2.40173,0,0,0,0,0,0,0,-1,1924,673,14.5629,2.40172
707,351,0,0,0,0,0,0,0,0,0,-1,1931,673,0,0
714,351,0,0,0,0,0,0,0,0,0,-1,1938,673,0,0
721,351,0,0,0,0,0,0,0,0,0,-1,1945,673,0,0
728,351,0,0,0,0,0,0,0,0,0,-1,1952,673,0,0
735,351,0,0,0,0,0,0,0,0,0,-1,1959,673,0,0
742,351,0,0,0,0,0,0,0,0,0,-1,1966,673,0,0
749,351,0,0,0,0,0,0,0,0,0,-1,1973,673,0,0
756,351,0,0,0,0,0,0,0,0,0,-1,1980,673,0,0
763,351,0,0,0,0,0,0,0,0,0,-1,1987,673,0,0
770,351,0,0,0,0,0,0,0,0,0,-1,1994,673,0,0
777,351,0,0,0,0,0,0,0,0,0,-1,2001,673,0,0
784,351,0,0,0,0,0,0,0,0,0,-1,2008,673,0,0
791,351,0,0,0,0,0,0,0,0,0,-1,2015,673,0,0
798,351,0,0,0,0,0,0,0,0,0,-1,2022,673,0,0
805,351,0,0,0,0,0,0,0,0,0,-1,2029,673,0,0
812,351,0,0,0,0,0,0,0,0,0,-1,2036,673,0,0
-700,344,0,0,0,0,0,0,0,0,0,-1,524,680,0,0
-693,344,0,0,0,0,0,0,0,0,0,-1,531,680,0,0
-686,344,0,0,0,0,0,0,0,0,0,-1,538,680,0,0
-679,344,0,0,0,0,0,0,0,0,0,-1,545,680,0,0
-672,344,0,0,0,0,0,0,0,0,0,-1,552,680,0,0
-665,344,0,0,0,0,0,0,0,0,0,-1,559,680,0,0
-658,344,0,0,0,0,0,0,0,0,0,-1,566,680,0,0
-651,344,0,0,0,0,0,0,0,0,0,-1,573,680,0,0
-644,344,0,0,0,0,0,0,0,0,0,-1,580,680,0,0
-637,344,0,0,0,0,0,0,0,0,0,-1,587,680,0,0
-630,344,0,0,0,0,0,0,0,0,0,-1,594,680,0,0
-623,344,0,0,0,0,0,0,0,0,0,-1,601,680,0,0
-616,344,0,0,0,0,0,0,0,0,0,-1,608,680,0,0
-609,344,0,0,0,0,0,0,0,0,0,-1,615,680,0,0
-602,344,0,0,0,0,0,0,0,0,0,-1,622,680,0,0
-595,344,0,0,0,0,0,0,0,0,0,-1,629,680,0,0
-588,344,-11.2776,7.35101,0,0,0,0,0,0,0,-1,636,680,-11.2777,-7.35101
-581,344,-5.76501,2.51282,0,0,0,0,0,0,0,-1,643,680,-5.76503,-2.51283
-574,344,-6.38953,2.31018,0,0,0,0,0,0,0,-1,650,680,-6.3895,-2.3102
-567,344,-6.44202,1.72546,0,0,0,0,0,0,0,-1,657,680,-6.44204,-1.72545
-560,344,-6.58264,1.17279,-0.0139933,-0.0111752,-0.0358619,0.0233053,-0.0484739,-0.805034,0.0422824,0.0452301,664,680,-6.58265,-1.17279
-553,344,-7.05884,0.793457,-0.00960249,-0.0102883,-0.0284865,0.0185432,-0.038434,-0.77938,0.0335573,0.0450484,671,680,-7.05886,-0.793453
-546,344,-7.0307,0.0870361,-0.00624235,-0.00887441,-0.0219654,0.0144464,-0.0295631,-0.755477,0.0259037,0.042594,678,680,-7.03068,-0.087058
-539,344,-6.96307,-0.403259,-0.00375194,-0.00731156,-0.0164116,0.010976,-0.0220395,-0.731385,0.019415,0.0363871,685,680,-6.96306,0.403264
-532,344,-6.93726,-0.810791,-0.00197659,-0.00581896,-0.011842,0.00809903,-0.0158946,-0.704981,0.0140943,0.020765,692,680,-6.93723,0.810815
-525,344,-7.06073,-1.0827,-0.0006713,-0.00448574,-0.00803461,0.00567936,-0.0108364,-0.668867,0.00968908,0.0183425,699,680,-7.0607,1.08272
-518,344,-7.07166,-1.40955,0.000342455,-0.00339052,-0.0051483,0.00395217,-0.00700023,-0.611495,0.00640448,0.0182064,706,680,-7.07168,1.40953
-511,344,-7.11133,-1.70673,0.000923586,-0.00267216,-0.00284016,0.00248709,-0.00423566,-0.503226,0.0039249,0.0161621,713,680,-7.11132,1.70672
-504,344,-7.10535,-2.00189,0.00151029,-0.00149324,-0.00157924,0.00218782,-0.00217076,-0.405269,0.00251643,0.017391,720,680,-7.10535,2.00191
-497,344,-7.05505,-2.26135,0.00199962,-0.000947715,-0.000848202,0.00222629,-0.00117438,-0.261132,0.00199444,0.0146692,727,680,-7.05504,2.26133
-490,344,-7.07336,-2.52771,0.00257999,-0.000843188,-0.00035037,0.00261548,-0.000878681,-0.100958,0.00209878,0.0128248,734,680,-7.07335,2.52771
-483,344,-7.05908,-2.80432,0.00347942,-0.000893905,0.000152703,0.00348474,-0.00089923,0.0348604,0.00267379,0.0134947,741,680,-7.05907,2.8043
-476,344,-7.05328,-3.07568,0.0047203,-0.00118888,0.000546902,0.00477049,-0.00123907,0.0915155,0.00366387,0.0142578,748,680,-7.05326,3.0757
-469,344,-7.06073,-3.37665,0.00648925,-0.00125439,0.000938116,0.00660128,-0.00136641,0.118856,0.00491999,0.0127102,755,680,-7.06075,3.37665
-462,344,-7.04675,-3.72791,0.008551,-0.00256276,0.00220491,0.00897246,-0.00298422,0.188867,0.00718599,0.0272631,762,680,-7.04673,3.7279
-455,344,-6.94531,-4.0144,0,0,0,0,0,0,0,-1,769,680,-6.94529,4.01442
-448,344,-5.67657,-2.72864,0,0,0,0,0,0,0,-1,776,680,-5.6766,2.72863
-441,344,-5.09229,-2.34167,0,0,0,0,0,0,0,-1,783,680,-5.09229,2.34168
-434,344,-4.28778,-2.08807,0,0,0,0,0,0,0,-1,790,680,-4.28778,2.08809
-427,344,-3.06506,-1.45404,0,0,0,0,0,0,0,-1,797,680,-3.06505,1.45402
-420,344,-1.96582,-1.57574,0,0,0,0,0,0,0,-1,804,680,-1.96579,1.57574
-413,344,-0.817993,-1.4751,0,0,0,0,0,0,0,-1,811,680,-0.818017,1.47511
-406,344,-0.00714111,-1.25189,0,0,0,0,0,0,0,-1,818,680,-0.00714956,1.25191
-399,344,0.240051,-1.75769,0,0,0,0,0,0,0,-1,825,680,0.240079,1.75767
-392,344,1.11353,-2.05615,0,0,0,0,0,0,0,-1,832,680,1.11351,2.05616
-385,344,0,0,0,0,0,0,0,0,0,-1,839,680,0,0
-378,344,0,0,0,0,0,0,0,0,0,-1,846,680,0,0
-371,344,0,0,0,0,0,0,0,0,0,-1,853,680,0,0
-364,344,0,0,0,0,0,0,0,0,0,-1,860,680,0,0
-357,344,0,0,0,0,0,0,0,0,0,-1,867,680,0,0
-350,344,0,0,0,0,0,0,0,0,0,-1,874,680,0,0
-343,344,0,0,0,0,0,0,0,0,0,-1,881,680,0,0
-336,344,0,0,0,0,0,0,0,0,0,-1,888,680,0,0
-329,344,0,0,0,0,0,0,0,0,0,-1,895,680,0,0
-322,344,0,0,0,0,0,0,0,0,0,-1,902,680,0,0
-315,344,0,0,0,0,0,0,0,0,0,-1,909,680,0,0
-308,344,0,0,0,0,0,0,0,0,0,-1,916,680,0,0
-301,344,0,0,0,0,0,0,0,0,0,-1,923,680,0,0
-294,344,0,0,0,0,0,0,0,0,0,-1,930,680,0,0
-287,344,0,0,0,0,0,0,0,0,0,-1,937,680,0,0
-280,344,0,0,0,0,0,0,0,0,0,-1,944,680,0,0
-273,344,0,0,0,0,0,0,0,0,0,-1,951,680,0,0
-266,344,0,0,0,0,0,0,0,0,0,-1,958,680,0,0
-259,344,0,0,0,0,0,0,0,0,0,-1,965,680,0,0
-252,344,0,0,0,0,0,0,0,0,0,-1,972,680,0,0
-245,344,0,0,0,0,0,0,0,0,0,-1,979,680,0,0
-238,344,0,0,0,0,0,0,0,0,0,-1,986,680,0,0
-231,344,0,0,0,0,0,0,0,0,0,-1,993,680,0,0
-224,344,0,0,0,0,0,0,0,0,0,-1,1000,680,0,0
-217,344,0,0,0,0,0,0,0,0,0,-1,1007,680,0,0
-210,344,0,0,0,0,0,0,0,0,0,-1,1014,680,0,0
-203,344,0,0,0,0,0,0,0,0,0,-1,1021,680,0,0
-196,344,0,0,0,0,0,0,0,0,0,-1,1028,680,0,0
-189,344,0,0,0,0,0,0,0,0,0,-1,1035,680,0,0
-182,344,0,0,0,0,0,0,0,0,0,-1,1042,680,0,0
-175,344,0,0,0,0,0,0,0,0,0,-1,1049,680,0,0
-168,344,0,0,0,0,0,0,0,0,0,-1,1056,680,0,0
-161,344,0,0,0,0,0,0,0,0,0,-1,1063,680,0,0
-154,344,0,0,0,0,0,0,0,0,0,-1,1070,680,0,0
-147,344,0,0,0,0,0,0,0,0,0,-1,1077,680,0,0
-140,344,0,0,0,0,0,0,0,0,0,-1,1084,680,0,0
-133,344,0,0,0,0,0,0,0,0,0,-1,1091,680,0,0
-126,344,0,0,0,0,0,0,0,0,0,-1,1098,680,0,0
-119,344,0,0,0,0,0,0,0,0,0,-1,1105,680,0,0
-112,344,0,0,0,0,0,0,0,0,0,-1,1112,680,0,0
-105,344,0,0,0,0,0,0,0,0,0,-1,1119,680,0,0
-98,344,0,0,0,0,0,0,0,0,0,-1,1126,680,0,0
-91,344,0,0,0,0,0,0,0,0,0,-1,1133,680,0,0
-84,344,0,0,0,0,0,0,0,0,0,-1,1140,680,0,0
-77,344,0,0,0,0,0,0,0,0,0,-1,1147,680,0,0
-70,344,0,0,0,0,0,0,0,0,0,-1,1154,680,0,0
-63,344,0,0,0,0,0,0,0,0,0,-1,1161,680,0,0
-56,344,0,0,0,0,0,0,0,0,0,-1,1168,680,0,0
-49,344,0,0,0,0,0,0,0,0,0,-1,1175,680,0,0
-42,344,0,0,0,0,0,0,0,0,0,-1,1182,680,0,0
-35,344,0,0,0,0,0,0,0,0,0,-1,1189,680,0,0
-28,344,0,0,0,0,0,0,0,0,0,-1,1196,680,0,0
-21,344,0,0,0,0,0,0,0,0,0,-1,1203,680,0,0
-14,344,0,0,0,0,0,0,0,0,0,-1,1210,680,0,0
-7,344,0,0,0,0,0,0,0,0,0,-1,1217,680,0,0
0,344,0,0,0,0,0,0,0,0,0,-1,1224,680,0,0
7,344,0,0,0,0,0,0,0,0,0,-1,1231,680,0,0
14,344,0,0,0,0,0,0,0,0,0,-1,1238,680,0,0
21,344,0,0,0,0,0,0,0,0,0,-1,1245,680,0,0
28,344,0,0,0,0,0,0,0,0,0,-1,1252,680,0,0
35,344,0,0,0,0,0,0,0,0,0,-1,1259,680,0,0
42,344,0,0,0,0,0,0,0,0,0,-1,1266,680,0,0
49,344,0,0,0,0,0,0,0,0,0,-1,1273,680,0,0
56,344,0,0,0,0,0,0,0,0,0,-1,1280,680,0,0
63,344,0,0,0,0,0,0,0,0,0,-1,1287,680,0,0
70,344,0,0,0,0,0,0,0,0,0,-1,1294,680,0,0
77,344,0,0,0,0,0,0,0,0,0,-1,1301,680,0,0
84,344,0,0,0,0,0,0,0,0,0,-1,1308,680,0,0
91,344,0,0,0,0,0,0,0,0,0,-1,1315,680,0,0
98,344,0,0,0,0,0,0,0,0,0,-1,1322,680,0,0
105,344,0,0,0,0,0,0,0,0,0,-1,1329,680,0,0
112,344,0,0,0,0,0,0,0,0,0,-1,1336,680,0,0
119,344,0,0,0,0,0,0,0,0,0,-1,1343,680,0,0
126,344,0,0,0,0,0,0,0,0,0,-1,1350,680,0,0
133,344,0,0,0,0,0,0,0,0,0,-1,1357,680,0,0
140,344,0,0,0,0,0,0,0,0,0,-1,1364,680,0,0
147,344,0,0,0,0,0,0,0,0,0,-1,1371,680,0,0
154,344,0,0,0,0,0,0,0,0,0,-1,1378,680,0,0
161,344,0,0,0,0,0,0,0,0,0,-1,1385,680,0,0
168,344,0,0,0,0,0,0,0,0,0,-1,1392,680,0,0
175,344,0,0,0,0,0,0,0,0,0,-1,1399,680,0,0
182,344,0,0,0,0,0,0,0,0,0,-1,1406,680,0,0
189,344,0,0,0,0,0,0,0,0,0,-1,1413,680,0,0
196,344,0,0,0,0,0,0,0,0,0,-1,1420,680,0,0
203,344,0,0,0,0,0,0,0,0,0,-1,1427,680,0,0
210,344,0,0,0,0,0,0,0,0,0,-1,1434,680,0,0
217,344,0,0,0,0,0,0,0,0,0,-1,1441,680,0,0
224,344,0,0,0,0,0,0,0,0,0,-1,1448,680,0,0
231,344,0,0,0,0,0,0,0,0,0,-1,1455,680,0,0
238,344,0,0,0,0,0,0,0,0,0,-1,1462,680,0,0
245,344,0,0,0,0,0,0,0,0,0,-1,1469,680,0,0
252,344,0,0,0,0,0,0,0,0,0,-1,1476,680,0,0
259,344,0,0,0,0,0,0,0,0,0,-1,1483,680,0,0
266,344,0,0,0,0,0,0,0,0,0,-1,1490,680,0,0
273,344,0,0,0,0,0,0,0,0,0,-1,1497,680,0,0
280,344,0,0,0,0,0,0,0,0,0,-1,1504,680,0,0
287,344,0,0,0,0,0,0,0,0,0,-1,1511,680,0,0
294,344,0,0,0,0,0,0,0,0,0,-1,1518,680,0,0
301,344,0,0,0,0,0,0,0,0,0,-1,1525,680,0,0
308,344,0,0,0,0,0,0,0,0,0,-1,1532,680,0,0
315,344,0,0,0,0,0,0,0,0,0,-1,1539,680,0,0
322,344,0,0,0,0,0,0,0,0,0,-1,1546,680,0,0
329,344,0,0,0,0,0,0,0,0,0,-1,1553,680,0,0
336,344,0,0,0,0,0,0,0,0,0,-1,1560,680,0,0
343,344,0,0,0,0,0,0,0,0,0,-1,1567,680,0,0
350,344,0,0,0,0,0,0,0,0,0,-1,1574,680,0,0
357,344,0,0,0,0,0,0,0,0,0,-1,1581,680,0,0
364,344,0,0,0,0,0,0,0,0,0,-1,1588,680,0,0
371,344,0,0,0,0,0,0,0,0,0,-1,1595,680,0,0
378,344,0,0,0,0,0,0,0,0,0,-1,1602,680,0,0
385,344,0,0,0,0,0,0,0,0,0,-1,1609,680,0,0
392,344,0,0,0,0,0,0,0,0,0,-1,1616,680,0,0
399,344,0,0,0,0,0,0,0,0,0,-1,1623,680,0,0
406,344,0,0,0,0,0,0,0,0,0,-1,1630,680,0,0
413,344,0,0,0,0,0,0,0,0,0,-1,1637,680,0,0
420,344,0,0,0,0,0,0,0,0,0,-1,1644,680,0,0
427,344,0,0,0,0,0,0,0,0,0,-1,1651,680,0,0
434,344,0,0,0,0,0,0,0,0,0,-1,1658,680,0,0
441,344,0,0,0,0,0,0,0,0,0,-1,1665,680,0,0
448,344,0,0,0,0,0,0,0,0,0,-1,1672,680,0,0
455,344,0,0,0,0,0,0,0,0,0,-1,1679,680,0,0
462,344,0,0,0,0,0,0,0,0,0,-1,1686,680,0,0
469,344,0,0,0,0,0,0,0,0,0,-1,1693,680,0,0
476,344,0,0,0,0,0,0,0,0,0,-1,1700,680,0,0
483,344,0,0,0,0,0,0,0,0,0,-1,1707,680,0,0
490,344,0,0,0,0,0,0,0,0,0,-1,1714,680,0,0
497,344,0,0,0,0,0,0,0,0,0,-1,1721,680,0,0
504,344,0,0,0,0,0,0,0,0,0,-1,1728,680,0,0
511,344,15.4819,0.452637,0,0,0,0,0,0,0,-1,1735,680,15.4819,-0.452656
518,344,17.1357,2.31207,0,0,0,0,0,0,0,-1,1742,680,17.1358,-2.31207
525,344,16.4807,2.83368,0,0,0,0,0,0,0,-1,1749,680,16.4807,-2.83368
532,344,19.5029,6.32385,0,0,0,0,0,0,0,-1,1756,680,19.503,-6.32388
539,344,15.3691,3.78113,0,0,0,0,0,0,0,-1,1763,680,15.3691,-3.78113
546,344,14.6722,4.30243,0,0,0,0,0,0,0,-1,1770,680,14.6722,-4.30241
553,344,14.8136,4.35681,0,0,0,0,0,0,0,-1,1777,680,14.8136,-4.35679
560,344,11.9363,2.14185,0,0,0,0,0,0,0,-1,1784,680,11.9362,-2.14182
567,344,11.397,0.925842,0,0,0,0,0,0,0,-1,1791,680,11.397,-0.92583
574,344,10.0004,0.504639,0,0,0,0,0,0,0,-1,1798,680,10.0004,-0.504645
581,344,13.6709,-0.969604,0,0,0,0,0,0,0,-1,1805,680,13.6709,0.969629
588,344,13.2889,-1.94446,0,0,0,0,0,0,0,-1,1812,680,13.289,1.94447
595,344,13.0941,-1.73627,0,0,0,0,0,0,0,-1,1819,680,13.0942,1.73629
602,344,13.3175,-1.29346,-0.000655002,-3.82569e-05,-0.000227215,3.64115e-05,-0.000729671,-1.25329,0.000499027,0.0329536,1826,680,13.3175,1.29346
609,344,13.2268,-1.00989,0.000103806,-1.09743e-05,2.3172e-05,0.000108307,-1.54758e-05,0.191873,7.78778e-05,0.0145898,1833,680,13.2268,1.0099
616,344,13.2012,-0.696777,0.000463596,-0.000163817,3.77197e-05,0.000465855,-0.000166076,0.0598322,0.000378283,0.020224,1840,680,13.2012,0.696795
623,344,13.192,-0.405579,0.000262932,-3.4016e-05,-9.96044e-05,0.000293247,-6.43312e-05,-0.295448,0.000220098,0.0186876,1847,680,13.1921,0.405576
630,344,13.1798,-0.129211,-0.000280448,-4.11848e-05,-0.000383864,0.000241258,-0.00056289,-0.936454,0.000476493,0.0249,1854,680,13.1798,0.12921
637,344,13.1888,0.166809,-0.00114636,-0.000198101,-0.000890678,0.000336783,-0.00168124,-1.02998,0.00124832,0.0234251,1861,680,13.1888,-0.166817
644,344,13.2103,0.476563,-0.00253931,-0.000445792,-0.00168488,0.000491008,-0.00347611,-1.06335,0.00249722,0.0153301,1868,680,13.2104,-0.476562
651,344,13.2174,0.786438,-0.00418543,-0.000912236,-0.00266581,0.00057926,-0.00567693,-1.06069,0.00399174,0.0109328,1875,680,13.2174,-0.786436
658,344,13.2062,1.14514,-0.00600832,-0.00146047,-0.00381183,0.000704155,-0.00817295,-1.05434,0.00569787,0.0189199,1882,680,13.2062,-1.14512
665,344,13.105,1.41138,-0.00818605,-0.00213332,-0.00512854,0.00079522,-0.0111146,-1.05195,0.00768852,0.0285378,1889,680,13.105,-1.4114
672,344,13.1426,1.59528,-0.0105958,-0.00292899,-0.00668284,0.000941852,-0.0144666,-1.0458,0.0099732,0.0233231,1896,680,13.1426,-1.59525
679,344,13.3164,1.83789,0,0,0,0,0,0,0,-1,1903,680,13.3164,-1.83787
686,344,13.5959,2.00085,0,0,0,0,0,0,0,-1,1910,680,13.596,-2.00088
693,344,12.4362,-1.42346,0,0,0,0,0,0,0,-1,1917,680,12.4361,1.42348
700,344,17.5396,2.61206,0,0,0,0,0,0,0,-1,1924,680,17.5396,-2.61204
707,344,18.5829,3.29352,0,0,0,0,0,0,0,-1,1931,680,18.5828,-3.2935
714,344,0,0,0,0,0,0,0,0,0,-1,1938,680,0,0
721,344,0,0,0,0,0,0,0,0,0,-1,1945,680,0,0
728,344,0,0,0,0,0,0,0,0,0,-1,1952,680,0,0
735,344,0,0,0,0,0,0,0,0,0,-1,1959,680,0,0
742,344,0,0,0,0,0,0,0,0,0,-1,1966,680,0,0
749,344,0,0,0,0,0,0,0,0,0,-1,1973,680,0,0
756,344,0,0,0,0,0,0,0,0,0,-1,1980,680,0,0
763,344,0,0,0,0,0,0,0,0,0,-1,1987,680,0,0
770,344,0,0,0,0,0,0,0,0,0,-1,1994,680,0,0
777,344,0,0,0,0,0,0,0,0,0,-1,2001,680,0,0
784,344,0,0,0,0,0,0,0,0,0,-1,2008,680,0,0
791,344,0,0,0,0,0,0,0,0,0,-1,2015,680,0,0
798,344,0,0,0,0,0,0,0,0,0,-1,2022,680,0,0
805,344,0,0,0,0,0,0,0,0,0,-1,2029,680,0,0
812,344,0,0,0,0,0,0,0,0,0,-1,2036,680,0,0
-700,337,0,0,0,0,0,0,0,0,0,-1,524,687,0,0
-693,337,0,0,0,0,0,0,0,0,0,-1,531,687,0,0
-686,337,0,0,0,0,0,0,0,0,0,-1,538,687,0,0
-679,337,0,0,0,0,0,0,0,0,0,-1,545,687,0,0
-672,337,0,0,0,0,0,0,0,0,0,-1,552,687,0,0
-665,337,0,0,0,0,0,0,0,0,0,-1,559,687,0,0
-658,337,0,0,0,0,0,0,0,0,0,-1,566,687,0,0
-651,337,0,0,0,0,0,0,0,0,0,-1,573,687,0,0
-644,337,0,0,0,0,0,0,0,0,0,-1,580,687,0,0
-637,337,0,0,0,0,0,0,0,0,0,-1,587,687,0,0
-630,337,0,0,0,0,0,0,0,0,0,-1,594,687,0,0
-623,337,0,0,0,0,0,0,0,0,0,-1,601,687,0,0
-616,337,0,0,0,0,0,0,0,0,0,-1,608,687,0,0
-609,337,0,0,0,0,0,0,0,0,0,-1,615,687,0,0
-602,337,0,0,0,0,0,0,0,0,0,-1,622,687,0,0
-595,337,0,0,0,0,0,0,0,0,0,-1,629,687,0,0
-588,337,-11.6191,7.41553,0,0,0,0,0,0,0,-1,636,687,-11.6191,-7.41553
-581,337,-10.4758,5.91254,0,0,0,0,0,0,0,-1,643,687,-10.4758,-5.91253
-574,337,-10.0638,4.36536,0,0,0,0,0,0,0,-1,650,687,-10.0638,-4.36536
-567,337,-6.29865,2.10999,0,0,0,0,0,0,0,-1,657,687,-6.29866,-2.11
-560,337,-6.46851,1.55365,0,0,0,0,0,0,0,-1,664,687,-6.46851,-1.55364
-553,337,-7.28064,1.70483,0,0,0,0,0,0,0,-1,671,687,-7.28062,-1.70484
-546,337,-7.2865,0.286865,-0.00659985,-0.00586441,-0.0178642,0.0116358,-0.0241001,-0.795689,0.0210463,0.0388909,678,687,-7.28649,-0.286882
-539,337,-7.2309,-0.454529,-0.00419234,-0.00452571,-0.0134579,0.00909986,-0.0178179,-0.779206,0.0158103,0.0252592,685,687,-7.2309,0.454548
-532,337,-7.29993,-0.827271,-0.00243128,-0.00330658,-0.00982955,0.00697036,-0.0127082,-0.763151,0.0115213,0.0148591,692,687,-7.2999,0.827283
-525,337,-7.35358,-1.11951,-0.00109266,-0.00226888,-0.00677465,0.00511936,-0.0084809,-0.742102,0.00793166,0.0141268,699,687,-7.3536,1.1195
-518,337,-7.38348,-1.43628,-3.1658e-06,-0.00151571,-0.00447841,0.00378238,-0.00530126,-0.701752,0.00526882,0.0213513,706,687,-7.38348,1.43628
-511,337,-7.46838,-1.73132,0.000712772,-0.00120533,-0.00252188,0.0024518,-0.00294436,-0.603697,0.0031198,0.0222881,713,687,-7.46836,1.73133
-504,337,-7.42328,-2.00385,0.00145087,-0.000506978,-0.00143798,0.00221151,-0.00126762,-0.486549,0.00203317,0.0233192,720,687,-7.42326,2.00384
-497,337,-7.35571,-2.25543,0.00227188,-0.000619991,-0.000525727,0.00236448,-0.0007126,-0.174365,0.00185993,0.0161756,727,687,-7.35574,2.25542
-490,337,-7.36542,-2.52704,0.00338659,-0.00134643,0.00040176,0.00342046,-0.00138029,0.0840827,0.00285392,0.0131835,734,687,-7.3654,2.52703
-483,337,-7.35272,-2.81287,0.00487371,-0.00228728,0.00157684,0.00520555,-0.00261912,0.20742,0.00459911,0.0144603,741,687,-7.35273,2.81284
-476,337,-7.32983,-3.11182,0.00685226,-0.00368575,0.00293323,0.0076137,-0.00444719,0.253985,0.0070429,0.0132599,748,687,-7.32981,3.11183
-469,337,-7.31927,-3.4577,0.00954012,-0.00506228,0.00468312,0.010913,-0.00643513,0.285159,0.0101265,0.0227248,755,687,-7.31927,3.45771
-462,337,-7.23425,-3.68896,0,0,0,0,0,0,0,-1,762,687,-7.23425,3.68899
-455,337,-6.00574,-3.12933,0,0,0,0,0,0,0,-1,769,687,-6.00576,3.12934
-448,337,-5.30627,-2.07202,0,0,0,0,0,0,0,-1,776,687,-5.30628,2.07205
-441,337,-4.24762,-1.49597,0,0,0,0,0,0,0,-1,783,687,-4.24762,1.49598
-434,337,-6.86908,1.37531,0,0,0,0,0,0,0,-1,790,687,-6.86908,-1.3753
-427,337,-9.92004,2.487,0,0,0,0,0,0,0,-1,797,687,-9.92002,-2.48701
-420,337,-2.95996,-1.76697,0,0,0,0,0,0,0,-1,804,687,-2.95998,1.76696
-413,337,-1.29169,-1.99487,0,0,0,0,0,0,0,-1,811,687,-1.29171,1.9949
-406,337,-1.02356,-1.89563,0,0,0,0,0,0,0,-1,818,687,-1.02357,1.89564
-399,337,-0.472839,-2.21338,0,0,0,0,0,0,0,-1,825,687,-0.472837,2.2134
-392,337,0,0,0,0,0,0,0,0,0,-1,832,687,0,0
-385,337,0,0,0,0,0,0,0,0,0,-1,839,687,0,0
-378,337,0,0,0,0,0,0,0,0,0,-1,846,687,0,0
-371,337,0,0,0,0,0,0,0,0,0,-1,853,687,0,0
-364,337,0,0,0,0,0,0,0,0,0,-1,860,687,0,0
-357,337,0,0,0,0,0,0,0,0,0,-1,867,687,0,0
-350,337,0,0,0,0,0,0,0,0,0,-1,874,687,0,0
-343,337,0,0,0,0,0,0,0,0,0,-1,881,687,0,0
-336,337,0,0,0,0,0,0,0,0,0,-1,888,687,0,0
-329,337,0,0,0,0,0,0,0,0,0,-1,895,687,0,0
-322,337,0,0,0,0,0,0,0,0,0,-1,902,687,0,0
-315,337,0,0,0,0,0,0,0,0,0,-1,909,687,0,0
-308,337,0,0,0,0,0,0,0,0,0,-1,916,687,0,0
-301,337,0,0,0,0,0,0,0,0,0,-1,923,687,0,0
-294,337,0,0,0,0,0,0,0,0,0,-1,930,687,0,0
-287,337,0,0,0,0,0,0,0,0,0,-1,937,687,0,0
-280,337,0,0,0,0,0,0,0,0,0,-1,944,687,0,0
-273,337,0,0,0,0,0,0,0,0,0,-1,951,687,0,0
-266,337,0,0,0,0,0,0,0,0,0,-1,958,687,0,0
-259,337,0,0,0,0,0,0,0,0,0,-1,965,687,0,0
-252,337,0,0,0,0,0,0,0,0,0,-1,972,687,0,0
-245,337,0,0,0,0,0,0,0,0,0,-1,979,687,0,0
-238,337,0,0,0,0,0,0,0,0,0,-1,986,687,0,0
-231,337,0,0,0,0,0,0,0,0,0,-1,993,687,0,0
-224,337,0,0,0,0,0,0,0,0,0,-1,1000,687,0,0
-217,337,0,0,0,0,0,0,0,0,0,-1,1007,687,0,0
-210,337,0,0,0,0,0,0,0,0,0,-1,1014,687,0,0
-203,337,0,0,0,0,0,0,0,0,0,-1,1021,687,0,0
-196,337,0,0,0,0,0,0,0,0,0,-1,1028,687,0,0
-189,337,0,0,0,0,0,0,0,0,0,-1,1035,687,0,0
-182,337,0,0,0,0,0,0,0,0,0,-1,1042,687,0,0
-175,337,0,0,0,0,0,0,0,0,0,-1,1049,687,0,0
-168,337,0,0,0,0,0,0,0,0,0,-1,1056,687,0,0
-161,337,0,0,0,0,0,0,0,0,0,-1,1063,687,0,0
-154,337,0,0,0,0,0,0,0,0,0,-1,1070,687,0,0
-147,337,0,0,0,0,0,0,0,0,0,-1,1077,687,0,0
-140,337,0,0,0,0,0,0,0,0,0,-1,1084,687,0,0
-133,337,0,0,0,0,0,0,0,0,0,-1,1091,687,0,0
-126,337,0,0,0,0,0,0,0,0,0,-1,1098,687,0,0
-119,337,0,0,0,0,0,0,0,0,0,-1,1105,687,0,0
-112,337,0,0,0,0,0,0,0,0,0,-1,1112,687,0,0
-105,337,0,0,0,0,0,0,0,0,0,-1,1119,687,0,0
-98,337,0,0,0,0,0,0,0,0,0,-1,1126,687,0,0
-91,337,0,0,0,0,0,0,0,0,0,-1,1133,687,0,0
-84,337,0,0,0,0,0,0,0,0,0,-1,1140,687,0,0
-77,337,0,0,0,0,0,0,0,0,0,-1,1147,687,0,0
-70,337,0,0,0,0,0,0,0,0,0,-1,1154,687,0,0
-63,337,0,0,0,0,0,0,0,0,0,-1,1161,687,0,0
-56,337,0,0,0,0,0,0,0,0,0,-1,1168,687,0,0
-49,337,0,0,0,0,0,0,0,0,0,-1,1175,687,0,0
-42,337,0,0,0,0,0,0,0,0,0,-1,1182,687,0,0
-35,337,0,0,0,0,0,0,0,0,0,-1,1189,687,0,0
-28,337,0,0,0,0,0,0,0,0,0,-1,1196,687,0,0
-21,337,0,0,0,0,0,0,0,0,0,-1,1203,687,0,0
-14,337,0,0,0,0,0,0,0,0,0,-1,1210,687,0,0
-7,337,0,0,0,0,0,0,0,0,0,-1,1217,687,0,0
0,337,0,0,0,0,0,0,0,0,0,-1,1224,687,0,0
7,337,0,0,0,0,0,0,0,0,0,-1,1231,687,0,0
14,337,0,0,0,0,0,0,0,0,0,-1,1238,687,0,0
21,337,0,0,0,0,0,0,0,0,0,-1,1245,687,0,0
28,337,0,0,0,0,0,0,0,0,0,-1,1252,687,0,0
35,337,0,0,0,0,0,0,0,0,0,-1,1259,687,0,0
42,337,0,0,0,0,0,0,0,0,0,-1,1266,687,0,0
49,337,0,0,0,0,0,0,0,0,0,-1,1273,687,0,0
56,337,0,0,0,0,0,0,0,0,0,-1,1280,687,0,0
63,337,0,0,0,0,0,0,0,0,0,-1,1287,687,0,0
70,337,0,0,0,0,0,0,0,0,0,-1,1294,687,0,0
77,337,0,0,0,0,0,0,0,0,0,-1,1301,687,0,0
84,337,0,0,0,0,0,0,0,0,0,-1,1308,687,0,0
91,337,0,0,0,0,0,0,0,0,0,-1,1315,687,0,0
98,337,0,0,0,0,0,0,0,0,0,-1,1322,687,0,0
105,337,0,0,0,0,0,0,0,0,0,-1,1329,687,0,0
112,337,0,0,0,0,0,0,0,0,0,-1,1336,687,0,0
119,337,0,0,0,0,0,0,0,0,0,-1,1343,687,0,0
126,337,0,0,0,0,0,0,0,0,0,-1,1350,687,0,0
133,337,0,0,0,0,0,0,0,0,0,-1,1357,687,0,0
140,337,0,0,0,0,0,0,0,0,0,-1,1364,687,0,0
147,337,0,0,0,0,0,0,0,0,0,-1,1371,687,0,0
154,337,0,0,0,0,0,0,0,0,0,-1,1378,687,0,0
161,337,0,0,0,0,0,0,0,0,0,-1,1385,687,0,0
168,337,0,0,0,0,0,0,0,0,0,-1,1392,687,0,0
175,337,0,0,0,0,0,0,0,0,0,-1,1399,687,0,0
182,337,0,0,0,0,0,0,0,0,0,-1,1406,687,0,0
189,337,0,0,0,0,0,0,0,0,0,-1,1413,687,0,0
196,337,0,0,0,0,0,0,0,0,0,-1,1420,687,0,0
203,337,0,0,0,0,0,0,0,0,0,-1,1427,687,0,0
210,337,0,0,0,0,0,0,0,0,0,-1,1434,687,0,0
217,337,0,0,0,0,0,0,0,0,0,-1,1441,687,0,0
224,337,0,0,0,0,0,0,0,0,0,-1,1448,687,0,0
231,337,0,0,0,0,0,0,0,0,0,-1,1455,687,0,0
238,337,0,0,0,0,0,0,0,0,0,-1,1462,687,0,0
245,337,0,0,0,0,0,0,0,0,0,-1,1469,687,0,0
252,337,0,0,0,0,0,0,0,0,0,-1,1476,687,0,0
259,337,0,0,0,0,0,0,0,0,0,-1,1483,687,0,0
266,337,0,0,0,0,0,0,0,0,0,-1,1490,687,0,0
273,337,0,0,0,0,0,0,0,0,0,-1,1497,687,0,0
280,337,0,0,0,0,0,0,0,0,0,-1,1504,687,0,0
287,337,0,0,0,0,0,0,0,0,0,-1,1511,687,0,0
294,337,0,0,0,0,0,0,0,0,0,-1,1518,687,0,0
301,337,0,0,0,0,0,0,0,0,0,-1,1525,687,0,0
308,337,0,0,0,0,0,0,0,0,0,-1,1532,687,0,0
315,337,0,0,0,0,0,0,0,0,0,-1,1539,687,0,0
322,337,0,0,0,0,0,0,0,0,0,-1,1546,687,0,0
329,337,0,0,0,0,0,0,0,0,0,-1,1553,687,0,0
336,337,0,0,0,0,0,0,0,0,0,-1,1560,687,0,0
343,337,0,0,0,0,0,0,0,0,0,-1,1567,687,0,0
350,337,0,0,0,0,0,0,0,0,0,-1,1574,687,0,0
357,337,0,0,0,0,0,0,0,0,0,-1,1581,687,0,0
364,337,0,0,0,0,0,0,0,0,0,-1,1588,687,0,0
371,337,0,0,0,0,0,0,0,0,0,-1,1595,687,0,0
378,337,0,0,0,0,0,0,0,0,0,-1,1602,687,0,0
385,337,0,0,0,0,0,0,0,0,0,-1,1609,687,0,0
392,337,0,0,0,0,0,0,0,0,0,-1,1616,687,0,0
399,337,0,0,0,0,0,0,0,0,0,-1,1623,687,0,0
406,337,0,0,0,0,0,0,0,0,0,-1,1630,687,0,0
413,337,0,0,0,0,0,0,0,0,0,-1,1637,687,0,0
420,337,0,0,0,0,0,0,0,0,0,-1,1644,687,0,0
427,337,0,0,0,0,0,0,0,0,0,-1,1651,687,0,0
434,337,0,0,0,0,0,0,0,0,0,-1,1658,687,0,0
441,337,0,0,0,0,0,0,0,0,0,-1,1665,687,0,0
448,337,0,0,0,0,0,0,0,0,0,-1,1672,687,0,0
455,337,0,0,0,0,0,0,0,0,0,-1,1679,687,0,0
462,337,0,0,0,0,0,0,0,0,0,-1,1686,687,0,0
469,337,0,0,0,0,0,0,0,0,0,-1,1693,687,0,0
476,337,0,0,0,0,0,0,0,0,0,-1,1700,687,0,0
483,337,0,0,0,0,0,0,0,0,0,-1,1707,687,0,0
490,337,0,0,0,0,0,0,0,0,0,-1,1714,687,0,0
497,337,0,0,0,0,0,0,0,0,0,-1,1721,687,0,0
504,337,0,0,0,0,0,0,0,0,0,-1,1728,687,0,0
511,337,0,0,0,0,0,0,0,0,0,-1,1735,687,0,0
518,337,18.0369,1.64581,0,0,0,0,0,0,0,-1,1742,687,18.0368,-1.64581
525,337,21.0253,4.16956,0,0,0,0,0,0,0,-1,1749,687,21.0253,-4.16956
532,337,20.4332,5.16278,0,0,0,0,0,0,0,-1,1756,687,20.4333,-5.16281
539,337,19.9229,6.04456,0,0,0,0,0,0,0,-1,1763,687,19.9228,-6.04456
546,337,15.0701,4.06219,0,0,0,0,0,0,0,-1,1770,687,15.0701,-4.06219
553,337,19.068,3.61273,0,0,0,0,0,0,0,-1,1777,687,19.068,-3.6127
560,337,18.4053,3.62793,0,0,0,0,0,0,0,-1,1784,687,18.4052,-3.6279
567,337,11.9288,1.38776,0,0,0,0,0,0,0,-1,1791,687,11.9288,-1.38777
574,337,10.704,1.19476,0,0,0,0,0,0,0,-1,1798,687,10.704,-1.19478
581,337,8.50427,0.561768,0,0,0,0,0,0,0,-1,1805,687,8.5043,-0.561754
588,337,8.5885,-0.0536499,0,0,0,0,0,0,0,-1,1812,687,8.58844,0.0536788
595,337,12.7583,-1.51886,0,0,0,0,0,0,0,-1,1819,687,12.7583,1.51888
602,337,13.4957,-1.32556,0,0,0,0,0,0,0,-1,1826,687,13.4957,1.32555
609,337,13.516,-0.963135,0.000487496,-6.23031e-05,0.000211356,0.000559355,-0.000134161,0.327727,0.000424746,0.0234229,1833,687,13.516,0.963113
616,337,13.4987,-0.685669,0.000897975,-0.000239241,0.000266469,0.000957317,-0.000298582,0.21912,0.000757612,0.0163534,1840,687,13.4986,0.685663
623,337,13.5143,-0.412781,0.000626724,-0.000171314,8.60347e-05,0.000635894,-0.000180484,0.106182,0.000495178,0.0148418,1847,687,13.5142,0.412807
630,337,13.4918,-0.105347,7.34377e-05,-0.000219614,-0.000234168,0.000203144,-0.000349321,-0.505836,0.000322666,0.0194284,1854,687,13.4918,0.105341
637,337,13.5142,0.197998,-0.000730597,-0.000388633,-0.000714367,0.000174929,-0.00129416,-0.902862,0.000926603,0.0173589,1861,687,13.5141,-0.198015
644,337,13.5221,0.515747,-0.00200117,-0.000590573,-0.00142991,0.000298522,-0.00289026,-1.01451,0.00203367,0.011078,1868,687,13.5221,-0.515769
651,337,13.5088,0.80481,-0.00341148,-0.000967687,-0.00226257,0.000381845,-0.00476101,-1.03298,0.00330864,0.00942504,1875,687,13.5087,-0.804787
658,337,13.5057,1.1051,-0.00479963,-0.00130179,-0.00314182,0.000545082,-0.00664651,-1.03937,0.00462342,0.0109483,1882,687,13.5057,-1.10511
665,337,13.5118,1.39917,-0.00645314,-0.00170234,-0.00413737,0.000693036,-0.00884852,-1.04599,0.00614307,0.0141067,1889,687,13.5119,-1.39915
672,337,13.4847,1.64587,-0.00815149,-0.00208654,-0.0052155,0.000914007,-0.011152,-1.04873,0.00775733,0.0190051,1896,687,13.4847,-1.64587
679,337,13.4722,1.90796,-0.00991423,-0.00245584,-0.00632658,0.00115884,-0.0135289,-1.05171,0.00942932,0.0388747,1903,687,13.4722,-1.90799
686,337,13.455,2.56781,0,0,0,0,0,0,0,-1,1910,687,13.4549,-2.56779
693,337,13.7977,3.25104,0,0,0,0,0,0,0,-1,1917,687,13.7977,-3.25103
700,337,17.2661,2.44379,0,0,0,0,0,0,0,-1,1924,687,17.2661,-2.44378
707,337,17.3544,5.61853,0,0,0,0,0,0,0,-1,1931,687,17.3543,-5.61851
714,337,0,0,0,0,0,0,0,0,0,-1,1938,687,0,0
721,337,0,0,0,0,0,0,0,0,0,-1,1945,687,0,0
728,337,0,0,0,0,0,0,0,0,0,-1,1952,687,0,0
735,337,0,0,0,0,0,0,0,0,0,-1,1959,687,0,0
742,337,0,0,0,0,0,0,0,0,0,-1,1966,687,0,0
749,337,0,0,0,0,0,0,0,0,0,-1,1973,687,0,0
756,337,0,0,0,0,0,0,0,0,0,-1,1980,687,0,0
763,337,0,0,0,0,0,0,0,0,0,-1,1987,687,0,0
770,337,0,0,0,0,0,0,0,0,0,-1,1994,687,0,0
777,337,0,0,0,0,0,0,0,0,0,-1,2001,687,0,0
784,337,0,0,0,0,0,0,0,0,0,-1,2008,687,0,0
791,337,0,0,0,0,0,0,0,0,0,-1,2015,687,0,0
798,337,0,0,0,0,0,0,0,0,0,-1,2022,687,0,0
805,337,0,0,0,0,0,0,0,0,0,-1,2029,687,0,0
812,337,0,0,0,0,0,0,0,0,0,-1,2036,687,0,0
-700,330,0,0,0,0,0,0,0,0,0,-1,524,694,0,0
-693,330,0,0,0,0,0,0,0,0,0,-1,531,694,0,0
-686,330,0,0,0,0,0,0,0,0,0,-1,538,694,0,0
-679,330,0,0,0,0,0,0,0,0,0,-1,545,694,0,0
-672,330,0,0,0,0,0,0,0,0,0,-1,552,694,0,0
-665,330,0,0,0,0,0,0,0,0,0,-1,559,694,0,0
-658,330,0,0,0,0,0,0,0,0,0,-1,566,694,0,0
-651,330,0,0,0,0,0,0,0,0,0,-1,573,694,0,0
-644,330,0,0,0,0,0,0,0,0,0,-1,580,694,0,0
-637,330,0,0,0,0,0,0,0,0,0,-1,587,694,0,0
-630,330,0,0,0,0,0,0,0,0,0,-1,594,694,0,0
-623,330,0,0,0,0,0,0,0,0,0,-1,601,694,0,0
-616,330,0,0,0,0,0,0,0,0,0,-1,608,694,0,0
-609,330,0,0,0,0,0,0,0,0,0,-1,615,694,0,0
-602,330,0,0,0,0,0,0,0,0,0,-1,622,694,0,0
-595,330,-4.67883,1.65515,0,0,0,0,0,0,0,-1,629,694,-4.67881,-1.65515
-588,330,-8.5047,2.67346,0,0,0,0,0,0,0,-1,636,694,-8.50469,-2.67348
-581,330,-10.7915,5.82458,0,0,0,0,0,0,0,-1,643,694,-10.7915,-5.82461
-574,330,-9.02118,1.87952,0,0,0,0,0,0,0,-1,650,694,-9.02115,-1.87953
-567,330,-8.27777,1.24011,0,0,0,0,0,0,0,-1,657,694,-8.27776,-1.24013
-560,330,-7.67139,0.27771,0,0,0,0,0,0,0,-1,664,694,-7.67138,-0.277692
-553,330,-7.55255,0.0540161,-0.00981556,-0.00457962,-0.0177895,0.0107835,-0.0251787,-0.858456,0.02131,0.0433184,671,694,-7.55258,-0.0540091
-546,330,-7.51111,-0.259216,-0.00661567,-0.00360112,-0.0137511,0.00872511,-0.0189419,-0.839986,0.0163326,0.0274238,678,694,-7.51112,0.259196
-539,330,-7.55133,-0.571838,-0.0041986,-0.00261725,-0.0104027,0.00702481,-0.0138407,-0.823328,0.012259,0.0125397,685,694,-7.55136,0.571858
-532,330,-7.6366,-0.836853,-0.00239366,-0.00173048,-0.00763658,0.00558171,-0.00970585,-0.807095,0.00893269,0.0104091,692,694,-7.63658,0.836823
-525,330,-7.63574,-1.13281,-0.00100416,-0.00099128,-0.00527445,0.00427674,-0.00627218,-0.786009,0.00612663,0.0105349,699,694,-7.63575,1.13281
-518,330,-7.64783,-1.39325,0.000134587,-0.000531334,-0.00351134,0.00332872,-0.00372546,-0.738127,0.00407488,0.014183,706,694,-7.64784,1.39327
-511,330,-7.70142,-1.69568,0.00083746,-0.000509232,-0.00188674,0.0021674,-0.00183918,-0.614001,0.00231579,0.0194399,713,694,-7.70141,1.69568
-504,330,-7.6947,-1.97821,0.00151159,-0.000158003,-0.000957243,0.00194691,-0.000593325,-0.42681,0.00153444,0.018556,720,694,-7.6947,1.97824
-497,330,-7.64575,-2.23834,0.00241207,-0.00076216,0.000158302,0.00241995,-0.000770035,0.0497065,0.0019221,0.0133024,727,694,-7.64577,2.23832
-490,330,-7.62207,-2.53168,0.00372542,-0.00211079,0.00150207,0.00408931,-0.00247468,0.237685,0.00382775,0.0125829,734,694,-7.6221,2.53167
-483,330,-7.62128,-2.82935,0.00542086,-0.00370767,0.00332498,0.00650354,-0.00479035,0.314793,0.00654549,0.0130763,741,694,-7.62126,2.82937
-476,330,-7.63141,-3.10724,0.0076421,-0.00591167,0.00552214,0.00960707,-0.00787665,0.341865,0.0101107,0.0239273,748,694,-7.63138,3.10723
-469,330,-7.46179,-3.22034,0.010626,-0.00824261,0.00836717,0.0138019,-0.0114184,0.362761,0.0145826,0.0476816,755,694,-7.46181,3.22035
-462,330,-7.14404,-3.60449,0,0,0,0,0,0,0,-1,762,694,-7.14405,3.60447
-455,330,-5.04254,-1.79303,0,0,0,0,0,0,0,-1,769,694,-5.04252,1.79305
-448,330,-4.89886,-1.66156,0,0,0,0,0,0,0,-1,776,694,-4.89886,1.66157
-441,330,-5.30676,-2.34045,0,0,0,0,0,0,0,-1,783,694,-5.30679,2.34048
-434,330,-7.20428,1.00024,0,0,0,0,0,0,0,-1,790,694,-7.20431,-1.00027
-427,330,-16.0428,2.89258,0,0,0,0,0,0,0,-1,797,694,-16.0428,-2.89259
-420,330,-15.2923,3.32672,0,0,0,0,0,0,0,-1,804,694,-15.2923,-3.32675
-413,330,-10.4567,2.56183,0,0,0,0,0,0,0,-1,811,694,-10.4567,-2.56182
-406,330,-1.65375,-1.74371,0,0,0,0,0,0,0,-1,818,694,-1.65375,1.74371
-399,330,0,0,0,0,0,0,0,0,0,-1,825,694,0,0
-392,330,0,0,0,0,0,0,0,0,0,-1,832,694,0,0
-385,330,0,0,0,0,0,0,0,0,0,-1,839,694,0,0
-378,330,0,0,0,0,0,0,0,0,0,-1,846,694,0,0
-371,330,0,0,0,0,0,0,0,0,0,-1,853,694,0,0
-364,330,0,0,0,0,0,0,0,0,0,-1,860,694,0,0
-357,330,0,0,0,0,0,0,0,0,0,-1,867,694,0,0
-350,330,0,0,0,0,0,0,0,0,0,-1,874,694,0,0
-343,330,0,0,0,0,0,0,0,0,0,-1,881,694,0,0
-336,330,0,0,0,0,0,0,0,0,0,-1,888,694,0,0
-329,330,0,0,0,0,0,0,0,0,0,-1,895,694,0,0
-322,330,0,0,0,0,0,0,0,0,0,-1,902,694,0,0
-315,330,0,0,0,0,0,0,0,0,0,-1,909,694,0,0
-308,330,0,0,0,0,0,0,0,0,0,-1,916,694,0,0
-301,330,0,0,0,0,0,0,0,0,0,-1,923,694,0,0
-294,330,0,0,0,0,0,0,0,0,0,-1,930,694,0,0
-287,330,0,0,0,0,0,0,0,0,0,-1,937,694,0,0
-280,330,0,0,0,0,0,0,0,0,0,-1,944,694,0,0
-273,330,0,0,0,0,0,0,0,0,0,-1,951,694,0,0
-266,330,0,0,0,0,0,0,0,0,0,-1,958,694,0,0
-259,330,0,0,0,0,0,0,0,0,0,-1,965,694,0,0
-252,330,0,0,0,0,0,0,0,0,0,-1,972,694,0,0
-245,330,0,0,0,0,0,0,0,0,0,-1,979,694,0,0
-238,330,0,0,0,0,0,0,0,0,0,-1,986,694,0,0
-231,330,0,0,0,0,0,0,0,0,0,-1,993,694,0,0
-224,330,0,0,0,0,0,0,0,0,0,-1,1000,694,0,0
-217,330,0,0,0,0,0,0,0,0,0,-1,1007,694,0,0
-210,330,0,0,0,0,0,0,0,0,0,-1,1014,694,0,0
-203,330,0,0,0,0,0,0,0,0,0,-1,1021,694,0,0
-196,330,0,0,0,0,0,0,0,0,0,-1,1028,694,0,0
-189,330,0,0,0,0,0,0,0,0,0,-1,1035,694,0,0
-182,330,0,0,0,0,0,0,0,0,0,-1,1042,694,0,0
-175,330,0,0,0,0,0,0,0,0,0,-1,1049,694,0,0
-168,330,0,0,0,0,0,0,0,0,0,-1,1056,694,0,0
-161,330,0,0,0,0,0,0,0,0,0,-1,1063,694,0,0
-154,330,0,0,0,0,0,0,0,0,0,-1,1070,694,0,0
-147,330,0,0,0,0,0,0,0,0,0,-1,1077,694,0,0
-140,330,0,0,0,0,0,0,0,0,0,-1,1084,694,0,0
-133,330,0,0,0,0,0,0,0,0,0,-1,1091,694,0,0
-126,330,0,0,0,0,0,0,0,0,0,-1,1098,694,0,0
-119,330,0,0,0,0,0,0,0,0,0,-1,1105,694,0,0
-112,330,0,0,0,0,0,0,0,0,0,-1,1112,694,0,0
-105,330,0,0,0,0,0,0,0,0,0,-1,1119,694,0,0
-98,330,0,0,0,0,0,0,0,0,0,-1,1126,694,0,0
-91,330,0,0,0,0,0,0,0,0,0,-1,1133,694,0,0
-84,330,0,0,0,0,0,0,0,0,0,-1,1140,694,0,0
-77,330,0,0,0,0,0,0,0,0,0,-1,1147,694,0,0
-70,330,0,0,0,0,0,0,0,0,0,-1,1154,694,0,0
-63,330,0,0,0,0,0,0,0,0,0,-1,1161,694,0,0
-56,330,0,0,0,0,0,0,0,0,0,-1,1168,694,0,0
-49,330,0,0,0,0,0,0,0,0,0,-1,1175,694,0,0
-42,330,0,0,0,0,0,0,0,0,0,-1,1182,694,0,0
-35,330,0,0,0,0,0,0,0,0,0,-1,1189,694,0,0
-28,330,0,0,0,0,0,0,0,0,0,-1,1196,694,0,0
-21,330,0,0,0,0,0,0,0,0,0,-1,1203,694,0,0
-14,330,0,0,0,0,0,0,0,0,0,-1,1210,694,0,0
-7,330,0,0,0,0,0,0,0,0,0,-1,1217,694,0,0
0,330,0,0,0,0,0,0,0,0,0,-1,1224,694,0,0
7,330,0,0,0,0,0,0,0,0,0,-1,1231,694,0,0
14,330,0,0,0,0,0,0,0,0,0,-1,1238,694,0,0
21,330,0,0,0,0,0,0,0,0,0,-1,1245,694,0,0
28,330,0,0,0,0,0,0,0,0,0,-1,1252,694,0,0
35,330,0,0,0,0,0,0,0,0,0,-1,1259,694,0,0
42,330,0,0,0,0,0,0,0,0,0,-1,1266,694,0,0
49,330,0,0,0,0,0,0,0,0,0,-1,1273,694,0,0
56,330,0,0,0,0,0,0,0,0,0,-1,1280,694,0,0
63,330,0,0,0,0,0,0,0,0,0,-1,1287,694,0,0
70,330,0,0,0,0,0,0,0,0,0,-1,1294,694,0,0
77,330,0,0,0,0,0,0,0,0,0,-1,1301,694,0,0
84,330,0,0,0,0,0,0,0,0,0,-1,1308,694,0,0
91,330,0,0,0,0,0,0,0,0,0,-1,1315,694,0,0
98,330,0,0,0,0,0,0,0,0,0,-1,1322,694,0,0
105,330,0,0,0,0,0,0,0,0,0,-1,1329,694,0,0
112,330,0,0,0,0,0,0,0,0,0,-1,1336,694,0,0
119,330,0,0,0,0,0,0,0,0,0,-1,1343,694,0,0
126,330,0,0,0,0,0,0,0,0,0,-1,1350,694,0,0
133,330,0,0,0,0,0,0,0,0,0,-1,1357,694,0,0
140,330,0,0,0,0,0,0,0,0,0,-1,1364,694,0,0
147,330,0,0,0,0,0,0,0,0,0,-1,1371,694,0,0
154,330,0,0,0,0,0,0,0,0,0,-1,1378,694,0,0
161,330,0,0,0,0,0,0,0,0,0,-1,1385,694,0,0
168,330,0,0,0,0,0,0,0,0,0,-1,1392,694,0,0
175,330,0,0,0,0,0,0,0,0,0,-1,1399,694,0,0
182,330,0,0,0,0,0,0,0,0,0,-1,1406,694,0,0
189,330,0,0,0,0,0,0,0,0,0,-1,1413,694,0,0
196,330,0,0,0,0,0,0,0,0,0,-1,1420,694,0,0
203,330,0,0,0,0,0,0,0,0,0,-1,1427,694,0,0
210,330,0,0,0,0,0,0,0,0,0,-1,1434,694,0,0
217,330,0,0,0,0,0,0,0,0,0,-1,1441,694,0,0
224,330,0,0,0,0,0,0,0,0,0,-1,1448,694,0,0
231,330,0,0,0,0,0,0,0,0,0,-1,1455,694,0,0
238,330,0,0,0,0,0,0,0,0,0,-1,1462,694,0,0
245,330,0,0,0,0,0,0,0,0,0,-1,1469,694,0,0
252,330,0,0,0,0,0,0,0,0,0,-1,1476,694,0,0
259,330,0,0,0,0,0,0,0,0,0,-1,1483,694,0,0
266,330,0,0,0,0,0,0,0,0,0,-1,1490,694,0,0
273,330,0,0,0,0,0,0,0,0,0,-1,1497,694,0,0
280,330,0,0,0,0,0,0,0,0,0,-1,1504,694,0,0
287,330,0,0,0,0,0,0,0,0,0,-1,1511,694,0,0
294,330,0,0,0,0,0,0,0,0,0,-1,1518,694,0,0
301,330,0,0,0,0,0,0,0,0,0,-1,1525,694,0,0
308,330,0,0,0,0,0,0,0,0,0,-1,1532,694,0,0
315,330,0,0,0,0,0,0,0,0,0,-1,1539,694,0,0
322,330,0,0,0,0,0,0,0,0,0,-1,1546,694,0,0
329,330,0,0,0,0,0,0,0,0,0,-1,1553,694,0,0
336,330,0,0,0,0,0,0,0,0,0,-1,1560,694,0,0
343,330,0,0,0,0,0,0,0,0,0,-1,1567,694,0,0
350,330,0,0,0,0,0,0,0,0,0,-1,1574,694,0,0
357,330,0,0,0,0,0,0,0,0,0,-1,1581,694,0,0
364,330,0,0,0,0,0,0,0,0,0,-1,1588,694,0,0
371,330,0,0,0,0,0,0,0,0,0,-1,1595,694,0,0
378,330,0,0,0,0,0,0,0,0,0,-1,1602,694,0,0
385,330,0,0,0,0,0,0,0,0,0,-1,1609,694,0,0
392,330,0,0,0,0,0,0,0,0,0,-1,1616,694,0,0
399,330,0,0,0,0,0,0,0,0,0,-1,1623,694,0,0
406,330,0,0,0,0,0,0,0,0,0,-1,1630,694,0,0
413,330,0,0,0,0,0,0,0,0,0,-1,1637,694,0,0
420,330,0,0,0,0,0,0,0,0,0,-1,1644,694,0,0
427,330,0,0,0,0,0,0,0,0,0,-1,1651,694,0,0
434,330,0,0,0,0,0,0,0,0,0,-1,1658,694,0,0
441,330,0,0,0,0,0,0,0,0,0,-1,1665,694,0,0
448,330,0,0,0,0,0,0,0,0,0,-1,1672,694,0,0
455,330,0,0,0,0,0,0,0,0,0,-1,1679,694,0,0
462,330,0,0,0,0,0,0,0,0,0,-1,1686,694,0,0
469,330,0,0,0,0,0,0,0,0,0,-1,1693,694,0,0
476,330,0,0,0,0,0,0,0,0,0,-1,1700,694,0,0
483,330,0,0,0,0,0,0,0,0,0,-1,1707,694,0,0
490,330,0,0,0,0,0,0,0,0,0,-1,1714,694,0,0
497,330,0,0,0,0,0,0,0,0,0,-1,1721,694,0,0
504,330,0,0,0,0,0,0,0,0,0,-1,1728,694,0,0
511,330,0,0,0,0,0,0,0,0,0,-1,1735,694,0,0
518,330,0,0,0,0,0,0,0,0,0,-1,1742,694,0,0
525,330,21.8806,2.67316,0,0,0,0,0,0,0,-1,1749,694,21.8806,-2.67316
532,330,21.4119,3.82379,0,0,0,0,0,0,0,-1,1756,694,21.4118,-3.82381
539,330,22.2223,4.29657,0,0,0,0,0,0,0,-1,1763,694,22.2223,-4.2966
546,330,23.2045,4.75311,0,0,0,0,0,0,0,-1,1770,694,23.2044,-4.7531
553,330,19.3512,3.78687,0,0,0,0,0,0,0,-1,1777,694,19.3512,-3.78684
560,330,18.6956,3.84155,0,0,0,0,0,0,0,-1,1784,694,18.6956,-3.84155
567,330,18.0321,3.98578,0,0,0,0,0,0,0,-1,1791,694,18.0321,-3.98576
574,330,12.0454,2.1662,0,0,0,0,0,0,0,-1,1798,694,12.0455,-2.16618
581,330,11.4215,4.50836,0,0,0,0,0,0,0,-1,1805,694,11.4215,-4.50837
588,330,6.45667,-0.0630493,0,0,0,0,0,0,0,-1,1812,694,6.45661,0.0630695
595,330,8.23193,-0.258484,0,0,0,0,0,0,0,-1,1819,694,8.23188,0.258459
602,330,13.5341,-1.48633,0,0,0,0,0,0,0,-1,1826,694,13.534,1.48632
609,330,13.7162,-1.03088,0.000950503,-7.59354e-05,0.000362599,0.00106567,-0.000191105,0.307544,0.000781972,0.035889,1833,694,13.7161,1.03087
616,330,13.8038,-0.697815,0.00141482,-0.000241134,0.000481385,0.00154459,-0.000370903,0.263315,0.00117307,0.0114846,1840,694,13.8038,0.697821
623,330,13.8308,-0.399658,0.00110425,-0.000199598,0.000290329,0.00116598,-0.000261324,0.209486,0.000877494,0.0134444,1847,694,13.8309,0.399683
630,330,13.8442,-0.0809326,0.000573271,-0.000253402,-3.57068e-05,0.00057481,-0.000254941,-0.0430864,0.000490779,0.0144645,1854,694,13.8443,0.0809077
637,330,13.8617,0.229248,-0.000157098,-0.000408674,-0.000465891,0.000199687,-0.000765459,-0.653544,0.000588276,0.0133777,1861,694,13.8617,-0.229221
644,330,13.823,0.526672,-0.00130651,-0.00055488,-0.00108879,0.000221133,-0.00208252,-0.951579,0.00146762,0.0084278,1868,694,13.8229,-0.526696
651,330,13.8004,0.81958,-0.00251632,-0.000830534,-0.00178181,0.000297697,-0.00364455,-1.00633,0.00253477,0.0105525,1875,694,13.8005,-0.81958
658,330,13.7861,1.11145,-0.00356902,-0.000989311,-0.00244819,0.000488025,-0.00504635,-1.02785,0.00353815,0.010739,1882,694,13.7861,-1.11144
665,330,13.7766,1.41949,-0.00483686,-0.00117839,-0.00320392,0.000681708,-0.00669696,-1.04479,0.00470836,0.0100084,1889,694,13.7766,-1.41951
672,330,13.802,1.70758,-0.00604145,-0.00127255,-0.00395676,0.00096269,-0.00827669,-1.05657,0.00586508,0.0149086,1896,694,13.802,-1.70756
679,330,13.6962,1.9975,-0.00713004,-0.00125705,-0.00465728,0.0013122,-0.00969929,-1.06668,0.00694504,0.0289131,1903,694,13.6962,-1.99748
686,330,13.6786,2.43341,0,0,0,0,0,0,0,-1,1910,694,13.6786,-2.43338
693,330,13.6422,2.79688,0,0,0,0,0,0,0,-1,1917,694,13.6422,-2.79685
700,330,17.1072,4.13,0,0,0,0,0,0,0,-1,1924,694,17.1071,-4.13002
707,330,16.663,4.88672,0,0,0,0,0,0,0,-1,1931,694,16.6629,-4.88673
714,330,16.5454,5.80896,0,0,0,0,0,0,0,-1,1938,694,16.5454,-5.80899
721,330,0,0,0,0,0,0,0,0,0,-1,1945,694,0,0
728,330,0,0,0,0,0,0,0,0,0,-1,1952,694,0,0
735,330,0,0,0,0,0,0,0,0,0,-1,1959,694,0,0
742,330,0,0,0,0,0,0,0,0,0,-1,1966,694,0,0
749,330,0,0,0,0,0,0,0,0,0,-1,1973,694,0,0
756,330,0,0,0,0,0,0,0,0,0,-1,1980,694,0,0
763,330,0,0,0,0,0,0,0,0,0,-1,1987,694,0,0
770,330,0,0,0,0,0,0,0,0,0,-1,1994,694,0,0
777,330,0,0,0,0,0,0,0,0,0,-1,2001,694,0,0
784,330,0,0,0,0,0,0,0,0,0,-1,2008,694,0,0
791,330,0,0,0,0,0,0,0,0,0,-1,2015,694,0,0
798,330,0,0,0,0,0,0,0,0,0,-1,2022,694,0,0
805,330,0,0,0,0,0,0,0,0,0,-1,2029,694,0,0
812,330,0,0,0,0,0,0,0,0,0,-1,2036,694,0,0
-700,323,0,0,0,0,0,0,0,0,0,-1,524,701,0,0
-693,323,0,0,0,0,0,0,0,0,0,-1,531,701,0,0
-686,323,0,0,0,0,0,0,0,0,0,-1,538,701,0,0
-679,323,0,0,0,0,0,0,0,0,0,-1,545,701,0,0
-672,323,0,0,0,0,0,0,0,0,0,-1,552,701,0,0
-665,323,0,0,0,0,0,0,0,0,0,-1,559,701,0,0
-658,323,0,0,0,0,0,0,0,0,0,-1,566,701,0,0
-651,323,0,0,0,0,0,0,0,0,0,-1,573,701,0,0
-644,323,0,0,0,0,0,0,0,0,0,-1,580,701,0,0
-637,323,0,0,0,0,0,0,0,0,0,-1,587,701,0,0
-630,323,0,0,0,0,0,0,0,0,0,-1,594,701,0,0
-623,323,0,0,0,0,0,0,0,0,0,-1,601,701,0,0
-616,323,0,0,0,0,0,0,0,0,0,-1,608,701,0,0
-609,323,0,0,0,0,0,0,0,0,0,-1,615,701,0,0
-602,323,-4.15833,2.12256,0,0,0,0,0,0,0,-1,622,701,-4.1583,-2.12257
-595,323,-4.052,1.79156,0,0,0,0,0,0,0,-1,629,701,-4.05198,-1.79158
-588,323,-4.07019,1.94543,0,0,0,0,0,0,0,-1,636,701,-4.07019,-1.94542
-581,323,-6.63727,0.562805,0,0,0,0,0,0,0,-1,643,701,-6.63728,-0.56279
-574,323,-6.15887,0.426697,0,0,0,0,0,0,0,-1,650,701,-6.15887,-0.426727
-567,323,-8.52582,0.432068,0,0,0,0,0,0,0,-1,657,701,-8.52583,-0.432052
-560,323,-8.02454,0.167297,0,0,0,0,0,0,0,-1,664,701,-8.02454,-0.167305
-553,323,-7.90411,-0.106384,-0.00921712,-0.00298087,-0.0125048,0.00678866,-0.0189867,-0.907584,0.0154269,0.0347951,671,701,-7.90414,0.106393
-546,323,-7.89697,-0.302612,-0.00673296,-0.00218903,-0.00969812,0.00549969,-0.0144217,-0.900458,0.0118799,0.0132461,678,701,-7.897,0.302605
-539,323,-7.88885,-0.545166,-0.00439373,-0.00162391,-0.00726547,0.00438747,-0.0104051,-0.879576,0.00877289,0.0117085,685,701,-7.88886,0.545183
-532,323,-7.90021,-0.843323,-0.00259113,-0.00108691,-0.00526309,0.00347754,-0.00715558,-0.856369,0.00626026,0.00956925,692,701,-7.90023,0.843312
-525,323,-7.90918,-1.12421,-0.00116677,-0.0006181,-0.00355097,0.00266912,-0.00445399,-0.82395,0.00415534,0.00759843,699,701,-7.90916,1.1242
-518,323,-7.90411,-1.36719,-1.91399e-05,-0.000347207,-0.00235158,0.00217413,-0.00254047,-0.750577,0.00272471,0.00964549,706,701,-7.90409,1.3672
-511,323,-7.93018,-1.65582,0.00059742,-0.000445824,-0.00119955,0.00138386,-0.00123226,-0.580307,0.00151126,0.0133529,713,701,-7.9302,1.65585
-504,323,-7.94635,-1.95111,0.00111317,-0.000235301,-0.000607413,0.00134643,-0.000468559,-0.366653,0.00108797,0.0145442,720,701,-7.94633,1.95113
-497,323,-7.9295,-2.23438,0.00200636,-0.00113359,0.000537021,0.00209567,-0.00122289,0.164791,0.00193793,0.0114178,727,701,-7.92949,2.23438
-490,323,-7.90955,-2.52673,0.00338437,-0.00293113,0.00209805,0.00401782,-0.00356458,0.29322,0.00438031,0.0120833,734,701,-7.90953,2.52675
-483,323,-7.91248,-2.80768,0.00509954,-0.00495221,0.00431617,0.00669853,-0.00655119,0.354788,0.00764989,0.0183117,741,701,-7.91245,2.8077
-476,323,-7.81677,-3.10138,0.00731662,-0.00771172,0.00701991,0.0100855,-0.0104806,0.375702,0.0118746,0.0433896,748,701,-7.81675,3.10138
-469,323,-7.30707,-2.99976,0,0,0,0,0,0,0,-1,755,701,-7.30707,2.99975
-462,323,-5.29431,-1.45697,0,0,0,0,0,0,0,-1,762,701,-5.29431,1.45699
-455,323,-5.0658,-1.36639,0,0,0,0,0,0,0,-1,769,701,-5.06578,1.3664
-448,323,-4.91608,-1.59601,0,0,0,0,0,0,0,-1,776,701,-4.91606,1.59604
-441,323,-14.4006,0.535217,0,0,0,0,0,0,0,-1,783,701,-14.4006,-0.535203
-434,323,-15.3158,2.479,0,0,0,0,0,0,0,-1,790,701,-15.3158,-2.47898
-427,323,-15.4075,2.98248,0,0,0,0,0,0,0,-1,797,701,-15.4075,-2.98248
-420,323,-14.8839,3.49579,0,0,0,0,0,0,0,-1,804,701,-14.8839,-3.49579
-413,323,-14.0645,4.22607,0,0,0,0,0,0,0,-1,811,701,-14.0645,-4.22605
-406,323,0,0,0,0,0,0,0,0,0,-1,818,701,0,0
-399,323,0,0,0,0,0,0,0,0,0,-1,825,701,0,0
-392,323,0,0,0,0,0,0,0,0,0,-1,832,701,0,0
-385,323,0,0,0,0,0,0,0,0,0,-1,839,701,0,0
-378,323,0,0,0,0,0,0,0,0,0,-1,846,701,0,0
-371,323,0,0,0,0,0,0,0,0,0,-1,853,701,0,0
-364,323,0,0,0,0,0,0,0,0,0,-1,860,701,0,0
-357,323,0,0,0,0,0,0,0,0,0,-1,867,701,0,0
-350,323,0,0,0,0,0,0,0,0,0,-1,874,701,0,0
-343,323,0,0,0,0,0,0,0,0,0,-1,881,701,0,0
-336,323,0,0,0,0,0,0,0,0,0,-1,888,701,0,0
-329,323,0,0,0,0,0,0,0,0,0,-1,895,701,0,0
-322,323,0,0,0,0,0,0,0,0,0,-1,902,701,0,0
-315,323,0,0,0,0,0,0,0,0,0,-1,909,701,0,0
-308,323,0,0,0,0,0,0,0,0,0,-1,916,701,0,0
-301,323,0,0,0,0,0,0,0,0,0,-1,923,701,0,0
-294,323,0,0,0,0,0,0,0,0,0,-1,930,701,0,0
-287,323,0,0,0,0,0,0,0,0,0,-1,937,701,0,0
-280,323,0,0,0,0,0,0,0,0,0,-1,944,701,0,0
-273,323,0,0,0,0,0,0,0,0,0,-1,951,701,0,0
-266,323,0,0,0,0,0,0,0,0,0,-1,958,701,0,0
-259,323,0,0,0,0,0,0,0,0,0,-1,965,701,0,0
-252,323,0,0,0,0,0,0,0,0,0,-1,972,701,0,0
-245,323,0,0,0,0,0,0,0,0,0,-1,979,701,0,0
-238,323,0,0,0,0,0,0,0,0,0,-1,986,701,0,0
-231,323,0,0,0,0,0,0,0,0,0,-1,993,701,0,0
-224,323,0,0,0,0,0,0,0,0,0,-1,1000,701,0,0
-217,323,0,0,0,0,0,0,0,0,0,-1,1007,701,0,0
-210,323,0,0,0,0,0,0,0,0,0,-1,1014,701,0,0
-203,323,0,0,0,0,0,0,0,0,0,-1,1021,701,0,0
-196,323,0,0,0,0,0,0,0,0,0,-1,1028,701,0,0
-189,323,0,0,0,0,0,0,0,0,0,-1,1035,701,0,0
-182,323,0,0,0,0,0,0,0,0,0,-1,1042,701,0,0
-175,323,0,0,0,0,0,0,0,0,0,-1,1049,701,0,0
-168,323,0,0,0,0,0,0,0,0,0,-1,1056,701,0,0
-161,323,0,0,0,0,0,0,0,0,0,-1,1063,701,0,0
-154,323,0,0,0,0,0,0,0,0,0,-1,1070,701,0,0
-147,323,0,0,0,0,0,0,0,0,0,-1,1077,701,0,0
-140,323,0,0,0,0,0,0,0,0,0,-1,1084,701,0,0
-133,323,0,0,0,0,0,0,0,0,0,-1,1091,701,0,0
-126,323,0,0,0,0,0,0,0,0,0,-1,1098,701,0,0
-119,323,0,0,0,0,0,0,0,0,0,-1,1105,701,0,0
-112,323,0,0,0,0,0,0,0,0,0,-1,1112,701,0,0
-105,323,0,0,0,0,0,0,0,0,0,-1,1119,701,0,0
-98,323,0,0,0,0,0,0,0,0,0,-1,1126,701,0,0
-91,323,0,0,0,0,0,0,0,0,0,-1,1133,701,0,0
-84,323,0,0,0,0,0,0,0,0,0,-1,1140,701,0,0
-77,323,0,0,0,0,0,0,0,0,0,-1,1147,701,0,0
-70,323,0,0,0,0,0,0,0,0,0,-1,1154,701,0,0
-63,323,0,0,0,0,0,0,0,0,0,-1,1161,701,0,0
-56,323,0,0,0,0,0,0,0,0,0,-1,1168,701,0,0
-49,323,0,0,0,0,0,0,0,0,0,-1,1175,701,0,0
-42,323,0,0,0,0,0,0,0,0,0,-1,1182,701,0,0
-35,323,0,0,0,0,0,0,0,0,0,-1,1189,701,0,0
-28,323,0,0,0,0,0,0,0,0,0,-1,1196,701,0,0
-21,323,0,0,0,0,0,0,0,0,0,-1,1203,701,0,0
-14,323,0,0,0,0,0,0,0,0,0,-1,1210,701,0,0
-7,323,0,0,0,0,0,0,0,0,0,-1,1217,701,0,0
0,323,0,0,0,0,0,0,0,0,0,-1,1224,701,0,0
7,323,0,0,0,0,0,0,0,0,0,-1,1231,701,0,0
14,323,0,0,0,0,0,0,0,0,0,-1,1238,701,0,0
21,323,0,0,0,0,0,0,0,0,0,-1,1245,701,0,0
28,323,0,0,0,0,0,0,0,0,0,-1,1252,701,0,0
35,323,0,0,0,0,0,0,0,0,0,-1,1259,701,0,0
42,323,0,0,0,0,0,0,0,0,0,-1,1266,701,0,0
49,323,0,0,0,0,0,0,0,0,0,-1,1273,701,0,0
56,323,0,0,0,0,0,0,0,0,0,-1,1280,701,0,0
63,323,0,0,0,0,0,0,0,0,0,-1,1287,701,0,0
70,323,0,0,0,0,0,0,0,0,0,-1,1294,701,0,0
77,323,0,0,0,0,0,0,0,0,0,-1,1301,701,0,0
84,323,0,0,0,0,0,0,0,0,0,-1,1308,701,0,0
91,323,0,0,0,0,0,0,0,0,0,-1,1315,701,0,0
98,323,0,0,0,0,0,0,0,0,0,-1,1322,701,0,0
105,323,0,0,0,0,0,0,0,0,0,-1,1329,701,0,0
112,323,0,0,0,0,0,0,0,0,0,-1,1336,701,0,0
119,323,0,0,0,0,0,0,0,0,0,-1,1343,701,0,0
126,323,0,0,0,0,0,0,0,0,0,-1,1350,701,0,0
133,323,0,0,0,0,0,0,0,0,0,-1,1357,701,0,0
140,323,0,0,0,0,0,0,0,0,0,-1,1364,701,0,0
147,323,0,0,0,0,0,0,0,0,0,-1,1371,701,0,0
154,323,0,0,0,0,0,0,0,0,0,-1,1378,701,0,0
161,323,0,0,0,0,0,0,0,0,0,-1,1385,701,0,0
168,323,0,0,0,0,0,0,0,0,0,-1,1392,701,0,0
175,323,0,0,0,0,0,0,0,0,0,-1,1399,701,0,0
182,323,0,0,0,0,0,0,0,0,0,-1,1406,701,0,0
189,323,0,0,0,0,0,0,0,0,0,-1,1413,701,0,0
196,323,0,0,0,0,0,0,0,0,0,-1,1420,701,0,0
203,323,0,0,0,0,0,0,0,0,0,-1,1427,701,0,0
210,323,0,0,0,0,0,0,0,0,0,-1,1434,701,0,0
217,323,0,0,0,0,0,0,0,0,0,-1,1441,701,0,0
224,323,0,0,0,0,0,0,0,0,0,-1,1448,701,0,0
231,323,0,0,0,0,0,0,0,0,0,-1,1455,701,0,0
238,323,0,0,0,0,0,0,0,0,0,-1,1462,701,0,0
245,323,0,0,0,0,0,0,0,0,0,-1,1469,701,0,0
252,323,0,0,0,0,0,0,0,0,0,-1,1476,701,0,0
259,323,0,0,0,0,0,0,0,0,0,-1,1483,701,0,0
266,323,0,0,0,0,0,0,0,0,0,-1,1490,701,0,0
273,323,0,0,0,0,0,0,0,0,0,-1,1497,701,0,0
280,323,0,0,0,0,0,0,0,0,0,-1,1504,701,0,0
287,323,0,0,0,0,0,0,0,0,0,-1,1511,701,0,0
294,323,0,0,0,0,0,0,0,0,0,-1,1518,701,0,0
301,323,0,0,0,0,0,0,0,0,0,-1,1525,701,0,0
308,323,0,0,0,0,0,0,0,0,0,-1,1532,701,0,0
315,323,0,0,0,0,0,0,0,0,0,-1,1539,701,0,0
322,323,0,0,0,0,0,0,0,0,0,-1,1546,701,0,0
329,323,0,0,0,0,0,0,0,0,0,-1,1553,701,0,0
336,323,0,0,0,0,0,0,0,0,0,-1,1560,701,0,0
343,323,0,0,0,0,0,0,0,0,0,-1,1567,701,0,0
350,323,0,0,0,0,0,0,0,0,0,-1,1574,701,0,0
357,323,0,0,0,0,0,0,0,0,0,-1,1581,701,0,0
364,323,0,0,0,0,0,0,0,0,0,-1,1588,701,0,0
371,323,0,0,0,0,0,0,0,0,0,-1,1595,701,0,0
378,323,0,0,0,0,0,0,0,0,0,-1,1602,701,0,0
385,323,0,0,0,0,0,0,0,0,0,-1,1609,701,0,0
392,323,0,0,0,0,0,0,0,0,0,-1,1616,701,0,0
399,323,0,0,0,0,0,0,0,0,0,-1,1623,701,0,0
406,323,0,0,0,0,0,0,0,0,0,-1,1630,701,0,0
413,323,0,0,0,0,0,0,0,0,0,-1,1637,701,0,0
420,323,0,0,0,0,0,0,0,0,0,-1,1644,701,0,0
427,323,0,0,0,0,0,0,0,0,0,-1,1651,701,0,0
434,323,0,0,0,0,0,0,0,0,0,-1,1658,701,0,0
441,323,0,0,0,0,0,0,0,0,0,-1,1665,701,0,0
448,323,0,0,0,0,0,0,0,0,0,-1,1672,701,0,0
455,323,0,0,0,0,0,0,0,0,0,-1,1679,701,0,0
462,323,0,0,0,0,0,0,0,0,0,-1,1686,701,0,0
469,323,0,0,0,0,0,0,0,0,0,-1,1693,701,0,0
476,323,0,0,0,0,0,0,0,0,0,-1,1700,701,0,0
483,323,0,0,0,0,0,0,0,0,0,-1,1707,701,0,0
490,323,0,0,0,0,0,0,0,0,0,-1,1714,701,0,0
497,323,0,0,0,0,0,0,0,0,0,-1,1721,701,0,0
504,323,0,0,0,0,0,0,0,0,0,-1,1728,701,0,0
511,323,0,0,0,0,0,0,0,0,0,-1,1735,701,0,0
518,323,0,0,0,0,0,0,0,0,0,-1,1742,701,0,0
525,323,0,0,0,0,0,0,0,0,0,-1,1749,701,0,0
532,323,22.2468,2.71307,0,0,0,0,0,0,0,-1,1756,701,22.2468,-2.71308
539,323,22.6949,3.42468,0,0,0,0,0,0,0,-1,1763,701,22.6949,-3.4247
546,323,23.5679,4.21869,0,0,0,0,0,0,0,-1,1770,701,23.5679,-4.21866
553,323,24.3749,5.09595,0,0,0,0,0,0,0,-1,1777,701,24.3749,-5.09596
560,323,19.1747,3.96667,0,0,0,0,0,0,0,-1,1784,701,19.1747,-3.96669
567,323,18.6687,4.57452,0,0,0,0,0,0,0,-1,1791,701,18.6686,-4.57453
574,323,12.514,5.89685,0,0,0,0,0,0,0,-1,1798,701,12.5141,-5.89683
581,323,11.821,5.3476,0,0,0,0,0,0,0,-1,1805,701,11.821,-5.34762
588,323,11.7933,7.00818,0,0,0,0,0,0,0,-1,1812,701,11.7933,-7.00819
595,323,6.67847,0.06604,0,0,0,0,0,0,0,-1,1819,701,6.67841,-0.0660418
602,323,11.2856,-0.595459,0,0,0,0,0,0,0,-1,1826,701,11.2856,0.595433
609,323,14.0612,-1.03052,0,0,0,0,0,0,0,-1,1833,701,14.0612,1.03052
616,323,14.1069,-0.695618,0.0022989,0.000342865,-0.00035864,0.00236258,0.000279182,-0.175737,0.00149074,0.0157432,1840,701,14.1069,0.695602
623,323,14.1273,-0.370972,0.00164767,0.000125847,-0.000128522,0.00165845,0.00011507,-0.0836629,0.00106934,0.0127395,1847,701,14.1273,0.370956
630,323,14.1367,-0.0587769,0.000990811,-7.6666e-05,-0.000182942,0.00102129,-0.000107148,-0.165103,0.000719243,0.0135254,1854,701,14.1367,0.0587466
637,323,14.1495,0.241211,0.000268053,-0.000297389,-0.000399515,0.000474764,-0.000504099,-0.477474,0.000565232,0.0109206,1861,701,14.1496,-0.241226
644,323,14.1257,0.533997,-0.000771705,-0.000444012,-0.000839132,0.00024712,-0.00146284,-0.881814,0.00106718,0.00790317,1868,701,14.1257,-0.53397
651,323,14.1128,0.843506,-0.00179382,-0.000658586,-0.00134155,0.000230488,-0.0026829,-0.985531,0.00187017,0.0091022,1875,701,14.1128,-0.843514
658,323,14.0793,1.1535,-0.00250672,-0.000674843,-0.00184042,0.000464961,-0.00364652,-1.01629,0.0025999,0.0125797,1882,701,14.0793,-1.15349
665,323,14.0664,1.42883,-0.00338143,-0.000686356,-0.0023933,0.000712694,-0.00478048,-1.0418,0.00344918,0.0112714,1889,701,14.0664,-1.42882
672,323,14.0829,1.73541,-0.00414303,-0.000551262,-0.00290732,0.00107012,-0.00576441,-1.06207,0.00424485,0.00995171,1896,701,14.0829,-1.7354
679,323,14.0574,2.04163,-0.00467539,-0.00026074,-0.0033236,0.00152175,-0.00645788,-1.07852,0.00489205,0.0204859,1903,701,14.0573,-2.04161
686,323,13.8102,2.18671,0,0,0,0,0,0,0,-1,1910,701,13.8102,-2.18673
693,323,13.4406,2.64978,0,0,0,0,0,0,0,-1,1917,701,13.4405,-2.64977
700,323,10.7705,0.828613,0,0,0,0,0,0,0,-1,1924,701,10.7705,-0.828591
707,323,16.9005,4.79193,0,0,0,0,0,0,0,-1,1931,701,16.9005,-4.7919
714,323,16.2346,6.25958,0,0,0,0,0,0,0,-1,1938,701,16.2346,-6.25956
721,323,0,0,0,0,0,0,0,0,0,-1,1945,701,0,0
728,323,0,0,0,0,0,0,0,0,0,-1,1952,701,0,0
735,323,0,0,0,0,0,0,0,0,0,-1,1959,701,0,0
742,323,0,0,0,0,0,0,0,0,0,-1,1966,701,0,0
749,323,0,0,0,0,0,0,0,0,0,-1,1973,701,0,0
756,323,0,0,0,0,0,0,0,0,0,-1,1980,701,0,0
763,323,0,0,0,0,0,0,0,0,0,-1,1987,701,0,0
770,323,0,0,0,0,0,0,0,0,0,-1,1994,701,0,0
777,323,0,0,0,0,0,0,0,0,0,-1,2001,701,0,0
784,323,0,0,0,0,0,0,0,0,0,-1,2008,701,0,0
791,323,0,0,0,0,0,0,0,0,0,-1,2015,701,0,0
798,323,0,0,0,0,0,0,0,0,0,-1,2022,701,0,0
805,323,0,0,0,0,0,0,0,0,0,-1,2029,701,0,0
812,323,0,0,0,0,0,0,0,0,0,-1,2036,701,0,0
-700,316,0,0,0,0,0,0,0,0,0,-1,524,708,0,0
-693,316,0,0,0,0,0,0,0,0,0,-1,531,708,0,0
-686,316,0,0,0,0,0,0,0,0,0,-1,538,708,0,0
-679,316,0,0,0,0,0,0,0,0,0,-1,545,708,0,0
-672,316,0,0,0,0,0,0,0,0,0,-1,552,708,0,0
-665,316,0,0,0,0,0,0,0,0,0,-1,559,708,0,0
-658,316,0,0,0,0,0,0,0,0,0,-1,566,708,0,0
-651,316,0,0,0,0,0,0,0,0,0,-1,573,708,0,0
-644,316,0,0,0,0,0,0,0,0,0,-1,580,708,0,0
-637,316,0,0,0,0,0,0,0,0,0,-1,587,708,0,0
-630,316,0,0,0,0,0,0,0,0,0,-1,594,708,0,0
-623,316,0,0,0,0,0,0,0,0,0,-1,601,708,0,0
-616,316,0,0,0,0,0,0,0,0,0,-1,608,708,0,0
-609,316,0,0,0,0,0,0,0,0,0,-1,615,708,0,0
-602,316,-0.451782,-0.0494995,0,0,0,0,0,0,0,-1,622,708,-0.451768,0.0495022
-595,316,-3.3761,2.17188,0,0,0,0,0,0,0,-1,629,708,-3.37609,-2.17189
-588,316,-5.00177,2.60675,0,0,0,0,0,0,0,-1,636,708,-5.00175,-2.60676
-581,316,-3.94653,0.393433,0,0,0,0,0,0,0,-1,643,708,-3.94655,-0.39342
-574,316,-8.38586,1.82404,0,0,0,0,0,0,0,-1,650,708,-8.38588,-1.82404
-567,316,-8.16901,1.01971,-0.00806325,-0.00545817,-0.0122455,0.00555386,-0.0190753,-0.838383,0.0149169,0.0490392,657,708,-8.16898,-1.01969
-560,316,-7.81903,0.255676,0,0,0,0,0,0,0,-1,664,708,-7.81902,-0.255653
-553,316,-8.04132,-0.0310059,-0.00843345,-0.00201262,-0.00792315,0.00332583,-0.0137719,-0.977886,0.0104675,0.0311048,671,708,-8.04133,0.0310006
-546,316,-8.21002,-0.231384,-0.00683792,-0.00131576,-0.00613611,0.00265186,-0.0108055,-0.996814,0.00823129,0.0184662,678,708,-8.21003,0.231371
-539,316,-8.17798,-0.550476,-0.00465355,-0.00109281,-0.00441894,0.00189094,-0.0076373,-0.976898,0.00582506,0.0130599,685,708,-8.17799,0.550452
-532,316,-8.19037,-0.844238,-0.00294826,-0.000796315,-0.00300296,0.00131762,-0.0050622,-0.957425,0.00388913,0.0108596,692,708,-8.19035,0.844235
-525,316,-8.19086,-1.11713,-0.00161602,-0.000411164,-0.0018249,0.000908176,-0.00293536,-0.944824,0.00231967,0.00903824,699,708,-8.19087,1.11711
-518,316,-8.17102,-1.37781,-0.000619823,-0.000100174,-0.00111855,0.000788331,-0.00150833,-0.899518,0.00134752,0.00904263,706,708,-8.17104,1.37779
-511,316,-8.18512,-1.64667,-0.000319354,-2.35848e-05,-0.000417979,0.0002719,-0.000614839,-0.95543,0.000524566,0.0104619,713,708,-8.18511,1.64669
-504,316,-8.20789,-1.95709,-0.000242064,0.000441464,-0.000151595,0.000473577,-0.000274177,-1.36205,0.000436803,0.0134164,720,708,-8.20789,1.95711
-497,316,-8.18536,-2.23669,0.000354275,-0.000333085,0.00101189,0.00107926,-0.00105807,0.62169,0.001234,0.0118645,727,708,-8.18539,2.2367
-490,316,-8.17889,-2.51691,0.00145691,-0.00213805,0.00276342,0.00295601,-0.00363715,0.49705,0.00381333,0.014031,734,708,-8.1789,2.51689
-483,316,-8.12994,-2.84497,0.00293353,-0.00417341,0.00526194,0.00572948,-0.00696936,0.488415,0.00734332,0.0441632,741,708,-8.12992,2.84494
-476,316,-8.05579,-3.15204,0,0,0,0,0,0,0,-1,748,708,-8.0558,3.15203
-469,316,-6.24194,-1.42725,0,0,0,0,0,0,0,-1,755,708,-6.24192,1.42725
-462,316,-5.74237,-1.40039,0,0,0,0,0,0,0,-1,762,708,-5.74238,1.40039
-455,316,-5.44745,-1.21899,0,0,0,0,0,0,0,-1,769,708,-5.44746,1.21898
-448,316,-14.8945,0.655396,0,0,0,0,0,0,0,-1,776,708,-14.8946,-0.655396
-441,316,-14.9626,0.576111,0,0,0,0,0,0,0,-1,783,708,-14.9626,-0.576115
-434,316,-15.272,0.942993,0,0,0,0,0,0,0,-1,790,708,-15.272,-0.942979
-427,316,-14.6848,3.17792,0,0,0,0,0,0,0,-1,797,708,-14.6848,-3.1779
-420,316,-13.5587,2.737,0,0,0,0,0,0,0,-1,804,708,-13.5587,-2.73703
-413,316,0,0,0,0,0,0,0,0,0,-1,811,708,0,0
-406,316,0,0,0,0,0,0,0,0,0,-1,818,708,0,0
-399,316,0,0,0,0,0,0,0,0,0,-1,825,708,0,0
-392,316,0,0,0,0,0,0,0,0,0,-1,832,708,0,0
-385,316,0,0,0,0,0,0,0,0,0,-1,839,708,0,0
-378,316,0,0,0,0,0,0,0,0,0,-1,846,708,0,0
-371,316,0,0,0,0,0,0,0,0,0,-1,853,708,0,0
-364,316,0,0,0,0,0,0,0,0,0,-1,860,708,0,0
-357,316,0,0,0,0,0,0,0,0,0,-1,867,708,0,0
-350,316,0,0,0,0,0,0,0,0,0,-1,874,708,0,0
-343,316,0,0,0,0,0,0,0,0,0,-1,881,708,0,0
-336,316,0,0,0,0,0,0,0,0,0,-1,888,708,0,0
-329,316,0,0,0,0,0,0,0,0,0,-1,895,708,0,0
-322,316,0,0,0,0,0,0,0,0,0,-1,902,708,0,0
-315,316,0,0,0,0,0,0,0,0,0,-1,909,708,0,0
-308,316,0,0,0,0,0,0,0,0,0,-1,916,708,0,0
-301,316,0,0,0,0,0,0,0,0,0,-1,923,708,0,0
-294,316,0,0,0,0,0,0,0,0,0,-1,930,708,0,0
-287,316,0,0,0,0,0,0,0,0,0,-1,937,708,0,0
-280,316,0,0,0,0,0,0,0,0,0,-1,944,708,0,0
-273,316,0,0,0,0,0,0,0,0,0,-1,951,708,0,0
-266,316,0,0,0,0,0,0,0,0,0,-1,958,708,0,0
-259,316,0,0,0,0,0,0,0,0,0,-1,965,708,0,0
-252,316,0,0,0,0,0,0,0,0,0,-1,972,708,0,0
-245,316,0,0,0,0,0,0,0,0,0,-1,979,708,0,0
-238,316,0,0,0,0,0,0,0,0,0,-1,986,708,0,0
-231,316,0,0,0,0,0,0,0,0,0,-1,993,708,0,0
-224,316,0,0,0,0,0,0,0,0,0,-1,1000,708,0,0
-217,316,0,0,0,0,0,0,0,0,0,-1,1007,708,0,0
-210,316,0,0,0,0,0,0,0,0,0,-1,1014,708,0,0
-203,316,0,0,0,0,0,0,0,0,0,-1,1021,708,0,0
-196,316,0,0,0,0,0,0,0,0,0,-1,1028,708,0,0
-189,316,0,0,0,0,0,0,0,0,0,-1,1035,708,0,0
-182,316,0,0,0,0,0,0,0,0,0,-1,1042,708,0,0
-175,316,0,0,0,0,0,0,0,0,0,-1,1049,708,0,0
-168,316,0,0,0,0,0,0,0,0,0,-1,1056,708,0,0
-161,316,0,0,0,0,0,0,0,0,0,-1,1063,708,0,0
-154,316,0,0,0,0,0,0,0,0,0,-1,1070,708,0,0
-147,316,0,0,0,0,0,0,0,0,0,-1,1077,708,0,0
-140,316,0,0,0,0,0,0,0,0,0,-1,1084,708,0,0
-133,316,0,0,0,0,0,0,0,0,0,-1,1091,708,0,0
-126,316,0,0,0,0,0,0,0,0,0,-1,1098,708,0,0
-119,316,0,0,0,0,0,0,0,0,0,-1,1105,708,0,0
-112,316,0,0,0,0,0,0,0,0,0,-1,1112,708,0,0
-105,316,0,0,0,0,0,0,0,0,0,-1,1119,708,0,0
-98,316,0,0,0,0,0,0,0,0,0,-1,1126,708,0,0
-91,316,0,0,0,0,0,0,0,0,0,-1,1133,708,0,0
-84,316,0,0,0,0,0,0,0,0,0,-1,1140,708,0,0
-77,316,0,0,0,0,0,0,0,0,0,-1,1147,708,0,0
-70,316,0,0,0,0,0,0,0,0,0,-1,1154,708,0,0
-63,316,0,0,0,0,0,0,0,0,0,-1,1161,708,0,0
-56,316,0,0,0,0,0,0,0,0,0,-1,1168,708,0,0
-49,316,0,0,0,0,0,0,0,0,0,-1,1175,708,0,0
-42,316,0,0,0,0,0,0,0,0,0,-1,1182,708,0,0
-35,316,0,0,0,0,0,0,0,0,0,-1,1189,708,0,0
-28,316,0,0,0,0,0,0,0,0,0,-1,1196,708,0,0
-21,316,0,0,0,0,0,0,0,0,0,-1,1203,708,0,0
-14,316,0,0,0,0,0,0,0,0,0,-1,1210,708,0,0
-7,316,0,0,0,0,0,0,0,0,0,-1,1217,708,0,0
0,316,0,0,0,0,0,0,0,0,0,-1,1224,708,0,0
7,316,0,0,0,0,0,0,0,0,0,-1,1231,708,0,0
14,316,0,0,0,0,0,0,0,0,0,-1,1238,708,0,0
21,316,0,0,0,0,0,0,0,0,0,-1,1245,708,0,0
28,316,0,0,0,0,0,0,0,0,0,-1,1252,708,0,0
35,316,0,0,0,0,0,0,0,0,0,-1,1259,708,0,0
42,316,0,0,0,0,0,0,0,0,0,-1,1266,708,0,0
49,316,0,0,0,0,0,0,0,0,0,-1,1273,708,0,0
56,316,0,0,0,0,0,0,0,0,0,-1,1280,708,0,0
63,316,0,0,0,0,0,0,0,0,0,-1,1287,708,0,0
70,316,0,0,0,0,0,0,0,0,0,-1,1294,708,0,0
77,316,0,0,0,0,0,0,0,0,0,-1,1301,708,0,0
84,316,0,0,0,0,0,0,0,0,0,-1,1308,708,0,0
91,316,0,0,0,0,0,0,0,0,0,-1,1315,708,0,0
98,316,0,0,0,0,0,0,0,0,0,-1,1322,708,0,0
105,316,0,0,0,0,0,0,0,0,0,-1,1329,708,0,0
112,316,0,0,0,0,0,0,0,0,0,-1,1336,708,0,0
119,316,0,0,0,0,0,0,0,0,0,-1,1343,708,0,0
126,316,0,0,0,0,0,0,0,0,0,-1,1350,708,0,0
133,316,0,0,0,0,0,0,0,0,0,-1,1357,708,0,0
140,316,0,0,0,0,0,0,0,0,0,-1,1364,708,0,0
147,316,0,0,0,0,0,0,0,0,0,-1,1371,708,0,0
154,316,0,0,0,0,0,0,0,0,0,-1,1378,708,0,0
161,316,0,0,0,0,0,0,0,0,0,-1,1385,708,0,0
168,316,0,0,0,0,0,0,0,0,0,-1,1392,708,0,0
175,316,0,0,0,0,0,0,0,0,0,-1,1399,708,0,0
182,316,0,0,0,0,0,0,0,0,0,-1,1406,708,0,0
189,316,0,0,0,0,0,0,0,0,0,-1,1413,708,0,0
196,316,0,0,0,0,0,0,0,0,0,-1,1420,708,0,0
203,316,0,0,0,0,0,0,0,0,0,-1,1427,708,0,0
210,316,0,0,0,0,0,0,0,0,0,-1,1434,708,0,0
217,316,0,0,0,0,0,0,0,0,0,-1,1441,708,0,0
224,316,0,0,0,0,0,0,0,0,0,-1,1448,708,0,0
231,316,0,0,0,0,0,0,0,0,0,-1,1455,708,0,0
238,316,0,0,0,0,0,0,0,0,0,-1,1462,708,0,0
245,316,0,0,0,0,0,0,0,0,0,-1,1469,708,0,0
252,316,0,0,0,0,0,0,0,0,0,-1,1476,708,0,0
259,316,0,0,0,0,0,0,0,0,0,-1,1483,708,0,0
266,316,0,0,0,0,0,0,0,0,0,-1,1490,708,0,0
273,316,0,0,0,0,0,0,0,0,0,-1,1497,708,0,0
280,316,0,0,0,0,0,0,0,0,0,-1,1504,708,0,0
287,316,0,0,0,0,0,0,0,0,0,-1,1511,708,0,0
294,316,0,0,0,0,0,0,0,0,0,-1,1518,708,0,0
301,316,0,0,0,0,0,0,0,0,0,-1,1525,708,0,0
308,316,0,0,0,0,0,0,0,0,0,-1,1532,708,0,0
315,316,0,0,0,0,0,0,0,0,0,-1,1539,708,0,0
322,316,0,0,0,0,0,0,0,0,0,-1,1546,708,0,0
329,316,0,0,0,0,0,0,0,0,0,-1,1553,708,0,0
336,316,0,0,0,0,0,0,0,0,0,-1,1560,708,0,0
343,316,0,0,0,0,0,0,0,0,0,-1,1567,708,0,0
350,316,0,0,0,0,0,0,0,0,0,-1,1574,708,0,0
357,316,0,0,0,0,0,0,0,0,0,-1,1581,708,0,0
364,316,0,0,0,0,0,0,0,0,0,-1,1588,708,0,0
371,316,0,0,0,0,0,0,0,0,0,-1,1595,708,0,0
378,316,0,0,0,0,0,0,0,0,0,-1,1602,708,0,0
385,316,0,0,0,0,0,0,0,0,0,-1,1609,708,0,0
392,316,0,0,0,0,0,0,0,0,0,-1,1616,708,0,0
399,316,0,0,0,0,0,0,0,0,0,-1,1623,708,0,0
406,316,0,0,0,0,0,0,0,0,0,-1,1630,708,0,0
413,316,0,0,0,0,0,0,0,0,0,-1,1637,708,0,0
420,316,0,0,0,0,0,0,0,0,0,-1,1644,708,0,0
427,316,0,0,0,0,0,0,0,0,0,-1,1651,708,0,0
434,316,0,0,0,0,0,0,0,0,0,-1,1658,708,0,0
441,316,0,0,0,0,0,0,0,0,0,-1,1665,708,0,0
448,316,0,0,0,0,0,0,0,0,0,-1,1672,708,0,0
455,316,0,0,0,0,0,0,0,0,0,-1,1679,708,0,0
462,316,0,0,0,0,0,0,0,0,0,-1,1686,708,0,0
469,316,0,0,0,0,0,0,0,0,0,-1,1693,708,0,0
476,316,0,0,0,0,0,0,0,0,0,-1,1700,708,0,0
483,316,0,0,0,0,0,0,0,0,0,-1,1707,708,0,0
490,316,0,0,0,0,0,0,0,0,0,-1,1714,708,0,0
497,316,0,0,0,0,0,0,0,0,0,-1,1721,708,0,0
504,316,0,0,0,0,0,0,0,0,0,-1,1728,708,0,0
511,316,0,0,0,0,0,0,0,0,0,-1,1735,708,0,0
518,316,0,0,0,0,0,0,0,0,0,-1,1742,708,0,0
525,316,0,0,0,0,0,0,0,0,0,-1,1749,708,0,0
532,316,22.8335,1.74329,0,0,0,0,0,0,0,-1,1756,708,22.8335,-1.74327
539,316,23.8202,2.48529,0,0,0,0,0,0,0,-1,1763,708,23.8202,-2.48526
546,316,23.8256,3.99957,0,0,0,0,0,0,0,-1,1770,708,23.8256,-3.9996
553,316,23.8309,5.51392,0,0,0,0,0,0,0,-1,1777,708,23.8309,-5.51393
560,316,19.39,3.67322,0,0,0,0,0,0,0,-1,1784,708,19.39,-3.67322
567,316,22.0409,4.57452,0,0,0,0,0,0,0,-1,1791,708,22.0409,-4.57452
574,316,22.9047,1.6745,0,0,0,0,0,0,0,-1,1798,708,22.9047,-1.67449
581,316,23.7242,2.23938,0,0,0,0,0,0,0,-1,1805,708,23.7243,-2.23941
588,316,19.7659,2.90198,0,0,0,0,0,0,0,-1,1812,708,19.7659,-2.902
595,316,12.5363,1.50702,0,0,0,0,0,0,0,-1,1819,708,12.5363,-1.50701
602,316,7.79919,0.0422363,0,0,0,0,0,0,0,-1,1826,708,7.79923,-0.0422066
609,316,14.3414,-1.04584,0,0,0,0,0,0,0,-1,1833,708,14.3414,1.04585
616,316,14.4155,-0.687073,0.00277817,0.00072977,-0.00102424,0.00320244,0.000305504,-0.392709,0.00204076,0.0205702,1840,708,14.4155,0.687057
623,316,14.4325,-0.370422,0.00189323,0.000364907,-0.000456598,0.00201925,0.000238886,-0.269295,0.00127403,0.0107047,1847,708,14.4325,0.370426
630,316,14.4082,-0.0785522,0.00116486,8.00945e-05,-0.000320672,0.00125257,-7.6092e-06,-0.266971,0.000837593,0.0123481,1854,708,14.4082,0.0785554
637,316,14.4205,0.25177,0.000490261,-0.000154288,-0.000378141,0.000664828,-0.000328856,-0.432496,0.000584532,0.0117164,1861,708,14.4205,-0.251782
644,316,14.4335,0.560608,-0.000414936,-0.000287607,-0.000667906,0.000319662,-0.0010222,-0.832915,0.000809347,0.0111652,1868,708,14.4335,-0.560638
651,316,14.4077,0.856262,-0.0012703,-0.000448144,-0.000993559,0.000216018,-0.00193447,-0.981548,0.00136735,0.012023,1875,708,14.4077,-0.856237
658,316,14.3734,1.15686,-0.00170656,-0.000356266,-0.00134629,0.000474684,-0.00253751,-1.01782,0.00187009,0.0213681,1882,708,14.3734,-1.15685
665,316,14.3601,1.45197,-0.00225575,-0.000241792,-0.00173091,0.000753746,-0.00325129,-1.04885,0.00245761,0.0171913,1889,708,14.36,-1.45197
672,316,14.386,1.7356,-0.00264782,3.1034e-05,-0.00206385,0.00115201,-0.00376879,-1.07323,0.00297191,0.0121759,1896,708,14.386,-1.7356
679,316,14.412,2.05951,-0.00275953,0.000473824,-0.00228403,0.00165544,-0.00394114,-1.09337,0.0033198,0.0177417,1903,708,14.412,-2.05953
686,316,14.246,2.28992,-0.00257399,0.0011055,-0.00245638,0.0023347,-0.0038032,-1.10682,0.00357737,0.0321072,1910,708,14.2459,-2.28992
693,316,13.9236,2.87286,0,0,0,0,0,0,0,-1,1917,708,13.9236,-2.87288
700,316,12.8749,2.89136,0,0,0,0,0,0,0,-1,1924,708,12.8748,-2.89137
707,316,15.7089,5.41486,0,0,0,0,0,0,0,-1,1931,708,15.7088,-5.41487
714,316,16.1727,5.52045,0,0,0,0,0,0,0,-1,1938,708,16.1728,-5.52042
721,316,16.7094,6.53351,0,0,0,0,0,0,0,-1,1945,708,16.7094,-6.5335
728,316,0,0,0,0,0,0,0,0,0,-1,1952,708,0,0
735,316,0,0,0,0,0,0,0,0,0,-1,1959,708,0,0
742,316,0,0,0,0,0,0,0,0,0,-1,1966,708,0,0
749,316,0,0,0,0,0,0,0,0,0,-1,1973,708,0,0
756,316,0,0,0,0,0,0,0,0,0,-1,1980,708,0,0
763,316,0,0,0,0,0,0,0,0,0,-1,1987,708,0,0
770,316,0,0,0,0,0,0,0,0,0,-1,1994,708,0,0
777,316,0,0,0,0,0,0,0,0,0,-1,2001,708,0,0
784,316,0,0,0,0,0,0,0,0,0,-1,2008,708,0,0
791,316,0,0,0,0,0,0,0,0,0,-1,2015,708,0,0
798,316,0,0,0,0,0,0,0,0,0,-1,2022,708,0,0
805,316,0,0,0,0,0,0,0,0,0,-1,2029,708,0,0
812,316,0,0,0,0,0,0,0,0,0,-1,2036,708,0,0
-700,309,0,0,0,0,0,0,0,0,0,-1,524,715,0,0
-693,309,0,0,0,0,0,0,0,0,0,-1,531,715,0,0
-686,309,0,0,0,0,0,0,0,0,0,-1,538,715,0,0
-679,309,0,0,0,0,0,0,0,0,0,-1,545,715,0,0
-672,309,0,0,0,0,0,0,0,0,0,-1,552,715,0,0
-665,309,0,0,0,0,0,0,0,0,0,-1,559,715,0,0
-658,309,0,0,0,0,0,0,0,0,0,-1,566,715,0,0
-651,309,0,0,0,0,0,0,0,0,0,-1,573,715,0,0
-644,309,0,0,0,0,0,0,0,0,0,-1,580,715,0,0
-637,309,0,0,0,0,0,0,0,0,0,-1,587,715,0,0
-630,309,0,0,0,0,0,0,0,0,0,-1,594,715,0,0
-623,309,0,0,0,0,0,0,0,0,0,-1,601,715,0,0
-616,309,0,0,0,0,0,0,0,0,0,-1,608,715,0,0
-609,309,-5.95392,-3.93689,0,0,0,0,0,0,0,-1,615,715,-5.95392,3.93686
-602,309,-4.99786,-3.31287,0,0,0,0,0,0,0,-1,622,715,-4.99786,3.31284
-595,309,-6.80847,2.4046,0,0,0,0,0,0,0,-1,629,715,-6.80845,-2.40458
-588,309,-6.08795,2.19324,0,0,0,0,0,0,0,-1,636,715,-6.08793,-2.19325
-581,309,-5.97552,1.3277,0,0,0,0,0,0,0,-1,643,715,-5.97552,-1.32769
-574,309,-6.26367,0.562744,0,0,0,0,0,0,0,-1,650,715,-6.26368,-0.562767
-567,309,-6.90912,-0.142883,0,0,0,0,0,0,0,-1,657,715,-6.9091,0.142895
-560,309,-7.96246,-0.258972,0,0,0,0,0,0,0,-1,664,715,-7.96243,0.258987
-553,309,-8.39484,-0.0367432,-0.0073062,-0.00122834,-0.00391755,0.00069078,-0.00922532,-1.11528,0.00639293,0.0332631,671,715,-8.39482,0.0367681
-546,309,-8.48792,-0.249451,-0.0062924,-0.000685059,-0.00312348,0.000708496,-0.00768596,-1.15115,0.00537572,0.0166528,678,715,-8.48793,0.249454
-539,309,-8.47998,-0.544189,-0.00432047,-0.000708591,-0.00214992,0.000293243,-0.0053223,-1.13473,0.00364988,0.015056,685,715,-8.47996,0.544206
-532,309,-8.47827,-0.831726,-0.00278926,-0.000537533,-0.00127007,3.38536e-05,-0.00336064,-1.14804,0.0022518,0.0124795,692,715,-8.47826,0.831708
-525,309,-8.47437,-1.11511,-0.00158688,-0.000107618,-0.000529176,6.21912e-05,-0.00175669,-1.26028,0.0011924,0.014561,699,715,-8.47435,1.11509
-518,309,-8.4599,-1.38568,-0.000759307,0.000381629,-0.00017599,0.000408159,-0.000785836,-1.42118,0.000700755,0.014489,706,715,-8.45989,1.3857
-511,309,-8.46265,-1.65271,-0.00072336,0.000810635,0.000253525,0.000851449,-0.000764175,1.41118,0.000933234,0.0119271,713,715,-8.46264,1.65271
-504,309,-8.46613,-1.9278,-0.000938733,0.00173142,0.000447473,0.00180442,-0.00101173,1.4091,0.00164723,0.00946981,720,715,-8.46615,1.9278
-497,309,-8.45111,-2.21185,-0.000421199,0.00128449,0.00180247,0.0024257,-0.00156241,1.00637,0.00232044,0.0129844,727,715,-8.45111,2.21182
-490,309,-8.44165,-2.48059,0.000710402,-0.000298705,0.00382474,0.00406373,-0.00365203,0.719818,0.00445681,0.0296411,734,715,-8.44168,2.48056
-483,309,-8.27454,-2.91693,0,0,0,0,0,0,0,-1,741,715,-8.27454,2.91694
-476,309,-5.29486,-1.2262,0,0,0,0,0,0,0,-1,748,715,-5.29484,1.22622
-469,309,-4.22717,-0.592896,0,0,0,0,0,0,0,-1,755,715,-4.2272,0.592905
-462,309,-10.428,2.46948,0,0,0,0,0,0,0,-1,762,715,-10.428,-2.46947
-455,309,-15.8216,0.00915527,0,0,0,0,0,0,0,-1,769,715,-15.8216,-0.00913359
-448,309,-15.4611,0.366089,0.0271306,-0.0306212,0.0347674,0.0434497,-0.0469403,0.438853,0.0521997,0.0487894,776,715,-15.4611,-0.366079
-441,309,-15.3824,0.434998,0,0,0,0,0,0,0,-1,783,715,-15.3824,-0.434975
-434,309,-15.3519,1.06873,0,0,0,0,0,0,0,-1,790,715,-15.3519,-1.06874
-427,309,-15.1996,1.32141,0,0,0,0,0,0,0,-1,797,715,-15.1996,-1.3214
-420,309,-13.3781,3.26843,0,0,0,0,0,0,0,-1,804,715,-13.3781,-3.26842
-413,309,0,0,0,0,0,0,0,0,0,-1,811,715,0,0
-406,309,0,0,0,0,0,0,0,0,0,-1,818,715,0,0
-399,309,0,0,0,0,0,0,0,0,0,-1,825,715,0,0
-392,309,0,0,0,0,0,0,0,0,0,-1,832,715,0,0
-385,309,0,0,0,0,0,0,0,0,0,-1,839,715,0,0
-378,309,0,0,0,0,0,0,0,0,0,-1,846,715,0,0
-371,309,0,0,0,0,0,0,0,0,0,-1,853,715,0,0
-364,309,0,0,0,0,0,0,0,0,0,-1,860,715,0,0
-357,309,0,0,0,0,0,0,0,0,0,-1,867,715,0,0
-350,309,0,0,0,0,0,0,0,0,0,-1,874,715,0,0
-343,309,0,0,0,0,0,0,0,0,0,-1,881,715,0,0
-336,309,0,0,0,0,0,0,0,0,0,-1,888,715,0,0
-329,309,0,0,0,0,0,0,0,0,0,-1,895,715,0,0
-322,309,0,0,0,0,0,0,0,0,0,-1,902,715,0,0
-315,309,0,0,0,0,0,0,0,0,0,-1,909,715,0,0
-308,309,0,0,0,0,0,0,0,0,0,-1,916,715,0,0
-301,309,0,0,0,0,0,0,0,0,0,-1,923,715,0,0
-294,309,0,0,0,0,0,0,0,0,0,-1,930,715,0,0
-287,309,0,0,0,0,0,0,0,0,0,-1,937,715,0,0
-280,309,0,0,0,0,0,0,0,0,0,-1,944,715,0,0
-273,309,0,0,0,0,0,0,0,0,0,-1,951,715,0,0
-266,309,0,0,0,0,0,0,0,0,0,-1,958,715,0,0
-259,309,0,0,0,0,0,0,0,0,0,-1,965,715,0,0
-252,309,0,0,0,0,0,0,0,0,0,-1,972,715,0,0
-245,309,0,0,0,0,0,0,0,0,0,-1,979,715,0,0
-238,309,0,0,0,0,0,0,0,0,0,-1,986,715,0,0
-231,309,0,0,0,0,0,0,0,0,0,-1,993,715,0,0
-224,309,0,0,0,0,0,0,0,0,0,-1,1000,715,0,0
-217,309,0,0,0,0,0,0,0,0,0,-1,1007,715,0,0
-210,309,0,0,0,0,0,0,0,0,0,-1,1014,715,0,0
-203,309,0,0,0,0,0,0,0,0,0,-1,1021,715,0,0
-196,309,0,0,0,0,0,0,0,0,0,-1,1028,715,0,0
-189,309,0,0,0,0,0,0,0,0,0,-1,1035,715,0,0
-182,309,0,0,0,0,0,0,0,0,0,-1,1042,715,0,0
-175,309,0,0,0,0,0,0,0,0,0,-1,1049,715,0,0
-168,309,0,0,0,0,0,0,0,0,0,-1,1056,715,0,0
-161,309,0,0,0,0,0,0,0,0,0,-1,1063,715,0,0
-154,309,0,0,0,0,0,0,0,0,0,-1,1070,715,0,0
-147,309,0,0,0,0,0,0,0,0,0,-1,1077,715,0,0
-140,309,0,0,0,0,0,0,0,0,0,-1,1084,715,0,0
-133,309,0,0,0,0,0,0,0,0,0,-1,1091,715,0,0
-126,309,0,0,0,0,0,0,0,0,0,-1,1098,715,0,0
-119,309,0,0,0,0,0,0,0,0,0,-1,1105,715,0,0
-112,309,0,0,0,0,0,0,0,0,0,-1,1112,715,0,0
-105,309,0,0,0,0,0,0,0,0,0,-1,1119,715,0,0
-98,309,0,0,0,0,0,0,0,0,0,-1,1126,715,0,0
-91,309,0,0,0,0,0,0,0,0,0,-1,1133,715,0,0
-84,309,0,0,0,0,0,0,0,0,0,-1,1140,715,0,0
-77,309,0,0,0,0,0,0,0,0,0,-1,1147,715,0,0
-70,309,0,0,0,0,0,0,0,0,0,-1,1154,715,0,0
-63,309,0,0,0,0,0,0,0,0,0,-1,1161,715,0,0
-56,309,0,0,0,0,0,0,0,0,0,-1,1168,715,0,0
-49,309,0,0,0,0,0,0,0,0,0,-1,1175,715,0,0
-42,309,0,0,0,0,0,0,0,0,0,-1,1182,715,0,0
-35,309,0,0,0,0,0,0,0,0,0,-1,1189,715,0,0
-28,309,0,0,0,0,0,0,0,0,0,-1,1196,715,0,0
-21,309,0,0,0,0,0,0,0,0,0,-1,1203,715,0,0
-14,309,0,0,0,0,0,0,0,0,0,-1,1210,715,0,0
-7,309,0,0,0,0,0,0,0,0,0,-1,1217,715,0,0
0,309,0,0,0,0,0,0,0,0,0,-1,1224,715,0,0
7,309,0,0,0,0,0,0,0,0,0,-1,1231,715,0,0
14,309,0,0,0,0,0,0,0,0,0,-1,1238,715,0,0
21,309,0,0,0,0,0,0,0,0,0,-1,1245,715,0,0
28,309,0,0,0,0,0,0,0,0,0,-1,1252,715,0,0
35,309,0,0,0,0,0,0,0,0,0,-1,1259,715,0,0
42,309,0,0,0,0,0,0,0,0,0,-1,1266,715,0,0
49,309,0,0,0,0,0,0,0,0,0,-1,1273,715,0,0
56,309,0,0,0,0,0,0,0,0,0,-1,1280,715,0,0
63,309,0,0,0,0,0,0,0,0,0,-1,1287,715,0,0
70,309,0,0,0,0,0,0,0,0,0,-1,1294,715,0,0
77,309,0,0,0,0,0,0,0,0,0,-1,1301,715,0,0
84,309,0,0,0,0,0,0,0,0,0,-1,1308,715,0,0
91,309,0,0,0,0,0,0,0,0,0,-1,1315,715,0,0
98,309,0,0,0,0,0,0,0,0,0,-1,1322,715,0,0
105,309,0,0,0,0,0,0,0,0,0,-1,1329,715,0,0
112,309,0,0,0,0,0,0,0,0,0,-1,1336,715,0,0
119,309,0,0,0,0,0,0,0,0,0,-1,1343,715,0,0
126,309,0,0,0,0,0,0,0,0,0,-1,1350,715,0,0
133,309,0,0,0,0,0,0,0,0,0,-1,1357,715,0,0
140,309,0,0,0,0,0,0,0,0,0,-1,1364,715,0,0
147,309,0,0,0,0,0,0,0,0,0,-1,1371,715,0,0
154,309,0,0,0,0,0,0,0,0,0,-1,1378,715,0,0
161,309,0,0,0,0,0,0,0,0,0,-1,1385,715,0,0
168,309,0,0,0,0,0,0,0,0,0,-1,1392,715,0,0
175,309,0,0,0,0,0,0,0,0,0,-1,1399,715,0,0
182,309,0,0,0,0,0,0,0,0,0,-1,1406,715,0,0
189,309,0,0,0,0,0,0,0,0,0,-1,1413,715,0,0
196,309,0,0,0,0,0,0,0,0,0,-1,1420,715,0,0
203,309,0,0,0,0,0,0,0,0,0,-1,1427,715,0,0
210,309,0,0,0,0,0,0,0,0,0,-1,1434,715,0,0
217,309,0,0,0,0,0,0,0,0,0,-1,1441,715,0,0
224,309,0,0,0,0,0,0,0,0,0,-1,1448,715,0,0
231,309,0,0,0,0,0,0,0,0,0,-1,1455,715,0,0
238,309,0,0,0,0,0,0,0,0,0,-1,1462,715,0,0
245,309,0,0,0,0,0,0,0,0,0,-1,1469,715,0,0
252,309,0,0,0,0,0,0,0,0,0,-1,1476,715,0,0
259,309,0,0,0,0,0,0,0,0,0,-1,1483,715,0,0
266,309,0,0,0,0,0,0,0,0,0,-1,1490,715,0,0
273,309,0,0,0,0,0,0,0,0,0,-1,1497,715,0,0
280,309,0,0,0,0,0,0,0,0,0,-1,1504,715,0,0
287,309,0,0,0,0,0,0,0,0,0,-1,1511,715,0,0
294,309,0,0,0,0,0,0,0,0,0,-1,1518,715,0,0
301,309,0,0,0,0,0,0,0,0,0,-1,1525,715,0,0
308,309,0,0,0,0,0,0,0,0,0,-1,1532,715,0,0
315,309,0,0,0,0,0,0,0,0,0,-1,1539,715,0,0
322,309,0,0,0,0,0,0,0,0,0,-1,1546,715,0,0
329,309,0,0,0,0,0,0,0,0,0,-1,1553,715,0,0
336,309,0,0,0,0,0,0,0,0,0,-1,1560,715,0,0
343,309,0,0,0,0,0,0,0,0,0,-1,1567,715,0,0
350,309,0,0,0,0,0,0,0,0,0,-1,1574,715,0,0
357,309,0,0,0,0,0,0,0,0,0,-1,1581,715,0,0
364,309,0,0,0,0,0,0,0,0,0,-1,1588,715,0,0
371,309,0,0,0,0,0,0,0,0,0,-1,1595,715,0,0
378,309,0,0,0,0,0,0,0,0,0,-1,1602,715,0,0
385,309,0,0,0,0,0,0,0,0,0,-1,1609,715,0,0
392,309,0,0,0,0,0,0,0,0,0,-1,1616,715,0,0
399,309,0,0,0,0,0,0,0,0,0,-1,1623,715,0,0
406,309,0,0,0,0,0,0,0,0,0,-1,1630,715,0,0
413,309,0,0,0,0,0,0,0,0,0,-1,1637,715,0,0
420,309,0,0,0,0,0,0,0,0,0,-1,1644,715,0,0
427,309,0,0,0,0,0,0,0,0,0,-1,1651,715,0,0
434,309,0,0,0,0,0,0,0,0,0,-1,1658,715,0,0
441,309,0,0,0,0,0,0,0,0,0,-1,1665,715,0,0
448,309,0,0,0,0,0,0,0,0,0,-1,1672,715,0,0
455,309,0,0,0,0,0,0,0,0,0,-1,1679,715,0,0
462,309,0,0,0,0,0,0,0,0,0,-1,1686,715,0,0
469,309,0,0,0,0,0,0,0,0,0,-1,1693,715,0,0
476,309,0,0,0,0,0,0,0,0,0,-1,1700,715,0,0
483,309,0,0,0,0,0,0,0,0,0,-1,1707,715,0,0
490,309,0,0,0,0,0,0,0,0,0,-1,1714,715,0,0
497,309,0,0,0,0,0,0,0,0,0,-1,1721,715,0,0
504,309,0,0,0,0,0,0,0,0,0,-1,1728,715,0,0
511,309,0,0,0,0,0,0,0,0,0,-1,1735,715,0,0
518,309,0,0,0,0,0,0,0,0,0,-1,1742,715,0,0
525,309,0,0,0,0,0,0,0,0,0,-1,1749,715,0,0
532,309,0,0,0,0,0,0,0,0,0,-1,1756,715,0,0
539,309,23.7823,1.90894,0,0,0,0,0,0,0,-1,1763,715,23.7823,-1.90896
546,309,23.774,3.50403,0,0,0,0,0,0,0,-1,1770,715,23.7741,-3.50403
553,309,23.6428,3.98926,0,0,0,0,0,0,0,-1,1777,715,23.6428,-3.98926
560,309,23.3464,4.13385,0,0,0,0,0,0,0,-1,1784,715,23.3465,-4.13383
567,309,22.1604,4.20935,0,0,0,0,0,0,0,-1,1791,715,22.1604,-4.20934
574,309,22.0831,4.87201,0,0,0,0,0,0,0,-1,1798,715,22.0831,-4.872
581,309,23.4667,2.21063,0,0,0,0,0,0,0,-1,1805,715,23.4667,-2.21066
588,309,24.2113,3.86719,0,0,0,0,0,0,0,-1,1812,715,24.2113,-3.86717
595,309,19.585,3.71558,0,0,0,0,0,0,0,-1,1819,715,19.5849,-3.71555
602,309,11.0811,3.47772,0,0,0,0,0,0,0,-1,1826,715,11.0811,-3.47772
609,309,14.6204,-1.05939,0,0,0,0,0,0,0,-1,1833,715,14.6204,1.05941
616,309,14.6971,-0.699707,0.00379334,0.00138926,-0.00242181,0.00529502,-0.000112415,-0.555042,0.00356807,0.0292893,1840,715,14.6972,0.699736
623,309,14.7438,-0.375305,0.00255746,0.000823288,-0.0012372,0.00320117,0.000179583,-0.47975,0.00207684,0.0111905,1847,715,14.7438,0.375319
630,309,14.715,-0.0681763,0.00160167,0.000419179,-0.00067386,0.00190689,0.000113954,-0.425304,0.00123503,0.0105568,1854,715,14.715,0.0681549
637,309,14.6888,0.261292,0.000828468,0.000125824,-0.000452737,0.00105021,-9.59138e-05,-0.455432,0.0007342,0.0128204,1861,715,14.6888,-0.261319
644,309,14.7,0.562744,-1.39131e-06,-4.3891e-05,-0.000514458,0.000492256,-0.000537538,-0.764757,0.000594743,0.0140841,1868,715,14.6999,-0.562727
651,309,14.7067,0.849182,-0.000799027,-0.000206347,-0.000623761,0.000187889,-0.00119326,-1.00716,0.000864967,0.0129588,1875,715,14.7067,-0.849172
658,309,14.6967,1.14111,-0.00107673,-6.33438e-05,-0.000908095,0.000469854,-0.00160993,-1.03987,0.00125947,0.018192,1882,715,14.6967,-1.14114
665,309,14.7046,1.44165,-0.00137293,0.000102447,-0.0012045,0.000777201,-0.00204769,-1.06016,0.00168504,0.0171796,1889,715,14.7046,-1.44165
672,309,14.7013,1.74438,-0.00148157,0.000408098,-0.00143858,0.00118437,-0.00225785,-1.07596,0.00201932,0.0155169,1896,715,14.7013,-1.74439
679,309,14.7162,2.05627,-0.00129188,0.00088585,-0.0015641,0.00170277,-0.0021088,-1.08947,0.00220477,0.0154942,1903,715,14.7162,-2.05626
686,309,14.6575,2.34058,-0.000769309,0.00154013,-0.0016277,0.0023811,-0.00161028,-1.09391,0.00231871,0.0221269,1910,715,14.6575,-2.34055
693,309,14.3616,2.70099,0.000384764,0.00273133,-0.00146448,0.00343456,-0.000318464,-1.12312,0.00240291,0.039536,1917,715,14.3616,-2.70096
700,309,14.1777,3.18915,0,0,0,0,0,0,0,-1,1924,715,14.1778,-3.18912
707,309,15.6318,4.58655,0,0,0,0,0,0,0,-1,1931,715,15.6318,-4.58657
714,309,15.7795,4.10205,0,0,0,0,0,0,0,-1,1938,715,15.7796,-4.10207
721,309,16.8337,5.4458,0,0,0,0,0,0,0,-1,1945,715,16.8338,-5.44582
728,309,0,0,0,0,0,0,0,0,0,-1,1952,715,0,0
735,309,0,0,0,0,0,0,0,0,0,-1,1959,715,0,0
742,309,0,0,0,0,0,0,0,0,0,-1,1966,715,0,0
749,309,0,0,0,0,0,0,0,0,0,-1,1973,715,0,0
756,309,0,0,0,0,0,0,0,0,0,-1,1980,715,0,0
763,309,0,0,0,0,0,0,0,0,0,-1,1987,715,0,0
770,309,0,0,0,0,0,0,0,0,0,-1,1994,715,0,0
777,309,0,0,0,0,0,0,0,0,0,-1,2001,715,0,0
784,309,0,0,0,0,0,0,0,0,0,-1,2008,715,0,0
791,309,0,0,0,0,0,0,0,0,0,-1,2015,715,0,0
798,309,0,0,0,0,0,0,0,0,0,-1,2022,715,0,0
805,309,0,0,0,0,0,0,0,0,0,-1,2029,715,0,0
812,309,0,0,0,0,0,0,0,0,0,-1,2036,715,0,0
-700,302,0,0,0,0,0,0,0,0,0,-1,524,722,0,0
-693,302,0,0,0,0,0,0,0,0,0,-1,531,722,0,0
-686,302,0,0,0,0,0,0,0,0,0,-1,538,722,0,0
-679,302,0,0,0,0,0,0,0,0,0,-1,545,722,0,0
-672,302,0,0,0,0,0,0,0,0,0,-1,552,722,0,0
-665,302,0,0,0,0,0,0,0,0,0,-1,559,722,0,0
-658,302,0,0,0,0,0,0,0,0,0,-1,566,722,0,0
-651,302,0,0,0,0,0,0,0,0,0,-1,573,722,0,0
-644,302,0,0,0,0,0,0,0,0,0,-1,580,722,0,0
-637,302,0,0,0,0,0,0,0,0,0,-1,587,722,0,0
-630,302,0,0,0,0,0,0,0,0,0,-1,594,722,0,0
-623,302,0,0,0,0,0,0,0,0,0,-1,601,722,0,0
-616,302,0,0,0,0,0,0,0,0,0,-1,608,722,0,0
-609,302,-7.79266,-3.71649,0,0,0,0,0,0,0,-1,615,722,-7.79267,3.7165
-602,302,0.92865,-1.99158,0,0,0,0,0,0,0,-1,622,722,0.928637,1.99157
-595,302,-7.89941,2.13641,0,0,0,0,0,0,0,-1,629,722,-7.89939,-2.13639
-588,302,-7.10895,1.79163,0,0,0,0,0,0,0,-1,636,722,-7.10896,-1.79163
-581,302,-7.32703,0.618835,0,0,0,0,0,0,0,-1,643,722,-7.32704,-0.618852
-574,302,-7.36121,0.559204,0.00607726,-0.00595103,0.000990468,0.00615827,-0.00603204,0.0816123,0.00703821,0.0470006,650,722,-7.36122,-0.559202
-567,302,-7.59552,0.124268,-0.000760032,-0.00300449,0.000207229,-0.000741059,-0.00302346,0.0913008,0.00181964,0.0480343,657,722,-7.59553,-0.124265
-560,302,-8.4588,-0.0548706,-0.00484041,-0.00108608,-9.12929e-05,-0.00108386,-0.00484263,-1.5465,0.00293463,0.045844,664,722,-8.45883,0.0548541
-553,302,-8.73871,0.0279541,-0.00659455,3.86597e-05,-0.000598297,9.21923e-05,-0.00664808,-1.48156,0.0044631,0.0189916,671,722,-8.73873,-0.0279493
-546,302,-8.74951,-0.265259,-0.00613318,0.000308357,-0.000712459,0.000386216,-0.00621104,-1.46195,0.00427525,0.0140417,678,722,-8.74949,0.26524
-539,302,-8.76221,-0.515442,-0.00432329,-3.71474e-05,-0.000382806,-3.22633e-06,-0.00435721,-1.48242,0.00290373,0.0145946,685,722,-8.7622,0.515414
-532,302,-8.75665,-0.794434,-0.00290395,-3.40161e-05,3.39167e-05,-3.36153e-05,-0.00290435,1.55898,0.00192512,0.0148856,692,722,-8.75667,0.794445
-525,302,-8.74286,-1.10034,-0.00181646,0.000375102,0.000382063,0.000439798,-0.00188116,1.40305,0.00142353,0.0190003,699,722,-8.74289,1.10035
-518,302,-8.7569,-1.38202,-0.0011548,0.000978765,0.000429375,0.00106193,-0.00123797,1.37947,0.00132915,0.0179276,706,722,-8.75692,1.38199
-511,302,-8.74841,-1.64056,-0.00142543,0.00166237,0.000593769,0.00177261,-0.00153567,1.38722,0.00191167,0.0098854,713,722,-8.74843,1.64055
-504,302,-8.74774,-1.90558,-0.00197279,0.00289123,0.000665426,0.00298062,-0.00206218,1.43726,0.00292751,0.00922518,720,722,-8.74773,1.90557
-497,302,-8.76508,-2.18542,-0.00153917,0.00262824,0.00210044,0.00350319,-0.00241412,1.1761,0.00343559,0.013234,727,722,-8.76506,2.18544
-490,302,-8.69385,-2.42651,-0.000384172,0.00109931,0.00425121,0.004673,-0.00395786,0.871768,0.00498873,0.0421764,734,722,-8.69386,2.42652
-483,302,-8.37701,-2.50226,0,0,0,0,0,0,0,-1,741,722,-8.37702,2.50223
-476,302,-4.29749,-0.203491,0,0,0,0,0,0,0,-1,748,722,-4.29751,0.203464
-469,302,-12.369,1.42859,0,0,0,0,0,0,0,-1,755,722,-12.3689,-1.42857
-462,302,-11.623,2.56793,0,0,0,0,0,0,0,-1,762,722,-11.623,-2.56794
-455,302,-16.671,0.0906982,0,0,0,0,0,0,0,-1,769,722,-16.671,-0.0906873
-448,302,-15.96,0.458618,0,0,0,0,0,0,0,-1,776,722,-15.96,-0.458623
-441,302,-15.324,0.542603,0,0,0,0,0,0,0,-1,783,722,-15.324,-0.542629
-434,302,-15.3647,1.21478,0.0536427,-0.0576059,0.0624525,0.0816508,-0.085614,0.421581,0.0965794,0.0472072,790,722,-15.3647,-1.21476
-427,302,-15.3611,1.80798,0,0,0,0,0,0,0,-1,797,722,-15.3611,-1.80801
-420,302,0,0,0,0,0,0,0,0,0,-1,804,722,0,0
-413,302,0,0,0,0,0,0,0,0,0,-1,811,722,0,0
-406,302,0,0,0,0,0,0,0,0,0,-1,818,722,0,0
-399,302,0,0,0,0,0,0,0,0,0,-1,825,722,0,0
-392,302,0,0,0,0,0,0,0,0,0,-1,832,722,0,0
-385,302,0,0,0,0,0,0,0,0,0,-1,839,722,0,0
-378,302,0,0,0,0,0,0,0,0,0,-1,846,722,0,0
-371,302,0,0,0,0,0,0,0,0,0,-1,853,722,0,0
-364,302,0,0,0,0,0,0,0,0,0,-1,860,722,0,0
-357,302,0,0,0,0,0,0,0,0,0,-1,867,722,0,0
-350,302,0,0,0,0,0,0,0,0,0,-1,874,722,0,0
-343,302,0,0,0,0,0,0,0,0,0,-1,881,722,0,0
-336,302,0,0,0,0,0,0,0,0,0,-1,888,722,0,0
-329,302,0,0,0,0,0,0,0,0,0,-1,895,722,0,0
-322,302,0,0,0,0,0,0,0,0,0,-1,902,722,0,0
-315,302,0,0,0,0,0,0,0,0,0,-1,909,722,0,0
-308,302,0,0,0,0,0,0,0,0,0,-1,916,722,0,0
-301,302,0,0,0,0,0,0,0,0,0,-1,923,722,0,0
-294,302,0,0,0,0,0,0,0,0,0,-1,930,722,0,0
-287,302,0,0,0,0,0,0,0,0,0,-1,937,722,0,0
-280,302,0,0,0,0,0,0,0,0,0,-1,944,722,0,0
-273,302,0,0,0,0,0,0,0,0,0,-1,951,722,0,0
-266,302,0,0,0,0,0,0,0,0,0,-1,958,722,0,0
-259,302,0,0,0,0,0,0,0,0,0,-1,965,722,0,0
-252,302,0,0,0,0,0,0,0,0,0,-1,972,722,0,0
-245,302,0,0,0,0,0,0,0,0,0,-1,979,722,0,0
-238,302,0,0,0,0,0,0,0,0,0,-1,986,722,0,0
-231,302,0,0,0,0,0,0,0,0,0,-1,993,722,0,0
-224,302,0,0,0,0,0,0,0,0,0,-1,1000,722,0,0
-217,302,0,0,0,0,0,0,0,0,0,-1,1007,722,0,0
-210,302,0,0,0,0,0,0,0,0,0,-1,1014,722,0,0
-203,302,0,0,0,0,0,0,0,0,0,-1,1021,722,0,0
-196,302,0,0,0,0,0,0,0,0,0,-1,1028,722,0,0
-189,302,0,0,0,0,0,0,0,0,0,-1,1035,722,0,0
-182,302,0,0,0,0,0,0,0,0,0,-1,1042,722,0,0
-175,302,0,0,0,0,0,0,0,0,0,-1,1049,722,0,0
-168,302,0,0,0,0,0,0,0,0,0,-1,1056,722,0,0
-161,302,0,0,0,0,0,0,0,0,0,-1,1063,722,0,0
-154,302,0,0,0,0,0,0,0,0,0,-1,1070,722,0,0
-147,302,0,0,0,0,0,0,0,0,0,-1,1077,722,0,0
-140,302,0,0,0,0,0,0,0,0,0,-1,1084,722,0,0
-133,302,0,0,0,0,0,0,0,0,0,-1,1091,722,0,0
-126,302,0,0,0,0,0,0,0,0,0,-1,1098,722,0,0
-119,302,0,0,0,0,0,0,0,0,0,-1,1105,722,0,0
-112,302,0,0,0,0,0,0,0,0,0,-1,1112,722,0,0
-105,302,0,0,0,0,0,0,0,0,0,-1,1119,722,0,0
-98,302,0,0,0,0,0,0,0,0,0,-1,1126,722,0,0
-91,302,0,0,0,0,0,0,0,0,0,-1,1133,722,0,0
-84,302,0,0,0,0,0,0,0,0,0,-1,1140,722,0,0
-77,302,0,0,0,0,0,0,0,0,0,-1,1147,722,0,0
-70,302,0,0,0,0,0,0,0,0,0,-1,1154,722,0,0
-63,302,0,0,0,0,0,0,0,0,0,-1,1161,722,0,0
-56,302,0,0,0,0,0,0,0,0,0,-1,1168,722,0,0
-49,302,0,0,0,0,0,0,0,0,0,-1,1175,722,0,0
-42,302,0,0,0,0,0,0,0,0,0,-1,1182,722,0,0
-35,302,0,0,0,0,0,0,0,0,0,-1,1189,722,0,0
-28,302,0,0,0,0,0,0,0,0,0,-1,1196,722,0,0
-21,302,0,0,0,0,0,0,0,0,0,-1,1203,722,0,0
-14,302,0,0,0,0,0,0,0,0,0,-1,1210,722,0,0
-7,302,0,0,0,0,0,0,0,0,0,-1,1217,722,0,0
0,302,0,0,0,0,0,0,0,0,0,-1,1224,722,0,0
7,302,0,0,0,0,0,0,0,0,0,-1,1231,722,0,0
14,302,0,0,0,0,0,0,0,0,0,-1,1238,722,0,0
21,302,0,0,0,0,0,0,0,0,0,-1,1245,722,0,0
28,302,0,0,0,0,0,0,0,0,0,-1,1252,722,0,0
35,302,0,0,0,0,0,0,0,0,0,-1,1259,722,0,0
42,302,0,0,0,0,0,0,0,0,0,-1,1266,722,0,0
49,302,0,0,0,0,0,0,0,0,0,-1,1273,722,0,0
56,302,0,0,0,0,0,0,0,0,0,-1,1280,722,0,0
63,302,0,0,0,0,0,0,0,0,0,-1,1287,722,0,0
70,302,0,0,0,0,0,0,0,0,0,-1,1294,722,0,0
77,302,0,0,0,0,0,0,0,0,0,-1,1301,722,0,0
84,302,0,0,0,0,0,0,0,0,0,-1,1308,722,0,0
91,302,0,0,0,0,0,0,0,0,0,-1,1315,722,0,0
98,302,0,0,0,0,0,0,0,0,0,-1,1322,722,0,0
105,302,0,0,0,0,0,0,0,0,0,-1,1329,722,0,0
112,302,0,0,0,0,0,0,0,0,0,-1,1336,722,0,0
119,302,0,0,0,0,0,0,0,0,0,-1,1343,722,0,0
126,302,0,0,0,0,0,0,0,0,0,-1,1350,722,0,0
133,302,0,0,0,0,0,0,0,0,0,-1,1357,722,0,0
140,302,0,0,0,0,0,0,0,0,0,-1,1364,722,0,0
147,302,0,0,0,0,0,0,0,0,0,-1,1371,722,0,0
154,302,0,0,0,0,0,0,0,0,0,-1,1378,722,0,0
161,302,0,0,0,0,0,0,0,0,0,-1,1385,722,0,0
168,302,0,0,0,0,0,0,0,0,0,-1,1392,722,0,0
175,302,0,0,0,0,0,0,0,0,0,-1,1399,722,0,0
182,302,0,0,0,0,0,0,0,0,0,-1,1406,722,0,0
189,302,0,0,0,0,0,0,0,0,0,-1,1413,722,0,0
196,302,0,0,0,0,0,0,0,0,0,-1,1420,722,0,0
203,302,0,0,0,0,0,0,0,0,0,-1,1427,722,0,0
210,302,0,0,0,0,0,0,0,0,0,-1,1434,722,0,0
217,302,0,0,0,0,0,0,0,0,0,-1,1441,722,0,0
224,302,0,0,0,0,0,0,0,0,0,-1,1448,722,0,0
231,302,0,0,0,0,0,0,0,0,0,-1,1455,722,0,0
238,302,0,0,0,0,0,0,0,0,0,-1,1462,722,0,0
245,302,0,0,0,0,0,0,0,0,0,-1,1469,722,0,0
252,302,0,0,0,0,0,0,0,0,0,-1,1476,722,0,0
259,302,0,0,0,0,0,0,0,0,0,-1,1483,722,0,0
266,302,0,0,0,0,0,0,0,0,0,-1,1490,722,0,0
273,302,0,0,0,0,0,0,0,0,0,-1,1497,722,0,0
280,302,0,0,0,0,0,0,0,0,0,-1,1504,722,0,0
287,302,0,0,0,0,0,0,0,0,0,-1,1511,722,0,0
294,302,0,0,0,0,0,0,0,0,0,-1,1518,722,0,0
301,302,0,0,0,0,0,0,0,0,0,-1,1525,722,0,0
308,302,0,0,0,0,0,0,0,0,0,-1,1532,722,0,0
315,302,0,0,0,0,0,0,0,0,0,-1,1539,722,0,0
322,302,0,0,0,0,0,0,0,0,0,-1,1546,722,0,0
329,302,0,0,0,0,0,0,0,0,0,-1,1553,722,0,0
336,302,0,0,0,0,0,0,0,0,0,-1,1560,722,0,0
343,302,0,0,0,0,0,0,0,0,0,-1,1567,722,0,0
350,302,0,0,0,0,0,0,0,0,0,-1,1574,722,0,0
357,302,0,0,0,0,0,0,0,0,0,-1,1581,722,0,0
364,302,0,0,0,0,0,0,0,0,0,-1,1588,722,0,0
371,302,0,0,0,0,0,0,0,0,0,-1,1595,722,0,0
378,302,0,0,0,0,0,0,0,0,0,-1,1602,722,0,0
385,302,0,0,0,0,0,0,0,0,0,-1,1609,722,0,0
392,302,0,0,0,0,0,0,0,0,0,-1,1616,722,0,0
399,302,0,0,0,0,0,0,0,0,0,-1,1623,722,0,0
406,302,0,0,0,0,0,0,0,0,0,-1,1630,722,0,0
413,302,0,0,0,0,0,0,0,0,0,-1,1637,722,0,0
420,302,0,0,0,0,0,0,0,0,0,-1,1644,722,0,0
427,302,0,0,0,0,0,0,0,0,0,-1,1651,722,0,0
434,302,0,0,0,0,0,0,0,0,0,-1,1658,722,0,0
441,302,0,0,0,0,0,0,0,0,0,-1,1665,722,0,0
448,302,0,0,0,0,0,0,0,0,0,-1,1672,722,0,0
455,302,0,0,0,0,0,0,0,0,0,-1,1679,722,0,0
462,302,0,0,0,0,0,0,0,0,0,-1,1686,722,0,0
469,302,0,0,0,0,0,0,0,0,0,-1,1693,722,0,0
476,302,0,0,0,0,0,0,0,0,0,-1,1700,722,0,0
483,302,0,0,0,0,0,0,0,0,0,-1,1707,722,0,0
490,302,0,0,0,0,0,0,0,0,0,-1,1714,722,0,0
497,302,0,0,0,0,0,0,0,0,0,-1,1721,722,0,0
504,302,0,0,0,0,0,0,0,0,0,-1,1728,722,0,0
511,302,0,0,0,0,0,0,0,0,0,-1,1735,722,0,0
518,302,0,0,0,0,0,0,0,0,0,-1,1742,722,0,0
525,302,0,0,0,0,0,0,0,0,0,-1,1749,722,0,0
532,302,0,0,0,0,0,0,0,0,0,-1,1756,722,0,0
539,302,0,0,0,0,0,0,0,0,0,-1,1763,722,0,0
546,302,23.9432,3.1958,0,0,0,0,0,0,0,-1,1770,722,23.9433,-3.19579
553,302,23.6431,3.60022,0,0,0,0,0,0,0,-1,1777,722,23.643,-3.60024
560,302,23.3378,3.75635,0,0,0,0,0,0,0,-1,1784,722,23.3377,-3.75634
567,302,22.287,3.9151,0,0,0,0,0,0,0,-1,1791,722,22.287,-3.9151
574,302,22.2272,4.58643,0,0,0,0,0,0,0,-1,1798,722,22.2272,-4.58644
581,302,23.3127,2.31232,0,0,0,0,0,0,0,-1,1805,722,23.3128,-2.31234
588,302,23.9078,3.19592,0,0,0,0,0,0,0,-1,1812,722,23.9079,-3.19592
595,302,24.4933,4.84674,0,0,0,0,0,0,0,-1,1819,722,24.4933,-4.84673
602,302,14.7349,5.21246,0,0,0,0,0,0,0,-1,1826,722,14.7349,-5.21247
609,302,11.1578,-0.125854,0,0,0,0,0,0,0,-1,1833,722,11.1579,0.125839
616,302,14.9963,-0.702026,0,0,0,0,0,0,0,-1,1840,722,14.9964,0.702029
623,302,15.0203,-0.365662,0.00590499,0.00193337,-0.00220754,0.00688847,0.000949885,-0.419113,0.00431072,0.0144533,1847,722,15.0203,0.365652
630,302,14.9982,-0.0460815,0.00399314,0.00126895,-0.00127153,0.0044944,0.000767689,-0.375511,0.00277598,0.0104133,1854,722,14.9982,0.0460617
637,302,14.9551,0.258545,0.00251039,0.000760681,-0.00075586,0.00279169,0.000479381,-0.356278,0.0017237,0.0135641,1861,722,14.9551,-0.258568
644,302,14.9928,0.555542,0.001242,0.000427359,-0.00052755,0.00150117,0.000168182,-0.456651,0.000949699,0.0151602,1868,722,14.9928,-0.555572
651,302,15.02,0.855896,0.000226761,0.000161175,-0.000345114,0.000540637,-0.0001527,-0.73803,0.000420667,0.0140271,1875,722,15.02,-0.855876
658,302,15.0316,1.13824,-0.000124013,0.000273588,-0.000512117,0.000624138,-0.000474563,-0.970542,0.000636292,0.0144844,1882,722,15.0316,-1.13823
665,302,15.0039,1.43427,-0.000386411,0.000410987,-0.000696331,0.000814683,-0.000790107,-1.0454,0.000926562,0.0143348,1889,722,15.0039,-1.43426
672,302,14.9862,1.73621,-0.000347297,0.000715227,-0.000817795,0.00115917,-0.000791242,-1.07345,0.00113273,0.0117315,1896,722,14.9863,-1.7362
679,302,14.9893,2.01837,4.79462e-05,0.00118895,-0.000893514,0.00167856,-0.000441666,-1.06952,0.00129168,0.00925281,1903,722,14.9893,-2.01838
686,302,15.0087,2.30963,0.000739868,0.00181823,-0.00089413,0.00232317,0.00023493,-1.05672,0.00147671,0.0132379,1910,722,15.0087,-2.30964
693,302,14.7847,2.53119,0.00194158,0.00286937,-0.000724841,0.00326605,0.0015449,-1.07005,0.00188657,0.0317747,1917,722,14.7847,-2.5312
700,302,15.1898,2.9408,0,0,0,0,0,0,0,-1,1924,722,15.1899,-2.94078
707,302,15.5167,3.62115,0,0,0,0,0,0,0,-1,1931,722,15.5167,-3.62113
714,302,16.1097,3.80829,0,0,0,0,0,0,0,-1,1938,722,16.1097,-3.8083
721,302,16.6721,3.78369,0,0,0,0,0,0,0,-1,1945,722,16.6721,-3.78371
728,302,17.2798,4.81702,0,0,0,0,0,0,0,-1,1952,722,17.2798,-4.81703
735,302,0,0,0,0,0,0,0,0,0,-1,1959,722,0,0
742,302,0,0,0,0,0,0,0,0,0,-1,1966,722,0,0
749,302,0,0,0,0,0,0,0,0,0,-1,1973,722,0,0
756,302,0,0,0,0,0,0,0,0,0,-1,1980,722,0,0
763,302,0,0,0,0,0,0,0,0,0,-1,1987,722,0,0
770,302,0,0,0,0,0,0,0,0,0,-1,1994,722,0,0
777,302,0,0,0,0,0,0,0,0,0,-1,2001,722,0,0
784,302,0,0,0,0,0,0,0,0,0,-1,2008,722,0,0
791,302,0,0,0,0,0,0,0,0,0,-1,2015,722,0,0
798,302,0,0,0,0,0,0,0,0,0,-1,2022,722,0,0
805,302,0,0,0,0,0,0,0,0,0,-1,2029,722,0,0
812,302,0,0,0,0,0,0,0,0,0,-1,2036,722,0,0
-700,295,0,0,0,0,0,0,0,0,0,-1,524,729,0,0
-693,295,0,0,0,0,0,0,0,0,0,-1,531,729,0,0
-686,295,0,0,0,0,0,0,0,0,0,-1,538,729,0,0
-679,295,0,0,0,0,0,0,0,0,0,-1,545,729,0,0
-672,295,0,0,0,0,0,0,0,0,0,-1,552,729,0,0
-665,295,0,0,0,0,0,0,0,0,0,-1,559,729,0,0
-658,295,0,0,0,0,0,0,0,0,0,-1,566,729,0,0
-651,295,0,0,0,0,0,0,0,0,0,-1,573,729,0,0
-644,295,0,0,0,0,0,0,0,0,0,-1,580,729,0,0
-637,295,0,0,0,0,0,0,0,0,0,-1,587,729,0,0
-630,295,0,0,0,0,0,0,0,0,0,-1,594,729,0,0
-623,295,0,0,0,0,0,0,0,0,0,-1,601,729,0,0
-616,295,-13.4911,1.31738,0,0,0,0,0,0,0,-1,608,729,-13.4911,-1.3174
-609,295,-10.2864,0.832031,0,0,0,0,0,0,0,-1,615,729,-10.2863,-0.832034
-602,295,-8.19006,3.01587,0,0,0,0,0,0,0,-1,622,729,-8.19005,-3.01588
-595,295,-0.615479,-1.95447,0,0,0,0,0,0,0,-1,629,729,-0.615481,1.95445
-588,295,-7.98999,1.56903,0,0,0,0,0,0,0,-1,636,729,-7.98997,-1.56905
-581,295,-8.14124,1.02399,0,0,0,0,0,0,0,-1,643,729,-8.14121,-1.024
-574,295,-8.31122,0.668884,0.00888931,-0.00373154,0.0036685,0.00987815,-0.00472038,0.263293,0.00860203,0.0466408,650,729,-8.3112,-0.668888
-567,295,-8.54333,0.354736,0.0018098,-0.00131045,0.00239304,0.00310635,-0.00260701,0.496527,0.00330281,0.0450213,657,729,-8.54332,-0.354755
-560,295,-8.98956,0.209839,-0.00293068,0.000232483,0.00168083,0.00095884,-0.00365704,1.16289,0.00281265,0.026968,664,729,-8.98956,-0.20985
-553,295,-8.96686,-0.0202026,-0.00538145,0.00102275,0.000832285,0.00112914,-0.00548785,1.44365,0.00408727,0.0170688,671,729,-8.96683,0.0201722
-546,295,-9.03345,-0.261597,-0.00550238,0.00106265,0.000418036,0.00108916,-0.00552889,1.50746,0.00409752,0.0186553,678,729,-9.03347,0.261614
-539,295,-9.03937,-0.498413,-0.00398063,0.000421139,0.000534693,0.000485158,-0.00404464,1.45163,0.00287184,0.0176454,685,729,-9.03937,0.498442
-532,295,-9.0271,-0.793762,-0.00275924,0.000319919,0.000809822,0.000519912,-0.00295924,1.32868,0.00216702,0.0160317,692,729,-9.02708,0.793785
-525,295,-9.01233,-1.09473,-0.00183724,0.000775554,0.00100425,0.00111694,-0.00217862,1.24311,0.00193533,0.0146837,699,729,-9.01235,1.09475
-518,295,-9.00928,-1.35791,-0.00141121,0.00156144,0.000885476,0.00180521,-0.00165498,1.30215,0.00199837,0.00971959,706,729,-9.0093,1.35793
-511,295,-9.01202,-1.61993,-0.00202972,0.00251464,0.000857383,0.00267102,-0.0021861,1.39039,0.00280892,0.0080366,713,729,-9.01205,1.61995
-504,295,-9.02716,-1.89709,-0.00287051,0.00408747,0.000820432,0.0041829,-0.00296594,1.455,0.00414727,0.0102471,720,729,-9.02716,1.89709
-497,295,-9.05725,-2.15723,-0.00255112,0.00411314,0.00221268,0.00478089,-0.00321886,1.2777,0.00464792,0.0162484,727,729,-9.05727,2.15724
-490,295,-9.10107,-2.40955,0,0,0,0,0,0,0,-1,734,729,-9.10106,2.40953
-483,295,-6.84503,-0.454651,0,0,0,0,0,0,0,-1,741,729,-6.84505,0.454639
-476,295,-13.1738,-0.836243,0,0,0,0,0,0,0,-1,748,729,-13.1738,0.836223
-469,295,-12.9013,1.63989,0,0,0,0,0,0,0,-1,755,729,-12.9013,-1.63986
-462,295,-17.7391,-0.14093,0,0,0,0,0,0,0,-1,762,729,-17.7391,0.140956
-455,295,-17.1051,0.372192,0,0,0,0,0,0,0,-1,769,729,-17.1051,-0.372172
-448,295,-16.468,0.806885,0.0267308,-0.0321824,0.0367347,0.0443606,-0.0498122,0.447457,0.054401,0.0448933,776,729,-16.468,-0.806912
-441,295,-15.9157,1.15167,0.0386933,-0.045133,0.0492015,0.0614137,-0.0678534,0.43261,0.0746633,0.0438538,783,729,-15.9157,-1.15169
-434,295,-15.6051,1.32324,0.0519125,-0.0582278,0.0622163,0.0799302,-0.0862454,0.423126,0.0959646,0.0465555,790,729,-15.6051,-1.32327
-427,295,0,0,0,0,0,0,0,0,0,-1,797,729,0,0
-420,295,0,0,0,0,0,0,0,0,0,-1,804,729,0,0
-413,295,0,0,0,0,0,0,0,0,0,-1,811,729,0,0
-406,295,0,0,0,0,0,0,0,0,0,-1,818,729,0,0
-399,295,0,0,0,0,0,0,0,0,0,-1,825,729,0,0
-392,295,0,0,0,0,0,0,0,0,0,-1,832,729,0,0
-385,295,0,0,0,0,0,0,0,0,0,-1,839,729,0,0
-378,295,0,0,0,0,0,0,0,0,0,-1,846,729,0,0
-371,295,0,0,0,0,0,0,0,0,0,-1,853,729,0,0
-364,295,0,0,0,0,0,0,0,0,0,-1,860,729,0,0
-357,295,0,0,0,0,0,0,0,0,0,-1,867,729,0,0
-350,295,0,0,0,0,0,0,0,0,0,-1,874,729,0,0
-343,295,0,0,0,0,0,0,0,0,0,-1,881,729,0,0
-336,295,0,0,0,0,0,0,0,0,0,-1,888,729,0,0
-329,295,0,0,0,0,0,0,0,0,0,-1,895,729,0,0
-322,295,0,0,0,0,0,0,0,0,0,-1,902,729,0,0
-315,295,0,0,0,0,0,0,0,0,0,-1,909,729,0,0
-308,295,0,0,0,0,0,0,0,0,0,-1,916,729,0,0
-301,295,0,0,0,0,0,0,0,0,0,-1,923,729,0,0
-294,295,0,0,0,0,0,0,0,0,0,-1,930,729,0,0
-287,295,0,0,0,0,0,0,0,0,0,-1,937,729,0,0
-280,295,0,0,0,0,0,0,0,0,0,-1,944,729,0,0
-273,295,0,0,0,0,0,0,0,0,0,-1,951,729,0,0
-266,295,0,0,0,0,0,0,0,0,0,-1,958,729,0,0
-259,295,0,0,0,0,0,0,0,0,0,-1,965,729,0,0
-252,295,0,0,0,0,0,0,0,0,0,-1,972,729,0,0
-245,295,0,0,0,0,0,0,0,0,0,-1,979,729,0,0
-238,295,0,0,0,0,0,0,0,0,0,-1,986,729,0,0
-231,295,0,0,0,0,0,0,0,0,0,-1,993,729,0,0
-224,295,0,0,0,0,0,0,0,0,0,-1,1000,729,0,0
-217,295,0,0,0,0,0,0,0,0,0,-1,1007,729,0,0
-210,295,0,0,0,0,0,0,0,0,0,-1,1014,729,0,0
-203,295,0,0,0,0,0,0,0,0,0,-1,1021,729,0,0
-196,295,0,0,0,0,0,0,0,0,0,-1,1028,729,0,0
-189,295,0,0,0,0,0,0,0,0,0,-1,1035,729,0,0
-182,295,0,0,0,0,0,0,0,0,0,-1,1042,729,0,0
-175,295,0,0,0,0,0,0,0,0,0,-1,1049,729,0,0
-168,295,0,0,0,0,0,0,0,0,0,-1,1056,729,0,0
-161,295,0,0,0,0,0,0,0,0,0,-1,1063,729,0,0
-154,295,0,0,0,0,0,0,0,0,0,-1,1070,729,0,0
-147,295,0,0,0,0,0,0,0,0,0,-1,1077,729,0,0
-140,295,0,0,0,0,0,0,0,0,0,-1,1084,729,0,0
-133,295,0,0,0,0,0,0,0,0,0,-1,1091,729,0,0
-126,295,0,0,0,0,0,0,0,0,0,-1,1098,729,0,0
-119,295,0,0,0,0,0,0,0,0,0,-1,1105,729,0,0
-112,295,0,0,0,0,0,0,0,0,0,-1,1112,729,0,0
-105,295,0,0,0,0,0,0,0,0,0,-1,1119,729,0,0
-98,295,0,0,0,0,0,0,0,0,0,-1,1126,729,0,0
-91,295,0,0,0,0,0,0,0,0,0,-1,1133,729,0,0
-84,295,0,0,0,0,0,0,0,0,0,-1,1140,729,0,0
-77,295,0,0,0,0,0,0,0,0,0,-1,1147,729,0,0
-70,295,0,0,0,0,0,0,0,0,0,-1,1154,729,0,0
-63,295,0,0,0,0,0,0,0,0,0,-1,1161,729,0,0
-56,295,0,0,0,0,0,0,0,0,0,-1,1168,729,0,0
-49,295,0,0,0,0,0,0,0,0,0,-1,1175,729,0,0
-42,295,0,0,0,0,0,0,0,0,0,-1,1182,729,0,0
-35,295,0,0,0,0,0,0,0,0,0,-1,1189,729,0,0
-28,295,0,0,0,0,0,0,0,0,0,-1,1196,729,0,0
-21,295,0,0,0,0,0,0,0,0,0,-1,1203,729,0,0
-14,295,0,0,0,0,0,0,0,0,0,-1,1210,729,0,0
-7,295,0,0,0,0,0,0,0,0,0,-1,1217,729,0,0
0,295,0,0,0,0,0,0,0,0,0,-1,1224,729,0,0
7,295,0,0,0,0,0,0,0,0,0,-1,1231,729,0,0
14,295,0,0,0,0,0,0,0,0,0,-1,1238,729,0,0
21,295,0,0,0,0,0,0,0,0,0,-1,1245,729,0,0
28,295,0,0,0,0,0,0,0,0,0,-1,1252,729,0,0
35,295,0,0,0,0,0,0,0,0,0,-1,1259,729,0,0
42,295,0,0,0,0,0,0,0,0,0,-1,1266,729,0,0
49,295,0,0,0,0,0,0,0,0,0,-1,1273,729,0,0
56,295,0,0,0,0,0,0,0,0,0,-1,1280,729,0,0
63,295,0,0,0,0,0,0,0,0,0,-1,1287,729,0,0
70,295,0,0,0,0,0,0,0,0,0,-1,1294,729,0,0
77,295,0,0,0,0,0,0,0,0,0,-1,1301,729,0,0
84,295,0,0,0,0,0,0,0,0,0,-1,1308,729,0,0
91,295,0,0,0,0,0,0,0,0,0,-1,1315,729,0,0
98,295,0,0,0,0,0,0,0,0,0,-1,1322,729,0,0
105,295,0,0,0,0,0,0,0,0,0,-1,1329,729,0,0
112,295,0,0,0,0,0,0,0,0,0,-1,1336,729,0,0
119,295,0,0,0,0,0,0,0,0,0,-1,1343,729,0,0
126,295,0,0,0,0,0,0,0,0,0,-1,1350,729,0,0
133,295,0,0,0,0,0,0,0,0,0,-1,1357,729,0,0
140,295,0,0,0,0,0,0,0,0,0,-1,1364,729,0,0
147,295,0,0,0,0,0,0,0,0,0,-1,1371,729,0,0
154,295,0,0,0,0,0,0,0,0,0,-1,1378,729,0,0
161,295,0,0,0,0,0,0,0,0,0,-1,1385,729,0,0
168,295,0,0,0,0,0,0,0,0,0,-1,1392,729,0,0
175,295,0,0,0,0,0,0,0,0,0,-1,1399,729,0,0
182,295,0,0,0,0,0,0,0,0,0,-1,1406,729,0,0
189,295,0,0,0,0,0,0,0,0,0,-1,1413,729,0,0
196,295,0,0,0,0,0,0,0,0,0,-1,1420,729,0,0
203,295,0,0,0,0,0,0,0,0,0,-1,1427,729,0,0
210,295,0,0,0,0,0,0,0,0,0,-1,1434,729,0,0
217,295,0,0,0,0,0,0,0,0,0,-1,1441,729,0,0
224,295,0,0,0,0,0,0,0,0,0,-1,1448,729,0,0
231,295,0,0,0,0,0,0,0,0,0,-1,1455,729,0,0
238,295,0,0,0,0,0,0,0,0,0,-1,1462,729,0,0
245,295,0,0,0,0,0,0,0,0,0,-1,1469,729,0,0
252,295,0,0,0,0,0,0,0,0,0,-1,1476,729,0,0
259,295,0,0,0,0,0,0,0,0,0,-1,1483,729,0,0
266,295,0,0,0,0,0,0,0,0,0,-1,1490,729,0,0
273,295,0,0,0,0,0,0,0,0,0,-1,1497,729,0,0
280,295,0,0,0,0,0,0,0,0,0,-1,1504,729,0,0
287,295,0,0,0,0,0,0,0,0,0,-1,1511,729,0,0
294,295,0,0,0,0,0,0,0,0,0,-1,1518,729,0,0
301,295,0,0,0,0,0,0,0,0,0,-1,1525,729,0,0
308,295,0,0,0,0,0,0,0,0,0,-1,1532,729,0,0
315,295,0,0,0,0,0,0,0,0,0,-1,1539,729,0,0
322,295,0,0,0,0,0,0,0,0,0,-1,1546,729,0,0
329,295,0,0,0,0,0,0,0,0,0,-1,1553,729,0,0
336,295,0,0,0,0,0,0,0,0,0,-1,1560,729,0,0
343,295,0,0,0,0,0,0,0,0,0,-1,1567,729,0,0
350,295,0,0,0,0,0,0,0,0,0,-1,1574,729,0,0
357,295,0,0,0,0,0,0,0,0,0,-1,1581,729,0,0
364,295,0,0,0,0,0,0,0,0,0,-1,1588,729,0,0
371,295,0,0,0,0,0,0,0,0,0,-1,1595,729,0,0
378,295,0,0,0,0,0,0,0,0,0,-1,1602,729,0,0
385,295,0,0,0,0,0,0,0,0,0,-1,1609,729,0,0
392,295,0,0,0,0,0,0,0,0,0,-1,1616,729,0,0
399,295,0,0,0,0,0,0,0,0,0,-1,1623,729,0,0
406,295,0,0,0,0,0,0,0,0,0,-1,1630,729,0,0
413,295,0,0,0,0,0,0,0,0,0,-1,1637,729,0,0
420,295,0,0,0,0,0,0,0,0,0,-1,1644,729,0,0
427,295,0,0,0,0,0,0,0,0,0,-1,1651,729,0,0
434,295,0,0,0,0,0,0,0,0,0,-1,1658,729,0,0
441,295,0,0,0,0,0,0,0,0,0,-1,1665,729,0,0
448,295,0,0,0,0,0,0,0,0,0,-1,1672,729,0,0
455,295,0,0,0,0,0,0,0,0,0,-1,1679,729,0,0
462,295,0,0,0,0,0,0,0,0,0,-1,1686,729,0,0
469,295,0,0,0,0,0,0,0,0,0,-1,1693,729,0,0
476,295,0,0,0,0,0,0,0,0,0,-1,1700,729,0,0
483,295,0,0,0,0,0,0,0,0,0,-1,1707,729,0,0
490,295,0,0,0,0,0,0,0,0,0,-1,1714,729,0,0
497,295,0,0,0,0,0,0,0,0,0,-1,1721,729,0,0
504,295,0,0,0,0,0,0,0,0,0,-1,1728,729,0,0
511,295,0,0,0,0,0,0,0,0,0,-1,1735,729,0,0
518,295,0,0,0,0,0,0,0,0,0,-1,1742,729,0,0
525,295,0,0,0,0,0,0,0,0,0,-1,1749,729,0,0
532,295,0,0,0,0,0,0,0,0,0,-1,1756,729,0,0
539,295,0,0,0,0,0,0,0,0,0,-1,1763,729,0,0
546,295,23.7863,2.93604,0,0,0,0,0,0,0,-1,1770,729,23.7863,-2.93602
553,295,23.6611,3.15771,0,0,0,0,0,0,0,-1,1777,729,23.6611,-3.1577
560,295,23.3792,3.3609,0,0,0,0,0,0,0,-1,1784,729,23.3791,-3.36092
567,295,22.7271,3.65295,0,0,0,0,0,0,0,-1,1791,729,22.727,-3.65298
574,295,22.5293,4.08533,0,0,0,0,0,0,0,-1,1798,729,22.5292,-4.0853
581,295,22.8427,2.10187,0,0,0,0,0,0,0,-1,1805,729,22.8427,-2.10189
588,295,23.5746,3.68939,0,0,0,0,0,0,0,-1,1812,729,23.5746,-3.68938
595,295,24.2026,3.16528,0,0,0,0,0,0,0,-1,1819,729,24.2026,-3.16531
602,295,24.8396,3.80621,0,0,0,0,0,0,0,-1,1826,729,24.8396,-3.80622
609,295,11.7737,2.19989,0,0,0,0,0,0,0,-1,1833,729,11.7736,-2.19988
616,295,15.2716,-0.654175,0,0,0,0,0,0,0,-1,1840,729,15.2716,0.654173
623,295,15.2777,-0.335754,0.00605931,0.00268898,-0.002404,0.00730996,0.00143833,-0.479705,0.00447165,0.0299856,1847,729,15.2777,0.335774
630,295,15.2791,-0.0294189,0.00375368,0.00195913,-0.00141809,0.00453452,0.00117828,-0.503328,0.0027168,0.0114402,1854,729,15.2791,0.0293917
637,295,15.2721,0.264832,0.00208587,0.00135436,-0.00080571,0.00260496,0.000835274,-0.572329,0.00153589,0.0135548,1861,729,15.2721,-0.264807
644,295,15.3025,0.562683,0.000819984,0.000891139,-0.000479628,0.00133651,0.000374616,-0.822419,0.000796077,0.013278,1868,729,15.3025,-0.562674
651,295,15.314,0.85968,-3.30336e-05,0.000521498,-0.000149984,0.000559464,-7.10001e-05,-1.32287,0.000398756,0.0126276,1875,729,15.314,-0.859652
658,295,15.2992,1.16187,-0.00010942,0.0005767,-0.000281699,0.000677537,-0.000210257,-1.22705,0.000535712,0.0123865,1882,729,15.2992,-1.16184
665,295,15.293,1.45111,-8.72701e-05,0.000635216,-0.00042304,0.000830264,-0.000282318,-1.13878,0.000667812,0.0117246,1889,729,15.293,-1.45113
672,295,15.2721,1.72998,0.000269456,0.000885016,-0.000479985,0.00114742,7.0486e-06,-1.07049,0.00076261,0.0121732,1896,729,15.2721,-1.72999
679,295,15.2629,2.01855,0.000921955,0.0013148,-0.000489951,0.00164624,0.000590521,-0.976042,0.000963022,0.0088115,1903,729,15.2629,-2.01853
686,295,15.2957,2.30389,0.0016193,0.00189815,-0.00044493,0.00222499,0.00129246,-0.937238,0.00129019,0.00862809,1910,729,15.2957,-2.30388
693,295,15.2742,2.55756,0.00282232,0.00278927,-0.000261419,0.00306774,0.00254386,-0.753831,0.00189483,0.0250758,1917,729,15.2741,-2.55756
700,295,15.3319,2.90009,0.00472655,0.00382516,0.000193216,0.00476622,0.00378549,0.202503,0.00290626,0.040397,1924,729,15.3319,-2.90006
707,295,15.7401,3.33026,0.00748189,0.00510365,0.000898981,0.00778346,0.00480208,0.323667,0.00453458,0.0486399,1931,729,15.7401,-3.33025
714,295,16.2864,3.4809,0,0,0,0,0,0,0,-1,1938,729,16.2864,-3.48087
721,295,16.835,3.6532,0,0,0,0,0,0,0,-1,1945,729,16.8349,-3.65319
728,295,17.379,3.74866,0,0,0,0,0,0,0,-1,1952,729,17.379,-3.74863
735,295,0,0,0,0,0,0,0,0,0,-1,1959,729,0,0
742,295,0,0,0,0,0,0,0,0,0,-1,1966,729,0,0
749,295,0,0,0,0,0,0,0,0,0,-1,1973,729,0,0
756,295,0,0,0,0,0,0,0,0,0,-1,1980,729,0,0
763,295,0,0,0,0,0,0,0,0,0,-1,1987,729,0,0
770,295,0,0,0,0,0,0,0,0,0,-1,1994,729,0,0
777,295,0,0,0,0,0,0,0,0,0,-1,2001,729,0,0
784,295,0,0,0,0,0,0,0,0,0,-1,2008,729,0,0
791,295,0,0,0,0,0,0,0,0,0,-1,2015,729,0,0
798,295,0,0,0,0,0,0,0,0,0,-1,2022,729,0,0
805,295,0,0,0,0,0,0,0,0,0,-1,2029,729,0,0
812,295,0,0,0,0,0,0,0,0,0,-1,2036,729,0,0
-700,288,0,0,0,0,0,0,0,0,0,-1,524,736,0,0
-693,288,0,0,0,0,0,0,0,0,0,-1,531,736,0,0
-686,288,0,0,0,0,0,0,0,0,0,-1,538,736,0,0
-679,288,0,0,0,0,0,0,0,0,0,-1,545,736,0,0
-672,288,0,0,0,0,0,0,0,0,0,-1,552,736,0,0
-665,288,0,0,0,0,0,0,0,0,0,-1,559,736,0,0
-658,288,0,0,0,0,0,0,0,0,0,-1,566,736,0,0
-651,288,0,0,0,0,0,0,0,0,0,-1,573,736,0,0
-644,288,0,0,0,0,0,0,0,0,0,-1,580,736,0,0
-637,288,0,0,0,0,0,0,0,0,0,-1,587,736,0,0
-630,288,0,0,0,0,0,0,0,0,0,-1,594,736,0,0
-623,288,0,0,0,0,0,0,0,0,0,-1,601,736,0,0
-616,288,-10.3702,1.7489,0,0,0,0,0,0,0,-1,608,736,-10.3702,-1.74891
-609,288,-10.1742,1.21307,0,0,0,0,0,0,0,-1,615,736,-10.1742,-1.21305
-602,288,-9.73364,0.596985,0,0,0,0,0,0,0,-1,622,736,-9.73363,-0.596981
-595,288,-7.63208,1.81769,0,0,0,0,0,0,0,-1,629,736,-7.63205,-1.81766
-588,288,-8.19269,1.50598,0,0,0,0,0,0,0,-1,636,736,-8.19268,-1.50601
-581,288,-9.11548,1.44537,0,0,0,0,0,0,0,-1,643,736,-9.11545,-1.44538
-574,288,-9.04089,0.991272,0.0113702,-0.00253902,0.00503957,0.0130042,-0.00417299,0.313535,0.0103449,0.0444077,650,736,-9.04089,-0.991263
-567,288,-9.12463,0.486755,0.0040563,-0.000459647,0.00347032,0.00593856,-0.00234191,0.496981,0.00492877,0.0277213,657,736,-9.12461,-0.486781
-560,288,-9.29218,0.190125,-0.00108525,0.000862512,0.00256416,0.0026315,-0.00285424,0.966887,0.00316807,0.0141727,664,736,-9.29216,-0.190106
-553,288,-9.2746,-0.0113525,-0.00398626,0.00146558,0.00158284,0.00189181,-0.00441249,1.30776,0.00373551,0.01817,671,736,-9.27461,0.0113755
-546,288,-9.3045,-0.233948,-0.00456814,0.00135657,0.00105885,0.00154012,-0.00475169,1.39915,0.00378704,0.0190002,678,736,-9.30453,0.233956
-539,288,-9.30542,-0.517395,-0.00338693,0.000478239,0.00109115,0.000764999,-0.00367369,1.3138,0.00273996,0.0157941,685,736,-9.30544,0.5174
-532,288,-9.26239,-0.804443,-0.00247509,0.000351605,0.00136207,0.000901108,-0.0030246,1.18733,0.00237446,0.0129264,692,736,-9.26242,0.804424
-525,288,-9.27185,-1.08783,-0.0018191,0.000922949,0.00151946,0.0015985,-0.00249464,1.15244,0.00238198,0.0123572,699,736,-9.27186,1.0878
-518,288,-9.30121,-1.3656,-0.00167482,0.00195503,0.00133042,0.00239043,-0.00211022,1.25452,0.00260013,0.0109623,706,736,-9.30124,1.36563
-511,288,-9.30389,-1.64313,-0.0025695,0.0031903,0.00118448,0.00342437,-0.00280357,1.3757,0.00360165,0.00827715,713,736,-9.3039,1.64311
-504,288,-9.3064,-1.91284,-0.00358514,0.00511174,0.0010875,0.00524567,-0.00371906,1.44826,0.00520074,0.0100915,720,736,-9.30641,1.91284
-497,288,-9.31012,-2.05841,-0.00335794,0.00550542,0.00235215,0.00609096,-0.00394347,1.32682,0.00583744,0.0215072,727,736,-9.31013,2.05841
-490,288,-9.26947,-2.1543,0,0,0,0,0,0,0,-1,734,736,-9.26945,2.15431
-483,288,-10.1179,0.754944,0,0,0,0,0,0,0,-1,741,736,-10.1179,-0.754927
-476,288,-13.4426,0.893005,0,0,0,0,0,0,0,-1,748,736,-13.4425,-0.893003
-469,288,-13.3106,1.60577,0,0,0,0,0,0,0,-1,755,736,-13.3106,-1.60578
-462,288,-17.1664,1.01508,0,0,0,0,0,0,0,-1,762,736,-17.1664,-1.0151
-455,288,-17.5288,1.19739,0,0,0,0,0,0,0,-1,769,736,-17.5288,-1.19738
-448,288,-16.9485,1.30658,0.0247325,-0.0303454,0.0353778,0.0420263,-0.0476392,0.454675,0.0518022,0.0461458,776,736,-16.9485,-1.3066
-441,288,-16.5155,1.76068,0.0365469,-0.0433327,0.0472046,0.0584413,-0.065227,0.434285,0.0714358,0.0439883,783,736,-16.5155,-1.76066
-434,288,-16.0714,2.14709,0,0,0,0,0,0,0,-1,790,736,-16.0714,-2.14712
-427,288,0,0,0,0,0,0,0,0,0,-1,797,736,0,0
-420,288,0,0,0,0,0,0,0,0,0,-1,804,736,0,0
-413,288,0,0,0,0,0,0,0,0,0,-1,811,736,0,0
-406,288,0,0,0,0,0,0,0,0,0,-1,818,736,0,0
-399,288,0,0,0,0,0,0,0,0,0,-1,825,736,0,0
-392,288,0,0,0,0,0,0,0,0,0,-1,832,736,0,0
-385,288,0,0,0,0,0,0,0,0,0,-1,839,736,0,0
-378,288,0,0,0,0,0,0,0,0,0,-1,846,736,0,0
-371,288,0,0,0,0,0,0,0,0,0,-1,853,736,0,0
-364,288,0,0,0,0,0,0,0,0,0,-1,860,736,0,0
-357,288,0,0,0,0,0,0,0,0,0,-1,867,736,0,0
-350,288,0,0,0,0,0,0,0,0,0,-1,874,736,0,0
-343,288,0,0,0,0,0,0,0,0,0,-1,881,736,0,0
-336,288,0,0,0,0,0,0,0,0,0,-1,888,736,0,0
-329,288,0,0,0,0,0,0,0,0,0,-1,895,736,0,0
-322,288,0,0,0,0,0,0,0,0,0,-1,902,736,0,0
-315,288,0,0,0,0,0,0,0,0,0,-1,909,736,0,0
-308,288,0,0,0,0,0,0,0,0,0,-1,916,736,0,0
-301,288,0,0,0,0,0,0,0,0,0,-1,923,736,0,0
-294,288,0,0,0,0,0,0,0,0,0,-1,930,736,0,0
-287,288,0,0,0,0,0,0,0,0,0,-1,937,736,0,0
-280,288,0,0,0,0,0,0,0,0,0,-1,944,736,0,0
-273,288,0,0,0,0,0,0,0,0,0,-1,951,736,0,0
-266,288,0,0,0,0,0,0,0,0,0,-1,958,736,0,0
-259,288,0,0,0,0,0,0,0,0,0,-1,965,736,0,0
-252,288,0,0,0,0,0,0,0,0,0,-1,972,736,0,0
-245,288,0,0,0,0,0,0,0,0,0,-1,979,736,0,0
-238,288,0,0,0,0,0,0,0,0,0,-1,986,736,0,0
-231,288,0,0,0,0,0,0,0,0,0,-1,993,736,0,0
-224,288,0,0,0,0,0,0,0,0,0,-1,1000,736,0,0
-217,288,0,0,0,0,0,0,0,0,0,-1,1007,736,0,0
-210,288,0,0,0,0,0,0,0,0,0,-1,1014,736,0,0
-203,288,0,0,0,0,0,0,0,0,0,-1,1021,736,0,0
-196,288,0,0,0,0,0,0,0,0,0,-1,1028,736,0,0
-189,288,0,0,0,0,0,0,0,0,0,-1,1035,736,0,0
-182,288,0,0,0,0,0,0,0,0,0,-1,1042,736,0,0
-175,288,0,0,0,0,0,0,0,0,0,-1,1049,736,0,0
-168,288,0,0,0,0,0,0,0,0,0,-1,1056,736,0,0
-161,288,0,0,0,0,0,0,0,0,0,-1,1063,736,0,0
-154,288,0,0,0,0,0,0,0,0,0,-1,1070,736,0,0
-147,288,0,0,0,0,0,0,0,0,0,-1,1077,736,0,0
-140,288,0,0,0,0,0,0,0,0,0,-1,1084,736,0,0
-133,288,0,0,0,0,0,0,0,0,0,-1,1091,736,0,0
-126,288,0,0,0,0,0,0,0,0,0,-1,1098,736,0,0
-119,288,0,0,0,0,0,0,0,0,0,-1,1105,736,0,0
-112,288,0,0,0,0,0,0,0,0,0,-1,1112,736,0,0
-105,288,0,0,0,0,0,0,0,0,0,-1,1119,736,0,0
-98,288,0,0,0,0,0,0,0,0,0,-1,1126,736,0,0
-91,288,0,0,0,0,0,0,0,0,0,-1,1133,736,0,0
-84,288,0,0,0,0,0,0,0,0,0,-1,1140,736,0,0
-77,288,0,0,0,0,0,0,0,0,0,-1,1147,736,0,0
-70,288,0,0,0,0,0,0,0,0,0,-1,1154,736,0,0
-63,288,0,0,0,0,0,0,0,0,0,-1,1161,736,0,0
-56,288,0,0,0,0,0,0,0,0,0,-1,1168,736,0,0
-49,288,0,0,0,0,0,0,0,0,0,-1,1175,736,0,0
-42,288,0,0,0,0,0,0,0,0,0,-1,1182,736,0,0
-35,288,0,0,0,0,0,0,0,0,0,-1,1189,736,0,0
-28,288,0,0,0,0,0,0,0,0,0,-1,1196,736,0,0
-21,288,0,0,0,0,0,0,0,0,0,-1,1203,736,0,0
-14,288,0,0,0,0,0,0,0,0,0,-1,1210,736,0,0
-7,288,0,0,0,0,0,0,0,0,0,-1,1217,736,0,0
0,288,0,0,0,0,0,0,0,0,0,-1,1224,736,0,0
7,288,0,0,0,0,0,0,0,0,0,-1,1231,736,0,0
14,288,0,0,0,0,0,0,0,0,0,-1,1238,736,0,0
21,288,0,0,0,0,0,0,0,0,0,-1,1245,736,0,0
28,288,0,0,0,0,0,0,0,0,0,-1,1252,736,0,0
35,288,0,0,0,0,0,0,0,0,0,-1,1259,736,0,0
42,288,0,0,0,0,0,0,0,0,0,-1,1266,736,0,0
49,288,0,0,0,0,0,0,0,0,0,-1,1273,736,0,0
56,288,0,0,0,0,0,0,0,0,0,-1,1280,736,0,0
63,288,0,0,0,0,0,0,0,0,0,-1,1287,736,0,0
70,288,0,0,0,0,0,0,0,0,0,-1,1294,736,0,0
77,288,0,0,0,0,0,0,0,0,0,-1,1301,736,0,0
84,288,0,0,0,0,0,0,0,0,0,-1,1308,736,0,0
91,288,0,0,0,0,0,0,0,0,0,-1,1315,736,0,0
98,288,0,0,0,0,0,0,0,0,0,-1,1322,736,0,0
105,288,0,0,0,0,0,0,0,0,0,-1,1329,736,0,0
112,288,0,0,0,0,0,0,0,0,0,-1,1336,736,0,0
119,288,0,0,0,0,0,0,0,0,0,-1,1343,736,0,0
126,288,0,0,0,0,0,0,0,0,0,-1,1350,736,0,0
133,288,0,0,0,0,0,0,0,0,0,-1,1357,736,0,0
140,288,0,0,0,0,0,0,0,0,0,-1,1364,736,0,0
147,288,0,0,0,0,0,0,0,0,0,-1,1371,736,0,0
154,288,0,0,0,0,0,0,0,0,0,-1,1378,736,0,0
161,288,0,0,0,0,0,0,0,0,0,-1,1385,736,0,0
168,288,0,0,0,0,0,0,0,0,0,-1,1392,736,0,0
175,288,0,0,0,0,0,0,0,0,0,-1,1399,736,0,0
182,288,0,0,0,0,0,0,0,0,0,-1,1406,736,0,0
189,288,0,0,0,0,0,0,0,0,0,-1,1413,736,0,0
196,288,0,0,0,0,0,0,0,0,0,-1,1420,736,0,0
203,288,0,0,0,0,0,0,0,0,0,-1,1427,736,0,0
210,288,0,0,0,0,0,0,0,0,0,-1,1434,736,0,0
217,288,0,0,0,0,0,0,0,0,0,-1,1441,736,0,0
224,288,0,0,0,0,0,0,0,0,0,-1,1448,736,0,0
231,288,0,0,0,0,0,0,0,0,0,-1,1455,736,0,0
238,288,0,0,0,0,0,0,0,0,0,-1,1462,736,0,0
245,288,0,0,0,0,0,0,0,0,0,-1,1469,736,0,0
252,288,0,0,0,0,0,0,0,0,0,-1,1476,736,0,0
259,288,0,0,0,0,0,0,0,0,0,-1,1483,736,0,0
266,288,0,0,0,0,0,0,0,0,0,-1,1490,736,0,0
273,288,0,0,0,0,0,0,0,0,0,-1,1497,736,0,0
280,288,0,0,0,0,0,0,0,0,0,-1,1504,736,0,0
287,288,0,0,0,0,0,0,0,0,0,-1,1511,736,0,0
294,288,0,0,0,0,0,0,0,0,0,-1,1518,736,0,0
301,288,0,0,0,0,0,0,0,0,0,-1,1525,736,0,0
308,288,0,0,0,0,0,0,0,0,0,-1,1532,736,0,0
315,288,0,0,0,0,0,0,0,0,0,-1,1539,736,0,0
322,288,0,0,0,0,0,0,0,0,0,-1,1546,736,0,0
329,288,0,0,0,0,0,0,0,0,0,-1,1553,736,0,0
336,288,0,0,0,0,0,0,0,0,0,-1,1560,736,0,0
343,288,0,0,0,0,0,0,0,0,0,-1,1567,736,0,0
350,288,0,0,0,0,0,0,0,0,0,-1,1574,736,0,0
357,288,0,0,0,0,0,0,0,0,0,-1,1581,736,0,0
364,288,0,0,0,0,0,0,0,0,0,-1,1588,736,0,0
371,288,0,0,0,0,0,0,0,0,0,-1,1595,736,0,0
378,288,0,0,0,0,0,0,0,0,0,-1,1602,736,0,0
385,288,0,0,0,0,0,0,0,0,0,-1,1609,736,0,0
392,288,0,0,0,0,0,0,0,0,0,-1,1616,736,0,0
399,288,0,0,0,0,0,0,0,0,0,-1,1623,736,0,0
406,288,0,0,0,0,0,0,0,0,0,-1,1630,736,0,0
413,288,0,0,0,0,0,0,0,0,0,-1,1637,736,0,0
420,288,0,0,0,0,0,0,0,0,0,-1,1644,736,0,0
427,288,0,0,0,0,0,0,0,0,0,-1,1651,736,0,0
434,288,0,0,0,0,0,0,0,0,0,-1,1658,736,0,0
441,288,0,0,0,0,0,0,0,0,0,-1,1665,736,0,0
448,288,0,0,0,0,0,0,0,0,0,-1,1672,736,0,0
455,288,0,0,0,0,0,0,0,0,0,-1,1679,736,0,0
462,288,0,0,0,0,0,0,0,0,0,-1,1686,736,0,0
469,288,0,0,0,0,0,0,0,0,0,-1,1693,736,0,0
476,288,0,0,0,0,0,0,0,0,0,-1,1700,736,0,0
483,288,0,0,0,0,0,0,0,0,0,-1,1707,736,0,0
490,288,0,0,0,0,0,0,0,0,0,-1,1714,736,0,0
497,288,0,0,0,0,0,0,0,0,0,-1,1721,736,0,0
504,288,0,0,0,0,0,0,0,0,0,-1,1728,736,0,0
511,288,0,0,0,0,0,0,0,0,0,-1,1735,736,0,0
518,288,0,0,0,0,0,0,0,0,0,-1,1742,736,0,0
525,288,0,0,0,0,0,0,0,0,0,-1,1749,736,0,0
532,288,0,0,0,0,0,0,0,0,0,-1,1756,736,0,0
539,288,0,0,0,0,0,0,0,0,0,-1,1763,736,0,0
546,288,0,0,0,0,0,0,0,0,0,-1,1770,736,0,0
553,288,23.4799,2.92126,0,0,0,0,0,0,0,-1,1777,736,23.4799,-2.92127
560,288,23.348,3.12585,0,0,0,0,0,0,0,-1,1784,736,23.3481,-3.12587
567,288,23.022,3.43134,0,0,0,0,0,0,0,-1,1791,736,23.022,-3.43136
574,288,22.7096,3.57532,0,0,0,0,0,0,0,-1,1798,736,22.7096,-3.5753
581,288,23.2974,3.24207,0,0,0,0,0,0,0,-1,1805,736,23.2973,-3.24204
588,288,23.6416,3.37994,0,0,0,0,0,0,0,-1,1812,736,23.6416,-3.37994
595,288,23.9858,3.51782,0,0,0,0,0,0,0,-1,1819,736,23.9858,-3.51783
602,288,20.5166,4.94885,0,0,0,0,0,0,0,-1,1826,736,20.5166,-4.94885
609,288,17.5223,4.86414,0,0,0,0,0,0,0,-1,1833,736,17.5223,-4.86412
616,288,13.4886,0.801331,0,0,0,0,0,0,0,-1,1840,736,13.4886,-0.80132
623,288,15.5739,-0.269714,0,0,0,0,0,0,0,-1,1847,736,15.5739,0.269696
630,288,15.569,0.0012207,0.0042148,0.00213497,-0.00161724,0.00509761,0.00125216,-0.499671,0.00306743,0.0204125,1854,736,15.569,-0.00122664
637,288,15.5925,0.272339,0.00228535,0.0015345,-0.000979287,0.00295871,0.000861139,-0.602354,0.00175723,0.0108982,1861,736,15.5926,-0.272335
644,288,15.6218,0.561035,0.000838753,0.00104746,-0.000580041,0.00153246,0.000353753,-0.874399,0.000926513,0.0110476,1868,736,15.6218,-0.561043
651,288,15.6141,0.84967,-9.08293e-05,0.000628682,-0.000124265,0.000649539,-0.000111686,-1.4045,0.000474655,0.0112074,1875,736,15.6142,-0.849671
658,288,15.5978,1.18182,-0.000161311,0.000663601,-0.000237945,0.000727315,-0.000225025,-1.30917,0.000574761,0.0159533,1882,736,15.5977,-1.18179
665,288,15.5984,1.46906,-9.64202e-05,0.000672302,-0.00032869,0.000793679,-0.000217797,-1.21706,0.000614717,0.0170123,1889,736,15.5984,-1.46903
672,288,15.5925,1.73364,0.000350428,0.000857098,-0.000303381,0.000999009,0.000208517,-1.13327,0.000608527,0.0136587,1896,736,15.5925,-1.73361
679,288,15.5803,2.02338,0.00117729,0.00126073,-0.000237367,0.00146001,0.000978004,-0.872385,0.000859,0.0109561,1903,736,15.5803,-2.02337
686,288,15.5753,2.29089,0.00218836,0.00185996,-6.06125e-05,0.00219919,0.00184913,-0.176812,0.00136449,0.00916997,1910,736,15.5754,-2.2909
693,288,15.5977,2.58417,0.00351621,0.00265367,0.000205681,0.00356275,0.00260714,0.222506,0.00212935,0.0128815,1917,736,15.5976,-2.58419
700,288,15.5728,2.91321,0.00550533,0.00358579,0.000737693,0.00575608,0.00333504,0.327654,0.00333721,0.0259942,1924,736,15.5727,-2.91319
707,288,15.7806,3.16528,0.0083944,0.00469204,0.00155078,0.00895813,0.00412831,0.348663,0.00517726,0.0399665,1931,736,15.7806,-3.16526
714,288,15.9991,3.40369,0,0,0,0,0,0,0,-1,1938,736,15.9992,-3.40372
721,288,16.8481,2.54071,0,0,0,0,0,0,0,-1,1945,736,16.8481,-2.54069
728,288,17.8928,2.75793,0,0,0,0,0,0,0,-1,1952,736,17.8928,-2.75791
735,288,18.7712,3.51312,0,0,0,0,0,0,0,-1,1959,736,18.7713,-3.51309
742,288,0,0,0,0,0,0,0,0,0,-1,1966,736,0,0
749,288,0,0,0,0,0,0,0,0,0,-1,1973,736,0,0
756,288,0,0,0,0,0,0,0,0,0,-1,1980,736,0,0
763,288,0,0,0,0,0,0,0,0,0,-1,1987,736,0,0
770,288,0,0,0,0,0,0,0,0,0,-1,1994,736,0,0
777,288,0,0,0,0,0,0,0,0,0,-1,2001,736,0,0
784,288,0,0,0,0,0,0,0,0,0,-1,2008,736,0,0
791,288,0,0,0,0,0,0,0,0,0,-1,2015,736,0,0
798,288,0,0,0,0,0,0,0,0,0,-1,2022,736,0,0
805,288,0,0,0,0,0,0,0,0,0,-1,2029,736,0,0
812,288,0,0,0,0,0,0,0,0,0,-1,2036,736,0,0
-700,281,0,0,0,0,0,0,0,0,0,-1,524,743,0,0
-693,281,0,0,0,0,0,0,0,0,0,-1,531,743,0,0
-686,281,0,0,0,0,0,0,0,0,0,-1,538,743,0,0
-679,281,0,0,0,0,0,0,0,0,0,-1,545,743,0,0
-672,281,0,0,0,0,0,0,0,0,0,-1,552,743,0,0
-665,281,0,0,0,0,0,0,0,0,0,-1,559,743,0,0
-658,281,0,0,0,0,0,0,0,0,0,-1,566,743,0,0
-651,281,0,0,0,0,0,0,0,0,0,-1,573,743,0,0
-644,281,0,0,0,0,0,0,0,0,0,-1,580,743,0,0
-637,281,0,0,0,0,0,0,0,0,0,-1,587,743,0,0
-630,281,0,0,0,0,0,0,0,0,0,-1,594,743,0,0
-623,281,-11.6334,3.75549,0,0,0,0,0,0,0,-1,601,743,-11.6334,-3.75548
-616,281,-10.3621,3.0094,0,0,0,0,0,0,0,-1,608,743,-10.3621,-3.00937
-609,281,-8.17084,1.93286,0,0,0,0,0,0,0,-1,615,743,-8.17084,-1.93289
-602,281,-7.12354,1.90967,0,0,0,0,0,0,0,-1,622,743,-7.12356,-1.90968
-595,281,-9.37494,0.197815,0,0,0,0,0,0,0,-1,629,743,-9.37496,-0.197802
-588,281,-9.49042,0.801941,0,0,0,0,0,0,0,-1,636,743,-9.49041,-0.801943
-581,281,-9.45319,1.22882,0,0,0,0,0,0,0,-1,643,743,-9.45318,-1.22884
-574,281,-9.43274,0.85144,0.0125908,-0.00288096,0.00470716,0.0139104,-0.00420053,0.273317,0.0109458,0.0310392,650,743,-9.43273,-0.85143
-567,281,-9.54419,0.525818,0.00539804,-0.00110669,0.00326256,0.00675243,-0.00246107,0.393481,0.00550839,0.0137893,657,743,-9.54417,-0.525818
-560,281,-9.58429,0.243408,0.000169831,0.000118164,0.00248408,0.00262822,-0.00234022,0.780199,0.00287013,0.00882094,664,743,-9.58428,-0.243426
-553,281,-9.56836,-0.000305176,-0.00294116,0.000684953,0.00161875,0.00130243,-0.00355865,1.20638,0.00290557,0.0135379,671,743,-9.56837,0.000284883
-546,281,-9.56134,-0.231995,-0.00381031,0.000633068,0.00118361,0.000928686,-0.00410593,1.32604,0.00309366,0.0150233,678,743,-9.56135,0.232
-539,281,-9.54388,-0.519226,-0.002905,-0.000207464,0.00128559,0.000307079,-0.00341954,1.19009,0.00238864,0.0130979,685,743,-9.54389,0.519231
-532,281,-9.53784,-0.782227,-0.00224896,-8.20003e-05,0.00169344,0.000844909,-0.00317587,1.06999,0.00244798,0.0121237,692,743,-9.53786,0.782213
-525,281,-9.56812,-1.07635,-0.00181581,0.000831198,0.00190344,0.00182604,-0.00281066,1.08919,0.00269704,0.0141535,699,743,-9.56809,1.07635
-518,281,-9.57751,-1.36707,-0.00192583,0.00226687,0.00168156,0.00285796,-0.00251692,1.23278,0.00310527,0.0126035,706,743,-9.57753,1.36709
-511,281,-9.60187,-1.65588,-0.00302975,0.00385708,0.00143558,0.00414435,-0.00331702,1.3733,0.00431664,0.0117843,713,743,-9.60186,1.65588
-504,281,-9.60297,-1.93884,-0.00415774,0.00617025,0.00127652,0.00632569,-0.00431318,1.44963,0.00617887,0.013469,720,743,-9.60298,1.93884
-497,281,-9.52856,-2.19232,-0.00410208,0.0070265,0.00231509,0.0074889,-0.00456448,1.37366,0.00702697,0.0358346,727,743,-9.52857,2.1923
-490,281,-9.73303,-1.60175,0,0,0,0,0,0,0,-1,734,743,-9.73306,1.60175
-483,281,-9.81262,-0.92218,0,0,0,0,0,0,0,-1,741,743,-9.81264,0.922201
-476,281,-14.9869,1.97766,0,0,0,0,0,0,0,-1,748,743,-14.9869,-1.97764
-469,281,-17.3546,1.78076,0,0,0,0,0,0,0,-1,755,743,-17.3546,-1.78077
-462,281,-17.5715,1.44666,0.00661212,-0.00644059,0.0169857,0.0182821,-0.0181106,0.60198,0.0210114,0.0458476,762,743,-17.5715,-1.44664
-455,281,-18.0704,1.67395,0,0,0,0,0,0,0,-1,769,743,-18.0704,-1.67394
-448,281,-17.6832,1.93585,0,0,0,0,0,0,0,-1,776,743,-17.6832,-1.93585
-441,281,-17.2793,2.33618,0,0,0,0,0,0,0,-1,783,743,-17.2793,-2.33619
-434,281,0,0,0,0,0,0,0,0,0,-1,790,743,0,0
-427,281,0,0,0,0,0,0,0,0,0,-1,797,743,0,0
-420,281,0,0,0,0,0,0,0,0,0,-1,804,743,0,0
-413,281,0,0,0,0,0,0,0,0,0,-1,811,743,0,0
-406,281,0,0,0,0,0,0,0,0,0,-1,818,743,0,0
-399,281,0,0,0,0,0,0,0,0,0,-1,825,743,0,0
-392,281,0,0,0,0,0,0,0,0,0,-1,832,743,0,0
-385,281,0,0,0,0,0,0,0,0,0,-1,839,743,0,0
-378,281,0,0,0,0,0,0,0,0,0,-1,846,743,0,0
-371,281,0,0,0,0,0,0,0,0,0,-1,853,743,0,0
-364,281,0,0,0,0,0,0,0,0,0,-1,860,743,0,0
-357,281,0,0,0,0,0,0,0,0,0,-1,867,743,0,0
-350,281,0,0,0,0,0,0,0,0,0,-1,874,743,0,0
-343,281,0,0,0,0,0,0,0,0,0,-1,881,743,0,0
-336,281,0,0,0,0,0,0,0,0,0,-1,888,743,0,0
-329,281,0,0,0,0,0,0,0,0,0,-1,895,743,0,0
-322,281,0,0,0,0,0,0,0,0,0,-1,902,743,0,0
-315,281,0,0,0,0,0,0,0,0,0,-1,909,743,0,0
-308,281,0,0,0,0,0,0,0,0,0,-1,916,743,0,0
-301,281,0,0,0,0,0,0,0,0,0,-1,923,743,0,0
-294,281,0,0,0,0,0,0,0,0,0,-1,930,743,0,0
-287,281,0,0,0,0,0,0,0,0,0,-1,937,743,0,0
-280,281,0,0,0,0,0,0,0,0,0,-1,944,743,0,0
-273,281,0,0,0,0,0,0,0,0,0,-1,951,743,0,0
-266,281,0,0,0,0,0,0,0,0,0,-1,958,743,0,0
-259,281,0,0,0,0,0,0,0,0,0,-1,965,743,0,0
-252,281,0,0,0,0,0,0,0,0,0,-1,972,743,0,0
-245,281,0,0,0,0,0,0,0,0,0,-1,979,743,0,0
-238,281,0,0,0,0,0,0,0,0,0,-1,986,743,0,0
-231,281,0,0,0,0,0,0,0,0,0,-1,993,743,0,0
-224,281,0,0,0,0,0,0,0,0,0,-1,1000,743,0,0
-217,281,0,0,0,0,0,0,0,0,0,-1,1007,743,0,0
-210,281,0,0,0,0,0,0,0,0,0,-1,1014,743,0,0
-203,281,0,0,0,0,0,0,0,0,0,-1,1021,743,0,0
-196,281,0,0,0,0,0,0,0,0,0,-1,1028,743,0,0
-189,281,0,0,0,0,0,0,0,0,0,-1,1035,743,0,0
-182,281,0,0,0,0,0,0,0,0,0,-1,1042,743,0,0
-175,281,0,0,0,0,0,0,0,0,0,-1,1049,743,0,0
-168,281,0,0,0,0,0,0,0,0,0,-1,1056,743,0,0
-161,281,0,0,0,0,0,0,0,0,0,-1,1063,743,0,0
-154,281,0,0,0,0,0,0,0,0,0,-1,1070,743,0,0
-147,281,0,0,0,0,0,0,0,0,0,-1,1077,743,0,0
-140,281,0,0,0,0,0,0,0,0,0,-1,1084,743,0,0
-133,281,0,0,0,0,0,0,0,0,0,-1,1091,743,0,0
-126,281,0,0,0,0,0,0,0,0,0,-1,1098,743,0,0
-119,281,0,0,0,0,0,0,0,0,0,-1,1105,743,0,0
-112,281,0,0,0,0,0,0,0,0,0,-1,1112,743,0,0
-105,281,0,0,0,0,0,0,0,0,0,-1,1119,743,0,0
-98,281,0,0,0,0,0,0,0,0,0,-1,1126,743,0,0
-91,281,0,0,0,0,0,0,0,0,0,-1,1133,743,0,0
-84,281,0,0,0,0,0,0,0,0,0,-1,1140,743,0,0
-77,281,0,0,0,0,0,0,0,0,0,-1,1147,743,0,0
-70,281,0,0,0,0,0,0,0,0,0,-1,1154,743,0,0
-63,281,0,0,0,0,0,0,0,0,0,-1,1161,743,0,0
-56,281,0,0,0,0,0,0,0,0,0,-1,1168,743,0,0
-49,281,0,0,0,0,0,0,0,0,0,-1,1175,743,0,0
-42,281,0,0,0,0,0,0,0,0,0,-1,1182,743,0,0
-35,281,0,0,0,0,0,0,0,0,0,-1,1189,743,0,0
-28,281,0,0,0,0,0,0,0,0,0,-1,1196,743,0,0
-21,281,0,0,0,0,0,0,0,0,0,-1,1203,743,0,0
-14,281,0,0,0,0,0,0,0,0,0,-1,1210,743,0,0
-7,281,0,0,0,0,0,0,0,0,0,-1,1217,743,0,0
0,281,0,0,0,0,0,0,0,0,0,-1,1224,743,0,0
7,281,0,0,0,0,0,0,0,0,0,-1,1231,743,0,0
14,281,0,0,0,0,0,0,0,0,0,-1,1238,743,0,0
21,281,0,0,0,0,0,0,0,0,0,-1,1245,743,0,0
28,281,0,0,0,0,0,0,0,0,0,-1,1252,743,0,0
35,281,0,0,0,0,0,0,0,0,0,-1,1259,743,0,0
42,281,0,0,0,0,0,0,0,0,0,-1,1266,743,0,0
49,281,0,0,0,0,0,0,0,0,0,-1,1273,743,0,0
56,281,0,0,0,0,0,0,0,0,0,-1,1280,743,0,0
63,281,0,0,0,0,0,0,0,0,0,-1,1287,743,0,0
70,281,0,0,0,0,0,0,0,0,0,-1,1294,743,0,0
77,281,0,0,0,0,0,0,0,0,0,-1,1301,743,0,0
84,281,0,0,0,0,0,0,0,0,0,-1,1308,743,0,0
91,281,0,0,0,0,0,0,0,0,0,-1,1315,743,0,0
98,281,0,0,0,0,0,0,0,0,0,-1,1322,743,0,0
105,281,0,0,0,0,0,0,0,0,0,-1,1329,743,0,0
112,281,0,0,0,0,0,0,0,0,0,-1,1336,743,0,0
119,281,0,0,0,0,0,0,0,0,0,-1,1343,743,0,0
126,281,0,0,0,0,0,0,0,0,0,-1,1350,743,0,0
133,281,0,0,0,0,0,0,0,0,0,-1,1357,743,0,0
140,281,0,0,0,0,0,0,0,0,0,-1,1364,743,0,0
147,281,0,0,0,0,0,0,0,0,0,-1,1371,743,0,0
154,281,0,0,0,0,0,0,0,0,0,-1,1378,743,0,0
161,281,0,0,0,0,0,0,0,0,0,-1,1385,743,0,0
168,281,0,0,0,0,0,0,0,0,0,-1,1392,743,0,0
175,281,0,0,0,0,0,0,0,0,0,-1,1399,743,0,0
182,281,0,0,0,0,0,0,0,0,0,-1,1406,743,0,0
189,281,0,0,0,0,0,0,0,0,0,-1,1413,743,0,0
196,281,0,0,0,0,0,0,0,0,0,-1,1420,743,0,0
203,281,0,0,0,0,0,0,0,0,0,-1,1427,743,0,0
210,281,0,0,0,0,0,0,0,0,0,-1,1434,743,0,0
217,281,0,0,0,0,0,0,0,0,0,-1,1441,743,0,0
224,281,0,0,0,0,0,0,0,0,0,-1,1448,743,0,0
231,281,0,0,0,0,0,0,0,0,0,-1,1455,743,0,0
238,281,0,0,0,0,0,0,0,0,0,-1,1462,743,0,0
245,281,0,0,0,0,0,0,0,0,0,-1,1469,743,0,0
252,281,0,0,0,0,0,0,0,0,0,-1,1476,743,0,0
259,281,0,0,0,0,0,0,0,0,0,-1,1483,743,0,0
266,281,0,0,0,0,0,0,0,0,0,-1,1490,743,0,0
273,281,0,0,0,0,0,0,0,0,0,-1,1497,743,0,0
280,281,0,0,0,0,0,0,0,0,0,-1,1504,743,0,0
287,281,0,0,0,0,0,0,0,0,0,-1,1511,743,0,0
294,281,0,0,0,0,0,0,0,0,0,-1,1518,743,0,0
301,281,0,0,0,0,0,0,0,0,0,-1,1525,743,0,0
308,281,0,0,0,0,0,0,0,0,0,-1,1532,743,0,0
315,281,0,0,0,0,0,0,0,0,0,-1,1539,743,0,0
322,281,0,0,0,0,0,0,0,0,0,-1,1546,743,0,0
329,281,0,0,0,0,0,0,0,0,0,-1,1553,743,0,0
336,281,0,0,0,0,0,0,0,0,0,-1,1560,743,0,0
343,281,0,0,0,0,0,0,0,0,0,-1,1567,743,0,0
350,281,0,0,0,0,0,0,0,0,0,-1,1574,743,0,0
357,281,0,0,0,0,0,0,0,0,0,-1,1581,743,0,0
364,281,0,0,0,0,0,0,0,0,0,-1,1588,743,0,0
371,281,0,0,0,0,0,0,0,0,0,-1,1595,743,0,0
378,281,0,0,0,0,0,0,0,0,0,-1,1602,743,0,0
385,281,0,0,0,0,0,0,0,0,0,-1,1609,743,0,0
392,281,0,0,0,0,0,0,0,0,0,-1,1616,743,0,0
399,281,0,0,0,0,0,0,0,0,0,-1,1623,743,0,0
406,281,0,0,0,0,0,0,0,0,0,-1,1630,743,0,0
413,281,0,0,0,0,0,0,0,0,0,-1,1637,743,0,0
420,281,0,0,0,0,0,0,0,0,0,-1,1644,743,0,0
427,281,0,0,0,0,0,0,0,0,0,-1,1651,743,0,0
434,281,0,0,0,0,0,0,0,0,0,-1,1658,743,0,0
441,281,0,0,0,0,0,0,0,0,0,-1,1665,743,0,0
448,281,0,0,0,0,0,0,0,0,0,-1,1672,743,0,0
455,281,0,0,0,0,0,0,0,0,0,-1,1679,743,0,0
462,281,0,0,0,0,0,0,0,0,0,-1,1686,743,0,0
469,281,0,0,0,0,0,0,0,0,0,-1,1693,743,0,0
476,281,0,0,0,0,0,0,0,0,0,-1,1700,743,0,0
483,281,0,0,0,0,0,0,0,0,0,-1,1707,743,0,0
490,281,0,0,0,0,0,0,0,0,0,-1,1714,743,0,0
497,281,0,0,0,0,0,0,0,0,0,-1,1721,743,0,0
504,281,0,0,0,0,0,0,0,0,0,-1,1728,743,0,0
511,281,0,0,0,0,0,0,0,0,0,-1,1735,743,0,0
518,281,0,0,0,0,0,0,0,0,0,-1,1742,743,0,0
525,281,0,0,0,0,0,0,0,0,0,-1,1749,743,0,0
532,281,0,0,0,0,0,0,0,0,0,-1,1756,743,0,0
539,281,0,0,0,0,0,0,0,0,0,-1,1763,743,0,0
546,281,0,0,0,0,0,0,0,0,0,-1,1770,743,0,0
553,281,0,0,0,0,0,0,0,0,0,-1,1777,743,0,0
560,281,23.5397,3.18292,0,0,0,0,0,0,0,-1,1784,743,23.5397,-3.18293
567,281,23.2056,3.32416,0,0,0,0,0,0,0,-1,1791,743,23.2055,-3.32417
574,281,22.1655,3.49945,0,0,0,0,0,0,0,-1,1798,743,22.1656,-3.49943
581,281,23.0768,3.43762,0,0,0,0,0,0,0,-1,1805,743,23.0768,-3.43763
588,281,23.7349,3.39984,0,0,0,0,0,0,0,-1,1812,743,23.7348,-3.39987
595,281,22.0973,3.55078,0,0,0,0,0,0,0,-1,1819,743,22.0973,-3.5508
602,281,21.3464,3.92828,0,0,0,0,0,0,0,-1,1826,743,21.3464,-3.9283
609,281,20.3328,4.56146,0,0,0,0,0,0,0,-1,1833,743,20.3328,-4.56145
616,281,18.7693,0.0219727,0,0,0,0,0,0,0,-1,1840,743,18.7693,-0.0219682
623,281,15.7795,-0.155701,0,0,0,0,0,0,0,-1,1847,743,15.7796,0.155694
630,281,15.8496,0.0401001,0.00456023,0.00242261,-0.00171562,0.00551273,0.00147011,-0.506822,0.00329627,0.0366885,1854,743,15.8496,-0.040103
637,281,15.8856,0.262634,0.00250968,0.00177544,-0.0011337,0.00333423,0.0009509,-0.628814,0.00198335,0.0136305,1861,743,15.8856,-0.262661
644,281,15.9045,0.570557,0.000961903,0.00122435,-0.000733842,0.00183861,0.000347644,-0.873871,0.00112786,0.0113548,1868,743,15.9046,-0.570583
651,281,15.8944,0.877991,-3.97416e-05,0.000721851,-0.000222989,0.000782337,-0.000100228,-1.30592,0.000557976,0.0115509,1875,743,15.8944,-0.877967
658,281,15.8888,1.1604,-0.000178394,0.000677381,-0.000344609,0.000798896,-0.00029991,-1.23179,0.000655838,0.0190431,1882,743,15.8889,-1.16039
665,281,15.8938,1.44495,-0.000171587,0.00058352,-0.000417415,0.0007688,-0.000356867,-1.15305,0.000664251,0.0204073,1889,743,15.8938,-1.44495
672,281,15.8757,1.73315,0.000287325,0.000659198,-0.000321856,0.000844965,0.000101557,-1.04733,0.000532694,0.0116363,1896,743,15.8757,-1.73316
679,281,15.8673,2.00476,0.00123493,0.00105496,-0.000197558,0.00136203,0.000927858,-0.571696,0.000803403,0.017044,1903,743,15.8673,-2.00476
686,281,15.8425,2.26367,0.00253171,0.00171334,0.000125856,0.00255063,0.00169443,0.149198,0.00149888,0.0137412,1910,743,15.8425,-2.26368
693,281,15.8529,2.55103,0.00390938,0.00244864,0.000456158,0.00404013,0.00231789,0.27914,0.00234101,0.0106031,1917,743,15.8529,-2.55101
700,281,15.8619,2.83813,0.00587077,0.00333683,0.00103264,0.0062383,0.00296931,0.341925,0.00360307,0.0182153,1924,743,15.862,-2.83814
707,281,15.9617,3.0932,0.00869257,0.00434158,0.00187304,0.0093878,0.00364636,0.355414,0.00546485,0.0385945,1931,743,15.9617,-3.09321
714,281,16.3351,3.52643,0,0,0,0,0,0,0,-1,1938,743,16.3351,-3.52644
721,281,16.0793,3.66687,0,0,0,0,0,0,0,-1,1945,743,16.0794,-3.66689
728,281,16.7843,3.46661,0,0,0,0,0,0,0,-1,1952,743,16.7843,-3.46659
735,281,19.0869,2.50311,0,0,0,0,0,0,0,-1,1959,743,19.0869,-2.5031
742,281,0,0,0,0,0,0,0,0,0,-1,1966,743,0,0
749,281,0,0,0,0,0,0,0,0,0,-1,1973,743,0,0
756,281,0,0,0,0,0,0,0,0,0,-1,1980,743,0,0
763,281,0,0,0,0,0,0,0,0,0,-1,1987,743,0,0
770,281,0,0,0,0,0,0,0,0,0,-1,1994,743,0,0
777,281,0,0,0,0,0,0,0,0,0,-1,2001,743,0,0
784,281,0,0,0,0,0,0,0,0,0,-1,2008,743,0,0
791,281,0,0,0,0,0,0,0,0,0,-1,2015,743,0,0
798,281,0,0,0,0,0,0,0,0,0,-1,2022,743,0,0
805,281,0,0,0,0,0,0,0,0,0,-1,2029,743,0,0
812,281,0,0,0,0,0,0,0,0,0,-1,2036,743,0,0
-700,274,0,0,0,0,0,0,0,0,0,-1,524,750,0,0
-693,274,0,0,0,0,0,0,0,0,0,-1,531,750,0,0
-686,274,0,0,0,0,0,0,0,0,0,-1,538,750,0,0
-679,274,0,0,0,0,0,0,0,0,0,-1,545,750,0,0
-672,274,0,0,0,0,0,0,0,0,0,-1,552,750,0,0
-665,274,0,0,0,0,0,0,0,0,0,-1,559,750,0,0
-658,274,0,0,0,0,0,0,0,0,0,-1,566,750,0,0
-651,274,0,0,0,0,0,0,0,0,0,-1,573,750,0,0
-644,274,0,0,0,0,0,0,0,0,0,-1,580,750,0,0
-637,274,0,0,0,0,0,0,0,0,0,-1,587,750,0,0
-630,274,0,0,0,0,0,0,0,0,0,-1,594,750,0,0
-623,274,-12,4.31891,0,0,0,0,0,0,0,-1,601,750,-12,-4.31891
-616,274,-9.99768,2.66827,0,0,0,0,0,0,0,-1,608,750,-9.99771,-2.6683
-609,274,-8.92188,2.58411,0.0965674,-0.0277965,0.0280193,0.102589,-0.0338178,0.211677,0.0820227,0.0463876,615,750,-8.92186,-2.58408
-602,274,-7.98145,2.41895,0.0736615,-0.019312,0.0202514,0.0778811,-0.0235317,0.205423,0.0612894,0.0479885,622,750,-7.98142,-2.41897
-595,274,-7.14221,2.27295,0,0,0,0,0,0,0,-1,629,750,-7.14221,-2.27296
-588,274,-9.16113,1.89008,0,0,0,0,0,0,0,-1,636,750,-9.16112,-1.89009
-581,274,-9.66345,1.0813,0.023666,-0.00442813,0.0064872,0.0250916,-0.00585375,0.21632,0.0189823,0.0407523,643,750,-9.66347,-1.08127
-574,274,-9.74219,0.788391,0.0134716,-0.00239744,0.00358449,0.0142437,-0.00316954,0.212158,0.0107098,0.0201242,650,750,-9.7422,-0.788381
-567,274,-9.82086,0.513489,0.00650222,-0.00108748,0.00242616,0.0072115,-0.00179676,0.284418,0.0055052,0.017464,657,750,-9.82088,-0.51349
-560,274,-9.8288,0.249268,0.00129857,-0.000148533,0.00189033,0.00259909,-0.00144906,0.602619,0.00236843,0.0148131,664,750,-9.82881,-0.249257
-553,274,-9.82867,-0.0165405,-0.00195996,0.000188903,0.00125658,0.000767767,-0.00253882,1.13911,0.00199825,0.00877648,671,750,-9.82866,0.0165601
-546,274,-9.82239,-0.267822,-0.00315064,-1.40331e-05,0.0010293,0.000293574,-0.00345825,1.2804,0.00240933,0.0101486,678,750,-9.82239,0.267835
-539,274,-9.81659,-0.529907,-0.00266006,-0.000942729,0.00128192,-0.00025847,-0.00334432,1.08049,0.00214858,0.0111576,685,750,-9.81661,0.529926
-532,274,-9.82196,-0.785889,-0.00236207,-0.000694155,0.0018682,0.000517779,-0.003574,0.995324,0.00257269,0.0112833,692,750,-9.82198,0.785905
-525,274,-9.83679,-1.06073,-0.00222456,0.00042905,0.00214128,0.00162127,-0.00341678,1.06276,0.00296965,0.0116961,699,750,-9.83677,1.06074
-518,274,-9.8468,-1.34943,-0.00258327,0.00215221,0.001862,0.00279666,-0.00322771,1.2376,0.00348114,0.0125721,706,750,-9.84677,1.34942
-511,274,-9.86761,-1.64886,-0.00376794,0.00400617,0.00151179,0.00428981,-0.00405158,1.38533,0.00481656,0.0128184,713,750,-9.86763,1.64889
-504,274,-9.86389,-1.9538,-0.0048913,0.00663095,0.0012641,0.006768,-0.00502835,1.4628,0.00683527,0.0224344,720,750,-9.86388,1.95382
-497,274,-9.88593,-2.3175,-0.00495573,0.00802189,0.002,0.00832313,-0.00525696,1.4213,0.0079068,0.0472667,727,750,-9.88594,2.31752
-490,274,-9.9187,-2.64813,0,0,0,0,0,0,0,-1,734,750,-9.9187,2.64814
-483,274,-15.6273,2.79474,0,0,0,0,0,0,0,-1,741,750,-15.6273,-2.79474
-476,274,-17.0381,2.31512,0,0,0,0,0,0,0,-1,748,750,-17.0381,-2.3151
-469,274,-17.2679,1.83057,1.14443e-05,0.00372162,0.00974722,0.0117887,-0.00805565,0.879433,0.0115245,0.0479089,755,750,-17.268,-1.8306
-462,274,-17.7001,1.61926,0.00404139,-0.0017816,0.0140001,0.0154295,-0.0131697,0.682878,0.0165289,0.0454256,762,750,-17.7001,-1.61926
-455,274,-17.9213,1.51404,0,0,0,0,0,0,0,-1,769,750,-17.9213,-1.51407
-448,274,-18.4878,2.58838,0,0,0,0,0,0,0,-1,776,750,-18.4878,-2.58839
-441,274,0,0,0,0,0,0,0,0,0,-1,783,750,0,0
-434,274,0,0,0,0,0,0,0,0,0,-1,790,750,0,0
-427,274,0,0,0,0,0,0,0,0,0,-1,797,750,0,0
-420,274,0,0,0,0,0,0,0,0,0,-1,804,750,0,0
-413,274,0,0,0,0,0,0,0,0,0,-1,811,750,0,0
-406,274,0,0,0,0,0,0,0,0,0,-1,818,750,0,0
-399,274,0,0,0,0,0,0,0,0,0,-1,825,750,0,0
-392,274,0,0,0,0,0,0,0,0,0,-1,832,750,0,0
-385,274,0,0,0,0,0,0,0,0,0,-1,839,750,0,0
-378,274,0,0,0,0,0,0,0,0,0,-1,846,750,0,0
-371,274,0,0,0,0,0,0,0,0,0,-1,853,750,0,0
-364,274,0,0,0,0,0,0,0,0,0,-1,860,750,0,0
-357,274,0,0,0,0,0,0,0,0,0,-1,867,750,0,0
-350,274,0,0,0,0,0,0,0,0,0,-1,874,750,0,0
-343,274,0,0,0,0,0,0,0,0,0,-1,881,750,0,0
-336,274,0,0,0,0,0,0,0,0,0,-1,888,750,0,0
-329,274,0,0,0,0,0,0,0,0,0,-1,895,750,0,0
-322,274,0,0,0,0,0,0,0,0,0,-1,902,750,0,0
-315,274,0,0,0,0,0,0,0,0,0,-1,909,750,0,0
-308,274,0,0,0,0,0,0,0,0,0,-1,916,750,0,0
-301,274,0,0,0,0,0,0,0,0,0,-1,923,750,0,0
-294,274,0,0,0,0,0,0,0,0,0,-1,930,750,0,0
-287,274,0,0,0,0,0,0,0,0,0,-1,937,750,0,0
-280,274,0,0,0,0,0,0,0,0,0,-1,944,750,0,0
-273,274,0,0,0,0,0,0,0,0,0,-1,951,750,0,0
-266,274,0,0,0,0,0,0,0,0,0,-1,958,750,0,0
-259,274,0,0,0,0,0,0,0,0,0,-1,965,750,0,0
-252,274,0,0,0,0,0,0,0,0,0,-1,972,750,0,0
-245,274,0,0,0,0,0,0,0,0,0,-1,979,750,0,0
-238,274,0,0,0,0,0,0,0,0,0,-1,986,750,0,0
-231,274,0,0,0,0,0,0,0,0,0,-1,993,750,0,0
-224,274,0,0,0,0,0,0,0,0,0,-1,1000,750,0,0
-217,274,0,0,0,0,0,0,0,0,0,-1,1007,750,0,0
-210,274,0,0,0,0,0,0,0,0,0,-1,1014,750,0,0
-203,274,0,0,0,0,0,0,0,0,0,-1,1021,750,0,0
-196,274,0,0,0,0,0,0,0,0,0,-1,1028,750,0,0
-189,274,0,0,0,0,0,0,0,0,0,-1,1035,750,0,0
-182,274,0,0,0,0,0,0,0,0,0,-1,1042,750,0,0
-175,274,0,0,0,0,0,0,0,0,0,-1,1049,750,0,0
-168,274,0,0,0,0,0,0,0,0,0,-1,1056,750,0,0
-161,274,0,0,0,0,0,0,0,0,0,-1,1063,750,0,0
-154,274,0,0,0,0,0,0,0,0,0,-1,1070,750,0,0
-147,274,0,0,0,0,0,0,0,0,0,-1,1077,750,0,0
-140,274,0,0,0,0,0,0,0,0,0,-1,1084,750,0,0
-133,274,0,0,0,0,0,0,0,0,0,-1,1091,750,0,0
-126,274,0,0,0,0,0,0,0,0,0,-1,1098,750,0,0
-119,274,0,0,0,0,0,0,0,0,0,-1,1105,750,0,0
-112,274,0,0,0,0,0,0,0,0,0,-1,1112,750,0,0
-105,274,0,0,0,0,0,0,0,0,0,-1,1119,750,0,0
-98,274,0,0,0,0,0,0,0,0,0,-1,1126,750,0,0
-91,274,0,0,0,0,0,0,0,0,0,-1,1133,750,0,0
-84,274,0,0,0,0,0,0,0,0,0,-1,1140,750,0,0
-77,274,0,0,0,0,0,0,0,0,0,-1,1147,750,0,0
-70,274,0,0,0,0,0,0,0,0,0,-1,1154,750,0,0
-63,274,0,0,0,0,0,0,0,0,0,-1,1161,750,0,0
-56,274,0,0,0,0,0,0,0,0,0,-1,1168,750,0,0
-49,274,0,0,0,0,0,0,0,0,0,-1,1175,750,0,0
-42,274,0,0,0,0,0,0,0,0,0,-1,1182,750,0,0
-35,274,0,0,0,0,0,0,0,0,0,-1,1189,750,0,0
-28,274,0,0,0,0,0,0,0,0,0,-1,1196,750,0,0
-21,274,0,0,0,0,0,0,0,0,0,-1,1203,750,0,0
-14,274,0,0,0,0,0,0,0,0,0,-1,1210,750,0,0
-7,274,0,0,0,0,0,0,0,0,0,-1,1217,750,0,0
0,274,0,0,0,0,0,0,0,0,0,-1,1224,750,0,0
7,274,0,0,0,0,0,0,0,0,0,-1,1231,750,0,0
14,274,0,0,0,0,0,0,0,0,0,-1,1238,750,0,0
21,274,0,0,0,0,0,0,0,0,0,-1,1245,750,0,0
28,274,0,0,0,0,0,0,0,0,0,-1,1252,750,0,0
35,274,0,0,0,0,0,0,0,0,0,-1,1259,750,0,0
42,274,0,0,0,0,0,0,0,0,0,-1,1266,750,0,0
49,274,0,0,0,0,0,0,0,0,0,-1,1273,750,0,0
56,274,0,0,0,0,0,0,0,0,0,-1,1280,750,0,0
63,274,0,0,0,0,0,0,0,0,0,-1,1287,750,0,0
70,274,0,0,0,0,0,0,0,0,0,-1,1294,750,0,0
77,274,0,0,0,0,0,0,0,0,0,-1,1301,750,0,0
84,274,0,0,0,0,0,0,0,0,0,-1,1308,750,0,0
91,274,0,0,0,0,0,0,0,0,0,-1,1315,750,0,0
98,274,0,0,0,0,0,0,0,0,0,-1,1322,750,0,0
105,274,0,0,0,0,0,0,0,0,0,-1,1329,750,0,0
112,274,0,0,0,0,0,0,0,0,0,-1,1336,750,0,0
119,274,0,0,0,0,0,0,0,0,0,-1,1343,750,0,0
126,274,0,0,0,0,0,0,0,0,0,-1,1350,750,0,0
133,274,0,0,0,0,0,0,0,0,0,-1,1357,750,0,0
140,274,0,0,0,0,0,0,0,0,0,-1,1364,750,0,0
147,274,0,0,0,0,0,0,0,0,0,-1,1371,750,0,0
154,274,0,0,0,0,0,0,0,0,0,-1,1378,750,0,0
161,274,0,0,0,0,0,0,0,0,0,-1,1385,750,0,0
168,274,0,0,0,0,0,0,0,0,0,-1,1392,750,0,0
175,274,0,0,0,0,0,0,0,0,0,-1,1399,750,0,0
182,274,0,0,0,0,0,0,0,0,0,-1,1406,750,0,0
189,274,0,0,0,0,0,0,0,0,0,-1,1413,750,0,0
196,274,0,0,0,0,0,0,0,0,0,-1,1420,750,0,0
203,274,0,0,0,0,0,0,0,0,0,-1,1427,750,0,0
210,274,0,0,0,0,0,0,0,0,0,-1,1434,750,0,0
217,274,0,0,0,0,0,0,0,0,0,-1,1441,750,0,0
224,274,0,0,0,0,0,0,0,0,0,-1,1448,750,0,0
231,274,0,0,0,0,0,0,0,0,0,-1,1455,750,0,0
238,274,0,0,0,0,0,0,0,0,0,-1,1462,750,0,0
245,274,0,0,0,0,0,0,0,0,0,-1,1469,750,0,0
252,274,0,0,0,0,0,0,0,0,0,-1,1476,750,0,0
259,274,0,0,0,0,0,0,0,0,0,-1,1483,750,0,0
266,274,0,0,0,0,0,0,0,0,0,-1,1490,750,0,0
273,274,0,0,0,0,0,0,0,0,0,-1,1497,750,0,0
280,274,0,0,0,0,0,0,0,0,0,-1,1504,750,0,0
287,274,0,0,0,0,0,0,0,0,0,-1,1511,750,0,0
294,274,0,0,0,0,0,0,0,0,0,-1,1518,750,0,0
301,274,0,0,0,0,0,0,0,0,0,-1,1525,750,0,0
308,274,0,0,0,0,0,0,0,0,0,-1,1532,750,0,0
315,274,0,0,0,0,0,0,0,0,0,-1,1539,750,0,0
322,274,0,0,0,0,0,0,0,0,0,-1,1546,750,0,0
329,274,0,0,0,0,0,0,0,0,0,-1,1553,750,0,0
336,274,0,0,0,0,0,0,0,0,0,-1,1560,750,0,0
343,274,0,0,0,0,0,0,0,0,0,-1,1567,750,0,0
350,274,0,0,0,0,0,0,0,0,0,-1,1574,750,0,0
357,274,0,0,0,0,0,0,0,0,0,-1,1581,750,0,0
364,274,0,0,0,0,0,0,0,0,0,-1,1588,750,0,0
371,274,0,0,0,0,0,0,0,0,0,-1,1595,750,0,0
378,274,0,0,0,0,0,0,0,0,0,-1,1602,750,0,0
385,274,0,0,0,0,0,0,0,0,0,-1,1609,750,0,0
392,274,0,0,0,0,0,0,0,0,0,-1,1616,750,0,0
399,274,0,0,0,0,0,0,0,0,0,-1,1623,750,0,0
406,274,0,0,0,0,0,0,0,0,0,-1,1630,750,0,0
413,274,0,0,0,0,0,0,0,0,0,-1,1637,750,0,0
420,274,0,0,0,0,0,0,0,0,0,-1,1644,750,0,0
427,274,0,0,0,0,0,0,0,0,0,-1,1651,750,0,0
434,274,0,0,0,0,0,0,0,0,0,-1,1658,750,0,0
441,274,0,0,0,0,0,0,0,0,0,-1,1665,750,0,0
448,274,0,0,0,0,0,0,0,0,0,-1,1672,750,0,0
455,274,0,0,0,0,0,0,0,0,0,-1,1679,750,0,0
462,274,0,0,0,0,0,0,0,0,0,-1,1686,750,0,0
469,274,0,0,0,0,0,0,0,0,0,-1,1693,750,0,0
476,274,0,0,0,0,0,0,0,0,0,-1,1700,750,0,0
483,274,0,0,0,0,0,0,0,0,0,-1,1707,750,0,0
490,274,0,0,0,0,0,0,0,0,0,-1,1714,750,0,0
497,274,0,0,0,0,0,0,0,0,0,-1,1721,750,0,0
504,274,0,0,0,0,0,0,0,0,0,-1,1728,750,0,0
511,274,0,0,0,0,0,0,0,0,0,-1,1735,750,0,0
518,274,0,0,0,0,0,0,0,0,0,-1,1742,750,0,0
525,274,0,0,0,0,0,0,0,0,0,-1,1749,750,0,0
532,274,0,0,0,0,0,0,0,0,0,-1,1756,750,0,0
539,274,0,0,0,0,0,0,0,0,0,-1,1763,750,0,0
546,274,0,0,0,0,0,0,0,0,0,-1,1770,750,0,0
553,274,0,0,0,0,0,0,0,0,0,-1,1777,750,0,0
560,274,23.8073,3.02576,0,0,0,0,0,0,0,-1,1784,750,23.8072,-3.02578
567,274,23.4786,3.25244,0,0,0,0,0,0,0,-1,1791,750,23.4787,-3.25243
574,274,22.7156,3.35217,0,0,0,0,0,0,0,-1,1798,750,22.7155,-3.35217
581,274,23.2017,3.62,0,0,0,0,0,0,0,-1,1805,750,23.2016,-3.62001
588,274,22.1876,3.33362,0,0,0,0,0,0,0,-1,1812,750,22.1876,-3.33362
595,274,22.9008,3.01825,0.0245729,0.0027045,-0.0145514,0.0318404,-0.00456298,-0.463195,0.0228999,0.0492567,1819,750,22.9008,-3.01827
602,274,23.3049,2.92529,0,0,0,0,0,0,0,-1,1826,750,23.305,-2.92528
609,274,23.7622,2.99042,0,0,0,0,0,0,0,-1,1833,750,23.7622,-2.99039
616,274,17.1586,1.82788,0,0,0,0,0,0,0,-1,1840,750,17.1585,-1.82785
623,274,16.5214,-0.118591,0,0,0,0,0,0,0,-1,1847,750,16.5214,0.118586
630,274,16.3635,0.0640869,0.00444359,0.00293876,-0.00163641,0.00549228,0.00189008,-0.569913,0.00322192,0.0437018,1854,750,16.3635,-0.0640781
637,274,16.1852,0.278931,0.00237816,0.00230707,-0.00108468,0.00342788,0.00125735,-0.769021,0.00200236,0.012888,1861,750,16.1852,-0.278902
644,274,16.1621,0.580994,0.00081744,0.00171557,-0.000718714,0.00211398,0.000419033,-1.06463,0.00129249,0.0116082,1868,750,16.1621,-0.58099
651,274,16.1489,0.887634,-0.000181551,0.00111313,-0.000229614,0.00115264,-0.000221067,-1.40037,0.000851736,0.013264,1875,750,16.1489,-0.887604
658,274,16.1587,1.17682,-0.000354218,0.000901742,-0.00041603,0.00102705,-0.000479525,-1.27824,0.000888761,0.0157805,1882,750,16.1587,-1.17679
665,274,16.1664,1.44763,-0.000397714,0.000592475,-0.000543763,0.000832769,-0.000638008,-1.15469,0.000851632,0.0172296,1889,750,16.1664,-1.4476
672,274,16.1577,1.73004,5.81427e-05,0.000437998,-0.000438555,0.000725986,-0.000229845,-0.989744,0.000576097,0.0145252,1896,750,16.1578,-1.73007
679,274,16.1567,2.01996,0.00111429,0.000729289,-0.000305875,0.0012832,0.000560381,-0.50454,0.000742831,0.0147786,1903,750,16.1567,-2.01996
686,274,16.1421,2.29315,0.00267858,0.00139428,0.000138054,0.00269325,0.00137961,0.105882,0.00155511,0.0147737,1910,750,16.1421,-2.29314
693,274,16.1506,2.5827,0.00407131,0.00207449,0.000530443,0.00420347,0.00194232,0.244181,0.0024292,0.0119122,1917,750,16.1506,-2.58268
700,274,16.1738,2.8689,0.00597166,0.00292556,0.0011412,0.00635177,0.00254545,0.321521,0.0036912,0.0139758,1924,750,16.1738,-2.8689
707,274,16.1959,3.12549,0.00870669,0.00385162,0.00200416,0.0094271,0.0031312,0.345077,0.00554403,0.0228384,1931,750,16.1959,-3.12549
714,274,16.4149,3.4201,0.0123465,0.00489786,0.00315212,0.0135013,0.003743,0.351189,0.00804877,0.0424467,1938,750,16.415,-3.42012
721,274,16.3661,3.60132,0.0171263,0.00639716,0.00488618,0.019018,0.00450547,0.369382,0.0114755,0.0480472,1945,750,16.3661,-3.6013
728,274,16.4928,3.65057,0,0,0,0,0,0,0,-1,1952,750,16.4928,-3.65054
735,274,17.6489,2.91949,0,0,0,0,0,0,0,-1,1959,750,17.6489,-2.91952
742,274,11.7815,-0.740234,0,0,0,0,0,0,0,-1,1966,750,11.7815,0.740253
749,274,0,0,0,0,0,0,0,0,0,-1,1973,750,0,0
756,274,0,0,0,0,0,0,0,0,0,-1,1980,750,0,0
763,274,0,0,0,0,0,0,0,0,0,-1,1987,750,0,0
770,274,0,0,0,0,0,0,0,0,0,-1,1994,750,0,0
777,274,0,0,0,0,0,0,0,0,0,-1,2001,750,0,0
784,274,0,0,0,0,0,0,0,0,0,-1,2008,750,0,0
791,274,0,0,0,0,0,0,0,0,0,-1,2015,750,0,0
798,274,0,0,0,0,0,0,0,0,0,-1,2022,750,0,0
805,274,0,0,0,0,0,0,0,0,0,-1,2029,750,0,0
812,274,0,0,0,0,0,0,0,0,0,-1,2036,750,0,0
-700,267,0,0,0,0,0,0,0,0,0,-1,524,757,0,0
-693,267,0,0,0,0,0,0,0,0,0,-1,531,757,0,0
-686,267,0,0,0,0,0,0,0,0,0,-1,538,757,0,0
-679,267,0,0,0,0,0,0,0,0,0,-1,545,757,0,0
-672,267,0,0,0,0,0,0,0,0,0,-1,552,757,0,0
-665,267,0,0,0,0,0,0,0,0,0,-1,559,757,0,0
-658,267,0,0,0,0,0,0,0,0,0,-1,566,757,0,0
-651,267,0,0,0,0,0,0,0,0,0,-1,573,757,0,0
-644,267,0,0,0,0,0,0,0,0,0,-1,580,757,0,0
-637,267,0,0,0,0,0,0,0,0,0,-1,587,757,0,0
-630,267,-14.4028,6.72711,0,0,0,0,0,0,0,-1,594,757,-14.4029,-6.72713
-623,267,-12.4899,5.31915,0,0,0,0,0,0,0,-1,601,757,-12.49,-5.31917
-616,267,-10.6857,3.79761,0.113081,-0.0249038,0.0319376,0.120115,-0.0319375,0.216771,0.0925773,0.0472974,608,757,-10.6857,-3.7976
-609,267,-9.70166,3.28705,0.089831,-0.0186008,0.0232823,0.0946188,-0.0233885,0.202811,0.0721502,0.0442544,615,757,-9.70164,-3.28705
-602,267,-8.72833,3.06268,0.0690086,-0.0129307,0.0165899,0.07224,-0.0161622,0.192375,0.0543543,0.0462169,622,757,-8.72832,-3.06269
-595,267,-10.1264,2.62994,0,0,0,0,0,0,0,-1,629,757,-10.1264,-2.62997
-588,267,-9.93469,1.87891,0.035421,-0.00493161,0.0076445,0.0368207,-0.00633125,0.181086,0.026907,0.0461973,636,757,-9.9347,-1.87889
-581,267,-10.0063,1.09192,0.0231637,-0.00254383,0.00494724,0.0240829,-0.00346303,0.183705,0.0173254,0.0291818,643,757,-10.0063,-1.09195
-574,267,-10.0483,0.786316,0.0136599,-0.00122915,0.00248842,0.0140648,-0.00163404,0.161293,0.00996595,0.0151173,650,757,-10.0483,-0.786286
-567,267,-10.0778,0.527832,0.00704499,-0.000477889,0.00161159,0.00737569,-0.000808596,0.202395,0.00520763,0.0212914,657,757,-10.0778,-0.527845
-560,267,-10.0881,0.279785,0.00200858,2.95797e-05,0.00130604,0.00265764,-0.000619474,0.461214,0.00201032,0.0217876,664,757,-10.0881,-0.279783
-553,267,-10.0912,0.0109253,-0.0011963,4.64971e-05,0.000905752,0.000523516,-0.00167332,1.08605,0.00132499,0.01639,671,757,-10.0913,-0.010898
-546,267,-10.0884,-0.268372,-0.00255176,-0.000405102,0.000884009,-8.79251e-05,-0.00286894,1.22631,0.001884,0.0101986,678,757,-10.0884,0.26838
-539,267,-10.0835,-0.526184,-0.00240682,-0.0014598,0.00128511,-0.000563742,-0.00330288,0.96191,0.00204014,0.00989323,685,757,-10.0835,0.526201
-532,267,-10.0844,-0.786438,-0.00237607,-0.0011184,0.00202759,0.000375631,-0.00387011,0.935764,0.00271396,0.0101353,692,757,-10.0844,0.786438
-525,267,-10.1017,-1.04797,-0.00240561,0.000184876,0.0023453,0.00156883,-0.00378956,1.03769,0.00318099,0.00998984,699,757,-10.1017,1.04797
-518,267,-10.1094,-1.32733,-0.00284217,0.00208555,0.00202302,0.00280967,-0.00356629,1.22706,0.00368979,0.0105062,706,757,-10.1094,1.32733
-511,267,-10.1097,-1.60815,-0.00394727,0.00409209,0.00159022,0.00439521,-0.00425039,1.38244,0.00499177,0.0148078,713,757,-10.1097,1.60815
-504,267,-10.1598,-1.82709,-0.00491229,0.00686008,0.00128729,0.0069992,-0.00505141,1.46314,0.00698765,0.0294384,720,757,-10.1598,1.82708
-497,267,-10.1049,-2.23462,0,0,0,0,0,0,0,-1,727,757,-10.1049,2.23464
-490,267,-15.5832,3.1012,0,0,0,0,0,0,0,-1,734,757,-15.5832,-3.10121
-483,267,-16.11,2.59186,-0.00428112,0.010376,0.00353486,0.011184,-0.00508909,1.34609,0.00961241,0.0493984,741,757,-16.1101,-2.59185
-476,267,-16.7678,2.18121,-0.00337693,0.0100226,0.004871,0.0116062,-0.00496049,1.25647,0.00981794,0.0457162,748,757,-16.7678,-2.1812
-469,267,-17.0706,1.79224,-0.00137151,0.00777434,0.00707335,0.0116242,-0.00522141,1.07235,0.00995726,0.0475397,755,757,-17.0706,-1.79225
-462,267,-17.4016,1.7309,0.00226857,0.00303487,0.010322,0.0129808,-0.00767738,0.803949,0.0120573,0.0469944,762,757,-17.4016,-1.73089
-455,267,-17.7581,1.9176,0,0,0,0,0,0,0,-1,769,757,-17.7581,-1.91761
-448,267,-16.3734,1.11554,0,0,0,0,0,0,0,-1,776,757,-16.3733,-1.11553
-441,267,0,0,0,0,0,0,0,0,0,-1,783,757,0,0
-434,267,0,0,0,0,0,0,0,0,0,-1,790,757,0,0
-427,267,0,0,0,0,0,0,0,0,0,-1,797,757,0,0
-420,267,0,0,0,0,0,0,0,0,0,-1,804,757,0,0
-413,267,0,0,0,0,0,0,0,0,0,-1,811,757,0,0
-406,267,0,0,0,0,0,0,0,0,0,-1,818,757,0,0
-399,267,0,0,0,0,0,0,0,0,0,-1,825,757,0,0
-392,267,0,0,0,0,0,0,0,0,0,-1,832,757,0,0
-385,267,0,0,0,0,0,0,0,0,0,-1,839,757,0,0
-378,267,0,0,0,0,0,0,0,0,0,-1,846,757,0,0
-371,267,0,0,0,0,0,0,0,0,0,-1,853,757,0,0
-364,267,0,0,0,0,0,0,0,0,0,-1,860,757,0,0
-357,267,0,0,0,0,0,0,0,0,0,-1,867,757,0,0
-350,267,0,0,0,0,0,0,0,0,0,-1,874,757,0,0
-343,267,0,0,0,0,0,0,0,0,0,-1,881,757,0,0
-336,267,0,0,0,0,0,0,0,0,0,-1,888,757,0,0
-329,267,0,0,0,0,0,0,0,0,0,-1,895,757,0,0
-322,267,0,0,0,0,0,0,0,0,0,-1,902,757,0,0
-315,267,0,0,0,0,0,0,0,0,0,-1,909,757,0,0
-308,267,0,0,0,0,0,0,0,0,0,-1,916,757,0,0
-301,267,0,0,0,0,0,0,0,0,0,-1,923,757,0,0
-294,267,0,0,0,0,0,0,0,0,0,-1,930,757,0,0
-287,267,0,0,0,0,0,0,0,0,0,-1,937,757,0,0
-280,267,0,0,0,0,0,0,0,0,0,-1,944,757,0,0
-273,267,0,0,0,0,0,0,0,0,0,-1,951,757,0,0
-266,267,0,0,0,0,0,0,0,0,0,-1,958,757,0,0
-259,267,0,0,0,0,0,0,0,0,0,-1,965,757,0,0
-252,267,0,0,0,0,0,0,0,0,0,-1,972,757,0,0
-245,267,0,0,0,0,0,0,0,0,0,-1,979,757,0,0
-238,267,0,0,0,0,0,0,0,0,0,-1,986,757,0,0
-231,267,0,0,0,0,0,0,0,0,0,-1,993,757,0,0
-224,267,0,0,0,0,0,0,0,0,0,-1,1000,757,0,0
-217,267,0,0,0,0,0,0,0,0,0,-1,1007,757,0,0
-210,267,0,0,0,0,0,0,0,0,0,-1,1014,757,0,0
-203,267,0,0,0,0,0,0,0,0,0,-1,1021,757,0,0
-196,267,0,0,0,0,0,0,0,0,0,-1,1028,757,0,0
-189,267,0,0,0,0,0,0,0,0,0,-1,1035,757,0,0
-182,267,0,0,0,0,0,0,0,0,0,-1,1042,757,0,0
-175,267,0,0,0,0,0,0,0,0,0,-1,1049,757,0,0
-168,267,0,0,0,0,0,0,0,0,0,-1,1056,757,0,0
-161,267,0,0,0,0,0,0,0,0,0,-1,1063,757,0,0
-154,267,0,0,0,0,0,0,0,0,0,-1,1070,757,0,0
-147,267,0,0,0,0,0,0,0,0,0,-1,1077,757,0,0
-140,267,0,0,0,0,0,0,0,0,0,-1,1084,757,0,0
-133,267,0,0,0,0,0,0,0,0,0,-1,1091,757,0,0
-126,267,0,0,0,0,0,0,0,0,0,-1,1098,757,0,0
-119,267,0,0,0,0,0,0,0,0,0,-1,1105,757,0,0
-112,267,0,0,0,0,0,0,0,0,0,-1,1112,757,0,0
-105,267,0,0,0,0,0,0,0,0,0,-1,1119,757,0,0
-98,267,0,0,0,0,0,0,0,0,0,-1,1126,757,0,0
-91,267,0,0,0,0,0,0,0,0,0,-1,1133,757,0,0
-84,267,0,0,0,0,0,0,0,0,0,-1,1140,757,0,0
-77,267,0,0,0,0,0,0,0,0,0,-1,1147,757,0,0
-70,267,0,0,0,0,0,0,0,0,0,-1,1154,757,0,0
-63,267,0,0,0,0,0,0,0,0,0,-1,1161,757,0,0
-56,267,0,0,0,0,0,0,0,0,0,-1,1168,757,0,0
-49,267,0,0,0,0,0,0,0,0,0,-1,1175,757,0,0
-42,267,0,0,0,0,0,0,0,0,0,-1,1182,757,0,0
-35,267,0,0,0,0,0,0,0,0,0,-1,1189,757,0,0
-28,267,0,0,0,0,0,0,0,0,0,-1,1196,757,0,0
-21,267,0,0,0,0,0,0,0,0,0,-1,1203,757,0,0
-14,267,0,0,0,0,0,0,0,0,0,-1,1210,757,0,0
-7,267,0,0,0,0,0,0,0,0,0,-1,1217,757,0,0
0,267,0,0,0,0,0,0,0,0,0,-1,1224,757,0,0
7,267,0,0,0,0,0,0,0,0,0,-1,1231,757,0,0
14,267,0,0,0,0,0,0,0,0,0,-1,1238,757,0,0
21,267,0,0,0,0,0,0,0,0,0,-1,1245,757,0,0
28,267,0,0,0,0,0,0,0,0,0,-1,1252,757,0,0
35,267,0,0,0,0,0,0,0,0,0,-1,1259,757,0,0
42,267,0,0,0,0,0,0,0,0,0,-1,1266,757,0,0
49,267,0,0,0,0,0,0,0,0,0,-1,1273,757,0,0
56,267,0,0,0,0,0,0,0,0,0,-1,1280,757,0,0
63,267,0,0,0,0,0,0,0,0,0,-1,1287,757,0,0
70,267,0,0,0,0,0,0,0,0,0,-1,1294,757,0,0
77,267,0,0,0,0,0,0,0,0,0,-1,1301,757,0,0
84,267,0,0,0,0,0,0,0,0,0,-1,1308,757,0,0
91,267,0,0,0,0,0,0,0,0,0,-1,1315,757,0,0
98,267,0,0,0,0,0,0,0,0,0,-1,1322,757,0,0
105,267,0,0,0,0,0,0,0,0,0,-1,1329,757,0,0
112,267,0,0,0,0,0,0,0,0,0,-1,1336,757,0,0
119,267,0,0,0,0,0,0,0,0,0,-1,1343,757,0,0
126,267,0,0,0,0,0,0,0,0,0,-1,1350,757,0,0
133,267,0,0,0,0,0,0,0,0,0,-1,1357,757,0,0
140,267,0,0,0,0,0,0,0,0,0,-1,1364,757,0,0
147,267,0,0,0,0,0,0,0,0,0,-1,1371,757,0,0
154,267,0,0,0,0,0,0,0,0,0,-1,1378,757,0,0
161,267,0,0,0,0,0,0,0,0,0,-1,1385,757,0,0
168,267,0,0,0,0,0,0,0,0,0,-1,1392,757,0,0
175,267,0,0,0,0,0,0,0,0,0,-1,1399,757,0,0
182,267,0,0,0,0,0,0,0,0,0,-1,1406,757,0,0
189,267,0,0,0,0,0,0,0,0,0,-1,1413,757,0,0
196,267,0,0,0,0,0,0,0,0,0,-1,1420,757,0,0
203,267,0,0,0,0,0,0,0,0,0,-1,1427,757,0,0
210,267,0,0,0,0,0,0,0,0,0,-1,1434,757,0,0
217,267,0,0,0,0,0,0,0,0,0,-1,1441,757,0,0
224,267,0,0,0,0,0,0,0,0,0,-1,1448,757,0,0
231,267,0,0,0,0,0,0,0,0,0,-1,1455,757,0,0
238,267,0,0,0,0,0,0,0,0,0,-1,1462,757,0,0
245,267,0,0,0,0,0,0,0,0,0,-1,1469,757,0,0
252,267,0,0,0,0,0,0,0,0,0,-1,1476,757,0,0
259,267,0,0,0,0,0,0,0,0,0,-1,1483,757,0,0
266,267,0,0,0,0,0,0,0,0,0,-1,1490,757,0,0
273,267,0,0,0,0,0,0,0,0,0,-1,1497,757,0,0
280,267,0,0,0,0,0,0,0,0,0,-1,1504,757,0,0
287,267,0,0,0,0,0,0,0,0,0,-1,1511,757,0,0
294,267,0,0,0,0,0,0,0,0,0,-1,1518,757,0,0
301,267,0,0,0,0,0,0,0,0,0,-1,1525,757,0,0
308,267,0,0,0,0,0,0,0,0,0,-1,1532,757,0,0
315,267,0,0,0,0,0,0,0,0,0,-1,1539,757,0,0
322,267,0,0,0,0,0,0,0,0,0,-1,1546,757,0,0
329,267,0,0,0,0,0,0,0,0,0,-1,1553,757,0,0
336,267,0,0,0,0,0,0,0,0,0,-1,1560,757,0,0
343,267,0,0,0,0,0,0,0,0,0,-1,1567,757,0,0
350,267,0,0,0,0,0,0,0,0,0,-1,1574,757,0,0
357,267,0,0,0,0,0,0,0,0,0,-1,1581,757,0,0
364,267,0,0,0,0,0,0,0,0,0,-1,1588,757,0,0
371,267,0,0,0,0,0,0,0,0,0,-1,1595,757,0,0
378,267,0,0,0,0,0,0,0,0,0,-1,1602,757,0,0
385,267,0,0,0,0,0,0,0,0,0,-1,1609,757,0,0
392,267,0,0,0,0,0,0,0,0,0,-1,1616,757,0,0
399,267,0,0,0,0,0,0,0,0,0,-1,1623,757,0,0
406,267,0,0,0,0,0,0,0,0,0,-1,1630,757,0,0
413,267,0,0,0,0,0,0,0,0,0,-1,1637,757,0,0
420,267,0,0,0,0,0,0,0,0,0,-1,1644,757,0,0
427,267,0,0,0,0,0,0,0,0,0,-1,1651,757,0,0
434,267,0,0,0,0,0,0,0,0,0,-1,1658,757,0,0
441,267,0,0,0,0,0,0,0,0,0,-1,1665,757,0,0
448,267,0,0,0,0,0,0,0,0,0,-1,1672,757,0,0
455,267,0,0,0,0,0,0,0,0,0,-1,1679,757,0,0
462,267,0,0,0,0,0,0,0,0,0,-1,1686,757,0,0
469,267,0,0,0,0,0,0,0,0,0,-1,1693,757,0,0
476,267,0,0,0,0,0,0,0,0,0,-1,1700,757,0,0
483,267,0,0,0,0,0,0,0,0,0,-1,1707,757,0,0
490,267,0,0,0,0,0,0,0,0,0,-1,1714,757,0,0
497,267,0,0,0,0,0,0,0,0,0,-1,1721,757,0,0
504,267,0,0,0,0,0,0,0,0,0,-1,1728,757,0,0
511,267,0,0,0,0,0,0,0,0,0,-1,1735,757,0,0
518,267,0,0,0,0,0,0,0,0,0,-1,1742,757,0,0
525,267,0,0,0,0,0,0,0,0,0,-1,1749,757,0,0
532,267,0,0,0,0,0,0,0,0,0,-1,1756,757,0,0
539,267,0,0,0,0,0,0,0,0,0,-1,1763,757,0,0
546,267,0,0,0,0,0,0,0,0,0,-1,1770,757,0,0
553,267,0,0,0,0,0,0,0,0,0,-1,1777,757,0,0
560,267,0,0,0,0,0,0,0,0,0,-1,1784,757,0,0
567,267,23.8723,2.9834,0,0,0,0,0,0,0,-1,1791,757,23.8724,-2.98342
574,267,23.774,3.05322,0,0,0,0,0,0,0,-1,1798,757,23.774,-3.05325
581,267,23.4562,3.25769,0,0,0,0,0,0,0,-1,1805,757,23.4562,-3.25769
588,267,23.468,2.93152,0,0,0,0,0,0,0,-1,1812,757,23.4681,-2.93154
595,267,23.6941,2.78448,0,0,0,0,0,0,0,-1,1819,757,23.6941,-2.7845
602,267,24.1263,2.41785,0,0,0,0,0,0,0,-1,1826,757,24.1264,-2.41787
609,267,24.5662,3.11115,0,0,0,0,0,0,0,-1,1833,757,24.5662,-3.11114
616,267,24.9537,1.70013,0,0,0,0,0,0,0,-1,1840,757,24.9537,-1.70011
623,267,16.7479,-0.12262,0,0,0,0,0,0,0,-1,1847,757,16.7479,0.122606
630,267,16.5796,0.138855,0.00420463,0.00325836,-0.00160647,0.00540619,0.0020568,-0.642188,0.00315087,0.0456471,1854,757,16.5796,-0.138846
637,267,16.4554,0.326965,0.00215254,0.00265484,-0.00109999,0.00353198,0.00127539,-0.897634,0.00206525,0.0244168,1861,757,16.4555,-0.326954
644,267,16.4336,0.585999,0.000592027,0.00206516,-0.000763388,0.00238939,0.000267796,-1.16916,0.00151159,0.0122118,1868,757,16.4336,-0.586026
651,267,16.4075,0.87793,-0.000390808,0.00143756,-0.000291804,0.001483,-0.00043625,-1.41631,0.00116172,0.0147008,1875,757,16.4074,-0.877921
658,267,16.434,1.16528,-0.000613763,0.00112083,-0.000506799,0.00125805,-0.000750981,-1.30638,0.00117216,0.0148376,1882,757,16.434,-1.16529
665,267,16.4493,1.45154,-0.000749709,0.000621381,-0.000674142,0.000897314,-0.00102564,-1.18229,0.00111104,0.0162423,1889,757,16.4493,-1.45156
672,267,16.4528,1.72919,-0.000345097,0.000222588,-0.000553321,0.000560623,-0.000683131,-1.02239,0.000719242,0.0141891,1896,757,16.4527,-1.72917
679,267,16.4482,2.02283,0.000787892,0.000390505,-0.000422613,0.00105619,0.000122207,-0.565654,0.000667132,0.0129211,1903,757,16.4483,-2.02285
686,267,16.4384,2.32318,0.00261131,0.00102974,0.000122986,0.00262082,0.00102024,0.0771442,0.00152545,0.013012,1910,757,16.4383,-2.32319
693,267,16.4421,2.57715,0.0040251,0.00166666,0.000490691,0.00412312,0.00156865,0.197161,0.00240306,0.013046,1917,757,16.4421,-2.57714
700,267,16.4575,2.85303,0.00587264,0.00251573,0.000969694,0.00613261,0.00225575,0.261942,0.00358166,0.0147828,1924,757,16.4575,-2.85305
707,267,16.4524,3.11249,0.00848861,0.00346836,0.00168095,0.00899946,0.00295751,0.295038,0.00529659,0.0151357,1931,757,16.4524,-3.11252
714,267,16.4957,3.34503,0.0119552,0.00456053,0.00253978,0.0127435,0.00377226,0.300946,0.00755882,0.0299113,1938,757,16.4957,-3.34506
721,267,16.6021,3.52545,0.0164556,0.00612926,0.00372207,0.0176573,0.00492752,0.312304,0.010521,0.0457789,1945,757,16.6021,-3.52544
728,267,16.6482,3.64764,0,0,0,0,0,0,0,-1,1952,757,16.6482,-3.64766
735,267,16.7356,5.51239,0,0,0,0,0,0,0,-1,1959,757,16.7355,-5.5124
742,267,16.1127,4.81091,0,0,0,0,0,0,0,-1,1966,757,16.1127,-4.81091
749,267,0,0,0,0,0,0,0,0,0,-1,1973,757,0,0
756,267,0,0,0,0,0,0,0,0,0,-1,1980,757,0,0
763,267,0,0,0,0,0,0,0,0,0,-1,1987,757,0,0
770,267,0,0,0,0,0,0,0,0,0,-1,1994,757,0,0
777,267,0,0,0,0,0,0,0,0,0,-1,2001,757,0,0
784,267,0,0,0,0,0,0,0,0,0,-1,2008,757,0,0
791,267,0,0,0,0,0,0,0,0,0,-1,2015,757,0,0
798,267,0,0,0,0,0,0,0,0,0,-1,2022,757,0,0
805,267,0,0,0,0,0,0,0,0,0,-1,2029,757,0,0
812,267,0,0,0,0,0,0,0,0,0,-1,2036,757,0,0
-700,260,0,0,0,0,0,0,0,0,0,-1,524,764,0,0
-693,260,0,0,0,0,0,0,0,0,0,-1,531,764,0,0
-686,260,0,0,0,0,0,0,0,0,0,-1,538,764,0,0
-679,260,0,0,0,0,0,0,0,0,0,-1,545,764,0,0
-672,260,0,0,0,0,0,0,0,0,0,-1,552,764,0,0
-665,260,0,0,0,0,0,0,0,0,0,-1,559,764,0,0
-658,260,0,0,0,0,0,0,0,0,0,-1,566,764,0,0
-651,260,0,0,0,0,0,0,0,0,0,-1,573,764,0,0
-644,260,0,0,0,0,0,0,0,0,0,-1,580,764,0,0
-637,260,0,0,0,0,0,0,0,0,0,-1,587,764,0,0
-630,260,-15.1309,7.70068,0,0,0,0,0,0,0,-1,594,764,-15.1309,-7.70068
-623,260,-11.7693,5.13202,0,0,0,0,0,0,0,-1,601,764,-11.7693,-5.132
-616,260,-11.1417,4.37274,0.102866,-0.0152659,0.0276139,0.109002,-0.0214021,0.21866,0.0807531,0.049963,608,764,-11.1417,-4.37273
-609,260,-10.5001,3.6723,0.0822166,-0.0114723,0.0198775,0.0862594,-0.0155152,0.200652,0.0633149,0.0458811,615,764,-10.5002,-3.6723
-602,260,-9.98676,2.98303,0,0,0,0,0,0,0,-1,622,764,-9.98677,-2.98302
-595,260,-10.4936,2.47955,0,0,0,0,0,0,0,-1,629,764,-10.4936,-2.47955
-588,260,-10.4115,1.76093,0.0331034,-0.0029739,0.00644902,0.0342215,-0.00409204,0.171675,0.0242935,0.0428725,636,764,-10.4115,-1.76091
-581,260,-10.3463,1.05322,0.0220094,-0.00151662,0.00423193,0.0227475,-0.00225471,0.172675,0.0159697,0.0235877,643,764,-10.3463,-1.05321
-574,260,-10.3655,0.779175,0.0132477,-0.000784783,0.00214866,0.0135693,-0.00110641,0.148587,0.00943664,0.0154884,650,764,-10.3655,-0.779185
-567,260,-10.3646,0.534119,0.00707198,-0.000465977,0.00144855,0.00734076,-0.000734758,0.183465,0.00515624,0.01635,657,764,-10.3646,-0.534121
-560,260,-10.3586,0.291504,0.00229393,-0.000293592,0.0012628,0.00280806,-0.000807728,0.386645,0.00219148,0.0182518,664,764,-10.3586,-0.291501
-553,260,-10.3537,0.0290527,-0.000742066,-0.000511618,0.000996245,0.000376044,-0.00162973,0.842972,0.00123113,0.0160712,671,764,-10.3537,-0.029073
-546,260,-10.3608,-0.251038,-0.00212524,-0.00114386,0.0010517,-0.000474014,-0.00279509,1.00367,0.0017272,0.0106898,678,764,-10.3609,0.251012
-539,260,-10.3476,-0.50354,-0.00224196,-0.00223103,0.00145675,-0.000779734,-0.00369326,0.787274,0.0022478,0.0110276,685,764,-10.3476,0.503556
-532,260,-10.3438,-0.754822,-0.00236848,-0.00179823,0.00221028,0.000145243,-0.00431195,0.849544,0.00292425,0.0130225,692,764,-10.3438,0.754803
-525,260,-10.3612,-1.0376,-0.00243189,-0.000380287,0.0024543,0.00125396,-0.00406613,0.983344,0.00321141,0.0124307,699,764,-10.3612,1.0376
-518,260,-10.3588,-1.29938,-0.0028181,0.00156948,0.00205168,0.00237937,-0.00362799,1.19483,0.00349324,0.0135509,706,764,-10.3588,1.29939
-511,260,-10.3608,-1.55084,-0.00370506,0.00361222,0.00153087,0.00391958,-0.00401242,1.37265,0.00457965,0.0220147,713,764,-10.3608,1.55086
-504,260,-10.4174,-1.75507,-0.00440778,0.00635197,0.00116662,0.006477,-0.00453282,1.46403,0.00638947,0.0420191,720,764,-10.4174,1.75509
-497,260,-10.4864,-2.00977,0,0,0,0,0,0,0,-1,727,764,-10.4864,2.00974
-490,260,-17.3781,2.07196,0,0,0,0,0,0,0,-1,734,764,-17.378,-2.07195
-483,260,-17.2718,1.9295,-0.00402309,0.0116589,0.00214025,0.0119458,-0.00430994,1.43756,0.00972426,0.0476813,741,764,-17.2718,-1.92952
-476,260,-17.187,1.73071,-0.00337008,0.0123039,0.00279969,0.012789,-0.00385515,1.39924,0.0100603,0.0481083,748,764,-17.187,-1.73073
-469,260,-17.113,1.5658,-0.00171731,0.0111716,0.00410028,0.0123654,-0.00291113,1.28747,0.009366,0.0491405,755,764,-17.113,-1.56581
-462,260,-17.0545,1.52362,0.0016315,0.00727149,0.00623513,0.0112947,-0.0023917,0.99777,0.00844074,0.0451502,762,764,-17.0545,-1.52361
-455,260,-16.9149,1.46503,0,0,0,0,0,0,0,-1,769,764,-16.9148,-1.46501
-448,260,0,0,0,0,0,0,0,0,0,-1,776,764,0,0
-441,260,0,0,0,0,0,0,0,0,0,-1,783,764,0,0
-434,260,0,0,0,0,0,0,0,0,0,-1,790,764,0,0
-427,260,0,0,0,0,0,0,0,0,0,-1,797,764,0,0
-420,260,0,0,0,0,0,0,0,0,0,-1,804,764,0,0
-413,260,0,0,0,0,0,0,0,0,0,-1,811,764,0,0
-406,260,0,0,0,0,0,0,0,0,0,-1,818,764,0,0
-399,260,0,0,0,0,0,0,0,0,0,-1,825,764,0,0
-392,260,0,0,0,0,0,0,0,0,0,-1,832,764,0,0
-385,260,0,0,0,0,0,0,0,0,0,-1,839,764,0,0
-378,260,0,0,0,0,0,0,0,0,0,-1,846,764,0,0
-371,260,0,0,0,0,0,0,0,0,0,-1,853,764,0,0
-364,260,0,0,0,0,0,0,0,0,0,-1,860,764,0,0
-357,260,0,0,0,0,0,0,0,0,0,-1,867,764,0,0
-350,260,0,0,0,0,0,0,0,0,0,-1,874,764,0,0
-343,260,0,0,0,0,0,0,0,0,0,-1,881,764,0,0
-336,260,0,0,0,0,0,0,0,0,0,-1,888,764,0,0
-329,260,0,0,0,0,0,0,0,0,0,-1,895,764,0,0
-322,260,0,0,0,0,0,0,0,0,0,-1,902,764,0,0
-315,260,0,0,0,0,0,0,0,0,0,-1,909,764,0,0
-308,260,0,0,0,0,0,0,0,0,0,-1,916,764,0,0
-301,260,0,0,0,0,0,0,0,0,0,-1,923,764,0,0
-294,260,0,0,0,0,0,0,0,0,0,-1,930,764,0,0
-287,260,0,0,0,0,0,0,0,0,0,-1,937,764,0,0
-280,260,0,0,0,0,0,0,0,0,0,-1,944,764,0,0
-273,260,0,0,0,0,0,0,0,0,0,-1,951,764,0,0
-266,260,0,0,0,0,0,0,0,0,0,-1,958,764,0,0
-259,260,0,0,0,0,0,0,0,0,0,-1,965,764,0,0
-252,260,0,0,0,0,0,0,0,0,0,-1,972,764,0,0
-245,260,0,0,0,0,0,0,0,0,0,-1,979,764,0,0
-238,260,0,0,0,0,0,0,0,0,0,-1,986,764,0,0
-231,260,0,0,0,0,0,0,0,0,0,-1,993,764,0,0
-224,260,0,0,0,0,0,0,0,0,0,-1,1000,764,0,0
-217,260,0,0,0,0,0,0,0,0,0,-1,1007,764,0,0
-210,260,0,0,0,0,0,0,0,0,0,-1,1014,764,0,0
-203,260,0,0,0,0,0,0,0,0,0,-1,1021,764,0,0
-196,260,0,0,0,0,0,0,0,0,0,-1,1028,764,0,0
-189,260,0,0,0,0,0,0,0,0,0,-1,1035,764,0,0
-182,260,0,0,0,0,0,0,0,0,0,-1,1042,764,0,0
-175,260,0,0,0,0,0,0,0,0,0,-1,1049,764,0,0
-168,260,0,0,0,0,0,0,0,0,0,-1,1056,764,0,0
-161,260,0,0,0,0,0,0,0,0,0,-1,1063,764,0,0
-154,260,0,0,0,0,0,0,0,0,0,-1,1070,764,0,0
-147,260,0,0,0,0,0,0,0,0,0,-1,1077,764,0,0
-140,260,0,0,0,0,0,0,0,0,0,-1,1084,764,0,0
-133,260,0,0,0,0,0,0,0,0,0,-1,1091,764,0,0
-126,260,0,0,0,0,0,0,0,0,0,-1,1098,764,0,0
-119,260,0,0,0,0,0,0,0,0,0,-1,1105,764,0,0
-112,260,0,0,0,0,0,0,0,0,0,-1,1112,764,0,0
-105,260,0,0,0,0,0,0,0,0,0,-1,1119,764,0,0
-98,260,0,0,0,0,0,0,0,0,0,-1,1126,764,0,0
-91,260,0,0,0,0,0,0,0,0,0,-1,1133,764,0,0
-84,260,0,0,0,0,0,0,0,0,0,-1,1140,764,0,0
-77,260,0,0,0,0,0,0,0,0,0,-1,1147,764,0,0
-70,260,0,0,0,0,0,0,0,0,0,-1,1154,764,0,0
-63,260,0,0,0,0,0,0,0,0,0,-1,1161,764,0,0
-56,260,0,0,0,0,0,0,0,0,0,-1,1168,764,0,0
-49,260,0,0,0,0,0,0,0,0,0,-1,1175,764,0,0
-42,260,0,0,0,0,0,0,0,0,0,-1,1182,764,0,0
-35,260,0,0,0,0,0,0,0,0,0,-1,1189,764,0,0
-28,260,0,0,0,0,0,0,0,0,0,-1,1196,764,0,0
-21,260,0,0,0,0,0,0,0,0,0,-1,1203,764,0,0
-14,260,0,0,0,0,0,0,0,0,0,-1,1210,764,0,0
-7,260,0,0,0,0,0,0,0,0,0,-1,1217,764,0,0
0,260,0,0,0,0,0,0,0,0,0,-1,1224,764,0,0
7,260,0,0,0,0,0,0,0,0,0,-1,1231,764,0,0
14,260,0,0,0,0,0,0,0,0,0,-1,1238,764,0,0
21,260,0,0,0,0,0,0,0,0,0,-1,1245,764,0,0
28,260,0,0,0,0,0,0,0,0,0,-1,1252,764,0,0
35,260,0,0,0,0,0,0,0,0,0,-1,1259,764,0,0
42,260,0,0,0,0,0,0,0,0,0,-1,1266,764,0,0
49,260,0,0,0,0,0,0,0,0,0,-1,1273,764,0,0
56,260,0,0,0,0,0,0,0,0,0,-1,1280,764,0,0
63,260,0,0,0,0,0,0,0,0,0,-1,1287,764,0,0
70,260,0,0,0,0,0,0,0,0,0,-1,1294,764,0,0
77,260,0,0,0,0,0,0,0,0,0,-1,1301,764,0,0
84,260,0,0,0,0,0,0,0,0,0,-1,1308,764,0,0
91,260,0,0,0,0,0,0,0,0,0,-1,1315,764,0,0
98,260,0,0,0,0,0,0,0,0,0,-1,1322,764,0,0
105,260,0,0,0,0,0,0,0,0,0,-1,1329,764,0,0
112,260,0,0,0,0,0,0,0,0,0,-1,1336,764,0,0
119,260,0,0,0,0,0,0,0,0,0,-1,1343,764,0,0
126,260,0,0,0,0,0,0,0,0,0,-1,1350,764,0,0
133,260,0,0,0,0,0,0,0,0,0,-1,1357,764,0,0
140,260,0,0,0,0,0,0,0,0,0,-1,1364,764,0,0
147,260,0,0,0,0,0,0,0,0,0,-1,1371,764,0,0
154,260,0,0,0,0,0,0,0,0,0,-1,1378,764,0,0
161,260,0,0,0,0,0,0,0,0,0,-1,1385,764,0,0
168,260,0,0,0,0,0,0,0,0,0,-1,1392,764,0,0
175,260,0,0,0,0,0,0,0,0,0,-1,1399,764,0,0
182,260,0,0,0,0,0,0,0,0,0,-1,1406,764,0,0
189,260,0,0,0,0,0,0,0,0,0,-1,1413,764,0,0
196,260,0,0,0,0,0,0,0,0,0,-1,1420,764,0,0
203,260,0,0,0,0,0,0,0,0,0,-1,1427,764,0,0
210,260,0,0,0,0,0,0,0,0,0,-1,1434,764,0,0
217,260,0,0,0,0,0,0,0,0,0,-1,1441,764,0,0
224,260,0,0,0,0,0,0,0,0,0,-1,1448,764,0,0
231,260,0,0,0,0,0,0,0,0,0,-1,1455,764,0,0
238,260,0,0,0,0,0,0,0,0,0,-1,1462,764,0,0
245,260,0,0,0,0,0,0,0,0,0,-1,1469,764,0,0
252,260,0,0,0,0,0,0,0,0,0,-1,1476,764,0,0
259,260,0,0,0,0,0,0,0,0,0,-1,1483,764,0,0
266,260,0,0,0,0,0,0,0,0,0,-1,1490,764,0,0
273,260,0,0,0,0,0,0,0,0,0,-1,1497,764,0,0
280,260,0,0,0,0,0,0,0,0,0,-1,1504,764,0,0
287,260,0,0,0,0,0,0,0,0,0,-1,1511,764,0,0
294,260,0,0,0,0,0,0,0,0,0,-1,1518,764,0,0
301,260,0,0,0,0,0,0,0,0,0,-1,1525,764,0,0
308,260,0,0,0,0,0,0,0,0,0,-1,1532,764,0,0
315,260,0,0,0,0,0,0,0,0,0,-1,1539,764,0,0
322,260,0,0,0,0,0,0,0,0,0,-1,1546,764,0,0
329,260,0,0,0,0,0,0,0,0,0,-1,1553,764,0,0
336,260,0,0,0,0,0,0,0,0,0,-1,1560,764,0,0
343,260,0,0,0,0,0,0,0,0,0,-1,1567,764,0,0
350,260,0,0,0,0,0,0,0,0,0,-1,1574,764,0,0
357,260,0,0,0,0,0,0,0,0,0,-1,1581,764,0,0
364,260,0,0,0,0,0,0,0,0,0,-1,1588,764,0,0
371,260,0,0,0,0,0,0,0,0,0,-1,1595,764,0,0
378,260,0,0,0,0,0,0,0,0,0,-1,1602,764,0,0
385,260,0,0,0,0,0,0,0,0,0,-1,1609,764,0,0
392,260,0,0,0,0,0,0,0,0,0,-1,1616,764,0,0
399,260,0,0,0,0,0,0,0,0,0,-1,1623,764,0,0
406,260,0,0,0,0,0,0,0,0,0,-1,1630,764,0,0
413,260,0,0,0,0,0,0,0,0,0,-1,1637,764,0,0
420,260,0,0,0,0,0,0,0,0,0,-1,1644,764,0,0
427,260,0,0,0,0,0,0,0,0,0,-1,1651,764,0,0
434,260,0,0,0,0,0,0,0,0,0,-1,1658,764,0,0
441,260,0,0,0,0,0,0,0,0,0,-1,1665,764,0,0
448,260,0,0,0,0,0,0,0,0,0,-1,1672,764,0,0
455,260,0,0,0,0,0,0,0,0,0,-1,1679,764,0,0
462,260,0,0,0,0,0,0,0,0,0,-1,1686,764,0,0
469,260,0,0,0,0,0,0,0,0,0,-1,1693,764,0,0
476,260,0,0,0,0,0,0,0,0,0,-1,1700,764,0,0
483,260,0,0,0,0,0,0,0,0,0,-1,1707,764,0,0
490,260,0,0,0,0,0,0,0,0,0,-1,1714,764,0,0
497,260,0,0,0,0,0,0,0,0,0,-1,1721,764,0,0
504,260,0,0,0,0,0,0,0,0,0,-1,1728,764,0,0
511,260,0,0,0,0,0,0,0,0,0,-1,1735,764,0,0
518,260,0,0,0,0,0,0,0,0,0,-1,1742,764,0,0
525,260,0,0,0,0,0,0,0,0,0,-1,1749,764,0,0
532,260,0,0,0,0,0,0,0,0,0,-1,1756,764,0,0
539,260,0,0,0,0,0,0,0,0,0,-1,1763,764,0,0
546,260,0,0,0,0,0,0,0,0,0,-1,1770,764,0,0
553,260,0,0,0,0,0,0,0,0,0,-1,1777,764,0,0
560,260,0,0,0,0,0,0,0,0,0,-1,1784,764,0,0
567,260,0,0,0,0,0,0,0,0,0,-1,1791,764,0,0
574,260,23.8895,2.80164,0,0,0,0,0,0,0,-1,1798,764,23.8896,-2.80163
581,260,24.0353,3.16241,0,0,0,0,0,0,0,-1,1805,764,24.0353,-3.16239
588,260,24.4642,2.93445,0.0264326,0.00172734,-0.0153135,0.0337546,-0.00559467,-0.446008,0.0245811,0.044505,1812,764,24.4643,-2.93444
595,260,24.2456,2.63617,0.0229374,0.00257826,-0.0113454,0.0280005,-0.0024849,-0.419753,0.019548,0.0426476,1819,764,24.2456,-2.63615
602,260,24.2952,2.48145,0.0182938,0.00378431,-0.00747712,0.0214572,0.000620862,-0.400246,0.0141024,0.0415921,1826,764,24.2951,-2.48143
609,260,24.6851,3.06372,0.0138195,0.00421954,-0.00487799,0.0158631,0.00217593,-0.39673,0.00992987,0.0421664,1833,764,24.6851,-3.0637
616,260,25.212,3.31976,0,0,0,0,0,0,0,-1,1840,764,25.2121,-3.31975
623,260,25.774,3.21515,0,0,0,0,0,0,0,-1,1847,764,25.7741,-3.21513
630,260,16.9237,-0.356506,0,0,0,0,0,0,0,-1,1854,764,16.9237,0.356511
637,260,16.8643,0.104004,0.00145606,0.00265092,-0.0011773,0.0033737,0.000733284,-1.0202,0.00204892,0.0488651,1861,764,16.8642,-0.103979
644,260,16.7446,0.609436,-0.000106513,0.00205609,-0.000934506,0.00240395,-0.000454377,-1.21444,0.0017736,0.0251679,1868,764,16.7447,-0.609452
651,260,16.7454,0.875854,-0.00104806,0.00144127,-0.000550601,0.00155761,-0.00116441,-1.36255,0.00157702,0.0138675,1875,764,16.7454,-0.875837
658,260,16.7327,1.17633,-0.00127254,0.00109814,-0.000796619,0.00134095,-0.00151536,-1.27493,0.00165012,0.0153278,1882,764,16.7327,-1.17636
665,260,16.7343,1.46674,-0.00141623,0.000514172,-0.000971878,0.000918701,-0.00182076,-1.17637,0.00160995,0.0158323,1889,764,16.7343,-1.46672
672,260,16.7456,1.74377,-0.000988444,-3.87551e-05,-0.000804948,0.000420969,-0.00144817,-1.05188,0.00113216,0.0137809,1896,764,16.7457,-1.74376
679,260,16.7281,2.03174,0.000281712,6.3062e-05,-0.00063935,0.000821017,-0.000476243,-0.70072,0.000757739,0.0123829,1903,764,16.7282,-2.03177
686,260,16.7177,2.32532,0.00240689,0.000701543,2.64844e-05,0.0024073,0.000701132,0.0155252,0.00142966,0.014961,1910,764,16.7177,-2.32534
693,260,16.7064,2.57098,0.0039165,0.00126547,0.000399695,0.00397545,0.00120652,0.146435,0.00235357,0.0151428,1917,764,16.7065,-2.57099
700,260,16.6886,2.8584,0.00575515,0.00208501,0.000821614,0.00593068,0.00190948,0.210482,0.00349569,0.0138783,1924,764,16.6887,-2.85841
707,260,16.6797,3.13208,0.00821818,0.00300349,0.00140878,0.00857443,0.00264724,0.247688,0.00506974,0.0140019,1931,764,16.6797,-3.13208
714,260,16.7109,3.37091,0.0115089,0.00403625,0.00207327,0.0120456,0.00349956,0.253297,0.00715506,0.0245032,1938,764,16.7109,-3.37091
721,260,16.7423,3.53491,0.0157308,0.00546672,0.00291033,0.0164986,0.00469894,0.257935,0.00981512,0.0433359,1945,764,16.7424,-3.53491
728,260,16.5286,3.91766,0,0,0,0,0,0,0,-1,1952,764,16.5285,-3.91767
735,260,15.6123,4.65582,0,0,0,0,0,0,0,-1,1959,764,15.6123,-4.65579
742,260,24.4463,6.90778,0,0,0,0,0,0,0,-1,1966,764,24.4463,-6.90777
749,260,20.894,2.95435,0,0,0,0,0,0,0,-1,1973,764,20.894,-2.95435
756,260,0,0,0,0,0,0,0,0,0,-1,1980,764,0,0
763,260,0,0,0,0,0,0,0,0,0,-1,1987,764,0,0
770,260,0,0,0,0,0,0,0,0,0,-1,1994,764,0,0
777,260,0,0,0,0,0,0,0,0,0,-1,2001,764,0,0
784,260,0,0,0,0,0,0,0,0,0,-1,2008,764,0,0
791,260,0,0,0,0,0,0,0,0,0,-1,2015,764,0,0
798,260,0,0,0,0,0,0,0,0,0,-1,2022,764,0,0
805,260,0,0,0,0,0,0,0,0,0,-1,2029,764,0,0
812,260,0,0,0,0,0,0,0,0,0,-1,2036,764,0,0
-700,253,0,0,0,0,0,0,0,0,0,-1,524,771,0,0
-693,253,0,0,0,0,0,0,0,0,0,-1,531,771,0,0
-686,253,0,0,0,0,0,0,0,0,0,-1,538,771,0,0
-679,253,0,0,0,0,0,0,0,0,0,-1,545,771,0,0
-672,253,0,0,0,0,0,0,0,0,0,-1,552,771,0,0
-665,253,0,0,0,0,0,0,0,0,0,-1,559,771,0,0
-658,253,0,0,0,0,0,0,0,0,0,-1,566,771,0,0
-651,253,0,0,0,0,0,0,0,0,0,-1,573,771,0,0
-644,253,0,0,0,0,0,0,0,0,0,-1,580,771,0,0
-637,253,-13.3166,5.11633,0,0,0,0,0,0,0,-1,587,771,-13.3166,-5.11636
-630,253,-12.4828,4.85779,0.130133,-0.0124607,0.0466812,0.144055,-0.0263834,0.289852,0.105932,0.0496754,594,771,-12.4828,-4.8578
-623,253,-12.0062,4.72772,0,0,0,0,0,0,0,-1,601,771,-12.0062,-4.72775
-616,253,-11.5044,4.27557,0.0932058,-0.00776989,0.023496,0.0984053,-0.0129694,0.217785,0.0703265,0.0459858,608,771,-11.5044,-4.27557
-609,253,-11.2679,3.67975,0.0746005,-0.00533461,0.0163461,0.077814,-0.00854806,0.194113,0.0549474,0.0440793,615,771,-11.2679,-3.67974
-602,253,-10.8386,2.8714,0.0576968,-0.00319407,0.0110492,0.0596398,-0.00513704,0.174068,0.0415781,0.0476259,622,771,-10.8386,-2.87142
-595,253,-10.6017,2.24158,0.0428628,-0.00149074,0.00720384,0.0440035,-0.00263144,0.157042,0.030251,0.0448328,629,771,-10.6018,-2.2416
-588,253,-10.5663,1.5954,0.0304019,-0.000301122,0.00450949,0.0310505,-0.000949749,0.142856,0.0210241,0.0380836,636,771,-10.5663,-1.5954
-581,253,-10.5988,1.03558,0.0204653,0.000374238,0.00273509,0.0208309,8.55327e-06,0.132913,0.0138844,0.0233799,643,771,-10.5987,-1.03556
-574,253,-10.6404,0.75647,0.0124819,0.00054392,0.00108583,0.0125798,0.000445961,0.0899725,0.00824191,0.0190216,650,771,-10.6404,-0.756498
-567,253,-10.6357,0.50824,0.00679725,0.000358244,0.000655268,0.00686326,0.000292238,0.100394,0.00448127,0.015143,657,771,-10.6357,-0.508241
-560,253,-10.6124,0.290833,0.0023391,7.44306e-05,0.000700503,0.00253826,-0.000124733,0.277005,0.00173525,0.0116644,664,771,-10.6123,-0.290862
-553,253,-10.6169,0.0401611,-0.000464522,-0.000540137,0.000696587,0.000195283,-0.00119994,0.758287,0.000872372,0.0112079,671,771,-10.6169,-0.0401628
-546,253,-10.6361,-0.210144,-0.00184448,-0.0015557,0.0009439,-0.000745211,-0.00265497,0.861295,0.00158124,0.0108148,678,771,-10.6361,0.210141
-539,253,-10.6334,-0.495056,-0.00223802,-0.00283313,0.00142548,-0.00107937,-0.00399178,0.682505,0.00238428,0.0119905,685,771,-10.6334,0.495071
-532,253,-10.6207,-0.75885,-0.00248423,-0.00249168,0.00216136,-0.000326587,-0.00464932,0.784537,0.00299662,0.0148098,692,771,-10.6206,0.758845
-525,253,-10.6257,-1.03583,-0.00254949,-0.00114808,0.00230793,0.000563169,-0.00426074,0.93278,0.00304562,0.0120888,699,771,-10.6257,1.03584
-518,253,-10.6481,-1.29333,-0.00285328,0.000688692,0.00181632,0.00145452,-0.00361911,1.17178,0.00301681,0.0160512,706,771,-10.6481,1.29335
-511,253,-10.7573,-1.52692,-0.00349429,0.00259948,0.00122573,0.00283679,-0.00373159,1.37956,0.00380397,0.0376915,713,771,-10.7573,1.52689
-504,253,-10.9061,-1.7652,0,0,0,0,0,0,0,-1,720,771,-10.9061,1.7652
-497,253,-10.9148,-1.20911,0,0,0,0,0,0,0,-1,727,771,-10.9148,1.20913
-490,253,-10.8066,-1.3103,0,0,0,0,0,0,0,-1,734,771,-10.8066,1.31033
-483,253,-17.5818,1.51483,0,0,0,0,0,0,0,-1,741,771,-17.5819,-1.51485
-476,253,-17.1945,1.46332,0,0,0,0,0,0,0,-1,748,771,-17.1944,-1.46333
-469,253,-17.1179,1.34338,-0.00136382,0.0134545,0.000880395,0.0135066,-0.00141594,1.51166,0.0095116,0.0461261,755,771,-17.1179,-1.34336
-462,253,-16.954,1.05652,0.00182626,0.0103329,0.00194215,0.0107554,0.00140383,1.35662,0.00675113,0.0436276,762,771,-16.954,-1.0565
-455,253,-16.986,1.04883,0,0,0,0,0,0,0,-1,769,771,-16.986,-1.0488
-448,253,0,0,0,0,0,0,0,0,0,-1,776,771,0,0
-441,253,0,0,0,0,0,0,0,0,0,-1,783,771,0,0
-434,253,0,0,0,0,0,0,0,0,0,-1,790,771,0,0
-427,253,0,0,0,0,0,0,0,0,0,-1,797,771,0,0
-420,253,0,0,0,0,0,0,0,0,0,-1,804,771,0,0
-413,253,0,0,0,0,0,0,0,0,0,-1,811,771,0,0
-406,253,0,0,0,0,0,0,0,0,0,-1,818,771,0,0
-399,253,0,0,0,0,0,0,0,0,0,-1,825,771,0,0
-392,253,0,0,0,0,0,0,0,0,0,-1,832,771,0,0
-385,253,0,0,0,0,0,0,0,0,0,-1,839,771,0,0
-378,253,0,0,0,0,0,0,0,0,0,-1,846,771,0,0
-371,253,0,0,0,0,0,0,0,0,0,-1,853,771,0,0
-364,253,0,0,0,0,0,0,0,0,0,-1,860,771,0,0
-357,253,0,0,0,0,0,0,0,0,0,-1,867,771,0,0
-350,253,0,0,0,0,0,0,0,0,0,-1,874,771,0,0
-343,253,0,0,0,0,0,0,0,0,0,-1,881,771,0,0
-336,253,0,0,0,0,0,0,0,0,0,-1,888,771,0,0
-329,253,0,0,0,0,0,0,0,0,0,-1,895,771,0,0
-322,253,0,0,0,0,0,0,0,0,0,-1,902,771,0,0
-315,253,0,0,0,0,0,0,0,0,0,-1,909,771,0,0
-308,253,0,0,0,0,0,0,0,0,0,-1,916,771,0,0
-301,253,0,0,0,0,0,0,0,0,0,-1,923,771,0,0
-294,253,0,0,0,0,0,0,0,0,0,-1,930,771,0,0
-287,253,0,0,0,0,0,0,0,0,0,-1,937,771,0,0
-280,253,0,0,0,0,0,0,0,0,0,-1,944,771,0,0
-273,253,0,0,0,0,0,0,0,0,0,-1,951,771,0,0
-266,253,0,0,0,0,0,0,0,0,0,-1,958,771,0,0
-259,253,0,0,0,0,0,0,0,0,0,-1,965,771,0,0
-252,253,0,0,0,0,0,0,0,0,0,-1,972,771,0,0
-245,253,0,0,0,0,0,0,0,0,0,-1,979,771,0,0
-238,253,0,0,0,0,0,0,0,0,0,-1,986,771,0,0
-231,253,0,0,0,0,0,0,0,0,0,-1,993,771,0,0
-224,253,0,0,0,0,0,0,0,0,0,-1,1000,771,0,0
-217,253,0,0,0,0,0,0,0,0,0,-1,1007,771,0,0
-210,253,0,0,0,0,0,0,0,0,0,-1,1014,771,0,0
-203,253,0,0,0,0,0,0,0,0,0,-1,1021,771,0,0
-196,253,0,0,0,0,0,0,0,0,0,-1,1028,771,0,0
-189,253,0,0,0,0,0,0,0,0,0,-1,1035,771,0,0
-182,253,0,0,0,0,0,0,0,0,0,-1,1042,771,0,0
-175,253,0,0,0,0,0,0,0,0,0,-1,1049,771,0,0
-168,253,0,0,0,0,0,0,0,0,0,-1,1056,771,0,0
-161,253,0,0,0,0,0,0,0,0,0,-1,1063,771,0,0
-154,253,0,0,0,0,0,0,0,0,0,-1,1070,771,0,0
-147,253,0,0,0,0,0,0,0,0,0,-1,1077,771,0,0
-140,253,0,0,0,0,0,0,0,0,0,-1,1084,771,0,0
-133,253,0,0,0,0,0,0,0,0,0,-1,1091,771,0,0
-126,253,0,0,0,0,0,0,0,0,0,-1,1098,771,0,0
-119,253,0,0,0,0,0,0,0,0,0,-1,1105,771,0,0
-112,253,0,0,0,0,0,0,0,0,0,-1,1112,771,0,0
-105,253,0,0,0,0,0,0,0,0,0,-1,1119,771,0,0
-98,253,0,0,0,0,0,0,0,0,0,-1,1126,771,0,0
-91,253,0,0,0,0,0,0,0,0,0,-1,1133,771,0,0
-84,253,0,0,0,0,0,0,0,0,0,-1,1140,771,0,0
-77,253,0,0,0,0,0,0,0,0,0,-1,1147,771,0,0
-70,253,0,0,0,0,0,0,0,0,0,-1,1154,771,0,0
-63,253,0,0,0,0,0,0,0,0,0,-1,1161,771,0,0
-56,253,0,0,0,0,0,0,0,0,0,-1,1168,771,0,0
-49,253,0,0,0,0,0,0,0,0,0,-1,1175,771,0,0
-42,253,0,0,0,0,0,0,0,0,0,-1,1182,771,0,0
-35,253,0,0,0,0,0,0,0,0,0,-1,1189,771,0,0
-28,253,0,0,0,0,0,0,0,0,0,-1,1196,771,0,0
-21,253,0,0,0,0,0,0,0,0,0,-1,1203,771,0,0
-14,253,0,0,0,0,0,0,0,0,0,-1,1210,771,0,0
-7,253,0,0,0,0,0,0,0,0,0,-1,1217,771,0,0
0,253,0,0,0,0,0,0,0,0,0,-1,1224,771,0,0
7,253,0,0,0,0,0,0,0,0,0,-1,1231,771,0,0
14,253,0,0,0,0,0,0,0,0,0,-1,1238,771,0,0
21,253,0,0,0,0,0,0,0,0,0,-1,1245,771,0,0
28,253,0,0,0,0,0,0,0,0,0,-1,1252,771,0,0
35,253,0,0,0,0,0,0,0,0,0,-1,1259,771,0,0
42,253,0,0,0,0,0,0,0,0,0,-1,1266,771,0,0
49,253,0,0,0,0,0,0,0,0,0,-1,1273,771,0,0
56,253,0,0,0,0,0,0,0,0,0,-1,1280,771,0,0
63,253,0,0,0,0,0,0,0,0,0,-1,1287,771,0,0
70,253,0,0,0,0,0,0,0,0,0,-1,1294,771,0,0
77,253,0,0,0,0,0,0,0,0,0,-1,1301,771,0,0
84,253,0,0,0,0,0,0,0,0,0,-1,1308,771,0,0
91,253,0,0,0,0,0,0,0,0,0,-1,1315,771,0,0
98,253,0,0,0,0,0,0,0,0,0,-1,1322,771,0,0
105,253,0,0,0,0,0,0,0,0,0,-1,1329,771,0,0
112,253,0,0,0,0,0,0,0,0,0,-1,1336,771,0,0
119,253,0,0,0,0,0,0,0,0,0,-1,1343,771,0,0
126,253,0,0,0,0,0,0,0,0,0,-1,1350,771,0,0
133,253,0,0,0,0,0,0,0,0,0,-1,1357,771,0,0
140,253,0,0,0,0,0,0,0,0,0,-1,1364,771,0,0
147,253,0,0,0,0,0,0,0,0,0,-1,1371,771,0,0
154,253,0,0,0,0,0,0,0,0,0,-1,1378,771,0,0
161,253,0,0,0,0,0,0,0,0,0,-1,1385,771,0,0
168,253,0,0,0,0,0,0,0,0,0,-1,1392,771,0,0
175,253,0,0,0,0,0,0,0,0,0,-1,1399,771,0,0
182,253,0,0,0,0,0,0,0,0,0,-1,1406,771,0,0
189,253,0,0,0,0,0,0,0,0,0,-1,1413,771,0,0
196,253,0,0,0,0,0,0,0,0,0,-1,1420,771,0,0
203,253,0,0,0,0,0,0,0,0,0,-1,1427,771,0,0
210,253,0,0,0,0,0,0,0,0,0,-1,1434,771,0,0
217,253,0,0,0,0,0,0,0,0,0,-1,1441,771,0,0
224,253,0,0,0,0,0,0,0,0,0,-1,1448,771,0,0
231,253,0,0,0,0,0,0,0,0,0,-1,1455,771,0,0
238,253,0,0,0,0,0,0,0,0,0,-1,1462,771,0,0
245,253,0,0,0,0,0,0,0,0,0,-1,1469,771,0,0
252,253,0,0,0,0,0,0,0,0,0,-1,1476,771,0,0
259,253,0,0,0,0,0,0,0,0,0,-1,1483,771,0,0
266,253,0,0,0,0,0,0,0,0,0,-1,1490,771,0,0
273,253,0,0,0,0,0,0,0,0,0,-1,1497,771,0,0
280,253,0,0,0,0,0,0,0,0,0,-1,1504,771,0,0
287,253,0,0,0,0,0,0,0,0,0,-1,1511,771,0,0
294,253,0,0,0,0,0,0,0,0,0,-1,1518,771,0,0
301,253,0,0,0,0,0,0,0,0,0,-1,1525,771,0,0
308,253,0,0,0,0,0,0,0,0,0,-1,1532,771,0,0
315,253,0,0,0,0,0,0,0,0,0,-1,1539,771,0,0
322,253,0,0,0,0,0,0,0,0,0,-1,1546,771,0,0
329,253,0,0,0,0,0,0,0,0,0,-1,1553,771,0,0
336,253,0,0,0,0,0,0,0,0,0,-1,1560,771,0,0
343,253,0,0,0,0,0,0,0,0,0,-1,1567,771,0,0
350,253,0,0,0,0,0,0,0,0,0,-1,1574,771,0,0
357,253,0,0,0,0,0,0,0,0,0,-1,1581,771,0,0
364,253,0,0,0,0,0,0,0,0,0,-1,1588,771,0,0
371,253,0,0,0,0,0,0,0,0,0,-1,1595,771,0,0
378,253,0,0,0,0,0,0,0,0,0,-1,1602,771,0,0
385,253,0,0,0,0,0,0,0,0,0,-1,1609,771,0,0
392,253,0,0,0,0,0,0,0,0,0,-1,1616,771,0,0
399,253,0,0,0,0,0,0,0,0,0,-1,1623,771,0,0
406,253,0,0,0,0,0,0,0,0,0,-1,1630,771,0,0
413,253,0,0,0,0,0,0,0,0,0,-1,1637,771,0,0
420,253,0,0,0,0,0,0,0,0,0,-1,1644,771,0,0
427,253,0,0,0,0,0,0,0,0,0,-1,1651,771,0,0
434,253,0,0,0,0,0,0,0,0,0,-1,1658,771,0,0
441,253,0,0,0,0,0,0,0,0,0,-1,1665,771,0,0
448,253,0,0,0,0,0,0,0,0,0,-1,1672,771,0,0
455,253,0,0,0,0,0,0,0,0,0,-1,1679,771,0,0
462,253,0,0,0,0,0,0,0,0,0,-1,1686,771,0,0
469,253,0,0,0,0,0,0,0,0,0,-1,1693,771,0,0
476,253,0,0,0,0,0,0,0,0,0,-1,1700,771,0,0
483,253,0,0,0,0,0,0,0,0,0,-1,1707,771,0,0
490,253,0,0,0,0,0,0,0,0,0,-1,1714,771,0,0
497,253,0,0,0,0,0,0,0,0,0,-1,1721,771,0,0
504,253,0,0,0,0,0,0,0,0,0,-1,1728,771,0,0
511,253,0,0,0,0,0,0,0,0,0,-1,1735,771,0,0
518,253,0,0,0,0,0,0,0,0,0,-1,1742,771,0,0
525,253,0,0,0,0,0,0,0,0,0,-1,1749,771,0,0
532,253,0,0,0,0,0,0,0,0,0,-1,1756,771,0,0
539,253,0,0,0,0,0,0,0,0,0,-1,1763,771,0,0
546,253,0,0,0,0,0,0,0,0,0,-1,1770,771,0,0
553,253,0,0,0,0,0,0,0,0,0,-1,1777,771,0,0
560,253,0,0,0,0,0,0,0,0,0,-1,1784,771,0,0
567,253,0,0,0,0,0,0,0,0,0,-1,1791,771,0,0
574,253,23.776,2.80627,0,0,0,0,0,0,0,-1,1798,771,23.776,-2.80626
581,253,23.9725,3.0824,0,0,0,0,0,0,0,-1,1805,771,23.9725,-3.08242
588,253,24.4176,2.86072,0.0234503,0.00083279,-0.0121603,0.0287476,-0.00446451,-0.410833,0.0208135,0.0437425,1812,771,24.4176,-2.86069
595,253,24.8712,2.5979,0.0204391,0.00222965,-0.00901354,0.0241461,-0.00147732,-0.390182,0.0166118,0.0454747,1819,771,24.8712,-2.59788
602,253,24.5171,2.56091,0.0163929,0.00376031,-0.00596096,0.0187616,0.00139164,-0.378232,0.0120706,0.0423276,1826,771,24.517,-2.56092
609,253,24.8009,3.04852,0.0123553,0.00426289,-0.00396694,0.0139755,0.00264267,-0.387753,0.00857299,0.0417211,1833,771,24.801,-3.04853
616,253,25.4103,3.2735,0.00859012,0.0042304,-0.00267407,0.00986026,0.00296027,-0.443433,0.00584233,0.0413464,1840,771,25.4102,-3.27347
623,253,26.0176,2.8764,0.00531052,0.00387665,-0.00189262,0.00661745,0.00256972,-0.604347,0.00385222,0.0461499,1847,771,26.0175,-2.87638
630,253,23.3596,2.67798,0,0,0,0,0,0,0,-1,1854,771,23.3596,-2.67799
637,253,16.9182,0.330688,0,0,0,0,0,0,0,-1,1861,771,16.9182,-0.330686
644,253,16.9594,0.616272,-0.000602552,0.00202182,-0.00101674,0.00236963,-0.000950364,-1.24119,0.00197432,0.0442454,1868,771,16.9594,-0.616293
651,253,17.0052,0.896179,-0.00144269,0.0014066,-0.000726977,0.00158136,-0.00161746,-1.33487,0.00184688,0.023566,1875,771,17.0053,-0.896195
658,253,17.0295,1.19666,-0.00166345,0.00102033,-0.000998121,0.00135084,-0.00199395,-1.25103,0.00194298,0.0188913,1882,771,17.0295,-1.19663
665,253,16.9517,1.4718,-0.00183021,0.000354916,-0.00119089,0.000878496,-0.00235379,-1.15658,0.00192987,0.0214232,1889,771,16.9517,-1.47183
672,253,16.976,1.75446,-0.00143516,-0.000332034,-0.00101644,0.000272851,-0.00204004,-1.03399,0.0014595,0.0170663,1896,771,16.9759,-1.75446
679,253,17.0264,2.05426,-0.000116407,-0.000298728,-0.000851195,0.000648495,-0.00106363,-0.732053,0.000998135,0.0131039,1903,771,17.0263,-2.05424
686,253,17.0164,2.33319,0.00218403,0.00032731,-0.000118457,0.00219155,0.000319783,-0.0634565,0.00136697,0.0188958,1910,771,17.0164,-2.33318
693,253,16.9691,2.62091,0.00372143,0.000785391,0.000223431,0.00373833,0.000768485,0.07552,0.00227965,0.0182978,1917,771,16.9691,-2.62094
700,253,16.9591,2.8725,0.0055181,0.0015179,0.000569386,0.00559757,0.00143844,0.138671,0.0033566,0.0157708,1924,771,16.9591,-2.87251
707,253,16.9697,3.14392,0.00784596,0.00236061,0.00106737,0.00804634,0.00216023,0.185569,0.0048087,0.014779,1931,771,16.9698,-3.14393
714,253,16.97,3.39679,0.0109739,0.00309159,0.00170831,0.0113282,0.00273728,0.204505,0.00682521,0.0191412,1938,771,16.9699,-3.39679
721,253,16.9448,3.6767,0.0149615,0.00396636,0.0026539,0.0155686,0.0033593,0.224872,0.00946023,0.0327979,1945,771,16.9448,-3.67667
728,253,16.911,3.92212,0.0203378,0.0050956,0.00393935,0.0212958,0.00413768,0.238537,0.0130387,0.0453064,1952,771,16.911,-3.92212
735,253,24.325,4.84717,0,0,0,0,0,0,0,-1,1959,771,24.325,-4.84719
742,253,23.7283,6.07153,0,0,0,0,0,0,0,-1,1966,771,23.7282,-6.07153
749,253,22.672,7.68958,0,0,0,0,0,0,0,-1,1973,771,22.6719,-7.68956
756,253,0,0,0,0,0,0,0,0,0,-1,1980,771,0,0
763,253,0,0,0,0,0,0,0,0,0,-1,1987,771,0,0
770,253,0,0,0,0,0,0,0,0,0,-1,1994,771,0,0
777,253,0,0,0,0,0,0,0,0,0,-1,2001,771,0,0
784,253,0,0,0,0,0,0,0,0,0,-1,2008,771,0,0
791,253,0,0,0,0,0,0,0,0,0,-1,2015,771,0,0
798,253,0,0,0,0,0,0,0,0,0,-1,2022,771,0,0
805,253,0,0,0,0,0,0,0,0,0,-1,2029,771,0,0
812,253,0,0,0,0,0,0,0,0,0,-1,2036,771,0,0
-700,246,0,0,0,0,0,0,0,0,0,-1,524,778,0,0
-693,246,0,0,0,0,0,0,0,0,0,-1,531,778,0,0
-686,246,0,0,0,0,0,0,0,0,0,-1,538,778,0,0
-679,246,0,0,0,0,0,0,0,0,0,-1,545,778,0,0
-672,246,0,0,0,0,0,0,0,0,0,-1,552,778,0,0
-665,246,0,0,0,0,0,0,0,0,0,-1,559,778,0,0
-658,246,0,0,0,0,0,0,0,0,0,-1,566,778,0,0
-651,246,0,0,0,0,0,0,0,0,0,-1,573,778,0,0
-644,246,0,0,0,0,0,0,0,0,0,-1,580,778,0,0
-637,246,-15.1788,5.08453,0,0,0,0,0,0,0,-1,587,778,-15.1788,-5.08456
-630,246,-14.6348,4.74072,0,0,0,0,0,0,0,-1,594,778,-14.6348,-4.74073
-623,246,-12.846,4.93445,0,0,0,0,0,0,0,-1,601,778,-12.846,-4.93446
-616,246,-12.3965,4.25623,0.0795919,-0.00267099,0.0191412,0.0838276,-0.00690674,0.21778,0.0583238,0.0467298,608,778,-12.3965,-4.2562
-609,246,-11.908,3.40588,0.0642465,-0.00107029,0.0128651,0.0666891,-0.00351292,0.187631,0.0456754,0.0477323,615,778,-11.908,-3.40587
-602,246,-11.691,2.73877,0.050233,0.000267179,0.00819888,0.051544,-0.00104378,0.158552,0.0347158,0.0463989,622,778,-11.691,-2.73877
-595,246,-10.9293,1.94598,0.0376999,0.00113769,0.00490307,0.038346,0.000491599,0.131018,0.0254017,0.0416024,629,778,-10.9293,-1.94599
-588,246,-10.7318,1.37982,0.0270655,0.00167111,0.00269213,0.0273478,0.00138885,0.104466,0.017787,0.0287083,636,778,-10.7318,-1.37981
-581,246,-10.8829,1.02759,0.0185289,0.0018124,0.00131798,0.0186322,0.00170912,0.078199,0.0118928,0.01591,643,778,-10.8829,-1.02756
-574,246,-10.8979,0.73053,0.0115453,0.00158444,8.13504e-05,0.011546,0.00158378,0.00816627,0.00722748,0.0172593,650,778,-10.898,-0.730503
-567,246,-10.9006,0.512939,0.00650099,0.00103266,-8.72872e-05,0.00650238,0.00103127,-0.0159569,0.00403533,0.0167561,657,778,-10.9006,-0.512937
-560,246,-10.9006,0.288635,0.00243485,0.000398586,0.000186737,0.00245183,0.000381603,0.0906975,0.00152337,0.0133271,664,778,-10.9006,-0.288657
-553,246,-10.8818,0.0514526,-0.000153916,-0.000536621,0.000443056,0.000137343,-0.00082788,0.581551,0.000602938,0.0119268,671,778,-10.8818,-0.051446
-546,246,-10.8934,-0.197021,-0.00156481,-0.00187042,0.000888566,-0.000816003,-0.00261922,0.700247,0.0015476,0.0102315,678,778,-10.8934,0.197031
-539,246,-10.8912,-0.484131,-0.00223246,-0.00325217,0.00142142,-0.00123222,-0.00425241,0.613198,0.00252643,0.0102213,685,778,-10.8912,0.484111
-532,246,-10.8903,-0.767151,-0.00254348,-0.00301309,0.00206485,-0.000700122,-0.00485644,0.728784,0.00303132,0.0117602,692,778,-10.8903,0.767143
-525,246,-10.8901,-1.01917,-0.00256537,-0.00178696,0.00207765,-6.23704e-05,-0.00428995,0.87799,0.00283941,0.0128297,699,778,-10.8901,1.01915
-518,246,-10.9335,-1.24091,-0.00276036,-0.000148027,0.00149949,0.000534407,-0.00344279,1.1437,0.0024925,0.0195258,706,778,-10.9334,1.24094
-511,246,-11.0556,-1.3432,-0.00314894,0.00152572,0.000850447,0.00167563,-0.00329886,1.39631,0.00292254,0.0411539,713,778,-11.0556,1.34319
-504,246,-10.8849,-1.68573,0,0,0,0,0,0,0,-1,720,778,-10.8849,1.6857
-497,246,-10.6107,-2.01135,0,0,0,0,0,0,0,-1,727,778,-10.6107,2.01133
-490,246,-11.2137,-1.85522,0,0,0,0,0,0,0,-1,734,778,-11.2137,1.85523
-483,246,-17.288,0.932068,0,0,0,0,0,0,0,-1,741,778,-17.288,-0.932067
-476,246,-17.1774,1.22223,-0.00171347,0.0133692,-0.00166412,0.0135506,-0.00189489,-1.4622,0.00972711,0.0463406,748,778,-17.1773,-1.2222
-469,246,-16.9787,1.13916,-0.000200138,0.0143487,-0.00210348,0.0146467,-0.000498157,-1.43005,0.0099347,0.0417462,755,778,-16.9787,-1.13918
-462,246,-17.0347,1.0293,0.00296798,0.0120765,-0.00225045,0.0126022,0.0024423,-1.34132,0.00771727,0.0448143,762,778,-17.0347,-1.02928
-455,246,0,0,0,0,0,0,0,0,0,-1,769,778,0,0
-448,246,0,0,0,0,0,0,0,0,0,-1,776,778,0,0
-441,246,0,0,0,0,0,0,0,0,0,-1,783,778,0,0
-434,246,0,0,0,0,0,0,0,0,0,-1,790,778,0,0
-427,246,0,0,0,0,0,0,0,0,0,-1,797,778,0,0
-420,246,0,0,0,0,0,0,0,0,0,-1,804,778,0,0
-413,246,0,0,0,0,0,0,0,0,0,-1,811,778,0,0
-406,246,0,0,0,0,0,0,0,0,0,-1,818,778,0,0
-399,246,0,0,0,0,0,0,0,0,0,-1,825,778,0,0
-392,246,0,0,0,0,0,0,0,0,0,-1,832,778,0,0
-385,246,0,0,0,0,0,0,0,0,0,-1,839,778,0,0
-378,246,0,0,0,0,0,0,0,0,0,-1,846,778,0,0
-371,246,0,0,0,0,0,0,0,0,0,-1,853,778,0,0
-364,246,0,0,0,0,0,0,0,0,0,-1,860,778,0,0
-357,246,0,0,0,0,0,0,0,0,0,-1,867,778,0,0
-350,246,0,0,0,0,0,0,0,0,0,-1,874,778,0,0
-343,246,0,0,0,0,0,0,0,0,0,-1,881,778,0,0
-336,246,0,0,0,0,0,0,0,0,0,-1,888,778,0,0
-329,246,0,0,0,0,0,0,0,0,0,-1,895,778,0,0
-322,246,0,0,0,0,0,0,0,0,0,-1,902,778,0,0
-315,246,0,0,0,0,0,0,0,0,0,-1,909,778,0,0
-308,246,0,0,0,0,0,0,0,0,0,-1,916,778,0,0
-301,246,0,0,0,0,0,0,0,0,0,-1,923,778,0,0
-294,246,0,0,0,0,0,0,0,0,0,-1,930,778,0,0
-287,246,0,0,0,0,0,0,0,0,0,-1,937,778,0,0
-280,246,0,0,0,0,0,0,0,0,0,-1,944,778,0,0
-273,246,0,0,0,0,0,0,0,0,0,-1,951,778,0,0
-266,246,0,0,0,0,0,0,0,0,0,-1,958,778,0,0
-259,246,0,0,0,0,0,0,0,0,0,-1,965,778,0,0
-252,246,0,0,0,0,0,0,0,0,0,-1,972,778,0,0
-245,246,0,0,0,0,0,0,0,0,0,-1,979,778,0,0
-238,246,0,0,0,0,0,0,0,0,0,-1,986,778,0,0
-231,246,0,0,0,0,0,0,0,0,0,-1,993,778,0,0
-224,246,0,0,0,0,0,0,0,0,0,-1,1000,778,0,0
-217,246,0,0,0,0,0,0,0,0,0,-1,1007,778,0,0
-210,246,0,0,0,0,0,0,0,0,0,-1,1014,778,0,0
-203,246,0,0,0,0,0,0,0,0,0,-1,1021,778,0,0
-196,246,0,0,0,0,0,0,0,0,0,-1,1028,778,0,0
-189,246,0,0,0,0,0,0,0,0,0,-1,1035,778,0,0
-182,246,0,0,0,0,0,0,0,0,0,-1,1042,778,0,0
-175,246,0,0,0,0,0,0,0,0,0,-1,1049,778,0,0
-168,246,0,0,0,0,0,0,0,0,0,-1,1056,778,0,0
-161,246,0,0,0,0,0,0,0,0,0,-1,1063,778,0,0
-154,246,0,0,0,0,0,0,0,0,0,-1,1070,778,0,0
-147,246,0,0,0,0,0,0,0,0,0,-1,1077,778,0,0
-140,246,0,0,0,0,0,0,0,0,0,-1,1084,778,0,0
-133,246,0,0,0,0,0,0,0,0,0,-1,1091,778,0,0
-126,246,0,0,0,0,0,0,0,0,0,-1,1098,778,0,0
-119,246,0,0,0,0,0,0,0,0,0,-1,1105,778,0,0
-112,246,0,0,0,0,0,0,0,0,0,-1,1112,778,0,0
-105,246,0,0,0,0,0,0,0,0,0,-1,1119,778,0,0
-98,246,0,0,0,0,0,0,0,0,0,-1,1126,778,0,0
-91,246,0,0,0,0,0,0,0,0,0,-1,1133,778,0,0
-84,246,0,0,0,0,0,0,0,0,0,-1,1140,778,0,0
-77,246,0,0,0,0,0,0,0,0,0,-1,1147,778,0,0
-70,246,0,0,0,0,0,0,0,0,0,-1,1154,778,0,0
-63,246,0,0,0,0,0,0,0,0,0,-1,1161,778,0,0
-56,246,0,0,0,0,0,0,0,0,0,-1,1168,778,0,0
-49,246,0,0,0,0,0,0,0,0,0,-1,1175,778,0,0
-42,246,0,0,0,0,0,0,0,0,0,-1,1182,778,0,0
-35,246,0,0,0,0,0,0,0,0,0,-1,1189,778,0,0
-28,246,0,0,0,0,0,0,0,0,0,-1,1196,778,0,0
-21,246,0,0,0,0,0,0,0,0,0,-1,1203,778,0,0
-14,246,0,0,0,0,0,0,0,0,0,-1,1210,778,0,0
-7,246,0,0,0,0,0,0,0,0,0,-1,1217,778,0,0
0,246,0,0,0,0,0,0,0,0,0,-1,1224,778,0,0
7,246,0,0,0,0,0,0,0,0,0,-1,1231,778,0,0
14,246,0,0,0,0,0,0,0,0,0,-1,1238,778,0,0
21,246,0,0,0,0,0,0,0,0,0,-1,1245,778,0,0
28,246,0,0,0,0,0,0,0,0,0,-1,1252,778,0,0
35,246,0,0,0,0,0,0,0,0,0,-1,1259,778,0,0
42,246,0,0,0,0,0,0,0,0,0,-1,1266,778,0,0
49,246,0,0,0,0,0,0,0,0,0,-1,1273,778,0,0
56,246,0,0,0,0,0,0,0,0,0,-1,1280,778,0,0
63,246,0,0,0,0,0,0,0,0,0,-1,1287,778,0,0
70,246,0,0,0,0,0,0,0,0,0,-1,1294,778,0,0
77,246,0,0,0,0,0,0,0,0,0,-1,1301,778,0,0
84,246,0,0,0,0,0,0,0,0,0,-1,1308,778,0,0
91,246,0,0,0,0,0,0,0,0,0,-1,1315,778,0,0
98,246,0,0,0,0,0,0,0,0,0,-1,1322,778,0,0
105,246,0,0,0,0,0,0,0,0,0,-1,1329,778,0,0
112,246,0,0,0,0,0,0,0,0,0,-1,1336,778,0,0
119,246,0,0,0,0,0,0,0,0,0,-1,1343,778,0,0
126,246,0,0,0,0,0,0,0,0,0,-1,1350,778,0,0
133,246,0,0,0,0,0,0,0,0,0,-1,1357,778,0,0
140,246,0,0,0,0,0,0,0,0,0,-1,1364,778,0,0
147,246,0,0,0,0,0,0,0,0,0,-1,1371,778,0,0
154,246,0,0,0,0,0,0,0,0,0,-1,1378,778,0,0
161,246,0,0,0,0,0,0,0,0,0,-1,1385,778,0,0
168,246,0,0,0,0,0,0,0,0,0,-1,1392,778,0,0
175,246,0,0,0,0,0,0,0,0,0,-1,1399,778,0,0
182,246,0,0,0,0,0,0,0,0,0,-1,1406,778,0,0
189,246,0,0,0,0,0,0,0,0,0,-1,1413,778,0,0
196,246,0,0,0,0,0,0,0,0,0,-1,1420,778,0,0
203,246,0,0,0,0,0,0,0,0,0,-1,1427,778,0,0
210,246,0,0,0,0,0,0,0,0,0,-1,1434,778,0,0
217,246,0,0,0,0,0,0,0,0,0,-1,1441,778,0,0
224,246,0,0,0,0,0,0,0,0,0,-1,1448,778,0,0
231,246,0,0,0,0,0,0,0,0,0,-1,1455,778,0,0
238,246,0,0,0,0,0,0,0,0,0,-1,1462,778,0,0
245,246,0,0,0,0,0,0,0,0,0,-1,1469,778,0,0
252,246,0,0,0,0,0,0,0,0,0,-1,1476,778,0,0
259,246,0,0,0,0,0,0,0,0,0,-1,1483,778,0,0
266,246,0,0,0,0,0,0,0,0,0,-1,1490,778,0,0
273,246,0,0,0,0,0,0,0,0,0,-1,1497,778,0,0
280,246,0,0,0,0,0,0,0,0,0,-1,1504,778,0,0
287,246,0,0,0,0,0,0,0,0,0,-1,1511,778,0,0
294,246,0,0,0,0,0,0,0,0,0,-1,1518,778,0,0
301,246,0,0,0,0,0,0,0,0,0,-1,1525,778,0,0
308,246,0,0,0,0,0,0,0,0,0,-1,1532,778,0,0
315,246,0,0,0,0,0,0,0,0,0,-1,1539,778,0,0
322,246,0,0,0,0,0,0,0,0,0,-1,1546,778,0,0
329,246,0,0,0,0,0,0,0,0,0,-1,1553,778,0,0
336,246,0,0,0,0,0,0,0,0,0,-1,1560,778,0,0
343,246,0,0,0,0,0,0,0,0,0,-1,1567,778,0,0
350,246,0,0,0,0,0,0,0,0,0,-1,1574,778,0,0
357,246,0,0,0,0,0,0,0,0,0,-1,1581,778,0,0
364,246,0,0,0,0,0,0,0,0,0,-1,1588,778,0,0
371,246,0,0,0,0,0,0,0,0,0,-1,1595,778,0,0
378,246,0,0,0,0,0,0,0,0,0,-1,1602,778,0,0
385,246,0,0,0,0,0,0,0,0,0,-1,1609,778,0,0
392,246,0,0,0,0,0,0,0,0,0,-1,1616,778,0,0
399,246,0,0,0,0,0,0,0,0,0,-1,1623,778,0,0
406,246,0,0,0,0,0,0,0,0,0,-1,1630,778,0,0
413,246,0,0,0,0,0,0,0,0,0,-1,1637,778,0,0
420,246,0,0,0,0,0,0,0,0,0,-1,1644,778,0,0
427,246,0,0,0,0,0,0,0,0,0,-1,1651,778,0,0
434,246,0,0,0,0,0,0,0,0,0,-1,1658,778,0,0
441,246,0,0,0,0,0,0,0,0,0,-1,1665,778,0,0
448,246,0,0,0,0,0,0,0,0,0,-1,1672,778,0,0
455,246,0,0,0,0,0,0,0,0,0,-1,1679,778,0,0
462,246,0,0,0,0,0,0,0,0,0,-1,1686,778,0,0
469,246,0,0,0,0,0,0,0,0,0,-1,1693,778,0,0
476,246,0,0,0,0,0,0,0,0,0,-1,1700,778,0,0
483,246,0,0,0,0,0,0,0,0,0,-1,1707,778,0,0
490,246,0,0,0,0,0,0,0,0,0,-1,1714,778,0,0
497,246,0,0,0,0,0,0,0,0,0,-1,1721,778,0,0
504,246,0,0,0,0,0,0,0,0,0,-1,1728,778,0,0
511,246,0,0,0,0,0,0,0,0,0,-1,1735,778,0,0
518,246,0,0,0,0,0,0,0,0,0,-1,1742,778,0,0
525,246,0,0,0,0,0,0,0,0,0,-1,1749,778,0,0
532,246,0,0,0,0,0,0,0,0,0,-1,1756,778,0,0
539,246,0,0,0,0,0,0,0,0,0,-1,1763,778,0,0
546,246,0,0,0,0,0,0,0,0,0,-1,1770,778,0,0
553,246,0,0,0,0,0,0,0,0,0,-1,1777,778,0,0
560,246,0,0,0,0,0,0,0,0,0,-1,1784,778,0,0
567,246,0,0,0,0,0,0,0,0,0,-1,1791,778,0,0
574,246,0,0,0,0,0,0,0,0,0,-1,1798,778,0,0
581,246,24.1901,3.02979,0.0203248,-0.00120969,-0.0120001,0.0256801,-0.00656496,-0.419747,0.0196769,0.0411507,1805,778,24.1901,-3.02981
588,246,24.3306,2.82001,0.0197539,-0.000494526,-0.0093664,0.0234221,-0.00416267,-0.373268,0.0171713,0.0445451,1812,778,24.3305,-2.82
595,246,24.6809,2.69739,0.017397,0.00161968,-0.00688188,0.0199769,-0.00096024,-0.35867,0.0136493,0.0417274,1819,778,24.6809,-2.6974
602,246,24.6499,2.85803,0.0139927,0.00347916,-0.00455566,0.0156921,0.00177981,-0.357033,0.00992148,0.0431188,1826,778,24.6498,-2.85804
609,246,24.827,2.85864,0.0104302,0.00415095,-0.00305532,0.0116714,0.00290968,-0.385896,0.00701517,0.0470434,1833,778,24.8271,-2.85866
616,246,25.4229,2.80658,0.00702171,0.004226,-0.00209605,0.00814326,0.00310445,-0.491316,0.00474552,0.044671,1840,778,25.4228,-2.8066
623,246,26.0076,2.63312,0.00405639,0.00392574,-0.00151233,0.00550481,0.00247733,-0.763814,0.00318349,0.0400796,1847,778,26.0075,-2.63312
630,246,23.7687,2.71307,0.00172777,0.00336681,-0.0011937,0.00399523,0.00109934,-1.08621,0.00238312,0.0455848,1854,778,23.7687,-2.71305
637,246,24.3171,2.27643,0,0,0,0,0,0,0,-1,1861,778,24.3171,-2.2764
644,246,17.1958,0.650085,0,0,0,0,0,0,0,-1,1868,778,17.1958,-0.650089
651,246,17.2715,0.945068,-0.00198206,0.00142237,-0.000648023,0.00154154,-0.00210124,-1.38892,0.00211142,0.0342901,1875,778,17.2715,-0.945064
658,246,17.2839,1.20789,-0.00219583,0.000985352,-0.000916555,0.00123053,-0.00244101,-1.30942,0.00215782,0.0219074,1882,778,17.2839,-1.20787
665,246,17.2462,1.47729,-0.00237831,0.000259596,-0.00114078,0.000684492,-0.00280321,-1.21425,0.00213388,0.022142,1889,778,17.2462,-1.47727
672,246,17.2878,1.78741,-0.00203864,-0.000543049,-0.00101944,-2.6544e-05,-0.00255514,-1.10184,0.00169465,0.0211652,1896,778,17.2879,-1.78743
679,246,17.3147,2.04303,-0.000708921,-0.000585103,-0.000908727,0.000263821,-0.00155785,-0.819409,0.00113675,0.0207807,1903,778,17.3146,-2.04302
686,246,17.3159,2.34637,0.00168815,9.72806e-06,-0.000188187,0.00170899,-1.11129e-05,-0.110297,0.00114305,0.0216868,1910,778,17.3159,-2.3464
693,246,17.2836,2.62054,0.00324015,0.000381109,6.97084e-05,0.00324185,0.000379411,0.0243624,0.00204652,0.017088,1917,778,17.2836,-2.62054
700,246,17.2756,2.85693,0.00500098,0.00105617,0.000310537,0.00502528,0.00103187,0.0780794,0.00306469,0.0142195,1924,778,17.2756,-2.85691
707,246,17.2855,3.12714,0.00720349,0.00191418,0.000733467,0.00730331,0.00181436,0.13527,0.00439087,0.013074,1931,778,17.2855,-3.12714
714,246,17.2594,3.40662,0.0101589,0.0024862,0.001371,0.0103965,0.00224858,0.171613,0.00631634,0.0122395,1938,778,17.2594,-3.4066
721,246,17.2485,3.65497,0.0138944,0.00308309,0.00240353,0.0144047,0.00257283,0.209191,0.00887075,0.0178323,1945,778,17.2486,-3.65495
728,246,17.3076,4.06049,0.0187552,0.00376181,0.00371821,0.0196267,0.00289038,0.230213,0.0122353,0.0357046,1952,778,17.3076,-4.0605
735,246,18.0398,5.14069,0,0,0,0,0,0,0,-1,1959,778,18.0398,-5.14066
742,246,22.8348,5.42432,0,0,0,0,0,0,0,-1,1966,778,22.8348,-5.4243
749,246,22.201,6.83105,0,0,0,0,0,0,0,-1,1973,778,22.201,-6.83105
756,246,21.5142,8.21149,0,0,0,0,0,0,0,-1,1980,778,21.5141,-8.21148
763,246,0,0,0,0,0,0,0,0,0,-1,1987,778,0,0
770,246,0,0,0,0,0,0,0,0,0,-1,1994,778,0,0
777,246,0,0,0,0,0,0,0,0,0,-1,2001,778,0,0
784,246,0,0,0,0,0,0,0,0,0,-1,2008,778,0,0
791,246,0,0,0,0,0,0,0,0,0,-1,2015,778,0,0
798,246,0,0,0,0,0,0,0,0,0,-1,2022,778,0,0
805,246,0,0,0,0,0,0,0,0,0,-1,2029,778,0,0
812,246,0,0,0,0,0,0,0,0,0,-1,2036,778,0,0
-700,239,0,0,0,0,0,0,0,0,0,-1,524,785,0,0
-693,239,0,0,0,0,0,0,0,0,0,-1,531,785,0,0
-686,239,0,0,0,0,0,0,0,0,0,-1,538,785,0,0
-679,239,0,0,0,0,0,0,0,0,0,-1,545,785,0,0
-672,239,0,0,0,0,0,0,0,0,0,-1,552,785,0,0
-665,239,0,0,0,0,0,0,0,0,0,-1,559,785,0,0
-658,239,0,0,0,0,0,0,0,0,0,-1,566,785,0,0
-651,239,0,0,0,0,0,0,0,0,0,-1,573,785,0,0
-644,239,0,0,0,0,0,0,0,0,0,-1,580,785,0,0
-637,239,-15.8229,5.44464,0,0,0,0,0,0,0,-1,587,785,-15.8229,-5.44466
-630,239,-14.8631,5.19977,0.0920188,0.00131005,0.0287757,0.100377,-0.00704835,0.282688,0.069387,0.0468653,594,785,-14.8631,-5.19979
-623,239,-13.8521,4.93805,0.0797177,0.00185813,0.0206699,0.0848648,-0.003289,0.244052,0.0577041,0.0441294,601,785,-13.8521,-4.93807
-616,239,-13.2913,4.24951,0.0666653,0.00244215,0.0142405,0.0696812,-0.000573829,0.208705,0.0466466,0.047379,608,785,-13.2913,-4.24953
-609,239,-12.7232,3.2514,0,0,0,0,0,0,0,-1,615,785,-12.7232,-3.25138
-602,239,-11.0801,1.91986,0,0,0,0,0,0,0,-1,622,785,-11.0801,-1.91989
-595,239,-11.0613,1.61548,0.0318985,0.00334688,0.00299516,0.0322093,0.00303606,0.103404,0.0205358,0.0384356,629,785,-11.0613,-1.61549
-588,239,-11.051,1.30646,0.0229904,0.00324903,0.00132224,0.0230785,0.00316086,0.066582,0.0144478,0.0178138,636,785,-11.051,-1.30646
-581,239,-11.1138,1.03088,0.0157753,0.00288321,0.000346646,0.0157846,0.00287389,0.0268624,0.00970794,0.0110573,643,785,-11.1137,-1.0309
-574,239,-11.15,0.756836,0.00978312,0.00221987,-0.000463653,0.00981143,0.00219155,-0.0609989,0.00594661,0.0123948,650,785,-11.15,-0.756851
-567,239,-11.1763,0.521851,0.00542505,0.00134833,-0.000409345,0.00546575,0.00130763,-0.0990923,0.00329559,0.0138462,657,785,-11.1763,-0.521879
-560,239,-11.15,0.289917,0.00183469,0.000392153,3.45489e-05,0.00183552,0.000391326,0.0239317,0.00111634,0.0133753,664,785,-11.15,-0.28989
-553,239,-11.1356,0.0403442,-0.000433233,-0.000828353,0.000493288,-9.94142e-05,-0.00116217,0.594931,0.000743861,0.0136077,671,785,-11.1356,-0.0403209
-546,239,-11.1781,-0.217224,-0.00173413,-0.00245093,0.00105119,-0.000981922,-0.00320314,0.621105,0.00189491,0.0145897,678,785,-11.1781,0.217196
-539,239,-11.1886,-0.484558,-0.00249492,-0.00388991,0.00153519,-0.00150621,-0.00487863,0.572171,0.00288455,0.0149126,685,785,-11.1886,0.484578
-532,239,-11.1398,-0.742065,-0.00271629,-0.00374338,0.00198994,-0.0011747,-0.00528498,0.659119,0.00320435,0.0119942,692,785,-11.1398,0.74205
-525,239,-11.1194,-0.968079,-0.00259511,-0.00264487,0.00181721,-0.000802614,-0.00443737,0.778553,0.00273032,0.0150312,699,785,-11.1194,0.968097
-518,239,-11.1752,-1.06647,-0.00263758,-0.00124719,0.00113894,-0.000608039,-0.00327673,1.05941,0.00201266,0.0376927,706,785,-11.1753,1.06649
-511,239,-11.306,-1.18866,-0.00273387,0.000116425,0.000425078,0.000178468,-0.00279591,1.42586,0.00192619,0.0411457,713,785,-11.306,1.18867
-504,239,-11.349,-1.3559,0,0,0,0,0,0,0,-1,720,785,-11.349,1.35592
-497,239,-11.3625,-1.53638,0,0,0,0,0,0,0,-1,727,785,-11.3625,1.53635
-490,239,-17.4109,0.859985,0,0,0,0,0,0,0,-1,734,785,-17.411,-0.86
-483,239,-17.2174,0.932861,-0.001432,0.00970024,-0.00266302,0.0103045,-0.00203624,-1.34767,0.0076394,0.0484405,741,785,-17.2174,-0.932838
-476,239,-17.0517,1.03882,-0.000850254,0.0130913,-0.00396189,0.0141385,-0.00189747,-1.31238,0.0101177,0.0427443,748,785,-17.0517,-1.03882
-469,239,-17.0381,0.99707,7.77092e-05,0.015753,-0.00543092,0.0174508,-0.00162003,-1.26781,0.0122097,0.0442987,755,785,-17.0382,-0.997085
-462,239,-16.9799,1.01044,0.00186227,0.015706,-0.00722293,0.0187883,-0.00122001,-1.16746,0.0129514,0.0497475,762,785,-16.9798,-1.01044
-455,239,0,0,0,0,0,0,0,0,0,-1,769,785,0,0
-448,239,0,0,0,0,0,0,0,0,0,-1,776,785,0,0
-441,239,0,0,0,0,0,0,0,0,0,-1,783,785,0,0
-434,239,0,0,0,0,0,0,0,0,0,-1,790,785,0,0
-427,239,0,0,0,0,0,0,0,0,0,-1,797,785,0,0
-420,239,0,0,0,0,0,0,0,0,0,-1,804,785,0,0
-413,239,0,0,0,0,0,0,0,0,0,-1,811,785,0,0
-406,239,0,0,0,0,0,0,0,0,0,-1,818,785,0,0
-399,239,0,0,0,0,0,0,0,0,0,-1,825,785,0,0
-392,239,0,0,0,0,0,0,0,0,0,-1,832,785,0,0
-385,239,0,0,0,0,0,0,0,0,0,-1,839,785,0,0
-378,239,0,0,0,0,0,0,0,0,0,-1,846,785,0,0
-371,239,0,0,0,0,0,0,0,0,0,-1,853,785,0,0
-364,239,0,0,0,0,0,0,0,0,0,-1,860,785,0,0
-357,239,0,0,0,0,0,0,0,0,0,-1,867,785,0,0
-350,239,0,0,0,0,0,0,0,0,0,-1,874,785,0,0
-343,239,0,0,0,0,0,0,0,0,0,-1,881,785,0,0
-336,239,0,0,0,0,0,0,0,0,0,-1,888,785,0,0
-329,239,0,0,0,0,0,0,0,0,0,-1,895,785,0,0
-322,239,0,0,0,0,0,0,0,0,0,-1,902,785,0,0
-315,239,0,0,0,0,0,0,0,0,0,-1,909,785,0,0
-308,239,0,0,0,0,0,0,0,0,0,-1,916,785,0,0
-301,239,0,0,0,0,0,0,0,0,0,-1,923,785,0,0
-294,239,0,0,0,0,0,0,0,0,0,-1,930,785,0,0
-287,239,0,0,0,0,0,0,0,0,0,-1,937,785,0,0
-280,239,0,0,0,0,0,0,0,0,0,-1,944,785,0,0
-273,239,0,0,0,0,0,0,0,0,0,-1,951,785,0,0
-266,239,0,0,0,0,0,0,0,0,0,-1,958,785,0,0
-259,239,0,0,0,0,0,0,0,0,0,-1,965,785,0,0
-252,239,0,0,0,0,0,0,0,0,0,-1,972,785,0,0
-245,239,0,0,0,0,0,0,0,0,0,-1,979,785,0,0
-238,239,0,0,0,0,0,0,0,0,0,-1,986,785,0,0
-231,239,0,0,0,0,0,0,0,0,0,-1,993,785,0,0
-224,239,0,0,0,0,0,0,0,0,0,-1,1000,785,0,0
-217,239,0,0,0,0,0,0,0,0,0,-1,1007,785,0,0
-210,239,0,0,0,0,0,0,0,0,0,-1,1014,785,0,0
-203,239,0,0,0,0,0,0,0,0,0,-1,1021,785,0,0
-196,239,0,0,0,0,0,0,0,0,0,-1,1028,785,0,0
-189,239,0,0,0,0,0,0,0,0,0,-1,1035,785,0,0
-182,239,0,0,0,0,0,0,0,0,0,-1,1042,785,0,0
-175,239,0,0,0,0,0,0,0,0,0,-1,1049,785,0,0
-168,239,0,0,0,0,0,0,0,0,0,-1,1056,785,0,0
-161,239,0,0,0,0,0,0,0,0,0,-1,1063,785,0,0
-154,239,0,0,0,0,0,0,0,0,0,-1,1070,785,0,0
-147,239,0,0,0,0,0,0,0,0,0,-1,1077,785,0,0
-140,239,0,0,0,0,0,0,0,0,0,-1,1084,785,0,0
-133,239,0,0,0,0,0,0,0,0,0,-1,1091,785,0,0
-126,239,0,0,0,0,0,0,0,0,0,-1,1098,785,0,0
-119,239,0,0,0,0,0,0,0,0,0,-1,1105,785,0,0
-112,239,0,0,0,0,0,0,0,0,0,-1,1112,785,0,0
-105,239,0,0,0,0,0,0,0,0,0,-1,1119,785,0,0
-98,239,0,0,0,0,0,0,0,0,0,-1,1126,785,0,0
-91,239,0,0,0,0,0,0,0,0,0,-1,1133,785,0,0
-84,239,0,0,0,0,0,0,0,0,0,-1,1140,785,0,0
-77,239,0,0,0,0,0,0,0,0,0,-1,1147,785,0,0
-70,239,0,0,0,0,0,0,0,0,0,-1,1154,785,0,0
-63,239,0,0,0,0,0,0,0,0,0,-1,1161,785,0,0
-56,239,0,0,0,0,0,0,0,0,0,-1,1168,785,0,0
-49,239,0,0,0,0,0,0,0,0,0,-1,1175,785,0,0
-42,239,0,0,0,0,0,0,0,0,0,-1,1182,785,0,0
-35,239,0,0,0,0,0,0,0,0,0,-1,1189,785,0,0
-28,239,0,0,0,0,0,0,0,0,0,-1,1196,785,0,0
-21,239,0,0,0,0,0,0,0,0,0,-1,1203,785,0,0
-14,239,0,0,0,0,0,0,0,0,0,-1,1210,785,0,0
-7,239,0,0,0,0,0,0,0,0,0,-1,1217,785,0,0
0,239,0,0,0,0,0,0,0,0,0,-1,1224,785,0,0
7,239,0,0,0,0,0,0,0,0,0,-1,1231,785,0,0
14,239,0,0,0,0,0,0,0,0,0,-1,1238,785,0,0
21,239,0,0,0,0,0,0,0,0,0,-1,1245,785,0,0
28,239,0,0,0,0,0,0,0,0,0,-1,1252,785,0,0
35,239,0,0,0,0,0,0,0,0,0,-1,1259,785,0,0
42,239,0,0,0,0,0,0,0,0,0,-1,1266,785,0,0
49,239,0,0,0,0,0,0,0,0,0,-1,1273,785,0,0
56,239,0,0,0,0,0,0,0,0,0,-1,1280,785,0,0
63,239,0,0,0,0,0,0,0,0,0,-1,1287,785,0,0
70,239,0,0,0,0,0,0,0,0,0,-1,1294,785,0,0
77,239,0,0,0,0,0,0,0,0,0,-1,1301,785,0,0
84,239,0,0,0,0,0,0,0,0,0,-1,1308,785,0,0
91,239,0,0,0,0,0,0,0,0,0,-1,1315,785,0,0
98,239,0,0,0,0,0,0,0,0,0,-1,1322,785,0,0
105,239,0,0,0,0,0,0,0,0,0,-1,1329,785,0,0
112,239,0,0,0,0,0,0,0,0,0,-1,1336,785,0,0
119,239,0,0,0,0,0,0,0,0,0,-1,1343,785,0,0
126,239,0,0,0,0,0,0,0,0,0,-1,1350,785,0,0
133,239,0,0,0,0,0,0,0,0,0,-1,1357,785,0,0
140,239,0,0,0,0,0,0,0,0,0,-1,1364,785,0,0
147,239,0,0,0,0,0,0,0,0,0,-1,1371,785,0,0
154,239,0,0,0,0,0,0,0,0,0,-1,1378,785,0,0
161,239,0,0,0,0,0,0,0,0,0,-1,1385,785,0,0
168,239,0,0,0,0,0,0,0,0,0,-1,1392,785,0,0
175,239,0,0,0,0,0,0,0,0,0,-1,1399,785,0,0
182,239,0,0,0,0,0,0,0,0,0,-1,1406,785,0,0
189,239,0,0,0,0,0,0,0,0,0,-1,1413,785,0,0
196,239,0,0,0,0,0,0,0,0,0,-1,1420,785,0,0
203,239,0,0,0,0,0,0,0,0,0,-1,1427,785,0,0
210,239,0,0,0,0,0,0,0,0,0,-1,1434,785,0,0
217,239,0,0,0,0,0,0,0,0,0,-1,1441,785,0,0
224,239,0,0,0,0,0,0,0,0,0,-1,1448,785,0,0
231,239,0,0,0,0,0,0,0,0,0,-1,1455,785,0,0
238,239,0,0,0,0,0,0,0,0,0,-1,1462,785,0,0
245,239,0,0,0,0,0,0,0,0,0,-1,1469,785,0,0
252,239,0,0,0,0,0,0,0,0,0,-1,1476,785,0,0
259,239,0,0,0,0,0,0,0,0,0,-1,1483,785,0,0
266,239,0,0,0,0,0,0,0,0,0,-1,1490,785,0,0
273,239,0,0,0,0,0,0,0,0,0,-1,1497,785,0,0
280,239,0,0,0,0,0,0,0,0,0,-1,1504,785,0,0
287,239,0,0,0,0,0,0,0,0,0,-1,1511,785,0,0
294,239,0,0,0,0,0,0,0,0,0,-1,1518,785,0,0
301,239,0,0,0,0,0,0,0,0,0,-1,1525,785,0,0
308,239,0,0,0,0,0,0,0,0,0,-1,1532,785,0,0
315,239,0,0,0,0,0,0,0,0,0,-1,1539,785,0,0
322,239,0,0,0,0,0,0,0,0,0,-1,1546,785,0,0
329,239,0,0,0,0,0,0,0,0,0,-1,1553,785,0,0
336,239,0,0,0,0,0,0,0,0,0,-1,1560,785,0,0
343,239,0,0,0,0,0,0,0,0,0,-1,1567,785,0,0
350,239,0,0,0,0,0,0,0,0,0,-1,1574,785,0,0
357,239,0,0,0,0,0,0,0,0,0,-1,1581,785,0,0
364,239,0,0,0,0,0,0,0,0,0,-1,1588,785,0,0
371,239,0,0,0,0,0,0,0,0,0,-1,1595,785,0,0
378,239,0,0,0,0,0,0,0,0,0,-1,1602,785,0,0
385,239,0,0,0,0,0,0,0,0,0,-1,1609,785,0,0
392,239,0,0,0,0,0,0,0,0,0,-1,1616,785,0,0
399,239,0,0,0,0,0,0,0,0,0,-1,1623,785,0,0
406,239,0,0,0,0,0,0,0,0,0,-1,1630,785,0,0
413,239,0,0,0,0,0,0,0,0,0,-1,1637,785,0,0
420,239,0,0,0,0,0,0,0,0,0,-1,1644,785,0,0
427,239,0,0,0,0,0,0,0,0,0,-1,1651,785,0,0
434,239,0,0,0,0,0,0,0,0,0,-1,1658,785,0,0
441,239,0,0,0,0,0,0,0,0,0,-1,1665,785,0,0
448,239,0,0,0,0,0,0,0,0,0,-1,1672,785,0,0
455,239,0,0,0,0,0,0,0,0,0,-1,1679,785,0,0
462,239,0,0,0,0,0,0,0,0,0,-1,1686,785,0,0
469,239,0,0,0,0,0,0,0,0,0,-1,1693,785,0,0
476,239,0,0,0,0,0,0,0,0,0,-1,1700,785,0,0
483,239,0,0,0,0,0,0,0,0,0,-1,1707,785,0,0
490,239,0,0,0,0,0,0,0,0,0,-1,1714,785,0,0
497,239,0,0,0,0,0,0,0,0,0,-1,1721,785,0,0
504,239,0,0,0,0,0,0,0,0,0,-1,1728,785,0,0
511,239,0,0,0,0,0,0,0,0,0,-1,1735,785,0,0
518,239,0,0,0,0,0,0,0,0,0,-1,1742,785,0,0
525,239,0,0,0,0,0,0,0,0,0,-1,1749,785,0,0
532,239,0,0,0,0,0,0,0,0,0,-1,1756,785,0,0
539,239,0,0,0,0,0,0,0,0,0,-1,1763,785,0,0
546,239,0,0,0,0,0,0,0,0,0,-1,1770,785,0,0
553,239,0,0,0,0,0,0,0,0,0,-1,1777,785,0,0
560,239,0,0,0,0,0,0,0,0,0,-1,1784,785,0,0
567,239,0,0,0,0,0,0,0,0,0,-1,1791,785,0,0
574,239,0,0,0,0,0,0,0,0,0,-1,1798,785,0,0
581,239,24.193,3.00128,0.0157059,-0.00282669,-0.00954089,0.0197397,-0.0068605,-0.399999,0.0159464,0.0416421,1805,785,24.193,-3.00131
588,239,24.2117,2.85529,0.0159452,-0.00180935,-0.00732884,0.0185796,-0.00444372,-0.34507,0.0141029,0.0410362,1812,785,24.2116,-2.85528
595,239,24.3936,2.75568,0.0142835,0.000843626,-0.00522809,0.0160777,-0.00095057,-0.33059,0.0110489,0.0351913,1819,785,24.3935,-2.75566
602,239,24.4696,2.85339,0.0114614,0.00300849,-0.00331506,0.0126064,0.00186349,-0.332566,0.0078571,0.0387786,1826,785,24.4696,-2.85342
609,239,24.6105,2.98511,0,0,0,0,0,0,0,-1,1833,785,24.6105,-2.98511
616,239,24.3929,3.25793,0,0,0,0,0,0,0,-1,1840,785,24.3929,-3.25793
623,239,24.4703,3.19586,0.00272289,0.00382495,-0.0011951,0.00458993,0.00195791,-1.00141,0.00265951,0.044478,1847,785,24.4703,-3.19588
630,239,24.2844,2.74585,0.000706182,0.00328983,-0.00104102,0.00365708,0.000338934,-1.23165,0.0023333,0.0419474,1854,785,24.2844,-2.74583
637,239,24.825,2.32587,0,0,0,0,0,0,0,-1,1861,785,24.8249,-2.32588
644,239,17.4896,0.691101,0,0,0,0,0,0,0,-1,1868,785,17.4897,-0.691109
651,239,17.5156,0.968201,-0.00243971,0.00141571,-0.000803566,0.00157648,-0.00260049,-1.37332,0.00243561,0.0484193,1875,785,17.5156,-0.968195
658,239,17.5569,1.24194,-0.00263987,0.000960478,-0.00108116,0.0012602,-0.00293958,-1.30037,0.00248852,0.0202587,1882,785,17.5569,-1.24197
665,239,17.5807,1.51257,-0.00282134,0.000251655,-0.00131521,0.000737681,-0.00330736,-1.21682,0.00248753,0.0140243,1889,785,17.5807,-1.5126
672,239,17.5624,1.78986,-0.00257557,-0.000580164,-0.00123202,7.46991e-06,-0.0031632,-1.12574,0.0021113,0.0197268,1896,785,17.5624,-1.78986
679,239,17.5795,2.04883,-0.00135011,-0.00068694,-0.00114787,0.00017628,-0.00221333,-0.926005,0.00153768,0.021283,1903,785,17.5795,-2.04881
686,239,17.5774,2.36163,0.000960792,-0.000167,-0.000444685,0.00111503,-0.000321243,-0.333874,0.000870427,0.0225948,1910,785,17.5773,-2.36163
693,239,17.5775,2.61713,0.00242037,8.55288e-05,-0.000253239,0.00244752,5.83782e-05,-0.106806,0.00161257,0.0149377,1917,785,17.5775,-2.61713
700,239,17.5673,2.86346,0.00409582,0.000678926,-9.06352e-05,0.00409823,0.000676523,-0.0265008,0.00253689,0.0112091,1924,785,17.5673,-2.86348
707,239,17.5588,3.12518,0.00619036,0.00152124,0.000313593,0.00621132,0.00150027,0.0667636,0.00374241,0.0105392,1931,785,17.5588,-3.12517
714,239,17.5503,3.38354,0.0090228,0.00198769,0.000991791,0.00915995,0.00185055,0.13741,0.00559278,0.00993281,1938,785,17.5503,-3.38352
721,239,17.5273,3.64813,0.0126002,0.00246623,0.00214522,0.0130356,0.00203083,0.200246,0.00809877,0.0196791,1945,785,17.5273,-3.64815
728,239,17.5331,4.09448,0.0171186,0.00293057,0.00351812,0.0179431,0.00210611,0.230192,0.0113255,0.0358835,1952,785,17.533,-4.0945
735,239,18.3019,4.82324,0.0229491,0.00303079,0.0057655,0.0244975,0.0014823,0.262386,0.0158607,0.0495192,1959,785,18.3019,-4.82324
742,239,18.5841,5.31769,0,0,0,0,0,0,0,-1,1966,785,18.584,-5.31766
749,239,21.8156,6.05676,0,0,0,0,0,0,0,-1,1973,785,21.8156,-6.05674
756,239,20.0861,6.29462,0,0,0,0,0,0,0,-1,1980,785,20.086,-6.29465
763,239,0,0,0,0,0,0,0,0,0,-1,1987,785,0,0
770,239,0,0,0,0,0,0,0,0,0,-1,1994,785,0,0
777,239,0,0,0,0,0,0,0,0,0,-1,2001,785,0,0
784,239,0,0,0,0,0,0,0,0,0,-1,2008,785,0,0
791,239,0,0,0,0,0,0,0,0,0,-1,2015,785,0,0
798,239,0,0,0,0,0,0,0,0,0,-1,2022,785,0,0
805,239,0,0,0,0,0,0,0,0,0,-1,2029,785,0,0
812,239,0,0,0,0,0,0,0,0,0,-1,2036,785,0,0
-700,232,0,0,0,0,0,0,0,0,0,-1,524,792,0,0
-693,232,0,0,0,0,0,0,0,0,0,-1,531,792,0,0
-686,232,0,0,0,0,0,0,0,0,0,-1,538,792,0,0
-679,232,0,0,0,0,0,0,0,0,0,-1,545,792,0,0
-672,232,0,0,0,0,0,0,0,0,0,-1,552,792,0,0
-665,232,0,0,0,0,0,0,0,0,0,-1,559,792,0,0
-658,232,0,0,0,0,0,0,0,0,0,-1,566,792,0,0
-651,232,0,0,0,0,0,0,0,0,0,-1,573,792,0,0
-644,232,-12.0689,-0.0904541,0,0,0,0,0,0,0,-1,580,792,-12.0689,0.0904347
-637,232,-15.8266,5.8587,0,0,0,0,0,0,0,-1,587,792,-15.8266,-5.85873
-630,232,-15.3641,5.40692,0.0745147,0.00873624,0.0216216,0.0809853,0.00226566,0.290782,0.053251,0.0476445,594,792,-15.3641,-5.40689
-623,232,-14.8826,4.92981,0.0639982,0.00817216,0.0152984,0.0679156,0.00425474,0.250681,0.0439276,0.0460444,601,792,-14.8826,-4.92982
-616,232,-14.1743,4.22638,0,0,0,0,0,0,0,-1,608,792,-14.1743,-4.22638
-609,232,-11.7072,2.1922,0,0,0,0,0,0,0,-1,615,792,-11.7071,-2.19223
-602,232,-11.4739,2.02911,0,0,0,0,0,0,0,-1,622,792,-11.4739,-2.02911
-595,232,-11.4022,1.66901,0.0254496,0.0052542,0.00169751,0.0255913,0.00511251,0.0832755,0.0156378,0.0346813,629,792,-11.4022,-1.669
-588,232,-11.3736,1.30707,0.0183749,0.00445151,0.000531953,0.0183952,0.00443121,0.0381317,0.0110856,0.0122211,636,792,-11.3736,-1.30704
-581,232,-11.3765,1.03619,0.0125711,0.00353603,-9.41653e-05,0.0125721,0.00353505,-0.0104207,0.00748661,0.00863121,643,792,-11.3765,-1.0362
-574,232,-11.3867,0.790955,0.00765085,0.00241684,-0.000548299,0.00770767,0.00236002,-0.103263,0.0045601,0.00883633,650,792,-11.3867,-0.790935
-567,232,-11.408,0.55072,0.00406756,0.0012866,-0.000351063,0.00411119,0.00124296,-0.123654,0.00243464,0.0101086,657,792,-11.408,-0.550733
-560,232,-11.3896,0.299988,0.00101983,8.96753e-05,0.000180129,0.00105349,5.60107e-05,0.18476,0.000684421,0.0121008,664,792,-11.3897,-0.299983
-553,232,-11.3968,0.0413818,-0.000873676,-0.00131723,0.000740234,-0.000322712,-0.0018682,0.63985,0.00115305,0.0132375,671,792,-11.3968,-0.0413812
-546,232,-11.4578,-0.212219,-0.00198756,-0.00313172,0.00128541,-0.00115267,-0.00396661,0.576032,0.00235612,0.0222539,678,792,-11.4578,0.212203
-539,232,-11.4504,-0.485229,-0.00272012,-0.00453544,0.00160634,-0.00178274,-0.00547282,0.528237,0.00322306,0.0265532,685,792,-11.4505,0.485259
-532,232,-11.4144,-0.725464,-0.00277965,-0.00445602,0.00178804,-0.00164309,-0.00559258,0.56622,0.00331915,0.0170692,692,792,-11.4144,0.725489
-525,232,-11.4082,-0.904541,-0.00250704,-0.00348582,0.00140439,-0.00150922,-0.00448365,0.617742,0.00263431,0.0271672,699,792,-11.4082,0.90452
-518,232,-11.4968,-1.07135,0,0,0,0,0,0,0,-1,706,792,-11.4968,1.07134
-511,232,-11.5536,-1.01233,0,0,0,0,0,0,0,-1,713,792,-11.5536,1.01234
-504,232,-17.6448,-1.7489,0,0,0,0,0,0,0,-1,720,792,-17.6448,1.74889
-497,232,-17.6024,-1.17279,0,0,0,0,0,0,0,-1,727,792,-17.6024,1.17281
-490,232,-17.2188,0.736267,0,0,0,0,0,0,0,-1,734,792,-17.2187,-0.736247
-483,232,-17.1404,0.91571,-3.38415e-05,0.00720261,-0.0040434,0.00901031,-0.00184154,-1.15038,0.00670555,0.0434462,741,792,-17.1404,-0.915733
-476,232,-17.0186,0.948547,0.000748908,0.0113054,-0.00588244,0.0139305,-0.00187619,-1.15106,0.00997143,0.0357215,748,792,-17.0186,-0.948525
-469,232,-17.1094,0.831848,0.00156179,0.0154265,-0.00827641,0.0192902,-0.00230199,-1.13402,0.0136922,0.0348147,755,792,-17.1095,-0.831834
-462,232,0,0,0,0,0,0,0,0,0,-1,762,792,0,0
-455,232,0,0,0,0,0,0,0,0,0,-1,769,792,0,0
-448,232,0,0,0,0,0,0,0,0,0,-1,776,792,0,0
-441,232,0,0,0,0,0,0,0,0,0,-1,783,792,0,0
-434,232,0,0,0,0,0,0,0,0,0,-1,790,792,0,0
-427,232,0,0,0,0,0,0,0,0,0,-1,797,792,0,0
-420,232,0,0,0,0,0,0,0,0,0,-1,804,792,0,0
-413,232,0,0,0,0,0,0,0,0,0,-1,811,792,0,0
-406,232,0,0,0,0,0,0,0,0,0,-1,818,792,0,0
-399,232,0,0,0,0,0,0,0,0,0,-1,825,792,0,0
-392,232,0,0,0,0,0,0,0,0,0,-1,832,792,0,0
-385,232,0,0,0,0,0,0,0,0,0,-1,839,792,0,0
-378,232,0,0,0,0,0,0,0,0,0,-1,846,792,0,0
-371,232,0,0,0,0,0,0,0,0,0,-1,853,792,0,0
-364,232,0,0,0,0,0,0,0,0,0,-1,860,792,0,0
-357,232,0,0,0,0,0,0,0,0,0,-1,867,792,0,0
-350,232,0,0,0,0,0,0,0,0,0,-1,874,792,0,0
-343,232,0,0,0,0,0,0,0,0,0,-1,881,792,0,0
-336,232,0,0,0,0,0,0,0,0,0,-1,888,792,0,0
-329,232,0,0,0,0,0,0,0,0,0,-1,895,792,0,0
-322,232,0,0,0,0,0,0,0,0,0,-1,902,792,0,0
-315,232,0,0,0,0,0,0,0,0,0,-1,909,792,0,0
-308,232,0,0,0,0,0,0,0,0,0,-1,916,792,0,0
-301,232,0,0,0,0,0,0,0,0,0,-1,923,792,0,0
-294,232,0,0,0,0,0,0,0,0,0,-1,930,792,0,0
-287,232,0,0,0,0,0,0,0,0,0,-1,937,792,0,0
-280,232,0,0,0,0,0,0,0,0,0,-1,944,792,0,0
-273,232,0,0,0,0,0,0,0,0,0,-1,951,792,0,0
-266,232,0,0,0,0,0,0,0,0,0,-1,958,792,0,0
-259,232,0,0,0,0,0,0,0,0,0,-1,965,792,0,0
-252,232,0,0,0,0,0,0,0,0,0,-1,972,792,0,0
-245,232,0,0,0,0,0,0,0,0,0,-1,979,792,0,0
-238,232,0,0,0,0,0,0,0,0,0,-1,986,792,0,0
-231,232,0,0,0,0,0,0,0,0,0,-1,993,792,0,0
-224,232,0,0,0,0,0,0,0,0,0,-1,1000,792,0,0
-217,232,0,0,0,0,0,0,0,0,0,-1,1007,792,0,0
-210,232,0,0,0,0,0,0,0,0,0,-1,1014,792,0,0
-203,232,0,0,0,0,0,0,0,0,0,-1,1021,792,0,0
-196,232,0,0,0,0,0,0,0,0,0,-1,1028,792,0,0
-189,232,0,0,0,0,0,0,0,0,0,-1,1035,792,0,0
-182,232,0,0,0,0,0,0,0,0,0,-1,1042,792,0,0
-175,232,0,0,0,0,0,0,0,0,0,-1,1049,792,0,0
-168,232,0,0,0,0,0,0,0,0,0,-1,1056,792,0,0
-161,232,0,0,0,0,0,0,0,0,0,-1,1063,792,0,0
-154,232,0,0,0,0,0,0,0,0,0,-1,1070,792,0,0
-147,232,0,0,0,0,0,0,0,0,0,-1,1077,792,0,0
-140,232,0,0,0,0,0,0,0,0,0,-1,1084,792,0,0
-133,232,0,0,0,0,0,0,0,0,0,-1,1091,792,0,0
-126,232,0,0,0,0,0,0,0,0,0,-1,1098,792,0,0
-119,232,0,0,0,0,0,0,0,0,0,-1,1105,792,0,0
-112,232,0,0,0,0,0,0,0,0,0,-1,1112,792,0,0
-105,232,0,0,0,0,0,0,0,0,0,-1,1119,792,0,0
-98,232,0,0,0,0,0,0,0,0,0,-1,1126,792,0,0
-91,232,0,0,0,0,0,0,0,0,0,-1,1133,792,0,0
-84,232,0,0,0,0,0,0,0,0,0,-1,1140,792,0,0
-77,232,0,0,0,0,0,0,0,0,0,-1,1147,792,0,0
-70,232,0,0,0,0,0,0,0,0,0,-1,1154,792,0,0
-63,232,0,0,0,0,0,0,0,0,0,-1,1161,792,0,0
-56,232,0,0,0,0,0,0,0,0,0,-1,1168,792,0,0
-49,232,0,0,0,0,0,0,0,0,0,-1,1175,792,0,0
-42,232,0,0,0,0,0,0,0,0,0,-1,1182,792,0,0
-35,232,0,0,0,0,0,0,0,0,0,-1,1189,792,0,0
-28,232,0,0,0,0,0,0,0,0,0,-1,1196,792,0,0
-21,232,0,0,0,0,0,0,0,0,0,-1,1203,792,0,0
-14,232,0,0,0,0,0,0,0,0,0,-1,1210,792,0,0
-7,232,0,0,0,0,0,0,0,0,0,-1,1217,792,0,0
0,232,0,0,0,0,0,0,0,0,0,-1,1224,792,0,0
7,232,0,0,0,0,0,0,0,0,0,-1,1231,792,0,0
14,232,0,0,0,0,0,0,0,0,0,-1,1238,792,0,0
21,232,0,0,0,0,0,0,0,0,0,-1,1245,792,0,0
28,232,0,0,0,0,0,0,0,0,0,-1,1252,792,0,0
35,232,0,0,0,0,0,0,0,0,0,-1,1259,792,0,0
42,232,0,0,0,0,0,0,0,0,0,-1,1266,792,0,0
49,232,0,0,0,0,0,0,0,0,0,-1,1273,792,0,0
56,232,0,0,0,0,0,0,0,0,0,-1,1280,792,0,0
63,232,0,0,0,0,0,0,0,0,0,-1,1287,792,0,0
70,232,0,0,0,0,0,0,0,0,0,-1,1294,792,0,0
77,232,0,0,0,0,0,0,0,0,0,-1,1301,792,0,0
84,232,0,0,0,0,0,0,0,0,0,-1,1308,792,0,0
91,232,0,0,0,0,0,0,0,0,0,-1,1315,792,0,0
98,232,0,0,0,0,0,0,0,0,0,-1,1322,792,0,0
105,232,0,0,0,0,0,0,0,0,0,-1,1329,792,0,0
112,232,0,0,0,0,0,0,0,0,0,-1,1336,792,0,0
119,232,0,0,0,0,0,0,0,0,0,-1,1343,792,0,0
126,232,0,0,0,0,0,0,0,0,0,-1,1350,792,0,0
133,232,0,0,0,0,0,0,0,0,0,-1,1357,792,0,0
140,232,0,0,0,0,0,0,0,0,0,-1,1364,792,0,0
147,232,0,0,0,0,0,0,0,0,0,-1,1371,792,0,0
154,232,0,0,0,0,0,0,0,0,0,-1,1378,792,0,0
161,232,0,0,0,0,0,0,0,0,0,-1,1385,792,0,0
168,232,0,0,0,0,0,0,0,0,0,-1,1392,792,0,0
175,232,0,0,0,0,0,0,0,0,0,-1,1399,792,0,0
182,232,0,0,0,0,0,0,0,0,0,-1,1406,792,0,0
189,232,0,0,0,0,0,0,0,0,0,-1,1413,792,0,0
196,232,0,0,0,0,0,0,0,0,0,-1,1420,792,0,0
203,232,0,0,0,0,0,0,0,0,0,-1,1427,792,0,0
210,232,0,0,0,0,0,0,0,0,0,-1,1434,792,0,0
217,232,0,0,0,0,0,0,0,0,0,-1,1441,792,0,0
224,232,0,0,0,0,0,0,0,0,0,-1,1448,792,0,0
231,232,0,0,0,0,0,0,0,0,0,-1,1455,792,0,0
238,232,0,0,0,0,0,0,0,0,0,-1,1462,792,0,0
245,232,0,0,0,0,0,0,0,0,0,-1,1469,792,0,0
252,232,0,0,0,0,0,0,0,0,0,-1,1476,792,0,0
259,232,0,0,0,0,0,0,0,0,0,-1,1483,792,0,0
266,232,0,0,0,0,0,0,0,0,0,-1,1490,792,0,0
273,232,0,0,0,0,0,0,0,0,0,-1,1497,792,0,0
280,232,0,0,0,0,0,0,0,0,0,-1,1504,792,0,0
287,232,0,0,0,0,0,0,0,0,0,-1,1511,792,0,0
294,232,0,0,0,0,0,0,0,0,0,-1,1518,792,0,0
301,232,0,0,0,0,0,0,0,0,0,-1,1525,792,0,0
308,232,0,0,0,0,0,0,0,0,0,-1,1532,792,0,0
315,232,0,0,0,0,0,0,0,0,0,-1,1539,792,0,0
322,232,0,0,0,0,0,0,0,0,0,-1,1546,792,0,0
329,232,0,0,0,0,0,0,0,0,0,-1,1553,792,0,0
336,232,0,0,0,0,0,0,0,0,0,-1,1560,792,0,0
343,232,0,0,0,0,0,0,0,0,0,-1,1567,792,0,0
350,232,0,0,0,0,0,0,0,0,0,-1,1574,792,0,0
357,232,0,0,0,0,0,0,0,0,0,-1,1581,792,0,0
364,232,0,0,0,0,0,0,0,0,0,-1,1588,792,0,0
371,232,0,0,0,0,0,0,0,0,0,-1,1595,792,0,0
378,232,0,0,0,0,0,0,0,0,0,-1,1602,792,0,0
385,232,0,0,0,0,0,0,0,0,0,-1,1609,792,0,0
392,232,0,0,0,0,0,0,0,0,0,-1,1616,792,0,0
399,232,0,0,0,0,0,0,0,0,0,-1,1623,792,0,0
406,232,0,0,0,0,0,0,0,0,0,-1,1630,792,0,0
413,232,0,0,0,0,0,0,0,0,0,-1,1637,792,0,0
420,232,0,0,0,0,0,0,0,0,0,-1,1644,792,0,0
427,232,0,0,0,0,0,0,0,0,0,-1,1651,792,0,0
434,232,0,0,0,0,0,0,0,0,0,-1,1658,792,0,0
441,232,0,0,0,0,0,0,0,0,0,-1,1665,792,0,0
448,232,0,0,0,0,0,0,0,0,0,-1,1672,792,0,0
455,232,0,0,0,0,0,0,0,0,0,-1,1679,792,0,0
462,232,0,0,0,0,0,0,0,0,0,-1,1686,792,0,0
469,232,0,0,0,0,0,0,0,0,0,-1,1693,792,0,0
476,232,0,0,0,0,0,0,0,0,0,-1,1700,792,0,0
483,232,0,0,0,0,0,0,0,0,0,-1,1707,792,0,0
490,232,0,0,0,0,0,0,0,0,0,-1,1714,792,0,0
497,232,0,0,0,0,0,0,0,0,0,-1,1721,792,0,0
504,232,0,0,0,0,0,0,0,0,0,-1,1728,792,0,0
511,232,0,0,0,0,0,0,0,0,0,-1,1735,792,0,0
518,232,0,0,0,0,0,0,0,0,0,-1,1742,792,0,0
525,232,0,0,0,0,0,0,0,0,0,-1,1749,792,0,0
532,232,0,0,0,0,0,0,0,0,0,-1,1756,792,0,0
539,232,0,0,0,0,0,0,0,0,0,-1,1763,792,0,0
546,232,0,0,0,0,0,0,0,0,0,-1,1770,792,0,0
553,232,0,0,0,0,0,0,0,0,0,-1,1777,792,0,0
560,232,0,0,0,0,0,0,0,0,0,-1,1784,792,0,0
567,232,0,0,0,0,0,0,0,0,0,-1,1791,792,0,0
574,232,0,0,0,0,0,0,0,0,0,-1,1798,792,0,0
581,232,0,0,0,0,0,0,0,0,0,-1,1805,792,0,0
588,232,24.2847,2.88953,0.0125487,-0.00315699,-0.00608499,0.0146303,-0.00523865,-0.329617,0.0118909,0.0397888,1812,792,24.2847,-2.88955
595,232,24.2131,2.82233,0.0115208,-0.00017027,-0.00418936,0.012867,-0.00151647,-0.310915,0.00912562,0.038985,1819,792,24.2131,-2.82236
602,232,24.2227,2.82074,0.00920635,0.0024043,-0.00246473,0.0100055,0.00160511,-0.313557,0.00620492,0.0368993,1826,792,24.2227,-2.82074
609,232,24.3484,2.8913,0.00649769,0.00350651,-0.00157052,0.00717081,0.00283339,-0.404915,0.00417031,0.0418218,1833,792,24.3484,-2.8913
616,232,24.308,3.10797,0.00379536,0.00382132,-0.00115252,0.00496093,0.00265575,-0.791029,0.00286658,0.0460577,1840,792,24.308,-3.10796
623,232,24.2457,3.22192,0.00149008,0.00367259,-0.000967943,0.00404002,0.00112266,-1.208,0.002408,0.0421741,1847,792,24.2457,-3.22191
630,232,24.4854,2.93835,-0.000245225,0.00317202,-0.000942865,0.0034149,-0.000488111,-1.31867,0.00245553,0.0458581,1854,792,24.4854,-2.93838
637,232,24.7626,2.96411,0,0,0,0,0,0,0,-1,1861,792,24.7626,-2.96408
644,232,17.821,0.911011,0,0,0,0,0,0,0,-1,1868,792,17.821,-0.911001
651,232,17.8792,1.12946,-0.00281633,0.00135742,-0.000946913,0.0015622,-0.00302111,-1.35781,0.00269049,0.0478451,1875,792,17.8791,-1.12947
658,232,17.8793,1.31287,-0.00295353,0.000901079,-0.00120124,0.00124478,-0.00329724,-1.29212,0.00271011,0.0260117,1882,792,17.8793,-1.31286
665,232,17.8571,1.526,-0.00308387,0.00023946,-0.00142305,0.000765535,-0.00360995,-1.2167,0.00269825,0.0119787,1889,792,17.8571,-1.52598
672,232,17.8114,1.797,-0.00288169,-0.000568625,-0.00136352,6.2789e-05,-0.0035131,-1.13712,0.00236328,0.0170483,1896,792,17.8114,-1.79698
679,232,17.8125,2.07764,-0.00176077,-0.000728307,-0.00129657,0.000151024,-0.0026401,-0.974853,0.0018125,0.0183668,1903,792,17.8125,-2.07766
686,232,17.8342,2.36896,0.00042088,-0.000294747,-0.000647515,0.000802868,-0.000676735,-0.532982,0.000855283,0.0184164,1910,792,17.8342,-2.36899
693,232,17.8297,2.6153,0.00181585,-0.000166642,-0.000539445,0.00195313,-0.000303921,-0.249193,0.00141432,0.0106973,1917,792,17.8298,-2.61527
700,232,17.8347,2.85803,0.00341759,0.000328276,-0.000457232,0.00348384,0.000262024,-0.143895,0.00224033,0.0118458,1924,792,17.8347,-2.85802
707,232,17.8379,3.12152,0.00542166,0.00114344,-7.68462e-05,0.00542304,0.00114206,-0.0179545,0.00330119,0.0120169,1931,792,17.8379,-3.12151
714,232,17.8235,3.37994,0.00814965,0.00153734,0.000605486,0.00820464,0.00148236,0.090566,0.00504871,0.012865,1938,792,17.8235,-3.37992
721,232,17.8143,3.63916,0.0116091,0.00195776,0.00178265,0.0119278,0.00163902,0.176931,0.00746575,0.01757,1945,792,17.8144,-3.63913
728,232,17.7839,3.92889,0.0158151,0.00228684,0.00307413,0.0164808,0.00162105,0.213286,0.0104887,0.0327657,1952,792,17.7839,-3.92888
735,232,18.2671,4.51581,0.0212278,0.00232052,0.00520415,0.0225656,0.000982757,0.25161,0.0147271,0.0498447,1959,792,18.2671,-4.51583
742,232,18.4417,4.99243,0,0,0,0,0,0,0,-1,1966,792,18.4417,-4.99246
749,232,22.0245,5.66302,0,0,0,0,0,0,0,-1,1973,792,22.0245,-5.66302
756,232,20.561,5.61768,0,0,0,0,0,0,0,-1,1980,792,20.561,-5.61769
763,232,19.2101,5.24841,0,0,0,0,0,0,0,-1,1987,792,19.2101,-5.24841
770,232,0,0,0,0,0,0,0,0,0,-1,1994,792,0,0
777,232,0,0,0,0,0,0,0,0,0,-1,2001,792,0,0
784,232,0,0,0,0,0,0,0,0,0,-1,2008,792,0,0
791,232,0,0,0,0,0,0,0,0,0,-1,2015,792,0,0
798,232,0,0,0,0,0,0,0,0,0,-1,2022,792,0,0
805,232,0,0,0,0,0,0,0,0,0,-1,2029,792,0,0
812,232,0,0,0,0,0,0,0,0,0,-1,2036,792,0,0
-700,225,0,0,0,0,0,0,0,0,0,-1,524,799,0,0
-693,225,0,0,0,0,0,0,0,0,0,-1,531,799,0,0
-686,225,0,0,0,0,0,0,0,0,0,-1,538,799,0,0
-679,225,0,0,0,0,0,0,0,0,0,-1,545,799,0,0
-672,225,0,0,0,0,0,0,0,0,0,-1,552,799,0,0
-665,225,0,0,0,0,0,0,0,0,0,-1,559,799,0,0
-658,225,0,0,0,0,0,0,0,0,0,-1,566,799,0,0
-651,225,0,0,0,0,0,0,0,0,0,-1,573,799,0,0
-644,225,-12.1339,1.90027,0,0,0,0,0,0,0,-1,580,799,-12.1338,-1.90025
-637,225,-12.917,2.25183,0,0,0,0,0,0,0,-1,587,799,-12.917,-2.25181
-630,225,-16.3494,5.33722,0,0,0,0,0,0,0,-1,594,799,-16.3493,-5.33719
-623,225,-15.7315,4.7688,0,0,0,0,0,0,0,-1,601,799,-15.7315,-4.76881
-616,225,-15.1396,4.58997,0,0,0,0,0,0,0,-1,608,799,-15.1397,-4.58997
-609,225,-11.7517,2.73889,0,0,0,0,0,0,0,-1,615,799,-11.7517,-2.73888
-602,225,-11.7913,2.15698,0.0259771,0.00815157,0.00177963,0.0261531,0.00797563,0.09854,0.0154777,0.0459177,622,799,-11.7912,-2.15697
-595,225,-11.7073,1.59424,0.019538,0.00646583,0.000514242,0.0195582,0.00644563,0.0392577,0.0115086,0.028189,629,799,-11.7073,-1.59427
-588,225,-11.6525,1.255,0.0140907,0.00505618,-0.000131417,0.0140926,0.00505427,-0.014542,0.00824406,0.0124435,636,799,-11.6525,-1.25498
-581,225,-11.6376,1.01617,0.00959555,0.00367743,-0.000396834,0.00962204,0.00365094,-0.0666563,0.00560886,0.0104872,643,799,-11.6376,-1.01616
-574,225,-11.628,0.786499,0.00573645,0.00218657,-0.000517948,0.00581047,0.00211254,-0.141964,0.00339605,0.00828557,650,799,-11.628,-0.786472
-567,225,-11.6287,0.540527,0.00293153,0.000907546,-0.000231853,0.00295775,0.000881327,-0.112609,0.00175351,0.0102886,657,799,-11.6288,-0.540505
-560,225,-11.6412,0.306091,0.000467743,-0.000431783,0.000293873,0.000555239,-0.00051928,0.289379,0.00062049,0.0106084,664,799,-11.6412,-0.306094
-553,225,-11.6613,0.0691528,-0.000983561,-0.00192564,0.000837344,-0.00049386,-0.00241534,0.529188,0.00147346,0.0107534,671,799,-11.6613,-0.0691353
-546,225,-11.6903,-0.195679,-0.00180258,-0.00374048,0.00122518,-0.0012095,-0.00433355,0.450827,0.00258209,0.0205743,678,799,-11.6903,0.195674
-539,225,-11.6431,-0.482727,-0.00235749,-0.0050598,0.00135242,-0.00179693,-0.00562036,0.392934,0.00331448,0.0262021,685,799,-11.6431,0.482737
-532,225,-11.6732,-0.695618,-0.00223762,-0.00510601,0.00133353,-0.00171344,-0.00563019,0.374522,0.00333253,0.0203407,692,799,-11.6732,0.695599
-525,225,-11.8752,-0.74884,-0.0018516,-0.00431126,0.000865236,-0.00157773,-0.00458513,0.306549,0.00268978,0.0453035,699,799,-11.8752,0.748815
-518,225,-12.0798,-0.788757,0,0,0,0,0,0,0,-1,706,799,-12.0798,0.788728
-511,225,-17.6174,-0.411987,-0.00130911,-0.00259532,-0.000659849,-0.00103082,-0.00287362,-0.399125,0.00168102,0.0442962,713,799,-17.6175,0.412005
-504,225,-18.1352,-0.780396,0,0,0,0,0,0,0,-1,720,799,-18.1352,0.780376
-497,225,-17.3931,-0.357056,0,0,0,0,0,0,0,-1,727,799,-17.3931,0.357079
-490,225,-16.9539,0.169006,0,0,0,0,0,0,0,-1,734,799,-16.9539,-0.16898
-483,225,-17.01,0.970642,0.00179754,0.00497951,-0.00467855,0.00833019,-0.00155314,-0.949294,0.00613704,0.0333142,741,799,-17.01,-0.970613
-476,225,-16.9317,0.972534,0.00323339,0.00887823,-0.00661294,0.0132459,-0.00113425,-0.987096,0.00923192,0.0309502,748,799,-16.9317,-0.972504
-469,225,-17.0367,0.822998,0.00493785,0.0128191,-0.00894649,0.0186544,-0.000897418,-0.992847,0.0127459,0.0339186,755,799,-17.0367,-0.822998
-462,225,0,0,0,0,0,0,0,0,0,-1,762,799,0,0
-455,225,0,0,0,0,0,0,0,0,0,-1,769,799,0,0
-448,225,0,0,0,0,0,0,0,0,0,-1,776,799,0,0
-441,225,0,0,0,0,0,0,0,0,0,-1,783,799,0,0
-434,225,0,0,0,0,0,0,0,0,0,-1,790,799,0,0
-427,225,0,0,0,0,0,0,0,0,0,-1,797,799,0,0
-420,225,0,0,0,0,0,0,0,0,0,-1,804,799,0,0
-413,225,0,0,0,0,0,0,0,0,0,-1,811,799,0,0
-406,225,0,0,0,0,0,0,0,0,0,-1,818,799,0,0
-399,225,0,0,0,0,0,0,0,0,0,-1,825,799,0,0
-392,225,0,0,0,0,0,0,0,0,0,-1,832,799,0,0
-385,225,0,0,0,0,0,0,0,0,0,-1,839,799,0,0
-378,225,0,0,0,0,0,0,0,0,0,-1,846,799,0,0
-371,225,0,0,0,0,0,0,0,0,0,-1,853,799,0,0
-364,225,0,0,0,0,0,0,0,0,0,-1,860,799,0,0
-357,225,0,0,0,0,0,0,0,0,0,-1,867,799,0,0
-350,225,0,0,0,0,0,0,0,0,0,-1,874,799,0,0
-343,225,0,0,0,0,0,0,0,0,0,-1,881,799,0,0
-336,225,0,0,0,0,0,0,0,0,0,-1,888,799,0,0
-329,225,0,0,0,0,0,0,0,0,0,-1,895,799,0,0
-322,225,0,0,0,0,0,0,0,0,0,-1,902,799,0,0
-315,225,0,0,0,0,0,0,0,0,0,-1,909,799,0,0
-308,225,0,0,0,0,0,0,0,0,0,-1,916,799,0,0
-301,225,0,0,0,0,0,0,0,0,0,-1,923,799,0,0
-294,225,0,0,0,0,0,0,0,0,0,-1,930,799,0,0
-287,225,0,0,0,0,0,0,0,0,0,-1,937,799,0,0
-280,225,0,0,0,0,0,0,0,0,0,-1,944,799,0,0
-273,225,0,0,0,0,0,0,0,0,0,-1,951,799,0,0
-266,225,0,0,0,0,0,0,0,0,0,-1,958,799,0,0
-259,225,0,0,0,0,0,0,0,0,0,-1,965,799,0,0
-252,225,0,0,0,0,0,0,0,0,0,-1,972,799,0,0
-245,225,0,0,0,0,0,0,0,0,0,-1,979,799,0,0
-238,225,0,0,0,0,0,0,0,0,0,-1,986,799,0,0
-231,225,0,0,0,0,0,0,0,0,0,-1,993,799,0,0
-224,225,0,0,0,0,0,0,0,0,0,-1,1000,799,0,0
-217,225,0,0,0,0,0,0,0,0,0,-1,1007,799,0,0
-210,225,0,0,0,0,0,0,0,0,0,-1,1014,799,0,0
-203,225,0,0,0,0,0,0,0,0,0,-1,1021,799,0,0
-196,225,0,0,0,0,0,0,0,0,0,-1,1028,799,0,0
-189,225,0,0,0,0,0,0,0,0,0,-1,1035,799,0,0
-182,225,0,0,0,0,0,0,0,0,0,-1,1042,799,0,0
-175,225,0,0,0,0,0,0,0,0,0,-1,1049,799,0,0
-168,225,0,0,0,0,0,0,0,0,0,-1,1056,799,0,0
-161,225,0,0,0,0,0,0,0,0,0,-1,1063,799,0,0
-154,225,0,0,0,0,0,0,0,0,0,-1,1070,799,0,0
-147,225,0,0,0,0,0,0,0,0,0,-1,1077,799,0,0
-140,225,0,0,0,0,0,0,0,0,0,-1,1084,799,0,0
-133,225,0,0,0,0,0,0,0,0,0,-1,1091,799,0,0
-126,225,0,0,0,0,0,0,0,0,0,-1,1098,799,0,0
-119,225,0,0,0,0,0,0,0,0,0,-1,1105,799,0,0
-112,225,0,0,0,0,0,0,0,0,0,-1,1112,799,0,0
-105,225,0,0,0,0,0,0,0,0,0,-1,1119,799,0,0
-98,225,0,0,0,0,0,0,0,0,0,-1,1126,799,0,0
-91,225,0,0,0,0,0,0,0,0,0,-1,1133,799,0,0
-84,225,0,0,0,0,0,0,0,0,0,-1,1140,799,0,0
-77,225,0,0,0,0,0,0,0,0,0,-1,1147,799,0,0
-70,225,0,0,0,0,0,0,0,0,0,-1,1154,799,0,0
-63,225,0,0,0,0,0,0,0,0,0,-1,1161,799,0,0
-56,225,0,0,0,0,0,0,0,0,0,-1,1168,799,0,0
-49,225,0,0,0,0,0,0,0,0,0,-1,1175,799,0,0
-42,225,0,0,0,0,0,0,0,0,0,-1,1182,799,0,0
-35,225,0,0,0,0,0,0,0,0,0,-1,1189,799,0,0
-28,225,0,0,0,0,0,0,0,0,0,-1,1196,799,0,0
-21,225,0,0,0,0,0,0,0,0,0,-1,1203,799,0,0
-14,225,0,0,0,0,0,0,0,0,0,-1,1210,799,0,0
-7,225,0,0,0,0,0,0,0,0,0,-1,1217,799,0,0
0,225,0,0,0,0,0,0,0,0,0,-1,1224,799,0,0
7,225,0,0,0,0,0,0,0,0,0,-1,1231,799,0,0
14,225,0,0,0,0,0,0,0,0,0,-1,1238,799,0,0
21,225,0,0,0,0,0,0,0,0,0,-1,1245,799,0,0
28,225,0,0,0,0,0,0,0,0,0,-1,1252,799,0,0
35,225,0,0,0,0,0,0,0,0,0,-1,1259,799,0,0
42,225,0,0,0,0,0,0,0,0,0,-1,1266,799,0,0
49,225,0,0,0,0,0,0,0,0,0,-1,1273,799,0,0
56,225,0,0,0,0,0,0,0,0,0,-1,1280,799,0,0
63,225,0,0,0,0,0,0,0,0,0,-1,1287,799,0,0
70,225,0,0,0,0,0,0,0,0,0,-1,1294,799,0,0
77,225,0,0,0,0,0,0,0,0,0,-1,1301,799,0,0
84,225,0,0,0,0,0,0,0,0,0,-1,1308,799,0,0
91,225,0,0,0,0,0,0,0,0,0,-1,1315,799,0,0
98,225,0,0,0,0,0,0,0,0,0,-1,1322,799,0,0
105,225,0,0,0,0,0,0,0,0,0,-1,1329,799,0,0
112,225,0,0,0,0,0,0,0,0,0,-1,1336,799,0,0
119,225,0,0,0,0,0,0,0,0,0,-1,1343,799,0,0
126,225,0,0,0,0,0,0,0,0,0,-1,1350,799,0,0
133,225,0,0,0,0,0,0,0,0,0,-1,1357,799,0,0
140,225,0,0,0,0,0,0,0,0,0,-1,1364,799,0,0
147,225,0,0,0,0,0,0,0,0,0,-1,1371,799,0,0
154,225,0,0,0,0,0,0,0,0,0,-1,1378,799,0,0
161,225,0,0,0,0,0,0,0,0,0,-1,1385,799,0,0
168,225,0,0,0,0,0,0,0,0,0,-1,1392,799,0,0
175,225,0,0,0,0,0,0,0,0,0,-1,1399,799,0,0
182,225,0,0,0,0,0,0,0,0,0,-1,1406,799,0,0
189,225,0,0,0,0,0,0,0,0,0,-1,1413,799,0,0
196,225,0,0,0,0,0,0,0,0,0,-1,1420,799,0,0
203,225,0,0,0,0,0,0,0,0,0,-1,1427,799,0,0
210,225,0,0,0,0,0,0,0,0,0,-1,1434,799,0,0
217,225,0,0,0,0,0,0,0,0,0,-1,1441,799,0,0
224,225,0,0,0,0,0,0,0,0,0,-1,1448,799,0,0
231,225,0,0,0,0,0,0,0,0,0,-1,1455,799,0,0
238,225,0,0,0,0,0,0,0,0,0,-1,1462,799,0,0
245,225,0,0,0,0,0,0,0,0,0,-1,1469,799,0,0
252,225,0,0,0,0,0,0,0,0,0,-1,1476,799,0,0
259,225,0,0,0,0,0,0,0,0,0,-1,1483,799,0,0
266,225,0,0,0,0,0,0,0,0,0,-1,1490,799,0,0
273,225,0,0,0,0,0,0,0,0,0,-1,1497,799,0,0
280,225,0,0,0,0,0,0,0,0,0,-1,1504,799,0,0
287,225,0,0,0,0,0,0,0,0,0,-1,1511,799,0,0
294,225,0,0,0,0,0,0,0,0,0,-1,1518,799,0,0
301,225,0,0,0,0,0,0,0,0,0,-1,1525,799,0,0
308,225,0,0,0,0,0,0,0,0,0,-1,1532,799,0,0
315,225,0,0,0,0,0,0,0,0,0,-1,1539,799,0,0
322,225,0,0,0,0,0,0,0,0,0,-1,1546,799,0,0
329,225,0,0,0,0,0,0,0,0,0,-1,1553,799,0,0
336,225,0,0,0,0,0,0,0,0,0,-1,1560,799,0,0
343,225,0,0,0,0,0,0,0,0,0,-1,1567,799,0,0
350,225,0,0,0,0,0,0,0,0,0,-1,1574,799,0,0
357,225,0,0,0,0,0,0,0,0,0,-1,1581,799,0,0
364,225,0,0,0,0,0,0,0,0,0,-1,1588,799,0,0
371,225,0,0,0,0,0,0,0,0,0,-1,1595,799,0,0
378,225,0,0,0,0,0,0,0,0,0,-1,1602,799,0,0
385,225,0,0,0,0,0,0,0,0,0,-1,1609,799,0,0
392,225,0,0,0,0,0,0,0,0,0,-1,1616,799,0,0
399,225,0,0,0,0,0,0,0,0,0,-1,1623,799,0,0
406,225,0,0,0,0,0,0,0,0,0,-1,1630,799,0,0
413,225,0,0,0,0,0,0,0,0,0,-1,1637,799,0,0
420,225,0,0,0,0,0,0,0,0,0,-1,1644,799,0,0
427,225,0,0,0,0,0,0,0,0,0,-1,1651,799,0,0
434,225,0,0,0,0,0,0,0,0,0,-1,1658,799,0,0
441,225,0,0,0,0,0,0,0,0,0,-1,1665,799,0,0
448,225,0,0,0,0,0,0,0,0,0,-1,1672,799,0,0
455,225,0,0,0,0,0,0,0,0,0,-1,1679,799,0,0
462,225,0,0,0,0,0,0,0,0,0,-1,1686,799,0,0
469,225,0,0,0,0,0,0,0,0,0,-1,1693,799,0,0
476,225,0,0,0,0,0,0,0,0,0,-1,1700,799,0,0
483,225,0,0,0,0,0,0,0,0,0,-1,1707,799,0,0
490,225,0,0,0,0,0,0,0,0,0,-1,1714,799,0,0
497,225,0,0,0,0,0,0,0,0,0,-1,1721,799,0,0
504,225,0,0,0,0,0,0,0,0,0,-1,1728,799,0,0
511,225,0,0,0,0,0,0,0,0,0,-1,1735,799,0,0
518,225,0,0,0,0,0,0,0,0,0,-1,1742,799,0,0
525,225,0,0,0,0,0,0,0,0,0,-1,1749,799,0,0
532,225,0,0,0,0,0,0,0,0,0,-1,1756,799,0,0
539,225,0,0,0,0,0,0,0,0,0,-1,1763,799,0,0
546,225,0,0,0,0,0,0,0,0,0,-1,1770,799,0,0
553,225,0,0,0,0,0,0,0,0,0,-1,1777,799,0,0
560,225,0,0,0,0,0,0,0,0,0,-1,1784,799,0,0
567,225,0,0,0,0,0,0,0,0,0,-1,1791,799,0,0
574,225,0,0,0,0,0,0,0,0,0,-1,1798,799,0,0
581,225,0,0,0,0,0,0,0,0,0,-1,1805,799,0,0
588,225,24.3678,2.9234,0.00987401,-0.00400929,-0.00565141,0.0118836,-0.0060189,-0.341649,0.0105193,0.0395357,1812,799,24.3678,-2.92338
595,225,24.3015,2.97577,0.00937966,-0.000944779,-0.00380517,0.0106305,-0.00219566,-0.317603,0.00792101,0.0366465,1819,799,24.3015,-2.97575
602,225,24.2579,2.81451,0.00749346,0.00197511,-0.00203674,0.00816377,0.0013048,-0.317943,0.00506392,0.0347826,1826,799,24.258,-2.81453
609,225,24.2949,2.85345,0.00510668,0.00326328,-0.00119743,0.00569606,0.00267389,-0.457394,0.00329067,0.0337726,1833,799,24.2949,-2.85343
616,225,24.2955,2.91992,0.00266323,0.00367847,-0.000883082,0.00418943,0.00215227,-1.04625,0.00241908,0.038817,1840,799,24.2955,-2.91992
623,225,24.3329,2.9895,0.000568353,0.003591,-0.000800841,0.00379007,0.000369283,-1.32716,0.00241306,0.0398346,1847,799,24.3329,-2.98952
630,225,24.3815,3.01093,-0.000968211,0.00310275,-0.000861933,0.00327773,-0.00114318,-1.37052,0.00264973,0.0407766,1854,799,24.3815,-3.0109
637,225,24.2974,3.57959,-0.00203992,0.00245607,-0.000943259,0.00264594,-0.00222979,-1.37215,0.00281842,0.0418738,1861,799,24.2974,-3.5796
644,225,18.2185,1.06396,0,0,0,0,0,0,0,-1,1868,799,18.2185,-1.06395
651,225,18.3035,1.29602,-0.00307917,0.00127862,-0.00104449,0.00151603,-0.00331658,-1.34729,0.00285394,0.046022,1875,799,18.3035,-1.29601
658,225,18.4326,1.57349,-0.0031506,0.000816024,-0.00126537,0.00118531,-0.00351988,-1.28685,0.0028258,0.0386592,1882,799,18.4327,-1.57346
665,225,18.1265,1.52863,-0.00323028,0.00020262,-0.00146126,0.000740384,-0.00376804,-1.21816,0.00279174,0.0144439,1889,799,18.1265,-1.52862
672,225,18.0735,1.82324,-0.00306739,-0.000551575,-0.00142129,8.85171e-05,-0.00370748,-1.14764,0.00250168,0.0167619,1896,799,18.0735,-1.82325
679,225,18.074,2.14508,-0.00207868,-0.000757365,-0.00136641,9.97167e-05,-0.00293576,-1.01058,0.00199125,0.0167618,1903,799,18.074,-2.14509
686,225,18.1158,2.38446,-9.77724e-05,-0.000407395,-0.000808837,0.000570936,-0.0010761,-0.690842,0.000965712,0.0103553,1910,799,18.1159,-2.38445
693,225,18.0957,2.60699,0.00120657,-0.000381782,-0.000783612,0.00152809,-0.000703296,-0.389351,0.0013173,0.0100937,1917,799,18.0956,-2.60701
700,225,18.0774,2.85828,0.00272349,2.57199e-05,-0.000776514,0.00293103,-0.000181822,-0.261169,0.00201736,0.0109233,1924,799,18.0774,-2.85831
707,225,18.0754,3.13287,0.00466734,0.00080908,-0.000441465,0.00471721,0.000759212,-0.112484,0.00292477,0.0107389,1931,799,18.0754,-3.1329
714,225,18.0867,3.396,0.0073081,0.00115832,0.000195281,0.00731429,0.00115213,0.0317116,0.00454113,0.0121944,1938,799,18.0867,-3.39602
721,225,18.1152,3.66333,0.010639,0.00155569,0.00133629,0.0108315,0.00136318,0.143077,0.00681222,0.0137721,1945,799,18.1152,-3.66333
728,225,18.0974,3.89447,0.01456,0.00178531,0.00248719,0.0150271,0.00131814,0.185665,0.00960889,0.022777,1952,799,18.0974,-3.89448
735,225,18.3345,4.17181,0.0195199,0.00176143,0.00440432,0.0205522,0.00072912,0.230231,0.013465,0.0433937,1959,799,18.3345,-4.17181
742,225,18.5192,4.33899,0,0,0,0,0,0,0,-1,1966,799,18.5192,-4.33897
749,225,18.7725,3.48834,0,0,0,0,0,0,0,-1,1973,799,18.7724,-3.48833
756,225,21.0265,4.94281,0,0,0,0,0,0,0,-1,1980,799,21.0265,-4.94283
763,225,19.6656,4.81757,0,0,0,0,0,0,0,-1,1987,799,19.6657,-4.81756
770,225,0,0,0,0,0,0,0,0,0,-1,1994,799,0,0
777,225,0,0,0,0,0,0,0,0,0,-1,2001,799,0,0
784,225,0,0,0,0,0,0,0,0,0,-1,2008,799,0,0
791,225,0,0,0,0,0,0,0,0,0,-1,2015,799,0,0
798,225,0,0,0,0,0,0,0,0,0,-1,2022,799,0,0
805,225,0,0,0,0,0,0,0,0,0,-1,2029,799,0,0
812,225,0,0,0,0,0,0,0,0,0,-1,2036,799,0,0
-700,218,0,0,0,0,0,0,0,0,0,-1,524,806,0,0
-693,218,0,0,0,0,0,0,0,0,0,-1,531,806,0,0
-686,218,0,0,0,0,0,0,0,0,0,-1,538,806,0,0
-679,218,0,0,0,0,0,0,0,0,0,-1,545,806,0,0
-672,218,0,0,0,0,0,0,0,0,0,-1,552,806,0,0
-665,218,0,0,0,0,0,0,0,0,0,-1,559,806,0,0
-658,218,0,0,0,0,0,0,0,0,0,-1,566,806,0,0
-651,218,-11.6475,2.41718,0,0,0,0,0,0,0,-1,573,806,-11.6475,-2.41717
-644,218,-12.1877,2.42963,0,0,0,0,0,0,0,-1,580,806,-12.1878,-2.42964
-637,218,-12.7698,2.42664,0,0,0,0,0,0,0,-1,587,806,-12.7698,-2.42665
-630,218,-9.79889,3.94275,0,0,0,0,0,0,0,-1,594,806,-9.79888,-3.94275
-623,218,-16.3676,4.71802,0,0,0,0,0,0,0,-1,601,806,-16.3676,-4.71802
-616,218,-11.7028,1.93262,0,0,0,0,0,0,0,-1,608,806,-11.7028,-1.93261
-609,218,-11.8097,1.78558,0.0235528,0.012797,0.000732432,0.0236024,0.0127473,0.0676798,0.0136415,0.0496266,615,806,-11.8097,-1.78561
-602,218,-11.896,1.76178,0.0180937,0.0105803,-0.000265483,0.0181031,0.010571,-0.035276,0.0105008,0.0385071,622,806,-11.896,-1.76177
-595,218,-11.9279,1.495,0.0134958,0.00805782,-0.000836989,0.0136217,0.00793191,-0.149312,0.00789994,0.0166248,629,806,-11.9279,-1.49499
-588,218,-11.8941,1.24445,0.00967444,0.00597805,-0.000925001,0.00989299,0.0057595,-0.232019,0.00573738,0.0110652,636,806,-11.8941,-1.24442
-581,218,-11.8867,1.02307,0.00660986,0.0040356,-0.00075253,0.0068137,0.00383176,-0.264531,0.00394408,0.0105894,643,806,-11.8867,-1.02309
-574,218,-11.8983,0.785034,0.00392004,0.0021,-0.000522575,0.00405941,0.00196063,-0.260634,0.00234415,0.00986185,650,806,-11.8983,-0.785049
-567,218,-11.869,0.528076,0.00194916,0.000675622,-0.000145453,0.00196556,0.00065922,-0.112286,0.00115513,0.0160908,657,806,-11.869,-0.528076
-560,218,-11.8856,0.320557,0.000116601,-0.000829138,0.00032391,0.000216901,-0.000929438,0.30029,0.000703167,0.0160363,664,806,-11.8856,-0.320534
-553,218,-11.878,0.0789795,-0.000851172,-0.00244286,0.000777121,-0.000534683,-0.00275935,0.386748,0.00168977,0.0166499,671,806,-11.878,-0.0789858
-546,218,-11.9113,-0.204407,-0.00139448,-0.00428817,0.000973717,-0.00109733,-0.00458531,0.296185,0.00276466,0.0150337,678,806,-11.9113,0.204408
-539,218,-11.9106,-0.484924,-0.00177943,-0.00565164,0.000920487,-0.00157175,-0.00585931,0.2219,0.00350191,0.0213941,685,806,-11.9106,0.484933
-532,218,-11.9701,-0.632874,-0.00154076,-0.00595105,0.000753484,-0.00141558,-0.00607623,0.164628,0.00367109,0.0252193,692,806,-11.9701,0.632847
-525,218,-12.2641,-0.626526,0,0,0,0,0,0,0,-1,699,806,-12.2641,0.626544
-518,218,-17.4956,0.536194,0,0,0,0,0,0,0,-1,706,806,-17.4956,-0.536183
-511,218,-17.7083,0.0828857,0,0,0,0,0,0,0,-1,713,806,-17.7083,-0.0828846
-504,218,-17.921,-0.370422,0,0,0,0,0,0,0,-1,720,806,-17.921,0.370414
-497,218,-17.1838,0.458679,0,0,0,0,0,0,0,-1,727,806,-17.1838,-0.458651
-490,218,-16.9877,0.976501,0.00217626,-0.000408567,-0.00378344,0.00488194,-0.00311425,-0.620814,0.00465405,0.0357212,734,806,-16.9877,-0.976494
-483,218,-16.9533,0.968445,0.00367004,0.00256399,-0.00517997,0.00832642,-0.00209239,-0.732219,0.00636412,0.0324827,741,806,-16.9533,-0.968459
-476,218,-16.8658,0.907532,0.00566303,0.00629446,-0.00710045,0.0130862,-0.00112872,-0.807616,0.00912369,0.0353219,748,806,-16.8659,-0.907529
-469,218,0,0,0,0,0,0,0,0,0,-1,755,806,0,0
-462,218,0,0,0,0,0,0,0,0,0,-1,762,806,0,0
-455,218,0,0,0,0,0,0,0,0,0,-1,769,806,0,0
-448,218,0,0,0,0,0,0,0,0,0,-1,776,806,0,0
-441,218,0,0,0,0,0,0,0,0,0,-1,783,806,0,0
-434,218,0,0,0,0,0,0,0,0,0,-1,790,806,0,0
-427,218,0,0,0,0,0,0,0,0,0,-1,797,806,0,0
-420,218,0,0,0,0,0,0,0,0,0,-1,804,806,0,0
-413,218,0,0,0,0,0,0,0,0,0,-1,811,806,0,0
-406,218,0,0,0,0,0,0,0,0,0,-1,818,806,0,0
-399,218,0,0,0,0,0,0,0,0,0,-1,825,806,0,0
-392,218,0,0,0,0,0,0,0,0,0,-1,832,806,0,0
-385,218,0,0,0,0,0,0,0,0,0,-1,839,806,0,0
-378,218,0,0,0,0,0,0,0,0,0,-1,846,806,0,0
-371,218,0,0,0,0,0,0,0,0,0,-1,853,806,0,0
-364,218,0,0,0,0,0,0,0,0,0,-1,860,806,0,0
-357,218,0,0,0,0,0,0,0,0,0,-1,867,806,0,0
-350,218,0,0,0,0,0,0,0,0,0,-1,874,806,0,0
-343,218,0,0,0,0,0,0,0,0,0,-1,881,806,0,0
-336,218,0,0,0,0,0,0,0,0,0,-1,888,806,0,0
-329,218,0,0,0,0,0,0,0,0,0,-1,895,806,0,0
-322,218,0,0,0,0,0,0,0,0,0,-1,902,806,0,0
-315,218,0,0,0,0,0,0,0,0,0,-1,909,806,0,0
-308,218,0,0,0,0,0,0,0,0,0,-1,916,806,0,0
-301,218,0,0,0,0,0,0,0,0,0,-1,923,806,0,0
-294,218,0,0,0,0,0,0,0,0,0,-1,930,806,0,0
-287,218,0,0,0,0,0,0,0,0,0,-1,937,806,0,0
-280,218,0,0,0,0,0,0,0,0,0,-1,944,806,0,0
-273,218,0,0,0,0,0,0,0,0,0,-1,951,806,0,0
-266,218,0,0,0,0,0,0,0,0,0,-1,958,806,0,0
-259,218,0,0,0,0,0,0,0,0,0,-1,965,806,0,0
-252,218,0,0,0,0,0,0,0,0,0,-1,972,806,0,0
-245,218,0,0,0,0,0,0,0,0,0,-1,979,806,0,0
-238,218,0,0,0,0,0,0,0,0,0,-1,986,806,0,0
-231,218,0,0,0,0,0,0,0,0,0,-1,993,806,0,0
-224,218,0,0,0,0,0,0,0,0,0,-1,1000,806,0,0
-217,218,0,0,0,0,0,0,0,0,0,-1,1007,806,0,0
-210,218,0,0,0,0,0,0,0,0,0,-1,1014,806,0,0
-203,218,0,0,0,0,0,0,0,0,0,-1,1021,806,0,0
-196,218,0,0,0,0,0,0,0,0,0,-1,1028,806,0,0
-189,218,0,0,0,0,0,0,0,0,0,-1,1035,806,0,0
-182,218,0,0,0,0,0,0,0,0,0,-1,1042,806,0,0
-175,218,0,0,0,0,0,0,0,0,0,-1,1049,806,0,0
-168,218,0,0,0,0,0,0,0,0,0,-1,1056,806,0,0
-161,218,0,0,0,0,0,0,0,0,0,-1,1063,806,0,0
-154,218,0,0,0,0,0,0,0,0,0,-1,1070,806,0,0
-147,218,0,0,0,0,0,0,0,0,0,-1,1077,806,0,0
-140,218,0,0,0,0,0,0,0,0,0,-1,1084,806,0,0
-133,218,0,0,0,0,0,0,0,0,0,-1,1091,806,0,0
-126,218,0,0,0,0,0,0,0,0,0,-1,1098,806,0,0
-119,218,0,0,0,0,0,0,0,0,0,-1,1105,806,0,0
-112,218,0,0,0,0,0,0,0,0,0,-1,1112,806,0,0
-105,218,0,0,0,0,0,0,0,0,0,-1,1119,806,0,0
-98,218,0,0,0,0,0,0,0,0,0,-1,1126,806,0,0
-91,218,0,0,0,0,0,0,0,0,0,-1,1133,806,0,0
-84,218,0,0,0,0,0,0,0,0,0,-1,1140,806,0,0
-77,218,0,0,0,0,0,0,0,0,0,-1,1147,806,0,0
-70,218,0,0,0,0,0,0,0,0,0,-1,1154,806,0,0
-63,218,0,0,0,0,0,0,0,0,0,-1,1161,806,0,0
-56,218,0,0,0,0,0,0,0,0,0,-1,1168,806,0,0
-49,218,0,0,0,0,0,0,0,0,0,-1,1175,806,0,0
-42,218,0,0,0,0,0,0,0,0,0,-1,1182,806,0,0
-35,218,0,0,0,0,0,0,0,0,0,-1,1189,806,0,0
-28,218,0,0,0,0,0,0,0,0,0,-1,1196,806,0,0
-21,218,0,0,0,0,0,0,0,0,0,-1,1203,806,0,0
-14,218,0,0,0,0,0,0,0,0,0,-1,1210,806,0,0
-7,218,0,0,0,0,0,0,0,0,0,-1,1217,806,0,0
0,218,0,0,0,0,0,0,0,0,0,-1,1224,806,0,0
7,218,0,0,0,0,0,0,0,0,0,-1,1231,806,0,0
14,218,0,0,0,0,0,0,0,0,0,-1,1238,806,0,0
21,218,0,0,0,0,0,0,0,0,0,-1,1245,806,0,0
28,218,0,0,0,0,0,0,0,0,0,-1,1252,806,0,0
35,218,0,0,0,0,0,0,0,0,0,-1,1259,806,0,0
42,218,0,0,0,0,0,0,0,0,0,-1,1266,806,0,0
49,218,0,0,0,0,0,0,0,0,0,-1,1273,806,0,0
56,218,0,0,0,0,0,0,0,0,0,-1,1280,806,0,0
63,218,0,0,0,0,0,0,0,0,0,-1,1287,806,0,0
70,218,0,0,0,0,0,0,0,0,0,-1,1294,806,0,0
77,218,0,0,0,0,0,0,0,0,0,-1,1301,806,0,0
84,218,0,0,0,0,0,0,0,0,0,-1,1308,806,0,0
91,218,0,0,0,0,0,0,0,0,0,-1,1315,806,0,0
98,218,0,0,0,0,0,0,0,0,0,-1,1322,806,0,0
105,218,0,0,0,0,0,0,0,0,0,-1,1329,806,0,0
112,218,0,0,0,0,0,0,0,0,0,-1,1336,806,0,0
119,218,0,0,0,0,0,0,0,0,0,-1,1343,806,0,0
126,218,0,0,0,0,0,0,0,0,0,-1,1350,806,0,0
133,218,0,0,0,0,0,0,0,0,0,-1,1357,806,0,0
140,218,0,0,0,0,0,0,0,0,0,-1,1364,806,0,0
147,218,0,0,0,0,0,0,0,0,0,-1,1371,806,0,0
154,218,0,0,0,0,0,0,0,0,0,-1,1378,806,0,0
161,218,0,0,0,0,0,0,0,0,0,-1,1385,806,0,0
168,218,0,0,0,0,0,0,0,0,0,-1,1392,806,0,0
175,218,0,0,0,0,0,0,0,0,0,-1,1399,806,0,0
182,218,0,0,0,0,0,0,0,0,0,-1,1406,806,0,0
189,218,0,0,0,0,0,0,0,0,0,-1,1413,806,0,0
196,218,0,0,0,0,0,0,0,0,0,-1,1420,806,0,0
203,218,0,0,0,0,0,0,0,0,0,-1,1427,806,0,0
210,218,0,0,0,0,0,0,0,0,0,-1,1434,806,0,0
217,218,0,0,0,0,0,0,0,0,0,-1,1441,806,0,0
224,218,0,0,0,0,0,0,0,0,0,-1,1448,806,0,0
231,218,0,0,0,0,0,0,0,0,0,-1,1455,806,0,0
238,218,0,0,0,0,0,0,0,0,0,-1,1462,806,0,0
245,218,0,0,0,0,0,0,0,0,0,-1,1469,806,0,0
252,218,0,0,0,0,0,0,0,0,0,-1,1476,806,0,0
259,218,0,0,0,0,0,0,0,0,0,-1,1483,806,0,0
266,218,0,0,0,0,0,0,0,0,0,-1,1490,806,0,0
273,218,0,0,0,0,0,0,0,0,0,-1,1497,806,0,0
280,218,0,0,0,0,0,0,0,0,0,-1,1504,806,0,0
287,218,0,0,0,0,0,0,0,0,0,-1,1511,806,0,0
294,218,0,0,0,0,0,0,0,0,0,-1,1518,806,0,0
301,218,0,0,0,0,0,0,0,0,0,-1,1525,806,0,0
308,218,0,0,0,0,0,0,0,0,0,-1,1532,806,0,0
315,218,0,0,0,0,0,0,0,0,0,-1,1539,806,0,0
322,218,0,0,0,0,0,0,0,0,0,-1,1546,806,0,0
329,218,0,0,0,0,0,0,0,0,0,-1,1553,806,0,0
336,218,0,0,0,0,0,0,0,0,0,-1,1560,806,0,0
343,218,0,0,0,0,0,0,0,0,0,-1,1567,806,0,0
350,218,0,0,0,0,0,0,0,0,0,-1,1574,806,0,0
357,218,0,0,0,0,0,0,0,0,0,-1,1581,806,0,0
364,218,0,0,0,0,0,0,0,0,0,-1,1588,806,0,0
371,218,0,0,0,0,0,0,0,0,0,-1,1595,806,0,0
378,218,0,0,0,0,0,0,0,0,0,-1,1602,806,0,0
385,218,0,0,0,0,0,0,0,0,0,-1,1609,806,0,0
392,218,0,0,0,0,0,0,0,0,0,-1,1616,806,0,0
399,218,0,0,0,0,0,0,0,0,0,-1,1623,806,0,0
406,218,0,0,0,0,0,0,0,0,0,-1,1630,806,0,0
413,218,0,0,0,0,0,0,0,0,0,-1,1637,806,0,0
420,218,0,0,0,0,0,0,0,0,0,-1,1644,806,0,0
427,218,0,0,0,0,0,0,0,0,0,-1,1651,806,0,0
434,218,0,0,0,0,0,0,0,0,0,-1,1658,806,0,0
441,218,0,0,0,0,0,0,0,0,0,-1,1665,806,0,0
448,218,0,0,0,0,0,0,0,0,0,-1,1672,806,0,0
455,218,0,0,0,0,0,0,0,0,0,-1,1679,806,0,0
462,218,0,0,0,0,0,0,0,0,0,-1,1686,806,0,0
469,218,0,0,0,0,0,0,0,0,0,-1,1693,806,0,0
476,218,0,0,0,0,0,0,0,0,0,-1,1700,806,0,0
483,218,0,0,0,0,0,0,0,0,0,-1,1707,806,0,0
490,218,0,0,0,0,0,0,0,0,0,-1,1714,806,0,0
497,218,0,0,0,0,0,0,0,0,0,-1,1721,806,0,0
504,218,0,0,0,0,0,0,0,0,0,-1,1728,806,0,0
511,218,0,0,0,0,0,0,0,0,0,-1,1735,806,0,0
518,218,0,0,0,0,0,0,0,0,0,-1,1742,806,0,0
525,218,0,0,0,0,0,0,0,0,0,-1,1749,806,0,0
532,218,0,0,0,0,0,0,0,0,0,-1,1756,806,0,0
539,218,0,0,0,0,0,0,0,0,0,-1,1763,806,0,0
546,218,0,0,0,0,0,0,0,0,0,-1,1770,806,0,0
553,218,0,0,0,0,0,0,0,0,0,-1,1777,806,0,0
560,218,0,0,0,0,0,0,0,0,0,-1,1784,806,0,0
567,218,0,0,0,0,0,0,0,0,0,-1,1791,806,0,0
574,218,0,0,0,0,0,0,0,0,0,-1,1798,806,0,0
581,218,0,0,0,0,0,0,0,0,0,-1,1805,806,0,0
588,218,0,0,0,0,0,0,0,0,0,-1,1812,806,0,0
595,218,24.3307,3.05811,0.00749772,-0.00192403,-0.0036734,0.00876064,-0.00318695,-0.331142,0.00714377,0.0360987,1819,806,24.3307,-3.05809
602,218,24.3292,2.87494,0.00608399,0.0012791,-0.00170924,0.00662997,0.000733117,-0.309187,0.00419701,0.0329617,1826,806,24.3292,-2.87496
609,218,24.3026,2.86603,0.00402826,0.00274111,-0.000830299,0.0044352,0.00233417,-0.455709,0.00256184,0.0309717,1833,806,24.3026,-2.86602
616,218,24.2849,2.86243,0.00188773,0.00327379,-0.000559235,0.00347129,0.00169023,-1.23132,0.00200438,0.0328163,1840,806,24.2849,-2.86242
623,218,24.3572,2.84735,-2.73652e-06,0.0032776,-0.000553442,0.00336846,-9.3594e-05,-1.40808,0.00227748,0.0388406,1847,806,24.3572,-2.84734
630,218,24.4409,2.91406,-0.00137454,0.00284169,-0.000688075,0.00295114,-0.00148399,-1.41305,0.0026069,0.041448,1854,806,24.441,-2.91408
637,218,24.334,2.92822,-0.00229617,0.00222843,-0.000827832,0.00237514,-0.00244287,-1.3954,0.00278177,0.0429228,1861,806,24.334,-2.92823
644,218,24.2581,3.04669,0,0,0,0,0,0,0,-1,1868,806,24.258,-3.04669
651,218,18.7246,1.46179,0,0,0,0,0,0,0,-1,1875,806,18.7246,-1.46177
658,218,18.5608,1.3974,0,0,0,0,0,0,0,-1,1882,806,18.5607,-1.39743
665,218,18.4753,1.58459,-0.00311829,9.56929e-05,-0.00139447,0.000616366,-0.00363896,-1.21344,0.00265538,0.0327056,1889,806,18.4753,-1.58458
672,218,18.3739,1.82416,-0.00299343,-0.000563508,-0.00136208,4.67454e-05,-0.00360368,-1.14958,0.00241819,0.012153,1896,806,18.3738,-1.82414
679,218,18.3777,2.11536,-0.00214821,-0.000779877,-0.00131946,2.22485e-05,-0.00295034,-1.02457,0.00197435,0.0108829,1903,806,18.3777,-2.11534
686,218,18.3926,2.3645,-0.000427875,-0.000508238,-0.000883985,0.000416842,-0.00135295,-0.762686,0.00106838,0.0109726,1910,806,18.3925,-2.3645
693,218,18.3761,2.6051,0.000734019,-0.000570302,-0.000950669,0.00123472,-0.001071,-0.484764,0.00133233,0.0112221,1917,806,18.3762,-2.60511
700,218,18.3425,2.8645,0.00213024,-0.000270735,-0.00102365,0.00250742,-0.000647912,-0.353028,0.00192429,0.00908666,1924,806,18.3426,-2.8645
707,218,18.3269,3.14185,0.00399141,0.000445283,-0.000719376,0.00413179,0.000304905,-0.192716,0.00265872,0.00736095,1931,806,18.3269,-3.14185
714,218,18.3486,3.40637,0.00648483,0.000716534,-0.000113783,0.00648707,0.00071429,-0.0197153,0.00410738,0.0101382,1938,806,18.3486,-3.40638
721,218,18.3887,3.646,0.00969745,0.00104563,0.00101321,0.00981453,0.000928558,0.115035,0.00625651,0.012779,1945,806,18.3887,-3.64599
728,218,18.4065,3.89764,0.0133835,0.0011386,0.00209724,0.0137327,0.000789357,0.165011,0.00890369,0.018035,1952,806,18.4065,-3.89762
735,218,18.5168,4.07227,0.0179732,0.00100659,0.00390174,0.0188274,0.000152336,0.215541,0.0125011,0.0333497,1959,806,18.5169,-4.07225
742,218,18.7405,4.21649,0.0236458,0.000576579,0.00686236,0.0255328,-0.00131041,0.268344,0.017475,0.0499887,1966,806,18.7405,-4.21647
749,218,18.7599,3.49677,0.0304252,-0.000231292,0.0114798,0.0342474,-0.00405352,0.321408,0.0242957,0.0498087,1973,806,18.7599,-3.49674
756,218,18.705,3.4325,0,0,0,0,0,0,0,-1,1980,806,18.705,-3.43248
763,218,19.9847,4.58051,0,0,0,0,0,0,0,-1,1987,806,19.9848,-4.58051
770,218,0,0,0,0,0,0,0,0,0,-1,1994,806,0,0
777,218,0,0,0,0,0,0,0,0,0,-1,2001,806,0,0
784,218,0,0,0,0,0,0,0,0,0,-1,2008,806,0,0
791,218,0,0,0,0,0,0,0,0,0,-1,2015,806,0,0
798,218,0,0,0,0,0,0,0,0,0,-1,2022,806,0,0
805,218,0,0,0,0,0,0,0,0,0,-1,2029,806,0,0
812,218,0,0,0,0,0,0,0,0,0,-1,2036,806,0,0
-700,211,0,0,0,0,0,0,0,0,0,-1,524,813,0,0
-693,211,0,0,0,0,0,0,0,0,0,-1,531,813,0,0
-686,211,0,0,0,0,0,0,0,0,0,-1,538,813,0,0
-679,211,0,0,0,0,0,0,0,0,0,-1,545,813,0,0
-672,211,0,0,0,0,0,0,0,0,0,-1,552,813,0,0
-665,211,0,0,0,0,0,0,0,0,0,-1,559,813,0,0
-658,211,0,0,0,0,0,0,0,0,0,-1,566,813,0,0
-651,211,-11.5802,4.14166,0,0,0,0,0,0,0,-1,573,813,-11.5802,-4.14163
-644,211,-12.1169,3.71906,0,0,0,0,0,0,0,-1,580,813,-12.1169,-3.71908
-637,211,-9.83783,4.49225,0,0,0,0,0,0,0,-1,587,813,-9.8378,-4.49225
-630,211,-10.4338,3.97003,0,0,0,0,0,0,0,-1,594,813,-10.4337,-3.97004
-623,211,-12.6863,2.36084,0,0,0,0,0,0,0,-1,601,813,-12.6864,-2.36084
-616,211,-12.4891,2.05054,0.0197246,0.0180209,-0.00127692,0.0204077,0.0173377,-0.491245,0.012706,0.0498509,608,813,-12.4891,-2.05056
-609,211,-12.0198,1.8327,0.0150487,0.015327,-0.00151858,0.0167128,0.0136629,-0.831094,0.0102772,0.0389041,615,813,-12.0198,-1.83271
-602,211,-12.1021,1.65338,0.0111895,0.012408,-0.00177877,0.013679,0.00991852,-0.950394,0.00815996,0.0195206,622,813,-12.1021,-1.65338
-595,211,-12.1508,1.47644,0.00816098,0.00917155,-0.00174635,0.0104842,0.00684828,-0.926221,0.00614706,0.00995513,629,813,-12.1508,-1.47644
-588,211,-12.136,1.25458,0.00574055,0.00648345,-0.00131786,0.0074812,0.00474279,-0.922764,0.00437064,0.00992397,636,813,-12.1361,-1.25457
-581,211,-12.1363,1.02209,0.00389603,0.00408426,-0.000802211,0.00479786,0.00318244,-0.84379,0.00281886,0.0110297,643,813,-12.1363,-1.02208
-574,211,-12.1507,0.772156,0.00221816,0.00185992,-0.000332533,0.00241675,0.00166133,-0.53835,0.00142761,0.0132055,650,813,-12.1507,-0.772171
-567,211,-12.1502,0.537842,0.000969507,0.000430612,7.72797e-05,0.00098037,0.000419749,0.139655,0.000567961,0.019581,657,813,-12.1502,-0.537821
-560,211,-12.1497,0.321045,-0.000313309,-0.00111049,0.000429659,-0.000125827,-0.00129797,0.411447,0.000826568,0.0216605,664,813,-12.1497,-0.321048
-553,211,-12.1127,0.0901489,-0.000949171,-0.0027181,0.000723446,-0.000690983,-0.00297628,0.342795,0.00179866,0.0193314,671,813,-12.1127,-0.0901453
-546,211,-12.1967,-0.0739746,-0.00133754,-0.00452126,0.000732394,-0.00117714,-0.00468166,0.215605,0.00281209,0.0248854,678,813,-12.1967,0.0739886
-539,211,-12.1881,-0.363708,-0.00160529,-0.00590427,0.000546538,-0.0015369,-0.00597266,0.124494,0.00358115,0.0187996,685,813,-12.1881,0.363689
-532,211,-12.2305,-0.523132,0,0,0,0,0,0,0,-1,692,813,-12.2305,0.523148
-525,211,-14.3009,2.3233,0,0,0,0,0,0,0,-1,699,813,-14.3009,-2.3233
-518,211,-17.2753,0.588257,0,0,0,0,0,0,0,-1,706,813,-17.2753,-0.588267
-511,211,-17.4117,0.440979,0,0,0,0,0,0,0,-1,713,813,-17.4117,-0.44095
-504,211,-17.5482,0.29364,0,0,0,0,0,0,0,-1,720,813,-17.5481,-0.293634
-497,211,-17.125,0.822876,0.00214851,-0.00485626,-0.00331026,0.00346531,-0.00617305,-0.378602,0.00563743,0.0483385,727,813,-17.125,-0.822895
-490,211,-17.0062,0.921631,0.00346437,-0.00300102,-0.00434453,0.00564695,-0.00518361,-0.465546,0.00625493,0.0341474,734,813,-17.0062,-0.921628
-483,211,-16.9393,0.876038,0.00521438,-0.000189389,-0.00574657,0.00886255,-0.00383756,-0.565647,0.0075213,0.030279,741,813,-16.9393,-0.876013
-476,211,-16.8906,0.792114,0.00720304,0.00352352,-0.00746891,0.0130554,-0.00232888,-0.664641,0.0095748,0.0359953,748,813,-16.8906,-0.792144
-469,211,0,0,0,0,0,0,0,0,0,-1,755,813,0,0
-462,211,0,0,0,0,0,0,0,0,0,-1,762,813,0,0
-455,211,0,0,0,0,0,0,0,0,0,-1,769,813,0,0
-448,211,0,0,0,0,0,0,0,0,0,-1,776,813,0,0
-441,211,0,0,0,0,0,0,0,0,0,-1,783,813,0,0
-434,211,0,0,0,0,0,0,0,0,0,-1,790,813,0,0
-427,211,0,0,0,0,0,0,0,0,0,-1,797,813,0,0
-420,211,0,0,0,0,0,0,0,0,0,-1,804,813,0,0
-413,211,0,0,0,0,0,0,0,0,0,-1,811,813,0,0
-406,211,0,0,0,0,0,0,0,0,0,-1,818,813,0,0
-399,211,0,0,0,0,0,0,0,0,0,-1,825,813,0,0
-392,211,0,0,0,0,0,0,0,0,0,-1,832,813,0,0
-385,211,0,0,0,0,0,0,0,0,0,-1,839,813,0,0
-378,211,0,0,0,0,0,0,0,0,0,-1,846,813,0,0
-371,211,0,0,0,0,0,0,0,0,0,-1,853,813,0,0
-364,211,0,0,0,0,0,0,0,0,0,-1,860,813,0,0
-357,211,0,0,0,0,0,0,0,0,0,-1,867,813,0,0
-350,211,0,0,0,0,0,0,0,0,0,-1,874,813,0,0
-343,211,0,0,0,0,0,0,0,0,0,-1,881,813,0,0
-336,211,0,0,0,0,0,0,0,0,0,-1,888,813,0,0
-329,211,0,0,0,0,0,0,0,0,0,-1,895,813,0,0
-322,211,0,0,0,0,0,0,0,0,0,-1,902,813,0,0
-315,211,0,0,0,0,0,0,0,0,0,-1,909,813,0,0
-308,211,0,0,0,0,0,0,0,0,0,-1,916,813,0,0
-301,211,0,0,0,0,0,0,0,0,0,-1,923,813,0,0
-294,211,0,0,0,0,0,0,0,0,0,-1,930,813,0,0
-287,211,0,0,0,0,0,0,0,0,0,-1,937,813,0,0
-280,211,0,0,0,0,0,0,0,0,0,-1,944,813,0,0
-273,211,0,0,0,0,0,0,0,0,0,-1,951,813,0,0
-266,211,0,0,0,0,0,0,0,0,0,-1,958,813,0,0
-259,211,0,0,0,0,0,0,0,0,0,-1,965,813,0,0
-252,211,0,0,0,0,0,0,0,0,0,-1,972,813,0,0
-245,211,0,0,0,0,0,0,0,0,0,-1,979,813,0,0
-238,211,0,0,0,0,0,0,0,0,0,-1,986,813,0,0
-231,211,0,0,0,0,0,0,0,0,0,-1,993,813,0,0
-224,211,0,0,0,0,0,0,0,0,0,-1,1000,813,0,0
-217,211,0,0,0,0,0,0,0,0,0,-1,1007,813,0,0
-210,211,0,0,0,0,0,0,0,0,0,-1,1014,813,0,0
-203,211,0,0,0,0,0,0,0,0,0,-1,1021,813,0,0
-196,211,0,0,0,0,0,0,0,0,0,-1,1028,813,0,0
-189,211,0,0,0,0,0,0,0,0,0,-1,1035,813,0,0
-182,211,0,0,0,0,0,0,0,0,0,-1,1042,813,0,0
-175,211,0,0,0,0,0,0,0,0,0,-1,1049,813,0,0
-168,211,0,0,0,0,0,0,0,0,0,-1,1056,813,0,0
-161,211,0,0,0,0,0,0,0,0,0,-1,1063,813,0,0
-154,211,0,0,0,0,0,0,0,0,0,-1,1070,813,0,0
-147,211,0,0,0,0,0,0,0,0,0,-1,1077,813,0,0
-140,211,0,0,0,0,0,0,0,0,0,-1,1084,813,0,0
-133,211,0,0,0,0,0,0,0,0,0,-1,1091,813,0,0
-126,211,0,0,0,0,0,0,0,0,0,-1,1098,813,0,0
-119,211,0,0,0,0,0,0,0,0,0,-1,1105,813,0,0
-112,211,0,0,0,0,0,0,0,0,0,-1,1112,813,0,0
-105,211,0,0,0,0,0,0,0,0,0,-1,1119,813,0,0
-98,211,0,0,0,0,0,0,0,0,0,-1,1126,813,0,0
-91,211,0,0,0,0,0,0,0,0,0,-1,1133,813,0,0
-84,211,0,0,0,0,0,0,0,0,0,-1,1140,813,0,0
-77,211,0,0,0,0,0,0,0,0,0,-1,1147,813,0,0
-70,211,0,0,0,0,0,0,0,0,0,-1,1154,813,0,0
-63,211,0,0,0,0,0,0,0,0,0,-1,1161,813,0,0
-56,211,0,0,0,0,0,0,0,0,0,-1,1168,813,0,0
-49,211,0,0,0,0,0,0,0,0,0,-1,1175,813,0,0
-42,211,0,0,0,0,0,0,0,0,0,-1,1182,813,0,0
-35,211,0,0,0,0,0,0,0,0,0,-1,1189,813,0,0
-28,211,0,0,0,0,0,0,0,0,0,-1,1196,813,0,0
-21,211,0,0,0,0,0,0,0,0,0,-1,1203,813,0,0
-14,211,0,0,0,0,0,0,0,0,0,-1,1210,813,0,0
-7,211,0,0,0,0,0,0,0,0,0,-1,1217,813,0,0
0,211,0,0,0,0,0,0,0,0,0,-1,1224,813,0,0
7,211,0,0,0,0,0,0,0,0,0,-1,1231,813,0,0
14,211,0,0,0,0,0,0,0,0,0,-1,1238,813,0,0
21,211,0,0,0,0,0,0,0,0,0,-1,1245,813,0,0
28,211,0,0,0,0,0,0,0,0,0,-1,1252,813,0,0
35,211,0,0,0,0,0,0,0,0,0,-1,1259,813,0,0
42,211,0,0,0,0,0,0,0,0,0,-1,1266,813,0,0
49,211,0,0,0,0,0,0,0,0,0,-1,1273,813,0,0
56,211,0,0,0,0,0,0,0,0,0,-1,1280,813,0,0
63,211,0,0,0,0,0,0,0,0,0,-1,1287,813,0,0
70,211,0,0,0,0,0,0,0,0,0,-1,1294,813,0,0
77,211,0,0,0,0,0,0,0,0,0,-1,1301,813,0,0
84,211,0,0,0,0,0,0,0,0,0,-1,1308,813,0,0
91,211,0,0,0,0,0,0,0,0,0,-1,1315,813,0,0
98,211,0,0,0,0,0,0,0,0,0,-1,1322,813,0,0
105,211,0,0,0,0,0,0,0,0,0,-1,1329,813,0,0
112,211,0,0,0,0,0,0,0,0,0,-1,1336,813,0,0
119,211,0,0,0,0,0,0,0,0,0,-1,1343,813,0,0
126,211,0,0,0,0,0,0,0,0,0,-1,1350,813,0,0
133,211,0,0,0,0,0,0,0,0,0,-1,1357,813,0,0
140,211,0,0,0,0,0,0,0,0,0,-1,1364,813,0,0
147,211,0,0,0,0,0,0,0,0,0,-1,1371,813,0,0
154,211,0,0,0,0,0,0,0,0,0,-1,1378,813,0,0
161,211,0,0,0,0,0,0,0,0,0,-1,1385,813,0,0
168,211,0,0,0,0,0,0,0,0,0,-1,1392,813,0,0
175,211,0,0,0,0,0,0,0,0,0,-1,1399,813,0,0
182,211,0,0,0,0,0,0,0,0,0,-1,1406,813,0,0
189,211,0,0,0,0,0,0,0,0,0,-1,1413,813,0,0
196,211,0,0,0,0,0,0,0,0,0,-1,1420,813,0,0
203,211,0,0,0,0,0,0,0,0,0,-1,1427,813,0,0
210,211,0,0,0,0,0,0,0,0,0,-1,1434,813,0,0
217,211,0,0,0,0,0,0,0,0,0,-1,1441,813,0,0
224,211,0,0,0,0,0,0,0,0,0,-1,1448,813,0,0
231,211,0,0,0,0,0,0,0,0,0,-1,1455,813,0,0
238,211,0,0,0,0,0,0,0,0,0,-1,1462,813,0,0
245,211,0,0,0,0,0,0,0,0,0,-1,1469,813,0,0
252,211,0,0,0,0,0,0,0,0,0,-1,1476,813,0,0
259,211,0,0,0,0,0,0,0,0,0,-1,1483,813,0,0
266,211,0,0,0,0,0,0,0,0,0,-1,1490,813,0,0
273,211,0,0,0,0,0,0,0,0,0,-1,1497,813,0,0
280,211,0,0,0,0,0,0,0,0,0,-1,1504,813,0,0
287,211,0,0,0,0,0,0,0,0,0,-1,1511,813,0,0
294,211,0,0,0,0,0,0,0,0,0,-1,1518,813,0,0
301,211,0,0,0,0,0,0,0,0,0,-1,1525,813,0,0
308,211,0,0,0,0,0,0,0,0,0,-1,1532,813,0,0
315,211,0,0,0,0,0,0,0,0,0,-1,1539,813,0,0
322,211,0,0,0,0,0,0,0,0,0,-1,1546,813,0,0
329,211,0,0,0,0,0,0,0,0,0,-1,1553,813,0,0
336,211,0,0,0,0,0,0,0,0,0,-1,1560,813,0,0
343,211,0,0,0,0,0,0,0,0,0,-1,1567,813,0,0
350,211,0,0,0,0,0,0,0,0,0,-1,1574,813,0,0
357,211,0,0,0,0,0,0,0,0,0,-1,1581,813,0,0
364,211,0,0,0,0,0,0,0,0,0,-1,1588,813,0,0
371,211,0,0,0,0,0,0,0,0,0,-1,1595,813,0,0
378,211,0,0,0,0,0,0,0,0,0,-1,1602,813,0,0
385,211,0,0,0,0,0,0,0,0,0,-1,1609,813,0,0
392,211,0,0,0,0,0,0,0,0,0,-1,1616,813,0,0
399,211,0,0,0,0,0,0,0,0,0,-1,1623,813,0,0
406,211,0,0,0,0,0,0,0,0,0,-1,1630,813,0,0
413,211,0,0,0,0,0,0,0,0,0,-1,1637,813,0,0
420,211,0,0,0,0,0,0,0,0,0,-1,1644,813,0,0
427,211,0,0,0,0,0,0,0,0,0,-1,1651,813,0,0
434,211,0,0,0,0,0,0,0,0,0,-1,1658,813,0,0
441,211,0,0,0,0,0,0,0,0,0,-1,1665,813,0,0
448,211,0,0,0,0,0,0,0,0,0,-1,1672,813,0,0
455,211,0,0,0,0,0,0,0,0,0,-1,1679,813,0,0
462,211,0,0,0,0,0,0,0,0,0,-1,1686,813,0,0
469,211,0,0,0,0,0,0,0,0,0,-1,1693,813,0,0
476,211,0,0,0,0,0,0,0,0,0,-1,1700,813,0,0
483,211,0,0,0,0,0,0,0,0,0,-1,1707,813,0,0
490,211,0,0,0,0,0,0,0,0,0,-1,1714,813,0,0
497,211,0,0,0,0,0,0,0,0,0,-1,1721,813,0,0
504,211,0,0,0,0,0,0,0,0,0,-1,1728,813,0,0
511,211,0,0,0,0,0,0,0,0,0,-1,1735,813,0,0
518,211,0,0,0,0,0,0,0,0,0,-1,1742,813,0,0
525,211,0,0,0,0,0,0,0,0,0,-1,1749,813,0,0
532,211,0,0,0,0,0,0,0,0,0,-1,1756,813,0,0
539,211,0,0,0,0,0,0,0,0,0,-1,1763,813,0,0
546,211,0,0,0,0,0,0,0,0,0,-1,1770,813,0,0
553,211,0,0,0,0,0,0,0,0,0,-1,1777,813,0,0
560,211,0,0,0,0,0,0,0,0,0,-1,1784,813,0,0
567,211,0,0,0,0,0,0,0,0,0,-1,1791,813,0,0
574,211,0,0,0,0,0,0,0,0,0,-1,1798,813,0,0
581,211,0,0,0,0,0,0,0,0,0,-1,1805,813,0,0
588,211,0,0,0,0,0,0,0,0,0,-1,1812,813,0,0
595,211,24.3866,2.95032,0.0064353,-0.00258657,-0.00403627,0.00797746,-0.00412873,-0.36496,0.00710628,0.0364906,1819,813,24.3866,-2.95034
602,211,24.3311,2.92194,0.005401,0.000770137,-0.0018633,0.00605762,0.000113514,-0.33881,0.00400111,0.0362507,1826,813,24.331,-2.92191
609,211,24.2972,3.01794,0.00353286,0.00231361,-0.000859831,0.00397725,0.00186922,-0.477025,0.00229765,0.0377021,1833,813,24.2972,-3.01796
616,211,24.3312,2.948,0.00159543,0.00290997,-0.00051474,0.00308755,0.00141786,-1.23861,0.00178457,0.0318189,1840,813,24.3312,-2.94802
623,211,24.329,2.90558,-0.000197463,0.00297963,-0.000476691,0.00304961,-0.000267444,-1.42503,0.00212783,0.0337366,1847,813,24.329,-2.90555
630,211,24.3068,2.90723,-0.00150214,0.00260087,-0.000600241,0.00268687,-0.00158815,-1.42848,0.00249521,0.0379686,1854,813,24.3068,-2.90721
637,211,24.33,2.90277,-0.00235596,0.00202576,-0.000748573,0.00215011,-0.00248032,-1.40617,0.00267565,0.0405191,1861,813,24.3299,-2.90278
644,211,24.2604,2.97949,-0.00286196,0.00144786,-0.000888102,0.00162369,-0.00303779,-1.37534,0.00273227,0.0413596,1868,813,24.2603,-2.97948
651,211,23.5781,2.72089,-0.0030048,0.000932458,-0.000982944,0.00116421,-0.00323655,-1.33925,0.00263301,0.0430375,1875,813,23.5782,-2.72087
658,211,22.9174,2.63885,0,0,0,0,0,0,0,-1,1882,813,22.9174,-2.63883
665,211,18.6553,1.68323,0,0,0,0,0,0,0,-1,1889,813,18.6553,-1.6832
672,211,18.5791,1.85992,-0.00289857,-0.000540033,-0.00128458,2.44901e-05,-0.00346309,-1.15674,0.00231694,0.0200852,1896,813,18.5791,-1.8599
679,211,18.6251,2.09637,-0.00219693,-0.000744283,-0.00125949,-1.66909e-05,-0.00292452,-1.04695,0.00194414,0.0124734,1903,813,18.6251,-2.09637
686,211,18.6405,2.37421,-0.000743483,-0.000561931,-0.000944107,0.000295754,-0.00160117,-0.833326,0.00117847,0.0110733,1910,813,18.6405,-2.37418
693,211,18.6254,2.60535,0.000259428,-0.000704368,-0.00109115,0.000970356,-0.0014153,-0.577457,0.00138532,0.0112887,1917,813,18.6253,-2.60534
700,211,18.5763,2.85406,0.00150206,-0.000533403,-0.0012276,0.00207894,-0.00111028,-0.439297,0.00186939,0.0131125,1924,813,18.5763,-2.85404
707,211,18.5853,3.16101,0.00322057,8.32795e-05,-0.000942074,0.00348172,-0.000177871,-0.270418,0.00238265,0.0195007,1931,813,18.5853,-3.161
714,211,18.6179,3.44238,0.00550041,0.000293416,-0.000367336,0.00552619,0.00026763,-0.070084,0.00359824,0.0221351,1938,813,18.6179,-3.44239
721,211,18.6554,3.62598,0.00852971,0.000585973,0.000731292,0.00859647,0.000519213,0.0910393,0.00556599,0.0172821,1945,813,18.6554,-3.62595
728,211,18.6643,3.84869,0.0119528,0.000595816,0.00177063,0.0122225,0.000326165,0.151129,0.00804182,0.0157432,1952,813,18.6644,-3.84868
735,211,18.6774,4.06738,0.0161735,0.000431906,0.00348469,0.0169104,-0.000304996,0.208398,0.0113766,0.0250315,1959,813,18.6773,-4.06737
742,211,18.8923,3.80597,0.0214016,8.61208e-08,0.00625858,0.0230975,-0.00169577,0.264611,0.0159936,0.0473255,1966,813,18.8924,-3.80594
749,211,18.9067,3.54138,0.0277003,-0.000713961,0.0105521,0.0311903,-0.00420399,0.319417,0.0223272,0.0482568,1973,813,18.9067,-3.54139
756,211,18.9698,3.29413,0,0,0,0,0,0,0,-1,1980,813,18.9699,-3.29412
763,211,19.9512,4.68042,0,0,0,0,0,0,0,-1,1987,813,19.9512,-4.68043
770,211,20.5156,5.76208,0,0,0,0,0,0,0,-1,1994,813,20.5156,-5.76208
777,211,0,0,0,0,0,0,0,0,0,-1,2001,813,0,0
784,211,0,0,0,0,0,0,0,0,0,-1,2008,813,0,0
791,211,0,0,0,0,0,0,0,0,0,-1,2015,813,0,0
798,211,0,0,0,0,0,0,0,0,0,-1,2022,813,0,0
805,211,0,0,0,0,0,0,0,0,0,-1,2029,813,0,0
812,211,0,0,0,0,0,0,0,0,0,-1,2036,813,0,0
-700,204,0,0,0,0,0,0,0,0,0,-1,524,820,0,0
-693,204,0,0,0,0,0,0,0,0,0,-1,531,820,0,0
-686,204,0,0,0,0,0,0,0,0,0,-1,538,820,0,0
-679,204,0,0,0,0,0,0,0,0,0,-1,545,820,0,0
-672,204,0,0,0,0,0,0,0,0,0,-1,552,820,0,0
-665,204,0,0,0,0,0,0,0,0,0,-1,559,820,0,0
-658,204,0,0,0,0,0,0,0,0,0,-1,566,820,0,0
-651,204,-11.6871,3.62183,0,0,0,0,0,0,0,-1,573,820,-11.6871,-3.6218
-644,204,-11.7249,3.37152,0,0,0,0,0,0,0,-1,580,820,-11.7249,-3.37155
-637,204,-10.5914,4.7713,0,0,0,0,0,0,0,-1,587,820,-10.5914,-4.7713
-630,204,-11.1718,4.04205,0,0,0,0,0,0,0,-1,594,820,-11.1718,-4.04207
-623,204,-13.0564,2.26569,0,0,0,0,0,0,0,-1,601,820,-13.0564,-2.26569
-616,204,-12.7325,2.18878,0.0119814,0.0190773,-0.00310497,0.0202441,0.0108146,-1.21134,0.0116971,0.0464155,608,820,-12.7325,-2.18876
-609,204,-12.2579,1.89594,0.00869055,0.0160035,-0.00262313,0.0168471,0.00784695,-1.25964,0.00973426,0.0350339,615,820,-12.2579,-1.89591
-602,204,-12.353,1.67126,0.00609569,0.0127214,-0.00237806,0.0134866,0.00533054,-1.2595,0.00784322,0.0144514,622,820,-12.3531,-1.67125
-595,204,-12.3789,1.47021,0.0043023,0.00910842,-0.00196619,0.00981029,0.00360043,-1.22793,0.00573037,0.0133152,629,820,-12.3789,-1.47019
-588,204,-12.3873,1.23572,0.00296765,0.00613741,-0.0012504,0.00657128,0.00253378,-1.23681,0.0038269,0.0118279,636,820,-12.3874,-1.23573
-581,204,-12.3743,0.999817,0.00207758,0.00355583,-0.000559731,0.00374385,0.00188956,-1.24672,0.00216155,0.0122311,643,820,-12.3743,-0.999821
-574,204,-12.3853,0.782227,0.00120651,0.00126148,3.18364e-06,0.00126166,0.00120633,1.51313,0.000823283,0.0139032,650,820,-12.3853,-0.782227
-567,204,-12.3786,0.554321,0.000500311,-1.75916e-05,0.000333013,0.000663205,-0.000180485,0.454931,0.000512993,0.0133354,657,820,-12.3786,-0.554331
-560,204,-12.3904,0.303101,-0.000354243,-0.00140291,0.000531472,-0.000131992,-0.00162516,0.396079,0.00104224,0.0128922,664,820,-12.3904,-0.303097
-553,204,-12.376,0.0969849,-0.000708658,-0.00286257,0.00072786,-0.000485762,-0.00308546,0.297167,0.00191569,0.0111352,671,820,-12.376,-0.0969942
-546,204,-12.3878,-0.0595703,-0.000929245,-0.00450419,0.000650546,-0.000814543,-0.0046189,0.174523,0.00284686,0.0171674,678,820,-12.3878,0.0595819
-539,204,-12.4146,-0.315796,-0.00109797,-0.00580064,0.000424281,-0.00106,-0.00583861,0.0892609,0.0035916,0.031499,685,820,-12.4146,0.315805
-532,204,-12.3938,-0.660095,0,0,0,0,0,0,0,-1,692,820,-12.3938,0.660077
-525,204,-16.2388,1.12921,0,0,0,0,0,0,0,-1,699,820,-16.2388,-1.12922
-518,204,-17.043,0.967896,0,0,0,0,0,0,0,-1,706,820,-17.0429,-0.967911
-511,204,-17.1991,0.658752,0,0,0,0,0,0,0,-1,713,820,-17.1991,-0.658763
-504,204,-17.2988,0.527222,0,0,0,0,0,0,0,-1,720,820,-17.2988,-0.527194
-497,204,-16.9312,1.03247,0.00258646,-0.00640272,-0.00354951,0.00381903,-0.00763529,-0.334223,0.00673439,0.0399791,727,820,-16.9312,-1.0325
-490,204,-16.9999,0.930969,0.00399639,-0.0048408,-0.00454048,0.0059134,-0.00675782,-0.399501,0.00732115,0.033485,734,820,-16.9999,-0.930956
-483,204,-16.9966,0.876282,0.0059296,-0.00222605,-0.00574499,0.00889688,-0.00519333,-0.47676,0.00822813,0.0365051,741,820,-16.9966,-0.876292
-476,204,0,0,0,0,0,0,0,0,0,-1,748,820,0,0
-469,204,0,0,0,0,0,0,0,0,0,-1,755,820,0,0
-462,204,0,0,0,0,0,0,0,0,0,-1,762,820,0,0
-455,204,0,0,0,0,0,0,0,0,0,-1,769,820,0,0
-448,204,0,0,0,0,0,0,0,0,0,-1,776,820,0,0
-441,204,0,0,0,0,0,0,0,0,0,-1,783,820,0,0
-434,204,0,0,0,0,0,0,0,0,0,-1,790,820,0,0
-427,204,0,0,0,0,0,0,0,0,0,-1,797,820,0,0
-420,204,0,0,0,0,0,0,0,0,0,-1,804,820,0,0
-413,204,0,0,0,0,0,0,0,0,0,-1,811,820,0,0
-406,204,0,0,0,0,0,0,0,0,0,-1,818,820,0,0
-399,204,0,0,0,0,0,0,0,0,0,-1,825,820,0,0
-392,204,0,0,0,0,0,0,0,0,0,-1,832,820,0,0
-385,204,0,0,0,0,0,0,0,0,0,-1,839,820,0,0
-378,204,0,0,0,0,0,0,0,0,0,-1,846,820,0,0
-371,204,0,0,0,0,0,0,0,0,0,-1,853,820,0,0
-364,204,0,0,0,0,0,0,0,0,0,-1,860,820,0,0
-357,204,0,0,0,0,0,0,0,0,0,-1,867,820,0,0
-350,204,0,0,0,0,0,0,0,0,0,-1,874,820,0,0
-343,204,0,0,0,0,0,0,0,0,0,-1,881,820,0,0
-336,204,0,0,0,0,0,0,0,0,0,-1,888,820,0,0
-329,204,0,0,0,0,0,0,0,0,0,-1,895,820,0,0
-322,204,0,0,0,0,0,0,0,0,0,-1,902,820,0,0
-315,204,0,0,0,0,0,0,0,0,0,-1,909,820,0,0
-308,204,0,0,0,0,0,0,0,0,0,-1,916,820,0,0
-301,204,0,0,0,0,0,0,0,0,0,-1,923,820,0,0
-294,204,0,0,0,0,0,0,0,0,0,-1,930,820,0,0
-287,204,0,0,0,0,0,0,0,0,0,-1,937,820,0,0
-280,204,0,0,0,0,0,0,0,0,0,-1,944,820,0,0
-273,204,0,0,0,0,0,0,0,0,0,-1,951,820,0,0
-266,204,0,0,0,0,0,0,0,0,0,-1,958,820,0,0
-259,204,0,0,0,0,0,0,0,0,0,-1,965,820,0,0
-252,204,0,0,0,0,0,0,0,0,0,-1,972,820,0,0
-245,204,0,0,0,0,0,0,0,0,0,-1,979,820,0,0
-238,204,0,0,0,0,0,0,0,0,0,-1,986,820,0,0
-231,204,0,0,0,0,0,0,0,0,0,-1,993,820,0,0
-224,204,0,0,0,0,0,0,0,0,0,-1,1000,820,0,0
-217,204,0,0,0,0,0,0,0,0,0,-1,1007,820,0,0
-210,204,0,0,0,0,0,0,0,0,0,-1,1014,820,0,0
-203,204,0,0,0,0,0,0,0,0,0,-1,1021,820,0,0
-196,204,0,0,0,0,0,0,0,0,0,-1,1028,820,0,0
-189,204,0,0,0,0,0,0,0,0,0,-1,1035,820,0,0
-182,204,0,0,0,0,0,0,0,0,0,-1,1042,820,0,0
-175,204,0,0,0,0,0,0,0,0,0,-1,1049,820,0,0
-168,204,0,0,0,0,0,0,0,0,0,-1,1056,820,0,0
-161,204,0,0,0,0,0,0,0,0,0,-1,1063,820,0,0
-154,204,0,0,0,0,0,0,0,0,0,-1,1070,820,0,0
-147,204,0,0,0,0,0,0,0,0,0,-1,1077,820,0,0
-140,204,0,0,0,0,0,0,0,0,0,-1,1084,820,0,0
-133,204,0,0,0,0,0,0,0,0,0,-1,1091,820,0,0
-126,204,0,0,0,0,0,0,0,0,0,-1,1098,820,0,0
-119,204,0,0,0,0,0,0,0,0,0,-1,1105,820,0,0
-112,204,0,0,0,0,0,0,0,0,0,-1,1112,820,0,0
-105,204,0,0,0,0,0,0,0,0,0,-1,1119,820,0,0
-98,204,0,0,0,0,0,0,0,0,0,-1,1126,820,0,0
-91,204,0,0,0,0,0,0,0,0,0,-1,1133,820,0,0
-84,204,0,0,0,0,0,0,0,0,0,-1,1140,820,0,0
-77,204,0,0,0,0,0,0,0,0,0,-1,1147,820,0,0
-70,204,0,0,0,0,0,0,0,0,0,-1,1154,820,0,0
-63,204,0,0,0,0,0,0,0,0,0,-1,1161,820,0,0
-56,204,0,0,0,0,0,0,0,0,0,-1,1168,820,0,0
-49,204,0,0,0,0,0,0,0,0,0,-1,1175,820,0,0
-42,204,0,0,0,0,0,0,0,0,0,-1,1182,820,0,0
-35,204,0,0,0,0,0,0,0,0,0,-1,1189,820,0,0
-28,204,0,0,0,0,0,0,0,0,0,-1,1196,820,0,0
-21,204,0,0,0,0,0,0,0,0,0,-1,1203,820,0,0
-14,204,0,0,0,0,0,0,0,0,0,-1,1210,820,0,0
-7,204,0,0,0,0,0,0,0,0,0,-1,1217,820,0,0
0,204,0,0,0,0,0,0,0,0,0,-1,1224,820,0,0
7,204,0,0,0,0,0,0,0,0,0,-1,1231,820,0,0
14,204,0,0,0,0,0,0,0,0,0,-1,1238,820,0,0
21,204,0,0,0,0,0,0,0,0,0,-1,1245,820,0,0
28,204,0,0,0,0,0,0,0,0,0,-1,1252,820,0,0
35,204,0,0,0,0,0,0,0,0,0,-1,1259,820,0,0
42,204,0,0,0,0,0,0,0,0,0,-1,1266,820,0,0
49,204,0,0,0,0,0,0,0,0,0,-1,1273,820,0,0
56,204,0,0,0,0,0,0,0,0,0,-1,1280,820,0,0
63,204,0,0,0,0,0,0,0,0,0,-1,1287,820,0,0
70,204,0,0,0,0,0,0,0,0,0,-1,1294,820,0,0
77,204,0,0,0,0,0,0,0,0,0,-1,1301,820,0,0
84,204,0,0,0,0,0,0,0,0,0,-1,1308,820,0,0
91,204,0,0,0,0,0,0,0,0,0,-1,1315,820,0,0
98,204,0,0,0,0,0,0,0,0,0,-1,1322,820,0,0
105,204,0,0,0,0,0,0,0,0,0,-1,1329,820,0,0
112,204,0,0,0,0,0,0,0,0,0,-1,1336,820,0,0
119,204,0,0,0,0,0,0,0,0,0,-1,1343,820,0,0
126,204,0,0,0,0,0,0,0,0,0,-1,1350,820,0,0
133,204,0,0,0,0,0,0,0,0,0,-1,1357,820,0,0
140,204,0,0,0,0,0,0,0,0,0,-1,1364,820,0,0
147,204,0,0,0,0,0,0,0,0,0,-1,1371,820,0,0
154,204,0,0,0,0,0,0,0,0,0,-1,1378,820,0,0
161,204,0,0,0,0,0,0,0,0,0,-1,1385,820,0,0
168,204,0,0,0,0,0,0,0,0,0,-1,1392,820,0,0
175,204,0,0,0,0,0,0,0,0,0,-1,1399,820,0,0
182,204,0,0,0,0,0,0,0,0,0,-1,1406,820,0,0
189,204,0,0,0,0,0,0,0,0,0,-1,1413,820,0,0
196,204,0,0,0,0,0,0,0,0,0,-1,1420,820,0,0
203,204,0,0,0,0,0,0,0,0,0,-1,1427,820,0,0
210,204,0,0,0,0,0,0,0,0,0,-1,1434,820,0,0
217,204,0,0,0,0,0,0,0,0,0,-1,1441,820,0,0
224,204,0,0,0,0,0,0,0,0,0,-1,1448,820,0,0
231,204,0,0,0,0,0,0,0,0,0,-1,1455,820,0,0
238,204,0,0,0,0,0,0,0,0,0,-1,1462,820,0,0
245,204,0,0,0,0,0,0,0,0,0,-1,1469,820,0,0
252,204,0,0,0,0,0,0,0,0,0,-1,1476,820,0,0
259,204,0,0,0,0,0,0,0,0,0,-1,1483,820,0,0
266,204,0,0,0,0,0,0,0,0,0,-1,1490,820,0,0
273,204,0,0,0,0,0,0,0,0,0,-1,1497,820,0,0
280,204,0,0,0,0,0,0,0,0,0,-1,1504,820,0,0
287,204,0,0,0,0,0,0,0,0,0,-1,1511,820,0,0
294,204,0,0,0,0,0,0,0,0,0,-1,1518,820,0,0
301,204,0,0,0,0,0,0,0,0,0,-1,1525,820,0,0
308,204,0,0,0,0,0,0,0,0,0,-1,1532,820,0,0
315,204,0,0,0,0,0,0,0,0,0,-1,1539,820,0,0
322,204,0,0,0,0,0,0,0,0,0,-1,1546,820,0,0
329,204,0,0,0,0,0,0,0,0,0,-1,1553,820,0,0
336,204,0,0,0,0,0,0,0,0,0,-1,1560,820,0,0
343,204,0,0,0,0,0,0,0,0,0,-1,1567,820,0,0
350,204,0,0,0,0,0,0,0,0,0,-1,1574,820,0,0
357,204,0,0,0,0,0,0,0,0,0,-1,1581,820,0,0
364,204,0,0,0,0,0,0,0,0,0,-1,1588,820,0,0
371,204,0,0,0,0,0,0,0,0,0,-1,1595,820,0,0
378,204,0,0,0,0,0,0,0,0,0,-1,1602,820,0,0
385,204,0,0,0,0,0,0,0,0,0,-1,1609,820,0,0
392,204,0,0,0,0,0,0,0,0,0,-1,1616,820,0,0
399,204,0,0,0,0,0,0,0,0,0,-1,1623,820,0,0
406,204,0,0,0,0,0,0,0,0,0,-1,1630,820,0,0
413,204,0,0,0,0,0,0,0,0,0,-1,1637,820,0,0
420,204,0,0,0,0,0,0,0,0,0,-1,1644,820,0,0
427,204,0,0,0,0,0,0,0,0,0,-1,1651,820,0,0
434,204,0,0,0,0,0,0,0,0,0,-1,1658,820,0,0
441,204,0,0,0,0,0,0,0,0,0,-1,1665,820,0,0
448,204,0,0,0,0,0,0,0,0,0,-1,1672,820,0,0
455,204,0,0,0,0,0,0,0,0,0,-1,1679,820,0,0
462,204,0,0,0,0,0,0,0,0,0,-1,1686,820,0,0
469,204,0,0,0,0,0,0,0,0,0,-1,1693,820,0,0
476,204,0,0,0,0,0,0,0,0,0,-1,1700,820,0,0
483,204,0,0,0,0,0,0,0,0,0,-1,1707,820,0,0
490,204,0,0,0,0,0,0,0,0,0,-1,1714,820,0,0
497,204,0,0,0,0,0,0,0,0,0,-1,1721,820,0,0
504,204,0,0,0,0,0,0,0,0,0,-1,1728,820,0,0
511,204,0,0,0,0,0,0,0,0,0,-1,1735,820,0,0
518,204,0,0,0,0,0,0,0,0,0,-1,1742,820,0,0
525,204,0,0,0,0,0,0,0,0,0,-1,1749,820,0,0
532,204,0,0,0,0,0,0,0,0,0,-1,1756,820,0,0
539,204,0,0,0,0,0,0,0,0,0,-1,1763,820,0,0
546,204,0,0,0,0,0,0,0,0,0,-1,1770,820,0,0
553,204,0,0,0,0,0,0,0,0,0,-1,1777,820,0,0
560,204,0,0,0,0,0,0,0,0,0,-1,1784,820,0,0
567,204,0,0,0,0,0,0,0,0,0,-1,1791,820,0,0
574,204,0,0,0,0,0,0,0,0,0,-1,1798,820,0,0
581,204,0,0,0,0,0,0,0,0,0,-1,1805,820,0,0
588,204,0,0,0,0,0,0,0,0,0,-1,1812,820,0,0
595,204,0,0,0,0,0,0,0,0,0,-1,1819,820,0,0
602,204,24.2723,2.97076,0.00529658,0.000477676,-0.00161178,0.00578597,-1.17163e-05,-0.294788,0.00386123,0.0383404,1826,820,24.2723,-2.97079
609,204,24.3177,3.02844,0.00334195,0.00198158,-0.000658311,0.00360835,0.00171518,-0.384528,0.00208413,0.0415515,1833,820,24.3178,-3.02842
616,204,24.3662,2.99329,0.00148407,0.00258342,-0.000358988,0.00269026,0.00137723,-1.28152,0.00155337,0.0401287,1840,820,24.3662,-2.99332
623,204,24.3475,2.9693,-0.000260332,0.00268764,-0.00036315,0.00273172,-0.000304408,-1.45002,0.00193063,0.0297378,1847,820,24.3476,-2.96929
630,204,24.2896,2.90143,-0.0015213,0.00237558,-0.000512072,0.00244175,-0.00158746,-1.4423,0.00234363,0.0266945,1854,820,24.2896,-2.90142
637,204,24.3192,2.84991,-0.00231765,0.00184797,-0.000681865,0.00195675,-0.00242643,-1.41261,0.00253546,0.0325942,1861,820,24.3192,-2.84994
644,204,24.2816,2.90033,-0.00274346,0.00131168,-0.00083514,0.00147694,-0.00290872,-1.37544,0.00257665,0.0401473,1868,820,24.2816,-2.9003
651,204,24.2084,3.01337,-0.00281662,0.0008164,-0.000954965,0.00105212,-0.00305234,-1.32879,0.00246173,0.0472466,1875,820,24.2084,-3.01335
658,204,24.1356,3.14508,0,0,0,0,0,0,0,-1,1882,820,24.1357,-3.14511
665,204,18.8892,1.57556,0,0,0,0,0,0,0,-1,1889,820,18.8891,-1.57557
672,204,18.8269,1.72656,-0.00259933,-0.000482142,-0.00120042,5.97748e-05,-0.00314125,-1.14675,0.00211437,0.0431289,1896,820,18.827,-1.72654
679,204,18.8652,2.00262,-0.00202161,-0.000659158,-0.0011817,2.36108e-05,-0.00270438,-1.04687,0.00181084,0.0233528,1903,820,18.8652,-2.00264
686,204,18.8959,2.35907,-0.000810317,-0.00055038,-0.00096706,0.000295406,-0.0016561,-0.852196,0.00121457,0.0118644,1910,820,18.8959,-2.35907
693,204,18.8472,2.60358,2.12103e-05,-0.000745665,-0.00116491,0.000864166,-0.00158862,-0.626405,0.00143656,0.0160395,1917,820,18.8471,-2.60358
700,204,18.886,2.86188,0.00107177,-0.000694387,-0.00134422,0.00179703,-0.00141965,-0.494776,0.00186141,0.0175599,1924,820,18.886,-2.86187
707,204,18.8677,3.14813,0.00260946,-0.000195999,-0.00108557,0.00298045,-0.000566998,-0.329311,0.00220045,0.0156025,1931,820,18.8677,-3.14811
714,204,18.8816,3.4632,0.00463286,-6.60872e-05,-0.000571127,0.00470128,-0.000134508,-0.119231,0.00317997,0.0242377,1938,820,18.8816,-3.46322
721,204,18.8893,3.646,0.00743487,7.9639e-05,0.00041833,0.00745858,5.59231e-05,0.0566317,0.00495385,0.022682,1945,820,18.8893,-3.64602
728,204,18.8767,3.854,0.0106138,-5.30274e-05,0.00137832,0.010789,-0.000228249,0.126449,0.00726994,0.0138859,1952,820,18.8768,-3.85401
735,204,18.8408,4.08673,0.014521,-0.000345008,0.0029499,0.015085,-0.000908969,0.1889,0.0103729,0.015307,1959,820,18.8408,-4.08676
742,204,18.8588,4.14355,0.0193493,-0.000899501,0.00545143,0.0207237,-0.00227386,0.246964,0.0146328,0.0300987,1966,820,18.8588,-4.14358
749,204,18.7849,3.85767,0.0252477,-0.001684,0.00931783,0.0281572,-0.00459347,0.302655,0.0204751,0.043304,1973,820,18.7849,-3.85766
756,204,18.6473,3.70325,0,0,0,0,0,0,0,-1,1980,820,18.6473,-3.70325
763,204,20.2524,4.95905,0.0403701,-0.00372549,0.0230407,0.0502125,-0.0135678,0.403708,0.0387966,0.0449966,1987,820,20.2524,-4.95906
770,204,20.5444,6.02179,0.0493335,-0.00452908,0.0341967,0.0659304,-0.021126,0.451849,0.052434,0.0491285,1994,820,20.5444,-6.02176
777,204,0,0,0,0,0,0,0,0,0,-1,2001,820,0,0
784,204,0,0,0,0,0,0,0,0,0,-1,2008,820,0,0
791,204,0,0,0,0,0,0,0,0,0,-1,2015,820,0,0
798,204,0,0,0,0,0,0,0,0,0,-1,2022,820,0,0
805,204,0,0,0,0,0,0,0,0,0,-1,2029,820,0,0
812,204,0,0,0,0,0,0,0,0,0,-1,2036,820,0,0
-700,197,0,0,0,0,0,0,0,0,0,-1,524,827,0,0
-693,197,0,0,0,0,0,0,0,0,0,-1,531,827,0,0
-686,197,0,0,0,0,0,0,0,0,0,-1,538,827,0,0
-679,197,0,0,0,0,0,0,0,0,0,-1,545,827,0,0
-672,197,0,0,0,0,0,0,0,0,0,-1,552,827,0,0
-665,197,0,0,0,0,0,0,0,0,0,-1,559,827,0,0
-658,197,-12.1547,2.74762,0.0425057,0.0121245,-0.00470206,0.0432168,0.0114134,-0.150092,0.0258604,0.046754,566,827,-12.1547,-2.74761
-651,197,-12.0255,2.96149,0.0323579,0.0209841,-0.00652603,0.0353272,0.0180148,-0.426999,0.0203975,0.0457843,573,827,-12.0255,-2.96148
-644,197,-11.7532,2.81787,0,0,0,0,0,0,0,-1,580,827,-11.7532,-2.81789
-637,197,-11.4621,4.73492,0,0,0,0,0,0,0,-1,587,827,-11.4621,-4.73492
-630,197,-11.6252,3.88049,0.0124168,0.0252296,-0.00719761,0.0284589,0.00918741,-1.14905,0.0167711,0.0428721,594,827,-11.6253,-3.88047
-623,197,-11.8949,3.08698,0.00856691,0.0225232,-0.00639173,0.0250081,0.00608203,-1.20001,0.0150598,0.0460132,601,827,-11.8949,-3.08698
-616,197,-12.3846,2.38983,0.00580912,0.0189502,-0.00534724,0.0208511,0.00390824,-1.22924,0.0127985,0.0463292,608,827,-12.3846,-2.38983
-609,197,-12.4935,1.93976,0.00364338,0.0157155,-0.00403162,0.0169381,0.0024208,-1.27636,0.0105779,0.0331035,615,827,-12.4934,-1.93973
-602,197,-12.6157,1.65656,0.00203239,0.0122503,-0.00317704,0.0131576,0.00112512,-1.29263,0.0084218,0.0165135,622,827,-12.6157,-1.65659
-595,197,-12.6135,1.47412,0.00116032,0.00843488,-0.00226914,0.00908465,0.00051055,-1.29191,0.00589362,0.0173555,629,827,-12.6136,-1.47411
-588,197,-12.6196,1.24377,0.000582055,0.0053229,-0.0011651,0.00559376,0.000311196,-1.34238,0.00362989,0.0192986,636,827,-12.6196,-1.24377
-581,197,-12.5965,1.00562,0.000316365,0.00267706,-0.000216961,0.00269684,0.000296591,-1.47991,0.00170764,0.0115121,643,827,-12.5965,-1.0056
-574,197,-12.6138,0.778809,-3.67105e-05,0.000434617,0.00051721,0.000767323,-0.000369416,0.999167,0.000669565,0.0131206,650,827,-12.6138,-0.778815
-567,197,-12.6287,0.546631,-0.000469459,-0.000693584,0.000804042,0.000230292,-0.00139334,0.716157,0.00101441,0.0138456,657,827,-12.6287,-0.546646
-560,197,-12.6406,0.315186,-0.00108165,-0.00194567,0.000913817,-0.000502869,-0.00252445,0.56459,0.00154291,0.0141198,664,827,-12.6406,-0.31519
-553,197,-12.6738,0.128845,-0.00122921,-0.0032682,0.00107259,-0.000768903,-0.00372851,0.405386,0.00227314,0.0152946,671,827,-12.6738,-0.128852
-546,197,-12.59,-0.0775757,-0.00123778,-0.00477138,0.000937312,-0.00100455,-0.00500461,0.24388,0.00305708,0.0263877,678,827,-12.59,0.0775968
-539,197,-12.5948,-0.247314,0,0,0,0,0,0,0,-1,685,827,-12.5948,0.247329
-532,197,-12.6214,-0.0128174,0,0,0,0,0,0,0,-1,692,827,-12.6214,0.012821
-525,197,-16.928,1.12372,0,0,0,0,0,0,0,-1,699,827,-16.928,-1.12374
-518,197,-16.9839,0.978271,0.000145141,-0.00773334,-0.000853534,0.000236549,-0.00782475,-0.106688,0.00529711,0.0454448,706,827,-16.9839,-0.978261
-511,197,-17.0463,0.828796,0,0,0,0,0,0,0,-1,713,827,-17.0463,-0.828806
-504,197,-16.983,0.98645,0,0,0,0,0,0,0,-1,720,827,-16.983,-0.986429
-497,197,-16.7423,1.39294,0,0,0,0,0,0,0,-1,727,827,-16.7423,-1.39293
-490,197,-16.9563,1.0766,0.0043857,-0.0062303,-0.00363696,0.00551216,-0.00735677,-0.300357,0.00745528,0.0370005,734,827,-16.9563,-1.07662
-483,197,-16.9505,1.0318,0.00641152,-0.0038878,-0.00441803,0.00804699,-0.00552327,-0.354539,0.00787983,0.039376,741,827,-16.9505,-1.0318
-476,197,0,0,0,0,0,0,0,0,0,-1,748,827,0,0
-469,197,0,0,0,0,0,0,0,0,0,-1,755,827,0,0
-462,197,0,0,0,0,0,0,0,0,0,-1,762,827,0,0
-455,197,0,0,0,0,0,0,0,0,0,-1,769,827,0,0
-448,197,0,0,0,0,0,0,0,0,0,-1,776,827,0,0
-441,197,0,0,0,0,0,0,0,0,0,-1,783,827,0,0
-434,197,0,0,0,0,0,0,0,0,0,-1,790,827,0,0
-427,197,0,0,0,0,0,0,0,0,0,-1,797,827,0,0
-420,197,0,0,0,0,0,0,0,0,0,-1,804,827,0,0
-413,197,0,0,0,0,0,0,0,0,0,-1,811,827,0,0
-406,197,0,0,0,0,0,0,0,0,0,-1,818,827,0,0
-399,197,0,0,0,0,0,0,0,0,0,-1,825,827,0,0
-392,197,0,0,0,0,0,0,0,0,0,-1,832,827,0,0
-385,197,0,0,0,0,0,0,0,0,0,-1,839,827,0,0
-378,197,0,0,0,0,0,0,0,0,0,-1,846,827,0,0
-371,197,0,0,0,0,0,0,0,0,0,-1,853,827,0,0
-364,197,0,0,0,0,0,0,0,0,0,-1,860,827,0,0
-357,197,0,0,0,0,0,0,0,0,0,-1,867,827,0,0
-350,197,0,0,0,0,0,0,0,0,0,-1,874,827,0,0
-343,197,0,0,0,0,0,0,0,0,0,-1,881,827,0,0
-336,197,0,0,0,0,0,0,0,0,0,-1,888,827,0,0
-329,197,0,0,0,0,0,0,0,0,0,-1,895,827,0,0
-322,197,0,0,0,0,0,0,0,0,0,-1,902,827,0,0
-315,197,0,0,0,0,0,0,0,0,0,-1,909,827,0,0
-308,197,0,0,0,0,0,0,0,0,0,-1,916,827,0,0
-301,197,0,0,0,0,0,0,0,0,0,-1,923,827,0,0
-294,197,0,0,0,0,0,0,0,0,0,-1,930,827,0,0
-287,197,0,0,0,0,0,0,0,0,0,-1,937,827,0,0
-280,197,0,0,0,0,0,0,0,0,0,-1,944,827,0,0
-273,197,0,0,0,0,0,0,0,0,0,-1,951,827,0,0
-266,197,0,0,0,0,0,0,0,0,0,-1,958,827,0,0
-259,197,0,0,0,0,0,0,0,0,0,-1,965,827,0,0
-252,197,0,0,0,0,0,0,0,0,0,-1,972,827,0,0
-245,197,0,0,0,0,0,0,0,0,0,-1,979,827,0,0
-238,197,0,0,0,0,0,0,0,0,0,-1,986,827,0,0
-231,197,0,0,0,0,0,0,0,0,0,-1,993,827,0,0
-224,197,0,0,0,0,0,0,0,0,0,-1,1000,827,0,0
-217,197,0,0,0,0,0,0,0,0,0,-1,1007,827,0,0
-210,197,0,0,0,0,0,0,0,0,0,-1,1014,827,0,0
-203,197,0,0,0,0,0,0,0,0,0,-1,1021,827,0,0
-196,197,0,0,0,0,0,0,0,0,0,-1,1028,827,0,0
-189,197,0,0,0,0,0,0,0,0,0,-1,1035,827,0,0
-182,197,0,0,0,0,0,0,0,0,0,-1,1042,827,0,0
-175,197,0,0,0,0,0,0,0,0,0,-1,1049,827,0,0
-168,197,0,0,0,0,0,0,0,0,0,-1,1056,827,0,0
-161,197,0,0,0,0,0,0,0,0,0,-1,1063,827,0,0
-154,197,0,0,0,0,0,0,0,0,0,-1,1070,827,0,0
-147,197,0,0,0,0,0,0,0,0,0,-1,1077,827,0,0
-140,197,0,0,0,0,0,0,0,0,0,-1,1084,827,0,0
-133,197,0,0,0,0,0,0,0,0,0,-1,1091,827,0,0
-126,197,0,0,0,0,0,0,0,0,0,-1,1098,827,0,0
-119,197,0,0,0,0,0,0,0,0,0,-1,1105,827,0,0
-112,197,0,0,0,0,0,0,0,0,0,-1,1112,827,0,0
-105,197,0,0,0,0,0,0,0,0,0,-1,1119,827,0,0
-98,197,0,0,0,0,0,0,0,0,0,-1,1126,827,0,0
-91,197,0,0,0,0,0,0,0,0,0,-1,1133,827,0,0
-84,197,0,0,0,0,0,0,0,0,0,-1,1140,827,0,0
-77,197,0,0,0,0,0,0,0,0,0,-1,1147,827,0,0
-70,197,0,0,0,0,0,0,0,0,0,-1,1154,827,0,0
-63,197,0,0,0,0,0,0,0,0,0,-1,1161,827,0,0
-56,197,0,0,0,0,0,0,0,0,0,-1,1168,827,0,0
-49,197,0,0,0,0,0,0,0,0,0,-1,1175,827,0,0
-42,197,0,0,0,0,0,0,0,0,0,-1,1182,827,0,0
-35,197,0,0,0,0,0,0,0,0,0,-1,1189,827,0,0
-28,197,0,0,0,0,0,0,0,0,0,-1,1196,827,0,0
-21,197,0,0,0,0,0,0,0,0,0,-1,1203,827,0,0
-14,197,0,0,0,0,0,0,0,0,0,-1,1210,827,0,0
-7,197,0,0,0,0,0,0,0,0,0,-1,1217,827,0,0
0,197,0,0,0,0,0,0,0,0,0,-1,1224,827,0,0
7,197,0,0,0,0,0,0,0,0,0,-1,1231,827,0,0
14,197,0,0,0,0,0,0,0,0,0,-1,1238,827,0,0
21,197,0,0,0,0,0,0,0,0,0,-1,1245,827,0,0
28,197,0,0,0,0,0,0,0,0,0,-1,1252,827,0,0
35,197,0,0,0,0,0,0,0,0,0,-1,1259,827,0,0
42,197,0,0,0,0,0,0,0,0,0,-1,1266,827,0,0
49,197,0,0,0,0,0,0,0,0,0,-1,1273,827,0,0
56,197,0,0,0,0,0,0,0,0,0,-1,1280,827,0,0
63,197,0,0,0,0,0,0,0,0,0,-1,1287,827,0,0
70,197,0,0,0,0,0,0,0,0,0,-1,1294,827,0,0
77,197,0,0,0,0,0,0,0,0,0,-1,1301,827,0,0
84,197,0,0,0,0,0,0,0,0,0,-1,1308,827,0,0
91,197,0,0,0,0,0,0,0,0,0,-1,1315,827,0,0
98,197,0,0,0,0,0,0,0,0,0,-1,1322,827,0,0
105,197,0,0,0,0,0,0,0,0,0,-1,1329,827,0,0
112,197,0,0,0,0,0,0,0,0,0,-1,1336,827,0,0
119,197,0,0,0,0,0,0,0,0,0,-1,1343,827,0,0
126,197,0,0,0,0,0,0,0,0,0,-1,1350,827,0,0
133,197,0,0,0,0,0,0,0,0,0,-1,1357,827,0,0
140,197,0,0,0,0,0,0,0,0,0,-1,1364,827,0,0
147,197,0,0,0,0,0,0,0,0,0,-1,1371,827,0,0
154,197,0,0,0,0,0,0,0,0,0,-1,1378,827,0,0
161,197,0,0,0,0,0,0,0,0,0,-1,1385,827,0,0
168,197,0,0,0,0,0,0,0,0,0,-1,1392,827,0,0
175,197,0,0,0,0,0,0,0,0,0,-1,1399,827,0,0
182,197,0,0,0,0,0,0,0,0,0,-1,1406,827,0,0
189,197,0,0,0,0,0,0,0,0,0,-1,1413,827,0,0
196,197,0,0,0,0,0,0,0,0,0,-1,1420,827,0,0
203,197,0,0,0,0,0,0,0,0,0,-1,1427,827,0,0
210,197,0,0,0,0,0,0,0,0,0,-1,1434,827,0,0
217,197,0,0,0,0,0,0,0,0,0,-1,1441,827,0,0
224,197,0,0,0,0,0,0,0,0,0,-1,1448,827,0,0
231,197,0,0,0,0,0,0,0,0,0,-1,1455,827,0,0
238,197,0,0,0,0,0,0,0,0,0,-1,1462,827,0,0
245,197,0,0,0,0,0,0,0,0,0,-1,1469,827,0,0
252,197,0,0,0,0,0,0,0,0,0,-1,1476,827,0,0
259,197,0,0,0,0,0,0,0,0,0,-1,1483,827,0,0
266,197,0,0,0,0,0,0,0,0,0,-1,1490,827,0,0
273,197,0,0,0,0,0,0,0,0,0,-1,1497,827,0,0
280,197,0,0,0,0,0,0,0,0,0,-1,1504,827,0,0
287,197,0,0,0,0,0,0,0,0,0,-1,1511,827,0,0
294,197,0,0,0,0,0,0,0,0,0,-1,1518,827,0,0
301,197,0,0,0,0,0,0,0,0,0,-1,1525,827,0,0
308,197,0,0,0,0,0,0,0,0,0,-1,1532,827,0,0
315,197,0,0,0,0,0,0,0,0,0,-1,1539,827,0,0
322,197,0,0,0,0,0,0,0,0,0,-1,1546,827,0,0
329,197,0,0,0,0,0,0,0,0,0,-1,1553,827,0,0
336,197,0,0,0,0,0,0,0,0,0,-1,1560,827,0,0
343,197,0,0,0,0,0,0,0,0,0,-1,1567,827,0,0
350,197,0,0,0,0,0,0,0,0,0,-1,1574,827,0,0
357,197,0,0,0,0,0,0,0,0,0,-1,1581,827,0,0
364,197,0,0,0,0,0,0,0,0,0,-1,1588,827,0,0
371,197,0,0,0,0,0,0,0,0,0,-1,1595,827,0,0
378,197,0,0,0,0,0,0,0,0,0,-1,1602,827,0,0
385,197,0,0,0,0,0,0,0,0,0,-1,1609,827,0,0
392,197,0,0,0,0,0,0,0,0,0,-1,1616,827,0,0
399,197,0,0,0,0,0,0,0,0,0,-1,1623,827,0,0
406,197,0,0,0,0,0,0,0,0,0,-1,1630,827,0,0
413,197,0,0,0,0,0,0,0,0,0,-1,1637,827,0,0
420,197,0,0,0,0,0,0,0,0,0,-1,1644,827,0,0
427,197,0,0,0,0,0,0,0,0,0,-1,1651,827,0,0
434,197,0,0,0,0,0,0,0,0,0,-1,1658,827,0,0
441,197,0,0,0,0,0,0,0,0,0,-1,1665,827,0,0
448,197,0,0,0,0,0,0,0,0,0,-1,1672,827,0,0
455,197,0,0,0,0,0,0,0,0,0,-1,1679,827,0,0
462,197,0,0,0,0,0,0,0,0,0,-1,1686,827,0,0
469,197,0,0,0,0,0,0,0,0,0,-1,1693,827,0,0
476,197,0,0,0,0,0,0,0,0,0,-1,1700,827,0,0
483,197,0,0,0,0,0,0,0,0,0,-1,1707,827,0,0
490,197,0,0,0,0,0,0,0,0,0,-1,1714,827,0,0
497,197,0,0,0,0,0,0,0,0,0,-1,1721,827,0,0
504,197,0,0,0,0,0,0,0,0,0,-1,1728,827,0,0
511,197,0,0,0,0,0,0,0,0,0,-1,1735,827,0,0
518,197,0,0,0,0,0,0,0,0,0,-1,1742,827,0,0
525,197,0,0,0,0,0,0,0,0,0,-1,1749,827,0,0
532,197,0,0,0,0,0,0,0,0,0,-1,1756,827,0,0
539,197,0,0,0,0,0,0,0,0,0,-1,1763,827,0,0
546,197,0,0,0,0,0,0,0,0,0,-1,1770,827,0,0
553,197,0,0,0,0,0,0,0,0,0,-1,1777,827,0,0
560,197,0,0,0,0,0,0,0,0,0,-1,1784,827,0,0
567,197,0,0,0,0,0,0,0,0,0,-1,1791,827,0,0
574,197,0,0,0,0,0,0,0,0,0,-1,1798,827,0,0
581,197,0,0,0,0,0,0,0,0,0,-1,1805,827,0,0
588,197,0,0,0,0,0,0,0,0,0,-1,1812,827,0,0
595,197,0,0,0,0,0,0,0,0,0,-1,1819,827,0,0
602,197,24.2484,2.9502,0.00540554,0.000807427,-0.00184997,0.00605742,0.000155545,-0.338789,0.00398744,0.0407391,1826,827,24.2484,-2.9502
609,197,24.2715,2.85559,0.00306815,0.00200196,-0.000793823,0.00349127,0.00157884,-0.48971,0.00201875,0.043881,1833,827,24.2715,-2.85559
616,197,24.3728,2.81195,0.00113295,0.00243204,-0.000401984,0.00254637,0.00101862,-1.29371,0.00147991,0.0434206,1840,827,24.3728,-2.81195
623,197,24.3993,2.78198,-0.000613188,0.0024642,-0.000328586,0.0024989,-0.000647882,-1.4656,0.00191871,0.0376458,1847,827,24.3992,-2.782
630,197,24.2772,2.79791,-0.00181236,0.00218813,-0.00042074,0.0022319,-0.00185614,-1.46714,0.00236355,0.0304592,1854,827,24.2772,-2.79791
637,197,24.2924,2.82361,-0.0025088,0.00169877,-0.000566258,0.00177365,-0.00258368,-1.43933,0.00253015,0.0272074,1861,827,24.2924,-2.8236
644,197,24.2942,2.86823,-0.00275597,0.00120353,-0.000693427,0.00132146,-0.0028739,-1.40234,0.00247685,0.0332984,1868,827,24.2942,-2.86823
651,197,24.1049,3.51282,-0.00270499,0.000720531,-0.000798776,0.000897636,-0.0028821,-1.35261,0.00228028,0.043697,1875,827,24.1049,-3.51281
658,197,23.942,4.13074,0,0,0,0,0,0,0,-1,1882,827,23.942,-4.13075
665,197,14.0618,1.80304,0,0,0,0,0,0,0,-1,1889,827,14.0617,-1.80303
672,197,19.2211,1.72546,0,0,0,0,0,0,0,-1,1896,827,19.2211,-1.72549
679,197,19.1873,2.10907,-0.00170269,-0.000571826,-0.000979752,-6.05185e-06,-0.00226846,-1.04711,0.0015103,0.0302838,1903,827,19.1872,-2.10906
686,197,19.1338,2.38037,-0.00070237,-0.000535997,-0.00083786,0.000222796,-0.00146116,-0.834878,0.00105624,0.0171649,1910,827,19.1337,-2.38037
693,197,19.101,2.6485,-2.32645e-05,-0.000774485,-0.00106284,0.000728382,-0.00152613,-0.615546,0.00132853,0.0155915,1917,827,19.1009,-2.64851
700,197,19.1311,2.91589,0.000850139,-0.00080522,-0.00127202,0.00154005,-0.00149513,-0.496971,0.00175243,0.0225027,1924,827,19.1311,-2.91588
707,197,19.1589,3.13361,0.00220846,-0.000400975,-0.00103758,0.00257073,-0.000763246,-0.335918,0.00201696,0.00995613,1931,827,19.159,-3.13362
714,197,19.1376,3.38446,0.0040106,-0.000289451,-0.000559844,0.0040823,-0.000361144,-0.127366,0.00284955,0.0118721,1938,827,19.1376,-3.38444
721,197,19.1152,3.62994,0.00664676,-0.000162867,0.000364892,0.00666625,-0.000182363,0.053381,0.00450619,0.0119363,1945,827,19.1153,-3.62995
728,197,19.1038,3.87708,0.00973187,-8.70438e-05,0.00134535,0.00991287,-0.000268043,0.133733,0.00669972,0.0106345,1952,827,19.1038,-3.87708
735,197,19.0956,4.12366,0.0135777,0.000236128,0.00286916,0.0141685,-0.000354729,0.203095,0.00956612,0.0110618,1959,827,19.0956,-4.12365
742,197,19.0647,4.33588,0.0182899,0.000345047,0.00521642,0.0196961,-0.00106113,0.263309,0.0134983,0.0194183,1966,827,19.0647,-4.33585
749,197,18.9618,4.36707,0.0241364,0.000648975,0.00877179,0.0270508,-0.00226538,0.320768,0.0188345,0.042168,1973,827,18.9618,-4.36706
756,197,18.8481,4.40436,0,0,0,0,0,0,0,-1,1980,827,18.8481,-4.40435
763,197,20.2876,5.37512,0.0394003,0.0029352,0.0209177,0.0489162,-0.00658069,0.426938,0.0350111,0.0447293,1987,827,20.2876,-5.37514
770,197,20.5248,6.17389,0.0485875,0.0061706,0.0304845,0.0645153,-0.00975721,0.481477,0.0466043,0.045429,1994,827,20.5248,-6.17391
777,197,0,0,0,0,0,0,0,0,0,-1,2001,827,0,0
784,197,0,0,0,0,0,0,0,0,0,-1,2008,827,0,0
791,197,0,0,0,0,0,0,0,0,0,-1,2015,827,0,0
798,197,0,0,0,0,0,0,0,0,0,-1,2022,827,0,0
805,197,0,0,0,0,0,0,0,0,0,-1,2029,827,0,0
812,197,0,0,0,0,0,0,0,0,0,-1,2036,827,0,0
-700,190,0,0,0,0,0,0,0,0,0,-1,524,834,0,0
-693,190,0,0,0,0,0,0,0,0,0,-1,531,834,0,0
-686,190,0,0,0,0,0,0,0,0,0,-1,538,834,0,0
-679,190,0,0,0,0,0,0,0,0,0,-1,545,834,0,0
-672,190,0,0,0,0,0,0,0,0,0,-1,552,834,0,0
-665,190,0,0,0,0,0,0,0,0,0,-1,559,834,0,0
-658,190,-12.4659,2.81171,0.0317757,0.01675,-0.011416,0.0379291,0.0105965,-0.494373,0.0225978,0.0488481,566,834,-12.4659,-2.81173
-651,190,-12.1693,2.68372,0.0223398,0.0242727,-0.0114891,0.0348359,0.0117766,-0.827358,0.0204611,0.045623,573,834,-12.1692,-2.68374
-644,190,-11.8958,2.65381,0.0149704,0.0274776,-0.0109921,0.0338705,0.00857749,-1.04402,0.0203334,0.0462235,580,834,-11.8957,-2.65381
-637,190,-12.0294,2.74768,0,0,0,0,0,0,0,-1,587,834,-12.0294,-2.7477
-630,190,-12.3078,3.77814,0.00534981,0.0259158,-0.00883543,0.0291903,0.00207534,-1.21588,0.0188066,0.0478403,594,834,-12.3078,-3.77816
-623,190,-12.3701,2.94586,0.00251333,0.0227305,-0.00739303,0.0251455,9.83244e-05,-1.25506,0.016731,0.0470386,601,834,-12.3701,-2.94586
-616,190,-12.5489,2.42242,0.000755441,0.0188242,-0.00587462,0.0205662,-0.000986598,-1.28252,0.0140512,0.043031,608,834,-12.5489,-2.42245
-609,190,-12.778,1.8808,-0.000521879,0.0154092,-0.0042205,0.0164583,-0.00157091,-1.32718,0.0115315,0.0248726,615,834,-12.778,-1.88079
-602,190,-12.8409,1.64703,-0.00139169,0.0117512,-0.00307652,0.0124358,-0.00207619,-1.35187,0.0090622,0.0158673,622,834,-12.8409,-1.64703
-595,190,-12.8454,1.48743,-0.00152433,0.0077936,-0.00198463,0.0081987,-0.00192942,-1.36945,0.00620967,0.0190868,629,834,-12.8454,-1.48744
-588,190,-12.8354,1.25702,-0.00146208,0.00456155,-0.0007627,0.00465662,-0.00155715,-1.44679,0.00373333,0.0159797,636,834,-12.8355,-1.25699
-581,190,-12.8315,1.00183,-0.00119491,0.00189316,0.000226714,0.00190971,-0.00121146,1.4979,0.00181698,0.0107389,643,834,-12.8315,-1.00183
-574,190,-12.8301,0.775513,-0.00111786,-0.000267025,0.000918729,0.000320001,-0.00170489,1.00223,0.00125691,0.0109989,650,834,-12.8301,-0.775488
-567,190,-12.8268,0.529236,-0.00128034,-0.00125372,0.00111317,-0.000153784,-0.00238028,0.791375,0.00153816,0.0134393,657,834,-12.8269,-0.52926
-560,190,-12.8797,0.304932,-0.00163602,-0.00236342,0.00110144,-0.000839785,-0.00315965,0.625932,0.00188976,0.0229123,664,834,-12.8797,-0.304949
-553,190,-12.8993,0.115723,-0.00156639,-0.00351835,0.00117533,-0.00101464,-0.00407009,0.4389,0.00244635,0.0205562,671,834,-12.8993,-0.115734
-546,190,-12.8307,-0.13031,0,0,0,0,0,0,0,-1,678,834,-12.8307,0.130292
-539,190,-12.4341,-0.0446777,0,0,0,0,0,0,0,-1,685,834,-12.4341,0.0446773
-532,190,-16.5251,1.37708,0,0,0,0,0,0,0,-1,692,834,-16.5252,-1.37709
-525,190,-16.8223,1.01642,0,0,0,0,0,0,0,-1,699,834,-16.8223,-1.01644
-518,190,-17.1105,0.733398,0,0,0,0,0,0,0,-1,706,834,-17.1105,-0.733382
-511,190,-17.1579,0.634521,0,0,0,0,0,0,0,-1,713,834,-17.1579,-0.634513
-504,190,-17.0921,0.881409,0,0,0,0,0,0,0,-1,720,834,-17.0921,-0.881416
-497,190,-17.0263,1.1283,0,0,0,0,0,0,0,-1,727,834,-17.0263,-1.12832
-490,190,-16.8122,1.12848,0,0,0,0,0,0,0,-1,734,834,-16.8122,-1.12845
-483,190,0,0,0,0,0,0,0,0,0,-1,741,834,0,0
-476,190,0,0,0,0,0,0,0,0,0,-1,748,834,0,0
-469,190,0,0,0,0,0,0,0,0,0,-1,755,834,0,0
-462,190,0,0,0,0,0,0,0,0,0,-1,762,834,0,0
-455,190,0,0,0,0,0,0,0,0,0,-1,769,834,0,0
-448,190,0,0,0,0,0,0,0,0,0,-1,776,834,0,0
-441,190,0,0,0,0,0,0,0,0,0,-1,783,834,0,0
-434,190,0,0,0,0,0,0,0,0,0,-1,790,834,0,0
-427,190,0,0,0,0,0,0,0,0,0,-1,797,834,0,0
-420,190,0,0,0,0,0,0,0,0,0,-1,804,834,0,0
-413,190,0,0,0,0,0,0,0,0,0,-1,811,834,0,0
-406,190,0,0,0,0,0,0,0,0,0,-1,818,834,0,0
-399,190,0,0,0,0,0,0,0,0,0,-1,825,834,0,0
-392,190,0,0,0,0,0,0,0,0,0,-1,832,834,0,0
-385,190,0,0,0,0,0,0,0,0,0,-1,839,834,0,0
-378,190,0,0,0,0,0,0,0,0,0,-1,846,834,0,0
-371,190,0,0,0,0,0,0,0,0,0,-1,853,834,0,0
-364,190,0,0,0,0,0,0,0,0,0,-1,860,834,0,0
-357,190,0,0,0,0,0,0,0,0,0,-1,867,834,0,0
-350,190,0,0,0,0,0,0,0,0,0,-1,874,834,0,0
-343,190,0,0,0,0,0,0,0,0,0,-1,881,834,0,0
-336,190,0,0,0,0,0,0,0,0,0,-1,888,834,0,0
-329,190,0,0,0,0,0,0,0,0,0,-1,895,834,0,0
-322,190,0,0,0,0,0,0,0,0,0,-1,902,834,0,0
-315,190,0,0,0,0,0,0,0,0,0,-1,909,834,0,0
-308,190,0,0,0,0,0,0,0,0,0,-1,916,834,0,0
-301,190,0,0,0,0,0,0,0,0,0,-1,923,834,0,0
-294,190,0,0,0,0,0,0,0,0,0,-1,930,834,0,0
-287,190,0,0,0,0,0,0,0,0,0,-1,937,834,0,0
-280,190,0,0,0,0,0,0,0,0,0,-1,944,834,0,0
-273,190,0,0,0,0,0,0,0,0,0,-1,951,834,0,0
-266,190,0,0,0,0,0,0,0,0,0,-1,958,834,0,0
-259,190,0,0,0,0,0,0,0,0,0,-1,965,834,0,0
-252,190,0,0,0,0,0,0,0,0,0,-1,972,834,0,0
-245,190,0,0,0,0,0,0,0,0,0,-1,979,834,0,0
-238,190,0,0,0,0,0,0,0,0,0,-1,986,834,0,0
-231,190,0,0,0,0,0,0,0,0,0,-1,993,834,0,0
-224,190,0,0,0,0,0,0,0,0,0,-1,1000,834,0,0
-217,190,0,0,0,0,0,0,0,0,0,-1,1007,834,0,0
-210,190,0,0,0,0,0,0,0,0,0,-1,1014,834,0,0
-203,190,0,0,0,0,0,0,0,0,0,-1,1021,834,0,0
-196,190,0,0,0,0,0,0,0,0,0,-1,1028,834,0,0
-189,190,0,0,0,0,0,0,0,0,0,-1,1035,834,0,0
-182,190,0,0,0,0,0,0,0,0,0,-1,1042,834,0,0
-175,190,0,0,0,0,0,0,0,0,0,-1,1049,834,0,0
-168,190,0,0,0,0,0,0,0,0,0,-1,1056,834,0,0
-161,190,0,0,0,0,0,0,0,0,0,-1,1063,834,0,0
-154,190,0,0,0,0,0,0,0,0,0,-1,1070,834,0,0
-147,190,0,0,0,0,0,0,0,0,0,-1,1077,834,0,0
-140,190,0,0,0,0,0,0,0,0,0,-1,1084,834,0,0
-133,190,0,0,0,0,0,0,0,0,0,-1,1091,834,0,0
-126,190,0,0,0,0,0,0,0,0,0,-1,1098,834,0,0
-119,190,0,0,0,0,0,0,0,0,0,-1,1105,834,0,0
-112,190,0,0,0,0,0,0,0,0,0,-1,1112,834,0,0
-105,190,0,0,0,0,0,0,0,0,0,-1,1119,834,0,0
-98,190,0,0,0,0,0,0,0,0,0,-1,1126,834,0,0
-91,190,0,0,0,0,0,0,0,0,0,-1,1133,834,0,0
-84,190,0,0,0,0,0,0,0,0,0,-1,1140,834,0,0
-77,190,0,0,0,0,0,0,0,0,0,-1,1147,834,0,0
-70,190,0,0,0,0,0,0,0,0,0,-1,1154,834,0,0
-63,190,0,0,0,0,0,0,0,0,0,-1,1161,834,0,0
-56,190,0,0,0,0,0,0,0,0,0,-1,1168,834,0,0
-49,190,0,0,0,0,0,0,0,0,0,-1,1175,834,0,0
-42,190,0,0,0,0,0,0,0,0,0,-1,1182,834,0,0
-35,190,0,0,0,0,0,0,0,0,0,-1,1189,834,0,0
-28,190,0,0,0,0,0,0,0,0,0,-1,1196,834,0,0
-21,190,0,0,0,0,0,0,0,0,0,-1,1203,834,0,0
-14,190,0,0,0,0,0,0,0,0,0,-1,1210,834,0,0
-7,190,0,0,0,0,0,0,0,0,0,-1,1217,834,0,0
0,190,0,0,0,0,0,0,0,0,0,-1,1224,834,0,0
7,190,0,0,0,0,0,0,0,0,0,-1,1231,834,0,0
14,190,0,0,0,0,0,0,0,0,0,-1,1238,834,0,0
21,190,0,0,0,0,0,0,0,0,0,-1,1245,834,0,0
28,190,0,0,0,0,0,0,0,0,0,-1,1252,834,0,0
35,190,0,0,0,0,0,0,0,0,0,-1,1259,834,0,0
42,190,0,0,0,0,0,0,0,0,0,-1,1266,834,0,0
49,190,0,0,0,0,0,0,0,0,0,-1,1273,834,0,0
56,190,0,0,0,0,0,0,0,0,0,-1,1280,834,0,0
63,190,0,0,0,0,0,0,0,0,0,-1,1287,834,0,0
70,190,0,0,0,0,0,0,0,0,0,-1,1294,834,0,0
77,190,0,0,0,0,0,0,0,0,0,-1,1301,834,0,0
84,190,0,0,0,0,0,0,0,0,0,-1,1308,834,0,0
91,190,0,0,0,0,0,0,0,0,0,-1,1315,834,0,0
98,190,0,0,0,0,0,0,0,0,0,-1,1322,834,0,0
105,190,0,0,0,0,0,0,0,0,0,-1,1329,834,0,0
112,190,0,0,0,0,0,0,0,0,0,-1,1336,834,0,0
119,190,0,0,0,0,0,0,0,0,0,-1,1343,834,0,0
126,190,0,0,0,0,0,0,0,0,0,-1,1350,834,0,0
133,190,0,0,0,0,0,0,0,0,0,-1,1357,834,0,0
140,190,0,0,0,0,0,0,0,0,0,-1,1364,834,0,0
147,190,0,0,0,0,0,0,0,0,0,-1,1371,834,0,0
154,190,0,0,0,0,0,0,0,0,0,-1,1378,834,0,0
161,190,0,0,0,0,0,0,0,0,0,-1,1385,834,0,0
168,190,0,0,0,0,0,0,0,0,0,-1,1392,834,0,0
175,190,0,0,0,0,0,0,0,0,0,-1,1399,834,0,0
182,190,0,0,0,0,0,0,0,0,0,-1,1406,834,0,0
189,190,0,0,0,0,0,0,0,0,0,-1,1413,834,0,0
196,190,0,0,0,0,0,0,0,0,0,-1,1420,834,0,0
203,190,0,0,0,0,0,0,0,0,0,-1,1427,834,0,0
210,190,0,0,0,0,0,0,0,0,0,-1,1434,834,0,0
217,190,0,0,0,0,0,0,0,0,0,-1,1441,834,0,0
224,190,0,0,0,0,0,0,0,0,0,-1,1448,834,0,0
231,190,0,0,0,0,0,0,0,0,0,-1,1455,834,0,0
238,190,0,0,0,0,0,0,0,0,0,-1,1462,834,0,0
245,190,0,0,0,0,0,0,0,0,0,-1,1469,834,0,0
252,190,0,0,0,0,0,0,0,0,0,-1,1476,834,0,0
259,190,0,0,0,0,0,0,0,0,0,-1,1483,834,0,0
266,190,0,0,0,0,0,0,0,0,0,-1,1490,834,0,0
273,190,0,0,0,0,0,0,0,0,0,-1,1497,834,0,0
280,190,0,0,0,0,0,0,0,0,0,-1,1504,834,0,0
287,190,0,0,0,0,0,0,0,0,0,-1,1511,834,0,0
294,190,0,0,0,0,0,0,0,0,0,-1,1518,834,0,0
301,190,0,0,0,0,0,0,0,0,0,-1,1525,834,0,0
308,190,0,0,0,0,0,0,0,0,0,-1,1532,834,0,0
315,190,0,0,0,0,0,0,0,0,0,-1,1539,834,0,0
322,190,0,0,0,0,0,0,0,0,0,-1,1546,834,0,0
329,190,0,0,0,0,0,0,0,0,0,-1,1553,834,0,0
336,190,0,0,0,0,0,0,0,0,0,-1,1560,834,0,0
343,190,0,0,0,0,0,0,0,0,0,-1,1567,834,0,0
350,190,0,0,0,0,0,0,0,0,0,-1,1574,834,0,0
357,190,0,0,0,0,0,0,0,0,0,-1,1581,834,0,0
364,190,0,0,0,0,0,0,0,0,0,-1,1588,834,0,0
371,190,0,0,0,0,0,0,0,0,0,-1,1595,834,0,0
378,190,0,0,0,0,0,0,0,0,0,-1,1602,834,0,0
385,190,0,0,0,0,0,0,0,0,0,-1,1609,834,0,0
392,190,0,0,0,0,0,0,0,0,0,-1,1616,834,0,0
399,190,0,0,0,0,0,0,0,0,0,-1,1623,834,0,0
406,190,0,0,0,0,0,0,0,0,0,-1,1630,834,0,0
413,190,0,0,0,0,0,0,0,0,0,-1,1637,834,0,0
420,190,0,0,0,0,0,0,0,0,0,-1,1644,834,0,0
427,190,0,0,0,0,0,0,0,0,0,-1,1651,834,0,0
434,190,0,0,0,0,0,0,0,0,0,-1,1658,834,0,0
441,190,0,0,0,0,0,0,0,0,0,-1,1665,834,0,0
448,190,0,0,0,0,0,0,0,0,0,-1,1672,834,0,0
455,190,0,0,0,0,0,0,0,0,0,-1,1679,834,0,0
462,190,0,0,0,0,0,0,0,0,0,-1,1686,834,0,0
469,190,0,0,0,0,0,0,0,0,0,-1,1693,834,0,0
476,190,0,0,0,0,0,0,0,0,0,-1,1700,834,0,0
483,190,0,0,0,0,0,0,0,0,0,-1,1707,834,0,0
490,190,0,0,0,0,0,0,0,0,0,-1,1714,834,0,0
497,190,0,0,0,0,0,0,0,0,0,-1,1721,834,0,0
504,190,0,0,0,0,0,0,0,0,0,-1,1728,834,0,0
511,190,0,0,0,0,0,0,0,0,0,-1,1735,834,0,0
518,190,0,0,0,0,0,0,0,0,0,-1,1742,834,0,0
525,190,0,0,0,0,0,0,0,0,0,-1,1749,834,0,0
532,190,0,0,0,0,0,0,0,0,0,-1,1756,834,0,0
539,190,0,0,0,0,0,0,0,0,0,-1,1763,834,0,0
546,190,0,0,0,0,0,0,0,0,0,-1,1770,834,0,0
553,190,0,0,0,0,0,0,0,0,0,-1,1777,834,0,0
560,190,0,0,0,0,0,0,0,0,0,-1,1784,834,0,0
567,190,0,0,0,0,0,0,0,0,0,-1,1791,834,0,0
574,190,0,0,0,0,0,0,0,0,0,-1,1798,834,0,0
581,190,0,0,0,0,0,0,0,0,0,-1,1805,834,0,0
588,190,0,0,0,0,0,0,0,0,0,-1,1812,834,0,0
595,190,0,0,0,0,0,0,0,0,0,-1,1819,834,0,0
602,190,24.2848,2.84326,0.00449198,0.00151306,-0.00216579,0.00563104,0.000374003,-0.484179,0.00363578,0.0456507,1826,834,24.2848,-2.84326
609,190,24.2238,2.89343,0.00289072,0.00238713,-0.00110419,0.00377146,0.00150639,-0.673298,0.00219209,0.0458626,1833,834,24.2237,-2.89343
616,190,24.1431,2.7923,0.00166026,0.00261082,-0.000666699,0.0029543,0.00131677,-1.09506,0.00170902,0.0427022,1840,834,24.1431,-2.7923
623,190,24.3129,2.8822,0.000372379,0.00250813,-0.000488597,0.0026146,0.00026591,-1.35624,0.00166154,0.039439,1847,834,24.3129,-2.88221
630,190,24.2684,2.69385,-0.000633633,0.00222027,-0.000465145,0.00229417,-0.000707532,-1.41324,0.00181194,0.0406287,1854,834,24.2684,-2.69387
637,190,24.27,2.79907,-0.00131068,0.00172912,-0.000538094,0.00182156,-0.00140312,-1.40067,0.00186699,0.0332908,1861,834,24.27,-2.79909
644,190,24.2777,2.88544,-0.00161324,0.00123048,-0.000599549,0.00135172,-0.00173447,-1.37128,0.00178638,0.0265817,1868,834,24.2777,-2.88542
651,190,24.2693,2.96808,-0.00166258,0.000737745,-0.000652091,0.000903456,-0.0018283,-1.32194,0.00160702,0.0365443,1875,834,24.2693,-2.96811
658,190,24.3585,2.81537,-0.00161802,0.000314634,-0.000731816,0.000560471,-0.00186386,-1.24671,0.00146556,0.0481909,1882,834,24.3585,-2.81539
665,190,24.5936,2.54242,0,0,0,0,0,0,0,-1,1889,834,24.5936,-2.54244
672,190,19.6597,2.19128,0,0,0,0,0,0,0,-1,1896,834,19.6596,-2.19129
679,190,19.4569,2.34296,-0.00128051,-0.000465559,-0.000741631,-2.68345e-05,-0.00171923,-1.0366,0.00113731,0.0374123,1903,834,19.4569,-2.34293
686,190,19.3392,2.44415,-0.000661297,-0.000470019,-0.000666556,0.000107724,-0.00123904,-0.856653,0.000864176,0.0155441,1910,834,19.3393,-2.44414
693,190,19.3604,2.66321,-0.000134972,-0.000723162,-0.000906366,0.000523819,-0.00138195,-0.628519,0.00113687,0.0134804,1917,834,19.3604,-2.66322
700,190,19.3528,2.89417,0.000567202,-0.000808074,-0.00113804,0.00120922,-0.00145009,-0.513636,0.00153745,0.0118534,1924,834,19.3527,-2.89415
707,190,19.3693,3.14191,0.00174423,-0.000488543,-0.000932244,0.00208228,-0.000826597,-0.347877,0.00173082,0.0134326,1931,834,19.3693,-3.14192
714,190,19.3751,3.37891,0.00334238,-0.000366008,-0.000504047,0.00340967,-0.000433298,-0.132714,0.00243046,0.0117641,1938,834,19.3751,-3.37889
721,190,19.361,3.61908,0.00584464,-0.00014426,0.000330184,0.00586279,-0.000162409,0.0549108,0.00396377,0.010685,1945,834,19.361,-3.6191
728,190,19.3556,3.86945,0.00895128,0.000303324,0.00127817,0.00913624,0.000118366,0.143708,0.00605176,0.0128985,1952,834,19.3556,-3.86945
735,190,19.3677,4.10742,0.012975,0.00150512,0.00264053,0.0135537,0.000926428,0.215747,0.00874334,0.0116188,1959,834,19.3676,-4.10742
742,190,19.3375,4.39337,0.0180369,0.00245359,0.00475133,0.0193713,0.00111918,0.273796,0.0125578,0.0146365,1966,834,19.3375,-4.39334
749,190,19.3561,4.599,0.0243166,0.00412151,0.00783155,0.0269977,0.00144041,0.329839,0.017538,0.0365628,1973,834,19.3561,-4.59897
756,190,19.7852,4.87329,0.032164,0.00682682,0.0121487,0.0370478,0.00194307,0.382227,0.024077,0.0437618,1980,834,19.7851,-4.87331
763,190,20.093,5.31317,0.0416755,0.0111994,0.0179619,0.0499923,0.0028826,0.433629,0.0324101,0.0438689,1987,834,20.093,-5.31317
770,190,20.3765,5.94653,0.0529204,0.0181581,0.0255852,0.0664699,0.00460859,0.487035,0.0428597,0.0443327,1994,834,20.3765,-5.94653
777,190,20.5497,6.59937,0,0,0,0,0,0,0,-1,2001,834,20.5497,-6.59936
784,190,0,0,0,0,0,0,0,0,0,-1,2008,834,0,0
791,190,0,0,0,0,0,0,0,0,0,-1,2015,834,0,0
798,190,0,0,0,0,0,0,0,0,0,-1,2022,834,0,0
805,190,0,0,0,0,0,0,0,0,0,-1,2029,834,0,0
812,190,0,0,0,0,0,0,0,0,0,-1,2036,834,0,0
-700,183,0,0,0,0,0,0,0,0,0,-1,524,841,0,0
-693,183,0,0,0,0,0,0,0,0,0,-1,531,841,0,0
-686,183,0,0,0,0,0,0,0,0,0,-1,538,841,0,0
-679,183,0,0,0,0,0,0,0,0,0,-1,545,841,0,0
-672,183,0,0,0,0,0,0,0,0,0,-1,552,841,0,0
-665,183,0,0,0,0,0,0,0,0,0,-1,559,841,0,0
-658,183,-12.2777,2.4104,0,0,0,0,0,0,0,-1,566,841,-12.2777,-2.41043
-651,183,-11.7466,2.72961,0,0,0,0,0,0,0,-1,573,841,-11.7466,-2.72963
-644,183,-11.8719,2.59009,0.00711265,0.0290795,-0.0137233,0.0356735,0.000518667,-1.12287,0.0236113,0.0482771,580,841,-11.8719,-2.59011
-637,183,-12.0012,2.4201,0.00248067,0.0288128,-0.0120442,0.0334907,-0.00219726,-1.20033,0.0230944,0.0468978,587,841,-12.0012,-2.4201
-630,183,-12.2824,2.38953,-0.000639092,0.0265759,-0.0101933,0.0299704,-0.0040336,-1.24934,0.0214516,0.0452693,594,841,-12.2824,-2.3895
-623,183,-12.6282,2.37756,-0.00246867,0.0230667,-0.00826158,0.0255065,-0.00490846,-1.28364,0.0188547,0.0475865,601,841,-12.6282,-2.37758
-616,183,-12.9066,2.18896,-0.00325003,0.0189126,-0.00637471,0.0206154,-0.00495279,-1.30978,0.0156578,0.0386084,608,841,-12.9066,-2.18894
-609,183,-13.0552,1.89252,-0.0037004,0.0153308,-0.00444728,0.0163187,-0.00468837,-1.35219,0.012733,0.0164095,615,841,-13.0552,-1.89252
-602,183,-13.0637,1.66956,-0.00389186,0.0114876,-0.00303885,0.0120662,-0.00447054,-1.38262,0.00987753,0.0112232,622,841,-13.0636,-1.66955
-595,183,-13.0718,1.44983,-0.00336477,0.00741207,-0.00176988,0.0076953,-0.00364799,-1.41212,0.00668656,0.011228,629,841,-13.0718,-1.44981
-588,183,-13.0641,1.22626,-0.0028192,0.00407944,-0.00043908,0.00410727,-0.00284703,-1.50749,0.00403698,0.0108444,636,841,-13.0641,-1.22626
-581,183,-13.075,0.998291,-0.00220676,0.00141622,0.000581315,0.00150721,-0.00229775,1.41553,0.00221254,0.010829,643,841,-13.075,-0.998283
-574,183,-13.0552,0.802063,-0.00183469,-0.000659909,0.00123941,0.000124258,-0.00261886,1.00668,0.00178877,0.0113487,650,841,-13.0552,-0.802046
-567,183,-13.0098,0.568054,-0.00182321,-0.00154713,0.0013694,-0.000308829,-0.00306151,0.835631,0.00194625,0.0201225,657,841,-13.0098,-0.568048
-560,183,-13.1368,0.389954,-0.00195297,-0.00256031,0.00125118,-0.000969139,-0.00354415,0.666346,0.00211507,0.0244816,664,841,-13.1368,-0.389969
-553,183,-13.0648,0.0836182,-0.00171332,-0.00362076,0.00126531,-0.00108256,-0.00425153,0.462452,0.00255124,0.0209488,671,841,-13.0647,-0.083606
-546,183,-12.8786,-0.108704,0,0,0,0,0,0,0,-1,678,841,-12.8786,0.108697
-539,183,-12.489,-0.297119,0,0,0,0,0,0,0,-1,685,841,-12.4889,0.297107
-532,183,-17.0579,0.844421,0,0,0,0,0,0,0,-1,692,841,-17.0579,-0.844446
-525,183,-17.0477,0.884888,0,0,0,0,0,0,0,-1,699,841,-17.0477,-0.884874
-518,183,-17.084,0.622009,0,0,0,0,0,0,0,-1,706,841,-17.0841,-0.622005
-511,183,-17.1436,0.368591,0,0,0,0,0,0,0,-1,713,841,-17.1436,-0.368589
-504,183,-17.0479,0.664429,0,0,0,0,0,0,0,-1,720,841,-17.0479,-0.664414
-497,183,-16.9521,0.960266,0,0,0,0,0,0,0,-1,727,841,-16.9521,-0.960238
-490,183,-16.6819,1.04773,0,0,0,0,0,0,0,-1,734,841,-16.6819,-1.04774
-483,183,0,0,0,0,0,0,0,0,0,-1,741,841,0,0
-476,183,0,0,0,0,0,0,0,0,0,-1,748,841,0,0
-469,183,0,0,0,0,0,0,0,0,0,-1,755,841,0,0
-462,183,0,0,0,0,0,0,0,0,0,-1,762,841,0,0
-455,183,0,0,0,0,0,0,0,0,0,-1,769,841,0,0
-448,183,0,0,0,0,0,0,0,0,0,-1,776,841,0,0
-441,183,0,0,0,0,0,0,0,0,0,-1,783,841,0,0
-434,183,0,0,0,0,0,0,0,0,0,-1,790,841,0,0
-427,183,0,0,0,0,0,0,0,0,0,-1,797,841,0,0
-420,183,0,0,0,0,0,0,0,0,0,-1,804,841,0,0
-413,183,0,0,0,0,0,0,0,0,0,-1,811,841,0,0
-406,183,0,0,0,0,0,0,0,0,0,-1,818,841,0,0
-399,183,0,0,0,0,0,0,0,0,0,-1,825,841,0,0
-392,183,0,0,0,0,0,0,0,0,0,-1,832,841,0,0
-385,183,0,0,0,0,0,0,0,0,0,-1,839,841,0,0
-378,183,0,0,0,0,0,0,0,0,0,-1,846,841,0,0
-371,183,0,0,0,0,0,0,0,0,0,-1,853,841,0,0
-364,183,0,0,0,0,0,0,0,0,0,-1,860,841,0,0
-357,183,0,0,0,0,0,0,0,0,0,-1,867,841,0,0
-350,183,0,0,0,0,0,0,0,0,0,-1,874,841,0,0
-343,183,0,0,0,0,0,0,0,0,0,-1,881,841,0,0
-336,183,0,0,0,0,0,0,0,0,0,-1,888,841,0,0
-329,183,0,0,0,0,0,0,0,0,0,-1,895,841,0,0
-322,183,0,0,0,0,0,0,0,0,0,-1,902,841,0,0
-315,183,0,0,0,0,0,0,0,0,0,-1,909,841,0,0
-308,183,0,0,0,0,0,0,0,0,0,-1,916,841,0,0
-301,183,0,0,0,0,0,0,0,0,0,-1,923,841,0,0
-294,183,0,0,0,0,0,0,0,0,0,-1,930,841,0,0
-287,183,0,0,0,0,0,0,0,0,0,-1,937,841,0,0
-280,183,0,0,0,0,0,0,0,0,0,-1,944,841,0,0
-273,183,0,0,0,0,0,0,0,0,0,-1,951,841,0,0
-266,183,0,0,0,0,0,0,0,0,0,-1,958,841,0,0
-259,183,0,0,0,0,0,0,0,0,0,-1,965,841,0,0
-252,183,0,0,0,0,0,0,0,0,0,-1,972,841,0,0
-245,183,0,0,0,0,0,0,0,0,0,-1,979,841,0,0
-238,183,0,0,0,0,0,0,0,0,0,-1,986,841,0,0
-231,183,0,0,0,0,0,0,0,0,0,-1,993,841,0,0
-224,183,0,0,0,0,0,0,0,0,0,-1,1000,841,0,0
-217,183,0,0,0,0,0,0,0,0,0,-1,1007,841,0,0
-210,183,0,0,0,0,0,0,0,0,0,-1,1014,841,0,0
-203,183,0,0,0,0,0,0,0,0,0,-1,1021,841,0,0
-196,183,0,0,0,0,0,0,0,0,0,-1,1028,841,0,0
-189,183,0,0,0,0,0,0,0,0,0,-1,1035,841,0,0
-182,183,0,0,0,0,0,0,0,0,0,-1,1042,841,0,0
-175,183,0,0,0,0,0,0,0,0,0,-1,1049,841,0,0
-168,183,0,0,0,0,0,0,0,0,0,-1,1056,841,0,0
-161,183,0,0,0,0,0,0,0,0,0,-1,1063,841,0,0
-154,183,0,0,0,0,0,0,0,0,0,-1,1070,841,0,0
-147,183,0,0,0,0,0,0,0,0,0,-1,1077,841,0,0
-140,183,0,0,0,0,0,0,0,0,0,-1,1084,841,0,0
-133,183,0,0,0,0,0,0,0,0,0,-1,1091,841,0,0
-126,183,0,0,0,0,0,0,0,0,0,-1,1098,841,0,0
-119,183,0,0,0,0,0,0,0,0,0,-1,1105,841,0,0
-112,183,0,0,0,0,0,0,0,0,0,-1,1112,841,0,0
-105,183,0,0,0,0,0,0,0,0,0,-1,1119,841,0,0
-98,183,0,0,0,0,0,0,0,0,0,-1,1126,841,0,0
-91,183,0,0,0,0,0,0,0,0,0,-1,1133,841,0,0
-84,183,0,0,0,0,0,0,0,0,0,-1,1140,841,0,0
-77,183,0,0,0,0,0,0,0,0,0,-1,1147,841,0,0
-70,183,0,0,0,0,0,0,0,0,0,-1,1154,841,0,0
-63,183,0,0,0,0,0,0,0,0,0,-1,1161,841,0,0
-56,183,0,0,0,0,0,0,0,0,0,-1,1168,841,0,0
-49,183,0,0,0,0,0,0,0,0,0,-1,1175,841,0,0
-42,183,0,0,0,0,0,0,0,0,0,-1,1182,841,0,0
-35,183,0,0,0,0,0,0,0,0,0,-1,1189,841,0,0
-28,183,0,0,0,0,0,0,0,0,0,-1,1196,841,0,0
-21,183,0,0,0,0,0,0,0,0,0,-1,1203,841,0,0
-14,183,0,0,0,0,0,0,0,0,0,-1,1210,841,0,0
-7,183,0,0,0,0,0,0,0,0,0,-1,1217,841,0,0
0,183,0,0,0,0,0,0,0,0,0,-1,1224,841,0,0
7,183,0,0,0,0,0,0,0,0,0,-1,1231,841,0,0
14,183,0,0,0,0,0,0,0,0,0,-1,1238,841,0,0
21,183,0,0,0,0,0,0,0,0,0,-1,1245,841,0,0
28,183,0,0,0,0,0,0,0,0,0,-1,1252,841,0,0
35,183,0,0,0,0,0,0,0,0,0,-1,1259,841,0,0
42,183,0,0,0,0,0,0,0,0,0,-1,1266,841,0,0
49,183,0,0,0,0,0,0,0,0,0,-1,1273,841,0,0
56,183,0,0,0,0,0,0,0,0,0,-1,1280,841,0,0
63,183,0,0,0,0,0,0,0,0,0,-1,1287,841,0,0
70,183,0,0,0,0,0,0,0,0,0,-1,1294,841,0,0
77,183,0,0,0,0,0,0,0,0,0,-1,1301,841,0,0
84,183,0,0,0,0,0,0,0,0,0,-1,1308,841,0,0
91,183,0,0,0,0,0,0,0,0,0,-1,1315,841,0,0
98,183,0,0,0,0,0,0,0,0,0,-1,1322,841,0,0
105,183,0,0,0,0,0,0,0,0,0,-1,1329,841,0,0
112,183,0,0,0,0,0,0,0,0,0,-1,1336,841,0,0
119,183,0,0,0,0,0,0,0,0,0,-1,1343,841,0,0
126,183,0,0,0,0,0,0,0,0,0,-1,1350,841,0,0
133,183,0,0,0,0,0,0,0,0,0,-1,1357,841,0,0
140,183,0,0,0,0,0,0,0,0,0,-1,1364,841,0,0
147,183,0,0,0,0,0,0,0,0,0,-1,1371,841,0,0
154,183,0,0,0,0,0,0,0,0,0,-1,1378,841,0,0
161,183,0,0,0,0,0,0,0,0,0,-1,1385,841,0,0
168,183,0,0,0,0,0,0,0,0,0,-1,1392,841,0,0
175,183,0,0,0,0,0,0,0,0,0,-1,1399,841,0,0
182,183,0,0,0,0,0,0,0,0,0,-1,1406,841,0,0
189,183,0,0,0,0,0,0,0,0,0,-1,1413,841,0,0
196,183,0,0,0,0,0,0,0,0,0,-1,1420,841,0,0
203,183,0,0,0,0,0,0,0,0,0,-1,1427,841,0,0
210,183,0,0,0,0,0,0,0,0,0,-1,1434,841,0,0
217,183,0,0,0,0,0,0,0,0,0,-1,1441,841,0,0
224,183,0,0,0,0,0,0,0,0,0,-1,1448,841,0,0
231,183,0,0,0,0,0,0,0,0,0,-1,1455,841,0,0
238,183,0,0,0,0,0,0,0,0,0,-1,1462,841,0,0
245,183,0,0,0,0,0,0,0,0,0,-1,1469,841,0,0
252,183,0,0,0,0,0,0,0,0,0,-1,1476,841,0,0
259,183,0,0,0,0,0,0,0,0,0,-1,1483,841,0,0
266,183,0,0,0,0,0,0,0,0,0,-1,1490,841,0,0
273,183,0,0,0,0,0,0,0,0,0,-1,1497,841,0,0
280,183,0,0,0,0,0,0,0,0,0,-1,1504,841,0,0
287,183,0,0,0,0,0,0,0,0,0,-1,1511,841,0,0
294,183,0,0,0,0,0,0,0,0,0,-1,1518,841,0,0
301,183,0,0,0,0,0,0,0,0,0,-1,1525,841,0,0
308,183,0,0,0,0,0,0,0,0,0,-1,1532,841,0,0
315,183,0,0,0,0,0,0,0,0,0,-1,1539,841,0,0
322,183,0,0,0,0,0,0,0,0,0,-1,1546,841,0,0
329,183,0,0,0,0,0,0,0,0,0,-1,1553,841,0,0
336,183,0,0,0,0,0,0,0,0,0,-1,1560,841,0,0
343,183,0,0,0,0,0,0,0,0,0,-1,1567,841,0,0
350,183,0,0,0,0,0,0,0,0,0,-1,1574,841,0,0
357,183,0,0,0,0,0,0,0,0,0,-1,1581,841,0,0
364,183,0,0,0,0,0,0,0,0,0,-1,1588,841,0,0
371,183,0,0,0,0,0,0,0,0,0,-1,1595,841,0,0
378,183,0,0,0,0,0,0,0,0,0,-1,1602,841,0,0
385,183,0,0,0,0,0,0,0,0,0,-1,1609,841,0,0
392,183,0,0,0,0,0,0,0,0,0,-1,1616,841,0,0
399,183,0,0,0,0,0,0,0,0,0,-1,1623,841,0,0
406,183,0,0,0,0,0,0,0,0,0,-1,1630,841,0,0
413,183,0,0,0,0,0,0,0,0,0,-1,1637,841,0,0
420,183,0,0,0,0,0,0,0,0,0,-1,1644,841,0,0
427,183,0,0,0,0,0,0,0,0,0,-1,1651,841,0,0
434,183,0,0,0,0,0,0,0,0,0,-1,1658,841,0,0
441,183,0,0,0,0,0,0,0,0,0,-1,1665,841,0,0
448,183,0,0,0,0,0,0,0,0,0,-1,1672,841,0,0
455,183,0,0,0,0,0,0,0,0,0,-1,1679,841,0,0
462,183,0,0,0,0,0,0,0,0,0,-1,1686,841,0,0
469,183,0,0,0,0,0,0,0,0,0,-1,1693,841,0,0
476,183,0,0,0,0,0,0,0,0,0,-1,1700,841,0,0
483,183,0,0,0,0,0,0,0,0,0,-1,1707,841,0,0
490,183,0,0,0,0,0,0,0,0,0,-1,1714,841,0,0
497,183,0,0,0,0,0,0,0,0,0,-1,1721,841,0,0
504,183,0,0,0,0,0,0,0,0,0,-1,1728,841,0,0
511,183,0,0,0,0,0,0,0,0,0,-1,1735,841,0,0
518,183,0,0,0,0,0,0,0,0,0,-1,1742,841,0,0
525,183,0,0,0,0,0,0,0,0,0,-1,1749,841,0,0
532,183,0,0,0,0,0,0,0,0,0,-1,1756,841,0,0
539,183,0,0,0,0,0,0,0,0,0,-1,1763,841,0,0
546,183,0,0,0,0,0,0,0,0,0,-1,1770,841,0,0
553,183,0,0,0,0,0,0,0,0,0,-1,1777,841,0,0
560,183,0,0,0,0,0,0,0,0,0,-1,1784,841,0,0
567,183,0,0,0,0,0,0,0,0,0,-1,1791,841,0,0
574,183,0,0,0,0,0,0,0,0,0,-1,1798,841,0,0
581,183,0,0,0,0,0,0,0,0,0,-1,1805,841,0,0
588,183,0,0,0,0,0,0,0,0,0,-1,1812,841,0,0
595,183,0,0,0,0,0,0,0,0,0,-1,1819,841,0,0
602,183,0,0,0,0,0,0,0,0,0,-1,1826,841,0,0
609,183,24.297,2.93488,0.00377086,0.002611,-0.00147084,0.00477197,0.00160989,-0.597614,0.00280326,0.0426001,1833,841,24.297,-2.93489
616,183,24.3,3.02484,0.00255157,0.00281023,-0.000940817,0.00363057,0.00173123,-0.853705,0.00209686,0.0401557,1840,841,24.3001,-3.02487
623,183,24.3767,2.97424,0.00122144,0.00269053,-0.000613915,0.0029133,0.000998673,-1.22271,0.00170948,0.0428781,1847,841,24.3768,-2.97422
630,183,24.4338,2.75031,0.000131003,0.00245737,-0.000446948,0.00254029,4.80898e-05,-1.38737,0.00167773,0.0410663,1854,841,24.4338,-2.75031
637,183,24.34,2.73132,-0.000646297,0.00199915,-0.000439033,0.00207011,-0.000717255,-1.41056,0.00167128,0.0349185,1861,841,24.34,-2.73134
644,183,24.2468,2.82776,-0.0011558,0.00153,-0.000481801,0.00161382,-0.00123962,-1.39856,0.00165215,0.0274779,1868,841,24.2469,-2.82776
651,183,24.2853,2.85718,-0.00139661,0.00105097,-0.000528336,0.00116015,-0.00150579,-1.36702,0.00154348,0.0230059,1875,841,24.2852,-2.85719
658,183,24.363,2.9024,-0.00150139,0.000643638,-0.000608443,0.000804205,-0.00166196,-1.31278,0.00145226,0.0419471,1882,841,24.3631,-2.90239
665,183,24.4376,2.93872,0,0,0,0,0,0,0,-1,1889,841,24.4376,-2.93872
672,183,19.6763,2.13013,0,0,0,0,0,0,0,-1,1896,841,19.6763,-2.1301
679,183,19.6797,2.28473,-0.00166667,-0.000137005,-0.000677557,0.000119951,-0.00192363,-1.20831,0.00132422,0.0411153,1903,841,19.6796,-2.28475
686,183,19.6654,2.45532,-0.00130041,-0.00017969,-0.000711779,0.000165838,-0.00164594,-1.11886,0.00115654,0.0187338,1910,841,19.6654,-2.45531
693,183,19.6615,2.68304,-0.00095172,-0.000449023,-0.000956981,0.000289067,-0.00168981,-0.913821,0.00123423,0.0151826,1917,841,19.6615,-2.68303
700,183,19.6136,2.91376,-0.000416263,-0.000603281,-0.00119003,0.000683929,-0.00170347,-0.74619,0.00141965,0.0153825,1924,841,19.6137,-2.91378
707,183,19.6008,3.14825,0.000608219,-0.000429566,-0.00101315,0.00122762,-0.00104897,-0.548734,0.00131574,0.0122823,1931,841,19.6009,-3.14827
714,183,19.6107,3.38104,0.00206303,-0.000344241,-0.000628228,0.00221711,-0.000498328,-0.240524,0.00166917,0.0159912,1938,841,19.6107,-3.38105
721,183,19.6031,3.62073,0.004457,-0.00014964,0.000107868,0.00445953,-0.000152165,0.0233987,0.00302502,0.0144183,1945,841,19.6032,-3.62071
728,183,19.5881,3.8728,0.00755477,0.000472194,0.00100634,0.00769498,0.000331982,0.138438,0.00502299,0.0126435,1952,841,19.5881,-3.8728
735,183,19.6093,4.09332,0.0116477,0.00217229,0.00223354,0.0121478,0.0016722,0.220269,0.00760269,0.0115962,1959,841,19.6093,-4.0933
742,183,19.6232,4.33258,0.0168281,0.00366889,0.00413115,0.0180175,0.00247948,0.280331,0.0112764,0.0102933,1966,841,19.6232,-4.33256
749,183,19.5798,4.61041,0.0232097,0.00625658,0.00681679,0.0256107,0.00385561,0.338646,0.0159447,0.0293386,1973,841,19.5798,-4.61042
756,183,19.6476,4.9494,0.0313119,0.010366,0.0105322,0.0356919,0.00598599,0.39411,0.0220715,0.0427912,1980,841,19.6476,-4.94939
763,183,20.121,5.25427,0.0414413,0.0167743,0.0154521,0.0488786,0.00933702,0.448584,0.0299623,0.044827,1987,841,20.121,-5.25427
770,183,20.4618,5.63672,0.0538017,0.0265443,0.0217671,0.0658546,0.0144913,0.505698,0.0399584,0.0464846,1994,841,20.4617,-5.63673
777,183,20.7958,5.95673,0,0,0,0,0,0,0,-1,2001,841,20.7958,-5.95672
784,183,0,0,0,0,0,0,0,0,0,-1,2008,841,0,0
791,183,0,0,0,0,0,0,0,0,0,-1,2015,841,0,0
798,183,0,0,0,0,0,0,0,0,0,-1,2022,841,0,0
805,183,0,0,0,0,0,0,0,0,0,-1,2029,841,0,0
812,183,0,0,0,0,0,0,0,0,0,-1,2036,841,0,0
-700,176,0,0,0,0,0,0,0,0,0,-1,524,848,0,0
-693,176,0,0,0,0,0,0,0,0,0,-1,531,848,0,0
-686,176,0,0,0,0,0,0,0,0,0,-1,538,848,0,0
-679,176,0,0,0,0,0,0,0,0,0,-1,545,848,0,0
-672,176,0,0,0,0,0,0,0,0,0,-1,552,848,0,0
-665,176,-12.174,2.31659,0.0286724,0.00918756,-0.0202337,0.041387,-0.00352706,-0.561031,0.028839,0.0443506,559,848,-12.174,-2.31661
-658,176,-11.8556,2.19873,0.0179319,0.0208599,-0.0185529,0.0380064,0.000785343,-0.824772,0.0250799,0.0480449,566,848,-11.8556,-2.19873
-651,176,-11.8176,2.38232,0,0,0,0,0,0,0,-1,573,848,-11.8176,-2.3823
-644,176,-11.9068,2.28577,0.0041663,0.0283647,-0.0144778,0.0351334,-0.00260241,-1.13347,0.0243362,0.0481407,580,848,-11.9068,-2.28577
-637,176,-11.9891,2.03296,0.00013861,0.0277646,-0.0122689,0.0324265,-0.00452336,-1.20766,0.0232725,0.0460633,587,848,-11.9891,-2.03297
-630,176,-12.1238,1.7677,-0.00249652,0.0253817,-0.0100499,0.0286269,-0.00574171,-1.25846,0.0212585,0.0436184,594,848,-12.1239,-1.76767
-623,176,-12.6951,2.09558,0,0,0,0,0,0,0,-1,601,848,-12.6951,-2.09556
-616,176,-13.2141,2.13116,-0.00438201,0.0177815,-0.00589262,0.0192508,-0.00585128,-1.32644,0.0151653,0.0288547,608,848,-13.2141,-2.13115
-609,176,-13.2925,1.88416,-0.00459764,0.0142639,-0.00392381,0.0150476,-0.00538136,-1.37366,0.0122269,0.0119339,615,848,-13.2925,-1.88418
-602,176,-13.3016,1.66638,-0.00464542,0.0104753,-0.00243234,0.010857,-0.00502705,-1.41516,0.00937428,0.0123758,622,848,-13.3017,-1.66635
-595,176,-13.294,1.43842,-0.00403822,0.00654872,-0.00115906,0.00667413,-0.00416363,-1.46302,0.0063129,0.0112226,629,848,-13.294,-1.43841
-588,176,-13.2844,1.21515,-0.00345056,0.00332156,0.000112058,0.00332341,-0.00345241,1.55426,0.00391226,0.0110747,636,848,-13.2844,-1.21512
-581,176,-13.2925,1.01166,-0.0028637,0.000847974,0.0010429,0.00112093,-0.00313666,1.31481,0.0025483,0.0104133,643,848,-13.2926,-1.01169
-574,176,-13.2828,0.802734,-0.00244417,-0.0010734,0.0015912,-2.62484e-05,-0.00349132,0.988756,0.00231885,0.0127528,650,848,-13.2828,-0.802718
-567,176,-13.2338,0.658508,-0.00234305,-0.00188632,0.00166186,-0.000437212,-0.00379216,0.853678,0.00239571,0.0264066,657,848,-13.2339,-0.658492
-560,176,-13.3743,0.412659,-0.00229715,-0.00281544,0.00150325,-0.00103087,-0.00408172,0.700041,0.00245089,0.0212092,664,848,-13.3743,-0.41263
-553,176,-13.2499,0.104248,-0.00194256,-0.00377745,0.00151334,-0.00109029,-0.00462972,0.512901,0.00279486,0.0372757,671,848,-13.2499,-0.104232
-546,176,-12.9265,-0.0870972,0,0,0,0,0,0,0,-1,678,848,-12.9264,0.0871013
-539,176,-17.1865,0.670654,0,0,0,0,0,0,0,-1,685,848,-17.1865,-0.670679
-532,176,-17.0643,0.788025,-0.000467512,-0.0069909,0.000423352,-0.000440153,-0.00701826,0.0645368,0.00453924,0.0428884,692,848,-17.0643,-0.788038
-525,176,-16.9556,0.908142,0.000196125,-0.00795154,-2.86413e-05,0.000196226,-0.00795164,-0.00351522,0.0053677,0.049047,699,848,-16.9556,-0.908146
-518,176,-16.9018,0.852783,0.000888055,-0.00904261,-0.000467952,0.000910057,-0.00906461,-0.0469831,0.00636814,0.0432274,706,848,-16.9018,-0.852794
-511,176,-17.161,0.221436,0.00181014,-0.0101045,-0.000801764,0.00186385,-0.0101582,-0.0668904,0.00747132,0.0388799,713,848,-17.161,-0.221457
-504,176,-17.0269,0.459045,0.0029002,-0.011061,-0.000947008,0.00296414,-0.0111249,-0.06742,0.00857712,0.0393201,720,848,-17.0269,-0.45903
-497,176,-16.855,0.803101,0.00397502,-0.0119094,-0.00015304,0.0039765,-0.0119109,-0.00963337,0.00954628,0.039876,727,848,-16.855,-0.803086
-490,176,-16.7544,0.854187,0,0,0,0,0,0,0,-1,734,848,-16.7544,-0.854165
-483,176,0,0,0,0,0,0,0,0,0,-1,741,848,0,0
-476,176,0,0,0,0,0,0,0,0,0,-1,748,848,0,0
-469,176,0,0,0,0,0,0,0,0,0,-1,755,848,0,0
-462,176,0,0,0,0,0,0,0,0,0,-1,762,848,0,0
-455,176,0,0,0,0,0,0,0,0,0,-1,769,848,0,0
-448,176,0,0,0,0,0,0,0,0,0,-1,776,848,0,0
-441,176,0,0,0,0,0,0,0,0,0,-1,783,848,0,0
-434,176,0,0,0,0,0,0,0,0,0,-1,790,848,0,0
-427,176,0,0,0,0,0,0,0,0,0,-1,797,848,0,0
-420,176,0,0,0,0,0,0,0,0,0,-1,804,848,0,0
-413,176,0,0,0,0,0,0,0,0,0,-1,811,848,0,0
-406,176,0,0,0,0,0,0,0,0,0,-1,818,848,0,0
-399,176,0,0,0,0,0,0,0,0,0,-1,825,848,0,0
-392,176,0,0,0,0,0,0,0,0,0,-1,832,848,0,0
-385,176,0,0,0,0,0,0,0,0,0,-1,839,848,0,0
-378,176,0,0,0,0,0,0,0,0,0,-1,846,848,0,0
-371,176,0,0,0,0,0,0,0,0,0,-1,853,848,0,0
-364,176,0,0,0,0,0,0,0,0,0,-1,860,848,0,0
-357,176,0,0,0,0,0,0,0,0,0,-1,867,848,0,0
-350,176,0,0,0,0,0,0,0,0,0,-1,874,848,0,0
-343,176,0,0,0,0,0,0,0,0,0,-1,881,848,0,0
-336,176,0,0,0,0,0,0,0,0,0,-1,888,848,0,0
-329,176,0,0,0,0,0,0,0,0,0,-1,895,848,0,0
-322,176,0,0,0,0,0,0,0,0,0,-1,902,848,0,0
-315,176,0,0,0,0,0,0,0,0,0,-1,909,848,0,0
-308,176,0,0,0,0,0,0,0,0,0,-1,916,848,0,0
-301,176,0,0,0,0,0,0,0,0,0,-1,923,848,0,0
-294,176,0,0,0,0,0,0,0,0,0,-1,930,848,0,0
-287,176,0,0,0,0,0,0,0,0,0,-1,937,848,0,0
-280,176,0,0,0,0,0,0,0,0,0,-1,944,848,0,0
-273,176,0,0,0,0,0,0,0,0,0,-1,951,848,0,0
-266,176,0,0,0,0,0,0,0,0,0,-1,958,848,0,0
-259,176,0,0,0,0,0,0,0,0,0,-1,965,848,0,0
-252,176,0,0,0,0,0,0,0,0,0,-1,972,848,0,0
-245,176,0,0,0,0,0,0,0,0,0,-1,979,848,0,0
-238,176,0,0,0,0,0,0,0,0,0,-1,986,848,0,0
-231,176,0,0,0,0,0,0,0,0,0,-1,993,848,0,0
-224,176,0,0,0,0,0,0,0,0,0,-1,1000,848,0,0
-217,176,0,0,0,0,0,0,0,0,0,-1,1007,848,0,0
-210,176,0,0,0,0,0,0,0,0,0,-1,1014,848,0,0
-203,176,0,0,0,0,0,0,0,0,0,-1,1021,848,0,0
-196,176,0,0,0,0,0,0,0,0,0,-1,1028,848,0,0
-189,176,0,0,0,0,0,0,0,0,0,-1,1035,848,0,0
-182,176,0,0,0,0,0,0,0,0,0,-1,1042,848,0,0
-175,176,0,0,0,0,0,0,0,0,0,-1,1049,848,0,0
-168,176,0,0,0,0,0,0,0,0,0,-1,1056,848,0,0
-161,176,0,0,0,0,0,0,0,0,0,-1,1063,848,0,0
-154,176,0,0,0,0,0,0,0,0,0,-1,1070,848,0,0
-147,176,0,0,0,0,0,0,0,0,0,-1,1077,848,0,0
-140,176,0,0,0,0,0,0,0,0,0,-1,1084,848,0,0
-133,176,0,0,0,0,0,0,0,0,0,-1,1091,848,0,0
-126,176,0,0,0,0,0,0,0,0,0,-1,1098,848,0,0
-119,176,0,0,0,0,0,0,0,0,0,-1,1105,848,0,0
-112,176,0,0,0,0,0,0,0,0,0,-1,1112,848,0,0
-105,176,0,0,0,0,0,0,0,0,0,-1,1119,848,0,0
-98,176,0,0,0,0,0,0,0,0,0,-1,1126,848,0,0
-91,176,0,0,0,0,0,0,0,0,0,-1,1133,848,0,0
-84,176,0,0,0,0,0,0,0,0,0,-1,1140,848,0,0
-77,176,0,0,0,0,0,0,0,0,0,-1,1147,848,0,0
-70,176,0,0,0,0,0,0,0,0,0,-1,1154,848,0,0
-63,176,0,0,0,0,0,0,0,0,0,-1,1161,848,0,0
-56,176,0,0,0,0,0,0,0,0,0,-1,1168,848,0,0
-49,176,0,0,0,0,0,0,0,0,0,-1,1175,848,0,0
-42,176,0,0,0,0,0,0,0,0,0,-1,1182,848,0,0
-35,176,0,0,0,0,0,0,0,0,0,-1,1189,848,0,0
-28,176,0,0,0,0,0,0,0,0,0,-1,1196,848,0,0
-21,176,0,0,0,0,0,0,0,0,0,-1,1203,848,0,0
-14,176,0,0,0,0,0,0,0,0,0,-1,1210,848,0,0
-7,176,0,0,0,0,0,0,0,0,0,-1,1217,848,0,0
0,176,0,0,0,0,0,0,0,0,0,-1,1224,848,0,0
7,176,0,0,0,0,0,0,0,0,0,-1,1231,848,0,0
14,176,0,0,0,0,0,0,0,0,0,-1,1238,848,0,0
21,176,0,0,0,0,0,0,0,0,0,-1,1245,848,0,0
28,176,0,0,0,0,0,0,0,0,0,-1,1252,848,0,0
35,176,0,0,0,0,0,0,0,0,0,-1,1259,848,0,0
42,176,0,0,0,0,0,0,0,0,0,-1,1266,848,0,0
49,176,0,0,0,0,0,0,0,0,0,-1,1273,848,0,0
56,176,0,0,0,0,0,0,0,0,0,-1,1280,848,0,0
63,176,0,0,0,0,0,0,0,0,0,-1,1287,848,0,0
70,176,0,0,0,0,0,0,0,0,0,-1,1294,848,0,0
77,176,0,0,0,0,0,0,0,0,0,-1,1301,848,0,0
84,176,0,0,0,0,0,0,0,0,0,-1,1308,848,0,0
91,176,0,0,0,0,0,0,0,0,0,-1,1315,848,0,0
98,176,0,0,0,0,0,0,0,0,0,-1,1322,848,0,0
105,176,0,0,0,0,0,0,0,0,0,-1,1329,848,0,0
112,176,0,0,0,0,0,0,0,0,0,-1,1336,848,0,0
119,176,0,0,0,0,0,0,0,0,0,-1,1343,848,0,0
126,176,0,0,0,0,0,0,0,0,0,-1,1350,848,0,0
133,176,0,0,0,0,0,0,0,0,0,-1,1357,848,0,0
140,176,0,0,0,0,0,0,0,0,0,-1,1364,848,0,0
147,176,0,0,0,0,0,0,0,0,0,-1,1371,848,0,0
154,176,0,0,0,0,0,0,0,0,0,-1,1378,848,0,0
161,176,0,0,0,0,0,0,0,0,0,-1,1385,848,0,0
168,176,0,0,0,0,0,0,0,0,0,-1,1392,848,0,0
175,176,0,0,0,0,0,0,0,0,0,-1,1399,848,0,0
182,176,0,0,0,0,0,0,0,0,0,-1,1406,848,0,0
189,176,0,0,0,0,0,0,0,0,0,-1,1413,848,0,0
196,176,0,0,0,0,0,0,0,0,0,-1,1420,848,0,0
203,176,0,0,0,0,0,0,0,0,0,-1,1427,848,0,0
210,176,0,0,0,0,0,0,0,0,0,-1,1434,848,0,0
217,176,0,0,0,0,0,0,0,0,0,-1,1441,848,0,0
224,176,0,0,0,0,0,0,0,0,0,-1,1448,848,0,0
231,176,0,0,0,0,0,0,0,0,0,-1,1455,848,0,0
238,176,0,0,0,0,0,0,0,0,0,-1,1462,848,0,0
245,176,0,0,0,0,0,0,0,0,0,-1,1469,848,0,0
252,176,0,0,0,0,0,0,0,0,0,-1,1476,848,0,0
259,176,0,0,0,0,0,0,0,0,0,-1,1483,848,0,0
266,176,0,0,0,0,0,0,0,0,0,-1,1490,848,0,0
273,176,0,0,0,0,0,0,0,0,0,-1,1497,848,0,0
280,176,0,0,0,0,0,0,0,0,0,-1,1504,848,0,0
287,176,0,0,0,0,0,0,0,0,0,-1,1511,848,0,0
294,176,0,0,0,0,0,0,0,0,0,-1,1518,848,0,0
301,176,0,0,0,0,0,0,0,0,0,-1,1525,848,0,0
308,176,0,0,0,0,0,0,0,0,0,-1,1532,848,0,0
315,176,0,0,0,0,0,0,0,0,0,-1,1539,848,0,0
322,176,0,0,0,0,0,0,0,0,0,-1,1546,848,0,0
329,176,0,0,0,0,0,0,0,0,0,-1,1553,848,0,0
336,176,0,0,0,0,0,0,0,0,0,-1,1560,848,0,0
343,176,0,0,0,0,0,0,0,0,0,-1,1567,848,0,0
350,176,0,0,0,0,0,0,0,0,0,-1,1574,848,0,0
357,176,0,0,0,0,0,0,0,0,0,-1,1581,848,0,0
364,176,0,0,0,0,0,0,0,0,0,-1,1588,848,0,0
371,176,0,0,0,0,0,0,0,0,0,-1,1595,848,0,0
378,176,0,0,0,0,0,0,0,0,0,-1,1602,848,0,0
385,176,0,0,0,0,0,0,0,0,0,-1,1609,848,0,0
392,176,0,0,0,0,0,0,0,0,0,-1,1616,848,0,0
399,176,0,0,0,0,0,0,0,0,0,-1,1623,848,0,0
406,176,0,0,0,0,0,0,0,0,0,-1,1630,848,0,0
413,176,0,0,0,0,0,0,0,0,0,-1,1637,848,0,0
420,176,0,0,0,0,0,0,0,0,0,-1,1644,848,0,0
427,176,0,0,0,0,0,0,0,0,0,-1,1651,848,0,0
434,176,0,0,0,0,0,0,0,0,0,-1,1658,848,0,0
441,176,0,0,0,0,0,0,0,0,0,-1,1665,848,0,0
448,176,0,0,0,0,0,0,0,0,0,-1,1672,848,0,0
455,176,0,0,0,0,0,0,0,0,0,-1,1679,848,0,0
462,176,0,0,0,0,0,0,0,0,0,-1,1686,848,0,0
469,176,0,0,0,0,0,0,0,0,0,-1,1693,848,0,0
476,176,0,0,0,0,0,0,0,0,0,-1,1700,848,0,0
483,176,0,0,0,0,0,0,0,0,0,-1,1707,848,0,0
490,176,0,0,0,0,0,0,0,0,0,-1,1714,848,0,0
497,176,0,0,0,0,0,0,0,0,0,-1,1721,848,0,0
504,176,0,0,0,0,0,0,0,0,0,-1,1728,848,0,0
511,176,0,0,0,0,0,0,0,0,0,-1,1735,848,0,0
518,176,0,0,0,0,0,0,0,0,0,-1,1742,848,0,0
525,176,0,0,0,0,0,0,0,0,0,-1,1749,848,0,0
532,176,0,0,0,0,0,0,0,0,0,-1,1756,848,0,0
539,176,0,0,0,0,0,0,0,0,0,-1,1763,848,0,0
546,176,0,0,0,0,0,0,0,0,0,-1,1770,848,0,0
553,176,0,0,0,0,0,0,0,0,0,-1,1777,848,0,0
560,176,0,0,0,0,0,0,0,0,0,-1,1784,848,0,0
567,176,0,0,0,0,0,0,0,0,0,-1,1791,848,0,0
574,176,0,0,0,0,0,0,0,0,0,-1,1798,848,0,0
581,176,0,0,0,0,0,0,0,0,0,-1,1805,848,0,0
588,176,0,0,0,0,0,0,0,0,0,-1,1812,848,0,0
595,176,0,0,0,0,0,0,0,0,0,-1,1819,848,0,0
602,176,0,0,0,0,0,0,0,0,0,-1,1826,848,0,0
609,176,24.2933,2.81848,0.00506047,0.00322296,-0.00207028,0.0064067,0.00187672,-0.576562,0.00380318,0.0367594,1833,848,24.2934,-2.81848
616,176,24.3671,2.77576,0.00354718,0.00338585,-0.00149329,0.00496198,0.00197105,-0.758415,0.0028849,0.0382792,1840,848,24.3671,-2.77577
623,176,24.4368,2.80566,0.00200994,0.00323592,-0.00102177,0.00381447,0.00143139,-1.05558,0.00222501,0.0436499,1847,848,24.4368,-2.80568
630,176,24.4786,2.78156,0.000774744,0.00305641,-0.000678176,0.00324276,0.000588391,-1.30263,0.00199485,0.0414414,1854,848,24.4787,-2.78156
637,176,24.3422,2.82721,-0.000111192,0.00266431,-0.000536667,0.00276447,-0.000211347,-1.38629,0.00191731,0.0334461,1861,848,24.3422,-2.82722
644,176,24.241,2.8703,-0.000735091,0.00222341,-0.000502424,0.0023064,-0.000818087,-1.40708,0.0018709,0.0319598,1868,848,24.241,-2.87031
651,176,24.2727,2.81012,-0.00106518,0.00173624,-0.00050439,0.00182429,-0.00115323,-1.39798,0.00173356,0.0308316,1875,848,24.2727,-2.81015
658,176,24.3806,2.74396,-0.00123053,0.00129491,-0.000558384,0.00141286,-0.00134848,-1.36262,0.00159441,0.0367136,1882,848,24.3806,-2.74395
665,176,24.476,2.74561,0,0,0,0,0,0,0,-1,1889,848,24.4759,-2.74562
672,176,16.9304,2.80719,0,0,0,0,0,0,0,-1,1896,848,16.9305,-2.80719
679,176,20.115,2.23999,0,0,0,0,0,0,0,-1,1903,848,20.115,-2.23999
686,176,20.0045,2.49579,-0.0013285,0.000271699,-0.000673395,0.000517363,-0.00157417,-1.22099,0.00125788,0.026287,1910,848,20.0046,-2.49579
693,176,19.9288,2.74176,-0.00110839,-0.00012956,-0.000888074,0.000395028,-0.00163298,-1.03724,0.00124146,0.0139306,1917,848,19.9289,-2.74174
700,176,19.8762,2.95544,-0.000705383,-0.00040595,-0.00109241,0.000546956,-0.00165829,-0.853499,0.001326,0.0158117,1924,848,19.8762,-2.95542
707,176,19.8638,3.18726,0.000155624,-0.000379109,-0.000948743,0.000873954,-0.00109744,-0.648054,0.00114062,0.0134731,1931,848,19.8637,-3.18728
714,176,19.8462,3.38965,0.00147728,-0.000315586,-0.000613928,0.00166735,-0.000505661,-0.300245,0.00131299,0.0118063,1938,848,19.8462,-3.38964
721,176,19.8356,3.62109,0.00381764,-9.62167e-05,9.3661e-05,0.00381988,-9.84569e-05,0.0239123,0.00258003,0.0111026,1945,848,19.8356,-3.62106
728,176,19.8436,3.88855,0.00694646,0.000761773,0.000991963,0.00710167,0.000606566,0.155205,0.00454577,0.0137322,1952,848,19.8436,-3.88857
735,176,19.8606,4.09698,0.0112939,0.00286041,0.0021356,0.0118038,0.00235045,0.234401,0.00721451,0.0135579,1959,848,19.8606,-4.09699
742,176,19.8862,4.2807,0.0167981,0.00481488,0.00389291,0.0179517,0.00366128,0.288092,0.0109533,0.015607,1966,848,19.8862,-4.28069
749,176,19.8372,4.57874,0.0235998,0.00809005,0.00629145,0.0258309,0.00585891,0.340794,0.0156379,0.0255325,1973,848,19.8372,-4.57873
756,176,20.0377,4.82489,0.032308,0.0131457,0.00951723,0.0362315,0.00922215,0.391026,0.0217423,0.0412241,1980,848,20.0378,-4.82488
763,176,20.7139,5.10529,0.0433551,0.0207407,0.0136716,0.0497895,0.0143063,0.439886,0.0296,0.0425381,1987,848,20.7138,-5.10531
770,176,20.7578,5.42871,0.0570278,0.0318853,0.0188368,0.067103,0.0218101,0.491151,0.0395248,0.0443342,1994,848,20.7578,-5.42874
777,176,20.9387,5.48895,0,0,0,0,0,0,0,-1,2001,848,20.9387,-5.48895
784,176,0,0,0,0,0,0,0,0,0,-1,2008,848,0,0
791,176,0,0,0,0,0,0,0,0,0,-1,2015,848,0,0
798,176,0,0,0,0,0,0,0,0,0,-1,2022,848,0,0
805,176,0,0,0,0,0,0,0,0,0,-1,2029,848,0,0
812,176,0,0,0,0,0,0,0,0,0,-1,2036,848,0,0
-700,169,0,0,0,0,0,0,0,0,0,-1,524,855,0,0
-693,169,0,0,0,0,0,0,0,0,0,-1,531,855,0,0
-686,169,0,0,0,0,0,0,0,0,0,-1,538,855,0,0
-679,169,0,0,0,0,0,0,0,0,0,-1,545,855,0,0
-672,169,0,0,0,0,0,0,0,0,0,-1,552,855,0,0
-665,169,-11.9551,2.75201,0.0297631,0.0113276,-0.0165771,0.0395128,0.00157782,-0.531658,0.025832,0.0440299,559,855,-11.9551,-2.75204
-658,169,-11.7595,2.23956,0.0190408,0.0202408,-0.0154109,0.0350634,0.00421821,-0.804856,0.0221041,0.0494626,566,855,-11.7595,-2.23959
-651,169,-11.1541,2.5849,0,0,0,0,0,0,0,-1,573,855,-11.154,-2.58493
-644,169,-12.0052,1.79749,0,0,0,0,0,0,0,-1,580,855,-12.0052,-1.7975
-637,169,-11.8334,1.56195,0.000919184,0.024832,-0.0100739,0.0285102,-0.00275899,-1.22072,0.01999,0.0476658,587,855,-11.8334,-1.56196
-630,169,-12.3815,0.94989,-0.00190546,0.0225297,-0.00812363,0.024984,-0.00435971,-1.2774,0.0182833,0.0454654,594,855,-12.3815,-0.949873
-623,169,-13.2377,1.04211,0,0,0,0,0,0,0,-1,601,855,-13.2377,-1.04211
-616,169,-13.4898,2.09161,-0.00425689,0.0155767,-0.00457133,0.0165796,-0.00525979,-1.35483,0.0131615,0.0218587,608,855,-13.4898,-2.09162
-609,169,-13.5095,1.88794,-0.00461739,0.0123351,-0.00289091,0.0128146,-0.00509682,-1.40645,0.0106563,0.0137593,615,855,-13.5095,-1.88795
-602,169,-13.5298,1.66919,-0.00477003,0.00878229,-0.00152097,0.00895089,-0.00493863,-1.4604,0.00812988,0.013813,622,855,-13.5298,-1.6692
-595,169,-13.5226,1.43573,-0.00425971,0.00522122,-0.000362531,0.00523506,-0.00427355,-1.53263,0.00549914,0.0119585,629,855,-13.5226,-1.43574
-588,169,-13.502,1.22998,-0.00378419,0.00228174,0.000744568,0.00237179,-0.00387425,1.45043,0.00364076,0.0093359,636,855,-13.502,-1.22997
-581,169,-13.511,1.02338,-0.00330529,0.000112182,0.00152614,0.000694491,-0.0038876,1.20629,0.00285156,0.0101667,643,855,-13.511,-1.02339
-574,169,-13.587,0.807251,-0.00290446,-0.00157218,0.00193472,-0.000192132,-0.0042845,0.951196,0.00279449,0.0144081,650,855,-13.587,-0.807268
-567,169,-13.4998,0.681274,-0.00275396,-0.00229181,0.00194321,-0.00056598,-0.00447978,0.844577,0.00281688,0.0249185,657,855,-13.4998,-0.681277
-560,169,-13.566,0.488892,-0.00251255,-0.00305098,0.00179082,-0.000970816,-0.00459271,0.710791,0.00279498,0.0252508,664,855,-13.566,-0.488883
-553,169,-13.4783,0.172668,-0.00205345,-0.00386004,0.00182103,-0.000923984,-0.0049895,0.555163,0.00306512,0.034669,671,855,-13.4784,-0.172669
-546,169,-13.1709,-0.192688,0,0,0,0,0,0,0,-1,678,855,-13.1709,0.192704
-539,169,-17.0457,0.954773,0,0,0,0,0,0,0,-1,685,855,-17.0457,-0.954773
-532,169,-16.9912,0.890808,-8.46457e-05,-0.00657819,0.000757987,2.65986e-06,-0.00666549,0.114675,0.00444455,0.0363997,692,855,-16.9912,-0.890787
-525,169,-16.9,0.893127,0.000800648,-0.00754279,0.000345838,0.000814958,-0.0075571,0.0413558,0.00533052,0.0438157,699,855,-16.9,-0.893123
-518,169,-16.8784,1.15228,0.00178965,-0.00869558,1.00026e-05,0.00178966,-0.00869559,0.000953965,0.00647657,0.041984,706,855,-16.8784,-1.15231
-511,169,-17.2004,0.288757,0.00291378,-0.00991593,-0.000145957,0.00291544,-0.00991759,-0.0113746,0.0077681,0.0420705,713,855,-17.2004,-0.288734
-504,169,-17.0042,0.572327,0.00400614,-0.0112313,9.29964e-05,0.0040067,-0.0112318,0.00610286,0.00912166,0.0401021,720,855,-17.0042,-0.572302
-497,169,-16.8706,0.670227,0.00438839,-0.0129278,0.00217193,0.00465665,-0.0131961,0.122892,0.0106931,0.0401496,727,855,-16.8706,-0.670207
-490,169,0,0,0,0,0,0,0,0,0,-1,734,855,0,0
-483,169,0,0,0,0,0,0,0,0,0,-1,741,855,0,0
-476,169,0,0,0,0,0,0,0,0,0,-1,748,855,0,0
-469,169,0,0,0,0,0,0,0,0,0,-1,755,855,0,0
-462,169,0,0,0,0,0,0,0,0,0,-1,762,855,0,0
-455,169,0,0,0,0,0,0,0,0,0,-1,769,855,0,0
-448,169,0,0,0,0,0,0,0,0,0,-1,776,855,0,0
-441,169,0,0,0,0,0,0,0,0,0,-1,783,855,0,0
-434,169,0,0,0,0,0,0,0,0,0,-1,790,855,0,0
-427,169,0,0,0,0,0,0,0,0,0,-1,797,855,0,0
-420,169,0,0,0,0,0,0,0,0,0,-1,804,855,0,0
-413,169,0,0,0,0,0,0,0,0,0,-1,811,855,0,0
-406,169,0,0,0,0,0,0,0,0,0,-1,818,855,0,0
-399,169,0,0,0,0,0,0,0,0,0,-1,825,855,0,0
-392,169,0,0,0,0,0,0,0,0,0,-1,832,855,0,0
-385,169,0,0,0,0,0,0,0,0,0,-1,839,855,0,0
-378,169,0,0,0,0,0,0,0,0,0,-1,846,855,0,0
-371,169,0,0,0,0,0,0,0,0,0,-1,853,855,0,0
-364,169,0,0,0,0,0,0,0,0,0,-1,860,855,0,0
-357,169,0,0,0,0,0,0,0,0,0,-1,867,855,0,0
-350,169,0,0,0,0,0,0,0,0,0,-1,874,855,0,0
-343,169,0,0,0,0,0,0,0,0,0,-1,881,855,0,0
-336,169,0,0,0,0,0,0,0,0,0,-1,888,855,0,0
-329,169,0,0,0,0,0,0,0,0,0,-1,895,855,0,0
-322,169,0,0,0,0,0,0,0,0,0,-1,902,855,0,0
-315,169,0,0,0,0,0,0,0,0,0,-1,909,855,0,0
-308,169,0,0,0,0,0,0,0,0,0,-1,916,855,0,0
-301,169,0,0,0,0,0,0,0,0,0,-1,923,855,0,0
-294,169,0,0,0,0,0,0,0,0,0,-1,930,855,0,0
-287,169,0,0,0,0,0,0,0,0,0,-1,937,855,0,0
-280,169,0,0,0,0,0,0,0,0,0,-1,944,855,0,0
-273,169,0,0,0,0,0,0,0,0,0,-1,951,855,0,0
-266,169,0,0,0,0,0,0,0,0,0,-1,958,855,0,0
-259,169,0,0,0,0,0,0,0,0,0,-1,965,855,0,0
-252,169,0,0,0,0,0,0,0,0,0,-1,972,855,0,0
-245,169,0,0,0,0,0,0,0,0,0,-1,979,855,0,0
-238,169,0,0,0,0,0,0,0,0,0,-1,986,855,0,0
-231,169,0,0,0,0,0,0,0,0,0,-1,993,855,0,0
-224,169,0,0,0,0,0,0,0,0,0,-1,1000,855,0,0
-217,169,0,0,0,0,0,0,0,0,0,-1,1007,855,0,0
-210,169,0,0,0,0,0,0,0,0,0,-1,1014,855,0,0
-203,169,0,0,0,0,0,0,0,0,0,-1,1021,855,0,0
-196,169,0,0,0,0,0,0,0,0,0,-1,1028,855,0,0
-189,169,0,0,0,0,0,0,0,0,0,-1,1035,855,0,0
-182,169,0,0,0,0,0,0,0,0,0,-1,1042,855,0,0
-175,169,0,0,0,0,0,0,0,0,0,-1,1049,855,0,0
-168,169,0,0,0,0,0,0,0,0,0,-1,1056,855,0,0
-161,169,0,0,0,0,0,0,0,0,0,-1,1063,855,0,0
-154,169,0,0,0,0,0,0,0,0,0,-1,1070,855,0,0
-147,169,0,0,0,0,0,0,0,0,0,-1,1077,855,0,0
-140,169,0,0,0,0,0,0,0,0,0,-1,1084,855,0,0
-133,169,0,0,0,0,0,0,0,0,0,-1,1091,855,0,0
-126,169,0,0,0,0,0,0,0,0,0,-1,1098,855,0,0
-119,169,0,0,0,0,0,0,0,0,0,-1,1105,855,0,0
-112,169,0,0,0,0,0,0,0,0,0,-1,1112,855,0,0
-105,169,0,0,0,0,0,0,0,0,0,-1,1119,855,0,0
-98,169,0,0,0,0,0,0,0,0,0,-1,1126,855,0,0
-91,169,0,0,0,0,0,0,0,0,0,-1,1133,855,0,0
-84,169,0,0,0,0,0,0,0,0,0,-1,1140,855,0,0
-77,169,0,0,0,0,0,0,0,0,0,-1,1147,855,0,0
-70,169,0,0,0,0,0,0,0,0,0,-1,1154,855,0,0
-63,169,0,0,0,0,0,0,0,0,0,-1,1161,855,0,0
-56,169,0,0,0,0,0,0,0,0,0,-1,1168,855,0,0
-49,169,0,0,0,0,0,0,0,0,0,-1,1175,855,0,0
-42,169,0,0,0,0,0,0,0,0,0,-1,1182,855,0,0
-35,169,0,0,0,0,0,0,0,0,0,-1,1189,855,0,0
-28,169,0,0,0,0,0,0,0,0,0,-1,1196,855,0,0
-21,169,0,0,0,0,0,0,0,0,0,-1,1203,855,0,0
-14,169,0,0,0,0,0,0,0,0,0,-1,1210,855,0,0
-7,169,0,0,0,0,0,0,0,0,0,-1,1217,855,0,0
0,169,0,0,0,0,0,0,0,0,0,-1,1224,855,0,0
7,169,0,0,0,0,0,0,0,0,0,-1,1231,855,0,0
14,169,0,0,0,0,0,0,0,0,0,-1,1238,855,0,0
21,169,0,0,0,0,0,0,0,0,0,-1,1245,855,0,0
28,169,0,0,0,0,0,0,0,0,0,-1,1252,855,0,0
35,169,0,0,0,0,0,0,0,0,0,-1,1259,855,0,0
42,169,0,0,0,0,0,0,0,0,0,-1,1266,855,0,0
49,169,0,0,0,0,0,0,0,0,0,-1,1273,855,0,0
56,169,0,0,0,0,0,0,0,0,0,-1,1280,855,0,0
63,169,0,0,0,0,0,0,0,0,0,-1,1287,855,0,0
70,169,0,0,0,0,0,0,0,0,0,-1,1294,855,0,0
77,169,0,0,0,0,0,0,0,0,0,-1,1301,855,0,0
84,169,0,0,0,0,0,0,0,0,0,-1,1308,855,0,0
91,169,0,0,0,0,0,0,0,0,0,-1,1315,855,0,0
98,169,0,0,0,0,0,0,0,0,0,-1,1322,855,0,0
105,169,0,0,0,0,0,0,0,0,0,-1,1329,855,0,0
112,169,0,0,0,0,0,0,0,0,0,-1,1336,855,0,0
119,169,0,0,0,0,0,0,0,0,0,-1,1343,855,0,0
126,169,0,0,0,0,0,0,0,0,0,-1,1350,855,0,0
133,169,0,0,0,0,0,0,0,0,0,-1,1357,855,0,0
140,169,0,0,0,0,0,0,0,0,0,-1,1364,855,0,0
147,169,0,0,0,0,0,0,0,0,0,-1,1371,855,0,0
154,169,0,0,0,0,0,0,0,0,0,-1,1378,855,0,0
161,169,0,0,0,0,0,0,0,0,0,-1,1385,855,0,0
168,169,0,0,0,0,0,0,0,0,0,-1,1392,855,0,0
175,169,0,0,0,0,0,0,0,0,0,-1,1399,855,0,0
182,169,0,0,0,0,0,0,0,0,0,-1,1406,855,0,0
189,169,0,0,0,0,0,0,0,0,0,-1,1413,855,0,0
196,169,0,0,0,0,0,0,0,0,0,-1,1420,855,0,0
203,169,0,0,0,0,0,0,0,0,0,-1,1427,855,0,0
210,169,0,0,0,0,0,0,0,0,0,-1,1434,855,0,0
217,169,0,0,0,0,0,0,0,0,0,-1,1441,855,0,0
224,169,0,0,0,0,0,0,0,0,0,-1,1448,855,0,0
231,169,0,0,0,0,0,0,0,0,0,-1,1455,855,0,0
238,169,0,0,0,0,0,0,0,0,0,-1,1462,855,0,0
245,169,0,0,0,0,0,0,0,0,0,-1,1469,855,0,0
252,169,0,0,0,0,0,0,0,0,0,-1,1476,855,0,0
259,169,0,0,0,0,0,0,0,0,0,-1,1483,855,0,0
266,169,0,0,0,0,0,0,0,0,0,-1,1490,855,0,0
273,169,0,0,0,0,0,0,0,0,0,-1,1497,855,0,0
280,169,0,0,0,0,0,0,0,0,0,-1,1504,855,0,0
287,169,0,0,0,0,0,0,0,0,0,-1,1511,855,0,0
294,169,0,0,0,0,0,0,0,0,0,-1,1518,855,0,0
301,169,0,0,0,0,0,0,0,0,0,-1,1525,855,0,0
308,169,0,0,0,0,0,0,0,0,0,-1,1532,855,0,0
315,169,0,0,0,0,0,0,0,0,0,-1,1539,855,0,0
322,169,0,0,0,0,0,0,0,0,0,-1,1546,855,0,0
329,169,0,0,0,0,0,0,0,0,0,-1,1553,855,0,0
336,169,0,0,0,0,0,0,0,0,0,-1,1560,855,0,0
343,169,0,0,0,0,0,0,0,0,0,-1,1567,855,0,0
350,169,0,0,0,0,0,0,0,0,0,-1,1574,855,0,0
357,169,0,0,0,0,0,0,0,0,0,-1,1581,855,0,0
364,169,0,0,0,0,0,0,0,0,0,-1,1588,855,0,0
371,169,0,0,0,0,0,0,0,0,0,-1,1595,855,0,0
378,169,0,0,0,0,0,0,0,0,0,-1,1602,855,0,0
385,169,0,0,0,0,0,0,0,0,0,-1,1609,855,0,0
392,169,0,0,0,0,0,0,0,0,0,-1,1616,855,0,0
399,169,0,0,0,0,0,0,0,0,0,-1,1623,855,0,0
406,169,0,0,0,0,0,0,0,0,0,-1,1630,855,0,0
413,169,0,0,0,0,0,0,0,0,0,-1,1637,855,0,0
420,169,0,0,0,0,0,0,0,0,0,-1,1644,855,0,0
427,169,0,0,0,0,0,0,0,0,0,-1,1651,855,0,0
434,169,0,0,0,0,0,0,0,0,0,-1,1658,855,0,0
441,169,0,0,0,0,0,0,0,0,0,-1,1665,855,0,0
448,169,0,0,0,0,0,0,0,0,0,-1,1672,855,0,0
455,169,0,0,0,0,0,0,0,0,0,-1,1679,855,0,0
462,169,0,0,0,0,0,0,0,0,0,-1,1686,855,0,0
469,169,0,0,0,0,0,0,0,0,0,-1,1693,855,0,0
476,169,0,0,0,0,0,0,0,0,0,-1,1700,855,0,0
483,169,0,0,0,0,0,0,0,0,0,-1,1707,855,0,0
490,169,0,0,0,0,0,0,0,0,0,-1,1714,855,0,0
497,169,0,0,0,0,0,0,0,0,0,-1,1721,855,0,0
504,169,0,0,0,0,0,0,0,0,0,-1,1728,855,0,0
511,169,0,0,0,0,0,0,0,0,0,-1,1735,855,0,0
518,169,0,0,0,0,0,0,0,0,0,-1,1742,855,0,0
525,169,0,0,0,0,0,0,0,0,0,-1,1749,855,0,0
532,169,0,0,0,0,0,0,0,0,0,-1,1756,855,0,0
539,169,0,0,0,0,0,0,0,0,0,-1,1763,855,0,0
546,169,0,0,0,0,0,0,0,0,0,-1,1770,855,0,0
553,169,0,0,0,0,0,0,0,0,0,-1,1777,855,0,0
560,169,0,0,0,0,0,0,0,0,0,-1,1784,855,0,0
567,169,0,0,0,0,0,0,0,0,0,-1,1791,855,0,0
574,169,0,0,0,0,0,0,0,0,0,-1,1798,855,0,0
581,169,0,0,0,0,0,0,0,0,0,-1,1805,855,0,0
588,169,0,0,0,0,0,0,0,0,0,-1,1812,855,0,0
595,169,0,0,0,0,0,0,0,0,0,-1,1819,855,0,0
602,169,0,0,0,0,0,0,0,0,0,-1,1826,855,0,0
609,169,0,0,0,0,0,0,0,0,0,-1,1833,855,0,0
616,169,24.4169,2.84131,0.00445111,0.0042221,-0.00177129,0.00611159,0.00256162,-0.75312,0.00354388,0.0426339,1840,855,24.4169,-2.84133
623,169,24.5524,2.65887,0.00277093,0.00378662,-0.00133794,0.00470985,0.0018477,-0.966785,0.00274018,0.0438954,1847,855,24.5523,-2.6589
630,169,24.4565,2.78662,0.00143878,0.00342075,-0.000941214,0.00379649,0.00106304,-1.19097,0.00226152,0.0405812,1854,855,24.4565,-2.78661
637,169,24.3569,2.9325,0.000410681,0.00296045,-0.000705139,0.00314246,0.000228668,-1.31819,0.00202307,0.0357013,1861,855,24.357,-2.9325
644,169,24.2891,2.95313,-0.000470099,0.00250205,-0.000614661,0.00262415,-0.000592199,-1.3747,0.00197663,0.0357889,1868,855,24.2891,-2.95313
651,169,24.2559,2.92572,-0.00100079,0.0020176,-0.000566622,0.00212046,-0.00110365,-1.39122,0.00189205,0.0360513,1875,855,24.2558,-2.92573
658,169,24.3304,2.75562,-0.0013166,0.00155801,-0.000591546,0.00167498,-0.00143357,-1.37558,0.00179652,0.0346087,1882,855,24.3304,-2.75563
665,169,24.4226,2.77838,-0.0015965,0.00117178,-0.000615367,0.0013024,-0.00172713,-1.36163,0.00175482,0.0475335,1889,855,24.4226,-2.7784
672,169,24.5024,2.81458,0,0,0,0,0,0,0,-1,1896,855,24.5024,-2.81456
679,169,20.0802,2.2442,0,0,0,0,0,0,0,-1,1903,855,20.0802,-2.24419
686,169,20.1191,2.5069,-0.0019144,0.000501048,-0.000649238,0.000664494,-0.00207784,-1.32417,0.00165189,0.0260913,1910,855,20.1191,-2.50693
693,169,20.1497,2.75836,-0.00180336,0.000110311,-0.000813325,0.000409275,-0.00210233,-1.21855,0.00155602,0.0135871,1917,855,20.1496,-2.75834
700,169,20.1564,2.99292,-0.00148269,-0.000223303,-0.000992478,0.000322388,-0.00202838,-1.06809,0.00147153,0.012492,1924,855,20.1564,-2.9929
707,169,20.121,3.18524,-0.000684046,-0.000271359,-0.000873423,0.000419764,-0.00137517,-0.901395,0.00108414,0.0133803,1931,855,20.121,-3.18526
714,169,20.0931,3.38196,0.000596272,-0.00021429,-0.000575264,0.000894682,-0.000512701,-0.478524,0.000822468,0.0129725,1938,855,20.0932,-3.38198
721,169,20.0776,3.62042,0.00290438,5.53057e-05,0.000129993,0.0029103,4.93869e-05,0.0455003,0.00192395,0.0142043,1945,855,20.0777,-3.62041
728,169,20.0909,3.87085,0.00610105,0.00116374,0.00105438,0.00631679,0.000947999,0.201826,0.00393346,0.0120062,1952,855,20.0909,-3.87086
735,169,20.1053,4.09729,0.0106368,0.00373053,0.00214014,0.0112462,0.00312111,0.277415,0.0067038,0.0179967,1959,855,20.1053,-4.0973
742,169,20.1136,4.28644,0.0163722,0.00618116,0.00378844,0.0176262,0.00492715,0.319658,0.0105011,0.0133809,1966,855,20.1136,-4.28646
749,169,20.1141,4.41351,0.0233856,0.0101841,0.00594652,0.0256691,0.00790056,0.366653,0.0151807,0.0221609,1973,855,20.1141,-4.41351
756,169,20.5341,4.87238,0.0323938,0.0162469,0.00875724,0.0362313,0.0124095,0.413002,0.0212612,0.0440037,1980,855,20.5341,-4.87236
763,169,21.3896,5.2489,0,0,0,0,0,0,0,-1,1987,855,21.3896,-5.24892
770,169,21.234,5.23395,0,0,0,0,0,0,0,-1,1994,855,21.234,-5.23397
777,169,21.0461,5.94464,0,0,0,0,0,0,0,-1,2001,855,21.0462,-5.94466
784,169,21.3458,6.2901,0,0,0,0,0,0,0,-1,2008,855,21.3458,-6.29011
791,169,0,0,0,0,0,0,0,0,0,-1,2015,855,0,0
798,169,0,0,0,0,0,0,0,0,0,-1,2022,855,0,0
805,169,0,0,0,0,0,0,0,0,0,-1,2029,855,0,0
812,169,0,0,0,0,0,0,0,0,0,-1,2036,855,0,0
-700,162,0,0,0,0,0,0,0,0,0,-1,524,862,0,0
-693,162,0,0,0,0,0,0,0,0,0,-1,531,862,0,0
-686,162,0,0,0,0,0,0,0,0,0,-1,538,862,0,0
-679,162,0,0,0,0,0,0,0,0,0,-1,545,862,0,0
-672,162,0,0,0,0,0,0,0,0,0,-1,552,862,0,0
-665,162,-11.2418,2.80164,0,0,0,0,0,0,0,-1,559,862,-11.2417,-2.80164
-658,162,-11.3896,2.49951,0,0,0,0,0,0,0,-1,566,862,-11.3897,-2.49953
-651,162,-11.5599,2.28027,0,0,0,0,0,0,0,-1,573,862,-11.56,-2.2803
-644,162,-11.7244,1.54169,0.00657026,0.0230759,-0.00840464,0.0266022,0.00304399,-1.17354,0.0168122,0.0481611,580,862,-11.7245,-1.54166
-637,162,-11.6785,1.11621,0.00230429,0.0219011,-0.00707846,0.0241905,1.4971e-05,-1.25799,0.016122,0.0465615,587,862,-11.6786,-1.11623
-630,162,-12.6572,0.35376,0,0,0,0,0,0,0,-1,594,862,-12.6572,-0.353777
-623,162,-13.6901,2.26825,-0.00247505,0.0166708,-0.00433103,0.017605,-0.0034092,-1.35836,0.0130227,0.0326066,601,862,-13.6901,-2.26825
-616,162,-13.706,2.07111,-0.00356328,0.0133466,-0.00318049,0.013925,-0.00414169,-1.3909,0.0109287,0.0177668,608,862,-13.706,-2.07108
-609,162,-13.7294,1.86383,-0.00412648,0.0104021,-0.00191223,0.0106496,-0.00437395,-1.4421,0.00892253,0.0126724,615,862,-13.7294,-1.86382
-602,162,-13.744,1.64911,-0.00443574,0.00713782,-0.000755191,0.00718688,-0.00448481,-1.50591,0.00679858,0.0120198,622,862,-13.744,-1.64914
-595,162,-13.7333,1.44373,-0.00412138,0.00402456,0.000227276,0.0040309,-0.00412772,1.54292,0.00471049,0.011246,629,862,-13.7333,-1.4437
-588,162,-13.7345,1.24188,-0.00382089,0.00141735,0.00115661,0.00166137,-0.00406491,1.36287,0.00340176,0.0118742,636,862,-13.7345,-1.24186
-581,162,-13.7967,1.03699,-0.00351327,-0.000463037,0.00179935,0.000370586,-0.00434689,1.13695,0.00302902,0.0147852,643,862,-13.7967,-1.03697
-574,162,-13.8933,0.824097,-0.00322088,-0.00195616,0.00211254,-0.000383373,-0.00479367,0.930822,0.00307596,0.0202348,650,862,-13.8933,-0.824093
-567,162,-13.8383,0.658997,-0.00310321,-0.00262647,0.00211531,-0.000736143,-0.00499354,0.841506,0.0031128,0.0301705,657,862,-13.8383,-0.658996
-560,162,-13.7684,0.33313,-0.00287082,-0.0033392,0.00202272,-0.00106878,-0.00514125,0.727765,0.00313261,0.0262327,664,862,-13.7684,-0.333149
-553,162,-13.6527,0.0598755,-0.00248919,-0.00407456,0.0021269,-0.00101207,-0.00555168,0.607025,0.00341414,0.031739,671,862,-13.6527,-0.0598455
-546,162,-15.0524,0.458801,0,0,0,0,0,0,0,-1,678,862,-15.0525,-0.458819
-539,162,-16.3901,0.773438,0,0,0,0,0,0,0,-1,685,862,-16.3902,-0.773439
-532,162,-16.9059,0.920044,-0.000556658,-0.0065315,0.00125774,-0.000302691,-0.00678547,0.199244,0.0044262,0.0346728,692,862,-16.906,-0.920042
-525,162,-16.9321,0.835388,0.00040411,-0.00755026,0.000895517,0.000503682,-0.00764984,0.110735,0.00527581,0.0377269,699,862,-16.9321,-0.83538
-518,162,-16.9538,1.12146,0.00155388,-0.00876678,0.000637215,0.00159307,-0.00880598,0.0614307,0.00646741,0.0395102,706,862,-16.9538,-1.12149
-511,162,-16.8318,1.14819,0.00286616,-0.0101489,0.000621161,0.00289573,-0.0101785,0.0475822,0.00792915,0.0433112,713,862,-16.8318,-1.14817
-504,162,-16.8027,1.08417,0.00400124,-0.0117535,0.00119461,0.0040913,-0.0118436,0.0752523,0.00955601,0.0439994,720,862,-16.8027,-1.08416
-497,162,-16.9426,0.972961,0.00376581,-0.0140438,0.00454752,0.00485978,-0.0151378,0.236078,0.0120432,0.0431676,727,862,-16.9425,-0.972949
-490,162,0,0,0,0,0,0,0,0,0,-1,734,862,0,0
-483,162,0,0,0,0,0,0,0,0,0,-1,741,862,0,0
-476,162,0,0,0,0,0,0,0,0,0,-1,748,862,0,0
-469,162,0,0,0,0,0,0,0,0,0,-1,755,862,0,0
-462,162,0,0,0,0,0,0,0,0,0,-1,762,862,0,0
-455,162,0,0,0,0,0,0,0,0,0,-1,769,862,0,0
-448,162,0,0,0,0,0,0,0,0,0,-1,776,862,0,0
-441,162,0,0,0,0,0,0,0,0,0,-1,783,862,0,0
-434,162,0,0,0,0,0,0,0,0,0,-1,790,862,0,0
-427,162,0,0,0,0,0,0,0,0,0,-1,797,862,0,0
-420,162,0,0,0,0,0,0,0,0,0,-1,804,862,0,0
-413,162,0,0,0,0,0,0,0,0,0,-1,811,862,0,0
-406,162,0,0,0,0,0,0,0,0,0,-1,818,862,0,0
-399,162,0,0,0,0,0,0,0,0,0,-1,825,862,0,0
-392,162,0,0,0,0,0,0,0,0,0,-1,832,862,0,0
-385,162,0,0,0,0,0,0,0,0,0,-1,839,862,0,0
-378,162,0,0,0,0,0,0,0,0,0,-1,846,862,0,0
-371,162,0,0,0,0,0,0,0,0,0,-1,853,862,0,0
-364,162,0,0,0,0,0,0,0,0,0,-1,860,862,0,0
-357,162,0,0,0,0,0,0,0,0,0,-1,867,862,0,0
-350,162,0,0,0,0,0,0,0,0,0,-1,874,862,0,0
-343,162,0,0,0,0,0,0,0,0,0,-1,881,862,0,0
-336,162,0,0,0,0,0,0,0,0,0,-1,888,862,0,0
-329,162,0,0,0,0,0,0,0,0,0,-1,895,862,0,0
-322,162,0,0,0,0,0,0,0,0,0,-1,902,862,0,0
-315,162,0,0,0,0,0,0,0,0,0,-1,909,862,0,0
-308,162,0,0,0,0,0,0,0,0,0,-1,916,862,0,0
-301,162,0,0,0,0,0,0,0,0,0,-1,923,862,0,0
-294,162,0,0,0,0,0,0,0,0,0,-1,930,862,0,0
-287,162,0,0,0,0,0,0,0,0,0,-1,937,862,0,0
-280,162,0,0,0,0,0,0,0,0,0,-1,944,862,0,0
-273,162,0,0,0,0,0,0,0,0,0,-1,951,862,0,0
-266,162,0,0,0,0,0,0,0,0,0,-1,958,862,0,0
-259,162,0,0,0,0,0,0,0,0,0,-1,965,862,0,0
-252,162,0,0,0,0,0,0,0,0,0,-1,972,862,0,0
-245,162,0,0,0,0,0,0,0,0,0,-1,979,862,0,0
-238,162,0,0,0,0,0,0,0,0,0,-1,986,862,0,0
-231,162,0,0,0,0,0,0,0,0,0,-1,993,862,0,0
-224,162,0,0,0,0,0,0,0,0,0,-1,1000,862,0,0
-217,162,0,0,0,0,0,0,0,0,0,-1,1007,862,0,0
-210,162,0,0,0,0,0,0,0,0,0,-1,1014,862,0,0
-203,162,0,0,0,0,0,0,0,0,0,-1,1021,862,0,0
-196,162,0,0,0,0,0,0,0,0,0,-1,1028,862,0,0
-189,162,0,0,0,0,0,0,0,0,0,-1,1035,862,0,0
-182,162,0,0,0,0,0,0,0,0,0,-1,1042,862,0,0
-175,162,0,0,0,0,0,0,0,0,0,-1,1049,862,0,0
-168,162,0,0,0,0,0,0,0,0,0,-1,1056,862,0,0
-161,162,0,0,0,0,0,0,0,0,0,-1,1063,862,0,0
-154,162,0,0,0,0,0,0,0,0,0,-1,1070,862,0,0
-147,162,0,0,0,0,0,0,0,0,0,-1,1077,862,0,0
-140,162,0,0,0,0,0,0,0,0,0,-1,1084,862,0,0
-133,162,0,0,0,0,0,0,0,0,0,-1,1091,862,0,0
-126,162,0,0,0,0,0,0,0,0,0,-1,1098,862,0,0
-119,162,0,0,0,0,0,0,0,0,0,-1,1105,862,0,0
-112,162,0,0,0,0,0,0,0,0,0,-1,1112,862,0,0
-105,162,0,0,0,0,0,0,0,0,0,-1,1119,862,0,0
-98,162,0,0,0,0,0,0,0,0,0,-1,1126,862,0,0
-91,162,0,0,0,0,0,0,0,0,0,-1,1133,862,0,0
-84,162,0,0,0,0,0,0,0,0,0,-1,1140,862,0,0
-77,162,0,0,0,0,0,0,0,0,0,-1,1147,862,0,0
-70,162,0,0,0,0,0,0,0,0,0,-1,1154,862,0,0
-63,162,0,0,0,0,0,0,0,0,0,-1,1161,862,0,0
-56,162,0,0,0,0,0,0,0,0,0,-1,1168,862,0,0
-49,162,0,0,0,0,0,0,0,0,0,-1,1175,862,0,0
-42,162,0,0,0,0,0,0,0,0,0,-1,1182,862,0,0
-35,162,0,0,0,0,0,0,0,0,0,-1,1189,862,0,0
-28,162,0,0,0,0,0,0,0,0,0,-1,1196,862,0,0
-21,162,0,0,0,0,0,0,0,0,0,-1,1203,862,0,0
-14,162,0,0,0,0,0,0,0,0,0,-1,1210,862,0,0
-7,162,0,0,0,0,0,0,0,0,0,-1,1217,862,0,0
0,162,0,0,0,0,0,0,0,0,0,-1,1224,862,0,0
7,162,0,0,0,0,0,0,0,0,0,-1,1231,862,0,0
14,162,0,0,0,0,0,0,0,0,0,-1,1238,862,0,0
21,162,0,0,0,0,0,0,0,0,0,-1,1245,862,0,0
28,162,0,0,0,0,0,0,0,0,0,-1,1252,862,0,0
35,162,0,0,0,0,0,0,0,0,0,-1,1259,862,0,0
42,162,0,0,0,0,0,0,0,0,0,-1,1266,862,0,0
49,162,0,0,0,0,0,0,0,0,0,-1,1273,862,0,0
56,162,0,0,0,0,0,0,0,0,0,-1,1280,862,0,0
63,162,0,0,0,0,0,0,0,0,0,-1,1287,862,0,0
70,162,0,0,0,0,0,0,0,0,0,-1,1294,862,0,0
77,162,0,0,0,0,0,0,0,0,0,-1,1301,862,0,0
84,162,0,0,0,0,0,0,0,0,0,-1,1308,862,0,0
91,162,0,0,0,0,0,0,0,0,0,-1,1315,862,0,0
98,162,0,0,0,0,0,0,0,0,0,-1,1322,862,0,0
105,162,0,0,0,0,0,0,0,0,0,-1,1329,862,0,0
112,162,0,0,0,0,0,0,0,0,0,-1,1336,862,0,0
119,162,0,0,0,0,0,0,0,0,0,-1,1343,862,0,0
126,162,0,0,0,0,0,0,0,0,0,-1,1350,862,0,0
133,162,0,0,0,0,0,0,0,0,0,-1,1357,862,0,0
140,162,0,0,0,0,0,0,0,0,0,-1,1364,862,0,0
147,162,0,0,0,0,0,0,0,0,0,-1,1371,862,0,0
154,162,0,0,0,0,0,0,0,0,0,-1,1378,862,0,0
161,162,0,0,0,0,0,0,0,0,0,-1,1385,862,0,0
168,162,0,0,0,0,0,0,0,0,0,-1,1392,862,0,0
175,162,0,0,0,0,0,0,0,0,0,-1,1399,862,0,0
182,162,0,0,0,0,0,0,0,0,0,-1,1406,862,0,0
189,162,0,0,0,0,0,0,0,0,0,-1,1413,862,0,0
196,162,0,0,0,0,0,0,0,0,0,-1,1420,862,0,0
203,162,0,0,0,0,0,0,0,0,0,-1,1427,862,0,0
210,162,0,0,0,0,0,0,0,0,0,-1,1434,862,0,0
217,162,0,0,0,0,0,0,0,0,0,-1,1441,862,0,0
224,162,0,0,0,0,0,0,0,0,0,-1,1448,862,0,0
231,162,0,0,0,0,0,0,0,0,0,-1,1455,862,0,0
238,162,0,0,0,0,0,0,0,0,0,-1,1462,862,0,0
245,162,0,0,0,0,0,0,0,0,0,-1,1469,862,0,0
252,162,0,0,0,0,0,0,0,0,0,-1,1476,862,0,0
259,162,0,0,0,0,0,0,0,0,0,-1,1483,862,0,0
266,162,0,0,0,0,0,0,0,0,0,-1,1490,862,0,0
273,162,0,0,0,0,0,0,0,0,0,-1,1497,862,0,0
280,162,0,0,0,0,0,0,0,0,0,-1,1504,862,0,0
287,162,0,0,0,0,0,0,0,0,0,-1,1511,862,0,0
294,162,0,0,0,0,0,0,0,0,0,-1,1518,862,0,0
301,162,0,0,0,0,0,0,0,0,0,-1,1525,862,0,0
308,162,0,0,0,0,0,0,0,0,0,-1,1532,862,0,0
315,162,0,0,0,0,0,0,0,0,0,-1,1539,862,0,0
322,162,0,0,0,0,0,0,0,0,0,-1,1546,862,0,0
329,162,0,0,0,0,0,0,0,0,0,-1,1553,862,0,0
336,162,0,0,0,0,0,0,0,0,0,-1,1560,862,0,0
343,162,0,0,0,0,0,0,0,0,0,-1,1567,862,0,0
350,162,0,0,0,0,0,0,0,0,0,-1,1574,862,0,0
357,162,0,0,0,0,0,0,0,0,0,-1,1581,862,0,0
364,162,0,0,0,0,0,0,0,0,0,-1,1588,862,0,0
371,162,0,0,0,0,0,0,0,0,0,-1,1595,862,0,0
378,162,0,0,0,0,0,0,0,0,0,-1,1602,862,0,0
385,162,0,0,0,0,0,0,0,0,0,-1,1609,862,0,0
392,162,0,0,0,0,0,0,0,0,0,-1,1616,862,0,0
399,162,0,0,0,0,0,0,0,0,0,-1,1623,862,0,0
406,162,0,0,0,0,0,0,0,0,0,-1,1630,862,0,0
413,162,0,0,0,0,0,0,0,0,0,-1,1637,862,0,0
420,162,0,0,0,0,0,0,0,0,0,-1,1644,862,0,0
427,162,0,0,0,0,0,0,0,0,0,-1,1651,862,0,0
434,162,0,0,0,0,0,0,0,0,0,-1,1658,862,0,0
441,162,0,0,0,0,0,0,0,0,0,-1,1665,862,0,0
448,162,0,0,0,0,0,0,0,0,0,-1,1672,862,0,0
455,162,0,0,0,0,0,0,0,0,0,-1,1679,862,0,0
462,162,0,0,0,0,0,0,0,0,0,-1,1686,862,0,0
469,162,0,0,0,0,0,0,0,0,0,-1,1693,862,0,0
476,162,0,0,0,0,0,0,0,0,0,-1,1700,862,0,0
483,162,0,0,0,0,0,0,0,0,0,-1,1707,862,0,0
490,162,0,0,0,0,0,0,0,0,0,-1,1714,862,0,0
497,162,0,0,0,0,0,0,0,0,0,-1,1721,862,0,0
504,162,0,0,0,0,0,0,0,0,0,-1,1728,862,0,0
511,162,0,0,0,0,0,0,0,0,0,-1,1735,862,0,0
518,162,0,0,0,0,0,0,0,0,0,-1,1742,862,0,0
525,162,0,0,0,0,0,0,0,0,0,-1,1749,862,0,0
532,162,0,0,0,0,0,0,0,0,0,-1,1756,862,0,0
539,162,0,0,0,0,0,0,0,0,0,-1,1763,862,0,0
546,162,0,0,0,0,0,0,0,0,0,-1,1770,862,0,0
553,162,0,0,0,0,0,0,0,0,0,-1,1777,862,0,0
560,162,0,0,0,0,0,0,0,0,0,-1,1784,862,0,0
567,162,0,0,0,0,0,0,0,0,0,-1,1791,862,0,0
574,162,0,0,0,0,0,0,0,0,0,-1,1798,862,0,0
581,162,0,0,0,0,0,0,0,0,0,-1,1805,862,0,0
588,162,0,0,0,0,0,0,0,0,0,-1,1812,862,0,0
595,162,0,0,0,0,0,0,0,0,0,-1,1819,862,0,0
602,162,0,0,0,0,0,0,0,0,0,-1,1826,862,0,0
609,162,0,0,0,0,0,0,0,0,0,-1,1833,862,0,0
616,162,24.3271,2.901,0.00564407,0.00493273,-0.00229991,0.00761565,0.00296115,-0.708683,0.00443298,0.0453424,1840,862,24.3271,-2.90098
623,162,24.4082,2.89301,0.00382704,0.00430059,-0.00182831,0.0059074,0.00222024,-0.849792,0.00344551,0.0441509,1847,862,24.4082,-2.89299
630,162,24.3256,2.90802,0.00237501,0.00373345,-0.00134014,0.00455667,0.00155179,-1.01995,0.00267501,0.0398099,1854,862,24.3256,-2.90802
637,162,24.3307,2.94025,0.00117757,0.00314285,-0.000996458,0.00355968,0.000760744,-1.17461,0.00216457,0.0376026,1861,862,24.3307,-2.94026
644,162,24.329,2.84418,-2.41364e-05,0.00259561,-0.000836737,0.00284006,-0.000268578,-1.28657,0.00198895,0.0370886,1868,862,24.329,-2.84417
651,162,24.2729,2.87762,-0.000853828,0.00207573,-0.000741608,0.00225276,-0.00103087,-1.33646,0.00193906,0.0347575,1875,862,24.273,-2.87764
658,162,24.3008,2.80786,-0.00141267,0.00159,-0.000727901,0.00175715,-0.00157982,-1.34507,0.00192751,0.0344484,1882,862,24.3007,-2.80787
665,162,24.3105,2.80939,-0.00188339,0.00119132,-0.000715554,0.00134969,-0.00204176,-1.35298,0.00197159,0.0435974,1889,862,24.3105,-2.80942
672,162,24.3203,2.83893,0,0,0,0,0,0,0,-1,1896,862,24.3204,-2.83896
679,162,20.5259,2.4007,0,0,0,0,0,0,0,-1,1903,862,20.5259,-2.40068
686,162,20.4073,2.57367,-0.00262344,0.000522356,-0.000673133,0.00066034,-0.00276142,-1.36861,0.00209603,0.035754,1910,862,20.4073,-2.5737
693,162,20.3445,2.78003,-0.00264178,0.000160597,-0.000772138,0.000359261,-0.00284044,-1.31897,0.00202404,0.0169794,1917,862,20.3445,-2.78001
700,162,20.3804,2.9953,-0.00238524,-0.00013493,-0.000857944,0.00015485,-0.00267502,-1.24507,0.00183714,0.0154566,1924,862,20.3803,-2.99533
707,162,20.3735,3.17615,-0.00163553,-0.000183549,-0.00072686,0.00011778,-0.00193686,-1.1778,0.00133224,0.0114694,1931,862,20.3735,-3.17612
714,162,20.3458,3.38446,-0.000355081,-9.09359e-05,-0.000427243,0.000224182,-0.000670199,-0.935303,0.000537348,0.0155011,1938,862,20.3458,-3.38445
721,162,20.288,3.68079,0.00194907,0.000215489,0.000293517,0.00199742,0.000167142,0.163253,0.00127954,0.0268243,1945,862,20.2879,-3.68079
728,162,20.2695,3.89142,0.00518872,0.00151827,0.00125571,0.0055772,0.00112979,0.300031,0.0034046,0.0209469,1952,862,20.2695,-3.8914
735,162,20.337,4.09302,0.00988341,0.00443217,0.00231495,0.0107338,0.00358176,0.352053,0.00631041,0.0106102,1959,862,20.337,-4.09303
742,162,20.3376,4.28607,0.015828,0.00718217,0.00388067,0.0173143,0.00569585,0.365771,0.0101895,0.0117752,1966,862,20.3376,-4.28608
749,162,20.3273,4.47345,0.0229772,0.0115035,0.00580021,0.0253984,0.00908232,0.395445,0.0148607,0.0166798,1973,862,20.3272,-4.47345
756,162,20.3806,4.7511,0.0320706,0.0179599,0.00820384,0.0358357,0.0141949,0.430261,0.0208381,0.038683,1980,862,20.3807,-4.75107
763,162,20.4393,5.03058,0,0,0,0,0,0,0,-1,1987,862,20.4393,-5.0306
770,162,20.5944,5.28632,0,0,0,0,0,0,0,-1,1994,862,20.5943,-5.28629
777,162,20.4979,5.55908,0,0,0,0,0,0,0,-1,2001,862,20.498,-5.55909
784,162,20.4827,5.94446,0,0,0,0,0,0,0,-1,2008,862,20.4827,-5.94444
791,162,0,0,0,0,0,0,0,0,0,-1,2015,862,0,0
798,162,0,0,0,0,0,0,0,0,0,-1,2022,862,0,0
805,162,0,0,0,0,0,0,0,0,0,-1,2029,862,0,0
812,162,0,0,0,0,0,0,0,0,0,-1,2036,862,0,0
-700,155,0,0,0,0,0,0,0,0,0,-1,524,869,0,0
-693,155,0,0,0,0,0,0,0,0,0,-1,531,869,0,0
-686,155,0,0,0,0,0,0,0,0,0,-1,538,869,0,0
-679,155,0,0,0,0,0,0,0,0,0,-1,545,869,0,0
-672,155,0,0,0,0,0,0,0,0,0,-1,552,869,0,0
-665,155,-10.604,3.09113,0,0,0,0,0,0,0,-1,559,869,-10.604,-3.0911
-658,155,-10.7523,2.45374,0,0,0,0,0,0,0,-1,566,869,-10.7523,-2.45373
-651,155,-10.9105,1.80756,0,0,0,0,0,0,0,-1,573,869,-10.9106,-1.80753
-644,155,-11.3019,1.0545,0,0,0,0,0,0,0,-1,580,869,-11.302,-1.05449
-637,155,-11.5475,0.665283,0,0,0,0,0,0,0,-1,587,869,-11.5475,-0.665292
-630,155,-13.845,1.98236,0.000911505,0.0169847,-0.00301354,0.0175311,0.000365077,-1.39142,0.0115677,0.0413463,594,869,-13.845,-1.98235
-623,155,-13.8388,2.33069,-0.00120785,0.014213,-0.00226679,0.0145393,-0.00153416,-1.42783,0.0102426,0.0250027,601,869,-13.8388,-2.3307
-616,155,-13.9095,2.05878,-0.00279923,0.0111855,-0.00171783,0.0113934,-0.00300715,-1.45035,0.00877154,0.013809,608,869,-13.9096,-2.05876
-609,155,-13.9481,1.83905,-0.00370335,0.00853025,-0.0009125,0.00859794,-0.00377104,-1.49675,0.00732024,0.0129711,615,869,-13.948,-1.83907
-602,155,-13.944,1.63263,-0.00428129,0.00561482,-1.80622e-05,0.00561485,-0.00428132,-1.56897,0.00573082,0.0113042,622,869,-13.9439,-1.63265
-595,155,-13.954,1.4292,-0.00427796,0.0030163,0.000778842,0.00309853,-0.00436019,1.4656,0.00432678,0.0103152,629,869,-13.954,-1.4292
-588,155,-13.9578,1.229,-0.0042308,0.000792412,0.00153058,0.00122204,-0.00466042,1.29714,0.00358442,0.0127846,636,869,-13.9578,-1.22901
-581,155,-14.0458,1.05872,-0.00411901,-0.00080186,0.00205151,0.000177666,-0.00509854,1.12534,0.00345977,0.0194242,643,869,-14.0459,-1.05871
-574,155,-14.0961,0.922607,-0.00393031,-0.00213741,0.00227723,-0.000586531,-0.00548118,0.972912,0.00347515,0.0242821,650,869,-14.0961,-0.922626
-567,155,-14.0441,0.641846,-0.00382383,-0.00280236,0.00227463,-0.000981833,-0.00564435,0.895834,0.00348208,0.0243579,657,869,-14.0441,-0.64187
-560,155,-14.0004,0.342651,-0.00354159,-0.00351481,0.00223916,-0.00128901,-0.0057674,0.788388,0.00349541,0.0228086,664,869,-14.0004,-0.342621
-553,155,-14.0174,0.265991,-0.00318282,-0.00420998,0.00239706,-0.00124494,-0.00614787,0.679866,0.00375307,0.0480324,671,869,-14.0174,-0.266003
-546,155,-15.3489,0.812012,0,0,0,0,0,0,0,-1,678,869,-15.3489,-0.812029
-539,155,-16.8775,0.976746,-0.00208528,-0.00555596,0.00205231,-0.00113299,-0.00650825,0.434444,0.00401482,0.0428575,685,869,-16.8775,-0.976754
-532,155,-16.8797,0.917908,-0.00121186,-0.00636549,0.00175425,-0.000671404,-0.00690595,0.298856,0.00439728,0.0340463,692,869,-16.8797,-0.917899
-525,155,-16.8622,0.915527,-0.00014114,-0.00732768,0.00145722,0.000143099,-0.00761192,0.192637,0.00512298,0.0368137,699,869,-16.8622,-0.91552
-518,155,-16.8746,0.864075,0.00121019,-0.00849591,0.00127593,0.00137512,-0.00866084,0.128548,0.00628263,0.0434787,706,869,-16.8746,-0.86405
-511,155,-16.7708,0.812317,0.00268879,-0.00992253,0.0013558,0.0028329,-0.0100666,0.105894,0.00782816,0.04322,713,869,-16.7708,-0.812347
-504,155,-16.788,1.20605,0.00382916,-0.0118041,0.00217282,0.00412554,-0.0121005,0.135564,0.00973794,0.0421386,720,869,-16.7881,-1.20604
-497,155,0,0,0,0,0,0,0,0,0,-1,727,869,0,0
-490,155,0,0,0,0,0,0,0,0,0,-1,734,869,0,0
-483,155,0,0,0,0,0,0,0,0,0,-1,741,869,0,0
-476,155,0,0,0,0,0,0,0,0,0,-1,748,869,0,0
-469,155,0,0,0,0,0,0,0,0,0,-1,755,869,0,0
-462,155,0,0,0,0,0,0,0,0,0,-1,762,869,0,0
-455,155,0,0,0,0,0,0,0,0,0,-1,769,869,0,0
-448,155,0,0,0,0,0,0,0,0,0,-1,776,869,0,0
-441,155,0,0,0,0,0,0,0,0,0,-1,783,869,0,0
-434,155,0,0,0,0,0,0,0,0,0,-1,790,869,0,0
-427,155,0,0,0,0,0,0,0,0,0,-1,797,869,0,0
-420,155,0,0,0,0,0,0,0,0,0,-1,804,869,0,0
-413,155,0,0,0,0,0,0,0,0,0,-1,811,869,0,0
-406,155,0,0,0,0,0,0,0,0,0,-1,818,869,0,0
-399,155,0,0,0,0,0,0,0,0,0,-1,825,869,0,0
-392,155,0,0,0,0,0,0,0,0,0,-1,832,869,0,0
-385,155,0,0,0,0,0,0,0,0,0,-1,839,869,0,0
-378,155,0,0,0,0,0,0,0,0,0,-1,846,869,0,0
-371,155,0,0,0,0,0,0,0,0,0,-1,853,869,0,0
-364,155,0,0,0,0,0,0,0,0,0,-1,860,869,0,0
-357,155,0,0,0,0,0,0,0,0,0,-1,867,869,0,0
-350,155,0,0,0,0,0,0,0,0,0,-1,874,869,0,0
-343,155,0,0,0,0,0,0,0,0,0,-1,881,869,0,0
-336,155,0,0,0,0,0,0,0,0,0,-1,888,869,0,0
-329,155,0,0,0,0,0,0,0,0,0,-1,895,869,0,0
-322,155,0,0,0,0,0,0,0,0,0,-1,902,869,0,0
-315,155,0,0,0,0,0,0,0,0,0,-1,909,869,0,0
-308,155,0,0,0,0,0,0,0,0,0,-1,916,869,0,0
-301,155,0,0,0,0,0,0,0,0,0,-1,923,869,0,0
-294,155,0,0,0,0,0,0,0,0,0,-1,930,869,0,0
-287,155,0,0,0,0,0,0,0,0,0,-1,937,869,0,0
-280,155,0,0,0,0,0,0,0,0,0,-1,944,869,0,0
-273,155,0,0,0,0,0,0,0,0,0,-1,951,869,0,0
-266,155,0,0,0,0,0,0,0,0,0,-1,958,869,0,0
-259,155,0,0,0,0,0,0,0,0,0,-1,965,869,0,0
-252,155,0,0,0,0,0,0,0,0,0,-1,972,869,0,0
-245,155,0,0,0,0,0,0,0,0,0,-1,979,869,0,0
-238,155,0,0,0,0,0,0,0,0,0,-1,986,869,0,0
-231,155,0,0,0,0,0,0,0,0,0,-1,993,869,0,0
-224,155,0,0,0,0,0,0,0,0,0,-1,1000,869,0,0
-217,155,0,0,0,0,0,0,0,0,0,-1,1007,869,0,0
-210,155,0,0,0,0,0,0,0,0,0,-1,1014,869,0,0
-203,155,0,0,0,0,0,0,0,0,0,-1,1021,869,0,0
-196,155,0,0,0,0,0,0,0,0,0,-1,1028,869,0,0
-189,155,0,0,0,0,0,0,0,0,0,-1,1035,869,0,0
-182,155,0,0,0,0,0,0,0,0,0,-1,1042,869,0,0
-175,155,0,0,0,0,0,0,0,0,0,-1,1049,869,0,0
-168,155,0,0,0,0,0,0,0,0,0,-1,1056,869,0,0
-161,155,0,0,0,0,0,0,0,0,0,-1,1063,869,0,0
-154,155,0,0,0,0,0,0,0,0,0,-1,1070,869,0,0
-147,155,0,0,0,0,0,0,0,0,0,-1,1077,869,0,0
-140,155,0,0,0,0,0,0,0,0,0,-1,1084,869,0,0
-133,155,0,0,0,0,0,0,0,0,0,-1,1091,869,0,0
-126,155,0,0,0,0,0,0,0,0,0,-1,1098,869,0,0
-119,155,0,0,0,0,0,0,0,0,0,-1,1105,869,0,0
-112,155,0,0,0,0,0,0,0,0,0,-1,1112,869,0,0
-105,155,0,0,0,0,0,0,0,0,0,-1,1119,869,0,0
-98,155,0,0,0,0,0,0,0,0,0,-1,1126,869,0,0
-91,155,0,0,0,0,0,0,0,0,0,-1,1133,869,0,0
-84,155,0,0,0,0,0,0,0,0,0,-1,1140,869,0,0
-77,155,0,0,0,0,0,0,0,0,0,-1,1147,869,0,0
-70,155,0,0,0,0,0,0,0,0,0,-1,1154,869,0,0
-63,155,0,0,0,0,0,0,0,0,0,-1,1161,869,0,0
-56,155,0,0,0,0,0,0,0,0,0,-1,1168,869,0,0
-49,155,0,0,0,0,0,0,0,0,0,-1,1175,869,0,0
-42,155,0,0,0,0,0,0,0,0,0,-1,1182,869,0,0
-35,155,0,0,0,0,0,0,0,0,0,-1,1189,869,0,0
-28,155,0,0,0,0,0,0,0,0,0,-1,1196,869,0,0
-21,155,0,0,0,0,0,0,0,0,0,-1,1203,869,0,0
-14,155,0,0,0,0,0,0,0,0,0,-1,1210,869,0,0
-7,155,0,0,0,0,0,0,0,0,0,-1,1217,869,0,0
0,155,0,0,0,0,0,0,0,0,0,-1,1224,869,0,0
7,155,0,0,0,0,0,0,0,0,0,-1,1231,869,0,0
14,155,0,0,0,0,0,0,0,0,0,-1,1238,869,0,0
21,155,0,0,0,0,0,0,0,0,0,-1,1245,869,0,0
28,155,0,0,0,0,0,0,0,0,0,-1,1252,869,0,0
35,155,0,0,0,0,0,0,0,0,0,-1,1259,869,0,0
42,155,0,0,0,0,0,0,0,0,0,-1,1266,869,0,0
49,155,0,0,0,0,0,0,0,0,0,-1,1273,869,0,0
56,155,0,0,0,0,0,0,0,0,0,-1,1280,869,0,0
63,155,0,0,0,0,0,0,0,0,0,-1,1287,869,0,0
70,155,0,0,0,0,0,0,0,0,0,-1,1294,869,0,0
77,155,0,0,0,0,0,0,0,0,0,-1,1301,869,0,0
84,155,0,0,0,0,0,0,0,0,0,-1,1308,869,0,0
91,155,0,0,0,0,0,0,0,0,0,-1,1315,869,0,0
98,155,0,0,0,0,0,0,0,0,0,-1,1322,869,0,0
105,155,0,0,0,0,0,0,0,0,0,-1,1329,869,0,0
112,155,0,0,0,0,0,0,0,0,0,-1,1336,869,0,0
119,155,0,0,0,0,0,0,0,0,0,-1,1343,869,0,0
126,155,0,0,0,0,0,0,0,0,0,-1,1350,869,0,0
133,155,0,0,0,0,0,0,0,0,0,-1,1357,869,0,0
140,155,0,0,0,0,0,0,0,0,0,-1,1364,869,0,0
147,155,0,0,0,0,0,0,0,0,0,-1,1371,869,0,0
154,155,0,0,0,0,0,0,0,0,0,-1,1378,869,0,0
161,155,0,0,0,0,0,0,0,0,0,-1,1385,869,0,0
168,155,0,0,0,0,0,0,0,0,0,-1,1392,869,0,0
175,155,0,0,0,0,0,0,0,0,0,-1,1399,869,0,0
182,155,0,0,0,0,0,0,0,0,0,-1,1406,869,0,0
189,155,0,0,0,0,0,0,0,0,0,-1,1413,869,0,0
196,155,0,0,0,0,0,0,0,0,0,-1,1420,869,0,0
203,155,0,0,0,0,0,0,0,0,0,-1,1427,869,0,0
210,155,0,0,0,0,0,0,0,0,0,-1,1434,869,0,0
217,155,0,0,0,0,0,0,0,0,0,-1,1441,869,0,0
224,155,0,0,0,0,0,0,0,0,0,-1,1448,869,0,0
231,155,0,0,0,0,0,0,0,0,0,-1,1455,869,0,0
238,155,0,0,0,0,0,0,0,0,0,-1,1462,869,0,0
245,155,0,0,0,0,0,0,0,0,0,-1,1469,869,0,0
252,155,0,0,0,0,0,0,0,0,0,-1,1476,869,0,0
259,155,0,0,0,0,0,0,0,0,0,-1,1483,869,0,0
266,155,0,0,0,0,0,0,0,0,0,-1,1490,869,0,0
273,155,0,0,0,0,0,0,0,0,0,-1,1497,869,0,0
280,155,0,0,0,0,0,0,0,0,0,-1,1504,869,0,0
287,155,0,0,0,0,0,0,0,0,0,-1,1511,869,0,0
294,155,0,0,0,0,0,0,0,0,0,-1,1518,869,0,0
301,155,0,0,0,0,0,0,0,0,0,-1,1525,869,0,0
308,155,0,0,0,0,0,0,0,0,0,-1,1532,869,0,0
315,155,0,0,0,0,0,0,0,0,0,-1,1539,869,0,0
322,155,0,0,0,0,0,0,0,0,0,-1,1546,869,0,0
329,155,0,0,0,0,0,0,0,0,0,-1,1553,869,0,0
336,155,0,0,0,0,0,0,0,0,0,-1,1560,869,0,0
343,155,0,0,0,0,0,0,0,0,0,-1,1567,869,0,0
350,155,0,0,0,0,0,0,0,0,0,-1,1574,869,0,0
357,155,0,0,0,0,0,0,0,0,0,-1,1581,869,0,0
364,155,0,0,0,0,0,0,0,0,0,-1,1588,869,0,0
371,155,0,0,0,0,0,0,0,0,0,-1,1595,869,0,0
378,155,0,0,0,0,0,0,0,0,0,-1,1602,869,0,0
385,155,0,0,0,0,0,0,0,0,0,-1,1609,869,0,0
392,155,0,0,0,0,0,0,0,0,0,-1,1616,869,0,0
399,155,0,0,0,0,0,0,0,0,0,-1,1623,869,0,0
406,155,0,0,0,0,0,0,0,0,0,-1,1630,869,0,0
413,155,0,0,0,0,0,0,0,0,0,-1,1637,869,0,0
420,155,0,0,0,0,0,0,0,0,0,-1,1644,869,0,0
427,155,0,0,0,0,0,0,0,0,0,-1,1651,869,0,0
434,155,0,0,0,0,0,0,0,0,0,-1,1658,869,0,0
441,155,0,0,0,0,0,0,0,0,0,-1,1665,869,0,0
448,155,0,0,0,0,0,0,0,0,0,-1,1672,869,0,0
455,155,0,0,0,0,0,0,0,0,0,-1,1679,869,0,0
462,155,0,0,0,0,0,0,0,0,0,-1,1686,869,0,0
469,155,0,0,0,0,0,0,0,0,0,-1,1693,869,0,0
476,155,0,0,0,0,0,0,0,0,0,-1,1700,869,0,0
483,155,0,0,0,0,0,0,0,0,0,-1,1707,869,0,0
490,155,0,0,0,0,0,0,0,0,0,-1,1714,869,0,0
497,155,0,0,0,0,0,0,0,0,0,-1,1721,869,0,0
504,155,0,0,0,0,0,0,0,0,0,-1,1728,869,0,0
511,155,0,0,0,0,0,0,0,0,0,-1,1735,869,0,0
518,155,0,0,0,0,0,0,0,0,0,-1,1742,869,0,0
525,155,0,0,0,0,0,0,0,0,0,-1,1749,869,0,0
532,155,0,0,0,0,0,0,0,0,0,-1,1756,869,0,0
539,155,0,0,0,0,0,0,0,0,0,-1,1763,869,0,0
546,155,0,0,0,0,0,0,0,0,0,-1,1770,869,0,0
553,155,0,0,0,0,0,0,0,0,0,-1,1777,869,0,0
560,155,0,0,0,0,0,0,0,0,0,-1,1784,869,0,0
567,155,0,0,0,0,0,0,0,0,0,-1,1791,869,0,0
574,155,0,0,0,0,0,0,0,0,0,-1,1798,869,0,0
581,155,0,0,0,0,0,0,0,0,0,-1,1805,869,0,0
588,155,0,0,0,0,0,0,0,0,0,-1,1812,869,0,0
595,155,0,0,0,0,0,0,0,0,0,-1,1819,869,0,0
602,155,0,0,0,0,0,0,0,0,0,-1,1826,869,0,0
609,155,0,0,0,0,0,0,0,0,0,-1,1833,869,0,0
616,155,24.3561,2.89111,0.00615885,0.00578046,-0.00275433,0.00873048,0.00320883,-0.751107,0.00509916,0.0452818,1840,869,24.3561,-2.89109
623,155,24.4032,3.06506,0.00443521,0.00510888,-0.00213042,0.00692893,0.00261516,-0.863803,0.00404029,0.0424631,1847,869,24.4032,-3.06506
630,155,24.3022,2.9043,0.00308775,0.00439312,-0.00149682,0.00537337,0.00210751,-0.990994,0.00312625,0.0407837,1854,869,24.3022,-2.90429
637,155,24.2478,2.86224,0.00190807,0.00367049,-0.00102075,0.00413779,0.00144078,-1.14148,0.00242537,0.0391334,1861,869,24.2479,-2.86225
644,155,24.2804,2.85535,0.000547566,0.00298188,-0.000771044,0.00320555,0.000323897,-1.28846,0.00203767,0.0367542,1868,869,24.2803,-2.85536
651,155,24.3591,2.73889,-0.000568693,0.00236897,-0.000634452,0.00250013,-0.00069986,-1.36693,0.00194253,0.0345325,1875,869,24.3592,-2.73891
658,155,24.3397,2.75397,-0.00141177,0.00179711,-0.000614906,0.00191091,-0.00152557,-1.3878,0.0019882,0.0296988,1882,869,24.3397,-2.75398
665,155,24.2761,2.80927,-0.00211107,0.00133493,-0.000605034,0.00143807,-0.00221421,-1.40195,0.00212446,0.0351263,1889,869,24.2761,-2.80926
672,155,24.3094,2.78064,-0.00269887,0.00101036,-0.000601497,0.00110546,-0.00279397,-1.41399,0.00232063,0.0420326,1896,869,24.3094,-2.78065
679,155,24.3282,2.77167,0,0,0,0,0,0,0,-1,1903,869,24.3282,-2.77165
686,155,20.5071,2.5141,0,0,0,0,0,0,0,-1,1910,869,20.5071,-2.51412
693,155,20.5403,2.76099,-0.00344932,0.000180458,-0.000688628,0.000306711,-0.00357558,-1.38947,0.00249225,0.0233206,1917,869,20.5403,-2.76101
700,155,20.6239,3.00494,-0.00329239,-4.21665e-05,-0.000736266,0.000116839,-0.0034514,-1.3581,0.00234085,0.0171009,1924,869,20.6238,-3.00496
707,155,20.6879,3.23737,-0.00262263,-7.42121e-05,-0.000664014,8.84241e-05,-0.00278527,-1.3306,0.00188701,0.0133842,1931,869,20.6879,-3.23739
714,155,20.6266,3.42444,-0.00132934,8.4258e-05,-0.000399584,0.00018939,-0.00143447,-1.31352,0.00102529,0.0235767,1938,869,20.6266,-3.42443
721,155,20.5342,3.65741,0.00093993,0.000467943,0.000308521,0.00109237,0.000315506,0.458908,0.000649157,0.0244452,1945,869,20.5342,-3.65743
728,155,20.5342,3.8858,0.0041612,0.00195736,0.00124945,0.00472522,0.00139333,0.424029,0.00280359,0.0186062,1952,869,20.5342,-3.88581
735,155,20.5393,4.08185,0.00892264,0.00510298,0.00225388,0.00996703,0.00405859,0.433921,0.00578741,0.0144024,1959,869,20.5393,-4.08185
742,155,20.554,4.2774,0.0149828,0.00805493,0.00372188,0.0166032,0.00643445,0.410641,0.00966637,0.0160754,1966,869,20.554,-4.27742
749,155,20.5305,4.48761,0.022194,0.0124478,0.00542005,0.0246095,0.0100323,0.419243,0.0142888,0.0139101,1973,869,20.5305,-4.48759
756,155,20.5963,4.75293,0.0311956,0.0188966,0.00749111,0.034738,0.0153542,0.441719,0.0201009,0.0243562,1980,869,20.5963,-4.75293
763,155,20.694,5.02283,0.042665,0.0276828,0.00984327,0.0475435,0.0228044,0.460135,0.0274568,0.0445357,1987,869,20.6939,-5.02284
770,155,20.7729,5.34253,0.056995,0.0392872,0.0124006,0.0633781,0.0329041,0.475372,0.0366003,0.0485038,1994,869,20.773,-5.34253
777,155,20.8663,5.66833,0,0,0,0,0,0,0,-1,2001,869,20.8663,-5.66831
784,155,22.2834,8.70172,0,0,0,0,0,0,0,-1,2008,869,22.2834,-8.70169
791,155,0,0,0,0,0,0,0,0,0,-1,2015,869,0,0
798,155,0,0,0,0,0,0,0,0,0,-1,2022,869,0,0
805,155,0,0,0,0,0,0,0,0,0,-1,2029,869,0,0
812,155,0,0,0,0,0,0,0,0,0,-1,2036,869,0,0
-700,148,0,0,0,0,0,0,0,0,0,-1,524,876,0,0
-693,148,0,0,0,0,0,0,0,0,0,-1,531,876,0,0
-686,148,0,0,0,0,0,0,0,0,0,-1,538,876,0,0
-679,148,0,0,0,0,0,0,0,0,0,-1,545,876,0,0
-672,148,-15.5656,2.49536,0,0,0,0,0,0,0,-1,552,876,-15.5656,-2.49534
-665,148,-9.97723,3.11285,0,0,0,0,0,0,0,-1,559,876,-9.97722,-3.11285
-658,148,-10.115,2.40796,0,0,0,0,0,0,0,-1,566,876,-10.115,-2.40793
-651,148,-10.3023,1.7193,0,0,0,0,0,0,0,-1,573,876,-10.3023,-1.71932
-644,148,-10.9602,0.868286,0,0,0,0,0,0,0,-1,580,876,-10.9602,-0.868311
-637,148,-13.5768,1.90088,0,0,0,0,0,0,0,-1,587,876,-13.5768,-1.9009
-630,148,-13.8007,2.07703,0.00268771,0.014475,3.15168e-05,0.0144751,0.00268763,1.56812,0.00889065,0.0440837,594,876,-13.8007,-2.07704
-623,148,-14.0176,2.27795,0.000227417,0.011851,4.01106e-05,0.0118511,0.000227279,1.56735,0.00782607,0.0224299,601,876,-14.0176,-2.27795
-616,148,-14.1121,2.03918,-0.00190847,0.00905192,-0.000135509,0.0090536,-0.00191014,-1.55844,0.00676297,0.012139,608,876,-14.1121,-2.03921
-609,148,-14.1479,1.83191,-0.00319598,0.00666961,0.00010821,0.00667079,-0.00319717,1.55983,0.00581374,0.0114451,615,876,-14.1479,-1.83192
-602,148,-14.1568,1.6239,-0.00406359,0.00415547,0.000660985,0.00420829,-0.00411641,1.49106,0.00480636,0.0113949,622,876,-14.1568,-1.62392
-595,148,-14.1666,1.42761,-0.00435457,0.00208288,0.00125334,0.00231829,-0.00458998,1.38513,0.00405974,0.00976268,629,876,-14.1666,-1.42763
-588,148,-14.175,1.21063,-0.00454577,0.000264908,0.00182167,0.000876873,-0.00515774,1.2467,0.00376498,0.0138314,636,876,-14.175,-1.21064
-581,148,-14.2378,1.03595,-0.00462634,-0.0010053,0.00222516,5.28588e-05,-0.00568449,1.12691,0.0038074,0.0231998,643,876,-14.2378,-1.03594
-574,148,-14.1009,0.908508,-0.0045376,-0.00214125,0.0023784,-0.000676263,-0.00600259,1.01873,0.00379643,0.0269739,650,876,-14.1009,-0.908494
-567,148,-14.2045,0.673096,-0.00443272,-0.00278591,0.00238639,-0.00108486,-0.00613376,0.951524,0.00377981,0.0344637,657,876,-14.2045,-0.673098
-560,148,-14.1893,0.381897,-0.00411959,-0.00346647,0.00240601,-0.00136496,-0.0062211,0.85285,0.00377557,0.0347143,664,876,-14.1893,-0.381924
-553,148,-15.1661,0.7099,-0.0037865,-0.00410052,0.00261032,-0.00132848,-0.00655854,0.755359,0.00400369,0.0419871,671,876,-15.1661,-0.70989
-546,148,-16.813,1.09058,0,0,0,0,0,0,0,-1,678,876,-16.813,-1.09058
-539,148,-16.8502,0.959167,-0.00263978,-0.00525385,0.00244733,-0.00117233,-0.0067213,0.540134,0.00414571,0.0356872,685,876,-16.8502,-0.959178
-532,148,-16.8713,0.894043,-0.00165401,-0.00590674,0.00224296,-0.000689694,-0.00687105,0.406038,0.00436899,0.0339019,692,876,-16.8713,-0.894042
-525,148,-16.8308,0.903748,-0.000428366,-0.00667883,0.00204139,0.000179277,-0.00728647,0.28931,0.0049185,0.036475,699,876,-16.8308,-0.90373
-518,148,-16.8752,0.794739,0.00119751,-0.00763199,0.00196419,0.00161475,-0.00804923,0.209309,0.00597755,0.0435391,706,876,-16.8752,-0.794711
-511,148,-16.8408,0.830566,0.0028666,-0.00882766,0.00215623,0.0032515,-0.00921256,0.176648,0.00746542,0.0423794,713,876,-16.8407,-0.830555
-504,148,-16.8864,1.23499,0.00401297,-0.0105898,0.00322432,0.00469322,-0.0112701,0.207924,0.00947357,0.0429681,720,876,-16.8864,-1.23496
-497,148,0,0,0,0,0,0,0,0,0,-1,727,876,0,0
-490,148,0,0,0,0,0,0,0,0,0,-1,734,876,0,0
-483,148,0,0,0,0,0,0,0,0,0,-1,741,876,0,0
-476,148,0,0,0,0,0,0,0,0,0,-1,748,876,0,0
-469,148,0,0,0,0,0,0,0,0,0,-1,755,876,0,0
-462,148,0,0,0,0,0,0,0,0,0,-1,762,876,0,0
-455,148,0,0,0,0,0,0,0,0,0,-1,769,876,0,0
-448,148,0,0,0,0,0,0,0,0,0,-1,776,876,0,0
-441,148,0,0,0,0,0,0,0,0,0,-1,783,876,0,0
-434,148,0,0,0,0,0,0,0,0,0,-1,790,876,0,0
-427,148,0,0,0,0,0,0,0,0,0,-1,797,876,0,0
-420,148,0,0,0,0,0,0,0,0,0,-1,804,876,0,0
-413,148,0,0,0,0,0,0,0,0,0,-1,811,876,0,0
-406,148,0,0,0,0,0,0,0,0,0,-1,818,876,0,0
-399,148,0,0,0,0,0,0,0,0,0,-1,825,876,0,0
-392,148,0,0,0,0,0,0,0,0,0,-1,832,876,0,0
-385,148,0,0,0,0,0,0,0,0,0,-1,839,876,0,0
-378,148,0,0,0,0,0,0,0,0,0,-1,846,876,0,0
-371,148,0,0,0,0,0,0,0,0,0,-1,853,876,0,0
-364,148,0,0,0,0,0,0,0,0,0,-1,860,876,0,0
-357,148,0,0,0,0,0,0,0,0,0,-1,867,876,0,0
-350,148,0,0,0,0,0,0,0,0,0,-1,874,876,0,0
-343,148,0,0,0,0,0,0,0,0,0,-1,881,876,0,0
-336,148,0,0,0,0,0,0,0,0,0,-1,888,876,0,0
-329,148,0,0,0,0,0,0,0,0,0,-1,895,876,0,0
-322,148,0,0,0,0,0,0,0,0,0,-1,902,876,0,0
-315,148,0,0,0,0,0,0,0,0,0,-1,909,876,0,0
-308,148,0,0,0,0,0,0,0,0,0,-1,916,876,0,0
-301,148,0,0,0,0,0,0,0,0,0,-1,923,876,0,0
-294,148,0,0,0,0,0,0,0,0,0,-1,930,876,0,0
-287,148,0,0,0,0,0,0,0,0,0,-1,937,876,0,0
-280,148,0,0,0,0,0,0,0,0,0,-1,944,876,0,0
-273,148,0,0,0,0,0,0,0,0,0,-1,951,876,0,0
-266,148,0,0,0,0,0,0,0,0,0,-1,958,876,0,0
-259,148,0,0,0,0,0,0,0,0,0,-1,965,876,0,0
-252,148,0,0,0,0,0,0,0,0,0,-1,972,876,0,0
-245,148,0,0,0,0,0,0,0,0,0,-1,979,876,0,0
-238,148,0,0,0,0,0,0,0,0,0,-1,986,876,0,0
-231,148,0,0,0,0,0,0,0,0,0,-1,993,876,0,0
-224,148,0,0,0,0,0,0,0,0,0,-1,1000,876,0,0
-217,148,0,0,0,0,0,0,0,0,0,-1,1007,876,0,0
-210,148,0,0,0,0,0,0,0,0,0,-1,1014,876,0,0
-203,148,0,0,0,0,0,0,0,0,0,-1,1021,876,0,0
-196,148,0,0,0,0,0,0,0,0,0,-1,1028,876,0,0
-189,148,0,0,0,0,0,0,0,0,0,-1,1035,876,0,0
-182,148,0,0,0,0,0,0,0,0,0,-1,1042,876,0,0
-175,148,0,0,0,0,0,0,0,0,0,-1,1049,876,0,0
-168,148,0,0,0,0,0,0,0,0,0,-1,1056,876,0,0
-161,148,0,0,0,0,0,0,0,0,0,-1,1063,876,0,0
-154,148,0,0,0,0,0,0,0,0,0,-1,1070,876,0,0
-147,148,0,0,0,0,0,0,0,0,0,-1,1077,876,0,0
-140,148,0,0,0,0,0,0,0,0,0,-1,1084,876,0,0
-133,148,0,0,0,0,0,0,0,0,0,-1,1091,876,0,0
-126,148,0,0,0,0,0,0,0,0,0,-1,1098,876,0,0
-119,148,0,0,0,0,0,0,0,0,0,-1,1105,876,0,0
-112,148,0,0,0,0,0,0,0,0,0,-1,1112,876,0,0
-105,148,0,0,0,0,0,0,0,0,0,-1,1119,876,0,0
-98,148,0,0,0,0,0,0,0,0,0,-1,1126,876,0,0
-91,148,0,0,0,0,0,0,0,0,0,-1,1133,876,0,0
-84,148,0,0,0,0,0,0,0,0,0,-1,1140,876,0,0
-77,148,0,0,0,0,0,0,0,0,0,-1,1147,876,0,0
-70,148,0,0,0,0,0,0,0,0,0,-1,1154,876,0,0
-63,148,0,0,0,0,0,0,0,0,0,-1,1161,876,0,0
-56,148,0,0,0,0,0,0,0,0,0,-1,1168,876,0,0
-49,148,0,0,0,0,0,0,0,0,0,-1,1175,876,0,0
-42,148,0,0,0,0,0,0,0,0,0,-1,1182,876,0,0
-35,148,0,0,0,0,0,0,0,0,0,-1,1189,876,0,0
-28,148,0,0,0,0,0,0,0,0,0,-1,1196,876,0,0
-21,148,0,0,0,0,0,0,0,0,0,-1,1203,876,0,0
-14,148,0,0,0,0,0,0,0,0,0,-1,1210,876,0,0
-7,148,0,0,0,0,0,0,0,0,0,-1,1217,876,0,0
0,148,0,0,0,0,0,0,0,0,0,-1,1224,876,0,0
7,148,0,0,0,0,0,0,0,0,0,-1,1231,876,0,0
14,148,0,0,0,0,0,0,0,0,0,-1,1238,876,0,0
21,148,0,0,0,0,0,0,0,0,0,-1,1245,876,0,0
28,148,0,0,0,0,0,0,0,0,0,-1,1252,876,0,0
35,148,0,0,0,0,0,0,0,0,0,-1,1259,876,0,0
42,148,0,0,0,0,0,0,0,0,0,-1,1266,876,0,0
49,148,0,0,0,0,0,0,0,0,0,-1,1273,876,0,0
56,148,0,0,0,0,0,0,0,0,0,-1,1280,876,0,0
63,148,0,0,0,0,0,0,0,0,0,-1,1287,876,0,0
70,148,0,0,0,0,0,0,0,0,0,-1,1294,876,0,0
77,148,0,0,0,0,0,0,0,0,0,-1,1301,876,0,0
84,148,0,0,0,0,0,0,0,0,0,-1,1308,876,0,0
91,148,0,0,0,0,0,0,0,0,0,-1,1315,876,0,0
98,148,0,0,0,0,0,0,0,0,0,-1,1322,876,0,0
105,148,0,0,0,0,0,0,0,0,0,-1,1329,876,0,0
112,148,0,0,0,0,0,0,0,0,0,-1,1336,876,0,0
119,148,0,0,0,0,0,0,0,0,0,-1,1343,876,0,0
126,148,0,0,0,0,0,0,0,0,0,-1,1350,876,0,0
133,148,0,0,0,0,0,0,0,0,0,-1,1357,876,0,0
140,148,0,0,0,0,0,0,0,0,0,-1,1364,876,0,0
147,148,0,0,0,0,0,0,0,0,0,-1,1371,876,0,0
154,148,0,0,0,0,0,0,0,0,0,-1,1378,876,0,0
161,148,0,0,0,0,0,0,0,0,0,-1,1385,876,0,0
168,148,0,0,0,0,0,0,0,0,0,-1,1392,876,0,0
175,148,0,0,0,0,0,0,0,0,0,-1,1399,876,0,0
182,148,0,0,0,0,0,0,0,0,0,-1,1406,876,0,0
189,148,0,0,0,0,0,0,0,0,0,-1,1413,876,0,0
196,148,0,0,0,0,0,0,0,0,0,-1,1420,876,0,0
203,148,0,0,0,0,0,0,0,0,0,-1,1427,876,0,0
210,148,0,0,0,0,0,0,0,0,0,-1,1434,876,0,0
217,148,0,0,0,0,0,0,0,0,0,-1,1441,876,0,0
224,148,0,0,0,0,0,0,0,0,0,-1,1448,876,0,0
231,148,0,0,0,0,0,0,0,0,0,-1,1455,876,0,0
238,148,0,0,0,0,0,0,0,0,0,-1,1462,876,0,0
245,148,0,0,0,0,0,0,0,0,0,-1,1469,876,0,0
252,148,0,0,0,0,0,0,0,0,0,-1,1476,876,0,0
259,148,0,0,0,0,0,0,0,0,0,-1,1483,876,0,0
266,148,0,0,0,0,0,0,0,0,0,-1,1490,876,0,0
273,148,0,0,0,0,0,0,0,0,0,-1,1497,876,0,0
280,148,0,0,0,0,0,0,0,0,0,-1,1504,876,0,0
287,148,0,0,0,0,0,0,0,0,0,-1,1511,876,0,0
294,148,0,0,0,0,0,0,0,0,0,-1,1518,876,0,0
301,148,0,0,0,0,0,0,0,0,0,-1,1525,876,0,0
308,148,0,0,0,0,0,0,0,0,0,-1,1532,876,0,0
315,148,0,0,0,0,0,0,0,0,0,-1,1539,876,0,0
322,148,0,0,0,0,0,0,0,0,0,-1,1546,876,0,0
329,148,0,0,0,0,0,0,0,0,0,-1,1553,876,0,0
336,148,0,0,0,0,0,0,0,0,0,-1,1560,876,0,0
343,148,0,0,0,0,0,0,0,0,0,-1,1567,876,0,0
350,148,0,0,0,0,0,0,0,0,0,-1,1574,876,0,0
357,148,0,0,0,0,0,0,0,0,0,-1,1581,876,0,0
364,148,0,0,0,0,0,0,0,0,0,-1,1588,876,0,0
371,148,0,0,0,0,0,0,0,0,0,-1,1595,876,0,0
378,148,0,0,0,0,0,0,0,0,0,-1,1602,876,0,0
385,148,0,0,0,0,0,0,0,0,0,-1,1609,876,0,0
392,148,0,0,0,0,0,0,0,0,0,-1,1616,876,0,0
399,148,0,0,0,0,0,0,0,0,0,-1,1623,876,0,0
406,148,0,0,0,0,0,0,0,0,0,-1,1630,876,0,0
413,148,0,0,0,0,0,0,0,0,0,-1,1637,876,0,0
420,148,0,0,0,0,0,0,0,0,0,-1,1644,876,0,0
427,148,0,0,0,0,0,0,0,0,0,-1,1651,876,0,0
434,148,0,0,0,0,0,0,0,0,0,-1,1658,876,0,0
441,148,0,0,0,0,0,0,0,0,0,-1,1665,876,0,0
448,148,0,0,0,0,0,0,0,0,0,-1,1672,876,0,0
455,148,0,0,0,0,0,0,0,0,0,-1,1679,876,0,0
462,148,0,0,0,0,0,0,0,0,0,-1,1686,876,0,0
469,148,0,0,0,0,0,0,0,0,0,-1,1693,876,0,0
476,148,0,0,0,0,0,0,0,0,0,-1,1700,876,0,0
483,148,0,0,0,0,0,0,0,0,0,-1,1707,876,0,0
490,148,0,0,0,0,0,0,0,0,0,-1,1714,876,0,0
497,148,0,0,0,0,0,0,0,0,0,-1,1721,876,0,0
504,148,0,0,0,0,0,0,0,0,0,-1,1728,876,0,0
511,148,0,0,0,0,0,0,0,0,0,-1,1735,876,0,0
518,148,0,0,0,0,0,0,0,0,0,-1,1742,876,0,0
525,148,0,0,0,0,0,0,0,0,0,-1,1749,876,0,0
532,148,0,0,0,0,0,0,0,0,0,-1,1756,876,0,0
539,148,0,0,0,0,0,0,0,0,0,-1,1763,876,0,0
546,148,0,0,0,0,0,0,0,0,0,-1,1770,876,0,0
553,148,0,0,0,0,0,0,0,0,0,-1,1777,876,0,0
560,148,0,0,0,0,0,0,0,0,0,-1,1784,876,0,0
567,148,0,0,0,0,0,0,0,0,0,-1,1791,876,0,0
574,148,0,0,0,0,0,0,0,0,0,-1,1798,876,0,0
581,148,0,0,0,0,0,0,0,0,0,-1,1805,876,0,0
588,148,0,0,0,0,0,0,0,0,0,-1,1812,876,0,0
595,148,0,0,0,0,0,0,0,0,0,-1,1819,876,0,0
602,148,0,0,0,0,0,0,0,0,0,-1,1826,876,0,0
609,148,0,0,0,0,0,0,0,0,0,-1,1833,876,0,0
616,148,0,0,0,0,0,0,0,0,0,-1,1840,876,0,0
623,148,24.2388,3.18219,0.00550371,0.00589493,-0.00239846,0.00810574,0.00329289,-0.826087,0.0047072,0.0418091,1847,876,24.2387,-3.18217
630,148,24.1418,2.91443,0.00394101,0.00503581,-0.00167836,0.00625378,0.00272304,-0.943035,0.00362065,0.0400191,1854,876,24.1419,-2.91441
637,148,24.2435,2.7262,0.00255126,0.00421916,-0.00113649,0.00479485,0.00197557,-1.10192,0.00278256,0.0350659,1861,876,24.2435,-2.72622
644,148,24.298,2.70703,0.000925252,0.00341871,-0.000821018,0.00366476,0.000679197,-1.27962,0.00225119,0.0351444,1868,876,24.2979,-2.70703
651,148,24.3573,2.7077,-0.000636752,0.00274954,-0.000646743,0.00286886,-0.000756069,-1.38836,0.00220817,0.0378275,1875,876,24.3573,-2.7077
658,148,24.3331,2.77875,-0.001933,0.0021243,-0.000618136,0.00221639,-0.00202508,-1.42291,0.00244964,0.0351922,1882,876,24.3331,-2.77875
665,148,24.2367,2.87848,-0.00295714,0.00162032,-0.000604804,0.00169888,-0.0030357,-1.44162,0.00276959,0.0265175,1889,876,24.2367,-2.87848
672,148,24.2614,2.82489,-0.00375202,0.00126253,-0.000607508,0.00133508,-0.00382457,-1.45194,0.00309235,0.0296777,1896,876,24.2614,-2.82488
679,148,24.0934,2.87732,0,0,0,0,0,0,0,-1,1903,876,24.0934,-2.8773
686,148,20.5781,2.40576,0,0,0,0,0,0,0,-1,1910,876,20.5781,-2.40577
693,148,20.6819,2.703,-0.00494555,0.000372271,-0.000671285,0.000455701,-0.00502898,-1.44715,0.00351442,0.04455,1917,876,20.6818,-2.70302
700,148,20.8666,3.03455,-0.00483775,0.000210743,-0.000682943,0.000301498,-0.00492851,-1.43868,0.00339064,0.0181699,1924,876,20.8666,-3.03456
707,148,20.9575,3.31238,-0.00418311,0.00018578,-0.000642402,0.000278281,-0.00427561,-1.42779,0.00294755,0.0161724,1931,876,20.9575,-3.31239
714,148,20.8953,3.45441,-0.00287366,0.000398458,-0.000451662,0.000459657,-0.00293486,-1.43612,0.00212642,0.0156875,1938,876,20.8952,-3.4544
721,148,20.7892,3.63397,-0.000582047,0.000851796,0.000199191,0.000878954,-0.000609204,1.43529,0.000863881,0.0163179,1945,876,20.7891,-3.63394
728,148,20.7743,3.87494,0.002678,0.00246603,0.00107182,0.00364906,0.00149497,0.736116,0.00211821,0.0188706,1952,876,20.7742,-3.87493
735,148,20.7761,4.0863,0.00754074,0.00570108,0.00197569,0.00880023,0.00444159,0.567533,0.00508089,0.0175443,1959,876,20.7761,-4.08633
742,148,20.7771,4.30054,0.0137215,0.00873702,0.00330925,0.015372,0.00708651,0.462652,0.00888404,0.0191379,1966,876,20.7771,-4.30053
749,148,20.7711,4.50427,0.0209693,0.0131265,0.00479173,0.0232397,0.0108561,0.442477,0.0134271,0.0159256,1973,876,20.7711,-4.50429
756,148,20.8087,4.75092,0.0297723,0.0194498,0.00657258,0.0329679,0.0162542,0.452551,0.0190347,0.020678,1980,876,20.8087,-4.75089
763,148,21.1185,5.40289,0.0408109,0.0277955,0.00853805,0.0450386,0.0235678,0.459767,0.0260124,0.0422117,1987,876,21.1186,-5.4029
770,148,21.6132,6.39606,0.0546094,0.038508,0.0106115,0.0598785,0.0332388,0.460882,0.0346408,0.0424147,1994,876,21.6132,-6.39608
777,148,22.0519,7.28601,0.0714618,0.0517036,0.012535,0.0775428,0.0456226,0.45167,0.0450017,0.0424751,2001,876,22.0519,-7.28599
784,148,22.5264,8.11603,0.0913139,0.067265,0.0138602,0.0976387,0.0609403,0.428101,0.0569479,0.0455308,2008,876,22.5263,-8.11601
791,148,23.0076,8.93695,0,0,0,0,0,0,0,-1,2015,876,23.0076,-8.93693
798,148,0,0,0,0,0,0,0,0,0,-1,2022,876,0,0
805,148,0,0,0,0,0,0,0,0,0,-1,2029,876,0,0
812,148,0,0,0,0,0,0,0,0,0,-1,2036,876,0,0
-700,141,0,0,0,0,0,0,0,0,0,-1,524,883,0,0
-693,141,0,0,0,0,0,0,0,0,0,-1,531,883,0,0
-686,141,0,0,0,0,0,0,0,0,0,-1,538,883,0,0
-679,141,0,0,0,0,0,0,0,0,0,-1,545,883,0,0
-672,141,-15.5045,2.52661,0,0,0,0,0,0,0,-1,552,883,-15.5044,-2.52663
-665,141,-15.6158,2.68512,0.0372618,0.0236472,0.0101801,0.0427008,0.0182082,0.490698,0.0247422,0.0460267,559,883,-15.6158,-2.68514
-658,141,-15.7125,2.71655,0.0276643,0.0217695,0.00753386,0.0328068,0.016627,0.59894,0.0189416,0.0458778,566,883,-15.7125,-2.71653
-651,141,-15.5788,2.48608,0.0199137,0.0195525,0.00562297,0.025359,0.0141072,0.769347,0.0146719,0.0446353,573,883,-15.5788,-2.48606
-644,141,-15.7955,2.43744,0,0,0,0,0,0,0,-1,580,883,-15.7955,-2.43744
-637,141,-14.064,2.16101,0,0,0,0,0,0,0,-1,587,883,-14.064,-2.16104
-630,141,-14.1426,2.20331,0.00492117,0.0120583,0.00250151,0.0128478,0.00413173,1.2651,0.00757343,0.0410493,594,883,-14.1427,-2.20329
-623,141,-14.1855,2.20581,0.00215935,0.00960585,0.00199291,0.0101057,0.00165954,1.32507,0.00625772,0.0212455,601,883,-14.1855,-2.20579
-616,141,-14.3,2.03125,-0.000494222,0.00706713,0.00128999,0.00728115,-0.000708242,1.40639,0.00510658,0.0112442,608,883,-14.3,-2.03123
-609,141,-14.3368,1.83643,-0.00222864,0.00496283,0.00107003,0.00511867,-0.00238447,1.42618,0.00442678,0.0121015,615,883,-14.3368,-1.83642
-602,141,-14.3482,1.62494,-0.00352617,0.00283874,0.00132183,0.00310233,-0.00378976,1.37396,0.00398575,0.0115758,622,883,-14.3482,-1.62492
-595,141,-14.3575,1.43182,-0.00423401,0.00126885,0.00170009,0.00175171,-0.00471688,1.29406,0.00386322,0.0104482,629,883,-14.3575,-1.43185
-588,141,-14.4806,1.25519,-0.00473106,-0.000166617,0.00209168,0.000646913,-0.00554459,1.19986,0.00392982,0.0166594,636,883,-14.4806,-1.2552
-581,141,-14.4695,1.09015,-0.0050667,-0.00111885,0.00239473,1.06301e-05,-0.00619617,1.13008,0.00413433,0.0228788,643,883,-14.4695,-1.09018
-574,141,-14.2548,0.965149,-0.0051426,-0.00202514,0.00249688,-0.000640396,-0.00652735,1.06444,0.00415459,0.0274392,650,883,-14.2548,-0.965148
-567,141,-14.2993,0.831421,-0.00510129,-0.00260468,0.00254701,-0.00101652,-0.00668945,1.01325,0.00416238,0.0318938,657,883,-14.2992,-0.831451
-560,141,-14.5882,0.708618,-0.00483057,-0.00319979,0.002621,-0.00127027,-0.00676009,0.936202,0.00414864,0.0403651,664,883,-14.5882,-0.708643
-553,141,-16.5865,1.29077,0,0,0,0,0,0,0,-1,671,883,-16.5865,-1.29076
-546,141,-16.7205,1.10968,-0.00408229,-0.00419584,0.00292394,-0.00121457,-0.00706356,0.775691,0.00436093,0.0386267,678,883,-16.7204,-1.10967
-539,141,-16.8515,0.908325,-0.00330844,-0.00463318,0.00286931,-0.00102604,-0.00691558,0.671962,0.00430929,0.0304825,685,883,-16.8515,-0.908303
-532,141,-16.903,0.876648,-0.00221417,-0.00509961,0.00276292,-0.00053997,-0.00677381,0.544785,0.00434708,0.0289677,692,883,-16.903,-0.876623
-525,141,-16.8657,0.904663,-0.000842794,-0.00563921,0.00265554,0.000337163,-0.00681917,0.418136,0.00466257,0.038264,699,883,-16.8657,-0.904658
-518,141,-16.8644,1.06079,0.00099592,-0.00629435,0.00267643,0.00187299,-0.00717141,0.316672,0.00551238,0.0426526,706,883,-16.8644,-1.06078
-511,141,-16.9165,1.15015,0.00263968,-0.00708104,0.00299835,0.00349011,-0.00793148,0.276376,0.0067584,0.0395826,713,883,-16.9165,-1.15015
-504,141,-16.933,1.14087,0.00348734,-0.00842061,0.00435816,0.00491194,-0.00984521,0.315932,0.00867729,0.0429667,720,883,-16.933,-1.14088
-497,141,0,0,0,0,0,0,0,0,0,-1,727,883,0,0
-490,141,0,0,0,0,0,0,0,0,0,-1,734,883,0,0
-483,141,0,0,0,0,0,0,0,0,0,-1,741,883,0,0
-476,141,0,0,0,0,0,0,0,0,0,-1,748,883,0,0
-469,141,0,0,0,0,0,0,0,0,0,-1,755,883,0,0
-462,141,0,0,0,0,0,0,0,0,0,-1,762,883,0,0
-455,141,0,0,0,0,0,0,0,0,0,-1,769,883,0,0
-448,141,0,0,0,0,0,0,0,0,0,-1,776,883,0,0
-441,141,0,0,0,0,0,0,0,0,0,-1,783,883,0,0
-434,141,0,0,0,0,0,0,0,0,0,-1,790,883,0,0
-427,141,0,0,0,0,0,0,0,0,0,-1,797,883,0,0
-420,141,0,0,0,0,0,0,0,0,0,-1,804,883,0,0
-413,141,0,0,0,0,0,0,0,0,0,-1,811,883,0,0
-406,141,0,0,0,0,0,0,0,0,0,-1,818,883,0,0
-399,141,0,0,0,0,0,0,0,0,0,-1,825,883,0,0
-392,141,0,0,0,0,0,0,0,0,0,-1,832,883,0,0
-385,141,0,0,0,0,0,0,0,0,0,-1,839,883,0,0
-378,141,0,0,0,0,0,0,0,0,0,-1,846,883,0,0
-371,141,0,0,0,0,0,0,0,0,0,-1,853,883,0,0
-364,141,0,0,0,0,0,0,0,0,0,-1,860,883,0,0
-357,141,0,0,0,0,0,0,0,0,0,-1,867,883,0,0
-350,141,0,0,0,0,0,0,0,0,0,-1,874,883,0,0
-343,141,0,0,0,0,0,0,0,0,0,-1,881,883,0,0
-336,141,0,0,0,0,0,0,0,0,0,-1,888,883,0,0
-329,141,0,0,0,0,0,0,0,0,0,-1,895,883,0,0
-322,141,0,0,0,0,0,0,0,0,0,-1,902,883,0,0
-315,141,0,0,0,0,0,0,0,0,0,-1,909,883,0,0
-308,141,0,0,0,0,0,0,0,0,0,-1,916,883,0,0
-301,141,0,0,0,0,0,0,0,0,0,-1,923,883,0,0
-294,141,0,0,0,0,0,0,0,0,0,-1,930,883,0,0
-287,141,0,0,0,0,0,0,0,0,0,-1,937,883,0,0
-280,141,0,0,0,0,0,0,0,0,0,-1,944,883,0,0
-273,141,0,0,0,0,0,0,0,0,0,-1,951,883,0,0
-266,141,0,0,0,0,0,0,0,0,0,-1,958,883,0,0
-259,141,0,0,0,0,0,0,0,0,0,-1,965,883,0,0
-252,141,0,0,0,0,0,0,0,0,0,-1,972,883,0,0
-245,141,0,0,0,0,0,0,0,0,0,-1,979,883,0,0
-238,141,0,0,0,0,0,0,0,0,0,-1,986,883,0,0
-231,141,0,0,0,0,0,0,0,0,0,-1,993,883,0,0
-224,141,0,0,0,0,0,0,0,0,0,-1,1000,883,0,0
-217,141,0,0,0,0,0,0,0,0,0,-1,1007,883,0,0
-210,141,0,0,0,0,0,0,0,0,0,-1,1014,883,0,0
-203,141,0,0,0,0,0,0,0,0,0,-1,1021,883,0,0
-196,141,0,0,0,0,0,0,0,0,0,-1,1028,883,0,0
-189,141,0,0,0,0,0,0,0,0,0,-1,1035,883,0,0
-182,141,0,0,0,0,0,0,0,0,0,-1,1042,883,0,0
-175,141,0,0,0,0,0,0,0,0,0,-1,1049,883,0,0
-168,141,0,0,0,0,0,0,0,0,0,-1,1056,883,0,0
-161,141,0,0,0,0,0,0,0,0,0,-1,1063,883,0,0
-154,141,0,0,0,0,0,0,0,0,0,-1,1070,883,0,0
-147,141,0,0,0,0,0,0,0,0,0,-1,1077,883,0,0
-140,141,0,0,0,0,0,0,0,0,0,-1,1084,883,0,0
-133,141,0,0,0,0,0,0,0,0,0,-1,1091,883,0,0
-126,141,0,0,0,0,0,0,0,0,0,-1,1098,883,0,0
-119,141,0,0,0,0,0,0,0,0,0,-1,1105,883,0,0
-112,141,0,0,0,0,0,0,0,0,0,-1,1112,883,0,0
-105,141,0,0,0,0,0,0,0,0,0,-1,1119,883,0,0
-98,141,0,0,0,0,0,0,0,0,0,-1,1126,883,0,0
-91,141,0,0,0,0,0,0,0,0,0,-1,1133,883,0,0
-84,141,0,0,0,0,0,0,0,0,0,-1,1140,883,0,0
-77,141,0,0,0,0,0,0,0,0,0,-1,1147,883,0,0
-70,141,0,0,0,0,0,0,0,0,0,-1,1154,883,0,0
-63,141,0,0,0,0,0,0,0,0,0,-1,1161,883,0,0
-56,141,0,0,0,0,0,0,0,0,0,-1,1168,883,0,0
-49,141,0,0,0,0,0,0,0,0,0,-1,1175,883,0,0
-42,141,0,0,0,0,0,0,0,0,0,-1,1182,883,0,0
-35,141,0,0,0,0,0,0,0,0,0,-1,1189,883,0,0
-28,141,0,0,0,0,0,0,0,0,0,-1,1196,883,0,0
-21,141,0,0,0,0,0,0,0,0,0,-1,1203,883,0,0
-14,141,0,0,0,0,0,0,0,0,0,-1,1210,883,0,0
-7,141,0,0,0,0,0,0,0,0,0,-1,1217,883,0,0
0,141,0,0,0,0,0,0,0,0,0,-1,1224,883,0,0
7,141,0,0,0,0,0,0,0,0,0,-1,1231,883,0,0
14,141,0,0,0,0,0,0,0,0,0,-1,1238,883,0,0
21,141,0,0,0,0,0,0,0,0,0,-1,1245,883,0,0
28,141,0,0,0,0,0,0,0,0,0,-1,1252,883,0,0
35,141,0,0,0,0,0,0,0,0,0,-1,1259,883,0,0
42,141,0,0,0,0,0,0,0,0,0,-1,1266,883,0,0
49,141,0,0,0,0,0,0,0,0,0,-1,1273,883,0,0
56,141,0,0,0,0,0,0,0,0,0,-1,1280,883,0,0
63,141,0,0,0,0,0,0,0,0,0,-1,1287,883,0,0
70,141,0,0,0,0,0,0,0,0,0,-1,1294,883,0,0
77,141,0,0,0,0,0,0,0,0,0,-1,1301,883,0,0
84,141,0,0,0,0,0,0,0,0,0,-1,1308,883,0,0
91,141,0,0,0,0,0,0,0,0,0,-1,1315,883,0,0
98,141,0,0,0,0,0,0,0,0,0,-1,1322,883,0,0
105,141,0,0,0,0,0,0,0,0,0,-1,1329,883,0,0
112,141,0,0,0,0,0,0,0,0,0,-1,1336,883,0,0
119,141,0,0,0,0,0,0,0,0,0,-1,1343,883,0,0
126,141,0,0,0,0,0,0,0,0,0,-1,1350,883,0,0
133,141,0,0,0,0,0,0,0,0,0,-1,1357,883,0,0
140,141,0,0,0,0,0,0,0,0,0,-1,1364,883,0,0
147,141,0,0,0,0,0,0,0,0,0,-1,1371,883,0,0
154,141,0,0,0,0,0,0,0,0,0,-1,1378,883,0,0
161,141,0,0,0,0,0,0,0,0,0,-1,1385,883,0,0
168,141,0,0,0,0,0,0,0,0,0,-1,1392,883,0,0
175,141,0,0,0,0,0,0,0,0,0,-1,1399,883,0,0
182,141,0,0,0,0,0,0,0,0,0,-1,1406,883,0,0
189,141,0,0,0,0,0,0,0,0,0,-1,1413,883,0,0
196,141,0,0,0,0,0,0,0,0,0,-1,1420,883,0,0
203,141,0,0,0,0,0,0,0,0,0,-1,1427,883,0,0
210,141,0,0,0,0,0,0,0,0,0,-1,1434,883,0,0
217,141,0,0,0,0,0,0,0,0,0,-1,1441,883,0,0
224,141,0,0,0,0,0,0,0,0,0,-1,1448,883,0,0
231,141,0,0,0,0,0,0,0,0,0,-1,1455,883,0,0
238,141,0,0,0,0,0,0,0,0,0,-1,1462,883,0,0
245,141,0,0,0,0,0,0,0,0,0,-1,1469,883,0,0
252,141,0,0,0,0,0,0,0,0,0,-1,1476,883,0,0
259,141,0,0,0,0,0,0,0,0,0,-1,1483,883,0,0
266,141,0,0,0,0,0,0,0,0,0,-1,1490,883,0,0
273,141,0,0,0,0,0,0,0,0,0,-1,1497,883,0,0
280,141,0,0,0,0,0,0,0,0,0,-1,1504,883,0,0
287,141,0,0,0,0,0,0,0,0,0,-1,1511,883,0,0
294,141,0,0,0,0,0,0,0,0,0,-1,1518,883,0,0
301,141,0,0,0,0,0,0,0,0,0,-1,1525,883,0,0
308,141,0,0,0,0,0,0,0,0,0,-1,1532,883,0,0
315,141,0,0,0,0,0,0,0,0,0,-1,1539,883,0,0
322,141,0,0,0,0,0,0,0,0,0,-1,1546,883,0,0
329,141,0,0,0,0,0,0,0,0,0,-1,1553,883,0,0
336,141,0,0,0,0,0,0,0,0,0,-1,1560,883,0,0
343,141,0,0,0,0,0,0,0,0,0,-1,1567,883,0,0
350,141,0,0,0,0,0,0,0,0,0,-1,1574,883,0,0
357,141,0,0,0,0,0,0,0,0,0,-1,1581,883,0,0
364,141,0,0,0,0,0,0,0,0,0,-1,1588,883,0,0
371,141,0,0,0,0,0,0,0,0,0,-1,1595,883,0,0
378,141,0,0,0,0,0,0,0,0,0,-1,1602,883,0,0
385,141,0,0,0,0,0,0,0,0,0,-1,1609,883,0,0
392,141,0,0,0,0,0,0,0,0,0,-1,1616,883,0,0
399,141,0,0,0,0,0,0,0,0,0,-1,1623,883,0,0
406,141,0,0,0,0,0,0,0,0,0,-1,1630,883,0,0
413,141,0,0,0,0,0,0,0,0,0,-1,1637,883,0,0
420,141,0,0,0,0,0,0,0,0,0,-1,1644,883,0,0
427,141,0,0,0,0,0,0,0,0,0,-1,1651,883,0,0
434,141,0,0,0,0,0,0,0,0,0,-1,1658,883,0,0
441,141,0,0,0,0,0,0,0,0,0,-1,1665,883,0,0
448,141,0,0,0,0,0,0,0,0,0,-1,1672,883,0,0
455,141,0,0,0,0,0,0,0,0,0,-1,1679,883,0,0
462,141,0,0,0,0,0,0,0,0,0,-1,1686,883,0,0
469,141,0,0,0,0,0,0,0,0,0,-1,1693,883,0,0
476,141,0,0,0,0,0,0,0,0,0,-1,1700,883,0,0
483,141,0,0,0,0,0,0,0,0,0,-1,1707,883,0,0
490,141,0,0,0,0,0,0,0,0,0,-1,1714,883,0,0
497,141,0,0,0,0,0,0,0,0,0,-1,1721,883,0,0
504,141,0,0,0,0,0,0,0,0,0,-1,1728,883,0,0
511,141,0,0,0,0,0,0,0,0,0,-1,1735,883,0,0
518,141,0,0,0,0,0,0,0,0,0,-1,1742,883,0,0
525,141,0,0,0,0,0,0,0,0,0,-1,1749,883,0,0
532,141,0,0,0,0,0,0,0,0,0,-1,1756,883,0,0
539,141,0,0,0,0,0,0,0,0,0,-1,1763,883,0,0
546,141,0,0,0,0,0,0,0,0,0,-1,1770,883,0,0
553,141,0,0,0,0,0,0,0,0,0,-1,1777,883,0,0
560,141,0,0,0,0,0,0,0,0,0,-1,1784,883,0,0
567,141,0,0,0,0,0,0,0,0,0,-1,1791,883,0,0
574,141,0,0,0,0,0,0,0,0,0,-1,1798,883,0,0
581,141,0,0,0,0,0,0,0,0,0,-1,1805,883,0,0
588,141,0,0,0,0,0,0,0,0,0,-1,1812,883,0,0
595,141,0,0,0,0,0,0,0,0,0,-1,1819,883,0,0
602,141,0,0,0,0,0,0,0,0,0,-1,1826,883,0,0
609,141,0,0,0,0,0,0,0,0,0,-1,1833,883,0,0
616,141,0,0,0,0,0,0,0,0,0,-1,1840,883,0,0
623,141,23.9595,2.84814,0.00664651,0.00696875,-0.00205977,0.0088737,0.00474157,-0.824429,0.00512726,0.0469185,1847,883,23.9594,-2.84815
630,141,24.1045,2.64667,0.00484603,0.00584791,-0.00149165,0.00692048,0.00377345,-0.947395,0.004001,0.0445004,1854,883,24.1045,-2.64665
637,141,24.2565,2.55182,0.00330383,0.00487573,-0.0010909,0.00543432,0.00274525,-1.09756,0.00313756,0.0391944,1861,883,24.2565,-2.5518
644,141,24.2948,2.67474,0.00152288,0.00391979,-0.000821127,0.00417411,0.00126857,-1.27045,0.00247093,0.0367589,1868,883,24.2948,-2.67473
651,141,24.3657,2.90173,-0.000470877,0.00317923,-0.000668309,0.00329774,-0.000589392,-1.39529,0.00241901,0.0381676,1875,883,24.3657,-2.90174
658,141,24.3176,2.93976,-0.0023152,0.00251324,-0.000649845,0.00259917,-0.00240113,-1.43933,0.00288768,0.0382605,1882,883,24.3177,-2.93974
665,141,24.2151,2.89294,-0.00373963,0.00197637,-0.000628639,0.00204469,-0.00380795,-1.46254,0.00342976,0.0283202,1889,883,24.215,-2.89296
672,141,24.2108,2.86761,-0.00480882,0.00159138,-0.000620684,0.00165101,-0.00486846,-1.47501,0.00391383,0.020925,1896,883,24.2108,-2.8676
679,141,24.1526,2.87115,-0.00555879,0.00121817,-0.000617747,0.00127402,-0.00561464,-1.48063,0.00423218,0.0265204,1903,883,24.1525,-2.87115
686,141,24.1035,2.88708,0,0,0,0,0,0,0,-1,1910,883,24.1035,-2.8871
693,141,20.8236,2.7796,0,0,0,0,0,0,0,-1,1917,883,20.8237,-2.77958
700,141,21.0338,3.02893,-0.00647626,0.000487476,-0.000609087,0.000540348,-0.00652913,-1.48421,0.00454359,0.0187196,1924,883,21.0338,-3.02895
707,141,21.0553,3.24164,-0.00586713,0.000458497,-0.00057237,0.00050987,-0.00591851,-1.48128,0.00412614,0.0165131,1931,883,21.0554,-3.24165
714,141,20.9742,3.4173,-0.00454977,0.000646921,-0.000462739,0.000687803,-0.00459066,-1.48268,0.00331359,0.0166157,1938,883,20.9742,-3.41731
721,141,21.0023,3.64246,-0.00225111,0.00108229,0.000137943,0.00108799,-0.00225681,1.52951,0.00197003,0.0128545,1945,883,21.0023,-3.64245
728,141,21.006,3.81641,0.00097705,0.00265203,0.000939746,0.00307332,0.000555767,1.14936,0.00189104,0.0151667,1952,883,21.0059,-3.81643
735,141,20.9885,4.0741,0.0058446,0.00571096,0.00176317,0.00754221,0.00401334,0.766459,0.00435749,0.0159788,1959,883,20.9885,-4.07408
742,141,20.9745,4.30267,0.0120405,0.00859695,0.00303671,0.0138096,0.00682787,0.5275,0.00797315,0.0167685,1966,883,20.9745,-4.30268
749,141,20.9823,4.49133,0.0192039,0.0127686,0.00446466,0.0214895,0.010483,0.47316,0.0124082,0.0135248,1973,883,20.9823,-4.49133
756,141,20.9711,4.76385,0.0276675,0.0186988,0.00616179,0.030804,0.0155623,0.470838,0.017785,0.020284,1980,883,20.9711,-4.76388
763,141,21.0391,5.00519,0.038004,0.0263438,0.0080405,0.0421057,0.0222422,0.471714,0.0243227,0.0425436,1987,883,21.0391,-5.0052
770,141,21.5883,5.31775,0.0508316,0.0358856,0.0100294,0.055866,0.0308512,0.465217,0.0323128,0.0426772,1994,883,21.5882,-5.31777
777,141,22.4303,5.91211,0.0664577,0.047409,0.0119144,0.0721868,0.0416799,0.44821,0.0418431,0.0451262,2001,883,22.4303,-5.91212
784,141,23.4974,6.20142,0.0847431,0.0606801,0.0133039,0.090649,0.0547742,0.417788,0.052714,0.0457372,2008,883,23.4974,-6.2014
791,141,24.5734,6.49884,0.105316,0.075245,0.0136836,0.110611,0.0699506,0.369177,0.0646032,0.046753,2015,883,24.5734,-6.49885
798,141,0,0,0,0,0,0,0,0,0,-1,2022,883,0,0
805,141,0,0,0,0,0,0,0,0,0,-1,2029,883,0,0
812,141,0,0,0,0,0,0,0,0,0,-1,2036,883,0,0
-700,134,0,0,0,0,0,0,0,0,0,-1,524,890,0,0
-693,134,0,0,0,0,0,0,0,0,0,-1,531,890,0,0
-686,134,0,0,0,0,0,0,0,0,0,-1,538,890,0,0
-679,134,0,0,0,0,0,0,0,0,0,-1,545,890,0,0
-672,134,-15.4061,2.28925,0,0,0,0,0,0,0,-1,552,890,-15.4061,-2.28923
-665,134,-15.467,2.39056,0.037849,0.0205715,0.0185332,0.0496579,0.00876253,0.567308,0.0306055,0.0463699,559,890,-15.467,-2.39054
-658,134,-15.5293,2.4762,0.0288815,0.0182419,0.0144532,0.0389628,0.00816059,0.609056,0.0237275,0.0431913,566,890,-15.5293,-2.47618
-651,134,-15.6252,2.51691,0.021439,0.0158262,0.0113001,0.030276,0.00698922,0.663686,0.0183046,0.0437229,573,890,-15.6252,-2.51689
-644,134,-15.8213,2.58704,0,0,0,0,0,0,0,-1,580,890,-15.8213,-2.58702
-637,134,-14.5599,2.2229,0,0,0,0,0,0,0,-1,587,890,-14.5599,-2.22292
-630,134,-14.4895,2.22589,0.00643129,0.00889457,0.0052518,0.0130572,0.00226864,0.900576,0.00805579,0.0417218,594,890,-14.4895,-2.22588
-623,134,-14.4223,2.19934,0.00347475,0.00694259,0.00402221,0.00958869,0.000828645,0.988906,0.00613493,0.0206154,601,890,-14.4223,-2.19934
-616,134,-14.5121,2.02014,0.000409173,0.00479357,0.00270766,0.00608522,-0.000882474,1.12569,0.0043807,0.0111718,608,890,-14.5122,-2.02013
-609,134,-14.5449,1.83612,-0.00172004,0.00313836,0.00193546,0.00381512,-0.00239681,1.23442,0.00361749,0.0109876,615,890,-14.5449,-1.83612
-602,134,-14.548,1.62585,-0.00333106,0.00149469,0.00182506,0.00210717,-0.00394355,1.24701,0.00354661,0.0116284,622,890,-14.548,-1.62583
-595,134,-14.5395,1.45294,-0.00431103,0.000413664,0.00198946,0.00113978,-0.00503715,1.22084,0.00379551,0.0126892,629,890,-14.5395,-1.45297
-588,134,-14.7294,1.32861,-0.00499029,-0.000637041,0.00222331,0.000297733,-0.00592506,1.17279,0.00405293,0.02248,636,890,-14.7294,-1.32859
-581,134,-14.6815,1.06995,-0.00548797,-0.0012906,0.00242197,-0.000184539,-0.00659403,1.1424,0.00433582,0.0281244,643,890,-14.6815,-1.06997
-574,134,-14.6421,0.867432,-0.00566263,-0.00193366,0.00244997,-0.000719404,-0.00687688,1.11066,0.0043646,0.0285071,650,890,-14.6421,-0.867461
-567,134,-14.0538,0.520752,0,0,0,0,0,0,0,-1,657,890,-14.0538,-0.520738
-560,134,-15.0313,1.03333,0,0,0,0,0,0,0,-1,664,890,-15.0313,-1.03334
-553,134,-16.7817,0.931519,0,0,0,0,0,0,0,-1,671,890,-16.7817,-0.931494
-546,134,-16.8109,0.909668,-0.00466494,-0.00344428,0.002987,-0.00100589,-0.00710333,0.886175,0.00443842,0.02803,678,890,-16.8109,-0.909693
-539,134,-16.8715,0.876892,-0.00382377,-0.00365118,0.0029907,-0.000745532,-0.00672942,0.799821,0.00425957,0.0188103,685,890,-16.8715,-0.876921
-532,134,-16.8967,0.919983,-0.00265335,-0.0038267,0.00294767,-0.000234539,-0.00624551,0.687167,0.00408774,0.0229074,692,890,-16.8967,-0.920008
-525,134,-16.8591,1.06165,-0.00118126,-0.00399972,0.00289522,0.000629483,-0.00581046,0.558905,0.00409961,0.0361097,699,890,-16.8592,-1.06164
-518,134,-16.8279,1.20172,0.000735198,-0.00419779,0.00295528,0.00211803,-0.00558062,0.437654,0.00459223,0.0415542,706,890,-16.8279,-1.20173
-511,134,-16.7895,1.14832,0.00207166,-0.00439442,0.00330142,0.00345944,-0.0057822,0.397931,0.00539154,0.0422691,713,890,-16.7895,-1.14832
-504,134,0,0,0,0,0,0,0,0,0,-1,720,890,0,0
-497,134,0,0,0,0,0,0,0,0,0,-1,727,890,0,0
-490,134,0,0,0,0,0,0,0,0,0,-1,734,890,0,0
-483,134,0,0,0,0,0,0,0,0,0,-1,741,890,0,0
-476,134,0,0,0,0,0,0,0,0,0,-1,748,890,0,0
-469,134,0,0,0,0,0,0,0,0,0,-1,755,890,0,0
-462,134,0,0,0,0,0,0,0,0,0,-1,762,890,0,0
-455,134,0,0,0,0,0,0,0,0,0,-1,769,890,0,0
-448,134,0,0,0,0,0,0,0,0,0,-1,776,890,0,0
-441,134,0,0,0,0,0,0,0,0,0,-1,783,890,0,0
-434,134,0,0,0,0,0,0,0,0,0,-1,790,890,0,0
-427,134,0,0,0,0,0,0,0,0,0,-1,797,890,0,0
-420,134,0,0,0,0,0,0,0,0,0,-1,804,890,0,0
-413,134,0,0,0,0,0,0,0,0,0,-1,811,890,0,0
-406,134,0,0,0,0,0,0,0,0,0,-1,818,890,0,0
-399,134,0,0,0,0,0,0,0,0,0,-1,825,890,0,0
-392,134,0,0,0,0,0,0,0,0,0,-1,832,890,0,0
-385,134,0,0,0,0,0,0,0,0,0,-1,839,890,0,0
-378,134,0,0,0,0,0,0,0,0,0,-1,846,890,0,0
-371,134,0,0,0,0,0,0,0,0,0,-1,853,890,0,0
-364,134,0,0,0,0,0,0,0,0,0,-1,860,890,0,0
-357,134,0,0,0,0,0,0,0,0,0,-1,867,890,0,0
-350,134,0,0,0,0,0,0,0,0,0,-1,874,890,0,0
-343,134,0,0,0,0,0,0,0,0,0,-1,881,890,0,0
-336,134,0,0,0,0,0,0,0,0,0,-1,888,890,0,0
-329,134,0,0,0,0,0,0,0,0,0,-1,895,890,0,0
-322,134,0,0,0,0,0,0,0,0,0,-1,902,890,0,0
-315,134,0,0,0,0,0,0,0,0,0,-1,909,890,0,0
-308,134,0,0,0,0,0,0,0,0,0,-1,916,890,0,0
-301,134,0,0,0,0,0,0,0,0,0,-1,923,890,0,0
-294,134,0,0,0,0,0,0,0,0,0,-1,930,890,0,0
-287,134,0,0,0,0,0,0,0,0,0,-1,937,890,0,0
-280,134,0,0,0,0,0,0,0,0,0,-1,944,890,0,0
-273,134,0,0,0,0,0,0,0,0,0,-1,951,890,0,0
-266,134,0,0,0,0,0,0,0,0,0,-1,958,890,0,0
-259,134,0,0,0,0,0,0,0,0,0,-1,965,890,0,0
-252,134,0,0,0,0,0,0,0,0,0,-1,972,890,0,0
-245,134,0,0,0,0,0,0,0,0,0,-1,979,890,0,0
-238,134,0,0,0,0,0,0,0,0,0,-1,986,890,0,0
-231,134,0,0,0,0,0,0,0,0,0,-1,993,890,0,0
-224,134,0,0,0,0,0,0,0,0,0,-1,1000,890,0,0
-217,134,0,0,0,0,0,0,0,0,0,-1,1007,890,0,0
-210,134,0,0,0,0,0,0,0,0,0,-1,1014,890,0,0
-203,134,0,0,0,0,0,0,0,0,0,-1,1021,890,0,0
-196,134,0,0,0,0,0,0,0,0,0,-1,1028,890,0,0
-189,134,0,0,0,0,0,0,0,0,0,-1,1035,890,0,0
-182,134,0,0,0,0,0,0,0,0,0,-1,1042,890,0,0
-175,134,0,0,0,0,0,0,0,0,0,-1,1049,890,0,0
-168,134,0,0,0,0,0,0,0,0,0,-1,1056,890,0,0
-161,134,0,0,0,0,0,0,0,0,0,-1,1063,890,0,0
-154,134,0,0,0,0,0,0,0,0,0,-1,1070,890,0,0
-147,134,0,0,0,0,0,0,0,0,0,-1,1077,890,0,0
-140,134,0,0,0,0,0,0,0,0,0,-1,1084,890,0,0
-133,134,0,0,0,0,0,0,0,0,0,-1,1091,890,0,0
-126,134,0,0,0,0,0,0,0,0,0,-1,1098,890,0,0
-119,134,0,0,0,0,0,0,0,0,0,-1,1105,890,0,0
-112,134,0,0,0,0,0,0,0,0,0,-1,1112,890,0,0
-105,134,0,0,0,0,0,0,0,0,0,-1,1119,890,0,0
-98,134,0,0,0,0,0,0,0,0,0,-1,1126,890,0,0
-91,134,0,0,0,0,0,0,0,0,0,-1,1133,890,0,0
-84,134,0,0,0,0,0,0,0,0,0,-1,1140,890,0,0
-77,134,0,0,0,0,0,0,0,0,0,-1,1147,890,0,0
-70,134,0,0,0,0,0,0,0,0,0,-1,1154,890,0,0
-63,134,0,0,0,0,0,0,0,0,0,-1,1161,890,0,0
-56,134,0,0,0,0,0,0,0,0,0,-1,1168,890,0,0
-49,134,0,0,0,0,0,0,0,0,0,-1,1175,890,0,0
-42,134,0,0,0,0,0,0,0,0,0,-1,1182,890,0,0
-35,134,0,0,0,0,0,0,0,0,0,-1,1189,890,0,0
-28,134,0,0,0,0,0,0,0,0,0,-1,1196,890,0,0
-21,134,0,0,0,0,0,0,0,0,0,-1,1203,890,0,0
-14,134,0,0,0,0,0,0,0,0,0,-1,1210,890,0,0
-7,134,0,0,0,0,0,0,0,0,0,-1,1217,890,0,0
0,134,0,0,0,0,0,0,0,0,0,-1,1224,890,0,0
7,134,0,0,0,0,0,0,0,0,0,-1,1231,890,0,0
14,134,0,0,0,0,0,0,0,0,0,-1,1238,890,0,0
21,134,0,0,0,0,0,0,0,0,0,-1,1245,890,0,0
28,134,0,0,0,0,0,0,0,0,0,-1,1252,890,0,0
35,134,0,0,0,0,0,0,0,0,0,-1,1259,890,0,0
42,134,0,0,0,0,0,0,0,0,0,-1,1266,890,0,0
49,134,0,0,0,0,0,0,0,0,0,-1,1273,890,0,0
56,134,0,0,0,0,0,0,0,0,0,-1,1280,890,0,0
63,134,0,0,0,0,0,0,0,0,0,-1,1287,890,0,0
70,134,0,0,0,0,0,0,0,0,0,-1,1294,890,0,0
77,134,0,0,0,0,0,0,0,0,0,-1,1301,890,0,0
84,134,0,0,0,0,0,0,0,0,0,-1,1308,890,0,0
91,134,0,0,0,0,0,0,0,0,0,-1,1315,890,0,0
98,134,0,0,0,0,0,0,0,0,0,-1,1322,890,0,0
105,134,0,0,0,0,0,0,0,0,0,-1,1329,890,0,0
112,134,0,0,0,0,0,0,0,0,0,-1,1336,890,0,0
119,134,0,0,0,0,0,0,0,0,0,-1,1343,890,0,0
126,134,0,0,0,0,0,0,0,0,0,-1,1350,890,0,0
133,134,0,0,0,0,0,0,0,0,0,-1,1357,890,0,0
140,134,0,0,0,0,0,0,0,0,0,-1,1364,890,0,0
147,134,0,0,0,0,0,0,0,0,0,-1,1371,890,0,0
154,134,0,0,0,0,0,0,0,0,0,-1,1378,890,0,0
161,134,0,0,0,0,0,0,0,0,0,-1,1385,890,0,0
168,134,0,0,0,0,0,0,0,0,0,-1,1392,890,0,0
175,134,0,0,0,0,0,0,0,0,0,-1,1399,890,0,0
182,134,0,0,0,0,0,0,0,0,0,-1,1406,890,0,0
189,134,0,0,0,0,0,0,0,0,0,-1,1413,890,0,0
196,134,0,0,0,0,0,0,0,0,0,-1,1420,890,0,0
203,134,0,0,0,0,0,0,0,0,0,-1,1427,890,0,0
210,134,0,0,0,0,0,0,0,0,0,-1,1434,890,0,0
217,134,0,0,0,0,0,0,0,0,0,-1,1441,890,0,0
224,134,0,0,0,0,0,0,0,0,0,-1,1448,890,0,0
231,134,0,0,0,0,0,0,0,0,0,-1,1455,890,0,0
238,134,0,0,0,0,0,0,0,0,0,-1,1462,890,0,0
245,134,0,0,0,0,0,0,0,0,0,-1,1469,890,0,0
252,134,0,0,0,0,0,0,0,0,0,-1,1476,890,0,0
259,134,0,0,0,0,0,0,0,0,0,-1,1483,890,0,0
266,134,0,0,0,0,0,0,0,0,0,-1,1490,890,0,0
273,134,0,0,0,0,0,0,0,0,0,-1,1497,890,0,0
280,134,0,0,0,0,0,0,0,0,0,-1,1504,890,0,0
287,134,0,0,0,0,0,0,0,0,0,-1,1511,890,0,0
294,134,0,0,0,0,0,0,0,0,0,-1,1518,890,0,0
301,134,0,0,0,0,0,0,0,0,0,-1,1525,890,0,0
308,134,0,0,0,0,0,0,0,0,0,-1,1532,890,0,0
315,134,0,0,0,0,0,0,0,0,0,-1,1539,890,0,0
322,134,0,0,0,0,0,0,0,0,0,-1,1546,890,0,0
329,134,0,0,0,0,0,0,0,0,0,-1,1553,890,0,0
336,134,0,0,0,0,0,0,0,0,0,-1,1560,890,0,0
343,134,0,0,0,0,0,0,0,0,0,-1,1567,890,0,0
350,134,0,0,0,0,0,0,0,0,0,-1,1574,890,0,0
357,134,0,0,0,0,0,0,0,0,0,-1,1581,890,0,0
364,134,0,0,0,0,0,0,0,0,0,-1,1588,890,0,0
371,134,0,0,0,0,0,0,0,0,0,-1,1595,890,0,0
378,134,0,0,0,0,0,0,0,0,0,-1,1602,890,0,0
385,134,0,0,0,0,0,0,0,0,0,-1,1609,890,0,0
392,134,0,0,0,0,0,0,0,0,0,-1,1616,890,0,0
399,134,0,0,0,0,0,0,0,0,0,-1,1623,890,0,0
406,134,0,0,0,0,0,0,0,0,0,-1,1630,890,0,0
413,134,0,0,0,0,0,0,0,0,0,-1,1637,890,0,0
420,134,0,0,0,0,0,0,0,0,0,-1,1644,890,0,0
427,134,0,0,0,0,0,0,0,0,0,-1,1651,890,0,0
434,134,0,0,0,0,0,0,0,0,0,-1,1658,890,0,0
441,134,0,0,0,0,0,0,0,0,0,-1,1665,890,0,0
448,134,0,0,0,0,0,0,0,0,0,-1,1672,890,0,0
455,134,0,0,0,0,0,0,0,0,0,-1,1679,890,0,0
462,134,0,0,0,0,0,0,0,0,0,-1,1686,890,0,0
469,134,0,0,0,0,0,0,0,0,0,-1,1693,890,0,0
476,134,0,0,0,0,0,0,0,0,0,-1,1700,890,0,0
483,134,0,0,0,0,0,0,0,0,0,-1,1707,890,0,0
490,134,0,0,0,0,0,0,0,0,0,-1,1714,890,0,0
497,134,0,0,0,0,0,0,0,0,0,-1,1721,890,0,0
504,134,0,0,0,0,0,0,0,0,0,-1,1728,890,0,0
511,134,0,0,0,0,0,0,0,0,0,-1,1735,890,0,0
518,134,0,0,0,0,0,0,0,0,0,-1,1742,890,0,0
525,134,0,0,0,0,0,0,0,0,0,-1,1749,890,0,0
532,134,0,0,0,0,0,0,0,0,0,-1,1756,890,0,0
539,134,0,0,0,0,0,0,0,0,0,-1,1763,890,0,0
546,134,0,0,0,0,0,0,0,0,0,-1,1770,890,0,0
553,134,0,0,0,0,0,0,0,0,0,-1,1777,890,0,0
560,134,0,0,0,0,0,0,0,0,0,-1,1784,890,0,0
567,134,0,0,0,0,0,0,0,0,0,-1,1791,890,0,0
574,134,0,0,0,0,0,0,0,0,0,-1,1798,890,0,0
581,134,0,0,0,0,0,0,0,0,0,-1,1805,890,0,0
588,134,0,0,0,0,0,0,0,0,0,-1,1812,890,0,0
595,134,0,0,0,0,0,0,0,0,0,-1,1819,890,0,0
602,134,0,0,0,0,0,0,0,0,0,-1,1826,890,0,0
609,134,0,0,0,0,0,0,0,0,0,-1,1833,890,0,0
616,134,0,0,0,0,0,0,0,0,0,-1,1840,890,0,0
623,134,24.0735,2.70233,0.00820658,0.00865129,-0.00199513,0.0104364,0.00642146,-0.840893,0.00607863,0.0489389,1847,890,24.0735,-2.70236
630,134,24.1923,2.80811,0.0058617,0.00710523,-0.00128401,0.0079101,0.00505684,-1.01088,0.00462559,0.0480465,1854,890,24.1923,-2.80812
637,134,24.3591,3.23187,0,0,0,0,0,0,0,-1,1861,890,24.3592,-3.23188
644,134,24.2711,3.0426,0,0,0,0,0,0,0,-1,1868,890,24.2711,-3.04259
651,134,24.3182,2.99268,-0.000335398,0.00364452,-0.000253428,0.0036606,-0.000351471,-1.50746,0.00256559,0.03959,1875,890,24.3182,-2.99265
658,134,24.3088,3.03766,-0.00267733,0.00287559,-0.000228932,0.00288501,-0.00268675,-1.52966,0.00321753,0.0384378,1882,890,24.3088,-3.03768
665,134,24.2825,2.88007,-0.00449545,0.00226539,-0.000227421,0.00227303,-0.00450309,-1.53721,0.00398219,0.0323769,1889,890,24.2824,-2.88009
672,134,24.2642,2.79028,-0.0058084,0.00182496,-0.000247396,0.00183297,-0.00581641,-1.53843,0.00461166,0.0216748,1896,890,24.2642,-2.79029
679,134,24.2279,2.79871,-0.00672241,0.00140782,-0.000280837,0.00141751,-0.0067321,-1.53631,0.00502763,0.0170988,1903,890,24.2278,-2.79873
686,134,23.6355,2.99268,0,0,0,0,0,0,0,-1,1910,890,23.6356,-2.99265
693,134,22.1917,2.96503,-0.00784251,0.000769657,-0.000361636,0.000784815,-0.00785767,-1.5289,0.00551868,0.0454492,1917,890,22.1916,-2.96503
700,134,21.1371,2.95544,-0.00781837,0.000653421,-0.000366503,0.000669247,-0.0078342,-1.52764,0.00545957,0.0234869,1924,890,21.1371,-2.95546
707,134,21.016,3.0705,-0.00723907,0.000621406,-0.00044283,0.000646274,-0.00726394,-1.5147,0.0050718,0.0194097,1931,890,21.016,-3.07051
714,134,21.0674,3.36847,-0.00594995,0.000749422,-0.000444394,0.000778772,-0.0059793,-1.50485,0.00426953,0.0182271,1938,890,21.0674,-3.36847
721,134,21.209,3.65265,-0.00373265,0.00113771,9.03096e-05,0.00113938,-0.00373433,1.55226,0.00294379,0.0163367,1945,890,21.209,-3.65267
728,134,21.2389,3.83826,-0.000668193,0.00258777,0.00081182,0.00277896,-0.00085938,1.33951,0.00219589,0.016424,1952,890,21.2389,-3.83823
735,134,21.2266,4.06335,0.00395504,0.00530448,0.00154802,0.00631843,0.00294109,0.990915,0.00365085,0.0230922,1959,890,21.2266,-4.06333
742,134,21.1844,4.28711,0.00987463,0.00789875,0.00276295,0.011821,0.00595242,0.613697,0.00682489,0.0152443,1966,890,21.1845,-4.28708
749,134,21.1901,4.47864,0.0166886,0.0117031,0.00416977,0.0190539,0.0093378,0.515991,0.0110015,0.0122503,1973,890,21.19,-4.47862
756,134,21.1749,4.67999,0.0244619,0.0174845,0.00579132,0.0277342,0.0142123,0.514306,0.016014,0.0171325,1980,890,21.175,-4.68001
763,134,21.1763,4.86804,0.0337873,0.0245939,0.00762341,0.0380926,0.0202886,0.514098,0.0220084,0.0369682,1987,890,21.1763,-4.86807
770,134,21.1833,5.04065,0,0,0,0,0,0,0,-1,1994,890,21.1834,-5.04064
777,134,22.1663,6.25128,0,0,0,0,0,0,0,-1,2001,890,22.1663,-6.25127
784,134,23.2316,6.54382,0,0,0,0,0,0,0,-1,2008,890,23.2316,-6.54384
791,134,24.4758,7.01007,0,0,0,0,0,0,0,-1,2015,890,24.4759,-7.01005
798,134,0,0,0,0,0,0,0,0,0,-1,2022,890,0,0
805,134,0,0,0,0,0,0,0,0,0,-1,2029,890,0,0
812,134,0,0,0,0,0,0,0,0,0,-1,2036,890,0,0
-700,127,0,0,0,0,0,0,0,0,0,-1,524,897,0,0
-693,127,0,0,0,0,0,0,0,0,0,-1,531,897,0,0
-686,127,0,0,0,0,0,0,0,0,0,-1,538,897,0,0
-679,127,-18.5373,3.19537,0,0,0,0,0,0,0,-1,545,897,-18.5373,-3.19535
-672,127,-16.3561,0.95752,0,0,0,0,0,0,0,-1,552,897,-16.3561,-0.9575
-665,127,-15.5872,1.18768,0,0,0,0,0,0,0,-1,559,897,-15.5872,-1.18767
-658,127,-15.4437,2.31891,0.0331408,0.0140206,0.0218613,0.047441,-0.000279611,0.579275,0.0317209,0.0476908,566,897,-15.4436,-2.31891
-651,127,-15.5412,2.41766,0.0253128,0.0117285,0.0170564,0.0368797,0.000161642,0.595914,0.0245328,0.0457188,573,897,-15.5412,-2.41765
-644,127,-15.0508,2.22882,0,0,0,0,0,0,0,-1,580,897,-15.0508,-2.22882
-637,127,-15.2729,1.6889,0.0132071,0.00755832,0.010078,0.020849,-8.35545e-05,0.648776,0.0139273,0.0463253,587,897,-15.2729,-1.68888
-630,127,-14.7952,2.06006,0.00879831,0.00588847,0.00743451,0.0149189,-0.000232145,0.68877,0.0100242,0.0331512,594,897,-14.7951,-2.06007
-623,127,-14.6995,2.14166,0.00527028,0.00450764,0.00544915,0.0103514,-0.00057351,0.750466,0.00709985,0.0133062,601,897,-14.6995,-2.14164
-616,127,-14.7294,1.99805,0.00156949,0.00275799,0.00358491,0.00579757,-0.00147008,0.867533,0.00443701,0.00957942,608,897,-14.7294,-1.99807
-609,127,-14.7395,1.82074,-0.00109944,0.00154141,0.00236534,0.00292992,-0.00248795,1.03997,0.00313148,0.0133256,615,897,-14.7395,-1.82075
-602,127,-14.7526,1.63104,-0.00313424,0.000375117,0.00198065,0.00126654,-0.00402567,1.14789,0.00319088,0.0148376,622,897,-14.7526,-1.63107
-595,127,-14.7294,1.46393,-0.0044251,-0.000279518,0.00202414,0.000544862,-0.00524948,1.18403,0.00369469,0.0161999,629,897,-14.7294,-1.46392
-588,127,-14.8311,1.30945,-0.00528859,-0.000984014,0.00217075,-7.94246e-05,-0.00619318,1.17596,0.00410257,0.0218705,636,897,-14.8311,-1.30946
-581,127,-14.8914,1.07605,-0.00591636,-0.00136898,0.00229167,-0.000414448,-0.00687089,1.17613,0.00444888,0.0319886,643,897,-14.8913,-1.07603
-574,127,-14.8523,0.915222,-0.00618257,-0.00178877,0.00227404,-0.000823772,-0.00714757,1.16947,0.00451557,0.0275999,650,897,-14.8523,-0.915202
-567,127,-14.4454,0.608032,0,0,0,0,0,0,0,-1,657,897,-14.4454,-0.608048
-560,127,-15.3926,1.09949,0,0,0,0,0,0,0,-1,664,897,-15.3926,-1.0995
-553,127,-16.8619,0.865112,-0.00570079,-0.00256808,0.00272384,-0.000992336,-0.00727653,1.04633,0.00455641,0.0461537,671,897,-16.8619,-0.865128
-546,127,-16.8055,0.911011,-0.0051473,-0.00268697,0.00281483,-0.000845235,-0.00698903,0.991406,0.00440473,0.0241471,678,897,-16.8055,-0.911016
-539,127,-16.8005,0.879456,-0.00421103,-0.00267496,0.00281851,-0.000521712,-0.00636428,0.918417,0.00408008,0.0214155,685,897,-16.8005,-0.879442
-532,127,-16.8101,0.93042,-0.00294634,-0.00255978,0.00277036,2.40325e-05,-0.00553015,0.820225,0.00369481,0.0171538,692,897,-16.8101,-0.930449
-525,127,-16.8771,1.06873,-0.0013698,-0.00234606,0.00268697,0.000873017,-0.00458888,0.695546,0.00338796,0.0316581,699,897,-16.8771,-1.06874
-518,127,-16.7783,1.2467,0.000503474,-0.00202145,0.00268241,0.00220566,-0.00372363,0.565454,0.00346047,0.0378545,706,897,-16.7782,-1.24673
-511,127,-16.6027,1.30414,0.0012476,-0.00149129,0.00292462,0.00310752,-0.00335121,0.566435,0.00372983,0.0408075,713,897,-16.6027,-1.30411
-504,127,0,0,0,0,0,0,0,0,0,-1,720,897,0,0
-497,127,0,0,0,0,0,0,0,0,0,-1,727,897,0,0
-490,127,0,0,0,0,0,0,0,0,0,-1,734,897,0,0
-483,127,0,0,0,0,0,0,0,0,0,-1,741,897,0,0
-476,127,0,0,0,0,0,0,0,0,0,-1,748,897,0,0
-469,127,0,0,0,0,0,0,0,0,0,-1,755,897,0,0
-462,127,0,0,0,0,0,0,0,0,0,-1,762,897,0,0
-455,127,0,0,0,0,0,0,0,0,0,-1,769,897,0,0
-448,127,0,0,0,0,0,0,0,0,0,-1,776,897,0,0
-441,127,0,0,0,0,0,0,0,0,0,-1,783,897,0,0
-434,127,0,0,0,0,0,0,0,0,0,-1,790,897,0,0
-427,127,0,0,0,0,0,0,0,0,0,-1,797,897,0,0
-420,127,0,0,0,0,0,0,0,0,0,-1,804,897,0,0
-413,127,0,0,0,0,0,0,0,0,0,-1,811,897,0,0
-406,127,0,0,0,0,0,0,0,0,0,-1,818,897,0,0
-399,127,0,0,0,0,0,0,0,0,0,-1,825,897,0,0
-392,127,0,0,0,0,0,0,0,0,0,-1,832,897,0,0
-385,127,0,0,0,0,0,0,0,0,0,-1,839,897,0,0
-378,127,0,0,0,0,0,0,0,0,0,-1,846,897,0,0
-371,127,0,0,0,0,0,0,0,0,0,-1,853,897,0,0
-364,127,0,0,0,0,0,0,0,0,0,-1,860,897,0,0
-357,127,0,0,0,0,0,0,0,0,0,-1,867,897,0,0
-350,127,0,0,0,0,0,0,0,0,0,-1,874,897,0,0
-343,127,0,0,0,0,0,0,0,0,0,-1,881,897,0,0
-336,127,0,0,0,0,0,0,0,0,0,-1,888,897,0,0
-329,127,0,0,0,0,0,0,0,0,0,-1,895,897,0,0
-322,127,0,0,0,0,0,0,0,0,0,-1,902,897,0,0
-315,127,0,0,0,0,0,0,0,0,0,-1,909,897,0,0
-308,127,0,0,0,0,0,0,0,0,0,-1,916,897,0,0
-301,127,0,0,0,0,0,0,0,0,0,-1,923,897,0,0
-294,127,0,0,0,0,0,0,0,0,0,-1,930,897,0,0
-287,127,0,0,0,0,0,0,0,0,0,-1,937,897,0,0
-280,127,0,0,0,0,0,0,0,0,0,-1,944,897,0,0
-273,127,0,0,0,0,0,0,0,0,0,-1,951,897,0,0
-266,127,0,0,0,0,0,0,0,0,0,-1,958,897,0,0
-259,127,0,0,0,0,0,0,0,0,0,-1,965,897,0,0
-252,127,0,0,0,0,0,0,0,0,0,-1,972,897,0,0
-245,127,0,0,0,0,0,0,0,0,0,-1,979,897,0,0
-238,127,0,0,0,0,0,0,0,0,0,-1,986,897,0,0
-231,127,0,0,0,0,0,0,0,0,0,-1,993,897,0,0
-224,127,0,0,0,0,0,0,0,0,0,-1,1000,897,0,0
-217,127,0,0,0,0,0,0,0,0,0,-1,1007,897,0,0
-210,127,0,0,0,0,0,0,0,0,0,-1,1014,897,0,0
-203,127,0,0,0,0,0,0,0,0,0,-1,1021,897,0,0
-196,127,0,0,0,0,0,0,0,0,0,-1,1028,897,0,0
-189,127,0,0,0,0,0,0,0,0,0,-1,1035,897,0,0
-182,127,0,0,0,0,0,0,0,0,0,-1,1042,897,0,0
-175,127,0,0,0,0,0,0,0,0,0,-1,1049,897,0,0
-168,127,0,0,0,0,0,0,0,0,0,-1,1056,897,0,0
-161,127,0,0,0,0,0,0,0,0,0,-1,1063,897,0,0
-154,127,0,0,0,0,0,0,0,0,0,-1,1070,897,0,0
-147,127,0,0,0,0,0,0,0,0,0,-1,1077,897,0,0
-140,127,0,0,0,0,0,0,0,0,0,-1,1084,897,0,0
-133,127,0,0,0,0,0,0,0,0,0,-1,1091,897,0,0
-126,127,0,0,0,0,0,0,0,0,0,-1,1098,897,0,0
-119,127,0,0,0,0,0,0,0,0,0,-1,1105,897,0,0
-112,127,0,0,0,0,0,0,0,0,0,-1,1112,897,0,0
-105,127,0,0,0,0,0,0,0,0,0,-1,1119,897,0,0
-98,127,0,0,0,0,0,0,0,0,0,-1,1126,897,0,0
-91,127,0,0,0,0,0,0,0,0,0,-1,1133,897,0,0
-84,127,0,0,0,0,0,0,0,0,0,-1,1140,897,0,0
-77,127,0,0,0,0,0,0,0,0,0,-1,1147,897,0,0
-70,127,0,0,0,0,0,0,0,0,0,-1,1154,897,0,0
-63,127,0,0,0,0,0,0,0,0,0,-1,1161,897,0,0
-56,127,0,0,0,0,0,0,0,0,0,-1,1168,897,0,0
-49,127,0,0,0,0,0,0,0,0,0,-1,1175,897,0,0
-42,127,0,0,0,0,0,0,0,0,0,-1,1182,897,0,0
-35,127,0,0,0,0,0,0,0,0,0,-1,1189,897,0,0
-28,127,0,0,0,0,0,0,0,0,0,-1,1196,897,0,0
-21,127,0,0,0,0,0,0,0,0,0,-1,1203,897,0,0
-14,127,0,0,0,0,0,0,0,0,0,-1,1210,897,0,0
-7,127,0,0,0,0,0,0,0,0,0,-1,1217,897,0,0
0,127,0,0,0,0,0,0,0,0,0,-1,1224,897,0,0
7,127,0,0,0,0,0,0,0,0,0,-1,1231,897,0,0
14,127,0,0,0,0,0,0,0,0,0,-1,1238,897,0,0
21,127,0,0,0,0,0,0,0,0,0,-1,1245,897,0,0
28,127,0,0,0,0,0,0,0,0,0,-1,1252,897,0,0
35,127,0,0,0,0,0,0,0,0,0,-1,1259,897,0,0
42,127,0,0,0,0,0,0,0,0,0,-1,1266,897,0,0
49,127,0,0,0,0,0,0,0,0,0,-1,1273,897,0,0
56,127,0,0,0,0,0,0,0,0,0,-1,1280,897,0,0
63,127,0,0,0,0,0,0,0,0,0,-1,1287,897,0,0
70,127,0,0,0,0,0,0,0,0,0,-1,1294,897,0,0
77,127,0,0,0,0,0,0,0,0,0,-1,1301,897,0,0
84,127,0,0,0,0,0,0,0,0,0,-1,1308,897,0,0
91,127,0,0,0,0,0,0,0,0,0,-1,1315,897,0,0
98,127,0,0,0,0,0,0,0,0,0,-1,1322,897,0,0
105,127,0,0,0,0,0,0,0,0,0,-1,1329,897,0,0
112,127,0,0,0,0,0,0,0,0,0,-1,1336,897,0,0
119,127,0,0,0,0,0,0,0,0,0,-1,1343,897,0,0
126,127,0,0,0,0,0,0,0,0,0,-1,1350,897,0,0
133,127,0,0,0,0,0,0,0,0,0,-1,1357,897,0,0
140,127,0,0,0,0,0,0,0,0,0,-1,1364,897,0,0
147,127,0,0,0,0,0,0,0,0,0,-1,1371,897,0,0
154,127,0,0,0,0,0,0,0,0,0,-1,1378,897,0,0
161,127,0,0,0,0,0,0,0,0,0,-1,1385,897,0,0
168,127,0,0,0,0,0,0,0,0,0,-1,1392,897,0,0
175,127,0,0,0,0,0,0,0,0,0,-1,1399,897,0,0
182,127,0,0,0,0,0,0,0,0,0,-1,1406,897,0,0
189,127,0,0,0,0,0,0,0,0,0,-1,1413,897,0,0
196,127,0,0,0,0,0,0,0,0,0,-1,1420,897,0,0
203,127,0,0,0,0,0,0,0,0,0,-1,1427,897,0,0
210,127,0,0,0,0,0,0,0,0,0,-1,1434,897,0,0
217,127,0,0,0,0,0,0,0,0,0,-1,1441,897,0,0
224,127,0,0,0,0,0,0,0,0,0,-1,1448,897,0,0
231,127,0,0,0,0,0,0,0,0,0,-1,1455,897,0,0
238,127,0,0,0,0,0,0,0,0,0,-1,1462,897,0,0
245,127,0,0,0,0,0,0,0,0,0,-1,1469,897,0,0
252,127,0,0,0,0,0,0,0,0,0,-1,1476,897,0,0
259,127,0,0,0,0,0,0,0,0,0,-1,1483,897,0,0
266,127,0,0,0,0,0,0,0,0,0,-1,1490,897,0,0
273,127,0,0,0,0,0,0,0,0,0,-1,1497,897,0,0
280,127,0,0,0,0,0,0,0,0,0,-1,1504,897,0,0
287,127,0,0,0,0,0,0,0,0,0,-1,1511,897,0,0
294,127,0,0,0,0,0,0,0,0,0,-1,1518,897,0,0
301,127,0,0,0,0,0,0,0,0,0,-1,1525,897,0,0
308,127,0,0,0,0,0,0,0,0,0,-1,1532,897,0,0
315,127,0,0,0,0,0,0,0,0,0,-1,1539,897,0,0
322,127,0,0,0,0,0,0,0,0,0,-1,1546,897,0,0
329,127,0,0,0,0,0,0,0,0,0,-1,1553,897,0,0
336,127,0,0,0,0,0,0,0,0,0,-1,1560,897,0,0
343,127,0,0,0,0,0,0,0,0,0,-1,1567,897,0,0
350,127,0,0,0,0,0,0,0,0,0,-1,1574,897,0,0
357,127,0,0,0,0,0,0,0,0,0,-1,1581,897,0,0
364,127,0,0,0,0,0,0,0,0,0,-1,1588,897,0,0
371,127,0,0,0,0,0,0,0,0,0,-1,1595,897,0,0
378,127,0,0,0,0,0,0,0,0,0,-1,1602,897,0,0
385,127,0,0,0,0,0,0,0,0,0,-1,1609,897,0,0
392,127,0,0,0,0,0,0,0,0,0,-1,1616,897,0,0
399,127,0,0,0,0,0,0,0,0,0,-1,1623,897,0,0
406,127,0,0,0,0,0,0,0,0,0,-1,1630,897,0,0
413,127,0,0,0,0,0,0,0,0,0,-1,1637,897,0,0
420,127,0,0,0,0,0,0,0,0,0,-1,1644,897,0,0
427,127,0,0,0,0,0,0,0,0,0,-1,1651,897,0,0
434,127,0,0,0,0,0,0,0,0,0,-1,1658,897,0,0
441,127,0,0,0,0,0,0,0,0,0,-1,1665,897,0,0
448,127,0,0,0,0,0,0,0,0,0,-1,1672,897,0,0
455,127,0,0,0,0,0,0,0,0,0,-1,1679,897,0,0
462,127,0,0,0,0,0,0,0,0,0,-1,1686,897,0,0
469,127,0,0,0,0,0,0,0,0,0,-1,1693,897,0,0
476,127,0,0,0,0,0,0,0,0,0,-1,1700,897,0,0
483,127,0,0,0,0,0,0,0,0,0,-1,1707,897,0,0
490,127,0,0,0,0,0,0,0,0,0,-1,1714,897,0,0
497,127,0,0,0,0,0,0,0,0,0,-1,1721,897,0,0
504,127,0,0,0,0,0,0,0,0,0,-1,1728,897,0,0
511,127,0,0,0,0,0,0,0,0,0,-1,1735,897,0,0
518,127,0,0,0,0,0,0,0,0,0,-1,1742,897,0,0
525,127,0,0,0,0,0,0,0,0,0,-1,1749,897,0,0
532,127,0,0,0,0,0,0,0,0,0,-1,1756,897,0,0
539,127,0,0,0,0,0,0,0,0,0,-1,1763,897,0,0
546,127,0,0,0,0,0,0,0,0,0,-1,1770,897,0,0
553,127,0,0,0,0,0,0,0,0,0,-1,1777,897,0,0
560,127,0,0,0,0,0,0,0,0,0,-1,1784,897,0,0
567,127,0,0,0,0,0,0,0,0,0,-1,1791,897,0,0
574,127,0,0,0,0,0,0,0,0,0,-1,1798,897,0,0
581,127,0,0,0,0,0,0,0,0,0,-1,1805,897,0,0
588,127,0,0,0,0,0,0,0,0,0,-1,1812,897,0,0
595,127,0,0,0,0,0,0,0,0,0,-1,1819,897,0,0
602,127,0,0,0,0,0,0,0,0,0,-1,1826,897,0,0
609,127,0,0,0,0,0,0,0,0,0,-1,1833,897,0,0
616,127,0,0,0,0,0,0,0,0,0,-1,1840,897,0,0
623,127,0,0,0,0,0,0,0,0,0,-1,1847,897,0,0
630,127,24.2952,2.99463,0.00646401,0.00721036,-0.00132194,0.00821079,0.00546358,-0.922964,0.0048262,0.0432484,1854,897,24.2951,-2.99463
637,127,24.3673,2.91461,0.00455708,0.00588514,-0.000776768,0.00624302,0.0041992,-1.13905,0.00367532,0.0425129,1861,897,24.3674,-2.91461
644,127,24.2832,2.68762,0.0026449,0.0045788,-0.000267325,0.00461507,0.00260863,-1.43593,0.00267206,0.0401208,1868,897,24.2832,-2.68764
651,127,24.2477,2.599,-3.5375e-05,0.00366008,-2.068e-05,0.00366019,-3.54906e-05,-1.5652,0.00245204,0.0425912,1875,897,24.2476,-2.59897
658,127,24.295,2.94403,-0.00281231,0.00292915,4.12161e-05,0.00292945,-0.00281261,1.56362,0.00331541,0.0436643,1882,897,24.295,-2.94406
665,127,24.2781,2.81641,-0.00505792,0.00235104,5.09408e-05,0.00235139,-0.00505827,1.56392,0.00437209,0.0390801,1889,897,24.2781,-2.81643
672,127,24.236,2.66907,-0.00666163,0.00192921,2.01547e-05,0.00192926,-0.00666167,1.56845,0.00520479,0.0320163,1896,897,24.236,-2.66908
679,127,24.3105,2.66754,-0.00777819,0.001527,-3.06174e-05,0.0015271,-0.00777829,-1.56751,0.00576241,0.0225442,1903,897,24.3105,-2.66751
686,127,24.1466,2.81927,0,0,0,0,0,0,0,-1,1910,897,24.1466,-2.81928
693,127,22.7255,2.86536,0,0,0,0,0,0,0,-1,1917,897,22.7254,-2.86536
700,127,21.3042,2.91144,0,0,0,0,0,0,0,-1,1924,897,21.3042,-2.91144
707,127,21.2648,3.12573,-0.00851871,0.000786591,-0.000288528,0.000795529,-0.00852765,-1.53983,0.00596798,0.0235568,1931,897,21.2648,-3.12573
714,127,21.296,3.36469,-0.00727821,0.000865958,-0.000356478,0.000881532,-0.00729379,-1.52714,0.00518143,0.0202027,1938,897,21.296,-3.36466
721,127,21.4536,3.70325,-0.00514793,0.0012002,0.000130518,0.00120288,-0.00515061,1.55025,0.00389708,0.0151757,1945,897,21.4536,-3.70325
728,127,21.453,3.86572,-0.00225375,0.00246275,0.000791342,0.00259198,-0.00238298,1.40892,0.00287314,0.0141344,1952,897,21.453,-3.86572
735,127,21.4576,4.07666,0.00209025,0.00475293,0.00147696,0.00541002,0.00143315,1.15219,0.00323652,0.0211191,1959,897,21.4576,-4.07669
742,127,21.4285,4.27588,0.00765708,0.00690384,0.0026535,0.00996055,0.00460037,0.714903,0.0057563,0.0180131,1966,897,21.4284,-4.27587
749,127,21.3927,4.44885,0.0140709,0.0101485,0.00407532,0.0166324,0.00758702,0.561137,0.00961499,0.0122673,1973,897,21.3927,-4.44886
756,127,21.3845,4.61273,0.021191,0.0153165,0.00572836,0.0246912,0.0118163,0.548501,0.0142599,0.0141888,1980,897,21.3845,-4.61271
763,127,21.3778,4.77802,0.0295657,0.0214938,0.00765893,0.034187,0.0168724,0.542907,0.0197384,0.0215564,1987,897,21.3778,-4.77801
770,127,22.3286,4.95746,0.0395937,0.0289886,0.00972234,0.0453655,0.0232168,0.535744,0.0261942,0.0400949,1994,897,22.3286,-4.95744
777,127,23.3721,5.19244,0,0,0,0,0,0,0,-1,2001,897,23.3721,-5.19246
784,127,23.7816,7.07825,0.0656068,0.0484143,0.0135464,0.0730543,0.0409668,0.502669,0.0422816,0.0470907,2008,897,23.7816,-7.07824
791,127,24.572,7.9649,0,0,0,0,0,0,0,-1,2015,897,24.572,-7.96493
798,127,0,0,0,0,0,0,0,0,0,-1,2022,897,0,0
805,127,0,0,0,0,0,0,0,0,0,-1,2029,897,0,0
812,127,0,0,0,0,0,0,0,0,0,-1,2036,897,0,0
-700,120,0,0,0,0,0,0,0,0,0,-1,524,904,0,0
-693,120,0,0,0,0,0,0,0,0,0,-1,531,904,0,0
-686,120,0,0,0,0,0,0,0,0,0,-1,538,904,0,0
-679,120,-17.1059,0.250977,0,0,0,0,0,0,0,-1,545,904,-17.1059,-0.250965
-672,120,-16.592,0.860352,0.0568605,0.0146611,0.0462263,0.0865749,-0.0150532,0.571299,0.0633335,0.0448398,552,904,-16.592,-0.860371
-665,120,-15.767,1.34802,0.0460219,0.0128964,0.0368058,0.0698199,-0.0109016,0.573969,0.0505737,0.0430508,559,904,-15.7669,-1.34803
-658,120,-15.4604,2.22369,0.0363779,0.0109128,0.0290562,0.0553688,-0.00807821,0.578898,0.039879,0.046331,566,904,-15.4604,-2.22371
-651,120,-15.7712,2.57715,0,0,0,0,0,0,0,-1,573,904,-15.7712,-2.57718
-644,120,-14.9802,2.30286,0,0,0,0,0,0,0,-1,580,904,-14.9802,-2.30283
-637,120,-14.9386,2.32263,0.0149337,0.00540134,0.0131304,0.0241362,-0.00380111,0.611298,0.017496,0.0420052,587,904,-14.9386,-2.32264
-630,120,-14.9113,2.26666,0.010075,0.00416668,0.00944311,0.0170152,-0.00277358,0.633802,0.0123721,0.0221422,594,904,-14.9113,-2.26665
-623,120,-14.9169,2.12408,0.0060741,0.00322332,0.00670281,0.0115014,-0.00220399,0.680631,0.00849807,0.00997787,601,904,-14.9169,-2.12407
-616,120,-14.9135,1.97681,0.00192385,0.00168468,0.00433348,0.0061394,-0.00253086,0.771604,0.00514826,0.00923152,608,904,-14.9135,-1.97683
-609,120,-14.9232,1.81189,-0.00112287,0.000720413,0.00269279,0.00264492,-0.00304737,0.95028,0.00328918,0.0130772,615,904,-14.9232,-1.81191
-602,120,-14.941,1.64642,-0.00342478,-0.000119935,0.0020482,0.0008593,-0.00440401,1.12483,0.00326041,0.0136506,622,904,-14.941,-1.64639
-595,120,-14.9164,1.49823,-0.0048827,-0.000508267,0.0019705,0.000248454,-0.00563943,1.20414,0.00384511,0.0182851,629,904,-14.9165,-1.4982
-588,120,-14.9753,1.31604,-0.00581036,-0.000950413,0.00202447,-0.000217594,-0.00654318,1.22349,0.00429143,0.0249783,636,904,-14.9754,-1.31606
-581,120,-15.1128,1.13123,-0.00650712,-0.00111308,0.00206335,-0.000414322,-0.00720589,1.24426,0.00467194,0.0313812,643,904,-15.1128,-1.13121
-574,120,-14.9634,0.92865,-0.00682965,-0.00137137,0.00200855,-0.000711931,-0.0074891,1.25357,0.00477315,0.0239706,650,904,-14.9635,-0.928666
-567,120,-14.7131,0.553528,0,0,0,0,0,0,0,-1,657,904,-14.7132,-0.553556
-560,120,-16.9463,0.701721,0,0,0,0,0,0,0,-1,664,904,-16.9463,-0.701724
-553,120,-16.8894,0.93927,-0.00627225,-0.001722,0.00249163,-0.00062305,-0.0073712,1.1554,0.00472018,0.0381528,671,904,-16.8894,-0.939261
-546,120,-16.788,1.04828,-0.00560884,-0.00167906,0.00258326,-0.000398331,-0.00688956,1.11053,0.00446619,0.0333159,678,904,-16.788,-1.04829
-539,120,-16.7767,0.965393,-0.00454144,-0.00147078,0.0025968,1.06127e-05,-0.00602283,1.05237,0.00401876,0.0277535,685,904,-16.7767,-0.965371
-532,120,-16.7248,0.887695,-0.0031537,-0.00111964,0.00255031,0.000608945,-0.00488229,0.975128,0.00347567,0.0285003,692,904,-16.7248,-0.887702
-525,120,-16.8206,0.987427,-0.0014787,-0.000618545,0.00243519,0.00142425,-0.0035215,0.872802,0.00293976,0.033824,699,904,-16.8206,-0.987441
-518,120,-16.756,1.15247,0.000182215,7.34854e-05,0.00235261,0.00248109,-0.00222538,0.773846,0.00271862,0.0374546,706,904,-16.756,-1.15247
-511,120,-16.7462,1.10327,1.71367e-05,0.00112361,0.00245109,0.00308312,-0.00194238,0.896393,0.00292629,0.0390203,713,904,-16.7461,-1.10326
-504,120,0,0,0,0,0,0,0,0,0,-1,720,904,0,0
-497,120,0,0,0,0,0,0,0,0,0,-1,727,904,0,0
-490,120,0,0,0,0,0,0,0,0,0,-1,734,904,0,0
-483,120,0,0,0,0,0,0,0,0,0,-1,741,904,0,0
-476,120,0,0,0,0,0,0,0,0,0,-1,748,904,0,0
-469,120,0,0,0,0,0,0,0,0,0,-1,755,904,0,0
-462,120,0,0,0,0,0,0,0,0,0,-1,762,904,0,0
-455,120,0,0,0,0,0,0,0,0,0,-1,769,904,0,0
-448,120,0,0,0,0,0,0,0,0,0,-1,776,904,0,0
-441,120,0,0,0,0,0,0,0,0,0,-1,783,904,0,0
-434,120,0,0,0,0,0,0,0,0,0,-1,790,904,0,0
-427,120,0,0,0,0,0,0,0,0,0,-1,797,904,0,0
-420,120,0,0,0,0,0,0,0,0,0,-1,804,904,0,0
-413,120,0,0,0,0,0,0,0,0,0,-1,811,904,0,0
-406,120,0,0,0,0,0,0,0,0,0,-1,818,904,0,0
-399,120,0,0,0,0,0,0,0,0,0,-1,825,904,0,0
-392,120,0,0,0,0,0,0,0,0,0,-1,832,904,0,0
-385,120,0,0,0,0,0,0,0,0,0,-1,839,904,0,0
-378,120,0,0,0,0,0,0,0,0,0,-1,846,904,0,0
-371,120,0,0,0,0,0,0,0,0,0,-1,853,904,0,0
-364,120,0,0,0,0,0,0,0,0,0,-1,860,904,0,0
-357,120,0,0,0,0,0,0,0,0,0,-1,867,904,0,0
-350,120,0,0,0,0,0,0,0,0,0,-1,874,904,0,0
-343,120,0,0,0,0,0,0,0,0,0,-1,881,904,0,0
-336,120,0,0,0,0,0,0,0,0,0,-1,888,904,0,0
-329,120,0,0,0,0,0,0,0,0,0,-1,895,904,0,0
-322,120,0,0,0,0,0,0,0,0,0,-1,902,904,0,0
-315,120,0,0,0,0,0,0,0,0,0,-1,909,904,0,0
-308,120,0,0,0,0,0,0,0,0,0,-1,916,904,0,0
-301,120,0,0,0,0,0,0,0,0,0,-1,923,904,0,0
-294,120,0,0,0,0,0,0,0,0,0,-1,930,904,0,0
-287,120,0,0,0,0,0,0,0,0,0,-1,937,904,0,0
-280,120,0,0,0,0,0,0,0,0,0,-1,944,904,0,0
-273,120,0,0,0,0,0,0,0,0,0,-1,951,904,0,0
-266,120,0,0,0,0,0,0,0,0,0,-1,958,904,0,0
-259,120,0,0,0,0,0,0,0,0,0,-1,965,904,0,0
-252,120,0,0,0,0,0,0,0,0,0,-1,972,904,0,0
-245,120,0,0,0,0,0,0,0,0,0,-1,979,904,0,0
-238,120,0,0,0,0,0,0,0,0,0,-1,986,904,0,0
-231,120,0,0,0,0,0,0,0,0,0,-1,993,904,0,0
-224,120,0,0,0,0,0,0,0,0,0,-1,1000,904,0,0
-217,120,0,0,0,0,0,0,0,0,0,-1,1007,904,0,0
-210,120,0,0,0,0,0,0,0,0,0,-1,1014,904,0,0
-203,120,0,0,0,0,0,0,0,0,0,-1,1021,904,0,0
-196,120,0,0,0,0,0,0,0,0,0,-1,1028,904,0,0
-189,120,0,0,0,0,0,0,0,0,0,-1,1035,904,0,0
-182,120,0,0,0,0,0,0,0,0,0,-1,1042,904,0,0
-175,120,0,0,0,0,0,0,0,0,0,-1,1049,904,0,0
-168,120,0,0,0,0,0,0,0,0,0,-1,1056,904,0,0
-161,120,0,0,0,0,0,0,0,0,0,-1,1063,904,0,0
-154,120,0,0,0,0,0,0,0,0,0,-1,1070,904,0,0
-147,120,0,0,0,0,0,0,0,0,0,-1,1077,904,0,0
-140,120,0,0,0,0,0,0,0,0,0,-1,1084,904,0,0
-133,120,0,0,0,0,0,0,0,0,0,-1,1091,904,0,0
-126,120,0,0,0,0,0,0,0,0,0,-1,1098,904,0,0
-119,120,0,0,0,0,0,0,0,0,0,-1,1105,904,0,0
-112,120,0,0,0,0,0,0,0,0,0,-1,1112,904,0,0
-105,120,0,0,0,0,0,0,0,0,0,-1,1119,904,0,0
-98,120,0,0,0,0,0,0,0,0,0,-1,1126,904,0,0
-91,120,0,0,0,0,0,0,0,0,0,-1,1133,904,0,0
-84,120,0,0,0,0,0,0,0,0,0,-1,1140,904,0,0
-77,120,0,0,0,0,0,0,0,0,0,-1,1147,904,0,0
-70,120,0,0,0,0,0,0,0,0,0,-1,1154,904,0,0
-63,120,0,0,0,0,0,0,0,0,0,-1,1161,904,0,0
-56,120,0,0,0,0,0,0,0,0,0,-1,1168,904,0,0
-49,120,0,0,0,0,0,0,0,0,0,-1,1175,904,0,0
-42,120,0,0,0,0,0,0,0,0,0,-1,1182,904,0,0
-35,120,0,0,0,0,0,0,0,0,0,-1,1189,904,0,0
-28,120,0,0,0,0,0,0,0,0,0,-1,1196,904,0,0
-21,120,0,0,0,0,0,0,0,0,0,-1,1203,904,0,0
-14,120,0,0,0,0,0,0,0,0,0,-1,1210,904,0,0
-7,120,0,0,0,0,0,0,0,0,0,-1,1217,904,0,0
0,120,0,0,0,0,0,0,0,0,0,-1,1224,904,0,0
7,120,0,0,0,0,0,0,0,0,0,-1,1231,904,0,0
14,120,0,0,0,0,0,0,0,0,0,-1,1238,904,0,0
21,120,0,0,0,0,0,0,0,0,0,-1,1245,904,0,0
28,120,0,0,0,0,0,0,0,0,0,-1,1252,904,0,0
35,120,0,0,0,0,0,0,0,0,0,-1,1259,904,0,0
42,120,0,0,0,0,0,0,0,0,0,-1,1266,904,0,0
49,120,0,0,0,0,0,0,0,0,0,-1,1273,904,0,0
56,120,0,0,0,0,0,0,0,0,0,-1,1280,904,0,0
63,120,0,0,0,0,0,0,0,0,0,-1,1287,904,0,0
70,120,0,0,0,0,0,0,0,0,0,-1,1294,904,0,0
77,120,0,0,0,0,0,0,0,0,0,-1,1301,904,0,0
84,120,0,0,0,0,0,0,0,0,0,-1,1308,904,0,0
91,120,0,0,0,0,0,0,0,0,0,-1,1315,904,0,0
98,120,0,0,0,0,0,0,0,0,0,-1,1322,904,0,0
105,120,0,0,0,0,0,0,0,0,0,-1,1329,904,0,0
112,120,0,0,0,0,0,0,0,0,0,-1,1336,904,0,0
119,120,0,0,0,0,0,0,0,0,0,-1,1343,904,0,0
126,120,0,0,0,0,0,0,0,0,0,-1,1350,904,0,0
133,120,0,0,0,0,0,0,0,0,0,-1,1357,904,0,0
140,120,0,0,0,0,0,0,0,0,0,-1,1364,904,0,0
147,120,0,0,0,0,0,0,0,0,0,-1,1371,904,0,0
154,120,0,0,0,0,0,0,0,0,0,-1,1378,904,0,0
161,120,0,0,0,0,0,0,0,0,0,-1,1385,904,0,0
168,120,0,0,0,0,0,0,0,0,0,-1,1392,904,0,0
175,120,0,0,0,0,0,0,0,0,0,-1,1399,904,0,0
182,120,0,0,0,0,0,0,0,0,0,-1,1406,904,0,0
189,120,0,0,0,0,0,0,0,0,0,-1,1413,904,0,0
196,120,0,0,0,0,0,0,0,0,0,-1,1420,904,0,0
203,120,0,0,0,0,0,0,0,0,0,-1,1427,904,0,0
210,120,0,0,0,0,0,0,0,0,0,-1,1434,904,0,0
217,120,0,0,0,0,0,0,0,0,0,-1,1441,904,0,0
224,120,0,0,0,0,0,0,0,0,0,-1,1448,904,0,0
231,120,0,0,0,0,0,0,0,0,0,-1,1455,904,0,0
238,120,0,0,0,0,0,0,0,0,0,-1,1462,904,0,0
245,120,0,0,0,0,0,0,0,0,0,-1,1469,904,0,0
252,120,0,0,0,0,0,0,0,0,0,-1,1476,904,0,0
259,120,0,0,0,0,0,0,0,0,0,-1,1483,904,0,0
266,120,0,0,0,0,0,0,0,0,0,-1,1490,904,0,0
273,120,0,0,0,0,0,0,0,0,0,-1,1497,904,0,0
280,120,0,0,0,0,0,0,0,0,0,-1,1504,904,0,0
287,120,0,0,0,0,0,0,0,0,0,-1,1511,904,0,0
294,120,0,0,0,0,0,0,0,0,0,-1,1518,904,0,0
301,120,0,0,0,0,0,0,0,0,0,-1,1525,904,0,0
308,120,0,0,0,0,0,0,0,0,0,-1,1532,904,0,0
315,120,0,0,0,0,0,0,0,0,0,-1,1539,904,0,0
322,120,0,0,0,0,0,0,0,0,0,-1,1546,904,0,0
329,120,0,0,0,0,0,0,0,0,0,-1,1553,904,0,0
336,120,0,0,0,0,0,0,0,0,0,-1,1560,904,0,0
343,120,0,0,0,0,0,0,0,0,0,-1,1567,904,0,0
350,120,0,0,0,0,0,0,0,0,0,-1,1574,904,0,0
357,120,0,0,0,0,0,0,0,0,0,-1,1581,904,0,0
364,120,0,0,0,0,0,0,0,0,0,-1,1588,904,0,0
371,120,0,0,0,0,0,0,0,0,0,-1,1595,904,0,0
378,120,0,0,0,0,0,0,0,0,0,-1,1602,904,0,0
385,120,0,0,0,0,0,0,0,0,0,-1,1609,904,0,0
392,120,0,0,0,0,0,0,0,0,0,-1,1616,904,0,0
399,120,0,0,0,0,0,0,0,0,0,-1,1623,904,0,0
406,120,0,0,0,0,0,0,0,0,0,-1,1630,904,0,0
413,120,0,0,0,0,0,0,0,0,0,-1,1637,904,0,0
420,120,0,0,0,0,0,0,0,0,0,-1,1644,904,0,0
427,120,0,0,0,0,0,0,0,0,0,-1,1651,904,0,0
434,120,0,0,0,0,0,0,0,0,0,-1,1658,904,0,0
441,120,0,0,0,0,0,0,0,0,0,-1,1665,904,0,0
448,120,0,0,0,0,0,0,0,0,0,-1,1672,904,0,0
455,120,0,0,0,0,0,0,0,0,0,-1,1679,904,0,0
462,120,0,0,0,0,0,0,0,0,0,-1,1686,904,0,0
469,120,0,0,0,0,0,0,0,0,0,-1,1693,904,0,0
476,120,0,0,0,0,0,0,0,0,0,-1,1700,904,0,0
483,120,0,0,0,0,0,0,0,0,0,-1,1707,904,0,0
490,120,0,0,0,0,0,0,0,0,0,-1,1714,904,0,0
497,120,0,0,0,0,0,0,0,0,0,-1,1721,904,0,0
504,120,0,0,0,0,0,0,0,0,0,-1,1728,904,0,0
511,120,0,0,0,0,0,0,0,0,0,-1,1735,904,0,0
518,120,0,0,0,0,0,0,0,0,0,-1,1742,904,0,0
525,120,0,0,0,0,0,0,0,0,0,-1,1749,904,0,0
532,120,0,0,0,0,0,0,0,0,0,-1,1756,904,0,0
539,120,0,0,0,0,0,0,0,0,0,-1,1763,904,0,0
546,120,0,0,0,0,0,0,0,0,0,-1,1770,904,0,0
553,120,0,0,0,0,0,0,0,0,0,-1,1777,904,0,0
560,120,0,0,0,0,0,0,0,0,0,-1,1784,904,0,0
567,120,0,0,0,0,0,0,0,0,0,-1,1791,904,0,0
574,120,0,0,0,0,0,0,0,0,0,-1,1798,904,0,0
581,120,0,0,0,0,0,0,0,0,0,-1,1805,904,0,0
588,120,0,0,0,0,0,0,0,0,0,-1,1812,904,0,0
595,120,0,0,0,0,0,0,0,0,0,-1,1819,904,0,0
602,120,0,0,0,0,0,0,0,0,0,-1,1826,904,0,0
609,120,0,0,0,0,0,0,0,0,0,-1,1833,904,0,0
616,120,0,0,0,0,0,0,0,0,0,-1,1840,904,0,0
623,120,0,0,0,0,0,0,0,0,0,-1,1847,904,0,0
630,120,24.3889,2.435,0,0,0,0,0,0,0,-1,1854,904,24.389,-2.43503
637,120,24.4617,2.43054,0.0047072,0.00520054,-0.000989913,0.00597405,0.00393368,-0.907504,0.00350638,0.0439364,1861,904,24.4616,-2.43057
644,120,24.377,2.37878,0.00302308,0.00403276,-0.000248448,0.00409058,0.00296526,-1.34213,0.00244003,0.0421892,1868,904,24.377,-2.37876
651,120,24.3195,2.4917,0.000287413,0.00327132,0.000124615,0.00327652,0.000282218,1.52913,0.00209661,0.0444375,1875,904,24.3195,-2.49171
658,120,24.2712,2.73267,-0.00276005,0.00271283,0.00028378,0.00272751,-0.00277472,1.51913,0.00317675,0.0457545,1882,904,24.2712,-2.73265
665,120,24.3038,2.87994,-0.00537339,0.00227008,0.000332122,0.00228449,-0.0053878,1.52745,0.00454878,0.0389092,1889,904,24.3038,-2.87996
672,120,24.3047,2.72382,-0.00727281,0.00193897,0.000307652,0.00194924,-0.00728308,1.53745,0.00561898,0.0339983,1896,904,24.3047,-2.72381
679,120,24.2905,2.67957,-0.00861261,0.0016019,0.000251034,0.00160807,-0.00861878,1.54624,0.00635011,0.0297475,1903,904,24.2905,-2.67956
686,120,24.2537,2.79315,-0.00953684,0.00135932,0.00020712,0.00136326,-0.00954077,1.5518,0.00686024,0.0184168,1910,904,24.2537,-2.79313
693,120,23.462,2.94153,-0.0101051,0.00107327,0.000142026,0.00107507,-0.010107,1.55809,0.00712342,0.0479886,1917,904,23.462,-2.9415
700,120,21.6304,3.09607,0,0,0,0,0,0,0,-1,1924,904,21.6303,-3.09607
707,120,21.571,3.28406,-0.0095993,0.00095346,-8.29417e-05,0.000954112,-0.00959995,-1.56294,0.00674055,0.0230927,1931,904,21.571,-3.28407
714,120,21.6536,3.49512,-0.00844136,0.000994849,-0.00021154,0.00099959,-0.0084461,-1.54839,0.00599179,0.0175468,1938,904,21.6536,-3.49513
721,120,21.6508,3.68439,-0.00642658,0.00127326,0.000223145,0.00127973,-0.00643304,1.54185,0.0047728,0.0139255,1945,904,21.6508,-3.68438
728,120,21.6509,3.89691,-0.00373468,0.00230586,0.000832847,0.00241859,-0.00384741,1.43626,0.00364889,0.0101489,1952,904,21.6509,-3.8969
735,120,21.6371,4.07288,0.000254079,0.00406799,0.0014809,0.00457548,-0.000253412,1.24065,0.0031382,0.0131323,1959,904,21.6371,-4.07291
742,120,21.629,4.26257,0.00535791,0.00577177,0.00261778,0.00819078,0.0029389,0.824841,0.00479139,0.0142139,1966,904,21.629,-4.26255
749,120,21.6057,4.42938,0.0112728,0.00842757,0.00404327,0.0141365,0.00556395,0.616237,0.00822306,0.0105498,1973,904,21.6057,-4.42937
756,120,21.5975,4.59088,0.0176652,0.0129454,0.00571225,0.0214859,0.00912478,0.58951,0.0124517,0.0114101,1980,904,21.5975,-4.59087
763,120,21.5399,4.76825,0.0250448,0.018228,0.00773022,0.0300847,0.0131881,0.577759,0.0174133,0.0212166,1987,904,21.5399,-4.76825
770,120,21.4857,5.0509,0.0336709,0.0245983,0.00990516,0.0400291,0.0182401,0.570664,0.0231411,0.0436972,1994,904,21.4857,-5.05088
777,120,21.5143,5.30817,0,0,0,0,0,0,0,-1,2001,904,21.5143,-5.30819
784,120,24.3796,8.03107,0,0,0,0,0,0,0,-1,2008,904,24.3796,-8.03109
791,120,22.0519,5.91656,0,0,0,0,0,0,0,-1,2015,904,22.0519,-5.91659
798,120,22.2935,6.19824,0,0,0,0,0,0,0,-1,2022,904,22.2934,-6.19822
805,120,0,0,0,0,0,0,0,0,0,-1,2029,904,0,0
812,120,0,0,0,0,0,0,0,0,0,-1,2036,904,0,0
-700,113,0,0,0,0,0,0,0,0,0,-1,524,911,0,0
-693,113,0,0,0,0,0,0,0,0,0,-1,531,911,0,0
-686,113,0,0,0,0,0,0,0,0,0,-1,538,911,0,0
-679,113,-17.1118,0.195801,0,0,0,0,0,0,0,-1,545,911,-17.1117,-0.195803
-672,113,-16.6696,0.807617,0.0618104,0.00860861,0.0571229,0.0982225,-0.0278035,0.567491,0.0764536,0.0482763,552,911,-16.6695,-0.807631
-665,113,-16.1453,1.37891,0.0501904,0.00811424,0.0456318,0.0794004,-0.0210957,0.5694,0.0611899,0.0463366,559,911,-16.1453,-1.3789
-658,113,-15.7827,2.12305,0.0397944,0.00718875,0.035948,0.0629636,-0.0159804,0.572513,0.048194,0.046374,566,911,-15.7827,-2.12305
-651,113,-15.6715,2.57214,0.0307537,0.00604926,0.0278604,0.0488774,-0.0120744,0.576738,0.0372675,0.0493525,573,911,-15.6715,-2.57213
-644,113,-15.3661,2.46088,0,0,0,0,0,0,0,-1,580,911,-15.3661,-2.46088
-637,113,-15.1197,2.33521,0.0165553,0.00369727,0.0157777,0.0271635,-0.00691094,0.591931,0.0207989,0.0342763,587,911,-15.1197,-2.33523
-630,113,-15.0753,2.24799,0.0111736,0.00298253,0.0110747,0.0188858,-0.00472961,0.60829,0.0144278,0.0157172,594,911,-15.0753,-2.248
-623,113,-15.09,2.104,0.00668435,0.00244509,0.00761915,0.0124732,-0.00334377,0.64973,0.00962565,0.00983141,601,911,-15.09,-2.10397
-616,113,-15.0966,1.94537,0.00218072,0.00104578,0.00486617,0.0065124,-0.0032859,0.727352,0.00575838,0.0092515,608,911,-15.0966,-1.94535
-609,113,-15.1014,1.80243,-0.00119644,0.000267648,0.0028782,0.00250544,-0.00343423,0.909928,0.00344322,0.0110046,615,911,-15.1015,-1.80243
-602,113,-15.1161,1.66156,-0.00371972,-0.000374803,0.00198248,0.000546449,-0.00464097,1.13579,0.00329129,0.0147714,622,911,-15.1161,-1.66158
-595,113,-15.1157,1.52783,-0.00530334,-0.000594095,0.00178441,5.66314e-06,-0.0059031,1.24655,0.00393729,0.0187298,629,911,-15.1157,-1.52782
-588,113,-15.1179,1.3551,-0.00627791,-0.000846938,0.00175468,-0.000329351,-0.0067955,1.28396,0.00442464,0.0204708,636,911,-15.1179,-1.35512
-581,113,-15.1373,1.17676,-0.00704696,-0.000816677,0.00171029,-0.000378059,-0.00748558,1.31975,0.00486926,0.0214873,643,911,-15.1373,-1.17677
-574,113,-15.0266,0.918823,-0.00743049,-0.000917399,0.00162285,-0.000535437,-0.00781246,1.33964,0.00503932,0.0224255,650,911,-15.0265,-0.918843
-567,113,-15.1629,0.642883,0,0,0,0,0,0,0,-1,657,911,-15.1629,-0.642889
-560,113,-16.8581,0.822205,0,0,0,0,0,0,0,-1,664,911,-16.8581,-0.822205
-553,113,-16.8402,0.931885,-0.00678598,-0.000736254,0.00214153,-5.49131e-05,-0.00746732,1.26277,0.00496001,0.0383134,671,911,-16.8402,-0.931902
-546,113,-16.8212,1.01904,-0.00600129,-0.000447484,0.00226322,0.000357979,-0.00680675,1.22888,0.00466174,0.0375151,678,911,-16.8212,-1.01902
-539,113,-16.8464,1.09369,-0.00480027,4.66271e-05,0.00233112,0.000985799,-0.00573944,1.18781,0.0041937,0.0380746,685,911,-16.8464,-1.0937
-532,113,-16.7532,1.04297,-0.00329524,0.000756102,0.00235486,0.00183667,-0.00437581,1.14059,0.00368529,0.0381011,692,911,-16.7532,-1.04296
-525,113,-16.7469,0.952271,-0.00157907,0.00171517,0.00230992,0.00290508,-0.00276897,1.09512,0.00327623,0.03631,699,911,-16.747,-0.952263
-518,113,-16.849,1.01166,-0.00033836,0.00303225,0.00230042,0.00419864,-0.00150475,1.10154,0.0034131,0.0400725,706,911,-16.849,-1.01165
-511,113,-16.9491,1.05377,-0.0016737,0.00492392,0.00243944,0.00572792,-0.00247769,1.25243,0.00485982,0.0424709,713,911,-16.9491,-1.0538
-504,113,0,0,0,0,0,0,0,0,0,-1,720,911,0,0
-497,113,0,0,0,0,0,0,0,0,0,-1,727,911,0,0
-490,113,0,0,0,0,0,0,0,0,0,-1,734,911,0,0
-483,113,0,0,0,0,0,0,0,0,0,-1,741,911,0,0
-476,113,0,0,0,0,0,0,0,0,0,-1,748,911,0,0
-469,113,0,0,0,0,0,0,0,0,0,-1,755,911,0,0
-462,113,0,0,0,0,0,0,0,0,0,-1,762,911,0,0
-455,113,0,0,0,0,0,0,0,0,0,-1,769,911,0,0
-448,113,0,0,0,0,0,0,0,0,0,-1,776,911,0,0
-441,113,0,0,0,0,0,0,0,0,0,-1,783,911,0,0
-434,113,0,0,0,0,0,0,0,0,0,-1,790,911,0,0
-427,113,0,0,0,0,0,0,0,0,0,-1,797,911,0,0
-420,113,0,0,0,0,0,0,0,0,0,-1,804,911,0,0
-413,113,0,0,0,0,0,0,0,0,0,-1,811,911,0,0
-406,113,0,0,0,0,0,0,0,0,0,-1,818,911,0,0
-399,113,0,0,0,0,0,0,0,0,0,-1,825,911,0,0
-392,113,0,0,0,0,0,0,0,0,0,-1,832,911,0,0
-385,113,0,0,0,0,0,0,0,0,0,-1,839,911,0,0
-378,113,0,0,0,0,0,0,0,0,0,-1,846,911,0,0
-371,113,0,0,0,0,0,0,0,0,0,-1,853,911,0,0
-364,113,0,0,0,0,0,0,0,0,0,-1,860,911,0,0
-357,113,0,0,0,0,0,0,0,0,0,-1,867,911,0,0
-350,113,0,0,0,0,0,0,0,0,0,-1,874,911,0,0
-343,113,0,0,0,0,0,0,0,0,0,-1,881,911,0,0
-336,113,0,0,0,0,0,0,0,0,0,-1,888,911,0,0
-329,113,0,0,0,0,0,0,0,0,0,-1,895,911,0,0
-322,113,0,0,0,0,0,0,0,0,0,-1,902,911,0,0
-315,113,0,0,0,0,0,0,0,0,0,-1,909,911,0,0
-308,113,0,0,0,0,0,0,0,0,0,-1,916,911,0,0
-301,113,0,0,0,0,0,0,0,0,0,-1,923,911,0,0
-294,113,0,0,0,0,0,0,0,0,0,-1,930,911,0,0
-287,113,0,0,0,0,0,0,0,0,0,-1,937,911,0,0
-280,113,0,0,0,0,0,0,0,0,0,-1,944,911,0,0
-273,113,0,0,0,0,0,0,0,0,0,-1,951,911,0,0
-266,113,0,0,0,0,0,0,0,0,0,-1,958,911,0,0
-259,113,0,0,0,0,0,0,0,0,0,-1,965,911,0,0
-252,113,0,0,0,0,0,0,0,0,0,-1,972,911,0,0
-245,113,0,0,0,0,0,0,0,0,0,-1,979,911,0,0
-238,113,0,0,0,0,0,0,0,0,0,-1,986,911,0,0
-231,113,0,0,0,0,0,0,0,0,0,-1,993,911,0,0
-224,113,0,0,0,0,0,0,0,0,0,-1,1000,911,0,0
-217,113,0,0,0,0,0,0,0,0,0,-1,1007,911,0,0
-210,113,0,0,0,0,0,0,0,0,0,-1,1014,911,0,0
-203,113,0,0,0,0,0,0,0,0,0,-1,1021,911,0,0
-196,113,0,0,0,0,0,0,0,0,0,-1,1028,911,0,0
-189,113,0,0,0,0,0,0,0,0,0,-1,1035,911,0,0
-182,113,0,0,0,0,0,0,0,0,0,-1,1042,911,0,0
-175,113,0,0,0,0,0,0,0,0,0,-1,1049,911,0,0
-168,113,0,0,0,0,0,0,0,0,0,-1,1056,911,0,0
-161,113,0,0,0,0,0,0,0,0,0,-1,1063,911,0,0
-154,113,0,0,0,0,0,0,0,0,0,-1,1070,911,0,0
-147,113,0,0,0,0,0,0,0,0,0,-1,1077,911,0,0
-140,113,0,0,0,0,0,0,0,0,0,-1,1084,911,0,0
-133,113,0,0,0,0,0,0,0,0,0,-1,1091,911,0,0
-126,113,0,0,0,0,0,0,0,0,0,-1,1098,911,0,0
-119,113,0,0,0,0,0,0,0,0,0,-1,1105,911,0,0
-112,113,0,0,0,0,0,0,0,0,0,-1,1112,911,0,0
-105,113,0,0,0,0,0,0,0,0,0,-1,1119,911,0,0
-98,113,0,0,0,0,0,0,0,0,0,-1,1126,911,0,0
-91,113,0,0,0,0,0,0,0,0,0,-1,1133,911,0,0
-84,113,0,0,0,0,0,0,0,0,0,-1,1140,911,0,0
-77,113,0,0,0,0,0,0,0,0,0,-1,1147,911,0,0
-70,113,0,0,0,0,0,0,0,0,0,-1,1154,911,0,0
-63,113,0,0,0,0,0,0,0,0,0,-1,1161,911,0,0
-56,113,0,0,0,0,0,0,0,0,0,-1,1168,911,0,0
-49,113,0,0,0,0,0,0,0,0,0,-1,1175,911,0,0
-42,113,0,0,0,0,0,0,0,0,0,-1,1182,911,0,0
-35,113,0,0,0,0,0,0,0,0,0,-1,1189,911,0,0
-28,113,0,0,0,0,0,0,0,0,0,-1,1196,911,0,0
-21,113,0,0,0,0,0,0,0,0,0,-1,1203,911,0,0
-14,113,0,0,0,0,0,0,0,0,0,-1,1210,911,0,0
-7,113,0,0,0,0,0,0,0,0,0,-1,1217,911,0,0
0,113,0,0,0,0,0,0,0,0,0,-1,1224,911,0,0
7,113,0,0,0,0,0,0,0,0,0,-1,1231,911,0,0
14,113,0,0,0,0,0,0,0,0,0,-1,1238,911,0,0
21,113,0,0,0,0,0,0,0,0,0,-1,1245,911,0,0
28,113,0,0,0,0,0,0,0,0,0,-1,1252,911,0,0
35,113,0,0,0,0,0,0,0,0,0,-1,1259,911,0,0
42,113,0,0,0,0,0,0,0,0,0,-1,1266,911,0,0
49,113,0,0,0,0,0,0,0,0,0,-1,1273,911,0,0
56,113,0,0,0,0,0,0,0,0,0,-1,1280,911,0,0
63,113,0,0,0,0,0,0,0,0,0,-1,1287,911,0,0
70,113,0,0,0,0,0,0,0,0,0,-1,1294,911,0,0
77,113,0,0,0,0,0,0,0,0,0,-1,1301,911,0,0
84,113,0,0,0,0,0,0,0,0,0,-1,1308,911,0,0
91,113,0,0,0,0,0,0,0,0,0,-1,1315,911,0,0
98,113,0,0,0,0,0,0,0,0,0,-1,1322,911,0,0
105,113,0,0,0,0,0,0,0,0,0,-1,1329,911,0,0
112,113,0,0,0,0,0,0,0,0,0,-1,1336,911,0,0
119,113,0,0,0,0,0,0,0,0,0,-1,1343,911,0,0
126,113,0,0,0,0,0,0,0,0,0,-1,1350,911,0,0
133,113,0,0,0,0,0,0,0,0,0,-1,1357,911,0,0
140,113,0,0,0,0,0,0,0,0,0,-1,1364,911,0,0
147,113,0,0,0,0,0,0,0,0,0,-1,1371,911,0,0
154,113,0,0,0,0,0,0,0,0,0,-1,1378,911,0,0
161,113,0,0,0,0,0,0,0,0,0,-1,1385,911,0,0
168,113,0,0,0,0,0,0,0,0,0,-1,1392,911,0,0
175,113,0,0,0,0,0,0,0,0,0,-1,1399,911,0,0
182,113,0,0,0,0,0,0,0,0,0,-1,1406,911,0,0
189,113,0,0,0,0,0,0,0,0,0,-1,1413,911,0,0
196,113,0,0,0,0,0,0,0,0,0,-1,1420,911,0,0
203,113,0,0,0,0,0,0,0,0,0,-1,1427,911,0,0
210,113,0,0,0,0,0,0,0,0,0,-1,1434,911,0,0
217,113,0,0,0,0,0,0,0,0,0,-1,1441,911,0,0
224,113,0,0,0,0,0,0,0,0,0,-1,1448,911,0,0
231,113,0,0,0,0,0,0,0,0,0,-1,1455,911,0,0
238,113,0,0,0,0,0,0,0,0,0,-1,1462,911,0,0
245,113,0,0,0,0,0,0,0,0,0,-1,1469,911,0,0
252,113,0,0,0,0,0,0,0,0,0,-1,1476,911,0,0
259,113,0,0,0,0,0,0,0,0,0,-1,1483,911,0,0
266,113,0,0,0,0,0,0,0,0,0,-1,1490,911,0,0
273,113,0,0,0,0,0,0,0,0,0,-1,1497,911,0,0
280,113,0,0,0,0,0,0,0,0,0,-1,1504,911,0,0
287,113,0,0,0,0,0,0,0,0,0,-1,1511,911,0,0
294,113,0,0,0,0,0,0,0,0,0,-1,1518,911,0,0
301,113,0,0,0,0,0,0,0,0,0,-1,1525,911,0,0
308,113,0,0,0,0,0,0,0,0,0,-1,1532,911,0,0
315,113,0,0,0,0,0,0,0,0,0,-1,1539,911,0,0
322,113,0,0,0,0,0,0,0,0,0,-1,1546,911,0,0
329,113,0,0,0,0,0,0,0,0,0,-1,1553,911,0,0
336,113,0,0,0,0,0,0,0,0,0,-1,1560,911,0,0
343,113,0,0,0,0,0,0,0,0,0,-1,1567,911,0,0
350,113,0,0,0,0,0,0,0,0,0,-1,1574,911,0,0
357,113,0,0,0,0,0,0,0,0,0,-1,1581,911,0,0
364,113,0,0,0,0,0,0,0,0,0,-1,1588,911,0,0
371,113,0,0,0,0,0,0,0,0,0,-1,1595,911,0,0
378,113,0,0,0,0,0,0,0,0,0,-1,1602,911,0,0
385,113,0,0,0,0,0,0,0,0,0,-1,1609,911,0,0
392,113,0,0,0,0,0,0,0,0,0,-1,1616,911,0,0
399,113,0,0,0,0,0,0,0,0,0,-1,1623,911,0,0
406,113,0,0,0,0,0,0,0,0,0,-1,1630,911,0,0
413,113,0,0,0,0,0,0,0,0,0,-1,1637,911,0,0
420,113,0,0,0,0,0,0,0,0,0,-1,1644,911,0,0
427,113,0,0,0,0,0,0,0,0,0,-1,1651,911,0,0
434,113,0,0,0,0,0,0,0,0,0,-1,1658,911,0,0
441,113,0,0,0,0,0,0,0,0,0,-1,1665,911,0,0
448,113,0,0,0,0,0,0,0,0,0,-1,1672,911,0,0
455,113,0,0,0,0,0,0,0,0,0,-1,1679,911,0,0
462,113,0,0,0,0,0,0,0,0,0,-1,1686,911,0,0
469,113,0,0,0,0,0,0,0,0,0,-1,1693,911,0,0
476,113,0,0,0,0,0,0,0,0,0,-1,1700,911,0,0
483,113,0,0,0,0,0,0,0,0,0,-1,1707,911,0,0
490,113,0,0,0,0,0,0,0,0,0,-1,1714,911,0,0
497,113,0,0,0,0,0,0,0,0,0,-1,1721,911,0,0
504,113,0,0,0,0,0,0,0,0,0,-1,1728,911,0,0
511,113,0,0,0,0,0,0,0,0,0,-1,1735,911,0,0
518,113,0,0,0,0,0,0,0,0,0,-1,1742,911,0,0
525,113,0,0,0,0,0,0,0,0,0,-1,1749,911,0,0
532,113,0,0,0,0,0,0,0,0,0,-1,1756,911,0,0
539,113,0,0,0,0,0,0,0,0,0,-1,1763,911,0,0
546,113,0,0,0,0,0,0,0,0,0,-1,1770,911,0,0
553,113,0,0,0,0,0,0,0,0,0,-1,1777,911,0,0
560,113,0,0,0,0,0,0,0,0,0,-1,1784,911,0,0
567,113,0,0,0,0,0,0,0,0,0,-1,1791,911,0,0
574,113,0,0,0,0,0,0,0,0,0,-1,1798,911,0,0
581,113,0,0,0,0,0,0,0,0,0,-1,1805,911,0,0
588,113,0,0,0,0,0,0,0,0,0,-1,1812,911,0,0
595,113,0,0,0,0,0,0,0,0,0,-1,1819,911,0,0
602,113,0,0,0,0,0,0,0,0,0,-1,1826,911,0,0
609,113,0,0,0,0,0,0,0,0,0,-1,1833,911,0,0
616,113,0,0,0,0,0,0,0,0,0,-1,1840,911,0,0
623,113,0,0,0,0,0,0,0,0,0,-1,1847,911,0,0
630,113,24.2097,2.99255,0.00672062,0.00576024,-0.00187314,0.00817414,0.00430672,-0.659923,0.00472161,0.0394124,1854,911,24.2097,-2.99257
637,113,24.3943,2.92029,0.00495236,0.00446582,-0.000925244,0.00566578,0.0037524,-0.656844,0.00332808,0.0401463,1861,911,24.3943,-2.92032
644,113,24.5096,2.54425,0.00347245,0.00333963,-2.9575e-05,0.00347874,0.00333334,-0.209473,0.00227224,0.0397638,1868,911,24.5096,-2.54423
651,113,24.4464,2.56677,0.000751938,0.00269627,0.00041004,0.0027792,0.000669002,1.37123,0.00167495,0.0431833,1875,911,24.4464,-2.56677
658,113,24.4509,2.70709,-0.00247585,0.00231989,0.000638366,0.00240341,-0.00255937,1.4407,0.00286573,0.0453861,1882,911,24.4509,-2.70706
665,113,24.3557,2.83466,-0.00541648,0.002033,0.000712868,0.0021006,-0.00548409,1.47625,0.00452193,0.0398239,1889,911,24.3557,-2.83467
672,113,24.262,2.80646,-0.00761578,0.00181915,0.000690524,0.00186942,-0.00766605,1.49812,0.00583453,0.0355796,1896,911,24.262,-2.80646
679,113,24.2709,2.73346,-0.00920064,0.0015695,0.000629027,0.00160611,-0.00923725,1.51266,0.00675746,0.0301256,1903,911,24.2709,-2.73347
686,113,24.252,2.80292,-0.0102704,0.00136372,0.000567304,0.00139131,-0.010298,1.52219,0.007373,0.0237231,1910,911,24.2519,-2.80293
693,113,24.101,2.92096,-0.0108997,0.00115616,0.000492783,0.00117627,-0.0109199,1.53001,0.00770199,0.0351285,1917,911,24.101,-2.92097
700,113,22.7734,3.15558,0,0,0,0,0,0,0,-1,1924,911,22.7734,-3.15558
707,113,21.7793,3.28271,0,0,0,0,0,0,0,-1,1931,911,21.7793,-3.28274
714,113,21.8026,3.45612,-0.00942558,0.00111926,-2.36918e-05,0.00111931,-0.00942563,-1.56855,0.00668815,0.0173884,1938,911,21.8026,-3.4561
721,113,21.8104,3.65717,-0.007559,0.00137216,0.000319475,0.00138358,-0.00757041,1.53509,0.00556575,0.0158917,1945,911,21.8105,-3.65714
728,113,21.8436,3.8988,-0.00513151,0.0021875,0.000844636,0.00228371,-0.00522772,1.45738,0.00444637,0.0157575,1952,911,21.8437,-3.89878
735,113,21.8418,4.09882,-0.00160054,0.00349488,0.0013824,0.00384576,-0.00195143,1.32222,0.00340605,0.0150862,1959,911,21.8418,-4.0988
742,113,21.8315,4.25336,0.00287038,0.00479744,0.00231874,0.00634488,0.00132294,0.982314,0.00386516,0.012392,1966,911,21.8316,-4.25337
749,113,21.8241,4.42633,0.008095,0.00693012,0.00359109,0.0111506,0.00387455,0.705003,0.00653687,0.00893124,1973,911,21.8241,-4.4263
756,113,21.8181,4.59485,0.0135456,0.0108426,0.00508115,0.0174519,0.0069363,0.655416,0.0101463,0.00998954,1980,911,21.8181,-4.59487
763,113,21.736,4.78888,0.0197039,0.0153244,0.00698023,0.0248298,0.0101985,0.633407,0.0144114,0.0208591,1987,911,21.736,-4.78889
770,113,21.6677,5.03949,0.0266721,0.0207582,0.00905913,0.0332446,0.0141857,0.627649,0.0192624,0.0450654,1994,911,21.6677,-5.03947
777,113,21.7566,5.36462,0,0,0,0,0,0,0,-1,2001,911,21.7566,-5.36461
784,113,21.9417,5.89709,0,0,0,0,0,0,0,-1,2008,911,21.9417,-5.89708
791,113,22.2157,6.12152,0.0546046,0.0444811,0.0151773,0.065542,0.0335437,0.624445,0.0378442,0.0466655,2015,911,22.2157,-6.12152
798,113,22.5519,6.40039,0.0650434,0.0554593,0.0160505,0.0770019,0.0435008,0.64033,0.0445818,0.0457064,2022,911,22.5519,-6.40037
805,113,0,0,0,0,0,0,0,0,0,-1,2029,911,0,0
812,113,0,0,0,0,0,0,0,0,0,-1,2036,911,0,0
-700,106,0,0,0,0,0,0,0,0,0,-1,524,918,0,0
-693,106,0,0,0,0,0,0,0,0,0,-1,531,918,0,0
-686,106,0,0,0,0,0,0,0,0,0,-1,538,918,0,0
-679,106,-17.324,-0.294922,0,0,0,0,0,0,0,-1,545,918,-17.324,0.294921
-672,106,-16.7994,0.445557,0.0640894,0.00026278,0.0632796,0.103048,-0.0386954,0.551848,0.0846,0.0442232,552,918,-16.7994,-0.445552
-665,106,-16.2729,1.28149,0.0520272,0.00187856,0.050679,0.0834956,-0.0295899,0.555672,0.0677174,0.0467379,559,918,-16.2729,-1.28148
-658,106,-15.9473,1.9101,0.0411799,0.00270597,0.0398705,0.0662116,-0.0223257,0.560629,0.0531691,0.0449494,566,918,-15.9473,-1.9101
-651,106,-15.6124,2.53516,0.03171,0.00294505,0.0307562,0.0512804,-0.0166253,0.56669,0.0408718,0.0452754,573,918,-15.6124,-2.53517
-644,106,-15.3461,2.50763,0.0236274,0.00277703,0.0232209,0.038656,-0.0122516,0.574405,0.0306811,0.040418,580,918,-15.346,-2.50765
-637,106,-15.2154,2.38116,0.0168991,0.00236001,0.0171182,0.0282273,-0.00896823,0.584603,0.0224139,0.0271027,587,918,-15.2154,-2.38115
-630,106,-15.221,2.26031,0.0111995,0.00228352,0.0117461,0.0193051,-0.0058221,0.60403,0.0151874,0.0123878,594,918,-15.221,-2.26032
-623,106,-15.2537,2.09576,0.00639786,0.00218377,0.00783365,0.0124029,-0.00382125,0.654021,0.00979406,0.0111841,601,918,-15.2536,-2.09578
-616,106,-15.2646,1.92963,0.00180729,0.00088839,0.00496,0.00632907,-0.0036334,0.739215,0.0058216,0.0111064,608,918,-15.2646,-1.92964
-609,106,-15.2708,1.77521,-0.00167887,0.00023545,0.00286814,0.00230193,-0.00374534,0.946448,0.00352439,0.0108407,615,918,-15.2708,-1.7752
-602,106,-15.2813,1.62817,-0.00421138,-0.000296773,0.00183125,0.000426318,-0.00493447,1.19473,0.00344057,0.0135823,622,918,-15.2812,-1.62817
-595,106,-15.3398,1.49396,-0.00577078,-0.000471293,0.00154503,-5.37464e-05,-0.00618833,1.30685,0.00410775,0.0170423,629,918,-15.3398,-1.49399
-588,106,-15.312,1.32452,-0.00667368,-0.000629805,0.00143372,-0.000306945,-0.00699654,1.3493,0.00456548,0.0188636,636,918,-15.312,-1.3245
-581,106,-15.2175,1.14099,-0.00738876,-0.000523218,0.00133232,-0.000273735,-0.00763824,1.38569,0.00500342,0.0141788,643,918,-15.2175,-1.141
-574,106,-15.2701,0.978577,-0.00776516,-0.000569103,0.00124022,-0.000361354,-0.00797291,1.40483,0.00519901,0.0228737,650,918,-15.2701,-0.978556
-567,106,-16.0186,0.931213,-0.00782476,-0.000474089,0.00133255,-0.000239979,-0.00805887,1.39688,0.0052944,0.0449872,657,918,-16.0185,-0.931219
-560,106,-16.8979,0.890076,0,0,0,0,0,0,0,-1,664,918,-16.8979,-0.890103
-553,106,-16.7913,0.918396,-0.00703965,-2.58572e-05,0.00171312,0.000370209,-0.00743572,1.34359,0.00508504,0.0342289,671,918,-16.7912,-0.918401
-546,106,-16.6735,1.05713,-0.00613946,0.000460698,0.00185614,0.000946879,-0.00662564,1.31462,0.00476419,0.0400419,678,918,-16.6735,-1.05712
-539,106,-16.7031,1.23096,-0.00486013,0.00117792,0.00197092,0.00176431,-0.00544652,1.28161,0.00434034,0.0435662,685,918,-16.7031,-1.23098
-532,106,-16.7568,1.24213,-0.00332842,0.00218509,0.0020731,0.00287761,-0.00402093,1.2484,0.00400107,0.0412452,692,918,-16.7568,-1.24211
-525,106,-16.7429,1.09302,-0.00174736,0.00357143,0.00213388,0.00432171,-0.00249763,1.2327,0.00398382,0.0378841,699,918,-16.7429,-1.09305
-518,106,-16.8821,1.02142,-0.00124384,0.00556744,0.00230865,0.00627619,-0.0019526,1.27293,0.00496468,0.0396247,706,918,-16.8821,-1.02145
-511,106,0,0,0,0,0,0,0,0,0,-1,713,918,0,0
-504,106,0,0,0,0,0,0,0,0,0,-1,720,918,0,0
-497,106,0,0,0,0,0,0,0,0,0,-1,727,918,0,0
-490,106,0,0,0,0,0,0,0,0,0,-1,734,918,0,0
-483,106,0,0,0,0,0,0,0,0,0,-1,741,918,0,0
-476,106,0,0,0,0,0,0,0,0,0,-1,748,918,0,0
-469,106,0,0,0,0,0,0,0,0,0,-1,755,918,0,0
-462,106,0,0,0,0,0,0,0,0,0,-1,762,918,0,0
-455,106,0,0,0,0,0,0,0,0,0,-1,769,918,0,0
-448,106,0,0,0,0,0,0,0,0,0,-1,776,918,0,0
-441,106,0,0,0,0,0,0,0,0,0,-1,783,918,0,0
-434,106,0,0,0,0,0,0,0,0,0,-1,790,918,0,0
-427,106,0,0,0,0,0,0,0,0,0,-1,797,918,0,0
-420,106,0,0,0,0,0,0,0,0,0,-1,804,918,0,0
-413,106,0,0,0,0,0,0,0,0,0,-1,811,918,0,0
-406,106,0,0,0,0,0,0,0,0,0,-1,818,918,0,0
-399,106,0,0,0,0,0,0,0,0,0,-1,825,918,0,0
-392,106,0,0,0,0,0,0,0,0,0,-1,832,918,0,0
-385,106,0,0,0,0,0,0,0,0,0,-1,839,918,0,0
-378,106,0,0,0,0,0,0,0,0,0,-1,846,918,0,0
-371,106,0,0,0,0,0,0,0,0,0,-1,853,918,0,0
-364,106,0,0,0,0,0,0,0,0,0,-1,860,918,0,0
-357,106,0,0,0,0,0,0,0,0,0,-1,867,918,0,0
-350,106,0,0,0,0,0,0,0,0,0,-1,874,918,0,0
-343,106,0,0,0,0,0,0,0,0,0,-1,881,918,0,0
-336,106,0,0,0,0,0,0,0,0,0,-1,888,918,0,0
-329,106,0,0,0,0,0,0,0,0,0,-1,895,918,0,0
-322,106,0,0,0,0,0,0,0,0,0,-1,902,918,0,0
-315,106,0,0,0,0,0,0,0,0,0,-1,909,918,0,0
-308,106,0,0,0,0,0,0,0,0,0,-1,916,918,0,0
-301,106,0,0,0,0,0,0,0,0,0,-1,923,918,0,0
-294,106,0,0,0,0,0,0,0,0,0,-1,930,918,0,0
-287,106,0,0,0,0,0,0,0,0,0,-1,937,918,0,0
-280,106,0,0,0,0,0,0,0,0,0,-1,944,918,0,0
-273,106,0,0,0,0,0,0,0,0,0,-1,951,918,0,0
-266,106,0,0,0,0,0,0,0,0,0,-1,958,918,0,0
-259,106,0,0,0,0,0,0,0,0,0,-1,965,918,0,0
-252,106,0,0,0,0,0,0,0,0,0,-1,972,918,0,0
-245,106,0,0,0,0,0,0,0,0,0,-1,979,918,0,0
-238,106,0,0,0,0,0,0,0,0,0,-1,986,918,0,0
-231,106,0,0,0,0,0,0,0,0,0,-1,993,918,0,0
-224,106,0,0,0,0,0,0,0,0,0,-1,1000,918,0,0
-217,106,0,0,0,0,0,0,0,0,0,-1,1007,918,0,0
-210,106,0,0,0,0,0,0,0,0,0,-1,1014,918,0,0
-203,106,0,0,0,0,0,0,0,0,0,-1,1021,918,0,0
-196,106,0,0,0,0,0,0,0,0,0,-1,1028,918,0,0
-189,106,0,0,0,0,0,0,0,0,0,-1,1035,918,0,0
-182,106,0,0,0,0,0,0,0,0,0,-1,1042,918,0,0
-175,106,0,0,0,0,0,0,0,0,0,-1,1049,918,0,0
-168,106,0,0,0,0,0,0,0,0,0,-1,1056,918,0,0
-161,106,0,0,0,0,0,0,0,0,0,-1,1063,918,0,0
-154,106,0,0,0,0,0,0,0,0,0,-1,1070,918,0,0
-147,106,0,0,0,0,0,0,0,0,0,-1,1077,918,0,0
-140,106,0,0,0,0,0,0,0,0,0,-1,1084,918,0,0
-133,106,0,0,0,0,0,0,0,0,0,-1,1091,918,0,0
-126,106,0,0,0,0,0,0,0,0,0,-1,1098,918,0,0
-119,106,0,0,0,0,0,0,0,0,0,-1,1105,918,0,0
-112,106,0,0,0,0,0,0,0,0,0,-1,1112,918,0,0
-105,106,0,0,0,0,0,0,0,0,0,-1,1119,918,0,0
-98,106,0,0,0,0,0,0,0,0,0,-1,1126,918,0,0
-91,106,0,0,0,0,0,0,0,0,0,-1,1133,918,0,0
-84,106,0,0,0,0,0,0,0,0,0,-1,1140,918,0,0
-77,106,0,0,0,0,0,0,0,0,0,-1,1147,918,0,0
-70,106,0,0,0,0,0,0,0,0,0,-1,1154,918,0,0
-63,106,0,0,0,0,0,0,0,0,0,-1,1161,918,0,0
-56,106,0,0,0,0,0,0,0,0,0,-1,1168,918,0,0
-49,106,0,0,0,0,0,0,0,0,0,-1,1175,918,0,0
-42,106,0,0,0,0,0,0,0,0,0,-1,1182,918,0,0
-35,106,0,0,0,0,0,0,0,0,0,-1,1189,918,0,0
-28,106,0,0,0,0,0,0,0,0,0,-1,1196,918,0,0
-21,106,0,0,0,0,0,0,0,0,0,-1,1203,918,0,0
-14,106,0,0,0,0,0,0,0,0,0,-1,1210,918,0,0
-7,106,0,0,0,0,0,0,0,0,0,-1,1217,918,0,0
0,106,0,0,0,0,0,0,0,0,0,-1,1224,918,0,0
7,106,0,0,0,0,0,0,0,0,0,-1,1231,918,0,0
14,106,0,0,0,0,0,0,0,0,0,-1,1238,918,0,0
21,106,0,0,0,0,0,0,0,0,0,-1,1245,918,0,0
28,106,0,0,0,0,0,0,0,0,0,-1,1252,918,0,0
35,106,0,0,0,0,0,0,0,0,0,-1,1259,918,0,0
42,106,0,0,0,0,0,0,0,0,0,-1,1266,918,0,0
49,106,0,0,0,0,0,0,0,0,0,-1,1273,918,0,0
56,106,0,0,0,0,0,0,0,0,0,-1,1280,918,0,0
63,106,0,0,0,0,0,0,0,0,0,-1,1287,918,0,0
70,106,0,0,0,0,0,0,0,0,0,-1,1294,918,0,0
77,106,0,0,0,0,0,0,0,0,0,-1,1301,918,0,0
84,106,0,0,0,0,0,0,0,0,0,-1,1308,918,0,0
91,106,0,0,0,0,0,0,0,0,0,-1,1315,918,0,0
98,106,0,0,0,0,0,0,0,0,0,-1,1322,918,0,0
105,106,0,0,0,0,0,0,0,0,0,-1,1329,918,0,0
112,106,0,0,0,0,0,0,0,0,0,-1,1336,918,0,0
119,106,0,0,0,0,0,0,0,0,0,-1,1343,918,0,0
126,106,0,0,0,0,0,0,0,0,0,-1,1350,918,0,0
133,106,0,0,0,0,0,0,0,0,0,-1,1357,918,0,0
140,106,0,0,0,0,0,0,0,0,0,-1,1364,918,0,0
147,106,0,0,0,0,0,0,0,0,0,-1,1371,918,0,0
154,106,0,0,0,0,0,0,0,0,0,-1,1378,918,0,0
161,106,0,0,0,0,0,0,0,0,0,-1,1385,918,0,0
168,106,0,0,0,0,0,0,0,0,0,-1,1392,918,0,0
175,106,0,0,0,0,0,0,0,0,0,-1,1399,918,0,0
182,106,0,0,0,0,0,0,0,0,0,-1,1406,918,0,0
189,106,0,0,0,0,0,0,0,0,0,-1,1413,918,0,0
196,106,0,0,0,0,0,0,0,0,0,-1,1420,918,0,0
203,106,0,0,0,0,0,0,0,0,0,-1,1427,918,0,0
210,106,0,0,0,0,0,0,0,0,0,-1,1434,918,0,0
217,106,0,0,0,0,0,0,0,0,0,-1,1441,918,0,0
224,106,0,0,0,0,0,0,0,0,0,-1,1448,918,0,0
231,106,0,0,0,0,0,0,0,0,0,-1,1455,918,0,0
238,106,0,0,0,0,0,0,0,0,0,-1,1462,918,0,0
245,106,0,0,0,0,0,0,0,0,0,-1,1469,918,0,0
252,106,0,0,0,0,0,0,0,0,0,-1,1476,918,0,0
259,106,0,0,0,0,0,0,0,0,0,-1,1483,918,0,0
266,106,0,0,0,0,0,0,0,0,0,-1,1490,918,0,0
273,106,0,0,0,0,0,0,0,0,0,-1,1497,918,0,0
280,106,0,0,0,0,0,0,0,0,0,-1,1504,918,0,0
287,106,0,0,0,0,0,0,0,0,0,-1,1511,918,0,0
294,106,0,0,0,0,0,0,0,0,0,-1,1518,918,0,0
301,106,0,0,0,0,0,0,0,0,0,-1,1525,918,0,0
308,106,0,0,0,0,0,0,0,0,0,-1,1532,918,0,0
315,106,0,0,0,0,0,0,0,0,0,-1,1539,918,0,0
322,106,0,0,0,0,0,0,0,0,0,-1,1546,918,0,0
329,106,0,0,0,0,0,0,0,0,0,-1,1553,918,0,0
336,106,0,0,0,0,0,0,0,0,0,-1,1560,918,0,0
343,106,0,0,0,0,0,0,0,0,0,-1,1567,918,0,0
350,106,0,0,0,0,0,0,0,0,0,-1,1574,918,0,0
357,106,0,0,0,0,0,0,0,0,0,-1,1581,918,0,0
364,106,0,0,0,0,0,0,0,0,0,-1,1588,918,0,0
371,106,0,0,0,0,0,0,0,0,0,-1,1595,918,0,0
378,106,0,0,0,0,0,0,0,0,0,-1,1602,918,0,0
385,106,0,0,0,0,0,0,0,0,0,-1,1609,918,0,0
392,106,0,0,0,0,0,0,0,0,0,-1,1616,918,0,0
399,106,0,0,0,0,0,0,0,0,0,-1,1623,918,0,0
406,106,0,0,0,0,0,0,0,0,0,-1,1630,918,0,0
413,106,0,0,0,0,0,0,0,0,0,-1,1637,918,0,0
420,106,0,0,0,0,0,0,0,0,0,-1,1644,918,0,0
427,106,0,0,0,0,0,0,0,0,0,-1,1651,918,0,0
434,106,0,0,0,0,0,0,0,0,0,-1,1658,918,0,0
441,106,0,0,0,0,0,0,0,0,0,-1,1665,918,0,0
448,106,0,0,0,0,0,0,0,0,0,-1,1672,918,0,0
455,106,0,0,0,0,0,0,0,0,0,-1,1679,918,0,0
462,106,0,0,0,0,0,0,0,0,0,-1,1686,918,0,0
469,106,0,0,0,0,0,0,0,0,0,-1,1693,918,0,0
476,106,0,0,0,0,0,0,0,0,0,-1,1700,918,0,0
483,106,0,0,0,0,0,0,0,0,0,-1,1707,918,0,0
490,106,0,0,0,0,0,0,0,0,0,-1,1714,918,0,0
497,106,0,0,0,0,0,0,0,0,0,-1,1721,918,0,0
504,106,0,0,0,0,0,0,0,0,0,-1,1728,918,0,0
511,106,0,0,0,0,0,0,0,0,0,-1,1735,918,0,0
518,106,0,0,0,0,0,0,0,0,0,-1,1742,918,0,0
525,106,0,0,0,0,0,0,0,0,0,-1,1749,918,0,0
532,106,0,0,0,0,0,0,0,0,0,-1,1756,918,0,0
539,106,0,0,0,0,0,0,0,0,0,-1,1763,918,0,0
546,106,0,0,0,0,0,0,0,0,0,-1,1770,918,0,0
553,106,0,0,0,0,0,0,0,0,0,-1,1777,918,0,0
560,106,0,0,0,0,0,0,0,0,0,-1,1784,918,0,0
567,106,0,0,0,0,0,0,0,0,0,-1,1791,918,0,0
574,106,0,0,0,0,0,0,0,0,0,-1,1798,918,0,0
581,106,0,0,0,0,0,0,0,0,0,-1,1805,918,0,0
588,106,0,0,0,0,0,0,0,0,0,-1,1812,918,0,0
595,106,0,0,0,0,0,0,0,0,0,-1,1819,918,0,0
602,106,0,0,0,0,0,0,0,0,0,-1,1826,918,0,0
609,106,0,0,0,0,0,0,0,0,0,-1,1833,918,0,0
616,106,0,0,0,0,0,0,0,0,0,-1,1840,918,0,0
623,106,0,0,0,0,0,0,0,0,0,-1,1847,918,0,0
630,106,24.3749,2.73279,0.00647777,0.0047539,-0.00215095,0.00793306,0.00329862,-0.594834,0.00460174,0.0384564,1854,918,24.3749,-2.7328
637,106,24.316,3.12549,0.0047887,0.00332992,-0.000921353,0.00523443,0.00288419,-0.450582,0.00302734,0.0395678,1861,918,24.3161,-3.12549
644,106,24.5493,2.8927,0.00358755,0.00228902,0.00016894,0.00360917,0.0022674,0.127278,0.00210648,0.0383915,1868,918,24.5493,-2.89269
651,106,24.4608,2.6994,0.00109473,0.00181445,0.000712061,0.00225241,0.000656758,1.01937,0.00133756,0.0407611,1875,918,24.4608,-2.69938
658,106,24.2648,2.87762,-0.00207481,0.00169582,0.00105253,0.00196973,-0.00234871,1.31621,0.00249645,0.0436083,1882,918,24.2648,-2.87763
665,106,24.2982,2.86597,-0.00518143,0.00164981,0.00119184,0.00185178,-0.00538339,1.40293,0.00433994,0.0445026,1889,918,24.2982,-2.86595
672,106,24.3495,2.87872,-0.0075933,0.00162068,0.00120796,0.00177641,-0.00774903,1.44258,0.00584878,0.0423974,1896,918,24.3494,-2.87875
679,106,24.3579,2.86237,-0.0093758,0.00150587,0.00116432,0.00162906,-0.00949899,1.46539,0.00693971,0.0345276,1903,918,24.3579,-2.86234
686,106,24.2856,2.83582,-0.0105708,0.0013791,0.00108384,0.00147661,-0.0106683,1.48107,0.00765206,0.0264962,1910,918,24.2856,-2.8358
693,106,24.1113,2.98248,-0.0112608,0.00127551,0.000998171,0.00135449,-0.0113398,1.49184,0.00804942,0.0219726,1917,918,24.1113,-2.9825
700,106,24.0186,3.22076,0,0,0,0,0,0,0,-1,1924,918,24.0185,-3.22079
707,106,22.2012,3.24036,-0.0109582,0.0013024,0.000612211,0.00133289,-0.0109887,1.52103,0.00780808,0.0422337,1931,918,22.2012,-3.24039
714,106,21.998,3.4798,-0.00997943,0.00131504,0.00031204,0.00132365,-0.00998805,1.5432,0.00714093,0.0203537,1938,918,21.998,-3.47977
721,106,22.038,3.68237,-0.0082721,0.00153113,0.000537915,0.00156056,-0.00830153,1.51614,0.00612121,0.016946,1945,918,22.038,-3.68236
728,106,22.0686,3.89825,-0.00612768,0.00213532,0.000942431,0.00224144,-0.00623381,1.45866,0.00507093,0.0156366,1952,918,22.0686,-3.89826
735,106,22.0632,4.08569,-0.00307913,0.00307752,0.00132626,0.00335107,-0.00335268,1.36739,0.00387041,0.0150183,1959,918,22.0633,-4.08568
742,106,22.0309,4.24615,0.000705108,0.00403069,0.00201811,0.00498279,-0.000246993,1.12998,0.00340717,0.0113207,1966,918,22.0309,-4.24618
749,106,22.0109,4.40289,0.00507889,0.00560028,0.00301146,0.0083623,0.00231687,0.828574,0.00498538,0.00856447,1973,918,22.0109,-4.4029
756,106,21.9982,4.56708,0.00950318,0.0088983,0.00420564,0.0134172,0.00498424,0.749503,0.00783128,0.00932883,1980,918,21.9982,-4.56707
763,106,21.9492,4.76782,0.014347,0.0125847,0.00584681,0.0193787,0.00755303,0.710606,0.0112786,0.0169159,1987,918,21.9492,-4.76782
770,106,21.8868,4.95825,0.0195498,0.0171085,0.00767456,0.0261002,0.0105581,0.706531,0.0151603,0.0374445,1994,918,21.8869,-4.95826
777,106,21.8362,5.14484,0,0,0,0,0,0,0,-1,2001,918,21.8362,-5.14484
784,106,22.2662,5.84039,0.0324787,0.0294316,0.0116349,0.0426894,0.0192209,0.720294,0.0246874,0.0451275,2008,918,22.2663,-5.84036
791,106,22.4572,6.30823,0.0399211,0.0377762,0.0133153,0.0522071,0.0254902,0.745214,0.0301445,0.0452264,2015,918,22.4571,-6.30823
798,106,22.9629,6.61163,0.0473771,0.0482118,0.0143522,0.0621528,0.0334362,0.799935,0.0359184,0.0439487,2022,918,22.9629,-6.61161
805,106,0,0,0,0,0,0,0,0,0,-1,2029,918,0,0
812,106,0,0,0,0,0,0,0,0,0,-1,2036,918,0,0
-700,99,0,0,0,0,0,0,0,0,0,-1,524,925,0,0
-693,99,0,0,0,0,0,0,0,0,0,-1,531,925,0,0
-686,99,0,0,0,0,0,0,0,0,0,-1,538,925,0,0
-679,99,-17.8129,-1.04657,0,0,0,0,0,0,0,-1,545,925,-17.8129,1.04658
-672,99,-16.7991,-0.222778,0.0651656,-0.00638419,0.0686515,0.106804,-0.048023,0.545203,0.0915119,0.0433019,552,925,-16.7991,0.222782
-665,99,-16.3536,0.971436,0.0528086,-0.00321989,0.0547132,0.0862625,-0.0366738,0.54879,0.0728766,0.0468654,559,925,-16.3536,-0.971436
-658,99,-16.0623,1.81506,0.0416705,-0.000961813,0.0427,0.0680793,-0.0273706,0.553891,0.0567541,0.044401,566,925,-16.0623,-1.81506
-651,99,-15.5183,2.56854,0,0,0,0,0,0,0,-1,573,925,-15.5183,-2.56855
-644,99,-15.4266,2.47449,0.0236306,0.00127413,0.0242226,0.0391298,-0.0142251,0.569219,0.0319034,0.0444711,580,925,-15.4266,-2.47447
-637,99,-15.3474,2.39893,0.0167472,0.00150972,0.0174346,0.0281551,-0.00989813,0.579407,0.0227973,0.0275407,587,925,-15.3474,-2.39893
-630,99,-15.3826,2.25629,0.0108005,0.00201418,0.0115214,0.0187379,-0.00592325,0.603256,0.0148651,0.013451,594,925,-15.3826,-2.25626
-623,99,-15.4344,2.091,0.00578401,0.00232499,0.00732807,0.0115839,-0.00347489,0.669513,0.00910468,0.00843298,601,925,-15.4344,-2.09102
-616,99,-15.4458,1.94214,0.00130419,0.00109011,0.00455117,0.00574958,-0.00335528,0.773641,0.00531693,0.00948636,608,925,-15.4458,-1.94213
-609,99,-15.4476,1.78406,-0.00214751,0.000491275,0.00252863,0.00202403,-0.00368027,1.02586,0.00333933,0.0102225,615,925,-15.4476,-1.78405
-602,99,-15.4448,1.6427,-0.00469557,1.61017e-05,0.00145334,0.000428329,-0.00510779,1.29441,0.00355658,0.0114564,622,925,-15.4448,-1.64268
-595,99,-15.4963,1.51764,-0.00624326,-0.000185202,0.00114719,2.47601e-05,-0.00645322,1.38978,0.00431042,0.0146888,629,925,-15.4963,-1.51765
-588,99,-15.4675,1.3537,-0.00709581,-0.000347032,0.00103676,-0.000191354,-0.00725148,1.42175,0.00477182,0.0146843,636,925,-15.4675,-1.35372
-581,99,-15.3738,1.15466,-0.00778201,-0.000250163,0.000915775,-0.000140416,-0.00789175,1.45152,0.00521499,0.0111576,643,925,-15.3739,-1.15465
-574,99,-15.533,0.982544,-0.0081782,-0.000272568,0.000835091,-0.000185318,-0.00826545,1.46669,0.00544958,0.0197526,650,925,-15.533,-0.982555
-567,99,-16.1316,0.701721,-0.00826646,-0.00010255,0.000928363,1.68756e-06,-0.0083707,1.45898,0.00558103,0.0455561,657,925,-16.1316,-0.701696
-560,99,-16.65,0.423157,0,0,0,0,0,0,0,-1,664,925,-16.65,-0.423185
-553,99,-16.7942,0.959412,-0.00738859,0.00043739,0.00123335,0.000627161,-0.00757836,1.41813,0.00527374,0.0378253,671,925,-16.7942,-0.959392
-546,99,-16.6656,1.04419,-0.00638887,0.000970128,0.00136479,0.00121509,-0.00663383,1.3932,0.00487828,0.0429295,678,925,-16.6656,-1.04421
-539,99,-16.5383,1.29022,-0.00502152,0.00172869,0.00147944,0.0020387,-0.00533153,1.36424,0.00439448,0.0430944,685,925,-16.5384,-1.29024
-532,99,-16.6909,1.36627,-0.0034437,0.00277575,0.00157761,0.00315304,-0.00382098,1.33606,0.0040326,0.0441487,692,925,-16.6909,-1.36625
-525,99,-16.8237,1.25116,-0.00202432,0.00423235,0.00159589,0.0046159,-0.00240787,1.33493,0.00412143,0.0422501,699,925,-16.8237,-1.25113
-518,99,-16.8423,1.16199,-0.00232155,0.00636906,0.001722,0.00669783,-0.00265032,1.38214,0.00556324,0.0406643,706,925,-16.8423,-1.16196
-511,99,0,0,0,0,0,0,0,0,0,-1,713,925,0,0
-504,99,0,0,0,0,0,0,0,0,0,-1,720,925,0,0
-497,99,0,0,0,0,0,0,0,0,0,-1,727,925,0,0
-490,99,0,0,0,0,0,0,0,0,0,-1,734,925,0,0
-483,99,0,0,0,0,0,0,0,0,0,-1,741,925,0,0
-476,99,0,0,0,0,0,0,0,0,0,-1,748,925,0,0
-469,99,0,0,0,0,0,0,0,0,0,-1,755,925,0,0
-462,99,0,0,0,0,0,0,0,0,0,-1,762,925,0,0
-455,99,0,0,0,0,0,0,0,0,0,-1,769,925,0,0
-448,99,0,0,0,0,0,0,0,0,0,-1,776,925,0,0
-441,99,0,0,0,0,0,0,0,0,0,-1,783,925,0,0
-434,99,0,0,0,0,0,0,0,0,0,-1,790,925,0,0
-427,99,0,0,0,0,0,0,0,0,0,-1,797,925,0,0
-420,99,0,0,0,0,0,0,0,0,0,-1,804,925,0,0
-413,99,0,0,0,0,0,0,0,0,0,-1,811,925,0,0
-406,99,0,0,0,0,0,0,0,0,0,-1,818,925,0,0
-399,99,0,0,0,0,0,0,0,0,0,-1,825,925,0,0
-392,99,0,0,0,0,0,0,0,0,0,-1,832,925,0,0
-385,99,0,0,0,0,0,0,0,0,0,-1,839,925,0,0
-378,99,0,0,0,0,0,0,0,0,0,-1,846,925,0,0
-371,99,0,0,0,0,0,0,0,0,0,-1,853,925,0,0
-364,99,0,0,0,0,0,0,0,0,0,-1,860,925,0,0
-357,99,0,0,0,0,0,0,0,0,0,-1,867,925,0,0
-350,99,0,0,0,0,0,0,0,0,0,-1,874,925,0,0
-343,99,0,0,0,0,0,0,0,0,0,-1,881,925,0,0
-336,99,0,0,0,0,0,0,0,0,0,-1,888,925,0,0
-329,99,0,0,0,0,0,0,0,0,0,-1,895,925,0,0
-322,99,0,0,0,0,0,0,0,0,0,-1,902,925,0,0
-315,99,0,0,0,0,0,0,0,0,0,-1,909,925,0,0
-308,99,0,0,0,0,0,0,0,0,0,-1,916,925,0,0
-301,99,0,0,0,0,0,0,0,0,0,-1,923,925,0,0
-294,99,0,0,0,0,0,0,0,0,0,-1,930,925,0,0
-287,99,0,0,0,0,0,0,0,0,0,-1,937,925,0,0
-280,99,0,0,0,0,0,0,0,0,0,-1,944,925,0,0
-273,99,0,0,0,0,0,0,0,0,0,-1,951,925,0,0
-266,99,0,0,0,0,0,0,0,0,0,-1,958,925,0,0
-259,99,0,0,0,0,0,0,0,0,0,-1,965,925,0,0
-252,99,0,0,0,0,0,0,0,0,0,-1,972,925,0,0
-245,99,0,0,0,0,0,0,0,0,0,-1,979,925,0,0
-238,99,0,0,0,0,0,0,0,0,0,-1,986,925,0,0
-231,99,0,0,0,0,0,0,0,0,0,-1,993,925,0,0
-224,99,0,0,0,0,0,0,0,0,0,-1,1000,925,0,0
-217,99,0,0,0,0,0,0,0,0,0,-1,1007,925,0,0
-210,99,0,0,0,0,0,0,0,0,0,-1,1014,925,0,0
-203,99,0,0,0,0,0,0,0,0,0,-1,1021,925,0,0
-196,99,0,0,0,0,0,0,0,0,0,-1,1028,925,0,0
-189,99,0,0,0,0,0,0,0,0,0,-1,1035,925,0,0
-182,99,0,0,0,0,0,0,0,0,0,-1,1042,925,0,0
-175,99,0,0,0,0,0,0,0,0,0,-1,1049,925,0,0
-168,99,0,0,0,0,0,0,0,0,0,-1,1056,925,0,0
-161,99,0,0,0,0,0,0,0,0,0,-1,1063,925,0,0
-154,99,0,0,0,0,0,0,0,0,0,-1,1070,925,0,0
-147,99,0,0,0,0,0,0,0,0,0,-1,1077,925,0,0
-140,99,0,0,0,0,0,0,0,0,0,-1,1084,925,0,0
-133,99,0,0,0,0,0,0,0,0,0,-1,1091,925,0,0
-126,99,0,0,0,0,0,0,0,0,0,-1,1098,925,0,0
-119,99,0,0,0,0,0,0,0,0,0,-1,1105,925,0,0
-112,99,0,0,0,0,0,0,0,0,0,-1,1112,925,0,0
-105,99,0,0,0,0,0,0,0,0,0,-1,1119,925,0,0
-98,99,0,0,0,0,0,0,0,0,0,-1,1126,925,0,0
-91,99,0,0,0,0,0,0,0,0,0,-1,1133,925,0,0
-84,99,0,0,0,0,0,0,0,0,0,-1,1140,925,0,0
-77,99,0,0,0,0,0,0,0,0,0,-1,1147,925,0,0
-70,99,0,0,0,0,0,0,0,0,0,-1,1154,925,0,0
-63,99,0,0,0,0,0,0,0,0,0,-1,1161,925,0,0
-56,99,0,0,0,0,0,0,0,0,0,-1,1168,925,0,0
-49,99,0,0,0,0,0,0,0,0,0,-1,1175,925,0,0
-42,99,0,0,0,0,0,0,0,0,0,-1,1182,925,0,0
-35,99,0,0,0,0,0,0,0,0,0,-1,1189,925,0,0
-28,99,0,0,0,0,0,0,0,0,0,-1,1196,925,0,0
-21,99,0,0,0,0,0,0,0,0,0,-1,1203,925,0,0
-14,99,0,0,0,0,0,0,0,0,0,-1,1210,925,0,0
-7,99,0,0,0,0,0,0,0,0,0,-1,1217,925,0,0
0,99,0,0,0,0,0,0,0,0,0,-1,1224,925,0,0
7,99,0,0,0,0,0,0,0,0,0,-1,1231,925,0,0
14,99,0,0,0,0,0,0,0,0,0,-1,1238,925,0,0
21,99,0,0,0,0,0,0,0,0,0,-1,1245,925,0,0
28,99,0,0,0,0,0,0,0,0,0,-1,1252,925,0,0
35,99,0,0,0,0,0,0,0,0,0,-1,1259,925,0,0
42,99,0,0,0,0,0,0,0,0,0,-1,1266,925,0,0
49,99,0,0,0,0,0,0,0,0,0,-1,1273,925,0,0
56,99,0,0,0,0,0,0,0,0,0,-1,1280,925,0,0
63,99,0,0,0,0,0,0,0,0,0,-1,1287,925,0,0
70,99,0,0,0,0,0,0,0,0,0,-1,1294,925,0,0
77,99,0,0,0,0,0,0,0,0,0,-1,1301,925,0,0
84,99,0,0,0,0,0,0,0,0,0,-1,1308,925,0,0
91,99,0,0,0,0,0,0,0,0,0,-1,1315,925,0,0
98,99,0,0,0,0,0,0,0,0,0,-1,1322,925,0,0
105,99,0,0,0,0,0,0,0,0,0,-1,1329,925,0,0
112,99,0,0,0,0,0,0,0,0,0,-1,1336,925,0,0
119,99,0,0,0,0,0,0,0,0,0,-1,1343,925,0,0
126,99,0,0,0,0,0,0,0,0,0,-1,1350,925,0,0
133,99,0,0,0,0,0,0,0,0,0,-1,1357,925,0,0
140,99,0,0,0,0,0,0,0,0,0,-1,1364,925,0,0
147,99,0,0,0,0,0,0,0,0,0,-1,1371,925,0,0
154,99,0,0,0,0,0,0,0,0,0,-1,1378,925,0,0
161,99,0,0,0,0,0,0,0,0,0,-1,1385,925,0,0
168,99,0,0,0,0,0,0,0,0,0,-1,1392,925,0,0
175,99,0,0,0,0,0,0,0,0,0,-1,1399,925,0,0
182,99,0,0,0,0,0,0,0,0,0,-1,1406,925,0,0
189,99,0,0,0,0,0,0,0,0,0,-1,1413,925,0,0
196,99,0,0,0,0,0,0,0,0,0,-1,1420,925,0,0
203,99,0,0,0,0,0,0,0,0,0,-1,1427,925,0,0
210,99,0,0,0,0,0,0,0,0,0,-1,1434,925,0,0
217,99,0,0,0,0,0,0,0,0,0,-1,1441,925,0,0
224,99,0,0,0,0,0,0,0,0,0,-1,1448,925,0,0
231,99,0,0,0,0,0,0,0,0,0,-1,1455,925,0,0
238,99,0,0,0,0,0,0,0,0,0,-1,1462,925,0,0
245,99,0,0,0,0,0,0,0,0,0,-1,1469,925,0,0
252,99,0,0,0,0,0,0,0,0,0,-1,1476,925,0,0
259,99,0,0,0,0,0,0,0,0,0,-1,1483,925,0,0
266,99,0,0,0,0,0,0,0,0,0,-1,1490,925,0,0
273,99,0,0,0,0,0,0,0,0,0,-1,1497,925,0,0
280,99,0,0,0,0,0,0,0,0,0,-1,1504,925,0,0
287,99,0,0,0,0,0,0,0,0,0,-1,1511,925,0,0
294,99,0,0,0,0,0,0,0,0,0,-1,1518,925,0,0
301,99,0,0,0,0,0,0,0,0,0,-1,1525,925,0,0
308,99,0,0,0,0,0,0,0,0,0,-1,1532,925,0,0
315,99,0,0,0,0,0,0,0,0,0,-1,1539,925,0,0
322,99,0,0,0,0,0,0,0,0,0,-1,1546,925,0,0
329,99,0,0,0,0,0,0,0,0,0,-1,1553,925,0,0
336,99,0,0,0,0,0,0,0,0,0,-1,1560,925,0,0
343,99,0,0,0,0,0,0,0,0,0,-1,1567,925,0,0
350,99,0,0,0,0,0,0,0,0,0,-1,1574,925,0,0
357,99,0,0,0,0,0,0,0,0,0,-1,1581,925,0,0
364,99,0,0,0,0,0,0,0,0,0,-1,1588,925,0,0
371,99,0,0,0,0,0,0,0,0,0,-1,1595,925,0,0
378,99,0,0,0,0,0,0,0,0,0,-1,1602,925,0,0
385,99,0,0,0,0,0,0,0,0,0,-1,1609,925,0,0
392,99,0,0,0,0,0,0,0,0,0,-1,1616,925,0,0
399,99,0,0,0,0,0,0,0,0,0,-1,1623,925,0,0
406,99,0,0,0,0,0,0,0,0,0,-1,1630,925,0,0
413,99,0,0,0,0,0,0,0,0,0,-1,1637,925,0,0
420,99,0,0,0,0,0,0,0,0,0,-1,1644,925,0,0
427,99,0,0,0,0,0,0,0,0,0,-1,1651,925,0,0
434,99,0,0,0,0,0,0,0,0,0,-1,1658,925,0,0
441,99,0,0,0,0,0,0,0,0,0,-1,1665,925,0,0
448,99,0,0,0,0,0,0,0,0,0,-1,1672,925,0,0
455,99,0,0,0,0,0,0,0,0,0,-1,1679,925,0,0
462,99,0,0,0,0,0,0,0,0,0,-1,1686,925,0,0
469,99,0,0,0,0,0,0,0,0,0,-1,1693,925,0,0
476,99,0,0,0,0,0,0,0,0,0,-1,1700,925,0,0
483,99,0,0,0,0,0,0,0,0,0,-1,1707,925,0,0
490,99,0,0,0,0,0,0,0,0,0,-1,1714,925,0,0
497,99,0,0,0,0,0,0,0,0,0,-1,1721,925,0,0
504,99,0,0,0,0,0,0,0,0,0,-1,1728,925,0,0
511,99,0,0,0,0,0,0,0,0,0,-1,1735,925,0,0
518,99,0,0,0,0,0,0,0,0,0,-1,1742,925,0,0
525,99,0,0,0,0,0,0,0,0,0,-1,1749,925,0,0
532,99,0,0,0,0,0,0,0,0,0,-1,1756,925,0,0
539,99,0,0,0,0,0,0,0,0,0,-1,1763,925,0,0
546,99,0,0,0,0,0,0,0,0,0,-1,1770,925,0,0
553,99,0,0,0,0,0,0,0,0,0,-1,1777,925,0,0
560,99,0,0,0,0,0,0,0,0,0,-1,1784,925,0,0
567,99,0,0,0,0,0,0,0,0,0,-1,1791,925,0,0
574,99,0,0,0,0,0,0,0,0,0,-1,1798,925,0,0
581,99,0,0,0,0,0,0,0,0,0,-1,1805,925,0,0
588,99,0,0,0,0,0,0,0,0,0,-1,1812,925,0,0
595,99,0,0,0,0,0,0,0,0,0,-1,1819,925,0,0
602,99,0,0,0,0,0,0,0,0,0,-1,1826,925,0,0
609,99,0,0,0,0,0,0,0,0,0,-1,1833,925,0,0
616,99,0,0,0,0,0,0,0,0,0,-1,1840,925,0,0
623,99,0,0,0,0,0,0,0,0,0,-1,1847,925,0,0
630,99,0,0,0,0,0,0,0,0,0,-1,1854,925,0,0
637,99,24.2479,2.95209,0.00424305,0.00178513,-0.000773065,0.00446597,0.0015622,-0.280749,0.00261692,0.0407156,1861,925,24.2479,-2.95206
644,99,24.478,2.92664,0.00331939,0.000981586,0.000479546,0.00341394,0.000887042,0.194657,0.00204543,0.0374162,1868,925,24.478,-2.92661
651,99,24.2605,2.75391,0.00118208,0.00076282,0.00108878,0.00208123,-0.000136322,0.690292,0.00143508,0.0377656,1875,925,24.2604,-2.75388
658,99,24.2455,2.86084,-0.0017283,0.000969981,0.00151375,0.00164855,-0.00240688,1.14938,0.00235501,0.0396937,1882,925,24.2455,-2.86083
665,99,24.224,2.94806,-0.00483864,0.0012589,0.00172164,0.00171142,-0.00529116,1.31377,0.00421535,0.0416029,1889,925,24.224,-2.94804
672,99,24.2352,2.99438,-0.00738968,0.00148874,0.00178649,0.00183473,-0.00773566,1.3795,0.00586513,0.041918,1896,925,24.2352,-2.9944
679,99,24.3588,2.85864,-0.00932977,0.00156925,0.00176664,0.00184846,-0.00960897,1.41405,0.00710277,0.0366721,1903,925,24.3587,-2.85862
686,99,24.2896,2.78436,-0.0106458,0.00156593,0.00167509,0.00179153,-0.0108714,1.43692,0.00791267,0.0277099,1910,925,24.2896,-2.78437
693,99,24.1829,2.9375,-0.0114163,0.00158727,0.00158911,0.00177865,-0.0116077,1.45094,0.00839441,0.0219414,1917,925,24.1828,-2.93747
700,99,24.0316,3.16058,-0.011588,0.00176611,0.00149313,0.00193102,-0.0117529,1.4608,0.00855194,0.0499618,1924,925,24.0316,-3.16059
707,99,22.6779,3.27649,-0.0112636,0.00171892,0.00114007,0.00181827,-0.011363,1.48387,0.00824849,0.04569,1931,925,22.6778,-3.27652
714,99,22.2603,3.51727,-0.0104174,0.00174932,0.000766088,0.00179737,-0.0104654,1.50816,0.00764681,0.0210835,1938,925,22.2603,-3.5173
721,99,22.2104,3.68311,-0.00888648,0.00198785,0.000885563,0.0020595,-0.00895812,1.49007,0.00676392,0.0194237,1945,925,22.2104,-3.68308
728,99,22.2474,3.87976,-0.00701761,0.00243032,0.00118278,0.00257614,-0.00716343,1.44813,0.00582734,0.015067,1952,925,22.2474,-3.87979
735,99,22.2347,4.06537,-0.00444326,0.00309854,0.00142046,0.0033572,-0.00470193,1.39067,0.00467448,0.0142645,1959,925,22.2347,-4.06539
742,99,22.2122,4.22729,-0.00131269,0.00381785,0.00190576,0.00444828,-0.00194313,1.25132,0.00378339,0.0122753,1966,925,22.2122,-4.2273
749,99,22.1763,4.3808,0.00224664,0.00496229,0.00267621,0.00660542,0.0006035,1.02016,0.00421687,0.0102559,1973,925,22.1763,-4.38081
756,99,22.1625,4.52307,0.00564369,0.00769649,0.00368763,0.0104979,0.00284228,0.921131,0.00626973,0.0111321,1980,925,22.1625,-4.52308
763,99,22.157,4.68347,0.00925169,0.0107082,0.00517806,0.015209,0.00475093,0.855262,0.00898461,0.0137617,1987,925,22.1569,-4.68345
770,99,22.1864,4.91284,0.0128077,0.0144551,0.0069298,0.02061,0.00665285,0.844552,0.0121457,0.0265364,1994,925,22.1864,-4.91281
777,99,22.3167,5.33728,0.0167774,0.0190374,0.00888269,0.0268617,0.00895314,0.848666,0.0157933,0.0397054,2001,925,22.3166,-5.33728
784,99,22.4022,5.80859,0.0212098,0.0247092,0.0109585,0.0340568,0.0118622,0.864564,0.0199621,0.0413895,2008,925,22.4022,-5.80858
791,99,22.584,6.2309,0.0259287,0.0318374,0.0129202,0.0421367,0.0156294,0.897797,0.0245964,0.044455,2015,925,22.584,-6.23092
798,99,22.4968,7.71997,0,0,0,0,0,0,0,-1,2022,925,22.4968,-7.71997
805,99,0,0,0,0,0,0,0,0,0,-1,2029,925,0,0
812,99,0,0,0,0,0,0,0,0,0,-1,2036,925,0,0
-700,92,0,0,0,0,0,0,0,0,0,-1,524,932,0,0
-693,92,0,0,0,0,0,0,0,0,0,-1,531,932,0,0
-686,92,-16.4812,-0.613525,0,0,0,0,0,0,0,-1,538,932,-16.4812,0.61352
-679,92,-16.6418,-0.994324,0,0,0,0,0,0,0,-1,545,932,-16.6418,0.994295
-672,92,-16.7582,-0.847534,0,0,0,0,0,0,0,-1,552,932,-16.7583,0.847543
-665,92,-16.4335,0.816772,0,0,0,0,0,0,0,-1,559,932,-16.4335,-0.816783
-658,92,-15.9453,1.9577,0.0413992,-0.00309868,0.0434173,0.0679363,-0.0296357,0.548621,0.0577618,0.0436914,566,932,-15.9453,-1.95772
-651,92,-15.3942,2.12494,0.0315883,-0.000988909,0.0328943,0.052006,-0.0214066,0.555506,0.0435948,0.0476037,573,932,-15.3942,-2.12493
-644,92,-15.574,2.34735,0.0232467,0.000355092,0.0242315,0.0385996,-0.0149978,0.564755,0.0319289,0.044019,580,932,-15.5739,-2.34733
-637,92,-15.5309,2.34924,0.0163227,0.00098122,0.0170253,0.0273255,-0.0100216,0.573742,0.0223205,0.0248118,587,932,-15.5309,-2.34923
-630,92,-15.5584,2.21747,0.0101949,0.00181176,0.0110014,0.0177761,-0.0057695,0.603387,0.014171,0.0123085,594,932,-15.5584,-2.21748
-623,92,-15.6015,2.07434,0.00508798,0.00247722,0.00662853,0.0105384,-0.00297324,0.688176,0.00819843,0.00851693,601,932,-15.6015,-2.07437
-616,92,-15.6113,1.92438,0.000848247,0.00132726,0.00402163,0.00511651,-0.002941,0.81514,0.00470819,0.00804456,608,932,-15.6113,-1.92439
-609,92,-15.6205,1.78473,-0.00245324,0.000801569,0.00211456,0.00184246,-0.00349413,1.11337,0.00312988,0.00846526,615,932,-15.6205,-1.78472
-602,92,-15.5985,1.63141,-0.00490689,0.000382254,0.00100734,0.000567611,-0.00509225,1.38883,0.00359899,0.00940035,622,932,-15.5985,-1.6314
-595,92,-15.5572,1.47583,-0.00637723,0.000187422,0.000656671,0.000252465,-0.00644227,1.47207,0.00438143,0.0159039,629,932,-15.5572,-1.47583
-588,92,-15.5467,1.33685,-0.00710725,4.96441e-05,0.000524377,8.78605e-05,-0.00714547,1.49805,0.0047932,0.0170315,636,932,-15.5467,-1.33683
-581,92,-15.5328,1.17828,-0.0077017,0.000142805,0.000371515,0.00016036,-0.00771926,1.52358,0.00520045,0.0149991,643,932,-15.5328,-1.17826
-574,92,-15.842,1.05292,-0.00807853,0.000139581,0.000290512,0.000149838,-0.00808879,1.5355,0.00544316,0.0256236,650,932,-15.842,-1.05289
-567,92,-16.415,0.671143,-0.00814569,0.000408332,0.000365462,0.000423918,-0.00816127,1.52818,0.00558752,0.0460741,657,932,-16.415,-0.671119
-560,92,-16.6622,0.807068,-0.00781232,0.000664674,0.000480594,0.000691834,-0.00783948,1.51434,0.00547153,0.0362517,664,932,-16.6622,-0.807087
-553,92,-16.9253,0.842651,-0.00712773,0.00107084,0.000606617,0.00111549,-0.00717237,1.49734,0.0051935,0.0421849,671,932,-16.9253,-0.842663
-546,92,-16.824,0.967346,-0.00607474,0.00164042,0.000755547,0.00171372,-0.00614804,1.47409,0.00477359,0.0423271,678,932,-16.824,-0.967362
-539,92,-16.662,1.08746,-0.00473369,0.00241252,0.000921894,0.00252953,-0.0048507,1.44455,0.00433066,0.0389366,685,932,-16.662,-1.08746
-532,92,-16.715,0.960999,-0.00331859,0.00344582,0.0010918,0.00361768,-0.00349044,1.41467,0.00410409,0.0420925,692,932,-16.715,-0.961028
-525,92,-16.9039,1.06372,-0.00244683,0.00489214,0.00117327,0.00507514,-0.00262983,1.41606,0.00452253,0.0402529,699,932,-16.9039,-1.06374
-518,92,-17.0151,1.4754,-0.00406204,0.00700855,0.00140276,0.00718353,-0.00423702,1.4467,0.0066664,0.041126,706,932,-17.0151,-1.47539
-511,92,0,0,0,0,0,0,0,0,0,-1,713,932,0,0
-504,92,0,0,0,0,0,0,0,0,0,-1,720,932,0,0
-497,92,0,0,0,0,0,0,0,0,0,-1,727,932,0,0
-490,92,0,0,0,0,0,0,0,0,0,-1,734,932,0,0
-483,92,0,0,0,0,0,0,0,0,0,-1,741,932,0,0
-476,92,0,0,0,0,0,0,0,0,0,-1,748,932,0,0
-469,92,0,0,0,0,0,0,0,0,0,-1,755,932,0,0
-462,92,0,0,0,0,0,0,0,0,0,-1,762,932,0,0
-455,92,0,0,0,0,0,0,0,0,0,-1,769,932,0,0
-448,92,0,0,0,0,0,0,0,0,0,-1,776,932,0,0
-441,92,0,0,0,0,0,0,0,0,0,-1,783,932,0,0
-434,92,0,0,0,0,0,0,0,0,0,-1,790,932,0,0
-427,92,0,0,0,0,0,0,0,0,0,-1,797,932,0,0
-420,92,0,0,0,0,0,0,0,0,0,-1,804,932,0,0
-413,92,0,0,0,0,0,0,0,0,0,-1,811,932,0,0
-406,92,0,0,0,0,0,0,0,0,0,-1,818,932,0,0
-399,92,0,0,0,0,0,0,0,0,0,-1,825,932,0,0
-392,92,0,0,0,0,0,0,0,0,0,-1,832,932,0,0
-385,92,0,0,0,0,0,0,0,0,0,-1,839,932,0,0
-378,92,0,0,0,0,0,0,0,0,0,-1,846,932,0,0
-371,92,0,0,0,0,0,0,0,0,0,-1,853,932,0,0
-364,92,0,0,0,0,0,0,0,0,0,-1,860,932,0,0
-357,92,0,0,0,0,0,0,0,0,0,-1,867,932,0,0
-350,92,0,0,0,0,0,0,0,0,0,-1,874,932,0,0
-343,92,0,0,0,0,0,0,0,0,0,-1,881,932,0,0
-336,92,0,0,0,0,0,0,0,0,0,-1,888,932,0,0
-329,92,0,0,0,0,0,0,0,0,0,-1,895,932,0,0
-322,92,0,0,0,0,0,0,0,0,0,-1,902,932,0,0
-315,92,0,0,0,0,0,0,0,0,0,-1,909,932,0,0
-308,92,0,0,0,0,0,0,0,0,0,-1,916,932,0,0
-301,92,0,0,0,0,0,0,0,0,0,-1,923,932,0,0
-294,92,0,0,0,0,0,0,0,0,0,-1,930,932,0,0
-287,92,0,0,0,0,0,0,0,0,0,-1,937,932,0,0
-280,92,0,0,0,0,0,0,0,0,0,-1,944,932,0,0
-273,92,0,0,0,0,0,0,0,0,0,-1,951,932,0,0
-266,92,0,0,0,0,0,0,0,0,0,-1,958,932,0,0
-259,92,0,0,0,0,0,0,0,0,0,-1,965,932,0,0
-252,92,0,0,0,0,0,0,0,0,0,-1,972,932,0,0
-245,92,0,0,0,0,0,0,0,0,0,-1,979,932,0,0
-238,92,0,0,0,0,0,0,0,0,0,-1,986,932,0,0
-231,92,0,0,0,0,0,0,0,0,0,-1,993,932,0,0
-224,92,0,0,0,0,0,0,0,0,0,-1,1000,932,0,0
-217,92,0,0,0,0,0,0,0,0,0,-1,1007,932,0,0
-210,92,0,0,0,0,0,0,0,0,0,-1,1014,932,0,0
-203,92,0,0,0,0,0,0,0,0,0,-1,1021,932,0,0
-196,92,0,0,0,0,0,0,0,0,0,-1,1028,932,0,0
-189,92,0,0,0,0,0,0,0,0,0,-1,1035,932,0,0
-182,92,0,0,0,0,0,0,0,0,0,-1,1042,932,0,0
-175,92,0,0,0,0,0,0,0,0,0,-1,1049,932,0,0
-168,92,0,0,0,0,0,0,0,0,0,-1,1056,932,0,0
-161,92,0,0,0,0,0,0,0,0,0,-1,1063,932,0,0
-154,92,0,0,0,0,0,0,0,0,0,-1,1070,932,0,0
-147,92,0,0,0,0,0,0,0,0,0,-1,1077,932,0,0
-140,92,0,0,0,0,0,0,0,0,0,-1,1084,932,0,0
-133,92,0,0,0,0,0,0,0,0,0,-1,1091,932,0,0
-126,92,0,0,0,0,0,0,0,0,0,-1,1098,932,0,0
-119,92,0,0,0,0,0,0,0,0,0,-1,1105,932,0,0
-112,92,0,0,0,0,0,0,0,0,0,-1,1112,932,0,0
-105,92,0,0,0,0,0,0,0,0,0,-1,1119,932,0,0
-98,92,0,0,0,0,0,0,0,0,0,-1,1126,932,0,0
-91,92,0,0,0,0,0,0,0,0,0,-1,1133,932,0,0
-84,92,0,0,0,0,0,0,0,0,0,-1,1140,932,0,0
-77,92,0,0,0,0,0,0,0,0,0,-1,1147,932,0,0
-70,92,0,0,0,0,0,0,0,0,0,-1,1154,932,0,0
-63,92,0,0,0,0,0,0,0,0,0,-1,1161,932,0,0
-56,92,0,0,0,0,0,0,0,0,0,-1,1168,932,0,0
-49,92,0,0,0,0,0,0,0,0,0,-1,1175,932,0,0
-42,92,0,0,0,0,0,0,0,0,0,-1,1182,932,0,0
-35,92,0,0,0,0,0,0,0,0,0,-1,1189,932,0,0
-28,92,0,0,0,0,0,0,0,0,0,-1,1196,932,0,0
-21,92,0,0,0,0,0,0,0,0,0,-1,1203,932,0,0
-14,92,0,0,0,0,0,0,0,0,0,-1,1210,932,0,0
-7,92,0,0,0,0,0,0,0,0,0,-1,1217,932,0,0
0,92,0,0,0,0,0,0,0,0,0,-1,1224,932,0,0
7,92,0,0,0,0,0,0,0,0,0,-1,1231,932,0,0
14,92,0,0,0,0,0,0,0,0,0,-1,1238,932,0,0
21,92,0,0,0,0,0,0,0,0,0,-1,1245,932,0,0
28,92,0,0,0,0,0,0,0,0,0,-1,1252,932,0,0
35,92,0,0,0,0,0,0,0,0,0,-1,1259,932,0,0
42,92,0,0,0,0,0,0,0,0,0,-1,1266,932,0,0
49,92,0,0,0,0,0,0,0,0,0,-1,1273,932,0,0
56,92,0,0,0,0,0,0,0,0,0,-1,1280,932,0,0
63,92,0,0,0,0,0,0,0,0,0,-1,1287,932,0,0
70,92,0,0,0,0,0,0,0,0,0,-1,1294,932,0,0
77,92,0,0,0,0,0,0,0,0,0,-1,1301,932,0,0
84,92,0,0,0,0,0,0,0,0,0,-1,1308,932,0,0
91,92,0,0,0,0,0,0,0,0,0,-1,1315,932,0,0
98,92,0,0,0,0,0,0,0,0,0,-1,1322,932,0,0
105,92,0,0,0,0,0,0,0,0,0,-1,1329,932,0,0
112,92,0,0,0,0,0,0,0,0,0,-1,1336,932,0,0
119,92,0,0,0,0,0,0,0,0,0,-1,1343,932,0,0
126,92,0,0,0,0,0,0,0,0,0,-1,1350,932,0,0
133,92,0,0,0,0,0,0,0,0,0,-1,1357,932,0,0
140,92,0,0,0,0,0,0,0,0,0,-1,1364,932,0,0
147,92,0,0,0,0,0,0,0,0,0,-1,1371,932,0,0
154,92,0,0,0,0,0,0,0,0,0,-1,1378,932,0,0
161,92,0,0,0,0,0,0,0,0,0,-1,1385,932,0,0
168,92,0,0,0,0,0,0,0,0,0,-1,1392,932,0,0
175,92,0,0,0,0,0,0,0,0,0,-1,1399,932,0,0
182,92,0,0,0,0,0,0,0,0,0,-1,1406,932,0,0
189,92,0,0,0,0,0,0,0,0,0,-1,1413,932,0,0
196,92,0,0,0,0,0,0,0,0,0,-1,1420,932,0,0
203,92,0,0,0,0,0,0,0,0,0,-1,1427,932,0,0
210,92,0,0,0,0,0,0,0,0,0,-1,1434,932,0,0
217,92,0,0,0,0,0,0,0,0,0,-1,1441,932,0,0
224,92,0,0,0,0,0,0,0,0,0,-1,1448,932,0,0
231,92,0,0,0,0,0,0,0,0,0,-1,1455,932,0,0
238,92,0,0,0,0,0,0,0,0,0,-1,1462,932,0,0
245,92,0,0,0,0,0,0,0,0,0,-1,1469,932,0,0
252,92,0,0,0,0,0,0,0,0,0,-1,1476,932,0,0
259,92,0,0,0,0,0,0,0,0,0,-1,1483,932,0,0
266,92,0,0,0,0,0,0,0,0,0,-1,1490,932,0,0
273,92,0,0,0,0,0,0,0,0,0,-1,1497,932,0,0
280,92,0,0,0,0,0,0,0,0,0,-1,1504,932,0,0
287,92,0,0,0,0,0,0,0,0,0,-1,1511,932,0,0
294,92,0,0,0,0,0,0,0,0,0,-1,1518,932,0,0
301,92,0,0,0,0,0,0,0,0,0,-1,1525,932,0,0
308,92,0,0,0,0,0,0,0,0,0,-1,1532,932,0,0
315,92,0,0,0,0,0,0,0,0,0,-1,1539,932,0,0
322,92,0,0,0,0,0,0,0,0,0,-1,1546,932,0,0
329,92,0,0,0,0,0,0,0,0,0,-1,1553,932,0,0
336,92,0,0,0,0,0,0,0,0,0,-1,1560,932,0,0
343,92,0,0,0,0,0,0,0,0,0,-1,1567,932,0,0
350,92,0,0,0,0,0,0,0,0,0,-1,1574,932,0,0
357,92,0,0,0,0,0,0,0,0,0,-1,1581,932,0,0
364,92,0,0,0,0,0,0,0,0,0,-1,1588,932,0,0
371,92,0,0,0,0,0,0,0,0,0,-1,1595,932,0,0
378,92,0,0,0,0,0,0,0,0,0,-1,1602,932,0,0
385,92,0,0,0,0,0,0,0,0,0,-1,1609,932,0,0
392,92,0,0,0,0,0,0,0,0,0,-1,1616,932,0,0
399,92,0,0,0,0,0,0,0,0,0,-1,1623,932,0,0
406,92,0,0,0,0,0,0,0,0,0,-1,1630,932,0,0
413,92,0,0,0,0,0,0,0,0,0,-1,1637,932,0,0
420,92,0,0,0,0,0,0,0,0,0,-1,1644,932,0,0
427,92,0,0,0,0,0,0,0,0,0,-1,1651,932,0,0
434,92,0,0,0,0,0,0,0,0,0,-1,1658,932,0,0
441,92,0,0,0,0,0,0,0,0,0,-1,1665,932,0,0
448,92,0,0,0,0,0,0,0,0,0,-1,1672,932,0,0
455,92,0,0,0,0,0,0,0,0,0,-1,1679,932,0,0
462,92,0,0,0,0,0,0,0,0,0,-1,1686,932,0,0
469,92,0,0,0,0,0,0,0,0,0,-1,1693,932,0,0
476,92,0,0,0,0,0,0,0,0,0,-1,1700,932,0,0
483,92,0,0,0,0,0,0,0,0,0,-1,1707,932,0,0
490,92,0,0,0,0,0,0,0,0,0,-1,1714,932,0,0
497,92,0,0,0,0,0,0,0,0,0,-1,1721,932,0,0
504,92,0,0,0,0,0,0,0,0,0,-1,1728,932,0,0
511,92,0,0,0,0,0,0,0,0,0,-1,1735,932,0,0
518,92,0,0,0,0,0,0,0,0,0,-1,1742,932,0,0
525,92,0,0,0,0,0,0,0,0,0,-1,1749,932,0,0
532,92,0,0,0,0,0,0,0,0,0,-1,1756,932,0,0
539,92,0,0,0,0,0,0,0,0,0,-1,1763,932,0,0
546,92,0,0,0,0,0,0,0,0,0,-1,1770,932,0,0
553,92,0,0,0,0,0,0,0,0,0,-1,1777,932,0,0
560,92,0,0,0,0,0,0,0,0,0,-1,1784,932,0,0
567,92,0,0,0,0,0,0,0,0,0,-1,1791,932,0,0
574,92,0,0,0,0,0,0,0,0,0,-1,1798,932,0,0
581,92,0,0,0,0,0,0,0,0,0,-1,1805,932,0,0
588,92,0,0,0,0,0,0,0,0,0,-1,1812,932,0,0
595,92,0,0,0,0,0,0,0,0,0,-1,1819,932,0,0
602,92,0,0,0,0,0,0,0,0,0,-1,1826,932,0,0
609,92,0,0,0,0,0,0,0,0,0,-1,1833,932,0,0
616,92,0,0,0,0,0,0,0,0,0,-1,1840,932,0,0
623,92,0,0,0,0,0,0,0,0,0,-1,1847,932,0,0
630,92,0,0,0,0,0,0,0,0,0,-1,1854,932,0,0
637,92,24.106,2.78186,0.00326311,-0.000769063,-1.49314e-05,0.00326317,-0.000769118,-0.00370299,0.00247203,0.0448107,1861,932,24.106,-2.78185
644,92,24.2368,2.91162,0.00267408,-0.00101423,0.00119921,0.0030297,-0.00136985,0.288285,0.00259965,0.0385019,1868,932,24.2369,-2.91164
651,92,24.2449,2.76227,0.0010135,-0.000798855,0.00172864,0.00205908,-0.00184443,0.543982,0.00225483,0.0385628,1875,932,24.2449,-2.76225
658,92,24.2415,2.79004,-0.00145809,-0.000169408,0.00211946,0.00140149,-0.00302899,0.932965,0.00261484,0.0404672,1882,932,24.2415,-2.79003
665,92,24.1649,2.93457,-0.00437286,0.000512895,0.00232128,0.00143988,-0.00529984,1.19086,0.00409839,0.0404877,1889,932,24.165,-2.93456
672,92,24.137,2.9765,-0.00692331,0.00105736,0.00238997,0.00171834,-0.00758429,1.30098,0.00571573,0.0415449,1896,932,24.1369,-2.97651
679,92,24.2295,2.83167,-0.00895184,0.00138769,0.00237163,0.00190573,-0.00946988,1.35574,0.00703507,0.0387046,1903,932,24.2295,-2.83164
686,92,24.2323,2.75604,-0.0103568,0.00154174,0.00226278,0.00195753,-0.0107726,1.38907,0.00791536,0.0300621,1910,932,24.2323,-2.75602
693,92,24.2338,2.85876,-0.0112077,0.00169238,0.00217355,0.00204876,-0.0115641,1.40828,0.00847525,0.0247186,1917,932,24.2338,-2.85878
700,92,24.1915,3.02551,-0.0114696,0.00194952,0.00205597,0.00225746,-0.0117775,1.42213,0.00870233,0.0452817,1924,932,24.1916,-3.0255
707,92,23.0793,3.28326,-0.0112701,0.00193218,0.00166193,0.00213818,-0.0114761,1.44748,0.00845405,0.0496014,1931,932,23.0794,-3.28329
714,92,22.4846,3.48114,0,0,0,0,0,0,0,-1,1938,932,22.4846,-3.48117
721,92,22.4443,3.72858,-0.00935265,0.00215204,0.0011611,0.00226805,-0.00946866,1.47121,0.00718872,0.0235757,1945,932,22.4443,-3.72855
728,92,22.3982,3.93597,-0.00783875,0.00231406,0.00129695,0.00247712,-0.00800181,1.44573,0.00632408,0.0173223,1952,932,22.3982,-3.93599
735,92,22.3922,4.07806,-0.00586926,0.00251886,0.00132958,0.00272456,-0.00607497,1.4173,0.00520171,0.0153837,1959,932,22.3922,-4.07805
742,92,22.4185,4.20972,-0.00351339,0.00289216,0.00152772,0.00323786,-0.00385909,1.34826,0.00410266,0.0170777,1966,932,22.4184,-4.2097
749,92,22.3888,4.3808,-0.000943081,0.00352756,0.00194461,0.00425503,-0.00167056,1.21282,0.00352794,0.01517,1973,932,22.3888,-4.38079
756,92,22.338,4.52856,0.00120807,0.0054341,0.00263624,0.00669963,-5.74605e-05,1.12323,0.0044857,0.0141641,1980,932,22.338,-4.52859
763,92,22.3595,4.68951,0.00337174,0.00748827,0.00378265,0.00973638,0.00112363,1.03456,0.00615068,0.0163856,1987,932,22.3595,-4.68954
770,92,22.3805,4.90558,0.00510718,0.0101921,0.0052735,0.0135041,0.00179526,1.01002,0.00846796,0.0251454,1994,932,22.3805,-4.9056
777,92,22.3883,5.36676,0.00687224,0.0136442,0.00704465,0.0180743,0.00244208,1.00942,0.0113237,0.041546,2001,932,22.3883,-5.36675
784,92,22.4343,5.84418,0,0,0,0,0,0,0,-1,2008,932,22.4343,-5.84418
791,92,22.4757,6.54767,0.0106731,0.0240823,0.011235,0.0304612,0.00429425,1.05442,0.0190381,0.0422331,2015,932,22.4758,-6.54769
798,92,22.484,7.19379,0.0121764,0.0322293,0.013431,0.0389635,0.00544217,1.10603,0.0243651,0.0430761,2022,932,22.4841,-7.19378
805,92,0,0,0,0,0,0,0,0,0,-1,2029,932,0,0
812,92,0,0,0,0,0,0,0,0,0,-1,2036,932,0,0
-700,85,0,0,0,0,0,0,0,0,0,-1,524,939,0,0
-693,85,0,0,0,0,0,0,0,0,0,-1,531,939,0,0
-686,85,-17.2968,-0.461975,0.0896872,-0.0206618,0.0990202,0.147867,-0.0788417,0.531219,0.132897,0.04332,538,939,-17.2967,0.461968
-679,85,-17.1558,-0.304077,0.0758278,-0.0140207,0.0802648,0.122885,-0.0610781,0.530268,0.108191,0.0437969,545,939,-17.1558,0.304077
-672,85,-16.672,1.14282,0,0,0,0,0,0,0,-1,552,939,-16.672,-1.14283
-665,85,-16.2197,1.65497,0.0504464,-0.00542117,0.0513315,0.0809525,-0.0359272,0.536214,0.0691294,0.0423982,559,939,-16.2197,-1.65496
-658,85,-15.8807,2.11816,0.039577,-0.00264745,0.0399506,0.0636508,-0.0267212,0.542321,0.0536088,0.0452524,566,939,-15.8808,-2.11816
-651,85,-15.6464,2.146,0.0300771,-0.00067784,0.0303249,0.0487007,-0.0193014,0.550746,0.0404655,0.0429206,573,939,-15.6464,-2.14597
-644,85,-15.6541,2.31818,0.0220186,0.000586919,0.0223603,0.0360982,-0.0134926,0.561949,0.0296062,0.0337878,580,939,-15.6541,-2.3182
-637,85,-15.668,2.30731,0.0153013,0.0011731,0.0155205,0.0252897,-0.0088153,0.571836,0.0204419,0.017006,587,939,-15.668,-2.30729
-630,85,-15.7321,2.16956,0.00923159,0.00184083,0.0101843,0.0163703,-0.00529785,0.61136,0.0130432,0.0107759,594,939,-15.7321,-2.16954
-623,85,-15.7689,2.03894,0.00420815,0.00269962,0.00576087,0.00926392,-0.00235615,0.720304,0.007093,0.00936776,601,939,-15.7688,-2.03896
-616,85,-15.774,1.90405,0.000352849,0.00154558,0.00340643,0.00440746,-0.00250903,0.872055,0.00404306,0.00899181,608,939,-15.774,-1.90403
-609,85,-15.7775,1.77051,-0.00273417,0.00109698,0.00165342,0.00171186,-0.00334905,1.21476,0.00297245,0.0112927,615,939,-15.7775,-1.77051
-602,85,-15.7575,1.63959,-0.00513143,0.000707302,0.000557014,0.000759966,-0.00518409,1.47653,0.00373524,0.0152921,622,939,-15.7575,-1.63957
-595,85,-15.6972,1.50055,-0.00654302,0.000510249,0.000170836,0.000514385,-0.00654716,1.54659,0.00454594,0.0166078,629,939,-15.6972,-1.50057
-588,85,-15.6913,1.34753,-0.00718466,0.000393147,5.22698e-05,0.000393508,-0.00718503,1.5639,0.00492643,0.0152254,636,939,-15.6913,-1.34751
-581,85,-15.6968,1.22437,-0.00773193,0.000488166,-8.74747e-05,0.000489097,-0.00773286,-1.56016,0.00532576,0.0168397,643,939,-15.6968,-1.22435
-574,85,-16.0233,1.13818,-0.00813286,0.000516478,-0.000137192,0.000518654,-0.00813503,-1.55494,0.00560424,0.0295218,650,939,-16.0233,-1.13819
-567,85,-16.5652,1.06647,0,0,0,0,0,0,0,-1,657,939,-16.5653,-1.06647
-560,85,-16.6271,0.959717,-0.00785642,0.00122918,8.37298e-05,0.00122995,-0.00785719,1.56158,0.00569258,0.0358468,664,939,-16.6271,-0.959719
-553,85,-16.9435,0.784668,-0.00712728,0.00170831,0.000250704,0.00171542,-0.00713439,1.54245,0.00541933,0.0431162,671,939,-16.9435,-0.784685
-546,85,-16.992,0.794983,-0.00604015,0.0023533,0.000461519,0.00237861,-0.00606545,1.51603,0.00502769,0.042474,678,939,-16.992,-0.794957
-539,85,-16.8209,0.945435,-0.00470995,0.00319337,0.000711436,0.0032569,-0.00477348,1.48173,0.00466382,0.0374924,685,939,-16.8209,-0.945418
-532,85,-16.7956,0.896179,-0.00340661,0.00428651,0.000961907,0.00440496,-0.00352505,1.44827,0.00458778,0.0370802,692,939,-16.7956,-0.896201
-525,85,-16.7274,0.837585,-0.00301305,0.00581673,0.00109211,0.00594981,-0.00314613,1.44955,0.00533405,0.0376122,699,939,-16.7273,-0.837571
-518,85,-16.8592,1.03796,-0.00569932,0.00798382,0.00136157,0.008118,-0.00583349,1.47257,0.00809081,0.0375622,706,939,-16.8592,-1.03799
-511,85,0,0,0,0,0,0,0,0,0,-1,713,939,0,0
-504,85,0,0,0,0,0,0,0,0,0,-1,720,939,0,0
-497,85,0,0,0,0,0,0,0,0,0,-1,727,939,0,0
-490,85,0,0,0,0,0,0,0,0,0,-1,734,939,0,0
-483,85,0,0,0,0,0,0,0,0,0,-1,741,939,0,0
-476,85,0,0,0,0,0,0,0,0,0,-1,748,939,0,0
-469,85,0,0,0,0,0,0,0,0,0,-1,755,939,0,0
-462,85,0,0,0,0,0,0,0,0,0,-1,762,939,0,0
-455,85,0,0,0,0,0,0,0,0,0,-1,769,939,0,0
-448,85,0,0,0,0,0,0,0,0,0,-1,776,939,0,0
-441,85,0,0,0,0,0,0,0,0,0,-1,783,939,0,0
-434,85,0,0,0,0,0,0,0,0,0,-1,790,939,0,0
-427,85,0,0,0,0,0,0,0,0,0,-1,797,939,0,0
-420,85,0,0,0,0,0,0,0,0,0,-1,804,939,0,0
-413,85,0,0,0,0,0,0,0,0,0,-1,811,939,0,0
-406,85,0,0,0,0,0,0,0,0,0,-1,818,939,0,0
-399,85,0,0,0,0,0,0,0,0,0,-1,825,939,0,0
-392,85,0,0,0,0,0,0,0,0,0,-1,832,939,0,0
-385,85,0,0,0,0,0,0,0,0,0,-1,839,939,0,0
-378,85,0,0,0,0,0,0,0,0,0,-1,846,939,0,0
-371,85,0,0,0,0,0,0,0,0,0,-1,853,939,0,0
-364,85,0,0,0,0,0,0,0,0,0,-1,860,939,0,0
-357,85,0,0,0,0,0,0,0,0,0,-1,867,939,0,0
-350,85,0,0,0,0,0,0,0,0,0,-1,874,939,0,0
-343,85,0,0,0,0,0,0,0,0,0,-1,881,939,0,0
-336,85,0,0,0,0,0,0,0,0,0,-1,888,939,0,0
-329,85,0,0,0,0,0,0,0,0,0,-1,895,939,0,0
-322,85,0,0,0,0,0,0,0,0,0,-1,902,939,0,0
-315,85,0,0,0,0,0,0,0,0,0,-1,909,939,0,0
-308,85,0,0,0,0,0,0,0,0,0,-1,916,939,0,0
-301,85,0,0,0,0,0,0,0,0,0,-1,923,939,0,0
-294,85,0,0,0,0,0,0,0,0,0,-1,930,939,0,0
-287,85,0,0,0,0,0,0,0,0,0,-1,937,939,0,0
-280,85,0,0,0,0,0,0,0,0,0,-1,944,939,0,0
-273,85,0,0,0,0,0,0,0,0,0,-1,951,939,0,0
-266,85,0,0,0,0,0,0,0,0,0,-1,958,939,0,0
-259,85,0,0,0,0,0,0,0,0,0,-1,965,939,0,0
-252,85,0,0,0,0,0,0,0,0,0,-1,972,939,0,0
-245,85,0,0,0,0,0,0,0,0,0,-1,979,939,0,0
-238,85,0,0,0,0,0,0,0,0,0,-1,986,939,0,0
-231,85,0,0,0,0,0,0,0,0,0,-1,993,939,0,0
-224,85,0,0,0,0,0,0,0,0,0,-1,1000,939,0,0
-217,85,0,0,0,0,0,0,0,0,0,-1,1007,939,0,0
-210,85,0,0,0,0,0,0,0,0,0,-1,1014,939,0,0
-203,85,0,0,0,0,0,0,0,0,0,-1,1021,939,0,0
-196,85,0,0,0,0,0,0,0,0,0,-1,1028,939,0,0
-189,85,0,0,0,0,0,0,0,0,0,-1,1035,939,0,0
-182,85,0,0,0,0,0,0,0,0,0,-1,1042,939,0,0
-175,85,0,0,0,0,0,0,0,0,0,-1,1049,939,0,0
-168,85,0,0,0,0,0,0,0,0,0,-1,1056,939,0,0
-161,85,0,0,0,0,0,0,0,0,0,-1,1063,939,0,0
-154,85,0,0,0,0,0,0,0,0,0,-1,1070,939,0,0
-147,85,0,0,0,0,0,0,0,0,0,-1,1077,939,0,0
-140,85,0,0,0,0,0,0,0,0,0,-1,1084,939,0,0
-133,85,0,0,0,0,0,0,0,0,0,-1,1091,939,0,0
-126,85,0,0,0,0,0,0,0,0,0,-1,1098,939,0,0
-119,85,0,0,0,0,0,0,0,0,0,-1,1105,939,0,0
-112,85,0,0,0,0,0,0,0,0,0,-1,1112,939,0,0
-105,85,0,0,0,0,0,0,0,0,0,-1,1119,939,0,0
-98,85,0,0,0,0,0,0,0,0,0,-1,1126,939,0,0
-91,85,0,0,0,0,0,0,0,0,0,-1,1133,939,0,0
-84,85,0,0,0,0,0,0,0,0,0,-1,1140,939,0,0
-77,85,0,0,0,0,0,0,0,0,0,-1,1147,939,0,0
-70,85,0,0,0,0,0,0,0,0,0,-1,1154,939,0,0
-63,85,0,0,0,0,0,0,0,0,0,-1,1161,939,0,0
-56,85,0,0,0,0,0,0,0,0,0,-1,1168,939,0,0
-49,85,0,0,0,0,0,0,0,0,0,-1,1175,939,0,0
-42,85,0,0,0,0,0,0,0,0,0,-1,1182,939,0,0
-35,85,0,0,0,0,0,0,0,0,0,-1,1189,939,0,0
-28,85,0,0,0,0,0,0,0,0,0,-1,1196,939,0,0
-21,85,0,0,0,0,0,0,0,0,0,-1,1203,939,0,0
-14,85,0,0,0,0,0,0,0,0,0,-1,1210,939,0,0
-7,85,0,0,0,0,0,0,0,0,0,-1,1217,939,0,0
0,85,0,0,0,0,0,0,0,0,0,-1,1224,939,0,0
7,85,0,0,0,0,0,0,0,0,0,-1,1231,939,0,0
14,85,0,0,0,0,0,0,0,0,0,-1,1238,939,0,0
21,85,0,0,0,0,0,0,0,0,0,-1,1245,939,0,0
28,85,0,0,0,0,0,0,0,0,0,-1,1252,939,0,0
35,85,0,0,0,0,0,0,0,0,0,-1,1259,939,0,0
42,85,0,0,0,0,0,0,0,0,0,-1,1266,939,0,0
49,85,0,0,0,0,0,0,0,0,0,-1,1273,939,0,0
56,85,0,0,0,0,0,0,0,0,0,-1,1280,939,0,0
63,85,0,0,0,0,0,0,0,0,0,-1,1287,939,0,0
70,85,0,0,0,0,0,0,0,0,0,-1,1294,939,0,0
77,85,0,0,0,0,0,0,0,0,0,-1,1301,939,0,0
84,85,0,0,0,0,0,0,0,0,0,-1,1308,939,0,0
91,85,0,0,0,0,0,0,0,0,0,-1,1315,939,0,0
98,85,0,0,0,0,0,0,0,0,0,-1,1322,939,0,0
105,85,0,0,0,0,0,0,0,0,0,-1,1329,939,0,0
112,85,0,0,0,0,0,0,0,0,0,-1,1336,939,0,0
119,85,0,0,0,0,0,0,0,0,0,-1,1343,939,0,0
126,85,0,0,0,0,0,0,0,0,0,-1,1350,939,0,0
133,85,0,0,0,0,0,0,0,0,0,-1,1357,939,0,0
140,85,0,0,0,0,0,0,0,0,0,-1,1364,939,0,0
147,85,0,0,0,0,0,0,0,0,0,-1,1371,939,0,0
154,85,0,0,0,0,0,0,0,0,0,-1,1378,939,0,0
161,85,0,0,0,0,0,0,0,0,0,-1,1385,939,0,0
168,85,0,0,0,0,0,0,0,0,0,-1,1392,939,0,0
175,85,0,0,0,0,0,0,0,0,0,-1,1399,939,0,0
182,85,0,0,0,0,0,0,0,0,0,-1,1406,939,0,0
189,85,0,0,0,0,0,0,0,0,0,-1,1413,939,0,0
196,85,0,0,0,0,0,0,0,0,0,-1,1420,939,0,0
203,85,0,0,0,0,0,0,0,0,0,-1,1427,939,0,0
210,85,0,0,0,0,0,0,0,0,0,-1,1434,939,0,0
217,85,0,0,0,0,0,0,0,0,0,-1,1441,939,0,0
224,85,0,0,0,0,0,0,0,0,0,-1,1448,939,0,0
231,85,0,0,0,0,0,0,0,0,0,-1,1455,939,0,0
238,85,0,0,0,0,0,0,0,0,0,-1,1462,939,0,0
245,85,0,0,0,0,0,0,0,0,0,-1,1469,939,0,0
252,85,0,0,0,0,0,0,0,0,0,-1,1476,939,0,0
259,85,0,0,0,0,0,0,0,0,0,-1,1483,939,0,0
266,85,0,0,0,0,0,0,0,0,0,-1,1490,939,0,0
273,85,0,0,0,0,0,0,0,0,0,-1,1497,939,0,0
280,85,0,0,0,0,0,0,0,0,0,-1,1504,939,0,0
287,85,0,0,0,0,0,0,0,0,0,-1,1511,939,0,0
294,85,0,0,0,0,0,0,0,0,0,-1,1518,939,0,0
301,85,0,0,0,0,0,0,0,0,0,-1,1525,939,0,0
308,85,0,0,0,0,0,0,0,0,0,-1,1532,939,0,0
315,85,0,0,0,0,0,0,0,0,0,-1,1539,939,0,0
322,85,0,0,0,0,0,0,0,0,0,-1,1546,939,0,0
329,85,0,0,0,0,0,0,0,0,0,-1,1553,939,0,0
336,85,0,0,0,0,0,0,0,0,0,-1,1560,939,0,0
343,85,0,0,0,0,0,0,0,0,0,-1,1567,939,0,0
350,85,0,0,0,0,0,0,0,0,0,-1,1574,939,0,0
357,85,0,0,0,0,0,0,0,0,0,-1,1581,939,0,0
364,85,0,0,0,0,0,0,0,0,0,-1,1588,939,0,0
371,85,0,0,0,0,0,0,0,0,0,-1,1595,939,0,0
378,85,0,0,0,0,0,0,0,0,0,-1,1602,939,0,0
385,85,0,0,0,0,0,0,0,0,0,-1,1609,939,0,0
392,85,0,0,0,0,0,0,0,0,0,-1,1616,939,0,0
399,85,0,0,0,0,0,0,0,0,0,-1,1623,939,0,0
406,85,0,0,0,0,0,0,0,0,0,-1,1630,939,0,0
413,85,0,0,0,0,0,0,0,0,0,-1,1637,939,0,0
420,85,0,0,0,0,0,0,0,0,0,-1,1644,939,0,0
427,85,0,0,0,0,0,0,0,0,0,-1,1651,939,0,0
434,85,0,0,0,0,0,0,0,0,0,-1,1658,939,0,0
441,85,0,0,0,0,0,0,0,0,0,-1,1665,939,0,0
448,85,0,0,0,0,0,0,0,0,0,-1,1672,939,0,0
455,85,0,0,0,0,0,0,0,0,0,-1,1679,939,0,0
462,85,0,0,0,0,0,0,0,0,0,-1,1686,939,0,0
469,85,0,0,0,0,0,0,0,0,0,-1,1693,939,0,0
476,85,0,0,0,0,0,0,0,0,0,-1,1700,939,0,0
483,85,0,0,0,0,0,0,0,0,0,-1,1707,939,0,0
490,85,0,0,0,0,0,0,0,0,0,-1,1714,939,0,0
497,85,0,0,0,0,0,0,0,0,0,-1,1721,939,0,0
504,85,0,0,0,0,0,0,0,0,0,-1,1728,939,0,0
511,85,0,0,0,0,0,0,0,0,0,-1,1735,939,0,0
518,85,0,0,0,0,0,0,0,0,0,-1,1742,939,0,0
525,85,0,0,0,0,0,0,0,0,0,-1,1749,939,0,0
532,85,0,0,0,0,0,0,0,0,0,-1,1756,939,0,0
539,85,0,0,0,0,0,0,0,0,0,-1,1763,939,0,0
546,85,0,0,0,0,0,0,0,0,0,-1,1770,939,0,0
553,85,0,0,0,0,0,0,0,0,0,-1,1777,939,0,0
560,85,0,0,0,0,0,0,0,0,0,-1,1784,939,0,0
567,85,0,0,0,0,0,0,0,0,0,-1,1791,939,0,0
574,85,0,0,0,0,0,0,0,0,0,-1,1798,939,0,0
581,85,0,0,0,0,0,0,0,0,0,-1,1805,939,0,0
588,85,0,0,0,0,0,0,0,0,0,-1,1812,939,0,0
595,85,0,0,0,0,0,0,0,0,0,-1,1819,939,0,0
602,85,0,0,0,0,0,0,0,0,0,-1,1826,939,0,0
609,85,0,0,0,0,0,0,0,0,0,-1,1833,939,0,0
616,85,0,0,0,0,0,0,0,0,0,-1,1840,939,0,0
623,85,0,0,0,0,0,0,0,0,0,-1,1847,939,0,0
630,85,0,0,0,0,0,0,0,0,0,-1,1854,939,0,0
637,85,24.3539,2.67834,0,0,0,0,0,0,0,-1,1861,939,24.3538,-2.67836
644,85,24.3853,2.17896,0,0,0,0,0,0,0,-1,1868,939,24.3852,-2.17894
651,85,24.2194,2.45227,0.000440423,-0.00268862,0.00200461,0.00141877,-0.00366697,0.454041,0.00303038,0.0428713,1875,939,24.2193,-2.45224
658,85,24.1847,2.71021,-0.0013402,-0.00164989,0.00238875,0.000898717,-0.00388881,0.753032,0.00293829,0.0415579,1882,939,24.1847,-2.71021
665,85,24.1807,2.87714,-0.00379494,-0.000606283,0.0026368,0.000880716,-0.00528194,1.05731,0.0038486,0.0411207,1889,939,24.1806,-2.87711
672,85,24.1083,3.07184,0,0,0,0,0,0,0,-1,1896,939,24.1083,-3.07185
679,85,24.1865,2.71313,-0.00814261,0.000825368,0.00283755,0.00164778,-0.00896502,1.2887,0.00659492,0.0424808,1903,939,24.1865,-2.71312
686,85,24.1237,2.82825,-0.00958651,0.00114846,0.00277865,0.00182504,-0.0102631,1.33195,0.00752455,0.0355283,1910,939,24.1237,-2.82827
693,85,24.2047,2.86664,-0.0105174,0.00143647,0.00273779,0.00203367,-0.0111146,1.35603,0.0081724,0.0283032,1917,939,24.2047,-2.86665
700,85,24.2175,2.92572,-0.0108898,0.00178598,0.00264266,0.00231486,-0.0114187,1.37327,0.00848993,0.0334523,1924,939,24.2175,-2.92575
707,85,24.2086,3.01166,0,0,0,0,0,0,0,-1,1931,939,24.2087,-3.01167
714,85,22.5829,3.52679,0,0,0,0,0,0,0,-1,1938,939,22.5829,-3.5268
721,85,22.5902,3.74036,-0.00945706,0.00197262,0.00159585,0.00219126,-0.00967569,1.43464,0.00729147,0.0236835,1945,939,22.5902,-3.74037
728,85,22.5764,3.96863,-0.00836227,0.00192075,0.00161798,0.00216933,-0.00861084,1.41836,0.0065839,0.0174833,1952,939,22.5764,-3.96861
735,85,22.5576,4.08344,-0.0070151,0.00179429,0.00147254,0.00203392,-0.00725473,1.40948,0.0056381,0.0172342,1959,939,22.5576,-4.08343
742,85,22.5823,4.22455,-0.00546606,0.00196759,0.00135076,0.00220542,-0.0057039,1.39651,0.004713,0.0151788,1966,939,22.5822,-4.22453
749,85,22.5598,4.39014,-0.00387119,0.00224869,0.00133347,0.00252662,-0.00414912,1.36531,0.003892,0.0136991,1973,939,22.5598,-4.39013
756,85,22.5195,4.54333,-0.0028567,0.0035781,0.00160211,0.00395492,-0.00323352,1.33979,0.00415721,0.013145,1980,939,22.5196,-4.54334
763,85,22.5295,4.70892,-0.00208004,0.00497405,0.00224968,0.00563044,-0.00273643,1.28691,0.00492599,0.0129807,1987,939,22.5295,-4.7089
770,85,22.5377,4.81757,-0.00209071,0.00699483,0.00326429,0.00804602,-0.0031419,1.25926,0.00666299,0.0180322,1994,939,22.5377,-4.81757
777,85,22.4695,5.26166,-0.00241928,0.00977487,0.00457499,0.0113005,-0.00394487,1.24893,0.00913701,0.0410332,2001,939,22.4694,-5.26167
784,85,22.3475,5.73627,0,0,0,0,0,0,0,-1,2008,939,22.3475,-5.73628
791,85,22.4139,6.14026,-0.00373964,0.0190701,0.00799527,0.0215934,-0.00626299,1.26508,0.0168753,0.0496577,2015,939,22.4139,-6.14029
798,85,22.4707,6.56433,-0.0050029,0.0268874,0.0100072,0.0297675,-0.00788304,1.29056,0.0229289,0.0456938,2022,939,22.4706,-6.5643
805,85,22.3037,7.02063,-0.007409,0.0383008,0.0122117,0.0413587,-0.0104669,1.32544,0.0316438,0.0467699,2029,939,22.3038,-7.02065
812,85,0,0,0,0,0,0,0,0,0,-1,2036,939,0,0
-700,78,0,0,0,0,0,0,0,0,0,-1,524,946,0,0
-693,78,0,0,0,0,0,0,0,0,0,-1,531,946,0,0
-686,78,-18.4777,-0.155518,0.0871345,-0.0195513,0.0938291,0.141724,-0.0741406,0.526926,0.126649,0.0420075,538,946,-18.4776,0.155534
-679,78,-17.9789,0.515503,0.0731517,-0.0129017,0.0754208,0.116956,-0.0567058,0.526179,0.102255,0.0450654,545,946,-17.979,-0.515499
-672,78,-17.2838,1.32611,0,0,0,0,0,0,0,-1,552,946,-17.2837,-1.32609
-665,78,-16.5871,2.26306,0,0,0,0,0,0,0,-1,559,946,-16.5871,-2.26306
-658,78,-15.8261,2.22986,0,0,0,0,0,0,0,-1,566,946,-15.8261,-2.22986
-651,78,-15.829,1.78339,0,0,0,0,0,0,0,-1,573,946,-15.8291,-1.78339
-644,78,-15.7431,2.27429,0,0,0,0,0,0,0,-1,580,946,-15.7431,-2.27429
-637,78,-15.8036,2.27325,0.014096,0.00154848,0.0137238,0.0229121,-0.00726761,0.571009,0.0181879,0.0129898,587,946,-15.8036,-2.27323
-630,78,-15.8788,2.14056,0.0081276,0.00207541,0.00887584,0.014479,-0.00427601,0.62111,0.0113498,0.0123476,594,946,-15.8788,-2.14053
-623,78,-15.9171,2.00983,0.00328266,0.0029227,0.00464018,0.00774635,-0.00154099,0.766014,0.00574718,0.0120421,601,946,-15.9171,-2.00986
-616,78,-15.9122,1.8855,-0.000124321,0.00168725,0.00265185,0.00358375,-0.00202081,0.94997,0.00327746,0.0103476,608,946,-15.9122,-1.8855
-609,78,-15.8785,1.76868,-0.00291788,0.00121273,0.00114623,0.00150949,-0.00321464,1.31746,0.00278607,0.0114853,615,946,-15.8785,-1.76866
-602,78,-15.872,1.63953,-0.00519445,0.000815926,0.000109937,0.000817937,-0.00519646,1.55251,0.00376667,0.0150229,622,946,-15.872,-1.63954
-595,78,-15.8325,1.48181,-0.00654876,0.000600382,-0.000296653,0.00061267,-0.00656104,-1.5294,0.0045919,0.0141942,629,946,-15.8325,-1.48184
-588,78,-15.8361,1.38849,-0.00709001,0.000470782,-0.000406096,0.000492531,-0.00711176,-1.51729,0.00491359,0.012152,636,946,-15.8361,-1.38851
-581,78,-15.9142,1.30493,-0.00758153,0.000550769,-0.000524038,0.000584398,-0.00761516,-1.50671,0.00528236,0.0201195,643,946,-15.9142,-1.3049
-574,78,-16.2737,1.12854,-0.00800276,0.000603537,-0.000537427,0.000636967,-0.00803619,-1.50867,0.00558191,0.0259487,650,946,-16.2737,-1.12854
-567,78,-16.7016,0.974915,0,0,0,0,0,0,0,-1,657,946,-16.7016,-0.974904
-560,78,-16.8364,0.967285,-0.00774603,0.00144154,-0.000240816,0.00144784,-0.00775234,-1.54461,0.00571233,0.0337443,664,946,-16.8363,-0.967256
-553,78,-16.9258,0.926453,-0.00702094,0.00199874,-2.8192e-06,0.00199874,-0.00702094,-1.57048,0.00546998,0.0423118,671,946,-16.9258,-0.926445
-546,78,-17.0009,0.850647,-0.00596409,0.00272967,0.000309179,0.00274065,-0.00597507,1.53529,0.00514623,0.0427833,678,946,-17.0009,-0.850632
-539,78,-16.7553,1.02887,-0.00471694,0.0036615,0.000691428,0.00371817,-0.00477361,1.48901,0.00491534,0.0392997,685,946,-16.7553,-1.02885
-532,78,-16.5681,1.04059,-0.00360678,0.00485484,0.00108155,0.0049909,-0.00374283,1.44566,0.00505955,0.0383618,692,946,-16.568,-1.04058
-525,78,-16.5856,0.737122,-0.00372197,0.00651866,0.00133715,0.00669038,-0.00389369,1.44308,0.00618142,0.038011,699,946,-16.5856,-0.737129
-518,78,-16.7311,0.64624,-0.00718196,0.0087842,0.00174866,0.00897348,-0.00737123,1.46298,0.00945172,0.0393593,706,946,-16.7311,-0.646233
-511,78,0,0,0,0,0,0,0,0,0,-1,713,946,0,0
-504,78,0,0,0,0,0,0,0,0,0,-1,720,946,0,0
-497,78,0,0,0,0,0,0,0,0,0,-1,727,946,0,0
-490,78,0,0,0,0,0,0,0,0,0,-1,734,946,0,0
-483,78,0,0,0,0,0,0,0,0,0,-1,741,946,0,0
-476,78,0,0,0,0,0,0,0,0,0,-1,748,946,0,0
-469,78,0,0,0,0,0,0,0,0,0,-1,755,946,0,0
-462,78,0,0,0,0,0,0,0,0,0,-1,762,946,0,0
-455,78,0,0,0,0,0,0,0,0,0,-1,769,946,0,0
-448,78,0,0,0,0,0,0,0,0,0,-1,776,946,0,0
-441,78,0,0,0,0,0,0,0,0,0,-1,783,946,0,0
-434,78,0,0,0,0,0,0,0,0,0,-1,790,946,0,0
-427,78,0,0,0,0,0,0,0,0,0,-1,797,946,0,0
-420,78,0,0,0,0,0,0,0,0,0,-1,804,946,0,0
-413,78,0,0,0,0,0,0,0,0,0,-1,811,946,0,0
-406,78,0,0,0,0,0,0,0,0,0,-1,818,946,0,0
-399,78,0,0,0,0,0,0,0,0,0,-1,825,946,0,0
-392,78,0,0,0,0,0,0,0,0,0,-1,832,946,0,0
-385,78,0,0,0,0,0,0,0,0,0,-1,839,946,0,0
-378,78,0,0,0,0,0,0,0,0,0,-1,846,946,0,0
-371,78,0,0,0,0,0,0,0,0,0,-1,853,946,0,0
-364,78,0,0,0,0,0,0,0,0,0,-1,860,946,0,0
-357,78,0,0,0,0,0,0,0,0,0,-1,867,946,0,0
-350,78,0,0,0,0,0,0,0,0,0,-1,874,946,0,0
-343,78,0,0,0,0,0,0,0,0,0,-1,881,946,0,0
-336,78,0,0,0,0,0,0,0,0,0,-1,888,946,0,0
-329,78,0,0,0,0,0,0,0,0,0,-1,895,946,0,0
-322,78,0,0,0,0,0,0,0,0,0,-1,902,946,0,0
-315,78,0,0,0,0,0,0,0,0,0,-1,909,946,0,0
-308,78,0,0,0,0,0,0,0,0,0,-1,916,946,0,0
-301,78,0,0,0,0,0,0,0,0,0,-1,923,946,0,0
-294,78,0,0,0,0,0,0,0,0,0,-1,930,946,0,0
-287,78,0,0,0,0,0,0,0,0,0,-1,937,946,0,0
-280,78,0,0,0,0,0,0,0,0,0,-1,944,946,0,0
-273,78,0,0,0,0,0,0,0,0,0,-1,951,946,0,0
-266,78,0,0,0,0,0,0,0,0,0,-1,958,946,0,0
-259,78,0,0,0,0,0,0,0,0,0,-1,965,946,0,0
-252,78,0,0,0,0,0,0,0,0,0,-1,972,946,0,0
-245,78,0,0,0,0,0,0,0,0,0,-1,979,946,0,0
-238,78,0,0,0,0,0,0,0,0,0,-1,986,946,0,0
-231,78,0,0,0,0,0,0,0,0,0,-1,993,946,0,0
-224,78,0,0,0,0,0,0,0,0,0,-1,1000,946,0,0
-217,78,0,0,0,0,0,0,0,0,0,-1,1007,946,0,0
-210,78,0,0,0,0,0,0,0,0,0,-1,1014,946,0,0
-203,78,0,0,0,0,0,0,0,0,0,-1,1021,946,0,0
-196,78,0,0,0,0,0,0,0,0,0,-1,1028,946,0,0
-189,78,0,0,0,0,0,0,0,0,0,-1,1035,946,0,0
-182,78,0,0,0,0,0,0,0,0,0,-1,1042,946,0,0
-175,78,0,0,0,0,0,0,0,0,0,-1,1049,946,0,0
-168,78,0,0,0,0,0,0,0,0,0,-1,1056,946,0,0
-161,78,0,0,0,0,0,0,0,0,0,-1,1063,946,0,0
-154,78,0,0,0,0,0,0,0,0,0,-1,1070,946,0,0
-147,78,0,0,0,0,0,0,0,0,0,-1,1077,946,0,0
-140,78,0,0,0,0,0,0,0,0,0,-1,1084,946,0,0
-133,78,0,0,0,0,0,0,0,0,0,-1,1091,946,0,0
-126,78,0,0,0,0,0,0,0,0,0,-1,1098,946,0,0
-119,78,0,0,0,0,0,0,0,0,0,-1,1105,946,0,0
-112,78,0,0,0,0,0,0,0,0,0,-1,1112,946,0,0
-105,78,0,0,0,0,0,0,0,0,0,-1,1119,946,0,0
-98,78,0,0,0,0,0,0,0,0,0,-1,1126,946,0,0
-91,78,0,0,0,0,0,0,0,0,0,-1,1133,946,0,0
-84,78,0,0,0,0,0,0,0,0,0,-1,1140,946,0,0
-77,78,0,0,0,0,0,0,0,0,0,-1,1147,946,0,0
-70,78,0,0,0,0,0,0,0,0,0,-1,1154,946,0,0
-63,78,0,0,0,0,0,0,0,0,0,-1,1161,946,0,0
-56,78,0,0,0,0,0,0,0,0,0,-1,1168,946,0,0
-49,78,0,0,0,0,0,0,0,0,0,-1,1175,946,0,0
-42,78,0,0,0,0,0,0,0,0,0,-1,1182,946,0,0
-35,78,0,0,0,0,0,0,0,0,0,-1,1189,946,0,0
-28,78,0,0,0,0,0,0,0,0,0,-1,1196,946,0,0
-21,78,0,0,0,0,0,0,0,0,0,-1,1203,946,0,0
-14,78,0,0,0,0,0,0,0,0,0,-1,1210,946,0,0
-7,78,0,0,0,0,0,0,0,0,0,-1,1217,946,0,0
0,78,0,0,0,0,0,0,0,0,0,-1,1224,946,0,0
7,78,0,0,0,0,0,0,0,0,0,-1,1231,946,0,0
14,78,0,0,0,0,0,0,0,0,0,-1,1238,946,0,0
21,78,0,0,0,0,0,0,0,0,0,-1,1245,946,0,0
28,78,0,0,0,0,0,0,0,0,0,-1,1252,946,0,0
35,78,0,0,0,0,0,0,0,0,0,-1,1259,946,0,0
42,78,0,0,0,0,0,0,0,0,0,-1,1266,946,0,0
49,78,0,0,0,0,0,0,0,0,0,-1,1273,946,0,0
56,78,0,0,0,0,0,0,0,0,0,-1,1280,946,0,0
63,78,0,0,0,0,0,0,0,0,0,-1,1287,946,0,0
70,78,0,0,0,0,0,0,0,0,0,-1,1294,946,0,0
77,78,0,0,0,0,0,0,0,0,0,-1,1301,946,0,0
84,78,0,0,0,0,0,0,0,0,0,-1,1308,946,0,0
91,78,0,0,0,0,0,0,0,0,0,-1,1315,946,0,0
98,78,0,0,0,0,0,0,0,0,0,-1,1322,946,0,0
105,78,0,0,0,0,0,0,0,0,0,-1,1329,946,0,0
112,78,0,0,0,0,0,0,0,0,0,-1,1336,946,0,0
119,78,0,0,0,0,0,0,0,0,0,-1,1343,946,0,0
126,78,0,0,0,0,0,0,0,0,0,-1,1350,946,0,0
133,78,0,0,0,0,0,0,0,0,0,-1,1357,946,0,0
140,78,0,0,0,0,0,0,0,0,0,-1,1364,946,0,0
147,78,0,0,0,0,0,0,0,0,0,-1,1371,946,0,0
154,78,0,0,0,0,0,0,0,0,0,-1,1378,946,0,0
161,78,0,0,0,0,0,0,0,0,0,-1,1385,946,0,0
168,78,0,0,0,0,0,0,0,0,0,-1,1392,946,0,0
175,78,0,0,0,0,0,0,0,0,0,-1,1399,946,0,0
182,78,0,0,0,0,0,0,0,0,0,-1,1406,946,0,0
189,78,0,0,0,0,0,0,0,0,0,-1,1413,946,0,0
196,78,0,0,0,0,0,0,0,0,0,-1,1420,946,0,0
203,78,0,0,0,0,0,0,0,0,0,-1,1427,946,0,0
210,78,0,0,0,0,0,0,0,0,0,-1,1434,946,0,0
217,78,0,0,0,0,0,0,0,0,0,-1,1441,946,0,0
224,78,0,0,0,0,0,0,0,0,0,-1,1448,946,0,0
231,78,0,0,0,0,0,0,0,0,0,-1,1455,946,0,0
238,78,0,0,0,0,0,0,0,0,0,-1,1462,946,0,0
245,78,0,0,0,0,0,0,0,0,0,-1,1469,946,0,0
252,78,0,0,0,0,0,0,0,0,0,-1,1476,946,0,0
259,78,0,0,0,0,0,0,0,0,0,-1,1483,946,0,0
266,78,0,0,0,0,0,0,0,0,0,-1,1490,946,0,0
273,78,0,0,0,0,0,0,0,0,0,-1,1497,946,0,0
280,78,0,0,0,0,0,0,0,0,0,-1,1504,946,0,0
287,78,0,0,0,0,0,0,0,0,0,-1,1511,946,0,0
294,78,0,0,0,0,0,0,0,0,0,-1,1518,946,0,0
301,78,0,0,0,0,0,0,0,0,0,-1,1525,946,0,0
308,78,0,0,0,0,0,0,0,0,0,-1,1532,946,0,0
315,78,0,0,0,0,0,0,0,0,0,-1,1539,946,0,0
322,78,0,0,0,0,0,0,0,0,0,-1,1546,946,0,0
329,78,0,0,0,0,0,0,0,0,0,-1,1553,946,0,0
336,78,0,0,0,0,0,0,0,0,0,-1,1560,946,0,0
343,78,0,0,0,0,0,0,0,0,0,-1,1567,946,0,0
350,78,0,0,0,0,0,0,0,0,0,-1,1574,946,0,0
357,78,0,0,0,0,0,0,0,0,0,-1,1581,946,0,0
364,78,0,0,0,0,0,0,0,0,0,-1,1588,946,0,0
371,78,0,0,0,0,0,0,0,0,0,-1,1595,946,0,0
378,78,0,0,0,0,0,0,0,0,0,-1,1602,946,0,0
385,78,0,0,0,0,0,0,0,0,0,-1,1609,946,0,0
392,78,0,0,0,0,0,0,0,0,0,-1,1616,946,0,0
399,78,0,0,0,0,0,0,0,0,0,-1,1623,946,0,0
406,78,0,0,0,0,0,0,0,0,0,-1,1630,946,0,0
413,78,0,0,0,0,0,0,0,0,0,-1,1637,946,0,0
420,78,0,0,0,0,0,0,0,0,0,-1,1644,946,0,0
427,78,0,0,0,0,0,0,0,0,0,-1,1651,946,0,0
434,78,0,0,0,0,0,0,0,0,0,-1,1658,946,0,0
441,78,0,0,0,0,0,0,0,0,0,-1,1665,946,0,0
448,78,0,0,0,0,0,0,0,0,0,-1,1672,946,0,0
455,78,0,0,0,0,0,0,0,0,0,-1,1679,946,0,0
462,78,0,0,0,0,0,0,0,0,0,-1,1686,946,0,0
469,78,0,0,0,0,0,0,0,0,0,-1,1693,946,0,0
476,78,0,0,0,0,0,0,0,0,0,-1,1700,946,0,0
483,78,0,0,0,0,0,0,0,0,0,-1,1707,946,0,0
490,78,0,0,0,0,0,0,0,0,0,-1,1714,946,0,0
497,78,0,0,0,0,0,0,0,0,0,-1,1721,946,0,0
504,78,0,0,0,0,0,0,0,0,0,-1,1728,946,0,0
511,78,0,0,0,0,0,0,0,0,0,-1,1735,946,0,0
518,78,0,0,0,0,0,0,0,0,0,-1,1742,946,0,0
525,78,0,0,0,0,0,0,0,0,0,-1,1749,946,0,0
532,78,0,0,0,0,0,0,0,0,0,-1,1756,946,0,0
539,78,0,0,0,0,0,0,0,0,0,-1,1763,946,0,0
546,78,0,0,0,0,0,0,0,0,0,-1,1770,946,0,0
553,78,0,0,0,0,0,0,0,0,0,-1,1777,946,0,0
560,78,0,0,0,0,0,0,0,0,0,-1,1784,946,0,0
567,78,0,0,0,0,0,0,0,0,0,-1,1791,946,0,0
574,78,0,0,0,0,0,0,0,0,0,-1,1798,946,0,0
581,78,0,0,0,0,0,0,0,0,0,-1,1805,946,0,0
588,78,0,0,0,0,0,0,0,0,0,-1,1812,946,0,0
595,78,0,0,0,0,0,0,0,0,0,-1,1819,946,0,0
602,78,0,0,0,0,0,0,0,0,0,-1,1826,946,0,0
609,78,0,0,0,0,0,0,0,0,0,-1,1833,946,0,0
616,78,0,0,0,0,0,0,0,0,0,-1,1840,946,0,0
623,78,0,0,0,0,0,0,0,0,0,-1,1847,946,0,0
630,78,0,0,0,0,0,0,0,0,0,-1,1854,946,0,0
637,78,24.239,2.62567,-0.000426586,-0.00570125,0.00028358,-0.000411384,-0.00571646,0.0535569,0.00368151,0.0487673,1861,946,24.239,-2.62568
644,78,24.1343,2.289,-6.2672e-05,-0.00488098,0.0014269,0.000328187,-0.00527184,0.267363,0.00362891,0.0471673,1868,946,24.1343,-2.28903
651,78,24.1141,2.3385,-0.000305011,-0.00393267,0.00190845,0.000514058,-0.00475174,0.405406,0.00335235,0.0425241,1875,946,24.1141,-2.33851
658,78,24.2053,2.56396,-0.00130892,-0.002703,0.00236236,0.000457087,-0.00446901,0.641939,0.0031428,0.0392951,1882,946,24.2054,-2.56395
665,78,24.3046,2.84851,-0.00314081,-0.00145217,0.0027461,0.000576474,-0.00516946,0.934542,0.00365366,0.0395742,1889,946,24.3045,-2.84853
672,78,24.1975,3.02966,-0.00514502,-0.000404328,0.00305712,0.00109373,-0.00664307,1.11516,0.00483471,0.0424013,1896,946,24.1975,-3.02969
679,78,24.2484,2.77649,-0.00696703,0.000380605,0.00327286,0.00162701,-0.00821343,1.20692,0.00609082,0.0408137,1903,946,24.2485,-2.77649
686,78,24.1825,2.75952,-0.0083636,0.000847545,0.00333827,0.00193015,-0.0094462,1.2572,0.00702974,0.0374822,1910,946,24.1825,-2.75953
693,78,24.1945,2.77173,-0.00933945,0.0012573,0.00338889,0.00224839,-0.0103305,1.28628,0.00774603,0.0298882,1917,946,24.1944,-2.77173
700,78,24.1741,2.86652,-0.00982316,0.00168937,0.00334663,0.00259152,-0.0107253,1.30749,0.00815252,0.0249389,1924,946,24.1741,-2.86654
707,78,23.9456,3.21838,-0.00995047,0.0018105,0.00299343,0.00252855,-0.0106685,1.33537,0.00808804,0.0417366,1931,946,23.9455,-3.21837
714,78,22.6354,3.64471,0,0,0,0,0,0,0,-1,1938,946,22.6353,-3.64472
721,78,22.6945,3.78143,-0.00906879,0.00203844,0.00225636,0.00247931,-0.00950965,1.37784,0.00730777,0.0234215,1945,946,22.6945,-3.78142
728,78,22.7593,3.97571,-0.00829224,0.00198527,0.0021781,0.00242782,-0.00873478,1.37034,0.00677896,0.0193055,1952,946,22.7593,-3.97572
735,78,22.7349,4.09509,-0.00740187,0.00191542,0.001834,0.00226342,-0.00774987,1.38328,0.00606355,0.0144363,1959,946,22.7349,-4.09509
742,78,22.7277,4.24255,-0.00641153,0.00213025,0.00141806,0.00235952,-0.0066408,1.41051,0.00538873,0.0138405,1966,946,22.7277,-4.24256
749,78,22.7029,4.38379,-0.00556608,0.00231949,0.000983864,0.00244039,-0.00568698,1.44853,0.00481552,0.0134129,1973,946,22.7029,-4.3838
756,78,22.698,4.51257,-0.00526547,0.00341794,0.000835804,0.00349765,-0.00534518,1.47571,0.00514242,0.0143483,1980,946,22.698,-4.51259
763,78,22.7126,4.66241,-0.00529847,0.00456991,0.000932899,0.00465733,-0.00538589,1.47737,0.00580354,0.0120982,1987,946,22.7126,-4.66239
770,78,22.7075,4.77826,-0.00638817,0.00627027,0.0013885,0.00642079,-0.00653868,1.46282,0.00748226,0.0156841,1994,946,22.7075,-4.77823
777,78,22.6672,5.13934,0,0,0,0,0,0,0,-1,2001,946,22.6672,-5.13937
784,78,22.3896,5.57074,0,0,0,0,0,0,0,-1,2008,946,22.3897,-5.57077
791,78,22.4603,5.82953,0,0,0,0,0,0,0,-1,2015,946,22.4603,-5.8295
798,78,22.5012,6.13965,0,0,0,0,0,0,0,-1,2022,946,22.5012,-6.13965
805,78,23.1262,5.16437,0,0,0,0,0,0,0,-1,2029,946,23.1262,-5.16436
812,78,0,0,0,0,0,0,0,0,0,-1,2036,946,0,0
-700,71,0,0,0,0,0,0,0,0,0,-1,524,953,0,0
-693,71,0,0,0,0,0,0,0,0,0,-1,531,953,0,0
-686,71,-19.2233,0.395508,0.0908198,-0.00429341,0.0936573,0.148303,-0.0617764,0.550475,0.124671,0.04587,538,953,-19.2233,-0.395515
-679,71,-18.5607,1.2392,0.0750579,-6.96247e-05,0.0741266,0.120595,-0.0456069,0.550881,0.0991591,0.0459602,545,953,-18.5607,-1.23919
-672,71,-17.8278,1.77838,0,0,0,0,0,0,0,-1,552,953,-17.8278,-1.77838
-665,71,-17.1989,2.57819,0,0,0,0,0,0,0,-1,559,953,-17.1988,-2.57816
-658,71,-16.323,3.30615,0,0,0,0,0,0,0,-1,566,953,-16.323,-3.30617
-651,71,-15.9887,1.72015,0,0,0,0,0,0,0,-1,573,953,-15.9887,-1.72013
-644,71,-15.8752,2.43604,0.0195591,0.00451961,0.0183239,0.0318462,-0.00776751,0.590687,0.0242385,0.0306833,580,953,-15.8752,-2.43601
-637,71,-15.9618,2.24768,0.0126634,0.00404756,0.0116523,0.0207787,-0.0040677,0.608338,0.0153886,0.0135992,587,953,-15.9618,-2.24771
-630,71,-16.0139,2.1319,0.00667617,0.00306648,0.00712114,0.0122176,-0.00247498,0.661287,0.00908318,0.0134165,594,953,-16.0139,-2.13191
-623,71,-16.0528,1.99213,0.00214345,0.00360177,0.00329904,0.00625127,-0.000506049,0.894161,0.00434603,0.013155,601,953,-16.0528,-1.99214
-616,71,-16.0355,1.85614,-0.000762585,0.00216222,0.00176742,0.0029938,-0.00159417,1.13102,0.00268964,0.0127539,608,953,-16.0354,-1.85617
-609,71,-15.9963,1.77478,-0.00318738,0.00152464,0.000579596,0.00159489,-0.00325762,1.45019,0.0028559,0.0138267,615,953,-15.9964,-1.77479
-602,71,-15.9738,1.66223,-0.00524106,0.00107462,-0.000399864,0.00109984,-0.00526627,-1.50782,0.00392911,0.0155391,622,953,-15.9737,-1.66223
-595,71,-15.9838,1.51733,-0.00643032,0.000813343,-0.000834383,0.000908211,-0.00652519,-1.45758,0.00468232,0.0161993,629,953,-15.9838,-1.51733
-588,71,-15.9881,1.41626,-0.0068432,0.00063226,-0.000949446,0.000750963,-0.0069619,-1.44642,0.00491077,0.0167245,636,953,-15.9881,-1.41624
-581,71,-16.1415,1.24036,-0.00721677,0.000623734,-0.00105116,0.000762215,-0.00735525,-1.43981,0.00517631,0.0243848,643,953,-16.1415,-1.24035
-574,71,-16.5621,1.03333,-0.00762267,0.000637817,-0.00102855,0.000763961,-0.00774881,-1.44876,0.00543845,0.0299821,650,953,-16.5621,-1.03335
-567,71,-16.7472,0.854858,-0.00770641,0.00103408,-0.000895806,0.00112494,-0.00779728,-1.46971,0.00561088,0.020603,657,953,-16.7472,-0.854869
-560,71,-16.7836,0.961243,-0.00740219,0.00140932,-0.000669236,0.00145986,-0.00745272,-1.49542,0.00551983,0.0281199,664,953,-16.7837,-0.961244
-553,71,-16.8958,1.01532,-0.00672448,0.00192225,-0.000363324,0.00193749,-0.00673972,-1.52888,0.00525931,0.0417065,671,953,-16.8958,-1.01533
-546,71,-16.9502,1.04486,-0.00575867,0.00259033,4.09978e-05,0.00259053,-0.00575887,1.56589,0.00493486,0.0441001,678,953,-16.9502,-1.04486
-539,71,-16.6266,1.09515,-0.00466156,0.00343609,0.000533266,0.00347105,-0.00469653,1.50532,0.00473322,0.0425153,685,953,-16.6267,-1.09518
-532,71,-16.4696,0.998901,-0.00382085,0.00453445,0.00101526,0.00465604,-0.00394245,1.4516,0.00497004,0.0444999,692,953,-16.4696,-0.998882
-525,71,-16.5975,0.798767,-0.0044977,0.00612583,0.00130284,0.00628328,-0.00465514,1.45053,0.00633858,0.0422253,699,953,-16.5975,-0.79879
-518,71,0,0,0,0,0,0,0,0,0,-1,706,953,0,0
-511,71,0,0,0,0,0,0,0,0,0,-1,713,953,0,0
-504,71,0,0,0,0,0,0,0,0,0,-1,720,953,0,0
-497,71,0,0,0,0,0,0,0,0,0,-1,727,953,0,0
-490,71,0,0,0,0,0,0,0,0,0,-1,734,953,0,0
-483,71,0,0,0,0,0,0,0,0,0,-1,741,953,0,0
-476,71,0,0,0,0,0,0,0,0,0,-1,748,953,0,0
-469,71,0,0,0,0,0,0,0,0,0,-1,755,953,0,0
-462,71,0,0,0,0,0,0,0,0,0,-1,762,953,0,0
-455,71,0,0,0,0,0,0,0,0,0,-1,769,953,0,0
-448,71,0,0,0,0,0,0,0,0,0,-1,776,953,0,0
-441,71,0,0,0,0,0,0,0,0,0,-1,783,953,0,0
-434,71,0,0,0,0,0,0,0,0,0,-1,790,953,0,0
-427,71,0,0,0,0,0,0,0,0,0,-1,797,953,0,0
-420,71,0,0,0,0,0,0,0,0,0,-1,804,953,0,0
-413,71,0,0,0,0,0,0,0,0,0,-1,811,953,0,0
-406,71,0,0,0,0,0,0,0,0,0,-1,818,953,0,0
-399,71,0,0,0,0,0,0,0,0,0,-1,825,953,0,0
-392,71,0,0,0,0,0,0,0,0,0,-1,832,953,0,0
-385,71,0,0,0,0,0,0,0,0,0,-1,839,953,0,0
-378,71,0,0,0,0,0,0,0,0,0,-1,846,953,0,0
-371,71,0,0,0,0,0,0,0,0,0,-1,853,953,0,0
-364,71,0,0,0,0,0,0,0,0,0,-1,860,953,0,0
-357,71,0,0,0,0,0,0,0,0,0,-1,867,953,0,0
-350,71,0,0,0,0,0,0,0,0,0,-1,874,953,0,0
-343,71,0,0,0,0,0,0,0,0,0,-1,881,953,0,0
-336,71,0,0,0,0,0,0,0,0,0,-1,888,953,0,0
-329,71,0,0,0,0,0,0,0,0,0,-1,895,953,0,0
-322,71,0,0,0,0,0,0,0,0,0,-1,902,953,0,0
-315,71,0,0,0,0,0,0,0,0,0,-1,909,953,0,0
-308,71,0,0,0,0,0,0,0,0,0,-1,916,953,0,0
-301,71,0,0,0,0,0,0,0,0,0,-1,923,953,0,0
-294,71,0,0,0,0,0,0,0,0,0,-1,930,953,0,0
-287,71,0,0,0,0,0,0,0,0,0,-1,937,953,0,0
-280,71,0,0,0,0,0,0,0,0,0,-1,944,953,0,0
-273,71,0,0,0,0,0,0,0,0,0,-1,951,953,0,0
-266,71,0,0,0,0,0,0,0,0,0,-1,958,953,0,0
-259,71,0,0,0,0,0,0,0,0,0,-1,965,953,0,0
-252,71,0,0,0,0,0,0,0,0,0,-1,972,953,0,0
-245,71,0,0,0,0,0,0,0,0,0,-1,979,953,0,0
-238,71,0,0,0,0,0,0,0,0,0,-1,986,953,0,0
-231,71,0,0,0,0,0,0,0,0,0,-1,993,953,0,0
-224,71,0,0,0,0,0,0,0,0,0,-1,1000,953,0,0
-217,71,0,0,0,0,0,0,0,0,0,-1,1007,953,0,0
-210,71,0,0,0,0,0,0,0,0,0,-1,1014,953,0,0
-203,71,0,0,0,0,0,0,0,0,0,-1,1021,953,0,0
-196,71,0,0,0,0,0,0,0,0,0,-1,1028,953,0,0
-189,71,0,0,0,0,0,0,0,0,0,-1,1035,953,0,0
-182,71,0,0,0,0,0,0,0,0,0,-1,1042,953,0,0
-175,71,0,0,0,0,0,0,0,0,0,-1,1049,953,0,0
-168,71,0,0,0,0,0,0,0,0,0,-1,1056,953,0,0
-161,71,0,0,0,0,0,0,0,0,0,-1,1063,953,0,0
-154,71,0,0,0,0,0,0,0,0,0,-1,1070,953,0,0
-147,71,0,0,0,0,0,0,0,0,0,-1,1077,953,0,0
-140,71,0,0,0,0,0,0,0,0,0,-1,1084,953,0,0
-133,71,0,0,0,0,0,0,0,0,0,-1,1091,953,0,0
-126,71,0,0,0,0,0,0,0,0,0,-1,1098,953,0,0
-119,71,0,0,0,0,0,0,0,0,0,-1,1105,953,0,0
-112,71,0,0,0,0,0,0,0,0,0,-1,1112,953,0,0
-105,71,0,0,0,0,0,0,0,0,0,-1,1119,953,0,0
-98,71,0,0,0,0,0,0,0,0,0,-1,1126,953,0,0
-91,71,0,0,0,0,0,0,0,0,0,-1,1133,953,0,0
-84,71,0,0,0,0,0,0,0,0,0,-1,1140,953,0,0
-77,71,0,0,0,0,0,0,0,0,0,-1,1147,953,0,0
-70,71,0,0,0,0,0,0,0,0,0,-1,1154,953,0,0
-63,71,0,0,0,0,0,0,0,0,0,-1,1161,953,0,0
-56,71,0,0,0,0,0,0,0,0,0,-1,1168,953,0,0
-49,71,0,0,0,0,0,0,0,0,0,-1,1175,953,0,0
-42,71,0,0,0,0,0,0,0,0,0,-1,1182,953,0,0
-35,71,0,0,0,0,0,0,0,0,0,-1,1189,953,0,0
-28,71,0,0,0,0,0,0,0,0,0,-1,1196,953,0,0
-21,71,0,0,0,0,0,0,0,0,0,-1,1203,953,0,0
-14,71,0,0,0,0,0,0,0,0,0,-1,1210,953,0,0
-7,71,0,0,0,0,0,0,0,0,0,-1,1217,953,0,0
0,71,0,0,0,0,0,0,0,0,0,-1,1224,953,0,0
7,71,0,0,0,0,0,0,0,0,0,-1,1231,953,0,0
14,71,0,0,0,0,0,0,0,0,0,-1,1238,953,0,0
21,71,0,0,0,0,0,0,0,0,0,-1,1245,953,0,0
28,71,0,0,0,0,0,0,0,0,0,-1,1252,953,0,0
35,71,0,0,0,0,0,0,0,0,0,-1,1259,953,0,0
42,71,0,0,0,0,0,0,0,0,0,-1,1266,953,0,0
49,71,0,0,0,0,0,0,0,0,0,-1,1273,953,0,0
56,71,0,0,0,0,0,0,0,0,0,-1,1280,953,0,0
63,71,0,0,0,0,0,0,0,0,0,-1,1287,953,0,0
70,71,0,0,0,0,0,0,0,0,0,-1,1294,953,0,0
77,71,0,0,0,0,0,0,0,0,0,-1,1301,953,0,0
84,71,0,0,0,0,0,0,0,0,0,-1,1308,953,0,0
91,71,0,0,0,0,0,0,0,0,0,-1,1315,953,0,0
98,71,0,0,0,0,0,0,0,0,0,-1,1322,953,0,0
105,71,0,0,0,0,0,0,0,0,0,-1,1329,953,0,0
112,71,0,0,0,0,0,0,0,0,0,-1,1336,953,0,0
119,71,0,0,0,0,0,0,0,0,0,-1,1343,953,0,0
126,71,0,0,0,0,0,0,0,0,0,-1,1350,953,0,0
133,71,0,0,0,0,0,0,0,0,0,-1,1357,953,0,0
140,71,0,0,0,0,0,0,0,0,0,-1,1364,953,0,0
147,71,0,0,0,0,0,0,0,0,0,-1,1371,953,0,0
154,71,0,0,0,0,0,0,0,0,0,-1,1378,953,0,0
161,71,0,0,0,0,0,0,0,0,0,-1,1385,953,0,0
168,71,0,0,0,0,0,0,0,0,0,-1,1392,953,0,0
175,71,0,0,0,0,0,0,0,0,0,-1,1399,953,0,0
182,71,0,0,0,0,0,0,0,0,0,-1,1406,953,0,0
189,71,0,0,0,0,0,0,0,0,0,-1,1413,953,0,0
196,71,0,0,0,0,0,0,0,0,0,-1,1420,953,0,0
203,71,0,0,0,0,0,0,0,0,0,-1,1427,953,0,0
210,71,0,0,0,0,0,0,0,0,0,-1,1434,953,0,0
217,71,0,0,0,0,0,0,0,0,0,-1,1441,953,0,0
224,71,0,0,0,0,0,0,0,0,0,-1,1448,953,0,0
231,71,0,0,0,0,0,0,0,0,0,-1,1455,953,0,0
238,71,0,0,0,0,0,0,0,0,0,-1,1462,953,0,0
245,71,0,0,0,0,0,0,0,0,0,-1,1469,953,0,0
252,71,0,0,0,0,0,0,0,0,0,-1,1476,953,0,0
259,71,0,0,0,0,0,0,0,0,0,-1,1483,953,0,0
266,71,0,0,0,0,0,0,0,0,0,-1,1490,953,0,0
273,71,0,0,0,0,0,0,0,0,0,-1,1497,953,0,0
280,71,0,0,0,0,0,0,0,0,0,-1,1504,953,0,0
287,71,0,0,0,0,0,0,0,0,0,-1,1511,953,0,0
294,71,0,0,0,0,0,0,0,0,0,-1,1518,953,0,0
301,71,0,0,0,0,0,0,0,0,0,-1,1525,953,0,0
308,71,0,0,0,0,0,0,0,0,0,-1,1532,953,0,0
315,71,0,0,0,0,0,0,0,0,0,-1,1539,953,0,0
322,71,0,0,0,0,0,0,0,0,0,-1,1546,953,0,0
329,71,0,0,0,0,0,0,0,0,0,-1,1553,953,0,0
336,71,0,0,0,0,0,0,0,0,0,-1,1560,953,0,0
343,71,0,0,0,0,0,0,0,0,0,-1,1567,953,0,0
350,71,0,0,0,0,0,0,0,0,0,-1,1574,953,0,0
357,71,0,0,0,0,0,0,0,0,0,-1,1581,953,0,0
364,71,0,0,0,0,0,0,0,0,0,-1,1588,953,0,0
371,71,0,0,0,0,0,0,0,0,0,-1,1595,953,0,0
378,71,0,0,0,0,0,0,0,0,0,-1,1602,953,0,0
385,71,0,0,0,0,0,0,0,0,0,-1,1609,953,0,0
392,71,0,0,0,0,0,0,0,0,0,-1,1616,953,0,0
399,71,0,0,0,0,0,0,0,0,0,-1,1623,953,0,0
406,71,0,0,0,0,0,0,0,0,0,-1,1630,953,0,0
413,71,0,0,0,0,0,0,0,0,0,-1,1637,953,0,0
420,71,0,0,0,0,0,0,0,0,0,-1,1644,953,0,0
427,71,0,0,0,0,0,0,0,0,0,-1,1651,953,0,0
434,71,0,0,0,0,0,0,0,0,0,-1,1658,953,0,0
441,71,0,0,0,0,0,0,0,0,0,-1,1665,953,0,0
448,71,0,0,0,0,0,0,0,0,0,-1,1672,953,0,0
455,71,0,0,0,0,0,0,0,0,0,-1,1679,953,0,0
462,71,0,0,0,0,0,0,0,0,0,-1,1686,953,0,0
469,71,0,0,0,0,0,0,0,0,0,-1,1693,953,0,0
476,71,0,0,0,0,0,0,0,0,0,-1,1700,953,0,0
483,71,0,0,0,0,0,0,0,0,0,-1,1707,953,0,0
490,71,0,0,0,0,0,0,0,0,0,-1,1714,953,0,0
497,71,0,0,0,0,0,0,0,0,0,-1,1721,953,0,0
504,71,0,0,0,0,0,0,0,0,0,-1,1728,953,0,0
511,71,0,0,0,0,0,0,0,0,0,-1,1735,953,0,0
518,71,0,0,0,0,0,0,0,0,0,-1,1742,953,0,0
525,71,0,0,0,0,0,0,0,0,0,-1,1749,953,0,0
532,71,0,0,0,0,0,0,0,0,0,-1,1756,953,0,0
539,71,0,0,0,0,0,0,0,0,0,-1,1763,953,0,0
546,71,0,0,0,0,0,0,0,0,0,-1,1770,953,0,0
553,71,0,0,0,0,0,0,0,0,0,-1,1777,953,0,0
560,71,0,0,0,0,0,0,0,0,0,-1,1784,953,0,0
567,71,0,0,0,0,0,0,0,0,0,-1,1791,953,0,0
574,71,0,0,0,0,0,0,0,0,0,-1,1798,953,0,0
581,71,0,0,0,0,0,0,0,0,0,-1,1805,953,0,0
588,71,0,0,0,0,0,0,0,0,0,-1,1812,953,0,0
595,71,0,0,0,0,0,0,0,0,0,-1,1819,953,0,0
602,71,0,0,0,0,0,0,0,0,0,-1,1826,953,0,0
609,71,0,0,0,0,0,0,0,0,0,-1,1833,953,0,0
616,71,0,0,0,0,0,0,0,0,0,-1,1840,953,0,0
623,71,0,0,0,0,0,0,0,0,0,-1,1847,953,0,0
630,71,0,0,0,0,0,0,0,0,0,-1,1854,953,0,0
637,71,24.3767,2.823,-0.00147681,-0.00746659,0.00117467,-0.00125469,-0.00768872,0.186893,0.00476299,0.0409912,1861,953,24.3767,-2.823
644,71,24.182,2.53699,-0.000862601,-0.00620807,0.00204803,-0.000168151,-0.00690252,0.326915,0.00454667,0.042557,1868,953,24.1821,-2.53699
651,71,24.1442,2.30011,-0.000718771,-0.00491242,0.002295,0.000293052,-0.00592424,0.415246,0.00405071,0.0404001,1875,953,24.1442,-2.30011
658,71,24.3041,2.58264,-0.00128664,-0.00345943,0.00258082,0.000427118,-0.0051732,0.586181,0.00359963,0.0375313,1882,953,24.3041,-2.58264
665,71,24.3723,2.9137,-0.00270778,-0.00197429,0.0029194,0.000601309,-0.00528338,0.847883,0.00373884,0.037572,1889,953,24.3724,-2.91372
672,71,24.282,2.94397,-0.00447031,-0.000685951,0.00327051,0.00120031,-0.00635657,1.04765,0.0046893,0.0398542,1896,953,24.282,-2.94395
679,71,24.2223,2.88458,-0.00618866,0.000309975,0.0035796,0.00189507,-0.00777376,1.15393,0.00591625,0.0382102,1903,953,24.2223,-2.88456
686,71,24.2441,2.65466,-0.00756314,0.000946112,0.00374254,0.00235792,-0.00897494,1.21007,0.0069048,0.0349687,1910,953,24.2442,-2.65464
693,71,24.2474,2.61261,-0.00857326,0.00150074,0.0038812,0.0028226,-0.00989512,1.24254,0.00771176,0.032681,1917,953,24.2474,-2.61259
700,71,24.1495,2.78522,-0.0091343,0.00199634,0.00388937,0.00322072,-0.0103587,1.26582,0.00819315,0.0306549,1924,953,24.1495,-2.78523
707,71,24.0809,3.11395,-0.00939005,0.00218115,0.00360024,0.00320986,-0.0104188,1.29248,0.00822724,0.0311374,1931,953,24.0809,-3.11393
714,71,23.1669,3.72351,0,0,0,0,0,0,0,-1,1938,953,23.1668,-3.72348
721,71,22.9432,3.82159,-0.00898285,0.00241004,0.00281622,0.00306817,-0.00964098,1.34122,0.00765774,0.031205,1945,953,22.9433,-3.8216
728,71,22.8643,3.99188,-0.00849161,0.00230517,0.00263336,0.0029132,-0.00909965,1.34387,0.0072357,0.0166828,1952,953,22.8642,-3.99186
735,71,22.8698,4.1084,-0.00809662,0.00230378,0.00207269,0.00270163,-0.00849447,1.38116,0.00674631,0.0117436,1959,953,22.8698,-4.1084
742,71,22.8866,4.23499,-0.00768168,0.00255433,0.00134771,0.0027288,-0.00785615,1.44206,0.00634572,0.01303,1966,953,22.8866,-4.23499
749,71,22.8917,4.36481,-0.0075469,0.00269855,0.000510239,0.0027239,-0.00757225,1.52116,0.00616025,0.0158748,1973,953,22.8918,-4.3648
756,71,22.882,4.50433,-0.00800414,0.00361473,-5.39701e-05,0.00361498,-0.00800439,-1.56615,0.00686615,0.0153954,1980,953,22.882,-4.50431
763,71,22.8641,4.65253,-0.00895346,0.00460995,-0.000546035,0.00463189,-0.00897541,-1.53063,0.00798848,0.0120933,1987,953,22.8642,-4.6525
770,71,22.8365,4.7746,-0.0111724,0.00608951,-0.000711969,0.00611883,-0.0112017,-1.52964,0.0101425,0.0143276,1994,953,22.8365,-4.77461
777,71,22.8431,4.8288,-0.0142523,0.0080743,-0.000564414,0.00808856,-0.0142665,-1.54554,0.01307,0.0338719,2001,953,22.8432,-4.82882
784,71,23.0468,4.67542,-0.0183262,0.0106561,-8.30848e-05,0.0106564,-0.0183264,-1.56793,0.0169274,0.0432903,2008,953,23.0468,-4.6754
791,71,23.0693,4.17462,-0.0232168,0.0140282,0.000723294,0.0140422,-0.0232308,1.55139,0.0217365,0.0425844,2015,953,23.0694,-4.17461
798,71,23.2693,3.17932,0,0,0,0,0,0,0,-1,2022,953,23.2693,-3.17931
805,71,23.5691,2.17041,0,0,0,0,0,0,0,-1,2029,953,23.569,-2.1704
812,71,0,0,0,0,0,0,0,0,0,-1,2036,953,0,0
-700,64,0,0,0,0,0,0,0,0,0,-1,524,960,0,0
-693,64,0,0,0,0,0,0,0,0,0,-1,531,960,0,0
-686,64,-19.939,0.903564,0.0917252,0.010607,0.0908062,0.150619,-0.0482864,0.575364,0.119797,0.0499987,538,960,-19.9389,-0.903589
-679,64,-19.0667,1.88745,0.0752945,0.0122578,0.0714938,0.121909,-0.0343569,0.577787,0.094823,0.0462245,545,960,-19.0667,-1.88746
-672,64,-18.6653,2.80157,0,0,0,0,0,0,0,-1,552,960,-18.6654,-2.80156
-665,64,-17.8354,2.70038,0,0,0,0,0,0,0,-1,559,960,-17.8355,-2.70038
-658,64,-16.0598,2.44794,0.0362565,0.0109016,0.0322549,0.0582359,-0.0110778,0.598152,0.0429949,0.0429949,566,960,-16.0598,-2.44796
-651,64,-15.9896,2.75409,0,0,0,0,0,0,0,-1,573,960,-15.9895,-2.75411
-644,64,-16.0379,2.42987,0.0186692,0.00792177,0.0166148,0.0307577,-0.00416673,0.628993,0.0220258,0.0304569,580,960,-16.0379,-2.42989
-637,64,-16.1031,2.19299,0.0116564,0.00660697,0.00992786,0.0193755,-0.00111219,0.660885,0.0133033,0.01539,587,960,-16.1032,-2.193
-630,64,-16.1487,2.09686,0.00559127,0.00417054,0.00569162,0.0106167,-0.000854871,0.723315,0.00737927,0.0131938,594,960,-16.1487,-2.09689
-623,64,-16.1688,1.98694,0.00113501,0.00418042,0.00197039,0.00514791,0.000167519,1.11436,0.00337749,0.0139066,601,960,-16.1688,-1.98697
-616,64,-16.1589,1.86041,-0.00113367,0.00262999,0.000873224,0.00282272,-0.0013264,1.35357,0.00244687,0.0171384,608,960,-16.159,-1.86043
-609,64,-16.1304,1.78894,-0.00312351,0.00190013,-3.28476e-06,0.00190014,-0.00312351,-1.57014,0.00292893,0.0157551,615,960,-16.1304,-1.78896
-602,64,-16.1028,1.69568,-0.00493135,0.00140196,-0.000902645,0.00152809,-0.00505749,-1.43196,0.00398004,0.0162604,622,960,-16.1028,-1.69565
-595,64,-16.1307,1.57971,-0.00599444,0.00109349,-0.00137701,0.00135161,-0.00625256,-1.3855,0.00468437,0.017193,629,960,-16.1307,-1.57974
-588,64,-16.1388,1.50006,-0.00631469,0.000861913,-0.00150978,0.0011666,-0.00661937,-1.37166,0.00484879,0.0233977,636,960,-16.1388,-1.50008
-581,64,-16.3372,1.22113,-0.00662691,0.000773477,-0.00159811,0.00110384,-0.00695727,-1.36695,0.00504653,0.0311341,643,960,-16.3372,-1.22113
-574,64,-16.6501,0.967346,-0.00703584,0.000709687,-0.00154707,0.00100726,-0.00733342,-1.38077,0.00525697,0.0336039,650,960,-16.6501,-0.967338
-567,64,-16.7082,0.855225,-0.00711357,0.00100591,-0.00138084,0.00123432,-0.00734198,-1.40687,0.00535373,0.0247753,657,960,-16.7082,-0.855212
-560,64,-16.666,0.88208,-0.00684222,0.00126698,-0.00109701,0.00141276,-0.00698801,-1.43868,0.00519404,0.0327039,664,960,-16.666,-0.882072
-553,64,-16.6343,0.910522,-0.00623613,0.00164816,-0.00070511,0.00171072,-0.0062987,-1.4823,0.00487057,0.0391246,671,960,-16.6343,-0.910523
-546,64,-16.7038,0.808472,-0.00538857,0.00215804,-0.000194529,0.00216305,-0.00539358,-1.54504,0.00449375,0.0412125,678,960,-16.7038,-0.808455
-539,64,-16.6674,0.769531,-0.0044613,0.00281581,0.000406951,0.0028385,-0.00448399,1.51511,0.00426307,0.042076,685,960,-16.6674,-0.769522
-532,64,-16.6549,0.798523,-0.003893,0.00373428,0.000952886,0.00385153,-0.00401024,1.44837,0.0045393,0.0427727,692,960,-16.6549,-0.798549
-525,64,-16.7186,0.867554,-0.00505601,0.00516722,0.00123219,0.00531363,-0.00520243,1.45252,0.00607157,0.04292,699,960,-16.7186,-0.867563
-518,64,0,0,0,0,0,0,0,0,0,-1,706,960,0,0
-511,64,0,0,0,0,0,0,0,0,0,-1,713,960,0,0
-504,64,0,0,0,0,0,0,0,0,0,-1,720,960,0,0
-497,64,0,0,0,0,0,0,0,0,0,-1,727,960,0,0
-490,64,0,0,0,0,0,0,0,0,0,-1,734,960,0,0
-483,64,0,0,0,0,0,0,0,0,0,-1,741,960,0,0
-476,64,0,0,0,0,0,0,0,0,0,-1,748,960,0,0
-469,64,0,0,0,0,0,0,0,0,0,-1,755,960,0,0
-462,64,0,0,0,0,0,0,0,0,0,-1,762,960,0,0
-455,64,0,0,0,0,0,0,0,0,0,-1,769,960,0,0
-448,64,0,0,0,0,0,0,0,0,0,-1,776,960,0,0
-441,64,0,0,0,0,0,0,0,0,0,-1,783,960,0,0
-434,64,0,0,0,0,0,0,0,0,0,-1,790,960,0,0
-427,64,0,0,0,0,0,0,0,0,0,-1,797,960,0,0
-420,64,0,0,0,0,0,0,0,0,0,-1,804,960,0,0
-413,64,0,0,0,0,0,0,0,0,0,-1,811,960,0,0
-406,64,0,0,0,0,0,0,0,0,0,-1,818,960,0,0
-399,64,0,0,0,0,0,0,0,0,0,-1,825,960,0,0
-392,64,0,0,0,0,0,0,0,0,0,-1,832,960,0,0
-385,64,0,0,0,0,0,0,0,0,0,-1,839,960,0,0
-378,64,0,0,0,0,0,0,0,0,0,-1,846,960,0,0
-371,64,0,0,0,0,0,0,0,0,0,-1,853,960,0,0
-364,64,0,0,0,0,0,0,0,0,0,-1,860,960,0,0
-357,64,0,0,0,0,0,0,0,0,0,-1,867,960,0,0
-350,64,0,0,0,0,0,0,0,0,0,-1,874,960,0,0
-343,64,0,0,0,0,0,0,0,0,0,-1,881,960,0,0
-336,64,0,0,0,0,0,0,0,0,0,-1,888,960,0,0
-329,64,0,0,0,0,0,0,0,0,0,-1,895,960,0,0
-322,64,0,0,0,0,0,0,0,0,0,-1,902,960,0,0
-315,64,0,0,0,0,0,0,0,0,0,-1,909,960,0,0
-308,64,0,0,0,0,0,0,0,0,0,-1,916,960,0,0
-301,64,0,0,0,0,0,0,0,0,0,-1,923,960,0,0
-294,64,0,0,0,0,0,0,0,0,0,-1,930,960,0,0
-287,64,0,0,0,0,0,0,0,0,0,-1,937,960,0,0
-280,64,0,0,0,0,0,0,0,0,0,-1,944,960,0,0
-273,64,0,0,0,0,0,0,0,0,0,-1,951,960,0,0
-266,64,0,0,0,0,0,0,0,0,0,-1,958,960,0,0
-259,64,0,0,0,0,0,0,0,0,0,-1,965,960,0,0
-252,64,0,0,0,0,0,0,0,0,0,-1,972,960,0,0
-245,64,0,0,0,0,0,0,0,0,0,-1,979,960,0,0
-238,64,0,0,0,0,0,0,0,0,0,-1,986,960,0,0
-231,64,0,0,0,0,0,0,0,0,0,-1,993,960,0,0
-224,64,0,0,0,0,0,0,0,0,0,-1,1000,960,0,0
-217,64,0,0,0,0,0,0,0,0,0,-1,1007,960,0,0
-210,64,0,0,0,0,0,0,0,0,0,-1,1014,960,0,0
-203,64,0,0,0,0,0,0,0,0,0,-1,1021,960,0,0
-196,64,0,0,0,0,0,0,0,0,0,-1,1028,960,0,0
-189,64,0,0,0,0,0,0,0,0,0,-1,1035,960,0,0
-182,64,0,0,0,0,0,0,0,0,0,-1,1042,960,0,0
-175,64,0,0,0,0,0,0,0,0,0,-1,1049,960,0,0
-168,64,0,0,0,0,0,0,0,0,0,-1,1056,960,0,0
-161,64,0,0,0,0,0,0,0,0,0,-1,1063,960,0,0
-154,64,0,0,0,0,0,0,0,0,0,-1,1070,960,0,0
-147,64,0,0,0,0,0,0,0,0,0,-1,1077,960,0,0
-140,64,0,0,0,0,0,0,0,0,0,-1,1084,960,0,0
-133,64,0,0,0,0,0,0,0,0,0,-1,1091,960,0,0
-126,64,0,0,0,0,0,0,0,0,0,-1,1098,960,0,0
-119,64,0,0,0,0,0,0,0,0,0,-1,1105,960,0,0
-112,64,0,0,0,0,0,0,0,0,0,-1,1112,960,0,0
-105,64,0,0,0,0,0,0,0,0,0,-1,1119,960,0,0
-98,64,0,0,0,0,0,0,0,0,0,-1,1126,960,0,0
-91,64,0,0,0,0,0,0,0,0,0,-1,1133,960,0,0
-84,64,0,0,0,0,0,0,0,0,0,-1,1140,960,0,0
-77,64,0,0,0,0,0,0,0,0,0,-1,1147,960,0,0
-70,64,0,0,0,0,0,0,0,0,0,-1,1154,960,0,0
-63,64,0,0,0,0,0,0,0,0,0,-1,1161,960,0,0
-56,64,0,0,0,0,0,0,0,0,0,-1,1168,960,0,0
-49,64,0,0,0,0,0,0,0,0,0,-1,1175,960,0,0
-42,64,0,0,0,0,0,0,0,0,0,-1,1182,960,0,0
-35,64,0,0,0,0,0,0,0,0,0,-1,1189,960,0,0
-28,64,0,0,0,0,0,0,0,0,0,-1,1196,960,0,0
-21,64,0,0,0,0,0,0,0,0,0,-1,1203,960,0,0
-14,64,0,0,0,0,0,0,0,0,0,-1,1210,960,0,0
-7,64,0,0,0,0,0,0,0,0,0,-1,1217,960,0,0
0,64,0,0,0,0,0,0,0,0,0,-1,1224,960,0,0
7,64,0,0,0,0,0,0,0,0,0,-1,1231,960,0,0
14,64,0,0,0,0,0,0,0,0,0,-1,1238,960,0,0
21,64,0,0,0,0,0,0,0,0,0,-1,1245,960,0,0
28,64,0,0,0,0,0,0,0,0,0,-1,1252,960,0,0
35,64,0,0,0,0,0,0,0,0,0,-1,1259,960,0,0
42,64,0,0,0,0,0,0,0,0,0,-1,1266,960,0,0
49,64,0,0,0,0,0,0,0,0,0,-1,1273,960,0,0
56,64,0,0,0,0,0,0,0,0,0,-1,1280,960,0,0
63,64,0,0,0,0,0,0,0,0,0,-1,1287,960,0,0
70,64,0,0,0,0,0,0,0,0,0,-1,1294,960,0,0
77,64,0,0,0,0,0,0,0,0,0,-1,1301,960,0,0
84,64,0,0,0,0,0,0,0,0,0,-1,1308,960,0,0
91,64,0,0,0,0,0,0,0,0,0,-1,1315,960,0,0
98,64,0,0,0,0,0,0,0,0,0,-1,1322,960,0,0
105,64,0,0,0,0,0,0,0,0,0,-1,1329,960,0,0
112,64,0,0,0,0,0,0,0,0,0,-1,1336,960,0,0
119,64,0,0,0,0,0,0,0,0,0,-1,1343,960,0,0
126,64,0,0,0,0,0,0,0,0,0,-1,1350,960,0,0
133,64,0,0,0,0,0,0,0,0,0,-1,1357,960,0,0
140,64,0,0,0,0,0,0,0,0,0,-1,1364,960,0,0
147,64,0,0,0,0,0,0,0,0,0,-1,1371,960,0,0
154,64,0,0,0,0,0,0,0,0,0,-1,1378,960,0,0
161,64,0,0,0,0,0,0,0,0,0,-1,1385,960,0,0
168,64,0,0,0,0,0,0,0,0,0,-1,1392,960,0,0
175,64,0,0,0,0,0,0,0,0,0,-1,1399,960,0,0
182,64,0,0,0,0,0,0,0,0,0,-1,1406,960,0,0
189,64,0,0,0,0,0,0,0,0,0,-1,1413,960,0,0
196,64,0,0,0,0,0,0,0,0,0,-1,1420,960,0,0
203,64,0,0,0,0,0,0,0,0,0,-1,1427,960,0,0
210,64,0,0,0,0,0,0,0,0,0,-1,1434,960,0,0
217,64,0,0,0,0,0,0,0,0,0,-1,1441,960,0,0
224,64,0,0,0,0,0,0,0,0,0,-1,1448,960,0,0
231,64,0,0,0,0,0,0,0,0,0,-1,1455,960,0,0
238,64,0,0,0,0,0,0,0,0,0,-1,1462,960,0,0
245,64,0,0,0,0,0,0,0,0,0,-1,1469,960,0,0
252,64,0,0,0,0,0,0,0,0,0,-1,1476,960,0,0
259,64,0,0,0,0,0,0,0,0,0,-1,1483,960,0,0
266,64,0,0,0,0,0,0,0,0,0,-1,1490,960,0,0
273,64,0,0,0,0,0,0,0,0,0,-1,1497,960,0,0
280,64,0,0,0,0,0,0,0,0,0,-1,1504,960,0,0
287,64,0,0,0,0,0,0,0,0,0,-1,1511,960,0,0
294,64,0,0,0,0,0,0,0,0,0,-1,1518,960,0,0
301,64,0,0,0,0,0,0,0,0,0,-1,1525,960,0,0
308,64,0,0,0,0,0,0,0,0,0,-1,1532,960,0,0
315,64,0,0,0,0,0,0,0,0,0,-1,1539,960,0,0
322,64,0,0,0,0,0,0,0,0,0,-1,1546,960,0,0
329,64,0,0,0,0,0,0,0,0,0,-1,1553,960,0,0
336,64,0,0,0,0,0,0,0,0,0,-1,1560,960,0,0
343,64,0,0,0,0,0,0,0,0,0,-1,1567,960,0,0
350,64,0,0,0,0,0,0,0,0,0,-1,1574,960,0,0
357,64,0,0,0,0,0,0,0,0,0,-1,1581,960,0,0
364,64,0,0,0,0,0,0,0,0,0,-1,1588,960,0,0
371,64,0,0,0,0,0,0,0,0,0,-1,1595,960,0,0
378,64,0,0,0,0,0,0,0,0,0,-1,1602,960,0,0
385,64,0,0,0,0,0,0,0,0,0,-1,1609,960,0,0
392,64,0,0,0,0,0,0,0,0,0,-1,1616,960,0,0
399,64,0,0,0,0,0,0,0,0,0,-1,1623,960,0,0
406,64,0,0,0,0,0,0,0,0,0,-1,1630,960,0,0
413,64,0,0,0,0,0,0,0,0,0,-1,1637,960,0,0
420,64,0,0,0,0,0,0,0,0,0,-1,1644,960,0,0
427,64,0,0,0,0,0,0,0,0,0,-1,1651,960,0,0
434,64,0,0,0,0,0,0,0,0,0,-1,1658,960,0,0
441,64,0,0,0,0,0,0,0,0,0,-1,1665,960,0,0
448,64,0,0,0,0,0,0,0,0,0,-1,1672,960,0,0
455,64,0,0,0,0,0,0,0,0,0,-1,1679,960,0,0
462,64,0,0,0,0,0,0,0,0,0,-1,1686,960,0,0
469,64,0,0,0,0,0,0,0,0,0,-1,1693,960,0,0
476,64,0,0,0,0,0,0,0,0,0,-1,1700,960,0,0
483,64,0,0,0,0,0,0,0,0,0,-1,1707,960,0,0
490,64,0,0,0,0,0,0,0,0,0,-1,1714,960,0,0
497,64,0,0,0,0,0,0,0,0,0,-1,1721,960,0,0
504,64,0,0,0,0,0,0,0,0,0,-1,1728,960,0,0
511,64,0,0,0,0,0,0,0,0,0,-1,1735,960,0,0
518,64,0,0,0,0,0,0,0,0,0,-1,1742,960,0,0
525,64,0,0,0,0,0,0,0,0,0,-1,1749,960,0,0
532,64,0,0,0,0,0,0,0,0,0,-1,1756,960,0,0
539,64,0,0,0,0,0,0,0,0,0,-1,1763,960,0,0
546,64,0,0,0,0,0,0,0,0,0,-1,1770,960,0,0
553,64,0,0,0,0,0,0,0,0,0,-1,1777,960,0,0
560,64,0,0,0,0,0,0,0,0,0,-1,1784,960,0,0
567,64,0,0,0,0,0,0,0,0,0,-1,1791,960,0,0
574,64,0,0,0,0,0,0,0,0,0,-1,1798,960,0,0
581,64,0,0,0,0,0,0,0,0,0,-1,1805,960,0,0
588,64,0,0,0,0,0,0,0,0,0,-1,1812,960,0,0
595,64,0,0,0,0,0,0,0,0,0,-1,1819,960,0,0
602,64,0,0,0,0,0,0,0,0,0,-1,1826,960,0,0
609,64,0,0,0,0,0,0,0,0,0,-1,1833,960,0,0
616,64,0,0,0,0,0,0,0,0,0,-1,1840,960,0,0
623,64,0,0,0,0,0,0,0,0,0,-1,1847,960,0,0
630,64,0,0,0,0,0,0,0,0,0,-1,1854,960,0,0
637,64,0,0,0,0,0,0,0,0,0,-1,1861,960,0,0
644,64,24.2573,2.54834,-0.00143673,-0.00658029,0.0024308,-0.000469752,-0.00754727,0.378612,0.00488247,0.0412449,1868,960,24.2573,-2.54833
651,64,24.2614,2.53632,-0.000923919,-0.00502017,0.00248545,0.000248556,-0.00619264,0.440782,0.00421372,0.0393529,1875,960,24.2614,-2.53634
658,64,24.2838,2.82532,-0.00107474,-0.00345887,0.00262636,0.000617426,-0.00515103,0.572358,0.00365724,0.0365376,1882,960,24.2838,-2.82535
665,64,24.226,3.02576,-0.0020562,-0.00188692,0.0029331,0.000962755,-0.00490588,0.799823,0.00363427,0.0406959,1889,960,24.2259,-3.02573
672,64,24.2195,3.00568,-0.00350582,-0.000502415,0.00333912,0.00165714,-0.00566538,0.996713,0.00443376,0.0434489,1896,960,24.2195,-3.00568
679,64,24.2626,2.62604,-0.00504415,0.000567267,0.00375301,0.0024474,-0.00692427,1.10638,0.00561275,0.039124,1903,960,24.2625,-2.62602
686,64,24.2581,2.57056,-0.0063422,0.00126999,0.00403887,0.00301356,-0.00808578,1.16327,0.0066275,0.0342807,1910,960,24.2581,-2.57053
693,64,24.2617,2.60797,-0.00735778,0.00184655,0.00428674,0.00353375,-0.00904498,1.19583,0.00749108,0.0322559,1917,960,24.2618,-2.60795
700,64,24.2213,2.74835,-0.00798988,0.00233949,0.00436593,0.0039376,-0.00958798,1.2199,0.00803292,0.0277465,1924,960,24.2213,-2.74832
707,64,24.1289,3.06812,-0.00838358,0.00253474,0.00415051,0.00393336,-0.0097822,1.24577,0.00815515,0.0327755,1931,960,24.1289,-3.06812
714,64,23.631,3.79645,0,0,0,0,0,0,0,-1,1938,960,23.631,-3.79645
721,64,23.1316,3.82819,-0.00833014,0.00273762,0.00339652,0.00369683,-0.00928934,1.29556,0.00772585,0.0315074,1945,960,23.1316,-3.82819
728,64,22.9785,4.01782,-0.00809144,0.00258672,0.00313212,0.00343762,-0.00894234,1.30553,0.00737935,0.0135273,1952,960,22.9785,-4.01784
735,64,22.9828,4.1322,-0.008054,0.00255595,0.00240171,0.00307429,-0.00857234,1.35824,0.00696946,0.0158254,1959,960,22.9828,-4.13217
742,64,23.0175,4.2171,-0.00812685,0.00276489,0.00140529,0.00294328,-0.00830525,1.44453,0.0067358,0.014907,1966,960,23.0175,-4.21709
749,64,23.0154,4.36462,-0.00856714,0.00279622,0.000191777,0.00279946,-0.00857038,1.55393,0.00684043,0.0130554,1973,960,23.0153,-4.36459
756,64,23.0177,4.50171,-0.00957035,0.00342469,-0.000698192,0.0034621,-0.00960776,-1.51727,0.00781901,0.0133371,1980,960,23.0177,-4.50169
763,64,22.9961,4.64117,-0.0111661,0.00414297,-0.00169004,0.00432732,-0.0113504,-1.46214,0.00934937,0.0119809,1987,960,22.9961,-4.64116
770,64,22.9576,4.7381,-0.0141805,0.00519813,-0.00241023,0.00549341,-0.0144758,-1.44889,0.0119116,0.0125959,1994,960,22.9577,-4.7381
777,64,22.8361,4.8858,-0.0182418,0.00664498,-0.00278614,0.00695308,-0.0185499,-1.46066,0.0152231,0.0293005,2001,960,22.836,-4.88582
784,64,22.6541,4.93915,-0.0235864,0.0084602,-0.00278931,0.00870117,-0.0238274,-1.48462,0.0194454,0.0422364,2008,960,22.6541,-4.93913
791,64,22.1776,3.66522,-0.0299875,0.0107619,-0.00234567,0.0108965,-0.0301221,-1.51349,0.0245339,0.0435624,2015,960,22.1776,-3.66525
798,64,21.1268,3.19067,0,0,0,0,0,0,0,-1,2022,960,21.1268,-3.19065
805,64,24.105,1.84631,0,0,0,0,0,0,0,-1,2029,960,24.1051,-1.84632
812,64,0,0,0,0,0,0,0,0,0,-1,2036,960,0,0
-700,57,0,0,0,0,0,0,0,0,0,-1,524,967,0,0
-693,57,0,0,0,0,0,0,0,0,0,-1,531,967,0,0
-686,57,-20.6554,1.41425,0.0921238,0.0229542,0.0861583,0.150379,-0.0353015,0.594538,0.113859,0.0454408,538,967,-20.6554,-1.41427
-679,57,-20.1675,1.9325,0.0751335,0.0218149,0.0674909,0.12104,-0.0240913,0.597301,0.0898072,0.045333,545,967,-20.1675,-1.93248
-672,57,-19.6569,2.49548,0,0,0,0,0,0,0,-1,552,967,-19.6569,-2.49546
-665,57,-16.8368,2.0683,0,0,0,0,0,0,0,-1,559,967,-16.8368,-2.06828
-658,57,-16.3327,2.21375,0,0,0,0,0,0,0,-1,566,967,-16.3327,-2.21375
-651,57,-16.2726,2.15857,0,0,0,0,0,0,0,-1,573,967,-16.2727,-2.15859
-644,57,-16.1547,2.24847,0.0179996,0.0102492,0.014865,0.0294862,-0.0012374,0.65789,0.0200826,0.0300646,580,967,-16.1547,-2.24848
-637,57,-16.2039,2.14105,0.0108793,0.00840678,0.00827075,0.0180057,0.00128042,0.71121,0.0116006,0.0157467,587,967,-16.2039,-2.14108
-630,57,-16.2641,2.06128,0.00483259,0.0048739,0.00444681,0.0093001,0.000406391,0.787721,0.00606914,0.0128855,594,967,-16.2641,-2.0613
-623,57,-16.272,1.97888,0.000519059,0.0043371,0.000909124,0.00454253,0.000313637,1.34857,0.00292941,0.0127677,601,967,-16.272,-1.97889
-616,57,-16.2563,1.88007,-0.00135752,0.00278518,8.58607e-05,0.00278696,-0.0013593,1.55008,0.00244068,0.0145779,608,967,-16.2563,-1.88006
-609,57,-16.2485,1.77502,-0.00295612,0.00202334,-0.000513843,0.00207581,-0.00300859,-1.46903,0.0029519,0.0141746,615,967,-16.2486,-1.77503
-602,57,-16.24,1.69336,-0.00449944,0.00155261,-0.00135278,0.00184122,-0.00478805,-1.3606,0.00395145,0.0110275,622,967,-16.24,-1.69336
-595,57,-16.2465,1.61877,-0.00539804,0.00125596,-0.00186336,0.00174223,-0.00588431,-1.31552,0.00461458,0.0120062,629,967,-16.2465,-1.6188
-588,57,-16.2897,1.57959,-0.0056046,0.00101595,-0.002022,0.00158465,-0.0061733,-1.29663,0.00473301,0.0173149,636,967,-16.2896,-1.57962
-581,57,-16.5046,1.21283,-0.00583071,0.00090831,-0.00209621,0.00150714,-0.00642954,-1.29254,0.00486715,0.0268636,643,967,-16.5046,-1.21284
-574,57,-16.7576,0.80249,0,0,0,0,0,0,0,-1,650,967,-16.7576,-0.80252
-567,57,-16.6686,0.84729,-0.00627786,0.001032,-0.00182967,0.0014644,-0.00671026,-1.33873,0.00503315,0.0306108,657,967,-16.6686,-0.847308
-560,57,-16.5357,0.921448,-0.00603325,0.00121924,-0.00150039,0.00151739,-0.00633139,-1.37464,0.00480722,0.038688,664,967,-16.5357,-0.921437
-553,57,-16.3815,0.850281,-0.00550776,0.00150493,-0.0010385,0.00165548,-0.00565831,-1.42682,0.00442841,0.0394657,671,967,-16.3815,-0.850289
-546,57,-16.5215,0.66449,-0.00479015,0.0018931,-0.000446561,0.00192281,-0.00481986,-1.50437,0.00401087,0.0410576,678,967,-16.5215,-0.664517
-539,57,-16.6832,0.710083,-0.00403527,0.00240025,0.000230318,0.00240848,-0.0040435,1.53507,0.00376471,0.0433029,685,967,-16.6832,-0.710074
-532,57,-16.6473,0.695557,-0.00373718,0.00317256,0.000788981,0.00326151,-0.00382612,1.45854,0.00409637,0.0413468,692,967,-16.6473,-0.69553
-525,57,-16.8502,0.884216,-0.00529909,0.00445978,0.00100673,0.00456255,-0.00540186,1.46906,0.00575975,0.0426832,699,967,-16.8502,-0.884225
-518,57,0,0,0,0,0,0,0,0,0,-1,706,967,0,0
-511,57,0,0,0,0,0,0,0,0,0,-1,713,967,0,0
-504,57,0,0,0,0,0,0,0,0,0,-1,720,967,0,0
-497,57,0,0,0,0,0,0,0,0,0,-1,727,967,0,0
-490,57,0,0,0,0,0,0,0,0,0,-1,734,967,0,0
-483,57,0,0,0,0,0,0,0,0,0,-1,741,967,0,0
-476,57,0,0,0,0,0,0,0,0,0,-1,748,967,0,0
-469,57,0,0,0,0,0,0,0,0,0,-1,755,967,0,0
-462,57,0,0,0,0,0,0,0,0,0,-1,762,967,0,0
-455,57,0,0,0,0,0,0,0,0,0,-1,769,967,0,0
-448,57,0,0,0,0,0,0,0,0,0,-1,776,967,0,0
-441,57,0,0,0,0,0,0,0,0,0,-1,783,967,0,0
-434,57,0,0,0,0,0,0,0,0,0,-1,790,967,0,0
-427,57,0,0,0,0,0,0,0,0,0,-1,797,967,0,0
-420,57,0,0,0,0,0,0,0,0,0,-1,804,967,0,0
-413,57,0,0,0,0,0,0,0,0,0,-1,811,967,0,0
-406,57,0,0,0,0,0,0,0,0,0,-1,818,967,0,0
-399,57,0,0,0,0,0,0,0,0,0,-1,825,967,0,0
-392,57,0,0,0,0,0,0,0,0,0,-1,832,967,0,0
-385,57,0,0,0,0,0,0,0,0,0,-1,839,967,0,0
-378,57,0,0,0,0,0,0,0,0,0,-1,846,967,0,0
-371,57,0,0,0,0,0,0,0,0,0,-1,853,967,0,0
-364,57,0,0,0,0,0,0,0,0,0,-1,860,967,0,0
-357,57,0,0,0,0,0,0,0,0,0,-1,867,967,0,0
-350,57,0,0,0,0,0,0,0,0,0,-1,874,967,0,0
-343,57,0,0,0,0,0,0,0,0,0,-1,881,967,0,0
-336,57,0,0,0,0,0,0,0,0,0,-1,888,967,0,0
-329,57,0,0,0,0,0,0,0,0,0,-1,895,967,0,0
-322,57,0,0,0,0,0,0,0,0,0,-1,902,967,0,0
-315,57,0,0,0,0,0,0,0,0,0,-1,909,967,0,0
-308,57,0,0,0,0,0,0,0,0,0,-1,916,967,0,0
-301,57,0,0,0,0,0,0,0,0,0,-1,923,967,0,0
-294,57,0,0,0,0,0,0,0,0,0,-1,930,967,0,0
-287,57,0,0,0,0,0,0,0,0,0,-1,937,967,0,0
-280,57,0,0,0,0,0,0,0,0,0,-1,944,967,0,0
-273,57,0,0,0,0,0,0,0,0,0,-1,951,967,0,0
-266,57,0,0,0,0,0,0,0,0,0,-1,958,967,0,0
-259,57,0,0,0,0,0,0,0,0,0,-1,965,967,0,0
-252,57,0,0,0,0,0,0,0,0,0,-1,972,967,0,0
-245,57,0,0,0,0,0,0,0,0,0,-1,979,967,0,0
-238,57,0,0,0,0,0,0,0,0,0,-1,986,967,0,0
-231,57,0,0,0,0,0,0,0,0,0,-1,993,967,0,0
-224,57,0,0,0,0,0,0,0,0,0,-1,1000,967,0,0
-217,57,0,0,0,0,0,0,0,0,0,-1,1007,967,0,0
-210,57,0,0,0,0,0,0,0,0,0,-1,1014,967,0,0
-203,57,0,0,0,0,0,0,0,0,0,-1,1021,967,0,0
-196,57,0,0,0,0,0,0,0,0,0,-1,1028,967,0,0
-189,57,0,0,0,0,0,0,0,0,0,-1,1035,967,0,0
-182,57,0,0,0,0,0,0,0,0,0,-1,1042,967,0,0
-175,57,0,0,0,0,0,0,0,0,0,-1,1049,967,0,0
-168,57,0,0,0,0,0,0,0,0,0,-1,1056,967,0,0
-161,57,0,0,0,0,0,0,0,0,0,-1,1063,967,0,0
-154,57,0,0,0,0,0,0,0,0,0,-1,1070,967,0,0
-147,57,0,0,0,0,0,0,0,0,0,-1,1077,967,0,0
-140,57,0,0,0,0,0,0,0,0,0,-1,1084,967,0,0
-133,57,0,0,0,0,0,0,0,0,0,-1,1091,967,0,0
-126,57,0,0,0,0,0,0,0,0,0,-1,1098,967,0,0
-119,57,0,0,0,0,0,0,0,0,0,-1,1105,967,0,0
-112,57,0,0,0,0,0,0,0,0,0,-1,1112,967,0,0
-105,57,0,0,0,0,0,0,0,0,0,-1,1119,967,0,0
-98,57,0,0,0,0,0,0,0,0,0,-1,1126,967,0,0
-91,57,0,0,0,0,0,0,0,0,0,-1,1133,967,0,0
-84,57,0,0,0,0,0,0,0,0,0,-1,1140,967,0,0
-77,57,0,0,0,0,0,0,0,0,0,-1,1147,967,0,0
-70,57,0,0,0,0,0,0,0,0,0,-1,1154,967,0,0
-63,57,0,0,0,0,0,0,0,0,0,-1,1161,967,0,0
-56,57,0,0,0,0,0,0,0,0,0,-1,1168,967,0,0
-49,57,0,0,0,0,0,0,0,0,0,-1,1175,967,0,0
-42,57,0,0,0,0,0,0,0,0,0,-1,1182,967,0,0
-35,57,0,0,0,0,0,0,0,0,0,-1,1189,967,0,0
-28,57,0,0,0,0,0,0,0,0,0,-1,1196,967,0,0
-21,57,0,0,0,0,0,0,0,0,0,-1,1203,967,0,0
-14,57,0,0,0,0,0,0,0,0,0,-1,1210,967,0,0
-7,57,0,0,0,0,0,0,0,0,0,-1,1217,967,0,0
0,57,0,0,0,0,0,0,0,0,0,-1,1224,967,0,0
7,57,0,0,0,0,0,0,0,0,0,-1,1231,967,0,0
14,57,0,0,0,0,0,0,0,0,0,-1,1238,967,0,0
21,57,0,0,0,0,0,0,0,0,0,-1,1245,967,0,0
28,57,0,0,0,0,0,0,0,0,0,-1,1252,967,0,0
35,57,0,0,0,0,0,0,0,0,0,-1,1259,967,0,0
42,57,0,0,0,0,0,0,0,0,0,-1,1266,967,0,0
49,57,0,0,0,0,0,0,0,0,0,-1,1273,967,0,0
56,57,0,0,0,0,0,0,0,0,0,-1,1280,967,0,0
63,57,0,0,0,0,0,0,0,0,0,-1,1287,967,0,0
70,57,0,0,0,0,0,0,0,0,0,-1,1294,967,0,0
77,57,0,0,0,0,0,0,0,0,0,-1,1301,967,0,0
84,57,0,0,0,0,0,0,0,0,0,-1,1308,967,0,0
91,57,0,0,0,0,0,0,0,0,0,-1,1315,967,0,0
98,57,0,0,0,0,0,0,0,0,0,-1,1322,967,0,0
105,57,0,0,0,0,0,0,0,0,0,-1,1329,967,0,0
112,57,0,0,0,0,0,0,0,0,0,-1,1336,967,0,0
119,57,0,0,0,0,0,0,0,0,0,-1,1343,967,0,0
126,57,0,0,0,0,0,0,0,0,0,-1,1350,967,0,0
133,57,0,0,0,0,0,0,0,0,0,-1,1357,967,0,0
140,57,0,0,0,0,0,0,0,0,0,-1,1364,967,0,0
147,57,0,0,0,0,0,0,0,0,0,-1,1371,967,0,0
154,57,0,0,0,0,0,0,0,0,0,-1,1378,967,0,0
161,57,0,0,0,0,0,0,0,0,0,-1,1385,967,0,0
168,57,0,0,0,0,0,0,0,0,0,-1,1392,967,0,0
175,57,0,0,0,0,0,0,0,0,0,-1,1399,967,0,0
182,57,0,0,0,0,0,0,0,0,0,-1,1406,967,0,0
189,57,0,0,0,0,0,0,0,0,0,-1,1413,967,0,0
196,57,0,0,0,0,0,0,0,0,0,-1,1420,967,0,0
203,57,0,0,0,0,0,0,0,0,0,-1,1427,967,0,0
210,57,0,0,0,0,0,0,0,0,0,-1,1434,967,0,0
217,57,0,0,0,0,0,0,0,0,0,-1,1441,967,0,0
224,57,0,0,0,0,0,0,0,0,0,-1,1448,967,0,0
231,57,0,0,0,0,0,0,0,0,0,-1,1455,967,0,0
238,57,0,0,0,0,0,0,0,0,0,-1,1462,967,0,0
245,57,0,0,0,0,0,0,0,0,0,-1,1469,967,0,0
252,57,0,0,0,0,0,0,0,0,0,-1,1476,967,0,0
259,57,0,0,0,0,0,0,0,0,0,-1,1483,967,0,0
266,57,0,0,0,0,0,0,0,0,0,-1,1490,967,0,0
273,57,0,0,0,0,0,0,0,0,0,-1,1497,967,0,0
280,57,0,0,0,0,0,0,0,0,0,-1,1504,967,0,0
287,57,0,0,0,0,0,0,0,0,0,-1,1511,967,0,0
294,57,0,0,0,0,0,0,0,0,0,-1,1518,967,0,0
301,57,0,0,0,0,0,0,0,0,0,-1,1525,967,0,0
308,57,0,0,0,0,0,0,0,0,0,-1,1532,967,0,0
315,57,0,0,0,0,0,0,0,0,0,-1,1539,967,0,0
322,57,0,0,0,0,0,0,0,0,0,-1,1546,967,0,0
329,57,0,0,0,0,0,0,0,0,0,-1,1553,967,0,0
336,57,0,0,0,0,0,0,0,0,0,-1,1560,967,0,0
343,57,0,0,0,0,0,0,0,0,0,-1,1567,967,0,0
350,57,0,0,0,0,0,0,0,0,0,-1,1574,967,0,0
357,57,0,0,0,0,0,0,0,0,0,-1,1581,967,0,0
364,57,0,0,0,0,0,0,0,0,0,-1,1588,967,0,0
371,57,0,0,0,0,0,0,0,0,0,-1,1595,967,0,0
378,57,0,0,0,0,0,0,0,0,0,-1,1602,967,0,0
385,57,0,0,0,0,0,0,0,0,0,-1,1609,967,0,0
392,57,0,0,0,0,0,0,0,0,0,-1,1616,967,0,0
399,57,0,0,0,0,0,0,0,0,0,-1,1623,967,0,0
406,57,0,0,0,0,0,0,0,0,0,-1,1630,967,0,0
413,57,0,0,0,0,0,0,0,0,0,-1,1637,967,0,0
420,57,0,0,0,0,0,0,0,0,0,-1,1644,967,0,0
427,57,0,0,0,0,0,0,0,0,0,-1,1651,967,0,0
434,57,0,0,0,0,0,0,0,0,0,-1,1658,967,0,0
441,57,0,0,0,0,0,0,0,0,0,-1,1665,967,0,0
448,57,0,0,0,0,0,0,0,0,0,-1,1672,967,0,0
455,57,0,0,0,0,0,0,0,0,0,-1,1679,967,0,0
462,57,0,0,0,0,0,0,0,0,0,-1,1686,967,0,0
469,57,0,0,0,0,0,0,0,0,0,-1,1693,967,0,0
476,57,0,0,0,0,0,0,0,0,0,-1,1700,967,0,0
483,57,0,0,0,0,0,0,0,0,0,-1,1707,967,0,0
490,57,0,0,0,0,0,0,0,0,0,-1,1714,967,0,0
497,57,0,0,0,0,0,0,0,0,0,-1,1721,967,0,0
504,57,0,0,0,0,0,0,0,0,0,-1,1728,967,0,0
511,57,0,0,0,0,0,0,0,0,0,-1,1735,967,0,0
518,57,0,0,0,0,0,0,0,0,0,-1,1742,967,0,0
525,57,0,0,0,0,0,0,0,0,0,-1,1749,967,0,0
532,57,0,0,0,0,0,0,0,0,0,-1,1756,967,0,0
539,57,0,0,0,0,0,0,0,0,0,-1,1763,967,0,0
546,57,0,0,0,0,0,0,0,0,0,-1,1770,967,0,0
553,57,0,0,0,0,0,0,0,0,0,-1,1777,967,0,0
560,57,0,0,0,0,0,0,0,0,0,-1,1784,967,0,0
567,57,0,0,0,0,0,0,0,0,0,-1,1791,967,0,0
574,57,0,0,0,0,0,0,0,0,0,-1,1798,967,0,0
581,57,0,0,0,0,0,0,0,0,0,-1,1805,967,0,0
588,57,0,0,0,0,0,0,0,0,0,-1,1812,967,0,0
595,57,0,0,0,0,0,0,0,0,0,-1,1819,967,0,0
602,57,0,0,0,0,0,0,0,0,0,-1,1826,967,0,0
609,57,0,0,0,0,0,0,0,0,0,-1,1833,967,0,0
616,57,0,0,0,0,0,0,0,0,0,-1,1840,967,0,0
623,57,0,0,0,0,0,0,0,0,0,-1,1847,967,0,0
630,57,0,0,0,0,0,0,0,0,0,-1,1854,967,0,0
637,57,0,0,0,0,0,0,0,0,0,-1,1861,967,0,0
644,57,24.3325,2.70294,-0.00244738,-0.00599904,0.00297066,-0.000762231,-0.00768419,0.516002,0.00488856,0.0411162,1868,967,24.3325,-2.70296
651,57,24.3429,2.74585,-0.00147222,-0.00436399,0.002706,0.000149956,-0.00598617,0.540034,0.00404169,0.0351699,1875,967,24.3429,-2.74584
658,57,24.2532,2.93427,-0.00118259,-0.00289101,0.00261678,0.000715877,-0.00478947,0.627633,0.00345641,0.0359744,1882,967,24.2532,-2.93428
665,57,24.1125,2.98346,0,0,0,0,0,0,0,-1,1889,967,24.1126,-2.98349
672,57,24.2106,2.89337,-0.00278509,-0.000164381,0.00322412,0.0020055,-0.00495496,0.978413,0.00413714,0.045238,1896,967,24.2106,-2.89336
679,57,24.2006,2.76807,-0.00411458,0.000827693,0.00371285,0.00281657,-0.00610346,1.07902,0.00526524,0.0410941,1903,967,24.2005,-2.76809
686,57,24.1805,2.57025,-0.00530168,0.00150067,0.00410747,0.00343235,-0.00723335,1.1312,0.00628684,0.0378875,1910,967,24.1806,-2.57025
693,57,24.2106,2.59619,-0.00628998,0.00200657,0.00446513,0.00395301,-0.00823642,1.15971,0.00718095,0.0313608,1917,967,24.2106,-2.5962
700,57,24.2139,2.71332,-0.00697074,0.00243792,0.00462703,0.00433209,-0.00886491,1.18224,0.00776766,0.0228484,1924,967,24.2138,-2.7133
707,57,24.1421,3.08496,-0.00747615,0.00261824,0.00450446,0.00433598,-0.00919389,1.20648,0.00797755,0.0346847,1931,967,24.1421,-3.08497
714,57,23.8145,3.77728,0,0,0,0,0,0,0,-1,1938,967,23.8145,-3.77727
721,57,23.2654,3.79944,-0.00775762,0.00280522,0.00387681,0.00407537,-0.00902777,1.25419,0.00774312,0.038031,1945,967,23.2654,-3.79945
728,57,23.1073,4.02264,-0.00775178,0.00265788,0.0035735,0.00376654,-0.00886044,1.26997,0.00748531,0.0192537,1952,967,23.1073,-4.02265
735,57,23.1483,4.15448,-0.00803368,0.00263863,0.00272013,0.00329194,-0.00868699,1.33509,0.00714603,0.0195511,1959,967,23.1483,-4.15451
742,57,23.1625,4.20978,-0.0085476,0.00284547,0.00149087,0.00303733,-0.00873946,1.44281,0.00706,0.0148959,1966,967,23.1625,-4.20978
749,57,23.1302,4.35083,-0.00951351,0.00282539,-1.21592e-05,0.00282541,-0.00951353,-1.56981,0.00746457,0.0122924,1973,967,23.1303,-4.35086
756,57,23.1113,4.46332,-0.0110014,0.00325125,-0.00112656,0.00333974,-0.0110899,-1.4924,0.0087223,0.0102672,1980,967,23.1114,-4.46333
763,57,23.1039,4.56921,-0.0131318,0.00381905,-0.00249043,0.00417737,-0.0134902,-1.4279,0.0106623,0.0107848,1987,967,23.1039,-4.56924
770,57,23.0884,4.67145,-0.0167824,0.00458701,-0.00365134,0.00519368,-0.017389,-1.40615,0.0136572,0.0106328,1994,967,23.0884,-4.67146
777,57,22.985,4.81012,-0.0216163,0.00569494,-0.00443092,0.00639582,-0.0223172,-1.41392,0.0174063,0.0268372,2001,967,22.985,-4.81012
784,57,22.5162,4.35657,-0.0279214,0.00704934,-0.00478113,0.00769123,-0.0285633,-1.43734,0.0220575,0.0428437,2008,967,22.5163,-4.35657
791,57,22.145,3.99274,-0.0353835,0.00873648,-0.00455323,0.00920148,-0.0358485,-1.46902,0.0274845,0.0471993,2015,967,22.145,-3.99276
798,57,21.3577,3.38177,-0.0438849,0.0110286,-0.0033605,0.0112335,-0.0440898,-1.5099,0.0337664,0.047515,2022,967,21.3577,-3.38178
805,57,21.3274,4.16199,0,0,0,0,0,0,0,-1,2029,967,21.3273,-4.162
812,57,0,0,0,0,0,0,0,0,0,-1,2036,967,0,0
-700,50,0,0,0,0,0,0,0,0,0,-1,524,974,0,0
-693,50,-22.045,0.906311,0.115416,0.0437042,0.105859,0.191327,-0.0322062,0.622104,0.139531,0.0454497,531,974,-22.045,-0.906314
-686,50,-21.5334,1.67664,0.0944531,0.0382078,0.0817799,0.152811,-0.0201499,0.619791,0.109212,0.0429191,538,974,-21.5334,-1.67662
-679,50,-20.9476,2.37543,0.0762975,0.0331631,0.063453,0.121748,-0.0122878,0.621577,0.0855562,0.0454887,545,974,-20.9476,-2.3754
-672,50,-20.3413,2.99213,0,0,0,0,0,0,0,-1,552,974,-20.3413,-2.99214
-665,50,-19.6967,3.62787,0,0,0,0,0,0,0,-1,559,974,-19.6967,-3.62785
-658,50,-16.4572,2.18665,0.0353105,0.0198547,0.0271422,0.0558035,-0.000638299,0.646709,0.0374169,0.0491735,566,974,-16.4572,-2.18667
-651,50,-16.3351,2.18726,0.0255091,0.0159374,0.0193326,0.0406394,0.000807129,0.66406,0.0268279,0.0418882,573,974,-16.3351,-2.18725
-644,50,-16.2422,2.05011,0.0175444,0.0123964,0.0131858,0.0284051,0.00153574,0.689007,0.0184461,0.0273957,580,974,-16.2423,-2.05013
-637,50,-16.3254,2.07275,0.0102812,0.00996669,0.00674132,0.0168671,0.00338078,0.773738,0.0103044,0.0150448,587,974,-16.3254,-2.07277
-630,50,-16.3569,2.02948,0.00429496,0.00529909,0.00331584,0.00815066,0.00144339,0.860534,0.00502227,0.0101087,594,974,-16.3569,-2.02945
-623,50,-16.3516,1.96252,0.000116651,0.00438153,-3.40599e-06,0.00438153,0.000116648,-1.57,0.00288293,0.0108983,601,974,-16.3516,-1.96251
-616,50,-16.3471,1.88477,-0.00139149,0.00287116,-0.000691026,0.00298039,-0.00150072,-1.41403,0.00263376,0.0111715,608,974,-16.3471,-1.88475
-609,50,-16.3588,1.78204,-0.00257664,0.00209586,-0.00110856,0.00234552,-0.00282631,-1.34927,0.00299026,0.0101361,615,974,-16.3588,-1.78207
-602,50,-16.3748,1.69287,-0.00379193,0.00165549,-0.00193024,0.0022701,-0.00440655,-1.26253,0.00392,0.0108646,622,974,-16.3748,-1.69286
-595,50,-16.3597,1.63043,-0.00446995,0.00139108,-0.00248897,0.00230542,-0.00538429,-1.21874,0.00455673,0.011138,629,974,-16.3597,-1.63044
-588,50,-16.4034,1.51624,-0.00452897,0.00113895,-0.00267797,0.00220407,-0.0055941,-1.19224,0.00464192,0.012549,636,974,-16.4034,-1.51625
-581,50,-16.6301,1.1189,-0.00464666,0.00100258,-0.00273074,0.00210675,-0.00575083,-1.18655,0.00469638,0.0220167,643,974,-16.6301,-1.11893
-574,50,-16.7383,0.803284,-0.00499983,0.000873312,-0.00262193,0.00187349,-0.00600001,-1.20637,0.00474931,0.0267806,650,974,-16.7383,-0.803304
-567,50,-16.6567,0.844727,-0.00505036,0.00101241,-0.0023625,0.00182429,-0.00586224,-1.23979,0.00463744,0.0334564,657,974,-16.6567,-0.844719
-560,50,-16.5585,1.08667,-0.00487143,0.00111023,-0.00193447,0.00168132,-0.00544251,-1.28373,0.00429979,0.0409057,664,974,-16.5585,-1.08668
-553,50,-16.4741,0.917664,-0.00449921,0.00128045,-0.00134464,0.00157796,-0.00479672,-1.35304,0.00383363,0.039648,671,974,-16.474,-0.917652
-546,50,-16.73,0.862305,-0.00401836,0.00152285,-0.000602709,0.00158765,-0.00408316,-1.4637,0.00337806,0.0393659,678,974,-16.73,-0.862305
-539,50,-16.6841,0.808655,-0.00357712,0.001857,0.000224404,0.00186625,-0.00358637,1.52959,0.00319986,0.0440601,685,974,-16.6841,-0.808651
-532,50,-16.6514,0.899719,-0.00371844,0.00247578,0.00086464,0.0025942,-0.00383687,1.43467,0.00373602,0.0440668,692,974,-16.6514,-0.899712
-525,50,-16.7709,0.910706,-0.00580075,0.00359171,0.00109624,0.00371796,-0.005927,1.45613,0.00561699,0.0423719,699,974,-16.7709,-0.910703
-518,50,0,0,0,0,0,0,0,0,0,-1,706,974,0,0
-511,50,0,0,0,0,0,0,0,0,0,-1,713,974,0,0
-504,50,0,0,0,0,0,0,0,0,0,-1,720,974,0,0
-497,50,0,0,0,0,0,0,0,0,0,-1,727,974,0,0
-490,50,0,0,0,0,0,0,0,0,0,-1,734,974,0,0
-483,50,0,0,0,0,0,0,0,0,0,-1,741,974,0,0
-476,50,0,0,0,0,0,0,0,0,0,-1,748,974,0,0
-469,50,0,0,0,0,0,0,0,0,0,-1,755,974,0,0
-462,50,0,0,0,0,0,0,0,0,0,-1,762,974,0,0
-455,50,0,0,0,0,0,0,0,0,0,-1,769,974,0,0
-448,50,0,0,0,0,0,0,0,0,0,-1,776,974,0,0
-441,50,0,0,0,0,0,0,0,0,0,-1,783,974,0,0
-434,50,0,0,0,0,0,0,0,0,0,-1,790,974,0,0
-427,50,0,0,0,0,0,0,0,0,0,-1,797,974,0,0
-420,50,0,0,0,0,0,0,0,0,0,-1,804,974,0,0
-413,50,0,0,0,0,0,0,0,0,0,-1,811,974,0,0
-406,50,0,0,0,0,0,0,0,0,0,-1,818,974,0,0
-399,50,0,0,0,0,0,0,0,0,0,-1,825,974,0,0
-392,50,0,0,0,0,0,0,0,0,0,-1,832,974,0,0
-385,50,0,0,0,0,0,0,0,0,0,-1,839,974,0,0
-378,50,0,0,0,0,0,0,0,0,0,-1,846,974,0,0
-371,50,0,0,0,0,0,0,0,0,0,-1,853,974,0,0
-364,50,0,0,0,0,0,0,0,0,0,-1,860,974,0,0
-357,50,0,0,0,0,0,0,0,0,0,-1,867,974,0,0
-350,50,0,0,0,0,0,0,0,0,0,-1,874,974,0,0
-343,50,0,0,0,0,0,0,0,0,0,-1,881,974,0,0
-336,50,0,0,0,0,0,0,0,0,0,-1,888,974,0,0
-329,50,0,0,0,0,0,0,0,0,0,-1,895,974,0,0
-322,50,0,0,0,0,0,0,0,0,0,-1,902,974,0,0
-315,50,0,0,0,0,0,0,0,0,0,-1,909,974,0,0
-308,50,0,0,0,0,0,0,0,0,0,-1,916,974,0,0
-301,50,0,0,0,0,0,0,0,0,0,-1,923,974,0,0
-294,50,0,0,0,0,0,0,0,0,0,-1,930,974,0,0
-287,50,0,0,0,0,0,0,0,0,0,-1,937,974,0,0
-280,50,0,0,0,0,0,0,0,0,0,-1,944,974,0,0
-273,50,0,0,0,0,0,0,0,0,0,-1,951,974,0,0
-266,50,0,0,0,0,0,0,0,0,0,-1,958,974,0,0
-259,50,0,0,0,0,0,0,0,0,0,-1,965,974,0,0
-252,50,0,0,0,0,0,0,0,0,0,-1,972,974,0,0
-245,50,0,0,0,0,0,0,0,0,0,-1,979,974,0,0
-238,50,0,0,0,0,0,0,0,0,0,-1,986,974,0,0
-231,50,0,0,0,0,0,0,0,0,0,-1,993,974,0,0
-224,50,0,0,0,0,0,0,0,0,0,-1,1000,974,0,0
-217,50,0,0,0,0,0,0,0,0,0,-1,1007,974,0,0
-210,50,0,0,0,0,0,0,0,0,0,-1,1014,974,0,0
-203,50,0,0,0,0,0,0,0,0,0,-1,1021,974,0,0
-196,50,0,0,0,0,0,0,0,0,0,-1,1028,974,0,0
-189,50,0,0,0,0,0,0,0,0,0,-1,1035,974,0,0
-182,50,0,0,0,0,0,0,0,0,0,-1,1042,974,0,0
-175,50,0,0,0,0,0,0,0,0,0,-1,1049,974,0,0
-168,50,0,0,0,0,0,0,0,0,0,-1,1056,974,0,0
-161,50,0,0,0,0,0,0,0,0,0,-1,1063,974,0,0
-154,50,0,0,0,0,0,0,0,0,0,-1,1070,974,0,0
-147,50,0,0,0,0,0,0,0,0,0,-1,1077,974,0,0
-140,50,0,0,0,0,0,0,0,0,0,-1,1084,974,0,0
-133,50,0,0,0,0,0,0,0,0,0,-1,1091,974,0,0
-126,50,0,0,0,0,0,0,0,0,0,-1,1098,974,0,0
-119,50,0,0,0,0,0,0,0,0,0,-1,1105,974,0,0
-112,50,0,0,0,0,0,0,0,0,0,-1,1112,974,0,0
-105,50,0,0,0,0,0,0,0,0,0,-1,1119,974,0,0
-98,50,0,0,0,0,0,0,0,0,0,-1,1126,974,0,0
-91,50,0,0,0,0,0,0,0,0,0,-1,1133,974,0,0
-84,50,0,0,0,0,0,0,0,0,0,-1,1140,974,0,0
-77,50,0,0,0,0,0,0,0,0,0,-1,1147,974,0,0
-70,50,0,0,0,0,0,0,0,0,0,-1,1154,974,0,0
-63,50,0,0,0,0,0,0,0,0,0,-1,1161,974,0,0
-56,50,0,0,0,0,0,0,0,0,0,-1,1168,974,0,0
-49,50,0,0,0,0,0,0,0,0,0,-1,1175,974,0,0
-42,50,0,0,0,0,0,0,0,0,0,-1,1182,974,0,0
-35,50,0,0,0,0,0,0,0,0,0,-1,1189,974,0,0
-28,50,0,0,0,0,0,0,0,0,0,-1,1196,974,0,0
-21,50,0,0,0,0,0,0,0,0,0,-1,1203,974,0,0
-14,50,0,0,0,0,0,0,0,0,0,-1,1210,974,0,0
-7,50,0,0,0,0,0,0,0,0,0,-1,1217,974,0,0
0,50,0,0,0,0,0,0,0,0,0,-1,1224,974,0,0
7,50,0,0,0,0,0,0,0,0,0,-1,1231,974,0,0
14,50,0,0,0,0,0,0,0,0,0,-1,1238,974,0,0
21,50,0,0,0,0,0,0,0,0,0,-1,1245,974,0,0
28,50,0,0,0,0,0,0,0,0,0,-1,1252,974,0,0
35,50,0,0,0,0,0,0,0,0,0,-1,1259,974,0,0
42,50,0,0,0,0,0,0,0,0,0,-1,1266,974,0,0
49,50,0,0,0,0,0,0,0,0,0,-1,1273,974,0,0
56,50,0,0,0,0,0,0,0,0,0,-1,1280,974,0,0
63,50,0,0,0,0,0,0,0,0,0,-1,1287,974,0,0
70,50,0,0,0,0,0,0,0,0,0,-1,1294,974,0,0
77,50,0,0,0,0,0,0,0,0,0,-1,1301,974,0,0
84,50,0,0,0,0,0,0,0,0,0,-1,1308,974,0,0
91,50,0,0,0,0,0,0,0,0,0,-1,1315,974,0,0
98,50,0,0,0,0,0,0,0,0,0,-1,1322,974,0,0
105,50,0,0,0,0,0,0,0,0,0,-1,1329,974,0,0
112,50,0,0,0,0,0,0,0,0,0,-1,1336,974,0,0
119,50,0,0,0,0,0,0,0,0,0,-1,1343,974,0,0
126,50,0,0,0,0,0,0,0,0,0,-1,1350,974,0,0
133,50,0,0,0,0,0,0,0,0,0,-1,1357,974,0,0
140,50,0,0,0,0,0,0,0,0,0,-1,1364,974,0,0
147,50,0,0,0,0,0,0,0,0,0,-1,1371,974,0,0
154,50,0,0,0,0,0,0,0,0,0,-1,1378,974,0,0
161,50,0,0,0,0,0,0,0,0,0,-1,1385,974,0,0
168,50,0,0,0,0,0,0,0,0,0,-1,1392,974,0,0
175,50,0,0,0,0,0,0,0,0,0,-1,1399,974,0,0
182,50,0,0,0,0,0,0,0,0,0,-1,1406,974,0,0
189,50,0,0,0,0,0,0,0,0,0,-1,1413,974,0,0
196,50,0,0,0,0,0,0,0,0,0,-1,1420,974,0,0
203,50,0,0,0,0,0,0,0,0,0,-1,1427,974,0,0
210,50,0,0,0,0,0,0,0,0,0,-1,1434,974,0,0
217,50,0,0,0,0,0,0,0,0,0,-1,1441,974,0,0
224,50,0,0,0,0,0,0,0,0,0,-1,1448,974,0,0
231,50,0,0,0,0,0,0,0,0,0,-1,1455,974,0,0
238,50,0,0,0,0,0,0,0,0,0,-1,1462,974,0,0
245,50,0,0,0,0,0,0,0,0,0,-1,1469,974,0,0
252,50,0,0,0,0,0,0,0,0,0,-1,1476,974,0,0
259,50,0,0,0,0,0,0,0,0,0,-1,1483,974,0,0
266,50,0,0,0,0,0,0,0,0,0,-1,1490,974,0,0
273,50,0,0,0,0,0,0,0,0,0,-1,1497,974,0,0
280,50,0,0,0,0,0,0,0,0,0,-1,1504,974,0,0
287,50,0,0,0,0,0,0,0,0,0,-1,1511,974,0,0
294,50,0,0,0,0,0,0,0,0,0,-1,1518,974,0,0
301,50,0,0,0,0,0,0,0,0,0,-1,1525,974,0,0
308,50,0,0,0,0,0,0,0,0,0,-1,1532,974,0,0
315,50,0,0,0,0,0,0,0,0,0,-1,1539,974,0,0
322,50,0,0,0,0,0,0,0,0,0,-1,1546,974,0,0
329,50,0,0,0,0,0,0,0,0,0,-1,1553,974,0,0
336,50,0,0,0,0,0,0,0,0,0,-1,1560,974,0,0
343,50,0,0,0,0,0,0,0,0,0,-1,1567,974,0,0
350,50,0,0,0,0,0,0,0,0,0,-1,1574,974,0,0
357,50,0,0,0,0,0,0,0,0,0,-1,1581,974,0,0
364,50,0,0,0,0,0,0,0,0,0,-1,1588,974,0,0
371,50,0,0,0,0,0,0,0,0,0,-1,1595,974,0,0
378,50,0,0,0,0,0,0,0,0,0,-1,1602,974,0,0
385,50,0,0,0,0,0,0,0,0,0,-1,1609,974,0,0
392,50,0,0,0,0,0,0,0,0,0,-1,1616,974,0,0
399,50,0,0,0,0,0,0,0,0,0,-1,1623,974,0,0
406,50,0,0,0,0,0,0,0,0,0,-1,1630,974,0,0
413,50,0,0,0,0,0,0,0,0,0,-1,1637,974,0,0
420,50,0,0,0,0,0,0,0,0,0,-1,1644,974,0,0
427,50,0,0,0,0,0,0,0,0,0,-1,1651,974,0,0
434,50,0,0,0,0,0,0,0,0,0,-1,1658,974,0,0
441,50,0,0,0,0,0,0,0,0,0,-1,1665,974,0,0
448,50,0,0,0,0,0,0,0,0,0,-1,1672,974,0,0
455,50,0,0,0,0,0,0,0,0,0,-1,1679,974,0,0
462,50,0,0,0,0,0,0,0,0,0,-1,1686,974,0,0
469,50,0,0,0,0,0,0,0,0,0,-1,1693,974,0,0
476,50,0,0,0,0,0,0,0,0,0,-1,1700,974,0,0
483,50,0,0,0,0,0,0,0,0,0,-1,1707,974,0,0
490,50,0,0,0,0,0,0,0,0,0,-1,1714,974,0,0
497,50,0,0,0,0,0,0,0,0,0,-1,1721,974,0,0
504,50,0,0,0,0,0,0,0,0,0,-1,1728,974,0,0
511,50,0,0,0,0,0,0,0,0,0,-1,1735,974,0,0
518,50,0,0,0,0,0,0,0,0,0,-1,1742,974,0,0
525,50,0,0,0,0,0,0,0,0,0,-1,1749,974,0,0
532,50,0,0,0,0,0,0,0,0,0,-1,1756,974,0,0
539,50,0,0,0,0,0,0,0,0,0,-1,1763,974,0,0
546,50,0,0,0,0,0,0,0,0,0,-1,1770,974,0,0
553,50,0,0,0,0,0,0,0,0,0,-1,1777,974,0,0
560,50,0,0,0,0,0,0,0,0,0,-1,1784,974,0,0
567,50,0,0,0,0,0,0,0,0,0,-1,1791,974,0,0
574,50,0,0,0,0,0,0,0,0,0,-1,1798,974,0,0
581,50,0,0,0,0,0,0,0,0,0,-1,1805,974,0,0
588,50,0,0,0,0,0,0,0,0,0,-1,1812,974,0,0
595,50,0,0,0,0,0,0,0,0,0,-1,1819,974,0,0
602,50,0,0,0,0,0,0,0,0,0,-1,1826,974,0,0
609,50,0,0,0,0,0,0,0,0,0,-1,1833,974,0,0
616,50,0,0,0,0,0,0,0,0,0,-1,1840,974,0,0
623,50,0,0,0,0,0,0,0,0,0,-1,1847,974,0,0
630,50,0,0,0,0,0,0,0,0,0,-1,1854,974,0,0
637,50,0,0,0,0,0,0,0,0,0,-1,1861,974,0,0
644,50,24.3463,2.7746,-0.00262859,-0.00539278,0.00307185,-0.000642236,-0.00737914,0.574004,0.00471993,0.0381975,1868,974,24.3464,-2.77459
651,50,24.288,2.81866,-0.00154035,-0.00375436,0.00257588,0.000156323,-0.00545103,0.582451,0.00368723,0.0335456,1875,974,24.288,-2.81869
658,50,24.2054,2.97382,-0.00107947,-0.00242289,0.0023083,0.000652866,-0.00415523,0.643809,0.00301146,0.0401951,1882,974,24.2055,-2.97384
665,50,23.9952,2.76715,0,0,0,0,0,0,0,-1,1889,974,23.9952,-2.76718
672,50,24.1552,2.72858,-0.00218279,-1.24241e-05,0.00286831,0.00196912,-0.00416433,0.966244,0.00361596,0.0436721,1896,974,24.1551,-2.72858
679,50,24.1575,2.64728,-0.00336785,0.00087129,0.00345706,0.00280682,-0.00530338,1.0604,0.0047558,0.0412547,1903,974,24.1574,-2.64725
686,50,24.1187,2.55859,-0.00447932,0.00148882,0.00399534,0.00349148,-0.00648198,1.10615,0.00584382,0.0414129,1910,974,24.1187,-2.55861
693,50,24.0842,2.58972,-0.00543169,0.00193881,0.00448005,0.00405459,-0.00754747,1.12958,0.00679888,0.0386366,1917,974,24.0843,-2.58975
700,50,24.1404,2.7251,-0.00612454,0.00230552,0.00473509,0.00442985,-0.00824888,1.14908,0.00742994,0.0206884,1924,974,24.1404,-2.72511
707,50,24.1558,2.995,-0.00669885,0.0024625,0.00471718,0.00445711,-0.00869346,1.17076,0.00772269,0.0290054,1931,974,24.1557,-2.99501
714,50,24.0648,3.42499,-0.00709199,0.00256945,0.00448797,0.00433249,-0.00885504,1.19648,0.00776163,0.0463614,1938,974,24.0648,-3.425
721,50,23.4738,3.84247,-0.00719555,0.00265476,0.00427846,0.00425359,-0.00879438,1.21317,0.0076838,0.036507,1945,974,23.4738,-3.84247
728,50,23.2498,3.99457,-0.00735841,0.00254235,0.00397294,0.00393945,-0.00875551,1.23265,0.00750319,0.021034,1952,974,23.2497,-3.99454
735,50,23.2917,4.0993,-0.00788696,0.00258051,0.00302208,0.00339036,-0.00869681,1.30897,0.00719921,0.0190001,1959,974,23.2917,-4.09933
742,50,23.2942,4.19135,-0.00871357,0.00280208,0.00155231,0.00300766,-0.00891915,1.43913,0.00716234,0.0144357,1966,974,23.2942,-4.19136
749,50,23.2649,4.30566,-0.00998006,0.00272594,-0.000227595,0.00273001,-0.00998414,-1.55289,0.00772853,0.0143198,1973,974,23.2648,-4.30567
756,50,23.243,4.42041,-0.0117072,0.00298012,-0.00156861,0.00314578,-0.0118729,-1.46558,0.00914599,0.0114137,1980,974,23.243,-4.42041
763,50,23.2443,4.53015,-0.0140335,0.0034349,-0.00330063,0.00403774,-0.0146363,-1.39014,0.0113456,0.0113852,1987,974,23.2443,-4.53015
770,50,23.2211,4.62292,-0.017827,0.00394792,-0.0049267,0.00501074,-0.0188898,-1.35833,0.0145539,0.0107287,1994,974,23.2211,-4.62294
777,50,23.1678,4.67633,-0.0227926,0.00474761,-0.00616129,0.00606317,-0.0241082,-1.36044,0.0184287,0.0229727,2001,974,23.1679,-4.67634
784,50,22.6443,4.4743,-0.0291813,0.00567969,-0.00692708,0.0070057,-0.0305074,-1.38166,0.0230314,0.0379232,2008,974,22.6443,-4.47432
791,50,22.1466,4.26886,-0.0366073,0.00680465,-0.00701879,0.00791124,-0.0377139,-1.41442,0.0281526,0.0415442,2015,974,22.1467,-4.26884
798,50,21.6475,4.39734,-0.0447738,0.00835899,-0.00599893,0.00902788,-0.0454427,-1.45975,0.0337098,0.0451995,2022,974,21.6474,-4.39733
805,50,21.104,4.61169,-0.053347,0.0107839,-0.00291907,0.0109165,-0.0534796,-1.5254,0.0397942,0.0471613,2029,974,21.104,-4.61168
812,50,0,0,0,0,0,0,0,0,0,-1,2036,974,0,0
-700,43,0,0,0,0,0,0,0,0,0,-1,524,981,0,0
-693,43,-23.5804,0.88678,0.119453,0.0591388,0.101039,0.19474,-0.0161476,0.640372,0.13553,0.0436008,531,981,-23.5804,-0.886788
-686,43,-23.1891,1.97089,0.0970861,0.0511289,0.077032,0.154494,-0.00627869,0.64045,0.105151,0.0438057,538,981,-23.1891,-1.97089
-679,43,-21.7082,2.83295,0,0,0,0,0,0,0,-1,545,981,-21.7082,-2.83292
-672,43,-20.8923,3.49048,0,0,0,0,0,0,0,-1,552,981,-20.8923,-3.49045
-665,43,-16.8846,2.40076,0,0,0,0,0,0,0,-1,559,981,-16.8846,-2.40076
-658,43,-16.629,2.34711,0.0354388,0.024455,0.024246,0.0548071,0.00508679,0.674024,0.034966,0.0450922,566,981,-16.629,-2.34713
-651,43,-16.4424,2.23151,0.0254667,0.0191944,0.0170095,0.0396267,0.00503438,0.694234,0.0249099,0.0370229,573,981,-16.4424,-2.23152
-644,43,-16.3927,2.10736,0.0174213,0.0146016,0.0113685,0.027467,0.0045559,0.723707,0.0169975,0.0200899,580,981,-16.3927,-2.10735
-637,43,-16.4457,2.05743,0.00999648,0.0116123,0.00519112,0.016058,0.00555079,0.862597,0.00941716,0.0138964,587,981,-16.4457,-2.05745
-630,43,-16.4404,2.00281,0.00406514,0.00585506,0.00213683,0.00727679,0.00264342,0.983713,0.0042533,0.0125614,594,981,-16.4404,-2.00281
-623,43,-16.4386,1.92657,1.1487e-05,0.0045268,-0.000891751,0.00469653,-0.000158249,-1.38271,0.00318508,0.0116531,601,981,-16.4386,-1.92658
-616,43,-16.4316,1.84698,-0.00121624,0.00304039,-0.00143775,0.0034805,-0.00165636,-1.27374,0.00302746,0.00998777,608,981,-16.4316,-1.84701
-609,43,-16.4475,1.78253,-0.00209315,0.00223606,-0.00169936,0.00282342,-0.00268051,-1.23801,0.00317806,0.0116853,615,981,-16.4475,-1.78256
-602,43,-16.4537,1.69922,-0.00304057,0.00180136,-0.00250532,0.00286432,-0.00410352,-1.16954,0.00404404,0.0150852,622,981,-16.4538,-1.69925
-595,43,-16.4368,1.61835,-0.00356827,0.00154196,-0.00309188,0.00299788,-0.00502418,-1.13071,0.00468053,0.0131488,629,981,-16.4368,-1.61834
-588,43,-16.433,1.41779,-0.00353493,0.00124026,-0.00329244,0.0029197,-0.00521437,-1.09911,0.00475809,0.0126265,636,981,-16.433,-1.4178
-581,43,-16.6168,1.06183,-0.00358363,0.00101426,-0.0033006,0.00273764,-0.00530701,-1.08959,0.00472289,0.0205736,643,981,-16.6167,-1.06183
-574,43,-16.7393,0.846191,-0.00391342,0.000794108,-0.00313676,0.00236201,-0.00548132,-1.10727,0.00464619,0.0289777,650,981,-16.7393,-0.846179
-567,43,-16.6577,0.846924,-0.00398819,0.000774285,-0.00279098,0.00206182,-0.00527572,-1.13857,0.00436969,0.0343988,657,981,-16.6577,-0.846937
-560,43,-16.5615,1.05359,-0.00389929,0.000682446,-0.00224692,0.00160043,-0.00481727,-1.18294,0.0038573,0.0393751,664,981,-16.5615,-1.05356
-553,43,-16.6771,1.09094,-0.00369738,0.000618606,-0.00151855,0.00109935,-0.00417812,-1.2642,0.00321514,0.0406689,671,981,-16.6771,-1.09093
-546,43,-16.7962,0.987488,-0.00346151,0.000585697,-0.000624633,0.000679908,-0.00355572,-1.4211,0.00262661,0.0425355,678,981,-16.7962,-0.987489
-539,43,-16.6555,0.942688,-0.00333466,0.000622678,0.000338072,0.000651352,-0.00336333,1.48618,0.00248793,0.0476614,685,981,-16.6555,-0.942668
-532,43,-16.6008,1.09375,-0.00390088,0.000994207,0.00102028,0.00119835,-0.00410502,1.37332,0.00321154,0.0497756,692,981,-16.6008,-1.09374
-525,43,-16.7548,1.10358,-0.00641505,0.00188912,0.00121606,0.00206354,-0.00658946,1.42834,0.00521863,0.047611,699,981,-16.7547,-1.10355
-518,43,0,0,0,0,0,0,0,0,0,-1,706,981,0,0
-511,43,0,0,0,0,0,0,0,0,0,-1,713,981,0,0
-504,43,0,0,0,0,0,0,0,0,0,-1,720,981,0,0
-497,43,0,0,0,0,0,0,0,0,0,-1,727,981,0,0
-490,43,0,0,0,0,0,0,0,0,0,-1,734,981,0,0
-483,43,0,0,0,0,0,0,0,0,0,-1,741,981,0,0
-476,43,0,0,0,0,0,0,0,0,0,-1,748,981,0,0
-469,43,0,0,0,0,0,0,0,0,0,-1,755,981,0,0
-462,43,0,0,0,0,0,0,0,0,0,-1,762,981,0,0
-455,43,0,0,0,0,0,0,0,0,0,-1,769,981,0,0
-448,43,0,0,0,0,0,0,0,0,0,-1,776,981,0,0
-441,43,0,0,0,0,0,0,0,0,0,-1,783,981,0,0
-434,43,0,0,0,0,0,0,0,0,0,-1,790,981,0,0
-427,43,0,0,0,0,0,0,0,0,0,-1,797,981,0,0
-420,43,0,0,0,0,0,0,0,0,0,-1,804,981,0,0
-413,43,0,0,0,0,0,0,0,0,0,-1,811,981,0,0
-406,43,0,0,0,0,0,0,0,0,0,-1,818,981,0,0
-399,43,0,0,0,0,0,0,0,0,0,-1,825,981,0,0
-392,43,0,0,0,0,0,0,0,0,0,-1,832,981,0,0
-385,43,0,0,0,0,0,0,0,0,0,-1,839,981,0,0
-378,43,0,0,0,0,0,0,0,0,0,-1,846,981,0,0
-371,43,0,0,0,0,0,0,0,0,0,-1,853,981,0,0
-364,43,0,0,0,0,0,0,0,0,0,-1,860,981,0,0
-357,43,0,0,0,0,0,0,0,0,0,-1,867,981,0,0
-350,43,0,0,0,0,0,0,0,0,0,-1,874,981,0,0
-343,43,0,0,0,0,0,0,0,0,0,-1,881,981,0,0
-336,43,0,0,0,0,0,0,0,0,0,-1,888,981,0,0
-329,43,0,0,0,0,0,0,0,0,0,-1,895,981,0,0
-322,43,0,0,0,0,0,0,0,0,0,-1,902,981,0,0
-315,43,0,0,0,0,0,0,0,0,0,-1,909,981,0,0
-308,43,0,0,0,0,0,0,0,0,0,-1,916,981,0,0
-301,43,0,0,0,0,0,0,0,0,0,-1,923,981,0,0
-294,43,0,0,0,0,0,0,0,0,0,-1,930,981,0,0
-287,43,0,0,0,0,0,0,0,0,0,-1,937,981,0,0
-280,43,0,0,0,0,0,0,0,0,0,-1,944,981,0,0
-273,43,0,0,0,0,0,0,0,0,0,-1,951,981,0,0
-266,43,0,0,0,0,0,0,0,0,0,-1,958,981,0,0
-259,43,0,0,0,0,0,0,0,0,0,-1,965,981,0,0
-252,43,0,0,0,0,0,0,0,0,0,-1,972,981,0,0
-245,43,0,0,0,0,0,0,0,0,0,-1,979,981,0,0
-238,43,0,0,0,0,0,0,0,0,0,-1,986,981,0,0
-231,43,0,0,0,0,0,0,0,0,0,-1,993,981,0,0
-224,43,0,0,0,0,0,0,0,0,0,-1,1000,981,0,0
-217,43,0,0,0,0,0,0,0,0,0,-1,1007,981,0,0
-210,43,0,0,0,0,0,0,0,0,0,-1,1014,981,0,0
-203,43,0,0,0,0,0,0,0,0,0,-1,1021,981,0,0
-196,43,0,0,0,0,0,0,0,0,0,-1,1028,981,0,0
-189,43,0,0,0,0,0,0,0,0,0,-1,1035,981,0,0
-182,43,0,0,0,0,0,0,0,0,0,-1,1042,981,0,0
-175,43,0,0,0,0,0,0,0,0,0,-1,1049,981,0,0
-168,43,0,0,0,0,0,0,0,0,0,-1,1056,981,0,0
-161,43,0,0,0,0,0,0,0,0,0,-1,1063,981,0,0
-154,43,0,0,0,0,0,0,0,0,0,-1,1070,981,0,0
-147,43,0,0,0,0,0,0,0,0,0,-1,1077,981,0,0
-140,43,0,0,0,0,0,0,0,0,0,-1,1084,981,0,0
-133,43,0,0,0,0,0,0,0,0,0,-1,1091,981,0,0
-126,43,0,0,0,0,0,0,0,0,0,-1,1098,981,0,0
-119,43,0,0,0,0,0,0,0,0,0,-1,1105,981,0,0
-112,43,0,0,0,0,0,0,0,0,0,-1,1112,981,0,0
-105,43,0,0,0,0,0,0,0,0,0,-1,1119,981,0,0
-98,43,0,0,0,0,0,0,0,0,0,-1,1126,981,0,0
-91,43,0,0,0,0,0,0,0,0,0,-1,1133,981,0,0
-84,43,0,0,0,0,0,0,0,0,0,-1,1140,981,0,0
-77,43,0,0,0,0,0,0,0,0,0,-1,1147,981,0,0
-70,43,0,0,0,0,0,0,0,0,0,-1,1154,981,0,0
-63,43,0,0,0,0,0,0,0,0,0,-1,1161,981,0,0
-56,43,0,0,0,0,0,0,0,0,0,-1,1168,981,0,0
-49,43,0,0,0,0,0,0,0,0,0,-1,1175,981,0,0
-42,43,0,0,0,0,0,0,0,0,0,-1,1182,981,0,0
-35,43,0,0,0,0,0,0,0,0,0,-1,1189,981,0,0
-28,43,0,0,0,0,0,0,0,0,0,-1,1196,981,0,0
-21,43,0,0,0,0,0,0,0,0,0,-1,1203,981,0,0
-14,43,0,0,0,0,0,0,0,0,0,-1,1210,981,0,0
-7,43,0,0,0,0,0,0,0,0,0,-1,1217,981,0,0
0,43,0,0,0,0,0,0,0,0,0,-1,1224,981,0,0
7,43,0,0,0,0,0,0,0,0,0,-1,1231,981,0,0
14,43,0,0,0,0,0,0,0,0,0,-1,1238,981,0,0
21,43,0,0,0,0,0,0,0,0,0,-1,1245,981,0,0
28,43,0,0,0,0,0,0,0,0,0,-1,1252,981,0,0
35,43,0,0,0,0,0,0,0,0,0,-1,1259,981,0,0
42,43,0,0,0,0,0,0,0,0,0,-1,1266,981,0,0
49,43,0,0,0,0,0,0,0,0,0,-1,1273,981,0,0
56,43,0,0,0,0,0,0,0,0,0,-1,1280,981,0,0
63,43,0,0,0,0,0,0,0,0,0,-1,1287,981,0,0
70,43,0,0,0,0,0,0,0,0,0,-1,1294,981,0,0
77,43,0,0,0,0,0,0,0,0,0,-1,1301,981,0,0
84,43,0,0,0,0,0,0,0,0,0,-1,1308,981,0,0
91,43,0,0,0,0,0,0,0,0,0,-1,1315,981,0,0
98,43,0,0,0,0,0,0,0,0,0,-1,1322,981,0,0
105,43,0,0,0,0,0,0,0,0,0,-1,1329,981,0,0
112,43,0,0,0,0,0,0,0,0,0,-1,1336,981,0,0
119,43,0,0,0,0,0,0,0,0,0,-1,1343,981,0,0
126,43,0,0,0,0,0,0,0,0,0,-1,1350,981,0,0
133,43,0,0,0,0,0,0,0,0,0,-1,1357,981,0,0
140,43,0,0,0,0,0,0,0,0,0,-1,1364,981,0,0
147,43,0,0,0,0,0,0,0,0,0,-1,1371,981,0,0
154,43,0,0,0,0,0,0,0,0,0,-1,1378,981,0,0
161,43,0,0,0,0,0,0,0,0,0,-1,1385,981,0,0
168,43,0,0,0,0,0,0,0,0,0,-1,1392,981,0,0
175,43,0,0,0,0,0,0,0,0,0,-1,1399,981,0,0
182,43,0,0,0,0,0,0,0,0,0,-1,1406,981,0,0
189,43,0,0,0,0,0,0,0,0,0,-1,1413,981,0,0
196,43,0,0,0,0,0,0,0,0,0,-1,1420,981,0,0
203,43,0,0,0,0,0,0,0,0,0,-1,1427,981,0,0
210,43,0,0,0,0,0,0,0,0,0,-1,1434,981,0,0
217,43,0,0,0,0,0,0,0,0,0,-1,1441,981,0,0
224,43,0,0,0,0,0,0,0,0,0,-1,1448,981,0,0
231,43,0,0,0,0,0,0,0,0,0,-1,1455,981,0,0
238,43,0,0,0,0,0,0,0,0,0,-1,1462,981,0,0
245,43,0,0,0,0,0,0,0,0,0,-1,1469,981,0,0
252,43,0,0,0,0,0,0,0,0,0,-1,1476,981,0,0
259,43,0,0,0,0,0,0,0,0,0,-1,1483,981,0,0
266,43,0,0,0,0,0,0,0,0,0,-1,1490,981,0,0
273,43,0,0,0,0,0,0,0,0,0,-1,1497,981,0,0
280,43,0,0,0,0,0,0,0,0,0,-1,1504,981,0,0
287,43,0,0,0,0,0,0,0,0,0,-1,1511,981,0,0
294,43,0,0,0,0,0,0,0,0,0,-1,1518,981,0,0
301,43,0,0,0,0,0,0,0,0,0,-1,1525,981,0,0
308,43,0,0,0,0,0,0,0,0,0,-1,1532,981,0,0
315,43,0,0,0,0,0,0,0,0,0,-1,1539,981,0,0
322,43,0,0,0,0,0,0,0,0,0,-1,1546,981,0,0
329,43,0,0,0,0,0,0,0,0,0,-1,1553,981,0,0
336,43,0,0,0,0,0,0,0,0,0,-1,1560,981,0,0
343,43,0,0,0,0,0,0,0,0,0,-1,1567,981,0,0
350,43,0,0,0,0,0,0,0,0,0,-1,1574,981,0,0
357,43,0,0,0,0,0,0,0,0,0,-1,1581,981,0,0
364,43,0,0,0,0,0,0,0,0,0,-1,1588,981,0,0
371,43,0,0,0,0,0,0,0,0,0,-1,1595,981,0,0
378,43,0,0,0,0,0,0,0,0,0,-1,1602,981,0,0
385,43,0,0,0,0,0,0,0,0,0,-1,1609,981,0,0
392,43,0,0,0,0,0,0,0,0,0,-1,1616,981,0,0
399,43,0,0,0,0,0,0,0,0,0,-1,1623,981,0,0
406,43,0,0,0,0,0,0,0,0,0,-1,1630,981,0,0
413,43,0,0,0,0,0,0,0,0,0,-1,1637,981,0,0
420,43,0,0,0,0,0,0,0,0,0,-1,1644,981,0,0
427,43,0,0,0,0,0,0,0,0,0,-1,1651,981,0,0
434,43,0,0,0,0,0,0,0,0,0,-1,1658,981,0,0
441,43,0,0,0,0,0,0,0,0,0,-1,1665,981,0,0
448,43,0,0,0,0,0,0,0,0,0,-1,1672,981,0,0
455,43,0,0,0,0,0,0,0,0,0,-1,1679,981,0,0
462,43,0,0,0,0,0,0,0,0,0,-1,1686,981,0,0
469,43,0,0,0,0,0,0,0,0,0,-1,1693,981,0,0
476,43,0,0,0,0,0,0,0,0,0,-1,1700,981,0,0
483,43,0,0,0,0,0,0,0,0,0,-1,1707,981,0,0
490,43,0,0,0,0,0,0,0,0,0,-1,1714,981,0,0
497,43,0,0,0,0,0,0,0,0,0,-1,1721,981,0,0
504,43,0,0,0,0,0,0,0,0,0,-1,1728,981,0,0
511,43,0,0,0,0,0,0,0,0,0,-1,1735,981,0,0
518,43,0,0,0,0,0,0,0,0,0,-1,1742,981,0,0
525,43,0,0,0,0,0,0,0,0,0,-1,1749,981,0,0
532,43,0,0,0,0,0,0,0,0,0,-1,1756,981,0,0
539,43,0,0,0,0,0,0,0,0,0,-1,1763,981,0,0
546,43,0,0,0,0,0,0,0,0,0,-1,1770,981,0,0
553,43,0,0,0,0,0,0,0,0,0,-1,1777,981,0,0
560,43,0,0,0,0,0,0,0,0,0,-1,1784,981,0,0
567,43,0,0,0,0,0,0,0,0,0,-1,1791,981,0,0
574,43,0,0,0,0,0,0,0,0,0,-1,1798,981,0,0
581,43,0,0,0,0,0,0,0,0,0,-1,1805,981,0,0
588,43,0,0,0,0,0,0,0,0,0,-1,1812,981,0,0
595,43,0,0,0,0,0,0,0,0,0,-1,1819,981,0,0
602,43,0,0,0,0,0,0,0,0,0,-1,1826,981,0,0
609,43,0,0,0,0,0,0,0,0,0,-1,1833,981,0,0
616,43,0,0,0,0,0,0,0,0,0,-1,1840,981,0,0
623,43,0,0,0,0,0,0,0,0,0,-1,1847,981,0,0
630,43,0,0,0,0,0,0,0,0,0,-1,1854,981,0,0
637,43,0,0,0,0,0,0,0,0,0,-1,1861,981,0,0
644,43,24.2045,2.71161,-0.00254319,-0.00429708,0.00318382,-0.000117746,-0.00672252,0.651011,0.00444295,0.0366087,1868,981,24.2045,-2.71162
651,43,24.1233,2.87189,-0.00154561,-0.0028673,0.00239639,0.000279388,-0.0046923,0.650859,0.00322536,0.0367805,1875,981,24.1232,-2.87186
658,43,24.1635,2.95306,-0.000987851,-0.00178327,0.00192554,0.000580627,-0.00335175,0.683558,0.00245107,0.0386458,1882,981,24.1635,-2.95304
665,43,24.1105,2.95374,-0.000984278,-0.000762774,0.00195978,0.00108938,-0.00283643,0.813624,0.00234019,0.04042,1889,981,24.1105,-2.95371
672,43,24.0497,2.44525,0,0,0,0,0,0,0,-1,1896,981,24.0497,-2.44522
679,43,24.1389,2.58606,-0.00256935,0.000941433,0.00312587,0.00277107,-0.00439899,1.04124,0.00417505,0.0403368,1903,981,24.1389,-2.58605
686,43,24.2052,2.68774,-0.00354489,0.00145076,0.0038146,0.00351257,-0.00560671,1.07527,0.00531109,0.0397001,1910,981,24.2052,-2.68776
693,43,24.1449,2.70313,-0.00440949,0.00182852,0.00444711,0.00414136,-0.00672234,1.09122,0.00633089,0.0383503,1917,981,24.1449,-2.70311
700,43,24.1364,2.71478,-0.00509137,0.00212392,0.0048292,0.00454423,-0.00751169,1.1062,0.00703042,0.0312566,1924,981,24.1363,-2.7148
707,43,24.1909,2.8501,-0.00570298,0.00224323,0.00494224,0.00461136,-0.00807111,1.12396,0.00741249,0.0264417,1931,981,24.1909,-2.85011
714,43,24.1688,3.10052,-0.00617981,0.00233781,0.00484146,0.00452703,-0.00836904,1.14613,0.00755489,0.0329953,1938,981,24.1689,-3.10053
721,43,23.8743,3.65509,-0.00642759,0.00241355,0.00472748,0.00446526,-0.00847931,1.16133,0.00759238,0.0325175,1945,981,23.8742,-3.65506
728,43,23.5109,3.96387,-0.00675297,0.00233953,0.00442354,0.00413647,-0.00854992,1.18494,0.00747077,0.0195722,1952,981,23.5109,-3.96388
735,43,23.4165,4.09509,-0.00747659,0.00243262,0.00340389,0.00348922,-0.00853319,1.26982,0.00714187,0.0141879,1959,981,23.4165,-4.09511
742,43,23.3915,4.18085,-0.00857044,0.00266856,0.00175663,0.00293672,-0.0088386,1.41931,0.00707741,0.0160502,1966,981,23.3915,-4.18083
749,43,23.3865,4.28455,-0.00997394,0.00254135,-0.000232902,0.00254568,-0.00997827,-1.5522,0.00764338,0.0167593,1973,981,23.3865,-4.28455
756,43,23.4069,4.39233,-0.0117996,0.0026487,-0.00176011,0.00286002,-0.0120109,-1.4513,0.00911148,0.0154072,1980,981,23.4069,-4.39234
763,43,23.3843,4.48596,-0.0140675,0.00300807,-0.00375705,0.00379816,-0.0148576,-1.36352,0.0113843,0.0178062,1987,981,23.3843,-4.48595
770,43,23.3363,4.60718,-0.0175791,0.00327424,-0.00575206,0.00475562,-0.0190604,-1.31873,0.0145535,0.0147445,1994,981,23.3363,-4.60719
777,43,23.2432,4.6684,-0.0221163,0.00374417,-0.00735106,0.0056877,-0.0240598,-1.31232,0.0182339,0.0197442,2001,981,23.2431,-4.66838
784,43,22.8027,4.73578,-0.0278296,0.00420778,-0.00843344,0.00629216,-0.029914,-1.3285,0.0223374,0.0379821,2008,981,22.8028,-4.7358
791,43,21.9272,4.69653,-0.0342853,0.00469824,-0.00879178,0.00658929,-0.0361763,-1.35893,0.0265876,0.042464,2015,981,21.9272,-4.69655
798,43,21.1721,4.87573,-0.0410665,0.00539308,-0.00798612,0.00672752,-0.042401,-1.40523,0.0307561,0.0434516,2022,981,21.1722,-4.8757
805,43,20.2148,5.1933,-0.0477298,0.00666879,-0.00506639,0.00713662,-0.0481977,-1.47872,0.0347558,0.046627,2029,981,20.2148,-5.19329
812,43,19.3665,5.84497,0,0,0,0,0,0,0,-1,2036,981,19.3665,-5.84495
-700,36,0,0,0,0,0,0,0,0,0,-1,524,988,0,0
-693,36,-16.118,3.91333,0,0,0,0,0,0,0,-1,531,988,-16.118,-3.91334
-686,36,-16.2713,3.53766,0.10052,0.0624203,0.074424,0.158294,0.00464693,0.660105,0.104015,0.0477902,538,988,-16.2713,-3.53764
-679,36,-16.3349,3.30621,0.0804047,0.0532377,0.0566324,0.12506,0.00858258,0.667695,0.0806647,0.0471934,545,988,-16.3349,-3.30622
-672,36,-16.5306,3.05157,0.0632009,0.0444732,0.0427022,0.0975538,0.0101202,0.677465,0.0619387,0.0479142,552,988,-16.5307,-3.05156
-665,36,-16.9417,2.19836,0.0485231,0.0363533,0.0316091,0.0746277,0.0102487,0.690309,0.0467118,0.0457283,559,988,-16.9417,-2.19836
-658,36,-16.6881,2.17395,0.036115,0.0289808,0.0227862,0.0556117,0.00948415,0.707756,0.0343523,0.0422426,566,988,-16.6881,-2.17393
-651,36,-16.5597,2.09222,0.0258695,0.0224225,0.0158583,0.0400976,0.00819432,0.73127,0.0244621,0.0338488,573,988,-16.5597,-2.09221
-644,36,-16.5221,2.05151,0.0176492,0.0168106,0.0104495,0.0276877,0.00677202,0.765346,0.0166663,0.0195901,580,988,-16.5221,-2.05152
-637,36,-16.5399,2.02173,0.0100381,0.0132885,0.00438631,0.0163411,0.00698562,0.962816,0.00946752,0.014856,587,988,-16.5399,-2.02174
-630,36,-16.5215,1.9884,0.00413807,0.00658507,0.0014351,0.00724743,0.0034757,1.13838,0.00418547,0.013547,594,988,-16.5216,-1.9884
-623,36,-16.5204,1.90741,0.000131729,0.00479549,-0.00147275,0.00522162,-0.000294408,-1.28914,0.00358325,0.0131591,601,988,-16.5205,-1.90739
-616,36,-16.5198,1.83368,-0.000982286,0.00323799,-0.00207625,0.00408817,-0.00183247,-1.18214,0.0035,0.0101979,608,988,-16.5199,-1.83365
-609,36,-16.5184,1.78589,-0.0016191,0.00235087,-0.00229171,0.00339773,-0.00266596,-1.1423,0.00350936,0.0138088,615,988,-16.5184,-1.7859
-602,36,-16.5098,1.69543,-0.00229683,0.00187109,-0.00310542,0.00352698,-0.00395272,-1.08092,0.00432074,0.0194437,622,988,-16.5098,-1.69543
-595,36,-16.4763,1.61987,-0.00268551,0.00155296,-0.00368765,0.00368695,-0.0048195,-1.0462,0.00492569,0.0197845,629,988,-16.4763,-1.61988
-588,36,-16.5098,1.34302,-0.00259126,0.00117105,-0.00389683,0.00361702,-0.00503723,-1.01027,0.00501891,0.0184681,636,988,-16.5098,-1.34302
-581,36,-16.6229,0.952515,-0.00257847,0.000840664,-0.00386749,0.00335959,-0.00509739,-0.993503,0.00491688,0.0238008,643,988,-16.6229,-0.952532
-574,36,-16.6861,0.842957,-0.00287957,0.000496953,-0.00365349,0.00283339,-0.00521601,-1.00183,0.0047147,0.0289824,650,988,-16.6861,-0.842963
-567,36,-16.6833,0.806091,-0.00297172,0.000264596,-0.00323872,0.0022669,-0.00497403,-1.01707,0.00427683,0.0330631,657,988,-16.6833,-0.806102
-560,36,-16.5629,0.985291,-0.00296353,-5.66973e-05,-0.00259544,0.00146457,-0.0044848,-1.04064,0.00357936,0.0378248,664,988,-16.5629,-0.985294
-553,36,-16.657,1.11823,-0.00290906,-0.000398715,-0.00175866,0.000506746,-0.00381452,-1.09533,0.00272767,0.0443187,671,988,-16.657,-1.11825
-546,36,-16.7626,0.691895,-0.00287937,-0.000759192,-0.000762249,-0.000513596,-0.00312496,-1.2591,0.00193497,0.0457614,678,988,-16.7626,-0.691906
-539,36,-16.7144,0.876404,-0.00301205,-0.00107405,0.00024912,-0.00104254,-0.00304357,1.44498,0.00178601,0.0467097,685,988,-16.7144,-0.876413
-532,36,-16.6489,1.21613,-0.00390812,-0.00101262,0.000824226,-0.000794435,-0.0041263,1.31202,0.00252802,0.0477941,692,988,-16.6488,-1.21611
-525,36,-16.861,1.18915,-0.00669654,-0.000430828,0.000773751,-0.000336692,-0.00679068,1.44973,0.00441916,0.0472491,699,988,-16.861,-1.18913
-518,36,0,0,0,0,0,0,0,0,0,-1,706,988,0,0
-511,36,0,0,0,0,0,0,0,0,0,-1,713,988,0,0
-504,36,0,0,0,0,0,0,0,0,0,-1,720,988,0,0
-497,36,0,0,0,0,0,0,0,0,0,-1,727,988,0,0
-490,36,0,0,0,0,0,0,0,0,0,-1,734,988,0,0
-483,36,0,0,0,0,0,0,0,0,0,-1,741,988,0,0
-476,36,0,0,0,0,0,0,0,0,0,-1,748,988,0,0
-469,36,0,0,0,0,0,0,0,0,0,-1,755,988,0,0
-462,36,0,0,0,0,0,0,0,0,0,-1,762,988,0,0
-455,36,0,0,0,0,0,0,0,0,0,-1,769,988,0,0
-448,36,0,0,0,0,0,0,0,0,0,-1,776,988,0,0
-441,36,0,0,0,0,0,0,0,0,0,-1,783,988,0,0
-434,36,0,0,0,0,0,0,0,0,0,-1,790,988,0,0
-427,36,0,0,0,0,0,0,0,0,0,-1,797,988,0,0
-420,36,0,0,0,0,0,0,0,0,0,-1,804,988,0,0
-413,36,0,0,0,0,0,0,0,0,0,-1,811,988,0,0
-406,36,0,0,0,0,0,0,0,0,0,-1,818,988,0,0
-399,36,0,0,0,0,0,0,0,0,0,-1,825,988,0,0
-392,36,0,0,0,0,0,0,0,0,0,-1,832,988,0,0
-385,36,0,0,0,0,0,0,0,0,0,-1,839,988,0,0
-378,36,0,0,0,0,0,0,0,0,0,-1,846,988,0,0
-371,36,0,0,0,0,0,0,0,0,0,-1,853,988,0,0
-364,36,0,0,0,0,0,0,0,0,0,-1,860,988,0,0
-357,36,0,0,0,0,0,0,0,0,0,-1,867,988,0,0
-350,36,0,0,0,0,0,0,0,0,0,-1,874,988,0,0
-343,36,0,0,0,0,0,0,0,0,0,-1,881,988,0,0
-336,36,0,0,0,0,0,0,0,0,0,-1,888,988,0,0
-329,36,0,0,0,0,0,0,0,0,0,-1,895,988,0,0
-322,36,0,0,0,0,0,0,0,0,0,-1,902,988,0,0
-315,36,0,0,0,0,0,0,0,0,0,-1,909,988,0,0
-308,36,0,0,0,0,0,0,0,0,0,-1,916,988,0,0
-301,36,0,0,0,0,0,0,0,0,0,-1,923,988,0,0
-294,36,0,0,0,0,0,0,0,0,0,-1,930,988,0,0
-287,36,0,0,0,0,0,0,0,0,0,-1,937,988,0,0
-280,36,0,0,0,0,0,0,0,0,0,-1,944,988,0,0
-273,36,0,0,0,0,0,0,0,0,0,-1,951,988,0,0
-266,36,0,0,0,0,0,0,0,0,0,-1,958,988,0,0
-259,36,0,0,0,0,0,0,0,0,0,-1,965,988,0,0
-252,36,0,0,0,0,0,0,0,0,0,-1,972,988,0,0
-245,36,0,0,0,0,0,0,0,0,0,-1,979,988,0,0
-238,36,0,0,0,0,0,0,0,0,0,-1,986,988,0,0
-231,36,0,0,0,0,0,0,0,0,0,-1,993,988,0,0
-224,36,0,0,0,0,0,0,0,0,0,-1,1000,988,0,0
-217,36,0,0,0,0,0,0,0,0,0,-1,1007,988,0,0
-210,36,0,0,0,0,0,0,0,0,0,-1,1014,988,0,0
-203,36,0,0,0,0,0,0,0,0,0,-1,1021,988,0,0
-196,36,0,0,0,0,0,0,0,0,0,-1,1028,988,0,0
-189,36,0,0,0,0,0,0,0,0,0,-1,1035,988,0,0
-182,36,0,0,0,0,0,0,0,0,0,-1,1042,988,0,0
-175,36,0,0,0,0,0,0,0,0,0,-1,1049,988,0,0
-168,36,0,0,0,0,0,0,0,0,0,-1,1056,988,0,0
-161,36,0,0,0,0,0,0,0,0,0,-1,1063,988,0,0
-154,36,0,0,0,0,0,0,0,0,0,-1,1070,988,0,0
-147,36,0,0,0,0,0,0,0,0,0,-1,1077,988,0,0
-140,36,0,0,0,0,0,0,0,0,0,-1,1084,988,0,0
-133,36,0,0,0,0,0,0,0,0,0,-1,1091,988,0,0
-126,36,0,0,0,0,0,0,0,0,0,-1,1098,988,0,0
-119,36,0,0,0,0,0,0,0,0,0,-1,1105,988,0,0
-112,36,0,0,0,0,0,0,0,0,0,-1,1112,988,0,0
-105,36,0,0,0,0,0,0,0,0,0,-1,1119,988,0,0
-98,36,0,0,0,0,0,0,0,0,0,-1,1126,988,0,0
-91,36,0,0,0,0,0,0,0,0,0,-1,1133,988,0,0
-84,36,0,0,0,0,0,0,0,0,0,-1,1140,988,0,0
-77,36,0,0,0,0,0,0,0,0,0,-1,1147,988,0,0
-70,36,0,0,0,0,0,0,0,0,0,-1,1154,988,0,0
-63,36,0,0,0,0,0,0,0,0,0,-1,1161,988,0,0
-56,36,0,0,0,0,0,0,0,0,0,-1,1168,988,0,0
-49,36,0,0,0,0,0,0,0,0,0,-1,1175,988,0,0
-42,36,0,0,0,0,0,0,0,0,0,-1,1182,988,0,0
-35,36,0,0,0,0,0,0,0,0,0,-1,1189,988,0,0
-28,36,0,0,0,0,0,0,0,0,0,-1,1196,988,0,0
-21,36,0,0,0,0,0,0,0,0,0,-1,1203,988,0,0
-14,36,0,0,0,0,0,0,0,0,0,-1,1210,988,0,0
-7,36,0,0,0,0,0,0,0,0,0,-1,1217,988,0,0
0,36,0,0,0,0,0,0,0,0,0,-1,1224,988,0,0
7,36,0,0,0,0,0,0,0,0,0,-1,1231,988,0,0
14,36,0,0,0,0,0,0,0,0,0,-1,1238,988,0,0
21,36,0,0,0,0,0,0,0,0,0,-1,1245,988,0,0
28,36,0,0,0,0,0,0,0,0,0,-1,1252,988,0,0
35,36,0,0,0,0,0,0,0,0,0,-1,1259,988,0,0
42,36,0,0,0,0,0,0,0,0,0,-1,1266,988,0,0
49,36,0,0,0,0,0,0,0,0,0,-1,1273,988,0,0
56,36,0,0,0,0,0,0,0,0,0,-1,1280,988,0,0
63,36,0,0,0,0,0,0,0,0,0,-1,1287,988,0,0
70,36,0,0,0,0,0,0,0,0,0,-1,1294,988,0,0
77,36,0,0,0,0,0,0,0,0,0,-1,1301,988,0,0
84,36,0,0,0,0,0,0,0,0,0,-1,1308,988,0,0
91,36,0,0,0,0,0,0,0,0,0,-1,1315,988,0,0
98,36,0,0,0,0,0,0,0,0,0,-1,1322,988,0,0
105,36,0,0,0,0,0,0,0,0,0,-1,1329,988,0,0
112,36,0,0,0,0,0,0,0,0,0,-1,1336,988,0,0
119,36,0,0,0,0,0,0,0,0,0,-1,1343,988,0,0
126,36,0,0,0,0,0,0,0,0,0,-1,1350,988,0,0
133,36,0,0,0,0,0,0,0,0,0,-1,1357,988,0,0
140,36,0,0,0,0,0,0,0,0,0,-1,1364,988,0,0
147,36,0,0,0,0,0,0,0,0,0,-1,1371,988,0,0
154,36,0,0,0,0,0,0,0,0,0,-1,1378,988,0,0
161,36,0,0,0,0,0,0,0,0,0,-1,1385,988,0,0
168,36,0,0,0,0,0,0,0,0,0,-1,1392,988,0,0
175,36,0,0,0,0,0,0,0,0,0,-1,1399,988,0,0
182,36,0,0,0,0,0,0,0,0,0,-1,1406,988,0,0
189,36,0,0,0,0,0,0,0,0,0,-1,1413,988,0,0
196,36,0,0,0,0,0,0,0,0,0,-1,1420,988,0,0
203,36,0,0,0,0,0,0,0,0,0,-1,1427,988,0,0
210,36,0,0,0,0,0,0,0,0,0,-1,1434,988,0,0
217,36,0,0,0,0,0,0,0,0,0,-1,1441,988,0,0
224,36,0,0,0,0,0,0,0,0,0,-1,1448,988,0,0
231,36,0,0,0,0,0,0,0,0,0,-1,1455,988,0,0
238,36,0,0,0,0,0,0,0,0,0,-1,1462,988,0,0
245,36,0,0,0,0,0,0,0,0,0,-1,1469,988,0,0
252,36,0,0,0,0,0,0,0,0,0,-1,1476,988,0,0
259,36,0,0,0,0,0,0,0,0,0,-1,1483,988,0,0
266,36,0,0,0,0,0,0,0,0,0,-1,1490,988,0,0
273,36,0,0,0,0,0,0,0,0,0,-1,1497,988,0,0
280,36,0,0,0,0,0,0,0,0,0,-1,1504,988,0,0
287,36,0,0,0,0,0,0,0,0,0,-1,1511,988,0,0
294,36,0,0,0,0,0,0,0,0,0,-1,1518,988,0,0
301,36,0,0,0,0,0,0,0,0,0,-1,1525,988,0,0
308,36,0,0,0,0,0,0,0,0,0,-1,1532,988,0,0
315,36,0,0,0,0,0,0,0,0,0,-1,1539,988,0,0
322,36,0,0,0,0,0,0,0,0,0,-1,1546,988,0,0
329,36,0,0,0,0,0,0,0,0,0,-1,1553,988,0,0
336,36,0,0,0,0,0,0,0,0,0,-1,1560,988,0,0
343,36,0,0,0,0,0,0,0,0,0,-1,1567,988,0,0
350,36,0,0,0,0,0,0,0,0,0,-1,1574,988,0,0
357,36,0,0,0,0,0,0,0,0,0,-1,1581,988,0,0
364,36,0,0,0,0,0,0,0,0,0,-1,1588,988,0,0
371,36,0,0,0,0,0,0,0,0,0,-1,1595,988,0,0
378,36,0,0,0,0,0,0,0,0,0,-1,1602,988,0,0
385,36,0,0,0,0,0,0,0,0,0,-1,1609,988,0,0
392,36,0,0,0,0,0,0,0,0,0,-1,1616,988,0,0
399,36,0,0,0,0,0,0,0,0,0,-1,1623,988,0,0
406,36,0,0,0,0,0,0,0,0,0,-1,1630,988,0,0
413,36,0,0,0,0,0,0,0,0,0,-1,1637,988,0,0
420,36,0,0,0,0,0,0,0,0,0,-1,1644,988,0,0
427,36,0,0,0,0,0,0,0,0,0,-1,1651,988,0,0
434,36,0,0,0,0,0,0,0,0,0,-1,1658,988,0,0
441,36,0,0,0,0,0,0,0,0,0,-1,1665,988,0,0
448,36,0,0,0,0,0,0,0,0,0,-1,1672,988,0,0
455,36,0,0,0,0,0,0,0,0,0,-1,1679,988,0,0
462,36,0,0,0,0,0,0,0,0,0,-1,1686,988,0,0
469,36,0,0,0,0,0,0,0,0,0,-1,1693,988,0,0
476,36,0,0,0,0,0,0,0,0,0,-1,1700,988,0,0
483,36,0,0,0,0,0,0,0,0,0,-1,1707,988,0,0
490,36,0,0,0,0,0,0,0,0,0,-1,1714,988,0,0
497,36,0,0,0,0,0,0,0,0,0,-1,1721,988,0,0
504,36,0,0,0,0,0,0,0,0,0,-1,1728,988,0,0
511,36,0,0,0,0,0,0,0,0,0,-1,1735,988,0,0
518,36,0,0,0,0,0,0,0,0,0,-1,1742,988,0,0
525,36,0,0,0,0,0,0,0,0,0,-1,1749,988,0,0
532,36,0,0,0,0,0,0,0,0,0,-1,1756,988,0,0
539,36,0,0,0,0,0,0,0,0,0,-1,1763,988,0,0
546,36,0,0,0,0,0,0,0,0,0,-1,1770,988,0,0
553,36,0,0,0,0,0,0,0,0,0,-1,1777,988,0,0
560,36,0,0,0,0,0,0,0,0,0,-1,1784,988,0,0
567,36,0,0,0,0,0,0,0,0,0,-1,1791,988,0,0
574,36,0,0,0,0,0,0,0,0,0,-1,1798,988,0,0
581,36,0,0,0,0,0,0,0,0,0,-1,1805,988,0,0
588,36,0,0,0,0,0,0,0,0,0,-1,1812,988,0,0
595,36,0,0,0,0,0,0,0,0,0,-1,1819,988,0,0
602,36,0,0,0,0,0,0,0,0,0,-1,1826,988,0,0
609,36,0,0,0,0,0,0,0,0,0,-1,1833,988,0,0
616,36,0,0,0,0,0,0,0,0,0,-1,1840,988,0,0
623,36,0,0,0,0,0,0,0,0,0,-1,1847,988,0,0
630,36,0,0,0,0,0,0,0,0,0,-1,1854,988,0,0
637,36,0,0,0,0,0,0,0,0,0,-1,1861,988,0,0
644,36,24.0762,2.88507,-0.00195889,-0.00284536,0.00337223,0.000999113,-0.00580336,0.720054,0.00424135,0.0406828,1868,988,24.0762,-2.88509
651,36,23.9506,2.91949,-0.00117887,-0.00167096,0.00236732,0.000955156,-0.00380498,0.733617,0.00290781,0.0394482,1875,988,23.9506,-2.91948
658,36,23.9087,3.06421,-0.000692166,-0.000837843,0.00171908,0.000955615,-0.00248562,0.764225,0.00205121,0.037417,1882,988,23.9087,-3.06423
665,36,24.0546,3.07629,-0.000583179,-4.89482e-05,0.00163808,0.00134365,-0.00197578,0.86622,0.00192802,0.0385498,1889,988,24.0546,-3.07628
672,36,24.1332,2.93677,-0.00103049,0.000741083,0.00207889,0.00211503,-0.00240444,0.986793,0.0026111,0.0372624,1896,988,24.1332,-2.93677
679,36,24.1515,2.70929,-0.00189727,0.00134265,0.00284023,0.00299243,-0.00354704,1.04457,0.00378009,0.037613,1903,988,24.1515,-2.70928
686,36,24.2052,2.862,-0.00278783,0.00174273,0.00362769,0.00375432,-0.00479943,1.0645,0.00495078,0.0359919,1910,988,24.2052,-2.86202
693,36,24.2275,2.81805,-0.00360295,0.00203001,0.00436764,0.00441053,-0.00598348,1.07177,0.00602385,0.0392185,1917,988,24.2275,-2.81806
700,36,24.2294,2.8103,-0.00427191,0.00223886,0.00485216,0.0048265,-0.00685955,1.08087,0.0067809,0.0355793,1924,988,24.2294,-2.81031
707,36,24.2122,2.85272,-0.00488884,0.00230368,0.00507101,0.00492419,-0.00750935,1.09383,0.00723004,0.0255795,1931,988,24.2121,-2.85269
714,36,24.1815,3.05975,-0.00542,0.00235626,0.00508054,0.00486574,-0.00792948,1.11201,0.00745758,0.0291828,1938,988,24.1815,-3.05976
721,36,24.0038,3.66168,-0.00577416,0.0023968,0.00504562,0.00480357,-0.00818094,1.12571,0.00758067,0.036026,1945,988,24.0037,-3.66166
728,36,23.6675,4.02118,-0.00619047,0.00233702,0.00475595,0.00446065,-0.00831411,1.15084,0.00748652,0.0209885,1952,988,23.6675,-4.0212
735,36,23.4878,4.15967,-0.00698234,0.00243379,0.00371916,0.00372556,-0.00827411,1.2365,0.00709198,0.0174283,1959,988,23.4877,-4.15967
742,36,23.4719,4.22583,-0.00818457,0.00259775,0.00194796,0.00293888,-0.0085257,1.39743,0.00687606,0.0147597,1966,988,23.4719,-4.22583
749,36,23.4987,4.30945,-0.00956859,0.00233677,-0.000197836,0.00234006,-0.00957188,-1.55419,0.0072876,0.0153788,1973,988,23.4986,-4.30947
756,36,23.493,4.39636,-0.0112684,0.00228075,-0.00184837,0.00252837,-0.0115161,-1.43762,0.00864431,0.0130872,1980,988,23.4931,-4.39638
763,36,23.4562,4.46533,-0.0132707,0.00250397,-0.00402319,0.0034708,-0.0142375,-1.33496,0.0108355,0.014917,1987,988,23.4562,-4.46535
770,36,23.4146,4.56409,-0.0162577,0.0024972,-0.00630709,0.00442089,-0.0181814,-1.27475,0.0138321,0.0129521,1994,988,23.4146,-4.56409
777,36,23.3407,4.66528,-0.0201173,0.00261635,-0.0082259,0.00528056,-0.0227816,-1.25758,0.0172199,0.0201727,2001,988,23.3407,-4.66527
784,36,23.1519,4.51489,-0.0248869,0.00263787,-0.00960899,0.00566049,-0.0279095,-1.26604,0.0207521,0.0393899,2008,988,23.1519,-4.51492
791,36,23.0903,4.08325,-0.0301746,0.00256886,-0.010266,0.0055213,-0.0331271,-1.29076,0.0241366,0.0426271,2015,988,23.0904,-4.08322
798,36,22.8989,3.44781,-0.0355452,0.00255908,-0.00979193,0.0049281,-0.0379142,-1.33342,0.0270688,0.0426089,2022,988,22.899,-3.44784
805,36,19.9072,5.80756,0,0,0,0,0,0,0,-1,2029,988,19.9072,-5.80753
812,36,20.5339,4.47235,0,0,0,0,0,0,0,-1,2036,988,20.5338,-4.47237
-700,29,0,0,0,0,0,0,0,0,0,-1,524,995,0,0
-693,29,-16.5083,-2.90997,0,0,0,0,0,0,0,-1,531,995,-16.5083,2.90995
-686,29,-16.7364,3.53229,0,0,0,0,0,0,0,-1,538,995,-16.7364,-3.53231
-679,29,-16.6192,3.06793,0.082999,0.0604843,0.0557442,0.128611,0.0148721,0.685765,0.0812385,0.046482,545,995,-16.6192,-3.06794
-672,29,-16.6246,2.43164,0.0651385,0.05067,0.0420249,0.100547,0.0152612,0.700163,0.062568,0.0448384,552,995,-16.6246,-2.43166
-665,29,-16.7533,2.07208,0.0498831,0.0413585,0.031076,0.0769877,0.0142539,0.717245,0.0472953,0.0432143,559,995,-16.7533,-2.0721
-658,29,-16.6908,2.03949,0.0370109,0.0328108,0.0223695,0.0573787,0.012443,0.738596,0.0348532,0.0422586,566,995,-16.6908,-2.03951
-651,29,-16.5142,2.04022,0.026425,0.0251928,0.0155356,0.0413567,0.0102611,0.76558,0.0248667,0.0347593,573,995,-16.5142,-2.04023
-644,29,-16.5137,2.00281,0.0179659,0.0186977,0.0101607,0.0284991,0.00816448,0.803397,0.0169467,0.0182903,580,995,-16.5137,-2.0028
-637,29,-16.5882,1.96875,0.0101583,0.0147097,0.00412911,0.0171487,0.00771927,1.03726,0.00991719,0.012555,587,995,-16.5882,-1.96876
-630,29,-16.584,1.9635,0.00426293,0.00723449,0.00111833,0.00760834,0.00388908,1.24819,0.00439304,0.0113373,594,995,-16.584,-1.96348
-623,29,-16.5825,1.91919,0.000303005,0.00496786,-0.00180759,0.0055863,-0.000315429,-1.24115,0.00383367,0.0113811,601,995,-16.5825,-1.91919
-616,29,-16.5866,1.85492,-0.000754411,0.0032523,-0.00262083,0.00454776,-0.00204987,-1.11172,0.00389908,0.0123022,608,995,-16.5866,-1.85491
-609,29,-16.5989,1.80377,-0.00119598,0.00224849,-0.00279474,0.00380903,-0.00275652,-1.06154,0.00380683,0.0181418,615,995,-16.5989,-1.80376
-602,29,-16.586,1.72687,-0.00167934,0.00171138,-0.00360246,0.00399748,-0.00396544,-1.00533,0.0045974,0.0209486,622,995,-16.586,-1.72689
-595,29,-16.5164,1.64417,-0.00195006,0.00133994,-0.00418247,0.00418927,-0.00479939,-0.97276,0.00519359,0.0200718,629,995,-16.5164,-1.64414
-588,29,-16.5567,1.32471,-0.00182129,0.000883715,-0.00439773,0.00413222,-0.00506979,-0.934581,0.00532197,0.0244237,636,995,-16.5567,-1.32469
-581,29,-16.6298,0.988708,-0.00179183,0.000460247,-0.0043208,0.00379932,-0.00513091,-0.912867,0.00517494,0.0355144,643,995,-16.6298,-0.988692
-574,29,-16.6396,0.882629,-0.00208567,1.03335e-05,-0.00403609,0.00313227,-0.0052076,-0.912422,0.00486446,0.0329381,650,995,-16.6396,-0.882657
-567,29,-16.6668,0.82251,-0.00221551,-0.000423592,-0.00351888,0.0023116,-0.0049507,-0.910057,0.00428418,0.0326978,657,995,-16.6668,-0.822501
-560,29,-16.6812,0.881897,-0.00230226,-0.000940159,-0.00275791,0.00121954,-0.00446197,-0.906449,0.00345369,0.0366531,664,995,-16.6812,-0.88189
-553,29,-16.6913,0.961914,-0.00239797,-0.00151808,-0.00180082,-0.000104241,-0.00381181,-0.905202,0.00250718,0.0405573,671,995,-16.6913,-0.961931
-546,29,-16.6114,0.429382,0,0,0,0,0,0,0,-1,678,995,-16.6114,-0.429382
-539,29,-16.723,0.772888,-0.00292548,-0.00279651,0.00033718,-0.0025177,-0.00320428,0.879882,0.00194808,0.0415645,685,995,-16.723,-0.772867
-532,29,-16.5984,0.924683,-0.00407253,-0.00304946,0.000758312,-0.00264628,-0.00447571,1.08213,0.00259836,0.0439612,692,995,-16.5984,-0.924701
-525,29,-16.7655,1.06848,-0.0069454,-0.00288413,0.000445266,-0.00283588,-0.00699364,1.46287,0.00406175,0.0434341,699,995,-16.7655,-1.06846
-518,29,0,0,0,0,0,0,0,0,0,-1,706,995,0,0
-511,29,0,0,0,0,0,0,0,0,0,-1,713,995,0,0
-504,29,0,0,0,0,0,0,0,0,0,-1,720,995,0,0
-497,29,0,0,0,0,0,0,0,0,0,-1,727,995,0,0
-490,29,0,0,0,0,0,0,0,0,0,-1,734,995,0,0
-483,29,0,0,0,0,0,0,0,0,0,-1,741,995,0,0
-476,29,0,0,0,0,0,0,0,0,0,-1,748,995,0,0
-469,29,0,0,0,0,0,0,0,0,0,-1,755,995,0,0
-462,29,0,0,0,0,0,0,0,0,0,-1,762,995,0,0
-455,29,0,0,0,0,0,0,0,0,0,-1,769,995,0,0
-448,29,0,0,0,0,0,0,0,0,0,-1,776,995,0,0
-441,29,0,0,0,0,0,0,0,0,0,-1,783,995,0,0
-434,29,0,0,0,0,0,0,0,0,0,-1,790,995,0,0
-427,29,0,0,0,0,0,0,0,0,0,-1,797,995,0,0
-420,29,0,0,0,0,0,0,0,0,0,-1,804,995,0,0
-413,29,0,0,0,0,0,0,0,0,0,-1,811,995,0,0
-406,29,0,0,0,0,0,0,0,0,0,-1,818,995,0,0
-399,29,0,0,0,0,0,0,0,0,0,-1,825,995,0,0
-392,29,0,0,0,0,0,0,0,0,0,-1,832,995,0,0
-385,29,0,0,0,0,0,0,0,0,0,-1,839,995,0,0
-378,29,0,0,0,0,0,0,0,0,0,-1,846,995,0,0
-371,29,0,0,0,0,0,0,0,0,0,-1,853,995,0,0
-364,29,0,0,0,0,0,0,0,0,0,-1,860,995,0,0
-357,29,0,0,0,0,0,0,0,0,0,-1,867,995,0,0
-350,29,0,0,0,0,0,0,0,0,0,-1,874,995,0,0
-343,29,0,0,0,0,0,0,0,0,0,-1,881,995,0,0
-336,29,0,0,0,0,0,0,0,0,0,-1,888,995,0,0
-329,29,0,0,0,0,0,0,0,0,0,-1,895,995,0,0
-322,29,0,0,0,0,0,0,0,0,0,-1,902,995,0,0
-315,29,0,0,0,0,0,0,0,0,0,-1,909,995,0,0
-308,29,0,0,0,0,0,0,0,0,0,-1,916,995,0,0
-301,29,0,0,0,0,0,0,0,0,0,-1,923,995,0,0
-294,29,0,0,0,0,0,0,0,0,0,-1,930,995,0,0
-287,29,0,0,0,0,0,0,0,0,0,-1,937,995,0,0
-280,29,0,0,0,0,0,0,0,0,0,-1,944,995,0,0
-273,29,0,0,0,0,0,0,0,0,0,-1,951,995,0,0
-266,29,0,0,0,0,0,0,0,0,0,-1,958,995,0,0
-259,29,0,0,0,0,0,0,0,0,0,-1,965,995,0,0
-252,29,0,0,0,0,0,0,0,0,0,-1,972,995,0,0
-245,29,0,0,0,0,0,0,0,0,0,-1,979,995,0,0
-238,29,0,0,0,0,0,0,0,0,0,-1,986,995,0,0
-231,29,0,0,0,0,0,0,0,0,0,-1,993,995,0,0
-224,29,0,0,0,0,0,0,0,0,0,-1,1000,995,0,0
-217,29,0,0,0,0,0,0,0,0,0,-1,1007,995,0,0
-210,29,0,0,0,0,0,0,0,0,0,-1,1014,995,0,0
-203,29,0,0,0,0,0,0,0,0,0,-1,1021,995,0,0
-196,29,0,0,0,0,0,0,0,0,0,-1,1028,995,0,0
-189,29,0,0,0,0,0,0,0,0,0,-1,1035,995,0,0
-182,29,0,0,0,0,0,0,0,0,0,-1,1042,995,0,0
-175,29,0,0,0,0,0,0,0,0,0,-1,1049,995,0,0
-168,29,0,0,0,0,0,0,0,0,0,-1,1056,995,0,0
-161,29,0,0,0,0,0,0,0,0,0,-1,1063,995,0,0
-154,29,0,0,0,0,0,0,0,0,0,-1,1070,995,0,0
-147,29,0,0,0,0,0,0,0,0,0,-1,1077,995,0,0
-140,29,0,0,0,0,0,0,0,0,0,-1,1084,995,0,0
-133,29,0,0,0,0,0,0,0,0,0,-1,1091,995,0,0
-126,29,0,0,0,0,0,0,0,0,0,-1,1098,995,0,0
-119,29,0,0,0,0,0,0,0,0,0,-1,1105,995,0,0
-112,29,0,0,0,0,0,0,0,0,0,-1,1112,995,0,0
-105,29,0,0,0,0,0,0,0,0,0,-1,1119,995,0,0
-98,29,0,0,0,0,0,0,0,0,0,-1,1126,995,0,0
-91,29,0,0,0,0,0,0,0,0,0,-1,1133,995,0,0
-84,29,0,0,0,0,0,0,0,0,0,-1,1140,995,0,0
-77,29,0,0,0,0,0,0,0,0,0,-1,1147,995,0,0
-70,29,0,0,0,0,0,0,0,0,0,-1,1154,995,0,0
-63,29,0,0,0,0,0,0,0,0,0,-1,1161,995,0,0
-56,29,0,0,0,0,0,0,0,0,0,-1,1168,995,0,0
-49,29,0,0,0,0,0,0,0,0,0,-1,1175,995,0,0
-42,29,0,0,0,0,0,0,0,0,0,-1,1182,995,0,0
-35,29,0,0,0,0,0,0,0,0,0,-1,1189,995,0,0
-28,29,0,0,0,0,0,0,0,0,0,-1,1196,995,0,0
-21,29,0,0,0,0,0,0,0,0,0,-1,1203,995,0,0
-14,29,0,0,0,0,0,0,0,0,0,-1,1210,995,0,0
-7,29,0,0,0,0,0,0,0,0,0,-1,1217,995,0,0
0,29,0,0,0,0,0,0,0,0,0,-1,1224,995,0,0
7,29,0,0,0,0,0,0,0,0,0,-1,1231,995,0,0
14,29,0,0,0,0,0,0,0,0,0,-1,1238,995,0,0
21,29,0,0,0,0,0,0,0,0,0,-1,1245,995,0,0
28,29,0,0,0,0,0,0,0,0,0,-1,1252,995,0,0
35,29,0,0,0,0,0,0,0,0,0,-1,1259,995,0,0
42,29,0,0,0,0,0,0,0,0,0,-1,1266,995,0,0
49,29,0,0,0,0,0,0,0,0,0,-1,1273,995,0,0
56,29,0,0,0,0,0,0,0,0,0,-1,1280,995,0,0
63,29,0,0,0,0,0,0,0,0,0,-1,1287,995,0,0
70,29,0,0,0,0,0,0,0,0,0,-1,1294,995,0,0
77,29,0,0,0,0,0,0,0,0,0,-1,1301,995,0,0
84,29,0,0,0,0,0,0,0,0,0,-1,1308,995,0,0
91,29,0,0,0,0,0,0,0,0,0,-1,1315,995,0,0
98,29,0,0,0,0,0,0,0,0,0,-1,1322,995,0,0
105,29,0,0,0,0,0,0,0,0,0,-1,1329,995,0,0
112,29,0,0,0,0,0,0,0,0,0,-1,1336,995,0,0
119,29,0,0,0,0,0,0,0,0,0,-1,1343,995,0,0
126,29,0,0,0,0,0,0,0,0,0,-1,1350,995,0,0
133,29,0,0,0,0,0,0,0,0,0,-1,1357,995,0,0
140,29,0,0,0,0,0,0,0,0,0,-1,1364,995,0,0
147,29,0,0,0,0,0,0,0,0,0,-1,1371,995,0,0
154,29,0,0,0,0,0,0,0,0,0,-1,1378,995,0,0
161,29,0,0,0,0,0,0,0,0,0,-1,1385,995,0,0
168,29,0,0,0,0,0,0,0,0,0,-1,1392,995,0,0
175,29,0,0,0,0,0,0,0,0,0,-1,1399,995,0,0
182,29,0,0,0,0,0,0,0,0,0,-1,1406,995,0,0
189,29,0,0,0,0,0,0,0,0,0,-1,1413,995,0,0
196,29,0,0,0,0,0,0,0,0,0,-1,1420,995,0,0
203,29,0,0,0,0,0,0,0,0,0,-1,1427,995,0,0
210,29,0,0,0,0,0,0,0,0,0,-1,1434,995,0,0
217,29,0,0,0,0,0,0,0,0,0,-1,1441,995,0,0
224,29,0,0,0,0,0,0,0,0,0,-1,1448,995,0,0
231,29,0,0,0,0,0,0,0,0,0,-1,1455,995,0,0
238,29,0,0,0,0,0,0,0,0,0,-1,1462,995,0,0
245,29,0,0,0,0,0,0,0,0,0,-1,1469,995,0,0
252,29,0,0,0,0,0,0,0,0,0,-1,1476,995,0,0
259,29,0,0,0,0,0,0,0,0,0,-1,1483,995,0,0
266,29,0,0,0,0,0,0,0,0,0,-1,1490,995,0,0
273,29,0,0,0,0,0,0,0,0,0,-1,1497,995,0,0
280,29,0,0,0,0,0,0,0,0,0,-1,1504,995,0,0
287,29,0,0,0,0,0,0,0,0,0,-1,1511,995,0,0
294,29,0,0,0,0,0,0,0,0,0,-1,1518,995,0,0
301,29,0,0,0,0,0,0,0,0,0,-1,1525,995,0,0
308,29,0,0,0,0,0,0,0,0,0,-1,1532,995,0,0
315,29,0,0,0,0,0,0,0,0,0,-1,1539,995,0,0
322,29,0,0,0,0,0,0,0,0,0,-1,1546,995,0,0
329,29,0,0,0,0,0,0,0,0,0,-1,1553,995,0,0
336,29,0,0,0,0,0,0,0,0,0,-1,1560,995,0,0
343,29,0,0,0,0,0,0,0,0,0,-1,1567,995,0,0
350,29,0,0,0,0,0,0,0,0,0,-1,1574,995,0,0
357,29,0,0,0,0,0,0,0,0,0,-1,1581,995,0,0
364,29,0,0,0,0,0,0,0,0,0,-1,1588,995,0,0
371,29,0,0,0,0,0,0,0,0,0,-1,1595,995,0,0
378,29,0,0,0,0,0,0,0,0,0,-1,1602,995,0,0
385,29,0,0,0,0,0,0,0,0,0,-1,1609,995,0,0
392,29,0,0,0,0,0,0,0,0,0,-1,1616,995,0,0
399,29,0,0,0,0,0,0,0,0,0,-1,1623,995,0,0
406,29,0,0,0,0,0,0,0,0,0,-1,1630,995,0,0
413,29,0,0,0,0,0,0,0,0,0,-1,1637,995,0,0
420,29,0,0,0,0,0,0,0,0,0,-1,1644,995,0,0
427,29,0,0,0,0,0,0,0,0,0,-1,1651,995,0,0
434,29,0,0,0,0,0,0,0,0,0,-1,1658,995,0,0
441,29,0,0,0,0,0,0,0,0,0,-1,1665,995,0,0
448,29,0,0,0,0,0,0,0,0,0,-1,1672,995,0,0
455,29,0,0,0,0,0,0,0,0,0,-1,1679,995,0,0
462,29,0,0,0,0,0,0,0,0,0,-1,1686,995,0,0
469,29,0,0,0,0,0,0,0,0,0,-1,1693,995,0,0
476,29,0,0,0,0,0,0,0,0,0,-1,1700,995,0,0
483,29,0,0,0,0,0,0,0,0,0,-1,1707,995,0,0
490,29,0,0,0,0,0,0,0,0,0,-1,1714,995,0,0
497,29,0,0,0,0,0,0,0,0,0,-1,1721,995,0,0
504,29,0,0,0,0,0,0,0,0,0,-1,1728,995,0,0
511,29,0,0,0,0,0,0,0,0,0,-1,1735,995,0,0
518,29,0,0,0,0,0,0,0,0,0,-1,1742,995,0,0
525,29,0,0,0,0,0,0,0,0,0,-1,1749,995,0,0
532,29,0,0,0,0,0,0,0,0,0,-1,1756,995,0,0
539,29,0,0,0,0,0,0,0,0,0,-1,1763,995,0,0
546,29,0,0,0,0,0,0,0,0,0,-1,1770,995,0,0
553,29,0,0,0,0,0,0,0,0,0,-1,1777,995,0,0
560,29,0,0,0,0,0,0,0,0,0,-1,1784,995,0,0
567,29,0,0,0,0,0,0,0,0,0,-1,1791,995,0,0
574,29,0,0,0,0,0,0,0,0,0,-1,1798,995,0,0
581,29,0,0,0,0,0,0,0,0,0,-1,1805,995,0,0
588,29,0,0,0,0,0,0,0,0,0,-1,1812,995,0,0
595,29,0,0,0,0,0,0,0,0,0,-1,1819,995,0,0
602,29,0,0,0,0,0,0,0,0,0,-1,1826,995,0,0
609,29,0,0,0,0,0,0,0,0,0,-1,1833,995,0,0
616,29,0,0,0,0,0,0,0,0,0,-1,1840,995,0,0
623,29,0,0,0,0,0,0,0,0,0,-1,1847,995,0,0
630,29,0,0,0,0,0,0,0,0,0,-1,1854,995,0,0
637,29,0,0,0,0,0,0,0,0,0,-1,1861,995,0,0
644,29,24.1713,3.15033,-0.00092075,-0.00100959,0.00365491,0.00269001,-0.00462034,0.779322,0.0042694,0.0430241,1868,995,24.1712,-3.15032
651,29,24.0386,3.01764,-0.000415788,-0.00028687,0.00236838,0.00201792,-0.00272058,0.799003,0.00274578,0.0421552,1875,995,24.0386,-3.01762
658,29,24.1362,3.04987,-0.00011562,0.000193398,0.00153096,0.00157762,-0.00149984,0.83569,0.00177696,0.0427013,1882,995,24.1362,-3.04987
665,29,24.2792,3.19202,-0.000118653,0.000699597,0.00132214,0.00167447,-0.00109352,0.935446,0.00160979,0.041073,1889,995,24.2792,-3.192
672,29,24.2062,3.0282,-0.000606332,0.00128911,0.00171955,0.00230482,-0.00162203,1.03726,0.00227856,0.0377402,1896,995,24.2062,-3.02822
679,29,24.1196,2.89661,-0.00149335,0.00174577,0.00251462,0.00311724,-0.00286482,1.07149,0.00345477,0.0373423,1903,995,24.1196,-2.89659
686,29,24.1287,2.96509,-0.00240232,0.00203444,0.0033797,0.00385878,-0.00422666,1.07582,0.00466974,0.0361907,1910,995,24.1286,-2.96506
693,29,24.2301,2.99982,-0.00323705,0.00222157,0.00419774,0.00449927,-0.00551475,1.07365,0.0057915,0.0389735,1917,995,24.2301,-2.99984
700,29,24.2479,2.91711,-0.00392259,0.00234135,0.00476816,0.00491417,-0.00649541,1.07599,0.00660838,0.0354808,1924,995,24.2479,-2.91714
707,29,24.1624,2.8349,-0.00452422,0.00235143,0.00509171,0.00505723,-0.00723003,1.08234,0.00713093,0.021843,1931,995,24.1624,-2.83493
714,29,24.1537,3.10004,-0.00505151,0.00236861,0.00520452,0.00505007,-0.00773297,1.09505,0.00743428,0.0247643,1938,995,24.1536,-3.10006
721,29,24.0044,3.69421,-0.00543005,0.00237661,0.00523793,0.00500566,-0.00805909,1.10561,0.0076113,0.0317702,1945,995,24.0044,-3.69418
728,29,23.696,4.02637,-0.00584497,0.00232897,0.00497766,0.00468253,-0.00819853,1.12912,0.00752867,0.0217279,1952,995,23.6961,-4.02638
735,29,23.5745,4.19385,-0.00659526,0.0024173,0.00396868,0.00391577,-0.00809373,1.20977,0.00707216,0.0137939,1959,995,23.5745,-4.19387
742,29,23.5718,4.23767,-0.00776218,0.00248265,0.00215867,0.00291892,-0.00819845,1.37138,0.0066555,0.0120884,1966,995,23.5718,-4.23766
749,29,23.5741,4.30438,-0.00894921,0.00210031,-3.59298e-05,0.00210043,-0.00894933,-1.56754,0.00677577,0.0128664,1973,995,23.5741,-4.30436
756,29,23.5793,4.40338,-0.0103354,0.00180531,-0.00171776,0.00204367,-0.0105738,-1.43291,0.00781994,0.0119648,1980,995,23.5793,-4.40336
763,29,23.5615,4.46265,-0.0119032,0.00187169,-0.0039035,0.00290095,-0.0129325,-1.31299,0.00973382,0.0123423,1987,995,23.5616,-4.46267
770,29,23.5011,4.51385,-0.0142804,0.00154057,-0.00629635,0.00374046,-0.0164803,-1.23466,0.0124229,0.0134497,1994,995,23.5011,-4.51383
777,29,23.4888,4.61615,-0.0173435,0.00119748,-0.00834589,0.0044008,-0.0205468,-1.20432,0.0153762,0.0206472,2001,995,23.4887,-4.61618
784,29,23.3181,4.50769,-0.0210693,0.000623826,-0.00982581,0.00441265,-0.0248581,-1.20277,0.018222,0.0406865,2008,995,23.3181,-4.50771
791,29,23.1237,4.38495,-0.0251309,-0.000258972,-0.0105637,0.00362208,-0.0290119,-1.21871,0.0206548,0.0433433,2015,995,23.1236,-4.38492
798,29,22.9316,4.25183,-0.0291375,-0.00138671,-0.0102005,0.00195933,-0.0324835,-1.25383,0.0223374,0.0435332,2022,995,22.9316,-4.25186
805,29,22.7925,4.13947,0,0,0,0,0,0,0,-1,2029,995,22.7924,-4.13946
812,29,23.6094,5.08612,0,0,0,0,0,0,0,-1,2036,995,23.6094,-5.0861
-700,22,0,0,0,0,0,0,0,0,0,-1,524,1002,0,0
-693,22,-17.3232,-2.53143,0.126917,0.0819561,0.0947881,0.201854,0.00701911,0.668967,0.132292,0.0417535,531,1002,-17.3232,2.53141
-686,22,-16.2412,2.99072,0.103664,0.0733104,0.0729833,0.163032,0.0139425,0.682886,0.104351,0.0422815,538,1002,-16.2412,-2.9907
-679,22,-16.4197,2.47137,0.0830875,0.063147,0.0559754,0.129974,0.0162608,0.697263,0.0817695,0.047443,545,1002,-16.4197,-2.47134
-672,22,-16.4517,1.80627,0.0652352,0.0528137,0.0423844,0.101862,0.0161874,0.712649,0.0632066,0.0481681,552,1002,-16.4517,-1.80626
-665,22,-15.973,1.34167,0.0499159,0.0429345,0.0314456,0.0780639,0.0147865,0.730121,0.047881,0.0424061,559,1002,-15.973,-1.34165
-658,22,-16.4673,2.09546,0,0,0,0,0,0,0,-1,566,1002,-16.4674,-2.09547
-651,22,-16.4731,2.06219,0.0263818,0.0258165,0.015808,0.0419097,0.0102886,0.776459,0.0252198,0.0375359,573,1002,-16.4731,-2.06221
-644,22,-16.5327,2.00867,0.0179348,0.0190079,0.0103177,0.028803,0.00813977,0.811377,0.0171454,0.0192771,580,1002,-16.5326,-2.0087
-637,22,-16.613,1.96552,0.0102047,0.0149014,0.00431193,0.017463,0.00764314,1.03475,0.0101083,0.0137467,587,1002,-16.613,-1.96553
-630,22,-16.6315,1.9317,0.00460566,0.00728497,0.0010517,0.00764848,0.00424216,1.23802,0.00442463,0.0112646,594,1002,-16.6315,-1.9317
-623,22,-16.6422,1.88989,0.000744391,0.00484556,-0.00197765,0.00564383,-5.38826e-05,-1.18715,0.00378064,0.010534,601,1002,-16.6422,-1.88989
-616,22,-16.6498,1.85114,-0.00040093,0.00304045,-0.00299691,0.00477552,-0.002136,-1.046,0.00408621,0.0154554,608,1002,-16.6498,-1.85113
-609,22,-16.6624,1.83136,-0.00074945,0.00204078,-0.00323427,0.004168,-0.00287667,-0.989018,0.00408996,0.0246875,615,1002,-16.6624,-1.83135
-602,22,-16.66,1.76257,-0.00111233,0.0014858,-0.00406234,0.00445172,-0.00407826,-0.940151,0.00492636,0.0248828,622,1002,-16.66,-1.76255
-595,22,-16.6176,1.64648,-0.00130794,0.00109236,-0.00464743,0.0046921,-0.00490769,-0.911757,0.00554291,0.0213223,629,1002,-16.6175,-1.64646
-588,22,-16.608,1.30054,-0.00118807,0.000609779,-0.0048687,0.00466184,-0.00524013,-0.876687,0.00572016,0.0292807,636,1002,-16.608,-1.30056
-581,22,-16.6295,1.07806,-0.00118817,0.000145831,-0.00474612,0.00427159,-0.00531392,-0.855209,0.00554509,0.0402131,643,1002,-16.6294,-1.07806
-574,22,-16.6529,0.938538,-0.00150224,-0.000335176,-0.00438924,0.00350915,-0.00534657,-0.851484,0.0051494,0.0348404,650,1002,-16.6529,-0.938563
-567,22,-16.6547,0.870911,-0.00171395,-0.000856333,-0.00375877,0.00249801,-0.00506829,-0.842194,0.00445163,0.0319966,657,1002,-16.6547,-0.870886
-560,22,-16.7269,0.892944,-0.00193723,-0.00144713,-0.00287227,0.00119053,-0.00457489,-0.827954,0.00351464,0.0372826,664,1002,-16.7269,-0.892972
-553,22,-16.7615,1.00287,-0.00221857,-0.00212352,-0.00178192,-0.000388489,-0.0039536,-0.79873,0.00251625,0.0401852,671,1002,-16.7615,-1.00284
-546,22,-16.7267,0.963989,-0.0026007,-0.00290361,-0.000552626,-0.00217915,-0.00332516,-0.651647,0.00195043,0.0405542,678,1002,-16.7267,-0.963959
-539,22,-16.7554,0.874817,-0.00319919,-0.00368457,0.000528232,-0.00286057,-0.0040232,0.570058,0.00239075,0.0401422,685,1002,-16.7554,-0.874841
-532,22,-16.6888,0.787292,-0.00455311,-0.00408856,0.000813911,-0.00347443,-0.00516724,0.924392,0.00304184,0.0399771,692,1002,-16.6888,-0.787314
-525,22,0,0,0,0,0,0,0,0,0,-1,699,1002,0,0
-518,22,0,0,0,0,0,0,0,0,0,-1,706,1002,0,0
-511,22,0,0,0,0,0,0,0,0,0,-1,713,1002,0,0
-504,22,0,0,0,0,0,0,0,0,0,-1,720,1002,0,0
-497,22,0,0,0,0,0,0,0,0,0,-1,727,1002,0,0
-490,22,0,0,0,0,0,0,0,0,0,-1,734,1002,0,0
-483,22,0,0,0,0,0,0,0,0,0,-1,741,1002,0,0
-476,22,0,0,0,0,0,0,0,0,0,-1,748,1002,0,0
-469,22,0,0,0,0,0,0,0,0,0,-1,755,1002,0,0
-462,22,0,0,0,0,0,0,0,0,0,-1,762,1002,0,0
-455,22,0,0,0,0,0,0,0,0,0,-1,769,1002,0,0
-448,22,0,0,0,0,0,0,0,0,0,-1,776,1002,0,0
-441,22,0,0,0,0,0,0,0,0,0,-1,783,1002,0,0
-434,22,0,0,0,0,0,0,0,0,0,-1,790,1002,0,0
-427,22,0,0,0,0,0,0,0,0,0,-1,797,1002,0,0
-420,22,0,0,0,0,0,0,0,0,0,-1,804,1002,0,0
-413,22,0,0,0,0,0,0,0,0,0,-1,811,1002,0,0
-406,22,0,0,0,0,0,0,0,0,0,-1,818,1002,0,0
-399,22,0,0,0,0,0,0,0,0,0,-1,825,1002,0,0
-392,22,0,0,0,0,0,0,0,0,0,-1,832,1002,0,0
-385,22,0,0,0,0,0,0,0,0,0,-1,839,1002,0,0
-378,22,0,0,0,0,0,0,0,0,0,-1,846,1002,0,0
-371,22,0,0,0,0,0,0,0,0,0,-1,853,1002,0,0
-364,22,0,0,0,0,0,0,0,0,0,-1,860,1002,0,0
-357,22,0,0,0,0,0,0,0,0,0,-1,867,1002,0,0
-350,22,0,0,0,0,0,0,0,0,0,-1,874,1002,0,0
-343,22,0,0,0,0,0,0,0,0,0,-1,881,1002,0,0
-336,22,0,0,0,0,0,0,0,0,0,-1,888,1002,0,0
-329,22,0,0,0,0,0,0,0,0,0,-1,895,1002,0,0
-322,22,0,0,0,0,0,0,0,0,0,-1,902,1002,0,0
-315,22,0,0,0,0,0,0,0,0,0,-1,909,1002,0,0
-308,22,0,0,0,0,0,0,0,0,0,-1,916,1002,0,0
-301,22,0,0,0,0,0,0,0,0,0,-1,923,1002,0,0
-294,22,0,0,0,0,0,0,0,0,0,-1,930,1002,0,0
-287,22,0,0,0,0,0,0,0,0,0,-1,937,1002,0,0
-280,22,0,0,0,0,0,0,0,0,0,-1,944,1002,0,0
-273,22,0,0,0,0,0,0,0,0,0,-1,951,1002,0,0
-266,22,0,0,0,0,0,0,0,0,0,-1,958,1002,0,0
-259,22,0,0,0,0,0,0,0,0,0,-1,965,1002,0,0
-252,22,0,0,0,0,0,0,0,0,0,-1,972,1002,0,0
-245,22,0,0,0,0,0,0,0,0,0,-1,979,1002,0,0
-238,22,0,0,0,0,0,0,0,0,0,-1,986,1002,0,0
-231,22,0,0,0,0,0,0,0,0,0,-1,993,1002,0,0
-224,22,0,0,0,0,0,0,0,0,0,-1,1000,1002,0,0
-217,22,0,0,0,0,0,0,0,0,0,-1,1007,1002,0,0
-210,22,0,0,0,0,0,0,0,0,0,-1,1014,1002,0,0
-203,22,0,0,0,0,0,0,0,0,0,-1,1021,1002,0,0
-196,22,0,0,0,0,0,0,0,0,0,-1,1028,1002,0,0
-189,22,0,0,0,0,0,0,0,0,0,-1,1035,1002,0,0
-182,22,0,0,0,0,0,0,0,0,0,-1,1042,1002,0,0
-175,22,0,0,0,0,0,0,0,0,0,-1,1049,1002,0,0
-168,22,0,0,0,0,0,0,0,0,0,-1,1056,1002,0,0
-161,22,0,0,0,0,0,0,0,0,0,-1,1063,1002,0,0
-154,22,0,0,0,0,0,0,0,0,0,-1,1070,1002,0,0
-147,22,0,0,0,0,0,0,0,0,0,-1,1077,1002,0,0
-140,22,0,0,0,0,0,0,0,0,0,-1,1084,1002,0,0
-133,22,0,0,0,0,0,0,0,0,0,-1,1091,1002,0,0
-126,22,0,0,0,0,0,0,0,0,0,-1,1098,1002,0,0
-119,22,0,0,0,0,0,0,0,0,0,-1,1105,1002,0,0
-112,22,0,0,0,0,0,0,0,0,0,-1,1112,1002,0,0
-105,22,0,0,0,0,0,0,0,0,0,-1,1119,1002,0,0
-98,22,0,0,0,0,0,0,0,0,0,-1,1126,1002,0,0
-91,22,0,0,0,0,0,0,0,0,0,-1,1133,1002,0,0
-84,22,0,0,0,0,0,0,0,0,0,-1,1140,1002,0,0
-77,22,0,0,0,0,0,0,0,0,0,-1,1147,1002,0,0
-70,22,0,0,0,0,0,0,0,0,0,-1,1154,1002,0,0
-63,22,0,0,0,0,0,0,0,0,0,-1,1161,1002,0,0
-56,22,0,0,0,0,0,0,0,0,0,-1,1168,1002,0,0
-49,22,0,0,0,0,0,0,0,0,0,-1,1175,1002,0,0
-42,22,0,0,0,0,0,0,0,0,0,-1,1182,1002,0,0
-35,22,0,0,0,0,0,0,0,0,0,-1,1189,1002,0,0
-28,22,0,0,0,0,0,0,0,0,0,-1,1196,1002,0,0
-21,22,0,0,0,0,0,0,0,0,0,-1,1203,1002,0,0
-14,22,0,0,0,0,0,0,0,0,0,-1,1210,1002,0,0
-7,22,0,0,0,0,0,0,0,0,0,-1,1217,1002,0,0
0,22,0,0,0,0,0,0,0,0,0,-1,1224,1002,0,0
7,22,0,0,0,0,0,0,0,0,0,-1,1231,1002,0,0
14,22,0,0,0,0,0,0,0,0,0,-1,1238,1002,0,0
21,22,0,0,0,0,0,0,0,0,0,-1,1245,1002,0,0
28,22,0,0,0,0,0,0,0,0,0,-1,1252,1002,0,0
35,22,0,0,0,0,0,0,0,0,0,-1,1259,1002,0,0
42,22,0,0,0,0,0,0,0,0,0,-1,1266,1002,0,0
49,22,0,0,0,0,0,0,0,0,0,-1,1273,1002,0,0
56,22,0,0,0,0,0,0,0,0,0,-1,1280,1002,0,0
63,22,0,0,0,0,0,0,0,0,0,-1,1287,1002,0,0
70,22,0,0,0,0,0,0,0,0,0,-1,1294,1002,0,0
77,22,0,0,0,0,0,0,0,0,0,-1,1301,1002,0,0
84,22,0,0,0,0,0,0,0,0,0,-1,1308,1002,0,0
91,22,0,0,0,0,0,0,0,0,0,-1,1315,1002,0,0
98,22,0,0,0,0,0,0,0,0,0,-1,1322,1002,0,0
105,22,0,0,0,0,0,0,0,0,0,-1,1329,1002,0,0
112,22,0,0,0,0,0,0,0,0,0,-1,1336,1002,0,0
119,22,0,0,0,0,0,0,0,0,0,-1,1343,1002,0,0
126,22,0,0,0,0,0,0,0,0,0,-1,1350,1002,0,0
133,22,0,0,0,0,0,0,0,0,0,-1,1357,1002,0,0
140,22,0,0,0,0,0,0,0,0,0,-1,1364,1002,0,0
147,22,0,0,0,0,0,0,0,0,0,-1,1371,1002,0,0
154,22,0,0,0,0,0,0,0,0,0,-1,1378,1002,0,0
161,22,0,0,0,0,0,0,0,0,0,-1,1385,1002,0,0
168,22,0,0,0,0,0,0,0,0,0,-1,1392,1002,0,0
175,22,0,0,0,0,0,0,0,0,0,-1,1399,1002,0,0
182,22,0,0,0,0,0,0,0,0,0,-1,1406,1002,0,0
189,22,0,0,0,0,0,0,0,0,0,-1,1413,1002,0,0
196,22,0,0,0,0,0,0,0,0,0,-1,1420,1002,0,0
203,22,0,0,0,0,0,0,0,0,0,-1,1427,1002,0,0
210,22,0,0,0,0,0,0,0,0,0,-1,1434,1002,0,0
217,22,0,0,0,0,0,0,0,0,0,-1,1441,1002,0,0
224,22,0,0,0,0,0,0,0,0,0,-1,1448,1002,0,0
231,22,0,0,0,0,0,0,0,0,0,-1,1455,1002,0,0
238,22,0,0,0,0,0,0,0,0,0,-1,1462,1002,0,0
245,22,0,0,0,0,0,0,0,0,0,-1,1469,1002,0,0
252,22,0,0,0,0,0,0,0,0,0,-1,1476,1002,0,0
259,22,0,0,0,0,0,0,0,0,0,-1,1483,1002,0,0
266,22,0,0,0,0,0,0,0,0,0,-1,1490,1002,0,0
273,22,0,0,0,0,0,0,0,0,0,-1,1497,1002,0,0
280,22,0,0,0,0,0,0,0,0,0,-1,1504,1002,0,0
287,22,0,0,0,0,0,0,0,0,0,-1,1511,1002,0,0
294,22,0,0,0,0,0,0,0,0,0,-1,1518,1002,0,0
301,22,0,0,0,0,0,0,0,0,0,-1,1525,1002,0,0
308,22,0,0,0,0,0,0,0,0,0,-1,1532,1002,0,0
315,22,0,0,0,0,0,0,0,0,0,-1,1539,1002,0,0
322,22,0,0,0,0,0,0,0,0,0,-1,1546,1002,0,0
329,22,0,0,0,0,0,0,0,0,0,-1,1553,1002,0,0
336,22,0,0,0,0,0,0,0,0,0,-1,1560,1002,0,0
343,22,0,0,0,0,0,0,0,0,0,-1,1567,1002,0,0
350,22,0,0,0,0,0,0,0,0,0,-1,1574,1002,0,0
357,22,0,0,0,0,0,0,0,0,0,-1,1581,1002,0,0
364,22,0,0,0,0,0,0,0,0,0,-1,1588,1002,0,0
371,22,0,0,0,0,0,0,0,0,0,-1,1595,1002,0,0
378,22,0,0,0,0,0,0,0,0,0,-1,1602,1002,0,0
385,22,0,0,0,0,0,0,0,0,0,-1,1609,1002,0,0
392,22,0,0,0,0,0,0,0,0,0,-1,1616,1002,0,0
399,22,0,0,0,0,0,0,0,0,0,-1,1623,1002,0,0
406,22,0,0,0,0,0,0,0,0,0,-1,1630,1002,0,0
413,22,0,0,0,0,0,0,0,0,0,-1,1637,1002,0,0
420,22,0,0,0,0,0,0,0,0,0,-1,1644,1002,0,0
427,22,0,0,0,0,0,0,0,0,0,-1,1651,1002,0,0
434,22,0,0,0,0,0,0,0,0,0,-1,1658,1002,0,0
441,22,0,0,0,0,0,0,0,0,0,-1,1665,1002,0,0
448,22,0,0,0,0,0,0,0,0,0,-1,1672,1002,0,0
455,22,0,0,0,0,0,0,0,0,0,-1,1679,1002,0,0
462,22,0,0,0,0,0,0,0,0,0,-1,1686,1002,0,0
469,22,0,0,0,0,0,0,0,0,0,-1,1693,1002,0,0
476,22,0,0,0,0,0,0,0,0,0,-1,1700,1002,0,0
483,22,0,0,0,0,0,0,0,0,0,-1,1707,1002,0,0
490,22,0,0,0,0,0,0,0,0,0,-1,1714,1002,0,0
497,22,0,0,0,0,0,0,0,0,0,-1,1721,1002,0,0
504,22,0,0,0,0,0,0,0,0,0,-1,1728,1002,0,0
511,22,0,0,0,0,0,0,0,0,0,-1,1735,1002,0,0
518,22,0,0,0,0,0,0,0,0,0,-1,1742,1002,0,0
525,22,0,0,0,0,0,0,0,0,0,-1,1749,1002,0,0
532,22,0,0,0,0,0,0,0,0,0,-1,1756,1002,0,0
539,22,0,0,0,0,0,0,0,0,0,-1,1763,1002,0,0
546,22,0,0,0,0,0,0,0,0,0,-1,1770,1002,0,0
553,22,0,0,0,0,0,0,0,0,0,-1,1777,1002,0,0
560,22,0,0,0,0,0,0,0,0,0,-1,1784,1002,0,0
567,22,0,0,0,0,0,0,0,0,0,-1,1791,1002,0,0
574,22,0,0,0,0,0,0,0,0,0,-1,1798,1002,0,0
581,22,0,0,0,0,0,0,0,0,0,-1,1805,1002,0,0
588,22,0,0,0,0,0,0,0,0,0,-1,1812,1002,0,0
595,22,0,0,0,0,0,0,0,0,0,-1,1819,1002,0,0
602,22,0,0,0,0,0,0,0,0,0,-1,1826,1002,0,0
609,22,0,0,0,0,0,0,0,0,0,-1,1833,1002,0,0
616,22,0,0,0,0,0,0,0,0,0,-1,1840,1002,0,0
623,22,0,0,0,0,0,0,0,0,0,-1,1847,1002,0,0
630,22,0,0,0,0,0,0,0,0,0,-1,1854,1002,0,0
637,22,0,0,0,0,0,0,0,0,0,-1,1861,1002,0,0
644,22,24.1136,2.75177,4.49039e-05,0.00106278,0.00433938,0.00492297,-0.00381528,0.843773,0.00505852,0.0410098,1868,1002,24.1136,-2.75178
651,22,24.1809,2.92706,0.000276473,0.00123142,0.00269516,0.00349108,-0.00198318,0.873069,0.00320028,0.0422758,1875,1002,24.181,-2.92704
658,22,24.2402,2.98438,0.000396473,0.00128235,0.00160894,0.00250821,-0.000829389,0.919719,0.00200658,0.0433107,1882,1002,24.2402,-2.98439
665,22,24.2955,3.0246,0.000311308,0.00141635,0.00120991,0.00219393,-0.000466272,0.999589,0.00164029,0.0376021,1889,1002,24.2956,-3.0246
672,22,24.2128,2.81598,-0.00017828,0.00171479,0.00152215,0.00256071,-0.0010242,1.06356,0.00213217,0.0373416,1896,1002,24.2128,-2.81599
679,22,24.0862,2.80695,-0.00105613,0.00194768,0.00234283,0.00322869,-0.00233713,1.07043,0.00322714,0.0389946,1903,1002,24.0861,-2.80696
686,22,24.1039,2.91461,-0.00196801,0.00207034,0.00328702,0.00390882,-0.00380649,1.06083,0.00445457,0.0378603,1910,1002,24.1039,-2.91464
693,22,24.2224,2.89935,-0.00280978,0.00212147,0.0041857,0.00451377,-0.00520208,1.05157,0.00561414,0.0359753,1917,1002,24.2224,-2.89936
700,22,24.2228,2.85754,-0.00350928,0.0021362,0.00485623,0.00493048,-0.00630355,1.04866,0.0065021,0.0331355,1924,1002,24.2228,-2.85753
707,22,24.134,2.81317,-0.00409249,0.0020896,0.0052862,0.00512215,-0.00712505,1.04996,0.00710237,0.0274359,1931,1002,24.1341,-2.81316
714,22,24.1434,2.93701,-0.00461859,0.00208446,0.00550613,0.00517888,-0.00771301,1.05879,0.00749091,0.0248649,1938,1002,24.1435,-2.937
721,22,24.2271,3.19287,0,0,0,0,0,0,0,-1,1945,1002,24.2271,-3.19288
728,22,23.6968,3.91772,-0.00545371,0.00208631,0.00541904,0.00491773,-0.00828514,1.08931,0.00770488,0.028287,1952,1002,23.6968,-3.9177
735,22,23.6826,4.19379,-0.00615533,0.00220682,0.00446502,0.00414276,-0.00809126,1.16168,0.00718489,0.0143189,1959,1002,23.6826,-4.19378
742,22,23.6891,4.25781,-0.00724834,0.002257,0.00268351,0.00296227,-0.00795361,1.31379,0.00651821,0.0151111,1966,1002,23.689,-4.25784
749,22,23.6516,4.30646,-0.0081731,0.00187509,0.000535138,0.00190351,-0.00820152,1.51774,0.00620036,0.0120121,1973,1002,23.6517,-4.30646
756,22,23.651,4.38458,-0.00915661,0.00165866,-0.00112934,0.00177532,-0.00927328,-1.46786,0.00685107,0.0163945,1980,1002,23.6509,-4.38457
763,22,23.5968,4.47009,-0.0101847,0.00183884,-0.00324457,0.00265851,-0.0110044,-1.32334,0.00836445,0.0186,1987,1002,23.5968,-4.47009
770,22,23.5919,4.47614,-0.0117748,0.00161843,-0.00562193,0.00366543,-0.0138218,-1.22161,0.0106487,0.0128913,1994,1002,23.592,-4.47614
777,22,23.5586,4.55377,-0.0137319,0.00144007,-0.00766756,0.00464012,-0.016932,-1.17542,0.0131113,0.0210414,2001,1002,23.5586,-4.55377
784,22,23.3889,4.42712,-0.0160118,0.00115703,-0.00908792,0.00507391,-0.0199287,-1.16386,0.0152609,0.0425373,2008,1002,23.3889,-4.42712
791,22,23.3054,3.97144,-0.0182536,0.000733672,-0.00973908,0.00484073,-0.0223607,-1.17172,0.0167554,0.0450263,2015,1002,23.3054,-3.97143
798,22,23.1796,4.33386,0,0,0,0,0,0,0,-1,2022,1002,23.1795,-4.33386
805,22,24.2915,3.98755,0,0,0,0,0,0,0,-1,2029,1002,24.2915,-3.98756
812,22,23.8142,4.5799,0,0,0,0,0,0,0,-1,2036,1002,23.8143,-4.5799
-700,15,0,0,0,0,0,0,0,0,0,-1,524,1009,0,0
-693,15,-17.8246,-1.9433,0.120432,0.0781116,0.0870275,0.188835,0.00970855,0.666142,0.122782,0.0436141,531,1009,-17.8246,1.94329
-686,15,-17.5143,-1.57727,0.0995547,0.070081,0.0687323,0.155112,0.0145234,0.679792,0.0989231,0.0426033,538,1009,-17.5143,1.57725
-679,15,-15.8602,1.35748,0.0804684,0.0605497,0.0537812,0.125205,0.0158134,0.693844,0.0787298,0.0489856,545,1009,-15.8602,-1.35747
-672,15,-16.2386,1.12903,0,0,0,0,0,0,0,-1,552,1009,-16.2387,-1.12904
-665,15,-15.4047,0.862305,0,0,0,0,0,0,0,-1,559,1009,-15.4046,-0.862323
-658,15,-16.4254,1.72522,0,0,0,0,0,0,0,-1,566,1009,-16.4254,-1.72524
-651,15,-16.4897,1.84113,0.0259784,0.0249834,0.0160178,0.0415064,0.00945541,0.769874,0.0251195,0.0391073,573,1009,-16.4897,-1.84113
-644,15,-16.6066,1.95142,0.0177483,0.0184259,0.0105709,0.0286635,0.00751078,0.801418,0.0171622,0.0218271,580,1009,-16.6066,-1.95139
-637,15,-16.6375,1.9632,0.0101911,0.0145534,0.00464052,0.0174998,0.00724471,1.00508,0.0101532,0.0166119,587,1009,-16.6375,-1.96318
-630,15,-16.6526,1.9057,0.00482315,0.00713617,0.00110279,0.00757768,0.00438164,1.18998,0.00439279,0.0116595,594,1009,-16.6527,-1.9057
-623,15,-16.6735,1.87994,0.00102007,0.00467882,-0.00207613,0.00561656,8.2328e-05,-1.14655,0.00371724,0.0089595,601,1009,-16.6735,-1.87991
-616,15,-16.7045,1.85223,-0.000145896,0.00287196,-0.00334083,0.00502882,-0.00230276,-0.997516,0.00432932,0.0135195,608,1009,-16.7045,-1.85224
-609,15,-16.6753,1.82391,-0.000390336,0.0019033,-0.0036686,0.00460016,-0.00308719,-0.936888,0.00446686,0.0195716,615,1009,-16.6753,-1.82392
-602,15,-16.6306,1.76721,-0.000627958,0.00134752,-0.0045163,0.00498283,-0.00426327,-0.893056,0.00534363,0.018972,622,1009,-16.6306,-1.76719
-595,15,-16.6286,1.45178,-0.000747062,0.000940673,-0.00509557,0.00526177,-0.00506816,-0.867458,0.00596434,0.0241971,629,1009,-16.6286,-1.45181
-588,15,-16.6362,1.08789,-0.000637862,0.000450224,-0.00532213,0.00525604,-0.00544368,-0.836333,0.00617781,0.0311939,636,1009,-16.6362,-1.08792
-581,15,-16.6409,0.951477,-0.000656599,-2.70612e-05,-0.00517622,0.00484395,-0.00552762,-0.815766,0.00599236,0.0368591,643,1009,-16.6409,-0.951496
-574,15,-16.6382,0.936584,-0.000979231,-0.000493758,-0.00476864,0.00403832,-0.00551131,-0.810828,0.0055353,0.0315508,650,1009,-16.6382,-0.936569
-567,15,-16.6404,0.986328,-0.00126654,-0.00100491,-0.00406973,0.00293611,-0.00520756,-0.801464,0.00476232,0.0316763,657,1009,-16.6404,-0.986357
-560,15,-16.6328,1.14325,-0.00160465,-0.00157757,-0.00311179,0.0015207,-0.00470293,-0.787574,0.00374652,0.0381061,664,1009,-16.6328,-1.14324
-553,15,-16.6174,1.2453,-0.00203793,-0.00222813,-0.0019676,-0.000163129,-0.00410293,-0.761251,0.00268256,0.0418083,671,1009,-16.6174,-1.24531
-546,15,-16.6924,1.06714,-0.00259822,-0.00297039,-0.000725978,-0.00203485,-0.00353375,-0.659938,0.00204802,0.0432929,678,1009,-16.6924,-1.06716
-539,15,-16.7307,0.943237,-0.00338257,-0.00366219,0.000233872,-0.0032499,-0.00379486,0.515995,0.00236924,0.0419055,685,1009,-16.7307,-0.943224
-532,15,-16.6945,0.85968,-0.00486259,-0.00389214,0.000154584,-0.00386812,-0.00488662,1.41659,0.0029769,0.0400037,692,1009,-16.6945,-0.859698
-525,15,0,0,0,0,0,0,0,0,0,-1,699,1009,0,0
-518,15,0,0,0,0,0,0,0,0,0,-1,706,1009,0,0
-511,15,0,0,0,0,0,0,0,0,0,-1,713,1009,0,0
-504,15,0,0,0,0,0,0,0,0,0,-1,720,1009,0,0
-497,15,0,0,0,0,0,0,0,0,0,-1,727,1009,0,0
-490,15,0,0,0,0,0,0,0,0,0,-1,734,1009,0,0
-483,15,0,0,0,0,0,0,0,0,0,-1,741,1009,0,0
-476,15,0,0,0,0,0,0,0,0,0,-1,748,1009,0,0
-469,15,0,0,0,0,0,0,0,0,0,-1,755,1009,0,0
-462,15,0,0,0,0,0,0,0,0,0,-1,762,1009,0,0
-455,15,0,0,0,0,0,0,0,0,0,-1,769,1009,0,0
-448,15,0,0,0,0,0,0,0,0,0,-1,776,1009,0,0
-441,15,0,0,0,0,0,0,0,0,0,-1,783,1009,0,0
-434,15,0,0,0,0,0,0,0,0,0,-1,790,1009,0,0
-427,15,0,0,0,0,0,0,0,0,0,-1,797,1009,0,0
-420,15,0,0,0,0,0,0,0,0,0,-1,804,1009,0,0
-413,15,0,0,0,0,0,0,0,0,0,-1,811,1009,0,0
-406,15,0,0,0,0,0,0,0,0,0,-1,818,1009,0,0
-399,15,0,0,0,0,0,0,0,0,0,-1,825,1009,0,0
-392,15,0,0,0,0,0,0,0,0,0,-1,832,1009,0,0
-385,15,0,0,0,0,0,0,0,0,0,-1,839,1009,0,0
-378,15,0,0,0,0,0,0,0,0,0,-1,846,1009,0,0
-371,15,0,0,0,0,0,0,0,0,0,-1,853,1009,0,0
-364,15,0,0,0,0,0,0,0,0,0,-1,860,1009,0,0
-357,15,0,0,0,0,0,0,0,0,0,-1,867,1009,0,0
-350,15,0,0,0,0,0,0,0,0,0,-1,874,1009,0,0
-343,15,0,0,0,0,0,0,0,0,0,-1,881,1009,0,0
-336,15,0,0,0,0,0,0,0,0,0,-1,888,1009,0,0
-329,15,0,0,0,0,0,0,0,0,0,-1,895,1009,0,0
-322,15,0,0,0,0,0,0,0,0,0,-1,902,1009,0,0
-315,15,0,0,0,0,0,0,0,0,0,-1,909,1009,0,0
-308,15,0,0,0,0,0,0,0,0,0,-1,916,1009,0,0
-301,15,0,0,0,0,0,0,0,0,0,-1,923,1009,0,0
-294,15,0,0,0,0,0,0,0,0,0,-1,930,1009,0,0
-287,15,0,0,0,0,0,0,0,0,0,-1,937,1009,0,0
-280,15,0,0,0,0,0,0,0,0,0,-1,944,1009,0,0
-273,15,0,0,0,0,0,0,0,0,0,-1,951,1009,0,0
-266,15,0,0,0,0,0,0,0,0,0,-1,958,1009,0,0
-259,15,0,0,0,0,0,0,0,0,0,-1,965,1009,0,0
-252,15,0,0,0,0,0,0,0,0,0,-1,972,1009,0,0
-245,15,0,0,0,0,0,0,0,0,0,-1,979,1009,0,0
-238,15,0,0,0,0,0,0,0,0,0,-1,986,1009,0,0
-231,15,0,0,0,0,0,0,0,0,0,-1,993,1009,0,0
-224,15,0,0,0,0,0,0,0,0,0,-1,1000,1009,0,0
-217,15,0,0,0,0,0,0,0,0,0,-1,1007,1009,0,0
-210,15,0,0,0,0,0,0,0,0,0,-1,1014,1009,0,0
-203,15,0,0,0,0,0,0,0,0,0,-1,1021,1009,0,0
-196,15,0,0,0,0,0,0,0,0,0,-1,1028,1009,0,0
-189,15,0,0,0,0,0,0,0,0,0,-1,1035,1009,0,0
-182,15,0,0,0,0,0,0,0,0,0,-1,1042,1009,0,0
-175,15,0,0,0,0,0,0,0,0,0,-1,1049,1009,0,0
-168,15,0,0,0,0,0,0,0,0,0,-1,1056,1009,0,0
-161,15,0,0,0,0,0,0,0,0,0,-1,1063,1009,0,0
-154,15,0,0,0,0,0,0,0,0,0,-1,1070,1009,0,0
-147,15,0,0,0,0,0,0,0,0,0,-1,1077,1009,0,0
-140,15,0,0,0,0,0,0,0,0,0,-1,1084,1009,0,0
-133,15,0,0,0,0,0,0,0,0,0,-1,1091,1009,0,0
-126,15,0,0,0,0,0,0,0,0,0,-1,1098,1009,0,0
-119,15,0,0,0,0,0,0,0,0,0,-1,1105,1009,0,0
-112,15,0,0,0,0,0,0,0,0,0,-1,1112,1009,0,0
-105,15,0,0,0,0,0,0,0,0,0,-1,1119,1009,0,0
-98,15,0,0,0,0,0,0,0,0,0,-1,1126,1009,0,0
-91,15,0,0,0,0,0,0,0,0,0,-1,1133,1009,0,0
-84,15,0,0,0,0,0,0,0,0,0,-1,1140,1009,0,0
-77,15,0,0,0,0,0,0,0,0,0,-1,1147,1009,0,0
-70,15,0,0,0,0,0,0,0,0,0,-1,1154,1009,0,0
-63,15,0,0,0,0,0,0,0,0,0,-1,1161,1009,0,0
-56,15,0,0,0,0,0,0,0,0,0,-1,1168,1009,0,0
-49,15,0,0,0,0,0,0,0,0,0,-1,1175,1009,0,0
-42,15,0,0,0,0,0,0,0,0,0,-1,1182,1009,0,0
-35,15,0,0,0,0,0,0,0,0,0,-1,1189,1009,0,0
-28,15,0,0,0,0,0,0,0,0,0,-1,1196,1009,0,0
-21,15,0,0,0,0,0,0,0,0,0,-1,1203,1009,0,0
-14,15,0,0,0,0,0,0,0,0,0,-1,1210,1009,0,0
-7,15,0,0,0,0,0,0,0,0,0,-1,1217,1009,0,0
0,15,0,0,0,0,0,0,0,0,0,-1,1224,1009,0,0
7,15,0,0,0,0,0,0,0,0,0,-1,1231,1009,0,0
14,15,0,0,0,0,0,0,0,0,0,-1,1238,1009,0,0
21,15,0,0,0,0,0,0,0,0,0,-1,1245,1009,0,0
28,15,0,0,0,0,0,0,0,0,0,-1,1252,1009,0,0
35,15,0,0,0,0,0,0,0,0,0,-1,1259,1009,0,0
42,15,0,0,0,0,0,0,0,0,0,-1,1266,1009,0,0
49,15,0,0,0,0,0,0,0,0,0,-1,1273,1009,0,0
56,15,0,0,0,0,0,0,0,0,0,-1,1280,1009,0,0
63,15,0,0,0,0,0,0,0,0,0,-1,1287,1009,0,0
70,15,0,0,0,0,0,0,0,0,0,-1,1294,1009,0,0
77,15,0,0,0,0,0,0,0,0,0,-1,1301,1009,0,0
84,15,0,0,0,0,0,0,0,0,0,-1,1308,1009,0,0
91,15,0,0,0,0,0,0,0,0,0,-1,1315,1009,0,0
98,15,0,0,0,0,0,0,0,0,0,-1,1322,1009,0,0
105,15,0,0,0,0,0,0,0,0,0,-1,1329,1009,0,0
112,15,0,0,0,0,0,0,0,0,0,-1,1336,1009,0,0
119,15,0,0,0,0,0,0,0,0,0,-1,1343,1009,0,0
126,15,0,0,0,0,0,0,0,0,0,-1,1350,1009,0,0
133,15,0,0,0,0,0,0,0,0,0,-1,1357,1009,0,0
140,15,0,0,0,0,0,0,0,0,0,-1,1364,1009,0,0
147,15,0,0,0,0,0,0,0,0,0,-1,1371,1009,0,0
154,15,0,0,0,0,0,0,0,0,0,-1,1378,1009,0,0
161,15,0,0,0,0,0,0,0,0,0,-1,1385,1009,0,0
168,15,0,0,0,0,0,0,0,0,0,-1,1392,1009,0,0
175,15,0,0,0,0,0,0,0,0,0,-1,1399,1009,0,0
182,15,0,0,0,0,0,0,0,0,0,-1,1406,1009,0,0
189,15,0,0,0,0,0,0,0,0,0,-1,1413,1009,0,0
196,15,0,0,0,0,0,0,0,0,0,-1,1420,1009,0,0
203,15,0,0,0,0,0,0,0,0,0,-1,1427,1009,0,0
210,15,0,0,0,0,0,0,0,0,0,-1,1434,1009,0,0
217,15,0,0,0,0,0,0,0,0,0,-1,1441,1009,0,0
224,15,0,0,0,0,0,0,0,0,0,-1,1448,1009,0,0
231,15,0,0,0,0,0,0,0,0,0,-1,1455,1009,0,0
238,15,0,0,0,0,0,0,0,0,0,-1,1462,1009,0,0
245,15,0,0,0,0,0,0,0,0,0,-1,1469,1009,0,0
252,15,0,0,0,0,0,0,0,0,0,-1,1476,1009,0,0
259,15,0,0,0,0,0,0,0,0,0,-1,1483,1009,0,0
266,15,0,0,0,0,0,0,0,0,0,-1,1490,1009,0,0
273,15,0,0,0,0,0,0,0,0,0,-1,1497,1009,0,0
280,15,0,0,0,0,0,0,0,0,0,-1,1504,1009,0,0
287,15,0,0,0,0,0,0,0,0,0,-1,1511,1009,0,0
294,15,0,0,0,0,0,0,0,0,0,-1,1518,1009,0,0
301,15,0,0,0,0,0,0,0,0,0,-1,1525,1009,0,0
308,15,0,0,0,0,0,0,0,0,0,-1,1532,1009,0,0
315,15,0,0,0,0,0,0,0,0,0,-1,1539,1009,0,0
322,15,0,0,0,0,0,0,0,0,0,-1,1546,1009,0,0
329,15,0,0,0,0,0,0,0,0,0,-1,1553,1009,0,0
336,15,0,0,0,0,0,0,0,0,0,-1,1560,1009,0,0
343,15,0,0,0,0,0,0,0,0,0,-1,1567,1009,0,0
350,15,0,0,0,0,0,0,0,0,0,-1,1574,1009,0,0
357,15,0,0,0,0,0,0,0,0,0,-1,1581,1009,0,0
364,15,0,0,0,0,0,0,0,0,0,-1,1588,1009,0,0
371,15,0,0,0,0,0,0,0,0,0,-1,1595,1009,0,0
378,15,0,0,0,0,0,0,0,0,0,-1,1602,1009,0,0
385,15,0,0,0,0,0,0,0,0,0,-1,1609,1009,0,0
392,15,0,0,0,0,0,0,0,0,0,-1,1616,1009,0,0
399,15,0,0,0,0,0,0,0,0,0,-1,1623,1009,0,0
406,15,0,0,0,0,0,0,0,0,0,-1,1630,1009,0,0
413,15,0,0,0,0,0,0,0,0,0,-1,1637,1009,0,0
420,15,0,0,0,0,0,0,0,0,0,-1,1644,1009,0,0
427,15,0,0,0,0,0,0,0,0,0,-1,1651,1009,0,0
434,15,0,0,0,0,0,0,0,0,0,-1,1658,1009,0,0
441,15,0,0,0,0,0,0,0,0,0,-1,1665,1009,0,0
448,15,0,0,0,0,0,0,0,0,0,-1,1672,1009,0,0
455,15,0,0,0,0,0,0,0,0,0,-1,1679,1009,0,0
462,15,0,0,0,0,0,0,0,0,0,-1,1686,1009,0,0
469,15,0,0,0,0,0,0,0,0,0,-1,1693,1009,0,0
476,15,0,0,0,0,0,0,0,0,0,-1,1700,1009,0,0
483,15,0,0,0,0,0,0,0,0,0,-1,1707,1009,0,0
490,15,0,0,0,0,0,0,0,0,0,-1,1714,1009,0,0
497,15,0,0,0,0,0,0,0,0,0,-1,1721,1009,0,0
504,15,0,0,0,0,0,0,0,0,0,-1,1728,1009,0,0
511,15,0,0,0,0,0,0,0,0,0,-1,1735,1009,0,0
518,15,0,0,0,0,0,0,0,0,0,-1,1742,1009,0,0
525,15,0,0,0,0,0,0,0,0,0,-1,1749,1009,0,0
532,15,0,0,0,0,0,0,0,0,0,-1,1756,1009,0,0
539,15,0,0,0,0,0,0,0,0,0,-1,1763,1009,0,0
546,15,0,0,0,0,0,0,0,0,0,-1,1770,1009,0,0
553,15,0,0,0,0,0,0,0,0,0,-1,1777,1009,0,0
560,15,0,0,0,0,0,0,0,0,0,-1,1784,1009,0,0
567,15,0,0,0,0,0,0,0,0,0,-1,1791,1009,0,0
574,15,0,0,0,0,0,0,0,0,0,-1,1798,1009,0,0
581,15,0,0,0,0,0,0,0,0,0,-1,1805,1009,0,0
588,15,0,0,0,0,0,0,0,0,0,-1,1812,1009,0,0
595,15,0,0,0,0,0,0,0,0,0,-1,1819,1009,0,0
602,15,0,0,0,0,0,0,0,0,0,-1,1826,1009,0,0
609,15,0,0,0,0,0,0,0,0,0,-1,1833,1009,0,0
616,15,0,0,0,0,0,0,0,0,0,-1,1840,1009,0,0
623,15,0,0,0,0,0,0,0,0,0,-1,1847,1009,0,0
630,15,0,0,0,0,0,0,0,0,0,-1,1854,1009,0,0
637,15,0,0,0,0,0,0,0,0,0,-1,1861,1009,0,0
644,15,24.037,2.71289,0.00106215,0.00352221,0.00477508,0.00722314,-0.00263878,0.911455,0.00589528,0.038888,1868,1009,24.037,-2.71291
651,15,24.1844,2.81989,0.00102918,0.00308117,0.00285801,0.00509176,-0.000981412,0.957729,0.00376453,0.0377531,1875,1009,24.1845,-2.8199
658,15,24.2338,2.99554,0.000957085,0.00263236,0.00159354,0.00359501,-5.55837e-06,1.02737,0.00239853,0.0405898,1882,1009,24.2337,-2.99557
665,15,24.1816,2.88623,0.000746001,0.00232734,0.00104674,0.00284847,0.000224868,1.10886,0.00182864,0.0399881,1889,1009,24.1816,-2.88623
672,15,24.1254,2.72021,0.000223153,0.00226101,0.00129904,0.00289306,-0.000408894,1.11797,0.00207845,0.0396837,1896,1009,24.1254,-2.72019
679,15,24.1013,2.672,-0.000656674,0.0021915,0.00217548,0.00336756,-0.00183273,1.0752,0.00304567,0.0393308,1903,1009,24.1014,-2.67198
686,15,24.0974,2.65344,-0.00156973,0.00209112,0.00321986,0.00396447,-0.00344308,1.04386,0.00428029,0.041372,1910,1009,24.0974,-2.65341
693,15,24.1697,2.67194,-0.00240791,0.00196479,0.00422594,0.00453645,-0.00497957,1.02412,0.00549606,0.0392795,1917,1009,24.1697,-2.67196
700,15,24.229,2.73688,-0.00310383,0.00186119,0.00501012,0.00497011,-0.00621275,1.01542,0.0064697,0.0318558,1924,1009,24.2291,-2.73688
707,15,24.1774,2.76886,-0.00364081,0.00172177,0.00554526,0.00519996,-0.007119,1.01059,0.00714106,0.0255466,1931,1009,24.1774,-2.76885
714,15,24.1576,2.8089,-0.00414053,0.00166783,0.00587249,0.00531501,-0.00778771,1.01503,0.00760963,0.0256458,1938,1009,24.1576,-2.8089
721,15,24.2241,2.90863,0,0,0,0,0,0,0,-1,1945,1009,24.2242,-2.90865
728,15,23.6097,3.96777,-0.00498828,0.00171574,0.00591677,0.00516403,-0.00843658,1.04312,0.00792772,0.0334428,1952,1009,23.6098,-3.9678
735,15,23.7095,4.19611,-0.00563478,0.00191601,0.00501632,0.00441892,-0.00813768,1.10799,0.00735477,0.0166443,1959,1009,23.7095,-4.19609
742,15,23.6925,4.28192,-0.00666955,0.00195558,0.00326033,0.0030493,-0.00776328,1.24713,0.00643736,0.0171966,1966,1009,23.6926,-4.28191
749,15,23.6758,4.32947,-0.00736562,0.00158937,0.00115085,0.00173491,-0.00751116,1.445,0.00567484,0.0107086,1973,1009,23.6757,-4.32945
756,15,23.6854,4.36121,-0.00806259,0.00143306,-0.000491541,0.00145843,-0.00808796,-1.51922,0.00593812,0.0118337,1980,1009,23.6854,-4.36121
763,15,23.6581,4.4126,-0.00868402,0.00168911,-0.00254157,0.00227836,-0.00927327,-1.34298,0.00706516,0.0118924,1987,1009,23.6581,-4.41259
770,15,23.6462,4.43164,-0.00972635,0.00153245,-0.00489762,0.00336475,-0.0115586,-1.2128,0.00903857,0.0116912,1994,1009,23.6463,-4.43163
777,15,23.5894,4.46667,-0.010871,0.00142219,-0.00693111,0.00453955,-0.0139884,-1.14814,0.0111511,0.0197212,2001,1009,23.5893,-4.46667
784,15,23.4569,4.34149,-0.0120789,0.00126456,-0.0082793,0.00522575,-0.01604,-1.12454,0.0127961,0.0383943,2008,1009,23.4569,-4.3415
791,15,23.0278,3.99689,-0.0129352,0.00105017,-0.0088287,0.00531997,-0.017205,-1.12033,0.0135948,0.0484291,2015,1009,23.0278,-3.99687
798,15,22.6051,3.95532,0,0,0,0,0,0,0,-1,2022,1009,22.605,-3.95534
805,15,24.3862,3.59302,-0.0117152,0.00143452,-0.00633716,0.00399138,-0.0142721,-1.1873,0.0110873,0.048285,2029,1009,24.3863,-3.59301
812,15,24.0481,4.07068,-0.00862814,0.0030543,-0.00185877,0.00334291,-0.00891676,-1.41675,0.00731791,0.0451459,2036,1009,24.0482,-4.07071
-700,8,0,0,0,0,0,0,0,0,0,-1,524,1016,0,0
-693,8,-18.2152,-1.37921,0.110439,0.0696089,0.0772467,0.169923,0.010125,0.65621,0.110062,0.0442204,531,1016,-18.2152,1.37923
-686,8,-17.9328,-1.06232,0.0920682,0.0624364,0.0623001,0.14129,0.0132147,0.668659,0.090112,0.0443735,538,1016,-17.9328,1.06229
-679,8,-17.3318,-0.604126,0.0748714,0.0540279,0.0495624,0.115096,0.0138034,0.68177,0.0725684,0.0458239,545,1016,-17.3318,0.604122
-672,8,-16.4373,0.113342,0.0594315,0.0454264,0.0386982,0.0917557,0.0131023,0.69589,0.0573045,0.0467586,552,1016,-16.4373,-0.113365
-665,8,-16.5466,1.35748,0,0,0,0,0,0,0,-1,559,1016,-16.5466,-1.35747
-658,8,-16.5839,1.50739,0.034223,0.0294752,0.0217963,0.0537743,0.00992389,0.731155,0.0330421,0.0362132,566,1016,-16.5839,-1.50739
-651,8,-16.5555,1.75513,0.0245526,0.0226099,0.0154934,0.039105,0.00805744,0.754091,0.0238424,0.0213388,573,1016,-16.5555,-1.75512
-644,8,-16.5446,1.8324,0.0168796,0.0167589,0.0103543,0.0271737,0.00646478,0.782483,0.0163915,0.0225069,580,1016,-16.5446,-1.83242
-637,8,-16.6126,1.87927,0.00978346,0.0133762,0.00472747,0.0166371,0.00652258,0.966967,0.00967978,0.0194683,587,1016,-16.6126,-1.87925
-630,8,-16.6873,1.86462,0.00481598,0.00665621,0.00105965,0.00713948,0.00433272,1.14291,0.00415324,0.013903,594,1016,-16.6873,-1.86465
-623,8,-16.6758,1.86493,0.00119083,0.00440774,-0.00217598,0.0055052,9.33586e-05,-1.10367,0.00363942,0.01207,601,1016,-16.6758,-1.86493
-616,8,-16.6952,1.84442,5.6529e-05,0.00264457,-0.00363634,0.00521027,-0.00250917,-0.95634,0.00454686,0.0117123,608,1016,-16.6952,-1.84444
-609,8,-16.6823,1.80988,-0.000110122,0.00175939,-0.00405579,0.00498675,-0.00333748,-0.898658,0.00483734,0.0148625,615,1016,-16.6823,-1.8099
-602,8,-16.6265,1.80792,-0.000267008,0.00122953,-0.00490804,0.00544601,-0.00448349,-0.861044,0.00574177,0.0200124,622,1016,-16.6265,-1.80794
-595,8,-16.5811,1.40039,0,0,0,0,0,0,0,-1,629,1016,-16.5811,-1.40042
-588,8,-16.5982,0.798584,0,0,0,0,0,0,0,-1,636,1016,-16.5982,-0.798611
-581,8,-16.6013,0.893188,-0.000261962,-0.000136559,-0.00556783,0.00536892,-0.00576745,-0.791029,0.00643096,0.0294796,643,1016,-16.6013,-0.893213
-574,8,-16.5879,0.936768,-0.000590933,-0.000571994,-0.00513214,0.00455068,-0.00571361,-0.786321,0.00593876,0.0327965,650,1016,-16.5879,-0.936776
-567,8,-16.5702,0.942749,-0.000938571,-0.00105415,-0.00438675,0.00339077,-0.00538349,-0.778812,0.00510918,0.0345858,657,1016,-16.5702,-0.942753
-560,8,-16.6121,1.02551,-0.00135991,-0.00159505,-0.00338484,0.0019094,-0.00486437,-0.768038,0.00403297,0.0387676,664,1016,-16.6121,-1.0255
-553,8,-16.5149,1.81213,0,0,0,0,0,0,0,-1,671,1016,-16.5149,-1.81212
-546,8,-16.7092,1.18756,-0.00256227,-0.00293316,-0.00100205,-0.00172865,-0.00376678,-0.6939,0.0021772,0.0414783,678,1016,-16.7092,-1.18759
-539,8,-16.74,0.897278,-0.00344324,-0.00358897,-0.00021419,-0.00328986,-0.00374235,-0.62144,0.00235858,0.0410276,685,1016,-16.74,-0.8973
-532,8,-16.6641,0.914185,-0.00493276,-0.00376639,-0.000740305,-0.00340716,-0.005292,-1.11901,0.00309719,0.041643,692,1016,-16.6641,-0.914182
-525,8,0,0,0,0,0,0,0,0,0,-1,699,1016,0,0
-518,8,0,0,0,0,0,0,0,0,0,-1,706,1016,0,0
-511,8,0,0,0,0,0,0,0,0,0,-1,713,1016,0,0
-504,8,0,0,0,0,0,0,0,0,0,-1,720,1016,0,0
-497,8,0,0,0,0,0,0,0,0,0,-1,727,1016,0,0
-490,8,0,0,0,0,0,0,0,0,0,-1,734,1016,0,0
-483,8,0,0,0,0,0,0,0,0,0,-1,741,1016,0,0
-476,8,0,0,0,0,0,0,0,0,0,-1,748,1016,0,0
-469,8,0,0,0,0,0,0,0,0,0,-1,755,1016,0,0
-462,8,0,0,0,0,0,0,0,0,0,-1,762,1016,0,0
-455,8,0,0,0,0,0,0,0,0,0,-1,769,1016,0,0
-448,8,0,0,0,0,0,0,0,0,0,-1,776,1016,0,0
-441,8,0,0,0,0,0,0,0,0,0,-1,783,1016,0,0
-434,8,0,0,0,0,0,0,0,0,0,-1,790,1016,0,0
-427,8,0,0,0,0,0,0,0,0,0,-1,797,1016,0,0
-420,8,0,0,0,0,0,0,0,0,0,-1,804,1016,0,0
-413,8,0,0,0,0,0,0,0,0,0,-1,811,1016,0,0
-406,8,0,0,0,0,0,0,0,0,0,-1,818,1016,0,0
-399,8,0,0,0,0,0,0,0,0,0,-1,825,1016,0,0
-392,8,0,0,0,0,0,0,0,0,0,-1,832,1016,0,0
-385,8,0,0,0,0,0,0,0,0,0,-1,839,1016,0,0
-378,8,0,0,0,0,0,0,0,0,0,-1,846,1016,0,0
-371,8,0,0,0,0,0,0,0,0,0,-1,853,1016,0,0
-364,8,0,0,0,0,0,0,0,0,0,-1,860,1016,0,0
-357,8,0,0,0,0,0,0,0,0,0,-1,867,1016,0,0
-350,8,0,0,0,0,0,0,0,0,0,-1,874,1016,0,0
-343,8,0,0,0,0,0,0,0,0,0,-1,881,1016,0,0
-336,8,0,0,0,0,0,0,0,0,0,-1,888,1016,0,0
-329,8,0,0,0,0,0,0,0,0,0,-1,895,1016,0,0
-322,8,0,0,0,0,0,0,0,0,0,-1,902,1016,0,0
-315,8,0,0,0,0,0,0,0,0,0,-1,909,1016,0,0
-308,8,0,0,0,0,0,0,0,0,0,-1,916,1016,0,0
-301,8,0,0,0,0,0,0,0,0,0,-1,923,1016,0,0
-294,8,0,0,0,0,0,0,0,0,0,-1,930,1016,0,0
-287,8,0,0,0,0,0,0,0,0,0,-1,937,1016,0,0
-280,8,0,0,0,0,0,0,0,0,0,-1,944,1016,0,0
-273,8,0,0,0,0,0,0,0,0,0,-1,951,1016,0,0
-266,8,0,0,0,0,0,0,0,0,0,-1,958,1016,0,0
-259,8,0,0,0,0,0,0,0,0,0,-1,965,1016,0,0
-252,8,0,0,0,0,0,0,0,0,0,-1,972,1016,0,0
-245,8,0,0,0,0,0,0,0,0,0,-1,979,1016,0,0
-238,8,0,0,0,0,0,0,0,0,0,-1,986,1016,0,0
-231,8,0,0,0,0,0,0,0,0,0,-1,993,1016,0,0
-224,8,0,0,0,0,0,0,0,0,0,-1,1000,1016,0,0
-217,8,0,0,0,0,0,0,0,0,0,-1,1007,1016,0,0
-210,8,0,0,0,0,0,0,0,0,0,-1,1014,1016,0,0
-203,8,0,0,0,0,0,0,0,0,0,-1,1021,1016,0,0
-196,8,0,0,0,0,0,0,0,0,0,-1,1028,1016,0,0
-189,8,0,0,0,0,0,0,0,0,0,-1,1035,1016,0,0
-182,8,0,0,0,0,0,0,0,0,0,-1,1042,1016,0,0
-175,8,0,0,0,0,0,0,0,0,0,-1,1049,1016,0,0
-168,8,0,0,0,0,0,0,0,0,0,-1,1056,1016,0,0
-161,8,0,0,0,0,0,0,0,0,0,-1,1063,1016,0,0
-154,8,0,0,0,0,0,0,0,0,0,-1,1070,1016,0,0
-147,8,0,0,0,0,0,0,0,0,0,-1,1077,1016,0,0
-140,8,0,0,0,0,0,0,0,0,0,-1,1084,1016,0,0
-133,8,0,0,0,0,0,0,0,0,0,-1,1091,1016,0,0
-126,8,0,0,0,0,0,0,0,0,0,-1,1098,1016,0,0
-119,8,0,0,0,0,0,0,0,0,0,-1,1105,1016,0,0
-112,8,0,0,0,0,0,0,0,0,0,-1,1112,1016,0,0
-105,8,0,0,0,0,0,0,0,0,0,-1,1119,1016,0,0
-98,8,0,0,0,0,0,0,0,0,0,-1,1126,1016,0,0
-91,8,0,0,0,0,0,0,0,0,0,-1,1133,1016,0,0
-84,8,0,0,0,0,0,0,0,0,0,-1,1140,1016,0,0
-77,8,0,0,0,0,0,0,0,0,0,-1,1147,1016,0,0
-70,8,0,0,0,0,0,0,0,0,0,-1,1154,1016,0,0
-63,8,0,0,0,0,0,0,0,0,0,-1,1161,1016,0,0
-56,8,0,0,0,0,0,0,0,0,0,-1,1168,1016,0,0
-49,8,0,0,0,0,0,0,0,0,0,-1,1175,1016,0,0
-42,8,0,0,0,0,0,0,0,0,0,-1,1182,1016,0,0
-35,8,0,0,0,0,0,0,0,0,0,-1,1189,1016,0,0
-28,8,0,0,0,0,0,0,0,0,0,-1,1196,1016,0,0
-21,8,0,0,0,0,0,0,0,0,0,-1,1203,1016,0,0
-14,8,0,0,0,0,0,0,0,0,0,-1,1210,1016,0,0
-7,8,0,0,0,0,0,0,0,0,0,-1,1217,1016,0,0
0,8,0,0,0,0,0,0,0,0,0,-1,1224,1016,0,0
7,8,0,0,0,0,0,0,0,0,0,-1,1231,1016,0,0
14,8,0,0,0,0,0,0,0,0,0,-1,1238,1016,0,0
21,8,0,0,0,0,0,0,0,0,0,-1,1245,1016,0,0
28,8,0,0,0,0,0,0,0,0,0,-1,1252,1016,0,0
35,8,0,0,0,0,0,0,0,0,0,-1,1259,1016,0,0
42,8,0,0,0,0,0,0,0,0,0,-1,1266,1016,0,0
49,8,0,0,0,0,0,0,0,0,0,-1,1273,1016,0,0
56,8,0,0,0,0,0,0,0,0,0,-1,1280,1016,0,0
63,8,0,0,0,0,0,0,0,0,0,-1,1287,1016,0,0
70,8,0,0,0,0,0,0,0,0,0,-1,1294,1016,0,0
77,8,0,0,0,0,0,0,0,0,0,-1,1301,1016,0,0
84,8,0,0,0,0,0,0,0,0,0,-1,1308,1016,0,0
91,8,0,0,0,0,0,0,0,0,0,-1,1315,1016,0,0
98,8,0,0,0,0,0,0,0,0,0,-1,1322,1016,0,0
105,8,0,0,0,0,0,0,0,0,0,-1,1329,1016,0,0
112,8,0,0,0,0,0,0,0,0,0,-1,1336,1016,0,0
119,8,0,0,0,0,0,0,0,0,0,-1,1343,1016,0,0
126,8,0,0,0,0,0,0,0,0,0,-1,1350,1016,0,0
133,8,0,0,0,0,0,0,0,0,0,-1,1357,1016,0,0
140,8,0,0,0,0,0,0,0,0,0,-1,1364,1016,0,0
147,8,0,0,0,0,0,0,0,0,0,-1,1371,1016,0,0
154,8,0,0,0,0,0,0,0,0,0,-1,1378,1016,0,0
161,8,0,0,0,0,0,0,0,0,0,-1,1385,1016,0,0
168,8,0,0,0,0,0,0,0,0,0,-1,1392,1016,0,0
175,8,0,0,0,0,0,0,0,0,0,-1,1399,1016,0,0
182,8,0,0,0,0,0,0,0,0,0,-1,1406,1016,0,0
189,8,0,0,0,0,0,0,0,0,0,-1,1413,1016,0,0
196,8,0,0,0,0,0,0,0,0,0,-1,1420,1016,0,0
203,8,0,0,0,0,0,0,0,0,0,-1,1427,1016,0,0
210,8,0,0,0,0,0,0,0,0,0,-1,1434,1016,0,0
217,8,0,0,0,0,0,0,0,0,0,-1,1441,1016,0,0
224,8,0,0,0,0,0,0,0,0,0,-1,1448,1016,0,0
231,8,0,0,0,0,0,0,0,0,0,-1,1455,1016,0,0
238,8,0,0,0,0,0,0,0,0,0,-1,1462,1016,0,0
245,8,0,0,0,0,0,0,0,0,0,-1,1469,1016,0,0
252,8,0,0,0,0,0,0,0,0,0,-1,1476,1016,0,0
259,8,0,0,0,0,0,0,0,0,0,-1,1483,1016,0,0
266,8,0,0,0,0,0,0,0,0,0,-1,1490,1016,0,0
273,8,0,0,0,0,0,0,0,0,0,-1,1497,1016,0,0
280,8,0,0,0,0,0,0,0,0,0,-1,1504,1016,0,0
287,8,0,0,0,0,0,0,0,0,0,-1,1511,1016,0,0
294,8,0,0,0,0,0,0,0,0,0,-1,1518,1016,0,0
301,8,0,0,0,0,0,0,0,0,0,-1,1525,1016,0,0
308,8,0,0,0,0,0,0,0,0,0,-1,1532,1016,0,0
315,8,0,0,0,0,0,0,0,0,0,-1,1539,1016,0,0
322,8,0,0,0,0,0,0,0,0,0,-1,1546,1016,0,0
329,8,0,0,0,0,0,0,0,0,0,-1,1553,1016,0,0
336,8,0,0,0,0,0,0,0,0,0,-1,1560,1016,0,0
343,8,0,0,0,0,0,0,0,0,0,-1,1567,1016,0,0
350,8,0,0,0,0,0,0,0,0,0,-1,1574,1016,0,0
357,8,0,0,0,0,0,0,0,0,0,-1,1581,1016,0,0
364,8,0,0,0,0,0,0,0,0,0,-1,1588,1016,0,0
371,8,0,0,0,0,0,0,0,0,0,-1,1595,1016,0,0
378,8,0,0,0,0,0,0,0,0,0,-1,1602,1016,0,0
385,8,0,0,0,0,0,0,0,0,0,-1,1609,1016,0,0
392,8,0,0,0,0,0,0,0,0,0,-1,1616,1016,0,0
399,8,0,0,0,0,0,0,0,0,0,-1,1623,1016,0,0
406,8,0,0,0,0,0,0,0,0,0,-1,1630,1016,0,0
413,8,0,0,0,0,0,0,0,0,0,-1,1637,1016,0,0
420,8,0,0,0,0,0,0,0,0,0,-1,1644,1016,0,0
427,8,0,0,0,0,0,0,0,0,0,-1,1651,1016,0,0
434,8,0,0,0,0,0,0,0,0,0,-1,1658,1016,0,0
441,8,0,0,0,0,0,0,0,0,0,-1,1665,1016,0,0
448,8,0,0,0,0,0,0,0,0,0,-1,1672,1016,0,0
455,8,0,0,0,0,0,0,0,0,0,-1,1679,1016,0,0
462,8,0,0,0,0,0,0,0,0,0,-1,1686,1016,0,0
469,8,0,0,0,0,0,0,0,0,0,-1,1693,1016,0,0
476,8,0,0,0,0,0,0,0,0,0,-1,1700,1016,0,0
483,8,0,0,0,0,0,0,0,0,0,-1,1707,1016,0,0
490,8,0,0,0,0,0,0,0,0,0,-1,1714,1016,0,0
497,8,0,0,0,0,0,0,0,0,0,-1,1721,1016,0,0
504,8,0,0,0,0,0,0,0,0,0,-1,1728,1016,0,0
511,8,0,0,0,0,0,0,0,0,0,-1,1735,1016,0,0
518,8,0,0,0,0,0,0,0,0,0,-1,1742,1016,0,0
525,8,0,0,0,0,0,0,0,0,0,-1,1749,1016,0,0
532,8,0,0,0,0,0,0,0,0,0,-1,1756,1016,0,0
539,8,0,0,0,0,0,0,0,0,0,-1,1763,1016,0,0
546,8,0,0,0,0,0,0,0,0,0,-1,1770,1016,0,0
553,8,0,0,0,0,0,0,0,0,0,-1,1777,1016,0,0
560,8,0,0,0,0,0,0,0,0,0,-1,1784,1016,0,0
567,8,0,0,0,0,0,0,0,0,0,-1,1791,1016,0,0
574,8,0,0,0,0,0,0,0,0,0,-1,1798,1016,0,0
581,8,0,0,0,0,0,0,0,0,0,-1,1805,1016,0,0
588,8,0,0,0,0,0,0,0,0,0,-1,1812,1016,0,0
595,8,0,0,0,0,0,0,0,0,0,-1,1819,1016,0,0
602,8,0,0,0,0,0,0,0,0,0,-1,1826,1016,0,0
609,8,0,0,0,0,0,0,0,0,0,-1,1833,1016,0,0
616,8,0,0,0,0,0,0,0,0,0,-1,1840,1016,0,0
623,8,0,0,0,0,0,0,0,0,0,-1,1847,1016,0,0
630,8,0,0,0,0,0,0,0,0,0,-1,1854,1016,0,0
637,8,0,0,0,0,0,0,0,0,0,-1,1861,1016,0,0
644,8,24.1144,2.7215,0.00157712,0.00529631,0.00456833,0.00836903,-0.0014956,0.978688,0.00613892,0.042579,1868,1016,24.1144,-2.72151
651,8,24.2106,2.69708,0.00145598,0.00449709,0.00268393,0.00606127,-0.000108192,1.04313,0.00407739,0.0385296,1875,1016,24.2105,-2.6971
658,8,24.084,2.88293,0.00128919,0.0037441,0.00144063,0.00440928,0.000624009,1.13823,0.00275517,0.0395445,1882,1016,24.084,-2.88292
665,8,24.0261,2.83087,0.00100884,0.00315563,0.000859275,0.0034572,0.000707266,1.23327,0.00210895,0.0430474,1889,1016,24.0261,-2.83084
672,8,24.0515,2.65302,0.000485434,0.00282265,0.00111347,0.00326819,3.98994e-05,1.19018,0.00216561,0.0430751,1896,1016,24.0515,-2.65304
679,8,24.1425,2.39282,-0.000374281,0.00249285,0.00207556,0.00358179,-0.00146322,1.08762,0.00299712,0.038912,1903,1016,24.1424,-2.39281
686,8,24.1329,2.52148,-0.00127921,0.00217389,0.00322948,0.00410938,-0.0032147,1.03088,0.00423906,0.0397653,1910,1016,24.133,-2.52151
693,8,24.1626,2.65942,-0.00209677,0.00186671,0.00435358,0.00466837,-0.00489843,0.998982,0.00552393,0.0400874,1917,1016,24.1625,-2.65943
700,8,24.2291,2.7522,-0.00278151,0.0016212,0.00525107,0.00511368,-0.00627399,0.983881,0.00658604,0.0331926,1924,1016,24.2291,-2.7522
707,8,24.1885,2.76501,-0.00328594,0.00135393,0.00588111,0.00535614,-0.00728816,0.973264,0.00732854,0.022739,1931,1016,24.1885,-2.765
714,8,24.1666,2.7666,-0.00377566,0.00121222,0.00629792,0.00549202,-0.00805546,0.973922,0.00786817,0.0224022,1938,1016,24.1666,-2.76659
721,8,24.2518,2.79181,0,0,0,0,0,0,0,-1,1945,1016,24.2518,-2.7918
728,8,23.7979,3.95837,-0.00459288,0.00123225,0.00642018,0.00536963,-0.00873026,0.998344,0.00821729,0.0289956,1952,1016,23.7978,-3.95839
735,8,23.6921,4.20367,-0.00512774,0.00144446,0.00558444,0.0046379,-0.00832118,1.05134,0.007582,0.0181426,1959,1016,23.6921,-4.20367
742,8,23.7137,4.24225,-0.00600976,0.00149365,0.00390596,0.00315783,-0.00767394,1.16803,0.00643235,0.0179522,1966,1016,23.7137,-4.24226
749,8,23.724,4.30988,-0.00641837,0.00116798,0.00187697,0.00160697,-0.00685736,1.34105,0.00519081,0.0130599,1973,1016,23.724,-4.30988
756,8,23.7155,4.33539,-0.00674078,0.00113191,0.00029246,0.00114275,-0.00675163,1.53372,0.00492638,0.0137269,1980,1016,23.7155,-4.33539
763,8,23.7207,4.34955,-0.00687837,0.00149282,-0.00164354,0.00180394,-0.00718949,-1.38371,0.00549393,0.0136225,1987,1016,23.7207,-4.34952
770,8,23.7029,4.37054,-0.00728286,0.00147603,-0.00389909,0.00296024,-0.00876707,-1.20708,0.007042,0.0141282,1994,1016,23.7029,-4.37055
777,8,23.6515,4.40918,-0.0075341,0.00151696,-0.00582495,0.00436778,-0.0103849,-1.11565,0.00875044,0.0168835,2001,1016,23.6515,-4.40916
784,8,23.5669,4.44977,-0.00764361,0.00154635,-0.00700424,0.00532831,-0.0114256,-1.0757,0.00988408,0.0332336,2008,1016,23.5669,-4.44975
791,8,23.1554,4.3858,-0.00719838,0.00156706,-0.0073528,0.00574424,-0.0113756,-1.05416,0.0100608,0.0476591,2015,1016,23.1554,-4.38579
798,8,22.8367,4.48029,0,0,0,0,0,0,0,-1,2022,1016,22.8367,-4.48026
805,8,24.5562,3.26013,-0.00260779,0.00269093,-0.00469419,0.0054318,-0.00534865,-1.04231,0.00622416,0.0455895,2029,1016,24.5562,-3.26013
812,8,24.5317,3.63788,0.00260488,0.00482134,-0.000465424,0.00491511,0.00251112,-1.37199,0.00283797,0.0438148,2036,1016,24.5317,-3.63786
-700,1,0,0,0,0,0,0,0,0,0,-1,524,1023,0,0
-693,1,-18.4388,-0.775085,0,0,0,0,0,0,0,-1,531,1023,-18.4388,0.775111
-686,1,-18.3508,0.0639648,0,0,0,0,0,0,0,-1,538,1023,-18.3508,-0.0639854
-679,1,-18.2263,-0.216736,0.0679707,0.0456472,0.0444362,0.102626,0.0109923,0.662351,0.0650632,0.0484717,545,1023,-18.2263,0.216751
-672,1,-17.2778,0.369995,0.0540633,0.0385853,0.0352021,0.0823671,0.0102816,0.677197,0.0518253,0.0462364,552,1023,-17.2778,-0.369991
-665,1,-16.6395,1.2403,0,0,0,0,0,0,0,-1,559,1023,-16.6395,-1.24032
-658,1,-16.6223,1.70026,0.0312131,0.0253893,0.0203422,0.0488508,0.00775164,0.714309,0.0303155,0.0324376,566,1023,-16.6223,-1.70027
-651,1,-16.6397,1.85736,0.0224103,0.01964,0.014633,0.0357236,0.00632676,0.738208,0.022012,0.0161709,573,1023,-16.6397,-1.85736
-644,1,-16.5421,1.93927,0.0154549,0.0146917,0.00993269,0.0250133,0.00513327,0.766199,0.0152551,0.0218472,580,1023,-16.542,-1.93927
-637,1,-16.6271,1.87164,0.00900407,0.0118644,0.0047297,0.0153754,0.00549303,0.932216,0.00899677,0.0189229,587,1023,-16.6272,-1.87166
-630,1,-16.7324,1.84076,0.00452016,0.00610089,0.00101538,0.00659725,0.00402379,1.11611,0.00383948,0.0175094,594,1023,-16.7324,-1.84079
-623,1,-16.6898,1.85272,0.00117581,0.00414041,-0.00224082,0.00534483,-2.86123e-05,-1.07761,0.0035728,0.0119995,601,1023,-16.6898,-1.85274
-616,1,-16.6938,1.83197,0.000126166,0.00239987,-0.00387005,0.00529659,-0.00277055,-0.928258,0.00473307,0.0145617,608,1023,-16.6938,-1.83196
-609,1,-16.6644,1.82489,2.68572e-05,0.00159802,-0.00439316,0.00527529,-0.00365041,-0.873873,0.00518164,0.0158958,615,1023,-16.6644,-1.82487
-602,1,-16.6367,1.83252,-7.80354e-05,0.00110849,-0.00527839,0.00582685,-0.0047964,-0.84136,0.00614295,0.0123868,622,1023,-16.6367,-1.83254
-595,1,-16.6081,1.82318,-9.57729e-05,0.000748303,-0.00587949,0.00622089,-0.00556836,-0.821227,0.00681,0.0186204,629,1023,-16.6081,-1.82317
-588,1,-16.6118,1.37286,-8.19977e-06,0.000366272,-0.00613288,0.00631477,-0.0059567,-0.800658,0.00708595,0.0267823,636,1023,-16.6117,-1.37287
-581,1,-16.6088,0.967834,-7.90654e-05,-4.152e-05,-0.00596219,0.00590193,-0.00602251,-0.786972,0.0068847,0.0280184,643,1023,-16.6088,-0.967827
-574,1,-16.5258,0.912109,-0.000406543,-0.000356803,-0.00549795,0.00511634,-0.00587968,-0.78766,0.00635365,0.0346342,650,1023,-16.5258,-0.912135
-567,1,-16.5336,0.771484,-0.000798522,-0.000702241,-0.00469792,0.00394779,-0.00544855,-0.790522,0.005448,0.0399427,657,1023,-16.5336,-0.771499
-560,1,-16.6188,0.772461,-0.00127208,-0.00110193,-0.00362807,0.00244206,-0.00481607,-0.797121,0.00426455,0.0416669,664,1023,-16.6188,-0.772437
-553,1,-16.601,0.824097,-0.00185189,-0.00158933,-0.00239275,0.000675739,-0.00411696,-0.812804,0.0029954,0.0397822,671,1023,-16.601,-0.824089
-546,1,-16.4702,1.08691,-0.00255497,-0.00220619,-0.00112359,-0.00124354,-0.00351763,-0.862388,0.00205975,0.0412137,678,1023,-16.4702,-1.08693
-539,1,-16.4984,0.962646,-0.00342542,-0.00280687,-0.000390161,-0.00261827,-0.00361402,-1.12053,0.00215551,0.0432915,685,1023,-16.4984,-0.962636
-532,1,-16.5074,0.906738,-0.00478198,-0.00304883,-0.00122158,-0.00241766,-0.00541314,-1.0939,0.00313121,0.046387,692,1023,-16.5074,-0.906709
-525,1,0,0,0,0,0,0,0,0,0,-1,699,1023,0,0
-518,1,0,0,0,0,0,0,0,0,0,-1,706,1023,0,0
-511,1,0,0,0,0,0,0,0,0,0,-1,713,1023,0,0
-504,1,0,0,0,0,0,0,0,0,0,-1,720,1023,0,0
-497,1,0,0,0,0,0,0,0,0,0,-1,727,1023,0,0
-490,1,0,0,0,0,0,0,0,0,0,-1,734,1023,0,0
-483,1,0,0,0,0,0,0,0,0,0,-1,741,1023,0,0
-476,1,0,0,0,0,0,0,0,0,0,-1,748,1023,0,0
-469,1,0,0,0,0,0,0,0,0,0,-1,755,1023,0,0
-462,1,0,0,0,0,0,0,0,0,0,-1,762,1023,0,0
-455,1,0,0,0,0,0,0,0,0,0,-1,769,1023,0,0
-448,1,0,0,0,0,0,0,0,0,0,-1,776,1023,0,0
-441,1,0,0,0,0,0,0,0,0,0,-1,783,1023,0,0
-434,1,0,0,0,0,0,0,0,0,0,-1,790,1023,0,0
-427,1,0,0,0,0,0,0,0,0,0,-1,797,1023,0,0
-420,1,0,0,0,0,0,0,0,0,0,-1,804,1023,0,0
-413,1,0,0,0,0,0,0,0,0,0,-1,811,1023,0,0
-406,1,0,0,0,0,0,0,0,0,0,-1,818,1023,0,0
-399,1,0,0,0,0,0,0,0,0,0,-1,825,1023,0,0
-392,1,0,0,0,0,0,0,0,0,0,-1,832,1023,0,0
-385,1,0,0,0,0,0,0,0,0,0,-1,839,1023,0,0
-378,1,0,0,0,0,0,0,0,0,0,-1,846,1023,0,0
-371,1,0,0,0,0,0,0,0,0,0,-1,853,1023,0,0
-364,1,0,0,0,0,0,0,0,0,0,-1,860,1023,0,0
-357,1,0,0,0,0,0,0,0,0,0,-1,867,1023,0,0
-350,1,0,0,0,0,0,0,0,0,0,-1,874,1023,0,0
-343,1,0,0,0,0,0,0,0,0,0,-1,881,1023,0,0
-336,1,0,0,0,0,0,0,0,0,0,-1,888,1023,0,0
-329,1,0,0,0,0,0,0,0,0,0,-1,895,1023,0,0
-322,1,0,0,0,0,0,0,0,0,0,-1,902,1023,0,0
-315,1,0,0,0,0,0,0,0,0,0,-1,909,1023,0,0
-308,1,0,0,0,0,0,0,0,0,0,-1,916,1023,0,0
-301,1,0,0,0,0,0,0,0,0,0,-1,923,1023,0,0
-294,1,0,0,0,0,0,0,0,0,0,-1,930,1023,0,0
-287,1,0,0,0,0,0,0,0,0,0,-1,937,1023,0,0
-280,1,0,0,0,0,0,0,0,0,0,-1,944,1023,0,0
-273,1,0,0,0,0,0,0,0,0,0,-1,951,1023,0,0
-266,1,0,0,0,0,0,0,0,0,0,-1,958,1023,0,0
-259,1,0,0,0,0,0,0,0,0,0,-1,965,1023,0,0
-252,1,0,0,0,0,0,0,0,0,0,-1,972,1023,0,0
-245,1,0,0,0,0,0,0,0,0,0,-1,979,1023,0,0
-238,1,0,0,0,0,0,0,0,0,0,-1,986,1023,0,0
-231,1,0,0,0,0,0,0,0,0,0,-1,993,1023,0,0
-224,1,0,0,0,0,0,0,0,0,0,-1,1000,1023,0,0
-217,1,0,0,0,0,0,0,0,0,0,-1,1007,1023,0,0
-210,1,0,0,0,0,0,0,0,0,0,-1,1014,1023,0,0
-203,1,0,0,0,0,0,0,0,0,0,-1,1021,1023,0,0
-196,1,0,0,0,0,0,0,0,0,0,-1,1028,1023,0,0
-189,1,0,0,0,0,0,0,0,0,0,-1,1035,1023,0,0
-182,1,0,0,0,0,0,0,0,0,0,-1,1042,1023,0,0
-175,1,0,0,0,0,0,0,0,0,0,-1,1049,1023,0,0
-168,1,0,0,0,0,0,0,0,0,0,-1,1056,1023,0,0
-161,1,0,0,0,0,0,0,0,0,0,-1,1063,1023,0,0
-154,1,0,0,0,0,0,0,0,0,0,-1,1070,1023,0,0
-147,1,0,0,0,0,0,0,0,0,0,-1,1077,1023,0,0
-140,1,0,0,0,0,0,0,0,0,0,-1,1084,1023,0,0
-133,1,0,0,0,0,0,0,0,0,0,-1,1091,1023,0,0
-126,1,0,0,0,0,0,0,0,0,0,-1,1098,1023,0,0
-119,1,0,0,0,0,0,0,0,0,0,-1,1105,1023,0,0
-112,1,0,0,0,0,0,0,0,0,0,-1,1112,1023,0,0
-105,1,0,0,0,0,0,0,0,0,0,-1,1119,1023,0,0
-98,1,0,0,0,0,0,0,0,0,0,-1,1126,1023,0,0
-91,1,0,0,0,0,0,0,0,0,0,-1,1133,1023,0,0
-84,1,0,0,0,0,0,0,0,0,0,-1,1140,1023,0,0
-77,1,0,0,0,0,0,0,0,0,0,-1,1147,1023,0,0
-70,1,0,0,0,0,0,0,0,0,0,-1,1154,1023,0,0
-63,1,0,0,0,0,0,0,0,0,0,-1,1161,1023,0,0
-56,1,0,0,0,0,0,0,0,0,0,-1,1168,1023,0,0
-49,1,0,0,0,0,0,0,0,0,0,-1,1175,1023,0,0
-42,1,0,0,0,0,0,0,0,0,0,-1,1182,1023,0,0
-35,1,0,0,0,0,0,0,0,0,0,-1,1189,1023,0,0
-28,1,0,0,0,0,0,0,0,0,0,-1,1196,1023,0,0
-21,1,0,0,0,0,0,0,0,0,0,-1,1203,1023,0,0
-14,1,0,0,0,0,0,0,0,0,0,-1,1210,1023,0,0
-7,1,0,0,0,0,0,0,0,0,0,-1,1217,1023,0,0
0,1,0,0,0,0,0,0,0,0,0,-1,1224,1023,0,0
7,1,0,0,0,0,0,0,0,0,0,-1,1231,1023,0,0
14,1,0,0,0,0,0,0,0,0,0,-1,1238,1023,0,0
21,1,0,0,0,0,0,0,0,0,0,-1,1245,1023,0,0
28,1,0,0,0,0,0,0,0,0,0,-1,1252,1023,0,0
35,1,0,0,0,0,0,0,0,0,0,-1,1259,1023,0,0
42,1,0,0,0,0,0,0,0,0,0,-1,1266,1023,0,0
49,1,0,0,0,0,0,0,0,0,0,-1,1273,1023,0,0
56,1,0,0,0,0,0,0,0,0,0,-1,1280,1023,0,0
63,1,0,0,0,0,0,0,0,0,0,-1,1287,1023,0,0
70,1,0,0,0,0,0,0,0,0,0,-1,1294,1023,0,0
77,1,0,0,0,0,0,0,0,0,0,-1,1301,1023,0,0
84,1,0,0,0,0,0,0,0,0,0,-1,1308,1023,0,0
91,1,0,0,0,0,0,0,0,0,0,-1,1315,1023,0,0
98,1,0,0,0,0,0,0,0,0,0,-1,1322,1023,0,0
105,1,0,0,0,0,0,0,0,0,0,-1,1329,1023,0,0
112,1,0,0,0,0,0,0,0,0,0,-1,1336,1023,0,0
119,1,0,0,0,0,0,0,0,0,0,-1,1343,1023,0,0
126,1,0,0,0,0,0,0,0,0,0,-1,1350,1023,0,0
133,1,0,0,0,0,0,0,0,0,0,-1,1357,1023,0,0
140,1,0,0,0,0,0,0,0,0,0,-1,1364,1023,0,0
147,1,0,0,0,0,0,0,0,0,0,-1,1371,1023,0,0
154,1,0,0,0,0,0,0,0,0,0,-1,1378,1023,0,0
161,1,0,0,0,0,0,0,0,0,0,-1,1385,1023,0,0
168,1,0,0,0,0,0,0,0,0,0,-1,1392,1023,0,0
175,1,0,0,0,0,0,0,0,0,0,-1,1399,1023,0,0
182,1,0,0,0,0,0,0,0,0,0,-1,1406,1023,0,0
189,1,0,0,0,0,0,0,0,0,0,-1,1413,1023,0,0
196,1,0,0,0,0,0,0,0,0,0,-1,1420,1023,0,0
203,1,0,0,0,0,0,0,0,0,0,-1,1427,1023,0,0
210,1,0,0,0,0,0,0,0,0,0,-1,1434,1023,0,0
217,1,0,0,0,0,0,0,0,0,0,-1,1441,1023,0,0
224,1,0,0,0,0,0,0,0,0,0,-1,1448,1023,0,0
231,1,0,0,0,0,0,0,0,0,0,-1,1455,1023,0,0
238,1,0,0,0,0,0,0,0,0,0,-1,1462,1023,0,0
245,1,0,0,0,0,0,0,0,0,0,-1,1469,1023,0,0
252,1,0,0,0,0,0,0,0,0,0,-1,1476,1023,0,0
259,1,0,0,0,0,0,0,0,0,0,-1,1483,1023,0,0
266,1,0,0,0,0,0,0,0,0,0,-1,1490,1023,0,0
273,1,0,0,0,0,0,0,0,0,0,-1,1497,1023,0,0
280,1,0,0,0,0,0,0,0,0,0,-1,1504,1023,0,0
287,1,0,0,0,0,0,0,0,0,0,-1,1511,1023,0,0
294,1,0,0,0,0,0,0,0,0,0,-1,1518,1023,0,0
301,1,0,0,0,0,0,0,0,0,0,-1,1525,1023,0,0
308,1,0,0,0,0,0,0,0,0,0,-1,1532,1023,0,0
315,1,0,0,0,0,0,0,0,0,0,-1,1539,1023,0,0
322,1,0,0,0,0,0,0,0,0,0,-1,1546,1023,0,0
329,1,0,0,0,0,0,0,0,0,0,-1,1553,1023,0,0
336,1,0,0,0,0,0,0,0,0,0,-1,1560,1023,0,0
343,1,0,0,0,0,0,0,0,0,0,-1,1567,1023,0,0
350,1,0,0,0,0,0,0,0,0,0,-1,1574,1023,0,0
357,1,0,0,0,0,0,0,0,0,0,-1,1581,1023,0,0
364,1,0,0,0,0,0,0,0,0,0,-1,1588,1023,0,0
371,1,0,0,0,0,0,0,0,0,0,-1,1595,1023,0,0
378,1,0,0,0,0,0,0,0,0,0,-1,1602,1023,0,0
385,1,0,0,0,0,0,0,0,0,0,-1,1609,1023,0,0
392,1,0,0,0,0,0,0,0,0,0,-1,1616,1023,0,0
399,1,0,0,0,0,0,0,0,0,0,-1,1623,1023,0,0
406,1,0,0,0,0,0,0,0,0,0,-1,1630,1023,0,0
413,1,0,0,0,0,0,0,0,0,0,-1,1637,1023,0,0
420,1,0,0,0,0,0,0,0,0,0,-1,1644,1023,0,0
427,1,0,0,0,0,0,0,0,0,0,-1,1651,1023,0,0
434,1,0,0,0,0,0,0,0,0,0,-1,1658,1023,0,0
441,1,0,0,0,0,0,0,0,0,0,-1,1665,1023,0,0
448,1,0,0,0,0,0,0,0,0,0,-1,1672,1023,0,0
455,1,0,0,0,0,0,0,0,0,0,-1,1679,1023,0,0
462,1,0,0,0,0,0,0,0,0,0,-1,1686,1023,0,0
469,1,0,0,0,0,0,0,0,0,0,-1,1693,1023,0,0
476,1,0,0,0,0,0,0,0,0,0,-1,1700,1023,0,0
483,1,0,0,0,0,0,0,0,0,0,-1,1707,1023,0,0
490,1,0,0,0,0,0,0,0,0,0,-1,1714,1023,0,0
497,1,0,0,0,0,0,0,0,0,0,-1,1721,1023,0,0
504,1,0,0,0,0,0,0,0,0,0,-1,1728,1023,0,0
511,1,0,0,0,0,0,0,0,0,0,-1,1735,1023,0,0
518,1,0,0,0,0,0,0,0,0,0,-1,1742,1023,0,0
525,1,0,0,0,0,0,0,0,0,0,-1,1749,1023,0,0
532,1,0,0,0,0,0,0,0,0,0,-1,1756,1023,0,0
539,1,0,0,0,0,0,0,0,0,0,-1,1763,1023,0,0
546,1,0,0,0,0,0,0,0,0,0,-1,1770,1023,0,0
553,1,0,0,0,0,0,0,0,0,0,-1,1777,1023,0,0
560,1,0,0,0,0,0,0,0,0,0,-1,1784,1023,0,0
567,1,0,0,0,0,0,0,0,0,0,-1,1791,1023,0,0
574,1,0,0,0,0,0,0,0,0,0,-1,1798,1023,0,0
581,1,0,0,0,0,0,0,0,0,0,-1,1805,1023,0,0
588,1,0,0,0,0,0,0,0,0,0,-1,1812,1023,0,0
595,1,0,0,0,0,0,0,0,0,0,-1,1819,1023,0,0
602,1,0,0,0,0,0,0,0,0,0,-1,1826,1023,0,0
609,1,0,0,0,0,0,0,0,0,0,-1,1833,1023,0,0
616,1,0,0,0,0,0,0,0,0,0,-1,1840,1023,0,0
623,1,0,0,0,0,0,0,0,0,0,-1,1847,1023,0,0
630,1,0,0,0,0,0,0,0,0,0,-1,1854,1023,0,0
637,1,0,0,0,0,0,0,0,0,0,-1,1861,1023,0,0
644,1,0,0,0,0,0,0,0,0,0,-1,1868,1023,0,0
651,1,24.1794,2.5246,0.00172833,0.00464908,0.00255363,0.00613042,0.000246979,1.04514,0.00400716,0.0408685,1875,1023,24.1795,-2.52458
658,1,24.2238,2.74524,0.0015352,0.00387492,0.00135053,0.00449182,0.000918303,1.14232,0.00274022,0.0391846,1882,1023,24.2238,-2.74526
665,1,24.1597,2.80762,0.00122155,0.00324528,0.000743844,0.00348927,0.000977556,1.25384,0.00207842,0.0430731,1889,1023,24.1596,-2.80763
672,1,24.1732,2.74969,0.000709557,0.00284316,0.00101465,0.00324863,0.000304086,1.19062,0.00207184,0.0436493,1896,1023,24.1732,-2.74972
679,1,24.1918,2.62164,-0.000121847,0.00242517,0.00206945,0.00358157,-0.00127825,1.06123,0.00290897,0.0406569,1903,1023,24.1918,-2.62162
686,1,24.1304,2.64374,-0.00101951,0.00201479,0.00333903,0.00416518,-0.0031699,0.998638,0.00424789,0.0397165,1910,1023,24.1304,-2.64374
693,1,24.1425,2.78192,-0.00181991,0.00162158,0.00458109,0.00479444,-0.00499277,0.965055,0.00565103,0.0375899,1917,1023,24.1425,-2.78192
700,1,24.1786,2.79712,-0.00249024,0.0012936,0.00559369,0.00530665,-0.00650329,0.948471,0.00683013,0.0322331,1924,1023,24.1786,-2.79711
707,1,24.1486,2.79657,-0.00296596,0.000968511,0.00631321,0.00561389,-0.00761134,0.936433,0.00766456,0.023405,1931,1023,24.1486,-2.79656
714,1,24.1559,2.77332,-0.00343717,0.000782761,0.00679986,0.00579249,-0.00844689,0.935836,0.00826859,0.0212013,1938,1023,24.1559,-2.77332
721,1,24.2483,2.71326,0,0,0,0,0,0,0,-1,1945,1023,24.2483,-2.71325
728,1,23.7931,4.01294,-0.00421905,0.000792648,0.00697448,0.00569778,-0.00912419,0.957861,0.00863335,0.0272508,1952,1023,23.793,-4.01293
735,1,23.728,4.22797,-0.00464092,0.000996254,0.00620506,0.00499288,-0.00863755,0.998585,0.00796276,0.0161917,1959,1023,23.728,-4.22794
742,1,23.7649,4.24683,-0.00535329,0.00106473,0.00460021,0.00346461,-0.00775317,1.08995,0.00663248,0.0169738,1966,1023,23.7649,-4.24681
749,1,23.7526,4.28619,-0.0054629,0.000839588,0.00266692,0.00181664,-0.00643995,1.21962,0.00500986,0.0151652,1973,1023,23.7526,-4.2862
756,1,23.7645,4.32202,-0.00543792,0.00097481,0.00109632,0.00115706,-0.00562017,1.40607,0.00418611,0.0137639,1980,1023,23.7645,-4.32203
763,1,23.7662,4.32623,-0.00515137,0.00147812,-0.000757243,0.00156351,-0.00523676,-1.4585,0.00411264,0.0142066,1987,1023,23.7662,-4.32626
770,1,23.7443,4.33044,-0.00499575,0.00168015,-0.00294895,0.00279621,-0.00611181,-1.209,0.00526046,0.0129637,1994,1023,23.7443,-4.33043
777,1,23.6735,4.336,-0.00448757,0.00197292,-0.00481567,0.0045414,-0.00705605,-1.08082,0.00674805,0.0141851,2001,1023,23.6735,-4.33602
784,1,23.5878,4.35443,-0.00367582,0.00229965,-0.00588807,0.00591464,-0.0072908,-1.02018,0.00763795,0.0339406,2008,1023,23.5878,-4.35445
791,1,23.6582,4.33417,-0.00218051,0.00266596,-0.0061374,0.00684119,-0.00635574,-0.97342,0.00762097,0.0483326,2015,1023,23.6581,-4.33414
798,1,23.6688,2.8573,0.000528908,0.00332489,-0.0055125,0.00761391,-0.00376011,-0.909582,0.00669126,0.0470345,2022,1023,23.6688,-2.85731
805,1,24.4133,2.95203,0.00495051,0.00464603,-0.00357877,0.00838027,0.00121626,-0.764141,0.00522879,0.0463935,2029,1023,24.4133,-2.95203
812,1,24.8389,3.21667,0.0116481,0.00721156,0.000296174,0.0116677,0.00719188,0.0663661,0.00679694,0.0458982,2036,1023,24.8389,-3.21669
-700,-6,0,0,0,0,0,0,0,0,0,-1,524,1030,0,0
-693,-6,-18.3363,-0.224121,0.0873559,0.0473051,0.054441,0.125338,0.00932324,0.60916,0.0806306,0.041761,531,1030,-18.3363,0.224173
-686,-6,-17.8772,0.327148,0.0736845,0.0428892,0.0460052,0.1068,0.00977325,0.623911,0.0681765,0.0435596,538,1030,-17.8772,-0.327121
-679,-6,-17.1685,0.965454,0.0604576,0.0376437,0.0379558,0.0886835,0.00941784,0.639425,0.0562465,0.0445385,545,1030,-17.1684,-0.965461
-672,-6,-16.8987,1.10889,0,0,0,0,0,0,0,-1,552,1030,-16.8987,-1.10891
-665,-6,-16.8068,1.203,0,0,0,0,0,0,0,-1,559,1030,-16.8068,-1.20297
-658,-6,-16.6376,1.64282,0.0281827,0.0216895,0.0181769,0.0434006,0.0064716,0.697024,0.027036,0.0394603,566,1030,-16.6376,-1.64283
-651,-6,-16.6281,1.80933,0.0203241,0.016994,0.0132474,0.0320107,0.00530749,0.722882,0.0198097,0.0358798,573,1030,-16.6281,-1.80934
-644,-6,-16.5745,1.88818,0.0140911,0.0128455,0.00912517,0.0226147,0.0043219,0.751328,0.0138623,0.0374646,580,1030,-16.5745,-1.88815
-637,-6,-16.6461,1.93018,0.00832107,0.0104841,0.00452915,0.0140591,0.0047461,0.902599,0.00825853,0.0224733,587,1030,-16.6461,-1.93018
-630,-6,-16.6987,1.85669,0.00430102,0.00563423,0.000910733,0.00609625,0.003839,1.10132,0.00355894,0.0148433,594,1030,-16.6987,-1.85666
-623,-6,-16.6865,1.85059,0.00120388,0.00387903,-0.00235067,0.00524604,-0.000163127,-1.04406,0.00355298,0.0127595,601,1030,-16.6865,-1.85062
-616,-6,-16.6662,1.83411,0.000157772,0.00209723,-0.0040806,0.00532174,-0.00306674,-0.902056,0.00490107,0.0140105,608,1030,-16.6662,-1.83409
-609,-6,-16.6355,1.84155,4.75608e-05,0.0013266,-0.00467838,0.00540897,-0.00403481,-0.853325,0.00547158,0.0155759,615,1030,-16.6355,-1.84152
-602,-6,-16.6211,1.86572,-1.80385e-05,0.000854461,-0.00560059,0.00603577,-0.00519934,-0.824266,0.00649258,0.0118625,622,1030,-16.6211,-1.86569
-595,-6,-16.5623,1.87341,-7.01788e-06,0.000555755,-0.00623212,0.00651284,-0.0059641,-0.807958,0.00720589,0.0146012,629,1030,-16.5622,-1.87345
-588,-6,-16.5997,1.32581,6.16486e-05,0.000278927,-0.00650026,0.00667145,-0.00633088,-0.793754,0.00750776,0.0176606,636,1030,-16.5998,-1.32586
-581,-6,-16.6459,0.934204,-2.78957e-05,5.91944e-06,-0.00632535,0.00631438,-0.00633636,-0.786735,0.00730391,0.0234855,643,1030,-16.6459,-0.934157
-574,-6,-16.574,0.767944,-0.000341487,-0.000123292,-0.00583108,0.00559971,-0.00606449,-0.794752,0.00673611,0.0316962,650,1030,-16.574,-0.767916
-567,-6,-16.6049,0.630249,-0.000744266,-0.000242077,-0.00497822,0.00449138,-0.00547772,-0.810596,0.00576504,0.0413739,657,1030,-16.6049,-0.630256
-560,-6,-16.6874,0.822388,-0.00122879,-0.000383834,-0.00383657,0.00305344,-0.00466607,-0.840237,0.00448916,0.0429079,664,1030,-16.6875,-0.822399
-553,-6,-16.542,0.879395,-0.0018097,-0.000597111,-0.00251977,0.00138828,-0.00379509,-0.903461,0.00309829,0.040844,671,1030,-16.542,-0.87935
-546,-6,-16.5198,0.9198,-0.0025024,-0.00094285,-0.00116979,-0.000316761,-0.00312849,-1.07937,0.0019885,0.0409843,678,1030,-16.5198,-0.919758
-539,-6,-16.4347,1.15576,-0.00332205,-0.00130876,-0.000434467,-0.001219,-0.0034118,-1.36707,0.00199637,0.0420946,685,1030,-16.4347,-1.15578
-532,-6,-16.6091,1.15198,-0.0045467,-0.00148652,-0.00153412,-0.000849886,-0.00518333,-1.17744,0.00320998,0.0446804,692,1030,-16.6091,-1.15202
-525,-6,0,0,0,0,0,0,0,0,0,-1,699,1030,0,0
-518,-6,0,0,0,0,0,0,0,0,0,-1,706,1030,0,0
-511,-6,0,0,0,0,0,0,0,0,0,-1,713,1030,0,0
-504,-6,0,0,0,0,0,0,0,0,0,-1,720,1030,0,0
-497,-6,0,0,0,0,0,0,0,0,0,-1,727,1030,0,0
-490,-6,0,0,0,0,0,0,0,0,0,-1,734,1030,0,0
-483,-6,0,0,0,0,0,0,0,0,0,-1,741,1030,0,0
-476,-6,0,0,0,0,0,0,0,0,0,-1,748,1030,0,0
-469,-6,0,0,0,0,0,0,0,0,0,-1,755,1030,0,0
-462,-6,0,0,0,0,0,0,0,0,0,-1,762,1030,0,0
-455,-6,0,0,0,0,0,0,0,0,0,-1,769,1030,0,0
-448,-6,0,0,0,0,0,0,0,0,0,-1,776,1030,0,0
-441,-6,0,0,0,0,0,0,0,0,0,-1,783,1030,0,0
-434,-6,0,0,0,0,0,0,0,0,0,-1,790,1030,0,0
-427,-6,0,0,0,0,0,0,0,0,0,-1,797,1030,0,0
-420,-6,0,0,0,0,0,0,0,0,0,-1,804,1030,0,0
-413,-6,0,0,0,0,0,0,0,0,0,-1,811,1030,0,0
-406,-6,0,0,0,0,0,0,0,0,0,-1,818,1030,0,0
-399,-6,0,0,0,0,0,0,0,0,0,-1,825,1030,0,0
-392,-6,0,0,0,0,0,0,0,0,0,-1,832,1030,0,0
-385,-6,0,0,0,0,0,0,0,0,0,-1,839,1030,0,0
-378,-6,0,0,0,0,0,0,0,0,0,-1,846,1030,0,0
-371,-6,0,0,0,0,0,0,0,0,0,-1,853,1030,0,0
-364,-6,0,0,0,0,0,0,0,0,0,-1,860,1030,0,0
-357,-6,0,0,0,0,0,0,0,0,0,-1,867,1030,0,0
-350,-6,0,0,0,0,0,0,0,0,0,-1,874,1030,0,0
-343,-6,0,0,0,0,0,0,0,0,0,-1,881,1030,0,0
-336,-6,0,0,0,0,0,0,0,0,0,-1,888,1030,0,0
-329,-6,0,0,0,0,0,0,0,0,0,-1,895,1030,0,0
-322,-6,0,0,0,0,0,0,0,0,0,-1,902,1030,0,0
-315,-6,0,0,0,0,0,0,0,0,0,-1,909,1030,0,0
-308,-6,0,0,0,0,0,0,0,0,0,-1,916,1030,0,0
-301,-6,0,0,0,0,0,0,0,0,0,-1,923,1030,0,0
-294,-6,0,0,0,0,0,0,0,0,0,-1,930,1030,0,0
-287,-6,0,0,0,0,0,0,0,0,0,-1,937,1030,0,0
-280,-6,0,0,0,0,0,0,0,0,0,-1,944,1030,0,0
-273,-6,0,0,0,0,0,0,0,0,0,-1,951,1030,0,0
-266,-6,0,0,0,0,0,0,0,0,0,-1,958,1030,0,0
-259,-6,0,0,0,0,0,0,0,0,0,-1,965,1030,0,0
-252,-6,0,0,0,0,0,0,0,0,0,-1,972,1030,0,0
-245,-6,0,0,0,0,0,0,0,0,0,-1,979,1030,0,0
-238,-6,0,0,0,0,0,0,0,0,0,-1,986,1030,0,0
-231,-6,0,0,0,0,0,0,0,0,0,-1,993,1030,0,0
-224,-6,0,0,0,0,0,0,0,0,0,-1,1000,1030,0,0
-217,-6,0,0,0,0,0,0,0,0,0,-1,1007,1030,0,0
-210,-6,0,0,0,0,0,0,0,0,0,-1,1014,1030,0,0
-203,-6,0,0,0,0,0,0,0,0,0,-1,1021,1030,0,0
-196,-6,0,0,0,0,0,0,0,0,0,-1,1028,1030,0,0
-189,-6,0,0,0,0,0,0,0,0,0,-1,1035,1030,0,0
-182,-6,0,0,0,0,0,0,0,0,0,-1,1042,1030,0,0
-175,-6,0,0,0,0,0,0,0,0,0,-1,1049,1030,0,0
-168,-6,0,0,0,0,0,0,0,0,0,-1,1056,1030,0,0
-161,-6,0,0,0,0,0,0,0,0,0,-1,1063,1030,0,0
-154,-6,0,0,0,0,0,0,0,0,0,-1,1070,1030,0,0
-147,-6,0,0,0,0,0,0,0,0,0,-1,1077,1030,0,0
-140,-6,0,0,0,0,0,0,0,0,0,-1,1084,1030,0,0
-133,-6,0,0,0,0,0,0,0,0,0,-1,1091,1030,0,0
-126,-6,0,0,0,0,0,0,0,0,0,-1,1098,1030,0,0
-119,-6,0,0,0,0,0,0,0,0,0,-1,1105,1030,0,0
-112,-6,0,0,0,0,0,0,0,0,0,-1,1112,1030,0,0
-105,-6,0,0,0,0,0,0,0,0,0,-1,1119,1030,0,0
-98,-6,0,0,0,0,0,0,0,0,0,-1,1126,1030,0,0
-91,-6,0,0,0,0,0,0,0,0,0,-1,1133,1030,0,0
-84,-6,0,0,0,0,0,0,0,0,0,-1,1140,1030,0,0
-77,-6,0,0,0,0,0,0,0,0,0,-1,1147,1030,0,0
-70,-6,0,0,0,0,0,0,0,0,0,-1,1154,1030,0,0
-63,-6,0,0,0,0,0,0,0,0,0,-1,1161,1030,0,0
-56,-6,0,0,0,0,0,0,0,0,0,-1,1168,1030,0,0
-49,-6,0,0,0,0,0,0,0,0,0,-1,1175,1030,0,0
-42,-6,0,0,0,0,0,0,0,0,0,-1,1182,1030,0,0
-35,-6,0,0,0,0,0,0,0,0,0,-1,1189,1030,0,0
-28,-6,0,0,0,0,0,0,0,0,0,-1,1196,1030,0,0
-21,-6,0,0,0,0,0,0,0,0,0,-1,1203,1030,0,0
-14,-6,0,0,0,0,0,0,0,0,0,-1,1210,1030,0,0
-7,-6,0,0,0,0,0,0,0,0,0,-1,1217,1030,0,0
0,-6,0,0,0,0,0,0,0,0,0,-1,1224,1030,0,0
7,-6,0,0,0,0,0,0,0,0,0,-1,1231,1030,0,0
14,-6,0,0,0,0,0,0,0,0,0,-1,1238,1030,0,0
21,-6,0,0,0,0,0,0,0,0,0,-1,1245,1030,0,0
28,-6,0,0,0,0,0,0,0,0,0,-1,1252,1030,0,0
35,-6,0,0,0,0,0,0,0,0,0,-1,1259,1030,0,0
42,-6,0,0,0,0,0,0,0,0,0,-1,1266,1030,0,0
49,-6,0,0,0,0,0,0,0,0,0,-1,1273,1030,0,0
56,-6,0,0,0,0,0,0,0,0,0,-1,1280,1030,0,0
63,-6,0,0,0,0,0,0,0,0,0,-1,1287,1030,0,0
70,-6,0,0,0,0,0,0,0,0,0,-1,1294,1030,0,0
77,-6,0,0,0,0,0,0,0,0,0,-1,1301,1030,0,0
84,-6,0,0,0,0,0,0,0,0,0,-1,1308,1030,0,0
91,-6,0,0,0,0,0,0,0,0,0,-1,1315,1030,0,0
98,-6,0,0,0,0,0,0,0,0,0,-1,1322,1030,0,0
105,-6,0,0,0,0,0,0,0,0,0,-1,1329,1030,0,0
112,-6,0,0,0,0,0,0,0,0,0,-1,1336,1030,0,0
119,-6,0,0,0,0,0,0,0,0,0,-1,1343,1030,0,0
126,-6,0,0,0,0,0,0,0,0,0,-1,1350,1030,0,0
133,-6,0,0,0,0,0,0,0,0,0,-1,1357,1030,0,0
140,-6,0,0,0,0,0,0,0,0,0,-1,1364,1030,0,0
147,-6,0,0,0,0,0,0,0,0,0,-1,1371,1030,0,0
154,-6,0,0,0,0,0,0,0,0,0,-1,1378,1030,0,0
161,-6,0,0,0,0,0,0,0,0,0,-1,1385,1030,0,0
168,-6,0,0,0,0,0,0,0,0,0,-1,1392,1030,0,0
175,-6,0,0,0,0,0,0,0,0,0,-1,1399,1030,0,0
182,-6,0,0,0,0,0,0,0,0,0,-1,1406,1030,0,0
189,-6,0,0,0,0,0,0,0,0,0,-1,1413,1030,0,0
196,-6,0,0,0,0,0,0,0,0,0,-1,1420,1030,0,0
203,-6,0,0,0,0,0,0,0,0,0,-1,1427,1030,0,0
210,-6,0,0,0,0,0,0,0,0,0,-1,1434,1030,0,0
217,-6,0,0,0,0,0,0,0,0,0,-1,1441,1030,0,0
224,-6,0,0,0,0,0,0,0,0,0,-1,1448,1030,0,0
231,-6,0,0,0,0,0,0,0,0,0,-1,1455,1030,0,0
238,-6,0,0,0,0,0,0,0,0,0,-1,1462,1030,0,0
245,-6,0,0,0,0,0,0,0,0,0,-1,1469,1030,0,0
252,-6,0,0,0,0,0,0,0,0,0,-1,1476,1030,0,0
259,-6,0,0,0,0,0,0,0,0,0,-1,1483,1030,0,0
266,-6,0,0,0,0,0,0,0,0,0,-1,1490,1030,0,0
273,-6,0,0,0,0,0,0,0,0,0,-1,1497,1030,0,0
280,-6,0,0,0,0,0,0,0,0,0,-1,1504,1030,0,0
287,-6,0,0,0,0,0,0,0,0,0,-1,1511,1030,0,0
294,-6,0,0,0,0,0,0,0,0,0,-1,1518,1030,0,0
301,-6,0,0,0,0,0,0,0,0,0,-1,1525,1030,0,0
308,-6,0,0,0,0,0,0,0,0,0,-1,1532,1030,0,0
315,-6,0,0,0,0,0,0,0,0,0,-1,1539,1030,0,0
322,-6,0,0,0,0,0,0,0,0,0,-1,1546,1030,0,0
329,-6,0,0,0,0,0,0,0,0,0,-1,1553,1030,0,0
336,-6,0,0,0,0,0,0,0,0,0,-1,1560,1030,0,0
343,-6,0,0,0,0,0,0,0,0,0,-1,1567,1030,0,0
350,-6,0,0,0,0,0,0,0,0,0,-1,1574,1030,0,0
357,-6,0,0,0,0,0,0,0,0,0,-1,1581,1030,0,0
364,-6,0,0,0,0,0,0,0,0,0,-1,1588,1030,0,0
371,-6,0,0,0,0,0,0,0,0,0,-1,1595,1030,0,0
378,-6,0,0,0,0,0,0,0,0,0,-1,1602,1030,0,0
385,-6,0,0,0,0,0,0,0,0,0,-1,1609,1030,0,0
392,-6,0,0,0,0,0,0,0,0,0,-1,1616,1030,0,0
399,-6,0,0,0,0,0,0,0,0,0,-1,1623,1030,0,0
406,-6,0,0,0,0,0,0,0,0,0,-1,1630,1030,0,0
413,-6,0,0,0,0,0,0,0,0,0,-1,1637,1030,0,0
420,-6,0,0,0,0,0,0,0,0,0,-1,1644,1030,0,0
427,-6,0,0,0,0,0,0,0,0,0,-1,1651,1030,0,0
434,-6,0,0,0,0,0,0,0,0,0,-1,1658,1030,0,0
441,-6,0,0,0,0,0,0,0,0,0,-1,1665,1030,0,0
448,-6,0,0,0,0,0,0,0,0,0,-1,1672,1030,0,0
455,-6,0,0,0,0,0,0,0,0,0,-1,1679,1030,0,0
462,-6,0,0,0,0,0,0,0,0,0,-1,1686,1030,0,0
469,-6,0,0,0,0,0,0,0,0,0,-1,1693,1030,0,0
476,-6,0,0,0,0,0,0,0,0,0,-1,1700,1030,0,0
483,-6,0,0,0,0,0,0,0,0,0,-1,1707,1030,0,0
490,-6,0,0,0,0,0,0,0,0,0,-1,1714,1030,0,0
497,-6,0,0,0,0,0,0,0,0,0,-1,1721,1030,0,0
504,-6,0,0,0,0,0,0,0,0,0,-1,1728,1030,0,0
511,-6,0,0,0,0,0,0,0,0,0,-1,1735,1030,0,0
518,-6,0,0,0,0,0,0,0,0,0,-1,1742,1030,0,0
525,-6,0,0,0,0,0,0,0,0,0,-1,1749,1030,0,0
532,-6,0,0,0,0,0,0,0,0,0,-1,1756,1030,0,0
539,-6,0,0,0,0,0,0,0,0,0,-1,1763,1030,0,0
546,-6,0,0,0,0,0,0,0,0,0,-1,1770,1030,0,0
553,-6,0,0,0,0,0,0,0,0,0,-1,1777,1030,0,0
560,-6,0,0,0,0,0,0,0,0,0,-1,1784,1030,0,0
567,-6,0,0,0,0,0,0,0,0,0,-1,1791,1030,0,0
574,-6,0,0,0,0,0,0,0,0,0,-1,1798,1030,0,0
581,-6,0,0,0,0,0,0,0,0,0,-1,1805,1030,0,0
588,-6,0,0,0,0,0,0,0,0,0,-1,1812,1030,0,0
595,-6,0,0,0,0,0,0,0,0,0,-1,1819,1030,0,0
602,-6,0,0,0,0,0,0,0,0,0,-1,1826,1030,0,0
609,-6,0,0,0,0,0,0,0,0,0,-1,1833,1030,0,0
616,-6,0,0,0,0,0,0,0,0,0,-1,1840,1030,0,0
623,-6,0,0,0,0,0,0,0,0,0,-1,1847,1030,0,0
630,-6,0,0,0,0,0,0,0,0,0,-1,1854,1030,0,0
637,-6,0,0,0,0,0,0,0,0,0,-1,1861,1030,0,0
644,-6,0,0,0,0,0,0,0,0,0,-1,1868,1030,0,0
651,-6,24.1119,2.7605,0,0,0,0,0,0,0,-1,1875,1030,24.1119,-2.76045
658,-6,24.361,2.8822,0.00181288,0.00321929,0.00102629,0.00376018,0.00127199,1.08576,0.00220847,0.0407557,1882,1030,24.3609,-2.8822
665,-6,24.4639,2.77197,0.00143898,0.00268381,0.000468047,0.00284016,0.00128264,1.24841,0.00164232,0.0451465,1889,1030,24.4638,-2.772
672,-6,24.5343,2.75928,0.000934954,0.00231604,0.0008087,0.00268891,0.000562084,1.13877,0.00163772,0.0433511,1896,1030,24.5343,-2.75933
679,-6,24.246,2.90588,0.000141899,0.00190133,0.00201092,0.00321654,-0.00117331,0.991591,0.00262439,0.0428351,1903,1030,24.246,-2.90592
686,-6,24.0756,2.81641,-0.000733582,0.00147788,0.00344173,0.00398714,-0.00324284,0.940827,0.00418159,0.0400507,1910,1030,24.0755,-2.81642
693,-6,24.153,2.80774,-0.00150298,0.00106594,0.00483277,0.00478203,-0.00521908,0.915286,0.00577598,0.0367863,1917,1030,24.1529,-2.80777
700,-6,24.1801,2.76807,-0.00214647,0.000715519,0.00598379,0.00543704,-0.00686799,0.902766,0.00712031,0.0309709,1924,1030,24.1801,-2.76802
707,-6,24.1445,2.82422,-0.00259423,0.000389428,0.0068053,0.0058645,-0.00806929,0.893299,0.00807818,0.0254381,1931,1030,24.1445,-2.82422
714,-6,24.1302,2.86768,-0.00304151,0.000207202,0.00736248,0.00612238,-0.00895669,0.893972,0.00875702,0.0283313,1938,1030,24.1303,-2.86767
721,-6,24.0177,3.44128,-0.00349121,0.000154283,0.00765519,0.00620073,-0.00953766,0.902275,0.00915439,0.0352666,1945,1030,24.0176,-3.44133
728,-6,23.7592,4.13562,-0.00379708,0.000277175,0.00758228,0.00609121,-0.00961112,0.916634,0.00914136,0.0320762,1952,1030,23.7591,-4.13568
735,-6,23.7633,4.22961,-0.00413734,0.000547348,0.00687201,0.00546525,-0.00905524,0.949649,0.00846838,0.0169911,1959,1030,23.7633,-4.22962
742,-6,23.7927,4.25513,-0.00473742,0.000691109,0.00533105,0.0039591,-0.0080054,1.02087,0.00703815,0.0142389,1966,1030,23.7927,-4.25508
749,-6,23.7416,4.30261,-0.00464206,0.000571358,0.00344629,0.00228575,-0.00635645,1.10918,0.00517078,0.013681,1973,1030,23.7416,-4.30266
756,-6,23.7596,4.29785,-0.00432117,0.000916671,0.0017661,0.00145652,-0.00486102,1.27414,0.0038199,0.0145499,1980,1030,23.7597,-4.29782
763,-6,23.7799,4.28198,-0.00373509,0.00157046,-0.000111866,0.00157282,-0.00373745,-1.54972,0.00314965,0.0133012,1987,1030,23.7799,-4.28203
770,-6,23.7532,4.29187,-0.00316688,0.00200839,-0.00237549,0.00293341,-0.00409191,-1.19946,0.00407441,0.0114381,1994,1030,23.7532,-4.29185
777,-6,23.6848,4.30688,-0.00209092,0.00253686,-0.00437438,0.00517164,-0.0047257,-1.02867,0.00571616,0.013819,2001,1030,23.6848,-4.30694
784,-6,23.6871,4.30359,-0.000560345,0.0031128,-0.00557673,0.00714759,-0.00459514,-0.944469,0.00683285,0.0357928,2008,1030,23.6872,-4.30358
791,-6,23.7107,4.29468,0,0,0,0,0,0,0,-1,2015,1030,23.7107,-4.29466
798,-6,23.6617,3.17883,0.00533103,0.00462622,-0.00574041,0.0107298,-0.000772591,-0.754742,0.00742417,0.0459513,2022,1030,23.6617,-3.17884
805,-6,24.3455,3.00256,0.010728,0.00614276,-0.00434239,0.0133458,0.00352493,-0.542516,0.00798589,0.0450416,2029,1030,24.3455,-3.0026
812,-6,24.7678,3.00659,0.0184375,0.00877866,-0.00124956,0.0185965,0.00861962,-0.126593,0.0107462,0.0425209,2036,1030,24.7678,-3.00663
-700,-13,0,0,0,0,0,0,0,0,0,-1,524,1037,0,0
-693,-13,-18.0923,-0.26123,0.0731716,0.0331997,0.044101,0.101604,0.00476732,0.572648,0.0662042,0.0451125,531,1037,-18.0923,0.261182
-686,-13,-17.598,0.406006,0.0620515,0.0306793,0.0382797,0.0877344,0.00499641,0.590945,0.0568973,0.0430973,538,1037,-17.5979,-0.405966
-679,-13,-16.98,1.34192,0.0511974,0.0274998,0.0322734,0.0737283,0.00496883,0.609468,0.0475825,0.0467212,545,1037,-16.98,-1.34191
-672,-13,-16.3693,2.23157,0,0,0,0,0,0,0,-1,552,1037,-16.3693,-2.23158
-665,-13,-16.9741,1.16565,0,0,0,0,0,0,0,-1,559,1037,-16.974,-1.16561
-658,-13,-16.5947,1.57422,0.0243131,0.0169825,0.0163006,0.0373554,0.00394019,0.674808,0.0236996,0.0485338,566,1037,-16.5947,-1.57422
-651,-13,-16.5773,1.62683,0.0176323,0.0136166,0.012066,0.0278564,0.00339254,0.70295,0.0175497,0.042948,573,1037,-16.5773,-1.62677
-644,-13,-16.5947,1.76013,0.0123057,0.0104955,0.00846391,0.0199128,0.00288843,0.732133,0.0124248,0.0298688,580,1037,-16.5947,-1.76013
-637,-13,-16.6186,1.81177,0.00734076,0.0087376,0.00443506,0.0125289,0.00354946,0.863495,0.00745657,0.0212063,587,1037,-16.6186,-1.81178
-630,-13,-16.6522,1.8042,0.00385616,0.00497447,0.000817939,0.00540611,0.00342452,1.08522,0.00315806,0.0135826,594,1037,-16.6522,-1.80421
-623,-13,-16.6501,1.83911,0.00104388,0.00347905,-0.00246039,0.00500665,-0.000483718,-1.01517,0.00351013,0.0113649,601,1037,-16.6501,-1.83912
-616,-13,-16.6216,1.83826,6.00987e-05,0.00166295,-0.00427206,0.0052081,-0.00348505,-0.878119,0.00505175,0.0104749,608,1037,-16.6216,-1.8383
-609,-13,-16.5926,1.83838,-5.11184e-05,0.0009193,-0.00499024,0.00544786,-0.00457968,-0.833862,0.00579663,0.0152851,615,1037,-16.5926,-1.83834
-602,-13,-16.5968,1.8623,-0.000102252,0.000459692,-0.00598045,0.00616576,-0.00580832,-0.808872,0.00691427,0.0113072,622,1037,-16.5968,-1.86233
-595,-13,-16.5706,1.85132,-9.05167e-05,0.000194104,-0.00666311,0.00671643,-0.00661284,-0.796076,0.00769573,0.0173378,629,1037,-16.5706,-1.85137
-588,-13,-16.4905,1.25549,-4.20073e-05,-1.53749e-05,-0.00696433,0.00693566,-0.00699304,-0.786354,0.00804176,0.0255635,636,1037,-16.4906,-1.2555
-581,-13,-16.6093,0.827271,-0.000137621,-0.000194218,-0.00681126,0.00664539,-0.00697723,-0.783321,0.00786581,0.0237974,643,1037,-16.6093,-0.827215
-574,-13,-16.6033,0.711792,-0.000421079,-0.000171183,-0.00631863,0.00602374,-0.006616,-0.795284,0.00730023,0.0335764,650,1037,-16.6033,-0.711802
-567,-13,-16.6328,0.859375,-0.000801019,-9.13348e-05,-0.00543673,0.00500213,-0.00589448,-0.817986,0.00629819,0.04151,657,1037,-16.6328,-0.859363
-560,-13,-16.6253,1.06946,-0.00124616,5.28602e-06,-0.00424152,0.00366699,-0.00490786,-0.858632,0.00496794,0.0447055,664,1037,-16.6253,-1.06941
-553,-13,-16.5214,0.827759,-0.00176184,5.18981e-05,-0.00285443,0.00214005,-0.00384999,-0.939208,0.00350501,0.0436215,671,1037,-16.5214,-0.827803
-546,-13,-16.6659,0.990845,-0.00236136,-3.68933e-05,-0.00142332,0.000638435,-0.00303669,-1.12778,0.00226743,0.0394536,678,1037,-16.6659,-0.990874
-539,-13,-16.6162,1.36096,0,0,0,0,0,0,0,-1,685,1037,-16.6162,-1.36094
-532,-13,-16.2426,0.81958,0,0,0,0,0,0,0,-1,692,1037,-16.2426,-0.81957
-525,-13,0,0,0,0,0,0,0,0,0,-1,699,1037,0,0
-518,-13,0,0,0,0,0,0,0,0,0,-1,706,1037,0,0
-511,-13,0,0,0,0,0,0,0,0,0,-1,713,1037,0,0
-504,-13,0,0,0,0,0,0,0,0,0,-1,720,1037,0,0
-497,-13,0,0,0,0,0,0,0,0,0,-1,727,1037,0,0
-490,-13,0,0,0,0,0,0,0,0,0,-1,734,1037,0,0
-483,-13,0,0,0,0,0,0,0,0,0,-1,741,1037,0,0
-476,-13,0,0,0,0,0,0,0,0,0,-1,748,1037,0,0
-469,-13,0,0,0,0,0,0,0,0,0,-1,755,1037,0,0
-462,-13,0,0,0,0,0,0,0,0,0,-1,762,1037,0,0
-455,-13,0,0,0,0,0,0,0,0,0,-1,769,1037,0,0
-448,-13,0,0,0,0,0,0,0,0,0,-1,776,1037,0,0
-441,-13,0,0,0,0,0,0,0,0,0,-1,783,1037,0,0
-434,-13,0,0,0,0,0,0,0,0,0,-1,790,1037,0,0
-427,-13,0,0,0,0,0,0,0,0,0,-1,797,1037,0,0
-420,-13,0,0,0,0,0,0,0,0,0,-1,804,1037,0,0
-413,-13,0,0,0,0,0,0,0,0,0,-1,811,1037,0,0
-406,-13,0,0,0,0,0,0,0,0,0,-1,818,1037,0,0
-399,-13,0,0,0,0,0,0,0,0,0,-1,825,1037,0,0
-392,-13,0,0,0,0,0,0,0,0,0,-1,832,1037,0,0
-385,-13,0,0,0,0,0,0,0,0,0,-1,839,1037,0,0
-378,-13,0,0,0,0,0,0,0,0,0,-1,846,1037,0,0
-371,-13,0,0,0,0,0,0,0,0,0,-1,853,1037,0,0
-364,-13,0,0,0,0,0,0,0,0,0,-1,860,1037,0,0
-357,-13,0,0,0,0,0,0,0,0,0,-1,867,1037,0,0
-350,-13,0,0,0,0,0,0,0,0,0,-1,874,1037,0,0
-343,-13,0,0,0,0,0,0,0,0,0,-1,881,1037,0,0
-336,-13,0,0,0,0,0,0,0,0,0,-1,888,1037,0,0
-329,-13,0,0,0,0,0,0,0,0,0,-1,895,1037,0,0
-322,-13,0,0,0,0,0,0,0,0,0,-1,902,1037,0,0
-315,-13,0,0,0,0,0,0,0,0,0,-1,909,1037,0,0
-308,-13,0,0,0,0,0,0,0,0,0,-1,916,1037,0,0
-301,-13,0,0,0,0,0,0,0,0,0,-1,923,1037,0,0
-294,-13,0,0,0,0,0,0,0,0,0,-1,930,1037,0,0
-287,-13,0,0,0,0,0,0,0,0,0,-1,937,1037,0,0
-280,-13,0,0,0,0,0,0,0,0,0,-1,944,1037,0,0
-273,-13,0,0,0,0,0,0,0,0,0,-1,951,1037,0,0
-266,-13,0,0,0,0,0,0,0,0,0,-1,958,1037,0,0
-259,-13,0,0,0,0,0,0,0,0,0,-1,965,1037,0,0
-252,-13,0,0,0,0,0,0,0,0,0,-1,972,1037,0,0
-245,-13,0,0,0,0,0,0,0,0,0,-1,979,1037,0,0
-238,-13,0,0,0,0,0,0,0,0,0,-1,986,1037,0,0
-231,-13,0,0,0,0,0,0,0,0,0,-1,993,1037,0,0
-224,-13,0,0,0,0,0,0,0,0,0,-1,1000,1037,0,0
-217,-13,0,0,0,0,0,0,0,0,0,-1,1007,1037,0,0
-210,-13,0,0,0,0,0,0,0,0,0,-1,1014,1037,0,0
-203,-13,0,0,0,0,0,0,0,0,0,-1,1021,1037,0,0
-196,-13,0,0,0,0,0,0,0,0,0,-1,1028,1037,0,0
-189,-13,0,0,0,0,0,0,0,0,0,-1,1035,1037,0,0
-182,-13,0,0,0,0,0,0,0,0,0,-1,1042,1037,0,0
-175,-13,0,0,0,0,0,0,0,0,0,-1,1049,1037,0,0
-168,-13,0,0,0,0,0,0,0,0,0,-1,1056,1037,0,0
-161,-13,0,0,0,0,0,0,0,0,0,-1,1063,1037,0,0
-154,-13,0,0,0,0,0,0,0,0,0,-1,1070,1037,0,0
-147,-13,0,0,0,0,0,0,0,0,0,-1,1077,1037,0,0
-140,-13,0,0,0,0,0,0,0,0,0,-1,1084,1037,0,0
-133,-13,0,0,0,0,0,0,0,0,0,-1,1091,1037,0,0
-126,-13,0,0,0,0,0,0,0,0,0,-1,1098,1037,0,0
-119,-13,0,0,0,0,0,0,0,0,0,-1,1105,1037,0,0
-112,-13,0,0,0,0,0,0,0,0,0,-1,1112,1037,0,0
-105,-13,0,0,0,0,0,0,0,0,0,-1,1119,1037,0,0
-98,-13,0,0,0,0,0,0,0,0,0,-1,1126,1037,0,0
-91,-13,0,0,0,0,0,0,0,0,0,-1,1133,1037,0,0
-84,-13,0,0,0,0,0,0,0,0,0,-1,1140,1037,0,0
-77,-13,0,0,0,0,0,0,0,0,0,-1,1147,1037,0,0
-70,-13,0,0,0,0,0,0,0,0,0,-1,1154,1037,0,0
-63,-13,0,0,0,0,0,0,0,0,0,-1,1161,1037,0,0
-56,-13,0,0,0,0,0,0,0,0,0,-1,1168,1037,0,0
-49,-13,0,0,0,0,0,0,0,0,0,-1,1175,1037,0,0
-42,-13,0,0,0,0,0,0,0,0,0,-1,1182,1037,0,0
-35,-13,0,0,0,0,0,0,0,0,0,-1,1189,1037,0,0
-28,-13,0,0,0,0,0,0,0,0,0,-1,1196,1037,0,0
-21,-13,0,0,0,0,0,0,0,0,0,-1,1203,1037,0,0
-14,-13,0,0,0,0,0,0,0,0,0,-1,1210,1037,0,0
-7,-13,0,0,0,0,0,0,0,0,0,-1,1217,1037,0,0
0,-13,0,0,0,0,0,0,0,0,0,-1,1224,1037,0,0
7,-13,0,0,0,0,0,0,0,0,0,-1,1231,1037,0,0
14,-13,0,0,0,0,0,0,0,0,0,-1,1238,1037,0,0
21,-13,0,0,0,0,0,0,0,0,0,-1,1245,1037,0,0
28,-13,0,0,0,0,0,0,0,0,0,-1,1252,1037,0,0
35,-13,0,0,0,0,0,0,0,0,0,-1,1259,1037,0,0
42,-13,0,0,0,0,0,0,0,0,0,-1,1266,1037,0,0
49,-13,0,0,0,0,0,0,0,0,0,-1,1273,1037,0,0
56,-13,0,0,0,0,0,0,0,0,0,-1,1280,1037,0,0
63,-13,0,0,0,0,0,0,0,0,0,-1,1287,1037,0,0
70,-13,0,0,0,0,0,0,0,0,0,-1,1294,1037,0,0
77,-13,0,0,0,0,0,0,0,0,0,-1,1301,1037,0,0
84,-13,0,0,0,0,0,0,0,0,0,-1,1308,1037,0,0
91,-13,0,0,0,0,0,0,0,0,0,-1,1315,1037,0,0
98,-13,0,0,0,0,0,0,0,0,0,-1,1322,1037,0,0
105,-13,0,0,0,0,0,0,0,0,0,-1,1329,1037,0,0
112,-13,0,0,0,0,0,0,0,0,0,-1,1336,1037,0,0
119,-13,0,0,0,0,0,0,0,0,0,-1,1343,1037,0,0
126,-13,0,0,0,0,0,0,0,0,0,-1,1350,1037,0,0
133,-13,0,0,0,0,0,0,0,0,0,-1,1357,1037,0,0
140,-13,0,0,0,0,0,0,0,0,0,-1,1364,1037,0,0
147,-13,0,0,0,0,0,0,0,0,0,-1,1371,1037,0,0
154,-13,0,0,0,0,0,0,0,0,0,-1,1378,1037,0,0
161,-13,0,0,0,0,0,0,0,0,0,-1,1385,1037,0,0
168,-13,0,0,0,0,0,0,0,0,0,-1,1392,1037,0,0
175,-13,0,0,0,0,0,0,0,0,0,-1,1399,1037,0,0
182,-13,0,0,0,0,0,0,0,0,0,-1,1406,1037,0,0
189,-13,0,0,0,0,0,0,0,0,0,-1,1413,1037,0,0
196,-13,0,0,0,0,0,0,0,0,0,-1,1420,1037,0,0
203,-13,0,0,0,0,0,0,0,0,0,-1,1427,1037,0,0
210,-13,0,0,0,0,0,0,0,0,0,-1,1434,1037,0,0
217,-13,0,0,0,0,0,0,0,0,0,-1,1441,1037,0,0
224,-13,0,0,0,0,0,0,0,0,0,-1,1448,1037,0,0
231,-13,0,0,0,0,0,0,0,0,0,-1,1455,1037,0,0
238,-13,0,0,0,0,0,0,0,0,0,-1,1462,1037,0,0
245,-13,0,0,0,0,0,0,0,0,0,-1,1469,1037,0,0
252,-13,0,0,0,0,0,0,0,0,0,-1,1476,1037,0,0
259,-13,0,0,0,0,0,0,0,0,0,-1,1483,1037,0,0
266,-13,0,0,0,0,0,0,0,0,0,-1,1490,1037,0,0
273,-13,0,0,0,0,0,0,0,0,0,-1,1497,1037,0,0
280,-13,0,0,0,0,0,0,0,0,0,-1,1504,1037,0,0
287,-13,0,0,0,0,0,0,0,0,0,-1,1511,1037,0,0
294,-13,0,0,0,0,0,0,0,0,0,-1,1518,1037,0,0
301,-13,0,0,0,0,0,0,0,0,0,-1,1525,1037,0,0
308,-13,0,0,0,0,0,0,0,0,0,-1,1532,1037,0,0
315,-13,0,0,0,0,0,0,0,0,0,-1,1539,1037,0,0
322,-13,0,0,0,0,0,0,0,0,0,-1,1546,1037,0,0
329,-13,0,0,0,0,0,0,0,0,0,-1,1553,1037,0,0
336,-13,0,0,0,0,0,0,0,0,0,-1,1560,1037,0,0
343,-13,0,0,0,0,0,0,0,0,0,-1,1567,1037,0,0
350,-13,0,0,0,0,0,0,0,0,0,-1,1574,1037,0,0
357,-13,0,0,0,0,0,0,0,0,0,-1,1581,1037,0,0
364,-13,0,0,0,0,0,0,0,0,0,-1,1588,1037,0,0
371,-13,0,0,0,0,0,0,0,0,0,-1,1595,1037,0,0
378,-13,0,0,0,0,0,0,0,0,0,-1,1602,1037,0,0
385,-13,0,0,0,0,0,0,0,0,0,-1,1609,1037,0,0
392,-13,0,0,0,0,0,0,0,0,0,-1,1616,1037,0,0
399,-13,0,0,0,0,0,0,0,0,0,-1,1623,1037,0,0
406,-13,0,0,0,0,0,0,0,0,0,-1,1630,1037,0,0
413,-13,0,0,0,0,0,0,0,0,0,-1,1637,1037,0,0
420,-13,0,0,0,0,0,0,0,0,0,-1,1644,1037,0,0
427,-13,0,0,0,0,0,0,0,0,0,-1,1651,1037,0,0
434,-13,0,0,0,0,0,0,0,0,0,-1,1658,1037,0,0
441,-13,0,0,0,0,0,0,0,0,0,-1,1665,1037,0,0
448,-13,0,0,0,0,0,0,0,0,0,-1,1672,1037,0,0
455,-13,0,0,0,0,0,0,0,0,0,-1,1679,1037,0,0
462,-13,0,0,0,0,0,0,0,0,0,-1,1686,1037,0,0
469,-13,0,0,0,0,0,0,0,0,0,-1,1693,1037,0,0
476,-13,0,0,0,0,0,0,0,0,0,-1,1700,1037,0,0
483,-13,0,0,0,0,0,0,0,0,0,-1,1707,1037,0,0
490,-13,0,0,0,0,0,0,0,0,0,-1,1714,1037,0,0
497,-13,0,0,0,0,0,0,0,0,0,-1,1721,1037,0,0
504,-13,0,0,0,0,0,0,0,0,0,-1,1728,1037,0,0
511,-13,0,0,0,0,0,0,0,0,0,-1,1735,1037,0,0
518,-13,0,0,0,0,0,0,0,0,0,-1,1742,1037,0,0
525,-13,0,0,0,0,0,0,0,0,0,-1,1749,1037,0,0
532,-13,0,0,0,0,0,0,0,0,0,-1,1756,1037,0,0
539,-13,0,0,0,0,0,0,0,0,0,-1,1763,1037,0,0
546,-13,0,0,0,0,0,0,0,0,0,-1,1770,1037,0,0
553,-13,0,0,0,0,0,0,0,0,0,-1,1777,1037,0,0
560,-13,0,0,0,0,0,0,0,0,0,-1,1784,1037,0,0
567,-13,0,0,0,0,0,0,0,0,0,-1,1791,1037,0,0
574,-13,0,0,0,0,0,0,0,0,0,-1,1798,1037,0,0
581,-13,0,0,0,0,0,0,0,0,0,-1,1805,1037,0,0
588,-13,0,0,0,0,0,0,0,0,0,-1,1812,1037,0,0
595,-13,0,0,0,0,0,0,0,0,0,-1,1819,1037,0,0
602,-13,0,0,0,0,0,0,0,0,0,-1,1826,1037,0,0
609,-13,0,0,0,0,0,0,0,0,0,-1,1833,1037,0,0
616,-13,0,0,0,0,0,0,0,0,0,-1,1840,1037,0,0
623,-13,0,0,0,0,0,0,0,0,0,-1,1847,1037,0,0
630,-13,0,0,0,0,0,0,0,0,0,-1,1854,1037,0,0
637,-13,0,0,0,0,0,0,0,0,0,-1,1861,1037,0,0
644,-13,0,0,0,0,0,0,0,0,0,-1,1868,1037,0,0
651,-13,24.1086,2.68848,0.00193152,0.00360255,0.00160798,0.00457913,0.000954941,1.025,0.00278947,0.0409374,1875,1037,24.1086,-2.68849
658,-13,24.0686,2.71375,0.00176111,0.00297945,0.000681158,0.0032841,0.00145646,1.15023,0.00190011,0.0470044,1882,1037,24.0686,-2.7137
665,-13,24.2974,2.74768,0.00141407,0.0024735,0.000218063,0.00251663,0.00137094,1.37554,0.00145491,0.046518,1889,1037,24.2974,-2.74768
672,-13,24.5101,2.74719,0.000966798,0.00210913,0.000668013,0.00241687,0.000659059,1.1391,0.00144264,0.0396984,1896,1037,24.5101,-2.7472
679,-13,24.3248,2.74316,0.000249476,0.00167462,0.00204812,0.00313059,-0.00120649,0.952807,0.00258484,0.0399553,1903,1037,24.3248,-2.74322
686,-13,24.1227,2.60364,-0.00057265,0.00121858,0.00366011,0.00409106,-0.00344513,0.905388,0.00435635,0.0402267,1910,1037,24.1227,-2.60364
693,-13,24.1686,2.71033,-0.00129255,0.000772428,0.00520792,0.00504922,-0.00556934,0.883256,0.00613308,0.0388337,1917,1037,24.1685,-2.71039
700,-13,24.1929,2.6626,-0.00189814,0.0003892,0.00650212,0.00584747,-0.00735641,0.872454,0.00763984,0.0358795,1924,1037,24.1928,-2.66263
707,-13,24.1873,2.72961,-0.00230723,5.05527e-05,0.00741718,0.00638194,-0.00863862,0.864209,0.00870469,0.030319,1931,1037,24.1873,-2.72959
714,-13,24.1548,2.9259,-0.00271431,-0.000147615,0.00802543,0.00669643,-0.00955835,0.864682,0.00943307,0.024868,1938,1037,24.1547,-2.92594
721,-13,24.0573,3.53613,-0.00314826,-0.000206577,0.0083179,0.00676952,-0.0101244,0.872908,0.00981759,0.0326044,1945,1037,24.0573,-3.53609
728,-13,23.6832,4.24976,0,0,0,0,0,0,0,-1,1952,1037,23.6833,-4.24975
735,-13,23.8104,4.25928,-0.00370174,0.000239322,0.00753735,0.00605947,-0.00952189,0.913254,0.00906963,0.0195644,1959,1037,23.8105,-4.25926
742,-13,23.7633,4.27747,-0.00416909,0.000462549,0.00604953,0.00462437,-0.00833091,0.968198,0.00758109,0.012283,1966,1037,23.7633,-4.27746
749,-13,23.7572,4.28271,-0.00389929,0.000358086,0.00420747,0.0029447,-0.00648591,1.01959,0.00557125,0.0170779,1973,1037,23.7572,-4.28273
756,-13,23.7518,4.29138,-0.00331673,0.000844355,0.00239205,0.00193407,-0.00440645,1.14333,0.00375233,0.0140355,1980,1037,23.7519,-4.29139
763,-13,23.7775,4.28979,-0.00245861,0.00156913,0.000401048,0.00160867,-0.00249815,1.47251,0.00238954,0.0134928,1987,1037,23.7774,-4.28985
770,-13,23.7527,4.2915,-0.00152384,0.00212262,-0.00198379,0.00299375,-0.00239497,-1.15702,0.00311757,0.0118947,1994,1037,23.7527,-4.29151
777,-13,23.6907,4.27966,3.14037e-05,0.00276944,-0.00418102,0.00579987,-0.00299903,-0.943615,0.00516512,0.0117107,2001,1037,23.6906,-4.27961
784,-13,23.7118,4.26306,0.00217795,0.00343693,-0.00560679,0.00844946,-0.00283458,-0.8413,0.00677836,0.0273688,2008,1037,23.7117,-4.26309
791,-13,23.7205,3.78137,0.00512401,0.00412589,-0.0064134,0.0110577,-0.00180784,-0.746569,0.00804245,0.0437328,2015,1037,23.7204,-3.78132
798,-13,23.6934,3.53345,0.00939024,0.00508408,-0.00672431,0.0142978,0.000176561,-0.630459,0.00947354,0.0443396,2022,1037,23.6934,-3.53344
805,-13,24.1335,3.65466,0.015432,0.006625,-0.00625419,0.0186774,0.0033796,-0.478666,0.0114919,0.0404817,2029,1037,24.1335,-3.65461
812,-13,24.3716,3.14905,0.0236576,0.00921552,-0.00455746,0.0249755,0.0078976,-0.281501,0.0147407,0.0398139,2036,1037,24.3717,-3.149
-700,-20,-18.2835,-0.727783,0,0,0,0,0,0,0,-1,524,1044,-18.2835,0.727742
-693,-20,-17.8868,-0.252075,0.0597794,0.0194646,0.0371447,0.0818836,-0.00263969,0.536798,0.0554899,0.0431216,531,1044,-17.8869,0.252132
-686,-20,-17.3121,0.326782,0.0526098,0.019447,0.0331925,0.0731322,-0.00107532,0.553754,0.0491171,0.0417656,538,1044,-17.3122,-0.3268
-679,-20,-16.6708,1.35645,0.0446634,0.0184947,0.0285674,0.0630003,0.000157762,0.570648,0.0419477,0.0475332,545,1044,-16.6708,-1.3565
-672,-20,-16.9619,2.53821,0.0367874,0.0169617,0.0238187,0.0526737,0.0010754,0.588211,0.0347629,0.0483027,552,1044,-16.9618,-2.53821
-665,-20,-16.7372,1.70972,0,0,0,0,0,0,0,-1,559,1044,-16.7373,-1.70977
-658,-20,-16.5585,1.5575,0.0225762,0.0129353,0.0149739,0.0334865,0.00202504,0.629674,0.0216809,0.0484699,566,1044,-16.5585,-1.55755
-651,-20,-16.4487,1.47144,0.0166375,0.0106961,0.0111664,0.0252217,0.002112,0.65539,0.0161565,0.0397273,573,1044,-16.4486,-1.47149
-644,-20,-16.5527,1.61389,0.0118226,0.00845603,0.00791279,0.0182292,0.00204946,0.680596,0.0115305,0.0257874,580,1044,-16.5528,-1.61393
-637,-20,-16.5874,1.69141,0.00728711,0.00719845,0.00424836,0.0114914,0.0029942,0.780181,0.00688345,0.0168711,587,1044,-16.5874,-1.69138
-630,-20,-16.6145,1.77429,0.0040029,0.00441938,0.000540693,0.00479055,0.00363173,0.969213,0.00288605,0.0136164,594,1044,-16.6145,-1.77427
-623,-20,-16.5977,1.8092,0.00127198,0.00315459,-0.00266406,0.00503876,-0.000612183,-0.955219,0.00358072,0.0127292,601,1044,-16.5977,-1.80921
-616,-20,-16.5953,1.83118,4.4952e-05,0.00133297,-0.00448765,0.00522258,-0.00384466,-0.856665,0.00525509,0.0119841,608,1044,-16.5953,-1.83113
-609,-20,-16.5917,1.87012,-0.000290997,0.000676127,-0.00530633,0.00552088,-0.00513575,-0.830837,0.00615395,0.0141036,615,1044,-16.5917,-1.87017
-602,-20,-16.5988,1.87976,-0.000363316,0.000326831,-0.00635336,0.00634448,-0.00638097,-0.812528,0.00734705,0.0110553,622,1044,-16.5988,-1.87971
-595,-20,-16.6068,1.85559,-0.000359046,0.000156769,-0.00708949,0.00699304,-0.00719532,-0.80358,0.00819193,0.0144323,629,1044,-16.6068,-1.85555
-588,-20,-16.5764,1.29578,-0.000302567,6.45042e-05,-0.00743236,0.0073156,-0.00755366,-0.797743,0.00858514,0.021348,636,1044,-16.5764,-1.29582
-581,-20,-16.5996,0.857422,-0.000352191,1.17688e-05,-0.00731053,0.00714258,-0.007483,-0.797842,0.00844485,0.0299305,643,1044,-16.5996,-0.857379
-574,-20,-16.6,0.921631,-0.00054386,0.000214374,-0.00682935,0.00667512,-0.00700461,-0.813126,0.00789876,0.0365925,650,1044,-16.6,-0.921608
-567,-20,-16.6072,1.10339,-0.000801674,0.000503127,-0.0059295,0.005816,-0.00611455,-0.840191,0.00688883,0.0439154,657,1044,-16.6072,-1.10341
-560,-20,-16.627,1.37183,-0.00106804,0.000808939,-0.00468567,0.00464918,-0.00490828,-0.884235,0.00551868,0.044412,664,1044,-16.6269,-1.37187
-553,-20,-16.6372,1.22705,-0.00134005,0.00102764,-0.00322203,0.00327643,-0.00358884,-0.961453,0.00396503,0.0425576,671,1044,-16.6372,-1.22701
-546,-20,-16.7178,1.08728,0,0,0,0,0,0,0,-1,678,1044,-16.7177,-1.08727
-539,-20,-16.5933,1.12268,-0.00192267,0.000773025,-0.00083026,0.00100822,-0.00215787,-1.29475,0.00186768,0.0416638,685,1044,-16.5933,-1.12273
-532,-20,-16.6576,0.957397,-0.00252621,7.43661e-05,-0.0022664,0.00138699,-0.00383884,-1.04584,0.00312587,0.0412303,692,1044,-16.6576,-0.957371
-525,-20,0,0,0,0,0,0,0,0,0,-1,699,1044,0,0
-518,-20,0,0,0,0,0,0,0,0,0,-1,706,1044,0,0
-511,-20,0,0,0,0,0,0,0,0,0,-1,713,1044,0,0
-504,-20,0,0,0,0,0,0,0,0,0,-1,720,1044,0,0
-497,-20,0,0,0,0,0,0,0,0,0,-1,727,1044,0,0
-490,-20,0,0,0,0,0,0,0,0,0,-1,734,1044,0,0
-483,-20,0,0,0,0,0,0,0,0,0,-1,741,1044,0,0
-476,-20,0,0,0,0,0,0,0,0,0,-1,748,1044,0,0
-469,-20,0,0,0,0,0,0,0,0,0,-1,755,1044,0,0
-462,-20,0,0,0,0,0,0,0,0,0,-1,762,1044,0,0
-455,-20,0,0,0,0,0,0,0,0,0,-1,769,1044,0,0
-448,-20,0,0,0,0,0,0,0,0,0,-1,776,1044,0,0
-441,-20,0,0,0,0,0,0,0,0,0,-1,783,1044,0,0
-434,-20,0,0,0,0,0,0,0,0,0,-1,790,1044,0,0
-427,-20,0,0,0,0,0,0,0,0,0,-1,797,1044,0,0
-420,-20,0,0,0,0,0,0,0,0,0,-1,804,1044,0,0
-413,-20,0,0,0,0,0,0,0,0,0,-1,811,1044,0,0
-406,-20,0,0,0,0,0,0,0,0,0,-1,818,1044,0,0
-399,-20,0,0,0,0,0,0,0,0,0,-1,825,1044,0,0
-392,-20,0,0,0,0,0,0,0,0,0,-1,832,1044,0,0
-385,-20,0,0,0,0,0,0,0,0,0,-1,839,1044,0,0
-378,-20,0,0,0,0,0,0,0,0,0,-1,846,1044,0,0
-371,-20,0,0,0,0,0,0,0,0,0,-1,853,1044,0,0
-364,-20,0,0,0,0,0,0,0,0,0,-1,860,1044,0,0
-357,-20,0,0,0,0,0,0,0,0,0,-1,867,1044,0,0
-350,-20,0,0,0,0,0,0,0,0,0,-1,874,1044,0,0
-343,-20,0,0,0,0,0,0,0,0,0,-1,881,1044,0,0
-336,-20,0,0,0,0,0,0,0,0,0,-1,888,1044,0,0
-329,-20,0,0,0,0,0,0,0,0,0,-1,895,1044,0,0
-322,-20,0,0,0,0,0,0,0,0,0,-1,902,1044,0,0
-315,-20,0,0,0,0,0,0,0,0,0,-1,909,1044,0,0
-308,-20,0,0,0,0,0,0,0,0,0,-1,916,1044,0,0
-301,-20,0,0,0,0,0,0,0,0,0,-1,923,1044,0,0
-294,-20,0,0,0,0,0,0,0,0,0,-1,930,1044,0,0
-287,-20,0,0,0,0,0,0,0,0,0,-1,937,1044,0,0
-280,-20,0,0,0,0,0,0,0,0,0,-1,944,1044,0,0
-273,-20,0,0,0,0,0,0,0,0,0,-1,951,1044,0,0
-266,-20,0,0,0,0,0,0,0,0,0,-1,958,1044,0,0
-259,-20,0,0,0,0,0,0,0,0,0,-1,965,1044,0,0
-252,-20,0,0,0,0,0,0,0,0,0,-1,972,1044,0,0
-245,-20,0,0,0,0,0,0,0,0,0,-1,979,1044,0,0
-238,-20,0,0,0,0,0,0,0,0,0,-1,986,1044,0,0
-231,-20,0,0,0,0,0,0,0,0,0,-1,993,1044,0,0
-224,-20,0,0,0,0,0,0,0,0,0,-1,1000,1044,0,0
-217,-20,0,0,0,0,0,0,0,0,0,-1,1007,1044,0,0
-210,-20,0,0,0,0,0,0,0,0,0,-1,1014,1044,0,0
-203,-20,0,0,0,0,0,0,0,0,0,-1,1021,1044,0,0
-196,-20,0,0,0,0,0,0,0,0,0,-1,1028,1044,0,0
-189,-20,0,0,0,0,0,0,0,0,0,-1,1035,1044,0,0
-182,-20,0,0,0,0,0,0,0,0,0,-1,1042,1044,0,0
-175,-20,0,0,0,0,0,0,0,0,0,-1,1049,1044,0,0
-168,-20,0,0,0,0,0,0,0,0,0,-1,1056,1044,0,0
-161,-20,0,0,0,0,0,0,0,0,0,-1,1063,1044,0,0
-154,-20,0,0,0,0,0,0,0,0,0,-1,1070,1044,0,0
-147,-20,0,0,0,0,0,0,0,0,0,-1,1077,1044,0,0
-140,-20,0,0,0,0,0,0,0,0,0,-1,1084,1044,0,0
-133,-20,0,0,0,0,0,0,0,0,0,-1,1091,1044,0,0
-126,-20,0,0,0,0,0,0,0,0,0,-1,1098,1044,0,0
-119,-20,0,0,0,0,0,0,0,0,0,-1,1105,1044,0,0
-112,-20,0,0,0,0,0,0,0,0,0,-1,1112,1044,0,0
-105,-20,0,0,0,0,0,0,0,0,0,-1,1119,1044,0,0
-98,-20,0,0,0,0,0,0,0,0,0,-1,1126,1044,0,0
-91,-20,0,0,0,0,0,0,0,0,0,-1,1133,1044,0,0
-84,-20,0,0,0,0,0,0,0,0,0,-1,1140,1044,0,0
-77,-20,0,0,0,0,0,0,0,0,0,-1,1147,1044,0,0
-70,-20,0,0,0,0,0,0,0,0,0,-1,1154,1044,0,0
-63,-20,0,0,0,0,0,0,0,0,0,-1,1161,1044,0,0
-56,-20,0,0,0,0,0,0,0,0,0,-1,1168,1044,0,0
-49,-20,0,0,0,0,0,0,0,0,0,-1,1175,1044,0,0
-42,-20,0,0,0,0,0,0,0,0,0,-1,1182,1044,0,0
-35,-20,0,0,0,0,0,0,0,0,0,-1,1189,1044,0,0
-28,-20,0,0,0,0,0,0,0,0,0,-1,1196,1044,0,0
-21,-20,0,0,0,0,0,0,0,0,0,-1,1203,1044,0,0
-14,-20,0,0,0,0,0,0,0,0,0,-1,1210,1044,0,0
-7,-20,0,0,0,0,0,0,0,0,0,-1,1217,1044,0,0
0,-20,0,0,0,0,0,0,0,0,0,-1,1224,1044,0,0
7,-20,0,0,0,0,0,0,0,0,0,-1,1231,1044,0,0
14,-20,0,0,0,0,0,0,0,0,0,-1,1238,1044,0,0
21,-20,0,0,0,0,0,0,0,0,0,-1,1245,1044,0,0
28,-20,0,0,0,0,0,0,0,0,0,-1,1252,1044,0,0
35,-20,0,0,0,0,0,0,0,0,0,-1,1259,1044,0,0
42,-20,0,0,0,0,0,0,0,0,0,-1,1266,1044,0,0
49,-20,0,0,0,0,0,0,0,0,0,-1,1273,1044,0,0
56,-20,0,0,0,0,0,0,0,0,0,-1,1280,1044,0,0
63,-20,0,0,0,0,0,0,0,0,0,-1,1287,1044,0,0
70,-20,0,0,0,0,0,0,0,0,0,-1,1294,1044,0,0
77,-20,0,0,0,0,0,0,0,0,0,-1,1301,1044,0,0
84,-20,0,0,0,0,0,0,0,0,0,-1,1308,1044,0,0
91,-20,0,0,0,0,0,0,0,0,0,-1,1315,1044,0,0
98,-20,0,0,0,0,0,0,0,0,0,-1,1322,1044,0,0
105,-20,0,0,0,0,0,0,0,0,0,-1,1329,1044,0,0
112,-20,0,0,0,0,0,0,0,0,0,-1,1336,1044,0,0
119,-20,0,0,0,0,0,0,0,0,0,-1,1343,1044,0,0
126,-20,0,0,0,0,0,0,0,0,0,-1,1350,1044,0,0
133,-20,0,0,0,0,0,0,0,0,0,-1,1357,1044,0,0
140,-20,0,0,0,0,0,0,0,0,0,-1,1364,1044,0,0
147,-20,0,0,0,0,0,0,0,0,0,-1,1371,1044,0,0
154,-20,0,0,0,0,0,0,0,0,0,-1,1378,1044,0,0
161,-20,0,0,0,0,0,0,0,0,0,-1,1385,1044,0,0
168,-20,0,0,0,0,0,0,0,0,0,-1,1392,1044,0,0
175,-20,0,0,0,0,0,0,0,0,0,-1,1399,1044,0,0
182,-20,0,0,0,0,0,0,0,0,0,-1,1406,1044,0,0
189,-20,0,0,0,0,0,0,0,0,0,-1,1413,1044,0,0
196,-20,0,0,0,0,0,0,0,0,0,-1,1420,1044,0,0
203,-20,0,0,0,0,0,0,0,0,0,-1,1427,1044,0,0
210,-20,0,0,0,0,0,0,0,0,0,-1,1434,1044,0,0
217,-20,0,0,0,0,0,0,0,0,0,-1,1441,1044,0,0
224,-20,0,0,0,0,0,0,0,0,0,-1,1448,1044,0,0
231,-20,0,0,0,0,0,0,0,0,0,-1,1455,1044,0,0
238,-20,0,0,0,0,0,0,0,0,0,-1,1462,1044,0,0
245,-20,0,0,0,0,0,0,0,0,0,-1,1469,1044,0,0
252,-20,0,0,0,0,0,0,0,0,0,-1,1476,1044,0,0
259,-20,0,0,0,0,0,0,0,0,0,-1,1483,1044,0,0
266,-20,0,0,0,0,0,0,0,0,0,-1,1490,1044,0,0
273,-20,0,0,0,0,0,0,0,0,0,-1,1497,1044,0,0
280,-20,0,0,0,0,0,0,0,0,0,-1,1504,1044,0,0
287,-20,0,0,0,0,0,0,0,0,0,-1,1511,1044,0,0
294,-20,0,0,0,0,0,0,0,0,0,-1,1518,1044,0,0
301,-20,0,0,0,0,0,0,0,0,0,-1,1525,1044,0,0
308,-20,0,0,0,0,0,0,0,0,0,-1,1532,1044,0,0
315,-20,0,0,0,0,0,0,0,0,0,-1,1539,1044,0,0
322,-20,0,0,0,0,0,0,0,0,0,-1,1546,1044,0,0
329,-20,0,0,0,0,0,0,0,0,0,-1,1553,1044,0,0
336,-20,0,0,0,0,0,0,0,0,0,-1,1560,1044,0,0
343,-20,0,0,0,0,0,0,0,0,0,-1,1567,1044,0,0
350,-20,0,0,0,0,0,0,0,0,0,-1,1574,1044,0,0
357,-20,0,0,0,0,0,0,0,0,0,-1,1581,1044,0,0
364,-20,0,0,0,0,0,0,0,0,0,-1,1588,1044,0,0
371,-20,0,0,0,0,0,0,0,0,0,-1,1595,1044,0,0
378,-20,0,0,0,0,0,0,0,0,0,-1,1602,1044,0,0
385,-20,0,0,0,0,0,0,0,0,0,-1,1609,1044,0,0
392,-20,0,0,0,0,0,0,0,0,0,-1,1616,1044,0,0
399,-20,0,0,0,0,0,0,0,0,0,-1,1623,1044,0,0
406,-20,0,0,0,0,0,0,0,0,0,-1,1630,1044,0,0
413,-20,0,0,0,0,0,0,0,0,0,-1,1637,1044,0,0
420,-20,0,0,0,0,0,0,0,0,0,-1,1644,1044,0,0
427,-20,0,0,0,0,0,0,0,0,0,-1,1651,1044,0,0
434,-20,0,0,0,0,0,0,0,0,0,-1,1658,1044,0,0
441,-20,0,0,0,0,0,0,0,0,0,-1,1665,1044,0,0
448,-20,0,0,0,0,0,0,0,0,0,-1,1672,1044,0,0
455,-20,0,0,0,0,0,0,0,0,0,-1,1679,1044,0,0
462,-20,0,0,0,0,0,0,0,0,0,-1,1686,1044,0,0
469,-20,0,0,0,0,0,0,0,0,0,-1,1693,1044,0,0
476,-20,0,0,0,0,0,0,0,0,0,-1,1700,1044,0,0
483,-20,0,0,0,0,0,0,0,0,0,-1,1707,1044,0,0
490,-20,0,0,0,0,0,0,0,0,0,-1,1714,1044,0,0
497,-20,0,0,0,0,0,0,0,0,0,-1,1721,1044,0,0
504,-20,0,0,0,0,0,0,0,0,0,-1,1728,1044,0,0
511,-20,0,0,0,0,0,0,0,0,0,-1,1735,1044,0,0
518,-20,0,0,0,0,0,0,0,0,0,-1,1742,1044,0,0
525,-20,0,0,0,0,0,0,0,0,0,-1,1749,1044,0,0
532,-20,0,0,0,0,0,0,0,0,0,-1,1756,1044,0,0
539,-20,0,0,0,0,0,0,0,0,0,-1,1763,1044,0,0
546,-20,0,0,0,0,0,0,0,0,0,-1,1770,1044,0,0
553,-20,0,0,0,0,0,0,0,0,0,-1,1777,1044,0,0
560,-20,0,0,0,0,0,0,0,0,0,-1,1784,1044,0,0
567,-20,0,0,0,0,0,0,0,0,0,-1,1791,1044,0,0
574,-20,0,0,0,0,0,0,0,0,0,-1,1798,1044,0,0
581,-20,0,0,0,0,0,0,0,0,0,-1,1805,1044,0,0
588,-20,0,0,0,0,0,0,0,0,0,-1,1812,1044,0,0
595,-20,0,0,0,0,0,0,0,0,0,-1,1819,1044,0,0
602,-20,0,0,0,0,0,0,0,0,0,-1,1826,1044,0,0
609,-20,0,0,0,0,0,0,0,0,0,-1,1833,1044,0,0
616,-20,0,0,0,0,0,0,0,0,0,-1,1840,1044,0,0
623,-20,0,0,0,0,0,0,0,0,0,-1,1847,1044,0,0
630,-20,0,0,0,0,0,0,0,0,0,-1,1854,1044,0,0
637,-20,0,0,0,0,0,0,0,0,0,-1,1861,1044,0,0
644,-20,0,0,0,0,0,0,0,0,0,-1,1868,1044,0,0
651,-20,24.084,2.67859,0.00154464,0.00374647,0.00147997,0.0044901,0.000801013,1.10518,0.00276534,0.0409922,1875,1044,24.084,-2.67862
658,-20,23.9885,2.68762,0.00146022,0.00308412,0.000675627,0.00332845,0.00121588,1.22379,0.00194479,0.0438849,1882,1044,23.9885,-2.68757
665,-20,24.0573,2.72119,0.0011921,0.00254869,0.000257072,0.00259577,0.00114502,1.38966,0.00150213,0.0422585,1889,1044,24.0572,-2.7212
672,-20,24.251,2.79883,0.000842222,0.00214758,0.000733652,0.00247686,0.000512946,1.14893,0.00150959,0.0273272,1896,1044,24.251,-2.79878
679,-20,24.2025,2.60242,0.000217971,0.00165536,0.00219131,0.00324282,-0.00136949,0.943858,0.00273516,0.0290338,1903,1044,24.2025,-2.60245
686,-20,24.2723,2.47278,-0.000547953,0.00113427,0.00388917,0.00427224,-0.00368592,0.891893,0.0045988,0.0372242,1910,1044,24.2724,-2.47276
693,-20,24.2037,2.46558,-0.00122968,0.000627446,0.00550895,0.00528555,-0.00588778,0.868891,0.00645405,0.0410698,1917,1044,24.2037,-2.46558
700,-20,24.1654,2.63379,-0.00181406,0.000184971,0.00687589,0.00613361,-0.0077627,0.857575,0.0080414,0.0380332,1924,1044,24.1654,-2.63381
707,-20,24.2021,2.68982,-0.00220839,-0.000177882,0.00783593,0.00670829,-0.00909456,0.849821,0.00915839,0.0296355,1931,1044,24.2022,-2.68984
714,-20,24.1871,2.8269,-0.00258947,-0.000402622,0.00846699,0.00704126,-0.0100334,0.849613,0.00990836,0.0222248,1938,1044,24.1872,-2.82687
721,-20,24.1879,3.09412,-0.00300126,-0.000481686,0.00874547,0.00709426,-0.0105772,0.856931,0.0102685,0.0224144,1945,1044,24.1879,-3.09411
728,-20,23.8243,4.21851,0,0,0,0,0,0,0,-1,1952,1044,23.8243,-4.21852
735,-20,23.7695,4.26196,-0.00355679,-5.06485e-05,0.00795112,0.00633837,-0.00994581,0.893903,0.00947826,0.0170632,1959,1044,23.7695,-4.26198
742,-20,23.7445,4.27625,-0.00398066,0.000251286,0.00652976,0.00499936,-0.00872874,0.942085,0.00802282,0.0159607,1966,1044,23.7445,-4.27626
749,-20,23.7722,4.26868,-0.00367813,0.000204654,0.00479277,0.0034343,-0.00690778,0.977832,0.00608222,0.0170785,1973,1044,23.7722,-4.26865
756,-20,23.7722,4.27527,-0.00300609,0.000813661,0.00291481,0.00238857,-0.004581,1.07542,0.00408971,0.0134146,1980,1044,23.7723,-4.27532
763,-20,23.751,4.25928,-0.00202688,0.00161024,0.000827281,0.00178957,-0.00220621,1.35733,0.00231114,0.0149337,1987,1044,23.7509,-4.2593
770,-20,23.7388,4.28271,-0.000966473,0.00229161,-0.00162091,0.00296064,-0.0016355,-1.17935,0.00269009,0.0136091,1994,1044,23.7388,-4.28271
777,-20,23.6876,4.26672,0.000763299,0.00309355,-0.00397206,0.00606784,-0.002211,-0.928061,0.00494967,0.0125981,2001,1044,23.6876,-4.26676
784,-20,23.6996,4.26758,0.00315425,0.00390914,-0.00559718,0.00914159,-0.0020782,-0.819064,0.00689237,0.0167526,2008,1044,23.6995,-4.2676
791,-20,23.6742,3.95886,0.00636136,0.00474991,-0.00676752,0.012371,-0.00125967,-0.726148,0.00869765,0.0329357,2015,1044,23.6742,-3.9588
798,-20,23.6548,3.62366,0.0109313,0.00586972,-0.0077215,0.0165262,0.000274834,-0.627036,0.010927,0.0416855,2022,1044,23.6548,-3.62369
805,-20,23.7756,3.45654,0.0173592,0.00756943,-0.00830841,0.0221074,0.0028212,-0.519197,0.0138937,0.0425217,2029,1044,23.7757,-3.45649
812,-20,23.8621,3.25647,0.0260977,0.0102938,-0.0082793,0.0296408,0.0067508,-0.404357,0.0179388,0.0449662,2036,1044,23.8621,-3.25646
-700,-27,-17.2704,0.96106,0,0,0,0,0,0,0,-1,524,1051,-17.2705,-0.961009
-693,-27,-17.1868,0.206055,0,0,0,0,0,0,0,-1,531,1051,-17.1867,-0.206014
-686,-27,-17.2814,0.391113,0.0443737,0.0131777,0.0227003,0.0563184,0.00123294,0.484381,0.0371415,0.0411219,538,1051,-17.2814,-0.391137
-679,-27,-18.2613,1.92883,0.0393803,0.0136053,0.0207163,0.0508906,0.00209499,0.507144,0.0332508,0.0482097,545,1051,-18.2613,-1.92889
-672,-27,-17.6677,1.60083,0.0335776,0.0132206,0.0180122,0.0440883,0.00270993,0.528221,0.0285318,0.0470821,552,1051,-17.6677,-1.60087
-665,-27,-17.1818,1.40503,0,0,0,0,0,0,0,-1,559,1051,-17.1818,-1.40506
-658,-27,-16.6725,1.59119,0.0217754,0.0109146,0.0119998,0.0295163,0.00317368,0.572915,0.0187096,0.045621,566,1051,-16.6725,-1.59124
-651,-27,-16.4382,1.63721,0.0164473,0.00929353,0.00914589,0.0226909,0.00304995,0.598996,0.01422,0.034316,573,1051,-16.4382,-1.63718
-644,-27,-16.5057,1.6283,0.0120231,0.00753436,0.00663615,0.0167841,0.00277333,0.622334,0.0103891,0.0161211,580,1051,-16.5058,-1.62834
-637,-27,-16.5538,1.66101,0.00780118,0.00647852,0.00357576,0.0107763,0.00350345,0.693958,0.00634727,0.0119067,587,1051,-16.5538,-1.66101
-630,-27,-16.5771,1.76648,0.00456525,0.00424509,0.00030681,0.00475123,0.00405911,0.544951,0.00296384,0.0154274,594,1051,-16.5772,-1.76652
-623,-27,-16.5622,1.81616,0.00178505,0.00308435,-0.00273793,0.00524865,-0.000379247,-0.901883,0.00363212,0.0146026,601,1051,-16.5622,-1.81622
-616,-27,-16.5536,1.87085,0.000244043,0.00122862,-0.00454613,0.00530903,-0.00383637,-0.839332,0.00530287,0.0128097,608,1051,-16.5536,-1.87087
-609,-27,-16.5779,1.93811,-0.00041382,0.000639136,-0.0054917,0.00562953,-0.00540422,-0.833186,0.00637078,0.013837,615,1051,-16.5779,-1.93816
-602,-27,-16.5649,1.97473,-0.000620534,0.000374586,-0.00663107,0.00652674,-0.00677269,-0.822845,0.00767887,0.0117103,622,1051,-16.5649,-1.97471
-595,-27,-16.5778,1.9718,-0.000666554,0.000320252,-0.00742953,0.00727275,-0.00761905,-0.818555,0.00859856,0.0110336,629,1051,-16.5778,-1.97184
-588,-27,-16.6047,1.43896,-0.000585833,0.000383085,-0.00779771,0.00771137,-0.00791412,-0.816422,0.00902164,0.0184812,636,1051,-16.6047,-1.43895
-581,-27,-16.5599,0.909058,-0.000556249,0.000510036,-0.0077059,0.00770122,-0.00774743,-0.819936,0.00891929,0.0224829,643,1051,-16.5599,-0.909093
-574,-27,-16.5902,1.00989,-0.000634742,0.000934332,-0.00724645,0.00743859,-0.007139,-0.839321,0.00841697,0.0327648,650,1051,-16.5902,-1.00988
-567,-27,-16.5971,1.21704,-0.00072953,0.00147295,-0.00634173,0.00680835,-0.00606493,-0.871366,0.00743652,0.0437949,657,1051,-16.5971,-1.2171
-560,-27,-16.6279,1.44971,-0.000766945,0.00202061,-0.00506129,0.00587653,-0.00462286,-0.919758,0.00607621,0.0457521,664,1051,-16.6279,-1.44969
-553,-27,-16.6097,1.48267,-0.000732434,0.00243237,-0.00352388,0.00471283,-0.0030129,-0.996431,0.0044963,0.0429249,671,1051,-16.6097,-1.48267
-546,-27,-16.5163,1.16809,-0.000629472,0.00251188,-0.00187332,0.00338586,-0.00150345,-1.13427,0.00289174,0.0434984,678,1051,-16.5163,-1.16804
-539,-27,-16.6306,1.06421,-0.000464035,0.00215291,-0.000885218,0.00242422,-0.000735345,-1.2734,0.00190906,0.0420372,685,1051,-16.6305,-1.06424
-532,-27,-16.8094,1.09863,-0.000594031,0.000911841,-0.00235963,0.00263575,-0.00231794,-0.939837,0.00286197,0.0441234,692,1051,-16.8094,-1.09864
-525,-27,0,0,0,0,0,0,0,0,0,-1,699,1051,0,0
-518,-27,0,0,0,0,0,0,0,0,0,-1,706,1051,0,0
-511,-27,0,0,0,0,0,0,0,0,0,-1,713,1051,0,0
-504,-27,0,0,0,0,0,0,0,0,0,-1,720,1051,0,0
-497,-27,0,0,0,0,0,0,0,0,0,-1,727,1051,0,0
-490,-27,0,0,0,0,0,0,0,0,0,-1,734,1051,0,0
-483,-27,0,0,0,0,0,0,0,0,0,-1,741,1051,0,0
-476,-27,0,0,0,0,0,0,0,0,0,-1,748,1051,0,0
-469,-27,0,0,0,0,0,0,0,0,0,-1,755,1051,0,0
-462,-27,0,0,0,0,0,0,0,0,0,-1,762,1051,0,0
-455,-27,0,0,0,0,0,0,0,0,0,-1,769,1051,0,0
-448,-27,0,0,0,0,0,0,0,0,0,-1,776,1051,0,0
-441,-27,0,0,0,0,0,0,0,0,0,-1,783,1051,0,0
-434,-27,0,0,0,0,0,0,0,0,0,-1,790,1051,0,0
-427,-27,0,0,0,0,0,0,0,0,0,-1,797,1051,0,0
-420,-27,0,0,0,0,0,0,0,0,0,-1,804,1051,0,0
-413,-27,0,0,0,0,0,0,0,0,0,-1,811,1051,0,0
-406,-27,0,0,0,0,0,0,0,0,0,-1,818,1051,0,0
-399,-27,0,0,0,0,0,0,0,0,0,-1,825,1051,0,0
-392,-27,0,0,0,0,0,0,0,0,0,-1,832,1051,0,0
-385,-27,0,0,0,0,0,0,0,0,0,-1,839,1051,0,0
-378,-27,0,0,0,0,0,0,0,0,0,-1,846,1051,0,0
-371,-27,0,0,0,0,0,0,0,0,0,-1,853,1051,0,0
-364,-27,0,0,0,0,0,0,0,0,0,-1,860,1051,0,0
-357,-27,0,0,0,0,0,0,0,0,0,-1,867,1051,0,0
-350,-27,0,0,0,0,0,0,0,0,0,-1,874,1051,0,0
-343,-27,0,0,0,0,0,0,0,0,0,-1,881,1051,0,0
-336,-27,0,0,0,0,0,0,0,0,0,-1,888,1051,0,0
-329,-27,0,0,0,0,0,0,0,0,0,-1,895,1051,0,0
-322,-27,0,0,0,0,0,0,0,0,0,-1,902,1051,0,0
-315,-27,0,0,0,0,0,0,0,0,0,-1,909,1051,0,0
-308,-27,0,0,0,0,0,0,0,0,0,-1,916,1051,0,0
-301,-27,0,0,0,0,0,0,0,0,0,-1,923,1051,0,0
-294,-27,0,0,0,0,0,0,0,0,0,-1,930,1051,0,0
-287,-27,0,0,0,0,0,0,0,0,0,-1,937,1051,0,0
-280,-27,0,0,0,0,0,0,0,0,0,-1,944,1051,0,0
-273,-27,0,0,0,0,0,0,0,0,0,-1,951,1051,0,0
-266,-27,0,0,0,0,0,0,0,0,0,-1,958,1051,0,0
-259,-27,0,0,0,0,0,0,0,0,0,-1,965,1051,0,0
-252,-27,0,0,0,0,0,0,0,0,0,-1,972,1051,0,0
-245,-27,0,0,0,0,0,0,0,0,0,-1,979,1051,0,0
-238,-27,0,0,0,0,0,0,0,0,0,-1,986,1051,0,0
-231,-27,0,0,0,0,0,0,0,0,0,-1,993,1051,0,0
-224,-27,0,0,0,0,0,0,0,0,0,-1,1000,1051,0,0
-217,-27,0,0,0,0,0,0,0,0,0,-1,1007,1051,0,0
-210,-27,0,0,0,0,0,0,0,0,0,-1,1014,1051,0,0
-203,-27,0,0,0,0,0,0,0,0,0,-1,1021,1051,0,0
-196,-27,0,0,0,0,0,0,0,0,0,-1,1028,1051,0,0
-189,-27,0,0,0,0,0,0,0,0,0,-1,1035,1051,0,0
-182,-27,0,0,0,0,0,0,0,0,0,-1,1042,1051,0,0
-175,-27,0,0,0,0,0,0,0,0,0,-1,1049,1051,0,0
-168,-27,0,0,0,0,0,0,0,0,0,-1,1056,1051,0,0
-161,-27,0,0,0,0,0,0,0,0,0,-1,1063,1051,0,0
-154,-27,0,0,0,0,0,0,0,0,0,-1,1070,1051,0,0
-147,-27,0,0,0,0,0,0,0,0,0,-1,1077,1051,0,0
-140,-27,0,0,0,0,0,0,0,0,0,-1,1084,1051,0,0
-133,-27,0,0,0,0,0,0,0,0,0,-1,1091,1051,0,0
-126,-27,0,0,0,0,0,0,0,0,0,-1,1098,1051,0,0
-119,-27,0,0,0,0,0,0,0,0,0,-1,1105,1051,0,0
-112,-27,0,0,0,0,0,0,0,0,0,-1,1112,1051,0,0
-105,-27,0,0,0,0,0,0,0,0,0,-1,1119,1051,0,0
-98,-27,0,0,0,0,0,0,0,0,0,-1,1126,1051,0,0
-91,-27,0,0,0,0,0,0,0,0,0,-1,1133,1051,0,0
-84,-27,0,0,0,0,0,0,0,0,0,-1,1140,1051,0,0
-77,-27,0,0,0,0,0,0,0,0,0,-1,1147,1051,0,0
-70,-27,0,0,0,0,0,0,0,0,0,-1,1154,1051,0,0
-63,-27,0,0,0,0,0,0,0,0,0,-1,1161,1051,0,0
-56,-27,0,0,0,0,0,0,0,0,0,-1,1168,1051,0,0
-49,-27,0,0,0,0,0,0,0,0,0,-1,1175,1051,0,0
-42,-27,0,0,0,0,0,0,0,0,0,-1,1182,1051,0,0
-35,-27,0,0,0,0,0,0,0,0,0,-1,1189,1051,0,0
-28,-27,0,0,0,0,0,0,0,0,0,-1,1196,1051,0,0
-21,-27,0,0,0,0,0,0,0,0,0,-1,1203,1051,0,0
-14,-27,0,0,0,0,0,0,0,0,0,-1,1210,1051,0,0
-7,-27,0,0,0,0,0,0,0,0,0,-1,1217,1051,0,0
0,-27,0,0,0,0,0,0,0,0,0,-1,1224,1051,0,0
7,-27,0,0,0,0,0,0,0,0,0,-1,1231,1051,0,0
14,-27,0,0,0,0,0,0,0,0,0,-1,1238,1051,0,0
21,-27,0,0,0,0,0,0,0,0,0,-1,1245,1051,0,0
28,-27,0,0,0,0,0,0,0,0,0,-1,1252,1051,0,0
35,-27,0,0,0,0,0,0,0,0,0,-1,1259,1051,0,0
42,-27,0,0,0,0,0,0,0,0,0,-1,1266,1051,0,0
49,-27,0,0,0,0,0,0,0,0,0,-1,1273,1051,0,0
56,-27,0,0,0,0,0,0,0,0,0,-1,1280,1051,0,0
63,-27,0,0,0,0,0,0,0,0,0,-1,1287,1051,0,0
70,-27,0,0,0,0,0,0,0,0,0,-1,1294,1051,0,0
77,-27,0,0,0,0,0,0,0,0,0,-1,1301,1051,0,0
84,-27,0,0,0,0,0,0,0,0,0,-1,1308,1051,0,0
91,-27,0,0,0,0,0,0,0,0,0,-1,1315,1051,0,0
98,-27,0,0,0,0,0,0,0,0,0,-1,1322,1051,0,0
105,-27,0,0,0,0,0,0,0,0,0,-1,1329,1051,0,0
112,-27,0,0,0,0,0,0,0,0,0,-1,1336,1051,0,0
119,-27,0,0,0,0,0,0,0,0,0,-1,1343,1051,0,0
126,-27,0,0,0,0,0,0,0,0,0,-1,1350,1051,0,0
133,-27,0,0,0,0,0,0,0,0,0,-1,1357,1051,0,0
140,-27,0,0,0,0,0,0,0,0,0,-1,1364,1051,0,0
147,-27,0,0,0,0,0,0,0,0,0,-1,1371,1051,0,0
154,-27,0,0,0,0,0,0,0,0,0,-1,1378,1051,0,0
161,-27,0,0,0,0,0,0,0,0,0,-1,1385,1051,0,0
168,-27,0,0,0,0,0,0,0,0,0,-1,1392,1051,0,0
175,-27,0,0,0,0,0,0,0,0,0,-1,1399,1051,0,0
182,-27,0,0,0,0,0,0,0,0,0,-1,1406,1051,0,0
189,-27,0,0,0,0,0,0,0,0,0,-1,1413,1051,0,0
196,-27,0,0,0,0,0,0,0,0,0,-1,1420,1051,0,0
203,-27,0,0,0,0,0,0,0,0,0,-1,1427,1051,0,0
210,-27,0,0,0,0,0,0,0,0,0,-1,1434,1051,0,0
217,-27,0,0,0,0,0,0,0,0,0,-1,1441,1051,0,0
224,-27,0,0,0,0,0,0,0,0,0,-1,1448,1051,0,0
231,-27,0,0,0,0,0,0,0,0,0,-1,1455,1051,0,0
238,-27,0,0,0,0,0,0,0,0,0,-1,1462,1051,0,0
245,-27,0,0,0,0,0,0,0,0,0,-1,1469,1051,0,0
252,-27,0,0,0,0,0,0,0,0,0,-1,1476,1051,0,0
259,-27,0,0,0,0,0,0,0,0,0,-1,1483,1051,0,0
266,-27,0,0,0,0,0,0,0,0,0,-1,1490,1051,0,0
273,-27,0,0,0,0,0,0,0,0,0,-1,1497,1051,0,0
280,-27,0,0,0,0,0,0,0,0,0,-1,1504,1051,0,0
287,-27,0,0,0,0,0,0,0,0,0,-1,1511,1051,0,0
294,-27,0,0,0,0,0,0,0,0,0,-1,1518,1051,0,0
301,-27,0,0,0,0,0,0,0,0,0,-1,1525,1051,0,0
308,-27,0,0,0,0,0,0,0,0,0,-1,1532,1051,0,0
315,-27,0,0,0,0,0,0,0,0,0,-1,1539,1051,0,0
322,-27,0,0,0,0,0,0,0,0,0,-1,1546,1051,0,0
329,-27,0,0,0,0,0,0,0,0,0,-1,1553,1051,0,0
336,-27,0,0,0,0,0,0,0,0,0,-1,1560,1051,0,0
343,-27,0,0,0,0,0,0,0,0,0,-1,1567,1051,0,0
350,-27,0,0,0,0,0,0,0,0,0,-1,1574,1051,0,0
357,-27,0,0,0,0,0,0,0,0,0,-1,1581,1051,0,0
364,-27,0,0,0,0,0,0,0,0,0,-1,1588,1051,0,0
371,-27,0,0,0,0,0,0,0,0,0,-1,1595,1051,0,0
378,-27,0,0,0,0,0,0,0,0,0,-1,1602,1051,0,0
385,-27,0,0,0,0,0,0,0,0,0,-1,1609,1051,0,0
392,-27,0,0,0,0,0,0,0,0,0,-1,1616,1051,0,0
399,-27,0,0,0,0,0,0,0,0,0,-1,1623,1051,0,0
406,-27,0,0,0,0,0,0,0,0,0,-1,1630,1051,0,0
413,-27,0,0,0,0,0,0,0,0,0,-1,1637,1051,0,0
420,-27,0,0,0,0,0,0,0,0,0,-1,1644,1051,0,0
427,-27,0,0,0,0,0,0,0,0,0,-1,1651,1051,0,0
434,-27,0,0,0,0,0,0,0,0,0,-1,1658,1051,0,0
441,-27,0,0,0,0,0,0,0,0,0,-1,1665,1051,0,0
448,-27,0,0,0,0,0,0,0,0,0,-1,1672,1051,0,0
455,-27,0,0,0,0,0,0,0,0,0,-1,1679,1051,0,0
462,-27,0,0,0,0,0,0,0,0,0,-1,1686,1051,0,0
469,-27,0,0,0,0,0,0,0,0,0,-1,1693,1051,0,0
476,-27,0,0,0,0,0,0,0,0,0,-1,1700,1051,0,0
483,-27,0,0,0,0,0,0,0,0,0,-1,1707,1051,0,0
490,-27,0,0,0,0,0,0,0,0,0,-1,1714,1051,0,0
497,-27,0,0,0,0,0,0,0,0,0,-1,1721,1051,0,0
504,-27,0,0,0,0,0,0,0,0,0,-1,1728,1051,0,0
511,-27,0,0,0,0,0,0,0,0,0,-1,1735,1051,0,0
518,-27,0,0,0,0,0,0,0,0,0,-1,1742,1051,0,0
525,-27,0,0,0,0,0,0,0,0,0,-1,1749,1051,0,0
532,-27,0,0,0,0,0,0,0,0,0,-1,1756,1051,0,0
539,-27,0,0,0,0,0,0,0,0,0,-1,1763,1051,0,0
546,-27,0,0,0,0,0,0,0,0,0,-1,1770,1051,0,0
553,-27,0,0,0,0,0,0,0,0,0,-1,1777,1051,0,0
560,-27,0,0,0,0,0,0,0,0,0,-1,1784,1051,0,0
567,-27,0,0,0,0,0,0,0,0,0,-1,1791,1051,0,0
574,-27,0,0,0,0,0,0,0,0,0,-1,1798,1051,0,0
581,-27,0,0,0,0,0,0,0,0,0,-1,1805,1051,0,0
588,-27,0,0,0,0,0,0,0,0,0,-1,1812,1051,0,0
595,-27,0,0,0,0,0,0,0,0,0,-1,1819,1051,0,0
602,-27,0,0,0,0,0,0,0,0,0,-1,1826,1051,0,0
609,-27,0,0,0,0,0,0,0,0,0,-1,1833,1051,0,0
616,-27,0,0,0,0,0,0,0,0,0,-1,1840,1051,0,0
623,-27,0,0,0,0,0,0,0,0,0,-1,1847,1051,0,0
630,-27,0,0,0,0,0,0,0,0,0,-1,1854,1051,0,0
637,-27,0,0,0,0,0,0,0,0,0,-1,1861,1051,0,0
644,-27,0,0,0,0,0,0,0,0,0,-1,1868,1051,0,0
651,-27,24.0511,2.85278,0.00104804,0.00295141,0.00160931,0.00386938,0.000130074,1.05242,0.00253734,0.0391315,1875,1051,24.0511,-2.85284
658,-27,23.9773,2.90283,0.00111153,0.00239977,0.000789753,0.00277476,0.000736533,1.12749,0.00165973,0.0383617,1882,1051,23.9773,-2.90283
665,-27,24.0127,2.86975,0.000974214,0.00196207,0.000323978,0.00205885,0.000877442,1.28053,0.00119299,0.0388815,1889,1051,24.0127,-2.86976
672,-27,24.0583,2.85974,0.00073146,0.00160967,0.000799221,0.00208247,0.000258661,1.0366,0.00131063,0.0303181,1896,1051,24.0583,-2.85971
679,-27,24.0596,2.66333,0.000185008,0.00112362,0.0023172,0.00301856,-0.00170993,0.885313,0.00276462,0.0278505,1903,1051,24.0596,-2.66329
686,-27,24.3115,2.46753,-0.000551294,0.000594766,0.0040937,0.00415535,-0.00411188,0.854936,0.00477311,0.0375539,1910,1051,24.3116,-2.46759
693,-27,24.3009,2.47754,-0.00122029,7.86065e-05,0.00578596,0.00525146,-0.00639314,0.841287,0.00673377,0.0392067,1917,1051,24.3009,-2.47757
700,-27,24.1475,2.61133,-0.00180777,-0.000365545,0.00721914,0.00616841,-0.00834172,0.835178,0.00840869,0.0375642,1924,1051,24.1475,-2.61132
707,-27,24.1107,2.71521,-0.00220968,-0.000711816,0.0082176,0.00679091,-0.0097124,0.830841,0.00957783,0.0229734,1931,1051,24.1107,-2.71525
714,-27,24.1327,2.78442,-0.00257873,-0.000918069,0.00887036,0.00716074,-0.0106575,0.832066,0.0103532,0.0173876,1938,1051,24.1327,-2.7844
721,-27,24.1735,3.0448,-0.00297684,-0.000970868,0.00914198,0.00722298,-0.0111707,0.840036,0.0107008,0.0222252,1945,1051,24.1735,-3.04476
728,-27,24.062,3.90857,-0.00327972,-0.000818376,0.00900684,0.00704148,-0.0111396,0.853296,0.0105853,0.0262557,1952,1051,24.062,-3.90862
735,-27,23.7599,4.30615,-0.00353765,-0.000474193,0.00830965,0.00644373,-0.0104556,0.876541,0.00984803,0.0174175,1959,1051,23.7599,-4.30615
742,-27,23.7229,4.31055,-0.00390001,-7.75294e-05,0.00688813,0.0051596,-0.00913715,0.920728,0.00836004,0.0163432,1966,1051,23.723,-4.31049
749,-27,23.7507,4.2876,-0.00357387,6.87187e-05,0.00515414,0.00371389,-0.00721904,0.955233,0.00641936,0.0120126,1973,1051,23.7508,-4.28755
756,-27,23.7548,4.27295,-0.00285903,0.000866279,0.00313598,0.00265107,-0.00464382,1.05338,0.00426377,0.0112477,1980,1051,23.7548,-4.27292
763,-27,23.7432,4.224,-0.00183524,0.0018102,0.000859417,0.00200265,-0.00202769,1.3505,0.00232693,0.0124575,1987,1051,23.7432,-4.22397
770,-27,23.7174,4.19604,-0.00072036,0.00274114,-0.00180092,0.00350815,-0.00148737,-1.16816,0.00296178,0.0142608,1994,1051,23.7174,-4.19602
777,-27,23.6787,4.21924,0.00104915,0.00383237,-0.00443811,0.00709192,-0.00221041,-0.937323,0.00561179,0.0155812,2001,1051,23.6787,-4.21919
784,-27,23.611,4.22595,0.00349395,0.00496795,-0.00642835,0.0107014,-0.00223951,-0.842473,0.00798614,0.0227552,2008,1051,23.6109,-4.226
791,-27,23.4908,4.04895,0.00672148,0.00615865,-0.00814232,0.0145872,-0.00170712,-0.768124,0.0103409,0.0382707,2015,1051,23.4909,-4.04891
798,-27,23.4784,3.79382,0.0113156,0.00766274,-0.00990016,0.0195564,-0.000578073,-0.694182,0.0132345,0.0440528,2022,1051,23.4784,-3.79382
805,-27,23.4829,3.59827,0,0,0,0,0,0,0,-1,2029,1051,23.4829,-3.5983
812,-27,23.6592,3.03613,0,0,0,0,0,0,0,-1,2036,1051,23.6592,-3.03617
-700,-34,-16.6851,0.715454,0.0316111,-0.00072493,0.00113362,0.0316508,-0.000764623,0.0350003,0.0213599,0.0459817,524,1058,-16.6851,-0.715426
-693,-34,-16.7449,0.367432,0.038026,0.00369635,0.00747411,0.0395827,0.00213971,0.205336,0.0257049,0.0483952,531,1058,-16.745,-0.367441
-686,-34,-16.7551,0.384033,0.0382627,0.00642146,0.0102437,0.0412735,0.00341062,0.28587,0.0264522,0.0468548,538,1058,-16.7551,-0.384034
-679,-34,-16.7394,0.175415,0,0,0,0,0,0,0,-1,545,1058,-16.7395,-0.175374
-672,-34,-16.8663,0.371582,0,0,0,0,0,0,0,-1,552,1058,-16.8663,-0.371544
-665,-34,-17.7424,0.408813,0,0,0,0,0,0,0,-1,559,1058,-17.7424,-0.408771
-658,-34,-16.7913,1.59424,0,0,0,0,0,0,0,-1,566,1058,-16.7913,-1.59421
-651,-34,-16.3848,1.55994,0.016761,0.00749158,0.0064002,0.0200284,0.0042242,0.472022,0.0121907,0.0290049,573,1058,-16.3848,-1.55991
-644,-34,-16.4798,1.58105,0.0126359,0.00631658,0.00487667,0.015287,0.00366544,0.497945,0.0092158,0.0128345,580,1058,-16.4798,-1.58105
-637,-34,-16.5153,1.63586,0.00871149,0.00546316,0.00270691,0.0102441,0.00393054,0.515186,0.00596754,0.0127971,587,1058,-16.5153,-1.6359
-630,-34,-16.5297,1.7478,0.00541125,0.00410583,7.41401e-05,0.00541545,0.00410164,0.0565517,0.00326179,0.0134138,594,1058,-16.5297,-1.74777
-623,-34,-16.4969,1.81738,0.0024426,0.00291469,-0.00273386,0.00542268,-6.53795e-05,-0.828462,0.00363711,0.0119379,601,1058,-16.4969,-1.81739
-616,-34,-16.45,1.90881,0.000545876,0.00101484,-0.0045001,0.00528656,-0.00372585,-0.811427,0.00522926,0.0186744,608,1058,-16.4499,-1.90876
-609,-34,-16.4599,1.95911,-0.000481232,0.000449297,-0.00559848,0.00560182,-0.00563375,-0.826856,0.00648687,0.0190788,615,1058,-16.4599,-1.95916
-602,-34,-16.5084,1.98389,-0.000894955,0.000250168,-0.00681175,0.00651338,-0.00715817,-0.827327,0.0078962,0.0150431,622,1058,-16.5083,-1.9839
-595,-34,-16.5313,2.01709,-0.00103329,0.00028665,-0.00768376,0.00733873,-0.00808538,-0.828239,0.00890859,0.0134748,629,1058,-16.5312,-2.01706
-588,-34,-16.6002,1.49158,-0.000919272,0.000481798,-0.00807317,0.00788477,-0.00832224,-0.828676,0.00935826,0.0241915,636,1058,-16.6002,-1.49153
-581,-34,-16.5533,0.968994,-0.000792345,0.000778343,-0.00799514,0.00802662,-0.00804062,-0.834355,0.00927642,0.0248513,643,1058,-16.5533,-0.96901
-574,-34,-16.5453,0.905029,-0.000753572,0.00142304,-0.00754317,0.00795601,-0.00728654,-0.857042,0.00880312,0.0355532,650,1058,-16.5453,-0.90504
-567,-34,-16.5049,1.0199,-0.000663304,0.00222114,-0.00661971,0.00755392,-0.00599608,-0.892656,0.00784031,0.0438335,657,1058,-16.5049,-1.01989
-560,-34,-16.5573,1.26758,-0.000450161,0.00305431,-0.00528804,0.00687286,-0.00426871,-0.945384,0.0064909,0.0451044,664,1058,-16.5572,-1.26752
-553,-34,-16.5469,1.34302,-9.18133e-05,0.00375519,-0.00366056,0.00596685,-0.00230347,-1.0273,0.00492854,0.0450637,671,1058,-16.5469,-1.34298
-546,-34,-16.5307,1.10498,0.000415032,0.00409701,-0.00187169,0.00488137,-0.000369331,-1.17396,0.00338408,0.0436708,678,1058,-16.5307,-1.10499
-539,-34,-16.5861,1.00378,0.00102627,0.00388386,-0.00069877,0.00404558,0.000864551,-1.34337,0.00246004,0.0414264,685,1058,-16.5861,-1.00381
-532,-34,-16.6115,0.913086,0.00130143,0.00255645,-0.00206273,0.00408501,-0.000227126,-0.933056,0.00280212,0.0430308,692,1058,-16.6115,-0.913146
-525,-34,0,0,0,0,0,0,0,0,0,-1,699,1058,0,0
-518,-34,0,0,0,0,0,0,0,0,0,-1,706,1058,0,0
-511,-34,0,0,0,0,0,0,0,0,0,-1,713,1058,0,0
-504,-34,0,0,0,0,0,0,0,0,0,-1,720,1058,0,0
-497,-34,0,0,0,0,0,0,0,0,0,-1,727,1058,0,0
-490,-34,0,0,0,0,0,0,0,0,0,-1,734,1058,0,0
-483,-34,0,0,0,0,0,0,0,0,0,-1,741,1058,0,0
-476,-34,0,0,0,0,0,0,0,0,0,-1,748,1058,0,0
-469,-34,0,0,0,0,0,0,0,0,0,-1,755,1058,0,0
-462,-34,0,0,0,0,0,0,0,0,0,-1,762,1058,0,0
-455,-34,0,0,0,0,0,0,0,0,0,-1,769,1058,0,0
-448,-34,0,0,0,0,0,0,0,0,0,-1,776,1058,0,0
-441,-34,0,0,0,0,0,0,0,0,0,-1,783,1058,0,0
-434,-34,0,0,0,0,0,0,0,0,0,-1,790,1058,0,0
-427,-34,0,0,0,0,0,0,0,0,0,-1,797,1058,0,0
-420,-34,0,0,0,0,0,0,0,0,0,-1,804,1058,0,0
-413,-34,0,0,0,0,0,0,0,0,0,-1,811,1058,0,0
-406,-34,0,0,0,0,0,0,0,0,0,-1,818,1058,0,0
-399,-34,0,0,0,0,0,0,0,0,0,-1,825,1058,0,0
-392,-34,0,0,0,0,0,0,0,0,0,-1,832,1058,0,0
-385,-34,0,0,0,0,0,0,0,0,0,-1,839,1058,0,0
-378,-34,0,0,0,0,0,0,0,0,0,-1,846,1058,0,0
-371,-34,0,0,0,0,0,0,0,0,0,-1,853,1058,0,0
-364,-34,0,0,0,0,0,0,0,0,0,-1,860,1058,0,0
-357,-34,0,0,0,0,0,0,0,0,0,-1,867,1058,0,0
-350,-34,0,0,0,0,0,0,0,0,0,-1,874,1058,0,0
-343,-34,0,0,0,0,0,0,0,0,0,-1,881,1058,0,0
-336,-34,0,0,0,0,0,0,0,0,0,-1,888,1058,0,0
-329,-34,0,0,0,0,0,0,0,0,0,-1,895,1058,0,0
-322,-34,0,0,0,0,0,0,0,0,0,-1,902,1058,0,0
-315,-34,0,0,0,0,0,0,0,0,0,-1,909,1058,0,0
-308,-34,0,0,0,0,0,0,0,0,0,-1,916,1058,0,0
-301,-34,0,0,0,0,0,0,0,0,0,-1,923,1058,0,0
-294,-34,0,0,0,0,0,0,0,0,0,-1,930,1058,0,0
-287,-34,0,0,0,0,0,0,0,0,0,-1,937,1058,0,0
-280,-34,0,0,0,0,0,0,0,0,0,-1,944,1058,0,0
-273,-34,0,0,0,0,0,0,0,0,0,-1,951,1058,0,0
-266,-34,0,0,0,0,0,0,0,0,0,-1,958,1058,0,0
-259,-34,0,0,0,0,0,0,0,0,0,-1,965,1058,0,0
-252,-34,0,0,0,0,0,0,0,0,0,-1,972,1058,0,0
-245,-34,0,0,0,0,0,0,0,0,0,-1,979,1058,0,0
-238,-34,0,0,0,0,0,0,0,0,0,-1,986,1058,0,0
-231,-34,0,0,0,0,0,0,0,0,0,-1,993,1058,0,0
-224,-34,0,0,0,0,0,0,0,0,0,-1,1000,1058,0,0
-217,-34,0,0,0,0,0,0,0,0,0,-1,1007,1058,0,0
-210,-34,0,0,0,0,0,0,0,0,0,-1,1014,1058,0,0
-203,-34,0,0,0,0,0,0,0,0,0,-1,1021,1058,0,0
-196,-34,0,0,0,0,0,0,0,0,0,-1,1028,1058,0,0
-189,-34,0,0,0,0,0,0,0,0,0,-1,1035,1058,0,0
-182,-34,0,0,0,0,0,0,0,0,0,-1,1042,1058,0,0
-175,-34,0,0,0,0,0,0,0,0,0,-1,1049,1058,0,0
-168,-34,0,0,0,0,0,0,0,0,0,-1,1056,1058,0,0
-161,-34,0,0,0,0,0,0,0,0,0,-1,1063,1058,0,0
-154,-34,0,0,0,0,0,0,0,0,0,-1,1070,1058,0,0
-147,-34,0,0,0,0,0,0,0,0,0,-1,1077,1058,0,0
-140,-34,0,0,0,0,0,0,0,0,0,-1,1084,1058,0,0
-133,-34,0,0,0,0,0,0,0,0,0,-1,1091,1058,0,0
-126,-34,0,0,0,0,0,0,0,0,0,-1,1098,1058,0,0
-119,-34,0,0,0,0,0,0,0,0,0,-1,1105,1058,0,0
-112,-34,0,0,0,0,0,0,0,0,0,-1,1112,1058,0,0
-105,-34,0,0,0,0,0,0,0,0,0,-1,1119,1058,0,0
-98,-34,0,0,0,0,0,0,0,0,0,-1,1126,1058,0,0
-91,-34,0,0,0,0,0,0,0,0,0,-1,1133,1058,0,0
-84,-34,0,0,0,0,0,0,0,0,0,-1,1140,1058,0,0
-77,-34,0,0,0,0,0,0,0,0,0,-1,1147,1058,0,0
-70,-34,0,0,0,0,0,0,0,0,0,-1,1154,1058,0,0
-63,-34,0,0,0,0,0,0,0,0,0,-1,1161,1058,0,0
-56,-34,0,0,0,0,0,0,0,0,0,-1,1168,1058,0,0
-49,-34,0,0,0,0,0,0,0,0,0,-1,1175,1058,0,0
-42,-34,0,0,0,0,0,0,0,0,0,-1,1182,1058,0,0
-35,-34,0,0,0,0,0,0,0,0,0,-1,1189,1058,0,0
-28,-34,0,0,0,0,0,0,0,0,0,-1,1196,1058,0,0
-21,-34,0,0,0,0,0,0,0,0,0,-1,1203,1058,0,0
-14,-34,0,0,0,0,0,0,0,0,0,-1,1210,1058,0,0
-7,-34,0,0,0,0,0,0,0,0,0,-1,1217,1058,0,0
0,-34,0,0,0,0,0,0,0,0,0,-1,1224,1058,0,0
7,-34,0,0,0,0,0,0,0,0,0,-1,1231,1058,0,0
14,-34,0,0,0,0,0,0,0,0,0,-1,1238,1058,0,0
21,-34,0,0,0,0,0,0,0,0,0,-1,1245,1058,0,0
28,-34,0,0,0,0,0,0,0,0,0,-1,1252,1058,0,0
35,-34,0,0,0,0,0,0,0,0,0,-1,1259,1058,0,0
42,-34,0,0,0,0,0,0,0,0,0,-1,1266,1058,0,0
49,-34,0,0,0,0,0,0,0,0,0,-1,1273,1058,0,0
56,-34,0,0,0,0,0,0,0,0,0,-1,1280,1058,0,0
63,-34,0,0,0,0,0,0,0,0,0,-1,1287,1058,0,0
70,-34,0,0,0,0,0,0,0,0,0,-1,1294,1058,0,0
77,-34,0,0,0,0,0,0,0,0,0,-1,1301,1058,0,0
84,-34,0,0,0,0,0,0,0,0,0,-1,1308,1058,0,0
91,-34,0,0,0,0,0,0,0,0,0,-1,1315,1058,0,0
98,-34,0,0,0,0,0,0,0,0,0,-1,1322,1058,0,0
105,-34,0,0,0,0,0,0,0,0,0,-1,1329,1058,0,0
112,-34,0,0,0,0,0,0,0,0,0,-1,1336,1058,0,0
119,-34,0,0,0,0,0,0,0,0,0,-1,1343,1058,0,0
126,-34,0,0,0,0,0,0,0,0,0,-1,1350,1058,0,0
133,-34,0,0,0,0,0,0,0,0,0,-1,1357,1058,0,0
140,-34,0,0,0,0,0,0,0,0,0,-1,1364,1058,0,0
147,-34,0,0,0,0,0,0,0,0,0,-1,1371,1058,0,0
154,-34,0,0,0,0,0,0,0,0,0,-1,1378,1058,0,0
161,-34,0,0,0,0,0,0,0,0,0,-1,1385,1058,0,0
168,-34,0,0,0,0,0,0,0,0,0,-1,1392,1058,0,0
175,-34,0,0,0,0,0,0,0,0,0,-1,1399,1058,0,0
182,-34,0,0,0,0,0,0,0,0,0,-1,1406,1058,0,0
189,-34,0,0,0,0,0,0,0,0,0,-1,1413,1058,0,0
196,-34,0,0,0,0,0,0,0,0,0,-1,1420,1058,0,0
203,-34,0,0,0,0,0,0,0,0,0,-1,1427,1058,0,0
210,-34,0,0,0,0,0,0,0,0,0,-1,1434,1058,0,0
217,-34,0,0,0,0,0,0,0,0,0,-1,1441,1058,0,0
224,-34,0,0,0,0,0,0,0,0,0,-1,1448,1058,0,0
231,-34,0,0,0,0,0,0,0,0,0,-1,1455,1058,0,0
238,-34,0,0,0,0,0,0,0,0,0,-1,1462,1058,0,0
245,-34,0,0,0,0,0,0,0,0,0,-1,1469,1058,0,0
252,-34,0,0,0,0,0,0,0,0,0,-1,1476,1058,0,0
259,-34,0,0,0,0,0,0,0,0,0,-1,1483,1058,0,0
266,-34,0,0,0,0,0,0,0,0,0,-1,1490,1058,0,0
273,-34,0,0,0,0,0,0,0,0,0,-1,1497,1058,0,0
280,-34,0,0,0,0,0,0,0,0,0,-1,1504,1058,0,0
287,-34,0,0,0,0,0,0,0,0,0,-1,1511,1058,0,0
294,-34,0,0,0,0,0,0,0,0,0,-1,1518,1058,0,0
301,-34,0,0,0,0,0,0,0,0,0,-1,1525,1058,0,0
308,-34,0,0,0,0,0,0,0,0,0,-1,1532,1058,0,0
315,-34,0,0,0,0,0,0,0,0,0,-1,1539,1058,0,0
322,-34,0,0,0,0,0,0,0,0,0,-1,1546,1058,0,0
329,-34,0,0,0,0,0,0,0,0,0,-1,1553,1058,0,0
336,-34,0,0,0,0,0,0,0,0,0,-1,1560,1058,0,0
343,-34,0,0,0,0,0,0,0,0,0,-1,1567,1058,0,0
350,-34,0,0,0,0,0,0,0,0,0,-1,1574,1058,0,0
357,-34,0,0,0,0,0,0,0,0,0,-1,1581,1058,0,0
364,-34,0,0,0,0,0,0,0,0,0,-1,1588,1058,0,0
371,-34,0,0,0,0,0,0,0,0,0,-1,1595,1058,0,0
378,-34,0,0,0,0,0,0,0,0,0,-1,1602,1058,0,0
385,-34,0,0,0,0,0,0,0,0,0,-1,1609,1058,0,0
392,-34,0,0,0,0,0,0,0,0,0,-1,1616,1058,0,0
399,-34,0,0,0,0,0,0,0,0,0,-1,1623,1058,0,0
406,-34,0,0,0,0,0,0,0,0,0,-1,1630,1058,0,0
413,-34,0,0,0,0,0,0,0,0,0,-1,1637,1058,0,0
420,-34,0,0,0,0,0,0,0,0,0,-1,1644,1058,0,0
427,-34,0,0,0,0,0,0,0,0,0,-1,1651,1058,0,0
434,-34,0,0,0,0,0,0,0,0,0,-1,1658,1058,0,0
441,-34,0,0,0,0,0,0,0,0,0,-1,1665,1058,0,0
448,-34,0,0,0,0,0,0,0,0,0,-1,1672,1058,0,0
455,-34,0,0,0,0,0,0,0,0,0,-1,1679,1058,0,0
462,-34,0,0,0,0,0,0,0,0,0,-1,1686,1058,0,0
469,-34,0,0,0,0,0,0,0,0,0,-1,1693,1058,0,0
476,-34,0,0,0,0,0,0,0,0,0,-1,1700,1058,0,0
483,-34,0,0,0,0,0,0,0,0,0,-1,1707,1058,0,0
490,-34,0,0,0,0,0,0,0,0,0,-1,1714,1058,0,0
497,-34,0,0,0,0,0,0,0,0,0,-1,1721,1058,0,0
504,-34,0,0,0,0,0,0,0,0,0,-1,1728,1058,0,0
511,-34,0,0,0,0,0,0,0,0,0,-1,1735,1058,0,0
518,-34,0,0,0,0,0,0,0,0,0,-1,1742,1058,0,0
525,-34,0,0,0,0,0,0,0,0,0,-1,1749,1058,0,0
532,-34,0,0,0,0,0,0,0,0,0,-1,1756,1058,0,0
539,-34,0,0,0,0,0,0,0,0,0,-1,1763,1058,0,0
546,-34,0,0,0,0,0,0,0,0,0,-1,1770,1058,0,0
553,-34,0,0,0,0,0,0,0,0,0,-1,1777,1058,0,0
560,-34,0,0,0,0,0,0,0,0,0,-1,1784,1058,0,0
567,-34,0,0,0,0,0,0,0,0,0,-1,1791,1058,0,0
574,-34,0,0,0,0,0,0,0,0,0,-1,1798,1058,0,0
581,-34,0,0,0,0,0,0,0,0,0,-1,1805,1058,0,0
588,-34,0,0,0,0,0,0,0,0,0,-1,1812,1058,0,0
595,-34,0,0,0,0,0,0,0,0,0,-1,1819,1058,0,0
602,-34,0,0,0,0,0,0,0,0,0,-1,1826,1058,0,0
609,-34,0,0,0,0,0,0,0,0,0,-1,1833,1058,0,0
616,-34,0,0,0,0,0,0,0,0,0,-1,1840,1058,0,0
623,-34,0,0,0,0,0,0,0,0,0,-1,1847,1058,0,0
630,-34,0,0,0,0,0,0,0,0,0,-1,1854,1058,0,0
637,-34,0,0,0,0,0,0,0,0,0,-1,1861,1058,0,0
644,-34,0,0,0,0,0,0,0,0,0,-1,1868,1058,0,0
651,-34,24.0721,2.85266,0.000599058,0.00149437,0.001368,0.0024861,-0.000392668,0.943524,0.0018026,0.0413051,1875,1058,24.0722,-2.85262
658,-34,24.0034,2.87939,0.000808434,0.0011254,0.000612993,0.00160007,0.00033377,0.9119,0.000974694,0.0424753,1882,1058,24.0034,-2.8794
665,-34,24.0359,2.83899,0.000794279,0.000854168,0.000178515,0.00100523,0.000643214,0.868495,0.000587892,0.0425104,1889,1058,24.0359,-2.83903
672,-34,24.1129,2.76697,0.000642461,0.000593513,0.000734235,0.00135263,-0.000116656,0.768738,0.000943047,0.0375255,1896,1058,24.113,-2.76698
679,-34,24.1012,2.8324,0.000146817,0.00015324,0.00235508,0.00250512,-0.00220506,0.78608,0.00272126,0.0356748,1903,1058,24.1011,-2.8324
686,-34,24.2379,2.77209,-0.000580198,-0.000339912,0.00422106,0.00376272,-0.00468283,0.799626,0.00488567,0.0388925,1910,1058,24.2379,-2.77209
693,-34,24.2407,2.71375,-0.00125028,-0.000817286,0.00598603,0.00495616,-0.00702372,0.803474,0.00695084,0.0406559,1917,1058,24.2407,-2.71374
700,-34,24.1577,2.69507,-0.00184125,-0.00120435,0.0074773,0.00596128,-0.00900687,0.80668,0.00870129,0.0394221,1924,1058,24.1577,-2.69507
707,-34,24.0752,2.74792,-0.00226177,-0.00149184,0.00850395,0.00663585,-0.0103895,0.808017,0.00990888,0.0235937,1931,1058,24.0752,-2.74798
714,-34,24.1001,2.79175,-0.00263111,-0.00164299,0.00916753,0.00704378,-0.0113179,0.812318,0.0106964,0.0166052,1938,1058,24.1001,-2.79169
721,-34,24.1593,3.09241,-0.00301027,-0.00162409,0.00942568,0.00713395,-0.0117683,0.822098,0.011022,0.0298819,1945,1058,24.1593,-3.0924
728,-34,23.9639,3.92957,-0.00331519,-0.00140469,0.00926092,0.00695011,-0.01167,0.836791,0.0108648,0.0305641,1952,1058,23.9638,-3.92956
735,-34,23.8278,4.66711,0,0,0,0,0,0,0,-1,1959,1058,23.8278,-4.66711
742,-34,23.6611,4.30408,-0.00388035,-0.000474732,0.00711618,0.00513953,-0.00949462,0.902834,0.00857283,0.0149025,1966,1058,23.6611,-4.30414
749,-34,23.7001,4.28064,-0.0035635,-0.000178956,0.00538989,0.00377808,-0.00752054,0.937511,0.00664148,0.0127715,1973,1058,23.7,-4.28063
756,-34,23.734,4.26074,-0.00282465,0.000790836,0.00322859,0.00268333,-0.00471714,1.04061,0.00432611,0.00917399,1980,1058,23.734,-4.26075
763,-34,23.717,4.22046,-0.00178403,0.00185303,0.000745107,0.00199976,-0.00193076,1.37636,0.0022694,0.00956695,1987,1058,23.7171,-4.22042
770,-34,23.6713,4.18176,-0.000661661,0.00298623,-0.00213863,0.00397307,-0.0016485,-1.13847,0.00333683,0.0142624,1994,1058,23.6713,-4.1818
777,-34,23.6294,4.16809,0.00109808,0.00429533,-0.00507267,0.00801531,-0.00262191,-0.938045,0.00639913,0.0163458,2001,1058,23.6294,-4.16804
784,-34,23.5552,4.14868,0.00352779,0.00568194,-0.00749115,0.012173,-0.00296332,-0.856799,0.00926252,0.0320968,2008,1058,23.5552,-4.14873
791,-34,23.3402,4.17969,0.0067277,0.00717875,-0.00988318,0.016839,-0.00293253,-0.796806,0.0123204,0.0426448,2015,1058,23.3402,-4.17974
798,-34,23.2535,4.25208,0,0,0,0,0,0,0,-1,2022,1058,23.2535,-4.25204
805,-34,23.863,3.82056,0.0179773,0.0116058,-0.0158702,0.0309783,-0.0013952,-0.686346,0.0211326,0.0452358,2029,1058,23.8632,-3.82058
812,-34,23.2534,3.6969,0,0,0,0,0,0,0,-1,2036,1058,23.2535,-3.69687
-700,-41,-16.2531,0.445801,0.0327455,-0.000134776,-0.00834157,0.0347406,-0.00212993,-0.234771,0.0239021,0.0431205,524,1065,-16.2531,-0.445842
-693,-41,-16.2929,0.471436,0.0396208,0.00391949,-0.00212667,0.039747,0.00379325,-0.0592888,0.0253285,0.0419031,531,1065,-16.2929,-0.47143
-686,-41,-16.2682,0.476685,0.040143,0.00648248,0.00139038,0.0402004,0.00642515,0.0412123,0.024936,0.0425227,538,1065,-16.2683,-0.476692
-679,-41,-16.2017,0.45166,0.0375919,0.00800071,0.00323791,0.037942,0.00765056,0.107723,0.0231694,0.042957,545,1065,-16.2017,-0.451699
-672,-41,-16.4227,0.56189,0.0334769,0.00871405,0.00405966,0.0341255,0.00806549,0.158419,0.0205952,0.0430962,552,1065,-16.4227,-0.561905
-665,-41,-16.5654,0.712769,0.0285999,0.00878218,0.00422091,0.0294614,0.00792063,0.201348,0.017605,0.0401154,559,1065,-16.5654,-0.71272
-658,-41,-16.4269,0.973022,0.0234481,0.0083274,0.00396035,0.0244226,0.00735292,0.241265,0.0144676,0.0382174,566,1065,-16.4269,-0.973007
-651,-41,-16.2688,1.44543,0.0184184,0.00745471,0.00343519,0.0194058,0.00646731,0.279892,0.0114097,0.0273738,573,1065,-16.2688,-1.44544
-644,-41,-16.4015,1.55359,0.0140474,0.00625681,0.0028175,0.0149595,0.00534464,0.3131,0.00875339,0.0129195,580,1065,-16.4015,-1.55364
-637,-41,-16.4258,1.61023,0.00982979,0.00523713,0.0013212,0.0101827,0.00488418,0.261049,0.00588063,0.0136891,587,1065,-16.4258,-1.61027
-630,-41,-16.436,1.70239,0.00616051,0.0040008,-0.000685914,0.00635994,0.00380137,-0.282946,0.00369521,0.0115211,594,1065,-16.436,-1.70236
-623,-41,-16.4191,1.7738,0.00303543,0.00268178,-0.00289556,0.00575956,-4.23514e-05,-0.754902,0.0038539,0.0109316,601,1065,-16.4192,-1.77385
-616,-41,-16.3887,1.88159,0.000799055,0.00068214,-0.0045031,0.00524407,-0.00376288,-0.778908,0.00522355,0.0154955,608,1065,-16.3886,-1.88163
-609,-41,-16.3724,1.95068,-0.000575896,8.78595e-05,-0.00564396,0.00540969,-0.00589773,-0.814765,0.00653037,0.0224816,615,1065,-16.3724,-1.9507
-602,-41,-16.4197,1.99475,-0.00115317,-3.01523e-05,-0.00690963,0.00634075,-0.00752407,-0.825941,0.00801457,0.0129296,622,1065,-16.4197,-1.9947
-595,-41,-16.4882,2.08801,0,0,0,0,0,0,0,-1,629,1065,-16.4882,-2.08802
-588,-41,-16.5443,1.48523,-0.00122736,0.000398378,-0.00828206,0.00790736,-0.00873635,-0.834316,0.00961322,0.025256,636,1065,-16.5443,-1.48521
-581,-41,-16.5576,0.987671,-0.00101517,0.000827273,-0.00823063,0.00818807,-0.00837597,-0.841129,0.00956346,0.0352288,643,1065,-16.5576,-0.987705
-574,-41,-16.451,0.945068,-0.000873918,0.00165047,-0.00781184,0.00830142,-0.00752487,-0.865493,0.00914098,0.0392187,650,1065,-16.451,-0.945025
-567,-41,-16.3492,0.779053,-0.000618505,0.00267509,-0.00689527,0.00811749,-0.00606091,-0.902617,0.00821455,0.044712,657,1065,-16.3492,-0.779021
-560,-41,-16.4467,0.955933,-0.000177172,0.00377816,-0.00553039,0.00767386,-0.00407287,-0.957113,0.00688738,0.0452707,664,1065,-16.4467,-0.955929
-553,-41,-16.5223,1.07239,0.000481618,0.00477708,-0.00381597,0.0070082,-0.00174951,-1.04172,0.0053515,0.0436866,671,1065,-16.5223,-1.07235
-546,-41,-16.5741,0.933228,0.00137442,0.0054222,-0.00186883,0.00615306,0.000643556,-1.198,0.00390524,0.0398634,678,1065,-16.5741,-0.933177
-539,-41,-16.5999,0.759033,0.00243243,0.00543225,-0.000434878,0.00549402,0.00237066,-1.4297,0.00318188,0.0394268,685,1065,-16.5998,-0.759039
-532,-41,-16.5651,0.749268,0.00316163,0.00418784,-0.00149905,0.00525917,0.0020903,-0.950291,0.00305759,0.0389344,692,1065,-16.5651,-0.749329
-525,-41,0,0,0,0,0,0,0,0,0,-1,699,1065,0,0
-518,-41,0,0,0,0,0,0,0,0,0,-1,706,1065,0,0
-511,-41,0,0,0,0,0,0,0,0,0,-1,713,1065,0,0
-504,-41,0,0,0,0,0,0,0,0,0,-1,720,1065,0,0
-497,-41,0,0,0,0,0,0,0,0,0,-1,727,1065,0,0
-490,-41,0,0,0,0,0,0,0,0,0,-1,734,1065,0,0
-483,-41,0,0,0,0,0,0,0,0,0,-1,741,1065,0,0
-476,-41,0,0,0,0,0,0,0,0,0,-1,748,1065,0,0
-469,-41,0,0,0,0,0,0,0,0,0,-1,755,1065,0,0
-462,-41,0,0,0,0,0,0,0,0,0,-1,762,1065,0,0
-455,-41,0,0,0,0,0,0,0,0,0,-1,769,1065,0,0
-448,-41,0,0,0,0,0,0,0,0,0,-1,776,1065,0,0
-441,-41,0,0,0,0,0,0,0,0,0,-1,783,1065,0,0
-434,-41,0,0,0,0,0,0,0,0,0,-1,790,1065,0,0
-427,-41,0,0,0,0,0,0,0,0,0,-1,797,1065,0,0
-420,-41,0,0,0,0,0,0,0,0,0,-1,804,1065,0,0
-413,-41,0,0,0,0,0,0,0,0,0,-1,811,1065,0,0
-406,-41,0,0,0,0,0,0,0,0,0,-1,818,1065,0,0
-399,-41,0,0,0,0,0,0,0,0,0,-1,825,1065,0,0
-392,-41,0,0,0,0,0,0,0,0,0,-1,832,1065,0,0
-385,-41,0,0,0,0,0,0,0,0,0,-1,839,1065,0,0
-378,-41,0,0,0,0,0,0,0,0,0,-1,846,1065,0,0
-371,-41,0,0,0,0,0,0,0,0,0,-1,853,1065,0,0
-364,-41,0,0,0,0,0,0,0,0,0,-1,860,1065,0,0
-357,-41,0,0,0,0,0,0,0,0,0,-1,867,1065,0,0
-350,-41,0,0,0,0,0,0,0,0,0,-1,874,1065,0,0
-343,-41,0,0,0,0,0,0,0,0,0,-1,881,1065,0,0
-336,-41,0,0,0,0,0,0,0,0,0,-1,888,1065,0,0
-329,-41,0,0,0,0,0,0,0,0,0,-1,895,1065,0,0
-322,-41,0,0,0,0,0,0,0,0,0,-1,902,1065,0,0
-315,-41,0,0,0,0,0,0,0,0,0,-1,909,1065,0,0
-308,-41,0,0,0,0,0,0,0,0,0,-1,916,1065,0,0
-301,-41,0,0,0,0,0,0,0,0,0,-1,923,1065,0,0
-294,-41,0,0,0,0,0,0,0,0,0,-1,930,1065,0,0
-287,-41,0,0,0,0,0,0,0,0,0,-1,937,1065,0,0
-280,-41,0,0,0,0,0,0,0,0,0,-1,944,1065,0,0
-273,-41,0,0,0,0,0,0,0,0,0,-1,951,1065,0,0
-266,-41,0,0,0,0,0,0,0,0,0,-1,958,1065,0,0
-259,-41,0,0,0,0,0,0,0,0,0,-1,965,1065,0,0
-252,-41,0,0,0,0,0,0,0,0,0,-1,972,1065,0,0
-245,-41,0,0,0,0,0,0,0,0,0,-1,979,1065,0,0
-238,-41,0,0,0,0,0,0,0,0,0,-1,986,1065,0,0
-231,-41,0,0,0,0,0,0,0,0,0,-1,993,1065,0,0
-224,-41,0,0,0,0,0,0,0,0,0,-1,1000,1065,0,0
-217,-41,0,0,0,0,0,0,0,0,0,-1,1007,1065,0,0
-210,-41,0,0,0,0,0,0,0,0,0,-1,1014,1065,0,0
-203,-41,0,0,0,0,0,0,0,0,0,-1,1021,1065,0,0
-196,-41,0,0,0,0,0,0,0,0,0,-1,1028,1065,0,0
-189,-41,0,0,0,0,0,0,0,0,0,-1,1035,1065,0,0
-182,-41,0,0,0,0,0,0,0,0,0,-1,1042,1065,0,0
-175,-41,0,0,0,0,0,0,0,0,0,-1,1049,1065,0,0
-168,-41,0,0,0,0,0,0,0,0,0,-1,1056,1065,0,0
-161,-41,0,0,0,0,0,0,0,0,0,-1,1063,1065,0,0
-154,-41,0,0,0,0,0,0,0,0,0,-1,1070,1065,0,0
-147,-41,0,0,0,0,0,0,0,0,0,-1,1077,1065,0,0
-140,-41,0,0,0,0,0,0,0,0,0,-1,1084,1065,0,0
-133,-41,0,0,0,0,0,0,0,0,0,-1,1091,1065,0,0
-126,-41,0,0,0,0,0,0,0,0,0,-1,1098,1065,0,0
-119,-41,0,0,0,0,0,0,0,0,0,-1,1105,1065,0,0
-112,-41,0,0,0,0,0,0,0,0,0,-1,1112,1065,0,0
-105,-41,0,0,0,0,0,0,0,0,0,-1,1119,1065,0,0
-98,-41,0,0,0,0,0,0,0,0,0,-1,1126,1065,0,0
-91,-41,0,0,0,0,0,0,0,0,0,-1,1133,1065,0,0
-84,-41,0,0,0,0,0,0,0,0,0,-1,1140,1065,0,0
-77,-41,0,0,0,0,0,0,0,0,0,-1,1147,1065,0,0
-70,-41,0,0,0,0,0,0,0,0,0,-1,1154,1065,0,0
-63,-41,0,0,0,0,0,0,0,0,0,-1,1161,1065,0,0
-56,-41,0,0,0,0,0,0,0,0,0,-1,1168,1065,0,0
-49,-41,0,0,0,0,0,0,0,0,0,-1,1175,1065,0,0
-42,-41,0,0,0,0,0,0,0,0,0,-1,1182,1065,0,0
-35,-41,0,0,0,0,0,0,0,0,0,-1,1189,1065,0,0
-28,-41,0,0,0,0,0,0,0,0,0,-1,1196,1065,0,0
-21,-41,0,0,0,0,0,0,0,0,0,-1,1203,1065,0,0
-14,-41,0,0,0,0,0,0,0,0,0,-1,1210,1065,0,0
-7,-41,0,0,0,0,0,0,0,0,0,-1,1217,1065,0,0
0,-41,0,0,0,0,0,0,0,0,0,-1,1224,1065,0,0
7,-41,0,0,0,0,0,0,0,0,0,-1,1231,1065,0,0
14,-41,0,0,0,0,0,0,0,0,0,-1,1238,1065,0,0
21,-41,0,0,0,0,0,0,0,0,0,-1,1245,1065,0,0
28,-41,0,0,0,0,0,0,0,0,0,-1,1252,1065,0,0
35,-41,0,0,0,0,0,0,0,0,0,-1,1259,1065,0,0
42,-41,0,0,0,0,0,0,0,0,0,-1,1266,1065,0,0
49,-41,0,0,0,0,0,0,0,0,0,-1,1273,1065,0,0
56,-41,0,0,0,0,0,0,0,0,0,-1,1280,1065,0,0
63,-41,0,0,0,0,0,0,0,0,0,-1,1287,1065,0,0
70,-41,0,0,0,0,0,0,0,0,0,-1,1294,1065,0,0
77,-41,0,0,0,0,0,0,0,0,0,-1,1301,1065,0,0
84,-41,0,0,0,0,0,0,0,0,0,-1,1308,1065,0,0
91,-41,0,0,0,0,0,0,0,0,0,-1,1315,1065,0,0
98,-41,0,0,0,0,0,0,0,0,0,-1,1322,1065,0,0
105,-41,0,0,0,0,0,0,0,0,0,-1,1329,1065,0,0
112,-41,0,0,0,0,0,0,0,0,0,-1,1336,1065,0,0
119,-41,0,0,0,0,0,0,0,0,0,-1,1343,1065,0,0
126,-41,0,0,0,0,0,0,0,0,0,-1,1350,1065,0,0
133,-41,0,0,0,0,0,0,0,0,0,-1,1357,1065,0,0
140,-41,0,0,0,0,0,0,0,0,0,-1,1364,1065,0,0
147,-41,0,0,0,0,0,0,0,0,0,-1,1371,1065,0,0
154,-41,0,0,0,0,0,0,0,0,0,-1,1378,1065,0,0
161,-41,0,0,0,0,0,0,0,0,0,-1,1385,1065,0,0
168,-41,0,0,0,0,0,0,0,0,0,-1,1392,1065,0,0
175,-41,0,0,0,0,0,0,0,0,0,-1,1399,1065,0,0
182,-41,0,0,0,0,0,0,0,0,0,-1,1406,1065,0,0
189,-41,0,0,0,0,0,0,0,0,0,-1,1413,1065,0,0
196,-41,0,0,0,0,0,0,0,0,0,-1,1420,1065,0,0
203,-41,0,0,0,0,0,0,0,0,0,-1,1427,1065,0,0
210,-41,0,0,0,0,0,0,0,0,0,-1,1434,1065,0,0
217,-41,0,0,0,0,0,0,0,0,0,-1,1441,1065,0,0
224,-41,0,0,0,0,0,0,0,0,0,-1,1448,1065,0,0
231,-41,0,0,0,0,0,0,0,0,0,-1,1455,1065,0,0
238,-41,0,0,0,0,0,0,0,0,0,-1,1462,1065,0,0
245,-41,0,0,0,0,0,0,0,0,0,-1,1469,1065,0,0
252,-41,0,0,0,0,0,0,0,0,0,-1,1476,1065,0,0
259,-41,0,0,0,0,0,0,0,0,0,-1,1483,1065,0,0
266,-41,0,0,0,0,0,0,0,0,0,-1,1490,1065,0,0
273,-41,0,0,0,0,0,0,0,0,0,-1,1497,1065,0,0
280,-41,0,0,0,0,0,0,0,0,0,-1,1504,1065,0,0
287,-41,0,0,0,0,0,0,0,0,0,-1,1511,1065,0,0
294,-41,0,0,0,0,0,0,0,0,0,-1,1518,1065,0,0
301,-41,0,0,0,0,0,0,0,0,0,-1,1525,1065,0,0
308,-41,0,0,0,0,0,0,0,0,0,-1,1532,1065,0,0
315,-41,0,0,0,0,0,0,0,0,0,-1,1539,1065,0,0
322,-41,0,0,0,0,0,0,0,0,0,-1,1546,1065,0,0
329,-41,0,0,0,0,0,0,0,0,0,-1,1553,1065,0,0
336,-41,0,0,0,0,0,0,0,0,0,-1,1560,1065,0,0
343,-41,0,0,0,0,0,0,0,0,0,-1,1567,1065,0,0
350,-41,0,0,0,0,0,0,0,0,0,-1,1574,1065,0,0
357,-41,0,0,0,0,0,0,0,0,0,-1,1581,1065,0,0
364,-41,0,0,0,0,0,0,0,0,0,-1,1588,1065,0,0
371,-41,0,0,0,0,0,0,0,0,0,-1,1595,1065,0,0
378,-41,0,0,0,0,0,0,0,0,0,-1,1602,1065,0,0
385,-41,0,0,0,0,0,0,0,0,0,-1,1609,1065,0,0
392,-41,0,0,0,0,0,0,0,0,0,-1,1616,1065,0,0
399,-41,0,0,0,0,0,0,0,0,0,-1,1623,1065,0,0
406,-41,0,0,0,0,0,0,0,0,0,-1,1630,1065,0,0
413,-41,0,0,0,0,0,0,0,0,0,-1,1637,1065,0,0
420,-41,0,0,0,0,0,0,0,0,0,-1,1644,1065,0,0
427,-41,0,0,0,0,0,0,0,0,0,-1,1651,1065,0,0
434,-41,0,0,0,0,0,0,0,0,0,-1,1658,1065,0,0
441,-41,0,0,0,0,0,0,0,0,0,-1,1665,1065,0,0
448,-41,0,0,0,0,0,0,0,0,0,-1,1672,1065,0,0
455,-41,0,0,0,0,0,0,0,0,0,-1,1679,1065,0,0
462,-41,0,0,0,0,0,0,0,0,0,-1,1686,1065,0,0
469,-41,0,0,0,0,0,0,0,0,0,-1,1693,1065,0,0
476,-41,0,0,0,0,0,0,0,0,0,-1,1700,1065,0,0
483,-41,0,0,0,0,0,0,0,0,0,-1,1707,1065,0,0
490,-41,0,0,0,0,0,0,0,0,0,-1,1714,1065,0,0
497,-41,0,0,0,0,0,0,0,0,0,-1,1721,1065,0,0
504,-41,0,0,0,0,0,0,0,0,0,-1,1728,1065,0,0
511,-41,0,0,0,0,0,0,0,0,0,-1,1735,1065,0,0
518,-41,0,0,0,0,0,0,0,0,0,-1,1742,1065,0,0
525,-41,0,0,0,0,0,0,0,0,0,-1,1749,1065,0,0
532,-41,0,0,0,0,0,0,0,0,0,-1,1756,1065,0,0
539,-41,0,0,0,0,0,0,0,0,0,-1,1763,1065,0,0
546,-41,0,0,0,0,0,0,0,0,0,-1,1770,1065,0,0
553,-41,0,0,0,0,0,0,0,0,0,-1,1777,1065,0,0
560,-41,0,0,0,0,0,0,0,0,0,-1,1784,1065,0,0
567,-41,0,0,0,0,0,0,0,0,0,-1,1791,1065,0,0
574,-41,0,0,0,0,0,0,0,0,0,-1,1798,1065,0,0
581,-41,0,0,0,0,0,0,0,0,0,-1,1805,1065,0,0
588,-41,0,0,0,0,0,0,0,0,0,-1,1812,1065,0,0
595,-41,0,0,0,0,0,0,0,0,0,-1,1819,1065,0,0
602,-41,0,0,0,0,0,0,0,0,0,-1,1826,1065,0,0
609,-41,0,0,0,0,0,0,0,0,0,-1,1833,1065,0,0
616,-41,0,0,0,0,0,0,0,0,0,-1,1840,1065,0,0
623,-41,0,0,0,0,0,0,0,0,0,-1,1847,1065,0,0
630,-41,0,0,0,0,0,0,0,0,0,-1,1854,1065,0,0
637,-41,0,0,0,0,0,0,0,0,0,-1,1861,1065,0,0
644,-41,0,0,0,0,0,0,0,0,0,-1,1868,1065,0,0
651,-41,24.145,2.59827,0.000343669,0.000513471,0.00114759,0.00157929,-0.000722155,0.822322,0.00135911,0.0385148,1875,1065,24.145,-2.59824
658,-41,24.1394,2.62598,0.000628782,0.00026339,0.000452333,0.000933921,-4.17486e-05,0.593467,0.000636986,0.0424614,1882,1065,24.1394,-2.62601
665,-41,24.1813,2.70496,0.000685861,0.000101746,4.65439e-05,0.000689546,9.80608e-05,0.0790183,0.000430747,0.0422957,1889,1065,24.1813,-2.70496
672,-41,24.0884,2.79285,0.000586392,-9.85996e-05,0.000669606,0.000996011,-0.000508218,0.549,0.000883557,0.0396337,1896,1065,24.0884,-2.79285
679,-41,24.0865,2.86841,0.000113667,-0.000510022,0.00235206,0.00217446,-0.00257082,0.719491,0.00274287,0.0368333,1903,1065,24.0866,-2.86839
686,-41,24.153,2.91162,-0.000616394,-0.000978278,0.00424713,0.00345365,-0.00504832,0.764109,0.00493731,0.0369011,1910,1065,24.153,-2.91163
693,-41,24.2128,2.83386,-0.00128537,-0.00142922,0.00601744,0.00466058,-0.00737517,0.779422,0.00700751,0.0420419,1917,1065,24.2127,-2.83388
700,-41,24.192,2.76306,-0.00186897,-0.00177864,0.00749513,0.00567147,-0.00931908,0.788411,0.00873978,0.0398193,1924,1065,24.192,-2.76311
707,-41,24.1448,2.73938,-0.00230947,-0.0020192,0.0085104,0.0063473,-0.010676,0.793924,0.00993374,0.0256094,1931,1065,24.1448,-2.73932
714,-41,24.1199,2.75806,-0.00268309,-0.00213261,0.00916079,0.00675707,-0.0115728,0.800416,0.0107038,0.014862,1938,1065,24.1198,-2.75803
721,-41,24.1471,3.2605,-0.00303549,-0.00207495,0.00940367,0.0068607,-0.0119711,0.810912,0.0110052,0.0360616,1945,1065,24.1471,-3.26055
728,-41,23.8398,4.22607,-0.00333677,-0.00182684,0.00922728,0.00667631,-0.0118399,0.826217,0.010828,0.0370166,1952,1065,23.8398,-4.22612
735,-41,23.6554,4.34814,-0.00358754,-0.001355,0.00849375,0.00609551,-0.0110381,0.850735,0.0100283,0.0163407,1959,1065,23.6553,-4.3481
742,-41,23.6191,4.31567,-0.00380021,-0.000704638,0.00706627,0.00498137,-0.00948622,0.893215,0.00848677,0.0135889,1966,1065,23.6191,-4.31563
749,-41,23.66,4.28418,-0.00342644,-0.000273883,0.00532919,0.00370726,-0.00740758,0.92919,0.00653462,0.0130105,1973,1065,23.66,-4.28416
756,-41,23.6998,4.25366,-0.0025602,0.000809996,0.00299627,0.00256252,-0.00431272,1.04155,0.00401206,0.0120227,1980,1065,23.6998,-4.25369
763,-41,23.6667,4.2085,-0.0013648,0.00196006,0.000244353,0.00197792,-0.00138266,1.49783,0.00195035,0.00950178,1987,1065,23.6668,-4.20849
770,-41,23.6288,4.17297,-4.03231e-05,0.00324443,-0.00293694,0.00496702,-0.00176291,-1.04034,0.00402964,0.010782,1994,1065,23.6287,-4.17292
777,-41,23.5917,4.12793,0.00197486,0.00469457,-0.00626682,0.00974738,-0.00307794,-0.892238,0.00773124,0.0127529,2001,1065,23.5917,-4.12796
784,-41,23.5671,4.06323,0.00471896,0.0061952,-0.0092654,0.0147518,-0.00383768,-0.825146,0.0113325,0.0239272,2008,1065,23.5672,-4.06328
791,-41,23.5782,4.04626,0.00830861,0.00777823,-0.0125067,0.020553,-0.00446611,-0.774798,0.015408,0.0411335,2015,1065,23.5782,-4.04626
798,-41,23.6018,4.00122,0.0134796,0.00968546,-0.016456,0.0281475,-0.0049825,-0.728011,0.0206274,0.0449966,2022,1065,23.6018,-4.00122
805,-41,23.5012,3.9895,0.0208672,0.0121496,-0.0212566,0.0382073,-0.00519045,-0.684272,0.0273662,0.0456905,2029,1065,23.5012,-3.98949
812,-41,23.2305,3.90515,0,0,0,0,0,0,0,-1,2036,1065,23.2305,-3.90521
-700,-48,-15.9296,0.469238,0.0456387,0.00642768,-0.0130133,0.0495645,0.0025019,-0.292993,0.0322414,0.0439704,524,1072,-15.9296,-0.469206
-693,-48,-15.8431,0.551758,0.0512812,0.00990972,-0.00744698,0.0525809,0.00861007,-0.17278,0.0325655,0.0421861,531,1072,-15.8432,-0.551776
-686,-48,-15.891,0.640747,0.0503784,0.0117164,-0.0038224,0.0507527,0.0113421,-0.097608,0.0307595,0.0438491,538,1072,-15.891,-0.640698
-679,-48,-15.8192,0.474609,0.0464121,0.0124239,-0.00151226,0.0464793,0.0123568,-0.0443767,0.0277983,0.0444313,545,1072,-15.8192,-0.474628
-672,-48,-15.9535,0.646973,0.0409325,0.0123432,-5.31472e-05,0.0409326,0.0123431,-0.00185898,0.024245,0.0451975,552,1072,-15.9535,-0.647001
-665,-48,-16.0706,0.839844,0.0347643,0.0116654,0.000818622,0.0347933,0.0116364,0.0353807,0.0204517,0.0465475,559,1072,-16.0706,-0.839835
-658,-48,-16.1202,0.932983,0.0284129,0.0105358,0.00127241,0.0285031,0.0104457,0.0707004,0.0166507,0.0476347,566,1072,-16.1202,-0.933043
-651,-48,-16.2126,1.28821,0.0222985,0.00907712,0.00141209,0.0224476,0.00892799,0.105222,0.0130502,0.0310668,573,1072,-16.2126,-1.28822
-644,-48,-16.3063,1.53979,0.0169788,0.00741261,0.00135375,0.0171667,0.00722472,0.137906,0.00995252,0.0141378,580,1072,-16.3064,-1.53982
-637,-48,-16.3059,1.5813,0.0119517,0.00596014,0.000308223,0.0119675,0.00594433,0.0512622,0.00690952,0.0150293,587,1072,-16.3059,-1.58126
-630,-48,-16.2919,1.68018,0.00728707,0.00431711,-0.00134333,0.00780451,0.00379967,-0.367678,0.00450646,0.0167937,594,1072,-16.292,-1.68014
-623,-48,-16.3314,1.76135,0.00348897,0.00270697,-0.00314367,0.00626586,-6.99176e-05,-0.723528,0.00420074,0.00990797,601,1072,-16.3314,-1.7614
-616,-48,-16.3371,1.84253,0.000860337,0.00057962,-0.00458833,0.00531045,-0.00387049,-0.770108,0.00532231,0.00964969,608,1072,-16.3371,-1.84257
-609,-48,-16.3181,1.91089,-0.000887391,-6.41214e-05,-0.00582121,0.00535999,-0.00631151,-0.820696,0.006746,0.0121098,615,1072,-16.3181,-1.91091
-602,-48,-16.3364,1.99255,-0.00164413,-0.000128008,-0.00716882,0.00632272,-0.00809485,-0.838075,0.00834492,0.0118639,622,1072,-16.3364,-1.99251
-595,-48,-16.3853,2.10193,0,0,0,0,0,0,0,-1,629,1072,-16.3853,-2.10194
-588,-48,-16.4408,1.48438,-0.00179274,0.000442216,-0.00866888,0.00806535,-0.00941587,-0.849498,0.0101028,0.0319417,636,1072,-16.4408,-1.48442
-581,-48,-16.5236,0.938721,-0.00149963,0.00097812,-0.00863797,0.0084656,-0.00898711,-0.856623,0.0100778,0.0397946,643,1072,-16.5236,-0.938758
-574,-48,-16.4471,0.890381,-0.00123953,0.00192627,-0.00824048,0.0087345,-0.00804776,-0.880287,0.00969194,0.0400996,650,1072,-16.4472,-0.890358
-567,-48,-16.225,0.806763,-0.000783242,0.00311347,-0.0073093,0.00872963,-0.0063994,-0.915649,0.00876922,0.0437089,657,1072,-16.2249,-0.806762
-560,-48,-16.3436,0.72583,-6.48448e-05,0.00441911,-0.00587906,0.00846917,-0.00411491,-0.967561,0.00740898,0.0438243,664,1072,-16.3436,-0.725815
-553,-48,-16.4991,0.814453,0.00095089,0.00565866,-0.00403129,0.00797297,-0.00136343,-1.04965,0.00582324,0.0416148,671,1072,-16.4991,-0.814479
-546,-48,-16.5581,0.763794,0.00228902,0.00657934,-0.00186932,0.00727954,0.00158882,-1.2124,0.00441966,0.0401856,678,1072,-16.5581,-0.763775
-539,-48,-16.5862,0.833618,0.00384805,0.00686813,-0.000101076,0.00687151,0.00384467,-1.53738,0.00397662,0.0402903,685,1072,-16.5862,-0.833601
-532,-48,-16.582,1.02698,0.00499812,0.00585152,-0.000756604,0.00629345,0.00455618,-1.04215,0.00375306,0.0396377,692,1072,-16.582,-1.02695
-525,-48,0,0,0,0,0,0,0,0,0,-1,699,1072,0,0
-518,-48,0,0,0,0,0,0,0,0,0,-1,706,1072,0,0
-511,-48,0,0,0,0,0,0,0,0,0,-1,713,1072,0,0
-504,-48,0,0,0,0,0,0,0,0,0,-1,720,1072,0,0
-497,-48,0,0,0,0,0,0,0,0,0,-1,727,1072,0,0
-490,-48,0,0,0,0,0,0,0,0,0,-1,734,1072,0,0
-483,-48,0,0,0,0,0,0,0,0,0,-1,741,1072,0,0
-476,-48,0,0,0,0,0,0,0,0,0,-1,748,1072,0,0
-469,-48,0,0,0,0,0,0,0,0,0,-1,755,1072,0,0
-462,-48,0,0,0,0,0,0,0,0,0,-1,762,1072,0,0
-455,-48,0,0,0,0,0,0,0,0,0,-1,769,1072,0,0
-448,-48,0,0,0,0,0,0,0,0,0,-1,776,1072,0,0
-441,-48,0,0,0,0,0,0,0,0,0,-1,783,1072,0,0
-434,-48,0,0,0,0,0,0,0,0,0,-1,790,1072,0,0
-427,-48,0,0,0,0,0,0,0,0,0,-1,797,1072,0,0
-420,-48,0,0,0,0,0,0,0,0,0,-1,804,1072,0,0
-413,-48,0,0,0,0,0,0,0,0,0,-1,811,1072,0,0
-406,-48,0,0,0,0,0,0,0,0,0,-1,818,1072,0,0
-399,-48,0,0,0,0,0,0,0,0,0,-1,825,1072,0,0
-392,-48,0,0,0,0,0,0,0,0,0,-1,832,1072,0,0
-385,-48,0,0,0,0,0,0,0,0,0,-1,839,1072,0,0
-378,-48,0,0,0,0,0,0,0,0,0,-1,846,1072,0,0
-371,-48,0,0,0,0,0,0,0,0,0,-1,853,1072,0,0
-364,-48,0,0,0,0,0,0,0,0,0,-1,860,1072,0,0
-357,-48,0,0,0,0,0,0,0,0,0,-1,867,1072,0,0
-350,-48,0,0,0,0,0,0,0,0,0,-1,874,1072,0,0
-343,-48,0,0,0,0,0,0,0,0,0,-1,881,1072,0,0
-336,-48,0,0,0,0,0,0,0,0,0,-1,888,1072,0,0
-329,-48,0,0,0,0,0,0,0,0,0,-1,895,1072,0,0
-322,-48,0,0,0,0,0,0,0,0,0,-1,902,1072,0,0
-315,-48,0,0,0,0,0,0,0,0,0,-1,909,1072,0,0
-308,-48,0,0,0,0,0,0,0,0,0,-1,916,1072,0,0
-301,-48,0,0,0,0,0,0,0,0,0,-1,923,1072,0,0
-294,-48,0,0,0,0,0,0,0,0,0,-1,930,1072,0,0
-287,-48,0,0,0,0,0,0,0,0,0,-1,937,1072,0,0
-280,-48,0,0,0,0,0,0,0,0,0,-1,944,1072,0,0
-273,-48,0,0,0,0,0,0,0,0,0,-1,951,1072,0,0
-266,-48,0,0,0,0,0,0,0,0,0,-1,958,1072,0,0
-259,-48,0,0,0,0,0,0,0,0,0,-1,965,1072,0,0
-252,-48,0,0,0,0,0,0,0,0,0,-1,972,1072,0,0
-245,-48,0,0,0,0,0,0,0,0,0,-1,979,1072,0,0
-238,-48,0,0,0,0,0,0,0,0,0,-1,986,1072,0,0
-231,-48,0,0,0,0,0,0,0,0,0,-1,993,1072,0,0
-224,-48,0,0,0,0,0,0,0,0,0,-1,1000,1072,0,0
-217,-48,0,0,0,0,0,0,0,0,0,-1,1007,1072,0,0
-210,-48,0,0,0,0,0,0,0,0,0,-1,1014,1072,0,0
-203,-48,0,0,0,0,0,0,0,0,0,-1,1021,1072,0,0
-196,-48,0,0,0,0,0,0,0,0,0,-1,1028,1072,0,0
-189,-48,0,0,0,0,0,0,0,0,0,-1,1035,1072,0,0
-182,-48,0,0,0,0,0,0,0,0,0,-1,1042,1072,0,0
-175,-48,0,0,0,0,0,0,0,0,0,-1,1049,1072,0,0
-168,-48,0,0,0,0,0,0,0,0,0,-1,1056,1072,0,0
-161,-48,0,0,0,0,0,0,0,0,0,-1,1063,1072,0,0
-154,-48,0,0,0,0,0,0,0,0,0,-1,1070,1072,0,0
-147,-48,0,0,0,0,0,0,0,0,0,-1,1077,1072,0,0
-140,-48,0,0,0,0,0,0,0,0,0,-1,1084,1072,0,0
-133,-48,0,0,0,0,0,0,0,0,0,-1,1091,1072,0,0
-126,-48,0,0,0,0,0,0,0,0,0,-1,1098,1072,0,0
-119,-48,0,0,0,0,0,0,0,0,0,-1,1105,1072,0,0
-112,-48,0,0,0,0,0,0,0,0,0,-1,1112,1072,0,0
-105,-48,0,0,0,0,0,0,0,0,0,-1,1119,1072,0,0
-98,-48,0,0,0,0,0,0,0,0,0,-1,1126,1072,0,0
-91,-48,0,0,0,0,0,0,0,0,0,-1,1133,1072,0,0
-84,-48,0,0,0,0,0,0,0,0,0,-1,1140,1072,0,0
-77,-48,0,0,0,0,0,0,0,0,0,-1,1147,1072,0,0
-70,-48,0,0,0,0,0,0,0,0,0,-1,1154,1072,0,0
-63,-48,0,0,0,0,0,0,0,0,0,-1,1161,1072,0,0
-56,-48,0,0,0,0,0,0,0,0,0,-1,1168,1072,0,0
-49,-48,0,0,0,0,0,0,0,0,0,-1,1175,1072,0,0
-42,-48,0,0,0,0,0,0,0,0,0,-1,1182,1072,0,0
-35,-48,0,0,0,0,0,0,0,0,0,-1,1189,1072,0,0
-28,-48,0,0,0,0,0,0,0,0,0,-1,1196,1072,0,0
-21,-48,0,0,0,0,0,0,0,0,0,-1,1203,1072,0,0
-14,-48,0,0,0,0,0,0,0,0,0,-1,1210,1072,0,0
-7,-48,0,0,0,0,0,0,0,0,0,-1,1217,1072,0,0
0,-48,0,0,0,0,0,0,0,0,0,-1,1224,1072,0,0
7,-48,0,0,0,0,0,0,0,0,0,-1,1231,1072,0,0
14,-48,0,0,0,0,0,0,0,0,0,-1,1238,1072,0,0
21,-48,0,0,0,0,0,0,0,0,0,-1,1245,1072,0,0
28,-48,0,0,0,0,0,0,0,0,0,-1,1252,1072,0,0
35,-48,0,0,0,0,0,0,0,0,0,-1,1259,1072,0,0
42,-48,0,0,0,0,0,0,0,0,0,-1,1266,1072,0,0
49,-48,0,0,0,0,0,0,0,0,0,-1,1273,1072,0,0
56,-48,0,0,0,0,0,0,0,0,0,-1,1280,1072,0,0
63,-48,0,0,0,0,0,0,0,0,0,-1,1287,1072,0,0
70,-48,0,0,0,0,0,0,0,0,0,-1,1294,1072,0,0
77,-48,0,0,0,0,0,0,0,0,0,-1,1301,1072,0,0
84,-48,0,0,0,0,0,0,0,0,0,-1,1308,1072,0,0
91,-48,0,0,0,0,0,0,0,0,0,-1,1315,1072,0,0
98,-48,0,0,0,0,0,0,0,0,0,-1,1322,1072,0,0
105,-48,0,0,0,0,0,0,0,0,0,-1,1329,1072,0,0
112,-48,0,0,0,0,0,0,0,0,0,-1,1336,1072,0,0
119,-48,0,0,0,0,0,0,0,0,0,-1,1343,1072,0,0
126,-48,0,0,0,0,0,0,0,0,0,-1,1350,1072,0,0
133,-48,0,0,0,0,0,0,0,0,0,-1,1357,1072,0,0
140,-48,0,0,0,0,0,0,0,0,0,-1,1364,1072,0,0
147,-48,0,0,0,0,0,0,0,0,0,-1,1371,1072,0,0
154,-48,0,0,0,0,0,0,0,0,0,-1,1378,1072,0,0
161,-48,0,0,0,0,0,0,0,0,0,-1,1385,1072,0,0
168,-48,0,0,0,0,0,0,0,0,0,-1,1392,1072,0,0
175,-48,0,0,0,0,0,0,0,0,0,-1,1399,1072,0,0
182,-48,0,0,0,0,0,0,0,0,0,-1,1406,1072,0,0
189,-48,0,0,0,0,0,0,0,0,0,-1,1413,1072,0,0
196,-48,0,0,0,0,0,0,0,0,0,-1,1420,1072,0,0
203,-48,0,0,0,0,0,0,0,0,0,-1,1427,1072,0,0
210,-48,0,0,0,0,0,0,0,0,0,-1,1434,1072,0,0
217,-48,0,0,0,0,0,0,0,0,0,-1,1441,1072,0,0
224,-48,0,0,0,0,0,0,0,0,0,-1,1448,1072,0,0
231,-48,0,0,0,0,0,0,0,0,0,-1,1455,1072,0,0
238,-48,0,0,0,0,0,0,0,0,0,-1,1462,1072,0,0
245,-48,0,0,0,0,0,0,0,0,0,-1,1469,1072,0,0
252,-48,0,0,0,0,0,0,0,0,0,-1,1476,1072,0,0
259,-48,0,0,0,0,0,0,0,0,0,-1,1483,1072,0,0
266,-48,0,0,0,0,0,0,0,0,0,-1,1490,1072,0,0
273,-48,0,0,0,0,0,0,0,0,0,-1,1497,1072,0,0
280,-48,0,0,0,0,0,0,0,0,0,-1,1504,1072,0,0
287,-48,0,0,0,0,0,0,0,0,0,-1,1511,1072,0,0
294,-48,0,0,0,0,0,0,0,0,0,-1,1518,1072,0,0
301,-48,0,0,0,0,0,0,0,0,0,-1,1525,1072,0,0
308,-48,0,0,0,0,0,0,0,0,0,-1,1532,1072,0,0
315,-48,0,0,0,0,0,0,0,0,0,-1,1539,1072,0,0
322,-48,0,0,0,0,0,0,0,0,0,-1,1546,1072,0,0
329,-48,0,0,0,0,0,0,0,0,0,-1,1553,1072,0,0
336,-48,0,0,0,0,0,0,0,0,0,-1,1560,1072,0,0
343,-48,0,0,0,0,0,0,0,0,0,-1,1567,1072,0,0
350,-48,0,0,0,0,0,0,0,0,0,-1,1574,1072,0,0
357,-48,0,0,0,0,0,0,0,0,0,-1,1581,1072,0,0
364,-48,0,0,0,0,0,0,0,0,0,-1,1588,1072,0,0
371,-48,0,0,0,0,0,0,0,0,0,-1,1595,1072,0,0
378,-48,0,0,0,0,0,0,0,0,0,-1,1602,1072,0,0
385,-48,0,0,0,0,0,0,0,0,0,-1,1609,1072,0,0
392,-48,0,0,0,0,0,0,0,0,0,-1,1616,1072,0,0
399,-48,0,0,0,0,0,0,0,0,0,-1,1623,1072,0,0
406,-48,0,0,0,0,0,0,0,0,0,-1,1630,1072,0,0
413,-48,0,0,0,0,0,0,0,0,0,-1,1637,1072,0,0
420,-48,0,0,0,0,0,0,0,0,0,-1,1644,1072,0,0
427,-48,0,0,0,0,0,0,0,0,0,-1,1651,1072,0,0
434,-48,0,0,0,0,0,0,0,0,0,-1,1658,1072,0,0
441,-48,0,0,0,0,0,0,0,0,0,-1,1665,1072,0,0
448,-48,0,0,0,0,0,0,0,0,0,-1,1672,1072,0,0
455,-48,0,0,0,0,0,0,0,0,0,-1,1679,1072,0,0
462,-48,0,0,0,0,0,0,0,0,0,-1,1686,1072,0,0
469,-48,0,0,0,0,0,0,0,0,0,-1,1693,1072,0,0
476,-48,0,0,0,0,0,0,0,0,0,-1,1700,1072,0,0
483,-48,0,0,0,0,0,0,0,0,0,-1,1707,1072,0,0
490,-48,0,0,0,0,0,0,0,0,0,-1,1714,1072,0,0
497,-48,0,0,0,0,0,0,0,0,0,-1,1721,1072,0,0
504,-48,0,0,0,0,0,0,0,0,0,-1,1728,1072,0,0
511,-48,0,0,0,0,0,0,0,0,0,-1,1735,1072,0,0
518,-48,0,0,0,0,0,0,0,0,0,-1,1742,1072,0,0
525,-48,0,0,0,0,0,0,0,0,0,-1,1749,1072,0,0
532,-48,0,0,0,0,0,0,0,0,0,-1,1756,1072,0,0
539,-48,0,0,0,0,0,0,0,0,0,-1,1763,1072,0,0
546,-48,0,0,0,0,0,0,0,0,0,-1,1770,1072,0,0
553,-48,0,0,0,0,0,0,0,0,0,-1,1777,1072,0,0
560,-48,0,0,0,0,0,0,0,0,0,-1,1784,1072,0,0
567,-48,0,0,0,0,0,0,0,0,0,-1,1791,1072,0,0
574,-48,0,0,0,0,0,0,0,0,0,-1,1798,1072,0,0
581,-48,0,0,0,0,0,0,0,0,0,-1,1805,1072,0,0
588,-48,0,0,0,0,0,0,0,0,0,-1,1812,1072,0,0
595,-48,0,0,0,0,0,0,0,0,0,-1,1819,1072,0,0
602,-48,0,0,0,0,0,0,0,0,0,-1,1826,1072,0,0
609,-48,0,0,0,0,0,0,0,0,0,-1,1833,1072,0,0
616,-48,0,0,0,0,0,0,0,0,0,-1,1840,1072,0,0
623,-48,0,0,0,0,0,0,0,0,0,-1,1847,1072,0,0
630,-48,0,0,0,0,0,0,0,0,0,-1,1854,1072,0,0
637,-48,0,0,0,0,0,0,0,0,0,-1,1861,1072,0,0
644,-48,0,0,0,0,0,0,0,0,0,-1,1868,1072,0,0
651,-48,24.1625,2.57922,0.000676167,-0.000462583,0.00100651,0.00126318,-0.0010496,0.527992,0.00133718,0.0361066,1875,1072,24.1625,-2.57918
658,-48,24.2056,2.56543,0.000807902,-0.000425749,0.000332674,0.000891894,-0.000509741,0.247308,0.000819199,0.0399022,1882,1072,24.2056,-2.56543
665,-48,23.9797,2.74304,0.000785479,-0.000366144,-6.37183e-05,0.000788994,-0.000369659,-0.0551049,0.000683396,0.0434523,1889,1072,23.9798,-2.74309
672,-48,23.981,2.71423,0.000637447,-0.000443603,0.000598137,0.000903108,-0.000709263,0.417975,0.000933142,0.0396638,1896,1072,23.981,-2.71428
679,-48,24.0786,2.6936,0.000135545,-0.000785733,0.00227827,0.00199928,-0.00264947,0.685649,0.00269269,0.0366949,1903,1072,24.0786,-2.69356
686,-48,24.1604,2.68506,-0.000605665,-0.00121163,0.00413143,0.00323387,-0.00505117,0.748796,0.00482158,0.0369506,1910,1072,24.1604,-2.68509
693,-48,24.1666,2.73389,-0.00126601,-0.00164186,0.0058411,0.00439019,-0.00729805,0.769317,0.00681747,0.0398475,1917,1072,24.1667,-2.73385
700,-48,24.1379,2.71729,-0.00183282,-0.00197576,0.00723976,0.00533582,-0.0091444,0.780463,0.008456,0.0359483,1924,1072,24.1379,-2.71723
707,-48,24.1339,2.74268,-0.00228242,-0.00219038,0.00820996,0.00597369,-0.0104465,0.788201,0.00959672,0.0252095,1931,1072,24.1339,-2.74271
714,-48,24.1343,2.82581,-0.00264559,-0.00228974,0.00882921,0.00636333,-0.0112987,0.795473,0.010329,0.0244783,1938,1072,24.1343,-2.82586
721,-48,24.0033,3.69922,-0.0029488,-0.00223744,0.00906427,0.00647812,-0.0116644,0.805008,0.0106163,0.042334,1945,1072,24.0033,-3.69921
728,-48,23.8282,4.82935,0,0,0,0,0,0,0,-1,1952,1072,23.8283,-4.82934
735,-48,23.6578,4.38879,-0.00347164,-0.00153903,0.00816251,0.00571418,-0.0107248,0.844316,0.00963691,0.0167065,1959,1072,23.6578,-4.38877
742,-48,23.585,4.33325,-0.00359722,-0.000802731,0.00674624,0.00468944,-0.00908939,0.887512,0.00808928,0.0132136,1966,1072,23.585,-4.33327
749,-48,23.6001,4.26343,-0.00318729,-0.000282883,0.0050229,0.00349352,-0.0069637,0.92612,0.00614729,0.0124951,1973,1072,23.6001,-4.26338
756,-48,23.6144,4.23413,-0.0022374,0.00086495,0.00256338,0.00230995,-0.00368239,1.05749,0.0034898,0.0120519,1980,1072,23.6143,-4.23407
763,-48,23.5962,4.20593,-0.00094486,0.00209379,-0.000425816,0.00215233,-0.0010034,-1.43417,0.00186178,0.0120311,1987,1072,23.5962,-4.2059
770,-48,23.5969,4.14355,0.000528351,0.0035025,-0.00387772,0.00616851,-0.00213766,-0.968496,0.00498024,0.0123153,1994,1072,23.5969,-4.14357
777,-48,23.5605,4.08362,0.00272478,0.0050612,-0.00756983,0.0115524,-0.00376645,-0.861956,0.00921729,0.0106209,2001,1072,23.5605,-4.08359
784,-48,23.561,4.00903,0.00568725,0.00663988,-0.0111178,0.0172915,-0.00496441,-0.806806,0.0134905,0.0216848,2008,1072,23.561,-4.009
791,-48,23.619,3.88696,0.00955967,0.00827537,-0.0151516,0.0240828,-0.00624772,-0.76422,0.0184929,0.0372163,2015,1072,23.619,-3.88702
798,-48,23.496,3.83606,0.0151211,0.010162,-0.0201746,0.032968,-0.00768483,-0.724253,0.0249381,0.0428602,2022,1072,23.4959,-3.83603
805,-48,23.2354,3.26636,0.023035,0.0124758,-0.026388,0.0446664,-0.00915553,-0.686664,0.0332523,0.0429261,2029,1072,23.2354,-3.26635
812,-48,23.5281,2.52783,0,0,0,0,0,0,0,-1,2036,1072,23.528,-2.52779
-700,-55,-15.5904,0.474121,0,0,0,0,0,0,0,-1,524,1079,-15.5904,-0.474107
-693,-55,-15.3384,0.582031,0.0665579,0.0173463,-0.0100154,0.0685181,0.015386,-0.193279,0.0415116,0.0471412,531,1079,-15.3384,-0.58207
-686,-55,-15.5112,0.78479,0.0632656,0.0183806,-0.00652036,0.0641936,0.0174526,-0.141376,0.0383265,0.0444444,538,1079,-15.5112,-0.784834
-679,-55,-15.6812,0.964478,0,0,0,0,0,0,0,-1,545,1079,-15.6812,-0.964496
-672,-55,-15.7158,0.512329,0.0497061,0.0170433,-0.00227448,0.0498637,0.0168857,-0.0691902,0.0292843,0.0467474,552,1079,-15.7158,-0.512361
-665,-55,-15.2752,0.619995,0.0418087,0.0154011,-0.00102001,0.041848,0.0153618,-0.0385493,0.0244439,0.0471637,559,1079,-15.2752,-0.619937
-658,-55,-16.0785,0.691284,0,0,0,0,0,0,0,-1,566,1079,-16.0785,-0.691338
-651,-55,-16.2629,1.15454,0.0265355,0.0111762,0.000346058,0.0265433,0.0111684,0.0225156,0.0153888,0.0386503,573,1079,-16.2629,-1.1545
-644,-55,-16.2405,1.47961,0.0200678,0.0089042,0.000599036,0.0200999,0.00887215,0.0534551,0.0116312,0.0169231,580,1079,-16.2405,-1.47961
-637,-55,-16.2459,1.55969,0.0141036,0.00695703,-0.000190642,0.0141087,0.00695195,-0.0266509,0.00814593,0.0139956,587,1079,-16.2459,-1.55974
-630,-55,-16.2131,1.67236,0.00841786,0.0048589,-0.00165969,0.00907171,0.00420504,-0.375291,0.0052422,0.0161431,594,1079,-16.2131,-1.67239
-623,-55,-16.2618,1.78027,0.00393096,0.00273798,-0.00321286,0.00660223,6.67076e-05,-0.693614,0.00437942,0.0142425,601,1079,-16.2618,-1.78028
-616,-55,-16.2625,1.84851,0.000848103,0.000487867,-0.00455521,0.00522675,-0.00389078,-0.765638,0.00528282,0.0126808,608,1079,-16.2625,-1.84854
-609,-55,-16.2523,1.93372,-0.00125441,-0.000211355,-0.00589158,0.00518174,-0.0066475,-0.829543,0.00684707,0.0132869,615,1079,-16.2523,-1.93376
-602,-55,-16.246,2.00916,-0.00219727,-0.000251804,-0.00733412,0.00617381,-0.00862289,-0.851329,0.0085818,0.0131532,622,1079,-16.2461,-2.00915
-595,-55,-16.1248,2.1604,0,0,0,0,0,0,0,-1,629,1079,-16.1248,-2.16037
-588,-55,-16.2698,1.53992,-0.00244639,0.00037234,-0.00896659,0.00803965,-0.0101137,-0.86335,0.0105036,0.0324676,636,1079,-16.2698,-1.53993
-581,-55,-16.478,0.854614,-0.00209874,0.00096773,-0.00896109,0.00852581,-0.00965682,-0.870127,0.0105045,0.0387422,643,1079,-16.478,-0.85456
-574,-55,-16.4683,0.631348,-0.0017668,0.00196975,-0.00859874,0.00890084,-0.00869789,-0.892372,0.0101609,0.0394469,650,1079,-16.4683,-0.631355
-567,-55,-16.3767,0.600708,-0.00115497,0.00325183,-0.00768186,0.00904004,-0.00694319,-0.925064,0.00925436,0.0411183,657,1079,-16.3767,-0.600701
-560,-55,-16.5507,0.686401,-0.000222285,0.0046985,-0.00621727,0.00892451,-0.00444829,-0.973811,0.00786364,0.0418272,664,1079,-16.5507,-0.68641
-553,-55,-16.5375,0.639282,0.00106177,0.00613561,-0.00426476,0.00856097,-0.00136358,-1.05371,0.00621193,0.0424602,671,1079,-16.5376,-0.639299
-546,-55,-16.5268,0.675049,0.00272972,0.00732006,-0.00190212,0.0080058,0.00204397,-1.22478,0.0048031,0.0402171,678,1079,-16.5268,-0.675052
-539,-55,-16.503,0.737305,0.00462304,0.00792342,0.000237038,0.00794036,0.0046061,1.49946,0.00460393,0.0412646,685,1079,-16.503,-0.737262
-532,-55,-16.4055,0.782593,0.00589857,0.00723797,0.000163812,0.00725772,0.00587883,1.45085,0.00445063,0.0420513,692,1079,-16.4054,-0.782583
-525,-55,0,0,0,0,0,0,0,0,0,-1,699,1079,0,0
-518,-55,0,0,0,0,0,0,0,0,0,-1,706,1079,0,0
-511,-55,0,0,0,0,0,0,0,0,0,-1,713,1079,0,0
-504,-55,0,0,0,0,0,0,0,0,0,-1,720,1079,0,0
-497,-55,0,0,0,0,0,0,0,0,0,-1,727,1079,0,0
-490,-55,0,0,0,0,0,0,0,0,0,-1,734,1079,0,0
-483,-55,0,0,0,0,0,0,0,0,0,-1,741,1079,0,0
-476,-55,0,0,0,0,0,0,0,0,0,-1,748,1079,0,0
-469,-55,0,0,0,0,0,0,0,0,0,-1,755,1079,0,0
-462,-55,0,0,0,0,0,0,0,0,0,-1,762,1079,0,0
-455,-55,0,0,0,0,0,0,0,0,0,-1,769,1079,0,0
-448,-55,0,0,0,0,0,0,0,0,0,-1,776,1079,0,0
-441,-55,0,0,0,0,0,0,0,0,0,-1,783,1079,0,0
-434,-55,0,0,0,0,0,0,0,0,0,-1,790,1079,0,0
-427,-55,0,0,0,0,0,0,0,0,0,-1,797,1079,0,0
-420,-55,0,0,0,0,0,0,0,0,0,-1,804,1079,0,0
-413,-55,0,0,0,0,0,0,0,0,0,-1,811,1079,0,0
-406,-55,0,0,0,0,0,0,0,0,0,-1,818,1079,0,0
-399,-55,0,0,0,0,0,0,0,0,0,-1,825,1079,0,0
-392,-55,0,0,0,0,0,0,0,0,0,-1,832,1079,0,0
-385,-55,0,0,0,0,0,0,0,0,0,-1,839,1079,0,0
-378,-55,0,0,0,0,0,0,0,0,0,-1,846,1079,0,0
-371,-55,0,0,0,0,0,0,0,0,0,-1,853,1079,0,0
-364,-55,0,0,0,0,0,0,0,0,0,-1,860,1079,0,0
-357,-55,0,0,0,0,0,0,0,0,0,-1,867,1079,0,0
-350,-55,0,0,0,0,0,0,0,0,0,-1,874,1079,0,0
-343,-55,0,0,0,0,0,0,0,0,0,-1,881,1079,0,0
-336,-55,0,0,0,0,0,0,0,0,0,-1,888,1079,0,0
-329,-55,0,0,0,0,0,0,0,0,0,-1,895,1079,0,0
-322,-55,0,0,0,0,0,0,0,0,0,-1,902,1079,0,0
-315,-55,0,0,0,0,0,0,0,0,0,-1,909,1079,0,0
-308,-55,0,0,0,0,0,0,0,0,0,-1,916,1079,0,0
-301,-55,0,0,0,0,0,0,0,0,0,-1,923,1079,0,0
-294,-55,0,0,0,0,0,0,0,0,0,-1,930,1079,0,0
-287,-55,0,0,0,0,0,0,0,0,0,-1,937,1079,0,0
-280,-55,0,0,0,0,0,0,0,0,0,-1,944,1079,0,0
-273,-55,0,0,0,0,0,0,0,0,0,-1,951,1079,0,0
-266,-55,0,0,0,0,0,0,0,0,0,-1,958,1079,0,0
-259,-55,0,0,0,0,0,0,0,0,0,-1,965,1079,0,0
-252,-55,0,0,0,0,0,0,0,0,0,-1,972,1079,0,0
-245,-55,0,0,0,0,0,0,0,0,0,-1,979,1079,0,0
-238,-55,0,0,0,0,0,0,0,0,0,-1,986,1079,0,0
-231,-55,0,0,0,0,0,0,0,0,0,-1,993,1079,0,0
-224,-55,0,0,0,0,0,0,0,0,0,-1,1000,1079,0,0
-217,-55,0,0,0,0,0,0,0,0,0,-1,1007,1079,0,0
-210,-55,0,0,0,0,0,0,0,0,0,-1,1014,1079,0,0
-203,-55,0,0,0,0,0,0,0,0,0,-1,1021,1079,0,0
-196,-55,0,0,0,0,0,0,0,0,0,-1,1028,1079,0,0
-189,-55,0,0,0,0,0,0,0,0,0,-1,1035,1079,0,0
-182,-55,0,0,0,0,0,0,0,0,0,-1,1042,1079,0,0
-175,-55,0,0,0,0,0,0,0,0,0,-1,1049,1079,0,0
-168,-55,0,0,0,0,0,0,0,0,0,-1,1056,1079,0,0
-161,-55,0,0,0,0,0,0,0,0,0,-1,1063,1079,0,0
-154,-55,0,0,0,0,0,0,0,0,0,-1,1070,1079,0,0
-147,-55,0,0,0,0,0,0,0,0,0,-1,1077,1079,0,0
-140,-55,0,0,0,0,0,0,0,0,0,-1,1084,1079,0,0
-133,-55,0,0,0,0,0,0,0,0,0,-1,1091,1079,0,0
-126,-55,0,0,0,0,0,0,0,0,0,-1,1098,1079,0,0
-119,-55,0,0,0,0,0,0,0,0,0,-1,1105,1079,0,0
-112,-55,0,0,0,0,0,0,0,0,0,-1,1112,1079,0,0
-105,-55,0,0,0,0,0,0,0,0,0,-1,1119,1079,0,0
-98,-55,0,0,0,0,0,0,0,0,0,-1,1126,1079,0,0
-91,-55,0,0,0,0,0,0,0,0,0,-1,1133,1079,0,0
-84,-55,0,0,0,0,0,0,0,0,0,-1,1140,1079,0,0
-77,-55,0,0,0,0,0,0,0,0,0,-1,1147,1079,0,0
-70,-55,0,0,0,0,0,0,0,0,0,-1,1154,1079,0,0
-63,-55,0,0,0,0,0,0,0,0,0,-1,1161,1079,0,0
-56,-55,0,0,0,0,0,0,0,0,0,-1,1168,1079,0,0
-49,-55,0,0,0,0,0,0,0,0,0,-1,1175,1079,0,0
-42,-55,0,0,0,0,0,0,0,0,0,-1,1182,1079,0,0
-35,-55,0,0,0,0,0,0,0,0,0,-1,1189,1079,0,0
-28,-55,0,0,0,0,0,0,0,0,0,-1,1196,1079,0,0
-21,-55,0,0,0,0,0,0,0,0,0,-1,1203,1079,0,0
-14,-55,0,0,0,0,0,0,0,0,0,-1,1210,1079,0,0
-7,-55,0,0,0,0,0,0,0,0,0,-1,1217,1079,0,0
0,-55,0,0,0,0,0,0,0,0,0,-1,1224,1079,0,0
7,-55,0,0,0,0,0,0,0,0,0,-1,1231,1079,0,0
14,-55,0,0,0,0,0,0,0,0,0,-1,1238,1079,0,0
21,-55,0,0,0,0,0,0,0,0,0,-1,1245,1079,0,0
28,-55,0,0,0,0,0,0,0,0,0,-1,1252,1079,0,0
35,-55,0,0,0,0,0,0,0,0,0,-1,1259,1079,0,0
42,-55,0,0,0,0,0,0,0,0,0,-1,1266,1079,0,0
49,-55,0,0,0,0,0,0,0,0,0,-1,1273,1079,0,0
56,-55,0,0,0,0,0,0,0,0,0,-1,1280,1079,0,0
63,-55,0,0,0,0,0,0,0,0,0,-1,1287,1079,0,0
70,-55,0,0,0,0,0,0,0,0,0,-1,1294,1079,0,0
77,-55,0,0,0,0,0,0,0,0,0,-1,1301,1079,0,0
84,-55,0,0,0,0,0,0,0,0,0,-1,1308,1079,0,0
91,-55,0,0,0,0,0,0,0,0,0,-1,1315,1079,0,0
98,-55,0,0,0,0,0,0,0,0,0,-1,1322,1079,0,0
105,-55,0,0,0,0,0,0,0,0,0,-1,1329,1079,0,0
112,-55,0,0,0,0,0,0,0,0,0,-1,1336,1079,0,0
119,-55,0,0,0,0,0,0,0,0,0,-1,1343,1079,0,0
126,-55,0,0,0,0,0,0,0,0,0,-1,1350,1079,0,0
133,-55,0,0,0,0,0,0,0,0,0,-1,1357,1079,0,0
140,-55,0,0,0,0,0,0,0,0,0,-1,1364,1079,0,0
147,-55,0,0,0,0,0,0,0,0,0,-1,1371,1079,0,0
154,-55,0,0,0,0,0,0,0,0,0,-1,1378,1079,0,0
161,-55,0,0,0,0,0,0,0,0,0,-1,1385,1079,0,0
168,-55,0,0,0,0,0,0,0,0,0,-1,1392,1079,0,0
175,-55,0,0,0,0,0,0,0,0,0,-1,1399,1079,0,0
182,-55,0,0,0,0,0,0,0,0,0,-1,1406,1079,0,0
189,-55,0,0,0,0,0,0,0,0,0,-1,1413,1079,0,0
196,-55,0,0,0,0,0,0,0,0,0,-1,1420,1079,0,0
203,-55,0,0,0,0,0,0,0,0,0,-1,1427,1079,0,0
210,-55,0,0,0,0,0,0,0,0,0,-1,1434,1079,0,0
217,-55,0,0,0,0,0,0,0,0,0,-1,1441,1079,0,0
224,-55,0,0,0,0,0,0,0,0,0,-1,1448,1079,0,0
231,-55,0,0,0,0,0,0,0,0,0,-1,1455,1079,0,0
238,-55,0,0,0,0,0,0,0,0,0,-1,1462,1079,0,0
245,-55,0,0,0,0,0,0,0,0,0,-1,1469,1079,0,0
252,-55,0,0,0,0,0,0,0,0,0,-1,1476,1079,0,0
259,-55,0,0,0,0,0,0,0,0,0,-1,1483,1079,0,0
266,-55,0,0,0,0,0,0,0,0,0,-1,1490,1079,0,0
273,-55,0,0,0,0,0,0,0,0,0,-1,1497,1079,0,0
280,-55,0,0,0,0,0,0,0,0,0,-1,1504,1079,0,0
287,-55,0,0,0,0,0,0,0,0,0,-1,1511,1079,0,0
294,-55,0,0,0,0,0,0,0,0,0,-1,1518,1079,0,0
301,-55,0,0,0,0,0,0,0,0,0,-1,1525,1079,0,0
308,-55,0,0,0,0,0,0,0,0,0,-1,1532,1079,0,0
315,-55,0,0,0,0,0,0,0,0,0,-1,1539,1079,0,0
322,-55,0,0,0,0,0,0,0,0,0,-1,1546,1079,0,0
329,-55,0,0,0,0,0,0,0,0,0,-1,1553,1079,0,0
336,-55,0,0,0,0,0,0,0,0,0,-1,1560,1079,0,0
343,-55,0,0,0,0,0,0,0,0,0,-1,1567,1079,0,0
350,-55,0,0,0,0,0,0,0,0,0,-1,1574,1079,0,0
357,-55,0,0,0,0,0,0,0,0,0,-1,1581,1079,0,0
364,-55,0,0,0,0,0,0,0,0,0,-1,1588,1079,0,0
371,-55,0,0,0,0,0,0,0,0,0,-1,1595,1079,0,0
378,-55,0,0,0,0,0,0,0,0,0,-1,1602,1079,0,0
385,-55,0,0,0,0,0,0,0,0,0,-1,1609,1079,0,0
392,-55,0,0,0,0,0,0,0,0,0,-1,1616,1079,0,0
399,-55,0,0,0,0,0,0,0,0,0,-1,1623,1079,0,0
406,-55,0,0,0,0,0,0,0,0,0,-1,1630,1079,0,0
413,-55,0,0,0,0,0,0,0,0,0,-1,1637,1079,0,0
420,-55,0,0,0,0,0,0,0,0,0,-1,1644,1079,0,0
427,-55,0,0,0,0,0,0,0,0,0,-1,1651,1079,0,0
434,-55,0,0,0,0,0,0,0,0,0,-1,1658,1079,0,0
441,-55,0,0,0,0,0,0,0,0,0,-1,1665,1079,0,0
448,-55,0,0,0,0,0,0,0,0,0,-1,1672,1079,0,0
455,-55,0,0,0,0,0,0,0,0,0,-1,1679,1079,0,0
462,-55,0,0,0,0,0,0,0,0,0,-1,1686,1079,0,0
469,-55,0,0,0,0,0,0,0,0,0,-1,1693,1079,0,0
476,-55,0,0,0,0,0,0,0,0,0,-1,1700,1079,0,0
483,-55,0,0,0,0,0,0,0,0,0,-1,1707,1079,0,0
490,-55,0,0,0,0,0,0,0,0,0,-1,1714,1079,0,0
497,-55,0,0,0,0,0,0,0,0,0,-1,1721,1079,0,0
504,-55,0,0,0,0,0,0,0,0,0,-1,1728,1079,0,0
511,-55,0,0,0,0,0,0,0,0,0,-1,1735,1079,0,0
518,-55,0,0,0,0,0,0,0,0,0,-1,1742,1079,0,0
525,-55,0,0,0,0,0,0,0,0,0,-1,1749,1079,0,0
532,-55,0,0,0,0,0,0,0,0,0,-1,1756,1079,0,0
539,-55,0,0,0,0,0,0,0,0,0,-1,1763,1079,0,0
546,-55,0,0,0,0,0,0,0,0,0,-1,1770,1079,0,0
553,-55,0,0,0,0,0,0,0,0,0,-1,1777,1079,0,0
560,-55,0,0,0,0,0,0,0,0,0,-1,1784,1079,0,0
567,-55,0,0,0,0,0,0,0,0,0,-1,1791,1079,0,0
574,-55,0,0,0,0,0,0,0,0,0,-1,1798,1079,0,0
581,-55,0,0,0,0,0,0,0,0,0,-1,1805,1079,0,0
588,-55,0,0,0,0,0,0,0,0,0,-1,1812,1079,0,0
595,-55,0,0,0,0,0,0,0,0,0,-1,1819,1079,0,0
602,-55,0,0,0,0,0,0,0,0,0,-1,1826,1079,0,0
609,-55,0,0,0,0,0,0,0,0,0,-1,1833,1079,0,0
616,-55,0,0,0,0,0,0,0,0,0,-1,1840,1079,0,0
623,-55,0,0,0,0,0,0,0,0,0,-1,1847,1079,0,0
630,-55,0,0,0,0,0,0,0,0,0,-1,1854,1079,0,0
637,-55,0,0,0,0,0,0,0,0,0,-1,1861,1079,0,0
644,-55,0,0,0,0,0,0,0,0,0,-1,1868,1079,0,0
651,-55,24.1245,2.84497,0.00144415,-0.00115725,0.000864235,0.00170509,-0.00141819,0.293229,0.00180576,0.0374244,1875,1079,24.1245,-2.84502
658,-55,24.2294,2.82617,0.0012885,-0.000888356,0.000243217,0.00131534,-0.000915199,0.109923,0.00129469,0.0363072,1882,1079,24.2293,-2.82619
665,-55,24.074,2.83936,0.00108742,-0.000655277,-0.000106626,0.00109392,-0.000661776,-0.0608815,0.00102384,0.0396751,1889,1079,24.0739,-2.83936
672,-55,24.0504,2.80933,0.000815994,-0.000650241,0.000594236,0.00102658,-0.000860828,0.340574,0.0010911,0.0381568,1896,1079,24.0504,-2.80928
679,-55,24.1384,2.66443,0.000224826,-0.000943837,0.00222273,0.00193875,-0.00265776,0.656862,0.0026646,0.0362022,1903,1079,24.1385,-2.66442
686,-55,24.1992,2.57861,-0.000562058,-0.00133639,0.00397434,0.00304392,-0.00494238,0.736843,0.00465411,0.0376744,1910,1079,24.1992,-2.57866
693,-55,24.1691,2.60522,-0.00123327,-0.00174242,0.0055636,0.00408157,-0.00705726,0.762536,0.00650706,0.0401314,1917,1079,24.169,-2.60523
700,-55,24.1354,2.70447,-0.00180546,-0.00205425,0.0068187,0.00488998,-0.00874969,0.776277,0.00797928,0.0356344,1924,1079,24.1353,-2.70448
707,-55,24.1368,2.81079,-0.00226628,-0.00223363,0.00770363,0.00545369,-0.0099536,0.786458,0.00902098,0.0241376,1931,1079,24.1368,-2.81074
714,-55,24.136,2.88025,-0.00262024,-0.00230569,0.00826705,0.00580558,-0.0107315,0.794909,0.00968785,0.0296684,1938,1079,24.136,-2.88026
721,-55,24.0149,3.74768,-0.00288546,-0.0022472,0.00849221,0.00593187,-0.0110645,0.804179,0.00996091,0.0411748,1945,1079,24.0148,-3.74772
728,-55,23.7985,5.05005,0,0,0,0,0,0,0,-1,1952,1079,23.7985,-5.05001
735,-55,23.5682,4.37524,-0.00338596,-0.001586,0.00763056,0.00519747,-0.0101694,0.844099,0.00902555,0.0172563,1959,1079,23.5682,-4.37521
742,-55,23.5457,4.34106,-0.00347417,-0.000809915,0.00627453,0.00427234,-0.00855642,0.889998,0.0075431,0.015895,1966,1079,23.5456,-4.34101
749,-55,23.5588,4.2616,-0.0030941,-0.000194868,0.0046164,0.00319417,-0.00648314,0.93753,0.00569374,0.0115006,1973,1079,23.5588,-4.26162
756,-55,23.5391,4.21521,-0.00215847,0.00101951,0.00211334,0.00207459,-0.00321355,1.10775,0.00307662,0.0111607,1980,1079,23.5391,-4.21516
763,-55,23.5232,4.19629,-0.000885401,0.00235162,-0.00103476,0.00265413,-0.00118791,-1.28638,0.0022714,0.0143596,1987,1079,23.5232,-4.19627
770,-55,23.5392,4.12439,0.000598552,0.00391077,-0.0046639,0.00720387,-0.00269455,-0.955999,0.00590922,0.0153658,1994,1079,23.5391,-4.12439
777,-55,23.5172,4.05103,0.00279863,0.0056274,-0.00861241,0.0129408,-0.00451476,-0.866785,0.010462,0.0123733,2001,1079,23.5172,-4.05105
784,-55,23.4717,3.98157,0.00577368,0.00737319,-0.012623,0.0192217,-0.00607486,-0.817034,0.0152483,0.0256667,2008,1079,23.4717,-3.9816
791,-55,23.4374,3.89978,0.00971582,0.00921395,-0.0173919,0.0268586,-0.00792885,-0.778185,0.0210524,0.0393053,2015,1079,23.4373,-3.89981
798,-55,23.0072,3.9657,0.0154561,0.0113117,-0.0234675,0.0369427,-0.0101749,-0.741362,0.0286293,0.045166,2022,1079,23.0072,-3.96566
805,-55,23.4133,3.02747,0.0236923,0.0138051,-0.0311477,0.0502863,-0.0127889,-0.706697,0.0385018,0.0477521,2029,1079,23.4134,-3.02751
812,-55,23.6853,2.20813,0,0,0,0,0,0,0,-1,2036,1079,23.6854,-2.20809
-700,-62,-14.4203,0.568237,0,0,0,0,0,0,0,-1,524,1086,-14.4203,-0.568286
-693,-62,-14.5905,0.701904,0.0865669,0.0252791,-0.0111164,0.0885209,0.0233251,-0.173999,0.0529791,0.0485534,531,1086,-14.5905,-0.701856
-686,-62,-14.8096,1.06311,0.0803943,0.0252147,-0.00787286,0.0814956,0.0241134,-0.138983,0.0483407,0.0464459,538,1086,-14.8096,-1.0631
-679,-62,-14.934,1.52429,0,0,0,0,0,0,0,-1,545,1086,-14.934,-1.52434
-672,-62,-15.1204,1.94055,0,0,0,0,0,0,0,-1,552,1086,-15.1203,-1.94057
-665,-62,-16.8972,-0.116699,0,0,0,0,0,0,0,-1,559,1086,-16.8972,0.116742
-658,-62,-16.1931,1.23181,0,0,0,0,0,0,0,-1,566,1086,-16.1931,-1.23184
-651,-62,-16.1658,1.33667,0.0317046,0.012727,-0.000218316,0.0317071,0.0127245,-0.0115018,0.0184246,0.0385379,573,1086,-16.1658,-1.33673
-644,-62,-16.1595,1.44348,0.0237105,0.00986922,0.000205745,0.0237135,0.00986616,0.0148603,0.0137552,0.012896,580,1086,-16.1595,-1.44352
-637,-62,-16.1667,1.5647,0.0165519,0.00745905,-0.00040271,0.0165697,0.00744125,-0.0441735,0.00958303,0.0109585,587,1086,-16.1668,-1.56466
-630,-62,-16.1724,1.67139,0.00967351,0.00494679,-0.00174443,0.0102476,0.00437272,-0.317926,0.0059376,0.0124566,594,1086,-16.1724,-1.67143
-623,-62,-16.1775,1.79285,0.00441408,0.00246218,-0.0031014,0.00668946,0.000186804,-0.632963,0.0043987,0.0139385,601,1086,-16.1775,-1.79286
-616,-62,-16.1589,1.87708,0.000916144,0.000208089,-0.00439487,0.00497122,-0.00384699,-0.745208,0.00510497,0.0128392,608,1086,-16.1589,-1.8771
-609,-62,-16.1529,1.96069,-0.00142934,-0.000494078,-0.00579024,0.00484738,-0.0067708,-0.825692,0.00673833,0.0120597,615,1086,-16.1529,-1.96073
-602,-62,-16.1242,2.04626,-0.00248828,-0.000501578,-0.00726693,0.00583958,-0.00882944,-0.853324,0.0085276,0.0137195,622,1086,-16.1242,-2.04628
-595,-62,-16.0795,2.15039,-0.00294168,-0.000238654,-0.00843625,0.00695366,-0.010134,-0.864825,0.00992235,0.0191331,629,1086,-16.0795,-2.15042
-588,-62,-16.2294,1.74304,-0.00279275,0.000152609,-0.00896758,0.00776763,-0.0104078,-0.866783,0.0105304,0.0313976,636,1086,-16.2294,-1.74308
-581,-62,-16.5339,1.11475,-0.00238751,0.000758554,-0.00899265,0.00831472,-0.00994367,-0.871984,0.0105555,0.0368123,643,1086,-16.5339,-1.11472
-574,-62,-16.5365,0.813843,-0.00199558,0.0017445,-0.00869341,0.00876672,-0.00901781,-0.891339,0.0102682,0.0359112,650,1086,-16.5365,-0.813873
-567,-62,-16.5843,0.589722,-0.00128248,0.00303314,-0.00785482,0.00902115,-0.00727049,-0.919447,0.00942406,0.0381411,657,1086,-16.5843,-0.589731
-560,-62,-16.8071,0.917603,0,0,0,0,0,0,0,-1,664,1086,-16.8071,-0.917578
-553,-62,-16.6608,0.831055,0,0,0,0,0,0,0,-1,671,1086,-16.6608,-0.831003
-546,-62,-16.5546,0.528809,0,0,0,0,0,0,0,-1,678,1086,-16.5546,-0.528775
-539,-62,-16.4703,0.742188,0.00522407,0.00830108,0.000198812,0.00831387,0.00521128,1.50654,0.00485121,0.040127,685,1086,-16.4703,-0.742178
-532,-62,-16.3464,0.74353,0.00664143,0.00795119,0.000575008,0.0081678,0.00642482,1.21052,0.00496721,0.044613,692,1086,-16.3463,-0.743478
-525,-62,0,0,0,0,0,0,0,0,0,-1,699,1086,0,0
-518,-62,0,0,0,0,0,0,0,0,0,-1,706,1086,0,0
-511,-62,0,0,0,0,0,0,0,0,0,-1,713,1086,0,0
-504,-62,0,0,0,0,0,0,0,0,0,-1,720,1086,0,0
-497,-62,0,0,0,0,0,0,0,0,0,-1,727,1086,0,0
-490,-62,0,0,0,0,0,0,0,0,0,-1,734,1086,0,0
-483,-62,0,0,0,0,0,0,0,0,0,-1,741,1086,0,0
-476,-62,0,0,0,0,0,0,0,0,0,-1,748,1086,0,0
-469,-62,0,0,0,0,0,0,0,0,0,-1,755,1086,0,0
-462,-62,0,0,0,0,0,0,0,0,0,-1,762,1086,0,0
-455,-62,0,0,0,0,0,0,0,0,0,-1,769,1086,0,0
-448,-62,0,0,0,0,0,0,0,0,0,-1,776,1086,0,0
-441,-62,0,0,0,0,0,0,0,0,0,-1,783,1086,0,0
-434,-62,0,0,0,0,0,0,0,0,0,-1,790,1086,0,0
-427,-62,0,0,0,0,0,0,0,0,0,-1,797,1086,0,0
-420,-62,0,0,0,0,0,0,0,0,0,-1,804,1086,0,0
-413,-62,0,0,0,0,0,0,0,0,0,-1,811,1086,0,0
-406,-62,0,0,0,0,0,0,0,0,0,-1,818,1086,0,0
-399,-62,0,0,0,0,0,0,0,0,0,-1,825,1086,0,0
-392,-62,0,0,0,0,0,0,0,0,0,-1,832,1086,0,0
-385,-62,0,0,0,0,0,0,0,0,0,-1,839,1086,0,0
-378,-62,0,0,0,0,0,0,0,0,0,-1,846,1086,0,0
-371,-62,0,0,0,0,0,0,0,0,0,-1,853,1086,0,0
-364,-62,0,0,0,0,0,0,0,0,0,-1,860,1086,0,0
-357,-62,0,0,0,0,0,0,0,0,0,-1,867,1086,0,0
-350,-62,0,0,0,0,0,0,0,0,0,-1,874,1086,0,0
-343,-62,0,0,0,0,0,0,0,0,0,-1,881,1086,0,0
-336,-62,0,0,0,0,0,0,0,0,0,-1,888,1086,0,0
-329,-62,0,0,0,0,0,0,0,0,0,-1,895,1086,0,0
-322,-62,0,0,0,0,0,0,0,0,0,-1,902,1086,0,0
-315,-62,0,0,0,0,0,0,0,0,0,-1,909,1086,0,0
-308,-62,0,0,0,0,0,0,0,0,0,-1,916,1086,0,0
-301,-62,0,0,0,0,0,0,0,0,0,-1,923,1086,0,0
-294,-62,0,0,0,0,0,0,0,0,0,-1,930,1086,0,0
-287,-62,0,0,0,0,0,0,0,0,0,-1,937,1086,0,0
-280,-62,0,0,0,0,0,0,0,0,0,-1,944,1086,0,0
-273,-62,0,0,0,0,0,0,0,0,0,-1,951,1086,0,0
-266,-62,0,0,0,0,0,0,0,0,0,-1,958,1086,0,0
-259,-62,0,0,0,0,0,0,0,0,0,-1,965,1086,0,0
-252,-62,0,0,0,0,0,0,0,0,0,-1,972,1086,0,0
-245,-62,0,0,0,0,0,0,0,0,0,-1,979,1086,0,0
-238,-62,0,0,0,0,0,0,0,0,0,-1,986,1086,0,0
-231,-62,0,0,0,0,0,0,0,0,0,-1,993,1086,0,0
-224,-62,0,0,0,0,0,0,0,0,0,-1,1000,1086,0,0
-217,-62,0,0,0,0,0,0,0,0,0,-1,1007,1086,0,0
-210,-62,0,0,0,0,0,0,0,0,0,-1,1014,1086,0,0
-203,-62,0,0,0,0,0,0,0,0,0,-1,1021,1086,0,0
-196,-62,0,0,0,0,0,0,0,0,0,-1,1028,1086,0,0
-189,-62,0,0,0,0,0,0,0,0,0,-1,1035,1086,0,0
-182,-62,0,0,0,0,0,0,0,0,0,-1,1042,1086,0,0
-175,-62,0,0,0,0,0,0,0,0,0,-1,1049,1086,0,0
-168,-62,0,0,0,0,0,0,0,0,0,-1,1056,1086,0,0
-161,-62,0,0,0,0,0,0,0,0,0,-1,1063,1086,0,0
-154,-62,0,0,0,0,0,0,0,0,0,-1,1070,1086,0,0
-147,-62,0,0,0,0,0,0,0,0,0,-1,1077,1086,0,0
-140,-62,0,0,0,0,0,0,0,0,0,-1,1084,1086,0,0
-133,-62,0,0,0,0,0,0,0,0,0,-1,1091,1086,0,0
-126,-62,0,0,0,0,0,0,0,0,0,-1,1098,1086,0,0
-119,-62,0,0,0,0,0,0,0,0,0,-1,1105,1086,0,0
-112,-62,0,0,0,0,0,0,0,0,0,-1,1112,1086,0,0
-105,-62,0,0,0,0,0,0,0,0,0,-1,1119,1086,0,0
-98,-62,0,0,0,0,0,0,0,0,0,-1,1126,1086,0,0
-91,-62,0,0,0,0,0,0,0,0,0,-1,1133,1086,0,0
-84,-62,0,0,0,0,0,0,0,0,0,-1,1140,1086,0,0
-77,-62,0,0,0,0,0,0,0,0,0,-1,1147,1086,0,0
-70,-62,0,0,0,0,0,0,0,0,0,-1,1154,1086,0,0
-63,-62,0,0,0,0,0,0,0,0,0,-1,1161,1086,0,0
-56,-62,0,0,0,0,0,0,0,0,0,-1,1168,1086,0,0
-49,-62,0,0,0,0,0,0,0,0,0,-1,1175,1086,0,0
-42,-62,0,0,0,0,0,0,0,0,0,-1,1182,1086,0,0
-35,-62,0,0,0,0,0,0,0,0,0,-1,1189,1086,0,0
-28,-62,0,0,0,0,0,0,0,0,0,-1,1196,1086,0,0
-21,-62,0,0,0,0,0,0,0,0,0,-1,1203,1086,0,0
-14,-62,0,0,0,0,0,0,0,0,0,-1,1210,1086,0,0
-7,-62,0,0,0,0,0,0,0,0,0,-1,1217,1086,0,0
0,-62,0,0,0,0,0,0,0,0,0,-1,1224,1086,0,0
7,-62,0,0,0,0,0,0,0,0,0,-1,1231,1086,0,0
14,-62,0,0,0,0,0,0,0,0,0,-1,1238,1086,0,0
21,-62,0,0,0,0,0,0,0,0,0,-1,1245,1086,0,0
28,-62,0,0,0,0,0,0,0,0,0,-1,1252,1086,0,0
35,-62,0,0,0,0,0,0,0,0,0,-1,1259,1086,0,0
42,-62,0,0,0,0,0,0,0,0,0,-1,1266,1086,0,0
49,-62,0,0,0,0,0,0,0,0,0,-1,1273,1086,0,0
56,-62,0,0,0,0,0,0,0,0,0,-1,1280,1086,0,0
63,-62,0,0,0,0,0,0,0,0,0,-1,1287,1086,0,0
70,-62,0,0,0,0,0,0,0,0,0,-1,1294,1086,0,0
77,-62,0,0,0,0,0,0,0,0,0,-1,1301,1086,0,0
84,-62,0,0,0,0,0,0,0,0,0,-1,1308,1086,0,0
91,-62,0,0,0,0,0,0,0,0,0,-1,1315,1086,0,0
98,-62,0,0,0,0,0,0,0,0,0,-1,1322,1086,0,0
105,-62,0,0,0,0,0,0,0,0,0,-1,1329,1086,0,0
112,-62,0,0,0,0,0,0,0,0,0,-1,1336,1086,0,0
119,-62,0,0,0,0,0,0,0,0,0,-1,1343,1086,0,0
126,-62,0,0,0,0,0,0,0,0,0,-1,1350,1086,0,0
133,-62,0,0,0,0,0,0,0,0,0,-1,1357,1086,0,0
140,-62,0,0,0,0,0,0,0,0,0,-1,1364,1086,0,0
147,-62,0,0,0,0,0,0,0,0,0,-1,1371,1086,0,0
154,-62,0,0,0,0,0,0,0,0,0,-1,1378,1086,0,0
161,-62,0,0,0,0,0,0,0,0,0,-1,1385,1086,0,0
168,-62,0,0,0,0,0,0,0,0,0,-1,1392,1086,0,0
175,-62,0,0,0,0,0,0,0,0,0,-1,1399,1086,0,0
182,-62,0,0,0,0,0,0,0,0,0,-1,1406,1086,0,0
189,-62,0,0,0,0,0,0,0,0,0,-1,1413,1086,0,0
196,-62,0,0,0,0,0,0,0,0,0,-1,1420,1086,0,0
203,-62,0,0,0,0,0,0,0,0,0,-1,1427,1086,0,0
210,-62,0,0,0,0,0,0,0,0,0,-1,1434,1086,0,0
217,-62,0,0,0,0,0,0,0,0,0,-1,1441,1086,0,0
224,-62,0,0,0,0,0,0,0,0,0,-1,1448,1086,0,0
231,-62,0,0,0,0,0,0,0,0,0,-1,1455,1086,0,0
238,-62,0,0,0,0,0,0,0,0,0,-1,1462,1086,0,0
245,-62,0,0,0,0,0,0,0,0,0,-1,1469,1086,0,0
252,-62,0,0,0,0,0,0,0,0,0,-1,1476,1086,0,0
259,-62,0,0,0,0,0,0,0,0,0,-1,1483,1086,0,0
266,-62,0,0,0,0,0,0,0,0,0,-1,1490,1086,0,0
273,-62,0,0,0,0,0,0,0,0,0,-1,1497,1086,0,0
280,-62,0,0,0,0,0,0,0,0,0,-1,1504,1086,0,0
287,-62,0,0,0,0,0,0,0,0,0,-1,1511,1086,0,0
294,-62,0,0,0,0,0,0,0,0,0,-1,1518,1086,0,0
301,-62,0,0,0,0,0,0,0,0,0,-1,1525,1086,0,0
308,-62,0,0,0,0,0,0,0,0,0,-1,1532,1086,0,0
315,-62,0,0,0,0,0,0,0,0,0,-1,1539,1086,0,0
322,-62,0,0,0,0,0,0,0,0,0,-1,1546,1086,0,0
329,-62,0,0,0,0,0,0,0,0,0,-1,1553,1086,0,0
336,-62,0,0,0,0,0,0,0,0,0,-1,1560,1086,0,0
343,-62,0,0,0,0,0,0,0,0,0,-1,1567,1086,0,0
350,-62,0,0,0,0,0,0,0,0,0,-1,1574,1086,0,0
357,-62,0,0,0,0,0,0,0,0,0,-1,1581,1086,0,0
364,-62,0,0,0,0,0,0,0,0,0,-1,1588,1086,0,0
371,-62,0,0,0,0,0,0,0,0,0,-1,1595,1086,0,0
378,-62,0,0,0,0,0,0,0,0,0,-1,1602,1086,0,0
385,-62,0,0,0,0,0,0,0,0,0,-1,1609,1086,0,0
392,-62,0,0,0,0,0,0,0,0,0,-1,1616,1086,0,0
399,-62,0,0,0,0,0,0,0,0,0,-1,1623,1086,0,0
406,-62,0,0,0,0,0,0,0,0,0,-1,1630,1086,0,0
413,-62,0,0,0,0,0,0,0,0,0,-1,1637,1086,0,0
420,-62,0,0,0,0,0,0,0,0,0,-1,1644,1086,0,0
427,-62,0,0,0,0,0,0,0,0,0,-1,1651,1086,0,0
434,-62,0,0,0,0,0,0,0,0,0,-1,1658,1086,0,0
441,-62,0,0,0,0,0,0,0,0,0,-1,1665,1086,0,0
448,-62,0,0,0,0,0,0,0,0,0,-1,1672,1086,0,0
455,-62,0,0,0,0,0,0,0,0,0,-1,1679,1086,0,0
462,-62,0,0,0,0,0,0,0,0,0,-1,1686,1086,0,0
469,-62,0,0,0,0,0,0,0,0,0,-1,1693,1086,0,0
476,-62,0,0,0,0,0,0,0,0,0,-1,1700,1086,0,0
483,-62,0,0,0,0,0,0,0,0,0,-1,1707,1086,0,0
490,-62,0,0,0,0,0,0,0,0,0,-1,1714,1086,0,0
497,-62,0,0,0,0,0,0,0,0,0,-1,1721,1086,0,0
504,-62,0,0,0,0,0,0,0,0,0,-1,1728,1086,0,0
511,-62,0,0,0,0,0,0,0,0,0,-1,1735,1086,0,0
518,-62,0,0,0,0,0,0,0,0,0,-1,1742,1086,0,0
525,-62,0,0,0,0,0,0,0,0,0,-1,1749,1086,0,0
532,-62,0,0,0,0,0,0,0,0,0,-1,1756,1086,0,0
539,-62,0,0,0,0,0,0,0,0,0,-1,1763,1086,0,0
546,-62,0,0,0,0,0,0,0,0,0,-1,1770,1086,0,0
553,-62,0,0,0,0,0,0,0,0,0,-1,1777,1086,0,0
560,-62,0,0,0,0,0,0,0,0,0,-1,1784,1086,0,0
567,-62,0,0,0,0,0,0,0,0,0,-1,1791,1086,0,0
574,-62,0,0,0,0,0,0,0,0,0,-1,1798,1086,0,0
581,-62,0,0,0,0,0,0,0,0,0,-1,1805,1086,0,0
588,-62,0,0,0,0,0,0,0,0,0,-1,1812,1086,0,0
595,-62,0,0,0,0,0,0,0,0,0,-1,1819,1086,0,0
602,-62,0,0,0,0,0,0,0,0,0,-1,1826,1086,0,0
609,-62,0,0,0,0,0,0,0,0,0,-1,1833,1086,0,0
616,-62,0,0,0,0,0,0,0,0,0,-1,1840,1086,0,0
623,-62,0,0,0,0,0,0,0,0,0,-1,1847,1086,0,0
630,-62,0,0,0,0,0,0,0,0,0,-1,1854,1086,0,0
637,-62,0,0,0,0,0,0,0,0,0,-1,1861,1086,0,0
644,-62,0,0,0,0,0,0,0,0,0,-1,1868,1086,0,0
651,-62,24.2352,2.86243,0.00223099,-0.00115826,0.00109324,0.00255302,-0.00148029,0.286469,0.00235593,0.0388035,1875,1086,24.2352,-2.8624
658,-62,24.2435,2.87561,0.00180351,-0.000938169,0.000450068,0.0018755,-0.00101016,0.158614,0.00169082,0.0395363,1882,1086,24.2435,-2.87557
665,-62,24.0728,2.91846,0.00143039,-0.000744204,0.000100832,0.00143506,-0.00074887,0.0462361,0.00128147,0.0389718,1889,1086,24.0727,-2.91842
672,-62,24.0985,2.92712,0.00104914,-0.000792605,0.000765166,0.00132555,-0.00106901,0.346654,0.00138515,0.0362686,1896,1086,24.0985,-2.92709
679,-62,24.193,2.78809,0.000385799,-0.00111278,0.0022391,0.00199765,-0.00272463,0.623935,0.00273716,0.0370422,1903,1086,24.193,-2.78808
686,-62,24.2113,2.69763,-0.000423209,-0.00150304,0.00379458,0.00286967,-0.00479592,0.71473,0.00447206,0.0383241,1910,1086,24.2113,-2.6976
693,-62,24.1884,2.61951,-0.00108014,-0.00188346,0.00517673,0.00371049,-0.00667409,0.746681,0.00607638,0.0391072,1917,1086,24.1883,-2.61948
700,-62,24.1412,2.65601,-0.00163731,-0.0021572,0.00621924,0.00432742,-0.00812193,0.764512,0.00729808,0.0329543,1924,1086,24.1413,-2.65596
707,-62,24.1163,2.78357,-0.00209731,-0.00230366,0.00695613,0.00475641,-0.00915737,0.777983,0.00816598,0.0207075,1931,1086,24.1163,-2.78354
714,-62,24.146,2.7627,-0.00243914,-0.00232879,0.00742706,0.0050433,-0.00981123,0.789113,0.00872228,0.0254875,1938,1086,24.146,-2.76269
721,-62,24.1566,3.73364,-0.00267176,-0.00224019,0.00763784,0.00518491,-0.0100969,0.79952,0.00897357,0.0397828,1945,1086,24.1566,-3.7337
728,-62,24.0262,5.02893,0,0,0,0,0,0,0,-1,1952,1086,24.0262,-5.02899
735,-62,23.5005,4.39246,-0.00318784,-0.00155792,0.00682458,0.00450019,-0.00924595,0.844824,0.00809246,0.0183352,1959,1086,23.5005,-4.3924
742,-62,23.4878,4.36877,-0.00327925,-0.00072004,0.00549249,0.00363993,-0.00763922,0.899844,0.00664707,0.0157783,1966,1086,23.4878,-4.36877
749,-62,23.4867,4.26892,-0.00300367,-0.000178457,0.00382046,0.00248219,-0.00566432,0.962477,0.00482151,0.0131438,1973,1086,23.4868,-4.26895
756,-62,23.4557,4.22815,-0.00215054,0.00101644,0.00128425,0.00147176,-0.00260586,1.23008,0.00238438,0.0130586,1980,1086,23.4557,-4.22817
763,-62,23.4426,4.17786,-0.000964049,0.00235345,-0.00205846,0.00333832,-0.00194892,-1.12454,0.00308752,0.013737,1987,1086,23.4426,-4.17781
770,-62,23.4501,4.09558,0.000448012,0.00388336,-0.0059468,0.00835558,-0.00402421,-0.925992,0.00729184,0.011354,1994,1086,23.45,-4.09556
777,-62,23.4103,3.98206,0.00255619,0.0054994,-0.010275,0.0144076,-0.00635204,-0.856525,0.0122827,0.0124694,2001,1086,23.4103,-3.9821
784,-62,23.3815,3.78198,0.00542716,0.00708248,-0.0148832,0.0211611,-0.00865142,-0.813175,0.0177101,0.0241968,2008,1086,23.3814,-3.78202
791,-62,23.3741,3.53833,0.00931364,0.00872394,-0.0204996,0.0295205,-0.0114829,-0.778207,0.0244249,0.0430242,2015,1086,23.3741,-3.53835
798,-62,23.2549,3.56335,0,0,0,0,0,0,0,-1,2022,1086,23.2549,-3.5634
805,-62,23.4939,2.76514,0.0235203,0.0126384,-0.0367885,0.055268,-0.0191093,-0.711981,0.0446012,0.0478599,2029,1086,23.494,-2.76514
812,-62,23.7944,1.74683,0.0354164,0.0151576,-0.0481317,0.0744731,-0.023899,-0.681686,0.0592443,0.0482646,2036,1086,23.7945,-1.74681
-700,-69,-14.2285,0.981079,0,0,0,0,0,0,0,-1,524,1093,-14.2285,-0.981115
-693,-69,-13.9639,0.916748,0,0,0,0,0,0,0,-1,531,1093,-13.9639,-0.916741
-686,-69,-14.0761,1.46472,0,0,0,0,0,0,0,-1,538,1093,-14.0761,-1.46467
-679,-69,-14.1814,2.04688,0,0,0,0,0,0,0,-1,545,1093,-14.1814,-2.04688
-672,-69,-18.7888,0.076416,0.0714301,0.0242952,-0.00506541,0.0719683,0.023757,-0.105856,0.042343,0.0461268,552,1093,-18.7887,-0.0763911
-665,-69,-17.3866,0.119019,0.0587425,0.0206087,-0.00347605,0.0590567,0.0202945,-0.090164,0.0346477,0.046872,559,1093,-17.3866,-0.118961
-658,-69,-16.6732,1.03467,0,0,0,0,0,0,0,-1,566,1093,-16.6732,-1.03462
-651,-69,-16.0308,1.41956,0.0359227,0.0133303,-0.00125639,0.0359923,0.0132606,-0.0553835,0.0210186,0.0325926,573,1093,-16.0308,-1.41951
-644,-69,-16.0471,1.43433,0.0266422,0.0100893,-0.000625066,0.0266658,0.0100658,-0.0376902,0.0155488,0.00985049,580,1093,-16.0471,-1.43431
-637,-69,-16.0557,1.56567,0.018454,0.00737133,-0.00100834,0.018545,0.00728033,-0.0899989,0.010789,0.0119382,587,1093,-16.0557,-1.56571
-630,-69,-16.0685,1.65637,0.0105467,0.00460603,-0.00215399,0.0112455,0.00390723,-0.313707,0.00659258,0.0131818,594,1093,-16.0685,-1.65641
-623,-69,-16.0325,1.7572,0.00470057,0.00199044,-0.00321263,0.00683223,-0.000141214,-0.585823,0.00460261,0.0127476,601,1093,-16.0325,-1.75719
-616,-69,-16.0167,1.84595,0.000962463,-0.000154321,-0.00437545,0.00481501,-0.00400687,-0.721932,0.00510044,0.0126478,608,1093,-16.0167,-1.84596
-609,-69,-16.0294,1.92688,-0.00149313,-0.000767045,-0.00572939,0.00461079,-0.00687097,-0.817039,0.00667167,0.0111765,615,1093,-16.0294,-1.92687
-602,-69,-16.0222,2.08008,-0.00261929,-0.000702136,-0.00719616,0.00559901,-0.00892043,-0.851612,0.0084556,0.0154472,622,1093,-16.0221,-2.08004
-595,-69,-15.9779,2.15894,-0.00310213,-0.00035734,-0.00834817,0.00673049,-0.01019,-0.866867,0.00983685,0.0201796,629,1093,-15.9779,-2.15888
-588,-69,-16.1829,1.89392,-0.00295669,1.53299e-05,-0.00886459,0.0075176,-0.010459,-0.868443,0.010425,0.0282088,636,1093,-16.1829,-1.89386
-581,-69,-16.4821,1.28625,-0.00252863,0.0005866,-0.00890015,0.00806441,-0.0100064,-0.872026,0.0104533,0.0350564,643,1093,-16.4821,-1.28626
-574,-69,-16.5803,0.875732,-0.00211743,0.00150193,-0.00865113,0.00853063,-0.00914613,-0.888503,0.0102077,0.0329305,650,1093,-16.5803,-0.875751
-567,-69,-16.5612,0.78479,-0.00136993,0.0027102,-0.00789,0.00881961,-0.00747934,-0.911909,0.0094208,0.0367128,657,1093,-16.5612,-0.784742
-560,-69,-16.6642,1.14612,-0.00028114,0.00410965,-0.00656844,0.00883987,-0.00501136,-0.946679,0.0080982,0.0386521,664,1093,-16.6642,-1.14611
-553,-69,-16.6196,1.16663,0.00115598,0.00555224,-0.00470731,0.00854935,-0.00184113,-1.00383,0.00640214,0.0400253,671,1093,-16.6196,-1.16665
-546,-69,-16.5853,0.981812,0.00299207,0.00682249,-0.00232458,0.0079192,0.00189535,-1.12997,0.00477477,0.0369814,678,1093,-16.5853,-0.981753
-539,-69,-16.3818,0.794922,0.00510098,0.0076223,0.000160028,0.00763242,0.00509086,1.50766,0.00448777,0.0403256,685,1093,-16.3818,-0.794864
-532,-69,-16.1304,0.958374,0.00638318,0.00719775,0.000982969,0.00785447,0.00572646,0.981804,0.00469074,0.0430859,692,1093,-16.1304,-0.958347
-525,-69,0,0,0,0,0,0,0,0,0,-1,699,1093,0,0
-518,-69,0,0,0,0,0,0,0,0,0,-1,706,1093,0,0
-511,-69,0,0,0,0,0,0,0,0,0,-1,713,1093,0,0
-504,-69,0,0,0,0,0,0,0,0,0,-1,720,1093,0,0
-497,-69,0,0,0,0,0,0,0,0,0,-1,727,1093,0,0
-490,-69,0,0,0,0,0,0,0,0,0,-1,734,1093,0,0
-483,-69,0,0,0,0,0,0,0,0,0,-1,741,1093,0,0
-476,-69,0,0,0,0,0,0,0,0,0,-1,748,1093,0,0
-469,-69,0,0,0,0,0,0,0,0,0,-1,755,1093,0,0
-462,-69,0,0,0,0,0,0,0,0,0,-1,762,1093,0,0
-455,-69,0,0,0,0,0,0,0,0,0,-1,769,1093,0,0
-448,-69,0,0,0,0,0,0,0,0,0,-1,776,1093,0,0
-441,-69,0,0,0,0,0,0,0,0,0,-1,783,1093,0,0
-434,-69,0,0,0,0,0,0,0,0,0,-1,790,1093,0,0
-427,-69,0,0,0,0,0,0,0,0,0,-1,797,1093,0,0
-420,-69,0,0,0,0,0,0,0,0,0,-1,804,1093,0,0
-413,-69,0,0,0,0,0,0,0,0,0,-1,811,1093,0,0
-406,-69,0,0,0,0,0,0,0,0,0,-1,818,1093,0,0
-399,-69,0,0,0,0,0,0,0,0,0,-1,825,1093,0,0
-392,-69,0,0,0,0,0,0,0,0,0,-1,832,1093,0,0
-385,-69,0,0,0,0,0,0,0,0,0,-1,839,1093,0,0
-378,-69,0,0,0,0,0,0,0,0,0,-1,846,1093,0,0
-371,-69,0,0,0,0,0,0,0,0,0,-1,853,1093,0,0
-364,-69,0,0,0,0,0,0,0,0,0,-1,860,1093,0,0
-357,-69,0,0,0,0,0,0,0,0,0,-1,867,1093,0,0
-350,-69,0,0,0,0,0,0,0,0,0,-1,874,1093,0,0
-343,-69,0,0,0,0,0,0,0,0,0,-1,881,1093,0,0
-336,-69,0,0,0,0,0,0,0,0,0,-1,888,1093,0,0
-329,-69,0,0,0,0,0,0,0,0,0,-1,895,1093,0,0
-322,-69,0,0,0,0,0,0,0,0,0,-1,902,1093,0,0
-315,-69,0,0,0,0,0,0,0,0,0,-1,909,1093,0,0
-308,-69,0,0,0,0,0,0,0,0,0,-1,916,1093,0,0
-301,-69,0,0,0,0,0,0,0,0,0,-1,923,1093,0,0
-294,-69,0,0,0,0,0,0,0,0,0,-1,930,1093,0,0
-287,-69,0,0,0,0,0,0,0,0,0,-1,937,1093,0,0
-280,-69,0,0,0,0,0,0,0,0,0,-1,944,1093,0,0
-273,-69,0,0,0,0,0,0,0,0,0,-1,951,1093,0,0
-266,-69,0,0,0,0,0,0,0,0,0,-1,958,1093,0,0
-259,-69,0,0,0,0,0,0,0,0,0,-1,965,1093,0,0
-252,-69,0,0,0,0,0,0,0,0,0,-1,972,1093,0,0
-245,-69,0,0,0,0,0,0,0,0,0,-1,979,1093,0,0
-238,-69,0,0,0,0,0,0,0,0,0,-1,986,1093,0,0
-231,-69,0,0,0,0,0,0,0,0,0,-1,993,1093,0,0
-224,-69,0,0,0,0,0,0,0,0,0,-1,1000,1093,0,0
-217,-69,0,0,0,0,0,0,0,0,0,-1,1007,1093,0,0
-210,-69,0,0,0,0,0,0,0,0,0,-1,1014,1093,0,0
-203,-69,0,0,0,0,0,0,0,0,0,-1,1021,1093,0,0
-196,-69,0,0,0,0,0,0,0,0,0,-1,1028,1093,0,0
-189,-69,0,0,0,0,0,0,0,0,0,-1,1035,1093,0,0
-182,-69,0,0,0,0,0,0,0,0,0,-1,1042,1093,0,0
-175,-69,0,0,0,0,0,0,0,0,0,-1,1049,1093,0,0
-168,-69,0,0,0,0,0,0,0,0,0,-1,1056,1093,0,0
-161,-69,0,0,0,0,0,0,0,0,0,-1,1063,1093,0,0
-154,-69,0,0,0,0,0,0,0,0,0,-1,1070,1093,0,0
-147,-69,0,0,0,0,0,0,0,0,0,-1,1077,1093,0,0
-140,-69,0,0,0,0,0,0,0,0,0,-1,1084,1093,0,0
-133,-69,0,0,0,0,0,0,0,0,0,-1,1091,1093,0,0
-126,-69,0,0,0,0,0,0,0,0,0,-1,1098,1093,0,0
-119,-69,0,0,0,0,0,0,0,0,0,-1,1105,1093,0,0
-112,-69,0,0,0,0,0,0,0,0,0,-1,1112,1093,0,0
-105,-69,0,0,0,0,0,0,0,0,0,-1,1119,1093,0,0
-98,-69,0,0,0,0,0,0,0,0,0,-1,1126,1093,0,0
-91,-69,0,0,0,0,0,0,0,0,0,-1,1133,1093,0,0
-84,-69,0,0,0,0,0,0,0,0,0,-1,1140,1093,0,0
-77,-69,0,0,0,0,0,0,0,0,0,-1,1147,1093,0,0
-70,-69,0,0,0,0,0,0,0,0,0,-1,1154,1093,0,0
-63,-69,0,0,0,0,0,0,0,0,0,-1,1161,1093,0,0
-56,-69,0,0,0,0,0,0,0,0,0,-1,1168,1093,0,0
-49,-69,0,0,0,0,0,0,0,0,0,-1,1175,1093,0,0
-42,-69,0,0,0,0,0,0,0,0,0,-1,1182,1093,0,0
-35,-69,0,0,0,0,0,0,0,0,0,-1,1189,1093,0,0
-28,-69,0,0,0,0,0,0,0,0,0,-1,1196,1093,0,0
-21,-69,0,0,0,0,0,0,0,0,0,-1,1203,1093,0,0
-14,-69,0,0,0,0,0,0,0,0,0,-1,1210,1093,0,0
-7,-69,0,0,0,0,0,0,0,0,0,-1,1217,1093,0,0
0,-69,0,0,0,0,0,0,0,0,0,-1,1224,1093,0,0
7,-69,0,0,0,0,0,0,0,0,0,-1,1231,1093,0,0
14,-69,0,0,0,0,0,0,0,0,0,-1,1238,1093,0,0
21,-69,0,0,0,0,0,0,0,0,0,-1,1245,1093,0,0
28,-69,0,0,0,0,0,0,0,0,0,-1,1252,1093,0,0
35,-69,0,0,0,0,0,0,0,0,0,-1,1259,1093,0,0
42,-69,0,0,0,0,0,0,0,0,0,-1,1266,1093,0,0
49,-69,0,0,0,0,0,0,0,0,0,-1,1273,1093,0,0
56,-69,0,0,0,0,0,0,0,0,0,-1,1280,1093,0,0
63,-69,0,0,0,0,0,0,0,0,0,-1,1287,1093,0,0
70,-69,0,0,0,0,0,0,0,0,0,-1,1294,1093,0,0
77,-69,0,0,0,0,0,0,0,0,0,-1,1301,1093,0,0
84,-69,0,0,0,0,0,0,0,0,0,-1,1308,1093,0,0
91,-69,0,0,0,0,0,0,0,0,0,-1,1315,1093,0,0
98,-69,0,0,0,0,0,0,0,0,0,-1,1322,1093,0,0
105,-69,0,0,0,0,0,0,0,0,0,-1,1329,1093,0,0
112,-69,0,0,0,0,0,0,0,0,0,-1,1336,1093,0,0
119,-69,0,0,0,0,0,0,0,0,0,-1,1343,1093,0,0
126,-69,0,0,0,0,0,0,0,0,0,-1,1350,1093,0,0
133,-69,0,0,0,0,0,0,0,0,0,-1,1357,1093,0,0
140,-69,0,0,0,0,0,0,0,0,0,-1,1364,1093,0,0
147,-69,0,0,0,0,0,0,0,0,0,-1,1371,1093,0,0
154,-69,0,0,0,0,0,0,0,0,0,-1,1378,1093,0,0
161,-69,0,0,0,0,0,0,0,0,0,-1,1385,1093,0,0
168,-69,0,0,0,0,0,0,0,0,0,-1,1392,1093,0,0
175,-69,0,0,0,0,0,0,0,0,0,-1,1399,1093,0,0
182,-69,0,0,0,0,0,0,0,0,0,-1,1406,1093,0,0
189,-69,0,0,0,0,0,0,0,0,0,-1,1413,1093,0,0
196,-69,0,0,0,0,0,0,0,0,0,-1,1420,1093,0,0
203,-69,0,0,0,0,0,0,0,0,0,-1,1427,1093,0,0
210,-69,0,0,0,0,0,0,0,0,0,-1,1434,1093,0,0
217,-69,0,0,0,0,0,0,0,0,0,-1,1441,1093,0,0
224,-69,0,0,0,0,0,0,0,0,0,-1,1448,1093,0,0
231,-69,0,0,0,0,0,0,0,0,0,-1,1455,1093,0,0
238,-69,0,0,0,0,0,0,0,0,0,-1,1462,1093,0,0
245,-69,0,0,0,0,0,0,0,0,0,-1,1469,1093,0,0
252,-69,0,0,0,0,0,0,0,0,0,-1,1476,1093,0,0
259,-69,0,0,0,0,0,0,0,0,0,-1,1483,1093,0,0
266,-69,0,0,0,0,0,0,0,0,0,-1,1490,1093,0,0
273,-69,0,0,0,0,0,0,0,0,0,-1,1497,1093,0,0
280,-69,0,0,0,0,0,0,0,0,0,-1,1504,1093,0,0
287,-69,0,0,0,0,0,0,0,0,0,-1,1511,1093,0,0
294,-69,0,0,0,0,0,0,0,0,0,-1,1518,1093,0,0
301,-69,0,0,0,0,0,0,0,0,0,-1,1525,1093,0,0
308,-69,0,0,0,0,0,0,0,0,0,-1,1532,1093,0,0
315,-69,0,0,0,0,0,0,0,0,0,-1,1539,1093,0,0
322,-69,0,0,0,0,0,0,0,0,0,-1,1546,1093,0,0
329,-69,0,0,0,0,0,0,0,0,0,-1,1553,1093,0,0
336,-69,0,0,0,0,0,0,0,0,0,-1,1560,1093,0,0
343,-69,0,0,0,0,0,0,0,0,0,-1,1567,1093,0,0
350,-69,0,0,0,0,0,0,0,0,0,-1,1574,1093,0,0
357,-69,0,0,0,0,0,0,0,0,0,-1,1581,1093,0,0
364,-69,0,0,0,0,0,0,0,0,0,-1,1588,1093,0,0
371,-69,0,0,0,0,0,0,0,0,0,-1,1595,1093,0,0
378,-69,0,0,0,0,0,0,0,0,0,-1,1602,1093,0,0
385,-69,0,0,0,0,0,0,0,0,0,-1,1609,1093,0,0
392,-69,0,0,0,0,0,0,0,0,0,-1,1616,1093,0,0
399,-69,0,0,0,0,0,0,0,0,0,-1,1623,1093,0,0
406,-69,0,0,0,0,0,0,0,0,0,-1,1630,1093,0,0
413,-69,0,0,0,0,0,0,0,0,0,-1,1637,1093,0,0
420,-69,0,0,0,0,0,0,0,0,0,-1,1644,1093,0,0
427,-69,0,0,0,0,0,0,0,0,0,-1,1651,1093,0,0
434,-69,0,0,0,0,0,0,0,0,0,-1,1658,1093,0,0
441,-69,0,0,0,0,0,0,0,0,0,-1,1665,1093,0,0
448,-69,0,0,0,0,0,0,0,0,0,-1,1672,1093,0,0
455,-69,0,0,0,0,0,0,0,0,0,-1,1679,1093,0,0
462,-69,0,0,0,0,0,0,0,0,0,-1,1686,1093,0,0
469,-69,0,0,0,0,0,0,0,0,0,-1,1693,1093,0,0
476,-69,0,0,0,0,0,0,0,0,0,-1,1700,1093,0,0
483,-69,0,0,0,0,0,0,0,0,0,-1,1707,1093,0,0
490,-69,0,0,0,0,0,0,0,0,0,-1,1714,1093,0,0
497,-69,0,0,0,0,0,0,0,0,0,-1,1721,1093,0,0
504,-69,0,0,0,0,0,0,0,0,0,-1,1728,1093,0,0
511,-69,0,0,0,0,0,0,0,0,0,-1,1735,1093,0,0
518,-69,0,0,0,0,0,0,0,0,0,-1,1742,1093,0,0
525,-69,0,0,0,0,0,0,0,0,0,-1,1749,1093,0,0
532,-69,0,0,0,0,0,0,0,0,0,-1,1756,1093,0,0
539,-69,0,0,0,0,0,0,0,0,0,-1,1763,1093,0,0
546,-69,0,0,0,0,0,0,0,0,0,-1,1770,1093,0,0
553,-69,0,0,0,0,0,0,0,0,0,-1,1777,1093,0,0
560,-69,0,0,0,0,0,0,0,0,0,-1,1784,1093,0,0
567,-69,0,0,0,0,0,0,0,0,0,-1,1791,1093,0,0
574,-69,0,0,0,0,0,0,0,0,0,-1,1798,1093,0,0
581,-69,0,0,0,0,0,0,0,0,0,-1,1805,1093,0,0
588,-69,0,0,0,0,0,0,0,0,0,-1,1812,1093,0,0
595,-69,0,0,0,0,0,0,0,0,0,-1,1819,1093,0,0
602,-69,0,0,0,0,0,0,0,0,0,-1,1826,1093,0,0
609,-69,0,0,0,0,0,0,0,0,0,-1,1833,1093,0,0
616,-69,0,0,0,0,0,0,0,0,0,-1,1840,1093,0,0
623,-69,0,0,0,0,0,0,0,0,0,-1,1847,1093,0,0
630,-69,0,0,0,0,0,0,0,0,0,-1,1854,1093,0,0
637,-69,0,0,0,0,0,0,0,0,0,-1,1861,1093,0,0
644,-69,0,0,0,0,0,0,0,0,0,-1,1868,1093,0,0
651,-69,24.1925,2.74597,0.00260923,-0.00119258,0.00128523,0.00300294,-0.00158629,0.297257,0.00269134,0.0388365,1875,1093,24.1925,-2.74592
658,-69,24.2013,2.72961,0.00204709,-0.00103661,0.000603909,0.00216114,-0.00115066,0.186656,0.00194151,0.0394885,1882,1093,24.2013,-2.72967
665,-69,24.0774,2.77527,0.00158964,-0.000892501,0.000244433,0.00161348,-0.000916343,0.0972322,0.00147896,0.0410406,1889,1093,24.0773,-2.77528
672,-69,23.9286,2.72583,0.0011591,-0.00100068,0.000851216,0.00145425,-0.00129583,0.333766,0.00158864,0.0380901,1896,1093,23.9286,-2.72579
679,-69,23.9952,2.76453,0.000464235,-0.00135546,0.00215234,0.00189113,-0.00278236,0.585427,0.00271455,0.0376324,1903,1093,23.9952,-2.76448
686,-69,24.1571,2.77258,-0.000328589,-0.0017474,0.00349764,0.00253087,-0.00460685,0.685344,0.00417866,0.0391987,1910,1093,24.1571,-2.77254
693,-69,24.1266,2.66553,-0.000945798,-0.00210357,0.00466294,0.00317406,-0.00622343,0.723641,0.00552003,0.0367514,1917,1093,24.1266,-2.66547
700,-69,24.101,2.65466,-0.00146049,-0.00233621,0.00549071,0.00360979,-0.00740649,0.745609,0.00648494,0.0284835,1924,1093,24.1009,-2.65465
707,-69,24.0916,2.70715,-0.00190241,-0.00245502,0.00606869,0.00389626,-0.0082537,0.762649,0.00716358,0.0189671,1931,1093,24.0916,-2.70714
714,-69,24.1382,2.63904,-0.00224471,-0.00244193,0.0064443,0.00410174,-0.00878838,0.777748,0.00760431,0.0220608,1938,1093,24.1382,-2.63899
721,-69,24.2704,3.83276,0,0,0,0,0,0,0,-1,1945,1093,24.2703,-3.83282
728,-69,23.6426,4.41492,-0.00269915,-0.0021183,0.00658476,0.00418244,-0.00899988,0.807437,0.00777838,0.0320996,1952,1093,23.6426,-4.41496
735,-69,23.415,4.46472,-0.0029503,-0.0016255,0.00594156,0.00369047,-0.00826627,0.840912,0.00706972,0.0197041,1959,1093,23.415,-4.46469
742,-69,23.4165,4.39124,-0.00289249,-0.000827721,0.00474725,0.0029981,-0.00671832,0.892466,0.0057452,0.014854,1966,1093,23.4166,-4.39124
749,-69,23.3531,4.2832,-0.00245786,-0.000415196,0.00321251,0.00193442,-0.00480748,0.939307,0.00400852,0.0159945,1973,1093,23.3532,-4.2832
756,-69,23.3657,4.22534,-0.00148227,0.000653466,0.000789125,0.000913401,-0.0017422,1.25259,0.00155791,0.0139802,1980,1093,23.3657,-4.22534
763,-69,23.349,4.16003,-3.70785e-05,0.00187856,-0.00253751,0.003633,-0.00179152,-0.965863,0.00319144,0.0135568,1987,1093,23.3491,-4.16001
770,-69,23.342,4.0802,0.00178383,0.00318875,-0.00640215,0.00892686,-0.00395428,-0.840041,0.00761941,0.0127538,1994,1093,23.342,-4.08022
777,-69,23.3145,3.96106,0.00442885,0.004429,-0.0107307,0.0151596,-0.00630179,-0.785402,0.0127377,0.0171907,2001,1093,23.3145,-3.96104
784,-69,23.2872,3.70996,0.0079531,0.00550988,-0.0154656,0.0222452,-0.00878224,-0.745985,0.0184673,0.0292655,2008,1093,23.2873,-3.70991
791,-69,23.1849,2.78857,0.0126799,0.00654824,-0.0213578,0.0311908,-0.0119627,-0.714112,0.0257258,0.0433384,2015,1093,23.1849,-2.7886
798,-69,23.2498,3.19482,0,0,0,0,0,0,0,-1,2022,1093,23.2498,-3.19477
805,-69,23.502,2.44897,0.0291806,0.00878592,-0.0386553,0.0589609,-0.0209944,-0.656435,0.0478656,0.0476343,2029,1093,23.5019,-2.44892
812,-69,24.1165,1.56262,0.0425313,0.0102259,-0.0508491,0.0797316,-0.0269744,-0.631609,0.0640675,0.0452613,2036,1093,24.1165,-1.56265
-700,-76,0,0,0,0,0,0,0,0,0,-1,524,1100,0,0
-693,-76,-13.3943,1.14966,0,0,0,0,0,0,0,-1,531,1100,-13.3943,-1.14966
-686,-76,-20.16,-0.674072,0.111349,0.0341885,-0.0108923,0.112857,0.0326803,-0.137584,0.0670539,0.0488061,538,1100,-20.16,0.674116
-679,-76,-19.3582,-0.54126,0.0961472,0.0301114,-0.00911881,0.0973832,0.0288753,-0.13473,0.0577555,0.0450763,545,1100,-19.3581,0.541305
-672,-76,-18.4674,-0.422974,0.0807038,0.0256817,-0.00731042,0.0816585,0.024727,-0.129862,0.0483523,0.0455919,552,1100,-18.4674,0.423004
-665,-76,-17.0939,0.0100098,0.0658186,0.0212315,-0.00560927,0.0665134,0.0205367,-0.123247,0.0393267,0.0487949,559,1100,-17.0939,-0.0100307
-658,-76,-16.5057,0.602783,0.0520096,0.0169842,-0.0041053,0.0524844,0.0165094,-0.11513,0.0309888,0.0471194,566,1100,-16.5057,-0.602769
-651,-76,-15.8408,1.30615,0.0397157,0.0130893,-0.00285476,0.0400183,0.0127867,-0.105616,0.023601,0.030141,573,1100,-15.8408,-1.30611
-644,-76,-15.8888,1.41895,0.0293016,0.00969503,-0.00192424,0.0294887,0.00950796,-0.0969103,0.0173795,0.0106041,580,1100,-15.8888,-1.41893
-637,-76,-15.9229,1.52283,0.0201849,0.00685521,-0.00199447,0.0204769,0.00656318,-0.145385,0.0120736,0.0129323,587,1100,-15.9229,-1.52277
-630,-76,-15.9104,1.62427,0.0113457,0.00401903,-0.00284031,0.0123178,0.00304692,-0.32976,0.00740814,0.0132798,594,1100,-15.9104,-1.62422
-623,-76,-15.9086,1.74744,0.00496403,0.00143336,-0.0035042,0.00712245,-0.000725057,-0.552066,0.00500751,0.0125174,601,1100,-15.9086,-1.74739
-616,-76,-15.9104,1.85046,0.00105941,-0.000466236,-0.00441718,0.00477914,-0.00418598,-0.699894,0.00517979,0.0115799,608,1100,-15.9104,-1.85046
-609,-76,-15.9197,1.95386,-0.00143278,-0.000947964,-0.00567559,0.00449039,-0.00687113,-0.80674,0.00660741,0.0127383,615,1100,-15.9197,-1.95383
-602,-76,-15.9164,2.08643,-0.00261062,-0.000788789,-0.007072,0.00543072,-0.00883013,-0.849449,0.00831112,0.0164451,622,1100,-15.9164,-2.08646
-595,-76,-15.8878,2.14795,-0.00314091,-0.000406233,-0.0081407,0.00648115,-0.0100283,-0.868603,0.00960479,0.0211953,629,1100,-15.8878,-2.1479
-588,-76,-16.0626,1.87402,-0.00301896,-7.2149e-05,-0.00861908,0.00719855,-0.0102897,-0.870053,0.0101493,0.0304145,636,1100,-16.0625,-1.87398
-581,-76,-16.4817,0.750244,0,0,0,0,0,0,0,-1,643,1100,-16.4817,-0.750226
-574,-76,-16.4899,0.670654,-0.00223245,0.00126458,-0.00839858,0.00809473,-0.0090626,-0.888028,0.00991104,0.0352479,650,1100,-16.4898,-0.670625
-567,-76,-16.4088,0.759033,-0.00151869,0.00236713,-0.00767565,0.00834195,-0.00749351,-0.909358,0.00914698,0.0397758,657,1100,-16.4088,-0.758982
-560,-76,-16.4508,0.76062,-0.000485033,0.00365548,-0.00638984,0.00830207,-0.00513162,-0.942058,0.00782761,0.0395708,664,1100,-16.4508,-0.760601
-553,-76,-16.5327,0.673462,0.000858729,0.00500028,-0.00454639,0.00792529,-0.00206627,-0.999098,0.00609026,0.0419685,671,1100,-16.5327,-0.673494
-546,-76,-16.5654,0.841675,0.00256418,0.00620965,-0.00213663,0.00719539,0.00157844,-1.13854,0.00436693,0.0416143,678,1100,-16.5654,-0.841674
-539,-76,-16.3719,0.936401,0.00456485,0.00701111,0.000524405,0.00711878,0.00445717,1.36828,0.00415338,0.041691,685,1100,-16.3719,-0.936379
-532,-76,-16.0209,0.911621,0.00570155,0.00667873,0.00180804,0.00806303,0.00431725,0.917362,0.00465909,0.0417654,692,1100,-16.0208,-0.911639
-525,-76,0,0,0,0,0,0,0,0,0,-1,699,1100,0,0
-518,-76,0,0,0,0,0,0,0,0,0,-1,706,1100,0,0
-511,-76,0,0,0,0,0,0,0,0,0,-1,713,1100,0,0
-504,-76,0,0,0,0,0,0,0,0,0,-1,720,1100,0,0
-497,-76,0,0,0,0,0,0,0,0,0,-1,727,1100,0,0
-490,-76,0,0,0,0,0,0,0,0,0,-1,734,1100,0,0
-483,-76,0,0,0,0,0,0,0,0,0,-1,741,1100,0,0
-476,-76,0,0,0,0,0,0,0,0,0,-1,748,1100,0,0
-469,-76,0,0,0,0,0,0,0,0,0,-1,755,1100,0,0
-462,-76,0,0,0,0,0,0,0,0,0,-1,762,1100,0,0
-455,-76,0,0,0,0,0,0,0,0,0,-1,769,1100,0,0
-448,-76,0,0,0,0,0,0,0,0,0,-1,776,1100,0,0
-441,-76,0,0,0,0,0,0,0,0,0,-1,783,1100,0,0
-434,-76,0,0,0,0,0,0,0,0,0,-1,790,1100,0,0
-427,-76,0,0,0,0,0,0,0,0,0,-1,797,1100,0,0
-420,-76,0,0,0,0,0,0,0,0,0,-1,804,1100,0,0
-413,-76,0,0,0,0,0,0,0,0,0,-1,811,1100,0,0
-406,-76,0,0,0,0,0,0,0,0,0,-1,818,1100,0,0
-399,-76,0,0,0,0,0,0,0,0,0,-1,825,1100,0,0
-392,-76,0,0,0,0,0,0,0,0,0,-1,832,1100,0,0
-385,-76,0,0,0,0,0,0,0,0,0,-1,839,1100,0,0
-378,-76,0,0,0,0,0,0,0,0,0,-1,846,1100,0,0
-371,-76,0,0,0,0,0,0,0,0,0,-1,853,1100,0,0
-364,-76,0,0,0,0,0,0,0,0,0,-1,860,1100,0,0
-357,-76,0,0,0,0,0,0,0,0,0,-1,867,1100,0,0
-350,-76,0,0,0,0,0,0,0,0,0,-1,874,1100,0,0
-343,-76,0,0,0,0,0,0,0,0,0,-1,881,1100,0,0
-336,-76,0,0,0,0,0,0,0,0,0,-1,888,1100,0,0
-329,-76,0,0,0,0,0,0,0,0,0,-1,895,1100,0,0
-322,-76,0,0,0,0,0,0,0,0,0,-1,902,1100,0,0
-315,-76,0,0,0,0,0,0,0,0,0,-1,909,1100,0,0
-308,-76,0,0,0,0,0,0,0,0,0,-1,916,1100,0,0
-301,-76,0,0,0,0,0,0,0,0,0,-1,923,1100,0,0
-294,-76,0,0,0,0,0,0,0,0,0,-1,930,1100,0,0
-287,-76,0,0,0,0,0,0,0,0,0,-1,937,1100,0,0
-280,-76,0,0,0,0,0,0,0,0,0,-1,944,1100,0,0
-273,-76,0,0,0,0,0,0,0,0,0,-1,951,1100,0,0
-266,-76,0,0,0,0,0,0,0,0,0,-1,958,1100,0,0
-259,-76,0,0,0,0,0,0,0,0,0,-1,965,1100,0,0
-252,-76,0,0,0,0,0,0,0,0,0,-1,972,1100,0,0
-245,-76,0,0,0,0,0,0,0,0,0,-1,979,1100,0,0
-238,-76,0,0,0,0,0,0,0,0,0,-1,986,1100,0,0
-231,-76,0,0,0,0,0,0,0,0,0,-1,993,1100,0,0
-224,-76,0,0,0,0,0,0,0,0,0,-1,1000,1100,0,0
-217,-76,0,0,0,0,0,0,0,0,0,-1,1007,1100,0,0
-210,-76,0,0,0,0,0,0,0,0,0,-1,1014,1100,0,0
-203,-76,0,0,0,0,0,0,0,0,0,-1,1021,1100,0,0
-196,-76,0,0,0,0,0,0,0,0,0,-1,1028,1100,0,0
-189,-76,0,0,0,0,0,0,0,0,0,-1,1035,1100,0,0
-182,-76,0,0,0,0,0,0,0,0,0,-1,1042,1100,0,0
-175,-76,0,0,0,0,0,0,0,0,0,-1,1049,1100,0,0
-168,-76,0,0,0,0,0,0,0,0,0,-1,1056,1100,0,0
-161,-76,0,0,0,0,0,0,0,0,0,-1,1063,1100,0,0
-154,-76,0,0,0,0,0,0,0,0,0,-1,1070,1100,0,0
-147,-76,0,0,0,0,0,0,0,0,0,-1,1077,1100,0,0
-140,-76,0,0,0,0,0,0,0,0,0,-1,1084,1100,0,0
-133,-76,0,0,0,0,0,0,0,0,0,-1,1091,1100,0,0
-126,-76,0,0,0,0,0,0,0,0,0,-1,1098,1100,0,0
-119,-76,0,0,0,0,0,0,0,0,0,-1,1105,1100,0,0
-112,-76,0,0,0,0,0,0,0,0,0,-1,1112,1100,0,0
-105,-76,0,0,0,0,0,0,0,0,0,-1,1119,1100,0,0
-98,-76,0,0,0,0,0,0,0,0,0,-1,1126,1100,0,0
-91,-76,0,0,0,0,0,0,0,0,0,-1,1133,1100,0,0
-84,-76,0,0,0,0,0,0,0,0,0,-1,1140,1100,0,0
-77,-76,0,0,0,0,0,0,0,0,0,-1,1147,1100,0,0
-70,-76,0,0,0,0,0,0,0,0,0,-1,1154,1100,0,0
-63,-76,0,0,0,0,0,0,0,0,0,-1,1161,1100,0,0
-56,-76,0,0,0,0,0,0,0,0,0,-1,1168,1100,0,0
-49,-76,0,0,0,0,0,0,0,0,0,-1,1175,1100,0,0
-42,-76,0,0,0,0,0,0,0,0,0,-1,1182,1100,0,0
-35,-76,0,0,0,0,0,0,0,0,0,-1,1189,1100,0,0
-28,-76,0,0,0,0,0,0,0,0,0,-1,1196,1100,0,0
-21,-76,0,0,0,0,0,0,0,0,0,-1,1203,1100,0,0
-14,-76,0,0,0,0,0,0,0,0,0,-1,1210,1100,0,0
-7,-76,0,0,0,0,0,0,0,0,0,-1,1217,1100,0,0
0,-76,0,0,0,0,0,0,0,0,0,-1,1224,1100,0,0
7,-76,0,0,0,0,0,0,0,0,0,-1,1231,1100,0,0
14,-76,0,0,0,0,0,0,0,0,0,-1,1238,1100,0,0
21,-76,0,0,0,0,0,0,0,0,0,-1,1245,1100,0,0
28,-76,0,0,0,0,0,0,0,0,0,-1,1252,1100,0,0
35,-76,0,0,0,0,0,0,0,0,0,-1,1259,1100,0,0
42,-76,0,0,0,0,0,0,0,0,0,-1,1266,1100,0,0
49,-76,0,0,0,0,0,0,0,0,0,-1,1273,1100,0,0
56,-76,0,0,0,0,0,0,0,0,0,-1,1280,1100,0,0
63,-76,0,0,0,0,0,0,0,0,0,-1,1287,1100,0,0
70,-76,0,0,0,0,0,0,0,0,0,-1,1294,1100,0,0
77,-76,0,0,0,0,0,0,0,0,0,-1,1301,1100,0,0
84,-76,0,0,0,0,0,0,0,0,0,-1,1308,1100,0,0
91,-76,0,0,0,0,0,0,0,0,0,-1,1315,1100,0,0
98,-76,0,0,0,0,0,0,0,0,0,-1,1322,1100,0,0
105,-76,0,0,0,0,0,0,0,0,0,-1,1329,1100,0,0
112,-76,0,0,0,0,0,0,0,0,0,-1,1336,1100,0,0
119,-76,0,0,0,0,0,0,0,0,0,-1,1343,1100,0,0
126,-76,0,0,0,0,0,0,0,0,0,-1,1350,1100,0,0
133,-76,0,0,0,0,0,0,0,0,0,-1,1357,1100,0,0
140,-76,0,0,0,0,0,0,0,0,0,-1,1364,1100,0,0
147,-76,0,0,0,0,0,0,0,0,0,-1,1371,1100,0,0
154,-76,0,0,0,0,0,0,0,0,0,-1,1378,1100,0,0
161,-76,0,0,0,0,0,0,0,0,0,-1,1385,1100,0,0
168,-76,0,0,0,0,0,0,0,0,0,-1,1392,1100,0,0
175,-76,0,0,0,0,0,0,0,0,0,-1,1399,1100,0,0
182,-76,0,0,0,0,0,0,0,0,0,-1,1406,1100,0,0
189,-76,0,0,0,0,0,0,0,0,0,-1,1413,1100,0,0
196,-76,0,0,0,0,0,0,0,0,0,-1,1420,1100,0,0
203,-76,0,0,0,0,0,0,0,0,0,-1,1427,1100,0,0
210,-76,0,0,0,0,0,0,0,0,0,-1,1434,1100,0,0
217,-76,0,0,0,0,0,0,0,0,0,-1,1441,1100,0,0
224,-76,0,0,0,0,0,0,0,0,0,-1,1448,1100,0,0
231,-76,0,0,0,0,0,0,0,0,0,-1,1455,1100,0,0
238,-76,0,0,0,0,0,0,0,0,0,-1,1462,1100,0,0
245,-76,0,0,0,0,0,0,0,0,0,-1,1469,1100,0,0
252,-76,0,0,0,0,0,0,0,0,0,-1,1476,1100,0,0
259,-76,0,0,0,0,0,0,0,0,0,-1,1483,1100,0,0
266,-76,0,0,0,0,0,0,0,0,0,-1,1490,1100,0,0
273,-76,0,0,0,0,0,0,0,0,0,-1,1497,1100,0,0
280,-76,0,0,0,0,0,0,0,0,0,-1,1504,1100,0,0
287,-76,0,0,0,0,0,0,0,0,0,-1,1511,1100,0,0
294,-76,0,0,0,0,0,0,0,0,0,-1,1518,1100,0,0
301,-76,0,0,0,0,0,0,0,0,0,-1,1525,1100,0,0
308,-76,0,0,0,0,0,0,0,0,0,-1,1532,1100,0,0
315,-76,0,0,0,0,0,0,0,0,0,-1,1539,1100,0,0
322,-76,0,0,0,0,0,0,0,0,0,-1,1546,1100,0,0
329,-76,0,0,0,0,0,0,0,0,0,-1,1553,1100,0,0
336,-76,0,0,0,0,0,0,0,0,0,-1,1560,1100,0,0
343,-76,0,0,0,0,0,0,0,0,0,-1,1567,1100,0,0
350,-76,0,0,0,0,0,0,0,0,0,-1,1574,1100,0,0
357,-76,0,0,0,0,0,0,0,0,0,-1,1581,1100,0,0
364,-76,0,0,0,0,0,0,0,0,0,-1,1588,1100,0,0
371,-76,0,0,0,0,0,0,0,0,0,-1,1595,1100,0,0
378,-76,0,0,0,0,0,0,0,0,0,-1,1602,1100,0,0
385,-76,0,0,0,0,0,0,0,0,0,-1,1609,1100,0,0
392,-76,0,0,0,0,0,0,0,0,0,-1,1616,1100,0,0
399,-76,0,0,0,0,0,0,0,0,0,-1,1623,1100,0,0
406,-76,0,0,0,0,0,0,0,0,0,-1,1630,1100,0,0
413,-76,0,0,0,0,0,0,0,0,0,-1,1637,1100,0,0
420,-76,0,0,0,0,0,0,0,0,0,-1,1644,1100,0,0
427,-76,0,0,0,0,0,0,0,0,0,-1,1651,1100,0,0
434,-76,0,0,0,0,0,0,0,0,0,-1,1658,1100,0,0
441,-76,0,0,0,0,0,0,0,0,0,-1,1665,1100,0,0
448,-76,0,0,0,0,0,0,0,0,0,-1,1672,1100,0,0
455,-76,0,0,0,0,0,0,0,0,0,-1,1679,1100,0,0
462,-76,0,0,0,0,0,0,0,0,0,-1,1686,1100,0,0
469,-76,0,0,0,0,0,0,0,0,0,-1,1693,1100,0,0
476,-76,0,0,0,0,0,0,0,0,0,-1,1700,1100,0,0
483,-76,0,0,0,0,0,0,0,0,0,-1,1707,1100,0,0
490,-76,0,0,0,0,0,0,0,0,0,-1,1714,1100,0,0
497,-76,0,0,0,0,0,0,0,0,0,-1,1721,1100,0,0
504,-76,0,0,0,0,0,0,0,0,0,-1,1728,1100,0,0
511,-76,0,0,0,0,0,0,0,0,0,-1,1735,1100,0,0
518,-76,0,0,0,0,0,0,0,0,0,-1,1742,1100,0,0
525,-76,0,0,0,0,0,0,0,0,0,-1,1749,1100,0,0
532,-76,0,0,0,0,0,0,0,0,0,-1,1756,1100,0,0
539,-76,0,0,0,0,0,0,0,0,0,-1,1763,1100,0,0
546,-76,0,0,0,0,0,0,0,0,0,-1,1770,1100,0,0
553,-76,0,0,0,0,0,0,0,0,0,-1,1777,1100,0,0
560,-76,0,0,0,0,0,0,0,0,0,-1,1784,1100,0,0
567,-76,0,0,0,0,0,0,0,0,0,-1,1791,1100,0,0
574,-76,0,0,0,0,0,0,0,0,0,-1,1798,1100,0,0
581,-76,0,0,0,0,0,0,0,0,0,-1,1805,1100,0,0
588,-76,0,0,0,0,0,0,0,0,0,-1,1812,1100,0,0
595,-76,0,0,0,0,0,0,0,0,0,-1,1819,1100,0,0
602,-76,0,0,0,0,0,0,0,0,0,-1,1826,1100,0,0
609,-76,0,0,0,0,0,0,0,0,0,-1,1833,1100,0,0
616,-76,0,0,0,0,0,0,0,0,0,-1,1840,1100,0,0
623,-76,0,0,0,0,0,0,0,0,0,-1,1847,1100,0,0
630,-76,0,0,0,0,0,0,0,0,0,-1,1854,1100,0,0
637,-76,0,0,0,0,0,0,0,0,0,-1,1861,1100,0,0
644,-76,0,0,0,0,0,0,0,0,0,-1,1868,1100,0,0
651,-76,24.1544,2.71619,0.00326158,-0.000930189,0.00155148,0.00377335,-0.00144195,0.318617,0.00310972,0.0386079,1875,1100,24.1544,-2.71614
658,-76,24.1471,2.71094,0.00253986,-0.000831785,0.000807051,0.00272308,-0.00101501,0.223243,0.00223203,0.0366553,1882,1100,24.147,-2.71098
665,-76,24.1555,2.69141,0.00194647,-0.000747314,0.000409892,0.00200746,-0.000808303,0.14771,0.0016741,0.0371118,1889,1100,24.1555,-2.69141
672,-76,24.0728,2.67517,0.00141118,-0.000927475,0.000920194,0.00172983,-0.00124613,0.333365,0.00172572,0.0379137,1896,1100,24.0728,-2.67512
679,-76,24.0917,2.62451,0.00064353,-0.00132831,0.00201886,0.00190435,-0.00258913,0.558254,0.00260433,0.0373449,1903,1100,24.0917,-2.62455
686,-76,24.1393,2.771,-0.00015838,-0.0017368,0.00314025,0.00229032,-0.00418549,0.662288,0.00379181,0.0384273,1910,1100,24.1393,-2.77102
693,-76,24.1298,2.73096,-0.000755244,-0.00208562,0.00408971,0.00272302,-0.00556389,0.704779,0.00487726,0.0378944,1917,1100,24.1297,-2.7309
700,-76,24.1227,2.70203,-0.00122827,-0.00230015,0.00471191,0.00297809,-0.0065065,0.728771,0.00560081,0.0304407,1924,1100,24.1226,-2.70199
707,-76,24.1051,2.71033,-0.00165814,-0.00240208,0.00513988,0.00312321,-0.00718344,0.749276,0.00610252,0.0209106,1931,1100,24.1051,-2.71037
714,-76,24.1632,2.83801,-0.00204007,-0.00237626,0.00543373,0.00322816,-0.00764449,0.769936,0.00644763,0.031114,1938,1100,24.1632,-2.83801
721,-76,23.7703,3.82532,0,0,0,0,0,0,0,-1,1945,1100,23.7702,-3.82531
728,-76,23.4418,4.49487,-0.00248326,-0.00209178,0.00562657,0.00334245,-0.00791749,0.802785,0.00667741,0.0261684,1952,1100,23.4418,-4.49492
735,-76,23.1853,4.46167,-0.00267859,-0.00161724,0.00508898,0.00296867,-0.00726449,0.83735,0.00607917,0.0218973,1959,1100,23.1853,-4.46172
742,-76,23.2979,4.38208,-0.00249503,-0.0010598,0.00400744,0.00229378,-0.0058486,0.873994,0.00484804,0.0149511,1966,1100,23.2978,-4.38209
749,-76,23.2518,4.27954,-0.0019642,-0.000843698,0.00258219,0.00123832,-0.00404622,0.892226,0.00319136,0.0152274,1973,1100,23.2518,-4.27959
756,-76,23.2593,4.21533,-0.000872158,-8.11148e-05,0.000281005,8.54512e-06,-0.000961818,1.26194,0.000644079,0.0139746,1980,1100,23.2592,-4.21528
763,-76,23.2778,4.12195,0.000837078,0.000789877,-0.00303522,0.00384879,-0.00222184,-0.78151,0.00354659,0.0134674,1987,1100,23.2778,-4.122
770,-76,23.2906,4.03882,0.00305698,0.00157159,-0.00690966,0.00926374,-0.00463518,-0.731861,0.00817152,0.012829,1994,1100,23.2906,-4.03881
777,-76,23.274,3.96021,0.00619601,0.00205527,-0.0112906,0.0156045,-0.00735323,-0.69472,0.013537,0.016521,2001,1100,23.274,-3.96019
784,-76,23.2777,3.78406,0.0103001,0.00221432,-0.0162118,0.0229655,-0.0104511,-0.663201,0.0197389,0.0295771,2008,1100,23.2777,-3.78412
791,-76,23.2047,3.06311,0.0157679,0.00215153,-0.0224241,0.0323946,-0.0144751,-0.638016,0.0277116,0.0420432,2015,1100,23.2047,-3.06307
798,-76,23.3405,2.8291,0,0,0,0,0,0,0,-1,2022,1100,23.3404,-2.82905
805,-76,23.5984,2.09241,0,0,0,0,0,0,0,-1,2029,1100,23.5985,-2.09242
812,-76,23.8564,1.35583,0,0,0,0,0,0,0,-1,2036,1100,23.8565,-1.3558
-700,-83,0,0,0,0,0,0,0,0,0,-1,524,1107,0,0
-693,-83,-21.489,-1.11511,0.143687,0.0421784,-0.0122475,0.145144,0.0407216,-0.118392,0.0864472,0.0494097,531,1107,-21.489,1.11512
-686,-83,-20.189,-1.00439,0.125704,0.0372242,-0.0117601,0.12724,0.0356878,-0.129908,0.0757856,0.0484844,538,1107,-20.189,1.00439
-679,-83,-18.7228,-0.745605,0.106766,0.03174,-0.0104666,0.108198,0.0303072,-0.136047,0.0644506,0.0467354,545,1107,-18.7228,0.745649
-672,-83,-17.9596,-0.976318,0.0883641,0.0262891,-0.00883161,0.0895962,0.025057,-0.13861,0.0533763,0.0434264,552,1107,-17.9596,0.976321
-665,-83,-17.2,-0.415527,0.071172,0.0211401,-0.00711936,0.0721653,0.0201467,-0.138631,0.0429978,0.0417815,559,1107,-17.1999,0.415478
-658,-83,-16.5151,0.196411,0.055604,0.0164614,-0.00549938,0.056362,0.0157034,-0.136964,0.033587,0.0407335,566,1107,-16.5151,-0.196443
-651,-83,-15.7612,0.859131,0.0420184,0.0123546,-0.00406898,0.0425664,0.0118066,-0.133876,0.0253748,0.0332611,573,1107,-15.7613,-0.859181
-644,-83,-15.7476,1.3468,0.0307254,0.00892768,-0.00293147,0.0311127,0.00854033,-0.131376,0.0185619,0.0158778,580,1107,-15.7476,-1.34686
-637,-83,-15.7571,1.50525,0.0209123,0.00609498,-0.00276597,0.0214118,0.00559549,-0.178659,0.012823,0.0111219,587,1107,-15.7571,-1.50529
-630,-83,-15.7535,1.62866,0.0113219,0.00329157,-0.00336155,0.0125433,0.00207018,-0.348512,0.00776469,0.014673,594,1107,-15.7535,-1.62863
-623,-83,-15.765,1.74854,0.00462506,0.00078294,-0.00373584,0.00690483,-0.00149683,-0.547917,0.00517483,0.0147128,601,1107,-15.7649,-1.74854
-616,-83,-15.7984,1.86548,0.000775681,-0.000870283,-0.00449297,0.00452042,-0.00461502,-0.694817,0.00527444,0.0124081,608,1107,-15.7984,-1.86545
-609,-83,-15.8117,1.98242,-0.00165375,-0.00122723,-0.00560777,0.00417133,-0.00705231,-0.804404,0.00655075,0.0123657,615,1107,-15.8117,-1.98238
-602,-83,-15.8152,2.11328,-0.0028525,-0.00104646,-0.00689923,0.0050086,-0.00890756,-0.850472,0.00813893,0.012836,622,1107,-15.8153,-2.11324
-595,-83,-15.7631,2.21582,-0.00343613,-0.000713108,-0.00789926,0.00594112,-0.0100904,-0.870739,0.00935855,0.0163403,629,1107,-15.7631,-2.21578
-588,-83,-15.9371,1.88123,-0.00337199,-0.000479502,-0.00834066,0.00653937,-0.0103909,-0.871243,0.00985863,0.0347436,636,1107,-15.9371,-1.88128
-581,-83,-16.4964,0.765137,0,0,0,0,0,0,0,-1,643,1107,-16.4964,-0.765126
-574,-83,-16.4359,0.654785,-0.00267918,0.00059989,-0.00812649,0.00725058,-0.00932987,-0.884938,0.00959779,0.0362071,650,1107,-16.4359,-0.654772
-567,-83,-16.3431,0.700317,-0.00199824,0.0015454,-0.00745267,0.00743397,-0.00788681,-0.902103,0.00884675,0.0402599,657,1107,-16.3432,-0.700294
-560,-83,-16.3358,0.740356,-0.000998856,0.00269291,-0.00622741,0.00734226,-0.0056482,-0.929479,0.00752127,0.0420236,664,1107,-16.3358,-0.740355
-553,-83,-16.3973,0.674927,0.00029785,0.00394792,-0.00444697,0.00692979,-0.00268401,-0.980118,0.00572812,0.0431822,671,1107,-16.3973,-0.674985
-546,-83,-16.4446,1.01379,0.00193277,0.00515857,-0.0020868,0.00618312,0.000908215,-1.1144,0.00385517,0.0412494,678,1107,-16.4447,-1.01374
-539,-83,-16.4363,0.908813,0.00390105,0.00609546,0.000645589,0.0062713,0.00372521,1.30487,0.00364201,0.0424468,685,1107,-16.4363,-0.908761
-532,-83,-16.1995,0.642334,0.0049842,0.00613264,0.00227379,0.00790359,0.00321325,0.909082,0.00458963,0.0453205,692,1107,-16.1995,-0.642301
-525,-83,0,0,0,0,0,0,0,0,0,-1,699,1107,0,0
-518,-83,0,0,0,0,0,0,0,0,0,-1,706,1107,0,0
-511,-83,0,0,0,0,0,0,0,0,0,-1,713,1107,0,0
-504,-83,0,0,0,0,0,0,0,0,0,-1,720,1107,0,0
-497,-83,0,0,0,0,0,0,0,0,0,-1,727,1107,0,0
-490,-83,0,0,0,0,0,0,0,0,0,-1,734,1107,0,0
-483,-83,0,0,0,0,0,0,0,0,0,-1,741,1107,0,0
-476,-83,0,0,0,0,0,0,0,0,0,-1,748,1107,0,0
-469,-83,0,0,0,0,0,0,0,0,0,-1,755,1107,0,0
-462,-83,0,0,0,0,0,0,0,0,0,-1,762,1107,0,0
-455,-83,0,0,0,0,0,0,0,0,0,-1,769,1107,0,0
-448,-83,0,0,0,0,0,0,0,0,0,-1,776,1107,0,0
-441,-83,0,0,0,0,0,0,0,0,0,-1,783,1107,0,0
-434,-83,0,0,0,0,0,0,0,0,0,-1,790,1107,0,0
-427,-83,0,0,0,0,0,0,0,0,0,-1,797,1107,0,0
-420,-83,0,0,0,0,0,0,0,0,0,-1,804,1107,0,0
-413,-83,0,0,0,0,0,0,0,0,0,-1,811,1107,0,0
-406,-83,0,0,0,0,0,0,0,0,0,-1,818,1107,0,0
-399,-83,0,0,0,0,0,0,0,0,0,-1,825,1107,0,0
-392,-83,0,0,0,0,0,0,0,0,0,-1,832,1107,0,0
-385,-83,0,0,0,0,0,0,0,0,0,-1,839,1107,0,0
-378,-83,0,0,0,0,0,0,0,0,0,-1,846,1107,0,0
-371,-83,0,0,0,0,0,0,0,0,0,-1,853,1107,0,0
-364,-83,0,0,0,0,0,0,0,0,0,-1,860,1107,0,0
-357,-83,0,0,0,0,0,0,0,0,0,-1,867,1107,0,0
-350,-83,0,0,0,0,0,0,0,0,0,-1,874,1107,0,0
-343,-83,0,0,0,0,0,0,0,0,0,-1,881,1107,0,0
-336,-83,0,0,0,0,0,0,0,0,0,-1,888,1107,0,0
-329,-83,0,0,0,0,0,0,0,0,0,-1,895,1107,0,0
-322,-83,0,0,0,0,0,0,0,0,0,-1,902,1107,0,0
-315,-83,0,0,0,0,0,0,0,0,0,-1,909,1107,0,0
-308,-83,0,0,0,0,0,0,0,0,0,-1,916,1107,0,0
-301,-83,0,0,0,0,0,0,0,0,0,-1,923,1107,0,0
-294,-83,0,0,0,0,0,0,0,0,0,-1,930,1107,0,0
-287,-83,0,0,0,0,0,0,0,0,0,-1,937,1107,0,0
-280,-83,0,0,0,0,0,0,0,0,0,-1,944,1107,0,0
-273,-83,0,0,0,0,0,0,0,0,0,-1,951,1107,0,0
-266,-83,0,0,0,0,0,0,0,0,0,-1,958,1107,0,0
-259,-83,0,0,0,0,0,0,0,0,0,-1,965,1107,0,0
-252,-83,0,0,0,0,0,0,0,0,0,-1,972,1107,0,0
-245,-83,0,0,0,0,0,0,0,0,0,-1,979,1107,0,0
-238,-83,0,0,0,0,0,0,0,0,0,-1,986,1107,0,0
-231,-83,0,0,0,0,0,0,0,0,0,-1,993,1107,0,0
-224,-83,0,0,0,0,0,0,0,0,0,-1,1000,1107,0,0
-217,-83,0,0,0,0,0,0,0,0,0,-1,1007,1107,0,0
-210,-83,0,0,0,0,0,0,0,0,0,-1,1014,1107,0,0
-203,-83,0,0,0,0,0,0,0,0,0,-1,1021,1107,0,0
-196,-83,0,0,0,0,0,0,0,0,0,-1,1028,1107,0,0
-189,-83,0,0,0,0,0,0,0,0,0,-1,1035,1107,0,0
-182,-83,0,0,0,0,0,0,0,0,0,-1,1042,1107,0,0
-175,-83,0,0,0,0,0,0,0,0,0,-1,1049,1107,0,0
-168,-83,0,0,0,0,0,0,0,0,0,-1,1056,1107,0,0
-161,-83,0,0,0,0,0,0,0,0,0,-1,1063,1107,0,0
-154,-83,0,0,0,0,0,0,0,0,0,-1,1070,1107,0,0
-147,-83,0,0,0,0,0,0,0,0,0,-1,1077,1107,0,0
-140,-83,0,0,0,0,0,0,0,0,0,-1,1084,1107,0,0
-133,-83,0,0,0,0,0,0,0,0,0,-1,1091,1107,0,0
-126,-83,0,0,0,0,0,0,0,0,0,-1,1098,1107,0,0
-119,-83,0,0,0,0,0,0,0,0,0,-1,1105,1107,0,0
-112,-83,0,0,0,0,0,0,0,0,0,-1,1112,1107,0,0
-105,-83,0,0,0,0,0,0,0,0,0,-1,1119,1107,0,0
-98,-83,0,0,0,0,0,0,0,0,0,-1,1126,1107,0,0
-91,-83,0,0,0,0,0,0,0,0,0,-1,1133,1107,0,0
-84,-83,0,0,0,0,0,0,0,0,0,-1,1140,1107,0,0
-77,-83,0,0,0,0,0,0,0,0,0,-1,1147,1107,0,0
-70,-83,0,0,0,0,0,0,0,0,0,-1,1154,1107,0,0
-63,-83,0,0,0,0,0,0,0,0,0,-1,1161,1107,0,0
-56,-83,0,0,0,0,0,0,0,0,0,-1,1168,1107,0,0
-49,-83,0,0,0,0,0,0,0,0,0,-1,1175,1107,0,0
-42,-83,0,0,0,0,0,0,0,0,0,-1,1182,1107,0,0
-35,-83,0,0,0,0,0,0,0,0,0,-1,1189,1107,0,0
-28,-83,0,0,0,0,0,0,0,0,0,-1,1196,1107,0,0
-21,-83,0,0,0,0,0,0,0,0,0,-1,1203,1107,0,0
-14,-83,0,0,0,0,0,0,0,0,0,-1,1210,1107,0,0
-7,-83,0,0,0,0,0,0,0,0,0,-1,1217,1107,0,0
0,-83,0,0,0,0,0,0,0,0,0,-1,1224,1107,0,0
7,-83,0,0,0,0,0,0,0,0,0,-1,1231,1107,0,0
14,-83,0,0,0,0,0,0,0,0,0,-1,1238,1107,0,0
21,-83,0,0,0,0,0,0,0,0,0,-1,1245,1107,0,0
28,-83,0,0,0,0,0,0,0,0,0,-1,1252,1107,0,0
35,-83,0,0,0,0,0,0,0,0,0,-1,1259,1107,0,0
42,-83,0,0,0,0,0,0,0,0,0,-1,1266,1107,0,0
49,-83,0,0,0,0,0,0,0,0,0,-1,1273,1107,0,0
56,-83,0,0,0,0,0,0,0,0,0,-1,1280,1107,0,0
63,-83,0,0,0,0,0,0,0,0,0,-1,1287,1107,0,0
70,-83,0,0,0,0,0,0,0,0,0,-1,1294,1107,0,0
77,-83,0,0,0,0,0,0,0,0,0,-1,1301,1107,0,0
84,-83,0,0,0,0,0,0,0,0,0,-1,1308,1107,0,0
91,-83,0,0,0,0,0,0,0,0,0,-1,1315,1107,0,0
98,-83,0,0,0,0,0,0,0,0,0,-1,1322,1107,0,0
105,-83,0,0,0,0,0,0,0,0,0,-1,1329,1107,0,0
112,-83,0,0,0,0,0,0,0,0,0,-1,1336,1107,0,0
119,-83,0,0,0,0,0,0,0,0,0,-1,1343,1107,0,0
126,-83,0,0,0,0,0,0,0,0,0,-1,1350,1107,0,0
133,-83,0,0,0,0,0,0,0,0,0,-1,1357,1107,0,0
140,-83,0,0,0,0,0,0,0,0,0,-1,1364,1107,0,0
147,-83,0,0,0,0,0,0,0,0,0,-1,1371,1107,0,0
154,-83,0,0,0,0,0,0,0,0,0,-1,1378,1107,0,0
161,-83,0,0,0,0,0,0,0,0,0,-1,1385,1107,0,0
168,-83,0,0,0,0,0,0,0,0,0,-1,1392,1107,0,0
175,-83,0,0,0,0,0,0,0,0,0,-1,1399,1107,0,0
182,-83,0,0,0,0,0,0,0,0,0,-1,1406,1107,0,0
189,-83,0,0,0,0,0,0,0,0,0,-1,1413,1107,0,0
196,-83,0,0,0,0,0,0,0,0,0,-1,1420,1107,0,0
203,-83,0,0,0,0,0,0,0,0,0,-1,1427,1107,0,0
210,-83,0,0,0,0,0,0,0,0,0,-1,1434,1107,0,0
217,-83,0,0,0,0,0,0,0,0,0,-1,1441,1107,0,0
224,-83,0,0,0,0,0,0,0,0,0,-1,1448,1107,0,0
231,-83,0,0,0,0,0,0,0,0,0,-1,1455,1107,0,0
238,-83,0,0,0,0,0,0,0,0,0,-1,1462,1107,0,0
245,-83,0,0,0,0,0,0,0,0,0,-1,1469,1107,0,0
252,-83,0,0,0,0,0,0,0,0,0,-1,1476,1107,0,0
259,-83,0,0,0,0,0,0,0,0,0,-1,1483,1107,0,0
266,-83,0,0,0,0,0,0,0,0,0,-1,1490,1107,0,0
273,-83,0,0,0,0,0,0,0,0,0,-1,1497,1107,0,0
280,-83,0,0,0,0,0,0,0,0,0,-1,1504,1107,0,0
287,-83,0,0,0,0,0,0,0,0,0,-1,1511,1107,0,0
294,-83,0,0,0,0,0,0,0,0,0,-1,1518,1107,0,0
301,-83,0,0,0,0,0,0,0,0,0,-1,1525,1107,0,0
308,-83,0,0,0,0,0,0,0,0,0,-1,1532,1107,0,0
315,-83,0,0,0,0,0,0,0,0,0,-1,1539,1107,0,0
322,-83,0,0,0,0,0,0,0,0,0,-1,1546,1107,0,0
329,-83,0,0,0,0,0,0,0,0,0,-1,1553,1107,0,0
336,-83,0,0,0,0,0,0,0,0,0,-1,1560,1107,0,0
343,-83,0,0,0,0,0,0,0,0,0,-1,1567,1107,0,0
350,-83,0,0,0,0,0,0,0,0,0,-1,1574,1107,0,0
357,-83,0,0,0,0,0,0,0,0,0,-1,1581,1107,0,0
364,-83,0,0,0,0,0,0,0,0,0,-1,1588,1107,0,0
371,-83,0,0,0,0,0,0,0,0,0,-1,1595,1107,0,0
378,-83,0,0,0,0,0,0,0,0,0,-1,1602,1107,0,0
385,-83,0,0,0,0,0,0,0,0,0,-1,1609,1107,0,0
392,-83,0,0,0,0,0,0,0,0,0,-1,1616,1107,0,0
399,-83,0,0,0,0,0,0,0,0,0,-1,1623,1107,0,0
406,-83,0,0,0,0,0,0,0,0,0,-1,1630,1107,0,0
413,-83,0,0,0,0,0,0,0,0,0,-1,1637,1107,0,0
420,-83,0,0,0,0,0,0,0,0,0,-1,1644,1107,0,0
427,-83,0,0,0,0,0,0,0,0,0,-1,1651,1107,0,0
434,-83,0,0,0,0,0,0,0,0,0,-1,1658,1107,0,0
441,-83,0,0,0,0,0,0,0,0,0,-1,1665,1107,0,0
448,-83,0,0,0,0,0,0,0,0,0,-1,1672,1107,0,0
455,-83,0,0,0,0,0,0,0,0,0,-1,1679,1107,0,0
462,-83,0,0,0,0,0,0,0,0,0,-1,1686,1107,0,0
469,-83,0,0,0,0,0,0,0,0,0,-1,1693,1107,0,0
476,-83,0,0,0,0,0,0,0,0,0,-1,1700,1107,0,0
483,-83,0,0,0,0,0,0,0,0,0,-1,1707,1107,0,0
490,-83,0,0,0,0,0,0,0,0,0,-1,1714,1107,0,0
497,-83,0,0,0,0,0,0,0,0,0,-1,1721,1107,0,0
504,-83,0,0,0,0,0,0,0,0,0,-1,1728,1107,0,0
511,-83,0,0,0,0,0,0,0,0,0,-1,1735,1107,0,0
518,-83,0,0,0,0,0,0,0,0,0,-1,1742,1107,0,0
525,-83,0,0,0,0,0,0,0,0,0,-1,1749,1107,0,0
532,-83,0,0,0,0,0,0,0,0,0,-1,1756,1107,0,0
539,-83,0,0,0,0,0,0,0,0,0,-1,1763,1107,0,0
546,-83,0,0,0,0,0,0,0,0,0,-1,1770,1107,0,0
553,-83,0,0,0,0,0,0,0,0,0,-1,1777,1107,0,0
560,-83,0,0,0,0,0,0,0,0,0,-1,1784,1107,0,0
567,-83,0,0,0,0,0,0,0,0,0,-1,1791,1107,0,0
574,-83,0,0,0,0,0,0,0,0,0,-1,1798,1107,0,0
581,-83,0,0,0,0,0,0,0,0,0,-1,1805,1107,0,0
588,-83,0,0,0,0,0,0,0,0,0,-1,1812,1107,0,0
595,-83,0,0,0,0,0,0,0,0,0,-1,1819,1107,0,0
602,-83,0,0,0,0,0,0,0,0,0,-1,1826,1107,0,0
609,-83,0,0,0,0,0,0,0,0,0,-1,1833,1107,0,0
616,-83,0,0,0,0,0,0,0,0,0,-1,1840,1107,0,0
623,-83,0,0,0,0,0,0,0,0,0,-1,1847,1107,0,0
630,-83,0,0,0,0,0,0,0,0,0,-1,1854,1107,0,0
637,-83,0,0,0,0,0,0,0,0,0,-1,1861,1107,0,0
644,-83,24.0161,2.72253,0.0051641,-0.000633921,0.00281881,0.0063086,-0.00177841,0.385686,0.00490716,0.0366854,1868,1107,24.0161,-2.72249
651,-83,24.047,2.76721,0.00400625,-0.000490458,0.00177609,0.00462313,-0.00110734,0.334291,0.00350992,0.0416179,1875,1107,24.047,-2.76718
658,-83,24.1316,2.77197,0.0031231,-0.00045418,0.00100939,0.00338826,-0.000719341,0.25689,0.0025329,0.041668,1882,1107,24.1316,-2.77195
665,-83,24.2025,2.71509,0.00237878,-0.000426056,0.000582398,0.0024949,-0.000542178,0.196805,0.00187037,0.0398983,1889,1107,24.2026,-2.71514
672,-83,24.1962,2.69958,0.00172099,-0.000642696,0.000955149,0.00205871,-0.000980413,0.339856,0.00179107,0.038549,1896,1107,24.1962,-2.69958
679,-83,24.1934,2.67688,0.000886404,-0.00105062,0.00179743,0.00195965,-0.00212386,0.538284,0.00235825,0.0384705,1903,1107,24.1934,-2.67682
686,-83,24.1932,2.75122,9.41356e-05,-0.00144908,0.00265914,0.00209136,-0.00344631,0.64419,0.00322891,0.0357744,1910,1107,24.1933,-2.75123
693,-83,24.1747,2.72107,-0.000470019,-0.0017759,0.00337856,0.00231811,-0.00456403,0.689945,0.00404332,0.0344894,1917,1107,24.1747,-2.72102
700,-83,24.1227,2.75342,-0.000890825,-0.00197973,0.00380975,0.00241318,-0.00528373,0.714424,0.00454566,0.0296841,1924,1107,24.1227,-2.75346
707,-83,24.1127,2.72693,-0.0013004,-0.00207045,0.00410119,0.0024338,-0.00580465,0.738595,0.00488738,0.0211167,1931,1107,24.1127,-2.72687
714,-83,24.1119,3.05652,-0.00172053,-0.00203729,0.00432563,0.00244962,-0.00620745,0.767099,0.00515273,0.0378007,1938,1107,24.1119,-3.05652
721,-83,24.0785,3.63184,0,0,0,0,0,0,0,-1,1945,1107,24.0785,-3.63183
728,-83,23.1771,4.52856,-0.00216768,-0.00179093,0.00454553,0.00257013,-0.00652874,0.806107,0.00541642,0.0225596,1952,1107,23.1771,-4.52856
735,-83,23.0784,4.43054,-0.00232263,-0.00136253,0.00410666,0.00229204,-0.0059772,0.843581,0.00492975,0.0231746,1959,1107,23.0783,-4.43054
742,-83,23.1626,4.38416,-0.00205331,-0.000976527,0.00317654,0.00170693,-0.00473676,0.869345,0.00385491,0.0145695,1966,1107,23.1626,-4.38416
749,-83,23.1804,4.2981,-0.00144717,-0.000947208,0.00191165,0.000730732,-0.00312511,0.850414,0.00236492,0.0124314,1973,1107,23.1805,-4.29811
756,-83,23.2085,4.20667,-0.000271261,-0.000449216,-0.000159729,-0.000177399,-0.000543078,-0.531277,0.000319766,0.0137057,1980,1107,23.2085,-4.20672
763,-83,23.223,4.09082,0.00169736,8.16816e-05,-0.00330552,0.00429232,-0.00251328,-0.665552,0.00397371,0.0105446,1987,1107,23.223,-4.09083
770,-83,23.2128,4.00708,0.0043217,0.00038008,-0.00699086,0.00961424,-0.00491246,-0.648008,0.00853217,0.0123625,1994,1107,23.2127,-4.00707
777,-83,23.1869,3.92053,0.00796182,0.000205618,-0.0111596,0.015898,-0.00773053,-0.61817,0.0139109,0.0138862,2001,1107,23.1868,-3.92052
784,-83,23.1799,3.81274,0.0126709,-0.000408046,-0.0159283,0.0233499,-0.0110871,-0.590612,0.0202981,0.0233455,2008,1107,23.1799,-3.81272
791,-83,23.1229,3.46277,0.0189314,-0.0014321,-0.0219843,0.0329773,-0.015478,-0.568536,0.0285773,0.0429929,2015,1107,23.1229,-3.46278
798,-83,23.0643,3.15698,0,0,0,0,0,0,0,-1,2022,1107,23.0644,-3.15702
805,-83,23.7903,1.74951,0,0,0,0,0,0,0,-1,2029,1107,23.7902,-1.74953
812,-83,24.0476,0.974854,0,0,0,0,0,0,0,-1,2036,1107,24.0477,-0.974822
-700,-90,0,0,0,0,0,0,0,0,0,-1,524,1114,0,0
-693,-90,-21.7757,-1.48499,0.159139,0.0454528,-0.0100375,0.160019,0.0445734,-0.0873904,0.0953594,0.0497073,531,1114,-21.7757,1.48504
-686,-90,-20.8382,-1.5885,0.136684,0.03874,-0.0107183,0.137843,0.0375808,-0.107735,0.0822806,0.0445417,538,1114,-20.8382,1.58855
-679,-90,-17.7412,-1.82727,0.114256,0.0319716,-0.0101837,0.115497,0.03073,-0.121324,0.0690725,0.043878,545,1114,-17.7412,1.82729
-672,-90,-17.5385,-1.33081,0.0932116,0.025633,-0.00904506,0.0944013,0.0244433,-0.130779,0.0565748,0.0411707,552,1114,-17.5385,1.33077
-665,-90,-15.9243,0.46875,0,0,0,0,0,0,0,-1,559,1114,-15.9243,-0.468731
-658,-90,-15.76,0.641602,0.0571899,0.0149953,-0.00618674,0.0580783,0.0141069,-0.142626,0.034978,0.0455335,566,1114,-15.76,-0.641564
-651,-90,-15.632,0.907471,0.0427438,0.0108462,-0.00481209,0.0434539,0.010136,-0.146518,0.0262512,0.0315132,573,1114,-15.632,-0.907415
-644,-90,-15.639,1.28906,0.0309111,0.00753929,-0.00366168,0.0314714,0.00697904,-0.151826,0.0190848,0.0146855,580,1114,-15.639,-1.28909
-637,-90,-15.6318,1.49194,0.0207816,0.0048378,-0.00336255,0.0214618,0.00415765,-0.199579,0.013143,0.011995,587,1114,-15.6318,-1.49197
-630,-90,-15.6376,1.61768,0.0109738,0.00222147,-0.00381377,0.0124024,0.000792831,-0.35842,0.00801707,0.0108327,594,1114,-15.6376,-1.61772
-623,-90,-15.6521,1.74329,0.00425214,-5.81005e-05,-0.00398857,0.00663059,-0.00243655,-0.537706,0.00541837,0.00893528,601,1114,-15.6521,-1.74329
-616,-90,-15.6647,1.90259,0.000518328,-0.00151273,-0.00454699,0.00416182,-0.00515622,-0.675531,0.00538997,0.00830469,608,1114,-15.6647,-1.90261
-609,-90,-15.6759,2.02393,-0.00174555,-0.00169675,-0.00544567,0.00372458,-0.00716687,-0.787639,0.00639201,0.0115125,615,1114,-15.6759,-2.02396
-602,-90,-15.6914,2.12927,-0.00288657,-0.00149674,-0.00658373,0.00442865,-0.00881196,-0.837979,0.00778285,0.0103846,622,1114,-15.6914,-2.12927
-595,-90,-15.613,2.26245,-0.00349129,-0.00123603,-0.00748689,0.00520767,-0.00993499,-0.860143,0.00888349,0.0111562,629,1114,-15.613,-2.26244
-588,-90,-16.0418,2.05151,0,0,0,0,0,0,0,-1,636,1114,-16.0418,-2.05155
-581,-90,-16.3637,1.28821,-0.00320766,-0.000887263,-0.00785636,0.00589411,-0.00998903,-0.858706,0.00927116,0.0404863,643,1114,-16.3637,-1.28821
-574,-90,-16.4549,0.82312,-0.00293529,-0.000394563,-0.00766426,0.00610391,-0.00943375,-0.867527,0.00903908,0.0355905,650,1114,-16.4549,-0.823122
-567,-90,-16.3561,0.868286,-0.00234233,0.000343546,-0.0070532,0.00618052,-0.0081793,-0.879473,0.00831738,0.0352885,657,1114,-16.3561,-0.868297
-560,-90,-16.2917,0.95874,-0.0014675,0.00128983,-0.0059173,0.00598694,-0.00616462,-0.899851,0.00701596,0.0407915,664,1114,-16.2917,-0.958759
-553,-90,-16.3296,0.99585,-0.000348351,0.00238075,-0.0042448,0.00547494,-0.00344254,-0.940913,0.00519289,0.0411757,671,1114,-16.3296,-0.995843
-546,-90,-16.3569,0.918213,0.00103401,0.00350146,-0.00199525,0.00461361,-7.81363e-05,-1.06229,0.00310211,0.0390889,678,1114,-16.3569,-0.918253
-539,-90,-16.4382,0.886108,0.00272213,0.00446901,0.000723864,0.00472998,0.00246116,1.22478,0.00273161,0.0420354,685,1114,-16.4382,-0.886082
-532,-90,-16.4813,0.908081,0.00355311,0.00477499,0.00262584,0.00686002,0.00146808,0.899697,0.00417102,0.0438541,692,1114,-16.4812,-0.908089
-525,-90,0,0,0,0,0,0,0,0,0,-1,699,1114,0,0
-518,-90,0,0,0,0,0,0,0,0,0,-1,706,1114,0,0
-511,-90,0,0,0,0,0,0,0,0,0,-1,713,1114,0,0
-504,-90,0,0,0,0,0,0,0,0,0,-1,720,1114,0,0
-497,-90,0,0,0,0,0,0,0,0,0,-1,727,1114,0,0
-490,-90,0,0,0,0,0,0,0,0,0,-1,734,1114,0,0
-483,-90,0,0,0,0,0,0,0,0,0,-1,741,1114,0,0
-476,-90,0,0,0,0,0,0,0,0,0,-1,748,1114,0,0
-469,-90,0,0,0,0,0,0,0,0,0,-1,755,1114,0,0
-462,-90,0,0,0,0,0,0,0,0,0,-1,762,1114,0,0
-455,-90,0,0,0,0,0,0,0,0,0,-1,769,1114,0,0
-448,-90,0,0,0,0,0,0,0,0,0,-1,776,1114,0,0
-441,-90,0,0,0,0,0,0,0,0,0,-1,783,1114,0,0
-434,-90,0,0,0,0,0,0,0,0,0,-1,790,1114,0,0
-427,-90,0,0,0,0,0,0,0,0,0,-1,797,1114,0,0
-420,-90,0,0,0,0,0,0,0,0,0,-1,804,1114,0,0
-413,-90,0,0,0,0,0,0,0,0,0,-1,811,1114,0,0
-406,-90,0,0,0,0,0,0,0,0,0,-1,818,1114,0,0
-399,-90,0,0,0,0,0,0,0,0,0,-1,825,1114,0,0
-392,-90,0,0,0,0,0,0,0,0,0,-1,832,1114,0,0
-385,-90,0,0,0,0,0,0,0,0,0,-1,839,1114,0,0
-378,-90,0,0,0,0,0,0,0,0,0,-1,846,1114,0,0
-371,-90,0,0,0,0,0,0,0,0,0,-1,853,1114,0,0
-364,-90,0,0,0,0,0,0,0,0,0,-1,860,1114,0,0
-357,-90,0,0,0,0,0,0,0,0,0,-1,867,1114,0,0
-350,-90,0,0,0,0,0,0,0,0,0,-1,874,1114,0,0
-343,-90,0,0,0,0,0,0,0,0,0,-1,881,1114,0,0
-336,-90,0,0,0,0,0,0,0,0,0,-1,888,1114,0,0
-329,-90,0,0,0,0,0,0,0,0,0,-1,895,1114,0,0
-322,-90,0,0,0,0,0,0,0,0,0,-1,902,1114,0,0
-315,-90,0,0,0,0,0,0,0,0,0,-1,909,1114,0,0
-308,-90,0,0,0,0,0,0,0,0,0,-1,916,1114,0,0
-301,-90,0,0,0,0,0,0,0,0,0,-1,923,1114,0,0
-294,-90,0,0,0,0,0,0,0,0,0,-1,930,1114,0,0
-287,-90,0,0,0,0,0,0,0,0,0,-1,937,1114,0,0
-280,-90,0,0,0,0,0,0,0,0,0,-1,944,1114,0,0
-273,-90,0,0,0,0,0,0,0,0,0,-1,951,1114,0,0
-266,-90,0,0,0,0,0,0,0,0,0,-1,958,1114,0,0
-259,-90,0,0,0,0,0,0,0,0,0,-1,965,1114,0,0
-252,-90,0,0,0,0,0,0,0,0,0,-1,972,1114,0,0
-245,-90,0,0,0,0,0,0,0,0,0,-1,979,1114,0,0
-238,-90,0,0,0,0,0,0,0,0,0,-1,986,1114,0,0
-231,-90,0,0,0,0,0,0,0,0,0,-1,993,1114,0,0
-224,-90,0,0,0,0,0,0,0,0,0,-1,1000,1114,0,0
-217,-90,0,0,0,0,0,0,0,0,0,-1,1007,1114,0,0
-210,-90,0,0,0,0,0,0,0,0,0,-1,1014,1114,0,0
-203,-90,0,0,0,0,0,0,0,0,0,-1,1021,1114,0,0
-196,-90,0,0,0,0,0,0,0,0,0,-1,1028,1114,0,0
-189,-90,0,0,0,0,0,0,0,0,0,-1,1035,1114,0,0
-182,-90,0,0,0,0,0,0,0,0,0,-1,1042,1114,0,0
-175,-90,0,0,0,0,0,0,0,0,0,-1,1049,1114,0,0
-168,-90,0,0,0,0,0,0,0,0,0,-1,1056,1114,0,0
-161,-90,0,0,0,0,0,0,0,0,0,-1,1063,1114,0,0
-154,-90,0,0,0,0,0,0,0,0,0,-1,1070,1114,0,0
-147,-90,0,0,0,0,0,0,0,0,0,-1,1077,1114,0,0
-140,-90,0,0,0,0,0,0,0,0,0,-1,1084,1114,0,0
-133,-90,0,0,0,0,0,0,0,0,0,-1,1091,1114,0,0
-126,-90,0,0,0,0,0,0,0,0,0,-1,1098,1114,0,0
-119,-90,0,0,0,0,0,0,0,0,0,-1,1105,1114,0,0
-112,-90,0,0,0,0,0,0,0,0,0,-1,1112,1114,0,0
-105,-90,0,0,0,0,0,0,0,0,0,-1,1119,1114,0,0
-98,-90,0,0,0,0,0,0,0,0,0,-1,1126,1114,0,0
-91,-90,0,0,0,0,0,0,0,0,0,-1,1133,1114,0,0
-84,-90,0,0,0,0,0,0,0,0,0,-1,1140,1114,0,0
-77,-90,0,0,0,0,0,0,0,0,0,-1,1147,1114,0,0
-70,-90,0,0,0,0,0,0,0,0,0,-1,1154,1114,0,0
-63,-90,0,0,0,0,0,0,0,0,0,-1,1161,1114,0,0
-56,-90,0,0,0,0,0,0,0,0,0,-1,1168,1114,0,0
-49,-90,0,0,0,0,0,0,0,0,0,-1,1175,1114,0,0
-42,-90,0,0,0,0,0,0,0,0,0,-1,1182,1114,0,0
-35,-90,0,0,0,0,0,0,0,0,0,-1,1189,1114,0,0
-28,-90,0,0,0,0,0,0,0,0,0,-1,1196,1114,0,0
-21,-90,0,0,0,0,0,0,0,0,0,-1,1203,1114,0,0
-14,-90,0,0,0,0,0,0,0,0,0,-1,1210,1114,0,0
-7,-90,0,0,0,0,0,0,0,0,0,-1,1217,1114,0,0
0,-90,0,0,0,0,0,0,0,0,0,-1,1224,1114,0,0
7,-90,0,0,0,0,0,0,0,0,0,-1,1231,1114,0,0
14,-90,0,0,0,0,0,0,0,0,0,-1,1238,1114,0,0
21,-90,0,0,0,0,0,0,0,0,0,-1,1245,1114,0,0
28,-90,0,0,0,0,0,0,0,0,0,-1,1252,1114,0,0
35,-90,0,0,0,0,0,0,0,0,0,-1,1259,1114,0,0
42,-90,0,0,0,0,0,0,0,0,0,-1,1266,1114,0,0
49,-90,0,0,0,0,0,0,0,0,0,-1,1273,1114,0,0
56,-90,0,0,0,0,0,0,0,0,0,-1,1280,1114,0,0
63,-90,0,0,0,0,0,0,0,0,0,-1,1287,1114,0,0
70,-90,0,0,0,0,0,0,0,0,0,-1,1294,1114,0,0
77,-90,0,0,0,0,0,0,0,0,0,-1,1301,1114,0,0
84,-90,0,0,0,0,0,0,0,0,0,-1,1308,1114,0,0
91,-90,0,0,0,0,0,0,0,0,0,-1,1315,1114,0,0
98,-90,0,0,0,0,0,0,0,0,0,-1,1322,1114,0,0
105,-90,0,0,0,0,0,0,0,0,0,-1,1329,1114,0,0
112,-90,0,0,0,0,0,0,0,0,0,-1,1336,1114,0,0
119,-90,0,0,0,0,0,0,0,0,0,-1,1343,1114,0,0
126,-90,0,0,0,0,0,0,0,0,0,-1,1350,1114,0,0
133,-90,0,0,0,0,0,0,0,0,0,-1,1357,1114,0,0
140,-90,0,0,0,0,0,0,0,0,0,-1,1364,1114,0,0
147,-90,0,0,0,0,0,0,0,0,0,-1,1371,1114,0,0
154,-90,0,0,0,0,0,0,0,0,0,-1,1378,1114,0,0
161,-90,0,0,0,0,0,0,0,0,0,-1,1385,1114,0,0
168,-90,0,0,0,0,0,0,0,0,0,-1,1392,1114,0,0
175,-90,0,0,0,0,0,0,0,0,0,-1,1399,1114,0,0
182,-90,0,0,0,0,0,0,0,0,0,-1,1406,1114,0,0
189,-90,0,0,0,0,0,0,0,0,0,-1,1413,1114,0,0
196,-90,0,0,0,0,0,0,0,0,0,-1,1420,1114,0,0
203,-90,0,0,0,0,0,0,0,0,0,-1,1427,1114,0,0
210,-90,0,0,0,0,0,0,0,0,0,-1,1434,1114,0,0
217,-90,0,0,0,0,0,0,0,0,0,-1,1441,1114,0,0
224,-90,0,0,0,0,0,0,0,0,0,-1,1448,1114,0,0
231,-90,0,0,0,0,0,0,0,0,0,-1,1455,1114,0,0
238,-90,0,0,0,0,0,0,0,0,0,-1,1462,1114,0,0
245,-90,0,0,0,0,0,0,0,0,0,-1,1469,1114,0,0
252,-90,0,0,0,0,0,0,0,0,0,-1,1476,1114,0,0
259,-90,0,0,0,0,0,0,0,0,0,-1,1483,1114,0,0
266,-90,0,0,0,0,0,0,0,0,0,-1,1490,1114,0,0
273,-90,0,0,0,0,0,0,0,0,0,-1,1497,1114,0,0
280,-90,0,0,0,0,0,0,0,0,0,-1,1504,1114,0,0
287,-90,0,0,0,0,0,0,0,0,0,-1,1511,1114,0,0
294,-90,0,0,0,0,0,0,0,0,0,-1,1518,1114,0,0
301,-90,0,0,0,0,0,0,0,0,0,-1,1525,1114,0,0
308,-90,0,0,0,0,0,0,0,0,0,-1,1532,1114,0,0
315,-90,0,0,0,0,0,0,0,0,0,-1,1539,1114,0,0
322,-90,0,0,0,0,0,0,0,0,0,-1,1546,1114,0,0
329,-90,0,0,0,0,0,0,0,0,0,-1,1553,1114,0,0
336,-90,0,0,0,0,0,0,0,0,0,-1,1560,1114,0,0
343,-90,0,0,0,0,0,0,0,0,0,-1,1567,1114,0,0
350,-90,0,0,0,0,0,0,0,0,0,-1,1574,1114,0,0
357,-90,0,0,0,0,0,0,0,0,0,-1,1581,1114,0,0
364,-90,0,0,0,0,0,0,0,0,0,-1,1588,1114,0,0
371,-90,0,0,0,0,0,0,0,0,0,-1,1595,1114,0,0
378,-90,0,0,0,0,0,0,0,0,0,-1,1602,1114,0,0
385,-90,0,0,0,0,0,0,0,0,0,-1,1609,1114,0,0
392,-90,0,0,0,0,0,0,0,0,0,-1,1616,1114,0,0
399,-90,0,0,0,0,0,0,0,0,0,-1,1623,1114,0,0
406,-90,0,0,0,0,0,0,0,0,0,-1,1630,1114,0,0
413,-90,0,0,0,0,0,0,0,0,0,-1,1637,1114,0,0
420,-90,0,0,0,0,0,0,0,0,0,-1,1644,1114,0,0
427,-90,0,0,0,0,0,0,0,0,0,-1,1651,1114,0,0
434,-90,0,0,0,0,0,0,0,0,0,-1,1658,1114,0,0
441,-90,0,0,0,0,0,0,0,0,0,-1,1665,1114,0,0
448,-90,0,0,0,0,0,0,0,0,0,-1,1672,1114,0,0
455,-90,0,0,0,0,0,0,0,0,0,-1,1679,1114,0,0
462,-90,0,0,0,0,0,0,0,0,0,-1,1686,1114,0,0
469,-90,0,0,0,0,0,0,0,0,0,-1,1693,1114,0,0
476,-90,0,0,0,0,0,0,0,0,0,-1,1700,1114,0,0
483,-90,0,0,0,0,0,0,0,0,0,-1,1707,1114,0,0
490,-90,0,0,0,0,0,0,0,0,0,-1,1714,1114,0,0
497,-90,0,0,0,0,0,0,0,0,0,-1,1721,1114,0,0
504,-90,0,0,0,0,0,0,0,0,0,-1,1728,1114,0,0
511,-90,0,0,0,0,0,0,0,0,0,-1,1735,1114,0,0
518,-90,0,0,0,0,0,0,0,0,0,-1,1742,1114,0,0
525,-90,0,0,0,0,0,0,0,0,0,-1,1749,1114,0,0
532,-90,0,0,0,0,0,0,0,0,0,-1,1756,1114,0,0
539,-90,0,0,0,0,0,0,0,0,0,-1,1763,1114,0,0
546,-90,0,0,0,0,0,0,0,0,0,-1,1770,1114,0,0
553,-90,0,0,0,0,0,0,0,0,0,-1,1777,1114,0,0
560,-90,0,0,0,0,0,0,0,0,0,-1,1784,1114,0,0
567,-90,0,0,0,0,0,0,0,0,0,-1,1791,1114,0,0
574,-90,0,0,0,0,0,0,0,0,0,-1,1798,1114,0,0
581,-90,0,0,0,0,0,0,0,0,0,-1,1805,1114,0,0
588,-90,0,0,0,0,0,0,0,0,0,-1,1812,1114,0,0
595,-90,0,0,0,0,0,0,0,0,0,-1,1819,1114,0,0
602,-90,0,0,0,0,0,0,0,0,0,-1,1826,1114,0,0
609,-90,0,0,0,0,0,0,0,0,0,-1,1833,1114,0,0
616,-90,0,0,0,0,0,0,0,0,0,-1,1840,1114,0,0
623,-90,0,0,0,0,0,0,0,0,0,-1,1847,1114,0,0
630,-90,0,0,0,0,0,0,0,0,0,-1,1854,1114,0,0
637,-90,0,0,0,0,0,0,0,0,0,-1,1861,1114,0,0
644,-90,23.9213,2.79541,0.00555155,-0.000694462,0.00316599,0.00687564,-0.00201855,0.396116,0.00538425,0.0362528,1868,1114,23.9212,-2.79541
651,-90,23.9326,2.828,0.00431755,-0.000571935,0.00209162,0.0050902,-0.00134459,0.353856,0.00391932,0.0412217,1875,1114,23.9326,-2.82801
658,-90,24.0962,2.87415,0.003498,-0.000472413,0.00122723,0.0038467,-0.00082112,0.276844,0.0028775,0.0421238,1882,1114,24.0962,-2.87412
665,-90,24.198,2.83215,0.00262442,-0.000458377,0.00080531,0.00282211,-0.000656069,0.240725,0.00213398,0.0439872,1889,1114,24.198,-2.83214
672,-90,24.1729,2.82031,0.00175458,-0.000667603,0.00110353,0.00218194,-0.00109496,0.36948,0.0019263,0.0436392,1896,1114,24.1729,-2.82031
679,-90,24.1689,2.83337,0.000750111,-0.00103927,0.00177036,0.00183901,-0.00212817,0.55143,0.00229248,0.039265,1903,1114,24.1689,-2.83341
686,-90,24.146,2.81921,-0.0001418,-0.00140564,0.00246513,0.00177112,-0.00331856,0.659928,0.00298345,0.0342043,1910,1114,24.1459,-2.81919
693,-90,24.1246,2.78308,-0.000764465,-0.00169744,0.00303823,0.00184288,-0.00430478,0.709224,0.00364299,0.0319356,1917,1114,24.1247,-2.78311
700,-90,24.1272,2.75098,-0.0011883,-0.00188421,0.00336173,0.00184344,-0.00491595,0.733829,0.00403469,0.0283441,1924,1114,24.1272,-2.75092
707,-90,24.2109,2.44128,0,0,0,0,0,0,0,-1,1931,1114,24.2109,-2.44132
714,-90,24.0005,3.30969,0,0,0,0,0,0,0,-1,1938,1114,24.0004,-3.30966
721,-90,23.7899,4.17798,0,0,0,0,0,0,0,-1,1945,1114,23.7899,-4.17799
728,-90,23.1085,4.60681,-0.00244144,-0.00160567,0.00391615,0.00191483,-0.00596194,0.838551,0.00474353,0.0198292,1952,1114,23.1086,-4.60684
735,-90,23.061,4.50854,-0.00247867,-0.00117208,0.0035114,0.00174627,-0.00539703,0.877372,0.00429998,0.0212763,1959,1114,23.061,-4.50852
742,-90,23.0637,4.39502,-0.00204553,-0.000920703,0.0026686,0.00124411,-0.00421034,0.889254,0.0033007,0.0187636,1966,1114,23.0637,-4.39501
749,-90,23.1425,4.27185,-0.00125444,-0.00106518,0.00149554,0.000338718,-0.00265834,0.816992,0.00189525,0.0141819,1973,1114,23.1425,-4.27179
756,-90,23.1669,4.18811,0.000164889,-0.000798274,-0.00041537,0.000319274,-0.000952659,-0.355857,0.000764099,0.0142982,1980,1114,23.1669,-4.18809
763,-90,23.1578,4.08423,0.00259805,-0.000640674,-0.00339765,0.00474251,-0.00278513,-0.563017,0.00439479,0.0118804,1987,1114,23.1578,-4.08425
770,-90,23.1029,3.96704,0.00575132,-0.000906735,-0.00682562,0.0100165,-0.00517188,-0.558508,0.00891645,0.0131917,1994,1114,23.1029,-3.96708
777,-90,23.0662,3.89929,0.00998773,-0.00177449,-0.01071,0.0163251,-0.00811186,-0.534313,0.0143719,0.0127309,2001,1114,23.0662,-3.89932
784,-90,23.072,3.83508,0.0154223,-0.00316133,-0.0152643,0.0240005,-0.0117395,-0.511991,0.0210354,0.0267311,2008,1114,23.072,-3.83506
791,-90,22.9617,3.71082,0.0226269,-0.00513477,-0.0210879,0.0339924,-0.0165002,-0.494326,0.0297293,0.0455149,2015,1114,22.9616,-3.71086
798,-90,23.5924,2.44873,0.0323751,-0.00768742,-0.0285625,0.0472304,-0.0225427,-0.479595,0.0411155,0.0430155,2022,1114,23.5924,-2.44876
805,-90,23.8396,1.81641,0.0453179,-0.0107559,-0.0380432,0.0645394,-0.0299774,-0.467842,0.0557722,0.0456106,2029,1114,23.8396,-1.81641
812,-90,24.1045,1.31982,0,0,0,0,0,0,0,-1,2036,1114,24.1044,-1.31983
-700,-97,0,0,0,0,0,0,0,0,0,-1,524,1121,0,0
-693,-97,-22.1015,-1.65759,0.169978,0.047174,-0.00958233,0.170722,0.0464307,-0.0774048,0.101926,0.0466141,531,1121,-22.1015,1.65755
-686,-97,-21.1512,-2.01099,0.143579,0.0390128,-0.011188,0.144763,0.0378291,-0.105405,0.0866949,0.0464643,538,1121,-21.1512,2.01102
-679,-97,-17.6419,-2.28809,0.118402,0.0313394,-0.0111516,0.119808,0.0299337,-0.125391,0.0719989,0.0444491,545,1121,-17.6419,2.2881
-672,-97,-17.0183,-1.82495,0.0954596,0.024467,-0.0102695,0.0969153,0.0230113,-0.140812,0.0584692,0.0438119,552,1121,-17.0183,1.82494
-665,-97,-15.4542,0.651733,0,0,0,0,0,0,0,-1,559,1121,-15.4542,-0.651766
-658,-97,-15.4791,0.852051,0.0573421,0.0134964,-0.00749762,0.0585887,0.0122497,-0.164765,0.0356838,0.0456593,566,1121,-15.4791,-0.852094
-651,-97,-15.5089,1.08508,0.0423989,0.00942087,-0.00603443,0.0434684,0.00835136,-0.175414,0.0266352,0.0293613,573,1121,-15.5089,-1.08511
-644,-97,-15.5045,1.29956,0.0302981,0.00626248,-0.00473981,0.031199,0.00536156,-0.187834,0.0192625,0.0108252,580,1121,-15.5045,-1.29959
-637,-97,-15.514,1.45789,0.020115,0.00373388,-0.00419364,0.0211262,0.0027227,-0.236604,0.01327,0.011211,587,1121,-15.5141,-1.4579
-630,-97,-15.5189,1.6012,0.0103594,0.00132596,-0.00438249,0.0121361,-0.000450718,-0.385157,0.00824509,0.00917709,594,1121,-15.5189,-1.60118
-623,-97,-15.5192,1.74146,0.00374619,-0.000729948,-0.00430653,0.00636149,-0.00334524,-0.54576,0.00569366,0.0104551,601,1121,-15.5192,-1.7415
-616,-97,-15.5135,1.90027,0.000226661,-0.00196361,-0.00461603,0.00387568,-0.00561263,-0.668928,0.00550859,0.0117712,608,1121,-15.5135,-1.90032
-609,-97,-15.5396,2.04114,-0.00178976,-0.00199866,-0.00524615,0.00335298,-0.0071414,-0.775445,0.00618913,0.0144372,615,1121,-15.5396,-2.04115
-602,-97,-15.5482,2.11938,-0.00282224,-0.00178931,-0.0061842,0.00389995,-0.0085115,-0.827058,0.00732878,0.012853,622,1121,-15.5482,-2.11933
-595,-97,-15.4929,2.23926,-0.00341556,-0.00161129,-0.00691675,0.00446191,-0.00948876,-0.850246,0.00822687,0.0154897,629,1121,-15.4928,-2.23921
-588,-97,-15.5213,2.26953,-0.00348178,-0.00161828,-0.00720961,0.00471954,-0.0098196,-0.849661,0.00856459,0.028414,636,1121,-15.5213,-2.26955
-581,-97,-16.2193,1.46765,-0.00329695,-0.00148513,-0.00716116,0.00482719,-0.00960927,-0.848316,0.00848595,0.044367,643,1121,-16.2193,-1.4677
-574,-97,-16.518,0.905884,-0.00310357,-0.00115786,-0.00698039,0.00491714,-0.00917857,-0.854637,0.0082612,0.041138,650,1121,-16.518,-0.905918
-567,-97,-16.3966,0.882813,-0.00263485,-0.00060839,-0.00642609,0.00488386,-0.0081271,-0.863592,0.00758927,0.0348274,657,1121,-16.3966,-0.882832
-560,-97,-16.2793,0.899292,-0.00193164,0.000136157,-0.00539482,0.00459526,-0.00639074,-0.880073,0.00637094,0.0380957,664,1121,-16.2793,-0.89931
-553,-97,-16.2179,0.913818,-0.00104006,0.00103012,-0.00387727,0.00400809,-0.00401803,-0.915838,0.00463389,0.0433298,671,1121,-16.2179,-0.913852
-546,-97,-16.2135,0.66394,3.1313e-05,0.00198856,-0.00182967,0.00308488,-0.00106501,-1.03097,0.00248874,0.0414829,678,1121,-16.2135,-0.663997
-539,-97,-16.304,0.767334,0.00135609,0.00286619,0.000709692,0.00314736,0.00107491,1.19358,0.0018473,0.039239,685,1121,-16.304,-0.767288
-532,-97,-16.4352,0.893799,0.00193459,0.00325375,0.00267558,0.00534985,-0.000161516,0.906247,0.00362161,0.0403994,692,1121,-16.4352,-0.893753
-525,-97,0,0,0,0,0,0,0,0,0,-1,699,1121,0,0
-518,-97,0,0,0,0,0,0,0,0,0,-1,706,1121,0,0
-511,-97,0,0,0,0,0,0,0,0,0,-1,713,1121,0,0
-504,-97,0,0,0,0,0,0,0,0,0,-1,720,1121,0,0
-497,-97,0,0,0,0,0,0,0,0,0,-1,727,1121,0,0
-490,-97,0,0,0,0,0,0,0,0,0,-1,734,1121,0,0
-483,-97,0,0,0,0,0,0,0,0,0,-1,741,1121,0,0
-476,-97,0,0,0,0,0,0,0,0,0,-1,748,1121,0,0
-469,-97,0,0,0,0,0,0,0,0,0,-1,755,1121,0,0
-462,-97,0,0,0,0,0,0,0,0,0,-1,762,1121,0,0
-455,-97,0,0,0,0,0,0,0,0,0,-1,769,1121,0,0
-448,-97,0,0,0,0,0,0,0,0,0,-1,776,1121,0,0
-441,-97,0,0,0,0,0,0,0,0,0,-1,783,1121,0,0
-434,-97,0,0,0,0,0,0,0,0,0,-1,790,1121,0,0
-427,-97,0,0,0,0,0,0,0,0,0,-1,797,1121,0,0
-420,-97,0,0,0,0,0,0,0,0,0,-1,804,1121,0,0
-413,-97,0,0,0,0,0,0,0,0,0,-1,811,1121,0,0
-406,-97,0,0,0,0,0,0,0,0,0,-1,818,1121,0,0
-399,-97,0,0,0,0,0,0,0,0,0,-1,825,1121,0,0
-392,-97,0,0,0,0,0,0,0,0,0,-1,832,1121,0,0
-385,-97,0,0,0,0,0,0,0,0,0,-1,839,1121,0,0
-378,-97,0,0,0,0,0,0,0,0,0,-1,846,1121,0,0
-371,-97,0,0,0,0,0,0,0,0,0,-1,853,1121,0,0
-364,-97,0,0,0,0,0,0,0,0,0,-1,860,1121,0,0
-357,-97,0,0,0,0,0,0,0,0,0,-1,867,1121,0,0
-350,-97,0,0,0,0,0,0,0,0,0,-1,874,1121,0,0
-343,-97,0,0,0,0,0,0,0,0,0,-1,881,1121,0,0
-336,-97,0,0,0,0,0,0,0,0,0,-1,888,1121,0,0
-329,-97,0,0,0,0,0,0,0,0,0,-1,895,1121,0,0
-322,-97,0,0,0,0,0,0,0,0,0,-1,902,1121,0,0
-315,-97,0,0,0,0,0,0,0,0,0,-1,909,1121,0,0
-308,-97,0,0,0,0,0,0,0,0,0,-1,916,1121,0,0
-301,-97,0,0,0,0,0,0,0,0,0,-1,923,1121,0,0
-294,-97,0,0,0,0,0,0,0,0,0,-1,930,1121,0,0
-287,-97,0,0,0,0,0,0,0,0,0,-1,937,1121,0,0
-280,-97,0,0,0,0,0,0,0,0,0,-1,944,1121,0,0
-273,-97,0,0,0,0,0,0,0,0,0,-1,951,1121,0,0
-266,-97,0,0,0,0,0,0,0,0,0,-1,958,1121,0,0
-259,-97,0,0,0,0,0,0,0,0,0,-1,965,1121,0,0
-252,-97,0,0,0,0,0,0,0,0,0,-1,972,1121,0,0
-245,-97,0,0,0,0,0,0,0,0,0,-1,979,1121,0,0
-238,-97,0,0,0,0,0,0,0,0,0,-1,986,1121,0,0
-231,-97,0,0,0,0,0,0,0,0,0,-1,993,1121,0,0
-224,-97,0,0,0,0,0,0,0,0,0,-1,1000,1121,0,0
-217,-97,0,0,0,0,0,0,0,0,0,-1,1007,1121,0,0
-210,-97,0,0,0,0,0,0,0,0,0,-1,1014,1121,0,0
-203,-97,0,0,0,0,0,0,0,0,0,-1,1021,1121,0,0
-196,-97,0,0,0,0,0,0,0,0,0,-1,1028,1121,0,0
-189,-97,0,0,0,0,0,0,0,0,0,-1,1035,1121,0,0
-182,-97,0,0,0,0,0,0,0,0,0,-1,1042,1121,0,0
-175,-97,0,0,0,0,0,0,0,0,0,-1,1049,1121,0,0
-168,-97,0,0,0,0,0,0,0,0,0,-1,1056,1121,0,0
-161,-97,0,0,0,0,0,0,0,0,0,-1,1063,1121,0,0
-154,-97,0,0,0,0,0,0,0,0,0,-1,1070,1121,0,0
-147,-97,0,0,0,0,0,0,0,0,0,-1,1077,1121,0,0
-140,-97,0,0,0,0,0,0,0,0,0,-1,1084,1121,0,0
-133,-97,0,0,0,0,0,0,0,0,0,-1,1091,1121,0,0
-126,-97,0,0,0,0,0,0,0,0,0,-1,1098,1121,0,0
-119,-97,0,0,0,0,0,0,0,0,0,-1,1105,1121,0,0
-112,-97,0,0,0,0,0,0,0,0,0,-1,1112,1121,0,0
-105,-97,0,0,0,0,0,0,0,0,0,-1,1119,1121,0,0
-98,-97,0,0,0,0,0,0,0,0,0,-1,1126,1121,0,0
-91,-97,0,0,0,0,0,0,0,0,0,-1,1133,1121,0,0
-84,-97,0,0,0,0,0,0,0,0,0,-1,1140,1121,0,0
-77,-97,0,0,0,0,0,0,0,0,0,-1,1147,1121,0,0
-70,-97,0,0,0,0,0,0,0,0,0,-1,1154,1121,0,0
-63,-97,0,0,0,0,0,0,0,0,0,-1,1161,1121,0,0
-56,-97,0,0,0,0,0,0,0,0,0,-1,1168,1121,0,0
-49,-97,0,0,0,0,0,0,0,0,0,-1,1175,1121,0,0
-42,-97,0,0,0,0,0,0,0,0,0,-1,1182,1121,0,0
-35,-97,0,0,0,0,0,0,0,0,0,-1,1189,1121,0,0
-28,-97,0,0,0,0,0,0,0,0,0,-1,1196,1121,0,0
-21,-97,0,0,0,0,0,0,0,0,0,-1,1203,1121,0,0
-14,-97,0,0,0,0,0,0,0,0,0,-1,1210,1121,0,0
-7,-97,0,0,0,0,0,0,0,0,0,-1,1217,1121,0,0
0,-97,0,0,0,0,0,0,0,0,0,-1,1224,1121,0,0
7,-97,0,0,0,0,0,0,0,0,0,-1,1231,1121,0,0
14,-97,0,0,0,0,0,0,0,0,0,-1,1238,1121,0,0
21,-97,0,0,0,0,0,0,0,0,0,-1,1245,1121,0,0
28,-97,0,0,0,0,0,0,0,0,0,-1,1252,1121,0,0
35,-97,0,0,0,0,0,0,0,0,0,-1,1259,1121,0,0
42,-97,0,0,0,0,0,0,0,0,0,-1,1266,1121,0,0
49,-97,0,0,0,0,0,0,0,0,0,-1,1273,1121,0,0
56,-97,0,0,0,0,0,0,0,0,0,-1,1280,1121,0,0
63,-97,0,0,0,0,0,0,0,0,0,-1,1287,1121,0,0
70,-97,0,0,0,0,0,0,0,0,0,-1,1294,1121,0,0
77,-97,0,0,0,0,0,0,0,0,0,-1,1301,1121,0,0
84,-97,0,0,0,0,0,0,0,0,0,-1,1308,1121,0,0
91,-97,0,0,0,0,0,0,0,0,0,-1,1315,1121,0,0
98,-97,0,0,0,0,0,0,0,0,0,-1,1322,1121,0,0
105,-97,0,0,0,0,0,0,0,0,0,-1,1329,1121,0,0
112,-97,0,0,0,0,0,0,0,0,0,-1,1336,1121,0,0
119,-97,0,0,0,0,0,0,0,0,0,-1,1343,1121,0,0
126,-97,0,0,0,0,0,0,0,0,0,-1,1350,1121,0,0
133,-97,0,0,0,0,0,0,0,0,0,-1,1357,1121,0,0
140,-97,0,0,0,0,0,0,0,0,0,-1,1364,1121,0,0
147,-97,0,0,0,0,0,0,0,0,0,-1,1371,1121,0,0
154,-97,0,0,0,0,0,0,0,0,0,-1,1378,1121,0,0
161,-97,0,0,0,0,0,0,0,0,0,-1,1385,1121,0,0
168,-97,0,0,0,0,0,0,0,0,0,-1,1392,1121,0,0
175,-97,0,0,0,0,0,0,0,0,0,-1,1399,1121,0,0
182,-97,0,0,0,0,0,0,0,0,0,-1,1406,1121,0,0
189,-97,0,0,0,0,0,0,0,0,0,-1,1413,1121,0,0
196,-97,0,0,0,0,0,0,0,0,0,-1,1420,1121,0,0
203,-97,0,0,0,0,0,0,0,0,0,-1,1427,1121,0,0
210,-97,0,0,0,0,0,0,0,0,0,-1,1434,1121,0,0
217,-97,0,0,0,0,0,0,0,0,0,-1,1441,1121,0,0
224,-97,0,0,0,0,0,0,0,0,0,-1,1448,1121,0,0
231,-97,0,0,0,0,0,0,0,0,0,-1,1455,1121,0,0
238,-97,0,0,0,0,0,0,0,0,0,-1,1462,1121,0,0
245,-97,0,0,0,0,0,0,0,0,0,-1,1469,1121,0,0
252,-97,0,0,0,0,0,0,0,0,0,-1,1476,1121,0,0
259,-97,0,0,0,0,0,0,0,0,0,-1,1483,1121,0,0
266,-97,0,0,0,0,0,0,0,0,0,-1,1490,1121,0,0
273,-97,0,0,0,0,0,0,0,0,0,-1,1497,1121,0,0
280,-97,0,0,0,0,0,0,0,0,0,-1,1504,1121,0,0
287,-97,0,0,0,0,0,0,0,0,0,-1,1511,1121,0,0
294,-97,0,0,0,0,0,0,0,0,0,-1,1518,1121,0,0
301,-97,0,0,0,0,0,0,0,0,0,-1,1525,1121,0,0
308,-97,0,0,0,0,0,0,0,0,0,-1,1532,1121,0,0
315,-97,0,0,0,0,0,0,0,0,0,-1,1539,1121,0,0
322,-97,0,0,0,0,0,0,0,0,0,-1,1546,1121,0,0
329,-97,0,0,0,0,0,0,0,0,0,-1,1553,1121,0,0
336,-97,0,0,0,0,0,0,0,0,0,-1,1560,1121,0,0
343,-97,0,0,0,0,0,0,0,0,0,-1,1567,1121,0,0
350,-97,0,0,0,0,0,0,0,0,0,-1,1574,1121,0,0
357,-97,0,0,0,0,0,0,0,0,0,-1,1581,1121,0,0
364,-97,0,0,0,0,0,0,0,0,0,-1,1588,1121,0,0
371,-97,0,0,0,0,0,0,0,0,0,-1,1595,1121,0,0
378,-97,0,0,0,0,0,0,0,0,0,-1,1602,1121,0,0
385,-97,0,0,0,0,0,0,0,0,0,-1,1609,1121,0,0
392,-97,0,0,0,0,0,0,0,0,0,-1,1616,1121,0,0
399,-97,0,0,0,0,0,0,0,0,0,-1,1623,1121,0,0
406,-97,0,0,0,0,0,0,0,0,0,-1,1630,1121,0,0
413,-97,0,0,0,0,0,0,0,0,0,-1,1637,1121,0,0
420,-97,0,0,0,0,0,0,0,0,0,-1,1644,1121,0,0
427,-97,0,0,0,0,0,0,0,0,0,-1,1651,1121,0,0
434,-97,0,0,0,0,0,0,0,0,0,-1,1658,1121,0,0
441,-97,0,0,0,0,0,0,0,0,0,-1,1665,1121,0,0
448,-97,0,0,0,0,0,0,0,0,0,-1,1672,1121,0,0
455,-97,0,0,0,0,0,0,0,0,0,-1,1679,1121,0,0
462,-97,0,0,0,0,0,0,0,0,0,-1,1686,1121,0,0
469,-97,0,0,0,0,0,0,0,0,0,-1,1693,1121,0,0
476,-97,0,0,0,0,0,0,0,0,0,-1,1700,1121,0,0
483,-97,0,0,0,0,0,0,0,0,0,-1,1707,1121,0,0
490,-97,0,0,0,0,0,0,0,0,0,-1,1714,1121,0,0
497,-97,0,0,0,0,0,0,0,0,0,-1,1721,1121,0,0
504,-97,0,0,0,0,0,0,0,0,0,-1,1728,1121,0,0
511,-97,0,0,0,0,0,0,0,0,0,-1,1735,1121,0,0
518,-97,0,0,0,0,0,0,0,0,0,-1,1742,1121,0,0
525,-97,0,0,0,0,0,0,0,0,0,-1,1749,1121,0,0
532,-97,0,0,0,0,0,0,0,0,0,-1,1756,1121,0,0
539,-97,0,0,0,0,0,0,0,0,0,-1,1763,1121,0,0
546,-97,0,0,0,0,0,0,0,0,0,-1,1770,1121,0,0
553,-97,0,0,0,0,0,0,0,0,0,-1,1777,1121,0,0
560,-97,0,0,0,0,0,0,0,0,0,-1,1784,1121,0,0
567,-97,0,0,0,0,0,0,0,0,0,-1,1791,1121,0,0
574,-97,0,0,0,0,0,0,0,0,0,-1,1798,1121,0,0
581,-97,0,0,0,0,0,0,0,0,0,-1,1805,1121,0,0
588,-97,0,0,0,0,0,0,0,0,0,-1,1812,1121,0,0
595,-97,0,0,0,0,0,0,0,0,0,-1,1819,1121,0,0
602,-97,0,0,0,0,0,0,0,0,0,-1,1826,1121,0,0
609,-97,0,0,0,0,0,0,0,0,0,-1,1833,1121,0,0
616,-97,0,0,0,0,0,0,0,0,0,-1,1840,1121,0,0
623,-97,0,0,0,0,0,0,0,0,0,-1,1847,1121,0,0
630,-97,0,0,0,0,0,0,0,0,0,-1,1854,1121,0,0
637,-97,0,0,0,0,0,0,0,0,0,-1,1861,1121,0,0
644,-97,23.954,2.88538,0.00559249,-0.000736092,0.00336018,0.00704377,-0.00218737,0.407706,0.00557003,0.0387806,1868,1121,23.954,-2.88535
651,-97,24.0154,2.82141,0.00442104,-0.00061867,0.00227005,0.00529276,-0.00149039,0.366646,0.00411625,0.0395252,1875,1121,24.0154,-2.82145
658,-97,24.1428,2.8197,0.00373757,-0.000467521,0.00133382,0.00412496,-0.000854909,0.282659,0.00307482,0.0390573,1882,1121,24.1428,-2.81969
665,-97,24.2111,2.77063,0.00275592,-0.000521811,0.00094053,0.00300662,-0.000772517,0.2605,0.00230547,0.0417287,1889,1121,24.211,-2.77066
672,-97,24.1571,2.71936,0.00166877,-0.000758463,0.00117479,0.00214423,-0.00123393,0.384572,0.00197384,0.0419881,1896,1121,24.1571,-2.71935
679,-97,24.2198,2.78259,0.000501186,-0.00110464,0.00169981,0.00157817,-0.00218163,0.564754,0.00218002,0.0395252,1903,1121,24.2199,-2.78258
686,-97,24.165,2.83289,-0.000495184,-0.00143313,0.00226901,0.00135282,-0.00328113,0.683491,0.00275154,0.0360997,1910,1121,24.165,-2.83294
693,-97,24.1183,2.76111,-0.00117626,-0.00167015,0.0027287,0.00131665,-0.00416306,0.740272,0.00330292,0.0323446,1917,1121,24.1183,-2.7611
700,-97,24.1298,2.70483,-0.00160781,-0.00181908,0.00297524,0.00126367,-0.00469056,0.767653,0.00362249,0.0263585,1924,1121,24.1298,-2.70478
707,-97,24.1827,2.57275,0,0,0,0,0,0,0,-1,1931,1121,24.1827,-2.57278
714,-97,23.8473,3.6134,0,0,0,0,0,0,0,-1,1938,1121,23.8473,-3.61341
721,-97,23.5118,4.65405,0,0,0,0,0,0,0,-1,1945,1121,23.5118,-4.65404
728,-97,23.0493,4.61792,-0.00280908,-0.00143138,0.00339618,0.0013451,-0.00558557,0.885456,0.00424374,0.0188234,1952,1121,23.0493,-4.61794
735,-97,23.0323,4.52112,-0.00266048,-0.000970187,0.00303973,0.0013397,-0.00497037,0.92099,0.00383887,0.0185877,1959,1121,23.0323,-4.52115
742,-97,23.0024,4.42297,-0.00200385,-0.000821966,0.00232903,0.000989923,-0.00381574,0.909641,0.00293008,0.0143699,1966,1121,23.0024,-4.423
749,-97,23.0189,4.29077,-0.00100463,-0.00112275,0.00129432,0.000231969,-0.00235936,0.762599,0.00165565,0.0164345,1973,1121,23.0189,-4.29074
756,-97,23.027,4.17236,0.000674619,-0.00113873,-0.000407962,0.000762174,-0.00122628,-0.211408,0.00115841,0.0149979,1980,1121,23.027,-4.17237
763,-97,23.0135,4.07813,0.00360902,-0.00145004,-0.00309466,0.00507642,-0.00291743,-0.442772,0.00467103,0.0120822,1987,1121,23.0135,-4.0781
770,-97,22.9813,3.98083,0.00726459,-0.00241151,-0.00611202,0.0102216,-0.00536856,-0.45061,0.00914521,0.00913466,1994,1121,22.9813,-3.98085
777,-97,22.9824,3.89136,0.0120242,-0.00409492,-0.00956045,0.016469,-0.00853969,-0.435186,0.0146787,0.0120172,2001,1121,22.9824,-3.89132
784,-97,23.0009,3.79126,0.0180773,-0.00640869,-0.0137408,0.0242381,-0.0125695,-0.42149,0.0216039,0.0320844,2008,1121,23.0009,-3.79129
791,-97,23.1852,3.15393,0.02602,-0.00952648,-0.01916,0.0343809,-0.0178874,-0.411464,0.0306739,0.0423145,2015,1121,23.1851,-3.15388
798,-97,23.3879,2.61426,0.0365602,-0.0134635,-0.0261824,0.0477576,-0.0246608,-0.404129,0.0425137,0.0441833,2022,1121,23.3879,-2.61425
805,-97,23.5483,2.09143,0.0502973,-0.0181693,-0.035174,0.0651469,-0.0330189,-0.399475,0.057679,0.047309,2029,1121,23.5484,-2.09139
812,-97,23.6958,1.62817,0,0,0,0,0,0,0,-1,2036,1121,23.6957,-1.62813
-700,-104,0,0,0,0,0,0,0,0,0,-1,524,1128,0,0
-693,-104,-22.4373,-1.71863,0,0,0,0,0,0,0,-1,531,1128,-22.4373,1.71862
-686,-104,-17.6993,-3.68799,0,0,0,0,0,0,0,-1,538,1128,-17.6993,3.68798
-679,-104,-17.0106,-3.08789,0.11695,0.0284924,-0.0129984,0.118821,0.0266219,-0.14292,0.0719995,0.0466818,545,1128,-17.0106,3.0879
-672,-104,-16.4697,-2.29431,0.0933714,0.0215325,-0.0121493,0.0953704,0.0195335,-0.163079,0.0581728,0.0481708,552,1128,-16.4697,2.29429
-665,-104,-15.7708,-1.77332,0,0,0,0,0,0,0,-1,559,1128,-15.7708,1.77334
-658,-104,-15.418,0.952515,0,0,0,0,0,0,0,-1,566,1128,-15.418,-0.952543
-651,-104,-15.3853,1.14526,0.0403061,0.00732545,-0.00747305,0.0419204,0.00571116,-0.212747,0.0262511,0.0344067,573,1128,-15.3853,-1.14528
-644,-104,-15.3682,1.29883,0.028452,0.00454927,-0.00595018,0.0298512,0.00314998,-0.23097,0.0189384,0.0137766,580,1128,-15.3683,-1.29888
-637,-104,-15.3547,1.44128,0.0186451,0.00239335,-0.00509696,0.0201113,0.000927098,-0.280108,0.0131095,0.00965377,587,1128,-15.3548,-1.44127
-630,-104,-15.3629,1.57117,0.00937368,0.000367968,-0.00495879,0.011569,-0.00182733,-0.416774,0.00838838,0.0116253,594,1128,-15.3629,-1.57118
-623,-104,-15.3823,1.73035,0.00314345,-0.00133574,-0.0046124,0.00603123,-0.00422352,-0.559384,0.00595117,0.0155238,601,1128,-15.3823,-1.7303
-616,-104,-15.4237,1.90002,-7.05356e-05,-0.00229371,-0.00466766,0.00361607,-0.00598031,-0.668502,0.00559624,0.0162258,608,1128,-15.4237,-1.90007
-609,-104,-15.4828,1.9834,-0.00179703,-0.00214054,-0.00501739,0.00305155,-0.00698912,-0.768289,0.00594371,0.0185896,615,1128,-15.4828,-1.98341
-602,-104,-15.3984,2.12305,-0.00269839,-0.00190618,-0.00575541,0.00346674,-0.00807131,-0.819755,0.00683603,0.0154853,622,1128,-15.3984,-2.12301
-595,-104,-15.3423,2.28162,-0.00326434,-0.00180437,-0.00632898,0.00383659,-0.0089053,-0.842815,0.00754806,0.0150211,629,1128,-15.3423,-2.28156
-588,-104,-15.4211,2.31067,-0.00339464,-0.00187032,-0.00652886,0.00394071,-0.00920567,-0.843503,0.00779032,0.0332609,636,1128,-15.4212,-2.31065
-581,-104,-15.9896,1.53601,-0.00330191,-0.00181678,-0.00645954,0.00394274,-0.00906143,-0.842625,0.00769939,0.0483993,643,1128,-15.9896,-1.53596
-574,-104,-16.4775,0.82251,-0.00317366,-0.00160489,-0.00630972,0.00396901,-0.00874756,-0.847238,0.00751272,0.046022,650,1128,-16.4776,-0.822511
-567,-104,-16.379,0.879395,-0.00283277,-0.00119332,-0.0058337,0.00387797,-0.00790405,-0.855199,0.00693348,0.0350044,657,1128,-16.379,-0.879413
-560,-104,-16.2599,0.940063,-0.00230347,-0.000602642,-0.00494067,0.00356027,-0.00646637,-0.870626,0.00586937,0.039025,664,1128,-16.2599,-0.940095
-553,-104,-16.2025,0.754272,-0.00163044,0.00013275,-0.00362513,0.00298195,-0.00447964,-0.904678,0.00433678,0.0455713,671,1128,-16.2025,-0.754256
-546,-104,-16.1522,0.36499,-0.000846091,0.00094419,-0.00184612,0.00210074,-0.00200264,-1.01114,0.00236932,0.0453651,678,1128,-16.1522,-0.364987
-539,-104,-16.2512,0.541016,0.000136366,0.00170451,0.000404284,0.0018026,3.82732e-05,1.33276,0.00118918,0.0404002,685,1128,-16.2512,-0.541045
-532,-104,-16.484,0.65332,0.000536142,0.00207562,0.00228104,0.00371329,-0.00110153,0.948124,0.00291298,0.0427036,692,1128,-16.484,-0.653286
-525,-104,-16.7027,0.817383,-0.00143606,0.00114067,0.00189293,0.00214208,-0.00243747,1.0842,0.00264584,0.0393847,699,1128,-16.7027,-0.817344
-518,-104,0,0,0,0,0,0,0,0,0,-1,706,1128,0,0
-511,-104,0,0,0,0,0,0,0,0,0,-1,713,1128,0,0
-504,-104,0,0,0,0,0,0,0,0,0,-1,720,1128,0,0
-497,-104,0,0,0,0,0,0,0,0,0,-1,727,1128,0,0
-490,-104,0,0,0,0,0,0,0,0,0,-1,734,1128,0,0
-483,-104,0,0,0,0,0,0,0,0,0,-1,741,1128,0,0
-476,-104,0,0,0,0,0,0,0,0,0,-1,748,1128,0,0
-469,-104,0,0,0,0,0,0,0,0,0,-1,755,1128,0,0
-462,-104,0,0,0,0,0,0,0,0,0,-1,762,1128,0,0
-455,-104,0,0,0,0,0,0,0,0,0,-1,769,1128,0,0
-448,-104,0,0,0,0,0,0,0,0,0,-1,776,1128,0,0
-441,-104,0,0,0,0,0,0,0,0,0,-1,783,1128,0,0
-434,-104,0,0,0,0,0,0,0,0,0,-1,790,1128,0,0
-427,-104,0,0,0,0,0,0,0,0,0,-1,797,1128,0,0
-420,-104,0,0,0,0,0,0,0,0,0,-1,804,1128,0,0
-413,-104,0,0,0,0,0,0,0,0,0,-1,811,1128,0,0
-406,-104,0,0,0,0,0,0,0,0,0,-1,818,1128,0,0
-399,-104,0,0,0,0,0,0,0,0,0,-1,825,1128,0,0
-392,-104,0,0,0,0,0,0,0,0,0,-1,832,1128,0,0
-385,-104,0,0,0,0,0,0,0,0,0,-1,839,1128,0,0
-378,-104,0,0,0,0,0,0,0,0,0,-1,846,1128,0,0
-371,-104,0,0,0,0,0,0,0,0,0,-1,853,1128,0,0
-364,-104,0,0,0,0,0,0,0,0,0,-1,860,1128,0,0
-357,-104,0,0,0,0,0,0,0,0,0,-1,867,1128,0,0
-350,-104,0,0,0,0,0,0,0,0,0,-1,874,1128,0,0
-343,-104,0,0,0,0,0,0,0,0,0,-1,881,1128,0,0
-336,-104,0,0,0,0,0,0,0,0,0,-1,888,1128,0,0
-329,-104,0,0,0,0,0,0,0,0,0,-1,895,1128,0,0
-322,-104,0,0,0,0,0,0,0,0,0,-1,902,1128,0,0
-315,-104,0,0,0,0,0,0,0,0,0,-1,909,1128,0,0
-308,-104,0,0,0,0,0,0,0,0,0,-1,916,1128,0,0
-301,-104,0,0,0,0,0,0,0,0,0,-1,923,1128,0,0
-294,-104,0,0,0,0,0,0,0,0,0,-1,930,1128,0,0
-287,-104,0,0,0,0,0,0,0,0,0,-1,937,1128,0,0
-280,-104,0,0,0,0,0,0,0,0,0,-1,944,1128,0,0
-273,-104,0,0,0,0,0,0,0,0,0,-1,951,1128,0,0
-266,-104,0,0,0,0,0,0,0,0,0,-1,958,1128,0,0
-259,-104,0,0,0,0,0,0,0,0,0,-1,965,1128,0,0
-252,-104,0,0,0,0,0,0,0,0,0,-1,972,1128,0,0
-245,-104,0,0,0,0,0,0,0,0,0,-1,979,1128,0,0
-238,-104,0,0,0,0,0,0,0,0,0,-1,986,1128,0,0
-231,-104,0,0,0,0,0,0,0,0,0,-1,993,1128,0,0
-224,-104,0,0,0,0,0,0,0,0,0,-1,1000,1128,0,0
-217,-104,0,0,0,0,0,0,0,0,0,-1,1007,1128,0,0
-210,-104,0,0,0,0,0,0,0,0,0,-1,1014,1128,0,0
-203,-104,0,0,0,0,0,0,0,0,0,-1,1021,1128,0,0
-196,-104,0,0,0,0,0,0,0,0,0,-1,1028,1128,0,0
-189,-104,0,0,0,0,0,0,0,0,0,-1,1035,1128,0,0
-182,-104,0,0,0,0,0,0,0,0,0,-1,1042,1128,0,0
-175,-104,0,0,0,0,0,0,0,0,0,-1,1049,1128,0,0
-168,-104,0,0,0,0,0,0,0,0,0,-1,1056,1128,0,0
-161,-104,0,0,0,0,0,0,0,0,0,-1,1063,1128,0,0
-154,-104,0,0,0,0,0,0,0,0,0,-1,1070,1128,0,0
-147,-104,0,0,0,0,0,0,0,0,0,-1,1077,1128,0,0
-140,-104,0,0,0,0,0,0,0,0,0,-1,1084,1128,0,0
-133,-104,0,0,0,0,0,0,0,0,0,-1,1091,1128,0,0
-126,-104,0,0,0,0,0,0,0,0,0,-1,1098,1128,0,0
-119,-104,0,0,0,0,0,0,0,0,0,-1,1105,1128,0,0
-112,-104,0,0,0,0,0,0,0,0,0,-1,1112,1128,0,0
-105,-104,0,0,0,0,0,0,0,0,0,-1,1119,1128,0,0
-98,-104,0,0,0,0,0,0,0,0,0,-1,1126,1128,0,0
-91,-104,0,0,0,0,0,0,0,0,0,-1,1133,1128,0,0
-84,-104,0,0,0,0,0,0,0,0,0,-1,1140,1128,0,0
-77,-104,0,0,0,0,0,0,0,0,0,-1,1147,1128,0,0
-70,-104,0,0,0,0,0,0,0,0,0,-1,1154,1128,0,0
-63,-104,0,0,0,0,0,0,0,0,0,-1,1161,1128,0,0
-56,-104,0,0,0,0,0,0,0,0,0,-1,1168,1128,0,0
-49,-104,0,0,0,0,0,0,0,0,0,-1,1175,1128,0,0
-42,-104,0,0,0,0,0,0,0,0,0,-1,1182,1128,0,0
-35,-104,0,0,0,0,0,0,0,0,0,-1,1189,1128,0,0
-28,-104,0,0,0,0,0,0,0,0,0,-1,1196,1128,0,0
-21,-104,0,0,0,0,0,0,0,0,0,-1,1203,1128,0,0
-14,-104,0,0,0,0,0,0,0,0,0,-1,1210,1128,0,0
-7,-104,0,0,0,0,0,0,0,0,0,-1,1217,1128,0,0
0,-104,0,0,0,0,0,0,0,0,0,-1,1224,1128,0,0
7,-104,0,0,0,0,0,0,0,0,0,-1,1231,1128,0,0
14,-104,0,0,0,0,0,0,0,0,0,-1,1238,1128,0,0
21,-104,0,0,0,0,0,0,0,0,0,-1,1245,1128,0,0
28,-104,0,0,0,0,0,0,0,0,0,-1,1252,1128,0,0
35,-104,0,0,0,0,0,0,0,0,0,-1,1259,1128,0,0
42,-104,0,0,0,0,0,0,0,0,0,-1,1266,1128,0,0
49,-104,0,0,0,0,0,0,0,0,0,-1,1273,1128,0,0
56,-104,0,0,0,0,0,0,0,0,0,-1,1280,1128,0,0
63,-104,0,0,0,0,0,0,0,0,0,-1,1287,1128,0,0
70,-104,0,0,0,0,0,0,0,0,0,-1,1294,1128,0,0
77,-104,0,0,0,0,0,0,0,0,0,-1,1301,1128,0,0
84,-104,0,0,0,0,0,0,0,0,0,-1,1308,1128,0,0
91,-104,0,0,0,0,0,0,0,0,0,-1,1315,1128,0,0
98,-104,0,0,0,0,0,0,0,0,0,-1,1322,1128,0,0
105,-104,0,0,0,0,0,0,0,0,0,-1,1329,1128,0,0
112,-104,0,0,0,0,0,0,0,0,0,-1,1336,1128,0,0
119,-104,0,0,0,0,0,0,0,0,0,-1,1343,1128,0,0
126,-104,0,0,0,0,0,0,0,0,0,-1,1350,1128,0,0
133,-104,0,0,0,0,0,0,0,0,0,-1,1357,1128,0,0
140,-104,0,0,0,0,0,0,0,0,0,-1,1364,1128,0,0
147,-104,0,0,0,0,0,0,0,0,0,-1,1371,1128,0,0
154,-104,0,0,0,0,0,0,0,0,0,-1,1378,1128,0,0
161,-104,0,0,0,0,0,0,0,0,0,-1,1385,1128,0,0
168,-104,0,0,0,0,0,0,0,0,0,-1,1392,1128,0,0
175,-104,0,0,0,0,0,0,0,0,0,-1,1399,1128,0,0
182,-104,0,0,0,0,0,0,0,0,0,-1,1406,1128,0,0
189,-104,0,0,0,0,0,0,0,0,0,-1,1413,1128,0,0
196,-104,0,0,0,0,0,0,0,0,0,-1,1420,1128,0,0
203,-104,0,0,0,0,0,0,0,0,0,-1,1427,1128,0,0
210,-104,0,0,0,0,0,0,0,0,0,-1,1434,1128,0,0
217,-104,0,0,0,0,0,0,0,0,0,-1,1441,1128,0,0
224,-104,0,0,0,0,0,0,0,0,0,-1,1448,1128,0,0
231,-104,0,0,0,0,0,0,0,0,0,-1,1455,1128,0,0
238,-104,0,0,0,0,0,0,0,0,0,-1,1462,1128,0,0
245,-104,0,0,0,0,0,0,0,0,0,-1,1469,1128,0,0
252,-104,0,0,0,0,0,0,0,0,0,-1,1476,1128,0,0
259,-104,0,0,0,0,0,0,0,0,0,-1,1483,1128,0,0
266,-104,0,0,0,0,0,0,0,0,0,-1,1490,1128,0,0
273,-104,0,0,0,0,0,0,0,0,0,-1,1497,1128,0,0
280,-104,0,0,0,0,0,0,0,0,0,-1,1504,1128,0,0
287,-104,0,0,0,0,0,0,0,0,0,-1,1511,1128,0,0
294,-104,0,0,0,0,0,0,0,0,0,-1,1518,1128,0,0
301,-104,0,0,0,0,0,0,0,0,0,-1,1525,1128,0,0
308,-104,0,0,0,0,0,0,0,0,0,-1,1532,1128,0,0
315,-104,0,0,0,0,0,0,0,0,0,-1,1539,1128,0,0
322,-104,0,0,0,0,0,0,0,0,0,-1,1546,1128,0,0
329,-104,0,0,0,0,0,0,0,0,0,-1,1553,1128,0,0
336,-104,0,0,0,0,0,0,0,0,0,-1,1560,1128,0,0
343,-104,0,0,0,0,0,0,0,0,0,-1,1567,1128,0,0
350,-104,0,0,0,0,0,0,0,0,0,-1,1574,1128,0,0
357,-104,0,0,0,0,0,0,0,0,0,-1,1581,1128,0,0
364,-104,0,0,0,0,0,0,0,0,0,-1,1588,1128,0,0
371,-104,0,0,0,0,0,0,0,0,0,-1,1595,1128,0,0
378,-104,0,0,0,0,0,0,0,0,0,-1,1602,1128,0,0
385,-104,0,0,0,0,0,0,0,0,0,-1,1609,1128,0,0
392,-104,0,0,0,0,0,0,0,0,0,-1,1616,1128,0,0
399,-104,0,0,0,0,0,0,0,0,0,-1,1623,1128,0,0
406,-104,0,0,0,0,0,0,0,0,0,-1,1630,1128,0,0
413,-104,0,0,0,0,0,0,0,0,0,-1,1637,1128,0,0
420,-104,0,0,0,0,0,0,0,0,0,-1,1644,1128,0,0
427,-104,0,0,0,0,0,0,0,0,0,-1,1651,1128,0,0
434,-104,0,0,0,0,0,0,0,0,0,-1,1658,1128,0,0
441,-104,0,0,0,0,0,0,0,0,0,-1,1665,1128,0,0
448,-104,0,0,0,0,0,0,0,0,0,-1,1672,1128,0,0
455,-104,0,0,0,0,0,0,0,0,0,-1,1679,1128,0,0
462,-104,0,0,0,0,0,0,0,0,0,-1,1686,1128,0,0
469,-104,0,0,0,0,0,0,0,0,0,-1,1693,1128,0,0
476,-104,0,0,0,0,0,0,0,0,0,-1,1700,1128,0,0
483,-104,0,0,0,0,0,0,0,0,0,-1,1707,1128,0,0
490,-104,0,0,0,0,0,0,0,0,0,-1,1714,1128,0,0
497,-104,0,0,0,0,0,0,0,0,0,-1,1721,1128,0,0
504,-104,0,0,0,0,0,0,0,0,0,-1,1728,1128,0,0
511,-104,0,0,0,0,0,0,0,0,0,-1,1735,1128,0,0
518,-104,0,0,0,0,0,0,0,0,0,-1,1742,1128,0,0
525,-104,0,0,0,0,0,0,0,0,0,-1,1749,1128,0,0
532,-104,0,0,0,0,0,0,0,0,0,-1,1756,1128,0,0
539,-104,0,0,0,0,0,0,0,0,0,-1,1763,1128,0,0
546,-104,0,0,0,0,0,0,0,0,0,-1,1770,1128,0,0
553,-104,0,0,0,0,0,0,0,0,0,-1,1777,1128,0,0
560,-104,0,0,0,0,0,0,0,0,0,-1,1784,1128,0,0
567,-104,0,0,0,0,0,0,0,0,0,-1,1791,1128,0,0
574,-104,0,0,0,0,0,0,0,0,0,-1,1798,1128,0,0
581,-104,0,0,0,0,0,0,0,0,0,-1,1805,1128,0,0
588,-104,0,0,0,0,0,0,0,0,0,-1,1812,1128,0,0
595,-104,0,0,0,0,0,0,0,0,0,-1,1819,1128,0,0
602,-104,0,0,0,0,0,0,0,0,0,-1,1826,1128,0,0
609,-104,0,0,0,0,0,0,0,0,0,-1,1833,1128,0,0
616,-104,0,0,0,0,0,0,0,0,0,-1,1840,1128,0,0
623,-104,0,0,0,0,0,0,0,0,0,-1,1847,1128,0,0
630,-104,0,0,0,0,0,0,0,0,0,-1,1854,1128,0,0
637,-104,0,0,0,0,0,0,0,0,0,-1,1861,1128,0,0
644,-104,23.9539,2.8501,0.00531387,1.1016e-05,0.00344887,0.0070127,-0.00168782,0.457692,0.00532762,0.0381629,1868,1128,23.9538,-2.85007
651,-104,24.09,2.97534,0.00429731,1.19501e-05,0.00239205,0.00536602,-0.00105676,0.420167,0.00397668,0.0401183,1875,1128,24.09,-2.9753
658,-104,24.1467,2.93176,0.00374884,6.27704e-05,0.00144083,0.0042452,-0.000433591,0.331764,0.00298518,0.040772,1882,1128,24.1467,-2.93172
665,-104,24.281,2.85315,0.00273455,-0.00016197,0.00106242,0.00308245,-0.000509868,0.316455,0.00224431,0.041621,1889,1128,24.281,-2.85311
672,-104,24.3693,2.78992,0.00155102,-0.000528516,0.00118868,0.00209052,-0.00106802,0.426062,0.00185516,0.0404133,1896,1128,24.3692,-2.78995
679,-104,24.2694,2.73547,0.000320695,-0.000948329,0.00157213,0.00138153,-0.00200916,0.593595,0.00196876,0.0395623,1903,1128,24.2694,-2.73542
686,-104,24.1074,2.79492,-0.000713377,-0.00130565,0.00201092,0.0010231,-0.00304212,0.712292,0.00244164,0.040086,1910,1128,24.1074,-2.79488
693,-104,24.1174,2.80237,-0.0014066,-0.00152934,0.00236121,0.000894038,-0.00382998,0.772405,0.00289768,0.035178,1917,1128,24.1174,-2.80239
700,-104,24.1337,2.72388,-0.00181902,-0.00166306,0.00253942,0.000799571,-0.00428166,0.800747,0.00315492,0.0257973,1924,1128,24.1337,-2.72393
707,-104,24.119,2.78577,0,0,0,0,0,0,0,-1,1931,1128,24.1191,-2.78571
714,-104,23.5964,3.77869,0,0,0,0,0,0,0,-1,1938,1128,23.5964,-3.77863
721,-104,23.0737,4.77161,0,0,0,0,0,0,0,-1,1945,1128,23.0738,-4.77156
728,-104,23.0031,4.56384,-0.00303021,-0.00128351,0.00288257,0.000855106,-0.00516882,0.932491,0.00376344,0.0214229,1952,1128,23.0031,-4.5638
735,-104,22.9958,4.51697,-0.00273119,-0.000831257,0.0026,0.000986884,-0.00454933,0.96055,0.00340979,0.0209418,1959,1128,22.9959,-4.51696
742,-104,22.9326,4.43188,-0.00189761,-0.000778654,0.00206135,0.000797794,-0.00347406,0.917912,0.00262273,0.0146073,1966,1128,22.9327,-4.43192
749,-104,22.9017,4.29846,-0.00068671,-0.00121301,0.00121463,0.000292954,-0.00219267,0.678723,0.00156858,0.0170313,1973,1128,22.9017,-4.2984
756,-104,22.8855,4.16846,0.00134315,-0.00153148,-0.000208112,0.00135813,-0.00154647,-0.0718964,0.00167815,0.0160735,1980,1128,22.8854,-4.16842
763,-104,22.8687,4.08594,0.00485861,-0.00232086,-0.00246874,0.00562558,-0.00308783,-0.301219,0.00510131,0.0143073,1987,1128,22.8686,-4.08593
770,-104,22.8674,3.99316,0.00913152,-0.00392355,-0.00493527,0.0107872,-0.00557927,-0.323687,0.00960735,0.0111385,1994,1128,22.8674,-3.99315
777,-104,22.8589,3.87366,0.0145668,-0.00633538,-0.00780278,0.0171583,-0.00892686,-0.320661,0.0153082,0.0177083,2001,1128,22.8588,-3.87361
784,-104,22.8334,3.57104,0.0214049,-0.00948984,-0.0113972,0.0251543,-0.0132393,-0.317826,0.0225195,0.035157,2008,1128,22.8334,-3.57103
791,-104,22.8341,3.12183,0.0302499,-0.0136355,-0.0161265,0.0355386,-0.0189242,-0.316895,0.0319281,0.0443168,2015,1128,22.8341,-3.12178
798,-104,22.9241,2.76672,0,0,0,0,0,0,0,-1,2022,1128,22.9241,-2.76674
805,-104,23.2236,2.23938,0,0,0,0,0,0,0,-1,2029,1128,23.2236,-2.23937
812,-104,21.0288,2.12695,0,0,0,0,0,0,0,-1,2036,1128,21.0289,-2.12695
-700,-111,0,0,0,0,0,0,0,0,0,-1,524,1135,0,0
-693,-111,-13.6844,0.262573,0,0,0,0,0,0,0,-1,531,1135,-13.6844,-0.262629
-686,-111,-13.9722,0.493774,0,0,0,0,0,0,0,-1,538,1135,-13.9722,-0.493759
-679,-111,-16.4554,-3.69971,0,0,0,0,0,0,0,-1,545,1135,-16.4554,3.69969
-672,-111,-15.9357,-2.65234,0,0,0,0,0,0,0,-1,552,1135,-15.9357,2.65234
-665,-111,-15.3987,2.27087,0,0,0,0,0,0,0,-1,559,1135,-15.3988,-2.2709
-658,-111,-15.3942,1.93616,0,0,0,0,0,0,0,-1,566,1135,-15.3942,-1.9362
-651,-111,-15.16,1.4071,0.0356508,0.00461568,-0.00908781,0.0381161,0.00215039,-0.264899,0.0247251,0.0379306,573,1135,-15.16,-1.40713
-644,-111,-15.2032,1.31287,0.0249136,0.00250678,-0.00726633,0.0270637,0.000356692,-0.287688,0.0179248,0.0232196,580,1135,-15.2032,-1.31291
-637,-111,-15.1979,1.44299,0.0160385,0.00090103,-0.00605727,0.0181639,-0.00122437,-0.337462,0.0125373,0.00868376,587,1135,-15.1979,-1.44297
-630,-111,-15.2155,1.55164,0.00776589,-0.000586144,-0.0055442,0.0105309,-0.00335111,-0.462618,0.00836445,0.0140854,594,1135,-15.2155,-1.55169
-623,-111,-15.2407,1.71484,0.00227108,-0.0019006,-0.00493943,0.00554702,-0.00517654,-0.585615,0.00619249,0.0142428,601,1135,-15.2407,-1.71488
-616,-111,-15.2725,1.84485,-0.0005258,-0.00255999,-0.00476423,0.00332869,-0.00641448,-0.680234,0.00571849,0.0150167,608,1135,-15.2725,-1.84484
-609,-111,-15.3481,1.97644,-0.00194948,-0.00222476,-0.00486745,0.00278228,-0.00695651,-0.771263,0.0057923,0.018581,615,1135,-15.3481,-1.97646
-602,-111,-15.2856,2.12561,-0.00274697,-0.00197689,-0.00544082,0.0030925,-0.00781636,-0.820724,0.00649209,0.0172894,622,1135,-15.2856,-2.1256
-595,-111,-15.24,2.3031,-0.00331318,-0.00197479,-0.00590379,0.00329761,-0.00858558,-0.841832,0.00708357,0.0127013,629,1135,-15.24,-2.30305
-588,-111,-15.1924,2.44495,-0.00352836,-0.00211173,-0.00604931,0.00327059,-0.00891068,-0.843678,0.00727981,0.0357002,636,1135,-15.1924,-2.44495
-581,-111,-15.1051,2.39929,0,0,0,0,0,0,0,-1,643,1135,-15.1051,-2.39935
-574,-111,-16.3938,0.703003,0,0,0,0,0,0,0,-1,650,1135,-16.3938,-0.702987
-567,-111,-16.3994,0.962036,-0.00319633,-0.00168098,-0.00550736,0.00312059,-0.00799789,-0.853756,0.00662193,0.0365329,657,1135,-16.3994,-0.961991
-560,-111,-16.2885,1.05566,-0.00278272,-0.00119366,-0.0047478,0.00282563,-0.00680202,-0.868303,0.00571438,0.0376979,664,1135,-16.2885,-1.05563
-553,-111,-16.2674,0.921875,-0.0022249,-0.000555592,-0.00361778,0.00232256,-0.00510305,-0.898769,0.00438622,0.0416313,671,1135,-16.2674,-0.921918
-546,-111,-16.2337,0.509399,-0.00156441,0.000171204,-0.00208606,0.00156276,-0.00295596,-0.982511,0.0026499,0.0404275,678,1135,-16.2337,-0.509374
-539,-111,-16.4285,0.495972,-0.00070537,0.000873846,-0.000130394,0.00088454,-0.000716064,-1.48897,0.000925814,0.0410166,685,1135,-16.4285,-0.496005
-532,-111,-16.6417,0.618164,-0.000168551,0.00127706,0.00160658,0.00231594,-0.00120743,0.996786,0.00206751,0.0432413,692,1135,-16.6417,-0.618209
-525,-111,-16.6371,0.801636,-0.00186733,0.000519938,0.00113885,0.000976073,-0.00232346,1.18984,0.00195722,0.040768,699,1135,-16.6371,-0.801652
-518,-111,0,0,0,0,0,0,0,0,0,-1,706,1135,0,0
-511,-111,0,0,0,0,0,0,0,0,0,-1,713,1135,0,0
-504,-111,0,0,0,0,0,0,0,0,0,-1,720,1135,0,0
-497,-111,0,0,0,0,0,0,0,0,0,-1,727,1135,0,0
-490,-111,0,0,0,0,0,0,0,0,0,-1,734,1135,0,0
-483,-111,0,0,0,0,0,0,0,0,0,-1,741,1135,0,0
-476,-111,0,0,0,0,0,0,0,0,0,-1,748,1135,0,0
-469,-111,0,0,0,0,0,0,0,0,0,-1,755,1135,0,0
-462,-111,0,0,0,0,0,0,0,0,0,-1,762,1135,0,0
-455,-111,0,0,0,0,0,0,0,0,0,-1,769,1135,0,0
-448,-111,0,0,0,0,0,0,0,0,0,-1,776,1135,0,0
-441,-111,0,0,0,0,0,0,0,0,0,-1,783,1135,0,0
-434,-111,0,0,0,0,0,0,0,0,0,-1,790,1135,0,0
-427,-111,0,0,0,0,0,0,0,0,0,-1,797,1135,0,0
-420,-111,0,0,0,0,0,0,0,0,0,-1,804,1135,0,0
-413,-111,0,0,0,0,0,0,0,0,0,-1,811,1135,0,0
-406,-111,0,0,0,0,0,0,0,0,0,-1,818,1135,0,0
-399,-111,0,0,0,0,0,0,0,0,0,-1,825,1135,0,0
-392,-111,0,0,0,0,0,0,0,0,0,-1,832,1135,0,0
-385,-111,0,0,0,0,0,0,0,0,0,-1,839,1135,0,0
-378,-111,0,0,0,0,0,0,0,0,0,-1,846,1135,0,0
-371,-111,0,0,0,0,0,0,0,0,0,-1,853,1135,0,0
-364,-111,0,0,0,0,0,0,0,0,0,-1,860,1135,0,0
-357,-111,0,0,0,0,0,0,0,0,0,-1,867,1135,0,0
-350,-111,0,0,0,0,0,0,0,0,0,-1,874,1135,0,0
-343,-111,0,0,0,0,0,0,0,0,0,-1,881,1135,0,0
-336,-111,0,0,0,0,0,0,0,0,0,-1,888,1135,0,0
-329,-111,0,0,0,0,0,0,0,0,0,-1,895,1135,0,0
-322,-111,0,0,0,0,0,0,0,0,0,-1,902,1135,0,0
-315,-111,0,0,0,0,0,0,0,0,0,-1,909,1135,0,0
-308,-111,0,0,0,0,0,0,0,0,0,-1,916,1135,0,0
-301,-111,0,0,0,0,0,0,0,0,0,-1,923,1135,0,0
-294,-111,0,0,0,0,0,0,0,0,0,-1,930,1135,0,0
-287,-111,0,0,0,0,0,0,0,0,0,-1,937,1135,0,0
-280,-111,0,0,0,0,0,0,0,0,0,-1,944,1135,0,0
-273,-111,0,0,0,0,0,0,0,0,0,-1,951,1135,0,0
-266,-111,0,0,0,0,0,0,0,0,0,-1,958,1135,0,0
-259,-111,0,0,0,0,0,0,0,0,0,-1,965,1135,0,0
-252,-111,0,0,0,0,0,0,0,0,0,-1,972,1135,0,0
-245,-111,0,0,0,0,0,0,0,0,0,-1,979,1135,0,0
-238,-111,0,0,0,0,0,0,0,0,0,-1,986,1135,0,0
-231,-111,0,0,0,0,0,0,0,0,0,-1,993,1135,0,0
-224,-111,0,0,0,0,0,0,0,0,0,-1,1000,1135,0,0
-217,-111,0,0,0,0,0,0,0,0,0,-1,1007,1135,0,0
-210,-111,0,0,0,0,0,0,0,0,0,-1,1014,1135,0,0
-203,-111,0,0,0,0,0,0,0,0,0,-1,1021,1135,0,0
-196,-111,0,0,0,0,0,0,0,0,0,-1,1028,1135,0,0
-189,-111,0,0,0,0,0,0,0,0,0,-1,1035,1135,0,0
-182,-111,0,0,0,0,0,0,0,0,0,-1,1042,1135,0,0
-175,-111,0,0,0,0,0,0,0,0,0,-1,1049,1135,0,0
-168,-111,0,0,0,0,0,0,0,0,0,-1,1056,1135,0,0
-161,-111,0,0,0,0,0,0,0,0,0,-1,1063,1135,0,0
-154,-111,0,0,0,0,0,0,0,0,0,-1,1070,1135,0,0
-147,-111,0,0,0,0,0,0,0,0,0,-1,1077,1135,0,0
-140,-111,0,0,0,0,0,0,0,0,0,-1,1084,1135,0,0
-133,-111,0,0,0,0,0,0,0,0,0,-1,1091,1135,0,0
-126,-111,0,0,0,0,0,0,0,0,0,-1,1098,1135,0,0
-119,-111,0,0,0,0,0,0,0,0,0,-1,1105,1135,0,0
-112,-111,0,0,0,0,0,0,0,0,0,-1,1112,1135,0,0
-105,-111,0,0,0,0,0,0,0,0,0,-1,1119,1135,0,0
-98,-111,0,0,0,0,0,0,0,0,0,-1,1126,1135,0,0
-91,-111,0,0,0,0,0,0,0,0,0,-1,1133,1135,0,0
-84,-111,0,0,0,0,0,0,0,0,0,-1,1140,1135,0,0
-77,-111,0,0,0,0,0,0,0,0,0,-1,1147,1135,0,0
-70,-111,0,0,0,0,0,0,0,0,0,-1,1154,1135,0,0
-63,-111,0,0,0,0,0,0,0,0,0,-1,1161,1135,0,0
-56,-111,0,0,0,0,0,0,0,0,0,-1,1168,1135,0,0
-49,-111,0,0,0,0,0,0,0,0,0,-1,1175,1135,0,0
-42,-111,0,0,0,0,0,0,0,0,0,-1,1182,1135,0,0
-35,-111,0,0,0,0,0,0,0,0,0,-1,1189,1135,0,0
-28,-111,0,0,0,0,0,0,0,0,0,-1,1196,1135,0,0
-21,-111,0,0,0,0,0,0,0,0,0,-1,1203,1135,0,0
-14,-111,0,0,0,0,0,0,0,0,0,-1,1210,1135,0,0
-7,-111,0,0,0,0,0,0,0,0,0,-1,1217,1135,0,0
0,-111,0,0,0,0,0,0,0,0,0,-1,1224,1135,0,0
7,-111,0,0,0,0,0,0,0,0,0,-1,1231,1135,0,0
14,-111,0,0,0,0,0,0,0,0,0,-1,1238,1135,0,0
21,-111,0,0,0,0,0,0,0,0,0,-1,1245,1135,0,0
28,-111,0,0,0,0,0,0,0,0,0,-1,1252,1135,0,0
35,-111,0,0,0,0,0,0,0,0,0,-1,1259,1135,0,0
42,-111,0,0,0,0,0,0,0,0,0,-1,1266,1135,0,0
49,-111,0,0,0,0,0,0,0,0,0,-1,1273,1135,0,0
56,-111,0,0,0,0,0,0,0,0,0,-1,1280,1135,0,0
63,-111,0,0,0,0,0,0,0,0,0,-1,1287,1135,0,0
70,-111,0,0,0,0,0,0,0,0,0,-1,1294,1135,0,0
77,-111,0,0,0,0,0,0,0,0,0,-1,1301,1135,0,0
84,-111,0,0,0,0,0,0,0,0,0,-1,1308,1135,0,0
91,-111,0,0,0,0,0,0,0,0,0,-1,1315,1135,0,0
98,-111,0,0,0,0,0,0,0,0,0,-1,1322,1135,0,0
105,-111,0,0,0,0,0,0,0,0,0,-1,1329,1135,0,0
112,-111,0,0,0,0,0,0,0,0,0,-1,1336,1135,0,0
119,-111,0,0,0,0,0,0,0,0,0,-1,1343,1135,0,0
126,-111,0,0,0,0,0,0,0,0,0,-1,1350,1135,0,0
133,-111,0,0,0,0,0,0,0,0,0,-1,1357,1135,0,0
140,-111,0,0,0,0,0,0,0,0,0,-1,1364,1135,0,0
147,-111,0,0,0,0,0,0,0,0,0,-1,1371,1135,0,0
154,-111,0,0,0,0,0,0,0,0,0,-1,1378,1135,0,0
161,-111,0,0,0,0,0,0,0,0,0,-1,1385,1135,0,0
168,-111,0,0,0,0,0,0,0,0,0,-1,1392,1135,0,0
175,-111,0,0,0,0,0,0,0,0,0,-1,1399,1135,0,0
182,-111,0,0,0,0,0,0,0,0,0,-1,1406,1135,0,0
189,-111,0,0,0,0,0,0,0,0,0,-1,1413,1135,0,0
196,-111,0,0,0,0,0,0,0,0,0,-1,1420,1135,0,0
203,-111,0,0,0,0,0,0,0,0,0,-1,1427,1135,0,0
210,-111,0,0,0,0,0,0,0,0,0,-1,1434,1135,0,0
217,-111,0,0,0,0,0,0,0,0,0,-1,1441,1135,0,0
224,-111,0,0,0,0,0,0,0,0,0,-1,1448,1135,0,0
231,-111,0,0,0,0,0,0,0,0,0,-1,1455,1135,0,0
238,-111,0,0,0,0,0,0,0,0,0,-1,1462,1135,0,0
245,-111,0,0,0,0,0,0,0,0,0,-1,1469,1135,0,0
252,-111,0,0,0,0,0,0,0,0,0,-1,1476,1135,0,0
259,-111,0,0,0,0,0,0,0,0,0,-1,1483,1135,0,0
266,-111,0,0,0,0,0,0,0,0,0,-1,1490,1135,0,0
273,-111,0,0,0,0,0,0,0,0,0,-1,1497,1135,0,0
280,-111,0,0,0,0,0,0,0,0,0,-1,1504,1135,0,0
287,-111,0,0,0,0,0,0,0,0,0,-1,1511,1135,0,0
294,-111,0,0,0,0,0,0,0,0,0,-1,1518,1135,0,0
301,-111,0,0,0,0,0,0,0,0,0,-1,1525,1135,0,0
308,-111,0,0,0,0,0,0,0,0,0,-1,1532,1135,0,0
315,-111,0,0,0,0,0,0,0,0,0,-1,1539,1135,0,0
322,-111,0,0,0,0,0,0,0,0,0,-1,1546,1135,0,0
329,-111,0,0,0,0,0,0,0,0,0,-1,1553,1135,0,0
336,-111,0,0,0,0,0,0,0,0,0,-1,1560,1135,0,0
343,-111,0,0,0,0,0,0,0,0,0,-1,1567,1135,0,0
350,-111,0,0,0,0,0,0,0,0,0,-1,1574,1135,0,0
357,-111,0,0,0,0,0,0,0,0,0,-1,1581,1135,0,0
364,-111,0,0,0,0,0,0,0,0,0,-1,1588,1135,0,0
371,-111,0,0,0,0,0,0,0,0,0,-1,1595,1135,0,0
378,-111,0,0,0,0,0,0,0,0,0,-1,1602,1135,0,0
385,-111,0,0,0,0,0,0,0,0,0,-1,1609,1135,0,0
392,-111,0,0,0,0,0,0,0,0,0,-1,1616,1135,0,0
399,-111,0,0,0,0,0,0,0,0,0,-1,1623,1135,0,0
406,-111,0,0,0,0,0,0,0,0,0,-1,1630,1135,0,0
413,-111,0,0,0,0,0,0,0,0,0,-1,1637,1135,0,0
420,-111,0,0,0,0,0,0,0,0,0,-1,1644,1135,0,0
427,-111,0,0,0,0,0,0,0,0,0,-1,1651,1135,0,0
434,-111,0,0,0,0,0,0,0,0,0,-1,1658,1135,0,0
441,-111,0,0,0,0,0,0,0,0,0,-1,1665,1135,0,0
448,-111,0,0,0,0,0,0,0,0,0,-1,1672,1135,0,0
455,-111,0,0,0,0,0,0,0,0,0,-1,1679,1135,0,0
462,-111,0,0,0,0,0,0,0,0,0,-1,1686,1135,0,0
469,-111,0,0,0,0,0,0,0,0,0,-1,1693,1135,0,0
476,-111,0,0,0,0,0,0,0,0,0,-1,1700,1135,0,0
483,-111,0,0,0,0,0,0,0,0,0,-1,1707,1135,0,0
490,-111,0,0,0,0,0,0,0,0,0,-1,1714,1135,0,0
497,-111,0,0,0,0,0,0,0,0,0,-1,1721,1135,0,0
504,-111,0,0,0,0,0,0,0,0,0,-1,1728,1135,0,0
511,-111,0,0,0,0,0,0,0,0,0,-1,1735,1135,0,0
518,-111,0,0,0,0,0,0,0,0,0,-1,1742,1135,0,0
525,-111,0,0,0,0,0,0,0,0,0,-1,1749,1135,0,0
532,-111,0,0,0,0,0,0,0,0,0,-1,1756,1135,0,0
539,-111,0,0,0,0,0,0,0,0,0,-1,1763,1135,0,0
546,-111,0,0,0,0,0,0,0,0,0,-1,1770,1135,0,0
553,-111,0,0,0,0,0,0,0,0,0,-1,1777,1135,0,0
560,-111,0,0,0,0,0,0,0,0,0,-1,1784,1135,0,0
567,-111,0,0,0,0,0,0,0,0,0,-1,1791,1135,0,0
574,-111,0,0,0,0,0,0,0,0,0,-1,1798,1135,0,0
581,-111,0,0,0,0,0,0,0,0,0,-1,1805,1135,0,0
588,-111,0,0,0,0,0,0,0,0,0,-1,1812,1135,0,0
595,-111,0,0,0,0,0,0,0,0,0,-1,1819,1135,0,0
602,-111,0,0,0,0,0,0,0,0,0,-1,1826,1135,0,0
609,-111,0,0,0,0,0,0,0,0,0,-1,1833,1135,0,0
616,-111,0,0,0,0,0,0,0,0,0,-1,1840,1135,0,0
623,-111,0,0,0,0,0,0,0,0,0,-1,1847,1135,0,0
630,-111,0,0,0,0,0,0,0,0,0,-1,1854,1135,0,0
637,-111,0,0,0,0,0,0,0,0,0,-1,1861,1135,0,0
644,-111,24.0012,2.78308,0.00474975,0.000711818,0.00338822,0.00667493,-0.00121336,0.516707,0.00490469,0.0398183,1868,1135,24.0012,-2.78304
651,-111,24.0845,2.94006,0.0039396,0.000651692,0.00244587,0.00524266,-0.000651364,0.489509,0.00373122,0.0406047,1875,1135,24.0845,-2.94012
658,-111,24.1497,3.03577,0.00355432,0.000633017,0.00152849,0.00420785,-2.05156e-05,0.404044,0.0028121,0.0433491,1882,1135,24.1497,-3.03582
665,-111,24.2552,2.91785,0.00254667,0.000260588,0.00119024,0.00305384,-0.000246584,0.402811,0.00212287,0.0426238,1889,1135,24.2553,-2.9178
672,-111,24.298,2.69983,0.00131793,-0.000250978,0.00122714,0.00198993,-0.000922976,0.501007,0.00171896,0.0414046,1896,1135,24.298,-2.69987
679,-111,24.1101,2.7594,6.22988e-05,-0.000768809,0.0014943,0.00119775,-0.00190426,0.649779,0.00180637,0.0392248,1903,1135,24.1101,-2.75936
686,-111,23.9298,2.84692,-0.00100039,-0.00119612,0.0018172,0.000721582,-0.00291808,0.758497,0.00222526,0.0385321,1910,1135,23.9298,-2.84688
693,-111,24.0103,2.83765,-0.00170883,-0.00144911,0.00207073,0.000495823,-0.00365377,0.816713,0.00261682,0.0340409,1917,1135,24.0103,-2.83759
700,-111,24.1282,2.75928,-0.00210503,-0.00160305,0.00219336,0.000353632,-0.00406172,0.842366,0.00283306,0.0242192,1924,1135,24.1282,-2.75923
707,-111,23.9993,3.03271,0,0,0,0,0,0,0,-1,1931,1135,23.9993,-3.03276
714,-111,23.3229,3.9447,0,0,0,0,0,0,0,-1,1938,1135,23.3229,-3.94469
721,-111,22.6465,4.85657,0,0,0,0,0,0,0,-1,1945,1135,22.6464,-4.85662
728,-111,22.8378,4.59155,-0.00330797,-0.00129038,0.00246668,0.000365818,-0.00496417,0.979505,0.00343788,0.0174518,1952,1135,22.8378,-4.5916
735,-111,22.8314,4.50537,-0.00286271,-0.000891488,0.00225647,0.000585235,-0.00433943,0.991307,0.00310646,0.0169317,1959,1135,22.8314,-4.50532
742,-111,22.7808,4.39856,-0.00185125,-0.000938812,0.00189043,0.000549671,-0.00333974,0.9038,0.00243052,0.0122147,1966,1135,22.7808,-4.39861
749,-111,22.7728,4.2926,-0.00043263,-0.00146236,0.00124004,0.000395187,-0.00229017,0.588629,0.00167413,0.0147912,1973,1135,22.7728,-4.29255
756,-111,22.7629,4.17798,0.00195996,-0.00201263,0.000115038,0.00196329,-0.00201596,0.0289257,0.00229749,0.0148874,1980,1135,22.763,-4.17793
763,-111,22.7501,4.073,0.00603464,-0.00317465,-0.00167134,0.00632858,-0.00346859,-0.174091,0.00573617,0.01299,1987,1135,22.7502,-4.07297
770,-111,22.7504,3.98254,0.0108488,-0.00527381,-0.00354192,0.0115926,-0.0060176,-0.20699,0.0103357,0.0111322,1994,1135,22.7503,-3.98257
777,-111,22.7145,3.8363,0.0168433,-0.00824318,-0.00579443,0.018117,-0.00951689,-0.216376,0.0162099,0.0226409,2001,1135,22.7144,-3.83633
784,-111,22.576,3.37732,0.0243135,-0.0120561,-0.00875438,0.0263111,-0.0140536,-0.224333,0.02366,0.0379115,2008,1135,22.5761,-3.37728
791,-111,22.2538,2.72046,0.0338483,-0.0169966,-0.0127389,0.0368615,-0.0200097,-0.232259,0.0333116,0.0443597,2015,1135,22.2538,-2.72043
798,-111,21.8706,2.28674,0.0460207,-0.0230719,-0.0180992,0.0504748,-0.027526,-0.241296,0.0456788,0.0472461,2022,1135,21.8706,-2.28672
805,-111,21.5217,1.89648,0,0,0,0,0,0,0,-1,2029,1135,21.5217,-1.89645
812,-111,20.8225,1.32239,0,0,0,0,0,0,0,-1,2036,1135,20.8225,-1.32237
-700,-118,0,0,0,0,0,0,0,0,0,-1,524,1142,0,0
-693,-118,-14.1963,0.154541,0,0,0,0,0,0,0,-1,531,1142,-14.1963,-0.154522
-686,-118,-15.6479,4.75586,0,0,0,0,0,0,0,-1,538,1142,-15.6479,-4.75583
-679,-118,-15.1533,4.16602,0.0911606,0.0233675,-0.0136936,0.093822,0.020706,-0.191967,0.0569157,0.0434324,545,1142,-15.1533,-4.16598
-672,-118,-15.2958,3.6001,0.0710183,0.0158304,-0.0138673,0.0743069,0.0125418,-0.232842,0.0459317,0.0453439,552,1142,-15.2959,-3.6001
-665,-118,-15.6334,2.84009,0.0541499,0.0102745,-0.0129479,0.0576859,0.00673853,-0.266596,0.0364195,0.0442529,559,1142,-15.6334,-2.84012
-658,-118,-15.2388,2.47827,0,0,0,0,0,0,0,-1,566,1142,-15.2388,-2.47832
-651,-118,-15.1238,1.90747,0.0287348,0.00349694,-0.00968468,0.0320228,0.00020894,-0.327295,0.0212792,0.0368733,573,1142,-15.1238,-1.90746
-644,-118,-15.0325,1.3114,0.0198242,0.00166275,-0.00787697,0.0227645,-0.0012776,-0.357266,0.0156196,0.0265445,580,1142,-15.0326,-1.31134
-637,-118,-15.0425,1.43872,0.012461,0.000319226,-0.00653335,0.0153087,-0.00252842,-0.411036,0.0111446,0.0141264,587,1142,-15.0425,-1.43876
-630,-118,-15.0717,1.57776,0.00573856,-0.00091789,-0.00583466,0.00912751,-0.00430684,-0.526204,0.00792102,0.0173435,594,1142,-15.0717,-1.57782
-623,-118,-15.0764,1.70544,0.00127285,-0.00202304,-0.00507591,0.00496162,-0.00571181,-0.628436,0.00616738,0.015568,601,1142,-15.0763,-1.70548
-616,-118,-15.0755,1.854,-0.00104312,-0.00250312,-0.00468875,0.00297212,-0.00651836,-0.708172,0.00560539,0.0139509,608,1142,-15.0755,-1.85403
-609,-118,-15.1385,1.96094,-0.00211544,-0.00212226,-0.00453862,0.00241977,-0.00665747,-0.785022,0.00542778,0.0170571,615,1142,-15.1385,-1.96099
-602,-118,-15.1251,2.15149,-0.00274932,-0.00192756,-0.00490511,0.00258385,-0.00726073,-0.827184,0.00589369,0.016487,622,1142,-15.1251,-2.1515
-595,-118,-15.16,2.2876,-0.00328555,-0.00203325,-0.00521297,0.00259104,-0.00790983,-0.845169,0.0063166,0.0143725,629,1142,-15.16,-2.28759
-588,-118,-14.9788,2.46008,-0.00355921,-0.00223092,-0.00527763,0.00242419,-0.00821432,-0.84799,0.00643824,0.0255686,636,1142,-14.9787,-2.46005
-581,-118,-14.8234,2.54443,0,0,0,0,0,0,0,-1,643,1142,-14.8233,-2.54446
-574,-118,-16.4805,0.924561,0,0,0,0,0,0,0,-1,650,1142,-16.4805,-0.924509
-567,-118,-16.4569,1.03931,-0.00336605,-0.00204749,-0.00480468,0.00214293,-0.00755647,-0.853581,0.00588351,0.0392146,657,1142,-16.4569,-1.03925
-560,-118,-16.4055,1.14233,-0.00303789,-0.00167437,-0.00416621,0.0018655,-0.00657776,-0.866499,0.00512153,0.0351767,664,1142,-16.4055,-1.1423
-553,-118,-16.2972,1.02441,-0.00255142,-0.00115824,-0.00322917,0.00144862,-0.00515828,-0.891629,0.00400991,0.0383638,671,1142,-16.2973,-1.02441
-546,-118,-16.3135,0.746948,-0.00194751,-0.000562371,-0.00197771,0.000840526,-0.00335041,-0.953819,0.00256019,0.0391989,678,1142,-16.3135,-0.74689
-539,-118,-16.3626,0.717529,-0.00113723,1.22549e-05,-0.000392127,0.00013328,-0.00125825,-1.27143,0.000886608,0.0409064,685,1142,-16.3626,-0.717499
-532,-118,-16.4864,0.752319,-0.000407548,0.000337574,0.0010409,0.00107057,-0.00114055,0.957256,0.00127681,0.0409843,692,1142,-16.4864,-0.752275
-525,-118,-16.5387,0.79895,-0.00165924,-0.000362822,0.000467439,-0.00021186,-0.0018102,1.25841,0.00114274,0.0399753,699,1142,-16.5387,-0.79899
-518,-118,0,0,0,0,0,0,0,0,0,-1,706,1142,0,0
-511,-118,0,0,0,0,0,0,0,0,0,-1,713,1142,0,0
-504,-118,0,0,0,0,0,0,0,0,0,-1,720,1142,0,0
-497,-118,0,0,0,0,0,0,0,0,0,-1,727,1142,0,0
-490,-118,0,0,0,0,0,0,0,0,0,-1,734,1142,0,0
-483,-118,0,0,0,0,0,0,0,0,0,-1,741,1142,0,0
-476,-118,0,0,0,0,0,0,0,0,0,-1,748,1142,0,0
-469,-118,0,0,0,0,0,0,0,0,0,-1,755,1142,0,0
-462,-118,0,0,0,0,0,0,0,0,0,-1,762,1142,0,0
-455,-118,0,0,0,0,0,0,0,0,0,-1,769,1142,0,0
-448,-118,0,0,0,0,0,0,0,0,0,-1,776,1142,0,0
-441,-118,0,0,0,0,0,0,0,0,0,-1,783,1142,0,0
-434,-118,0,0,0,0,0,0,0,0,0,-1,790,1142,0,0
-427,-118,0,0,0,0,0,0,0,0,0,-1,797,1142,0,0
-420,-118,0,0,0,0,0,0,0,0,0,-1,804,1142,0,0
-413,-118,0,0,0,0,0,0,0,0,0,-1,811,1142,0,0
-406,-118,0,0,0,0,0,0,0,0,0,-1,818,1142,0,0
-399,-118,0,0,0,0,0,0,0,0,0,-1,825,1142,0,0
-392,-118,0,0,0,0,0,0,0,0,0,-1,832,1142,0,0
-385,-118,0,0,0,0,0,0,0,0,0,-1,839,1142,0,0
-378,-118,0,0,0,0,0,0,0,0,0,-1,846,1142,0,0
-371,-118,0,0,0,0,0,0,0,0,0,-1,853,1142,0,0
-364,-118,0,0,0,0,0,0,0,0,0,-1,860,1142,0,0
-357,-118,0,0,0,0,0,0,0,0,0,-1,867,1142,0,0
-350,-118,0,0,0,0,0,0,0,0,0,-1,874,1142,0,0
-343,-118,0,0,0,0,0,0,0,0,0,-1,881,1142,0,0
-336,-118,0,0,0,0,0,0,0,0,0,-1,888,1142,0,0
-329,-118,0,0,0,0,0,0,0,0,0,-1,895,1142,0,0
-322,-118,0,0,0,0,0,0,0,0,0,-1,902,1142,0,0
-315,-118,0,0,0,0,0,0,0,0,0,-1,909,1142,0,0
-308,-118,0,0,0,0,0,0,0,0,0,-1,916,1142,0,0
-301,-118,0,0,0,0,0,0,0,0,0,-1,923,1142,0,0
-294,-118,0,0,0,0,0,0,0,0,0,-1,930,1142,0,0
-287,-118,0,0,0,0,0,0,0,0,0,-1,937,1142,0,0
-280,-118,0,0,0,0,0,0,0,0,0,-1,944,1142,0,0
-273,-118,0,0,0,0,0,0,0,0,0,-1,951,1142,0,0
-266,-118,0,0,0,0,0,0,0,0,0,-1,958,1142,0,0
-259,-118,0,0,0,0,0,0,0,0,0,-1,965,1142,0,0
-252,-118,0,0,0,0,0,0,0,0,0,-1,972,1142,0,0
-245,-118,0,0,0,0,0,0,0,0,0,-1,979,1142,0,0
-238,-118,0,0,0,0,0,0,0,0,0,-1,986,1142,0,0
-231,-118,0,0,0,0,0,0,0,0,0,-1,993,1142,0,0
-224,-118,0,0,0,0,0,0,0,0,0,-1,1000,1142,0,0
-217,-118,0,0,0,0,0,0,0,0,0,-1,1007,1142,0,0
-210,-118,0,0,0,0,0,0,0,0,0,-1,1014,1142,0,0
-203,-118,0,0,0,0,0,0,0,0,0,-1,1021,1142,0,0
-196,-118,0,0,0,0,0,0,0,0,0,-1,1028,1142,0,0
-189,-118,0,0,0,0,0,0,0,0,0,-1,1035,1142,0,0
-182,-118,0,0,0,0,0,0,0,0,0,-1,1042,1142,0,0
-175,-118,0,0,0,0,0,0,0,0,0,-1,1049,1142,0,0
-168,-118,0,0,0,0,0,0,0,0,0,-1,1056,1142,0,0
-161,-118,0,0,0,0,0,0,0,0,0,-1,1063,1142,0,0
-154,-118,0,0,0,0,0,0,0,0,0,-1,1070,1142,0,0
-147,-118,0,0,0,0,0,0,0,0,0,-1,1077,1142,0,0
-140,-118,0,0,0,0,0,0,0,0,0,-1,1084,1142,0,0
-133,-118,0,0,0,0,0,0,0,0,0,-1,1091,1142,0,0
-126,-118,0,0,0,0,0,0,0,0,0,-1,1098,1142,0,0
-119,-118,0,0,0,0,0,0,0,0,0,-1,1105,1142,0,0
-112,-118,0,0,0,0,0,0,0,0,0,-1,1112,1142,0,0
-105,-118,0,0,0,0,0,0,0,0,0,-1,1119,1142,0,0
-98,-118,0,0,0,0,0,0,0,0,0,-1,1126,1142,0,0
-91,-118,0,0,0,0,0,0,0,0,0,-1,1133,1142,0,0
-84,-118,0,0,0,0,0,0,0,0,0,-1,1140,1142,0,0
-77,-118,0,0,0,0,0,0,0,0,0,-1,1147,1142,0,0
-70,-118,0,0,0,0,0,0,0,0,0,-1,1154,1142,0,0
-63,-118,0,0,0,0,0,0,0,0,0,-1,1161,1142,0,0
-56,-118,0,0,0,0,0,0,0,0,0,-1,1168,1142,0,0
-49,-118,0,0,0,0,0,0,0,0,0,-1,1175,1142,0,0
-42,-118,0,0,0,0,0,0,0,0,0,-1,1182,1142,0,0
-35,-118,0,0,0,0,0,0,0,0,0,-1,1189,1142,0,0
-28,-118,0,0,0,0,0,0,0,0,0,-1,1196,1142,0,0
-21,-118,0,0,0,0,0,0,0,0,0,-1,1203,1142,0,0
-14,-118,0,0,0,0,0,0,0,0,0,-1,1210,1142,0,0
-7,-118,0,0,0,0,0,0,0,0,0,-1,1217,1142,0,0
0,-118,0,0,0,0,0,0,0,0,0,-1,1224,1142,0,0
7,-118,0,0,0,0,0,0,0,0,0,-1,1231,1142,0,0
14,-118,0,0,0,0,0,0,0,0,0,-1,1238,1142,0,0
21,-118,0,0,0,0,0,0,0,0,0,-1,1245,1142,0,0
28,-118,0,0,0,0,0,0,0,0,0,-1,1252,1142,0,0
35,-118,0,0,0,0,0,0,0,0,0,-1,1259,1142,0,0
42,-118,0,0,0,0,0,0,0,0,0,-1,1266,1142,0,0
49,-118,0,0,0,0,0,0,0,0,0,-1,1273,1142,0,0
56,-118,0,0,0,0,0,0,0,0,0,-1,1280,1142,0,0
63,-118,0,0,0,0,0,0,0,0,0,-1,1287,1142,0,0
70,-118,0,0,0,0,0,0,0,0,0,-1,1294,1142,0,0
77,-118,0,0,0,0,0,0,0,0,0,-1,1301,1142,0,0
84,-118,0,0,0,0,0,0,0,0,0,-1,1308,1142,0,0
91,-118,0,0,0,0,0,0,0,0,0,-1,1315,1142,0,0
98,-118,0,0,0,0,0,0,0,0,0,-1,1322,1142,0,0
105,-118,0,0,0,0,0,0,0,0,0,-1,1329,1142,0,0
112,-118,0,0,0,0,0,0,0,0,0,-1,1336,1142,0,0
119,-118,0,0,0,0,0,0,0,0,0,-1,1343,1142,0,0
126,-118,0,0,0,0,0,0,0,0,0,-1,1350,1142,0,0
133,-118,0,0,0,0,0,0,0,0,0,-1,1357,1142,0,0
140,-118,0,0,0,0,0,0,0,0,0,-1,1364,1142,0,0
147,-118,0,0,0,0,0,0,0,0,0,-1,1371,1142,0,0
154,-118,0,0,0,0,0,0,0,0,0,-1,1378,1142,0,0
161,-118,0,0,0,0,0,0,0,0,0,-1,1385,1142,0,0
168,-118,0,0,0,0,0,0,0,0,0,-1,1392,1142,0,0
175,-118,0,0,0,0,0,0,0,0,0,-1,1399,1142,0,0
182,-118,0,0,0,0,0,0,0,0,0,-1,1406,1142,0,0
189,-118,0,0,0,0,0,0,0,0,0,-1,1413,1142,0,0
196,-118,0,0,0,0,0,0,0,0,0,-1,1420,1142,0,0
203,-118,0,0,0,0,0,0,0,0,0,-1,1427,1142,0,0
210,-118,0,0,0,0,0,0,0,0,0,-1,1434,1142,0,0
217,-118,0,0,0,0,0,0,0,0,0,-1,1441,1142,0,0
224,-118,0,0,0,0,0,0,0,0,0,-1,1448,1142,0,0
231,-118,0,0,0,0,0,0,0,0,0,-1,1455,1142,0,0
238,-118,0,0,0,0,0,0,0,0,0,-1,1462,1142,0,0
245,-118,0,0,0,0,0,0,0,0,0,-1,1469,1142,0,0
252,-118,0,0,0,0,0,0,0,0,0,-1,1476,1142,0,0
259,-118,0,0,0,0,0,0,0,0,0,-1,1483,1142,0,0
266,-118,0,0,0,0,0,0,0,0,0,-1,1490,1142,0,0
273,-118,0,0,0,0,0,0,0,0,0,-1,1497,1142,0,0
280,-118,0,0,0,0,0,0,0,0,0,-1,1504,1142,0,0
287,-118,0,0,0,0,0,0,0,0,0,-1,1511,1142,0,0
294,-118,0,0,0,0,0,0,0,0,0,-1,1518,1142,0,0
301,-118,0,0,0,0,0,0,0,0,0,-1,1525,1142,0,0
308,-118,0,0,0,0,0,0,0,0,0,-1,1532,1142,0,0
315,-118,0,0,0,0,0,0,0,0,0,-1,1539,1142,0,0
322,-118,0,0,0,0,0,0,0,0,0,-1,1546,1142,0,0
329,-118,0,0,0,0,0,0,0,0,0,-1,1553,1142,0,0
336,-118,0,0,0,0,0,0,0,0,0,-1,1560,1142,0,0
343,-118,0,0,0,0,0,0,0,0,0,-1,1567,1142,0,0
350,-118,0,0,0,0,0,0,0,0,0,-1,1574,1142,0,0
357,-118,0,0,0,0,0,0,0,0,0,-1,1581,1142,0,0
364,-118,0,0,0,0,0,0,0,0,0,-1,1588,1142,0,0
371,-118,0,0,0,0,0,0,0,0,0,-1,1595,1142,0,0
378,-118,0,0,0,0,0,0,0,0,0,-1,1602,1142,0,0
385,-118,0,0,0,0,0,0,0,0,0,-1,1609,1142,0,0
392,-118,0,0,0,0,0,0,0,0,0,-1,1616,1142,0,0
399,-118,0,0,0,0,0,0,0,0,0,-1,1623,1142,0,0
406,-118,0,0,0,0,0,0,0,0,0,-1,1630,1142,0,0
413,-118,0,0,0,0,0,0,0,0,0,-1,1637,1142,0,0
420,-118,0,0,0,0,0,0,0,0,0,-1,1644,1142,0,0
427,-118,0,0,0,0,0,0,0,0,0,-1,1651,1142,0,0
434,-118,0,0,0,0,0,0,0,0,0,-1,1658,1142,0,0
441,-118,0,0,0,0,0,0,0,0,0,-1,1665,1142,0,0
448,-118,0,0,0,0,0,0,0,0,0,-1,1672,1142,0,0
455,-118,0,0,0,0,0,0,0,0,0,-1,1679,1142,0,0
462,-118,0,0,0,0,0,0,0,0,0,-1,1686,1142,0,0
469,-118,0,0,0,0,0,0,0,0,0,-1,1693,1142,0,0
476,-118,0,0,0,0,0,0,0,0,0,-1,1700,1142,0,0
483,-118,0,0,0,0,0,0,0,0,0,-1,1707,1142,0,0
490,-118,0,0,0,0,0,0,0,0,0,-1,1714,1142,0,0
497,-118,0,0,0,0,0,0,0,0,0,-1,1721,1142,0,0
504,-118,0,0,0,0,0,0,0,0,0,-1,1728,1142,0,0
511,-118,0,0,0,0,0,0,0,0,0,-1,1735,1142,0,0
518,-118,0,0,0,0,0,0,0,0,0,-1,1742,1142,0,0
525,-118,0,0,0,0,0,0,0,0,0,-1,1749,1142,0,0
532,-118,0,0,0,0,0,0,0,0,0,-1,1756,1142,0,0
539,-118,0,0,0,0,0,0,0,0,0,-1,1763,1142,0,0
546,-118,0,0,0,0,0,0,0,0,0,-1,1770,1142,0,0
553,-118,0,0,0,0,0,0,0,0,0,-1,1777,1142,0,0
560,-118,0,0,0,0,0,0,0,0,0,-1,1784,1142,0,0
567,-118,0,0,0,0,0,0,0,0,0,-1,1791,1142,0,0
574,-118,0,0,0,0,0,0,0,0,0,-1,1798,1142,0,0
581,-118,0,0,0,0,0,0,0,0,0,-1,1805,1142,0,0
588,-118,0,0,0,0,0,0,0,0,0,-1,1812,1142,0,0
595,-118,0,0,0,0,0,0,0,0,0,-1,1819,1142,0,0
602,-118,0,0,0,0,0,0,0,0,0,-1,1826,1142,0,0
609,-118,0,0,0,0,0,0,0,0,0,-1,1833,1142,0,0
616,-118,0,0,0,0,0,0,0,0,0,-1,1840,1142,0,0
623,-118,0,0,0,0,0,0,0,0,0,-1,1847,1142,0,0
630,-118,0,0,0,0,0,0,0,0,0,-1,1854,1142,0,0
637,-118,0,0,0,0,0,0,0,0,0,-1,1861,1142,0,0
644,-118,24.0271,2.68774,0.00445661,0.000878216,0.00286989,0.00604935,-0.00071452,0.50666,0.00429095,0.0397785,1868,1142,24.0271,-2.68771
651,-118,23.8918,2.71777,0.00370444,0.000806591,0.00215584,0.00485302,-0.000341989,0.489523,0.00335516,0.037894,1875,1142,23.8919,-2.71781
658,-118,23.8417,2.83313,0.00331177,0.000786348,0.00140058,0.00393481,0.00016331,0.418558,0.0025705,0.0406573,1882,1142,23.8417,-2.83314
665,-118,24.057,2.88977,0.00221885,0.000344981,0.00120997,0.00281224,-0.000248405,0.455948,0.00196287,0.0428847,1889,1142,24.057,-2.88978
672,-118,24.1243,2.69507,0.000895174,-0.000235839,0.00127195,0.00172167,-0.00106233,0.576222,0.0016223,0.0443476,1896,1142,24.1243,-2.69508
679,-118,23.9912,2.79004,-0.000411702,-0.000799439,0.00151469,0.000921473,-0.00213261,0.721748,0.0018089,0.0398874,1903,1142,23.9912,-2.79003
686,-118,23.9215,2.80579,-0.00151181,-0.00125978,0.00178264,0.000401285,-0.00317288,0.820685,0.00226092,0.034676,1910,1142,23.9215,-2.80584
693,-118,23.9578,2.74866,-0.00223456,-0.00152883,0.0019765,0.000126053,-0.00388944,0.873733,0.00263598,0.0310267,1917,1142,23.9578,-2.74868
700,-118,24.0894,2.75391,-0.00260264,-0.00170184,0.00205641,-4.70786e-05,-0.0042574,0.893207,0.00282271,0.0179096,1924,1142,24.0894,-2.75389
707,-118,24.0732,3.57666,0,0,0,0,0,0,0,-1,1931,1142,24.0733,-3.57671
714,-118,23.321,4.21899,0,0,0,0,0,0,0,-1,1938,1142,23.321,-4.21896
721,-118,22.5688,4.86121,0,0,0,0,0,0,0,-1,1945,1142,22.5688,-4.8612
728,-118,22.6902,4.6134,-0.00373492,-0.00136089,0.00221248,-3.71179e-05,-0.0050587,1.03161,0.00336016,0.015889,1952,1142,22.6902,-4.61339
735,-118,22.6566,4.4967,-0.00316407,-0.000978108,0.0020552,0.000256667,-0.00439884,1.02978,0.00302175,0.0146545,1959,1142,22.6566,-4.4967
742,-118,22.6731,4.39575,-0.00199512,-0.00110776,0.00182578,0.000327478,-0.00343036,0.904593,0.00240351,0.0201971,1966,1142,22.6731,-4.39577
749,-118,22.6433,4.27515,-0.000290939,-0.00167745,0.00133166,0.000517112,-0.0024855,0.545405,0.00185357,0.0193096,1973,1142,22.6433,-4.27516
756,-118,22.6364,4.19873,0.00245347,-0.00237991,0.000524681,0.00250977,-0.00243621,0.106895,0.00285567,0.0159089,1980,1142,22.6363,-4.19875
763,-118,22.6489,4.04968,0.00693228,-0.00376469,-0.000670981,0.00697421,-0.00380661,-0.0624003,0.00631323,0.00956138,1987,1142,22.6489,-4.04968
770,-118,22.6305,3.94702,0.0121526,-0.00618879,-0.00184184,0.0123358,-0.00637191,-0.0991011,0.0109823,0.0119697,1994,1142,22.6305,-3.94703
777,-118,22.579,3.78296,0.018567,-0.00954558,-0.00331472,0.0189526,-0.00993113,-0.115793,0.016945,0.0233288,2001,1142,22.579,-3.78301
784,-118,22.4558,3.94336,0,0,0,0,0,0,0,-1,2008,1142,22.4558,-3.94339
791,-118,22.1338,2.37744,0.0365725,-0.0194712,-0.00826217,0.0377652,-0.0206639,-0.143361,0.0342123,0.0485278,2015,1142,22.1338,-2.37744
798,-118,23.113,4.19275,0.0492658,-0.0263897,-0.0122931,0.0512132,-0.0283371,-0.157105,0.0465571,0.0453743,2022,1142,23.1131,-4.19269
805,-118,21.3228,1.38977,0,0,0,0,0,0,0,-1,2029,1142,21.3227,-1.38978
812,-118,20.6318,0.646729,0,0,0,0,0,0,0,-1,2036,1142,20.6319,-0.646703
-700,-125,0,0,0,0,0,0,0,0,0,-1,524,1149,0,0
-693,-125,-15.3538,5.67175,0,0,0,0,0,0,0,-1,531,1149,-15.3537,-5.67176
-686,-125,-15.3348,5.02783,0,0,0,0,0,0,0,-1,538,1149,-15.3348,-5.02784
-679,-125,-15.3284,4.41797,0.0695429,0.024946,-0.0108234,0.0720309,0.022458,-0.225944,0.0425579,0.0449918,545,1149,-15.3284,-4.41793
-672,-125,-15.3347,3.81641,0.0530739,0.0164517,-0.0120171,0.056665,0.0128605,-0.290387,0.0343031,0.0443834,552,1149,-15.3347,-3.81636
-665,-125,-15.3483,3.22119,0.0396741,0.0103903,-0.0118342,0.0438586,0.00620583,-0.339874,0.0274057,0.0415795,559,1149,-15.3483,-3.22114
-658,-125,-15.3058,2.59302,0.0288213,0.00616358,-0.0108533,0.0331812,0.0018037,-0.381981,0.0215447,0.0414073,566,1149,-15.3059,-2.59301
-651,-125,-15.0122,2.03552,0.0201598,0.00333016,-0.00943123,0.0243845,-0.000894529,-0.421145,0.0165626,0.0378448,573,1149,-15.0122,-2.03553
-644,-125,-14.8611,1.38953,0,0,0,0,0,0,0,-1,580,1149,-14.8611,-1.38948
-637,-125,-14.8934,1.41003,0.00809129,0.000261959,-0.00651068,0.0117736,-0.00342032,-0.514722,0.0092035,0.0129748,587,1149,-14.8934,-1.40999
-630,-125,-14.9001,1.56458,0.00319973,-0.00093196,-0.00578359,0.00727535,-0.00500758,-0.613865,0.00713173,0.0142175,594,1149,-14.9001,-1.56454
-623,-125,-14.8987,1.73389,-4.55662e-05,-0.00197929,-0.00498036,0.00406091,-0.00608577,-0.689523,0.00589694,0.0130588,601,1149,-14.8987,-1.73386
-616,-125,-14.884,1.88611,-0.00169335,-0.00234442,-0.00447912,0.00247205,-0.00650982,-0.749123,0.0053575,0.0122514,608,1149,-14.884,-1.8861
-609,-125,-14.9483,1.99097,-0.0023074,-0.00205019,-0.00418338,0.00200656,-0.00636415,-0.800765,0.00504639,0.0171162,615,1149,-14.9483,-1.99091
-602,-125,-14.9901,2.18481,-0.00275753,-0.00204459,-0.004398,0.00201137,-0.00681349,-0.825836,0.00534056,0.0166217,622,1149,-14.99,-2.18486
-595,-125,-14.972,2.34448,-0.00325704,-0.002318,-0.00459206,0.00182849,-0.00740352,-0.836344,0.00564477,0.015373,629,1149,-14.972,-2.34452
-588,-125,-14.7938,2.51868,-0.00358289,-0.00259951,-0.00458218,0.00151728,-0.00769968,-0.838846,0.00570652,0.0210428,636,1149,-14.7938,-2.51871
-581,-125,-14.6337,2.69507,0,0,0,0,0,0,0,-1,643,1149,-14.6337,-2.69501
-574,-125,-16.3448,0.731567,0,0,0,0,0,0,0,-1,650,1149,-16.3448,-0.731569
-567,-125,-16.4046,0.888672,-0.00350659,-0.00282021,-0.00413421,0.00098503,-0.00731182,-0.826809,0.00523388,0.0376635,657,1149,-16.4046,-0.888675
-560,-125,-16.4424,1.01416,-0.00326453,-0.00261775,-0.00358866,0.000662056,-0.00654434,-0.830334,0.00459949,0.0370097,664,1149,-16.4424,-1.01417
-553,-125,-16.444,0.904175,-0.00285158,-0.00228149,-0.00280424,0.000252153,-0.00538523,-0.836048,0.00367709,0.0387504,671,1149,-16.4441,-0.904199
-546,-125,-16.4869,0.632324,-0.00230496,-0.00187123,-0.0017773,-0.00029761,-0.00387858,-0.846108,0.00249244,0.0385279,678,1149,-16.4869,-0.632296
-539,-125,-16.3776,0.865967,-0.00155944,-0.00147463,-0.000496809,-0.00101842,-0.00201565,-0.827977,0.00116376,0.0429001,685,1149,-16.3777,-0.865938
-532,-125,-16.5193,0.93457,-0.000705091,-0.00128086,0.000683418,-0.000251396,-0.00173455,0.586057,0.00108234,0.04043,692,1149,-16.5193,-0.934546
-525,-125,-16.5461,1.00159,-0.00153114,-0.00202962,4.75439e-05,-0.00152664,-0.00203412,0.0942445,0.00122255,0.0378264,699,1149,-16.5462,-1.00159
-518,-125,0,0,0,0,0,0,0,0,0,-1,706,1149,0,0
-511,-125,0,0,0,0,0,0,0,0,0,-1,713,1149,0,0
-504,-125,0,0,0,0,0,0,0,0,0,-1,720,1149,0,0
-497,-125,0,0,0,0,0,0,0,0,0,-1,727,1149,0,0
-490,-125,0,0,0,0,0,0,0,0,0,-1,734,1149,0,0
-483,-125,0,0,0,0,0,0,0,0,0,-1,741,1149,0,0
-476,-125,0,0,0,0,0,0,0,0,0,-1,748,1149,0,0
-469,-125,0,0,0,0,0,0,0,0,0,-1,755,1149,0,0
-462,-125,0,0,0,0,0,0,0,0,0,-1,762,1149,0,0
-455,-125,0,0,0,0,0,0,0,0,0,-1,769,1149,0,0
-448,-125,0,0,0,0,0,0,0,0,0,-1,776,1149,0,0
-441,-125,0,0,0,0,0,0,0,0,0,-1,783,1149,0,0
-434,-125,0,0,0,0,0,0,0,0,0,-1,790,1149,0,0
-427,-125,0,0,0,0,0,0,0,0,0,-1,797,1149,0,0
-420,-125,0,0,0,0,0,0,0,0,0,-1,804,1149,0,0
-413,-125,0,0,0,0,0,0,0,0,0,-1,811,1149,0,0
-406,-125,0,0,0,0,0,0,0,0,0,-1,818,1149,0,0
-399,-125,0,0,0,0,0,0,0,0,0,-1,825,1149,0,0
-392,-125,0,0,0,0,0,0,0,0,0,-1,832,1149,0,0
-385,-125,0,0,0,0,0,0,0,0,0,-1,839,1149,0,0
-378,-125,0,0,0,0,0,0,0,0,0,-1,846,1149,0,0
-371,-125,0,0,0,0,0,0,0,0,0,-1,853,1149,0,0
-364,-125,0,0,0,0,0,0,0,0,0,-1,860,1149,0,0
-357,-125,0,0,0,0,0,0,0,0,0,-1,867,1149,0,0
-350,-125,0,0,0,0,0,0,0,0,0,-1,874,1149,0,0
-343,-125,0,0,0,0,0,0,0,0,0,-1,881,1149,0,0
-336,-125,0,0,0,0,0,0,0,0,0,-1,888,1149,0,0
-329,-125,0,0,0,0,0,0,0,0,0,-1,895,1149,0,0
-322,-125,0,0,0,0,0,0,0,0,0,-1,902,1149,0,0
-315,-125,0,0,0,0,0,0,0,0,0,-1,909,1149,0,0
-308,-125,0,0,0,0,0,0,0,0,0,-1,916,1149,0,0
-301,-125,0,0,0,0,0,0,0,0,0,-1,923,1149,0,0
-294,-125,0,0,0,0,0,0,0,0,0,-1,930,1149,0,0
-287,-125,0,0,0,0,0,0,0,0,0,-1,937,1149,0,0
-280,-125,0,0,0,0,0,0,0,0,0,-1,944,1149,0,0
-273,-125,0,0,0,0,0,0,0,0,0,-1,951,1149,0,0
-266,-125,0,0,0,0,0,0,0,0,0,-1,958,1149,0,0
-259,-125,0,0,0,0,0,0,0,0,0,-1,965,1149,0,0
-252,-125,0,0,0,0,0,0,0,0,0,-1,972,1149,0,0
-245,-125,0,0,0,0,0,0,0,0,0,-1,979,1149,0,0
-238,-125,0,0,0,0,0,0,0,0,0,-1,986,1149,0,0
-231,-125,0,0,0,0,0,0,0,0,0,-1,993,1149,0,0
-224,-125,0,0,0,0,0,0,0,0,0,-1,1000,1149,0,0
-217,-125,0,0,0,0,0,0,0,0,0,-1,1007,1149,0,0
-210,-125,0,0,0,0,0,0,0,0,0,-1,1014,1149,0,0
-203,-125,0,0,0,0,0,0,0,0,0,-1,1021,1149,0,0
-196,-125,0,0,0,0,0,0,0,0,0,-1,1028,1149,0,0
-189,-125,0,0,0,0,0,0,0,0,0,-1,1035,1149,0,0
-182,-125,0,0,0,0,0,0,0,0,0,-1,1042,1149,0,0
-175,-125,0,0,0,0,0,0,0,0,0,-1,1049,1149,0,0
-168,-125,0,0,0,0,0,0,0,0,0,-1,1056,1149,0,0
-161,-125,0,0,0,0,0,0,0,0,0,-1,1063,1149,0,0
-154,-125,0,0,0,0,0,0,0,0,0,-1,1070,1149,0,0
-147,-125,0,0,0,0,0,0,0,0,0,-1,1077,1149,0,0
-140,-125,0,0,0,0,0,0,0,0,0,-1,1084,1149,0,0
-133,-125,0,0,0,0,0,0,0,0,0,-1,1091,1149,0,0
-126,-125,0,0,0,0,0,0,0,0,0,-1,1098,1149,0,0
-119,-125,0,0,0,0,0,0,0,0,0,-1,1105,1149,0,0
-112,-125,0,0,0,0,0,0,0,0,0,-1,1112,1149,0,0
-105,-125,0,0,0,0,0,0,0,0,0,-1,1119,1149,0,0
-98,-125,0,0,0,0,0,0,0,0,0,-1,1126,1149,0,0
-91,-125,0,0,0,0,0,0,0,0,0,-1,1133,1149,0,0
-84,-125,0,0,0,0,0,0,0,0,0,-1,1140,1149,0,0
-77,-125,0,0,0,0,0,0,0,0,0,-1,1147,1149,0,0
-70,-125,0,0,0,0,0,0,0,0,0,-1,1154,1149,0,0
-63,-125,0,0,0,0,0,0,0,0,0,-1,1161,1149,0,0
-56,-125,0,0,0,0,0,0,0,0,0,-1,1168,1149,0,0
-49,-125,0,0,0,0,0,0,0,0,0,-1,1175,1149,0,0
-42,-125,0,0,0,0,0,0,0,0,0,-1,1182,1149,0,0
-35,-125,0,0,0,0,0,0,0,0,0,-1,1189,1149,0,0
-28,-125,0,0,0,0,0,0,0,0,0,-1,1196,1149,0,0
-21,-125,0,0,0,0,0,0,0,0,0,-1,1203,1149,0,0
-14,-125,0,0,0,0,0,0,0,0,0,-1,1210,1149,0,0
-7,-125,0,0,0,0,0,0,0,0,0,-1,1217,1149,0,0
0,-125,0,0,0,0,0,0,0,0,0,-1,1224,1149,0,0
7,-125,0,0,0,0,0,0,0,0,0,-1,1231,1149,0,0
14,-125,0,0,0,0,0,0,0,0,0,-1,1238,1149,0,0
21,-125,0,0,0,0,0,0,0,0,0,-1,1245,1149,0,0
28,-125,0,0,0,0,0,0,0,0,0,-1,1252,1149,0,0
35,-125,0,0,0,0,0,0,0,0,0,-1,1259,1149,0,0
42,-125,0,0,0,0,0,0,0,0,0,-1,1266,1149,0,0
49,-125,0,0,0,0,0,0,0,0,0,-1,1273,1149,0,0
56,-125,0,0,0,0,0,0,0,0,0,-1,1280,1149,0,0
63,-125,0,0,0,0,0,0,0,0,0,-1,1287,1149,0,0
70,-125,0,0,0,0,0,0,0,0,0,-1,1294,1149,0,0
77,-125,0,0,0,0,0,0,0,0,0,-1,1301,1149,0,0
84,-125,0,0,0,0,0,0,0,0,0,-1,1308,1149,0,0
91,-125,0,0,0,0,0,0,0,0,0,-1,1315,1149,0,0
98,-125,0,0,0,0,0,0,0,0,0,-1,1322,1149,0,0
105,-125,0,0,0,0,0,0,0,0,0,-1,1329,1149,0,0
112,-125,0,0,0,0,0,0,0,0,0,-1,1336,1149,0,0
119,-125,0,0,0,0,0,0,0,0,0,-1,1343,1149,0,0
126,-125,0,0,0,0,0,0,0,0,0,-1,1350,1149,0,0
133,-125,0,0,0,0,0,0,0,0,0,-1,1357,1149,0,0
140,-125,0,0,0,0,0,0,0,0,0,-1,1364,1149,0,0
147,-125,0,0,0,0,0,0,0,0,0,-1,1371,1149,0,0
154,-125,0,0,0,0,0,0,0,0,0,-1,1378,1149,0,0
161,-125,0,0,0,0,0,0,0,0,0,-1,1385,1149,0,0
168,-125,0,0,0,0,0,0,0,0,0,-1,1392,1149,0,0
175,-125,0,0,0,0,0,0,0,0,0,-1,1399,1149,0,0
182,-125,0,0,0,0,0,0,0,0,0,-1,1406,1149,0,0
189,-125,0,0,0,0,0,0,0,0,0,-1,1413,1149,0,0
196,-125,0,0,0,0,0,0,0,0,0,-1,1420,1149,0,0
203,-125,0,0,0,0,0,0,0,0,0,-1,1427,1149,0,0
210,-125,0,0,0,0,0,0,0,0,0,-1,1434,1149,0,0
217,-125,0,0,0,0,0,0,0,0,0,-1,1441,1149,0,0
224,-125,0,0,0,0,0,0,0,0,0,-1,1448,1149,0,0
231,-125,0,0,0,0,0,0,0,0,0,-1,1455,1149,0,0
238,-125,0,0,0,0,0,0,0,0,0,-1,1462,1149,0,0
245,-125,0,0,0,0,0,0,0,0,0,-1,1469,1149,0,0
252,-125,0,0,0,0,0,0,0,0,0,-1,1476,1149,0,0
259,-125,0,0,0,0,0,0,0,0,0,-1,1483,1149,0,0
266,-125,0,0,0,0,0,0,0,0,0,-1,1490,1149,0,0
273,-125,0,0,0,0,0,0,0,0,0,-1,1497,1149,0,0
280,-125,0,0,0,0,0,0,0,0,0,-1,1504,1149,0,0
287,-125,0,0,0,0,0,0,0,0,0,-1,1511,1149,0,0
294,-125,0,0,0,0,0,0,0,0,0,-1,1518,1149,0,0
301,-125,0,0,0,0,0,0,0,0,0,-1,1525,1149,0,0
308,-125,0,0,0,0,0,0,0,0,0,-1,1532,1149,0,0
315,-125,0,0,0,0,0,0,0,0,0,-1,1539,1149,0,0
322,-125,0,0,0,0,0,0,0,0,0,-1,1546,1149,0,0
329,-125,0,0,0,0,0,0,0,0,0,-1,1553,1149,0,0
336,-125,0,0,0,0,0,0,0,0,0,-1,1560,1149,0,0
343,-125,0,0,0,0,0,0,0,0,0,-1,1567,1149,0,0
350,-125,0,0,0,0,0,0,0,0,0,-1,1574,1149,0,0
357,-125,0,0,0,0,0,0,0,0,0,-1,1581,1149,0,0
364,-125,0,0,0,0,0,0,0,0,0,-1,1588,1149,0,0
371,-125,0,0,0,0,0,0,0,0,0,-1,1595,1149,0,0
378,-125,0,0,0,0,0,0,0,0,0,-1,1602,1149,0,0
385,-125,0,0,0,0,0,0,0,0,0,-1,1609,1149,0,0
392,-125,0,0,0,0,0,0,0,0,0,-1,1616,1149,0,0
399,-125,0,0,0,0,0,0,0,0,0,-1,1623,1149,0,0
406,-125,0,0,0,0,0,0,0,0,0,-1,1630,1149,0,0
413,-125,0,0,0,0,0,0,0,0,0,-1,1637,1149,0,0
420,-125,0,0,0,0,0,0,0,0,0,-1,1644,1149,0,0
427,-125,0,0,0,0,0,0,0,0,0,-1,1651,1149,0,0
434,-125,0,0,0,0,0,0,0,0,0,-1,1658,1149,0,0
441,-125,0,0,0,0,0,0,0,0,0,-1,1665,1149,0,0
448,-125,0,0,0,0,0,0,0,0,0,-1,1672,1149,0,0
455,-125,0,0,0,0,0,0,0,0,0,-1,1679,1149,0,0
462,-125,0,0,0,0,0,0,0,0,0,-1,1686,1149,0,0
469,-125,0,0,0,0,0,0,0,0,0,-1,1693,1149,0,0
476,-125,0,0,0,0,0,0,0,0,0,-1,1700,1149,0,0
483,-125,0,0,0,0,0,0,0,0,0,-1,1707,1149,0,0
490,-125,0,0,0,0,0,0,0,0,0,-1,1714,1149,0,0
497,-125,0,0,0,0,0,0,0,0,0,-1,1721,1149,0,0
504,-125,0,0,0,0,0,0,0,0,0,-1,1728,1149,0,0
511,-125,0,0,0,0,0,0,0,0,0,-1,1735,1149,0,0
518,-125,0,0,0,0,0,0,0,0,0,-1,1742,1149,0,0
525,-125,0,0,0,0,0,0,0,0,0,-1,1749,1149,0,0
532,-125,0,0,0,0,0,0,0,0,0,-1,1756,1149,0,0
539,-125,0,0,0,0,0,0,0,0,0,-1,1763,1149,0,0
546,-125,0,0,0,0,0,0,0,0,0,-1,1770,1149,0,0
553,-125,0,0,0,0,0,0,0,0,0,-1,1777,1149,0,0
560,-125,0,0,0,0,0,0,0,0,0,-1,1784,1149,0,0
567,-125,0,0,0,0,0,0,0,0,0,-1,1791,1149,0,0
574,-125,0,0,0,0,0,0,0,0,0,-1,1798,1149,0,0
581,-125,0,0,0,0,0,0,0,0,0,-1,1805,1149,0,0
588,-125,0,0,0,0,0,0,0,0,0,-1,1812,1149,0,0
595,-125,0,0,0,0,0,0,0,0,0,-1,1819,1149,0,0
602,-125,0,0,0,0,0,0,0,0,0,-1,1826,1149,0,0
609,-125,0,0,0,0,0,0,0,0,0,-1,1833,1149,0,0
616,-125,0,0,0,0,0,0,0,0,0,-1,1840,1149,0,0
623,-125,0,0,0,0,0,0,0,0,0,-1,1847,1149,0,0
630,-125,0,0,0,0,0,0,0,0,0,-1,1854,1149,0,0
637,-125,0,0,0,0,0,0,0,0,0,-1,1861,1149,0,0
644,-125,23.7953,2.74744,0.0039125,0.000948257,0.00235686,0.00521453,-0.000353769,0.504715,0.00360008,0.0410044,1868,1149,23.7953,-2.74748
651,-125,23.6096,2.7627,0.00328457,0.000829501,0.00182737,0.00425843,-0.000144354,0.489641,0.00288827,0.0368999,1875,1149,23.6096,-2.76268
658,-125,23.6862,2.86023,0.00293626,0.000775316,0.00122579,0.00348979,0.000221783,0.424162,0.00225624,0.0420354,1882,1149,23.6861,-2.86019
665,-125,24.1405,2.68127,0.00185466,0.000285452,0.00116317,0.00247312,-0.000333001,0.488681,0.00177022,0.046934,1889,1149,24.1405,-2.68122
672,-125,24.0001,2.78772,0.000550055,-0.00031808,0.00129211,0.00147905,-0.00124708,0.623352,0.00157583,0.0442467,1896,1149,24.0001,-2.78771
679,-125,24.0273,2.78796,-0.000725776,-0.000875748,0.00155187,0.000752917,-0.00235444,0.761257,0.00187178,0.038594,1903,1149,24.0274,-2.78797
686,-125,23.9875,2.79797,-0.00181114,-0.00132197,0.00181125,0.000261134,-0.00339424,0.852512,0.00235471,0.0360541,1910,1149,23.9875,-2.79802
693,-125,23.9725,2.73889,-0.00253043,-0.00157325,0.00199261,-2.55648e-06,-0.00410112,0.903258,0.00273323,0.029764,1917,1149,23.9726,-2.73883
700,-125,24.0752,2.7666,-0.00287152,-0.00173742,0.00206217,-0.000165757,-0.00444319,0.919571,0.00290845,0.0128955,1924,1149,24.0752,-2.76657
707,-125,23.8547,3.99524,0,0,0,0,0,0,0,-1,1931,1149,23.8548,-3.99525
714,-125,23.0966,4.43457,0,0,0,0,0,0,0,-1,1938,1149,23.0965,-4.43458
721,-125,22.3383,4.8739,0,0,0,0,0,0,0,-1,1945,1149,22.3383,-4.87391
728,-125,22.5309,4.64685,-0.00382762,-0.00130652,0.00214372,-8.01967e-05,-0.00505395,1.05118,0.00334289,0.0154152,1952,1149,22.5309,-4.6469
735,-125,22.5233,4.5332,-0.00310775,-0.000923412,0.00204012,0.000298495,-0.00432965,1.03116,0.0029909,0.017227,1959,1149,22.5234,-4.5332
742,-125,22.533,4.41479,-0.00173054,-0.00110383,0.00193191,0.000539973,-0.00337434,0.865798,0.00244947,0.0223574,1966,1149,22.5329,-4.41476
749,-125,22.5176,4.29358,0.000273713,-0.00170607,0.00158568,0.00115312,-0.00258547,0.506362,0.00221065,0.0260273,1973,1149,22.5176,-4.29354
756,-125,22.5137,4.17786,0.0034638,-0.00251421,0.00105385,0.00364414,-0.00269455,0.169484,0.00367331,0.0206093,1980,1149,22.5137,-4.1779
763,-125,22.5096,4.04565,0.0083356,-0.00398768,0.000386701,0.00834772,-0.00399981,0.0313386,0.00727468,0.0120501,1987,1149,22.5096,-4.04561
770,-125,22.4993,3.89307,0.0139292,-0.00654286,-0.00013481,0.0139301,-0.00654375,-0.00658467,0.0120743,0.0131675,1994,1149,22.4992,-3.89302
777,-125,22.4587,3.76599,0.0206734,-0.0100468,-0.000830531,0.0206958,-0.0100692,-0.027009,0.018112,0.0233836,2001,1149,22.4588,-3.76603
784,-125,22.3042,3.92224,0.0289307,-0.014606,-0.0019545,0.0290182,-0.0146936,-0.044773,0.0256848,0.045599,2008,1149,22.3042,-3.9222
791,-125,22.8926,4.72961,0.0391655,-0.0205184,-0.00366395,0.0393896,-0.0207425,-0.0610835,0.0352693,0.0469224,2015,1149,22.8926,-4.72964
798,-125,23.1649,4.34399,0.0518031,-0.0278803,-0.00627784,0.0522946,-0.0283719,-0.0781423,0.0472506,0.0456017,2022,1149,23.1649,-4.34403
805,-125,23.5566,3.95947,0.0671064,-0.0367597,-0.0101795,0.0680947,-0.0377479,-0.0967787,0.0619399,0.0486931,2029,1149,23.5567,-3.9595
812,-125,24.0825,3.47314,0,0,0,0,0,0,0,-1,2036,1149,24.0825,-3.47314
-700,-132,0,0,0,0,0,0,0,0,0,-1,524,1156,0,0
-693,-132,-14.8261,-0.44751,0,0,0,0,0,0,0,-1,531,1156,-14.8261,0.447519
-686,-132,-15.0218,5.2998,0,0,0,0,0,0,0,-1,538,1156,-15.0218,-5.29985
-679,-132,-15.0538,4.64233,0,0,0,0,0,0,0,-1,545,1156,-15.0538,-4.64236
-672,-132,-15.0983,4.0072,0.0371151,0.015759,-0.0109512,0.0417325,0.0111416,-0.399013,0.0249512,0.0443775,552,1156,-15.0982,-4.00716
-665,-132,-15.1376,3.60181,0.0268828,0.00953094,-0.0113647,0.0325047,0.00390899,-0.459385,0.0204915,0.0434967,559,1156,-15.1376,-3.60175
-658,-132,-15.3334,3.04456,0.0188382,0.00533743,-0.0107646,0.0247939,-0.000618246,-0.505347,0.0167391,0.0425984,566,1156,-15.3334,-3.04457
-651,-132,-14.8424,2.10449,0,0,0,0,0,0,0,-1,573,1156,-14.8424,-2.10448
-644,-132,-14.7382,1.23474,0.00794271,0.00103352,-0.00804642,0.0132448,-0.00426854,-0.582631,0.0105447,0.0217543,580,1156,-14.7382,-1.23474
-637,-132,-14.7238,1.40137,0.00418994,-3.07655e-05,-0.00668284,0.00908772,-0.00492855,-0.63246,0.0082102,0.0115973,587,1156,-14.7238,-1.40131
-630,-132,-14.7214,1.56946,0.000924415,-0.00104837,-0.0058505,0.0058711,-0.00599505,-0.701884,0.00685105,0.0105025,594,1156,-14.7214,-1.56941
-623,-132,-14.7291,1.75525,-0.00124877,-0.00199339,-0.0050287,0.00342138,-0.00666354,-0.748447,0.00592198,0.0159547,601,1156,-14.7291,-1.75529
-616,-132,-14.7056,1.88306,-0.00240241,-0.00227856,-0.00442374,0.00208369,-0.00676465,-0.792397,0.00534156,0.0185934,608,1156,-14.7056,-1.88303
-609,-132,-14.6728,2.01135,-0.00273182,-0.00204657,-0.0040021,0.00162755,-0.00640594,-0.8281,0.00490401,0.0152111,615,1156,-14.6728,-2.01132
-602,-132,-14.7722,2.15088,-0.00301302,-0.00217376,-0.00411478,0.00154273,-0.0067295,-0.836213,0.00507928,0.0146461,622,1156,-14.7721,-2.15094
-595,-132,-14.7893,2.34448,-0.00347417,-0.00257875,-0.00426066,0.00125765,-0.00731058,-0.837746,0.00534251,0.0174911,629,1156,-14.7893,-2.34442
-588,-132,-14.6833,2.56177,-0.00385134,-0.00291479,-0.00424399,0.000886681,-0.00765281,-0.840345,0.00542165,0.0178956,636,1156,-14.6833,-2.56177
-581,-132,-15.2433,2.33728,-0.00399787,-0.00316905,-0.00418499,0.000621999,-0.00778892,-0.834749,0.00541187,0.0475854,643,1156,-15.2434,-2.33729
-574,-132,-16.2488,0.626465,0,0,0,0,0,0,0,-1,650,1156,-16.2488,-0.626459
-567,-132,-16.3691,0.788696,-0.00377591,-0.00336586,-0.00394818,0.000382616,-0.00752439,-0.81134,0.00514854,0.0377832,657,1156,-16.3691,-0.788686
-560,-132,-16.4795,0.931274,-0.00353275,-0.00324727,-0.00351477,0.000127652,-0.00690767,-0.805693,0.00464825,0.0364137,664,1156,-16.4795,-0.931229
-553,-132,-16.5302,0.934814,-0.00307695,-0.00299777,-0.00288714,-0.000149953,-0.00592477,-0.792254,0.00390082,0.038052,671,1156,-16.5301,-0.934775
-546,-132,-16.5563,0.790771,-0.00243886,-0.00267931,-0.00206855,-0.000487039,-0.00463113,-0.756371,0.00293856,0.0398554,678,1156,-16.5563,-0.79075
-539,-132,-16.4808,0.819458,-0.00159398,-0.00238203,-0.00106218,-0.000855101,-0.00312092,-0.607786,0.00186221,0.0444041,685,1156,-16.4809,-0.819439
-532,-132,-16.4282,0.917114,-0.000497657,-0.00228315,-0.00011689,-0.000490037,-0.00229077,-0.0650964,0.00139287,0.0433114,692,1156,-16.4282,-0.91713
-525,-132,-16.4683,0.90979,-0.000823485,-0.00311819,-0.000795672,-0.000574588,-0.00336709,-0.30317,0.00207982,0.0402491,699,1156,-16.4683,-0.909744
-518,-132,0,0,0,0,0,0,0,0,0,-1,706,1156,0,0
-511,-132,0,0,0,0,0,0,0,0,0,-1,713,1156,0,0
-504,-132,0,0,0,0,0,0,0,0,0,-1,720,1156,0,0
-497,-132,0,0,0,0,0,0,0,0,0,-1,727,1156,0,0
-490,-132,0,0,0,0,0,0,0,0,0,-1,734,1156,0,0
-483,-132,0,0,0,0,0,0,0,0,0,-1,741,1156,0,0
-476,-132,0,0,0,0,0,0,0,0,0,-1,748,1156,0,0
-469,-132,0,0,0,0,0,0,0,0,0,-1,755,1156,0,0
-462,-132,0,0,0,0,0,0,0,0,0,-1,762,1156,0,0
-455,-132,0,0,0,0,0,0,0,0,0,-1,769,1156,0,0
-448,-132,0,0,0,0,0,0,0,0,0,-1,776,1156,0,0
-441,-132,0,0,0,0,0,0,0,0,0,-1,783,1156,0,0
-434,-132,0,0,0,0,0,0,0,0,0,-1,790,1156,0,0
-427,-132,0,0,0,0,0,0,0,0,0,-1,797,1156,0,0
-420,-132,0,0,0,0,0,0,0,0,0,-1,804,1156,0,0
-413,-132,0,0,0,0,0,0,0,0,0,-1,811,1156,0,0
-406,-132,0,0,0,0,0,0,0,0,0,-1,818,1156,0,0
-399,-132,0,0,0,0,0,0,0,0,0,-1,825,1156,0,0
-392,-132,0,0,0,0,0,0,0,0,0,-1,832,1156,0,0
-385,-132,0,0,0,0,0,0,0,0,0,-1,839,1156,0,0
-378,-132,0,0,0,0,0,0,0,0,0,-1,846,1156,0,0
-371,-132,0,0,0,0,0,0,0,0,0,-1,853,1156,0,0
-364,-132,0,0,0,0,0,0,0,0,0,-1,860,1156,0,0
-357,-132,0,0,0,0,0,0,0,0,0,-1,867,1156,0,0
-350,-132,0,0,0,0,0,0,0,0,0,-1,874,1156,0,0
-343,-132,0,0,0,0,0,0,0,0,0,-1,881,1156,0,0
-336,-132,0,0,0,0,0,0,0,0,0,-1,888,1156,0,0
-329,-132,0,0,0,0,0,0,0,0,0,-1,895,1156,0,0
-322,-132,0,0,0,0,0,0,0,0,0,-1,902,1156,0,0
-315,-132,0,0,0,0,0,0,0,0,0,-1,909,1156,0,0
-308,-132,0,0,0,0,0,0,0,0,0,-1,916,1156,0,0
-301,-132,0,0,0,0,0,0,0,0,0,-1,923,1156,0,0
-294,-132,0,0,0,0,0,0,0,0,0,-1,930,1156,0,0
-287,-132,0,0,0,0,0,0,0,0,0,-1,937,1156,0,0
-280,-132,0,0,0,0,0,0,0,0,0,-1,944,1156,0,0
-273,-132,0,0,0,0,0,0,0,0,0,-1,951,1156,0,0
-266,-132,0,0,0,0,0,0,0,0,0,-1,958,1156,0,0
-259,-132,0,0,0,0,0,0,0,0,0,-1,965,1156,0,0
-252,-132,0,0,0,0,0,0,0,0,0,-1,972,1156,0,0
-245,-132,0,0,0,0,0,0,0,0,0,-1,979,1156,0,0
-238,-132,0,0,0,0,0,0,0,0,0,-1,986,1156,0,0
-231,-132,0,0,0,0,0,0,0,0,0,-1,993,1156,0,0
-224,-132,0,0,0,0,0,0,0,0,0,-1,1000,1156,0,0
-217,-132,0,0,0,0,0,0,0,0,0,-1,1007,1156,0,0
-210,-132,0,0,0,0,0,0,0,0,0,-1,1014,1156,0,0
-203,-132,0,0,0,0,0,0,0,0,0,-1,1021,1156,0,0
-196,-132,0,0,0,0,0,0,0,0,0,-1,1028,1156,0,0
-189,-132,0,0,0,0,0,0,0,0,0,-1,1035,1156,0,0
-182,-132,0,0,0,0,0,0,0,0,0,-1,1042,1156,0,0
-175,-132,0,0,0,0,0,0,0,0,0,-1,1049,1156,0,0
-168,-132,0,0,0,0,0,0,0,0,0,-1,1056,1156,0,0
-161,-132,0,0,0,0,0,0,0,0,0,-1,1063,1156,0,0
-154,-132,0,0,0,0,0,0,0,0,0,-1,1070,1156,0,0
-147,-132,0,0,0,0,0,0,0,0,0,-1,1077,1156,0,0
-140,-132,0,0,0,0,0,0,0,0,0,-1,1084,1156,0,0
-133,-132,0,0,0,0,0,0,0,0,0,-1,1091,1156,0,0
-126,-132,0,0,0,0,0,0,0,0,0,-1,1098,1156,0,0
-119,-132,0,0,0,0,0,0,0,0,0,-1,1105,1156,0,0
-112,-132,0,0,0,0,0,0,0,0,0,-1,1112,1156,0,0
-105,-132,0,0,0,0,0,0,0,0,0,-1,1119,1156,0,0
-98,-132,0,0,0,0,0,0,0,0,0,-1,1126,1156,0,0
-91,-132,0,0,0,0,0,0,0,0,0,-1,1133,1156,0,0
-84,-132,0,0,0,0,0,0,0,0,0,-1,1140,1156,0,0
-77,-132,0,0,0,0,0,0,0,0,0,-1,1147,1156,0,0
-70,-132,0,0,0,0,0,0,0,0,0,-1,1154,1156,0,0
-63,-132,0,0,0,0,0,0,0,0,0,-1,1161,1156,0,0
-56,-132,0,0,0,0,0,0,0,0,0,-1,1168,1156,0,0
-49,-132,0,0,0,0,0,0,0,0,0,-1,1175,1156,0,0
-42,-132,0,0,0,0,0,0,0,0,0,-1,1182,1156,0,0
-35,-132,0,0,0,0,0,0,0,0,0,-1,1189,1156,0,0
-28,-132,0,0,0,0,0,0,0,0,0,-1,1196,1156,0,0
-21,-132,0,0,0,0,0,0,0,0,0,-1,1203,1156,0,0
-14,-132,0,0,0,0,0,0,0,0,0,-1,1210,1156,0,0
-7,-132,0,0,0,0,0,0,0,0,0,-1,1217,1156,0,0
0,-132,0,0,0,0,0,0,0,0,0,-1,1224,1156,0,0
7,-132,0,0,0,0,0,0,0,0,0,-1,1231,1156,0,0
14,-132,0,0,0,0,0,0,0,0,0,-1,1238,1156,0,0
21,-132,0,0,0,0,0,0,0,0,0,-1,1245,1156,0,0
28,-132,0,0,0,0,0,0,0,0,0,-1,1252,1156,0,0
35,-132,0,0,0,0,0,0,0,0,0,-1,1259,1156,0,0
42,-132,0,0,0,0,0,0,0,0,0,-1,1266,1156,0,0
49,-132,0,0,0,0,0,0,0,0,0,-1,1273,1156,0,0
56,-132,0,0,0,0,0,0,0,0,0,-1,1280,1156,0,0
63,-132,0,0,0,0,0,0,0,0,0,-1,1287,1156,0,0
70,-132,0,0,0,0,0,0,0,0,0,-1,1294,1156,0,0
77,-132,0,0,0,0,0,0,0,0,0,-1,1301,1156,0,0
84,-132,0,0,0,0,0,0,0,0,0,-1,1308,1156,0,0
91,-132,0,0,0,0,0,0,0,0,0,-1,1315,1156,0,0
98,-132,0,0,0,0,0,0,0,0,0,-1,1322,1156,0,0
105,-132,0,0,0,0,0,0,0,0,0,-1,1329,1156,0,0
112,-132,0,0,0,0,0,0,0,0,0,-1,1336,1156,0,0
119,-132,0,0,0,0,0,0,0,0,0,-1,1343,1156,0,0
126,-132,0,0,0,0,0,0,0,0,0,-1,1350,1156,0,0
133,-132,0,0,0,0,0,0,0,0,0,-1,1357,1156,0,0
140,-132,0,0,0,0,0,0,0,0,0,-1,1364,1156,0,0
147,-132,0,0,0,0,0,0,0,0,0,-1,1371,1156,0,0
154,-132,0,0,0,0,0,0,0,0,0,-1,1378,1156,0,0
161,-132,0,0,0,0,0,0,0,0,0,-1,1385,1156,0,0
168,-132,0,0,0,0,0,0,0,0,0,-1,1392,1156,0,0
175,-132,0,0,0,0,0,0,0,0,0,-1,1399,1156,0,0
182,-132,0,0,0,0,0,0,0,0,0,-1,1406,1156,0,0
189,-132,0,0,0,0,0,0,0,0,0,-1,1413,1156,0,0
196,-132,0,0,0,0,0,0,0,0,0,-1,1420,1156,0,0
203,-132,0,0,0,0,0,0,0,0,0,-1,1427,1156,0,0
210,-132,0,0,0,0,0,0,0,0,0,-1,1434,1156,0,0
217,-132,0,0,0,0,0,0,0,0,0,-1,1441,1156,0,0
224,-132,0,0,0,0,0,0,0,0,0,-1,1448,1156,0,0
231,-132,0,0,0,0,0,0,0,0,0,-1,1455,1156,0,0
238,-132,0,0,0,0,0,0,0,0,0,-1,1462,1156,0,0
245,-132,0,0,0,0,0,0,0,0,0,-1,1469,1156,0,0
252,-132,0,0,0,0,0,0,0,0,0,-1,1476,1156,0,0
259,-132,0,0,0,0,0,0,0,0,0,-1,1483,1156,0,0
266,-132,0,0,0,0,0,0,0,0,0,-1,1490,1156,0,0
273,-132,0,0,0,0,0,0,0,0,0,-1,1497,1156,0,0
280,-132,0,0,0,0,0,0,0,0,0,-1,1504,1156,0,0
287,-132,0,0,0,0,0,0,0,0,0,-1,1511,1156,0,0
294,-132,0,0,0,0,0,0,0,0,0,-1,1518,1156,0,0
301,-132,0,0,0,0,0,0,0,0,0,-1,1525,1156,0,0
308,-132,0,0,0,0,0,0,0,0,0,-1,1532,1156,0,0
315,-132,0,0,0,0,0,0,0,0,0,-1,1539,1156,0,0
322,-132,0,0,0,0,0,0,0,0,0,-1,1546,1156,0,0
329,-132,0,0,0,0,0,0,0,0,0,-1,1553,1156,0,0
336,-132,0,0,0,0,0,0,0,0,0,-1,1560,1156,0,0
343,-132,0,0,0,0,0,0,0,0,0,-1,1567,1156,0,0
350,-132,0,0,0,0,0,0,0,0,0,-1,1574,1156,0,0
357,-132,0,0,0,0,0,0,0,0,0,-1,1581,1156,0,0
364,-132,0,0,0,0,0,0,0,0,0,-1,1588,1156,0,0
371,-132,0,0,0,0,0,0,0,0,0,-1,1595,1156,0,0
378,-132,0,0,0,0,0,0,0,0,0,-1,1602,1156,0,0
385,-132,0,0,0,0,0,0,0,0,0,-1,1609,1156,0,0
392,-132,0,0,0,0,0,0,0,0,0,-1,1616,1156,0,0
399,-132,0,0,0,0,0,0,0,0,0,-1,1623,1156,0,0
406,-132,0,0,0,0,0,0,0,0,0,-1,1630,1156,0,0
413,-132,0,0,0,0,0,0,0,0,0,-1,1637,1156,0,0
420,-132,0,0,0,0,0,0,0,0,0,-1,1644,1156,0,0
427,-132,0,0,0,0,0,0,0,0,0,-1,1651,1156,0,0
434,-132,0,0,0,0,0,0,0,0,0,-1,1658,1156,0,0
441,-132,0,0,0,0,0,0,0,0,0,-1,1665,1156,0,0
448,-132,0,0,0,0,0,0,0,0,0,-1,1672,1156,0,0
455,-132,0,0,0,0,0,0,0,0,0,-1,1679,1156,0,0
462,-132,0,0,0,0,0,0,0,0,0,-1,1686,1156,0,0
469,-132,0,0,0,0,0,0,0,0,0,-1,1693,1156,0,0
476,-132,0,0,0,0,0,0,0,0,0,-1,1700,1156,0,0
483,-132,0,0,0,0,0,0,0,0,0,-1,1707,1156,0,0
490,-132,0,0,0,0,0,0,0,0,0,-1,1714,1156,0,0
497,-132,0,0,0,0,0,0,0,0,0,-1,1721,1156,0,0
504,-132,0,0,0,0,0,0,0,0,0,-1,1728,1156,0,0
511,-132,0,0,0,0,0,0,0,0,0,-1,1735,1156,0,0
518,-132,0,0,0,0,0,0,0,0,0,-1,1742,1156,0,0
525,-132,0,0,0,0,0,0,0,0,0,-1,1749,1156,0,0
532,-132,0,0,0,0,0,0,0,0,0,-1,1756,1156,0,0
539,-132,0,0,0,0,0,0,0,0,0,-1,1763,1156,0,0
546,-132,0,0,0,0,0,0,0,0,0,-1,1770,1156,0,0
553,-132,0,0,0,0,0,0,0,0,0,-1,1777,1156,0,0
560,-132,0,0,0,0,0,0,0,0,0,-1,1784,1156,0,0
567,-132,0,0,0,0,0,0,0,0,0,-1,1791,1156,0,0
574,-132,0,0,0,0,0,0,0,0,0,-1,1798,1156,0,0
581,-132,0,0,0,0,0,0,0,0,0,-1,1805,1156,0,0
588,-132,0,0,0,0,0,0,0,0,0,-1,1812,1156,0,0
595,-132,0,0,0,0,0,0,0,0,0,-1,1819,1156,0,0
602,-132,0,0,0,0,0,0,0,0,0,-1,1826,1156,0,0
609,-132,0,0,0,0,0,0,0,0,0,-1,1833,1156,0,0
616,-132,0,0,0,0,0,0,0,0,0,-1,1840,1156,0,0
623,-132,0,0,0,0,0,0,0,0,0,-1,1847,1156,0,0
630,-132,0,0,0,0,0,0,0,0,0,-1,1854,1156,0,0
637,-132,0,0,0,0,0,0,0,0,0,-1,1861,1156,0,0
644,-132,23.7903,2.66321,0.00325556,0.00106305,0.00210896,0.00453617,-0.000217558,0.545714,0.00309918,0.0436291,1868,1156,23.7903,-2.66316
651,-132,23.7501,2.7594,0.00274216,0.000955885,0.00169213,0.0037624,-6.43502e-05,0.542571,0.00252999,0.0396916,1875,1156,23.7501,-2.75941
658,-132,23.8806,2.86938,0.00241331,0.000862884,0.00121443,0.00307886,0.000197338,0.501332,0.00199006,0.0435139,1882,1156,23.8807,-2.86942
665,-132,24.0856,2.69653,0.00136085,0.000346064,0.0012293,0.00218336,-0.000476443,0.589674,0.00163765,0.0454793,1889,1156,24.0856,-2.69648
672,-132,24.0151,2.77075,0.000105666,-0.000261588,0.00137541,0.00130965,-0.00146558,0.719037,0.00160312,0.041515,1896,1156,24.0151,-2.77072
679,-132,24.0956,2.7157,-0.00111936,-0.000811034,0.00162213,0.000664239,-0.00259463,0.832775,0.0019885,0.0388353,1903,1156,24.0956,-2.71565
686,-132,24.0481,2.7594,-0.00217926,-0.00124919,0.00185131,0.0001946,-0.00362305,0.908449,0.00248277,0.0361728,1910,1156,24.0481,-2.75942
693,-132,24.0247,2.7677,-0.00288991,-0.00149345,0.0020018,-7.1598e-05,-0.00431175,0.953201,0.00285094,0.0253128,1917,1156,24.0247,-2.76766
700,-132,24.074,2.73865,-0.00321152,-0.00165494,0.00205191,-0.000238674,-0.00462779,0.966666,0.00300879,0.0250652,1924,1156,24.0739,-2.7387
707,-132,23.225,4.36816,0,0,0,0,0,0,0,-1,1931,1156,23.225,-4.36821
714,-132,22.6392,4.72034,0,0,0,0,0,0,0,-1,1938,1156,22.6392,-4.72034
721,-132,22.0533,5.07251,0,0,0,0,0,0,0,-1,1945,1156,22.0533,-5.07247
728,-132,22.3828,4.67004,-0.00402713,-0.00122115,0.00205702,-0.000134219,-0.00511407,1.08469,0.00336553,0.0148279,1952,1156,22.3828,-4.67006
735,-132,22.382,4.54028,-0.0031894,-0.000854012,0.00200312,0.000296913,-0.00434033,1.04929,0.00299743,0.0162465,1959,1156,22.3819,-4.54026
742,-132,22.3778,4.41699,-0.00162895,-0.00102288,0.0020268,0.000723414,-0.00337525,0.859605,0.00252607,0.0198912,1966,1156,22.3778,-4.41704
749,-132,22.3964,4.31982,0.000691461,-0.001615,0.00182145,0.00169406,-0.0026176,0.503183,0.00250831,0.0245621,1973,1156,22.3963,-4.31979
756,-132,22.4255,4.16077,0.00434814,-0.00242475,0.00151887,0.00467316,-0.00274977,0.210809,0.00433332,0.0224507,1980,1156,22.4256,-4.16079
763,-132,22.3828,4.03943,0.00958968,-0.0037977,0.00123389,0.00970245,-0.00391048,0.0911451,0.00809309,0.0142175,1987,1156,22.3828,-4.03944
770,-132,22.3754,3.93152,0.0155782,-0.00621851,0.00119166,0.0156431,-0.00628346,0.0544554,0.0130381,0.0130596,1994,1156,22.3753,-3.93151
777,-132,22.3201,3.80017,0.0227801,-0.00951099,0.00104384,0.0228138,-0.0095447,0.032281,0.0191987,0.0211642,2001,1156,22.3201,-3.80022
784,-132,22.1732,3.89868,0.0315936,-0.0138093,0.000587703,0.0316012,-0.0138169,0.0129413,0.0268839,0.0467235,2008,1156,22.1733,-3.8987
791,-132,22.8698,4.42151,0,0,0,0,0,0,0,-1,2015,1156,22.8697,-4.42151
798,-132,23.2489,4.22327,0.0555911,-0.0261201,-0.00194819,0.0556375,-0.0261665,-0.0238243,0.0482404,0.0485064,2022,1156,23.2489,-4.22323
805,-132,23.8081,4.12354,0.0713528,-0.0341677,-0.00472076,0.0715635,-0.0343785,-0.0446191,0.0624089,0.0459376,2029,1156,23.808,-4.12359
812,-132,24.7114,4.00867,0,0,0,0,0,0,0,-1,2036,1156,24.7115,-4.00867
-700,-139,0,0,0,0,0,0,0,0,0,-1,524,1163,0,0
-693,-139,-13.257,-2.7821,0,0,0,0,0,0,0,-1,531,1163,-13.257,2.78209
-686,-139,-16.708,3.7406,0,0,0,0,0,0,0,-1,538,1163,-16.708,-3.74055
-679,-139,-16.189,3.74316,0,0,0,0,0,0,0,-1,545,1163,-16.1889,-3.74311
-672,-139,-15.5967,3.82825,0.0192162,0.0157952,-0.00937075,0.0270313,0.00798012,-0.695123,0.0160369,0.0416108,552,1163,-15.5967,-3.82825
-665,-139,-14.9382,4.06714,0.0128339,0.00956296,-0.0102991,0.0216266,0.000770328,-0.706656,0.0141679,0.0450704,559,1163,-14.9382,-4.06711
-658,-139,-15.1957,3.58081,0.00813082,0.00542384,-0.010097,0.0169646,-0.00340997,-0.718771,0.0126012,0.0433234,566,1163,-15.1957,-3.58076
-651,-139,-15.679,2.60608,0,0,0,0,0,0,0,-1,573,1163,-15.6789,-2.60609
-644,-139,-14.5425,1.24707,0.00227127,0.00126347,-0.00784464,0.00962817,-0.00609344,-0.753325,0.00915303,0.0220544,580,1163,-14.5425,-1.24706
-637,-139,-14.5309,1.39648,0.000447063,0.000307427,-0.0064966,0.00687422,-0.00611973,-0.780025,0.00750628,0.0126444,587,1163,-14.5309,-1.39643
-630,-139,-14.5444,1.55139,-0.00116627,-0.000690114,-0.00565694,0.00473375,-0.00659014,-0.806429,0.00656707,0.0109929,594,1163,-14.5444,-1.55141
-623,-139,-14.5641,1.72217,-0.00230502,-0.0016375,-0.00491911,0.00295917,-0.00690168,-0.819271,0.00584287,0.0169154,601,1163,-14.5641,-1.72216
-616,-139,-14.5544,1.84631,-0.00302785,-0.00195453,-0.00428488,0.00182717,-0.00680955,-0.847696,0.00525572,0.0178347,608,1163,-14.5544,-1.84629
-609,-139,-14.5101,2.01282,-0.00311721,-0.00182751,-0.00380981,0.00139163,-0.00633635,-0.869234,0.00475646,0.022139,615,1163,-14.5101,-2.01283
-602,-139,-14.6113,2.19604,-0.00324217,-0.00205941,-0.00388682,0.00128076,-0.00658235,-0.860894,0.0048716,0.0167091,622,1163,-14.6113,-2.19603
-595,-139,-14.6403,2.37769,-0.00364698,-0.00252819,-0.00401845,0.000969612,-0.00714478,-0.854557,0.0051171,0.0159777,629,1163,-14.6403,-2.37771
-588,-139,-14.5556,2.57959,-0.00402355,-0.00286057,-0.00400247,0.00060243,-0.00748655,-0.857535,0.00520348,0.0179932,636,1163,-14.5556,-2.57954
-581,-139,-14.7333,2.54102,-0.00415304,-0.00309463,-0.00397783,0.000389043,-0.0076367,-0.851529,0.00522565,0.0444046,643,1163,-14.7333,-2.54106
-574,-139,-16.2591,0.754028,0,0,0,0,0,0,0,-1,650,1163,-16.2591,-0.754085
-567,-139,-16.4144,0.865234,-0.00384336,-0.00327706,-0.00385943,0.000309589,-0.00743001,-0.822015,0.00505969,0.0428802,657,1163,-16.4144,-0.865189
-560,-139,-16.4529,0.91626,-0.00354827,-0.00320655,-0.0035238,0.000150528,-0.00690535,-0.809623,0.00465456,0.0377528,664,1163,-16.453,-0.916254
-553,-139,-16.3934,0.903076,-0.00300201,-0.00300121,-0.00302222,2.0609e-05,-0.00602383,-0.785464,0.00402278,0.0402343,671,1163,-16.3934,-0.903037
-546,-139,-16.3404,0.856934,-0.00221355,-0.00276908,-0.00235145,-0.000123515,-0.00485912,-0.726608,0.00319903,0.0398522,678,1163,-16.3404,-0.856964
-539,-139,-16.3738,0.83606,-0.00120135,-0.00262844,-0.00152212,-0.000233827,-0.00359596,-0.566215,0.00232329,0.0403339,685,1163,-16.3739,-0.836095
-532,-139,-16.3132,0.816162,0.000178293,-0.00278758,-0.000686595,0.000329527,-0.00293882,-0.216804,0.00207778,0.0402339,692,1163,-16.3132,-0.816117
-525,-139,-16.2671,0.658325,0.000521216,-0.00396749,-0.0011811,0.000813027,-0.0042593,-0.242216,0.00314576,0.0404426,699,1163,-16.2671,-0.658364
-518,-139,0,0,0,0,0,0,0,0,0,-1,706,1163,0,0
-511,-139,0,0,0,0,0,0,0,0,0,-1,713,1163,0,0
-504,-139,0,0,0,0,0,0,0,0,0,-1,720,1163,0,0
-497,-139,0,0,0,0,0,0,0,0,0,-1,727,1163,0,0
-490,-139,0,0,0,0,0,0,0,0,0,-1,734,1163,0,0
-483,-139,0,0,0,0,0,0,0,0,0,-1,741,1163,0,0
-476,-139,0,0,0,0,0,0,0,0,0,-1,748,1163,0,0
-469,-139,0,0,0,0,0,0,0,0,0,-1,755,1163,0,0
-462,-139,0,0,0,0,0,0,0,0,0,-1,762,1163,0,0
-455,-139,0,0,0,0,0,0,0,0,0,-1,769,1163,0,0
-448,-139,0,0,0,0,0,0,0,0,0,-1,776,1163,0,0
-441,-139,0,0,0,0,0,0,0,0,0,-1,783,1163,0,0
-434,-139,0,0,0,0,0,0,0,0,0,-1,790,1163,0,0
-427,-139,0,0,0,0,0,0,0,0,0,-1,797,1163,0,0
-420,-139,0,0,0,0,0,0,0,0,0,-1,804,1163,0,0
-413,-139,0,0,0,0,0,0,0,0,0,-1,811,1163,0,0
-406,-139,0,0,0,0,0,0,0,0,0,-1,818,1163,0,0
-399,-139,0,0,0,0,0,0,0,0,0,-1,825,1163,0,0
-392,-139,0,0,0,0,0,0,0,0,0,-1,832,1163,0,0
-385,-139,0,0,0,0,0,0,0,0,0,-1,839,1163,0,0
-378,-139,0,0,0,0,0,0,0,0,0,-1,846,1163,0,0
-371,-139,0,0,0,0,0,0,0,0,0,-1,853,1163,0,0
-364,-139,0,0,0,0,0,0,0,0,0,-1,860,1163,0,0
-357,-139,0,0,0,0,0,0,0,0,0,-1,867,1163,0,0
-350,-139,0,0,0,0,0,0,0,0,0,-1,874,1163,0,0
-343,-139,0,0,0,0,0,0,0,0,0,-1,881,1163,0,0
-336,-139,0,0,0,0,0,0,0,0,0,-1,888,1163,0,0
-329,-139,0,0,0,0,0,0,0,0,0,-1,895,1163,0,0
-322,-139,0,0,0,0,0,0,0,0,0,-1,902,1163,0,0
-315,-139,0,0,0,0,0,0,0,0,0,-1,909,1163,0,0
-308,-139,0,0,0,0,0,0,0,0,0,-1,916,1163,0,0
-301,-139,0,0,0,0,0,0,0,0,0,-1,923,1163,0,0
-294,-139,0,0,0,0,0,0,0,0,0,-1,930,1163,0,0
-287,-139,0,0,0,0,0,0,0,0,0,-1,937,1163,0,0
-280,-139,0,0,0,0,0,0,0,0,0,-1,944,1163,0,0
-273,-139,0,0,0,0,0,0,0,0,0,-1,951,1163,0,0
-266,-139,0,0,0,0,0,0,0,0,0,-1,958,1163,0,0
-259,-139,0,0,0,0,0,0,0,0,0,-1,965,1163,0,0
-252,-139,0,0,0,0,0,0,0,0,0,-1,972,1163,0,0
-245,-139,0,0,0,0,0,0,0,0,0,-1,979,1163,0,0
-238,-139,0,0,0,0,0,0,0,0,0,-1,986,1163,0,0
-231,-139,0,0,0,0,0,0,0,0,0,-1,993,1163,0,0
-224,-139,0,0,0,0,0,0,0,0,0,-1,1000,1163,0,0
-217,-139,0,0,0,0,0,0,0,0,0,-1,1007,1163,0,0
-210,-139,0,0,0,0,0,0,0,0,0,-1,1014,1163,0,0
-203,-139,0,0,0,0,0,0,0,0,0,-1,1021,1163,0,0
-196,-139,0,0,0,0,0,0,0,0,0,-1,1028,1163,0,0
-189,-139,0,0,0,0,0,0,0,0,0,-1,1035,1163,0,0
-182,-139,0,0,0,0,0,0,0,0,0,-1,1042,1163,0,0
-175,-139,0,0,0,0,0,0,0,0,0,-1,1049,1163,0,0
-168,-139,0,0,0,0,0,0,0,0,0,-1,1056,1163,0,0
-161,-139,0,0,0,0,0,0,0,0,0,-1,1063,1163,0,0
-154,-139,0,0,0,0,0,0,0,0,0,-1,1070,1163,0,0
-147,-139,0,0,0,0,0,0,0,0,0,-1,1077,1163,0,0
-140,-139,0,0,0,0,0,0,0,0,0,-1,1084,1163,0,0
-133,-139,0,0,0,0,0,0,0,0,0,-1,1091,1163,0,0
-126,-139,0,0,0,0,0,0,0,0,0,-1,1098,1163,0,0
-119,-139,0,0,0,0,0,0,0,0,0,-1,1105,1163,0,0
-112,-139,0,0,0,0,0,0,0,0,0,-1,1112,1163,0,0
-105,-139,0,0,0,0,0,0,0,0,0,-1,1119,1163,0,0
-98,-139,0,0,0,0,0,0,0,0,0,-1,1126,1163,0,0
-91,-139,0,0,0,0,0,0,0,0,0,-1,1133,1163,0,0
-84,-139,0,0,0,0,0,0,0,0,0,-1,1140,1163,0,0
-77,-139,0,0,0,0,0,0,0,0,0,-1,1147,1163,0,0
-70,-139,0,0,0,0,0,0,0,0,0,-1,1154,1163,0,0
-63,-139,0,0,0,0,0,0,0,0,0,-1,1161,1163,0,0
-56,-139,0,0,0,0,0,0,0,0,0,-1,1168,1163,0,0
-49,-139,0,0,0,0,0,0,0,0,0,-1,1175,1163,0,0
-42,-139,0,0,0,0,0,0,0,0,0,-1,1182,1163,0,0
-35,-139,0,0,0,0,0,0,0,0,0,-1,1189,1163,0,0
-28,-139,0,0,0,0,0,0,0,0,0,-1,1196,1163,0,0
-21,-139,0,0,0,0,0,0,0,0,0,-1,1203,1163,0,0
-14,-139,0,0,0,0,0,0,0,0,0,-1,1210,1163,0,0
-7,-139,0,0,0,0,0,0,0,0,0,-1,1217,1163,0,0
0,-139,0,0,0,0,0,0,0,0,0,-1,1224,1163,0,0
7,-139,0,0,0,0,0,0,0,0,0,-1,1231,1163,0,0
14,-139,0,0,0,0,0,0,0,0,0,-1,1238,1163,0,0
21,-139,0,0,0,0,0,0,0,0,0,-1,1245,1163,0,0
28,-139,0,0,0,0,0,0,0,0,0,-1,1252,1163,0,0
35,-139,0,0,0,0,0,0,0,0,0,-1,1259,1163,0,0
42,-139,0,0,0,0,0,0,0,0,0,-1,1266,1163,0,0
49,-139,0,0,0,0,0,0,0,0,0,-1,1273,1163,0,0
56,-139,0,0,0,0,0,0,0,0,0,-1,1280,1163,0,0
63,-139,0,0,0,0,0,0,0,0,0,-1,1287,1163,0,0
70,-139,0,0,0,0,0,0,0,0,0,-1,1294,1163,0,0
77,-139,0,0,0,0,0,0,0,0,0,-1,1301,1163,0,0
84,-139,0,0,0,0,0,0,0,0,0,-1,1308,1163,0,0
91,-139,0,0,0,0,0,0,0,0,0,-1,1315,1163,0,0
98,-139,0,0,0,0,0,0,0,0,0,-1,1322,1163,0,0
105,-139,0,0,0,0,0,0,0,0,0,-1,1329,1163,0,0
112,-139,0,0,0,0,0,0,0,0,0,-1,1336,1163,0,0
119,-139,0,0,0,0,0,0,0,0,0,-1,1343,1163,0,0
126,-139,0,0,0,0,0,0,0,0,0,-1,1350,1163,0,0
133,-139,0,0,0,0,0,0,0,0,0,-1,1357,1163,0,0
140,-139,0,0,0,0,0,0,0,0,0,-1,1364,1163,0,0
147,-139,0,0,0,0,0,0,0,0,0,-1,1371,1163,0,0
154,-139,0,0,0,0,0,0,0,0,0,-1,1378,1163,0,0
161,-139,0,0,0,0,0,0,0,0,0,-1,1385,1163,0,0
168,-139,0,0,0,0,0,0,0,0,0,-1,1392,1163,0,0
175,-139,0,0,0,0,0,0,0,0,0,-1,1399,1163,0,0
182,-139,0,0,0,0,0,0,0,0,0,-1,1406,1163,0,0
189,-139,0,0,0,0,0,0,0,0,0,-1,1413,1163,0,0
196,-139,0,0,0,0,0,0,0,0,0,-1,1420,1163,0,0
203,-139,0,0,0,0,0,0,0,0,0,-1,1427,1163,0,0
210,-139,0,0,0,0,0,0,0,0,0,-1,1434,1163,0,0
217,-139,0,0,0,0,0,0,0,0,0,-1,1441,1163,0,0
224,-139,0,0,0,0,0,0,0,0,0,-1,1448,1163,0,0
231,-139,0,0,0,0,0,0,0,0,0,-1,1455,1163,0,0
238,-139,0,0,0,0,0,0,0,0,0,-1,1462,1163,0,0
245,-139,0,0,0,0,0,0,0,0,0,-1,1469,1163,0,0
252,-139,0,0,0,0,0,0,0,0,0,-1,1476,1163,0,0
259,-139,0,0,0,0,0,0,0,0,0,-1,1483,1163,0,0
266,-139,0,0,0,0,0,0,0,0,0,-1,1490,1163,0,0
273,-139,0,0,0,0,0,0,0,0,0,-1,1497,1163,0,0
280,-139,0,0,0,0,0,0,0,0,0,-1,1504,1163,0,0
287,-139,0,0,0,0,0,0,0,0,0,-1,1511,1163,0,0
294,-139,0,0,0,0,0,0,0,0,0,-1,1518,1163,0,0
301,-139,0,0,0,0,0,0,0,0,0,-1,1525,1163,0,0
308,-139,0,0,0,0,0,0,0,0,0,-1,1532,1163,0,0
315,-139,0,0,0,0,0,0,0,0,0,-1,1539,1163,0,0
322,-139,0,0,0,0,0,0,0,0,0,-1,1546,1163,0,0
329,-139,0,0,0,0,0,0,0,0,0,-1,1553,1163,0,0
336,-139,0,0,0,0,0,0,0,0,0,-1,1560,1163,0,0
343,-139,0,0,0,0,0,0,0,0,0,-1,1567,1163,0,0
350,-139,0,0,0,0,0,0,0,0,0,-1,1574,1163,0,0
357,-139,0,0,0,0,0,0,0,0,0,-1,1581,1163,0,0
364,-139,0,0,0,0,0,0,0,0,0,-1,1588,1163,0,0
371,-139,0,0,0,0,0,0,0,0,0,-1,1595,1163,0,0
378,-139,0,0,0,0,0,0,0,0,0,-1,1602,1163,0,0
385,-139,0,0,0,0,0,0,0,0,0,-1,1609,1163,0,0
392,-139,0,0,0,0,0,0,0,0,0,-1,1616,1163,0,0
399,-139,0,0,0,0,0,0,0,0,0,-1,1623,1163,0,0
406,-139,0,0,0,0,0,0,0,0,0,-1,1630,1163,0,0
413,-139,0,0,0,0,0,0,0,0,0,-1,1637,1163,0,0
420,-139,0,0,0,0,0,0,0,0,0,-1,1644,1163,0,0
427,-139,0,0,0,0,0,0,0,0,0,-1,1651,1163,0,0
434,-139,0,0,0,0,0,0,0,0,0,-1,1658,1163,0,0
441,-139,0,0,0,0,0,0,0,0,0,-1,1665,1163,0,0
448,-139,0,0,0,0,0,0,0,0,0,-1,1672,1163,0,0
455,-139,0,0,0,0,0,0,0,0,0,-1,1679,1163,0,0
462,-139,0,0,0,0,0,0,0,0,0,-1,1686,1163,0,0
469,-139,0,0,0,0,0,0,0,0,0,-1,1693,1163,0,0
476,-139,0,0,0,0,0,0,0,0,0,-1,1700,1163,0,0
483,-139,0,0,0,0,0,0,0,0,0,-1,1707,1163,0,0
490,-139,0,0,0,0,0,0,0,0,0,-1,1714,1163,0,0
497,-139,0,0,0,0,0,0,0,0,0,-1,1721,1163,0,0
504,-139,0,0,0,0,0,0,0,0,0,-1,1728,1163,0,0
511,-139,0,0,0,0,0,0,0,0,0,-1,1735,1163,0,0
518,-139,0,0,0,0,0,0,0,0,0,-1,1742,1163,0,0
525,-139,0,0,0,0,0,0,0,0,0,-1,1749,1163,0,0
532,-139,0,0,0,0,0,0,0,0,0,-1,1756,1163,0,0
539,-139,0,0,0,0,0,0,0,0,0,-1,1763,1163,0,0
546,-139,0,0,0,0,0,0,0,0,0,-1,1770,1163,0,0
553,-139,0,0,0,0,0,0,0,0,0,-1,1777,1163,0,0
560,-139,0,0,0,0,0,0,0,0,0,-1,1784,1163,0,0
567,-139,0,0,0,0,0,0,0,0,0,-1,1791,1163,0,0
574,-139,0,0,0,0,0,0,0,0,0,-1,1798,1163,0,0
581,-139,0,0,0,0,0,0,0,0,0,-1,1805,1163,0,0
588,-139,0,0,0,0,0,0,0,0,0,-1,1812,1163,0,0
595,-139,0,0,0,0,0,0,0,0,0,-1,1819,1163,0,0
602,-139,0,0,0,0,0,0,0,0,0,-1,1826,1163,0,0
609,-139,0,0,0,0,0,0,0,0,0,-1,1833,1163,0,0
616,-139,0,0,0,0,0,0,0,0,0,-1,1840,1163,0,0
623,-139,0,0,0,0,0,0,0,0,0,-1,1847,1163,0,0
630,-139,0,0,0,0,0,0,0,0,0,-1,1854,1163,0,0
637,-139,0,0,0,0,0,0,0,0,0,-1,1861,1163,0,0
644,-139,24.1021,2.53455,0.00249175,0.00119869,0.0016205,0.00358993,0.000100507,0.595591,0.0023605,0.0411,1868,1163,24.1021,-2.53454
651,-139,23.9486,2.64343,0.00213622,0.0011211,0.00138176,0.00310069,0.00015663,0.609383,0.00201695,0.0400784,1875,1163,23.9486,-2.64348
658,-139,24.0377,2.79736,0.00186201,0.000965977,0.00109577,0.00259781,0.000230176,0.591337,0.00166047,0.0421908,1882,1163,24.0377,-2.79742
665,-139,24.0278,2.84875,0.000896062,0.000404615,0.00123147,0.00190609,-0.000605409,0.686923,0.00151344,0.041352,1889,1163,24.0279,-2.84872
672,-139,24.1316,2.81213,-0.000263948,-0.000229858,0.00143207,0.00118527,-0.00167908,0.791349,0.00166191,0.0397909,1896,1163,24.1316,-2.81215
679,-139,24.1963,2.7677,-0.00143436,-0.00079694,0.00170117,0.000615114,-0.00284641,0.877999,0.00213243,0.0347325,1903,1163,24.1962,-2.76764
686,-139,24.0643,2.77747,-0.00247075,-0.00123822,0.00193184,0.000173272,-0.00388223,0.939798,0.0026478,0.0299362,1910,1163,24.0643,-2.77741
693,-139,24.0621,2.75122,-0.00318623,-0.00148063,0.00207447,-9.05134e-05,-0.00457635,0.980415,0.00302118,0.0177223,1917,1163,24.0621,-2.75117
700,-139,23.9471,3.26001,0,0,0,0,0,0,0,-1,1924,1163,23.9471,-3.26006
707,-139,23.0839,4.07874,-0.00385931,-0.00172422,0.00212626,-0.000412557,-0.00517097,1.01805,0.00331836,0.0314937,1931,1163,23.0839,-4.07875
714,-139,22.2712,4.98315,-0.00436265,-0.00171628,0.00211997,-0.000540443,-0.00553848,1.06439,0.00352601,0.0304499,1938,1163,22.2713,-4.98314
721,-139,22.2518,4.78564,-0.0045646,-0.00155422,0.00211282,-0.000465257,-0.00565356,1.0949,0.00362392,0.0228648,1945,1163,22.2519,-4.78567
728,-139,22.2455,4.6687,-0.00417157,-0.00120899,0.0020409,-0.000168481,-0.00521208,1.09932,0.00341994,0.021979,1952,1163,22.2455,-4.66874
735,-139,22.2296,4.56177,-0.00320307,-0.000859811,0.00198982,0.000277688,-0.00434057,1.05148,0.00299058,0.0165329,1959,1163,22.2296,-4.56173
742,-139,22.2341,4.38342,-0.00142983,-0.00093238,0.00206536,0.000899179,-0.00326139,0.845323,0.00252787,0.021851,1966,1163,22.2341,-4.38339
749,-139,22.2498,4.2616,0.00126898,-0.00145047,0.00193285,0.00227247,-0.00245396,0.478869,0.00272948,0.0197711,1973,1163,22.2498,-4.26155
756,-139,22.2432,4.14014,0.00543966,-0.0021848,0.0017493,0.00582185,-0.00256698,0.215101,0.00496333,0.0108013,1980,1163,22.2432,-4.14015
763,-139,22.2391,4.02222,0.0110259,-0.00337301,0.00168383,0.0112202,-0.0035673,0.114876,0.00891053,0.0105075,1987,1163,22.2392,-4.02216
770,-139,22.2128,3.89331,0.017392,-0.00555071,0.00194899,0.0175564,-0.0057151,0.0841469,0.0140036,0.0114894,1994,1163,22.2127,-3.8933
777,-139,22.1584,3.78198,0.0250062,-0.00852798,0.00222169,0.0251527,-0.00867453,0.0658678,0.0202879,0.0205781,2001,1163,22.1585,-3.78204
784,-139,22.0972,3.78345,0.0342755,-0.0124513,0.00236206,0.0343946,-0.0125704,0.0503792,0.0280742,0.0411044,2008,1163,22.0972,-3.78345
791,-139,23.4337,4.27991,0,0,0,0,0,0,0,-1,2015,1163,23.4337,-4.2799
798,-139,23.2557,4.17761,0.0589099,-0.0235635,0.00171263,0.0589455,-0.0235991,0.0207539,0.0490919,0.0492567,2022,1163,23.2557,-4.1776
805,-139,23.7908,3.94031,0.0746781,-0.0306956,0.000338058,0.0746792,-0.0306966,0.00320814,0.0625803,0.0461029,2029,1163,23.7909,-3.94026
812,-139,0,0,0,0,0,0,0,0,0,-1,2036,1163,0,0
-700,-146,0,0,0,0,0,0,0,0,0,-1,524,1170,0,0
-693,-146,-12.8715,-2.53882,0,0,0,0,0,0,0,-1,531,1170,-12.8715,2.53877
-686,-146,-12.926,-1.93201,0,0,0,0,0,0,0,-1,538,1170,-12.926,1.93196
-679,-146,-16.1431,3.16943,0,0,0,0,0,0,0,-1,545,1170,-16.1431,-3.16944
-672,-146,-15.6086,3.51611,0,0,0,0,0,0,0,-1,552,1170,-15.6087,-3.51606
-665,-146,-14.7169,4.50745,0,0,0,0,0,0,0,-1,559,1170,-14.7169,-4.50746
-658,-146,-15.0042,4.09399,0,0,0,0,0,0,0,-1,566,1170,-15.0042,-4.09396
-651,-146,-14.3052,1.29956,-0.00240733,0.00474056,-0.00778524,0.00973301,-0.00739977,-1.00058,0.00992214,0.0374214,573,1170,-14.3052,-1.29954
-644,-146,-14.3403,1.22168,-0.00256963,0.00287098,-0.00684986,0.00752093,-0.00721957,-0.974414,0.00851103,0.0190467,580,1170,-14.3403,-1.22173
-637,-146,-14.3278,1.37585,-0.00261044,0.00165737,-0.00574357,0.00565063,-0.0066037,-0.96326,0.00708217,0.0111608,587,1170,-14.3278,-1.37584
-630,-146,-14.355,1.53284,-0.00270805,0.000376942,-0.0050834,0.00414672,-0.00647783,-0.932702,0.00618311,0.0111654,594,1170,-14.355,-1.53286
-623,-146,-14.4,1.70447,-0.00297581,-0.000800044,-0.0045415,0.00278206,-0.00655791,-0.902954,0.00553737,0.0133345,601,1170,-14.4,-1.70441
-616,-146,-14.4086,1.86768,-0.00345932,-0.00132224,-0.00399166,0.00174142,-0.00652299,-0.916178,0.00503063,0.0196869,608,1170,-14.4086,-1.86773
-609,-146,-14.3358,2.05371,-0.00345756,-0.00144967,-0.00360095,0.00128467,-0.0061919,-0.921346,0.00461614,0.0182755,615,1170,-14.3358,-2.05369
-602,-146,-14.4146,2.33215,-0.00353448,-0.00187509,-0.00369019,0.00107753,-0.0064871,-0.895978,0.00472504,0.0265502,622,1170,-14.4146,-2.33215
-595,-146,-14.5177,2.40186,-0.00394559,-0.0024193,-0.00383199,0.000724801,-0.00708969,-0.883688,0.00498565,0.0159353,629,1170,-14.5177,-2.40182
-588,-146,-14.4251,2.59656,-0.00432584,-0.0027432,-0.0038358,0.000382056,-0.00745109,-0.88712,0.00509952,0.018359,636,1170,-14.4251,-2.5966
-581,-146,-14.3319,2.77368,-0.00440257,-0.00294807,-0.00384679,0.000239614,-0.00759025,-0.878823,0.0051419,0.0340868,643,1170,-14.3319,-2.77371
-574,-146,-16.1642,0.747681,0,0,0,0,0,0,0,-1,650,1170,-16.1642,-0.747713
-567,-146,-16.3329,0.80896,-0.00400336,-0.00310872,-0.00380164,0.000271824,-0.0073839,-0.843961,0.00501567,0.0488226,657,1170,-16.3329,-0.808924
-560,-146,-16.4644,0.889893,-0.00367428,-0.0031038,-0.00351381,0.000136325,-0.00691441,-0.825897,0.00465571,0.0403002,664,1170,-16.4643,-0.889877
-553,-146,-16.4215,0.966187,-0.00304811,-0.00294559,-0.00309102,9.46007e-05,-0.0060883,-0.793689,0.00409076,0.0418886,671,1170,-16.4215,-0.96623
-546,-146,-16.4725,1.01538,-0.00212423,-0.00280054,-0.00249614,5.65608e-05,-0.00498133,-0.718072,0.0033399,0.0418102,678,1170,-16.4726,-1.01541
-539,-146,-16.5076,1.01489,-0.000957995,-0.00281243,-0.00173605,8.29373e-05,-0.00385336,-0.540123,0.00259699,0.0400379,685,1170,-16.5076,-1.01494
-532,-146,-16.4871,0.927856,0.000635642,-0.00322894,-0.000896976,0.000833683,-0.00342698,-0.217301,0.00260736,0.0383591,692,1170,-16.4871,-0.927866
-525,-146,-16.4084,0.721436,0.00157147,-0.00474309,-0.0010215,0.00173261,-0.00490423,-0.156454,0.00397495,0.0389881,699,1170,-16.4084,-0.721453
-518,-146,0,0,0,0,0,0,0,0,0,-1,706,1170,0,0
-511,-146,0,0,0,0,0,0,0,0,0,-1,713,1170,0,0
-504,-146,0,0,0,0,0,0,0,0,0,-1,720,1170,0,0
-497,-146,0,0,0,0,0,0,0,0,0,-1,727,1170,0,0
-490,-146,0,0,0,0,0,0,0,0,0,-1,734,1170,0,0
-483,-146,0,0,0,0,0,0,0,0,0,-1,741,1170,0,0
-476,-146,0,0,0,0,0,0,0,0,0,-1,748,1170,0,0
-469,-146,0,0,0,0,0,0,0,0,0,-1,755,1170,0,0
-462,-146,0,0,0,0,0,0,0,0,0,-1,762,1170,0,0
-455,-146,0,0,0,0,0,0,0,0,0,-1,769,1170,0,0
-448,-146,0,0,0,0,0,0,0,0,0,-1,776,1170,0,0
-441,-146,0,0,0,0,0,0,0,0,0,-1,783,1170,0,0
-434,-146,0,0,0,0,0,0,0,0,0,-1,790,1170,0,0
-427,-146,0,0,0,0,0,0,0,0,0,-1,797,1170,0,0
-420,-146,0,0,0,0,0,0,0,0,0,-1,804,1170,0,0
-413,-146,0,0,0,0,0,0,0,0,0,-1,811,1170,0,0
-406,-146,0,0,0,0,0,0,0,0,0,-1,818,1170,0,0
-399,-146,0,0,0,0,0,0,0,0,0,-1,825,1170,0,0
-392,-146,0,0,0,0,0,0,0,0,0,-1,832,1170,0,0
-385,-146,0,0,0,0,0,0,0,0,0,-1,839,1170,0,0
-378,-146,0,0,0,0,0,0,0,0,0,-1,846,1170,0,0
-371,-146,0,0,0,0,0,0,0,0,0,-1,853,1170,0,0
-364,-146,0,0,0,0,0,0,0,0,0,-1,860,1170,0,0
-357,-146,0,0,0,0,0,0,0,0,0,-1,867,1170,0,0
-350,-146,0,0,0,0,0,0,0,0,0,-1,874,1170,0,0
-343,-146,0,0,0,0,0,0,0,0,0,-1,881,1170,0,0
-336,-146,0,0,0,0,0,0,0,0,0,-1,888,1170,0,0
-329,-146,0,0,0,0,0,0,0,0,0,-1,895,1170,0,0
-322,-146,0,0,0,0,0,0,0,0,0,-1,902,1170,0,0
-315,-146,0,0,0,0,0,0,0,0,0,-1,909,1170,0,0
-308,-146,0,0,0,0,0,0,0,0,0,-1,916,1170,0,0
-301,-146,0,0,0,0,0,0,0,0,0,-1,923,1170,0,0
-294,-146,0,0,0,0,0,0,0,0,0,-1,930,1170,0,0
-287,-146,0,0,0,0,0,0,0,0,0,-1,937,1170,0,0
-280,-146,0,0,0,0,0,0,0,0,0,-1,944,1170,0,0
-273,-146,0,0,0,0,0,0,0,0,0,-1,951,1170,0,0
-266,-146,0,0,0,0,0,0,0,0,0,-1,958,1170,0,0
-259,-146,0,0,0,0,0,0,0,0,0,-1,965,1170,0,0
-252,-146,0,0,0,0,0,0,0,0,0,-1,972,1170,0,0
-245,-146,0,0,0,0,0,0,0,0,0,-1,979,1170,0,0
-238,-146,0,0,0,0,0,0,0,0,0,-1,986,1170,0,0
-231,-146,0,0,0,0,0,0,0,0,0,-1,993,1170,0,0
-224,-146,0,0,0,0,0,0,0,0,0,-1,1000,1170,0,0
-217,-146,0,0,0,0,0,0,0,0,0,-1,1007,1170,0,0
-210,-146,0,0,0,0,0,0,0,0,0,-1,1014,1170,0,0
-203,-146,0,0,0,0,0,0,0,0,0,-1,1021,1170,0,0
-196,-146,0,0,0,0,0,0,0,0,0,-1,1028,1170,0,0
-189,-146,0,0,0,0,0,0,0,0,0,-1,1035,1170,0,0
-182,-146,0,0,0,0,0,0,0,0,0,-1,1042,1170,0,0
-175,-146,0,0,0,0,0,0,0,0,0,-1,1049,1170,0,0
-168,-146,0,0,0,0,0,0,0,0,0,-1,1056,1170,0,0
-161,-146,0,0,0,0,0,0,0,0,0,-1,1063,1170,0,0
-154,-146,0,0,0,0,0,0,0,0,0,-1,1070,1170,0,0
-147,-146,0,0,0,0,0,0,0,0,0,-1,1077,1170,0,0
-140,-146,0,0,0,0,0,0,0,0,0,-1,1084,1170,0,0
-133,-146,0,0,0,0,0,0,0,0,0,-1,1091,1170,0,0
-126,-146,0,0,0,0,0,0,0,0,0,-1,1098,1170,0,0
-119,-146,0,0,0,0,0,0,0,0,0,-1,1105,1170,0,0
-112,-146,0,0,0,0,0,0,0,0,0,-1,1112,1170,0,0
-105,-146,0,0,0,0,0,0,0,0,0,-1,1119,1170,0,0
-98,-146,0,0,0,0,0,0,0,0,0,-1,1126,1170,0,0
-91,-146,0,0,0,0,0,0,0,0,0,-1,1133,1170,0,0
-84,-146,0,0,0,0,0,0,0,0,0,-1,1140,1170,0,0
-77,-146,0,0,0,0,0,0,0,0,0,-1,1147,1170,0,0
-70,-146,0,0,0,0,0,0,0,0,0,-1,1154,1170,0,0
-63,-146,0,0,0,0,0,0,0,0,0,-1,1161,1170,0,0
-56,-146,0,0,0,0,0,0,0,0,0,-1,1168,1170,0,0
-49,-146,0,0,0,0,0,0,0,0,0,-1,1175,1170,0,0
-42,-146,0,0,0,0,0,0,0,0,0,-1,1182,1170,0,0
-35,-146,0,0,0,0,0,0,0,0,0,-1,1189,1170,0,0
-28,-146,0,0,0,0,0,0,0,0,0,-1,1196,1170,0,0
-21,-146,0,0,0,0,0,0,0,0,0,-1,1203,1170,0,0
-14,-146,0,0,0,0,0,0,0,0,0,-1,1210,1170,0,0
-7,-146,0,0,0,0,0,0,0,0,0,-1,1217,1170,0,0
0,-146,0,0,0,0,0,0,0,0,0,-1,1224,1170,0,0
7,-146,0,0,0,0,0,0,0,0,0,-1,1231,1170,0,0
14,-146,0,0,0,0,0,0,0,0,0,-1,1238,1170,0,0
21,-146,0,0,0,0,0,0,0,0,0,-1,1245,1170,0,0
28,-146,0,0,0,0,0,0,0,0,0,-1,1252,1170,0,0
35,-146,0,0,0,0,0,0,0,0,0,-1,1259,1170,0,0
42,-146,0,0,0,0,0,0,0,0,0,-1,1266,1170,0,0
49,-146,0,0,0,0,0,0,0,0,0,-1,1273,1170,0,0
56,-146,0,0,0,0,0,0,0,0,0,-1,1280,1170,0,0
63,-146,0,0,0,0,0,0,0,0,0,-1,1287,1170,0,0
70,-146,0,0,0,0,0,0,0,0,0,-1,1294,1170,0,0
77,-146,0,0,0,0,0,0,0,0,0,-1,1301,1170,0,0
84,-146,0,0,0,0,0,0,0,0,0,-1,1308,1170,0,0
91,-146,0,0,0,0,0,0,0,0,0,-1,1315,1170,0,0
98,-146,0,0,0,0,0,0,0,0,0,-1,1322,1170,0,0
105,-146,0,0,0,0,0,0,0,0,0,-1,1329,1170,0,0
112,-146,0,0,0,0,0,0,0,0,0,-1,1336,1170,0,0
119,-146,0,0,0,0,0,0,0,0,0,-1,1343,1170,0,0
126,-146,0,0,0,0,0,0,0,0,0,-1,1350,1170,0,0
133,-146,0,0,0,0,0,0,0,0,0,-1,1357,1170,0,0
140,-146,0,0,0,0,0,0,0,0,0,-1,1364,1170,0,0
147,-146,0,0,0,0,0,0,0,0,0,-1,1371,1170,0,0
154,-146,0,0,0,0,0,0,0,0,0,-1,1378,1170,0,0
161,-146,0,0,0,0,0,0,0,0,0,-1,1385,1170,0,0
168,-146,0,0,0,0,0,0,0,0,0,-1,1392,1170,0,0
175,-146,0,0,0,0,0,0,0,0,0,-1,1399,1170,0,0
182,-146,0,0,0,0,0,0,0,0,0,-1,1406,1170,0,0
189,-146,0,0,0,0,0,0,0,0,0,-1,1413,1170,0,0
196,-146,0,0,0,0,0,0,0,0,0,-1,1420,1170,0,0
203,-146,0,0,0,0,0,0,0,0,0,-1,1427,1170,0,0
210,-146,0,0,0,0,0,0,0,0,0,-1,1434,1170,0,0
217,-146,0,0,0,0,0,0,0,0,0,-1,1441,1170,0,0
224,-146,0,0,0,0,0,0,0,0,0,-1,1448,1170,0,0
231,-146,0,0,0,0,0,0,0,0,0,-1,1455,1170,0,0
238,-146,0,0,0,0,0,0,0,0,0,-1,1462,1170,0,0
245,-146,0,0,0,0,0,0,0,0,0,-1,1469,1170,0,0
252,-146,0,0,0,0,0,0,0,0,0,-1,1476,1170,0,0
259,-146,0,0,0,0,0,0,0,0,0,-1,1483,1170,0,0
266,-146,0,0,0,0,0,0,0,0,0,-1,1490,1170,0,0
273,-146,0,0,0,0,0,0,0,0,0,-1,1497,1170,0,0
280,-146,0,0,0,0,0,0,0,0,0,-1,1504,1170,0,0
287,-146,0,0,0,0,0,0,0,0,0,-1,1511,1170,0,0
294,-146,0,0,0,0,0,0,0,0,0,-1,1518,1170,0,0
301,-146,0,0,0,0,0,0,0,0,0,-1,1525,1170,0,0
308,-146,0,0,0,0,0,0,0,0,0,-1,1532,1170,0,0
315,-146,0,0,0,0,0,0,0,0,0,-1,1539,1170,0,0
322,-146,0,0,0,0,0,0,0,0,0,-1,1546,1170,0,0
329,-146,0,0,0,0,0,0,0,0,0,-1,1553,1170,0,0
336,-146,0,0,0,0,0,0,0,0,0,-1,1560,1170,0,0
343,-146,0,0,0,0,0,0,0,0,0,-1,1567,1170,0,0
350,-146,0,0,0,0,0,0,0,0,0,-1,1574,1170,0,0
357,-146,0,0,0,0,0,0,0,0,0,-1,1581,1170,0,0
364,-146,0,0,0,0,0,0,0,0,0,-1,1588,1170,0,0
371,-146,0,0,0,0,0,0,0,0,0,-1,1595,1170,0,0
378,-146,0,0,0,0,0,0,0,0,0,-1,1602,1170,0,0
385,-146,0,0,0,0,0,0,0,0,0,-1,1609,1170,0,0
392,-146,0,0,0,0,0,0,0,0,0,-1,1616,1170,0,0
399,-146,0,0,0,0,0,0,0,0,0,-1,1623,1170,0,0
406,-146,0,0,0,0,0,0,0,0,0,-1,1630,1170,0,0
413,-146,0,0,0,0,0,0,0,0,0,-1,1637,1170,0,0
420,-146,0,0,0,0,0,0,0,0,0,-1,1644,1170,0,0
427,-146,0,0,0,0,0,0,0,0,0,-1,1651,1170,0,0
434,-146,0,0,0,0,0,0,0,0,0,-1,1658,1170,0,0
441,-146,0,0,0,0,0,0,0,0,0,-1,1665,1170,0,0
448,-146,0,0,0,0,0,0,0,0,0,-1,1672,1170,0,0
455,-146,0,0,0,0,0,0,0,0,0,-1,1679,1170,0,0
462,-146,0,0,0,0,0,0,0,0,0,-1,1686,1170,0,0
469,-146,0,0,0,0,0,0,0,0,0,-1,1693,1170,0,0
476,-146,0,0,0,0,0,0,0,0,0,-1,1700,1170,0,0
483,-146,0,0,0,0,0,0,0,0,0,-1,1707,1170,0,0
490,-146,0,0,0,0,0,0,0,0,0,-1,1714,1170,0,0
497,-146,0,0,0,0,0,0,0,0,0,-1,1721,1170,0,0
504,-146,0,0,0,0,0,0,0,0,0,-1,1728,1170,0,0
511,-146,0,0,0,0,0,0,0,0,0,-1,1735,1170,0,0
518,-146,0,0,0,0,0,0,0,0,0,-1,1742,1170,0,0
525,-146,0,0,0,0,0,0,0,0,0,-1,1749,1170,0,0
532,-146,0,0,0,0,0,0,0,0,0,-1,1756,1170,0,0
539,-146,0,0,0,0,0,0,0,0,0,-1,1763,1170,0,0
546,-146,0,0,0,0,0,0,0,0,0,-1,1770,1170,0,0
553,-146,0,0,0,0,0,0,0,0,0,-1,1777,1170,0,0
560,-146,0,0,0,0,0,0,0,0,0,-1,1784,1170,0,0
567,-146,0,0,0,0,0,0,0,0,0,-1,1791,1170,0,0
574,-146,0,0,0,0,0,0,0,0,0,-1,1798,1170,0,0
581,-146,0,0,0,0,0,0,0,0,0,-1,1805,1170,0,0
588,-146,0,0,0,0,0,0,0,0,0,-1,1812,1170,0,0
595,-146,0,0,0,0,0,0,0,0,0,-1,1819,1170,0,0
602,-146,0,0,0,0,0,0,0,0,0,-1,1826,1170,0,0
609,-146,0,0,0,0,0,0,0,0,0,-1,1833,1170,0,0
616,-146,0,0,0,0,0,0,0,0,0,-1,1840,1170,0,0
623,-146,0,0,0,0,0,0,0,0,0,-1,1847,1170,0,0
630,-146,0,0,0,0,0,0,0,0,0,-1,1854,1170,0,0
637,-146,24.1163,2.59351,0.00172485,0.000656454,0.00128708,0.00258419,-0.000202879,0.588692,0.00179424,0.0379642,1861,1170,24.1163,-2.59347
644,-146,24.1392,2.62976,0.00190897,0.000952528,0.00108127,0.00261305,0.000248443,0.577192,0.00166541,0.0389567,1868,1170,24.1392,-2.62971
651,-146,24.1095,2.73499,0.00163188,0.000949488,0.000969617,0.00231858,0.000262787,0.616221,0.001466,0.0367409,1875,1170,24.1095,-2.73502
658,-146,24.1073,2.78052,0.00130996,0.000744641,0.000904287,0.00197474,7.98674e-05,0.63392,0.00129069,0.0386013,1882,1170,24.1073,-2.78048
665,-146,24.0725,2.89392,0.000386572,0.000174303,0.00118912,0.00147428,-0.000913407,0.740889,0.00139115,0.0406267,1889,1170,24.0725,-2.89395
672,-146,24.1453,2.87659,-0.000686736,-0.000458679,0.00148328,0.000914948,-0.00206036,0.823761,0.00175972,0.038962,1896,1170,24.1452,-2.8766
679,-146,24.1423,2.80444,-0.00179401,-0.00102398,0.00181862,0.000449931,-0.00326793,0.889711,0.00234304,0.0294451,1903,1170,24.1423,-2.80449
686,-146,24.0383,2.77588,-0.0027796,-0.00145153,0.00208472,7.23584e-05,-0.00430349,0.93958,0.00289341,0.0203764,1910,1170,24.0384,-2.77585
693,-146,24.0835,2.71204,-0.00347387,-0.00168453,0.00225722,-0.000151137,-0.00500726,0.97408,0.00328895,0.0127268,1917,1170,24.0835,-2.71199
700,-146,23.8547,3.7998,0,0,0,0,0,0,0,-1,1924,1170,23.8548,-3.79986
707,-146,22.8953,4.45679,-0.00415976,-0.00192834,0.0023498,-0.00044283,-0.00564528,1.00705,0.00362494,0.0369249,1931,1170,22.8952,-4.45673
714,-146,22.2098,4.99365,-0.00462909,-0.00191476,0.00233142,-0.000574256,-0.00596959,1.04898,0.00380279,0.0319902,1938,1170,22.2098,-4.99367
721,-146,22.1561,4.849,-0.00470389,-0.00173698,0.00227473,-0.000504734,-0.00593614,1.07434,0.00380037,0.0408184,1945,1170,22.1561,-4.84906
728,-146,22.2179,4.62927,-0.00408729,-0.00132397,0.00212116,-0.000174166,-0.00523709,1.07407,0.00343481,0.0282748,1952,1170,22.2179,-4.62925
735,-146,22.0903,4.58777,-0.00290409,-0.000960274,0.00201303,0.000303195,-0.00416756,1.0103,0.00288475,0.0168182,1959,1170,22.0903,-4.58773
742,-146,22.0834,4.41138,-0.000837929,-0.000946664,0.00208582,0.00119423,-0.00297882,0.772368,0.00248166,0.0164761,1966,1170,22.0834,-4.41138
749,-146,22.0815,4.2804,0.00227647,-0.00134423,0.00199701,0.00316156,-0.00222932,0.417193,0.0031279,0.0155136,1973,1170,22.0816,-4.28043
756,-146,22.0869,4.14099,0.00695917,-0.00193394,0.00186371,0.00733395,-0.00230872,0.198447,0.00581374,0.0115507,1980,1170,22.0869,-4.14099
763,-146,22.078,3.99475,0.012836,-0.0029353,0.00195341,0.0130743,-0.00317365,0.121415,0.00994435,0.0102625,1987,1170,22.078,-3.99477
770,-146,22.061,3.85291,0.0195541,-0.00484515,0.0024618,0.0198,-0.00509106,0.0995596,0.0151842,0.0112607,1994,1170,22.0611,-3.8529
777,-146,22.0204,3.74536,0.0275518,-0.00749764,0.00312204,0.0278277,-0.00777357,0.0881505,0.0216141,0.0192009,2001,1170,22.0204,-3.74542
784,-146,22.0869,3.69177,0.0371865,-0.0110215,0.00386657,0.0374946,-0.0113296,0.0795287,0.0295071,0.0385698,2008,1170,22.0869,-3.69177
791,-146,23.2098,4.35632,0.0486014,-0.0154901,0.00465067,0.0489371,-0.0158258,0.0720599,0.0389858,0.0493277,2015,1170,23.2098,-4.35634
798,-146,23.3398,4.39929,0.0620185,-0.0208636,0.00523943,0.0623484,-0.0211935,0.0628818,0.0501459,0.0467114,2022,1170,23.3399,-4.39929
805,-146,23.7512,4.2594,0,0,0,0,0,0,0,-1,2029,1170,23.7513,-4.25935
812,-146,0,0,0,0,0,0,0,0,0,-1,2036,1170,0,0
-700,-153,0,0,0,0,0,0,0,0,0,-1,524,1177,0,0
-693,-153,0,0,0,0,0,0,0,0,0,-1,531,1177,0,0
-686,-153,-12.426,-1.65344,0,0,0,0,0,0,0,-1,538,1177,-12.426,1.6534
-679,-153,-12.5435,-0.494019,0,0,0,0,0,0,0,-1,545,1177,-12.5435,0.494049
-672,-153,-15.5598,3.22754,0,0,0,0,0,0,0,-1,552,1177,-15.5598,-3.22757
-665,-153,-12.8278,0.537842,0,0,0,0,0,0,0,-1,559,1177,-12.8278,-0.537842
-658,-153,-14.061,0.807983,0,0,0,0,0,0,0,-1,566,1177,-14.061,-0.807953
-651,-153,-14.0697,0.951172,-0.00950606,0.00782812,-0.00579069,0.00958459,-0.0112625,-1.27629,0.0120491,0.0463529,573,1177,-14.0697,-0.95117
-644,-153,-14.1368,1.18884,-0.0074045,0.00527845,-0.00542491,0.00728227,-0.00940832,-1.21697,0.00966234,0.0264262,580,1177,-14.1368,-1.18883
-637,-153,-14.1393,1.36975,-0.00566494,0.00351434,-0.00471792,0.00550677,-0.00765736,-1.17121,0.00763404,0.0115598,587,1177,-14.1393,-1.36975
-630,-153,-14.1548,1.52966,-0.00430675,0.00174592,-0.00434491,0.00401458,-0.00657541,-1.08959,0.00617343,0.0104349,594,1177,-14.1549,-1.52966
-623,-153,-14.1895,1.69983,-0.00367618,0.000194037,-0.00402548,0.00272537,-0.00620751,-1.00945,0.0052864,0.00982396,601,1177,-14.1895,-1.69984
-616,-153,-14.2028,1.87524,-0.00379641,-0.000633259,-0.00359909,0.00171643,-0.00614609,-0.992416,0.00477353,0.0122876,608,1177,-14.2028,-1.87523
-609,-153,-14.1529,2.04456,-0.00364635,-0.00109924,-0.00332051,0.00118357,-0.00592916,-0.968517,0.00440067,0.0176048,615,1177,-14.1529,-2.04458
-602,-153,-14.1774,2.23096,-0.00365178,-0.00178508,-0.00343682,0.000842869,-0.00627973,-0.917988,0.00449387,0.0288888,622,1177,-14.1774,-2.23091
-595,-153,-14.3172,2.40601,-0.00407591,-0.00239175,-0.00360087,0.00046419,-0.00693185,-0.900261,0.00478348,0.0244673,629,1177,-14.3172,-2.406
-588,-153,-14.312,2.60583,-0.00448273,-0.00271524,-0.00363259,0.000139562,-0.00733753,-0.904721,0.00493887,0.0163088,636,1177,-14.312,-2.60585
-581,-153,-14.2128,2.72461,-0.00453005,-0.00293662,-0.00367576,2.77737e-05,-0.00749445,-0.892122,0.00500558,0.0238017,643,1177,-14.2128,-2.72457
-574,-153,-14.3026,2.73889,0,0,0,0,0,0,0,-1,650,1177,-14.3026,-2.73887
-567,-153,-16.1966,0.671875,0,0,0,0,0,0,0,-1,657,1177,-16.1966,-0.671884
-560,-153,-16.3877,0.823242,-0.00382372,-0.00311881,-0.0034219,-3.12633e-05,-0.00691126,-0.836718,0.00459712,0.0411383,664,1177,-16.3877,-0.82325
-553,-153,-16.3906,0.8573,-0.00320226,-0.00297825,-0.00305724,-3.09602e-05,-0.00614955,-0.803708,0.00408942,0.040009,671,1177,-16.3906,-0.857251
-546,-153,-16.4338,0.832886,-0.00222749,-0.00287805,-0.00251634,-1.54949e-05,-0.00509004,-0.72112,0.00338821,0.0402243,678,1177,-16.4338,-0.832867
-539,-153,-16.5736,0.9552,-0.000956623,-0.00297936,-0.00180412,0.00010027,-0.00403625,-0.52993,0.00272487,0.0418952,685,1177,-16.5736,-0.95517
-532,-153,-16.6686,1.14026,0.000849296,-0.00356538,-0.000969482,0.00105282,-0.0037689,-0.206922,0.00292734,0.0425639,692,1177,-16.6686,-1.14029
-525,-153,-16.5223,0.974365,0.00248035,-0.00536358,-0.000833008,0.00256783,-0.00545107,-0.104643,0.00472842,0.0402184,699,1177,-16.5223,-0.974328
-518,-153,0,0,0,0,0,0,0,0,0,-1,706,1177,0,0
-511,-153,0,0,0,0,0,0,0,0,0,-1,713,1177,0,0
-504,-153,0,0,0,0,0,0,0,0,0,-1,720,1177,0,0
-497,-153,0,0,0,0,0,0,0,0,0,-1,727,1177,0,0
-490,-153,0,0,0,0,0,0,0,0,0,-1,734,1177,0,0
-483,-153,0,0,0,0,0,0,0,0,0,-1,741,1177,0,0
-476,-153,0,0,0,0,0,0,0,0,0,-1,748,1177,0,0
-469,-153,0,0,0,0,0,0,0,0,0,-1,755,1177,0,0
-462,-153,0,0,0,0,0,0,0,0,0,-1,762,1177,0,0
-455,-153,0,0,0,0,0,0,0,0,0,-1,769,1177,0,0
-448,-153,0,0,0,0,0,0,0,0,0,-1,776,1177,0,0
-441,-153,0,0,0,0,0,0,0,0,0,-1,783,1177,0,0
-434,-153,0,0,0,0,0,0,0,0,0,-1,790,1177,0,0
-427,-153,0,0,0,0,0,0,0,0,0,-1,797,1177,0,0
-420,-153,0,0,0,0,0,0,0,0,0,-1,804,1177,0,0
-413,-153,0,0,0,0,0,0,0,0,0,-1,811,1177,0,0
-406,-153,0,0,0,0,0,0,0,0,0,-1,818,1177,0,0
-399,-153,0,0,0,0,0,0,0,0,0,-1,825,1177,0,0
-392,-153,0,0,0,0,0,0,0,0,0,-1,832,1177,0,0
-385,-153,0,0,0,0,0,0,0,0,0,-1,839,1177,0,0
-378,-153,0,0,0,0,0,0,0,0,0,-1,846,1177,0,0
-371,-153,0,0,0,0,0,0,0,0,0,-1,853,1177,0,0
-364,-153,0,0,0,0,0,0,0,0,0,-1,860,1177,0,0
-357,-153,0,0,0,0,0,0,0,0,0,-1,867,1177,0,0
-350,-153,0,0,0,0,0,0,0,0,0,-1,874,1177,0,0
-343,-153,0,0,0,0,0,0,0,0,0,-1,881,1177,0,0
-336,-153,0,0,0,0,0,0,0,0,0,-1,888,1177,0,0
-329,-153,0,0,0,0,0,0,0,0,0,-1,895,1177,0,0
-322,-153,0,0,0,0,0,0,0,0,0,-1,902,1177,0,0
-315,-153,0,0,0,0,0,0,0,0,0,-1,909,1177,0,0
-308,-153,0,0,0,0,0,0,0,0,0,-1,916,1177,0,0
-301,-153,0,0,0,0,0,0,0,0,0,-1,923,1177,0,0
-294,-153,0,0,0,0,0,0,0,0,0,-1,930,1177,0,0
-287,-153,0,0,0,0,0,0,0,0,0,-1,937,1177,0,0
-280,-153,0,0,0,0,0,0,0,0,0,-1,944,1177,0,0
-273,-153,0,0,0,0,0,0,0,0,0,-1,951,1177,0,0
-266,-153,0,0,0,0,0,0,0,0,0,-1,958,1177,0,0
-259,-153,0,0,0,0,0,0,0,0,0,-1,965,1177,0,0
-252,-153,0,0,0,0,0,0,0,0,0,-1,972,1177,0,0
-245,-153,0,0,0,0,0,0,0,0,0,-1,979,1177,0,0
-238,-153,0,0,0,0,0,0,0,0,0,-1,986,1177,0,0
-231,-153,0,0,0,0,0,0,0,0,0,-1,993,1177,0,0
-224,-153,0,0,0,0,0,0,0,0,0,-1,1000,1177,0,0
-217,-153,0,0,0,0,0,0,0,0,0,-1,1007,1177,0,0
-210,-153,0,0,0,0,0,0,0,0,0,-1,1014,1177,0,0
-203,-153,0,0,0,0,0,0,0,0,0,-1,1021,1177,0,0
-196,-153,0,0,0,0,0,0,0,0,0,-1,1028,1177,0,0
-189,-153,0,0,0,0,0,0,0,0,0,-1,1035,1177,0,0
-182,-153,0,0,0,0,0,0,0,0,0,-1,1042,1177,0,0
-175,-153,0,0,0,0,0,0,0,0,0,-1,1049,1177,0,0
-168,-153,0,0,0,0,0,0,0,0,0,-1,1056,1177,0,0
-161,-153,0,0,0,0,0,0,0,0,0,-1,1063,1177,0,0
-154,-153,0,0,0,0,0,0,0,0,0,-1,1070,1177,0,0
-147,-153,0,0,0,0,0,0,0,0,0,-1,1077,1177,0,0
-140,-153,0,0,0,0,0,0,0,0,0,-1,1084,1177,0,0
-133,-153,0,0,0,0,0,0,0,0,0,-1,1091,1177,0,0
-126,-153,0,0,0,0,0,0,0,0,0,-1,1098,1177,0,0
-119,-153,0,0,0,0,0,0,0,0,0,-1,1105,1177,0,0
-112,-153,0,0,0,0,0,0,0,0,0,-1,1112,1177,0,0
-105,-153,0,0,0,0,0,0,0,0,0,-1,1119,1177,0,0
-98,-153,0,0,0,0,0,0,0,0,0,-1,1126,1177,0,0
-91,-153,0,0,0,0,0,0,0,0,0,-1,1133,1177,0,0
-84,-153,0,0,0,0,0,0,0,0,0,-1,1140,1177,0,0
-77,-153,0,0,0,0,0,0,0,0,0,-1,1147,1177,0,0
-70,-153,0,0,0,0,0,0,0,0,0,-1,1154,1177,0,0
-63,-153,0,0,0,0,0,0,0,0,0,-1,1161,1177,0,0
-56,-153,0,0,0,0,0,0,0,0,0,-1,1168,1177,0,0
-49,-153,0,0,0,0,0,0,0,0,0,-1,1175,1177,0,0
-42,-153,0,0,0,0,0,0,0,0,0,-1,1182,1177,0,0
-35,-153,0,0,0,0,0,0,0,0,0,-1,1189,1177,0,0
-28,-153,0,0,0,0,0,0,0,0,0,-1,1196,1177,0,0
-21,-153,0,0,0,0,0,0,0,0,0,-1,1203,1177,0,0
-14,-153,0,0,0,0,0,0,0,0,0,-1,1210,1177,0,0
-7,-153,0,0,0,0,0,0,0,0,0,-1,1217,1177,0,0
0,-153,0,0,0,0,0,0,0,0,0,-1,1224,1177,0,0
7,-153,0,0,0,0,0,0,0,0,0,-1,1231,1177,0,0
14,-153,0,0,0,0,0,0,0,0,0,-1,1238,1177,0,0
21,-153,0,0,0,0,0,0,0,0,0,-1,1245,1177,0,0
28,-153,0,0,0,0,0,0,0,0,0,-1,1252,1177,0,0
35,-153,0,0,0,0,0,0,0,0,0,-1,1259,1177,0,0
42,-153,0,0,0,0,0,0,0,0,0,-1,1266,1177,0,0
49,-153,0,0,0,0,0,0,0,0,0,-1,1273,1177,0,0
56,-153,0,0,0,0,0,0,0,0,0,-1,1280,1177,0,0
63,-153,0,0,0,0,0,0,0,0,0,-1,1287,1177,0,0
70,-153,0,0,0,0,0,0,0,0,0,-1,1294,1177,0,0
77,-153,0,0,0,0,0,0,0,0,0,-1,1301,1177,0,0
84,-153,0,0,0,0,0,0,0,0,0,-1,1308,1177,0,0
91,-153,0,0,0,0,0,0,0,0,0,-1,1315,1177,0,0
98,-153,0,0,0,0,0,0,0,0,0,-1,1322,1177,0,0
105,-153,0,0,0,0,0,0,0,0,0,-1,1329,1177,0,0
112,-153,0,0,0,0,0,0,0,0,0,-1,1336,1177,0,0
119,-153,0,0,0,0,0,0,0,0,0,-1,1343,1177,0,0
126,-153,0,0,0,0,0,0,0,0,0,-1,1350,1177,0,0
133,-153,0,0,0,0,0,0,0,0,0,-1,1357,1177,0,0
140,-153,0,0,0,0,0,0,0,0,0,-1,1364,1177,0,0
147,-153,0,0,0,0,0,0,0,0,0,-1,1371,1177,0,0
154,-153,0,0,0,0,0,0,0,0,0,-1,1378,1177,0,0
161,-153,0,0,0,0,0,0,0,0,0,-1,1385,1177,0,0
168,-153,0,0,0,0,0,0,0,0,0,-1,1392,1177,0,0
175,-153,0,0,0,0,0,0,0,0,0,-1,1399,1177,0,0
182,-153,0,0,0,0,0,0,0,0,0,-1,1406,1177,0,0
189,-153,0,0,0,0,0,0,0,0,0,-1,1413,1177,0,0
196,-153,0,0,0,0,0,0,0,0,0,-1,1420,1177,0,0
203,-153,0,0,0,0,0,0,0,0,0,-1,1427,1177,0,0
210,-153,0,0,0,0,0,0,0,0,0,-1,1434,1177,0,0
217,-153,0,0,0,0,0,0,0,0,0,-1,1441,1177,0,0
224,-153,0,0,0,0,0,0,0,0,0,-1,1448,1177,0,0
231,-153,0,0,0,0,0,0,0,0,0,-1,1455,1177,0,0
238,-153,0,0,0,0,0,0,0,0,0,-1,1462,1177,0,0
245,-153,0,0,0,0,0,0,0,0,0,-1,1469,1177,0,0
252,-153,0,0,0,0,0,0,0,0,0,-1,1476,1177,0,0
259,-153,0,0,0,0,0,0,0,0,0,-1,1483,1177,0,0
266,-153,0,0,0,0,0,0,0,0,0,-1,1490,1177,0,0
273,-153,0,0,0,0,0,0,0,0,0,-1,1497,1177,0,0
280,-153,0,0,0,0,0,0,0,0,0,-1,1504,1177,0,0
287,-153,0,0,0,0,0,0,0,0,0,-1,1511,1177,0,0
294,-153,0,0,0,0,0,0,0,0,0,-1,1518,1177,0,0
301,-153,0,0,0,0,0,0,0,0,0,-1,1525,1177,0,0
308,-153,0,0,0,0,0,0,0,0,0,-1,1532,1177,0,0
315,-153,0,0,0,0,0,0,0,0,0,-1,1539,1177,0,0
322,-153,0,0,0,0,0,0,0,0,0,-1,1546,1177,0,0
329,-153,0,0,0,0,0,0,0,0,0,-1,1553,1177,0,0
336,-153,0,0,0,0,0,0,0,0,0,-1,1560,1177,0,0
343,-153,0,0,0,0,0,0,0,0,0,-1,1567,1177,0,0
350,-153,0,0,0,0,0,0,0,0,0,-1,1574,1177,0,0
357,-153,0,0,0,0,0,0,0,0,0,-1,1581,1177,0,0
364,-153,0,0,0,0,0,0,0,0,0,-1,1588,1177,0,0
371,-153,0,0,0,0,0,0,0,0,0,-1,1595,1177,0,0
378,-153,0,0,0,0,0,0,0,0,0,-1,1602,1177,0,0
385,-153,0,0,0,0,0,0,0,0,0,-1,1609,1177,0,0
392,-153,0,0,0,0,0,0,0,0,0,-1,1616,1177,0,0
399,-153,0,0,0,0,0,0,0,0,0,-1,1623,1177,0,0
406,-153,0,0,0,0,0,0,0,0,0,-1,1630,1177,0,0
413,-153,0,0,0,0,0,0,0,0,0,-1,1637,1177,0,0
420,-153,0,0,0,0,0,0,0,0,0,-1,1644,1177,0,0
427,-153,0,0,0,0,0,0,0,0,0,-1,1651,1177,0,0
434,-153,0,0,0,0,0,0,0,0,0,-1,1658,1177,0,0
441,-153,0,0,0,0,0,0,0,0,0,-1,1665,1177,0,0
448,-153,0,0,0,0,0,0,0,0,0,-1,1672,1177,0,0
455,-153,0,0,0,0,0,0,0,0,0,-1,1679,1177,0,0
462,-153,0,0,0,0,0,0,0,0,0,-1,1686,1177,0,0
469,-153,0,0,0,0,0,0,0,0,0,-1,1693,1177,0,0
476,-153,0,0,0,0,0,0,0,0,0,-1,1700,1177,0,0
483,-153,0,0,0,0,0,0,0,0,0,-1,1707,1177,0,0
490,-153,0,0,0,0,0,0,0,0,0,-1,1714,1177,0,0
497,-153,0,0,0,0,0,0,0,0,0,-1,1721,1177,0,0
504,-153,0,0,0,0,0,0,0,0,0,-1,1728,1177,0,0
511,-153,0,0,0,0,0,0,0,0,0,-1,1735,1177,0,0
518,-153,0,0,0,0,0,0,0,0,0,-1,1742,1177,0,0
525,-153,0,0,0,0,0,0,0,0,0,-1,1749,1177,0,0
532,-153,0,0,0,0,0,0,0,0,0,-1,1756,1177,0,0
539,-153,0,0,0,0,0,0,0,0,0,-1,1763,1177,0,0
546,-153,0,0,0,0,0,0,0,0,0,-1,1770,1177,0,0
553,-153,0,0,0,0,0,0,0,0,0,-1,1777,1177,0,0
560,-153,0,0,0,0,0,0,0,0,0,-1,1784,1177,0,0
567,-153,0,0,0,0,0,0,0,0,0,-1,1791,1177,0,0
574,-153,0,0,0,0,0,0,0,0,0,-1,1798,1177,0,0
581,-153,0,0,0,0,0,0,0,0,0,-1,1805,1177,0,0
588,-153,0,0,0,0,0,0,0,0,0,-1,1812,1177,0,0
595,-153,0,0,0,0,0,0,0,0,0,-1,1819,1177,0,0
602,-153,0,0,0,0,0,0,0,0,0,-1,1826,1177,0,0
609,-153,0,0,0,0,0,0,0,0,0,-1,1833,1177,0,0
616,-153,0,0,0,0,0,0,0,0,0,-1,1840,1177,0,0
623,-153,0,0,0,0,0,0,0,0,0,-1,1847,1177,0,0
630,-153,0,0,0,0,0,0,0,0,0,-1,1854,1177,0,0
637,-153,24.1163,2.67175,0.0010648,0.000571883,0.000954625,0.00180427,-0.000167587,0.659071,0.00126242,0.0396542,1861,1177,24.1164,-2.67171
644,-153,24.1221,2.70642,0.00136493,0.000799806,0.000839124,0.00196779,0.000196945,0.622995,0.00125139,0.0390604,1868,1177,24.1221,-2.70642
651,-153,24.1301,2.7085,0.00118389,0.000748321,0.000827562,0.00182185,0.000110368,0.656733,0.0011795,0.030713,1875,1177,24.1301,-2.70852
658,-153,24.1057,2.69983,0.000871055,0.00041183,0.000931778,0.00160109,-0.00031821,0.664593,0.00118776,0.0344204,1882,1177,24.1057,-2.69988
665,-153,24.1062,2.72595,7.19541e-05,-0.000201181,0.00128941,0.00123201,-0.00136124,0.732638,0.00149783,0.0386622,1889,1177,24.1063,-2.72596
672,-153,24.1576,2.81201,-0.000855944,-0.000842089,0.00161011,0.000761107,-0.00245914,0.787549,0.00194346,0.0372916,1896,1177,24.1576,-2.81206
679,-153,24.0209,2.75391,-0.00185758,-0.00139818,0.00195851,0.000344052,-0.00359981,0.843773,0.00252239,0.0283311,1903,1177,24.0209,-2.75392
686,-153,24.042,2.77527,-0.0027539,-0.00180134,0.00221488,-1.21079e-05,-0.00454313,0.891304,0.00302473,0.0170458,1910,1177,24.042,-2.77523
693,-153,24.0967,2.68054,-0.00340066,-0.00201373,0.00238737,-0.000221144,-0.00519324,0.926744,0.00339085,0.0249592,1917,1177,24.0966,-2.68055
700,-153,24.1241,2.50208,0,0,0,0,0,0,0,-1,1924,1177,24.1242,-2.50202
707,-153,21.9574,5.20374,0,0,0,0,0,0,0,-1,1931,1177,21.9574,-5.20377
714,-153,22.1053,4.89197,-0.00454108,-0.00218533,0.00243802,-0.000655569,-0.00607085,1.01043,0.00384737,0.0331402,1938,1177,22.1054,-4.89193
721,-153,22.0938,4.76758,-0.0045301,-0.00197698,0.00233255,-0.00059452,-0.00591256,1.03577,0.00375924,0.0260506,1945,1177,22.0937,-4.76759
728,-153,22.1224,4.65613,-0.00375426,-0.00147901,0.00209762,-0.000230378,-0.00500289,1.03387,0.00326118,0.0312384,1952,1177,22.1224,-4.65617
735,-153,21.9458,4.55945,-0.00242232,-0.00108082,0.00193747,0.000298721,-0.00380186,0.95204,0.00263979,0.0161327,1959,1177,21.9458,-4.55951
742,-153,21.9572,4.41199,-0.000147065,-0.000938819,0.0019992,0.00149507,-0.00258096,0.687654,0.00238097,0.0141209,1966,1177,21.9571,-4.41203
749,-153,21.9465,4.25964,0.0032764,-0.00118371,0.00196642,0.00401955,-0.00192686,0.36133,0.00350331,0.0149433,1973,1177,21.9465,-4.25967
756,-153,21.9503,4.13,0.00829093,-0.00160106,0.00189942,0.00864311,-0.00195324,0.183333,0.00651154,0.0104013,1980,1177,21.9503,-4.13001
763,-153,21.9469,3.97864,0.0142928,-0.0024097,0.00214994,0.0145651,-0.002682,0.125984,0.0107165,0.010166,1987,1177,21.9469,-3.97865
770,-153,21.9338,3.83545,0.0212546,-0.00401663,0.00286475,0.0215753,-0.00433731,0.111476,0.0160262,0.0102834,1994,1177,21.9339,-3.83546
777,-153,21.9303,3.73828,0.0295715,-0.00629131,0.00384356,0.0299789,-0.00669861,0.105576,0.0225528,0.0220507,2001,1177,21.9303,-3.73834
784,-153,22.0177,3.68665,0.039522,-0.00933649,0.00510909,0.0400505,-0.00986503,0.103083,0.0305248,0.0451141,2008,1177,22.0177,-3.68662
791,-153,22.939,4.43042,0.0511289,-0.0131597,0.00664722,0.051809,-0.0138398,0.101959,0.0399596,0.0476313,2015,1177,22.9389,-4.43038
798,-153,23.2621,4.57922,0.0645467,-0.0176665,0.00827844,0.065372,-0.0184918,0.0993657,0.0508781,0.0463894,2022,1177,23.262,-4.57917
805,-153,23.9436,4.45483,0.0794785,-0.0226749,0.00989094,0.0804273,-0.0236238,0.0956406,0.0629872,0.0448108,2029,1177,23.9436,-4.45489
812,-153,0,0,0,0,0,0,0,0,0,-1,2036,1177,0,0
-700,-160,0,0,0,0,0,0,0,0,0,-1,524,1184,0,0
-693,-160,0,0,0,0,0,0,0,0,0,-1,531,1184,0,0
-686,-160,-11.7988,-1.38916,0,0,0,0,0,0,0,-1,538,1184,-11.7988,1.38917
-679,-160,-12.2464,-0.316284,-0.0302116,0.0412526,0.00786676,0.0421083,-0.0310673,1.46245,0.042408,0.0480624,545,1184,-12.2464,0.31627
-672,-160,-12.2797,-0.0750732,0,0,0,0,0,0,0,-1,552,1184,-12.2797,0.0750995
-665,-160,-12.8098,0.337036,0,0,0,0,0,0,0,-1,559,1184,-12.8098,-0.33701
-658,-160,-13.8672,1.55957,0,0,0,0,0,0,0,-1,566,1184,-13.8672,-1.55961
-651,-160,-13.8135,0.852295,0,0,0,0,0,0,0,-1,573,1184,-13.8136,-0.852279
-644,-160,-13.9083,1.14246,-0.0103686,0.00819559,-0.00367716,0.00889742,-0.0110704,-1.3822,0.0115512,0.0360107,580,1184,-13.9083,-1.14248
-637,-160,-13.9403,1.35901,-0.00780334,0.00563327,-0.00348092,0.00648149,-0.00865157,-1.33178,0.00876697,0.0141394,587,1184,-13.9403,-1.35902
-630,-160,-13.986,1.49841,-0.00575689,0.00322586,-0.00346216,0.00440538,-0.00693641,-1.24244,0.00660231,0.00834733,594,1184,-13.986,-1.49835
-623,-160,-14.0143,1.65857,-0.00455598,0.00128215,-0.00336307,0.00281631,-0.00609014,-1.14282,0.00525666,0.0103116,601,1184,-14.0143,-1.65857
-616,-160,-14.0264,1.84387,-0.00429955,9.99116e-05,-0.00310971,0.00170927,-0.0059089,-1.09323,0.00461575,0.00936063,608,1184,-14.0264,-1.84382
-609,-160,-14.0104,2.06836,-0.00398063,-0.000728229,-0.00298365,0.00104361,-0.00575247,-1.03491,0.00422603,0.0121776,615,1184,-14.0104,-2.06841
-602,-160,-14.0007,2.29199,-0.00391559,-0.00165631,-0.00315722,0.000567276,-0.00613918,-0.9572,0.00429438,0.0206092,622,1184,-14.0007,-2.29197
-595,-160,-14.0048,2.48901,-0.00434342,-0.00231832,-0.00338098,0.000198471,-0.00686021,-0.93089,0.00464105,0.0255612,629,1184,-14.0048,-2.48903
-588,-160,-14.1136,2.6239,-0.00477449,-0.00265282,-0.00344948,-0.00010474,-0.00732257,-0.934575,0.00484718,0.0255308,636,1184,-14.1136,-2.62395
-581,-160,-14.0235,2.81738,-0.00478984,-0.00291598,-0.00352489,-0.000205621,-0.0075002,-0.915297,0.00493302,0.0193306,643,1184,-14.0235,-2.81743
-574,-160,-14.5433,2.28186,-0.00455467,-0.00297961,-0.00361839,-6.40408e-05,-0.00747023,-0.892551,0.00495895,0.0485781,650,1184,-14.5434,-2.28186
-567,-160,-15.1473,1.69409,0,0,0,0,0,0,0,-1,657,1184,-15.1473,-1.69412
-560,-160,-16.3189,0.685669,-0.00409334,-0.00315682,-0.00332474,-0.000267521,-0.00698263,-0.855359,0.00456853,0.0397,664,1184,-16.3189,-0.685701
-553,-160,-16.3456,0.835571,-0.00347815,-0.0030432,-0.00299881,-0.000253992,-0.00626736,-0.821595,0.0040962,0.0389875,671,1184,-16.3456,-0.835515
-546,-160,-16.349,0.78894,-0.00246397,-0.00298543,-0.00249305,-0.000218055,-0.00523134,-0.733296,0.00341719,0.0390298,678,1184,-16.349,-0.788993
-539,-160,-16.4558,0.865601,-0.00110072,-0.00314669,-0.0018156,-3.97442e-05,-0.00420767,-0.528846,0.00279196,0.0426768,685,1184,-16.4558,-0.865637
-532,-160,-16.4985,0.903564,0.000873955,-0.00382307,-0.000995007,0.00107604,-0.00402516,-0.200374,0.00310491,0.0433282,692,1184,-16.4986,-0.903571
-525,-160,-16.3353,0.883057,0.0030995,-0.00574612,-0.0006386,0.00314537,-0.00579199,-0.0716983,0.00523486,0.0420378,699,1184,-16.3353,-0.88303
-518,-160,-16.183,0.7146,0.0037845,-0.0112802,-0.00202222,0.00405124,-0.0115469,-0.131144,0.00934576,0.0439295,706,1184,-16.183,-0.714659
-511,-160,0,0,0,0,0,0,0,0,0,-1,713,1184,0,0
-504,-160,0,0,0,0,0,0,0,0,0,-1,720,1184,0,0
-497,-160,0,0,0,0,0,0,0,0,0,-1,727,1184,0,0
-490,-160,0,0,0,0,0,0,0,0,0,-1,734,1184,0,0
-483,-160,0,0,0,0,0,0,0,0,0,-1,741,1184,0,0
-476,-160,0,0,0,0,0,0,0,0,0,-1,748,1184,0,0
-469,-160,0,0,0,0,0,0,0,0,0,-1,755,1184,0,0
-462,-160,0,0,0,0,0,0,0,0,0,-1,762,1184,0,0
-455,-160,0,0,0,0,0,0,0,0,0,-1,769,1184,0,0
-448,-160,0,0,0,0,0,0,0,0,0,-1,776,1184,0,0
-441,-160,0,0,0,0,0,0,0,0,0,-1,783,1184,0,0
-434,-160,0,0,0,0,0,0,0,0,0,-1,790,1184,0,0
-427,-160,0,0,0,0,0,0,0,0,0,-1,797,1184,0,0
-420,-160,0,0,0,0,0,0,0,0,0,-1,804,1184,0,0
-413,-160,0,0,0,0,0,0,0,0,0,-1,811,1184,0,0
-406,-160,0,0,0,0,0,0,0,0,0,-1,818,1184,0,0
-399,-160,0,0,0,0,0,0,0,0,0,-1,825,1184,0,0
-392,-160,0,0,0,0,0,0,0,0,0,-1,832,1184,0,0
-385,-160,0,0,0,0,0,0,0,0,0,-1,839,1184,0,0
-378,-160,0,0,0,0,0,0,0,0,0,-1,846,1184,0,0
-371,-160,0,0,0,0,0,0,0,0,0,-1,853,1184,0,0
-364,-160,0,0,0,0,0,0,0,0,0,-1,860,1184,0,0
-357,-160,0,0,0,0,0,0,0,0,0,-1,867,1184,0,0
-350,-160,0,0,0,0,0,0,0,0,0,-1,874,1184,0,0
-343,-160,0,0,0,0,0,0,0,0,0,-1,881,1184,0,0
-336,-160,0,0,0,0,0,0,0,0,0,-1,888,1184,0,0
-329,-160,0,0,0,0,0,0,0,0,0,-1,895,1184,0,0
-322,-160,0,0,0,0,0,0,0,0,0,-1,902,1184,0,0
-315,-160,0,0,0,0,0,0,0,0,0,-1,909,1184,0,0
-308,-160,0,0,0,0,0,0,0,0,0,-1,916,1184,0,0
-301,-160,0,0,0,0,0,0,0,0,0,-1,923,1184,0,0
-294,-160,0,0,0,0,0,0,0,0,0,-1,930,1184,0,0
-287,-160,0,0,0,0,0,0,0,0,0,-1,937,1184,0,0
-280,-160,0,0,0,0,0,0,0,0,0,-1,944,1184,0,0
-273,-160,0,0,0,0,0,0,0,0,0,-1,951,1184,0,0
-266,-160,0,0,0,0,0,0,0,0,0,-1,958,1184,0,0
-259,-160,0,0,0,0,0,0,0,0,0,-1,965,1184,0,0
-252,-160,0,0,0,0,0,0,0,0,0,-1,972,1184,0,0
-245,-160,0,0,0,0,0,0,0,0,0,-1,979,1184,0,0
-238,-160,0,0,0,0,0,0,0,0,0,-1,986,1184,0,0
-231,-160,0,0,0,0,0,0,0,0,0,-1,993,1184,0,0
-224,-160,0,0,0,0,0,0,0,0,0,-1,1000,1184,0,0
-217,-160,0,0,0,0,0,0,0,0,0,-1,1007,1184,0,0
-210,-160,0,0,0,0,0,0,0,0,0,-1,1014,1184,0,0
-203,-160,0,0,0,0,0,0,0,0,0,-1,1021,1184,0,0
-196,-160,0,0,0,0,0,0,0,0,0,-1,1028,1184,0,0
-189,-160,0,0,0,0,0,0,0,0,0,-1,1035,1184,0,0
-182,-160,0,0,0,0,0,0,0,0,0,-1,1042,1184,0,0
-175,-160,0,0,0,0,0,0,0,0,0,-1,1049,1184,0,0
-168,-160,0,0,0,0,0,0,0,0,0,-1,1056,1184,0,0
-161,-160,0,0,0,0,0,0,0,0,0,-1,1063,1184,0,0
-154,-160,0,0,0,0,0,0,0,0,0,-1,1070,1184,0,0
-147,-160,0,0,0,0,0,0,0,0,0,-1,1077,1184,0,0
-140,-160,0,0,0,0,0,0,0,0,0,-1,1084,1184,0,0
-133,-160,0,0,0,0,0,0,0,0,0,-1,1091,1184,0,0
-126,-160,0,0,0,0,0,0,0,0,0,-1,1098,1184,0,0
-119,-160,0,0,0,0,0,0,0,0,0,-1,1105,1184,0,0
-112,-160,0,0,0,0,0,0,0,0,0,-1,1112,1184,0,0
-105,-160,0,0,0,0,0,0,0,0,0,-1,1119,1184,0,0
-98,-160,0,0,0,0,0,0,0,0,0,-1,1126,1184,0,0
-91,-160,0,0,0,0,0,0,0,0,0,-1,1133,1184,0,0
-84,-160,0,0,0,0,0,0,0,0,0,-1,1140,1184,0,0
-77,-160,0,0,0,0,0,0,0,0,0,-1,1147,1184,0,0
-70,-160,0,0,0,0,0,0,0,0,0,-1,1154,1184,0,0
-63,-160,0,0,0,0,0,0,0,0,0,-1,1161,1184,0,0
-56,-160,0,0,0,0,0,0,0,0,0,-1,1168,1184,0,0
-49,-160,0,0,0,0,0,0,0,0,0,-1,1175,1184,0,0
-42,-160,0,0,0,0,0,0,0,0,0,-1,1182,1184,0,0
-35,-160,0,0,0,0,0,0,0,0,0,-1,1189,1184,0,0
-28,-160,0,0,0,0,0,0,0,0,0,-1,1196,1184,0,0
-21,-160,0,0,0,0,0,0,0,0,0,-1,1203,1184,0,0
-14,-160,0,0,0,0,0,0,0,0,0,-1,1210,1184,0,0
-7,-160,0,0,0,0,0,0,0,0,0,-1,1217,1184,0,0
0,-160,0,0,0,0,0,0,0,0,0,-1,1224,1184,0,0
7,-160,0,0,0,0,0,0,0,0,0,-1,1231,1184,0,0
14,-160,0,0,0,0,0,0,0,0,0,-1,1238,1184,0,0
21,-160,0,0,0,0,0,0,0,0,0,-1,1245,1184,0,0
28,-160,0,0,0,0,0,0,0,0,0,-1,1252,1184,0,0
35,-160,0,0,0,0,0,0,0,0,0,-1,1259,1184,0,0
42,-160,0,0,0,0,0,0,0,0,0,-1,1266,1184,0,0
49,-160,0,0,0,0,0,0,0,0,0,-1,1273,1184,0,0
56,-160,0,0,0,0,0,0,0,0,0,-1,1280,1184,0,0
63,-160,0,0,0,0,0,0,0,0,0,-1,1287,1184,0,0
70,-160,0,0,0,0,0,0,0,0,0,-1,1294,1184,0,0
77,-160,0,0,0,0,0,0,0,0,0,-1,1301,1184,0,0
84,-160,0,0,0,0,0,0,0,0,0,-1,1308,1184,0,0
91,-160,0,0,0,0,0,0,0,0,0,-1,1315,1184,0,0
98,-160,0,0,0,0,0,0,0,0,0,-1,1322,1184,0,0
105,-160,0,0,0,0,0,0,0,0,0,-1,1329,1184,0,0
112,-160,0,0,0,0,0,0,0,0,0,-1,1336,1184,0,0
119,-160,0,0,0,0,0,0,0,0,0,-1,1343,1184,0,0
126,-160,0,0,0,0,0,0,0,0,0,-1,1350,1184,0,0
133,-160,0,0,0,0,0,0,0,0,0,-1,1357,1184,0,0
140,-160,0,0,0,0,0,0,0,0,0,-1,1364,1184,0,0
147,-160,0,0,0,0,0,0,0,0,0,-1,1371,1184,0,0
154,-160,0,0,0,0,0,0,0,0,0,-1,1378,1184,0,0
161,-160,0,0,0,0,0,0,0,0,0,-1,1385,1184,0,0
168,-160,0,0,0,0,0,0,0,0,0,-1,1392,1184,0,0
175,-160,0,0,0,0,0,0,0,0,0,-1,1399,1184,0,0
182,-160,0,0,0,0,0,0,0,0,0,-1,1406,1184,0,0
189,-160,0,0,0,0,0,0,0,0,0,-1,1413,1184,0,0
196,-160,0,0,0,0,0,0,0,0,0,-1,1420,1184,0,0
203,-160,0,0,0,0,0,0,0,0,0,-1,1427,1184,0,0
210,-160,0,0,0,0,0,0,0,0,0,-1,1434,1184,0,0
217,-160,0,0,0,0,0,0,0,0,0,-1,1441,1184,0,0
224,-160,0,0,0,0,0,0,0,0,0,-1,1448,1184,0,0
231,-160,0,0,0,0,0,0,0,0,0,-1,1455,1184,0,0
238,-160,0,0,0,0,0,0,0,0,0,-1,1462,1184,0,0
245,-160,0,0,0,0,0,0,0,0,0,-1,1469,1184,0,0
252,-160,0,0,0,0,0,0,0,0,0,-1,1476,1184,0,0
259,-160,0,0,0,0,0,0,0,0,0,-1,1483,1184,0,0
266,-160,0,0,0,0,0,0,0,0,0,-1,1490,1184,0,0
273,-160,0,0,0,0,0,0,0,0,0,-1,1497,1184,0,0
280,-160,0,0,0,0,0,0,0,0,0,-1,1504,1184,0,0
287,-160,0,0,0,0,0,0,0,0,0,-1,1511,1184,0,0
294,-160,0,0,0,0,0,0,0,0,0,-1,1518,1184,0,0
301,-160,0,0,0,0,0,0,0,0,0,-1,1525,1184,0,0
308,-160,0,0,0,0,0,0,0,0,0,-1,1532,1184,0,0
315,-160,0,0,0,0,0,0,0,0,0,-1,1539,1184,0,0
322,-160,0,0,0,0,0,0,0,0,0,-1,1546,1184,0,0
329,-160,0,0,0,0,0,0,0,0,0,-1,1553,1184,0,0
336,-160,0,0,0,0,0,0,0,0,0,-1,1560,1184,0,0
343,-160,0,0,0,0,0,0,0,0,0,-1,1567,1184,0,0
350,-160,0,0,0,0,0,0,0,0,0,-1,1574,1184,0,0
357,-160,0,0,0,0,0,0,0,0,0,-1,1581,1184,0,0
364,-160,0,0,0,0,0,0,0,0,0,-1,1588,1184,0,0
371,-160,0,0,0,0,0,0,0,0,0,-1,1595,1184,0,0
378,-160,0,0,0,0,0,0,0,0,0,-1,1602,1184,0,0
385,-160,0,0,0,0,0,0,0,0,0,-1,1609,1184,0,0
392,-160,0,0,0,0,0,0,0,0,0,-1,1616,1184,0,0
399,-160,0,0,0,0,0,0,0,0,0,-1,1623,1184,0,0
406,-160,0,0,0,0,0,0,0,0,0,-1,1630,1184,0,0
413,-160,0,0,0,0,0,0,0,0,0,-1,1637,1184,0,0
420,-160,0,0,0,0,0,0,0,0,0,-1,1644,1184,0,0
427,-160,0,0,0,0,0,0,0,0,0,-1,1651,1184,0,0
434,-160,0,0,0,0,0,0,0,0,0,-1,1658,1184,0,0
441,-160,0,0,0,0,0,0,0,0,0,-1,1665,1184,0,0
448,-160,0,0,0,0,0,0,0,0,0,-1,1672,1184,0,0
455,-160,0,0,0,0,0,0,0,0,0,-1,1679,1184,0,0
462,-160,0,0,0,0,0,0,0,0,0,-1,1686,1184,0,0
469,-160,0,0,0,0,0,0,0,0,0,-1,1693,1184,0,0
476,-160,0,0,0,0,0,0,0,0,0,-1,1700,1184,0,0
483,-160,0,0,0,0,0,0,0,0,0,-1,1707,1184,0,0
490,-160,0,0,0,0,0,0,0,0,0,-1,1714,1184,0,0
497,-160,0,0,0,0,0,0,0,0,0,-1,1721,1184,0,0
504,-160,0,0,0,0,0,0,0,0,0,-1,1728,1184,0,0
511,-160,0,0,0,0,0,0,0,0,0,-1,1735,1184,0,0
518,-160,0,0,0,0,0,0,0,0,0,-1,1742,1184,0,0
525,-160,0,0,0,0,0,0,0,0,0,-1,1749,1184,0,0
532,-160,0,0,0,0,0,0,0,0,0,-1,1756,1184,0,0
539,-160,0,0,0,0,0,0,0,0,0,-1,1763,1184,0,0
546,-160,0,0,0,0,0,0,0,0,0,-1,1770,1184,0,0
553,-160,0,0,0,0,0,0,0,0,0,-1,1777,1184,0,0
560,-160,0,0,0,0,0,0,0,0,0,-1,1784,1184,0,0
567,-160,0,0,0,0,0,0,0,0,0,-1,1791,1184,0,0
574,-160,0,0,0,0,0,0,0,0,0,-1,1798,1184,0,0
581,-160,0,0,0,0,0,0,0,0,0,-1,1805,1184,0,0
588,-160,0,0,0,0,0,0,0,0,0,-1,1812,1184,0,0
595,-160,0,0,0,0,0,0,0,0,0,-1,1819,1184,0,0
602,-160,0,0,0,0,0,0,0,0,0,-1,1826,1184,0,0
609,-160,0,0,0,0,0,0,0,0,0,-1,1833,1184,0,0
616,-160,0,0,0,0,0,0,0,0,0,-1,1840,1184,0,0
623,-160,0,0,0,0,0,0,0,0,0,-1,1847,1184,0,0
630,-160,0,0,0,0,0,0,0,0,0,-1,1854,1184,0,0
637,-160,24.0654,2.78516,0.000460047,0.000377561,0.000664164,0.00108425,-0.000246639,0.754389,0.000817541,0.0424867,1861,1184,24.0655,-2.78517
644,-160,24.1097,2.73035,0.000882971,0.000589144,0.000651803,0.00140421,6.79031e-05,0.674553,0.000914348,0.0422334,1868,1184,24.1097,-2.73039
651,-160,24.1608,2.64148,0.000829662,0.000526309,0.000757313,0.00145034,-9.43673e-05,0.686565,0.000999834,0.0371882,1875,1184,24.1608,-2.64153
658,-160,24.0883,2.64844,0.000576089,0.000117752,0.00100933,0.00138194,-0.000688102,0.673766,0.00121731,0.0384803,1882,1184,24.0883,-2.6484
665,-160,24.17,2.80298,-5.62157e-05,-0.000488389,0.00139451,0.00113885,-0.00168345,0.708532,0.00163954,0.0381628,1889,1184,24.17,-2.80294
672,-160,24.1217,2.76709,-0.00081976,-0.00110969,0.00170165,0.000743091,-0.00267254,0.742906,0.00207424,0.0340657,1896,1184,24.1217,-2.7671
679,-160,24.0253,2.76086,-0.00168975,-0.00164294,0.0020225,0.000356288,-0.00368897,0.791184,0.00258627,0.0249685,1903,1184,24.0253,-2.76086
686,-160,24.0723,2.77307,-0.00247038,-0.00201731,0.00223485,2.46172e-06,-0.00449015,0.835908,0.00299425,0.0146297,1910,1184,24.0723,-2.77306
693,-160,24.114,2.71375,-0.00305261,-0.00221677,0.00238378,-0.000214551,-0.00505482,0.872175,0.00330069,0.0371677,1917,1184,24.114,-2.71377
700,-160,22.8207,4.11389,0,0,0,0,0,0,0,-1,1924,1184,22.8207,-4.11393
707,-160,21.7687,5.19958,0,0,0,0,0,0,0,-1,1931,1184,21.7687,-5.19953
714,-160,21.9857,5.03491,-0.00417791,-0.00235357,0.002386,-0.000711324,-0.00582016,0.967976,0.00366608,0.0422298,1938,1184,21.9857,-5.03486
721,-160,21.9854,4.68335,-0.00408589,-0.00213836,0.00223543,-0.000673807,-0.00555044,0.990807,0.00349739,0.0195543,1945,1184,21.9853,-4.68335
728,-160,21.9746,4.62244,-0.00316931,-0.00158447,0.00191792,-0.00030171,-0.00445207,0.981301,0.00287276,0.0174333,1952,1184,21.9746,-4.62249
735,-160,21.8309,4.54333,-0.00172102,-0.00114635,0.00169341,0.000283926,-0.00315129,0.869438,0.00220162,0.0130076,1959,1184,21.831,-4.54335
742,-160,21.8158,4.37268,0.000743756,-0.00083989,0.00170218,0.00182927,-0.00192541,0.567695,0.002168,0.0153739,1966,1184,21.8158,-4.37266
749,-160,21.8187,4.19812,0.00442128,-0.000909377,0.00169118,0.00491254,-0.00140064,0.282704,0.00382829,0.016755,1973,1184,21.8188,-4.19812
756,-160,21.8126,4.10278,0.00965266,-0.0011346,0.00162742,0.00989283,-0.00137477,0.146521,0.00709799,0.0106347,1980,1184,21.8126,-4.10282
763,-160,21.8044,3.97559,0.0157241,-0.00172237,0.00194343,0.015938,-0.00193624,0.109604,0.0113261,0.0110142,1987,1184,21.8044,-3.97554
770,-160,21.7742,3.83667,0.0228763,-0.00298027,0.00272916,0.0231612,-0.00326519,0.104023,0.0166364,0.0178464,1994,1184,21.7742,-3.83667
777,-160,21.7554,3.78821,0.0314307,-0.00481562,0.00386092,0.0318374,-0.00522232,0.10495,0.0231628,0.032654,2001,1184,21.7554,-3.78823
784,-160,22.1925,4.18921,0.0415372,-0.00729576,0.00546483,0.0421413,-0.00789985,0.110094,0.0310642,0.0434876,2008,1184,22.1925,-4.1892
791,-160,22.6243,4.42126,0.053101,-0.0103714,0.00757197,0.0539918,-0.0112622,0.117106,0.0402769,0.0471292,2015,1184,22.6243,-4.42123
798,-160,22.8973,4.38513,0,0,0,0,0,0,0,-1,2022,1184,22.8974,-4.38507
805,-160,23.9131,4.78125,0,0,0,0,0,0,0,-1,2029,1184,23.913,-4.78125
812,-160,0,0,0,0,0,0,0,0,0,-1,2036,1184,0,0
-700,-167,0,0,0,0,0,0,0,0,0,-1,524,1191,0,0
-693,-167,0,0,0,0,0,0,0,0,0,-1,531,1191,0,0
-686,-167,-11.5665,-1.31482,-0.04204,0.0678345,0.02255,0.0722825,-0.0464879,1.37605,0.0691091,0.0447714,538,1191,-11.5665,1.31484
-679,-167,-11.9536,-0.602661,-0.0372283,0.0538634,0.0150857,0.0562967,-0.0396617,1.41087,0.0556784,0.0482086,545,1191,-11.9536,0.602646
-672,-167,-12.4266,-0.0446777,0,0,0,0,0,0,0,-1,552,1191,-12.4266,0.0446627
-665,-167,-12.8825,0.32251,-0.0266505,0.0311825,0.00460934,0.0315476,-0.0270156,1.49176,0.0338452,0.0471699,559,1191,-12.8825,-0.322512
-658,-167,-13.4975,1.09949,-0.0214756,0.0228444,0.00142474,0.0228902,-0.0215213,1.53869,0.0256451,0.0494442,566,1191,-13.4975,-1.09945
-651,-167,-13.7487,1.02893,-0.0167571,0.0163596,-0.000553955,0.0163689,-0.0167663,-1.55408,0.0191311,0.0485037,573,1191,-13.7487,-1.02894
-644,-167,-13.6964,1.1709,-0.0128439,0.0114973,-0.00158629,0.0116003,-0.0129468,-1.50599,0.0141794,0.0376468,580,1191,-13.6964,-1.17088
-637,-167,-13.7428,1.33521,-0.0096557,0.00794285,-0.00195758,0.00815797,-0.00987082,-1.46134,0.0104246,0.0165858,587,1191,-13.7428,-1.33518
-630,-167,-13.8001,1.48352,-0.00709569,0.00480259,-0.00234509,0.00524812,-0.00754121,-1.38305,0.00742338,0.00866169,594,1191,-13.8001,-1.48354
-623,-167,-13.8115,1.63074,-0.00551261,0.00238709,-0.00254741,0.00313731,-0.00626283,-1.28439,0.00552627,0.0102878,601,1191,-13.8115,-1.63068
-616,-167,-13.8215,1.83472,-0.00498584,0.000847198,-0.00258365,0.001827,-0.00596565,-1.20832,0.00470584,0.0132438,608,1191,-13.8215,-1.83471
-609,-167,-13.8375,2.05505,-0.00451349,-0.000311461,-0.00271575,0.00102112,-0.00584606,-1.11463,0.00427856,0.0127735,615,1191,-13.8375,-2.0551
-602,-167,-13.8461,2.21814,-0.00439304,-0.00143424,-0.00304662,0.000473178,-0.00630045,-1.01142,0.00436658,0.0139414,622,1191,-13.8461,-2.21813
-595,-167,-13.857,2.43152,-0.0048271,-0.00208082,-0.00340135,0.000214107,-0.00712202,-0.977246,0.00482097,0.0212224,629,1191,-13.857,-2.43156
-588,-167,-13.8734,2.65906,-0.00527271,-0.00239084,-0.00352246,-2.59872e-05,-0.00763756,-0.979549,0.00508307,0.022001,636,1191,-13.8734,-2.65904
-581,-167,-13.8417,2.76147,-0.00523828,-0.00267065,-0.00362851,-0.000105532,-0.0078034,-0.955432,0.00516745,0.0229453,643,1191,-13.8416,-2.76146
-574,-167,-14.0327,3.02002,-0.00498481,-0.00270031,-0.00373143,5.97874e-05,-0.00774491,-0.933927,0.00518332,0.0450141,650,1191,-14.0327,-3.01998
-567,-167,-14.3223,3.23047,0,0,0,0,0,0,0,-1,657,1191,-14.3223,-3.23045
-560,-167,-16.2622,0.5802,-0.00457872,-0.00289157,-0.00338749,-0.000244197,-0.00722609,-0.907429,0.00473809,0.0383996,664,1191,-16.2622,-0.580185
-553,-167,-16.304,0.828979,-0.00400715,-0.00280106,-0.00302596,-0.000318641,-0.00648957,-0.883755,0.00422418,0.0382236,671,1191,-16.3039,-0.82901
-546,-167,-16.3254,0.877686,-0.00303115,-0.00277451,-0.00247287,-0.000426637,-0.00537903,-0.81132,0.0034526,0.0337901,678,1191,-16.3254,-0.877628
-539,-167,-16.3365,0.9198,-0.0016946,-0.0029629,-0.00173102,-0.000485226,-0.00417228,-0.609819,0.00263471,0.0380586,685,1191,-16.3365,-0.919754
-532,-167,-16.2654,0.791626,0.000223756,-0.00365661,-0.00082215,0.00039076,-0.00382362,-0.200405,0.00268881,0.0437329,692,1191,-16.2654,-0.791649
-525,-167,-16.1614,0.767456,0.00258799,-0.00551693,-0.000170147,0.00259156,-0.0055205,-0.0209808,0.00478418,0.0449681,699,1191,-16.1614,-0.767462
-518,-167,-16.0849,0.768677,0.0036029,-0.0109882,-0.00121711,0.00370373,-0.011089,-0.0826535,0.00888832,0.0451634,706,1191,-16.0849,-0.768693
-511,-167,0,0,0,0,0,0,0,0,0,-1,713,1191,0,0
-504,-167,0,0,0,0,0,0,0,0,0,-1,720,1191,0,0
-497,-167,0,0,0,0,0,0,0,0,0,-1,727,1191,0,0
-490,-167,0,0,0,0,0,0,0,0,0,-1,734,1191,0,0
-483,-167,0,0,0,0,0,0,0,0,0,-1,741,1191,0,0
-476,-167,0,0,0,0,0,0,0,0,0,-1,748,1191,0,0
-469,-167,0,0,0,0,0,0,0,0,0,-1,755,1191,0,0
-462,-167,0,0,0,0,0,0,0,0,0,-1,762,1191,0,0
-455,-167,0,0,0,0,0,0,0,0,0,-1,769,1191,0,0
-448,-167,0,0,0,0,0,0,0,0,0,-1,776,1191,0,0
-441,-167,0,0,0,0,0,0,0,0,0,-1,783,1191,0,0
-434,-167,0,0,0,0,0,0,0,0,0,-1,790,1191,0,0
-427,-167,0,0,0,0,0,0,0,0,0,-1,797,1191,0,0
-420,-167,0,0,0,0,0,0,0,0,0,-1,804,1191,0,0
-413,-167,0,0,0,0,0,0,0,0,0,-1,811,1191,0,0
-406,-167,0,0,0,0,0,0,0,0,0,-1,818,1191,0,0
-399,-167,0,0,0,0,0,0,0,0,0,-1,825,1191,0,0
-392,-167,0,0,0,0,0,0,0,0,0,-1,832,1191,0,0
-385,-167,0,0,0,0,0,0,0,0,0,-1,839,1191,0,0
-378,-167,0,0,0,0,0,0,0,0,0,-1,846,1191,0,0
-371,-167,0,0,0,0,0,0,0,0,0,-1,853,1191,0,0
-364,-167,0,0,0,0,0,0,0,0,0,-1,860,1191,0,0
-357,-167,0,0,0,0,0,0,0,0,0,-1,867,1191,0,0
-350,-167,0,0,0,0,0,0,0,0,0,-1,874,1191,0,0
-343,-167,0,0,0,0,0,0,0,0,0,-1,881,1191,0,0
-336,-167,0,0,0,0,0,0,0,0,0,-1,888,1191,0,0
-329,-167,0,0,0,0,0,0,0,0,0,-1,895,1191,0,0
-322,-167,0,0,0,0,0,0,0,0,0,-1,902,1191,0,0
-315,-167,0,0,0,0,0,0,0,0,0,-1,909,1191,0,0
-308,-167,0,0,0,0,0,0,0,0,0,-1,916,1191,0,0
-301,-167,0,0,0,0,0,0,0,0,0,-1,923,1191,0,0
-294,-167,0,0,0,0,0,0,0,0,0,-1,930,1191,0,0
-287,-167,0,0,0,0,0,0,0,0,0,-1,937,1191,0,0
-280,-167,0,0,0,0,0,0,0,0,0,-1,944,1191,0,0
-273,-167,0,0,0,0,0,0,0,0,0,-1,951,1191,0,0
-266,-167,0,0,0,0,0,0,0,0,0,-1,958,1191,0,0
-259,-167,0,0,0,0,0,0,0,0,0,-1,965,1191,0,0
-252,-167,0,0,0,0,0,0,0,0,0,-1,972,1191,0,0
-245,-167,0,0,0,0,0,0,0,0,0,-1,979,1191,0,0
-238,-167,0,0,0,0,0,0,0,0,0,-1,986,1191,0,0
-231,-167,0,0,0,0,0,0,0,0,0,-1,993,1191,0,0
-224,-167,0,0,0,0,0,0,0,0,0,-1,1000,1191,0,0
-217,-167,0,0,0,0,0,0,0,0,0,-1,1007,1191,0,0
-210,-167,0,0,0,0,0,0,0,0,0,-1,1014,1191,0,0
-203,-167,0,0,0,0,0,0,0,0,0,-1,1021,1191,0,0
-196,-167,0,0,0,0,0,0,0,0,0,-1,1028,1191,0,0
-189,-167,0,0,0,0,0,0,0,0,0,-1,1035,1191,0,0
-182,-167,0,0,0,0,0,0,0,0,0,-1,1042,1191,0,0
-175,-167,0,0,0,0,0,0,0,0,0,-1,1049,1191,0,0
-168,-167,0,0,0,0,0,0,0,0,0,-1,1056,1191,0,0
-161,-167,0,0,0,0,0,0,0,0,0,-1,1063,1191,0,0
-154,-167,0,0,0,0,0,0,0,0,0,-1,1070,1191,0,0
-147,-167,0,0,0,0,0,0,0,0,0,-1,1077,1191,0,0
-140,-167,0,0,0,0,0,0,0,0,0,-1,1084,1191,0,0
-133,-167,0,0,0,0,0,0,0,0,0,-1,1091,1191,0,0
-126,-167,0,0,0,0,0,0,0,0,0,-1,1098,1191,0,0
-119,-167,0,0,0,0,0,0,0,0,0,-1,1105,1191,0,0
-112,-167,0,0,0,0,0,0,0,0,0,-1,1112,1191,0,0
-105,-167,0,0,0,0,0,0,0,0,0,-1,1119,1191,0,0
-98,-167,0,0,0,0,0,0,0,0,0,-1,1126,1191,0,0
-91,-167,0,0,0,0,0,0,0,0,0,-1,1133,1191,0,0
-84,-167,0,0,0,0,0,0,0,0,0,-1,1140,1191,0,0
-77,-167,0,0,0,0,0,0,0,0,0,-1,1147,1191,0,0
-70,-167,0,0,0,0,0,0,0,0,0,-1,1154,1191,0,0
-63,-167,0,0,0,0,0,0,0,0,0,-1,1161,1191,0,0
-56,-167,0,0,0,0,0,0,0,0,0,-1,1168,1191,0,0
-49,-167,0,0,0,0,0,0,0,0,0,-1,1175,1191,0,0
-42,-167,0,0,0,0,0,0,0,0,0,-1,1182,1191,0,0
-35,-167,0,0,0,0,0,0,0,0,0,-1,1189,1191,0,0
-28,-167,0,0,0,0,0,0,0,0,0,-1,1196,1191,0,0
-21,-167,0,0,0,0,0,0,0,0,0,-1,1203,1191,0,0
-14,-167,0,0,0,0,0,0,0,0,0,-1,1210,1191,0,0
-7,-167,0,0,0,0,0,0,0,0,0,-1,1217,1191,0,0
0,-167,0,0,0,0,0,0,0,0,0,-1,1224,1191,0,0
7,-167,0,0,0,0,0,0,0,0,0,-1,1231,1191,0,0
14,-167,0,0,0,0,0,0,0,0,0,-1,1238,1191,0,0
21,-167,0,0,0,0,0,0,0,0,0,-1,1245,1191,0,0
28,-167,0,0,0,0,0,0,0,0,0,-1,1252,1191,0,0
35,-167,0,0,0,0,0,0,0,0,0,-1,1259,1191,0,0
42,-167,0,0,0,0,0,0,0,0,0,-1,1266,1191,0,0
49,-167,0,0,0,0,0,0,0,0,0,-1,1273,1191,0,0
56,-167,0,0,0,0,0,0,0,0,0,-1,1280,1191,0,0
63,-167,0,0,0,0,0,0,0,0,0,-1,1287,1191,0,0
70,-167,0,0,0,0,0,0,0,0,0,-1,1294,1191,0,0
77,-167,0,0,0,0,0,0,0,0,0,-1,1301,1191,0,0
84,-167,0,0,0,0,0,0,0,0,0,-1,1308,1191,0,0
91,-167,0,0,0,0,0,0,0,0,0,-1,1315,1191,0,0
98,-167,0,0,0,0,0,0,0,0,0,-1,1322,1191,0,0
105,-167,0,0,0,0,0,0,0,0,0,-1,1329,1191,0,0
112,-167,0,0,0,0,0,0,0,0,0,-1,1336,1191,0,0
119,-167,0,0,0,0,0,0,0,0,0,-1,1343,1191,0,0
126,-167,0,0,0,0,0,0,0,0,0,-1,1350,1191,0,0
133,-167,0,0,0,0,0,0,0,0,0,-1,1357,1191,0,0
140,-167,0,0,0,0,0,0,0,0,0,-1,1364,1191,0,0
147,-167,0,0,0,0,0,0,0,0,0,-1,1371,1191,0,0
154,-167,0,0,0,0,0,0,0,0,0,-1,1378,1191,0,0
161,-167,0,0,0,0,0,0,0,0,0,-1,1385,1191,0,0
168,-167,0,0,0,0,0,0,0,0,0,-1,1392,1191,0,0
175,-167,0,0,0,0,0,0,0,0,0,-1,1399,1191,0,0
182,-167,0,0,0,0,0,0,0,0,0,-1,1406,1191,0,0
189,-167,0,0,0,0,0,0,0,0,0,-1,1413,1191,0,0
196,-167,0,0,0,0,0,0,0,0,0,-1,1420,1191,0,0
203,-167,0,0,0,0,0,0,0,0,0,-1,1427,1191,0,0
210,-167,0,0,0,0,0,0,0,0,0,-1,1434,1191,0,0
217,-167,0,0,0,0,0,0,0,0,0,-1,1441,1191,0,0
224,-167,0,0,0,0,0,0,0,0,0,-1,1448,1191,0,0
231,-167,0,0,0,0,0,0,0,0,0,-1,1455,1191,0,0
238,-167,0,0,0,0,0,0,0,0,0,-1,1462,1191,0,0
245,-167,0,0,0,0,0,0,0,0,0,-1,1469,1191,0,0
252,-167,0,0,0,0,0,0,0,0,0,-1,1476,1191,0,0
259,-167,0,0,0,0,0,0,0,0,0,-1,1483,1191,0,0
266,-167,0,0,0,0,0,0,0,0,0,-1,1490,1191,0,0
273,-167,0,0,0,0,0,0,0,0,0,-1,1497,1191,0,0
280,-167,0,0,0,0,0,0,0,0,0,-1,1504,1191,0,0
287,-167,0,0,0,0,0,0,0,0,0,-1,1511,1191,0,0
294,-167,0,0,0,0,0,0,0,0,0,-1,1518,1191,0,0
301,-167,0,0,0,0,0,0,0,0,0,-1,1525,1191,0,0
308,-167,0,0,0,0,0,0,0,0,0,-1,1532,1191,0,0
315,-167,0,0,0,0,0,0,0,0,0,-1,1539,1191,0,0
322,-167,0,0,0,0,0,0,0,0,0,-1,1546,1191,0,0
329,-167,0,0,0,0,0,0,0,0,0,-1,1553,1191,0,0
336,-167,0,0,0,0,0,0,0,0,0,-1,1560,1191,0,0
343,-167,0,0,0,0,0,0,0,0,0,-1,1567,1191,0,0
350,-167,0,0,0,0,0,0,0,0,0,-1,1574,1191,0,0
357,-167,0,0,0,0,0,0,0,0,0,-1,1581,1191,0,0
364,-167,0,0,0,0,0,0,0,0,0,-1,1588,1191,0,0
371,-167,0,0,0,0,0,0,0,0,0,-1,1595,1191,0,0
378,-167,0,0,0,0,0,0,0,0,0,-1,1602,1191,0,0
385,-167,0,0,0,0,0,0,0,0,0,-1,1609,1191,0,0
392,-167,0,0,0,0,0,0,0,0,0,-1,1616,1191,0,0
399,-167,0,0,0,0,0,0,0,0,0,-1,1623,1191,0,0
406,-167,0,0,0,0,0,0,0,0,0,-1,1630,1191,0,0
413,-167,0,0,0,0,0,0,0,0,0,-1,1637,1191,0,0
420,-167,0,0,0,0,0,0,0,0,0,-1,1644,1191,0,0
427,-167,0,0,0,0,0,0,0,0,0,-1,1651,1191,0,0
434,-167,0,0,0,0,0,0,0,0,0,-1,1658,1191,0,0
441,-167,0,0,0,0,0,0,0,0,0,-1,1665,1191,0,0
448,-167,0,0,0,0,0,0,0,0,0,-1,1672,1191,0,0
455,-167,0,0,0,0,0,0,0,0,0,-1,1679,1191,0,0
462,-167,0,0,0,0,0,0,0,0,0,-1,1686,1191,0,0
469,-167,0,0,0,0,0,0,0,0,0,-1,1693,1191,0,0
476,-167,0,0,0,0,0,0,0,0,0,-1,1700,1191,0,0
483,-167,0,0,0,0,0,0,0,0,0,-1,1707,1191,0,0
490,-167,0,0,0,0,0,0,0,0,0,-1,1714,1191,0,0
497,-167,0,0,0,0,0,0,0,0,0,-1,1721,1191,0,0
504,-167,0,0,0,0,0,0,0,0,0,-1,1728,1191,0,0
511,-167,0,0,0,0,0,0,0,0,0,-1,1735,1191,0,0
518,-167,0,0,0,0,0,0,0,0,0,-1,1742,1191,0,0
525,-167,0,0,0,0,0,0,0,0,0,-1,1749,1191,0,0
532,-167,0,0,0,0,0,0,0,0,0,-1,1756,1191,0,0
539,-167,0,0,0,0,0,0,0,0,0,-1,1763,1191,0,0
546,-167,0,0,0,0,0,0,0,0,0,-1,1770,1191,0,0
553,-167,0,0,0,0,0,0,0,0,0,-1,1777,1191,0,0
560,-167,0,0,0,0,0,0,0,0,0,-1,1784,1191,0,0
567,-167,0,0,0,0,0,0,0,0,0,-1,1791,1191,0,0
574,-167,0,0,0,0,0,0,0,0,0,-1,1798,1191,0,0
581,-167,0,0,0,0,0,0,0,0,0,-1,1805,1191,0,0
588,-167,0,0,0,0,0,0,0,0,0,-1,1812,1191,0,0
595,-167,0,0,0,0,0,0,0,0,0,-1,1819,1191,0,0
602,-167,0,0,0,0,0,0,0,0,0,-1,1826,1191,0,0
609,-167,0,0,0,0,0,0,0,0,0,-1,1833,1191,0,0
616,-167,0,0,0,0,0,0,0,0,0,-1,1840,1191,0,0
623,-167,0,0,0,0,0,0,0,0,0,-1,1847,1191,0,0
630,-167,0,0,0,0,0,0,0,0,0,-1,1854,1191,0,0
637,-167,24.0894,2.75256,0.000253895,-0.000392677,0.000373455,0.000424555,-0.000563337,0.42864,0.000572233,0.0440763,1861,1191,24.0894,-2.75262
644,-167,24.1924,2.64929,0.000721867,-5.04227e-05,0.000414084,0.000901914,-0.00023047,0.410149,0.000691031,0.0428347,1868,1191,24.1924,-2.64929
651,-167,24.1014,2.65039,0.000757763,-6.27757e-06,0.000640949,0.0011219,-0.000370418,0.516653,0.000897267,0.0401649,1875,1191,24.1014,-2.65036
658,-167,24.0829,2.67358,0.000554431,-0.00035517,0.00102674,0.00122259,-0.00102333,0.576907,0.00129838,0.0428256,1882,1191,24.0829,-2.67354
665,-167,24.1616,2.79187,6.55094e-05,-0.00086498,0.00144104,0.00111455,-0.00191402,0.629254,0.00176874,0.0386756,1889,1191,24.1616,-2.79185
672,-167,24.1312,2.82483,-0.000568005,-0.00141069,0.00174906,0.000809752,-0.00278844,0.667203,0.00217961,0.0281665,1896,1191,24.1313,-2.82479
679,-167,24.0452,2.75977,-0.00132165,-0.00187913,0.00204861,0.000467097,-0.00366788,0.717783,0.0026149,0.0195633,1903,1191,24.0451,-2.75978
686,-167,24.0632,2.7627,-0.00199679,-0.00219637,0.00222747,0.000133123,-0.00432629,0.763013,0.00292958,0.0237078,1910,1191,24.0633,-2.76272
693,-167,24.1487,2.83069,-0.00252644,-0.0023695,0.00236141,-8.52575e-05,-0.00481068,0.802008,0.00317908,0.0445143,1917,1191,24.1487,-2.83067
700,-167,22.4866,4.25537,0,0,0,0,0,0,0,-1,1924,1191,22.4866,-4.25539
707,-167,21.616,5.18933,-0.00324691,-0.002501,0.00240528,-0.000439936,-0.00530797,0.862313,0.0034015,0.0449878,1931,1191,21.616,-5.18927
714,-167,21.8457,5.03992,-0.00366548,-0.00243147,0.00232765,-0.000640435,-0.00545652,0.914957,0.0034441,0.0317214,1938,1191,21.8458,-5.0399
721,-167,21.887,4.72107,-0.00351822,-0.00222527,0.00212853,-0.000647209,-0.00509629,0.932831,0.00320365,0.0264509,1945,1191,21.887,-4.72113
728,-167,21.7805,4.6803,-0.00250383,-0.00162919,0.00172531,-0.000286635,-0.00384639,0.909521,0.00247425,0.0186441,1952,1191,21.7805,-4.68029
735,-167,21.6576,4.59399,-0.000952143,-0.00113147,0.00142053,0.000381551,-0.00246517,0.75388,0.00178428,0.013276,1959,1191,21.6576,-4.59396
742,-167,21.6373,4.42053,0.00169641,-0.000663531,0.0013406,0.00230237,-0.00126949,0.424521,0.00209076,0.0144934,1966,1191,21.6373,-4.42054
749,-167,21.6477,4.2384,0.00559989,-0.00043431,0.00136933,0.00589609,-0.00073051,0.213028,0.00419548,0.0142863,1973,1191,21.6477,-4.23836
756,-167,21.6583,4.11572,0.0109829,-0.00040439,0.00130624,0.0111309,-0.000552308,0.112759,0.00761135,0.0108641,1980,1191,21.6584,-4.11568
763,-167,21.6316,3.96313,0.0171547,-0.00069211,0.00168013,0.0173115,-0.000848904,0.0930525,0.0118341,0.0116662,1987,1191,21.6315,-3.96315
770,-167,21.582,3.85376,0.0245516,-0.00149196,0.00252784,0.0247947,-0.00173505,0.0958698,0.0171374,0.0228082,1994,1191,21.5821,-3.85381
777,-167,21.5842,3.77979,0.033394,-0.0027601,0.00380335,0.0337898,-0.00315588,0.103686,0.0236488,0.0411714,2001,1191,21.5843,-3.77973
784,-167,21.5756,3.70178,0,0,0,0,0,0,0,-1,2008,1191,21.5756,-3.70182
791,-167,22.2897,4.40039,0.0550979,-0.00676134,0.00831232,0.0561954,-0.00785884,0.131273,0.0403392,0.0465076,2015,1191,22.2897,-4.40044
798,-167,22.4097,4.40637,0.0676071,-0.00928796,0.0115867,0.069315,-0.0109959,0.146354,0.0502778,0.0451511,2022,1191,22.4096,-4.40633
805,-167,23.7971,5.10205,0,0,0,0,0,0,0,-1,2029,1191,23.7971,-5.10206
812,-167,0,0,0,0,0,0,0,0,0,-1,2036,1191,0,0
-700,-174,0,0,0,0,0,0,0,0,0,-1,524,1198,0,0
-693,-174,0,0,0,0,0,0,0,0,0,-1,531,1198,0,0
-686,-174,-11.2515,-1.83826,-0.0499081,0.0812978,0.029665,0.0876931,-0.0563035,1.35846,0.0837923,0.0455958,538,1198,-11.2515,1.8382
-679,-174,-11.5192,-1.12451,-0.0441944,0.0650405,0.0215724,0.0691464,-0.0483003,1.38271,0.068163,0.0469677,545,1198,-11.5192,1.12448
-672,-174,-12.0171,-0.564819,0,0,0,0,0,0,0,-1,552,1198,-12.0171,0.564862
-665,-174,-12.5381,0.036377,-0.0318617,0.0384936,0.00948016,0.0397486,-0.0331168,1.43918,0.0421269,0.0444476,559,1198,-12.5381,-0.0363902
-658,-174,-13.1454,0.625977,-0.0258658,0.0284767,0.00545631,0.0290191,-0.0264082,1.47171,0.0320128,0.0432737,566,1198,-13.1454,-0.625942
-651,-174,-13.5382,0.956421,-0.0203098,0.020522,0.0027005,0.0206999,-0.0204877,1.50504,0.0237797,0.0463125,573,1198,-13.5382,-0.95644
-644,-174,-13.5267,1.12085,-0.0156169,0.0144537,0.000970284,0.014485,-0.0156482,1.53857,0.0174017,0.041009,580,1198,-13.5267,-1.12087
-637,-174,-13.5335,1.31116,-0.0117752,0.00996616,-2.44496e-06,0.00996616,-0.0117752,-1.57068,0.0125668,0.0218216,587,1198,-13.5335,-1.31115
-630,-174,-13.5851,1.48596,-0.00866081,0.00615166,-0.000840414,0.00619919,-0.00870834,-1.5143,0.00864741,0.01177,594,1198,-13.5851,-1.48595
-623,-174,-13.608,1.64209,-0.00661451,0.00333953,-0.00139131,0.00353034,-0.00680532,-1.4345,0.00606633,0.0129474,601,1198,-13.608,-1.64212
-616,-174,-13.6237,1.83545,-0.00569945,0.00149954,-0.00179636,0.00192289,-0.00612279,-1.33935,0.00485156,0.0177855,608,1198,-13.6237,-1.8354
-609,-174,-13.6504,2.05603,-0.00493202,4.89125e-05,-0.002236,0.000905405,-0.00578851,-1.20499,0.00419352,0.0195657,615,1198,-13.6504,-2.05607
-602,-174,-13.658,2.21863,-0.00461974,-0.00122885,-0.00274709,0.000303871,-0.00615245,-1.06188,0.00420659,0.0137928,622,1198,-13.6579,-2.21858
-595,-174,-13.6669,2.42529,-0.00494091,-0.00185411,-0.00324661,0.000197286,-0.0069923,-1.00728,0.00472867,0.014249,629,1198,-13.667,-2.42527
-588,-174,-13.7505,2.61035,-0.00533536,-0.0021282,-0.00343188,5.62691e-05,-0.00751983,-1.00396,0.00503208,0.0183136,636,1198,-13.7505,-2.61035
-581,-174,-13.7139,2.78174,-0.00519405,-0.00239309,-0.00356845,3.98578e-05,-0.00762699,-0.972394,0.005098,0.0219657,643,1198,-13.7139,-2.78171
-574,-174,-13.9299,3.06531,0,0,0,0,0,0,0,-1,650,1198,-13.93,-3.06529
-567,-174,-14.7129,2.12415,0,0,0,0,0,0,0,-1,657,1198,-14.7129,-2.12417
-560,-174,-16.3049,0.92041,0,0,0,0,0,0,0,-1,664,1198,-16.3049,-0.920367
-553,-174,-16.297,0.901001,-0.00418636,-0.00237541,-0.00280993,-0.000328668,-0.0062331,-0.941265,0.00405029,0.0393,671,1198,-16.297,-0.901019
-546,-174,-16.2953,0.885376,-0.00341284,-0.00233211,-0.00220506,-0.000602172,-0.00514278,-0.905559,0.00324646,0.0295292,678,1198,-16.2953,-0.885349
-539,-174,-16.3396,0.939819,-0.00233517,-0.00248628,-0.00139951,-0.00100917,-0.00381227,-0.758431,0.0022808,0.0337383,685,1198,-16.3396,-0.939859
-532,-174,-16.3148,1.01379,-0.00079398,-0.00311,-0.000403162,-0.000725806,-0.00317818,-0.167513,0.00192306,0.0440209,692,1198,-16.3148,-1.01376
-525,-174,-16.2464,1.18701,0.00122994,-0.00477525,0.000520321,0.00127469,-0.00482,0.0857932,0.00371192,0.0455437,699,1198,-16.2464,-1.18706
-518,-174,-16.3511,1.09705,0.00229122,-0.00976701,7.45505e-06,0.00229122,-0.00976701,0.000618254,0.00739437,0.0438034,706,1198,-16.3511,-1.0971
-511,-174,0,0,0,0,0,0,0,0,0,-1,713,1198,0,0
-504,-174,0,0,0,0,0,0,0,0,0,-1,720,1198,0,0
-497,-174,0,0,0,0,0,0,0,0,0,-1,727,1198,0,0
-490,-174,0,0,0,0,0,0,0,0,0,-1,734,1198,0,0
-483,-174,0,0,0,0,0,0,0,0,0,-1,741,1198,0,0
-476,-174,0,0,0,0,0,0,0,0,0,-1,748,1198,0,0
-469,-174,0,0,0,0,0,0,0,0,0,-1,755,1198,0,0
-462,-174,0,0,0,0,0,0,0,0,0,-1,762,1198,0,0
-455,-174,0,0,0,0,0,0,0,0,0,-1,769,1198,0,0
-448,-174,0,0,0,0,0,0,0,0,0,-1,776,1198,0,0
-441,-174,0,0,0,0,0,0,0,0,0,-1,783,1198,0,0
-434,-174,0,0,0,0,0,0,0,0,0,-1,790,1198,0,0
-427,-174,0,0,0,0,0,0,0,0,0,-1,797,1198,0,0
-420,-174,0,0,0,0,0,0,0,0,0,-1,804,1198,0,0
-413,-174,0,0,0,0,0,0,0,0,0,-1,811,1198,0,0
-406,-174,0,0,0,0,0,0,0,0,0,-1,818,1198,0,0
-399,-174,0,0,0,0,0,0,0,0,0,-1,825,1198,0,0
-392,-174,0,0,0,0,0,0,0,0,0,-1,832,1198,0,0
-385,-174,0,0,0,0,0,0,0,0,0,-1,839,1198,0,0
-378,-174,0,0,0,0,0,0,0,0,0,-1,846,1198,0,0
-371,-174,0,0,0,0,0,0,0,0,0,-1,853,1198,0,0
-364,-174,0,0,0,0,0,0,0,0,0,-1,860,1198,0,0
-357,-174,0,0,0,0,0,0,0,0,0,-1,867,1198,0,0
-350,-174,0,0,0,0,0,0,0,0,0,-1,874,1198,0,0
-343,-174,0,0,0,0,0,0,0,0,0,-1,881,1198,0,0
-336,-174,0,0,0,0,0,0,0,0,0,-1,888,1198,0,0
-329,-174,0,0,0,0,0,0,0,0,0,-1,895,1198,0,0
-322,-174,0,0,0,0,0,0,0,0,0,-1,902,1198,0,0
-315,-174,0,0,0,0,0,0,0,0,0,-1,909,1198,0,0
-308,-174,0,0,0,0,0,0,0,0,0,-1,916,1198,0,0
-301,-174,0,0,0,0,0,0,0,0,0,-1,923,1198,0,0
-294,-174,0,0,0,0,0,0,0,0,0,-1,930,1198,0,0
-287,-174,0,0,0,0,0,0,0,0,0,-1,937,1198,0,0
-280,-174,0,0,0,0,0,0,0,0,0,-1,944,1198,0,0
-273,-174,0,0,0,0,0,0,0,0,0,-1,951,1198,0,0
-266,-174,0,0,0,0,0,0,0,0,0,-1,958,1198,0,0
-259,-174,0,0,0,0,0,0,0,0,0,-1,965,1198,0,0
-252,-174,0,0,0,0,0,0,0,0,0,-1,972,1198,0,0
-245,-174,0,0,0,0,0,0,0,0,0,-1,979,1198,0,0
-238,-174,0,0,0,0,0,0,0,0,0,-1,986,1198,0,0
-231,-174,0,0,0,0,0,0,0,0,0,-1,993,1198,0,0
-224,-174,0,0,0,0,0,0,0,0,0,-1,1000,1198,0,0
-217,-174,0,0,0,0,0,0,0,0,0,-1,1007,1198,0,0
-210,-174,0,0,0,0,0,0,0,0,0,-1,1014,1198,0,0
-203,-174,0,0,0,0,0,0,0,0,0,-1,1021,1198,0,0
-196,-174,0,0,0,0,0,0,0,0,0,-1,1028,1198,0,0
-189,-174,0,0,0,0,0,0,0,0,0,-1,1035,1198,0,0
-182,-174,0,0,0,0,0,0,0,0,0,-1,1042,1198,0,0
-175,-174,0,0,0,0,0,0,0,0,0,-1,1049,1198,0,0
-168,-174,0,0,0,0,0,0,0,0,0,-1,1056,1198,0,0
-161,-174,0,0,0,0,0,0,0,0,0,-1,1063,1198,0,0
-154,-174,0,0,0,0,0,0,0,0,0,-1,1070,1198,0,0
-147,-174,0,0,0,0,0,0,0,0,0,-1,1077,1198,0,0
-140,-174,0,0,0,0,0,0,0,0,0,-1,1084,1198,0,0
-133,-174,0,0,0,0,0,0,0,0,0,-1,1091,1198,0,0
-126,-174,0,0,0,0,0,0,0,0,0,-1,1098,1198,0,0
-119,-174,0,0,0,0,0,0,0,0,0,-1,1105,1198,0,0
-112,-174,0,0,0,0,0,0,0,0,0,-1,1112,1198,0,0
-105,-174,0,0,0,0,0,0,0,0,0,-1,1119,1198,0,0
-98,-174,0,0,0,0,0,0,0,0,0,-1,1126,1198,0,0
-91,-174,0,0,0,0,0,0,0,0,0,-1,1133,1198,0,0
-84,-174,0,0,0,0,0,0,0,0,0,-1,1140,1198,0,0
-77,-174,0,0,0,0,0,0,0,0,0,-1,1147,1198,0,0
-70,-174,0,0,0,0,0,0,0,0,0,-1,1154,1198,0,0
-63,-174,0,0,0,0,0,0,0,0,0,-1,1161,1198,0,0
-56,-174,0,0,0,0,0,0,0,0,0,-1,1168,1198,0,0
-49,-174,0,0,0,0,0,0,0,0,0,-1,1175,1198,0,0
-42,-174,0,0,0,0,0,0,0,0,0,-1,1182,1198,0,0
-35,-174,0,0,0,0,0,0,0,0,0,-1,1189,1198,0,0
-28,-174,0,0,0,0,0,0,0,0,0,-1,1196,1198,0,0
-21,-174,0,0,0,0,0,0,0,0,0,-1,1203,1198,0,0
-14,-174,0,0,0,0,0,0,0,0,0,-1,1210,1198,0,0
-7,-174,0,0,0,0,0,0,0,0,0,-1,1217,1198,0,0
0,-174,0,0,0,0,0,0,0,0,0,-1,1224,1198,0,0
7,-174,0,0,0,0,0,0,0,0,0,-1,1231,1198,0,0
14,-174,0,0,0,0,0,0,0,0,0,-1,1238,1198,0,0
21,-174,0,0,0,0,0,0,0,0,0,-1,1245,1198,0,0
28,-174,0,0,0,0,0,0,0,0,0,-1,1252,1198,0,0
35,-174,0,0,0,0,0,0,0,0,0,-1,1259,1198,0,0
42,-174,0,0,0,0,0,0,0,0,0,-1,1266,1198,0,0
49,-174,0,0,0,0,0,0,0,0,0,-1,1273,1198,0,0
56,-174,0,0,0,0,0,0,0,0,0,-1,1280,1198,0,0
63,-174,0,0,0,0,0,0,0,0,0,-1,1287,1198,0,0
70,-174,0,0,0,0,0,0,0,0,0,-1,1294,1198,0,0
77,-174,0,0,0,0,0,0,0,0,0,-1,1301,1198,0,0
84,-174,0,0,0,0,0,0,0,0,0,-1,1308,1198,0,0
91,-174,0,0,0,0,0,0,0,0,0,-1,1315,1198,0,0
98,-174,0,0,0,0,0,0,0,0,0,-1,1322,1198,0,0
105,-174,0,0,0,0,0,0,0,0,0,-1,1329,1198,0,0
112,-174,0,0,0,0,0,0,0,0,0,-1,1336,1198,0,0
119,-174,0,0,0,0,0,0,0,0,0,-1,1343,1198,0,0
126,-174,0,0,0,0,0,0,0,0,0,-1,1350,1198,0,0
133,-174,0,0,0,0,0,0,0,0,0,-1,1357,1198,0,0
140,-174,0,0,0,0,0,0,0,0,0,-1,1364,1198,0,0
147,-174,0,0,0,0,0,0,0,0,0,-1,1371,1198,0,0
154,-174,0,0,0,0,0,0,0,0,0,-1,1378,1198,0,0
161,-174,0,0,0,0,0,0,0,0,0,-1,1385,1198,0,0
168,-174,0,0,0,0,0,0,0,0,0,-1,1392,1198,0,0
175,-174,0,0,0,0,0,0,0,0,0,-1,1399,1198,0,0
182,-174,0,0,0,0,0,0,0,0,0,-1,1406,1198,0,0
189,-174,0,0,0,0,0,0,0,0,0,-1,1413,1198,0,0
196,-174,0,0,0,0,0,0,0,0,0,-1,1420,1198,0,0
203,-174,0,0,0,0,0,0,0,0,0,-1,1427,1198,0,0
210,-174,0,0,0,0,0,0,0,0,0,-1,1434,1198,0,0
217,-174,0,0,0,0,0,0,0,0,0,-1,1441,1198,0,0
224,-174,0,0,0,0,0,0,0,0,0,-1,1448,1198,0,0
231,-174,0,0,0,0,0,0,0,0,0,-1,1455,1198,0,0
238,-174,0,0,0,0,0,0,0,0,0,-1,1462,1198,0,0
245,-174,0,0,0,0,0,0,0,0,0,-1,1469,1198,0,0
252,-174,0,0,0,0,0,0,0,0,0,-1,1476,1198,0,0
259,-174,0,0,0,0,0,0,0,0,0,-1,1483,1198,0,0
266,-174,0,0,0,0,0,0,0,0,0,-1,1490,1198,0,0
273,-174,0,0,0,0,0,0,0,0,0,-1,1497,1198,0,0
280,-174,0,0,0,0,0,0,0,0,0,-1,1504,1198,0,0
287,-174,0,0,0,0,0,0,0,0,0,-1,1511,1198,0,0
294,-174,0,0,0,0,0,0,0,0,0,-1,1518,1198,0,0
301,-174,0,0,0,0,0,0,0,0,0,-1,1525,1198,0,0
308,-174,0,0,0,0,0,0,0,0,0,-1,1532,1198,0,0
315,-174,0,0,0,0,0,0,0,0,0,-1,1539,1198,0,0
322,-174,0,0,0,0,0,0,0,0,0,-1,1546,1198,0,0
329,-174,0,0,0,0,0,0,0,0,0,-1,1553,1198,0,0
336,-174,0,0,0,0,0,0,0,0,0,-1,1560,1198,0,0
343,-174,0,0,0,0,0,0,0,0,0,-1,1567,1198,0,0
350,-174,0,0,0,0,0,0,0,0,0,-1,1574,1198,0,0
357,-174,0,0,0,0,0,0,0,0,0,-1,1581,1198,0,0
364,-174,0,0,0,0,0,0,0,0,0,-1,1588,1198,0,0
371,-174,0,0,0,0,0,0,0,0,0,-1,1595,1198,0,0
378,-174,0,0,0,0,0,0,0,0,0,-1,1602,1198,0,0
385,-174,0,0,0,0,0,0,0,0,0,-1,1609,1198,0,0
392,-174,0,0,0,0,0,0,0,0,0,-1,1616,1198,0,0
399,-174,0,0,0,0,0,0,0,0,0,-1,1623,1198,0,0
406,-174,0,0,0,0,0,0,0,0,0,-1,1630,1198,0,0
413,-174,0,0,0,0,0,0,0,0,0,-1,1637,1198,0,0
420,-174,0,0,0,0,0,0,0,0,0,-1,1644,1198,0,0
427,-174,0,0,0,0,0,0,0,0,0,-1,1651,1198,0,0
434,-174,0,0,0,0,0,0,0,0,0,-1,1658,1198,0,0
441,-174,0,0,0,0,0,0,0,0,0,-1,1665,1198,0,0
448,-174,0,0,0,0,0,0,0,0,0,-1,1672,1198,0,0
455,-174,0,0,0,0,0,0,0,0,0,-1,1679,1198,0,0
462,-174,0,0,0,0,0,0,0,0,0,-1,1686,1198,0,0
469,-174,0,0,0,0,0,0,0,0,0,-1,1693,1198,0,0
476,-174,0,0,0,0,0,0,0,0,0,-1,1700,1198,0,0
483,-174,0,0,0,0,0,0,0,0,0,-1,1707,1198,0,0
490,-174,0,0,0,0,0,0,0,0,0,-1,1714,1198,0,0
497,-174,0,0,0,0,0,0,0,0,0,-1,1721,1198,0,0
504,-174,0,0,0,0,0,0,0,0,0,-1,1728,1198,0,0
511,-174,0,0,0,0,0,0,0,0,0,-1,1735,1198,0,0
518,-174,0,0,0,0,0,0,0,0,0,-1,1742,1198,0,0
525,-174,0,0,0,0,0,0,0,0,0,-1,1749,1198,0,0
532,-174,0,0,0,0,0,0,0,0,0,-1,1756,1198,0,0
539,-174,0,0,0,0,0,0,0,0,0,-1,1763,1198,0,0
546,-174,0,0,0,0,0,0,0,0,0,-1,1770,1198,0,0
553,-174,0,0,0,0,0,0,0,0,0,-1,1777,1198,0,0
560,-174,0,0,0,0,0,0,0,0,0,-1,1784,1198,0,0
567,-174,0,0,0,0,0,0,0,0,0,-1,1791,1198,0,0
574,-174,0,0,0,0,0,0,0,0,0,-1,1798,1198,0,0
581,-174,0,0,0,0,0,0,0,0,0,-1,1805,1198,0,0
588,-174,0,0,0,0,0,0,0,0,0,-1,1812,1198,0,0
595,-174,0,0,0,0,0,0,0,0,0,-1,1819,1198,0,0
602,-174,0,0,0,0,0,0,0,0,0,-1,1826,1198,0,0
609,-174,0,0,0,0,0,0,0,0,0,-1,1833,1198,0,0
616,-174,0,0,0,0,0,0,0,0,0,-1,1840,1198,0,0
623,-174,0,0,0,0,0,0,0,0,0,-1,1847,1198,0,0
630,-174,0,0,0,0,0,0,0,0,0,-1,1854,1198,0,0
637,-174,24.1389,2.6842,0.000638158,-0.00078887,0.000132106,0.000650284,-0.000800997,0.091538,0.000839402,0.0427981,1861,1198,24.139,-2.6842
644,-174,24.2537,2.58167,0.000974551,-0.00040912,0.000270558,0.00102557,-0.000460143,0.186393,0.000878241,0.0418335,1868,1198,24.2536,-2.58168
651,-174,24.0927,2.68298,0.000987428,-0.000339169,0.000624591,0.00123522,-0.000586957,0.377676,0.00107399,0.0394443,1875,1198,24.0926,-2.68294
658,-174,24.1018,2.68811,0.000794286,-0.000681286,0.00109951,0.0013806,-0.0012676,0.489895,0.00152941,0.0383937,1882,1198,24.1018,-2.68809
665,-174,24.1361,2.85852,0.000409188,-0.00114072,0.00151887,0.00133938,-0.00207091,0.549504,0.00198398,0.0337078,1889,1198,24.1362,-2.85849
672,-174,24.0333,2.77405,-0.000127324,-0.00163634,0.00181606,0.00108473,-0.00284839,0.588515,0.00234565,0.0253627,1896,1198,24.0333,-2.77407
679,-174,24.0094,2.71265,-0.000769889,-0.00204953,0.00208563,0.000771855,-0.00359128,0.636567,0.00268866,0.0203514,1903,1198,24.0094,-2.71263
686,-174,24.0842,2.76599,-0.00134227,-0.00231738,0.00222939,0.000452254,-0.0041119,0.677746,0.00290378,0.041218,1910,1198,24.0843,-2.76605
693,-174,24.1687,2.86902,-0.00182268,-0.00246687,0.00234866,0.00022587,-0.00451542,0.717253,0.00308833,0.0482126,1917,1198,24.1687,-2.86901
700,-174,21.4712,5.44934,0,0,0,0,0,0,0,-1,1924,1198,21.4713,-5.44934
707,-174,21.6534,5.25146,-0.00258537,-0.00255898,0.00237471,-0.000197422,-0.00494692,0.788177,0.00323415,0.0436056,1931,1198,21.6534,-5.25146
714,-174,21.7671,5.04053,-0.00299781,-0.00247273,0.00228262,-0.000437606,-0.00503294,0.842655,0.00321935,0.0280633,1938,1198,21.767,-5.04049
721,-174,21.6925,4.84143,-0.00281579,-0.00224992,0.00204685,-0.000466541,-0.00459917,0.854077,0.00292304,0.0216878,1945,1198,21.6925,-4.84145
728,-174,21.528,4.74902,-0.00174449,-0.00161511,0.00156566,-0.000112804,-0.0032468,0.806045,0.00212793,0.014368,1952,1198,21.528,-4.74903
735,-174,21.4839,4.60376,-0.00014389,-0.001031,0.00115113,0.000646186,-0.00182108,0.601504,0.00147733,0.0112536,1959,1198,21.4839,-4.60382
742,-174,21.4763,4.41797,0.0024885,-0.000320851,0.000886857,0.00274504,-0.000577388,0.28158,0.00204978,0.0190225,1966,1198,21.4764,-4.41795
749,-174,21.4917,4.26758,0.00626881,0.000167011,0.000768065,0.00636401,7.18157e-05,0.123313,0.00421894,0.017575,1973,1198,21.4917,-4.26757
756,-174,21.4882,4.10962,0.0114651,0.000460977,0.000544776,0.011492,0.000434072,0.0493458,0.00752082,0.0103028,1980,1198,21.4881,-4.1096
763,-174,21.4464,3.94446,0.0174229,0.000484372,0.000734958,0.0174547,0.000452542,0.0432812,0.0114886,0.0118258,1987,1198,21.4464,-3.94446
770,-174,21.4592,3.77515,0.0246813,0.000131595,0.00135016,0.0247553,5.75632e-05,0.054777,0.0164844,0.0232136,1994,1198,21.4593,-3.77514
777,-174,22.2598,3.23328,0.0333795,-0.000629733,0.00243959,0.0335536,-0.000803841,0.0712471,0.0226418,0.0420243,2001,1198,22.2597,-3.23331
784,-174,23.1885,2.62146,0,0,0,0,0,0,0,-1,2008,1198,23.1885,-2.62151
791,-174,23.9812,2.15442,0,0,0,0,0,0,0,-1,2015,1198,23.9812,-2.15447
798,-174,21.5925,4.43286,0.0665799,-0.00571668,0.0111285,0.0682541,-0.00739091,0.149325,0.0481558,0.0440449,2022,1198,21.5926,-4.43291
805,-174,21.4304,4.56799,0,0,0,0,0,0,0,-1,2029,1198,21.4305,-4.56801
812,-174,0,0,0,0,0,0,0,0,0,-1,2036,1198,0,0
-700,-181,0,0,0,0,0,0,0,0,0,-1,524,1205,0,0
-693,-181,0,0,0,0,0,0,0,0,0,-1,531,1205,0,0
-686,-181,-10.9818,-2.54224,0,0,0,0,0,0,0,-1,538,1205,-10.9818,2.54229
-679,-181,-11.1058,-1.65308,0,0,0,0,0,0,0,-1,545,1205,-11.1058,1.65311
-672,-181,-11.6075,-1.08508,0,0,0,0,0,0,0,-1,552,1205,-11.6075,1.08506
-665,-181,-12.1607,-0.518921,0,0,0,0,0,0,0,-1,559,1205,-12.1607,0.518929
-658,-181,-13.2415,0.704224,0,0,0,0,0,0,0,-1,566,1205,-13.2415,-0.704191
-651,-181,-13.2784,0.904175,-0.0242852,0.0242924,0.00546735,0.0249001,-0.024893,1.46009,0.0287481,0.0481279,573,1205,-13.2784,-0.904147
-644,-181,-13.3041,1.08936,-0.0186792,0.0171578,0.00311811,0.0174271,-0.0189485,1.48465,0.0210076,0.0410873,580,1205,-13.3042,-1.0894
-637,-181,-13.3382,1.2821,-0.0140464,0.0118137,0.00160964,0.0119135,-0.0141462,1.50887,0.015064,0.0225776,587,1205,-13.3382,-1.2821
-630,-181,-13.3793,1.47522,-0.0102684,0.00738944,0.00038679,0.0073979,-0.0102769,1.54891,0.0102496,0.0117536,594,1205,-13.3793,-1.47523
-623,-181,-13.4419,1.64563,-0.00764811,0.00425387,-0.000429388,0.00426934,-0.00766358,-1.53478,0.00698176,0.0135571,601,1205,-13.4419,-1.64561
-616,-181,-13.4313,1.83643,-0.00626878,0.00216293,-0.00111065,0.00230677,-0.00641262,-1.442,0.00521687,0.0134889,608,1205,-13.4313,-1.83645
-609,-181,-13.4352,2.04419,-0.00513278,0.00045594,-0.00176795,0.000968256,-0.00564509,-1.28874,0.00412421,0.0132454,615,1205,-13.4352,-2.04419
-602,-181,-13.4293,2.23975,-0.00457997,-0.000979363,-0.00241372,0.000231498,-0.00579084,-1.10582,0.00393999,0.0120347,622,1205,-13.4292,-2.23971
-595,-181,-13.4756,2.42114,-0.00475357,-0.00158829,-0.00300673,0.000226891,-0.00656875,-1.02766,0.00445672,0.0129978,629,1205,-13.4756,-2.42108
-588,-181,-13.5203,2.6355,-0.00508986,-0.00186851,-0.00322237,0.0001233,-0.00708168,-1.01716,0.00476275,0.0148867,636,1205,-13.5203,-2.6355
-581,-181,-13.4811,2.91321,-0.00487385,-0.00215112,-0.00335833,0.000111278,-0.00713626,-0.977962,0.00479503,0.0176994,643,1205,-13.4811,-2.91319
-574,-181,-13.8333,2.91577,-0.00456469,-0.00204094,-0.00342152,0.000343988,-0.00694962,-0.962063,0.00475189,0.0430455,650,1205,-13.8333,-2.91578
-567,-181,-14.4646,2.81445,0,0,0,0,0,0,0,-1,657,1205,-14.4646,-2.81442
-560,-181,-16.6728,1.50208,0,0,0,0,0,0,0,-1,664,1205,-16.6728,-1.50206
-553,-181,-16.5001,1.25415,-0.00417559,-0.00204578,-0.00239992,-0.000485107,-0.00573626,-0.99421,0.00367317,0.041677,671,1205,-16.5,-1.25413
-546,-181,-16.2964,0.912476,-0.00367257,-0.00199738,-0.00176615,-0.000880274,-0.00478968,-1.00682,0.0029439,0.0359499,678,1205,-16.2964,-0.912471
-539,-181,-16.3691,0.869995,-0.00296045,-0.00212743,-0.000946391,-0.00150995,-0.00357793,-0.992695,0.00207408,0.0378856,685,1205,-16.3691,-0.86994
-532,-181,-16.5189,1.39685,0,0,0,0,0,0,0,-1,692,1205,-16.5189,-1.39687
-525,-181,-16.4153,1.42053,-0.000506763,-0.00410798,0.00107124,-0.000212198,-0.00440255,0.268343,0.00286692,0.0440162,699,1205,-16.4153,-1.42048
-518,-181,-16.4703,1.24194,0.00027285,-0.00842341,0.0009676,0.000379211,-0.00852977,0.109482,0.00581704,0.0408035,706,1205,-16.4703,-1.24192
-511,-181,0,0,0,0,0,0,0,0,0,-1,713,1205,0,0
-504,-181,0,0,0,0,0,0,0,0,0,-1,720,1205,0,0
-497,-181,0,0,0,0,0,0,0,0,0,-1,727,1205,0,0
-490,-181,0,0,0,0,0,0,0,0,0,-1,734,1205,0,0
-483,-181,0,0,0,0,0,0,0,0,0,-1,741,1205,0,0
-476,-181,0,0,0,0,0,0,0,0,0,-1,748,1205,0,0
-469,-181,0,0,0,0,0,0,0,0,0,-1,755,1205,0,0
-462,-181,0,0,0,0,0,0,0,0,0,-1,762,1205,0,0
-455,-181,0,0,0,0,0,0,0,0,0,-1,769,1205,0,0
-448,-181,0,0,0,0,0,0,0,0,0,-1,776,1205,0,0
-441,-181,0,0,0,0,0,0,0,0,0,-1,783,1205,0,0
-434,-181,0,0,0,0,0,0,0,0,0,-1,790,1205,0,0
-427,-181,0,0,0,0,0,0,0,0,0,-1,797,1205,0,0
-420,-181,0,0,0,0,0,0,0,0,0,-1,804,1205,0,0
-413,-181,0,0,0,0,0,0,0,0,0,-1,811,1205,0,0
-406,-181,0,0,0,0,0,0,0,0,0,-1,818,1205,0,0
-399,-181,0,0,0,0,0,0,0,0,0,-1,825,1205,0,0
-392,-181,0,0,0,0,0,0,0,0,0,-1,832,1205,0,0
-385,-181,0,0,0,0,0,0,0,0,0,-1,839,1205,0,0
-378,-181,0,0,0,0,0,0,0,0,0,-1,846,1205,0,0
-371,-181,0,0,0,0,0,0,0,0,0,-1,853,1205,0,0
-364,-181,0,0,0,0,0,0,0,0,0,-1,860,1205,0,0
-357,-181,0,0,0,0,0,0,0,0,0,-1,867,1205,0,0
-350,-181,0,0,0,0,0,0,0,0,0,-1,874,1205,0,0
-343,-181,0,0,0,0,0,0,0,0,0,-1,881,1205,0,0
-336,-181,0,0,0,0,0,0,0,0,0,-1,888,1205,0,0
-329,-181,0,0,0,0,0,0,0,0,0,-1,895,1205,0,0
-322,-181,0,0,0,0,0,0,0,0,0,-1,902,1205,0,0
-315,-181,0,0,0,0,0,0,0,0,0,-1,909,1205,0,0
-308,-181,0,0,0,0,0,0,0,0,0,-1,916,1205,0,0
-301,-181,0,0,0,0,0,0,0,0,0,-1,923,1205,0,0
-294,-181,0,0,0,0,0,0,0,0,0,-1,930,1205,0,0
-287,-181,0,0,0,0,0,0,0,0,0,-1,937,1205,0,0
-280,-181,0,0,0,0,0,0,0,0,0,-1,944,1205,0,0
-273,-181,0,0,0,0,0,0,0,0,0,-1,951,1205,0,0
-266,-181,0,0,0,0,0,0,0,0,0,-1,958,1205,0,0
-259,-181,0,0,0,0,0,0,0,0,0,-1,965,1205,0,0
-252,-181,0,0,0,0,0,0,0,0,0,-1,972,1205,0,0
-245,-181,0,0,0,0,0,0,0,0,0,-1,979,1205,0,0
-238,-181,0,0,0,0,0,0,0,0,0,-1,986,1205,0,0
-231,-181,0,0,0,0,0,0,0,0,0,-1,993,1205,0,0
-224,-181,0,0,0,0,0,0,0,0,0,-1,1000,1205,0,0
-217,-181,0,0,0,0,0,0,0,0,0,-1,1007,1205,0,0
-210,-181,0,0,0,0,0,0,0,0,0,-1,1014,1205,0,0
-203,-181,0,0,0,0,0,0,0,0,0,-1,1021,1205,0,0
-196,-181,0,0,0,0,0,0,0,0,0,-1,1028,1205,0,0
-189,-181,0,0,0,0,0,0,0,0,0,-1,1035,1205,0,0
-182,-181,0,0,0,0,0,0,0,0,0,-1,1042,1205,0,0
-175,-181,0,0,0,0,0,0,0,0,0,-1,1049,1205,0,0
-168,-181,0,0,0,0,0,0,0,0,0,-1,1056,1205,0,0
-161,-181,0,0,0,0,0,0,0,0,0,-1,1063,1205,0,0
-154,-181,0,0,0,0,0,0,0,0,0,-1,1070,1205,0,0
-147,-181,0,0,0,0,0,0,0,0,0,-1,1077,1205,0,0
-140,-181,0,0,0,0,0,0,0,0,0,-1,1084,1205,0,0
-133,-181,0,0,0,0,0,0,0,0,0,-1,1091,1205,0,0
-126,-181,0,0,0,0,0,0,0,0,0,-1,1098,1205,0,0
-119,-181,0,0,0,0,0,0,0,0,0,-1,1105,1205,0,0
-112,-181,0,0,0,0,0,0,0,0,0,-1,1112,1205,0,0
-105,-181,0,0,0,0,0,0,0,0,0,-1,1119,1205,0,0
-98,-181,0,0,0,0,0,0,0,0,0,-1,1126,1205,0,0
-91,-181,0,0,0,0,0,0,0,0,0,-1,1133,1205,0,0
-84,-181,0,0,0,0,0,0,0,0,0,-1,1140,1205,0,0
-77,-181,0,0,0,0,0,0,0,0,0,-1,1147,1205,0,0
-70,-181,0,0,0,0,0,0,0,0,0,-1,1154,1205,0,0
-63,-181,0,0,0,0,0,0,0,0,0,-1,1161,1205,0,0
-56,-181,0,0,0,0,0,0,0,0,0,-1,1168,1205,0,0
-49,-181,0,0,0,0,0,0,0,0,0,-1,1175,1205,0,0
-42,-181,0,0,0,0,0,0,0,0,0,-1,1182,1205,0,0
-35,-181,0,0,0,0,0,0,0,0,0,-1,1189,1205,0,0
-28,-181,0,0,0,0,0,0,0,0,0,-1,1196,1205,0,0
-21,-181,0,0,0,0,0,0,0,0,0,-1,1203,1205,0,0
-14,-181,0,0,0,0,0,0,0,0,0,-1,1210,1205,0,0
-7,-181,0,0,0,0,0,0,0,0,0,-1,1217,1205,0,0
0,-181,0,0,0,0,0,0,0,0,0,-1,1224,1205,0,0
7,-181,0,0,0,0,0,0,0,0,0,-1,1231,1205,0,0
14,-181,0,0,0,0,0,0,0,0,0,-1,1238,1205,0,0
21,-181,0,0,0,0,0,0,0,0,0,-1,1245,1205,0,0
28,-181,0,0,0,0,0,0,0,0,0,-1,1252,1205,0,0
35,-181,0,0,0,0,0,0,0,0,0,-1,1259,1205,0,0
42,-181,0,0,0,0,0,0,0,0,0,-1,1266,1205,0,0
49,-181,0,0,0,0,0,0,0,0,0,-1,1273,1205,0,0
56,-181,0,0,0,0,0,0,0,0,0,-1,1280,1205,0,0
63,-181,0,0,0,0,0,0,0,0,0,-1,1287,1205,0,0
70,-181,0,0,0,0,0,0,0,0,0,-1,1294,1205,0,0
77,-181,0,0,0,0,0,0,0,0,0,-1,1301,1205,0,0
84,-181,0,0,0,0,0,0,0,0,0,-1,1308,1205,0,0
91,-181,0,0,0,0,0,0,0,0,0,-1,1315,1205,0,0
98,-181,0,0,0,0,0,0,0,0,0,-1,1322,1205,0,0
105,-181,0,0,0,0,0,0,0,0,0,-1,1329,1205,0,0
112,-181,0,0,0,0,0,0,0,0,0,-1,1336,1205,0,0
119,-181,0,0,0,0,0,0,0,0,0,-1,1343,1205,0,0
126,-181,0,0,0,0,0,0,0,0,0,-1,1350,1205,0,0
133,-181,0,0,0,0,0,0,0,0,0,-1,1357,1205,0,0
140,-181,0,0,0,0,0,0,0,0,0,-1,1364,1205,0,0
147,-181,0,0,0,0,0,0,0,0,0,-1,1371,1205,0,0
154,-181,0,0,0,0,0,0,0,0,0,-1,1378,1205,0,0
161,-181,0,0,0,0,0,0,0,0,0,-1,1385,1205,0,0
168,-181,0,0,0,0,0,0,0,0,0,-1,1392,1205,0,0
175,-181,0,0,0,0,0,0,0,0,0,-1,1399,1205,0,0
182,-181,0,0,0,0,0,0,0,0,0,-1,1406,1205,0,0
189,-181,0,0,0,0,0,0,0,0,0,-1,1413,1205,0,0
196,-181,0,0,0,0,0,0,0,0,0,-1,1420,1205,0,0
203,-181,0,0,0,0,0,0,0,0,0,-1,1427,1205,0,0
210,-181,0,0,0,0,0,0,0,0,0,-1,1434,1205,0,0
217,-181,0,0,0,0,0,0,0,0,0,-1,1441,1205,0,0
224,-181,0,0,0,0,0,0,0,0,0,-1,1448,1205,0,0
231,-181,0,0,0,0,0,0,0,0,0,-1,1455,1205,0,0
238,-181,0,0,0,0,0,0,0,0,0,-1,1462,1205,0,0
245,-181,0,0,0,0,0,0,0,0,0,-1,1469,1205,0,0
252,-181,0,0,0,0,0,0,0,0,0,-1,1476,1205,0,0
259,-181,0,0,0,0,0,0,0,0,0,-1,1483,1205,0,0
266,-181,0,0,0,0,0,0,0,0,0,-1,1490,1205,0,0
273,-181,0,0,0,0,0,0,0,0,0,-1,1497,1205,0,0
280,-181,0,0,0,0,0,0,0,0,0,-1,1504,1205,0,0
287,-181,0,0,0,0,0,0,0,0,0,-1,1511,1205,0,0
294,-181,0,0,0,0,0,0,0,0,0,-1,1518,1205,0,0
301,-181,0,0,0,0,0,0,0,0,0,-1,1525,1205,0,0
308,-181,0,0,0,0,0,0,0,0,0,-1,1532,1205,0,0
315,-181,0,0,0,0,0,0,0,0,0,-1,1539,1205,0,0
322,-181,0,0,0,0,0,0,0,0,0,-1,1546,1205,0,0
329,-181,0,0,0,0,0,0,0,0,0,-1,1553,1205,0,0
336,-181,0,0,0,0,0,0,0,0,0,-1,1560,1205,0,0
343,-181,0,0,0,0,0,0,0,0,0,-1,1567,1205,0,0
350,-181,0,0,0,0,0,0,0,0,0,-1,1574,1205,0,0
357,-181,0,0,0,0,0,0,0,0,0,-1,1581,1205,0,0
364,-181,0,0,0,0,0,0,0,0,0,-1,1588,1205,0,0
371,-181,0,0,0,0,0,0,0,0,0,-1,1595,1205,0,0
378,-181,0,0,0,0,0,0,0,0,0,-1,1602,1205,0,0
385,-181,0,0,0,0,0,0,0,0,0,-1,1609,1205,0,0
392,-181,0,0,0,0,0,0,0,0,0,-1,1616,1205,0,0
399,-181,0,0,0,0,0,0,0,0,0,-1,1623,1205,0,0
406,-181,0,0,0,0,0,0,0,0,0,-1,1630,1205,0,0
413,-181,0,0,0,0,0,0,0,0,0,-1,1637,1205,0,0
420,-181,0,0,0,0,0,0,0,0,0,-1,1644,1205,0,0
427,-181,0,0,0,0,0,0,0,0,0,-1,1651,1205,0,0
434,-181,0,0,0,0,0,0,0,0,0,-1,1658,1205,0,0
441,-181,0,0,0,0,0,0,0,0,0,-1,1665,1205,0,0
448,-181,0,0,0,0,0,0,0,0,0,-1,1672,1205,0,0
455,-181,0,0,0,0,0,0,0,0,0,-1,1679,1205,0,0
462,-181,0,0,0,0,0,0,0,0,0,-1,1686,1205,0,0
469,-181,0,0,0,0,0,0,0,0,0,-1,1693,1205,0,0
476,-181,0,0,0,0,0,0,0,0,0,-1,1700,1205,0,0
483,-181,0,0,0,0,0,0,0,0,0,-1,1707,1205,0,0
490,-181,0,0,0,0,0,0,0,0,0,-1,1714,1205,0,0
497,-181,0,0,0,0,0,0,0,0,0,-1,1721,1205,0,0
504,-181,0,0,0,0,0,0,0,0,0,-1,1728,1205,0,0
511,-181,0,0,0,0,0,0,0,0,0,-1,1735,1205,0,0
518,-181,0,0,0,0,0,0,0,0,0,-1,1742,1205,0,0
525,-181,0,0,0,0,0,0,0,0,0,-1,1749,1205,0,0
532,-181,0,0,0,0,0,0,0,0,0,-1,1756,1205,0,0
539,-181,0,0,0,0,0,0,0,0,0,-1,1763,1205,0,0
546,-181,0,0,0,0,0,0,0,0,0,-1,1770,1205,0,0
553,-181,0,0,0,0,0,0,0,0,0,-1,1777,1205,0,0
560,-181,0,0,0,0,0,0,0,0,0,-1,1784,1205,0,0
567,-181,0,0,0,0,0,0,0,0,0,-1,1791,1205,0,0
574,-181,0,0,0,0,0,0,0,0,0,-1,1798,1205,0,0
581,-181,0,0,0,0,0,0,0,0,0,-1,1805,1205,0,0
588,-181,0,0,0,0,0,0,0,0,0,-1,1812,1205,0,0
595,-181,0,0,0,0,0,0,0,0,0,-1,1819,1205,0,0
602,-181,0,0,0,0,0,0,0,0,0,-1,1826,1205,0,0
609,-181,0,0,0,0,0,0,0,0,0,-1,1833,1205,0,0
616,-181,0,0,0,0,0,0,0,0,0,-1,1840,1205,0,0
623,-181,0,0,0,0,0,0,0,0,0,-1,1847,1205,0,0
630,-181,24.163,2.6814,0.000999011,-0.0018912,-0.000303401,0.00103052,-0.00192271,-0.103472,0.00173079,0.0377473,1854,1205,24.163,-2.68142
637,-181,24.2053,2.59521,0.000656288,-0.000660534,5.96112e-05,0.000658981,-0.000663227,0.0451459,0.000763379,0.0387731,1861,1205,24.2054,-2.59516
644,-181,24.0314,2.5957,0.000893526,-0.00023326,0.000310128,0.000973243,-0.000312977,0.2516,0.000774528,0.0412632,1868,1205,24.0314,-2.5957
651,-181,24.1371,2.68921,0.000940779,-0.000143584,0.000754752,0.0013279,-0.00053071,0.473928,0.00110548,0.0375476,1875,1205,24.1371,-2.68923
658,-181,24.1532,2.75317,0.000845233,-0.000492798,0.00125949,0.00160236,-0.00124993,0.541258,0.00165095,0.0329872,1882,1205,24.1532,-2.75318
665,-181,24.1517,2.80896,0.000617442,-0.000949176,0.00165529,0.00166541,-0.00199714,0.564402,0.00211746,0.0300513,1889,1205,24.1517,-2.80892
672,-181,24.0518,2.77429,0.000232655,-0.0014621,0.00193296,0.00149582,-0.00272527,0.578822,0.00247127,0.021986,1896,1205,24.0518,-2.77435
679,-181,24.0557,2.76343,-0.000258393,-0.00187677,0.00216308,0.0012419,-0.00337707,0.606412,0.0027601,0.026594,1903,1205,24.0556,-2.76347
686,-181,24.1147,2.81494,-0.000705722,-0.00214827,0.00226923,0.000954105,-0.00380809,0.631523,0.00290939,0.0460335,1910,1205,24.1147,-2.8149
693,-181,24.1648,2.84448,0,0,0,0,0,0,0,-1,1917,1205,24.1647,-2.84452
700,-181,21.7153,5.3092,0,0,0,0,0,0,0,-1,1924,1205,21.7153,-5.30919
707,-181,21.6204,5.15649,-0.00184941,-0.00248512,0.00237246,0.000226389,-0.00456092,0.718806,0.00311881,0.0327724,1931,1205,21.6204,-5.15654
714,-181,21.6049,5.00635,-0.00221473,-0.00246226,0.00225454,-8.05615e-05,-0.00459643,0.757978,0.00303779,0.0243273,1938,1205,21.6049,-5.0063
721,-181,21.4523,4.87573,-0.00203953,-0.00222621,0.00198751,-0.000143172,-0.00412257,0.761934,0.00270192,0.0166408,1945,1205,21.4523,-4.87573
728,-181,21.324,4.75732,-0.00097583,-0.00155809,0.00143749,0.00019972,-0.00273363,0.685487,0.00189251,0.0111656,1952,1205,21.324,-4.75735
735,-181,21.3424,4.58789,0.000624869,-0.000878063,0.000897214,0.00104374,-0.00129694,0.436786,0.00135402,0.0107543,1959,1205,21.3425,-4.58792
742,-181,21.3344,4.43127,0.00325406,0.000107435,0.000516039,0.00333653,2.49676e-05,0.158469,0.00221608,0.0166574,1966,1205,21.3344,-4.43128
749,-181,21.3271,4.25574,0.00695965,0.000796209,0.000337864,0.00697811,0.000777744,0.0545994,0.00441572,0.0157749,1973,1205,21.3272,-4.2558
756,-181,21.3226,4.08887,0.0119896,0.00136659,8.16939e-05,0.0119902,0.00136596,0.00768967,0.0075793,0.010795,1980,1205,21.3227,-4.08883
763,-181,21.3054,3.93481,0.0178906,0.00172103,0.000220372,0.0178936,0.00171802,0.0136254,0.0113997,0.0104429,1987,1205,21.3054,-3.93478
770,-181,21.3425,3.75049,0.025199,0.00181702,0.000800016,0.0252263,0.00178968,0.0341618,0.0162539,0.0225858,1994,1205,21.3426,-3.75046
777,-181,21.4669,3.48999,0.0339613,0.00153461,0.00197404,0.034081,0.00141488,0.0605789,0.022264,0.0449163,2001,1205,21.4669,-3.48995
784,-181,21.6014,3.23486,0,0,0,0,0,0,0,-1,2008,1205,21.6014,-3.23486
791,-181,20.698,3.5686,0,0,0,0,0,0,0,-1,2015,1205,20.6981,-3.56861
798,-181,20.848,4.45203,0,0,0,0,0,0,0,-1,2022,1205,20.848,-4.45199
805,-181,0,0,0,0,0,0,0,0,0,-1,2029,1205,0,0
812,-181,0,0,0,0,0,0,0,0,0,-1,2036,1205,0,0
-700,-188,0,0,0,0,0,0,0,0,0,-1,524,1212,0,0
-693,-188,0,0,0,0,0,0,0,0,0,-1,531,1212,0,0
-686,-188,0,0,0,0,0,0,0,0,0,-1,538,1212,0,0
-679,-188,-11.5219,-4.45703,0,0,0,0,0,0,0,-1,545,1212,-11.5219,4.45707
-672,-188,-17.4534,2.70813,0,0,0,0,0,0,0,-1,552,1212,-17.4534,-2.70813
-665,-188,-11.8201,-1.02185,0,0,0,0,0,0,0,-1,559,1212,-11.8201,1.02183
-658,-188,-19.4077,0.836792,0,0,0,0,0,0,0,-1,566,1212,-19.4077,-0.836803
-651,-188,-13.0328,0.873535,0,0,0,0,0,0,0,-1,573,1212,-13.0328,-0.873564
-644,-188,-13.0768,1.13391,-0.0205648,0.0191977,0.00469379,0.0197443,-0.0211114,1.45487,0.0235924,0.0429359,580,1212,-13.0768,-1.13395
-637,-188,-13.1735,1.27625,-0.0154723,0.013261,0.00284234,0.0135394,-0.0157508,1.47314,0.0169268,0.0208049,587,1212,-13.1735,-1.2763
-630,-188,-13.2184,1.46643,-0.0112915,0.00841693,0.00137059,0.00851179,-0.0113863,1.5017,0.0115281,0.00999908,594,1212,-13.2184,-1.46647
-623,-188,-13.2245,1.66675,-0.00824923,0.0051048,0.000432728,0.00511881,-0.00826324,1.53844,0.0077969,0.0104427,601,1212,-13.2245,-1.6668
-616,-188,-13.2057,1.85791,-0.00648428,0.0028444,-0.000399028,0.00286144,-0.00650132,-1.52813,0.00554008,0.0103188,608,1212,-13.2057,-1.85794
-609,-188,-13.1758,2.05664,-0.00499286,0.00096387,-0.00117522,0.00118735,-0.00521634,-1.38288,0.00393354,0.0127487,615,1212,-13.1758,-2.0566
-602,-188,-13.1578,2.29004,-0.00415963,-0.000562748,-0.00189467,0.000251121,-0.00497349,-1.16507,0.00340246,0.0153288,622,1212,-13.1578,-2.29004
-595,-188,-13.2142,2.47375,-0.00412213,-0.00113355,-0.00251417,0.000296866,-0.00555256,-1.05352,0.00380452,0.0124851,629,1212,-13.2142,-2.47375
-588,-188,-13.2502,2.66772,-0.00435894,-0.0014195,-0.00272443,0.000206361,-0.0059848,-1.03276,0.0040604,0.0107427,636,1212,-13.2502,-2.66778
-581,-188,-13.2602,2.89502,-0.00409953,-0.00174837,-0.00283274,0.000143033,-0.00599093,-0.982082,0.00404248,0.0114317,643,1212,-13.2602,-2.89506
-574,-188,-13.3666,2.9386,-0.0038234,-0.00160999,-0.00291392,0.000400311,-0.00583371,-0.966884,0.00402921,0.0305314,650,1212,-13.3666,-2.93865
-567,-188,-13.476,2.8833,0,0,0,0,0,0,0,-1,657,1212,-13.476,-2.88324
-560,-188,-16.6016,1.42847,0,0,0,0,0,0,0,-1,664,1212,-16.6015,-1.42851
-553,-188,-16.4008,1.1239,-0.0038828,-0.00165836,-0.0018902,-0.000577427,-0.00496373,-1.05133,0.00313445,0.0476595,671,1212,-16.4008,-1.12391
-546,-188,-16.2908,0.897583,-0.00374451,-0.00164019,-0.00131193,-0.00101062,-0.00437408,-1.12338,0.00264435,0.0435624,678,1212,-16.2908,-0.897591
-539,-188,-16.279,0.887207,-0.00349163,-0.0017943,-0.000579895,-0.0016151,-0.00367083,-1.27108,0.00212444,0.0378194,685,1212,-16.279,-0.887263
-532,-188,-16.2885,0.968262,-0.00309853,-0.0023126,0.000315891,-0.00220138,-0.00320976,1.23225,0.00189534,0.0423167,692,1212,-16.2885,-0.968208
-525,-188,-16.3948,1.13965,-0.00238537,-0.0035753,0.00133281,-0.00152075,-0.00443991,0.57547,0.00260542,0.0412969,699,1212,-16.3948,-1.1397
-518,-188,-16.3973,1.16028,-0.00212265,-0.00716828,0.00171936,-0.00159247,-0.00769846,0.299109,0.00469244,0.0410628,706,1212,-16.3973,-1.16024
-511,-188,-16.3245,1.03809,-0.00100436,-0.0119208,0.00233627,-0.000525378,-0.0123997,0.202217,0.00809705,0.0372743,713,1212,-16.3245,-1.03812
-504,-188,0,0,0,0,0,0,0,0,0,-1,720,1212,0,0
-497,-188,0,0,0,0,0,0,0,0,0,-1,727,1212,0,0
-490,-188,0,0,0,0,0,0,0,0,0,-1,734,1212,0,0
-483,-188,0,0,0,0,0,0,0,0,0,-1,741,1212,0,0
-476,-188,0,0,0,0,0,0,0,0,0,-1,748,1212,0,0
-469,-188,0,0,0,0,0,0,0,0,0,-1,755,1212,0,0
-462,-188,0,0,0,0,0,0,0,0,0,-1,762,1212,0,0
-455,-188,0,0,0,0,0,0,0,0,0,-1,769,1212,0,0
-448,-188,0,0,0,0,0,0,0,0,0,-1,776,1212,0,0
-441,-188,0,0,0,0,0,0,0,0,0,-1,783,1212,0,0
-434,-188,0,0,0,0,0,0,0,0,0,-1,790,1212,0,0
-427,-188,0,0,0,0,0,0,0,0,0,-1,797,1212,0,0
-420,-188,0,0,0,0,0,0,0,0,0,-1,804,1212,0,0
-413,-188,0,0,0,0,0,0,0,0,0,-1,811,1212,0,0
-406,-188,0,0,0,0,0,0,0,0,0,-1,818,1212,0,0
-399,-188,0,0,0,0,0,0,0,0,0,-1,825,1212,0,0
-392,-188,0,0,0,0,0,0,0,0,0,-1,832,1212,0,0
-385,-188,0,0,0,0,0,0,0,0,0,-1,839,1212,0,0
-378,-188,0,0,0,0,0,0,0,0,0,-1,846,1212,0,0
-371,-188,0,0,0,0,0,0,0,0,0,-1,853,1212,0,0
-364,-188,0,0,0,0,0,0,0,0,0,-1,860,1212,0,0
-357,-188,0,0,0,0,0,0,0,0,0,-1,867,1212,0,0
-350,-188,0,0,0,0,0,0,0,0,0,-1,874,1212,0,0
-343,-188,0,0,0,0,0,0,0,0,0,-1,881,1212,0,0
-336,-188,0,0,0,0,0,0,0,0,0,-1,888,1212,0,0
-329,-188,0,0,0,0,0,0,0,0,0,-1,895,1212,0,0
-322,-188,0,0,0,0,0,0,0,0,0,-1,902,1212,0,0
-315,-188,0,0,0,0,0,0,0,0,0,-1,909,1212,0,0
-308,-188,0,0,0,0,0,0,0,0,0,-1,916,1212,0,0
-301,-188,0,0,0,0,0,0,0,0,0,-1,923,1212,0,0
-294,-188,0,0,0,0,0,0,0,0,0,-1,930,1212,0,0
-287,-188,0,0,0,0,0,0,0,0,0,-1,937,1212,0,0
-280,-188,0,0,0,0,0,0,0,0,0,-1,944,1212,0,0
-273,-188,0,0,0,0,0,0,0,0,0,-1,951,1212,0,0
-266,-188,0,0,0,0,0,0,0,0,0,-1,958,1212,0,0
-259,-188,0,0,0,0,0,0,0,0,0,-1,965,1212,0,0
-252,-188,0,0,0,0,0,0,0,0,0,-1,972,1212,0,0
-245,-188,0,0,0,0,0,0,0,0,0,-1,979,1212,0,0
-238,-188,0,0,0,0,0,0,0,0,0,-1,986,1212,0,0
-231,-188,0,0,0,0,0,0,0,0,0,-1,993,1212,0,0
-224,-188,0,0,0,0,0,0,0,0,0,-1,1000,1212,0,0
-217,-188,0,0,0,0,0,0,0,0,0,-1,1007,1212,0,0
-210,-188,0,0,0,0,0,0,0,0,0,-1,1014,1212,0,0
-203,-188,0,0,0,0,0,0,0,0,0,-1,1021,1212,0,0
-196,-188,0,0,0,0,0,0,0,0,0,-1,1028,1212,0,0
-189,-188,0,0,0,0,0,0,0,0,0,-1,1035,1212,0,0
-182,-188,0,0,0,0,0,0,0,0,0,-1,1042,1212,0,0
-175,-188,0,0,0,0,0,0,0,0,0,-1,1049,1212,0,0
-168,-188,0,0,0,0,0,0,0,0,0,-1,1056,1212,0,0
-161,-188,0,0,0,0,0,0,0,0,0,-1,1063,1212,0,0
-154,-188,0,0,0,0,0,0,0,0,0,-1,1070,1212,0,0
-147,-188,0,0,0,0,0,0,0,0,0,-1,1077,1212,0,0
-140,-188,0,0,0,0,0,0,0,0,0,-1,1084,1212,0,0
-133,-188,0,0,0,0,0,0,0,0,0,-1,1091,1212,0,0
-126,-188,0,0,0,0,0,0,0,0,0,-1,1098,1212,0,0
-119,-188,0,0,0,0,0,0,0,0,0,-1,1105,1212,0,0
-112,-188,0,0,0,0,0,0,0,0,0,-1,1112,1212,0,0
-105,-188,0,0,0,0,0,0,0,0,0,-1,1119,1212,0,0
-98,-188,0,0,0,0,0,0,0,0,0,-1,1126,1212,0,0
-91,-188,0,0,0,0,0,0,0,0,0,-1,1133,1212,0,0
-84,-188,0,0,0,0,0,0,0,0,0,-1,1140,1212,0,0
-77,-188,0,0,0,0,0,0,0,0,0,-1,1147,1212,0,0
-70,-188,0,0,0,0,0,0,0,0,0,-1,1154,1212,0,0
-63,-188,0,0,0,0,0,0,0,0,0,-1,1161,1212,0,0
-56,-188,0,0,0,0,0,0,0,0,0,-1,1168,1212,0,0
-49,-188,0,0,0,0,0,0,0,0,0,-1,1175,1212,0,0
-42,-188,0,0,0,0,0,0,0,0,0,-1,1182,1212,0,0
-35,-188,0,0,0,0,0,0,0,0,0,-1,1189,1212,0,0
-28,-188,0,0,0,0,0,0,0,0,0,-1,1196,1212,0,0
-21,-188,0,0,0,0,0,0,0,0,0,-1,1203,1212,0,0
-14,-188,0,0,0,0,0,0,0,0,0,-1,1210,1212,0,0
-7,-188,0,0,0,0,0,0,0,0,0,-1,1217,1212,0,0
0,-188,0,0,0,0,0,0,0,0,0,-1,1224,1212,0,0
7,-188,0,0,0,0,0,0,0,0,0,-1,1231,1212,0,0
14,-188,0,0,0,0,0,0,0,0,0,-1,1238,1212,0,0
21,-188,0,0,0,0,0,0,0,0,0,-1,1245,1212,0,0
28,-188,0,0,0,0,0,0,0,0,0,-1,1252,1212,0,0
35,-188,0,0,0,0,0,0,0,0,0,-1,1259,1212,0,0
42,-188,0,0,0,0,0,0,0,0,0,-1,1266,1212,0,0
49,-188,0,0,0,0,0,0,0,0,0,-1,1273,1212,0,0
56,-188,0,0,0,0,0,0,0,0,0,-1,1280,1212,0,0
63,-188,0,0,0,0,0,0,0,0,0,-1,1287,1212,0,0
70,-188,0,0,0,0,0,0,0,0,0,-1,1294,1212,0,0
77,-188,0,0,0,0,0,0,0,0,0,-1,1301,1212,0,0
84,-188,0,0,0,0,0,0,0,0,0,-1,1308,1212,0,0
91,-188,0,0,0,0,0,0,0,0,0,-1,1315,1212,0,0
98,-188,0,0,0,0,0,0,0,0,0,-1,1322,1212,0,0
105,-188,0,0,0,0,0,0,0,0,0,-1,1329,1212,0,0
112,-188,0,0,0,0,0,0,0,0,0,-1,1336,1212,0,0
119,-188,0,0,0,0,0,0,0,0,0,-1,1343,1212,0,0
126,-188,0,0,0,0,0,0,0,0,0,-1,1350,1212,0,0
133,-188,0,0,0,0,0,0,0,0,0,-1,1357,1212,0,0
140,-188,0,0,0,0,0,0,0,0,0,-1,1364,1212,0,0
147,-188,0,0,0,0,0,0,0,0,0,-1,1371,1212,0,0
154,-188,0,0,0,0,0,0,0,0,0,-1,1378,1212,0,0
161,-188,0,0,0,0,0,0,0,0,0,-1,1385,1212,0,0
168,-188,0,0,0,0,0,0,0,0,0,-1,1392,1212,0,0
175,-188,0,0,0,0,0,0,0,0,0,-1,1399,1212,0,0
182,-188,0,0,0,0,0,0,0,0,0,-1,1406,1212,0,0
189,-188,0,0,0,0,0,0,0,0,0,-1,1413,1212,0,0
196,-188,0,0,0,0,0,0,0,0,0,-1,1420,1212,0,0
203,-188,0,0,0,0,0,0,0,0,0,-1,1427,1212,0,0
210,-188,0,0,0,0,0,0,0,0,0,-1,1434,1212,0,0
217,-188,0,0,0,0,0,0,0,0,0,-1,1441,1212,0,0
224,-188,0,0,0,0,0,0,0,0,0,-1,1448,1212,0,0
231,-188,0,0,0,0,0,0,0,0,0,-1,1455,1212,0,0
238,-188,0,0,0,0,0,0,0,0,0,-1,1462,1212,0,0
245,-188,0,0,0,0,0,0,0,0,0,-1,1469,1212,0,0
252,-188,0,0,0,0,0,0,0,0,0,-1,1476,1212,0,0
259,-188,0,0,0,0,0,0,0,0,0,-1,1483,1212,0,0
266,-188,0,0,0,0,0,0,0,0,0,-1,1490,1212,0,0
273,-188,0,0,0,0,0,0,0,0,0,-1,1497,1212,0,0
280,-188,0,0,0,0,0,0,0,0,0,-1,1504,1212,0,0
287,-188,0,0,0,0,0,0,0,0,0,-1,1511,1212,0,0
294,-188,0,0,0,0,0,0,0,0,0,-1,1518,1212,0,0
301,-188,0,0,0,0,0,0,0,0,0,-1,1525,1212,0,0
308,-188,0,0,0,0,0,0,0,0,0,-1,1532,1212,0,0
315,-188,0,0,0,0,0,0,0,0,0,-1,1539,1212,0,0
322,-188,0,0,0,0,0,0,0,0,0,-1,1546,1212,0,0
329,-188,0,0,0,0,0,0,0,0,0,-1,1553,1212,0,0
336,-188,0,0,0,0,0,0,0,0,0,-1,1560,1212,0,0
343,-188,0,0,0,0,0,0,0,0,0,-1,1567,1212,0,0
350,-188,0,0,0,0,0,0,0,0,0,-1,1574,1212,0,0
357,-188,0,0,0,0,0,0,0,0,0,-1,1581,1212,0,0
364,-188,0,0,0,0,0,0,0,0,0,-1,1588,1212,0,0
371,-188,0,0,0,0,0,0,0,0,0,-1,1595,1212,0,0
378,-188,0,0,0,0,0,0,0,0,0,-1,1602,1212,0,0
385,-188,0,0,0,0,0,0,0,0,0,-1,1609,1212,0,0
392,-188,0,0,0,0,0,0,0,0,0,-1,1616,1212,0,0
399,-188,0,0,0,0,0,0,0,0,0,-1,1623,1212,0,0
406,-188,0,0,0,0,0,0,0,0,0,-1,1630,1212,0,0
413,-188,0,0,0,0,0,0,0,0,0,-1,1637,1212,0,0
420,-188,0,0,0,0,0,0,0,0,0,-1,1644,1212,0,0
427,-188,0,0,0,0,0,0,0,0,0,-1,1651,1212,0,0
434,-188,0,0,0,0,0,0,0,0,0,-1,1658,1212,0,0
441,-188,0,0,0,0,0,0,0,0,0,-1,1665,1212,0,0
448,-188,0,0,0,0,0,0,0,0,0,-1,1672,1212,0,0
455,-188,0,0,0,0,0,0,0,0,0,-1,1679,1212,0,0
462,-188,0,0,0,0,0,0,0,0,0,-1,1686,1212,0,0
469,-188,0,0,0,0,0,0,0,0,0,-1,1693,1212,0,0
476,-188,0,0,0,0,0,0,0,0,0,-1,1700,1212,0,0
483,-188,0,0,0,0,0,0,0,0,0,-1,1707,1212,0,0
490,-188,0,0,0,0,0,0,0,0,0,-1,1714,1212,0,0
497,-188,0,0,0,0,0,0,0,0,0,-1,1721,1212,0,0
504,-188,0,0,0,0,0,0,0,0,0,-1,1728,1212,0,0
511,-188,0,0,0,0,0,0,0,0,0,-1,1735,1212,0,0
518,-188,0,0,0,0,0,0,0,0,0,-1,1742,1212,0,0
525,-188,0,0,0,0,0,0,0,0,0,-1,1749,1212,0,0
532,-188,0,0,0,0,0,0,0,0,0,-1,1756,1212,0,0
539,-188,0,0,0,0,0,0,0,0,0,-1,1763,1212,0,0
546,-188,0,0,0,0,0,0,0,0,0,-1,1770,1212,0,0
553,-188,0,0,0,0,0,0,0,0,0,-1,1777,1212,0,0
560,-188,0,0,0,0,0,0,0,0,0,-1,1784,1212,0,0
567,-188,0,0,0,0,0,0,0,0,0,-1,1791,1212,0,0
574,-188,0,0,0,0,0,0,0,0,0,-1,1798,1212,0,0
581,-188,0,0,0,0,0,0,0,0,0,-1,1805,1212,0,0
588,-188,0,0,0,0,0,0,0,0,0,-1,1812,1212,0,0
595,-188,0,0,0,0,0,0,0,0,0,-1,1819,1212,0,0
602,-188,0,0,0,0,0,0,0,0,0,-1,1826,1212,0,0
609,-188,0,0,0,0,0,0,0,0,0,-1,1833,1212,0,0
616,-188,0,0,0,0,0,0,0,0,0,-1,1840,1212,0,0
623,-188,0,0,0,0,0,0,0,0,0,-1,1847,1212,0,0
630,-188,24.0153,2.69995,0.000946955,-0.00225419,0.000119508,0.00095141,-0.00225864,0.0372639,0.00190386,0.0405635,1854,1212,24.0152,-2.69997
637,-188,23.9348,2.65405,0.00069054,-0.000661062,0.000282656,0.00074727,-0.000717792,0.198071,0.000845911,0.0414841,1861,1212,23.9348,-2.65408
644,-188,23.9135,2.64355,0.000774766,0.000123774,0.000487471,0.00103542,-0.000136883,0.491031,0.000740141,0.038126,1868,1212,23.9135,-2.64357
651,-188,24.0299,2.67542,0.000749513,0.000400634,0.000903819,0.00149557,-0.000345425,0.690069,0.00112993,0.0310563,1875,1212,24.0299,-2.67544
658,-188,24.1179,2.7218,0.000673379,0.000125809,0.00136346,0.00179027,-0.000991078,0.686315,0.00162776,0.0303016,1882,1212,24.1179,-2.72175
665,-188,24.1108,2.75598,0.000523766,-0.000329591,0.00171987,0.0018691,-0.00167492,0.663809,0.00204716,0.0280128,1889,1212,24.1108,-2.75603
672,-188,24.0642,2.75049,0.00023813,-0.000892507,0.00198133,0.00173322,-0.00238759,0.64643,0.00238913,0.0220532,1896,1212,24.0642,-2.75048
679,-188,24.0402,2.71716,-0.000122392,-0.00136051,0.00218634,0.00153085,-0.00301375,0.647435,0.00266998,0.0420648,1903,1212,24.0402,-2.71719
686,-188,24.2024,2.92432,-0.000450722,-0.00168764,0.00227737,0.00129067,-0.00342903,0.652812,0.00281661,0.0414083,1910,1212,24.2024,-2.9243
693,-188,24.2515,2.9187,0,0,0,0,0,0,0,-1,1917,1212,24.2514,-2.91869
700,-188,21.47,5.33838,0,0,0,0,0,0,0,-1,1924,1212,21.47,-5.33842
707,-188,21.3066,5.18848,-0.00135548,-0.00231392,0.00238803,0.000600937,-0.00427034,0.686375,0.00306689,0.0176018,1931,1212,21.3066,-5.18845
714,-188,21.2877,5.06433,-0.00162018,-0.00243217,0.00226136,0.00027134,-0.00432369,0.696577,0.00297703,0.0139335,1938,1212,21.2877,-5.06436
721,-188,21.1849,4.93298,-0.00143538,-0.00220629,0.00195776,0.000174504,-0.00381618,0.688198,0.00260423,0.0127265,1945,1212,21.185,-4.93293
728,-188,21.1509,4.75427,-0.000374891,-0.00151728,0.00134071,0.000511231,-0.00240341,0.584023,0.00179709,0.00941624,1952,1212,21.1509,-4.75422
735,-188,21.15,4.57996,0.00125853,-0.000768775,0.00070869,0.0014817,-0.000991947,0.305076,0.00143746,0.0122513,1959,1212,21.1501,-4.57996
742,-188,21.153,4.41235,0.00390073,0.000247507,0.000193117,0.00391091,0.000237326,0.0526664,0.00253188,0.0147668,1966,1212,21.1529,-4.41236
749,-188,21.1498,4.24268,0.00746933,0.000973098,-8.22751e-05,0.00747037,0.000972056,-0.0126623,0.00468993,0.0141064,1973,1212,21.1498,-4.24272
756,-188,21.1508,4.07886,0.012263,0.00158384,-0.000440595,0.0122812,0.00156569,-0.0411641,0.00771867,0.0118036,1980,1212,21.1507,-4.07881
763,-188,21.1442,3.92822,0.0180761,0.00199975,-0.000461359,0.0180894,0.00198653,-0.0286664,0.011455,0.012718,1987,1212,21.1442,-3.92821
770,-188,21.1354,3.74792,0.0253559,0.00220612,-6.47434e-05,0.0253561,0.00220593,-0.00279668,0.0162188,0.0209099,1994,1212,21.1353,-3.74797
777,-188,21.6477,3.07776,0.0340464,0.00203417,0.000999783,0.0340776,0.00200297,0.0311908,0.022081,0.0432143,2001,1212,21.6477,-3.0778
784,-188,22.1133,2.47534,0,0,0,0,0,0,0,-1,2008,1212,22.1133,-2.47534
791,-188,22.6007,2.92786,0,0,0,0,0,0,0,-1,2015,1212,22.6007,-2.9278
798,-188,23.1233,2.6405,0,0,0,0,0,0,0,-1,2022,1212,23.1233,-2.64047
805,-188,0,0,0,0,0,0,0,0,0,-1,2029,1212,0,0
812,-188,0,0,0,0,0,0,0,0,0,-1,2036,1212,0,0
-700,-195,0,0,0,0,0,0,0,0,0,-1,524,1219,0,0
-693,-195,0,0,0,0,0,0,0,0,0,-1,531,1219,0,0
-686,-195,0,0,0,0,0,0,0,0,0,-1,538,1219,0,0
-679,-195,-10.6544,-4.56091,0,0,0,0,0,0,0,-1,545,1219,-10.6544,4.56093
-672,-195,-10.3664,-3.99731,0,0,0,0,0,0,0,-1,552,1219,-10.3664,3.99727
-665,-195,-19.3543,1.98083,0,0,0,0,0,0,0,-1,559,1219,-19.3543,-1.98081
-658,-195,-12.6963,0.557007,0,0,0,0,0,0,0,-1,566,1219,-12.6963,-0.55706
-651,-195,-12.8886,0.860107,0,0,0,0,0,0,0,-1,573,1219,-12.8886,-0.860079
-644,-195,-12.9007,1.18494,0,0,0,0,0,0,0,-1,580,1219,-12.9007,-1.18492
-637,-195,-12.9463,1.27417,-0.0163844,0.0149512,0.00383893,0.0154146,-0.0168478,1.45065,0.0186329,0.0206228,587,1219,-12.9463,-1.27413
-630,-195,-13.0191,1.4668,-0.0119319,0.00962466,0.00226546,0.00986018,-0.0121674,1.46721,0.0127409,0.00762032,594,1219,-13.0191,-1.46675
-623,-195,-13.0087,1.66394,-0.00860211,0.00605081,0.00125921,0.00615823,-0.00870953,1.48569,0.00862593,0.00775621,601,1219,-13.0087,-1.66393
-616,-195,-12.974,1.86169,-0.00652407,0.00359551,0.00034269,0.0036071,-0.00653566,1.53698,0.00593674,0.00955767,608,1219,-12.974,-1.86165
-609,-195,-12.9617,2.07092,-0.00481861,0.00154685,-0.000534754,0.00159146,-0.00486322,-1.48757,0.00388291,0.0173894,615,1219,-12.9617,-2.07096
-602,-195,-12.9794,2.30017,-0.00378742,-1.78473e-05,-0.00131709,0.000396747,-0.00420201,-1.26584,0.00294252,0.0203993,622,1219,-12.9794,-2.30013
-595,-195,-13.0031,2.505,-0.00356371,-0.000587397,-0.00195461,0.00038109,-0.0045322,-1.11076,0.00315617,0.0160227,629,1219,-13.0031,-2.50502
-588,-195,-13.021,2.69055,-0.00368197,-0.000843504,-0.00214746,0.000311327,-0.0048368,-1.07739,0.00333316,0.00860622,636,1219,-13.021,-2.69056
-581,-195,-13.0541,2.82288,-0.00337306,-0.00117653,-0.00221394,0.000196588,-0.00474618,-1.01565,0.00323164,0.0111461,643,1219,-13.0541,-2.82288
-574,-195,-13.165,2.7959,-0.0031774,-0.000974985,-0.00231809,0.000490165,-0.00464255,-1.00714,0.00327069,0.0262856,650,1219,-13.165,-2.7959
-567,-195,-13.2516,2.74146,0,0,0,0,0,0,0,-1,657,1219,-13.2516,-2.74142
-560,-195,-15.0869,0.962646,0,0,0,0,0,0,0,-1,664,1219,-15.0869,-0.962705
-553,-195,-16.3146,1.04187,0,0,0,0,0,0,0,-1,671,1219,-16.3146,-1.04189
-546,-195,-16.0792,0.80481,-0.00388606,-0.00118894,-0.000850536,-0.000943128,-0.00413188,-1.28945,0.00250022,0.0476843,678,1219,-16.0791,-0.804809
-539,-195,-16.2758,0.924805,-0.00405037,-0.00142138,-0.000261084,-0.0013957,-0.00407605,-1.47276,0.00239195,0.0387092,685,1219,-16.2757,-0.924771
-532,-195,-16.2489,0.800415,-0.00421379,-0.00197702,0.000447862,-0.00189068,-0.00430013,1.38035,0.0024887,0.0337661,692,1219,-16.2489,-0.800463
-525,-195,-16.2321,0.904297,-0.00417956,-0.00313855,0.00130245,-0.00225645,-0.00506166,0.975493,0.00292807,0.037743,699,1219,-16.2321,-0.904346
-518,-195,-16.3257,1.17712,-0.00444486,-0.00601498,0.00190848,-0.00316628,-0.00729356,0.590271,0.00422311,0.0410993,706,1219,-16.3257,-1.17716
-511,-195,-16.4796,1.41687,-0.00379197,-0.0102116,0.00287922,-0.00268985,-0.0113138,0.365578,0.00682493,0.0425021,713,1219,-16.4795,-1.41688
-504,-195,0,0,0,0,0,0,0,0,0,-1,720,1219,0,0
-497,-195,0,0,0,0,0,0,0,0,0,-1,727,1219,0,0
-490,-195,0,0,0,0,0,0,0,0,0,-1,734,1219,0,0
-483,-195,0,0,0,0,0,0,0,0,0,-1,741,1219,0,0
-476,-195,0,0,0,0,0,0,0,0,0,-1,748,1219,0,0
-469,-195,0,0,0,0,0,0,0,0,0,-1,755,1219,0,0
-462,-195,0,0,0,0,0,0,0,0,0,-1,762,1219,0,0
-455,-195,0,0,0,0,0,0,0,0,0,-1,769,1219,0,0
-448,-195,0,0,0,0,0,0,0,0,0,-1,776,1219,0,0
-441,-195,0,0,0,0,0,0,0,0,0,-1,783,1219,0,0
-434,-195,0,0,0,0,0,0,0,0,0,-1,790,1219,0,0
-427,-195,0,0,0,0,0,0,0,0,0,-1,797,1219,0,0
-420,-195,0,0,0,0,0,0,0,0,0,-1,804,1219,0,0
-413,-195,0,0,0,0,0,0,0,0,0,-1,811,1219,0,0
-406,-195,0,0,0,0,0,0,0,0,0,-1,818,1219,0,0
-399,-195,0,0,0,0,0,0,0,0,0,-1,825,1219,0,0
-392,-195,0,0,0,0,0,0,0,0,0,-1,832,1219,0,0
-385,-195,0,0,0,0,0,0,0,0,0,-1,839,1219,0,0
-378,-195,0,0,0,0,0,0,0,0,0,-1,846,1219,0,0
-371,-195,0,0,0,0,0,0,0,0,0,-1,853,1219,0,0
-364,-195,0,0,0,0,0,0,0,0,0,-1,860,1219,0,0
-357,-195,0,0,0,0,0,0,0,0,0,-1,867,1219,0,0
-350,-195,0,0,0,0,0,0,0,0,0,-1,874,1219,0,0
-343,-195,0,0,0,0,0,0,0,0,0,-1,881,1219,0,0
-336,-195,0,0,0,0,0,0,0,0,0,-1,888,1219,0,0
-329,-195,0,0,0,0,0,0,0,0,0,-1,895,1219,0,0
-322,-195,0,0,0,0,0,0,0,0,0,-1,902,1219,0,0
-315,-195,0,0,0,0,0,0,0,0,0,-1,909,1219,0,0
-308,-195,0,0,0,0,0,0,0,0,0,-1,916,1219,0,0
-301,-195,0,0,0,0,0,0,0,0,0,-1,923,1219,0,0
-294,-195,0,0,0,0,0,0,0,0,0,-1,930,1219,0,0
-287,-195,0,0,0,0,0,0,0,0,0,-1,937,1219,0,0
-280,-195,0,0,0,0,0,0,0,0,0,-1,944,1219,0,0
-273,-195,0,0,0,0,0,0,0,0,0,-1,951,1219,0,0
-266,-195,0,0,0,0,0,0,0,0,0,-1,958,1219,0,0
-259,-195,0,0,0,0,0,0,0,0,0,-1,965,1219,0,0
-252,-195,0,0,0,0,0,0,0,0,0,-1,972,1219,0,0
-245,-195,0,0,0,0,0,0,0,0,0,-1,979,1219,0,0
-238,-195,0,0,0,0,0,0,0,0,0,-1,986,1219,0,0
-231,-195,0,0,0,0,0,0,0,0,0,-1,993,1219,0,0
-224,-195,0,0,0,0,0,0,0,0,0,-1,1000,1219,0,0
-217,-195,0,0,0,0,0,0,0,0,0,-1,1007,1219,0,0
-210,-195,0,0,0,0,0,0,0,0,0,-1,1014,1219,0,0
-203,-195,0,0,0,0,0,0,0,0,0,-1,1021,1219,0,0
-196,-195,0,0,0,0,0,0,0,0,0,-1,1028,1219,0,0
-189,-195,0,0,0,0,0,0,0,0,0,-1,1035,1219,0,0
-182,-195,0,0,0,0,0,0,0,0,0,-1,1042,1219,0,0
-175,-195,0,0,0,0,0,0,0,0,0,-1,1049,1219,0,0
-168,-195,0,0,0,0,0,0,0,0,0,-1,1056,1219,0,0
-161,-195,0,0,0,0,0,0,0,0,0,-1,1063,1219,0,0
-154,-195,0,0,0,0,0,0,0,0,0,-1,1070,1219,0,0
-147,-195,0,0,0,0,0,0,0,0,0,-1,1077,1219,0,0
-140,-195,0,0,0,0,0,0,0,0,0,-1,1084,1219,0,0
-133,-195,0,0,0,0,0,0,0,0,0,-1,1091,1219,0,0
-126,-195,0,0,0,0,0,0,0,0,0,-1,1098,1219,0,0
-119,-195,0,0,0,0,0,0,0,0,0,-1,1105,1219,0,0
-112,-195,0,0,0,0,0,0,0,0,0,-1,1112,1219,0,0
-105,-195,0,0,0,0,0,0,0,0,0,-1,1119,1219,0,0
-98,-195,0,0,0,0,0,0,0,0,0,-1,1126,1219,0,0
-91,-195,0,0,0,0,0,0,0,0,0,-1,1133,1219,0,0
-84,-195,0,0,0,0,0,0,0,0,0,-1,1140,1219,0,0
-77,-195,0,0,0,0,0,0,0,0,0,-1,1147,1219,0,0
-70,-195,0,0,0,0,0,0,0,0,0,-1,1154,1219,0,0
-63,-195,0,0,0,0,0,0,0,0,0,-1,1161,1219,0,0
-56,-195,0,0,0,0,0,0,0,0,0,-1,1168,1219,0,0
-49,-195,0,0,0,0,0,0,0,0,0,-1,1175,1219,0,0
-42,-195,0,0,0,0,0,0,0,0,0,-1,1182,1219,0,0
-35,-195,0,0,0,0,0,0,0,0,0,-1,1189,1219,0,0
-28,-195,0,0,0,0,0,0,0,0,0,-1,1196,1219,0,0
-21,-195,0,0,0,0,0,0,0,0,0,-1,1203,1219,0,0
-14,-195,0,0,0,0,0,0,0,0,0,-1,1210,1219,0,0
-7,-195,0,0,0,0,0,0,0,0,0,-1,1217,1219,0,0
0,-195,0,0,0,0,0,0,0,0,0,-1,1224,1219,0,0
7,-195,0,0,0,0,0,0,0,0,0,-1,1231,1219,0,0
14,-195,0,0,0,0,0,0,0,0,0,-1,1238,1219,0,0
21,-195,0,0,0,0,0,0,0,0,0,-1,1245,1219,0,0
28,-195,0,0,0,0,0,0,0,0,0,-1,1252,1219,0,0
35,-195,0,0,0,0,0,0,0,0,0,-1,1259,1219,0,0
42,-195,0,0,0,0,0,0,0,0,0,-1,1266,1219,0,0
49,-195,0,0,0,0,0,0,0,0,0,-1,1273,1219,0,0
56,-195,0,0,0,0,0,0,0,0,0,-1,1280,1219,0,0
63,-195,0,0,0,0,0,0,0,0,0,-1,1287,1219,0,0
70,-195,0,0,0,0,0,0,0,0,0,-1,1294,1219,0,0
77,-195,0,0,0,0,0,0,0,0,0,-1,1301,1219,0,0
84,-195,0,0,0,0,0,0,0,0,0,-1,1308,1219,0,0
91,-195,0,0,0,0,0,0,0,0,0,-1,1315,1219,0,0
98,-195,0,0,0,0,0,0,0,0,0,-1,1322,1219,0,0
105,-195,0,0,0,0,0,0,0,0,0,-1,1329,1219,0,0
112,-195,0,0,0,0,0,0,0,0,0,-1,1336,1219,0,0
119,-195,0,0,0,0,0,0,0,0,0,-1,1343,1219,0,0
126,-195,0,0,0,0,0,0,0,0,0,-1,1350,1219,0,0
133,-195,0,0,0,0,0,0,0,0,0,-1,1357,1219,0,0
140,-195,0,0,0,0,0,0,0,0,0,-1,1364,1219,0,0
147,-195,0,0,0,0,0,0,0,0,0,-1,1371,1219,0,0
154,-195,0,0,0,0,0,0,0,0,0,-1,1378,1219,0,0
161,-195,0,0,0,0,0,0,0,0,0,-1,1385,1219,0,0
168,-195,0,0,0,0,0,0,0,0,0,-1,1392,1219,0,0
175,-195,0,0,0,0,0,0,0,0,0,-1,1399,1219,0,0
182,-195,0,0,0,0,0,0,0,0,0,-1,1406,1219,0,0
189,-195,0,0,0,0,0,0,0,0,0,-1,1413,1219,0,0
196,-195,0,0,0,0,0,0,0,0,0,-1,1420,1219,0,0
203,-195,0,0,0,0,0,0,0,0,0,-1,1427,1219,0,0
210,-195,0,0,0,0,0,0,0,0,0,-1,1434,1219,0,0
217,-195,0,0,0,0,0,0,0,0,0,-1,1441,1219,0,0
224,-195,0,0,0,0,0,0,0,0,0,-1,1448,1219,0,0
231,-195,0,0,0,0,0,0,0,0,0,-1,1455,1219,0,0
238,-195,0,0,0,0,0,0,0,0,0,-1,1462,1219,0,0
245,-195,0,0,0,0,0,0,0,0,0,-1,1469,1219,0,0
252,-195,0,0,0,0,0,0,0,0,0,-1,1476,1219,0,0
259,-195,0,0,0,0,0,0,0,0,0,-1,1483,1219,0,0
266,-195,0,0,0,0,0,0,0,0,0,-1,1490,1219,0,0
273,-195,0,0,0,0,0,0,0,0,0,-1,1497,1219,0,0
280,-195,0,0,0,0,0,0,0,0,0,-1,1504,1219,0,0
287,-195,0,0,0,0,0,0,0,0,0,-1,1511,1219,0,0
294,-195,0,0,0,0,0,0,0,0,0,-1,1518,1219,0,0
301,-195,0,0,0,0,0,0,0,0,0,-1,1525,1219,0,0
308,-195,0,0,0,0,0,0,0,0,0,-1,1532,1219,0,0
315,-195,0,0,0,0,0,0,0,0,0,-1,1539,1219,0,0
322,-195,0,0,0,0,0,0,0,0,0,-1,1546,1219,0,0
329,-195,0,0,0,0,0,0,0,0,0,-1,1553,1219,0,0
336,-195,0,0,0,0,0,0,0,0,0,-1,1560,1219,0,0
343,-195,0,0,0,0,0,0,0,0,0,-1,1567,1219,0,0
350,-195,0,0,0,0,0,0,0,0,0,-1,1574,1219,0,0
357,-195,0,0,0,0,0,0,0,0,0,-1,1581,1219,0,0
364,-195,0,0,0,0,0,0,0,0,0,-1,1588,1219,0,0
371,-195,0,0,0,0,0,0,0,0,0,-1,1595,1219,0,0
378,-195,0,0,0,0,0,0,0,0,0,-1,1602,1219,0,0
385,-195,0,0,0,0,0,0,0,0,0,-1,1609,1219,0,0
392,-195,0,0,0,0,0,0,0,0,0,-1,1616,1219,0,0
399,-195,0,0,0,0,0,0,0,0,0,-1,1623,1219,0,0
406,-195,0,0,0,0,0,0,0,0,0,-1,1630,1219,0,0
413,-195,0,0,0,0,0,0,0,0,0,-1,1637,1219,0,0
420,-195,0,0,0,0,0,0,0,0,0,-1,1644,1219,0,0
427,-195,0,0,0,0,0,0,0,0,0,-1,1651,1219,0,0
434,-195,0,0,0,0,0,0,0,0,0,-1,1658,1219,0,0
441,-195,0,0,0,0,0,0,0,0,0,-1,1665,1219,0,0
448,-195,0,0,0,0,0,0,0,0,0,-1,1672,1219,0,0
455,-195,0,0,0,0,0,0,0,0,0,-1,1679,1219,0,0
462,-195,0,0,0,0,0,0,0,0,0,-1,1686,1219,0,0
469,-195,0,0,0,0,0,0,0,0,0,-1,1693,1219,0,0
476,-195,0,0,0,0,0,0,0,0,0,-1,1700,1219,0,0
483,-195,0,0,0,0,0,0,0,0,0,-1,1707,1219,0,0
490,-195,0,0,0,0,0,0,0,0,0,-1,1714,1219,0,0
497,-195,0,0,0,0,0,0,0,0,0,-1,1721,1219,0,0
504,-195,0,0,0,0,0,0,0,0,0,-1,1728,1219,0,0
511,-195,0,0,0,0,0,0,0,0,0,-1,1735,1219,0,0
518,-195,0,0,0,0,0,0,0,0,0,-1,1742,1219,0,0
525,-195,0,0,0,0,0,0,0,0,0,-1,1749,1219,0,0
532,-195,0,0,0,0,0,0,0,0,0,-1,1756,1219,0,0
539,-195,0,0,0,0,0,0,0,0,0,-1,1763,1219,0,0
546,-195,0,0,0,0,0,0,0,0,0,-1,1770,1219,0,0
553,-195,0,0,0,0,0,0,0,0,0,-1,1777,1219,0,0
560,-195,0,0,0,0,0,0,0,0,0,-1,1784,1219,0,0
567,-195,0,0,0,0,0,0,0,0,0,-1,1791,1219,0,0
574,-195,0,0,0,0,0,0,0,0,0,-1,1798,1219,0,0
581,-195,0,0,0,0,0,0,0,0,0,-1,1805,1219,0,0
588,-195,0,0,0,0,0,0,0,0,0,-1,1812,1219,0,0
595,-195,0,0,0,0,0,0,0,0,0,-1,1819,1219,0,0
602,-195,0,0,0,0,0,0,0,0,0,-1,1826,1219,0,0
609,-195,0,0,0,0,0,0,0,0,0,-1,1833,1219,0,0
616,-195,0,0,0,0,0,0,0,0,0,-1,1840,1219,0,0
623,-195,0,0,0,0,0,0,0,0,0,-1,1847,1219,0,0
630,-195,24.0724,2.73682,0.00112297,-0.00238349,0.000630062,0.00123275,-0.00249327,0.1725,0.00219187,0.041299,1854,1219,24.0724,-2.73682
637,-195,24.1018,2.81384,0.000828452,-0.000103821,0.00043894,0.00100259,-0.000277959,0.377679,0.000777782,0.0411441,1861,1219,24.1018,-2.81381
644,-195,24.0215,2.70593,0.000723964,0.00125507,0.000472592,0.00153161,0.000447426,1.04137,0.00090939,0.0365858,1868,1219,24.0215,-2.70598
651,-195,24.0427,2.67371,0.000638828,0.00176634,0.00078455,0.00216868,0.000236489,1.09694,0.00137376,0.0273722,1875,1219,24.0427,-2.67377
658,-195,24.0663,2.70239,0.000656119,0.00155229,0.00113178,0.00232145,-0.000113047,0.973887,0.00158666,0.0243472,1882,1219,24.0663,-2.70234
665,-195,24.0745,2.70715,0.000643694,0.00102294,0.00142541,0.00227128,-0.00060465,0.851525,0.00175089,0.0219702,1889,1219,24.0745,-2.70713
672,-195,24.0758,2.66406,0.000486599,0.00034379,0.00167033,0.00208705,-0.00125666,0.764037,0.00195023,0.0315051,1896,1219,24.0758,-2.66401
679,-195,24.0084,2.59937,0,0,0,0,0,0,0,-1,1903,1219,24.0084,-2.59942
686,-195,24.328,3.67957,0,0,0,0,0,0,0,-1,1910,1219,24.3281,-3.67951
693,-195,21.3101,5.25452,0,0,0,0,0,0,0,-1,1917,1219,21.3101,-5.25456
700,-195,21.1477,5.3031,-0.000281049,-0.00147876,0.0021391,0.00134144,-0.00310125,0.648914,0.00263121,0.041771,1924,1219,21.1477,-5.30311
707,-195,20.9919,5.2948,-0.000505413,-0.00186359,0.00213711,0.00105791,-0.00342691,0.631563,0.00270705,0.01893,1931,1219,20.992,-5.29477
714,-195,20.991,5.08789,-0.000699383,-0.00218261,0.00203737,0.00072715,-0.00360914,0.610849,0.00268155,0.0172638,1938,1219,20.991,-5.0879
721,-195,20.9861,4.94458,-0.000534995,-0.00199567,0.0017183,0.00060174,-0.00313241,0.584448,0.00231507,0.0117476,1945,1219,20.986,-4.9446
728,-195,20.98,4.78186,0.000437799,-0.00133884,0.00109535,0.000959766,-0.0018608,0.444695,0.00165592,0.00986977,1952,1219,20.98,-4.78183
735,-195,20.9796,4.57654,0.00195158,-0.000613075,0.000477812,0.00203771,-0.000699203,0.178338,0.00164194,0.0125247,1959,1219,20.9797,-4.57653
742,-195,20.9767,4.40857,0.00440138,0.000322567,-6.10643e-05,0.0044023,0.000321653,-0.0149666,0.00283374,0.0142826,1966,1219,20.9767,-4.40854
749,-195,20.9684,4.23816,0.00765409,0.000992016,-0.000345025,0.00767191,0.000974195,-0.0516055,0.00482278,0.0138119,1973,1219,20.9684,-4.23811
756,-195,20.9703,4.06921,0.0120816,0.00150979,-0.000724631,0.012131,0.00146035,-0.0681191,0.0076472,0.012428,1980,1219,20.9703,-4.06922
763,-195,20.9763,3.89514,0.0177236,0.00187955,-0.000873275,0.0177715,0.00183157,-0.0548954,0.0112868,0.0138342,1987,1219,20.9763,-3.89517
770,-195,20.9728,3.70715,0.024901,0.00203927,-0.00063906,0.0249189,0.00202142,-0.0279242,0.0159815,0.0283426,1994,1219,20.9727,-3.70716
777,-195,22.0067,3.06494,0.0334178,0.00179705,0.000359225,0.0334219,0.00179297,0.0113584,0.0217083,0.0453337,2001,1219,22.0067,-3.06494
784,-195,22.7301,2.4397,0,0,0,0,0,0,0,-1,2008,1219,22.7301,-2.43967
791,-195,22.9038,2.5957,0,0,0,0,0,0,0,-1,2015,1219,22.9038,-2.59569
798,-195,23.1932,2.25867,0,0,0,0,0,0,0,-1,2022,1219,23.1933,-2.25868
805,-195,0,0,0,0,0,0,0,0,0,-1,2029,1219,0,0
812,-195,0,0,0,0,0,0,0,0,0,-1,2036,1219,0,0
-700,-202,0,0,0,0,0,0,0,0,0,-1,524,1226,0,0
-693,-202,0,0,0,0,0,0,0,0,0,-1,531,1226,0,0
-686,-202,0,0,0,0,0,0,0,0,0,-1,538,1226,0,0
-679,-202,-12.6296,-6.97437,0,0,0,0,0,0,0,-1,545,1226,-12.6296,6.97438
-672,-202,-13.4484,-7.44568,0,0,0,0,0,0,0,-1,552,1226,-13.4484,7.44562
-665,-202,-12.7605,0.465942,0,0,0,0,0,0,0,-1,559,1226,-12.7605,-0.465987
-658,-202,-11.955,0.575684,0,0,0,0,0,0,0,-1,566,1226,-11.955,-0.575662
-651,-202,-12.0691,0.774902,0,0,0,0,0,0,0,-1,573,1226,-12.0691,-0.774924
-644,-202,-12.1765,0.968018,0,0,0,0,0,0,0,-1,580,1226,-12.1765,-0.968001
-637,-202,-12.5624,1.18213,-0.0151625,0.0147541,0.00470324,0.0154761,-0.0158845,1.41848,0.0181066,0.0304354,587,1226,-12.5624,-1.18218
-630,-202,-12.7595,1.43982,-0.0112812,0.00964821,0.003131,0.0101066,-0.0117395,1.42544,0.0126246,0.0127327,594,1226,-12.7595,-1.43982
-623,-202,-12.7889,1.64233,-0.00823039,0.00623721,0.00205803,0.00652427,-0.00851746,1.43221,0.00870972,0.00797702,601,1226,-12.7889,-1.64229
-616,-202,-12.7767,1.83667,-0.00625707,0.00387287,0.00103976,0.00397849,-0.0063627,1.46956,0.00602315,0.00815176,608,1226,-12.7767,-1.83668
-609,-202,-12.7691,2.05286,-0.00460647,0.00191621,9.48377e-05,0.00191759,-0.00460785,1.55626,0.00387272,0.0200405,615,1226,-12.7691,-2.05287
-602,-202,-12.7933,2.28479,-0.00338054,0.000404433,-0.000767507,0.000554145,-0.00353025,-1.37815,0.0025583,0.019979,622,1226,-12.7933,-2.28473
-595,-202,-12.8259,2.52405,-0.00293529,-0.000171715,-0.00147044,0.0004643,-0.0035713,-1.16256,0.00254977,0.0162813,629,1226,-12.8259,-2.524
-588,-202,-12.7849,2.70056,-0.00288952,-0.000438678,-0.0016837,0.000418327,-0.00374652,-1.09997,0.00264816,0.00838044,636,1226,-12.7848,-2.70053
-581,-202,-12.7917,2.81128,-0.00249897,-0.000774709,-0.00174229,0.000307085,-0.00358076,-1.01515,0.00249584,0.0138705,643,1226,-12.7917,-2.81133
-574,-202,-12.9195,2.83887,-0.00234139,-0.000496811,-0.00187798,0.00067313,-0.00351133,-1.01365,0.00259454,0.0225332,650,1226,-12.9195,-2.83889
-567,-202,-13.3185,3.21643,0,0,0,0,0,0,0,-1,657,1226,-13.3185,-3.21646
-560,-202,-10.929,2.73096,0,0,0,0,0,0,0,-1,664,1226,-10.929,-2.73092
-553,-202,-15.6492,0.36145,0,0,0,0,0,0,0,-1,671,1226,-15.6493,-0.361406
-546,-202,-15.803,0.427124,-0.00384963,-0.00100793,-0.00046101,-0.000935016,-0.00392255,-1.41392,0.00236577,0.0477328,678,1226,-15.803,-0.427089
-539,-202,-16.1473,0.772217,-0.00442312,-0.00133825,3.85921e-05,-0.00133776,-0.0044236,1.55829,0.0026196,0.0408665,685,1226,-16.1473,-0.772185
-532,-202,-16.2513,0.816772,-0.00511799,-0.00193842,0.000626509,-0.00181942,-0.00523699,1.3831,0.00307015,0.0275705,692,1226,-16.2513,-0.81674
-525,-202,-16.2242,0.795776,-0.00576448,-0.0029832,0.00135409,-0.00243285,-0.00631483,1.18476,0.00367773,0.033463,699,1226,-16.2242,-0.795797
-518,-202,-16.212,1.03625,-0.0066774,-0.0051528,0.00205151,-0.00372654,-0.00810366,0.963283,0.00468367,0.0404533,706,1226,-16.212,-1.03623
-511,-202,-16.6285,1.78271,0,0,0,0,0,0,0,-1,713,1226,-16.6285,-1.7827
-504,-202,0,0,0,0,0,0,0,0,0,-1,720,1226,0,0
-497,-202,0,0,0,0,0,0,0,0,0,-1,727,1226,0,0
-490,-202,0,0,0,0,0,0,0,0,0,-1,734,1226,0,0
-483,-202,0,0,0,0,0,0,0,0,0,-1,741,1226,0,0
-476,-202,0,0,0,0,0,0,0,0,0,-1,748,1226,0,0
-469,-202,0,0,0,0,0,0,0,0,0,-1,755,1226,0,0
-462,-202,0,0,0,0,0,0,0,0,0,-1,762,1226,0,0
-455,-202,0,0,0,0,0,0,0,0,0,-1,769,1226,0,0
-448,-202,0,0,0,0,0,0,0,0,0,-1,776,1226,0,0
-441,-202,0,0,0,0,0,0,0,0,0,-1,783,1226,0,0
-434,-202,0,0,0,0,0,0,0,0,0,-1,790,1226,0,0
-427,-202,0,0,0,0,0,0,0,0,0,-1,797,1226,0,0
-420,-202,0,0,0,0,0,0,0,0,0,-1,804,1226,0,0
-413,-202,0,0,0,0,0,0,0,0,0,-1,811,1226,0,0
-406,-202,0,0,0,0,0,0,0,0,0,-1,818,1226,0,0
-399,-202,0,0,0,0,0,0,0,0,0,-1,825,1226,0,0
-392,-202,0,0,0,0,0,0,0,0,0,-1,832,1226,0,0
-385,-202,0,0,0,0,0,0,0,0,0,-1,839,1226,0,0
-378,-202,0,0,0,0,0,0,0,0,0,-1,846,1226,0,0
-371,-202,0,0,0,0,0,0,0,0,0,-1,853,1226,0,0
-364,-202,0,0,0,0,0,0,0,0,0,-1,860,1226,0,0
-357,-202,0,0,0,0,0,0,0,0,0,-1,867,1226,0,0
-350,-202,0,0,0,0,0,0,0,0,0,-1,874,1226,0,0
-343,-202,0,0,0,0,0,0,0,0,0,-1,881,1226,0,0
-336,-202,0,0,0,0,0,0,0,0,0,-1,888,1226,0,0
-329,-202,0,0,0,0,0,0,0,0,0,-1,895,1226,0,0
-322,-202,0,0,0,0,0,0,0,0,0,-1,902,1226,0,0
-315,-202,0,0,0,0,0,0,0,0,0,-1,909,1226,0,0
-308,-202,0,0,0,0,0,0,0,0,0,-1,916,1226,0,0
-301,-202,0,0,0,0,0,0,0,0,0,-1,923,1226,0,0
-294,-202,0,0,0,0,0,0,0,0,0,-1,930,1226,0,0
-287,-202,0,0,0,0,0,0,0,0,0,-1,937,1226,0,0
-280,-202,0,0,0,0,0,0,0,0,0,-1,944,1226,0,0
-273,-202,0,0,0,0,0,0,0,0,0,-1,951,1226,0,0
-266,-202,0,0,0,0,0,0,0,0,0,-1,958,1226,0,0
-259,-202,0,0,0,0,0,0,0,0,0,-1,965,1226,0,0
-252,-202,0,0,0,0,0,0,0,0,0,-1,972,1226,0,0
-245,-202,0,0,0,0,0,0,0,0,0,-1,979,1226,0,0
-238,-202,0,0,0,0,0,0,0,0,0,-1,986,1226,0,0
-231,-202,0,0,0,0,0,0,0,0,0,-1,993,1226,0,0
-224,-202,0,0,0,0,0,0,0,0,0,-1,1000,1226,0,0
-217,-202,0,0,0,0,0,0,0,0,0,-1,1007,1226,0,0
-210,-202,0,0,0,0,0,0,0,0,0,-1,1014,1226,0,0
-203,-202,0,0,0,0,0,0,0,0,0,-1,1021,1226,0,0
-196,-202,0,0,0,0,0,0,0,0,0,-1,1028,1226,0,0
-189,-202,0,0,0,0,0,0,0,0,0,-1,1035,1226,0,0
-182,-202,0,0,0,0,0,0,0,0,0,-1,1042,1226,0,0
-175,-202,0,0,0,0,0,0,0,0,0,-1,1049,1226,0,0
-168,-202,0,0,0,0,0,0,0,0,0,-1,1056,1226,0,0
-161,-202,0,0,0,0,0,0,0,0,0,-1,1063,1226,0,0
-154,-202,0,0,0,0,0,0,0,0,0,-1,1070,1226,0,0
-147,-202,0,0,0,0,0,0,0,0,0,-1,1077,1226,0,0
-140,-202,0,0,0,0,0,0,0,0,0,-1,1084,1226,0,0
-133,-202,0,0,0,0,0,0,0,0,0,-1,1091,1226,0,0
-126,-202,0,0,0,0,0,0,0,0,0,-1,1098,1226,0,0
-119,-202,0,0,0,0,0,0,0,0,0,-1,1105,1226,0,0
-112,-202,0,0,0,0,0,0,0,0,0,-1,1112,1226,0,0
-105,-202,0,0,0,0,0,0,0,0,0,-1,1119,1226,0,0
-98,-202,0,0,0,0,0,0,0,0,0,-1,1126,1226,0,0
-91,-202,0,0,0,0,0,0,0,0,0,-1,1133,1226,0,0
-84,-202,0,0,0,0,0,0,0,0,0,-1,1140,1226,0,0
-77,-202,0,0,0,0,0,0,0,0,0,-1,1147,1226,0,0
-70,-202,0,0,0,0,0,0,0,0,0,-1,1154,1226,0,0
-63,-202,0,0,0,0,0,0,0,0,0,-1,1161,1226,0,0
-56,-202,0,0,0,0,0,0,0,0,0,-1,1168,1226,0,0
-49,-202,0,0,0,0,0,0,0,0,0,-1,1175,1226,0,0
-42,-202,0,0,0,0,0,0,0,0,0,-1,1182,1226,0,0
-35,-202,0,0,0,0,0,0,0,0,0,-1,1189,1226,0,0
-28,-202,0,0,0,0,0,0,0,0,0,-1,1196,1226,0,0
-21,-202,0,0,0,0,0,0,0,0,0,-1,1203,1226,0,0
-14,-202,0,0,0,0,0,0,0,0,0,-1,1210,1226,0,0
-7,-202,0,0,0,0,0,0,0,0,0,-1,1217,1226,0,0
0,-202,0,0,0,0,0,0,0,0,0,-1,1224,1226,0,0
7,-202,0,0,0,0,0,0,0,0,0,-1,1231,1226,0,0
14,-202,0,0,0,0,0,0,0,0,0,-1,1238,1226,0,0
21,-202,0,0,0,0,0,0,0,0,0,-1,1245,1226,0,0
28,-202,0,0,0,0,0,0,0,0,0,-1,1252,1226,0,0
35,-202,0,0,0,0,0,0,0,0,0,-1,1259,1226,0,0
42,-202,0,0,0,0,0,0,0,0,0,-1,1266,1226,0,0
49,-202,0,0,0,0,0,0,0,0,0,-1,1273,1226,0,0
56,-202,0,0,0,0,0,0,0,0,0,-1,1280,1226,0,0
63,-202,0,0,0,0,0,0,0,0,0,-1,1287,1226,0,0
70,-202,0,0,0,0,0,0,0,0,0,-1,1294,1226,0,0
77,-202,0,0,0,0,0,0,0,0,0,-1,1301,1226,0,0
84,-202,0,0,0,0,0,0,0,0,0,-1,1308,1226,0,0
91,-202,0,0,0,0,0,0,0,0,0,-1,1315,1226,0,0
98,-202,0,0,0,0,0,0,0,0,0,-1,1322,1226,0,0
105,-202,0,0,0,0,0,0,0,0,0,-1,1329,1226,0,0
112,-202,0,0,0,0,0,0,0,0,0,-1,1336,1226,0,0
119,-202,0,0,0,0,0,0,0,0,0,-1,1343,1226,0,0
126,-202,0,0,0,0,0,0,0,0,0,-1,1350,1226,0,0
133,-202,0,0,0,0,0,0,0,0,0,-1,1357,1226,0,0
140,-202,0,0,0,0,0,0,0,0,0,-1,1364,1226,0,0
147,-202,0,0,0,0,0,0,0,0,0,-1,1371,1226,0,0
154,-202,0,0,0,0,0,0,0,0,0,-1,1378,1226,0,0
161,-202,0,0,0,0,0,0,0,0,0,-1,1385,1226,0,0
168,-202,0,0,0,0,0,0,0,0,0,-1,1392,1226,0,0
175,-202,0,0,0,0,0,0,0,0,0,-1,1399,1226,0,0
182,-202,0,0,0,0,0,0,0,0,0,-1,1406,1226,0,0
189,-202,0,0,0,0,0,0,0,0,0,-1,1413,1226,0,0
196,-202,0,0,0,0,0,0,0,0,0,-1,1420,1226,0,0
203,-202,0,0,0,0,0,0,0,0,0,-1,1427,1226,0,0
210,-202,0,0,0,0,0,0,0,0,0,-1,1434,1226,0,0
217,-202,0,0,0,0,0,0,0,0,0,-1,1441,1226,0,0
224,-202,0,0,0,0,0,0,0,0,0,-1,1448,1226,0,0
231,-202,0,0,0,0,0,0,0,0,0,-1,1455,1226,0,0
238,-202,0,0,0,0,0,0,0,0,0,-1,1462,1226,0,0
245,-202,0,0,0,0,0,0,0,0,0,-1,1469,1226,0,0
252,-202,0,0,0,0,0,0,0,0,0,-1,1476,1226,0,0
259,-202,0,0,0,0,0,0,0,0,0,-1,1483,1226,0,0
266,-202,0,0,0,0,0,0,0,0,0,-1,1490,1226,0,0
273,-202,0,0,0,0,0,0,0,0,0,-1,1497,1226,0,0
280,-202,0,0,0,0,0,0,0,0,0,-1,1504,1226,0,0
287,-202,0,0,0,0,0,0,0,0,0,-1,1511,1226,0,0
294,-202,0,0,0,0,0,0,0,0,0,-1,1518,1226,0,0
301,-202,0,0,0,0,0,0,0,0,0,-1,1525,1226,0,0
308,-202,0,0,0,0,0,0,0,0,0,-1,1532,1226,0,0
315,-202,0,0,0,0,0,0,0,0,0,-1,1539,1226,0,0
322,-202,0,0,0,0,0,0,0,0,0,-1,1546,1226,0,0
329,-202,0,0,0,0,0,0,0,0,0,-1,1553,1226,0,0
336,-202,0,0,0,0,0,0,0,0,0,-1,1560,1226,0,0
343,-202,0,0,0,0,0,0,0,0,0,-1,1567,1226,0,0
350,-202,0,0,0,0,0,0,0,0,0,-1,1574,1226,0,0
357,-202,0,0,0,0,0,0,0,0,0,-1,1581,1226,0,0
364,-202,0,0,0,0,0,0,0,0,0,-1,1588,1226,0,0
371,-202,0,0,0,0,0,0,0,0,0,-1,1595,1226,0,0
378,-202,0,0,0,0,0,0,0,0,0,-1,1602,1226,0,0
385,-202,0,0,0,0,0,0,0,0,0,-1,1609,1226,0,0
392,-202,0,0,0,0,0,0,0,0,0,-1,1616,1226,0,0
399,-202,0,0,0,0,0,0,0,0,0,-1,1623,1226,0,0
406,-202,0,0,0,0,0,0,0,0,0,-1,1630,1226,0,0
413,-202,0,0,0,0,0,0,0,0,0,-1,1637,1226,0,0
420,-202,0,0,0,0,0,0,0,0,0,-1,1644,1226,0,0
427,-202,0,0,0,0,0,0,0,0,0,-1,1651,1226,0,0
434,-202,0,0,0,0,0,0,0,0,0,-1,1658,1226,0,0
441,-202,0,0,0,0,0,0,0,0,0,-1,1665,1226,0,0
448,-202,0,0,0,0,0,0,0,0,0,-1,1672,1226,0,0
455,-202,0,0,0,0,0,0,0,0,0,-1,1679,1226,0,0
462,-202,0,0,0,0,0,0,0,0,0,-1,1686,1226,0,0
469,-202,0,0,0,0,0,0,0,0,0,-1,1693,1226,0,0
476,-202,0,0,0,0,0,0,0,0,0,-1,1700,1226,0,0
483,-202,0,0,0,0,0,0,0,0,0,-1,1707,1226,0,0
490,-202,0,0,0,0,0,0,0,0,0,-1,1714,1226,0,0
497,-202,0,0,0,0,0,0,0,0,0,-1,1721,1226,0,0
504,-202,0,0,0,0,0,0,0,0,0,-1,1728,1226,0,0
511,-202,0,0,0,0,0,0,0,0,0,-1,1735,1226,0,0
518,-202,0,0,0,0,0,0,0,0,0,-1,1742,1226,0,0
525,-202,0,0,0,0,0,0,0,0,0,-1,1749,1226,0,0
532,-202,0,0,0,0,0,0,0,0,0,-1,1756,1226,0,0
539,-202,0,0,0,0,0,0,0,0,0,-1,1763,1226,0,0
546,-202,0,0,0,0,0,0,0,0,0,-1,1770,1226,0,0
553,-202,0,0,0,0,0,0,0,0,0,-1,1777,1226,0,0
560,-202,0,0,0,0,0,0,0,0,0,-1,1784,1226,0,0
567,-202,0,0,0,0,0,0,0,0,0,-1,1791,1226,0,0
574,-202,0,0,0,0,0,0,0,0,0,-1,1798,1226,0,0
581,-202,0,0,0,0,0,0,0,0,0,-1,1805,1226,0,0
588,-202,0,0,0,0,0,0,0,0,0,-1,1812,1226,0,0
595,-202,0,0,0,0,0,0,0,0,0,-1,1819,1226,0,0
602,-202,0,0,0,0,0,0,0,0,0,-1,1826,1226,0,0
609,-202,0,0,0,0,0,0,0,0,0,-1,1833,1226,0,0
616,-202,0,0,0,0,0,0,0,0,0,-1,1840,1226,0,0
623,-202,0,0,0,0,0,0,0,0,0,-1,1847,1226,0,0
630,-202,24.1519,2.8175,0.00102574,-0.00188892,0.000744684,0.00120498,-0.00206816,0.236201,0.00191153,0.0383081,1854,1226,24.1518,-2.81756
637,-202,24.171,2.81848,0.000520875,0.00112603,0.000236423,0.00120744,0.000439462,1.23916,0.000705666,0.0375153,1861,1226,24.171,-2.81853
644,-202,24.101,2.77673,0.000172521,0.00296612,0.00012743,0.00297192,0.00016672,1.52531,0.00192811,0.0340009,1868,1226,24.101,-2.77672
651,-202,24.105,2.71594,5.37101e-05,0.00353833,0.000377279,0.00357871,1.333e-05,1.46417,0.00238138,0.0268108,1875,1226,24.105,-2.71599
658,-202,24.0767,2.68713,0.000194723,0.00324465,0.000675893,0.00338772,5.16503e-05,1.3622,0.00224146,0.0217449,1882,1226,24.0766,-2.68718
665,-202,24.0886,2.7063,0.000337384,0.00255443,0.000973507,0.00292122,-2.94029e-05,1.21048,0.00195735,0.0195556,1889,1226,24.0886,-2.70634
672,-202,24.2212,2.85291,0.000335392,0.0017051,0.00124804,0.00244385,-0.000403353,1.03634,0.00177899,0.0401066,1896,1226,24.2212,-2.85291
679,-202,24.3256,2.99268,0,0,0,0,0,0,0,-1,1903,1226,24.3256,-2.99264
686,-202,24.4891,3.09729,0,0,0,0,0,0,0,-1,1910,1226,24.4892,-3.09729
693,-202,20.731,5.71021,0,0,0,0,0,0,0,-1,1917,1226,20.7309,-5.71019
700,-202,20.7148,5.50232,0.000223563,-0.00090297,0.00189223,0.00163458,-0.00231399,0.640738,0.00229093,0.030736,1924,1226,20.7149,-5.50237
707,-202,20.7454,5.2655,0.000154445,-0.0014895,0.00196786,0.0014651,-0.00280016,0.587563,0.00250244,0.0251166,1931,1226,20.7454,-5.26548
714,-202,20.8037,5.10645,2.98643e-05,-0.00196581,0.00188989,0.00116916,-0.00310511,0.542505,0.00255073,0.0154135,1938,1226,20.8037,-5.1065
721,-202,20.8159,4.92554,0.000165394,-0.00176578,0.00156051,0.00103489,-0.00263528,0.508346,0.00218509,0.011976,1945,1226,20.816,-4.92548
728,-202,20.8018,4.75684,0.00103634,-0.00111476,0.00093928,0.00138875,-0.00146716,0.358934,0.00164907,0.0102015,1952,1226,20.8017,-4.75684
735,-202,20.8049,4.58459,0.00236187,-0.000379463,0.000328698,0.00240073,-0.000418325,0.117682,0.00175661,0.0107978,1959,1226,20.8049,-4.58459
742,-202,20.8083,4.41516,0.00449418,0.000517386,-0.000276303,0.00451329,0.000498281,-0.0690368,0.00285728,0.0102339,1966,1226,20.8084,-4.4151
749,-202,20.7892,4.2345,0.00736297,0.00120057,-0.000648148,0.0074304,0.00113313,-0.103666,0.00462242,0.0100547,1973,1226,20.7891,-4.2345
756,-202,20.7759,4.052,0.0113654,0.00174336,-0.0011649,0.0115044,0.00160434,-0.118779,0.00719473,0.0101374,1980,1226,20.7759,-4.05199
763,-202,20.7806,3.90332,0.0167079,0.00221173,-0.00160241,0.0168829,0.00203671,-0.108791,0.0106415,0.0143365,1987,1226,20.7806,-3.90331
770,-202,20.8484,3.86182,0.0236503,0.00251103,-0.0017807,0.0237992,0.00236208,-0.0834529,0.0151403,0.0401839,1994,1226,20.8484,-3.86184
777,-202,20.9335,3.83423,0,0,0,0,0,0,0,-1,2001,1226,20.9335,-3.83422
784,-202,22.4531,3.03137,0,0,0,0,0,0,0,-1,2008,1226,22.4531,-3.03139
791,-202,22.8638,2.61877,0,0,0,0,0,0,0,-1,2015,1226,22.8638,-2.61874
798,-202,22.8491,2.44055,0,0,0,0,0,0,0,-1,2022,1226,22.8491,-2.44051
805,-202,0,0,0,0,0,0,0,0,0,-1,2029,1226,0,0
812,-202,0,0,0,0,0,0,0,0,0,-1,2036,1226,0,0
-700,-209,0,0,0,0,0,0,0,0,0,-1,524,1233,0,0
-693,-209,0,0,0,0,0,0,0,0,0,-1,531,1233,0,0
-686,-209,0,0,0,0,0,0,0,0,0,-1,538,1233,0,0
-679,-209,-13.023,-5.6377,0,0,0,0,0,0,0,-1,545,1233,-13.023,5.63766
-672,-209,-12.9376,0.38501,0,0,0,0,0,0,0,-1,552,1233,-12.9375,-0.385005
-665,-209,-12.7741,0.471802,0,0,0,0,0,0,0,-1,559,1233,-12.7741,-0.471763
-658,-209,-12.5325,0.518188,0,0,0,0,0,0,0,-1,566,1233,-12.5325,-0.518179
-651,-209,-11.2495,0.689819,0,0,0,0,0,0,0,-1,573,1233,-11.2495,-0.68977
-644,-209,-11.8083,0.511108,0,0,0,0,0,0,0,-1,580,1233,-11.8084,-0.511114
-637,-209,-12.128,0.900635,-0.0142285,0.0151029,0.00543557,0.0160778,-0.0152034,1.39333,0.0180626,0.0397751,587,1233,-12.128,-0.900621
-630,-209,-12.4644,1.30469,-0.0107253,0.0100518,0.00388487,0.0107544,-0.0114279,1.39187,0.012809,0.0206591,594,1233,-12.4644,-1.30471
-623,-209,-12.5629,1.61804,-0.00783944,0.00666964,0.00276874,0.00718003,-0.00834984,1.3885,0.00897465,0.0110662,601,1233,-12.5629,-1.61807
-616,-209,-12.5712,1.83679,-0.00590385,0.00428907,0.00168895,0.00456163,-0.00617642,1.41079,0.00622294,0.0111068,608,1233,-12.5712,-1.83682
-609,-209,-12.5673,2.04236,-0.00427298,0.0023545,0.000722099,0.00243226,-0.00435075,1.46352,0.00396804,0.0129018,615,1233,-12.5673,-2.04241
-602,-209,-12.5745,2.26489,-0.00288383,0.000842906,-0.000154575,0.000849306,-0.00289024,-1.52941,0.00226367,0.0151797,622,1233,-12.5745,-2.26485
-595,-209,-12.5699,2.47302,-0.00220236,0.000177992,-0.000857885,0.000454951,-0.00247932,-1.25852,0.00182355,0.0114341,629,1233,-12.5699,-2.47299
-588,-209,-12.5527,2.677,-0.00194297,-0.000163085,-0.00107339,0.000341306,-0.00244736,-1.13151,0.00175643,0.0128722,636,1233,-12.5527,-2.67699
-581,-209,-12.4916,2.89771,-0.00144883,-0.000569997,-0.00111504,0.000189086,-0.00220791,-0.973095,0.00153885,0.0147322,643,1233,-12.4916,-2.89774
-574,-209,-12.6449,3.04749,-0.001337,-0.000288664,-0.00128382,0.000573867,-0.00219953,-0.979214,0.00169043,0.0211949,650,1233,-12.6449,-3.04753
-567,-209,-12.965,3.453,-0.00165622,-0.000193657,-0.00115693,0.000443728,-0.00229361,-1.06724,0.00169644,0.0473229,657,1233,-12.965,-3.45299
-560,-209,-13.3325,4.06787,0,0,0,0,0,0,0,-1,664,1233,-13.3325,-4.06793
-553,-209,-16.1137,0.461792,0,0,0,0,0,0,0,-1,671,1233,-16.1137,-0.461769
-546,-209,-16.0061,0.456055,0,0,0,0,0,0,0,-1,678,1233,-16.0061,-0.456045
-539,-209,-16.0967,0.644531,-0.00441404,-0.00148868,0.000352525,-0.0014468,-0.00445592,1.45254,0.00262481,0.0383448,685,1233,-16.0967,-0.644588
-532,-209,-16.2266,0.897583,-0.00555074,-0.00210459,0.000765352,-0.00194226,-0.00571307,1.3618,0.00335428,0.0299019,692,1233,-16.2266,-0.897534
-525,-209,-16.2685,0.90686,-0.0067797,-0.00302457,0.00128443,-0.00262727,-0.007177,1.27081,0.0041929,0.033334,699,1233,-16.2685,-0.906837
-518,-209,-16.2726,0.925415,-0.00830619,-0.00462981,0.00187731,-0.0038406,-0.0090954,1.17283,0.00527235,0.0429244,706,1233,-16.2726,-0.925453
-511,-209,-16.2802,0.935669,-0.00919049,-0.00692671,0.00304296,-0.00481194,-0.0113053,0.963453,0.00655111,0.0442735,713,1233,-16.2801,-0.935714
-504,-209,0,0,0,0,0,0,0,0,0,-1,720,1233,0,0
-497,-209,0,0,0,0,0,0,0,0,0,-1,727,1233,0,0
-490,-209,0,0,0,0,0,0,0,0,0,-1,734,1233,0,0
-483,-209,0,0,0,0,0,0,0,0,0,-1,741,1233,0,0
-476,-209,0,0,0,0,0,0,0,0,0,-1,748,1233,0,0
-469,-209,0,0,0,0,0,0,0,0,0,-1,755,1233,0,0
-462,-209,0,0,0,0,0,0,0,0,0,-1,762,1233,0,0
-455,-209,0,0,0,0,0,0,0,0,0,-1,769,1233,0,0
-448,-209,0,0,0,0,0,0,0,0,0,-1,776,1233,0,0
-441,-209,0,0,0,0,0,0,0,0,0,-1,783,1233,0,0
-434,-209,0,0,0,0,0,0,0,0,0,-1,790,1233,0,0
-427,-209,0,0,0,0,0,0,0,0,0,-1,797,1233,0,0
-420,-209,0,0,0,0,0,0,0,0,0,-1,804,1233,0,0
-413,-209,0,0,0,0,0,0,0,0,0,-1,811,1233,0,0
-406,-209,0,0,0,0,0,0,0,0,0,-1,818,1233,0,0
-399,-209,0,0,0,0,0,0,0,0,0,-1,825,1233,0,0
-392,-209,0,0,0,0,0,0,0,0,0,-1,832,1233,0,0
-385,-209,0,0,0,0,0,0,0,0,0,-1,839,1233,0,0
-378,-209,0,0,0,0,0,0,0,0,0,-1,846,1233,0,0
-371,-209,0,0,0,0,0,0,0,0,0,-1,853,1233,0,0
-364,-209,0,0,0,0,0,0,0,0,0,-1,860,1233,0,0
-357,-209,0,0,0,0,0,0,0,0,0,-1,867,1233,0,0
-350,-209,0,0,0,0,0,0,0,0,0,-1,874,1233,0,0
-343,-209,0,0,0,0,0,0,0,0,0,-1,881,1233,0,0
-336,-209,0,0,0,0,0,0,0,0,0,-1,888,1233,0,0
-329,-209,0,0,0,0,0,0,0,0,0,-1,895,1233,0,0
-322,-209,0,0,0,0,0,0,0,0,0,-1,902,1233,0,0
-315,-209,0,0,0,0,0,0,0,0,0,-1,909,1233,0,0
-308,-209,0,0,0,0,0,0,0,0,0,-1,916,1233,0,0
-301,-209,0,0,0,0,0,0,0,0,0,-1,923,1233,0,0
-294,-209,0,0,0,0,0,0,0,0,0,-1,930,1233,0,0
-287,-209,0,0,0,0,0,0,0,0,0,-1,937,1233,0,0
-280,-209,0,0,0,0,0,0,0,0,0,-1,944,1233,0,0
-273,-209,0,0,0,0,0,0,0,0,0,-1,951,1233,0,0
-266,-209,0,0,0,0,0,0,0,0,0,-1,958,1233,0,0
-259,-209,0,0,0,0,0,0,0,0,0,-1,965,1233,0,0
-252,-209,0,0,0,0,0,0,0,0,0,-1,972,1233,0,0
-245,-209,0,0,0,0,0,0,0,0,0,-1,979,1233,0,0
-238,-209,0,0,0,0,0,0,0,0,0,-1,986,1233,0,0
-231,-209,0,0,0,0,0,0,0,0,0,-1,993,1233,0,0
-224,-209,0,0,0,0,0,0,0,0,0,-1,1000,1233,0,0
-217,-209,0,0,0,0,0,0,0,0,0,-1,1007,1233,0,0
-210,-209,0,0,0,0,0,0,0,0,0,-1,1014,1233,0,0
-203,-209,0,0,0,0,0,0,0,0,0,-1,1021,1233,0,0
-196,-209,0,0,0,0,0,0,0,0,0,-1,1028,1233,0,0
-189,-209,0,0,0,0,0,0,0,0,0,-1,1035,1233,0,0
-182,-209,0,0,0,0,0,0,0,0,0,-1,1042,1233,0,0
-175,-209,0,0,0,0,0,0,0,0,0,-1,1049,1233,0,0
-168,-209,0,0,0,0,0,0,0,0,0,-1,1056,1233,0,0
-161,-209,0,0,0,0,0,0,0,0,0,-1,1063,1233,0,0
-154,-209,0,0,0,0,0,0,0,0,0,-1,1070,1233,0,0
-147,-209,0,0,0,0,0,0,0,0,0,-1,1077,1233,0,0
-140,-209,0,0,0,0,0,0,0,0,0,-1,1084,1233,0,0
-133,-209,0,0,0,0,0,0,0,0,0,-1,1091,1233,0,0
-126,-209,0,0,0,0,0,0,0,0,0,-1,1098,1233,0,0
-119,-209,0,0,0,0,0,0,0,0,0,-1,1105,1233,0,0
-112,-209,0,0,0,0,0,0,0,0,0,-1,1112,1233,0,0
-105,-209,0,0,0,0,0,0,0,0,0,-1,1119,1233,0,0
-98,-209,0,0,0,0,0,0,0,0,0,-1,1126,1233,0,0
-91,-209,0,0,0,0,0,0,0,0,0,-1,1133,1233,0,0
-84,-209,0,0,0,0,0,0,0,0,0,-1,1140,1233,0,0
-77,-209,0,0,0,0,0,0,0,0,0,-1,1147,1233,0,0
-70,-209,0,0,0,0,0,0,0,0,0,-1,1154,1233,0,0
-63,-209,0,0,0,0,0,0,0,0,0,-1,1161,1233,0,0
-56,-209,0,0,0,0,0,0,0,0,0,-1,1168,1233,0,0
-49,-209,0,0,0,0,0,0,0,0,0,-1,1175,1233,0,0
-42,-209,0,0,0,0,0,0,0,0,0,-1,1182,1233,0,0
-35,-209,0,0,0,0,0,0,0,0,0,-1,1189,1233,0,0
-28,-209,0,0,0,0,0,0,0,0,0,-1,1196,1233,0,0
-21,-209,0,0,0,0,0,0,0,0,0,-1,1203,1233,0,0
-14,-209,0,0,0,0,0,0,0,0,0,-1,1210,1233,0,0
-7,-209,0,0,0,0,0,0,0,0,0,-1,1217,1233,0,0
0,-209,0,0,0,0,0,0,0,0,0,-1,1224,1233,0,0
7,-209,0,0,0,0,0,0,0,0,0,-1,1231,1233,0,0
14,-209,0,0,0,0,0,0,0,0,0,-1,1238,1233,0,0
21,-209,0,0,0,0,0,0,0,0,0,-1,1245,1233,0,0
28,-209,0,0,0,0,0,0,0,0,0,-1,1252,1233,0,0
35,-209,0,0,0,0,0,0,0,0,0,-1,1259,1233,0,0
42,-209,0,0,0,0,0,0,0,0,0,-1,1266,1233,0,0
49,-209,0,0,0,0,0,0,0,0,0,-1,1273,1233,0,0
56,-209,0,0,0,0,0,0,0,0,0,-1,1280,1233,0,0
63,-209,0,0,0,0,0,0,0,0,0,-1,1287,1233,0,0
70,-209,0,0,0,0,0,0,0,0,0,-1,1294,1233,0,0
77,-209,0,0,0,0,0,0,0,0,0,-1,1301,1233,0,0
84,-209,0,0,0,0,0,0,0,0,0,-1,1308,1233,0,0
91,-209,0,0,0,0,0,0,0,0,0,-1,1315,1233,0,0
98,-209,0,0,0,0,0,0,0,0,0,-1,1322,1233,0,0
105,-209,0,0,0,0,0,0,0,0,0,-1,1329,1233,0,0
112,-209,0,0,0,0,0,0,0,0,0,-1,1336,1233,0,0
119,-209,0,0,0,0,0,0,0,0,0,-1,1343,1233,0,0
126,-209,0,0,0,0,0,0,0,0,0,-1,1350,1233,0,0
133,-209,0,0,0,0,0,0,0,0,0,-1,1357,1233,0,0
140,-209,0,0,0,0,0,0,0,0,0,-1,1364,1233,0,0
147,-209,0,0,0,0,0,0,0,0,0,-1,1371,1233,0,0
154,-209,0,0,0,0,0,0,0,0,0,-1,1378,1233,0,0
161,-209,0,0,0,0,0,0,0,0,0,-1,1385,1233,0,0
168,-209,0,0,0,0,0,0,0,0,0,-1,1392,1233,0,0
175,-209,0,0,0,0,0,0,0,0,0,-1,1399,1233,0,0
182,-209,0,0,0,0,0,0,0,0,0,-1,1406,1233,0,0
189,-209,0,0,0,0,0,0,0,0,0,-1,1413,1233,0,0
196,-209,0,0,0,0,0,0,0,0,0,-1,1420,1233,0,0
203,-209,0,0,0,0,0,0,0,0,0,-1,1427,1233,0,0
210,-209,0,0,0,0,0,0,0,0,0,-1,1434,1233,0,0
217,-209,0,0,0,0,0,0,0,0,0,-1,1441,1233,0,0
224,-209,0,0,0,0,0,0,0,0,0,-1,1448,1233,0,0
231,-209,0,0,0,0,0,0,0,0,0,-1,1455,1233,0,0
238,-209,0,0,0,0,0,0,0,0,0,-1,1462,1233,0,0
245,-209,0,0,0,0,0,0,0,0,0,-1,1469,1233,0,0
252,-209,0,0,0,0,0,0,0,0,0,-1,1476,1233,0,0
259,-209,0,0,0,0,0,0,0,0,0,-1,1483,1233,0,0
266,-209,0,0,0,0,0,0,0,0,0,-1,1490,1233,0,0
273,-209,0,0,0,0,0,0,0,0,0,-1,1497,1233,0,0
280,-209,0,0,0,0,0,0,0,0,0,-1,1504,1233,0,0
287,-209,0,0,0,0,0,0,0,0,0,-1,1511,1233,0,0
294,-209,0,0,0,0,0,0,0,0,0,-1,1518,1233,0,0
301,-209,0,0,0,0,0,0,0,0,0,-1,1525,1233,0,0
308,-209,0,0,0,0,0,0,0,0,0,-1,1532,1233,0,0
315,-209,0,0,0,0,0,0,0,0,0,-1,1539,1233,0,0
322,-209,0,0,0,0,0,0,0,0,0,-1,1546,1233,0,0
329,-209,0,0,0,0,0,0,0,0,0,-1,1553,1233,0,0
336,-209,0,0,0,0,0,0,0,0,0,-1,1560,1233,0,0
343,-209,0,0,0,0,0,0,0,0,0,-1,1567,1233,0,0
350,-209,0,0,0,0,0,0,0,0,0,-1,1574,1233,0,0
357,-209,0,0,0,0,0,0,0,0,0,-1,1581,1233,0,0
364,-209,0,0,0,0,0,0,0,0,0,-1,1588,1233,0,0
371,-209,0,0,0,0,0,0,0,0,0,-1,1595,1233,0,0
378,-209,0,0,0,0,0,0,0,0,0,-1,1602,1233,0,0
385,-209,0,0,0,0,0,0,0,0,0,-1,1609,1233,0,0
392,-209,0,0,0,0,0,0,0,0,0,-1,1616,1233,0,0
399,-209,0,0,0,0,0,0,0,0,0,-1,1623,1233,0,0
406,-209,0,0,0,0,0,0,0,0,0,-1,1630,1233,0,0
413,-209,0,0,0,0,0,0,0,0,0,-1,1637,1233,0,0
420,-209,0,0,0,0,0,0,0,0,0,-1,1644,1233,0,0
427,-209,0,0,0,0,0,0,0,0,0,-1,1651,1233,0,0
434,-209,0,0,0,0,0,0,0,0,0,-1,1658,1233,0,0
441,-209,0,0,0,0,0,0,0,0,0,-1,1665,1233,0,0
448,-209,0,0,0,0,0,0,0,0,0,-1,1672,1233,0,0
455,-209,0,0,0,0,0,0,0,0,0,-1,1679,1233,0,0
462,-209,0,0,0,0,0,0,0,0,0,-1,1686,1233,0,0
469,-209,0,0,0,0,0,0,0,0,0,-1,1693,1233,0,0
476,-209,0,0,0,0,0,0,0,0,0,-1,1700,1233,0,0
483,-209,0,0,0,0,0,0,0,0,0,-1,1707,1233,0,0
490,-209,0,0,0,0,0,0,0,0,0,-1,1714,1233,0,0
497,-209,0,0,0,0,0,0,0,0,0,-1,1721,1233,0,0
504,-209,0,0,0,0,0,0,0,0,0,-1,1728,1233,0,0
511,-209,0,0,0,0,0,0,0,0,0,-1,1735,1233,0,0
518,-209,0,0,0,0,0,0,0,0,0,-1,1742,1233,0,0
525,-209,0,0,0,0,0,0,0,0,0,-1,1749,1233,0,0
532,-209,0,0,0,0,0,0,0,0,0,-1,1756,1233,0,0
539,-209,0,0,0,0,0,0,0,0,0,-1,1763,1233,0,0
546,-209,0,0,0,0,0,0,0,0,0,-1,1770,1233,0,0
553,-209,0,0,0,0,0,0,0,0,0,-1,1777,1233,0,0
560,-209,0,0,0,0,0,0,0,0,0,-1,1784,1233,0,0
567,-209,0,0,0,0,0,0,0,0,0,-1,1791,1233,0,0
574,-209,0,0,0,0,0,0,0,0,0,-1,1798,1233,0,0
581,-209,0,0,0,0,0,0,0,0,0,-1,1805,1233,0,0
588,-209,0,0,0,0,0,0,0,0,0,-1,1812,1233,0,0
595,-209,0,0,0,0,0,0,0,0,0,-1,1819,1233,0,0
602,-209,0,0,0,0,0,0,0,0,0,-1,1826,1233,0,0
609,-209,0,0,0,0,0,0,0,0,0,-1,1833,1233,0,0
616,-209,0,0,0,0,0,0,0,0,0,-1,1840,1233,0,0
623,-209,24.0529,2.74878,0.00155445,-0.00433979,0.00138429,0.00186336,-0.00464871,0.219561,0.00387269,0.0334359,1847,1233,24.0528,-2.74877
630,-209,24.0513,2.66614,0.00057672,-0.000770104,0.000521607,0.000755104,-0.000948488,0.329522,0.00098568,0.0359195,1854,1233,24.0513,-2.66613
637,-209,24.0696,2.73157,-0.000139655,0.00291132,-0.000264132,0.00293402,-0.000162352,-1.48507,0.00201231,0.0371313,1861,1233,24.0696,-2.73153
644,-209,24.0665,2.74585,-0.000655283,0.00504943,-0.000474124,0.00508856,-0.000694419,-1.48844,0.00364596,0.0314417,1868,1233,24.0665,-2.74587
651,-209,24.0704,2.72693,-0.000748417,0.00554489,-0.000244295,0.00555436,-0.000757885,-1.53206,0.00397966,0.0240849,1875,1233,24.0705,-2.72698
658,-209,24.0691,2.73389,-0.000537053,0.00508183,7.33932e-05,0.00508279,-0.000538012,1.55774,0.00358136,0.0201084,1882,1233,24.0691,-2.7339
665,-209,24.1516,2.78577,-0.000306945,0.00420865,0.000426693,0.00424862,-0.000346911,1.4774,0.00295484,0.0324903,1889,1233,24.1516,-2.78572
672,-209,24.2292,2.86243,-0.000195741,0.00317796,0.000756328,0.00333976,-0.000357537,1.36005,0.00235475,0.0473216,1896,1233,24.2292,-2.86242
679,-209,24.3756,3.12183,0,0,0,0,0,0,0,-1,1903,1233,24.3756,-3.1218
686,-209,24.3955,2.74011,0,0,0,0,0,0,0,-1,1910,1233,24.3956,-2.74012
693,-209,20.5261,5.87952,0,0,0,0,0,0,0,-1,1917,1233,20.5262,-5.87956
700,-209,20.528,5.58594,0.000231916,-0.000313478,0.0016984,0.00167937,-0.00176094,0.705797,0.00198645,0.0260672,1924,1233,20.528,-5.58597
707,-209,20.5767,5.32092,0.000304012,-0.00112666,0.00184437,0.00156691,-0.00238955,0.600405,0.00230067,0.0208745,1931,1233,20.5767,-5.32095
714,-209,20.6072,5.13623,0.000256111,-0.00178464,0.00179607,0.00130142,-0.00282994,0.527076,0.00243905,0.0129268,1938,1233,20.6072,-5.13623
721,-209,20.6168,4.93713,0.000399984,-0.00156738,0.00145129,0.00116955,-0.00233694,0.487564,0.00206153,0.0121775,1945,1233,20.6168,-4.93713
728,-209,20.6223,4.75464,0.00122448,-0.000906458,0.000818522,0.00150259,-0.00118457,0.327532,0.00155505,0.01196,1952,1233,20.6223,-4.75462
735,-209,20.6292,4.59668,0.00245128,-0.00013868,0.000197755,0.00246629,-0.000153693,0.0757692,0.00169775,0.0129598,1959,1233,20.6291,-4.59667
742,-209,20.6298,4.42688,0.00434989,0.000756019,-0.000486146,0.00441449,0.000691419,-0.132108,0.00274174,0.0112985,1966,1233,20.6297,-4.42693
749,-209,20.6169,4.24414,0.00684983,0.00149933,-0.000978376,0.00702312,0.00132604,-0.175302,0.00430863,0.009901,1973,1233,20.617,-4.24419
756,-209,20.5961,4.0564,0.0103454,0.00219462,-0.00165642,0.0106691,0.00187086,-0.193025,0.00657841,0.0100778,1980,1233,20.5961,-4.05634
763,-209,20.5662,3.89771,0.0151839,0.00287433,-0.00239255,0.0156326,0.00242566,-0.185377,0.00971464,0.0158238,1987,1233,20.5662,-3.89774
770,-209,20.6628,3.8136,0.0215157,0.00353111,-0.00302134,0.0220097,0.00303711,-0.162071,0.0137728,0.0420664,1994,1233,20.6628,-3.81359
777,-209,20.7813,3.72253,0,0,0,0,0,0,0,-1,2001,1233,20.7813,-3.72258
784,-209,22.0624,2.63904,0,0,0,0,0,0,0,-1,2008,1233,22.0623,-2.63903
791,-209,22.6522,2.70386,0,0,0,0,0,0,0,-1,2015,1233,22.6523,-2.70384
798,-209,22.9437,2.80737,0,0,0,0,0,0,0,-1,2022,1233,22.9437,-2.80741
805,-209,0,0,0,0,0,0,0,0,0,-1,2029,1233,0,0
812,-209,0,0,0,0,0,0,0,0,0,-1,2036,1233,0,0
-700,-216,0,0,0,0,0,0,0,0,0,-1,524,1240,0,0
-693,-216,0,0,0,0,0,0,0,0,0,-1,531,1240,0,0
-686,-216,0,0,0,0,0,0,0,0,0,-1,538,1240,0,0
-679,-216,-13.1852,-4.3584,0,0,0,0,0,0,0,-1,545,1240,-13.1853,4.35844
-672,-216,-13.1575,-4.80737,0,0,0,0,0,0,0,-1,552,1240,-13.1575,4.80735
-665,-216,-12.7122,0.506714,0,0,0,0,0,0,0,-1,559,1240,-12.7122,-0.506665
-658,-216,-12.0923,0.273438,0,0,0,0,0,0,0,-1,566,1240,-12.0924,-0.273435
-651,-216,-12.2419,0.479492,0,0,0,0,0,0,0,-1,573,1240,-12.242,-0.479542
-644,-216,-11.492,0.316895,0,0,0,0,0,0,0,-1,580,1240,-11.492,-0.316892
-637,-216,-11.8159,0.730957,-0.0125645,0.015547,0.00615381,0.0168351,-0.0138526,1.36446,0.0177454,0.0421983,587,1240,-11.8158,-0.730956
-630,-216,-12.2358,1.22119,-0.00967237,0.0105465,0.00460674,0.0115467,-0.0106725,1.35701,0.0128316,0.0264516,594,1240,-12.2358,-1.22122
-623,-216,-12.3277,1.60437,-0.00709155,0.00713693,0.00341048,0.00791216,-0.00786678,1.34729,0.00910999,0.0125016,601,1240,-12.3277,-1.60436
-616,-216,-12.3621,1.84875,-0.00526502,0.00470981,0.00230572,0.005217,-0.00577221,1.35428,0.00634732,0.01356,608,1240,-12.3621,-1.8488
-609,-216,-12.3649,2.0542,-0.00371257,0.00281845,0.00136986,0.00309414,-0.00398826,1.3722,0.00409987,0.012339,615,1240,-12.3649,-2.05424
-602,-216,-12.3594,2.25037,-0.0021547,0.00135618,0.000551068,0.00144065,-0.00223916,1.41871,0.00214115,0.0118157,622,1240,-12.3594,-2.25032
-595,-216,-12.3348,2.44336,-0.00120875,0.000649113,-7.5834e-05,0.000652203,-0.00121184,-1.53007,0.00109225,0.0166036,629,1240,-12.3348,-2.44332
-588,-216,-12.3314,2.66174,-0.000689966,0.000309361,-0.000239648,0.000363859,-0.000744464,-1.34719,0.000652346,0.0184866,636,1240,-12.3313,-2.66173
-581,-216,-12.3153,2.92786,-6.84898e-05,-0.00013582,-0.000227411,0.000127735,-0.000332044,-0.711914,0.00027405,0.0165676,643,1240,-12.3153,-2.92784
-574,-216,-12.3416,3.23926,-1.40958e-05,0.000107371,-0.000434073,0.000484939,-0.000391663,-0.854905,0.000507061,0.020112,650,1240,-12.3416,-3.23923
-567,-216,-12.4753,3.57825,-0.000511642,0.000117245,-0.000371424,0.000289454,-0.000683851,-1.13665,0.000577111,0.0341203,657,1240,-12.4753,-3.5782
-560,-216,-11.8251,3.90784,0,0,0,0,0,0,0,-1,664,1240,-11.8251,-3.90782
-553,-216,-14.8184,-0.0878906,0,0,0,0,0,0,0,-1,671,1240,-14.8184,0.0878798
-546,-216,-16.1033,0.411133,0,0,0,0,0,0,0,-1,678,1240,-16.1033,-0.411103
-539,-216,-16.2055,0.865601,-0.00425707,-0.00168251,0.000733458,-0.00148822,-0.00445136,1.31185,0.0026166,0.0417703,685,1240,-16.2055,-0.865655
-532,-216,-16.2814,1.12305,-0.00581632,-0.00240748,0.00092733,-0.00217154,-0.00605226,1.32166,0.00354042,0.0419527,692,1240,-16.2814,-1.12306
-525,-216,-16.2275,0.932373,-0.00760479,-0.0033518,0.00118057,-0.00304607,-0.00791053,1.31739,0.00460719,0.0430096,699,1240,-16.2275,-0.932392
-518,-216,-16.2794,0.953491,-0.00975174,-0.00468073,0.00155386,-0.00424247,-0.01019,1.29589,0.00591058,0.0461439,706,1240,-16.2794,-0.95355
-511,-216,-16.3207,1.01111,-0.011566,-0.00634525,0.00256076,-0.0052989,-0.0126123,1.18289,0.00731262,0.0450703,713,1240,-16.3207,-1.01107
-504,-216,-16.3405,1.0885,-0.00992856,-0.0076567,0.00612473,-0.00256345,-0.0150218,0.87709,0.00927884,0.0441695,720,1240,-16.3405,-1.08846
-497,-216,0,0,0,0,0,0,0,0,0,-1,727,1240,0,0
-490,-216,0,0,0,0,0,0,0,0,0,-1,734,1240,0,0
-483,-216,0,0,0,0,0,0,0,0,0,-1,741,1240,0,0
-476,-216,0,0,0,0,0,0,0,0,0,-1,748,1240,0,0
-469,-216,0,0,0,0,0,0,0,0,0,-1,755,1240,0,0
-462,-216,0,0,0,0,0,0,0,0,0,-1,762,1240,0,0
-455,-216,0,0,0,0,0,0,0,0,0,-1,769,1240,0,0
-448,-216,0,0,0,0,0,0,0,0,0,-1,776,1240,0,0
-441,-216,0,0,0,0,0,0,0,0,0,-1,783,1240,0,0
-434,-216,0,0,0,0,0,0,0,0,0,-1,790,1240,0,0
-427,-216,0,0,0,0,0,0,0,0,0,-1,797,1240,0,0
-420,-216,0,0,0,0,0,0,0,0,0,-1,804,1240,0,0
-413,-216,0,0,0,0,0,0,0,0,0,-1,811,1240,0,0
-406,-216,0,0,0,0,0,0,0,0,0,-1,818,1240,0,0
-399,-216,0,0,0,0,0,0,0,0,0,-1,825,1240,0,0
-392,-216,0,0,0,0,0,0,0,0,0,-1,832,1240,0,0
-385,-216,0,0,0,0,0,0,0,0,0,-1,839,1240,0,0
-378,-216,0,0,0,0,0,0,0,0,0,-1,846,1240,0,0
-371,-216,0,0,0,0,0,0,0,0,0,-1,853,1240,0,0
-364,-216,0,0,0,0,0,0,0,0,0,-1,860,1240,0,0
-357,-216,0,0,0,0,0,0,0,0,0,-1,867,1240,0,0
-350,-216,0,0,0,0,0,0,0,0,0,-1,874,1240,0,0
-343,-216,0,0,0,0,0,0,0,0,0,-1,881,1240,0,0
-336,-216,0,0,0,0,0,0,0,0,0,-1,888,1240,0,0
-329,-216,0,0,0,0,0,0,0,0,0,-1,895,1240,0,0
-322,-216,0,0,0,0,0,0,0,0,0,-1,902,1240,0,0
-315,-216,0,0,0,0,0,0,0,0,0,-1,909,1240,0,0
-308,-216,0,0,0,0,0,0,0,0,0,-1,916,1240,0,0
-301,-216,0,0,0,0,0,0,0,0,0,-1,923,1240,0,0
-294,-216,0,0,0,0,0,0,0,0,0,-1,930,1240,0,0
-287,-216,0,0,0,0,0,0,0,0,0,-1,937,1240,0,0
-280,-216,0,0,0,0,0,0,0,0,0,-1,944,1240,0,0
-273,-216,0,0,0,0,0,0,0,0,0,-1,951,1240,0,0
-266,-216,0,0,0,0,0,0,0,0,0,-1,958,1240,0,0
-259,-216,0,0,0,0,0,0,0,0,0,-1,965,1240,0,0
-252,-216,0,0,0,0,0,0,0,0,0,-1,972,1240,0,0
-245,-216,0,0,0,0,0,0,0,0,0,-1,979,1240,0,0
-238,-216,0,0,0,0,0,0,0,0,0,-1,986,1240,0,0
-231,-216,0,0,0,0,0,0,0,0,0,-1,993,1240,0,0
-224,-216,0,0,0,0,0,0,0,0,0,-1,1000,1240,0,0
-217,-216,0,0,0,0,0,0,0,0,0,-1,1007,1240,0,0
-210,-216,0,0,0,0,0,0,0,0,0,-1,1014,1240,0,0
-203,-216,0,0,0,0,0,0,0,0,0,-1,1021,1240,0,0
-196,-216,0,0,0,0,0,0,0,0,0,-1,1028,1240,0,0
-189,-216,0,0,0,0,0,0,0,0,0,-1,1035,1240,0,0
-182,-216,0,0,0,0,0,0,0,0,0,-1,1042,1240,0,0
-175,-216,0,0,0,0,0,0,0,0,0,-1,1049,1240,0,0
-168,-216,0,0,0,0,0,0,0,0,0,-1,1056,1240,0,0
-161,-216,0,0,0,0,0,0,0,0,0,-1,1063,1240,0,0
-154,-216,0,0,0,0,0,0,0,0,0,-1,1070,1240,0,0
-147,-216,0,0,0,0,0,0,0,0,0,-1,1077,1240,0,0
-140,-216,0,0,0,0,0,0,0,0,0,-1,1084,1240,0,0
-133,-216,0,0,0,0,0,0,0,0,0,-1,1091,1240,0,0
-126,-216,0,0,0,0,0,0,0,0,0,-1,1098,1240,0,0
-119,-216,0,0,0,0,0,0,0,0,0,-1,1105,1240,0,0
-112,-216,0,0,0,0,0,0,0,0,0,-1,1112,1240,0,0
-105,-216,0,0,0,0,0,0,0,0,0,-1,1119,1240,0,0
-98,-216,0,0,0,0,0,0,0,0,0,-1,1126,1240,0,0
-91,-216,0,0,0,0,0,0,0,0,0,-1,1133,1240,0,0
-84,-216,0,0,0,0,0,0,0,0,0,-1,1140,1240,0,0
-77,-216,0,0,0,0,0,0,0,0,0,-1,1147,1240,0,0
-70,-216,0,0,0,0,0,0,0,0,0,-1,1154,1240,0,0
-63,-216,0,0,0,0,0,0,0,0,0,-1,1161,1240,0,0
-56,-216,0,0,0,0,0,0,0,0,0,-1,1168,1240,0,0
-49,-216,0,0,0,0,0,0,0,0,0,-1,1175,1240,0,0
-42,-216,0,0,0,0,0,0,0,0,0,-1,1182,1240,0,0
-35,-216,0,0,0,0,0,0,0,0,0,-1,1189,1240,0,0
-28,-216,0,0,0,0,0,0,0,0,0,-1,1196,1240,0,0
-21,-216,0,0,0,0,0,0,0,0,0,-1,1203,1240,0,0
-14,-216,0,0,0,0,0,0,0,0,0,-1,1210,1240,0,0
-7,-216,0,0,0,0,0,0,0,0,0,-1,1217,1240,0,0
0,-216,0,0,0,0,0,0,0,0,0,-1,1224,1240,0,0
7,-216,0,0,0,0,0,0,0,0,0,-1,1231,1240,0,0
14,-216,0,0,0,0,0,0,0,0,0,-1,1238,1240,0,0
21,-216,0,0,0,0,0,0,0,0,0,-1,1245,1240,0,0
28,-216,0,0,0,0,0,0,0,0,0,-1,1252,1240,0,0
35,-216,0,0,0,0,0,0,0,0,0,-1,1259,1240,0,0
42,-216,0,0,0,0,0,0,0,0,0,-1,1266,1240,0,0
49,-216,0,0,0,0,0,0,0,0,0,-1,1273,1240,0,0
56,-216,0,0,0,0,0,0,0,0,0,-1,1280,1240,0,0
63,-216,0,0,0,0,0,0,0,0,0,-1,1287,1240,0,0
70,-216,0,0,0,0,0,0,0,0,0,-1,1294,1240,0,0
77,-216,0,0,0,0,0,0,0,0,0,-1,1301,1240,0,0
84,-216,0,0,0,0,0,0,0,0,0,-1,1308,1240,0,0
91,-216,0,0,0,0,0,0,0,0,0,-1,1315,1240,0,0
98,-216,0,0,0,0,0,0,0,0,0,-1,1322,1240,0,0
105,-216,0,0,0,0,0,0,0,0,0,-1,1329,1240,0,0
112,-216,0,0,0,0,0,0,0,0,0,-1,1336,1240,0,0
119,-216,0,0,0,0,0,0,0,0,0,-1,1343,1240,0,0
126,-216,0,0,0,0,0,0,0,0,0,-1,1350,1240,0,0
133,-216,0,0,0,0,0,0,0,0,0,-1,1357,1240,0,0
140,-216,0,0,0,0,0,0,0,0,0,-1,1364,1240,0,0
147,-216,0,0,0,0,0,0,0,0,0,-1,1371,1240,0,0
154,-216,0,0,0,0,0,0,0,0,0,-1,1378,1240,0,0
161,-216,0,0,0,0,0,0,0,0,0,-1,1385,1240,0,0
168,-216,0,0,0,0,0,0,0,0,0,-1,1392,1240,0,0
175,-216,0,0,0,0,0,0,0,0,0,-1,1399,1240,0,0
182,-216,0,0,0,0,0,0,0,0,0,-1,1406,1240,0,0
189,-216,0,0,0,0,0,0,0,0,0,-1,1413,1240,0,0
196,-216,0,0,0,0,0,0,0,0,0,-1,1420,1240,0,0
203,-216,0,0,0,0,0,0,0,0,0,-1,1427,1240,0,0
210,-216,0,0,0,0,0,0,0,0,0,-1,1434,1240,0,0
217,-216,0,0,0,0,0,0,0,0,0,-1,1441,1240,0,0
224,-216,0,0,0,0,0,0,0,0,0,-1,1448,1240,0,0
231,-216,0,0,0,0,0,0,0,0,0,-1,1455,1240,0,0
238,-216,0,0,0,0,0,0,0,0,0,-1,1462,1240,0,0
245,-216,0,0,0,0,0,0,0,0,0,-1,1469,1240,0,0
252,-216,0,0,0,0,0,0,0,0,0,-1,1476,1240,0,0
259,-216,0,0,0,0,0,0,0,0,0,-1,1483,1240,0,0
266,-216,0,0,0,0,0,0,0,0,0,-1,1490,1240,0,0
273,-216,0,0,0,0,0,0,0,0,0,-1,1497,1240,0,0
280,-216,0,0,0,0,0,0,0,0,0,-1,1504,1240,0,0
287,-216,0,0,0,0,0,0,0,0,0,-1,1511,1240,0,0
294,-216,0,0,0,0,0,0,0,0,0,-1,1518,1240,0,0
301,-216,0,0,0,0,0,0,0,0,0,-1,1525,1240,0,0
308,-216,0,0,0,0,0,0,0,0,0,-1,1532,1240,0,0
315,-216,0,0,0,0,0,0,0,0,0,-1,1539,1240,0,0
322,-216,0,0,0,0,0,0,0,0,0,-1,1546,1240,0,0
329,-216,0,0,0,0,0,0,0,0,0,-1,1553,1240,0,0
336,-216,0,0,0,0,0,0,0,0,0,-1,1560,1240,0,0
343,-216,0,0,0,0,0,0,0,0,0,-1,1567,1240,0,0
350,-216,0,0,0,0,0,0,0,0,0,-1,1574,1240,0,0
357,-216,0,0,0,0,0,0,0,0,0,-1,1581,1240,0,0
364,-216,0,0,0,0,0,0,0,0,0,-1,1588,1240,0,0
371,-216,0,0,0,0,0,0,0,0,0,-1,1595,1240,0,0
378,-216,0,0,0,0,0,0,0,0,0,-1,1602,1240,0,0
385,-216,0,0,0,0,0,0,0,0,0,-1,1609,1240,0,0
392,-216,0,0,0,0,0,0,0,0,0,-1,1616,1240,0,0
399,-216,0,0,0,0,0,0,0,0,0,-1,1623,1240,0,0
406,-216,0,0,0,0,0,0,0,0,0,-1,1630,1240,0,0
413,-216,0,0,0,0,0,0,0,0,0,-1,1637,1240,0,0
420,-216,0,0,0,0,0,0,0,0,0,-1,1644,1240,0,0
427,-216,0,0,0,0,0,0,0,0,0,-1,1651,1240,0,0
434,-216,0,0,0,0,0,0,0,0,0,-1,1658,1240,0,0
441,-216,0,0,0,0,0,0,0,0,0,-1,1665,1240,0,0
448,-216,0,0,0,0,0,0,0,0,0,-1,1672,1240,0,0
455,-216,0,0,0,0,0,0,0,0,0,-1,1679,1240,0,0
462,-216,0,0,0,0,0,0,0,0,0,-1,1686,1240,0,0
469,-216,0,0,0,0,0,0,0,0,0,-1,1693,1240,0,0
476,-216,0,0,0,0,0,0,0,0,0,-1,1700,1240,0,0
483,-216,0,0,0,0,0,0,0,0,0,-1,1707,1240,0,0
490,-216,0,0,0,0,0,0,0,0,0,-1,1714,1240,0,0
497,-216,0,0,0,0,0,0,0,0,0,-1,1721,1240,0,0
504,-216,0,0,0,0,0,0,0,0,0,-1,1728,1240,0,0
511,-216,0,0,0,0,0,0,0,0,0,-1,1735,1240,0,0
518,-216,0,0,0,0,0,0,0,0,0,-1,1742,1240,0,0
525,-216,0,0,0,0,0,0,0,0,0,-1,1749,1240,0,0
532,-216,0,0,0,0,0,0,0,0,0,-1,1756,1240,0,0
539,-216,0,0,0,0,0,0,0,0,0,-1,1763,1240,0,0
546,-216,0,0,0,0,0,0,0,0,0,-1,1770,1240,0,0
553,-216,0,0,0,0,0,0,0,0,0,-1,1777,1240,0,0
560,-216,0,0,0,0,0,0,0,0,0,-1,1784,1240,0,0
567,-216,0,0,0,0,0,0,0,0,0,-1,1791,1240,0,0
574,-216,0,0,0,0,0,0,0,0,0,-1,1798,1240,0,0
581,-216,0,0,0,0,0,0,0,0,0,-1,1805,1240,0,0
588,-216,0,0,0,0,0,0,0,0,0,-1,1812,1240,0,0
595,-216,0,0,0,0,0,0,0,0,0,-1,1819,1240,0,0
602,-216,0,0,0,0,0,0,0,0,0,-1,1826,1240,0,0
609,-216,0,0,0,0,0,0,0,0,0,-1,1833,1240,0,0
616,-216,0,0,0,0,0,0,0,0,0,-1,1840,1240,0,0
623,-216,23.9396,2.72546,0.00183421,-0.00319904,0.00131247,0.00215589,-0.00352072,0.240358,0.00330882,0.0373225,1847,1240,23.9395,-2.72548
630,-216,23.9719,2.76746,4.24084e-05,0.00115966,4.86921e-05,0.00116178,4.02903e-05,1.52732,0.000761445,0.0345907,1854,1240,23.9719,-2.76749
637,-216,23.9998,2.7854,-0.0013438,0.00528741,-0.000971505,0.00542681,-0.0014832,-1.42828,0.00420048,0.0320218,1861,1240,23.9998,-2.78543
644,-216,24.0288,2.76306,-0.00218463,0.00745891,-0.00121606,0.00760989,-0.00233562,-1.44727,0.00600516,0.0258521,1868,1240,24.0287,-2.76306
651,-216,24.0404,2.77026,-0.00227524,0.00775024,-0.00095659,0.00784069,-0.0023657,-1.47651,0.0061688,0.0208703,1875,1240,24.0404,-2.77022
658,-216,24.0836,2.7887,-0.00196344,0.00708175,-0.000592768,0.00712044,-0.00200212,-1.50563,0.00553635,0.0286043,1882,1240,24.0836,-2.78874
665,-216,24.026,2.61597,-0.00157775,0.00601996,-0.000160775,0.00602336,-0.00158115,-1.54965,0.00463344,0.0415357,1889,1240,24.026,-2.61602
672,-216,24.1462,2.72351,-0.00127541,0.00481285,0.000238248,0.00482216,-0.00128472,1.53174,0.00371776,0.0474996,1896,1240,24.1463,-2.72345
679,-216,24.3711,2.9646,0,0,0,0,0,0,0,-1,1903,1240,24.371,-2.96463
686,-216,20.3407,5.67078,0,0,0,0,0,0,0,-1,1910,1240,20.3407,-5.67077
693,-216,20.3765,5.65356,-0.00035096,0.00156799,0.00117972,0.00212915,-0.000912123,1.1268,0.00180214,0.0462668,1917,1240,20.3765,-5.65357
700,-216,20.3867,5.59863,4.25817e-05,0.000484032,0.00150525,0.00178466,-0.00125804,0.858198,0.00176545,0.0211079,1924,1240,20.3867,-5.59866
707,-216,20.4088,5.34448,0.000395922,-0.000584138,0.0016949,0.00167021,-0.00185842,0.644675,0.00203822,0.0164951,1931,1240,20.4088,-5.34442
714,-216,20.4437,5.13806,0.000447613,-0.00142205,0.0016602,0.00141808,-0.00239253,0.528982,0.0022239,0.0129484,1938,1240,20.4437,-5.13809
721,-216,20.4363,4.96008,0.000632055,-0.00117995,0.00126711,0.00128374,-0.00183164,0.475032,0.00180791,0.0129189,1945,1240,20.4363,-4.96004
728,-216,20.4567,4.76135,0.00141939,-0.00051537,0.000582389,0.00158117,-0.000677149,0.270954,0.00133821,0.011437,1952,1240,20.4567,-4.76133
735,-216,20.4705,4.59229,0.00255857,0.00028588,-8.95581e-05,0.00256209,0.000282356,-0.0393249,0.00162216,0.0111529,1959,1240,20.4705,-4.59231
742,-216,20.4462,4.43896,0.00425496,0.00117215,-0.000864558,0.00448086,0.00094624,-0.255583,0.00272711,0.0120023,1966,1240,20.4462,-4.43898
749,-216,20.4426,4.24243,0.00647844,0.00194016,-0.00148922,0.00692348,0.00149513,-0.290392,0.00420679,0.00951674,1973,1240,20.4426,-4.24247
756,-216,20.4196,4.04956,0.00963911,0.00267081,-0.00232965,0.0103462,0.00196371,-0.294684,0.00634502,0.00932779,1980,1240,20.4195,-4.04961
763,-216,20.3882,3.86926,0.0140918,0.00341684,-0.0033411,0.0150512,0.00245737,-0.279649,0.00932362,0.014108,1987,1240,20.3882,-3.86923
770,-216,20.4523,3.66077,0.0199837,0.00417834,-0.00437037,0.0211117,0.00305038,-0.252581,0.0131759,0.0365561,1994,1240,20.4523,-3.66079
777,-216,20.5327,3.45044,0,0,0,0,0,0,0,-1,2001,1240,20.5328,-3.4505
784,-216,21.783,2.01086,0,0,0,0,0,0,0,-1,2008,1240,21.7829,-2.01092
791,-216,22.0388,2.48767,0,0,0,0,0,0,0,-1,2015,1240,22.0388,-2.48761
798,-216,0,0,0,0,0,0,0,0,0,-1,2022,1240,0,0
805,-216,0,0,0,0,0,0,0,0,0,-1,2029,1240,0,0
812,-216,0,0,0,0,0,0,0,0,0,-1,2036,1240,0,0
-700,-223,0,0,0,0,0,0,0,0,0,-1,524,1247,0,0
-693,-223,0,0,0,0,0,0,0,0,0,-1,531,1247,0,0
-686,-223,0,0,0,0,0,0,0,0,0,-1,538,1247,0,0
-679,-223,0,0,0,0,0,0,0,0,0,-1,545,1247,0,0
-672,-223,-13.0599,-3.47363,0,0,0,0,0,0,0,-1,552,1247,-13.0599,3.4736
-665,-223,-13.2565,-3.95703,0,0,0,0,0,0,0,-1,559,1247,-13.2566,3.95707
-658,-223,-11.9458,0.156372,0,0,0,0,0,0,0,-1,566,1247,-11.9458,-0.156429
-651,-223,-12.2177,0.530396,0,0,0,0,0,0,0,-1,573,1247,-12.2176,-0.530439
-644,-223,-11.2165,0.19873,0,0,0,0,0,0,0,-1,580,1247,-11.2165,-0.198687
-637,-223,-11.5372,0.640015,-0.00946984,0.0155304,0.00650599,0.0171222,-0.0110616,1.33085,0.0163968,0.047996,587,1247,-11.5371,-0.640075
-630,-223,-12.2288,1.41309,-0.00774784,0.0109071,0.00519165,0.0122546,-0.00909534,1.31685,0.0123713,0.0364043,594,1247,-12.2288,-1.41305
-623,-223,-12.1437,1.57654,-0.00587957,0.00756048,0.00399884,0.00866027,-0.00697935,1.30241,0.00904691,0.0216314,601,1247,-12.1437,-1.5765
-616,-223,-12.153,1.85437,-0.00439953,0.00510869,0.0028283,0.00588638,-0.00517722,1.30246,0.00639195,0.0166583,608,1247,-12.153,-1.85441
-609,-223,-12.1492,2.06274,-0.00317016,0.00327773,0.00188081,0.00378624,-0.00367868,1.30674,0.00431002,0.0117477,615,1247,-12.1492,-2.0628
-602,-223,-12.1467,2.245,-0.00159367,0.00186648,0.00104609,0.00215815,-0.00188534,1.29888,0.00233628,0.012855,622,1247,-12.1467,-2.24495
-595,-223,-12.1189,2.48999,-0.000478143,0.00107577,0.000426289,0.00118503,-0.000587405,1.31989,0.00104253,0.0186973,629,1247,-12.1189,-2.49003
-588,-223,-12.1171,2.69885,0.000248765,0.000736497,0.00026427,0.000852228,0.000133035,1.15803,0.000529408,0.0216445,636,1247,-12.1171,-2.69883
-581,-223,-12.1385,2.94409,0.000999967,0.000310576,0.000294558,0.00110868,0.000201863,0.353563,0.000681866,0.0201144,643,1247,-12.1385,-2.94404
-574,-223,-12.106,3.17126,0.00104288,0.000581408,3.61593e-05,0.00104569,0.000578592,0.0777248,0.000604874,0.0172383,650,1247,-12.106,-3.17126
-567,-223,-11.8488,3.50439,0.000408799,0.000547443,1.55606e-05,0.000549168,0.000407074,1.46039,0.000329135,0.0263268,657,1247,-11.8488,-3.50434
-560,-223,-11.5795,3.85974,-0.00037538,-0.000321254,0.00030329,-4.38215e-05,-0.000652812,0.829897,0.000421361,0.0480571,664,1247,-11.5795,-3.85977
-553,-223,-10.9535,4.24487,0,0,0,0,0,0,0,-1,671,1247,-10.9535,-4.24483
-546,-223,-15.3039,0.819214,0,0,0,0,0,0,0,-1,678,1247,-15.3039,-0.819246
-539,-223,-16.2871,1.35217,0,0,0,0,0,0,0,-1,685,1247,-16.2871,-1.3522
-532,-223,-16.1819,1.42859,0,0,0,0,0,0,0,-1,692,1247,-16.1819,-1.42865
-525,-223,-16.2322,0.915039,0,0,0,0,0,0,0,-1,699,1247,-16.2322,-0.915093
-518,-223,-16.2335,0.895264,-0.0108129,-0.00486648,0.00083404,-0.00475172,-0.0109277,1.43405,0.00632694,0.0479767,706,1247,-16.2335,-0.89532
-511,-223,-16.3455,1.02344,-0.0133467,-0.00618927,0.00143892,-0.00591083,-0.0136252,1.37965,0.00788942,0.0437518,713,1247,-16.3455,-1.02349
-504,-223,-16.3514,1.11389,-0.0131453,-0.00677225,0.00425757,-0.0046408,-0.0152767,1.10665,0.00904359,0.0429686,720,1247,-16.3514,-1.11388
-497,-223,0,0,0,0,0,0,0,0,0,-1,727,1247,0,0
-490,-223,0,0,0,0,0,0,0,0,0,-1,734,1247,0,0
-483,-223,0,0,0,0,0,0,0,0,0,-1,741,1247,0,0
-476,-223,0,0,0,0,0,0,0,0,0,-1,748,1247,0,0
-469,-223,0,0,0,0,0,0,0,0,0,-1,755,1247,0,0
-462,-223,0,0,0,0,0,0,0,0,0,-1,762,1247,0,0
-455,-223,0,0,0,0,0,0,0,0,0,-1,769,1247,0,0
-448,-223,0,0,0,0,0,0,0,0,0,-1,776,1247,0,0
-441,-223,0,0,0,0,0,0,0,0,0,-1,783,1247,0,0
-434,-223,0,0,0,0,0,0,0,0,0,-1,790,1247,0,0
-427,-223,0,0,0,0,0,0,0,0,0,-1,797,1247,0,0
-420,-223,0,0,0,0,0,0,0,0,0,-1,804,1247,0,0
-413,-223,0,0,0,0,0,0,0,0,0,-1,811,1247,0,0
-406,-223,0,0,0,0,0,0,0,0,0,-1,818,1247,0,0
-399,-223,0,0,0,0,0,0,0,0,0,-1,825,1247,0,0
-392,-223,0,0,0,0,0,0,0,0,0,-1,832,1247,0,0
-385,-223,0,0,0,0,0,0,0,0,0,-1,839,1247,0,0
-378,-223,0,0,0,0,0,0,0,0,0,-1,846,1247,0,0
-371,-223,0,0,0,0,0,0,0,0,0,-1,853,1247,0,0
-364,-223,0,0,0,0,0,0,0,0,0,-1,860,1247,0,0
-357,-223,0,0,0,0,0,0,0,0,0,-1,867,1247,0,0
-350,-223,0,0,0,0,0,0,0,0,0,-1,874,1247,0,0
-343,-223,0,0,0,0,0,0,0,0,0,-1,881,1247,0,0
-336,-223,0,0,0,0,0,0,0,0,0,-1,888,1247,0,0
-329,-223,0,0,0,0,0,0,0,0,0,-1,895,1247,0,0
-322,-223,0,0,0,0,0,0,0,0,0,-1,902,1247,0,0
-315,-223,0,0,0,0,0,0,0,0,0,-1,909,1247,0,0
-308,-223,0,0,0,0,0,0,0,0,0,-1,916,1247,0,0
-301,-223,0,0,0,0,0,0,0,0,0,-1,923,1247,0,0
-294,-223,0,0,0,0,0,0,0,0,0,-1,930,1247,0,0
-287,-223,0,0,0,0,0,0,0,0,0,-1,937,1247,0,0
-280,-223,0,0,0,0,0,0,0,0,0,-1,944,1247,0,0
-273,-223,0,0,0,0,0,0,0,0,0,-1,951,1247,0,0
-266,-223,0,0,0,0,0,0,0,0,0,-1,958,1247,0,0
-259,-223,0,0,0,0,0,0,0,0,0,-1,965,1247,0,0
-252,-223,0,0,0,0,0,0,0,0,0,-1,972,1247,0,0
-245,-223,0,0,0,0,0,0,0,0,0,-1,979,1247,0,0
-238,-223,0,0,0,0,0,0,0,0,0,-1,986,1247,0,0
-231,-223,0,0,0,0,0,0,0,0,0,-1,993,1247,0,0
-224,-223,0,0,0,0,0,0,0,0,0,-1,1000,1247,0,0
-217,-223,0,0,0,0,0,0,0,0,0,-1,1007,1247,0,0
-210,-223,0,0,0,0,0,0,0,0,0,-1,1014,1247,0,0
-203,-223,0,0,0,0,0,0,0,0,0,-1,1021,1247,0,0
-196,-223,0,0,0,0,0,0,0,0,0,-1,1028,1247,0,0
-189,-223,0,0,0,0,0,0,0,0,0,-1,1035,1247,0,0
-182,-223,0,0,0,0,0,0,0,0,0,-1,1042,1247,0,0
-175,-223,0,0,0,0,0,0,0,0,0,-1,1049,1247,0,0
-168,-223,0,0,0,0,0,0,0,0,0,-1,1056,1247,0,0
-161,-223,0,0,0,0,0,0,0,0,0,-1,1063,1247,0,0
-154,-223,0,0,0,0,0,0,0,0,0,-1,1070,1247,0,0
-147,-223,0,0,0,0,0,0,0,0,0,-1,1077,1247,0,0
-140,-223,0,0,0,0,0,0,0,0,0,-1,1084,1247,0,0
-133,-223,0,0,0,0,0,0,0,0,0,-1,1091,1247,0,0
-126,-223,0,0,0,0,0,0,0,0,0,-1,1098,1247,0,0
-119,-223,0,0,0,0,0,0,0,0,0,-1,1105,1247,0,0
-112,-223,0,0,0,0,0,0,0,0,0,-1,1112,1247,0,0
-105,-223,0,0,0,0,0,0,0,0,0,-1,1119,1247,0,0
-98,-223,0,0,0,0,0,0,0,0,0,-1,1126,1247,0,0
-91,-223,0,0,0,0,0,0,0,0,0,-1,1133,1247,0,0
-84,-223,0,0,0,0,0,0,0,0,0,-1,1140,1247,0,0
-77,-223,0,0,0,0,0,0,0,0,0,-1,1147,1247,0,0
-70,-223,0,0,0,0,0,0,0,0,0,-1,1154,1247,0,0
-63,-223,0,0,0,0,0,0,0,0,0,-1,1161,1247,0,0
-56,-223,0,0,0,0,0,0,0,0,0,-1,1168,1247,0,0
-49,-223,0,0,0,0,0,0,0,0,0,-1,1175,1247,0,0
-42,-223,0,0,0,0,0,0,0,0,0,-1,1182,1247,0,0
-35,-223,0,0,0,0,0,0,0,0,0,-1,1189,1247,0,0
-28,-223,0,0,0,0,0,0,0,0,0,-1,1196,1247,0,0
-21,-223,0,0,0,0,0,0,0,0,0,-1,1203,1247,0,0
-14,-223,0,0,0,0,0,0,0,0,0,-1,1210,1247,0,0
-7,-223,0,0,0,0,0,0,0,0,0,-1,1217,1247,0,0
0,-223,0,0,0,0,0,0,0,0,0,-1,1224,1247,0,0
7,-223,0,0,0,0,0,0,0,0,0,-1,1231,1247,0,0
14,-223,0,0,0,0,0,0,0,0,0,-1,1238,1247,0,0
21,-223,0,0,0,0,0,0,0,0,0,-1,1245,1247,0,0
28,-223,0,0,0,0,0,0,0,0,0,-1,1252,1247,0,0
35,-223,0,0,0,0,0,0,0,0,0,-1,1259,1247,0,0
42,-223,0,0,0,0,0,0,0,0,0,-1,1266,1247,0,0
49,-223,0,0,0,0,0,0,0,0,0,-1,1273,1247,0,0
56,-223,0,0,0,0,0,0,0,0,0,-1,1280,1247,0,0
63,-223,0,0,0,0,0,0,0,0,0,-1,1287,1247,0,0
70,-223,0,0,0,0,0,0,0,0,0,-1,1294,1247,0,0
77,-223,0,0,0,0,0,0,0,0,0,-1,1301,1247,0,0
84,-223,0,0,0,0,0,0,0,0,0,-1,1308,1247,0,0
91,-223,0,0,0,0,0,0,0,0,0,-1,1315,1247,0,0
98,-223,0,0,0,0,0,0,0,0,0,-1,1322,1247,0,0
105,-223,0,0,0,0,0,0,0,0,0,-1,1329,1247,0,0
112,-223,0,0,0,0,0,0,0,0,0,-1,1336,1247,0,0
119,-223,0,0,0,0,0,0,0,0,0,-1,1343,1247,0,0
126,-223,0,0,0,0,0,0,0,0,0,-1,1350,1247,0,0
133,-223,0,0,0,0,0,0,0,0,0,-1,1357,1247,0,0
140,-223,0,0,0,0,0,0,0,0,0,-1,1364,1247,0,0
147,-223,0,0,0,0,0,0,0,0,0,-1,1371,1247,0,0
154,-223,0,0,0,0,0,0,0,0,0,-1,1378,1247,0,0
161,-223,0,0,0,0,0,0,0,0,0,-1,1385,1247,0,0
168,-223,0,0,0,0,0,0,0,0,0,-1,1392,1247,0,0
175,-223,0,0,0,0,0,0,0,0,0,-1,1399,1247,0,0
182,-223,0,0,0,0,0,0,0,0,0,-1,1406,1247,0,0
189,-223,0,0,0,0,0,0,0,0,0,-1,1413,1247,0,0
196,-223,0,0,0,0,0,0,0,0,0,-1,1420,1247,0,0
203,-223,0,0,0,0,0,0,0,0,0,-1,1427,1247,0,0
210,-223,0,0,0,0,0,0,0,0,0,-1,1434,1247,0,0
217,-223,0,0,0,0,0,0,0,0,0,-1,1441,1247,0,0
224,-223,0,0,0,0,0,0,0,0,0,-1,1448,1247,0,0
231,-223,0,0,0,0,0,0,0,0,0,-1,1455,1247,0,0
238,-223,0,0,0,0,0,0,0,0,0,-1,1462,1247,0,0
245,-223,0,0,0,0,0,0,0,0,0,-1,1469,1247,0,0
252,-223,0,0,0,0,0,0,0,0,0,-1,1476,1247,0,0
259,-223,0,0,0,0,0,0,0,0,0,-1,1483,1247,0,0
266,-223,0,0,0,0,0,0,0,0,0,-1,1490,1247,0,0
273,-223,0,0,0,0,0,0,0,0,0,-1,1497,1247,0,0
280,-223,0,0,0,0,0,0,0,0,0,-1,1504,1247,0,0
287,-223,0,0,0,0,0,0,0,0,0,-1,1511,1247,0,0
294,-223,0,0,0,0,0,0,0,0,0,-1,1518,1247,0,0
301,-223,0,0,0,0,0,0,0,0,0,-1,1525,1247,0,0
308,-223,0,0,0,0,0,0,0,0,0,-1,1532,1247,0,0
315,-223,0,0,0,0,0,0,0,0,0,-1,1539,1247,0,0
322,-223,0,0,0,0,0,0,0,0,0,-1,1546,1247,0,0
329,-223,0,0,0,0,0,0,0,0,0,-1,1553,1247,0,0
336,-223,0,0,0,0,0,0,0,0,0,-1,1560,1247,0,0
343,-223,0,0,0,0,0,0,0,0,0,-1,1567,1247,0,0
350,-223,0,0,0,0,0,0,0,0,0,-1,1574,1247,0,0
357,-223,0,0,0,0,0,0,0,0,0,-1,1581,1247,0,0
364,-223,0,0,0,0,0,0,0,0,0,-1,1588,1247,0,0
371,-223,0,0,0,0,0,0,0,0,0,-1,1595,1247,0,0
378,-223,0,0,0,0,0,0,0,0,0,-1,1602,1247,0,0
385,-223,0,0,0,0,0,0,0,0,0,-1,1609,1247,0,0
392,-223,0,0,0,0,0,0,0,0,0,-1,1616,1247,0,0
399,-223,0,0,0,0,0,0,0,0,0,-1,1623,1247,0,0
406,-223,0,0,0,0,0,0,0,0,0,-1,1630,1247,0,0
413,-223,0,0,0,0,0,0,0,0,0,-1,1637,1247,0,0
420,-223,0,0,0,0,0,0,0,0,0,-1,1644,1247,0,0
427,-223,0,0,0,0,0,0,0,0,0,-1,1651,1247,0,0
434,-223,0,0,0,0,0,0,0,0,0,-1,1658,1247,0,0
441,-223,0,0,0,0,0,0,0,0,0,-1,1665,1247,0,0
448,-223,0,0,0,0,0,0,0,0,0,-1,1672,1247,0,0
455,-223,0,0,0,0,0,0,0,0,0,-1,1679,1247,0,0
462,-223,0,0,0,0,0,0,0,0,0,-1,1686,1247,0,0
469,-223,0,0,0,0,0,0,0,0,0,-1,1693,1247,0,0
476,-223,0,0,0,0,0,0,0,0,0,-1,1700,1247,0,0
483,-223,0,0,0,0,0,0,0,0,0,-1,1707,1247,0,0
490,-223,0,0,0,0,0,0,0,0,0,-1,1714,1247,0,0
497,-223,0,0,0,0,0,0,0,0,0,-1,1721,1247,0,0
504,-223,0,0,0,0,0,0,0,0,0,-1,1728,1247,0,0
511,-223,0,0,0,0,0,0,0,0,0,-1,1735,1247,0,0
518,-223,0,0,0,0,0,0,0,0,0,-1,1742,1247,0,0
525,-223,0,0,0,0,0,0,0,0,0,-1,1749,1247,0,0
532,-223,0,0,0,0,0,0,0,0,0,-1,1756,1247,0,0
539,-223,0,0,0,0,0,0,0,0,0,-1,1763,1247,0,0
546,-223,0,0,0,0,0,0,0,0,0,-1,1770,1247,0,0
553,-223,0,0,0,0,0,0,0,0,0,-1,1777,1247,0,0
560,-223,0,0,0,0,0,0,0,0,0,-1,1784,1247,0,0
567,-223,0,0,0,0,0,0,0,0,0,-1,1791,1247,0,0
574,-223,0,0,0,0,0,0,0,0,0,-1,1798,1247,0,0
581,-223,0,0,0,0,0,0,0,0,0,-1,1805,1247,0,0
588,-223,0,0,0,0,0,0,0,0,0,-1,1812,1247,0,0
595,-223,0,0,0,0,0,0,0,0,0,-1,1819,1247,0,0
602,-223,0,0,0,0,0,0,0,0,0,-1,1826,1247,0,0
609,-223,0,0,0,0,0,0,0,0,0,-1,1833,1247,0,0
616,-223,0,0,0,0,0,0,0,0,0,-1,1840,1247,0,0
623,-223,23.8627,2.75903,0.00127697,-0.00121505,0.000841739,0.00153464,-0.00147273,0.297063,0.00173643,0.0372676,1847,1247,23.8627,-2.75901
630,-223,23.9073,2.77454,-0.00112545,0.00389681,-0.000773249,0.00401316,-0.00124181,-1.42144,0.00317148,0.0332551,1854,1247,23.9073,-2.77453
637,-223,23.991,2.80603,-0.00291082,0.00816585,-0.00190108,0.00848305,-0.00322802,-1.40547,0.00698461,0.0283337,1861,1247,23.991,-2.80603
644,-223,24.0372,2.77466,-0.00372923,0.0100456,-0.00212361,0.0103655,-0.00404919,-1.42125,0.00858454,0.0222663,1868,1247,24.0373,-2.77463
651,-223,24.0397,2.7605,-0.00364221,0.00998134,-0.00181963,0.0102202,-0.00388106,-1.44028,0.00841111,0.024551,1875,1247,24.0396,-2.76055
658,-223,24.0536,2.76221,-0.00317947,0.00903951,-0.00139367,0.00919645,-0.00333641,-1.45866,0.00749487,0.0412506,1882,1247,24.0536,-2.76215
665,-223,23.7843,2.39014,0,0,0,0,0,0,0,-1,1889,1247,23.7842,-2.3901
672,-223,24.0458,2.63184,0,0,0,0,0,0,0,-1,1896,1247,24.0458,-2.63182
679,-223,24.3074,2.87354,0,0,0,0,0,0,0,-1,1903,1247,24.3074,-2.87354
686,-223,19.9949,5.83606,0,0,0,0,0,0,0,-1,1910,1247,19.9949,-5.8361
693,-223,20.1294,5.72168,-0.00065527,0.00257486,0.000716539,0.00272667,-0.000807084,1.36201,0.0021382,0.0276181,1917,1247,20.1294,-5.72173
700,-223,20.2324,5.55005,-4.37055e-05,0.00124282,0.00111997,0.00189112,-0.000692001,1.04607,0.001544,0.0127378,1924,1247,20.2325,-5.55
707,-223,20.2452,5.34692,0.000540441,-6.45187e-05,0.00136183,0.00163298,-0.00115706,0.676116,0.00161862,0.0122635,1931,1247,20.2452,-5.34697
714,-223,20.2628,5.14587,0.000690446,-0.00103222,0.00133158,0.00141499,-0.00175676,0.498319,0.00183475,0.0107172,1938,1247,20.2628,-5.14593
721,-223,20.2428,4.94739,0.000929572,-0.000727153,0.000894111,0.00132007,-0.00111765,0.411775,0.00140903,0.0142525,1945,1247,20.2429,-4.94736
728,-223,20.2261,4.75208,0.00171556,-5.56103e-05,0.000193046,0.00173636,-7.64068e-05,0.107314,0.00118386,0.0161425,1952,1247,20.226,-4.75211
735,-223,20.2484,4.59094,0.00284437,0.000729989,-0.000504017,0.00295837,0.00061599,-0.222438,0.00180235,0.0149541,1959,1247,20.2484,-4.59096
742,-223,20.2302,4.42859,0.0044722,0.00155207,-0.00131709,0.00497848,0.00104579,-0.366979,0.00303114,0.0128165,1966,1247,20.2302,-4.42858
749,-223,20.2427,4.21692,0.00660509,0.00225234,-0.00210035,0.0074533,0.00140414,-0.383812,0.00457325,0.0102949,1973,1247,20.2427,-4.21687
756,-223,20.2419,4.02454,0.00967323,0.00286019,-0.00309978,0.0108725,0.00166095,-0.369144,0.00676299,0.010969,1980,1247,20.2419,-4.02454
763,-223,20.2208,3.84851,0.0140084,0.00341619,-0.00437791,0.0155836,0.00184099,-0.345384,0.00983302,0.0141351,1987,1247,20.2209,-3.84854
770,-223,20.3245,3.67053,0.0198544,0.00386161,-0.00588306,0.0217854,0.00193063,-0.317148,0.0139247,0.0347838,1994,1247,20.3244,-3.67058
777,-223,20.4365,3.49744,0,0,0,0,0,0,0,-1,2001,1247,20.4365,-3.4974
784,-223,21.8766,1.21289,0,0,0,0,0,0,0,-1,2008,1247,21.8765,-1.21295
791,-223,22.3622,2.18457,0,0,0,0,0,0,0,-1,2015,1247,22.3622,-2.18452
798,-223,0,0,0,0,0,0,0,0,0,-1,2022,1247,0,0
805,-223,0,0,0,0,0,0,0,0,0,-1,2029,1247,0,0
812,-223,0,0,0,0,0,0,0,0,0,-1,2036,1247,0,0
-700,-230,0,0,0,0,0,0,0,0,0,-1,524,1254,0,0
-693,-230,0,0,0,0,0,0,0,0,0,-1,531,1254,0,0
-686,-230,0,0,0,0,0,0,0,0,0,-1,538,1254,0,0
-679,-230,0,0,0,0,0,0,0,0,0,-1,545,1254,0,0
-672,-230,-12.7479,-2.39294,0,0,0,0,0,0,0,-1,552,1254,-12.7479,2.3929
-665,-230,-12.702,-2.78357,0,0,0,0,0,0,0,-1,559,1254,-12.702,2.78361
-658,-230,-11.697,1.12036,0,0,0,0,0,0,0,-1,566,1254,-11.697,-1.12039
-651,-230,-12.4305,0.688599,0,0,0,0,0,0,0,-1,573,1254,-12.4305,-0.688577
-644,-230,-13.1641,0.256714,0,0,0,0,0,0,0,-1,580,1254,-13.1641,-0.256766
-637,-230,-11.2261,0.478271,0,0,0,0,0,0,0,-1,587,1254,-11.2261,-0.478271
-630,-230,-11.6185,1.31592,0,0,0,0,0,0,0,-1,594,1254,-11.6186,-1.31596
-623,-230,-11.8828,1.57019,-0.00414204,0.0084404,0.00462719,0.00995881,-0.00566045,1.25372,0.0091309,0.0268856,601,1254,-11.8828,-1.5702
-616,-230,-11.9117,1.82886,-0.00317215,0.00589854,0.00339832,0.00703046,-0.00430408,1.24927,0.0066068,0.0162566,608,1254,-11.9117,-1.82888
-609,-230,-11.9003,2.06323,-0.00241634,0.00404191,0.00241944,0.00484775,-0.00322218,1.24928,0.00469058,0.0117228,615,1254,-11.9003,-2.06328
-602,-230,-11.897,2.26978,-0.000968685,0.00254413,0.00157539,0.00314713,-0.00157169,1.20524,0.00277456,0.0107546,622,1254,-11.897,-2.26976
-595,-230,-11.9058,2.52673,0.000176919,0.00153466,0.000968849,0.00203881,-0.00032723,1.09099,0.00148039,0.0182742,629,1254,-11.9058,-2.52672
-588,-230,-11.9064,2.74133,0.00104172,0.0010853,0.000776937,0.00184075,0.00028627,0.799417,0.00114375,0.0264752,636,1254,-11.9064,-2.74132
-581,-230,-11.929,2.96448,0.00191185,0.000627805,0.000774376,0.00227574,0.00026392,0.439285,0.00143728,0.0241354,643,1254,-11.929,-2.96442
-574,-230,-11.8909,3.19287,0.00199703,0.000918736,0.000428748,0.00214672,0.000769039,0.335915,0.00125591,0.0163754,650,1254,-11.8909,-3.19282
-567,-230,-11.7313,3.48926,0.00129801,0.000862091,0.000292495,0.00144483,0.000715278,0.465193,0.000834185,0.0221575,657,1254,-11.7312,-3.48926
-560,-230,-11.4747,3.82007,0.000380462,-0.000101643,0.000465598,0.000663707,-0.000384888,0.546535,0.000612499,0.0373742,664,1254,-11.4748,-3.82001
-553,-230,-10.9456,4.10718,0,0,0,0,0,0,0,-1,671,1254,-10.9456,-4.10718
-546,-230,-10.7707,1.62012,0,0,0,0,0,0,0,-1,678,1254,-10.7707,-1.62008
-539,-230,-16.3457,1.68835,0,0,0,0,0,0,0,-1,685,1254,-16.3457,-1.6884
-532,-230,-16.2875,1.54797,0,0,0,0,0,0,0,-1,692,1254,-16.2876,-1.54801
-525,-230,-16.2294,1.40759,0,0,0,0,0,0,0,-1,699,1254,-16.2294,-1.40762
-518,-230,-16.0634,0.835571,0,0,0,0,0,0,0,-1,706,1254,-16.0634,-0.835595
-511,-230,-16.3123,0.953735,-0.0146874,-0.00688766,0.000270843,-0.00687827,-0.0146968,1.53613,0.00849099,0.0395659,713,1254,-16.3123,-0.95369
-504,-230,-16.4325,1.04639,-0.0156426,-0.0073593,0.00236785,-0.00673021,-0.0162717,1.31112,0.00944111,0.0365103,720,1254,-16.4325,-1.04639
-497,-230,0,0,0,0,0,0,0,0,0,-1,727,1254,0,0
-490,-230,0,0,0,0,0,0,0,0,0,-1,734,1254,0,0
-483,-230,0,0,0,0,0,0,0,0,0,-1,741,1254,0,0
-476,-230,0,0,0,0,0,0,0,0,0,-1,748,1254,0,0
-469,-230,0,0,0,0,0,0,0,0,0,-1,755,1254,0,0
-462,-230,0,0,0,0,0,0,0,0,0,-1,762,1254,0,0
-455,-230,0,0,0,0,0,0,0,0,0,-1,769,1254,0,0
-448,-230,0,0,0,0,0,0,0,0,0,-1,776,1254,0,0
-441,-230,0,0,0,0,0,0,0,0,0,-1,783,1254,0,0
-434,-230,0,0,0,0,0,0,0,0,0,-1,790,1254,0,0
-427,-230,0,0,0,0,0,0,0,0,0,-1,797,1254,0,0
-420,-230,0,0,0,0,0,0,0,0,0,-1,804,1254,0,0
-413,-230,0,0,0,0,0,0,0,0,0,-1,811,1254,0,0
-406,-230,0,0,0,0,0,0,0,0,0,-1,818,1254,0,0
-399,-230,0,0,0,0,0,0,0,0,0,-1,825,1254,0,0
-392,-230,0,0,0,0,0,0,0,0,0,-1,832,1254,0,0
-385,-230,0,0,0,0,0,0,0,0,0,-1,839,1254,0,0
-378,-230,0,0,0,0,0,0,0,0,0,-1,846,1254,0,0
-371,-230,0,0,0,0,0,0,0,0,0,-1,853,1254,0,0
-364,-230,0,0,0,0,0,0,0,0,0,-1,860,1254,0,0
-357,-230,0,0,0,0,0,0,0,0,0,-1,867,1254,0,0
-350,-230,0,0,0,0,0,0,0,0,0,-1,874,1254,0,0
-343,-230,0,0,0,0,0,0,0,0,0,-1,881,1254,0,0
-336,-230,0,0,0,0,0,0,0,0,0,-1,888,1254,0,0
-329,-230,0,0,0,0,0,0,0,0,0,-1,895,1254,0,0
-322,-230,0,0,0,0,0,0,0,0,0,-1,902,1254,0,0
-315,-230,0,0,0,0,0,0,0,0,0,-1,909,1254,0,0
-308,-230,0,0,0,0,0,0,0,0,0,-1,916,1254,0,0
-301,-230,0,0,0,0,0,0,0,0,0,-1,923,1254,0,0
-294,-230,0,0,0,0,0,0,0,0,0,-1,930,1254,0,0
-287,-230,0,0,0,0,0,0,0,0,0,-1,937,1254,0,0
-280,-230,0,0,0,0,0,0,0,0,0,-1,944,1254,0,0
-273,-230,0,0,0,0,0,0,0,0,0,-1,951,1254,0,0
-266,-230,0,0,0,0,0,0,0,0,0,-1,958,1254,0,0
-259,-230,0,0,0,0,0,0,0,0,0,-1,965,1254,0,0
-252,-230,0,0,0,0,0,0,0,0,0,-1,972,1254,0,0
-245,-230,0,0,0,0,0,0,0,0,0,-1,979,1254,0,0
-238,-230,0,0,0,0,0,0,0,0,0,-1,986,1254,0,0
-231,-230,0,0,0,0,0,0,0,0,0,-1,993,1254,0,0
-224,-230,0,0,0,0,0,0,0,0,0,-1,1000,1254,0,0
-217,-230,0,0,0,0,0,0,0,0,0,-1,1007,1254,0,0
-210,-230,0,0,0,0,0,0,0,0,0,-1,1014,1254,0,0
-203,-230,0,0,0,0,0,0,0,0,0,-1,1021,1254,0,0
-196,-230,0,0,0,0,0,0,0,0,0,-1,1028,1254,0,0
-189,-230,0,0,0,0,0,0,0,0,0,-1,1035,1254,0,0
-182,-230,0,0,0,0,0,0,0,0,0,-1,1042,1254,0,0
-175,-230,0,0,0,0,0,0,0,0,0,-1,1049,1254,0,0
-168,-230,0,0,0,0,0,0,0,0,0,-1,1056,1254,0,0
-161,-230,0,0,0,0,0,0,0,0,0,-1,1063,1254,0,0
-154,-230,0,0,0,0,0,0,0,0,0,-1,1070,1254,0,0
-147,-230,0,0,0,0,0,0,0,0,0,-1,1077,1254,0,0
-140,-230,0,0,0,0,0,0,0,0,0,-1,1084,1254,0,0
-133,-230,0,0,0,0,0,0,0,0,0,-1,1091,1254,0,0
-126,-230,0,0,0,0,0,0,0,0,0,-1,1098,1254,0,0
-119,-230,0,0,0,0,0,0,0,0,0,-1,1105,1254,0,0
-112,-230,0,0,0,0,0,0,0,0,0,-1,1112,1254,0,0
-105,-230,0,0,0,0,0,0,0,0,0,-1,1119,1254,0,0
-98,-230,0,0,0,0,0,0,0,0,0,-1,1126,1254,0,0
-91,-230,0,0,0,0,0,0,0,0,0,-1,1133,1254,0,0
-84,-230,0,0,0,0,0,0,0,0,0,-1,1140,1254,0,0
-77,-230,0,0,0,0,0,0,0,0,0,-1,1147,1254,0,0
-70,-230,0,0,0,0,0,0,0,0,0,-1,1154,1254,0,0
-63,-230,0,0,0,0,0,0,0,0,0,-1,1161,1254,0,0
-56,-230,0,0,0,0,0,0,0,0,0,-1,1168,1254,0,0
-49,-230,0,0,0,0,0,0,0,0,0,-1,1175,1254,0,0
-42,-230,0,0,0,0,0,0,0,0,0,-1,1182,1254,0,0
-35,-230,0,0,0,0,0,0,0,0,0,-1,1189,1254,0,0
-28,-230,0,0,0,0,0,0,0,0,0,-1,1196,1254,0,0
-21,-230,0,0,0,0,0,0,0,0,0,-1,1203,1254,0,0
-14,-230,0,0,0,0,0,0,0,0,0,-1,1210,1254,0,0
-7,-230,0,0,0,0,0,0,0,0,0,-1,1217,1254,0,0
0,-230,0,0,0,0,0,0,0,0,0,-1,1224,1254,0,0
7,-230,0,0,0,0,0,0,0,0,0,-1,1231,1254,0,0
14,-230,0,0,0,0,0,0,0,0,0,-1,1238,1254,0,0
21,-230,0,0,0,0,0,0,0,0,0,-1,1245,1254,0,0
28,-230,0,0,0,0,0,0,0,0,0,-1,1252,1254,0,0
35,-230,0,0,0,0,0,0,0,0,0,-1,1259,1254,0,0
42,-230,0,0,0,0,0,0,0,0,0,-1,1266,1254,0,0
49,-230,0,0,0,0,0,0,0,0,0,-1,1273,1254,0,0
56,-230,0,0,0,0,0,0,0,0,0,-1,1280,1254,0,0
63,-230,0,0,0,0,0,0,0,0,0,-1,1287,1254,0,0
70,-230,0,0,0,0,0,0,0,0,0,-1,1294,1254,0,0
77,-230,0,0,0,0,0,0,0,0,0,-1,1301,1254,0,0
84,-230,0,0,0,0,0,0,0,0,0,-1,1308,1254,0,0
91,-230,0,0,0,0,0,0,0,0,0,-1,1315,1254,0,0
98,-230,0,0,0,0,0,0,0,0,0,-1,1322,1254,0,0
105,-230,0,0,0,0,0,0,0,0,0,-1,1329,1254,0,0
112,-230,0,0,0,0,0,0,0,0,0,-1,1336,1254,0,0
119,-230,0,0,0,0,0,0,0,0,0,-1,1343,1254,0,0
126,-230,0,0,0,0,0,0,0,0,0,-1,1350,1254,0,0
133,-230,0,0,0,0,0,0,0,0,0,-1,1357,1254,0,0
140,-230,0,0,0,0,0,0,0,0,0,-1,1364,1254,0,0
147,-230,0,0,0,0,0,0,0,0,0,-1,1371,1254,0,0
154,-230,0,0,0,0,0,0,0,0,0,-1,1378,1254,0,0
161,-230,0,0,0,0,0,0,0,0,0,-1,1385,1254,0,0
168,-230,0,0,0,0,0,0,0,0,0,-1,1392,1254,0,0
175,-230,0,0,0,0,0,0,0,0,0,-1,1399,1254,0,0
182,-230,0,0,0,0,0,0,0,0,0,-1,1406,1254,0,0
189,-230,0,0,0,0,0,0,0,0,0,-1,1413,1254,0,0
196,-230,0,0,0,0,0,0,0,0,0,-1,1420,1254,0,0
203,-230,0,0,0,0,0,0,0,0,0,-1,1427,1254,0,0
210,-230,0,0,0,0,0,0,0,0,0,-1,1434,1254,0,0
217,-230,0,0,0,0,0,0,0,0,0,-1,1441,1254,0,0
224,-230,0,0,0,0,0,0,0,0,0,-1,1448,1254,0,0
231,-230,0,0,0,0,0,0,0,0,0,-1,1455,1254,0,0
238,-230,0,0,0,0,0,0,0,0,0,-1,1462,1254,0,0
245,-230,0,0,0,0,0,0,0,0,0,-1,1469,1254,0,0
252,-230,0,0,0,0,0,0,0,0,0,-1,1476,1254,0,0
259,-230,0,0,0,0,0,0,0,0,0,-1,1483,1254,0,0
266,-230,0,0,0,0,0,0,0,0,0,-1,1490,1254,0,0
273,-230,0,0,0,0,0,0,0,0,0,-1,1497,1254,0,0
280,-230,0,0,0,0,0,0,0,0,0,-1,1504,1254,0,0
287,-230,0,0,0,0,0,0,0,0,0,-1,1511,1254,0,0
294,-230,0,0,0,0,0,0,0,0,0,-1,1518,1254,0,0
301,-230,0,0,0,0,0,0,0,0,0,-1,1525,1254,0,0
308,-230,0,0,0,0,0,0,0,0,0,-1,1532,1254,0,0
315,-230,0,0,0,0,0,0,0,0,0,-1,1539,1254,0,0
322,-230,0,0,0,0,0,0,0,0,0,-1,1546,1254,0,0
329,-230,0,0,0,0,0,0,0,0,0,-1,1553,1254,0,0
336,-230,0,0,0,0,0,0,0,0,0,-1,1560,1254,0,0
343,-230,0,0,0,0,0,0,0,0,0,-1,1567,1254,0,0
350,-230,0,0,0,0,0,0,0,0,0,-1,1574,1254,0,0
357,-230,0,0,0,0,0,0,0,0,0,-1,1581,1254,0,0
364,-230,0,0,0,0,0,0,0,0,0,-1,1588,1254,0,0
371,-230,0,0,0,0,0,0,0,0,0,-1,1595,1254,0,0
378,-230,0,0,0,0,0,0,0,0,0,-1,1602,1254,0,0
385,-230,0,0,0,0,0,0,0,0,0,-1,1609,1254,0,0
392,-230,0,0,0,0,0,0,0,0,0,-1,1616,1254,0,0
399,-230,0,0,0,0,0,0,0,0,0,-1,1623,1254,0,0
406,-230,0,0,0,0,0,0,0,0,0,-1,1630,1254,0,0
413,-230,0,0,0,0,0,0,0,0,0,-1,1637,1254,0,0
420,-230,0,0,0,0,0,0,0,0,0,-1,1644,1254,0,0
427,-230,0,0,0,0,0,0,0,0,0,-1,1651,1254,0,0
434,-230,0,0,0,0,0,0,0,0,0,-1,1658,1254,0,0
441,-230,0,0,0,0,0,0,0,0,0,-1,1665,1254,0,0
448,-230,0,0,0,0,0,0,0,0,0,-1,1672,1254,0,0
455,-230,0,0,0,0,0,0,0,0,0,-1,1679,1254,0,0
462,-230,0,0,0,0,0,0,0,0,0,-1,1686,1254,0,0
469,-230,0,0,0,0,0,0,0,0,0,-1,1693,1254,0,0
476,-230,0,0,0,0,0,0,0,0,0,-1,1700,1254,0,0
483,-230,0,0,0,0,0,0,0,0,0,-1,1707,1254,0,0
490,-230,0,0,0,0,0,0,0,0,0,-1,1714,1254,0,0
497,-230,0,0,0,0,0,0,0,0,0,-1,1721,1254,0,0
504,-230,0,0,0,0,0,0,0,0,0,-1,1728,1254,0,0
511,-230,0,0,0,0,0,0,0,0,0,-1,1735,1254,0,0
518,-230,0,0,0,0,0,0,0,0,0,-1,1742,1254,0,0
525,-230,0,0,0,0,0,0,0,0,0,-1,1749,1254,0,0
532,-230,0,0,0,0,0,0,0,0,0,-1,1756,1254,0,0
539,-230,0,0,0,0,0,0,0,0,0,-1,1763,1254,0,0
546,-230,0,0,0,0,0,0,0,0,0,-1,1770,1254,0,0
553,-230,0,0,0,0,0,0,0,0,0,-1,1777,1254,0,0
560,-230,0,0,0,0,0,0,0,0,0,-1,1784,1254,0,0
567,-230,0,0,0,0,0,0,0,0,0,-1,1791,1254,0,0
574,-230,0,0,0,0,0,0,0,0,0,-1,1798,1254,0,0
581,-230,0,0,0,0,0,0,0,0,0,-1,1805,1254,0,0
588,-230,0,0,0,0,0,0,0,0,0,-1,1812,1254,0,0
595,-230,0,0,0,0,0,0,0,0,0,-1,1819,1254,0,0
602,-230,0,0,0,0,0,0,0,0,0,-1,1826,1254,0,0
609,-230,0,0,0,0,0,0,0,0,0,-1,1833,1254,0,0
616,-230,23.9849,2.82568,0.00366676,-0.00402221,0.00139203,0.00391102,-0.00426647,0.173701,0.00472276,0.0358255,1840,1254,23.9849,-2.82573
623,-230,23.9025,2.77576,0.000215676,0.00169021,-0.000588032,0.00189599,9.89204e-06,-1.23416,0.00126071,0.034592,1847,1254,23.9024,-2.77573
630,-230,23.9351,2.74902,-0.00278012,0.00747736,-0.00236783,0.00799757,-0.00330032,-1.35453,0.00670813,0.0304239,1854,1254,23.935,-2.74907
637,-230,24.002,2.77368,-0.00483482,0.0115382,-0.00334195,0.0121941,-0.00549069,-1.37701,0.0104519,0.0254154,1861,1254,24.002,-2.77368
644,-230,23.9948,2.73633,-0.00555751,0.0128503,-0.0033422,0.0134383,-0.00614555,-1.39664,0.0115651,0.0196822,1868,1254,23.9948,-2.73635
651,-230,24.0126,2.71997,-0.00529307,0.0123238,-0.00286987,0.0127796,-0.00574879,-1.41331,0.0109511,0.0370468,1875,1254,24.0126,-2.71991
658,-230,23.8193,2.53137,-0.00468633,0.011062,-0.00229727,0.0113903,-0.0050146,-1.42886,0.00970687,0.0447644,1882,1254,23.8194,-2.53138
665,-230,23.6403,2.35498,0,0,0,0,0,0,0,-1,1889,1254,23.6402,-2.35499
672,-230,23.9662,2.57983,0,0,0,0,0,0,0,-1,1896,1254,23.9662,-2.57982
679,-230,19.139,6.00427,0,0,0,0,0,0,0,-1,1903,1254,19.139,-6.0043
686,-230,19.8375,5.85474,0,0,0,0,0,0,0,-1,1910,1254,19.8376,-5.85471
693,-230,19.9553,5.71667,-0.00129992,0.00348288,0.000345494,0.00350771,-0.00132475,1.49906,0.00288335,0.022535,1917,1254,19.9553,-5.71669
700,-230,20.061,5.56775,-0.000469747,0.0018616,0.000853063,0.0021404,-0.000748549,1.25491,0.00173126,0.0109163,1924,1254,20.061,-5.56777
707,-230,20.057,5.36499,0.000350988,0.000310966,0.00115393,0.00148508,-0.000823127,0.776728,0.00135079,0.009166,1931,1254,20.0571,-5.36503
714,-230,20.0455,5.15295,0.000622018,-0.000743977,0.00109865,0.00123266,-0.00135462,0.507297,0.00149432,0.0122685,1938,1254,20.0455,-5.15295
721,-230,20.0452,4.95239,0.000933224,-0.00037606,0.000591247,0.0011607,-0.000603534,0.367279,0.00103537,0.0139002,1945,1254,20.0451,-4.95233
728,-230,20.0363,4.76685,0.00165124,0.000308347,-0.000142618,0.00166622,0.000293368,-0.104647,0.00102709,0.0150194,1952,1254,20.0363,-4.7668
735,-230,20.0485,4.59607,0.00267166,0.00108244,-0.000877352,0.00306075,0.000693351,-0.417424,0.00185314,0.0149291,1959,1254,20.0485,-4.59609
742,-230,20.0415,4.40698,0.00407042,0.00186289,-0.00169998,0.00499353,0.000939774,-0.497464,0.00306418,0.0114956,1966,1254,20.0415,-4.40701
749,-230,20.0535,4.19995,0.00592145,0.00252621,-0.00258429,0.00731583,0.00113183,-0.494793,0.00454714,0.0104298,1973,1254,20.0535,-4.19996
756,-230,20.0646,4.00342,0.00858662,0.00306074,-0.00365045,0.0104018,0.00124552,-0.461454,0.00655893,0.0128064,1980,1254,20.0646,-4.00339
763,-230,20.0389,3.80188,0.0123913,0.00346964,-0.0050307,0.0146541,0.00120686,-0.422683,0.00939297,0.0246506,1987,1254,20.0389,-3.80191
770,-230,20.1277,3.67126,0.0176424,0.00363019,-0.00675019,0.0203652,0.000907454,-0.383398,0.0132846,0.0401001,1994,1254,20.1277,-3.67131
777,-230,20.2094,3.55432,0,0,0,0,0,0,0,-1,2001,1254,20.2094,-3.55427
784,-230,22.4673,0.298828,0,0,0,0,0,0,0,-1,2008,1254,22.4672,-0.298827
791,-230,22.9934,1.6748,0,0,0,0,0,0,0,-1,2015,1254,22.9934,-1.67477
798,-230,0,0,0,0,0,0,0,0,0,-1,2022,1254,0,0
805,-230,0,0,0,0,0,0,0,0,0,-1,2029,1254,0,0
812,-230,0,0,0,0,0,0,0,0,0,-1,2036,1254,0,0
-700,-237,0,0,0,0,0,0,0,0,0,-1,524,1261,0,0
-693,-237,0,0,0,0,0,0,0,0,0,-1,531,1261,0,0
-686,-237,0,0,0,0,0,0,0,0,0,-1,538,1261,0,0
-679,-237,0,0,0,0,0,0,0,0,0,-1,545,1261,0,0
-672,-237,-12.7062,-1.4635,0,0,0,0,0,0,0,-1,552,1261,-12.7062,1.46353
-665,-237,-12.3812,-1.56299,0,0,0,0,0,0,0,-1,559,1261,-12.3812,1.56295
-658,-237,-10.8753,0.164795,0,0,0,0,0,0,0,-1,566,1261,-10.8753,-0.164836
-651,-237,-11.7423,1.3855,0,0,0,0,0,0,0,-1,573,1261,-11.7423,-1.38546
-644,-237,-11.73,1.15002,0,0,0,0,0,0,0,-1,580,1261,-11.73,-1.15
-637,-237,-11.5916,1.34619,-0.00183684,0.0178773,0.00792258,0.0206665,-0.00462608,1.23229,0.0155508,0.0490559,587,1261,-11.5916,-1.34616
-630,-237,-11.4673,1.27234,-0.00258937,0.0136359,0.00682304,0.0161237,-0.00507715,1.22116,0.0127822,0.0454447,594,1261,-11.4674,-1.27233
-623,-237,-11.5822,1.56665,-0.00236062,0.0101487,0.00551249,0.0122312,-0.00444312,1.20959,0.00997083,0.0279196,601,1261,-11.5822,-1.5667
-616,-237,-11.6468,1.80786,-0.00181766,0.00729643,0.00419704,0.00893469,-0.00345592,1.19865,0.00738316,0.0131398,608,1261,-11.6468,-1.80788
-609,-237,-11.6758,2.03369,-0.00146626,0.00521206,0.00313811,0.00645523,-0.00270942,1.19361,0.00543654,0.0148476,615,1261,-11.6758,-2.03369
-602,-237,-11.6623,2.26807,-0.000162205,0.00346339,0.00224977,0.00453984,-0.00123865,1.12452,0.003513,0.0114233,622,1261,-11.6623,-2.26803
-595,-237,-11.6804,2.52661,0.000930016,0.00216012,0.00163903,0.0032957,-0.000205563,0.964895,0.00226876,0.0155534,629,1261,-11.6804,-2.52659
-588,-237,-11.6833,2.74487,0.00184192,0.00151745,0.00141734,0.00310628,0.000253086,0.728415,0.00199186,0.0271313,636,1261,-11.6834,-2.74491
-581,-237,-11.6877,2.97632,0.00277643,0.000917683,0.00140667,0.00353301,0.000161103,0.49347,0.00230352,0.0247013,643,1261,-11.6877,-2.97635
-574,-237,-11.6848,3.19592,0.00290444,0.00106982,0.00103466,0.00336987,0.000604389,0.422721,0.00207467,0.0156103,650,1261,-11.6848,-3.19592
-567,-237,-11.6295,3.46814,0.00214756,0.000880792,0.000829959,0.00255821,0.000470143,0.459465,0.00157237,0.0161596,657,1261,-11.6295,-3.46809
-560,-237,-11.3923,3.80774,0.00108173,-0.000211349,0.000882432,0.00152913,-0.000658747,0.469236,0.00129606,0.0296027,664,1261,-11.3922,-3.80775
-553,-237,-11.1313,4.07617,0,0,0,0,0,0,0,-1,671,1261,-11.1313,-4.07616
-546,-237,-11.192,1.14014,0,0,0,0,0,0,0,-1,678,1261,-11.192,-1.14011
-539,-237,-15.949,1.15344,0,0,0,0,0,0,0,-1,685,1261,-15.949,-1.15338
-532,-237,-15.835,1.60461,0,0,0,0,0,0,0,-1,692,1261,-15.835,-1.60465
-525,-237,-16.1218,1.6355,-0.00908657,-0.00488503,-0.000277045,-0.00486684,-0.00910476,-1.50524,0.00526082,0.0485395,699,1261,-16.1218,-1.63544
-518,-237,-16.2428,1.16321,-0.0124994,-0.00660769,-0.000729144,-0.00651879,-0.0125883,-1.44948,0.00726941,0.0471306,706,1261,-16.2428,-1.16325
-511,-237,-16.212,0.859375,0,0,0,0,0,0,0,-1,713,1261,-16.2121,-0.859421
-504,-237,-16.3485,1.005,-0.0176883,-0.00889869,0.000740357,-0.00883677,-0.0177502,1.48735,0.0102481,0.0381807,720,1261,-16.3485,-1.00497
-497,-237,-16.509,1.26208,-0.0169816,-0.00685329,0.00407321,-0.00541847,-0.0184164,1.23211,0.0109288,0.0421703,727,1261,-16.5089,-1.26207
-490,-237,0,0,0,0,0,0,0,0,0,-1,734,1261,0,0
-483,-237,0,0,0,0,0,0,0,0,0,-1,741,1261,0,0
-476,-237,0,0,0,0,0,0,0,0,0,-1,748,1261,0,0
-469,-237,0,0,0,0,0,0,0,0,0,-1,755,1261,0,0
-462,-237,0,0,0,0,0,0,0,0,0,-1,762,1261,0,0
-455,-237,0,0,0,0,0,0,0,0,0,-1,769,1261,0,0
-448,-237,0,0,0,0,0,0,0,0,0,-1,776,1261,0,0
-441,-237,0,0,0,0,0,0,0,0,0,-1,783,1261,0,0
-434,-237,0,0,0,0,0,0,0,0,0,-1,790,1261,0,0
-427,-237,0,0,0,0,0,0,0,0,0,-1,797,1261,0,0
-420,-237,0,0,0,0,0,0,0,0,0,-1,804,1261,0,0
-413,-237,0,0,0,0,0,0,0,0,0,-1,811,1261,0,0
-406,-237,0,0,0,0,0,0,0,0,0,-1,818,1261,0,0
-399,-237,0,0,0,0,0,0,0,0,0,-1,825,1261,0,0
-392,-237,0,0,0,0,0,0,0,0,0,-1,832,1261,0,0
-385,-237,0,0,0,0,0,0,0,0,0,-1,839,1261,0,0
-378,-237,0,0,0,0,0,0,0,0,0,-1,846,1261,0,0
-371,-237,0,0,0,0,0,0,0,0,0,-1,853,1261,0,0
-364,-237,0,0,0,0,0,0,0,0,0,-1,860,1261,0,0
-357,-237,0,0,0,0,0,0,0,0,0,-1,867,1261,0,0
-350,-237,0,0,0,0,0,0,0,0,0,-1,874,1261,0,0
-343,-237,0,0,0,0,0,0,0,0,0,-1,881,1261,0,0
-336,-237,0,0,0,0,0,0,0,0,0,-1,888,1261,0,0
-329,-237,0,0,0,0,0,0,0,0,0,-1,895,1261,0,0
-322,-237,0,0,0,0,0,0,0,0,0,-1,902,1261,0,0
-315,-237,0,0,0,0,0,0,0,0,0,-1,909,1261,0,0
-308,-237,0,0,0,0,0,0,0,0,0,-1,916,1261,0,0
-301,-237,0,0,0,0,0,0,0,0,0,-1,923,1261,0,0
-294,-237,0,0,0,0,0,0,0,0,0,-1,930,1261,0,0
-287,-237,0,0,0,0,0,0,0,0,0,-1,937,1261,0,0
-280,-237,0,0,0,0,0,0,0,0,0,-1,944,1261,0,0
-273,-237,0,0,0,0,0,0,0,0,0,-1,951,1261,0,0
-266,-237,0,0,0,0,0,0,0,0,0,-1,958,1261,0,0
-259,-237,0,0,0,0,0,0,0,0,0,-1,965,1261,0,0
-252,-237,0,0,0,0,0,0,0,0,0,-1,972,1261,0,0
-245,-237,0,0,0,0,0,0,0,0,0,-1,979,1261,0,0
-238,-237,0,0,0,0,0,0,0,0,0,-1,986,1261,0,0
-231,-237,0,0,0,0,0,0,0,0,0,-1,993,1261,0,0
-224,-237,0,0,0,0,0,0,0,0,0,-1,1000,1261,0,0
-217,-237,0,0,0,0,0,0,0,0,0,-1,1007,1261,0,0
-210,-237,0,0,0,0,0,0,0,0,0,-1,1014,1261,0,0
-203,-237,0,0,0,0,0,0,0,0,0,-1,1021,1261,0,0
-196,-237,0,0,0,0,0,0,0,0,0,-1,1028,1261,0,0
-189,-237,0,0,0,0,0,0,0,0,0,-1,1035,1261,0,0
-182,-237,0,0,0,0,0,0,0,0,0,-1,1042,1261,0,0
-175,-237,0,0,0,0,0,0,0,0,0,-1,1049,1261,0,0
-168,-237,0,0,0,0,0,0,0,0,0,-1,1056,1261,0,0
-161,-237,0,0,0,0,0,0,0,0,0,-1,1063,1261,0,0
-154,-237,0,0,0,0,0,0,0,0,0,-1,1070,1261,0,0
-147,-237,0,0,0,0,0,0,0,0,0,-1,1077,1261,0,0
-140,-237,0,0,0,0,0,0,0,0,0,-1,1084,1261,0,0
-133,-237,0,0,0,0,0,0,0,0,0,-1,1091,1261,0,0
-126,-237,0,0,0,0,0,0,0,0,0,-1,1098,1261,0,0
-119,-237,0,0,0,0,0,0,0,0,0,-1,1105,1261,0,0
-112,-237,0,0,0,0,0,0,0,0,0,-1,1112,1261,0,0
-105,-237,0,0,0,0,0,0,0,0,0,-1,1119,1261,0,0
-98,-237,0,0,0,0,0,0,0,0,0,-1,1126,1261,0,0
-91,-237,0,0,0,0,0,0,0,0,0,-1,1133,1261,0,0
-84,-237,0,0,0,0,0,0,0,0,0,-1,1140,1261,0,0
-77,-237,0,0,0,0,0,0,0,0,0,-1,1147,1261,0,0
-70,-237,0,0,0,0,0,0,0,0,0,-1,1154,1261,0,0
-63,-237,0,0,0,0,0,0,0,0,0,-1,1161,1261,0,0
-56,-237,0,0,0,0,0,0,0,0,0,-1,1168,1261,0,0
-49,-237,0,0,0,0,0,0,0,0,0,-1,1175,1261,0,0
-42,-237,0,0,0,0,0,0,0,0,0,-1,1182,1261,0,0
-35,-237,0,0,0,0,0,0,0,0,0,-1,1189,1261,0,0
-28,-237,0,0,0,0,0,0,0,0,0,-1,1196,1261,0,0
-21,-237,0,0,0,0,0,0,0,0,0,-1,1203,1261,0,0
-14,-237,0,0,0,0,0,0,0,0,0,-1,1210,1261,0,0
-7,-237,0,0,0,0,0,0,0,0,0,-1,1217,1261,0,0
0,-237,0,0,0,0,0,0,0,0,0,-1,1224,1261,0,0
7,-237,0,0,0,0,0,0,0,0,0,-1,1231,1261,0,0
14,-237,0,0,0,0,0,0,0,0,0,-1,1238,1261,0,0
21,-237,0,0,0,0,0,0,0,0,0,-1,1245,1261,0,0
28,-237,0,0,0,0,0,0,0,0,0,-1,1252,1261,0,0
35,-237,0,0,0,0,0,0,0,0,0,-1,1259,1261,0,0
42,-237,0,0,0,0,0,0,0,0,0,-1,1266,1261,0,0
49,-237,0,0,0,0,0,0,0,0,0,-1,1273,1261,0,0
56,-237,0,0,0,0,0,0,0,0,0,-1,1280,1261,0,0
63,-237,0,0,0,0,0,0,0,0,0,-1,1287,1261,0,0
70,-237,0,0,0,0,0,0,0,0,0,-1,1294,1261,0,0
77,-237,0,0,0,0,0,0,0,0,0,-1,1301,1261,0,0
84,-237,0,0,0,0,0,0,0,0,0,-1,1308,1261,0,0
91,-237,0,0,0,0,0,0,0,0,0,-1,1315,1261,0,0
98,-237,0,0,0,0,0,0,0,0,0,-1,1322,1261,0,0
105,-237,0,0,0,0,0,0,0,0,0,-1,1329,1261,0,0
112,-237,0,0,0,0,0,0,0,0,0,-1,1336,1261,0,0
119,-237,0,0,0,0,0,0,0,0,0,-1,1343,1261,0,0
126,-237,0,0,0,0,0,0,0,0,0,-1,1350,1261,0,0
133,-237,0,0,0,0,0,0,0,0,0,-1,1357,1261,0,0
140,-237,0,0,0,0,0,0,0,0,0,-1,1364,1261,0,0
147,-237,0,0,0,0,0,0,0,0,0,-1,1371,1261,0,0
154,-237,0,0,0,0,0,0,0,0,0,-1,1378,1261,0,0
161,-237,0,0,0,0,0,0,0,0,0,-1,1385,1261,0,0
168,-237,0,0,0,0,0,0,0,0,0,-1,1392,1261,0,0
175,-237,0,0,0,0,0,0,0,0,0,-1,1399,1261,0,0
182,-237,0,0,0,0,0,0,0,0,0,-1,1406,1261,0,0
189,-237,0,0,0,0,0,0,0,0,0,-1,1413,1261,0,0
196,-237,0,0,0,0,0,0,0,0,0,-1,1420,1261,0,0
203,-237,0,0,0,0,0,0,0,0,0,-1,1427,1261,0,0
210,-237,0,0,0,0,0,0,0,0,0,-1,1434,1261,0,0
217,-237,0,0,0,0,0,0,0,0,0,-1,1441,1261,0,0
224,-237,0,0,0,0,0,0,0,0,0,-1,1448,1261,0,0
231,-237,0,0,0,0,0,0,0,0,0,-1,1455,1261,0,0
238,-237,0,0,0,0,0,0,0,0,0,-1,1462,1261,0,0
245,-237,0,0,0,0,0,0,0,0,0,-1,1469,1261,0,0
252,-237,0,0,0,0,0,0,0,0,0,-1,1476,1261,0,0
259,-237,0,0,0,0,0,0,0,0,0,-1,1483,1261,0,0
266,-237,0,0,0,0,0,0,0,0,0,-1,1490,1261,0,0
273,-237,0,0,0,0,0,0,0,0,0,-1,1497,1261,0,0
280,-237,0,0,0,0,0,0,0,0,0,-1,1504,1261,0,0
287,-237,0,0,0,0,0,0,0,0,0,-1,1511,1261,0,0
294,-237,0,0,0,0,0,0,0,0,0,-1,1518,1261,0,0
301,-237,0,0,0,0,0,0,0,0,0,-1,1525,1261,0,0
308,-237,0,0,0,0,0,0,0,0,0,-1,1532,1261,0,0
315,-237,0,0,0,0,0,0,0,0,0,-1,1539,1261,0,0
322,-237,0,0,0,0,0,0,0,0,0,-1,1546,1261,0,0
329,-237,0,0,0,0,0,0,0,0,0,-1,1553,1261,0,0
336,-237,0,0,0,0,0,0,0,0,0,-1,1560,1261,0,0
343,-237,0,0,0,0,0,0,0,0,0,-1,1567,1261,0,0
350,-237,0,0,0,0,0,0,0,0,0,-1,1574,1261,0,0
357,-237,0,0,0,0,0,0,0,0,0,-1,1581,1261,0,0
364,-237,0,0,0,0,0,0,0,0,0,-1,1588,1261,0,0
371,-237,0,0,0,0,0,0,0,0,0,-1,1595,1261,0,0
378,-237,0,0,0,0,0,0,0,0,0,-1,1602,1261,0,0
385,-237,0,0,0,0,0,0,0,0,0,-1,1609,1261,0,0
392,-237,0,0,0,0,0,0,0,0,0,-1,1616,1261,0,0
399,-237,0,0,0,0,0,0,0,0,0,-1,1623,1261,0,0
406,-237,0,0,0,0,0,0,0,0,0,-1,1630,1261,0,0
413,-237,0,0,0,0,0,0,0,0,0,-1,1637,1261,0,0
420,-237,0,0,0,0,0,0,0,0,0,-1,1644,1261,0,0
427,-237,0,0,0,0,0,0,0,0,0,-1,1651,1261,0,0
434,-237,0,0,0,0,0,0,0,0,0,-1,1658,1261,0,0
441,-237,0,0,0,0,0,0,0,0,0,-1,1665,1261,0,0
448,-237,0,0,0,0,0,0,0,0,0,-1,1672,1261,0,0
455,-237,0,0,0,0,0,0,0,0,0,-1,1679,1261,0,0
462,-237,0,0,0,0,0,0,0,0,0,-1,1686,1261,0,0
469,-237,0,0,0,0,0,0,0,0,0,-1,1693,1261,0,0
476,-237,0,0,0,0,0,0,0,0,0,-1,1700,1261,0,0
483,-237,0,0,0,0,0,0,0,0,0,-1,1707,1261,0,0
490,-237,0,0,0,0,0,0,0,0,0,-1,1714,1261,0,0
497,-237,0,0,0,0,0,0,0,0,0,-1,1721,1261,0,0
504,-237,0,0,0,0,0,0,0,0,0,-1,1728,1261,0,0
511,-237,0,0,0,0,0,0,0,0,0,-1,1735,1261,0,0
518,-237,0,0,0,0,0,0,0,0,0,-1,1742,1261,0,0
525,-237,0,0,0,0,0,0,0,0,0,-1,1749,1261,0,0
532,-237,0,0,0,0,0,0,0,0,0,-1,1756,1261,0,0
539,-237,0,0,0,0,0,0,0,0,0,-1,1763,1261,0,0
546,-237,0,0,0,0,0,0,0,0,0,-1,1770,1261,0,0
553,-237,0,0,0,0,0,0,0,0,0,-1,1777,1261,0,0
560,-237,0,0,0,0,0,0,0,0,0,-1,1784,1261,0,0
567,-237,0,0,0,0,0,0,0,0,0,-1,1791,1261,0,0
574,-237,0,0,0,0,0,0,0,0,0,-1,1798,1261,0,0
581,-237,0,0,0,0,0,0,0,0,0,-1,1805,1261,0,0
588,-237,0,0,0,0,0,0,0,0,0,-1,1812,1261,0,0
595,-237,0,0,0,0,0,0,0,0,0,-1,1819,1261,0,0
602,-237,0,0,0,0,0,0,0,0,0,-1,1826,1261,0,0
609,-237,0,0,0,0,0,0,0,0,0,-1,1833,1261,0,0
616,-237,24.0248,2.67969,0.00274403,-0.00103957,-0.000271769,0.00276346,-0.00105899,-0.0713401,0.00227885,0.0343253,1840,1261,24.0248,-2.67964
623,-237,24.0376,2.68774,-0.00099006,0.00527408,-0.00242145,0.00610096,-0.00181694,-1.24173,0.00478925,0.0310744,1847,1261,24.0376,-2.68778
630,-237,24.0227,2.73083,-0.00441921,0.0112947,-0.00421211,0.0123525,-0.00547705,-1.32474,0.0105459,0.0254486,1854,1261,24.0227,-2.73086
637,-237,24.0095,2.77161,-0.0065904,0.0147005,-0.00485903,0.015757,-0.0076469,-1.3567,0.01378,0.0194756,1861,1261,24.0096,-2.77157
644,-237,24.0065,2.72571,-0.00719263,0.0153003,-0.00457997,0.0161971,-0.00808944,-1.37743,0.0142799,0.0366971,1868,1261,24.0065,-2.72569
651,-237,24.0206,2.53564,-0.00682629,0.0143479,-0.0039268,0.0150526,-0.00753106,-1.39321,0.0132776,0.045593,1875,1261,24.0206,-2.53568
658,-237,23.6973,1.91016,-0.00613263,0.0128279,-0.0032138,0.0133579,-0.00666256,-1.40738,0.0117723,0.0446817,1882,1261,23.6972,-1.91021
665,-237,23.5088,1.6687,0,0,0,0,0,0,0,-1,1889,1261,23.5088,-1.66875
672,-237,23.3655,1.49658,0,0,0,0,0,0,0,-1,1896,1261,23.3654,-1.49655
679,-237,20.4421,5.99731,0,0,0,0,0,0,0,-1,1903,1261,20.4421,-5.9973
686,-237,20.146,5.89795,-0.00300098,0.00607048,-0.000562843,0.00610527,-0.00303576,-1.50907,0.00537585,0.0357395,1910,1261,20.146,-5.89794
693,-237,19.8138,5.76062,-0.00201075,0.00425533,-2.6941e-05,0.00425545,-0.00201087,-1.5665,0.00369441,0.0204195,1917,1261,19.8138,-5.76066
700,-237,19.8562,5.57056,-0.000905529,0.00234381,0.000567288,0.00244001,-0.00100172,1.40283,0.0020441,0.0104659,1924,1261,19.8562,-5.57056
707,-237,19.8527,5.37378,0.000198939,0.000613874,0.000887543,0.00131788,-0.000505062,0.900214,0.00108679,0.00943333,1931,1261,19.8526,-5.37383
714,-237,19.8444,5.17334,0.000611365,-0.000448627,0.00076515,0.00101215,-0.000849411,0.482504,0.00107614,0.0128702,1938,1261,19.8443,-5.1734
721,-237,19.8169,4.97644,0.00104533,-3.86323e-05,0.000168129,0.00107081,-6.41112e-05,0.150399,0.000736174,0.0151389,1945,1261,19.8169,-4.97648
728,-237,19.8538,4.77405,0.00181805,0.000632525,-0.000641512,0.00209873,0.000351844,-0.412436,0.00129787,0.0148072,1952,1261,19.8537,-4.77411
735,-237,19.8528,4.58618,0.00282254,0.0013758,-0.00145943,0.00372803,0.000470306,-0.555316,0.00234436,0.0187127,1959,1261,19.8528,-4.58613
742,-237,19.8562,4.4032,0.00413235,0.00212208,-0.00236538,0.00569729,0.000557136,-0.58449,0.00362677,0.0145196,1966,1261,19.8562,-4.40315
749,-237,19.8486,4.21912,0.00586418,0.0027706,-0.00334883,0.00800619,0.000628591,-0.56905,0.00514076,0.00991432,1973,1261,19.8486,-4.21913
756,-237,19.8346,4.01062,0.00837142,0.00328368,-0.00453259,0.0110252,0.000629893,-0.529682,0.00714943,0.0136001,1980,1261,19.8347,-4.01064
763,-237,19.8041,3.79407,0.011924,0.00361726,-0.0060174,0.0150822,0.000459013,-0.483331,0.00990535,0.0266025,1987,1261,19.8041,-3.79403
770,-237,19.9197,3.54431,0.0167872,0.00360888,-0.00778705,0.0203988,-2.70549e-06,-0.434265,0.0136001,0.0403136,1994,1261,19.9197,-3.5443
777,-237,19.9756,3.30884,0,0,0,0,0,0,0,-1,2001,1261,19.9756,-3.30888
784,-237,23.1848,-0.895996,0,0,0,0,0,0,0,-1,2008,1261,23.1848,0.89601
791,-237,24.0978,0.45166,0,0,0,0,0,0,0,-1,2015,1261,24.0978,-0.451683
798,-237,0,0,0,0,0,0,0,0,0,-1,2022,1261,0,0
805,-237,0,0,0,0,0,0,0,0,0,-1,2029,1261,0,0
812,-237,0,0,0,0,0,0,0,0,0,-1,2036,1261,0,0
-700,-244,0,0,0,0,0,0,0,0,0,-1,524,1268,0,0
-693,-244,0,0,0,0,0,0,0,0,0,-1,531,1268,0,0
-686,-244,0,0,0,0,0,0,0,0,0,-1,538,1268,0,0
-679,-244,0,0,0,0,0,0,0,0,0,-1,545,1268,0,0
-672,-244,-14.0414,1.27966,0,0,0,0,0,0,0,-1,552,1268,-14.0414,-1.27971
-665,-244,-12.7167,-0.0720215,0,0,0,0,0,0,0,-1,559,1268,-12.7167,0.0720799
-658,-244,-11.6539,0.781006,0,0,0,0,0,0,0,-1,566,1268,-11.654,-0.781037
-651,-244,-11.5634,0.908081,0.0151762,0.0291475,0.00828513,0.0329989,0.0113248,1.13565,0.0193618,0.045358,573,1268,-11.5634,-0.908125
-644,-244,-11.4841,1.07642,0,0,0,0,0,0,0,-1,580,1268,-11.4841,-1.07644
-637,-244,-11.605,1.01636,0.00245812,0.0199481,0.00851555,0.0234092,-0.00100302,1.18474,0.015951,0.0473974,587,1268,-11.605,-1.01638
-630,-244,-11.5656,1.14282,0.000384951,0.0155013,0.00745718,0.0185608,-0.00267457,1.18146,0.013355,0.0446712,594,1268,-11.5655,-1.1428
-623,-244,-11.4714,1.60437,-0.000323071,0.0117213,0.00609744,0.0142691,-0.00287092,1.17499,0.0106001,0.0320612,601,1268,-11.4715,-1.60441
-616,-244,-11.4595,1.83765,-0.000415762,0.00854737,0.00472197,0.0105759,-0.0024443,1.16504,0.00799097,0.0156582,608,1268,-11.4595,-1.83768
-609,-244,-11.4539,2.03296,-0.000628124,0.00622759,0.00359453,0.00776671,-0.00216724,1.16623,0.00603144,0.0135588,615,1268,-11.4539,-2.03296
-602,-244,-11.4463,2.26538,0.000425834,0.0042195,0.00266702,0.00559543,-0.000950096,1.09451,0.00408399,0.0142209,622,1268,-11.4463,-2.26536
-595,-244,-11.4493,2.50598,0.00137223,0.00261856,0.00205617,0.00414393,-0.000153133,0.932534,0.00281505,0.0154403,629,1268,-11.4494,-2.506
-588,-244,-11.4393,2.755,0.00225232,0.00176652,0.0017967,0.00382247,0.000196372,0.718211,0.00248544,0.0197582,636,1268,-11.4393,-2.75496
-581,-244,-11.435,2.98877,0.00322182,0.000973865,0.00176596,0.00419115,4.52972e-06,0.501997,0.00279259,0.0175836,643,1268,-11.435,-2.98882
-574,-244,-11.4498,3.21216,0.00343772,0.000903858,0.00138641,0.00404888,0.00029269,0.4152,0.00260718,0.013513,650,1268,-11.4499,-3.2121
-567,-244,-11.4482,3.4491,0.00270165,0.000539442,0.00113565,0.0031885,5.25885e-05,0.405,0.00210836,0.0103543,657,1268,-11.4482,-3.4491
-560,-244,-11.3815,3.7074,0.00153229,-0.000597486,0.0010885,0.00199017,-0.00105537,0.398182,0.00178574,0.0178952,664,1268,-11.3815,-3.7074
-553,-244,-11.1882,4.06702,0.000111854,-0.00114329,0.000986056,0.000653107,-0.00168454,0.502004,0.00139275,0.046806,671,1268,-11.1881,-4.06704
-546,-244,-10.8835,4.3938,0,0,0,0,0,0,0,-1,678,1268,-10.8835,-4.39375
-539,-244,-12.564,0.442871,0,0,0,0,0,0,0,-1,685,1268,-12.564,-0.442835
-532,-244,-15.7448,1.69971,0,0,0,0,0,0,0,-1,692,1268,-15.7448,-1.6997
-525,-244,-15.8456,1.57715,-0.00976025,-0.00559459,-0.000824411,-0.00543736,-0.00991748,-1.38235,0.00573474,0.0472873,699,1268,-15.8456,-1.57715
-518,-244,-16.1747,1.29932,-0.0134858,-0.00747406,-0.00147153,-0.00713319,-0.0138267,-1.34317,0.00798417,0.0458573,706,1268,-16.1747,-1.29936
-511,-244,-16.337,1.14893,-0.0173074,-0.00924956,-0.00180401,-0.00886411,-0.0176928,-1.3603,0.010215,0.0488872,713,1268,-16.337,-1.1489
-504,-244,-16.2766,0.99292,-0.0193272,-0.0100792,-0.000476183,-0.0100547,-0.0193516,-1.51949,0.0111755,0.0453855,720,1268,-16.2766,-0.992947
-497,-244,-16.4039,1.18555,-0.0198323,-0.00830395,0.00230401,-0.00786054,-0.0202757,1.38067,0.0118042,0.0424627,727,1268,-16.4039,-1.18558
-490,-244,0,0,0,0,0,0,0,0,0,-1,734,1268,0,0
-483,-244,0,0,0,0,0,0,0,0,0,-1,741,1268,0,0
-476,-244,0,0,0,0,0,0,0,0,0,-1,748,1268,0,0
-469,-244,0,0,0,0,0,0,0,0,0,-1,755,1268,0,0
-462,-244,0,0,0,0,0,0,0,0,0,-1,762,1268,0,0
-455,-244,0,0,0,0,0,0,0,0,0,-1,769,1268,0,0
-448,-244,0,0,0,0,0,0,0,0,0,-1,776,1268,0,0
-441,-244,0,0,0,0,0,0,0,0,0,-1,783,1268,0,0
-434,-244,0,0,0,0,0,0,0,0,0,-1,790,1268,0,0
-427,-244,0,0,0,0,0,0,0,0,0,-1,797,1268,0,0
-420,-244,0,0,0,0,0,0,0,0,0,-1,804,1268,0,0
-413,-244,0,0,0,0,0,0,0,0,0,-1,811,1268,0,0
-406,-244,0,0,0,0,0,0,0,0,0,-1,818,1268,0,0
-399,-244,0,0,0,0,0,0,0,0,0,-1,825,1268,0,0
-392,-244,0,0,0,0,0,0,0,0,0,-1,832,1268,0,0
-385,-244,0,0,0,0,0,0,0,0,0,-1,839,1268,0,0
-378,-244,0,0,0,0,0,0,0,0,0,-1,846,1268,0,0
-371,-244,0,0,0,0,0,0,0,0,0,-1,853,1268,0,0
-364,-244,0,0,0,0,0,0,0,0,0,-1,860,1268,0,0
-357,-244,0,0,0,0,0,0,0,0,0,-1,867,1268,0,0
-350,-244,0,0,0,0,0,0,0,0,0,-1,874,1268,0,0
-343,-244,0,0,0,0,0,0,0,0,0,-1,881,1268,0,0
-336,-244,0,0,0,0,0,0,0,0,0,-1,888,1268,0,0
-329,-244,0,0,0,0,0,0,0,0,0,-1,895,1268,0,0
-322,-244,0,0,0,0,0,0,0,0,0,-1,902,1268,0,0
-315,-244,0,0,0,0,0,0,0,0,0,-1,909,1268,0,0
-308,-244,0,0,0,0,0,0,0,0,0,-1,916,1268,0,0
-301,-244,0,0,0,0,0,0,0,0,0,-1,923,1268,0,0
-294,-244,0,0,0,0,0,0,0,0,0,-1,930,1268,0,0
-287,-244,0,0,0,0,0,0,0,0,0,-1,937,1268,0,0
-280,-244,0,0,0,0,0,0,0,0,0,-1,944,1268,0,0
-273,-244,0,0,0,0,0,0,0,0,0,-1,951,1268,0,0
-266,-244,0,0,0,0,0,0,0,0,0,-1,958,1268,0,0
-259,-244,0,0,0,0,0,0,0,0,0,-1,965,1268,0,0
-252,-244,0,0,0,0,0,0,0,0,0,-1,972,1268,0,0
-245,-244,0,0,0,0,0,0,0,0,0,-1,979,1268,0,0
-238,-244,0,0,0,0,0,0,0,0,0,-1,986,1268,0,0
-231,-244,0,0,0,0,0,0,0,0,0,-1,993,1268,0,0
-224,-244,0,0,0,0,0,0,0,0,0,-1,1000,1268,0,0
-217,-244,0,0,0,0,0,0,0,0,0,-1,1007,1268,0,0
-210,-244,0,0,0,0,0,0,0,0,0,-1,1014,1268,0,0
-203,-244,0,0,0,0,0,0,0,0,0,-1,1021,1268,0,0
-196,-244,0,0,0,0,0,0,0,0,0,-1,1028,1268,0,0
-189,-244,0,0,0,0,0,0,0,0,0,-1,1035,1268,0,0
-182,-244,0,0,0,0,0,0,0,0,0,-1,1042,1268,0,0
-175,-244,0,0,0,0,0,0,0,0,0,-1,1049,1268,0,0
-168,-244,0,0,0,0,0,0,0,0,0,-1,1056,1268,0,0
-161,-244,0,0,0,0,0,0,0,0,0,-1,1063,1268,0,0
-154,-244,0,0,0,0,0,0,0,0,0,-1,1070,1268,0,0
-147,-244,0,0,0,0,0,0,0,0,0,-1,1077,1268,0,0
-140,-244,0,0,0,0,0,0,0,0,0,-1,1084,1268,0,0
-133,-244,0,0,0,0,0,0,0,0,0,-1,1091,1268,0,0
-126,-244,0,0,0,0,0,0,0,0,0,-1,1098,1268,0,0
-119,-244,0,0,0,0,0,0,0,0,0,-1,1105,1268,0,0
-112,-244,0,0,0,0,0,0,0,0,0,-1,1112,1268,0,0
-105,-244,0,0,0,0,0,0,0,0,0,-1,1119,1268,0,0
-98,-244,0,0,0,0,0,0,0,0,0,-1,1126,1268,0,0
-91,-244,0,0,0,0,0,0,0,0,0,-1,1133,1268,0,0
-84,-244,0,0,0,0,0,0,0,0,0,-1,1140,1268,0,0
-77,-244,0,0,0,0,0,0,0,0,0,-1,1147,1268,0,0
-70,-244,0,0,0,0,0,0,0,0,0,-1,1154,1268,0,0
-63,-244,0,0,0,0,0,0,0,0,0,-1,1161,1268,0,0
-56,-244,0,0,0,0,0,0,0,0,0,-1,1168,1268,0,0
-49,-244,0,0,0,0,0,0,0,0,0,-1,1175,1268,0,0
-42,-244,0,0,0,0,0,0,0,0,0,-1,1182,1268,0,0
-35,-244,0,0,0,0,0,0,0,0,0,-1,1189,1268,0,0
-28,-244,0,0,0,0,0,0,0,0,0,-1,1196,1268,0,0
-21,-244,0,0,0,0,0,0,0,0,0,-1,1203,1268,0,0
-14,-244,0,0,0,0,0,0,0,0,0,-1,1210,1268,0,0
-7,-244,0,0,0,0,0,0,0,0,0,-1,1217,1268,0,0
0,-244,0,0,0,0,0,0,0,0,0,-1,1224,1268,0,0
7,-244,0,0,0,0,0,0,0,0,0,-1,1231,1268,0,0
14,-244,0,0,0,0,0,0,0,0,0,-1,1238,1268,0,0
21,-244,0,0,0,0,0,0,0,0,0,-1,1245,1268,0,0
28,-244,0,0,0,0,0,0,0,0,0,-1,1252,1268,0,0
35,-244,0,0,0,0,0,0,0,0,0,-1,1259,1268,0,0
42,-244,0,0,0,0,0,0,0,0,0,-1,1266,1268,0,0
49,-244,0,0,0,0,0,0,0,0,0,-1,1273,1268,0,0
56,-244,0,0,0,0,0,0,0,0,0,-1,1280,1268,0,0
63,-244,0,0,0,0,0,0,0,0,0,-1,1287,1268,0,0
70,-244,0,0,0,0,0,0,0,0,0,-1,1294,1268,0,0
77,-244,0,0,0,0,0,0,0,0,0,-1,1301,1268,0,0
84,-244,0,0,0,0,0,0,0,0,0,-1,1308,1268,0,0
91,-244,0,0,0,0,0,0,0,0,0,-1,1315,1268,0,0
98,-244,0,0,0,0,0,0,0,0,0,-1,1322,1268,0,0
105,-244,0,0,0,0,0,0,0,0,0,-1,1329,1268,0,0
112,-244,0,0,0,0,0,0,0,0,0,-1,1336,1268,0,0
119,-244,0,0,0,0,0,0,0,0,0,-1,1343,1268,0,0
126,-244,0,0,0,0,0,0,0,0,0,-1,1350,1268,0,0
133,-244,0,0,0,0,0,0,0,0,0,-1,1357,1268,0,0
140,-244,0,0,0,0,0,0,0,0,0,-1,1364,1268,0,0
147,-244,0,0,0,0,0,0,0,0,0,-1,1371,1268,0,0
154,-244,0,0,0,0,0,0,0,0,0,-1,1378,1268,0,0
161,-244,0,0,0,0,0,0,0,0,0,-1,1385,1268,0,0
168,-244,0,0,0,0,0,0,0,0,0,-1,1392,1268,0,0
175,-244,0,0,0,0,0,0,0,0,0,-1,1399,1268,0,0
182,-244,0,0,0,0,0,0,0,0,0,-1,1406,1268,0,0
189,-244,0,0,0,0,0,0,0,0,0,-1,1413,1268,0,0
196,-244,0,0,0,0,0,0,0,0,0,-1,1420,1268,0,0
203,-244,0,0,0,0,0,0,0,0,0,-1,1427,1268,0,0
210,-244,0,0,0,0,0,0,0,0,0,-1,1434,1268,0,0
217,-244,0,0,0,0,0,0,0,0,0,-1,1441,1268,0,0
224,-244,0,0,0,0,0,0,0,0,0,-1,1448,1268,0,0
231,-244,0,0,0,0,0,0,0,0,0,-1,1455,1268,0,0
238,-244,0,0,0,0,0,0,0,0,0,-1,1462,1268,0,0
245,-244,0,0,0,0,0,0,0,0,0,-1,1469,1268,0,0
252,-244,0,0,0,0,0,0,0,0,0,-1,1476,1268,0,0
259,-244,0,0,0,0,0,0,0,0,0,-1,1483,1268,0,0
266,-244,0,0,0,0,0,0,0,0,0,-1,1490,1268,0,0
273,-244,0,0,0,0,0,0,0,0,0,-1,1497,1268,0,0
280,-244,0,0,0,0,0,0,0,0,0,-1,1504,1268,0,0
287,-244,0,0,0,0,0,0,0,0,0,-1,1511,1268,0,0
294,-244,0,0,0,0,0,0,0,0,0,-1,1518,1268,0,0
301,-244,0,0,0,0,0,0,0,0,0,-1,1525,1268,0,0
308,-244,0,0,0,0,0,0,0,0,0,-1,1532,1268,0,0
315,-244,0,0,0,0,0,0,0,0,0,-1,1539,1268,0,0
322,-244,0,0,0,0,0,0,0,0,0,-1,1546,1268,0,0
329,-244,0,0,0,0,0,0,0,0,0,-1,1553,1268,0,0
336,-244,0,0,0,0,0,0,0,0,0,-1,1560,1268,0,0
343,-244,0,0,0,0,0,0,0,0,0,-1,1567,1268,0,0
350,-244,0,0,0,0,0,0,0,0,0,-1,1574,1268,0,0
357,-244,0,0,0,0,0,0,0,0,0,-1,1581,1268,0,0
364,-244,0,0,0,0,0,0,0,0,0,-1,1588,1268,0,0
371,-244,0,0,0,0,0,0,0,0,0,-1,1595,1268,0,0
378,-244,0,0,0,0,0,0,0,0,0,-1,1602,1268,0,0
385,-244,0,0,0,0,0,0,0,0,0,-1,1609,1268,0,0
392,-244,0,0,0,0,0,0,0,0,0,-1,1616,1268,0,0
399,-244,0,0,0,0,0,0,0,0,0,-1,1623,1268,0,0
406,-244,0,0,0,0,0,0,0,0,0,-1,1630,1268,0,0
413,-244,0,0,0,0,0,0,0,0,0,-1,1637,1268,0,0
420,-244,0,0,0,0,0,0,0,0,0,-1,1644,1268,0,0
427,-244,0,0,0,0,0,0,0,0,0,-1,1651,1268,0,0
434,-244,0,0,0,0,0,0,0,0,0,-1,1658,1268,0,0
441,-244,0,0,0,0,0,0,0,0,0,-1,1665,1268,0,0
448,-244,0,0,0,0,0,0,0,0,0,-1,1672,1268,0,0
455,-244,0,0,0,0,0,0,0,0,0,-1,1679,1268,0,0
462,-244,0,0,0,0,0,0,0,0,0,-1,1686,1268,0,0
469,-244,0,0,0,0,0,0,0,0,0,-1,1693,1268,0,0
476,-244,0,0,0,0,0,0,0,0,0,-1,1700,1268,0,0
483,-244,0,0,0,0,0,0,0,0,0,-1,1707,1268,0,0
490,-244,0,0,0,0,0,0,0,0,0,-1,1714,1268,0,0
497,-244,0,0,0,0,0,0,0,0,0,-1,1721,1268,0,0
504,-244,0,0,0,0,0,0,0,0,0,-1,1728,1268,0,0
511,-244,0,0,0,0,0,0,0,0,0,-1,1735,1268,0,0
518,-244,0,0,0,0,0,0,0,0,0,-1,1742,1268,0,0
525,-244,0,0,0,0,0,0,0,0,0,-1,1749,1268,0,0
532,-244,0,0,0,0,0,0,0,0,0,-1,1756,1268,0,0
539,-244,0,0,0,0,0,0,0,0,0,-1,1763,1268,0,0
546,-244,0,0,0,0,0,0,0,0,0,-1,1770,1268,0,0
553,-244,0,0,0,0,0,0,0,0,0,-1,1777,1268,0,0
560,-244,0,0,0,0,0,0,0,0,0,-1,1784,1268,0,0
567,-244,0,0,0,0,0,0,0,0,0,-1,1791,1268,0,0
574,-244,0,0,0,0,0,0,0,0,0,-1,1798,1268,0,0
581,-244,0,0,0,0,0,0,0,0,0,-1,1805,1268,0,0
588,-244,0,0,0,0,0,0,0,0,0,-1,1812,1268,0,0
595,-244,0,0,0,0,0,0,0,0,0,-1,1819,1268,0,0
602,-244,0,0,0,0,0,0,0,0,0,-1,1826,1268,0,0
609,-244,0,0,0,0,0,0,0,0,0,-1,1833,1268,0,0
616,-244,24.0018,2.68555,0.00119334,0.00364821,-0.00259019,0.00528708,-0.000445522,-1.00666,0.00368222,0.0317896,1840,1268,24.0018,-2.6855
623,-244,24.0262,2.72095,-0.00264242,0.0101314,-0.00474405,0.0117005,-0.00421155,-1.25136,0.00951994,0.0267987,1847,1268,24.0263,-2.7209
630,-244,24.0201,2.79077,-0.00615664,0.0154498,-0.006162,0.0170836,-0.00779045,-1.31162,0.0146914,0.0244434,1854,1268,24.0202,-2.79074
637,-244,24.042,2.81335,-0.00821865,0.0176418,-0.00626123,0.019078,-0.00965484,-1.34532,0.0168836,0.0362084,1861,1268,24.042,-2.81336
644,-244,24.0082,2.75269,-0.0086865,0.0173685,-0.00563225,0.0185339,-0.00985188,-1.36676,0.0166421,0.0435303,1868,1268,24.0081,-2.75266
651,-244,23.5432,1.84155,-0.0082606,0.0159472,-0.00477021,0.0168533,-0.00916667,-1.38309,0.0152395,0.0473583,1875,1268,23.5432,-1.84156
658,-244,23.5837,1.35156,-0.00753523,0.0141915,-0.00392346,0.0148783,-0.00822202,-1.3975,0.0135203,0.0466759,1882,1268,23.5838,-1.35157
665,-244,23.4406,1.06152,0,0,0,0,0,0,0,-1,1889,1268,23.4406,-1.06154
672,-244,19.7733,4.70398,0,0,0,0,0,0,0,-1,1896,1268,19.7734,-4.70393
679,-244,19.702,5.97498,0,0,0,0,0,0,0,-1,1903,1268,19.702,-5.97502
686,-244,19.699,5.99951,-0.00418188,0.00681475,-0.000879197,0.00688459,-0.00425173,-1.49152,0.00648918,0.0307143,1910,1268,19.6989,-5.99948
693,-244,19.6298,5.81726,-0.00291986,0.0048009,-0.000287966,0.00481162,-0.00293059,-1.53357,0.00451373,0.0126092,1917,1268,19.6298,-5.81732
700,-244,19.6335,5.57739,-0.00150783,0.00269686,0.000332611,0.00272301,-0.00153398,1.49234,0.00248952,0.00876437,1924,1268,19.6336,-5.57744
707,-244,19.6383,5.37891,-0.000111642,0.000908328,0.000619313,0.00120061,-0.000403925,1.12984,0.000963691,0.00982774,1931,1268,19.6383,-5.3789
714,-244,19.6646,5.17944,0.000494986,-6.68864e-05,0.000407271,0.000708817,-0.000280718,0.483474,0.00058886,0.0113506,1938,1268,19.6646,-5.17948
721,-244,19.6365,5.00012,0.00113674,0.000367957,-0.000276595,0.00122591,0.000278786,-0.311868,0.000742015,0.0133121,1945,1268,19.6364,-5.00013
728,-244,19.6438,4.78052,0.00198388,0.000997345,-0.0011018,0.00269778,0.000283439,-0.574932,0.00171188,0.0173926,1952,1268,19.6438,-4.78054
735,-244,19.636,4.55078,0.00301211,0.00169687,-0.00196132,0.00442313,0.000285855,-0.62364,0.00285824,0.0218112,1959,1268,19.636,-4.55074
742,-244,19.6631,4.39209,0.00427328,0.00241625,-0.00291462,0.00640371,0.000285815,-0.631195,0.00417713,0.0147635,1966,1268,19.663,-4.3921
749,-244,19.639,4.20667,0.00592874,0.00306394,-0.00396843,0.00871537,0.000277318,-0.6122,0.00572005,0.0183634,1973,1268,19.639,-4.20666
756,-244,19.5697,4.05176,0.00830873,0.00357761,-0.0052306,0.0116838,0.000202523,-0.573035,0.00772259,0.0245296,1980,1268,19.5697,-4.05172
763,-244,19.5815,3.88452,0.0116121,0.00388041,-0.00677022,0.0155425,-4.99417e-05,-0.525984,0.0103783,0.037058,1987,1268,19.5816,-3.88447
770,-244,19.6727,3.69922,0.0160228,0.00374142,-0.00849578,0.0203648,-0.000600548,-0.472467,0.0137811,0.0429432,1994,1268,19.6728,-3.69927
777,-244,19.6936,3.45605,0,0,0,0,0,0,0,-1,2001,1268,19.6936,-3.45604
784,-244,24.1403,-2.16113,0,0,0,0,0,0,0,-1,2008,1268,24.1403,2.16113
791,-244,0,0,0,0,0,0,0,0,0,-1,2015,1268,0,0
798,-244,0,0,0,0,0,0,0,0,0,-1,2022,1268,0,0
805,-244,0,0,0,0,0,0,0,0,0,-1,2029,1268,0,0
812,-244,0,0,0,0,0,0,0,0,0,-1,2036,1268,0,0
-700,-251,0,0,0,0,0,0,0,0,0,-1,524,1275,0,0
-693,-251,0,0,0,0,0,0,0,0,0,-1,531,1275,0,0
-686,-251,0,0,0,0,0,0,0,0,0,-1,538,1275,0,0
-679,-251,0,0,0,0,0,0,0,0,0,-1,545,1275,0,0
-672,-251,0,0,0,0,0,0,0,0,0,-1,552,1275,0,0
-665,-251,-12.4661,0.0537109,0.0588154,0.0318774,0.000860446,0.0588429,0.0318499,0.0318983,0.0340115,0.0459706,559,1275,-12.4661,-0.0536935
-658,-251,-11.7831,0.266113,0,0,0,0,0,0,0,-1,566,1275,-11.7831,-0.266058
-651,-251,-11.3081,0.29834,0,0,0,0,0,0,0,-1,573,1275,-11.3081,-0.29828
-644,-251,-11.158,0.467407,0,0,0,0,0,0,0,-1,580,1275,-11.1579,-0.467467
-637,-251,-11.3835,0.908203,0.00686517,0.0221298,0.00907519,0.0263554,0.00263952,1.13502,0.0167599,0.0466816,587,1275,-11.3835,-0.908252
-630,-251,-11.5023,1.17017,0.00337447,0.0175227,0.00808349,0.0211904,-0.000293195,1.14485,0.0142256,0.0489693,594,1275,-11.5023,-1.17015
-623,-251,-11.3024,1.62183,0.0016538,0.013452,0.00668984,0.0164722,-0.00136637,1.14673,0.0114641,0.039594,601,1275,-11.3024,-1.62187
-616,-251,-11.2038,1.82898,0.000863573,0.00993047,0.00524757,0.0123317,-0.00153761,1.14166,0.00877864,0.0196135,608,1275,-11.2038,-1.82892
-609,-251,-11.2419,2.03992,5.45901e-05,0.00734301,0.00403136,0.00913314,-0.00173554,1.1529,0.00674215,0.0195135,615,1275,-11.242,-2.03995
-602,-251,-11.2324,2.25781,0.000824713,0.00505432,0.00303248,0.00663659,-0.000757551,1.08988,0.00469731,0.0144465,622,1275,-11.2324,-2.25777
-595,-251,-11.2069,2.48987,0.00160966,0.00317348,0.00237362,0.00489066,-0.000107517,0.944509,0.00329686,0.0121731,629,1275,-11.2069,-2.48981
-588,-251,-11.2014,2.72839,0.00243813,0.0020993,0.00203091,0.00430668,0.000230758,0.743785,0.00279738,0.0144264,636,1275,-11.2014,-2.72834
-581,-251,-11.1916,2.97668,0.00338869,0.0011076,0.0019041,0.0044677,2.85835e-05,0.515558,0.00296899,0.0142957,643,1275,-11.1916,-2.97668
-574,-251,-11.1835,3.23779,0.003721,0.000805276,0.00148381,0.00434329,0.000182983,0.397109,0.0028365,0.0128787,650,1275,-11.1835,-3.23785
-567,-251,-11.1987,3.45984,0.00313092,0.000257178,0.00115253,0.00353604,-0.000147942,0.338014,0.00240819,0.0105317,657,1275,-11.1987,-3.45986
-560,-251,-11.1665,3.71545,0.00200646,-0.000915846,0.000956345,0.00229161,-0.00120099,0.289771,0.00204896,0.0163708,664,1275,-11.1665,-3.71545
-553,-251,-11.0469,3.76611,0.000477724,-0.00153116,0.00070886,0.000702667,-0.0017561,0.307279,0.00146236,0.0400263,671,1275,-11.0469,-3.76611
-546,-251,-11.0251,3.72522,0,0,0,0,0,0,0,-1,678,1275,-11.0251,-3.72517
-539,-251,-10.7916,0.366333,0,0,0,0,0,0,0,-1,685,1275,-10.7916,-0.366282
-532,-251,-10.7391,-0.00769043,0,0,0,0,0,0,0,-1,692,1275,-10.7391,0.00773227
-525,-251,-15.4195,1.62451,0,0,0,0,0,0,0,-1,699,1275,-15.4195,-1.62451
-518,-251,-16.079,1.52441,-0.0148853,-0.00806557,-0.00246526,-0.00726774,-0.0156831,-1.25781,0.00906273,0.0446506,706,1275,-16.079,-1.52439
-511,-251,-16.3832,1.59998,-0.0193324,-0.00998304,-0.00282938,-0.00919348,-0.020122,-1.29866,0.0116318,0.0478331,713,1275,-16.3832,-1.59993
-504,-251,-16.5623,1.51709,0,0,0,0,0,0,0,-1,720,1275,-16.5623,-1.51704
-497,-251,-16.2848,1.0614,0,0,0,0,0,0,0,-1,727,1275,-16.2848,-1.06143
-490,-251,0,0,0,0,0,0,0,0,0,-1,734,1275,0,0
-483,-251,0,0,0,0,0,0,0,0,0,-1,741,1275,0,0
-476,-251,0,0,0,0,0,0,0,0,0,-1,748,1275,0,0
-469,-251,0,0,0,0,0,0,0,0,0,-1,755,1275,0,0
-462,-251,0,0,0,0,0,0,0,0,0,-1,762,1275,0,0
-455,-251,0,0,0,0,0,0,0,0,0,-1,769,1275,0,0
-448,-251,0,0,0,0,0,0,0,0,0,-1,776,1275,0,0
-441,-251,0,0,0,0,0,0,0,0,0,-1,783,1275,0,0
-434,-251,0,0,0,0,0,0,0,0,0,-1,790,1275,0,0
-427,-251,0,0,0,0,0,0,0,0,0,-1,797,1275,0,0
-420,-251,0,0,0,0,0,0,0,0,0,-1,804,1275,0,0
-413,-251,0,0,0,0,0,0,0,0,0,-1,811,1275,0,0
-406,-251,0,0,0,0,0,0,0,0,0,-1,818,1275,0,0
-399,-251,0,0,0,0,0,0,0,0,0,-1,825,1275,0,0
-392,-251,0,0,0,0,0,0,0,0,0,-1,832,1275,0,0
-385,-251,0,0,0,0,0,0,0,0,0,-1,839,1275,0,0
-378,-251,0,0,0,0,0,0,0,0,0,-1,846,1275,0,0
-371,-251,0,0,0,0,0,0,0,0,0,-1,853,1275,0,0
-364,-251,0,0,0,0,0,0,0,0,0,-1,860,1275,0,0
-357,-251,0,0,0,0,0,0,0,0,0,-1,867,1275,0,0
-350,-251,0,0,0,0,0,0,0,0,0,-1,874,1275,0,0
-343,-251,0,0,0,0,0,0,0,0,0,-1,881,1275,0,0
-336,-251,0,0,0,0,0,0,0,0,0,-1,888,1275,0,0
-329,-251,0,0,0,0,0,0,0,0,0,-1,895,1275,0,0
-322,-251,0,0,0,0,0,0,0,0,0,-1,902,1275,0,0
-315,-251,0,0,0,0,0,0,0,0,0,-1,909,1275,0,0
-308,-251,0,0,0,0,0,0,0,0,0,-1,916,1275,0,0
-301,-251,0,0,0,0,0,0,0,0,0,-1,923,1275,0,0
-294,-251,0,0,0,0,0,0,0,0,0,-1,930,1275,0,0
-287,-251,0,0,0,0,0,0,0,0,0,-1,937,1275,0,0
-280,-251,0,0,0,0,0,0,0,0,0,-1,944,1275,0,0
-273,-251,0,0,0,0,0,0,0,0,0,-1,951,1275,0,0
-266,-251,0,0,0,0,0,0,0,0,0,-1,958,1275,0,0
-259,-251,0,0,0,0,0,0,0,0,0,-1,965,1275,0,0
-252,-251,0,0,0,0,0,0,0,0,0,-1,972,1275,0,0
-245,-251,0,0,0,0,0,0,0,0,0,-1,979,1275,0,0
-238,-251,0,0,0,0,0,0,0,0,0,-1,986,1275,0,0
-231,-251,0,0,0,0,0,0,0,0,0,-1,993,1275,0,0
-224,-251,0,0,0,0,0,0,0,0,0,-1,1000,1275,0,0
-217,-251,0,0,0,0,0,0,0,0,0,-1,1007,1275,0,0
-210,-251,0,0,0,0,0,0,0,0,0,-1,1014,1275,0,0
-203,-251,0,0,0,0,0,0,0,0,0,-1,1021,1275,0,0
-196,-251,0,0,0,0,0,0,0,0,0,-1,1028,1275,0,0
-189,-251,0,0,0,0,0,0,0,0,0,-1,1035,1275,0,0
-182,-251,0,0,0,0,0,0,0,0,0,-1,1042,1275,0,0
-175,-251,0,0,0,0,0,0,0,0,0,-1,1049,1275,0,0
-168,-251,0,0,0,0,0,0,0,0,0,-1,1056,1275,0,0
-161,-251,0,0,0,0,0,0,0,0,0,-1,1063,1275,0,0
-154,-251,0,0,0,0,0,0,0,0,0,-1,1070,1275,0,0
-147,-251,0,0,0,0,0,0,0,0,0,-1,1077,1275,0,0
-140,-251,0,0,0,0,0,0,0,0,0,-1,1084,1275,0,0
-133,-251,0,0,0,0,0,0,0,0,0,-1,1091,1275,0,0
-126,-251,0,0,0,0,0,0,0,0,0,-1,1098,1275,0,0
-119,-251,0,0,0,0,0,0,0,0,0,-1,1105,1275,0,0
-112,-251,0,0,0,0,0,0,0,0,0,-1,1112,1275,0,0
-105,-251,0,0,0,0,0,0,0,0,0,-1,1119,1275,0,0
-98,-251,0,0,0,0,0,0,0,0,0,-1,1126,1275,0,0
-91,-251,0,0,0,0,0,0,0,0,0,-1,1133,1275,0,0
-84,-251,0,0,0,0,0,0,0,0,0,-1,1140,1275,0,0
-77,-251,0,0,0,0,0,0,0,0,0,-1,1147,1275,0,0
-70,-251,0,0,0,0,0,0,0,0,0,-1,1154,1275,0,0
-63,-251,0,0,0,0,0,0,0,0,0,-1,1161,1275,0,0
-56,-251,0,0,0,0,0,0,0,0,0,-1,1168,1275,0,0
-49,-251,0,0,0,0,0,0,0,0,0,-1,1175,1275,0,0
-42,-251,0,0,0,0,0,0,0,0,0,-1,1182,1275,0,0
-35,-251,0,0,0,0,0,0,0,0,0,-1,1189,1275,0,0
-28,-251,0,0,0,0,0,0,0,0,0,-1,1196,1275,0,0
-21,-251,0,0,0,0,0,0,0,0,0,-1,1203,1275,0,0
-14,-251,0,0,0,0,0,0,0,0,0,-1,1210,1275,0,0
-7,-251,0,0,0,0,0,0,0,0,0,-1,1217,1275,0,0
0,-251,0,0,0,0,0,0,0,0,0,-1,1224,1275,0,0
7,-251,0,0,0,0,0,0,0,0,0,-1,1231,1275,0,0
14,-251,0,0,0,0,0,0,0,0,0,-1,1238,1275,0,0
21,-251,0,0,0,0,0,0,0,0,0,-1,1245,1275,0,0
28,-251,0,0,0,0,0,0,0,0,0,-1,1252,1275,0,0
35,-251,0,0,0,0,0,0,0,0,0,-1,1259,1275,0,0
42,-251,0,0,0,0,0,0,0,0,0,-1,1266,1275,0,0
49,-251,0,0,0,0,0,0,0,0,0,-1,1273,1275,0,0
56,-251,0,0,0,0,0,0,0,0,0,-1,1280,1275,0,0
63,-251,0,0,0,0,0,0,0,0,0,-1,1287,1275,0,0
70,-251,0,0,0,0,0,0,0,0,0,-1,1294,1275,0,0
77,-251,0,0,0,0,0,0,0,0,0,-1,1301,1275,0,0
84,-251,0,0,0,0,0,0,0,0,0,-1,1308,1275,0,0
91,-251,0,0,0,0,0,0,0,0,0,-1,1315,1275,0,0
98,-251,0,0,0,0,0,0,0,0,0,-1,1322,1275,0,0
105,-251,0,0,0,0,0,0,0,0,0,-1,1329,1275,0,0
112,-251,0,0,0,0,0,0,0,0,0,-1,1336,1275,0,0
119,-251,0,0,0,0,0,0,0,0,0,-1,1343,1275,0,0
126,-251,0,0,0,0,0,0,0,0,0,-1,1350,1275,0,0
133,-251,0,0,0,0,0,0,0,0,0,-1,1357,1275,0,0
140,-251,0,0,0,0,0,0,0,0,0,-1,1364,1275,0,0
147,-251,0,0,0,0,0,0,0,0,0,-1,1371,1275,0,0
154,-251,0,0,0,0,0,0,0,0,0,-1,1378,1275,0,0
161,-251,0,0,0,0,0,0,0,0,0,-1,1385,1275,0,0
168,-251,0,0,0,0,0,0,0,0,0,-1,1392,1275,0,0
175,-251,0,0,0,0,0,0,0,0,0,-1,1399,1275,0,0
182,-251,0,0,0,0,0,0,0,0,0,-1,1406,1275,0,0
189,-251,0,0,0,0,0,0,0,0,0,-1,1413,1275,0,0
196,-251,0,0,0,0,0,0,0,0,0,-1,1420,1275,0,0
203,-251,0,0,0,0,0,0,0,0,0,-1,1427,1275,0,0
210,-251,0,0,0,0,0,0,0,0,0,-1,1434,1275,0,0
217,-251,0,0,0,0,0,0,0,0,0,-1,1441,1275,0,0
224,-251,0,0,0,0,0,0,0,0,0,-1,1448,1275,0,0
231,-251,0,0,0,0,0,0,0,0,0,-1,1455,1275,0,0
238,-251,0,0,0,0,0,0,0,0,0,-1,1462,1275,0,0
245,-251,0,0,0,0,0,0,0,0,0,-1,1469,1275,0,0
252,-251,0,0,0,0,0,0,0,0,0,-1,1476,1275,0,0
259,-251,0,0,0,0,0,0,0,0,0,-1,1483,1275,0,0
266,-251,0,0,0,0,0,0,0,0,0,-1,1490,1275,0,0
273,-251,0,0,0,0,0,0,0,0,0,-1,1497,1275,0,0
280,-251,0,0,0,0,0,0,0,0,0,-1,1504,1275,0,0
287,-251,0,0,0,0,0,0,0,0,0,-1,1511,1275,0,0
294,-251,0,0,0,0,0,0,0,0,0,-1,1518,1275,0,0
301,-251,0,0,0,0,0,0,0,0,0,-1,1525,1275,0,0
308,-251,0,0,0,0,0,0,0,0,0,-1,1532,1275,0,0
315,-251,0,0,0,0,0,0,0,0,0,-1,1539,1275,0,0
322,-251,0,0,0,0,0,0,0,0,0,-1,1546,1275,0,0
329,-251,0,0,0,0,0,0,0,0,0,-1,1553,1275,0,0
336,-251,0,0,0,0,0,0,0,0,0,-1,1560,1275,0,0
343,-251,0,0,0,0,0,0,0,0,0,-1,1567,1275,0,0
350,-251,0,0,0,0,0,0,0,0,0,-1,1574,1275,0,0
357,-251,0,0,0,0,0,0,0,0,0,-1,1581,1275,0,0
364,-251,0,0,0,0,0,0,0,0,0,-1,1588,1275,0,0
371,-251,0,0,0,0,0,0,0,0,0,-1,1595,1275,0,0
378,-251,0,0,0,0,0,0,0,0,0,-1,1602,1275,0,0
385,-251,0,0,0,0,0,0,0,0,0,-1,1609,1275,0,0
392,-251,0,0,0,0,0,0,0,0,0,-1,1616,1275,0,0
399,-251,0,0,0,0,0,0,0,0,0,-1,1623,1275,0,0
406,-251,0,0,0,0,0,0,0,0,0,-1,1630,1275,0,0
413,-251,0,0,0,0,0,0,0,0,0,-1,1637,1275,0,0
420,-251,0,0,0,0,0,0,0,0,0,-1,1644,1275,0,0
427,-251,0,0,0,0,0,0,0,0,0,-1,1651,1275,0,0
434,-251,0,0,0,0,0,0,0,0,0,-1,1658,1275,0,0
441,-251,0,0,0,0,0,0,0,0,0,-1,1665,1275,0,0
448,-251,0,0,0,0,0,0,0,0,0,-1,1672,1275,0,0
455,-251,0,0,0,0,0,0,0,0,0,-1,1679,1275,0,0
462,-251,0,0,0,0,0,0,0,0,0,-1,1686,1275,0,0
469,-251,0,0,0,0,0,0,0,0,0,-1,1693,1275,0,0
476,-251,0,0,0,0,0,0,0,0,0,-1,1700,1275,0,0
483,-251,0,0,0,0,0,0,0,0,0,-1,1707,1275,0,0
490,-251,0,0,0,0,0,0,0,0,0,-1,1714,1275,0,0
497,-251,0,0,0,0,0,0,0,0,0,-1,1721,1275,0,0
504,-251,0,0,0,0,0,0,0,0,0,-1,1728,1275,0,0
511,-251,0,0,0,0,0,0,0,0,0,-1,1735,1275,0,0
518,-251,0,0,0,0,0,0,0,0,0,-1,1742,1275,0,0
525,-251,0,0,0,0,0,0,0,0,0,-1,1749,1275,0,0
532,-251,0,0,0,0,0,0,0,0,0,-1,1756,1275,0,0
539,-251,0,0,0,0,0,0,0,0,0,-1,1763,1275,0,0
546,-251,0,0,0,0,0,0,0,0,0,-1,1770,1275,0,0
553,-251,0,0,0,0,0,0,0,0,0,-1,1777,1275,0,0
560,-251,0,0,0,0,0,0,0,0,0,-1,1784,1275,0,0
567,-251,0,0,0,0,0,0,0,0,0,-1,1791,1275,0,0
574,-251,0,0,0,0,0,0,0,0,0,-1,1798,1275,0,0
581,-251,0,0,0,0,0,0,0,0,0,-1,1805,1275,0,0
588,-251,0,0,0,0,0,0,0,0,0,-1,1812,1275,0,0
595,-251,0,0,0,0,0,0,0,0,0,-1,1819,1275,0,0
602,-251,0,0,0,0,0,0,0,0,0,-1,1826,1275,0,0
609,-251,24.0082,2.75745,0.0030718,0.00160621,-0.00244962,0.00489588,-0.000217867,-0.640061,0.00333891,0.0286915,1833,1275,24.0082,-2.75741
616,-251,24.007,2.70813,-0.000541426,0.0090672,-0.00531566,0.0114279,-0.00290214,-1.15285,0.00874796,0.025593,1840,1275,24.007,-2.70811
623,-251,23.9821,2.73804,-0.00443749,0.0153537,-0.00732544,0.0177701,-0.00685388,-1.25217,0.0146749,0.0236159,1847,1275,23.9821,-2.73798
630,-251,23.9763,2.72937,-0.00773572,0.0193905,-0.00815734,0.0216546,-0.00999981,-1.30006,0.018684,0.0350933,1854,1275,23.9763,-2.72942
637,-251,23.7623,2.2998,-0.00946714,0.0201627,-0.00765248,0.0220224,-0.0113268,-1.3324,0.0195815,0.0399,1861,1275,23.7624,-2.29982
644,-251,23.6674,2.12646,-0.00974617,0.0190182,-0.00665644,0.0204839,-0.0112119,-1.35406,0.0185587,0.0455785,1868,1275,23.6673,-2.12648
651,-251,23.2738,1.45972,-0.00925043,0.0171544,-0.00557713,0.0182841,-0.0103801,-1.37095,0.0167577,0.0484178,1875,1275,23.2738,-1.45966
658,-251,23.5168,0.807983,0,0,0,0,0,0,0,-1,1882,1275,23.5168,-0.808013
665,-251,19.865,2.42078,0,0,0,0,0,0,0,-1,1889,1275,19.865,-2.42081
672,-251,18.2826,5.42896,0,0,0,0,0,0,0,-1,1896,1275,18.2827,-5.42892
679,-251,19.3722,6.10413,0,0,0,0,0,0,0,-1,1903,1275,19.3722,-6.10413
686,-251,19.4094,5.99084,-0.00499031,0.00706941,-0.00102749,0.00715633,-0.00507722,-1.48641,0.00709696,0.0283303,1910,1275,19.4095,-5.99086
693,-251,19.4382,5.80615,-0.00344143,0.00489507,-0.000414006,0.00491558,-0.00346194,-1.5213,0.00486098,0.0102096,1917,1275,19.4382,-5.80612
700,-251,19.4374,5.5918,-0.00176857,0.00268992,0.000172867,0.00269661,-0.00177526,1.5321,0.00260004,0.00895657,1924,1275,19.4373,-5.59183
707,-251,19.4487,5.38525,-0.000162485,0.000975411,0.000359162,0.00107929,-0.000266366,1.28925,0.000822816,0.0107415,1931,1275,19.4487,-5.38524
714,-251,19.4628,5.17908,0.000607945,0.000182271,3.2715e-05,0.000610444,0.000179771,0.0762578,0.000362227,0.0118612,1938,1275,19.4628,-5.17903
721,-251,19.4084,4.97766,0.00142711,0.000653431,-0.000736951,0.00187258,0.000207959,-0.543706,0.00118517,0.0132311,1945,1275,19.4084,-4.97765
728,-251,19.4088,4.77771,0.0023329,0.00129334,-0.00160545,0.00350062,0.000125617,-0.628843,0.00229302,0.0148136,1952,1275,19.4088,-4.77776
735,-251,19.4332,4.5636,0.00341661,0.00202138,-0.00255704,0.00536949,6.85002e-05,-0.652228,0.00355704,0.0141748,1959,1275,19.4333,-4.56361
742,-251,19.4659,4.37122,0.00469012,0.00280393,-0.0036349,0.00750228,-8.22777e-06,-0.658469,0.00500426,0.014177,1966,1275,19.4659,-4.37122
749,-251,19.4115,4.18835,0.00634341,0.00356354,-0.00487659,0.0100243,-0.000117331,-0.646569,0.0067223,0.0223999,1973,1275,19.4115,-4.18841
756,-251,19.392,3.9082,0.0086759,0.00426884,-0.00639619,0.0132375,-0.000292742,-0.619512,0.00892417,0.0387215,1980,1275,19.3919,-3.90818
763,-251,19.3237,3.1051,0,0,0,0,0,0,0,-1,1987,1275,19.3238,-3.10513
770,-251,19.3735,4.21472,0,0,0,0,0,0,0,-1,1994,1275,19.3736,-4.21471
777,-251,19.1736,4.26062,0,0,0,0,0,0,0,-1,2001,1275,19.1736,-4.26064
784,-251,25.0916,-3.21191,0,0,0,0,0,0,0,-1,2008,1275,25.0916,3.21186
791,-251,0,0,0,0,0,0,0,0,0,-1,2015,1275,0,0
798,-251,0,0,0,0,0,0,0,0,0,-1,2022,1275,0,0
805,-251,0,0,0,0,0,0,0,0,0,-1,2029,1275,0,0
812,-251,0,0,0,0,0,0,0,0,0,-1,2036,1275,0,0
-700,-258,0,0,0,0,0,0,0,0,0,-1,524,1282,0,0
-693,-258,0,0,0,0,0,0,0,0,0,-1,531,1282,0,0
-686,-258,0,0,0,0,0,0,0,0,0,-1,538,1282,0,0
-679,-258,0,0,0,0,0,0,0,0,0,-1,545,1282,0,0
-672,-258,0,0,0,0,0,0,0,0,0,-1,552,1282,0,0
-665,-258,-12.2534,0.151611,0,0,0,0,0,0,0,-1,559,1282,-12.2533,-0.151659
-658,-258,-11.4107,0.401489,0,0,0,0,0,0,0,-1,566,1282,-11.4107,-0.401544
-651,-258,-11.1243,-0.0887451,0,0,0,0,0,0,0,-1,573,1282,-11.1243,0.0887461
-644,-258,-8.53717,0.824341,0,0,0,0,0,0,0,-1,580,1282,-8.53717,-0.824366
-637,-258,-11.1409,1.04736,0,0,0,0,0,0,0,-1,587,1282,-11.1409,-1.04734
-630,-258,-11.1331,1.25317,0,0,0,0,0,0,0,-1,594,1282,-11.133,-1.25322
-623,-258,-11.0306,1.45483,0.00339952,0.0154899,0.00756457,0.019128,-0.000238635,1.12251,0.0128323,0.0485369,601,1282,-11.0306,-1.45485
-616,-258,-10.9553,1.78076,0.00192345,0.0115538,0.00600236,0.0144337,-0.000956465,1.12344,0.0099566,0.0320406,608,1282,-10.9553,-1.78072
-609,-258,-10.9694,2.03174,0.000538564,0.00865146,0.00464594,0.0107626,-0.0015726,1.14428,0.00775264,0.0181244,615,1282,-10.9694,-2.03171
-602,-258,-10.9588,2.2627,0.00100619,0.00605693,0.00351985,0.00786363,-0.000800514,1.09657,0.00552861,0.0143207,622,1282,-10.9588,-2.26266
-595,-258,-10.9532,2.49841,0.00160589,0.00392065,0.00275368,0.00575029,-0.000223746,0.984341,0.00391024,0.0110011,629,1282,-10.9532,-2.49838
-588,-258,-10.9698,2.7439,0.00236287,0.00261655,0.00226916,0.00476241,0.000217009,0.813317,0.00310513,0.0123191,636,1282,-10.9699,-2.7439
-581,-258,-10.9553,2.96838,0.00329928,0.00143321,0.00198392,0.00455862,0.000173878,0.565595,0.00298281,0.0145827,643,1282,-10.9553,-2.96842
-574,-258,-10.925,3.20813,0.00378653,0.000901153,0.00148581,0.00441482,0.000272854,0.400062,0.00285661,0.0144016,650,1282,-10.925,-3.20807
-567,-258,-10.9365,3.46045,0.00344511,0.000161322,0.0010597,0.00375738,-0.000150953,0.286572,0.00255673,0.0135437,657,1282,-10.9365,-3.46044
-560,-258,-10.9418,3.68323,0.00249922,-0.0011133,0.000760228,0.00265269,-0.00126676,0.19919,0.00230957,0.0220638,664,1282,-10.9418,-3.68328
-553,-258,-10.8718,3.86145,0.00101681,-0.00183786,0.000400412,0.00107192,-0.00189296,0.136751,0.00173351,0.0354797,671,1282,-10.8718,-3.86149
-546,-258,-10.9349,3.73572,0,0,0,0,0,0,0,-1,678,1282,-10.9349,-3.73566
-539,-258,-10.2228,4.05823,0,0,0,0,0,0,0,-1,685,1282,-10.2228,-4.05823
-532,-258,-10.2173,-0.353882,0,0,0,0,0,0,0,-1,692,1282,-10.2173,0.353836
-525,-258,-15.8561,1.55481,0,0,0,0,0,0,0,-1,699,1282,-15.8561,-1.55484
-518,-258,-16.1073,1.75671,0,0,0,0,0,0,0,-1,706,1282,-16.1073,-1.7567
-511,-258,-16.3585,1.9585,0,0,0,0,0,0,0,-1,713,1282,-16.3585,-1.95855
-504,-258,-14.306,-0.358765,0,0,0,0,0,0,0,-1,720,1282,-14.306,0.358785
-497,-258,-16.1884,0.818359,0,0,0,0,0,0,0,-1,727,1282,-16.1884,-0.818385
-490,-258,-15.4346,0.632935,0,0,0,0,0,0,0,-1,734,1282,-15.4346,-0.632917
-483,-258,0,0,0,0,0,0,0,0,0,-1,741,1282,0,0
-476,-258,0,0,0,0,0,0,0,0,0,-1,748,1282,0,0
-469,-258,0,0,0,0,0,0,0,0,0,-1,755,1282,0,0
-462,-258,0,0,0,0,0,0,0,0,0,-1,762,1282,0,0
-455,-258,0,0,0,0,0,0,0,0,0,-1,769,1282,0,0
-448,-258,0,0,0,0,0,0,0,0,0,-1,776,1282,0,0
-441,-258,0,0,0,0,0,0,0,0,0,-1,783,1282,0,0
-434,-258,0,0,0,0,0,0,0,0,0,-1,790,1282,0,0
-427,-258,0,0,0,0,0,0,0,0,0,-1,797,1282,0,0
-420,-258,0,0,0,0,0,0,0,0,0,-1,804,1282,0,0
-413,-258,0,0,0,0,0,0,0,0,0,-1,811,1282,0,0
-406,-258,0,0,0,0,0,0,0,0,0,-1,818,1282,0,0
-399,-258,0,0,0,0,0,0,0,0,0,-1,825,1282,0,0
-392,-258,0,0,0,0,0,0,0,0,0,-1,832,1282,0,0
-385,-258,0,0,0,0,0,0,0,0,0,-1,839,1282,0,0
-378,-258,0,0,0,0,0,0,0,0,0,-1,846,1282,0,0
-371,-258,0,0,0,0,0,0,0,0,0,-1,853,1282,0,0
-364,-258,0,0,0,0,0,0,0,0,0,-1,860,1282,0,0
-357,-258,0,0,0,0,0,0,0,0,0,-1,867,1282,0,0
-350,-258,0,0,0,0,0,0,0,0,0,-1,874,1282,0,0
-343,-258,0,0,0,0,0,0,0,0,0,-1,881,1282,0,0
-336,-258,0,0,0,0,0,0,0,0,0,-1,888,1282,0,0
-329,-258,0,0,0,0,0,0,0,0,0,-1,895,1282,0,0
-322,-258,0,0,0,0,0,0,0,0,0,-1,902,1282,0,0
-315,-258,0,0,0,0,0,0,0,0,0,-1,909,1282,0,0
-308,-258,0,0,0,0,0,0,0,0,0,-1,916,1282,0,0
-301,-258,0,0,0,0,0,0,0,0,0,-1,923,1282,0,0
-294,-258,0,0,0,0,0,0,0,0,0,-1,930,1282,0,0
-287,-258,0,0,0,0,0,0,0,0,0,-1,937,1282,0,0
-280,-258,0,0,0,0,0,0,0,0,0,-1,944,1282,0,0
-273,-258,0,0,0,0,0,0,0,0,0,-1,951,1282,0,0
-266,-258,0,0,0,0,0,0,0,0,0,-1,958,1282,0,0
-259,-258,0,0,0,0,0,0,0,0,0,-1,965,1282,0,0
-252,-258,0,0,0,0,0,0,0,0,0,-1,972,1282,0,0
-245,-258,0,0,0,0,0,0,0,0,0,-1,979,1282,0,0
-238,-258,0,0,0,0,0,0,0,0,0,-1,986,1282,0,0
-231,-258,0,0,0,0,0,0,0,0,0,-1,993,1282,0,0
-224,-258,0,0,0,0,0,0,0,0,0,-1,1000,1282,0,0
-217,-258,0,0,0,0,0,0,0,0,0,-1,1007,1282,0,0
-210,-258,0,0,0,0,0,0,0,0,0,-1,1014,1282,0,0
-203,-258,0,0,0,0,0,0,0,0,0,-1,1021,1282,0,0
-196,-258,0,0,0,0,0,0,0,0,0,-1,1028,1282,0,0
-189,-258,0,0,0,0,0,0,0,0,0,-1,1035,1282,0,0
-182,-258,0,0,0,0,0,0,0,0,0,-1,1042,1282,0,0
-175,-258,0,0,0,0,0,0,0,0,0,-1,1049,1282,0,0
-168,-258,0,0,0,0,0,0,0,0,0,-1,1056,1282,0,0
-161,-258,0,0,0,0,0,0,0,0,0,-1,1063,1282,0,0
-154,-258,0,0,0,0,0,0,0,0,0,-1,1070,1282,0,0
-147,-258,0,0,0,0,0,0,0,0,0,-1,1077,1282,0,0
-140,-258,0,0,0,0,0,0,0,0,0,-1,1084,1282,0,0
-133,-258,0,0,0,0,0,0,0,0,0,-1,1091,1282,0,0
-126,-258,0,0,0,0,0,0,0,0,0,-1,1098,1282,0,0
-119,-258,0,0,0,0,0,0,0,0,0,-1,1105,1282,0,0
-112,-258,0,0,0,0,0,0,0,0,0,-1,1112,1282,0,0
-105,-258,0,0,0,0,0,0,0,0,0,-1,1119,1282,0,0
-98,-258,0,0,0,0,0,0,0,0,0,-1,1126,1282,0,0
-91,-258,0,0,0,0,0,0,0,0,0,-1,1133,1282,0,0
-84,-258,0,0,0,0,0,0,0,0,0,-1,1140,1282,0,0
-77,-258,0,0,0,0,0,0,0,0,0,-1,1147,1282,0,0
-70,-258,0,0,0,0,0,0,0,0,0,-1,1154,1282,0,0
-63,-258,0,0,0,0,0,0,0,0,0,-1,1161,1282,0,0
-56,-258,0,0,0,0,0,0,0,0,0,-1,1168,1282,0,0
-49,-258,0,0,0,0,0,0,0,0,0,-1,1175,1282,0,0
-42,-258,0,0,0,0,0,0,0,0,0,-1,1182,1282,0,0
-35,-258,0,0,0,0,0,0,0,0,0,-1,1189,1282,0,0
-28,-258,0,0,0,0,0,0,0,0,0,-1,1196,1282,0,0
-21,-258,0,0,0,0,0,0,0,0,0,-1,1203,1282,0,0
-14,-258,0,0,0,0,0,0,0,0,0,-1,1210,1282,0,0
-7,-258,0,0,0,0,0,0,0,0,0,-1,1217,1282,0,0
0,-258,0,0,0,0,0,0,0,0,0,-1,1224,1282,0,0
7,-258,0,0,0,0,0,0,0,0,0,-1,1231,1282,0,0
14,-258,0,0,0,0,0,0,0,0,0,-1,1238,1282,0,0
21,-258,0,0,0,0,0,0,0,0,0,-1,1245,1282,0,0
28,-258,0,0,0,0,0,0,0,0,0,-1,1252,1282,0,0
35,-258,0,0,0,0,0,0,0,0,0,-1,1259,1282,0,0
42,-258,0,0,0,0,0,0,0,0,0,-1,1266,1282,0,0
49,-258,0,0,0,0,0,0,0,0,0,-1,1273,1282,0,0
56,-258,0,0,0,0,0,0,0,0,0,-1,1280,1282,0,0
63,-258,0,0,0,0,0,0,0,0,0,-1,1287,1282,0,0
70,-258,0,0,0,0,0,0,0,0,0,-1,1294,1282,0,0
77,-258,0,0,0,0,0,0,0,0,0,-1,1301,1282,0,0
84,-258,0,0,0,0,0,0,0,0,0,-1,1308,1282,0,0
91,-258,0,0,0,0,0,0,0,0,0,-1,1315,1282,0,0
98,-258,0,0,0,0,0,0,0,0,0,-1,1322,1282,0,0
105,-258,0,0,0,0,0,0,0,0,0,-1,1329,1282,0,0
112,-258,0,0,0,0,0,0,0,0,0,-1,1336,1282,0,0
119,-258,0,0,0,0,0,0,0,0,0,-1,1343,1282,0,0
126,-258,0,0,0,0,0,0,0,0,0,-1,1350,1282,0,0
133,-258,0,0,0,0,0,0,0,0,0,-1,1357,1282,0,0
140,-258,0,0,0,0,0,0,0,0,0,-1,1364,1282,0,0
147,-258,0,0,0,0,0,0,0,0,0,-1,1371,1282,0,0
154,-258,0,0,0,0,0,0,0,0,0,-1,1378,1282,0,0
161,-258,0,0,0,0,0,0,0,0,0,-1,1385,1282,0,0
168,-258,0,0,0,0,0,0,0,0,0,-1,1392,1282,0,0
175,-258,0,0,0,0,0,0,0,0,0,-1,1399,1282,0,0
182,-258,0,0,0,0,0,0,0,0,0,-1,1406,1282,0,0
189,-258,0,0,0,0,0,0,0,0,0,-1,1413,1282,0,0
196,-258,0,0,0,0,0,0,0,0,0,-1,1420,1282,0,0
203,-258,0,0,0,0,0,0,0,0,0,-1,1427,1282,0,0
210,-258,0,0,0,0,0,0,0,0,0,-1,1434,1282,0,0
217,-258,0,0,0,0,0,0,0,0,0,-1,1441,1282,0,0
224,-258,0,0,0,0,0,0,0,0,0,-1,1448,1282,0,0
231,-258,0,0,0,0,0,0,0,0,0,-1,1455,1282,0,0
238,-258,0,0,0,0,0,0,0,0,0,-1,1462,1282,0,0
245,-258,0,0,0,0,0,0,0,0,0,-1,1469,1282,0,0
252,-258,0,0,0,0,0,0,0,0,0,-1,1476,1282,0,0
259,-258,0,0,0,0,0,0,0,0,0,-1,1483,1282,0,0
266,-258,0,0,0,0,0,0,0,0,0,-1,1490,1282,0,0
273,-258,0,0,0,0,0,0,0,0,0,-1,1497,1282,0,0
280,-258,0,0,0,0,0,0,0,0,0,-1,1504,1282,0,0
287,-258,0,0,0,0,0,0,0,0,0,-1,1511,1282,0,0
294,-258,0,0,0,0,0,0,0,0,0,-1,1518,1282,0,0
301,-258,0,0,0,0,0,0,0,0,0,-1,1525,1282,0,0
308,-258,0,0,0,0,0,0,0,0,0,-1,1532,1282,0,0
315,-258,0,0,0,0,0,0,0,0,0,-1,1539,1282,0,0
322,-258,0,0,0,0,0,0,0,0,0,-1,1546,1282,0,0
329,-258,0,0,0,0,0,0,0,0,0,-1,1553,1282,0,0
336,-258,0,0,0,0,0,0,0,0,0,-1,1560,1282,0,0
343,-258,0,0,0,0,0,0,0,0,0,-1,1567,1282,0,0
350,-258,0,0,0,0,0,0,0,0,0,-1,1574,1282,0,0
357,-258,0,0,0,0,0,0,0,0,0,-1,1581,1282,0,0
364,-258,0,0,0,0,0,0,0,0,0,-1,1588,1282,0,0
371,-258,0,0,0,0,0,0,0,0,0,-1,1595,1282,0,0
378,-258,0,0,0,0,0,0,0,0,0,-1,1602,1282,0,0
385,-258,0,0,0,0,0,0,0,0,0,-1,1609,1282,0,0
392,-258,0,0,0,0,0,0,0,0,0,-1,1616,1282,0,0
399,-258,0,0,0,0,0,0,0,0,0,-1,1623,1282,0,0
406,-258,0,0,0,0,0,0,0,0,0,-1,1630,1282,0,0
413,-258,0,0,0,0,0,0,0,0,0,-1,1637,1282,0,0
420,-258,0,0,0,0,0,0,0,0,0,-1,1644,1282,0,0
427,-258,0,0,0,0,0,0,0,0,0,-1,1651,1282,0,0
434,-258,0,0,0,0,0,0,0,0,0,-1,1658,1282,0,0
441,-258,0,0,0,0,0,0,0,0,0,-1,1665,1282,0,0
448,-258,0,0,0,0,0,0,0,0,0,-1,1672,1282,0,0
455,-258,0,0,0,0,0,0,0,0,0,-1,1679,1282,0,0
462,-258,0,0,0,0,0,0,0,0,0,-1,1686,1282,0,0
469,-258,0,0,0,0,0,0,0,0,0,-1,1693,1282,0,0
476,-258,0,0,0,0,0,0,0,0,0,-1,1700,1282,0,0
483,-258,0,0,0,0,0,0,0,0,0,-1,1707,1282,0,0
490,-258,0,0,0,0,0,0,0,0,0,-1,1714,1282,0,0
497,-258,0,0,0,0,0,0,0,0,0,-1,1721,1282,0,0
504,-258,0,0,0,0,0,0,0,0,0,-1,1728,1282,0,0
511,-258,0,0,0,0,0,0,0,0,0,-1,1735,1282,0,0
518,-258,0,0,0,0,0,0,0,0,0,-1,1742,1282,0,0
525,-258,0,0,0,0,0,0,0,0,0,-1,1749,1282,0,0
532,-258,0,0,0,0,0,0,0,0,0,-1,1756,1282,0,0
539,-258,0,0,0,0,0,0,0,0,0,-1,1763,1282,0,0
546,-258,0,0,0,0,0,0,0,0,0,-1,1770,1282,0,0
553,-258,0,0,0,0,0,0,0,0,0,-1,1777,1282,0,0
560,-258,0,0,0,0,0,0,0,0,0,-1,1784,1282,0,0
567,-258,0,0,0,0,0,0,0,0,0,-1,1791,1282,0,0
574,-258,0,0,0,0,0,0,0,0,0,-1,1798,1282,0,0
581,-258,0,0,0,0,0,0,0,0,0,-1,1805,1282,0,0
588,-258,0,0,0,0,0,0,0,0,0,-1,1812,1282,0,0
595,-258,0,0,0,0,0,0,0,0,0,-1,1819,1282,0,0
602,-258,0,0,0,0,0,0,0,0,0,-1,1826,1282,0,0
609,-258,24.0526,2.79871,0.00194214,0.00732827,-0.00577898,0.0110109,-0.00174047,-1.00344,0.00798423,0.023275,1833,1282,24.0527,-2.7987
616,-258,23.9976,2.77771,-0.0016899,0.0149843,-0.0086783,0.0186813,-0.00538692,-1.16807,0.0145853,0.0222243,1840,1282,23.9976,-2.77765
623,-258,23.943,2.73157,-0.00554876,0.0203407,-0.0101336,0.0238355,-0.0090435,-1.2387,0.0196126,0.0336507,1847,1282,23.9431,-2.73154
630,-258,23.7878,2.38843,-0.00849848,0.0225542,-0.0101013,0.0255509,-0.0114952,-1.2824,0.0218957,0.0433866,1854,1282,23.7878,-2.38843
637,-258,23.582,2.04504,-0.00993646,0.0219164,-0.00897038,0.0242688,-0.012289,-1.31432,0.0214811,0.0424944,1861,1282,23.582,-2.04504
644,-258,23.4084,1.7196,-0.0101472,0.0200163,-0.00761236,0.0218285,-0.0119595,-1.33708,0.0197829,0.0443443,1868,1282,23.4085,-1.71959
651,-258,23.3087,1.33252,-0.00973247,0.0177889,-0.00629475,0.0191603,-0.0111039,-1.35628,0.0176782,0.0466043,1875,1282,23.3087,-1.33251
658,-258,23.2101,0.959961,0,0,0,0,0,0,0,-1,1882,1282,23.2101,-0.959949
665,-258,19.6635,2.51111,0,0,0,0,0,0,0,-1,1889,1282,19.6634,-2.51109
672,-258,19.6183,6.28894,0,0,0,0,0,0,0,-1,1896,1282,19.6183,-6.28889
679,-258,19.2717,6.2677,-0.00696968,0.00910692,-0.00190261,0.00932902,-0.00719178,-1.45459,0.00956486,0.0469026,1903,1282,19.2717,-6.26769
686,-258,19.2015,6.05176,-0.00576864,0.00694833,-0.00101851,0.00702939,-0.00584969,-1.49138,0.00744613,0.0286124,1910,1282,19.2016,-6.05182
693,-258,19.2546,5.80774,-0.00398593,0.00469294,-0.000368115,0.00470852,-0.00400151,-1.52848,0.00503426,0.0100837,1917,1282,19.2547,-5.80769
700,-258,19.2421,5.58911,-0.00212752,0.00247897,0.000183345,0.00248625,-0.00213481,1.53108,0.00267054,0.00884864,1924,1282,19.2421,-5.58913
707,-258,19.2566,5.37903,-0.000379082,0.00092323,0.000242719,0.000966996,-0.000422848,1.3924,0.000822671,0.0105074,1931,1282,19.2566,-5.37903
714,-258,19.2563,5.17737,0.00053506,0.000322597,-0.000209263,0.000663511,0.000194146,-0.550526,0.00039391,0.0100065,1938,1282,19.2564,-5.17733
721,-258,19.2316,4.96411,0.00154661,0.000782446,-0.00108072,0.0023108,1.82512e-05,-0.615484,0.00153449,0.011666,1945,1282,19.2316,-4.96408
728,-258,19.2137,4.77417,0.00264351,0.00140441,-0.00208134,0.00419555,-0.00014764,-0.64074,0.00284753,0.0116989,1952,1282,19.2137,-4.77422
735,-258,19.2406,4.58496,0.00390484,0.00214385,-0.00322856,0.00637081,-0.000322125,-0.652275,0.00435855,0.0140539,1959,1282,19.2407,-4.58498
742,-258,19.2744,4.38123,0.00541321,0.00297477,-0.00459089,0.00894402,-0.000556033,-0.655607,0.0061564,0.0156047,1966,1282,19.2745,-4.38128
749,-258,19.2502,4.14124,0.00743987,0.00384378,-0.00626963,0.0121642,-0.000880545,-0.645753,0.00841834,0.0274247,1973,1282,19.2503,-4.14125
756,-258,19.2266,3.76563,0.010275,0.00475012,-0.00838272,0.0163387,-0.00131358,-0.626231,0.0113557,0.0395735,1980,1282,19.2266,-3.76564
763,-258,19.4629,3.15979,0,0,0,0,0,0,0,-1,1987,1282,19.4629,-3.15976
770,-258,19.6359,2.63257,0,0,0,0,0,0,0,-1,1994,1282,19.6359,-2.63263
777,-258,25.1394,-6.48132,0,0,0,0,0,0,0,-1,2001,1282,25.1394,6.48138
784,-258,26.0251,-4.15137,0,0,0,0,0,0,0,-1,2008,1282,26.0252,4.15135
791,-258,0,0,0,0,0,0,0,0,0,-1,2015,1282,0,0
798,-258,0,0,0,0,0,0,0,0,0,-1,2022,1282,0,0
805,-258,0,0,0,0,0,0,0,0,0,-1,2029,1282,0,0
812,-258,0,0,0,0,0,0,0,0,0,-1,2036,1282,0,0
-700,-265,0,0,0,0,0,0,0,0,0,-1,524,1289,0,0
-693,-265,0,0,0,0,0,0,0,0,0,-1,531,1289,0,0
-686,-265,0,0,0,0,0,0,0,0,0,-1,538,1289,0,0
-679,-265,0,0,0,0,0,0,0,0,0,-1,545,1289,0,0
-672,-265,0,0,0,0,0,0,0,0,0,-1,552,1289,0,0
-665,-265,-11.958,0.136719,0,0,0,0,0,0,0,-1,559,1289,-11.958,-0.136669
-658,-265,-11.4376,0.552734,0,0,0,0,0,0,0,-1,566,1289,-11.4376,-0.552784
-651,-265,-8.92523,1.89673,0,0,0,0,0,0,0,-1,573,1289,-8.92521,-1.89673
-644,-265,-8.71112,1.17676,0,0,0,0,0,0,0,-1,580,1289,-8.71112,-1.1768
-637,-265,-8.86444,0.926392,0,0,0,0,0,0,0,-1,587,1289,-8.86443,-0.926412
-630,-265,-9.23767,0.959351,0,0,0,0,0,0,0,-1,594,1289,-9.23766,-0.959309
-623,-265,-10.8046,1.25366,0,0,0,0,0,0,0,-1,601,1289,-10.8046,-1.25361
-616,-265,-10.7883,1.71521,0.00296853,0.0134595,0.00680243,0.016804,-0.000375988,1.11384,0.0113301,0.0387227,608,1289,-10.7883,-1.71521
-609,-265,-10.7136,2.02808,0.00103908,0.0101359,0.00523789,0.0125246,-0.00134961,1.14293,0.00883406,0.0183739,615,1289,-10.7136,-2.02803
-602,-265,-10.7059,2.26001,0.00118856,0.00716972,0.00393529,0.00912182,-0.000763535,1.11031,0.00635104,0.0151887,622,1289,-10.7059,-2.26007
-595,-265,-10.6998,2.52075,0.00158218,0.00477872,0.00302831,0.00660465,-0.000243755,1.02821,0.00448656,0.012007,629,1289,-10.6998,-2.52074
-588,-265,-10.7193,2.76453,0.00220666,0.00328644,0.00239421,0.00520088,0.000292221,0.896292,0.00337407,0.0104405,636,1289,-10.7193,-2.76457
-581,-265,-10.7192,2.98621,0.00305802,0.00199599,0.00195631,0.0045541,0.000499902,0.652873,0.00288391,0.0121307,643,1289,-10.7192,-2.98619
-574,-265,-10.7117,3.24817,0.00363207,0.00133631,0.00140483,0.00429835,0.000670034,0.442858,0.00267039,0.0142243,650,1289,-10.7116,-3.24813
-567,-265,-10.7363,3.49292,0.00354135,0.00054902,0.000936408,0.00381022,0.000280144,0.279613,0.00245211,0.0200463,657,1289,-10.7363,-3.49287
-560,-265,-10.7631,3.72986,0.00286334,-0.000679525,0.000573481,0.00295386,-0.000770041,0.156545,0.00226988,0.0206201,664,1289,-10.7631,-3.72984
-553,-265,-10.6619,4.0155,0.00156502,-0.00143225,0.000162636,0.00157382,-0.00144105,0.0540498,0.0017412,0.0264203,671,1289,-10.6619,-4.01553
-546,-265,-10.593,4.34888,-0.0005484,-0.00224986,-0.000367915,-0.000472252,-0.00232601,-0.20409,0.00141968,0.0382661,678,1289,-10.593,-4.34893
-539,-265,-10.4869,4.67151,0,0,0,0,0,0,0,-1,685,1289,-10.4868,-4.67154
-532,-265,-8.53998,3.41467,0,0,0,0,0,0,0,-1,692,1289,-8.53996,-3.41473
-525,-265,-12.1317,0.514648,0,0,0,0,0,0,0,-1,699,1289,-12.1317,-0.514634
-518,-265,-16.2202,1.87183,0,0,0,0,0,0,0,-1,706,1289,-16.2202,-1.87178
-511,-265,-13.1094,-1.38953,0,0,0,0,0,0,0,-1,713,1289,-13.1095,1.38957
-504,-265,-13.6251,-1.08972,0,0,0,0,0,0,0,-1,720,1289,-13.6251,1.08973
-497,-265,-14.4535,-0.0441895,0,0,0,0,0,0,0,-1,727,1289,-14.4535,0.0442016
-490,-265,-15.1696,0.492676,0,0,0,0,0,0,0,-1,734,1289,-15.1696,-0.492688
-483,-265,0,0,0,0,0,0,0,0,0,-1,741,1289,0,0
-476,-265,0,0,0,0,0,0,0,0,0,-1,748,1289,0,0
-469,-265,0,0,0,0,0,0,0,0,0,-1,755,1289,0,0
-462,-265,0,0,0,0,0,0,0,0,0,-1,762,1289,0,0
-455,-265,0,0,0,0,0,0,0,0,0,-1,769,1289,0,0
-448,-265,0,0,0,0,0,0,0,0,0,-1,776,1289,0,0
-441,-265,0,0,0,0,0,0,0,0,0,-1,783,1289,0,0
-434,-265,0,0,0,0,0,0,0,0,0,-1,790,1289,0,0
-427,-265,0,0,0,0,0,0,0,0,0,-1,797,1289,0,0
-420,-265,0,0,0,0,0,0,0,0,0,-1,804,1289,0,0
-413,-265,0,0,0,0,0,0,0,0,0,-1,811,1289,0,0
-406,-265,0,0,0,0,0,0,0,0,0,-1,818,1289,0,0
-399,-265,0,0,0,0,0,0,0,0,0,-1,825,1289,0,0
-392,-265,0,0,0,0,0,0,0,0,0,-1,832,1289,0,0
-385,-265,0,0,0,0,0,0,0,0,0,-1,839,1289,0,0
-378,-265,0,0,0,0,0,0,0,0,0,-1,846,1289,0,0
-371,-265,0,0,0,0,0,0,0,0,0,-1,853,1289,0,0
-364,-265,0,0,0,0,0,0,0,0,0,-1,860,1289,0,0
-357,-265,0,0,0,0,0,0,0,0,0,-1,867,1289,0,0
-350,-265,0,0,0,0,0,0,0,0,0,-1,874,1289,0,0
-343,-265,0,0,0,0,0,0,0,0,0,-1,881,1289,0,0
-336,-265,0,0,0,0,0,0,0,0,0,-1,888,1289,0,0
-329,-265,0,0,0,0,0,0,0,0,0,-1,895,1289,0,0
-322,-265,0,0,0,0,0,0,0,0,0,-1,902,1289,0,0
-315,-265,0,0,0,0,0,0,0,0,0,-1,909,1289,0,0
-308,-265,0,0,0,0,0,0,0,0,0,-1,916,1289,0,0
-301,-265,0,0,0,0,0,0,0,0,0,-1,923,1289,0,0
-294,-265,0,0,0,0,0,0,0,0,0,-1,930,1289,0,0
-287,-265,0,0,0,0,0,0,0,0,0,-1,937,1289,0,0
-280,-265,0,0,0,0,0,0,0,0,0,-1,944,1289,0,0
-273,-265,0,0,0,0,0,0,0,0,0,-1,951,1289,0,0
-266,-265,0,0,0,0,0,0,0,0,0,-1,958,1289,0,0
-259,-265,0,0,0,0,0,0,0,0,0,-1,965,1289,0,0
-252,-265,0,0,0,0,0,0,0,0,0,-1,972,1289,0,0
-245,-265,0,0,0,0,0,0,0,0,0,-1,979,1289,0,0
-238,-265,0,0,0,0,0,0,0,0,0,-1,986,1289,0,0
-231,-265,0,0,0,0,0,0,0,0,0,-1,993,1289,0,0
-224,-265,0,0,0,0,0,0,0,0,0,-1,1000,1289,0,0
-217,-265,0,0,0,0,0,0,0,0,0,-1,1007,1289,0,0
-210,-265,0,0,0,0,0,0,0,0,0,-1,1014,1289,0,0
-203,-265,0,0,0,0,0,0,0,0,0,-1,1021,1289,0,0
-196,-265,0,0,0,0,0,0,0,0,0,-1,1028,1289,0,0
-189,-265,0,0,0,0,0,0,0,0,0,-1,1035,1289,0,0
-182,-265,0,0,0,0,0,0,0,0,0,-1,1042,1289,0,0
-175,-265,0,0,0,0,0,0,0,0,0,-1,1049,1289,0,0
-168,-265,0,0,0,0,0,0,0,0,0,-1,1056,1289,0,0
-161,-265,0,0,0,0,0,0,0,0,0,-1,1063,1289,0,0
-154,-265,0,0,0,0,0,0,0,0,0,-1,1070,1289,0,0
-147,-265,0,0,0,0,0,0,0,0,0,-1,1077,1289,0,0
-140,-265,0,0,0,0,0,0,0,0,0,-1,1084,1289,0,0
-133,-265,0,0,0,0,0,0,0,0,0,-1,1091,1289,0,0
-126,-265,0,0,0,0,0,0,0,0,0,-1,1098,1289,0,0
-119,-265,0,0,0,0,0,0,0,0,0,-1,1105,1289,0,0
-112,-265,0,0,0,0,0,0,0,0,0,-1,1112,1289,0,0
-105,-265,0,0,0,0,0,0,0,0,0,-1,1119,1289,0,0
-98,-265,0,0,0,0,0,0,0,0,0,-1,1126,1289,0,0
-91,-265,0,0,0,0,0,0,0,0,0,-1,1133,1289,0,0
-84,-265,0,0,0,0,0,0,0,0,0,-1,1140,1289,0,0
-77,-265,0,0,0,0,0,0,0,0,0,-1,1147,1289,0,0
-70,-265,0,0,0,0,0,0,0,0,0,-1,1154,1289,0,0
-63,-265,0,0,0,0,0,0,0,0,0,-1,1161,1289,0,0
-56,-265,0,0,0,0,0,0,0,0,0,-1,1168,1289,0,0
-49,-265,0,0,0,0,0,0,0,0,0,-1,1175,1289,0,0
-42,-265,0,0,0,0,0,0,0,0,0,-1,1182,1289,0,0
-35,-265,0,0,0,0,0,0,0,0,0,-1,1189,1289,0,0
-28,-265,0,0,0,0,0,0,0,0,0,-1,1196,1289,0,0
-21,-265,0,0,0,0,0,0,0,0,0,-1,1203,1289,0,0
-14,-265,0,0,0,0,0,0,0,0,0,-1,1210,1289,0,0
-7,-265,0,0,0,0,0,0,0,0,0,-1,1217,1289,0,0
0,-265,0,0,0,0,0,0,0,0,0,-1,1224,1289,0,0
7,-265,0,0,0,0,0,0,0,0,0,-1,1231,1289,0,0
14,-265,0,0,0,0,0,0,0,0,0,-1,1238,1289,0,0
21,-265,0,0,0,0,0,0,0,0,0,-1,1245,1289,0,0
28,-265,0,0,0,0,0,0,0,0,0,-1,1252,1289,0,0
35,-265,0,0,0,0,0,0,0,0,0,-1,1259,1289,0,0
42,-265,0,0,0,0,0,0,0,0,0,-1,1266,1289,0,0
49,-265,0,0,0,0,0,0,0,0,0,-1,1273,1289,0,0
56,-265,0,0,0,0,0,0,0,0,0,-1,1280,1289,0,0
63,-265,0,0,0,0,0,0,0,0,0,-1,1287,1289,0,0
70,-265,0,0,0,0,0,0,0,0,0,-1,1294,1289,0,0
77,-265,0,0,0,0,0,0,0,0,0,-1,1301,1289,0,0
84,-265,0,0,0,0,0,0,0,0,0,-1,1308,1289,0,0
91,-265,0,0,0,0,0,0,0,0,0,-1,1315,1289,0,0
98,-265,0,0,0,0,0,0,0,0,0,-1,1322,1289,0,0
105,-265,0,0,0,0,0,0,0,0,0,-1,1329,1289,0,0
112,-265,0,0,0,0,0,0,0,0,0,-1,1336,1289,0,0
119,-265,0,0,0,0,0,0,0,0,0,-1,1343,1289,0,0
126,-265,0,0,0,0,0,0,0,0,0,-1,1350,1289,0,0
133,-265,0,0,0,0,0,0,0,0,0,-1,1357,1289,0,0
140,-265,0,0,0,0,0,0,0,0,0,-1,1364,1289,0,0
147,-265,0,0,0,0,0,0,0,0,0,-1,1371,1289,0,0
154,-265,0,0,0,0,0,0,0,0,0,-1,1378,1289,0,0
161,-265,0,0,0,0,0,0,0,0,0,-1,1385,1289,0,0
168,-265,0,0,0,0,0,0,0,0,0,-1,1392,1289,0,0
175,-265,0,0,0,0,0,0,0,0,0,-1,1399,1289,0,0
182,-265,0,0,0,0,0,0,0,0,0,-1,1406,1289,0,0
189,-265,0,0,0,0,0,0,0,0,0,-1,1413,1289,0,0
196,-265,0,0,0,0,0,0,0,0,0,-1,1420,1289,0,0
203,-265,0,0,0,0,0,0,0,0,0,-1,1427,1289,0,0
210,-265,0,0,0,0,0,0,0,0,0,-1,1434,1289,0,0
217,-265,0,0,0,0,0,0,0,0,0,-1,1441,1289,0,0
224,-265,0,0,0,0,0,0,0,0,0,-1,1448,1289,0,0
231,-265,0,0,0,0,0,0,0,0,0,-1,1455,1289,0,0
238,-265,0,0,0,0,0,0,0,0,0,-1,1462,1289,0,0
245,-265,0,0,0,0,0,0,0,0,0,-1,1469,1289,0,0
252,-265,0,0,0,0,0,0,0,0,0,-1,1476,1289,0,0
259,-265,0,0,0,0,0,0,0,0,0,-1,1483,1289,0,0
266,-265,0,0,0,0,0,0,0,0,0,-1,1490,1289,0,0
273,-265,0,0,0,0,0,0,0,0,0,-1,1497,1289,0,0
280,-265,0,0,0,0,0,0,0,0,0,-1,1504,1289,0,0
287,-265,0,0,0,0,0,0,0,0,0,-1,1511,1289,0,0
294,-265,0,0,0,0,0,0,0,0,0,-1,1518,1289,0,0
301,-265,0,0,0,0,0,0,0,0,0,-1,1525,1289,0,0
308,-265,0,0,0,0,0,0,0,0,0,-1,1532,1289,0,0
315,-265,0,0,0,0,0,0,0,0,0,-1,1539,1289,0,0
322,-265,0,0,0,0,0,0,0,0,0,-1,1546,1289,0,0
329,-265,0,0,0,0,0,0,0,0,0,-1,1553,1289,0,0
336,-265,0,0,0,0,0,0,0,0,0,-1,1560,1289,0,0
343,-265,0,0,0,0,0,0,0,0,0,-1,1567,1289,0,0
350,-265,0,0,0,0,0,0,0,0,0,-1,1574,1289,0,0
357,-265,0,0,0,0,0,0,0,0,0,-1,1581,1289,0,0
364,-265,0,0,0,0,0,0,0,0,0,-1,1588,1289,0,0
371,-265,0,0,0,0,0,0,0,0,0,-1,1595,1289,0,0
378,-265,0,0,0,0,0,0,0,0,0,-1,1602,1289,0,0
385,-265,0,0,0,0,0,0,0,0,0,-1,1609,1289,0,0
392,-265,0,0,0,0,0,0,0,0,0,-1,1616,1289,0,0
399,-265,0,0,0,0,0,0,0,0,0,-1,1623,1289,0,0
406,-265,0,0,0,0,0,0,0,0,0,-1,1630,1289,0,0
413,-265,0,0,0,0,0,0,0,0,0,-1,1637,1289,0,0
420,-265,0,0,0,0,0,0,0,0,0,-1,1644,1289,0,0
427,-265,0,0,0,0,0,0,0,0,0,-1,1651,1289,0,0
434,-265,0,0,0,0,0,0,0,0,0,-1,1658,1289,0,0
441,-265,0,0,0,0,0,0,0,0,0,-1,1665,1289,0,0
448,-265,0,0,0,0,0,0,0,0,0,-1,1672,1289,0,0
455,-265,0,0,0,0,0,0,0,0,0,-1,1679,1289,0,0
462,-265,0,0,0,0,0,0,0,0,0,-1,1686,1289,0,0
469,-265,0,0,0,0,0,0,0,0,0,-1,1693,1289,0,0
476,-265,0,0,0,0,0,0,0,0,0,-1,1700,1289,0,0
483,-265,0,0,0,0,0,0,0,0,0,-1,1707,1289,0,0
490,-265,0,0,0,0,0,0,0,0,0,-1,1714,1289,0,0
497,-265,0,0,0,0,0,0,0,0,0,-1,1721,1289,0,0
504,-265,0,0,0,0,0,0,0,0,0,-1,1728,1289,0,0
511,-265,0,0,0,0,0,0,0,0,0,-1,1735,1289,0,0
518,-265,0,0,0,0,0,0,0,0,0,-1,1742,1289,0,0
525,-265,0,0,0,0,0,0,0,0,0,-1,1749,1289,0,0
532,-265,0,0,0,0,0,0,0,0,0,-1,1756,1289,0,0
539,-265,0,0,0,0,0,0,0,0,0,-1,1763,1289,0,0
546,-265,0,0,0,0,0,0,0,0,0,-1,1770,1289,0,0
553,-265,0,0,0,0,0,0,0,0,0,-1,1777,1289,0,0
560,-265,0,0,0,0,0,0,0,0,0,-1,1784,1289,0,0
567,-265,0,0,0,0,0,0,0,0,0,-1,1791,1289,0,0
574,-265,0,0,0,0,0,0,0,0,0,-1,1798,1289,0,0
581,-265,0,0,0,0,0,0,0,0,0,-1,1805,1289,0,0
588,-265,0,0,0,0,0,0,0,0,0,-1,1812,1289,0,0
595,-265,0,0,0,0,0,0,0,0,0,-1,1819,1289,0,0
602,-265,23.9946,2.78992,0.00360091,0.00703747,-0.00645297,0.011997,-0.00135864,-0.915518,0.00848722,0.0249123,1826,1289,23.9947,-2.78996
609,-265,24.0341,2.7699,0.000612634,0.0136652,-0.00910925,0.0183448,-0.00406691,-1.09624,0.0137869,0.0249054,1833,1289,24.0341,-2.76995
616,-265,23.9607,2.73413,-0.00287733,0.0206869,-0.0115951,0.0254355,-0.00762594,-1.1821,0.0199899,0.0304712,1840,1289,23.9607,-2.73411
623,-265,23.8809,2.47522,-0.00649042,0.0242142,-0.0120903,0.0284033,-0.0106796,-1.23725,0.0233251,0.04208,1847,1289,23.8809,-2.47526
630,-265,23.8148,2.1145,-0.00897937,0.0244008,-0.0111818,0.0278003,-0.0123789,-1.27566,0.0237602,0.0441913,1854,1289,23.8148,-2.11451
637,-265,23.6573,1.83655,-0.0101482,0.0225763,-0.00958947,0.0251793,-0.0127512,-1.30574,0.0222876,0.0459955,1861,1289,23.6573,-1.83656
644,-265,23.3456,1.61182,-0.0103486,0.020103,-0.00798683,0.0220706,-0.0123162,-1.32925,0.0201177,0.0443894,1868,1289,23.3456,-1.6118
651,-265,22.6769,1.16614,-0.0100605,0.0176201,-0.00651918,0.0190786,-0.011519,-1.35069,0.0178444,0.0467471,1875,1289,22.6769,-1.16609
658,-265,21.8064,0.862915,0,0,0,0,0,0,0,-1,1882,1289,21.8064,-0.862856
665,-265,18.2394,2.09839,0,0,0,0,0,0,0,-1,1889,1289,18.2394,-2.09836
672,-265,19.0726,6.1637,0,0,0,0,0,0,0,-1,1896,1289,19.0726,-6.16365
679,-265,19.0547,6.15674,-0.0077425,0.0084351,-0.00167757,0.00860723,-0.00791463,-1.46855,0.0095417,0.0450164,1903,1289,19.0547,-6.1567
686,-265,19.0333,6.03442,-0.00642875,0.00619811,-0.000766896,0.00624452,-0.00647515,-1.51036,0.00734411,0.0172998,1910,1289,19.0333,-6.03441
693,-265,19.0349,5.82556,-0.00438846,0.00398405,-0.000167869,0.00398742,-0.00439182,-1.55076,0.00483963,0.00949075,1917,1289,19.035,-5.82562
700,-265,19.0303,5.60364,-0.0023268,0.00193338,0.000211807,0.00194388,-0.0023373,1.52124,0.00247522,0.0100348,1924,1289,19.0303,-5.60358
707,-265,19.0529,5.37146,-0.000398069,0.000647568,-2.95085e-05,0.0006484,-0.000398901,-1.54261,0.000610352,0.0100007,1931,1289,19.0528,-5.37146
714,-265,19.0471,5.17249,0.000802382,0.000245967,-0.000866079,0.00143384,-0.000385492,-0.629991,0.001107,0.00906669,1938,1289,19.0472,-5.17253
721,-265,19.0345,4.97302,0.00213298,0.000611221,-0.00215285,0.00365546,-0.000911257,-0.615536,0.00279076,0.00868035,1945,1289,19.0346,-4.97302
728,-265,19.0176,4.7832,0.00356525,0.00109864,-0.00365403,0.0061885,-0.00152461,-0.622642,0.00471673,0.0121605,1952,1289,19.0175,-4.78322
735,-265,19.0264,4.58264,0.00519821,0.00169922,-0.00542525,0.00914907,-0.00225164,-0.629426,0.00697219,0.0157787,1959,1289,19.0263,-4.58263
742,-265,19.0721,4.36426,0.00718367,0.00239259,-0.00758058,0.0127382,-0.00316196,-0.632358,0.00971912,0.0190705,1966,1289,19.0721,-4.3643
749,-265,19.1019,4.12195,0.00986639,0.0031357,-0.0103112,0.0173476,-0.00434547,-0.62766,0.0132532,0.0389411,1973,1289,19.1019,-4.12199
756,-265,19.2861,3.35425,0.013524,0.00393482,-0.0137241,0.0232669,-0.00580815,-0.617349,0.0177667,0.0433598,1980,1289,19.2861,-3.35422
763,-265,19.7239,2.55444,0,0,0,0,0,0,0,-1,1987,1289,19.7238,-2.5545
770,-265,25.5658,-9.08252,0,0,0,0,0,0,0,-1,1994,1289,25.5658,9.08255
777,-265,25.9467,-7.92969,0,0,0,0,0,0,0,-1,2001,1289,25.9466,7.9297
784,-265,0,0,0,0,0,0,0,0,0,-1,2008,1289,0,0
791,-265,0,0,0,0,0,0,0,0,0,-1,2015,1289,0,0
798,-265,0,0,0,0,0,0,0,0,0,-1,2022,1289,0,0
805,-265,0,0,0,0,0,0,0,0,0,-1,2029,1289,0,0
812,-265,0,0,0,0,0,0,0,0,0,-1,2036,1289,0,0
-700,-272,0,0,0,0,0,0,0,0,0,-1,524,1296,0,0
-693,-272,0,0,0,0,0,0,0,0,0,-1,531,1296,0,0
-686,-272,0,0,0,0,0,0,0,0,0,-1,538,1296,0,0
-679,-272,0,0,0,0,0,0,0,0,0,-1,545,1296,0,0
-672,-272,0,0,0,0,0,0,0,0,0,-1,552,1296,0,0
-665,-272,0,0,0,0,0,0,0,0,0,-1,559,1296,0,0
-658,-272,-8.40375,1.85242,0,0,0,0,0,0,0,-1,566,1296,-8.40377,-1.85236
-651,-272,-8.47388,1.39905,0,0,0,0,0,0,0,-1,573,1296,-8.47385,-1.39906
-644,-272,-8.65552,0.963867,0,0,0,0,0,0,0,-1,580,1296,-8.65549,-0.963918
-637,-272,-8.84583,0.672974,0,0,0,0,0,0,0,-1,587,1296,-8.84585,-0.672958
-630,-272,-9.08948,0.633789,0,0,0,0,0,0,0,-1,594,1296,-9.08949,-0.633793
-623,-272,-10.3976,1.52747,0,0,0,0,0,0,0,-1,601,1296,-10.3977,-1.52751
-616,-272,-10.3879,1.83704,0.00381869,0.0158672,0.00775925,0.0196663,1.9636e-05,1.11549,0.0131043,0.0391248,608,1296,-10.3879,-1.83698
-609,-272,-10.4147,2.08691,0.00141918,0.0119523,0.00590629,0.0145991,-0.0012276,1.1495,0.0101666,0.0208415,615,1296,-10.4148,-2.08686
-602,-272,-10.4536,2.25671,0.00123439,0.00847837,0.00437461,0.0105358,-0.000823059,1.13118,0.00731369,0.0133244,622,1296,-10.4536,-2.2567
-595,-272,-10.46,2.51648,0.00140335,0.00573885,0.00329119,0.00751205,-0.000369848,1.07661,0.00513576,0.0111847,629,1296,-10.46,-2.51648
-588,-272,-10.4666,2.76465,0.00184553,0.00397089,0.00250238,0.00562688,0.000189538,0.986194,0.0036897,0.0100184,636,1296,-10.4666,-2.76462
-581,-272,-10.4868,3.00403,0.0025196,0.00251258,0.00193049,0.00444658,0.000585595,0.784489,0.00278975,0.00901261,643,1296,-10.4867,-3.00406
-574,-272,-10.4877,3.25757,0.00307299,0.00168009,0.00135523,0.00390025,0.000852834,0.548046,0.00236765,0.0147498,650,1296,-10.4877,-3.25761
-567,-272,-10.4883,3.49316,0.00316993,0.000860418,0.000878015,0.00346582,0.00056453,0.325045,0.00214725,0.0212263,657,1296,-10.4884,-3.49316
-560,-272,-10.506,3.7478,0.00278178,-0.000260231,0.000492828,0.00285963,-0.000338081,0.15667,0.00202853,0.0191634,664,1296,-10.506,-3.74782
-553,-272,-10.4619,4.01135,0.00180561,-0.000942544,8.37014e-05,0.00180816,-0.000945091,0.0304197,0.00161541,0.014221,671,1296,-10.4619,-4.01134
-546,-272,-10.3535,4.28711,-8.347e-05,-0.00169295,-0.000426912,2.27566e-05,-0.00179918,-0.243873,0.00120711,0.0215536,678,1296,-10.3535,-4.28709
-539,-272,-10.344,4.61011,-0.00269537,-0.00296943,-0.00118072,-0.00164375,-0.00402105,-0.727628,0.00233439,0.0488298,685,1296,-10.344,-4.61011
-532,-272,-10.3535,4.90833,0,0,0,0,0,0,0,-1,692,1296,-10.3535,-4.90831
-525,-272,-11.9599,0.0393066,0,0,0,0,0,0,0,-1,699,1296,-11.9599,-0.0393577
-518,-272,-14.7915,0.260254,0,0,0,0,0,0,0,-1,706,1296,-14.7915,-0.260206
-511,-272,-14.6191,0.552002,0,0,0,0,0,0,0,-1,713,1296,-14.6191,-0.552
-504,-272,-13.4428,-0.668579,0,0,0,0,0,0,0,-1,720,1296,-13.4428,0.668521
-497,-272,-14.1154,-0.147827,0,0,0,0,0,0,0,-1,727,1296,-14.1154,0.147771
-490,-272,-14.7272,0.464966,0,0,0,0,0,0,0,-1,734,1296,-14.7272,-0.464958
-483,-272,-15.3736,0.792603,0,0,0,0,0,0,0,-1,741,1296,-15.3736,-0.79263
-476,-272,0,0,0,0,0,0,0,0,0,-1,748,1296,0,0
-469,-272,0,0,0,0,0,0,0,0,0,-1,755,1296,0,0
-462,-272,0,0,0,0,0,0,0,0,0,-1,762,1296,0,0
-455,-272,0,0,0,0,0,0,0,0,0,-1,769,1296,0,0
-448,-272,0,0,0,0,0,0,0,0,0,-1,776,1296,0,0
-441,-272,0,0,0,0,0,0,0,0,0,-1,783,1296,0,0
-434,-272,0,0,0,0,0,0,0,0,0,-1,790,1296,0,0
-427,-272,0,0,0,0,0,0,0,0,0,-1,797,1296,0,0
-420,-272,0,0,0,0,0,0,0,0,0,-1,804,1296,0,0
-413,-272,0,0,0,0,0,0,0,0,0,-1,811,1296,0,0
-406,-272,0,0,0,0,0,0,0,0,0,-1,818,1296,0,0
-399,-272,0,0,0,0,0,0,0,0,0,-1,825,1296,0,0
-392,-272,0,0,0,0,0,0,0,0,0,-1,832,1296,0,0
-385,-272,0,0,0,0,0,0,0,0,0,-1,839,1296,0,0
-378,-272,0,0,0,0,0,0,0,0,0,-1,846,1296,0,0
-371,-272,0,0,0,0,0,0,0,0,0,-1,853,1296,0,0
-364,-272,0,0,0,0,0,0,0,0,0,-1,860,1296,0,0
-357,-272,0,0,0,0,0,0,0,0,0,-1,867,1296,0,0
-350,-272,0,0,0,0,0,0,0,0,0,-1,874,1296,0,0
-343,-272,0,0,0,0,0,0,0,0,0,-1,881,1296,0,0
-336,-272,0,0,0,0,0,0,0,0,0,-1,888,1296,0,0
-329,-272,0,0,0,0,0,0,0,0,0,-1,895,1296,0,0
-322,-272,0,0,0,0,0,0,0,0,0,-1,902,1296,0,0
-315,-272,0,0,0,0,0,0,0,0,0,-1,909,1296,0,0
-308,-272,0,0,0,0,0,0,0,0,0,-1,916,1296,0,0
-301,-272,0,0,0,0,0,0,0,0,0,-1,923,1296,0,0
-294,-272,0,0,0,0,0,0,0,0,0,-1,930,1296,0,0
-287,-272,0,0,0,0,0,0,0,0,0,-1,937,1296,0,0
-280,-272,0,0,0,0,0,0,0,0,0,-1,944,1296,0,0
-273,-272,0,0,0,0,0,0,0,0,0,-1,951,1296,0,0
-266,-272,0,0,0,0,0,0,0,0,0,-1,958,1296,0,0
-259,-272,0,0,0,0,0,0,0,0,0,-1,965,1296,0,0
-252,-272,0,0,0,0,0,0,0,0,0,-1,972,1296,0,0
-245,-272,0,0,0,0,0,0,0,0,0,-1,979,1296,0,0
-238,-272,0,0,0,0,0,0,0,0,0,-1,986,1296,0,0
-231,-272,0,0,0,0,0,0,0,0,0,-1,993,1296,0,0
-224,-272,0,0,0,0,0,0,0,0,0,-1,1000,1296,0,0
-217,-272,0,0,0,0,0,0,0,0,0,-1,1007,1296,0,0
-210,-272,0,0,0,0,0,0,0,0,0,-1,1014,1296,0,0
-203,-272,0,0,0,0,0,0,0,0,0,-1,1021,1296,0,0
-196,-272,0,0,0,0,0,0,0,0,0,-1,1028,1296,0,0
-189,-272,0,0,0,0,0,0,0,0,0,-1,1035,1296,0,0
-182,-272,0,0,0,0,0,0,0,0,0,-1,1042,1296,0,0
-175,-272,0,0,0,0,0,0,0,0,0,-1,1049,1296,0,0
-168,-272,0,0,0,0,0,0,0,0,0,-1,1056,1296,0,0
-161,-272,0,0,0,0,0,0,0,0,0,-1,1063,1296,0,0
-154,-272,0,0,0,0,0,0,0,0,0,-1,1070,1296,0,0
-147,-272,0,0,0,0,0,0,0,0,0,-1,1077,1296,0,0
-140,-272,0,0,0,0,0,0,0,0,0,-1,1084,1296,0,0
-133,-272,0,0,0,0,0,0,0,0,0,-1,1091,1296,0,0
-126,-272,0,0,0,0,0,0,0,0,0,-1,1098,1296,0,0
-119,-272,0,0,0,0,0,0,0,0,0,-1,1105,1296,0,0
-112,-272,0,0,0,0,0,0,0,0,0,-1,1112,1296,0,0
-105,-272,0,0,0,0,0,0,0,0,0,-1,1119,1296,0,0
-98,-272,0,0,0,0,0,0,0,0,0,-1,1126,1296,0,0
-91,-272,0,0,0,0,0,0,0,0,0,-1,1133,1296,0,0
-84,-272,0,0,0,0,0,0,0,0,0,-1,1140,1296,0,0
-77,-272,0,0,0,0,0,0,0,0,0,-1,1147,1296,0,0
-70,-272,0,0,0,0,0,0,0,0,0,-1,1154,1296,0,0
-63,-272,0,0,0,0,0,0,0,0,0,-1,1161,1296,0,0
-56,-272,0,0,0,0,0,0,0,0,0,-1,1168,1296,0,0
-49,-272,0,0,0,0,0,0,0,0,0,-1,1175,1296,0,0
-42,-272,0,0,0,0,0,0,0,0,0,-1,1182,1296,0,0
-35,-272,0,0,0,0,0,0,0,0,0,-1,1189,1296,0,0
-28,-272,0,0,0,0,0,0,0,0,0,-1,1196,1296,0,0
-21,-272,0,0,0,0,0,0,0,0,0,-1,1203,1296,0,0
-14,-272,0,0,0,0,0,0,0,0,0,-1,1210,1296,0,0
-7,-272,0,0,0,0,0,0,0,0,0,-1,1217,1296,0,0
0,-272,0,0,0,0,0,0,0,0,0,-1,1224,1296,0,0
7,-272,0,0,0,0,0,0,0,0,0,-1,1231,1296,0,0
14,-272,0,0,0,0,0,0,0,0,0,-1,1238,1296,0,0
21,-272,0,0,0,0,0,0,0,0,0,-1,1245,1296,0,0
28,-272,0,0,0,0,0,0,0,0,0,-1,1252,1296,0,0
35,-272,0,0,0,0,0,0,0,0,0,-1,1259,1296,0,0
42,-272,0,0,0,0,0,0,0,0,0,-1,1266,1296,0,0
49,-272,0,0,0,0,0,0,0,0,0,-1,1273,1296,0,0
56,-272,0,0,0,0,0,0,0,0,0,-1,1280,1296,0,0
63,-272,0,0,0,0,0,0,0,0,0,-1,1287,1296,0,0
70,-272,0,0,0,0,0,0,0,0,0,-1,1294,1296,0,0
77,-272,0,0,0,0,0,0,0,0,0,-1,1301,1296,0,0
84,-272,0,0,0,0,0,0,0,0,0,-1,1308,1296,0,0
91,-272,0,0,0,0,0,0,0,0,0,-1,1315,1296,0,0
98,-272,0,0,0,0,0,0,0,0,0,-1,1322,1296,0,0
105,-272,0,0,0,0,0,0,0,0,0,-1,1329,1296,0,0
112,-272,0,0,0,0,0,0,0,0,0,-1,1336,1296,0,0
119,-272,0,0,0,0,0,0,0,0,0,-1,1343,1296,0,0
126,-272,0,0,0,0,0,0,0,0,0,-1,1350,1296,0,0
133,-272,0,0,0,0,0,0,0,0,0,-1,1357,1296,0,0
140,-272,0,0,0,0,0,0,0,0,0,-1,1364,1296,0,0
147,-272,0,0,0,0,0,0,0,0,0,-1,1371,1296,0,0
154,-272,0,0,0,0,0,0,0,0,0,-1,1378,1296,0,0
161,-272,0,0,0,0,0,0,0,0,0,-1,1385,1296,0,0
168,-272,0,0,0,0,0,0,0,0,0,-1,1392,1296,0,0
175,-272,0,0,0,0,0,0,0,0,0,-1,1399,1296,0,0
182,-272,0,0,0,0,0,0,0,0,0,-1,1406,1296,0,0
189,-272,0,0,0,0,0,0,0,0,0,-1,1413,1296,0,0
196,-272,0,0,0,0,0,0,0,0,0,-1,1420,1296,0,0
203,-272,0,0,0,0,0,0,0,0,0,-1,1427,1296,0,0
210,-272,0,0,0,0,0,0,0,0,0,-1,1434,1296,0,0
217,-272,0,0,0,0,0,0,0,0,0,-1,1441,1296,0,0
224,-272,0,0,0,0,0,0,0,0,0,-1,1448,1296,0,0
231,-272,0,0,0,0,0,0,0,0,0,-1,1455,1296,0,0
238,-272,0,0,0,0,0,0,0,0,0,-1,1462,1296,0,0
245,-272,0,0,0,0,0,0,0,0,0,-1,1469,1296,0,0
252,-272,0,0,0,0,0,0,0,0,0,-1,1476,1296,0,0
259,-272,0,0,0,0,0,0,0,0,0,-1,1483,1296,0,0
266,-272,0,0,0,0,0,0,0,0,0,-1,1490,1296,0,0
273,-272,0,0,0,0,0,0,0,0,0,-1,1497,1296,0,0
280,-272,0,0,0,0,0,0,0,0,0,-1,1504,1296,0,0
287,-272,0,0,0,0,0,0,0,0,0,-1,1511,1296,0,0
294,-272,0,0,0,0,0,0,0,0,0,-1,1518,1296,0,0
301,-272,0,0,0,0,0,0,0,0,0,-1,1525,1296,0,0
308,-272,0,0,0,0,0,0,0,0,0,-1,1532,1296,0,0
315,-272,0,0,0,0,0,0,0,0,0,-1,1539,1296,0,0
322,-272,0,0,0,0,0,0,0,0,0,-1,1546,1296,0,0
329,-272,0,0,0,0,0,0,0,0,0,-1,1553,1296,0,0
336,-272,0,0,0,0,0,0,0,0,0,-1,1560,1296,0,0
343,-272,0,0,0,0,0,0,0,0,0,-1,1567,1296,0,0
350,-272,0,0,0,0,0,0,0,0,0,-1,1574,1296,0,0
357,-272,0,0,0,0,0,0,0,0,0,-1,1581,1296,0,0
364,-272,0,0,0,0,0,0,0,0,0,-1,1588,1296,0,0
371,-272,0,0,0,0,0,0,0,0,0,-1,1595,1296,0,0
378,-272,0,0,0,0,0,0,0,0,0,-1,1602,1296,0,0
385,-272,0,0,0,0,0,0,0,0,0,-1,1609,1296,0,0
392,-272,0,0,0,0,0,0,0,0,0,-1,1616,1296,0,0
399,-272,0,0,0,0,0,0,0,0,0,-1,1623,1296,0,0
406,-272,0,0,0,0,0,0,0,0,0,-1,1630,1296,0,0
413,-272,0,0,0,0,0,0,0,0,0,-1,1637,1296,0,0
420,-272,0,0,0,0,0,0,0,0,0,-1,1644,1296,0,0
427,-272,0,0,0,0,0,0,0,0,0,-1,1651,1296,0,0
434,-272,0,0,0,0,0,0,0,0,0,-1,1658,1296,0,0
441,-272,0,0,0,0,0,0,0,0,0,-1,1665,1296,0,0
448,-272,0,0,0,0,0,0,0,0,0,-1,1672,1296,0,0
455,-272,0,0,0,0,0,0,0,0,0,-1,1679,1296,0,0
462,-272,0,0,0,0,0,0,0,0,0,-1,1686,1296,0,0
469,-272,0,0,0,0,0,0,0,0,0,-1,1693,1296,0,0
476,-272,0,0,0,0,0,0,0,0,0,-1,1700,1296,0,0
483,-272,0,0,0,0,0,0,0,0,0,-1,1707,1296,0,0
490,-272,0,0,0,0,0,0,0,0,0,-1,1714,1296,0,0
497,-272,0,0,0,0,0,0,0,0,0,-1,1721,1296,0,0
504,-272,0,0,0,0,0,0,0,0,0,-1,1728,1296,0,0
511,-272,0,0,0,0,0,0,0,0,0,-1,1735,1296,0,0
518,-272,0,0,0,0,0,0,0,0,0,-1,1742,1296,0,0
525,-272,0,0,0,0,0,0,0,0,0,-1,1749,1296,0,0
532,-272,0,0,0,0,0,0,0,0,0,-1,1756,1296,0,0
539,-272,0,0,0,0,0,0,0,0,0,-1,1763,1296,0,0
546,-272,0,0,0,0,0,0,0,0,0,-1,1770,1296,0,0
553,-272,0,0,0,0,0,0,0,0,0,-1,1777,1296,0,0
560,-272,0,0,0,0,0,0,0,0,0,-1,1784,1296,0,0
567,-272,0,0,0,0,0,0,0,0,0,-1,1791,1296,0,0
574,-272,0,0,0,0,0,0,0,0,0,-1,1798,1296,0,0
581,-272,0,0,0,0,0,0,0,0,0,-1,1805,1296,0,0
588,-272,0,0,0,0,0,0,0,0,0,-1,1812,1296,0,0
595,-272,0,0,0,0,0,0,0,0,0,-1,1819,1296,0,0
602,-272,23.9658,2.73462,0.00504873,0.00901569,-0.0100274,0.0172539,-0.00318947,-0.883041,0.0127,0.0291577,1826,1296,23.9658,-2.73468
609,-272,23.9623,2.69678,0.00203086,0.0176526,-0.0126868,0.0247403,-0.00505677,-1.06133,0.018412,0.0352196,1833,1296,23.9622,-2.69682
616,-272,23.7856,2.44507,-0.00145465,0.0240468,-0.0142426,0.0304124,-0.00782024,-1.15049,0.0233229,0.0423804,1840,1296,23.7857,-2.44503
623,-272,23.864,2.26086,-0.00506258,0.0259623,-0.0136312,0.0311004,-0.0102007,-1.21033,0.024842,0.0440458,1847,1296,23.864,-2.2609
630,-272,23.7817,2.04248,-0.00751867,0.0248025,-0.0120055,0.0287739,-0.01149,-1.25133,0.0239497,0.0457531,1854,1296,23.7818,-2.04247
637,-272,23.5355,1.87207,-0.0089224,0.0225352,-0.0100543,0.0254741,-0.0118613,-1.28641,0.022028,0.0470429,1861,1296,23.5355,-1.87202
644,-272,23.4117,1.67932,0,0,0,0,0,0,0,-1,1868,1296,23.4118,-1.67932
651,-272,21.9126,1.32544,0,0,0,0,0,0,0,-1,1875,1296,21.9126,-1.32541
658,-272,20.2897,3.00378,0,0,0,0,0,0,0,-1,1882,1296,20.2896,-3.00373
665,-272,17.4078,3.08142,0,0,0,0,0,0,0,-1,1889,1296,17.4079,-3.08142
672,-272,18.6693,6.16467,0,0,0,0,0,0,0,-1,1896,1296,18.6693,-6.16469
679,-272,18.8428,6.15979,-0.00818343,0.0073873,-0.00138565,0.00750965,-0.00830578,-1.48273,0.0091349,0.0338464,1903,1296,18.8427,-6.1598
686,-272,18.8313,6.02893,-0.0067672,0.00512276,-0.000485393,0.00514254,-0.00678698,-1.53006,0.00690929,0.0142085,1910,1296,18.8313,-6.02896
693,-272,18.8175,5.81543,-0.00450584,0.00306333,-3.51596e-06,0.00306333,-0.00450584,-1.57033,0.00439644,0.0105561,1917,1296,18.8175,-5.8154
700,-272,18.8204,5.61719,-0.00225102,0.00129756,9.23356e-05,0.00129996,-0.00225342,1.5448,0.00207602,0.0100666,1924,1296,18.8205,-5.61718
707,-272,18.8433,5.39417,-9.76454e-05,0.000335495,-0.000556237,0.000715835,-0.000477986,-0.971043,0.000693798,0.0100885,1931,1296,18.8432,-5.3942
714,-272,18.8303,5.17456,0.00151203,0.000123608,-0.00188758,0.00282901,-0.00119337,-0.609185,0.00238546,0.0100292,1938,1296,18.8304,-5.17455
721,-272,18.808,4.98425,0.00333359,0.000407013,-0.00371867,0.00586651,-0.00212591,-0.597954,0.00477992,0.0110191,1945,1296,18.808,-4.98422
728,-272,18.7991,4.79712,0.00533184,0.00075386,-0.00588886,0.00936093,-0.00327523,-0.600035,0.00757227,0.013852,1952,1296,18.799,-4.79717
735,-272,18.83,4.56982,0.00763959,0.00119631,-0.00850658,0.0135142,-0.00467825,-0.604383,0.0109085,0.0133046,1959,1296,18.8299,-4.56988
742,-272,18.8519,4.31091,0.0105089,0.00170574,-0.0117702,0.0186736,-0.00645896,-0.606469,0.0150707,0.0220971,1966,1296,18.8519,-4.31095
749,-272,18.8519,4.03223,0.0143447,0.00225488,-0.0159605,0.0253667,-0.00876707,-0.604374,0.0204692,0.0418298,1973,1296,18.8519,-4.03218
756,-272,19.2362,3.16248,0.0194677,0.00282368,-0.0212126,0.0339323,-0.0116409,-0.598466,0.0273408,0.0492315,1980,1296,19.2362,-3.16252
763,-272,19.7616,2.27209,0,0,0,0,0,0,0,-1,1987,1296,19.7615,-2.27208
770,-272,26.4883,-10.531,0,0,0,0,0,0,0,-1,1994,1296,26.4883,10.531
777,-272,26.8661,-9.28601,0,0,0,0,0,0,0,-1,2001,1296,26.8661,9.28605
784,-272,0,0,0,0,0,0,0,0,0,-1,2008,1296,0,0
791,-272,0,0,0,0,0,0,0,0,0,-1,2015,1296,0,0
798,-272,0,0,0,0,0,0,0,0,0,-1,2022,1296,0,0
805,-272,0,0,0,0,0,0,0,0,0,-1,2029,1296,0,0
812,-272,0,0,0,0,0,0,0,0,0,-1,2036,1296,0,0
-700,-279,0,0,0,0,0,0,0,0,0,-1,524,1303,0,0
-693,-279,0,0,0,0,0,0,0,0,0,-1,531,1303,0,0
-686,-279,0,0,0,0,0,0,0,0,0,-1,538,1303,0,0
-679,-279,0,0,0,0,0,0,0,0,0,-1,545,1303,0,0
-672,-279,0,0,0,0,0,0,0,0,0,-1,552,1303,0,0
-665,-279,0,0,0,0,0,0,0,0,0,-1,559,1303,0,0
-658,-279,-8.19421,1.65869,0,0,0,0,0,0,0,-1,566,1303,-8.19421,-1.65867
-651,-279,-8.48492,0.865234,0,0,0,0,0,0,0,-1,573,1303,-8.48493,-0.86521
-644,-279,-8.69098,0.440674,0,0,0,0,0,0,0,-1,580,1303,-8.69098,-0.440687
-637,-279,-8.56427,0.12439,0,0,0,0,0,0,0,-1,587,1303,-8.56427,-0.124361
-630,-279,-8.80328,0.0996094,0,0,0,0,0,0,0,-1,594,1303,-8.80331,-0.099617
-623,-279,-10.2906,1.23645,0,0,0,0,0,0,0,-1,601,1303,-10.2907,-1.23645
-616,-279,-10.3264,1.55603,0.0046415,0.018412,0.0088286,0.0227228,0.000330733,1.11657,0.0150395,0.0440822,608,1303,-10.3264,-1.55609
-609,-279,-10.3025,1.93408,0.0018425,0.0138253,0.00668985,0.0168145,-0.00114669,1.15059,0.0116108,0.0327403,615,1303,-10.3025,-1.93409
-602,-279,-10.1865,2.24902,0.00123625,0.00974886,0.00488397,0.0119709,-0.000985822,1.14382,0.0083287,0.0126228,622,1303,-10.1865,-2.24906
-595,-279,-10.2152,2.5127,0.00111698,0.00661304,0.00358747,0.00838404,-0.000654019,1.11223,0.00581963,0.00991413,629,1303,-10.2152,-2.5127
-588,-279,-10.2141,2.76611,0.00131542,0.00453605,0.00262992,0.0060095,-0.000158022,1.06011,0.00406003,0.009942,636,1303,-10.2141,-2.76612
-581,-279,-10.2305,3.0022,0.00171828,0.00287344,0.00193825,0.00431834,0.00027338,0.930204,0.00279223,0.0109672,643,1303,-10.2305,-3.00222
-574,-279,-10.2435,3.24207,0.00213382,0.00181403,0.00131894,0.00330252,0.000645323,0.725077,0.00202121,0.0115837,650,1303,-10.2435,-3.24211
-567,-279,-10.2329,3.48413,0.00227878,0.000892663,0.000805409,0.00264827,0.00052317,0.430118,0.00161954,0.0157062,657,1303,-10.2329,-3.48418
-560,-279,-10.2343,3.75525,0.00202704,-0.00021666,0.000343085,0.00207833,-0.000267949,0.148394,0.00148296,0.015125,664,1303,-10.2343,-3.75523
-553,-279,-10.228,4.03625,0.00136772,-0.000905003,-9.66278e-05,0.00137183,-0.000909104,-0.0424142,0.0013259,0.0110077,671,1303,-10.228,-4.03627
-546,-279,-10.2067,4.28784,-0.000152797,-0.00161071,-0.000623107,7.72247e-05,-0.00184074,-0.353634,0.00125369,0.0142446,678,1303,-10.2067,-4.28787
-539,-279,-10.1706,4.59485,-0.00246494,-0.00281424,-0.00141985,-0.00120904,-0.00407014,-0.724203,0.00241356,0.044496,685,1303,-10.1706,-4.59486
-532,-279,-10.1283,4.92151,0,0,0,0,0,0,0,-1,692,1303,-10.1283,-4.92145
-525,-279,-11.7063,-0.539185,0,0,0,0,0,0,0,-1,699,1303,-11.7063,0.539166
-518,-279,-15.0099,0.104492,0,0,0,0,0,0,0,-1,706,1303,-15.0099,-0.104444
-511,-279,-13.4995,2.44275,0,0,0,0,0,0,0,-1,713,1303,-13.4995,-2.44275
-504,-279,-13.1187,-1.10254,0,0,0,0,0,0,0,-1,720,1303,-13.1187,1.10255
-497,-279,-13.7728,-0.434814,0,0,0,0,0,0,0,-1,727,1303,-13.7728,0.434844
-490,-279,-14.2626,0.385986,0,0,0,0,0,0,0,-1,734,1303,-14.2626,-0.385938
-483,-279,-14.9331,0.736816,0,0,0,0,0,0,0,-1,741,1303,-14.9331,-0.736782
-476,-279,0,0,0,0,0,0,0,0,0,-1,748,1303,0,0
-469,-279,0,0,0,0,0,0,0,0,0,-1,755,1303,0,0
-462,-279,0,0,0,0,0,0,0,0,0,-1,762,1303,0,0
-455,-279,0,0,0,0,0,0,0,0,0,-1,769,1303,0,0
-448,-279,0,0,0,0,0,0,0,0,0,-1,776,1303,0,0
-441,-279,0,0,0,0,0,0,0,0,0,-1,783,1303,0,0
-434,-279,0,0,0,0,0,0,0,0,0,-1,790,1303,0,0
-427,-279,0,0,0,0,0,0,0,0,0,-1,797,1303,0,0
-420,-279,0,0,0,0,0,0,0,0,0,-1,804,1303,0,0
-413,-279,0,0,0,0,0,0,0,0,0,-1,811,1303,0,0
-406,-279,0,0,0,0,0,0,0,0,0,-1,818,1303,0,0
-399,-279,0,0,0,0,0,0,0,0,0,-1,825,1303,0,0
-392,-279,0,0,0,0,0,0,0,0,0,-1,832,1303,0,0
-385,-279,0,0,0,0,0,0,0,0,0,-1,839,1303,0,0
-378,-279,0,0,0,0,0,0,0,0,0,-1,846,1303,0,0
-371,-279,0,0,0,0,0,0,0,0,0,-1,853,1303,0,0
-364,-279,0,0,0,0,0,0,0,0,0,-1,860,1303,0,0
-357,-279,0,0,0,0,0,0,0,0,0,-1,867,1303,0,0
-350,-279,0,0,0,0,0,0,0,0,0,-1,874,1303,0,0
-343,-279,0,0,0,0,0,0,0,0,0,-1,881,1303,0,0
-336,-279,0,0,0,0,0,0,0,0,0,-1,888,1303,0,0
-329,-279,0,0,0,0,0,0,0,0,0,-1,895,1303,0,0
-322,-279,0,0,0,0,0,0,0,0,0,-1,902,1303,0,0
-315,-279,0,0,0,0,0,0,0,0,0,-1,909,1303,0,0
-308,-279,0,0,0,0,0,0,0,0,0,-1,916,1303,0,0
-301,-279,0,0,0,0,0,0,0,0,0,-1,923,1303,0,0
-294,-279,0,0,0,0,0,0,0,0,0,-1,930,1303,0,0
-287,-279,0,0,0,0,0,0,0,0,0,-1,937,1303,0,0
-280,-279,0,0,0,0,0,0,0,0,0,-1,944,1303,0,0
-273,-279,0,0,0,0,0,0,0,0,0,-1,951,1303,0,0
-266,-279,0,0,0,0,0,0,0,0,0,-1,958,1303,0,0
-259,-279,0,0,0,0,0,0,0,0,0,-1,965,1303,0,0
-252,-279,0,0,0,0,0,0,0,0,0,-1,972,1303,0,0
-245,-279,0,0,0,0,0,0,0,0,0,-1,979,1303,0,0
-238,-279,0,0,0,0,0,0,0,0,0,-1,986,1303,0,0
-231,-279,0,0,0,0,0,0,0,0,0,-1,993,1303,0,0
-224,-279,0,0,0,0,0,0,0,0,0,-1,1000,1303,0,0
-217,-279,0,0,0,0,0,0,0,0,0,-1,1007,1303,0,0
-210,-279,0,0,0,0,0,0,0,0,0,-1,1014,1303,0,0
-203,-279,0,0,0,0,0,0,0,0,0,-1,1021,1303,0,0
-196,-279,0,0,0,0,0,0,0,0,0,-1,1028,1303,0,0
-189,-279,0,0,0,0,0,0,0,0,0,-1,1035,1303,0,0
-182,-279,0,0,0,0,0,0,0,0,0,-1,1042,1303,0,0
-175,-279,0,0,0,0,0,0,0,0,0,-1,1049,1303,0,0
-168,-279,0,0,0,0,0,0,0,0,0,-1,1056,1303,0,0
-161,-279,0,0,0,0,0,0,0,0,0,-1,1063,1303,0,0
-154,-279,0,0,0,0,0,0,0,0,0,-1,1070,1303,0,0
-147,-279,0,0,0,0,0,0,0,0,0,-1,1077,1303,0,0
-140,-279,0,0,0,0,0,0,0,0,0,-1,1084,1303,0,0
-133,-279,0,0,0,0,0,0,0,0,0,-1,1091,1303,0,0
-126,-279,0,0,0,0,0,0,0,0,0,-1,1098,1303,0,0
-119,-279,0,0,0,0,0,0,0,0,0,-1,1105,1303,0,0
-112,-279,0,0,0,0,0,0,0,0,0,-1,1112,1303,0,0
-105,-279,0,0,0,0,0,0,0,0,0,-1,1119,1303,0,0
-98,-279,0,0,0,0,0,0,0,0,0,-1,1126,1303,0,0
-91,-279,0,0,0,0,0,0,0,0,0,-1,1133,1303,0,0
-84,-279,0,0,0,0,0,0,0,0,0,-1,1140,1303,0,0
-77,-279,0,0,0,0,0,0,0,0,0,-1,1147,1303,0,0
-70,-279,0,0,0,0,0,0,0,0,0,-1,1154,1303,0,0
-63,-279,0,0,0,0,0,0,0,0,0,-1,1161,1303,0,0
-56,-279,0,0,0,0,0,0,0,0,0,-1,1168,1303,0,0
-49,-279,0,0,0,0,0,0,0,0,0,-1,1175,1303,0,0
-42,-279,0,0,0,0,0,0,0,0,0,-1,1182,1303,0,0
-35,-279,0,0,0,0,0,0,0,0,0,-1,1189,1303,0,0
-28,-279,0,0,0,0,0,0,0,0,0,-1,1196,1303,0,0
-21,-279,0,0,0,0,0,0,0,0,0,-1,1203,1303,0,0
-14,-279,0,0,0,0,0,0,0,0,0,-1,1210,1303,0,0
-7,-279,0,0,0,0,0,0,0,0,0,-1,1217,1303,0,0
0,-279,0,0,0,0,0,0,0,0,0,-1,1224,1303,0,0
7,-279,0,0,0,0,0,0,0,0,0,-1,1231,1303,0,0
14,-279,0,0,0,0,0,0,0,0,0,-1,1238,1303,0,0
21,-279,0,0,0,0,0,0,0,0,0,-1,1245,1303,0,0
28,-279,0,0,0,0,0,0,0,0,0,-1,1252,1303,0,0
35,-279,0,0,0,0,0,0,0,0,0,-1,1259,1303,0,0
42,-279,0,0,0,0,0,0,0,0,0,-1,1266,1303,0,0
49,-279,0,0,0,0,0,0,0,0,0,-1,1273,1303,0,0
56,-279,0,0,0,0,0,0,0,0,0,-1,1280,1303,0,0
63,-279,0,0,0,0,0,0,0,0,0,-1,1287,1303,0,0
70,-279,0,0,0,0,0,0,0,0,0,-1,1294,1303,0,0
77,-279,0,0,0,0,0,0,0,0,0,-1,1301,1303,0,0
84,-279,0,0,0,0,0,0,0,0,0,-1,1308,1303,0,0
91,-279,0,0,0,0,0,0,0,0,0,-1,1315,1303,0,0
98,-279,0,0,0,0,0,0,0,0,0,-1,1322,1303,0,0
105,-279,0,0,0,0,0,0,0,0,0,-1,1329,1303,0,0
112,-279,0,0,0,0,0,0,0,0,0,-1,1336,1303,0,0
119,-279,0,0,0,0,0,0,0,0,0,-1,1343,1303,0,0
126,-279,0,0,0,0,0,0,0,0,0,-1,1350,1303,0,0
133,-279,0,0,0,0,0,0,0,0,0,-1,1357,1303,0,0
140,-279,0,0,0,0,0,0,0,0,0,-1,1364,1303,0,0
147,-279,0,0,0,0,0,0,0,0,0,-1,1371,1303,0,0
154,-279,0,0,0,0,0,0,0,0,0,-1,1378,1303,0,0
161,-279,0,0,0,0,0,0,0,0,0,-1,1385,1303,0,0
168,-279,0,0,0,0,0,0,0,0,0,-1,1392,1303,0,0
175,-279,0,0,0,0,0,0,0,0,0,-1,1399,1303,0,0
182,-279,0,0,0,0,0,0,0,0,0,-1,1406,1303,0,0
189,-279,0,0,0,0,0,0,0,0,0,-1,1413,1303,0,0
196,-279,0,0,0,0,0,0,0,0,0,-1,1420,1303,0,0
203,-279,0,0,0,0,0,0,0,0,0,-1,1427,1303,0,0
210,-279,0,0,0,0,0,0,0,0,0,-1,1434,1303,0,0
217,-279,0,0,0,0,0,0,0,0,0,-1,1441,1303,0,0
224,-279,0,0,0,0,0,0,0,0,0,-1,1448,1303,0,0
231,-279,0,0,0,0,0,0,0,0,0,-1,1455,1303,0,0
238,-279,0,0,0,0,0,0,0,0,0,-1,1462,1303,0,0
245,-279,0,0,0,0,0,0,0,0,0,-1,1469,1303,0,0
252,-279,0,0,0,0,0,0,0,0,0,-1,1476,1303,0,0
259,-279,0,0,0,0,0,0,0,0,0,-1,1483,1303,0,0
266,-279,0,0,0,0,0,0,0,0,0,-1,1490,1303,0,0
273,-279,0,0,0,0,0,0,0,0,0,-1,1497,1303,0,0
280,-279,0,0,0,0,0,0,0,0,0,-1,1504,1303,0,0
287,-279,0,0,0,0,0,0,0,0,0,-1,1511,1303,0,0
294,-279,0,0,0,0,0,0,0,0,0,-1,1518,1303,0,0
301,-279,0,0,0,0,0,0,0,0,0,-1,1525,1303,0,0
308,-279,0,0,0,0,0,0,0,0,0,-1,1532,1303,0,0
315,-279,0,0,0,0,0,0,0,0,0,-1,1539,1303,0,0
322,-279,0,0,0,0,0,0,0,0,0,-1,1546,1303,0,0
329,-279,0,0,0,0,0,0,0,0,0,-1,1553,1303,0,0
336,-279,0,0,0,0,0,0,0,0,0,-1,1560,1303,0,0
343,-279,0,0,0,0,0,0,0,0,0,-1,1567,1303,0,0
350,-279,0,0,0,0,0,0,0,0,0,-1,1574,1303,0,0
357,-279,0,0,0,0,0,0,0,0,0,-1,1581,1303,0,0
364,-279,0,0,0,0,0,0,0,0,0,-1,1588,1303,0,0
371,-279,0,0,0,0,0,0,0,0,0,-1,1595,1303,0,0
378,-279,0,0,0,0,0,0,0,0,0,-1,1602,1303,0,0
385,-279,0,0,0,0,0,0,0,0,0,-1,1609,1303,0,0
392,-279,0,0,0,0,0,0,0,0,0,-1,1616,1303,0,0
399,-279,0,0,0,0,0,0,0,0,0,-1,1623,1303,0,0
406,-279,0,0,0,0,0,0,0,0,0,-1,1630,1303,0,0
413,-279,0,0,0,0,0,0,0,0,0,-1,1637,1303,0,0
420,-279,0,0,0,0,0,0,0,0,0,-1,1644,1303,0,0
427,-279,0,0,0,0,0,0,0,0,0,-1,1651,1303,0,0
434,-279,0,0,0,0,0,0,0,0,0,-1,1658,1303,0,0
441,-279,0,0,0,0,0,0,0,0,0,-1,1665,1303,0,0
448,-279,0,0,0,0,0,0,0,0,0,-1,1672,1303,0,0
455,-279,0,0,0,0,0,0,0,0,0,-1,1679,1303,0,0
462,-279,0,0,0,0,0,0,0,0,0,-1,1686,1303,0,0
469,-279,0,0,0,0,0,0,0,0,0,-1,1693,1303,0,0
476,-279,0,0,0,0,0,0,0,0,0,-1,1700,1303,0,0
483,-279,0,0,0,0,0,0,0,0,0,-1,1707,1303,0,0
490,-279,0,0,0,0,0,0,0,0,0,-1,1714,1303,0,0
497,-279,0,0,0,0,0,0,0,0,0,-1,1721,1303,0,0
504,-279,0,0,0,0,0,0,0,0,0,-1,1728,1303,0,0
511,-279,0,0,0,0,0,0,0,0,0,-1,1735,1303,0,0
518,-279,0,0,0,0,0,0,0,0,0,-1,1742,1303,0,0
525,-279,0,0,0,0,0,0,0,0,0,-1,1749,1303,0,0
532,-279,0,0,0,0,0,0,0,0,0,-1,1756,1303,0,0
539,-279,0,0,0,0,0,0,0,0,0,-1,1763,1303,0,0
546,-279,0,0,0,0,0,0,0,0,0,-1,1770,1303,0,0
553,-279,0,0,0,0,0,0,0,0,0,-1,1777,1303,0,0
560,-279,0,0,0,0,0,0,0,0,0,-1,1784,1303,0,0
567,-279,0,0,0,0,0,0,0,0,0,-1,1791,1303,0,0
574,-279,0,0,0,0,0,0,0,0,0,-1,1798,1303,0,0
581,-279,0,0,0,0,0,0,0,0,0,-1,1805,1303,0,0
588,-279,0,0,0,0,0,0,0,0,0,-1,1812,1303,0,0
595,-279,0,0,0,0,0,0,0,0,0,-1,1819,1303,0,0
602,-279,23.9772,2.73083,0.00680491,0.00813697,-0.0143139,0.0218003,-0.00685845,-0.808647,0.0172795,0.0402588,1826,1303,23.9772,-2.73083
609,-279,23.8857,2.56836,0.00376966,0.0196644,-0.0164325,0.0299704,-0.00653638,-1.01063,0.0224781,0.0467831,1833,1303,23.8858,-2.56838
616,-279,23.8785,1.95422,0.000243407,0.0255534,-0.0165916,0.0337653,-0.00796852,-1.1112,0.0255835,0.0463065,1840,1303,23.8785,-1.95416
623,-279,23.9066,2.05457,0,0,0,0,0,0,0,-1,1847,1303,23.9066,-2.05455
630,-279,23.7694,1.91943,0,0,0,0,0,0,0,-1,1854,1303,23.7695,-1.91948
637,-279,23.6587,1.75464,0,0,0,0,0,0,0,-1,1861,1303,23.6586,-1.75464
644,-279,21.6617,2.6051,0,0,0,0,0,0,0,-1,1868,1303,21.6617,-2.60509
651,-279,20.5229,2.6499,0,0,0,0,0,0,0,-1,1875,1303,20.523,-2.64987
658,-279,19.2148,6.17822,0,0,0,0,0,0,0,-1,1882,1303,19.2148,-6.17828
665,-279,18.9794,6.09607,0,0,0,0,0,0,0,-1,1889,1303,18.9793,-6.09601
672,-279,18.9435,6.58362,0,0,0,0,0,0,0,-1,1896,1303,18.9435,-6.58362
679,-279,18.6338,6.30823,-0.00813769,0.00597419,-0.000878271,0.00602864,-0.00819214,-1.50888,0.00824198,0.0331073,1903,1303,18.6338,-6.30823
686,-279,18.6023,6.03113,-0.00663182,0.00379565,-3.70888e-05,0.00379578,-0.00663196,-1.56724,0.00609423,0.020973,1910,1303,18.6023,-6.03117
693,-279,18.6027,5.80896,-0.00421245,0.00204978,0.00021811,0.00205737,-0.00422003,1.53602,0.00369526,0.0159147,1917,1303,18.6026,-5.809
700,-279,18.6157,5.62231,-0.00179439,0.000665879,-0.000107232,0.000670544,-0.00179905,-1.52732,0.00147461,0.0103658,1924,1303,18.6157,-5.62233
707,-279,18.6162,5.41748,0.0005871,1.21181e-05,-0.00123979,0.00157229,-0.000973076,-0.671468,0.00148308,0.00818327,1931,1303,18.6162,-5.41749
714,-279,18.5934,5.19324,0.00264594,-9.96307e-05,-0.00307562,0.00464124,-0.00209493,-0.575493,0.00398067,0.0097674,1938,1303,18.5934,-5.19326
721,-279,18.5945,4.9873,0.00498561,2.29074e-05,-0.0054445,0.00848754,-0.00347903,-0.571584,0.00710776,0.0120367,1945,1303,18.5945,-4.98728
728,-279,18.6045,4.78198,0.00759961,0.000154763,-0.00827752,0.0129532,-0.00519881,-0.574095,0.0107941,0.0134965,1952,1303,18.6045,-4.782
735,-279,18.6233,4.56311,0.0106676,0.000349165,-0.0117568,0.0183474,-0.00733064,-0.578636,0.0152733,0.0132254,1959,1303,18.6233,-4.56311
742,-279,18.5653,4.2688,0.0145357,0.000556514,-0.016176,0.0251676,-0.0100754,-0.581465,0.0209602,0.0247407,1966,1303,18.5653,-4.26881
749,-279,18.4634,3.84033,0.0196199,0.00076729,-0.0218607,0.034,-0.0136129,-0.581844,0.0283168,0.042809,1973,1303,18.4634,-3.8403
756,-279,19.1168,3.00232,0,0,0,0,0,0,0,-1,1980,1303,19.1169,-3.00235
763,-279,20.1082,3.79041,0,0,0,0,0,0,0,-1,1987,1303,20.1082,-3.79043
770,-279,20.5697,3.98291,0,0,0,0,0,0,0,-1,1994,1303,20.5697,-3.98292
777,-279,15.3864,1.55225,0,0,0,0,0,0,0,-1,2001,1303,15.3863,-1.55222
784,-279,0,0,0,0,0,0,0,0,0,-1,2008,1303,0,0
791,-279,0,0,0,0,0,0,0,0,0,-1,2015,1303,0,0
798,-279,0,0,0,0,0,0,0,0,0,-1,2022,1303,0,0
805,-279,0,0,0,0,0,0,0,0,0,-1,2029,1303,0,0
812,-279,0,0,0,0,0,0,0,0,0,-1,2036,1303,0,0
-700,-286,0,0,0,0,0,0,0,0,0,-1,524,1310,0,0
-693,-286,0,0,0,0,0,0,0,0,0,-1,531,1310,0,0
-686,-286,0,0,0,0,0,0,0,0,0,-1,538,1310,0,0
-679,-286,0,0,0,0,0,0,0,0,0,-1,545,1310,0,0
-672,-286,0,0,0,0,0,0,0,0,0,-1,552,1310,0,0
-665,-286,0,0,0,0,0,0,0,0,0,-1,559,1310,0,0
-658,-286,-7.90417,1.38159,0,0,0,0,0,0,0,-1,566,1310,-7.90416,-1.38161
-651,-286,-8.62408,-0.0281982,0,0,0,0,0,0,0,-1,573,1310,-8.62408,0.0282474
-644,-286,-9.01721,-0.63855,0,0,0,0,0,0,0,-1,580,1310,-9.01719,0.638492
-637,-286,-8.39191,-0.190063,0,0,0,0,0,0,0,-1,587,1310,-8.39192,0.190069
-630,-286,-10.5514,-0.660889,0,0,0,0,0,0,0,-1,594,1310,-10.5514,0.660918
-623,-286,-10.2142,0.654053,0,0,0,0,0,0,0,-1,601,1310,-10.2142,-0.654
-616,-286,-10.2181,1.03955,0.00517979,0.0268642,0.00887036,0.0300305,0.00201355,1.22795,0.019384,0.0481919,608,1310,-10.2181,-1.0395
-609,-286,-10.1226,1.67383,0.00228642,0.0204818,0.00657116,0.0226068,0.000161451,1.25803,0.0150177,0.0394462,615,1310,-10.1225,-1.67388
-602,-286,-9.96515,2.22498,0.00141886,0.0148381,0.00460404,0.0162658,-8.85408e-06,1.2701,0.0108468,0.0151606,622,1310,-9.96517,-2.22497
-595,-286,-9.96173,2.50476,0.00110176,0.0104995,0.00321426,0.0114937,0.000107579,1.27083,0.00762685,0.0104665,629,1310,-9.96171,-2.50477
-588,-286,-9.95477,2.75281,0.00111078,0.00738536,0.00222746,0.00809569,0.00040045,1.26209,0.00526872,0.0110644,636,1310,-9.95477,-2.75275
-581,-286,-9.94202,2.99622,0.00132225,0.00488722,0.00155496,0.00547014,0.000739325,1.21213,0.00342701,0.013172,643,1310,-9.94199,-2.99623
-574,-286,-9.95575,3.24109,0.00158801,0.00306919,0.00101146,0.0035822,0.00107499,1.1014,0.00212257,0.0133895,650,1310,-9.95577,-3.24106
-567,-286,-9.98816,3.49487,0.00167462,0.00159927,0.0005773,0.00221548,0.00105842,0.752813,0.00127953,0.0131747,657,1310,-9.98816,-3.49487
-560,-286,-9.98706,3.77002,0.00144999,0.000131889,0.000127329,0.00146218,0.000119702,0.0954248,0.000937436,0.0125525,664,1310,-9.98704,-3.76999
-553,-286,-9.97949,4.04382,0.00101529,-0.000837173,-0.000263585,0.00105206,-0.000873949,-0.138625,0.00111357,0.00910562,671,1310,-9.97946,-4.04378
-546,-286,-9.9743,4.29846,-0.000148907,-0.00168298,-0.000741791,0.000151108,-0.001983,-0.384333,0.00137514,0.012551,678,1310,-9.97429,-4.29844
-539,-286,-9.96954,4.56873,-0.0020405,-0.00252195,-0.00156941,-0.000693464,-0.00386899,-0.709299,0.00238206,0.0328827,685,1310,-9.96955,-4.56874
-532,-286,-9.92676,4.85181,0,0,0,0,0,0,0,-1,692,1310,-9.92679,-4.85185
-525,-286,-11.4528,-1.11768,0,0,0,0,0,0,0,-1,699,1310,-11.4528,1.11769
-518,-286,-11.0701,1.37329,0,0,0,0,0,0,0,-1,706,1310,-11.0701,-1.37332
-511,-286,-12.5867,1.32056,0,0,0,0,0,0,0,-1,713,1310,-12.5867,-1.32051
-504,-286,-12.8685,-1.54395,0,0,0,0,0,0,0,-1,720,1310,-12.8684,1.54394
-497,-286,-13.5206,-0.774414,0,0,0,0,0,0,0,-1,727,1310,-13.5206,0.774359
-490,-286,-13.923,0.170776,0,0,0,0,0,0,0,-1,734,1310,-13.923,-0.170776
-483,-286,-14.7314,0.420166,0,0,0,0,0,0,0,-1,741,1310,-14.7314,-0.420166
-476,-286,-15.3409,0.904541,0,0,0,0,0,0,0,-1,748,1310,-15.3409,-0.904512
-469,-286,0,0,0,0,0,0,0,0,0,-1,755,1310,0,0
-462,-286,0,0,0,0,0,0,0,0,0,-1,762,1310,0,0
-455,-286,0,0,0,0,0,0,0,0,0,-1,769,1310,0,0
-448,-286,0,0,0,0,0,0,0,0,0,-1,776,1310,0,0
-441,-286,0,0,0,0,0,0,0,0,0,-1,783,1310,0,0
-434,-286,0,0,0,0,0,0,0,0,0,-1,790,1310,0,0
-427,-286,0,0,0,0,0,0,0,0,0,-1,797,1310,0,0
-420,-286,0,0,0,0,0,0,0,0,0,-1,804,1310,0,0
-413,-286,0,0,0,0,0,0,0,0,0,-1,811,1310,0,0
-406,-286,0,0,0,0,0,0,0,0,0,-1,818,1310,0,0
-399,-286,0,0,0,0,0,0,0,0,0,-1,825,1310,0,0
-392,-286,0,0,0,0,0,0,0,0,0,-1,832,1310,0,0
-385,-286,0,0,0,0,0,0,0,0,0,-1,839,1310,0,0
-378,-286,0,0,0,0,0,0,0,0,0,-1,846,1310,0,0
-371,-286,0,0,0,0,0,0,0,0,0,-1,853,1310,0,0
-364,-286,0,0,0,0,0,0,0,0,0,-1,860,1310,0,0
-357,-286,0,0,0,0,0,0,0,0,0,-1,867,1310,0,0
-350,-286,0,0,0,0,0,0,0,0,0,-1,874,1310,0,0
-343,-286,0,0,0,0,0,0,0,0,0,-1,881,1310,0,0
-336,-286,0,0,0,0,0,0,0,0,0,-1,888,1310,0,0
-329,-286,0,0,0,0,0,0,0,0,0,-1,895,1310,0,0
-322,-286,0,0,0,0,0,0,0,0,0,-1,902,1310,0,0
-315,-286,0,0,0,0,0,0,0,0,0,-1,909,1310,0,0
-308,-286,0,0,0,0,0,0,0,0,0,-1,916,1310,0,0
-301,-286,0,0,0,0,0,0,0,0,0,-1,923,1310,0,0
-294,-286,0,0,0,0,0,0,0,0,0,-1,930,1310,0,0
-287,-286,0,0,0,0,0,0,0,0,0,-1,937,1310,0,0
-280,-286,0,0,0,0,0,0,0,0,0,-1,944,1310,0,0
-273,-286,0,0,0,0,0,0,0,0,0,-1,951,1310,0,0
-266,-286,0,0,0,0,0,0,0,0,0,-1,958,1310,0,0
-259,-286,0,0,0,0,0,0,0,0,0,-1,965,1310,0,0
-252,-286,0,0,0,0,0,0,0,0,0,-1,972,1310,0,0
-245,-286,0,0,0,0,0,0,0,0,0,-1,979,1310,0,0
-238,-286,0,0,0,0,0,0,0,0,0,-1,986,1310,0,0
-231,-286,0,0,0,0,0,0,0,0,0,-1,993,1310,0,0
-224,-286,0,0,0,0,0,0,0,0,0,-1,1000,1310,0,0
-217,-286,0,0,0,0,0,0,0,0,0,-1,1007,1310,0,0
-210,-286,0,0,0,0,0,0,0,0,0,-1,1014,1310,0,0
-203,-286,0,0,0,0,0,0,0,0,0,-1,1021,1310,0,0
-196,-286,0,0,0,0,0,0,0,0,0,-1,1028,1310,0,0
-189,-286,0,0,0,0,0,0,0,0,0,-1,1035,1310,0,0
-182,-286,0,0,0,0,0,0,0,0,0,-1,1042,1310,0,0
-175,-286,0,0,0,0,0,0,0,0,0,-1,1049,1310,0,0
-168,-286,0,0,0,0,0,0,0,0,0,-1,1056,1310,0,0
-161,-286,0,0,0,0,0,0,0,0,0,-1,1063,1310,0,0
-154,-286,0,0,0,0,0,0,0,0,0,-1,1070,1310,0,0
-147,-286,0,0,0,0,0,0,0,0,0,-1,1077,1310,0,0
-140,-286,0,0,0,0,0,0,0,0,0,-1,1084,1310,0,0
-133,-286,0,0,0,0,0,0,0,0,0,-1,1091,1310,0,0
-126,-286,0,0,0,0,0,0,0,0,0,-1,1098,1310,0,0
-119,-286,0,0,0,0,0,0,0,0,0,-1,1105,1310,0,0
-112,-286,0,0,0,0,0,0,0,0,0,-1,1112,1310,0,0
-105,-286,0,0,0,0,0,0,0,0,0,-1,1119,1310,0,0
-98,-286,0,0,0,0,0,0,0,0,0,-1,1126,1310,0,0
-91,-286,0,0,0,0,0,0,0,0,0,-1,1133,1310,0,0
-84,-286,0,0,0,0,0,0,0,0,0,-1,1140,1310,0,0
-77,-286,0,0,0,0,0,0,0,0,0,-1,1147,1310,0,0
-70,-286,0,0,0,0,0,0,0,0,0,-1,1154,1310,0,0
-63,-286,0,0,0,0,0,0,0,0,0,-1,1161,1310,0,0
-56,-286,0,0,0,0,0,0,0,0,0,-1,1168,1310,0,0
-49,-286,0,0,0,0,0,0,0,0,0,-1,1175,1310,0,0
-42,-286,0,0,0,0,0,0,0,0,0,-1,1182,1310,0,0
-35,-286,0,0,0,0,0,0,0,0,0,-1,1189,1310,0,0
-28,-286,0,0,0,0,0,0,0,0,0,-1,1196,1310,0,0
-21,-286,0,0,0,0,0,0,0,0,0,-1,1203,1310,0,0
-14,-286,0,0,0,0,0,0,0,0,0,-1,1210,1310,0,0
-7,-286,0,0,0,0,0,0,0,0,0,-1,1217,1310,0,0
0,-286,0,0,0,0,0,0,0,0,0,-1,1224,1310,0,0
7,-286,0,0,0,0,0,0,0,0,0,-1,1231,1310,0,0
14,-286,0,0,0,0,0,0,0,0,0,-1,1238,1310,0,0
21,-286,0,0,0,0,0,0,0,0,0,-1,1245,1310,0,0
28,-286,0,0,0,0,0,0,0,0,0,-1,1252,1310,0,0
35,-286,0,0,0,0,0,0,0,0,0,-1,1259,1310,0,0
42,-286,0,0,0,0,0,0,0,0,0,-1,1266,1310,0,0
49,-286,0,0,0,0,0,0,0,0,0,-1,1273,1310,0,0
56,-286,0,0,0,0,0,0,0,0,0,-1,1280,1310,0,0
63,-286,0,0,0,0,0,0,0,0,0,-1,1287,1310,0,0
70,-286,0,0,0,0,0,0,0,0,0,-1,1294,1310,0,0
77,-286,0,0,0,0,0,0,0,0,0,-1,1301,1310,0,0
84,-286,0,0,0,0,0,0,0,0,0,-1,1308,1310,0,0
91,-286,0,0,0,0,0,0,0,0,0,-1,1315,1310,0,0
98,-286,0,0,0,0,0,0,0,0,0,-1,1322,1310,0,0
105,-286,0,0,0,0,0,0,0,0,0,-1,1329,1310,0,0
112,-286,0,0,0,0,0,0,0,0,0,-1,1336,1310,0,0
119,-286,0,0,0,0,0,0,0,0,0,-1,1343,1310,0,0
126,-286,0,0,0,0,0,0,0,0,0,-1,1350,1310,0,0
133,-286,0,0,0,0,0,0,0,0,0,-1,1357,1310,0,0
140,-286,0,0,0,0,0,0,0,0,0,-1,1364,1310,0,0
147,-286,0,0,0,0,0,0,0,0,0,-1,1371,1310,0,0
154,-286,0,0,0,0,0,0,0,0,0,-1,1378,1310,0,0
161,-286,0,0,0,0,0,0,0,0,0,-1,1385,1310,0,0
168,-286,0,0,0,0,0,0,0,0,0,-1,1392,1310,0,0
175,-286,0,0,0,0,0,0,0,0,0,-1,1399,1310,0,0
182,-286,0,0,0,0,0,0,0,0,0,-1,1406,1310,0,0
189,-286,0,0,0,0,0,0,0,0,0,-1,1413,1310,0,0
196,-286,0,0,0,0,0,0,0,0,0,-1,1420,1310,0,0
203,-286,0,0,0,0,0,0,0,0,0,-1,1427,1310,0,0
210,-286,0,0,0,0,0,0,0,0,0,-1,1434,1310,0,0
217,-286,0,0,0,0,0,0,0,0,0,-1,1441,1310,0,0
224,-286,0,0,0,0,0,0,0,0,0,-1,1448,1310,0,0
231,-286,0,0,0,0,0,0,0,0,0,-1,1455,1310,0,0
238,-286,0,0,0,0,0,0,0,0,0,-1,1462,1310,0,0
245,-286,0,0,0,0,0,0,0,0,0,-1,1469,1310,0,0
252,-286,0,0,0,0,0,0,0,0,0,-1,1476,1310,0,0
259,-286,0,0,0,0,0,0,0,0,0,-1,1483,1310,0,0
266,-286,0,0,0,0,0,0,0,0,0,-1,1490,1310,0,0
273,-286,0,0,0,0,0,0,0,0,0,-1,1497,1310,0,0
280,-286,0,0,0,0,0,0,0,0,0,-1,1504,1310,0,0
287,-286,0,0,0,0,0,0,0,0,0,-1,1511,1310,0,0
294,-286,0,0,0,0,0,0,0,0,0,-1,1518,1310,0,0
301,-286,0,0,0,0,0,0,0,0,0,-1,1525,1310,0,0
308,-286,0,0,0,0,0,0,0,0,0,-1,1532,1310,0,0
315,-286,0,0,0,0,0,0,0,0,0,-1,1539,1310,0,0
322,-286,0,0,0,0,0,0,0,0,0,-1,1546,1310,0,0
329,-286,0,0,0,0,0,0,0,0,0,-1,1553,1310,0,0
336,-286,0,0,0,0,0,0,0,0,0,-1,1560,1310,0,0
343,-286,0,0,0,0,0,0,0,0,0,-1,1567,1310,0,0
350,-286,0,0,0,0,0,0,0,0,0,-1,1574,1310,0,0
357,-286,0,0,0,0,0,0,0,0,0,-1,1581,1310,0,0
364,-286,0,0,0,0,0,0,0,0,0,-1,1588,1310,0,0
371,-286,0,0,0,0,0,0,0,0,0,-1,1595,1310,0,0
378,-286,0,0,0,0,0,0,0,0,0,-1,1602,1310,0,0
385,-286,0,0,0,0,0,0,0,0,0,-1,1609,1310,0,0
392,-286,0,0,0,0,0,0,0,0,0,-1,1616,1310,0,0
399,-286,0,0,0,0,0,0,0,0,0,-1,1623,1310,0,0
406,-286,0,0,0,0,0,0,0,0,0,-1,1630,1310,0,0
413,-286,0,0,0,0,0,0,0,0,0,-1,1637,1310,0,0
420,-286,0,0,0,0,0,0,0,0,0,-1,1644,1310,0,0
427,-286,0,0,0,0,0,0,0,0,0,-1,1651,1310,0,0
434,-286,0,0,0,0,0,0,0,0,0,-1,1658,1310,0,0
441,-286,0,0,0,0,0,0,0,0,0,-1,1665,1310,0,0
448,-286,0,0,0,0,0,0,0,0,0,-1,1672,1310,0,0
455,-286,0,0,0,0,0,0,0,0,0,-1,1679,1310,0,0
462,-286,0,0,0,0,0,0,0,0,0,-1,1686,1310,0,0
469,-286,0,0,0,0,0,0,0,0,0,-1,1693,1310,0,0
476,-286,0,0,0,0,0,0,0,0,0,-1,1700,1310,0,0
483,-286,0,0,0,0,0,0,0,0,0,-1,1707,1310,0,0
490,-286,0,0,0,0,0,0,0,0,0,-1,1714,1310,0,0
497,-286,0,0,0,0,0,0,0,0,0,-1,1721,1310,0,0
504,-286,0,0,0,0,0,0,0,0,0,-1,1728,1310,0,0
511,-286,0,0,0,0,0,0,0,0,0,-1,1735,1310,0,0
518,-286,0,0,0,0,0,0,0,0,0,-1,1742,1310,0,0
525,-286,0,0,0,0,0,0,0,0,0,-1,1749,1310,0,0
532,-286,0,0,0,0,0,0,0,0,0,-1,1756,1310,0,0
539,-286,0,0,0,0,0,0,0,0,0,-1,1763,1310,0,0
546,-286,0,0,0,0,0,0,0,0,0,-1,1770,1310,0,0
553,-286,0,0,0,0,0,0,0,0,0,-1,1777,1310,0,0
560,-286,0,0,0,0,0,0,0,0,0,-1,1784,1310,0,0
567,-286,0,0,0,0,0,0,0,0,0,-1,1791,1310,0,0
574,-286,0,0,0,0,0,0,0,0,0,-1,1798,1310,0,0
581,-286,0,0,0,0,0,0,0,0,0,-1,1805,1310,0,0
588,-286,0,0,0,0,0,0,0,0,0,-1,1812,1310,0,0
595,-286,24.0426,2.76501,0.012332,-0.013976,-0.0170286,0.0206954,-0.0223395,-0.456536,0.0248523,0.0372809,1819,1310,24.0425,-2.76503
602,-286,24.0789,2.65503,0.0103034,0.00553334,-0.0185136,0.026585,-0.0107482,-0.721338,0.0221914,0.0454852,1826,1310,24.0789,-2.65507
609,-286,24.0117,2.47827,0.00702845,0.0188229,-0.0195821,0.0333765,-0.00752519,-0.931655,0.0251377,0.0463552,1833,1310,24.0118,-2.47827
616,-286,23.9017,2.34961,0,0,0,0,0,0,0,-1,1840,1310,23.9017,-2.34963
623,-286,23.5371,1.88245,-0.000424826,0.0244566,-0.015611,0.0319778,-0.00794596,-1.12183,0.0244023,0.0449709,1847,1310,23.5371,-1.88248
630,-286,23.7195,1.75891,-0.00300154,0.0232561,-0.012985,0.0285928,-0.00833827,-1.18085,0.0223655,0.0446361,1854,1310,23.7194,-1.75895
637,-286,23.7472,1.63733,0,0,0,0,0,0,0,-1,1861,1310,23.7472,-1.63734
644,-286,22.1676,2.08484,0,0,0,0,0,0,0,-1,1868,1310,22.1675,-2.08479
651,-286,18.3739,6.07556,0,0,0,0,0,0,0,-1,1875,1310,18.3738,-6.07553
658,-286,19.5104,6.03662,0,0,0,0,0,0,0,-1,1882,1310,19.5103,-6.03656
665,-286,18.8217,6.69189,0,0,0,0,0,0,0,-1,1889,1310,18.8217,-6.69185
672,-286,18.5758,6.55774,-0.00828986,0.00706061,-0.00147291,0.00720066,-0.00842991,-1.476,0.00903361,0.0350169,1896,1310,18.5758,-6.55775
679,-286,18.3246,6.30139,-0.00764656,0.00419653,-0.000223543,0.00420075,-0.00765078,-1.55193,0.00693845,0.0242319,1903,1310,18.3246,-6.30133
686,-286,18.3444,6.03821,-0.00609505,0.0022706,0.00047531,0.00229752,-0.00612197,1.51422,0.00502538,0.0210127,1910,1310,18.3444,-6.03816
693,-286,18.3672,5.82629,-0.00356697,0.000987505,0.000393701,0.00102129,-0.00360075,1.4852,0.00280363,0.0160768,1917,1310,18.3672,-5.82635
700,-286,18.3877,5.61841,-0.000924264,7.18393e-05,-0.000415233,0.000222228,-0.00107465,-1.22331,0.000800855,0.011124,1924,1310,18.3877,-5.61842
707,-286,18.3903,5.41711,0.00179904,-0.000251522,-0.0020139,0.00303363,-0.00148611,-0.549947,0.00265997,0.00856915,1931,1310,18.3902,-5.41715
714,-286,18.3802,5.21265,0.0044672,-0.000236106,-0.00428328,0.00700193,-0.00277084,-0.534349,0.00581591,0.00887002,1938,1310,18.3803,-5.2126
721,-286,18.3894,4.99817,0.00752589,-0.000200858,-0.0070907,0.0117374,-0.00441237,-0.535958,0.00963847,0.0113078,1945,1310,18.3894,-4.99815
728,-286,18.392,4.77002,0.0110033,-0.000184454,-0.0104641,0.0172749,-0.00645604,-0.539936,0.0141677,0.0141011,1952,1310,18.3919,-4.76999
735,-286,18.3947,4.55151,0.015144,-0.000121707,-0.0146613,0.0240404,-0.00901802,-0.545397,0.0197322,0.0162834,1959,1310,18.3947,-4.55146
742,-286,18.3486,4.3241,0.0203942,-5.08662e-05,-0.0200313,0.0326606,-0.0123173,-0.54946,0.0268388,0.0301488,1966,1310,18.3487,-4.32411
749,-286,18.3719,4.02734,0.0271478,6.73332e-05,-0.0268747,0.0437005,-0.0164855,-0.552046,0.035913,0.0427154,1973,1310,18.372,-4.02731
756,-286,18.5129,3.74255,0,0,0,0,0,0,0,-1,1980,1310,18.5129,-3.74251
763,-286,19.4144,2.83569,0,0,0,0,0,0,0,-1,1987,1310,19.4144,-2.83571
770,-286,19.6971,2.56433,0,0,0,0,0,0,0,-1,1994,1310,19.6971,-2.56427
777,-286,0,0,0,0,0,0,0,0,0,-1,2001,1310,0,0
784,-286,0,0,0,0,0,0,0,0,0,-1,2008,1310,0,0
791,-286,0,0,0,0,0,0,0,0,0,-1,2015,1310,0,0
798,-286,0,0,0,0,0,0,0,0,0,-1,2022,1310,0,0
805,-286,0,0,0,0,0,0,0,0,0,-1,2029,1310,0,0
812,-286,0,0,0,0,0,0,0,0,0,-1,2036,1310,0,0
-700,-293,0,0,0,0,0,0,0,0,0,-1,524,1317,0,0
-693,-293,0,0,0,0,0,0,0,0,0,-1,531,1317,0,0
-686,-293,0,0,0,0,0,0,0,0,0,-1,538,1317,0,0
-679,-293,0,0,0,0,0,0,0,0,0,-1,545,1317,0,0
-672,-293,0,0,0,0,0,0,0,0,0,-1,552,1317,0,0
-665,-293,0,0,0,0,0,0,0,0,0,-1,559,1317,0,0
-658,-293,0,0,0,0,0,0,0,0,0,-1,566,1317,0,0
-651,-293,-8.74939,-0.894531,0,0,0,0,0,0,0,-1,573,1317,-8.74939,0.894486
-644,-293,-9.15582,-1.58716,0,0,0,0,0,0,0,-1,580,1317,-9.15584,1.58714
-637,-293,-9.68512,-1.5531,0,0,0,0,0,0,0,-1,587,1317,-9.68514,1.55309
-630,-293,-10.2875,-1.5592,0,0,0,0,0,0,0,-1,594,1317,-10.2875,1.55923
-623,-293,-11.3631,-1.75769,0,0,0,0,0,0,0,-1,601,1317,-11.3631,1.75765
-616,-293,-10.1044,0.578735,0,0,0,0,0,0,0,-1,608,1317,-10.1044,-0.578676
-609,-293,-9.84015,1.6991,0,0,0,0,0,0,0,-1,615,1317,-9.84013,-1.69911
-602,-293,-9.67627,2.19727,0.00295264,0.0197352,0.00828326,0.0231348,-0.000447017,1.18134,0.0155744,0.0294357,622,1317,-9.67628,-2.1973
-595,-293,-9.71967,2.49512,0.00221527,0.0141275,0.00598438,0.0166147,-0.000271836,1.17691,0.0111682,0.0148015,629,1317,-9.71968,-2.49515
-588,-293,-9.69733,2.75208,0.00184371,0.0100038,0.00424861,0.0118142,3.32966e-05,1.16798,0.00786505,0.0153115,636,1317,-9.69733,-2.75209
-581,-293,-9.69269,3.00208,0.0017174,0.00678742,0.00295838,0.00814834,0.000356478,1.13964,0.00531738,0.0179864,643,1317,-9.69269,-3.0021
-574,-293,-9.69849,3.25671,0.00168781,0.00430675,0.00192821,0.0053281,0.000666461,1.08368,0.00335207,0.0163541,650,1317,-9.69846,-3.25676
-567,-293,-9.73041,3.52405,0.00159005,0.00233633,0.00113226,0.00315535,0.00077103,0.944569,0.00189946,0.0162456,657,1317,-9.73043,-3.52404
-560,-293,-9.73682,3.79321,0.00124592,0.000544527,0.000380518,0.0014127,0.000377747,0.413081,0.000844528,0.016355,664,1317,-9.7368,-3.79316
-553,-293,-9.70453,4.02747,0.000877702,-0.000692108,-0.000174756,0.000896921,-0.000711328,-0.109537,0.000930582,0.0105617,671,1317,-9.70455,-4.0275
-546,-293,-9.71497,4.29541,1.43553e-06,-0.00174367,-0.000713969,0.000256314,-0.00199855,-0.342886,0.0014255,0.00978129,678,1317,-9.71499,-4.2954
-539,-293,-9.70392,4.54712,-0.00141939,-0.0022315,-0.00132364,-0.000440921,-0.00320997,-0.636568,0.0020092,0.0258449,685,1317,-9.7039,-4.54708
-532,-293,-9.6842,4.7666,0,0,0,0,0,0,0,-1,692,1317,-9.6842,-4.76658
-525,-293,-8.20642,3.62256,0,0,0,0,0,0,0,-1,699,1317,-8.20639,-3.6226
-518,-293,-10.1053,0.314209,0,0,0,0,0,0,0,-1,706,1317,-10.1053,-0.314234
-511,-293,-11.6276,0.235352,0,0,0,0,0,0,0,-1,713,1317,-11.6276,-0.235372
-504,-293,-12.7952,-0.503662,0,0,0,0,0,0,0,-1,720,1317,-12.7952,0.503708
-497,-293,-13.2831,-0.993774,0,0,0,0,0,0,0,-1,727,1317,-13.2832,0.993781
-490,-293,-13.5778,-0.0212402,0,0,0,0,0,0,0,-1,734,1317,-13.5778,0.0211991
-483,-293,-14.1409,0.455566,0,0,0,0,0,0,0,-1,741,1317,-14.1409,-0.455583
-476,-293,-13.4256,0.298706,0,0,0,0,0,0,0,-1,748,1317,-13.4256,-0.298756
-469,-293,0,0,0,0,0,0,0,0,0,-1,755,1317,0,0
-462,-293,0,0,0,0,0,0,0,0,0,-1,762,1317,0,0
-455,-293,0,0,0,0,0,0,0,0,0,-1,769,1317,0,0
-448,-293,0,0,0,0,0,0,0,0,0,-1,776,1317,0,0
-441,-293,0,0,0,0,0,0,0,0,0,-1,783,1317,0,0
-434,-293,0,0,0,0,0,0,0,0,0,-1,790,1317,0,0
-427,-293,0,0,0,0,0,0,0,0,0,-1,797,1317,0,0
-420,-293,0,0,0,0,0,0,0,0,0,-1,804,1317,0,0
-413,-293,0,0,0,0,0,0,0,0,0,-1,811,1317,0,0
-406,-293,0,0,0,0,0,0,0,0,0,-1,818,1317,0,0
-399,-293,0,0,0,0,0,0,0,0,0,-1,825,1317,0,0
-392,-293,0,0,0,0,0,0,0,0,0,-1,832,1317,0,0
-385,-293,0,0,0,0,0,0,0,0,0,-1,839,1317,0,0
-378,-293,0,0,0,0,0,0,0,0,0,-1,846,1317,0,0
-371,-293,0,0,0,0,0,0,0,0,0,-1,853,1317,0,0
-364,-293,0,0,0,0,0,0,0,0,0,-1,860,1317,0,0
-357,-293,0,0,0,0,0,0,0,0,0,-1,867,1317,0,0
-350,-293,0,0,0,0,0,0,0,0,0,-1,874,1317,0,0
-343,-293,0,0,0,0,0,0,0,0,0,-1,881,1317,0,0
-336,-293,0,0,0,0,0,0,0,0,0,-1,888,1317,0,0
-329,-293,0,0,0,0,0,0,0,0,0,-1,895,1317,0,0
-322,-293,0,0,0,0,0,0,0,0,0,-1,902,1317,0,0
-315,-293,0,0,0,0,0,0,0,0,0,-1,909,1317,0,0
-308,-293,0,0,0,0,0,0,0,0,0,-1,916,1317,0,0
-301,-293,0,0,0,0,0,0,0,0,0,-1,923,1317,0,0
-294,-293,0,0,0,0,0,0,0,0,0,-1,930,1317,0,0
-287,-293,0,0,0,0,0,0,0,0,0,-1,937,1317,0,0
-280,-293,0,0,0,0,0,0,0,0,0,-1,944,1317,0,0
-273,-293,0,0,0,0,0,0,0,0,0,-1,951,1317,0,0
-266,-293,0,0,0,0,0,0,0,0,0,-1,958,1317,0,0
-259,-293,0,0,0,0,0,0,0,0,0,-1,965,1317,0,0
-252,-293,0,0,0,0,0,0,0,0,0,-1,972,1317,0,0
-245,-293,0,0,0,0,0,0,0,0,0,-1,979,1317,0,0
-238,-293,0,0,0,0,0,0,0,0,0,-1,986,1317,0,0
-231,-293,0,0,0,0,0,0,0,0,0,-1,993,1317,0,0
-224,-293,0,0,0,0,0,0,0,0,0,-1,1000,1317,0,0
-217,-293,0,0,0,0,0,0,0,0,0,-1,1007,1317,0,0
-210,-293,0,0,0,0,0,0,0,0,0,-1,1014,1317,0,0
-203,-293,0,0,0,0,0,0,0,0,0,-1,1021,1317,0,0
-196,-293,0,0,0,0,0,0,0,0,0,-1,1028,1317,0,0
-189,-293,0,0,0,0,0,0,0,0,0,-1,1035,1317,0,0
-182,-293,0,0,0,0,0,0,0,0,0,-1,1042,1317,0,0
-175,-293,0,0,0,0,0,0,0,0,0,-1,1049,1317,0,0
-168,-293,0,0,0,0,0,0,0,0,0,-1,1056,1317,0,0
-161,-293,0,0,0,0,0,0,0,0,0,-1,1063,1317,0,0
-154,-293,0,0,0,0,0,0,0,0,0,-1,1070,1317,0,0
-147,-293,0,0,0,0,0,0,0,0,0,-1,1077,1317,0,0
-140,-293,0,0,0,0,0,0,0,0,0,-1,1084,1317,0,0
-133,-293,0,0,0,0,0,0,0,0,0,-1,1091,1317,0,0
-126,-293,0,0,0,0,0,0,0,0,0,-1,1098,1317,0,0
-119,-293,0,0,0,0,0,0,0,0,0,-1,1105,1317,0,0
-112,-293,0,0,0,0,0,0,0,0,0,-1,1112,1317,0,0
-105,-293,0,0,0,0,0,0,0,0,0,-1,1119,1317,0,0
-98,-293,0,0,0,0,0,0,0,0,0,-1,1126,1317,0,0
-91,-293,0,0,0,0,0,0,0,0,0,-1,1133,1317,0,0
-84,-293,0,0,0,0,0,0,0,0,0,-1,1140,1317,0,0
-77,-293,0,0,0,0,0,0,0,0,0,-1,1147,1317,0,0
-70,-293,0,0,0,0,0,0,0,0,0,-1,1154,1317,0,0
-63,-293,0,0,0,0,0,0,0,0,0,-1,1161,1317,0,0
-56,-293,0,0,0,0,0,0,0,0,0,-1,1168,1317,0,0
-49,-293,0,0,0,0,0,0,0,0,0,-1,1175,1317,0,0
-42,-293,0,0,0,0,0,0,0,0,0,-1,1182,1317,0,0
-35,-293,0,0,0,0,0,0,0,0,0,-1,1189,1317,0,0
-28,-293,0,0,0,0,0,0,0,0,0,-1,1196,1317,0,0
-21,-293,0,0,0,0,0,0,0,0,0,-1,1203,1317,0,0
-14,-293,0,0,0,0,0,0,0,0,0,-1,1210,1317,0,0
-7,-293,0,0,0,0,0,0,0,0,0,-1,1217,1317,0,0
0,-293,0,0,0,0,0,0,0,0,0,-1,1224,1317,0,0
7,-293,0,0,0,0,0,0,0,0,0,-1,1231,1317,0,0
14,-293,0,0,0,0,0,0,0,0,0,-1,1238,1317,0,0
21,-293,0,0,0,0,0,0,0,0,0,-1,1245,1317,0,0
28,-293,0,0,0,0,0,0,0,0,0,-1,1252,1317,0,0
35,-293,0,0,0,0,0,0,0,0,0,-1,1259,1317,0,0
42,-293,0,0,0,0,0,0,0,0,0,-1,1266,1317,0,0
49,-293,0,0,0,0,0,0,0,0,0,-1,1273,1317,0,0
56,-293,0,0,0,0,0,0,0,0,0,-1,1280,1317,0,0
63,-293,0,0,0,0,0,0,0,0,0,-1,1287,1317,0,0
70,-293,0,0,0,0,0,0,0,0,0,-1,1294,1317,0,0
77,-293,0,0,0,0,0,0,0,0,0,-1,1301,1317,0,0
84,-293,0,0,0,0,0,0,0,0,0,-1,1308,1317,0,0
91,-293,0,0,0,0,0,0,0,0,0,-1,1315,1317,0,0
98,-293,0,0,0,0,0,0,0,0,0,-1,1322,1317,0,0
105,-293,0,0,0,0,0,0,0,0,0,-1,1329,1317,0,0
112,-293,0,0,0,0,0,0,0,0,0,-1,1336,1317,0,0
119,-293,0,0,0,0,0,0,0,0,0,-1,1343,1317,0,0
126,-293,0,0,0,0,0,0,0,0,0,-1,1350,1317,0,0
133,-293,0,0,0,0,0,0,0,0,0,-1,1357,1317,0,0
140,-293,0,0,0,0,0,0,0,0,0,-1,1364,1317,0,0
147,-293,0,0,0,0,0,0,0,0,0,-1,1371,1317,0,0
154,-293,0,0,0,0,0,0,0,0,0,-1,1378,1317,0,0
161,-293,0,0,0,0,0,0,0,0,0,-1,1385,1317,0,0
168,-293,0,0,0,0,0,0,0,0,0,-1,1392,1317,0,0
175,-293,0,0,0,0,0,0,0,0,0,-1,1399,1317,0,0
182,-293,0,0,0,0,0,0,0,0,0,-1,1406,1317,0,0
189,-293,0,0,0,0,0,0,0,0,0,-1,1413,1317,0,0
196,-293,0,0,0,0,0,0,0,0,0,-1,1420,1317,0,0
203,-293,0,0,0,0,0,0,0,0,0,-1,1427,1317,0,0
210,-293,0,0,0,0,0,0,0,0,0,-1,1434,1317,0,0
217,-293,0,0,0,0,0,0,0,0,0,-1,1441,1317,0,0
224,-293,0,0,0,0,0,0,0,0,0,-1,1448,1317,0,0
231,-293,0,0,0,0,0,0,0,0,0,-1,1455,1317,0,0
238,-293,0,0,0,0,0,0,0,0,0,-1,1462,1317,0,0
245,-293,0,0,0,0,0,0,0,0,0,-1,1469,1317,0,0
252,-293,0,0,0,0,0,0,0,0,0,-1,1476,1317,0,0
259,-293,0,0,0,0,0,0,0,0,0,-1,1483,1317,0,0
266,-293,0,0,0,0,0,0,0,0,0,-1,1490,1317,0,0
273,-293,0,0,0,0,0,0,0,0,0,-1,1497,1317,0,0
280,-293,0,0,0,0,0,0,0,0,0,-1,1504,1317,0,0
287,-293,0,0,0,0,0,0,0,0,0,-1,1511,1317,0,0
294,-293,0,0,0,0,0,0,0,0,0,-1,1518,1317,0,0
301,-293,0,0,0,0,0,0,0,0,0,-1,1525,1317,0,0
308,-293,0,0,0,0,0,0,0,0,0,-1,1532,1317,0,0
315,-293,0,0,0,0,0,0,0,0,0,-1,1539,1317,0,0
322,-293,0,0,0,0,0,0,0,0,0,-1,1546,1317,0,0
329,-293,0,0,0,0,0,0,0,0,0,-1,1553,1317,0,0
336,-293,0,0,0,0,0,0,0,0,0,-1,1560,1317,0,0
343,-293,0,0,0,0,0,0,0,0,0,-1,1567,1317,0,0
350,-293,0,0,0,0,0,0,0,0,0,-1,1574,1317,0,0
357,-293,0,0,0,0,0,0,0,0,0,-1,1581,1317,0,0
364,-293,0,0,0,0,0,0,0,0,0,-1,1588,1317,0,0
371,-293,0,0,0,0,0,0,0,0,0,-1,1595,1317,0,0
378,-293,0,0,0,0,0,0,0,0,0,-1,1602,1317,0,0
385,-293,0,0,0,0,0,0,0,0,0,-1,1609,1317,0,0
392,-293,0,0,0,0,0,0,0,0,0,-1,1616,1317,0,0
399,-293,0,0,0,0,0,0,0,0,0,-1,1623,1317,0,0
406,-293,0,0,0,0,0,0,0,0,0,-1,1630,1317,0,0
413,-293,0,0,0,0,0,0,0,0,0,-1,1637,1317,0,0
420,-293,0,0,0,0,0,0,0,0,0,-1,1644,1317,0,0
427,-293,0,0,0,0,0,0,0,0,0,-1,1651,1317,0,0
434,-293,0,0,0,0,0,0,0,0,0,-1,1658,1317,0,0
441,-293,0,0,0,0,0,0,0,0,0,-1,1665,1317,0,0
448,-293,0,0,0,0,0,0,0,0,0,-1,1672,1317,0,0
455,-293,0,0,0,0,0,0,0,0,0,-1,1679,1317,0,0
462,-293,0,0,0,0,0,0,0,0,0,-1,1686,1317,0,0
469,-293,0,0,0,0,0,0,0,0,0,-1,1693,1317,0,0
476,-293,0,0,0,0,0,0,0,0,0,-1,1700,1317,0,0
483,-293,0,0,0,0,0,0,0,0,0,-1,1707,1317,0,0
490,-293,0,0,0,0,0,0,0,0,0,-1,1714,1317,0,0
497,-293,0,0,0,0,0,0,0,0,0,-1,1721,1317,0,0
504,-293,0,0,0,0,0,0,0,0,0,-1,1728,1317,0,0
511,-293,0,0,0,0,0,0,0,0,0,-1,1735,1317,0,0
518,-293,0,0,0,0,0,0,0,0,0,-1,1742,1317,0,0
525,-293,0,0,0,0,0,0,0,0,0,-1,1749,1317,0,0
532,-293,0,0,0,0,0,0,0,0,0,-1,1756,1317,0,0
539,-293,0,0,0,0,0,0,0,0,0,-1,1763,1317,0,0
546,-293,0,0,0,0,0,0,0,0,0,-1,1770,1317,0,0
553,-293,0,0,0,0,0,0,0,0,0,-1,1777,1317,0,0
560,-293,0,0,0,0,0,0,0,0,0,-1,1784,1317,0,0
567,-293,0,0,0,0,0,0,0,0,0,-1,1791,1317,0,0
574,-293,0,0,0,0,0,0,0,0,0,-1,1798,1317,0,0
581,-293,0,0,0,0,0,0,0,0,0,-1,1805,1317,0,0
588,-293,0,0,0,0,0,0,0,0,0,-1,1812,1317,0,0
595,-293,24.0562,2.70984,0,0,0,0,0,0,0,-1,1819,1317,24.0561,-2.70989
602,-293,24.1974,2.61035,0,0,0,0,0,0,0,-1,1826,1317,24.1974,-2.61031
609,-293,24.2119,2.45886,0,0,0,0,0,0,0,-1,1833,1317,24.2119,-2.45892
616,-293,23.5859,1.75452,0.00610425,0.0199825,-0.0192748,0.0335292,-0.0074425,-0.95818,0.0252026,0.0486205,1840,1317,23.586,-1.75454
623,-293,23.6407,1.5094,0.00271113,0.0210267,-0.0162665,0.0305361,-0.00679823,-1.04178,0.0229614,0.045557,1847,1317,23.6408,-1.50945
630,-293,23.8787,1.55139,-3.18851e-05,0.0210384,-0.0133877,0.0275391,-0.0065326,-1.11876,0.0208804,0.046658,1854,1317,23.8787,-1.55138
637,-293,24.1708,1.6488,0,0,0,0,0,0,0,-1,1861,1317,24.1708,-1.64884
644,-293,22.5355,3.37354,0,0,0,0,0,0,0,-1,1868,1317,22.5355,-3.37358
651,-293,19.5983,6.08557,0,0,0,0,0,0,0,-1,1875,1317,19.5983,-6.08557
658,-293,19.0179,6.39978,0,0,0,0,0,0,0,-1,1882,1317,19.0179,-6.39975
665,-293,18.53,6.6073,-0.00758442,0.00899173,-0.00282169,0.00945889,-0.00805157,-1.40672,0.0101205,0.0372817,1889,1317,18.5301,-6.60731
672,-293,18.1932,6.55164,-0.00739119,0.00524863,-0.000796632,0.00529864,-0.0074412,-1.5081,0.00738994,0.0177256,1896,1317,18.1933,-6.55158
679,-293,18.1556,6.2749,-0.00671545,0.0023745,0.000429008,0.0023947,-0.00673565,1.52374,0.0054664,0.0129054,1903,1317,18.1556,-6.27494
686,-293,18.1429,6.02722,-0.00516382,0.000844873,0.000906048,0.000978523,-0.00529747,1.42434,0.00389897,0.0147774,1910,1317,18.1429,-6.02726
693,-293,18.1664,5.82813,-0.00262075,5.785e-05,0.000409314,0.000119001,-0.0026819,1.42249,0.00182889,0.0114266,1917,1317,18.1664,-5.82817
700,-293,18.1658,5.60669,0.000157138,-0.000447389,-0.000922261,0.000825404,-0.00111565,-0.627043,0.00112484,0.0102824,1924,1317,18.1658,-5.60672
707,-293,18.1606,5.41479,0.00309093,-0.000530023,-0.00299321,0.00477862,-0.00221771,-0.513405,0.00412854,0.0113658,1931,1317,18.1607,-5.41475
714,-293,18.1648,5.20959,0.0061993,-0.000494265,-0.00574709,0.00950308,-0.00379804,-0.52173,0.00791136,0.00810202,1938,1317,18.1648,-5.20964
721,-293,18.1714,4.98657,0.00982552,-0.000615619,-0.00909954,0.0150957,-0.00588581,-0.524963,0.0124966,0.00885703,1945,1317,18.1714,-4.98656
728,-293,18.1675,4.75098,0.0140776,-0.000807902,-0.0132006,0.021789,-0.00851934,-0.528702,0.0180489,0.0109215,1952,1317,18.1675,-4.75094
735,-293,18.1587,4.5094,0.0192957,-0.00100916,-0.0184092,0.0301664,-0.0118798,-0.533406,0.025029,0.0169086,1959,1317,18.1587,-4.50937
742,-293,18.1277,4.33972,0.0260018,-0.00124103,-0.0251266,0.0409616,-0.0162009,-0.537015,0.0340192,0.0317983,1966,1317,18.1277,-4.33967
749,-293,18.3389,4.23474,0.0345998,-0.00143344,-0.0336731,0.0547732,-0.0216069,-0.539754,0.0454627,0.040427,1973,1317,18.3388,-4.2347
756,-293,18.7129,3.99866,0,0,0,0,0,0,0,-1,1980,1317,18.7128,-3.99864
763,-293,19.5724,2.77686,0,0,0,0,0,0,0,-1,1987,1317,19.5724,-2.77686
770,-293,18.6544,1.7428,0,0,0,0,0,0,0,-1,1994,1317,18.6544,-1.74274
777,-293,0,0,0,0,0,0,0,0,0,-1,2001,1317,0,0
784,-293,0,0,0,0,0,0,0,0,0,-1,2008,1317,0,0
791,-293,0,0,0,0,0,0,0,0,0,-1,2015,1317,0,0
798,-293,0,0,0,0,0,0,0,0,0,-1,2022,1317,0,0
805,-293,0,0,0,0,0,0,0,0,0,-1,2029,1317,0,0
812,-293,0,0,0,0,0,0,0,0,0,-1,2036,1317,0,0
-700,-300,0,0,0,0,0,0,0,0,0,-1,524,1324,0,0
-693,-300,0,0,0,0,0,0,0,0,0,-1,531,1324,0,0
-686,-300,0,0,0,0,0,0,0,0,0,-1,538,1324,0,0
-679,-300,0,0,0,0,0,0,0,0,0,-1,545,1324,0,0
-672,-300,0,0,0,0,0,0,0,0,0,-1,552,1324,0,0
-665,-300,0,0,0,0,0,0,0,0,0,-1,559,1324,0,0
-658,-300,0,0,0,0,0,0,0,0,0,-1,566,1324,0,0
-651,-300,-9.28979,-2.52283,0,0,0,0,0,0,0,-1,573,1324,-9.28979,2.52288
-644,-300,-9.52692,-2.5238,0,0,0,0,0,0,0,-1,580,1324,-9.52693,2.52379
-637,-300,-9.9209,-2.52283,0,0,0,0,0,0,0,-1,587,1324,-9.92089,2.52287
-630,-300,-10.1252,-2.33801,0,0,0,0,0,0,0,-1,594,1324,-10.1252,2.33807
-623,-300,-11.5741,-2.62061,0,0,0,0,0,0,0,-1,601,1324,-11.5741,2.62058
-616,-300,-9.5755,1.1178,0,0,0,0,0,0,0,-1,608,1324,-9.5755,-1.11779
-609,-300,-9.33154,1.69153,0,0,0,0,0,0,0,-1,615,1324,-9.33157,-1.69159
-602,-300,-9.31738,2.14514,0.00352292,0.0252382,0.0102189,0.0292908,-0.00052968,1.19324,0.0197061,0.0381923,622,1324,-9.3174,-2.14515
-595,-300,-9.47766,2.4917,0.00253621,0.018098,0.00723575,0.0209424,-0.000308263,1.19624,0.0140655,0.0205799,629,1324,-9.47765,-2.49164
-588,-300,-9.4353,2.77563,0.00195195,0.0127185,0.00507041,0.0147304,-5.99576e-05,1.19306,0.0098403,0.0201577,636,1324,-9.43531,-2.77566
-581,-300,-9.42767,3.04919,0.00166886,0.00866927,0.00350831,0.0101248,0.000213297,1.17752,0.00667993,0.0204504,643,1324,-9.42766,-3.04924
-574,-300,-9.44666,3.30371,0.00153294,0.00550592,0.0022798,0.00654327,0.000495586,1.14378,0.00420673,0.0161338,650,1324,-9.44664,-3.30377
-567,-300,-9.47766,3.54956,0.0014218,0.00302899,0.00133717,0.00378545,0.000665333,1.05596,0.00233369,0.0165898,657,1324,-9.47768,-3.54954
-560,-300,-9.49371,3.80396,0.00112307,0.000942508,0.000445275,0.00148713,0.000578455,0.685376,0.00086562,0.0152402,664,1324,-9.4937,-3.80402
-553,-300,-9.44397,4.0354,0.000901253,-0.000509228,-0.000170297,0.000921523,-0.000529498,-0.118469,0.000847878,0.0102381,671,1324,-9.44396,-4.03543
-546,-300,-9.44873,4.28894,0.000390896,-0.00166458,-0.000719984,0.000617997,-0.00189168,-0.305548,0.00150988,0.00803411,678,1324,-9.44876,-4.28899
-539,-300,-9.44,4.56335,-0.000433584,-0.00165513,-0.00118653,0.000290149,-0.00237886,-0.547708,0.00169094,0.0149346,685,1324,-9.44002,-4.56333
-532,-300,-9.63879,4.68176,-0.00187189,-0.00302396,-0.00173297,-0.000621719,-0.00427413,-0.624944,0.00266645,0.0403989,692,1324,-9.63878,-4.68179
-525,-300,-9.84491,4.65747,0,0,0,0,0,0,0,-1,699,1324,-9.84491,-4.65747
-518,-300,-9.8349,-0.537109,0,0,0,0,0,0,0,-1,706,1324,-9.83487,0.537068
-511,-300,-10.9606,-0.611328,0,0,0,0,0,0,0,-1,713,1324,-10.9606,0.611334
-504,-300,-11.9684,-0.761963,0,0,0,0,0,0,0,-1,720,1324,-11.9684,0.761981
-497,-300,-12.8073,-0.66626,0,0,0,0,0,0,0,-1,727,1324,-12.8073,0.666219
-490,-300,-13.2748,-0.221191,0,0,0,0,0,0,0,-1,734,1324,-13.2748,0.221223
-483,-300,-13.2533,0.178101,0,0,0,0,0,0,0,-1,741,1324,-13.2533,-0.178142
-476,-300,-13.1127,0.436401,0,0,0,0,0,0,0,-1,748,1324,-13.1126,-0.436348
-469,-300,0,0,0,0,0,0,0,0,0,-1,755,1324,0,0
-462,-300,0,0,0,0,0,0,0,0,0,-1,762,1324,0,0
-455,-300,0,0,0,0,0,0,0,0,0,-1,769,1324,0,0
-448,-300,0,0,0,0,0,0,0,0,0,-1,776,1324,0,0
-441,-300,0,0,0,0,0,0,0,0,0,-1,783,1324,0,0
-434,-300,0,0,0,0,0,0,0,0,0,-1,790,1324,0,0
-427,-300,0,0,0,0,0,0,0,0,0,-1,797,1324,0,0
-420,-300,0,0,0,0,0,0,0,0,0,-1,804,1324,0,0
-413,-300,0,0,0,0,0,0,0,0,0,-1,811,1324,0,0
-406,-300,0,0,0,0,0,0,0,0,0,-1,818,1324,0,0
-399,-300,0,0,0,0,0,0,0,0,0,-1,825,1324,0,0
-392,-300,0,0,0,0,0,0,0,0,0,-1,832,1324,0,0
-385,-300,0,0,0,0,0,0,0,0,0,-1,839,1324,0,0
-378,-300,0,0,0,0,0,0,0,0,0,-1,846,1324,0,0
-371,-300,0,0,0,0,0,0,0,0,0,-1,853,1324,0,0
-364,-300,0,0,0,0,0,0,0,0,0,-1,860,1324,0,0
-357,-300,0,0,0,0,0,0,0,0,0,-1,867,1324,0,0
-350,-300,0,0,0,0,0,0,0,0,0,-1,874,1324,0,0
-343,-300,0,0,0,0,0,0,0,0,0,-1,881,1324,0,0
-336,-300,0,0,0,0,0,0,0,0,0,-1,888,1324,0,0
-329,-300,0,0,0,0,0,0,0,0,0,-1,895,1324,0,0
-322,-300,0,0,0,0,0,0,0,0,0,-1,902,1324,0,0
-315,-300,0,0,0,0,0,0,0,0,0,-1,909,1324,0,0
-308,-300,0,0,0,0,0,0,0,0,0,-1,916,1324,0,0
-301,-300,0,0,0,0,0,0,0,0,0,-1,923,1324,0,0
-294,-300,0,0,0,0,0,0,0,0,0,-1,930,1324,0,0
-287,-300,0,0,0,0,0,0,0,0,0,-1,937,1324,0,0
-280,-300,0,0,0,0,0,0,0,0,0,-1,944,1324,0,0
-273,-300,0,0,0,0,0,0,0,0,0,-1,951,1324,0,0
-266,-300,0,0,0,0,0,0,0,0,0,-1,958,1324,0,0
-259,-300,0,0,0,0,0,0,0,0,0,-1,965,1324,0,0
-252,-300,0,0,0,0,0,0,0,0,0,-1,972,1324,0,0
-245,-300,0,0,0,0,0,0,0,0,0,-1,979,1324,0,0
-238,-300,0,0,0,0,0,0,0,0,0,-1,986,1324,0,0
-231,-300,0,0,0,0,0,0,0,0,0,-1,993,1324,0,0
-224,-300,0,0,0,0,0,0,0,0,0,-1,1000,1324,0,0
-217,-300,0,0,0,0,0,0,0,0,0,-1,1007,1324,0,0
-210,-300,0,0,0,0,0,0,0,0,0,-1,1014,1324,0,0
-203,-300,0,0,0,0,0,0,0,0,0,-1,1021,1324,0,0
-196,-300,0,0,0,0,0,0,0,0,0,-1,1028,1324,0,0
-189,-300,0,0,0,0,0,0,0,0,0,-1,1035,1324,0,0
-182,-300,0,0,0,0,0,0,0,0,0,-1,1042,1324,0,0
-175,-300,0,0,0,0,0,0,0,0,0,-1,1049,1324,0,0
-168,-300,0,0,0,0,0,0,0,0,0,-1,1056,1324,0,0
-161,-300,0,0,0,0,0,0,0,0,0,-1,1063,1324,0,0
-154,-300,0,0,0,0,0,0,0,0,0,-1,1070,1324,0,0
-147,-300,0,0,0,0,0,0,0,0,0,-1,1077,1324,0,0
-140,-300,0,0,0,0,0,0,0,0,0,-1,1084,1324,0,0
-133,-300,0,0,0,0,0,0,0,0,0,-1,1091,1324,0,0
-126,-300,0,0,0,0,0,0,0,0,0,-1,1098,1324,0,0
-119,-300,0,0,0,0,0,0,0,0,0,-1,1105,1324,0,0
-112,-300,0,0,0,0,0,0,0,0,0,-1,1112,1324,0,0
-105,-300,0,0,0,0,0,0,0,0,0,-1,1119,1324,0,0
-98,-300,0,0,0,0,0,0,0,0,0,-1,1126,1324,0,0
-91,-300,0,0,0,0,0,0,0,0,0,-1,1133,1324,0,0
-84,-300,0,0,0,0,0,0,0,0,0,-1,1140,1324,0,0
-77,-300,0,0,0,0,0,0,0,0,0,-1,1147,1324,0,0
-70,-300,0,0,0,0,0,0,0,0,0,-1,1154,1324,0,0
-63,-300,0,0,0,0,0,0,0,0,0,-1,1161,1324,0,0
-56,-300,0,0,0,0,0,0,0,0,0,-1,1168,1324,0,0
-49,-300,0,0,0,0,0,0,0,0,0,-1,1175,1324,0,0
-42,-300,0,0,0,0,0,0,0,0,0,-1,1182,1324,0,0
-35,-300,0,0,0,0,0,0,0,0,0,-1,1189,1324,0,0
-28,-300,0,0,0,0,0,0,0,0,0,-1,1196,1324,0,0
-21,-300,0,0,0,0,0,0,0,0,0,-1,1203,1324,0,0
-14,-300,0,0,0,0,0,0,0,0,0,-1,1210,1324,0,0
-7,-300,0,0,0,0,0,0,0,0,0,-1,1217,1324,0,0
0,-300,0,0,0,0,0,0,0,0,0,-1,1224,1324,0,0
7,-300,0,0,0,0,0,0,0,0,0,-1,1231,1324,0,0
14,-300,0,0,0,0,0,0,0,0,0,-1,1238,1324,0,0
21,-300,0,0,0,0,0,0,0,0,0,-1,1245,1324,0,0
28,-300,0,0,0,0,0,0,0,0,0,-1,1252,1324,0,0
35,-300,0,0,0,0,0,0,0,0,0,-1,1259,1324,0,0
42,-300,0,0,0,0,0,0,0,0,0,-1,1266,1324,0,0
49,-300,0,0,0,0,0,0,0,0,0,-1,1273,1324,0,0
56,-300,0,0,0,0,0,0,0,0,0,-1,1280,1324,0,0
63,-300,0,0,0,0,0,0,0,0,0,-1,1287,1324,0,0
70,-300,0,0,0,0,0,0,0,0,0,-1,1294,1324,0,0
77,-300,0,0,0,0,0,0,0,0,0,-1,1301,1324,0,0
84,-300,0,0,0,0,0,0,0,0,0,-1,1308,1324,0,0
91,-300,0,0,0,0,0,0,0,0,0,-1,1315,1324,0,0
98,-300,0,0,0,0,0,0,0,0,0,-1,1322,1324,0,0
105,-300,0,0,0,0,0,0,0,0,0,-1,1329,1324,0,0
112,-300,0,0,0,0,0,0,0,0,0,-1,1336,1324,0,0
119,-300,0,0,0,0,0,0,0,0,0,-1,1343,1324,0,0
126,-300,0,0,0,0,0,0,0,0,0,-1,1350,1324,0,0
133,-300,0,0,0,0,0,0,0,0,0,-1,1357,1324,0,0
140,-300,0,0,0,0,0,0,0,0,0,-1,1364,1324,0,0
147,-300,0,0,0,0,0,0,0,0,0,-1,1371,1324,0,0
154,-300,0,0,0,0,0,0,0,0,0,-1,1378,1324,0,0
161,-300,0,0,0,0,0,0,0,0,0,-1,1385,1324,0,0
168,-300,0,0,0,0,0,0,0,0,0,-1,1392,1324,0,0
175,-300,0,0,0,0,0,0,0,0,0,-1,1399,1324,0,0
182,-300,0,0,0,0,0,0,0,0,0,-1,1406,1324,0,0
189,-300,0,0,0,0,0,0,0,0,0,-1,1413,1324,0,0
196,-300,0,0,0,0,0,0,0,0,0,-1,1420,1324,0,0
203,-300,0,0,0,0,0,0,0,0,0,-1,1427,1324,0,0
210,-300,0,0,0,0,0,0,0,0,0,-1,1434,1324,0,0
217,-300,0,0,0,0,0,0,0,0,0,-1,1441,1324,0,0
224,-300,0,0,0,0,0,0,0,0,0,-1,1448,1324,0,0
231,-300,0,0,0,0,0,0,0,0,0,-1,1455,1324,0,0
238,-300,0,0,0,0,0,0,0,0,0,-1,1462,1324,0,0
245,-300,0,0,0,0,0,0,0,0,0,-1,1469,1324,0,0
252,-300,0,0,0,0,0,0,0,0,0,-1,1476,1324,0,0
259,-300,0,0,0,0,0,0,0,0,0,-1,1483,1324,0,0
266,-300,0,0,0,0,0,0,0,0,0,-1,1490,1324,0,0
273,-300,0,0,0,0,0,0,0,0,0,-1,1497,1324,0,0
280,-300,0,0,0,0,0,0,0,0,0,-1,1504,1324,0,0
287,-300,0,0,0,0,0,0,0,0,0,-1,1511,1324,0,0
294,-300,0,0,0,0,0,0,0,0,0,-1,1518,1324,0,0
301,-300,0,0,0,0,0,0,0,0,0,-1,1525,1324,0,0
308,-300,0,0,0,0,0,0,0,0,0,-1,1532,1324,0,0
315,-300,0,0,0,0,0,0,0,0,0,-1,1539,1324,0,0
322,-300,0,0,0,0,0,0,0,0,0,-1,1546,1324,0,0
329,-300,0,0,0,0,0,0,0,0,0,-1,1553,1324,0,0
336,-300,0,0,0,0,0,0,0,0,0,-1,1560,1324,0,0
343,-300,0,0,0,0,0,0,0,0,0,-1,1567,1324,0,0
350,-300,0,0,0,0,0,0,0,0,0,-1,1574,1324,0,0
357,-300,0,0,0,0,0,0,0,0,0,-1,1581,1324,0,0
364,-300,0,0,0,0,0,0,0,0,0,-1,1588,1324,0,0
371,-300,0,0,0,0,0,0,0,0,0,-1,1595,1324,0,0
378,-300,0,0,0,0,0,0,0,0,0,-1,1602,1324,0,0
385,-300,0,0,0,0,0,0,0,0,0,-1,1609,1324,0,0
392,-300,0,0,0,0,0,0,0,0,0,-1,1616,1324,0,0
399,-300,0,0,0,0,0,0,0,0,0,-1,1623,1324,0,0
406,-300,0,0,0,0,0,0,0,0,0,-1,1630,1324,0,0
413,-300,0,0,0,0,0,0,0,0,0,-1,1637,1324,0,0
420,-300,0,0,0,0,0,0,0,0,0,-1,1644,1324,0,0
427,-300,0,0,0,0,0,0,0,0,0,-1,1651,1324,0,0
434,-300,0,0,0,0,0,0,0,0,0,-1,1658,1324,0,0
441,-300,0,0,0,0,0,0,0,0,0,-1,1665,1324,0,0
448,-300,0,0,0,0,0,0,0,0,0,-1,1672,1324,0,0
455,-300,0,0,0,0,0,0,0,0,0,-1,1679,1324,0,0
462,-300,0,0,0,0,0,0,0,0,0,-1,1686,1324,0,0
469,-300,0,0,0,0,0,0,0,0,0,-1,1693,1324,0,0
476,-300,0,0,0,0,0,0,0,0,0,-1,1700,1324,0,0
483,-300,0,0,0,0,0,0,0,0,0,-1,1707,1324,0,0
490,-300,0,0,0,0,0,0,0,0,0,-1,1714,1324,0,0
497,-300,0,0,0,0,0,0,0,0,0,-1,1721,1324,0,0
504,-300,0,0,0,0,0,0,0,0,0,-1,1728,1324,0,0
511,-300,0,0,0,0,0,0,0,0,0,-1,1735,1324,0,0
518,-300,0,0,0,0,0,0,0,0,0,-1,1742,1324,0,0
525,-300,0,0,0,0,0,0,0,0,0,-1,1749,1324,0,0
532,-300,0,0,0,0,0,0,0,0,0,-1,1756,1324,0,0
539,-300,0,0,0,0,0,0,0,0,0,-1,1763,1324,0,0
546,-300,0,0,0,0,0,0,0,0,0,-1,1770,1324,0,0
553,-300,0,0,0,0,0,0,0,0,0,-1,1777,1324,0,0
560,-300,0,0,0,0,0,0,0,0,0,-1,1784,1324,0,0
567,-300,0,0,0,0,0,0,0,0,0,-1,1791,1324,0,0
574,-300,0,0,0,0,0,0,0,0,0,-1,1798,1324,0,0
581,-300,0,0,0,0,0,0,0,0,0,-1,1805,1324,0,0
588,-300,23.6748,2.36597,0,0,0,0,0,0,0,-1,1812,1324,23.6748,-2.36599
595,-300,23.9714,2.64722,0,0,0,0,0,0,0,-1,1819,1324,23.9715,-2.64717
602,-300,23.9548,1.98242,0,0,0,0,0,0,0,-1,1826,1324,23.9548,-1.98242
609,-300,23.9907,1.5144,0.0128457,0.0102356,-0.0226054,0.0341837,-0.0111024,-0.756564,0.0272544,0.0486395,1833,1324,23.9908,-1.5144
616,-300,24.0273,1.21997,0.00900078,0.0145746,-0.0194548,0.0314411,-0.00786575,-0.856539,0.024016,0.0476338,1840,1324,24.0273,-1.21991
623,-300,24.0179,1.05493,0.0057893,0.0165279,-0.0164609,0.0284731,-0.00615589,-0.943049,0.0213322,0.0494752,1847,1324,24.0179,-1.05497
630,-300,24.1906,1.40613,0,0,0,0,0,0,0,-1,1854,1324,24.1905,-1.40607
637,-300,23.5313,3.25256,0,0,0,0,0,0,0,-1,1861,1324,23.5312,-3.25255
644,-300,19.2581,3.37158,0,0,0,0,0,0,0,-1,1868,1324,19.2581,-3.37159
651,-300,18.2344,6.52832,0,0,0,0,0,0,0,-1,1875,1324,18.2344,-6.52834
658,-300,18.5254,6.76294,0,0,0,0,0,0,0,-1,1882,1324,18.5254,-6.76294
665,-300,18.0356,6.76062,-0.00683805,0.00711804,-0.0021187,0.00743259,-0.00715261,-1.42341,0.00842129,0.0296415,1889,1324,18.0356,-6.76063
672,-300,17.9351,6.57007,-0.00663601,0.00313708,3.23281e-05,0.00313719,-0.00663612,1.56749,0.0057619,0.0112176,1896,1324,17.935,-6.57005
679,-300,17.9529,6.29102,-0.00594818,0.000494394,0.00114566,0.000692056,-0.00614584,1.39995,0.00434632,0.0115841,1903,1324,17.9528,-6.29096
686,-300,17.9604,6.0531,-0.00440166,-0.000443531,0.00130069,-5.43718e-05,-0.00479082,1.28008,0.00317591,0.0117892,1910,1324,17.9605,-6.05307
693,-300,17.9543,5.85461,-0.00179612,-0.000702178,0.000314423,-0.000618245,-0.00188005,1.30994,0.00110644,0.0104047,1917,1324,17.9543,-5.85457
700,-300,17.9528,5.63037,0.00120654,-0.000825004,-0.00156454,0.00205613,-0.0016746,-0.497476,0.00215769,0.0117945,1924,1324,17.9527,-5.63035
707,-300,17.9556,5.39929,0.00447316,-0.000763256,-0.0041022,0.00672148,-0.00301157,-0.501365,0.00575384,0.00877694,1931,1324,17.9556,-5.39932
714,-300,17.9547,5.19568,0.0081446,-0.000758754,-0.00735074,0.0122866,-0.00490073,-0.513131,0.0102239,0.010373,1938,1324,17.9547,-5.19569
721,-300,17.9623,4.98083,0.0124781,-0.00100575,-0.0113141,0.0189067,-0.00743433,-0.516703,0.0156814,0.0106369,1945,1324,17.9622,-4.98086
728,-300,17.9659,4.74463,0.0176995,-0.00139403,-0.0162496,0.0269992,-0.0106937,-0.519807,0.0224305,0.00980089,1952,1324,17.966,-4.74458
735,-300,17.8405,4.60852,0.024271,-0.00185384,-0.0226321,0.0373398,-0.0149226,-0.523669,0.0310852,0.0177552,1959,1324,17.8405,-4.60855
742,-300,17.8302,4.42578,0.0327316,-0.00237126,-0.0308913,0.0507094,-0.0203491,-0.527056,0.0422554,0.0323489,1966,1324,17.8302,-4.42579
749,-300,18.3273,4.03528,0.0435303,-0.00281227,-0.0414045,0.0678062,-0.0270882,-0.530294,0.0564435,0.0461266,1973,1324,18.3272,-4.03533
756,-300,18.772,3.75854,0,0,0,0,0,0,0,-1,1980,1324,18.772,-3.75849
763,-300,22.6136,5.1571,0,0,0,0,0,0,0,-1,1987,1324,22.6136,-5.15706
770,-300,16.4082,5.24438,0,0,0,0,0,0,0,-1,1994,1324,16.4082,-5.24439
777,-300,0,0,0,0,0,0,0,0,0,-1,2001,1324,0,0
784,-300,0,0,0,0,0,0,0,0,0,-1,2008,1324,0,0
791,-300,0,0,0,0,0,0,0,0,0,-1,2015,1324,0,0
798,-300,0,0,0,0,0,0,0,0,0,-1,2022,1324,0,0
805,-300,0,0,0,0,0,0,0,0,0,-1,2029,1324,0,0
812,-300,0,0,0,0,0,0,0,0,0,-1,2036,1324,0,0
-700,-307,0,0,0,0,0,0,0,0,0,-1,524,1331,0,0
-693,-307,0,0,0,0,0,0,0,0,0,-1,531,1331,0,0
-686,-307,0,0,0,0,0,0,0,0,0,-1,538,1331,0,0
-679,-307,0,0,0,0,0,0,0,0,0,-1,545,1331,0,0
-672,-307,0,0,0,0,0,0,0,0,0,-1,552,1331,0,0
-665,-307,0,0,0,0,0,0,0,0,0,-1,559,1331,0,0
-658,-307,0,0,0,0,0,0,0,0,0,-1,566,1331,0,0
-651,-307,-9.31384,-3.41101,0,0,0,0,0,0,0,-1,573,1331,-9.31385,3.41099
-644,-307,-9.79364,-3.47278,0,0,0,0,0,0,0,-1,580,1331,-9.79367,3.47273
-637,-307,-10.3242,-3.97095,0,0,0,0,0,0,0,-1,587,1331,-10.3242,3.971
-630,-307,-11.215,-4.1936,0,0,0,0,0,0,0,-1,594,1331,-11.215,4.19359
-623,-307,-12.0624,-4.39124,0,0,0,0,0,0,0,-1,601,1331,-12.0624,4.39121
-616,-307,-12.8339,-4.58374,0,0,0,0,0,0,0,-1,608,1331,-12.8339,4.58379
-609,-307,-9.0246,1.20068,0,0,0,0,0,0,0,-1,615,1331,-9.02461,-1.20074
-602,-307,-8.99969,1.9696,0.00479631,0.0322359,0.0124704,0.0370564,-2.42386e-05,1.20193,0.0247124,0.0392115,622,1331,-8.99971,-1.96962
-595,-307,-9.23859,2.50269,0.00335269,0.0227478,0.00870662,0.0260828,1.76681e-05,1.20499,0.0173826,0.0216872,629,1331,-9.23857,-2.50267
-588,-307,-9.19159,2.78662,0.00242688,0.0158034,0.00602765,0.0181188,0.000111516,1.20405,0.0120422,0.0181347,636,1331,-9.19158,-2.78661
-581,-307,-9.16425,3.05566,0.00189165,0.0107688,0.00416606,0.0124176,0.000242768,1.19393,0.0081987,0.0158562,643,1331,-9.16427,-3.05567
-574,-307,-9.2063,3.2865,0.0015934,0.00690758,0.00272992,0.00806003,0.000440951,1.17134,0.00523257,0.0131349,650,1331,-9.20632,-3.2865
-567,-307,-9.23401,3.54614,0.00139403,0.00397637,0.00162581,0.00476135,0.000609055,1.12099,0.00299195,0.0128157,657,1331,-9.23398,-3.54619
-560,-307,-9.23859,3.80164,0.00107828,0.00163615,0.000577447,0.0019985,0.00071593,1.0104,0.00116919,0.0133551,664,1331,-9.23859,-3.80158
-553,-307,-9.20734,4.04773,0.000888132,5.04786e-05,-0.000177305,0.000924116,1.44946e-05,-0.200231,0.000611303,0.0103615,671,1331,-9.20735,-4.04773
-546,-307,-9.1875,4.29724,0.000578619,-0.00106436,-0.000860565,0.000946842,-0.00143258,-0.404312,0.00138327,0.0096866,678,1331,-9.18751,-4.29728
-539,-307,-9.17474,4.57471,0.000153905,-0.000716385,-0.00145097,0.00123358,-0.00179606,-0.639716,0.00175918,0.0123449,685,1331,-9.17476,-4.57466
-532,-307,-9.12445,4.76746,-0.000561355,-0.00134145,-0.00209944,0.00118397,-0.00308677,-0.693552,0.00254598,0.0343145,692,1331,-9.12447,-4.76749
-525,-307,-9.2229,4.9425,0,0,0,0,0,0,0,-1,699,1331,-9.22288,-4.94254
-518,-307,-9.77777,-1.56653,0,0,0,0,0,0,0,-1,706,1331,-9.77777,1.56651
-511,-307,-10.3354,-1.02979,0,0,0,0,0,0,0,-1,713,1331,-10.3354,1.02976
-504,-307,-11.1548,-0.647827,0,0,0,0,0,0,0,-1,720,1331,-11.1548,0.647776
-497,-307,-11.8691,-0.187988,0,0,0,0,0,0,0,-1,727,1331,-11.8691,0.187963
-490,-307,-12.9172,-0.579102,0,0,0,0,0,0,0,-1,734,1331,-12.9172,0.579057
-483,-307,-12.8444,0.123901,0,0,0,0,0,0,0,-1,741,1331,-12.8444,-0.123895
-476,-307,-12.8369,0.472534,0,0,0,0,0,0,0,-1,748,1331,-12.8368,-0.472485
-469,-307,-12.987,0.623047,0,0,0,0,0,0,0,-1,755,1331,-12.987,-0.622992
-462,-307,0,0,0,0,0,0,0,0,0,-1,762,1331,0,0
-455,-307,0,0,0,0,0,0,0,0,0,-1,769,1331,0,0
-448,-307,0,0,0,0,0,0,0,0,0,-1,776,1331,0,0
-441,-307,0,0,0,0,0,0,0,0,0,-1,783,1331,0,0
-434,-307,0,0,0,0,0,0,0,0,0,-1,790,1331,0,0
-427,-307,0,0,0,0,0,0,0,0,0,-1,797,1331,0,0
-420,-307,0,0,0,0,0,0,0,0,0,-1,804,1331,0,0
-413,-307,0,0,0,0,0,0,0,0,0,-1,811,1331,0,0
-406,-307,0,0,0,0,0,0,0,0,0,-1,818,1331,0,0
-399,-307,0,0,0,0,0,0,0,0,0,-1,825,1331,0,0
-392,-307,0,0,0,0,0,0,0,0,0,-1,832,1331,0,0
-385,-307,0,0,0,0,0,0,0,0,0,-1,839,1331,0,0
-378,-307,0,0,0,0,0,0,0,0,0,-1,846,1331,0,0
-371,-307,0,0,0,0,0,0,0,0,0,-1,853,1331,0,0
-364,-307,0,0,0,0,0,0,0,0,0,-1,860,1331,0,0
-357,-307,0,0,0,0,0,0,0,0,0,-1,867,1331,0,0
-350,-307,0,0,0,0,0,0,0,0,0,-1,874,1331,0,0
-343,-307,0,0,0,0,0,0,0,0,0,-1,881,1331,0,0
-336,-307,0,0,0,0,0,0,0,0,0,-1,888,1331,0,0
-329,-307,0,0,0,0,0,0,0,0,0,-1,895,1331,0,0
-322,-307,0,0,0,0,0,0,0,0,0,-1,902,1331,0,0
-315,-307,0,0,0,0,0,0,0,0,0,-1,909,1331,0,0
-308,-307,0,0,0,0,0,0,0,0,0,-1,916,1331,0,0
-301,-307,0,0,0,0,0,0,0,0,0,-1,923,1331,0,0
-294,-307,0,0,0,0,0,0,0,0,0,-1,930,1331,0,0
-287,-307,0,0,0,0,0,0,0,0,0,-1,937,1331,0,0
-280,-307,0,0,0,0,0,0,0,0,0,-1,944,1331,0,0
-273,-307,0,0,0,0,0,0,0,0,0,-1,951,1331,0,0
-266,-307,0,0,0,0,0,0,0,0,0,-1,958,1331,0,0
-259,-307,0,0,0,0,0,0,0,0,0,-1,965,1331,0,0
-252,-307,0,0,0,0,0,0,0,0,0,-1,972,1331,0,0
-245,-307,0,0,0,0,0,0,0,0,0,-1,979,1331,0,0
-238,-307,0,0,0,0,0,0,0,0,0,-1,986,1331,0,0
-231,-307,0,0,0,0,0,0,0,0,0,-1,993,1331,0,0
-224,-307,0,0,0,0,0,0,0,0,0,-1,1000,1331,0,0
-217,-307,0,0,0,0,0,0,0,0,0,-1,1007,1331,0,0
-210,-307,0,0,0,0,0,0,0,0,0,-1,1014,1331,0,0
-203,-307,0,0,0,0,0,0,0,0,0,-1,1021,1331,0,0
-196,-307,0,0,0,0,0,0,0,0,0,-1,1028,1331,0,0
-189,-307,0,0,0,0,0,0,0,0,0,-1,1035,1331,0,0
-182,-307,0,0,0,0,0,0,0,0,0,-1,1042,1331,0,0
-175,-307,0,0,0,0,0,0,0,0,0,-1,1049,1331,0,0
-168,-307,0,0,0,0,0,0,0,0,0,-1,1056,1331,0,0
-161,-307,0,0,0,0,0,0,0,0,0,-1,1063,1331,0,0
-154,-307,0,0,0,0,0,0,0,0,0,-1,1070,1331,0,0
-147,-307,0,0,0,0,0,0,0,0,0,-1,1077,1331,0,0
-140,-307,0,0,0,0,0,0,0,0,0,-1,1084,1331,0,0
-133,-307,0,0,0,0,0,0,0,0,0,-1,1091,1331,0,0
-126,-307,0,0,0,0,0,0,0,0,0,-1,1098,1331,0,0
-119,-307,0,0,0,0,0,0,0,0,0,-1,1105,1331,0,0
-112,-307,0,0,0,0,0,0,0,0,0,-1,1112,1331,0,0
-105,-307,0,0,0,0,0,0,0,0,0,-1,1119,1331,0,0
-98,-307,0,0,0,0,0,0,0,0,0,-1,1126,1331,0,0
-91,-307,0,0,0,0,0,0,0,0,0,-1,1133,1331,0,0
-84,-307,0,0,0,0,0,0,0,0,0,-1,1140,1331,0,0
-77,-307,0,0,0,0,0,0,0,0,0,-1,1147,1331,0,0
-70,-307,0,0,0,0,0,0,0,0,0,-1,1154,1331,0,0
-63,-307,0,0,0,0,0,0,0,0,0,-1,1161,1331,0,0
-56,-307,0,0,0,0,0,0,0,0,0,-1,1168,1331,0,0
-49,-307,0,0,0,0,0,0,0,0,0,-1,1175,1331,0,0
-42,-307,0,0,0,0,0,0,0,0,0,-1,1182,1331,0,0
-35,-307,0,0,0,0,0,0,0,0,0,-1,1189,1331,0,0
-28,-307,0,0,0,0,0,0,0,0,0,-1,1196,1331,0,0
-21,-307,0,0,0,0,0,0,0,0,0,-1,1203,1331,0,0
-14,-307,0,0,0,0,0,0,0,0,0,-1,1210,1331,0,0
-7,-307,0,0,0,0,0,0,0,0,0,-1,1217,1331,0,0
0,-307,0,0,0,0,0,0,0,0,0,-1,1224,1331,0,0
7,-307,0,0,0,0,0,0,0,0,0,-1,1231,1331,0,0
14,-307,0,0,0,0,0,0,0,0,0,-1,1238,1331,0,0
21,-307,0,0,0,0,0,0,0,0,0,-1,1245,1331,0,0
28,-307,0,0,0,0,0,0,0,0,0,-1,1252,1331,0,0
35,-307,0,0,0,0,0,0,0,0,0,-1,1259,1331,0,0
42,-307,0,0,0,0,0,0,0,0,0,-1,1266,1331,0,0
49,-307,0,0,0,0,0,0,0,0,0,-1,1273,1331,0,0
56,-307,0,0,0,0,0,0,0,0,0,-1,1280,1331,0,0
63,-307,0,0,0,0,0,0,0,0,0,-1,1287,1331,0,0
70,-307,0,0,0,0,0,0,0,0,0,-1,1294,1331,0,0
77,-307,0,0,0,0,0,0,0,0,0,-1,1301,1331,0,0
84,-307,0,0,0,0,0,0,0,0,0,-1,1308,1331,0,0
91,-307,0,0,0,0,0,0,0,0,0,-1,1315,1331,0,0
98,-307,0,0,0,0,0,0,0,0,0,-1,1322,1331,0,0
105,-307,0,0,0,0,0,0,0,0,0,-1,1329,1331,0,0
112,-307,0,0,0,0,0,0,0,0,0,-1,1336,1331,0,0
119,-307,0,0,0,0,0,0,0,0,0,-1,1343,1331,0,0
126,-307,0,0,0,0,0,0,0,0,0,-1,1350,1331,0,0
133,-307,0,0,0,0,0,0,0,0,0,-1,1357,1331,0,0
140,-307,0,0,0,0,0,0,0,0,0,-1,1364,1331,0,0
147,-307,0,0,0,0,0,0,0,0,0,-1,1371,1331,0,0
154,-307,0,0,0,0,0,0,0,0,0,-1,1378,1331,0,0
161,-307,0,0,0,0,0,0,0,0,0,-1,1385,1331,0,0
168,-307,0,0,0,0,0,0,0,0,0,-1,1392,1331,0,0
175,-307,0,0,0,0,0,0,0,0,0,-1,1399,1331,0,0
182,-307,0,0,0,0,0,0,0,0,0,-1,1406,1331,0,0
189,-307,0,0,0,0,0,0,0,0,0,-1,1413,1331,0,0
196,-307,0,0,0,0,0,0,0,0,0,-1,1420,1331,0,0
203,-307,0,0,0,0,0,0,0,0,0,-1,1427,1331,0,0
210,-307,0,0,0,0,0,0,0,0,0,-1,1434,1331,0,0
217,-307,0,0,0,0,0,0,0,0,0,-1,1441,1331,0,0
224,-307,0,0,0,0,0,0,0,0,0,-1,1448,1331,0,0
231,-307,0,0,0,0,0,0,0,0,0,-1,1455,1331,0,0
238,-307,0,0,0,0,0,0,0,0,0,-1,1462,1331,0,0
245,-307,0,0,0,0,0,0,0,0,0,-1,1469,1331,0,0
252,-307,0,0,0,0,0,0,0,0,0,-1,1476,1331,0,0
259,-307,0,0,0,0,0,0,0,0,0,-1,1483,1331,0,0
266,-307,0,0,0,0,0,0,0,0,0,-1,1490,1331,0,0
273,-307,0,0,0,0,0,0,0,0,0,-1,1497,1331,0,0
280,-307,0,0,0,0,0,0,0,0,0,-1,1504,1331,0,0
287,-307,0,0,0,0,0,0,0,0,0,-1,1511,1331,0,0
294,-307,0,0,0,0,0,0,0,0,0,-1,1518,1331,0,0
301,-307,0,0,0,0,0,0,0,0,0,-1,1525,1331,0,0
308,-307,0,0,0,0,0,0,0,0,0,-1,1532,1331,0,0
315,-307,0,0,0,0,0,0,0,0,0,-1,1539,1331,0,0
322,-307,0,0,0,0,0,0,0,0,0,-1,1546,1331,0,0
329,-307,0,0,0,0,0,0,0,0,0,-1,1553,1331,0,0
336,-307,0,0,0,0,0,0,0,0,0,-1,1560,1331,0,0
343,-307,0,0,0,0,0,0,0,0,0,-1,1567,1331,0,0
350,-307,0,0,0,0,0,0,0,0,0,-1,1574,1331,0,0
357,-307,0,0,0,0,0,0,0,0,0,-1,1581,1331,0,0
364,-307,0,0,0,0,0,0,0,0,0,-1,1588,1331,0,0
371,-307,0,0,0,0,0,0,0,0,0,-1,1595,1331,0,0
378,-307,0,0,0,0,0,0,0,0,0,-1,1602,1331,0,0
385,-307,0,0,0,0,0,0,0,0,0,-1,1609,1331,0,0
392,-307,0,0,0,0,0,0,0,0,0,-1,1616,1331,0,0
399,-307,0,0,0,0,0,0,0,0,0,-1,1623,1331,0,0
406,-307,0,0,0,0,0,0,0,0,0,-1,1630,1331,0,0
413,-307,0,0,0,0,0,0,0,0,0,-1,1637,1331,0,0
420,-307,0,0,0,0,0,0,0,0,0,-1,1644,1331,0,0
427,-307,0,0,0,0,0,0,0,0,0,-1,1651,1331,0,0
434,-307,0,0,0,0,0,0,0,0,0,-1,1658,1331,0,0
441,-307,0,0,0,0,0,0,0,0,0,-1,1665,1331,0,0
448,-307,0,0,0,0,0,0,0,0,0,-1,1672,1331,0,0
455,-307,0,0,0,0,0,0,0,0,0,-1,1679,1331,0,0
462,-307,0,0,0,0,0,0,0,0,0,-1,1686,1331,0,0
469,-307,0,0,0,0,0,0,0,0,0,-1,1693,1331,0,0
476,-307,0,0,0,0,0,0,0,0,0,-1,1700,1331,0,0
483,-307,0,0,0,0,0,0,0,0,0,-1,1707,1331,0,0
490,-307,0,0,0,0,0,0,0,0,0,-1,1714,1331,0,0
497,-307,0,0,0,0,0,0,0,0,0,-1,1721,1331,0,0
504,-307,0,0,0,0,0,0,0,0,0,-1,1728,1331,0,0
511,-307,0,0,0,0,0,0,0,0,0,-1,1735,1331,0,0
518,-307,0,0,0,0,0,0,0,0,0,-1,1742,1331,0,0
525,-307,0,0,0,0,0,0,0,0,0,-1,1749,1331,0,0
532,-307,0,0,0,0,0,0,0,0,0,-1,1756,1331,0,0
539,-307,0,0,0,0,0,0,0,0,0,-1,1763,1331,0,0
546,-307,0,0,0,0,0,0,0,0,0,-1,1770,1331,0,0
553,-307,0,0,0,0,0,0,0,0,0,-1,1777,1331,0,0
560,-307,0,0,0,0,0,0,0,0,0,-1,1784,1331,0,0
567,-307,0,0,0,0,0,0,0,0,0,-1,1791,1331,0,0
574,-307,0,0,0,0,0,0,0,0,0,-1,1798,1331,0,0
581,-307,0,0,0,0,0,0,0,0,0,-1,1805,1331,0,0
588,-307,23.6001,2.33496,0,0,0,0,0,0,0,-1,1812,1331,23.6001,-2.33493
595,-307,23.738,1.8717,0,0,0,0,0,0,0,-1,1819,1331,23.7381,-1.87173
602,-307,23.9377,1.47021,0.0199663,-0.00435257,-0.0259935,0.0365038,-0.0208901,-0.566625,0.0335426,0.0475978,1826,1331,23.9378,-1.47016
609,-307,24.0941,1.03748,0.0160579,0.00423685,-0.0229481,0.0338444,-0.0135497,-0.659357,0.0281868,0.0480527,1833,1331,24.0941,-1.03745
616,-307,24.3757,0.730835,0,0,0,0,0,0,0,-1,1840,1331,24.3758,-0.730884
623,-307,24.3323,0.619995,0,0,0,0,0,0,0,-1,1847,1331,24.3323,-0.62004
630,-307,23.9779,2.86987,0,0,0,0,0,0,0,-1,1854,1331,23.9778,-2.86989
637,-307,16.6766,1.98096,0,0,0,0,0,0,0,-1,1861,1331,16.6766,-1.98096
644,-307,16.6293,5.94641,0,0,0,0,0,0,0,-1,1868,1331,16.6293,-5.94645
651,-307,17.5013,5.80078,0,0,0,0,0,0,0,-1,1875,1331,17.5014,-5.80072
658,-307,18.0507,6.35046,0,0,0,0,0,0,0,-1,1882,1331,18.0506,-6.35049
665,-307,17.7472,6.74426,-0.00570234,0.00529207,-0.00132775,0.00545014,-0.00586042,-1.4523,0.00653159,0.018573,1889,1331,17.7472,-6.74427
672,-307,17.7413,6.54871,-0.0055038,0.00138636,0.000774677,0.00147238,-0.00558983,1.4602,0.00430217,0.00935181,1896,1331,17.7414,-6.54873
679,-307,17.7444,6.31519,-0.00485489,-0.000763612,0.00163401,-0.000191118,-0.00542739,1.2338,0.00355626,0.00999302,1903,1331,17.7444,-6.3152
686,-307,17.7335,6.08142,-0.00336493,-0.00106985,0.0013804,-0.000422294,-0.00401248,1.13217,0.00254592,0.00972574,1910,1331,17.7336,-6.08137
693,-307,17.7129,5.87524,-0.00070384,-0.00101653,-0.000112136,-0.000667783,-0.00105258,-0.311103,0.000614986,0.0117927,1917,1331,17.7129,-5.87524
700,-307,17.7188,5.63501,0.00257189,-0.000907256,-0.00246574,0.00384993,-0.00218529,-0.478195,0.00352834,0.0123066,1924,1331,17.7188,-5.63504
707,-307,17.7169,5.39221,0.0062056,-0.000842105,-0.00541675,0.00914385,-0.00378035,-0.497018,0.00767298,0.012144,1931,1331,17.7169,-5.39218
714,-307,17.7365,5.19141,0.0104768,-0.000940803,-0.00911387,0.0155222,-0.00598623,-0.505601,0.0128183,0.0117572,1938,1331,17.7364,-5.19138
721,-307,17.7689,4.98389,0.0156239,-0.0013669,-0.0136809,0.0232325,-0.00897553,-0.507551,0.019193,0.0143752,1945,1331,17.7689,-4.98393
728,-307,17.7421,4.84058,0.0219644,-0.00201473,-0.0194486,0.0328221,-0.0128724,-0.509176,0.0272069,0.0222696,1952,1331,17.7421,-4.84053
735,-307,17.6095,4.68481,0.0300728,-0.00286945,-0.0269574,0.0451928,-0.0179894,-0.511162,0.0375884,0.0321068,1959,1331,17.6095,-4.68486
742,-307,16.7318,1.99072,0,0,0,0,0,0,0,-1,1966,1331,16.7318,-1.99074
749,-307,17.3585,1.06238,0,0,0,0,0,0,0,-1,1973,1331,17.3586,-1.06235
756,-307,20.2983,3.10876,0,0,0,0,0,0,0,-1,1980,1331,20.2983,-3.10882
763,-307,21.2723,4.4834,0,0,0,0,0,0,0,-1,1987,1331,21.2723,-4.48338
770,-307,0,0,0,0,0,0,0,0,0,-1,1994,1331,0,0
777,-307,0,0,0,0,0,0,0,0,0,-1,2001,1331,0,0
784,-307,0,0,0,0,0,0,0,0,0,-1,2008,1331,0,0
791,-307,0,0,0,0,0,0,0,0,0,-1,2015,1331,0,0
798,-307,0,0,0,0,0,0,0,0,0,-1,2022,1331,0,0
805,-307,0,0,0,0,0,0,0,0,0,-1,2029,1331,0,0
812,-307,0,0,0,0,0,0,0,0,0,-1,2036,1331,0,0
-700,-314,0,0,0,0,0,0,0,0,0,-1,524,1338,0,0
-693,-314,0,0,0,0,0,0,0,0,0,-1,531,1338,0,0
-686,-314,0,0,0,0,0,0,0,0,0,-1,538,1338,0,0
-679,-314,0,0,0,0,0,0,0,0,0,-1,545,1338,0,0
-672,-314,0,0,0,0,0,0,0,0,0,-1,552,1338,0,0
-665,-314,0,0,0,0,0,0,0,0,0,-1,559,1338,0,0
-658,-314,0,0,0,0,0,0,0,0,0,-1,566,1338,0,0
-651,-314,0,0,0,0,0,0,0,0,0,-1,573,1338,0,0
-644,-314,-10.086,-4.38721,0,0,0,0,0,0,0,-1,580,1338,-10.086,4.38722
-637,-314,-10.7723,-5.3269,0,0,0,0,0,0,0,-1,587,1338,-10.7723,5.32696
-630,-314,-11.6743,-5.57129,0,0,0,0,0,0,0,-1,594,1338,-11.6743,5.57124
-623,-314,-12.3889,-6.0636,0,0,0,0,0,0,0,-1,601,1338,-12.3889,6.06356
-616,-314,-13.0955,-6.53992,0,0,0,0,0,0,0,-1,608,1338,-13.0955,6.53997
-609,-314,-8.9104,1.00525,0,0,0,0,0,0,0,-1,615,1338,-8.91039,-1.00523
-602,-314,-8.77069,1.69238,0,0,0,0,0,0,0,-1,622,1338,-8.77067,-1.69233
-595,-314,-8.63092,2.37939,0,0,0,0,0,0,0,-1,629,1338,-8.63094,-2.37943
-588,-314,-8.94952,2.76672,0.00285478,0.0189283,0.00690082,0.0214845,0.000298584,1.21605,0.0142245,0.0169519,636,1338,-8.94954,-2.76667
-581,-314,-8.92072,3.02466,0.00205964,0.0128743,0.00468759,0.0146232,0.000310663,1.21369,0.00964694,0.0125996,643,1338,-8.92069,-3.02462
-574,-314,-8.96503,3.23865,0.00160182,0.00834829,0.00301866,0.00950176,0.000448355,1.2058,0.00619047,0.0120513,650,1338,-8.96505,-3.2386
-567,-314,-8.96808,3.53564,0.00131618,0.00500159,0.00178155,0.00572198,0.000595785,1.18653,0.00363238,0.0129853,657,1338,-8.96808,-3.53565
-560,-314,-8.95569,3.79407,0.000953305,0.00240691,0.000663653,0.00266432,0.000695893,1.20079,0.00159566,0.0142173,664,1338,-8.95568,-3.79404
-553,-314,-8.95142,4.04248,0.000739534,0.000642694,-0.000134503,0.000834067,0.000548161,-0.612623,0.000489419,0.0168265,671,1338,-8.95144,-4.04243
-546,-314,-8.9389,4.30823,0.0004768,-0.000596005,-0.000834597,0.000932507,-0.00105171,-0.499782,0.00114628,0.0171839,678,1338,-8.93888,-4.30828
-539,-314,-8.9433,4.58008,0.000106717,-0.000554205,-0.00142066,0.00123484,-0.00168233,-0.671124,0.00169082,0.0158157,685,1338,-8.94331,-4.58013
-532,-314,-8.76001,4.85486,-0.000467993,-0.00106641,-0.00197877,0.00123406,-0.00276846,-0.710362,0.00236678,0.0309934,692,1338,-8.76,-4.85491
-525,-314,-8.62378,5.04272,0,0,0,0,0,0,0,-1,699,1338,-8.6238,-5.04277
-518,-314,-8.52753,4.70032,0,0,0,0,0,0,0,-1,706,1338,-8.52755,-4.70034
-511,-314,-9.62854,-1.08521,0,0,0,0,0,0,0,-1,713,1338,-9.62852,1.08521
-504,-314,-10.2526,-0.388672,0,0,0,0,0,0,0,-1,720,1338,-10.2526,0.388728
-497,-314,-10.8138,0.151123,0,0,0,0,0,0,0,-1,727,1338,-10.8138,-0.151183
-490,-314,-11.5034,0.731689,0,0,0,0,0,0,0,-1,734,1338,-11.5034,-0.731652
-483,-314,-12.3753,1.21509,0,0,0,0,0,0,0,-1,741,1338,-12.3753,-1.21503
-476,-314,-12.684,0.322632,0,0,0,0,0,0,0,-1,748,1338,-12.684,-0.322641
-469,-314,-12.9529,0.492676,0,0,0,0,0,0,0,-1,755,1338,-12.9529,-0.492656
-462,-314,0,0,0,0,0,0,0,0,0,-1,762,1338,0,0
-455,-314,0,0,0,0,0,0,0,0,0,-1,769,1338,0,0
-448,-314,0,0,0,0,0,0,0,0,0,-1,776,1338,0,0
-441,-314,0,0,0,0,0,0,0,0,0,-1,783,1338,0,0
-434,-314,0,0,0,0,0,0,0,0,0,-1,790,1338,0,0
-427,-314,0,0,0,0,0,0,0,0,0,-1,797,1338,0,0
-420,-314,0,0,0,0,0,0,0,0,0,-1,804,1338,0,0
-413,-314,0,0,0,0,0,0,0,0,0,-1,811,1338,0,0
-406,-314,0,0,0,0,0,0,0,0,0,-1,818,1338,0,0
-399,-314,0,0,0,0,0,0,0,0,0,-1,825,1338,0,0
-392,-314,0,0,0,0,0,0,0,0,0,-1,832,1338,0,0
-385,-314,0,0,0,0,0,0,0,0,0,-1,839,1338,0,0
-378,-314,0,0,0,0,0,0,0,0,0,-1,846,1338,0,0
-371,-314,0,0,0,0,0,0,0,0,0,-1,853,1338,0,0
-364,-314,0,0,0,0,0,0,0,0,0,-1,860,1338,0,0
-357,-314,0,0,0,0,0,0,0,0,0,-1,867,1338,0,0
-350,-314,0,0,0,0,0,0,0,0,0,-1,874,1338,0,0
-343,-314,0,0,0,0,0,0,0,0,0,-1,881,1338,0,0
-336,-314,0,0,0,0,0,0,0,0,0,-1,888,1338,0,0
-329,-314,0,0,0,0,0,0,0,0,0,-1,895,1338,0,0
-322,-314,0,0,0,0,0,0,0,0,0,-1,902,1338,0,0
-315,-314,0,0,0,0,0,0,0,0,0,-1,909,1338,0,0
-308,-314,0,0,0,0,0,0,0,0,0,-1,916,1338,0,0
-301,-314,0,0,0,0,0,0,0,0,0,-1,923,1338,0,0
-294,-314,0,0,0,0,0,0,0,0,0,-1,930,1338,0,0
-287,-314,0,0,0,0,0,0,0,0,0,-1,937,1338,0,0
-280,-314,0,0,0,0,0,0,0,0,0,-1,944,1338,0,0
-273,-314,0,0,0,0,0,0,0,0,0,-1,951,1338,0,0
-266,-314,0,0,0,0,0,0,0,0,0,-1,958,1338,0,0
-259,-314,0,0,0,0,0,0,0,0,0,-1,965,1338,0,0
-252,-314,0,0,0,0,0,0,0,0,0,-1,972,1338,0,0
-245,-314,0,0,0,0,0,0,0,0,0,-1,979,1338,0,0
-238,-314,0,0,0,0,0,0,0,0,0,-1,986,1338,0,0
-231,-314,0,0,0,0,0,0,0,0,0,-1,993,1338,0,0
-224,-314,0,0,0,0,0,0,0,0,0,-1,1000,1338,0,0
-217,-314,0,0,0,0,0,0,0,0,0,-1,1007,1338,0,0
-210,-314,0,0,0,0,0,0,0,0,0,-1,1014,1338,0,0
-203,-314,0,0,0,0,0,0,0,0,0,-1,1021,1338,0,0
-196,-314,0,0,0,0,0,0,0,0,0,-1,1028,1338,0,0
-189,-314,0,0,0,0,0,0,0,0,0,-1,1035,1338,0,0
-182,-314,0,0,0,0,0,0,0,0,0,-1,1042,1338,0,0
-175,-314,0,0,0,0,0,0,0,0,0,-1,1049,1338,0,0
-168,-314,0,0,0,0,0,0,0,0,0,-1,1056,1338,0,0
-161,-314,0,0,0,0,0,0,0,0,0,-1,1063,1338,0,0
-154,-314,0,0,0,0,0,0,0,0,0,-1,1070,1338,0,0
-147,-314,0,0,0,0,0,0,0,0,0,-1,1077,1338,0,0
-140,-314,0,0,0,0,0,0,0,0,0,-1,1084,1338,0,0
-133,-314,0,0,0,0,0,0,0,0,0,-1,1091,1338,0,0
-126,-314,0,0,0,0,0,0,0,0,0,-1,1098,1338,0,0
-119,-314,0,0,0,0,0,0,0,0,0,-1,1105,1338,0,0
-112,-314,0,0,0,0,0,0,0,0,0,-1,1112,1338,0,0
-105,-314,0,0,0,0,0,0,0,0,0,-1,1119,1338,0,0
-98,-314,0,0,0,0,0,0,0,0,0,-1,1126,1338,0,0
-91,-314,0,0,0,0,0,0,0,0,0,-1,1133,1338,0,0
-84,-314,0,0,0,0,0,0,0,0,0,-1,1140,1338,0,0
-77,-314,0,0,0,0,0,0,0,0,0,-1,1147,1338,0,0
-70,-314,0,0,0,0,0,0,0,0,0,-1,1154,1338,0,0
-63,-314,0,0,0,0,0,0,0,0,0,-1,1161,1338,0,0
-56,-314,0,0,0,0,0,0,0,0,0,-1,1168,1338,0,0
-49,-314,0,0,0,0,0,0,0,0,0,-1,1175,1338,0,0
-42,-314,0,0,0,0,0,0,0,0,0,-1,1182,1338,0,0
-35,-314,0,0,0,0,0,0,0,0,0,-1,1189,1338,0,0
-28,-314,0,0,0,0,0,0,0,0,0,-1,1196,1338,0,0
-21,-314,0,0,0,0,0,0,0,0,0,-1,1203,1338,0,0
-14,-314,0,0,0,0,0,0,0,0,0,-1,1210,1338,0,0
-7,-314,0,0,0,0,0,0,0,0,0,-1,1217,1338,0,0
0,-314,0,0,0,0,0,0,0,0,0,-1,1224,1338,0,0
7,-314,0,0,0,0,0,0,0,0,0,-1,1231,1338,0,0
14,-314,0,0,0,0,0,0,0,0,0,-1,1238,1338,0,0
21,-314,0,0,0,0,0,0,0,0,0,-1,1245,1338,0,0
28,-314,0,0,0,0,0,0,0,0,0,-1,1252,1338,0,0
35,-314,0,0,0,0,0,0,0,0,0,-1,1259,1338,0,0
42,-314,0,0,0,0,0,0,0,0,0,-1,1266,1338,0,0
49,-314,0,0,0,0,0,0,0,0,0,-1,1273,1338,0,0
56,-314,0,0,0,0,0,0,0,0,0,-1,1280,1338,0,0
63,-314,0,0,0,0,0,0,0,0,0,-1,1287,1338,0,0
70,-314,0,0,0,0,0,0,0,0,0,-1,1294,1338,0,0
77,-314,0,0,0,0,0,0,0,0,0,-1,1301,1338,0,0
84,-314,0,0,0,0,0,0,0,0,0,-1,1308,1338,0,0
91,-314,0,0,0,0,0,0,0,0,0,-1,1315,1338,0,0
98,-314,0,0,0,0,0,0,0,0,0,-1,1322,1338,0,0
105,-314,0,0,0,0,0,0,0,0,0,-1,1329,1338,0,0
112,-314,0,0,0,0,0,0,0,0,0,-1,1336,1338,0,0
119,-314,0,0,0,0,0,0,0,0,0,-1,1343,1338,0,0
126,-314,0,0,0,0,0,0,0,0,0,-1,1350,1338,0,0
133,-314,0,0,0,0,0,0,0,0,0,-1,1357,1338,0,0
140,-314,0,0,0,0,0,0,0,0,0,-1,1364,1338,0,0
147,-314,0,0,0,0,0,0,0,0,0,-1,1371,1338,0,0
154,-314,0,0,0,0,0,0,0,0,0,-1,1378,1338,0,0
161,-314,0,0,0,0,0,0,0,0,0,-1,1385,1338,0,0
168,-314,0,0,0,0,0,0,0,0,0,-1,1392,1338,0,0
175,-314,0,0,0,0,0,0,0,0,0,-1,1399,1338,0,0
182,-314,0,0,0,0,0,0,0,0,0,-1,1406,1338,0,0
189,-314,0,0,0,0,0,0,0,0,0,-1,1413,1338,0,0
196,-314,0,0,0,0,0,0,0,0,0,-1,1420,1338,0,0
203,-314,0,0,0,0,0,0,0,0,0,-1,1427,1338,0,0
210,-314,0,0,0,0,0,0,0,0,0,-1,1434,1338,0,0
217,-314,0,0,0,0,0,0,0,0,0,-1,1441,1338,0,0
224,-314,0,0,0,0,0,0,0,0,0,-1,1448,1338,0,0
231,-314,0,0,0,0,0,0,0,0,0,-1,1455,1338,0,0
238,-314,0,0,0,0,0,0,0,0,0,-1,1462,1338,0,0
245,-314,0,0,0,0,0,0,0,0,0,-1,1469,1338,0,0
252,-314,0,0,0,0,0,0,0,0,0,-1,1476,1338,0,0
259,-314,0,0,0,0,0,0,0,0,0,-1,1483,1338,0,0
266,-314,0,0,0,0,0,0,0,0,0,-1,1490,1338,0,0
273,-314,0,0,0,0,0,0,0,0,0,-1,1497,1338,0,0
280,-314,0,0,0,0,0,0,0,0,0,-1,1504,1338,0,0
287,-314,0,0,0,0,0,0,0,0,0,-1,1511,1338,0,0
294,-314,0,0,0,0,0,0,0,0,0,-1,1518,1338,0,0
301,-314,0,0,0,0,0,0,0,0,0,-1,1525,1338,0,0
308,-314,0,0,0,0,0,0,0,0,0,-1,1532,1338,0,0
315,-314,0,0,0,0,0,0,0,0,0,-1,1539,1338,0,0
322,-314,0,0,0,0,0,0,0,0,0,-1,1546,1338,0,0
329,-314,0,0,0,0,0,0,0,0,0,-1,1553,1338,0,0
336,-314,0,0,0,0,0,0,0,0,0,-1,1560,1338,0,0
343,-314,0,0,0,0,0,0,0,0,0,-1,1567,1338,0,0
350,-314,0,0,0,0,0,0,0,0,0,-1,1574,1338,0,0
357,-314,0,0,0,0,0,0,0,0,0,-1,1581,1338,0,0
364,-314,0,0,0,0,0,0,0,0,0,-1,1588,1338,0,0
371,-314,0,0,0,0,0,0,0,0,0,-1,1595,1338,0,0
378,-314,0,0,0,0,0,0,0,0,0,-1,1602,1338,0,0
385,-314,0,0,0,0,0,0,0,0,0,-1,1609,1338,0,0
392,-314,0,0,0,0,0,0,0,0,0,-1,1616,1338,0,0
399,-314,0,0,0,0,0,0,0,0,0,-1,1623,1338,0,0
406,-314,0,0,0,0,0,0,0,0,0,-1,1630,1338,0,0
413,-314,0,0,0,0,0,0,0,0,0,-1,1637,1338,0,0
420,-314,0,0,0,0,0,0,0,0,0,-1,1644,1338,0,0
427,-314,0,0,0,0,0,0,0,0,0,-1,1651,1338,0,0
434,-314,0,0,0,0,0,0,0,0,0,-1,1658,1338,0,0
441,-314,0,0,0,0,0,0,0,0,0,-1,1665,1338,0,0
448,-314,0,0,0,0,0,0,0,0,0,-1,1672,1338,0,0
455,-314,0,0,0,0,0,0,0,0,0,-1,1679,1338,0,0
462,-314,0,0,0,0,0,0,0,0,0,-1,1686,1338,0,0
469,-314,0,0,0,0,0,0,0,0,0,-1,1693,1338,0,0
476,-314,0,0,0,0,0,0,0,0,0,-1,1700,1338,0,0
483,-314,0,0,0,0,0,0,0,0,0,-1,1707,1338,0,0
490,-314,0,0,0,0,0,0,0,0,0,-1,1714,1338,0,0
497,-314,0,0,0,0,0,0,0,0,0,-1,1721,1338,0,0
504,-314,0,0,0,0,0,0,0,0,0,-1,1728,1338,0,0
511,-314,0,0,0,0,0,0,0,0,0,-1,1735,1338,0,0
518,-314,0,0,0,0,0,0,0,0,0,-1,1742,1338,0,0
525,-314,0,0,0,0,0,0,0,0,0,-1,1749,1338,0,0
532,-314,0,0,0,0,0,0,0,0,0,-1,1756,1338,0,0
539,-314,0,0,0,0,0,0,0,0,0,-1,1763,1338,0,0
546,-314,0,0,0,0,0,0,0,0,0,-1,1770,1338,0,0
553,-314,0,0,0,0,0,0,0,0,0,-1,1777,1338,0,0
560,-314,0,0,0,0,0,0,0,0,0,-1,1784,1338,0,0
567,-314,0,0,0,0,0,0,0,0,0,-1,1791,1338,0,0
574,-314,0,0,0,0,0,0,0,0,0,-1,1798,1338,0,0
581,-314,21.4202,0.310669,0,0,0,0,0,0,0,-1,1805,1338,21.4202,-0.310636
588,-314,22.01,0.850708,0,0,0,0,0,0,0,-1,1812,1338,22.0099,-0.850653
595,-314,22.5917,0.846191,0,0,0,0,0,0,0,-1,1819,1338,22.5917,-0.846209
602,-314,24.2384,0.813843,0.0225534,-0.0110262,-0.0254936,0.0362894,-0.0247622,-0.494203,0.035457,0.0475926,1826,1338,24.2385,-0.813846
609,-314,23.9922,0.731567,0.0178984,-0.00363547,-0.0217468,0.0313977,-0.0171348,-0.555536,0.0284207,0.0450459,1833,1338,23.9922,-0.731584
616,-314,23.8329,0.808594,0,0,0,0,0,0,0,-1,1840,1338,23.8328,-0.808563
623,-314,23.2545,1.6665,0,0,0,0,0,0,0,-1,1847,1338,23.2545,-1.66652
630,-314,22.5269,2.75024,0,0,0,0,0,0,0,-1,1854,1338,22.5269,-2.75025
637,-314,20.881,5.42261,0,0,0,0,0,0,0,-1,1861,1338,20.881,-5.42265
644,-314,17.0294,5.60413,0,0,0,0,0,0,0,-1,1868,1338,17.0295,-5.60408
651,-314,17.9795,6.44421,0,0,0,0,0,0,0,-1,1875,1338,17.9794,-6.44422
658,-314,17.7594,6.65271,-0.003631,0.00677801,-0.00231413,0.0072693,-0.00412229,-1.3616,0.00666007,0.0437888,1882,1338,17.7594,-6.65273
665,-314,17.4989,6.76807,-0.00485507,0.00309995,-0.000169931,0.00310357,-0.0048587,-1.54945,0.0046341,0.0167818,1889,1338,17.4989,-6.76802
672,-314,17.5236,6.56726,-0.00457445,-0.000226763,0.00154283,0.000265088,-0.00506631,1.26218,0.00346928,0.0123278,1896,1338,17.5236,-6.56726
679,-314,17.5227,6.33167,-0.00389774,-0.00163556,0.00196271,-0.000501353,-0.00503195,1.0468,0.00320063,0.0104476,1903,1338,17.5228,-6.33169
686,-314,17.5017,6.0929,-0.00234685,-0.00130209,0.00122293,-0.000494641,-0.00315429,0.987246,0.00195891,0.0125874,1910,1338,17.5017,-6.0929
693,-314,17.4883,5.85889,0.000422504,-0.00111659,-0.000726515,0.00071127,-0.00140536,-0.378321,0.00124375,0.0125401,1917,1338,17.4883,-5.85892
700,-314,17.4778,5.63269,0.00398523,-0.000883306,-0.00344474,0.00576901,-0.00266708,-0.477807,0.00497912,0.0122392,1924,1338,17.4777,-5.63266
707,-314,17.4891,5.40259,0.00799772,-0.000843572,-0.0067101,0.0116125,-0.00445832,-0.494128,0.00958002,0.0116249,1931,1338,17.4891,-5.40265
714,-314,17.4956,5.18152,0.0128692,-0.00103278,-0.0108242,0.0187821,-0.00694566,-0.499971,0.015369,0.0108437,1938,1338,17.4956,-5.18149
721,-314,17.5315,4.97192,0.01889,-0.001612,-0.0159866,0.0276299,-0.0103519,-0.500307,0.0226725,0.0167763,1945,1338,17.5315,-4.97195
728,-314,17.4071,4.86108,0.0264757,-0.00248504,-0.0225955,0.0388326,-0.0148419,-0.50044,0.0320042,0.033363,1952,1338,17.407,-4.86109
735,-314,17.5513,5.0166,0.0362675,-0.0037043,-0.0311975,0.0533318,-0.0207686,-0.50052,0.0441374,0.0408071,1959,1338,17.5512,-5.01661
742,-314,17.3727,2.2312,0.0486837,-0.00526143,-0.0420929,0.0717045,-0.0282822,-0.500463,0.0595142,0.0463297,1966,1338,17.3727,-2.2312
749,-314,17.7549,1.35071,0.0641641,-0.00710286,-0.0556028,0.0945716,-0.0375104,-0.500437,0.0785939,0.0480064,1973,1338,17.7549,-1.35071
756,-314,18.2074,0.554077,0,0,0,0,0,0,0,-1,1980,1338,18.2074,-0.554113
763,-314,20.5903,1.67786,0,0,0,0,0,0,0,-1,1987,1338,20.5903,-1.67791
770,-314,0,0,0,0,0,0,0,0,0,-1,1994,1338,0,0
777,-314,0,0,0,0,0,0,0,0,0,-1,2001,1338,0,0
784,-314,0,0,0,0,0,0,0,0,0,-1,2008,1338,0,0
791,-314,0,0,0,0,0,0,0,0,0,-1,2015,1338,0,0
798,-314,0,0,0,0,0,0,0,0,0,-1,2022,1338,0,0
805,-314,0,0,0,0,0,0,0,0,0,-1,2029,1338,0,0
812,-314,0,0,0,0,0,0,0,0,0,-1,2036,1338,0,0
-700,-321,0,0,0,0,0,0,0,0,0,-1,524,1345,0,0
-693,-321,0,0,0,0,0,0,0,0,0,-1,531,1345,0,0
-686,-321,0,0,0,0,0,0,0,0,0,-1,538,1345,0,0
-679,-321,0,0,0,0,0,0,0,0,0,-1,545,1345,0,0
-672,-321,0,0,0,0,0,0,0,0,0,-1,552,1345,0,0
-665,-321,0,0,0,0,0,0,0,0,0,-1,559,1345,0,0
-658,-321,0,0,0,0,0,0,0,0,0,-1,566,1345,0,0
-651,-321,0,0,0,0,0,0,0,0,0,-1,573,1345,0,0
-644,-321,-9.83881,4.51257,0,0,0,0,0,0,0,-1,580,1345,-9.8388,-4.51252
-637,-321,-11.2002,-6.62048,0,0,0,0,0,0,0,-1,587,1345,-11.2002,6.62048
-630,-321,-11.9179,-7.16077,0,0,0,0,0,0,0,-1,594,1345,-11.9179,7.16077
-623,-321,-12.563,-7.71069,0,0,0,0,0,0,0,-1,601,1345,-12.563,7.71072
-616,-321,-13.175,-8.27014,0,0,0,0,0,0,0,-1,608,1345,-13.175,8.27013
-609,-321,-7.95209,1.14758,0,0,0,0,0,0,0,-1,615,1345,-7.95208,-1.14757
-602,-321,-8.53967,1.25818,0,0,0,0,0,0,0,-1,622,1345,-8.53966,-1.25814
-595,-321,-8.86224,2.4165,0,0,0,0,0,0,0,-1,629,1345,-8.86225,-2.41654
-588,-321,-8.71021,2.70459,0.00345795,0.0220914,0.00734365,0.0246377,0.000911685,1.23704,0.0161298,0.0221505,636,1345,-8.71022,-2.70463
-581,-321,-8.68378,3.01221,0.00229585,0.0148607,0.00478411,0.0164749,0.000681658,1.24538,0.0107632,0.0119861,643,1345,-8.68375,-3.01221
-574,-321,-8.69708,3.2572,0.00162116,0.00961484,0.00293456,0.0105765,0.000659537,1.25413,0.00684174,0.0138089,650,1345,-8.69708,-3.25721
-567,-321,-8.69318,3.49976,0.00122007,0.00584542,0.0016434,0.00636986,0.000695632,1.26189,0.00403473,0.0191513,657,1345,-8.69315,-3.49978
-560,-321,-8.65875,3.78406,0.000822698,0.00302921,0.000550006,0.0031587,0.000693201,1.33956,0.00191698,0.023187,664,1345,-8.65877,-3.78411
-553,-321,-8.67621,4.00708,0.00059568,0.0011253,-0.000198984,0.00119173,0.000529252,-1.24859,0.000689475,0.0247229,671,1345,-8.67619,-4.00704
-546,-321,-8.68903,4.28101,0.000381117,-0.000205556,-0.000835906,0.000973661,-0.0007981,-0.616651,0.0010246,0.0238453,678,1345,-8.689,-4.28106
-539,-321,-8.71533,4.58032,5.83931e-05,-0.00052802,-0.00136479,0.00116111,-0.00163074,-0.679588,0.00161946,0.02134,685,1345,-8.71533,-4.58034
-532,-321,-8.62445,4.85376,-0.000379637,-0.000919882,-0.00180448,0.00117483,-0.00247434,-0.711102,0.00215092,0.0193412,692,1345,-8.62444,-4.85376
-525,-321,-8.63165,5.21069,-0.00171407,-0.00170518,-0.00313197,0.00142235,-0.0048416,-0.786107,0.00379184,0.0415172,699,1345,-8.63164,-5.21069
-518,-321,-8.78156,5.52661,0,0,0,0,0,0,0,-1,706,1345,-8.78156,-5.5266
-511,-321,-9.18207,5.43762,0,0,0,0,0,0,0,-1,713,1345,-9.18207,-5.43764
-504,-321,-8.73346,5.01123,0,0,0,0,0,0,0,-1,720,1345,-8.73345,-5.01118
-497,-321,-9.73969,0.28894,0,0,0,0,0,0,0,-1,727,1345,-9.73969,-0.288964
-490,-321,-10.5172,0.833252,0,0,0,0,0,0,0,-1,734,1345,-10.5172,-0.833304
-483,-321,-11.4693,1.27173,0,0,0,0,0,0,0,-1,741,1345,-11.4693,-1.27173
-476,-321,-12.3351,0.269897,0,0,0,0,0,0,0,-1,748,1345,-12.3351,-0.269887
-469,-321,-12.7842,0.195679,0,0,0,0,0,0,0,-1,755,1345,-12.7842,-0.195644
-462,-321,-13.8533,0.309937,0,0,0,0,0,0,0,-1,762,1345,-13.8533,-0.309916
-455,-321,0,0,0,0,0,0,0,0,0,-1,769,1345,0,0
-448,-321,0,0,0,0,0,0,0,0,0,-1,776,1345,0,0
-441,-321,0,0,0,0,0,0,0,0,0,-1,783,1345,0,0
-434,-321,0,0,0,0,0,0,0,0,0,-1,790,1345,0,0
-427,-321,0,0,0,0,0,0,0,0,0,-1,797,1345,0,0
-420,-321,0,0,0,0,0,0,0,0,0,-1,804,1345,0,0
-413,-321,0,0,0,0,0,0,0,0,0,-1,811,1345,0,0
-406,-321,0,0,0,0,0,0,0,0,0,-1,818,1345,0,0
-399,-321,0,0,0,0,0,0,0,0,0,-1,825,1345,0,0
-392,-321,0,0,0,0,0,0,0,0,0,-1,832,1345,0,0
-385,-321,0,0,0,0,0,0,0,0,0,-1,839,1345,0,0
-378,-321,0,0,0,0,0,0,0,0,0,-1,846,1345,0,0
-371,-321,0,0,0,0,0,0,0,0,0,-1,853,1345,0,0
-364,-321,0,0,0,0,0,0,0,0,0,-1,860,1345,0,0
-357,-321,0,0,0,0,0,0,0,0,0,-1,867,1345,0,0
-350,-321,0,0,0,0,0,0,0,0,0,-1,874,1345,0,0
-343,-321,0,0,0,0,0,0,0,0,0,-1,881,1345,0,0
-336,-321,0,0,0,0,0,0,0,0,0,-1,888,1345,0,0
-329,-321,0,0,0,0,0,0,0,0,0,-1,895,1345,0,0
-322,-321,0,0,0,0,0,0,0,0,0,-1,902,1345,0,0
-315,-321,0,0,0,0,0,0,0,0,0,-1,909,1345,0,0
-308,-321,0,0,0,0,0,0,0,0,0,-1,916,1345,0,0
-301,-321,0,0,0,0,0,0,0,0,0,-1,923,1345,0,0
-294,-321,0,0,0,0,0,0,0,0,0,-1,930,1345,0,0
-287,-321,0,0,0,0,0,0,0,0,0,-1,937,1345,0,0
-280,-321,0,0,0,0,0,0,0,0,0,-1,944,1345,0,0
-273,-321,0,0,0,0,0,0,0,0,0,-1,951,1345,0,0
-266,-321,0,0,0,0,0,0,0,0,0,-1,958,1345,0,0
-259,-321,0,0,0,0,0,0,0,0,0,-1,965,1345,0,0
-252,-321,0,0,0,0,0,0,0,0,0,-1,972,1345,0,0
-245,-321,0,0,0,0,0,0,0,0,0,-1,979,1345,0,0
-238,-321,0,0,0,0,0,0,0,0,0,-1,986,1345,0,0
-231,-321,0,0,0,0,0,0,0,0,0,-1,993,1345,0,0
-224,-321,0,0,0,0,0,0,0,0,0,-1,1000,1345,0,0
-217,-321,0,0,0,0,0,0,0,0,0,-1,1007,1345,0,0
-210,-321,0,0,0,0,0,0,0,0,0,-1,1014,1345,0,0
-203,-321,0,0,0,0,0,0,0,0,0,-1,1021,1345,0,0
-196,-321,0,0,0,0,0,0,0,0,0,-1,1028,1345,0,0
-189,-321,0,0,0,0,0,0,0,0,0,-1,1035,1345,0,0
-182,-321,0,0,0,0,0,0,0,0,0,-1,1042,1345,0,0
-175,-321,0,0,0,0,0,0,0,0,0,-1,1049,1345,0,0
-168,-321,0,0,0,0,0,0,0,0,0,-1,1056,1345,0,0
-161,-321,0,0,0,0,0,0,0,0,0,-1,1063,1345,0,0
-154,-321,0,0,0,0,0,0,0,0,0,-1,1070,1345,0,0
-147,-321,0,0,0,0,0,0,0,0,0,-1,1077,1345,0,0
-140,-321,0,0,0,0,0,0,0,0,0,-1,1084,1345,0,0
-133,-321,0,0,0,0,0,0,0,0,0,-1,1091,1345,0,0
-126,-321,0,0,0,0,0,0,0,0,0,-1,1098,1345,0,0
-119,-321,0,0,0,0,0,0,0,0,0,-1,1105,1345,0,0
-112,-321,0,0,0,0,0,0,0,0,0,-1,1112,1345,0,0
-105,-321,0,0,0,0,0,0,0,0,0,-1,1119,1345,0,0
-98,-321,0,0,0,0,0,0,0,0,0,-1,1126,1345,0,0
-91,-321,0,0,0,0,0,0,0,0,0,-1,1133,1345,0,0
-84,-321,0,0,0,0,0,0,0,0,0,-1,1140,1345,0,0
-77,-321,0,0,0,0,0,0,0,0,0,-1,1147,1345,0,0
-70,-321,0,0,0,0,0,0,0,0,0,-1,1154,1345,0,0
-63,-321,0,0,0,0,0,0,0,0,0,-1,1161,1345,0,0
-56,-321,0,0,0,0,0,0,0,0,0,-1,1168,1345,0,0
-49,-321,0,0,0,0,0,0,0,0,0,-1,1175,1345,0,0
-42,-321,0,0,0,0,0,0,0,0,0,-1,1182,1345,0,0
-35,-321,0,0,0,0,0,0,0,0,0,-1,1189,1345,0,0
-28,-321,0,0,0,0,0,0,0,0,0,-1,1196,1345,0,0
-21,-321,0,0,0,0,0,0,0,0,0,-1,1203,1345,0,0
-14,-321,0,0,0,0,0,0,0,0,0,-1,1210,1345,0,0
-7,-321,0,0,0,0,0,0,0,0,0,-1,1217,1345,0,0
0,-321,0,0,0,0,0,0,0,0,0,-1,1224,1345,0,0
7,-321,0,0,0,0,0,0,0,0,0,-1,1231,1345,0,0
14,-321,0,0,0,0,0,0,0,0,0,-1,1238,1345,0,0
21,-321,0,0,0,0,0,0,0,0,0,-1,1245,1345,0,0
28,-321,0,0,0,0,0,0,0,0,0,-1,1252,1345,0,0
35,-321,0,0,0,0,0,0,0,0,0,-1,1259,1345,0,0
42,-321,0,0,0,0,0,0,0,0,0,-1,1266,1345,0,0
49,-321,0,0,0,0,0,0,0,0,0,-1,1273,1345,0,0
56,-321,0,0,0,0,0,0,0,0,0,-1,1280,1345,0,0
63,-321,0,0,0,0,0,0,0,0,0,-1,1287,1345,0,0
70,-321,0,0,0,0,0,0,0,0,0,-1,1294,1345,0,0
77,-321,0,0,0,0,0,0,0,0,0,-1,1301,1345,0,0
84,-321,0,0,0,0,0,0,0,0,0,-1,1308,1345,0,0
91,-321,0,0,0,0,0,0,0,0,0,-1,1315,1345,0,0
98,-321,0,0,0,0,0,0,0,0,0,-1,1322,1345,0,0
105,-321,0,0,0,0,0,0,0,0,0,-1,1329,1345,0,0
112,-321,0,0,0,0,0,0,0,0,0,-1,1336,1345,0,0
119,-321,0,0,0,0,0,0,0,0,0,-1,1343,1345,0,0
126,-321,0,0,0,0,0,0,0,0,0,-1,1350,1345,0,0
133,-321,0,0,0,0,0,0,0,0,0,-1,1357,1345,0,0
140,-321,0,0,0,0,0,0,0,0,0,-1,1364,1345,0,0
147,-321,0,0,0,0,0,0,0,0,0,-1,1371,1345,0,0
154,-321,0,0,0,0,0,0,0,0,0,-1,1378,1345,0,0
161,-321,0,0,0,0,0,0,0,0,0,-1,1385,1345,0,0
168,-321,0,0,0,0,0,0,0,0,0,-1,1392,1345,0,0
175,-321,0,0,0,0,0,0,0,0,0,-1,1399,1345,0,0
182,-321,0,0,0,0,0,0,0,0,0,-1,1406,1345,0,0
189,-321,0,0,0,0,0,0,0,0,0,-1,1413,1345,0,0
196,-321,0,0,0,0,0,0,0,0,0,-1,1420,1345,0,0
203,-321,0,0,0,0,0,0,0,0,0,-1,1427,1345,0,0
210,-321,0,0,0,0,0,0,0,0,0,-1,1434,1345,0,0
217,-321,0,0,0,0,0,0,0,0,0,-1,1441,1345,0,0
224,-321,0,0,0,0,0,0,0,0,0,-1,1448,1345,0,0
231,-321,0,0,0,0,0,0,0,0,0,-1,1455,1345,0,0
238,-321,0,0,0,0,0,0,0,0,0,-1,1462,1345,0,0
245,-321,0,0,0,0,0,0,0,0,0,-1,1469,1345,0,0
252,-321,0,0,0,0,0,0,0,0,0,-1,1476,1345,0,0
259,-321,0,0,0,0,0,0,0,0,0,-1,1483,1345,0,0
266,-321,0,0,0,0,0,0,0,0,0,-1,1490,1345,0,0
273,-321,0,0,0,0,0,0,0,0,0,-1,1497,1345,0,0
280,-321,0,0,0,0,0,0,0,0,0,-1,1504,1345,0,0
287,-321,0,0,0,0,0,0,0,0,0,-1,1511,1345,0,0
294,-321,0,0,0,0,0,0,0,0,0,-1,1518,1345,0,0
301,-321,0,0,0,0,0,0,0,0,0,-1,1525,1345,0,0
308,-321,0,0,0,0,0,0,0,0,0,-1,1532,1345,0,0
315,-321,0,0,0,0,0,0,0,0,0,-1,1539,1345,0,0
322,-321,0,0,0,0,0,0,0,0,0,-1,1546,1345,0,0
329,-321,0,0,0,0,0,0,0,0,0,-1,1553,1345,0,0
336,-321,0,0,0,0,0,0,0,0,0,-1,1560,1345,0,0
343,-321,0,0,0,0,0,0,0,0,0,-1,1567,1345,0,0
350,-321,0,0,0,0,0,0,0,0,0,-1,1574,1345,0,0
357,-321,0,0,0,0,0,0,0,0,0,-1,1581,1345,0,0
364,-321,0,0,0,0,0,0,0,0,0,-1,1588,1345,0,0
371,-321,0,0,0,0,0,0,0,0,0,-1,1595,1345,0,0
378,-321,0,0,0,0,0,0,0,0,0,-1,1602,1345,0,0
385,-321,0,0,0,0,0,0,0,0,0,-1,1609,1345,0,0
392,-321,0,0,0,0,0,0,0,0,0,-1,1616,1345,0,0
399,-321,0,0,0,0,0,0,0,0,0,-1,1623,1345,0,0
406,-321,0,0,0,0,0,0,0,0,0,-1,1630,1345,0,0
413,-321,0,0,0,0,0,0,0,0,0,-1,1637,1345,0,0
420,-321,0,0,0,0,0,0,0,0,0,-1,1644,1345,0,0
427,-321,0,0,0,0,0,0,0,0,0,-1,1651,1345,0,0
434,-321,0,0,0,0,0,0,0,0,0,-1,1658,1345,0,0
441,-321,0,0,0,0,0,0,0,0,0,-1,1665,1345,0,0
448,-321,0,0,0,0,0,0,0,0,0,-1,1672,1345,0,0
455,-321,0,0,0,0,0,0,0,0,0,-1,1679,1345,0,0
462,-321,0,0,0,0,0,0,0,0,0,-1,1686,1345,0,0
469,-321,0,0,0,0,0,0,0,0,0,-1,1693,1345,0,0
476,-321,0,0,0,0,0,0,0,0,0,-1,1700,1345,0,0
483,-321,0,0,0,0,0,0,0,0,0,-1,1707,1345,0,0
490,-321,0,0,0,0,0,0,0,0,0,-1,1714,1345,0,0
497,-321,0,0,0,0,0,0,0,0,0,-1,1721,1345,0,0
504,-321,0,0,0,0,0,0,0,0,0,-1,1728,1345,0,0
511,-321,0,0,0,0,0,0,0,0,0,-1,1735,1345,0,0
518,-321,0,0,0,0,0,0,0,0,0,-1,1742,1345,0,0
525,-321,0,0,0,0,0,0,0,0,0,-1,1749,1345,0,0
532,-321,0,0,0,0,0,0,0,0,0,-1,1756,1345,0,0
539,-321,0,0,0,0,0,0,0,0,0,-1,1763,1345,0,0
546,-321,0,0,0,0,0,0,0,0,0,-1,1770,1345,0,0
553,-321,0,0,0,0,0,0,0,0,0,-1,1777,1345,0,0
560,-321,0,0,0,0,0,0,0,0,0,-1,1784,1345,0,0
567,-321,0,0,0,0,0,0,0,0,0,-1,1791,1345,0,0
574,-321,0,0,0,0,0,0,0,0,0,-1,1798,1345,0,0
581,-321,21.9177,1.24182,0.0309186,-0.0673252,-0.0346609,0.0419161,-0.0783227,-0.307241,0.0704727,0.0431339,1805,1345,21.9177,-1.24186
588,-321,22.4376,1.17017,0,0,0,0,0,0,0,-1,1812,1345,22.4376,-1.17019
595,-321,23.0065,0.948242,0,0,0,0,0,0,0,-1,1819,1345,23.0064,-0.948247
602,-321,23.5297,0.817383,0.0243303,-0.0189981,-0.0244311,0.035319,-0.0299868,-0.422676,0.0377462,0.0430801,1826,1345,23.5296,-0.817434
609,-321,24.0144,0.699829,0.0195881,-0.01145,-0.0207305,0.0299648,-0.0218268,-0.464093,0.0300247,0.0494314,1833,1345,24.0144,-0.699847
616,-321,24.4882,0.581299,0,0,0,0,0,0,0,-1,1840,1345,24.4882,-0.581311
623,-321,22.6586,2.66235,0,0,0,0,0,0,0,-1,1847,1345,22.6586,-2.66237
630,-321,22.0284,3.99402,0,0,0,0,0,0,0,-1,1854,1345,22.0284,-3.99406
637,-321,21.3214,5.34619,0,0,0,0,0,0,0,-1,1861,1345,21.3214,-5.34617
644,-321,16.8844,6.71973,0,0,0,0,0,0,0,-1,1868,1345,16.8844,-6.71971
651,-321,17.7355,6.82593,0,0,0,0,0,0,0,-1,1875,1345,17.7355,-6.82591
658,-321,17.3888,6.92688,-0.00223252,0.00448984,-0.00114202,0.00467856,-0.00242123,-1.40703,0.00416755,0.0349281,1882,1345,17.3888,-6.92692
665,-321,17.2683,6.79504,-0.00340992,0.00103301,0.000814043,0.00117746,-0.00355438,1.39517,0.0028445,0.0175628,1889,1345,17.2683,-6.7951
672,-321,17.2876,6.56396,-0.00318415,-0.00138245,0.00196791,-0.000119003,-0.0044476,1.00005,0.0029262,0.0126347,1896,1345,17.2877,-6.56402
679,-321,17.2944,6.32507,-0.0025961,-0.00201729,0.00193229,-0.000352844,-0.00426054,0.859732,0.00273035,0.0108791,1903,1345,17.2945,-6.32505
686,-321,17.2703,6.09753,-0.00106122,-0.00119405,0.000779467,-0.000345342,-0.00190992,0.742899,0.00117521,0.0114176,1910,1345,17.2703,-6.09748
693,-321,17.2574,5.87402,0.00174846,-0.00103324,-0.00152062,0.00241837,-0.00170315,-0.414971,0.00239147,0.0120451,1917,1345,17.2574,-5.87401
700,-321,17.2672,5.6311,0.00551998,-0.000726839,-0.00449077,0.00786673,-0.00307359,-0.481543,0.00651533,0.0116927,1924,1345,17.2672,-5.63107
707,-321,17.2827,5.40283,0.00987068,-0.000721912,-0.00798472,0.014156,-0.00500719,-0.492563,0.0114764,0.0128866,1931,1345,17.2827,-5.40278
714,-321,17.2693,5.17859,0.0153447,-0.000994888,-0.0124538,0.0220693,-0.00771946,-0.495104,0.0178513,0.0121467,1938,1345,17.2693,-5.1786
721,-321,17.2635,4.93469,0.0222834,-0.00168851,-0.0181576,0.0320543,-0.0114594,-0.493674,0.0260437,0.0216071,1945,1345,17.2635,-4.93471
728,-321,17.1382,4.88477,0.0311973,-0.00271879,-0.0255446,0.0449003,-0.0164218,-0.492369,0.0366549,0.0343025,1952,1345,17.1382,-4.88481
735,-321,17.3003,4.82031,0.0427532,-0.00419464,-0.0351282,0.0615288,-0.0229702,-0.490854,0.0504502,0.0447339,1959,1345,17.3003,-4.82032
742,-321,17.844,2.66968,0.0573263,-0.00611254,-0.0471298,0.0824165,-0.0312028,-0.489203,0.0677831,0.0477732,1966,1345,17.844,-2.66971
749,-321,18.4961,1.55774,0.0753139,-0.0084527,-0.0618029,0.108089,-0.0412274,-0.4876,0.0890419,0.0489983,1973,1345,18.4961,-1.55768
756,-321,19.0469,0.696777,0,0,0,0,0,0,0,-1,1980,1345,19.0469,-0.696824
763,-321,20.1373,1.16846,0,0,0,0,0,0,0,-1,1987,1345,20.1374,-1.16851
770,-321,0,0,0,0,0,0,0,0,0,-1,1994,1345,0,0
777,-321,0,0,0,0,0,0,0,0,0,-1,2001,1345,0,0
784,-321,0,0,0,0,0,0,0,0,0,-1,2008,1345,0,0
791,-321,0,0,0,0,0,0,0,0,0,-1,2015,1345,0,0
798,-321,0,0,0,0,0,0,0,0,0,-1,2022,1345,0,0
805,-321,0,0,0,0,0,0,0,0,0,-1,2029,1345,0,0
812,-321,0,0,0,0,0,0,0,0,0,-1,2036,1345,0,0
-700,-328,0,0,0,0,0,0,0,0,0,-1,524,1352,0,0
-693,-328,0,0,0,0,0,0,0,0,0,-1,531,1352,0,0
-686,-328,0,0,0,0,0,0,0,0,0,-1,538,1352,0,0
-679,-328,0,0,0,0,0,0,0,0,0,-1,545,1352,0,0
-672,-328,0,0,0,0,0,0,0,0,0,-1,552,1352,0,0
-665,-328,0,0,0,0,0,0,0,0,0,-1,559,1352,0,0
-658,-328,0,0,0,0,0,0,0,0,0,-1,566,1352,0,0
-651,-328,0,0,0,0,0,0,0,0,0,-1,573,1352,0,0
-644,-328,0,0,0,0,0,0,0,0,0,-1,580,1352,0,0
-637,-328,-9.35089,4.17566,0,0,0,0,0,0,0,-1,587,1352,-9.35091,-4.1757
-630,-328,-12.1945,-8.73376,0,0,0,0,0,0,0,-1,594,1352,-12.1945,8.73372
-623,-328,-12.8938,-9.27209,0,0,0,0,0,0,0,-1,601,1352,-12.8938,9.27212
-616,-328,-8.22198,-0.25708,0,0,0,0,0,0,0,-1,608,1352,-8.22201,0.257067
-609,-328,-7.87439,0.192871,0,0,0,0,0,0,0,-1,615,1352,-7.87441,-0.192822
-602,-328,-7.63062,1.31665,0,0,0,0,0,0,0,-1,622,1352,-7.63064,-1.3166
-595,-328,-8.57184,2.37036,0,0,0,0,0,0,0,-1,629,1352,-8.57184,-2.37031
-588,-328,-8.35321,2.6582,0.00374862,0.0256558,0.00828412,0.0284356,0.000968751,1.24704,0.0186426,0.0429421,636,1352,-8.35322,-2.65815
-581,-328,-8.40869,2.99939,0.00213214,0.0170025,0.00520259,0.0186419,0.000492689,1.26552,0.012267,0.0149242,643,1352,-8.40871,-2.99939
-574,-328,-8.41437,3.26709,0.00124529,0.0109174,0.00306408,0.0118064,0.000356314,1.28842,0.0077549,0.0128827,650,1352,-8.41439,-3.26704
-567,-328,-8.40161,3.5155,0.000793656,0.00666878,0.00164582,0.00709842,0.000364022,1.31545,0.00461572,0.0175532,657,1352,-8.40159,-3.51552
-560,-328,-8.33325,3.81018,0.000456847,0.00361383,0.000532955,0.00370137,0.000369303,1.40799,0.00235416,0.0255652,664,1352,-8.33326,-3.8102
-553,-328,-8.38965,4.04272,0.000338454,0.00155748,-0.000208363,0.00159211,0.000303823,-1.4061,0.000976027,0.0280881,671,1352,-8.38968,-4.04272
-546,-328,-8.4585,4.28516,0.000322906,0.000119684,-0.000796556,0.00102431,-0.000581715,-0.72196,0.0009389,0.0263651,678,1352,-8.45852,-4.28515
-539,-328,-8.44293,4.56323,0.000185517,-0.000624227,-0.00130055,0.00114276,-0.00158147,-0.634499,0.00157962,0.0213972,685,1352,-8.44296,-4.56318
-532,-328,-8.40662,4.84998,3.92089e-05,-0.000938266,-0.00165759,0.00127861,-0.00217767,-0.642036,0.00201786,0.0152731,692,1352,-8.40661,-4.84994
-525,-328,-8.38763,5.16931,-0.000710768,-0.00166908,-0.0026893,0.00154173,-0.00392158,-0.697238,0.00325247,0.0144277,699,1352,-8.38765,-5.16928
-518,-328,-8.35168,5.42371,-0.00249705,-0.00240799,-0.00454786,0.00209556,-0.00700059,-0.790294,0.00550029,0.0423535,706,1352,-8.35165,-5.42365
-511,-328,-8.745,5.3811,-0.00549022,-0.00341021,-0.00707182,0.00269767,-0.0115981,-0.858407,0.00877069,0.0482929,713,1352,-8.74496,-5.38111
-504,-328,-9.30823,5.3208,0,0,0,0,0,0,0,-1,720,1352,-9.30821,-5.32077
-497,-328,-8.28729,5.14795,0,0,0,0,0,0,0,-1,727,1352,-8.28729,-5.14791
-490,-328,-9.54718,0.767334,0,0,0,0,0,0,0,-1,734,1352,-9.54719,-0.767333
-483,-328,-11.28,-0.205811,0,0,0,0,0,0,0,-1,741,1352,-11.28,0.205839
-476,-328,-12.1125,-0.0240479,0,0,0,0,0,0,0,-1,748,1352,-12.1125,0.024076
-469,-328,-12.9481,0.130005,0,0,0,0,0,0,0,-1,755,1352,-12.9481,-0.130043
-462,-328,-13.758,0.238892,0,0,0,0,0,0,0,-1,762,1352,-13.758,-0.238923
-455,-328,0,0,0,0,0,0,0,0,0,-1,769,1352,0,0
-448,-328,0,0,0,0,0,0,0,0,0,-1,776,1352,0,0
-441,-328,0,0,0,0,0,0,0,0,0,-1,783,1352,0,0
-434,-328,0,0,0,0,0,0,0,0,0,-1,790,1352,0,0
-427,-328,0,0,0,0,0,0,0,0,0,-1,797,1352,0,0
-420,-328,0,0,0,0,0,0,0,0,0,-1,804,1352,0,0
-413,-328,0,0,0,0,0,0,0,0,0,-1,811,1352,0,0
-406,-328,0,0,0,0,0,0,0,0,0,-1,818,1352,0,0
-399,-328,0,0,0,0,0,0,0,0,0,-1,825,1352,0,0
-392,-328,0,0,0,0,0,0,0,0,0,-1,832,1352,0,0
-385,-328,0,0,0,0,0,0,0,0,0,-1,839,1352,0,0
-378,-328,0,0,0,0,0,0,0,0,0,-1,846,1352,0,0
-371,-328,0,0,0,0,0,0,0,0,0,-1,853,1352,0,0
-364,-328,0,0,0,0,0,0,0,0,0,-1,860,1352,0,0
-357,-328,0,0,0,0,0,0,0,0,0,-1,867,1352,0,0
-350,-328,0,0,0,0,0,0,0,0,0,-1,874,1352,0,0
-343,-328,0,0,0,0,0,0,0,0,0,-1,881,1352,0,0
-336,-328,0,0,0,0,0,0,0,0,0,-1,888,1352,0,0
-329,-328,0,0,0,0,0,0,0,0,0,-1,895,1352,0,0
-322,-328,0,0,0,0,0,0,0,0,0,-1,902,1352,0,0
-315,-328,0,0,0,0,0,0,0,0,0,-1,909,1352,0,0
-308,-328,0,0,0,0,0,0,0,0,0,-1,916,1352,0,0
-301,-328,0,0,0,0,0,0,0,0,0,-1,923,1352,0,0
-294,-328,0,0,0,0,0,0,0,0,0,-1,930,1352,0,0
-287,-328,0,0,0,0,0,0,0,0,0,-1,937,1352,0,0
-280,-328,0,0,0,0,0,0,0,0,0,-1,944,1352,0,0
-273,-328,0,0,0,0,0,0,0,0,0,-1,951,1352,0,0
-266,-328,0,0,0,0,0,0,0,0,0,-1,958,1352,0,0
-259,-328,0,0,0,0,0,0,0,0,0,-1,965,1352,0,0
-252,-328,0,0,0,0,0,0,0,0,0,-1,972,1352,0,0
-245,-328,0,0,0,0,0,0,0,0,0,-1,979,1352,0,0
-238,-328,0,0,0,0,0,0,0,0,0,-1,986,1352,0,0
-231,-328,0,0,0,0,0,0,0,0,0,-1,993,1352,0,0
-224,-328,0,0,0,0,0,0,0,0,0,-1,1000,1352,0,0
-217,-328,0,0,0,0,0,0,0,0,0,-1,1007,1352,0,0
-210,-328,0,0,0,0,0,0,0,0,0,-1,1014,1352,0,0
-203,-328,0,0,0,0,0,0,0,0,0,-1,1021,1352,0,0
-196,-328,0,0,0,0,0,0,0,0,0,-1,1028,1352,0,0
-189,-328,0,0,0,0,0,0,0,0,0,-1,1035,1352,0,0
-182,-328,0,0,0,0,0,0,0,0,0,-1,1042,1352,0,0
-175,-328,0,0,0,0,0,0,0,0,0,-1,1049,1352,0,0
-168,-328,0,0,0,0,0,0,0,0,0,-1,1056,1352,0,0
-161,-328,0,0,0,0,0,0,0,0,0,-1,1063,1352,0,0
-154,-328,0,0,0,0,0,0,0,0,0,-1,1070,1352,0,0
-147,-328,0,0,0,0,0,0,0,0,0,-1,1077,1352,0,0
-140,-328,0,0,0,0,0,0,0,0,0,-1,1084,1352,0,0
-133,-328,0,0,0,0,0,0,0,0,0,-1,1091,1352,0,0
-126,-328,0,0,0,0,0,0,0,0,0,-1,1098,1352,0,0
-119,-328,0,0,0,0,0,0,0,0,0,-1,1105,1352,0,0
-112,-328,0,0,0,0,0,0,0,0,0,-1,1112,1352,0,0
-105,-328,0,0,0,0,0,0,0,0,0,-1,1119,1352,0,0
-98,-328,0,0,0,0,0,0,0,0,0,-1,1126,1352,0,0
-91,-328,0,0,0,0,0,0,0,0,0,-1,1133,1352,0,0
-84,-328,0,0,0,0,0,0,0,0,0,-1,1140,1352,0,0
-77,-328,0,0,0,0,0,0,0,0,0,-1,1147,1352,0,0
-70,-328,0,0,0,0,0,0,0,0,0,-1,1154,1352,0,0
-63,-328,0,0,0,0,0,0,0,0,0,-1,1161,1352,0,0
-56,-328,0,0,0,0,0,0,0,0,0,-1,1168,1352,0,0
-49,-328,0,0,0,0,0,0,0,0,0,-1,1175,1352,0,0
-42,-328,0,0,0,0,0,0,0,0,0,-1,1182,1352,0,0
-35,-328,0,0,0,0,0,0,0,0,0,-1,1189,1352,0,0
-28,-328,0,0,0,0,0,0,0,0,0,-1,1196,1352,0,0
-21,-328,0,0,0,0,0,0,0,0,0,-1,1203,1352,0,0
-14,-328,0,0,0,0,0,0,0,0,0,-1,1210,1352,0,0
-7,-328,0,0,0,0,0,0,0,0,0,-1,1217,1352,0,0
0,-328,0,0,0,0,0,0,0,0,0,-1,1224,1352,0,0
7,-328,0,0,0,0,0,0,0,0,0,-1,1231,1352,0,0
14,-328,0,0,0,0,0,0,0,0,0,-1,1238,1352,0,0
21,-328,0,0,0,0,0,0,0,0,0,-1,1245,1352,0,0
28,-328,0,0,0,0,0,0,0,0,0,-1,1252,1352,0,0
35,-328,0,0,0,0,0,0,0,0,0,-1,1259,1352,0,0
42,-328,0,0,0,0,0,0,0,0,0,-1,1266,1352,0,0
49,-328,0,0,0,0,0,0,0,0,0,-1,1273,1352,0,0
56,-328,0,0,0,0,0,0,0,0,0,-1,1280,1352,0,0
63,-328,0,0,0,0,0,0,0,0,0,-1,1287,1352,0,0
70,-328,0,0,0,0,0,0,0,0,0,-1,1294,1352,0,0
77,-328,0,0,0,0,0,0,0,0,0,-1,1301,1352,0,0
84,-328,0,0,0,0,0,0,0,0,0,-1,1308,1352,0,0
91,-328,0,0,0,0,0,0,0,0,0,-1,1315,1352,0,0
98,-328,0,0,0,0,0,0,0,0,0,-1,1322,1352,0,0
105,-328,0,0,0,0,0,0,0,0,0,-1,1329,1352,0,0
112,-328,0,0,0,0,0,0,0,0,0,-1,1336,1352,0,0
119,-328,0,0,0,0,0,0,0,0,0,-1,1343,1352,0,0
126,-328,0,0,0,0,0,0,0,0,0,-1,1350,1352,0,0
133,-328,0,0,0,0,0,0,0,0,0,-1,1357,1352,0,0
140,-328,0,0,0,0,0,0,0,0,0,-1,1364,1352,0,0
147,-328,0,0,0,0,0,0,0,0,0,-1,1371,1352,0,0
154,-328,0,0,0,0,0,0,0,0,0,-1,1378,1352,0,0
161,-328,0,0,0,0,0,0,0,0,0,-1,1385,1352,0,0
168,-328,0,0,0,0,0,0,0,0,0,-1,1392,1352,0,0
175,-328,0,0,0,0,0,0,0,0,0,-1,1399,1352,0,0
182,-328,0,0,0,0,0,0,0,0,0,-1,1406,1352,0,0
189,-328,0,0,0,0,0,0,0,0,0,-1,1413,1352,0,0
196,-328,0,0,0,0,0,0,0,0,0,-1,1420,1352,0,0
203,-328,0,0,0,0,0,0,0,0,0,-1,1427,1352,0,0
210,-328,0,0,0,0,0,0,0,0,0,-1,1434,1352,0,0
217,-328,0,0,0,0,0,0,0,0,0,-1,1441,1352,0,0
224,-328,0,0,0,0,0,0,0,0,0,-1,1448,1352,0,0
231,-328,0,0,0,0,0,0,0,0,0,-1,1455,1352,0,0
238,-328,0,0,0,0,0,0,0,0,0,-1,1462,1352,0,0
245,-328,0,0,0,0,0,0,0,0,0,-1,1469,1352,0,0
252,-328,0,0,0,0,0,0,0,0,0,-1,1476,1352,0,0
259,-328,0,0,0,0,0,0,0,0,0,-1,1483,1352,0,0
266,-328,0,0,0,0,0,0,0,0,0,-1,1490,1352,0,0
273,-328,0,0,0,0,0,0,0,0,0,-1,1497,1352,0,0
280,-328,0,0,0,0,0,0,0,0,0,-1,1504,1352,0,0
287,-328,0,0,0,0,0,0,0,0,0,-1,1511,1352,0,0
294,-328,0,0,0,0,0,0,0,0,0,-1,1518,1352,0,0
301,-328,0,0,0,0,0,0,0,0,0,-1,1525,1352,0,0
308,-328,0,0,0,0,0,0,0,0,0,-1,1532,1352,0,0
315,-328,0,0,0,0,0,0,0,0,0,-1,1539,1352,0,0
322,-328,0,0,0,0,0,0,0,0,0,-1,1546,1352,0,0
329,-328,0,0,0,0,0,0,0,0,0,-1,1553,1352,0,0
336,-328,0,0,0,0,0,0,0,0,0,-1,1560,1352,0,0
343,-328,0,0,0,0,0,0,0,0,0,-1,1567,1352,0,0
350,-328,0,0,0,0,0,0,0,0,0,-1,1574,1352,0,0
357,-328,0,0,0,0,0,0,0,0,0,-1,1581,1352,0,0
364,-328,0,0,0,0,0,0,0,0,0,-1,1588,1352,0,0
371,-328,0,0,0,0,0,0,0,0,0,-1,1595,1352,0,0
378,-328,0,0,0,0,0,0,0,0,0,-1,1602,1352,0,0
385,-328,0,0,0,0,0,0,0,0,0,-1,1609,1352,0,0
392,-328,0,0,0,0,0,0,0,0,0,-1,1616,1352,0,0
399,-328,0,0,0,0,0,0,0,0,0,-1,1623,1352,0,0
406,-328,0,0,0,0,0,0,0,0,0,-1,1630,1352,0,0
413,-328,0,0,0,0,0,0,0,0,0,-1,1637,1352,0,0
420,-328,0,0,0,0,0,0,0,0,0,-1,1644,1352,0,0
427,-328,0,0,0,0,0,0,0,0,0,-1,1651,1352,0,0
434,-328,0,0,0,0,0,0,0,0,0,-1,1658,1352,0,0
441,-328,0,0,0,0,0,0,0,0,0,-1,1665,1352,0,0
448,-328,0,0,0,0,0,0,0,0,0,-1,1672,1352,0,0
455,-328,0,0,0,0,0,0,0,0,0,-1,1679,1352,0,0
462,-328,0,0,0,0,0,0,0,0,0,-1,1686,1352,0,0
469,-328,0,0,0,0,0,0,0,0,0,-1,1693,1352,0,0
476,-328,0,0,0,0,0,0,0,0,0,-1,1700,1352,0,0
483,-328,0,0,0,0,0,0,0,0,0,-1,1707,1352,0,0
490,-328,0,0,0,0,0,0,0,0,0,-1,1714,1352,0,0
497,-328,0,0,0,0,0,0,0,0,0,-1,1721,1352,0,0
504,-328,0,0,0,0,0,0,0,0,0,-1,1728,1352,0,0
511,-328,0,0,0,0,0,0,0,0,0,-1,1735,1352,0,0
518,-328,0,0,0,0,0,0,0,0,0,-1,1742,1352,0,0
525,-328,0,0,0,0,0,0,0,0,0,-1,1749,1352,0,0
532,-328,0,0,0,0,0,0,0,0,0,-1,1756,1352,0,0
539,-328,0,0,0,0,0,0,0,0,0,-1,1763,1352,0,0
546,-328,0,0,0,0,0,0,0,0,0,-1,1770,1352,0,0
553,-328,0,0,0,0,0,0,0,0,0,-1,1777,1352,0,0
560,-328,0,0,0,0,0,0,0,0,0,-1,1784,1352,0,0
567,-328,0,0,0,0,0,0,0,0,0,-1,1791,1352,0,0
574,-328,22.1106,2.47656,0.0278293,-0.093783,-0.0347582,0.0370626,-0.103016,-0.259647,0.0838094,0.041261,1798,1352,22.1106,-2.47659
581,-328,22.4137,2.21326,0.0354346,-0.0714541,-0.0343854,0.0455407,-0.0815601,-0.285856,0.0743574,0.0427149,1805,1352,22.4137,-2.21325
588,-328,22.8654,1.48975,0,0,0,0,0,0,0,-1,1812,1352,22.8653,-1.48973
595,-328,23.4211,1.05029,0,0,0,0,0,0,0,-1,1819,1352,23.4212,-1.05029
602,-328,24.3965,1.01636,0,0,0,0,0,0,0,-1,1826,1352,24.3965,-1.01636
609,-328,24.2654,0.741699,0,0,0,0,0,0,0,-1,1833,1352,24.2654,-0.741759
616,-328,20.8577,2.55371,0,0,0,0,0,0,0,-1,1840,1352,20.8577,-2.55375
623,-328,21.952,3.66797,0,0,0,0,0,0,0,-1,1847,1352,21.952,-3.66798
630,-328,21.6896,4.96326,0,0,0,0,0,0,0,-1,1854,1352,21.6896,-4.96326
637,-328,16.8966,7.19812,0,0,0,0,0,0,0,-1,1861,1352,16.8966,-7.19806
644,-328,16.9579,6.3396,0,0,0,0,0,0,0,-1,1868,1352,16.9579,-6.33959
651,-328,17.1848,6.8988,0,0,0,0,0,0,0,-1,1875,1352,17.1849,-6.89876
658,-328,17.0486,7.02966,-0.00184947,0.00232495,-0.000165527,0.0023315,-0.00185603,-1.53123,0.00242286,0.0260526,1882,1352,17.0486,-7.02963
665,-328,17.0431,6.80432,-0.00288432,-0.000466477,0.00137797,0.000157715,-0.00350851,1.14547,0.00239331,0.0152097,1889,1352,17.0431,-6.80437
672,-328,17.0387,6.57214,-0.0025172,-0.00179887,0.00193762,-0.000187412,-0.00412866,0.87704,0.00269214,0.0112294,1896,1352,17.0387,-6.57214
679,-328,17.0542,6.34094,-0.00178121,-0.0018486,0.00158722,-0.000227321,-0.00340248,0.774785,0.00219647,0.0122059,1903,1352,17.0542,-6.34098
686,-328,17.0435,6.10669,-9.50758e-05,-0.000797361,0.000192748,-4.56529e-05,-0.000846784,0.251005,0.000549937,0.0115027,1910,1352,17.0435,-6.10675
693,-328,17.0406,5.87964,0.00286187,-0.000827984,-0.00231328,0.00397584,-0.00194195,-0.44878,0.00348325,0.00880693,1917,1352,17.0407,-5.87968
700,-328,17.0469,5.6532,0.00686768,-0.000520003,-0.00539775,0.00971449,-0.00336682,-0.485332,0.00784329,0.0127411,1924,1352,17.0469,-5.6532
707,-328,17.0564,5.41968,0.0115295,-0.000573232,-0.00904481,0.0163606,-0.00540431,-0.490575,0.0130859,0.0142702,1931,1352,17.0564,-5.41966
714,-328,17.0658,5.1897,0.0175622,-0.000928294,-0.0137957,0.0249241,-0.00829012,-0.490191,0.0199617,0.0128726,1938,1352,17.0658,-5.18971
721,-328,16.9758,4.99231,0.0254204,-0.00168409,-0.0199703,0.0360027,-0.0122664,-0.487282,0.0289696,0.029797,1945,1352,16.9759,-4.99228
728,-328,17.076,4.70813,0.0357119,-0.00276926,-0.0280507,0.0504866,-0.017544,-0.484791,0.0407836,0.0415358,1952,1352,17.0761,-4.70814
735,-328,17.7288,4.16785,0.0490785,-0.0043033,-0.0384731,0.0692127,-0.0244375,-0.482137,0.056091,0.0466198,1959,1352,17.7288,-4.16779
742,-328,18.3362,3.27478,0.0658836,-0.00630964,-0.0513852,0.0925835,-0.0330095,-0.479207,0.0751812,0.0495674,1966,1352,18.3361,-3.27481
749,-328,18.7816,2.46533,0,0,0,0,0,0,0,-1,1973,1352,18.7816,-2.46529
756,-328,20.577,4.19202,0,0,0,0,0,0,0,-1,1980,1352,20.577,-4.19197
763,-328,0,0,0,0,0,0,0,0,0,-1,1987,1352,0,0
770,-328,0,0,0,0,0,0,0,0,0,-1,1994,1352,0,0
777,-328,0,0,0,0,0,0,0,0,0,-1,2001,1352,0,0
784,-328,0,0,0,0,0,0,0,0,0,-1,2008,1352,0,0
791,-328,0,0,0,0,0,0,0,0,0,-1,2015,1352,0,0
798,-328,0,0,0,0,0,0,0,0,0,-1,2022,1352,0,0
805,-328,0,0,0,0,0,0,0,0,0,-1,2029,1352,0,0
812,-328,0,0,0,0,0,0,0,0,0,-1,2036,1352,0,0
-700,-335,0,0,0,0,0,0,0,0,0,-1,524,1359,0,0
-693,-335,0,0,0,0,0,0,0,0,0,-1,531,1359,0,0
-686,-335,0,0,0,0,0,0,0,0,0,-1,538,1359,0,0
-679,-335,0,0,0,0,0,0,0,0,0,-1,545,1359,0,0
-672,-335,0,0,0,0,0,0,0,0,0,-1,552,1359,0,0
-665,-335,0,0,0,0,0,0,0,0,0,-1,559,1359,0,0
-658,-335,0,0,0,0,0,0,0,0,0,-1,566,1359,0,0
-651,-335,0,0,0,0,0,0,0,0,0,-1,573,1359,0,0
-644,-335,0,0,0,0,0,0,0,0,0,-1,580,1359,0,0
-637,-335,-9.02472,4.46582,0,0,0,0,0,0,0,-1,587,1359,-9.02471,-4.46582
-630,-335,-8.73334,2.80054,0,0,0,0,0,0,0,-1,594,1359,-8.73331,-2.80056
-623,-335,-8.43304,1.09509,0,0,0,0,0,0,0,-1,601,1359,-8.43301,-1.09507
-616,-335,-7.80927,-0.485352,0,0,0,0,0,0,0,-1,608,1359,-7.80926,0.485291
-609,-335,-7.12256,-2.03601,0,0,0,0,0,0,0,-1,615,1359,-7.12253,2.03601
-602,-335,-8.61627,2.68652,0,0,0,0,0,0,0,-1,622,1359,-8.6163,-2.68654
-595,-335,-8.30841,2.89075,0.00660565,0.0437005,0.0167923,0.0501728,0.0001333,1.20291,0.0334042,0.04685,629,1359,-8.30843,-2.89075
-588,-335,-7.99011,2.94714,0.00337166,0.0288275,0.0105763,0.0326482,-0.000449065,1.22413,0.0219167,0.0413342,636,1359,-7.99013,-2.94709
-581,-335,-8.14166,3.04468,0.00143355,0.0188682,0.00654801,0.0210536,-0.000751791,1.24868,0.0142929,0.0220985,643,1359,-8.14169,-3.04463
-574,-335,-8.14795,3.26013,0.000452126,0.0120357,0.00383075,0.0131879,-0.000700112,1.27862,0.00903436,0.0112387,650,1359,-8.14796,-3.26019
-567,-335,-8.1297,3.51929,5.2813e-05,0.00737481,0.00206774,0.00791839,-0.000490763,1.31373,0.00544988,0.0149262,657,1359,-8.12973,-3.51925
-560,-335,-8.10504,3.75342,-0.000128945,0.00414711,0.000792152,0.00428914,-0.000270976,1.39338,0.0029539,0.0231729,664,1359,-8.10502,-3.75347
-553,-335,-8.17426,4.01648,-6.145e-05,0.00196703,-5.30467e-05,0.00196842,-6.28363e-05,-1.54467,0.00133372,0.0275774,671,1359,-8.17423,-4.01651
-546,-335,-8.20959,4.31738,0.000161216,0.000439511,-0.000670823,0.000985466,-0.000384739,-0.887662,0.000816038,0.0256323,678,1359,-8.20957,-4.31735
-539,-335,-8.18066,4.58899,0.000266478,-0.000714583,-0.0011924,0.00106531,-0.00151341,-0.590259,0.0014963,0.019957,685,1359,-8.18068,-4.58901
-532,-335,-8.16187,4.87134,0.000430995,-0.000927195,-0.00143248,0.0013372,-0.0018334,-0.564053,0.001838,0.0148959,692,1359,-8.16185,-4.87136
-525,-335,-8.12183,5.17346,0.000266766,-0.00155511,-0.0021239,0.00166683,-0.00295517,-0.582814,0.00270285,0.0105026,699,1359,-8.12185,-5.17346
-518,-335,-8.11963,5.3999,-0.000730501,-0.00212032,-0.00344193,0.00208596,-0.00493679,-0.685789,0.00416446,0.0211695,706,1359,-8.11964,-5.39995
-511,-335,-8.36444,5.42786,-0.00262705,-0.00292244,-0.00518359,0.00241095,-0.00796044,-0.771155,0.00626714,0.0466437,713,1359,-8.36441,-5.42786
-504,-335,-8.65802,5.48755,0,0,0,0,0,0,0,-1,720,1359,-8.658,-5.4875
-497,-335,-8.97333,5.53125,0,0,0,0,0,0,0,-1,727,1359,-8.97332,-5.53119
-490,-335,-10.8923,4.43506,0,0,0,0,0,0,0,-1,734,1359,-10.8923,-4.43506
-483,-335,-10.9349,4.52917,0,0,0,0,0,0,0,-1,741,1359,-10.9349,-4.52922
-476,-335,-11.9938,-0.173462,0,0,0,0,0,0,0,-1,748,1359,-11.9938,0.173429
-469,-335,-12.8704,-0.204102,0,0,0,0,0,0,0,-1,755,1359,-12.8704,0.204117
-462,-335,-13.486,0.0218506,0,0,0,0,0,0,0,-1,762,1359,-13.4859,-0.0217908
-455,-335,-14.1504,0.549561,0,0,0,0,0,0,0,-1,769,1359,-14.1504,-0.549583
-448,-335,0,0,0,0,0,0,0,0,0,-1,776,1359,0,0
-441,-335,0,0,0,0,0,0,0,0,0,-1,783,1359,0,0
-434,-335,0,0,0,0,0,0,0,0,0,-1,790,1359,0,0
-427,-335,0,0,0,0,0,0,0,0,0,-1,797,1359,0,0
-420,-335,0,0,0,0,0,0,0,0,0,-1,804,1359,0,0
-413,-335,0,0,0,0,0,0,0,0,0,-1,811,1359,0,0
-406,-335,0,0,0,0,0,0,0,0,0,-1,818,1359,0,0
-399,-335,0,0,0,0,0,0,0,0,0,-1,825,1359,0,0
-392,-335,0,0,0,0,0,0,0,0,0,-1,832,1359,0,0
-385,-335,0,0,0,0,0,0,0,0,0,-1,839,1359,0,0
-378,-335,0,0,0,0,0,0,0,0,0,-1,846,1359,0,0
-371,-335,0,0,0,0,0,0,0,0,0,-1,853,1359,0,0
-364,-335,0,0,0,0,0,0,0,0,0,-1,860,1359,0,0
-357,-335,0,0,0,0,0,0,0,0,0,-1,867,1359,0,0
-350,-335,0,0,0,0,0,0,0,0,0,-1,874,1359,0,0
-343,-335,0,0,0,0,0,0,0,0,0,-1,881,1359,0,0
-336,-335,0,0,0,0,0,0,0,0,0,-1,888,1359,0,0
-329,-335,0,0,0,0,0,0,0,0,0,-1,895,1359,0,0
-322,-335,0,0,0,0,0,0,0,0,0,-1,902,1359,0,0
-315,-335,0,0,0,0,0,0,0,0,0,-1,909,1359,0,0
-308,-335,0,0,0,0,0,0,0,0,0,-1,916,1359,0,0
-301,-335,0,0,0,0,0,0,0,0,0,-1,923,1359,0,0
-294,-335,0,0,0,0,0,0,0,0,0,-1,930,1359,0,0
-287,-335,0,0,0,0,0,0,0,0,0,-1,937,1359,0,0
-280,-335,0,0,0,0,0,0,0,0,0,-1,944,1359,0,0
-273,-335,0,0,0,0,0,0,0,0,0,-1,951,1359,0,0
-266,-335,0,0,0,0,0,0,0,0,0,-1,958,1359,0,0
-259,-335,0,0,0,0,0,0,0,0,0,-1,965,1359,0,0
-252,-335,0,0,0,0,0,0,0,0,0,-1,972,1359,0,0
-245,-335,0,0,0,0,0,0,0,0,0,-1,979,1359,0,0
-238,-335,0,0,0,0,0,0,0,0,0,-1,986,1359,0,0
-231,-335,0,0,0,0,0,0,0,0,0,-1,993,1359,0,0
-224,-335,0,0,0,0,0,0,0,0,0,-1,1000,1359,0,0
-217,-335,0,0,0,0,0,0,0,0,0,-1,1007,1359,0,0
-210,-335,0,0,0,0,0,0,0,0,0,-1,1014,1359,0,0
-203,-335,0,0,0,0,0,0,0,0,0,-1,1021,1359,0,0
-196,-335,0,0,0,0,0,0,0,0,0,-1,1028,1359,0,0
-189,-335,0,0,0,0,0,0,0,0,0,-1,1035,1359,0,0
-182,-335,0,0,0,0,0,0,0,0,0,-1,1042,1359,0,0
-175,-335,0,0,0,0,0,0,0,0,0,-1,1049,1359,0,0
-168,-335,0,0,0,0,0,0,0,0,0,-1,1056,1359,0,0
-161,-335,0,0,0,0,0,0,0,0,0,-1,1063,1359,0,0
-154,-335,0,0,0,0,0,0,0,0,0,-1,1070,1359,0,0
-147,-335,0,0,0,0,0,0,0,0,0,-1,1077,1359,0,0
-140,-335,0,0,0,0,0,0,0,0,0,-1,1084,1359,0,0
-133,-335,0,0,0,0,0,0,0,0,0,-1,1091,1359,0,0
-126,-335,0,0,0,0,0,0,0,0,0,-1,1098,1359,0,0
-119,-335,0,0,0,0,0,0,0,0,0,-1,1105,1359,0,0
-112,-335,0,0,0,0,0,0,0,0,0,-1,1112,1359,0,0
-105,-335,0,0,0,0,0,0,0,0,0,-1,1119,1359,0,0
-98,-335,0,0,0,0,0,0,0,0,0,-1,1126,1359,0,0
-91,-335,0,0,0,0,0,0,0,0,0,-1,1133,1359,0,0
-84,-335,0,0,0,0,0,0,0,0,0,-1,1140,1359,0,0
-77,-335,0,0,0,0,0,0,0,0,0,-1,1147,1359,0,0
-70,-335,0,0,0,0,0,0,0,0,0,-1,1154,1359,0,0
-63,-335,0,0,0,0,0,0,0,0,0,-1,1161,1359,0,0
-56,-335,0,0,0,0,0,0,0,0,0,-1,1168,1359,0,0
-49,-335,0,0,0,0,0,0,0,0,0,-1,1175,1359,0,0
-42,-335,0,0,0,0,0,0,0,0,0,-1,1182,1359,0,0
-35,-335,0,0,0,0,0,0,0,0,0,-1,1189,1359,0,0
-28,-335,0,0,0,0,0,0,0,0,0,-1,1196,1359,0,0
-21,-335,0,0,0,0,0,0,0,0,0,-1,1203,1359,0,0
-14,-335,0,0,0,0,0,0,0,0,0,-1,1210,1359,0,0
-7,-335,0,0,0,0,0,0,0,0,0,-1,1217,1359,0,0
0,-335,0,0,0,0,0,0,0,0,0,-1,1224,1359,0,0
7,-335,0,0,0,0,0,0,0,0,0,-1,1231,1359,0,0
14,-335,0,0,0,0,0,0,0,0,0,-1,1238,1359,0,0
21,-335,0,0,0,0,0,0,0,0,0,-1,1245,1359,0,0
28,-335,0,0,0,0,0,0,0,0,0,-1,1252,1359,0,0
35,-335,0,0,0,0,0,0,0,0,0,-1,1259,1359,0,0
42,-335,0,0,0,0,0,0,0,0,0,-1,1266,1359,0,0
49,-335,0,0,0,0,0,0,0,0,0,-1,1273,1359,0,0
56,-335,0,0,0,0,0,0,0,0,0,-1,1280,1359,0,0
63,-335,0,0,0,0,0,0,0,0,0,-1,1287,1359,0,0
70,-335,0,0,0,0,0,0,0,0,0,-1,1294,1359,0,0
77,-335,0,0,0,0,0,0,0,0,0,-1,1301,1359,0,0
84,-335,0,0,0,0,0,0,0,0,0,-1,1308,1359,0,0
91,-335,0,0,0,0,0,0,0,0,0,-1,1315,1359,0,0
98,-335,0,0,0,0,0,0,0,0,0,-1,1322,1359,0,0
105,-335,0,0,0,0,0,0,0,0,0,-1,1329,1359,0,0
112,-335,0,0,0,0,0,0,0,0,0,-1,1336,1359,0,0
119,-335,0,0,0,0,0,0,0,0,0,-1,1343,1359,0,0
126,-335,0,0,0,0,0,0,0,0,0,-1,1350,1359,0,0
133,-335,0,0,0,0,0,0,0,0,0,-1,1357,1359,0,0
140,-335,0,0,0,0,0,0,0,0,0,-1,1364,1359,0,0
147,-335,0,0,0,0,0,0,0,0,0,-1,1371,1359,0,0
154,-335,0,0,0,0,0,0,0,0,0,-1,1378,1359,0,0
161,-335,0,0,0,0,0,0,0,0,0,-1,1385,1359,0,0
168,-335,0,0,0,0,0,0,0,0,0,-1,1392,1359,0,0
175,-335,0,0,0,0,0,0,0,0,0,-1,1399,1359,0,0
182,-335,0,0,0,0,0,0,0,0,0,-1,1406,1359,0,0
189,-335,0,0,0,0,0,0,0,0,0,-1,1413,1359,0,0
196,-335,0,0,0,0,0,0,0,0,0,-1,1420,1359,0,0
203,-335,0,0,0,0,0,0,0,0,0,-1,1427,1359,0,0
210,-335,0,0,0,0,0,0,0,0,0,-1,1434,1359,0,0
217,-335,0,0,0,0,0,0,0,0,0,-1,1441,1359,0,0
224,-335,0,0,0,0,0,0,0,0,0,-1,1448,1359,0,0
231,-335,0,0,0,0,0,0,0,0,0,-1,1455,1359,0,0
238,-335,0,0,0,0,0,0,0,0,0,-1,1462,1359,0,0
245,-335,0,0,0,0,0,0,0,0,0,-1,1469,1359,0,0
252,-335,0,0,0,0,0,0,0,0,0,-1,1476,1359,0,0
259,-335,0,0,0,0,0,0,0,0,0,-1,1483,1359,0,0
266,-335,0,0,0,0,0,0,0,0,0,-1,1490,1359,0,0
273,-335,0,0,0,0,0,0,0,0,0,-1,1497,1359,0,0
280,-335,0,0,0,0,0,0,0,0,0,-1,1504,1359,0,0
287,-335,0,0,0,0,0,0,0,0,0,-1,1511,1359,0,0
294,-335,0,0,0,0,0,0,0,0,0,-1,1518,1359,0,0
301,-335,0,0,0,0,0,0,0,0,0,-1,1525,1359,0,0
308,-335,0,0,0,0,0,0,0,0,0,-1,1532,1359,0,0
315,-335,0,0,0,0,0,0,0,0,0,-1,1539,1359,0,0
322,-335,0,0,0,0,0,0,0,0,0,-1,1546,1359,0,0
329,-335,0,0,0,0,0,0,0,0,0,-1,1553,1359,0,0
336,-335,0,0,0,0,0,0,0,0,0,-1,1560,1359,0,0
343,-335,0,0,0,0,0,0,0,0,0,-1,1567,1359,0,0
350,-335,0,0,0,0,0,0,0,0,0,-1,1574,1359,0,0
357,-335,0,0,0,0,0,0,0,0,0,-1,1581,1359,0,0
364,-335,0,0,0,0,0,0,0,0,0,-1,1588,1359,0,0
371,-335,0,0,0,0,0,0,0,0,0,-1,1595,1359,0,0
378,-335,0,0,0,0,0,0,0,0,0,-1,1602,1359,0,0
385,-335,0,0,0,0,0,0,0,0,0,-1,1609,1359,0,0
392,-335,0,0,0,0,0,0,0,0,0,-1,1616,1359,0,0
399,-335,0,0,0,0,0,0,0,0,0,-1,1623,1359,0,0
406,-335,0,0,0,0,0,0,0,0,0,-1,1630,1359,0,0
413,-335,0,0,0,0,0,0,0,0,0,-1,1637,1359,0,0
420,-335,0,0,0,0,0,0,0,0,0,-1,1644,1359,0,0
427,-335,0,0,0,0,0,0,0,0,0,-1,1651,1359,0,0
434,-335,0,0,0,0,0,0,0,0,0,-1,1658,1359,0,0
441,-335,0,0,0,0,0,0,0,0,0,-1,1665,1359,0,0
448,-335,0,0,0,0,0,0,0,0,0,-1,1672,1359,0,0
455,-335,0,0,0,0,0,0,0,0,0,-1,1679,1359,0,0
462,-335,0,0,0,0,0,0,0,0,0,-1,1686,1359,0,0
469,-335,0,0,0,0,0,0,0,0,0,-1,1693,1359,0,0
476,-335,0,0,0,0,0,0,0,0,0,-1,1700,1359,0,0
483,-335,0,0,0,0,0,0,0,0,0,-1,1707,1359,0,0
490,-335,0,0,0,0,0,0,0,0,0,-1,1714,1359,0,0
497,-335,0,0,0,0,0,0,0,0,0,-1,1721,1359,0,0
504,-335,0,0,0,0,0,0,0,0,0,-1,1728,1359,0,0
511,-335,0,0,0,0,0,0,0,0,0,-1,1735,1359,0,0
518,-335,0,0,0,0,0,0,0,0,0,-1,1742,1359,0,0
525,-335,0,0,0,0,0,0,0,0,0,-1,1749,1359,0,0
532,-335,0,0,0,0,0,0,0,0,0,-1,1756,1359,0,0
539,-335,0,0,0,0,0,0,0,0,0,-1,1763,1359,0,0
546,-335,0,0,0,0,0,0,0,0,0,-1,1770,1359,0,0
553,-335,0,0,0,0,0,0,0,0,0,-1,1777,1359,0,0
560,-335,0,0,0,0,0,0,0,0,0,-1,1784,1359,0,0
567,-335,0,0,0,0,0,0,0,0,0,-1,1791,1359,0,0
574,-335,22.5725,3.32751,0.0331304,-0.0968886,-0.0335277,0.0412669,-0.105025,-0.238078,0.0870946,0.0427756,1798,1359,22.5725,-3.32753
581,-335,22.8922,3.07654,0.0372097,-0.0796068,-0.0317308,0.0452722,-0.0876694,-0.248826,0.0780441,0.0446388,1805,1359,22.8923,-3.07655
588,-335,23.3821,2.9187,0.0342503,-0.0644697,-0.028144,0.0417102,-0.0719296,-0.259102,0.0663787,0.0465332,1812,1359,23.3821,-2.91873
595,-335,24.0004,2.88684,0,0,0,0,0,0,0,-1,1819,1359,24.0004,-2.8869
602,-335,25.3571,1.45105,0,0,0,0,0,0,0,-1,1826,1359,25.3571,-1.45106
609,-335,20.9849,2.70349,0,0,0,0,0,0,0,-1,1833,1359,20.9848,-2.70344
616,-335,20.4086,3.1228,0,0,0,0,0,0,0,-1,1840,1359,20.4086,-3.12281
623,-335,20.153,3.948,0,0,0,0,0,0,0,-1,1847,1359,20.1529,-3.94804
630,-335,19.8549,4.85107,0,0,0,0,0,0,0,-1,1854,1359,19.8548,-4.85111
637,-335,16.7556,6.72754,0,0,0,0,0,0,0,-1,1861,1359,16.7556,-6.72754
644,-335,16.9297,7.39111,0,0,0,0,0,0,0,-1,1868,1359,16.9297,-7.39106
651,-335,16.8439,7.23242,-0.000463594,0.00325905,-0.000678562,0.00337889,-0.000583424,-1.396,0.00247014,0.0269574,1875,1359,16.8438,-7.23241
658,-335,16.7781,7.09021,-0.00187923,0.000256204,0.000874662,0.000568724,-0.00219175,1.22763,0.00168308,0.0170415,1882,1359,16.7781,-7.09021
665,-335,16.7939,6.82727,-0.00251054,-0.00152068,0.00172146,-0.00022441,-0.00380681,0.925376,0.00246647,0.015677,1889,1359,16.7939,-6.8273
672,-335,16.8137,6.57202,-0.0019632,-0.00190884,0.00172327,-0.000212543,-0.0036595,0.793284,0.002372,0.0165348,1896,1359,16.8138,-6.57201
679,-335,16.8326,6.36768,-0.00110298,-0.00162835,0.00122693,-0.00011093,-0.0026204,0.679941,0.00171116,0.0131396,1903,1359,16.8327,-6.36765
686,-335,16.8271,6.12939,0.000696,-0.000518346,-0.000260225,0.000749415,-0.000571761,-0.202451,0.000765077,0.0104371,1910,1359,16.8271,-6.12937
693,-335,16.8173,5.87683,0.00372569,-0.000755714,-0.00282902,0.00509388,-0.0021239,-0.450463,0.00428317,0.00999759,1917,1359,16.8172,-5.87683
700,-335,16.8004,5.66199,0.00788284,-0.000455926,-0.00590758,0.0109442,-0.00351726,-0.478105,0.00870861,0.010605,1924,1359,16.8004,-5.66195
707,-335,16.8047,5.43213,0.0128096,-0.000549799,-0.00963424,0.0178533,-0.00559344,-0.48228,0.0141404,0.0131736,1931,1359,16.8047,-5.43216
714,-335,16.8398,5.1532,0.0193582,-0.000963348,-0.0145663,0.0269574,-0.00856261,-0.480858,0.0214045,0.0207601,1938,1359,16.8398,-5.15318
721,-335,16.6338,4.85181,0.0281289,-0.0017019,-0.0210947,0.0390487,-0.0126217,-0.477671,0.0311053,0.039794,1945,1359,16.6338,-4.85182
728,-335,17.2095,4.698,0.0398403,-0.00270029,-0.0297126,0.0551113,-0.0179713,-0.47475,0.043973,0.0475497,1952,1359,17.2095,-4.69795
735,-335,17.9386,4.4425,0.0550653,-0.00404567,-0.0407171,0.0758229,-0.0248033,-0.471458,0.0605346,0.0491457,1959,1359,17.9386,-4.4425
742,-335,18.4763,3.9198,0.0741985,-0.00574334,-0.0541884,0.101563,-0.0331078,-0.46763,0.0810314,0.04888,1966,1359,18.4763,-3.91981
749,-335,19.2578,3.65515,0.0976201,-0.00764184,-0.0701944,0.132723,-0.042745,-0.463715,0.105653,0.0454446,1973,1359,19.2578,-3.65517
756,-335,19.6869,3.58545,0,0,0,0,0,0,0,-1,1980,1359,19.6869,-3.58541
763,-335,0,0,0,0,0,0,0,0,0,-1,1987,1359,0,0
770,-335,0,0,0,0,0,0,0,0,0,-1,1994,1359,0,0
777,-335,0,0,0,0,0,0,0,0,0,-1,2001,1359,0,0
784,-335,0,0,0,0,0,0,0,0,0,-1,2008,1359,0,0
791,-335,0,0,0,0,0,0,0,0,0,-1,2015,1359,0,0
798,-335,0,0,0,0,0,0,0,0,0,-1,2022,1359,0,0
805,-335,0,0,0,0,0,0,0,0,0,-1,2029,1359,0,0
812,-335,0,0,0,0,0,0,0,0,0,-1,2036,1359,0,0
-700,-342,0,0,0,0,0,0,0,0,0,-1,524,1366,0,0
-693,-342,0,0,0,0,0,0,0,0,0,-1,531,1366,0,0
-686,-342,0,0,0,0,0,0,0,0,0,-1,538,1366,0,0
-679,-342,0,0,0,0,0,0,0,0,0,-1,545,1366,0,0
-672,-342,0,0,0,0,0,0,0,0,0,-1,552,1366,0,0
-665,-342,0,0,0,0,0,0,0,0,0,-1,559,1366,0,0
-658,-342,0,0,0,0,0,0,0,0,0,-1,566,1366,0,0
-651,-342,0,0,0,0,0,0,0,0,0,-1,573,1366,0,0
-644,-342,0,0,0,0,0,0,0,0,0,-1,580,1366,0,0
-637,-342,-8.67786,-4.58557,0,0,0,0,0,0,0,-1,587,1366,-8.67788,4.5856
-630,-342,-8.60132,2.71777,0,0,0,0,0,0,0,-1,594,1366,-8.60135,-2.71779
-623,-342,-8.41168,0.662476,0,0,0,0,0,0,0,-1,601,1366,-8.41168,-0.662442
-616,-342,-6.625,-1.28015,0,0,0,0,0,0,0,-1,608,1366,-6.62499,1.28011
-609,-342,-6.84503,2.71887,0,0,0,0,0,0,0,-1,615,1366,-6.84506,-2.7189
-602,-342,-8.59821,0.0688477,0,0,0,0,0,0,0,-1,622,1366,-8.59822,-0.068882
-595,-342,-7.38037,0.375488,0.00621717,0.0482403,0.0194449,0.0558572,-0.00139977,1.19745,0.0377134,0.0464354,629,1366,-7.38036,-0.375472
-588,-342,-7.43805,3.14453,0.00238399,0.0312431,0.0120704,0.0356259,-0.00199885,1.22249,0.0244441,0.0473884,636,1366,-7.43804,-3.1445
-581,-342,-7.70947,3.06604,0,0,0,0,0,0,0,-1,643,1366,-7.70947,-3.06604
-574,-342,-7.90869,3.26379,-0.000746228,0.0126328,0.00425508,0.0138714,-0.00198485,1.28753,0.00997529,0.0112471,650,1366,-7.9087,-3.26385
-567,-342,-7.86603,3.53125,-0.00100116,0.00769349,0.00230585,0.00826716,-0.00157482,1.32696,0.00610447,0.0146067,657,1366,-7.86604,-3.53128
-560,-342,-7.8999,3.70105,-0.000946512,0.00441018,0.000990616,0.00458751,-0.00112384,1.39367,0.00349373,0.021625,664,1366,-7.89992,-3.7011
-553,-342,-7.92615,3.92407,-0.000633992,0.00220462,0.000123489,0.00220998,-0.000639354,1.5274,0.00172636,0.026954,671,1366,-7.92613,-3.9241
-546,-342,-7.90039,4.26733,-0.00014065,0.000672474,-0.000475744,0.000891712,-0.000359888,-1.13897,0.000744039,0.0278169,678,1366,-7.9004,-4.2673
-539,-342,-7.89191,4.62573,0.000222233,-0.000747908,-0.000992882,0.0008422,-0.00136788,-0.558176,0.00128796,0.0232342,685,1366,-7.89188,-4.62571
-532,-342,-7.88617,4.9115,0.000703291,-0.000911801,-0.00122241,0.00136081,-0.00156932,-0.493496,0.00169314,0.0181067,692,1366,-7.88615,-4.91153
-525,-342,-7.84918,5.19519,0.00105354,-0.00141976,-0.00163961,0.00187058,-0.0022368,-0.462296,0.00237454,0.0122237,699,1366,-7.84921,-5.19522
-518,-342,-7.82941,5.45544,0.000739484,-0.00184123,-0.00248663,0.00225062,-0.00335237,-0.546065,0.00325567,0.0154917,706,1366,-7.82942,-5.45545
-511,-342,-7.90668,5.57458,-0.000226618,-0.00248901,-0.00359822,0.00241403,-0.00512966,-0.633101,0.00444843,0.043566,713,1366,-7.90667,-5.57457
-504,-342,-7.89417,5.6759,0,0,0,0,0,0,0,-1,720,1366,-7.89415,-5.67586
-497,-342,-6.69183,5.16785,0,0,0,0,0,0,0,-1,727,1366,-6.69185,-5.16783
-490,-342,-10.7191,5.06116,0,0,0,0,0,0,0,-1,734,1366,-10.719,-5.06113
-483,-342,-10.5609,5.42004,0,0,0,0,0,0,0,-1,741,1366,-10.5609,-5.42006
-476,-342,-11.6371,-0.736328,0,0,0,0,0,0,0,-1,748,1366,-11.6371,0.736281
-469,-342,-12.6245,-0.987549,0,0,0,0,0,0,0,-1,755,1366,-12.6245,0.987553
-462,-342,-13.0912,-0.533203,0,0,0,0,0,0,0,-1,762,1366,-13.0912,0.533224
-455,-342,-13.7612,0.122925,0,0,0,0,0,0,0,-1,769,1366,-13.7612,-0.122896
-448,-342,-14.5278,0.826904,0,0,0,0,0,0,0,-1,776,1366,-14.5277,-0.826861
-441,-342,0,0,0,0,0,0,0,0,0,-1,783,1366,0,0
-434,-342,0,0,0,0,0,0,0,0,0,-1,790,1366,0,0
-427,-342,0,0,0,0,0,0,0,0,0,-1,797,1366,0,0
-420,-342,0,0,0,0,0,0,0,0,0,-1,804,1366,0,0
-413,-342,0,0,0,0,0,0,0,0,0,-1,811,1366,0,0
-406,-342,0,0,0,0,0,0,0,0,0,-1,818,1366,0,0
-399,-342,0,0,0,0,0,0,0,0,0,-1,825,1366,0,0
-392,-342,0,0,0,0,0,0,0,0,0,-1,832,1366,0,0
-385,-342,0,0,0,0,0,0,0,0,0,-1,839,1366,0,0
-378,-342,0,0,0,0,0,0,0,0,0,-1,846,1366,0,0
-371,-342,0,0,0,0,0,0,0,0,0,-1,853,1366,0,0
-364,-342,0,0,0,0,0,0,0,0,0,-1,860,1366,0,0
-357,-342,0,0,0,0,0,0,0,0,0,-1,867,1366,0,0
-350,-342,0,0,0,0,0,0,0,0,0,-1,874,1366,0,0
-343,-342,0,0,0,0,0,0,0,0,0,-1,881,1366,0,0
-336,-342,0,0,0,0,0,0,0,0,0,-1,888,1366,0,0
-329,-342,0,0,0,0,0,0,0,0,0,-1,895,1366,0,0
-322,-342,0,0,0,0,0,0,0,0,0,-1,902,1366,0,0
-315,-342,0,0,0,0,0,0,0,0,0,-1,909,1366,0,0
-308,-342,0,0,0,0,0,0,0,0,0,-1,916,1366,0,0
-301,-342,0,0,0,0,0,0,0,0,0,-1,923,1366,0,0
-294,-342,0,0,0,0,0,0,0,0,0,-1,930,1366,0,0
-287,-342,0,0,0,0,0,0,0,0,0,-1,937,1366,0,0
-280,-342,0,0,0,0,0,0,0,0,0,-1,944,1366,0,0
-273,-342,0,0,0,0,0,0,0,0,0,-1,951,1366,0,0
-266,-342,0,0,0,0,0,0,0,0,0,-1,958,1366,0,0
-259,-342,0,0,0,0,0,0,0,0,0,-1,965,1366,0,0
-252,-342,0,0,0,0,0,0,0,0,0,-1,972,1366,0,0
-245,-342,0,0,0,0,0,0,0,0,0,-1,979,1366,0,0
-238,-342,0,0,0,0,0,0,0,0,0,-1,986,1366,0,0
-231,-342,0,0,0,0,0,0,0,0,0,-1,993,1366,0,0
-224,-342,0,0,0,0,0,0,0,0,0,-1,1000,1366,0,0
-217,-342,0,0,0,0,0,0,0,0,0,-1,1007,1366,0,0
-210,-342,0,0,0,0,0,0,0,0,0,-1,1014,1366,0,0
-203,-342,0,0,0,0,0,0,0,0,0,-1,1021,1366,0,0
-196,-342,0,0,0,0,0,0,0,0,0,-1,1028,1366,0,0
-189,-342,0,0,0,0,0,0,0,0,0,-1,1035,1366,0,0
-182,-342,0,0,0,0,0,0,0,0,0,-1,1042,1366,0,0
-175,-342,0,0,0,0,0,0,0,0,0,-1,1049,1366,0,0
-168,-342,0,0,0,0,0,0,0,0,0,-1,1056,1366,0,0
-161,-342,0,0,0,0,0,0,0,0,0,-1,1063,1366,0,0
-154,-342,0,0,0,0,0,0,0,0,0,-1,1070,1366,0,0
-147,-342,0,0,0,0,0,0,0,0,0,-1,1077,1366,0,0
-140,-342,0,0,0,0,0,0,0,0,0,-1,1084,1366,0,0
-133,-342,0,0,0,0,0,0,0,0,0,-1,1091,1366,0,0
-126,-342,0,0,0,0,0,0,0,0,0,-1,1098,1366,0,0
-119,-342,0,0,0,0,0,0,0,0,0,-1,1105,1366,0,0
-112,-342,0,0,0,0,0,0,0,0,0,-1,1112,1366,0,0
-105,-342,0,0,0,0,0,0,0,0,0,-1,1119,1366,0,0
-98,-342,0,0,0,0,0,0,0,0,0,-1,1126,1366,0,0
-91,-342,0,0,0,0,0,0,0,0,0,-1,1133,1366,0,0
-84,-342,0,0,0,0,0,0,0,0,0,-1,1140,1366,0,0
-77,-342,0,0,0,0,0,0,0,0,0,-1,1147,1366,0,0
-70,-342,0,0,0,0,0,0,0,0,0,-1,1154,1366,0,0
-63,-342,0,0,0,0,0,0,0,0,0,-1,1161,1366,0,0
-56,-342,0,0,0,0,0,0,0,0,0,-1,1168,1366,0,0
-49,-342,0,0,0,0,0,0,0,0,0,-1,1175,1366,0,0
-42,-342,0,0,0,0,0,0,0,0,0,-1,1182,1366,0,0
-35,-342,0,0,0,0,0,0,0,0,0,-1,1189,1366,0,0
-28,-342,0,0,0,0,0,0,0,0,0,-1,1196,1366,0,0
-21,-342,0,0,0,0,0,0,0,0,0,-1,1203,1366,0,0
-14,-342,0,0,0,0,0,0,0,0,0,-1,1210,1366,0,0
-7,-342,0,0,0,0,0,0,0,0,0,-1,1217,1366,0,0
0,-342,0,0,0,0,0,0,0,0,0,-1,1224,1366,0,0
7,-342,0,0,0,0,0,0,0,0,0,-1,1231,1366,0,0
14,-342,0,0,0,0,0,0,0,0,0,-1,1238,1366,0,0
21,-342,0,0,0,0,0,0,0,0,0,-1,1245,1366,0,0
28,-342,0,0,0,0,0,0,0,0,0,-1,1252,1366,0,0
35,-342,0,0,0,0,0,0,0,0,0,-1,1259,1366,0,0
42,-342,0,0,0,0,0,0,0,0,0,-1,1266,1366,0,0
49,-342,0,0,0,0,0,0,0,0,0,-1,1273,1366,0,0
56,-342,0,0,0,0,0,0,0,0,0,-1,1280,1366,0,0
63,-342,0,0,0,0,0,0,0,0,0,-1,1287,1366,0,0
70,-342,0,0,0,0,0,0,0,0,0,-1,1294,1366,0,0
77,-342,0,0,0,0,0,0,0,0,0,-1,1301,1366,0,0
84,-342,0,0,0,0,0,0,0,0,0,-1,1308,1366,0,0
91,-342,0,0,0,0,0,0,0,0,0,-1,1315,1366,0,0
98,-342,0,0,0,0,0,0,0,0,0,-1,1322,1366,0,0
105,-342,0,0,0,0,0,0,0,0,0,-1,1329,1366,0,0
112,-342,0,0,0,0,0,0,0,0,0,-1,1336,1366,0,0
119,-342,0,0,0,0,0,0,0,0,0,-1,1343,1366,0,0
126,-342,0,0,0,0,0,0,0,0,0,-1,1350,1366,0,0
133,-342,0,0,0,0,0,0,0,0,0,-1,1357,1366,0,0
140,-342,0,0,0,0,0,0,0,0,0,-1,1364,1366,0,0
147,-342,0,0,0,0,0,0,0,0,0,-1,1371,1366,0,0
154,-342,0,0,0,0,0,0,0,0,0,-1,1378,1366,0,0
161,-342,0,0,0,0,0,0,0,0,0,-1,1385,1366,0,0
168,-342,0,0,0,0,0,0,0,0,0,-1,1392,1366,0,0
175,-342,0,0,0,0,0,0,0,0,0,-1,1399,1366,0,0
182,-342,0,0,0,0,0,0,0,0,0,-1,1406,1366,0,0
189,-342,0,0,0,0,0,0,0,0,0,-1,1413,1366,0,0
196,-342,0,0,0,0,0,0,0,0,0,-1,1420,1366,0,0
203,-342,0,0,0,0,0,0,0,0,0,-1,1427,1366,0,0
210,-342,0,0,0,0,0,0,0,0,0,-1,1434,1366,0,0
217,-342,0,0,0,0,0,0,0,0,0,-1,1441,1366,0,0
224,-342,0,0,0,0,0,0,0,0,0,-1,1448,1366,0,0
231,-342,0,0,0,0,0,0,0,0,0,-1,1455,1366,0,0
238,-342,0,0,0,0,0,0,0,0,0,-1,1462,1366,0,0
245,-342,0,0,0,0,0,0,0,0,0,-1,1469,1366,0,0
252,-342,0,0,0,0,0,0,0,0,0,-1,1476,1366,0,0
259,-342,0,0,0,0,0,0,0,0,0,-1,1483,1366,0,0
266,-342,0,0,0,0,0,0,0,0,0,-1,1490,1366,0,0
273,-342,0,0,0,0,0,0,0,0,0,-1,1497,1366,0,0
280,-342,0,0,0,0,0,0,0,0,0,-1,1504,1366,0,0
287,-342,0,0,0,0,0,0,0,0,0,-1,1511,1366,0,0
294,-342,0,0,0,0,0,0,0,0,0,-1,1518,1366,0,0
301,-342,0,0,0,0,0,0,0,0,0,-1,1525,1366,0,0
308,-342,0,0,0,0,0,0,0,0,0,-1,1532,1366,0,0
315,-342,0,0,0,0,0,0,0,0,0,-1,1539,1366,0,0
322,-342,0,0,0,0,0,0,0,0,0,-1,1546,1366,0,0
329,-342,0,0,0,0,0,0,0,0,0,-1,1553,1366,0,0
336,-342,0,0,0,0,0,0,0,0,0,-1,1560,1366,0,0
343,-342,0,0,0,0,0,0,0,0,0,-1,1567,1366,0,0
350,-342,0,0,0,0,0,0,0,0,0,-1,1574,1366,0,0
357,-342,0,0,0,0,0,0,0,0,0,-1,1581,1366,0,0
364,-342,0,0,0,0,0,0,0,0,0,-1,1588,1366,0,0
371,-342,0,0,0,0,0,0,0,0,0,-1,1595,1366,0,0
378,-342,0,0,0,0,0,0,0,0,0,-1,1602,1366,0,0
385,-342,0,0,0,0,0,0,0,0,0,-1,1609,1366,0,0
392,-342,0,0,0,0,0,0,0,0,0,-1,1616,1366,0,0
399,-342,0,0,0,0,0,0,0,0,0,-1,1623,1366,0,0
406,-342,0,0,0,0,0,0,0,0,0,-1,1630,1366,0,0
413,-342,0,0,0,0,0,0,0,0,0,-1,1637,1366,0,0
420,-342,0,0,0,0,0,0,0,0,0,-1,1644,1366,0,0
427,-342,0,0,0,0,0,0,0,0,0,-1,1651,1366,0,0
434,-342,0,0,0,0,0,0,0,0,0,-1,1658,1366,0,0
441,-342,0,0,0,0,0,0,0,0,0,-1,1665,1366,0,0
448,-342,0,0,0,0,0,0,0,0,0,-1,1672,1366,0,0
455,-342,0,0,0,0,0,0,0,0,0,-1,1679,1366,0,0
462,-342,0,0,0,0,0,0,0,0,0,-1,1686,1366,0,0
469,-342,0,0,0,0,0,0,0,0,0,-1,1693,1366,0,0
476,-342,0,0,0,0,0,0,0,0,0,-1,1700,1366,0,0
483,-342,0,0,0,0,0,0,0,0,0,-1,1707,1366,0,0
490,-342,0,0,0,0,0,0,0,0,0,-1,1714,1366,0,0
497,-342,0,0,0,0,0,0,0,0,0,-1,1721,1366,0,0
504,-342,0,0,0,0,0,0,0,0,0,-1,1728,1366,0,0
511,-342,0,0,0,0,0,0,0,0,0,-1,1735,1366,0,0
518,-342,0,0,0,0,0,0,0,0,0,-1,1742,1366,0,0
525,-342,0,0,0,0,0,0,0,0,0,-1,1749,1366,0,0
532,-342,0,0,0,0,0,0,0,0,0,-1,1756,1366,0,0
539,-342,0,0,0,0,0,0,0,0,0,-1,1763,1366,0,0
546,-342,0,0,0,0,0,0,0,0,0,-1,1770,1366,0,0
553,-342,0,0,0,0,0,0,0,0,0,-1,1777,1366,0,0
560,-342,0,0,0,0,0,0,0,0,0,-1,1784,1366,0,0
567,-342,23.0826,4.1853,0.0295487,-0.116995,-0.0312754,0.0359444,-0.12339,-0.201715,0.0964995,0.0451843,1791,1366,23.0826,-4.18534
574,-342,22.8624,4.10181,0.0370937,-0.102825,-0.0305995,0.043493,-0.109224,-0.206159,0.0908528,0.0458843,1798,1366,22.8624,-4.10181
581,-342,23.3296,3.77417,0.0356202,-0.0883626,-0.028189,0.0417284,-0.0944708,-0.213388,0.080576,0.0466266,1805,1366,23.3296,-3.77419
588,-342,23.7622,3.34668,0.0328261,-0.0731654,-0.0256182,0.0386932,-0.0790326,-0.22514,0.0692863,0.0466573,1812,1366,23.7622,-3.34663
595,-342,24.2549,3.302,0,0,0,0,0,0,0,-1,1819,1366,24.2549,-3.30198
602,-342,20.436,3.20898,0,0,0,0,0,0,0,-1,1826,1366,20.4361,-3.20903
609,-342,20.4921,3.50903,0,0,0,0,0,0,0,-1,1833,1366,20.492,-3.50909
616,-342,19.7004,3.62073,0,0,0,0,0,0,0,-1,1840,1366,19.7005,-3.6207
623,-342,18.9089,3.7323,0,0,0,0,0,0,0,-1,1847,1366,18.9089,-3.73231
630,-342,15.5282,6.36682,0,0,0,0,0,0,0,-1,1854,1366,15.5281,-6.36686
637,-342,16.196,6.76172,0,0,0,0,0,0,0,-1,1861,1366,16.1961,-6.76174
644,-342,16.4946,7.53308,0,0,0,0,0,0,0,-1,1868,1366,16.4947,-7.5331
651,-342,16.5961,7.34485,-0.0010043,0.000425636,0.000669863,0.000690411,-0.00126907,1.19438,0.00114763,0.0232821,1875,1366,16.5961,-7.34481
658,-342,16.5874,7.07336,-0.00192812,-0.00160907,0.00161456,-0.000146176,-0.00339101,0.83464,0.00221356,0.0187682,1882,1366,16.5874,-7.07331
665,-342,16.5647,6.81409,-0.00210212,-0.00239436,0.00187537,-0.000367186,-0.00412929,0.74652,0.00263899,0.0149617,1889,1366,16.5647,-6.81404
672,-342,16.5861,6.59265,-0.00140153,-0.00213759,0.00155111,-0.000175387,-0.00336373,0.668918,0.00218637,0.0121144,1896,1366,16.586,-6.59261
679,-342,16.5822,6.38086,-0.00041785,-0.00152149,0.000904635,8.99862e-05,-0.00202932,0.511531,0.00138385,0.0122897,1903,1366,16.5821,-6.38086
686,-342,16.6013,6.14673,0.00143531,-0.000356216,-0.000638365,0.0016395,-0.000560408,-0.309583,0.00132007,0.0106887,1910,1366,16.6013,-6.14668
693,-342,16.5961,5.89026,0.00445052,-0.000747195,-0.00319874,0.00597307,-0.00226975,-0.444251,0.00491649,0.0116846,1917,1366,16.5961,-5.89029
700,-342,16.5719,5.6543,0.00865474,-0.000419167,-0.00619828,0.0117991,-0.00356353,-0.469468,0.00928473,0.0135605,1924,1366,16.5718,-5.6543
707,-342,16.5646,5.41992,0.0137608,-0.000524489,-0.0099453,0.0188626,-0.0056263,-0.473983,0.0148111,0.0131445,1931,1366,16.5646,-5.41996
714,-342,16.5802,5.21191,0.0207341,-0.000967883,-0.0149694,0.0283717,-0.00860547,-0.471784,0.0223424,0.0349377,1938,1366,16.5803,-5.21193
721,-342,16.4766,4.8584,0.0303262,-0.00164701,-0.0217141,0.041304,-0.0126247,-0.468083,0.0325703,0.0477854,1945,1366,16.4766,-4.85843
728,-342,17.1139,4.37878,0,0,0,0,0,0,0,-1,1952,1366,17.1138,-4.37883
735,-342,18.0839,3.66992,0,0,0,0,0,0,0,-1,1959,1366,18.0838,-3.66997
742,-342,18.4949,3.11499,0,0,0,0,0,0,0,-1,1966,1366,18.4948,-3.11497
749,-342,18.3921,3.00061,0,0,0,0,0,0,0,-1,1973,1366,18.3921,-3.0006
756,-342,0,0,0,0,0,0,0,0,0,-1,1980,1366,0,0
763,-342,0,0,0,0,0,0,0,0,0,-1,1987,1366,0,0
770,-342,0,0,0,0,0,0,0,0,0,-1,1994,1366,0,0
777,-342,0,0,0,0,0,0,0,0,0,-1,2001,1366,0,0
784,-342,0,0,0,0,0,0,0,0,0,-1,2008,1366,0,0
791,-342,0,0,0,0,0,0,0,0,0,-1,2015,1366,0,0
798,-342,0,0,0,0,0,0,0,0,0,-1,2022,1366,0,0
805,-342,0,0,0,0,0,0,0,0,0,-1,2029,1366,0,0
812,-342,0,0,0,0,0,0,0,0,0,-1,2036,1366,0,0
-700,-349,0,0,0,0,0,0,0,0,0,-1,524,1373,0,0
-693,-349,0,0,0,0,0,0,0,0,0,-1,531,1373,0,0
-686,-349,0,0,0,0,0,0,0,0,0,-1,538,1373,0,0
-679,-349,0,0,0,0,0,0,0,0,0,-1,545,1373,0,0
-672,-349,0,0,0,0,0,0,0,0,0,-1,552,1373,0,0
-665,-349,0,0,0,0,0,0,0,0,0,-1,559,1373,0,0
-658,-349,0,0,0,0,0,0,0,0,0,-1,566,1373,0,0
-651,-349,0,0,0,0,0,0,0,0,0,-1,573,1373,0,0
-644,-349,0,0,0,0,0,0,0,0,0,-1,580,1373,0,0
-637,-349,0,0,0,0,0,0,0,0,0,-1,587,1373,0,0
-630,-349,-7.64117,-5.06177,0,0,0,0,0,0,0,-1,594,1373,-7.64118,5.0618
-623,-349,-8.63507,0.51123,0,0,0,0,0,0,0,-1,601,1373,-8.63505,-0.511275
-616,-349,-5.2066,-0.188232,0,0,0,0,0,0,0,-1,608,1373,-5.20659,0.188211
-609,-349,-8.84924,2.04956,0,0,0,0,0,0,0,-1,615,1373,-8.84924,-2.04953
-602,-349,-8.05396,1.49268,0,0,0,0,0,0,0,-1,622,1373,-8.05395,-1.49269
-595,-349,-7.11206,1.20544,0,0,0,0,0,0,0,-1,629,1373,-7.11206,-1.20546
-588,-349,-6.33893,1.34045,0,0,0,0,0,0,0,-1,636,1373,-6.33892,-1.34047
-581,-349,-7.39484,3.177,-0.00126232,0.0211228,0.00872426,0.0241213,-0.00426081,1.23975,0.0176732,0.0447019,643,1373,-7.39481,-3.17695
-574,-349,-7.59778,3.25085,-0.00218942,0.0132033,0.0051085,0.0147444,-0.00373052,1.2778,0.0112807,0.0226945,650,1373,-7.59778,-3.25087
-567,-349,-7.61804,3.55359,-0.00227126,0.00804766,0.00285774,0.00878622,-0.00300983,1.31789,0.00707741,0.0149386,657,1373,-7.61803,-3.55358
-560,-349,-7.63495,3.8031,-0.00197028,0.00468699,0.00139078,0.00496586,-0.00224915,1.37291,0.00426288,0.0182998,664,1373,-7.63497,-3.80313
-553,-349,-7.64587,3.99609,-0.00140003,0.00246284,0.000433411,0.00251087,-0.00144806,1.46043,0.00231298,0.0255273,671,1373,-7.64588,-3.99607
-546,-349,-7.62347,4.28772,-0.00062586,0.000934535,-0.000193966,0.000958284,-0.00064961,-1.44896,0.000934003,0.0304554,678,1373,-7.62348,-4.28767
-539,-349,-7.63922,4.61499,2.25599e-05,-0.000657382,-0.000730327,0.000488168,-0.00112299,-0.567562,0.000953968,0.0241763,685,1373,-7.63923,-4.61504
-532,-349,-7.62354,4.91663,0.000827586,-0.000830723,-0.000975741,0.00127889,-0.00128202,-0.433218,0.00147854,0.016874,692,1373,-7.62354,-4.91663
-525,-349,-7.59418,5.20544,0.00162963,-0.00124899,-0.00116139,0.00203976,-0.00165912,-0.339469,0.00213931,0.0125058,699,1373,-7.5942,-5.20543
-518,-349,-7.59918,5.4812,0.00194182,-0.00159803,-0.00161408,0.00256728,-0.0022235,-0.369688,0.00276833,0.012393,706,1373,-7.59919,-5.48118
-511,-349,-7.48096,5.72766,0.00175416,-0.00207311,-0.00217489,0.00273745,-0.0030564,-0.424605,0.00334677,0.0359629,713,1373,-7.48098,-5.72771
-504,-349,-7.36823,5.88867,0,0,0,0,0,0,0,-1,720,1373,-7.3682,-5.88866
-497,-349,-7.9339,5.58789,0,0,0,0,0,0,0,-1,727,1373,-7.93388,-5.58785
-490,-349,-6.74347,4.78418,0,0,0,0,0,0,0,-1,734,1373,-6.74346,-4.78422
-483,-349,-5.66974,3.7395,0,0,0,0,0,0,0,-1,741,1373,-5.66975,-3.73949
-476,-349,-10.8496,1.15759,0,0,0,0,0,0,0,-1,748,1373,-10.8496,-1.15756
-469,-349,-12.3314,-1.74878,0,0,0,0,0,0,0,-1,755,1373,-12.3314,1.74882
-462,-349,-12.6559,-0.995361,0,0,0,0,0,0,0,-1,762,1373,-12.656,0.995351
-455,-349,-13.2897,-0.234253,0,0,0,0,0,0,0,-1,769,1373,-13.2897,0.234261
-448,-349,-14.045,0.712891,0,0,0,0,0,0,0,-1,776,1373,-14.045,-0.712838
-441,-349,0,0,0,0,0,0,0,0,0,-1,783,1373,0,0
-434,-349,0,0,0,0,0,0,0,0,0,-1,790,1373,0,0
-427,-349,0,0,0,0,0,0,0,0,0,-1,797,1373,0,0
-420,-349,0,0,0,0,0,0,0,0,0,-1,804,1373,0,0
-413,-349,0,0,0,0,0,0,0,0,0,-1,811,1373,0,0
-406,-349,0,0,0,0,0,0,0,0,0,-1,818,1373,0,0
-399,-349,0,0,0,0,0,0,0,0,0,-1,825,1373,0,0
-392,-349,0,0,0,0,0,0,0,0,0,-1,832,1373,0,0
-385,-349,0,0,0,0,0,0,0,0,0,-1,839,1373,0,0
-378,-349,0,0,0,0,0,0,0,0,0,-1,846,1373,0,0
-371,-349,0,0,0,0,0,0,0,0,0,-1,853,1373,0,0
-364,-349,0,0,0,0,0,0,0,0,0,-1,860,1373,0,0
-357,-349,0,0,0,0,0,0,0,0,0,-1,867,1373,0,0
-350,-349,0,0,0,0,0,0,0,0,0,-1,874,1373,0,0
-343,-349,0,0,0,0,0,0,0,0,0,-1,881,1373,0,0
-336,-349,0,0,0,0,0,0,0,0,0,-1,888,1373,0,0
-329,-349,0,0,0,0,0,0,0,0,0,-1,895,1373,0,0
-322,-349,0,0,0,0,0,0,0,0,0,-1,902,1373,0,0
-315,-349,0,0,0,0,0,0,0,0,0,-1,909,1373,0,0
-308,-349,0,0,0,0,0,0,0,0,0,-1,916,1373,0,0
-301,-349,0,0,0,0,0,0,0,0,0,-1,923,1373,0,0
-294,-349,0,0,0,0,0,0,0,0,0,-1,930,1373,0,0
-287,-349,0,0,0,0,0,0,0,0,0,-1,937,1373,0,0
-280,-349,0,0,0,0,0,0,0,0,0,-1,944,1373,0,0
-273,-349,0,0,0,0,0,0,0,0,0,-1,951,1373,0,0
-266,-349,0,0,0,0,0,0,0,0,0,-1,958,1373,0,0
-259,-349,0,0,0,0,0,0,0,0,0,-1,965,1373,0,0
-252,-349,0,0,0,0,0,0,0,0,0,-1,972,1373,0,0
-245,-349,0,0,0,0,0,0,0,0,0,-1,979,1373,0,0
-238,-349,0,0,0,0,0,0,0,0,0,-1,986,1373,0,0
-231,-349,0,0,0,0,0,0,0,0,0,-1,993,1373,0,0
-224,-349,0,0,0,0,0,0,0,0,0,-1,1000,1373,0,0
-217,-349,0,0,0,0,0,0,0,0,0,-1,1007,1373,0,0
-210,-349,0,0,0,0,0,0,0,0,0,-1,1014,1373,0,0
-203,-349,0,0,0,0,0,0,0,0,0,-1,1021,1373,0,0
-196,-349,0,0,0,0,0,0,0,0,0,-1,1028,1373,0,0
-189,-349,0,0,0,0,0,0,0,0,0,-1,1035,1373,0,0
-182,-349,0,0,0,0,0,0,0,0,0,-1,1042,1373,0,0
-175,-349,0,0,0,0,0,0,0,0,0,-1,1049,1373,0,0
-168,-349,0,0,0,0,0,0,0,0,0,-1,1056,1373,0,0
-161,-349,0,0,0,0,0,0,0,0,0,-1,1063,1373,0,0
-154,-349,0,0,0,0,0,0,0,0,0,-1,1070,1373,0,0
-147,-349,0,0,0,0,0,0,0,0,0,-1,1077,1373,0,0
-140,-349,0,0,0,0,0,0,0,0,0,-1,1084,1373,0,0
-133,-349,0,0,0,0,0,0,0,0,0,-1,1091,1373,0,0
-126,-349,0,0,0,0,0,0,0,0,0,-1,1098,1373,0,0
-119,-349,0,0,0,0,0,0,0,0,0,-1,1105,1373,0,0
-112,-349,0,0,0,0,0,0,0,0,0,-1,1112,1373,0,0
-105,-349,0,0,0,0,0,0,0,0,0,-1,1119,1373,0,0
-98,-349,0,0,0,0,0,0,0,0,0,-1,1126,1373,0,0
-91,-349,0,0,0,0,0,0,0,0,0,-1,1133,1373,0,0
-84,-349,0,0,0,0,0,0,0,0,0,-1,1140,1373,0,0
-77,-349,0,0,0,0,0,0,0,0,0,-1,1147,1373,0,0
-70,-349,0,0,0,0,0,0,0,0,0,-1,1154,1373,0,0
-63,-349,0,0,0,0,0,0,0,0,0,-1,1161,1373,0,0
-56,-349,0,0,0,0,0,0,0,0,0,-1,1168,1373,0,0
-49,-349,0,0,0,0,0,0,0,0,0,-1,1175,1373,0,0
-42,-349,0,0,0,0,0,0,0,0,0,-1,1182,1373,0,0
-35,-349,0,0,0,0,0,0,0,0,0,-1,1189,1373,0,0
-28,-349,0,0,0,0,0,0,0,0,0,-1,1196,1373,0,0
-21,-349,0,0,0,0,0,0,0,0,0,-1,1203,1373,0,0
-14,-349,0,0,0,0,0,0,0,0,0,-1,1210,1373,0,0
-7,-349,0,0,0,0,0,0,0,0,0,-1,1217,1373,0,0
0,-349,0,0,0,0,0,0,0,0,0,-1,1224,1373,0,0
7,-349,0,0,0,0,0,0,0,0,0,-1,1231,1373,0,0
14,-349,0,0,0,0,0,0,0,0,0,-1,1238,1373,0,0
21,-349,0,0,0,0,0,0,0,0,0,-1,1245,1373,0,0
28,-349,0,0,0,0,0,0,0,0,0,-1,1252,1373,0,0
35,-349,0,0,0,0,0,0,0,0,0,-1,1259,1373,0,0
42,-349,0,0,0,0,0,0,0,0,0,-1,1266,1373,0,0
49,-349,0,0,0,0,0,0,0,0,0,-1,1273,1373,0,0
56,-349,0,0,0,0,0,0,0,0,0,-1,1280,1373,0,0
63,-349,0,0,0,0,0,0,0,0,0,-1,1287,1373,0,0
70,-349,0,0,0,0,0,0,0,0,0,-1,1294,1373,0,0
77,-349,0,0,0,0,0,0,0,0,0,-1,1301,1373,0,0
84,-349,0,0,0,0,0,0,0,0,0,-1,1308,1373,0,0
91,-349,0,0,0,0,0,0,0,0,0,-1,1315,1373,0,0
98,-349,0,0,0,0,0,0,0,0,0,-1,1322,1373,0,0
105,-349,0,0,0,0,0,0,0,0,0,-1,1329,1373,0,0
112,-349,0,0,0,0,0,0,0,0,0,-1,1336,1373,0,0
119,-349,0,0,0,0,0,0,0,0,0,-1,1343,1373,0,0
126,-349,0,0,0,0,0,0,0,0,0,-1,1350,1373,0,0
133,-349,0,0,0,0,0,0,0,0,0,-1,1357,1373,0,0
140,-349,0,0,0,0,0,0,0,0,0,-1,1364,1373,0,0
147,-349,0,0,0,0,0,0,0,0,0,-1,1371,1373,0,0
154,-349,0,0,0,0,0,0,0,0,0,-1,1378,1373,0,0
161,-349,0,0,0,0,0,0,0,0,0,-1,1385,1373,0,0
168,-349,0,0,0,0,0,0,0,0,0,-1,1392,1373,0,0
175,-349,0,0,0,0,0,0,0,0,0,-1,1399,1373,0,0
182,-349,0,0,0,0,0,0,0,0,0,-1,1406,1373,0,0
189,-349,0,0,0,0,0,0,0,0,0,-1,1413,1373,0,0
196,-349,0,0,0,0,0,0,0,0,0,-1,1420,1373,0,0
203,-349,0,0,0,0,0,0,0,0,0,-1,1427,1373,0,0
210,-349,0,0,0,0,0,0,0,0,0,-1,1434,1373,0,0
217,-349,0,0,0,0,0,0,0,0,0,-1,1441,1373,0,0
224,-349,0,0,0,0,0,0,0,0,0,-1,1448,1373,0,0
231,-349,0,0,0,0,0,0,0,0,0,-1,1455,1373,0,0
238,-349,0,0,0,0,0,0,0,0,0,-1,1462,1373,0,0
245,-349,0,0,0,0,0,0,0,0,0,-1,1469,1373,0,0
252,-349,0,0,0,0,0,0,0,0,0,-1,1476,1373,0,0
259,-349,0,0,0,0,0,0,0,0,0,-1,1483,1373,0,0
266,-349,0,0,0,0,0,0,0,0,0,-1,1490,1373,0,0
273,-349,0,0,0,0,0,0,0,0,0,-1,1497,1373,0,0
280,-349,0,0,0,0,0,0,0,0,0,-1,1504,1373,0,0
287,-349,0,0,0,0,0,0,0,0,0,-1,1511,1373,0,0
294,-349,0,0,0,0,0,0,0,0,0,-1,1518,1373,0,0
301,-349,0,0,0,0,0,0,0,0,0,-1,1525,1373,0,0
308,-349,0,0,0,0,0,0,0,0,0,-1,1532,1373,0,0
315,-349,0,0,0,0,0,0,0,0,0,-1,1539,1373,0,0
322,-349,0,0,0,0,0,0,0,0,0,-1,1546,1373,0,0
329,-349,0,0,0,0,0,0,0,0,0,-1,1553,1373,0,0
336,-349,0,0,0,0,0,0,0,0,0,-1,1560,1373,0,0
343,-349,0,0,0,0,0,0,0,0,0,-1,1567,1373,0,0
350,-349,0,0,0,0,0,0,0,0,0,-1,1574,1373,0,0
357,-349,0,0,0,0,0,0,0,0,0,-1,1581,1373,0,0
364,-349,0,0,0,0,0,0,0,0,0,-1,1588,1373,0,0
371,-349,0,0,0,0,0,0,0,0,0,-1,1595,1373,0,0
378,-349,0,0,0,0,0,0,0,0,0,-1,1602,1373,0,0
385,-349,0,0,0,0,0,0,0,0,0,-1,1609,1373,0,0
392,-349,0,0,0,0,0,0,0,0,0,-1,1616,1373,0,0
399,-349,0,0,0,0,0,0,0,0,0,-1,1623,1373,0,0
406,-349,0,0,0,0,0,0,0,0,0,-1,1630,1373,0,0
413,-349,0,0,0,0,0,0,0,0,0,-1,1637,1373,0,0
420,-349,0,0,0,0,0,0,0,0,0,-1,1644,1373,0,0
427,-349,0,0,0,0,0,0,0,0,0,-1,1651,1373,0,0
434,-349,0,0,0,0,0,0,0,0,0,-1,1658,1373,0,0
441,-349,0,0,0,0,0,0,0,0,0,-1,1665,1373,0,0
448,-349,0,0,0,0,0,0,0,0,0,-1,1672,1373,0,0
455,-349,0,0,0,0,0,0,0,0,0,-1,1679,1373,0,0
462,-349,0,0,0,0,0,0,0,0,0,-1,1686,1373,0,0
469,-349,0,0,0,0,0,0,0,0,0,-1,1693,1373,0,0
476,-349,0,0,0,0,0,0,0,0,0,-1,1700,1373,0,0
483,-349,0,0,0,0,0,0,0,0,0,-1,1707,1373,0,0
490,-349,0,0,0,0,0,0,0,0,0,-1,1714,1373,0,0
497,-349,0,0,0,0,0,0,0,0,0,-1,1721,1373,0,0
504,-349,0,0,0,0,0,0,0,0,0,-1,1728,1373,0,0
511,-349,0,0,0,0,0,0,0,0,0,-1,1735,1373,0,0
518,-349,0,0,0,0,0,0,0,0,0,-1,1742,1373,0,0
525,-349,0,0,0,0,0,0,0,0,0,-1,1749,1373,0,0
532,-349,0,0,0,0,0,0,0,0,0,-1,1756,1373,0,0
539,-349,0,0,0,0,0,0,0,0,0,-1,1763,1373,0,0
546,-349,0,0,0,0,0,0,0,0,0,-1,1770,1373,0,0
553,-349,0,0,0,0,0,0,0,0,0,-1,1777,1373,0,0
560,-349,23.067,4.71936,0.0198147,-0.129471,-0.0238455,0.023531,-0.133188,-0.154607,0.0975857,0.0447761,1784,1373,23.067,-4.71936
567,-349,23.2136,4.72485,0.0297328,-0.119979,-0.0257691,0.0340442,-0.12429,-0.165771,0.0962368,0.0469524,1791,1373,23.2137,-4.72481
574,-349,23.274,4.7428,0,0,0,0,0,0,0,-1,1798,1373,23.274,-4.74285
581,-349,24.0012,4.5387,0,0,0,0,0,0,0,-1,1805,1373,24.0012,-4.53866
588,-349,23.9573,4.00342,0.0300131,-0.0786829,-0.0231051,0.0347206,-0.0833904,-0.200992,0.0700947,0.0446043,1812,1373,23.9573,-4.00347
595,-349,24.2389,4.22632,0,0,0,0,0,0,0,-1,1819,1373,24.2389,-4.22634
602,-349,24.3673,4.55383,0,0,0,0,0,0,0,-1,1826,1373,24.3673,-4.55389
609,-349,19.9764,3.80725,0,0,0,0,0,0,0,-1,1833,1373,19.9764,-3.8072
616,-349,19.0972,3.85474,0,0,0,0,0,0,0,-1,1840,1373,19.0972,-3.85479
623,-349,18.218,3.90234,0,0,0,0,0,0,0,-1,1847,1373,18.218,-3.90237
630,-349,15.4948,6.47644,0,0,0,0,0,0,0,-1,1854,1373,15.4947,-6.4765
637,-349,16.5161,6.92639,0,0,0,0,0,0,0,-1,1861,1373,16.5161,-6.92636
644,-349,16.4003,7.5321,0,0,0,0,0,0,0,-1,1868,1373,16.4003,-7.53207
651,-349,16.4163,7.2887,-0.00141525,-0.00234617,0.00176834,-5.21344e-05,-0.00370929,0.656708,0.00245567,0.0233818,1875,1373,16.4162,-7.28872
658,-349,16.3589,7.05188,-0.00175732,-0.00310621,0.00205463,-0.00026927,-0.00459426,0.626811,0.00297714,0.0245661,1882,1373,16.3589,-7.05187
665,-349,16.3314,6.81311,-0.00154763,-0.0029377,0.00184157,-0.000274296,-0.00421103,0.604955,0.00272054,0.0187134,1889,1373,16.3314,-6.81316
672,-349,16.3403,6.58057,-0.00077905,-0.00210028,0.00124173,-3.31417e-05,-0.00284619,0.540934,0.00188651,0.013901,1896,1373,16.3403,-6.58055
679,-349,16.3311,6.36633,0.000203588,-0.00131946,0.000555694,0.000384781,-0.00150065,0.315195,0.00115035,0.0135002,1903,1373,16.3311,-6.36632
686,-349,16.3661,6.15552,0.00198511,-0.000203406,-0.000923285,0.00232259,-0.00054088,-0.350428,0.00175666,0.0120518,1910,1373,16.3661,-6.15555
693,-349,16.3669,5.90491,0.00488403,-0.000738864,-0.0033821,0.00647064,-0.00232547,-0.438638,0.00526304,0.0143956,1917,1373,16.367,-5.90494
700,-349,16.3574,5.67566,0.00902188,-0.000437232,-0.00623018,0.0121143,-0.00352969,-0.460737,0.00947454,0.016632,1924,1373,16.3574,-5.67567
707,-349,16.3954,5.43176,0.0142023,-0.000602026,-0.00993527,0.0191897,-0.00558944,-0.465239,0.0150074,0.0237063,1931,1373,16.3954,-5.43175
714,-349,16.3419,5.255,0.0214839,-0.00113418,-0.0149616,0.0289297,-0.00857998,-0.461774,0.0226937,0.0374622,1938,1373,16.3419,-5.255
721,-349,16.3578,4.89355,0.0317903,-0.00177859,-0.0217888,0.0425099,-0.0124982,-0.457207,0.0332972,0.0499836,1945,1373,16.3578,-4.89358
728,-349,16.6234,4.37646,0,0,0,0,0,0,0,-1,1952,1373,16.6235,-4.37645
735,-349,18.5393,2.67896,0,0,0,0,0,0,0,-1,1959,1373,18.5393,-2.67895
742,-349,18.7937,1.91687,0,0,0,0,0,0,0,-1,1966,1373,18.7938,-1.91684
749,-349,17.6234,2.08875,0,0,0,0,0,0,0,-1,1973,1373,17.6234,-2.08878
756,-349,0,0,0,0,0,0,0,0,0,-1,1980,1373,0,0
763,-349,0,0,0,0,0,0,0,0,0,-1,1987,1373,0,0
770,-349,0,0,0,0,0,0,0,0,0,-1,1994,1373,0,0
777,-349,0,0,0,0,0,0,0,0,0,-1,2001,1373,0,0
784,-349,0,0,0,0,0,0,0,0,0,-1,2008,1373,0,0
791,-349,0,0,0,0,0,0,0,0,0,-1,2015,1373,0,0
798,-349,0,0,0,0,0,0,0,0,0,-1,2022,1373,0,0
805,-349,0,0,0,0,0,0,0,0,0,-1,2029,1373,0,0
812,-349,0,0,0,0,0,0,0,0,0,-1,2036,1373,0,0
-700,-356,0,0,0,0,0,0,0,0,0,-1,524,1380,0,0
-693,-356,0,0,0,0,0,0,0,0,0,-1,531,1380,0,0
-686,-356,0,0,0,0,0,0,0,0,0,-1,538,1380,0,0
-679,-356,0,0,0,0,0,0,0,0,0,-1,545,1380,0,0
-672,-356,0,0,0,0,0,0,0,0,0,-1,552,1380,0,0
-665,-356,0,0,0,0,0,0,0,0,0,-1,559,1380,0,0
-658,-356,0,0,0,0,0,0,0,0,0,-1,566,1380,0,0
-651,-356,0,0,0,0,0,0,0,0,0,-1,573,1380,0,0
-644,-356,0,0,0,0,0,0,0,0,0,-1,580,1380,0,0
-637,-356,0,0,0,0,0,0,0,0,0,-1,587,1380,0,0
-630,-356,-8.23126,-5.01917,0,0,0,0,0,0,0,-1,594,1380,-8.23124,5.0192
-623,-356,-0.263855,-0.675781,0,0,0,0,0,0,0,-1,601,1380,-0.263835,0.675841
-616,-356,-8.26532,-3.43945,0,0,0,0,0,0,0,-1,608,1380,-8.2653,3.43948
-609,-356,-4.88483,0.734497,0,0,0,0,0,0,0,-1,615,1380,-4.88485,-0.734532
-602,-356,-7.54553,2.03552,0,0,0,0,0,0,0,-1,622,1380,-7.54551,-2.03555
-595,-356,-7.22485,2.16492,0,0,0,0,0,0,0,-1,629,1380,-7.22488,-2.16493
-588,-356,-7.33997,2.79309,0,0,0,0,0,0,0,-1,636,1380,-7.33997,-2.79313
-581,-356,-7.2179,3.18591,-0.00250153,0.0214715,0.00988116,0.0250193,-0.00604929,1.22609,0.0190194,0.0405121,643,1380,-7.21787,-3.18594
-574,-356,-7.1778,3.35864,-0.00323451,0.0133139,0.00574746,0.0151142,-0.00503481,1.26724,0.0121085,0.0311341,650,1380,-7.17778,-3.35858
-567,-356,-7.35815,3.5155,-0.00306854,0.00810362,0.00322912,0.00896979,-0.00393471,1.30873,0.00763712,0.0163567,657,1380,-7.35818,-3.51544
-560,-356,-7.34161,3.82837,-0.00251559,0.00477605,0.00165507,0.00513414,-0.00287368,1.35772,0.00468431,0.0165697,664,1380,-7.3416,-3.8284
-553,-356,-7.34827,4.09045,-0.00174003,0.00260748,0.00065731,0.00270469,-0.00183723,1.42397,0.00263817,0.020162,671,1380,-7.34829,-4.0905
-546,-356,-7.38177,4.32727,-0.000784792,0.00114151,5.48081e-05,0.00114306,-0.00078635,1.54237,0.00112028,0.0233771,678,1380,-7.38177,-4.32721
-539,-356,-7.36725,4.6239,3.66896e-05,-0.000492874,-0.00044058,0.000285932,-0.000742116,-0.514827,0.000612713,0.0161759,685,1380,-7.36727,-4.62391
-532,-356,-7.35211,4.91663,0.0010085,-0.000683114,-0.00066533,0.00123883,-0.000913436,-0.333264,0.00124733,0.0145397,692,1380,-7.3521,-4.91668
-525,-356,-7.34155,5.19751,0.00201492,-0.00102404,-0.000630654,0.0021406,-0.00114972,-0.196704,0.00192817,0.0116666,699,1380,-7.34153,-5.19747
-518,-356,-7.33624,5.47681,0.0026068,-0.00137114,-0.000831692,0.00277369,-0.00153803,-0.198028,0.00252321,0.0104772,706,1380,-7.33623,-5.4768
-511,-356,-7.22229,5.7699,0.00271153,-0.0019009,-0.00120606,0.00300786,-0.00219722,-0.240924,0.00301728,0.0245558,713,1380,-7.22231,-5.76992
-504,-356,-7.10419,6.12512,0,0,0,0,0,0,0,-1,720,1380,-7.10418,-6.1251
-497,-356,-5.68604,4.96387,0,0,0,0,0,0,0,-1,727,1380,-5.68605,-4.96385
-490,-356,-7.95288,5.5625,0,0,0,0,0,0,0,-1,734,1380,-7.95285,-5.56246
-483,-356,-7.2627,4.07446,0,0,0,0,0,0,0,-1,741,1380,-7.2627,-4.07441
-476,-356,-5.1936,4.16016,0,0,0,0,0,0,0,-1,748,1380,-5.1936,-4.16012
-469,-356,-10.0883,0.536011,0,0,0,0,0,0,0,-1,755,1380,-10.0883,-0.535989
-462,-356,-12.3481,-0.215698,0,0,0,0,0,0,0,-1,762,1380,-12.3481,0.215641
-455,-356,-13.1367,-0.264648,0,0,0,0,0,0,0,-1,769,1380,-13.1367,0.264647
-448,-356,-13.9116,-0.310181,0,0,0,0,0,0,0,-1,776,1380,-13.9115,0.310207
-441,-356,-13.1602,3.05603,0,0,0,0,0,0,0,-1,783,1380,-13.1602,-3.05609
-434,-356,0,0,0,0,0,0,0,0,0,-1,790,1380,0,0
-427,-356,0,0,0,0,0,0,0,0,0,-1,797,1380,0,0
-420,-356,0,0,0,0,0,0,0,0,0,-1,804,1380,0,0
-413,-356,0,0,0,0,0,0,0,0,0,-1,811,1380,0,0
-406,-356,0,0,0,0,0,0,0,0,0,-1,818,1380,0,0
-399,-356,0,0,0,0,0,0,0,0,0,-1,825,1380,0,0
-392,-356,0,0,0,0,0,0,0,0,0,-1,832,1380,0,0
-385,-356,0,0,0,0,0,0,0,0,0,-1,839,1380,0,0
-378,-356,0,0,0,0,0,0,0,0,0,-1,846,1380,0,0
-371,-356,0,0,0,0,0,0,0,0,0,-1,853,1380,0,0
-364,-356,0,0,0,0,0,0,0,0,0,-1,860,1380,0,0
-357,-356,0,0,0,0,0,0,0,0,0,-1,867,1380,0,0
-350,-356,0,0,0,0,0,0,0,0,0,-1,874,1380,0,0
-343,-356,0,0,0,0,0,0,0,0,0,-1,881,1380,0,0
-336,-356,0,0,0,0,0,0,0,0,0,-1,888,1380,0,0
-329,-356,0,0,0,0,0,0,0,0,0,-1,895,1380,0,0
-322,-356,0,0,0,0,0,0,0,0,0,-1,902,1380,0,0
-315,-356,0,0,0,0,0,0,0,0,0,-1,909,1380,0,0
-308,-356,0,0,0,0,0,0,0,0,0,-1,916,1380,0,0
-301,-356,0,0,0,0,0,0,0,0,0,-1,923,1380,0,0
-294,-356,0,0,0,0,0,0,0,0,0,-1,930,1380,0,0
-287,-356,0,0,0,0,0,0,0,0,0,-1,937,1380,0,0
-280,-356,0,0,0,0,0,0,0,0,0,-1,944,1380,0,0
-273,-356,0,0,0,0,0,0,0,0,0,-1,951,1380,0,0
-266,-356,0,0,0,0,0,0,0,0,0,-1,958,1380,0,0
-259,-356,0,0,0,0,0,0,0,0,0,-1,965,1380,0,0
-252,-356,0,0,0,0,0,0,0,0,0,-1,972,1380,0,0
-245,-356,0,0,0,0,0,0,0,0,0,-1,979,1380,0,0
-238,-356,0,0,0,0,0,0,0,0,0,-1,986,1380,0,0
-231,-356,0,0,0,0,0,0,0,0,0,-1,993,1380,0,0
-224,-356,0,0,0,0,0,0,0,0,0,-1,1000,1380,0,0
-217,-356,0,0,0,0,0,0,0,0,0,-1,1007,1380,0,0
-210,-356,0,0,0,0,0,0,0,0,0,-1,1014,1380,0,0
-203,-356,0,0,0,0,0,0,0,0,0,-1,1021,1380,0,0
-196,-356,0,0,0,0,0,0,0,0,0,-1,1028,1380,0,0
-189,-356,0,0,0,0,0,0,0,0,0,-1,1035,1380,0,0
-182,-356,0,0,0,0,0,0,0,0,0,-1,1042,1380,0,0
-175,-356,0,0,0,0,0,0,0,0,0,-1,1049,1380,0,0
-168,-356,0,0,0,0,0,0,0,0,0,-1,1056,1380,0,0
-161,-356,0,0,0,0,0,0,0,0,0,-1,1063,1380,0,0
-154,-356,0,0,0,0,0,0,0,0,0,-1,1070,1380,0,0
-147,-356,0,0,0,0,0,0,0,0,0,-1,1077,1380,0,0
-140,-356,0,0,0,0,0,0,0,0,0,-1,1084,1380,0,0
-133,-356,0,0,0,0,0,0,0,0,0,-1,1091,1380,0,0
-126,-356,0,0,0,0,0,0,0,0,0,-1,1098,1380,0,0
-119,-356,0,0,0,0,0,0,0,0,0,-1,1105,1380,0,0
-112,-356,0,0,0,0,0,0,0,0,0,-1,1112,1380,0,0
-105,-356,0,0,0,0,0,0,0,0,0,-1,1119,1380,0,0
-98,-356,0,0,0,0,0,0,0,0,0,-1,1126,1380,0,0
-91,-356,0,0,0,0,0,0,0,0,0,-1,1133,1380,0,0
-84,-356,0,0,0,0,0,0,0,0,0,-1,1140,1380,0,0
-77,-356,0,0,0,0,0,0,0,0,0,-1,1147,1380,0,0
-70,-356,0,0,0,0,0,0,0,0,0,-1,1154,1380,0,0
-63,-356,0,0,0,0,0,0,0,0,0,-1,1161,1380,0,0
-56,-356,0,0,0,0,0,0,0,0,0,-1,1168,1380,0,0
-49,-356,0,0,0,0,0,0,0,0,0,-1,1175,1380,0,0
-42,-356,0,0,0,0,0,0,0,0,0,-1,1182,1380,0,0
-35,-356,0,0,0,0,0,0,0,0,0,-1,1189,1380,0,0
-28,-356,0,0,0,0,0,0,0,0,0,-1,1196,1380,0,0
-21,-356,0,0,0,0,0,0,0,0,0,-1,1203,1380,0,0
-14,-356,0,0,0,0,0,0,0,0,0,-1,1210,1380,0,0
-7,-356,0,0,0,0,0,0,0,0,0,-1,1217,1380,0,0
0,-356,0,0,0,0,0,0,0,0,0,-1,1224,1380,0,0
7,-356,0,0,0,0,0,0,0,0,0,-1,1231,1380,0,0
14,-356,0,0,0,0,0,0,0,0,0,-1,1238,1380,0,0
21,-356,0,0,0,0,0,0,0,0,0,-1,1245,1380,0,0
28,-356,0,0,0,0,0,0,0,0,0,-1,1252,1380,0,0
35,-356,0,0,0,0,0,0,0,0,0,-1,1259,1380,0,0
42,-356,0,0,0,0,0,0,0,0,0,-1,1266,1380,0,0
49,-356,0,0,0,0,0,0,0,0,0,-1,1273,1380,0,0
56,-356,0,0,0,0,0,0,0,0,0,-1,1280,1380,0,0
63,-356,0,0,0,0,0,0,0,0,0,-1,1287,1380,0,0
70,-356,0,0,0,0,0,0,0,0,0,-1,1294,1380,0,0
77,-356,0,0,0,0,0,0,0,0,0,-1,1301,1380,0,0
84,-356,0,0,0,0,0,0,0,0,0,-1,1308,1380,0,0
91,-356,0,0,0,0,0,0,0,0,0,-1,1315,1380,0,0
98,-356,0,0,0,0,0,0,0,0,0,-1,1322,1380,0,0
105,-356,0,0,0,0,0,0,0,0,0,-1,1329,1380,0,0
112,-356,0,0,0,0,0,0,0,0,0,-1,1336,1380,0,0
119,-356,0,0,0,0,0,0,0,0,0,-1,1343,1380,0,0
126,-356,0,0,0,0,0,0,0,0,0,-1,1350,1380,0,0
133,-356,0,0,0,0,0,0,0,0,0,-1,1357,1380,0,0
140,-356,0,0,0,0,0,0,0,0,0,-1,1364,1380,0,0
147,-356,0,0,0,0,0,0,0,0,0,-1,1371,1380,0,0
154,-356,0,0,0,0,0,0,0,0,0,-1,1378,1380,0,0
161,-356,0,0,0,0,0,0,0,0,0,-1,1385,1380,0,0
168,-356,0,0,0,0,0,0,0,0,0,-1,1392,1380,0,0
175,-356,0,0,0,0,0,0,0,0,0,-1,1399,1380,0,0
182,-356,0,0,0,0,0,0,0,0,0,-1,1406,1380,0,0
189,-356,0,0,0,0,0,0,0,0,0,-1,1413,1380,0,0
196,-356,0,0,0,0,0,0,0,0,0,-1,1420,1380,0,0
203,-356,0,0,0,0,0,0,0,0,0,-1,1427,1380,0,0
210,-356,0,0,0,0,0,0,0,0,0,-1,1434,1380,0,0
217,-356,0,0,0,0,0,0,0,0,0,-1,1441,1380,0,0
224,-356,0,0,0,0,0,0,0,0,0,-1,1448,1380,0,0
231,-356,0,0,0,0,0,0,0,0,0,-1,1455,1380,0,0
238,-356,0,0,0,0,0,0,0,0,0,-1,1462,1380,0,0
245,-356,0,0,0,0,0,0,0,0,0,-1,1469,1380,0,0
252,-356,0,0,0,0,0,0,0,0,0,-1,1476,1380,0,0
259,-356,0,0,0,0,0,0,0,0,0,-1,1483,1380,0,0
266,-356,0,0,0,0,0,0,0,0,0,-1,1490,1380,0,0
273,-356,0,0,0,0,0,0,0,0,0,-1,1497,1380,0,0
280,-356,0,0,0,0,0,0,0,0,0,-1,1504,1380,0,0
287,-356,0,0,0,0,0,0,0,0,0,-1,1511,1380,0,0
294,-356,0,0,0,0,0,0,0,0,0,-1,1518,1380,0,0
301,-356,0,0,0,0,0,0,0,0,0,-1,1525,1380,0,0
308,-356,0,0,0,0,0,0,0,0,0,-1,1532,1380,0,0
315,-356,0,0,0,0,0,0,0,0,0,-1,1539,1380,0,0
322,-356,0,0,0,0,0,0,0,0,0,-1,1546,1380,0,0
329,-356,0,0,0,0,0,0,0,0,0,-1,1553,1380,0,0
336,-356,0,0,0,0,0,0,0,0,0,-1,1560,1380,0,0
343,-356,0,0,0,0,0,0,0,0,0,-1,1567,1380,0,0
350,-356,0,0,0,0,0,0,0,0,0,-1,1574,1380,0,0
357,-356,0,0,0,0,0,0,0,0,0,-1,1581,1380,0,0
364,-356,0,0,0,0,0,0,0,0,0,-1,1588,1380,0,0
371,-356,0,0,0,0,0,0,0,0,0,-1,1595,1380,0,0
378,-356,0,0,0,0,0,0,0,0,0,-1,1602,1380,0,0
385,-356,0,0,0,0,0,0,0,0,0,-1,1609,1380,0,0
392,-356,0,0,0,0,0,0,0,0,0,-1,1616,1380,0,0
399,-356,0,0,0,0,0,0,0,0,0,-1,1623,1380,0,0
406,-356,0,0,0,0,0,0,0,0,0,-1,1630,1380,0,0
413,-356,0,0,0,0,0,0,0,0,0,-1,1637,1380,0,0
420,-356,0,0,0,0,0,0,0,0,0,-1,1644,1380,0,0
427,-356,0,0,0,0,0,0,0,0,0,-1,1651,1380,0,0
434,-356,0,0,0,0,0,0,0,0,0,-1,1658,1380,0,0
441,-356,0,0,0,0,0,0,0,0,0,-1,1665,1380,0,0
448,-356,0,0,0,0,0,0,0,0,0,-1,1672,1380,0,0
455,-356,0,0,0,0,0,0,0,0,0,-1,1679,1380,0,0
462,-356,0,0,0,0,0,0,0,0,0,-1,1686,1380,0,0
469,-356,0,0,0,0,0,0,0,0,0,-1,1693,1380,0,0
476,-356,0,0,0,0,0,0,0,0,0,-1,1700,1380,0,0
483,-356,0,0,0,0,0,0,0,0,0,-1,1707,1380,0,0
490,-356,0,0,0,0,0,0,0,0,0,-1,1714,1380,0,0
497,-356,0,0,0,0,0,0,0,0,0,-1,1721,1380,0,0
504,-356,0,0,0,0,0,0,0,0,0,-1,1728,1380,0,0
511,-356,0,0,0,0,0,0,0,0,0,-1,1735,1380,0,0
518,-356,0,0,0,0,0,0,0,0,0,-1,1742,1380,0,0
525,-356,0,0,0,0,0,0,0,0,0,-1,1749,1380,0,0
532,-356,0,0,0,0,0,0,0,0,0,-1,1756,1380,0,0
539,-356,0,0,0,0,0,0,0,0,0,-1,1763,1380,0,0
546,-356,0,0,0,0,0,0,0,0,0,-1,1770,1380,0,0
553,-356,0,0,0,0,0,0,0,0,0,-1,1777,1380,0,0
560,-356,23.1122,5.60339,0,0,0,0,0,0,0,-1,1784,1380,23.1122,-5.60343
567,-356,23.2485,5.34192,0,0,0,0,0,0,0,-1,1791,1380,23.2485,-5.34194
574,-356,23.0302,4.17493,0,0,0,0,0,0,0,-1,1798,1380,23.0301,-4.17491
581,-356,23.6389,4.64893,0,0,0,0,0,0,0,-1,1805,1380,23.6389,-4.64897
588,-356,24.3447,5.09766,0,0,0,0,0,0,0,-1,1812,1380,24.3448,-5.0977
595,-356,25.0372,5.63025,0,0,0,0,0,0,0,-1,1819,1380,25.0372,-5.63023
602,-356,17.934,2.41858,0,0,0,0,0,0,0,-1,1826,1380,17.9339,-2.41856
609,-356,17.91,3.41785,0,0,0,0,0,0,0,-1,1833,1380,17.91,-3.41785
616,-356,15.4355,6.68579,0,0,0,0,0,0,0,-1,1840,1380,15.4356,-6.68578
623,-356,16.0044,6.83008,0,0,0,0,0,0,0,-1,1847,1380,16.0044,-6.83013
630,-356,16.4138,6.91553,0,0,0,0,0,0,0,-1,1854,1380,16.4138,-6.9155
637,-356,16.1484,7.28809,0,0,0,0,0,0,0,-1,1861,1380,16.1484,-7.28805
644,-356,15.8427,7.55237,0,0,0,0,0,0,0,-1,1868,1380,15.8427,-7.55242
651,-356,16.1282,7.30713,-0.00200468,-0.00450704,0.0029137,-8.48842e-05,-0.00642683,0.582597,0.00425654,0.0158733,1875,1380,16.1282,-7.30713
658,-356,16.0909,7.04138,-0.00152238,-0.00391106,0.00237387,-5.93376e-05,-0.00537411,0.552328,0.00356312,0.0143128,1882,1380,16.0909,-7.04136
665,-356,16.0872,6.82971,-0.00103333,-0.00293234,0.00172867,-1.05663e-05,-0.0039551,0.534257,0.00263322,0.0139299,1889,1380,16.0871,-6.8297
672,-356,16.0901,6.62659,-0.000362029,-0.00185126,0.000999489,0.000139723,-0.00235301,0.465253,0.00161726,0.0145225,1896,1380,16.0901,-6.62664
679,-356,16.0851,6.38281,0.000525592,-0.00106282,0.000320665,0.000587885,-0.00112512,0.19187,0.00100508,0.0156736,1903,1380,16.0851,-6.38281
686,-356,16.0847,6.13367,0.00215732,-9.83972e-05,-0.00103195,0.00255818,-0.00049926,-0.370511,0.00189394,0.0144805,1910,1380,16.0847,-6.13362
693,-356,16.1047,5.91223,0.00487618,-0.000752915,-0.00332179,0.00641548,-0.00229221,-0.433936,0.00521188,0.0135941,1917,1380,16.1047,-5.91218
700,-356,16.1351,5.66711,0.00885164,-0.000538543,-0.00594893,0.0117351,-0.00342195,-0.451327,0.00917915,0.0193699,1924,1380,16.1351,-5.66716
707,-356,16.2104,5.22058,0.0140062,-0.000822874,-0.00954121,0.0186751,-0.0054918,-0.455086,0.0146284,0.0446766,1931,1380,16.2104,-5.22059
714,-356,16.3752,4.83081,0,0,0,0,0,0,0,-1,1938,1380,16.3753,-4.8308
721,-356,16.2679,4.47583,0,0,0,0,0,0,0,-1,1945,1380,16.268,-4.47577
728,-356,13.2661,3.90723,0,0,0,0,0,0,0,-1,1952,1380,13.2661,-3.90722
735,-356,19.0675,1.66199,0,0,0,0,0,0,0,-1,1959,1380,19.0675,-1.66204
742,-356,17.9935,1.47119,0,0,0,0,0,0,0,-1,1966,1380,17.9935,-1.47116
749,-356,17.4208,0.533203,0,0,0,0,0,0,0,-1,1973,1380,17.4207,-0.533201
756,-356,0,0,0,0,0,0,0,0,0,-1,1980,1380,0,0
763,-356,0,0,0,0,0,0,0,0,0,-1,1987,1380,0,0
770,-356,0,0,0,0,0,0,0,0,0,-1,1994,1380,0,0
777,-356,0,0,0,0,0,0,0,0,0,-1,2001,1380,0,0
784,-356,0,0,0,0,0,0,0,0,0,-1,2008,1380,0,0
791,-356,0,0,0,0,0,0,0,0,0,-1,2015,1380,0,0
798,-356,0,0,0,0,0,0,0,0,0,-1,2022,1380,0,0
805,-356,0,0,0,0,0,0,0,0,0,-1,2029,1380,0,0
812,-356,0,0,0,0,0,0,0,0,0,-1,2036,1380,0,0
-700,-363,0,0,0,0,0,0,0,0,0,-1,524,1387,0,0
-693,-363,0,0,0,0,0,0,0,0,0,-1,531,1387,0,0
-686,-363,0,0,0,0,0,0,0,0,0,-1,538,1387,0,0
-679,-363,0,0,0,0,0,0,0,0,0,-1,545,1387,0,0
-672,-363,0,0,0,0,0,0,0,0,0,-1,552,1387,0,0
-665,-363,0,0,0,0,0,0,0,0,0,-1,559,1387,0,0
-658,-363,0,0,0,0,0,0,0,0,0,-1,566,1387,0,0
-651,-363,0,0,0,0,0,0,0,0,0,-1,573,1387,0,0
-644,-363,0,0,0,0,0,0,0,0,0,-1,580,1387,0,0
-637,-363,0,0,0,0,0,0,0,0,0,-1,587,1387,0,0
-630,-363,0,0,0,0,0,0,0,0,0,-1,594,1387,0,0
-623,-363,-9.67566,-5.91846,0,0,0,0,0,0,0,-1,601,1387,-9.67563,5.91847
-616,-363,-9.02985,-2.98083,0,0,0,0,0,0,0,-1,608,1387,-9.02987,2.98079
-609,-363,-4.90265,0.195679,0,0,0,0,0,0,0,-1,615,1387,-4.90263,-0.195721
-602,-363,-7.79889,2.63611,0,0,0,0,0,0,0,-1,622,1387,-7.7989,-2.63609
-595,-363,-7.53015,2.95227,0,0,0,0,0,0,0,-1,629,1387,-7.53014,-2.95231
-588,-363,-7.12164,3.28369,0,0,0,0,0,0,0,-1,636,1387,-7.12167,-3.28374
-581,-363,-6.76239,3.40271,-0.00461328,0.0211368,0.0110934,0.0252568,-0.00873326,1.2152,0.0203824,0.0393452,643,1387,-6.76238,-3.40266
-574,-363,-6.8703,3.42041,-0.00505187,0.0130037,0.00642764,0.0150581,-0.0071063,1.26143,0.0130683,0.0357089,650,1387,-6.8703,-3.42039
-567,-363,-7.06335,3.53638,-0.00455572,0.00788579,0.00360915,0.00885696,-0.00552689,1.30794,0.00837838,0.0228713,657,1387,-7.06337,-3.53634
-560,-363,-7.06836,3.80383,-0.00368453,0.00467073,0.00188775,0.00507744,-0.00409124,1.35859,0.00530374,0.0131415,664,1387,-7.06839,-3.80383
-553,-363,-7.07568,4.08911,-0.00264992,0.00259704,0.000811324,0.00271963,-0.00277251,1.42083,0.00317094,0.0131747,671,1387,-7.07567,-4.08907
-546,-363,-7.08759,4.34705,-0.00146876,0.00122495,0.000204403,0.00124037,-0.00148418,1.49549,0.00157512,0.0132785,678,1387,-7.08761,-4.34706
-539,-363,-7.04083,4.63049,-0.000422116,-0.000353354,-0.000269654,-0.000115898,-0.000659571,-0.848806,0.000406625,0.0153643,685,1387,-7.04083,-4.63047
-532,-363,-7.06,4.91699,0.000759385,-0.000578834,-0.000506185,0.000929282,-0.000748731,-0.323826,0.000970669,0.0133819,692,1387,-7.06,-4.91695
-525,-363,-7.06775,5.17273,0.00198703,-0.000829779,-0.000292504,0.00201709,-0.000859832,-0.102387,0.0017052,0.0109363,699,1387,-7.06774,-5.17277
-518,-363,-7.05408,5.45654,0.00289279,-0.00117744,-0.000298842,0.00291462,-0.00119926,-0.0729005,0.002443,0.00939656,706,1387,-7.05405,-5.45655
-511,-363,-7.01324,5.75342,0.00323207,-0.0017369,-0.000532021,0.00328839,-0.00179323,-0.105476,0.0029759,0.015954,713,1387,-7.01322,-5.75341
-504,-363,-6.88159,6.06104,0.00346715,-0.00288549,-0.000957992,0.00360847,-0.00302681,-0.146464,0.00383579,0.0438926,720,1387,-6.88161,-6.06098
-497,-363,-6.57684,6.24121,0,0,0,0,0,0,0,-1,727,1387,-6.57686,-6.2412
-490,-363,-5.42413,4.6958,0,0,0,0,0,0,0,-1,734,1387,-5.42412,-4.69583
-483,-363,-6.28375,4.1394,0,0,0,0,0,0,0,-1,741,1387,-6.28374,-4.13944
-476,-363,-5.83807,4.31018,0,0,0,0,0,0,0,-1,748,1387,-5.8381,-4.31013
-469,-363,-10.7125,0.697754,0,0,0,0,0,0,0,-1,755,1387,-10.7125,-0.697811
-462,-363,-9.55951,-0.0830078,0,0,0,0,0,0,0,-1,762,1387,-9.55949,0.0830163
-455,-363,-13.1008,-0.290894,0,0,0,0,0,0,0,-1,769,1387,-13.1008,0.290921
-448,-363,-11.7324,2.46606,0,0,0,0,0,0,0,-1,776,1387,-11.7324,-2.46605
-441,-363,-12.4464,2.5354,0,0,0,0,0,0,0,-1,783,1387,-12.4463,-2.53537
-434,-363,-13.6918,2.14661,0,0,0,0,0,0,0,-1,790,1387,-13.6918,-2.14662
-427,-363,0,0,0,0,0,0,0,0,0,-1,797,1387,0,0
-420,-363,0,0,0,0,0,0,0,0,0,-1,804,1387,0,0
-413,-363,0,0,0,0,0,0,0,0,0,-1,811,1387,0,0
-406,-363,0,0,0,0,0,0,0,0,0,-1,818,1387,0,0
-399,-363,0,0,0,0,0,0,0,0,0,-1,825,1387,0,0
-392,-363,0,0,0,0,0,0,0,0,0,-1,832,1387,0,0
-385,-363,0,0,0,0,0,0,0,0,0,-1,839,1387,0,0
-378,-363,0,0,0,0,0,0,0,0,0,-1,846,1387,0,0
-371,-363,0,0,0,0,0,0,0,0,0,-1,853,1387,0,0
-364,-363,0,0,0,0,0,0,0,0,0,-1,860,1387,0,0
-357,-363,0,0,0,0,0,0,0,0,0,-1,867,1387,0,0
-350,-363,0,0,0,0,0,0,0,0,0,-1,874,1387,0,0
-343,-363,0,0,0,0,0,0,0,0,0,-1,881,1387,0,0
-336,-363,0,0,0,0,0,0,0,0,0,-1,888,1387,0,0
-329,-363,0,0,0,0,0,0,0,0,0,-1,895,1387,0,0
-322,-363,0,0,0,0,0,0,0,0,0,-1,902,1387,0,0
-315,-363,0,0,0,0,0,0,0,0,0,-1,909,1387,0,0
-308,-363,0,0,0,0,0,0,0,0,0,-1,916,1387,0,0
-301,-363,0,0,0,0,0,0,0,0,0,-1,923,1387,0,0
-294,-363,0,0,0,0,0,0,0,0,0,-1,930,1387,0,0
-287,-363,0,0,0,0,0,0,0,0,0,-1,937,1387,0,0
-280,-363,0,0,0,0,0,0,0,0,0,-1,944,1387,0,0
-273,-363,0,0,0,0,0,0,0,0,0,-1,951,1387,0,0
-266,-363,0,0,0,0,0,0,0,0,0,-1,958,1387,0,0
-259,-363,0,0,0,0,0,0,0,0,0,-1,965,1387,0,0
-252,-363,0,0,0,0,0,0,0,0,0,-1,972,1387,0,0
-245,-363,0,0,0,0,0,0,0,0,0,-1,979,1387,0,0
-238,-363,0,0,0,0,0,0,0,0,0,-1,986,1387,0,0
-231,-363,0,0,0,0,0,0,0,0,0,-1,993,1387,0,0
-224,-363,0,0,0,0,0,0,0,0,0,-1,1000,1387,0,0
-217,-363,0,0,0,0,0,0,0,0,0,-1,1007,1387,0,0
-210,-363,0,0,0,0,0,0,0,0,0,-1,1014,1387,0,0
-203,-363,0,0,0,0,0,0,0,0,0,-1,1021,1387,0,0
-196,-363,0,0,0,0,0,0,0,0,0,-1,1028,1387,0,0
-189,-363,0,0,0,0,0,0,0,0,0,-1,1035,1387,0,0
-182,-363,0,0,0,0,0,0,0,0,0,-1,1042,1387,0,0
-175,-363,0,0,0,0,0,0,0,0,0,-1,1049,1387,0,0
-168,-363,0,0,0,0,0,0,0,0,0,-1,1056,1387,0,0
-161,-363,0,0,0,0,0,0,0,0,0,-1,1063,1387,0,0
-154,-363,0,0,0,0,0,0,0,0,0,-1,1070,1387,0,0
-147,-363,0,0,0,0,0,0,0,0,0,-1,1077,1387,0,0
-140,-363,0,0,0,0,0,0,0,0,0,-1,1084,1387,0,0
-133,-363,0,0,0,0,0,0,0,0,0,-1,1091,1387,0,0
-126,-363,0,0,0,0,0,0,0,0,0,-1,1098,1387,0,0
-119,-363,0,0,0,0,0,0,0,0,0,-1,1105,1387,0,0
-112,-363,0,0,0,0,0,0,0,0,0,-1,1112,1387,0,0
-105,-363,0,0,0,0,0,0,0,0,0,-1,1119,1387,0,0
-98,-363,0,0,0,0,0,0,0,0,0,-1,1126,1387,0,0
-91,-363,0,0,0,0,0,0,0,0,0,-1,1133,1387,0,0
-84,-363,0,0,0,0,0,0,0,0,0,-1,1140,1387,0,0
-77,-363,0,0,0,0,0,0,0,0,0,-1,1147,1387,0,0
-70,-363,0,0,0,0,0,0,0,0,0,-1,1154,1387,0,0
-63,-363,0,0,0,0,0,0,0,0,0,-1,1161,1387,0,0
-56,-363,0,0,0,0,0,0,0,0,0,-1,1168,1387,0,0
-49,-363,0,0,0,0,0,0,0,0,0,-1,1175,1387,0,0
-42,-363,0,0,0,0,0,0,0,0,0,-1,1182,1387,0,0
-35,-363,0,0,0,0,0,0,0,0,0,-1,1189,1387,0,0
-28,-363,0,0,0,0,0,0,0,0,0,-1,1196,1387,0,0
-21,-363,0,0,0,0,0,0,0,0,0,-1,1203,1387,0,0
-14,-363,0,0,0,0,0,0,0,0,0,-1,1210,1387,0,0
-7,-363,0,0,0,0,0,0,0,0,0,-1,1217,1387,0,0
0,-363,0,0,0,0,0,0,0,0,0,-1,1224,1387,0,0
7,-363,0,0,0,0,0,0,0,0,0,-1,1231,1387,0,0
14,-363,0,0,0,0,0,0,0,0,0,-1,1238,1387,0,0
21,-363,0,0,0,0,0,0,0,0,0,-1,1245,1387,0,0
28,-363,0,0,0,0,0,0,0,0,0,-1,1252,1387,0,0
35,-363,0,0,0,0,0,0,0,0,0,-1,1259,1387,0,0
42,-363,0,0,0,0,0,0,0,0,0,-1,1266,1387,0,0
49,-363,0,0,0,0,0,0,0,0,0,-1,1273,1387,0,0
56,-363,0,0,0,0,0,0,0,0,0,-1,1280,1387,0,0
63,-363,0,0,0,0,0,0,0,0,0,-1,1287,1387,0,0
70,-363,0,0,0,0,0,0,0,0,0,-1,1294,1387,0,0
77,-363,0,0,0,0,0,0,0,0,0,-1,1301,1387,0,0
84,-363,0,0,0,0,0,0,0,0,0,-1,1308,1387,0,0
91,-363,0,0,0,0,0,0,0,0,0,-1,1315,1387,0,0
98,-363,0,0,0,0,0,0,0,0,0,-1,1322,1387,0,0
105,-363,0,0,0,0,0,0,0,0,0,-1,1329,1387,0,0
112,-363,0,0,0,0,0,0,0,0,0,-1,1336,1387,0,0
119,-363,0,0,0,0,0,0,0,0,0,-1,1343,1387,0,0
126,-363,0,0,0,0,0,0,0,0,0,-1,1350,1387,0,0
133,-363,0,0,0,0,0,0,0,0,0,-1,1357,1387,0,0
140,-363,0,0,0,0,0,0,0,0,0,-1,1364,1387,0,0
147,-363,0,0,0,0,0,0,0,0,0,-1,1371,1387,0,0
154,-363,0,0,0,0,0,0,0,0,0,-1,1378,1387,0,0
161,-363,0,0,0,0,0,0,0,0,0,-1,1385,1387,0,0
168,-363,0,0,0,0,0,0,0,0,0,-1,1392,1387,0,0
175,-363,0,0,0,0,0,0,0,0,0,-1,1399,1387,0,0
182,-363,0,0,0,0,0,0,0,0,0,-1,1406,1387,0,0
189,-363,0,0,0,0,0,0,0,0,0,-1,1413,1387,0,0
196,-363,0,0,0,0,0,0,0,0,0,-1,1420,1387,0,0
203,-363,0,0,0,0,0,0,0,0,0,-1,1427,1387,0,0
210,-363,0,0,0,0,0,0,0,0,0,-1,1434,1387,0,0
217,-363,0,0,0,0,0,0,0,0,0,-1,1441,1387,0,0
224,-363,0,0,0,0,0,0,0,0,0,-1,1448,1387,0,0
231,-363,0,0,0,0,0,0,0,0,0,-1,1455,1387,0,0
238,-363,0,0,0,0,0,0,0,0,0,-1,1462,1387,0,0
245,-363,0,0,0,0,0,0,0,0,0,-1,1469,1387,0,0
252,-363,0,0,0,0,0,0,0,0,0,-1,1476,1387,0,0
259,-363,0,0,0,0,0,0,0,0,0,-1,1483,1387,0,0
266,-363,0,0,0,0,0,0,0,0,0,-1,1490,1387,0,0
273,-363,0,0,0,0,0,0,0,0,0,-1,1497,1387,0,0
280,-363,0,0,0,0,0,0,0,0,0,-1,1504,1387,0,0
287,-363,0,0,0,0,0,0,0,0,0,-1,1511,1387,0,0
294,-363,0,0,0,0,0,0,0,0,0,-1,1518,1387,0,0
301,-363,0,0,0,0,0,0,0,0,0,-1,1525,1387,0,0
308,-363,0,0,0,0,0,0,0,0,0,-1,1532,1387,0,0
315,-363,0,0,0,0,0,0,0,0,0,-1,1539,1387,0,0
322,-363,0,0,0,0,0,0,0,0,0,-1,1546,1387,0,0
329,-363,0,0,0,0,0,0,0,0,0,-1,1553,1387,0,0
336,-363,0,0,0,0,0,0,0,0,0,-1,1560,1387,0,0
343,-363,0,0,0,0,0,0,0,0,0,-1,1567,1387,0,0
350,-363,0,0,0,0,0,0,0,0,0,-1,1574,1387,0,0
357,-363,0,0,0,0,0,0,0,0,0,-1,1581,1387,0,0
364,-363,0,0,0,0,0,0,0,0,0,-1,1588,1387,0,0
371,-363,0,0,0,0,0,0,0,0,0,-1,1595,1387,0,0
378,-363,0,0,0,0,0,0,0,0,0,-1,1602,1387,0,0
385,-363,0,0,0,0,0,0,0,0,0,-1,1609,1387,0,0
392,-363,0,0,0,0,0,0,0,0,0,-1,1616,1387,0,0
399,-363,0,0,0,0,0,0,0,0,0,-1,1623,1387,0,0
406,-363,0,0,0,0,0,0,0,0,0,-1,1630,1387,0,0
413,-363,0,0,0,0,0,0,0,0,0,-1,1637,1387,0,0
420,-363,0,0,0,0,0,0,0,0,0,-1,1644,1387,0,0
427,-363,0,0,0,0,0,0,0,0,0,-1,1651,1387,0,0
434,-363,0,0,0,0,0,0,0,0,0,-1,1658,1387,0,0
441,-363,0,0,0,0,0,0,0,0,0,-1,1665,1387,0,0
448,-363,0,0,0,0,0,0,0,0,0,-1,1672,1387,0,0
455,-363,0,0,0,0,0,0,0,0,0,-1,1679,1387,0,0
462,-363,0,0,0,0,0,0,0,0,0,-1,1686,1387,0,0
469,-363,0,0,0,0,0,0,0,0,0,-1,1693,1387,0,0
476,-363,0,0,0,0,0,0,0,0,0,-1,1700,1387,0,0
483,-363,0,0,0,0,0,0,0,0,0,-1,1707,1387,0,0
490,-363,0,0,0,0,0,0,0,0,0,-1,1714,1387,0,0
497,-363,0,0,0,0,0,0,0,0,0,-1,1721,1387,0,0
504,-363,0,0,0,0,0,0,0,0,0,-1,1728,1387,0,0
511,-363,0,0,0,0,0,0,0,0,0,-1,1735,1387,0,0
518,-363,0,0,0,0,0,0,0,0,0,-1,1742,1387,0,0
525,-363,0,0,0,0,0,0,0,0,0,-1,1749,1387,0,0
532,-363,0,0,0,0,0,0,0,0,0,-1,1756,1387,0,0
539,-363,0,0,0,0,0,0,0,0,0,-1,1763,1387,0,0
546,-363,0,0,0,0,0,0,0,0,0,-1,1770,1387,0,0
553,-363,20.5176,1.28699,0,0,0,0,0,0,0,-1,1777,1387,20.5176,-1.28699
560,-363,23.1362,6.22974,0,0,0,0,0,0,0,-1,1784,1387,23.1362,-6.22979
567,-363,20.1196,3.49683,0,0,0,0,0,0,0,-1,1791,1387,20.1196,-3.49686
574,-363,13.896,5.84314,0,0,0,0,0,0,0,-1,1798,1387,13.896,-5.84314
581,-363,23.7521,5.67395,0,0,0,0,0,0,0,-1,1805,1387,23.752,-5.6739
588,-363,24.6947,6.22327,0,0,0,0,0,0,0,-1,1812,1387,24.6946,-6.22327
595,-363,17.8364,0.548096,0,0,0,0,0,0,0,-1,1819,1387,17.8364,-0.548141
602,-363,14.0654,6.11243,0,0,0,0,0,0,0,-1,1826,1387,14.0654,-6.11239
609,-363,15.4229,7.11267,0,0,0,0,0,0,0,-1,1833,1387,15.4228,-7.11269
616,-363,15.5396,7.01343,0,0,0,0,0,0,0,-1,1840,1387,15.5396,-7.01341
623,-363,15.7283,7.16663,0,0,0,0,0,0,0,-1,1847,1387,15.7282,-7.16665
630,-363,15.9779,7.30237,0.000440324,-0.0201159,0.00176113,0.000590114,-0.0202657,0.0848497,0.0137114,0.0452177,1854,1387,15.9778,-7.30232
637,-363,15.6483,7.67249,-0.0032381,-0.0124356,0.00463691,-0.0013062,-0.0143675,0.394765,0.00917398,0.0397208,1861,1387,15.6483,-7.67246
644,-363,15.8571,7.57312,-0.00475635,-0.00726197,0.00505718,-0.000799112,-0.0112192,0.663978,0.00722785,0.0120171,1868,1387,15.857,-7.57308
651,-363,15.8763,7.29236,-0.00238203,-0.00503204,0.0031224,-0.000315131,-0.00709894,0.584736,0.00463116,0.0114221,1875,1387,15.8763,-7.29232
658,-363,15.8624,7.04968,-0.00123109,-0.00360128,0.00208126,-2.11687e-05,-0.0048112,0.526586,0.00320043,0.0119843,1882,1387,15.8624,-7.04963
665,-363,15.8528,6.85413,-0.000584512,-0.0024808,0.00138826,0.000148488,-0.0032138,0.485795,0.00219371,0.011391,1889,1387,15.8527,-6.85412
672,-363,15.8666,6.63733,-1.70442e-05,-0.00156124,0.000769896,0.000301213,-0.0018795,0.391985,0.00136453,0.0121003,1896,1387,15.8665,-6.63736
679,-363,15.8466,6.38916,0.000768657,-0.00091573,0.000188641,0.000789525,-0.000936598,0.110175,0.000997783,0.0130131,1903,1387,15.8466,-6.3892
686,-363,15.8461,6.13965,0.00220993,-0.000169249,-0.000963,0.00255086,-0.00051018,-0.340261,0.00189368,0.0136279,1910,1387,15.8461,-6.13965
693,-363,15.8593,5.87415,0.00471118,-0.000945692,-0.00298843,0.00599745,-0.00223196,-0.406448,0.00491424,0.0134987,1917,1387,15.8592,-5.87412
700,-363,15.9333,5.57788,0.00853206,-0.000825735,-0.00532677,0.0109431,-0.00323673,-0.425029,0.00858026,0.0191907,1924,1387,15.9334,-5.57788
707,-363,15.8903,5.23621,0.0136019,-0.00124879,-0.00868216,0.0176009,-0.00524779,-0.431634,0.0138194,0.0469501,1931,1387,15.8903,-5.23615
714,-363,15.9987,5.25781,0,0,0,0,0,0,0,-1,1938,1387,15.9986,-5.25776
721,-363,14.4045,4.51685,0,0,0,0,0,0,0,-1,1945,1387,14.4045,-4.51685
728,-363,13.8644,4.52063,0,0,0,0,0,0,0,-1,1952,1387,13.8644,-4.52064
735,-363,14.8151,4.4552,0,0,0,0,0,0,0,-1,1959,1387,14.8151,-4.45516
742,-363,18.7352,1.20129,0,0,0,0,0,0,0,-1,1966,1387,18.7353,-1.20129
749,-363,0,0,0,0,0,0,0,0,0,-1,1973,1387,0,0
756,-363,0,0,0,0,0,0,0,0,0,-1,1980,1387,0,0
763,-363,0,0,0,0,0,0,0,0,0,-1,1987,1387,0,0
770,-363,0,0,0,0,0,0,0,0,0,-1,1994,1387,0,0
777,-363,0,0,0,0,0,0,0,0,0,-1,2001,1387,0,0
784,-363,0,0,0,0,0,0,0,0,0,-1,2008,1387,0,0
791,-363,0,0,0,0,0,0,0,0,0,-1,2015,1387,0,0
798,-363,0,0,0,0,0,0,0,0,0,-1,2022,1387,0,0
805,-363,0,0,0,0,0,0,0,0,0,-1,2029,1387,0,0
812,-363,0,0,0,0,0,0,0,0,0,-1,2036,1387,0,0
-700,-370,0,0,0,0,0,0,0,0,0,-1,524,1394,0,0
-693,-370,0,0,0,0,0,0,0,0,0,-1,531,1394,0,0
-686,-370,0,0,0,0,0,0,0,0,0,-1,538,1394,0,0
-679,-370,0,0,0,0,0,0,0,0,0,-1,545,1394,0,0
-672,-370,0,0,0,0,0,0,0,0,0,-1,552,1394,0,0
-665,-370,0,0,0,0,0,0,0,0,0,-1,559,1394,0,0
-658,-370,0,0,0,0,0,0,0,0,0,-1,566,1394,0,0
-651,-370,0,0,0,0,0,0,0,0,0,-1,573,1394,0,0
-644,-370,0,0,0,0,0,0,0,0,0,-1,580,1394,0,0
-637,-370,0,0,0,0,0,0,0,0,0,-1,587,1394,0,0
-630,-370,0,0,0,0,0,0,0,0,0,-1,594,1394,0,0
-623,-370,-10.1758,-7.10486,0,0,0,0,0,0,0,-1,601,1394,-10.1758,7.10483
-616,-370,-8.85925,-1.61475,0,0,0,0,0,0,0,-1,608,1394,-8.85925,1.61476
-609,-370,-5.39325,0.0421143,0,0,0,0,0,0,0,-1,615,1394,-5.39328,-0.0421372
-602,-370,-7.19305,0.585815,0,0,0,0,0,0,0,-1,622,1394,-7.19304,-0.585771
-595,-370,-7.78735,3.60046,0,0,0,0,0,0,0,-1,629,1394,-7.78736,-3.60046
-588,-370,-6.422,3.6825,0,0,0,0,0,0,0,-1,636,1394,-6.42199,-3.68252
-581,-370,-6.4585,3.71863,-0.00758036,0.0204186,0.0127731,0.02537,-0.0125318,1.20098,0.0222971,0.0474177,643,1394,-6.45849,-3.71859
-574,-370,-6.41882,3.30591,-0.00736034,0.0126773,0.00740273,0.0151155,-0.00979853,1.25262,0.0144929,0.0395175,650,1394,-6.41883,-3.30594
-567,-370,-6.6933,3.56409,-0.00635615,0.00779718,0.00412358,0.00891095,-0.00746991,1.30699,0.00946968,0.0261102,657,1394,-6.69331,-3.56406
-560,-370,-6.8136,3.78577,-0.00509729,0.00473043,0.00212068,0.00516851,-0.00553537,1.36709,0.0061811,0.0154882,664,1394,-6.81359,-3.78578
-553,-370,-6.80695,4.08057,-0.0037877,0.00273737,0.00087039,0.00285148,-0.00390181,1.44044,0.0039147,0.0106695,671,1394,-6.80696,-4.08062
-546,-370,-6.77869,4.35828,-0.00238212,0.00141419,0.000181474,0.00142284,-0.00239078,1.52314,0.00222531,0.0139018,678,1394,-6.77868,-4.35827
-539,-370,-6.73022,4.67078,-0.00112641,-7.60583e-05,-0.000296625,1.92097e-06,-0.00120439,-1.31372,0.000803567,0.0184242,685,1394,-6.73025,-4.67077
-532,-370,-6.7702,4.93176,0.000234516,-0.000399715,-0.000558747,0.000559865,-0.000725063,-0.527291,0.000743895,0.0200476,692,1394,-6.7702,-4.93182
-525,-370,-6.79376,5.17065,0.00163246,-0.000619091,-0.000192359,0.00164878,-0.000635407,-0.0846168,0.00136135,0.0153749,699,1394,-6.79377,-5.17065
-518,-370,-6.78302,5.42639,0.00281932,-0.0010271,-2.78439e-05,0.00281952,-0.0010273,-0.00723843,0.0022999,0.0113495,706,1394,-6.78301,-5.42643
-511,-370,-6.76056,5.71631,0.00340831,-0.00164667,-0.000109545,0.00341068,-0.00164904,-0.0216572,0.00297967,0.0133947,713,1394,-6.76057,-5.71626
-504,-370,-6.69586,6.0238,0.00350706,-0.00284987,-0.000457528,0.00353982,-0.00288263,-0.0714822,0.00371447,0.025491,720,1394,-6.69584,-6.02385
-497,-370,-6.60913,6.30273,0,0,0,0,0,0,0,-1,727,1394,-6.60915,-6.30272
-490,-370,-5.30695,4.5271,0,0,0,0,0,0,0,-1,734,1394,-5.30698,-4.52704
-483,-370,-6.02997,4.59253,0,0,0,0,0,0,0,-1,741,1394,-6.02994,-4.5925
-476,-370,-6.75293,4.65796,0,0,0,0,0,0,0,-1,748,1394,-6.7529,-4.65795
-469,-370,-10.584,1.14294,0,0,0,0,0,0,0,-1,755,1394,-10.584,-1.14293
-462,-370,-9.54462,0.387207,0,0,0,0,0,0,0,-1,762,1394,-9.5446,-0.387176
-455,-370,-8.50525,-0.36853,0,0,0,0,0,0,0,-1,769,1394,-8.50523,0.368582
-448,-370,-10.9543,2.28833,0,0,0,0,0,0,0,-1,776,1394,-10.9543,-2.28835
-441,-370,-11.8699,1.8313,0,0,0,0,0,0,0,-1,783,1394,-11.8699,-1.83127
-434,-370,-12.7855,1.37415,0,0,0,0,0,0,0,-1,790,1394,-12.7855,-1.37419
-427,-370,0,0,0,0,0,0,0,0,0,-1,797,1394,0,0
-420,-370,0,0,0,0,0,0,0,0,0,-1,804,1394,0,0
-413,-370,0,0,0,0,0,0,0,0,0,-1,811,1394,0,0
-406,-370,0,0,0,0,0,0,0,0,0,-1,818,1394,0,0
-399,-370,0,0,0,0,0,0,0,0,0,-1,825,1394,0,0
-392,-370,0,0,0,0,0,0,0,0,0,-1,832,1394,0,0
-385,-370,0,0,0,0,0,0,0,0,0,-1,839,1394,0,0
-378,-370,0,0,0,0,0,0,0,0,0,-1,846,1394,0,0
-371,-370,0,0,0,0,0,0,0,0,0,-1,853,1394,0,0
-364,-370,0,0,0,0,0,0,0,0,0,-1,860,1394,0,0
-357,-370,0,0,0,0,0,0,0,0,0,-1,867,1394,0,0
-350,-370,0,0,0,0,0,0,0,0,0,-1,874,1394,0,0
-343,-370,0,0,0,0,0,0,0,0,0,-1,881,1394,0,0
-336,-370,0,0,0,0,0,0,0,0,0,-1,888,1394,0,0
-329,-370,0,0,0,0,0,0,0,0,0,-1,895,1394,0,0
-322,-370,0,0,0,0,0,0,0,0,0,-1,902,1394,0,0
-315,-370,0,0,0,0,0,0,0,0,0,-1,909,1394,0,0
-308,-370,0,0,0,0,0,0,0,0,0,-1,916,1394,0,0
-301,-370,0,0,0,0,0,0,0,0,0,-1,923,1394,0,0
-294,-370,0,0,0,0,0,0,0,0,0,-1,930,1394,0,0
-287,-370,0,0,0,0,0,0,0,0,0,-1,937,1394,0,0
-280,-370,0,0,0,0,0,0,0,0,0,-1,944,1394,0,0
-273,-370,0,0,0,0,0,0,0,0,0,-1,951,1394,0,0
-266,-370,0,0,0,0,0,0,0,0,0,-1,958,1394,0,0
-259,-370,0,0,0,0,0,0,0,0,0,-1,965,1394,0,0
-252,-370,0,0,0,0,0,0,0,0,0,-1,972,1394,0,0
-245,-370,0,0,0,0,0,0,0,0,0,-1,979,1394,0,0
-238,-370,0,0,0,0,0,0,0,0,0,-1,986,1394,0,0
-231,-370,0,0,0,0,0,0,0,0,0,-1,993,1394,0,0
-224,-370,0,0,0,0,0,0,0,0,0,-1,1000,1394,0,0
-217,-370,0,0,0,0,0,0,0,0,0,-1,1007,1394,0,0
-210,-370,0,0,0,0,0,0,0,0,0,-1,1014,1394,0,0
-203,-370,0,0,0,0,0,0,0,0,0,-1,1021,1394,0,0
-196,-370,0,0,0,0,0,0,0,0,0,-1,1028,1394,0,0
-189,-370,0,0,0,0,0,0,0,0,0,-1,1035,1394,0,0
-182,-370,0,0,0,0,0,0,0,0,0,-1,1042,1394,0,0
-175,-370,0,0,0,0,0,0,0,0,0,-1,1049,1394,0,0
-168,-370,0,0,0,0,0,0,0,0,0,-1,1056,1394,0,0
-161,-370,0,0,0,0,0,0,0,0,0,-1,1063,1394,0,0
-154,-370,0,0,0,0,0,0,0,0,0,-1,1070,1394,0,0
-147,-370,0,0,0,0,0,0,0,0,0,-1,1077,1394,0,0
-140,-370,0,0,0,0,0,0,0,0,0,-1,1084,1394,0,0
-133,-370,0,0,0,0,0,0,0,0,0,-1,1091,1394,0,0
-126,-370,0,0,0,0,0,0,0,0,0,-1,1098,1394,0,0
-119,-370,0,0,0,0,0,0,0,0,0,-1,1105,1394,0,0
-112,-370,0,0,0,0,0,0,0,0,0,-1,1112,1394,0,0
-105,-370,0,0,0,0,0,0,0,0,0,-1,1119,1394,0,0
-98,-370,0,0,0,0,0,0,0,0,0,-1,1126,1394,0,0
-91,-370,0,0,0,0,0,0,0,0,0,-1,1133,1394,0,0
-84,-370,0,0,0,0,0,0,0,0,0,-1,1140,1394,0,0
-77,-370,0,0,0,0,0,0,0,0,0,-1,1147,1394,0,0
-70,-370,0,0,0,0,0,0,0,0,0,-1,1154,1394,0,0
-63,-370,0,0,0,0,0,0,0,0,0,-1,1161,1394,0,0
-56,-370,0,0,0,0,0,0,0,0,0,-1,1168,1394,0,0
-49,-370,0,0,0,0,0,0,0,0,0,-1,1175,1394,0,0
-42,-370,0,0,0,0,0,0,0,0,0,-1,1182,1394,0,0
-35,-370,0,0,0,0,0,0,0,0,0,-1,1189,1394,0,0
-28,-370,0,0,0,0,0,0,0,0,0,-1,1196,1394,0,0
-21,-370,0,0,0,0,0,0,0,0,0,-1,1203,1394,0,0
-14,-370,0,0,0,0,0,0,0,0,0,-1,1210,1394,0,0
-7,-370,0,0,0,0,0,0,0,0,0,-1,1217,1394,0,0
0,-370,0,0,0,0,0,0,0,0,0,-1,1224,1394,0,0
7,-370,0,0,0,0,0,0,0,0,0,-1,1231,1394,0,0
14,-370,0,0,0,0,0,0,0,0,0,-1,1238,1394,0,0
21,-370,0,0,0,0,0,0,0,0,0,-1,1245,1394,0,0
28,-370,0,0,0,0,0,0,0,0,0,-1,1252,1394,0,0
35,-370,0,0,0,0,0,0,0,0,0,-1,1259,1394,0,0
42,-370,0,0,0,0,0,0,0,0,0,-1,1266,1394,0,0
49,-370,0,0,0,0,0,0,0,0,0,-1,1273,1394,0,0
56,-370,0,0,0,0,0,0,0,0,0,-1,1280,1394,0,0
63,-370,0,0,0,0,0,0,0,0,0,-1,1287,1394,0,0
70,-370,0,0,0,0,0,0,0,0,0,-1,1294,1394,0,0
77,-370,0,0,0,0,0,0,0,0,0,-1,1301,1394,0,0
84,-370,0,0,0,0,0,0,0,0,0,-1,1308,1394,0,0
91,-370,0,0,0,0,0,0,0,0,0,-1,1315,1394,0,0
98,-370,0,0,0,0,0,0,0,0,0,-1,1322,1394,0,0
105,-370,0,0,0,0,0,0,0,0,0,-1,1329,1394,0,0
112,-370,0,0,0,0,0,0,0,0,0,-1,1336,1394,0,0
119,-370,0,0,0,0,0,0,0,0,0,-1,1343,1394,0,0
126,-370,0,0,0,0,0,0,0,0,0,-1,1350,1394,0,0
133,-370,0,0,0,0,0,0,0,0,0,-1,1357,1394,0,0
140,-370,0,0,0,0,0,0,0,0,0,-1,1364,1394,0,0
147,-370,0,0,0,0,0,0,0,0,0,-1,1371,1394,0,0
154,-370,0,0,0,0,0,0,0,0,0,-1,1378,1394,0,0
161,-370,0,0,0,0,0,0,0,0,0,-1,1385,1394,0,0
168,-370,0,0,0,0,0,0,0,0,0,-1,1392,1394,0,0
175,-370,0,0,0,0,0,0,0,0,0,-1,1399,1394,0,0
182,-370,0,0,0,0,0,0,0,0,0,-1,1406,1394,0,0
189,-370,0,0,0,0,0,0,0,0,0,-1,1413,1394,0,0
196,-370,0,0,0,0,0,0,0,0,0,-1,1420,1394,0,0
203,-370,0,0,0,0,0,0,0,0,0,-1,1427,1394,0,0
210,-370,0,0,0,0,0,0,0,0,0,-1,1434,1394,0,0
217,-370,0,0,0,0,0,0,0,0,0,-1,1441,1394,0,0
224,-370,0,0,0,0,0,0,0,0,0,-1,1448,1394,0,0
231,-370,0,0,0,0,0,0,0,0,0,-1,1455,1394,0,0
238,-370,0,0,0,0,0,0,0,0,0,-1,1462,1394,0,0
245,-370,0,0,0,0,0,0,0,0,0,-1,1469,1394,0,0
252,-370,0,0,0,0,0,0,0,0,0,-1,1476,1394,0,0
259,-370,0,0,0,0,0,0,0,0,0,-1,1483,1394,0,0
266,-370,0,0,0,0,0,0,0,0,0,-1,1490,1394,0,0
273,-370,0,0,0,0,0,0,0,0,0,-1,1497,1394,0,0
280,-370,0,0,0,0,0,0,0,0,0,-1,1504,1394,0,0
287,-370,0,0,0,0,0,0,0,0,0,-1,1511,1394,0,0
294,-370,0,0,0,0,0,0,0,0,0,-1,1518,1394,0,0
301,-370,0,0,0,0,0,0,0,0,0,-1,1525,1394,0,0
308,-370,0,0,0,0,0,0,0,0,0,-1,1532,1394,0,0
315,-370,0,0,0,0,0,0,0,0,0,-1,1539,1394,0,0
322,-370,0,0,0,0,0,0,0,0,0,-1,1546,1394,0,0
329,-370,0,0,0,0,0,0,0,0,0,-1,1553,1394,0,0
336,-370,0,0,0,0,0,0,0,0,0,-1,1560,1394,0,0
343,-370,0,0,0,0,0,0,0,0,0,-1,1567,1394,0,0
350,-370,0,0,0,0,0,0,0,0,0,-1,1574,1394,0,0
357,-370,0,0,0,0,0,0,0,0,0,-1,1581,1394,0,0
364,-370,0,0,0,0,0,0,0,0,0,-1,1588,1394,0,0
371,-370,0,0,0,0,0,0,0,0,0,-1,1595,1394,0,0
378,-370,0,0,0,0,0,0,0,0,0,-1,1602,1394,0,0
385,-370,0,0,0,0,0,0,0,0,0,-1,1609,1394,0,0
392,-370,0,0,0,0,0,0,0,0,0,-1,1616,1394,0,0
399,-370,0,0,0,0,0,0,0,0,0,-1,1623,1394,0,0
406,-370,0,0,0,0,0,0,0,0,0,-1,1630,1394,0,0
413,-370,0,0,0,0,0,0,0,0,0,-1,1637,1394,0,0
420,-370,0,0,0,0,0,0,0,0,0,-1,1644,1394,0,0
427,-370,0,0,0,0,0,0,0,0,0,-1,1651,1394,0,0
434,-370,0,0,0,0,0,0,0,0,0,-1,1658,1394,0,0
441,-370,0,0,0,0,0,0,0,0,0,-1,1665,1394,0,0
448,-370,0,0,0,0,0,0,0,0,0,-1,1672,1394,0,0
455,-370,0,0,0,0,0,0,0,0,0,-1,1679,1394,0,0
462,-370,0,0,0,0,0,0,0,0,0,-1,1686,1394,0,0
469,-370,0,0,0,0,0,0,0,0,0,-1,1693,1394,0,0
476,-370,0,0,0,0,0,0,0,0,0,-1,1700,1394,0,0
483,-370,0,0,0,0,0,0,0,0,0,-1,1707,1394,0,0
490,-370,0,0,0,0,0,0,0,0,0,-1,1714,1394,0,0
497,-370,0,0,0,0,0,0,0,0,0,-1,1721,1394,0,0
504,-370,0,0,0,0,0,0,0,0,0,-1,1728,1394,0,0
511,-370,0,0,0,0,0,0,0,0,0,-1,1735,1394,0,0
518,-370,0,0,0,0,0,0,0,0,0,-1,1742,1394,0,0
525,-370,0,0,0,0,0,0,0,0,0,-1,1749,1394,0,0
532,-370,0,0,0,0,0,0,0,0,0,-1,1756,1394,0,0
539,-370,0,0,0,0,0,0,0,0,0,-1,1763,1394,0,0
546,-370,21.7084,0.258667,0,0,0,0,0,0,0,-1,1770,1394,21.7084,-0.258678
553,-370,20.9537,1.46118,0,0,0,0,0,0,0,-1,1777,1394,20.9537,-1.46115
560,-370,20.2441,2.65051,0,0,0,0,0,0,0,-1,1784,1394,20.2442,-2.65048
567,-370,19.6786,3.53052,0,0,0,0,0,0,0,-1,1791,1394,19.6786,-3.53051
574,-370,13.203,4.47705,0,0,0,0,0,0,0,-1,1798,1394,13.203,-4.47703
581,-370,14.5411,3.60901,0,0,0,0,0,0,0,-1,1805,1394,14.5411,-3.60901
588,-370,15.6494,2.86951,0,0,0,0,0,0,0,-1,1812,1394,15.6494,-2.86946
595,-370,14.8816,2.97034,0,0,0,0,0,0,0,-1,1819,1394,14.8816,-2.97028
602,-370,13.8323,4.88599,0,0,0,0,0,0,0,-1,1826,1394,13.8323,-4.88596
609,-370,14.3762,6.26929,0,0,0,0,0,0,0,-1,1833,1394,14.3763,-6.26928
616,-370,15.6436,7.34106,0,0,0,0,0,0,0,-1,1840,1394,15.6436,-7.34104
623,-370,15.8187,7.47498,0,0,0,0,0,0,0,-1,1847,1394,15.8187,-7.47492
630,-370,15.6732,7.79932,-0.00279784,-0.0194053,0.00360164,-0.0020504,-0.0201528,0.204624,0.0128066,0.0439508,1854,1394,15.6732,-7.79931
637,-370,15.4775,7.88892,-0.00464983,-0.0121159,0.00509045,-0.00207031,-0.0146954,0.469022,0.00918493,0.0311406,1861,1394,15.4775,-7.88889
644,-370,15.6276,7.5603,-0.00475786,-0.00710112,0.00467953,-0.00110552,-0.0107535,0.662733,0.00683036,0.0117937,1868,1394,15.6276,-7.56028
651,-370,15.6409,7.30151,-0.00194882,-0.00458966,0.00259316,-0.00035926,-0.00617923,0.549911,0.00400511,0.0116832,1875,1394,15.6409,-7.30147
658,-370,15.6373,7.07935,-0.000671263,-0.00300427,0.00160271,0.000144511,-0.00382004,0.470818,0.00259621,0.0120124,1882,1394,15.6374,-7.07937
665,-370,15.6256,6.86035,-0.000123078,-0.00201839,0.00109123,0.000374544,-0.00251601,0.42785,0.00181511,0.0122063,1889,1394,15.6256,-6.8603
672,-370,15.6224,6.62195,0.000266407,-0.00133086,0.000680514,0.000517019,-0.00158147,0.352856,0.00126245,0.012751,1896,1394,15.6224,-6.62193
679,-370,15.6432,6.36267,0.000837146,-0.000909819,0.000296425,0.000886073,-0.000958746,0.163582,0.00106538,0.0129706,1903,1394,15.6432,-6.36272
686,-370,15.632,6.11975,0.00188786,-0.00052819,-0.00043919,0.00196522,-0.000605549,-0.174352,0.00155189,0.0137326,1910,1394,15.6319,-6.11981
693,-370,15.6261,5.8573,0.00392321,-0.00142747,-0.00181863,0.00448282,-0.00198708,-0.298512,0.00382691,0.0123961,1917,1394,15.6261,-5.8573
700,-370,15.698,5.5647,0.00732467,-0.00141735,-0.00338457,0.00848186,-0.00257454,-0.329443,0.00668023,0.0200282,1924,1394,15.698,-5.5647
707,-370,15.8335,5.22327,0,0,0,0,0,0,0,-1,1931,1394,15.8335,-5.22326
714,-370,16.1875,4.82727,0,0,0,0,0,0,0,-1,1938,1394,16.1875,-4.82729
721,-370,16.9032,4.22766,0,0,0,0,0,0,0,-1,1945,1394,16.9032,-4.22765
728,-370,14.614,4.88318,0,0,0,0,0,0,0,-1,1952,1394,14.6141,-4.88324
735,-370,15.9586,5.35278,0,0,0,0,0,0,0,-1,1959,1394,15.9586,-5.35274
742,-370,12.6914,4.10376,0,0,0,0,0,0,0,-1,1966,1394,12.6914,-4.10374
749,-370,0,0,0,0,0,0,0,0,0,-1,1973,1394,0,0
756,-370,0,0,0,0,0,0,0,0,0,-1,1980,1394,0,0
763,-370,0,0,0,0,0,0,0,0,0,-1,1987,1394,0,0
770,-370,0,0,0,0,0,0,0,0,0,-1,1994,1394,0,0
777,-370,0,0,0,0,0,0,0,0,0,-1,2001,1394,0,0
784,-370,0,0,0,0,0,0,0,0,0,-1,2008,1394,0,0
791,-370,0,0,0,0,0,0,0,0,0,-1,2015,1394,0,0
798,-370,0,0,0,0,0,0,0,0,0,-1,2022,1394,0,0
805,-370,0,0,0,0,0,0,0,0,0,-1,2029,1394,0,0
812,-370,0,0,0,0,0,0,0,0,0,-1,2036,1394,0,0
-700,-377,0,0,0,0,0,0,0,0,0,-1,524,1401,0,0
-693,-377,0,0,0,0,0,0,0,0,0,-1,531,1401,0,0
-686,-377,0,0,0,0,0,0,0,0,0,-1,538,1401,0,0
-679,-377,0,0,0,0,0,0,0,0,0,-1,545,1401,0,0
-672,-377,0,0,0,0,0,0,0,0,0,-1,552,1401,0,0
-665,-377,0,0,0,0,0,0,0,0,0,-1,559,1401,0,0
-658,-377,0,0,0,0,0,0,0,0,0,-1,566,1401,0,0
-651,-377,0,0,0,0,0,0,0,0,0,-1,573,1401,0,0
-644,-377,0,0,0,0,0,0,0,0,0,-1,580,1401,0,0
-637,-377,0,0,0,0,0,0,0,0,0,-1,587,1401,0,0
-630,-377,0,0,0,0,0,0,0,0,0,-1,594,1401,0,0
-623,-377,0,0,0,0,0,0,0,0,0,-1,601,1401,0,0
-616,-377,-9.43915,-2.4906,0,0,0,0,0,0,0,-1,608,1401,-9.43915,2.49062
-609,-377,-7.2821,-1.35278,0,0,0,0,0,0,0,-1,615,1401,-7.28208,1.35279
-602,-377,-5.72253,0.430298,0,0,0,0,0,0,0,-1,622,1401,-5.72251,-0.430334
-595,-377,-6.73059,1.52393,0,0,0,0,0,0,0,-1,629,1401,-6.73059,-1.52392
-588,-377,-4.87274,1.41235,0,0,0,0,0,0,0,-1,636,1401,-4.87272,-1.41239
-581,-377,-6.13684,4.17859,0,0,0,0,0,0,0,-1,643,1401,-6.13685,-4.17854
-574,-377,-5.95209,3.2644,-0.0100561,0.0130311,0.00889579,0.0160611,-0.0130861,1.24251,0.0168573,0.0434291,650,1401,-5.95211,-3.26438
-567,-377,-6.31091,3.59827,-0.00853145,0.00833479,0.00501965,0.00971566,-0.00991232,1.30234,0.0113324,0.028447,657,1401,-6.31089,-3.59822
-560,-377,-6.55597,3.81738,-0.0068866,0.00533523,0.00262623,0.00587566,-0.00742703,1.36785,0.0076977,0.0228318,664,1401,-6.55596,-3.81733
-553,-377,-6.51434,4.07385,-0.0053007,0.00333264,0.0011202,0.00347562,-0.00544368,1.44384,0.00519118,0.0118564,671,1401,-6.51437,-4.07387
-546,-377,-6.52484,4.41309,-0.00366108,0.00196443,0.000276468,0.00197798,-0.00367463,1.52181,0.00331218,0.0158776,678,1401,-6.52484,-4.41314
-539,-377,-6.50092,4.65247,-0.00215977,0.00049851,-0.000262525,0.000524188,-0.00218545,-1.47329,0.00165952,0.0214951,685,1401,-6.50091,-4.6525
-532,-377,-6.51056,4.87927,-0.000575825,-2.29848e-05,-0.000610084,0.000370379,-0.000969189,-0.998107,0.000798742,0.0193485,692,1401,-6.51055,-4.8793
-525,-377,-6.46448,5.17627,0.0010283,-0.000331047,-0.000195441,0.00105584,-0.000358589,-0.139999,0.000849051,0.0198481,699,1401,-6.4645,-5.17631
-518,-377,-6.50262,5.4364,0.00252003,-0.000897314,9.9722e-06,0.00252006,-0.000897343,0.00291808,0.00204584,0.012914,706,1401,-6.50265,-5.43646
-511,-377,-6.51086,5.7179,0.00342782,-0.00163888,-3.60202e-05,0.00342807,-0.00163914,-0.00710873,0.00298571,0.01086,713,1401,-6.51086,-5.71794
-504,-377,-6.51843,6.01038,0.00367385,-0.00290583,-0.000423673,0.00370102,-0.002933,-0.0640386,0.0038387,0.0113722,720,1401,-6.51845,-6.01033
-497,-377,-6.29102,6.28088,0.00390142,-0.00446797,-0.00128002,0.00409281,-0.00465936,-0.148421,0.0050566,0.0266,727,1401,-6.29104,-6.28087
-490,-377,-5.95111,6.6438,0,0,0,0,0,0,0,-1,734,1401,-5.95112,-6.6438
-483,-377,-5.6524,5.07324,0,0,0,0,0,0,0,-1,741,1401,-5.6524,-5.07325
-476,-377,-6.11682,5.10535,0,0,0,0,0,0,0,-1,748,1401,-6.11681,-5.10537
-469,-377,-10.3211,1.9281,0,0,0,0,0,0,0,-1,755,1401,-10.3211,-1.92808
-462,-377,-9.2204,1.0022,0,0,0,0,0,0,0,-1,762,1401,-9.22039,-1.00218
-455,-377,-8.11969,0.0762939,0,0,0,0,0,0,0,-1,769,1401,-8.11968,-0.0762759
-448,-377,-9.05334,0.877319,0,0,0,0,0,0,0,-1,776,1401,-9.05332,-0.877324
-441,-377,-11.212,0.763428,0,0,0,0,0,0,0,-1,783,1401,-11.212,-0.763415
-434,-377,-11.0984,0.996216,0,0,0,0,0,0,0,-1,790,1401,-11.0984,-0.996265
-427,-377,-11.1733,1.25732,0,0,0,0,0,0,0,-1,797,1401,-11.1733,-1.25732
-420,-377,0,0,0,0,0,0,0,0,0,-1,804,1401,0,0
-413,-377,0,0,0,0,0,0,0,0,0,-1,811,1401,0,0
-406,-377,0,0,0,0,0,0,0,0,0,-1,818,1401,0,0
-399,-377,0,0,0,0,0,0,0,0,0,-1,825,1401,0,0
-392,-377,0,0,0,0,0,0,0,0,0,-1,832,1401,0,0
-385,-377,0,0,0,0,0,0,0,0,0,-1,839,1401,0,0
-378,-377,0,0,0,0,0,0,0,0,0,-1,846,1401,0,0
-371,-377,0,0,0,0,0,0,0,0,0,-1,853,1401,0,0
-364,-377,0,0,0,0,0,0,0,0,0,-1,860,1401,0,0
-357,-377,0,0,0,0,0,0,0,0,0,-1,867,1401,0,0
-350,-377,0,0,0,0,0,0,0,0,0,-1,874,1401,0,0
-343,-377,0,0,0,0,0,0,0,0,0,-1,881,1401,0,0
-336,-377,0,0,0,0,0,0,0,0,0,-1,888,1401,0,0
-329,-377,0,0,0,0,0,0,0,0,0,-1,895,1401,0,0
-322,-377,0,0,0,0,0,0,0,0,0,-1,902,1401,0,0
-315,-377,0,0,0,0,0,0,0,0,0,-1,909,1401,0,0
-308,-377,0,0,0,0,0,0,0,0,0,-1,916,1401,0,0
-301,-377,0,0,0,0,0,0,0,0,0,-1,923,1401,0,0
-294,-377,0,0,0,0,0,0,0,0,0,-1,930,1401,0,0
-287,-377,0,0,0,0,0,0,0,0,0,-1,937,1401,0,0
-280,-377,0,0,0,0,0,0,0,0,0,-1,944,1401,0,0
-273,-377,0,0,0,0,0,0,0,0,0,-1,951,1401,0,0
-266,-377,0,0,0,0,0,0,0,0,0,-1,958,1401,0,0
-259,-377,0,0,0,0,0,0,0,0,0,-1,965,1401,0,0
-252,-377,0,0,0,0,0,0,0,0,0,-1,972,1401,0,0
-245,-377,0,0,0,0,0,0,0,0,0,-1,979,1401,0,0
-238,-377,0,0,0,0,0,0,0,0,0,-1,986,1401,0,0
-231,-377,0,0,0,0,0,0,0,0,0,-1,993,1401,0,0
-224,-377,0,0,0,0,0,0,0,0,0,-1,1000,1401,0,0
-217,-377,0,0,0,0,0,0,0,0,0,-1,1007,1401,0,0
-210,-377,0,0,0,0,0,0,0,0,0,-1,1014,1401,0,0
-203,-377,0,0,0,0,0,0,0,0,0,-1,1021,1401,0,0
-196,-377,0,0,0,0,0,0,0,0,0,-1,1028,1401,0,0
-189,-377,0,0,0,0,0,0,0,0,0,-1,1035,1401,0,0
-182,-377,0,0,0,0,0,0,0,0,0,-1,1042,1401,0,0
-175,-377,0,0,0,0,0,0,0,0,0,-1,1049,1401,0,0
-168,-377,0,0,0,0,0,0,0,0,0,-1,1056,1401,0,0
-161,-377,0,0,0,0,0,0,0,0,0,-1,1063,1401,0,0
-154,-377,0,0,0,0,0,0,0,0,0,-1,1070,1401,0,0
-147,-377,0,0,0,0,0,0,0,0,0,-1,1077,1401,0,0
-140,-377,0,0,0,0,0,0,0,0,0,-1,1084,1401,0,0
-133,-377,0,0,0,0,0,0,0,0,0,-1,1091,1401,0,0
-126,-377,0,0,0,0,0,0,0,0,0,-1,1098,1401,0,0
-119,-377,0,0,0,0,0,0,0,0,0,-1,1105,1401,0,0
-112,-377,0,0,0,0,0,0,0,0,0,-1,1112,1401,0,0
-105,-377,0,0,0,0,0,0,0,0,0,-1,1119,1401,0,0
-98,-377,0,0,0,0,0,0,0,0,0,-1,1126,1401,0,0
-91,-377,0,0,0,0,0,0,0,0,0,-1,1133,1401,0,0
-84,-377,0,0,0,0,0,0,0,0,0,-1,1140,1401,0,0
-77,-377,0,0,0,0,0,0,0,0,0,-1,1147,1401,0,0
-70,-377,0,0,0,0,0,0,0,0,0,-1,1154,1401,0,0
-63,-377,0,0,0,0,0,0,0,0,0,-1,1161,1401,0,0
-56,-377,0,0,0,0,0,0,0,0,0,-1,1168,1401,0,0
-49,-377,0,0,0,0,0,0,0,0,0,-1,1175,1401,0,0
-42,-377,0,0,0,0,0,0,0,0,0,-1,1182,1401,0,0
-35,-377,0,0,0,0,0,0,0,0,0,-1,1189,1401,0,0
-28,-377,0,0,0,0,0,0,0,0,0,-1,1196,1401,0,0
-21,-377,0,0,0,0,0,0,0,0,0,-1,1203,1401,0,0
-14,-377,0,0,0,0,0,0,0,0,0,-1,1210,1401,0,0
-7,-377,0,0,0,0,0,0,0,0,0,-1,1217,1401,0,0
0,-377,0,0,0,0,0,0,0,0,0,-1,1224,1401,0,0
7,-377,0,0,0,0,0,0,0,0,0,-1,1231,1401,0,0
14,-377,0,0,0,0,0,0,0,0,0,-1,1238,1401,0,0
21,-377,0,0,0,0,0,0,0,0,0,-1,1245,1401,0,0
28,-377,0,0,0,0,0,0,0,0,0,-1,1252,1401,0,0
35,-377,0,0,0,0,0,0,0,0,0,-1,1259,1401,0,0
42,-377,0,0,0,0,0,0,0,0,0,-1,1266,1401,0,0
49,-377,0,0,0,0,0,0,0,0,0,-1,1273,1401,0,0
56,-377,0,0,0,0,0,0,0,0,0,-1,1280,1401,0,0
63,-377,0,0,0,0,0,0,0,0,0,-1,1287,1401,0,0
70,-377,0,0,0,0,0,0,0,0,0,-1,1294,1401,0,0
77,-377,0,0,0,0,0,0,0,0,0,-1,1301,1401,0,0
84,-377,0,0,0,0,0,0,0,0,0,-1,1308,1401,0,0
91,-377,0,0,0,0,0,0,0,0,0,-1,1315,1401,0,0
98,-377,0,0,0,0,0,0,0,0,0,-1,1322,1401,0,0
105,-377,0,0,0,0,0,0,0,0,0,-1,1329,1401,0,0
112,-377,0,0,0,0,0,0,0,0,0,-1,1336,1401,0,0
119,-377,0,0,0,0,0,0,0,0,0,-1,1343,1401,0,0
126,-377,0,0,0,0,0,0,0,0,0,-1,1350,1401,0,0
133,-377,0,0,0,0,0,0,0,0,0,-1,1357,1401,0,0
140,-377,0,0,0,0,0,0,0,0,0,-1,1364,1401,0,0
147,-377,0,0,0,0,0,0,0,0,0,-1,1371,1401,0,0
154,-377,0,0,0,0,0,0,0,0,0,-1,1378,1401,0,0
161,-377,0,0,0,0,0,0,0,0,0,-1,1385,1401,0,0
168,-377,0,0,0,0,0,0,0,0,0,-1,1392,1401,0,0
175,-377,0,0,0,0,0,0,0,0,0,-1,1399,1401,0,0
182,-377,0,0,0,0,0,0,0,0,0,-1,1406,1401,0,0
189,-377,0,0,0,0,0,0,0,0,0,-1,1413,1401,0,0
196,-377,0,0,0,0,0,0,0,0,0,-1,1420,1401,0,0
203,-377,0,0,0,0,0,0,0,0,0,-1,1427,1401,0,0
210,-377,0,0,0,0,0,0,0,0,0,-1,1434,1401,0,0
217,-377,0,0,0,0,0,0,0,0,0,-1,1441,1401,0,0
224,-377,0,0,0,0,0,0,0,0,0,-1,1448,1401,0,0
231,-377,0,0,0,0,0,0,0,0,0,-1,1455,1401,0,0
238,-377,0,0,0,0,0,0,0,0,0,-1,1462,1401,0,0
245,-377,0,0,0,0,0,0,0,0,0,-1,1469,1401,0,0
252,-377,0,0,0,0,0,0,0,0,0,-1,1476,1401,0,0
259,-377,0,0,0,0,0,0,0,0,0,-1,1483,1401,0,0
266,-377,0,0,0,0,0,0,0,0,0,-1,1490,1401,0,0
273,-377,0,0,0,0,0,0,0,0,0,-1,1497,1401,0,0
280,-377,0,0,0,0,0,0,0,0,0,-1,1504,1401,0,0
287,-377,0,0,0,0,0,0,0,0,0,-1,1511,1401,0,0
294,-377,0,0,0,0,0,0,0,0,0,-1,1518,1401,0,0
301,-377,0,0,0,0,0,0,0,0,0,-1,1525,1401,0,0
308,-377,0,0,0,0,0,0,0,0,0,-1,1532,1401,0,0
315,-377,0,0,0,0,0,0,0,0,0,-1,1539,1401,0,0
322,-377,0,0,0,0,0,0,0,0,0,-1,1546,1401,0,0
329,-377,0,0,0,0,0,0,0,0,0,-1,1553,1401,0,0
336,-377,0,0,0,0,0,0,0,0,0,-1,1560,1401,0,0
343,-377,0,0,0,0,0,0,0,0,0,-1,1567,1401,0,0
350,-377,0,0,0,0,0,0,0,0,0,-1,1574,1401,0,0
357,-377,0,0,0,0,0,0,0,0,0,-1,1581,1401,0,0
364,-377,0,0,0,0,0,0,0,0,0,-1,1588,1401,0,0
371,-377,0,0,0,0,0,0,0,0,0,-1,1595,1401,0,0
378,-377,0,0,0,0,0,0,0,0,0,-1,1602,1401,0,0
385,-377,0,0,0,0,0,0,0,0,0,-1,1609,1401,0,0
392,-377,0,0,0,0,0,0,0,0,0,-1,1616,1401,0,0
399,-377,0,0,0,0,0,0,0,0,0,-1,1623,1401,0,0
406,-377,0,0,0,0,0,0,0,0,0,-1,1630,1401,0,0
413,-377,0,0,0,0,0,0,0,0,0,-1,1637,1401,0,0
420,-377,0,0,0,0,0,0,0,0,0,-1,1644,1401,0,0
427,-377,0,0,0,0,0,0,0,0,0,-1,1651,1401,0,0
434,-377,0,0,0,0,0,0,0,0,0,-1,1658,1401,0,0
441,-377,0,0,0,0,0,0,0,0,0,-1,1665,1401,0,0
448,-377,0,0,0,0,0,0,0,0,0,-1,1672,1401,0,0
455,-377,0,0,0,0,0,0,0,0,0,-1,1679,1401,0,0
462,-377,0,0,0,0,0,0,0,0,0,-1,1686,1401,0,0
469,-377,0,0,0,0,0,0,0,0,0,-1,1693,1401,0,0
476,-377,0,0,0,0,0,0,0,0,0,-1,1700,1401,0,0
483,-377,0,0,0,0,0,0,0,0,0,-1,1707,1401,0,0
490,-377,0,0,0,0,0,0,0,0,0,-1,1714,1401,0,0
497,-377,0,0,0,0,0,0,0,0,0,-1,1721,1401,0,0
504,-377,0,0,0,0,0,0,0,0,0,-1,1728,1401,0,0
511,-377,0,0,0,0,0,0,0,0,0,-1,1735,1401,0,0
518,-377,0,0,0,0,0,0,0,0,0,-1,1742,1401,0,0
525,-377,0,0,0,0,0,0,0,0,0,-1,1749,1401,0,0
532,-377,0,0,0,0,0,0,0,0,0,-1,1756,1401,0,0
539,-377,0,0,0,0,0,0,0,0,0,-1,1763,1401,0,0
546,-377,22.3663,0.877319,0,0,0,0,0,0,0,-1,1770,1401,22.3663,-0.877268
553,-377,21.2521,1.89001,0,0,0,0,0,0,0,-1,1777,1401,21.252,-1.89003
560,-377,20.1377,2.90283,0,0,0,0,0,0,0,-1,1784,1401,20.1378,-2.90279
567,-377,15.1582,2.81689,0,0,0,0,0,0,0,-1,1791,1401,15.1583,-2.81688
574,-377,12.252,3.49695,0,0,0,0,0,0,0,-1,1798,1401,12.2519,-3.49692
581,-377,13.7461,2.83679,0,0,0,0,0,0,0,-1,1805,1401,13.7461,-2.8368
588,-377,15.2402,2.17664,0,0,0,0,0,0,0,-1,1812,1401,15.2402,-2.17669
595,-377,13.0044,2.7074,0,0,0,0,0,0,0,-1,1819,1401,13.0044,-2.70745
602,-377,13.0537,3.23193,0,0,0,0,0,0,0,-1,1826,1401,13.0537,-3.23191
609,-377,15.0223,4.76135,0,0,0,0,0,0,0,-1,1833,1401,15.0224,-4.76129
616,-377,14.1842,5.78992,0,0,0,0,0,0,0,-1,1840,1401,14.1842,-5.78987
623,-377,15.4648,8.57507,0,0,0,0,0,0,0,-1,1847,1401,15.4648,-8.57502
630,-377,15.332,8.16602,-0.00806054,-0.0164166,0.0057521,-0.00512923,-0.0193479,0.471303,0.0115741,0.0459541,1854,1401,15.332,-8.16603
637,-377,15.326,7.84607,-0.00698986,-0.0103709,0.0055196,-0.00290771,-0.0144531,0.636795,0.00882726,0.0169892,1861,1401,15.326,-7.84602
644,-377,15.38,7.5802,-0.00543029,-0.00611573,0.00442289,-0.00133686,-0.0102092,0.746731,0.00640715,0.011447,1868,1401,15.38,-7.58018
651,-377,15.3914,7.31812,-0.00214779,-0.00385601,0.00234576,-0.000505479,-0.00549831,0.610804,0.00350921,0.0126408,1875,1401,15.3913,-7.31806
658,-377,15.392,7.08472,-0.00063241,-0.00250202,0.00148561,0.000188036,-0.00332247,0.504577,0.00228024,0.0142595,1882,1401,15.392,-7.08477
665,-377,15.395,6.83704,-0.000186207,-0.00178005,0.00123106,0.000483359,-0.00244962,0.498144,0.00181577,0.0159026,1889,1401,15.395,-6.83698
672,-377,15.3898,6.59204,-6.07097e-05,-0.00136176,0.0010994,0.000566212,-0.00198868,0.518248,0.0015494,0.0159687,1896,1401,15.3898,-6.592
679,-377,15.3876,6.36145,0.000197292,-0.00122118,0.00101048,0.000722598,-0.00174648,0.479406,0.00146581,0.0168801,1903,1401,15.3876,-6.36145
686,-377,15.3857,6.12061,0.00069063,-0.00138145,0.000822208,0.000977241,-0.00166806,0.335415,0.00154453,0.014749,1910,1401,15.3857,-6.12055
693,-377,15.4121,5.86218,0.00195337,-0.00251473,0.000253516,0.00196771,-0.00252906,0.0564974,0.00260295,0.0131557,1917,1401,15.4121,-5.86213
700,-377,15.3885,5.6106,0.00444801,-0.00280734,-0.000207392,0.00445393,-0.00281326,-0.0285536,0.00423121,0.0278597,1924,1401,15.3886,-5.61055
707,-377,15.3447,5.3634,0,0,0,0,0,0,0,-1,1931,1401,15.3447,-5.3634
714,-377,15.8601,4.79224,0,0,0,0,0,0,0,-1,1938,1401,15.8601,-4.79221
721,-377,16.5236,4.20056,0,0,0,0,0,0,0,-1,1945,1401,16.5235,-4.20056
728,-377,14.5396,2.79724,0,0,0,0,0,0,0,-1,1952,1401,14.5396,-2.7972
735,-377,16.2814,5.49353,0,0,0,0,0,0,0,-1,1959,1401,16.2814,-5.49358
742,-377,0,0,0,0,0,0,0,0,0,-1,1966,1401,0,0
749,-377,0,0,0,0,0,0,0,0,0,-1,1973,1401,0,0
756,-377,0,0,0,0,0,0,0,0,0,-1,1980,1401,0,0
763,-377,0,0,0,0,0,0,0,0,0,-1,1987,1401,0,0
770,-377,0,0,0,0,0,0,0,0,0,-1,1994,1401,0,0
777,-377,0,0,0,0,0,0,0,0,0,-1,2001,1401,0,0
784,-377,0,0,0,0,0,0,0,0,0,-1,2008,1401,0,0
791,-377,0,0,0,0,0,0,0,0,0,-1,2015,1401,0,0
798,-377,0,0,0,0,0,0,0,0,0,-1,2022,1401,0,0
805,-377,0,0,0,0,0,0,0,0,0,-1,2029,1401,0,0
812,-377,0,0,0,0,0,0,0,0,0,-1,2036,1401,0,0
-700,-384,0,0,0,0,0,0,0,0,0,-1,524,1408,0,0
-693,-384,0,0,0,0,0,0,0,0,0,-1,531,1408,0,0
-686,-384,0,0,0,0,0,0,0,0,0,-1,538,1408,0,0
-679,-384,0,0,0,0,0,0,0,0,0,-1,545,1408,0,0
-672,-384,0,0,0,0,0,0,0,0,0,-1,552,1408,0,0
-665,-384,0,0,0,0,0,0,0,0,0,-1,559,1408,0,0
-658,-384,0,0,0,0,0,0,0,0,0,-1,566,1408,0,0
-651,-384,0,0,0,0,0,0,0,0,0,-1,573,1408,0,0
-644,-384,0,0,0,0,0,0,0,0,0,-1,580,1408,0,0
-637,-384,0,0,0,0,0,0,0,0,0,-1,587,1408,0,0
-630,-384,0,0,0,0,0,0,0,0,0,-1,594,1408,0,0
-623,-384,0,0,0,0,0,0,0,0,0,-1,601,1408,0,0
-616,-384,-10.019,-3.36646,0,0,0,0,0,0,0,-1,608,1408,-10.019,3.36648
-609,-384,-7.72357,-2.3418,0,0,0,0,0,0,0,-1,615,1408,-7.72358,2.34182
-602,-384,-5.59833,-1.04639,0,0,0,0,0,0,0,-1,622,1408,-5.59835,1.04638
-595,-384,-5.45123,0.327026,0,0,0,0,0,0,0,-1,629,1408,-5.45121,-0.327055
-588,-384,-5.42987,1.25208,-0.0140488,0.0316617,0.0292836,0.0459533,-0.0283404,1.11676,0.0432934,0.0476657,636,1408,-5.42988,-1.25212
-581,-384,-5.59631,2.37524,0,0,0,0,0,0,0,-1,643,1408,-5.59631,-2.37523
-574,-384,-5.73291,3.1311,-0.0121752,0.0139681,0.0110183,0.0179924,-0.0161995,1.22061,0.0197497,0.0466426,650,1408,-5.73291,-3.13109
-567,-384,-5.96045,3.4342,-0.0101687,0.00931534,0.00642615,0.0112439,-0.0120973,1.27924,0.013479,0.0382623,657,1408,-5.96047,-3.43421
-560,-384,-6.13849,3.77954,-0.00820309,0.00624428,0.00352519,0.00705854,-0.00901735,1.34379,0.00930436,0.0305316,664,1408,-6.13849,-3.7795
-553,-384,-6.23389,4.08667,-0.00635325,0.00412883,0.00170232,0.00439836,-0.00662278,1.41377,0.00640611,0.0185411,671,1408,-6.2339,-4.08666
-546,-384,-6.24689,4.40552,-0.00452186,0.00265255,0.000661115,0.00271296,-0.00458227,1.47967,0.00425774,0.0137267,678,1408,-6.24688,-4.40552
-539,-384,-6.27417,4.6449,-0.00283257,0.00118775,3.38126e-05,0.00118803,-0.00283286,1.56239,0.00238533,0.0157986,685,1408,-6.27418,-4.64488
-532,-384,-6.19879,4.88892,-0.0011023,0.000459134,-0.000417818,0.000563906,-0.00120707,-1.3251,0.00104471,0.021327,692,1408,-6.1988,-4.88896
-525,-384,-6.1651,5.20459,0.000621504,5.19336e-05,-1.01606e-05,0.000621685,5.17524e-05,-0.0178314,0.000398328,0.0208526,699,1408,-6.16507,-5.2046
-518,-384,-6.23883,5.45508,0.00228635,-0.000651612,0.000165627,0.00229566,-0.000660919,0.0561377,0.00179185,0.0126122,706,1408,-6.23883,-5.45506
-511,-384,-6.25134,5.74194,0.00337094,-0.0014842,9.70199e-05,0.00337288,-0.00148614,0.0199723,0.00287499,0.00982446,713,1408,-6.25131,-5.7419
-504,-384,-6.24921,6.03357,0.0036289,-0.00276821,-0.000358977,0.00364898,-0.00278829,-0.0558817,0.00372762,0.0107367,720,1408,-6.24919,-6.03363
-497,-384,-6.23663,6.32312,0.00391181,-0.00428411,-0.00112685,0.00406391,-0.00443621,-0.134173,0.00490912,0.0170219,727,1408,-6.23664,-6.32309
-490,-384,-6.06128,6.59766,0.00273817,-0.00628928,-0.00297677,0.00363138,-0.00718249,-0.29151,0.00635461,0.0443408,734,1408,-6.06126,-6.59769
-483,-384,-5.78802,6.92603,0,0,0,0,0,0,0,-1,741,1408,-5.78802,-6.92608
-476,-384,-6.02734,5.67761,0,0,0,0,0,0,0,-1,748,1408,-6.02736,-5.6776
-469,-384,-10.206,2.63721,0,0,0,0,0,0,0,-1,755,1408,-10.206,-2.6372
-462,-384,-9.04291,1.43542,0,0,0,0,0,0,0,-1,762,1408,-9.04293,-1.43545
-455,-384,-7.87988,0.233765,0,0,0,0,0,0,0,-1,769,1408,-7.87986,-0.233709
-448,-384,-9.35529,7.19226,0,0,0,0,0,0,0,-1,776,1408,-9.35531,-7.19226
-441,-384,-10.4697,1.79004,0,0,0,0,0,0,0,-1,783,1408,-10.4697,-1.79003
-434,-384,-10.6449,0.552246,0,0,0,0,0,0,0,-1,790,1408,-10.6449,-0.552216
-427,-384,-10.968,1.10583,0,0,0,0,0,0,0,-1,797,1408,-10.968,-1.10588
-420,-384,-12.5607,4.54858,0,0,0,0,0,0,0,-1,804,1408,-12.5607,-4.54859
-413,-384,0,0,0,0,0,0,0,0,0,-1,811,1408,0,0
-406,-384,0,0,0,0,0,0,0,0,0,-1,818,1408,0,0
-399,-384,0,0,0,0,0,0,0,0,0,-1,825,1408,0,0
-392,-384,0,0,0,0,0,0,0,0,0,-1,832,1408,0,0
-385,-384,0,0,0,0,0,0,0,0,0,-1,839,1408,0,0
-378,-384,0,0,0,0,0,0,0,0,0,-1,846,1408,0,0
-371,-384,0,0,0,0,0,0,0,0,0,-1,853,1408,0,0
-364,-384,0,0,0,0,0,0,0,0,0,-1,860,1408,0,0
-357,-384,0,0,0,0,0,0,0,0,0,-1,867,1408,0,0
-350,-384,0,0,0,0,0,0,0,0,0,-1,874,1408,0,0
-343,-384,0,0,0,0,0,0,0,0,0,-1,881,1408,0,0
-336,-384,0,0,0,0,0,0,0,0,0,-1,888,1408,0,0
-329,-384,0,0,0,0,0,0,0,0,0,-1,895,1408,0,0
-322,-384,0,0,0,0,0,0,0,0,0,-1,902,1408,0,0
-315,-384,0,0,0,0,0,0,0,0,0,-1,909,1408,0,0
-308,-384,0,0,0,0,0,0,0,0,0,-1,916,1408,0,0
-301,-384,0,0,0,0,0,0,0,0,0,-1,923,1408,0,0
-294,-384,0,0,0,0,0,0,0,0,0,-1,930,1408,0,0
-287,-384,0,0,0,0,0,0,0,0,0,-1,937,1408,0,0
-280,-384,0,0,0,0,0,0,0,0,0,-1,944,1408,0,0
-273,-384,0,0,0,0,0,0,0,0,0,-1,951,1408,0,0
-266,-384,0,0,0,0,0,0,0,0,0,-1,958,1408,0,0
-259,-384,0,0,0,0,0,0,0,0,0,-1,965,1408,0,0
-252,-384,0,0,0,0,0,0,0,0,0,-1,972,1408,0,0
-245,-384,0,0,0,0,0,0,0,0,0,-1,979,1408,0,0
-238,-384,0,0,0,0,0,0,0,0,0,-1,986,1408,0,0
-231,-384,0,0,0,0,0,0,0,0,0,-1,993,1408,0,0
-224,-384,0,0,0,0,0,0,0,0,0,-1,1000,1408,0,0
-217,-384,0,0,0,0,0,0,0,0,0,-1,1007,1408,0,0
-210,-384,0,0,0,0,0,0,0,0,0,-1,1014,1408,0,0
-203,-384,0,0,0,0,0,0,0,0,0,-1,1021,1408,0,0
-196,-384,0,0,0,0,0,0,0,0,0,-1,1028,1408,0,0
-189,-384,0,0,0,0,0,0,0,0,0,-1,1035,1408,0,0
-182,-384,0,0,0,0,0,0,0,0,0,-1,1042,1408,0,0
-175,-384,0,0,0,0,0,0,0,0,0,-1,1049,1408,0,0
-168,-384,0,0,0,0,0,0,0,0,0,-1,1056,1408,0,0
-161,-384,0,0,0,0,0,0,0,0,0,-1,1063,1408,0,0
-154,-384,0,0,0,0,0,0,0,0,0,-1,1070,1408,0,0
-147,-384,0,0,0,0,0,0,0,0,0,-1,1077,1408,0,0
-140,-384,0,0,0,0,0,0,0,0,0,-1,1084,1408,0,0
-133,-384,0,0,0,0,0,0,0,0,0,-1,1091,1408,0,0
-126,-384,0,0,0,0,0,0,0,0,0,-1,1098,1408,0,0
-119,-384,0,0,0,0,0,0,0,0,0,-1,1105,1408,0,0
-112,-384,0,0,0,0,0,0,0,0,0,-1,1112,1408,0,0
-105,-384,0,0,0,0,0,0,0,0,0,-1,1119,1408,0,0
-98,-384,0,0,0,0,0,0,0,0,0,-1,1126,1408,0,0
-91,-384,0,0,0,0,0,0,0,0,0,-1,1133,1408,0,0
-84,-384,0,0,0,0,0,0,0,0,0,-1,1140,1408,0,0
-77,-384,0,0,0,0,0,0,0,0,0,-1,1147,1408,0,0
-70,-384,0,0,0,0,0,0,0,0,0,-1,1154,1408,0,0
-63,-384,0,0,0,0,0,0,0,0,0,-1,1161,1408,0,0
-56,-384,0,0,0,0,0,0,0,0,0,-1,1168,1408,0,0
-49,-384,0,0,0,0,0,0,0,0,0,-1,1175,1408,0,0
-42,-384,0,0,0,0,0,0,0,0,0,-1,1182,1408,0,0
-35,-384,0,0,0,0,0,0,0,0,0,-1,1189,1408,0,0
-28,-384,0,0,0,0,0,0,0,0,0,-1,1196,1408,0,0
-21,-384,0,0,0,0,0,0,0,0,0,-1,1203,1408,0,0
-14,-384,0,0,0,0,0,0,0,0,0,-1,1210,1408,0,0
-7,-384,0,0,0,0,0,0,0,0,0,-1,1217,1408,0,0
0,-384,0,0,0,0,0,0,0,0,0,-1,1224,1408,0,0
7,-384,0,0,0,0,0,0,0,0,0,-1,1231,1408,0,0
14,-384,0,0,0,0,0,0,0,0,0,-1,1238,1408,0,0
21,-384,0,0,0,0,0,0,0,0,0,-1,1245,1408,0,0
28,-384,0,0,0,0,0,0,0,0,0,-1,1252,1408,0,0
35,-384,0,0,0,0,0,0,0,0,0,-1,1259,1408,0,0
42,-384,0,0,0,0,0,0,0,0,0,-1,1266,1408,0,0
49,-384,0,0,0,0,0,0,0,0,0,-1,1273,1408,0,0
56,-384,0,0,0,0,0,0,0,0,0,-1,1280,1408,0,0
63,-384,0,0,0,0,0,0,0,0,0,-1,1287,1408,0,0
70,-384,0,0,0,0,0,0,0,0,0,-1,1294,1408,0,0
77,-384,0,0,0,0,0,0,0,0,0,-1,1301,1408,0,0
84,-384,0,0,0,0,0,0,0,0,0,-1,1308,1408,0,0
91,-384,0,0,0,0,0,0,0,0,0,-1,1315,1408,0,0
98,-384,0,0,0,0,0,0,0,0,0,-1,1322,1408,0,0
105,-384,0,0,0,0,0,0,0,0,0,-1,1329,1408,0,0
112,-384,0,0,0,0,0,0,0,0,0,-1,1336,1408,0,0
119,-384,0,0,0,0,0,0,0,0,0,-1,1343,1408,0,0
126,-384,0,0,0,0,0,0,0,0,0,-1,1350,1408,0,0
133,-384,0,0,0,0,0,0,0,0,0,-1,1357,1408,0,0
140,-384,0,0,0,0,0,0,0,0,0,-1,1364,1408,0,0
147,-384,0,0,0,0,0,0,0,0,0,-1,1371,1408,0,0
154,-384,0,0,0,0,0,0,0,0,0,-1,1378,1408,0,0
161,-384,0,0,0,0,0,0,0,0,0,-1,1385,1408,0,0
168,-384,0,0,0,0,0,0,0,0,0,-1,1392,1408,0,0
175,-384,0,0,0,0,0,0,0,0,0,-1,1399,1408,0,0
182,-384,0,0,0,0,0,0,0,0,0,-1,1406,1408,0,0
189,-384,0,0,0,0,0,0,0,0,0,-1,1413,1408,0,0
196,-384,0,0,0,0,0,0,0,0,0,-1,1420,1408,0,0
203,-384,0,0,0,0,0,0,0,0,0,-1,1427,1408,0,0
210,-384,0,0,0,0,0,0,0,0,0,-1,1434,1408,0,0
217,-384,0,0,0,0,0,0,0,0,0,-1,1441,1408,0,0
224,-384,0,0,0,0,0,0,0,0,0,-1,1448,1408,0,0
231,-384,0,0,0,0,0,0,0,0,0,-1,1455,1408,0,0
238,-384,0,0,0,0,0,0,0,0,0,-1,1462,1408,0,0
245,-384,0,0,0,0,0,0,0,0,0,-1,1469,1408,0,0
252,-384,0,0,0,0,0,0,0,0,0,-1,1476,1408,0,0
259,-384,0,0,0,0,0,0,0,0,0,-1,1483,1408,0,0
266,-384,0,0,0,0,0,0,0,0,0,-1,1490,1408,0,0
273,-384,0,0,0,0,0,0,0,0,0,-1,1497,1408,0,0
280,-384,0,0,0,0,0,0,0,0,0,-1,1504,1408,0,0
287,-384,0,0,0,0,0,0,0,0,0,-1,1511,1408,0,0
294,-384,0,0,0,0,0,0,0,0,0,-1,1518,1408,0,0
301,-384,0,0,0,0,0,0,0,0,0,-1,1525,1408,0,0
308,-384,0,0,0,0,0,0,0,0,0,-1,1532,1408,0,0
315,-384,0,0,0,0,0,0,0,0,0,-1,1539,1408,0,0
322,-384,0,0,0,0,0,0,0,0,0,-1,1546,1408,0,0
329,-384,0,0,0,0,0,0,0,0,0,-1,1553,1408,0,0
336,-384,0,0,0,0,0,0,0,0,0,-1,1560,1408,0,0
343,-384,0,0,0,0,0,0,0,0,0,-1,1567,1408,0,0
350,-384,0,0,0,0,0,0,0,0,0,-1,1574,1408,0,0
357,-384,0,0,0,0,0,0,0,0,0,-1,1581,1408,0,0
364,-384,0,0,0,0,0,0,0,0,0,-1,1588,1408,0,0
371,-384,0,0,0,0,0,0,0,0,0,-1,1595,1408,0,0
378,-384,0,0,0,0,0,0,0,0,0,-1,1602,1408,0,0
385,-384,0,0,0,0,0,0,0,0,0,-1,1609,1408,0,0
392,-384,0,0,0,0,0,0,0,0,0,-1,1616,1408,0,0
399,-384,0,0,0,0,0,0,0,0,0,-1,1623,1408,0,0
406,-384,0,0,0,0,0,0,0,0,0,-1,1630,1408,0,0
413,-384,0,0,0,0,0,0,0,0,0,-1,1637,1408,0,0
420,-384,0,0,0,0,0,0,0,0,0,-1,1644,1408,0,0
427,-384,0,0,0,0,0,0,0,0,0,-1,1651,1408,0,0
434,-384,0,0,0,0,0,0,0,0,0,-1,1658,1408,0,0
441,-384,0,0,0,0,0,0,0,0,0,-1,1665,1408,0,0
448,-384,0,0,0,0,0,0,0,0,0,-1,1672,1408,0,0
455,-384,0,0,0,0,0,0,0,0,0,-1,1679,1408,0,0
462,-384,0,0,0,0,0,0,0,0,0,-1,1686,1408,0,0
469,-384,0,0,0,0,0,0,0,0,0,-1,1693,1408,0,0
476,-384,0,0,0,0,0,0,0,0,0,-1,1700,1408,0,0
483,-384,0,0,0,0,0,0,0,0,0,-1,1707,1408,0,0
490,-384,0,0,0,0,0,0,0,0,0,-1,1714,1408,0,0
497,-384,0,0,0,0,0,0,0,0,0,-1,1721,1408,0,0
504,-384,0,0,0,0,0,0,0,0,0,-1,1728,1408,0,0
511,-384,0,0,0,0,0,0,0,0,0,-1,1735,1408,0,0
518,-384,0,0,0,0,0,0,0,0,0,-1,1742,1408,0,0
525,-384,0,0,0,0,0,0,0,0,0,-1,1749,1408,0,0
532,-384,0,0,0,0,0,0,0,0,0,-1,1756,1408,0,0
539,-384,23.4208,1.19556,0,0,0,0,0,0,0,-1,1763,1408,23.4207,-1.19561
546,-384,22.3715,1.52161,0,0,0,0,0,0,0,-1,1770,1408,22.3715,-1.52159
553,-384,21.0801,2.1532,0,0,0,0,0,0,0,-1,1777,1408,21.0801,-2.15317
560,-384,19.7887,2.78479,0,0,0,0,0,0,0,-1,1784,1408,19.7887,-2.78475
567,-384,19.0348,2.75549,0,0,0,0,0,0,0,-1,1791,1408,19.0348,-2.75544
574,-384,11.5477,2.34216,0,0,0,0,0,0,0,-1,1798,1408,11.5477,-2.34214
581,-384,13.024,2.0072,0,0,0,0,0,0,0,-1,1805,1408,13.024,-2.00726
588,-384,14.5002,1.67236,0,0,0,0,0,0,0,-1,1812,1408,14.5002,-1.67238
595,-384,17.2017,4.63574,0,0,0,0,0,0,0,-1,1819,1408,17.2016,-4.63576
602,-384,14.5807,4.99976,0,0,0,0,0,0,0,-1,1826,1408,14.5806,-4.99972
609,-384,14.158,5.49475,0,0,0,0,0,0,0,-1,1833,1408,14.158,-5.49474
616,-384,14.7997,7.6908,0,0,0,0,0,0,0,-1,1840,1408,14.7996,-7.69079
623,-384,14.9939,8.44165,0,0,0,0,0,0,0,-1,1847,1408,14.9939,-8.44168
630,-384,15.1637,8.04175,-0.00982416,-0.0127021,0.00681592,-0.00429696,-0.0182293,0.681367,0.0110038,0.0284107,1854,1408,15.1637,-8.0418
637,-384,15.1139,7.85229,-0.00720712,-0.00829184,0.00537404,-0.00234813,-0.0131508,0.735107,0.00809878,0.0163939,1861,1408,15.1138,-7.85233
644,-384,15.1243,7.60791,-0.00507886,-0.00504716,0.00401382,-0.00104916,-0.00907686,0.787372,0.00573361,0.0150389,1868,1408,15.1242,-7.60787
651,-384,15.1442,7.32935,-0.0021206,-0.00320612,0.002199,-0.000398368,-0.00492834,0.664406,0.00316115,0.0148014,1875,1408,15.1441,-7.32934
658,-384,15.136,7.08411,-0.000951789,-0.00218015,0.00160902,0.000156285,-0.00328822,0.603078,0.00224606,0.0147359,1882,1408,15.136,-7.08414
665,-384,15.1544,6.83655,-0.00090239,-0.00177051,0.00165786,0.000377288,-0.00305019,0.657362,0.00217018,0.0154564,1889,1408,15.1544,-6.83658
672,-384,15.1616,6.58667,-0.0011955,-0.00165087,0.00183718,0.00042805,-0.00327443,0.723747,0.00233873,0.0147422,1896,1408,15.1616,-6.58664
679,-384,15.1377,6.34692,-0.00147606,-0.00183074,0.00212799,0.000481968,-0.00378876,0.743826,0.00270087,0.0156099,1903,1408,15.1377,-6.34692
686,-384,15.1312,6.10779,-0.00183182,-0.00254152,0.00257493,0.000412592,-0.00478593,0.716925,0.00333667,0.012003,1910,1408,15.1313,-6.10784
693,-384,15.1735,5.8689,-0.00172887,-0.00390338,0.00288075,0.000262971,-0.00589522,0.604953,0.00402067,0.0179563,1917,1408,15.1734,-5.86885
700,-384,15.0244,5.90344,-0.000429467,-0.00461287,0.00332983,0.00141113,-0.00645347,0.50496,0.00484173,0.0454537,1924,1408,15.0244,-5.90338
707,-384,15.1276,5.34045,0,0,0,0,0,0,0,-1,1931,1408,15.1276,-5.3405
714,-384,15.5804,4.73047,0,0,0,0,0,0,0,-1,1938,1408,15.5805,-4.73048
721,-384,13.8843,2.8717,0,0,0,0,0,0,0,-1,1945,1408,13.8843,-2.87171
728,-384,15.4409,6.25745,0,0,0,0,0,0,0,-1,1952,1408,15.4409,-6.2574
735,-384,16.7598,6.71289,0,0,0,0,0,0,0,-1,1959,1408,16.7598,-6.71287
742,-384,0,0,0,0,0,0,0,0,0,-1,1966,1408,0,0
749,-384,0,0,0,0,0,0,0,0,0,-1,1973,1408,0,0
756,-384,0,0,0,0,0,0,0,0,0,-1,1980,1408,0,0
763,-384,0,0,0,0,0,0,0,0,0,-1,1987,1408,0,0
770,-384,0,0,0,0,0,0,0,0,0,-1,1994,1408,0,0
777,-384,0,0,0,0,0,0,0,0,0,-1,2001,1408,0,0
784,-384,0,0,0,0,0,0,0,0,0,-1,2008,1408,0,0
791,-384,0,0,0,0,0,0,0,0,0,-1,2015,1408,0,0
798,-384,0,0,0,0,0,0,0,0,0,-1,2022,1408,0,0
805,-384,0,0,0,0,0,0,0,0,0,-1,2029,1408,0,0
812,-384,0,0,0,0,0,0,0,0,0,-1,2036,1408,0,0
-700,-391,0,0,0,0,0,0,0,0,0,-1,524,1415,0,0
-693,-391,0,0,0,0,0,0,0,0,0,-1,531,1415,0,0
-686,-391,0,0,0,0,0,0,0,0,0,-1,538,1415,0,0
-679,-391,0,0,0,0,0,0,0,0,0,-1,545,1415,0,0
-672,-391,0,0,0,0,0,0,0,0,0,-1,552,1415,0,0
-665,-391,0,0,0,0,0,0,0,0,0,-1,559,1415,0,0
-658,-391,0,0,0,0,0,0,0,0,0,-1,566,1415,0,0
-651,-391,0,0,0,0,0,0,0,0,0,-1,573,1415,0,0
-644,-391,0,0,0,0,0,0,0,0,0,-1,580,1415,0,0
-637,-391,0,0,0,0,0,0,0,0,0,-1,587,1415,0,0
-630,-391,0,0,0,0,0,0,0,0,0,-1,594,1415,0,0
-623,-391,0,0,0,0,0,0,0,0,0,-1,601,1415,0,0
-616,-391,0,0,0,0,0,0,0,0,0,-1,608,1415,0,0
-609,-391,-7.71753,-3.69763,0,0,0,0,0,0,0,-1,615,1415,-7.71751,3.69759
-602,-391,-3.36749,-2.07458,0,0,0,0,0,0,0,-1,622,1415,-3.36751,2.07453
-595,-391,-5.84406,-0.57605,0,0,0,0,0,0,0,-1,629,1415,-5.84403,0.575992
-588,-391,-5.92084,0.890869,0,0,0,0,0,0,0,-1,636,1415,-5.92085,-0.890925
-581,-391,-5.41846,2.20728,0,0,0,0,0,0,0,-1,643,1415,-5.41843,-2.20725
-574,-391,-5.51624,2.84656,-0.0145371,0.0129883,0.0142599,0.0190437,-0.0205925,1.16923,0.0228898,0.0487926,650,1415,-5.51621,-2.84657
-567,-391,-5.77338,3.54065,-0.0119732,0.0092321,0.00847959,0.0122059,-0.014947,1.2335,0.0157033,0.0460096,657,1415,-5.77341,-3.54068
-560,-391,-5.77039,3.99475,-0.00967318,0.00658334,0.0047595,0.00787429,-0.0109641,1.30593,0.010925,0.0392592,664,1415,-5.77039,-3.9948
-553,-391,-5.9314,4.06812,-0.00756482,0.00465158,0.00243011,0.00511723,-0.00803047,1.38147,0.00765269,0.0289615,671,1415,-5.93141,-4.06805
-546,-391,-5.97662,4.36853,-0.00556941,0.00324803,0.00107836,0.003378,-0.00569938,1.45085,0.00529764,0.0120581,678,1415,-5.97663,-4.36858
-539,-391,-5.95538,4.64233,-0.00370874,0.0020705,0.000270548,0.00208313,-0.00372137,1.52412,0.00339543,0.0142915,685,1415,-5.95541,-4.64239
-532,-391,-5.89679,4.94873,-0.00188776,0.00112912,-0.000305191,0.00115968,-0.00191833,-1.47098,0.00179499,0.0245574,692,1415,-5.8968,-4.94871
-525,-391,-5.8703,5.24951,-0.00012006,0.000606557,6.34981e-05,0.000612065,-0.000125568,1.48428,0.000455703,0.0222198,699,1415,-5.87033,-5.24949
-518,-391,-5.97369,5.48291,0.00161996,-0.000221245,0.000185701,0.0016385,-0.000239788,0.099523,0.00118041,0.0143984,706,1415,-5.97371,-5.48292
-511,-391,-5.97162,5.74841,0.00276191,-0.00113025,8.00987e-05,0.00276355,-0.0011319,0.0205679,0.00231387,0.0129496,713,1415,-5.97165,-5.74841
-504,-391,-5.97333,6.02917,0.00291612,-0.00239883,-0.000427421,0.00295027,-0.00243298,-0.0797358,0.0031128,0.0112184,720,1415,-5.97331,-6.02922
-497,-391,-5.98376,6.29968,0.00311665,-0.00386098,-0.00111183,0.00328952,-0.00403386,-0.154254,0.00423543,0.0100498,727,1415,-5.98379,-6.2997
-490,-391,-5.94098,6.6322,0.00201999,-0.00576484,-0.00277759,0.00290941,-0.00665426,-0.309894,0.00566093,0.0196546,734,1415,-5.94099,-6.63215
-483,-391,-5.87183,6.77588,-0.000165387,-0.00841666,-0.00502495,0.00221059,-0.0107926,-0.441681,0.00803398,0.049289,741,1415,-5.87181,-6.77593
-476,-391,-5.66425,6.95752,0,0,0,0,0,0,0,-1,748,1415,-5.66422,-6.95747
-469,-391,-3.88953,5.0979,0,0,0,0,0,0,0,-1,755,1415,-3.88955,-5.09794
-462,-391,-8.67688,2.03125,0,0,0,0,0,0,0,-1,762,1415,-8.67685,-2.03121
-455,-391,-8.65576,6.46997,0,0,0,0,0,0,0,-1,769,1415,-8.65579,-6.46999
-448,-391,-8.39618,4.38403,0,0,0,0,0,0,0,-1,776,1415,-8.39617,-4.38405
-441,-391,-9.77704,2.5946,0,0,0,0,0,0,0,-1,783,1415,-9.77702,-2.5946
-434,-391,-11.5403,2.12878,0,0,0,0,0,0,0,-1,790,1415,-11.5403,-2.12881
-427,-391,-10.5311,2.50403,0,0,0,0,0,0,0,-1,797,1415,-10.5311,-2.504
-420,-391,-14.7087,1.24365,0,0,0,0,0,0,0,-1,804,1415,-14.7088,-1.24365
-413,-391,0,0,0,0,0,0,0,0,0,-1,811,1415,0,0
-406,-391,0,0,0,0,0,0,0,0,0,-1,818,1415,0,0
-399,-391,0,0,0,0,0,0,0,0,0,-1,825,1415,0,0
-392,-391,0,0,0,0,0,0,0,0,0,-1,832,1415,0,0
-385,-391,0,0,0,0,0,0,0,0,0,-1,839,1415,0,0
-378,-391,0,0,0,0,0,0,0,0,0,-1,846,1415,0,0
-371,-391,0,0,0,0,0,0,0,0,0,-1,853,1415,0,0
-364,-391,0,0,0,0,0,0,0,0,0,-1,860,1415,0,0
-357,-391,0,0,0,0,0,0,0,0,0,-1,867,1415,0,0
-350,-391,0,0,0,0,0,0,0,0,0,-1,874,1415,0,0
-343,-391,0,0,0,0,0,0,0,0,0,-1,881,1415,0,0
-336,-391,0,0,0,0,0,0,0,0,0,-1,888,1415,0,0
-329,-391,0,0,0,0,0,0,0,0,0,-1,895,1415,0,0
-322,-391,0,0,0,0,0,0,0,0,0,-1,902,1415,0,0
-315,-391,0,0,0,0,0,0,0,0,0,-1,909,1415,0,0
-308,-391,0,0,0,0,0,0,0,0,0,-1,916,1415,0,0
-301,-391,0,0,0,0,0,0,0,0,0,-1,923,1415,0,0
-294,-391,0,0,0,0,0,0,0,0,0,-1,930,1415,0,0
-287,-391,0,0,0,0,0,0,0,0,0,-1,937,1415,0,0
-280,-391,0,0,0,0,0,0,0,0,0,-1,944,1415,0,0
-273,-391,0,0,0,0,0,0,0,0,0,-1,951,1415,0,0
-266,-391,0,0,0,0,0,0,0,0,0,-1,958,1415,0,0
-259,-391,0,0,0,0,0,0,0,0,0,-1,965,1415,0,0
-252,-391,0,0,0,0,0,0,0,0,0,-1,972,1415,0,0
-245,-391,0,0,0,0,0,0,0,0,0,-1,979,1415,0,0
-238,-391,0,0,0,0,0,0,0,0,0,-1,986,1415,0,0
-231,-391,0,0,0,0,0,0,0,0,0,-1,993,1415,0,0
-224,-391,0,0,0,0,0,0,0,0,0,-1,1000,1415,0,0
-217,-391,0,0,0,0,0,0,0,0,0,-1,1007,1415,0,0
-210,-391,0,0,0,0,0,0,0,0,0,-1,1014,1415,0,0
-203,-391,0,0,0,0,0,0,0,0,0,-1,1021,1415,0,0
-196,-391,0,0,0,0,0,0,0,0,0,-1,1028,1415,0,0
-189,-391,0,0,0,0,0,0,0,0,0,-1,1035,1415,0,0
-182,-391,0,0,0,0,0,0,0,0,0,-1,1042,1415,0,0
-175,-391,0,0,0,0,0,0,0,0,0,-1,1049,1415,0,0
-168,-391,0,0,0,0,0,0,0,0,0,-1,1056,1415,0,0
-161,-391,0,0,0,0,0,0,0,0,0,-1,1063,1415,0,0
-154,-391,0,0,0,0,0,0,0,0,0,-1,1070,1415,0,0
-147,-391,0,0,0,0,0,0,0,0,0,-1,1077,1415,0,0
-140,-391,0,0,0,0,0,0,0,0,0,-1,1084,1415,0,0
-133,-391,0,0,0,0,0,0,0,0,0,-1,1091,1415,0,0
-126,-391,0,0,0,0,0,0,0,0,0,-1,1098,1415,0,0
-119,-391,0,0,0,0,0,0,0,0,0,-1,1105,1415,0,0
-112,-391,0,0,0,0,0,0,0,0,0,-1,1112,1415,0,0
-105,-391,0,0,0,0,0,0,0,0,0,-1,1119,1415,0,0
-98,-391,0,0,0,0,0,0,0,0,0,-1,1126,1415,0,0
-91,-391,0,0,0,0,0,0,0,0,0,-1,1133,1415,0,0
-84,-391,0,0,0,0,0,0,0,0,0,-1,1140,1415,0,0
-77,-391,0,0,0,0,0,0,0,0,0,-1,1147,1415,0,0
-70,-391,0,0,0,0,0,0,0,0,0,-1,1154,1415,0,0
-63,-391,0,0,0,0,0,0,0,0,0,-1,1161,1415,0,0
-56,-391,0,0,0,0,0,0,0,0,0,-1,1168,1415,0,0
-49,-391,0,0,0,0,0,0,0,0,0,-1,1175,1415,0,0
-42,-391,0,0,0,0,0,0,0,0,0,-1,1182,1415,0,0
-35,-391,0,0,0,0,0,0,0,0,0,-1,1189,1415,0,0
-28,-391,0,0,0,0,0,0,0,0,0,-1,1196,1415,0,0
-21,-391,0,0,0,0,0,0,0,0,0,-1,1203,1415,0,0
-14,-391,0,0,0,0,0,0,0,0,0,-1,1210,1415,0,0
-7,-391,0,0,0,0,0,0,0,0,0,-1,1217,1415,0,0
0,-391,0,0,0,0,0,0,0,0,0,-1,1224,1415,0,0
7,-391,0,0,0,0,0,0,0,0,0,-1,1231,1415,0,0
14,-391,0,0,0,0,0,0,0,0,0,-1,1238,1415,0,0
21,-391,0,0,0,0,0,0,0,0,0,-1,1245,1415,0,0
28,-391,0,0,0,0,0,0,0,0,0,-1,1252,1415,0,0
35,-391,0,0,0,0,0,0,0,0,0,-1,1259,1415,0,0
42,-391,0,0,0,0,0,0,0,0,0,-1,1266,1415,0,0
49,-391,0,0,0,0,0,0,0,0,0,-1,1273,1415,0,0
56,-391,0,0,0,0,0,0,0,0,0,-1,1280,1415,0,0
63,-391,0,0,0,0,0,0,0,0,0,-1,1287,1415,0,0
70,-391,0,0,0,0,0,0,0,0,0,-1,1294,1415,0,0
77,-391,0,0,0,0,0,0,0,0,0,-1,1301,1415,0,0
84,-391,0,0,0,0,0,0,0,0,0,-1,1308,1415,0,0
91,-391,0,0,0,0,0,0,0,0,0,-1,1315,1415,0,0
98,-391,0,0,0,0,0,0,0,0,0,-1,1322,1415,0,0
105,-391,0,0,0,0,0,0,0,0,0,-1,1329,1415,0,0
112,-391,0,0,0,0,0,0,0,0,0,-1,1336,1415,0,0
119,-391,0,0,0,0,0,0,0,0,0,-1,1343,1415,0,0
126,-391,0,0,0,0,0,0,0,0,0,-1,1350,1415,0,0
133,-391,0,0,0,0,0,0,0,0,0,-1,1357,1415,0,0
140,-391,0,0,0,0,0,0,0,0,0,-1,1364,1415,0,0
147,-391,0,0,0,0,0,0,0,0,0,-1,1371,1415,0,0
154,-391,0,0,0,0,0,0,0,0,0,-1,1378,1415,0,0
161,-391,0,0,0,0,0,0,0,0,0,-1,1385,1415,0,0
168,-391,0,0,0,0,0,0,0,0,0,-1,1392,1415,0,0
175,-391,0,0,0,0,0,0,0,0,0,-1,1399,1415,0,0
182,-391,0,0,0,0,0,0,0,0,0,-1,1406,1415,0,0
189,-391,0,0,0,0,0,0,0,0,0,-1,1413,1415,0,0
196,-391,0,0,0,0,0,0,0,0,0,-1,1420,1415,0,0
203,-391,0,0,0,0,0,0,0,0,0,-1,1427,1415,0,0
210,-391,0,0,0,0,0,0,0,0,0,-1,1434,1415,0,0
217,-391,0,0,0,0,0,0,0,0,0,-1,1441,1415,0,0
224,-391,0,0,0,0,0,0,0,0,0,-1,1448,1415,0,0
231,-391,0,0,0,0,0,0,0,0,0,-1,1455,1415,0,0
238,-391,0,0,0,0,0,0,0,0,0,-1,1462,1415,0,0
245,-391,0,0,0,0,0,0,0,0,0,-1,1469,1415,0,0
252,-391,0,0,0,0,0,0,0,0,0,-1,1476,1415,0,0
259,-391,0,0,0,0,0,0,0,0,0,-1,1483,1415,0,0
266,-391,0,0,0,0,0,0,0,0,0,-1,1490,1415,0,0
273,-391,0,0,0,0,0,0,0,0,0,-1,1497,1415,0,0
280,-391,0,0,0,0,0,0,0,0,0,-1,1504,1415,0,0
287,-391,0,0,0,0,0,0,0,0,0,-1,1511,1415,0,0
294,-391,0,0,0,0,0,0,0,0,0,-1,1518,1415,0,0
301,-391,0,0,0,0,0,0,0,0,0,-1,1525,1415,0,0
308,-391,0,0,0,0,0,0,0,0,0,-1,1532,1415,0,0
315,-391,0,0,0,0,0,0,0,0,0,-1,1539,1415,0,0
322,-391,0,0,0,0,0,0,0,0,0,-1,1546,1415,0,0
329,-391,0,0,0,0,0,0,0,0,0,-1,1553,1415,0,0
336,-391,0,0,0,0,0,0,0,0,0,-1,1560,1415,0,0
343,-391,0,0,0,0,0,0,0,0,0,-1,1567,1415,0,0
350,-391,0,0,0,0,0,0,0,0,0,-1,1574,1415,0,0
357,-391,0,0,0,0,0,0,0,0,0,-1,1581,1415,0,0
364,-391,0,0,0,0,0,0,0,0,0,-1,1588,1415,0,0
371,-391,0,0,0,0,0,0,0,0,0,-1,1595,1415,0,0
378,-391,0,0,0,0,0,0,0,0,0,-1,1602,1415,0,0
385,-391,0,0,0,0,0,0,0,0,0,-1,1609,1415,0,0
392,-391,0,0,0,0,0,0,0,0,0,-1,1616,1415,0,0
399,-391,0,0,0,0,0,0,0,0,0,-1,1623,1415,0,0
406,-391,0,0,0,0,0,0,0,0,0,-1,1630,1415,0,0
413,-391,0,0,0,0,0,0,0,0,0,-1,1637,1415,0,0
420,-391,0,0,0,0,0,0,0,0,0,-1,1644,1415,0,0
427,-391,0,0,0,0,0,0,0,0,0,-1,1651,1415,0,0
434,-391,0,0,0,0,0,0,0,0,0,-1,1658,1415,0,0
441,-391,0,0,0,0,0,0,0,0,0,-1,1665,1415,0,0
448,-391,0,0,0,0,0,0,0,0,0,-1,1672,1415,0,0
455,-391,0,0,0,0,0,0,0,0,0,-1,1679,1415,0,0
462,-391,0,0,0,0,0,0,0,0,0,-1,1686,1415,0,0
469,-391,0,0,0,0,0,0,0,0,0,-1,1693,1415,0,0
476,-391,0,0,0,0,0,0,0,0,0,-1,1700,1415,0,0
483,-391,0,0,0,0,0,0,0,0,0,-1,1707,1415,0,0
490,-391,0,0,0,0,0,0,0,0,0,-1,1714,1415,0,0
497,-391,0,0,0,0,0,0,0,0,0,-1,1721,1415,0,0
504,-391,0,0,0,0,0,0,0,0,0,-1,1728,1415,0,0
511,-391,0,0,0,0,0,0,0,0,0,-1,1735,1415,0,0
518,-391,0,0,0,0,0,0,0,0,0,-1,1742,1415,0,0
525,-391,0,0,0,0,0,0,0,0,0,-1,1749,1415,0,0
532,-391,23.3541,1.15771,0,0,0,0,0,0,0,-1,1756,1415,23.3541,-1.15771
539,-391,22.6211,1.52905,0,0,0,0,0,0,0,-1,1763,1415,22.6211,-1.529
546,-391,21.671,2.0199,0,0,0,0,0,0,0,-1,1770,1415,21.671,-2.01994
553,-391,20.5422,2.27222,0,0,0,0,0,0,0,-1,1777,1415,20.5423,-2.27224
560,-391,19.1654,2.27197,0,0,0,0,0,0,0,-1,1784,1415,19.1654,-2.27193
567,-391,18.4855,3.01099,0,0,0,0,0,0,0,-1,1791,1415,18.4854,-3.01096
574,-391,17.8459,3.70581,0,0,0,0,0,0,0,-1,1798,1415,17.8459,-3.70584
581,-391,12.551,1.32678,0,0,0,0,0,0,0,-1,1805,1415,12.5511,-1.32684
588,-391,16.6328,4.5874,0,0,0,0,0,0,0,-1,1812,1415,16.6328,-4.5874
595,-391,18.2269,5.96387,0,0,0,0,0,0,0,-1,1819,1415,18.2269,-5.96392
602,-391,15.1635,5.69849,0,0,0,0,0,0,0,-1,1826,1415,15.1635,-5.69847
609,-391,14.8285,7.50476,0,0,0,0,0,0,0,-1,1833,1415,14.8285,-7.50479
616,-391,14.7402,8.70508,0,0,0,0,0,0,0,-1,1840,1415,14.7402,-8.70513
623,-391,14.9146,8.27393,-0.0163078,-0.0147804,0.0104893,-0.00502698,-0.0260612,0.821737,0.0159645,0.0283693,1847,1415,14.9145,-8.27398
630,-391,14.9282,8.02112,-0.0108862,-0.00978073,0.00732808,-0.00298458,-0.0176824,0.823041,0.0109301,0.0192007,1854,1415,14.9282,-8.02117
637,-391,14.8922,7.83325,-0.00732306,-0.00654376,0.00521418,-0.00170469,-0.0121621,0.822693,0.00760382,0.0151501,1861,1415,14.8922,-7.83327
644,-391,14.8854,7.60767,-0.00489108,-0.00413512,0.00373085,-0.000763149,-0.00826305,0.835882,0.00527276,0.0154026,1868,1415,14.8854,-7.60766
651,-391,14.8927,7.34961,-0.0023936,-0.00263435,0.00222677,-0.000283957,-0.00474399,0.758396,0.00307239,0.0156929,1875,1415,14.8927,-7.34958
658,-391,14.8983,7.0979,-0.00171426,-0.00188795,0.00195693,0.000157748,-0.00375996,0.763223,0.00256085,0.0148756,1882,1415,14.8983,-7.09794
665,-391,14.9154,6.85425,-0.00221255,-0.0017333,0.00236326,0.000402451,-0.0043483,0.835923,0.0030419,0.0123075,1889,1415,14.9154,-6.85429
672,-391,14.9178,6.60474,-0.00313987,-0.00187674,0.00293933,0.000498113,-0.00551472,0.891222,0.00385327,0.0117645,1896,1415,14.9179,-6.60478
679,-391,14.8989,6.36865,-0.0042641,-0.00234493,0.00370879,0.000526408,-0.00713543,0.911988,0.00494178,0.0112821,1903,1415,14.8989,-6.3687
686,-391,14.8966,6.1189,-0.00587701,-0.00361523,0.00487667,0.000259958,-0.0097522,0.899334,0.00658983,0.0134542,1910,1415,14.8966,-6.11892
693,-391,14.916,6.00305,-0.00766165,-0.00524253,0.00613609,-0.000197914,-0.0127063,0.882712,0.00840565,0.0297832,1917,1415,14.916,-6.00311
700,-391,15.0004,5.90747,0,0,0,0,0,0,0,-1,1924,1415,15.0004,-5.90744
707,-391,12.9524,5.96851,0,0,0,0,0,0,0,-1,1931,1415,12.9524,-5.96849
714,-391,15.6875,7.67896,0,0,0,0,0,0,0,-1,1938,1415,15.6875,-7.67893
721,-391,14.1808,8.08435,0,0,0,0,0,0,0,-1,1945,1415,14.1808,-8.08439
728,-391,13.8102,7.28174,0,0,0,0,0,0,0,-1,1952,1415,13.8102,-7.28174
735,-391,0,0,0,0,0,0,0,0,0,-1,1959,1415,0,0
742,-391,0,0,0,0,0,0,0,0,0,-1,1966,1415,0,0
749,-391,0,0,0,0,0,0,0,0,0,-1,1973,1415,0,0
756,-391,0,0,0,0,0,0,0,0,0,-1,1980,1415,0,0
763,-391,0,0,0,0,0,0,0,0,0,-1,1987,1415,0,0
770,-391,0,0,0,0,0,0,0,0,0,-1,1994,1415,0,0
777,-391,0,0,0,0,0,0,0,0,0,-1,2001,1415,0,0
784,-391,0,0,0,0,0,0,0,0,0,-1,2008,1415,0,0
791,-391,0,0,0,0,0,0,0,0,0,-1,2015,1415,0,0
798,-391,0,0,0,0,0,0,0,0,0,-1,2022,1415,0,0
805,-391,0,0,0,0,0,0,0,0,0,-1,2029,1415,0,0
812,-391,0,0,0,0,0,0,0,0,0,-1,2036,1415,0,0
-700,-398,0,0,0,0,0,0,0,0,0,-1,524,1422,0,0
-693,-398,0,0,0,0,0,0,0,0,0,-1,531,1422,0,0
-686,-398,0,0,0,0,0,0,0,0,0,-1,538,1422,0,0
-679,-398,0,0,0,0,0,0,0,0,0,-1,545,1422,0,0
-672,-398,0,0,0,0,0,0,0,0,0,-1,552,1422,0,0
-665,-398,0,0,0,0,0,0,0,0,0,-1,559,1422,0,0
-658,-398,0,0,0,0,0,0,0,0,0,-1,566,1422,0,0
-651,-398,0,0,0,0,0,0,0,0,0,-1,573,1422,0,0
-644,-398,0,0,0,0,0,0,0,0,0,-1,580,1422,0,0
-637,-398,0,0,0,0,0,0,0,0,0,-1,587,1422,0,0
-630,-398,0,0,0,0,0,0,0,0,0,-1,594,1422,0,0
-623,-398,0,0,0,0,0,0,0,0,0,-1,601,1422,0,0
-616,-398,0,0,0,0,0,0,0,0,0,-1,608,1422,0,0
-609,-398,-7.47125,-4.05322,0,0,0,0,0,0,0,-1,615,1422,-7.47128,4.05317
-602,-398,-4.58868,-2.77026,0,0,0,0,0,0,0,-1,622,1422,-4.58869,2.77023
-595,-398,-6.81799,-1.06433,0,0,0,0,0,0,0,-1,629,1422,-6.81797,1.06429
-588,-398,-6.61115,0.746948,0,0,0,0,0,0,0,-1,636,1422,-6.61114,-0.746938
-581,-398,-5.2644,1.91797,0,0,0,0,0,0,0,-1,643,1422,-5.26439,-1.91792
-574,-398,-5.27734,2.67188,-0.0166217,0.0155313,0.0148264,0.0213243,-0.0224147,1.19831,0.0252554,0.0476043,650,1422,-5.27732,-2.67193
-567,-398,-5.42957,3.33679,-0.0133798,0.0114377,0.00896523,0.0143375,-0.0162796,1.25796,0.0176886,0.0447765,657,1422,-5.42953,-3.33683
-560,-398,-5.69189,4.07971,-0.0106799,0.00841522,0.00511617,0.00969961,-0.0119642,1.32483,0.0125304,0.0426493,664,1422,-5.69189,-4.0797
-553,-398,-5.62793,4.19324,-0.00831209,0.00616949,0.00271897,0.00666316,-0.00880576,1.39119,0.00895949,0.0358057,671,1422,-5.6279,-4.1933
-546,-398,-5.69885,4.36853,-0.0061917,0.00452267,0.00132257,0.00468352,-0.00635254,1.44978,0.00639591,0.016983,678,1422,-5.69884,-4.36851
-539,-398,-5.66498,4.67261,-0.00423243,0.00323907,0.000602906,0.00328741,-0.00428077,1.49079,0.00438202,0.0123788,685,1422,-5.665,-4.67256
-532,-398,-5.65173,4.96362,-0.00241517,0.00205413,-6.43286e-06,0.00205414,-0.00241518,-1.56936,0.00258317,0.0197747,692,1422,-5.65174,-4.9636
-525,-398,-5.64386,5.2356,-0.000752534,0.00135546,0.000240489,0.00138254,-0.000779622,1.45863,0.0012644,0.0193479,699,1422,-5.64384,-5.23566
-518,-398,-5.66028,5.49109,0.000888355,0.000377323,0.00023408,0.000979368,0.000286311,0.370822,0.000581466,0.0176308,706,1422,-5.66027,-5.49114
-511,-398,-5.69012,5.74097,0.00190966,-0.00062373,2.8499e-05,0.00190998,-0.000624051,0.0112475,0.00152452,0.0133355,713,1422,-5.69012,-5.74092
-504,-398,-5.70416,6.02319,0.00182958,-0.0018957,-0.000590936,0.00192107,-0.00198719,-0.153606,0.00225655,0.0130015,720,1422,-5.70413,-6.02325
-497,-398,-5.7016,6.30786,0.0018424,-0.00330443,-0.00125348,0.00213145,-0.00359348,-0.226633,0.00334102,0.00941311,727,1422,-5.70161,-6.30784
-490,-398,-5.6969,6.60217,0.000778259,-0.00509552,-0.00277985,0.00188524,-0.00620251,-0.378968,0.00488619,0.0105778,734,1422,-5.69691,-6.60214
-483,-398,-5.57892,6.95056,-0.0012973,-0.00752075,-0.00491128,0.00140505,-0.0102231,-0.503023,0.00732878,0.024617,741,1422,-5.57893,-6.95054
-476,-398,-5.28693,7.26428,0,0,0,0,0,0,0,-1,748,1422,-5.28695,-7.26429
-469,-398,-5.54877,7.28381,0,0,0,0,0,0,0,-1,755,1422,-5.54877,-7.28377
-462,-398,-5.98248,6.97974,0,0,0,0,0,0,0,-1,762,1422,-5.98246,-6.97979
-455,-398,-7.46521,7.30774,0,0,0,0,0,0,0,-1,769,1422,-7.46523,-7.30778
-448,-398,-7.4505,5.25293,0,0,0,0,0,0,0,-1,776,1422,-7.4505,-5.25291
-441,-398,-7.61639,3.32141,0,0,0,0,0,0,0,-1,783,1422,-7.61637,-3.32145
-434,-398,-10.7618,3.297,0,0,0,0,0,0,0,-1,790,1422,-10.7618,-3.29704
-427,-398,-11.9061,2.24939,0,0,0,0,0,0,0,-1,797,1422,-11.9061,-2.24941
-420,-398,-13.467,2.32788,0,0,0,0,0,0,0,-1,804,1422,-13.467,-2.32787
-413,-398,-14.7983,2.15515,0,0,0,0,0,0,0,-1,811,1422,-14.7983,-2.15516
-406,-398,0,0,0,0,0,0,0,0,0,-1,818,1422,0,0
-399,-398,0,0,0,0,0,0,0,0,0,-1,825,1422,0,0
-392,-398,0,0,0,0,0,0,0,0,0,-1,832,1422,0,0
-385,-398,0,0,0,0,0,0,0,0,0,-1,839,1422,0,0
-378,-398,0,0,0,0,0,0,0,0,0,-1,846,1422,0,0
-371,-398,0,0,0,0,0,0,0,0,0,-1,853,1422,0,0
-364,-398,0,0,0,0,0,0,0,0,0,-1,860,1422,0,0
-357,-398,0,0,0,0,0,0,0,0,0,-1,867,1422,0,0
-350,-398,0,0,0,0,0,0,0,0,0,-1,874,1422,0,0
-343,-398,0,0,0,0,0,0,0,0,0,-1,881,1422,0,0
-336,-398,0,0,0,0,0,0,0,0,0,-1,888,1422,0,0
-329,-398,0,0,0,0,0,0,0,0,0,-1,895,1422,0,0
-322,-398,0,0,0,0,0,0,0,0,0,-1,902,1422,0,0
-315,-398,0,0,0,0,0,0,0,0,0,-1,909,1422,0,0
-308,-398,0,0,0,0,0,0,0,0,0,-1,916,1422,0,0
-301,-398,0,0,0,0,0,0,0,0,0,-1,923,1422,0,0
-294,-398,0,0,0,0,0,0,0,0,0,-1,930,1422,0,0
-287,-398,0,0,0,0,0,0,0,0,0,-1,937,1422,0,0
-280,-398,0,0,0,0,0,0,0,0,0,-1,944,1422,0,0
-273,-398,0,0,0,0,0,0,0,0,0,-1,951,1422,0,0
-266,-398,0,0,0,0,0,0,0,0,0,-1,958,1422,0,0
-259,-398,0,0,0,0,0,0,0,0,0,-1,965,1422,0,0
-252,-398,0,0,0,0,0,0,0,0,0,-1,972,1422,0,0
-245,-398,0,0,0,0,0,0,0,0,0,-1,979,1422,0,0
-238,-398,0,0,0,0,0,0,0,0,0,-1,986,1422,0,0
-231,-398,0,0,0,0,0,0,0,0,0,-1,993,1422,0,0
-224,-398,0,0,0,0,0,0,0,0,0,-1,1000,1422,0,0
-217,-398,0,0,0,0,0,0,0,0,0,-1,1007,1422,0,0
-210,-398,0,0,0,0,0,0,0,0,0,-1,1014,1422,0,0
-203,-398,0,0,0,0,0,0,0,0,0,-1,1021,1422,0,0
-196,-398,0,0,0,0,0,0,0,0,0,-1,1028,1422,0,0
-189,-398,0,0,0,0,0,0,0,0,0,-1,1035,1422,0,0
-182,-398,0,0,0,0,0,0,0,0,0,-1,1042,1422,0,0
-175,-398,0,0,0,0,0,0,0,0,0,-1,1049,1422,0,0
-168,-398,0,0,0,0,0,0,0,0,0,-1,1056,1422,0,0
-161,-398,0,0,0,0,0,0,0,0,0,-1,1063,1422,0,0
-154,-398,0,0,0,0,0,0,0,0,0,-1,1070,1422,0,0
-147,-398,0,0,0,0,0,0,0,0,0,-1,1077,1422,0,0
-140,-398,0,0,0,0,0,0,0,0,0,-1,1084,1422,0,0
-133,-398,0,0,0,0,0,0,0,0,0,-1,1091,1422,0,0
-126,-398,0,0,0,0,0,0,0,0,0,-1,1098,1422,0,0
-119,-398,0,0,0,0,0,0,0,0,0,-1,1105,1422,0,0
-112,-398,0,0,0,0,0,0,0,0,0,-1,1112,1422,0,0
-105,-398,0,0,0,0,0,0,0,0,0,-1,1119,1422,0,0
-98,-398,0,0,0,0,0,0,0,0,0,-1,1126,1422,0,0
-91,-398,0,0,0,0,0,0,0,0,0,-1,1133,1422,0,0
-84,-398,0,0,0,0,0,0,0,0,0,-1,1140,1422,0,0
-77,-398,0,0,0,0,0,0,0,0,0,-1,1147,1422,0,0
-70,-398,0,0,0,0,0,0,0,0,0,-1,1154,1422,0,0
-63,-398,0,0,0,0,0,0,0,0,0,-1,1161,1422,0,0
-56,-398,0,0,0,0,0,0,0,0,0,-1,1168,1422,0,0
-49,-398,0,0,0,0,0,0,0,0,0,-1,1175,1422,0,0
-42,-398,0,0,0,0,0,0,0,0,0,-1,1182,1422,0,0
-35,-398,0,0,0,0,0,0,0,0,0,-1,1189,1422,0,0
-28,-398,0,0,0,0,0,0,0,0,0,-1,1196,1422,0,0
-21,-398,0,0,0,0,0,0,0,0,0,-1,1203,1422,0,0
-14,-398,0,0,0,0,0,0,0,0,0,-1,1210,1422,0,0
-7,-398,0,0,0,0,0,0,0,0,0,-1,1217,1422,0,0
0,-398,0,0,0,0,0,0,0,0,0,-1,1224,1422,0,0
7,-398,0,0,0,0,0,0,0,0,0,-1,1231,1422,0,0
14,-398,0,0,0,0,0,0,0,0,0,-1,1238,1422,0,0
21,-398,0,0,0,0,0,0,0,0,0,-1,1245,1422,0,0
28,-398,0,0,0,0,0,0,0,0,0,-1,1252,1422,0,0
35,-398,0,0,0,0,0,0,0,0,0,-1,1259,1422,0,0
42,-398,0,0,0,0,0,0,0,0,0,-1,1266,1422,0,0
49,-398,0,0,0,0,0,0,0,0,0,-1,1273,1422,0,0
56,-398,0,0,0,0,0,0,0,0,0,-1,1280,1422,0,0
63,-398,0,0,0,0,0,0,0,0,0,-1,1287,1422,0,0
70,-398,0,0,0,0,0,0,0,0,0,-1,1294,1422,0,0
77,-398,0,0,0,0,0,0,0,0,0,-1,1301,1422,0,0
84,-398,0,0,0,0,0,0,0,0,0,-1,1308,1422,0,0
91,-398,0,0,0,0,0,0,0,0,0,-1,1315,1422,0,0
98,-398,0,0,0,0,0,0,0,0,0,-1,1322,1422,0,0
105,-398,0,0,0,0,0,0,0,0,0,-1,1329,1422,0,0
112,-398,0,0,0,0,0,0,0,0,0,-1,1336,1422,0,0
119,-398,0,0,0,0,0,0,0,0,0,-1,1343,1422,0,0
126,-398,0,0,0,0,0,0,0,0,0,-1,1350,1422,0,0
133,-398,0,0,0,0,0,0,0,0,0,-1,1357,1422,0,0
140,-398,0,0,0,0,0,0,0,0,0,-1,1364,1422,0,0
147,-398,0,0,0,0,0,0,0,0,0,-1,1371,1422,0,0
154,-398,0,0,0,0,0,0,0,0,0,-1,1378,1422,0,0
161,-398,0,0,0,0,0,0,0,0,0,-1,1385,1422,0,0
168,-398,0,0,0,0,0,0,0,0,0,-1,1392,1422,0,0
175,-398,0,0,0,0,0,0,0,0,0,-1,1399,1422,0,0
182,-398,0,0,0,0,0,0,0,0,0,-1,1406,1422,0,0
189,-398,0,0,0,0,0,0,0,0,0,-1,1413,1422,0,0
196,-398,0,0,0,0,0,0,0,0,0,-1,1420,1422,0,0
203,-398,0,0,0,0,0,0,0,0,0,-1,1427,1422,0,0
210,-398,0,0,0,0,0,0,0,0,0,-1,1434,1422,0,0
217,-398,0,0,0,0,0,0,0,0,0,-1,1441,1422,0,0
224,-398,0,0,0,0,0,0,0,0,0,-1,1448,1422,0,0
231,-398,0,0,0,0,0,0,0,0,0,-1,1455,1422,0,0
238,-398,0,0,0,0,0,0,0,0,0,-1,1462,1422,0,0
245,-398,0,0,0,0,0,0,0,0,0,-1,1469,1422,0,0
252,-398,0,0,0,0,0,0,0,0,0,-1,1476,1422,0,0
259,-398,0,0,0,0,0,0,0,0,0,-1,1483,1422,0,0
266,-398,0,0,0,0,0,0,0,0,0,-1,1490,1422,0,0
273,-398,0,0,0,0,0,0,0,0,0,-1,1497,1422,0,0
280,-398,0,0,0,0,0,0,0,0,0,-1,1504,1422,0,0
287,-398,0,0,0,0,0,0,0,0,0,-1,1511,1422,0,0
294,-398,0,0,0,0,0,0,0,0,0,-1,1518,1422,0,0
301,-398,0,0,0,0,0,0,0,0,0,-1,1525,1422,0,0
308,-398,0,0,0,0,0,0,0,0,0,-1,1532,1422,0,0
315,-398,0,0,0,0,0,0,0,0,0,-1,1539,1422,0,0
322,-398,0,0,0,0,0,0,0,0,0,-1,1546,1422,0,0
329,-398,0,0,0,0,0,0,0,0,0,-1,1553,1422,0,0
336,-398,0,0,0,0,0,0,0,0,0,-1,1560,1422,0,0
343,-398,0,0,0,0,0,0,0,0,0,-1,1567,1422,0,0
350,-398,0,0,0,0,0,0,0,0,0,-1,1574,1422,0,0
357,-398,0,0,0,0,0,0,0,0,0,-1,1581,1422,0,0
364,-398,0,0,0,0,0,0,0,0,0,-1,1588,1422,0,0
371,-398,0,0,0,0,0,0,0,0,0,-1,1595,1422,0,0
378,-398,0,0,0,0,0,0,0,0,0,-1,1602,1422,0,0
385,-398,0,0,0,0,0,0,0,0,0,-1,1609,1422,0,0
392,-398,0,0,0,0,0,0,0,0,0,-1,1616,1422,0,0
399,-398,0,0,0,0,0,0,0,0,0,-1,1623,1422,0,0
406,-398,0,0,0,0,0,0,0,0,0,-1,1630,1422,0,0
413,-398,0,0,0,0,0,0,0,0,0,-1,1637,1422,0,0
420,-398,0,0,0,0,0,0,0,0,0,-1,1644,1422,0,0
427,-398,0,0,0,0,0,0,0,0,0,-1,1651,1422,0,0
434,-398,0,0,0,0,0,0,0,0,0,-1,1658,1422,0,0
441,-398,0,0,0,0,0,0,0,0,0,-1,1665,1422,0,0
448,-398,0,0,0,0,0,0,0,0,0,-1,1672,1422,0,0
455,-398,0,0,0,0,0,0,0,0,0,-1,1679,1422,0,0
462,-398,0,0,0,0,0,0,0,0,0,-1,1686,1422,0,0
469,-398,0,0,0,0,0,0,0,0,0,-1,1693,1422,0,0
476,-398,0,0,0,0,0,0,0,0,0,-1,1700,1422,0,0
483,-398,0,0,0,0,0,0,0,0,0,-1,1707,1422,0,0
490,-398,0,0,0,0,0,0,0,0,0,-1,1714,1422,0,0
497,-398,0,0,0,0,0,0,0,0,0,-1,1721,1422,0,0
504,-398,0,0,0,0,0,0,0,0,0,-1,1728,1422,0,0
511,-398,0,0,0,0,0,0,0,0,0,-1,1735,1422,0,0
518,-398,0,0,0,0,0,0,0,0,0,-1,1742,1422,0,0
525,-398,0,0,0,0,0,0,0,0,0,-1,1749,1422,0,0
532,-398,23.488,1.61963,0,0,0,0,0,0,0,-1,1756,1422,23.4881,-1.61959
539,-398,21.8323,1.8689,0,0,0,0,0,0,0,-1,1763,1422,21.8322,-1.86887
546,-398,20.865,2.10522,0,0,0,0,0,0,0,-1,1770,1422,20.865,-2.10518
553,-398,19.873,2.31494,0,0,0,0,0,0,0,-1,1777,1422,19.873,-2.31496
560,-398,18.7664,2.58093,0,0,0,0,0,0,0,-1,1784,1422,18.7664,-2.58089
567,-398,17.8256,3.19897,0,0,0,0,0,0,0,-1,1791,1422,17.8255,-3.199
574,-398,17.1724,3.84631,0,0,0,0,0,0,0,-1,1798,1422,17.1723,-3.84628
581,-398,16.6462,4.40747,0,0,0,0,0,0,0,-1,1805,1422,16.6463,-4.40747
588,-398,18.2119,6.75757,0,0,0,0,0,0,0,-1,1812,1422,18.2119,-6.75756
595,-398,18.062,7.2041,0,0,0,0,0,0,0,-1,1819,1422,18.062,-7.20405
602,-398,15.9969,8.29285,0,0,0,0,0,0,0,-1,1826,1422,15.997,-8.29289
609,-398,14.7557,8.82703,0,0,0,0,0,0,0,-1,1833,1422,14.7558,-8.82706
616,-398,14.6876,8.54346,-0.0251561,-0.0157939,0.0160139,-0.00379096,-0.037159,0.927594,0.0236107,0.0227667,1840,1422,14.6876,-8.54349
623,-398,14.634,8.31128,-0.0174125,-0.0111604,0.0112698,-0.00259114,-0.0259817,0.920688,0.0165253,0.0114799,1847,1422,14.6341,-8.31125
630,-398,14.6648,8.05713,-0.0111574,-0.00759535,0.00739431,-0.00177061,-0.0169822,0.903581,0.0107798,0.0119526,1854,1422,14.6648,-8.05718
637,-398,14.6722,7.83569,-0.00728924,-0.00517698,0.00502683,-0.00109653,-0.0113697,0.888941,0.007242,0.01387,1861,1422,14.6723,-7.83567
644,-398,14.593,7.61487,-0.00481879,-0.00335286,0.00355793,-0.000453184,-0.00771847,0.886981,0.00500143,0.0201282,1868,1422,14.593,-7.61492
651,-398,14.6072,7.40381,-0.00263502,-0.00206857,0.00228633,-4.7988e-05,-0.0046556,0.847022,0.00308786,0.0266023,1875,1422,14.6072,-7.40381
658,-398,14.655,7.16833,-0.0022405,-0.00147001,0.00222141,0.000399315,-0.00410983,0.871256,0.00288223,0.0197701,1882,1422,14.655,-7.16829
665,-398,14.6588,6.87024,-0.00304259,-0.00141068,0.0028394,0.000727684,-0.00518095,0.925312,0.00372033,0.0135906,1889,1422,14.6588,-6.87022
672,-398,14.6592,6.62097,-0.00431386,-0.00164875,0.00369696,0.000948479,-0.00691109,0.958374,0.00495391,0.0127462,1896,1422,14.6591,-6.62097
679,-398,14.6552,6.37024,-0.0058643,-0.00224012,0.00480106,0.00107945,-0.00918386,0.96585,0.00651228,0.0113583,1903,1422,14.6551,-6.3702
686,-398,14.6724,6.11743,-0.00808134,-0.00374885,0.00647016,0.000908072,-0.0127383,0.946936,0.00881048,0.02,1910,1422,14.6723,-6.11747
693,-398,14.6249,6.12183,0,0,0,0,0,0,0,-1,1917,1422,14.6248,-6.12188
700,-398,14.0787,6.53918,0,0,0,0,0,0,0,-1,1924,1422,14.0787,-6.53921
707,-398,10.9731,5.479,0,0,0,0,0,0,0,-1,1931,1422,10.9732,-5.47896
714,-398,11.7313,6.17346,0,0,0,0,0,0,0,-1,1938,1422,11.7313,-6.17348
721,-398,13.9371,8.05103,0,0,0,0,0,0,0,-1,1945,1422,13.9372,-8.05102
728,-398,14.786,7.0282,0,0,0,0,0,0,0,-1,1952,1422,14.786,-7.0282
735,-398,0,0,0,0,0,0,0,0,0,-1,1959,1422,0,0
742,-398,0,0,0,0,0,0,0,0,0,-1,1966,1422,0,0
749,-398,0,0,0,0,0,0,0,0,0,-1,1973,1422,0,0
756,-398,0,0,0,0,0,0,0,0,0,-1,1980,1422,0,0
763,-398,0,0,0,0,0,0,0,0,0,-1,1987,1422,0,0
770,-398,0,0,0,0,0,0,0,0,0,-1,1994,1422,0,0
777,-398,0,0,0,0,0,0,0,0,0,-1,2001,1422,0,0
784,-398,0,0,0,0,0,0,0,0,0,-1,2008,1422,0,0
791,-398,0,0,0,0,0,0,0,0,0,-1,2015,1422,0,0
798,-398,0,0,0,0,0,0,0,0,0,-1,2022,1422,0,0
805,-398,0,0,0,0,0,0,0,0,0,-1,2029,1422,0,0
812,-398,0,0,0,0,0,0,0,0,0,-1,2036,1422,0,0
-700,-405,0,0,0,0,0,0,0,0,0,-1,524,1429,0,0
-693,-405,0,0,0,0,0,0,0,0,0,-1,531,1429,0,0
-686,-405,0,0,0,0,0,0,0,0,0,-1,538,1429,0,0
-679,-405,0,0,0,0,0,0,0,0,0,-1,545,1429,0,0
-672,-405,0,0,0,0,0,0,0,0,0,-1,552,1429,0,0
-665,-405,0,0,0,0,0,0,0,0,0,-1,559,1429,0,0
-658,-405,0,0,0,0,0,0,0,0,0,-1,566,1429,0,0
-651,-405,0,0,0,0,0,0,0,0,0,-1,573,1429,0,0
-644,-405,0,0,0,0,0,0,0,0,0,-1,580,1429,0,0
-637,-405,0,0,0,0,0,0,0,0,0,-1,587,1429,0,0
-630,-405,0,0,0,0,0,0,0,0,0,-1,594,1429,0,0
-623,-405,0,0,0,0,0,0,0,0,0,-1,601,1429,0,0
-616,-405,0,0,0,0,0,0,0,0,0,-1,608,1429,0,0
-609,-405,0,0,0,0,0,0,0,0,0,-1,615,1429,0,0
-602,-405,-5.80988,-3.46594,0,0,0,0,0,0,0,-1,622,1429,-5.80987,3.46592
-595,-405,-9.35413,2.01477,0,0,0,0,0,0,0,-1,629,1429,-9.35411,-2.01476
-588,-405,-7.35693,0.507202,0,0,0,0,0,0,0,-1,636,1429,-7.35696,-0.507187
-581,-405,-5.81323,0.708984,0,0,0,0,0,0,0,-1,643,1429,-5.81325,-0.708986
-574,-405,-5.09467,2.51709,0,0,0,0,0,0,0,-1,650,1429,-5.09466,-2.5171
-567,-405,-6.39093,4.04529,0,0,0,0,0,0,0,-1,657,1429,-6.39092,-4.04532
-560,-405,-5.86029,4.03052,-0.0105794,0.0113178,0.00716706,0.013455,-0.0127166,1.28099,0.0151122,0.0498087,664,1429,-5.86028,-4.03056
-553,-405,-5.18713,4.15955,-0.0083043,0.00842818,0.00411479,0.00938532,-0.00926145,1.34225,0.0107658,0.0495635,671,1429,-5.18712,-4.15955
-546,-405,-5.39856,4.35547,-0.00629179,0.00631772,0.00229669,0.00672301,-0.00669708,1.39613,0.0077481,0.0263843,678,1429,-5.39858,-4.35546
-539,-405,-5.40338,4.65234,-0.00444788,0.00466512,0.00129757,0.00484628,-0.00462903,1.43208,0.00547105,0.0114425,685,1429,-5.40337,-4.6523
-532,-405,-5.39746,4.93579,-0.00276138,0.00320509,0.000479988,0.00324346,-0.00279974,1.49103,0.00349218,0.0149018,692,1429,-5.39744,-4.93583
-525,-405,-5.39337,5.23181,-0.0012512,0.00226032,0.000546105,0.00234329,-0.00133417,1.42002,0.00214966,0.0148611,699,1429,-5.3934,-5.23177
-518,-405,-5.37939,5.50671,0.000240555,0.0010992,0.000376132,0.00124066,9.90941e-05,1.21107,0.000796134,0.0157141,706,1429,-5.37937,-5.50668
-511,-405,-5.39844,5.76111,0.00112758,-7.99748e-06,6.16551e-05,0.00113092,-1.13352e-05,0.0540821,0.000757751,0.0147113,713,1429,-5.39844,-5.76107
-504,-405,-5.41077,6.02429,0.000867642,-0.00130564,-0.000664515,0.00105472,-0.00149272,-0.274427,0.001478,0.0153452,720,1429,-5.41079,-6.02426
-497,-405,-5.3974,6.3313,0.000742588,-0.00269173,-0.00133467,0.00120028,-0.00314942,-0.330359,0.00259399,0.0130941,727,1429,-5.39742,-6.33133
-490,-405,-5.40918,6.62061,-0.000196676,-0.00439758,-0.00271525,0.00113572,-0.00572998,-0.456188,0.00424945,0.0112503,734,1429,-5.40919,-6.62058
-483,-405,-5.37817,6.89856,-0.00206489,-0.00659504,-0.00471248,0.000898618,-0.00955855,-0.561372,0.00669205,0.0118913,741,1429,-5.37814,-6.89854
-476,-405,-5.32294,7.14722,-0.00484189,-0.00943197,-0.00738551,0.000596955,-0.0148708,-0.634754,0.0101187,0.0295965,748,1429,-5.32295,-7.14724
-469,-405,-5.42188,7.32178,-0.00894444,-0.0132003,-0.0111377,0.000266808,-0.0224115,-0.691008,0.0150307,0.0414638,755,1429,-5.42189,-7.32173
-462,-405,-5.52509,7.22473,-0.0152007,-0.0182662,-0.0165437,-0.000118975,-0.033348,-0.739206,0.0221925,0.0482306,762,1429,-5.52508,-7.22468
-455,-405,-5.63007,7.35876,0,0,0,0,0,0,0,-1,769,1429,-5.63007,-7.35873
-448,-405,-6.44812,6.12097,0,0,0,0,0,0,0,-1,776,1429,-6.44811,-6.12098
-441,-405,-6.6712,4.23767,0,0,0,0,0,0,0,-1,783,1429,-6.67121,-4.23764
-434,-405,-9.62549,3.94189,0,0,0,0,0,0,0,-1,790,1429,-9.62546,-3.94191
-427,-405,-10.9764,3.73926,0,0,0,0,0,0,0,-1,797,1429,-10.9764,-3.73923
-420,-405,-12.1187,3.68506,0,0,0,0,0,0,0,-1,804,1429,-12.1187,-3.68512
-413,-405,-13.5353,3.75659,0,0,0,0,0,0,0,-1,811,1429,-13.5353,-3.75655
-406,-405,-14.7374,3.99817,0,0,0,0,0,0,0,-1,818,1429,-14.7374,-3.99814
-399,-405,0,0,0,0,0,0,0,0,0,-1,825,1429,0,0
-392,-405,0,0,0,0,0,0,0,0,0,-1,832,1429,0,0
-385,-405,0,0,0,0,0,0,0,0,0,-1,839,1429,0,0
-378,-405,0,0,0,0,0,0,0,0,0,-1,846,1429,0,0
-371,-405,0,0,0,0,0,0,0,0,0,-1,853,1429,0,0
-364,-405,0,0,0,0,0,0,0,0,0,-1,860,1429,0,0
-357,-405,0,0,0,0,0,0,0,0,0,-1,867,1429,0,0
-350,-405,0,0,0,0,0,0,0,0,0,-1,874,1429,0,0
-343,-405,0,0,0,0,0,0,0,0,0,-1,881,1429,0,0
-336,-405,0,0,0,0,0,0,0,0,0,-1,888,1429,0,0
-329,-405,0,0,0,0,0,0,0,0,0,-1,895,1429,0,0
-322,-405,0,0,0,0,0,0,0,0,0,-1,902,1429,0,0
-315,-405,0,0,0,0,0,0,0,0,0,-1,909,1429,0,0
-308,-405,0,0,0,0,0,0,0,0,0,-1,916,1429,0,0
-301,-405,0,0,0,0,0,0,0,0,0,-1,923,1429,0,0
-294,-405,0,0,0,0,0,0,0,0,0,-1,930,1429,0,0
-287,-405,0,0,0,0,0,0,0,0,0,-1,937,1429,0,0
-280,-405,0,0,0,0,0,0,0,0,0,-1,944,1429,0,0
-273,-405,0,0,0,0,0,0,0,0,0,-1,951,1429,0,0
-266,-405,0,0,0,0,0,0,0,0,0,-1,958,1429,0,0
-259,-405,0,0,0,0,0,0,0,0,0,-1,965,1429,0,0
-252,-405,0,0,0,0,0,0,0,0,0,-1,972,1429,0,0
-245,-405,0,0,0,0,0,0,0,0,0,-1,979,1429,0,0
-238,-405,0,0,0,0,0,0,0,0,0,-1,986,1429,0,0
-231,-405,0,0,0,0,0,0,0,0,0,-1,993,1429,0,0
-224,-405,0,0,0,0,0,0,0,0,0,-1,1000,1429,0,0
-217,-405,0,0,0,0,0,0,0,0,0,-1,1007,1429,0,0
-210,-405,0,0,0,0,0,0,0,0,0,-1,1014,1429,0,0
-203,-405,0,0,0,0,0,0,0,0,0,-1,1021,1429,0,0
-196,-405,0,0,0,0,0,0,0,0,0,-1,1028,1429,0,0
-189,-405,0,0,0,0,0,0,0,0,0,-1,1035,1429,0,0
-182,-405,0,0,0,0,0,0,0,0,0,-1,1042,1429,0,0
-175,-405,0,0,0,0,0,0,0,0,0,-1,1049,1429,0,0
-168,-405,0,0,0,0,0,0,0,0,0,-1,1056,1429,0,0
-161,-405,0,0,0,0,0,0,0,0,0,-1,1063,1429,0,0
-154,-405,0,0,0,0,0,0,0,0,0,-1,1070,1429,0,0
-147,-405,0,0,0,0,0,0,0,0,0,-1,1077,1429,0,0
-140,-405,0,0,0,0,0,0,0,0,0,-1,1084,1429,0,0
-133,-405,0,0,0,0,0,0,0,0,0,-1,1091,1429,0,0
-126,-405,0,0,0,0,0,0,0,0,0,-1,1098,1429,0,0
-119,-405,0,0,0,0,0,0,0,0,0,-1,1105,1429,0,0
-112,-405,0,0,0,0,0,0,0,0,0,-1,1112,1429,0,0
-105,-405,0,0,0,0,0,0,0,0,0,-1,1119,1429,0,0
-98,-405,0,0,0,0,0,0,0,0,0,-1,1126,1429,0,0
-91,-405,0,0,0,0,0,0,0,0,0,-1,1133,1429,0,0
-84,-405,0,0,0,0,0,0,0,0,0,-1,1140,1429,0,0
-77,-405,0,0,0,0,0,0,0,0,0,-1,1147,1429,0,0
-70,-405,0,0,0,0,0,0,0,0,0,-1,1154,1429,0,0
-63,-405,0,0,0,0,0,0,0,0,0,-1,1161,1429,0,0
-56,-405,0,0,0,0,0,0,0,0,0,-1,1168,1429,0,0
-49,-405,0,0,0,0,0,0,0,0,0,-1,1175,1429,0,0
-42,-405,0,0,0,0,0,0,0,0,0,-1,1182,1429,0,0
-35,-405,0,0,0,0,0,0,0,0,0,-1,1189,1429,0,0
-28,-405,0,0,0,0,0,0,0,0,0,-1,1196,1429,0,0
-21,-405,0,0,0,0,0,0,0,0,0,-1,1203,1429,0,0
-14,-405,0,0,0,0,0,0,0,0,0,-1,1210,1429,0,0
-7,-405,0,0,0,0,0,0,0,0,0,-1,1217,1429,0,0
0,-405,0,0,0,0,0,0,0,0,0,-1,1224,1429,0,0
7,-405,0,0,0,0,0,0,0,0,0,-1,1231,1429,0,0
14,-405,0,0,0,0,0,0,0,0,0,-1,1238,1429,0,0
21,-405,0,0,0,0,0,0,0,0,0,-1,1245,1429,0,0
28,-405,0,0,0,0,0,0,0,0,0,-1,1252,1429,0,0
35,-405,0,0,0,0,0,0,0,0,0,-1,1259,1429,0,0
42,-405,0,0,0,0,0,0,0,0,0,-1,1266,1429,0,0
49,-405,0,0,0,0,0,0,0,0,0,-1,1273,1429,0,0
56,-405,0,0,0,0,0,0,0,0,0,-1,1280,1429,0,0
63,-405,0,0,0,0,0,0,0,0,0,-1,1287,1429,0,0
70,-405,0,0,0,0,0,0,0,0,0,-1,1294,1429,0,0
77,-405,0,0,0,0,0,0,0,0,0,-1,1301,1429,0,0
84,-405,0,0,0,0,0,0,0,0,0,-1,1308,1429,0,0
91,-405,0,0,0,0,0,0,0,0,0,-1,1315,1429,0,0
98,-405,0,0,0,0,0,0,0,0,0,-1,1322,1429,0,0
105,-405,0,0,0,0,0,0,0,0,0,-1,1329,1429,0,0
112,-405,0,0,0,0,0,0,0,0,0,-1,1336,1429,0,0
119,-405,0,0,0,0,0,0,0,0,0,-1,1343,1429,0,0
126,-405,0,0,0,0,0,0,0,0,0,-1,1350,1429,0,0
133,-405,0,0,0,0,0,0,0,0,0,-1,1357,1429,0,0
140,-405,0,0,0,0,0,0,0,0,0,-1,1364,1429,0,0
147,-405,0,0,0,0,0,0,0,0,0,-1,1371,1429,0,0
154,-405,0,0,0,0,0,0,0,0,0,-1,1378,1429,0,0
161,-405,0,0,0,0,0,0,0,0,0,-1,1385,1429,0,0
168,-405,0,0,0,0,0,0,0,0,0,-1,1392,1429,0,0
175,-405,0,0,0,0,0,0,0,0,0,-1,1399,1429,0,0
182,-405,0,0,0,0,0,0,0,0,0,-1,1406,1429,0,0
189,-405,0,0,0,0,0,0,0,0,0,-1,1413,1429,0,0
196,-405,0,0,0,0,0,0,0,0,0,-1,1420,1429,0,0
203,-405,0,0,0,0,0,0,0,0,0,-1,1427,1429,0,0
210,-405,0,0,0,0,0,0,0,0,0,-1,1434,1429,0,0
217,-405,0,0,0,0,0,0,0,0,0,-1,1441,1429,0,0
224,-405,0,0,0,0,0,0,0,0,0,-1,1448,1429,0,0
231,-405,0,0,0,0,0,0,0,0,0,-1,1455,1429,0,0
238,-405,0,0,0,0,0,0,0,0,0,-1,1462,1429,0,0
245,-405,0,0,0,0,0,0,0,0,0,-1,1469,1429,0,0
252,-405,0,0,0,0,0,0,0,0,0,-1,1476,1429,0,0
259,-405,0,0,0,0,0,0,0,0,0,-1,1483,1429,0,0
266,-405,0,0,0,0,0,0,0,0,0,-1,1490,1429,0,0
273,-405,0,0,0,0,0,0,0,0,0,-1,1497,1429,0,0
280,-405,0,0,0,0,0,0,0,0,0,-1,1504,1429,0,0
287,-405,0,0,0,0,0,0,0,0,0,-1,1511,1429,0,0
294,-405,0,0,0,0,0,0,0,0,0,-1,1518,1429,0,0
301,-405,0,0,0,0,0,0,0,0,0,-1,1525,1429,0,0
308,-405,0,0,0,0,0,0,0,0,0,-1,1532,1429,0,0
315,-405,0,0,0,0,0,0,0,0,0,-1,1539,1429,0,0
322,-405,0,0,0,0,0,0,0,0,0,-1,1546,1429,0,0
329,-405,0,0,0,0,0,0,0,0,0,-1,1553,1429,0,0
336,-405,0,0,0,0,0,0,0,0,0,-1,1560,1429,0,0
343,-405,0,0,0,0,0,0,0,0,0,-1,1567,1429,0,0
350,-405,0,0,0,0,0,0,0,0,0,-1,1574,1429,0,0
357,-405,0,0,0,0,0,0,0,0,0,-1,1581,1429,0,0
364,-405,0,0,0,0,0,0,0,0,0,-1,1588,1429,0,0
371,-405,0,0,0,0,0,0,0,0,0,-1,1595,1429,0,0
378,-405,0,0,0,0,0,0,0,0,0,-1,1602,1429,0,0
385,-405,0,0,0,0,0,0,0,0,0,-1,1609,1429,0,0
392,-405,0,0,0,0,0,0,0,0,0,-1,1616,1429,0,0
399,-405,0,0,0,0,0,0,0,0,0,-1,1623,1429,0,0
406,-405,0,0,0,0,0,0,0,0,0,-1,1630,1429,0,0
413,-405,0,0,0,0,0,0,0,0,0,-1,1637,1429,0,0
420,-405,0,0,0,0,0,0,0,0,0,-1,1644,1429,0,0
427,-405,0,0,0,0,0,0,0,0,0,-1,1651,1429,0,0
434,-405,0,0,0,0,0,0,0,0,0,-1,1658,1429,0,0
441,-405,0,0,0,0,0,0,0,0,0,-1,1665,1429,0,0
448,-405,0,0,0,0,0,0,0,0,0,-1,1672,1429,0,0
455,-405,0,0,0,0,0,0,0,0,0,-1,1679,1429,0,0
462,-405,0,0,0,0,0,0,0,0,0,-1,1686,1429,0,0
469,-405,0,0,0,0,0,0,0,0,0,-1,1693,1429,0,0
476,-405,0,0,0,0,0,0,0,0,0,-1,1700,1429,0,0
483,-405,0,0,0,0,0,0,0,0,0,-1,1707,1429,0,0
490,-405,0,0,0,0,0,0,0,0,0,-1,1714,1429,0,0
497,-405,0,0,0,0,0,0,0,0,0,-1,1721,1429,0,0
504,-405,0,0,0,0,0,0,0,0,0,-1,1728,1429,0,0
511,-405,0,0,0,0,0,0,0,0,0,-1,1735,1429,0,0
518,-405,0,0,0,0,0,0,0,0,0,-1,1742,1429,0,0
525,-405,14.6423,1.7583,0,0,0,0,0,0,0,-1,1749,1429,14.6424,-1.75824
532,-405,22.7542,1.85034,0,0,0,0,0,0,0,-1,1756,1429,22.7541,-1.85038
539,-405,21.1149,1.93384,0,0,0,0,0,0,0,-1,1763,1429,21.1149,-1.93381
546,-405,20.1537,2.11157,0,0,0,0,0,0,0,-1,1770,1429,20.1537,-2.11163
553,-405,19.1523,2.2356,0,0,0,0,0,0,0,-1,1777,1429,19.1523,-2.23566
560,-405,17.9702,2.44043,0,0,0,0,0,0,0,-1,1784,1429,17.9703,-2.44041
567,-405,16.8976,3.23425,0,0,0,0,0,0,0,-1,1791,1429,16.8976,-3.2343
574,-405,16.168,4.06287,0,0,0,0,0,0,0,-1,1798,1429,16.168,-4.06291
581,-405,15.5306,4.74963,0,0,0,0,0,0,0,-1,1805,1429,15.5306,-4.74958
588,-405,18.2679,7.79907,0,0,0,0,0,0,0,-1,1812,1429,18.268,-7.79906
595,-405,16.9281,8.08716,-0.062311,-0.0294283,0.0391746,-0.00338476,-0.0883545,0.984083,0.0578078,0.0453154,1819,1429,16.9282,-8.08715
602,-405,15.3412,8.59155,-0.0458607,-0.0218675,0.0287333,-0.00272692,-0.0650012,0.983156,0.0424544,0.0435078,1826,1429,15.3412,-8.59153
609,-405,14.4374,8.8009,-0.0330823,-0.0161066,0.0206836,-0.002237,-0.0469519,0.980103,0.0305829,0.0214569,1833,1429,14.4374,-8.80096
616,-405,14.3933,8.60681,-0.023266,-0.0118557,0.0145623,-0.00192084,-0.0332008,0.972097,0.0215222,0.00998724,1840,1429,14.3933,-8.60676
623,-405,14.3739,8.33606,-0.0156876,-0.00850424,0.00996616,-0.00150232,-0.0226895,0.958348,0.0146513,0.00956971,1847,1429,14.3738,-8.33602
630,-405,14.3937,8.07471,-0.0102657,-0.0058791,0.00665332,-0.0010669,-0.0150779,0.944618,0.00971587,0.0104183,1854,1429,14.3936,-8.07473
637,-405,14.4056,7.84778,-0.00687615,-0.00397753,0.00458142,-0.000621642,-0.010232,0.93859,0.00662388,0.0113096,1861,1429,14.4057,-7.84773
644,-405,14.3516,7.6571,-0.00472619,-0.00262299,0.00333487,-0.000177847,-0.00717133,0.938131,0.00472272,0.0299174,1868,1429,14.3515,-7.65708
651,-405,14.3455,7.41064,-0.00304163,-0.00156161,0.00236774,0.000179066,-0.00478231,0.936858,0.00324954,0.0323298,1875,1429,14.3454,-7.41061
658,-405,14.3719,7.16138,-0.00310734,-0.00113653,0.00257614,0.000636243,-0.00488011,0.968068,0.0034849,0.0215117,1882,1429,14.3719,-7.16139
665,-405,14.3995,6.87524,-0.00437919,-0.00119391,0.00347338,0.00103456,-0.00660766,1.00036,0.00478737,0.016804,1889,1429,14.3996,-6.87521
672,-405,14.4279,6.66931,-0.0062127,-0.00156581,0.00471557,0.00136765,-0.00914616,1.0143,0.00660072,0.022109,1896,1429,14.4279,-6.66936
679,-405,14.4417,6.36084,-0.00845475,-0.00234238,0.00629803,0.00160183,-0.012399,1.01129,0.00884838,0.0211637,1903,1429,14.4416,-6.36079
686,-405,14.3435,6.0481,-0.0116274,-0.00415093,0.00867103,0.00155335,-0.0173317,0.988919,0.0121055,0.0374069,1910,1429,14.3436,-6.04811
693,-405,14.2247,5.91138,0,0,0,0,0,0,0,-1,1917,1429,14.2247,-5.91144
700,-405,9.1958,4.02026,0,0,0,0,0,0,0,-1,1924,1429,9.19579,-4.02025
707,-405,7.40308,3.83191,0,0,0,0,0,0,0,-1,1931,1429,7.40311,-3.83194
714,-405,7.33252,3.47388,0,0,0,0,0,0,0,-1,1938,1429,7.33255,-3.47383
721,-405,9.23523,0.993896,0,0,0,0,0,0,0,-1,1945,1429,9.23523,-0.993884
728,-405,0,0,0,0,0,0,0,0,0,-1,1952,1429,0,0
735,-405,0,0,0,0,0,0,0,0,0,-1,1959,1429,0,0
742,-405,0,0,0,0,0,0,0,0,0,-1,1966,1429,0,0
749,-405,0,0,0,0,0,0,0,0,0,-1,1973,1429,0,0
756,-405,0,0,0,0,0,0,0,0,0,-1,1980,1429,0,0
763,-405,0,0,0,0,0,0,0,0,0,-1,1987,1429,0,0
770,-405,0,0,0,0,0,0,0,0,0,-1,1994,1429,0,0
777,-405,0,0,0,0,0,0,0,0,0,-1,2001,1429,0,0
784,-405,0,0,0,0,0,0,0,0,0,-1,2008,1429,0,0
791,-405,0,0,0,0,0,0,0,0,0,-1,2015,1429,0,0
798,-405,0,0,0,0,0,0,0,0,0,-1,2022,1429,0,0
805,-405,0,0,0,0,0,0,0,0,0,-1,2029,1429,0,0
812,-405,0,0,0,0,0,0,0,0,0,-1,2036,1429,0,0
-700,-412,0,0,0,0,0,0,0,0,0,-1,524,1436,0,0
-693,-412,0,0,0,0,0,0,0,0,0,-1,531,1436,0,0
-686,-412,0,0,0,0,0,0,0,0,0,-1,538,1436,0,0
-679,-412,0,0,0,0,0,0,0,0,0,-1,545,1436,0,0
-672,-412,0,0,0,0,0,0,0,0,0,-1,552,1436,0,0
-665,-412,0,0,0,0,0,0,0,0,0,-1,559,1436,0,0
-658,-412,0,0,0,0,0,0,0,0,0,-1,566,1436,0,0
-651,-412,0,0,0,0,0,0,0,0,0,-1,573,1436,0,0
-644,-412,0,0,0,0,0,0,0,0,0,-1,580,1436,0,0
-637,-412,0,0,0,0,0,0,0,0,0,-1,587,1436,0,0
-630,-412,0,0,0,0,0,0,0,0,0,-1,594,1436,0,0
-623,-412,0,0,0,0,0,0,0,0,0,-1,601,1436,0,0
-616,-412,0,0,0,0,0,0,0,0,0,-1,608,1436,0,0
-609,-412,0,0,0,0,0,0,0,0,0,-1,615,1436,0,0
-602,-412,-3.72766,-3.50012,0,0,0,0,0,0,0,-1,622,1436,-3.72764,3.50017
-595,-412,-10.3706,0.65564,0,0,0,0,0,0,0,-1,629,1436,-10.3706,-0.655672
-588,-412,-8.17957,1.94934,0,0,0,0,0,0,0,-1,636,1436,-8.17956,-1.94939
-581,-412,-6.60065,-0.0554199,0,0,0,0,0,0,0,-1,643,1436,-6.60063,0.0554733
-574,-412,-5.41547,3.68811,0,0,0,0,0,0,0,-1,650,1436,-5.41549,-3.68817
-567,-412,-4.06519,2.4209,0,0,0,0,0,0,0,-1,657,1436,-4.06521,-2.42089
-560,-412,-5.71863,3.86987,0,0,0,0,0,0,0,-1,664,1436,-5.71864,-3.86984
-553,-412,-4.862,4.15698,0,0,0,0,0,0,0,-1,671,1436,-4.86198,-4.15696
-546,-412,-4.93671,4.48352,-0.00628286,0.00850939,0.00365039,0.00936117,-0.00713464,1.34156,0.00955273,0.0395259,678,1436,-4.93673,-4.48354
-539,-412,-5.11481,4.61047,-0.00453701,0.00637081,0.00235085,0.00685589,-0.00502209,1.36731,0.00688495,0.0175164,685,1436,-5.11482,-4.61052
-532,-412,-5.12073,4.94836,-0.00296789,0.0045626,0.00131493,0.0047856,-0.00319089,1.4028,0.00463581,0.0136059,692,1436,-5.12072,-4.94838
-525,-412,-5.11346,5.25171,-0.00156689,0.00330393,0.00115939,0.00356582,-0.00182877,1.34864,0.00316793,0.0148971,699,1436,-5.11347,-5.25171
-518,-412,-5.0979,5.52319,-0.000208647,0.00193838,0.000807354,0.00220809,-0.000478358,1.24839,0.00165472,0.0159141,706,1436,-5.09788,-5.52314
-511,-412,-5.12238,5.77222,0.000583718,0.000718697,0.000372384,0.00102966,0.000272757,0.875044,0.000615989,0.0183327,713,1436,-5.12236,-5.77225
-504,-412,-5.1377,6.0647,0.000264165,-0.000607997,-0.000447572,0.000452974,-0.000796806,-0.3992,0.000730606,0.01738,720,1436,-5.1377,-6.06475
-497,-412,-5.12927,6.37134,8.89926e-05,-0.00198077,-0.00115824,0.000607331,-0.00249911,-0.420793,0.00190113,0.0138236,727,1436,-5.12927,-6.37133
-490,-412,-5.1366,6.64648,-0.000649899,-0.00361663,-0.00242095,0.000705996,-0.00497252,-0.510539,0.00357367,0.0118029,734,1436,-5.13662,-6.64648
-483,-412,-5.13525,6.88501,-0.00220875,-0.0056036,-0.00429009,0.00070751,-0.00851986,-0.597018,0.00592983,0.00831039,741,1436,-5.13528,-6.88496
-476,-412,-5.03931,7.22742,-0.00451296,-0.0080487,-0.00667615,0.000625419,-0.0131871,-0.655967,0.0090071,0.0163747,748,1436,-5.03929,-7.22746
-469,-412,-5.03992,7.40662,-0.00776647,-0.011159,-0.00983723,0.000519664,-0.0194452,-0.700021,0.0131401,0.0285979,755,1436,-5.03989,-7.40662
-462,-412,-5.10547,7.47742,-0.0125355,-0.0152297,-0.0141302,0.000311693,-0.0280769,-0.737874,0.0188227,0.0395081,762,1436,-5.10547,-7.47744
-455,-412,-5.75006,7.2832,-0.0191191,-0.0205267,-0.0199402,0.000129765,-0.0397755,-0.767758,0.0265604,0.0479911,769,1436,-5.75007,-7.28322
-448,-412,-6.46558,7.14685,0,0,0,0,0,0,0,-1,776,1436,-6.4656,-7.14684
-441,-412,-5.73053,5.97913,0,0,0,0,0,0,0,-1,783,1436,-5.73056,-5.97912
-434,-412,-7.16119,5.89392,0,0,0,0,0,0,0,-1,790,1436,-7.16121,-5.89396
-427,-412,-10.0004,5.15271,0,0,0,0,0,0,0,-1,797,1436,-10.0004,-5.15266
-420,-412,-10.4468,4.9043,0,0,0,0,0,0,0,-1,804,1436,-10.4468,-4.90429
-413,-412,-11.5704,4.97766,0,0,0,0,0,0,0,-1,811,1436,-11.5704,-4.97771
-406,-412,-13.1968,5.70093,0,0,0,0,0,0,0,-1,818,1436,-13.1968,-5.70096
-399,-412,-10.5506,0.771973,0,0,0,0,0,0,0,-1,825,1436,-10.5506,-0.771954
-392,-412,0,0,0,0,0,0,0,0,0,-1,832,1436,0,0
-385,-412,0,0,0,0,0,0,0,0,0,-1,839,1436,0,0
-378,-412,0,0,0,0,0,0,0,0,0,-1,846,1436,0,0
-371,-412,0,0,0,0,0,0,0,0,0,-1,853,1436,0,0
-364,-412,0,0,0,0,0,0,0,0,0,-1,860,1436,0,0
-357,-412,0,0,0,0,0,0,0,0,0,-1,867,1436,0,0
-350,-412,0,0,0,0,0,0,0,0,0,-1,874,1436,0,0
-343,-412,0,0,0,0,0,0,0,0,0,-1,881,1436,0,0
-336,-412,0,0,0,0,0,0,0,0,0,-1,888,1436,0,0
-329,-412,0,0,0,0,0,0,0,0,0,-1,895,1436,0,0
-322,-412,0,0,0,0,0,0,0,0,0,-1,902,1436,0,0
-315,-412,0,0,0,0,0,0,0,0,0,-1,909,1436,0,0
-308,-412,0,0,0,0,0,0,0,0,0,-1,916,1436,0,0
-301,-412,0,0,0,0,0,0,0,0,0,-1,923,1436,0,0
-294,-412,0,0,0,0,0,0,0,0,0,-1,930,1436,0,0
-287,-412,0,0,0,0,0,0,0,0,0,-1,937,1436,0,0
-280,-412,0,0,0,0,0,0,0,0,0,-1,944,1436,0,0
-273,-412,0,0,0,0,0,0,0,0,0,-1,951,1436,0,0
-266,-412,0,0,0,0,0,0,0,0,0,-1,958,1436,0,0
-259,-412,0,0,0,0,0,0,0,0,0,-1,965,1436,0,0
-252,-412,0,0,0,0,0,0,0,0,0,-1,972,1436,0,0
-245,-412,0,0,0,0,0,0,0,0,0,-1,979,1436,0,0
-238,-412,0,0,0,0,0,0,0,0,0,-1,986,1436,0,0
-231,-412,0,0,0,0,0,0,0,0,0,-1,993,1436,0,0
-224,-412,0,0,0,0,0,0,0,0,0,-1,1000,1436,0,0
-217,-412,0,0,0,0,0,0,0,0,0,-1,1007,1436,0,0
-210,-412,0,0,0,0,0,0,0,0,0,-1,1014,1436,0,0
-203,-412,0,0,0,0,0,0,0,0,0,-1,1021,1436,0,0
-196,-412,0,0,0,0,0,0,0,0,0,-1,1028,1436,0,0
-189,-412,0,0,0,0,0,0,0,0,0,-1,1035,1436,0,0
-182,-412,0,0,0,0,0,0,0,0,0,-1,1042,1436,0,0
-175,-412,0,0,0,0,0,0,0,0,0,-1,1049,1436,0,0
-168,-412,0,0,0,0,0,0,0,0,0,-1,1056,1436,0,0
-161,-412,0,0,0,0,0,0,0,0,0,-1,1063,1436,0,0
-154,-412,0,0,0,0,0,0,0,0,0,-1,1070,1436,0,0
-147,-412,0,0,0,0,0,0,0,0,0,-1,1077,1436,0,0
-140,-412,0,0,0,0,0,0,0,0,0,-1,1084,1436,0,0
-133,-412,0,0,0,0,0,0,0,0,0,-1,1091,1436,0,0
-126,-412,0,0,0,0,0,0,0,0,0,-1,1098,1436,0,0
-119,-412,0,0,0,0,0,0,0,0,0,-1,1105,1436,0,0
-112,-412,0,0,0,0,0,0,0,0,0,-1,1112,1436,0,0
-105,-412,0,0,0,0,0,0,0,0,0,-1,1119,1436,0,0
-98,-412,0,0,0,0,0,0,0,0,0,-1,1126,1436,0,0
-91,-412,0,0,0,0,0,0,0,0,0,-1,1133,1436,0,0
-84,-412,0,0,0,0,0,0,0,0,0,-1,1140,1436,0,0
-77,-412,0,0,0,0,0,0,0,0,0,-1,1147,1436,0,0
-70,-412,0,0,0,0,0,0,0,0,0,-1,1154,1436,0,0
-63,-412,0,0,0,0,0,0,0,0,0,-1,1161,1436,0,0
-56,-412,0,0,0,0,0,0,0,0,0,-1,1168,1436,0,0
-49,-412,0,0,0,0,0,0,0,0,0,-1,1175,1436,0,0
-42,-412,0,0,0,0,0,0,0,0,0,-1,1182,1436,0,0
-35,-412,0,0,0,0,0,0,0,0,0,-1,1189,1436,0,0
-28,-412,0,0,0,0,0,0,0,0,0,-1,1196,1436,0,0
-21,-412,0,0,0,0,0,0,0,0,0,-1,1203,1436,0,0
-14,-412,0,0,0,0,0,0,0,0,0,-1,1210,1436,0,0
-7,-412,0,0,0,0,0,0,0,0,0,-1,1217,1436,0,0
0,-412,0,0,0,0,0,0,0,0,0,-1,1224,1436,0,0
7,-412,0,0,0,0,0,0,0,0,0,-1,1231,1436,0,0
14,-412,0,0,0,0,0,0,0,0,0,-1,1238,1436,0,0
21,-412,0,0,0,0,0,0,0,0,0,-1,1245,1436,0,0
28,-412,0,0,0,0,0,0,0,0,0,-1,1252,1436,0,0
35,-412,0,0,0,0,0,0,0,0,0,-1,1259,1436,0,0
42,-412,0,0,0,0,0,0,0,0,0,-1,1266,1436,0,0
49,-412,0,0,0,0,0,0,0,0,0,-1,1273,1436,0,0
56,-412,0,0,0,0,0,0,0,0,0,-1,1280,1436,0,0
63,-412,0,0,0,0,0,0,0,0,0,-1,1287,1436,0,0
70,-412,0,0,0,0,0,0,0,0,0,-1,1294,1436,0,0
77,-412,0,0,0,0,0,0,0,0,0,-1,1301,1436,0,0
84,-412,0,0,0,0,0,0,0,0,0,-1,1308,1436,0,0
91,-412,0,0,0,0,0,0,0,0,0,-1,1315,1436,0,0
98,-412,0,0,0,0,0,0,0,0,0,-1,1322,1436,0,0
105,-412,0,0,0,0,0,0,0,0,0,-1,1329,1436,0,0
112,-412,0,0,0,0,0,0,0,0,0,-1,1336,1436,0,0
119,-412,0,0,0,0,0,0,0,0,0,-1,1343,1436,0,0
126,-412,0,0,0,0,0,0,0,0,0,-1,1350,1436,0,0
133,-412,0,0,0,0,0,0,0,0,0,-1,1357,1436,0,0
140,-412,0,0,0,0,0,0,0,0,0,-1,1364,1436,0,0
147,-412,0,0,0,0,0,0,0,0,0,-1,1371,1436,0,0
154,-412,0,0,0,0,0,0,0,0,0,-1,1378,1436,0,0
161,-412,0,0,0,0,0,0,0,0,0,-1,1385,1436,0,0
168,-412,0,0,0,0,0,0,0,0,0,-1,1392,1436,0,0
175,-412,0,0,0,0,0,0,0,0,0,-1,1399,1436,0,0
182,-412,0,0,0,0,0,0,0,0,0,-1,1406,1436,0,0
189,-412,0,0,0,0,0,0,0,0,0,-1,1413,1436,0,0
196,-412,0,0,0,0,0,0,0,0,0,-1,1420,1436,0,0
203,-412,0,0,0,0,0,0,0,0,0,-1,1427,1436,0,0
210,-412,0,0,0,0,0,0,0,0,0,-1,1434,1436,0,0
217,-412,0,0,0,0,0,0,0,0,0,-1,1441,1436,0,0
224,-412,0,0,0,0,0,0,0,0,0,-1,1448,1436,0,0
231,-412,0,0,0,0,0,0,0,0,0,-1,1455,1436,0,0
238,-412,0,0,0,0,0,0,0,0,0,-1,1462,1436,0,0
245,-412,0,0,0,0,0,0,0,0,0,-1,1469,1436,0,0
252,-412,0,0,0,0,0,0,0,0,0,-1,1476,1436,0,0
259,-412,0,0,0,0,0,0,0,0,0,-1,1483,1436,0,0
266,-412,0,0,0,0,0,0,0,0,0,-1,1490,1436,0,0
273,-412,0,0,0,0,0,0,0,0,0,-1,1497,1436,0,0
280,-412,0,0,0,0,0,0,0,0,0,-1,1504,1436,0,0
287,-412,0,0,0,0,0,0,0,0,0,-1,1511,1436,0,0
294,-412,0,0,0,0,0,0,0,0,0,-1,1518,1436,0,0
301,-412,0,0,0,0,0,0,0,0,0,-1,1525,1436,0,0
308,-412,0,0,0,0,0,0,0,0,0,-1,1532,1436,0,0
315,-412,0,0,0,0,0,0,0,0,0,-1,1539,1436,0,0
322,-412,0,0,0,0,0,0,0,0,0,-1,1546,1436,0,0
329,-412,0,0,0,0,0,0,0,0,0,-1,1553,1436,0,0
336,-412,0,0,0,0,0,0,0,0,0,-1,1560,1436,0,0
343,-412,0,0,0,0,0,0,0,0,0,-1,1567,1436,0,0
350,-412,0,0,0,0,0,0,0,0,0,-1,1574,1436,0,0
357,-412,0,0,0,0,0,0,0,0,0,-1,1581,1436,0,0
364,-412,0,0,0,0,0,0,0,0,0,-1,1588,1436,0,0
371,-412,0,0,0,0,0,0,0,0,0,-1,1595,1436,0,0
378,-412,0,0,0,0,0,0,0,0,0,-1,1602,1436,0,0
385,-412,0,0,0,0,0,0,0,0,0,-1,1609,1436,0,0
392,-412,0,0,0,0,0,0,0,0,0,-1,1616,1436,0,0
399,-412,0,0,0,0,0,0,0,0,0,-1,1623,1436,0,0
406,-412,0,0,0,0,0,0,0,0,0,-1,1630,1436,0,0
413,-412,0,0,0,0,0,0,0,0,0,-1,1637,1436,0,0
420,-412,0,0,0,0,0,0,0,0,0,-1,1644,1436,0,0
427,-412,0,0,0,0,0,0,0,0,0,-1,1651,1436,0,0
434,-412,0,0,0,0,0,0,0,0,0,-1,1658,1436,0,0
441,-412,0,0,0,0,0,0,0,0,0,-1,1665,1436,0,0
448,-412,0,0,0,0,0,0,0,0,0,-1,1672,1436,0,0
455,-412,0,0,0,0,0,0,0,0,0,-1,1679,1436,0,0
462,-412,0,0,0,0,0,0,0,0,0,-1,1686,1436,0,0
469,-412,0,0,0,0,0,0,0,0,0,-1,1693,1436,0,0
476,-412,0,0,0,0,0,0,0,0,0,-1,1700,1436,0,0
483,-412,0,0,0,0,0,0,0,0,0,-1,1707,1436,0,0
490,-412,0,0,0,0,0,0,0,0,0,-1,1714,1436,0,0
497,-412,0,0,0,0,0,0,0,0,0,-1,1721,1436,0,0
504,-412,0,0,0,0,0,0,0,0,0,-1,1728,1436,0,0
511,-412,0,0,0,0,0,0,0,0,0,-1,1735,1436,0,0
518,-412,13.5378,1.3866,0,0,0,0,0,0,0,-1,1742,1436,13.5379,-1.38663
525,-412,22.8384,2.03333,0,0,0,0,0,0,0,-1,1749,1436,22.8384,-2.03331
532,-412,21.8945,2.29199,0,0,0,0,0,0,0,-1,1756,1436,21.8946,-2.29203
539,-412,20.7961,2.47241,0,0,0,0,0,0,0,-1,1763,1436,20.7962,-2.47239
546,-412,19.4315,2.4071,0,0,0,0,0,0,0,-1,1770,1436,19.4315,-2.40706
553,-412,18.1896,2.19727,0,0,0,0,0,0,0,-1,1777,1436,18.1896,-2.19725
560,-412,16.8402,2.41418,0,0,0,0,0,0,0,-1,1784,1436,16.8402,-2.41425
567,-412,15.9099,3.43774,0,0,0,0,0,0,0,-1,1791,1436,15.9099,-3.43772
574,-412,15.1012,4.30872,0,0,0,0,0,0,0,-1,1798,1436,15.1012,-4.30869
581,-412,13.5082,7.22974,0,0,0,0,0,0,0,-1,1805,1436,13.5082,-7.22971
588,-412,16.3115,8.48413,0,0,0,0,0,0,0,-1,1812,1436,16.3115,-8.48413
595,-412,15.4446,8.72754,-0.048613,-0.0233876,0.0309444,-0.0025842,-0.0694164,0.978915,0.0454407,0.0441465,1819,1436,15.4446,-8.72759
602,-412,14.4104,9.1001,-0.0365881,-0.0175255,0.0231528,-0.00201884,-0.0520947,0.980661,0.0340768,0.0250256,1826,1436,14.4104,-9.10013
609,-412,14.1818,8.86023,-0.0268755,-0.0129331,0.0169348,-0.00159079,-0.0382178,0.980652,0.0249652,0.00885282,1833,1436,14.1817,-8.86023
616,-412,14.1493,8.60742,-0.0191798,-0.00950039,0.0120647,-0.00134089,-0.0273393,0.976146,0.0177961,0.00782206,1840,1436,14.1493,-8.60747
623,-412,14.1298,8.34949,-0.0131602,-0.0066992,0.00833442,-0.000991083,-0.0188683,0.970287,0.0122619,0.00933747,1847,1436,14.1297,-8.34952
630,-412,14.144,8.07666,-0.00893984,-0.00462653,0.00575808,-0.000634477,-0.0129319,0.964584,0.00841775,0.010756,1854,1436,14.144,-8.07668
637,-412,14.1526,7.8302,-0.00621788,-0.00300533,0.00407125,-0.000234935,-0.00898827,0.973294,0.00591543,0.0127044,1861,1436,14.1525,-7.83016
644,-412,14.1453,7.59558,-0.00460029,-0.00187532,0.00313508,0.000180536,-0.00665615,0.990382,0.00449882,0.0145833,1868,1436,14.1452,-7.59563
651,-412,14.1456,7.34363,-0.0035509,-0.00104219,0.00255361,0.000548511,-0.0051416,1.01369,0.00362443,0.0249619,1875,1436,14.1456,-7.34362
658,-412,14.1385,7.08948,-0.00421966,-0.000801172,0.00310886,0.00103734,-0.00605817,1.03674,0.00442527,0.0165512,1882,1436,14.1386,-7.08949
665,-412,14.1488,6.86475,-0.00609643,-0.000993412,0.00434342,0.00149249,-0.00858233,1.05097,0.00627847,0.0210952,1889,1436,14.1488,-6.86475
672,-412,14.174,6.64929,-0.00866488,-0.00153745,0.00602202,0.00189631,-0.0120987,1.05258,0.00876651,0.0268074,1896,1436,14.1739,-6.64931
679,-412,14.1974,6.35608,-0.011857,-0.00255782,0.00817897,0.0022008,-0.0166156,1.04386,0.0118788,0.036556,1903,1436,14.1974,-6.35613
686,-412,14.1028,5.95667,0,0,0,0,0,0,0,-1,1910,1436,14.1028,-5.95664
693,-412,11.9346,6.02344,0,0,0,0,0,0,0,-1,1917,1436,11.9346,-6.02343
700,-412,8.82764,5.8844,0,0,0,0,0,0,0,-1,1924,1436,8.82761,-5.88444
707,-412,6.59998,1.68994,0,0,0,0,0,0,0,-1,1931,1436,6.60002,-1.68995
714,-412,4.77283,-2.39832,0,0,0,0,0,0,0,-1,1938,1436,4.77288,2.39835
721,-412,0,0,0,0,0,0,0,0,0,-1,1945,1436,0,0
728,-412,0,0,0,0,0,0,0,0,0,-1,1952,1436,0,0
735,-412,0,0,0,0,0,0,0,0,0,-1,1959,1436,0,0
742,-412,0,0,0,0,0,0,0,0,0,-1,1966,1436,0,0
749,-412,0,0,0,0,0,0,0,0,0,-1,1973,1436,0,0
756,-412,0,0,0,0,0,0,0,0,0,-1,1980,1436,0,0
763,-412,0,0,0,0,0,0,0,0,0,-1,1987,1436,0,0
770,-412,0,0,0,0,0,0,0,0,0,-1,1994,1436,0,0
777,-412,0,0,0,0,0,0,0,0,0,-1,2001,1436,0,0
784,-412,0,0,0,0,0,0,0,0,0,-1,2008,1436,0,0
791,-412,0,0,0,0,0,0,0,0,0,-1,2015,1436,0,0
798,-412,0,0,0,0,0,0,0,0,0,-1,2022,1436,0,0
805,-412,0,0,0,0,0,0,0,0,0,-1,2029,1436,0,0
812,-412,0,0,0,0,0,0,0,0,0,-1,2036,1436,0,0
-700,-419,0,0,0,0,0,0,0,0,0,-1,524,1443,0,0
-693,-419,0,0,0,0,0,0,0,0,0,-1,531,1443,0,0
-686,-419,0,0,0,0,0,0,0,0,0,-1,538,1443,0,0
-679,-419,0,0,0,0,0,0,0,0,0,-1,545,1443,0,0
-672,-419,0,0,0,0,0,0,0,0,0,-1,552,1443,0,0
-665,-419,0,0,0,0,0,0,0,0,0,-1,559,1443,0,0
-658,-419,0,0,0,0,0,0,0,0,0,-1,566,1443,0,0
-651,-419,0,0,0,0,0,0,0,0,0,-1,573,1443,0,0
-644,-419,0,0,0,0,0,0,0,0,0,-1,580,1443,0,0
-637,-419,0,0,0,0,0,0,0,0,0,-1,587,1443,0,0
-630,-419,0,0,0,0,0,0,0,0,0,-1,594,1443,0,0
-623,-419,0,0,0,0,0,0,0,0,0,-1,601,1443,0,0
-616,-419,0,0,0,0,0,0,0,0,0,-1,608,1443,0,0
-609,-419,0,0,0,0,0,0,0,0,0,-1,615,1443,0,0
-602,-419,0,0,0,0,0,0,0,0,0,-1,622,1443,0,0
-595,-419,-11.4904,-0.622681,0,0,0,0,0,0,0,-1,629,1443,-11.4903,0.622714
-588,-419,-9.09369,0.742432,0,0,0,0,0,0,0,-1,636,1443,-9.09366,-0.742482
-581,-419,-6.39172,2.14673,0,0,0,0,0,0,0,-1,643,1443,-6.39175,-2.14668
-574,-419,-4.09772,3.54773,0,0,0,0,0,0,0,-1,650,1443,-4.09772,-3.54767
-567,-419,-6.14038,3.22498,0,0,0,0,0,0,0,-1,657,1443,-6.14037,-3.22497
-560,-419,-4.12024,4.45752,0,0,0,0,0,0,0,-1,664,1443,-4.12025,-4.4575
-553,-419,-4.18964,4.64685,0,0,0,0,0,0,0,-1,671,1443,-4.18965,-4.64688
-546,-419,-4.40167,4.68591,-0.00464656,0.0115516,0.00566748,0.0133376,-0.0064326,1.26551,0.0116441,0.0451679,678,1443,-4.40169,-4.68594
-539,-419,-4.68439,4.66455,-0.00311451,0.00875361,0.00397346,0.00996108,-0.00432198,1.27578,0.00845785,0.0341874,685,1443,-4.6844,-4.66454
-532,-419,-4.84039,4.93567,-0.0018004,0.00646964,0.00264808,0.00724489,-0.00257565,1.286,0.00587963,0.0156883,692,1443,-4.84038,-4.93571
-525,-419,-4.81335,5.25537,-0.000669183,0.00478083,0.00218802,0.00555055,-0.0014389,1.23253,0.00426175,0.0127786,699,1443,-4.81337,-5.2554
-518,-419,-4.82727,5.51563,0.000383368,0.00314518,0.00160754,0.00388349,-0.000354944,1.14025,0.00271505,0.016386,706,1443,-4.82727,-5.51561
-511,-419,-4.85431,5.77832,0.000919141,0.00173977,0.00101463,0.00242391,0.000235001,0.977545,0.00154358,0.0182106,713,1443,-4.85433,-5.77831
-504,-419,-4.85779,6.07776,0.000427791,0.00031495,9.0651e-05,0.000478145,0.000264595,0.507038,0.000276581,0.0176984,720,1443,-4.8578,-6.07781
-497,-419,-4.85327,6.37817,5.60193e-05,-0.00111314,-0.000699592,0.000383121,-0.00144024,-0.437361,0.00111013,0.0127644,727,1443,-4.85326,-6.37823
-490,-419,-4.8526,6.65186,-0.000650576,-0.00274621,-0.00188729,0.000460264,-0.00385705,-0.531986,0.00273772,0.0108214,734,1443,-4.85258,-6.65183
-483,-419,-4.85529,6.90295,-0.00206153,-0.00459947,-0.00365029,0.000534071,-0.00719507,-0.618115,0.00498428,0.00919599,741,1443,-4.85529,-6.90292
-476,-419,-4.84515,7.18823,-0.00406095,-0.00675607,-0.00577649,0.000523074,-0.0113401,-0.670806,0.00774032,0.00982437,748,1443,-4.84516,-7.18828
-469,-419,-4.79071,7.50378,-0.00663146,-0.00936189,-0.00839965,0.0005132,-0.0165066,-0.704836,0.0111794,0.0153849,755,1443,-4.79072,-7.50373
-462,-419,-4.7381,7.70923,-0.00999185,-0.0125866,-0.0117754,0.000557387,-0.0231358,-0.730531,0.015613,0.0298846,762,1443,-4.73809,-7.70923
-455,-419,-5.1817,7.67908,-0.0145064,-0.0167253,-0.0162447,0.000666683,-0.0318984,-0.751304,0.0214913,0.0431058,769,1443,-5.18169,-7.67908
-448,-419,-6.25275,7.77234,0,0,0,0,0,0,0,-1,776,1443,-6.25277,-7.77238
-441,-419,-7.25922,7.74902,0,0,0,0,0,0,0,-1,783,1443,-7.25922,-7.74897
-434,-419,-6.47729,6.44324,0,0,0,0,0,0,0,-1,790,1443,-6.47729,-6.44323
-427,-419,-5.86658,7.24878,0,0,0,0,0,0,0,-1,797,1443,-5.86657,-7.24873
-420,-419,-8.74091,6.36597,0,0,0,0,0,0,0,-1,804,1443,-8.74089,-6.366
-413,-419,-9.88391,6.53955,0,0,0,0,0,0,0,-1,811,1443,-9.8839,-6.53955
-406,-419,-10.3372,2.75195,0,0,0,0,0,0,0,-1,818,1443,-10.3372,-2.75201
-399,-419,-11.5999,1.40002,0,0,0,0,0,0,0,-1,825,1443,-11.5999,-1.39998
-392,-419,0,0,0,0,0,0,0,0,0,-1,832,1443,0,0
-385,-419,0,0,0,0,0,0,0,0,0,-1,839,1443,0,0
-378,-419,0,0,0,0,0,0,0,0,0,-1,846,1443,0,0
-371,-419,0,0,0,0,0,0,0,0,0,-1,853,1443,0,0
-364,-419,0,0,0,0,0,0,0,0,0,-1,860,1443,0,0
-357,-419,0,0,0,0,0,0,0,0,0,-1,867,1443,0,0
-350,-419,0,0,0,0,0,0,0,0,0,-1,874,1443,0,0
-343,-419,0,0,0,0,0,0,0,0,0,-1,881,1443,0,0
-336,-419,0,0,0,0,0,0,0,0,0,-1,888,1443,0,0
-329,-419,0,0,0,0,0,0,0,0,0,-1,895,1443,0,0
-322,-419,0,0,0,0,0,0,0,0,0,-1,902,1443,0,0
-315,-419,0,0,0,0,0,0,0,0,0,-1,909,1443,0,0
-308,-419,0,0,0,0,0,0,0,0,0,-1,916,1443,0,0
-301,-419,0,0,0,0,0,0,0,0,0,-1,923,1443,0,0
-294,-419,0,0,0,0,0,0,0,0,0,-1,930,1443,0,0
-287,-419,0,0,0,0,0,0,0,0,0,-1,937,1443,0,0
-280,-419,0,0,0,0,0,0,0,0,0,-1,944,1443,0,0
-273,-419,0,0,0,0,0,0,0,0,0,-1,951,1443,0,0
-266,-419,0,0,0,0,0,0,0,0,0,-1,958,1443,0,0
-259,-419,0,0,0,0,0,0,0,0,0,-1,965,1443,0,0
-252,-419,0,0,0,0,0,0,0,0,0,-1,972,1443,0,0
-245,-419,0,0,0,0,0,0,0,0,0,-1,979,1443,0,0
-238,-419,0,0,0,0,0,0,0,0,0,-1,986,1443,0,0
-231,-419,0,0,0,0,0,0,0,0,0,-1,993,1443,0,0
-224,-419,0,0,0,0,0,0,0,0,0,-1,1000,1443,0,0
-217,-419,0,0,0,0,0,0,0,0,0,-1,1007,1443,0,0
-210,-419,0,0,0,0,0,0,0,0,0,-1,1014,1443,0,0
-203,-419,0,0,0,0,0,0,0,0,0,-1,1021,1443,0,0
-196,-419,0,0,0,0,0,0,0,0,0,-1,1028,1443,0,0
-189,-419,0,0,0,0,0,0,0,0,0,-1,1035,1443,0,0
-182,-419,0,0,0,0,0,0,0,0,0,-1,1042,1443,0,0
-175,-419,0,0,0,0,0,0,0,0,0,-1,1049,1443,0,0
-168,-419,0,0,0,0,0,0,0,0,0,-1,1056,1443,0,0
-161,-419,0,0,0,0,0,0,0,0,0,-1,1063,1443,0,0
-154,-419,0,0,0,0,0,0,0,0,0,-1,1070,1443,0,0
-147,-419,0,0,0,0,0,0,0,0,0,-1,1077,1443,0,0
-140,-419,0,0,0,0,0,0,0,0,0,-1,1084,1443,0,0
-133,-419,0,0,0,0,0,0,0,0,0,-1,1091,1443,0,0
-126,-419,0,0,0,0,0,0,0,0,0,-1,1098,1443,0,0
-119,-419,0,0,0,0,0,0,0,0,0,-1,1105,1443,0,0
-112,-419,0,0,0,0,0,0,0,0,0,-1,1112,1443,0,0
-105,-419,0,0,0,0,0,0,0,0,0,-1,1119,1443,0,0
-98,-419,0,0,0,0,0,0,0,0,0,-1,1126,1443,0,0
-91,-419,0,0,0,0,0,0,0,0,0,-1,1133,1443,0,0
-84,-419,0,0,0,0,0,0,0,0,0,-1,1140,1443,0,0
-77,-419,0,0,0,0,0,0,0,0,0,-1,1147,1443,0,0
-70,-419,0,0,0,0,0,0,0,0,0,-1,1154,1443,0,0
-63,-419,0,0,0,0,0,0,0,0,0,-1,1161,1443,0,0
-56,-419,0,0,0,0,0,0,0,0,0,-1,1168,1443,0,0
-49,-419,0,0,0,0,0,0,0,0,0,-1,1175,1443,0,0
-42,-419,0,0,0,0,0,0,0,0,0,-1,1182,1443,0,0
-35,-419,0,0,0,0,0,0,0,0,0,-1,1189,1443,0,0
-28,-419,0,0,0,0,0,0,0,0,0,-1,1196,1443,0,0
-21,-419,0,0,0,0,0,0,0,0,0,-1,1203,1443,0,0
-14,-419,0,0,0,0,0,0,0,0,0,-1,1210,1443,0,0
-7,-419,0,0,0,0,0,0,0,0,0,-1,1217,1443,0,0
0,-419,0,0,0,0,0,0,0,0,0,-1,1224,1443,0,0
7,-419,0,0,0,0,0,0,0,0,0,-1,1231,1443,0,0
14,-419,0,0,0,0,0,0,0,0,0,-1,1238,1443,0,0
21,-419,0,0,0,0,0,0,0,0,0,-1,1245,1443,0,0
28,-419,0,0,0,0,0,0,0,0,0,-1,1252,1443,0,0
35,-419,0,0,0,0,0,0,0,0,0,-1,1259,1443,0,0
42,-419,0,0,0,0,0,0,0,0,0,-1,1266,1443,0,0
49,-419,0,0,0,0,0,0,0,0,0,-1,1273,1443,0,0
56,-419,0,0,0,0,0,0,0,0,0,-1,1280,1443,0,0
63,-419,0,0,0,0,0,0,0,0,0,-1,1287,1443,0,0
70,-419,0,0,0,0,0,0,0,0,0,-1,1294,1443,0,0
77,-419,0,0,0,0,0,0,0,0,0,-1,1301,1443,0,0
84,-419,0,0,0,0,0,0,0,0,0,-1,1308,1443,0,0
91,-419,0,0,0,0,0,0,0,0,0,-1,1315,1443,0,0
98,-419,0,0,0,0,0,0,0,0,0,-1,1322,1443,0,0
105,-419,0,0,0,0,0,0,0,0,0,-1,1329,1443,0,0
112,-419,0,0,0,0,0,0,0,0,0,-1,1336,1443,0,0
119,-419,0,0,0,0,0,0,0,0,0,-1,1343,1443,0,0
126,-419,0,0,0,0,0,0,0,0,0,-1,1350,1443,0,0
133,-419,0,0,0,0,0,0,0,0,0,-1,1357,1443,0,0
140,-419,0,0,0,0,0,0,0,0,0,-1,1364,1443,0,0
147,-419,0,0,0,0,0,0,0,0,0,-1,1371,1443,0,0
154,-419,0,0,0,0,0,0,0,0,0,-1,1378,1443,0,0
161,-419,0,0,0,0,0,0,0,0,0,-1,1385,1443,0,0
168,-419,0,0,0,0,0,0,0,0,0,-1,1392,1443,0,0
175,-419,0,0,0,0,0,0,0,0,0,-1,1399,1443,0,0
182,-419,0,0,0,0,0,0,0,0,0,-1,1406,1443,0,0
189,-419,0,0,0,0,0,0,0,0,0,-1,1413,1443,0,0
196,-419,0,0,0,0,0,0,0,0,0,-1,1420,1443,0,0
203,-419,0,0,0,0,0,0,0,0,0,-1,1427,1443,0,0
210,-419,0,0,0,0,0,0,0,0,0,-1,1434,1443,0,0
217,-419,0,0,0,0,0,0,0,0,0,-1,1441,1443,0,0
224,-419,0,0,0,0,0,0,0,0,0,-1,1448,1443,0,0
231,-419,0,0,0,0,0,0,0,0,0,-1,1455,1443,0,0
238,-419,0,0,0,0,0,0,0,0,0,-1,1462,1443,0,0
245,-419,0,0,0,0,0,0,0,0,0,-1,1469,1443,0,0
252,-419,0,0,0,0,0,0,0,0,0,-1,1476,1443,0,0
259,-419,0,0,0,0,0,0,0,0,0,-1,1483,1443,0,0
266,-419,0,0,0,0,0,0,0,0,0,-1,1490,1443,0,0
273,-419,0,0,0,0,0,0,0,0,0,-1,1497,1443,0,0
280,-419,0,0,0,0,0,0,0,0,0,-1,1504,1443,0,0
287,-419,0,0,0,0,0,0,0,0,0,-1,1511,1443,0,0
294,-419,0,0,0,0,0,0,0,0,0,-1,1518,1443,0,0
301,-419,0,0,0,0,0,0,0,0,0,-1,1525,1443,0,0
308,-419,0,0,0,0,0,0,0,0,0,-1,1532,1443,0,0
315,-419,0,0,0,0,0,0,0,0,0,-1,1539,1443,0,0
322,-419,0,0,0,0,0,0,0,0,0,-1,1546,1443,0,0
329,-419,0,0,0,0,0,0,0,0,0,-1,1553,1443,0,0
336,-419,0,0,0,0,0,0,0,0,0,-1,1560,1443,0,0
343,-419,0,0,0,0,0,0,0,0,0,-1,1567,1443,0,0
350,-419,0,0,0,0,0,0,0,0,0,-1,1574,1443,0,0
357,-419,0,0,0,0,0,0,0,0,0,-1,1581,1443,0,0
364,-419,0,0,0,0,0,0,0,0,0,-1,1588,1443,0,0
371,-419,0,0,0,0,0,0,0,0,0,-1,1595,1443,0,0
378,-419,0,0,0,0,0,0,0,0,0,-1,1602,1443,0,0
385,-419,0,0,0,0,0,0,0,0,0,-1,1609,1443,0,0
392,-419,0,0,0,0,0,0,0,0,0,-1,1616,1443,0,0
399,-419,0,0,0,0,0,0,0,0,0,-1,1623,1443,0,0
406,-419,0,0,0,0,0,0,0,0,0,-1,1630,1443,0,0
413,-419,0,0,0,0,0,0,0,0,0,-1,1637,1443,0,0
420,-419,0,0,0,0,0,0,0,0,0,-1,1644,1443,0,0
427,-419,0,0,0,0,0,0,0,0,0,-1,1651,1443,0,0
434,-419,0,0,0,0,0,0,0,0,0,-1,1658,1443,0,0
441,-419,0,0,0,0,0,0,0,0,0,-1,1665,1443,0,0
448,-419,0,0,0,0,0,0,0,0,0,-1,1672,1443,0,0
455,-419,0,0,0,0,0,0,0,0,0,-1,1679,1443,0,0
462,-419,0,0,0,0,0,0,0,0,0,-1,1686,1443,0,0
469,-419,0,0,0,0,0,0,0,0,0,-1,1693,1443,0,0
476,-419,0,0,0,0,0,0,0,0,0,-1,1700,1443,0,0
483,-419,0,0,0,0,0,0,0,0,0,-1,1707,1443,0,0
490,-419,0,0,0,0,0,0,0,0,0,-1,1714,1443,0,0
497,-419,0,0,0,0,0,0,0,0,0,-1,1721,1443,0,0
504,-419,0,0,0,0,0,0,0,0,0,-1,1728,1443,0,0
511,-419,20.3005,3.7959,0,0,0,0,0,0,0,-1,1735,1443,20.3005,-3.79584
518,-419,21.3154,2.03027,0,0,0,0,0,0,0,-1,1742,1443,21.3155,-2.03029
525,-419,20.1991,2.2738,0,0,0,0,0,0,0,-1,1749,1443,20.1991,-2.2738
532,-419,21.035,2.73364,0,0,0,0,0,0,0,-1,1756,1443,21.035,-2.73368
539,-419,20.0294,2.92896,0,0,0,0,0,0,0,-1,1763,1443,20.0294,-2.929
546,-419,18.7786,2.69104,0,0,0,0,0,0,0,-1,1770,1443,18.7785,-2.69107
553,-419,17.1881,2.40491,0,0,0,0,0,0,0,-1,1777,1443,17.1881,-2.40488
560,-419,11.8199,8.26343,0,0,0,0,0,0,0,-1,1784,1443,11.82,-8.26341
567,-419,15.7008,5.70764,0,0,0,0,0,0,0,-1,1791,1443,15.7009,-5.70764
574,-419,13.748,7.5249,0,0,0,0,0,0,0,-1,1798,1443,13.7481,-7.5249
581,-419,13.1829,7.57349,0,0,0,0,0,0,0,-1,1805,1443,13.1829,-7.57347
588,-419,14.7877,9.59631,0,0,0,0,0,0,0,-1,1812,1443,14.7877,-9.59628
595,-419,14.3929,9.35181,-0.0373212,-0.0182524,0.0240268,-0.00193738,-0.0536363,0.974281,0.0351295,0.0392299,1819,1443,14.3929,-9.35183
602,-419,13.9625,9.13452,-0.0285817,-0.0136659,0.0182059,-0.00144963,-0.040798,0.979794,0.0267286,0.015555,1826,1443,13.9626,-9.13449
609,-419,13.9143,8.8728,-0.0212754,-0.00999067,0.0134287,-0.00106716,-0.0301989,0.984287,0.0197865,0.0107025,1833,1443,13.9143,-8.87283
616,-419,13.892,8.64258,-0.015322,-0.00721533,0.00960145,-0.00084669,-0.0216906,0.985129,0.0141866,0.0116294,1840,1443,13.892,-8.64262
623,-419,13.8953,8.3811,-0.0106535,-0.00486707,0.00662876,-0.000527641,-0.0149929,0.991168,0.00982413,0.00964904,1847,1443,13.8953,-8.38111
630,-419,13.9136,8.10583,-0.00754419,-0.0032858,0.00473279,-0.000225322,-0.0106047,0.996776,0.00699588,0.0116759,1854,1443,13.9136,-8.10582
637,-419,13.9155,7.85315,-0.00547385,-0.00193533,0.00343295,0.00015746,-0.00756664,1.02333,0.00509772,0.0122104,1861,1443,13.9156,-7.8531
644,-419,13.9037,7.61816,-0.00441038,-0.00102587,0.00283197,0.000580932,-0.00601718,1.05471,0.00421845,0.010874,1868,1443,13.9037,-7.61812
651,-419,13.8892,7.38025,-0.00405791,-0.000426121,0.00268489,0.0009993,-0.00548333,1.08273,0.00403017,0.0110094,1875,1443,13.8892,-7.3803
658,-419,13.89,7.11475,-0.00539816,-0.000360763,0.00363067,0.00153932,-0.00729824,1.08865,0.00545153,0.0128072,1882,1443,13.89,-7.11479
665,-419,13.8925,6.87122,-0.00797308,-0.000680766,0.00526271,0.00207546,-0.0107293,1.08835,0.00793568,0.0201196,1889,1443,13.8925,-6.87116
672,-419,13.9105,6.57935,-0.0114267,-0.00139183,0.00747196,0.00259099,-0.0154096,1.08107,0.0112367,0.026741,1896,1443,13.9105,-6.57931
679,-419,13.8298,6.4801,-0.015815,-0.00266253,0.010351,0.00302458,-0.0215021,1.06839,0.015442,0.0487186,1903,1443,13.8298,-6.48009
686,-419,13.6547,6.5636,0,0,0,0,0,0,0,-1,1910,1443,13.6547,-6.56363
693,-419,8.76086,5.60535,0,0,0,0,0,0,0,-1,1917,1443,8.76091,-5.6054
700,-419,11.0498,4.85156,0,0,0,0,0,0,0,-1,1924,1443,11.0498,-4.85153
707,-419,9.5752,1.80042,0,0,0,0,0,0,0,-1,1931,1443,9.57523,-1.80037
714,-419,5.77576,-1.25061,0,0,0,0,0,0,0,-1,1938,1443,5.7757,1.25056
721,-419,0,0,0,0,0,0,0,0,0,-1,1945,1443,0,0
728,-419,0,0,0,0,0,0,0,0,0,-1,1952,1443,0,0
735,-419,0,0,0,0,0,0,0,0,0,-1,1959,1443,0,0
742,-419,0,0,0,0,0,0,0,0,0,-1,1966,1443,0,0
749,-419,0,0,0,0,0,0,0,0,0,-1,1973,1443,0,0
756,-419,0,0,0,0,0,0,0,0,0,-1,1980,1443,0,0
763,-419,0,0,0,0,0,0,0,0,0,-1,1987,1443,0,0
770,-419,0,0,0,0,0,0,0,0,0,-1,1994,1443,0,0
777,-419,0,0,0,0,0,0,0,0,0,-1,2001,1443,0,0
784,-419,0,0,0,0,0,0,0,0,0,-1,2008,1443,0,0
791,-419,0,0,0,0,0,0,0,0,0,-1,2015,1443,0,0
798,-419,0,0,0,0,0,0,0,0,0,-1,2022,1443,0,0
805,-419,0,0,0,0,0,0,0,0,0,-1,2029,1443,0,0
812,-419,0,0,0,0,0,0,0,0,0,-1,2036,1443,0,0
-700,-426,0,0,0,0,0,0,0,0,0,-1,524,1450,0,0
-693,-426,0,0,0,0,0,0,0,0,0,-1,531,1450,0,0
-686,-426,0,0,0,0,0,0,0,0,0,-1,538,1450,0,0
-679,-426,0,0,0,0,0,0,0,0,0,-1,545,1450,0,0
-672,-426,0,0,0,0,0,0,0,0,0,-1,552,1450,0,0
-665,-426,0,0,0,0,0,0,0,0,0,-1,559,1450,0,0
-658,-426,0,0,0,0,0,0,0,0,0,-1,566,1450,0,0
-651,-426,0,0,0,0,0,0,0,0,0,-1,573,1450,0,0
-644,-426,0,0,0,0,0,0,0,0,0,-1,580,1450,0,0
-637,-426,0,0,0,0,0,0,0,0,0,-1,587,1450,0,0
-630,-426,0,0,0,0,0,0,0,0,0,-1,594,1450,0,0
-623,-426,0,0,0,0,0,0,0,0,0,-1,601,1450,0,0
-616,-426,0,0,0,0,0,0,0,0,0,-1,608,1450,0,0
-609,-426,0,0,0,0,0,0,0,0,0,-1,615,1450,0,0
-602,-426,0,0,0,0,0,0,0,0,0,-1,622,1450,0,0
-595,-426,0,0,0,0,0,0,0,0,0,-1,629,1450,0,0
-588,-426,-10.184,-0.554321,0,0,0,0,0,0,0,-1,636,1450,-10.184,0.554321
-581,-426,-7.3349,1.48157,0,0,0,0,0,0,0,-1,643,1450,-7.33491,-1.48152
-574,-426,-5.02856,2.89319,0,0,0,0,0,0,0,-1,650,1450,-5.02858,-2.89319
-567,-426,-3.04797,1.72644,0,0,0,0,0,0,0,-1,657,1450,-3.04797,-1.72639
-560,-426,-5.55682,3.44397,0,0,0,0,0,0,0,-1,664,1450,-5.55684,-3.44399
-553,-426,-3.82703,4.93127,0,0,0,0,0,0,0,-1,671,1450,-3.82701,-4.93127
-546,-426,-3.64069,4.22888,-0.001923,0.0159402,0.00939496,0.0199716,-0.00595438,1.16546,0.0156806,0.0480281,678,1450,-3.64068,-4.22884
-539,-426,-4.2135,4.68628,-0.000703561,0.0122619,0.0070487,0.0153557,-0.00379735,1.1572,0.01171,0.0401692,685,1450,-4.2135,-4.68632
-532,-426,-4.48657,4.95959,0.000260292,0.00932319,0.00522656,0.0117092,-0.0021257,1.14254,0.00860268,0.028641,692,1450,-4.48657,-4.95955
-525,-426,-4.53607,5.20923,0.00106013,0.00704809,0.00425934,0.00926044,-0.00115222,1.09174,0.00659136,0.0142041,699,1450,-4.53607,-5.20922
-518,-426,-4.54041,5.51599,0.0017274,0.0050187,0.00329083,0.00705242,-0.000306313,1.01725,0.00480697,0.0151887,706,1450,-4.54039,-5.51602
-511,-426,-4.56512,5.79114,0.00194021,0.0033066,0.00239948,0.00511826,0.000128555,0.924091,0.00337014,0.0142092,713,1450,-4.5651,-5.79117
-504,-426,-4.57507,6.06763,0.00127072,0.00167214,0.00125754,0.00274489,0.000197971,0.864532,0.00176764,0.0147004,720,1450,-4.57507,-6.06768
-497,-426,-4.56653,6.34924,0.000685138,8.37296e-05,0.000254312,0.000778258,-9.39064e-06,0.351003,0.000521997,0.0122336,727,1450,-4.56651,-6.34928
-490,-426,-4.57849,6.63501,-4.08965e-05,-0.00163167,-0.000989994,0.000433649,-0.00210622,-0.446985,0.0015688,0.0127237,734,1450,-4.57849,-6.63504
-483,-426,-4.5824,6.90491,-0.00134748,-0.00344166,-0.00275173,0.000549646,-0.00533879,-0.603598,0.00375584,0.0124038,741,1450,-4.58239,-6.90495
-476,-426,-4.5835,7.18396,-0.00309625,-0.0054219,-0.00473424,0.000615883,-0.00913403,-0.664972,0.00630468,0.00914407,748,1450,-4.58351,-7.18397
-469,-426,-4.58289,7.47021,-0.00509936,-0.00766949,-0.00697082,0.000703854,-0.0134727,-0.694247,0.00922538,0.00750277,755,1450,-4.58291,-7.4702
-462,-426,-4.46802,7.7915,-0.00741212,-0.0102989,-0.00967586,0.000927435,-0.0186384,-0.711358,0.012746,0.0164703,762,1450,-4.46801,-7.79149
-455,-426,-4.52222,7.83594,-0.010321,-0.0135732,-0.0130543,0.00120805,-0.0251022,-0.723436,0.0171517,0.0355456,769,1450,-4.52222,-7.83591
-448,-426,-5.6748,7.87329,0,0,0,0,0,0,0,-1,776,1450,-5.67483,-7.87326
-441,-426,-5.74005,8.31311,0,0,0,0,0,0,0,-1,783,1450,-5.74006,-8.31307
-434,-426,-6.0368,7.68201,0,0,0,0,0,0,0,-1,790,1450,-6.03683,-7.68196
-427,-426,-5.98615,7.68298,0,0,0,0,0,0,0,-1,797,1450,-5.98616,-7.68301
-420,-426,-5.00806,7.83728,0,0,0,0,0,0,0,-1,804,1450,-5.00805,-7.83733
-413,-426,-10.1148,5.0415,0,0,0,0,0,0,0,-1,811,1450,-10.1148,-5.04152
-406,-426,-11.4199,3.6438,0,0,0,0,0,0,0,-1,818,1450,-11.4198,-3.64382
-399,-426,-12.7595,2.29004,0,0,0,0,0,0,0,-1,825,1450,-12.7595,-2.29003
-392,-426,-12.4147,0.537354,0,0,0,0,0,0,0,-1,832,1450,-12.4147,-0.53731
-385,-426,0,0,0,0,0,0,0,0,0,-1,839,1450,0,0
-378,-426,0,0,0,0,0,0,0,0,0,-1,846,1450,0,0
-371,-426,0,0,0,0,0,0,0,0,0,-1,853,1450,0,0
-364,-426,0,0,0,0,0,0,0,0,0,-1,860,1450,0,0
-357,-426,0,0,0,0,0,0,0,0,0,-1,867,1450,0,0
-350,-426,0,0,0,0,0,0,0,0,0,-1,874,1450,0,0
-343,-426,0,0,0,0,0,0,0,0,0,-1,881,1450,0,0
-336,-426,0,0,0,0,0,0,0,0,0,-1,888,1450,0,0
-329,-426,0,0,0,0,0,0,0,0,0,-1,895,1450,0,0
-322,-426,0,0,0,0,0,0,0,0,0,-1,902,1450,0,0
-315,-426,0,0,0,0,0,0,0,0,0,-1,909,1450,0,0
-308,-426,0,0,0,0,0,0,0,0,0,-1,916,1450,0,0
-301,-426,0,0,0,0,0,0,0,0,0,-1,923,1450,0,0
-294,-426,0,0,0,0,0,0,0,0,0,-1,930,1450,0,0
-287,-426,0,0,0,0,0,0,0,0,0,-1,937,1450,0,0
-280,-426,0,0,0,0,0,0,0,0,0,-1,944,1450,0,0
-273,-426,0,0,0,0,0,0,0,0,0,-1,951,1450,0,0
-266,-426,0,0,0,0,0,0,0,0,0,-1,958,1450,0,0
-259,-426,0,0,0,0,0,0,0,0,0,-1,965,1450,0,0
-252,-426,0,0,0,0,0,0,0,0,0,-1,972,1450,0,0
-245,-426,0,0,0,0,0,0,0,0,0,-1,979,1450,0,0
-238,-426,0,0,0,0,0,0,0,0,0,-1,986,1450,0,0
-231,-426,0,0,0,0,0,0,0,0,0,-1,993,1450,0,0
-224,-426,0,0,0,0,0,0,0,0,0,-1,1000,1450,0,0
-217,-426,0,0,0,0,0,0,0,0,0,-1,1007,1450,0,0
-210,-426,0,0,0,0,0,0,0,0,0,-1,1014,1450,0,0
-203,-426,0,0,0,0,0,0,0,0,0,-1,1021,1450,0,0
-196,-426,0,0,0,0,0,0,0,0,0,-1,1028,1450,0,0
-189,-426,0,0,0,0,0,0,0,0,0,-1,1035,1450,0,0
-182,-426,0,0,0,0,0,0,0,0,0,-1,1042,1450,0,0
-175,-426,0,0,0,0,0,0,0,0,0,-1,1049,1450,0,0
-168,-426,0,0,0,0,0,0,0,0,0,-1,1056,1450,0,0
-161,-426,0,0,0,0,0,0,0,0,0,-1,1063,1450,0,0
-154,-426,0,0,0,0,0,0,0,0,0,-1,1070,1450,0,0
-147,-426,0,0,0,0,0,0,0,0,0,-1,1077,1450,0,0
-140,-426,0,0,0,0,0,0,0,0,0,-1,1084,1450,0,0
-133,-426,0,0,0,0,0,0,0,0,0,-1,1091,1450,0,0
-126,-426,0,0,0,0,0,0,0,0,0,-1,1098,1450,0,0
-119,-426,0,0,0,0,0,0,0,0,0,-1,1105,1450,0,0
-112,-426,0,0,0,0,0,0,0,0,0,-1,1112,1450,0,0
-105,-426,0,0,0,0,0,0,0,0,0,-1,1119,1450,0,0
-98,-426,0,0,0,0,0,0,0,0,0,-1,1126,1450,0,0
-91,-426,0,0,0,0,0,0,0,0,0,-1,1133,1450,0,0
-84,-426,0,0,0,0,0,0,0,0,0,-1,1140,1450,0,0
-77,-426,0,0,0,0,0,0,0,0,0,-1,1147,1450,0,0
-70,-426,0,0,0,0,0,0,0,0,0,-1,1154,1450,0,0
-63,-426,0,0,0,0,0,0,0,0,0,-1,1161,1450,0,0
-56,-426,0,0,0,0,0,0,0,0,0,-1,1168,1450,0,0
-49,-426,0,0,0,0,0,0,0,0,0,-1,1175,1450,0,0
-42,-426,0,0,0,0,0,0,0,0,0,-1,1182,1450,0,0
-35,-426,0,0,0,0,0,0,0,0,0,-1,1189,1450,0,0
-28,-426,0,0,0,0,0,0,0,0,0,-1,1196,1450,0,0
-21,-426,0,0,0,0,0,0,0,0,0,-1,1203,1450,0,0
-14,-426,0,0,0,0,0,0,0,0,0,-1,1210,1450,0,0
-7,-426,0,0,0,0,0,0,0,0,0,-1,1217,1450,0,0
0,-426,0,0,0,0,0,0,0,0,0,-1,1224,1450,0,0
7,-426,0,0,0,0,0,0,0,0,0,-1,1231,1450,0,0
14,-426,0,0,0,0,0,0,0,0,0,-1,1238,1450,0,0
21,-426,0,0,0,0,0,0,0,0,0,-1,1245,1450,0,0
28,-426,0,0,0,0,0,0,0,0,0,-1,1252,1450,0,0
35,-426,0,0,0,0,0,0,0,0,0,-1,1259,1450,0,0
42,-426,0,0,0,0,0,0,0,0,0,-1,1266,1450,0,0
49,-426,0,0,0,0,0,0,0,0,0,-1,1273,1450,0,0
56,-426,0,0,0,0,0,0,0,0,0,-1,1280,1450,0,0
63,-426,0,0,0,0,0,0,0,0,0,-1,1287,1450,0,0
70,-426,0,0,0,0,0,0,0,0,0,-1,1294,1450,0,0
77,-426,0,0,0,0,0,0,0,0,0,-1,1301,1450,0,0
84,-426,0,0,0,0,0,0,0,0,0,-1,1308,1450,0,0
91,-426,0,0,0,0,0,0,0,0,0,-1,1315,1450,0,0
98,-426,0,0,0,0,0,0,0,0,0,-1,1322,1450,0,0
105,-426,0,0,0,0,0,0,0,0,0,-1,1329,1450,0,0
112,-426,0,0,0,0,0,0,0,0,0,-1,1336,1450,0,0
119,-426,0,0,0,0,0,0,0,0,0,-1,1343,1450,0,0
126,-426,0,0,0,0,0,0,0,0,0,-1,1350,1450,0,0
133,-426,0,0,0,0,0,0,0,0,0,-1,1357,1450,0,0
140,-426,0,0,0,0,0,0,0,0,0,-1,1364,1450,0,0
147,-426,0,0,0,0,0,0,0,0,0,-1,1371,1450,0,0
154,-426,0,0,0,0,0,0,0,0,0,-1,1378,1450,0,0
161,-426,0,0,0,0,0,0,0,0,0,-1,1385,1450,0,0
168,-426,0,0,0,0,0,0,0,0,0,-1,1392,1450,0,0
175,-426,0,0,0,0,0,0,0,0,0,-1,1399,1450,0,0
182,-426,0,0,0,0,0,0,0,0,0,-1,1406,1450,0,0
189,-426,0,0,0,0,0,0,0,0,0,-1,1413,1450,0,0
196,-426,0,0,0,0,0,0,0,0,0,-1,1420,1450,0,0
203,-426,0,0,0,0,0,0,0,0,0,-1,1427,1450,0,0
210,-426,0,0,0,0,0,0,0,0,0,-1,1434,1450,0,0
217,-426,0,0,0,0,0,0,0,0,0,-1,1441,1450,0,0
224,-426,0,0,0,0,0,0,0,0,0,-1,1448,1450,0,0
231,-426,0,0,0,0,0,0,0,0,0,-1,1455,1450,0,0
238,-426,0,0,0,0,0,0,0,0,0,-1,1462,1450,0,0
245,-426,0,0,0,0,0,0,0,0,0,-1,1469,1450,0,0
252,-426,0,0,0,0,0,0,0,0,0,-1,1476,1450,0,0
259,-426,0,0,0,0,0,0,0,0,0,-1,1483,1450,0,0
266,-426,0,0,0,0,0,0,0,0,0,-1,1490,1450,0,0
273,-426,0,0,0,0,0,0,0,0,0,-1,1497,1450,0,0
280,-426,0,0,0,0,0,0,0,0,0,-1,1504,1450,0,0
287,-426,0,0,0,0,0,0,0,0,0,-1,1511,1450,0,0
294,-426,0,0,0,0,0,0,0,0,0,-1,1518,1450,0,0
301,-426,0,0,0,0,0,0,0,0,0,-1,1525,1450,0,0
308,-426,0,0,0,0,0,0,0,0,0,-1,1532,1450,0,0
315,-426,0,0,0,0,0,0,0,0,0,-1,1539,1450,0,0
322,-426,0,0,0,0,0,0,0,0,0,-1,1546,1450,0,0
329,-426,0,0,0,0,0,0,0,0,0,-1,1553,1450,0,0
336,-426,0,0,0,0,0,0,0,0,0,-1,1560,1450,0,0
343,-426,0,0,0,0,0,0,0,0,0,-1,1567,1450,0,0
350,-426,0,0,0,0,0,0,0,0,0,-1,1574,1450,0,0
357,-426,0,0,0,0,0,0,0,0,0,-1,1581,1450,0,0
364,-426,0,0,0,0,0,0,0,0,0,-1,1588,1450,0,0
371,-426,0,0,0,0,0,0,0,0,0,-1,1595,1450,0,0
378,-426,0,0,0,0,0,0,0,0,0,-1,1602,1450,0,0
385,-426,0,0,0,0,0,0,0,0,0,-1,1609,1450,0,0
392,-426,0,0,0,0,0,0,0,0,0,-1,1616,1450,0,0
399,-426,0,0,0,0,0,0,0,0,0,-1,1623,1450,0,0
406,-426,0,0,0,0,0,0,0,0,0,-1,1630,1450,0,0
413,-426,0,0,0,0,0,0,0,0,0,-1,1637,1450,0,0
420,-426,0,0,0,0,0,0,0,0,0,-1,1644,1450,0,0
427,-426,0,0,0,0,0,0,0,0,0,-1,1651,1450,0,0
434,-426,0,0,0,0,0,0,0,0,0,-1,1658,1450,0,0
441,-426,0,0,0,0,0,0,0,0,0,-1,1665,1450,0,0
448,-426,0,0,0,0,0,0,0,0,0,-1,1672,1450,0,0
455,-426,0,0,0,0,0,0,0,0,0,-1,1679,1450,0,0
462,-426,0,0,0,0,0,0,0,0,0,-1,1686,1450,0,0
469,-426,0,0,0,0,0,0,0,0,0,-1,1693,1450,0,0
476,-426,0,0,0,0,0,0,0,0,0,-1,1700,1450,0,0
483,-426,0,0,0,0,0,0,0,0,0,-1,1707,1450,0,0
490,-426,0,0,0,0,0,0,0,0,0,-1,1714,1450,0,0
497,-426,0,0,0,0,0,0,0,0,0,-1,1721,1450,0,0
504,-426,20.6873,3.38367,0,0,0,0,0,0,0,-1,1728,1450,20.6873,-3.38361
511,-426,19.6676,3.53748,0,0,0,0,0,0,0,-1,1735,1450,19.6676,-3.53749
518,-426,18.6853,3.32288,0,0,0,0,0,0,0,-1,1742,1450,18.6853,-3.3229
525,-426,18.9552,2.71033,0,0,0,0,0,0,0,-1,1749,1450,18.9552,-2.71034
532,-426,17.764,2.81616,0,0,0,0,0,0,0,-1,1756,1450,17.764,-2.81611
539,-426,16.9565,3.07593,0,0,0,0,0,0,0,-1,1763,1450,16.9566,-3.07593
546,-426,16.1915,3.49744,0,0,0,0,0,0,0,-1,1770,1450,16.1916,-3.4975
553,-426,14.5302,8.90405,0,0,0,0,0,0,0,-1,1777,1450,14.5302,-8.90409
560,-426,13.6835,9.19165,0,0,0,0,0,0,0,-1,1784,1450,13.6835,-9.19164
567,-426,11.1727,8.76721,0,0,0,0,0,0,0,-1,1791,1450,11.1727,-8.76724
574,-426,12.8683,8.1709,0,0,0,0,0,0,0,-1,1798,1450,12.8683,-8.17084
581,-426,13.7981,9.08154,0,0,0,0,0,0,0,-1,1805,1450,13.7981,-9.0815
588,-426,13.7189,9.70898,0,0,0,0,0,0,0,-1,1812,1450,13.7188,-9.70903
595,-426,13.6959,9.34985,-0.0278902,-0.0142062,0.0184818,-0.0013406,-0.0407557,0.962677,0.0267348,0.0271206,1819,1450,13.6959,-9.34981
602,-426,13.6609,9.09448,-0.021666,-0.0105909,0.0141434,-0.00093961,-0.0313172,0.971989,0.0205721,0.0144297,1826,1450,13.6609,-9.09448
609,-426,13.658,8.84204,-0.0162452,-0.00766235,0.0104835,-0.000625937,-0.0232816,0.979668,0.0153167,0.0118756,1833,1450,13.658,-8.8421
616,-426,13.6519,8.61633,-0.0117087,-0.00541271,0.00750481,-0.000422389,-0.016699,0.983984,0.0109946,0.0139619,1840,1450,13.6518,-8.61636
623,-426,13.6566,8.37561,-0.00819255,-0.00341556,0.00515675,-0.000121012,-0.0114871,1.00228,0.00761805,0.011582,1847,1450,13.6566,-8.37561
630,-426,13.6763,8.12183,-0.00608561,-0.00223242,0.00384493,0.0001416,-0.00845962,1.01765,0.00568754,0.0120037,1854,1450,13.6763,-8.12177
637,-426,13.6844,7.86475,-0.00463001,-0.00109722,0.00287825,0.000513431,-0.00624066,1.06062,0.00434172,0.0122007,1861,1450,13.6844,-7.86476
644,-426,13.6563,7.63733,-0.00410804,-0.00033674,0.00256129,0.00095816,-0.00540294,1.10271,0.00396018,0.011378,1868,1450,13.6563,-7.63736
651,-426,13.6276,7.40039,-0.00449767,0.000106364,0.00281844,0.00144342,-0.00583473,1.12784,0.00444969,0.0110514,1875,1450,13.6275,-7.40042
658,-426,13.6388,7.10571,-0.00653685,0.000103629,0.00408662,0.00204879,-0.00848201,1.12655,0.00644704,0.0114089,1882,1450,13.6388,-7.10576
665,-426,13.672,6.79028,-0.0098408,-0.000205303,0.00603614,0.00270001,-0.0127461,1.1222,0.00952583,0.0185094,1889,1450,13.672,-6.79029
672,-426,13.5637,6.45227,-0.0142683,-0.000918966,0.00870507,0.00337585,-0.0185631,1.11247,0.0136406,0.0336411,1896,1450,13.5637,-6.45226
679,-426,13.0975,6.86511,-0.020054,-0.00224908,0.0122595,0.00399933,-0.0263024,1.09943,0.0190088,0.0465595,1903,1450,13.0976,-6.86511
686,-426,12.615,7.23596,0,0,0,0,0,0,0,-1,1910,1450,12.615,-7.23598
693,-426,11.8607,6.45215,0,0,0,0,0,0,0,-1,1917,1450,11.8607,-6.45215
700,-426,9.24304,2.95447,0,0,0,0,0,0,0,-1,1924,1450,9.24305,-2.95442
707,-426,8.44519,-1.21448,0,0,0,0,0,0,0,-1,1931,1450,8.44514,1.21454
714,-426,0,0,0,0,0,0,0,0,0,-1,1938,1450,0,0
721,-426,0,0,0,0,0,0,0,0,0,-1,1945,1450,0,0
728,-426,0,0,0,0,0,0,0,0,0,-1,1952,1450,0,0
735,-426,0,0,0,0,0,0,0,0,0,-1,1959,1450,0,0
742,-426,0,0,0,0,0,0,0,0,0,-1,1966,1450,0,0
749,-426,0,0,0,0,0,0,0,0,0,-1,1973,1450,0,0
756,-426,0,0,0,0,0,0,0,0,0,-1,1980,1450,0,0
763,-426,0,0,0,0,0,0,0,0,0,-1,1987,1450,0,0
770,-426,0,0,0,0,0,0,0,0,0,-1,1994,1450,0,0
777,-426,0,0,0,0,0,0,0,0,0,-1,2001,1450,0,0
784,-426,0,0,0,0,0,0,0,0,0,-1,2008,1450,0,0
791,-426,0,0,0,0,0,0,0,0,0,-1,2015,1450,0,0
798,-426,0,0,0,0,0,0,0,0,0,-1,2022,1450,0,0
805,-426,0,0,0,0,0,0,0,0,0,-1,2029,1450,0,0
812,-426,0,0,0,0,0,0,0,0,0,-1,2036,1450,0,0
-700,-433,0,0,0,0,0,0,0,0,0,-1,524,1457,0,0
-693,-433,0,0,0,0,0,0,0,0,0,-1,531,1457,0,0
-686,-433,0,0,0,0,0,0,0,0,0,-1,538,1457,0,0
-679,-433,0,0,0,0,0,0,0,0,0,-1,545,1457,0,0
-672,-433,0,0,0,0,0,0,0,0,0,-1,552,1457,0,0
-665,-433,0,0,0,0,0,0,0,0,0,-1,559,1457,0,0
-658,-433,0,0,0,0,0,0,0,0,0,-1,566,1457,0,0
-651,-433,0,0,0,0,0,0,0,0,0,-1,573,1457,0,0
-644,-433,0,0,0,0,0,0,0,0,0,-1,580,1457,0,0
-637,-433,0,0,0,0,0,0,0,0,0,-1,587,1457,0,0
-630,-433,0,0,0,0,0,0,0,0,0,-1,594,1457,0,0
-623,-433,0,0,0,0,0,0,0,0,0,-1,601,1457,0,0
-616,-433,0,0,0,0,0,0,0,0,0,-1,608,1457,0,0
-609,-433,0,0,0,0,0,0,0,0,0,-1,615,1457,0,0
-602,-433,0,0,0,0,0,0,0,0,0,-1,622,1457,0,0
-595,-433,0,0,0,0,0,0,0,0,0,-1,629,1457,0,0
-588,-433,-10.3756,-0.467041,0,0,0,0,0,0,0,-1,636,1457,-10.3756,0.467081
-581,-433,-8.12201,0.884033,0,0,0,0,0,0,0,-1,643,1457,-8.12204,-0.884056
-574,-433,-5.86847,2.23523,0,0,0,0,0,0,0,-1,650,1457,-5.86844,-2.23519
-567,-433,-5.42255,1.16833,0,0,0,0,0,0,0,-1,657,1457,-5.42254,-1.1683
-560,-433,-6.84027,1.86414,0,0,0,0,0,0,0,-1,664,1457,-6.84026,-1.86412
-553,-433,-5.74017,1.79163,0,0,0,0,0,0,0,-1,671,1457,-5.74015,-1.79166
-546,-433,-4.32458,3.77795,0,0,0,0,0,0,0,-1,678,1457,-4.32458,-3.77793
-539,-433,-4.28326,4.44775,0.00317839,0.0160667,0.0105662,0.0219988,-0.00275368,1.05923,0.0156646,0.0448568,685,1457,-4.28329,-4.44778
-532,-433,-4.15143,5.00244,0.00347821,0.0124112,0.00816252,0.0172493,-0.00135993,1.03574,0.0119786,0.0335159,692,1457,-4.15146,-5.00243
-525,-433,-4.2287,5.24963,0.00368307,0.00954051,0.00663602,0.0138653,-0.000641767,0.993211,0.00946474,0.0208754,699,1457,-4.22869,-5.24969
-518,-433,-4.25146,5.53284,0.00375688,0.00705589,0.00520591,0.0108674,-5.4596e-05,0.938821,0.00726318,0.0150013,706,1457,-4.25148,-5.53288
-511,-433,-4.27979,5.81982,0.00350552,0.0050007,0.00393367,0.00825719,0.000249029,0.879302,0.00542369,0.0148988,713,1457,-4.27977,-5.81984
-504,-433,-4.27954,6.08801,0.00257661,0.0031328,0.00253618,0.00540608,0.000303329,0.840005,0.00350732,0.0128165,720,1457,-4.27953,-6.08795
-497,-433,-4.26434,6.34521,0.00171136,0.00137624,0.00130663,0.00286113,0.000226465,0.721627,0.00183659,0.0131664,727,1457,-4.26434,-6.34526
-490,-433,-4.29083,6.61633,0.000875531,-0.000412001,-5.33584e-06,0.000875553,-0.000412023,-0.00414414,0.00075927,0.0154991,734,1457,-4.29081,-6.61628
-483,-433,-4.30029,6.93311,-0.000401578,-0.00218548,-0.00174305,0.000664483,-0.00325154,-0.548909,0.0024198,0.0164709,741,1457,-4.30027,-6.93314
-476,-433,-4.2851,7.21643,-0.00198029,-0.00402657,-0.00356868,0.000709016,-0.00671588,-0.645793,0.00473133,0.0104069,748,1457,-4.2851,-7.21648
-469,-433,-4.28571,7.49487,-0.00356563,-0.00599288,-0.00546359,0.000817502,-0.010376,-0.676108,0.00720532,0.0100592,755,1457,-4.28568,-7.49493
-462,-433,-4.31097,7.76172,-0.0051205,-0.00818969,-0.00760695,0.0011051,-0.0144153,-0.685866,0.00999894,0.00999246,762,1457,-4.31095,-7.7617
-455,-433,-4.1355,8.07605,-0.00692146,-0.0108284,-0.0101767,0.00148757,-0.0192375,-0.690573,0.0133485,0.0258961,769,1457,-4.13552,-8.07606
-448,-433,-4.26099,7.91248,0,0,0,0,0,0,0,-1,776,1457,-4.26101,-7.91242
-441,-433,-4.7038,8.02759,-0.0114391,-0.0187414,-0.0177066,0.00298892,-0.0331694,-0.683722,0.0231736,0.0462475,783,1457,-4.70382,-8.02763
-434,-433,-4.94391,8.06494,0,0,0,0,0,0,0,-1,790,1457,-4.94392,-8.06499
-427,-433,-4.9422,7.9917,0,0,0,0,0,0,0,-1,797,1457,-4.9422,-7.99168
-420,-433,-4.92816,8.03723,0,0,0,0,0,0,0,-1,804,1457,-4.92815,-8.03724
-413,-433,-3.63074,5.5813,0,0,0,0,0,0,0,-1,811,1457,-3.63072,-5.58129
-406,-433,-12.3472,4.69373,0,0,0,0,0,0,0,-1,818,1457,-12.3472,-4.69374
-399,-433,-12.055,2.83594,0,0,0,0,0,0,0,-1,825,1457,-12.055,-2.83594
-392,-433,-12.9772,1.6228,0,0,0,0,0,0,0,-1,832,1457,-12.9772,-1.62282
-385,-433,-13.7999,0.514771,0,0,0,0,0,0,0,-1,839,1457,-13.7999,-0.514788
-378,-433,0,0,0,0,0,0,0,0,0,-1,846,1457,0,0
-371,-433,0,0,0,0,0,0,0,0,0,-1,853,1457,0,0
-364,-433,0,0,0,0,0,0,0,0,0,-1,860,1457,0,0
-357,-433,0,0,0,0,0,0,0,0,0,-1,867,1457,0,0
-350,-433,0,0,0,0,0,0,0,0,0,-1,874,1457,0,0
-343,-433,0,0,0,0,0,0,0,0,0,-1,881,1457,0,0
-336,-433,0,0,0,0,0,0,0,0,0,-1,888,1457,0,0
-329,-433,0,0,0,0,0,0,0,0,0,-1,895,1457,0,0
-322,-433,0,0,0,0,0,0,0,0,0,-1,902,1457,0,0
-315,-433,0,0,0,0,0,0,0,0,0,-1,909,1457,0,0
-308,-433,0,0,0,0,0,0,0,0,0,-1,916,1457,0,0
-301,-433,0,0,0,0,0,0,0,0,0,-1,923,1457,0,0
-294,-433,0,0,0,0,0,0,0,0,0,-1,930,1457,0,0
-287,-433,0,0,0,0,0,0,0,0,0,-1,937,1457,0,0
-280,-433,0,0,0,0,0,0,0,0,0,-1,944,1457,0,0
-273,-433,0,0,0,0,0,0,0,0,0,-1,951,1457,0,0
-266,-433,0,0,0,0,0,0,0,0,0,-1,958,1457,0,0
-259,-433,0,0,0,0,0,0,0,0,0,-1,965,1457,0,0
-252,-433,0,0,0,0,0,0,0,0,0,-1,972,1457,0,0
-245,-433,0,0,0,0,0,0,0,0,0,-1,979,1457,0,0
-238,-433,0,0,0,0,0,0,0,0,0,-1,986,1457,0,0
-231,-433,0,0,0,0,0,0,0,0,0,-1,993,1457,0,0
-224,-433,0,0,0,0,0,0,0,0,0,-1,1000,1457,0,0
-217,-433,0,0,0,0,0,0,0,0,0,-1,1007,1457,0,0
-210,-433,0,0,0,0,0,0,0,0,0,-1,1014,1457,0,0
-203,-433,0,0,0,0,0,0,0,0,0,-1,1021,1457,0,0
-196,-433,0,0,0,0,0,0,0,0,0,-1,1028,1457,0,0
-189,-433,0,0,0,0,0,0,0,0,0,-1,1035,1457,0,0
-182,-433,0,0,0,0,0,0,0,0,0,-1,1042,1457,0,0
-175,-433,0,0,0,0,0,0,0,0,0,-1,1049,1457,0,0
-168,-433,0,0,0,0,0,0,0,0,0,-1,1056,1457,0,0
-161,-433,0,0,0,0,0,0,0,0,0,-1,1063,1457,0,0
-154,-433,0,0,0,0,0,0,0,0,0,-1,1070,1457,0,0
-147,-433,0,0,0,0,0,0,0,0,0,-1,1077,1457,0,0
-140,-433,0,0,0,0,0,0,0,0,0,-1,1084,1457,0,0
-133,-433,0,0,0,0,0,0,0,0,0,-1,1091,1457,0,0
-126,-433,0,0,0,0,0,0,0,0,0,-1,1098,1457,0,0
-119,-433,0,0,0,0,0,0,0,0,0,-1,1105,1457,0,0
-112,-433,0,0,0,0,0,0,0,0,0,-1,1112,1457,0,0
-105,-433,0,0,0,0,0,0,0,0,0,-1,1119,1457,0,0
-98,-433,0,0,0,0,0,0,0,0,0,-1,1126,1457,0,0
-91,-433,0,0,0,0,0,0,0,0,0,-1,1133,1457,0,0
-84,-433,0,0,0,0,0,0,0,0,0,-1,1140,1457,0,0
-77,-433,0,0,0,0,0,0,0,0,0,-1,1147,1457,0,0
-70,-433,0,0,0,0,0,0,0,0,0,-1,1154,1457,0,0
-63,-433,0,0,0,0,0,0,0,0,0,-1,1161,1457,0,0
-56,-433,0,0,0,0,0,0,0,0,0,-1,1168,1457,0,0
-49,-433,0,0,0,0,0,0,0,0,0,-1,1175,1457,0,0
-42,-433,0,0,0,0,0,0,0,0,0,-1,1182,1457,0,0
-35,-433,0,0,0,0,0,0,0,0,0,-1,1189,1457,0,0
-28,-433,0,0,0,0,0,0,0,0,0,-1,1196,1457,0,0
-21,-433,0,0,0,0,0,0,0,0,0,-1,1203,1457,0,0
-14,-433,0,0,0,0,0,0,0,0,0,-1,1210,1457,0,0
-7,-433,0,0,0,0,0,0,0,0,0,-1,1217,1457,0,0
0,-433,0,0,0,0,0,0,0,0,0,-1,1224,1457,0,0
7,-433,0,0,0,0,0,0,0,0,0,-1,1231,1457,0,0
14,-433,0,0,0,0,0,0,0,0,0,-1,1238,1457,0,0
21,-433,0,0,0,0,0,0,0,0,0,-1,1245,1457,0,0
28,-433,0,0,0,0,0,0,0,0,0,-1,1252,1457,0,0
35,-433,0,0,0,0,0,0,0,0,0,-1,1259,1457,0,0
42,-433,0,0,0,0,0,0,0,0,0,-1,1266,1457,0,0
49,-433,0,0,0,0,0,0,0,0,0,-1,1273,1457,0,0
56,-433,0,0,0,0,0,0,0,0,0,-1,1280,1457,0,0
63,-433,0,0,0,0,0,0,0,0,0,-1,1287,1457,0,0
70,-433,0,0,0,0,0,0,0,0,0,-1,1294,1457,0,0
77,-433,0,0,0,0,0,0,0,0,0,-1,1301,1457,0,0
84,-433,0,0,0,0,0,0,0,0,0,-1,1308,1457,0,0
91,-433,0,0,0,0,0,0,0,0,0,-1,1315,1457,0,0
98,-433,0,0,0,0,0,0,0,0,0,-1,1322,1457,0,0
105,-433,0,0,0,0,0,0,0,0,0,-1,1329,1457,0,0
112,-433,0,0,0,0,0,0,0,0,0,-1,1336,1457,0,0
119,-433,0,0,0,0,0,0,0,0,0,-1,1343,1457,0,0
126,-433,0,0,0,0,0,0,0,0,0,-1,1350,1457,0,0
133,-433,0,0,0,0,0,0,0,0,0,-1,1357,1457,0,0
140,-433,0,0,0,0,0,0,0,0,0,-1,1364,1457,0,0
147,-433,0,0,0,0,0,0,0,0,0,-1,1371,1457,0,0
154,-433,0,0,0,0,0,0,0,0,0,-1,1378,1457,0,0
161,-433,0,0,0,0,0,0,0,0,0,-1,1385,1457,0,0
168,-433,0,0,0,0,0,0,0,0,0,-1,1392,1457,0,0
175,-433,0,0,0,0,0,0,0,0,0,-1,1399,1457,0,0
182,-433,0,0,0,0,0,0,0,0,0,-1,1406,1457,0,0
189,-433,0,0,0,0,0,0,0,0,0,-1,1413,1457,0,0
196,-433,0,0,0,0,0,0,0,0,0,-1,1420,1457,0,0
203,-433,0,0,0,0,0,0,0,0,0,-1,1427,1457,0,0
210,-433,0,0,0,0,0,0,0,0,0,-1,1434,1457,0,0
217,-433,0,0,0,0,0,0,0,0,0,-1,1441,1457,0,0
224,-433,0,0,0,0,0,0,0,0,0,-1,1448,1457,0,0
231,-433,0,0,0,0,0,0,0,0,0,-1,1455,1457,0,0
238,-433,0,0,0,0,0,0,0,0,0,-1,1462,1457,0,0
245,-433,0,0,0,0,0,0,0,0,0,-1,1469,1457,0,0
252,-433,0,0,0,0,0,0,0,0,0,-1,1476,1457,0,0
259,-433,0,0,0,0,0,0,0,0,0,-1,1483,1457,0,0
266,-433,0,0,0,0,0,0,0,0,0,-1,1490,1457,0,0
273,-433,0,0,0,0,0,0,0,0,0,-1,1497,1457,0,0
280,-433,0,0,0,0,0,0,0,0,0,-1,1504,1457,0,0
287,-433,0,0,0,0,0,0,0,0,0,-1,1511,1457,0,0
294,-433,0,0,0,0,0,0,0,0,0,-1,1518,1457,0,0
301,-433,0,0,0,0,0,0,0,0,0,-1,1525,1457,0,0
308,-433,0,0,0,0,0,0,0,0,0,-1,1532,1457,0,0
315,-433,0,0,0,0,0,0,0,0,0,-1,1539,1457,0,0
322,-433,0,0,0,0,0,0,0,0,0,-1,1546,1457,0,0
329,-433,0,0,0,0,0,0,0,0,0,-1,1553,1457,0,0
336,-433,0,0,0,0,0,0,0,0,0,-1,1560,1457,0,0
343,-433,0,0,0,0,0,0,0,0,0,-1,1567,1457,0,0
350,-433,0,0,0,0,0,0,0,0,0,-1,1574,1457,0,0
357,-433,0,0,0,0,0,0,0,0,0,-1,1581,1457,0,0
364,-433,0,0,0,0,0,0,0,0,0,-1,1588,1457,0,0
371,-433,0,0,0,0,0,0,0,0,0,-1,1595,1457,0,0
378,-433,0,0,0,0,0,0,0,0,0,-1,1602,1457,0,0
385,-433,0,0,0,0,0,0,0,0,0,-1,1609,1457,0,0
392,-433,0,0,0,0,0,0,0,0,0,-1,1616,1457,0,0
399,-433,0,0,0,0,0,0,0,0,0,-1,1623,1457,0,0
406,-433,0,0,0,0,0,0,0,0,0,-1,1630,1457,0,0
413,-433,0,0,0,0,0,0,0,0,0,-1,1637,1457,0,0
420,-433,0,0,0,0,0,0,0,0,0,-1,1644,1457,0,0
427,-433,0,0,0,0,0,0,0,0,0,-1,1651,1457,0,0
434,-433,0,0,0,0,0,0,0,0,0,-1,1658,1457,0,0
441,-433,0,0,0,0,0,0,0,0,0,-1,1665,1457,0,0
448,-433,0,0,0,0,0,0,0,0,0,-1,1672,1457,0,0
455,-433,0,0,0,0,0,0,0,0,0,-1,1679,1457,0,0
462,-433,0,0,0,0,0,0,0,0,0,-1,1686,1457,0,0
469,-433,0,0,0,0,0,0,0,0,0,-1,1693,1457,0,0
476,-433,0,0,0,0,0,0,0,0,0,-1,1700,1457,0,0
483,-433,0,0,0,0,0,0,0,0,0,-1,1707,1457,0,0
490,-433,0,0,0,0,0,0,0,0,0,-1,1714,1457,0,0
497,-433,0,0,0,0,0,0,0,0,0,-1,1721,1457,0,0
504,-433,19.9058,3.03662,0,0,0,0,0,0,0,-1,1728,1457,19.9058,-3.03656
511,-433,19.0145,3.07837,0,0,0,0,0,0,0,-1,1735,1457,19.0146,-3.07834
518,-433,18.071,3.06433,0,0,0,0,0,0,0,-1,1742,1457,18.071,-3.06432
525,-433,17.2048,3.37085,0,0,0,0,0,0,0,-1,1749,1457,17.2049,-3.37083
532,-433,16.5637,3.36646,0,0,0,0,0,0,0,-1,1756,1457,16.5637,-3.36643
539,-433,15.9193,3.30396,0,0,0,0,0,0,0,-1,1763,1457,15.9193,-3.30394
546,-433,14.5652,8.74915,0,0,0,0,0,0,0,-1,1770,1457,14.5652,-8.74918
553,-433,14.8173,10.8182,0,0,0,0,0,0,0,-1,1777,1457,14.8173,-10.8183
560,-433,13.6595,8.94287,0,0,0,0,0,0,0,-1,1784,1457,13.6595,-8.9429
567,-433,13.4116,8.54578,0,0,0,0,0,0,0,-1,1791,1457,13.4116,-8.54577
574,-433,13.4623,9.77136,0,0,0,0,0,0,0,-1,1798,1457,13.4622,-9.77133
581,-433,13.5823,9.56567,-0.0316657,-0.0188397,0.021819,-0.00251075,-0.0479947,0.928332,0.0311933,0.0445955,1805,1457,13.5823,-9.56573
588,-433,13.5481,9.46753,-0.025506,-0.0146794,0.0176545,-0.00162692,-0.0385586,0.934159,0.0251809,0.0390196,1812,1457,13.5481,-9.46754
595,-433,13.3904,9.36938,-0.0203372,-0.0110883,0.0139762,-0.000991347,-0.0304341,0.945167,0.0199672,0.022812,1819,1457,13.3904,-9.36933
602,-433,13.4227,9.12695,-0.0158912,-0.00823277,0.0107633,-0.00063782,-0.0234862,0.9563,0.0154492,0.0189999,1826,1457,13.4228,-9.12689
609,-433,13.4264,8.85327,-0.0118859,-0.00589936,0.00798862,-0.000361652,-0.0174236,0.964649,0.0114971,0.0147043,1833,1457,13.4264,-8.85333
616,-433,13.4216,8.6123,-0.00845136,-0.00405458,0.00570261,-0.000141287,-0.0123647,0.969373,0.00819641,0.0129531,1840,1457,13.4217,-8.61228
623,-433,13.3907,8.36792,-0.00585957,-0.00231521,0.00386469,0.000164251,-0.00833904,1.00037,0.00561491,0.0106551,1847,1457,13.3907,-8.36791
630,-433,13.3948,8.11279,-0.0045945,-0.00142079,0.00303787,0.00041971,-0.006435,1.02609,0.00443653,0.0125643,1854,1457,13.3948,-8.11284
637,-433,13.4075,7.87048,-0.00368144,-0.000430412,0.00235798,0.00080805,-0.0049199,1.08718,0.00357981,0.013359,1861,1457,13.4074,-7.87044
644,-433,13.4089,7.64331,-0.00364508,0.000268593,0.00227143,0.00130986,-0.00468634,1.14096,0.00364027,0.0145398,1868,1457,13.4089,-7.6433
651,-433,13.3949,7.39514,-0.00474342,0.000670792,0.00287849,0.00191516,-0.00598779,1.16276,0.00476044,0.0112811,1875,1457,13.3949,-7.39517
658,-433,13.3796,7.08508,-0.00744035,0.000747869,0.00438275,0.00265128,-0.00934376,1.16108,0.00727577,0.0139561,1882,1457,13.3797,-7.08513
665,-433,13.3234,6.78369,-0.0114272,0.000638333,0.00654284,0.00350518,-0.014294,1.15783,0.0108875,0.0209566,1889,1457,13.3233,-6.78373
672,-433,13.2502,6.80688,-0.0168136,0.00015917,0.00955984,0.00445596,-0.0211103,1.14839,0.0157701,0.0395458,1896,1457,13.2502,-6.80686
679,-433,12.453,7.14441,-0.0240656,-0.00093547,0.0136938,0.00542352,-0.0304246,1.13606,0.0223117,0.0408765,1903,1457,12.4531,-7.14442
686,-433,11.7302,7.40735,0,0,0,0,0,0,0,-1,1910,1457,11.7302,-7.40731
693,-433,11.3199,7.60999,0,0,0,0,0,0,0,-1,1917,1457,11.3199,-7.61004
700,-433,7.16809,-1.5166,0,0,0,0,0,0,0,-1,1924,1457,7.16806,1.51656
707,-433,8.68359,-2.82202,0,0,0,0,0,0,0,-1,1931,1457,8.68359,2.82197
714,-433,0,0,0,0,0,0,0,0,0,-1,1938,1457,0,0
721,-433,0,0,0,0,0,0,0,0,0,-1,1945,1457,0,0
728,-433,0,0,0,0,0,0,0,0,0,-1,1952,1457,0,0
735,-433,0,0,0,0,0,0,0,0,0,-1,1959,1457,0,0
742,-433,0,0,0,0,0,0,0,0,0,-1,1966,1457,0,0
749,-433,0,0,0,0,0,0,0,0,0,-1,1973,1457,0,0
756,-433,0,0,0,0,0,0,0,0,0,-1,1980,1457,0,0
763,-433,0,0,0,0,0,0,0,0,0,-1,1987,1457,0,0
770,-433,0,0,0,0,0,0,0,0,0,-1,1994,1457,0,0
777,-433,0,0,0,0,0,0,0,0,0,-1,2001,1457,0,0
784,-433,0,0,0,0,0,0,0,0,0,-1,2008,1457,0,0
791,-433,0,0,0,0,0,0,0,0,0,-1,2015,1457,0,0
798,-433,0,0,0,0,0,0,0,0,0,-1,2022,1457,0,0
805,-433,0,0,0,0,0,0,0,0,0,-1,2029,1457,0,0
812,-433,0,0,0,0,0,0,0,0,0,-1,2036,1457,0,0
-700,-440,0,0,0,0,0,0,0,0,0,-1,524,1464,0,0
-693,-440,0,0,0,0,0,0,0,0,0,-1,531,1464,0,0
-686,-440,0,0,0,0,0,0,0,0,0,-1,538,1464,0,0
-679,-440,0,0,0,0,0,0,0,0,0,-1,545,1464,0,0
-672,-440,0,0,0,0,0,0,0,0,0,-1,552,1464,0,0
-665,-440,0,0,0,0,0,0,0,0,0,-1,559,1464,0,0
-658,-440,0,0,0,0,0,0,0,0,0,-1,566,1464,0,0
-651,-440,0,0,0,0,0,0,0,0,0,-1,573,1464,0,0
-644,-440,0,0,0,0,0,0,0,0,0,-1,580,1464,0,0
-637,-440,0,0,0,0,0,0,0,0,0,-1,587,1464,0,0
-630,-440,0,0,0,0,0,0,0,0,0,-1,594,1464,0,0
-623,-440,0,0,0,0,0,0,0,0,0,-1,601,1464,0,0
-616,-440,0,0,0,0,0,0,0,0,0,-1,608,1464,0,0
-609,-440,0,0,0,0,0,0,0,0,0,-1,615,1464,0,0
-602,-440,0,0,0,0,0,0,0,0,0,-1,622,1464,0,0
-595,-440,0,0,0,0,0,0,0,0,0,-1,629,1464,0,0
-588,-440,0,0,0,0,0,0,0,0,0,-1,636,1464,0,0
-581,-440,-8.97278,0.254517,0,0,0,0,0,0,0,-1,643,1464,-8.97276,-0.254526
-574,-440,-7.00818,-0.918579,0,0,0,0,0,0,0,-1,650,1464,-7.00817,0.918538
-567,-440,-6.12152,-0.0766602,0,0,0,0,0,0,0,-1,657,1464,-6.12151,0.0767097
-560,-440,-5.46747,0.82251,0,0,0,0,0,0,0,-1,664,1464,-5.46748,-0.822551
-553,-440,-6.84729,0.0831299,0,0,0,0,0,0,0,-1,671,1464,-6.84732,-0.083136
-546,-440,-5.63446,-0.153198,0,0,0,0,0,0,0,-1,678,1464,-5.63447,0.153147
-539,-440,-4.22894,4.45874,0,0,0,0,0,0,0,-1,685,1464,-4.22892,-4.45871
-532,-440,-4.04993,4.91101,0.00719426,0.0157158,0.0112778,0.0235108,-0.000600786,0.96601,0.0158779,0.0402092,692,1464,-4.04996,-4.91101
-525,-440,-4.00482,5.27026,0.00665309,0.0120952,0.00905734,0.0188314,-8.31001e-05,0.931322,0.0125821,0.0222072,699,1464,-4.00484,-5.27032
-518,-440,-4.01147,5.50366,0.00602545,0.00905817,0.00707306,0.0147756,0.000308032,0.890992,0.00974934,0.0139309,706,1464,-4.0115,-5.50361
-511,-440,-3.99109,5.79053,0.0052242,0.00657757,0.00536355,0.011307,0.000494811,0.848148,0.00737856,0.0145175,713,1464,-3.99107,-5.79051
-504,-440,-3.99536,6.06958,0.00397999,0.00443317,0.00369059,0.00790412,0.00050904,0.816058,0.00510819,0.0185004,720,1464,-3.99539,-6.06956
-497,-440,-3.99396,6.34277,0.00281486,0.00250179,0.00224119,0.00490498,0.000411675,0.750532,0.00314176,0.0210188,727,1464,-3.99394,-6.34275
-490,-440,-3.99097,6.5979,0.00184476,0.00065488,0.000867922,0.00230208,0.000197565,0.484942,0.00147329,0.0217295,734,1464,-3.99097,-6.59793
-483,-440,-4.01978,6.90918,0.000587326,-0.00107487,-0.000814945,0.000920211,-0.00140776,-0.387792,0.00135384,0.0201786,741,1464,-4.01976,-6.90914
-476,-440,-4.01111,7.19885,-0.000835521,-0.00278942,-0.00247375,0.0008472,-0.00447214,-0.597335,0.00330028,0.0125955,748,1464,-4.01113,-7.19881
-469,-440,-4.00946,7.48389,-0.00206796,-0.00451145,-0.00408276,0.000971933,-0.00755134,-0.640016,0.00538751,0.0117657,755,1464,-4.00947,-7.48387
-462,-440,-4.02417,7.76819,-0.00301575,-0.00636499,-0.00577869,0.00132608,-0.0107068,-0.644365,0.00761847,0.0135314,762,1464,-4.02416,-7.76819
-455,-440,-3.94989,8.07727,-0.00395765,-0.00845978,-0.00769782,0.00181149,-0.0142289,-0.64315,0.0101438,0.0183175,769,1464,-3.94989,-8.07723
-448,-440,-3.88397,8.07971,0,0,0,0,0,0,0,-1,776,1464,-3.884,-8.07966
-441,-440,-4.24579,8.19409,0,0,0,0,0,0,0,-1,783,1464,-4.24579,-8.1941
-434,-440,-4.6076,8.30847,0,0,0,0,0,0,0,-1,790,1464,-4.60759,-8.30853
-427,-440,-3.89825,8.30029,0,0,0,0,0,0,0,-1,797,1464,-3.89824,-8.30034
-420,-440,-3.36182,6.51855,0,0,0,0,0,0,0,-1,804,1464,-3.3618,-6.51852
-413,-440,-3.46796,5.72278,0,0,0,0,0,0,0,-1,811,1464,-3.46797,-5.72276
-406,-440,-5.2887,5.20264,0,0,0,0,0,0,0,-1,818,1464,-5.2887,-5.20261
-399,-440,-12.7318,3.94421,0,0,0,0,0,0,0,-1,825,1464,-12.7318,-3.94419
-392,-440,-13.5565,2.51855,0,0,0,0,0,0,0,-1,832,1464,-13.5565,-2.51861
-385,-440,-14.6741,1.39795,0,0,0,0,0,0,0,-1,839,1464,-14.6741,-1.39801
-378,-440,-15.8063,0.293457,0,0,0,0,0,0,0,-1,846,1464,-15.8063,-0.293412
-371,-440,0,0,0,0,0,0,0,0,0,-1,853,1464,0,0
-364,-440,0,0,0,0,0,0,0,0,0,-1,860,1464,0,0
-357,-440,0,0,0,0,0,0,0,0,0,-1,867,1464,0,0
-350,-440,0,0,0,0,0,0,0,0,0,-1,874,1464,0,0
-343,-440,0,0,0,0,0,0,0,0,0,-1,881,1464,0,0
-336,-440,0,0,0,0,0,0,0,0,0,-1,888,1464,0,0
-329,-440,0,0,0,0,0,0,0,0,0,-1,895,1464,0,0
-322,-440,0,0,0,0,0,0,0,0,0,-1,902,1464,0,0
-315,-440,0,0,0,0,0,0,0,0,0,-1,909,1464,0,0
-308,-440,0,0,0,0,0,0,0,0,0,-1,916,1464,0,0
-301,-440,0,0,0,0,0,0,0,0,0,-1,923,1464,0,0
-294,-440,0,0,0,0,0,0,0,0,0,-1,930,1464,0,0
-287,-440,0,0,0,0,0,0,0,0,0,-1,937,1464,0,0
-280,-440,0,0,0,0,0,0,0,0,0,-1,944,1464,0,0
-273,-440,0,0,0,0,0,0,0,0,0,-1,951,1464,0,0
-266,-440,0,0,0,0,0,0,0,0,0,-1,958,1464,0,0
-259,-440,0,0,0,0,0,0,0,0,0,-1,965,1464,0,0
-252,-440,0,0,0,0,0,0,0,0,0,-1,972,1464,0,0
-245,-440,0,0,0,0,0,0,0,0,0,-1,979,1464,0,0
-238,-440,0,0,0,0,0,0,0,0,0,-1,986,1464,0,0
-231,-440,0,0,0,0,0,0,0,0,0,-1,993,1464,0,0
-224,-440,0,0,0,0,0,0,0,0,0,-1,1000,1464,0,0
-217,-440,0,0,0,0,0,0,0,0,0,-1,1007,1464,0,0
-210,-440,0,0,0,0,0,0,0,0,0,-1,1014,1464,0,0
-203,-440,0,0,0,0,0,0,0,0,0,-1,1021,1464,0,0
-196,-440,0,0,0,0,0,0,0,0,0,-1,1028,1464,0,0
-189,-440,0,0,0,0,0,0,0,0,0,-1,1035,1464,0,0
-182,-440,0,0,0,0,0,0,0,0,0,-1,1042,1464,0,0
-175,-440,0,0,0,0,0,0,0,0,0,-1,1049,1464,0,0
-168,-440,0,0,0,0,0,0,0,0,0,-1,1056,1464,0,0
-161,-440,0,0,0,0,0,0,0,0,0,-1,1063,1464,0,0
-154,-440,0,0,0,0,0,0,0,0,0,-1,1070,1464,0,0
-147,-440,0,0,0,0,0,0,0,0,0,-1,1077,1464,0,0
-140,-440,0,0,0,0,0,0,0,0,0,-1,1084,1464,0,0
-133,-440,0,0,0,0,0,0,0,0,0,-1,1091,1464,0,0
-126,-440,0,0,0,0,0,0,0,0,0,-1,1098,1464,0,0
-119,-440,0,0,0,0,0,0,0,0,0,-1,1105,1464,0,0
-112,-440,0,0,0,0,0,0,0,0,0,-1,1112,1464,0,0
-105,-440,0,0,0,0,0,0,0,0,0,-1,1119,1464,0,0
-98,-440,0,0,0,0,0,0,0,0,0,-1,1126,1464,0,0
-91,-440,0,0,0,0,0,0,0,0,0,-1,1133,1464,0,0
-84,-440,0,0,0,0,0,0,0,0,0,-1,1140,1464,0,0
-77,-440,0,0,0,0,0,0,0,0,0,-1,1147,1464,0,0
-70,-440,0,0,0,0,0,0,0,0,0,-1,1154,1464,0,0
-63,-440,0,0,0,0,0,0,0,0,0,-1,1161,1464,0,0
-56,-440,0,0,0,0,0,0,0,0,0,-1,1168,1464,0,0
-49,-440,0,0,0,0,0,0,0,0,0,-1,1175,1464,0,0
-42,-440,0,0,0,0,0,0,0,0,0,-1,1182,1464,0,0
-35,-440,0,0,0,0,0,0,0,0,0,-1,1189,1464,0,0
-28,-440,0,0,0,0,0,0,0,0,0,-1,1196,1464,0,0
-21,-440,0,0,0,0,0,0,0,0,0,-1,1203,1464,0,0
-14,-440,0,0,0,0,0,0,0,0,0,-1,1210,1464,0,0
-7,-440,0,0,0,0,0,0,0,0,0,-1,1217,1464,0,0
0,-440,0,0,0,0,0,0,0,0,0,-1,1224,1464,0,0
7,-440,0,0,0,0,0,0,0,0,0,-1,1231,1464,0,0
14,-440,0,0,0,0,0,0,0,0,0,-1,1238,1464,0,0
21,-440,0,0,0,0,0,0,0,0,0,-1,1245,1464,0,0
28,-440,0,0,0,0,0,0,0,0,0,-1,1252,1464,0,0
35,-440,0,0,0,0,0,0,0,0,0,-1,1259,1464,0,0
42,-440,0,0,0,0,0,0,0,0,0,-1,1266,1464,0,0
49,-440,0,0,0,0,0,0,0,0,0,-1,1273,1464,0,0
56,-440,0,0,0,0,0,0,0,0,0,-1,1280,1464,0,0
63,-440,0,0,0,0,0,0,0,0,0,-1,1287,1464,0,0
70,-440,0,0,0,0,0,0,0,0,0,-1,1294,1464,0,0
77,-440,0,0,0,0,0,0,0,0,0,-1,1301,1464,0,0
84,-440,0,0,0,0,0,0,0,0,0,-1,1308,1464,0,0
91,-440,0,0,0,0,0,0,0,0,0,-1,1315,1464,0,0
98,-440,0,0,0,0,0,0,0,0,0,-1,1322,1464,0,0
105,-440,0,0,0,0,0,0,0,0,0,-1,1329,1464,0,0
112,-440,0,0,0,0,0,0,0,0,0,-1,1336,1464,0,0
119,-440,0,0,0,0,0,0,0,0,0,-1,1343,1464,0,0
126,-440,0,0,0,0,0,0,0,0,0,-1,1350,1464,0,0
133,-440,0,0,0,0,0,0,0,0,0,-1,1357,1464,0,0
140,-440,0,0,0,0,0,0,0,0,0,-1,1364,1464,0,0
147,-440,0,0,0,0,0,0,0,0,0,-1,1371,1464,0,0
154,-440,0,0,0,0,0,0,0,0,0,-1,1378,1464,0,0
161,-440,0,0,0,0,0,0,0,0,0,-1,1385,1464,0,0
168,-440,0,0,0,0,0,0,0,0,0,-1,1392,1464,0,0
175,-440,0,0,0,0,0,0,0,0,0,-1,1399,1464,0,0
182,-440,0,0,0,0,0,0,0,0,0,-1,1406,1464,0,0
189,-440,0,0,0,0,0,0,0,0,0,-1,1413,1464,0,0
196,-440,0,0,0,0,0,0,0,0,0,-1,1420,1464,0,0
203,-440,0,0,0,0,0,0,0,0,0,-1,1427,1464,0,0
210,-440,0,0,0,0,0,0,0,0,0,-1,1434,1464,0,0
217,-440,0,0,0,0,0,0,0,0,0,-1,1441,1464,0,0
224,-440,0,0,0,0,0,0,0,0,0,-1,1448,1464,0,0
231,-440,0,0,0,0,0,0,0,0,0,-1,1455,1464,0,0
238,-440,0,0,0,0,0,0,0,0,0,-1,1462,1464,0,0
245,-440,0,0,0,0,0,0,0,0,0,-1,1469,1464,0,0
252,-440,0,0,0,0,0,0,0,0,0,-1,1476,1464,0,0
259,-440,0,0,0,0,0,0,0,0,0,-1,1483,1464,0,0
266,-440,0,0,0,0,0,0,0,0,0,-1,1490,1464,0,0
273,-440,0,0,0,0,0,0,0,0,0,-1,1497,1464,0,0
280,-440,0,0,0,0,0,0,0,0,0,-1,1504,1464,0,0
287,-440,0,0,0,0,0,0,0,0,0,-1,1511,1464,0,0
294,-440,0,0,0,0,0,0,0,0,0,-1,1518,1464,0,0
301,-440,0,0,0,0,0,0,0,0,0,-1,1525,1464,0,0
308,-440,0,0,0,0,0,0,0,0,0,-1,1532,1464,0,0
315,-440,0,0,0,0,0,0,0,0,0,-1,1539,1464,0,0
322,-440,0,0,0,0,0,0,0,0,0,-1,1546,1464,0,0
329,-440,0,0,0,0,0,0,0,0,0,-1,1553,1464,0,0
336,-440,0,0,0,0,0,0,0,0,0,-1,1560,1464,0,0
343,-440,0,0,0,0,0,0,0,0,0,-1,1567,1464,0,0
350,-440,0,0,0,0,0,0,0,0,0,-1,1574,1464,0,0
357,-440,0,0,0,0,0,0,0,0,0,-1,1581,1464,0,0
364,-440,0,0,0,0,0,0,0,0,0,-1,1588,1464,0,0
371,-440,0,0,0,0,0,0,0,0,0,-1,1595,1464,0,0
378,-440,0,0,0,0,0,0,0,0,0,-1,1602,1464,0,0
385,-440,0,0,0,0,0,0,0,0,0,-1,1609,1464,0,0
392,-440,0,0,0,0,0,0,0,0,0,-1,1616,1464,0,0
399,-440,0,0,0,0,0,0,0,0,0,-1,1623,1464,0,0
406,-440,0,0,0,0,0,0,0,0,0,-1,1630,1464,0,0
413,-440,0,0,0,0,0,0,0,0,0,-1,1637,1464,0,0
420,-440,0,0,0,0,0,0,0,0,0,-1,1644,1464,0,0
427,-440,0,0,0,0,0,0,0,0,0,-1,1651,1464,0,0
434,-440,0,0,0,0,0,0,0,0,0,-1,1658,1464,0,0
441,-440,0,0,0,0,0,0,0,0,0,-1,1665,1464,0,0
448,-440,0,0,0,0,0,0,0,0,0,-1,1672,1464,0,0
455,-440,0,0,0,0,0,0,0,0,0,-1,1679,1464,0,0
462,-440,0,0,0,0,0,0,0,0,0,-1,1686,1464,0,0
469,-440,0,0,0,0,0,0,0,0,0,-1,1693,1464,0,0
476,-440,0,0,0,0,0,0,0,0,0,-1,1700,1464,0,0
483,-440,0,0,0,0,0,0,0,0,0,-1,1707,1464,0,0
490,-440,0,0,0,0,0,0,0,0,0,-1,1714,1464,0,0
497,-440,16.965,-0.528442,0,0,0,0,0,0,0,-1,1721,1464,16.965,0.528492
504,-440,15.8052,0.670166,0,0,0,0,0,0,0,-1,1728,1464,15.8052,-0.670145
511,-440,17.5754,2.77832,0,0,0,0,0,0,0,-1,1735,1464,17.5754,-2.77826
518,-440,16.9017,3.07861,0,0,0,0,0,0,0,-1,1742,1464,16.9018,-3.07859
525,-440,18.4495,12.0867,0,0,0,0,0,0,0,-1,1749,1464,18.4495,-12.0867
532,-440,15.4319,3.64392,0,0,0,0,0,0,0,-1,1756,1464,15.4318,-3.64391
539,-440,14.8214,3.41321,0,0,0,0,0,0,0,-1,1763,1464,14.8214,-3.4132
546,-440,14.2815,10.4449,0,0,0,0,0,0,0,-1,1770,1464,14.2815,-10.445
553,-440,14.2179,10.2375,0,0,0,0,0,0,0,-1,1777,1464,14.2179,-10.2375
560,-440,13.8458,9.3916,0,0,0,0,0,0,0,-1,1784,1464,13.8458,-9.39163
567,-440,13.4669,9.53271,0,0,0,0,0,0,0,-1,1791,1464,13.467,-9.5327
574,-440,13.3195,9.94214,0,0,0,0,0,0,0,-1,1798,1464,13.3194,-9.94213
581,-440,13.2374,9.72693,-0.022593,-0.0145917,0.0159526,-0.00214571,-0.0350389,0.908256,0.0226779,0.0428296,1805,1464,13.2374,-9.7269
588,-440,13.0945,9.68518,-0.0179999,-0.0113879,0.0129188,-0.00135879,-0.0280289,0.910664,0.0182499,0.0329994,1812,1464,13.0945,-9.68516
595,-440,13.1387,9.39929,-0.0142807,-0.00855068,0.0102657,-0.00075766,-0.0220737,0.921478,0.0144699,0.0192108,1819,1464,13.1386,-9.39924
602,-440,13.1841,9.11987,-0.0111274,-0.0063167,0.00790653,-0.000457734,-0.0169864,0.933062,0.0111748,0.0178182,1826,1464,13.1841,-9.11992
609,-440,13.1685,8.86707,-0.00818237,-0.00447055,0.00582919,-0.000208952,-0.012444,0.939515,0.00822721,0.0151996,1833,1464,13.1685,-8.8671
616,-440,13.1544,8.63904,-0.00559086,-0.00294699,0.00410396,4.26853e-05,-0.00858053,0.941207,0.00573464,0.0159183,1840,1464,13.1545,-8.639
623,-440,13.1523,8.36475,-0.00371675,-0.00141465,0.00268427,0.000354949,-0.00548636,0.987946,0.00378144,0.0126293,1847,1464,13.1523,-8.3647
630,-440,13.129,8.09192,-0.00312006,-0.000726997,0.00225289,0.000627392,-0.00447445,1.02951,0.00321258,0.0105796,1854,1464,13.129,-8.09193
637,-440,13.1466,7.87366,-0.00266308,0.000164289,0.00183149,0.00106423,-0.00356302,1.11408,0.00279838,0.0141549,1861,1464,13.1466,-7.87371
644,-440,13.1583,7.64465,-0.00303034,0.00086671,0.00193607,0.00166502,-0.00382866,1.1797,0.00325274,0.0143137,1868,1464,13.1583,-7.6446
651,-440,13.1744,7.36096,-0.00474697,0.00132984,0.00282721,0.00244174,-0.00585887,1.19609,0.00492586,0.0127041,1875,1464,13.1745,-7.36098
658,-440,13.1191,7.11914,-0.00801669,0.00161855,0.00448419,0.00338253,-0.00978067,1.19601,0.00789336,0.0201428,1882,1464,13.1191,-7.11914
665,-440,13.1597,6.86926,-0.0125978,0.00188414,0.00673876,0.0045347,-0.0152484,1.19605,0.0119671,0.0311561,1889,1464,13.1596,-6.86926
672,-440,13.1947,6.72937,-0.0188614,0.00189231,0.00993871,0.00588407,-0.0228531,1.18888,0.0175291,0.0439188,1896,1464,13.1947,-6.72941
679,-440,12.2094,7.3894,-0.0275536,0.00139353,0.0144288,0.00735707,-0.0335172,1.17887,0.0251583,0.0461167,1903,1464,12.2094,-7.38942
686,-440,11.1976,7.25854,0,0,0,0,0,0,0,-1,1910,1464,11.1976,-7.25856
693,-440,9.88635,2.89795,0,0,0,0,0,0,0,-1,1917,1464,9.88638,-2.89798
700,-440,7.07825,-2.62061,0,0,0,0,0,0,0,-1,1924,1464,7.07829,2.62057
707,-440,0,0,0,0,0,0,0,0,0,-1,1931,1464,0,0
714,-440,0,0,0,0,0,0,0,0,0,-1,1938,1464,0,0
721,-440,0,0,0,0,0,0,0,0,0,-1,1945,1464,0,0
728,-440,0,0,0,0,0,0,0,0,0,-1,1952,1464,0,0
735,-440,0,0,0,0,0,0,0,0,0,-1,1959,1464,0,0
742,-440,0,0,0,0,0,0,0,0,0,-1,1966,1464,0,0
749,-440,0,0,0,0,0,0,0,0,0,-1,1973,1464,0,0
756,-440,0,0,0,0,0,0,0,0,0,-1,1980,1464,0,0
763,-440,0,0,0,0,0,0,0,0,0,-1,1987,1464,0,0
770,-440,0,0,0,0,0,0,0,0,0,-1,1994,1464,0,0
777,-440,0,0,0,0,0,0,0,0,0,-1,2001,1464,0,0
784,-440,0,0,0,0,0,0,0,0,0,-1,2008,1464,0,0
791,-440,0,0,0,0,0,0,0,0,0,-1,2015,1464,0,0
798,-440,0,0,0,0,0,0,0,0,0,-1,2022,1464,0,0
805,-440,0,0,0,0,0,0,0,0,0,-1,2029,1464,0,0
812,-440,0,0,0,0,0,0,0,0,0,-1,2036,1464,0,0
-700,-447,0,0,0,0,0,0,0,0,0,-1,524,1471,0,0
-693,-447,0,0,0,0,0,0,0,0,0,-1,531,1471,0,0
-686,-447,0,0,0,0,0,0,0,0,0,-1,538,1471,0,0
-679,-447,0,0,0,0,0,0,0,0,0,-1,545,1471,0,0
-672,-447,0,0,0,0,0,0,0,0,0,-1,552,1471,0,0
-665,-447,0,0,0,0,0,0,0,0,0,-1,559,1471,0,0
-658,-447,0,0,0,0,0,0,0,0,0,-1,566,1471,0,0
-651,-447,0,0,0,0,0,0,0,0,0,-1,573,1471,0,0
-644,-447,0,0,0,0,0,0,0,0,0,-1,580,1471,0,0
-637,-447,0,0,0,0,0,0,0,0,0,-1,587,1471,0,0
-630,-447,0,0,0,0,0,0,0,0,0,-1,594,1471,0,0
-623,-447,0,0,0,0,0,0,0,0,0,-1,601,1471,0,0
-616,-447,0,0,0,0,0,0,0,0,0,-1,608,1471,0,0
-609,-447,0,0,0,0,0,0,0,0,0,-1,615,1471,0,0
-602,-447,0,0,0,0,0,0,0,0,0,-1,622,1471,0,0
-595,-447,0,0,0,0,0,0,0,0,0,-1,629,1471,0,0
-588,-447,0,0,0,0,0,0,0,0,0,-1,636,1471,0,0
-581,-447,-7.06482,-1.50476,0,0,0,0,0,0,0,-1,643,1471,-7.0648,1.50474
-574,-447,-6.88092,-0.00585938,0,0,0,0,0,0,0,-1,650,1471,-6.88095,0.00589852
-567,-447,-6.8205,-1.32178,0,0,0,0,0,0,0,-1,657,1471,-6.82047,1.32172
-560,-447,-8.85748,2.80774,0,0,0,0,0,0,0,-1,664,1471,-8.85748,-2.80775
-553,-447,-7.60486,3.26794,0,0,0,0,0,0,0,-1,671,1471,-7.60487,-3.26799
-546,-447,-3.94501,1.8656,0,0,0,0,0,0,0,-1,678,1471,-3.945,-1.86554
-539,-447,-4.48657,4.12598,0,0,0,0,0,0,0,-1,685,1471,-4.48658,-4.126
-532,-447,-4.09637,4.67249,0.0121128,0.0199596,0.0152677,0.0317999,0.000272471,0.911163,0.0211097,0.047724,692,1471,-4.09638,-4.67253
-525,-447,-3.61011,5.2605,0.0105682,0.0152734,0.01218,0.0253259,0.000515673,0.880802,0.0167147,0.0328726,699,1471,-3.61009,-5.26048
-518,-447,-3.71698,5.47461,0.00900246,0.0114421,0.00949104,0.0197914,0.000653163,0.849309,0.012982,0.024343,706,1471,-3.71698,-5.47464
-511,-447,-3.70056,5.75586,0.00746505,0.00835419,0.00719085,0.0151142,0.000705041,0.816271,0.00984953,0.0155964,713,1471,-3.70058,-5.75588
-504,-447,-3.71271,6.05798,0.00574929,0.00579828,0.00511548,0.0108893,0.000658249,0.787793,0.00705038,0.0202558,720,1471,-3.71273,-6.05803
-497,-447,-3.73828,6.34448,0.00416636,0.00360018,0.0033441,0.00723933,0.000527208,0.743172,0.00466044,0.0235969,727,1471,-3.73827,-6.34448
-490,-447,-3.70929,6.6189,0.00294826,0.00163698,0.00182215,0.00422913,0.000356104,0.612701,0.00270853,0.0229719,734,1471,-3.70928,-6.61893
-483,-447,-3.74664,6.90063,0.00161379,-9.66981e-05,0.000132484,0.00162399,-0.000106899,0.0768428,0.00112,0.0215836,741,1471,-3.74664,-6.90062
-476,-447,-3.74084,7.18201,0.000252799,-0.00173028,-0.00143136,0.00100251,-0.00247999,-0.482485,0.00207006,0.013408,748,1471,-3.74087,-7.18204
-469,-447,-3.73157,7.47656,-0.000772222,-0.0032818,-0.00286879,0.00110419,-0.00515822,-0.579238,0.00385989,0.0123263,755,1471,-3.73158,-7.47657
-462,-447,-3.73718,7.77637,-0.00136537,-0.00489654,-0.0042637,0.00148385,-0.00774576,-0.589098,0.00572294,0.0122118,762,1471,-3.73717,-7.77634
-455,-447,-3.758,8.06665,-0.00176223,-0.00657145,-0.00571642,0.00203475,-0.0103684,-0.586308,0.0076809,0.0136199,769,1471,-3.75801,-8.06659
-448,-447,-3.66553,8.33887,-0.00192184,-0.00875302,-0.00757079,0.00296817,-0.013643,-0.573491,0.0102293,0.0204138,776,1471,-3.66555,-8.33881
-441,-447,-3.698,8.56262,-0.00195697,-0.0115024,-0.00989921,0.00425999,-0.0177194,-0.560772,0.0134596,0.0294547,783,1471,-3.69803,-8.56258
-434,-447,-3.76385,8.53442,-0.00196535,-0.0151003,-0.0127801,0.00583602,-0.0229017,-0.548053,0.0175398,0.0409304,790,1471,-3.76385,-8.53441
-427,-447,-3.68286,8.47888,0,0,0,0,0,0,0,-1,797,1471,-3.68284,-8.47885
-420,-447,-4.10352,8.23914,0,0,0,0,0,0,0,-1,804,1471,-4.10352,-8.23916
-413,-447,-4.52795,7.78223,0,0,0,0,0,0,0,-1,811,1471,-4.52796,-7.78222
-406,-447,-1.04279,6.18591,0,0,0,0,0,0,0,-1,818,1471,-1.04276,-6.18586
-399,-447,0.0134888,0.687622,0,0,0,0,0,0,0,-1,825,1471,0.0134841,-0.68767
-392,-447,-14.0646,3.76147,0,0,0,0,0,0,0,-1,832,1471,-14.0646,-3.7615
-385,-447,-15.1695,2.61865,0,0,0,0,0,0,0,-1,839,1471,-15.1695,-2.61871
-378,-447,-15.9424,1.49316,0,0,0,0,0,0,0,-1,846,1471,-15.9424,-1.49313
-371,-447,-17.3655,0.73291,0,0,0,0,0,0,0,-1,853,1471,-17.3655,-0.732946
-364,-447,0,0,0,0,0,0,0,0,0,-1,860,1471,0,0
-357,-447,0,0,0,0,0,0,0,0,0,-1,867,1471,0,0
-350,-447,0,0,0,0,0,0,0,0,0,-1,874,1471,0,0
-343,-447,0,0,0,0,0,0,0,0,0,-1,881,1471,0,0
-336,-447,0,0,0,0,0,0,0,0,0,-1,888,1471,0,0
-329,-447,0,0,0,0,0,0,0,0,0,-1,895,1471,0,0
-322,-447,0,0,0,0,0,0,0,0,0,-1,902,1471,0,0
-315,-447,0,0,0,0,0,0,0,0,0,-1,909,1471,0,0
-308,-447,0,0,0,0,0,0,0,0,0,-1,916,1471,0,0
-301,-447,0,0,0,0,0,0,0,0,0,-1,923,1471,0,0
-294,-447,0,0,0,0,0,0,0,0,0,-1,930,1471,0,0
-287,-447,0,0,0,0,0,0,0,0,0,-1,937,1471,0,0
-280,-447,0,0,0,0,0,0,0,0,0,-1,944,1471,0,0
-273,-447,0,0,0,0,0,0,0,0,0,-1,951,1471,0,0
-266,-447,0,0,0,0,0,0,0,0,0,-1,958,1471,0,0
-259,-447,0,0,0,0,0,0,0,0,0,-1,965,1471,0,0
-252,-447,0,0,0,0,0,0,0,0,0,-1,972,1471,0,0
-245,-447,0,0,0,0,0,0,0,0,0,-1,979,1471,0,0
-238,-447,0,0,0,0,0,0,0,0,0,-1,986,1471,0,0
-231,-447,0,0,0,0,0,0,0,0,0,-1,993,1471,0,0
-224,-447,0,0,0,0,0,0,0,0,0,-1,1000,1471,0,0
-217,-447,0,0,0,0,0,0,0,0,0,-1,1007,1471,0,0
-210,-447,0,0,0,0,0,0,0,0,0,-1,1014,1471,0,0
-203,-447,0,0,0,0,0,0,0,0,0,-1,1021,1471,0,0
-196,-447,0,0,0,0,0,0,0,0,0,-1,1028,1471,0,0
-189,-447,0,0,0,0,0,0,0,0,0,-1,1035,1471,0,0
-182,-447,0,0,0,0,0,0,0,0,0,-1,1042,1471,0,0
-175,-447,0,0,0,0,0,0,0,0,0,-1,1049,1471,0,0
-168,-447,0,0,0,0,0,0,0,0,0,-1,1056,1471,0,0
-161,-447,0,0,0,0,0,0,0,0,0,-1,1063,1471,0,0
-154,-447,0,0,0,0,0,0,0,0,0,-1,1070,1471,0,0
-147,-447,0,0,0,0,0,0,0,0,0,-1,1077,1471,0,0
-140,-447,0,0,0,0,0,0,0,0,0,-1,1084,1471,0,0
-133,-447,0,0,0,0,0,0,0,0,0,-1,1091,1471,0,0
-126,-447,0,0,0,0,0,0,0,0,0,-1,1098,1471,0,0
-119,-447,0,0,0,0,0,0,0,0,0,-1,1105,1471,0,0
-112,-447,0,0,0,0,0,0,0,0,0,-1,1112,1471,0,0
-105,-447,0,0,0,0,0,0,0,0,0,-1,1119,1471,0,0
-98,-447,0,0,0,0,0,0,0,0,0,-1,1126,1471,0,0
-91,-447,0,0,0,0,0,0,0,0,0,-1,1133,1471,0,0
-84,-447,0,0,0,0,0,0,0,0,0,-1,1140,1471,0,0
-77,-447,0,0,0,0,0,0,0,0,0,-1,1147,1471,0,0
-70,-447,0,0,0,0,0,0,0,0,0,-1,1154,1471,0,0
-63,-447,0,0,0,0,0,0,0,0,0,-1,1161,1471,0,0
-56,-447,0,0,0,0,0,0,0,0,0,-1,1168,1471,0,0
-49,-447,0,0,0,0,0,0,0,0,0,-1,1175,1471,0,0
-42,-447,0,0,0,0,0,0,0,0,0,-1,1182,1471,0,0
-35,-447,0,0,0,0,0,0,0,0,0,-1,1189,1471,0,0
-28,-447,0,0,0,0,0,0,0,0,0,-1,1196,1471,0,0
-21,-447,0,0,0,0,0,0,0,0,0,-1,1203,1471,0,0
-14,-447,0,0,0,0,0,0,0,0,0,-1,1210,1471,0,0
-7,-447,0,0,0,0,0,0,0,0,0,-1,1217,1471,0,0
0,-447,0,0,0,0,0,0,0,0,0,-1,1224,1471,0,0
7,-447,0,0,0,0,0,0,0,0,0,-1,1231,1471,0,0
14,-447,0,0,0,0,0,0,0,0,0,-1,1238,1471,0,0
21,-447,0,0,0,0,0,0,0,0,0,-1,1245,1471,0,0
28,-447,0,0,0,0,0,0,0,0,0,-1,1252,1471,0,0
35,-447,0,0,0,0,0,0,0,0,0,-1,1259,1471,0,0
42,-447,0,0,0,0,0,0,0,0,0,-1,1266,1471,0,0
49,-447,0,0,0,0,0,0,0,0,0,-1,1273,1471,0,0
56,-447,0,0,0,0,0,0,0,0,0,-1,1280,1471,0,0
63,-447,0,0,0,0,0,0,0,0,0,-1,1287,1471,0,0
70,-447,0,0,0,0,0,0,0,0,0,-1,1294,1471,0,0
77,-447,0,0,0,0,0,0,0,0,0,-1,1301,1471,0,0
84,-447,0,0,0,0,0,0,0,0,0,-1,1308,1471,0,0
91,-447,0,0,0,0,0,0,0,0,0,-1,1315,1471,0,0
98,-447,0,0,0,0,0,0,0,0,0,-1,1322,1471,0,0
105,-447,0,0,0,0,0,0,0,0,0,-1,1329,1471,0,0
112,-447,0,0,0,0,0,0,0,0,0,-1,1336,1471,0,0
119,-447,0,0,0,0,0,0,0,0,0,-1,1343,1471,0,0
126,-447,0,0,0,0,0,0,0,0,0,-1,1350,1471,0,0
133,-447,0,0,0,0,0,0,0,0,0,-1,1357,1471,0,0
140,-447,0,0,0,0,0,0,0,0,0,-1,1364,1471,0,0
147,-447,0,0,0,0,0,0,0,0,0,-1,1371,1471,0,0
154,-447,0,0,0,0,0,0,0,0,0,-1,1378,1471,0,0
161,-447,0,0,0,0,0,0,0,0,0,-1,1385,1471,0,0
168,-447,0,0,0,0,0,0,0,0,0,-1,1392,1471,0,0
175,-447,0,0,0,0,0,0,0,0,0,-1,1399,1471,0,0
182,-447,0,0,0,0,0,0,0,0,0,-1,1406,1471,0,0
189,-447,0,0,0,0,0,0,0,0,0,-1,1413,1471,0,0
196,-447,0,0,0,0,0,0,0,0,0,-1,1420,1471,0,0
203,-447,0,0,0,0,0,0,0,0,0,-1,1427,1471,0,0
210,-447,0,0,0,0,0,0,0,0,0,-1,1434,1471,0,0
217,-447,0,0,0,0,0,0,0,0,0,-1,1441,1471,0,0
224,-447,0,0,0,0,0,0,0,0,0,-1,1448,1471,0,0
231,-447,0,0,0,0,0,0,0,0,0,-1,1455,1471,0,0
238,-447,0,0,0,0,0,0,0,0,0,-1,1462,1471,0,0
245,-447,0,0,0,0,0,0,0,0,0,-1,1469,1471,0,0
252,-447,0,0,0,0,0,0,0,0,0,-1,1476,1471,0,0
259,-447,0,0,0,0,0,0,0,0,0,-1,1483,1471,0,0
266,-447,0,0,0,0,0,0,0,0,0,-1,1490,1471,0,0
273,-447,0,0,0,0,0,0,0,0,0,-1,1497,1471,0,0
280,-447,0,0,0,0,0,0,0,0,0,-1,1504,1471,0,0
287,-447,0,0,0,0,0,0,0,0,0,-1,1511,1471,0,0
294,-447,0,0,0,0,0,0,0,0,0,-1,1518,1471,0,0
301,-447,0,0,0,0,0,0,0,0,0,-1,1525,1471,0,0
308,-447,0,0,0,0,0,0,0,0,0,-1,1532,1471,0,0
315,-447,0,0,0,0,0,0,0,0,0,-1,1539,1471,0,0
322,-447,0,0,0,0,0,0,0,0,0,-1,1546,1471,0,0
329,-447,0,0,0,0,0,0,0,0,0,-1,1553,1471,0,0
336,-447,0,0,0,0,0,0,0,0,0,-1,1560,1471,0,0
343,-447,0,0,0,0,0,0,0,0,0,-1,1567,1471,0,0
350,-447,0,0,0,0,0,0,0,0,0,-1,1574,1471,0,0
357,-447,0,0,0,0,0,0,0,0,0,-1,1581,1471,0,0
364,-447,0,0,0,0,0,0,0,0,0,-1,1588,1471,0,0
371,-447,0,0,0,0,0,0,0,0,0,-1,1595,1471,0,0
378,-447,0,0,0,0,0,0,0,0,0,-1,1602,1471,0,0
385,-447,0,0,0,0,0,0,0,0,0,-1,1609,1471,0,0
392,-447,0,0,0,0,0,0,0,0,0,-1,1616,1471,0,0
399,-447,0,0,0,0,0,0,0,0,0,-1,1623,1471,0,0
406,-447,0,0,0,0,0,0,0,0,0,-1,1630,1471,0,0
413,-447,0,0,0,0,0,0,0,0,0,-1,1637,1471,0,0
420,-447,0,0,0,0,0,0,0,0,0,-1,1644,1471,0,0
427,-447,0,0,0,0,0,0,0,0,0,-1,1651,1471,0,0
434,-447,0,0,0,0,0,0,0,0,0,-1,1658,1471,0,0
441,-447,0,0,0,0,0,0,0,0,0,-1,1665,1471,0,0
448,-447,0,0,0,0,0,0,0,0,0,-1,1672,1471,0,0
455,-447,0,0,0,0,0,0,0,0,0,-1,1679,1471,0,0
462,-447,0,0,0,0,0,0,0,0,0,-1,1686,1471,0,0
469,-447,0,0,0,0,0,0,0,0,0,-1,1693,1471,0,0
476,-447,0,0,0,0,0,0,0,0,0,-1,1700,1471,0,0
483,-447,0,0,0,0,0,0,0,0,0,-1,1707,1471,0,0
490,-447,18.2214,-0.810303,0,0,0,0,0,0,0,-1,1714,1471,18.2215,0.810307
497,-447,17.0237,0.352417,0,0,0,0,0,0,0,-1,1721,1471,17.0237,-0.352442
504,-447,15.8998,1.53479,0,0,0,0,0,0,0,-1,1728,1471,15.8997,-1.53478
511,-447,14.7201,2.76111,0,0,0,0,0,0,0,-1,1735,1471,14.7201,-2.76107
518,-447,17.7618,13.2864,0,0,0,0,0,0,0,-1,1742,1471,17.7619,-13.2863
525,-447,17.1191,11.9014,0,0,0,0,0,0,0,-1,1749,1471,17.1191,-11.9013
532,-447,16.3959,10.0455,0,0,0,0,0,0,0,-1,1756,1471,16.3959,-10.0456
539,-447,14.1699,10.0204,0,0,0,0,0,0,0,-1,1763,1471,14.1699,-10.0204
546,-447,13.8932,9.82837,0,0,0,0,0,0,0,-1,1770,1471,13.8932,-9.8284
553,-447,13.5704,9.91028,0,0,0,0,0,0,0,-1,1777,1471,13.5705,-9.91029
560,-447,13.4788,10.0885,0,0,0,0,0,0,0,-1,1784,1471,13.4787,-10.0885
567,-447,13.2343,10.0068,-0.0248577,-0.0187101,0.0175175,-0.00399875,-0.0395691,0.872249,0.0251526,0.0474758,1791,1471,13.2343,-10.0068
574,-447,13.0042,9.98071,-0.0199502,-0.0147056,0.0144204,-0.00267105,-0.0319848,0.875339,0.0204909,0.0344611,1798,1471,13.0042,-9.98074
581,-447,12.8671,9.953,-0.0160695,-0.0112978,0.0116994,-0.00174348,-0.0256238,0.885983,0.016532,0.0184024,1805,1471,12.867,-9.95306
588,-447,12.9032,9.65222,-0.0125228,-0.00877328,0.00938237,-0.00108021,-0.0202159,0.884009,0.013132,0.0129978,1812,1471,12.9033,-9.65221
595,-447,12.9108,9.37012,-0.00976943,-0.00649805,0.00742942,-0.000526394,-0.0157411,0.893751,0.0103231,0.0117891,1819,1471,12.9108,-9.37006
602,-447,12.9198,9.09705,-0.00750499,-0.00473838,0.00566893,-0.000286419,-0.011957,0.905067,0.00787756,0.0109122,1826,1471,12.9197,-9.09706
609,-447,12.9113,8.85706,-0.0053054,-0.00327178,0.00408844,-7.56043e-05,-0.00850158,0.907277,0.00564268,0.0119858,1833,1471,12.9112,-8.85709
616,-447,12.9193,8.62268,-0.0033043,-0.00199528,0.00276783,0.000194377,-0.00549396,0.901501,0.00372912,0.0137282,1840,1471,12.9193,-8.62266
623,-447,12.9188,8.37683,-0.0019304,-0.000633767,0.0016523,0.000492854,-0.00305702,0.972355,0.00222061,0.0152139,1847,1471,12.9188,-8.37688
630,-447,12.9009,8.09668,-0.00180143,-9.14871e-05,0.00150154,0.000781434,-0.00267435,1.0442,0.00209259,0.00897736,1854,1471,12.9009,-8.09674
637,-447,12.9207,7.85876,-0.00166681,0.000728703,0.00127579,0.00128087,-0.00221898,1.16233,0.00204469,0.0094814,1861,1471,12.9206,-7.85872
644,-447,12.92,7.6261,-0.00231888,0.00147345,0.00151481,0.00200424,-0.00284966,1.23377,0.00281654,0.0105164,1868,1471,12.9201,-7.6261
651,-447,12.9312,7.36157,-0.00451901,0.00201581,0.00264104,0.00294972,-0.00545292,1.23091,0.0049225,0.0227471,1875,1471,12.9312,-7.36162
658,-447,12.7762,7.18323,-0.00823159,0.00256811,0.00439189,0.00412865,-0.00979213,1.22939,0.00825591,0.0327602,1882,1471,12.7762,-7.18325
665,-447,13.0645,6.77307,-0.0132762,0.00327655,0.00667226,0.00563114,-0.0156308,1.23155,0.0127201,0.0478003,1889,1471,13.0645,-6.77305
672,-447,13.3843,6.27905,-0.0202664,0.00389431,0.0099486,0.00746355,-0.0238356,1.22633,0.0188767,0.0488096,1896,1471,13.3842,-6.27909
679,-447,12.1326,7.48804,0,0,0,0,0,0,0,-1,1903,1471,12.1326,-7.48808
686,-447,9.81079,4.30859,0,0,0,0,0,0,0,-1,1910,1471,9.8108,-4.30864
693,-447,10.48,2.08643,0,0,0,0,0,0,0,-1,1917,1471,10.48,-2.08642
700,-447,0,0,0,0,0,0,0,0,0,-1,1924,1471,0,0
707,-447,0,0,0,0,0,0,0,0,0,-1,1931,1471,0,0
714,-447,0,0,0,0,0,0,0,0,0,-1,1938,1471,0,0
721,-447,0,0,0,0,0,0,0,0,0,-1,1945,1471,0,0
728,-447,0,0,0,0,0,0,0,0,0,-1,1952,1471,0,0
735,-447,0,0,0,0,0,0,0,0,0,-1,1959,1471,0,0
742,-447,0,0,0,0,0,0,0,0,0,-1,1966,1471,0,0
749,-447,0,0,0,0,0,0,0,0,0,-1,1973,1471,0,0
756,-447,0,0,0,0,0,0,0,0,0,-1,1980,1471,0,0
763,-447,0,0,0,0,0,0,0,0,0,-1,1987,1471,0,0
770,-447,0,0,0,0,0,0,0,0,0,-1,1994,1471,0,0
777,-447,0,0,0,0,0,0,0,0,0,-1,2001,1471,0,0
784,-447,0,0,0,0,0,0,0,0,0,-1,2008,1471,0,0
791,-447,0,0,0,0,0,0,0,0,0,-1,2015,1471,0,0
798,-447,0,0,0,0,0,0,0,0,0,-1,2022,1471,0,0
805,-447,0,0,0,0,0,0,0,0,0,-1,2029,1471,0,0
812,-447,0,0,0,0,0,0,0,0,0,-1,2036,1471,0,0
-700,-454,0,0,0,0,0,0,0,0,0,-1,524,1478,0,0
-693,-454,0,0,0,0,0,0,0,0,0,-1,531,1478,0,0
-686,-454,0,0,0,0,0,0,0,0,0,-1,538,1478,0,0
-679,-454,0,0,0,0,0,0,0,0,0,-1,545,1478,0,0
-672,-454,0,0,0,0,0,0,0,0,0,-1,552,1478,0,0
-665,-454,0,0,0,0,0,0,0,0,0,-1,559,1478,0,0
-658,-454,0,0,0,0,0,0,0,0,0,-1,566,1478,0,0
-651,-454,0,0,0,0,0,0,0,0,0,-1,573,1478,0,0
-644,-454,0,0,0,0,0,0,0,0,0,-1,580,1478,0,0
-637,-454,0,0,0,0,0,0,0,0,0,-1,587,1478,0,0
-630,-454,0,0,0,0,0,0,0,0,0,-1,594,1478,0,0
-623,-454,0,0,0,0,0,0,0,0,0,-1,601,1478,0,0
-616,-454,0,0,0,0,0,0,0,0,0,-1,608,1478,0,0
-609,-454,0,0,0,0,0,0,0,0,0,-1,615,1478,0,0
-602,-454,0,0,0,0,0,0,0,0,0,-1,622,1478,0,0
-595,-454,0,0,0,0,0,0,0,0,0,-1,629,1478,0,0
-588,-454,0,0,0,0,0,0,0,0,0,-1,636,1478,0,0
-581,-454,0,0,0,0,0,0,0,0,0,-1,643,1478,0,0
-574,-454,-8.4881,-0.465942,0,0,0,0,0,0,0,-1,650,1478,-8.4881,0.465885
-567,-454,-8.10046,0.922974,0,0,0,0,0,0,0,-1,657,1478,-8.10047,-0.923034
-560,-454,-10.656,3.51172,0,0,0,0,0,0,0,-1,664,1478,-10.656,-3.51176
-553,-454,-9.01129,3.95251,0,0,0,0,0,0,0,-1,671,1478,-9.0113,-3.95256
-546,-454,-7.63965,4.38733,0,0,0,0,0,0,0,-1,678,1478,-7.63964,-4.3873
-539,-454,-4.83545,3.25732,0,0,0,0,0,0,0,-1,685,1478,-4.83545,-3.25729
-532,-454,-3.98181,4.44165,0,0,0,0,0,0,0,-1,692,1478,-3.98181,-4.44164
-525,-454,-3.69006,5.04346,0.0151967,0.0187625,0.0157338,0.0328141,0.00114513,0.841817,0.0215045,0.0414872,699,1478,-3.69007,-5.04347
-518,-454,-3.38354,5.63367,0.012392,0.0139151,0.0120871,0.0252646,0.00104243,0.81686,0.0165066,0.0303047,706,1478,-3.38354,-5.63369
-511,-454,-3.46503,5.7655,0.00987792,0.010098,0.00902689,0.0190155,0.000960404,0.791493,0.0123693,0.0192827,713,1478,-3.46504,-5.76546
-504,-454,-3.43561,6.05969,0.0075237,0.00703741,0.00644705,0.0137322,0.000828913,0.76655,0.00889138,0.0162016,720,1478,-3.43562,-6.0597
-497,-454,-3.43634,6.33423,0.00544029,0.00451016,0.00427818,0.00927861,0.000671844,0.731258,0.0059744,0.018135,727,1478,-3.43631,-6.33427
-490,-454,-3.43347,6.65405,0.00389126,0.00239323,0.00255474,0.00580452,0.000479967,0.642801,0.00372003,0.0160202,734,1478,-3.43347,-6.65407
-483,-454,-3.45715,6.94019,0.00241928,0.000635392,0.000841287,0.00275344,0.000301233,0.37809,0.00174391,0.0153608,741,1478,-3.45716,-6.94024
-476,-454,-3.47229,7.18811,0.00107479,-0.000929991,-0.000644088,0.00126389,-0.00111908,-0.28556,0.00137666,0.0131444,748,1478,-3.47226,-7.18808
-469,-454,-3.46185,7.47388,0.000187656,-0.002353,-0.00195171,0.00124604,-0.00341138,-0.496901,0.00278415,0.00964702,755,1478,-3.46185,-7.47384
-462,-454,-3.47571,7.7655,-0.000182168,-0.00379682,-0.00312101,0.00161705,-0.00559604,-0.522949,0.00437059,0.0098249,762,1478,-3.47569,-7.76546
-455,-454,-3.49402,8.03516,-0.00021,-0.00513052,-0.00419627,0.00219405,-0.00753457,-0.520257,0.00589218,0.0110795,769,1478,-3.49401,-8.03516
-448,-454,-3.4743,8.31946,0.000158527,-0.00675302,-0.00545867,0.00316336,-0.00975785,-0.503204,0.00777718,0.0124036,776,1478,-3.47433,-8.31948
-441,-454,-3.33228,8.61963,0.000810921,-0.00880047,-0.00701235,0.00450627,-0.0124958,-0.484996,0.010171,0.0218237,783,1478,-3.33229,-8.61959
-434,-454,-3.24817,8.78845,0.00155628,-0.0116078,-0.0090176,0.00613848,-0.01619,-0.470138,0.0133197,0.0305873,790,1478,-3.24815,-8.7885
-427,-454,-3.383,8.81274,0.00275983,-0.0150404,-0.0113789,0.0083059,-0.0205865,-0.453515,0.0171759,0.0417186,797,1478,-3.38302,-8.81272
-420,-454,-3.49347,9.01123,0,0,0,0,0,0,0,-1,804,1478,-3.49345,-9.01122
-413,-454,-3.10095,9.88684,0,0,0,0,0,0,0,-1,811,1478,-3.10094,-9.88688
-406,-454,-2.38208,10.0308,0,0,0,0,0,0,0,-1,818,1478,-2.38209,-10.0308
-399,-454,-1.21033,6.95447,0,0,0,0,0,0,0,-1,825,1478,-1.21035,-6.95452
-392,-454,0.0967407,0.985474,0,0,0,0,0,0,0,-1,832,1478,0.0967364,-0.985529
-385,-454,2.38629,3.297,0,0,0,0,0,0,0,-1,839,1478,2.38629,-3.29702
-378,-454,-15.9756,2.83997,0,0,0,0,0,0,0,-1,846,1478,-15.9756,-2.83994
-371,-454,-17.2753,2.01453,0,0,0,0,0,0,0,-1,853,1478,-17.2753,-2.01455
-364,-454,1.08124,0.819458,0,0,0,0,0,0,0,-1,860,1478,1.08124,-0.819513
-357,-454,0,0,0,0,0,0,0,0,0,-1,867,1478,0,0
-350,-454,0,0,0,0,0,0,0,0,0,-1,874,1478,0,0
-343,-454,0,0,0,0,0,0,0,0,0,-1,881,1478,0,0
-336,-454,0,0,0,0,0,0,0,0,0,-1,888,1478,0,0
-329,-454,0,0,0,0,0,0,0,0,0,-1,895,1478,0,0
-322,-454,0,0,0,0,0,0,0,0,0,-1,902,1478,0,0
-315,-454,0,0,0,0,0,0,0,0,0,-1,909,1478,0,0
-308,-454,0,0,0,0,0,0,0,0,0,-1,916,1478,0,0
-301,-454,0,0,0,0,0,0,0,0,0,-1,923,1478,0,0
-294,-454,0,0,0,0,0,0,0,0,0,-1,930,1478,0,0
-287,-454,0,0,0,0,0,0,0,0,0,-1,937,1478,0,0
-280,-454,0,0,0,0,0,0,0,0,0,-1,944,1478,0,0
-273,-454,0,0,0,0,0,0,0,0,0,-1,951,1478,0,0
-266,-454,0,0,0,0,0,0,0,0,0,-1,958,1478,0,0
-259,-454,0,0,0,0,0,0,0,0,0,-1,965,1478,0,0
-252,-454,0,0,0,0,0,0,0,0,0,-1,972,1478,0,0
-245,-454,0,0,0,0,0,0,0,0,0,-1,979,1478,0,0
-238,-454,0,0,0,0,0,0,0,0,0,-1,986,1478,0,0
-231,-454,0,0,0,0,0,0,0,0,0,-1,993,1478,0,0
-224,-454,0,0,0,0,0,0,0,0,0,-1,1000,1478,0,0
-217,-454,0,0,0,0,0,0,0,0,0,-1,1007,1478,0,0
-210,-454,0,0,0,0,0,0,0,0,0,-1,1014,1478,0,0
-203,-454,0,0,0,0,0,0,0,0,0,-1,1021,1478,0,0
-196,-454,0,0,0,0,0,0,0,0,0,-1,1028,1478,0,0
-189,-454,0,0,0,0,0,0,0,0,0,-1,1035,1478,0,0
-182,-454,0,0,0,0,0,0,0,0,0,-1,1042,1478,0,0
-175,-454,0,0,0,0,0,0,0,0,0,-1,1049,1478,0,0
-168,-454,0,0,0,0,0,0,0,0,0,-1,1056,1478,0,0
-161,-454,0,0,0,0,0,0,0,0,0,-1,1063,1478,0,0
-154,-454,0,0,0,0,0,0,0,0,0,-1,1070,1478,0,0
-147,-454,0,0,0,0,0,0,0,0,0,-1,1077,1478,0,0
-140,-454,0,0,0,0,0,0,0,0,0,-1,1084,1478,0,0
-133,-454,0,0,0,0,0,0,0,0,0,-1,1091,1478,0,0
-126,-454,0,0,0,0,0,0,0,0,0,-1,1098,1478,0,0
-119,-454,0,0,0,0,0,0,0,0,0,-1,1105,1478,0,0
-112,-454,0,0,0,0,0,0,0,0,0,-1,1112,1478,0,0
-105,-454,0,0,0,0,0,0,0,0,0,-1,1119,1478,0,0
-98,-454,0,0,0,0,0,0,0,0,0,-1,1126,1478,0,0
-91,-454,0,0,0,0,0,0,0,0,0,-1,1133,1478,0,0
-84,-454,0,0,0,0,0,0,0,0,0,-1,1140,1478,0,0
-77,-454,0,0,0,0,0,0,0,0,0,-1,1147,1478,0,0
-70,-454,0,0,0,0,0,0,0,0,0,-1,1154,1478,0,0
-63,-454,0,0,0,0,0,0,0,0,0,-1,1161,1478,0,0
-56,-454,0,0,0,0,0,0,0,0,0,-1,1168,1478,0,0
-49,-454,0,0,0,0,0,0,0,0,0,-1,1175,1478,0,0
-42,-454,0,0,0,0,0,0,0,0,0,-1,1182,1478,0,0
-35,-454,0,0,0,0,0,0,0,0,0,-1,1189,1478,0,0
-28,-454,0,0,0,0,0,0,0,0,0,-1,1196,1478,0,0
-21,-454,0,0,0,0,0,0,0,0,0,-1,1203,1478,0,0
-14,-454,0,0,0,0,0,0,0,0,0,-1,1210,1478,0,0
-7,-454,0,0,0,0,0,0,0,0,0,-1,1217,1478,0,0
0,-454,0,0,0,0,0,0,0,0,0,-1,1224,1478,0,0
7,-454,0,0,0,0,0,0,0,0,0,-1,1231,1478,0,0
14,-454,0,0,0,0,0,0,0,0,0,-1,1238,1478,0,0
21,-454,0,0,0,0,0,0,0,0,0,-1,1245,1478,0,0
28,-454,0,0,0,0,0,0,0,0,0,-1,1252,1478,0,0
35,-454,0,0,0,0,0,0,0,0,0,-1,1259,1478,0,0
42,-454,0,0,0,0,0,0,0,0,0,-1,1266,1478,0,0
49,-454,0,0,0,0,0,0,0,0,0,-1,1273,1478,0,0
56,-454,0,0,0,0,0,0,0,0,0,-1,1280,1478,0,0
63,-454,0,0,0,0,0,0,0,0,0,-1,1287,1478,0,0
70,-454,0,0,0,0,0,0,0,0,0,-1,1294,1478,0,0
77,-454,0,0,0,0,0,0,0,0,0,-1,1301,1478,0,0
84,-454,0,0,0,0,0,0,0,0,0,-1,1308,1478,0,0
91,-454,0,0,0,0,0,0,0,0,0,-1,1315,1478,0,0
98,-454,0,0,0,0,0,0,0,0,0,-1,1322,1478,0,0
105,-454,0,0,0,0,0,0,0,0,0,-1,1329,1478,0,0
112,-454,0,0,0,0,0,0,0,0,0,-1,1336,1478,0,0
119,-454,0,0,0,0,0,0,0,0,0,-1,1343,1478,0,0
126,-454,0,0,0,0,0,0,0,0,0,-1,1350,1478,0,0
133,-454,0,0,0,0,0,0,0,0,0,-1,1357,1478,0,0
140,-454,0,0,0,0,0,0,0,0,0,-1,1364,1478,0,0
147,-454,0,0,0,0,0,0,0,0,0,-1,1371,1478,0,0
154,-454,0,0,0,0,0,0,0,0,0,-1,1378,1478,0,0
161,-454,0,0,0,0,0,0,0,0,0,-1,1385,1478,0,0
168,-454,0,0,0,0,0,0,0,0,0,-1,1392,1478,0,0
175,-454,0,0,0,0,0,0,0,0,0,-1,1399,1478,0,0
182,-454,0,0,0,0,0,0,0,0,0,-1,1406,1478,0,0
189,-454,0,0,0,0,0,0,0,0,0,-1,1413,1478,0,0
196,-454,0,0,0,0,0,0,0,0,0,-1,1420,1478,0,0
203,-454,0,0,0,0,0,0,0,0,0,-1,1427,1478,0,0
210,-454,0,0,0,0,0,0,0,0,0,-1,1434,1478,0,0
217,-454,0,0,0,0,0,0,0,0,0,-1,1441,1478,0,0
224,-454,0,0,0,0,0,0,0,0,0,-1,1448,1478,0,0
231,-454,0,0,0,0,0,0,0,0,0,-1,1455,1478,0,0
238,-454,0,0,0,0,0,0,0,0,0,-1,1462,1478,0,0
245,-454,0,0,0,0,0,0,0,0,0,-1,1469,1478,0,0
252,-454,0,0,0,0,0,0,0,0,0,-1,1476,1478,0,0
259,-454,0,0,0,0,0,0,0,0,0,-1,1483,1478,0,0
266,-454,0,0,0,0,0,0,0,0,0,-1,1490,1478,0,0
273,-454,0,0,0,0,0,0,0,0,0,-1,1497,1478,0,0
280,-454,0,0,0,0,0,0,0,0,0,-1,1504,1478,0,0
287,-454,0,0,0,0,0,0,0,0,0,-1,1511,1478,0,0
294,-454,0,0,0,0,0,0,0,0,0,-1,1518,1478,0,0
301,-454,0,0,0,0,0,0,0,0,0,-1,1525,1478,0,0
308,-454,0,0,0,0,0,0,0,0,0,-1,1532,1478,0,0
315,-454,0,0,0,0,0,0,0,0,0,-1,1539,1478,0,0
322,-454,0,0,0,0,0,0,0,0,0,-1,1546,1478,0,0
329,-454,0,0,0,0,0,0,0,0,0,-1,1553,1478,0,0
336,-454,0,0,0,0,0,0,0,0,0,-1,1560,1478,0,0
343,-454,0,0,0,0,0,0,0,0,0,-1,1567,1478,0,0
350,-454,0,0,0,0,0,0,0,0,0,-1,1574,1478,0,0
357,-454,0,0,0,0,0,0,0,0,0,-1,1581,1478,0,0
364,-454,0,0,0,0,0,0,0,0,0,-1,1588,1478,0,0
371,-454,0,0,0,0,0,0,0,0,0,-1,1595,1478,0,0
378,-454,0,0,0,0,0,0,0,0,0,-1,1602,1478,0,0
385,-454,0,0,0,0,0,0,0,0,0,-1,1609,1478,0,0
392,-454,0,0,0,0,0,0,0,0,0,-1,1616,1478,0,0
399,-454,0,0,0,0,0,0,0,0,0,-1,1623,1478,0,0
406,-454,0,0,0,0,0,0,0,0,0,-1,1630,1478,0,0
413,-454,0,0,0,0,0,0,0,0,0,-1,1637,1478,0,0
420,-454,0,0,0,0,0,0,0,0,0,-1,1644,1478,0,0
427,-454,0,0,0,0,0,0,0,0,0,-1,1651,1478,0,0
434,-454,0,0,0,0,0,0,0,0,0,-1,1658,1478,0,0
441,-454,0,0,0,0,0,0,0,0,0,-1,1665,1478,0,0
448,-454,0,0,0,0,0,0,0,0,0,-1,1672,1478,0,0
455,-454,0,0,0,0,0,0,0,0,0,-1,1679,1478,0,0
462,-454,0,0,0,0,0,0,0,0,0,-1,1686,1478,0,0
469,-454,0,0,0,0,0,0,0,0,0,-1,1693,1478,0,0
476,-454,0,0,0,0,0,0,0,0,0,-1,1700,1478,0,0
483,-454,14.2399,3.97498,0,0,0,0,0,0,0,-1,1707,1478,14.2399,-3.97502
490,-454,18.1821,-0.175781,0,0,0,0,0,0,0,-1,1714,1478,18.1821,0.175822
497,-454,16.8854,1.01208,0,0,0,0,0,0,0,-1,1721,1478,16.8854,-1.01209
504,-454,15.587,2.05994,0,0,0,0,0,0,0,-1,1728,1478,15.5871,-2.05998
511,-454,17.0273,14.5258,0,0,0,0,0,0,0,-1,1735,1478,17.0273,-14.5258
518,-454,16.4158,13.1039,0,0,0,0,0,0,0,-1,1742,1478,16.4157,-13.1038
525,-454,15.7842,11.6628,0,0,0,0,0,0,0,-1,1749,1478,15.7841,-11.6629
532,-454,15.1094,10.2476,0,0,0,0,0,0,0,-1,1756,1478,15.1094,-10.2475
539,-454,13.7905,10.9373,0,0,0,0,0,0,0,-1,1763,1478,13.7906,-10.9372
546,-454,13.1571,9.6261,0,0,0,0,0,0,0,-1,1770,1478,13.1571,-9.62611
553,-454,12.7098,10.1073,0,0,0,0,0,0,0,-1,1777,1478,12.7099,-10.1073
560,-454,12.7325,10.7354,0,0,0,0,0,0,0,-1,1784,1478,12.7325,-10.7353
567,-454,12.7584,10.3761,-0.0183348,-0.0148311,0.0130877,-0.00337858,-0.0297873,0.851929,0.0188333,0.0337667,1791,1478,12.7584,-10.3761
574,-454,12.6687,10.1024,-0.0145321,-0.0115151,0.0106659,-0.00225151,-0.0237956,0.855647,0.0151691,0.0163315,1798,1478,12.6688,-10.1024
581,-454,12.6555,9.87952,-0.0115597,-0.00872597,0.0085422,-0.00148391,-0.0188017,0.867582,0.0120703,0.0116394,1805,1478,12.6555,-9.87955
588,-454,12.6741,9.63,-0.00861858,-0.00671415,0.00673806,-0.000861353,-0.0144714,0.855593,0.00937367,0.0120194,1812,1478,12.6741,-9.62998
595,-454,12.6619,9.36597,-0.00639056,-0.00487315,0.00528426,-0.000293402,-0.0109703,0.8567,0.00721773,0.0114524,1819,1478,12.6618,-9.36598
602,-454,12.6499,9.10889,-0.00459565,-0.00348228,0.00396183,-3.82164e-05,-0.00803972,0.855197,0.00534712,0.00829654,1826,1478,12.6499,-9.10888
609,-454,12.6603,8.87268,-0.00276667,-0.00231466,0.00274999,0.000218599,-0.00529992,0.826398,0.00360835,0.0107088,1833,1478,12.6603,-8.87271
616,-454,12.6769,8.63281,-0.00101306,-0.00122762,0.00172648,0.000609475,-0.00285015,0.754368,0.00213249,0.0149007,1840,1478,12.6769,-8.63285
623,-454,12.6816,8.38208,0.000197641,-2.23862e-06,0.000830433,0.000934127,-0.000738724,0.725513,0.000968015,0.0123631,1847,1478,12.6817,-8.38212
630,-454,12.6737,8.12354,0.000207132,0.000468618,0.00085063,0.00119849,-0.000522744,0.861652,0.00101897,0.0106333,1854,1478,12.6737,-8.12353
637,-454,12.6776,7.89478,0.000302301,0.00126318,0.000754144,0.00167692,-0.000111439,1.06901,0.00115688,0.0095965,1861,1478,12.6776,-7.89475
644,-454,12.719,7.64819,-0.000362123,0.00207946,0.00106401,0.00247806,-0.00076073,1.21235,0.00195558,0.0161629,1868,1478,12.719,-7.64818
651,-454,12.5701,7.47522,-0.00272543,0.00276841,0.00231732,0.00361531,-0.00357233,1.22041,0.00414981,0.0298783,1875,1478,12.5701,-7.47518
658,-454,12.4913,7.09766,-0.0066054,0.00364937,0.00406986,0.00506826,-0.0080243,1.23534,0.00762294,0.036046,1882,1478,12.4914,-7.09768
665,-454,12.5929,6.45508,-0.0118595,0.00490755,0.0062576,0.00698543,-0.0139374,1.25019,0.0123,0.0491558,1889,1478,12.5928,-6.45512
672,-454,12.6014,5.61816,0,0,0,0,0,0,0,-1,1896,1478,12.6014,-5.61811
679,-454,14.2161,5.45007,0,0,0,0,0,0,0,-1,1903,1478,14.2161,-5.45013
686,-454,10.3767,2.12842,0,0,0,0,0,0,0,-1,1910,1478,10.3767,-2.12839
693,-454,11.1857,1.48486,0,0,0,0,0,0,0,-1,1917,1478,11.1857,-1.48487
700,-454,0,0,0,0,0,0,0,0,0,-1,1924,1478,0,0
707,-454,0,0,0,0,0,0,0,0,0,-1,1931,1478,0,0
714,-454,0,0,0,0,0,0,0,0,0,-1,1938,1478,0,0
721,-454,0,0,0,0,0,0,0,0,0,-1,1945,1478,0,0
728,-454,0,0,0,0,0,0,0,0,0,-1,1952,1478,0,0
735,-454,0,0,0,0,0,0,0,0,0,-1,1959,1478,0,0
742,-454,0,0,0,0,0,0,0,0,0,-1,1966,1478,0,0
749,-454,0,0,0,0,0,0,0,0,0,-1,1973,1478,0,0
756,-454,0,0,0,0,0,0,0,0,0,-1,1980,1478,0,0
763,-454,0,0,0,0,0,0,0,0,0,-1,1987,1478,0,0
770,-454,0,0,0,0,0,0,0,0,0,-1,1994,1478,0,0
777,-454,0,0,0,0,0,0,0,0,0,-1,2001,1478,0,0
784,-454,0,0,0,0,0,0,0,0,0,-1,2008,1478,0,0
791,-454,0,0,0,0,0,0,0,0,0,-1,2015,1478,0,0
798,-454,0,0,0,0,0,0,0,0,0,-1,2022,1478,0,0
805,-454,0,0,0,0,0,0,0,0,0,-1,2029,1478,0,0
812,-454,0,0,0,0,0,0,0,0,0,-1,2036,1478,0,0
-700,-461,0,0,0,0,0,0,0,0,0,-1,524,1485,0,0
-693,-461,0,0,0,0,0,0,0,0,0,-1,531,1485,0,0
-686,-461,0,0,0,0,0,0,0,0,0,-1,538,1485,0,0
-679,-461,0,0,0,0,0,0,0,0,0,-1,545,1485,0,0
-672,-461,0,0,0,0,0,0,0,0,0,-1,552,1485,0,0
-665,-461,0,0,0,0,0,0,0,0,0,-1,559,1485,0,0
-658,-461,0,0,0,0,0,0,0,0,0,-1,566,1485,0,0
-651,-461,0,0,0,0,0,0,0,0,0,-1,573,1485,0,0
-644,-461,0,0,0,0,0,0,0,0,0,-1,580,1485,0,0
-637,-461,0,0,0,0,0,0,0,0,0,-1,587,1485,0,0
-630,-461,0,0,0,0,0,0,0,0,0,-1,594,1485,0,0
-623,-461,0,0,0,0,0,0,0,0,0,-1,601,1485,0,0
-616,-461,0,0,0,0,0,0,0,0,0,-1,608,1485,0,0
-609,-461,0,0,0,0,0,0,0,0,0,-1,615,1485,0,0
-602,-461,0,0,0,0,0,0,0,0,0,-1,622,1485,0,0
-595,-461,0,0,0,0,0,0,0,0,0,-1,629,1485,0,0
-588,-461,0,0,0,0,0,0,0,0,0,-1,636,1485,0,0
-581,-461,0,0,0,0,0,0,0,0,0,-1,643,1485,0,0
-574,-461,0,0,0,0,0,0,0,0,0,-1,650,1485,0,0
-567,-461,-9.69031,0.513306,0,0,0,0,0,0,0,-1,657,1485,-9.69032,-0.513305
-560,-461,-7.28815,1.54004,0,0,0,0,0,0,0,-1,664,1485,-7.28817,-1.54005
-553,-461,-10.1774,4.61963,0,0,0,0,0,0,0,-1,671,1485,-10.1774,-4.61957
-546,-461,-5.84113,2.38074,0,0,0,0,0,0,0,-1,678,1485,-5.8411,-2.38071
-539,-461,-5.02014,3.17517,0,0,0,0,0,0,0,-1,685,1485,-5.02011,-3.17515
-532,-461,-4.34564,3.84485,0,0,0,0,0,0,0,-1,692,1485,-4.34566,-3.84487
-525,-461,-3.19293,4.65027,0,0,0,0,0,0,0,-1,699,1485,-3.19295,-4.65024
-518,-461,-3.1861,5.31567,0.0159251,0.0168052,0.0150918,0.0314633,0.00126692,0.799973,0.0205662,0.0389397,706,1485,-3.18611,-5.31566
-511,-461,-3.1405,5.86511,0.0124386,0.0120652,0.0110202,0.0232737,0.00123015,0.776927,0.0151224,0.0211868,713,1485,-3.14051,-5.86507
-504,-461,-3.17615,6.08313,0.00942403,0.00839553,0.0078044,0.0167311,0.00108846,0.7525,0.0108095,0.0130207,720,1485,-3.17614,-6.08313
-497,-461,-3.15283,6.38916,0.00676595,0.0054847,0.00519789,0.0113625,0.000888108,0.724084,0.00729703,0.0103422,727,1485,-3.15282,-6.38915
-490,-461,-3.16943,6.65857,0.00479634,0.00317188,0.00325637,0.00734025,0.000627979,0.663178,0.00469818,0.0108206,734,1485,-3.16941,-6.65856
-483,-461,-3.18817,6.95154,0.00312681,0.00136579,0.00152394,0.00400633,0.000486277,0.523435,0.00252445,0.0121247,741,1485,-3.18816,-6.95148
-476,-461,-3.19519,7.23523,0.00174844,-0.000159759,0.000112624,0.00175506,-0.000166383,0.0587493,0.00122926,0.0107389,748,1485,-3.19517,-7.23522
-469,-461,-3.19519,7.50452,0.000917843,-0.00150784,-0.00109939,0.00134196,-0.00193196,-0.368185,0.0019004,0.0117487,755,1485,-3.19518,-7.50446
-462,-461,-3.20197,7.75842,0.000647238,-0.00285761,-0.00210876,0.00163668,-0.00384705,-0.438712,0.00325064,0.0162042,762,1485,-3.202,-7.75844
-455,-461,-3.2243,8.02466,0.000821458,-0.00395435,-0.00291678,0.00220313,-0.00533602,-0.442385,0.00447625,0.0204904,769,1485,-3.22428,-8.02462
-448,-461,-3.18384,8.33374,0.00147796,-0.00517896,-0.00375723,0.00316901,-0.00687,-0.422919,0.00592586,0.0172769,776,1485,-3.18386,-8.33373
-441,-461,-3.15326,8.62329,0.00249448,-0.00673062,-0.00477678,0.00452221,-0.00875834,-0.401444,0.00779647,0.0141424,783,1485,-3.15329,-8.62331
-434,-461,-3.01422,8.85303,0.00363724,-0.00888393,-0.00618118,0.0061745,-0.0114212,-0.389508,0.0103083,0.0193113,790,1485,-3.0142,-8.85308
-427,-461,-2.93481,9.01611,0.00513277,-0.0116776,-0.00787119,0.00824291,-0.0147877,-0.376301,0.0134745,0.0284695,797,1485,-2.93482,-9.01613
-420,-461,-2.75079,9.22156,0,0,0,0,0,0,0,-1,804,1485,-2.7508,-9.22151
-413,-461,-2.87653,9.54919,0,0,0,0,0,0,0,-1,811,1485,-2.87652,-9.54919
-406,-461,-2.55133,9.60498,0,0,0,0,0,0,0,-1,818,1485,-2.55134,-9.60499
-399,-461,-1.93439,9.82849,0,0,0,0,0,0,0,-1,825,1485,-1.9344,-9.82846
-392,-461,-0.357544,5.55225,0,0,0,0,0,0,0,-1,832,1485,-0.357536,-5.55228
-385,-461,1.71509,3.35254,0,0,0,0,0,0,0,-1,839,1485,1.71511,-3.35255
-378,-461,1.95996,3.01111,0,0,0,0,0,0,0,-1,846,1485,1.95993,-3.01111
-371,-461,0.702881,2.33459,0,0,0,0,0,0,0,-1,853,1485,0.702859,-2.33459
-364,-461,-1.93097,2.56458,0,0,0,0,0,0,0,-1,860,1485,-1.93095,-2.56456
-357,-461,-2.41516,3.49487,0,0,0,0,0,0,0,-1,867,1485,-2.41517,-3.49487
-350,-461,0,0,0,0,0,0,0,0,0,-1,874,1485,0,0
-343,-461,0,0,0,0,0,0,0,0,0,-1,881,1485,0,0
-336,-461,0,0,0,0,0,0,0,0,0,-1,888,1485,0,0
-329,-461,0,0,0,0,0,0,0,0,0,-1,895,1485,0,0
-322,-461,0,0,0,0,0,0,0,0,0,-1,902,1485,0,0
-315,-461,0,0,0,0,0,0,0,0,0,-1,909,1485,0,0
-308,-461,0,0,0,0,0,0,0,0,0,-1,916,1485,0,0
-301,-461,0,0,0,0,0,0,0,0,0,-1,923,1485,0,0
-294,-461,0,0,0,0,0,0,0,0,0,-1,930,1485,0,0
-287,-461,0,0,0,0,0,0,0,0,0,-1,937,1485,0,0
-280,-461,0,0,0,0,0,0,0,0,0,-1,944,1485,0,0
-273,-461,0,0,0,0,0,0,0,0,0,-1,951,1485,0,0
-266,-461,0,0,0,0,0,0,0,0,0,-1,958,1485,0,0
-259,-461,0,0,0,0,0,0,0,0,0,-1,965,1485,0,0
-252,-461,0,0,0,0,0,0,0,0,0,-1,972,1485,0,0
-245,-461,0,0,0,0,0,0,0,0,0,-1,979,1485,0,0
-238,-461,0,0,0,0,0,0,0,0,0,-1,986,1485,0,0
-231,-461,0,0,0,0,0,0,0,0,0,-1,993,1485,0,0
-224,-461,0,0,0,0,0,0,0,0,0,-1,1000,1485,0,0
-217,-461,0,0,0,0,0,0,0,0,0,-1,1007,1485,0,0
-210,-461,0,0,0,0,0,0,0,0,0,-1,1014,1485,0,0
-203,-461,0,0,0,0,0,0,0,0,0,-1,1021,1485,0,0
-196,-461,0,0,0,0,0,0,0,0,0,-1,1028,1485,0,0
-189,-461,0,0,0,0,0,0,0,0,0,-1,1035,1485,0,0
-182,-461,0,0,0,0,0,0,0,0,0,-1,1042,1485,0,0
-175,-461,0,0,0,0,0,0,0,0,0,-1,1049,1485,0,0
-168,-461,0,0,0,0,0,0,0,0,0,-1,1056,1485,0,0
-161,-461,0,0,0,0,0,0,0,0,0,-1,1063,1485,0,0
-154,-461,0,0,0,0,0,0,0,0,0,-1,1070,1485,0,0
-147,-461,0,0,0,0,0,0,0,0,0,-1,1077,1485,0,0
-140,-461,0,0,0,0,0,0,0,0,0,-1,1084,1485,0,0
-133,-461,0,0,0,0,0,0,0,0,0,-1,1091,1485,0,0
-126,-461,0,0,0,0,0,0,0,0,0,-1,1098,1485,0,0
-119,-461,0,0,0,0,0,0,0,0,0,-1,1105,1485,0,0
-112,-461,0,0,0,0,0,0,0,0,0,-1,1112,1485,0,0
-105,-461,0,0,0,0,0,0,0,0,0,-1,1119,1485,0,0
-98,-461,0,0,0,0,0,0,0,0,0,-1,1126,1485,0,0
-91,-461,0,0,0,0,0,0,0,0,0,-1,1133,1485,0,0
-84,-461,0,0,0,0,0,0,0,0,0,-1,1140,1485,0,0
-77,-461,0,0,0,0,0,0,0,0,0,-1,1147,1485,0,0
-70,-461,0,0,0,0,0,0,0,0,0,-1,1154,1485,0,0
-63,-461,0,0,0,0,0,0,0,0,0,-1,1161,1485,0,0
-56,-461,0,0,0,0,0,0,0,0,0,-1,1168,1485,0,0
-49,-461,0,0,0,0,0,0,0,0,0,-1,1175,1485,0,0
-42,-461,0,0,0,0,0,0,0,0,0,-1,1182,1485,0,0
-35,-461,0,0,0,0,0,0,0,0,0,-1,1189,1485,0,0
-28,-461,0,0,0,0,0,0,0,0,0,-1,1196,1485,0,0
-21,-461,0,0,0,0,0,0,0,0,0,-1,1203,1485,0,0
-14,-461,0,0,0,0,0,0,0,0,0,-1,1210,1485,0,0
-7,-461,0,0,0,0,0,0,0,0,0,-1,1217,1485,0,0
0,-461,0,0,0,0,0,0,0,0,0,-1,1224,1485,0,0
7,-461,0,0,0,0,0,0,0,0,0,-1,1231,1485,0,0
14,-461,0,0,0,0,0,0,0,0,0,-1,1238,1485,0,0
21,-461,0,0,0,0,0,0,0,0,0,-1,1245,1485,0,0
28,-461,0,0,0,0,0,0,0,0,0,-1,1252,1485,0,0
35,-461,0,0,0,0,0,0,0,0,0,-1,1259,1485,0,0
42,-461,0,0,0,0,0,0,0,0,0,-1,1266,1485,0,0
49,-461,0,0,0,0,0,0,0,0,0,-1,1273,1485,0,0
56,-461,0,0,0,0,0,0,0,0,0,-1,1280,1485,0,0
63,-461,0,0,0,0,0,0,0,0,0,-1,1287,1485,0,0
70,-461,0,0,0,0,0,0,0,0,0,-1,1294,1485,0,0
77,-461,0,0,0,0,0,0,0,0,0,-1,1301,1485,0,0
84,-461,0,0,0,0,0,0,0,0,0,-1,1308,1485,0,0
91,-461,0,0,0,0,0,0,0,0,0,-1,1315,1485,0,0
98,-461,0,0,0,0,0,0,0,0,0,-1,1322,1485,0,0
105,-461,0,0,0,0,0,0,0,0,0,-1,1329,1485,0,0
112,-461,0,0,0,0,0,0,0,0,0,-1,1336,1485,0,0
119,-461,0,0,0,0,0,0,0,0,0,-1,1343,1485,0,0
126,-461,0,0,0,0,0,0,0,0,0,-1,1350,1485,0,0
133,-461,0,0,0,0,0,0,0,0,0,-1,1357,1485,0,0
140,-461,0,0,0,0,0,0,0,0,0,-1,1364,1485,0,0
147,-461,0,0,0,0,0,0,0,0,0,-1,1371,1485,0,0
154,-461,0,0,0,0,0,0,0,0,0,-1,1378,1485,0,0
161,-461,0,0,0,0,0,0,0,0,0,-1,1385,1485,0,0
168,-461,0,0,0,0,0,0,0,0,0,-1,1392,1485,0,0
175,-461,0,0,0,0,0,0,0,0,0,-1,1399,1485,0,0
182,-461,0,0,0,0,0,0,0,0,0,-1,1406,1485,0,0
189,-461,0,0,0,0,0,0,0,0,0,-1,1413,1485,0,0
196,-461,0,0,0,0,0,0,0,0,0,-1,1420,1485,0,0
203,-461,0,0,0,0,0,0,0,0,0,-1,1427,1485,0,0
210,-461,0,0,0,0,0,0,0,0,0,-1,1434,1485,0,0
217,-461,0,0,0,0,0,0,0,0,0,-1,1441,1485,0,0
224,-461,0,0,0,0,0,0,0,0,0,-1,1448,1485,0,0
231,-461,0,0,0,0,0,0,0,0,0,-1,1455,1485,0,0
238,-461,0,0,0,0,0,0,0,0,0,-1,1462,1485,0,0
245,-461,0,0,0,0,0,0,0,0,0,-1,1469,1485,0,0
252,-461,0,0,0,0,0,0,0,0,0,-1,1476,1485,0,0
259,-461,0,0,0,0,0,0,0,0,0,-1,1483,1485,0,0
266,-461,0,0,0,0,0,0,0,0,0,-1,1490,1485,0,0
273,-461,0,0,0,0,0,0,0,0,0,-1,1497,1485,0,0
280,-461,0,0,0,0,0,0,0,0,0,-1,1504,1485,0,0
287,-461,0,0,0,0,0,0,0,0,0,-1,1511,1485,0,0
294,-461,0,0,0,0,0,0,0,0,0,-1,1518,1485,0,0
301,-461,0,0,0,0,0,0,0,0,0,-1,1525,1485,0,0
308,-461,0,0,0,0,0,0,0,0,0,-1,1532,1485,0,0
315,-461,0,0,0,0,0,0,0,0,0,-1,1539,1485,0,0
322,-461,0,0,0,0,0,0,0,0,0,-1,1546,1485,0,0
329,-461,0,0,0,0,0,0,0,0,0,-1,1553,1485,0,0
336,-461,0,0,0,0,0,0,0,0,0,-1,1560,1485,0,0
343,-461,0,0,0,0,0,0,0,0,0,-1,1567,1485,0,0
350,-461,0,0,0,0,0,0,0,0,0,-1,1574,1485,0,0
357,-461,0,0,0,0,0,0,0,0,0,-1,1581,1485,0,0
364,-461,0,0,0,0,0,0,0,0,0,-1,1588,1485,0,0
371,-461,0,0,0,0,0,0,0,0,0,-1,1595,1485,0,0
378,-461,0,0,0,0,0,0,0,0,0,-1,1602,1485,0,0
385,-461,0,0,0,0,0,0,0,0,0,-1,1609,1485,0,0
392,-461,0,0,0,0,0,0,0,0,0,-1,1616,1485,0,0
399,-461,0,0,0,0,0,0,0,0,0,-1,1623,1485,0,0
406,-461,0,0,0,0,0,0,0,0,0,-1,1630,1485,0,0
413,-461,0,0,0,0,0,0,0,0,0,-1,1637,1485,0,0
420,-461,0,0,0,0,0,0,0,0,0,-1,1644,1485,0,0
427,-461,0,0,0,0,0,0,0,0,0,-1,1651,1485,0,0
434,-461,0,0,0,0,0,0,0,0,0,-1,1658,1485,0,0
441,-461,0,0,0,0,0,0,0,0,0,-1,1665,1485,0,0
448,-461,0,0,0,0,0,0,0,0,0,-1,1672,1485,0,0
455,-461,0,0,0,0,0,0,0,0,0,-1,1679,1485,0,0
462,-461,0,0,0,0,0,0,0,0,0,-1,1686,1485,0,0
469,-461,0,0,0,0,0,0,0,0,0,-1,1693,1485,0,0
476,-461,14.1906,0.690552,0,0,0,0,0,0,0,-1,1700,1485,14.1906,-0.690525
483,-461,10.6361,3.09106,0,0,0,0,0,0,0,-1,1707,1485,10.6361,-3.091
490,-461,17.9972,0.665894,0,0,0,0,0,0,0,-1,1714,1485,17.9972,-0.665876
497,-461,16.6829,1.87732,0,0,0,0,0,0,0,-1,1721,1485,16.6828,-1.87736
504,-461,15.3884,3.09216,0,0,0,0,0,0,0,-1,1728,1485,15.3885,-3.09212
511,-461,15.4292,14.3512,0,0,0,0,0,0,0,-1,1735,1485,15.4292,-14.3512
518,-461,14.8081,10.0085,0,0,0,0,0,0,0,-1,1742,1485,14.8081,-10.0086
525,-461,14.0022,10.8033,0,0,0,0,0,0,0,-1,1749,1485,14.0022,-10.8033
532,-461,13.4508,11.2866,0,0,0,0,0,0,0,-1,1756,1485,13.4508,-11.2866
539,-461,12.6163,8.87024,0,0,0,0,0,0,0,-1,1763,1485,12.6163,-8.87027
546,-461,12.7321,10.4381,0,0,0,0,0,0,0,-1,1770,1485,12.732,-10.4381
553,-461,12.5948,10.3835,-0.0237927,-0.0183407,0.015147,-0.0056763,-0.036457,0.87443,0.0226509,0.0456371,1777,1485,12.5948,-10.3835
560,-461,12.2935,10.4764,-0.0173013,-0.0147466,0.0118695,-0.00408587,-0.027962,0.838999,0.0174397,0.0353477,1784,1485,12.2934,-10.4764
567,-461,12.4399,10.3315,-0.0125367,-0.011407,0.00927026,-0.00268438,-0.0212593,0.815825,0.0133682,0.0165601,1791,1485,12.44,-10.3316
574,-461,12.4369,10.1013,-0.00934795,-0.00868096,0.0073048,-0.00170205,-0.0163269,0.808209,0.0103639,0.0151293,1798,1485,12.4369,-10.1013
581,-461,12.4409,9.86938,-0.00692832,-0.00638207,0.00562879,-0.00101978,-0.0122906,0.809641,0.00787585,0.013568,1805,1485,12.4409,-9.86937
588,-461,12.4198,9.63013,-0.00450332,-0.00478497,0.0042245,-0.000417301,-0.00887099,0.768736,0.00577992,0.0108925,1812,1485,12.4198,-9.63016
595,-461,12.4021,9.38171,-0.00278014,-0.00333088,0.00319986,0.000156181,-0.00626719,0.742475,0.00423115,0.00857669,1819,1485,12.402,-9.38173
602,-461,12.4044,9.1394,-0.00150607,-0.00230596,0.00230523,0.000433647,-0.00424568,0.699506,0.00298552,0.00892727,1826,1485,12.4045,-9.13935
609,-461,12.4098,8.87256,-0.000184762,-0.00147792,0.00149852,0.000800717,-0.0024634,0.581725,0.00196435,0.0110605,1833,1485,12.4097,-8.87257
616,-461,12.4313,8.61682,0.00111899,-0.000653737,0.000841687,0.00145496,-0.000989698,0.379775,0.00141992,0.0142027,1840,1485,12.4312,-8.61677
623,-461,12.4182,8.38489,0.00195848,0.000337545,0.00026216,0.00199983,0.000296199,0.156422,0.00124628,0.0134825,1847,1485,12.4182,-8.38487
630,-461,12.4105,8.15381,0.00166552,0.000671296,0.000535276,0.00189892,0.000437901,0.411173,0.00114816,0.0114433,1854,1485,12.4105,-8.15381
637,-461,12.4344,7.91003,0.00154375,0.00136917,0.000668552,0.00213069,0.000782234,0.720485,0.00124455,0.0120838,1861,1485,12.4344,-7.91001
644,-461,12.4719,7.70105,0.000744731,0.0022273,0.00112144,0.00283032,0.000141717,1.07744,0.00184146,0.0230896,1868,1485,12.4719,-7.70106
651,-461,12.537,7.41248,0,0,0,0,0,0,0,-1,1875,1485,12.5369,-7.41242
658,-461,12.1337,7.17737,0,0,0,0,0,0,0,-1,1882,1485,12.1337,-7.17739
665,-461,12.0148,6.79236,0,0,0,0,0,0,0,-1,1889,1485,12.0147,-6.79233
672,-461,14.4877,6.89429,0,0,0,0,0,0,0,-1,1896,1485,14.4876,-6.89431
679,-461,10.0535,2.16321,0,0,0,0,0,0,0,-1,1903,1485,10.0535,-2.16317
686,-461,10.8195,1.84192,0,0,0,0,0,0,0,-1,1910,1485,10.8194,-1.84195
693,-461,0,0,0,0,0,0,0,0,0,-1,1917,1485,0,0
700,-461,0,0,0,0,0,0,0,0,0,-1,1924,1485,0,0
707,-461,0,0,0,0,0,0,0,0,0,-1,1931,1485,0,0
714,-461,0,0,0,0,0,0,0,0,0,-1,1938,1485,0,0
721,-461,0,0,0,0,0,0,0,0,0,-1,1945,1485,0,0
728,-461,0,0,0,0,0,0,0,0,0,-1,1952,1485,0,0
735,-461,0,0,0,0,0,0,0,0,0,-1,1959,1485,0,0
742,-461,0,0,0,0,0,0,0,0,0,-1,1966,1485,0,0
749,-461,0,0,0,0,0,0,0,0,0,-1,1973,1485,0,0
756,-461,0,0,0,0,0,0,0,0,0,-1,1980,1485,0,0
763,-461,0,0,0,0,0,0,0,0,0,-1,1987,1485,0,0
770,-461,0,0,0,0,0,0,0,0,0,-1,1994,1485,0,0
777,-461,0,0,0,0,0,0,0,0,0,-1,2001,1485,0,0
784,-461,0,0,0,0,0,0,0,0,0,-1,2008,1485,0,0
791,-461,0,0,0,0,0,0,0,0,0,-1,2015,1485,0,0
798,-461,0,0,0,0,0,0,0,0,0,-1,2022,1485,0,0
805,-461,0,0,0,0,0,0,0,0,0,-1,2029,1485,0,0
812,-461,0,0,0,0,0,0,0,0,0,-1,2036,1485,0,0
-700,-468,0,0,0,0,0,0,0,0,0,-1,524,1492,0,0
-693,-468,0,0,0,0,0,0,0,0,0,-1,531,1492,0,0
-686,-468,0,0,0,0,0,0,0,0,0,-1,538,1492,0,0
-679,-468,0,0,0,0,0,0,0,0,0,-1,545,1492,0,0
-672,-468,0,0,0,0,0,0,0,0,0,-1,552,1492,0,0
-665,-468,0,0,0,0,0,0,0,0,0,-1,559,1492,0,0
-658,-468,0,0,0,0,0,0,0,0,0,-1,566,1492,0,0
-651,-468,0,0,0,0,0,0,0,0,0,-1,573,1492,0,0
-644,-468,0,0,0,0,0,0,0,0,0,-1,580,1492,0,0
-637,-468,0,0,0,0,0,0,0,0,0,-1,587,1492,0,0
-630,-468,0,0,0,0,0,0,0,0,0,-1,594,1492,0,0
-623,-468,0,0,0,0,0,0,0,0,0,-1,601,1492,0,0
-616,-468,0,0,0,0,0,0,0,0,0,-1,608,1492,0,0
-609,-468,0,0,0,0,0,0,0,0,0,-1,615,1492,0,0
-602,-468,0,0,0,0,0,0,0,0,0,-1,622,1492,0,0
-595,-468,0,0,0,0,0,0,0,0,0,-1,629,1492,0,0
-588,-468,0,0,0,0,0,0,0,0,0,-1,636,1492,0,0
-581,-468,0,0,0,0,0,0,0,0,0,-1,643,1492,0,0
-574,-468,0,0,0,0,0,0,0,0,0,-1,650,1492,0,0
-567,-468,-11.2603,1.8042,0,0,0,0,0,0,0,-1,657,1492,-11.2603,-1.80424
-560,-468,-8.77441,2.23694,0,0,0,0,0,0,0,-1,664,1492,-8.77443,-2.23692
-553,-468,-5.94061,9.26318,0,0,0,0,0,0,0,-1,671,1492,-5.94062,-9.26322
-546,-468,-6.10699,2.10571,0,0,0,0,0,0,0,-1,678,1492,-6.107,-2.10576
-539,-468,-5.27203,2.92822,0,0,0,0,0,0,0,-1,685,1492,-5.27201,-2.92827
-532,-468,-4.58636,3.6051,0,0,0,0,0,0,0,-1,692,1492,-4.58639,-3.60506
-525,-468,-4.27521,5.11902,0,0,0,0,0,0,0,-1,699,1492,-4.27519,-5.11896
-518,-468,-3.63568,5.3418,0.0198552,0.0203041,0.0180015,0.0380826,0.00207672,0.791631,0.0247253,0.0408804,706,1492,-3.63566,-5.34183
-511,-468,-2.93127,5.72229,0.0149375,0.0145723,0.0128195,0.0275757,0.00193415,0.778278,0.0177742,0.032542,713,1492,-2.93128,-5.72226
-504,-468,-2.84607,6.09021,0.0108977,0.0102053,0.0088718,0.0194301,0.00167298,0.765896,0.0124333,0.0168282,720,1492,-2.84606,-6.09026
-497,-468,-2.8869,6.38232,0.0076082,0.00685612,0.00583658,0.0130808,0.00138348,0.753228,0.00829793,0.00938149,727,1492,-2.88692,-6.3823
-490,-468,-2.8916,6.67822,0.00523213,0.00427442,0.00366584,0.00845026,0.00105629,0.720453,0.0053165,0.00719666,734,1492,-2.89162,-6.67823
-483,-468,-2.9079,6.96118,0.00341316,0.00235395,0.0019249,0.00487998,0.000887123,0.651153,0.00300163,0.00825452,741,1492,-2.90788,-6.96117
-476,-468,-2.90149,7.23792,0.00207139,0.000800424,0.000604385,0.0023129,0.000558911,0.380162,0.00139351,0.0088916,748,1492,-2.90147,-7.23787
-469,-468,-2.8974,7.51343,0.00135056,-0.000553285,-0.0005103,0.00147872,-0.000681437,-0.246044,0.00127517,0.0123664,755,1492,-2.89741,-7.51345
-462,-468,-2.88776,7.79321,0.00121619,-0.00189258,-0.00136998,0.00173375,-0.00241014,-0.361211,0.00240308,0.0215679,762,1492,-2.88778,-7.79315
-455,-468,-2.91437,8.01575,0.0016116,-0.00286001,-0.00194313,0.00233798,-0.0035864,-0.357738,0.00344566,0.0221709,769,1492,-2.91439,-8.01571
-448,-468,-2.8974,8.3208,0.00251213,-0.00381957,-0.00243084,0.00333771,-0.00464515,-0.327408,0.00462947,0.0136603,776,1492,-2.8974,-8.32079
-441,-468,-2.89227,8.62109,0.00380404,-0.00501805,-0.00302304,0.00474053,-0.00595454,-0.300408,0.00618804,0.0126062,783,1492,-2.89225,-8.62111
-434,-468,-2.87305,8.90076,0.00520937,-0.00665133,-0.00392996,0.00639335,-0.00783531,-0.292621,0.00822897,0.0131052,790,1492,-2.87305,-8.90077
-427,-468,-2.82709,9.13684,0.00681357,-0.00872118,-0.00513463,0.0083573,-0.0102649,-0.292052,0.0107703,0.0188134,797,1492,-2.8271,-9.13682
-420,-468,-2.74579,9.3064,0.00865961,-0.0115129,-0.00669167,0.0106775,-0.0135308,-0.292885,0.014009,0.0331232,804,1492,-2.74577,-9.30645
-413,-468,-2.53986,9.48804,0,0,0,0,0,0,0,-1,811,1492,-2.53985,-9.48808
-406,-468,-2.2356,9.396,0,0,0,0,0,0,0,-1,818,1492,-2.2356,-9.396
-399,-468,-0.940369,8.1936,0,0,0,0,0,0,0,-1,825,1492,-0.940365,-8.19357
-392,-468,-0.35144,8.14673,0,0,0,0,0,0,0,-1,832,1492,-0.351449,-8.14674
-385,-468,0.465759,5.35864,0,0,0,0,0,0,0,-1,839,1492,0.465732,-5.35864
-378,-468,1.99835,3.25391,0,0,0,0,0,0,0,-1,846,1492,1.99837,-3.2539
-371,-468,-0.31842,3.1532,0,0,0,0,0,0,0,-1,853,1492,-0.318441,-3.15324
-364,-468,-0.966736,2.14563,0,0,0,0,0,0,0,-1,860,1492,-0.966735,-2.14557
-357,-468,-3.06787,3.22742,0,0,0,0,0,0,0,-1,867,1492,-3.06784,-3.2274
-350,-468,-3.18658,4.12659,0,0,0,0,0,0,0,-1,874,1492,-3.18659,-4.12658
-343,-468,0,0,0,0,0,0,0,0,0,-1,881,1492,0,0
-336,-468,0,0,0,0,0,0,0,0,0,-1,888,1492,0,0
-329,-468,0,0,0,0,0,0,0,0,0,-1,895,1492,0,0
-322,-468,0,0,0,0,0,0,0,0,0,-1,902,1492,0,0
-315,-468,0,0,0,0,0,0,0,0,0,-1,909,1492,0,0
-308,-468,0,0,0,0,0,0,0,0,0,-1,916,1492,0,0
-301,-468,0,0,0,0,0,0,0,0,0,-1,923,1492,0,0
-294,-468,0,0,0,0,0,0,0,0,0,-1,930,1492,0,0
-287,-468,0,0,0,0,0,0,0,0,0,-1,937,1492,0,0
-280,-468,0,0,0,0,0,0,0,0,0,-1,944,1492,0,0
-273,-468,0,0,0,0,0,0,0,0,0,-1,951,1492,0,0
-266,-468,0,0,0,0,0,0,0,0,0,-1,958,1492,0,0
-259,-468,0,0,0,0,0,0,0,0,0,-1,965,1492,0,0
-252,-468,0,0,0,0,0,0,0,0,0,-1,972,1492,0,0
-245,-468,0,0,0,0,0,0,0,0,0,-1,979,1492,0,0
-238,-468,0,0,0,0,0,0,0,0,0,-1,986,1492,0,0
-231,-468,0,0,0,0,0,0,0,0,0,-1,993,1492,0,0
-224,-468,0,0,0,0,0,0,0,0,0,-1,1000,1492,0,0
-217,-468,0,0,0,0,0,0,0,0,0,-1,1007,1492,0,0
-210,-468,0,0,0,0,0,0,0,0,0,-1,1014,1492,0,0
-203,-468,0,0,0,0,0,0,0,0,0,-1,1021,1492,0,0
-196,-468,0,0,0,0,0,0,0,0,0,-1,1028,1492,0,0
-189,-468,0,0,0,0,0,0,0,0,0,-1,1035,1492,0,0
-182,-468,0,0,0,0,0,0,0,0,0,-1,1042,1492,0,0
-175,-468,0,0,0,0,0,0,0,0,0,-1,1049,1492,0,0
-168,-468,0,0,0,0,0,0,0,0,0,-1,1056,1492,0,0
-161,-468,0,0,0,0,0,0,0,0,0,-1,1063,1492,0,0
-154,-468,0,0,0,0,0,0,0,0,0,-1,1070,1492,0,0
-147,-468,0,0,0,0,0,0,0,0,0,-1,1077,1492,0,0
-140,-468,0,0,0,0,0,0,0,0,0,-1,1084,1492,0,0
-133,-468,0,0,0,0,0,0,0,0,0,-1,1091,1492,0,0
-126,-468,0,0,0,0,0,0,0,0,0,-1,1098,1492,0,0
-119,-468,0,0,0,0,0,0,0,0,0,-1,1105,1492,0,0
-112,-468,0,0,0,0,0,0,0,0,0,-1,1112,1492,0,0
-105,-468,0,0,0,0,0,0,0,0,0,-1,1119,1492,0,0
-98,-468,0,0,0,0,0,0,0,0,0,-1,1126,1492,0,0
-91,-468,0,0,0,0,0,0,0,0,0,-1,1133,1492,0,0
-84,-468,0,0,0,0,0,0,0,0,0,-1,1140,1492,0,0
-77,-468,0,0,0,0,0,0,0,0,0,-1,1147,1492,0,0
-70,-468,0,0,0,0,0,0,0,0,0,-1,1154,1492,0,0
-63,-468,0,0,0,0,0,0,0,0,0,-1,1161,1492,0,0
-56,-468,0,0,0,0,0,0,0,0,0,-1,1168,1492,0,0
-49,-468,0,0,0,0,0,0,0,0,0,-1,1175,1492,0,0
-42,-468,0,0,0,0,0,0,0,0,0,-1,1182,1492,0,0
-35,-468,0,0,0,0,0,0,0,0,0,-1,1189,1492,0,0
-28,-468,0,0,0,0,0,0,0,0,0,-1,1196,1492,0,0
-21,-468,0,0,0,0,0,0,0,0,0,-1,1203,1492,0,0
-14,-468,0,0,0,0,0,0,0,0,0,-1,1210,1492,0,0
-7,-468,0,0,0,0,0,0,0,0,0,-1,1217,1492,0,0
0,-468,0,0,0,0,0,0,0,0,0,-1,1224,1492,0,0
7,-468,0,0,0,0,0,0,0,0,0,-1,1231,1492,0,0
14,-468,0,0,0,0,0,0,0,0,0,-1,1238,1492,0,0
21,-468,0,0,0,0,0,0,0,0,0,-1,1245,1492,0,0
28,-468,0,0,0,0,0,0,0,0,0,-1,1252,1492,0,0
35,-468,0,0,0,0,0,0,0,0,0,-1,1259,1492,0,0
42,-468,0,0,0,0,0,0,0,0,0,-1,1266,1492,0,0
49,-468,0,0,0,0,0,0,0,0,0,-1,1273,1492,0,0
56,-468,0,0,0,0,0,0,0,0,0,-1,1280,1492,0,0
63,-468,0,0,0,0,0,0,0,0,0,-1,1287,1492,0,0
70,-468,0,0,0,0,0,0,0,0,0,-1,1294,1492,0,0
77,-468,0,0,0,0,0,0,0,0,0,-1,1301,1492,0,0
84,-468,0,0,0,0,0,0,0,0,0,-1,1308,1492,0,0
91,-468,0,0,0,0,0,0,0,0,0,-1,1315,1492,0,0
98,-468,0,0,0,0,0,0,0,0,0,-1,1322,1492,0,0
105,-468,0,0,0,0,0,0,0,0,0,-1,1329,1492,0,0
112,-468,0,0,0,0,0,0,0,0,0,-1,1336,1492,0,0
119,-468,0,0,0,0,0,0,0,0,0,-1,1343,1492,0,0
126,-468,0,0,0,0,0,0,0,0,0,-1,1350,1492,0,0
133,-468,0,0,0,0,0,0,0,0,0,-1,1357,1492,0,0
140,-468,0,0,0,0,0,0,0,0,0,-1,1364,1492,0,0
147,-468,0,0,0,0,0,0,0,0,0,-1,1371,1492,0,0
154,-468,0,0,0,0,0,0,0,0,0,-1,1378,1492,0,0
161,-468,0,0,0,0,0,0,0,0,0,-1,1385,1492,0,0
168,-468,0,0,0,0,0,0,0,0,0,-1,1392,1492,0,0
175,-468,0,0,0,0,0,0,0,0,0,-1,1399,1492,0,0
182,-468,0,0,0,0,0,0,0,0,0,-1,1406,1492,0,0
189,-468,0,0,0,0,0,0,0,0,0,-1,1413,1492,0,0
196,-468,0,0,0,0,0,0,0,0,0,-1,1420,1492,0,0
203,-468,0,0,0,0,0,0,0,0,0,-1,1427,1492,0,0
210,-468,0,0,0,0,0,0,0,0,0,-1,1434,1492,0,0
217,-468,0,0,0,0,0,0,0,0,0,-1,1441,1492,0,0
224,-468,0,0,0,0,0,0,0,0,0,-1,1448,1492,0,0
231,-468,0,0,0,0,0,0,0,0,0,-1,1455,1492,0,0
238,-468,0,0,0,0,0,0,0,0,0,-1,1462,1492,0,0
245,-468,0,0,0,0,0,0,0,0,0,-1,1469,1492,0,0
252,-468,0,0,0,0,0,0,0,0,0,-1,1476,1492,0,0
259,-468,0,0,0,0,0,0,0,0,0,-1,1483,1492,0,0
266,-468,0,0,0,0,0,0,0,0,0,-1,1490,1492,0,0
273,-468,0,0,0,0,0,0,0,0,0,-1,1497,1492,0,0
280,-468,0,0,0,0,0,0,0,0,0,-1,1504,1492,0,0
287,-468,0,0,0,0,0,0,0,0,0,-1,1511,1492,0,0
294,-468,0,0,0,0,0,0,0,0,0,-1,1518,1492,0,0
301,-468,0,0,0,0,0,0,0,0,0,-1,1525,1492,0,0
308,-468,0,0,0,0,0,0,0,0,0,-1,1532,1492,0,0
315,-468,0,0,0,0,0,0,0,0,0,-1,1539,1492,0,0
322,-468,0,0,0,0,0,0,0,0,0,-1,1546,1492,0,0
329,-468,0,0,0,0,0,0,0,0,0,-1,1553,1492,0,0
336,-468,0,0,0,0,0,0,0,0,0,-1,1560,1492,0,0
343,-468,0,0,0,0,0,0,0,0,0,-1,1567,1492,0,0
350,-468,0,0,0,0,0,0,0,0,0,-1,1574,1492,0,0
357,-468,0,0,0,0,0,0,0,0,0,-1,1581,1492,0,0
364,-468,0,0,0,0,0,0,0,0,0,-1,1588,1492,0,0
371,-468,0,0,0,0,0,0,0,0,0,-1,1595,1492,0,0
378,-468,0,0,0,0,0,0,0,0,0,-1,1602,1492,0,0
385,-468,0,0,0,0,0,0,0,0,0,-1,1609,1492,0,0
392,-468,0,0,0,0,0,0,0,0,0,-1,1616,1492,0,0
399,-468,0,0,0,0,0,0,0,0,0,-1,1623,1492,0,0
406,-468,0,0,0,0,0,0,0,0,0,-1,1630,1492,0,0
413,-468,0,0,0,0,0,0,0,0,0,-1,1637,1492,0,0
420,-468,0,0,0,0,0,0,0,0,0,-1,1644,1492,0,0
427,-468,0,0,0,0,0,0,0,0,0,-1,1651,1492,0,0
434,-468,0,0,0,0,0,0,0,0,0,-1,1658,1492,0,0
441,-468,0,0,0,0,0,0,0,0,0,-1,1665,1492,0,0
448,-468,0,0,0,0,0,0,0,0,0,-1,1672,1492,0,0
455,-468,0,0,0,0,0,0,0,0,0,-1,1679,1492,0,0
462,-468,0,0,0,0,0,0,0,0,0,-1,1686,1492,0,0
469,-468,15.6879,1.2677,0,0,0,0,0,0,0,-1,1693,1492,15.6879,-1.26772
476,-468,14.9318,1.61865,0,0,0,0,0,0,0,-1,1700,1492,14.9318,-1.61869
483,-468,11.265,4.64795,0,0,0,0,0,0,0,-1,1707,1492,11.265,-4.64798
490,-468,12.1316,3.51624,0,0,0,0,0,0,0,-1,1714,1492,12.1316,-3.51628
497,-468,16.5355,3.14587,0,0,0,0,0,0,0,-1,1721,1492,16.5356,-3.14583
504,-468,15.0642,4.10437,0,0,0,0,0,0,0,-1,1728,1492,15.0643,-4.10431
511,-468,15.6575,9.59875,0,0,0,0,0,0,0,-1,1735,1492,15.6575,-9.59878
518,-468,14.371,10.0905,0,0,0,0,0,0,0,-1,1742,1492,14.371,-10.0904
525,-468,13.2682,11.7788,0,0,0,0,0,0,0,-1,1749,1492,13.2682,-11.7788
532,-468,12.9977,11.3663,0,0,0,0,0,0,0,-1,1756,1492,12.9977,-11.3663
539,-468,12.7273,10.9539,0,0,0,0,0,0,0,-1,1763,1492,12.7273,-10.9538
546,-468,12.4879,10.7478,0,0,0,0,0,0,0,-1,1770,1492,12.488,-10.7477
553,-468,12.3733,10.6477,-0.0193595,-0.0147285,0.0124255,-0.00440455,-0.0296835,0.877517,0.0184964,0.0362314,1777,1492,12.3733,-10.6477
560,-468,12.2051,10.5818,-0.0135597,-0.0117437,0.00934646,-0.00326123,-0.0220422,0.833822,0.0137373,0.0216801,1784,1492,12.2051,-10.5818
567,-468,12.1697,10.3667,-0.00934339,-0.00895832,0.00698512,-0.00216308,-0.0161386,0.799177,0.0101154,0.0146551,1791,1492,12.1696,-10.3666
574,-468,12.1742,10.104,-0.00656414,-0.00668204,0.00528923,-0.00133354,-0.0119126,0.779826,0.00753668,0.0134451,1798,1492,12.1742,-10.104
581,-468,12.1884,9.87427,-0.00442288,-0.00473109,0.00385921,-0.000714702,-0.00843927,0.765443,0.00540372,0.0143133,1805,1492,12.1883,-9.87425
588,-468,12.1741,9.62964,-0.00225636,-0.00341758,0.00266554,-0.000108935,-0.00556501,0.678163,0.00367423,0.0122942,1812,1492,12.174,-9.62965
595,-468,12.1589,9.37683,-0.00073742,-0.00223349,0.00187704,0.000535146,-0.00350605,0.595784,0.00253465,0.010165,1819,1492,12.1589,-9.37682
602,-468,12.1667,9.13867,0.000361638,-0.0014562,0.00122703,0.000979719,-0.00207428,0.466621,0.00180058,0.00912511,1826,1492,12.1668,-9.13863
609,-468,12.1591,8.875,0.00150863,-0.000867595,0.00066702,0.00168306,-0.00104203,0.255782,0.00158777,0.00922338,1833,1492,12.159,-8.87497
616,-468,12.1646,8.61646,0.00269455,-0.000227699,0.000231106,0.00271272,-0.000245863,0.0784351,0.00189576,0.00910562,1840,1492,12.1646,-8.61651
623,-468,12.1598,8.38538,0.0034994,0.000575789,-0.000145828,0.00350666,0.000568533,-0.0497149,0.00217319,0.00989632,1847,1492,12.1598,-8.38543
630,-468,12.1689,8.12842,0.00324482,0.000844851,0.000254594,0.00327153,0.00081814,0.104532,0.0019659,0.010482,1854,1492,12.169,-8.12836
637,-468,12.1899,7.85291,0.00321639,0.00150253,0.000523663,0.00336372,0.00135519,0.274268,0.00195422,0.0138951,1861,1492,12.1899,-7.85285
644,-468,12.1614,7.67163,0.00259559,0.00245577,0.00102581,0.00355387,0.00149749,0.751376,0.00206027,0.0355432,1868,1492,12.1614,-7.67159
651,-468,12.0873,7.67969,0,0,0,0,0,0,0,-1,1875,1492,12.0872,-7.67971
658,-468,11.9128,7.36377,0,0,0,0,0,0,0,-1,1882,1492,11.9128,-7.36381
665,-468,11.7384,7.04797,0,0,0,0,0,0,0,-1,1889,1492,11.7384,-7.04791
672,-468,9.96814,3.61133,0,0,0,0,0,0,0,-1,1896,1492,9.96817,-3.61139
679,-468,11.2191,1.91968,0,0,0,0,0,0,0,-1,1903,1492,11.2191,-1.91965
686,-468,11.9252,1.42285,0,0,0,0,0,0,0,-1,1910,1492,11.9252,-1.42291
693,-468,0,0,0,0,0,0,0,0,0,-1,1917,1492,0,0
700,-468,0,0,0,0,0,0,0,0,0,-1,1924,1492,0,0
707,-468,0,0,0,0,0,0,0,0,0,-1,1931,1492,0,0
714,-468,0,0,0,0,0,0,0,0,0,-1,1938,1492,0,0
721,-468,0,0,0,0,0,0,0,0,0,-1,1945,1492,0,0
728,-468,0,0,0,0,0,0,0,0,0,-1,1952,1492,0,0
735,-468,0,0,0,0,0,0,0,0,0,-1,1959,1492,0,0
742,-468,0,0,0,0,0,0,0,0,0,-1,1966,1492,0,0
749,-468,0,0,0,0,0,0,0,0,0,-1,1973,1492,0,0
756,-468,0,0,0,0,0,0,0,0,0,-1,1980,1492,0,0
763,-468,0,0,0,0,0,0,0,0,0,-1,1987,1492,0,0
770,-468,0,0,0,0,0,0,0,0,0,-1,1994,1492,0,0
777,-468,0,0,0,0,0,0,0,0,0,-1,2001,1492,0,0
784,-468,0,0,0,0,0,0,0,0,0,-1,2008,1492,0,0
791,-468,0,0,0,0,0,0,0,0,0,-1,2015,1492,0,0
798,-468,0,0,0,0,0,0,0,0,0,-1,2022,1492,0,0
805,-468,0,0,0,0,0,0,0,0,0,-1,2029,1492,0,0
812,-468,0,0,0,0,0,0,0,0,0,-1,2036,1492,0,0
-700,-475,0,0,0,0,0,0,0,0,0,-1,524,1499,0,0
-693,-475,0,0,0,0,0,0,0,0,0,-1,531,1499,0,0
-686,-475,0,0,0,0,0,0,0,0,0,-1,538,1499,0,0
-679,-475,0,0,0,0,0,0,0,0,0,-1,545,1499,0,0
-672,-475,0,0,0,0,0,0,0,0,0,-1,552,1499,0,0
-665,-475,0,0,0,0,0,0,0,0,0,-1,559,1499,0,0
-658,-475,0,0,0,0,0,0,0,0,0,-1,566,1499,0,0
-651,-475,0,0,0,0,0,0,0,0,0,-1,573,1499,0,0
-644,-475,0,0,0,0,0,0,0,0,0,-1,580,1499,0,0
-637,-475,0,0,0,0,0,0,0,0,0,-1,587,1499,0,0
-630,-475,0,0,0,0,0,0,0,0,0,-1,594,1499,0,0
-623,-475,0,0,0,0,0,0,0,0,0,-1,601,1499,0,0
-616,-475,0,0,0,0,0,0,0,0,0,-1,608,1499,0,0
-609,-475,0,0,0,0,0,0,0,0,0,-1,615,1499,0,0
-602,-475,0,0,0,0,0,0,0,0,0,-1,622,1499,0,0
-595,-475,0,0,0,0,0,0,0,0,0,-1,629,1499,0,0
-588,-475,0,0,0,0,0,0,0,0,0,-1,636,1499,0,0
-581,-475,0,0,0,0,0,0,0,0,0,-1,643,1499,0,0
-574,-475,0,0,0,0,0,0,0,0,0,-1,650,1499,0,0
-567,-475,0,0,0,0,0,0,0,0,0,-1,657,1499,0,0
-560,-475,-9.42731,9.29517,0,0,0,0,0,0,0,-1,664,1499,-9.42731,-9.29519
-553,-475,-8.15131,8.78369,0,0,0,0,0,0,0,-1,671,1499,-8.15131,-8.78367
-546,-475,-8.41254,8.20654,0,0,0,0,0,0,0,-1,678,1499,-8.41251,-8.20655
-539,-475,-5.51855,2.62939,0,0,0,0,0,0,0,-1,685,1499,-5.51853,-2.62945
-532,-475,-3.74567,3.6145,0,0,0,0,0,0,0,-1,692,1499,-3.74569,-3.61446
-525,-475,-3.43182,4.09924,0.0304543,0.0355167,0.0295368,0.0626305,0.0033404,0.828142,0.040686,0.0437684,699,1499,-3.4318,-4.09922
-518,-475,-3.26788,4.68225,0.0228907,0.0269181,0.0214151,0.046414,0.00339488,0.832277,0.0298754,0.0440466,706,1499,-3.26789,-4.68225
-511,-475,-3.03149,5.39575,0.0165648,0.0200224,0.0151059,0.0334981,0.00308904,0.842373,0.0213769,0.0404816,713,1499,-3.03148,-5.3957
-504,-475,-2.63928,6.16663,0.0114903,0.0146413,0.0103808,0.0235655,0.0025661,0.860708,0.0149286,0.0268846,720,1499,-2.6393,-6.16659
-497,-475,-2.6123,6.4176,0.00764808,0.0104747,0.00686853,0.0160738,0.00204896,0.886865,0.0101024,0.0148232,727,1499,-2.61228,-6.41763
-490,-475,-2.61365,6.67859,0.00494857,0.0072058,0.00438853,0.0106085,0.00154585,0.911258,0.00661752,0.00787857,734,1499,-2.61364,-6.6786
-483,-475,-2.62189,6.98169,0.00305562,0.00471268,0.00254176,0.00655754,0.00121076,0.942951,0.00402921,0.00838036,741,1499,-2.6219,-6.98174
-476,-475,-2.61218,7.23743,0.00180188,0.0027067,0.00119819,0.00353504,0.000973535,0.965913,0.00210848,0.0103504,748,1499,-2.61217,-7.23748
-469,-475,-2.59082,7.51245,0.00119754,0.00097913,5.99132e-05,0.00121289,0.000963774,0.2509,0.000739673,0.0125257,755,1499,-2.59084,-7.51244
-462,-475,-2.58008,7.79041,0.00117064,-0.000667041,-0.000784698,0.00146011,-0.000956512,-0.353408,0.0014053,0.0170892,762,1499,-2.5801,-7.79043
-455,-475,-2.60852,8.05371,0.00171951,-0.0018194,-0.00128727,0.00213821,-0.00223811,-0.31447,0.00252689,0.0148803,769,1499,-2.60852,-8.05375
-448,-475,-2.62927,8.34985,0.00274033,-0.00278198,-0.00160385,0.00317234,-0.00321399,-0.263114,0.00368718,0.012683,776,1499,-2.62928,-8.34982
-441,-475,-2.62555,8.67529,0.00414112,-0.0038531,-0.0019655,0.00459823,-0.00431021,-0.228505,0.00514419,0.0162514,783,1499,-2.62557,-8.67525
-434,-475,-2.62469,8.88831,0.00560361,-0.00496799,-0.00255893,0.00619044,-0.00555483,-0.22543,0.00678444,0.010977,790,1499,-2.62468,-8.88831
-427,-475,-2.58282,9.18457,0.00717219,-0.00643634,-0.00334734,0.00795098,-0.00721513,-0.228592,0.00875959,0.015284,797,1499,-2.58281,-9.18452
-420,-475,-2.49402,9.44299,0.00889959,-0.00868241,-0.00442628,0.00995103,-0.00973385,-0.233222,0.0113653,0.0249137,804,1499,-2.49402,-9.44297
-413,-475,-2.30695,9.41565,0.0107651,-0.0117758,-0.00582933,0.0121834,-0.0131941,-0.238665,0.0146556,0.0446948,811,1499,-2.30696,-9.41569
-406,-475,-1.91034,9.53442,0,0,0,0,0,0,0,-1,818,1499,-1.91033,-9.53446
-399,-475,-1.39667,6.1615,0,0,0,0,0,0,0,-1,825,1499,-1.39664,-6.16155
-392,-475,0.217163,8.61389,0,0,0,0,0,0,0,-1,832,1499,0.217167,-8.6139
-385,-475,1.18372,2.73999,0,0,0,0,0,0,0,-1,839,1499,1.18372,-2.73995
-378,-475,1.31409,2.90149,0,0,0,0,0,0,0,-1,846,1499,1.31411,-2.90151
-371,-475,2.3476,3.31116,0,0,0,0,0,0,0,-1,853,1499,2.34761,-3.31121
-364,-475,1.04462,9.05823,0,0,0,0,0,0,0,-1,860,1499,1.04461,-9.05825
-357,-475,-0.262756,7.97205,0,0,0,0,0,0,0,-1,867,1499,-0.262784,-7.97205
-350,-475,-2.77173,4.35486,0,0,0,0,0,0,0,-1,874,1499,-2.77175,-4.35491
-343,-475,-6.81641,-1.95203,0,0,0,0,0,0,0,-1,881,1499,-6.81643,1.95198
-336,-475,0,0,0,0,0,0,0,0,0,-1,888,1499,0,0
-329,-475,0,0,0,0,0,0,0,0,0,-1,895,1499,0,0
-322,-475,0,0,0,0,0,0,0,0,0,-1,902,1499,0,0
-315,-475,0,0,0,0,0,0,0,0,0,-1,909,1499,0,0
-308,-475,0,0,0,0,0,0,0,0,0,-1,916,1499,0,0
-301,-475,0,0,0,0,0,0,0,0,0,-1,923,1499,0,0
-294,-475,0,0,0,0,0,0,0,0,0,-1,930,1499,0,0
-287,-475,0,0,0,0,0,0,0,0,0,-1,937,1499,0,0
-280,-475,0,0,0,0,0,0,0,0,0,-1,944,1499,0,0
-273,-475,0,0,0,0,0,0,0,0,0,-1,951,1499,0,0
-266,-475,0,0,0,0,0,0,0,0,0,-1,958,1499,0,0
-259,-475,0,0,0,0,0,0,0,0,0,-1,965,1499,0,0
-252,-475,0,0,0,0,0,0,0,0,0,-1,972,1499,0,0
-245,-475,0,0,0,0,0,0,0,0,0,-1,979,1499,0,0
-238,-475,0,0,0,0,0,0,0,0,0,-1,986,1499,0,0
-231,-475,0,0,0,0,0,0,0,0,0,-1,993,1499,0,0
-224,-475,0,0,0,0,0,0,0,0,0,-1,1000,1499,0,0
-217,-475,0,0,0,0,0,0,0,0,0,-1,1007,1499,0,0
-210,-475,0,0,0,0,0,0,0,0,0,-1,1014,1499,0,0
-203,-475,0,0,0,0,0,0,0,0,0,-1,1021,1499,0,0
-196,-475,0,0,0,0,0,0,0,0,0,-1,1028,1499,0,0
-189,-475,0,0,0,0,0,0,0,0,0,-1,1035,1499,0,0
-182,-475,0,0,0,0,0,0,0,0,0,-1,1042,1499,0,0
-175,-475,0,0,0,0,0,0,0,0,0,-1,1049,1499,0,0
-168,-475,0,0,0,0,0,0,0,0,0,-1,1056,1499,0,0
-161,-475,0,0,0,0,0,0,0,0,0,-1,1063,1499,0,0
-154,-475,0,0,0,0,0,0,0,0,0,-1,1070,1499,0,0
-147,-475,0,0,0,0,0,0,0,0,0,-1,1077,1499,0,0
-140,-475,0,0,0,0,0,0,0,0,0,-1,1084,1499,0,0
-133,-475,0,0,0,0,0,0,0,0,0,-1,1091,1499,0,0
-126,-475,0,0,0,0,0,0,0,0,0,-1,1098,1499,0,0
-119,-475,0,0,0,0,0,0,0,0,0,-1,1105,1499,0,0
-112,-475,0,0,0,0,0,0,0,0,0,-1,1112,1499,0,0
-105,-475,0,0,0,0,0,0,0,0,0,-1,1119,1499,0,0
-98,-475,0,0,0,0,0,0,0,0,0,-1,1126,1499,0,0
-91,-475,0,0,0,0,0,0,0,0,0,-1,1133,1499,0,0
-84,-475,0,0,0,0,0,0,0,0,0,-1,1140,1499,0,0
-77,-475,0,0,0,0,0,0,0,0,0,-1,1147,1499,0,0
-70,-475,0,0,0,0,0,0,0,0,0,-1,1154,1499,0,0
-63,-475,0,0,0,0,0,0,0,0,0,-1,1161,1499,0,0
-56,-475,0,0,0,0,0,0,0,0,0,-1,1168,1499,0,0
-49,-475,0,0,0,0,0,0,0,0,0,-1,1175,1499,0,0
-42,-475,0,0,0,0,0,0,0,0,0,-1,1182,1499,0,0
-35,-475,0,0,0,0,0,0,0,0,0,-1,1189,1499,0,0
-28,-475,0,0,0,0,0,0,0,0,0,-1,1196,1499,0,0
-21,-475,0,0,0,0,0,0,0,0,0,-1,1203,1499,0,0
-14,-475,0,0,0,0,0,0,0,0,0,-1,1210,1499,0,0
-7,-475,0,0,0,0,0,0,0,0,0,-1,1217,1499,0,0
0,-475,0,0,0,0,0,0,0,0,0,-1,1224,1499,0,0
7,-475,0,0,0,0,0,0,0,0,0,-1,1231,1499,0,0
14,-475,0,0,0,0,0,0,0,0,0,-1,1238,1499,0,0
21,-475,0,0,0,0,0,0,0,0,0,-1,1245,1499,0,0
28,-475,0,0,0,0,0,0,0,0,0,-1,1252,1499,0,0
35,-475,0,0,0,0,0,0,0,0,0,-1,1259,1499,0,0
42,-475,0,0,0,0,0,0,0,0,0,-1,1266,1499,0,0
49,-475,0,0,0,0,0,0,0,0,0,-1,1273,1499,0,0
56,-475,0,0,0,0,0,0,0,0,0,-1,1280,1499,0,0
63,-475,0,0,0,0,0,0,0,0,0,-1,1287,1499,0,0
70,-475,0,0,0,0,0,0,0,0,0,-1,1294,1499,0,0
77,-475,0,0,0,0,0,0,0,0,0,-1,1301,1499,0,0
84,-475,0,0,0,0,0,0,0,0,0,-1,1308,1499,0,0
91,-475,0,0,0,0,0,0,0,0,0,-1,1315,1499,0,0
98,-475,0,0,0,0,0,0,0,0,0,-1,1322,1499,0,0
105,-475,0,0,0,0,0,0,0,0,0,-1,1329,1499,0,0
112,-475,0,0,0,0,0,0,0,0,0,-1,1336,1499,0,0
119,-475,0,0,0,0,0,0,0,0,0,-1,1343,1499,0,0
126,-475,0,0,0,0,0,0,0,0,0,-1,1350,1499,0,0
133,-475,0,0,0,0,0,0,0,0,0,-1,1357,1499,0,0
140,-475,0,0,0,0,0,0,0,0,0,-1,1364,1499,0,0
147,-475,0,0,0,0,0,0,0,0,0,-1,1371,1499,0,0
154,-475,0,0,0,0,0,0,0,0,0,-1,1378,1499,0,0
161,-475,0,0,0,0,0,0,0,0,0,-1,1385,1499,0,0
168,-475,0,0,0,0,0,0,0,0,0,-1,1392,1499,0,0
175,-475,0,0,0,0,0,0,0,0,0,-1,1399,1499,0,0
182,-475,0,0,0,0,0,0,0,0,0,-1,1406,1499,0,0
189,-475,0,0,0,0,0,0,0,0,0,-1,1413,1499,0,0
196,-475,0,0,0,0,0,0,0,0,0,-1,1420,1499,0,0
203,-475,0,0,0,0,0,0,0,0,0,-1,1427,1499,0,0
210,-475,0,0,0,0,0,0,0,0,0,-1,1434,1499,0,0
217,-475,0,0,0,0,0,0,0,0,0,-1,1441,1499,0,0
224,-475,0,0,0,0,0,0,0,0,0,-1,1448,1499,0,0
231,-475,0,0,0,0,0,0,0,0,0,-1,1455,1499,0,0
238,-475,0,0,0,0,0,0,0,0,0,-1,1462,1499,0,0
245,-475,0,0,0,0,0,0,0,0,0,-1,1469,1499,0,0
252,-475,0,0,0,0,0,0,0,0,0,-1,1476,1499,0,0
259,-475,0,0,0,0,0,0,0,0,0,-1,1483,1499,0,0
266,-475,0,0,0,0,0,0,0,0,0,-1,1490,1499,0,0
273,-475,0,0,0,0,0,0,0,0,0,-1,1497,1499,0,0
280,-475,0,0,0,0,0,0,0,0,0,-1,1504,1499,0,0
287,-475,0,0,0,0,0,0,0,0,0,-1,1511,1499,0,0
294,-475,0,0,0,0,0,0,0,0,0,-1,1518,1499,0,0
301,-475,0,0,0,0,0,0,0,0,0,-1,1525,1499,0,0
308,-475,0,0,0,0,0,0,0,0,0,-1,1532,1499,0,0
315,-475,0,0,0,0,0,0,0,0,0,-1,1539,1499,0,0
322,-475,0,0,0,0,0,0,0,0,0,-1,1546,1499,0,0
329,-475,0,0,0,0,0,0,0,0,0,-1,1553,1499,0,0
336,-475,0,0,0,0,0,0,0,0,0,-1,1560,1499,0,0
343,-475,0,0,0,0,0,0,0,0,0,-1,1567,1499,0,0
350,-475,0,0,0,0,0,0,0,0,0,-1,1574,1499,0,0
357,-475,0,0,0,0,0,0,0,0,0,-1,1581,1499,0,0
364,-475,0,0,0,0,0,0,0,0,0,-1,1588,1499,0,0
371,-475,0,0,0,0,0,0,0,0,0,-1,1595,1499,0,0
378,-475,0,0,0,0,0,0,0,0,0,-1,1602,1499,0,0
385,-475,0,0,0,0,0,0,0,0,0,-1,1609,1499,0,0
392,-475,0,0,0,0,0,0,0,0,0,-1,1616,1499,0,0
399,-475,0,0,0,0,0,0,0,0,0,-1,1623,1499,0,0
406,-475,0,0,0,0,0,0,0,0,0,-1,1630,1499,0,0
413,-475,0,0,0,0,0,0,0,0,0,-1,1637,1499,0,0
420,-475,0,0,0,0,0,0,0,0,0,-1,1644,1499,0,0
427,-475,0,0,0,0,0,0,0,0,0,-1,1651,1499,0,0
434,-475,0,0,0,0,0,0,0,0,0,-1,1658,1499,0,0
441,-475,0,0,0,0,0,0,0,0,0,-1,1665,1499,0,0
448,-475,0,0,0,0,0,0,0,0,0,-1,1672,1499,0,0
455,-475,0,0,0,0,0,0,0,0,0,-1,1679,1499,0,0
462,-475,12.6372,0.275391,0,0,0,0,0,0,0,-1,1686,1499,12.6372,-0.27536
469,-475,15.6437,2.28296,0,0,0,0,0,0,0,-1,1693,1499,15.6437,-2.28293
476,-475,15.3302,2.71436,0,0,0,0,0,0,0,-1,1700,1499,15.3303,-2.7143
483,-475,10.7461,5.91479,0,0,0,0,0,0,0,-1,1707,1499,10.7461,-5.91476
490,-475,11.9305,4.4364,0,0,0,0,0,0,0,-1,1714,1499,11.9305,-4.43644
497,-475,15.3451,4.3479,0,0,0,0,0,0,0,-1,1721,1499,15.3451,-4.34789
504,-475,16.1669,8.5481,0,0,0,0,0,0,0,-1,1728,1499,16.1669,-8.54806
511,-475,14.9714,9.62366,0,0,0,0,0,0,0,-1,1735,1499,14.9715,-9.62361
518,-475,13.7964,10.4025,0,0,0,0,0,0,0,-1,1742,1499,13.7964,-10.4025
525,-475,13.0477,11.4094,0,0,0,0,0,0,0,-1,1749,1499,13.0477,-11.4094
532,-475,12.6882,11.2119,-0.0411927,-0.0208277,0.023885,-0.00504528,-0.0569752,0.986889,0.0364184,0.0452175,1756,1499,12.6882,-11.2119
539,-475,12.0699,10.8882,-0.0309137,-0.0178023,0.0186412,-0.00459768,-0.0441184,0.954483,0.0280058,0.0472308,1763,1499,12.07,-10.8882
546,-475,12.0333,10.8519,-0.0226854,-0.0145123,0.0142381,-0.00378596,-0.0334118,0.92515,0.0211259,0.0388584,1770,1499,12.0333,-10.8519
553,-475,12.0372,10.8004,-0.0161375,-0.0119909,0.0105934,-0.00326985,-0.0248586,0.882037,0.0155971,0.0209677,1777,1499,12.0373,-10.8004
560,-475,11.8953,10.6354,-0.0110806,-0.00950761,0.00774609,-0.00250817,-0.01808,0.835991,0.0113104,0.0143721,1784,1499,11.8952,-10.6354
567,-475,11.943,10.3528,-0.00734345,-0.00719032,0.00559045,-0.00167591,-0.0128579,0.792246,0.00807147,0.0130633,1791,1499,11.943,-10.3527
574,-475,11.9159,10.0919,-0.00485107,-0.00526627,0.00408081,-0.000972581,-0.00914476,0.759984,0.00579956,0.0137521,1798,1499,11.9159,-10.0919
581,-475,11.923,9.88,-0.00282545,-0.00355447,0.00279265,-0.000373621,-0.0060063,0.720503,0.00388565,0.0118874,1805,1499,11.923,-9.88002
588,-475,11.933,9.64404,-0.00076531,-0.00242245,0.00170188,0.00029898,-0.00348674,0.558859,0.00243029,0.0104536,1812,1499,11.933,-9.64408
595,-475,11.9385,9.38794,0.000749841,-0.00140376,0.00101043,0.00114968,-0.0018036,0.376806,0.00171895,0.0113304,1819,1499,11.9385,-9.38789
602,-475,11.9351,9.13574,0.00192427,-0.000752461,0.000451481,0.00199837,-0.000826561,0.162675,0.0016771,0.0130402,1826,1499,11.935,-9.13576
609,-475,11.9258,8.88501,0.00315542,-0.000286939,-8.74317e-06,0.00315544,-0.000286962,-0.00253985,0.00220551,0.0112488,1833,1499,11.9258,-8.88498
616,-475,11.9155,8.64294,0.00449704,0.000270136,-0.000371568,0.00452945,0.000237722,-0.0870162,0.0029436,0.00995313,1840,1499,11.9155,-8.64298
623,-475,11.9137,8.3988,0.00557801,0.000971447,-0.000688882,0.00567882,0.000870636,-0.14531,0.00353162,0.0101907,1847,1499,11.9137,-8.39882
630,-475,11.9288,8.14417,0.005718,0.0013013,-0.000340453,0.00574409,0.00127521,-0.0764808,0.00348303,0.013802,1854,1499,11.9288,-8.14416
637,-475,11.975,7.87744,0.00613652,0.00202112,-8.48951e-05,0.00613827,0.00201937,-0.0206169,0.00361237,0.0274409,1861,1499,11.975,-7.8775
644,-475,12.0651,7.56677,0,0,0,0,0,0,0,-1,1868,1499,12.065,-7.56679
651,-475,11.7965,7.57593,0,0,0,0,0,0,0,-1,1875,1499,11.7965,-7.5759
658,-475,11.7991,7.55493,0,0,0,0,0,0,0,-1,1882,1499,11.7991,-7.55488
665,-475,9.33435,5.43335,0,0,0,0,0,0,0,-1,1889,1499,9.33439,-5.43332
672,-475,9.38635,1.10474,0,0,0,0,0,0,0,-1,1896,1499,9.38629,-1.10475
679,-475,12.2594,1.31079,0,0,0,0,0,0,0,-1,1903,1499,12.2594,-1.31077
686,-475,0,0,0,0,0,0,0,0,0,-1,1910,1499,0,0
693,-475,0,0,0,0,0,0,0,0,0,-1,1917,1499,0,0
700,-475,0,0,0,0,0,0,0,0,0,-1,1924,1499,0,0
707,-475,0,0,0,0,0,0,0,0,0,-1,1931,1499,0,0
714,-475,0,0,0,0,0,0,0,0,0,-1,1938,1499,0,0
721,-475,0,0,0,0,0,0,0,0,0,-1,1945,1499,0,0
728,-475,0,0,0,0,0,0,0,0,0,-1,1952,1499,0,0
735,-475,0,0,0,0,0,0,0,0,0,-1,1959,1499,0,0
742,-475,0,0,0,0,0,0,0,0,0,-1,1966,1499,0,0
749,-475,0,0,0,0,0,0,0,0,0,-1,1973,1499,0,0
756,-475,0,0,0,0,0,0,0,0,0,-1,1980,1499,0,0
763,-475,0,0,0,0,0,0,0,0,0,-1,1987,1499,0,0
770,-475,0,0,0,0,0,0,0,0,0,-1,1994,1499,0,0
777,-475,0,0,0,0,0,0,0,0,0,-1,2001,1499,0,0
784,-475,0,0,0,0,0,0,0,0,0,-1,2008,1499,0,0
791,-475,0,0,0,0,0,0,0,0,0,-1,2015,1499,0,0
798,-475,0,0,0,0,0,0,0,0,0,-1,2022,1499,0,0
805,-475,0,0,0,0,0,0,0,0,0,-1,2029,1499,0,0
812,-475,0,0,0,0,0,0,0,0,0,-1,2036,1499,0,0
-700,-482,0,0,0,0,0,0,0,0,0,-1,524,1506,0,0
-693,-482,0,0,0,0,0,0,0,0,0,-1,531,1506,0,0
-686,-482,0,0,0,0,0,0,0,0,0,-1,538,1506,0,0
-679,-482,0,0,0,0,0,0,0,0,0,-1,545,1506,0,0
-672,-482,0,0,0,0,0,0,0,0,0,-1,552,1506,0,0
-665,-482,0,0,0,0,0,0,0,0,0,-1,559,1506,0,0
-658,-482,0,0,0,0,0,0,0,0,0,-1,566,1506,0,0
-651,-482,0,0,0,0,0,0,0,0,0,-1,573,1506,0,0
-644,-482,0,0,0,0,0,0,0,0,0,-1,580,1506,0,0
-637,-482,0,0,0,0,0,0,0,0,0,-1,587,1506,0,0
-630,-482,0,0,0,0,0,0,0,0,0,-1,594,1506,0,0
-623,-482,0,0,0,0,0,0,0,0,0,-1,601,1506,0,0
-616,-482,0,0,0,0,0,0,0,0,0,-1,608,1506,0,0
-609,-482,0,0,0,0,0,0,0,0,0,-1,615,1506,0,0
-602,-482,0,0,0,0,0,0,0,0,0,-1,622,1506,0,0
-595,-482,0,0,0,0,0,0,0,0,0,-1,629,1506,0,0
-588,-482,0,0,0,0,0,0,0,0,0,-1,636,1506,0,0
-581,-482,0,0,0,0,0,0,0,0,0,-1,643,1506,0,0
-574,-482,0,0,0,0,0,0,0,0,0,-1,650,1506,0,0
-567,-482,0,0,0,0,0,0,0,0,0,-1,657,1506,0,0
-560,-482,0,0,0,0,0,0,0,0,0,-1,664,1506,0,0
-553,-482,-9.06055,9.34314,0,0,0,0,0,0,0,-1,671,1506,-9.06056,-9.34312
-546,-482,-4.08624,8.34241,0,0,0,0,0,0,0,-1,678,1506,-4.08624,-8.3424
-539,-482,-2.54572,4.26294,0,0,0,0,0,0,0,-1,685,1506,-2.54573,-4.2629
-532,-482,-3.56854,3.46106,0,0,0,0,0,0,0,-1,692,1506,-3.56856,-3.46105
-525,-482,-3.47754,3.82959,0.0357826,0.0426202,0.0336833,0.0730577,0.00534508,0.835974,0.0470248,0.045524,699,1506,-3.47751,-3.8296
-518,-482,-3.2937,4.35315,0.02609,0.0327185,0.0242537,0.0538833,0.00492516,0.853303,0.0343982,0.0483455,706,1506,-3.29369,-4.35315
-511,-482,-3.13049,5.16577,0,0,0,0,0,0,0,-1,713,1506,-3.13049,-5.16581
-504,-482,-2.57635,6.09216,0.0122939,0.018198,0.0115904,0.0272064,0.00328558,0.910097,0.0171476,0.0414787,720,1506,-2.57639,-6.09218
-497,-482,-2.28967,6.38989,0.00781953,0.0131807,0.00766148,0.018617,0.00238323,0.953681,0.0116981,0.0250876,727,1506,-2.28968,-6.38995
-490,-482,-2.34314,6.63916,0.00468733,0.00927974,0.00493981,0.0124309,0.00153613,1.00296,0.00782567,0.0143612,734,1506,-2.34315,-6.63912
-483,-482,-2.34711,6.95874,0.00262772,0.00629379,0.00302713,0.00799962,0.000921895,1.05764,0.00505388,0.0085573,741,1506,-2.34709,-6.95869
-476,-482,-2.33655,7.23853,0.00135566,0.00394822,0.00166373,0.00476105,0.000542829,1.11634,0.00300945,0.0100179,748,1506,-2.33652,-7.23855
-469,-482,-2.3255,7.52319,0.000739087,0.00198424,0.000510408,0.00216672,0.000556605,1.22744,0.00129931,0.0114923,755,1506,-2.32553,-7.52319
-462,-482,-2.33044,7.79431,0.000687552,0.000195942,-0.000309835,0.000837244,4.62498e-05,-0.450064,0.000543402,0.0123372,762,1506,-2.33043,-7.79426
-455,-482,-2.3479,8.06323,0.00124499,-0.000995177,-0.000756997,0.00147681,-0.00122699,-0.297163,0.00156326,0.012789,769,1506,-2.34788,-8.06324
-448,-482,-2.34497,8.37183,0.00223609,-0.00186491,-0.00095035,0.00244562,-0.00207444,-0.217,0.00261259,0.0129965,776,1506,-2.34497,-8.37189
-441,-482,-2.34662,8.65588,0.00359211,-0.00275062,-0.0011527,0.0037951,-0.0029536,-0.174312,0.00390645,0.0127715,783,1506,-2.34661,-8.65584
-434,-482,-2.34015,8.89282,0.00499106,-0.00358292,-0.00153942,0.00525908,-0.00385094,-0.172376,0.00528058,0.0150378,790,1506,-2.34014,-8.8928
-427,-482,-2.34229,9.19739,0.00642303,-0.00470501,-0.0020992,0.00680586,-0.00508784,-0.180384,0.00689067,0.0164697,797,1506,-2.3423,-9.19737
-420,-482,-2.29791,9.60767,0.00797289,-0.006439,-0.00285025,0.00851611,-0.00698222,-0.188329,0.00896256,0.0275466,804,1506,-2.29788,-9.6077
-413,-482,-2.10687,9.68103,0.00957584,-0.00901741,-0.00386566,0.0103475,-0.00978908,-0.197032,0.0116274,0.0411063,811,1506,-2.10689,-9.68104
-406,-482,-1.88861,9.87463,0,0,0,0,0,0,0,-1,818,1506,-1.88863,-9.8746
-399,-482,-1.3822,9.22595,0,0,0,0,0,0,0,-1,825,1506,-1.38221,-9.22598
-392,-482,-1.06836,9.22729,0,0,0,0,0,0,0,-1,832,1506,-1.06835,-9.2273
-385,-482,0.0647583,8.90649,0,0,0,0,0,0,0,-1,839,1506,0.0647778,-8.90644
-378,-482,0.215698,5.96948,0,0,0,0,0,0,0,-1,846,1506,0.215681,-5.9695
-371,-482,-0.10907,8.10437,0,0,0,0,0,0,0,-1,853,1506,-0.109063,-8.10433
-364,-482,-0.154968,10.5032,0,0,0,0,0,0,0,-1,860,1506,-0.154976,-10.5032
-357,-482,2.14807,4.60144,0,0,0,0,0,0,0,-1,867,1506,2.14807,-4.60144
-350,-482,-7.5813,-1.45935,0,0,0,0,0,0,0,-1,874,1506,-7.58133,1.45937
-343,-482,-7.19983,-1.26416,0,0,0,0,0,0,0,-1,881,1506,-7.19981,1.26414
-336,-482,-6.78491,-1.18127,0,0,0,0,0,0,0,-1,888,1506,-6.78488,1.18125
-329,-482,0,0,0,0,0,0,0,0,0,-1,895,1506,0,0
-322,-482,0,0,0,0,0,0,0,0,0,-1,902,1506,0,0
-315,-482,0,0,0,0,0,0,0,0,0,-1,909,1506,0,0
-308,-482,0,0,0,0,0,0,0,0,0,-1,916,1506,0,0
-301,-482,0,0,0,0,0,0,0,0,0,-1,923,1506,0,0
-294,-482,0,0,0,0,0,0,0,0,0,-1,930,1506,0,0
-287,-482,0,0,0,0,0,0,0,0,0,-1,937,1506,0,0
-280,-482,0,0,0,0,0,0,0,0,0,-1,944,1506,0,0
-273,-482,0,0,0,0,0,0,0,0,0,-1,951,1506,0,0
-266,-482,0,0,0,0,0,0,0,0,0,-1,958,1506,0,0
-259,-482,0,0,0,0,0,0,0,0,0,-1,965,1506,0,0
-252,-482,0,0,0,0,0,0,0,0,0,-1,972,1506,0,0
-245,-482,0,0,0,0,0,0,0,0,0,-1,979,1506,0,0
-238,-482,0,0,0,0,0,0,0,0,0,-1,986,1506,0,0
-231,-482,0,0,0,0,0,0,0,0,0,-1,993,1506,0,0
-224,-482,0,0,0,0,0,0,0,0,0,-1,1000,1506,0,0
-217,-482,0,0,0,0,0,0,0,0,0,-1,1007,1506,0,0
-210,-482,0,0,0,0,0,0,0,0,0,-1,1014,1506,0,0
-203,-482,0,0,0,0,0,0,0,0,0,-1,1021,1506,0,0
-196,-482,0,0,0,0,0,0,0,0,0,-1,1028,1506,0,0
-189,-482,0,0,0,0,0,0,0,0,0,-1,1035,1506,0,0
-182,-482,0,0,0,0,0,0,0,0,0,-1,1042,1506,0,0
-175,-482,0,0,0,0,0,0,0,0,0,-1,1049,1506,0,0
-168,-482,0,0,0,0,0,0,0,0,0,-1,1056,1506,0,0
-161,-482,0,0,0,0,0,0,0,0,0,-1,1063,1506,0,0
-154,-482,0,0,0,0,0,0,0,0,0,-1,1070,1506,0,0
-147,-482,0,0,0,0,0,0,0,0,0,-1,1077,1506,0,0
-140,-482,0,0,0,0,0,0,0,0,0,-1,1084,1506,0,0
-133,-482,0,0,0,0,0,0,0,0,0,-1,1091,1506,0,0
-126,-482,0,0,0,0,0,0,0,0,0,-1,1098,1506,0,0
-119,-482,0,0,0,0,0,0,0,0,0,-1,1105,1506,0,0
-112,-482,0,0,0,0,0,0,0,0,0,-1,1112,1506,0,0
-105,-482,0,0,0,0,0,0,0,0,0,-1,1119,1506,0,0
-98,-482,0,0,0,0,0,0,0,0,0,-1,1126,1506,0,0
-91,-482,0,0,0,0,0,0,0,0,0,-1,1133,1506,0,0
-84,-482,0,0,0,0,0,0,0,0,0,-1,1140,1506,0,0
-77,-482,0,0,0,0,0,0,0,0,0,-1,1147,1506,0,0
-70,-482,0,0,0,0,0,0,0,0,0,-1,1154,1506,0,0
-63,-482,0,0,0,0,0,0,0,0,0,-1,1161,1506,0,0
-56,-482,0,0,0,0,0,0,0,0,0,-1,1168,1506,0,0
-49,-482,0,0,0,0,0,0,0,0,0,-1,1175,1506,0,0
-42,-482,0,0,0,0,0,0,0,0,0,-1,1182,1506,0,0
-35,-482,0,0,0,0,0,0,0,0,0,-1,1189,1506,0,0
-28,-482,0,0,0,0,0,0,0,0,0,-1,1196,1506,0,0
-21,-482,0,0,0,0,0,0,0,0,0,-1,1203,1506,0,0
-14,-482,0,0,0,0,0,0,0,0,0,-1,1210,1506,0,0
-7,-482,0,0,0,0,0,0,0,0,0,-1,1217,1506,0,0
0,-482,0,0,0,0,0,0,0,0,0,-1,1224,1506,0,0
7,-482,0,0,0,0,0,0,0,0,0,-1,1231,1506,0,0
14,-482,0,0,0,0,0,0,0,0,0,-1,1238,1506,0,0
21,-482,0,0,0,0,0,0,0,0,0,-1,1245,1506,0,0
28,-482,0,0,0,0,0,0,0,0,0,-1,1252,1506,0,0
35,-482,0,0,0,0,0,0,0,0,0,-1,1259,1506,0,0
42,-482,0,0,0,0,0,0,0,0,0,-1,1266,1506,0,0
49,-482,0,0,0,0,0,0,0,0,0,-1,1273,1506,0,0
56,-482,0,0,0,0,0,0,0,0,0,-1,1280,1506,0,0
63,-482,0,0,0,0,0,0,0,0,0,-1,1287,1506,0,0
70,-482,0,0,0,0,0,0,0,0,0,-1,1294,1506,0,0
77,-482,0,0,0,0,0,0,0,0,0,-1,1301,1506,0,0
84,-482,0,0,0,0,0,0,0,0,0,-1,1308,1506,0,0
91,-482,0,0,0,0,0,0,0,0,0,-1,1315,1506,0,0
98,-482,0,0,0,0,0,0,0,0,0,-1,1322,1506,0,0
105,-482,0,0,0,0,0,0,0,0,0,-1,1329,1506,0,0
112,-482,0,0,0,0,0,0,0,0,0,-1,1336,1506,0,0
119,-482,0,0,0,0,0,0,0,0,0,-1,1343,1506,0,0
126,-482,0,0,0,0,0,0,0,0,0,-1,1350,1506,0,0
133,-482,0,0,0,0,0,0,0,0,0,-1,1357,1506,0,0
140,-482,0,0,0,0,0,0,0,0,0,-1,1364,1506,0,0
147,-482,0,0,0,0,0,0,0,0,0,-1,1371,1506,0,0
154,-482,0,0,0,0,0,0,0,0,0,-1,1378,1506,0,0
161,-482,0,0,0,0,0,0,0,0,0,-1,1385,1506,0,0
168,-482,0,0,0,0,0,0,0,0,0,-1,1392,1506,0,0
175,-482,0,0,0,0,0,0,0,0,0,-1,1399,1506,0,0
182,-482,0,0,0,0,0,0,0,0,0,-1,1406,1506,0,0
189,-482,0,0,0,0,0,0,0,0,0,-1,1413,1506,0,0
196,-482,0,0,0,0,0,0,0,0,0,-1,1420,1506,0,0
203,-482,0,0,0,0,0,0,0,0,0,-1,1427,1506,0,0
210,-482,0,0,0,0,0,0,0,0,0,-1,1434,1506,0,0
217,-482,0,0,0,0,0,0,0,0,0,-1,1441,1506,0,0
224,-482,0,0,0,0,0,0,0,0,0,-1,1448,1506,0,0
231,-482,0,0,0,0,0,0,0,0,0,-1,1455,1506,0,0
238,-482,0,0,0,0,0,0,0,0,0,-1,1462,1506,0,0
245,-482,0,0,0,0,0,0,0,0,0,-1,1469,1506,0,0
252,-482,0,0,0,0,0,0,0,0,0,-1,1476,1506,0,0
259,-482,0,0,0,0,0,0,0,0,0,-1,1483,1506,0,0
266,-482,0,0,0,0,0,0,0,0,0,-1,1490,1506,0,0
273,-482,0,0,0,0,0,0,0,0,0,-1,1497,1506,0,0
280,-482,0,0,0,0,0,0,0,0,0,-1,1504,1506,0,0
287,-482,0,0,0,0,0,0,0,0,0,-1,1511,1506,0,0
294,-482,0,0,0,0,0,0,0,0,0,-1,1518,1506,0,0
301,-482,0,0,0,0,0,0,0,0,0,-1,1525,1506,0,0
308,-482,0,0,0,0,0,0,0,0,0,-1,1532,1506,0,0
315,-482,0,0,0,0,0,0,0,0,0,-1,1539,1506,0,0
322,-482,0,0,0,0,0,0,0,0,0,-1,1546,1506,0,0
329,-482,0,0,0,0,0,0,0,0,0,-1,1553,1506,0,0
336,-482,0,0,0,0,0,0,0,0,0,-1,1560,1506,0,0
343,-482,0,0,0,0,0,0,0,0,0,-1,1567,1506,0,0
350,-482,0,0,0,0,0,0,0,0,0,-1,1574,1506,0,0
357,-482,0,0,0,0,0,0,0,0,0,-1,1581,1506,0,0
364,-482,0,0,0,0,0,0,0,0,0,-1,1588,1506,0,0
371,-482,0,0,0,0,0,0,0,0,0,-1,1595,1506,0,0
378,-482,0,0,0,0,0,0,0,0,0,-1,1602,1506,0,0
385,-482,0,0,0,0,0,0,0,0,0,-1,1609,1506,0,0
392,-482,0,0,0,0,0,0,0,0,0,-1,1616,1506,0,0
399,-482,0,0,0,0,0,0,0,0,0,-1,1623,1506,0,0
406,-482,0,0,0,0,0,0,0,0,0,-1,1630,1506,0,0
413,-482,0,0,0,0,0,0,0,0,0,-1,1637,1506,0,0
420,-482,0,0,0,0,0,0,0,0,0,-1,1644,1506,0,0
427,-482,0,0,0,0,0,0,0,0,0,-1,1651,1506,0,0
434,-482,0,0,0,0,0,0,0,0,0,-1,1658,1506,0,0
441,-482,0,0,0,0,0,0,0,0,0,-1,1665,1506,0,0
448,-482,4.24146,1.55383,0,0,0,0,0,0,0,-1,1672,1506,4.24149,-1.55381
455,-482,12.4122,1.09729,0,0,0,0,0,0,0,-1,1679,1506,12.4122,-1.09734
462,-482,15.0673,3.13135,0,0,0,0,0,0,0,-1,1686,1506,15.0672,-3.13134
469,-482,15.3793,3.46301,0,0,0,0,0,0,0,-1,1693,1506,15.3793,-3.46307
476,-482,8.69751,9.18738,0,0,0,0,0,0,0,-1,1700,1506,8.69753,-9.18739
483,-482,10.0902,7.17432,0,0,0,0,0,0,0,-1,1707,1506,10.0902,-7.1743
490,-482,11.6289,5.4928,0,0,0,0,0,0,0,-1,1714,1506,11.6289,-5.49283
497,-482,15.9539,7.40222,0,0,0,0,0,0,0,-1,1721,1506,15.9538,-7.40219
504,-482,14.9746,12.1082,0,0,0,0,0,0,0,-1,1728,1506,14.9746,-12.1081
511,-482,14.1112,9.73108,0,0,0,0,0,0,0,-1,1735,1506,14.1112,-9.73106
518,-482,14.0035,10.4705,0,0,0,0,0,0,0,-1,1742,1506,14.0035,-10.4704
525,-482,12.5869,11.288,0,0,0,0,0,0,0,-1,1749,1506,12.5869,-11.288
532,-482,12.3097,11.1879,-0.0351969,-0.0173963,0.0218276,-0.00272417,-0.0498691,0.978984,0.0323762,0.0420712,1756,1506,12.3096,-11.1878
539,-482,11.9275,11.1475,-0.0262635,-0.0146748,0.0167461,-0.00274889,-0.0381894,0.951956,0.0245946,0.0335902,1763,1506,11.9275,-11.1474
546,-482,11.7338,11.0731,-0.0191765,-0.0117467,0.0124969,-0.00242428,-0.028499,0.929872,0.018245,0.0183066,1770,1506,11.7338,-11.0731
553,-482,11.6703,10.8616,-0.0134595,-0.00968566,0.00906091,-0.00231729,-0.0208279,0.888056,0.0131809,0.0148995,1777,1506,11.6703,-10.8616
560,-482,11.662,10.6229,-0.00900495,-0.00760247,0.0064142,-0.0018513,-0.0147561,0.839845,0.00928206,0.0119214,1784,1506,11.662,-10.623
567,-482,11.7064,10.3672,-0.00570008,-0.00567706,0.00444547,-0.00124308,-0.0101341,0.786693,0.00638216,0.0144636,1791,1506,11.7064,-10.3672
574,-482,11.699,10.1202,-0.00347142,-0.00405814,0.00309511,-0.000655794,-0.00687377,0.738149,0.00438031,0.0138024,1798,1506,11.699,-10.1203
581,-482,11.6814,9.89673,-0.00154761,-0.00256253,0.00193218,-5.73664e-05,-0.00405277,0.65698,0.00268293,0.00992779,1805,1506,11.6814,-9.89679
588,-482,11.683,9.65393,0.000402053,-0.00160124,0.000939012,0.000773374,-0.00197256,0.376567,0.00163498,0.0109443,1812,1506,11.683,-9.65397
595,-482,11.6864,9.37268,0.00194652,-0.000748803,0.000324619,0.00198506,-0.000787349,0.118187,0.00164969,0.0175633,1819,1506,11.6864,-9.37265
602,-482,11.7007,9.10059,0.00327612,-0.000217951,-0.000163824,0.00328378,-0.000225615,-0.0467497,0.00226814,0.0223249,1826,1506,11.7007,-9.1006
609,-482,11.6842,8.88232,0.00470627,0.000132029,-0.000543808,0.00477003,6.82669e-05,-0.116718,0.00315751,0.0163696,1833,1506,11.6842,-8.88237
616,-482,11.6654,8.63965,0.00637198,0.000619265,-0.00086139,0.00649819,0.000493052,-0.145486,0.00417749,0.0106497,1840,1506,11.6654,-8.63966
623,-482,11.6615,8.40552,0.00801075,0.00127291,-0.0011669,0.00820712,0.00107654,-0.16672,0.00515021,0.0115608,1847,1506,11.6615,-8.40557
630,-482,11.7327,8.18359,0.00899354,0.0017567,-0.00100709,0.00913107,0.00161917,-0.135726,0.00562587,0.0234707,1854,1506,11.7326,-8.18357
637,-482,11.7455,7.95569,0,0,0,0,0,0,0,-1,1861,1506,11.7455,-7.95574
644,-482,11.149,7.69128,0,0,0,0,0,0,0,-1,1868,1506,11.1491,-7.69124
651,-482,4.03845,7.05273,0,0,0,0,0,0,0,-1,1875,1506,4.03843,-7.05279
658,-482,10.0278,5.87903,0,0,0,0,0,0,0,-1,1882,1506,10.0279,-5.87902
665,-482,8.15198,3.22229,0,0,0,0,0,0,0,-1,1889,1506,8.15199,-3.22232
672,-482,9.87415,1.3147,0,0,0,0,0,0,0,-1,1896,1506,9.87416,-1.31473
679,-482,0,0,0,0,0,0,0,0,0,-1,1903,1506,0,0
686,-482,0,0,0,0,0,0,0,0,0,-1,1910,1506,0,0
693,-482,0,0,0,0,0,0,0,0,0,-1,1917,1506,0,0
700,-482,0,0,0,0,0,0,0,0,0,-1,1924,1506,0,0
707,-482,0,0,0,0,0,0,0,0,0,-1,1931,1506,0,0
714,-482,0,0,0,0,0,0,0,0,0,-1,1938,1506,0,0
721,-482,0,0,0,0,0,0,0,0,0,-1,1945,1506,0,0
728,-482,0,0,0,0,0,0,0,0,0,-1,1952,1506,0,0
735,-482,0,0,0,0,0,0,0,0,0,-1,1959,1506,0,0
742,-482,0,0,0,0,0,0,0,0,0,-1,1966,1506,0,0
749,-482,0,0,0,0,0,0,0,0,0,-1,1973,1506,0,0
756,-482,0,0,0,0,0,0,0,0,0,-1,1980,1506,0,0
763,-482,0,0,0,0,0,0,0,0,0,-1,1987,1506,0,0
770,-482,0,0,0,0,0,0,0,0,0,-1,1994,1506,0,0
777,-482,0,0,0,0,0,0,0,0,0,-1,2001,1506,0,0
784,-482,0,0,0,0,0,0,0,0,0,-1,2008,1506,0,0
791,-482,0,0,0,0,0,0,0,0,0,-1,2015,1506,0,0
798,-482,0,0,0,0,0,0,0,0,0,-1,2022,1506,0,0
805,-482,0,0,0,0,0,0,0,0,0,-1,2029,1506,0,0
812,-482,0,0,0,0,0,0,0,0,0,-1,2036,1506,0,0
-700,-489,0,0,0,0,0,0,0,0,0,-1,524,1513,0,0
-693,-489,0,0,0,0,0,0,0,0,0,-1,531,1513,0,0
-686,-489,0,0,0,0,0,0,0,0,0,-1,538,1513,0,0
-679,-489,0,0,0,0,0,0,0,0,0,-1,545,1513,0,0
-672,-489,0,0,0,0,0,0,0,0,0,-1,552,1513,0,0
-665,-489,0,0,0,0,0,0,0,0,0,-1,559,1513,0,0
-658,-489,0,0,0,0,0,0,0,0,0,-1,566,1513,0,0
-651,-489,0,0,0,0,0,0,0,0,0,-1,573,1513,0,0
-644,-489,0,0,0,0,0,0,0,0,0,-1,580,1513,0,0
-637,-489,0,0,0,0,0,0,0,0,0,-1,587,1513,0,0
-630,-489,0,0,0,0,0,0,0,0,0,-1,594,1513,0,0
-623,-489,0,0,0,0,0,0,0,0,0,-1,601,1513,0,0
-616,-489,0,0,0,0,0,0,0,0,0,-1,608,1513,0,0
-609,-489,0,0,0,0,0,0,0,0,0,-1,615,1513,0,0
-602,-489,0,0,0,0,0,0,0,0,0,-1,622,1513,0,0
-595,-489,0,0,0,0,0,0,0,0,0,-1,629,1513,0,0
-588,-489,0,0,0,0,0,0,0,0,0,-1,636,1513,0,0
-581,-489,0,0,0,0,0,0,0,0,0,-1,643,1513,0,0
-574,-489,0,0,0,0,0,0,0,0,0,-1,650,1513,0,0
-567,-489,0,0,0,0,0,0,0,0,0,-1,657,1513,0,0
-560,-489,0,0,0,0,0,0,0,0,0,-1,664,1513,0,0
-553,-489,-9.42206,8.5116,0,0,0,0,0,0,0,-1,671,1513,-9.42205,-8.51158
-546,-489,-7.80951,8.18506,0,0,0,0,0,0,0,-1,678,1513,-7.8095,-8.18503
-539,-489,-3.61237,7.19727,0,0,0,0,0,0,0,-1,685,1513,-3.61238,-7.19723
-532,-489,-2.74719,3.00769,0,0,0,0,0,0,0,-1,692,1513,-2.74722,-3.00764
-525,-489,-3.41302,3.48218,0,0,0,0,0,0,0,-1,699,1513,-3.41305,-3.48213
-518,-489,-3.34149,4.07532,0,0,0,0,0,0,0,-1,706,1513,-3.34148,-4.07537
-511,-489,-1.76874,6.02405,0,0,0,0,0,0,0,-1,713,1513,-1.76874,-6.02405
-504,-489,-1.7998,6.23096,0.0121801,0.0232532,0.0124851,0.0313743,0.004059,0.994097,0.0197031,0.0495085,720,1513,-1.7998,-6.23102
-497,-489,-1.84515,6.43616,0.00752231,0.0170034,0.00824554,0.021774,0.00275173,1.04629,0.0136913,0.0385939,727,1513,-1.84516,-6.43613
-490,-489,-1.97668,6.66052,0.00430703,0.0121114,0.00534267,0.0148252,0.00159324,1.10081,0.00939752,0.0222158,734,1513,-1.97669,-6.66052
-483,-489,-2.07019,6.94116,0.00228927,0.00841298,0.00339408,0.0099222,0.000780045,1.15239,0.00637072,0.010845,741,1513,-2.07018,-6.94115
-476,-489,-2.06348,7.24792,0.00108955,0.00555911,0.00201821,0.00633554,0.000313116,1.20354,0.00412329,0.00981593,748,1513,-2.0635,-7.24798
-469,-489,-2.06934,7.52405,0.000490183,0.00324279,0.000859089,0.0034889,0.000244067,1.29178,0.002249,0.0109836,755,1513,-2.06934,-7.52403
-462,-489,-2.06714,7.79578,0.000430677,0.00124977,7.64237e-05,0.00125684,0.000423607,1.47855,0.000738372,0.0152322,762,1513,-2.06716,-7.79576
-455,-489,-2.08954,8.073,0.000983327,-5.0764e-05,-0.000317873,0.00107322,-0.000140661,-0.275611,0.000766683,0.0190544,769,1513,-2.08957,-8.07295
-448,-489,-2.10785,8.33557,0.00190111,-0.000915509,-0.000416971,0.00196155,-0.000975941,-0.143928,0.00172749,0.0169357,776,1513,-2.10788,-8.3356
-441,-489,-2.06812,8.63513,0.00313886,-0.00170515,-0.000500757,0.00319008,-0.00175638,-0.10194,0.00289555,0.0147883,783,1513,-2.06814,-8.63519
-434,-489,-2.08984,8.89929,0.00440115,-0.00239304,-0.000730614,0.00447883,-0.00247072,-0.105922,0.00406778,0.0166376,790,1513,-2.08982,-8.89924
-427,-489,-2.1004,9.21338,0.00563604,-0.00333193,-0.00112898,0.00577598,-0.00347188,-0.123327,0.00539421,0.0180768,797,1513,-2.1004,-9.21338
-420,-489,-2.1004,9.54163,0.00693716,-0.00471075,-0.00167803,0.00717408,-0.00494768,-0.140263,0.00703774,0.0195495,804,1513,-2.10037,-9.54163
-413,-489,-1.82471,9.70459,0.00832595,-0.00688172,-0.00244747,0.00871013,-0.0072659,-0.1557,0.00923632,0.0324424,811,1513,-1.8247,-9.70456
-406,-489,-1.685,10.1404,0,0,0,0,0,0,0,-1,818,1513,-1.68501,-10.1403
-399,-489,-1.41241,9.10718,0,0,0,0,0,0,0,-1,825,1513,-1.41244,-9.10722
-392,-489,-1.0368,9.30469,0,0,0,0,0,0,0,-1,832,1513,-1.03682,-9.30466
-385,-489,-1.49188,10.4506,0,0,0,0,0,0,0,-1,839,1513,-1.49187,-10.4506
-378,-489,-0.401428,9.87048,0,0,0,0,0,0,0,-1,846,1513,-0.401415,-9.87047
-371,-489,-1.11633,10.6606,0,0,0,0,0,0,0,-1,853,1513,-1.11633,-10.6606
-364,-489,-0.503113,8.98486,0,0,0,0,0,0,0,-1,860,1513,-0.503097,-8.98482
-357,-489,-0.609924,10.9606,0,0,0,0,0,0,0,-1,867,1513,-0.609947,-10.9605
-350,-489,-7.94659,-0.358887,0,0,0,0,0,0,0,-1,874,1513,-7.94657,0.358912
-343,-489,-7.49323,-0.437866,0,0,0,0,0,0,0,-1,881,1513,-7.49322,0.437823
-336,-489,-7.02332,-0.53125,0,0,0,0,0,0,0,-1,888,1513,-7.0233,0.531295
-329,-489,-6.70221,-0.242432,0,0,0,0,0,0,0,-1,895,1513,-6.70221,0.2424
-322,-489,0,0,0,0,0,0,0,0,0,-1,902,1513,0,0
-315,-489,0,0,0,0,0,0,0,0,0,-1,909,1513,0,0
-308,-489,0,0,0,0,0,0,0,0,0,-1,916,1513,0,0
-301,-489,0,0,0,0,0,0,0,0,0,-1,923,1513,0,0
-294,-489,0,0,0,0,0,0,0,0,0,-1,930,1513,0,0
-287,-489,0,0,0,0,0,0,0,0,0,-1,937,1513,0,0
-280,-489,0,0,0,0,0,0,0,0,0,-1,944,1513,0,0
-273,-489,0,0,0,0,0,0,0,0,0,-1,951,1513,0,0
-266,-489,0,0,0,0,0,0,0,0,0,-1,958,1513,0,0
-259,-489,0,0,0,0,0,0,0,0,0,-1,965,1513,0,0
-252,-489,0,0,0,0,0,0,0,0,0,-1,972,1513,0,0
-245,-489,0,0,0,0,0,0,0,0,0,-1,979,1513,0,0
-238,-489,0,0,0,0,0,0,0,0,0,-1,986,1513,0,0
-231,-489,0,0,0,0,0,0,0,0,0,-1,993,1513,0,0
-224,-489,0,0,0,0,0,0,0,0,0,-1,1000,1513,0,0
-217,-489,0,0,0,0,0,0,0,0,0,-1,1007,1513,0,0
-210,-489,0,0,0,0,0,0,0,0,0,-1,1014,1513,0,0
-203,-489,0,0,0,0,0,0,0,0,0,-1,1021,1513,0,0
-196,-489,0,0,0,0,0,0,0,0,0,-1,1028,1513,0,0
-189,-489,0,0,0,0,0,0,0,0,0,-1,1035,1513,0,0
-182,-489,0,0,0,0,0,0,0,0,0,-1,1042,1513,0,0
-175,-489,0,0,0,0,0,0,0,0,0,-1,1049,1513,0,0
-168,-489,0,0,0,0,0,0,0,0,0,-1,1056,1513,0,0
-161,-489,0,0,0,0,0,0,0,0,0,-1,1063,1513,0,0
-154,-489,0,0,0,0,0,0,0,0,0,-1,1070,1513,0,0
-147,-489,0,0,0,0,0,0,0,0,0,-1,1077,1513,0,0
-140,-489,0,0,0,0,0,0,0,0,0,-1,1084,1513,0,0
-133,-489,0,0,0,0,0,0,0,0,0,-1,1091,1513,0,0
-126,-489,0,0,0,0,0,0,0,0,0,-1,1098,1513,0,0
-119,-489,0,0,0,0,0,0,0,0,0,-1,1105,1513,0,0
-112,-489,0,0,0,0,0,0,0,0,0,-1,1112,1513,0,0
-105,-489,0,0,0,0,0,0,0,0,0,-1,1119,1513,0,0
-98,-489,0,0,0,0,0,0,0,0,0,-1,1126,1513,0,0
-91,-489,0,0,0,0,0,0,0,0,0,-1,1133,1513,0,0
-84,-489,0,0,0,0,0,0,0,0,0,-1,1140,1513,0,0
-77,-489,0,0,0,0,0,0,0,0,0,-1,1147,1513,0,0
-70,-489,0,0,0,0,0,0,0,0,0,-1,1154,1513,0,0
-63,-489,0,0,0,0,0,0,0,0,0,-1,1161,1513,0,0
-56,-489,0,0,0,0,0,0,0,0,0,-1,1168,1513,0,0
-49,-489,0,0,0,0,0,0,0,0,0,-1,1175,1513,0,0
-42,-489,0,0,0,0,0,0,0,0,0,-1,1182,1513,0,0
-35,-489,0,0,0,0,0,0,0,0,0,-1,1189,1513,0,0
-28,-489,0,0,0,0,0,0,0,0,0,-1,1196,1513,0,0
-21,-489,0,0,0,0,0,0,0,0,0,-1,1203,1513,0,0
-14,-489,0,0,0,0,0,0,0,0,0,-1,1210,1513,0,0
-7,-489,0,0,0,0,0,0,0,0,0,-1,1217,1513,0,0
0,-489,0,0,0,0,0,0,0,0,0,-1,1224,1513,0,0
7,-489,0,0,0,0,0,0,0,0,0,-1,1231,1513,0,0
14,-489,0,0,0,0,0,0,0,0,0,-1,1238,1513,0,0
21,-489,0,0,0,0,0,0,0,0,0,-1,1245,1513,0,0
28,-489,0,0,0,0,0,0,0,0,0,-1,1252,1513,0,0
35,-489,0,0,0,0,0,0,0,0,0,-1,1259,1513,0,0
42,-489,0,0,0,0,0,0,0,0,0,-1,1266,1513,0,0
49,-489,0,0,0,0,0,0,0,0,0,-1,1273,1513,0,0
56,-489,0,0,0,0,0,0,0,0,0,-1,1280,1513,0,0
63,-489,0,0,0,0,0,0,0,0,0,-1,1287,1513,0,0
70,-489,0,0,0,0,0,0,0,0,0,-1,1294,1513,0,0
77,-489,0,0,0,0,0,0,0,0,0,-1,1301,1513,0,0
84,-489,0,0,0,0,0,0,0,0,0,-1,1308,1513,0,0
91,-489,0,0,0,0,0,0,0,0,0,-1,1315,1513,0,0
98,-489,0,0,0,0,0,0,0,0,0,-1,1322,1513,0,0
105,-489,0,0,0,0,0,0,0,0,0,-1,1329,1513,0,0
112,-489,0,0,0,0,0,0,0,0,0,-1,1336,1513,0,0
119,-489,0,0,0,0,0,0,0,0,0,-1,1343,1513,0,0
126,-489,0,0,0,0,0,0,0,0,0,-1,1350,1513,0,0
133,-489,0,0,0,0,0,0,0,0,0,-1,1357,1513,0,0
140,-489,0,0,0,0,0,0,0,0,0,-1,1364,1513,0,0
147,-489,0,0,0,0,0,0,0,0,0,-1,1371,1513,0,0
154,-489,0,0,0,0,0,0,0,0,0,-1,1378,1513,0,0
161,-489,0,0,0,0,0,0,0,0,0,-1,1385,1513,0,0
168,-489,0,0,0,0,0,0,0,0,0,-1,1392,1513,0,0
175,-489,0,0,0,0,0,0,0,0,0,-1,1399,1513,0,0
182,-489,0,0,0,0,0,0,0,0,0,-1,1406,1513,0,0
189,-489,0,0,0,0,0,0,0,0,0,-1,1413,1513,0,0
196,-489,0,0,0,0,0,0,0,0,0,-1,1420,1513,0,0
203,-489,0,0,0,0,0,0,0,0,0,-1,1427,1513,0,0
210,-489,0,0,0,0,0,0,0,0,0,-1,1434,1513,0,0
217,-489,0,0,0,0,0,0,0,0,0,-1,1441,1513,0,0
224,-489,0,0,0,0,0,0,0,0,0,-1,1448,1513,0,0
231,-489,0,0,0,0,0,0,0,0,0,-1,1455,1513,0,0
238,-489,0,0,0,0,0,0,0,0,0,-1,1462,1513,0,0
245,-489,0,0,0,0,0,0,0,0,0,-1,1469,1513,0,0
252,-489,0,0,0,0,0,0,0,0,0,-1,1476,1513,0,0
259,-489,0,0,0,0,0,0,0,0,0,-1,1483,1513,0,0
266,-489,0,0,0,0,0,0,0,0,0,-1,1490,1513,0,0
273,-489,0,0,0,0,0,0,0,0,0,-1,1497,1513,0,0
280,-489,0,0,0,0,0,0,0,0,0,-1,1504,1513,0,0
287,-489,0,0,0,0,0,0,0,0,0,-1,1511,1513,0,0
294,-489,0,0,0,0,0,0,0,0,0,-1,1518,1513,0,0
301,-489,0,0,0,0,0,0,0,0,0,-1,1525,1513,0,0
308,-489,0,0,0,0,0,0,0,0,0,-1,1532,1513,0,0
315,-489,0,0,0,0,0,0,0,0,0,-1,1539,1513,0,0
322,-489,0,0,0,0,0,0,0,0,0,-1,1546,1513,0,0
329,-489,0,0,0,0,0,0,0,0,0,-1,1553,1513,0,0
336,-489,0,0,0,0,0,0,0,0,0,-1,1560,1513,0,0
343,-489,0,0,0,0,0,0,0,0,0,-1,1567,1513,0,0
350,-489,0,0,0,0,0,0,0,0,0,-1,1574,1513,0,0
357,-489,0,0,0,0,0,0,0,0,0,-1,1581,1513,0,0
364,-489,0,0,0,0,0,0,0,0,0,-1,1588,1513,0,0
371,-489,0,0,0,0,0,0,0,0,0,-1,1595,1513,0,0
378,-489,0,0,0,0,0,0,0,0,0,-1,1602,1513,0,0
385,-489,0,0,0,0,0,0,0,0,0,-1,1609,1513,0,0
392,-489,0,0,0,0,0,0,0,0,0,-1,1616,1513,0,0
399,-489,0,0,0,0,0,0,0,0,0,-1,1623,1513,0,0
406,-489,0,0,0,0,0,0,0,0,0,-1,1630,1513,0,0
413,-489,0,0,0,0,0,0,0,0,0,-1,1637,1513,0,0
420,-489,0,0,0,0,0,0,0,0,0,-1,1644,1513,0,0
427,-489,0,0,0,0,0,0,0,0,0,-1,1651,1513,0,0
434,-489,0,0,0,0,0,0,0,0,0,-1,1658,1513,0,0
441,-489,11.4602,2.56787,0,0,0,0,0,0,0,-1,1665,1513,11.4602,-2.56786
448,-489,12.4425,1.72351,0,0,0,0,0,0,0,-1,1672,1513,12.4425,-1.72349
455,-489,12.5575,1.37463,0,0,0,0,0,0,0,-1,1679,1513,12.5575,-1.37469
462,-489,14.9784,3.84888,0,0,0,0,0,0,0,-1,1686,1513,14.9784,-3.84892
469,-489,15.1367,4.53101,0,0,0,0,0,0,0,-1,1693,1513,15.1368,-4.531
476,-489,15.5536,5.09338,0,0,0,0,0,0,0,-1,1700,1513,15.5536,-5.09339
483,-489,8.96912,8.37805,0,0,0,0,0,0,0,-1,1707,1513,8.96909,-8.37809
490,-489,10.5366,7.49561,0,0,0,0,0,0,0,-1,1714,1513,10.5367,-7.49558
497,-489,14.6051,11.8397,0,0,0,0,0,0,0,-1,1721,1513,14.6051,-11.8397
504,-489,14.2772,11.9772,0,0,0,0,0,0,0,-1,1728,1513,14.2773,-11.9772
511,-489,13.5791,11.649,0,0,0,0,0,0,0,-1,1735,1513,13.5791,-11.649
518,-489,11.6432,10.1964,0,0,0,0,0,0,0,-1,1742,1513,11.6432,-10.1964
525,-489,11.7064,10.762,0,0,0,0,0,0,0,-1,1749,1513,11.7064,-10.762
532,-489,11.7501,11.3583,-0.0297242,-0.0143359,0.0195934,-0.000980087,-0.04308,0.972494,0.0283989,0.0351747,1756,1513,11.7501,-11.3583
539,-489,11.4873,11.3271,-0.0221193,-0.0118914,0.0148378,-0.001311,-0.0326997,0.951353,0.0213762,0.0164593,1763,1513,11.4873,-11.3272
546,-489,11.4204,11.1495,-0.0160228,-0.00929035,0.0108349,-0.0013108,-0.0240024,0.936013,0.015583,0.011073,1770,1513,11.4204,-11.1496
553,-489,11.4149,10.8972,-0.0110221,-0.00758443,0.00761178,-0.00149982,-0.0171067,0.896441,0.0109388,0.0141626,1777,1513,11.4149,-10.8972
560,-489,11.4335,10.6279,-0.00706412,-0.00580982,0.00513959,-0.00125926,-0.0116147,0.84611,0.00735937,0.0133859,1784,1513,11.4335,-10.6279
567,-489,11.4531,10.3798,-0.00410599,-0.00420086,0.00332405,-0.000829036,-0.00747781,0.778263,0.00473313,0.0148174,1791,1513,11.4531,-10.3798
574,-489,11.4241,10.1677,-0.00205384,-0.00282917,0.00209052,-0.000315347,-0.00456766,0.69372,0.00294563,0.0150152,1798,1513,11.424,-10.1678
581,-489,11.433,9.92078,-0.000158031,-0.00151516,0.00101758,0.000386486,-0.00205968,0.491338,0.00151843,0.0108495,1805,1513,11.4329,-9.92078
588,-489,11.4265,9.66895,0.00173719,-0.000697542,9.76021e-05,0.0017411,-0.000701448,0.0400018,0.00145216,0.0133662,1812,1513,11.4265,-9.66896
595,-489,11.4224,9.39099,0.0033755,-2.13197e-06,-0.000472986,0.00344048,-6.71162e-05,-0.136537,0.00231635,0.0198718,1819,1513,11.4223,-9.39105
602,-489,11.4391,9.12512,0.00494647,0.000406788,-0.000917399,0.00512485,0.000228405,-0.192048,0.00334303,0.0266,1826,1513,11.4391,-9.12508
609,-489,11.4321,8.89294,0.00669366,0.000630878,-0.00123742,0.0069365,0.000388045,-0.193779,0.00450056,0.0179158,1833,1513,11.4322,-8.8929
616,-489,11.4165,8.63733,0.00883274,0.00102634,-0.00153553,0.00912392,0.000735159,-0.187404,0.00585297,0.0099063,1840,1513,11.4165,-8.63731
623,-489,11.4211,8.40796,0.0112817,0.00160932,-0.00184487,0.0116217,0.00126939,-0.182215,0.00736123,0.0158941,1847,1513,11.4212,-8.40799
630,-489,11.4189,8.27368,0.0135784,0.00223439,-0.0018654,0.0138773,0.00193552,-0.158867,0.00867861,0.0389481,1854,1513,11.4189,-8.27365
637,-489,11.3636,8.27576,0,0,0,0,0,0,0,-1,1861,1513,11.3637,-8.2757
644,-489,9.67578,8.45874,0,0,0,0,0,0,0,-1,1868,1513,9.67576,-8.45879
651,-489,6.13818,6.85095,0,0,0,0,0,0,0,-1,1875,1513,6.13823,-6.85097
658,-489,5.43848,7.75513,0,0,0,0,0,0,0,-1,1882,1513,5.43844,-7.75509
665,-489,5.48438,8.59912,0,0,0,0,0,0,0,-1,1889,1513,5.48434,-8.59907
672,-489,0,0,0,0,0,0,0,0,0,-1,1896,1513,0,0
679,-489,0,0,0,0,0,0,0,0,0,-1,1903,1513,0,0
686,-489,0,0,0,0,0,0,0,0,0,-1,1910,1513,0,0
693,-489,0,0,0,0,0,0,0,0,0,-1,1917,1513,0,0
700,-489,0,0,0,0,0,0,0,0,0,-1,1924,1513,0,0
707,-489,0,0,0,0,0,0,0,0,0,-1,1931,1513,0,0
714,-489,0,0,0,0,0,0,0,0,0,-1,1938,1513,0,0
721,-489,0,0,0,0,0,0,0,0,0,-1,1945,1513,0,0
728,-489,0,0,0,0,0,0,0,0,0,-1,1952,1513,0,0
735,-489,0,0,0,0,0,0,0,0,0,-1,1959,1513,0,0
742,-489,0,0,0,0,0,0,0,0,0,-1,1966,1513,0,0
749,-489,0,0,0,0,0,0,0,0,0,-1,1973,1513,0,0
756,-489,0,0,0,0,0,0,0,0,0,-1,1980,1513,0,0
763,-489,0,0,0,0,0,0,0,0,0,-1,1987,1513,0,0
770,-489,0,0,0,0,0,0,0,0,0,-1,1994,1513,0,0
777,-489,0,0,0,0,0,0,0,0,0,-1,2001,1513,0,0
784,-489,0,0,0,0,0,0,0,0,0,-1,2008,1513,0,0
791,-489,0,0,0,0,0,0,0,0,0,-1,2015,1513,0,0
798,-489,0,0,0,0,0,0,0,0,0,-1,2022,1513,0,0
805,-489,0,0,0,0,0,0,0,0,0,-1,2029,1513,0,0
812,-489,0,0,0,0,0,0,0,0,0,-1,2036,1513,0,0
-700,-496,0,0,0,0,0,0,0,0,0,-1,524,1520,0,0
-693,-496,0,0,0,0,0,0,0,0,0,-1,531,1520,0,0
-686,-496,0,0,0,0,0,0,0,0,0,-1,538,1520,0,0
-679,-496,0,0,0,0,0,0,0,0,0,-1,545,1520,0,0
-672,-496,0,0,0,0,0,0,0,0,0,-1,552,1520,0,0
-665,-496,0,0,0,0,0,0,0,0,0,-1,559,1520,0,0
-658,-496,0,0,0,0,0,0,0,0,0,-1,566,1520,0,0
-651,-496,0,0,0,0,0,0,0,0,0,-1,573,1520,0,0
-644,-496,0,0,0,0,0,0,0,0,0,-1,580,1520,0,0
-637,-496,0,0,0,0,0,0,0,0,0,-1,587,1520,0,0
-630,-496,0,0,0,0,0,0,0,0,0,-1,594,1520,0,0
-623,-496,0,0,0,0,0,0,0,0,0,-1,601,1520,0,0
-616,-496,0,0,0,0,0,0,0,0,0,-1,608,1520,0,0
-609,-496,0,0,0,0,0,0,0,0,0,-1,615,1520,0,0
-602,-496,0,0,0,0,0,0,0,0,0,-1,622,1520,0,0
-595,-496,0,0,0,0,0,0,0,0,0,-1,629,1520,0,0
-588,-496,0,0,0,0,0,0,0,0,0,-1,636,1520,0,0
-581,-496,0,0,0,0,0,0,0,0,0,-1,643,1520,0,0
-574,-496,0,0,0,0,0,0,0,0,0,-1,650,1520,0,0
-567,-496,0,0,0,0,0,0,0,0,0,-1,657,1520,0,0
-560,-496,0,0,0,0,0,0,0,0,0,-1,664,1520,0,0
-553,-496,0,0,0,0,0,0,0,0,0,-1,671,1520,0,0
-546,-496,-8.09711,7.94836,0,0,0,0,0,0,0,-1,678,1520,-8.09712,-7.94842
-539,-496,-3.43286,1.45349,0,0,0,0,0,0,0,-1,685,1520,-3.43288,-1.45344
-532,-496,-3.34003,2.69983,0,0,0,0,0,0,0,-1,692,1520,-3.34,-2.69981
-525,-496,-3.31244,3.69531,0,0,0,0,0,0,0,-1,699,1520,-3.31242,-3.69534
-518,-496,-3.58716,4.63257,0,0,0,0,0,0,0,-1,706,1520,-3.58716,-4.63252
-511,-496,-3.92035,5.58411,0,0,0,0,0,0,0,-1,713,1520,-3.92034,-5.58407
-504,-496,-1.3952,6.28735,0,0,0,0,0,0,0,-1,720,1520,-1.39523,-6.28731
-497,-496,-1.44623,6.66089,0,0,0,0,0,0,0,-1,727,1520,-1.44624,-6.66094
-490,-496,-1.59338,6.83191,0.00344817,0.0163045,0.00606005,0.0187107,0.001042,1.19283,0.0121414,0.0377438,734,1520,-1.59336,-6.83187
-483,-496,-1.74548,7.0094,0.00161008,0.01153,0.00397737,0.0129277,0.00021231,1.23285,0.0085486,0.0196548,741,1520,-1.7455,-7.00936
-476,-496,-1.80103,7.24805,0.00058624,0.00791521,0.00253198,0.00870486,-0.000203415,1.26848,0.00587222,0.0114734,748,1520,-1.80103,-7.24802
-469,-496,-1.81268,7.54492,7.06129e-05,0.0050507,0.00130887,0.00537374,-0.000252431,1.32882,0.00366953,0.0109106,755,1520,-1.81266,-7.54488
-462,-496,-1.80444,7.80981,4.35557e-05,0.00271137,0.000501436,0.00280251,-4.75798e-05,1.39101,0.0018844,0.014795,762,1520,-1.80447,-7.80982
-455,-496,-1.80487,8.10461,0.000604228,0.00116347,8.13451e-05,0.00117506,0.000592636,1.42925,0.000678431,0.0198649,769,1520,-1.80489,-8.10465
-448,-496,-1.81763,8.37817,0.00144026,0.000161591,-2.13034e-05,0.00144061,0.000161236,-0.0166544,0.000911431,0.0189944,776,1520,-1.81763,-8.37813
-441,-496,-1.80481,8.63855,0.00253725,-0.000670553,-8.93312e-05,0.00253974,-0.000673039,-0.0278193,0.00195648,0.0147027,783,1520,-1.80479,-8.63859
-434,-496,-1.82593,8.91638,0.00364903,-0.00139889,-0.000260304,0.00366242,-0.00141228,-0.051385,0.00302436,0.0130313,790,1520,-1.82595,-8.91642
-427,-496,-1.83478,9.22314,0.00468381,-0.00230989,-0.000590317,0.00473328,-0.00235937,-0.0836186,0.0041707,0.0164764,797,1520,-1.83481,-9.2231
-420,-496,-1.8092,9.46021,0.00574389,-0.00346898,-0.00103653,0.00585907,-0.00358416,-0.110666,0.00550453,0.0177769,804,1520,-1.80919,-9.46016
-413,-496,-1.76764,9.7395,0.00682917,-0.00529031,-0.00165953,0.00705231,-0.00551344,-0.133654,0.00727295,0.0185012,811,1520,-1.76763,-9.73951
-406,-496,-1.69623,10.1195,0,0,0,0,0,0,0,-1,818,1520,-1.69621,-10.1195
-399,-496,-1.49341,10.5148,0,0,0,0,0,0,0,-1,825,1520,-1.4934,-10.5148
-392,-496,-1.30365,10.7238,0,0,0,0,0,0,0,-1,832,1520,-1.30362,-10.7238
-385,-496,-1.18225,10.3312,0,0,0,0,0,0,0,-1,839,1520,-1.18224,-10.3312
-378,-496,-0.251709,10.3779,0,0,0,0,0,0,0,-1,846,1520,-0.251705,-10.3779
-371,-496,0.127808,10.5314,0,0,0,0,0,0,0,-1,853,1520,0.127825,-10.5314
-364,-496,0.0881348,10.6422,0,0,0,0,0,0,0,-1,860,1520,0.0881368,-10.6423
-357,-496,0.323792,7.56812,0,0,0,0,0,0,0,-1,867,1520,0.323782,-7.56806
-350,-496,2.1535,7.18945,0,0,0,0,0,0,0,-1,874,1520,2.15348,-7.1894
-343,-496,-7.56244,0.335327,0,0,0,0,0,0,0,-1,881,1520,-7.56242,-0.335322
-336,-496,-3.99249,6.02222,0,0,0,0,0,0,0,-1,888,1520,-3.99246,-6.0222
-329,-496,-6.93689,-0.100342,0,0,0,0,0,0,0,-1,895,1520,-6.93686,0.1003
-322,-496,-6.17505,0.494385,0,0,0,0,0,0,0,-1,902,1520,-6.17507,-0.49437
-315,-496,-5.46338,1.0459,0,0,0,0,0,0,0,-1,909,1520,-5.46338,-1.04587
-308,-496,0,0,0,0,0,0,0,0,0,-1,916,1520,0,0
-301,-496,0,0,0,0,0,0,0,0,0,-1,923,1520,0,0
-294,-496,0,0,0,0,0,0,0,0,0,-1,930,1520,0,0
-287,-496,0,0,0,0,0,0,0,0,0,-1,937,1520,0,0
-280,-496,0,0,0,0,0,0,0,0,0,-1,944,1520,0,0
-273,-496,0,0,0,0,0,0,0,0,0,-1,951,1520,0,0
-266,-496,0,0,0,0,0,0,0,0,0,-1,958,1520,0,0
-259,-496,0,0,0,0,0,0,0,0,0,-1,965,1520,0,0
-252,-496,0,0,0,0,0,0,0,0,0,-1,972,1520,0,0
-245,-496,0,0,0,0,0,0,0,0,0,-1,979,1520,0,0
-238,-496,0,0,0,0,0,0,0,0,0,-1,986,1520,0,0
-231,-496,0,0,0,0,0,0,0,0,0,-1,993,1520,0,0
-224,-496,0,0,0,0,0,0,0,0,0,-1,1000,1520,0,0
-217,-496,0,0,0,0,0,0,0,0,0,-1,1007,1520,0,0
-210,-496,0,0,0,0,0,0,0,0,0,-1,1014,1520,0,0
-203,-496,0,0,0,0,0,0,0,0,0,-1,1021,1520,0,0
-196,-496,0,0,0,0,0,0,0,0,0,-1,1028,1520,0,0
-189,-496,0,0,0,0,0,0,0,0,0,-1,1035,1520,0,0
-182,-496,0,0,0,0,0,0,0,0,0,-1,1042,1520,0,0
-175,-496,0,0,0,0,0,0,0,0,0,-1,1049,1520,0,0
-168,-496,0,0,0,0,0,0,0,0,0,-1,1056,1520,0,0
-161,-496,0,0,0,0,0,0,0,0,0,-1,1063,1520,0,0
-154,-496,0,0,0,0,0,0,0,0,0,-1,1070,1520,0,0
-147,-496,0,0,0,0,0,0,0,0,0,-1,1077,1520,0,0
-140,-496,0,0,0,0,0,0,0,0,0,-1,1084,1520,0,0
-133,-496,0,0,0,0,0,0,0,0,0,-1,1091,1520,0,0
-126,-496,0,0,0,0,0,0,0,0,0,-1,1098,1520,0,0
-119,-496,0,0,0,0,0,0,0,0,0,-1,1105,1520,0,0
-112,-496,0,0,0,0,0,0,0,0,0,-1,1112,1520,0,0
-105,-496,0,0,0,0,0,0,0,0,0,-1,1119,1520,0,0
-98,-496,0,0,0,0,0,0,0,0,0,-1,1126,1520,0,0
-91,-496,0,0,0,0,0,0,0,0,0,-1,1133,1520,0,0
-84,-496,0,0,0,0,0,0,0,0,0,-1,1140,1520,0,0
-77,-496,0,0,0,0,0,0,0,0,0,-1,1147,1520,0,0
-70,-496,0,0,0,0,0,0,0,0,0,-1,1154,1520,0,0
-63,-496,0,0,0,0,0,0,0,0,0,-1,1161,1520,0,0
-56,-496,0,0,0,0,0,0,0,0,0,-1,1168,1520,0,0
-49,-496,0,0,0,0,0,0,0,0,0,-1,1175,1520,0,0
-42,-496,0,0,0,0,0,0,0,0,0,-1,1182,1520,0,0
-35,-496,0,0,0,0,0,0,0,0,0,-1,1189,1520,0,0
-28,-496,0,0,0,0,0,0,0,0,0,-1,1196,1520,0,0
-21,-496,0,0,0,0,0,0,0,0,0,-1,1203,1520,0,0
-14,-496,0,0,0,0,0,0,0,0,0,-1,1210,1520,0,0
-7,-496,0,0,0,0,0,0,0,0,0,-1,1217,1520,0,0
0,-496,0,0,0,0,0,0,0,0,0,-1,1224,1520,0,0
7,-496,0,0,0,0,0,0,0,0,0,-1,1231,1520,0,0
14,-496,0,0,0,0,0,0,0,0,0,-1,1238,1520,0,0
21,-496,0,0,0,0,0,0,0,0,0,-1,1245,1520,0,0
28,-496,0,0,0,0,0,0,0,0,0,-1,1252,1520,0,0
35,-496,0,0,0,0,0,0,0,0,0,-1,1259,1520,0,0
42,-496,0,0,0,0,0,0,0,0,0,-1,1266,1520,0,0
49,-496,0,0,0,0,0,0,0,0,0,-1,1273,1520,0,0
56,-496,0,0,0,0,0,0,0,0,0,-1,1280,1520,0,0
63,-496,0,0,0,0,0,0,0,0,0,-1,1287,1520,0,0
70,-496,0,0,0,0,0,0,0,0,0,-1,1294,1520,0,0
77,-496,0,0,0,0,0,0,0,0,0,-1,1301,1520,0,0
84,-496,0,0,0,0,0,0,0,0,0,-1,1308,1520,0,0
91,-496,0,0,0,0,0,0,0,0,0,-1,1315,1520,0,0
98,-496,0,0,0,0,0,0,0,0,0,-1,1322,1520,0,0
105,-496,0,0,0,0,0,0,0,0,0,-1,1329,1520,0,0
112,-496,0,0,0,0,0,0,0,0,0,-1,1336,1520,0,0
119,-496,0,0,0,0,0,0,0,0,0,-1,1343,1520,0,0
126,-496,0,0,0,0,0,0,0,0,0,-1,1350,1520,0,0
133,-496,0,0,0,0,0,0,0,0,0,-1,1357,1520,0,0
140,-496,0,0,0,0,0,0,0,0,0,-1,1364,1520,0,0
147,-496,0,0,0,0,0,0,0,0,0,-1,1371,1520,0,0
154,-496,0,0,0,0,0,0,0,0,0,-1,1378,1520,0,0
161,-496,0,0,0,0,0,0,0,0,0,-1,1385,1520,0,0
168,-496,0,0,0,0,0,0,0,0,0,-1,1392,1520,0,0
175,-496,0,0,0,0,0,0,0,0,0,-1,1399,1520,0,0
182,-496,0,0,0,0,0,0,0,0,0,-1,1406,1520,0,0
189,-496,0,0,0,0,0,0,0,0,0,-1,1413,1520,0,0
196,-496,0,0,0,0,0,0,0,0,0,-1,1420,1520,0,0
203,-496,0,0,0,0,0,0,0,0,0,-1,1427,1520,0,0
210,-496,0,0,0,0,0,0,0,0,0,-1,1434,1520,0,0
217,-496,0,0,0,0,0,0,0,0,0,-1,1441,1520,0,0
224,-496,0,0,0,0,0,0,0,0,0,-1,1448,1520,0,0
231,-496,0,0,0,0,0,0,0,0,0,-1,1455,1520,0,0
238,-496,0,0,0,0,0,0,0,0,0,-1,1462,1520,0,0
245,-496,0,0,0,0,0,0,0,0,0,-1,1469,1520,0,0
252,-496,0,0,0,0,0,0,0,0,0,-1,1476,1520,0,0
259,-496,0,0,0,0,0,0,0,0,0,-1,1483,1520,0,0
266,-496,0,0,0,0,0,0,0,0,0,-1,1490,1520,0,0
273,-496,0,0,0,0,0,0,0,0,0,-1,1497,1520,0,0
280,-496,0,0,0,0,0,0,0,0,0,-1,1504,1520,0,0
287,-496,0,0,0,0,0,0,0,0,0,-1,1511,1520,0,0
294,-496,0,0,0,0,0,0,0,0,0,-1,1518,1520,0,0
301,-496,0,0,0,0,0,0,0,0,0,-1,1525,1520,0,0
308,-496,0,0,0,0,0,0,0,0,0,-1,1532,1520,0,0
315,-496,0,0,0,0,0,0,0,0,0,-1,1539,1520,0,0
322,-496,0,0,0,0,0,0,0,0,0,-1,1546,1520,0,0
329,-496,0,0,0,0,0,0,0,0,0,-1,1553,1520,0,0
336,-496,0,0,0,0,0,0,0,0,0,-1,1560,1520,0,0
343,-496,0,0,0,0,0,0,0,0,0,-1,1567,1520,0,0
350,-496,0,0,0,0,0,0,0,0,0,-1,1574,1520,0,0
357,-496,0,0,0,0,0,0,0,0,0,-1,1581,1520,0,0
364,-496,0,0,0,0,0,0,0,0,0,-1,1588,1520,0,0
371,-496,0,0,0,0,0,0,0,0,0,-1,1595,1520,0,0
378,-496,0,0,0,0,0,0,0,0,0,-1,1602,1520,0,0
385,-496,0,0,0,0,0,0,0,0,0,-1,1609,1520,0,0
392,-496,0,0,0,0,0,0,0,0,0,-1,1616,1520,0,0
399,-496,0,0,0,0,0,0,0,0,0,-1,1623,1520,0,0
406,-496,0,0,0,0,0,0,0,0,0,-1,1630,1520,0,0
413,-496,0,0,0,0,0,0,0,0,0,-1,1637,1520,0,0
420,-496,0,0,0,0,0,0,0,0,0,-1,1644,1520,0,0
427,-496,0,0,0,0,0,0,0,0,0,-1,1651,1520,0,0
434,-496,11.0457,3.37732,0,0,0,0,0,0,0,-1,1658,1520,11.0456,-3.37736
441,-496,11.788,2.75488,0,0,0,0,0,0,0,-1,1665,1520,11.7879,-2.75485
448,-496,12.2146,2.18494,0,0,0,0,0,0,0,-1,1672,1520,12.2146,-2.18489
455,-496,12.3489,1.65173,0,0,0,0,0,0,0,-1,1679,1520,12.3489,-1.65178
462,-496,12.1912,1.32361,0,0,0,0,0,0,0,-1,1686,1520,12.1911,-1.32357
469,-496,14.8138,5.77954,0,0,0,0,0,0,0,-1,1693,1520,14.8138,-5.77958
476,-496,15.2449,6.27942,0,0,0,0,0,0,0,-1,1700,1520,15.2449,-6.27936
483,-496,9.19812,6.88367,0,0,0,0,0,0,0,-1,1707,1520,9.19812,-6.88361
490,-496,10.2123,7.97144,0,0,0,0,0,0,0,-1,1714,1520,10.2122,-7.97145
497,-496,13.9297,12.2981,0,0,0,0,0,0,0,-1,1721,1520,13.9297,-12.2982
504,-496,13.5739,12.1079,-0.0682618,-0.0220983,0.0472179,0.00737753,-0.0977376,1.01274,0.0677516,0.0456302,1728,1520,13.5739,-12.108
511,-496,13.0331,11.9064,-0.0545164,-0.0192877,0.037674,0.00468633,-0.0784904,1.00407,0.0539569,0.0468594,1735,1520,13.0331,-11.9063
518,-496,11.8671,12.3446,0,0,0,0,0,0,0,-1,1742,1520,11.867,-12.3446
525,-496,11.2809,11.121,-0.0327698,-0.0140211,0.0227612,0.00122067,-0.0480116,0.980741,0.0324223,0.0492814,1749,1520,11.2809,-11.1209
532,-496,11.2065,11.5142,-0.0247158,-0.0116944,0.0172735,0.000254683,-0.0366649,0.965624,0.0245286,0.0259679,1756,1520,11.2066,-11.5142
539,-496,11.1886,11.3861,-0.0183135,-0.00953639,0.012935,-0.000265756,-0.0275842,0.948944,0.0183015,0.0118512,1763,1520,11.1886,-11.3861
546,-496,11.1595,11.1251,-0.0131002,-0.0072034,0.00924001,-0.000452792,-0.0198508,0.939837,0.0130856,0.00922151,1770,1520,11.1595,-11.1251
553,-496,11.1837,10.8779,-0.00874115,-0.00576931,0.00625743,-0.000823794,-0.0136867,0.901972,0.00886262,0.0138793,1777,1520,11.1837,-10.8779
560,-496,11.1981,10.6421,-0.00523679,-0.00423846,0.00397757,-0.000728858,-0.0087464,0.847819,0.0056038,0.014034,1784,1520,11.1981,-10.6421
567,-496,11.1863,10.3896,-0.00260645,-0.00289557,0.00232964,-0.000416884,-0.00508514,0.754411,0.00326003,0.0123116,1791,1520,11.1863,-10.3897
574,-496,11.1927,10.1403,-0.000704994,-0.00172864,0.00120981,9.68082e-05,-0.00253045,0.585285,0.00172014,0.0125373,1798,1520,11.1928,-10.1402
581,-496,11.1863,9.9209,0.00119298,-0.000570132,0.000221081,0.00122028,-0.000597431,0.122859,0.00106979,0.0136616,1805,1520,11.1863,-9.92092
588,-496,11.1858,9.67517,0.00306739,0.000139303,-0.000633182,0.00319845,8.24733e-06,-0.204098,0.00212956,0.0160396,1812,1520,11.1858,-9.67521
595,-496,11.1777,9.41943,0.00485706,0.00071514,-0.00119685,0.00517803,0.000394173,-0.262012,0.00332842,0.0168457,1819,1520,11.1778,-9.41941
602,-496,11.1827,9.14551,0.00676529,0.00105328,-0.00165161,0.00720846,0.000610106,-0.262152,0.00461573,0.0177367,1826,1520,11.1828,-9.14555
609,-496,11.1841,8.88306,0.00897364,0.00121603,-0.00198657,0.00945277,0.000736899,-0.236664,0.00607114,0.0141983,1833,1520,11.184,-8.883
616,-496,11.1912,8.61206,0.0117742,0.00156763,-0.00233025,0.012281,0.00106078,-0.214172,0.00785766,0.0121609,1840,1520,11.1912,-8.61204
623,-496,11.1794,8.3905,0.0153451,0.00202158,-0.00270871,0.0158747,0.00149195,-0.193094,0.0101226,0.0264699,1847,1520,11.1794,-8.39045
630,-496,11.9065,8.1333,0,0,0,0,0,0,0,-1,1854,1520,11.9065,-8.13326
637,-496,12.296,8.44202,0,0,0,0,0,0,0,-1,1861,1520,12.296,-8.442
644,-496,11.175,6.72961,0,0,0,0,0,0,0,-1,1868,1520,11.175,-6.72963
651,-496,8.18506,5.47803,0,0,0,0,0,0,0,-1,1875,1520,8.18505,-5.47806
658,-496,7.79993,4.02563,0,0,0,0,0,0,0,-1,1882,1520,7.79997,-4.02568
665,-496,5.47583,7.90625,0,0,0,0,0,0,0,-1,1889,1520,5.47581,-7.90628
672,-496,0,0,0,0,0,0,0,0,0,-1,1896,1520,0,0
679,-496,0,0,0,0,0,0,0,0,0,-1,1903,1520,0,0
686,-496,0,0,0,0,0,0,0,0,0,-1,1910,1520,0,0
693,-496,0,0,0,0,0,0,0,0,0,-1,1917,1520,0,0
700,-496,0,0,0,0,0,0,0,0,0,-1,1924,1520,0,0
707,-496,0,0,0,0,0,0,0,0,0,-1,1931,1520,0,0
714,-496,0,0,0,0,0,0,0,0,0,-1,1938,1520,0,0
721,-496,0,0,0,0,0,0,0,0,0,-1,1945,1520,0,0
728,-496,0,0,0,0,0,0,0,0,0,-1,1952,1520,0,0
735,-496,0,0,0,0,0,0,0,0,0,-1,1959,1520,0,0
742,-496,0,0,0,0,0,0,0,0,0,-1,1966,1520,0,0
749,-496,0,0,0,0,0,0,0,0,0,-1,1973,1520,0,0
756,-496,0,0,0,0,0,0,0,0,0,-1,1980,1520,0,0
763,-496,0,0,0,0,0,0,0,0,0,-1,1987,1520,0,0
770,-496,0,0,0,0,0,0,0,0,0,-1,1994,1520,0,0
777,-496,0,0,0,0,0,0,0,0,0,-1,2001,1520,0,0
784,-496,0,0,0,0,0,0,0,0,0,-1,2008,1520,0,0
791,-496,0,0,0,0,0,0,0,0,0,-1,2015,1520,0,0
798,-496,0,0,0,0,0,0,0,0,0,-1,2022,1520,0,0
805,-496,0,0,0,0,0,0,0,0,0,-1,2029,1520,0,0
812,-496,0,0,0,0,0,0,0,0,0,-1,2036,1520,0,0
-700,-503,0,0,0,0,0,0,0,0,0,-1,524,1527,0,0
-693,-503,0,0,0,0,0,0,0,0,0,-1,531,1527,0,0
-686,-503,0,0,0,0,0,0,0,0,0,-1,538,1527,0,0
-679,-503,0,0,0,0,0,0,0,0,0,-1,545,1527,0,0
-672,-503,0,0,0,0,0,0,0,0,0,-1,552,1527,0,0
-665,-503,0,0,0,0,0,0,0,0,0,-1,559,1527,0,0
-658,-503,0,0,0,0,0,0,0,0,0,-1,566,1527,0,0
-651,-503,0,0,0,0,0,0,0,0,0,-1,573,1527,0,0
-644,-503,0,0,0,0,0,0,0,0,0,-1,580,1527,0,0
-637,-503,0,0,0,0,0,0,0,0,0,-1,587,1527,0,0
-630,-503,0,0,0,0,0,0,0,0,0,-1,594,1527,0,0
-623,-503,0,0,0,0,0,0,0,0,0,-1,601,1527,0,0
-616,-503,0,0,0,0,0,0,0,0,0,-1,608,1527,0,0
-609,-503,0,0,0,0,0,0,0,0,0,-1,615,1527,0,0
-602,-503,0,0,0,0,0,0,0,0,0,-1,622,1527,0,0
-595,-503,0,0,0,0,0,0,0,0,0,-1,629,1527,0,0
-588,-503,0,0,0,0,0,0,0,0,0,-1,636,1527,0,0
-581,-503,0,0,0,0,0,0,0,0,0,-1,643,1527,0,0
-574,-503,0,0,0,0,0,0,0,0,0,-1,650,1527,0,0
-567,-503,0,0,0,0,0,0,0,0,0,-1,657,1527,0,0
-560,-503,0,0,0,0,0,0,0,0,0,-1,664,1527,0,0
-553,-503,0,0,0,0,0,0,0,0,0,-1,671,1527,0,0
-546,-503,0,0,0,0,0,0,0,0,0,-1,678,1527,0,0
-539,-503,3.50177,4.26428,0,0,0,0,0,0,0,-1,685,1527,3.50177,-4.26424
-532,-503,-3.62512,2.224,0,0,0,0,0,0,0,-1,692,1527,-3.62512,-2.22401
-525,-503,-3.59149,3.31226,0,0,0,0,0,0,0,-1,699,1527,-3.59147,-3.31226
-518,-503,-3.64612,4.39063,0,0,0,0,0,0,0,-1,706,1527,-3.6461,-4.39059
-511,-503,-1.33124,3.46472,0,0,0,0,0,0,0,-1,713,1527,-1.33124,-3.46471
-504,-503,-0.994873,4.12793,0,0,0,0,0,0,0,-1,720,1527,-0.994875,-4.12791
-497,-503,-1.07184,6.81213,0,0,0,0,0,0,0,-1,727,1527,-1.07185,-6.8121
-490,-503,-1.21381,7.01123,0.00204105,0.0221535,0.00703318,0.0243689,-0.000174371,1.26564,0.0163044,0.0487122,734,1527,-1.21383,-7.0112
-483,-503,-1.41748,7.11084,0.000600156,0.015797,0.00476503,0.0171675,-0.000770338,1.29074,0.0117103,0.0374924,741,1527,-1.4175,-7.1108
-476,-503,-1.45776,7.28601,-3.61156e-05,0.0110413,0.00325219,0.0119255,-0.000920341,1.30533,0.00827418,0.0185259,748,1527,-1.45779,-7.28601
-469,-503,-1.53522,7.54883,-0.000367519,0.00738434,0.00197358,0.00785787,-0.000841053,1.33531,0.00554025,0.00998899,755,1527,-1.53521,-7.54878
-462,-503,-1.53436,7.85181,-0.000308664,0.00452956,0.0011317,0.00478119,-0.000560293,1.35201,0.00338969,0.0113003,762,1527,-1.53438,-7.85181
-455,-503,-1.50079,8.14783,0.000286155,0.00261641,0.000672174,0.0027964,0.000106165,1.30916,0.00182991,0.0166571,769,1527,-1.50079,-8.14787
-448,-503,-1.50427,8.41785,0.00105633,0.00137911,0.000534467,0.00177603,0.00065942,0.932028,0.00103665,0.016227,776,1527,-1.5043,-8.41787
-441,-503,-1.51184,8.64502,0.0020257,0.000427433,0.000447045,0.00214225,0.00031089,0.25502,0.00133664,0.0131077,783,1527,-1.51183,-8.64499
-434,-503,-1.54358,8.91699,0.00301982,-0.000440445,0.000297952,0.00304529,-0.000465913,0.0852702,0.00220199,0.0107024,790,1527,-1.54356,-8.91704
-427,-503,-1.586,9.18188,0.00391027,-0.00138168,-9.0916e-06,0.00391028,-0.00138169,-0.001718,0.00316945,0.015761,797,1527,-1.58602,-9.18184
-420,-503,-1.53558,9.44507,0.00480296,-0.0023623,-0.00041108,0.00482647,-0.0023858,-0.0571214,0.00424274,0.0164775,804,1527,-1.53559,-9.44504
-413,-503,-1.52209,9.70654,0.00566711,-0.00388141,-0.000960838,0.00576284,-0.00397714,-0.0993004,0.00565479,0.0145888,811,1527,-1.52212,-9.70656
-406,-503,-1.53589,9.98059,0.00648123,-0.00580392,-0.00175259,0.00672636,-0.00604906,-0.138967,0.00737934,0.0158023,818,1527,-1.5359,-9.98063
-399,-503,-1.44153,10.342,0.00736438,-0.00817909,-0.00283372,0.00786488,-0.00867959,-0.174819,0.00955581,0.0232472,825,1527,-1.44153,-10.3421
-392,-503,-1.26355,10.6628,0.00797938,-0.0111049,-0.00445023,0.00896611,-0.0120916,-0.218195,0.0122022,0.0435238,832,1527,-1.26356,-10.6628
-385,-503,-0.663696,10.2129,0,0,0,0,0,0,0,-1,839,1527,-0.663674,-10.2129
-378,-503,-0.654053,10.5139,0,0,0,0,0,0,0,-1,846,1527,-0.65406,-10.5139
-371,-503,-1.30444,10.4919,0,0,0,0,0,0,0,-1,853,1527,-1.30447,-10.492
-364,-503,0.262573,10.6705,0,0,0,0,0,0,0,-1,860,1527,0.262602,-10.6706
-357,-503,0.558533,9.25452,0,0,0,0,0,0,0,-1,867,1527,0.558542,-9.25446
-350,-503,0.219971,6.84827,0,0,0,0,0,0,0,-1,874,1527,0.21996,-6.84831
-343,-503,-3.5802,4.43274,0,0,0,0,0,0,0,-1,881,1527,-3.58018,-4.43276
-336,-503,-3.2384,6.40637,0,0,0,0,0,0,0,-1,888,1527,-3.2384,-6.40643
-329,-503,-1.70691,11.886,0,0,0,0,0,0,0,-1,895,1527,-1.70689,-11.886
-322,-503,-3.31317,8.81519,0,0,0,0,0,0,0,-1,902,1527,-3.31315,-8.81524
-315,-503,-3.90265,7.73853,0,0,0,0,0,0,0,-1,909,1527,-3.90264,-7.73854
-308,-503,-4.07867,7.25977,0,0,0,0,0,0,0,-1,916,1527,-4.07868,-7.25973
-301,-503,0,0,0,0,0,0,0,0,0,-1,923,1527,0,0
-294,-503,0,0,0,0,0,0,0,0,0,-1,930,1527,0,0
-287,-503,0,0,0,0,0,0,0,0,0,-1,937,1527,0,0
-280,-503,0,0,0,0,0,0,0,0,0,-1,944,1527,0,0
-273,-503,0,0,0,0,0,0,0,0,0,-1,951,1527,0,0
-266,-503,0,0,0,0,0,0,0,0,0,-1,958,1527,0,0
-259,-503,0,0,0,0,0,0,0,0,0,-1,965,1527,0,0
-252,-503,0,0,0,0,0,0,0,0,0,-1,972,1527,0,0
-245,-503,0,0,0,0,0,0,0,0,0,-1,979,1527,0,0
-238,-503,0,0,0,0,0,0,0,0,0,-1,986,1527,0,0
-231,-503,0,0,0,0,0,0,0,0,0,-1,993,1527,0,0
-224,-503,0,0,0,0,0,0,0,0,0,-1,1000,1527,0,0
-217,-503,0,0,0,0,0,0,0,0,0,-1,1007,1527,0,0
-210,-503,0,0,0,0,0,0,0,0,0,-1,1014,1527,0,0
-203,-503,0,0,0,0,0,0,0,0,0,-1,1021,1527,0,0
-196,-503,0,0,0,0,0,0,0,0,0,-1,1028,1527,0,0
-189,-503,0,0,0,0,0,0,0,0,0,-1,1035,1527,0,0
-182,-503,0,0,0,0,0,0,0,0,0,-1,1042,1527,0,0
-175,-503,0,0,0,0,0,0,0,0,0,-1,1049,1527,0,0
-168,-503,0,0,0,0,0,0,0,0,0,-1,1056,1527,0,0
-161,-503,0,0,0,0,0,0,0,0,0,-1,1063,1527,0,0
-154,-503,0,0,0,0,0,0,0,0,0,-1,1070,1527,0,0
-147,-503,0,0,0,0,0,0,0,0,0,-1,1077,1527,0,0
-140,-503,0,0,0,0,0,0,0,0,0,-1,1084,1527,0,0
-133,-503,0,0,0,0,0,0,0,0,0,-1,1091,1527,0,0
-126,-503,0,0,0,0,0,0,0,0,0,-1,1098,1527,0,0
-119,-503,0,0,0,0,0,0,0,0,0,-1,1105,1527,0,0
-112,-503,0,0,0,0,0,0,0,0,0,-1,1112,1527,0,0
-105,-503,0,0,0,0,0,0,0,0,0,-1,1119,1527,0,0
-98,-503,0,0,0,0,0,0,0,0,0,-1,1126,1527,0,0
-91,-503,0,0,0,0,0,0,0,0,0,-1,1133,1527,0,0
-84,-503,0,0,0,0,0,0,0,0,0,-1,1140,1527,0,0
-77,-503,0,0,0,0,0,0,0,0,0,-1,1147,1527,0,0
-70,-503,0,0,0,0,0,0,0,0,0,-1,1154,1527,0,0
-63,-503,0,0,0,0,0,0,0,0,0,-1,1161,1527,0,0
-56,-503,0,0,0,0,0,0,0,0,0,-1,1168,1527,0,0
-49,-503,0,0,0,0,0,0,0,0,0,-1,1175,1527,0,0
-42,-503,0,0,0,0,0,0,0,0,0,-1,1182,1527,0,0
-35,-503,0,0,0,0,0,0,0,0,0,-1,1189,1527,0,0
-28,-503,0,0,0,0,0,0,0,0,0,-1,1196,1527,0,0
-21,-503,0,0,0,0,0,0,0,0,0,-1,1203,1527,0,0
-14,-503,0,0,0,0,0,0,0,0,0,-1,1210,1527,0,0
-7,-503,0,0,0,0,0,0,0,0,0,-1,1217,1527,0,0
0,-503,0,0,0,0,0,0,0,0,0,-1,1224,1527,0,0
7,-503,0,0,0,0,0,0,0,0,0,-1,1231,1527,0,0
14,-503,0,0,0,0,0,0,0,0,0,-1,1238,1527,0,0
21,-503,0,0,0,0,0,0,0,0,0,-1,1245,1527,0,0
28,-503,0,0,0,0,0,0,0,0,0,-1,1252,1527,0,0
35,-503,0,0,0,0,0,0,0,0,0,-1,1259,1527,0,0
42,-503,0,0,0,0,0,0,0,0,0,-1,1266,1527,0,0
49,-503,0,0,0,0,0,0,0,0,0,-1,1273,1527,0,0
56,-503,0,0,0,0,0,0,0,0,0,-1,1280,1527,0,0
63,-503,0,0,0,0,0,0,0,0,0,-1,1287,1527,0,0
70,-503,0,0,0,0,0,0,0,0,0,-1,1294,1527,0,0
77,-503,0,0,0,0,0,0,0,0,0,-1,1301,1527,0,0
84,-503,0,0,0,0,0,0,0,0,0,-1,1308,1527,0,0
91,-503,0,0,0,0,0,0,0,0,0,-1,1315,1527,0,0
98,-503,0,0,0,0,0,0,0,0,0,-1,1322,1527,0,0
105,-503,0,0,0,0,0,0,0,0,0,-1,1329,1527,0,0
112,-503,0,0,0,0,0,0,0,0,0,-1,1336,1527,0,0
119,-503,0,0,0,0,0,0,0,0,0,-1,1343,1527,0,0
126,-503,0,0,0,0,0,0,0,0,0,-1,1350,1527,0,0
133,-503,0,0,0,0,0,0,0,0,0,-1,1357,1527,0,0
140,-503,0,0,0,0,0,0,0,0,0,-1,1364,1527,0,0
147,-503,0,0,0,0,0,0,0,0,0,-1,1371,1527,0,0
154,-503,0,0,0,0,0,0,0,0,0,-1,1378,1527,0,0
161,-503,0,0,0,0,0,0,0,0,0,-1,1385,1527,0,0
168,-503,0,0,0,0,0,0,0,0,0,-1,1392,1527,0,0
175,-503,0,0,0,0,0,0,0,0,0,-1,1399,1527,0,0
182,-503,0,0,0,0,0,0,0,0,0,-1,1406,1527,0,0
189,-503,0,0,0,0,0,0,0,0,0,-1,1413,1527,0,0
196,-503,0,0,0,0,0,0,0,0,0,-1,1420,1527,0,0
203,-503,0,0,0,0,0,0,0,0,0,-1,1427,1527,0,0
210,-503,0,0,0,0,0,0,0,0,0,-1,1434,1527,0,0
217,-503,0,0,0,0,0,0,0,0,0,-1,1441,1527,0,0
224,-503,0,0,0,0,0,0,0,0,0,-1,1448,1527,0,0
231,-503,0,0,0,0,0,0,0,0,0,-1,1455,1527,0,0
238,-503,0,0,0,0,0,0,0,0,0,-1,1462,1527,0,0
245,-503,0,0,0,0,0,0,0,0,0,-1,1469,1527,0,0
252,-503,0,0,0,0,0,0,0,0,0,-1,1476,1527,0,0
259,-503,0,0,0,0,0,0,0,0,0,-1,1483,1527,0,0
266,-503,0,0,0,0,0,0,0,0,0,-1,1490,1527,0,0
273,-503,0,0,0,0,0,0,0,0,0,-1,1497,1527,0,0
280,-503,0,0,0,0,0,0,0,0,0,-1,1504,1527,0,0
287,-503,0,0,0,0,0,0,0,0,0,-1,1511,1527,0,0
294,-503,0,0,0,0,0,0,0,0,0,-1,1518,1527,0,0
301,-503,0,0,0,0,0,0,0,0,0,-1,1525,1527,0,0
308,-503,0,0,0,0,0,0,0,0,0,-1,1532,1527,0,0
315,-503,0,0,0,0,0,0,0,0,0,-1,1539,1527,0,0
322,-503,0,0,0,0,0,0,0,0,0,-1,1546,1527,0,0
329,-503,0,0,0,0,0,0,0,0,0,-1,1553,1527,0,0
336,-503,0,0,0,0,0,0,0,0,0,-1,1560,1527,0,0
343,-503,0,0,0,0,0,0,0,0,0,-1,1567,1527,0,0
350,-503,0,0,0,0,0,0,0,0,0,-1,1574,1527,0,0
357,-503,0,0,0,0,0,0,0,0,0,-1,1581,1527,0,0
364,-503,0,0,0,0,0,0,0,0,0,-1,1588,1527,0,0
371,-503,0,0,0,0,0,0,0,0,0,-1,1595,1527,0,0
378,-503,0,0,0,0,0,0,0,0,0,-1,1602,1527,0,0
385,-503,0,0,0,0,0,0,0,0,0,-1,1609,1527,0,0
392,-503,0,0,0,0,0,0,0,0,0,-1,1616,1527,0,0
399,-503,0,0,0,0,0,0,0,0,0,-1,1623,1527,0,0
406,-503,0,0,0,0,0,0,0,0,0,-1,1630,1527,0,0
413,-503,0,0,0,0,0,0,0,0,0,-1,1637,1527,0,0
420,-503,0,0,0,0,0,0,0,0,0,-1,1644,1527,0,0
427,-503,10.5968,4.9856,0,0,0,0,0,0,0,-1,1651,1527,10.5969,-4.98563
434,-503,11.4329,3.97217,0,0,0,0,0,0,0,-1,1658,1527,11.4328,-3.97222
441,-503,12.0957,2.96509,0,0,0,0,0,0,0,-1,1665,1527,12.0957,-2.96512
448,-503,12.3259,2.53894,0,0,0,0,0,0,0,-1,1672,1527,12.326,-2.53895
455,-503,12.1669,2.18762,0,0,0,0,0,0,0,-1,1679,1527,12.1668,-2.18767
462,-503,11.59,2.60791,0,0,0,0,0,0,0,-1,1686,1527,11.5899,-2.60794
469,-503,11.1625,1.61853,0,0,0,0,0,0,0,-1,1693,1527,11.1625,-1.61856
476,-503,9.07703,5.81042,0,0,0,0,0,0,0,-1,1700,1527,9.07699,-5.81047
483,-503,9.74414,6.92432,0,0,0,0,0,0,0,-1,1707,1527,9.74417,-6.9243
490,-503,10.5033,10.1071,0,0,0,0,0,0,0,-1,1714,1527,10.5032,-10.107
497,-503,13.2313,12.5819,0,0,0,0,0,0,0,-1,1721,1527,13.2314,-12.5819
504,-503,12.8124,12.2738,-0.056391,-0.0203666,0.0416963,0.00704174,-0.0837993,0.989284,0.0583552,0.0439171,1728,1527,12.8124,-12.2738
511,-503,12.3582,12.0081,-0.0451848,-0.0171267,0.0333152,0.00499279,-0.0673043,0.98468,0.046623,0.0451752,1735,1527,12.3582,-12.0081
518,-503,11.7803,12.0012,0,0,0,0,0,0,0,-1,1742,1527,11.7802,-12.0012
525,-503,10.9896,11.6488,-0.0271126,-0.0115622,0.019893,0.00202109,-0.0406959,0.971696,0.0278287,0.0365221,1749,1527,10.9897,-11.6488
532,-503,10.9464,11.6,-0.0203311,-0.00939231,0.0149507,0.00105806,-0.0307815,0.960751,0.0208826,0.0135994,1756,1527,10.9465,-11.6
539,-503,10.9379,11.385,-0.0148844,-0.00745855,0.0110267,0.000463514,-0.0228065,0.947798,0.0153612,0.0122186,1763,1527,10.9378,-11.385
546,-503,10.9138,11.1288,-0.0103694,-0.00533181,0.00763001,0.000184419,-0.0158856,0.944823,0.0106524,0.011408,1770,1527,10.9138,-11.1288
553,-503,10.9348,10.8982,-0.00653747,-0.00408784,0.00488775,-0.000273779,-0.0103515,0.908165,0.00681159,0.0130981,1777,1527,10.9348,-10.8982
560,-503,10.9335,10.652,-0.00341297,-0.00274495,0.00279585,-0.000263225,-0.00589469,0.844849,0.00384506,0.0130142,1784,1527,10.9335,-10.6519
567,-503,10.9266,10.3916,-0.00106567,-0.00163007,0.00130864,-9.14955e-06,-0.00268659,0.679202,0.00178802,0.0120851,1791,1527,10.9266,-10.3916
574,-503,10.9512,10.1404,0.00072703,-0.000642331,0.000282833,0.000783147,-0.000698449,0.195869,0.000855865,0.0123148,1798,1527,10.9512,-10.1404
581,-503,10.9248,9.91492,0.00266278,0.000368825,-0.00063761,0.00282809,0.000203513,-0.253682,0.00182135,0.0132325,1805,1527,10.9248,-9.91489
588,-503,10.9058,9.68225,0.00456052,0.000992042,-0.00144271,0.00507082,0.000481741,-0.339977,0.00323196,0.0165202,1812,1527,10.9057,-9.68224
595,-503,10.9221,9.41687,0.00656656,0.00147877,-0.00203794,0.0072822,0.000763131,-0.337709,0.00462147,0.0132651,1819,1527,10.9222,-9.41683
602,-503,10.941,9.15039,0.00891424,0.00179804,-0.00256126,0.00974022,0.000972066,-0.311959,0.00619493,0.0142217,1826,1527,10.941,-9.15033
609,-503,10.9729,8.86011,0.0117345,0.00195043,-0.00297653,0.0125689,0.00111606,-0.273303,0.00803311,0.0186074,1833,1527,10.9729,-8.86013
616,-503,10.9209,8.72461,0.0153657,0.00226582,-0.00343424,0.0162115,0.00142011,-0.241455,0.0103667,0.0200004,1840,1527,10.9209,-8.72456
623,-503,11.0037,8.4552,0.0200586,0.00261612,-0.00381935,0.0208583,0.00181646,-0.206388,0.0133413,0.0359233,1847,1527,11.0036,-8.45525
630,-503,11.7002,8.19385,0.0257369,0.00317883,-0.00413998,0.0264727,0.00244304,-0.175892,0.0168931,0.0450064,1854,1527,11.7001,-8.19387
637,-503,12.5052,8.15442,0,0,0,0,0,0,0,-1,1861,1527,12.5053,-8.15441
644,-503,13.0242,8.18542,0,0,0,0,0,0,0,-1,1868,1527,13.0242,-8.18538
651,-503,11.5718,6.5448,0,0,0,0,0,0,0,-1,1875,1527,11.5718,-6.54476
658,-503,8.25635,3.10498,0,0,0,0,0,0,0,-1,1882,1527,8.2563,-3.10493
665,-503,0,0,0,0,0,0,0,0,0,-1,1889,1527,0,0
672,-503,0,0,0,0,0,0,0,0,0,-1,1896,1527,0,0
679,-503,0,0,0,0,0,0,0,0,0,-1,1903,1527,0,0
686,-503,0,0,0,0,0,0,0,0,0,-1,1910,1527,0,0
693,-503,0,0,0,0,0,0,0,0,0,-1,1917,1527,0,0
700,-503,0,0,0,0,0,0,0,0,0,-1,1924,1527,0,0
707,-503,0,0,0,0,0,0,0,0,0,-1,1931,1527,0,0
714,-503,0,0,0,0,0,0,0,0,0,-1,1938,1527,0,0
721,-503,0,0,0,0,0,0,0,0,0,-1,1945,1527,0,0
728,-503,0,0,0,0,0,0,0,0,0,-1,1952,1527,0,0
735,-503,0,0,0,0,0,0,0,0,0,-1,1959,1527,0,0
742,-503,0,0,0,0,0,0,0,0,0,-1,1966,1527,0,0
749,-503,0,0,0,0,0,0,0,0,0,-1,1973,1527,0,0
756,-503,0,0,0,0,0,0,0,0,0,-1,1980,1527,0,0
763,-503,0,0,0,0,0,0,0,0,0,-1,1987,1527,0,0
770,-503,0,0,0,0,0,0,0,0,0,-1,1994,1527,0,0
777,-503,0,0,0,0,0,0,0,0,0,-1,2001,1527,0,0
784,-503,0,0,0,0,0,0,0,0,0,-1,2008,1527,0,0
791,-503,0,0,0,0,0,0,0,0,0,-1,2015,1527,0,0
798,-503,0,0,0,0,0,0,0,0,0,-1,2022,1527,0,0
805,-503,0,0,0,0,0,0,0,0,0,-1,2029,1527,0,0
812,-503,0,0,0,0,0,0,0,0,0,-1,2036,1527,0,0
-700,-510,0,0,0,0,0,0,0,0,0,-1,524,1534,0,0
-693,-510,0,0,0,0,0,0,0,0,0,-1,531,1534,0,0
-686,-510,0,0,0,0,0,0,0,0,0,-1,538,1534,0,0
-679,-510,0,0,0,0,0,0,0,0,0,-1,545,1534,0,0
-672,-510,0,0,0,0,0,0,0,0,0,-1,552,1534,0,0
-665,-510,0,0,0,0,0,0,0,0,0,-1,559,1534,0,0
-658,-510,0,0,0,0,0,0,0,0,0,-1,566,1534,0,0
-651,-510,0,0,0,0,0,0,0,0,0,-1,573,1534,0,0
-644,-510,0,0,0,0,0,0,0,0,0,-1,580,1534,0,0
-637,-510,0,0,0,0,0,0,0,0,0,-1,587,1534,0,0
-630,-510,0,0,0,0,0,0,0,0,0,-1,594,1534,0,0
-623,-510,0,0,0,0,0,0,0,0,0,-1,601,1534,0,0
-616,-510,0,0,0,0,0,0,0,0,0,-1,608,1534,0,0
-609,-510,0,0,0,0,0,0,0,0,0,-1,615,1534,0,0
-602,-510,0,0,0,0,0,0,0,0,0,-1,622,1534,0,0
-595,-510,0,0,0,0,0,0,0,0,0,-1,629,1534,0,0
-588,-510,0,0,0,0,0,0,0,0,0,-1,636,1534,0,0
-581,-510,0,0,0,0,0,0,0,0,0,-1,643,1534,0,0
-574,-510,0,0,0,0,0,0,0,0,0,-1,650,1534,0,0
-567,-510,0,0,0,0,0,0,0,0,0,-1,657,1534,0,0
-560,-510,0,0,0,0,0,0,0,0,0,-1,664,1534,0,0
-553,-510,0,0,0,0,0,0,0,0,0,-1,671,1534,0,0
-546,-510,0,0,0,0,0,0,0,0,0,-1,678,1534,0,0
-539,-510,0,0,0,0,0,0,0,0,0,-1,685,1534,0,0
-532,-510,2.29291,4.35352,0,0,0,0,0,0,0,-1,692,1534,2.29289,-4.35348
-525,-510,-2.76245,5.60095,0,0,0,0,0,0,0,-1,699,1534,-2.76244,-5.60094
-518,-510,-2.302,5.00061,0,0,0,0,0,0,0,-1,706,1534,-2.30202,-5.00055
-511,-510,-1.84161,4.40015,0,0,0,0,0,0,0,-1,713,1534,-1.8416,-4.40017
-504,-510,-0.332153,3.54688,0,0,0,0,0,0,0,-1,720,1534,-0.332171,-3.54682
-497,-510,-0.728149,7.08826,0,0,0,0,0,0,0,-1,727,1534,-0.728155,-7.08831
-490,-510,-0.914673,7.2865,0,0,0,0,0,0,0,-1,734,1534,-0.914654,-7.28652
-483,-510,-1.10114,7.48474,0,0,0,0,0,0,0,-1,741,1534,-1.10115,-7.48474
-476,-510,-1.11713,7.26172,-0.000556878,0.0149283,0.00421993,0.0160036,-0.0016322,1.32129,0.0112527,0.0286603,748,1534,-1.11716,-7.26173
-469,-510,-1.2392,7.54236,-0.000655443,0.0101652,0.00284103,0.0108658,-0.00135601,1.32903,0.00773557,0.0114769,755,1534,-1.23922,-7.5423
-462,-510,-1.25031,7.85034,-0.000506357,0.00659612,0.0018921,0.00706873,-0.000978963,1.32603,0.00507041,0.0109355,762,1534,-1.25032,-7.85036
-455,-510,-1.25165,8.14697,7.20827e-05,0.00416681,0.00131355,0.00455196,-0.000313063,1.28558,0.00314419,0.0132433,769,1534,-1.25165,-8.14696
-448,-510,-1.23425,8.40808,0.000727479,0.00258109,0.00106613,0.00306694,0.000241626,1.1432,0.00196903,0.0127683,776,1534,-1.23425,-8.40806
-441,-510,-1.25085,8.65344,0.00152183,0.00143086,0.000897756,0.00237525,0.000577435,0.760088,0.00143041,0.0134162,783,1534,-1.25085,-8.65343
-434,-510,-1.28918,8.91479,0.00237791,0.000343331,0.000725909,0.00261035,0.000110892,0.309888,0.00170447,0.0142019,790,1534,-1.28918,-8.91483
-427,-510,-1.30597,9.15503,0.00312868,-0.00064736,0.000409052,0.00317248,-0.000691164,0.106679,0.00237908,0.0205032,797,1534,-1.30598,-9.15504
-420,-510,-1.28125,9.44092,0.00387322,-0.00145443,2.08088e-05,0.0038733,-0.00145452,0.00390574,0.00317993,0.0199503,804,1534,-1.28127,-9.44088
-413,-510,-1.26019,9.73438,0.00454446,-0.00267779,-0.00048208,0.00457649,-0.00270983,-0.066357,0.00425253,0.0110749,811,1534,-1.26021,-9.73444
-406,-510,-1.2702,9.99707,0.00514234,-0.0042779,-0.0011695,0.00528536,-0.00442092,-0.121687,0.00561133,0.0107677,818,1534,-1.27023,-9.9971
-399,-510,-1.27612,10.2477,0.00579097,-0.00621977,-0.0020837,0.00614219,-0.00657099,-0.166987,0.00734135,0.0123214,825,1534,-1.27611,-10.2477
-392,-510,-1.16431,10.6111,0.00624042,-0.00854613,-0.00342617,0.00699571,-0.00930142,-0.216978,0.00944049,0.0258851,832,1534,-1.16432,-10.6111
-385,-510,-1.1767,10.8834,0.00647318,-0.0110449,-0.005074,0.0078367,-0.0124084,-0.262525,0.0117874,0.0425658,839,1534,-1.17672,-10.8835
-378,-510,-1.19312,10.5902,0.00646967,-0.0144886,-0.00717789,0.00869229,-0.0167112,-0.300284,0.0149083,0.0434555,846,1534,-1.19314,-10.5902
-371,-510,-1.16174,10.6372,0.00618487,-0.0184664,-0.00987597,0.00965341,-0.0219349,-0.337753,0.0186914,0.0469839,853,1534,-1.16174,-10.6372
-364,-510,-1.30945,10.5985,0,0,0,0,0,0,0,-1,860,1534,-1.30943,-10.5985
-357,-510,-0.254395,8.89575,0,0,0,0,0,0,0,-1,867,1534,-0.254397,-8.89569
-350,-510,0.471191,6.06458,0,0,0,0,0,0,0,-1,874,1534,0.47118,-6.06453
-343,-510,-2.94617,5.00989,0,0,0,0,0,0,0,-1,881,1534,-2.94615,-5.00992
-336,-510,-1.92963,11.3776,0,0,0,0,0,0,0,-1,888,1534,-1.92962,-11.3775
-329,-510,-1.09058,11.6753,0,0,0,0,0,0,0,-1,895,1534,-1.09056,-11.6753
-322,-510,-0.251526,11.973,0,0,0,0,0,0,0,-1,902,1534,-0.251497,-11.9731
-315,-510,-1.73047,10.9796,0,0,0,0,0,0,0,-1,909,1534,-1.73049,-10.9796
-308,-510,-2.05328,9.72034,0,0,0,0,0,0,0,-1,916,1534,-2.05327,-9.72036
-301,-510,-2.11639,10.0634,0,0,0,0,0,0,0,-1,923,1534,-2.11637,-10.0633
-294,-510,0,0,0,0,0,0,0,0,0,-1,930,1534,0,0
-287,-510,0,0,0,0,0,0,0,0,0,-1,937,1534,0,0
-280,-510,0,0,0,0,0,0,0,0,0,-1,944,1534,0,0
-273,-510,0,0,0,0,0,0,0,0,0,-1,951,1534,0,0
-266,-510,0,0,0,0,0,0,0,0,0,-1,958,1534,0,0
-259,-510,0,0,0,0,0,0,0,0,0,-1,965,1534,0,0
-252,-510,0,0,0,0,0,0,0,0,0,-1,972,1534,0,0
-245,-510,0,0,0,0,0,0,0,0,0,-1,979,1534,0,0
-238,-510,0,0,0,0,0,0,0,0,0,-1,986,1534,0,0
-231,-510,0,0,0,0,0,0,0,0,0,-1,993,1534,0,0
-224,-510,0,0,0,0,0,0,0,0,0,-1,1000,1534,0,0
-217,-510,0,0,0,0,0,0,0,0,0,-1,1007,1534,0,0
-210,-510,0,0,0,0,0,0,0,0,0,-1,1014,1534,0,0
-203,-510,0,0,0,0,0,0,0,0,0,-1,1021,1534,0,0
-196,-510,0,0,0,0,0,0,0,0,0,-1,1028,1534,0,0
-189,-510,0,0,0,0,0,0,0,0,0,-1,1035,1534,0,0
-182,-510,0,0,0,0,0,0,0,0,0,-1,1042,1534,0,0
-175,-510,0,0,0,0,0,0,0,0,0,-1,1049,1534,0,0
-168,-510,0,0,0,0,0,0,0,0,0,-1,1056,1534,0,0
-161,-510,0,0,0,0,0,0,0,0,0,-1,1063,1534,0,0
-154,-510,0,0,0,0,0,0,0,0,0,-1,1070,1534,0,0
-147,-510,0,0,0,0,0,0,0,0,0,-1,1077,1534,0,0
-140,-510,0,0,0,0,0,0,0,0,0,-1,1084,1534,0,0
-133,-510,0,0,0,0,0,0,0,0,0,-1,1091,1534,0,0
-126,-510,0,0,0,0,0,0,0,0,0,-1,1098,1534,0,0
-119,-510,0,0,0,0,0,0,0,0,0,-1,1105,1534,0,0
-112,-510,0,0,0,0,0,0,0,0,0,-1,1112,1534,0,0
-105,-510,0,0,0,0,0,0,0,0,0,-1,1119,1534,0,0
-98,-510,0,0,0,0,0,0,0,0,0,-1,1126,1534,0,0
-91,-510,0,0,0,0,0,0,0,0,0,-1,1133,1534,0,0
-84,-510,0,0,0,0,0,0,0,0,0,-1,1140,1534,0,0
-77,-510,0,0,0,0,0,0,0,0,0,-1,1147,1534,0,0
-70,-510,0,0,0,0,0,0,0,0,0,-1,1154,1534,0,0
-63,-510,0,0,0,0,0,0,0,0,0,-1,1161,1534,0,0
-56,-510,0,0,0,0,0,0,0,0,0,-1,1168,1534,0,0
-49,-510,0,0,0,0,0,0,0,0,0,-1,1175,1534,0,0
-42,-510,0,0,0,0,0,0,0,0,0,-1,1182,1534,0,0
-35,-510,0,0,0,0,0,0,0,0,0,-1,1189,1534,0,0
-28,-510,0,0,0,0,0,0,0,0,0,-1,1196,1534,0,0
-21,-510,0,0,0,0,0,0,0,0,0,-1,1203,1534,0,0
-14,-510,0,0,0,0,0,0,0,0,0,-1,1210,1534,0,0
-7,-510,0,0,0,0,0,0,0,0,0,-1,1217,1534,0,0
0,-510,0,0,0,0,0,0,0,0,0,-1,1224,1534,0,0
7,-510,0,0,0,0,0,0,0,0,0,-1,1231,1534,0,0
14,-510,0,0,0,0,0,0,0,0,0,-1,1238,1534,0,0
21,-510,0,0,0,0,0,0,0,0,0,-1,1245,1534,0,0
28,-510,0,0,0,0,0,0,0,0,0,-1,1252,1534,0,0
35,-510,0,0,0,0,0,0,0,0,0,-1,1259,1534,0,0
42,-510,0,0,0,0,0,0,0,0,0,-1,1266,1534,0,0
49,-510,0,0,0,0,0,0,0,0,0,-1,1273,1534,0,0
56,-510,0,0,0,0,0,0,0,0,0,-1,1280,1534,0,0
63,-510,0,0,0,0,0,0,0,0,0,-1,1287,1534,0,0
70,-510,0,0,0,0,0,0,0,0,0,-1,1294,1534,0,0
77,-510,0,0,0,0,0,0,0,0,0,-1,1301,1534,0,0
84,-510,0,0,0,0,0,0,0,0,0,-1,1308,1534,0,0
91,-510,0,0,0,0,0,0,0,0,0,-1,1315,1534,0,0
98,-510,0,0,0,0,0,0,0,0,0,-1,1322,1534,0,0
105,-510,0,0,0,0,0,0,0,0,0,-1,1329,1534,0,0
112,-510,0,0,0,0,0,0,0,0,0,-1,1336,1534,0,0
119,-510,0,0,0,0,0,0,0,0,0,-1,1343,1534,0,0
126,-510,0,0,0,0,0,0,0,0,0,-1,1350,1534,0,0
133,-510,0,0,0,0,0,0,0,0,0,-1,1357,1534,0,0
140,-510,0,0,0,0,0,0,0,0,0,-1,1364,1534,0,0
147,-510,0,0,0,0,0,0,0,0,0,-1,1371,1534,0,0
154,-510,0,0,0,0,0,0,0,0,0,-1,1378,1534,0,0
161,-510,0,0,0,0,0,0,0,0,0,-1,1385,1534,0,0
168,-510,0,0,0,0,0,0,0,0,0,-1,1392,1534,0,0
175,-510,0,0,0,0,0,0,0,0,0,-1,1399,1534,0,0
182,-510,0,0,0,0,0,0,0,0,0,-1,1406,1534,0,0
189,-510,0,0,0,0,0,0,0,0,0,-1,1413,1534,0,0
196,-510,0,0,0,0,0,0,0,0,0,-1,1420,1534,0,0
203,-510,0,0,0,0,0,0,0,0,0,-1,1427,1534,0,0
210,-510,0,0,0,0,0,0,0,0,0,-1,1434,1534,0,0
217,-510,0,0,0,0,0,0,0,0,0,-1,1441,1534,0,0
224,-510,0,0,0,0,0,0,0,0,0,-1,1448,1534,0,0
231,-510,0,0,0,0,0,0,0,0,0,-1,1455,1534,0,0
238,-510,0,0,0,0,0,0,0,0,0,-1,1462,1534,0,0
245,-510,0,0,0,0,0,0,0,0,0,-1,1469,1534,0,0
252,-510,0,0,0,0,0,0,0,0,0,-1,1476,1534,0,0
259,-510,0,0,0,0,0,0,0,0,0,-1,1483,1534,0,0
266,-510,0,0,0,0,0,0,0,0,0,-1,1490,1534,0,0
273,-510,0,0,0,0,0,0,0,0,0,-1,1497,1534,0,0
280,-510,0,0,0,0,0,0,0,0,0,-1,1504,1534,0,0
287,-510,0,0,0,0,0,0,0,0,0,-1,1511,1534,0,0
294,-510,0,0,0,0,0,0,0,0,0,-1,1518,1534,0,0
301,-510,0,0,0,0,0,0,0,0,0,-1,1525,1534,0,0
308,-510,0,0,0,0,0,0,0,0,0,-1,1532,1534,0,0
315,-510,0,0,0,0,0,0,0,0,0,-1,1539,1534,0,0
322,-510,0,0,0,0,0,0,0,0,0,-1,1546,1534,0,0
329,-510,0,0,0,0,0,0,0,0,0,-1,1553,1534,0,0
336,-510,0,0,0,0,0,0,0,0,0,-1,1560,1534,0,0
343,-510,0,0,0,0,0,0,0,0,0,-1,1567,1534,0,0
350,-510,0,0,0,0,0,0,0,0,0,-1,1574,1534,0,0
357,-510,0,0,0,0,0,0,0,0,0,-1,1581,1534,0,0
364,-510,0,0,0,0,0,0,0,0,0,-1,1588,1534,0,0
371,-510,0,0,0,0,0,0,0,0,0,-1,1595,1534,0,0
378,-510,0,0,0,0,0,0,0,0,0,-1,1602,1534,0,0
385,-510,0,0,0,0,0,0,0,0,0,-1,1609,1534,0,0
392,-510,0,0,0,0,0,0,0,0,0,-1,1616,1534,0,0
399,-510,0,0,0,0,0,0,0,0,0,-1,1623,1534,0,0
406,-510,0,0,0,0,0,0,0,0,0,-1,1630,1534,0,0
413,-510,0,0,0,0,0,0,0,0,0,-1,1637,1534,0,0
420,-510,13.1918,5.99402,0,0,0,0,0,0,0,-1,1644,1534,13.1917,-5.994
427,-510,10.9799,5.12341,0,0,0,0,0,0,0,-1,1651,1534,10.9798,-5.12337
434,-510,11.8219,4.07898,0,0,0,0,0,0,0,-1,1658,1534,11.8219,-4.07895
441,-510,12.6812,3.02991,0,0,0,0,0,0,0,-1,1665,1534,12.6811,-3.0299
448,-510,13.2379,2.2804,0,0,0,0,0,0,0,-1,1672,1534,13.2379,-2.28037
455,-510,9.76892,2.20642,0,0,0,0,0,0,0,-1,1679,1534,9.76894,-2.20647
462,-510,9.84692,2.49182,0,0,0,0,0,0,0,-1,1686,1534,9.84695,-2.49185
469,-510,16.6072,7.26941,0,0,0,0,0,0,0,-1,1693,1534,16.6072,-7.26945
476,-510,15.9199,7.8645,0,0,0,0,0,0,0,-1,1700,1534,15.9199,-7.86455
483,-510,9.9469,7.28748,0,0,0,0,0,0,0,-1,1707,1534,9.94686,-7.28747
490,-510,13.035,12.5265,0,0,0,0,0,0,0,-1,1714,1534,13.035,-12.5265
497,-510,12.6445,12.464,-0.055848,-0.0225834,0.0443275,0.00812938,-0.0865608,0.964877,0.060599,0.0442158,1721,1534,12.6446,-12.4639
504,-510,12.0082,12.2203,-0.0456757,-0.0183596,0.035879,0.00637308,-0.0704083,0.967264,0.049201,0.0420101,1728,1534,12.0082,-12.2204
511,-510,11.5835,12.125,-0.0365767,-0.0149262,0.0285323,0.00476539,-0.0562682,0.966711,0.0391973,0.0421745,1735,1534,11.5835,-12.125
518,-510,10.9547,11.9613,-0.0286419,-0.0120528,0.0222665,0.00341392,-0.0441085,0.963692,0.0306072,0.0375526,1742,1534,10.9547,-11.9614
525,-510,10.7091,11.8629,-0.0219037,-0.00942835,0.0169241,0.00237095,-0.033703,0.961958,0.0232992,0.0207486,1749,1534,10.7091,-11.863
532,-510,10.7115,11.6276,-0.0163082,-0.00744738,0.0126405,0.0015166,-0.0252722,0.953956,0.0173757,0.0124665,1756,1534,10.7115,-11.6275
539,-510,10.703,11.3705,-0.0117336,-0.00571957,0.00919259,0.000945316,-0.0183985,0.94347,0.0125926,0.0129714,1763,1534,10.703,-11.3705
546,-510,10.6764,11.1356,-0.00785462,-0.00379184,0.00615353,0.000656934,-0.0123034,0.944825,0.00842978,0.0124571,1770,1534,10.6764,-11.1356
553,-510,10.6771,10.8925,-0.00450519,-0.00269021,0.00369791,0.000209934,-0.00740534,0.905723,0.00500834,0.0130154,1777,1534,10.6771,-10.8924
560,-510,10.6682,10.6312,-0.00171775,-0.00148824,0.00181538,0.000216006,-0.00342199,0.816962,0.00235663,0.0127124,1784,1534,10.6682,-10.6313
567,-510,10.6687,10.3816,0.000385969,-0.000542632,0.000485377,0.000593358,-0.000750021,0.403794,0.000777356,0.0122693,1791,1534,10.6687,-10.3816
574,-510,10.6825,10.1411,0.00212848,0.000327594,-0.000488101,0.00225226,0.00020381,-0.248367,0.00143839,0.0134336,1798,1534,10.6824,-10.1411
581,-510,10.6576,9.93237,0.00417144,0.00123326,-0.00139312,0.00472695,0.000677743,-0.379432,0.00295144,0.0113898,1805,1534,10.6575,-9.93232
588,-510,10.6461,9.69653,0.00618372,0.00184464,-0.00221913,0.00711764,0.000910723,-0.398348,0.00447253,0.0122692,1812,1534,10.6461,-9.69656
595,-510,10.7336,9.37927,0.00852231,0.00233455,-0.00295328,0.00970557,0.00115129,-0.381076,0.0061228,0.0136981,1819,1534,10.7337,-9.37928
602,-510,10.6877,9.07825,0.0114574,0.00274152,-0.00367072,0.0127973,0.00140158,-0.350005,0.00810487,0.0250505,1826,1534,10.6877,-9.07822
609,-510,10.6311,8.94568,0.0151338,0.00302631,-0.00431504,0.0165143,0.00164585,-0.309629,0.010504,0.0329956,1833,1534,10.6311,-8.94565
616,-510,10.769,8.88782,0.0200244,0.00339128,-0.00506478,0.0214453,0.00197043,-0.273505,0.0136874,0.0439838,1840,1534,10.769,-8.88782
623,-510,10.744,8.7251,0,0,0,0,0,0,0,-1,1847,1534,10.7441,-8.72515
630,-510,11.7166,7.93933,0,0,0,0,0,0,0,-1,1854,1534,11.7165,-7.93932
637,-510,12.7146,7.86682,0,0,0,0,0,0,0,-1,1861,1534,12.7146,-7.86683
644,-510,11.5809,7.17126,0,0,0,0,0,0,0,-1,1868,1534,11.5809,-7.17123
651,-510,8.70471,3.5061,0,0,0,0,0,0,0,-1,1875,1534,8.70475,-3.50611
658,-510,0,0,0,0,0,0,0,0,0,-1,1882,1534,0,0
665,-510,0,0,0,0,0,0,0,0,0,-1,1889,1534,0,0
672,-510,0,0,0,0,0,0,0,0,0,-1,1896,1534,0,0
679,-510,0,0,0,0,0,0,0,0,0,-1,1903,1534,0,0
686,-510,0,0,0,0,0,0,0,0,0,-1,1910,1534,0,0
693,-510,0,0,0,0,0,0,0,0,0,-1,1917,1534,0,0
700,-510,0,0,0,0,0,0,0,0,0,-1,1924,1534,0,0
707,-510,0,0,0,0,0,0,0,0,0,-1,1931,1534,0,0
714,-510,0,0,0,0,0,0,0,0,0,-1,1938,1534,0,0
721,-510,0,0,0,0,0,0,0,0,0,-1,1945,1534,0,0
728,-510,0,0,0,0,0,0,0,0,0,-1,1952,1534,0,0
735,-510,0,0,0,0,0,0,0,0,0,-1,1959,1534,0,0
742,-510,0,0,0,0,0,0,0,0,0,-1,1966,1534,0,0
749,-510,0,0,0,0,0,0,0,0,0,-1,1973,1534,0,0
756,-510,0,0,0,0,0,0,0,0,0,-1,1980,1534,0,0
763,-510,0,0,0,0,0,0,0,0,0,-1,1987,1534,0,0
770,-510,0,0,0,0,0,0,0,0,0,-1,1994,1534,0,0
777,-510,0,0,0,0,0,0,0,0,0,-1,2001,1534,0,0
784,-510,0,0,0,0,0,0,0,0,0,-1,2008,1534,0,0
791,-510,0,0,0,0,0,0,0,0,0,-1,2015,1534,0,0
798,-510,0,0,0,0,0,0,0,0,0,-1,2022,1534,0,0
805,-510,0,0,0,0,0,0,0,0,0,-1,2029,1534,0,0
812,-510,0,0,0,0,0,0,0,0,0,-1,2036,1534,0,0
-700,-517,0,0,0,0,0,0,0,0,0,-1,524,1541,0,0
-693,-517,0,0,0,0,0,0,0,0,0,-1,531,1541,0,0
-686,-517,0,0,0,0,0,0,0,0,0,-1,538,1541,0,0
-679,-517,0,0,0,0,0,0,0,0,0,-1,545,1541,0,0
-672,-517,0,0,0,0,0,0,0,0,0,-1,552,1541,0,0
-665,-517,0,0,0,0,0,0,0,0,0,-1,559,1541,0,0
-658,-517,0,0,0,0,0,0,0,0,0,-1,566,1541,0,0
-651,-517,0,0,0,0,0,0,0,0,0,-1,573,1541,0,0
-644,-517,0,0,0,0,0,0,0,0,0,-1,580,1541,0,0
-637,-517,0,0,0,0,0,0,0,0,0,-1,587,1541,0,0
-630,-517,0,0,0,0,0,0,0,0,0,-1,594,1541,0,0
-623,-517,0,0,0,0,0,0,0,0,0,-1,601,1541,0,0
-616,-517,0,0,0,0,0,0,0,0,0,-1,608,1541,0,0
-609,-517,0,0,0,0,0,0,0,0,0,-1,615,1541,0,0
-602,-517,0,0,0,0,0,0,0,0,0,-1,622,1541,0,0
-595,-517,0,0,0,0,0,0,0,0,0,-1,629,1541,0,0
-588,-517,0,0,0,0,0,0,0,0,0,-1,636,1541,0,0
-581,-517,0,0,0,0,0,0,0,0,0,-1,643,1541,0,0
-574,-517,0,0,0,0,0,0,0,0,0,-1,650,1541,0,0
-567,-517,0,0,0,0,0,0,0,0,0,-1,657,1541,0,0
-560,-517,0,0,0,0,0,0,0,0,0,-1,664,1541,0,0
-553,-517,0,0,0,0,0,0,0,0,0,-1,671,1541,0,0
-546,-517,0,0,0,0,0,0,0,0,0,-1,678,1541,0,0
-539,-517,0,0,0,0,0,0,0,0,0,-1,685,1541,0,0
-532,-517,0,0,0,0,0,0,0,0,0,-1,692,1541,0,0
-525,-517,0.467896,4.35828,0,0,0,0,0,0,0,-1,699,1541,0.467905,-4.35823
-518,-517,-2.71826,4.89087,0,0,0,0,0,0,0,-1,706,1541,-2.71826,-4.89084
-511,-517,-2.72321,2.45251,0,0,0,0,0,0,0,-1,713,1541,-2.72323,-2.45249
-504,-517,-0.883362,4.79858,0,0,0,0,0,0,0,-1,720,1541,-0.88337,-4.79854
-497,-517,-0.874878,6.28528,0,0,0,0,0,0,0,-1,727,1541,-0.874879,-6.28524
-490,-517,-0.598267,7.48755,0,0,0,0,0,0,0,-1,734,1541,-0.598246,-7.48759
-483,-517,-0.662903,7.26318,-0.00065782,0.0282171,0.0076961,0.0301403,-0.00258099,1.32592,0.0210068,0.0416923,741,1541,-0.662891,-7.26316
-476,-517,-0.777344,7.25818,-0.000536821,0.0197117,0.00566111,0.0211869,-0.00201208,1.31587,0.0148409,0.0354884,748,1541,-0.777331,-7.25816
-469,-517,-0.908752,7.53845,-0.000468697,0.0134675,0.00405071,0.0145593,-0.00156054,1.30751,0.010266,0.0152726,755,1541,-0.908762,-7.53848
-462,-517,-0.983826,7.84241,-0.000276777,0.00896292,0.00293218,0.00981488,-0.00112874,1.28803,0.00695012,0.0146713,762,1541,-0.983848,-7.84246
-455,-517,-0.979309,8.14856,0.000220416,0.00588479,0.00215126,0.00660918,-0.000503969,1.246,0.00458335,0.0129469,769,1541,-0.9793,-8.1486
-448,-517,-0.974609,8.40479,0.000683401,0.0038348,0.00169737,0.00457511,-5.69052e-05,1.15952,0.00306922,0.0125479,776,1541,-0.974581,-8.4048
-441,-517,-0.996338,8.6593,0.00122868,0.00239105,0.00135867,0.00328762,0.000332108,0.987503,0.00208986,0.0111448,783,1541,-0.996341,-8.65928
-434,-517,-0.996155,8.92029,0.00188553,0.000981916,0.00108551,0.00260951,0.00025794,0.588194,0.00166038,0.0135292,790,1541,-0.996168,-8.92029
-427,-517,-0.989319,9.17957,0.00243799,-9.84111e-05,0.000695762,0.00261631,-0.000276729,0.250892,0.00184339,0.0133306,797,1541,-0.989329,-9.17953
-420,-517,-1.00671,9.46338,0.00297491,-0.000772787,0.000265442,0.00299361,-0.000791494,0.07036,0.00230532,0.0189358,804,1541,-1.00669,-9.46332
-413,-517,-0.999451,9.74048,0.00339941,-0.00175146,-0.000240184,0.00341058,-0.00176264,-0.0464953,0.00303685,0.0105242,811,1541,-0.999421,-9.74045
-406,-517,-1.0061,9.99939,0.00375096,-0.00311335,-0.000872521,0.00386013,-0.00322252,-0.124473,0.00409469,0.0114138,818,1541,-1.00607,-9.99941
-399,-517,-0.998474,10.2697,0.0041501,-0.00473579,-0.00167572,0.00445561,-0.0050413,-0.180333,0.00548652,0.0106459,825,1541,-0.998465,-10.2697
-392,-517,-0.980164,10.5417,0.00442927,-0.00660128,-0.00281299,0.00510521,-0.00727722,-0.235822,0.00718557,0.0122012,832,1541,-0.980186,-10.5418
-385,-517,-0.917297,10.946,0.00456928,-0.00849822,-0.00416674,0.00578482,-0.00971377,-0.283849,0.00904345,0.0203874,839,1541,-0.917286,-10.946
-378,-517,-0.981323,11.0413,0.00449781,-0.0110148,-0.00579284,0.00642228,-0.0129392,-0.320743,0.0113875,0.0418064,846,1541,-0.981323,-11.0412
-371,-517,-0.938477,10.8076,0.00416526,-0.0138239,-0.00780297,0.00707819,-0.0167368,-0.357288,0.0141215,0.0476996,853,1541,-0.938456,-10.8076
-364,-517,-0.856384,10.9005,0.00323922,-0.0164841,-0.00995881,0.00739291,-0.0206378,-0.39515,0.016775,0.0457238,860,1541,-0.856385,-10.9005
-357,-517,-0.552185,10.8964,0,0,0,0,0,0,0,-1,867,1541,-0.552171,-10.8963
-350,-517,0.722412,10.0829,0,0,0,0,0,0,0,-1,874,1541,0.722399,-10.0828
-343,-517,-2.56708,6.12415,0,0,0,0,0,0,0,-1,881,1541,-2.56708,-6.12418
-336,-517,-1.58478,11.4652,0,0,0,0,0,0,0,-1,888,1541,-1.58478,-11.4652
-329,-517,-0.658691,11.7365,0,0,0,0,0,0,0,-1,895,1541,-0.658693,-11.7364
-322,-517,0.267395,12.0076,0,0,0,0,0,0,0,-1,902,1541,0.267396,-12.0076
-315,-517,-0.987976,7.29749,0,0,0,0,0,0,0,-1,909,1541,-0.987993,-7.29743
-308,-517,4.07715,15.229,0,0,0,0,0,0,0,-1,916,1541,4.07714,-15.229
-301,-517,-1.69141,8.87488,0,0,0,0,0,0,0,-1,923,1541,-1.69141,-8.87485
-294,-517,-1.72583,9.92566,0,0,0,0,0,0,0,-1,930,1541,-1.72584,-9.92571
-287,-517,-2.77466,11.749,0,0,0,0,0,0,0,-1,937,1541,-2.77467,-11.749
-280,-517,0,0,0,0,0,0,0,0,0,-1,944,1541,0,0
-273,-517,0,0,0,0,0,0,0,0,0,-1,951,1541,0,0
-266,-517,0,0,0,0,0,0,0,0,0,-1,958,1541,0,0
-259,-517,0,0,0,0,0,0,0,0,0,-1,965,1541,0,0
-252,-517,0,0,0,0,0,0,0,0,0,-1,972,1541,0,0
-245,-517,0,0,0,0,0,0,0,0,0,-1,979,1541,0,0
-238,-517,0,0,0,0,0,0,0,0,0,-1,986,1541,0,0
-231,-517,0,0,0,0,0,0,0,0,0,-1,993,1541,0,0
-224,-517,0,0,0,0,0,0,0,0,0,-1,1000,1541,0,0
-217,-517,0,0,0,0,0,0,0,0,0,-1,1007,1541,0,0
-210,-517,0,0,0,0,0,0,0,0,0,-1,1014,1541,0,0
-203,-517,0,0,0,0,0,0,0,0,0,-1,1021,1541,0,0
-196,-517,0,0,0,0,0,0,0,0,0,-1,1028,1541,0,0
-189,-517,0,0,0,0,0,0,0,0,0,-1,1035,1541,0,0
-182,-517,0,0,0,0,0,0,0,0,0,-1,1042,1541,0,0
-175,-517,0,0,0,0,0,0,0,0,0,-1,1049,1541,0,0
-168,-517,0,0,0,0,0,0,0,0,0,-1,1056,1541,0,0
-161,-517,0,0,0,0,0,0,0,0,0,-1,1063,1541,0,0
-154,-517,0,0,0,0,0,0,0,0,0,-1,1070,1541,0,0
-147,-517,0,0,0,0,0,0,0,0,0,-1,1077,1541,0,0
-140,-517,0,0,0,0,0,0,0,0,0,-1,1084,1541,0,0
-133,-517,0,0,0,0,0,0,0,0,0,-1,1091,1541,0,0
-126,-517,0,0,0,0,0,0,0,0,0,-1,1098,1541,0,0
-119,-517,0,0,0,0,0,0,0,0,0,-1,1105,1541,0,0
-112,-517,0,0,0,0,0,0,0,0,0,-1,1112,1541,0,0
-105,-517,0,0,0,0,0,0,0,0,0,-1,1119,1541,0,0
-98,-517,0,0,0,0,0,0,0,0,0,-1,1126,1541,0,0
-91,-517,0,0,0,0,0,0,0,0,0,-1,1133,1541,0,0
-84,-517,0,0,0,0,0,0,0,0,0,-1,1140,1541,0,0
-77,-517,0,0,0,0,0,0,0,0,0,-1,1147,1541,0,0
-70,-517,0,0,0,0,0,0,0,0,0,-1,1154,1541,0,0
-63,-517,0,0,0,0,0,0,0,0,0,-1,1161,1541,0,0
-56,-517,0,0,0,0,0,0,0,0,0,-1,1168,1541,0,0
-49,-517,0,0,0,0,0,0,0,0,0,-1,1175,1541,0,0
-42,-517,0,0,0,0,0,0,0,0,0,-1,1182,1541,0,0
-35,-517,0,0,0,0,0,0,0,0,0,-1,1189,1541,0,0
-28,-517,0,0,0,0,0,0,0,0,0,-1,1196,1541,0,0
-21,-517,0,0,0,0,0,0,0,0,0,-1,1203,1541,0,0
-14,-517,0,0,0,0,0,0,0,0,0,-1,1210,1541,0,0
-7,-517,0,0,0,0,0,0,0,0,0,-1,1217,1541,0,0
0,-517,0,0,0,0,0,0,0,0,0,-1,1224,1541,0,0
7,-517,0,0,0,0,0,0,0,0,0,-1,1231,1541,0,0
14,-517,0,0,0,0,0,0,0,0,0,-1,1238,1541,0,0
21,-517,0,0,0,0,0,0,0,0,0,-1,1245,1541,0,0
28,-517,0,0,0,0,0,0,0,0,0,-1,1252,1541,0,0
35,-517,0,0,0,0,0,0,0,0,0,-1,1259,1541,0,0
42,-517,0,0,0,0,0,0,0,0,0,-1,1266,1541,0,0
49,-517,0,0,0,0,0,0,0,0,0,-1,1273,1541,0,0
56,-517,0,0,0,0,0,0,0,0,0,-1,1280,1541,0,0
63,-517,0,0,0,0,0,0,0,0,0,-1,1287,1541,0,0
70,-517,0,0,0,0,0,0,0,0,0,-1,1294,1541,0,0
77,-517,0,0,0,0,0,0,0,0,0,-1,1301,1541,0,0
84,-517,0,0,0,0,0,0,0,0,0,-1,1308,1541,0,0
91,-517,0,0,0,0,0,0,0,0,0,-1,1315,1541,0,0
98,-517,0,0,0,0,0,0,0,0,0,-1,1322,1541,0,0
105,-517,0,0,0,0,0,0,0,0,0,-1,1329,1541,0,0
112,-517,0,0,0,0,0,0,0,0,0,-1,1336,1541,0,0
119,-517,0,0,0,0,0,0,0,0,0,-1,1343,1541,0,0
126,-517,0,0,0,0,0,0,0,0,0,-1,1350,1541,0,0
133,-517,0,0,0,0,0,0,0,0,0,-1,1357,1541,0,0
140,-517,0,0,0,0,0,0,0,0,0,-1,1364,1541,0,0
147,-517,0,0,0,0,0,0,0,0,0,-1,1371,1541,0,0
154,-517,0,0,0,0,0,0,0,0,0,-1,1378,1541,0,0
161,-517,0,0,0,0,0,0,0,0,0,-1,1385,1541,0,0
168,-517,0,0,0,0,0,0,0,0,0,-1,1392,1541,0,0
175,-517,0,0,0,0,0,0,0,0,0,-1,1399,1541,0,0
182,-517,0,0,0,0,0,0,0,0,0,-1,1406,1541,0,0
189,-517,0,0,0,0,0,0,0,0,0,-1,1413,1541,0,0
196,-517,0,0,0,0,0,0,0,0,0,-1,1420,1541,0,0
203,-517,0,0,0,0,0,0,0,0,0,-1,1427,1541,0,0
210,-517,0,0,0,0,0,0,0,0,0,-1,1434,1541,0,0
217,-517,0,0,0,0,0,0,0,0,0,-1,1441,1541,0,0
224,-517,0,0,0,0,0,0,0,0,0,-1,1448,1541,0,0
231,-517,0,0,0,0,0,0,0,0,0,-1,1455,1541,0,0
238,-517,0,0,0,0,0,0,0,0,0,-1,1462,1541,0,0
245,-517,0,0,0,0,0,0,0,0,0,-1,1469,1541,0,0
252,-517,0,0,0,0,0,0,0,0,0,-1,1476,1541,0,0
259,-517,0,0,0,0,0,0,0,0,0,-1,1483,1541,0,0
266,-517,0,0,0,0,0,0,0,0,0,-1,1490,1541,0,0
273,-517,0,0,0,0,0,0,0,0,0,-1,1497,1541,0,0
280,-517,0,0,0,0,0,0,0,0,0,-1,1504,1541,0,0
287,-517,0,0,0,0,0,0,0,0,0,-1,1511,1541,0,0
294,-517,0,0,0,0,0,0,0,0,0,-1,1518,1541,0,0
301,-517,0,0,0,0,0,0,0,0,0,-1,1525,1541,0,0
308,-517,0,0,0,0,0,0,0,0,0,-1,1532,1541,0,0
315,-517,0,0,0,0,0,0,0,0,0,-1,1539,1541,0,0
322,-517,0,0,0,0,0,0,0,0,0,-1,1546,1541,0,0
329,-517,0,0,0,0,0,0,0,0,0,-1,1553,1541,0,0
336,-517,0,0,0,0,0,0,0,0,0,-1,1560,1541,0,0
343,-517,0,0,0,0,0,0,0,0,0,-1,1567,1541,0,0
350,-517,0,0,0,0,0,0,0,0,0,-1,1574,1541,0,0
357,-517,0,0,0,0,0,0,0,0,0,-1,1581,1541,0,0
364,-517,0,0,0,0,0,0,0,0,0,-1,1588,1541,0,0
371,-517,0,0,0,0,0,0,0,0,0,-1,1595,1541,0,0
378,-517,0,0,0,0,0,0,0,0,0,-1,1602,1541,0,0
385,-517,0,0,0,0,0,0,0,0,0,-1,1609,1541,0,0
392,-517,0,0,0,0,0,0,0,0,0,-1,1616,1541,0,0
399,-517,0,0,0,0,0,0,0,0,0,-1,1623,1541,0,0
406,-517,12.1469,6.22412,0,0,0,0,0,0,0,-1,1630,1541,12.1468,-6.22408
413,-517,12.2695,6.3324,0,0,0,0,0,0,0,-1,1637,1541,12.2696,-6.33243
420,-517,12.4789,6.20337,0,0,0,0,0,0,0,-1,1644,1541,12.4789,-6.20333
427,-517,11.647,4.66516,0,0,0,0,0,0,0,-1,1651,1541,11.647,-4.66519
434,-517,12.3719,3.92773,0,0,0,0,0,0,0,-1,1658,1541,12.3719,-3.92776
441,-517,13.146,3.14124,0,0,0,0,0,0,0,-1,1665,1541,13.146,-3.14121
448,-517,13.8861,2.36682,0,0,0,0,0,0,0,-1,1672,1541,13.8861,-2.36684
455,-517,13.6012,4.06335,0,0,0,0,0,0,0,-1,1679,1541,13.6012,-4.06335
462,-517,14.8956,7.0752,0,0,0,0,0,0,0,-1,1686,1541,14.8956,-7.07525
469,-517,14.3939,7.823,0,0,0,0,0,0,0,-1,1693,1541,14.3939,-7.82296
476,-517,13.8374,8.68164,0,0,0,0,0,0,0,-1,1700,1541,13.8374,-8.68166
483,-517,11.3983,8.48816,0,0,0,0,0,0,0,-1,1707,1541,11.3983,-8.4882
490,-517,12.283,12.2826,0,0,0,0,0,0,0,-1,1714,1541,12.283,-12.2826
497,-517,11.759,12.2766,-0.0442183,-0.0204184,0.0371859,0.00672515,-0.0713619,0.940256,0.0499674,0.0452688,1721,1541,11.759,-12.2766
504,-517,11.0427,12.3571,-0.0361419,-0.0161312,0.0300163,0.00550333,-0.0577765,0.946272,0.040477,0.0403555,1728,1541,11.0427,-12.357
511,-517,10.6476,12.4244,-0.0288711,-0.0127277,0.0237781,0.0043114,-0.0459102,0.949024,0.0321404,0.0422824,1735,1541,10.6475,-12.4245
518,-517,10.4186,12.1155,-0.022591,-0.00998529,0.0185202,0.00327517,-0.0358515,0.949413,0.0250641,0.0283702,1742,1541,10.4186,-12.1154
525,-517,10.4288,11.8456,-0.0171673,-0.00749621,0.0139912,0.00247148,-0.027135,0.951779,0.0189675,0.0120829,1749,1541,10.4289,-11.8455
532,-517,10.4722,11.6074,-0.0126201,-0.005696,0.0103643,0.00176914,-0.0200853,0.946591,0.0140172,0.0103029,1756,1541,10.4721,-11.6075
539,-517,10.4728,11.3591,-0.00882524,-0.00415278,0.00739505,0.00126629,-0.0142443,0.938396,0.00994521,0.011409,1763,1541,10.4728,-11.3591
546,-517,10.4578,11.1069,-0.00553828,-0.00242436,0.00473912,0.00100701,-0.00896965,0.94411,0.00634214,0.0120158,1770,1541,10.4577,-11.107
553,-517,10.4473,10.8684,-0.00265619,-0.00143088,0.00259674,0.000624501,-0.00471158,0.901246,0.00336857,0.0158673,1777,1541,10.4473,-10.8685
560,-517,10.454,10.6311,-0.000191375,-0.000340976,0.000939776,0.000676572,-0.00120892,0.745685,0.00110296,0.0154916,1784,1541,10.454,-10.6311
567,-517,10.4509,10.3956,0.00168352,0.000472281,-0.000223889,0.00172358,0.000432222,-0.177052,0.00103549,0.0126814,1791,1541,10.451,-10.3956
574,-517,10.4333,10.1467,0.00340163,0.00125567,-0.00115714,0.00390671,0.000750598,-0.411559,0.00239382,0.0136555,1798,1541,10.4334,-10.1467
581,-517,10.4229,9.92102,0.00559521,0.00206549,-0.00206534,0.00654703,0.00111367,-0.431844,0.0040449,0.0144329,1805,1541,10.4228,-9.92105
588,-517,10.4237,9.68188,0.00781482,0.00269945,-0.00294749,0.00915962,0.00135465,-0.428044,0.0057087,0.0152799,1812,1541,10.4237,-9.68186
595,-517,10.4718,9.40601,0.0105904,0.00324626,-0.00389225,0.0122693,0.00156728,-0.40725,0.00771041,0.0200628,1819,1541,10.4718,-9.40598
602,-517,10.3837,9.11426,0.0142421,0.00379814,-0.00490516,0.0161846,0.00185565,-0.377062,0.0102275,0.0234707,1826,1541,10.3837,-9.11424
609,-517,10.6141,8.83374,0.0190332,0.00438613,-0.00602095,0.0211905,0.00222884,-0.344047,0.0134458,0.0411592,1833,1541,10.6142,-8.83373
616,-517,10.6563,8.96252,0,0,0,0,0,0,0,-1,1840,1541,10.6563,-8.96255
623,-517,12.0471,7.74597,0,0,0,0,0,0,0,-1,1847,1541,12.0471,-7.746
630,-517,11.7035,7.47815,0,0,0,0,0,0,0,-1,1854,1541,11.7035,-7.47812
637,-517,11.5172,5.79822,0,0,0,0,0,0,0,-1,1861,1541,11.5173,-5.79825
644,-517,11.4232,3.30579,0,0,0,0,0,0,0,-1,1868,1541,11.4232,-3.30574
651,-517,0,0,0,0,0,0,0,0,0,-1,1875,1541,0,0
658,-517,0,0,0,0,0,0,0,0,0,-1,1882,1541,0,0
665,-517,0,0,0,0,0,0,0,0,0,-1,1889,1541,0,0
672,-517,0,0,0,0,0,0,0,0,0,-1,1896,1541,0,0
679,-517,0,0,0,0,0,0,0,0,0,-1,1903,1541,0,0
686,-517,0,0,0,0,0,0,0,0,0,-1,1910,1541,0,0
693,-517,0,0,0,0,0,0,0,0,0,-1,1917,1541,0,0
700,-517,0,0,0,0,0,0,0,0,0,-1,1924,1541,0,0
707,-517,0,0,0,0,0,0,0,0,0,-1,1931,1541,0,0
714,-517,0,0,0,0,0,0,0,0,0,-1,1938,1541,0,0
721,-517,0,0,0,0,0,0,0,0,0,-1,1945,1541,0,0
728,-517,0,0,0,0,0,0,0,0,0,-1,1952,1541,0,0
735,-517,0,0,0,0,0,0,0,0,0,-1,1959,1541,0,0
742,-517,0,0,0,0,0,0,0,0,0,-1,1966,1541,0,0
749,-517,0,0,0,0,0,0,0,0,0,-1,1973,1541,0,0
756,-517,0,0,0,0,0,0,0,0,0,-1,1980,1541,0,0
763,-517,0,0,0,0,0,0,0,0,0,-1,1987,1541,0,0
770,-517,0,0,0,0,0,0,0,0,0,-1,1994,1541,0,0
777,-517,0,0,0,0,0,0,0,0,0,-1,2001,1541,0,0
784,-517,0,0,0,0,0,0,0,0,0,-1,2008,1541,0,0
791,-517,0,0,0,0,0,0,0,0,0,-1,2015,1541,0,0
798,-517,0,0,0,0,0,0,0,0,0,-1,2022,1541,0,0
805,-517,0,0,0,0,0,0,0,0,0,-1,2029,1541,0,0
812,-517,0,0,0,0,0,0,0,0,0,-1,2036,1541,0,0
-700,-524,0,0,0,0,0,0,0,0,0,-1,524,1548,0,0
-693,-524,0,0,0,0,0,0,0,0,0,-1,531,1548,0,0
-686,-524,0,0,0,0,0,0,0,0,0,-1,538,1548,0,0
-679,-524,0,0,0,0,0,0,0,0,0,-1,545,1548,0,0
-672,-524,0,0,0,0,0,0,0,0,0,-1,552,1548,0,0
-665,-524,0,0,0,0,0,0,0,0,0,-1,559,1548,0,0
-658,-524,0,0,0,0,0,0,0,0,0,-1,566,1548,0,0
-651,-524,0,0,0,0,0,0,0,0,0,-1,573,1548,0,0
-644,-524,0,0,0,0,0,0,0,0,0,-1,580,1548,0,0
-637,-524,0,0,0,0,0,0,0,0,0,-1,587,1548,0,0
-630,-524,0,0,0,0,0,0,0,0,0,-1,594,1548,0,0
-623,-524,0,0,0,0,0,0,0,0,0,-1,601,1548,0,0
-616,-524,0,0,0,0,0,0,0,0,0,-1,608,1548,0,0
-609,-524,0,0,0,0,0,0,0,0,0,-1,615,1548,0,0
-602,-524,0,0,0,0,0,0,0,0,0,-1,622,1548,0,0
-595,-524,0,0,0,0,0,0,0,0,0,-1,629,1548,0,0
-588,-524,0,0,0,0,0,0,0,0,0,-1,636,1548,0,0
-581,-524,0,0,0,0,0,0,0,0,0,-1,643,1548,0,0
-574,-524,0,0,0,0,0,0,0,0,0,-1,650,1548,0,0
-567,-524,0,0,0,0,0,0,0,0,0,-1,657,1548,0,0
-560,-524,0,0,0,0,0,0,0,0,0,-1,664,1548,0,0
-553,-524,0,0,0,0,0,0,0,0,0,-1,671,1548,0,0
-546,-524,0,0,0,0,0,0,0,0,0,-1,678,1548,0,0
-539,-524,0,0,0,0,0,0,0,0,0,-1,685,1548,0,0
-532,-524,0,0,0,0,0,0,0,0,0,-1,692,1548,0,0
-525,-524,-0.215515,3.97131,0,0,0,0,0,0,0,-1,699,1548,-0.215501,-3.97136
-518,-524,-0.806274,4.35632,0,0,0,0,0,0,0,-1,706,1548,-0.806259,-4.35633
-511,-524,-1.08301,4.29004,0,0,0,0,0,0,0,-1,713,1548,-1.08301,-4.29006
-504,-524,-1.28821,3.98145,0,0,0,0,0,0,0,-1,720,1548,-1.28822,-3.98151
-497,-524,-0.253723,5.39331,0,0,0,0,0,0,0,-1,727,1548,-0.253694,-5.39329
-490,-524,-0.342529,5.93567,-0.00218278,0.0511212,0.0132837,0.0542481,-0.00530972,1.33961,0.038059,0.045768,734,1548,-0.342531,-5.9357
-483,-524,-0.642212,6.45178,-0.0012286,0.036329,0.0100447,0.0388467,-0.00374626,1.32521,0.0272326,0.0465356,741,1548,-0.642185,-6.45172
-476,-524,-0.783875,7.25232,-0.000382928,0.02526,0.00760352,0.027345,-0.00246796,1.30316,0.0191059,0.0457001,748,1548,-0.7839,-7.25236
-469,-524,-0.724792,7.64587,4.21693e-06,0.0172393,0.00563666,0.018919,-0.00167552,1.28117,0.0132067,0.0326732,755,1548,-0.724773,-7.6459
-462,-524,-0.684692,7.91284,0.000328135,0.0116086,0.00421037,0.0130068,-0.00107006,1.25017,0.00904898,0.0242572,762,1548,-0.684699,-7.91286
-455,-524,-0.722473,8.13867,0.000708465,0.00777737,0.00315257,0.00897906,-0.000493228,1.20662,0.00615704,0.0172777,769,1548,-0.722465,-8.13873
-448,-524,-0.714844,8.39417,0.000910025,0.00516948,0.00242133,0.00626444,-0.000184932,1.1461,0.00423928,0.0123226,776,1548,-0.714871,-8.39412
-441,-524,-0.720032,8.65735,0.00115136,0.00336481,0.00185319,0.00441659,9.95833e-05,1.05458,0.00291177,0.00979002,783,1548,-0.720047,-8.65737
-434,-524,-0.696411,8.91821,0.00158263,0.00156959,0.0014398,0.00301592,0.000136298,0.783134,0.00196676,0.0117926,790,1548,-0.6964,-8.91817
-427,-524,-0.688171,9.18152,0.00192945,0.000389978,0.000962029,0.00239178,-7.23549e-05,0.447992,0.00161918,0.0128717,797,1548,-0.688168,-9.18153
-420,-524,-0.703186,9.4679,0.00226825,-0.000172814,0.000489751,0.00236284,-0.000267407,0.190796,0.00167151,0.010408,804,1548,-0.703177,-9.46791
-413,-524,-0.71759,9.74207,0.00248462,-0.000936631,-6.48789e-06,0.00248463,-0.000936644,-0.00189634,0.00204156,0.010221,811,1548,-0.717596,-9.74202
-406,-524,-0.73053,10.0077,0.00266582,-0.0021161,-0.000571827,0.00273325,-0.00218353,-0.117376,0.00284461,0.0113231,818,1548,-0.730552,-10.0077
-399,-524,-0.742615,10.2787,0.00290459,-0.00350165,-0.00126737,0.0031462,-0.00374327,-0.188383,0.00398262,0.00931769,825,1548,-0.742618,-10.2787
-392,-524,-0.729614,10.5344,0.00310553,-0.00501964,-0.00221977,0.00367241,-0.00558653,-0.250035,0.00538359,0.00981032,832,1548,-0.729619,-10.5344
-385,-524,-0.735962,10.8223,0.00322867,-0.00647911,-0.00333215,0.00426235,-0.00751279,-0.300801,0.00688418,0.0116672,839,1548,-0.735971,-10.8223
-378,-524,-0.689087,11.198,0.00316598,-0.0083005,-0.00457445,0.00476729,-0.00990181,-0.336724,0.00864042,0.0243126,846,1548,-0.689094,-11.198
-371,-524,-0.514709,11.3739,0.00288407,-0.010184,-0.00605062,0.00525529,-0.0125552,-0.373502,0.0105669,0.0489498,853,1548,-0.514734,-11.3739
-364,-524,-0.58728,11.1527,0.00215408,-0.011708,-0.00760605,0.00551339,-0.0150673,-0.415899,0.0123017,0.0446944,860,1548,-0.587268,-11.1527
-357,-524,-0.667725,11.1661,0,0,0,0,0,0,0,-1,867,1548,-0.667712,-11.1661
-350,-524,-1.18591,11.6433,0,0,0,0,0,0,0,-1,874,1548,-1.18592,-11.6433
-343,-524,-1.2887,6.94836,0,0,0,0,0,0,0,-1,881,1548,-1.28868,-6.94831
-336,-524,-0.817383,11.87,0,0,0,0,0,0,0,-1,888,1548,-0.817363,-11.87
-329,-524,0.326172,10.9512,0,0,0,0,0,0,0,-1,895,1548,0.326178,-10.9511
-322,-524,0.915771,11.7336,0,0,0,0,0,0,0,-1,902,1548,0.915752,-11.7336
-315,-524,6.14465,15.038,0,0,0,0,0,0,0,-1,909,1548,6.14467,-15.0379
-308,-524,5.88452,15.6357,0,0,0,0,0,0,0,-1,916,1548,5.88455,-15.6358
-301,-524,4.10406,15.9458,0,0,0,0,0,0,0,-1,923,1548,4.10409,-15.9458
-294,-524,-1.52515,9.05408,0,0,0,0,0,0,0,-1,930,1548,-1.52512,-9.05411
-287,-524,-1.52618,9.99182,0,0,0,0,0,0,0,-1,937,1548,-1.52619,-9.99178
-280,-524,-1.6156,10.4597,0,0,0,0,0,0,0,-1,944,1548,-1.6156,-10.4597
-273,-524,0,0,0,0,0,0,0,0,0,-1,951,1548,0,0
-266,-524,0,0,0,0,0,0,0,0,0,-1,958,1548,0,0
-259,-524,0,0,0,0,0,0,0,0,0,-1,965,1548,0,0
-252,-524,0,0,0,0,0,0,0,0,0,-1,972,1548,0,0
-245,-524,0,0,0,0,0,0,0,0,0,-1,979,1548,0,0
-238,-524,0,0,0,0,0,0,0,0,0,-1,986,1548,0,0
-231,-524,0,0,0,0,0,0,0,0,0,-1,993,1548,0,0
-224,-524,0,0,0,0,0,0,0,0,0,-1,1000,1548,0,0
-217,-524,0,0,0,0,0,0,0,0,0,-1,1007,1548,0,0
-210,-524,0,0,0,0,0,0,0,0,0,-1,1014,1548,0,0
-203,-524,0,0,0,0,0,0,0,0,0,-1,1021,1548,0,0
-196,-524,0,0,0,0,0,0,0,0,0,-1,1028,1548,0,0
-189,-524,0,0,0,0,0,0,0,0,0,-1,1035,1548,0,0
-182,-524,0,0,0,0,0,0,0,0,0,-1,1042,1548,0,0
-175,-524,0,0,0,0,0,0,0,0,0,-1,1049,1548,0,0
-168,-524,0,0,0,0,0,0,0,0,0,-1,1056,1548,0,0
-161,-524,0,0,0,0,0,0,0,0,0,-1,1063,1548,0,0
-154,-524,0,0,0,0,0,0,0,0,0,-1,1070,1548,0,0
-147,-524,0,0,0,0,0,0,0,0,0,-1,1077,1548,0,0
-140,-524,0,0,0,0,0,0,0,0,0,-1,1084,1548,0,0
-133,-524,0,0,0,0,0,0,0,0,0,-1,1091,1548,0,0
-126,-524,0,0,0,0,0,0,0,0,0,-1,1098,1548,0,0
-119,-524,0,0,0,0,0,0,0,0,0,-1,1105,1548,0,0
-112,-524,0,0,0,0,0,0,0,0,0,-1,1112,1548,0,0
-105,-524,0,0,0,0,0,0,0,0,0,-1,1119,1548,0,0
-98,-524,0,0,0,0,0,0,0,0,0,-1,1126,1548,0,0
-91,-524,0,0,0,0,0,0,0,0,0,-1,1133,1548,0,0
-84,-524,0,0,0,0,0,0,0,0,0,-1,1140,1548,0,0
-77,-524,0,0,0,0,0,0,0,0,0,-1,1147,1548,0,0
-70,-524,0,0,0,0,0,0,0,0,0,-1,1154,1548,0,0
-63,-524,0,0,0,0,0,0,0,0,0,-1,1161,1548,0,0
-56,-524,0,0,0,0,0,0,0,0,0,-1,1168,1548,0,0
-49,-524,0,0,0,0,0,0,0,0,0,-1,1175,1548,0,0
-42,-524,0,0,0,0,0,0,0,0,0,-1,1182,1548,0,0
-35,-524,0,0,0,0,0,0,0,0,0,-1,1189,1548,0,0
-28,-524,0,0,0,0,0,0,0,0,0,-1,1196,1548,0,0
-21,-524,0,0,0,0,0,0,0,0,0,-1,1203,1548,0,0
-14,-524,0,0,0,0,0,0,0,0,0,-1,1210,1548,0,0
-7,-524,0,0,0,0,0,0,0,0,0,-1,1217,1548,0,0
0,-524,0,0,0,0,0,0,0,0,0,-1,1224,1548,0,0
7,-524,0,0,0,0,0,0,0,0,0,-1,1231,1548,0,0
14,-524,0,0,0,0,0,0,0,0,0,-1,1238,1548,0,0
21,-524,0,0,0,0,0,0,0,0,0,-1,1245,1548,0,0
28,-524,0,0,0,0,0,0,0,0,0,-1,1252,1548,0,0
35,-524,0,0,0,0,0,0,0,0,0,-1,1259,1548,0,0
42,-524,0,0,0,0,0,0,0,0,0,-1,1266,1548,0,0
49,-524,0,0,0,0,0,0,0,0,0,-1,1273,1548,0,0
56,-524,0,0,0,0,0,0,0,0,0,-1,1280,1548,0,0
63,-524,0,0,0,0,0,0,0,0,0,-1,1287,1548,0,0
70,-524,0,0,0,0,0,0,0,0,0,-1,1294,1548,0,0
77,-524,0,0,0,0,0,0,0,0,0,-1,1301,1548,0,0
84,-524,0,0,0,0,0,0,0,0,0,-1,1308,1548,0,0
91,-524,0,0,0,0,0,0,0,0,0,-1,1315,1548,0,0
98,-524,0,0,0,0,0,0,0,0,0,-1,1322,1548,0,0
105,-524,0,0,0,0,0,0,0,0,0,-1,1329,1548,0,0
112,-524,0,0,0,0,0,0,0,0,0,-1,1336,1548,0,0
119,-524,0,0,0,0,0,0,0,0,0,-1,1343,1548,0,0
126,-524,0,0,0,0,0,0,0,0,0,-1,1350,1548,0,0
133,-524,0,0,0,0,0,0,0,0,0,-1,1357,1548,0,0
140,-524,0,0,0,0,0,0,0,0,0,-1,1364,1548,0,0
147,-524,0,0,0,0,0,0,0,0,0,-1,1371,1548,0,0
154,-524,0,0,0,0,0,0,0,0,0,-1,1378,1548,0,0
161,-524,0,0,0,0,0,0,0,0,0,-1,1385,1548,0,0
168,-524,0,0,0,0,0,0,0,0,0,-1,1392,1548,0,0
175,-524,0,0,0,0,0,0,0,0,0,-1,1399,1548,0,0
182,-524,0,0,0,0,0,0,0,0,0,-1,1406,1548,0,0
189,-524,0,0,0,0,0,0,0,0,0,-1,1413,1548,0,0
196,-524,0,0,0,0,0,0,0,0,0,-1,1420,1548,0,0
203,-524,0,0,0,0,0,0,0,0,0,-1,1427,1548,0,0
210,-524,0,0,0,0,0,0,0,0,0,-1,1434,1548,0,0
217,-524,0,0,0,0,0,0,0,0,0,-1,1441,1548,0,0
224,-524,0,0,0,0,0,0,0,0,0,-1,1448,1548,0,0
231,-524,0,0,0,0,0,0,0,0,0,-1,1455,1548,0,0
238,-524,0,0,0,0,0,0,0,0,0,-1,1462,1548,0,0
245,-524,0,0,0,0,0,0,0,0,0,-1,1469,1548,0,0
252,-524,0,0,0,0,0,0,0,0,0,-1,1476,1548,0,0
259,-524,0,0,0,0,0,0,0,0,0,-1,1483,1548,0,0
266,-524,0,0,0,0,0,0,0,0,0,-1,1490,1548,0,0
273,-524,0,0,0,0,0,0,0,0,0,-1,1497,1548,0,0
280,-524,0,0,0,0,0,0,0,0,0,-1,1504,1548,0,0
287,-524,0,0,0,0,0,0,0,0,0,-1,1511,1548,0,0
294,-524,0,0,0,0,0,0,0,0,0,-1,1518,1548,0,0
301,-524,0,0,0,0,0,0,0,0,0,-1,1525,1548,0,0
308,-524,0,0,0,0,0,0,0,0,0,-1,1532,1548,0,0
315,-524,0,0,0,0,0,0,0,0,0,-1,1539,1548,0,0
322,-524,0,0,0,0,0,0,0,0,0,-1,1546,1548,0,0
329,-524,0,0,0,0,0,0,0,0,0,-1,1553,1548,0,0
336,-524,0,0,0,0,0,0,0,0,0,-1,1560,1548,0,0
343,-524,0,0,0,0,0,0,0,0,0,-1,1567,1548,0,0
350,-524,0,0,0,0,0,0,0,0,0,-1,1574,1548,0,0
357,-524,0,0,0,0,0,0,0,0,0,-1,1581,1548,0,0
364,-524,0,0,0,0,0,0,0,0,0,-1,1588,1548,0,0
371,-524,0,0,0,0,0,0,0,0,0,-1,1595,1548,0,0
378,-524,0,0,0,0,0,0,0,0,0,-1,1602,1548,0,0
385,-524,0,0,0,0,0,0,0,0,0,-1,1609,1548,0,0
392,-524,0,0,0,0,0,0,0,0,0,-1,1616,1548,0,0
399,-524,8.81848,5.05774,0,0,0,0,0,0,0,-1,1623,1548,8.81843,-5.05769
406,-524,8.64294,6.06799,0,0,0,0,0,0,0,-1,1630,1548,8.6429,-6.06805
413,-524,11.677,6.41858,0,0,0,0,0,0,0,-1,1637,1548,11.677,-6.41864
420,-524,11.4913,6.36401,0,0,0,0,0,0,0,-1,1644,1548,11.4913,-6.36402
427,-524,7.68335,6.17249,0,0,0,0,0,0,0,-1,1651,1548,7.68341,-6.17245
434,-524,10.432,11.6801,0,0,0,0,0,0,0,-1,1658,1548,10.432,-11.68
441,-524,8.78552,4.12305,0,0,0,0,0,0,0,-1,1665,1548,8.78553,-4.12301
448,-524,14.1854,4.78674,0,0,0,0,0,0,0,-1,1672,1548,14.1854,-4.78674
455,-524,12.4784,3.65576,0,0,0,0,0,0,0,-1,1679,1548,12.4784,-3.65572
462,-524,11.9464,4.95581,0,0,0,0,0,0,0,-1,1686,1548,11.9464,-4.95586
469,-524,12.1188,7.98254,0,0,0,0,0,0,0,-1,1693,1548,12.1187,-7.98256
476,-524,10.7104,8.32092,0,0,0,0,0,0,0,-1,1700,1548,10.7104,-8.32087
483,-524,11.745,10.9818,0,0,0,0,0,0,0,-1,1707,1548,11.7451,-10.9818
490,-524,10.9436,11.5955,-0.0392566,-0.0202286,0.0363745,0.00785552,-0.0673407,0.913312,0.0477283,0.0431174,1714,1548,10.9436,-11.5955
497,-524,10.3231,12.4783,-0.0341561,-0.0177948,0.0303519,0.00545957,-0.0574105,0.917034,0.0402172,0.0363512,1721,1548,10.3231,-12.4783
504,-524,10.2002,12.4431,-0.0278425,-0.013835,0.0244542,0.00459865,-0.0462762,0.924866,0.0324923,0.0201412,1728,1548,10.2002,-12.4432
511,-524,10.1628,12.3123,-0.022199,-0.0106738,0.0193421,0.00374583,-0.0366187,0.930177,0.025752,0.0192121,1735,1548,10.1628,-12.3122
518,-524,10.2119,12.0354,-0.0173043,-0.00814947,0.0150052,0.00296101,-0.0284147,0.933442,0.0200033,0.0159781,1742,1548,10.2119,-12.0354
525,-524,10.2125,11.8191,-0.0130162,-0.00583782,0.0112217,0.00235477,-0.0212087,0.940177,0.0149859,0.0134087,1749,1548,10.2126,-11.8191
532,-524,10.2263,11.5935,-0.00939185,-0.00422069,0.00819957,0.0017913,-0.0154038,0.938129,0.0109154,0.00953592,1756,1548,10.2263,-11.5935
539,-524,10.2247,11.3461,-0.00629629,-0.00284787,0.00567439,0.00135848,-0.0105026,0.932894,0.00749574,0.00950136,1763,1548,10.2247,-11.3461
546,-524,10.2119,11.1035,-0.00356563,-0.00132486,0.00340109,0.00113563,-0.00602612,0.94451,0.00444458,0.012121,1770,1548,10.212,-11.1035
553,-524,10.2133,10.8864,-0.00114037,-0.000404173,0.00158026,0.000850288,-0.00239483,0.899826,0.00194302,0.0214045,1777,1548,10.2133,-10.8863
560,-524,10.2202,10.5992,0.00101437,0.000608375,0.000148932,0.00106314,0.000559601,0.316482,0.000614091,0.0296211,1784,1548,10.2202,-10.5993
567,-524,10.2142,10.3866,0.00268077,0.00134,-0.000855505,0.00309727,0.00092351,-0.453064,0.00183613,0.0169641,1791,1548,10.2142,-10.3866
574,-524,10.2059,10.1471,0.00440987,0.00208301,-0.00177192,0.00536617,0.0011267,-0.4949,0.00326729,0.0123395,1798,1548,10.2059,-10.1471
581,-524,10.2079,9.90466,0.00680758,0.00282665,-0.00271155,0.00818081,0.00145342,-0.468784,0.00503975,0.0135342,1805,1548,10.2079,-9.90468
588,-524,10.223,9.6554,0.00934553,0.00354343,-0.00369759,0.0111443,0.00174466,-0.452765,0.00692166,0.0152898,1812,1548,10.223,-9.65534
595,-524,10.218,9.40039,0.012697,0.00424043,-0.00493891,0.0149704,0.00196709,-0.431379,0.00939346,0.0177132,1819,1548,10.218,-9.40036
602,-524,10.3275,9.04468,0.0172916,0.00506457,-0.00635229,0.0199944,0.00236181,-0.402275,0.0126162,0.0308595,1826,1548,10.3275,-9.04466
609,-524,10.7466,8.6781,0.0235613,0.00608079,-0.00819768,0.0268041,0.00283796,-0.376689,0.0170025,0.0463342,1833,1548,10.7466,-8.67807
616,-524,11.0747,8.31445,0,0,0,0,0,0,0,-1,1840,1548,11.0747,-8.31449
623,-524,9.38452,5.15356,0,0,0,0,0,0,0,-1,1847,1548,9.38456,-5.15359
630,-524,11.0541,3.57434,0,0,0,0,0,0,0,-1,1854,1548,11.0541,-3.57438
637,-524,11.6067,3.20728,0,0,0,0,0,0,0,-1,1861,1548,11.6067,-3.20724
644,-524,12.2134,0.727173,0,0,0,0,0,0,0,-1,1868,1548,12.2134,-0.727222
651,-524,0,0,0,0,0,0,0,0,0,-1,1875,1548,0,0
658,-524,0,0,0,0,0,0,0,0,0,-1,1882,1548,0,0
665,-524,0,0,0,0,0,0,0,0,0,-1,1889,1548,0,0
672,-524,0,0,0,0,0,0,0,0,0,-1,1896,1548,0,0
679,-524,0,0,0,0,0,0,0,0,0,-1,1903,1548,0,0
686,-524,0,0,0,0,0,0,0,0,0,-1,1910,1548,0,0
693,-524,0,0,0,0,0,0,0,0,0,-1,1917,1548,0,0
700,-524,0,0,0,0,0,0,0,0,0,-1,1924,1548,0,0
707,-524,0,0,0,0,0,0,0,0,0,-1,1931,1548,0,0
714,-524,0,0,0,0,0,0,0,0,0,-1,1938,1548,0,0
721,-524,0,0,0,0,0,0,0,0,0,-1,1945,1548,0,0
728,-524,0,0,0,0,0,0,0,0,0,-1,1952,1548,0,0
735,-524,0,0,0,0,0,0,0,0,0,-1,1959,1548,0,0
742,-524,0,0,0,0,0,0,0,0,0,-1,1966,1548,0,0
749,-524,0,0,0,0,0,0,0,0,0,-1,1973,1548,0,0
756,-524,0,0,0,0,0,0,0,0,0,-1,1980,1548,0,0
763,-524,0,0,0,0,0,0,0,0,0,-1,1987,1548,0,0
770,-524,0,0,0,0,0,0,0,0,0,-1,1994,1548,0,0
777,-524,0,0,0,0,0,0,0,0,0,-1,2001,1548,0,0
784,-524,0,0,0,0,0,0,0,0,0,-1,2008,1548,0,0
791,-524,0,0,0,0,0,0,0,0,0,-1,2015,1548,0,0
798,-524,0,0,0,0,0,0,0,0,0,-1,2022,1548,0,0
805,-524,0,0,0,0,0,0,0,0,0,-1,2029,1548,0,0
812,-524,0,0,0,0,0,0,0,0,0,-1,2036,1548,0,0
-700,-531,0,0,0,0,0,0,0,0,0,-1,524,1555,0,0
-693,-531,0,0,0,0,0,0,0,0,0,-1,531,1555,0,0
-686,-531,0,0,0,0,0,0,0,0,0,-1,538,1555,0,0
-679,-531,0,0,0,0,0,0,0,0,0,-1,545,1555,0,0
-672,-531,0,0,0,0,0,0,0,0,0,-1,552,1555,0,0
-665,-531,0,0,0,0,0,0,0,0,0,-1,559,1555,0,0
-658,-531,0,0,0,0,0,0,0,0,0,-1,566,1555,0,0
-651,-531,0,0,0,0,0,0,0,0,0,-1,573,1555,0,0
-644,-531,0,0,0,0,0,0,0,0,0,-1,580,1555,0,0
-637,-531,0,0,0,0,0,0,0,0,0,-1,587,1555,0,0
-630,-531,0,0,0,0,0,0,0,0,0,-1,594,1555,0,0
-623,-531,0,0,0,0,0,0,0,0,0,-1,601,1555,0,0
-616,-531,0,0,0,0,0,0,0,0,0,-1,608,1555,0,0
-609,-531,0,0,0,0,0,0,0,0,0,-1,615,1555,0,0
-602,-531,0,0,0,0,0,0,0,0,0,-1,622,1555,0,0
-595,-531,0,0,0,0,0,0,0,0,0,-1,629,1555,0,0
-588,-531,0,0,0,0,0,0,0,0,0,-1,636,1555,0,0
-581,-531,0,0,0,0,0,0,0,0,0,-1,643,1555,0,0
-574,-531,0,0,0,0,0,0,0,0,0,-1,650,1555,0,0
-567,-531,0,0,0,0,0,0,0,0,0,-1,657,1555,0,0
-560,-531,0,0,0,0,0,0,0,0,0,-1,664,1555,0,0
-553,-531,0,0,0,0,0,0,0,0,0,-1,671,1555,0,0
-546,-531,0,0,0,0,0,0,0,0,0,-1,678,1555,0,0
-539,-531,0,0,0,0,0,0,0,0,0,-1,685,1555,0,0
-532,-531,0,0,0,0,0,0,0,0,0,-1,692,1555,0,0
-525,-531,0,0,0,0,0,0,0,0,0,-1,699,1555,0,0
-518,-531,-1.63983,4.03821,0,0,0,0,0,0,0,-1,706,1555,-1.63982,-4.03821
-511,-531,-2.9682,8.07483,0,0,0,0,0,0,0,-1,713,1555,-2.9682,-8.07479
-504,-531,-2.95978,0.557861,0,0,0,0,0,0,0,-1,720,1555,-2.95978,-0.557917
-497,-531,0.433655,4.23865,0,0,0,0,0,0,0,-1,727,1555,0.433668,-4.23871
-490,-531,0.0996704,4.23157,0,0,0,0,0,0,0,-1,734,1555,0.0996577,-4.23157
-483,-531,-0.554749,6.36572,0,0,0,0,0,0,0,-1,741,1555,-0.554738,-6.36571
-476,-531,-0.6604,7.25024,0.000614666,0.0314731,0.00979812,0.0343213,-0.00223353,1.2879,0.0236606,0.0477529,748,1555,-0.66041,-7.25026
-469,-531,-0.616211,7.73584,0.00126879,0.0213665,0.00751409,0.0238652,-0.00122991,1.24976,0.0163355,0.0441859,755,1555,-0.616224,-7.73583
-462,-531,-0.505005,7.98096,0.00149881,0.0144086,0.0056852,0.0165553,-0.000647873,1.20975,0.011259,0.0402136,762,1555,-0.505004,-7.98098
-455,-531,-0.418579,8.16956,0.00158011,0.00970017,0.0042956,0.0115508,-0.000270528,1.164,0.00779228,0.0288683,769,1555,-0.418567,-8.16959
-448,-531,-0.414917,8.38757,0.00140703,0.00646842,0.00323272,0.0080432,-0.000167744,1.11749,0.00541891,0.0140358,776,1555,-0.414899,-8.38753
-441,-531,-0.4552,8.65271,0.00125807,0.00426123,0.00238867,0.00558108,-6.17793e-05,1.066,0.00374148,0.0107977,783,1555,-0.455194,-8.65271
-434,-531,-0.444031,8.94263,0.00140854,0.00206361,0.00181492,0.00358031,-0.000108168,0.874671,0.00242373,0.0105569,790,1555,-0.444047,-8.94258
-427,-531,-0.416748,9.22046,0.00151011,0.000815735,0.00125174,0.00246192,-0.000136078,0.650118,0.00168847,0.0124821,797,1555,-0.416771,-9.22052
-420,-531,-0.431519,9.4917,0.00163066,0.00036522,0.000747382,0.00197718,1.86971e-05,0.434146,0.00131193,0.01127,804,1555,-0.431489,-9.49174
-413,-531,-0.460083,9.75818,0.00165212,-0.000192024,0.000272562,0.00169156,-0.000231465,0.143706,0.00121225,0.0103026,811,1555,-0.46011,-9.75821
-406,-531,-0.467102,10.011,0.00170565,-0.00120248,-0.00021741,0.00172182,-0.00121864,-0.0742098,0.00170594,0.0117788,818,1555,-0.467114,-10.0109
-399,-531,-0.460632,10.2803,0.00183324,-0.00238156,-0.00081051,0.00198373,-0.00253205,-0.183581,0.00261358,0.0134241,825,1555,-0.460652,-10.2803
-392,-531,-0.44989,10.5583,0.00200806,-0.00361106,-0.00159898,0.0024312,-0.0040342,-0.258702,0.00377085,0.0163376,832,1555,-0.449888,-10.5583
-385,-531,-0.477966,10.8193,0.00216944,-0.00473276,-0.00250707,0.00298396,-0.00554727,-0.31413,0.00499907,0.013269,839,1555,-0.477978,-10.8194
-378,-531,-0.489502,11.0477,0.00217835,-0.00601158,-0.00343741,0.00342984,-0.00726307,-0.349161,0.00630439,0.0118927,846,1555,-0.489472,-11.0477
-371,-531,-0.414612,11.3491,0.00200208,-0.00720238,-0.00450569,0.00384049,-0.00904079,-0.3874,0.00763636,0.0184159,853,1555,-0.414593,-11.3491
-364,-531,-0.341431,11.574,0.00147886,-0.00796661,-0.00561767,0.00409523,-0.010583,-0.435865,0.00874605,0.0386074,860,1555,-0.341448,-11.574
-357,-531,-0.607117,11.5291,0.000449204,-0.00820077,-0.00706371,0.00440682,-0.0121584,-0.510697,0.00990682,0.0451871,867,1555,-0.607142,-11.5291
-350,-531,-0.805542,11.5577,0,0,0,0,0,0,0,-1,874,1555,-0.805539,-11.5577
-343,-531,-0.940063,12.5161,0,0,0,0,0,0,0,-1,881,1555,-0.940068,-12.5162
-336,-531,-0.909485,12.8854,0,0,0,0,0,0,0,-1,888,1555,-0.909493,-12.8854
-329,-531,-0.281433,12.1613,0,0,0,0,0,0,0,-1,895,1555,-0.281427,-12.1612
-322,-531,5.37701,14.1537,0,0,0,0,0,0,0,-1,902,1555,5.37702,-14.1537
-315,-531,5.09778,14.6604,0,0,0,0,0,0,0,-1,909,1555,5.09778,-14.6605
-308,-531,4.86176,15.2081,0,0,0,0,0,0,0,-1,916,1555,4.86179,-15.2081
-301,-531,4.62329,15.7598,0,0,0,0,0,0,0,-1,923,1555,4.62328,-15.7598
-294,-531,-1.3244,8.1825,0,0,0,0,0,0,0,-1,930,1555,-1.3244,-8.18251
-287,-531,-1.41095,9.08215,0,0,0,0,0,0,0,-1,937,1555,-1.41095,-9.08216
-280,-531,-2.0166,16.6165,0,0,0,0,0,0,0,-1,944,1555,-2.01659,-16.6165
-273,-531,-3.34735,17.3546,0,0,0,0,0,0,0,-1,951,1555,-3.34733,-17.3546
-266,-531,-4.58264,18.4968,0,0,0,0,0,0,0,-1,958,1555,-4.58265,-18.4969
-259,-531,0,0,0,0,0,0,0,0,0,-1,965,1555,0,0
-252,-531,0,0,0,0,0,0,0,0,0,-1,972,1555,0,0
-245,-531,0,0,0,0,0,0,0,0,0,-1,979,1555,0,0
-238,-531,0,0,0,0,0,0,0,0,0,-1,986,1555,0,0
-231,-531,0,0,0,0,0,0,0,0,0,-1,993,1555,0,0
-224,-531,0,0,0,0,0,0,0,0,0,-1,1000,1555,0,0
-217,-531,0,0,0,0,0,0,0,0,0,-1,1007,1555,0,0
-210,-531,0,0,0,0,0,0,0,0,0,-1,1014,1555,0,0
-203,-531,0,0,0,0,0,0,0,0,0,-1,1021,1555,0,0
-196,-531,0,0,0,0,0,0,0,0,0,-1,1028,1555,0,0
-189,-531,0,0,0,0,0,0,0,0,0,-1,1035,1555,0,0
-182,-531,0,0,0,0,0,0,0,0,0,-1,1042,1555,0,0
-175,-531,0,0,0,0,0,0,0,0,0,-1,1049,1555,0,0
-168,-531,0,0,0,0,0,0,0,0,0,-1,1056,1555,0,0
-161,-531,0,0,0,0,0,0,0,0,0,-1,1063,1555,0,0
-154,-531,0,0,0,0,0,0,0,0,0,-1,1070,1555,0,0
-147,-531,0,0,0,0,0,0,0,0,0,-1,1077,1555,0,0
-140,-531,0,0,0,0,0,0,0,0,0,-1,1084,1555,0,0
-133,-531,0,0,0,0,0,0,0,0,0,-1,1091,1555,0,0
-126,-531,0,0,0,0,0,0,0,0,0,-1,1098,1555,0,0
-119,-531,0,0,0,0,0,0,0,0,0,-1,1105,1555,0,0
-112,-531,0,0,0,0,0,0,0,0,0,-1,1112,1555,0,0
-105,-531,0,0,0,0,0,0,0,0,0,-1,1119,1555,0,0
-98,-531,0,0,0,0,0,0,0,0,0,-1,1126,1555,0,0
-91,-531,0,0,0,0,0,0,0,0,0,-1,1133,1555,0,0
-84,-531,0,0,0,0,0,0,0,0,0,-1,1140,1555,0,0
-77,-531,0,0,0,0,0,0,0,0,0,-1,1147,1555,0,0
-70,-531,0,0,0,0,0,0,0,0,0,-1,1154,1555,0,0
-63,-531,0,0,0,0,0,0,0,0,0,-1,1161,1555,0,0
-56,-531,0,0,0,0,0,0,0,0,0,-1,1168,1555,0,0
-49,-531,0,0,0,0,0,0,0,0,0,-1,1175,1555,0,0
-42,-531,0,0,0,0,0,0,0,0,0,-1,1182,1555,0,0
-35,-531,0,0,0,0,0,0,0,0,0,-1,1189,1555,0,0
-28,-531,0,0,0,0,0,0,0,0,0,-1,1196,1555,0,0
-21,-531,0,0,0,0,0,0,0,0,0,-1,1203,1555,0,0
-14,-531,0,0,0,0,0,0,0,0,0,-1,1210,1555,0,0
-7,-531,0,0,0,0,0,0,0,0,0,-1,1217,1555,0,0
0,-531,0,0,0,0,0,0,0,0,0,-1,1224,1555,0,0
7,-531,0,0,0,0,0,0,0,0,0,-1,1231,1555,0,0
14,-531,0,0,0,0,0,0,0,0,0,-1,1238,1555,0,0
21,-531,0,0,0,0,0,0,0,0,0,-1,1245,1555,0,0
28,-531,0,0,0,0,0,0,0,0,0,-1,1252,1555,0,0
35,-531,0,0,0,0,0,0,0,0,0,-1,1259,1555,0,0
42,-531,0,0,0,0,0,0,0,0,0,-1,1266,1555,0,0
49,-531,0,0,0,0,0,0,0,0,0,-1,1273,1555,0,0
56,-531,0,0,0,0,0,0,0,0,0,-1,1280,1555,0,0
63,-531,0,0,0,0,0,0,0,0,0,-1,1287,1555,0,0
70,-531,0,0,0,0,0,0,0,0,0,-1,1294,1555,0,0
77,-531,0,0,0,0,0,0,0,0,0,-1,1301,1555,0,0
84,-531,0,0,0,0,0,0,0,0,0,-1,1308,1555,0,0
91,-531,0,0,0,0,0,0,0,0,0,-1,1315,1555,0,0
98,-531,0,0,0,0,0,0,0,0,0,-1,1322,1555,0,0
105,-531,0,0,0,0,0,0,0,0,0,-1,1329,1555,0,0
112,-531,0,0,0,0,0,0,0,0,0,-1,1336,1555,0,0
119,-531,0,0,0,0,0,0,0,0,0,-1,1343,1555,0,0
126,-531,0,0,0,0,0,0,0,0,0,-1,1350,1555,0,0
133,-531,0,0,0,0,0,0,0,0,0,-1,1357,1555,0,0
140,-531,0,0,0,0,0,0,0,0,0,-1,1364,1555,0,0
147,-531,0,0,0,0,0,0,0,0,0,-1,1371,1555,0,0
154,-531,0,0,0,0,0,0,0,0,0,-1,1378,1555,0,0
161,-531,0,0,0,0,0,0,0,0,0,-1,1385,1555,0,0
168,-531,0,0,0,0,0,0,0,0,0,-1,1392,1555,0,0
175,-531,0,0,0,0,0,0,0,0,0,-1,1399,1555,0,0
182,-531,0,0,0,0,0,0,0,0,0,-1,1406,1555,0,0
189,-531,0,0,0,0,0,0,0,0,0,-1,1413,1555,0,0
196,-531,0,0,0,0,0,0,0,0,0,-1,1420,1555,0,0
203,-531,0,0,0,0,0,0,0,0,0,-1,1427,1555,0,0
210,-531,0,0,0,0,0,0,0,0,0,-1,1434,1555,0,0
217,-531,0,0,0,0,0,0,0,0,0,-1,1441,1555,0,0
224,-531,0,0,0,0,0,0,0,0,0,-1,1448,1555,0,0
231,-531,0,0,0,0,0,0,0,0,0,-1,1455,1555,0,0
238,-531,0,0,0,0,0,0,0,0,0,-1,1462,1555,0,0
245,-531,0,0,0,0,0,0,0,0,0,-1,1469,1555,0,0
252,-531,0,0,0,0,0,0,0,0,0,-1,1476,1555,0,0
259,-531,0,0,0,0,0,0,0,0,0,-1,1483,1555,0,0
266,-531,0,0,0,0,0,0,0,0,0,-1,1490,1555,0,0
273,-531,0,0,0,0,0,0,0,0,0,-1,1497,1555,0,0
280,-531,0,0,0,0,0,0,0,0,0,-1,1504,1555,0,0
287,-531,0,0,0,0,0,0,0,0,0,-1,1511,1555,0,0
294,-531,0,0,0,0,0,0,0,0,0,-1,1518,1555,0,0
301,-531,0,0,0,0,0,0,0,0,0,-1,1525,1555,0,0
308,-531,0,0,0,0,0,0,0,0,0,-1,1532,1555,0,0
315,-531,0,0,0,0,0,0,0,0,0,-1,1539,1555,0,0
322,-531,0,0,0,0,0,0,0,0,0,-1,1546,1555,0,0
329,-531,0,0,0,0,0,0,0,0,0,-1,1553,1555,0,0
336,-531,0,0,0,0,0,0,0,0,0,-1,1560,1555,0,0
343,-531,0,0,0,0,0,0,0,0,0,-1,1567,1555,0,0
350,-531,0,0,0,0,0,0,0,0,0,-1,1574,1555,0,0
357,-531,0,0,0,0,0,0,0,0,0,-1,1581,1555,0,0
364,-531,0,0,0,0,0,0,0,0,0,-1,1588,1555,0,0
371,-531,0,0,0,0,0,0,0,0,0,-1,1595,1555,0,0
378,-531,0,0,0,0,0,0,0,0,0,-1,1602,1555,0,0
385,-531,3.13403,1.88721,0,0,0,0,0,0,0,-1,1609,1555,3.13401,-1.88726
392,-531,10.5293,8.8125,0,0,0,0,0,0,0,-1,1616,1555,10.5293,-8.81247
399,-531,8.26306,5.29602,0,0,0,0,0,0,0,-1,1623,1555,8.26302,-5.29607
406,-531,8.26147,5.42712,0,0,0,0,0,0,0,-1,1630,1555,8.26145,-5.42716
413,-531,8.20618,5.75012,0,0,0,0,0,0,0,-1,1637,1555,8.20619,-5.75017
420,-531,7.64868,7.09558,0,0,0,0,0,0,0,-1,1644,1555,7.64867,-7.09564
427,-531,9.93054,11.8412,0,0,0,0,0,0,0,-1,1651,1555,9.93059,-11.8412
434,-531,10.244,11.7072,0,0,0,0,0,0,0,-1,1658,1555,10.244,-11.7071
441,-531,9.03882,11.1136,0,0,0,0,0,0,0,-1,1665,1555,9.03881,-11.1137
448,-531,8.70752,11.1261,0,0,0,0,0,0,0,-1,1672,1555,8.70751,-11.126
455,-531,12.5403,6.53625,0,0,0,0,0,0,0,-1,1679,1555,12.5403,-6.53629
462,-531,11.6357,6.271,0,0,0,0,0,0,0,-1,1686,1555,11.6358,-6.27095
469,-531,11.1533,8.24194,0,0,0,0,0,0,0,-1,1693,1555,11.1534,-8.24189
476,-531,10.9094,11.5835,0,0,0,0,0,0,0,-1,1700,1555,10.9094,-11.5835
483,-531,10.3925,12.517,0,0,0,0,0,0,0,-1,1707,1555,10.3924,-12.517
490,-531,10.2148,12.5974,-0.0296598,-0.0173405,0.0292823,0.00642292,-0.0534233,0.889064,0.0379382,0.0376716,1714,1555,10.2149,-12.5974
497,-531,9.9624,12.7571,-0.0258922,-0.0151214,0.0243945,0.00447506,-0.0454887,0.894037,0.0319222,0.0193842,1721,1555,9.96245,-12.7571
504,-531,9.95728,12.5553,-0.0210186,-0.0116273,0.0196565,0.00388664,-0.0365325,0.902644,0.0257485,0.0114306,1728,1555,9.95723,-12.5553
511,-531,9.95837,12.3148,-0.016566,-0.00877521,0.0154745,0.00328665,-0.0286279,0.908701,0.0202698,0.0129539,1735,1555,9.95842,-12.3148
518,-531,9.95874,12.0713,-0.0126837,-0.00650585,0.0118933,0.00269307,-0.0218827,0.912452,0.015564,0.0139599,1742,1555,9.95874,-12.0712
525,-531,9.96509,11.8295,-0.00922591,-0.00440633,0.00872057,0.00223128,-0.0158635,0.920201,0.0113925,0.0129888,1749,1555,9.96512,-11.8295
532,-531,9.99927,11.5867,-0.00627821,-0.00297739,0.00618356,0.00177221,-0.0110278,0.91581,0.00800825,0.00967257,1756,1555,9.99931,-11.5867
539,-531,9.98621,11.3507,-0.00370196,-0.00177551,0.00400909,0.00138444,-0.00686191,0.903294,0.00509912,0.0106542,1763,1555,9.98623,-11.3507
546,-531,9.94177,11.1246,-0.00141451,-0.000485558,0.00206702,0.00116853,-0.0030686,0.895917,0.00252697,0.0136543,1770,1555,9.9418,-11.1246
553,-531,9.94861,10.8732,0.000610833,0.000358259,0.000541621,0.0010407,-7.16028e-05,0.670862,0.000718854,0.0281946,1777,1555,9.94863,-10.8732
560,-531,9.95093,10.6173,0.00247506,0.00129323,-0.000678567,0.00278394,0.000984351,-0.427167,0.00163012,0.0316696,1784,1555,9.95092,-10.6173
567,-531,9.92664,10.3967,0.0039317,0.00195938,-0.00152828,0.00476437,0.00112671,-0.498876,0.00287523,0.0179819,1791,1555,9.92658,-10.3967
574,-531,9.95276,10.1595,0.00566986,0.00267929,-0.00243265,0.00703004,0.00131911,-0.509828,0.00431473,0.0122511,1798,1555,9.95274,-10.1596
581,-531,9.98401,9.89233,0.00829605,0.0033697,-0.00341046,0.0100398,0.00162592,-0.472649,0.00622246,0.0111459,1805,1555,9.98404,-9.89227
588,-531,10.0024,9.60864,0.0113147,0.00420661,-0.00451748,0.0135086,0.00201272,-0.452098,0.00841546,0.0154674,1812,1555,10.0025,-9.60866
595,-531,9.90283,9.20862,0,0,0,0,0,0,0,-1,1819,1555,9.90278,-9.20862
602,-531,10.3019,8.60107,0,0,0,0,0,0,0,-1,1826,1555,10.3018,-8.60106
609,-531,10.6096,8.46667,0,0,0,0,0,0,0,-1,1833,1555,10.6097,-8.4667
616,-531,10.5723,7.17859,0,0,0,0,0,0,0,-1,1840,1555,10.5723,-7.17855
623,-531,10.0674,5.08984,0,0,0,0,0,0,0,-1,1847,1555,10.0674,-5.08981
630,-531,11.672,3.18909,0,0,0,0,0,0,0,-1,1854,1555,11.672,-3.18904
637,-531,13.2546,1.38965,0,0,0,0,0,0,0,-1,1861,1555,13.2547,-1.3896
644,-531,0,0,0,0,0,0,0,0,0,-1,1868,1555,0,0
651,-531,0,0,0,0,0,0,0,0,0,-1,1875,1555,0,0
658,-531,0,0,0,0,0,0,0,0,0,-1,1882,1555,0,0
665,-531,0,0,0,0,0,0,0,0,0,-1,1889,1555,0,0
672,-531,0,0,0,0,0,0,0,0,0,-1,1896,1555,0,0
679,-531,0,0,0,0,0,0,0,0,0,-1,1903,1555,0,0
686,-531,0,0,0,0,0,0,0,0,0,-1,1910,1555,0,0
693,-531,0,0,0,0,0,0,0,0,0,-1,1917,1555,0,0
700,-531,0,0,0,0,0,0,0,0,0,-1,1924,1555,0,0
707,-531,0,0,0,0,0,0,0,0,0,-1,1931,1555,0,0
714,-531,0,0,0,0,0,0,0,0,0,-1,1938,1555,0,0
721,-531,0,0,0,0,0,0,0,0,0,-1,1945,1555,0,0
728,-531,0,0,0,0,0,0,0,0,0,-1,1952,1555,0,0
735,-531,0,0,0,0,0,0,0,0,0,-1,1959,1555,0,0
742,-531,0,0,0,0,0,0,0,0,0,-1,1966,1555,0,0
749,-531,0,0,0,0,0,0,0,0,0,-1,1973,1555,0,0
756,-531,0,0,0,0,0,0,0,0,0,-1,1980,1555,0,0
763,-531,0,0,0,0,0,0,0,0,0,-1,1987,1555,0,0
770,-531,0,0,0,0,0,0,0,0,0,-1,1994,1555,0,0
777,-531,0,0,0,0,0,0,0,0,0,-1,2001,1555,0,0
784,-531,0,0,0,0,0,0,0,0,0,-1,2008,1555,0,0
791,-531,0,0,0,0,0,0,0,0,0,-1,2015,1555,0,0
798,-531,0,0,0,0,0,0,0,0,0,-1,2022,1555,0,0
805,-531,0,0,0,0,0,0,0,0,0,-1,2029,1555,0,0
812,-531,0,0,0,0,0,0,0,0,0,-1,2036,1555,0,0
-700,-538,0,0,0,0,0,0,0,0,0,-1,524,1562,0,0
-693,-538,0,0,0,0,0,0,0,0,0,-1,531,1562,0,0
-686,-538,0,0,0,0,0,0,0,0,0,-1,538,1562,0,0
-679,-538,0,0,0,0,0,0,0,0,0,-1,545,1562,0,0
-672,-538,0,0,0,0,0,0,0,0,0,-1,552,1562,0,0
-665,-538,0,0,0,0,0,0,0,0,0,-1,559,1562,0,0
-658,-538,0,0,0,0,0,0,0,0,0,-1,566,1562,0,0
-651,-538,0,0,0,0,0,0,0,0,0,-1,573,1562,0,0
-644,-538,0,0,0,0,0,0,0,0,0,-1,580,1562,0,0
-637,-538,0,0,0,0,0,0,0,0,0,-1,587,1562,0,0
-630,-538,0,0,0,0,0,0,0,0,0,-1,594,1562,0,0
-623,-538,0,0,0,0,0,0,0,0,0,-1,601,1562,0,0
-616,-538,0,0,0,0,0,0,0,0,0,-1,608,1562,0,0
-609,-538,0,0,0,0,0,0,0,0,0,-1,615,1562,0,0
-602,-538,0,0,0,0,0,0,0,0,0,-1,622,1562,0,0
-595,-538,0,0,0,0,0,0,0,0,0,-1,629,1562,0,0
-588,-538,0,0,0,0,0,0,0,0,0,-1,636,1562,0,0
-581,-538,0,0,0,0,0,0,0,0,0,-1,643,1562,0,0
-574,-538,0,0,0,0,0,0,0,0,0,-1,650,1562,0,0
-567,-538,0,0,0,0,0,0,0,0,0,-1,657,1562,0,0
-560,-538,0,0,0,0,0,0,0,0,0,-1,664,1562,0,0
-553,-538,0,0,0,0,0,0,0,0,0,-1,671,1562,0,0
-546,-538,0,0,0,0,0,0,0,0,0,-1,678,1562,0,0
-539,-538,0,0,0,0,0,0,0,0,0,-1,685,1562,0,0
-532,-538,0,0,0,0,0,0,0,0,0,-1,692,1562,0,0
-525,-538,0,0,0,0,0,0,0,0,0,-1,699,1562,0,0
-518,-538,0,0,0,0,0,0,0,0,0,-1,706,1562,0,0
-511,-538,-2.6582,-1.54321,0,0,0,0,0,0,0,-1,713,1562,-2.65821,1.54327
-504,-538,-2.66455,-0.71167,0,0,0,0,0,0,0,-1,720,1562,-2.66456,0.711667
-497,-538,-0.763855,6.77747,0,0,0,0,0,0,0,-1,727,1562,-0.76385,-6.77743
-490,-538,0.654663,2.38293,0,0,0,0,0,0,0,-1,734,1562,0.654692,-2.38294
-483,-538,-1.50995,6.37659,0,0,0,0,0,0,0,-1,741,1562,-1.50992,-6.37654
-476,-538,-1.11652,7.82385,0,0,0,0,0,0,0,-1,748,1562,-1.11653,-7.82389
-469,-538,-0.744934,7.98193,0.00348807,0.0260137,0.0101719,0.0299272,-0.000425388,1.20352,0.0200948,0.0460644,755,1562,-0.744906,-7.98192
-462,-538,-0.420227,7.89636,0.00336248,0.0174663,0.00767132,0.0208345,-5.71646e-06,1.15707,0.0138915,0.0436847,762,1562,-0.420215,-7.89633
-455,-538,-0.15509,8.08093,0.0028832,0.0117262,0.0057324,0.0145442,6.52145e-05,1.1139,0.00967445,0.0371893,769,1562,-0.155072,-8.08098
-448,-538,-0.117065,8.43323,0.00218787,0.00779874,0.00419742,0.0100419,-5.53341e-05,1.07999,0.00671315,0.017048,776,1562,-0.117079,-8.43324
-441,-538,-0.169434,8.72314,0.00157061,0.00510564,0.00300219,0.00682198,-0.000145731,1.05145,0.00459733,0.0157062,783,1562,-0.169437,-8.72319
-434,-538,-0.199402,8.96472,0.0013957,0.00245606,0.00221683,0.00420523,-0.000353467,0.902774,0.00292843,0.0108534,790,1562,-0.199394,-8.96472
-427,-538,-0.18988,9.21887,0.00122944,0.00112388,0.00154087,0.00271844,-0.000365117,0.768278,0.00194545,0.0118968,797,1562,-0.189859,-9.21889
-420,-538,-0.212341,9.48535,0.00112593,0.00074047,0.000984812,0.0019367,-7.02919e-05,0.688767,0.00131519,0.0156842,804,1562,-0.21233,-9.48536
-413,-538,-0.235596,9.76465,0.000974011,0.000345561,0.000515331,0.00126336,5.62103e-05,0.511618,0.000824144,0.0164457,811,1562,-0.235571,-9.76459
-406,-538,-0.213684,9.99634,0.000943213,-0.00053314,8.38069e-05,0.000947955,-0.000537883,0.0565241,0.000868671,0.0139562,818,1562,-0.213703,-9.99635
-399,-538,-0.202393,10.2883,0.00100447,-0.00154554,-0.000428909,0.00107467,-0.00161575,-0.162253,0.00156375,0.0129436,825,1562,-0.202373,-10.2883
-392,-538,-0.202515,10.5592,0.00118588,-0.00254053,-0.00108235,0.00147744,-0.0028321,-0.263132,0.00252875,0.0140745,832,1562,-0.202488,-10.5592
-385,-538,-0.218262,10.7952,0.00140465,-0.00340973,-0.00182652,0.00201917,-0.00402425,-0.324547,0.00355261,0.012086,839,1562,-0.218235,-10.7951
-378,-538,-0.209045,11.0609,0.00150443,-0.00427474,-0.00251107,0.00244306,-0.00521337,-0.357713,0.00451586,0.00974317,846,1562,-0.209075,-11.061
-371,-538,-0.216858,11.328,0.00143865,-0.00495963,-0.00327487,0.00281764,-0.00633862,-0.398547,0.00541509,0.0107015,853,1562,-0.216853,-11.3281
-364,-538,-0.19458,11.6074,0.00108289,-0.00520214,-0.00406225,0.00307626,-0.00719551,-0.456184,0.00608729,0.011238,860,1562,-0.194565,-11.6074
-357,-538,-0.182678,11.8578,0.000309333,-0.00501707,-0.00515727,0.00345045,-0.00815818,-0.547058,0.00688351,0.0228483,867,1562,-0.182672,-11.8578
-350,-538,-0.297302,12.0243,-0.000495798,-0.00452014,-0.00634677,0.00415014,-0.00916607,-0.631891,0.00786783,0.0368672,874,1562,-0.297319,-12.0243
-343,-538,-0.416931,12.3843,-0.00178878,-0.00340279,-0.00767062,0.00511717,-0.0103087,-0.732987,0.00907272,0.0459627,881,1562,-0.416931,-12.3843
-336,-538,-0.342407,12.749,-0.0037012,-0.00209576,-0.00960601,0.006741,-0.012538,-0.827083,0.0112972,0.0458313,888,1562,-0.342408,-12.749
-329,-538,-0.192139,13.0278,0,0,0,0,0,0,0,-1,895,1562,-0.192112,-13.0278
-322,-538,0.00231934,12.2506,0,0,0,0,0,0,0,-1,902,1562,0.00231517,-12.2506
-315,-538,4.22876,14.3428,0,0,0,0,0,0,0,-1,909,1562,4.22877,-14.3428
-308,-538,4.03491,14.8612,0,0,0,0,0,0,0,-1,916,1562,4.03494,-14.8612
-301,-538,3.74213,15.4399,0,0,0,0,0,0,0,-1,923,1562,3.74211,-15.44
-294,-538,1.23138,14.0757,0,0,0,0,0,0,0,-1,930,1562,1.23137,-14.0757
-287,-538,-2.15009,12.8256,0,0,0,0,0,0,0,-1,937,1562,-2.15011,-12.8256
-280,-538,-3.13525,14.0911,0,0,0,0,0,0,0,-1,944,1562,-3.13524,-14.091
-273,-538,-4.22534,15.1093,0,0,0,0,0,0,0,-1,951,1562,-4.22532,-15.1093
-266,-538,-5.1861,15.9336,0,0,0,0,0,0,0,-1,958,1562,-5.18609,-15.9336
-259,-538,-5.89642,16.5184,0,0,0,0,0,0,0,-1,965,1562,-5.89644,-16.5184
-252,-538,0,0,0,0,0,0,0,0,0,-1,972,1562,0,0
-245,-538,0,0,0,0,0,0,0,0,0,-1,979,1562,0,0
-238,-538,0,0,0,0,0,0,0,0,0,-1,986,1562,0,0
-231,-538,0,0,0,0,0,0,0,0,0,-1,993,1562,0,0
-224,-538,0,0,0,0,0,0,0,0,0,-1,1000,1562,0,0
-217,-538,0,0,0,0,0,0,0,0,0,-1,1007,1562,0,0
-210,-538,0,0,0,0,0,0,0,0,0,-1,1014,1562,0,0
-203,-538,0,0,0,0,0,0,0,0,0,-1,1021,1562,0,0
-196,-538,0,0,0,0,0,0,0,0,0,-1,1028,1562,0,0
-189,-538,0,0,0,0,0,0,0,0,0,-1,1035,1562,0,0
-182,-538,0,0,0,0,0,0,0,0,0,-1,1042,1562,0,0
-175,-538,0,0,0,0,0,0,0,0,0,-1,1049,1562,0,0
-168,-538,0,0,0,0,0,0,0,0,0,-1,1056,1562,0,0
-161,-538,0,0,0,0,0,0,0,0,0,-1,1063,1562,0,0
-154,-538,0,0,0,0,0,0,0,0,0,-1,1070,1562,0,0
-147,-538,0,0,0,0,0,0,0,0,0,-1,1077,1562,0,0
-140,-538,0,0,0,0,0,0,0,0,0,-1,1084,1562,0,0
-133,-538,0,0,0,0,0,0,0,0,0,-1,1091,1562,0,0
-126,-538,0,0,0,0,0,0,0,0,0,-1,1098,1562,0,0
-119,-538,0,0,0,0,0,0,0,0,0,-1,1105,1562,0,0
-112,-538,0,0,0,0,0,0,0,0,0,-1,1112,1562,0,0
-105,-538,0,0,0,0,0,0,0,0,0,-1,1119,1562,0,0
-98,-538,0,0,0,0,0,0,0,0,0,-1,1126,1562,0,0
-91,-538,0,0,0,0,0,0,0,0,0,-1,1133,1562,0,0
-84,-538,0,0,0,0,0,0,0,0,0,-1,1140,1562,0,0
-77,-538,0,0,0,0,0,0,0,0,0,-1,1147,1562,0,0
-70,-538,0,0,0,0,0,0,0,0,0,-1,1154,1562,0,0
-63,-538,0,0,0,0,0,0,0,0,0,-1,1161,1562,0,0
-56,-538,0,0,0,0,0,0,0,0,0,-1,1168,1562,0,0
-49,-538,0,0,0,0,0,0,0,0,0,-1,1175,1562,0,0
-42,-538,0,0,0,0,0,0,0,0,0,-1,1182,1562,0,0
-35,-538,0,0,0,0,0,0,0,0,0,-1,1189,1562,0,0
-28,-538,0,0,0,0,0,0,0,0,0,-1,1196,1562,0,0
-21,-538,0,0,0,0,0,0,0,0,0,-1,1203,1562,0,0
-14,-538,0,0,0,0,0,0,0,0,0,-1,1210,1562,0,0
-7,-538,0,0,0,0,0,0,0,0,0,-1,1217,1562,0,0
0,-538,0,0,0,0,0,0,0,0,0,-1,1224,1562,0,0
7,-538,0,0,0,0,0,0,0,0,0,-1,1231,1562,0,0
14,-538,0,0,0,0,0,0,0,0,0,-1,1238,1562,0,0
21,-538,0,0,0,0,0,0,0,0,0,-1,1245,1562,0,0
28,-538,0,0,0,0,0,0,0,0,0,-1,1252,1562,0,0
35,-538,0,0,0,0,0,0,0,0,0,-1,1259,1562,0,0
42,-538,0,0,0,0,0,0,0,0,0,-1,1266,1562,0,0
49,-538,0,0,0,0,0,0,0,0,0,-1,1273,1562,0,0
56,-538,0,0,0,0,0,0,0,0,0,-1,1280,1562,0,0
63,-538,0,0,0,0,0,0,0,0,0,-1,1287,1562,0,0
70,-538,0,0,0,0,0,0,0,0,0,-1,1294,1562,0,0
77,-538,0,0,0,0,0,0,0,0,0,-1,1301,1562,0,0
84,-538,0,0,0,0,0,0,0,0,0,-1,1308,1562,0,0
91,-538,0,0,0,0,0,0,0,0,0,-1,1315,1562,0,0
98,-538,0,0,0,0,0,0,0,0,0,-1,1322,1562,0,0
105,-538,0,0,0,0,0,0,0,0,0,-1,1329,1562,0,0
112,-538,0,0,0,0,0,0,0,0,0,-1,1336,1562,0,0
119,-538,0,0,0,0,0,0,0,0,0,-1,1343,1562,0,0
126,-538,0,0,0,0,0,0,0,0,0,-1,1350,1562,0,0
133,-538,0,0,0,0,0,0,0,0,0,-1,1357,1562,0,0
140,-538,0,0,0,0,0,0,0,0,0,-1,1364,1562,0,0
147,-538,0,0,0,0,0,0,0,0,0,-1,1371,1562,0,0
154,-538,0,0,0,0,0,0,0,0,0,-1,1378,1562,0,0
161,-538,0,0,0,0,0,0,0,0,0,-1,1385,1562,0,0
168,-538,0,0,0,0,0,0,0,0,0,-1,1392,1562,0,0
175,-538,0,0,0,0,0,0,0,0,0,-1,1399,1562,0,0
182,-538,0,0,0,0,0,0,0,0,0,-1,1406,1562,0,0
189,-538,0,0,0,0,0,0,0,0,0,-1,1413,1562,0,0
196,-538,0,0,0,0,0,0,0,0,0,-1,1420,1562,0,0
203,-538,0,0,0,0,0,0,0,0,0,-1,1427,1562,0,0
210,-538,0,0,0,0,0,0,0,0,0,-1,1434,1562,0,0
217,-538,0,0,0,0,0,0,0,0,0,-1,1441,1562,0,0
224,-538,0,0,0,0,0,0,0,0,0,-1,1448,1562,0,0
231,-538,0,0,0,0,0,0,0,0,0,-1,1455,1562,0,0
238,-538,0,0,0,0,0,0,0,0,0,-1,1462,1562,0,0
245,-538,0,0,0,0,0,0,0,0,0,-1,1469,1562,0,0
252,-538,0,0,0,0,0,0,0,0,0,-1,1476,1562,0,0
259,-538,0,0,0,0,0,0,0,0,0,-1,1483,1562,0,0
266,-538,0,0,0,0,0,0,0,0,0,-1,1490,1562,0,0
273,-538,0,0,0,0,0,0,0,0,0,-1,1497,1562,0,0
280,-538,0,0,0,0,0,0,0,0,0,-1,1504,1562,0,0
287,-538,0,0,0,0,0,0,0,0,0,-1,1511,1562,0,0
294,-538,0,0,0,0,0,0,0,0,0,-1,1518,1562,0,0
301,-538,0,0,0,0,0,0,0,0,0,-1,1525,1562,0,0
308,-538,0,0,0,0,0,0,0,0,0,-1,1532,1562,0,0
315,-538,0,0,0,0,0,0,0,0,0,-1,1539,1562,0,0
322,-538,0,0,0,0,0,0,0,0,0,-1,1546,1562,0,0
329,-538,0,0,0,0,0,0,0,0,0,-1,1553,1562,0,0
336,-538,0,0,0,0,0,0,0,0,0,-1,1560,1562,0,0
343,-538,0,0,0,0,0,0,0,0,0,-1,1567,1562,0,0
350,-538,0,0,0,0,0,0,0,0,0,-1,1574,1562,0,0
357,-538,0,0,0,0,0,0,0,0,0,-1,1581,1562,0,0
364,-538,0,0,0,0,0,0,0,0,0,-1,1588,1562,0,0
371,-538,0,0,0,0,0,0,0,0,0,-1,1595,1562,0,0
378,-538,9.65479,5.82434,0,0,0,0,0,0,0,-1,1602,1562,9.6548,-5.82439
385,-538,9.65552,8.01746,0,0,0,0,0,0,0,-1,1609,1562,9.65546,-8.01741
392,-538,8.20361,7.07214,0,0,0,0,0,0,0,-1,1616,1562,8.20362,-7.07211
399,-538,7.85425,4.70508,0,0,0,0,0,0,0,-1,1623,1562,7.85425,-4.70512
406,-538,7.77734,4.96094,0,0,0,0,0,0,0,-1,1630,1562,7.77729,-4.96097
413,-538,13.0446,13.1765,0,0,0,0,0,0,0,-1,1637,1562,13.0446,-13.1765
420,-538,9.96216,12.7653,0,0,0,0,0,0,0,-1,1644,1562,9.96221,-12.7653
427,-538,10.1732,14.5863,0,0,0,0,0,0,0,-1,1651,1562,10.1732,-14.5863
434,-538,11.3452,15.2502,0,0,0,0,0,0,0,-1,1658,1562,11.3453,-15.2502
441,-538,11.6949,14.6406,0,0,0,0,0,0,0,-1,1665,1562,11.6949,-14.6407
448,-538,9.1366,12.1686,0,0,0,0,0,0,0,-1,1672,1562,9.13658,-12.1686
455,-538,11.5339,13.1034,0,0,0,0,0,0,0,-1,1679,1562,11.5339,-13.1034
462,-538,11.9067,12.2902,0,0,0,0,0,0,0,-1,1686,1562,11.9067,-12.2902
469,-538,10.557,12.1198,0,0,0,0,0,0,0,-1,1693,1562,10.5571,-12.1198
476,-538,9.84033,13.012,0,0,0,0,0,0,0,-1,1700,1562,9.84032,-13.012
483,-538,9.85425,13.0055,-0.0237864,-0.0148404,0.0266598,0.00771898,-0.0463458,0.868515,0.0337656,0.0329687,1707,1562,9.85424,-13.0055
490,-538,9.73242,12.9478,-0.0221205,-0.0144753,0.0228781,0.00489741,-0.0414931,0.868176,0.0294307,0.0156042,1714,1562,9.73246,-12.9477
497,-538,9.74365,12.7781,-0.0192349,-0.0125665,0.0189505,0.00334095,-0.0351423,0.872478,0.0246175,0.0101424,1721,1562,9.74369,-12.7781
504,-538,9.74097,12.5437,-0.0153996,-0.00955045,0.0151839,0.00298791,-0.027938,0.880539,0.019697,0.00867872,1728,1562,9.74094,-12.5438
511,-538,9.72412,12.316,-0.0118136,-0.00702693,0.0118035,0.00262342,-0.021464,0.885425,0.0152592,0.00964125,1735,1562,9.72407,-12.3161
518,-538,9.71729,12.0811,-0.00866627,-0.00502171,0.00888814,0.00222903,-0.015917,0.886509,0.0114271,0.0108188,1742,1562,9.71729,-12.081
525,-538,9.71021,11.8416,-0.0058135,-0.00314866,0.00628129,0.00193997,-0.0109021,0.889911,0.0079936,0.0115571,1749,1562,9.71019,-11.8415
532,-538,9.73901,11.6141,-0.0033533,-0.00189898,0.00420841,0.00164464,-0.00689691,0.870947,0.00523302,0.0120697,1756,1562,9.73906,-11.6142
539,-538,9.74951,11.3789,-0.00115103,-0.000856297,0.00239094,0.00139182,-0.00339915,0.816177,0.00284584,0.0147813,1763,1562,9.74953,-11.3789
546,-538,9.71667,11.1337,0.000789366,0.000182034,0.000821984,0.00136198,-0.000390582,0.608459,0.00106239,0.0160622,1770,1562,9.71671,-11.1337
553,-538,9.74438,10.8763,0.00247495,0.000959286,-0.000360538,0.00255635,0.000877894,-0.222029,0.00149984,0.025486,1777,1562,9.74436,-10.8763
560,-538,9.74402,10.649,0.00409214,0.001825,-0.00133374,0.00470895,0.00120819,-0.433176,0.00282408,0.027144,1784,1562,9.74407,-10.649
567,-538,9.6814,10.3895,0.00537543,0.00244738,-0.00200088,0.0063907,0.00143211,-0.469559,0.0038724,0.0200335,1791,1562,9.68142,-10.3895
574,-538,9.70496,10.1465,0.00714279,0.00316413,-0.00288463,0.00865754,0.00164939,-0.483532,0.00530801,0.0125512,1798,1562,9.70492,-10.1465
581,-538,9.76648,9.86572,0.0100283,0.00382338,-0.00391281,0.0119194,0.00193232,-0.450199,0.00738688,0.0143127,1805,1562,9.76645,-9.86573
588,-538,9.83337,9.59473,0.0135039,0.00478218,-0.00527646,0.0159884,0.00229774,-0.440059,0.00998154,0.0311809,1812,1562,9.8334,-9.59478
595,-538,10.1519,8.72034,0,0,0,0,0,0,0,-1,1819,1562,10.1518,-8.72028
602,-538,10.1614,8.05017,0,0,0,0,0,0,0,-1,1826,1562,10.1614,-8.05018
609,-538,10.1046,7.05713,0,0,0,0,0,0,0,-1,1833,1562,10.1046,-7.05719
616,-538,9.92249,5.43506,0,0,0,0,0,0,0,-1,1840,1562,9.92254,-5.43507
623,-538,11.1711,4.31604,0,0,0,0,0,0,0,-1,1847,1562,11.1711,-4.316
630,-538,12.6112,2.61633,0,0,0,0,0,0,0,-1,1854,1562,12.6112,-2.61637
637,-538,0,0,0,0,0,0,0,0,0,-1,1861,1562,0,0
644,-538,0,0,0,0,0,0,0,0,0,-1,1868,1562,0,0
651,-538,0,0,0,0,0,0,0,0,0,-1,1875,1562,0,0
658,-538,0,0,0,0,0,0,0,0,0,-1,1882,1562,0,0
665,-538,0,0,0,0,0,0,0,0,0,-1,1889,1562,0,0
672,-538,0,0,0,0,0,0,0,0,0,-1,1896,1562,0,0
679,-538,0,0,0,0,0,0,0,0,0,-1,1903,1562,0,0
686,-538,0,0,0,0,0,0,0,0,0,-1,1910,1562,0,0
693,-538,0,0,0,0,0,0,0,0,0,-1,1917,1562,0,0
700,-538,0,0,0,0,0,0,0,0,0,-1,1924,1562,0,0
707,-538,0,0,0,0,0,0,0,0,0,-1,1931,1562,0,0
714,-538,0,0,0,0,0,0,0,0,0,-1,1938,1562,0,0
721,-538,0,0,0,0,0,0,0,0,0,-1,1945,1562,0,0
728,-538,0,0,0,0,0,0,0,0,0,-1,1952,1562,0,0
735,-538,0,0,0,0,0,0,0,0,0,-1,1959,1562,0,0
742,-538,0,0,0,0,0,0,0,0,0,-1,1966,1562,0,0
749,-538,0,0,0,0,0,0,0,0,0,-1,1973,1562,0,0
756,-538,0,0,0,0,0,0,0,0,0,-1,1980,1562,0,0
763,-538,0,0,0,0,0,0,0,0,0,-1,1987,1562,0,0
770,-538,0,0,0,0,0,0,0,0,0,-1,1994,1562,0,0
777,-538,0,0,0,0,0,0,0,0,0,-1,2001,1562,0,0
784,-538,0,0,0,0,0,0,0,0,0,-1,2008,1562,0,0
791,-538,0,0,0,0,0,0,0,0,0,-1,2015,1562,0,0
798,-538,0,0,0,0,0,0,0,0,0,-1,2022,1562,0,0
805,-538,0,0,0,0,0,0,0,0,0,-1,2029,1562,0,0
812,-538,0,0,0,0,0,0,0,0,0,-1,2036,1562,0,0
-700,-545,0,0,0,0,0,0,0,0,0,-1,524,1569,0,0
-693,-545,0,0,0,0,0,0,0,0,0,-1,531,1569,0,0
-686,-545,0,0,0,0,0,0,0,0,0,-1,538,1569,0,0
-679,-545,0,0,0,0,0,0,0,0,0,-1,545,1569,0,0
-672,-545,0,0,0,0,0,0,0,0,0,-1,552,1569,0,0
-665,-545,0,0,0,0,0,0,0,0,0,-1,559,1569,0,0
-658,-545,0,0,0,0,0,0,0,0,0,-1,566,1569,0,0
-651,-545,0,0,0,0,0,0,0,0,0,-1,573,1569,0,0
-644,-545,0,0,0,0,0,0,0,0,0,-1,580,1569,0,0
-637,-545,0,0,0,0,0,0,0,0,0,-1,587,1569,0,0
-630,-545,0,0,0,0,0,0,0,0,0,-1,594,1569,0,0
-623,-545,0,0,0,0,0,0,0,0,0,-1,601,1569,0,0
-616,-545,0,0,0,0,0,0,0,0,0,-1,608,1569,0,0
-609,-545,0,0,0,0,0,0,0,0,0,-1,615,1569,0,0
-602,-545,0,0,0,0,0,0,0,0,0,-1,622,1569,0,0
-595,-545,0,0,0,0,0,0,0,0,0,-1,629,1569,0,0
-588,-545,0,0,0,0,0,0,0,0,0,-1,636,1569,0,0
-581,-545,0,0,0,0,0,0,0,0,0,-1,643,1569,0,0
-574,-545,0,0,0,0,0,0,0,0,0,-1,650,1569,0,0
-567,-545,0,0,0,0,0,0,0,0,0,-1,657,1569,0,0
-560,-545,0,0,0,0,0,0,0,0,0,-1,664,1569,0,0
-553,-545,0,0,0,0,0,0,0,0,0,-1,671,1569,0,0
-546,-545,0,0,0,0,0,0,0,0,0,-1,678,1569,0,0
-539,-545,0,0,0,0,0,0,0,0,0,-1,685,1569,0,0
-532,-545,0,0,0,0,0,0,0,0,0,-1,692,1569,0,0
-525,-545,0,0,0,0,0,0,0,0,0,-1,699,1569,0,0
-518,-545,0,0,0,0,0,0,0,0,0,-1,706,1569,0,0
-511,-545,0,0,0,0,0,0,0,0,0,-1,713,1569,0,0
-504,-545,-3.55237,-2.5354,0,0,0,0,0,0,0,-1,720,1569,-3.55236,2.53545
-497,-545,2.26575,5.69214,0,0,0,0,0,0,0,-1,727,1569,2.26573,-5.6922
-490,-545,1.79315,6.35181,0,0,0,0,0,0,0,-1,734,1569,1.79317,-6.35185
-483,-545,-1.90613,7.68005,0,0,0,0,0,0,0,-1,741,1569,-1.90613,-7.68007
-476,-545,-1.22205,6.8396,0,0,0,0,0,0,0,-1,748,1569,-1.22206,-6.83958
-469,-545,-0.685974,7.58032,0,0,0,0,0,0,0,-1,755,1569,-0.68595,-7.58033
-462,-545,-0.206116,7.70557,0,0,0,0,0,0,0,-1,762,1569,-0.206145,-7.70556
-455,-545,-0.0113525,7.93896,0.00475028,0.0138565,0.00745404,0.018038,0.000568775,1.05957,0.0118403,0.043858,769,1569,-0.0113593,-7.93893
-448,-545,0.231934,8.29016,0.00330646,0.00918753,0.00535556,0.0123567,0.00013727,1.03646,0.00819244,0.0291122,776,1569,0.231923,-8.29015
-441,-545,0.141052,8.7395,0.00209431,0.00590758,0.00373434,0.00819386,-0.000191967,1.02143,0.00552767,0.0192273,783,1569,0.141062,-8.73945
-434,-545,0.038147,8.97827,0.00152734,0.00273536,0.00267437,0.00487308,-0.000610376,0.89646,0.00347012,0.0149965,790,1569,0.0381561,-8.97823
-427,-545,0.0622559,9.20801,0.00105097,0.0012768,0.0018546,0.00302191,-0.000694149,0.815803,0.00228147,0.0157003,797,1569,0.0622546,-9.208
-420,-545,0.0834351,9.45361,0.000707347,0.000900533,0.00122298,0.00203073,-0.000422848,0.824807,0.00151457,0.0216597,804,1569,0.0834535,-9.45366
-413,-545,0.0601196,9.72852,0.000392401,0.000612828,0.000736946,0.00124776,-0.000242528,0.859625,0.000923359,0.0219639,811,1569,0.0600963,-9.72852
-406,-545,0.0517578,9.99841,0.000303059,-0.000169525,0.000341714,0.000482221,-0.000348688,0.482902,0.000481786,0.0162538,818,1569,0.0517876,-9.99836
-399,-545,0.0643311,10.2848,0.000321777,-0.00104733,-0.000117303,0.000331755,-0.00105731,-0.0848544,0.000837652,0.0108302,825,1569,0.0643457,-10.2848
-392,-545,0.0505981,10.5415,0.000522402,-0.00184626,-0.000662816,0.000695261,-0.00201912,-0.255113,0.00162809,0.0107501,832,1569,0.0506123,-10.5415
-385,-545,0.0533447,10.7894,0.000797135,-0.00251626,-0.00127421,0.00123047,-0.0029496,-0.327815,0.00248047,0.00941662,839,1569,0.053344,-10.7894
-378,-545,0.0585938,11.0697,0.000984163,-0.00304896,-0.0017655,0.00164781,-0.0037126,-0.359556,0.00317044,0.0116598,846,1569,0.0585642,-11.0697
-371,-545,0.0391235,11.3503,0.00101832,-0.00335077,-0.00230296,0.00200803,-0.00434047,-0.405889,0.00374686,0.0146945,853,1569,0.0391411,-11.3503
-364,-545,0.0447998,11.5853,0.000799821,-0.00322728,-0.0028517,0.0022772,-0.00470466,-0.477998,0.00411139,0.00941237,860,1569,0.0448161,-11.5853
-357,-545,0.0935669,11.8585,0.000230884,-0.00278467,-0.00367096,0.00269165,-0.00524544,-0.590537,0.00466088,0.0112168,867,1569,0.0935889,-11.8586
-350,-545,0.107666,12.1108,-0.000380776,-0.00216653,-0.00459279,0.00340513,-0.00595243,-0.689391,0.00546891,0.0160621,874,1569,0.10766,-12.1108
-343,-545,0.103638,12.3239,-0.00138468,-0.00106275,-0.00560835,0.00438694,-0.00683437,-0.799745,0.00652979,0.0241425,881,1569,0.103638,-12.3238
-336,-545,0.114807,12.5385,-0.00292562,4.75672e-05,-0.00718754,0.00590064,-0.00877869,-0.887375,0.00852924,0.0341605,888,1569,0.11478,-12.5385
-329,-545,0.125732,12.8645,-0.00476908,0.00172136,-0.00884204,0.00789491,-0.0109426,-0.961277,0.0109232,0.0427914,895,1569,0.125753,-12.8645
-322,-545,0.106567,13.478,0,0,0,0,0,0,0,-1,902,1569,0.106581,-13.478
-315,-545,3.34424,13.8644,0,0,0,0,0,0,0,-1,909,1569,3.34425,-13.8644
-308,-545,3.0495,14.51,0,0,0,0,0,0,0,-1,916,1569,3.0495,-14.51
-301,-545,2.75476,15.1556,0,0,0,0,0,0,0,-1,923,1569,2.75476,-15.1557
-294,-545,-2.69287,8.42102,0,0,0,0,0,0,0,-1,930,1569,-2.69287,-8.42097
-287,-545,-3.47784,9.96021,0,0,0,0,0,0,0,-1,937,1569,-3.47785,-9.96021
-280,-545,-4.26422,11.527,0,0,0,0,0,0,0,-1,944,1569,-4.26422,-11.527
-273,-545,-5.10333,12.864,0,0,0,0,0,0,0,-1,951,1569,-5.10331,-12.864
-266,-545,-5.78955,13.3704,0,0,0,0,0,0,0,-1,958,1569,-5.78952,-13.3703
-259,-545,-6.32184,13.8101,0,0,0,0,0,0,0,-1,965,1569,-6.32182,-13.81
-252,-545,0.369263,7.54053,0,0,0,0,0,0,0,-1,972,1569,0.369276,-7.54056
-245,-545,-0.236633,6.65564,0,0,0,0,0,0,0,-1,979,1569,-0.236605,-6.65566
-238,-545,0,0,0,0,0,0,0,0,0,-1,986,1569,0,0
-231,-545,0,0,0,0,0,0,0,0,0,-1,993,1569,0,0
-224,-545,0,0,0,0,0,0,0,0,0,-1,1000,1569,0,0
-217,-545,0,0,0,0,0,0,0,0,0,-1,1007,1569,0,0
-210,-545,0,0,0,0,0,0,0,0,0,-1,1014,1569,0,0
-203,-545,0,0,0,0,0,0,0,0,0,-1,1021,1569,0,0
-196,-545,0,0,0,0,0,0,0,0,0,-1,1028,1569,0,0
-189,-545,0,0,0,0,0,0,0,0,0,-1,1035,1569,0,0
-182,-545,0,0,0,0,0,0,0,0,0,-1,1042,1569,0,0
-175,-545,0,0,0,0,0,0,0,0,0,-1,1049,1569,0,0
-168,-545,0,0,0,0,0,0,0,0,0,-1,1056,1569,0,0
-161,-545,0,0,0,0,0,0,0,0,0,-1,1063,1569,0,0
-154,-545,0,0,0,0,0,0,0,0,0,-1,1070,1569,0,0
-147,-545,0,0,0,0,0,0,0,0,0,-1,1077,1569,0,0
-140,-545,0,0,0,0,0,0,0,0,0,-1,1084,1569,0,0
-133,-545,0,0,0,0,0,0,0,0,0,-1,1091,1569,0,0
-126,-545,0,0,0,0,0,0,0,0,0,-1,1098,1569,0,0
-119,-545,0,0,0,0,0,0,0,0,0,-1,1105,1569,0,0
-112,-545,0,0,0,0,0,0,0,0,0,-1,1112,1569,0,0
-105,-545,0,0,0,0,0,0,0,0,0,-1,1119,1569,0,0
-98,-545,0,0,0,0,0,0,0,0,0,-1,1126,1569,0,0
-91,-545,0,0,0,0,0,0,0,0,0,-1,1133,1569,0,0
-84,-545,0,0,0,0,0,0,0,0,0,-1,1140,1569,0,0
-77,-545,0,0,0,0,0,0,0,0,0,-1,1147,1569,0,0
-70,-545,0,0,0,0,0,0,0,0,0,-1,1154,1569,0,0
-63,-545,0,0,0,0,0,0,0,0,0,-1,1161,1569,0,0
-56,-545,0,0,0,0,0,0,0,0,0,-1,1168,1569,0,0
-49,-545,0,0,0,0,0,0,0,0,0,-1,1175,1569,0,0
-42,-545,0,0,0,0,0,0,0,0,0,-1,1182,1569,0,0
-35,-545,0,0,0,0,0,0,0,0,0,-1,1189,1569,0,0
-28,-545,0,0,0,0,0,0,0,0,0,-1,1196,1569,0,0
-21,-545,0,0,0,0,0,0,0,0,0,-1,1203,1569,0,0
-14,-545,0,0,0,0,0,0,0,0,0,-1,1210,1569,0,0
-7,-545,0,0,0,0,0,0,0,0,0,-1,1217,1569,0,0
0,-545,0,0,0,0,0,0,0,0,0,-1,1224,1569,0,0
7,-545,0,0,0,0,0,0,0,0,0,-1,1231,1569,0,0
14,-545,0,0,0,0,0,0,0,0,0,-1,1238,1569,0,0
21,-545,0,0,0,0,0,0,0,0,0,-1,1245,1569,0,0
28,-545,0,0,0,0,0,0,0,0,0,-1,1252,1569,0,0
35,-545,0,0,0,0,0,0,0,0,0,-1,1259,1569,0,0
42,-545,0,0,0,0,0,0,0,0,0,-1,1266,1569,0,0
49,-545,0,0,0,0,0,0,0,0,0,-1,1273,1569,0,0
56,-545,0,0,0,0,0,0,0,0,0,-1,1280,1569,0,0
63,-545,0,0,0,0,0,0,0,0,0,-1,1287,1569,0,0
70,-545,0,0,0,0,0,0,0,0,0,-1,1294,1569,0,0
77,-545,0,0,0,0,0,0,0,0,0,-1,1301,1569,0,0
84,-545,0,0,0,0,0,0,0,0,0,-1,1308,1569,0,0
91,-545,0,0,0,0,0,0,0,0,0,-1,1315,1569,0,0
98,-545,0,0,0,0,0,0,0,0,0,-1,1322,1569,0,0
105,-545,0,0,0,0,0,0,0,0,0,-1,1329,1569,0,0
112,-545,0,0,0,0,0,0,0,0,0,-1,1336,1569,0,0
119,-545,0,0,0,0,0,0,0,0,0,-1,1343,1569,0,0
126,-545,0,0,0,0,0,0,0,0,0,-1,1350,1569,0,0
133,-545,0,0,0,0,0,0,0,0,0,-1,1357,1569,0,0
140,-545,0,0,0,0,0,0,0,0,0,-1,1364,1569,0,0
147,-545,0,0,0,0,0,0,0,0,0,-1,1371,1569,0,0
154,-545,0,0,0,0,0,0,0,0,0,-1,1378,1569,0,0
161,-545,0,0,0,0,0,0,0,0,0,-1,1385,1569,0,0
168,-545,0,0,0,0,0,0,0,0,0,-1,1392,1569,0,0
175,-545,0,0,0,0,0,0,0,0,0,-1,1399,1569,0,0
182,-545,0,0,0,0,0,0,0,0,0,-1,1406,1569,0,0
189,-545,0,0,0,0,0,0,0,0,0,-1,1413,1569,0,0
196,-545,0,0,0,0,0,0,0,0,0,-1,1420,1569,0,0
203,-545,0,0,0,0,0,0,0,0,0,-1,1427,1569,0,0
210,-545,0,0,0,0,0,0,0,0,0,-1,1434,1569,0,0
217,-545,0,0,0,0,0,0,0,0,0,-1,1441,1569,0,0
224,-545,0,0,0,0,0,0,0,0,0,-1,1448,1569,0,0
231,-545,0,0,0,0,0,0,0,0,0,-1,1455,1569,0,0
238,-545,0,0,0,0,0,0,0,0,0,-1,1462,1569,0,0
245,-545,0,0,0,0,0,0,0,0,0,-1,1469,1569,0,0
252,-545,0,0,0,0,0,0,0,0,0,-1,1476,1569,0,0
259,-545,0,0,0,0,0,0,0,0,0,-1,1483,1569,0,0
266,-545,0,0,0,0,0,0,0,0,0,-1,1490,1569,0,0
273,-545,0,0,0,0,0,0,0,0,0,-1,1497,1569,0,0
280,-545,0,0,0,0,0,0,0,0,0,-1,1504,1569,0,0
287,-545,0,0,0,0,0,0,0,0,0,-1,1511,1569,0,0
294,-545,0,0,0,0,0,0,0,0,0,-1,1518,1569,0,0
301,-545,0,0,0,0,0,0,0,0,0,-1,1525,1569,0,0
308,-545,0,0,0,0,0,0,0,0,0,-1,1532,1569,0,0
315,-545,0,0,0,0,0,0,0,0,0,-1,1539,1569,0,0
322,-545,0,0,0,0,0,0,0,0,0,-1,1546,1569,0,0
329,-545,0,0,0,0,0,0,0,0,0,-1,1553,1569,0,0
336,-545,0,0,0,0,0,0,0,0,0,-1,1560,1569,0,0
343,-545,0,0,0,0,0,0,0,0,0,-1,1567,1569,0,0
350,-545,0,0,0,0,0,0,0,0,0,-1,1574,1569,0,0
357,-545,0,0,0,0,0,0,0,0,0,-1,1581,1569,0,0
364,-545,7.19495,4.88098,0,0,0,0,0,0,0,-1,1588,1569,7.19497,-4.88095
371,-545,7.82324,3.84302,0,0,0,0,0,0,0,-1,1595,1569,7.82324,-3.84307
378,-545,7.24146,4.54224,0,0,0,0,0,0,0,-1,1602,1569,7.24145,-4.54226
385,-545,8.58447,1.16125,0,0,0,0,0,0,0,-1,1609,1569,8.5845,-1.1612
392,-545,12.5654,3.89526,0,0,0,0,0,0,0,-1,1616,1569,12.5655,-3.89532
399,-545,11.5869,5.6333,0,0,0,0,0,0,0,-1,1623,1569,11.5869,-5.63326
406,-545,11.234,6.36414,0,0,0,0,0,0,0,-1,1630,1569,11.234,-6.3641
413,-545,12.1521,13.4817,0,0,0,0,0,0,0,-1,1637,1569,12.1521,-13.4817
420,-545,11.1954,13.6047,0,0,0,0,0,0,0,-1,1644,1569,11.1954,-13.6047
427,-545,10.6846,15.2721,0,0,0,0,0,0,0,-1,1651,1569,10.6846,-15.2721
434,-545,10.798,14.6888,0.00391103,0.027437,0.0387837,0.0562023,-0.0248543,0.932638,0.0479504,0.0479403,1658,1569,10.798,-14.6889
441,-545,11.0586,14.2018,-0.00393611,0.0117907,0.0381908,0.0429192,-0.0350646,0.886929,0.0451001,0.0444967,1665,1569,11.0586,-14.2017
448,-545,10.9125,13.7856,0,0,0,0,0,0,0,-1,1672,1569,10.9125,-13.7856
455,-545,10.7087,13.4678,0,0,0,0,0,0,0,-1,1679,1569,10.7088,-13.4677
462,-545,9.69922,13.406,0,0,0,0,0,0,0,-1,1686,1569,9.69925,-13.406
469,-545,9.9364,12.7609,-0.0195006,-0.0114993,0.0276244,0.0124127,-0.0434126,0.85731,0.0338467,0.049667,1693,1569,9.93638,-12.7609
476,-545,9.5498,13.1938,-0.018802,-0.0126498,0.0240803,0.00855013,-0.0400019,0.848925,0.0299279,0.0402426,1700,1569,9.54985,-13.1939
483,-545,9.51685,13.194,-0.0172594,-0.0121498,0.0205255,0.00597934,-0.0353885,0.847314,0.0258173,0.0155335,1707,1569,9.51689,-13.194
490,-545,9.49023,12.9973,-0.0159732,-0.0117359,0.0174416,0.00371525,-0.0314244,0.845837,0.0222914,0.0119114,1714,1569,9.49019,-12.9973
497,-545,9.49597,12.7949,-0.013776,-0.0101418,0.0142617,0.00241805,-0.0263358,0.848761,0.0184162,0.0162148,1721,1569,9.49592,-12.7949
504,-545,9.51892,12.5582,-0.0108299,-0.00759107,0.0112688,0.00217412,-0.0205951,0.856763,0.0145092,0.0158942,1728,1569,9.51897,-12.5582
511,-545,9.50403,12.3158,-0.0080127,-0.0053939,0.00854555,0.00194199,-0.0153486,0.86142,0.0109373,0.0116654,1735,1569,9.50397,-12.3159
518,-545,9.49487,12.0757,-0.00553843,-0.00364573,0.0061831,0.00166302,-0.0108472,0.861336,0.00784477,0.0128223,1742,1569,9.49488,-12.0756
525,-545,9.49719,11.8568,-0.00325238,-0.00200744,0.00406703,0.00148448,-0.0067443,0.861335,0.00506409,0.0131685,1749,1569,9.49714,-11.8569
532,-545,9.50513,11.6338,-0.0012382,-0.000920465,0.00240275,0.00132867,-0.00348733,0.81841,0.00287212,0.0135834,1756,1569,9.50516,-11.6338
539,-545,9.495,11.3958,0.000634336,-1.598e-05,0.000915682,0.00128088,-0.000662523,0.614793,0.0011408,0.0162031,1763,1569,9.49504,-11.3957
546,-545,9.48035,11.1442,0.00227247,0.000774859,-0.00027507,0.0023214,0.000725934,-0.176021,0.00137124,0.0173152,1770,1569,9.48036,-11.1442
553,-545,9.54688,10.8724,0.00368152,0.0015053,-0.00109985,0.00414055,0.00104627,-0.395382,0.00248611,0.0247445,1777,1569,9.54685,-10.8724
560,-545,9.57068,10.5916,0.00513261,0.00232373,-0.00181108,0.00602,0.00143634,-0.455597,0.00363053,0.0261268,1784,1569,9.57073,-10.5916
567,-545,9.41943,10.4081,0.00634973,0.0029438,-0.00227994,0.0074925,0.00180103,-0.464631,0.004516,0.0423509,1791,1569,9.41949,-10.4081
574,-545,9.36768,10.1517,0.00826326,0.00369638,-0.00312872,0.00985319,0.00210645,-0.470164,0.00599137,0.0354985,1798,1569,9.36773,-10.1517
581,-545,9.46423,9.84595,0.011614,0.00436292,-0.00418536,0.0135257,0.00245115,-0.428475,0.00832133,0.0477797,1805,1569,9.46418,-9.84592
588,-545,9.50073,9.57678,0,0,0,0,0,0,0,-1,1812,1569,9.50071,-9.57678
595,-545,10.4009,8.23193,0,0,0,0,0,0,0,-1,1819,1569,10.4009,-8.23194
602,-545,8.82117,6.32214,0,0,0,0,0,0,0,-1,1826,1569,8.82121,-6.32217
609,-545,10.2406,5.22351,0,0,0,0,0,0,0,-1,1833,1569,10.2406,-5.22353
616,-545,11.701,3.93188,0,0,0,0,0,0,0,-1,1840,1569,11.701,-3.93191
623,-545,13.2139,2.32043,0,0,0,0,0,0,0,-1,1847,1569,13.2139,-2.32042
630,-545,0,0,0,0,0,0,0,0,0,-1,1854,1569,0,0
637,-545,0,0,0,0,0,0,0,0,0,-1,1861,1569,0,0
644,-545,0,0,0,0,0,0,0,0,0,-1,1868,1569,0,0
651,-545,0,0,0,0,0,0,0,0,0,-1,1875,1569,0,0
658,-545,0,0,0,0,0,0,0,0,0,-1,1882,1569,0,0
665,-545,0,0,0,0,0,0,0,0,0,-1,1889,1569,0,0
672,-545,0,0,0,0,0,0,0,0,0,-1,1896,1569,0,0
679,-545,0,0,0,0,0,0,0,0,0,-1,1903,1569,0,0
686,-545,0,0,0,0,0,0,0,0,0,-1,1910,1569,0,0
693,-545,0,0,0,0,0,0,0,0,0,-1,1917,1569,0,0
700,-545,0,0,0,0,0,0,0,0,0,-1,1924,1569,0,0
707,-545,0,0,0,0,0,0,0,0,0,-1,1931,1569,0,0
714,-545,0,0,0,0,0,0,0,0,0,-1,1938,1569,0,0
721,-545,0,0,0,0,0,0,0,0,0,-1,1945,1569,0,0
728,-545,0,0,0,0,0,0,0,0,0,-1,1952,1569,0,0
735,-545,0,0,0,0,0,0,0,0,0,-1,1959,1569,0,0
742,-545,0,0,0,0,0,0,0,0,0,-1,1966,1569,0,0
749,-545,0,0,0,0,0,0,0,0,0,-1,1973,1569,0,0
756,-545,0,0,0,0,0,0,0,0,0,-1,1980,1569,0,0
763,-545,0,0,0,0,0,0,0,0,0,-1,1987,1569,0,0
770,-545,0,0,0,0,0,0,0,0,0,-1,1994,1569,0,0
777,-545,0,0,0,0,0,0,0,0,0,-1,2001,1569,0,0
784,-545,0,0,0,0,0,0,0,0,0,-1,2008,1569,0,0
791,-545,0,0,0,0,0,0,0,0,0,-1,2015,1569,0,0
798,-545,0,0,0,0,0,0,0,0,0,-1,2022,1569,0,0
805,-545,0,0,0,0,0,0,0,0,0,-1,2029,1569,0,0
812,-545,0,0,0,0,0,0,0,0,0,-1,2036,1569,0,0
-700,-552,0,0,0,0,0,0,0,0,0,-1,524,1576,0,0
-693,-552,0,0,0,0,0,0,0,0,0,-1,531,1576,0,0
-686,-552,0,0,0,0,0,0,0,0,0,-1,538,1576,0,0
-679,-552,0,0,0,0,0,0,0,0,0,-1,545,1576,0,0
-672,-552,0,0,0,0,0,0,0,0,0,-1,552,1576,0,0
-665,-552,0,0,0,0,0,0,0,0,0,-1,559,1576,0,0
-658,-552,0,0,0,0,0,0,0,0,0,-1,566,1576,0,0
-651,-552,0,0,0,0,0,0,0,0,0,-1,573,1576,0,0
-644,-552,0,0,0,0,0,0,0,0,0,-1,580,1576,0,0
-637,-552,0,0,0,0,0,0,0,0,0,-1,587,1576,0,0
-630,-552,0,0,0,0,0,0,0,0,0,-1,594,1576,0,0
-623,-552,0,0,0,0,0,0,0,0,0,-1,601,1576,0,0
-616,-552,0,0,0,0,0,0,0,0,0,-1,608,1576,0,0
-609,-552,0,0,0,0,0,0,0,0,0,-1,615,1576,0,0
-602,-552,0,0,0,0,0,0,0,0,0,-1,622,1576,0,0
-595,-552,0,0,0,0,0,0,0,0,0,-1,629,1576,0,0
-588,-552,0,0,0,0,0,0,0,0,0,-1,636,1576,0,0
-581,-552,0,0,0,0,0,0,0,0,0,-1,643,1576,0,0
-574,-552,0,0,0,0,0,0,0,0,0,-1,650,1576,0,0
-567,-552,0,0,0,0,0,0,0,0,0,-1,657,1576,0,0
-560,-552,0,0,0,0,0,0,0,0,0,-1,664,1576,0,0
-553,-552,0,0,0,0,0,0,0,0,0,-1,671,1576,0,0
-546,-552,0,0,0,0,0,0,0,0,0,-1,678,1576,0,0
-539,-552,0,0,0,0,0,0,0,0,0,-1,685,1576,0,0
-532,-552,0,0,0,0,0,0,0,0,0,-1,692,1576,0,0
-525,-552,0,0,0,0,0,0,0,0,0,-1,699,1576,0,0
-518,-552,0,0,0,0,0,0,0,0,0,-1,706,1576,0,0
-511,-552,0,0,0,0,0,0,0,0,0,-1,713,1576,0,0
-504,-552,0,0,0,0,0,0,0,0,0,-1,720,1576,0,0
-497,-552,1.51282,3.96924,0,0,0,0,0,0,0,-1,727,1576,1.5128,-3.96924
-490,-552,1.07428,4.69812,0,0,0,0,0,0,0,-1,734,1576,1.07429,-4.69816
-483,-552,0.41156,5.25769,0,0,0,0,0,0,0,-1,741,1576,0.411537,-5.25764
-476,-552,-0.19696,5.93909,0,0,0,0,0,0,0,-1,748,1576,-0.196953,-5.93912
-469,-552,-0.0175781,4.98071,0,0,0,0,0,0,0,-1,755,1576,-0.0176045,-4.98074
-462,-552,0.0148926,7.35974,0,0,0,0,0,0,0,-1,762,1576,0.0148901,-7.3597
-455,-552,0.210571,7.85376,0,0,0,0,0,0,0,-1,769,1576,0.210581,-7.85372
-448,-552,0.40625,8.34778,0,0,0,0,0,0,0,-1,776,1576,0.406272,-8.34775
-441,-552,0.476013,8.4198,0.00254385,0.00666092,0.00457649,0.00962054,-0.000415769,0.996745,0.00655668,0.0382758,783,1576,0.476027,-8.41978
-434,-552,0.385132,8.99866,0.00152456,0.00292,0.00314302,0.00544181,-0.000997252,0.894622,0.00400193,0.0206801,790,1576,0.38516,-8.99866
-427,-552,0.340332,9.18762,0.00074045,0.00128647,0.00212307,0.00315401,-0.00112709,0.849344,0.00256238,0.0161726,797,1576,0.340358,-9.18766
-420,-552,0.375488,9.47302,0.000198849,0.000866258,0.00138323,0.00195547,-0.000890359,0.903762,0.00168096,0.0189434,804,1576,0.375481,-9.47308
-413,-552,0.363281,9.73877,-0.000228799,0.000644487,0.000851886,0.00116511,-0.000749426,1.02222,0.00111401,0.0172398,811,1576,0.3633,-9.73881
-406,-552,0.329712,10.0197,-0.00032792,-7.14827e-05,0.000466677,0.000284269,-0.000683672,0.919464,0.000574481,0.0132099,818,1576,0.329698,-10.0197
-399,-552,0.32666,10.2795,-0.000313278,-0.000850165,3.70459e-05,-0.000310734,-0.000852709,0.0685683,0.000498309,0.0126933,825,1576,0.326677,-10.2795
-392,-552,0.305115,10.5361,-7.78772e-05,-0.00150195,-0.000423461,3.85279e-05,-0.00161835,-0.268264,0.00109197,0.0137216,832,1576,0.3051,-10.5361
-385,-552,0.296814,10.8053,0.000252901,-0.0020334,-0.000926849,0.00058143,-0.00236193,-0.340641,0.00180001,0.0132074,839,1576,0.296786,-10.8053
-378,-552,0.303284,11.0596,0.000528269,-0.00231755,-0.00126407,0.00100866,-0.00279794,-0.363176,0.00227724,0.0148821,846,1576,0.303273,-11.0596
-371,-552,0.294128,11.313,0.000665007,-0.0023469,-0.00162267,0.00137286,-0.00305476,-0.411344,0.00261705,0.0195729,853,1576,0.294154,-11.313
-364,-552,0.316406,11.5625,0.000572679,-0.00199586,-0.00197945,0.00164798,-0.00307116,-0.497633,0.00276559,0.0154681,860,1576,0.316424,-11.5626
-357,-552,0.350281,11.8264,0.000176925,-0.00141638,-0.00256695,0.002068,-0.00330745,-0.634936,0.0031309,0.0102431,867,1576,0.350306,-11.8264
-350,-552,0.346619,12.0878,-0.000232264,-0.000771921,-0.0032711,0.00278012,-0.0037843,-0.744247,0.00380472,0.0093416,874,1576,0.346622,-12.0877
-343,-552,0.321289,12.325,-0.000965096,0.000217509,-0.00405175,0.00372087,-0.00446846,-0.857855,0.00473468,0.0100371,881,1576,0.321313,-12.325
-336,-552,0.35614,12.5211,-0.00214527,0.00110567,-0.00532902,0.00505161,-0.00609121,-0.933427,0.00644264,0.0170102,888,1576,0.356165,-12.5211
-329,-552,0.383606,12.8818,-0.00367196,0.00227535,-0.00679466,0.00671856,-0.00811518,-0.991665,0.00857691,0.0344996,895,1576,0.383611,-12.8819
-322,-552,0.504578,13.3945,0,0,0,0,0,0,0,-1,902,1576,0.504549,-13.3946
-315,-552,0.53009,14.0261,0,0,0,0,0,0,0,-1,909,1576,0.530079,-14.0261
-308,-552,-0.241028,13.7336,0,0,0,0,0,0,0,-1,916,1576,-0.241037,-13.7336
-301,-552,0.89563,14.8687,0,0,0,0,0,0,0,-1,923,1576,0.895636,-14.8687
-294,-552,0.842163,13.7863,0,0,0,0,0,0,0,-1,930,1576,0.842149,-13.7863
-287,-552,-0.663757,13.3474,0,0,0,0,0,0,0,-1,937,1576,-0.663744,-13.3474
-280,-552,-5.47241,8.96765,0,0,0,0,0,0,0,-1,944,1576,-5.47239,-8.96766
-273,-552,1.64587,10.6685,0,0,0,0,0,0,0,-1,951,1576,1.6459,-10.6685
-266,-552,-1.32678,8.05688,0,0,0,0,0,0,0,-1,958,1576,-1.32677,-8.05683
-259,-552,-5.54321,8.31213,0,0,0,0,0,0,0,-1,965,1576,-5.54324,-8.31214
-252,-552,-1.93445,7.81543,0,0,0,0,0,0,0,-1,972,1576,-1.93445,-7.81546
-245,-552,-2.53613,6.92212,0,0,0,0,0,0,0,-1,979,1576,-2.53614,-6.92216
-238,-552,-6.5365,2.81885,0,0,0,0,0,0,0,-1,986,1576,-6.53649,-2.8188
-231,-552,-4.32239,4.34583,0,0,0,0,0,0,0,-1,993,1576,-4.32239,-4.34587
-224,-552,0,0,0,0,0,0,0,0,0,-1,1000,1576,0,0
-217,-552,0,0,0,0,0,0,0,0,0,-1,1007,1576,0,0
-210,-552,0,0,0,0,0,0,0,0,0,-1,1014,1576,0,0
-203,-552,0,0,0,0,0,0,0,0,0,-1,1021,1576,0,0
-196,-552,0,0,0,0,0,0,0,0,0,-1,1028,1576,0,0
-189,-552,0,0,0,0,0,0,0,0,0,-1,1035,1576,0,0
-182,-552,0,0,0,0,0,0,0,0,0,-1,1042,1576,0,0
-175,-552,0,0,0,0,0,0,0,0,0,-1,1049,1576,0,0
-168,-552,0,0,0,0,0,0,0,0,0,-1,1056,1576,0,0
-161,-552,0,0,0,0,0,0,0,0,0,-1,1063,1576,0,0
-154,-552,0,0,0,0,0,0,0,0,0,-1,1070,1576,0,0
-147,-552,0,0,0,0,0,0,0,0,0,-1,1077,1576,0,0
-140,-552,0,0,0,0,0,0,0,0,0,-1,1084,1576,0,0
-133,-552,0,0,0,0,0,0,0,0,0,-1,1091,1576,0,0
-126,-552,0,0,0,0,0,0,0,0,0,-1,1098,1576,0,0
-119,-552,0,0,0,0,0,0,0,0,0,-1,1105,1576,0,0
-112,-552,0,0,0,0,0,0,0,0,0,-1,1112,1576,0,0
-105,-552,0,0,0,0,0,0,0,0,0,-1,1119,1576,0,0
-98,-552,0,0,0,0,0,0,0,0,0,-1,1126,1576,0,0
-91,-552,0,0,0,0,0,0,0,0,0,-1,1133,1576,0,0
-84,-552,0,0,0,0,0,0,0,0,0,-1,1140,1576,0,0
-77,-552,0,0,0,0,0,0,0,0,0,-1,1147,1576,0,0
-70,-552,0,0,0,0,0,0,0,0,0,-1,1154,1576,0,0
-63,-552,0,0,0,0,0,0,0,0,0,-1,1161,1576,0,0
-56,-552,0,0,0,0,0,0,0,0,0,-1,1168,1576,0,0
-49,-552,0,0,0,0,0,0,0,0,0,-1,1175,1576,0,0
-42,-552,0,0,0,0,0,0,0,0,0,-1,1182,1576,0,0
-35,-552,0,0,0,0,0,0,0,0,0,-1,1189,1576,0,0
-28,-552,0,0,0,0,0,0,0,0,0,-1,1196,1576,0,0
-21,-552,0,0,0,0,0,0,0,0,0,-1,1203,1576,0,0
-14,-552,0,0,0,0,0,0,0,0,0,-1,1210,1576,0,0
-7,-552,0,0,0,0,0,0,0,0,0,-1,1217,1576,0,0
0,-552,0,0,0,0,0,0,0,0,0,-1,1224,1576,0,0
7,-552,0,0,0,0,0,0,0,0,0,-1,1231,1576,0,0
14,-552,0,0,0,0,0,0,0,0,0,-1,1238,1576,0,0
21,-552,0,0,0,0,0,0,0,0,0,-1,1245,1576,0,0
28,-552,0,0,0,0,0,0,0,0,0,-1,1252,1576,0,0
35,-552,0,0,0,0,0,0,0,0,0,-1,1259,1576,0,0
42,-552,0,0,0,0,0,0,0,0,0,-1,1266,1576,0,0
49,-552,0,0,0,0,0,0,0,0,0,-1,1273,1576,0,0
56,-552,0,0,0,0,0,0,0,0,0,-1,1280,1576,0,0
63,-552,0,0,0,0,0,0,0,0,0,-1,1287,1576,0,0
70,-552,0,0,0,0,0,0,0,0,0,-1,1294,1576,0,0
77,-552,0,0,0,0,0,0,0,0,0,-1,1301,1576,0,0
84,-552,0,0,0,0,0,0,0,0,0,-1,1308,1576,0,0
91,-552,0,0,0,0,0,0,0,0,0,-1,1315,1576,0,0
98,-552,0,0,0,0,0,0,0,0,0,-1,1322,1576,0,0
105,-552,0,0,0,0,0,0,0,0,0,-1,1329,1576,0,0
112,-552,0,0,0,0,0,0,0,0,0,-1,1336,1576,0,0
119,-552,0,0,0,0,0,0,0,0,0,-1,1343,1576,0,0
126,-552,0,0,0,0,0,0,0,0,0,-1,1350,1576,0,0
133,-552,0,0,0,0,0,0,0,0,0,-1,1357,1576,0,0
140,-552,0,0,0,0,0,0,0,0,0,-1,1364,1576,0,0
147,-552,0,0,0,0,0,0,0,0,0,-1,1371,1576,0,0
154,-552,0,0,0,0,0,0,0,0,0,-1,1378,1576,0,0
161,-552,0,0,0,0,0,0,0,0,0,-1,1385,1576,0,0
168,-552,0,0,0,0,0,0,0,0,0,-1,1392,1576,0,0
175,-552,0,0,0,0,0,0,0,0,0,-1,1399,1576,0,0
182,-552,0,0,0,0,0,0,0,0,0,-1,1406,1576,0,0
189,-552,0,0,0,0,0,0,0,0,0,-1,1413,1576,0,0
196,-552,0,0,0,0,0,0,0,0,0,-1,1420,1576,0,0
203,-552,0,0,0,0,0,0,0,0,0,-1,1427,1576,0,0
210,-552,0,0,0,0,0,0,0,0,0,-1,1434,1576,0,0
217,-552,0,0,0,0,0,0,0,0,0,-1,1441,1576,0,0
224,-552,0,0,0,0,0,0,0,0,0,-1,1448,1576,0,0
231,-552,0,0,0,0,0,0,0,0,0,-1,1455,1576,0,0
238,-552,0,0,0,0,0,0,0,0,0,-1,1462,1576,0,0
245,-552,0,0,0,0,0,0,0,0,0,-1,1469,1576,0,0
252,-552,0,0,0,0,0,0,0,0,0,-1,1476,1576,0,0
259,-552,0,0,0,0,0,0,0,0,0,-1,1483,1576,0,0
266,-552,0,0,0,0,0,0,0,0,0,-1,1490,1576,0,0
273,-552,0,0,0,0,0,0,0,0,0,-1,1497,1576,0,0
280,-552,0,0,0,0,0,0,0,0,0,-1,1504,1576,0,0
287,-552,0,0,0,0,0,0,0,0,0,-1,1511,1576,0,0
294,-552,0,0,0,0,0,0,0,0,0,-1,1518,1576,0,0
301,-552,0,0,0,0,0,0,0,0,0,-1,1525,1576,0,0
308,-552,0,0,0,0,0,0,0,0,0,-1,1532,1576,0,0
315,-552,0,0,0,0,0,0,0,0,0,-1,1539,1576,0,0
322,-552,0,0,0,0,0,0,0,0,0,-1,1546,1576,0,0
329,-552,0,0,0,0,0,0,0,0,0,-1,1553,1576,0,0
336,-552,0,0,0,0,0,0,0,0,0,-1,1560,1576,0,0
343,-552,0,0,0,0,0,0,0,0,0,-1,1567,1576,0,0
350,-552,4.97876,4.09888,0,0,0,0,0,0,0,-1,1574,1576,4.97875,-4.09883
357,-552,5.18469,4.10706,0,0,0,0,0,0,0,-1,1581,1576,5.1847,-4.10702
364,-552,5.80872,5.07031,0,0,0,0,0,0,0,-1,1588,1576,5.80874,-5.07037
371,-552,7.10657,5.64783,0,0,0,0,0,0,0,-1,1595,1576,7.10651,-5.64786
378,-552,6.44446,4.91492,0,0,0,0,0,0,0,-1,1602,1576,6.44448,-4.91496
385,-552,12.8276,3.16504,0,0,0,0,0,0,0,-1,1609,1576,12.8276,-3.16503
392,-552,12.1301,4.3363,0,0,0,0,0,0,0,-1,1616,1576,12.1302,-4.33631
399,-552,11.3486,5.6012,0,0,0,0,0,0,0,-1,1623,1576,11.3486,-5.60115
406,-552,10.7863,6.42542,0,0,0,0,0,0,0,-1,1630,1576,10.7863,-6.42536
413,-552,8.39307,10.365,0,0,0,0,0,0,0,-1,1637,1576,8.3931,-10.365
420,-552,10.2306,12.7225,0,0,0,0,0,0,0,-1,1644,1576,10.2305,-12.7226
427,-552,9.88354,14.6724,0,0,0,0,0,0,0,-1,1651,1576,9.88358,-14.6724
434,-552,10.0486,14.2406,0.000667543,0.0167462,0.0335453,0.0432021,-0.0257883,0.903008,0.0402524,0.0481406,1658,1576,10.0486,-14.2406
441,-552,10.2109,13.844,-0.00467329,0.00649686,0.0318919,0.033289,-0.0314654,0.872082,0.0373909,0.0450169,1665,1576,10.211,-13.844
448,-552,10.0326,13.4846,0,0,0,0,0,0,0,-1,1672,1576,10.0325,-13.4847
455,-552,9.99304,13.5266,-0.0123383,-0.00461671,0.0272744,0.0190688,-0.0360239,0.855708,0.032306,0.0449305,1679,1576,9.99301,-13.5266
462,-552,9.56653,13.5642,-0.0138318,-0.00774329,0.0243568,0.0137588,-0.0353339,0.847569,0.0292418,0.0428734,1686,1576,9.5665,-13.5642
469,-552,9.34668,13.509,-0.0140995,-0.00951411,0.0213594,0.0096753,-0.0332889,0.838863,0.0260243,0.0384955,1693,1576,9.34664,-13.5091
476,-552,9.2312,13.4347,-0.0134548,-0.0101516,0.0183748,0.00664567,-0.030252,0.830219,0.0227097,0.0193806,1700,1576,9.23125,-13.4347
483,-552,9.27881,13.2118,-0.0121979,-0.00958812,0.0154604,0.00462237,-0.0264084,0.827499,0.0193315,0.0158105,1707,1576,9.27886,-13.2117
490,-552,9.27991,13.0194,-0.0110975,-0.00915292,0.0129198,0.00283117,-0.0230816,0.822955,0.016413,0.014779,1714,1576,9.27993,-13.0194
497,-552,9.28308,12.8126,-0.00931958,-0.00782112,0.0103006,0.00175748,-0.0188982,0.821702,0.0132236,0.0220272,1721,1576,9.28303,-12.8126
504,-552,9.28406,12.5607,-0.00698244,-0.00568466,0.00789077,0.00158386,-0.014251,0.826423,0.0100702,0.0240039,1728,1576,9.2841,-12.5607
511,-552,9.26501,12.3098,-0.00470081,-0.00380102,0.00567588,0.00144277,-0.0099446,0.824948,0.00715928,0.017476,1735,1576,9.26505,-12.3098
518,-552,9.27197,12.0773,-0.00270589,-0.00231525,0.00374864,0.00124316,-0.0062643,0.811426,0.00464636,0.0144352,1742,1576,9.272,-12.0773
525,-552,9.27405,11.858,-0.000837921,-0.000947559,0.00204141,0.00114941,-0.00293489,0.771975,0.00243202,0.0130974,1749,1576,9.274,-11.858
532,-552,9.28748,11.6272,0.000849584,-5.76067e-05,0.000727624,0.00125342,-0.000461441,0.506677,0.00102467,0.0146126,1756,1576,9.28751,-11.6272
539,-552,9.24719,11.3835,0.00248161,0.000667529,-0.00045087,0.00258749,0.00056165,-0.230654,0.00157159,0.0179777,1763,1576,9.24721,-11.3835
546,-552,9.22363,11.1456,0.00388573,0.0011524,-0.00125154,0.00437221,0.000665923,-0.370729,0.00272014,0.020835,1770,1576,9.22367,-11.1456
553,-552,9.31677,10.8589,0.00508318,0.00177523,-0.00168211,0.00578826,0.00107016,-0.396916,0.0035562,0.023675,1777,1576,9.31673,-10.8589
560,-552,9.44763,10.5562,0,0,0,0,0,0,0,-1,1784,1576,9.44765,-10.5561
567,-552,9.35388,10.1908,0,0,0,0,0,0,0,-1,1791,1576,9.35386,-10.1908
574,-552,9.32629,10.0642,0,0,0,0,0,0,0,-1,1798,1576,9.3263,-10.0642
581,-552,9.34875,9.75342,0,0,0,0,0,0,0,-1,1805,1576,9.3487,-9.75339
588,-552,10.5619,9.34924,0,0,0,0,0,0,0,-1,1812,1576,10.5619,-9.34921
595,-552,5.36194,6.62744,0,0,0,0,0,0,0,-1,1819,1576,5.36193,-6.62742
602,-552,10.6863,4.31616,0,0,0,0,0,0,0,-1,1826,1576,10.6862,-4.31619
609,-552,12.146,3.18286,0,0,0,0,0,0,0,-1,1833,1576,12.1459,-3.18281
616,-552,13.8762,2.08167,0,0,0,0,0,0,0,-1,1840,1576,13.8763,-2.08167
623,-552,0,0,0,0,0,0,0,0,0,-1,1847,1576,0,0
630,-552,0,0,0,0,0,0,0,0,0,-1,1854,1576,0,0
637,-552,0,0,0,0,0,0,0,0,0,-1,1861,1576,0,0
644,-552,0,0,0,0,0,0,0,0,0,-1,1868,1576,0,0
651,-552,0,0,0,0,0,0,0,0,0,-1,1875,1576,0,0
658,-552,0,0,0,0,0,0,0,0,0,-1,1882,1576,0,0
665,-552,0,0,0,0,0,0,0,0,0,-1,1889,1576,0,0
672,-552,0,0,0,0,0,0,0,0,0,-1,1896,1576,0,0
679,-552,0,0,0,0,0,0,0,0,0,-1,1903,1576,0,0
686,-552,0,0,0,0,0,0,0,0,0,-1,1910,1576,0,0
693,-552,0,0,0,0,0,0,0,0,0,-1,1917,1576,0,0
700,-552,0,0,0,0,0,0,0,0,0,-1,1924,1576,0,0
707,-552,0,0,0,0,0,0,0,0,0,-1,1931,1576,0,0
714,-552,0,0,0,0,0,0,0,0,0,-1,1938,1576,0,0
721,-552,0,0,0,0,0,0,0,0,0,-1,1945,1576,0,0
728,-552,0,0,0,0,0,0,0,0,0,-1,1952,1576,0,0
735,-552,0,0,0,0,0,0,0,0,0,-1,1959,1576,0,0
742,-552,0,0,0,0,0,0,0,0,0,-1,1966,1576,0,0
749,-552,0,0,0,0,0,0,0,0,0,-1,1973,1576,0,0
756,-552,0,0,0,0,0,0,0,0,0,-1,1980,1576,0,0
763,-552,0,0,0,0,0,0,0,0,0,-1,1987,1576,0,0
770,-552,0,0,0,0,0,0,0,0,0,-1,1994,1576,0,0
777,-552,0,0,0,0,0,0,0,0,0,-1,2001,1576,0,0
784,-552,0,0,0,0,0,0,0,0,0,-1,2008,1576,0,0
791,-552,0,0,0,0,0,0,0,0,0,-1,2015,1576,0,0
798,-552,0,0,0,0,0,0,0,0,0,-1,2022,1576,0,0
805,-552,0,0,0,0,0,0,0,0,0,-1,2029,1576,0,0
812,-552,0,0,0,0,0,0,0,0,0,-1,2036,1576,0,0
-700,-559,0,0,0,0,0,0,0,0,0,-1,524,1583,0,0
-693,-559,0,0,0,0,0,0,0,0,0,-1,531,1583,0,0
-686,-559,0,0,0,0,0,0,0,0,0,-1,538,1583,0,0
-679,-559,0,0,0,0,0,0,0,0,0,-1,545,1583,0,0
-672,-559,0,0,0,0,0,0,0,0,0,-1,552,1583,0,0
-665,-559,0,0,0,0,0,0,0,0,0,-1,559,1583,0,0
-658,-559,0,0,0,0,0,0,0,0,0,-1,566,1583,0,0
-651,-559,0,0,0,0,0,0,0,0,0,-1,573,1583,0,0
-644,-559,0,0,0,0,0,0,0,0,0,-1,580,1583,0,0
-637,-559,0,0,0,0,0,0,0,0,0,-1,587,1583,0,0
-630,-559,0,0,0,0,0,0,0,0,0,-1,594,1583,0,0
-623,-559,0,0,0,0,0,0,0,0,0,-1,601,1583,0,0
-616,-559,0,0,0,0,0,0,0,0,0,-1,608,1583,0,0
-609,-559,0,0,0,0,0,0,0,0,0,-1,615,1583,0,0
-602,-559,0,0,0,0,0,0,0,0,0,-1,622,1583,0,0
-595,-559,0,0,0,0,0,0,0,0,0,-1,629,1583,0,0
-588,-559,0,0,0,0,0,0,0,0,0,-1,636,1583,0,0
-581,-559,0,0,0,0,0,0,0,0,0,-1,643,1583,0,0
-574,-559,0,0,0,0,0,0,0,0,0,-1,650,1583,0,0
-567,-559,0,0,0,0,0,0,0,0,0,-1,657,1583,0,0
-560,-559,0,0,0,0,0,0,0,0,0,-1,664,1583,0,0
-553,-559,0,0,0,0,0,0,0,0,0,-1,671,1583,0,0
-546,-559,0,0,0,0,0,0,0,0,0,-1,678,1583,0,0
-539,-559,0,0,0,0,0,0,0,0,0,-1,685,1583,0,0
-532,-559,0,0,0,0,0,0,0,0,0,-1,692,1583,0,0
-525,-559,0,0,0,0,0,0,0,0,0,-1,699,1583,0,0
-518,-559,0,0,0,0,0,0,0,0,0,-1,706,1583,0,0
-511,-559,0,0,0,0,0,0,0,0,0,-1,713,1583,0,0
-504,-559,0,0,0,0,0,0,0,0,0,-1,720,1583,0,0
-497,-559,0,0,0,0,0,0,0,0,0,-1,727,1583,0,0
-490,-559,0.365601,3.07288,0,0,0,0,0,0,0,-1,734,1583,0.36563,-3.07291
-483,-559,-0.112427,4.25476,0,0,0,0,0,0,0,-1,741,1583,-0.112397,-4.25473
-476,-559,-0.671204,4.94214,0,0,0,0,0,0,0,-1,748,1583,-0.671186,-4.9422
-469,-559,-1.06,4.95776,0,0,0,0,0,0,0,-1,755,1583,-1.05997,-4.95782
-462,-559,-1.28772,5.69495,0,0,0,0,0,0,0,-1,762,1583,-1.28774,-5.69495
-455,-559,0.42627,7.69995,0,0,0,0,0,0,0,-1,769,1583,0.426272,-7.69993
-448,-559,0.413086,7.54138,0,0,0,0,0,0,0,-1,776,1583,0.413092,-7.54135
-441,-559,0.793396,8.09204,0,0,0,0,0,0,0,-1,783,1583,0.793407,-8.09204
-434,-559,0.754578,8.99109,0.00164609,0.00311882,0.0037797,0.00623322,-0.0014683,0.881604,0.00472164,0.0341073,790,1583,0.754562,-8.99104
-427,-559,0.628662,9.29175,0.000469454,0.00117005,0.00243655,0.00328135,-0.00164185,0.856793,0.00289447,0.0229034,797,1583,0.628671,-9.29173
-420,-559,0.576294,9.50195,-0.000299311,0.000636853,0.00151513,0.00175456,-0.00141702,0.935217,0.00183456,0.0246045,804,1583,0.576276,-9.50196
-413,-559,0.591553,9.76257,-0.000844332,0.000421821,0.000883249,0.000875444,-0.00129795,1.09634,0.00126269,0.0130223,811,1583,0.591538,-9.76262
-406,-559,0.583496,10.0339,-0.000964186,-0.000282393,0.000458886,-5.16372e-05,-0.00119494,1.10486,0.000779985,0.0094839,818,1583,0.583498,-10.0339
-399,-559,0.583313,10.2908,-0.000962985,-0.00101614,1.58414e-05,-0.000958622,-0.00102051,0.268737,0.000660677,0.0121601,825,1583,0.583297,-10.2907
-392,-559,0.550049,10.5311,-0.000709539,-0.00157748,-0.000398069,-0.000554621,-0.0017324,-0.371139,0.00102154,0.0148642,832,1583,0.550029,-10.5311
-385,-559,0.5354,10.8036,-0.0003471,-0.00202869,-0.000831132,-5.64405e-06,-0.00237015,-0.389809,0.00157822,0.0160108,839,1583,0.535383,-10.8035
-378,-559,0.559387,11.0707,-9.68074e-06,-0.0021388,-0.0010619,0.000429393,-0.00257787,-0.392073,0.00187815,0.014675,846,1583,0.55941,-11.0707
-371,-559,0.561951,11.3085,0.000210313,-0.00198507,-0.0012891,0.000805756,-0.00258052,-0.432711,0.00204261,0.0215653,853,1583,0.561959,-11.3085
-364,-559,0.587708,11.5309,0.000235176,-0.00149722,-0.00149138,0.00109366,-0.0023557,-0.522307,0.00203544,0.0196025,860,1583,0.587735,-11.5309
-357,-559,0.594788,11.8138,4.28814e-06,-0.000838623,-0.00188182,0.00151127,-0.0023456,-0.675235,0.00224407,0.0115354,867,1583,0.594798,-11.8139
-350,-559,0.590637,12.075,-0.000217414,-0.000181113,-0.00238695,0.00218776,-0.00258628,-0.7892,0.00275949,0.00963282,874,1583,0.590628,-12.075
-343,-559,0.576294,12.3153,-0.000699974,0.000712156,-0.00295745,0.00304666,-0.00303447,-0.902575,0.00351094,0.0109717,881,1583,0.576301,-12.3153
-336,-559,0.557922,12.543,-0.0015543,0.00143014,-0.00396839,0.00417759,-0.00430175,-0.965233,0.00489572,0.0130201,888,1583,0.557903,-12.543
-329,-559,0.611084,12.8778,-0.00270863,0.00229123,-0.00517649,0.00553983,-0.00595724,-1.01035,0.00663929,0.0179909,895,1583,0.611097,-12.8778
-322,-559,0.659302,13.2888,-0.00433632,0.00291026,-0.00687361,0.00705709,-0.00848314,-1.02796,0.00898474,0.0413974,902,1583,0.659316,-13.2888
-315,-559,0.609863,13.5959,-0.00628063,0.00344577,-0.00902394,0.00883353,-0.0116684,-1.03255,0.0118745,0.0409184,909,1583,0.609892,-13.5959
-308,-559,0.179749,13.5588,-0.00817565,0.00332957,-0.0117413,0.0106517,-0.0154978,-1.01319,0.0151836,0.0414161,916,1583,0.179774,-13.5589
-301,-559,0.183777,13.6133,0,0,0,0,0,0,0,-1,923,1583,0.183747,-13.6133
-294,-559,-0.329346,13.3246,0,0,0,0,0,0,0,-1,930,1583,-0.329348,-13.3246
-287,-559,-0.0689697,13.417,0,0,0,0,0,0,0,-1,937,1583,-0.0689534,-13.4169
-280,-559,0.191467,13.5093,0,0,0,0,0,0,0,-1,944,1583,0.191441,-13.5093
-273,-559,2.12836,10.3059,0,0,0,0,0,0,0,-1,951,1583,2.12839,-10.3059
-266,-559,-0.597046,6.68933,0,0,0,0,0,0,0,-1,958,1583,-0.597031,-6.68937
-259,-559,-7.00311,8.62756,0,0,0,0,0,0,0,-1,965,1583,-7.00312,-8.6275
-252,-559,-9.4483,2.87805,0,0,0,0,0,0,0,-1,972,1583,-9.44829,-2.87805
-245,-559,-4.80804,7.1803,0,0,0,0,0,0,0,-1,979,1583,-4.80804,-7.18027
-238,-559,-8.45764,2.54858,0,0,0,0,0,0,0,-1,986,1583,-8.45763,-2.54862
-231,-559,-5.86914,4.34021,0,0,0,0,0,0,0,-1,993,1583,-5.86914,-4.34019
-224,-559,-3.30505,6.22864,0,0,0,0,0,0,0,-1,1000,1583,-3.30505,-6.22859
-217,-559,0,0,0,0,0,0,0,0,0,-1,1007,1583,0,0
-210,-559,0,0,0,0,0,0,0,0,0,-1,1014,1583,0,0
-203,-559,0,0,0,0,0,0,0,0,0,-1,1021,1583,0,0
-196,-559,0,0,0,0,0,0,0,0,0,-1,1028,1583,0,0
-189,-559,0,0,0,0,0,0,0,0,0,-1,1035,1583,0,0
-182,-559,0,0,0,0,0,0,0,0,0,-1,1042,1583,0,0
-175,-559,0,0,0,0,0,0,0,0,0,-1,1049,1583,0,0
-168,-559,0,0,0,0,0,0,0,0,0,-1,1056,1583,0,0
-161,-559,0,0,0,0,0,0,0,0,0,-1,1063,1583,0,0
-154,-559,0,0,0,0,0,0,0,0,0,-1,1070,1583,0,0
-147,-559,0,0,0,0,0,0,0,0,0,-1,1077,1583,0,0
-140,-559,0,0,0,0,0,0,0,0,0,-1,1084,1583,0,0
-133,-559,0,0,0,0,0,0,0,0,0,-1,1091,1583,0,0
-126,-559,0,0,0,0,0,0,0,0,0,-1,1098,1583,0,0
-119,-559,0,0,0,0,0,0,0,0,0,-1,1105,1583,0,0
-112,-559,0,0,0,0,0,0,0,0,0,-1,1112,1583,0,0
-105,-559,0,0,0,0,0,0,0,0,0,-1,1119,1583,0,0
-98,-559,0,0,0,0,0,0,0,0,0,-1,1126,1583,0,0
-91,-559,0,0,0,0,0,0,0,0,0,-1,1133,1583,0,0
-84,-559,0,0,0,0,0,0,0,0,0,-1,1140,1583,0,0
-77,-559,0,0,0,0,0,0,0,0,0,-1,1147,1583,0,0
-70,-559,0,0,0,0,0,0,0,0,0,-1,1154,1583,0,0
-63,-559,0,0,0,0,0,0,0,0,0,-1,1161,1583,0,0
-56,-559,0,0,0,0,0,0,0,0,0,-1,1168,1583,0,0
-49,-559,0,0,0,0,0,0,0,0,0,-1,1175,1583,0,0
-42,-559,0,0,0,0,0,0,0,0,0,-1,1182,1583,0,0
-35,-559,0,0,0,0,0,0,0,0,0,-1,1189,1583,0,0
-28,-559,0,0,0,0,0,0,0,0,0,-1,1196,1583,0,0
-21,-559,0,0,0,0,0,0,0,0,0,-1,1203,1583,0,0
-14,-559,0,0,0,0,0,0,0,0,0,-1,1210,1583,0,0
-7,-559,0,0,0,0,0,0,0,0,0,-1,1217,1583,0,0
0,-559,0,0,0,0,0,0,0,0,0,-1,1224,1583,0,0
7,-559,0,0,0,0,0,0,0,0,0,-1,1231,1583,0,0
14,-559,0,0,0,0,0,0,0,0,0,-1,1238,1583,0,0
21,-559,0,0,0,0,0,0,0,0,0,-1,1245,1583,0,0
28,-559,0,0,0,0,0,0,0,0,0,-1,1252,1583,0,0
35,-559,0,0,0,0,0,0,0,0,0,-1,1259,1583,0,0
42,-559,0,0,0,0,0,0,0,0,0,-1,1266,1583,0,0
49,-559,0,0,0,0,0,0,0,0,0,-1,1273,1583,0,0
56,-559,0,0,0,0,0,0,0,0,0,-1,1280,1583,0,0
63,-559,0,0,0,0,0,0,0,0,0,-1,1287,1583,0,0
70,-559,0,0,0,0,0,0,0,0,0,-1,1294,1583,0,0
77,-559,0,0,0,0,0,0,0,0,0,-1,1301,1583,0,0
84,-559,0,0,0,0,0,0,0,0,0,-1,1308,1583,0,0
91,-559,0,0,0,0,0,0,0,0,0,-1,1315,1583,0,0
98,-559,0,0,0,0,0,0,0,0,0,-1,1322,1583,0,0
105,-559,0,0,0,0,0,0,0,0,0,-1,1329,1583,0,0
112,-559,0,0,0,0,0,0,0,0,0,-1,1336,1583,0,0
119,-559,0,0,0,0,0,0,0,0,0,-1,1343,1583,0,0
126,-559,0,0,0,0,0,0,0,0,0,-1,1350,1583,0,0
133,-559,0,0,0,0,0,0,0,0,0,-1,1357,1583,0,0
140,-559,0,0,0,0,0,0,0,0,0,-1,1364,1583,0,0
147,-559,0,0,0,0,0,0,0,0,0,-1,1371,1583,0,0
154,-559,0,0,0,0,0,0,0,0,0,-1,1378,1583,0,0
161,-559,0,0,0,0,0,0,0,0,0,-1,1385,1583,0,0
168,-559,0,0,0,0,0,0,0,0,0,-1,1392,1583,0,0
175,-559,0,0,0,0,0,0,0,0,0,-1,1399,1583,0,0
182,-559,0,0,0,0,0,0,0,0,0,-1,1406,1583,0,0
189,-559,0,0,0,0,0,0,0,0,0,-1,1413,1583,0,0
196,-559,0,0,0,0,0,0,0,0,0,-1,1420,1583,0,0
203,-559,0,0,0,0,0,0,0,0,0,-1,1427,1583,0,0
210,-559,0,0,0,0,0,0,0,0,0,-1,1434,1583,0,0
217,-559,0,0,0,0,0,0,0,0,0,-1,1441,1583,0,0
224,-559,0,0,0,0,0,0,0,0,0,-1,1448,1583,0,0
231,-559,0,0,0,0,0,0,0,0,0,-1,1455,1583,0,0
238,-559,0,0,0,0,0,0,0,0,0,-1,1462,1583,0,0
245,-559,0,0,0,0,0,0,0,0,0,-1,1469,1583,0,0
252,-559,0,0,0,0,0,0,0,0,0,-1,1476,1583,0,0
259,-559,0,0,0,0,0,0,0,0,0,-1,1483,1583,0,0
266,-559,0,0,0,0,0,0,0,0,0,-1,1490,1583,0,0
273,-559,0,0,0,0,0,0,0,0,0,-1,1497,1583,0,0
280,-559,0,0,0,0,0,0,0,0,0,-1,1504,1583,0,0
287,-559,0,0,0,0,0,0,0,0,0,-1,1511,1583,0,0
294,-559,0,0,0,0,0,0,0,0,0,-1,1518,1583,0,0
301,-559,0,0,0,0,0,0,0,0,0,-1,1525,1583,0,0
308,-559,0,0,0,0,0,0,0,0,0,-1,1532,1583,0,0
315,-559,0,0,0,0,0,0,0,0,0,-1,1539,1583,0,0
322,-559,0,0,0,0,0,0,0,0,0,-1,1546,1583,0,0
329,-559,0,0,0,0,0,0,0,0,0,-1,1553,1583,0,0
336,-559,5.97668,3.09827,0,0,0,0,0,0,0,-1,1560,1583,5.97667,-3.09824
343,-559,5.44824,2.88696,0,0,0,0,0,0,0,-1,1567,1583,5.44819,-2.88693
350,-559,4.69775,3.27051,0,0,0,0,0,0,0,-1,1574,1583,4.69771,-3.27048
357,-559,3.88025,3.60999,0,0,0,0,0,0,0,-1,1581,1583,3.88027,-3.60998
364,-559,5.00928,5.32605,0,0,0,0,0,0,0,-1,1588,1583,5.00928,-5.32607
371,-559,1.84436,2.52441,0,0,0,0,0,0,0,-1,1595,1583,1.84441,-2.52447
378,-559,6.34753,1.53137,0,0,0,0,0,0,0,-1,1602,1583,6.34752,-1.53139
385,-559,6.95911,1.48181,0,0,0,0,0,0,0,-1,1609,1583,6.95916,-1.48175
392,-559,11.6949,4.77734,0,0,0,0,0,0,0,-1,1616,1583,11.6949,-4.77731
399,-559,11.1104,5.56909,0,0,0,0,0,0,0,-1,1623,1583,11.1103,-5.56905
406,-559,10.3385,6.48657,0,0,0,0,0,0,0,-1,1630,1583,10.3385,-6.48661
413,-559,9.76147,6.97571,0,0,0,0,0,0,0,-1,1637,1583,9.76143,-6.97574
420,-559,7.77124,10.5851,0,0,0,0,0,0,0,-1,1644,1583,7.77128,-10.585
427,-559,10.1022,12.5565,0,0,0,0,0,0,0,-1,1651,1583,10.1021,-12.5565
434,-559,9.09399,13.8361,0,0,0,0,0,0,0,-1,1658,1583,9.09398,-13.8361
441,-559,9.13,13.6755,0,0,0,0,0,0,0,-1,1665,1583,9.12999,-13.6755
448,-559,9.49646,13.9084,0,0,0,0,0,0,0,-1,1672,1583,9.49641,-13.9084
455,-559,9.42114,13.7368,-0.00939067,-0.00438001,0.0213016,0.0145631,-0.0283338,0.843935,0.0251883,0.0479349,1679,1583,9.42118,-13.7368
462,-559,9.12976,13.7139,-0.0101056,-0.00643468,0.018683,0.0105028,-0.0270431,0.834363,0.0223673,0.0413323,1686,1583,9.12973,-13.7139
469,-559,9.00562,13.7094,-0.0100486,-0.00756432,0.0161453,0.00738658,-0.0249995,0.82379,0.0195982,0.0193909,1693,1583,9.00557,-13.7093
476,-559,9.00513,13.4648,-0.00945736,-0.0079078,0.0136788,0.00501816,-0.0223833,0.813688,0.0168459,0.00998803,1700,1583,9.00508,-13.4648
483,-559,9.04602,13.2179,-0.00842911,-0.0073328,0.0113335,0.00346578,-0.0192277,0.809562,0.0141163,0.0122749,1707,1583,9.04602,-13.2179
490,-559,9.05359,13.0173,-0.00742353,-0.0068913,0.00924967,0.00209608,-0.0164109,0.799779,0.011702,0.0145797,1714,1583,9.05357,-13.0174
497,-559,9.07458,12.8145,-0.00593293,-0.00577252,0.00709349,0.00124121,-0.0129467,0.791051,0.00907319,0.0174702,1721,1583,9.0746,-12.8145
504,-559,9.03052,12.5627,-0.0040612,-0.00399958,0.00516833,0.00113803,-0.00919881,0.788379,0.00654495,0.0226555,1728,1583,9.03056,-12.5628
511,-559,8.99561,12.3228,-0.00218523,-0.00240706,0.00338801,0.00109368,-0.00568596,0.769035,0.00420291,0.0203962,1735,1583,8.99561,-12.3227
518,-559,9.04968,12.0936,-0.000536377,-0.00116247,0.00182562,0.00100284,-0.00270169,0.700488,0.00221251,0.0130785,1742,1583,9.0497,-12.0936
525,-559,9.04443,11.8534,0.00103653,-6.20859e-05,0.000462229,0.00120513,-0.000230688,0.349761,0.000890337,0.0113274,1749,1583,9.0444,-11.8534
532,-559,9.03003,11.6165,0.00251931,0.000654564,-0.000578308,0.0026841,0.000489777,-0.277589,0.00165054,0.0134847,1756,1583,9.03002,-11.6165
539,-559,9.00952,11.392,0.00401969,0.00122614,-0.00152108,0.00468802,0.000557813,-0.413987,0.002957,0.017654,1763,1583,9.00953,-11.392
546,-559,8.97937,11.1488,0.0052902,0.00142654,-0.00200391,0.00614183,0.000574918,-0.401855,0.003917,0.015827,1770,1583,8.97939,-11.1488
553,-559,9.14453,10.8187,0.00637965,0.00194893,-0.00211929,0.0072301,0.00109848,-0.381619,0.00449883,0.0254542,1777,1583,9.14453,-10.8187
560,-559,9.18469,10.8558,0.00787473,0.00260806,-0.00237994,0.00879084,0.00169195,-0.367448,0.00538591,0.0496812,1784,1583,9.18473,-10.8558
567,-559,9.41101,10.62,0,0,0,0,0,0,0,-1,1791,1583,9.41101,-10.62
574,-559,9.94812,10.3971,0,0,0,0,0,0,0,-1,1798,1583,9.94807,-10.3971
581,-559,5.97095,5.96179,0,0,0,0,0,0,0,-1,1805,1583,5.97093,-5.96181
588,-559,5.79102,5.89954,0,0,0,0,0,0,0,-1,1812,1583,5.79098,-5.89949
595,-559,5.79089,6.24231,0,0,0,0,0,0,0,-1,1819,1583,5.7909,-6.24227
602,-559,12.478,2.35669,0,0,0,0,0,0,0,-1,1826,1583,12.4781,-2.35675
609,-559,14.0479,1.22681,0,0,0,0,0,0,0,-1,1833,1583,14.0479,-1.22681
616,-559,0,0,0,0,0,0,0,0,0,-1,1840,1583,0,0
623,-559,0,0,0,0,0,0,0,0,0,-1,1847,1583,0,0
630,-559,0,0,0,0,0,0,0,0,0,-1,1854,1583,0,0
637,-559,0,0,0,0,0,0,0,0,0,-1,1861,1583,0,0
644,-559,0,0,0,0,0,0,0,0,0,-1,1868,1583,0,0
651,-559,0,0,0,0,0,0,0,0,0,-1,1875,1583,0,0
658,-559,0,0,0,0,0,0,0,0,0,-1,1882,1583,0,0
665,-559,0,0,0,0,0,0,0,0,0,-1,1889,1583,0,0
672,-559,0,0,0,0,0,0,0,0,0,-1,1896,1583,0,0
679,-559,0,0,0,0,0,0,0,0,0,-1,1903,1583,0,0
686,-559,0,0,0,0,0,0,0,0,0,-1,1910,1583,0,0
693,-559,0,0,0,0,0,0,0,0,0,-1,1917,1583,0,0
700,-559,0,0,0,0,0,0,0,0,0,-1,1924,1583,0,0
707,-559,0,0,0,0,0,0,0,0,0,-1,1931,1583,0,0
714,-559,0,0,0,0,0,0,0,0,0,-1,1938,1583,0,0
721,-559,0,0,0,0,0,0,0,0,0,-1,1945,1583,0,0
728,-559,0,0,0,0,0,0,0,0,0,-1,1952,1583,0,0
735,-559,0,0,0,0,0,0,0,0,0,-1,1959,1583,0,0
742,-559,0,0,0,0,0,0,0,0,0,-1,1966,1583,0,0
749,-559,0,0,0,0,0,0,0,0,0,-1,1973,1583,0,0
756,-559,0,0,0,0,0,0,0,0,0,-1,1980,1583,0,0
763,-559,0,0,0,0,0,0,0,0,0,-1,1987,1583,0,0
770,-559,0,0,0,0,0,0,0,0,0,-1,1994,1583,0,0
777,-559,0,0,0,0,0,0,0,0,0,-1,2001,1583,0,0
784,-559,0,0,0,0,0,0,0,0,0,-1,2008,1583,0,0
791,-559,0,0,0,0,0,0,0,0,0,-1,2015,1583,0,0
798,-559,0,0,0,0,0,0,0,0,0,-1,2022,1583,0,0
805,-559,0,0,0,0,0,0,0,0,0,-1,2029,1583,0,0
812,-559,0,0,0,0,0,0,0,0,0,-1,2036,1583,0,0
-700,-566,0,0,0,0,0,0,0,0,0,-1,524,1590,0,0
-693,-566,0,0,0,0,0,0,0,0,0,-1,531,1590,0,0
-686,-566,0,0,0,0,0,0,0,0,0,-1,538,1590,0,0
-679,-566,0,0,0,0,0,0,0,0,0,-1,545,1590,0,0
-672,-566,0,0,0,0,0,0,0,0,0,-1,552,1590,0,0
-665,-566,0,0,0,0,0,0,0,0,0,-1,559,1590,0,0
-658,-566,0,0,0,0,0,0,0,0,0,-1,566,1590,0,0
-651,-566,0,0,0,0,0,0,0,0,0,-1,573,1590,0,0
-644,-566,0,0,0,0,0,0,0,0,0,-1,580,1590,0,0
-637,-566,0,0,0,0,0,0,0,0,0,-1,587,1590,0,0
-630,-566,0,0,0,0,0,0,0,0,0,-1,594,1590,0,0
-623,-566,0,0,0,0,0,0,0,0,0,-1,601,1590,0,0
-616,-566,0,0,0,0,0,0,0,0,0,-1,608,1590,0,0
-609,-566,0,0,0,0,0,0,0,0,0,-1,615,1590,0,0
-602,-566,0,0,0,0,0,0,0,0,0,-1,622,1590,0,0
-595,-566,0,0,0,0,0,0,0,0,0,-1,629,1590,0,0
-588,-566,0,0,0,0,0,0,0,0,0,-1,636,1590,0,0
-581,-566,0,0,0,0,0,0,0,0,0,-1,643,1590,0,0
-574,-566,0,0,0,0,0,0,0,0,0,-1,650,1590,0,0
-567,-566,0,0,0,0,0,0,0,0,0,-1,657,1590,0,0
-560,-566,0,0,0,0,0,0,0,0,0,-1,664,1590,0,0
-553,-566,0,0,0,0,0,0,0,0,0,-1,671,1590,0,0
-546,-566,0,0,0,0,0,0,0,0,0,-1,678,1590,0,0
-539,-566,0,0,0,0,0,0,0,0,0,-1,685,1590,0,0
-532,-566,0,0,0,0,0,0,0,0,0,-1,692,1590,0,0
-525,-566,0,0,0,0,0,0,0,0,0,-1,699,1590,0,0
-518,-566,0,0,0,0,0,0,0,0,0,-1,706,1590,0,0
-511,-566,0,0,0,0,0,0,0,0,0,-1,713,1590,0,0
-504,-566,0,0,0,0,0,0,0,0,0,-1,720,1590,0,0
-497,-566,0,0,0,0,0,0,0,0,0,-1,727,1590,0,0
-490,-566,0,0,0,0,0,0,0,0,0,-1,734,1590,0,0
-483,-566,-2.4743,2.07825,0,0,0,0,0,0,0,-1,741,1590,-2.47428,-2.07829
-476,-566,-1.80646,2.39294,0,0,0,0,0,0,0,-1,748,1590,-1.80644,-2.39298
-469,-566,-1.15375,3.03284,0,0,0,0,0,0,0,-1,755,1590,-1.15378,-3.03283
-462,-566,-0.459106,3.89343,0,0,0,0,0,0,0,-1,762,1590,-0.459095,-3.89341
-455,-566,0.280212,4.74023,0,0,0,0,0,0,0,-1,769,1590,0.280207,-4.74023
-448,-566,0.436951,5.51306,0,0,0,0,0,0,0,-1,776,1590,0.436971,-5.51301
-441,-566,0.951965,7.96814,0,0,0,0,0,0,0,-1,783,1590,0.951945,-7.96812
-434,-566,1.11139,9.00842,0,0,0,0,0,0,0,-1,790,1590,1.1114,-9.00846
-427,-566,0.668945,9.3103,-8.59066e-05,0.000525206,0.00248967,0.002728,-0.0022887,0.846458,0.0029001,0.0435352,797,1590,0.668921,-9.31026
-420,-566,0.692993,9.5863,-0.00102635,-0.000119518,0.00139152,0.000890592,-0.00203647,0.942896,0.00173256,0.0372138,804,1590,0.692997,-9.58632
-413,-566,0.812134,9.77625,-0.00160424,-0.000270888,0.000726694,4.86113e-05,-0.00192374,1.15657,0.001299,0.0181587,811,1590,0.812121,-9.77618
-406,-566,0.834473,10.0447,-0.00167346,-0.000900807,0.000314764,-0.000788811,-0.00178545,1.22896,0.00103316,0.00960724,818,1590,0.834482,-10.0447
-399,-566,0.829651,10.3055,-0.00162403,-0.00152425,-9.36031e-05,-0.00146807,-0.0016802,-1.03024,0.00105655,0.00968407,825,1590,0.829669,-10.3055
-392,-566,0.804688,10.5449,-0.00130264,-0.00193835,-0.00040895,-0.00110254,-0.00213845,-0.45504,0.00123483,0.011602,832,1590,0.804661,-10.545
-385,-566,0.819641,10.8164,-0.000885113,-0.00226168,-0.000739394,-0.00056323,-0.00258357,-0.410591,0.00156871,0.0146008,839,1590,0.819639,-10.8164
-378,-566,0.831238,11.0985,-0.00048049,-0.00219351,-0.000865604,-0.000119265,-0.00255474,-0.395339,0.00166483,0.0156925,846,1590,0.831217,-11.0985
-371,-566,0.819153,11.3511,-0.000182995,-0.00189343,-0.000987951,0.00026848,-0.0023449,-0.428644,0.00166002,0.0204555,853,1590,0.819158,-11.3511
-364,-566,0.815002,11.5735,-5.36823e-05,-0.00132372,-0.0010763,0.000560971,-0.00193837,-0.518881,0.00151428,0.0206563,860,1590,0.814992,-11.5734
-357,-566,0.802795,11.7936,-0.000137489,-0.00063504,-0.00132006,0.000957032,-0.00172956,-0.692262,0.00157233,0.0169893,867,1590,0.802805,-11.7935
-350,-566,0.832092,12.0576,-0.00021032,6.36187e-06,-0.00168906,0.00159055,-0.00179451,-0.817426,0.00195554,0.0196311,874,1590,0.832096,-12.0576
-343,-566,0.851501,12.3015,-0.000504,0.000784344,-0.00212463,0.00236031,-0.00207997,-0.93259,0.0025653,0.0254942,881,1590,0.851479,-12.3015
-336,-566,0.798767,12.5298,-0.00111567,0.00136395,-0.00294653,0.00332088,-0.0030726,-0.98454,0.00369221,0.0233448,888,1590,0.798758,-12.5298
-329,-566,0.847046,12.7814,-0.001954,0.00200336,-0.00394927,0.00444191,-0.00439255,-1.01763,0.0051006,0.0140919,895,1590,0.847065,-12.7813
-322,-566,0.884399,13.0612,-0.00313632,0.00220287,-0.00539037,0.00554849,-0.00648194,-1.01532,0.00695274,0.017073,902,1590,0.884427,-13.0611
-315,-566,0.764771,13.2462,-0.00447407,0.0022262,-0.00716773,0.00678807,-0.00903594,-1.00401,0.00916667,0.0302406,909,1590,0.764764,-13.2463
-308,-566,0.63678,13.4161,-0.00569964,0.00154806,-0.00935065,0.00795252,-0.0121041,-0.970262,0.0116621,0.0370651,916,1590,0.636803,-13.4162
-301,-566,0.536438,13.4445,-0.00674858,1.97324e-05,-0.0118036,0.00891475,-0.0156436,-0.925006,0.0143551,0.0448596,923,1590,0.536411,-13.4445
-294,-566,0.530029,13.6189,0,0,0,0,0,0,0,-1,930,1590,0.530021,-13.6189
-287,-566,0.547424,13.6827,0,0,0,0,0,0,0,-1,937,1590,0.547435,-13.6828
-280,-566,0.607056,13.7307,0,0,0,0,0,0,0,-1,944,1590,0.607043,-13.7308
-273,-566,0.49762,11.2427,0,0,0,0,0,0,0,-1,951,1590,0.497591,-11.2426
-266,-566,0.392151,6.90295,0,0,0,0,0,0,0,-1,958,1590,0.392151,-6.90294
-259,-566,0.343628,6.47437,0,0,0,0,0,0,0,-1,965,1590,0.34363,-6.47438
-252,-566,-7.68311,1.01343,0,0,0,0,0,0,0,-1,972,1590,-7.68308,-1.01348
-245,-566,-11.1835,1.97522,0,0,0,0,0,0,0,-1,979,1590,-11.1835,-1.97527
-238,-566,-10.4883,2.40491,0,0,0,0,0,0,0,-1,986,1590,-10.4883,-2.40487
-231,-566,-7.41827,4.22803,0,0,0,0,0,0,0,-1,993,1590,-7.41827,-4.22803
-224,-566,-4.67188,6.30859,0,0,0,0,0,0,0,-1,1000,1590,-4.67185,-6.30853
-217,-566,-2.82867,7.52527,0,0,0,0,0,0,0,-1,1007,1590,-2.82869,-7.52531
-210,-566,-1.03436,8.67737,0,0,0,0,0,0,0,-1,1014,1590,-1.03439,-8.67733
-203,-566,0,0,0,0,0,0,0,0,0,-1,1021,1590,0,0
-196,-566,0,0,0,0,0,0,0,0,0,-1,1028,1590,0,0
-189,-566,0,0,0,0,0,0,0,0,0,-1,1035,1590,0,0
-182,-566,0,0,0,0,0,0,0,0,0,-1,1042,1590,0,0
-175,-566,0,0,0,0,0,0,0,0,0,-1,1049,1590,0,0
-168,-566,0,0,0,0,0,0,0,0,0,-1,1056,1590,0,0
-161,-566,0,0,0,0,0,0,0,0,0,-1,1063,1590,0,0
-154,-566,0,0,0,0,0,0,0,0,0,-1,1070,1590,0,0
-147,-566,0,0,0,0,0,0,0,0,0,-1,1077,1590,0,0
-140,-566,0,0,0,0,0,0,0,0,0,-1,1084,1590,0,0
-133,-566,0,0,0,0,0,0,0,0,0,-1,1091,1590,0,0
-126,-566,0,0,0,0,0,0,0,0,0,-1,1098,1590,0,0
-119,-566,0,0,0,0,0,0,0,0,0,-1,1105,1590,0,0
-112,-566,0,0,0,0,0,0,0,0,0,-1,1112,1590,0,0
-105,-566,0,0,0,0,0,0,0,0,0,-1,1119,1590,0,0
-98,-566,0,0,0,0,0,0,0,0,0,-1,1126,1590,0,0
-91,-566,0,0,0,0,0,0,0,0,0,-1,1133,1590,0,0
-84,-566,0,0,0,0,0,0,0,0,0,-1,1140,1590,0,0
-77,-566,0,0,0,0,0,0,0,0,0,-1,1147,1590,0,0
-70,-566,0,0,0,0,0,0,0,0,0,-1,1154,1590,0,0
-63,-566,0,0,0,0,0,0,0,0,0,-1,1161,1590,0,0
-56,-566,0,0,0,0,0,0,0,0,0,-1,1168,1590,0,0
-49,-566,0,0,0,0,0,0,0,0,0,-1,1175,1590,0,0
-42,-566,0,0,0,0,0,0,0,0,0,-1,1182,1590,0,0
-35,-566,0,0,0,0,0,0,0,0,0,-1,1189,1590,0,0
-28,-566,0,0,0,0,0,0,0,0,0,-1,1196,1590,0,0
-21,-566,0,0,0,0,0,0,0,0,0,-1,1203,1590,0,0
-14,-566,0,0,0,0,0,0,0,0,0,-1,1210,1590,0,0
-7,-566,0,0,0,0,0,0,0,0,0,-1,1217,1590,0,0
0,-566,0,0,0,0,0,0,0,0,0,-1,1224,1590,0,0
7,-566,0,0,0,0,0,0,0,0,0,-1,1231,1590,0,0
14,-566,0,0,0,0,0,0,0,0,0,-1,1238,1590,0,0
21,-566,0,0,0,0,0,0,0,0,0,-1,1245,1590,0,0
28,-566,0,0,0,0,0,0,0,0,0,-1,1252,1590,0,0
35,-566,0,0,0,0,0,0,0,0,0,-1,1259,1590,0,0
42,-566,0,0,0,0,0,0,0,0,0,-1,1266,1590,0,0
49,-566,0,0,0,0,0,0,0,0,0,-1,1273,1590,0,0
56,-566,0,0,0,0,0,0,0,0,0,-1,1280,1590,0,0
63,-566,0,0,0,0,0,0,0,0,0,-1,1287,1590,0,0
70,-566,0,0,0,0,0,0,0,0,0,-1,1294,1590,0,0
77,-566,0,0,0,0,0,0,0,0,0,-1,1301,1590,0,0
84,-566,0,0,0,0,0,0,0,0,0,-1,1308,1590,0,0
91,-566,0,0,0,0,0,0,0,0,0,-1,1315,1590,0,0
98,-566,0,0,0,0,0,0,0,0,0,-1,1322,1590,0,0
105,-566,0,0,0,0,0,0,0,0,0,-1,1329,1590,0,0
112,-566,0,0,0,0,0,0,0,0,0,-1,1336,1590,0,0
119,-566,0,0,0,0,0,0,0,0,0,-1,1343,1590,0,0
126,-566,0,0,0,0,0,0,0,0,0,-1,1350,1590,0,0
133,-566,0,0,0,0,0,0,0,0,0,-1,1357,1590,0,0
140,-566,0,0,0,0,0,0,0,0,0,-1,1364,1590,0,0
147,-566,0,0,0,0,0,0,0,0,0,-1,1371,1590,0,0
154,-566,0,0,0,0,0,0,0,0,0,-1,1378,1590,0,0
161,-566,0,0,0,0,0,0,0,0,0,-1,1385,1590,0,0
168,-566,0,0,0,0,0,0,0,0,0,-1,1392,1590,0,0
175,-566,0,0,0,0,0,0,0,0,0,-1,1399,1590,0,0
182,-566,0,0,0,0,0,0,0,0,0,-1,1406,1590,0,0
189,-566,0,0,0,0,0,0,0,0,0,-1,1413,1590,0,0
196,-566,0,0,0,0,0,0,0,0,0,-1,1420,1590,0,0
203,-566,0,0,0,0,0,0,0,0,0,-1,1427,1590,0,0
210,-566,0,0,0,0,0,0,0,0,0,-1,1434,1590,0,0
217,-566,0,0,0,0,0,0,0,0,0,-1,1441,1590,0,0
224,-566,0,0,0,0,0,0,0,0,0,-1,1448,1590,0,0
231,-566,0,0,0,0,0,0,0,0,0,-1,1455,1590,0,0
238,-566,0,0,0,0,0,0,0,0,0,-1,1462,1590,0,0
245,-566,0,0,0,0,0,0,0,0,0,-1,1469,1590,0,0
252,-566,0,0,0,0,0,0,0,0,0,-1,1476,1590,0,0
259,-566,0,0,0,0,0,0,0,0,0,-1,1483,1590,0,0
266,-566,0,0,0,0,0,0,0,0,0,-1,1490,1590,0,0
273,-566,0,0,0,0,0,0,0,0,0,-1,1497,1590,0,0
280,-566,0,0,0,0,0,0,0,0,0,-1,1504,1590,0,0
287,-566,0,0,0,0,0,0,0,0,0,-1,1511,1590,0,0
294,-566,0,0,0,0,0,0,0,0,0,-1,1518,1590,0,0
301,-566,0,0,0,0,0,0,0,0,0,-1,1525,1590,0,0
308,-566,0,0,0,0,0,0,0,0,0,-1,1532,1590,0,0
315,-566,0,0,0,0,0,0,0,0,0,-1,1539,1590,0,0
322,-566,6.07983,4.44873,0,0,0,0,0,0,0,-1,1546,1590,6.07983,-4.44873
329,-566,5.77026,3.47534,0,0,0,0,0,0,0,-1,1553,1590,5.77026,-3.47535
336,-566,5.41138,2.62915,0,0,0,0,0,0,0,-1,1560,1590,5.41138,-2.62909
343,-566,4.81873,1.79089,0,0,0,0,0,0,0,-1,1567,1590,4.81878,-1.79095
350,-566,4.41663,2.44214,0,0,0,0,0,0,0,-1,1574,1590,4.41666,-2.44214
357,-566,6.34058,5.18579,0,0,0,0,0,0,0,-1,1581,1590,6.34059,-5.1858
364,-566,6.06262,4.20251,0,0,0,0,0,0,0,-1,1588,1590,6.06259,-4.20246
371,-566,5.78455,3.21912,0,0,0,0,0,0,0,-1,1595,1590,5.7846,-3.21912
378,-566,5.7439,0.695557,0,0,0,0,0,0,0,-1,1602,1590,5.74392,-0.695531
385,-566,5.67615,-0.573975,0,0,0,0,0,0,0,-1,1609,1590,5.67612,0.573956
392,-566,5.78638,1.82434,0,0,0,0,0,0,0,-1,1616,1590,5.78637,-1.82439
399,-566,5.36621,1.7373,0,0,0,0,0,0,0,-1,1623,1590,5.36627,-1.7373
406,-566,4.30359,5.26868,0,0,0,0,0,0,0,-1,1630,1590,4.30364,-5.26867
413,-566,4.27124,5.79492,0,0,0,0,0,0,0,-1,1637,1590,4.27123,-5.7949
420,-566,7.19812,8.25146,0,0,0,0,0,0,0,-1,1644,1590,7.19817,-8.25149
427,-566,10.455,10.6842,0,0,0,0,0,0,0,-1,1651,1590,10.455,-10.6842
434,-566,9.00061,13.9564,0,0,0,0,0,0,0,-1,1658,1590,9.00061,-13.9564
441,-566,9.05762,14.5842,0,0,0,0,0,0,0,-1,1665,1590,9.05767,-14.5843
448,-566,9.07178,14.094,-0.0058817,-0.00205795,0.0186034,0.0147315,-0.0226712,0.836604,0.021756,0.0376778,1672,1590,9.0718,-14.094
455,-566,8.82703,14.1005,-0.00685048,-0.00394412,0.0163074,0.0109747,-0.0217693,0.829837,0.0192441,0.0295085,1679,1590,8.82702,-14.1005
462,-566,8.77673,13.9327,-0.00710126,-0.00517165,0.014017,0.0079137,-0.0201866,0.819759,0.0167316,0.0173042,1686,1590,8.77668,-13.9327
469,-566,8.7876,13.6692,-0.00681051,-0.00585523,0.0118632,0.00553998,-0.0182057,0.805519,0.0143449,0.0121777,1693,1590,8.78758,-13.6692
476,-566,8.80579,13.432,-0.0062368,-0.00603237,0.0097857,0.00365165,-0.0159208,0.790621,0.0120175,0.0094194,1700,1590,8.80577,-13.432
483,-566,8.8064,13.2085,-0.00535971,-0.00546274,0.00787072,0.00245966,-0.0132821,0.782126,0.0097783,0.00947563,1707,1590,8.80639,-13.2085
490,-566,8.79468,12.9896,-0.00437088,-0.0050171,0.00612199,0.00143652,-0.0108245,0.759033,0.00773974,0.00977196,1714,1590,8.79474,-12.9896
497,-566,8.82751,12.7834,-0.00306478,-0.00406229,0.00431285,0.00077806,-0.00790513,0.727832,0.00554766,0.0126235,1721,1590,8.82753,-12.7834
504,-566,8.82861,12.5741,-0.00155629,-0.00258689,0.00276324,0.000739291,-0.00488247,0.693215,0.00352733,0.0184317,1728,1590,8.82862,-12.5741
511,-566,8.78784,12.323,-1.75154e-05,-0.00124103,0.00134052,0.000844237,-0.00210278,0.571334,0.00175241,0.0189047,1735,1590,8.78784,-12.323
518,-566,8.81079,12.0886,0.00133479,-0.000191075,8.94496e-05,0.00134001,-0.000196301,0.0583559,0.000965452,0.0112142,1742,1590,8.81085,-12.0887
525,-566,8.8158,11.8309,0.00263524,0.000675553,-0.00096027,0.00302733,0.000283458,-0.387656,0.00193068,0.0109204,1749,1590,8.81576,-11.8309
532,-566,8.81091,11.5978,0.00391505,0.00126153,-0.00174726,0.00478218,0.000394387,-0.460673,0.00306513,0.0130953,1756,1590,8.81087,-11.5978
539,-566,8.797,11.3428,0.00526144,0.001724,-0.00245031,0.0065147,0.000470738,-0.472783,0.00419503,0.0160335,1763,1590,8.79701,-11.3428
546,-566,8.84229,11.0553,0.00637305,0.00169617,-0.00260122,0.00753242,0.000536812,-0.419273,0.00485258,0.0206711,1770,1590,8.84234,-11.0553
553,-566,8.90332,10.9221,0.00747302,0.002094,-0.00244571,0.00841875,0.00114827,-0.368979,0.0052716,0.0385209,1777,1590,8.90335,-10.9222
560,-566,8.85779,10.7982,0.00911279,0.00268654,-0.00259357,0.0100289,0.00177041,-0.339551,0.00618092,0.0496125,1784,1590,8.85785,-10.7982
567,-566,9.07861,10.5883,0,0,0,0,0,0,0,-1,1791,1590,9.07863,-10.5883
574,-566,7.99548,3.14514,0,0,0,0,0,0,0,-1,1798,1590,7.99543,-3.14511
581,-566,2.54102,5.1311,0,0,0,0,0,0,0,-1,1805,1590,2.54099,-5.13111
588,-566,-1.91321,8.39197,0,0,0,0,0,0,0,-1,1812,1590,-1.91316,-8.39199
595,-566,9.0271,4.66467,0,0,0,0,0,0,0,-1,1819,1590,9.02705,-4.66468
602,-566,9.953,3.54895,0,0,0,0,0,0,0,-1,1826,1590,9.953,-3.54898
609,-566,0,0,0,0,0,0,0,0,0,-1,1833,1590,0,0
616,-566,0,0,0,0,0,0,0,0,0,-1,1840,1590,0,0
623,-566,0,0,0,0,0,0,0,0,0,-1,1847,1590,0,0
630,-566,0,0,0,0,0,0,0,0,0,-1,1854,1590,0,0
637,-566,0,0,0,0,0,0,0,0,0,-1,1861,1590,0,0
644,-566,0,0,0,0,0,0,0,0,0,-1,1868,1590,0,0
651,-566,0,0,0,0,0,0,0,0,0,-1,1875,1590,0,0
658,-566,0,0,0,0,0,0,0,0,0,-1,1882,1590,0,0
665,-566,0,0,0,0,0,0,0,0,0,-1,1889,1590,0,0
672,-566,0,0,0,0,0,0,0,0,0,-1,1896,1590,0,0
679,-566,0,0,0,0,0,0,0,0,0,-1,1903,1590,0,0
686,-566,0,0,0,0,0,0,0,0,0,-1,1910,1590,0,0
693,-566,0,0,0,0,0,0,0,0,0,-1,1917,1590,0,0
700,-566,0,0,0,0,0,0,0,0,0,-1,1924,1590,0,0
707,-566,0,0,0,0,0,0,0,0,0,-1,1931,1590,0,0
714,-566,0,0,0,0,0,0,0,0,0,-1,1938,1590,0,0
721,-566,0,0,0,0,0,0,0,0,0,-1,1945,1590,0,0
728,-566,0,0,0,0,0,0,0,0,0,-1,1952,1590,0,0
735,-566,0,0,0,0,0,0,0,0,0,-1,1959,1590,0,0
742,-566,0,0,0,0,0,0,0,0,0,-1,1966,1590,0,0
749,-566,0,0,0,0,0,0,0,0,0,-1,1973,1590,0,0
756,-566,0,0,0,0,0,0,0,0,0,-1,1980,1590,0,0
763,-566,0,0,0,0,0,0,0,0,0,-1,1987,1590,0,0
770,-566,0,0,0,0,0,0,0,0,0,-1,1994,1590,0,0
777,-566,0,0,0,0,0,0,0,0,0,-1,2001,1590,0,0
784,-566,0,0,0,0,0,0,0,0,0,-1,2008,1590,0,0
791,-566,0,0,0,0,0,0,0,0,0,-1,2015,1590,0,0
798,-566,0,0,0,0,0,0,0,0,0,-1,2022,1590,0,0
805,-566,0,0,0,0,0,0,0,0,0,-1,2029,1590,0,0
812,-566,0,0,0,0,0,0,0,0,0,-1,2036,1590,0,0
-700,-573,0,0,0,0,0,0,0,0,0,-1,524,1597,0,0
-693,-573,0,0,0,0,0,0,0,0,0,-1,531,1597,0,0
-686,-573,0,0,0,0,0,0,0,0,0,-1,538,1597,0,0
-679,-573,0,0,0,0,0,0,0,0,0,-1,545,1597,0,0
-672,-573,0,0,0,0,0,0,0,0,0,-1,552,1597,0,0
-665,-573,0,0,0,0,0,0,0,0,0,-1,559,1597,0,0
-658,-573,0,0,0,0,0,0,0,0,0,-1,566,1597,0,0
-651,-573,0,0,0,0,0,0,0,0,0,-1,573,1597,0,0
-644,-573,0,0,0,0,0,0,0,0,0,-1,580,1597,0,0
-637,-573,0,0,0,0,0,0,0,0,0,-1,587,1597,0,0
-630,-573,0,0,0,0,0,0,0,0,0,-1,594,1597,0,0
-623,-573,0,0,0,0,0,0,0,0,0,-1,601,1597,0,0
-616,-573,0,0,0,0,0,0,0,0,0,-1,608,1597,0,0
-609,-573,0,0,0,0,0,0,0,0,0,-1,615,1597,0,0
-602,-573,0,0,0,0,0,0,0,0,0,-1,622,1597,0,0
-595,-573,0,0,0,0,0,0,0,0,0,-1,629,1597,0,0
-588,-573,0,0,0,0,0,0,0,0,0,-1,636,1597,0,0
-581,-573,0,0,0,0,0,0,0,0,0,-1,643,1597,0,0
-574,-573,0,0,0,0,0,0,0,0,0,-1,650,1597,0,0
-567,-573,0,0,0,0,0,0,0,0,0,-1,657,1597,0,0
-560,-573,0,0,0,0,0,0,0,0,0,-1,664,1597,0,0
-553,-573,0,0,0,0,0,0,0,0,0,-1,671,1597,0,0
-546,-573,0,0,0,0,0,0,0,0,0,-1,678,1597,0,0
-539,-573,0,0,0,0,0,0,0,0,0,-1,685,1597,0,0
-532,-573,0,0,0,0,0,0,0,0,0,-1,692,1597,0,0
-525,-573,0,0,0,0,0,0,0,0,0,-1,699,1597,0,0
-518,-573,0,0,0,0,0,0,0,0,0,-1,706,1597,0,0
-511,-573,0,0,0,0,0,0,0,0,0,-1,713,1597,0,0
-504,-573,0,0,0,0,0,0,0,0,0,-1,720,1597,0,0
-497,-573,0,0,0,0,0,0,0,0,0,-1,727,1597,0,0
-490,-573,0,0,0,0,0,0,0,0,0,-1,734,1597,0,0
-483,-573,0,0,0,0,0,0,0,0,0,-1,741,1597,0,0
-476,-573,-1.86273,0.293091,0,0,0,0,0,0,0,-1,748,1597,-1.86276,-0.29314
-469,-573,-1.41681,1.13379,0,0,0,0,0,0,0,-1,755,1597,-1.41681,-1.13382
-462,-573,-0.748535,2.02588,0,0,0,0,0,0,0,-1,762,1597,-0.748533,-2.02584
-455,-573,-0.112976,2.70703,0,0,0,0,0,0,0,-1,769,1597,-0.112988,-2.70697
-448,-573,-1.26172,3.33252,0,0,0,0,0,0,0,-1,776,1597,-1.26173,-3.33248
-441,-573,0.108582,5.06726,0,0,0,0,0,0,0,-1,783,1597,0.108584,-5.06721
-434,-573,1.61768,7.05444,0,0,0,0,0,0,0,-1,790,1597,1.61767,-7.05446
-427,-573,0.654663,9.31726,0,0,0,0,0,0,0,-1,797,1597,0.654644,-9.31731
-420,-573,0.653442,9.53748,0,0,0,0,0,0,0,-1,804,1597,0.653463,-9.53752
-413,-573,1.13245,9.70532,0,0,0,0,0,0,0,-1,811,1597,1.13244,-9.70535
-406,-573,1.08508,10.0139,-0.00244055,-0.002232,-0.000149869,-0.0021537,-0.00251885,-1.08933,0.00157172,0.0194132,818,1597,1.08506,-10.0139
-399,-573,1.0672,10.3213,-0.00231902,-0.00270198,-0.000505586,-0.00196987,-0.00305113,-0.604383,0.0017863,0.010488,825,1597,1.06722,-10.3212
-392,-573,1.07672,10.5747,-0.00190275,-0.00292439,-0.000695804,-0.00155039,-0.00327675,-0.46876,0.00189274,0.010577,832,1597,1.07671,-10.5747
-385,-573,1.08948,10.8268,-0.0014096,-0.00305851,-0.000899276,-0.00101405,-0.00345406,-0.414389,0.00205007,0.0131618,839,1597,1.0895,-10.8268
-378,-573,1.10211,11.0817,-0.000937217,-0.00277593,-0.000911681,-0.000561823,-0.00315133,-0.390603,0.00194091,0.0150542,846,1597,1.10209,-11.0817
-371,-573,1.0896,11.3511,-0.000568537,-0.00231306,-0.000925018,-0.000169383,-0.00271222,-0.407371,0.00175441,0.0152979,853,1597,1.08962,-11.351
-364,-573,1.06055,11.5839,-0.000342775,-0.00164626,-0.000895883,0.000113351,-0.00210239,-0.470929,0.00144086,0.0174938,860,1597,1.06055,-11.5839
-357,-573,1.04657,11.7902,-0.000291323,-0.000902351,-0.000989274,0.000438539,-0.00163221,-0.635631,0.00126002,0.0207444,867,1597,1.04656,-11.7901
-350,-573,1.07404,12.0708,-0.000239197,-0.000243086,-0.00122037,0.000979234,-0.00146152,-0.784601,0.00141831,0.0167387,874,1597,1.07405,-12.0709
-343,-573,1.09558,12.3116,-0.00038197,0.000459766,-0.00152881,0.00162458,-0.00154679,-0.919716,0.00183118,0.0216266,881,1597,1.09557,-12.3117
-336,-573,1.07092,12.5853,-0.000791251,0.000962388,-0.00217253,0.00242837,-0.00225723,-0.977199,0.00270583,0.0164676,888,1597,1.07094,-12.5853
-329,-573,1.10358,12.7991,-0.00135806,0.00148423,-0.0029522,0.00333953,-0.00321336,-1.00972,0.00378355,0.0163997,895,1597,1.10357,-12.7991
-322,-573,1.10803,13.0642,-0.00218137,0.00149921,-0.00412672,0.00417738,-0.00485953,-0.995136,0.00522242,0.012527,902,1597,1.10804,-13.0642
-315,-573,1.1814,13.3296,-0.00306662,0.00124967,-0.00556511,0.00506045,-0.0068774,-0.97037,0.00691888,0.0200503,909,1597,1.18141,-13.3295
-308,-573,1.17126,13.3849,-0.00374401,0.000290279,-0.00726608,0.00581401,-0.00926774,-0.920794,0.00878323,0.0313065,916,1597,1.17129,-13.3849
-301,-573,1.19305,13.5535,-0.00426705,-0.00128904,-0.00912827,0.00647087,-0.012027,-0.866246,0.0108391,0.0349977,923,1597,1.19305,-13.5534
-294,-573,1.10321,13.8325,-0.00483178,-0.00362048,-0.0112001,0.00699033,-0.0154426,-0.81241,0.0132546,0.0384665,930,1597,1.10321,-13.8325
-287,-573,0.915771,13.7853,-0.00514466,-0.00680863,-0.013252,0.00730145,-0.0192548,-0.754048,0.0158415,0.0459396,937,1597,0.91578,-13.7853
-280,-573,0.6745,13.7843,0,0,0,0,0,0,0,-1,944,1597,0.674477,-13.7843
-273,-573,-0.225037,10.6533,0,0,0,0,0,0,0,-1,951,1597,-0.225018,-10.6533
-266,-573,1.31116,7.1814,0,0,0,0,0,0,0,-1,958,1597,1.31118,-7.18142
-259,-573,1.2514,6.70959,0,0,0,0,0,0,0,-1,965,1597,1.25137,-6.70965
-252,-573,2.07874,5.27161,0,0,0,0,0,0,0,-1,972,1597,2.07875,-5.27157
-245,-573,-10.2592,1.09827,0,0,0,0,0,0,0,-1,979,1597,-10.2592,-1.09823
-238,-573,-11.5463,4.44141,0,0,0,0,0,0,0,-1,986,1597,-11.5463,-4.44146
-231,-573,-9.23431,4.14539,0,0,0,0,0,0,0,-1,993,1597,-9.23431,-4.14534
-224,-573,-6.70044,7.40857,0,0,0,0,0,0,0,-1,1000,1597,-6.70045,-7.40851
-217,-573,-4.25824,8.59119,0,0,0,0,0,0,0,-1,1007,1597,-4.25824,-8.59122
-210,-573,-2.39661,9.73914,0,0,0,0,0,0,0,-1,1014,1597,-2.39658,-9.73915
-203,-573,-0.557373,10.9005,0,0,0,0,0,0,0,-1,1021,1597,-0.557387,-10.9006
-196,-573,-1.65344,9.02246,0,0,0,0,0,0,0,-1,1028,1597,-1.65349,-9.02241
-189,-573,-6.12915,6.66882,0,0,0,0,0,0,0,-1,1035,1597,-6.12913,-6.66884
-182,-573,0,0,0,0,0,0,0,0,0,-1,1042,1597,0,0
-175,-573,0,0,0,0,0,0,0,0,0,-1,1049,1597,0,0
-168,-573,0,0,0,0,0,0,0,0,0,-1,1056,1597,0,0
-161,-573,0,0,0,0,0,0,0,0,0,-1,1063,1597,0,0
-154,-573,0,0,0,0,0,0,0,0,0,-1,1070,1597,0,0
-147,-573,0,0,0,0,0,0,0,0,0,-1,1077,1597,0,0
-140,-573,0,0,0,0,0,0,0,0,0,-1,1084,1597,0,0
-133,-573,0,0,0,0,0,0,0,0,0,-1,1091,1597,0,0
-126,-573,0,0,0,0,0,0,0,0,0,-1,1098,1597,0,0
-119,-573,0,0,0,0,0,0,0,0,0,-1,1105,1597,0,0
-112,-573,0,0,0,0,0,0,0,0,0,-1,1112,1597,0,0
-105,-573,0,0,0,0,0,0,0,0,0,-1,1119,1597,0,0
-98,-573,0,0,0,0,0,0,0,0,0,-1,1126,1597,0,0
-91,-573,0,0,0,0,0,0,0,0,0,-1,1133,1597,0,0
-84,-573,0,0,0,0,0,0,0,0,0,-1,1140,1597,0,0
-77,-573,0,0,0,0,0,0,0,0,0,-1,1147,1597,0,0
-70,-573,0,0,0,0,0,0,0,0,0,-1,1154,1597,0,0
-63,-573,0,0,0,0,0,0,0,0,0,-1,1161,1597,0,0
-56,-573,0,0,0,0,0,0,0,0,0,-1,1168,1597,0,0
-49,-573,0,0,0,0,0,0,0,0,0,-1,1175,1597,0,0
-42,-573,0,0,0,0,0,0,0,0,0,-1,1182,1597,0,0
-35,-573,0,0,0,0,0,0,0,0,0,-1,1189,1597,0,0
-28,-573,0,0,0,0,0,0,0,0,0,-1,1196,1597,0,0
-21,-573,0,0,0,0,0,0,0,0,0,-1,1203,1597,0,0
-14,-573,0,0,0,0,0,0,0,0,0,-1,1210,1597,0,0
-7,-573,0,0,0,0,0,0,0,0,0,-1,1217,1597,0,0
0,-573,0,0,0,0,0,0,0,0,0,-1,1224,1597,0,0
7,-573,0,0,0,0,0,0,0,0,0,-1,1231,1597,0,0
14,-573,0,0,0,0,0,0,0,0,0,-1,1238,1597,0,0
21,-573,0,0,0,0,0,0,0,0,0,-1,1245,1597,0,0
28,-573,0,0,0,0,0,0,0,0,0,-1,1252,1597,0,0
35,-573,0,0,0,0,0,0,0,0,0,-1,1259,1597,0,0
42,-573,0,0,0,0,0,0,0,0,0,-1,1266,1597,0,0
49,-573,0,0,0,0,0,0,0,0,0,-1,1273,1597,0,0
56,-573,0,0,0,0,0,0,0,0,0,-1,1280,1597,0,0
63,-573,0,0,0,0,0,0,0,0,0,-1,1287,1597,0,0
70,-573,0,0,0,0,0,0,0,0,0,-1,1294,1597,0,0
77,-573,0,0,0,0,0,0,0,0,0,-1,1301,1597,0,0
84,-573,0,0,0,0,0,0,0,0,0,-1,1308,1597,0,0
91,-573,0,0,0,0,0,0,0,0,0,-1,1315,1597,0,0
98,-573,0,0,0,0,0,0,0,0,0,-1,1322,1597,0,0
105,-573,0,0,0,0,0,0,0,0,0,-1,1329,1597,0,0
112,-573,0,0,0,0,0,0,0,0,0,-1,1336,1597,0,0
119,-573,0,0,0,0,0,0,0,0,0,-1,1343,1597,0,0
126,-573,0,0,0,0,0,0,0,0,0,-1,1350,1597,0,0
133,-573,0,0,0,0,0,0,0,0,0,-1,1357,1597,0,0
140,-573,0,0,0,0,0,0,0,0,0,-1,1364,1597,0,0
147,-573,0,0,0,0,0,0,0,0,0,-1,1371,1597,0,0
154,-573,0,0,0,0,0,0,0,0,0,-1,1378,1597,0,0
161,-573,0,0,0,0,0,0,0,0,0,-1,1385,1597,0,0
168,-573,0,0,0,0,0,0,0,0,0,-1,1392,1597,0,0
175,-573,0,0,0,0,0,0,0,0,0,-1,1399,1597,0,0
182,-573,0,0,0,0,0,0,0,0,0,-1,1406,1597,0,0
189,-573,0,0,0,0,0,0,0,0,0,-1,1413,1597,0,0
196,-573,0,0,0,0,0,0,0,0,0,-1,1420,1597,0,0
203,-573,0,0,0,0,0,0,0,0,0,-1,1427,1597,0,0
210,-573,0,0,0,0,0,0,0,0,0,-1,1434,1597,0,0
217,-573,0,0,0,0,0,0,0,0,0,-1,1441,1597,0,0
224,-573,0,0,0,0,0,0,0,0,0,-1,1448,1597,0,0
231,-573,0,0,0,0,0,0,0,0,0,-1,1455,1597,0,0
238,-573,0,0,0,0,0,0,0,0,0,-1,1462,1597,0,0
245,-573,0,0,0,0,0,0,0,0,0,-1,1469,1597,0,0
252,-573,0,0,0,0,0,0,0,0,0,-1,1476,1597,0,0
259,-573,0,0,0,0,0,0,0,0,0,-1,1483,1597,0,0
266,-573,0,0,0,0,0,0,0,0,0,-1,1490,1597,0,0
273,-573,0,0,0,0,0,0,0,0,0,-1,1497,1597,0,0
280,-573,0,0,0,0,0,0,0,0,0,-1,1504,1597,0,0
287,-573,0,0,0,0,0,0,0,0,0,-1,1511,1597,0,0
294,-573,0,0,0,0,0,0,0,0,0,-1,1518,1597,0,0
301,-573,0,0,0,0,0,0,0,0,0,-1,1525,1597,0,0
308,-573,5.93042,9.71143,0,0,0,0,0,0,0,-1,1532,1597,5.93046,-9.71144
315,-573,4.34204,11.719,0,0,0,0,0,0,0,-1,1539,1597,4.34205,-11.719
322,-573,10.3269,7.77563,0,0,0,0,0,0,0,-1,1546,1597,10.327,-7.77565
329,-573,4.99573,3.80273,0,0,0,0,0,0,0,-1,1553,1597,4.9957,-3.80273
336,-573,4.85693,2.53455,0,0,0,0,0,0,0,-1,1560,1597,4.8569,-2.53459
343,-573,4.11877,0.735596,0,0,0,0,0,0,0,-1,1567,1597,4.11878,-0.735585
350,-573,2.53748,1.56433,0,0,0,0,0,0,0,-1,1574,1597,2.53753,-1.5643
357,-573,7.40247,4.03613,0,0,0,0,0,0,0,-1,1581,1597,7.40244,-4.03614
364,-573,7.14551,3.02087,0,0,0,0,0,0,0,-1,1588,1597,7.14556,-3.02084
371,-573,6.88867,2.00549,0,0,0,0,0,0,0,-1,1595,1597,6.88868,-2.00553
378,-573,8.62012,6.09106,0,0,0,0,0,0,0,-1,1602,1597,8.62012,-6.09103
385,-573,6.54346,-0.951904,0,0,0,0,0,0,0,-1,1609,1597,6.54349,0.951901
392,-573,6.41833,-2.18225,0,0,0,0,0,0,0,-1,1616,1597,6.41831,2.18228
399,-573,4.26282,4.73657,0,0,0,0,0,0,0,-1,1623,1597,4.26285,-4.73652
406,-573,6.82715,10.823,0,0,0,0,0,0,0,-1,1630,1597,6.82719,-10.823
413,-573,8.90552,13.1737,0,0,0,0,0,0,0,-1,1637,1597,8.90553,-13.1737
420,-573,9.81482,15.3215,0,0,0,0,0,0,0,-1,1644,1597,9.81482,-15.3215
427,-573,10.0415,14.7097,0,0,0,0,0,0,0,-1,1651,1597,10.0415,-14.7098
434,-573,8.6532,14.1305,0,0,0,0,0,0,0,-1,1658,1597,8.65317,-14.1305
441,-573,8.69434,14.4712,-0.00357571,-0.00111668,0.0162189,0.0139192,-0.0186116,0.82323,0.0188467,0.0325634,1665,1597,8.69432,-14.4712
448,-573,8.59509,14.3634,-0.00437548,-0.00225008,0.0142044,0.0109313,-0.0175569,0.822736,0.0165953,0.0204836,1672,1597,8.59507,-14.3634
455,-573,8.56702,14.111,-0.00488819,-0.00321646,0.0121673,0.00814362,-0.0162483,0.819693,0.0143395,0.0161799,1679,1597,8.56701,-14.111
462,-573,8.58569,13.8525,-0.00490596,-0.00386123,0.0101724,0.00580224,-0.0145694,0.811051,0.0121192,0.0175935,1686,1597,8.58572,-13.8525
469,-573,8.59656,13.6464,-0.00453045,-0.00423557,0.00832265,0.00394095,-0.012707,0.794255,0.010046,0.0147528,1693,1597,8.59661,-13.6463
476,-573,8.60986,13.418,-0.00400928,-0.00430286,0.00652285,0.00236844,-0.0106806,0.774148,0.00802718,0.0135117,1700,1597,8.6099,-13.418
483,-573,8.59692,13.2061,-0.00327059,-0.0037476,0.00492484,0.00142151,-0.0084397,0.761203,0.00615527,0.0109088,1707,1597,8.59692,-13.2061
490,-573,8.58167,13.0021,-0.00229072,-0.00330616,0.0034262,0.000665177,-0.00626205,0.71184,0.00441317,0.00960513,1714,1597,8.58162,-13.0021
497,-573,8.59753,12.7936,-0.00111705,-0.00249014,0.00189022,0.000207444,-0.00381463,0.611202,0.00261498,0.014038,1721,1597,8.59754,-12.7936
504,-573,8.60303,12.5651,0.000115628,-0.00128214,0.000644589,0.000367499,-0.00153401,0.372504,0.00116466,0.0162272,1728,1597,8.60307,-12.5651
511,-573,8.59668,12.3243,0.00139802,-0.000169087,-0.000468622,0.00152746,-0.00029853,-0.269501,0.00113103,0.017326,1735,1597,8.59662,-12.3244
518,-573,8.57092,12.0903,0.00256213,0.00070703,-0.00144722,0.00335353,-8.43763e-05,-0.500417,0.00226434,0.0128821,1742,1597,8.5709,-12.0903
525,-573,8.58362,11.8571,0.00372096,0.00135704,-0.00221073,0.00504586,3.2142e-05,-0.539909,0.00335324,0.0160816,1749,1597,8.58364,-11.857
532,-573,8.58752,11.5986,0.00494975,0.00184585,-0.00277527,0.00657753,0.000218071,-0.530456,0.00431417,0.0152545,1756,1597,8.58752,-11.5986
539,-573,8.56714,11.3591,0.00630702,0.0022519,-0.00325461,0.00811397,0.000444951,-0.506825,0.00526727,0.021615,1763,1597,8.56716,-11.3592
546,-573,8.63477,11.1246,0.0074734,0.0020744,-0.00308678,0.00887457,0.000673226,-0.426114,0.00570523,0.0358461,1770,1597,8.6348,-11.1247
553,-573,8.37939,10.8433,0.00892168,0.00240927,-0.00281079,0.00996704,0.00136392,-0.356057,0.00623994,0.0494142,1777,1597,8.37939,-10.8433
560,-573,8.41785,10.6366,0,0,0,0,0,0,0,-1,1784,1597,8.4178,-10.6366
567,-573,4.99597,2.77759,0,0,0,0,0,0,0,-1,1791,1597,4.99596,-2.7776
574,-573,0.83374,5.7041,0,0,0,0,0,0,0,-1,1798,1597,0.833718,-5.70405
581,-573,-0.224854,7.41602,0,0,0,0,0,0,0,-1,1805,1597,-0.224904,-7.41596
588,-573,-0.134033,7.67065,0,0,0,0,0,0,0,-1,1812,1597,-0.134037,-7.67063
595,-573,-0.0825195,8.35083,0,0,0,0,0,0,0,-1,1819,1597,-0.0824684,-8.35088
602,-573,0,0,0,0,0,0,0,0,0,-1,1826,1597,0,0
609,-573,0,0,0,0,0,0,0,0,0,-1,1833,1597,0,0
616,-573,0,0,0,0,0,0,0,0,0,-1,1840,1597,0,0
623,-573,0,0,0,0,0,0,0,0,0,-1,1847,1597,0,0
630,-573,0,0,0,0,0,0,0,0,0,-1,1854,1597,0,0
637,-573,0,0,0,0,0,0,0,0,0,-1,1861,1597,0,0
644,-573,0,0,0,0,0,0,0,0,0,-1,1868,1597,0,0
651,-573,0,0,0,0,0,0,0,0,0,-1,1875,1597,0,0
658,-573,0,0,0,0,0,0,0,0,0,-1,1882,1597,0,0
665,-573,0,0,0,0,0,0,0,0,0,-1,1889,1597,0,0
672,-573,0,0,0,0,0,0,0,0,0,-1,1896,1597,0,0
679,-573,0,0,0,0,0,0,0,0,0,-1,1903,1597,0,0
686,-573,0,0,0,0,0,0,0,0,0,-1,1910,1597,0,0
693,-573,0,0,0,0,0,0,0,0,0,-1,1917,1597,0,0
700,-573,0,0,0,0,0,0,0,0,0,-1,1924,1597,0,0
707,-573,0,0,0,0,0,0,0,0,0,-1,1931,1597,0,0
714,-573,0,0,0,0,0,0,0,0,0,-1,1938,1597,0,0
721,-573,0,0,0,0,0,0,0,0,0,-1,1945,1597,0,0
728,-573,0,0,0,0,0,0,0,0,0,-1,1952,1597,0,0
735,-573,0,0,0,0,0,0,0,0,0,-1,1959,1597,0,0
742,-573,0,0,0,0,0,0,0,0,0,-1,1966,1597,0,0
749,-573,0,0,0,0,0,0,0,0,0,-1,1973,1597,0,0
756,-573,0,0,0,0,0,0,0,0,0,-1,1980,1597,0,0
763,-573,0,0,0,0,0,0,0,0,0,-1,1987,1597,0,0
770,-573,0,0,0,0,0,0,0,0,0,-1,1994,1597,0,0
777,-573,0,0,0,0,0,0,0,0,0,-1,2001,1597,0,0
784,-573,0,0,0,0,0,0,0,0,0,-1,2008,1597,0,0
791,-573,0,0,0,0,0,0,0,0,0,-1,2015,1597,0,0
798,-573,0,0,0,0,0,0,0,0,0,-1,2022,1597,0,0
805,-573,0,0,0,0,0,0,0,0,0,-1,2029,1597,0,0
812,-573,0,0,0,0,0,0,0,0,0,-1,2036,1597,0,0
-700,-580,0,0,0,0,0,0,0,0,0,-1,524,1604,0,0
-693,-580,0,0,0,0,0,0,0,0,0,-1,531,1604,0,0
-686,-580,0,0,0,0,0,0,0,0,0,-1,538,1604,0,0
-679,-580,0,0,0,0,0,0,0,0,0,-1,545,1604,0,0
-672,-580,0,0,0,0,0,0,0,0,0,-1,552,1604,0,0
-665,-580,0,0,0,0,0,0,0,0,0,-1,559,1604,0,0
-658,-580,0,0,0,0,0,0,0,0,0,-1,566,1604,0,0
-651,-580,0,0,0,0,0,0,0,0,0,-1,573,1604,0,0
-644,-580,0,0,0,0,0,0,0,0,0,-1,580,1604,0,0
-637,-580,0,0,0,0,0,0,0,0,0,-1,587,1604,0,0
-630,-580,0,0,0,0,0,0,0,0,0,-1,594,1604,0,0
-623,-580,0,0,0,0,0,0,0,0,0,-1,601,1604,0,0
-616,-580,0,0,0,0,0,0,0,0,0,-1,608,1604,0,0
-609,-580,0,0,0,0,0,0,0,0,0,-1,615,1604,0,0
-602,-580,0,0,0,0,0,0,0,0,0,-1,622,1604,0,0
-595,-580,0,0,0,0,0,0,0,0,0,-1,629,1604,0,0
-588,-580,0,0,0,0,0,0,0,0,0,-1,636,1604,0,0
-581,-580,0,0,0,0,0,0,0,0,0,-1,643,1604,0,0
-574,-580,0,0,0,0,0,0,0,0,0,-1,650,1604,0,0
-567,-580,0,0,0,0,0,0,0,0,0,-1,657,1604,0,0
-560,-580,0,0,0,0,0,0,0,0,0,-1,664,1604,0,0
-553,-580,0,0,0,0,0,0,0,0,0,-1,671,1604,0,0
-546,-580,0,0,0,0,0,0,0,0,0,-1,678,1604,0,0
-539,-580,0,0,0,0,0,0,0,0,0,-1,685,1604,0,0
-532,-580,0,0,0,0,0,0,0,0,0,-1,692,1604,0,0
-525,-580,0,0,0,0,0,0,0,0,0,-1,699,1604,0,0
-518,-580,0,0,0,0,0,0,0,0,0,-1,706,1604,0,0
-511,-580,0,0,0,0,0,0,0,0,0,-1,713,1604,0,0
-504,-580,0,0,0,0,0,0,0,0,0,-1,720,1604,0,0
-497,-580,0,0,0,0,0,0,0,0,0,-1,727,1604,0,0
-490,-580,0,0,0,0,0,0,0,0,0,-1,734,1604,0,0
-483,-580,0,0,0,0,0,0,0,0,0,-1,741,1604,0,0
-476,-580,0,0,0,0,0,0,0,0,0,-1,748,1604,0,0
-469,-580,-1.69189,-0.38916,0,0,0,0,0,0,0,-1,755,1604,-1.69192,0.389188
-462,-580,-0.859863,0.675293,0,0,0,0,0,0,0,-1,762,1604,-0.859834,-0.675245
-455,-580,-0.730164,0.651978,0,0,0,0,0,0,0,-1,769,1604,-0.730153,-0.651957
-448,-580,-3.31891,2.07544,0,0,0,0,0,0,0,-1,776,1604,-3.3189,-2.07539
-441,-580,-1.63843,3.9469,0,0,0,0,0,0,0,-1,783,1604,-1.63842,-3.94695
-434,-580,0.23291,5.97876,0,0,0,0,0,0,0,-1,790,1604,0.232901,-5.97878
-427,-580,1.62756,8.05493,0,0,0,0,0,0,0,-1,797,1604,1.62758,-8.05488
-420,-580,0.850952,9.3927,0,0,0,0,0,0,0,-1,804,1604,0.850923,-9.39268
-413,-580,1.396,9.78564,0,0,0,0,0,0,0,-1,811,1604,1.39598,-9.78562
-406,-580,1.41791,10.0695,-0.00353794,-0.00420939,-0.00102702,-0.00279316,-0.00495417,-0.627429,0.00286804,0.0435464,818,1604,1.41792,-10.0694
-399,-580,1.33832,10.3209,-0.00329119,-0.00449898,-0.00131193,-0.00245084,-0.00533933,-0.5697,0.00308611,0.0173533,825,1604,1.33834,-10.3209
-392,-580,1.33423,10.5892,-0.00270682,-0.00450719,-0.00136377,-0.00197293,-0.00524109,-0.493688,0.00305659,0.0110106,832,1604,1.33423,-10.5893
-385,-580,1.34949,10.8357,-0.00208484,-0.00441408,-0.00141127,-0.0014197,-0.00507922,-0.440432,0.00302604,0.0112136,839,1604,1.34952,-10.8358
-378,-580,1.34564,11.0892,-0.00150081,-0.00389996,-0.00128929,-0.000939346,-0.00446142,-0.410714,0.00271586,0.0144881,846,1604,1.34563,-11.0893
-371,-580,1.34149,11.3634,-0.00101812,-0.0032687,-0.00117608,-0.000515697,-0.00377112,-0.403733,0.00236103,0.0132084,853,1604,1.34152,-11.3634
-364,-580,1.31683,11.6012,-0.000652285,-0.00249321,-0.0010086,-0.000207271,-0.00293822,-0.415528,0.00189351,0.0178751,860,1604,1.31685,-11.6012
-357,-580,1.32617,11.8175,-0.000430504,-0.00166643,-0.000928419,6.68091e-05,-0.00216374,-0.491764,0.00146527,0.0129466,867,1604,1.32615,-11.8175
-350,-580,1.33649,12.0905,-0.000238094,-0.000942632,-0.00100156,0.000471344,-0.00165207,-0.616295,0.00128758,0.010423,874,1604,1.33646,-12.0904
-343,-580,1.32434,12.3381,-0.000232704,-0.000253617,-0.00117098,0.000927862,-0.00141418,-0.780933,0.00136186,0.0118518,881,1604,1.32436,-12.3381
-336,-580,1.33643,12.5321,-0.00046552,0.000247793,-0.00163495,0.00156454,-0.00178226,-0.892788,0.00193364,0.0195782,888,1604,1.33645,-12.5321
-329,-580,1.35333,12.7981,-0.00080996,0.000744839,-0.00219899,0.0022998,-0.00236492,-0.955305,0.00269326,0.0170725,895,1604,1.35336,-12.7981
-322,-580,1.33978,13.0513,-0.00135722,0.00074406,-0.00310642,0.0029727,-0.00358586,-0.948468,0.0037921,0.018579,902,1604,1.33978,-13.0513
-315,-580,1.36096,13.2987,-0.00194267,0.000416076,-0.0042401,0.00363777,-0.00516436,-0.921043,0.00510733,0.0154988,909,1604,1.36096,-13.2987
-308,-580,1.39307,13.5524,-0.00230974,-0.000583355,-0.0055647,0.0041847,-0.0070778,-0.862345,0.00657354,0.0189336,916,1604,1.39305,-13.5524
-301,-580,1.44141,13.7159,-0.0024773,-0.0020189,-0.00692615,0.00468184,-0.00917804,-0.801938,0.00814115,0.0174306,923,1604,1.4414,-13.7159
-294,-580,1.44531,13.881,-0.00261845,-0.00395912,-0.00836966,0.00510767,-0.0116852,-0.745438,0.00994022,0.02048,930,1604,1.44533,-13.881
-287,-580,1.41022,13.9268,-0.00246614,-0.0065745,-0.00977666,0.00546981,-0.0145104,-0.681849,0.0119227,0.0418082,937,1604,1.41023,-13.9267
-280,-580,1.38855,14.3818,0,0,0,0,0,0,0,-1,944,1604,1.38856,-14.3818
-273,-580,1.20142,14.1504,0,0,0,0,0,0,0,-1,951,1604,1.20144,-14.1504
-266,-580,0.494202,8.78955,0,0,0,0,0,0,0,-1,958,1604,0.494174,-8.78958
-259,-580,1.31091,9.11536,0,0,0,0,0,0,0,-1,965,1604,1.31092,-9.11539
-252,-580,1.07629,7.74097,0,0,0,0,0,0,0,-1,972,1604,1.07627,-7.74101
-245,-580,3.80304,9.16028,0,0,0,0,0,0,0,-1,979,1604,3.80306,-9.16034
-238,-580,-10.3588,1.57556,0,0,0,0,0,0,0,-1,986,1604,-10.3588,-1.5755
-231,-580,-10.576,6.43787,0,0,0,0,0,0,0,-1,993,1604,-10.576,-6.43783
-224,-580,-8.27435,7.58972,0,0,0,0,0,0,0,-1,1000,1604,-8.27435,-7.5897
-217,-580,-5.85632,9.51221,0,0,0,0,0,0,0,-1,1007,1604,-5.85632,-9.5122
-210,-580,-3.6684,11.1569,0,0,0,0,0,0,0,-1,1014,1604,-3.66839,-11.1569
-203,-580,-1.92474,12.7845,0,0,0,0,0,0,0,-1,1021,1604,-1.92477,-12.7845
-196,-580,-2.28552,10.3289,0,0,0,0,0,0,0,-1,1028,1604,-2.28552,-10.3288
-189,-580,-4.58252,7.59058,0,0,0,0,0,0,0,-1,1035,1604,-4.58256,-7.59057
-182,-580,-5.45874,7.65942,0,0,0,0,0,0,0,-1,1042,1604,-5.45876,-7.65939
-175,-580,-6.38977,7.55005,0,0,0,0,0,0,0,-1,1049,1604,-6.38981,-7.5501
-168,-580,0,0,0,0,0,0,0,0,0,-1,1056,1604,0,0
-161,-580,0,0,0,0,0,0,0,0,0,-1,1063,1604,0,0
-154,-580,0,0,0,0,0,0,0,0,0,-1,1070,1604,0,0
-147,-580,0,0,0,0,0,0,0,0,0,-1,1077,1604,0,0
-140,-580,0,0,0,0,0,0,0,0,0,-1,1084,1604,0,0
-133,-580,0,0,0,0,0,0,0,0,0,-1,1091,1604,0,0
-126,-580,0,0,0,0,0,0,0,0,0,-1,1098,1604,0,0
-119,-580,0,0,0,0,0,0,0,0,0,-1,1105,1604,0,0
-112,-580,0,0,0,0,0,0,0,0,0,-1,1112,1604,0,0
-105,-580,0,0,0,0,0,0,0,0,0,-1,1119,1604,0,0
-98,-580,0,0,0,0,0,0,0,0,0,-1,1126,1604,0,0
-91,-580,0,0,0,0,0,0,0,0,0,-1,1133,1604,0,0
-84,-580,0,0,0,0,0,0,0,0,0,-1,1140,1604,0,0
-77,-580,0,0,0,0,0,0,0,0,0,-1,1147,1604,0,0
-70,-580,0,0,0,0,0,0,0,0,0,-1,1154,1604,0,0
-63,-580,0,0,0,0,0,0,0,0,0,-1,1161,1604,0,0
-56,-580,0,0,0,0,0,0,0,0,0,-1,1168,1604,0,0
-49,-580,0,0,0,0,0,0,0,0,0,-1,1175,1604,0,0
-42,-580,0,0,0,0,0,0,0,0,0,-1,1182,1604,0,0
-35,-580,0,0,0,0,0,0,0,0,0,-1,1189,1604,0,0
-28,-580,0,0,0,0,0,0,0,0,0,-1,1196,1604,0,0
-21,-580,0,0,0,0,0,0,0,0,0,-1,1203,1604,0,0
-14,-580,0,0,0,0,0,0,0,0,0,-1,1210,1604,0,0
-7,-580,0,0,0,0,0,0,0,0,0,-1,1217,1604,0,0
0,-580,0,0,0,0,0,0,0,0,0,-1,1224,1604,0,0
7,-580,0,0,0,0,0,0,0,0,0,-1,1231,1604,0,0
14,-580,0,0,0,0,0,0,0,0,0,-1,1238,1604,0,0
21,-580,0,0,0,0,0,0,0,0,0,-1,1245,1604,0,0
28,-580,0,0,0,0,0,0,0,0,0,-1,1252,1604,0,0
35,-580,0,0,0,0,0,0,0,0,0,-1,1259,1604,0,0
42,-580,0,0,0,0,0,0,0,0,0,-1,1266,1604,0,0
49,-580,0,0,0,0,0,0,0,0,0,-1,1273,1604,0,0
56,-580,0,0,0,0,0,0,0,0,0,-1,1280,1604,0,0
63,-580,0,0,0,0,0,0,0,0,0,-1,1287,1604,0,0
70,-580,0,0,0,0,0,0,0,0,0,-1,1294,1604,0,0
77,-580,0,0,0,0,0,0,0,0,0,-1,1301,1604,0,0
84,-580,0,0,0,0,0,0,0,0,0,-1,1308,1604,0,0
91,-580,0,0,0,0,0,0,0,0,0,-1,1315,1604,0,0
98,-580,0,0,0,0,0,0,0,0,0,-1,1322,1604,0,0
105,-580,0,0,0,0,0,0,0,0,0,-1,1329,1604,0,0
112,-580,0,0,0,0,0,0,0,0,0,-1,1336,1604,0,0
119,-580,0,0,0,0,0,0,0,0,0,-1,1343,1604,0,0
126,-580,0,0,0,0,0,0,0,0,0,-1,1350,1604,0,0
133,-580,0,0,0,0,0,0,0,0,0,-1,1357,1604,0,0
140,-580,0,0,0,0,0,0,0,0,0,-1,1364,1604,0,0
147,-580,0,0,0,0,0,0,0,0,0,-1,1371,1604,0,0
154,-580,0,0,0,0,0,0,0,0,0,-1,1378,1604,0,0
161,-580,0,0,0,0,0,0,0,0,0,-1,1385,1604,0,0
168,-580,0,0,0,0,0,0,0,0,0,-1,1392,1604,0,0
175,-580,0,0,0,0,0,0,0,0,0,-1,1399,1604,0,0
182,-580,0,0,0,0,0,0,0,0,0,-1,1406,1604,0,0
189,-580,0,0,0,0,0,0,0,0,0,-1,1413,1604,0,0
196,-580,0,0,0,0,0,0,0,0,0,-1,1420,1604,0,0
203,-580,0,0,0,0,0,0,0,0,0,-1,1427,1604,0,0
210,-580,0,0,0,0,0,0,0,0,0,-1,1434,1604,0,0
217,-580,0,0,0,0,0,0,0,0,0,-1,1441,1604,0,0
224,-580,0,0,0,0,0,0,0,0,0,-1,1448,1604,0,0
231,-580,0,0,0,0,0,0,0,0,0,-1,1455,1604,0,0
238,-580,0,0,0,0,0,0,0,0,0,-1,1462,1604,0,0
245,-580,0,0,0,0,0,0,0,0,0,-1,1469,1604,0,0
252,-580,0,0,0,0,0,0,0,0,0,-1,1476,1604,0,0
259,-580,0,0,0,0,0,0,0,0,0,-1,1483,1604,0,0
266,-580,0,0,0,0,0,0,0,0,0,-1,1490,1604,0,0
273,-580,0,0,0,0,0,0,0,0,0,-1,1497,1604,0,0
280,-580,0,0,0,0,0,0,0,0,0,-1,1504,1604,0,0
287,-580,0,0,0,0,0,0,0,0,0,-1,1511,1604,0,0
294,-580,4.0437,0.177368,0,0,0,0,0,0,0,-1,1518,1604,4.04369,-0.177371
301,-580,7.55164,8.05798,0,0,0,0,0,0,0,-1,1525,1604,7.55158,-8.05802
308,-580,5.9126,9.99341,0,0,0,0,0,0,0,-1,1532,1604,5.91255,-9.99337
315,-580,4.27356,11.9287,0,0,0,0,0,0,0,-1,1539,1604,4.27352,-11.9287
322,-580,10.2366,7.50281,0,0,0,0,0,0,0,-1,1546,1604,10.2366,-7.50282
329,-580,10.5962,8.69641,0,0,0,0,0,0,0,-1,1553,1604,10.5962,-8.69642
336,-580,3.66431,1.58862,0,0,0,0,0,0,0,-1,1560,1604,3.6643,-1.58864
343,-580,3.32227,1.39636,0,0,0,0,0,0,0,-1,1567,1604,3.32222,-1.39633
350,-580,8.71277,4.0564,0,0,0,0,0,0,0,-1,1574,1604,8.71271,-4.05638
357,-580,8.52332,3.08154,0,0,0,0,0,0,0,-1,1581,1604,8.52332,-3.08157
364,-580,8.25818,2.07605,0,0,0,0,0,0,0,-1,1588,1604,8.25812,-2.07608
371,-580,7.42114,7.14282,0,0,0,0,0,0,0,-1,1595,1604,7.42119,-7.14281
378,-580,7.9718,6.6731,0,0,0,0,0,0,0,-1,1602,1604,7.9718,-6.67307
385,-580,8.52246,6.20337,0,0,0,0,0,0,0,-1,1609,1604,8.52241,-6.20334
392,-580,6.5498,-2.15625,0,0,0,0,0,0,0,-1,1616,1604,6.54984,2.15626
399,-580,6.52625,10.7247,0,0,0,0,0,0,0,-1,1623,1604,6.52628,-10.7248
406,-580,8.6698,14.8674,0,0,0,0,0,0,0,-1,1630,1604,8.66983,-14.8674
413,-580,8.65442,14.9053,0,0,0,0,0,0,0,-1,1637,1604,8.6544,-14.9053
420,-580,8.94043,15.2136,2.64172e-05,-0.00109094,0.0180032,0.0174796,-0.0185441,0.769887,0.0208013,0.0415683,1644,1604,8.94045,-15.2136
427,-580,9.02075,14.8506,-0.00111748,-0.000977757,0.016057,0.0150096,-0.0171048,0.787574,0.0185544,0.0376593,1651,1604,9.02076,-14.8505
434,-580,8.70081,14.8297,0,0,0,0,0,0,0,-1,1658,1604,8.70083,-14.8297
441,-580,8.32568,14.4679,-0.00277386,-0.00160167,0.0121866,0.0100129,-0.0143884,0.809426,0.0141634,0.0122165,1665,1604,8.3257,-14.4679
448,-580,8.34485,14.2831,-0.00312631,-0.00187986,0.0103953,0.00791085,-0.012917,0.815339,0.0121402,0.0114168,1672,1604,8.34482,-14.2831
455,-580,8.38135,14.0814,-0.00336092,-0.00221496,0.0086555,0.0058865,-0.0114624,0.818449,0.0101874,0.018457,1679,1604,8.38137,-14.0815
462,-580,8.35388,13.8481,-0.00322241,-0.00245135,0.00696922,0.004143,-0.00981675,0.813029,0.00827859,0.022989,1686,1604,8.35385,-13.8481
469,-580,8.35547,13.6255,-0.00276527,-0.00260053,0.00540351,0.00272124,-0.00808704,0.793019,0.00649144,0.0196615,1693,1604,8.3555,-13.6255
476,-580,8.38745,13.4031,-0.00224357,-0.00257588,0.00385753,0.00145138,-0.00627083,0.763875,0.00473902,0.0146084,1700,1604,8.38741,-13.4031
483,-580,8.36743,13.1908,-0.00158211,-0.00203827,0.00255432,0.000754289,-0.00437467,0.74087,0.00319767,0.0120039,1707,1604,8.36748,-13.1908
490,-580,8.33496,13.0145,-0.000586821,-0.00162178,0.00129652,0.000291671,-0.00250027,0.59552,0.00177209,0.0138273,1714,1604,8.33499,-13.0145
497,-580,8.3269,12.7959,0.000507556,-0.000948551,2.10635e-05,0.000507861,-0.000948855,0.0144616,0.000853785,0.010931,1721,1604,8.32687,-12.7958
504,-580,8.33618,12.5603,0.00155167,-1.80557e-05,-0.00095001,0.00199909,-0.000465479,-0.440153,0.00151196,0.0147416,1728,1604,8.33623,-12.5603
511,-580,8.35193,12.3409,0.00265207,0.000829754,-0.00178839,0.00374804,-0.000266212,-0.549795,0.00259199,0.015449,1735,1604,8.35196,-12.341
518,-580,8.36023,12.0968,0.00371899,0.00148979,-0.00254595,0.00538363,-0.000174854,-0.579069,0.00364877,0.0142342,1742,1604,8.36026,-12.0967
525,-580,8.32324,11.8413,0.00485267,0.00187554,-0.00308886,0.00679294,-6.47244e-05,-0.560861,0.00455035,0.0168878,1749,1604,8.32319,-11.8414
532,-580,8.31543,11.6102,0.0061536,0.0022375,-0.0035235,0.00822656,0.000164547,-0.531789,0.00543035,0.0197576,1756,1604,8.31545,-11.6103
539,-580,8.36414,11.4628,0.00764165,0.00257196,-0.0038418,0.00970951,0.000504102,-0.493779,0.00631169,0.027103,1763,1604,8.36415,-11.4628
546,-580,8.71399,11.2094,0.00916234,0.00253366,-0.00374454,0.0108486,0.000847357,-0.423134,0.00696717,0.0436377,1770,1604,8.71399,-11.2094
553,-580,9.18005,10.8481,0,0,0,0,0,0,0,-1,1777,1604,9.18009,-10.8482
560,-580,7.09021,6.49438,0,0,0,0,0,0,0,-1,1784,1604,7.09016,-6.4944
567,-580,3.87708,4.0647,0,0,0,0,0,0,0,-1,1791,1604,3.87711,-4.06471
574,-580,2.31653,5.62952,0,0,0,0,0,0,0,-1,1798,1604,2.31654,-5.62947
581,-580,1.60876,6.67664,0,0,0,0,0,0,0,-1,1805,1604,1.60873,-6.67667
588,-580,1.38684,7.14441,0,0,0,0,0,0,0,-1,1812,1604,1.38689,-7.14443
595,-580,0,0,0,0,0,0,0,0,0,-1,1819,1604,0,0
602,-580,0,0,0,0,0,0,0,0,0,-1,1826,1604,0,0
609,-580,0,0,0,0,0,0,0,0,0,-1,1833,1604,0,0
616,-580,0,0,0,0,0,0,0,0,0,-1,1840,1604,0,0
623,-580,0,0,0,0,0,0,0,0,0,-1,1847,1604,0,0
630,-580,0,0,0,0,0,0,0,0,0,-1,1854,1604,0,0
637,-580,0,0,0,0,0,0,0,0,0,-1,1861,1604,0,0
644,-580,0,0,0,0,0,0,0,0,0,-1,1868,1604,0,0
651,-580,0,0,0,0,0,0,0,0,0,-1,1875,1604,0,0
658,-580,0,0,0,0,0,0,0,0,0,-1,1882,1604,0,0
665,-580,0,0,0,0,0,0,0,0,0,-1,1889,1604,0,0
672,-580,0,0,0,0,0,0,0,0,0,-1,1896,1604,0,0
679,-580,0,0,0,0,0,0,0,0,0,-1,1903,1604,0,0
686,-580,0,0,0,0,0,0,0,0,0,-1,1910,1604,0,0
693,-580,0,0,0,0,0,0,0,0,0,-1,1917,1604,0,0
700,-580,0,0,0,0,0,0,0,0,0,-1,1924,1604,0,0
707,-580,0,0,0,0,0,0,0,0,0,-1,1931,1604,0,0
714,-580,0,0,0,0,0,0,0,0,0,-1,1938,1604,0,0
721,-580,0,0,0,0,0,0,0,0,0,-1,1945,1604,0,0
728,-580,0,0,0,0,0,0,0,0,0,-1,1952,1604,0,0
735,-580,0,0,0,0,0,0,0,0,0,-1,1959,1604,0,0
742,-580,0,0,0,0,0,0,0,0,0,-1,1966,1604,0,0
749,-580,0,0,0,0,0,0,0,0,0,-1,1973,1604,0,0
756,-580,0,0,0,0,0,0,0,0,0,-1,1980,1604,0,0
763,-580,0,0,0,0,0,0,0,0,0,-1,1987,1604,0,0
770,-580,0,0,0,0,0,0,0,0,0,-1,1994,1604,0,0
777,-580,0,0,0,0,0,0,0,0,0,-1,2001,1604,0,0
784,-580,0,0,0,0,0,0,0,0,0,-1,2008,1604,0,0
791,-580,0,0,0,0,0,0,0,0,0,-1,2015,1604,0,0
798,-580,0,0,0,0,0,0,0,0,0,-1,2022,1604,0,0
805,-580,0,0,0,0,0,0,0,0,0,-1,2029,1604,0,0
812,-580,0,0,0,0,0,0,0,0,0,-1,2036,1604,0,0
-700,-587,0,0,0,0,0,0,0,0,0,-1,524,1611,0,0
-693,-587,0,0,0,0,0,0,0,0,0,-1,531,1611,0,0
-686,-587,0,0,0,0,0,0,0,0,0,-1,538,1611,0,0
-679,-587,0,0,0,0,0,0,0,0,0,-1,545,1611,0,0
-672,-587,0,0,0,0,0,0,0,0,0,-1,552,1611,0,0
-665,-587,0,0,0,0,0,0,0,0,0,-1,559,1611,0,0
-658,-587,0,0,0,0,0,0,0,0,0,-1,566,1611,0,0
-651,-587,0,0,0,0,0,0,0,0,0,-1,573,1611,0,0
-644,-587,0,0,0,0,0,0,0,0,0,-1,580,1611,0,0
-637,-587,0,0,0,0,0,0,0,0,0,-1,587,1611,0,0
-630,-587,0,0,0,0,0,0,0,0,0,-1,594,1611,0,0
-623,-587,0,0,0,0,0,0,0,0,0,-1,601,1611,0,0
-616,-587,0,0,0,0,0,0,0,0,0,-1,608,1611,0,0
-609,-587,0,0,0,0,0,0,0,0,0,-1,615,1611,0,0
-602,-587,0,0,0,0,0,0,0,0,0,-1,622,1611,0,0
-595,-587,0,0,0,0,0,0,0,0,0,-1,629,1611,0,0
-588,-587,0,0,0,0,0,0,0,0,0,-1,636,1611,0,0
-581,-587,0,0,0,0,0,0,0,0,0,-1,643,1611,0,0
-574,-587,0,0,0,0,0,0,0,0,0,-1,650,1611,0,0
-567,-587,0,0,0,0,0,0,0,0,0,-1,657,1611,0,0
-560,-587,0,0,0,0,0,0,0,0,0,-1,664,1611,0,0
-553,-587,0,0,0,0,0,0,0,0,0,-1,671,1611,0,0
-546,-587,0,0,0,0,0,0,0,0,0,-1,678,1611,0,0
-539,-587,0,0,0,0,0,0,0,0,0,-1,685,1611,0,0
-532,-587,0,0,0,0,0,0,0,0,0,-1,692,1611,0,0
-525,-587,0,0,0,0,0,0,0,0,0,-1,699,1611,0,0
-518,-587,0,0,0,0,0,0,0,0,0,-1,706,1611,0,0
-511,-587,0,0,0,0,0,0,0,0,0,-1,713,1611,0,0
-504,-587,0,0,0,0,0,0,0,0,0,-1,720,1611,0,0
-497,-587,0,0,0,0,0,0,0,0,0,-1,727,1611,0,0
-490,-587,0,0,0,0,0,0,0,0,0,-1,734,1611,0,0
-483,-587,0,0,0,0,0,0,0,0,0,-1,741,1611,0,0
-476,-587,0,0,0,0,0,0,0,0,0,-1,748,1611,0,0
-469,-587,0,0,0,0,0,0,0,0,0,-1,755,1611,0,0
-462,-587,-0.714355,-0.418457,0,0,0,0,0,0,0,-1,762,1611,-0.714359,0.418483
-455,-587,-0.619812,-0.522461,0,0,0,0,0,0,0,-1,769,1611,-0.619802,0.522515
-448,-587,-0.461731,-0.686523,0,0,0,0,0,0,0,-1,776,1611,-0.461739,0.686559
-441,-587,-3.56555,2.72253,0,0,0,0,0,0,0,-1,783,1611,-3.56555,-2.72259
-434,-587,-1.77319,4.76318,0,0,0,0,0,0,0,-1,790,1611,-1.77318,-4.76323
-427,-587,0.0346069,6.92944,0,0,0,0,0,0,0,-1,797,1611,0.034587,-6.92941
-420,-587,-0.647156,10.1157,0,0,0,0,0,0,0,-1,804,1611,-0.647128,-10.1158
-413,-587,2.0481,8.28052,0,0,0,0,0,0,0,-1,811,1611,2.0481,-8.28049
-406,-587,1.7644,10.0721,0,0,0,0,0,0,0,-1,818,1611,1.76442,-10.0721
-399,-587,1.71356,10.2688,-0.00473931,-0.00701203,-0.00248804,-0.00314041,-0.00861093,-0.571181,0.00503183,0.0368263,825,1611,1.71354,-10.2688
-392,-587,1.65399,10.535,-0.00385677,-0.00673889,-0.00235533,-0.00253663,-0.00805903,-0.510862,0.00475813,0.0250329,832,1611,1.65399,-10.535
-385,-587,1.58215,10.8218,-0.00297535,-0.0063266,-0.00219304,-0.00189106,-0.00741089,-0.459177,0.00444637,0.0144651,839,1611,1.58215,-10.8218
-378,-587,1.55957,11.0975,-0.00218052,-0.00551648,-0.00190704,-0.00131494,-0.00638207,-0.426084,0.00389118,0.0128968,846,1611,1.5596,-11.0976
-371,-587,1.55005,11.3834,-0.00150931,-0.00466551,-0.00164245,-0.000809686,-0.00536514,-0.402688,0.00333974,0.0135173,853,1611,1.55004,-11.3834
-364,-587,1.55469,11.6113,-0.0009484,-0.00372536,-0.00131372,-0.000425407,-0.00424835,-0.378869,0.00270162,0.0166914,860,1611,1.55468,-11.6114
-357,-587,1.56,11.807,-0.00052625,-0.00274893,-0.00104394,-0.000112833,-0.00316235,-0.377068,0.00207164,0.0161291,867,1611,1.56,-11.807
-350,-587,1.56519,12.0869,-0.000187279,-0.001886,-0.000947714,0.000235986,-0.00230926,-0.420037,0.0016239,0.00906923,874,1611,1.5652,-12.0869
-343,-587,1.55408,12.3671,-4.42171e-05,-0.00113268,-0.000972664,0.000526119,-0.00170302,-0.530333,0.00134546,0.0122036,881,1611,1.5541,-12.3671
-336,-587,1.55078,12.5774,-0.000125493,-0.000548156,-0.00125779,0.000938593,-0.00161224,-0.702166,0.00148975,0.0122627,888,1611,1.55077,-12.5774
-329,-587,1.55621,12.7856,-0.000295996,1.01588e-06,-0.00162877,0.00148804,-0.00178302,-0.830861,0.0018911,0.0139683,895,1611,1.55618,-12.7857
-322,-587,1.56946,13.0424,-0.000645399,8.57268e-05,-0.00229691,0.00204598,-0.00260565,-0.864313,0.00269209,0.0172195,902,1611,1.56944,-13.0424
-315,-587,1.56281,13.2659,-0.00102764,-0.000183924,-0.00315633,0.00257861,-0.00379018,-0.851832,0.00369913,0.0139437,909,1611,1.56278,-13.2659
-308,-587,1.55139,13.5167,-0.00120791,-0.00107225,-0.00416347,0.00302394,-0.0053041,-0.793543,0.0048679,0.0136709,916,1611,1.55139,-13.5167
-301,-587,1.6004,13.7432,-0.00117886,-0.00232091,-0.0051649,0.00344649,-0.00694626,-0.730343,0.00611261,0.0121221,923,1611,1.60038,-13.7432
-294,-587,1.65582,13.947,-0.00106536,-0.00386591,-0.00615148,0.00384321,-0.00877448,-0.673489,0.00746797,0.0133831,930,1611,1.65582,-13.947
-287,-587,1.65845,14.1642,-0.000680162,-0.00590144,-0.00705233,0.00422922,-0.0108108,-0.608128,0.00895623,0.0250982,937,1611,1.65847,-14.1642
-280,-587,1.61554,14.3702,8.76898e-05,-0.00843305,-0.00801611,0.00490525,-0.0132506,-0.541143,0.0108451,0.0383643,944,1611,1.61553,-14.3703
-273,-587,1.54822,14.3062,0.0012571,-0.0116284,-0.00903888,0.00591438,-0.0162857,-0.475772,0.0132752,0.0485252,951,1611,1.54824,-14.3061
-266,-587,1.62634,14.4341,0,0,0,0,0,0,0,-1,958,1611,1.62634,-14.4341
-259,-587,1.97156,14.1868,0,0,0,0,0,0,0,-1,965,1611,1.97156,-14.1868
-252,-587,1.30188,10.3103,0,0,0,0,0,0,0,-1,972,1611,1.30188,-10.3104
-245,-587,2.97797,12.0387,0,0,0,0,0,0,0,-1,979,1611,2.97798,-12.0387
-238,-587,2.87799,9.53821,0,0,0,0,0,0,0,-1,986,1611,2.87797,-9.53823
-231,-587,2.49548,9.14465,0,0,0,0,0,0,0,-1,993,1611,2.49551,-9.14468
-224,-587,-9.72528,9.21069,0,0,0,0,0,0,0,-1,1000,1611,-9.72529,-9.21072
-217,-587,-7.07495,10.7847,0,0,0,0,0,0,0,-1,1007,1611,-7.07495,-10.7847
-210,-587,-4.72308,12.5889,0,0,0,0,0,0,0,-1,1014,1611,-4.72307,-12.5888
-203,-587,-3.2583,13.7289,0,0,0,0,0,0,0,-1,1021,1611,-3.25828,-13.7289
-196,-587,-1.953,14.8145,0,0,0,0,0,0,0,-1,1028,1611,-1.95302,-14.8144
-189,-587,-3.04138,8.66638,0,0,0,0,0,0,0,-1,1035,1611,-3.04136,-8.66635
-182,-587,-3.97095,9.7146,0,0,0,0,0,0,0,-1,1042,1611,-3.97093,-9.71461
-175,-587,-4.80969,8.37878,0,0,0,0,0,0,0,-1,1049,1611,-4.80964,-8.37883
-168,-587,-5.91394,8.72546,0,0,0,0,0,0,0,-1,1056,1611,-5.91398,-8.72542
-161,-587,-7.06946,8.88501,0,0,0,0,0,0,0,-1,1063,1611,-7.06947,-8.885
-154,-587,-2.24731,6.56519,0,0,0,0,0,0,0,-1,1070,1611,-2.24728,-6.56517
-147,-587,0,0,0,0,0,0,0,0,0,-1,1077,1611,0,0
-140,-587,0,0,0,0,0,0,0,0,0,-1,1084,1611,0,0
-133,-587,0,0,0,0,0,0,0,0,0,-1,1091,1611,0,0
-126,-587,0,0,0,0,0,0,0,0,0,-1,1098,1611,0,0
-119,-587,0,0,0,0,0,0,0,0,0,-1,1105,1611,0,0
-112,-587,0,0,0,0,0,0,0,0,0,-1,1112,1611,0,0
-105,-587,0,0,0,0,0,0,0,0,0,-1,1119,1611,0,0
-98,-587,0,0,0,0,0,0,0,0,0,-1,1126,1611,0,0
-91,-587,0,0,0,0,0,0,0,0,0,-1,1133,1611,0,0
-84,-587,0,0,0,0,0,0,0,0,0,-1,1140,1611,0,0
-77,-587,0,0,0,0,0,0,0,0,0,-1,1147,1611,0,0
-70,-587,0,0,0,0,0,0,0,0,0,-1,1154,1611,0,0
-63,-587,0,0,0,0,0,0,0,0,0,-1,1161,1611,0,0
-56,-587,0,0,0,0,0,0,0,0,0,-1,1168,1611,0,0
-49,-587,0,0,0,0,0,0,0,0,0,-1,1175,1611,0,0
-42,-587,0,0,0,0,0,0,0,0,0,-1,1182,1611,0,0
-35,-587,0,0,0,0,0,0,0,0,0,-1,1189,1611,0,0
-28,-587,0,0,0,0,0,0,0,0,0,-1,1196,1611,0,0
-21,-587,0,0,0,0,0,0,0,0,0,-1,1203,1611,0,0
-14,-587,0,0,0,0,0,0,0,0,0,-1,1210,1611,0,0
-7,-587,0,0,0,0,0,0,0,0,0,-1,1217,1611,0,0
0,-587,0,0,0,0,0,0,0,0,0,-1,1224,1611,0,0
7,-587,0,0,0,0,0,0,0,0,0,-1,1231,1611,0,0
14,-587,0,0,0,0,0,0,0,0,0,-1,1238,1611,0,0
21,-587,0,0,0,0,0,0,0,0,0,-1,1245,1611,0,0
28,-587,0,0,0,0,0,0,0,0,0,-1,1252,1611,0,0
35,-587,0,0,0,0,0,0,0,0,0,-1,1259,1611,0,0
42,-587,0,0,0,0,0,0,0,0,0,-1,1266,1611,0,0
49,-587,0,0,0,0,0,0,0,0,0,-1,1273,1611,0,0
56,-587,0,0,0,0,0,0,0,0,0,-1,1280,1611,0,0
63,-587,0,0,0,0,0,0,0,0,0,-1,1287,1611,0,0
70,-587,0,0,0,0,0,0,0,0,0,-1,1294,1611,0,0
77,-587,0,0,0,0,0,0,0,0,0,-1,1301,1611,0,0
84,-587,0,0,0,0,0,0,0,0,0,-1,1308,1611,0,0
91,-587,0,0,0,0,0,0,0,0,0,-1,1315,1611,0,0
98,-587,0,0,0,0,0,0,0,0,0,-1,1322,1611,0,0
105,-587,0,0,0,0,0,0,0,0,0,-1,1329,1611,0,0
112,-587,0,0,0,0,0,0,0,0,0,-1,1336,1611,0,0
119,-587,0,0,0,0,0,0,0,0,0,-1,1343,1611,0,0
126,-587,0,0,0,0,0,0,0,0,0,-1,1350,1611,0,0
133,-587,0,0,0,0,0,0,0,0,0,-1,1357,1611,0,0
140,-587,0,0,0,0,0,0,0,0,0,-1,1364,1611,0,0
147,-587,0,0,0,0,0,0,0,0,0,-1,1371,1611,0,0
154,-587,0,0,0,0,0,0,0,0,0,-1,1378,1611,0,0
161,-587,0,0,0,0,0,0,0,0,0,-1,1385,1611,0,0
168,-587,0,0,0,0,0,0,0,0,0,-1,1392,1611,0,0
175,-587,0,0,0,0,0,0,0,0,0,-1,1399,1611,0,0
182,-587,0,0,0,0,0,0,0,0,0,-1,1406,1611,0,0
189,-587,0,0,0,0,0,0,0,0,0,-1,1413,1611,0,0
196,-587,0,0,0,0,0,0,0,0,0,-1,1420,1611,0,0
203,-587,0,0,0,0,0,0,0,0,0,-1,1427,1611,0,0
210,-587,0,0,0,0,0,0,0,0,0,-1,1434,1611,0,0
217,-587,0,0,0,0,0,0,0,0,0,-1,1441,1611,0,0
224,-587,0,0,0,0,0,0,0,0,0,-1,1448,1611,0,0
231,-587,0,0,0,0,0,0,0,0,0,-1,1455,1611,0,0
238,-587,0,0,0,0,0,0,0,0,0,-1,1462,1611,0,0
245,-587,0,0,0,0,0,0,0,0,0,-1,1469,1611,0,0
252,-587,0,0,0,0,0,0,0,0,0,-1,1476,1611,0,0
259,-587,0,0,0,0,0,0,0,0,0,-1,1483,1611,0,0
266,-587,0,0,0,0,0,0,0,0,0,-1,1490,1611,0,0
273,-587,10.2936,6.35083,0,0,0,0,0,0,0,-1,1497,1611,10.2936,-6.35087
280,-587,2.09204,1.1217,0,0,0,0,0,0,0,-1,1504,1611,2.092,-1.12176
287,-587,3.2865,0.671509,0,0,0,0,0,0,0,-1,1511,1611,3.28656,-0.671538
294,-587,4.24646,1.58765,0,0,0,0,0,0,0,-1,1518,1611,4.24648,-1.58761
301,-587,7.60474,8.37085,0,0,0,0,0,0,0,-1,1525,1611,7.60478,-8.37084
308,-587,5.99316,10.2291,0,0,0,0,0,0,0,-1,1532,1611,5.99315,-10.2291
315,-587,4.34558,12.3289,0,0,0,0,0,0,0,-1,1539,1611,4.34556,-12.3288
322,-587,10.4526,6.38245,0,0,0,0,0,0,0,-1,1546,1611,10.4526,-6.38245
329,-587,10.7738,8.42444,0,0,0,0,0,0,0,-1,1553,1611,10.7738,-8.42438
336,-587,7.5531,5.96619,0,0,0,0,0,0,0,-1,1560,1611,7.55311,-5.96617
343,-587,9.57495,4.38391,0,0,0,0,0,0,0,-1,1567,1611,9.57494,-4.38397
350,-587,9.50378,3.45093,0,0,0,0,0,0,0,-1,1574,1611,9.50376,-3.4509
357,-587,9.40027,2.50806,0,0,0,0,0,0,0,-1,1581,1611,9.40022,-2.50803
364,-587,9.26477,1.34131,0,0,0,0,0,0,0,-1,1588,1611,9.26479,-1.34126
371,-587,6.98926,7.87561,0,0,0,0,0,0,0,-1,1595,1611,6.98928,-7.87564
378,-587,9.25146,13.8358,0,0,0,0,0,0,0,-1,1602,1611,9.2515,-13.8359
385,-587,7.17224,7.03772,0,0,0,0,0,0,0,-1,1609,1611,7.1722,-7.03778
392,-587,5.3916,8.21436,0,0,0,0,0,0,0,-1,1616,1611,5.39157,-8.21437
399,-587,8.02783,14.9733,0,0,0,0,0,0,0,-1,1623,1611,8.02784,-14.9733
406,-587,8.3335,15.0896,0.00154627,-0.00495466,0.0167108,0.0153198,-0.0187282,0.689341,0.0196905,0.0446052,1630,1611,8.33349,-15.0896
413,-587,8.28467,15.0945,0.000670063,-0.00351074,0.0152501,0.0139724,-0.0168131,0.717286,0.0177992,0.0339103,1637,1611,8.28472,-15.0945
420,-587,8.23511,15.1632,-0.00017794,-0.00277927,0.0137561,0.0123389,-0.0152961,0.738262,0.0159855,0.0314047,1644,1611,8.2351,-15.1632
427,-587,8.26758,14.9375,-0.000868801,-0.00220493,0.0121086,0.0105901,-0.0136639,0.75784,0.0140405,0.025665,1651,1611,8.26762,-14.9375
434,-587,8.13062,14.734,-0.00145753,-0.00178997,0.0104887,0.00886631,-0.0121138,0.777475,0.0121611,0.0149943,1658,1611,8.1306,-14.734
441,-587,8.1051,14.5332,-0.00181241,-0.00173871,0.0089243,0.00714882,-0.0106999,0.787463,0.0103727,0.0167938,1665,1611,8.10512,-14.5333
448,-587,8.11914,14.3043,-0.00199218,-0.00156669,0.00749357,0.00571715,-0.00927602,0.799589,0.00873722,0.0148052,1672,1611,8.11909,-14.3043
455,-587,8.1416,14.0973,-0.00219496,-0.0015536,0.00612177,0.00425588,-0.00800445,0.811566,0.00718794,0.0142403,1679,1611,8.14162,-14.0973
462,-587,8.1272,13.8668,-0.00213439,-0.00154715,0.00479277,0.00296098,-0.00664253,0.815992,0.00567877,0.0187629,1686,1611,8.12714,-13.8669
469,-587,8.13672,13.6473,-0.00182529,-0.00155487,0.00353774,0.00185024,-0.0052304,0.804499,0.00424044,0.0161456,1693,1611,8.13678,-13.6473
476,-587,8.15088,13.4413,-0.00149627,-0.00145044,0.00224716,0.000773923,-0.00372063,0.790497,0.00277461,0.0100667,1700,1611,8.15089,-13.4413
483,-587,8.12305,13.2094,-0.00107579,-0.000901789,0.0011953,0.000209671,-0.00218725,0.821726,0.00153284,0.0127386,1707,1611,8.12308,-13.2093
490,-587,8.09021,13.0051,-0.000217532,-0.000467153,0.00010643,-0.000178315,-0.000506369,0.353039,0.000296583,0.0160842,1714,1611,8.09017,-13.0051
497,-587,8.07385,12.7799,0.000714841,0.000145219,-0.00102015,0.00148919,-0.000629128,-0.649271,0.00125616,0.0118908,1721,1611,8.07386,-12.7799
504,-587,8.09509,12.566,0.00156955,0.000907586,-0.0018827,0.00315014,-0.000673006,-0.698386,0.00235668,0.0107539,1728,1611,8.09515,-12.5661
511,-587,8.11365,12.3491,0.00253892,0.00159425,-0.00264002,0.00474853,-0.000615359,-0.696878,0.00338947,0.0129703,1735,1611,8.11367,-12.3491
518,-587,8.1416,12.0974,0.00361466,0.00213784,-0.00339855,0.00635409,-0.000601585,-0.678425,0.00445016,0.0130913,1742,1611,8.14159,-12.0974
525,-587,8.14014,11.8389,0.00488538,0.00234684,-0.00398267,0.00779615,-0.000563923,-0.631137,0.00539524,0.016557,1749,1611,8.14009,-11.8389
532,-587,8.13318,11.6146,0.00647196,0.00261423,-0.00457035,0.00950379,-0.000417612,-0.585718,0.00647955,0.0322027,1756,1611,8.13313,-11.6146
539,-587,8.69763,11.5621,0.00831877,0.00287612,-0.00493205,0.0112304,-3.55593e-05,-0.5333,0.00749885,0.0441899,1763,1611,8.69767,-11.5621
546,-587,8.77356,11.1891,0,0,0,0,0,0,0,-1,1770,1611,8.77359,-11.1891
553,-587,7.5813,8.45068,0,0,0,0,0,0,0,-1,1777,1611,7.58125,-8.45068
560,-587,4.21179,5.23547,0,0,0,0,0,0,0,-1,1784,1611,4.21185,-5.23553
567,-587,4.03711,5.46387,0,0,0,0,0,0,0,-1,1791,1611,4.03715,-5.46382
574,-587,3.83142,5.68884,0,0,0,0,0,0,0,-1,1798,1611,3.83141,-5.68881
581,-587,3.47168,6.00977,0,0,0,0,0,0,0,-1,1805,1611,3.47167,-6.00983
588,-587,0,0,0,0,0,0,0,0,0,-1,1812,1611,0,0
595,-587,0,0,0,0,0,0,0,0,0,-1,1819,1611,0,0
602,-587,0,0,0,0,0,0,0,0,0,-1,1826,1611,0,0
609,-587,0,0,0,0,0,0,0,0,0,-1,1833,1611,0,0
616,-587,0,0,0,0,0,0,0,0,0,-1,1840,1611,0,0
623,-587,0,0,0,0,0,0,0,0,0,-1,1847,1611,0,0
630,-587,0,0,0,0,0,0,0,0,0,-1,1854,1611,0,0
637,-587,0,0,0,0,0,0,0,0,0,-1,1861,1611,0,0
644,-587,0,0,0,0,0,0,0,0,0,-1,1868,1611,0,0
651,-587,0,0,0,0,0,0,0,0,0,-1,1875,1611,0,0
658,-587,0,0,0,0,0,0,0,0,0,-1,1882,1611,0,0
665,-587,0,0,0,0,0,0,0,0,0,-1,1889,1611,0,0
672,-587,0,0,0,0,0,0,0,0,0,-1,1896,1611,0,0
679,-587,0,0,0,0,0,0,0,0,0,-1,1903,1611,0,0
686,-587,0,0,0,0,0,0,0,0,0,-1,1910,1611,0,0
693,-587,0,0,0,0,0,0,0,0,0,-1,1917,1611,0,0
700,-587,0,0,0,0,0,0,0,0,0,-1,1924,1611,0,0
707,-587,0,0,0,0,0,0,0,0,0,-1,1931,1611,0,0
714,-587,0,0,0,0,0,0,0,0,0,-1,1938,1611,0,0
721,-587,0,0,0,0,0,0,0,0,0,-1,1945,1611,0,0
728,-587,0,0,0,0,0,0,0,0,0,-1,1952,1611,0,0
735,-587,0,0,0,0,0,0,0,0,0,-1,1959,1611,0,0
742,-587,0,0,0,0,0,0,0,0,0,-1,1966,1611,0,0
749,-587,0,0,0,0,0,0,0,0,0,-1,1973,1611,0,0
756,-587,0,0,0,0,0,0,0,0,0,-1,1980,1611,0,0
763,-587,0,0,0,0,0,0,0,0,0,-1,1987,1611,0,0
770,-587,0,0,0,0,0,0,0,0,0,-1,1994,1611,0,0
777,-587,0,0,0,0,0,0,0,0,0,-1,2001,1611,0,0
784,-587,0,0,0,0,0,0,0,0,0,-1,2008,1611,0,0
791,-587,0,0,0,0,0,0,0,0,0,-1,2015,1611,0,0
798,-587,0,0,0,0,0,0,0,0,0,-1,2022,1611,0,0
805,-587,0,0,0,0,0,0,0,0,0,-1,2029,1611,0,0
812,-587,0,0,0,0,0,0,0,0,0,-1,2036,1611,0,0
-700,-594,0,0,0,0,0,0,0,0,0,-1,524,1618,0,0
-693,-594,0,0,0,0,0,0,0,0,0,-1,531,1618,0,0
-686,-594,0,0,0,0,0,0,0,0,0,-1,538,1618,0,0
-679,-594,0,0,0,0,0,0,0,0,0,-1,545,1618,0,0
-672,-594,0,0,0,0,0,0,0,0,0,-1,552,1618,0,0
-665,-594,0,0,0,0,0,0,0,0,0,-1,559,1618,0,0
-658,-594,0,0,0,0,0,0,0,0,0,-1,566,1618,0,0
-651,-594,0,0,0,0,0,0,0,0,0,-1,573,1618,0,0
-644,-594,0,0,0,0,0,0,0,0,0,-1,580,1618,0,0
-637,-594,0,0,0,0,0,0,0,0,0,-1,587,1618,0,0
-630,-594,0,0,0,0,0,0,0,0,0,-1,594,1618,0,0
-623,-594,0,0,0,0,0,0,0,0,0,-1,601,1618,0,0
-616,-594,0,0,0,0,0,0,0,0,0,-1,608,1618,0,0
-609,-594,0,0,0,0,0,0,0,0,0,-1,615,1618,0,0
-602,-594,0,0,0,0,0,0,0,0,0,-1,622,1618,0,0
-595,-594,0,0,0,0,0,0,0,0,0,-1,629,1618,0,0
-588,-594,0,0,0,0,0,0,0,0,0,-1,636,1618,0,0
-581,-594,0,0,0,0,0,0,0,0,0,-1,643,1618,0,0
-574,-594,0,0,0,0,0,0,0,0,0,-1,650,1618,0,0
-567,-594,0,0,0,0,0,0,0,0,0,-1,657,1618,0,0
-560,-594,0,0,0,0,0,0,0,0,0,-1,664,1618,0,0
-553,-594,0,0,0,0,0,0,0,0,0,-1,671,1618,0,0
-546,-594,0,0,0,0,0,0,0,0,0,-1,678,1618,0,0
-539,-594,0,0,0,0,0,0,0,0,0,-1,685,1618,0,0
-532,-594,0,0,0,0,0,0,0,0,0,-1,692,1618,0,0
-525,-594,0,0,0,0,0,0,0,0,0,-1,699,1618,0,0
-518,-594,0,0,0,0,0,0,0,0,0,-1,706,1618,0,0
-511,-594,0,0,0,0,0,0,0,0,0,-1,713,1618,0,0
-504,-594,0,0,0,0,0,0,0,0,0,-1,720,1618,0,0
-497,-594,0,0,0,0,0,0,0,0,0,-1,727,1618,0,0
-490,-594,0,0,0,0,0,0,0,0,0,-1,734,1618,0,0
-483,-594,0,0,0,0,0,0,0,0,0,-1,741,1618,0,0
-476,-594,0,0,0,0,0,0,0,0,0,-1,748,1618,0,0
-469,-594,0,0,0,0,0,0,0,0,0,-1,755,1618,0,0
-462,-594,0,0,0,0,0,0,0,0,0,-1,762,1618,0,0
-455,-594,-0.509216,-1.58411,0,0,0,0,0,0,0,-1,769,1618,-0.509245,1.58415
-448,-594,-7.71887,-0.0559082,0,0,0,0,0,0,0,-1,776,1618,-7.71885,0.055939
-441,-594,-5.78473,1.18298,0,0,0,0,0,0,0,-1,783,1618,-5.78474,-1.18295
-434,-594,-3.93628,3.06213,0,0,0,0,0,0,0,-1,790,1618,-3.93631,-3.06208
-427,-594,-3.97693,6.77759,0,0,0,0,0,0,0,-1,797,1618,-3.97695,-6.77764
-420,-594,-2.53046,7.71606,0,0,0,0,0,0,0,-1,804,1618,-2.53047,-7.71609
-413,-594,-0.860413,8.00391,0,0,0,0,0,0,0,-1,811,1618,-0.860423,-8.00389
-406,-594,3.18323,8.29382,0,0,0,0,0,0,0,-1,818,1618,3.18325,-8.29386
-399,-594,2.07178,10.2035,0,0,0,0,0,0,0,-1,825,1618,2.07175,-10.2035
-392,-594,1.92523,10.6973,-0.00522823,-0.00964262,-0.00370029,-0.00312685,-0.011744,-0.51648,0.00702304,0.0435967,832,1618,1.92524,-10.6973
-385,-594,1.87024,10.8848,-0.00401689,-0.00874713,-0.00327813,-0.00233974,-0.0104243,-0.472898,0.00631576,0.0268709,839,1618,1.87023,-10.8847
-378,-594,1.79773,11.1073,-0.00298722,-0.00755889,-0.00278047,-0.0016736,-0.0088725,-0.441361,0.00544358,0.0114936,846,1618,1.79775,-11.1073
-371,-594,1.79449,11.3733,-0.00212222,-0.00644148,-0.0023299,-0.00110499,-0.00745871,-0.411653,0.00464813,0.011293,853,1618,1.79452,-11.3733
-364,-594,1.80182,11.6177,-0.00136856,-0.00529431,-0.00181209,-0.000660002,-0.00600286,-0.372738,0.00380106,0.0102505,860,1618,1.80179,-11.6177
-357,-594,1.81067,11.8445,-0.000761543,-0.00412497,-0.0013365,-0.000295139,-0.00459137,-0.335759,0.00296743,0.0100893,867,1618,1.81065,-11.8444
-350,-594,1.80847,12.1226,-0.000301273,-0.00308292,-0.00106152,5.75333e-05,-0.00344173,-0.325957,0.0023139,0.0139182,874,1618,1.80848,-12.1226
-343,-594,1.79736,12.3917,-4.69755e-05,-0.00221918,-0.000938686,0.000302453,-0.00256861,-0.35636,0.00182161,0.0157165,881,1618,1.79738,-12.3917
-336,-594,1.7868,12.5948,-1.15577e-06,-0.00149751,-0.00104838,0.000538641,-0.00203731,-0.475485,0.00156888,0.0134974,888,1618,1.78678,-12.5949
-329,-594,1.7915,12.8268,-2.6984e-05,-0.000841589,-0.00124022,0.000871106,-0.00173968,-0.626741,0.00153489,0.013707,895,1618,1.79152,-12.8268
-322,-594,1.81726,13.08,-0.000216892,-0.000607432,-0.00169164,0.00129071,-0.00211504,-0.727936,0.00198541,0.0157898,902,1618,1.81725,-13.0799
-315,-594,1.81549,13.2949,-0.000450075,-0.000744663,-0.00231905,0.00172636,-0.0029211,-0.753683,0.0027126,0.0156926,909,1618,1.8155,-13.2949
-308,-594,1.79608,13.5276,-0.000499585,-0.00141257,-0.00306262,0.00214038,-0.00405253,-0.711416,0.00363184,0.0142578,916,1618,1.79611,-13.5276
-301,-594,1.80377,13.7443,-0.000323993,-0.00237934,-0.00376331,0.00254944,-0.00525277,-0.65211,0.00459386,0.0116412,923,1618,1.80376,-13.7443
-294,-594,1.82892,13.9366,-6.09218e-05,-0.00354868,-0.00441415,0.00294134,-0.00655094,-0.597275,0.0056109,0.0106896,930,1618,1.8289,-13.9366
-287,-594,1.82306,14.156,0.000431685,-0.0050631,-0.00496077,0.00335505,-0.00798646,-0.532511,0.00672755,0.0125228,937,1618,1.82309,-14.156
-280,-594,1.83643,14.405,0.00125699,-0.00689287,-0.00550916,0.0040345,-0.00967038,-0.466972,0.00813247,0.0163258,944,1618,1.83643,-14.4051
-273,-594,1.85107,14.5767,0.00235632,-0.00936381,-0.0061224,0.00497116,-0.0119787,-0.403644,0.0100609,0.0279955,951,1618,1.85108,-14.5767
-266,-594,1.85114,14.6281,0.00386367,-0.0121765,-0.00640796,0.00610924,-0.0144221,-0.337062,0.0121733,0.0393579,958,1618,1.8511,-14.6281
-259,-594,2.0434,14.5624,0.00580684,-0.0157015,-0.00635898,0.00754623,-0.0174409,-0.267001,0.0147985,0.0466038,965,1618,2.04341,-14.5624
-252,-594,2.14038,14.7045,0,0,0,0,0,0,0,-1,972,1618,2.14038,-14.7045
-245,-594,1.62286,13.5688,0,0,0,0,0,0,0,-1,979,1618,1.62287,-13.5689
-238,-594,2.48499,13.0104,0,0,0,0,0,0,0,-1,986,1618,2.48501,-13.0104
-231,-594,1.93774,9.35388,0,0,0,0,0,0,0,-1,993,1618,1.93776,-9.35393
-224,-594,1.81824,8.62744,0,0,0,0,0,0,0,-1,1000,1618,1.81822,-8.62745
-217,-594,-8.24066,12.0752,0,0,0,0,0,0,0,-1,1007,1618,-8.24068,-12.0751
-210,-594,-5.61438,14.2119,0,0,0,0,0,0,0,-1,1014,1618,-5.6144,-14.212
-203,-594,-3.94507,15.5768,0,0,0,0,0,0,0,-1,1021,1618,-3.94506,-15.5768
-196,-594,2.78613,10.5815,0,0,0,0,0,0,0,-1,1028,1618,2.78612,-10.5815
-189,-594,2.60913,9.48865,0,0,0,0,0,0,0,-1,1035,1618,2.6091,-9.48871
-182,-594,1.2395,9.38806,0,0,0,0,0,0,0,-1,1042,1618,1.23951,-9.38804
-175,-594,0.234863,8.73792,0,0,0,0,0,0,0,-1,1049,1618,0.234812,-8.73786
-168,-594,-0.495483,8.46289,0,0,0,0,0,0,0,-1,1056,1618,-0.495513,-8.46285
-161,-594,-1.39734,8.28699,0,0,0,0,0,0,0,-1,1063,1618,-1.39729,-8.28699
-154,-594,-0.000854492,7.68445,0,0,0,0,0,0,0,-1,1070,1618,-0.000805755,-7.6845
-147,-594,0.348267,9.3385,0,0,0,0,0,0,0,-1,1077,1618,0.348237,-9.33849
-140,-594,0.675171,11.5884,0,0,0,0,0,0,0,-1,1084,1618,0.675204,-11.5884
-133,-594,0,0,0,0,0,0,0,0,0,-1,1091,1618,0,0
-126,-594,0,0,0,0,0,0,0,0,0,-1,1098,1618,0,0
-119,-594,0,0,0,0,0,0,0,0,0,-1,1105,1618,0,0
-112,-594,0,0,0,0,0,0,0,0,0,-1,1112,1618,0,0
-105,-594,0,0,0,0,0,0,0,0,0,-1,1119,1618,0,0
-98,-594,0,0,0,0,0,0,0,0,0,-1,1126,1618,0,0
-91,-594,0,0,0,0,0,0,0,0,0,-1,1133,1618,0,0
-84,-594,0,0,0,0,0,0,0,0,0,-1,1140,1618,0,0
-77,-594,0,0,0,0,0,0,0,0,0,-1,1147,1618,0,0
-70,-594,0,0,0,0,0,0,0,0,0,-1,1154,1618,0,0
-63,-594,0,0,0,0,0,0,0,0,0,-1,1161,1618,0,0
-56,-594,0,0,0,0,0,0,0,0,0,-1,1168,1618,0,0
-49,-594,0,0,0,0,0,0,0,0,0,-1,1175,1618,0,0
-42,-594,0,0,0,0,0,0,0,0,0,-1,1182,1618,0,0
-35,-594,0,0,0,0,0,0,0,0,0,-1,1189,1618,0,0
-28,-594,0,0,0,0,0,0,0,0,0,-1,1196,1618,0,0
-21,-594,0,0,0,0,0,0,0,0,0,-1,1203,1618,0,0
-14,-594,0,0,0,0,0,0,0,0,0,-1,1210,1618,0,0
-7,-594,0,0,0,0,0,0,0,0,0,-1,1217,1618,0,0
0,-594,0,0,0,0,0,0,0,0,0,-1,1224,1618,0,0
7,-594,0,0,0,0,0,0,0,0,0,-1,1231,1618,0,0
14,-594,0,0,0,0,0,0,0,0,0,-1,1238,1618,0,0
21,-594,0,0,0,0,0,0,0,0,0,-1,1245,1618,0,0
28,-594,0,0,0,0,0,0,0,0,0,-1,1252,1618,0,0
35,-594,0,0,0,0,0,0,0,0,0,-1,1259,1618,0,0
42,-594,0,0,0,0,0,0,0,0,0,-1,1266,1618,0,0
49,-594,0,0,0,0,0,0,0,0,0,-1,1273,1618,0,0
56,-594,0,0,0,0,0,0,0,0,0,-1,1280,1618,0,0
63,-594,0,0,0,0,0,0,0,0,0,-1,1287,1618,0,0
70,-594,0,0,0,0,0,0,0,0,0,-1,1294,1618,0,0
77,-594,0,0,0,0,0,0,0,0,0,-1,1301,1618,0,0
84,-594,0,0,0,0,0,0,0,0,0,-1,1308,1618,0,0
91,-594,0,0,0,0,0,0,0,0,0,-1,1315,1618,0,0
98,-594,0,0,0,0,0,0,0,0,0,-1,1322,1618,0,0
105,-594,0,0,0,0,0,0,0,0,0,-1,1329,1618,0,0
112,-594,0,0,0,0,0,0,0,0,0,-1,1336,1618,0,0
119,-594,0,0,0,0,0,0,0,0,0,-1,1343,1618,0,0
126,-594,0,0,0,0,0,0,0,0,0,-1,1350,1618,0,0
133,-594,0,0,0,0,0,0,0,0,0,-1,1357,1618,0,0
140,-594,0,0,0,0,0,0,0,0,0,-1,1364,1618,0,0
147,-594,0,0,0,0,0,0,0,0,0,-1,1371,1618,0,0
154,-594,0,0,0,0,0,0,0,0,0,-1,1378,1618,0,0
161,-594,0,0,0,0,0,0,0,0,0,-1,1385,1618,0,0
168,-594,0,0,0,0,0,0,0,0,0,-1,1392,1618,0,0
175,-594,0,0,0,0,0,0,0,0,0,-1,1399,1618,0,0
182,-594,0,0,0,0,0,0,0,0,0,-1,1406,1618,0,0
189,-594,0,0,0,0,0,0,0,0,0,-1,1413,1618,0,0
196,-594,0,0,0,0,0,0,0,0,0,-1,1420,1618,0,0
203,-594,0,0,0,0,0,0,0,0,0,-1,1427,1618,0,0
210,-594,0,0,0,0,0,0,0,0,0,-1,1434,1618,0,0
217,-594,0,0,0,0,0,0,0,0,0,-1,1441,1618,0,0
224,-594,0,0,0,0,0,0,0,0,0,-1,1448,1618,0,0
231,-594,0,0,0,0,0,0,0,0,0,-1,1455,1618,0,0
238,-594,0,0,0,0,0,0,0,0,0,-1,1462,1618,0,0
245,-594,0,0,0,0,0,0,0,0,0,-1,1469,1618,0,0
252,-594,3.03674,1.20996,0,0,0,0,0,0,0,-1,1476,1618,3.0368,-1.20999
259,-594,4.79834,1.53113,0,0,0,0,0,0,0,-1,1483,1618,4.79837,-1.53118
266,-594,3.71606,2.68152,0,0,0,0,0,0,0,-1,1490,1618,3.71609,-2.68149
273,-594,9.7655,6.33557,0,0,0,0,0,0,0,-1,1497,1618,9.76555,-6.33554
280,-594,3.13281,0.911255,0,0,0,0,0,0,0,-1,1504,1618,3.13277,-0.911207
287,-594,4.42749,1.51563,0,0,0,0,0,0,0,-1,1511,1618,4.42747,-1.51564
294,-594,5.36475,3.34937,0,0,0,0,0,0,0,-1,1518,1618,5.36475,-3.3494
301,-594,7.97144,9.04333,0,0,0,0,0,0,0,-1,1525,1618,7.9714,-9.04328
308,-594,6.30347,10.4633,0,0,0,0,0,0,0,-1,1532,1618,6.30351,-10.4633
315,-594,4.62012,11.934,0,0,0,0,0,0,0,-1,1539,1618,4.62006,-11.934
322,-594,2.91528,13.3134,0,0,0,0,0,0,0,-1,1546,1618,2.91523,-13.3133
329,-594,4.19861,9.77258,0,0,0,0,0,0,0,-1,1553,1618,4.19865,-9.77264
336,-594,10.1353,4.66528,0,0,0,0,0,0,0,-1,1560,1618,10.1353,-4.66533
343,-594,10.5729,3.71228,0,0,0,0,0,0,0,-1,1567,1618,10.5729,-3.71232
350,-594,10.219,2.98792,0,0,0,0,0,0,0,-1,1574,1618,10.219,-2.98797
357,-594,9.83154,1.96326,0,0,0,0,0,0,0,-1,1581,1618,9.8315,-1.96321
364,-594,9.74939,0.700562,0,0,0,0,0,0,0,-1,1588,1618,9.74939,-0.700615
371,-594,8.54297,14.3988,0,0,0,0,0,0,0,-1,1595,1618,8.54296,-14.3989
378,-594,8.9137,16.3073,0,0,0,0,0,0,0,-1,1602,1618,8.91369,-16.3072
385,-594,8.62561,13.6674,0,0,0,0,0,0,0,-1,1609,1618,8.6256,-13.6674
392,-594,7.66504,15.2976,0,0,0,0,0,0,0,-1,1616,1618,7.66508,-15.2976
399,-594,7.81372,15.2612,0.00156986,-0.0069836,0.0134886,0.0114435,-0.0168572,0.63188,0.0164387,0.0451455,1623,1618,7.81368,-15.2612
406,-594,7.9884,15.2996,0.000898336,-0.00542944,0.0125099,0.0106383,-0.0151694,0.66154,0.0149764,0.0253474,1630,1618,7.98835,-15.2996
413,-594,7.96887,15.1866,0.000443293,-0.00409307,0.0113861,0.00978491,-0.0134347,0.687082,0.0134609,0.020959,1637,1618,7.96884,-15.1866
420,-594,7.95911,15.0079,-8.06653e-06,-0.00319285,0.0102052,0.0087282,-0.0119291,0.708003,0.0119741,0.0175551,1644,1618,7.9591,-15.0079
427,-594,7.94751,14.9006,-0.000427175,-0.00253516,0.00893683,0.0075176,-0.0104799,0.7267,0.0104377,0.0119846,1651,1618,7.94753,-14.9006
434,-594,7.9137,14.7081,-0.000825317,-0.00198068,0.00765786,0.00627662,-0.00908262,0.747751,0.00891685,0.0157382,1658,1618,7.91365,-14.7081
441,-594,7.90259,14.5079,-0.00109688,-0.00174174,0.00643498,0.00502374,-0.00786236,0.760366,0.00749973,0.0152739,1665,1618,7.90258,-14.5079
448,-594,7.92786,14.3,-0.00133975,-0.00141565,0.00532327,0.00394571,-0.00670111,0.781834,0.00621518,0.0143732,1672,1618,7.9278,-14.3
455,-594,7.91736,14.0861,-0.00165971,-0.00127922,0.00425404,0.00278882,-0.00572775,0.807743,0.00501369,0.0113363,1679,1618,7.91736,-14.086
462,-594,7.92505,13.8606,-0.00180642,-0.00118356,0.00321237,0.00173244,-0.00472242,0.83372,0.00385769,0.0133392,1686,1618,7.92511,-13.8606
469,-594,7.93042,13.6609,-0.00176389,-0.00114768,0.00219425,0.000759987,-0.00367156,0.85515,0.00273644,0.0115683,1693,1618,7.93044,-13.6609
476,-594,7.92822,13.4631,-0.00171831,-0.00100941,0.00108606,-0.000221423,-0.00250629,0.94313,0.00160216,0.0114719,1700,1618,7.92824,-13.4631
483,-594,7.91602,13.2397,-0.00162089,-0.000472707,0.000196076,-0.000440147,-0.00165345,1.40624,0.000988798,0.0154602,1707,1618,7.91607,-13.2398
490,-594,7.89441,13.0065,-0.00102564,-3.50918e-05,-0.000803718,0.000413699,-0.00147443,-1.06153,0.00114602,0.0138723,1714,1618,7.89437,-13.0065
497,-594,7.88623,12.7716,-0.000359018,0.000538602,-0.00186454,0.00200759,-0.001828,-0.903505,0.00221529,0.00977866,1721,1618,7.88627,-12.7716
504,-594,7.90442,12.5438,0.000235998,0.00120475,-0.00271834,0.00348154,-0.00204079,-0.873567,0.00322428,0.00972964,1728,1618,7.90445,-12.5439
511,-594,7.9353,12.3303,0.00100274,0.00180729,-0.00350741,0.00493542,-0.00212539,-0.842496,0.00418279,0.0121644,1735,1618,7.9353,-12.3303
518,-594,7.94092,12.1029,0.00203967,0.00232244,-0.00436489,0.00654823,-0.00218612,-0.801588,0.00524822,0.0149733,1742,1618,7.9409,-12.1028
525,-594,7.95068,11.8531,0.00343879,0.00245509,-0.00509916,0.00806976,-0.00217588,-0.737318,0.00623304,0.0255162,1749,1618,7.9507,-11.8531
532,-594,7.6521,11.408,0.00532778,0.00266905,-0.00596191,0.0101067,-0.0021099,-0.675704,0.00754017,0.0444891,1756,1618,7.65208,-11.408
539,-594,7.27258,10.9551,0,0,0,0,0,0,0,-1,1763,1618,7.27256,-10.9551
546,-594,7.48645,8.54785,0,0,0,0,0,0,0,-1,1770,1618,7.48639,-8.54789
553,-594,3.69714,5.68762,0,0,0,0,0,0,0,-1,1777,1618,3.69715,-5.68764
560,-594,6.06616,4.44482,0,0,0,0,0,0,0,-1,1784,1618,6.06621,-4.44477
567,-594,5.97266,4.73303,0,0,0,0,0,0,0,-1,1791,1618,5.97271,-4.73309
574,-594,5.9906,4.96326,0,0,0,0,0,0,0,-1,1798,1618,5.99065,-4.96326
581,-594,0,0,0,0,0,0,0,0,0,-1,1805,1618,0,0
588,-594,0,0,0,0,0,0,0,0,0,-1,1812,1618,0,0
595,-594,0,0,0,0,0,0,0,0,0,-1,1819,1618,0,0
602,-594,0,0,0,0,0,0,0,0,0,-1,1826,1618,0,0
609,-594,0,0,0,0,0,0,0,0,0,-1,1833,1618,0,0
616,-594,0,0,0,0,0,0,0,0,0,-1,1840,1618,0,0
623,-594,0,0,0,0,0,0,0,0,0,-1,1847,1618,0,0
630,-594,0,0,0,0,0,0,0,0,0,-1,1854,1618,0,0
637,-594,0,0,0,0,0,0,0,0,0,-1,1861,1618,0,0
644,-594,0,0,0,0,0,0,0,0,0,-1,1868,1618,0,0
651,-594,0,0,0,0,0,0,0,0,0,-1,1875,1618,0,0
658,-594,0,0,0,0,0,0,0,0,0,-1,1882,1618,0,0
665,-594,0,0,0,0,0,0,0,0,0,-1,1889,1618,0,0
672,-594,0,0,0,0,0,0,0,0,0,-1,1896,1618,0,0
679,-594,0,0,0,0,0,0,0,0,0,-1,1903,1618,0,0
686,-594,0,0,0,0,0,0,0,0,0,-1,1910,1618,0,0
693,-594,0,0,0,0,0,0,0,0,0,-1,1917,1618,0,0
700,-594,0,0,0,0,0,0,0,0,0,-1,1924,1618,0,0
707,-594,0,0,0,0,0,0,0,0,0,-1,1931,1618,0,0
714,-594,0,0,0,0,0,0,0,0,0,-1,1938,1618,0,0
721,-594,0,0,0,0,0,0,0,0,0,-1,1945,1618,0,0
728,-594,0,0,0,0,0,0,0,0,0,-1,1952,1618,0,0
735,-594,0,0,0,0,0,0,0,0,0,-1,1959,1618,0,0
742,-594,0,0,0,0,0,0,0,0,0,-1,1966,1618,0,0
749,-594,0,0,0,0,0,0,0,0,0,-1,1973,1618,0,0
756,-594,0,0,0,0,0,0,0,0,0,-1,1980,1618,0,0
763,-594,0,0,0,0,0,0,0,0,0,-1,1987,1618,0,0
770,-594,0,0,0,0,0,0,0,0,0,-1,1994,1618,0,0
777,-594,0,0,0,0,0,0,0,0,0,-1,2001,1618,0,0
784,-594,0,0,0,0,0,0,0,0,0,-1,2008,1618,0,0
791,-594,0,0,0,0,0,0,0,0,0,-1,2015,1618,0,0
798,-594,0,0,0,0,0,0,0,0,0,-1,2022,1618,0,0
805,-594,0,0,0,0,0,0,0,0,0,-1,2029,1618,0,0
812,-594,0,0,0,0,0,0,0,0,0,-1,2036,1618,0,0
-700,-601,0,0,0,0,0,0,0,0,0,-1,524,1625,0,0
-693,-601,0,0,0,0,0,0,0,0,0,-1,531,1625,0,0
-686,-601,0,0,0,0,0,0,0,0,0,-1,538,1625,0,0
-679,-601,0,0,0,0,0,0,0,0,0,-1,545,1625,0,0
-672,-601,0,0,0,0,0,0,0,0,0,-1,552,1625,0,0
-665,-601,0,0,0,0,0,0,0,0,0,-1,559,1625,0,0
-658,-601,0,0,0,0,0,0,0,0,0,-1,566,1625,0,0
-651,-601,0,0,0,0,0,0,0,0,0,-1,573,1625,0,0
-644,-601,0,0,0,0,0,0,0,0,0,-1,580,1625,0,0
-637,-601,0,0,0,0,0,0,0,0,0,-1,587,1625,0,0
-630,-601,0,0,0,0,0,0,0,0,0,-1,594,1625,0,0
-623,-601,0,0,0,0,0,0,0,0,0,-1,601,1625,0,0
-616,-601,0,0,0,0,0,0,0,0,0,-1,608,1625,0,0
-609,-601,0,0,0,0,0,0,0,0,0,-1,615,1625,0,0
-602,-601,0,0,0,0,0,0,0,0,0,-1,622,1625,0,0
-595,-601,0,0,0,0,0,0,0,0,0,-1,629,1625,0,0
-588,-601,0,0,0,0,0,0,0,0,0,-1,636,1625,0,0
-581,-601,0,0,0,0,0,0,0,0,0,-1,643,1625,0,0
-574,-601,0,0,0,0,0,0,0,0,0,-1,650,1625,0,0
-567,-601,0,0,0,0,0,0,0,0,0,-1,657,1625,0,0
-560,-601,0,0,0,0,0,0,0,0,0,-1,664,1625,0,0
-553,-601,0,0,0,0,0,0,0,0,0,-1,671,1625,0,0
-546,-601,0,0,0,0,0,0,0,0,0,-1,678,1625,0,0
-539,-601,0,0,0,0,0,0,0,0,0,-1,685,1625,0,0
-532,-601,0,0,0,0,0,0,0,0,0,-1,692,1625,0,0
-525,-601,0,0,0,0,0,0,0,0,0,-1,699,1625,0,0
-518,-601,0,0,0,0,0,0,0,0,0,-1,706,1625,0,0
-511,-601,0,0,0,0,0,0,0,0,0,-1,713,1625,0,0
-504,-601,0,0,0,0,0,0,0,0,0,-1,720,1625,0,0
-497,-601,0,0,0,0,0,0,0,0,0,-1,727,1625,0,0
-490,-601,0,0,0,0,0,0,0,0,0,-1,734,1625,0,0
-483,-601,0,0,0,0,0,0,0,0,0,-1,741,1625,0,0
-476,-601,0,0,0,0,0,0,0,0,0,-1,748,1625,0,0
-469,-601,0,0,0,0,0,0,0,0,0,-1,755,1625,0,0
-462,-601,0,0,0,0,0,0,0,0,0,-1,762,1625,0,0
-455,-601,0,0,0,0,0,0,0,0,0,-1,769,1625,0,0
-448,-601,-7.07623,2.7616,0,0,0,0,0,0,0,-1,776,1625,-7.07626,-2.76161
-441,-601,-6.06689,3.33447,0,0,0,0,0,0,0,-1,783,1625,-6.06691,-3.33448
-434,-601,-5.02655,3.8468,0,0,0,0,0,0,0,-1,790,1625,-5.02657,-3.84674
-427,-601,-5.78601,4.2406,0,0,0,0,0,0,0,-1,797,1625,-5.786,-4.24058
-420,-601,-5.5191,5.60364,0,0,0,0,0,0,0,-1,804,1625,-5.51907,-5.60368
-413,-601,-4.30756,5.86047,0,0,0,0,0,0,0,-1,811,1625,-4.30757,-5.86046
-406,-601,-1.67493,7.20422,0,0,0,0,0,0,0,-1,818,1625,-1.67493,-7.20428
-399,-601,3.02356,9.76392,0,0,0,0,0,0,0,-1,825,1625,3.02357,-9.76394
-392,-601,2.41156,11.0511,0,0,0,0,0,0,0,-1,832,1625,2.41157,-11.0512
-385,-601,2.28137,11.1672,-0.00503636,-0.0116559,-0.00465036,-0.0026382,-0.014054,-0.476124,0.00862551,0.044342,839,1625,2.28138,-11.1672
-378,-601,2.05176,11.2021,-0.0037527,-0.0100073,-0.00387604,-0.00189967,-0.0118603,-0.445952,0.00735589,0.0310829,846,1625,2.05175,-11.2022
-371,-601,2.04449,11.3593,-0.00272387,-0.00853518,-0.00321517,-0.00129592,-0.00996314,-0.417961,0.00625503,0.0145412,853,1625,2.04447,-11.3592
-364,-601,2.03986,11.6031,-0.00181426,-0.00712705,-0.00250373,-0.000820295,-0.00812101,-0.377911,0.00516235,0.0101521,860,1625,2.03987,-11.6032
-357,-601,2.03229,11.8612,-0.00106363,-0.00572117,-0.00183018,-0.000430523,-0.00635428,-0.333042,0.00410022,0.00955505,867,1625,2.03228,-11.8612
-350,-601,2.0611,12.1428,-0.000521939,-0.0044402,-0.00138259,-8.3209e-05,-0.00487893,-0.307275,0.00322524,0.0200559,874,1625,2.06107,-12.1428
-343,-601,2.04095,12.4016,-0.000190127,-0.00340988,-0.00112416,0.000163524,-0.00376353,-0.304789,0.00256527,0.021777,881,1625,2.04095,-12.4017
-336,-601,2.00812,12.6104,-4.73661e-05,-0.00250183,-0.00107372,0.000356035,-0.00290523,-0.359389,0.00206575,0.0180994,888,1625,2.00809,-12.6103
-329,-601,2.01166,12.8412,3.70563e-05,-0.00170136,-0.00110791,0.00057603,-0.00224034,-0.452773,0.00171806,0.0150109,895,1625,2.01167,-12.8412
-322,-601,2.03662,13.0891,-2.90395e-05,-0.00127366,-0.00136392,0.000847836,-0.00215054,-0.571372,0.00178474,0.0120807,902,1625,2.0366,-13.0891
-315,-601,2.03735,13.2917,-0.00015488,-0.0012357,-0.00178829,0.00117287,-0.00256345,-0.638663,0.0022064,0.0125154,909,1625,2.03733,-13.2917
-308,-601,2.03003,13.5109,-0.000129761,-0.00164108,-0.00231167,0.00154662,-0.00331746,-0.627429,0.00286965,0.0117591,916,1625,2.03004,-13.5109
-301,-601,2.04865,13.7472,0.000137867,-0.0022852,-0.00275584,0.00193673,-0.00408407,-0.578302,0.00354904,0.00998197,923,1625,2.04865,-13.7471
-294,-601,2.04968,13.9583,0.000498282,-0.00308357,-0.00313479,0.00231767,-0.00490295,-0.525872,0.00425697,0.00972288,930,1625,2.04971,-13.9582
-287,-601,2.03326,14.1665,0.00101707,-0.00413926,-0.0034153,0.00271806,-0.00584025,-0.462087,0.00504956,0.0100704,937,1625,2.03327,-14.1665
-280,-601,2.0437,14.3888,0.00179059,-0.00541682,-0.00368477,0.00334094,-0.00696717,-0.39826,0.0060729,0.0103384,944,1625,2.04367,-14.3888
-273,-601,2.05011,14.6138,0.00277614,-0.00722627,-0.00399739,0.00417737,-0.0086275,-0.337153,0.00754025,0.0105839,951,1625,2.05009,-14.6138
-266,-601,2.07806,14.8287,0.00398879,-0.00928784,-0.00411717,0.0051619,-0.0104609,-0.277575,0.00919118,0.0133469,958,1625,2.07808,-14.8288
-259,-601,2.14539,14.9568,0.00547168,-0.01191,-0.00400734,0.00635108,-0.0127894,-0.216023,0.0112572,0.024984,965,1625,2.14542,-14.9568
-252,-601,2.44147,14.9263,0.00734437,-0.0144989,-0.00359979,0.00792233,-0.0150769,-0.159194,0.013491,0.0448505,972,1625,2.44148,-14.9262
-245,-601,2.64679,14.9116,0,0,0,0,0,0,0,-1,979,1625,2.64682,-14.9116
-238,-601,2.41223,15.5032,0,0,0,0,0,0,0,-1,986,1625,2.41222,-15.5032
-231,-601,2.66772,13.7051,0,0,0,0,0,0,0,-1,993,1625,2.6677,-13.7051
-224,-601,-0.0305176,9.13684,0,0,0,0,0,0,0,-1,1000,1625,-0.030498,-9.13681
-217,-601,3.39429,10.3898,0,0,0,0,0,0,0,-1,1007,1625,3.39431,-10.3898
-210,-601,-6.53699,15.7931,0,0,0,0,0,0,0,-1,1014,1625,-6.53697,-15.7931
-203,-601,2.76324,16.6864,0,0,0,0,0,0,0,-1,1021,1625,2.76327,-16.6864
-196,-601,3.06592,16.7297,0,0,0,0,0,0,0,-1,1028,1625,3.06592,-16.7297
-189,-601,2.92981,15.1824,0,0,0,0,0,0,0,-1,1035,1625,2.92986,-15.1823
-182,-601,1.82153,13.9752,0,0,0,0,0,0,0,-1,1042,1625,1.82155,-13.9752
-175,-601,0.544922,9.28687,0,0,0,0,0,0,0,-1,1049,1625,0.544879,-9.28685
-168,-601,-0.247559,8.97461,0,0,0,0,0,0,0,-1,1056,1625,-0.247598,-8.97466
-161,-601,-1.16833,8.80078,0,0,0,0,0,0,0,-1,1063,1625,-1.16837,-8.80081
-154,-601,1.12756,7.94861,0,0,0,0,0,0,0,-1,1070,1625,1.12762,-7.94855
-147,-601,1.35352,9.55432,0,0,0,0,0,0,0,-1,1077,1625,1.35351,-9.55429
-140,-601,1.72437,11.1498,0,0,0,0,0,0,0,-1,1084,1625,1.72432,-11.1498
-133,-601,2.13281,12.8347,0,0,0,0,0,0,0,-1,1091,1625,2.13287,-12.8348
-126,-601,3.09534,15.427,0,0,0,0,0,0,0,-1,1098,1625,3.0953,-15.4271
-119,-601,1.22485,9.43457,0,0,0,0,0,0,0,-1,1105,1625,1.22489,-9.43456
-112,-601,0,0,0,0,0,0,0,0,0,-1,1112,1625,0,0
-105,-601,0,0,0,0,0,0,0,0,0,-1,1119,1625,0,0
-98,-601,0,0,0,0,0,0,0,0,0,-1,1126,1625,0,0
-91,-601,0,0,0,0,0,0,0,0,0,-1,1133,1625,0,0
-84,-601,0,0,0,0,0,0,0,0,0,-1,1140,1625,0,0
-77,-601,0,0,0,0,0,0,0,0,0,-1,1147,1625,0,0
-70,-601,0,0,0,0,0,0,0,0,0,-1,1154,1625,0,0
-63,-601,0,0,0,0,0,0,0,0,0,-1,1161,1625,0,0
-56,-601,0,0,0,0,0,0,0,0,0,-1,1168,1625,0,0
-49,-601,0,0,0,0,0,0,0,0,0,-1,1175,1625,0,0
-42,-601,0,0,0,0,0,0,0,0,0,-1,1182,1625,0,0
-35,-601,0,0,0,0,0,0,0,0,0,-1,1189,1625,0,0
-28,-601,0,0,0,0,0,0,0,0,0,-1,1196,1625,0,0
-21,-601,0,0,0,0,0,0,0,0,0,-1,1203,1625,0,0
-14,-601,0,0,0,0,0,0,0,0,0,-1,1210,1625,0,0
-7,-601,0,0,0,0,0,0,0,0,0,-1,1217,1625,0,0
0,-601,0,0,0,0,0,0,0,0,0,-1,1224,1625,0,0
7,-601,0,0,0,0,0,0,0,0,0,-1,1231,1625,0,0
14,-601,0,0,0,0,0,0,0,0,0,-1,1238,1625,0,0
21,-601,0,0,0,0,0,0,0,0,0,-1,1245,1625,0,0
28,-601,0,0,0,0,0,0,0,0,0,-1,1252,1625,0,0
35,-601,0,0,0,0,0,0,0,0,0,-1,1259,1625,0,0
42,-601,0,0,0,0,0,0,0,0,0,-1,1266,1625,0,0
49,-601,0,0,0,0,0,0,0,0,0,-1,1273,1625,0,0
56,-601,0,0,0,0,0,0,0,0,0,-1,1280,1625,0,0
63,-601,0,0,0,0,0,0,0,0,0,-1,1287,1625,0,0
70,-601,0,0,0,0,0,0,0,0,0,-1,1294,1625,0,0
77,-601,0,0,0,0,0,0,0,0,0,-1,1301,1625,0,0
84,-601,0,0,0,0,0,0,0,0,0,-1,1308,1625,0,0
91,-601,0,0,0,0,0,0,0,0,0,-1,1315,1625,0,0
98,-601,0,0,0,0,0,0,0,0,0,-1,1322,1625,0,0
105,-601,0,0,0,0,0,0,0,0,0,-1,1329,1625,0,0
112,-601,0,0,0,0,0,0,0,0,0,-1,1336,1625,0,0
119,-601,0,0,0,0,0,0,0,0,0,-1,1343,1625,0,0
126,-601,0,0,0,0,0,0,0,0,0,-1,1350,1625,0,0
133,-601,0,0,0,0,0,0,0,0,0,-1,1357,1625,0,0
140,-601,0,0,0,0,0,0,0,0,0,-1,1364,1625,0,0
147,-601,0,0,0,0,0,0,0,0,0,-1,1371,1625,0,0
154,-601,0,0,0,0,0,0,0,0,0,-1,1378,1625,0,0
161,-601,0,0,0,0,0,0,0,0,0,-1,1385,1625,0,0
168,-601,0,0,0,0,0,0,0,0,0,-1,1392,1625,0,0
175,-601,0,0,0,0,0,0,0,0,0,-1,1399,1625,0,0
182,-601,0,0,0,0,0,0,0,0,0,-1,1406,1625,0,0
189,-601,0,0,0,0,0,0,0,0,0,-1,1413,1625,0,0
196,-601,0,0,0,0,0,0,0,0,0,-1,1420,1625,0,0
203,-601,0,0,0,0,0,0,0,0,0,-1,1427,1625,0,0
210,-601,0,0,0,0,0,0,0,0,0,-1,1434,1625,0,0
217,-601,0,0,0,0,0,0,0,0,0,-1,1441,1625,0,0
224,-601,0,0,0,0,0,0,0,0,0,-1,1448,1625,0,0
231,-601,-0.0371094,0.525879,0,0,0,0,0,0,0,-1,1455,1625,-0.0371518,-0.525824
238,-601,2.03369,-1.32861,0,0,0,0,0,0,0,-1,1462,1625,2.03364,1.32858
245,-601,2.71375,2.44983,0,0,0,0,0,0,0,-1,1469,1625,2.71371,-2.44979
252,-601,4.66943,2.28381,0,0,0,0,0,0,0,-1,1476,1625,4.66947,-2.28376
259,-601,6.42712,2.61987,0,0,0,0,0,0,0,-1,1483,1625,6.42711,-2.61985
266,-601,6.75317,1.68701,0,0,0,0,0,0,0,-1,1490,1625,6.75323,-1.687
273,-601,5.4314,2.92053,0,0,0,0,0,0,0,-1,1497,1625,5.43144,-2.92051
280,-601,4.64722,1.17786,0,0,0,0,0,0,0,-1,1504,1625,4.64722,-1.1779
287,-601,5.32532,2.6217,0,0,0,0,0,0,0,-1,1511,1625,5.32535,-2.62171
294,-601,5.97693,4.22693,0,0,0,0,0,0,0,-1,1518,1625,5.97697,-4.22694
301,-601,7.28162,9.50024,0,0,0,0,0,0,0,-1,1525,1625,7.28162,-9.50025
308,-601,6.53528,10.3927,0,0,0,0,0,0,0,-1,1532,1625,6.53529,-10.3927
315,-601,4.88013,11.7184,0,0,0,0,0,0,0,-1,1539,1625,4.88015,-11.7184
322,-601,3.38098,12.7864,0,0,0,0,0,0,0,-1,1546,1625,3.38104,-12.7864
329,-601,1.8772,13.8768,0,0,0,0,0,0,0,-1,1553,1625,1.87716,-13.8768
336,-601,4.67847,9.53308,0,0,0,0,0,0,0,-1,1560,1625,4.67848,-9.53309
343,-601,11.1404,3.14575,0,0,0,0,0,0,0,-1,1567,1625,11.1404,-3.1458
350,-601,10.9462,2.37769,0,0,0,0,0,0,0,-1,1574,1625,10.9461,-2.37764
357,-601,10.7518,1.6095,0,0,0,0,0,0,0,-1,1581,1625,10.7518,-1.60948
364,-601,5.33643,9.74426,0,0,0,0,0,0,0,-1,1588,1625,5.33637,-9.74429
371,-601,8.46387,16.2725,0,0,0,0,0,0,0,-1,1595,1625,8.46385,-16.2725
378,-601,8.36658,16.1647,0,0,0,0,0,0,0,-1,1602,1625,8.36659,-16.1646
385,-601,7.60156,15.5342,0,0,0,0,0,0,0,-1,1609,1625,7.60159,-15.5341
392,-601,7.63135,15.4056,0.000626902,-0.0082796,0.0104971,0.00757627,-0.015229,0.584786,0.0134114,0.047154,1616,1625,7.63133,-15.4056
399,-601,7.63477,15.5283,0.000660783,-0.00693591,0.00990526,0.007471,-0.0137461,0.602311,0.012427,0.0207712,1623,1625,7.63478,-15.5283
406,-601,7.71509,15.3835,0.000268831,-0.00566059,0.00912085,0.00689471,-0.0122865,0.628261,0.0112192,0.0144285,1630,1625,7.71512,-15.3835
413,-601,7.72253,15.2112,-5.6575e-07,-0.00457842,0.008286,0.00630685,-0.0108858,0.650639,0.0100429,0.0129432,1637,1625,7.72256,-15.2112
420,-601,7.70422,15.0811,-0.000209658,-0.00363185,0.00735378,0.00562948,-0.00947098,0.671091,0.00881179,0.0105407,1644,1625,7.70423,-15.0811
427,-601,7.72534,14.9082,-0.000452451,-0.0029615,0.00639633,0.00481122,-0.00822516,0.688561,0.0076121,0.0152795,1651,1625,7.72533,-14.9082
434,-601,7.724,14.6858,-0.000714142,-0.00238215,0.00536807,0.00388432,-0.00698062,0.708332,0.00635722,0.0163927,1658,1625,7.72405,-14.6857
441,-601,7.72388,14.4822,-0.00096111,-0.00203858,0.0044143,0.00294721,-0.00594689,0.724677,0.00523146,0.0172346,1665,1625,7.7239,-14.4821
448,-601,7.72742,14.2769,-0.00129458,-0.00162384,0.00354279,0.00208741,-0.00500582,0.762181,0.00420923,0.0136973,1672,1625,7.72746,-14.2769
455,-601,7.72778,14.0574,-0.00173399,-0.00142875,0.00270772,0.00113065,-0.00429338,0.813551,0.00330426,0.0118024,1679,1625,7.72782,-14.0574
462,-601,7.72571,13.8507,-0.00207331,-0.0012802,0.00190648,0.000270526,-0.00362404,0.887938,0.00251106,0.0105309,1686,1625,7.72575,-13.8507
469,-601,7.72778,13.6577,-0.00229521,-0.00122742,0.00110831,-0.000531112,-0.00299152,1.00986,0.001843,0.0106713,1693,1625,7.72777,-13.6578
476,-601,7.71631,13.4618,-0.00254549,-0.00108986,0.00019872,-0.00106322,-0.00257213,1.43753,0.00149243,0.0129904,1700,1625,7.71634,-13.4618
483,-601,7.69177,13.2404,-0.00280584,-0.000618364,-0.000498479,-0.000510127,-0.00291407,-1.35698,0.00179697,0.016393,1707,1625,7.69179,-13.2404
490,-601,7.68738,13.0106,-0.00258058,-0.000259187,-0.00134464,0.000356423,-0.00319619,-1.14145,0.00225899,0.0122916,1714,1625,7.68734,-13.0106
497,-601,7.70374,12.7771,-0.00230745,0.000180762,-0.0022708,0.00152593,-0.00365261,-1.036,0.00307273,0.00955714,1721,1625,7.70373,-12.7771
504,-601,7.72583,12.5366,-0.00208719,0.000686679,-0.00305058,0.00265081,-0.00405132,-0.998753,0.00389754,0.0126562,1728,1625,7.72587,-12.5366
511,-601,7.75684,12.3525,-0.00166566,0.00113024,-0.00381379,0.00379422,-0.00432964,-0.96107,0.0046937,0.022511,1735,1625,7.75679,-12.3525
518,-601,7.78577,12.1401,-0.000827736,0.0015384,-0.00470421,0.00520602,-0.00449536,-0.908589,0.0056061,0.0350722,1742,1625,7.78577,-12.1402
525,-601,7.96082,11.7694,0.00069398,0.00175116,-0.0056614,0.0069086,-0.00446345,-0.831947,0.00661605,0.0432549,1749,1625,7.96083,-11.7694
532,-601,8.07495,11.446,0,0,0,0,0,0,0,-1,1756,1625,8.07489,-11.4461
539,-601,7.67151,11.5184,0,0,0,0,0,0,0,-1,1763,1625,7.67154,-11.5184
546,-601,6.56873,3.62354,0,0,0,0,0,0,0,-1,1770,1625,6.56867,-3.62352
553,-601,7.03015,4.25049,0,0,0,0,0,0,0,-1,1777,1625,7.03011,-4.25048
560,-601,7.50745,4.83374,0,0,0,0,0,0,0,-1,1784,1625,7.50744,-4.83376
567,-601,7.82043,3.83301,0,0,0,0,0,0,0,-1,1791,1625,7.82041,-3.83303
574,-601,0,0,0,0,0,0,0,0,0,-1,1798,1625,0,0
581,-601,0,0,0,0,0,0,0,0,0,-1,1805,1625,0,0
588,-601,0,0,0,0,0,0,0,0,0,-1,1812,1625,0,0
595,-601,0,0,0,0,0,0,0,0,0,-1,1819,1625,0,0
602,-601,0,0,0,0,0,0,0,0,0,-1,1826,1625,0,0
609,-601,0,0,0,0,0,0,0,0,0,-1,1833,1625,0,0
616,-601,0,0,0,0,0,0,0,0,0,-1,1840,1625,0,0
623,-601,0,0,0,0,0,0,0,0,0,-1,1847,1625,0,0
630,-601,0,0,0,0,0,0,0,0,0,-1,1854,1625,0,0
637,-601,0,0,0,0,0,0,0,0,0,-1,1861,1625,0,0
644,-601,0,0,0,0,0,0,0,0,0,-1,1868,1625,0,0
651,-601,0,0,0,0,0,0,0,0,0,-1,1875,1625,0,0
658,-601,0,0,0,0,0,0,0,0,0,-1,1882,1625,0,0
665,-601,0,0,0,0,0,0,0,0,0,-1,1889,1625,0,0
672,-601,0,0,0,0,0,0,0,0,0,-1,1896,1625,0,0
679,-601,0,0,0,0,0,0,0,0,0,-1,1903,1625,0,0
686,-601,0,0,0,0,0,0,0,0,0,-1,1910,1625,0,0
693,-601,0,0,0,0,0,0,0,0,0,-1,1917,1625,0,0
700,-601,0,0,0,0,0,0,0,0,0,-1,1924,1625,0,0
707,-601,0,0,0,0,0,0,0,0,0,-1,1931,1625,0,0
714,-601,0,0,0,0,0,0,0,0,0,-1,1938,1625,0,0
721,-601,0,0,0,0,0,0,0,0,0,-1,1945,1625,0,0
728,-601,0,0,0,0,0,0,0,0,0,-1,1952,1625,0,0
735,-601,0,0,0,0,0,0,0,0,0,-1,1959,1625,0,0
742,-601,0,0,0,0,0,0,0,0,0,-1,1966,1625,0,0
749,-601,0,0,0,0,0,0,0,0,0,-1,1973,1625,0,0
756,-601,0,0,0,0,0,0,0,0,0,-1,1980,1625,0,0
763,-601,0,0,0,0,0,0,0,0,0,-1,1987,1625,0,0
770,-601,0,0,0,0,0,0,0,0,0,-1,1994,1625,0,0
777,-601,0,0,0,0,0,0,0,0,0,-1,2001,1625,0,0
784,-601,0,0,0,0,0,0,0,0,0,-1,2008,1625,0,0
791,-601,0,0,0,0,0,0,0,0,0,-1,2015,1625,0,0
798,-601,0,0,0,0,0,0,0,0,0,-1,2022,1625,0,0
805,-601,0,0,0,0,0,0,0,0,0,-1,2029,1625,0,0
812,-601,0,0,0,0,0,0,0,0,0,-1,2036,1625,0,0
-700,-608,0,0,0,0,0,0,0,0,0,-1,524,1632,0,0
-693,-608,0,0,0,0,0,0,0,0,0,-1,531,1632,0,0
-686,-608,0,0,0,0,0,0,0,0,0,-1,538,1632,0,0
-679,-608,0,0,0,0,0,0,0,0,0,-1,545,1632,0,0
-672,-608,0,0,0,0,0,0,0,0,0,-1,552,1632,0,0
-665,-608,0,0,0,0,0,0,0,0,0,-1,559,1632,0,0
-658,-608,0,0,0,0,0,0,0,0,0,-1,566,1632,0,0
-651,-608,0,0,0,0,0,0,0,0,0,-1,573,1632,0,0
-644,-608,0,0,0,0,0,0,0,0,0,-1,580,1632,0,0
-637,-608,0,0,0,0,0,0,0,0,0,-1,587,1632,0,0
-630,-608,0,0,0,0,0,0,0,0,0,-1,594,1632,0,0
-623,-608,0,0,0,0,0,0,0,0,0,-1,601,1632,0,0
-616,-608,0,0,0,0,0,0,0,0,0,-1,608,1632,0,0
-609,-608,0,0,0,0,0,0,0,0,0,-1,615,1632,0,0
-602,-608,0,0,0,0,0,0,0,0,0,-1,622,1632,0,0
-595,-608,0,0,0,0,0,0,0,0,0,-1,629,1632,0,0
-588,-608,0,0,0,0,0,0,0,0,0,-1,636,1632,0,0
-581,-608,0,0,0,0,0,0,0,0,0,-1,643,1632,0,0
-574,-608,0,0,0,0,0,0,0,0,0,-1,650,1632,0,0
-567,-608,0,0,0,0,0,0,0,0,0,-1,657,1632,0,0
-560,-608,0,0,0,0,0,0,0,0,0,-1,664,1632,0,0
-553,-608,0,0,0,0,0,0,0,0,0,-1,671,1632,0,0
-546,-608,0,0,0,0,0,0,0,0,0,-1,678,1632,0,0
-539,-608,0,0,0,0,0,0,0,0,0,-1,685,1632,0,0
-532,-608,0,0,0,0,0,0,0,0,0,-1,692,1632,0,0
-525,-608,0,0,0,0,0,0,0,0,0,-1,699,1632,0,0
-518,-608,0,0,0,0,0,0,0,0,0,-1,706,1632,0,0
-511,-608,0,0,0,0,0,0,0,0,0,-1,713,1632,0,0
-504,-608,0,0,0,0,0,0,0,0,0,-1,720,1632,0,0
-497,-608,0,0,0,0,0,0,0,0,0,-1,727,1632,0,0
-490,-608,0,0,0,0,0,0,0,0,0,-1,734,1632,0,0
-483,-608,0,0,0,0,0,0,0,0,0,-1,741,1632,0,0
-476,-608,0,0,0,0,0,0,0,0,0,-1,748,1632,0,0
-469,-608,0,0,0,0,0,0,0,0,0,-1,755,1632,0,0
-462,-608,0,0,0,0,0,0,0,0,0,-1,762,1632,0,0
-455,-608,0,0,0,0,0,0,0,0,0,-1,769,1632,0,0
-448,-608,0,0,0,0,0,0,0,0,0,-1,776,1632,0,0
-441,-608,-7.34601,2.78052,0,0,0,0,0,0,0,-1,783,1632,-7.346,-2.78056
-434,-608,-6.34558,3.27405,0,0,0,0,0,0,0,-1,790,1632,-6.34555,-3.27406
-427,-608,-7.74335,4.17688,0,0,0,0,0,0,0,-1,797,1632,-7.74334,-4.17693
-420,-608,-6.82794,4.34839,0,0,0,0,0,0,0,-1,804,1632,-6.82794,-4.34838
-413,-608,-5.41919,5.66138,0,0,0,0,0,0,0,-1,811,1632,-5.41917,-5.66133
-406,-608,-4.79681,4.98999,0,0,0,0,0,0,0,-1,818,1632,-4.79684,-4.98997
-399,-608,-2.60645,6.34167,0,0,0,0,0,0,0,-1,825,1632,-2.60643,-6.34169
-392,-608,2.86639,10.4043,0,0,0,0,0,0,0,-1,832,1632,2.8664,-10.4043
-385,-608,2.73553,11.4164,0,0,0,0,0,0,0,-1,839,1632,2.73556,-11.4164
-378,-608,2.3689,11.5031,-0.00439397,-0.0129299,-0.00509303,-0.00201704,-0.0153068,-0.436656,0.00960304,0.0494548,846,1632,2.36887,-11.503
-371,-608,2.23474,11.4617,-0.00319186,-0.0109713,-0.00417957,-0.00137206,-0.0127911,-0.410651,0.00810885,0.0404332,853,1632,2.23477,-11.4616
-364,-608,2.30078,11.5487,-0.00213942,-0.00926132,-0.00329452,-0.000849162,-0.0105516,-0.373277,0.00676911,0.0178244,860,1632,2.30078,-11.5488
-357,-608,2.2674,11.8196,-0.00130326,-0.00762123,-0.00249629,-0.000435998,-0.00848849,-0.334374,0.0055194,0.0134463,867,1632,2.26741,-11.8196
-350,-608,2.26459,12.1099,-0.000748032,-0.00604436,-0.00192847,-0.00012026,-0.00667213,-0.31471,0.00440855,0.0182415,874,1632,2.26458,-12.1099
-343,-608,2.27563,12.3618,-0.000388496,-0.00480471,-0.00157162,0.000113698,-0.00530691,-0.309284,0.00357644,0.0230201,881,1632,2.27563,-12.3619
-336,-608,2.26331,12.6292,-0.000196528,-0.00368341,-0.00139467,0.000292671,-0.00417261,-0.337355,0.00288425,0.0158329,888,1632,2.26331,-12.6291
-329,-608,2.23907,12.8628,-5.35498e-05,-0.00272104,-0.00130368,0.00047777,-0.00325236,-0.387001,0.00234378,0.0139545,895,1632,2.2391,-12.8628
-322,-608,2.22314,13.0767,-4.9719e-05,-0.00207743,-0.00139278,0.000659137,-0.00278629,-0.470782,0.00211181,0.0133797,902,1632,2.22314,-13.0766
-315,-608,2.25793,13.2831,-0.00012519,-0.00183729,-0.00163787,0.000866853,-0.00282933,-0.544593,0.00223201,0.0125397,909,1632,2.25796,-13.2831
-308,-608,2.2644,13.5103,-8.66094e-05,-0.00195879,-0.00196929,0.00115775,-0.00320316,-0.563534,0.00260845,0.0130942,916,1632,2.26439,-13.5103
-301,-608,2.26422,13.7462,0.000214562,-0.00227502,-0.00218989,0.00148873,-0.00354919,-0.526958,0.00298863,0.0105263,923,1632,2.26422,-13.7462
-294,-608,2.27155,13.9634,0.000625783,-0.00271709,-0.00232969,0.0018216,-0.00391291,-0.474227,0.00338342,0.0109362,930,1632,2.27153,-13.9633
-287,-608,2.26563,14.1753,0.00113925,-0.00336449,-0.00238544,0.00216782,-0.00439305,-0.407097,0.00385986,0.010749,937,1632,2.26564,-14.1753
-280,-608,2.26776,14.3794,0.00184519,-0.00419215,-0.00243774,0.00270659,-0.00505355,-0.339666,0.00454811,0.00853791,944,1632,2.26775,-14.3794
-273,-608,2.25934,14.6014,0.00271547,-0.0054557,-0.00253995,0.00344064,-0.00618087,-0.278106,0.00562957,0.00869987,951,1632,2.25936,-14.6014
-266,-608,2.27979,14.833,0.00371993,-0.00688842,-0.00251585,0.00428634,-0.00745483,-0.221444,0.00686055,0.00877626,958,1632,2.27977,-14.8331
-259,-608,2.31836,15.0024,0.00487655,-0.00882118,-0.00237196,0.00527566,-0.00922029,-0.1667,0.0084719,0.0119676,965,1632,2.31839,-15.0024
-252,-608,2.36761,15.1202,0.00621519,-0.0107357,-0.00212436,0.00647736,-0.0109978,-0.122795,0.0102012,0.0261791,972,1632,2.36763,-15.1202
-245,-608,2.54791,15.4003,0.00773408,-0.0131809,-0.00198915,0.00792158,-0.0133684,-0.0939839,0.0124251,0.0360996,979,1632,2.5479,-15.4002
-238,-608,2.53387,15.5623,0.00944511,-0.0161294,-0.00175902,0.00956553,-0.0162498,-0.0683512,0.0150701,0.0438787,986,1632,2.53386,-15.5623
-231,-608,2.66681,15.7758,0,0,0,0,0,0,0,-1,993,1632,2.6668,-15.7757
-224,-608,2.51642,15.3452,0,0,0,0,0,0,0,-1,1000,1632,2.5164,-15.3452
-217,-608,1.04419,12.8451,0,0,0,0,0,0,0,-1,1007,1632,1.04418,-12.8451
-210,-608,2.94293,16.2939,0,0,0,0,0,0,0,-1,1014,1632,2.94295,-16.294
-203,-608,3.14099,16.3833,0,0,0,0,0,0,0,-1,1021,1632,3.14103,-16.3833
-196,-608,3.40698,16.4789,0,0,0,0,0,0,0,-1,1028,1632,3.40695,-16.4789
-189,-608,3.49255,17.0035,0,0,0,0,0,0,0,-1,1035,1632,3.49259,-17.0035
-182,-608,2.85425,15.5198,0,0,0,0,0,0,0,-1,1042,1632,2.85429,-15.5198
-175,-608,0.219116,15.1643,0,0,0,0,0,0,0,-1,1049,1632,0.219173,-15.1644
-168,-608,0.000366211,9.48645,0,0,0,0,0,0,0,-1,1056,1632,0.000317105,-9.48648
-161,-608,2.08655,15.7969,0,0,0,0,0,0,0,-1,1063,1632,2.08653,-15.7969
-154,-608,5.3457,12.2286,0,0,0,0,0,0,0,-1,1070,1632,5.34573,-12.2287
-147,-608,2.4386,9.50317,0,0,0,0,0,0,0,-1,1077,1632,2.43858,-9.50313
-140,-608,2.60132,10.8401,0,0,0,0,0,0,0,-1,1084,1632,2.60134,-10.8401
-133,-608,3.2312,12.4738,0,0,0,0,0,0,0,-1,1091,1632,3.23116,-12.4738
-126,-608,3.76465,13.9644,0,0,0,0,0,0,0,-1,1098,1632,3.76466,-13.9644
-119,-608,4.28906,15.4196,0,0,0,0,0,0,0,-1,1105,1632,4.28911,-15.4195
-112,-608,0.745117,10.5587,0,0,0,0,0,0,0,-1,1112,1632,0.745145,-10.5587
-105,-608,-0.252319,1.42419,0,0,0,0,0,0,0,-1,1119,1632,-0.252331,-1.42418
-98,-608,-2.8595,3.0863,0,0,0,0,0,0,0,-1,1126,1632,-2.85948,-3.08625
-91,-608,-3.71948,1.73608,0,0,0,0,0,0,0,-1,1133,1632,-3.7195,-1.73607
-84,-608,0,0,0,0,0,0,0,0,0,-1,1140,1632,0,0
-77,-608,0,0,0,0,0,0,0,0,0,-1,1147,1632,0,0
-70,-608,0,0,0,0,0,0,0,0,0,-1,1154,1632,0,0
-63,-608,0,0,0,0,0,0,0,0,0,-1,1161,1632,0,0
-56,-608,0,0,0,0,0,0,0,0,0,-1,1168,1632,0,0
-49,-608,0,0,0,0,0,0,0,0,0,-1,1175,1632,0,0
-42,-608,0,0,0,0,0,0,0,0,0,-1,1182,1632,0,0
-35,-608,0,0,0,0,0,0,0,0,0,-1,1189,1632,0,0
-28,-608,0,0,0,0,0,0,0,0,0,-1,1196,1632,0,0
-21,-608,0,0,0,0,0,0,0,0,0,-1,1203,1632,0,0
-14,-608,0,0,0,0,0,0,0,0,0,-1,1210,1632,0,0
-7,-608,0,0,0,0,0,0,0,0,0,-1,1217,1632,0,0
0,-608,0,0,0,0,0,0,0,0,0,-1,1224,1632,0,0
7,-608,0,0,0,0,0,0,0,0,0,-1,1231,1632,0,0
14,-608,0,0,0,0,0,0,0,0,0,-1,1238,1632,0,0
21,-608,0,0,0,0,0,0,0,0,0,-1,1245,1632,0,0
28,-608,0,0,0,0,0,0,0,0,0,-1,1252,1632,0,0
35,-608,0,0,0,0,0,0,0,0,0,-1,1259,1632,0,0
42,-608,0,0,0,0,0,0,0,0,0,-1,1266,1632,0,0
49,-608,0,0,0,0,0,0,0,0,0,-1,1273,1632,0,0
56,-608,0,0,0,0,0,0,0,0,0,-1,1280,1632,0,0
63,-608,0,0,0,0,0,0,0,0,0,-1,1287,1632,0,0
70,-608,0,0,0,0,0,0,0,0,0,-1,1294,1632,0,0
77,-608,0,0,0,0,0,0,0,0,0,-1,1301,1632,0,0
84,-608,0,0,0,0,0,0,0,0,0,-1,1308,1632,0,0
91,-608,0,0,0,0,0,0,0,0,0,-1,1315,1632,0,0
98,-608,0,0,0,0,0,0,0,0,0,-1,1322,1632,0,0
105,-608,0,0,0,0,0,0,0,0,0,-1,1329,1632,0,0
112,-608,0,0,0,0,0,0,0,0,0,-1,1336,1632,0,0
119,-608,0,0,0,0,0,0,0,0,0,-1,1343,1632,0,0
126,-608,0,0,0,0,0,0,0,0,0,-1,1350,1632,0,0
133,-608,0,0,0,0,0,0,0,0,0,-1,1357,1632,0,0
140,-608,0,0,0,0,0,0,0,0,0,-1,1364,1632,0,0
147,-608,0,0,0,0,0,0,0,0,0,-1,1371,1632,0,0
154,-608,0,0,0,0,0,0,0,0,0,-1,1378,1632,0,0
161,-608,0,0,0,0,0,0,0,0,0,-1,1385,1632,0,0
168,-608,0,0,0,0,0,0,0,0,0,-1,1392,1632,0,0
175,-608,0,0,0,0,0,0,0,0,0,-1,1399,1632,0,0
182,-608,0,0,0,0,0,0,0,0,0,-1,1406,1632,0,0
189,-608,0,0,0,0,0,0,0,0,0,-1,1413,1632,0,0
196,-608,0,0,0,0,0,0,0,0,0,-1,1420,1632,0,0
203,-608,0,0,0,0,0,0,0,0,0,-1,1427,1632,0,0
210,-608,5.7157,-0.333008,0,0,0,0,0,0,0,-1,1434,1632,5.71566,0.333004
217,-608,4.49402,-0.831787,0,0,0,0,0,0,0,-1,1441,1632,4.49396,0.831738
224,-608,4.18018,-1.11792,0,0,0,0,0,0,0,-1,1448,1632,4.1802,1.11796
231,-608,0.361816,0.825195,0,0,0,0,0,0,0,-1,1455,1632,0.36185,-0.825226
238,-608,2.85388,-0.28833,0,0,0,0,0,0,0,-1,1462,1632,2.85391,0.288282
245,-608,3.87537,4.02173,0,0,0,0,0,0,0,-1,1469,1632,3.87538,-4.02168
252,-608,5.66956,3.5282,0,0,0,0,0,0,0,-1,1476,1632,5.6696,-3.52815
259,-608,7.47437,3.07178,0,0,0,0,0,0,0,-1,1483,1632,7.4744,-3.07172
266,-608,9.46936,2.34766,0,0,0,0,0,0,0,-1,1490,1632,9.46932,-2.34764
273,-608,6.03003,3.34241,0,0,0,0,0,0,0,-1,1497,1632,6.02997,-3.34245
280,-608,5.72461,2.0769,0,0,0,0,0,0,0,-1,1504,1632,5.72457,-2.07688
287,-608,6.20581,3.59338,0,0,0,0,0,0,0,-1,1511,1632,6.20585,-3.59341
294,-608,6.94922,5.17151,0,0,0,0,0,0,0,-1,1518,1632,6.94925,-5.17151
301,-608,7.60083,6.68018,0,0,0,0,0,0,0,-1,1525,1632,7.60086,-6.68013
308,-608,7.64746,9.93848,0,0,0,0,0,0,0,-1,1532,1632,7.64745,-9.93842
315,-608,5.30688,11.2054,0,0,0,0,0,0,0,-1,1539,1632,5.30694,-11.2054
322,-608,5.32617,13.7581,0,0,0,0,0,0,0,-1,1546,1632,5.32613,-13.758
329,-608,7.12231,13.9607,0,0,0,0,0,0,0,-1,1553,1632,7.12231,-13.9607
336,-608,5.48633,7.82446,0,0,0,0,0,0,0,-1,1560,1632,5.48634,-7.82446
343,-608,5.47192,5.61047,0,0,0,0,0,0,0,-1,1567,1632,5.47192,-5.61045
350,-608,11.6957,1.71387,0,0,0,0,0,0,0,-1,1574,1632,11.6957,-1.71388
357,-608,3.77002,5.10046,0,0,0,0,0,0,0,-1,1581,1632,3.77002,-5.10043
364,-608,5.6925,11.2163,0,0,0,0,0,0,0,-1,1588,1632,5.69255,-11.2163
371,-608,7.41772,16.6929,0,0,0,0,0,0,0,-1,1595,1632,7.41769,-16.6929
378,-608,7.7395,16.0934,0.00074738,-0.00681009,0.00844254,0.00621825,-0.012281,0.574977,0.01087,0.0381821,1602,1632,7.73954,-16.0934
385,-608,7.7063,15.9678,0.000260912,-0.00692709,0.00796917,0.00540903,-0.0120752,0.573561,0.0103362,0.0327633,1609,1632,7.70628,-15.9678
392,-608,7.52405,15.7948,0.000293603,-0.00677429,0.00748685,0.00503865,-0.0115193,0.564891,0.0098008,0.0212164,1616,1632,7.5241,-15.7948
399,-608,7.49707,15.6379,0.000384592,-0.00588972,0.0070576,0.00497087,-0.010476,0.57626,0.00910509,0.00953536,1623,1632,7.49711,-15.6379
406,-608,7.49658,15.4545,0.000257529,-0.0049783,0.00643205,0.00458402,-0.0093048,0.59213,0.00817165,0.00890123,1630,1632,7.49657,-15.4545
413,-608,7.48682,15.271,0.000164224,-0.00422649,0.00578479,0.00415623,-0.00821849,0.604041,0.00727173,0.010048,1637,1632,7.48685,-15.271
420,-608,7.45923,15.105,4.88961e-05,-0.00345744,0.0050557,0.00364678,-0.00705532,0.618501,0.00628245,0.017048,1644,1632,7.45927,-15.105
427,-608,7.49683,14.9091,-0.000134842,-0.00291006,0.00434333,0.00303715,-0.00608206,0.630782,0.00536192,0.0198463,1651,1632,7.49688,-14.909
434,-608,7.51794,14.6886,-0.000301498,-0.00242949,0.00350802,0.00230033,-0.00503132,0.638156,0.00432971,0.0161124,1658,1632,7.51789,-14.6886
441,-608,7.50171,14.4921,-0.000636489,-0.00211063,0.00278171,0.00150414,-0.00425126,0.655889,0.00344675,0.0136566,1665,1632,7.50169,-14.4921
448,-608,7.52319,14.2876,-0.00121544,-0.001742,0.00211971,0.000657282,-0.00361472,0.723611,0.00265616,0.0142563,1672,1632,7.5232,-14.2877
455,-608,7.53943,14.0758,-0.00191984,-0.00161576,0.00148952,-0.000270541,-0.00326506,0.836258,0.00209237,0.0104597,1679,1632,7.5394,-14.0758
462,-608,7.51831,13.8724,-0.00263577,-0.00152004,0.00091303,-0.00100794,-0.00314788,1.05963,0.00185619,0.00976977,1686,1632,7.51834,-13.8725
469,-608,7.49854,13.6759,-0.00335324,-0.0015378,0.00032328,-0.00148195,-0.00340909,1.39973,0.00197383,0.00810729,1693,1632,7.49854,-13.6759
476,-608,7.50549,13.4611,-0.00416218,-0.00147562,-0.000398511,-0.00141775,-0.00422005,-1.4266,0.00247977,0.00837966,1700,1632,7.50546,-13.4611
483,-608,7.49792,13.2384,-0.00507531,-0.00113277,-0.000938754,-0.000920656,-0.00528742,-1.34858,0.00326167,0.00811522,1707,1632,7.49796,-13.2384
490,-608,7.49951,13.0103,-0.00556962,-0.000909669,-0.00166874,-0.000373726,-0.00610556,-1.26004,0.00395169,0.00844321,1714,1632,7.49953,-13.0102
497,-608,7.50647,12.7729,-0.00602826,-0.00062656,-0.00252043,0.000366796,-0.00702161,-1.19537,0.004808,0.0142798,1721,1632,7.50645,-12.7729
504,-608,7.46265,12.5262,-0.00650093,-0.00028907,-0.00328474,0.00112566,-0.00791565,-1.16411,0.00568956,0.0301272,1728,1632,7.46267,-12.5263
511,-608,7.37012,12.2648,-0.00669766,6.7334e-06,-0.00411326,0.00196077,-0.00865169,-1.1273,0.00652041,0.0425165,1735,1632,7.37015,-12.2648
518,-608,7.30835,12.0614,0,0,0,0,0,0,0,-1,1742,1632,7.30835,-12.0614
525,-608,7.92786,11.7131,0,0,0,0,0,0,0,-1,1749,1632,7.9278,-11.7131
532,-608,8.021,11.6565,0,0,0,0,0,0,0,-1,1756,1632,8.02094,-11.6565
539,-608,9.40796,1.43457,0,0,0,0,0,0,0,-1,1763,1632,9.40801,-1.43463
546,-608,9.94031,2.1134,0,0,0,0,0,0,0,-1,1770,1632,9.94031,-2.11346
553,-608,10.363,2.81335,0,0,0,0,0,0,0,-1,1777,1632,10.3631,-2.81333
560,-608,9.23999,4.5636,0,0,0,0,0,0,0,-1,1784,1632,9.24,-4.56354
567,-608,0,0,0,0,0,0,0,0,0,-1,1791,1632,0,0
574,-608,0,0,0,0,0,0,0,0,0,-1,1798,1632,0,0
581,-608,0,0,0,0,0,0,0,0,0,-1,1805,1632,0,0
588,-608,0,0,0,0,0,0,0,0,0,-1,1812,1632,0,0
595,-608,0,0,0,0,0,0,0,0,0,-1,1819,1632,0,0
602,-608,0,0,0,0,0,0,0,0,0,-1,1826,1632,0,0
609,-608,0,0,0,0,0,0,0,0,0,-1,1833,1632,0,0
616,-608,0,0,0,0,0,0,0,0,0,-1,1840,1632,0,0
623,-608,0,0,0,0,0,0,0,0,0,-1,1847,1632,0,0
630,-608,0,0,0,0,0,0,0,0,0,-1,1854,1632,0,0
637,-608,0,0,0,0,0,0,0,0,0,-1,1861,1632,0,0
644,-608,0,0,0,0,0,0,0,0,0,-1,1868,1632,0,0
651,-608,0,0,0,0,0,0,0,0,0,-1,1875,1632,0,0
658,-608,0,0,0,0,0,0,0,0,0,-1,1882,1632,0,0
665,-608,0,0,0,0,0,0,0,0,0,-1,1889,1632,0,0
672,-608,0,0,0,0,0,0,0,0,0,-1,1896,1632,0,0
679,-608,0,0,0,0,0,0,0,0,0,-1,1903,1632,0,0
686,-608,0,0,0,0,0,0,0,0,0,-1,1910,1632,0,0
693,-608,0,0,0,0,0,0,0,0,0,-1,1917,1632,0,0
700,-608,0,0,0,0,0,0,0,0,0,-1,1924,1632,0,0
707,-608,0,0,0,0,0,0,0,0,0,-1,1931,1632,0,0
714,-608,0,0,0,0,0,0,0,0,0,-1,1938,1632,0,0
721,-608,0,0,0,0,0,0,0,0,0,-1,1945,1632,0,0
728,-608,0,0,0,0,0,0,0,0,0,-1,1952,1632,0,0
735,-608,0,0,0,0,0,0,0,0,0,-1,1959,1632,0,0
742,-608,0,0,0,0,0,0,0,0,0,-1,1966,1632,0,0
749,-608,0,0,0,0,0,0,0,0,0,-1,1973,1632,0,0
756,-608,0,0,0,0,0,0,0,0,0,-1,1980,1632,0,0
763,-608,0,0,0,0,0,0,0,0,0,-1,1987,1632,0,0
770,-608,0,0,0,0,0,0,0,0,0,-1,1994,1632,0,0
777,-608,0,0,0,0,0,0,0,0,0,-1,2001,1632,0,0
784,-608,0,0,0,0,0,0,0,0,0,-1,2008,1632,0,0
791,-608,0,0,0,0,0,0,0,0,0,-1,2015,1632,0,0
798,-608,0,0,0,0,0,0,0,0,0,-1,2022,1632,0,0
805,-608,0,0,0,0,0,0,0,0,0,-1,2029,1632,0,0
812,-608,0,0,0,0,0,0,0,0,0,-1,2036,1632,0,0
-700,-615,0,0,0,0,0,0,0,0,0,-1,524,1639,0,0
-693,-615,0,0,0,0,0,0,0,0,0,-1,531,1639,0,0
-686,-615,0,0,0,0,0,0,0,0,0,-1,538,1639,0,0
-679,-615,0,0,0,0,0,0,0,0,0,-1,545,1639,0,0
-672,-615,0,0,0,0,0,0,0,0,0,-1,552,1639,0,0
-665,-615,0,0,0,0,0,0,0,0,0,-1,559,1639,0,0
-658,-615,0,0,0,0,0,0,0,0,0,-1,566,1639,0,0
-651,-615,0,0,0,0,0,0,0,0,0,-1,573,1639,0,0
-644,-615,0,0,0,0,0,0,0,0,0,-1,580,1639,0,0
-637,-615,0,0,0,0,0,0,0,0,0,-1,587,1639,0,0
-630,-615,0,0,0,0,0,0,0,0,0,-1,594,1639,0,0
-623,-615,0,0,0,0,0,0,0,0,0,-1,601,1639,0,0
-616,-615,0,0,0,0,0,0,0,0,0,-1,608,1639,0,0
-609,-615,0,0,0,0,0,0,0,0,0,-1,615,1639,0,0
-602,-615,0,0,0,0,0,0,0,0,0,-1,622,1639,0,0
-595,-615,0,0,0,0,0,0,0,0,0,-1,629,1639,0,0
-588,-615,0,0,0,0,0,0,0,0,0,-1,636,1639,0,0
-581,-615,0,0,0,0,0,0,0,0,0,-1,643,1639,0,0
-574,-615,0,0,0,0,0,0,0,0,0,-1,650,1639,0,0
-567,-615,0,0,0,0,0,0,0,0,0,-1,657,1639,0,0
-560,-615,0,0,0,0,0,0,0,0,0,-1,664,1639,0,0
-553,-615,0,0,0,0,0,0,0,0,0,-1,671,1639,0,0
-546,-615,0,0,0,0,0,0,0,0,0,-1,678,1639,0,0
-539,-615,0,0,0,0,0,0,0,0,0,-1,685,1639,0,0
-532,-615,0,0,0,0,0,0,0,0,0,-1,692,1639,0,0
-525,-615,0,0,0,0,0,0,0,0,0,-1,699,1639,0,0
-518,-615,0,0,0,0,0,0,0,0,0,-1,706,1639,0,0
-511,-615,0,0,0,0,0,0,0,0,0,-1,713,1639,0,0
-504,-615,0,0,0,0,0,0,0,0,0,-1,720,1639,0,0
-497,-615,0,0,0,0,0,0,0,0,0,-1,727,1639,0,0
-490,-615,0,0,0,0,0,0,0,0,0,-1,734,1639,0,0
-483,-615,0,0,0,0,0,0,0,0,0,-1,741,1639,0,0
-476,-615,0,0,0,0,0,0,0,0,0,-1,748,1639,0,0
-469,-615,0,0,0,0,0,0,0,0,0,-1,755,1639,0,0
-462,-615,0,0,0,0,0,0,0,0,0,-1,762,1639,0,0
-455,-615,0,0,0,0,0,0,0,0,0,-1,769,1639,0,0
-448,-615,0,0,0,0,0,0,0,0,0,-1,776,1639,0,0
-441,-615,0,0,0,0,0,0,0,0,0,-1,783,1639,0,0
-434,-615,-7.64508,2.98596,0,0,0,0,0,0,0,-1,790,1639,-7.64505,-2.98594
-427,-615,-9.0011,2.89404,0,0,0,0,0,0,0,-1,797,1639,-9.00107,-2.89399
-420,-615,-8.07568,3.0752,0,0,0,0,0,0,0,-1,804,1639,-8.07569,-3.07514
-413,-615,-7.09149,3.396,0,0,0,0,0,0,0,-1,811,1639,-7.09147,-3.39599
-406,-615,-6.21368,3.7312,0,0,0,0,0,0,0,-1,818,1639,-6.21366,-3.73114
-399,-615,-4.84875,3.91907,0,0,0,0,0,0,0,-1,825,1639,-4.84877,-3.91901
-392,-615,1.38574,11.8627,0,0,0,0,0,0,0,-1,832,1639,1.38574,-11.8627
-385,-615,2.13043,11.8832,0,0,0,0,0,0,0,-1,839,1639,2.13042,-11.8832
-378,-615,2.65247,11.7428,0,0,0,0,0,0,0,-1,846,1639,2.65246,-11.7428
-371,-615,2.4021,11.6028,0,0,0,0,0,0,0,-1,853,1639,2.40209,-11.6028
-364,-615,2.53033,11.6704,-0.00247194,-0.0114494,-0.00417883,-0.000827869,-0.0130935,-0.37483,0.00846653,0.0352335,860,1639,2.53033,-11.6705
-357,-615,2.5401,11.9789,-0.00186194,-0.00929713,-0.00335319,-0.000573094,-0.010586,-0.366954,0.00687425,0.0290691,867,1639,2.54011,-11.9789
-350,-615,2.46185,12.1908,-0.00137958,-0.00733115,-0.00270676,-0.000332701,-0.00837803,-0.369046,0.00547782,0.0285438,874,1639,2.46188,-12.1908
-343,-615,2.4682,12.3505,-0.00101835,-0.00584336,-0.00225024,-0.000131807,-0.00672991,-0.375306,0.00444332,0.0191686,881,1639,2.46822,-12.3505
-336,-615,2.49072,12.6144,-0.000791147,-0.00452853,-0.00192519,2.3141e-05,-0.00534282,-0.400145,0.00356962,0.010271,888,1639,2.49074,-12.6144
-329,-615,2.47382,12.8529,-0.000585671,-0.00344254,-0.00170904,0.000213281,-0.00424149,-0.437299,0.00290137,0.0102809,895,1639,2.47381,-12.8528
-322,-615,2.46655,13.0856,-0.000495991,-0.00264192,-0.00163586,0.000387392,-0.0035253,-0.495142,0.0024894,0.0102722,902,1639,2.46653,-13.0856
-315,-615,2.49353,13.3165,-0.000498664,-0.00227538,-0.00171369,0.000543242,-0.00331729,-0.546273,0.00241308,0.0120598,909,1639,2.49356,-13.3165
-308,-615,2.47687,13.5432,-0.000423408,-0.00220259,-0.00187369,0.000761151,-0.00338715,-0.563764,0.00254997,0.018888,916,1639,2.47685,-13.5433
-301,-615,2.48792,13.7499,-6.67952e-05,-0.00230048,-0.00190776,0.00102699,-0.00339427,-0.520583,0.0026718,0.0127196,923,1639,2.48794,-13.7499
-294,-615,2.49292,13.9604,0.000420317,-0.00251665,-0.00186117,0.00132257,-0.0034189,-0.451396,0.00282527,0.0108192,930,1639,2.49294,-13.9605
-287,-615,2.4826,14.1854,0.000957536,-0.00289341,-0.00175333,0.00163622,-0.00357209,-0.36932,0.00307548,0.00793474,937,1639,2.4826,-14.1855
-280,-615,2.49207,14.3898,0.00162943,-0.00342141,-0.00165992,0.00212611,-0.00391808,-0.290739,0.00354037,0.0084215,944,1639,2.49207,-14.3898
-273,-615,2.48566,14.6091,0.00242432,-0.00428656,-0.00162601,0.00279754,-0.00465978,-0.225622,0.00435,0.00978351,951,1639,2.48566,-14.6092
-266,-615,2.49158,14.8145,0.00328926,-0.00523415,-0.00150392,0.00354684,-0.00549173,-0.169624,0.00525854,0.0100053,958,1639,2.49155,-14.8145
-259,-615,2.51837,14.9905,0.00418681,-0.00654374,-0.00132633,0.00434832,-0.00670525,-0.121174,0.00642996,0.0111149,965,1639,2.51835,-14.9904
-252,-615,2.5271,15.1743,0.00507717,-0.00779504,-0.00118062,0.00518456,-0.00790243,-0.0907102,0.0076099,0.0124441,972,1639,2.52711,-15.1744
-245,-615,2.5318,15.3604,0.00619888,-0.00968771,-0.00117921,0.00628593,-0.00977476,-0.0736889,0.00934529,0.0180692,979,1639,2.53179,-15.3603
-238,-615,2.56354,15.5994,0.00745873,-0.011955,-0.00105323,0.0075157,-0.012012,-0.0540402,0.0113735,0.0249053,986,1639,2.56355,-15.5994
-231,-615,2.65204,15.7583,0.00851386,-0.0146816,-0.00116837,0.00857256,-0.0147403,-0.0502012,0.0136158,0.035159,993,1639,2.65203,-15.7583
-224,-615,2.69196,15.63,0.00964647,-0.0179057,-0.00141231,0.00971867,-0.0179779,-0.0510809,0.0162259,0.049948,1000,1639,2.69197,-15.63
-217,-615,2.78949,15.7417,0,0,0,0,0,0,0,-1,1007,1639,2.7895,-15.7418
-210,-615,2.87207,15.8643,0,0,0,0,0,0,0,-1,1014,1639,2.87209,-15.8643
-203,-615,3.22888,15.9291,0,0,0,0,0,0,0,-1,1021,1639,3.22891,-15.9291
-196,-615,3.40894,16.3572,0,0,0,0,0,0,0,-1,1028,1639,3.4089,-16.3572
-189,-615,3.6106,16.7764,0,0,0,0,0,0,0,-1,1035,1639,3.61062,-16.7764
-182,-615,3.84949,17.2079,0,0,0,0,0,0,0,-1,1042,1639,3.84944,-17.2079
-175,-615,-0.609985,13.8434,0,0,0,0,0,0,0,-1,1049,1639,-0.610016,-13.8434
-168,-615,4.59839,16.191,0,0,0,0,0,0,0,-1,1056,1639,4.59841,-16.191
-161,-615,4.51575,13.3844,0,0,0,0,0,0,0,-1,1063,1639,4.51579,-13.3844
-154,-615,5.3302,13.4059,0,0,0,0,0,0,0,-1,1070,1639,5.33016,-13.4059
-147,-615,6.14453,13.4274,0,0,0,0,0,0,0,-1,1077,1639,6.14454,-13.4274
-140,-615,3.73401,10.2349,0,0,0,0,0,0,0,-1,1084,1639,3.73402,-10.2348
-133,-615,2.6178,17.45,0,0,0,0,0,0,0,-1,1091,1639,2.61776,-17.4499
-126,-615,4.43408,12.5017,0,0,0,0,0,0,0,-1,1098,1639,4.43403,-12.5018
-119,-615,4.82983,13.9279,0,0,0,0,0,0,0,-1,1105,1639,4.82986,-13.9278
-112,-615,3.65698,14.4874,0,0,0,0,0,0,0,-1,1112,1639,3.65695,-14.4875
-105,-615,0.958496,2.45398,0,0,0,0,0,0,0,-1,1119,1639,0.958452,-2.45398
-98,-615,-0.647705,2.12109,0,0,0,0,0,0,0,-1,1126,1639,-0.647756,-2.12105
-91,-615,-3.07983,2.97375,0,0,0,0,0,0,0,-1,1133,1639,-3.07989,-2.97376
-84,-615,-2.46509,0.703247,0,0,0,0,0,0,0,-1,1140,1639,-2.46505,-0.703273
-77,-615,-3.17859,1.23755,0,0,0,0,0,0,0,-1,1147,1639,-3.17865,-1.23752
-70,-615,-4.03943,1.43335,0,0,0,0,0,0,0,-1,1154,1639,-4.03942,-1.43339
-63,-615,-4.8877,1.45544,0,0,0,0,0,0,0,-1,1161,1639,-4.88766,-1.45549
-56,-615,0,0,0,0,0,0,0,0,0,-1,1168,1639,0,0
-49,-615,0,0,0,0,0,0,0,0,0,-1,1175,1639,0,0
-42,-615,0,0,0,0,0,0,0,0,0,-1,1182,1639,0,0
-35,-615,0,0,0,0,0,0,0,0,0,-1,1189,1639,0,0
-28,-615,0,0,0,0,0,0,0,0,0,-1,1196,1639,0,0
-21,-615,0,0,0,0,0,0,0,0,0,-1,1203,1639,0,0
-14,-615,0,0,0,0,0,0,0,0,0,-1,1210,1639,0,0
-7,-615,0,0,0,0,0,0,0,0,0,-1,1217,1639,0,0
0,-615,0,0,0,0,0,0,0,0,0,-1,1224,1639,0,0
7,-615,0,0,0,0,0,0,0,0,0,-1,1231,1639,0,0
14,-615,0,0,0,0,0,0,0,0,0,-1,1238,1639,0,0
21,-615,0,0,0,0,0,0,0,0,0,-1,1245,1639,0,0
28,-615,0,0,0,0,0,0,0,0,0,-1,1252,1639,0,0
35,-615,0,0,0,0,0,0,0,0,0,-1,1259,1639,0,0
42,-615,0,0,0,0,0,0,0,0,0,-1,1266,1639,0,0
49,-615,0,0,0,0,0,0,0,0,0,-1,1273,1639,0,0
56,-615,0,0,0,0,0,0,0,0,0,-1,1280,1639,0,0
63,-615,0,0,0,0,0,0,0,0,0,-1,1287,1639,0,0
70,-615,0,0,0,0,0,0,0,0,0,-1,1294,1639,0,0
77,-615,0,0,0,0,0,0,0,0,0,-1,1301,1639,0,0
84,-615,0,0,0,0,0,0,0,0,0,-1,1308,1639,0,0
91,-615,0,0,0,0,0,0,0,0,0,-1,1315,1639,0,0
98,-615,0,0,0,0,0,0,0,0,0,-1,1322,1639,0,0
105,-615,0,0,0,0,0,0,0,0,0,-1,1329,1639,0,0
112,-615,0,0,0,0,0,0,0,0,0,-1,1336,1639,0,0
119,-615,0,0,0,0,0,0,0,0,0,-1,1343,1639,0,0
126,-615,0,0,0,0,0,0,0,0,0,-1,1350,1639,0,0
133,-615,0,0,0,0,0,0,0,0,0,-1,1357,1639,0,0
140,-615,0,0,0,0,0,0,0,0,0,-1,1364,1639,0,0
147,-615,0,0,0,0,0,0,0,0,0,-1,1371,1639,0,0
154,-615,0,0,0,0,0,0,0,0,0,-1,1378,1639,0,0
161,-615,0,0,0,0,0,0,0,0,0,-1,1385,1639,0,0
168,-615,0,0,0,0,0,0,0,0,0,-1,1392,1639,0,0
175,-615,5.39648,-2.00879,0,0,0,0,0,0,0,-1,1399,1639,5.3965,2.00881
182,-615,5.65393,-1.51025,0,0,0,0,0,0,0,-1,1406,1639,5.65388,1.51028
189,-615,5.58972,-1.35608,0,0,0,0,0,0,0,-1,1413,1639,5.58967,1.35607
196,-615,5.49915,-0.693604,0,0,0,0,0,0,0,-1,1420,1639,5.4991,0.693602
203,-615,5.33411,-0.226685,0,0,0,0,0,0,0,-1,1427,1639,5.33414,0.226689
210,-615,5.60278,0.108276,0,0,0,0,0,0,0,-1,1434,1639,5.60284,-0.10831
217,-615,6.26331,-0.307373,0,0,0,0,0,0,0,-1,1441,1639,6.26331,0.307372
224,-615,5.45422,-0.333984,0,0,0,0,0,0,0,-1,1448,1639,5.45422,0.333992
231,-615,4.92542,1.80298,0,0,0,0,0,0,0,-1,1455,1639,4.92537,-1.80297
238,-615,4.76355,1.96729,0,0,0,0,0,0,0,-1,1462,1639,4.76357,-1.96734
245,-615,4.08643,3.15906,0,0,0,0,0,0,0,-1,1469,1639,4.08638,-3.159
252,-615,6.37805,3.73889,0,0,0,0,0,0,0,-1,1476,1639,6.37806,-3.73891
259,-615,8.35974,3.16443,0,0,0,0,0,0,0,-1,1483,1639,8.35975,-3.16444
266,-615,10.3414,2.58997,0,0,0,0,0,0,0,-1,1490,1639,10.3414,-2.58996
273,-615,6.57043,1.84766,0,0,0,0,0,0,0,-1,1497,1639,6.5704,-1.84771
280,-615,7.10449,3.23438,0,0,0,0,0,0,0,-1,1504,1639,7.10447,-3.23435
287,-615,7.35779,4.68542,0,0,0,0,0,0,0,-1,1511,1639,7.35776,-4.68546
294,-615,7.63733,6.29114,0,0,0,0,0,0,0,-1,1518,1639,7.63735,-6.29109
301,-615,8.47925,11.452,0,0,0,0,0,0,0,-1,1525,1639,8.47922,-11.452
308,-615,6.8114,10.9059,0,0,0,0,0,0,0,-1,1532,1639,6.81137,-10.9058
315,-615,5.1427,14.7251,0,0,0,0,0,0,0,-1,1539,1639,5.14269,-14.7251
322,-615,7.8822,14.9136,0,0,0,0,0,0,0,-1,1546,1639,7.88221,-14.9135
329,-615,7.21948,17.4885,0,0,0,0,0,0,0,-1,1553,1639,7.21945,-17.4886
336,-615,6.45007,14.1138,0,0,0,0,0,0,0,-1,1560,1639,6.45011,-14.1138
343,-615,2.40491,6.50134,0,0,0,0,0,0,0,-1,1567,1639,2.40489,-6.50137
350,-615,6.4458,15.4594,0,0,0,0,0,0,0,-1,1574,1639,6.44578,-15.4593
357,-615,7.12048,16.9247,0,0,0,0,0,0,0,-1,1581,1639,7.12052,-16.9247
364,-615,7.32507,16.6687,0,0,0,0,0,0,0,-1,1588,1639,7.32506,-16.6688
371,-615,7.28979,16.4708,0.000873886,-0.00414198,0.00598452,0.00485473,-0.00812282,0.58698,0.00757137,0.0421112,1595,1639,7.28985,-16.4709
378,-615,7.28247,16.1976,0.000573605,-0.00450902,0.00594954,0.00450186,-0.00843727,0.583555,0.00758471,0.0211419,1602,1639,7.28247,-16.1976
385,-615,7.28748,16.0127,0.000124285,-0.00472305,0.00560422,0.00380647,-0.00840524,0.581307,0.00721515,0.0124503,1609,1639,7.28749,-16.0128
392,-615,7.28491,15.8279,0.000186828,-0.00479356,0.00522291,0.00348281,-0.00808954,0.562947,0.00685549,0.00947191,1616,1639,7.28496,-15.8279
399,-615,7.2688,15.6685,0.000327009,-0.00421813,0.00491666,0.0034709,-0.00736203,0.568914,0.00638747,0.0103106,1623,1639,7.26875,-15.6685
406,-615,7.27893,15.4592,0.000343524,-0.00361426,0.00444462,0.00322989,-0.00650062,0.575957,0.00572272,0.0109023,1630,1639,7.27891,-15.4593
413,-615,7.29663,15.2715,0.000343898,-0.00318503,0.00395974,0.00291451,-0.00575564,0.575803,0.00509452,0.0112502,1637,1639,7.29667,-15.2714
420,-615,7.30054,15.0938,0.000248064,-0.00271796,0.00341504,0.0024882,-0.00495809,0.580555,0.00437724,0.0121295,1644,1639,7.30054,-15.0938
427,-615,7.32068,14.8855,4.93031e-05,-0.00241332,0.00291876,0.00198584,-0.00434986,0.585793,0.00374184,0.0142317,1651,1639,7.32073,-14.8855
434,-615,7.33765,14.7019,-8.08342e-05,-0.00217301,0.00225196,0.00135614,-0.00360998,0.567965,0.00296399,0.0135413,1658,1639,7.33762,-14.7019
441,-615,7.32935,14.4879,-0.000613988,-0.00202839,0.0017253,0.000543423,-0.0031858,0.590892,0.00232626,0.0133493,1665,1639,7.32939,-14.4879
448,-615,7.32764,14.2925,-0.00153593,-0.00185332,0.0012334,-0.000451061,-0.00293819,0.721419,0.00182709,0.0137417,1672,1639,7.32759,-14.2924
455,-615,7.32544,14.1042,-0.00257368,-0.0019393,0.000757051,-0.00143568,-0.0030773,0.983777,0.00177801,0.0130921,1679,1639,7.32543,-14.1042
462,-615,7.31213,13.9067,-0.00372115,-0.00200596,0.000354208,-0.00193569,-0.00379142,1.37495,0.00218914,0.0139495,1686,1639,7.31209,-13.9068
469,-615,7.28491,13.6891,-0.00497504,-0.00215859,-8.50653e-05,-0.00215603,-0.00497761,-1.54063,0.00288237,0.0123415,1693,1639,7.2849,-13.689
476,-615,7.29175,13.4521,-0.00637273,-0.00219796,-0.000675867,-0.00209127,-0.00647942,-1.41423,0.00381844,0.0104389,1700,1639,7.2917,-13.4521
483,-615,7.29602,13.2034,-0.00798286,-0.00199099,-0.00112518,-0.00178666,-0.00818718,-1.39116,0.00497078,0.0135328,1707,1639,7.29607,-13.2034
490,-615,7.31201,12.9893,-0.00925374,-0.00187107,-0.00178626,-0.00146159,-0.00966322,-1.34545,0.00601444,0.0166294,1714,1639,7.31203,-12.9893
497,-615,7.25256,12.7863,-0.0104963,-0.00167604,-0.00260292,-0.000965189,-0.0112072,-1.3042,0.00717141,0.0259229,1721,1639,7.25258,-12.7862
504,-615,7.21484,12.4733,-0.0117223,-0.00142317,-0.00342183,-0.000389939,-0.0127555,-1.27755,0.00837672,0.0472469,1728,1639,7.21485,-12.4733
511,-615,7.02527,12.1349,0,0,0,0,0,0,0,-1,1735,1639,7.02521,-12.1349
518,-615,7.35779,10.4647,0,0,0,0,0,0,0,-1,1742,1639,7.35773,-10.4647
525,-615,4.37524,3.90491,0,0,0,0,0,0,0,-1,1749,1639,4.37518,-3.90495
532,-615,7.3645,0.848145,0,0,0,0,0,0,0,-1,1756,1639,7.36451,-0.848093
539,-615,12.8112,-0.0476074,0,0,0,0,0,0,0,-1,1763,1639,12.8111,0.0475553
546,-615,8.33813,2.94556,0,0,0,0,0,0,0,-1,1770,1639,8.33813,-2.9455
553,-615,5.82532,-2.04199,0,0,0,0,0,0,0,-1,1777,1639,5.82534,2.04195
560,-615,0,0,0,0,0,0,0,0,0,-1,1784,1639,0,0
567,-615,0,0,0,0,0,0,0,0,0,-1,1791,1639,0,0
574,-615,0,0,0,0,0,0,0,0,0,-1,1798,1639,0,0
581,-615,0,0,0,0,0,0,0,0,0,-1,1805,1639,0,0
588,-615,0,0,0,0,0,0,0,0,0,-1,1812,1639,0,0
595,-615,0,0,0,0,0,0,0,0,0,-1,1819,1639,0,0
602,-615,0,0,0,0,0,0,0,0,0,-1,1826,1639,0,0
609,-615,0,0,0,0,0,0,0,0,0,-1,1833,1639,0,0
616,-615,0,0,0,0,0,0,0,0,0,-1,1840,1639,0,0
623,-615,0,0,0,0,0,0,0,0,0,-1,1847,1639,0,0
630,-615,0,0,0,0,0,0,0,0,0,-1,1854,1639,0,0
637,-615,0,0,0,0,0,0,0,0,0,-1,1861,1639,0,0
644,-615,0,0,0,0,0,0,0,0,0,-1,1868,1639,0,0
651,-615,0,0,0,0,0,0,0,0,0,-1,1875,1639,0,0
658,-615,0,0,0,0,0,0,0,0,0,-1,1882,1639,0,0
665,-615,0,0,0,0,0,0,0,0,0,-1,1889,1639,0,0
672,-615,0,0,0,0,0,0,0,0,0,-1,1896,1639,0,0
679,-615,0,0,0,0,0,0,0,0,0,-1,1903,1639,0,0
686,-615,0,0,0,0,0,0,0,0,0,-1,1910,1639,0,0
693,-615,0,0,0,0,0,0,0,0,0,-1,1917,1639,0,0
700,-615,0,0,0,0,0,0,0,0,0,-1,1924,1639,0,0
707,-615,0,0,0,0,0,0,0,0,0,-1,1931,1639,0,0
714,-615,0,0,0,0,0,0,0,0,0,-1,1938,1639,0,0
721,-615,0,0,0,0,0,0,0,0,0,-1,1945,1639,0,0
728,-615,0,0,0,0,0,0,0,0,0,-1,1952,1639,0,0
735,-615,0,0,0,0,0,0,0,0,0,-1,1959,1639,0,0
742,-615,0,0,0,0,0,0,0,0,0,-1,1966,1639,0,0
749,-615,0,0,0,0,0,0,0,0,0,-1,1973,1639,0,0
756,-615,0,0,0,0,0,0,0,0,0,-1,1980,1639,0,0
763,-615,0,0,0,0,0,0,0,0,0,-1,1987,1639,0,0
770,-615,0,0,0,0,0,0,0,0,0,-1,1994,1639,0,0
777,-615,0,0,0,0,0,0,0,0,0,-1,2001,1639,0,0
784,-615,0,0,0,0,0,0,0,0,0,-1,2008,1639,0,0
791,-615,0,0,0,0,0,0,0,0,0,-1,2015,1639,0,0
798,-615,0,0,0,0,0,0,0,0,0,-1,2022,1639,0,0
805,-615,0,0,0,0,0,0,0,0,0,-1,2029,1639,0,0
812,-615,0,0,0,0,0,0,0,0,0,-1,2036,1639,0,0
-700,-622,0,0,0,0,0,0,0,0,0,-1,524,1646,0,0
-693,-622,0,0,0,0,0,0,0,0,0,-1,531,1646,0,0
-686,-622,0,0,0,0,0,0,0,0,0,-1,538,1646,0,0
-679,-622,0,0,0,0,0,0,0,0,0,-1,545,1646,0,0
-672,-622,0,0,0,0,0,0,0,0,0,-1,552,1646,0,0
-665,-622,0,0,0,0,0,0,0,0,0,-1,559,1646,0,0
-658,-622,0,0,0,0,0,0,0,0,0,-1,566,1646,0,0
-651,-622,0,0,0,0,0,0,0,0,0,-1,573,1646,0,0
-644,-622,0,0,0,0,0,0,0,0,0,-1,580,1646,0,0
-637,-622,0,0,0,0,0,0,0,0,0,-1,587,1646,0,0
-630,-622,0,0,0,0,0,0,0,0,0,-1,594,1646,0,0
-623,-622,0,0,0,0,0,0,0,0,0,-1,601,1646,0,0
-616,-622,0,0,0,0,0,0,0,0,0,-1,608,1646,0,0
-609,-622,0,0,0,0,0,0,0,0,0,-1,615,1646,0,0
-602,-622,0,0,0,0,0,0,0,0,0,-1,622,1646,0,0
-595,-622,0,0,0,0,0,0,0,0,0,-1,629,1646,0,0
-588,-622,0,0,0,0,0,0,0,0,0,-1,636,1646,0,0
-581,-622,0,0,0,0,0,0,0,0,0,-1,643,1646,0,0
-574,-622,0,0,0,0,0,0,0,0,0,-1,650,1646,0,0
-567,-622,0,0,0,0,0,0,0,0,0,-1,657,1646,0,0
-560,-622,0,0,0,0,0,0,0,0,0,-1,664,1646,0,0
-553,-622,0,0,0,0,0,0,0,0,0,-1,671,1646,0,0
-546,-622,0,0,0,0,0,0,0,0,0,-1,678,1646,0,0
-539,-622,0,0,0,0,0,0,0,0,0,-1,685,1646,0,0
-532,-622,0,0,0,0,0,0,0,0,0,-1,692,1646,0,0
-525,-622,0,0,0,0,0,0,0,0,0,-1,699,1646,0,0
-518,-622,0,0,0,0,0,0,0,0,0,-1,706,1646,0,0
-511,-622,0,0,0,0,0,0,0,0,0,-1,713,1646,0,0
-504,-622,0,0,0,0,0,0,0,0,0,-1,720,1646,0,0
-497,-622,0,0,0,0,0,0,0,0,0,-1,727,1646,0,0
-490,-622,0,0,0,0,0,0,0,0,0,-1,734,1646,0,0
-483,-622,0,0,0,0,0,0,0,0,0,-1,741,1646,0,0
-476,-622,0,0,0,0,0,0,0,0,0,-1,748,1646,0,0
-469,-622,0,0,0,0,0,0,0,0,0,-1,755,1646,0,0
-462,-622,0,0,0,0,0,0,0,0,0,-1,762,1646,0,0
-455,-622,0,0,0,0,0,0,0,0,0,-1,769,1646,0,0
-448,-622,0,0,0,0,0,0,0,0,0,-1,776,1646,0,0
-441,-622,0,0,0,0,0,0,0,0,0,-1,783,1646,0,0
-434,-622,0,0,0,0,0,0,0,0,0,-1,790,1646,0,0
-427,-622,-7.62891,3.48096,0,0,0,0,0,0,0,-1,797,1646,-7.62892,-3.48092
-420,-622,-9.35791,1.77185,0,0,0,0,0,0,0,-1,804,1646,-9.35789,-1.77183
-413,-622,-8.46075,1.96777,0,0,0,0,0,0,0,-1,811,1646,-8.46074,-1.96774
-406,-622,-4.44318,2.16858,0,0,0,0,0,0,0,-1,818,1646,-4.44315,-2.16859
-399,-622,-7.06976,1.51001,0,0,0,0,0,0,0,-1,825,1646,-7.06976,-1.51005
-392,-622,3.89551,5.85376,0,0,0,0,0,0,0,-1,832,1646,3.8955,-5.85379
-385,-622,1.9491,11.6946,0,0,0,0,0,0,0,-1,839,1646,1.94913,-11.6946
-378,-622,2.82385,12.1204,0,0,0,0,0,0,0,-1,846,1646,2.82383,-12.1204
-371,-622,2.62128,11.2739,0,0,0,0,0,0,0,-1,853,1646,2.62128,-11.2739
-364,-622,2.69464,11.7411,-0.00275034,-0.0141227,-0.00541482,-0.000584584,-0.0162884,-0.38048,0.0106694,0.0477441,860,1646,2.69464,-11.7411
-357,-622,2.87,12.0939,-0.00240748,-0.0113938,-0.00460546,-0.000466454,-0.0133348,-0.39887,0.00873856,0.0455139,867,1646,2.87,-12.0938
-350,-622,2.78229,12.3025,-0.00209646,-0.00897987,-0.00393455,-0.000310732,-0.0107656,-0.426057,0.00707576,0.0417723,874,1646,2.78228,-12.3025
-343,-622,2.59827,12.4406,-0.00176517,-0.00715044,-0.00331214,-0.000189259,-0.00872636,-0.444101,0.00575552,0.0279033,881,1646,2.59828,-12.4405
-336,-622,2.70703,12.5964,-0.00142433,-0.00560267,-0.00273634,-7.07945e-05,-0.0069562,-0.459358,0.00461405,0.00921927,888,1646,2.70705,-12.5964
-329,-622,2.69794,12.8385,-0.00111542,-0.00432972,-0.0023308,0.000108602,-0.00555374,-0.483567,0.00373922,0.0085515,895,1646,2.69797,-12.8385
-322,-622,2.70239,13.0815,-0.00092085,-0.00331168,-0.0020254,0.000235595,-0.00446813,-0.518802,0.00306031,0.00969593,902,1646,2.7024,-13.0816
-315,-622,2.70605,13.3126,-0.000846647,-0.00275931,-0.00188638,0.000311965,-0.00391792,-0.550795,0.0027219,0.0125758,909,1646,2.70606,-13.3126
-308,-622,2.69232,13.5212,-0.000742217,-0.00245272,-0.00184939,0.000440105,-0.00363504,-0.568819,0.00258259,0.0136331,916,1646,2.69231,-13.5212
-301,-622,2.72339,13.7366,-0.000351388,-0.0023052,-0.00169836,0.000630987,-0.00328758,-0.524404,0.00242952,0.0131847,923,1646,2.72339,-13.7366
-294,-622,2.70422,13.9615,0.000170005,-0.00229245,-0.00149368,0.000874492,-0.00299693,-0.440709,0.00234446,0.0100097,930,1646,2.7042,-13.9615
-287,-622,2.69879,14.1747,0.000678234,-0.0024192,-0.00126686,0.00113038,-0.00287135,-0.342812,0.00238217,0.00753814,937,1646,2.69882,-14.1747
-280,-622,2.70911,14.3906,0.00125126,-0.00269301,-0.00108914,0.00153202,-0.00297377,-0.25229,0.00264544,0.00813886,944,1646,2.70911,-14.3906
-273,-622,2.71826,14.5787,0.00190706,-0.00323655,-0.000985992,0.00208959,-0.00341908,-0.183051,0.00321116,0.0123635,951,1646,2.71829,-14.5788
-266,-622,2.70636,14.7871,0.00259272,-0.00384052,-0.000834067,0.0026991,-0.0039469,-0.126856,0.00385955,0.011959,958,1646,2.70634,-14.787
-259,-622,2.71613,15.0026,0.00326247,-0.00473479,-0.000667563,0.00331781,-0.00479013,-0.0827112,0.00470678,0.0110137,965,1646,2.71614,-15.0025
-252,-622,2.72748,15.2083,0.00389881,-0.00558278,-0.000570485,0.00393302,-0.00561698,-0.0598797,0.00554219,0.0114316,972,1646,2.72747,-15.2082
-245,-622,2.72882,15.4163,0.00471172,-0.00705844,-0.000654545,0.00474801,-0.00709473,-0.0553829,0.006882,0.00840572,979,1646,2.72884,-15.4162
-238,-622,2.73419,15.6141,0.00564558,-0.00880345,-0.000606965,0.00567103,-0.0088289,-0.0419089,0.00843746,0.00864156,986,1646,2.73419,-15.6142
-231,-622,2.75958,15.818,0.00644275,-0.0109834,-0.000811218,0.00648043,-0.0110211,-0.046418,0.0102172,0.0128253,993,1646,2.7596,-15.818
-224,-622,2.82428,15.9385,0.00735178,-0.0134527,-0.00106898,0.00740656,-0.0135075,-0.0512025,0.0122448,0.0238152,1000,1646,2.82431,-15.9384
-217,-622,2.92804,15.9741,0.00951809,-0.0155753,-0.00134435,0.00958991,-0.0156471,-0.0533702,0.0147098,0.0389058,1007,1646,2.92804,-15.9741
-210,-622,2.98712,15.9995,0.0184294,-0.0199997,-0.00522238,0.0191264,-0.0206968,-0.132691,0.0229979,0.0491118,1014,1646,2.98714,-15.9995
-203,-622,3.22058,16.0027,0,0,0,0,0,0,0,-1,1021,1646,3.22059,-16.0027
-196,-622,2.35071,15.8448,0,0,0,0,0,0,0,-1,1028,1646,2.35074,-15.8448
-189,-622,3.10254,16.2201,0,0,0,0,0,0,0,-1,1035,1646,3.1025,-16.2201
-182,-622,3.13257,15.7042,0,0,0,0,0,0,0,-1,1042,1646,3.13262,-15.7042
-175,-622,2.56091,11.0195,0,0,0,0,0,0,0,-1,1049,1646,2.56095,-11.0195
-168,-622,4.26526,16.4945,0,0,0,0,0,0,0,-1,1056,1646,4.26521,-16.4945
-161,-622,3.78345,15.9312,0.104308,-0.0621904,-0.0108393,0.105011,-0.0628931,-0.064737,0.0979507,0.048602,1063,1646,3.78343,-15.9312
-154,-622,5.30554,14.599,0.114293,-0.0651906,-0.00819417,0.114666,-0.0655639,-0.045528,0.105335,0.0452553,1070,1646,5.30556,-14.599
-147,-622,4.97607,17.6119,0,0,0,0,0,0,0,-1,1077,1646,4.97601,-17.6119
-140,-622,3.27515,16.0353,0,0,0,0,0,0,0,-1,1084,1646,3.27519,-16.0353
-133,-622,3.09644,17.677,0,0,0,0,0,0,0,-1,1091,1646,3.09638,-17.677
-126,-622,3.5061,19.5251,0,0,0,0,0,0,0,-1,1098,1646,3.50616,-19.5252
-119,-622,4.06384,13.1715,0,0,0,0,0,0,0,-1,1105,1646,4.06379,-13.1716
-112,-622,4.33276,14.6605,0,0,0,0,0,0,0,-1,1112,1646,4.33281,-14.6605
-105,-622,0.306519,4.38159,0,0,0,0,0,0,0,-1,1119,1646,0.306536,-4.38159
-98,-622,-0.510376,3.5033,0,0,0,0,0,0,0,-1,1126,1646,-0.510393,-3.50324
-91,-622,-1.146,0.975952,0,0,0,0,0,0,0,-1,1133,1646,-1.14599,-0.97597
-84,-622,-2.04895,1.31787,0,0,0,0,0,0,0,-1,1140,1646,-2.0489,-1.31781
-77,-622,-1.80627,0.332275,0,0,0,0,0,0,0,-1,1147,1646,-1.80622,-0.33223
-70,-622,-3.65588,2.28149,0,0,0,0,0,0,0,-1,1154,1646,-3.65589,-2.28155
-63,-622,-2.49683,1.27087,0,0,0,0,0,0,0,-1,1161,1646,-2.49679,-1.27093
-56,-622,-2.44238,-0.575562,0,0,0,0,0,0,0,-1,1168,1646,-2.44242,0.575508
-49,-622,-2.41089,1.38818,0,0,0,0,0,0,0,-1,1175,1646,-2.41088,-1.38815
-42,-622,-2.71497,2.85242,0,0,0,0,0,0,0,-1,1182,1646,-2.71491,-2.85247
-35,-622,-3.0177,4.25842,0,0,0,0,0,0,0,-1,1189,1646,-3.01773,-4.25838
-28,-622,-0.896606,0.678833,0,0,0,0,0,0,0,-1,1196,1646,-0.89661,-0.678835
-21,-622,6.63062,12.6195,0,0,0,0,0,0,0,-1,1203,1646,6.63065,-12.6195
-14,-622,3.49634,10.1812,0,0,0,0,0,0,0,-1,1210,1646,3.49637,-10.1811
-7,-622,4.18848,10.2567,0,0,0,0,0,0,0,-1,1217,1646,4.18853,-10.2567
0,-622,0,0,0,0,0,0,0,0,0,-1,1224,1646,0,0
7,-622,0,0,0,0,0,0,0,0,0,-1,1231,1646,0,0
14,-622,0,0,0,0,0,0,0,0,0,-1,1238,1646,0,0
21,-622,0,0,0,0,0,0,0,0,0,-1,1245,1646,0,0
28,-622,0,0,0,0,0,0,0,0,0,-1,1252,1646,0,0
35,-622,0,0,0,0,0,0,0,0,0,-1,1259,1646,0,0
42,-622,0,0,0,0,0,0,0,0,0,-1,1266,1646,0,0
49,-622,0,0,0,0,0,0,0,0,0,-1,1273,1646,0,0
56,-622,0,0,0,0,0,0,0,0,0,-1,1280,1646,0,0
63,-622,0,0,0,0,0,0,0,0,0,-1,1287,1646,0,0
70,-622,0,0,0,0,0,0,0,0,0,-1,1294,1646,0,0
77,-622,0,0,0,0,0,0,0,0,0,-1,1301,1646,0,0
84,-622,0,0,0,0,0,0,0,0,0,-1,1308,1646,0,0
91,-622,0,0,0,0,0,0,0,0,0,-1,1315,1646,0,0
98,-622,0,0,0,0,0,0,0,0,0,-1,1322,1646,0,0
105,-622,0,0,0,0,0,0,0,0,0,-1,1329,1646,0,0
112,-622,0,0,0,0,0,0,0,0,0,-1,1336,1646,0,0
119,-622,0,0,0,0,0,0,0,0,0,-1,1343,1646,0,0
126,-622,7.39148,17.213,-0.020359,0.00539237,0.0430298,0.0374316,-0.0523983,0.930772,0.0521027,0.0445481,1350,1646,7.39148,-17.2131
133,-622,6.89722,17.2637,-0.0470097,0.00520238,0.0581123,0.0428032,-0.0846105,0.996506,0.0748708,0.0476442,1357,1646,6.89719,-17.2636
140,-622,6.52905,17.4755,-0.074565,0.00717308,0.0709262,0.0481625,-0.115554,1.04677,0.0971547,0.0490242,1364,1646,6.52909,-17.4754
147,-622,6.22021,17.5869,0,0,0,0,0,0,0,-1,1371,1646,6.22026,-17.5869
154,-622,22.1956,13.4941,0,0,0,0,0,0,0,-1,1378,1646,22.1956,-13.4941
161,-622,10.6884,6.46448,0,0,0,0,0,0,0,-1,1385,1646,10.6883,-6.46442
168,-622,12.2402,5.18091,0,0,0,0,0,0,0,-1,1392,1646,12.2403,-5.1809
175,-622,5.64355,-1.77075,0,0,0,0,0,0,0,-1,1399,1646,5.64351,1.77077
182,-622,5.88586,-1.32251,0,0,0,0,0,0,0,-1,1406,1646,5.88587,1.32256
189,-622,5.97986,-1.18005,0,0,0,0,0,0,0,-1,1413,1646,5.97986,1.18003
196,-622,5.85022,-0.244507,0,0,0,0,0,0,0,-1,1420,1646,5.85026,0.244478
203,-622,5.25159,0.138794,0,0,0,0,0,0,0,-1,1427,1646,5.25162,-0.138822
210,-622,6.66833,0.0397949,0,0,0,0,0,0,0,-1,1434,1646,6.6684,-0.0398278
217,-622,6.12061,0.0506592,0,0,0,0,0,0,0,-1,1441,1646,6.12058,-0.0507181
224,-622,5.57275,0.0616455,0,0,0,0,0,0,0,-1,1448,1646,5.57276,-0.0616084
231,-622,5.31348,1.3949,0,0,0,0,0,0,0,-1,1455,1646,5.31342,-1.39495
238,-622,3.76477,2.90686,0,0,0,0,0,0,0,-1,1462,1646,3.7648,-2.90686
245,-622,5.13794,2.67993,0,0,0,0,0,0,0,-1,1469,1646,5.13796,-2.67992
252,-622,6.66528,2.53992,0,0,0,0,0,0,0,-1,1476,1646,6.66522,-2.53991
259,-622,8.93787,3.31458,0,0,0,0,0,0,0,-1,1483,1646,8.93791,-3.31454
266,-622,5.72644,3.11926,0,0,0,0,0,0,0,-1,1490,1646,5.72647,-3.1192
273,-622,7.28076,3.61218,0,0,0,0,0,0,0,-1,1497,1646,7.28071,-3.61212
280,-622,8.43127,4.4447,0,0,0,0,0,0,0,-1,1504,1646,8.43123,-4.44467
287,-622,8.60315,5.94617,0,0,0,0,0,0,0,-1,1511,1646,8.60319,-5.94622
294,-622,7.62756,11.5143,0,0,0,0,0,0,0,-1,1518,1646,7.62762,-11.5143
301,-622,7.36548,11.6569,0,0,0,0,0,0,0,-1,1525,1646,7.36549,-11.6569
308,-622,7.10339,11.7994,0,0,0,0,0,0,0,-1,1532,1646,7.10335,-11.7995
315,-622,6.18176,16.4979,0,0,0,0,0,0,0,-1,1539,1646,6.18176,-16.4979
322,-622,7.12341,17.3604,0,0,0,0,0,0,0,-1,1546,1646,7.12337,-17.3603
329,-622,7.08997,17.3618,0,0,0,0,0,0,0,-1,1553,1646,7.09,-17.3618
336,-622,7.6012,17.6848,0,0,0,0,0,0,0,-1,1560,1646,7.60122,-17.6848
343,-622,7.16821,16.7249,0,0,0,0,0,0,0,-1,1567,1646,7.16822,-16.7249
350,-622,7.09387,16.6561,0,0,0,0,0,0,0,-1,1574,1646,7.09384,-16.6561
357,-622,7.04407,16.8068,0.00177034,-0.00137846,0.00462213,0.00507885,-0.00468697,0.62125,0.00563981,0.0450076,1581,1646,7.04405,-16.8068
364,-622,7.04236,16.5593,0.00111395,-0.00207848,0.00435773,0.0041586,-0.00512314,0.609839,0.00536845,0.034531,1588,1646,7.04239,-16.5593
371,-622,7.12561,16.3445,0.000876429,-0.00243752,0.00418831,0.00372362,-0.00528472,0.597036,0.00522693,0.0190124,1595,1646,7.12561,-16.3444
378,-622,7.09839,16.1909,0.00060676,-0.00279524,0.00412709,0.00336965,-0.00555812,0.589928,0.00520582,0.0114351,1602,1646,7.09836,-16.1909
385,-622,7.08398,16.0148,0.000243948,-0.00305515,0.0038164,0.00275204,-0.00556324,0.581411,0.00489142,0.00989719,1609,1646,7.08394,-16.0147
392,-622,7.08057,15.8573,0.000282704,-0.00327879,0.00348316,0.00241393,-0.00541001,0.549097,0.00462623,0.0104305,1616,1646,7.08053,-15.8572
399,-622,7.07373,15.6736,0.000411324,-0.00293126,0.003236,0.00238213,-0.00490206,0.54703,0.0042886,0.0112209,1623,1646,7.07377,-15.6736
406,-622,7.08081,15.4724,0.000434948,-0.00260124,0.00289291,0.00218389,-0.00435019,0.543767,0.00384094,0.0141684,1630,1646,7.08078,-15.4724
413,-622,7.11414,15.267,0.000406225,-0.00246387,0.00254692,0.00189456,-0.0039522,0.528845,0.0034446,0.0144201,1637,1646,7.1141,-15.267
420,-622,7.11511,15.0846,0.000225348,-0.00228855,0.00215916,0.00146678,-0.00352998,0.521804,0.00296572,0.0143093,1644,1646,7.11513,-15.0846
427,-622,7.1189,14.8949,-8.45507e-05,-0.00222821,0.00185023,0.000981879,-0.00329464,0.522869,0.0025866,0.0117583,1651,1646,7.11891,-14.8949
434,-622,7.13794,14.7072,-0.000259011,-0.00225353,0.00135072,0.000422708,-0.00293525,0.467407,0.00211188,0.011863,1658,1646,7.1379,-14.7071
441,-622,7.14343,14.4875,-0.00109987,-0.00230869,0.00102528,-0.000514106,-0.00289445,0.519063,0.00178314,0.0130451,1665,1646,7.14343,-14.4876
448,-622,7.1178,14.2993,-0.00248383,-0.00235359,0.000707512,-0.0017082,-0.00312921,0.831288,0.00180918,0.0127438,1672,1646,7.11778,-14.2993
455,-622,7.09485,14.0862,-0.00396851,-0.00269114,0.000381194,-0.00258603,-0.00407362,1.30175,0.00238024,0.0151873,1679,1646,7.09486,-14.0862
462,-622,7.11292,13.8917,-0.00566732,-0.002952,0.000144968,-0.00294428,-0.00567504,1.51761,0.00327726,0.0174042,1686,1646,7.11294,-13.8918
469,-622,7.10217,13.6943,-0.00758377,-0.00325642,-0.000165981,-0.00325006,-0.00759013,-1.53252,0.0043972,0.0193914,1693,1646,7.10217,-13.6944
476,-622,7.09448,13.4424,-0.00971752,-0.00340456,-0.000650917,-0.00333814,-0.00978394,-1.46911,0.00574296,0.0184731,1700,1646,7.09454,-13.4423
483,-622,7.13672,13.239,-0.0121768,-0.00334101,-0.00104139,-0.00321993,-0.0122979,-1.45505,0.00736379,0.0238339,1707,1646,7.13677,-13.2391
490,-622,7.23169,13.0417,-0.014399,-0.0033078,-0.0016657,-0.00306305,-0.0146437,-1.4249,0.00891857,0.030317,1714,1646,7.23165,-13.0417
497,-622,7.17371,12.7393,-0.0166081,-0.00317868,-0.00249437,-0.00273035,-0.0170565,-1.39296,0.010579,0.0426446,1721,1646,7.17365,-12.7392
504,-622,7.03223,12.4941,0,0,0,0,0,0,0,-1,1728,1646,7.03225,-12.4941
511,-622,5.29004,4.14587,0,0,0,0,0,0,0,-1,1735,1646,5.29008,-4.14589
518,-622,5.6001,1.55359,0,0,0,0,0,0,0,-1,1742,1646,5.60015,-1.5536
525,-622,5.83093,2.01807,0,0,0,0,0,0,0,-1,1749,1646,5.83097,-2.01802
532,-622,5.44202,0.57373,0,0,0,0,0,0,0,-1,1756,1646,5.44196,-0.573705
539,-622,9.32129,1.06116,0,0,0,0,0,0,0,-1,1763,1646,9.32131,-1.0612
546,-622,6.50977,-3.45618,0,0,0,0,0,0,0,-1,1770,1646,6.50981,3.4562
553,-622,0,0,0,0,0,0,0,0,0,-1,1777,1646,0,0
560,-622,0,0,0,0,0,0,0,0,0,-1,1784,1646,0,0
567,-622,0,0,0,0,0,0,0,0,0,-1,1791,1646,0,0
574,-622,0,0,0,0,0,0,0,0,0,-1,1798,1646,0,0
581,-622,0,0,0,0,0,0,0,0,0,-1,1805,1646,0,0
588,-622,0,0,0,0,0,0,0,0,0,-1,1812,1646,0,0
595,-622,0,0,0,0,0,0,0,0,0,-1,1819,1646,0,0
602,-622,0,0,0,0,0,0,0,0,0,-1,1826,1646,0,0
609,-622,0,0,0,0,0,0,0,0,0,-1,1833,1646,0,0
616,-622,0,0,0,0,0,0,0,0,0,-1,1840,1646,0,0
623,-622,0,0,0,0,0,0,0,0,0,-1,1847,1646,0,0
630,-622,0,0,0,0,0,0,0,0,0,-1,1854,1646,0,0
637,-622,0,0,0,0,0,0,0,0,0,-1,1861,1646,0,0
644,-622,0,0,0,0,0,0,0,0,0,-1,1868,1646,0,0
651,-622,0,0,0,0,0,0,0,0,0,-1,1875,1646,0,0
658,-622,0,0,0,0,0,0,0,0,0,-1,1882,1646,0,0
665,-622,0,0,0,0,0,0,0,0,0,-1,1889,1646,0,0
672,-622,0,0,0,0,0,0,0,0,0,-1,1896,1646,0,0
679,-622,0,0,0,0,0,0,0,0,0,-1,1903,1646,0,0
686,-622,0,0,0,0,0,0,0,0,0,-1,1910,1646,0,0
693,-622,0,0,0,0,0,0,0,0,0,-1,1917,1646,0,0
700,-622,0,0,0,0,0,0,0,0,0,-1,1924,1646,0,0
707,-622,0,0,0,0,0,0,0,0,0,-1,1931,1646,0,0
714,-622,0,0,0,0,0,0,0,0,0,-1,1938,1646,0,0
721,-622,0,0,0,0,0,0,0,0,0,-1,1945,1646,0,0
728,-622,0,0,0,0,0,0,0,0,0,-1,1952,1646,0,0
735,-622,0,0,0,0,0,0,0,0,0,-1,1959,1646,0,0
742,-622,0,0,0,0,0,0,0,0,0,-1,1966,1646,0,0
749,-622,0,0,0,0,0,0,0,0,0,-1,1973,1646,0,0
756,-622,0,0,0,0,0,0,0,0,0,-1,1980,1646,0,0
763,-622,0,0,0,0,0,0,0,0,0,-1,1987,1646,0,0
770,-622,0,0,0,0,0,0,0,0,0,-1,1994,1646,0,0
777,-622,0,0,0,0,0,0,0,0,0,-1,2001,1646,0,0
784,-622,0,0,0,0,0,0,0,0,0,-1,2008,1646,0,0
791,-622,0,0,0,0,0,0,0,0,0,-1,2015,1646,0,0
798,-622,0,0,0,0,0,0,0,0,0,-1,2022,1646,0,0
805,-622,0,0,0,0,0,0,0,0,0,-1,2029,1646,0,0
812,-622,0,0,0,0,0,0,0,0,0,-1,2036,1646,0,0
-700,-629,0,0,0,0,0,0,0,0,0,-1,524,1653,0,0
-693,-629,0,0,0,0,0,0,0,0,0,-1,531,1653,0,0
-686,-629,0,0,0,0,0,0,0,0,0,-1,538,1653,0,0
-679,-629,0,0,0,0,0,0,0,0,0,-1,545,1653,0,0
-672,-629,0,0,0,0,0,0,0,0,0,-1,552,1653,0,0
-665,-629,0,0,0,0,0,0,0,0,0,-1,559,1653,0,0
-658,-629,0,0,0,0,0,0,0,0,0,-1,566,1653,0,0
-651,-629,0,0,0,0,0,0,0,0,0,-1,573,1653,0,0
-644,-629,0,0,0,0,0,0,0,0,0,-1,580,1653,0,0
-637,-629,0,0,0,0,0,0,0,0,0,-1,587,1653,0,0
-630,-629,0,0,0,0,0,0,0,0,0,-1,594,1653,0,0
-623,-629,0,0,0,0,0,0,0,0,0,-1,601,1653,0,0
-616,-629,0,0,0,0,0,0,0,0,0,-1,608,1653,0,0
-609,-629,0,0,0,0,0,0,0,0,0,-1,615,1653,0,0
-602,-629,0,0,0,0,0,0,0,0,0,-1,622,1653,0,0
-595,-629,0,0,0,0,0,0,0,0,0,-1,629,1653,0,0
-588,-629,0,0,0,0,0,0,0,0,0,-1,636,1653,0,0
-581,-629,0,0,0,0,0,0,0,0,0,-1,643,1653,0,0
-574,-629,0,0,0,0,0,0,0,0,0,-1,650,1653,0,0
-567,-629,0,0,0,0,0,0,0,0,0,-1,657,1653,0,0
-560,-629,0,0,0,0,0,0,0,0,0,-1,664,1653,0,0
-553,-629,0,0,0,0,0,0,0,0,0,-1,671,1653,0,0
-546,-629,0,0,0,0,0,0,0,0,0,-1,678,1653,0,0
-539,-629,0,0,0,0,0,0,0,0,0,-1,685,1653,0,0
-532,-629,0,0,0,0,0,0,0,0,0,-1,692,1653,0,0
-525,-629,0,0,0,0,0,0,0,0,0,-1,699,1653,0,0
-518,-629,0,0,0,0,0,0,0,0,0,-1,706,1653,0,0
-511,-629,0,0,0,0,0,0,0,0,0,-1,713,1653,0,0
-504,-629,0,0,0,0,0,0,0,0,0,-1,720,1653,0,0
-497,-629,0,0,0,0,0,0,0,0,0,-1,727,1653,0,0
-490,-629,0,0,0,0,0,0,0,0,0,-1,734,1653,0,0
-483,-629,0,0,0,0,0,0,0,0,0,-1,741,1653,0,0
-476,-629,0,0,0,0,0,0,0,0,0,-1,748,1653,0,0
-469,-629,0,0,0,0,0,0,0,0,0,-1,755,1653,0,0
-462,-629,0,0,0,0,0,0,0,0,0,-1,762,1653,0,0
-455,-629,0,0,0,0,0,0,0,0,0,-1,769,1653,0,0
-448,-629,0,0,0,0,0,0,0,0,0,-1,776,1653,0,0
-441,-629,0,0,0,0,0,0,0,0,0,-1,783,1653,0,0
-434,-629,0,0,0,0,0,0,0,0,0,-1,790,1653,0,0
-427,-629,0,0,0,0,0,0,0,0,0,-1,797,1653,0,0
-420,-629,-3.87103,3.37634,0,0,0,0,0,0,0,-1,804,1653,-3.87101,-3.37633
-413,-629,-5.69751,1.33582,0,0,0,0,0,0,0,-1,811,1653,-5.69754,-1.3358
-406,-629,2.85406,6.01501,0,0,0,0,0,0,0,-1,818,1653,2.85405,-6.01507
-399,-629,-0.455627,10.8687,0,0,0,0,0,0,0,-1,825,1653,-0.455625,-10.8687
-392,-629,1.15369,11.1295,0,0,0,0,0,0,0,-1,832,1653,1.1537,-11.1295
-385,-629,1.81976,11.6935,0,0,0,0,0,0,0,-1,839,1653,1.81975,-11.6935
-378,-629,3.08685,12.4915,0,0,0,0,0,0,0,-1,846,1653,3.08683,-12.4914
-371,-629,3.04999,12.7152,0,0,0,0,0,0,0,-1,853,1653,3.04997,-12.7152
-364,-629,2.84851,11.9175,0,0,0,0,0,0,0,-1,860,1653,2.84854,-11.9175
-357,-629,3.11316,12.2004,0,0,0,0,0,0,0,-1,867,1653,3.11318,-12.2004
-350,-629,3.11493,12.433,0,0,0,0,0,0,0,-1,874,1653,3.11494,-12.433
-343,-629,2.86469,12.5563,-0.00296989,-0.0111321,-0.00546276,-0.000232102,-0.0138698,-0.464585,0.00917018,0.0448509,881,1653,2.8647,-12.5563
-336,-629,2.91724,12.6121,-0.00270991,-0.00940405,-0.00465273,-0.000325425,-0.0117885,-0.473592,0.00775283,0.0188488,888,1653,2.91721,-12.612
-329,-629,2.94806,12.8394,-0.00237523,-0.00785299,-0.00401662,-0.000252552,-0.00997567,-0.486166,0.00656788,0.0117547,895,1653,2.94809,-12.8394
-322,-629,2.96014,13.0702,-0.00207375,-0.00641498,-0.0034022,-0.000208711,-0.00828003,-0.501451,0.00545178,0.0118839,902,1653,2.96017,-13.0702
-315,-629,2.92633,13.3062,-0.00190319,-0.0054418,-0.0029654,-0.000219376,-0.00712562,-0.516422,0.004679,0.0147755,909,1653,2.92632,-13.3061
-308,-629,2.90253,13.5337,-0.00172495,-0.00466352,-0.00265065,-0.000163603,-0.00622487,-0.532324,0.00409647,0.0121684,916,1653,2.9025,-13.5337
-301,-629,2.9339,13.7681,-0.00122722,-0.00400454,-0.00222446,6.44499e-06,-0.00523821,-0.506362,0.00349429,0.0106043,923,1653,2.93389,-13.768
-294,-629,2.93451,13.9744,-0.00057718,-0.0034689,-0.00176396,0.000257763,-0.00430385,-0.442088,0.0029589,0.0111206,930,1653,2.93453,-13.9744
-287,-629,2.92212,14.1921,2.25469e-05,-0.00306284,-0.00132275,0.000511987,-0.00355228,-0.354395,0.002556,0.00866335,937,1653,2.92213,-14.1922
-280,-629,2.9231,14.4006,0.00063271,-0.00282034,-0.000973786,0.000888393,-0.00307602,-0.25677,0.00240221,0.00917003,944,1653,2.92307,-14.4006
-273,-629,2.92285,14.5692,0.00128538,-0.00284228,-0.000728495,0.00141018,-0.00296708,-0.169664,0.00257995,0.0124961,951,1653,2.92287,-14.5692
-266,-629,2.91022,14.7794,0.00194091,-0.00297457,-0.000483679,0.00198805,-0.00302171,-0.0971576,0.00291284,0.0127044,958,1653,2.91022,-14.7794
-259,-629,2.90735,15.0101,0.00253077,-0.00340788,-0.000273643,0.00254335,-0.00342046,-0.0459485,0.0034556,0.0137109,965,1653,2.90733,-15.0102
-252,-629,2.91046,15.2047,0.0030616,-0.00388121,-0.000153134,0.00306498,-0.00388458,-0.0220422,0.00402162,0.0103598,972,1653,2.91044,-15.2047
-245,-629,2.92633,15.4172,0.00368683,-0.00503897,-0.000242556,0.00369357,-0.00504571,-0.027769,0.00506571,0.00760413,979,1653,2.92633,-15.4172
-238,-629,2.93396,15.604,0.0043543,-0.00643152,-0.000259335,0.00436053,-0.00643776,-0.0240256,0.00627273,0.00961963,986,1653,2.93394,-15.604
-231,-629,2.93115,15.7961,0.00484614,-0.00817538,-0.00054561,0.00486896,-0.0081982,-0.041803,0.00762551,0.00991034,993,1653,2.93114,-15.7962
-224,-629,2.9776,16.0095,0.00551578,-0.0100502,-0.000766181,0.0055534,-0.0100878,-0.0490635,0.00915606,0.0107033,1000,1653,2.97761,-16.0096
-217,-629,2.96393,16.1367,0.00725148,-0.0116142,-0.00100871,0.00730526,-0.011668,-0.0532657,0.0110503,0.0179837,1007,1653,2.96396,-16.1367
-210,-629,2.96008,16.3046,0.0137063,-0.0150122,-0.00369411,0.0141739,-0.0154798,-0.125901,0.0171261,0.0358687,1014,1653,2.96009,-16.3046
-203,-629,2.79242,15.8696,0,0,0,0,0,0,0,-1,1021,1653,2.79243,-15.8697
-196,-629,2.7937,16.1442,0.0273191,-0.0244669,-0.00434203,0.0276806,-0.0248284,-0.0830727,0.030331,0.0435691,1028,1653,2.79376,-16.1442
-189,-629,3.09729,16.4766,0.0358997,-0.0294788,-0.00558342,0.0363731,-0.0299522,-0.0845851,0.0383527,0.0423969,1035,1653,3.09723,-16.4766
-182,-629,2.6958,16.7218,0,0,0,0,0,0,0,-1,1042,1653,2.69586,-16.7219
-175,-629,2.90979,16.2754,0,0,0,0,0,0,0,-1,1049,1653,2.90975,-16.2754
-168,-629,4.16321,17.2833,0,0,0,0,0,0,0,-1,1056,1653,4.16319,-17.2833
-161,-629,4.38257,16.399,0.0753109,-0.0470345,-0.00479275,0.0754983,-0.047222,-0.0390941,0.0714768,0.0478825,1063,1653,4.38261,-16.3991
-154,-629,5.1759,15.8167,0.0828584,-0.0496368,-0.00256212,0.0829079,-0.0496863,-0.0193279,0.0773501,0.0426538,1070,1653,5.17596,-15.8166
-147,-629,4.97876,17.3484,0.0878558,-0.0514276,0.000759968,0.08786,-0.0514318,0.00545605,0.0813317,0.0461441,1077,1653,4.97875,-17.3484
-140,-629,5.14111,18.0175,0,0,0,0,0,0,0,-1,1084,1653,5.14112,-18.0175
-133,-629,3.41248,17.6686,0,0,0,0,0,0,0,-1,1091,1653,3.41243,-17.6686
-126,-629,4.01025,19.5328,0,0,0,0,0,0,0,-1,1098,1653,4.01022,-19.5328
-119,-629,4.94177,13.5525,0,0,0,0,0,0,0,-1,1105,1653,4.94172,-13.5525
-112,-629,5.63123,15.9187,0,0,0,0,0,0,0,-1,1112,1653,5.63118,-15.9187
-105,-629,2.15881,4.38342,0,0,0,0,0,0,0,-1,1119,1653,2.15878,-4.38347
-98,-629,0.825806,4.19385,0,0,0,0,0,0,0,-1,1126,1653,0.825779,-4.1939
-91,-629,-0.452271,3.64465,0,0,0,0,0,0,0,-1,1133,1653,-0.452278,-3.6446
-84,-629,-2.6084,0.466797,0,0,0,0,0,0,0,-1,1140,1653,-2.6084,-0.466786
-77,-629,-3.50903,2.10706,0,0,0,0,0,0,0,-1,1147,1653,-3.509,-2.10707
-70,-629,-1.20886,2.52502,0,0,0,0,0,0,0,-1,1154,1653,-1.20886,-2.525
-63,-629,-0.960693,4.30212,0,0,0,0,0,0,0,-1,1161,1653,-0.960691,-4.30215
-56,-629,-1.31934,5.64343,0,0,0,0,0,0,0,-1,1168,1653,-1.31928,-5.6434
-49,-629,-2.15662,2.57458,0,0,0,0,0,0,0,-1,1175,1653,-2.15656,-2.57459
-42,-629,-2.46326,3.91467,0,0,0,0,0,0,0,-1,1182,1653,-2.4633,-3.91466
-35,-629,-2.67261,5.24292,0,0,0,0,0,0,0,-1,1189,1653,-2.67257,-5.24298
-28,-629,-0.402954,-0.866577,0,0,0,0,0,0,0,-1,1196,1653,-0.402943,0.866612
-21,-629,10.063,9.59705,0,0,0,0,0,0,0,-1,1203,1653,10.063,-9.59708
-14,-629,3.48608,11.5026,0,0,0,0,0,0,0,-1,1210,1653,3.48611,-11.5026
-7,-629,4.22034,11.6071,0,0,0,0,0,0,0,-1,1217,1653,4.22031,-11.607
0,-629,4.96753,11.6969,0,0,0,0,0,0,0,-1,1224,1653,4.96747,-11.6969
7,-629,5.65784,11.8088,0,0,0,0,0,0,0,-1,1231,1653,5.65788,-11.8088
14,-629,6.44861,19.2787,0,0,0,0,0,0,0,-1,1238,1653,6.44855,-19.2787
21,-629,7.21448,19.2358,0.176524,0.012804,0.0206447,0.179087,0.0102409,0.123522,0.116128,0.049399,1245,1653,7.21446,-19.2359
28,-629,8.12756,19.3242,0.171298,0.0236441,0.0133689,0.172499,0.0224434,0.0895713,0.108296,0.049887,1252,1653,8.12759,-19.3242
35,-629,9.01392,19.3967,0,0,0,0,0,0,0,-1,1259,1653,9.01386,-19.3968
42,-629,6.78979,19.2301,0,0,0,0,0,0,0,-1,1266,1653,6.78976,-19.2301
49,-629,0.598389,20.7133,0,0,0,0,0,0,0,-1,1273,1653,0.598382,-20.7132
56,-629,1.54236,20.5864,0.172437,0.0328643,-0.00818743,0.172916,0.0323856,-0.0583935,0.106142,0.04912,1280,1653,1.54237,-20.5864
63,-629,2.46399,20.5507,0.167372,0.0333166,-0.0100022,0.168114,0.0325744,-0.074066,0.10295,0.0438131,1287,1653,2.46404,-20.5506
70,-629,3.41772,20.4277,0.158255,0.0278078,-0.0117908,0.159313,0.0267506,-0.0894219,0.0985097,0.0436605,1294,1653,3.41772,-20.4277
77,-629,4.44287,20.134,0.144976,0.0240715,-0.0120946,0.146174,0.0228735,-0.0987308,0.0907902,0.0471893,1301,1653,4.44281,-20.1341
84,-629,5.65662,19.7582,0.12721,0.0194064,-0.0102423,0.128175,0.018442,-0.0938894,0.0800139,0.0468135,1308,1653,5.65663,-19.7582
91,-629,6.51636,19.658,0.102701,0.0138043,-0.00433383,0.102912,0.0135935,-0.0485978,0.0645554,0.0437277,1315,1653,6.51638,-19.6579
98,-629,6.8252,19.0358,0,0,0,0,0,0,0,-1,1322,1653,6.82516,-19.0358
105,-629,6.51978,18.1871,0.0497014,0.00530984,0.0117187,0.0526051,0.0024062,0.242886,0.0342961,0.0468775,1329,1653,6.51977,-18.1871
112,-629,8.21594,18.3934,0.0221449,0.00224002,0.0188434,0.0335027,-0.00911776,0.542436,0.0259147,0.0442256,1336,1653,8.2159,-18.3934
119,-629,7.55139,17.7676,-0.00766042,0.000214404,0.0276887,0.0242443,-0.0316903,0.856026,0.0323891,0.0413638,1343,1653,7.55141,-17.7676
126,-629,6.79456,17.2543,-0.0380472,-0.000493427,0.0378254,0.0229592,-0.0614998,1.01578,0.0504264,0.0413101,1350,1653,6.79453,-17.2543
133,-629,6.32239,17.2325,-0.0652022,-0.000723539,0.0509226,0.0273072,-0.093233,1.0676,0.072981,0.0463119,1357,1653,6.32243,-17.2325
140,-629,5.92029,17.4886,-0.0919298,0.000391491,0.063411,0.032664,-0.124202,1.10002,0.0955687,0.0471605,1364,1653,5.92026,-17.4887
147,-629,5.5957,17.8011,-0.120174,0.00317943,0.0785569,0.0413787,-0.158373,1.1182,0.121742,0.0496684,1371,1653,5.59564,-17.8011
154,-629,5.37671,18.1688,0,0,0,0,0,0,0,-1,1378,1653,5.3767,-18.1688
161,-629,10.5461,6.83752,0,0,0,0,0,0,0,-1,1385,1653,10.5461,-6.83758
168,-629,12.0059,5.56348,0,0,0,0,0,0,0,-1,1392,1653,12.0059,-5.56352
175,-629,5.84485,-1.78845,0,0,0,0,0,0,0,-1,1399,1653,5.84479,1.7884
182,-629,5.99036,-1.27783,0,0,0,0,0,0,0,-1,1406,1653,5.99041,1.27778
189,-629,5.97668,-0.748535,0,0,0,0,0,0,0,-1,1413,1653,5.97671,0.748544
196,-629,4.52869,9.24695,0,0,0,0,0,0,0,-1,1420,1653,4.52869,-9.2469
203,-629,3.75085,6.88037,0,0,0,0,0,0,0,-1,1427,1653,3.75087,-6.88032
210,-629,3.5907,6.52637,0,0,0,0,0,0,0,-1,1434,1653,3.59067,-6.52642
217,-629,2.4585,4.84448,0,0,0,0,0,0,0,-1,1441,1653,2.45855,-4.84448
224,-629,1.31982,3.68481,0,0,0,0,0,0,0,-1,1448,1653,1.31986,-3.68487
231,-629,3.63025,1.73499,0,0,0,0,0,0,0,-1,1455,1653,3.6303,-1.735
238,-629,4.26428,2.11255,0,0,0,0,0,0,0,-1,1462,1653,4.26429,-2.11253
245,-629,5.61816,1.95361,0,0,0,0,0,0,0,-1,1469,1653,5.61815,-1.95359
252,-629,7.27136,2.18982,0,0,0,0,0,0,0,-1,1476,1653,7.27131,-2.18985
259,-629,8.67334,2.18628,0,0,0,0,0,0,0,-1,1483,1653,8.6733,-2.18633
266,-629,6.86475,3.72058,0,0,0,0,0,0,0,-1,1490,1653,6.86479,-3.72063
273,-629,7.9021,3.8717,0,0,0,0,0,0,0,-1,1497,1653,7.90205,-3.87171
280,-629,9.70837,4.39087,0,0,0,0,0,0,0,-1,1504,1653,9.7084,-4.39082
287,-629,9.82947,7.19348,0,0,0,0,0,0,0,-1,1511,1653,9.8295,-7.19347
294,-629,6.56555,11.6359,0,0,0,0,0,0,0,-1,1518,1653,6.5656,-11.6358
301,-629,6.93835,15.6102,0,0,0,0,0,0,0,-1,1525,1653,6.93835,-15.6103
308,-629,6.08264,12.1423,0,0,0,0,0,0,0,-1,1532,1653,6.08263,-12.1423
315,-629,6.93738,17.1514,0,0,0,0,0,0,0,-1,1539,1653,6.93736,-17.1514
322,-629,6.73804,17.3687,0,0,0,0,0,0,0,-1,1546,1653,6.73802,-17.3687
329,-629,6.9054,17.2683,0.00768737,0.000877896,0.00380343,0.00938737,-0.000822104,0.420327,0.0065495,0.0419993,1553,1653,6.90534,-17.2683
336,-629,7.16272,17.3757,0.00546541,0.00116471,0.00381385,0.00769335,-0.00106323,0.5287,0.00551757,0.0416062,1560,1653,7.16271,-17.3757
343,-629,6.92163,16.8744,0.00342425,0.000425422,0.00378585,0.0059968,-0.00214713,0.596846,0.00487386,0.044149,1567,1653,6.92157,-16.8744
350,-629,6.87756,16.7751,0.00230911,-8.81002e-05,0.00352308,0.00483189,-0.00261088,0.621432,0.0043604,0.0276173,1574,1653,6.8776,-16.7751
357,-629,6.94763,16.6636,0.00144748,-0.000644649,0.00343374,0.00399096,-0.00318813,0.637543,0.00415348,0.0170367,1581,1653,6.94763,-16.6636
364,-629,6.93872,16.5045,0.000921658,-0.00109578,0.00314256,0.00321343,-0.00338755,0.6301,0.00381152,0.0140119,1588,1653,6.93867,-16.5045
371,-629,6.92078,16.3447,0.000702488,-0.00140673,0.00293141,0.00276323,-0.00346747,0.612726,0.00360495,0.0102218,1595,1653,6.92077,-16.3448
378,-629,6.90271,16.1786,0.000509915,-0.00170495,0.00282123,0.00243328,-0.00362832,0.59837,0.00352226,0.00969228,1602,1653,6.90267,-16.1786
385,-629,6.90906,16.0179,0.000285845,-0.00194626,0.00249622,0.00190414,-0.00356456,0.57518,0.0032055,0.0117335,1609,1653,6.90904,-16.0179
392,-629,6.91663,15.859,0.00038012,-0.00222899,0.00214529,0.00158637,-0.00343524,0.51222,0.00296401,0.0104759,1616,1653,6.91657,-15.859
399,-629,6.90991,15.6759,0.000518493,-0.00205758,0.00191016,0.00153431,-0.0030734,0.488761,0.00270928,0.0112004,1623,1653,6.90997,-15.6759
406,-629,6.90857,15.479,0.000569398,-0.00195321,0.00164739,0.00138289,-0.0027667,0.458681,0.00243977,0.0149217,1630,1653,6.9086,-15.479
413,-629,6.91528,15.2839,0.000527953,-0.00206466,0.00138507,0.00112871,-0.00266542,0.409246,0.00224963,0.0222001,1637,1653,6.91524,-15.2839
420,-629,6.90955,15.1089,0.000256788,-0.00215283,0.001103,0.000685436,-0.00258147,0.370657,0.00198922,0.0195688,1644,1653,6.9095,-15.1088
427,-629,6.91113,14.9269,-0.000202837,-0.00232698,0.000944423,0.000156334,-0.00268615,0.363416,0.00184509,0.0121425,1651,1653,6.91109,-14.9268
434,-629,6.91724,14.7173,-0.000477581,-0.00262634,0.000599314,-0.000321729,-0.00278219,0.254415,0.00175739,0.00962072,1658,1653,6.91729,-14.7173
441,-629,6.94556,14.5032,-0.00174819,-0.00290135,0.000469284,-0.00158135,-0.00306819,0.341583,0.0017717,0.0138148,1665,1653,6.94559,-14.5031
448,-629,6.92188,14.2827,-0.00374811,-0.0031934,0.000337447,-0.00303395,-0.00390755,1.12938,0.00236817,0.0136078,1672,1653,6.9219,-14.2828
455,-629,6.89758,14.0695,-0.0058495,-0.00380395,0.000170281,-0.00378987,-0.00586357,1.48831,0.00343333,0.013358,1679,1653,6.89759,-14.0694
462,-629,6.92578,13.9027,-0.00830272,-0.00427975,0.000120336,-0.00427615,-0.00830632,1.54092,0.00479636,0.0174511,1686,1653,6.92584,-13.9028
469,-629,6.91931,13.6571,-0.01108,-0.00475592,-6.14124e-05,-0.00475532,-0.0110806,-1.56109,0.00641875,0.0218804,1693,1653,6.91931,-13.6572
476,-629,6.93433,13.4352,-0.0141704,-0.0050313,-0.0004362,-0.00501052,-0.0141912,-1.52321,0.00831037,0.0283877,1700,1653,6.93438,-13.4352
483,-629,7.24451,13.3527,-0.0176954,-0.00511949,-0.000783093,-0.00507092,-0.017744,-1.50885,0.0105533,0.0375835,1707,1653,7.24451,-13.3526
490,-629,7.6311,13.0432,-0.0210817,-0.00515122,-0.0013815,-0.0050323,-0.0212007,-1.48493,0.0127907,0.0421135,1714,1653,7.63109,-13.0432
497,-629,6.40845,12.4624,0,0,0,0,0,0,0,-1,1721,1653,6.40839,-12.4623
504,-629,6.76587,12.5562,0,0,0,0,0,0,0,-1,1728,1653,6.76583,-12.5561
511,-629,6.29138,3.40295,0,0,0,0,0,0,0,-1,1735,1653,6.29137,-3.403
518,-629,5.84387,1.41858,0,0,0,0,0,0,0,-1,1742,1653,5.84391,-1.4186
525,-629,6.4729,1.02319,0,0,0,0,0,0,0,-1,1749,1653,6.47284,-1.02316
532,-629,6.86511,0.903687,0,0,0,0,0,0,0,-1,1756,1653,6.86514,-0.903691
539,-629,6.60803,0.746704,0,0,0,0,0,0,0,-1,1763,1653,6.60809,-0.746691
546,-629,0,0,0,0,0,0,0,0,0,-1,1770,1653,0,0
553,-629,0,0,0,0,0,0,0,0,0,-1,1777,1653,0,0
560,-629,0,0,0,0,0,0,0,0,0,-1,1784,1653,0,0
567,-629,0,0,0,0,0,0,0,0,0,-1,1791,1653,0,0
574,-629,0,0,0,0,0,0,0,0,0,-1,1798,1653,0,0
581,-629,0,0,0,0,0,0,0,0,0,-1,1805,1653,0,0
588,-629,0,0,0,0,0,0,0,0,0,-1,1812,1653,0,0
595,-629,0,0,0,0,0,0,0,0,0,-1,1819,1653,0,0
602,-629,0,0,0,0,0,0,0,0,0,-1,1826,1653,0,0
609,-629,0,0,0,0,0,0,0,0,0,-1,1833,1653,0,0
616,-629,0,0,0,0,0,0,0,0,0,-1,1840,1653,0,0
623,-629,0,0,0,0,0,0,0,0,0,-1,1847,1653,0,0
630,-629,0,0,0,0,0,0,0,0,0,-1,1854,1653,0,0
637,-629,0,0,0,0,0,0,0,0,0,-1,1861,1653,0,0
644,-629,0,0,0,0,0,0,0,0,0,-1,1868,1653,0,0
651,-629,0,0,0,0,0,0,0,0,0,-1,1875,1653,0,0
658,-629,0,0,0,0,0,0,0,0,0,-1,1882,1653,0,0
665,-629,0,0,0,0,0,0,0,0,0,-1,1889,1653,0,0
672,-629,0,0,0,0,0,0,0,0,0,-1,1896,1653,0,0
679,-629,0,0,0,0,0,0,0,0,0,-1,1903,1653,0,0
686,-629,0,0,0,0,0,0,0,0,0,-1,1910,1653,0,0
693,-629,0,0,0,0,0,0,0,0,0,-1,1917,1653,0,0
700,-629,0,0,0,0,0,0,0,0,0,-1,1924,1653,0,0
707,-629,0,0,0,0,0,0,0,0,0,-1,1931,1653,0,0
714,-629,0,0,0,0,0,0,0,0,0,-1,1938,1653,0,0
721,-629,0,0,0,0,0,0,0,0,0,-1,1945,1653,0,0
728,-629,0,0,0,0,0,0,0,0,0,-1,1952,1653,0,0
735,-629,0,0,0,0,0,0,0,0,0,-1,1959,1653,0,0
742,-629,0,0,0,0,0,0,0,0,0,-1,1966,1653,0,0
749,-629,0,0,0,0,0,0,0,0,0,-1,1973,1653,0,0
756,-629,0,0,0,0,0,0,0,0,0,-1,1980,1653,0,0
763,-629,0,0,0,0,0,0,0,0,0,-1,1987,1653,0,0
770,-629,0,0,0,0,0,0,0,0,0,-1,1994,1653,0,0
777,-629,0,0,0,0,0,0,0,0,0,-1,2001,1653,0,0
784,-629,0,0,0,0,0,0,0,0,0,-1,2008,1653,0,0
791,-629,0,0,0,0,0,0,0,0,0,-1,2015,1653,0,0
798,-629,0,0,0,0,0,0,0,0,0,-1,2022,1653,0,0
805,-629,0,0,0,0,0,0,0,0,0,-1,2029,1653,0,0
812,-629,0,0,0,0,0,0,0,0,0,-1,2036,1653,0,0
-700,-636,0,0,0,0,0,0,0,0,0,-1,524,1660,0,0
-693,-636,0,0,0,0,0,0,0,0,0,-1,531,1660,0,0
-686,-636,0,0,0,0,0,0,0,0,0,-1,538,1660,0,0
-679,-636,0,0,0,0,0,0,0,0,0,-1,545,1660,0,0
-672,-636,0,0,0,0,0,0,0,0,0,-1,552,1660,0,0
-665,-636,0,0,0,0,0,0,0,0,0,-1,559,1660,0,0
-658,-636,0,0,0,0,0,0,0,0,0,-1,566,1660,0,0
-651,-636,0,0,0,0,0,0,0,0,0,-1,573,1660,0,0
-644,-636,0,0,0,0,0,0,0,0,0,-1,580,1660,0,0
-637,-636,0,0,0,0,0,0,0,0,0,-1,587,1660,0,0
-630,-636,0,0,0,0,0,0,0,0,0,-1,594,1660,0,0
-623,-636,0,0,0,0,0,0,0,0,0,-1,601,1660,0,0
-616,-636,0,0,0,0,0,0,0,0,0,-1,608,1660,0,0
-609,-636,0,0,0,0,0,0,0,0,0,-1,615,1660,0,0
-602,-636,0,0,0,0,0,0,0,0,0,-1,622,1660,0,0
-595,-636,0,0,0,0,0,0,0,0,0,-1,629,1660,0,0
-588,-636,0,0,0,0,0,0,0,0,0,-1,636,1660,0,0
-581,-636,0,0,0,0,0,0,0,0,0,-1,643,1660,0,0
-574,-636,0,0,0,0,0,0,0,0,0,-1,650,1660,0,0
-567,-636,0,0,0,0,0,0,0,0,0,-1,657,1660,0,0
-560,-636,0,0,0,0,0,0,0,0,0,-1,664,1660,0,0
-553,-636,0,0,0,0,0,0,0,0,0,-1,671,1660,0,0
-546,-636,0,0,0,0,0,0,0,0,0,-1,678,1660,0,0
-539,-636,0,0,0,0,0,0,0,0,0,-1,685,1660,0,0
-532,-636,0,0,0,0,0,0,0,0,0,-1,692,1660,0,0
-525,-636,0,0,0,0,0,0,0,0,0,-1,699,1660,0,0
-518,-636,0,0,0,0,0,0,0,0,0,-1,706,1660,0,0
-511,-636,0,0,0,0,0,0,0,0,0,-1,713,1660,0,0
-504,-636,0,0,0,0,0,0,0,0,0,-1,720,1660,0,0
-497,-636,0,0,0,0,0,0,0,0,0,-1,727,1660,0,0
-490,-636,0,0,0,0,0,0,0,0,0,-1,734,1660,0,0
-483,-636,0,0,0,0,0,0,0,0,0,-1,741,1660,0,0
-476,-636,0,0,0,0,0,0,0,0,0,-1,748,1660,0,0
-469,-636,0,0,0,0,0,0,0,0,0,-1,755,1660,0,0
-462,-636,0,0,0,0,0,0,0,0,0,-1,762,1660,0,0
-455,-636,0,0,0,0,0,0,0,0,0,-1,769,1660,0,0
-448,-636,0,0,0,0,0,0,0,0,0,-1,776,1660,0,0
-441,-636,0,0,0,0,0,0,0,0,0,-1,783,1660,0,0
-434,-636,0,0,0,0,0,0,0,0,0,-1,790,1660,0,0
-427,-636,0,0,0,0,0,0,0,0,0,-1,797,1660,0,0
-420,-636,0,0,0,0,0,0,0,0,0,-1,804,1660,0,0
-413,-636,0,0,0,0,0,0,0,0,0,-1,811,1660,0,0
-406,-636,-0.591125,10.6943,0,0,0,0,0,0,0,-1,818,1660,-0.59115,-10.6943
-399,-636,0.0766602,11.2408,0,0,0,0,0,0,0,-1,825,1660,0.076685,-11.2409
-392,-636,0.75946,11.9233,0,0,0,0,0,0,0,-1,832,1660,0.759481,-11.9233
-385,-636,1.68878,12.517,0,0,0,0,0,0,0,-1,839,1660,1.6888,-12.5169
-378,-636,2.22107,13.0013,0,0,0,0,0,0,0,-1,846,1660,2.22107,-13.0014
-371,-636,2.52185,11.9684,0,0,0,0,0,0,0,-1,853,1660,2.52184,-11.9684
-364,-636,2.94617,11.7798,0,0,0,0,0,0,0,-1,860,1660,2.94618,-11.7798
-357,-636,2.08136,11.7552,0,0,0,0,0,0,0,-1,867,1660,2.08138,-11.7553
-350,-636,2.8645,11.7958,0,0,0,0,0,0,0,-1,874,1660,2.86448,-11.7957
-343,-636,3.17859,12.7131,0,0,0,0,0,0,0,-1,881,1660,3.17856,-12.7131
-336,-636,3.11444,12.6511,-0.00388184,-0.018375,-0.00909763,0.000502569,-0.0227594,-0.449086,0.0153432,0.0363552,888,1660,3.11446,-12.6511
-329,-636,3.16302,12.8345,-0.00352084,-0.0151285,-0.00828142,0.000788016,-0.0194373,-0.479759,0.0132287,0.0179926,895,1660,3.16303,-12.8344
-322,-636,3.18713,13.071,-0.00304168,-0.012449,-0.0072704,0.00091394,-0.0164046,-0.498281,0.0112534,0.0113952,902,1660,3.18712,-13.071
-315,-636,3.13428,13.3005,-0.00275474,-0.0102472,-0.00637129,0.00089009,-0.013892,-0.51963,0.00957183,0.0122444,909,1660,3.13426,-13.3006
-308,-636,3.12598,13.5293,-0.00249264,-0.0083063,-0.00562182,0.000929392,-0.0117283,-0.546796,0.00814638,0.0112918,916,1660,3.12595,-13.5293
-301,-636,3.14459,13.7548,-0.0018941,-0.00652161,-0.00475889,0.0010837,-0.0094994,-0.559126,0.00672334,0.0103884,923,1660,3.14457,-13.7547
-294,-636,3.13849,13.9873,-0.00111693,-0.00495531,-0.00386832,0.00128212,-0.00735436,-0.555124,0.00538143,0.012688,930,1660,3.13849,-13.9874
-287,-636,3.12457,14.2089,-0.000410868,-0.00366125,-0.00302741,0.0014,-0.00547211,-0.539062,0.00419338,0.0111272,937,1660,3.12455,-14.2088
-280,-636,3.12219,14.4106,0.000247936,-0.00270187,-0.00230769,0.00151178,-0.00396571,-0.501052,0.00326651,0.010709,944,1660,3.12218,-14.4107
-273,-636,3.1123,14.5862,0.000895212,-0.0021542,-0.00171172,0.00166283,-0.00292181,-0.42156,0.00268,0.0112712,951,1660,3.11231,-14.5862
-266,-636,3.1073,14.7905,0.00150267,-0.00189659,-0.00116142,0.0018616,-0.00225551,-0.299728,0.00238064,0.0126634,958,1660,3.10729,-14.7906
-259,-636,3.11542,15.0192,0.00197739,-0.00198115,-0.000667923,0.00208705,-0.00209081,-0.16273,0.00241209,0.0144206,965,1660,3.1154,-15.0192
-252,-636,3.11438,15.2111,0.00239886,-0.00225958,-0.000287387,0.00241652,-0.00227725,-0.0613813,0.00271035,0.0112992,972,1660,3.11441,-15.2111
-245,-636,3.13892,15.4242,0.00285302,-0.00326765,-0.000184507,0.00285858,-0.00327321,-0.0301085,0.00354289,0.0102162,979,1660,3.13892,-15.4242
-238,-636,3.15222,15.6108,0.00330148,-0.0044877,-0.000128376,0.0033036,-0.00448982,-0.0164753,0.00451687,0.010957,986,1660,3.15224,-15.6108
-231,-636,3.14319,15.7927,0.00358157,-0.00596806,-0.000357774,0.00359496,-0.00598145,-0.0373948,0.00558587,0.0101317,993,1660,3.14318,-15.7927
-224,-636,3.14734,15.9896,0.00406174,-0.00733626,-0.000533616,0.00408667,-0.00736119,-0.0466805,0.00669894,0.0085227,1000,1660,3.14737,-15.9897
-217,-636,3.14233,16.1875,0.00547554,-0.0084846,-0.000751928,0.00551593,-0.00852498,-0.0536555,0.00816834,0.0109834,1007,1660,3.14232,-16.1875
-210,-636,3.15045,16.3525,0.0101447,-0.0110313,-0.00255441,0.0104485,-0.0113351,-0.118366,0.0125802,0.0158254,1014,1660,3.15045,-16.3525
-203,-636,3.18945,16.5302,0.0155772,-0.0159924,-0.0030682,0.0158726,-0.0162878,-0.0959914,0.0185684,0.0207926,1021,1660,3.18947,-16.5301
-196,-636,3.27502,16.6041,0.0198117,-0.0181405,-0.0026819,0.0200003,-0.0183291,-0.0702002,0.0221365,0.0223491,1028,1660,3.27498,-16.6041
-189,-636,3.23938,16.7562,0.0258117,-0.0217995,-0.0032985,0.0260391,-0.022027,-0.0688415,0.0277832,0.0233995,1035,1660,3.23944,-16.7563
-182,-636,3.05847,16.6979,0.0327788,-0.0255813,-0.00367339,0.0330091,-0.0258116,-0.062614,0.0340448,0.0393259,1042,1660,3.05851,-16.6979
-175,-636,3.47705,17.0812,0,0,0,0,0,0,0,-1,1049,1660,3.47707,-17.0811
-168,-636,3.94434,17.3369,0.0472808,-0.0322357,-0.00270825,0.047373,-0.0323279,-0.0340064,0.0462878,0.0491781,1056,1660,3.94432,-17.3369
-161,-636,4.52356,16.7495,0.0536824,-0.0350206,-0.00142257,0.0537052,-0.0350434,-0.016032,0.0516153,0.049016,1063,1660,4.52352,-16.7495
-154,-636,4.75244,16.6506,0.059237,-0.0371331,0.000358977,0.0592383,-0.0371344,0.00372492,0.0561265,0.0446181,1070,1660,4.75246,-16.6506
-147,-636,4.79077,16.999,0.0630893,-0.0387368,0.0027196,0.0631618,-0.0388094,0.026683,0.0594301,0.0447793,1077,1660,4.79077,-16.9991
-140,-636,4.68396,17.5129,0,0,0,0,0,0,0,-1,1084,1660,4.68398,-17.5129
-133,-636,4.68311,18.0922,0,0,0,0,0,0,0,-1,1091,1660,4.68316,-18.0921
-126,-636,3.79028,18.2225,0,0,0,0,0,0,0,-1,1098,1660,3.79025,-18.2226
-119,-636,1.8667,13.8916,0,0,0,0,0,0,0,-1,1105,1660,1.86668,-13.8916
-112,-636,-1.24963,9.7998,0,0,0,0,0,0,0,-1,1112,1660,-1.24968,-9.79978
-105,-636,3.51624,4.72791,0,0,0,0,0,0,0,-1,1119,1660,3.51618,-4.7279
-98,-636,1.54504,5.11914,0,0,0,0,0,0,0,-1,1126,1660,1.54503,-5.11912
-91,-636,-1.87964,-2.25012,0,0,0,0,0,0,0,-1,1133,1660,-1.87966,2.25016
-84,-636,-2.84143,0.133667,0,0,0,0,0,0,0,-1,1140,1660,-2.84144,-0.133701
-77,-636,-3.57349,2.45935,0,0,0,0,0,0,0,-1,1147,1660,-3.57345,-2.45939
-70,-636,-4.23682,4.82312,0,0,0,0,0,0,0,-1,1154,1660,-4.23681,-4.82307
-63,-636,-2.21033,6.97168,0,0,0,0,0,0,0,-1,1161,1660,-2.21034,-6.97165
-56,-636,-2.51917,8.80359,0,0,0,0,0,0,0,-1,1168,1660,-2.51916,-8.80361
-49,-636,-3.13,10.4113,0,0,0,0,0,0,0,-1,1175,1660,-3.12996,-10.4112
-42,-636,-2.27771,4.90173,0,0,0,0,0,0,0,-1,1182,1660,-2.27775,-4.90173
-35,-636,-2.27698,5.89685,0,0,0,0,0,0,0,-1,1189,1660,-2.27695,-5.89686
-28,-636,-1.70654,4.83936,0,0,0,0,0,0,0,-1,1196,1660,-1.70656,-4.8393
-21,-636,4.10999,24.0377,0,0,0,0,0,0,0,-1,1203,1660,4.11004,-24.0377
-14,-636,3.52881,12.7482,0,0,0,0,0,0,0,-1,1210,1660,3.5288,-12.7482
-7,-636,4.22583,12.8896,0,0,0,0,0,0,0,-1,1217,1660,4.22587,-12.8897
0,-636,3.86621,17.3832,0,0,0,0,0,0,0,-1,1224,1660,3.86627,-17.3832
7,-636,5.80884,18.9008,0,0,0,0,0,0,0,-1,1231,1660,5.80881,-18.9008
14,-636,6.22083,19.1423,0.170811,-0.000164238,0.0166842,0.172423,-0.00177712,0.0963714,0.115546,0.0446023,1238,1660,6.22078,-19.1424
21,-636,6.90381,19.1754,0.158484,0.0127193,0.0162981,0.160285,0.0109192,0.110001,0.103409,0.046763,1245,1660,6.90382,-19.1754
28,-636,7.77722,19.2222,0.155313,0.0233967,0.011002,0.156224,0.0224854,0.0826405,0.0975223,0.0487342,1252,1660,7.77727,-19.2222
35,-636,8.61841,19.285,0,0,0,0,0,0,0,-1,1259,1660,8.61838,-19.2851
42,-636,-1.19495,21.1962,0,0,0,0,0,0,0,-1,1266,1660,-1.195,-21.1961
49,-636,0.0827637,20.8108,0.156133,0.0339233,-0.00288522,0.156201,0.0338552,-0.0235913,0.0948839,0.0485338,1273,1660,0.0827323,-20.8108
56,-636,1.20862,20.3903,0.156493,0.032729,-0.00717353,0.156907,0.0323146,-0.0577038,0.0956702,0.0464516,1280,1660,1.20857,-20.3902
63,-636,2.22375,20.4491,0.151327,0.0328345,-0.00857577,0.151945,0.032217,-0.0718746,0.092448,0.0440364,1287,1660,2.22373,-20.4491
70,-636,3.30432,20.1899,0.142881,0.0276853,-0.0101017,0.14376,0.0268062,-0.0868089,0.0882719,0.0442282,1294,1660,3.30431,-20.1899
77,-636,4.40405,20.0458,0.130793,0.0225061,-0.0107055,0.131841,0.0214579,-0.0976033,0.0816864,0.0469559,1301,1660,4.40401,-20.0458
84,-636,5.75488,20.1802,0.113654,0.0169709,-0.00936109,0.114552,0.0160729,-0.095639,0.071614,0.0444433,1308,1660,5.75482,-20.1802
91,-636,6.32556,19.6334,0.0904186,0.010853,-0.00474717,0.0907008,0.0105708,-0.0593829,0.0572697,0.0421545,1315,1660,6.32558,-19.6334
98,-636,6.68848,19.0221,0.0645731,0.00637853,0.00209014,0.064648,0.00630355,0.0358549,0.0411587,0.044832,1322,1660,6.68851,-19.022
105,-636,6.83105,18.0952,0.0386672,0.00083041,0.00946785,0.0409041,-0.00140647,0.232007,0.0277501,0.0476113,1329,1660,6.83105,-18.0952
112,-636,7.44543,18.2701,0.0108053,-0.00273674,0.0159953,0.0214037,-0.0133351,0.585177,0.020236,0.0464091,1336,1660,7.44539,-18.2701
119,-636,6.70483,18.0212,-0.0191687,-0.00501784,0.024262,0.0131793,-0.0373659,0.927277,0.0302755,0.0457155,1343,1660,6.70478,-18.0212
126,-636,6.3385,17.5234,-0.0492915,-0.00594354,0.0338438,0.0125716,-0.0678066,1.0702,0.0499254,0.0458615,1350,1660,6.33847,-17.5235
133,-636,5.8772,17.533,-0.0752352,-0.00631798,0.0455744,0.0163585,-0.0979117,1.10909,0.0713551,0.0484063,1357,1660,5.87715,-17.533
140,-636,4.71533,17.6979,-0.100546,-0.00585887,0.0574309,0.0212269,-0.127632,1.13011,0.0929747,0.0443957,1364,1660,4.71537,-17.6978
147,-636,3.68579,17.6398,-0.128225,-0.00352075,0.0717593,0.0291912,-0.160937,1.14308,0.118229,0.0443629,1371,1660,3.68582,-17.6398
154,-636,2.73279,17.5615,0,0,0,0,0,0,0,-1,1378,1660,2.73273,-17.5615
161,-636,10.2961,7.13025,0,0,0,0,0,0,0,-1,1385,1660,10.2961,-7.13021
168,-636,11.7659,5.83899,0,0,0,0,0,0,0,-1,1392,1660,11.7658,-5.83899
175,-636,5.94592,-1.72888,0,0,0,0,0,0,0,-1,1399,1660,5.94598,1.72886
182,-636,5.93994,-1.11938,0,0,0,0,0,0,0,-1,1406,1660,5.93998,1.11936
189,-636,5.32544,11.9595,0,0,0,0,0,0,0,-1,1413,1660,5.32542,-11.9595
196,-636,5.3623,9.38025,0,0,0,0,0,0,0,-1,1420,1660,5.36225,-9.38027
203,-636,5.18542,9.02429,0,0,0,0,0,0,0,-1,1427,1660,5.18547,-9.0243
210,-636,4.09167,7.17041,0,0,0,0,0,0,0,-1,1434,1660,4.09173,-7.17041
217,-636,2.94897,5.28992,0,0,0,0,0,0,0,-1,1441,1660,2.94899,-5.28991
224,-636,1.49194,3.63916,0,0,0,0,0,0,0,-1,1448,1660,1.49197,-3.63918
231,-636,0.17749,2.24854,0,0,0,0,0,0,0,-1,1455,1660,0.177501,-2.24855
238,-636,-0.764648,1.00598,0,0,0,0,0,0,0,-1,1462,1660,-0.764704,-1.00595
245,-636,6.21204,1.18005,0,0,0,0,0,0,0,-1,1469,1660,6.21206,-1.18001
252,-636,7.70251,0.865723,0,0,0,0,0,0,0,-1,1476,1660,7.7025,-0.865692
259,-636,9.03601,0.787231,0,0,0,0,0,0,0,-1,1483,1660,9.03598,-0.787243
266,-636,10.1071,3.24109,0,0,0,0,0,0,0,-1,1490,1660,10.1071,-3.24103
273,-636,8.48535,5.02466,0,0,0,0,0,0,0,-1,1497,1660,8.48533,-5.02472
280,-636,8.81384,5.66992,0,0,0,0,0,0,0,-1,1504,1660,8.81381,-5.66998
287,-636,6.08606,11.49,0,0,0,0,0,0,0,-1,1511,1660,6.08606,-11.49
294,-636,6.69592,15.9669,0,0,0,0,0,0,0,-1,1518,1660,6.69595,-15.9669
301,-636,6.18237,17.9132,0,0,0,0,0,0,0,-1,1525,1660,6.18241,-17.9132
308,-636,6.58765,17.8292,0,0,0,0,0,0,0,-1,1532,1660,6.58765,-17.8292
315,-636,6.71545,17.6604,0,0,0,0,0,0,0,-1,1539,1660,6.71548,-17.6604
322,-636,6.62256,17.4003,0.00834683,-0.000513622,0.00264342,0.00907554,-0.00124233,0.268987,0.00650414,0.0392175,1546,1660,6.62251,-17.4002
329,-636,6.68555,17.2344,0.00624594,7.63942e-05,0.00291298,0.00740396,-0.00108163,0.378382,0.00533321,0.0249218,1553,1660,6.68557,-17.2344
336,-636,6.71167,17.1011,0.00450671,0.000470574,0.00291441,0.00603356,-0.00105627,0.48258,0.00441677,0.02155,1560,1660,6.71168,-17.1011
343,-636,6.68127,16.9934,0.00285402,0.000131391,0.00292027,0.00471469,-0.00172928,0.567293,0.00385121,0.0206618,1567,1660,6.68131,-16.9934
350,-636,6.69788,16.8615,0.00193318,-4.47153e-05,0.00266117,0.00378322,-0.00189476,0.607495,0.00333807,0.0121849,1574,1660,6.69784,-16.8615
357,-636,6.72522,16.6962,0.00125473,-0.000313876,0.00249282,0.00308372,-0.00214286,0.632988,0.00303382,0.0112556,1581,1660,6.7252,-16.6962
364,-636,6.73694,16.5356,0.000839724,-0.00057138,0.00216847,0.00241454,-0.00214619,0.628115,0.00263466,0.0109847,1588,1660,6.73699,-16.5357
371,-636,6.73145,16.3688,0.000628569,-0.00081442,0.00190128,0.00194065,-0.0021265,0.604053,0.00234899,0.00891702,1595,1660,6.73143,-16.3688
378,-636,6.73083,16.1818,0.000495528,-0.00101854,0.00171879,0.00161662,-0.00213963,0.577958,0.00217567,0.00915289,1602,1660,6.73088,-16.1818
385,-636,6.75647,16.0054,0.000392745,-0.00118442,0.00135835,0.00117482,-0.0019665,0.522403,0.00183274,0.013936,1609,1660,6.75646,-16.0054
392,-636,6.76392,15.8424,0.000511845,-0.00143086,0.000983966,0.00092314,-0.00184216,0.395925,0.00162567,0.0147885,1616,1660,6.76396,-15.8424
399,-636,6.73657,15.6509,0.000635408,-0.0013675,0.000750944,0.000885684,-0.00161777,0.321704,0.00146583,0.0118095,1623,1660,6.73654,-15.6509
406,-636,6.72766,15.4951,0.000696788,-0.00141994,0.000550424,0.000831362,-0.00155451,0.239788,0.00139842,0.0149217,1630,1660,6.7276,-15.4951
413,-636,6.74426,15.3008,0.000633324,-0.00172312,0.000356558,0.000686094,-0.00177589,0.146931,0.00146711,0.0224284,1637,1660,6.74425,-15.3008
420,-636,6.73193,15.0642,0.000261085,-0.00204226,0.000164182,0.000272729,-0.00205391,0.0708026,0.00146865,0.0215197,1644,1660,6.73199,-15.0642
427,-636,6.71155,14.9075,-0.000367513,-0.00243719,0.00013895,-0.000358226,-0.00244648,0.0667367,0.00152566,0.0128563,1651,1660,6.71153,-14.9074
434,-636,6.71362,14.725,-0.000764808,-0.00302098,-4.27695e-05,-0.000763998,-0.00302179,-0.0189476,0.00181429,0.0111245,1658,1660,6.71356,-14.725
441,-636,6.74573,14.4928,-0.00256954,-0.00356732,2.13679e-05,-0.00256908,-0.00356778,0.0214024,0.00212533,0.0114244,1665,1660,6.74577,-14.4928
448,-636,6.75928,14.272,-0.00534091,-0.00417992,9.53201e-05,-0.00417215,-0.00534869,1.48942,0.00324549,0.0130171,1672,1660,6.75926,-14.272
455,-636,6.74939,14.061,-0.00820721,-0.00512616,8.52928e-05,-0.0051238,-0.00820957,1.54314,0.00478824,0.0138456,1679,1660,6.74941,-14.0611
462,-636,6.71375,13.8617,-0.0116137,-0.00589167,0.00023142,-0.00588233,-0.0116231,1.53044,0.00671075,0.0183536,1686,1660,6.7137,-13.8617
469,-636,6.69373,13.6503,-0.0154871,-0.00661233,0.000198951,-0.00660787,-0.0154916,1.54839,0.00897617,0.0301601,1693,1660,6.69372,-13.6503
476,-636,6.61255,13.5736,-0.0197719,-0.00709051,-5.38034e-05,-0.00709028,-0.0197721,-1.56655,0.0115666,0.0449933,1700,1660,6.61249,-13.5736
483,-636,7.26123,13.4113,0,0,0,0,0,0,0,-1,1707,1660,7.26122,-13.4113
490,-636,6.27722,13.0619,-0.029388,-0.00753983,-0.000868032,-0.0075054,-0.0294224,-1.53115,0.0176532,0.0490051,1714,1660,6.27722,-13.0619
497,-636,5.63306,12.2826,-0.0339603,-0.00739548,-0.0017651,-0.00727871,-0.0340771,-1.50474,0.0207224,0.0462872,1721,1660,5.63307,-12.2826
504,-636,4.98694,11.4955,0,0,0,0,0,0,0,-1,1728,1660,4.98692,-11.4955
511,-636,5.65466,9.23218,0,0,0,0,0,0,0,-1,1735,1660,5.65461,-9.23216
518,-636,6.72791,1.07605,0,0,0,0,0,0,0,-1,1742,1660,6.7279,-1.0761
525,-636,7.04309,0.93335,0,0,0,0,0,0,0,-1,1749,1660,7.04308,-0.933298
532,-636,0,0,0,0,0,0,0,0,0,-1,1756,1660,0,0
539,-636,0,0,0,0,0,0,0,0,0,-1,1763,1660,0,0
546,-636,0,0,0,0,0,0,0,0,0,-1,1770,1660,0,0
553,-636,0,0,0,0,0,0,0,0,0,-1,1777,1660,0,0
560,-636,0,0,0,0,0,0,0,0,0,-1,1784,1660,0,0
567,-636,0,0,0,0,0,0,0,0,0,-1,1791,1660,0,0
574,-636,0,0,0,0,0,0,0,0,0,-1,1798,1660,0,0
581,-636,0,0,0,0,0,0,0,0,0,-1,1805,1660,0,0
588,-636,0,0,0,0,0,0,0,0,0,-1,1812,1660,0,0
595,-636,0,0,0,0,0,0,0,0,0,-1,1819,1660,0,0
602,-636,0,0,0,0,0,0,0,0,0,-1,1826,1660,0,0
609,-636,0,0,0,0,0,0,0,0,0,-1,1833,1660,0,0
616,-636,0,0,0,0,0,0,0,0,0,-1,1840,1660,0,0
623,-636,0,0,0,0,0,0,0,0,0,-1,1847,1660,0,0
630,-636,0,0,0,0,0,0,0,0,0,-1,1854,1660,0,0
637,-636,0,0,0,0,0,0,0,0,0,-1,1861,1660,0,0
644,-636,0,0,0,0,0,0,0,0,0,-1,1868,1660,0,0
651,-636,0,0,0,0,0,0,0,0,0,-1,1875,1660,0,0
658,-636,0,0,0,0,0,0,0,0,0,-1,1882,1660,0,0
665,-636,0,0,0,0,0,0,0,0,0,-1,1889,1660,0,0
672,-636,0,0,0,0,0,0,0,0,0,-1,1896,1660,0,0
679,-636,0,0,0,0,0,0,0,0,0,-1,1903,1660,0,0
686,-636,0,0,0,0,0,0,0,0,0,-1,1910,1660,0,0
693,-636,0,0,0,0,0,0,0,0,0,-1,1917,1660,0,0
700,-636,0,0,0,0,0,0,0,0,0,-1,1924,1660,0,0
707,-636,0,0,0,0,0,0,0,0,0,-1,1931,1660,0,0
714,-636,0,0,0,0,0,0,0,0,0,-1,1938,1660,0,0
721,-636,0,0,0,0,0,0,0,0,0,-1,1945,1660,0,0
728,-636,0,0,0,0,0,0,0,0,0,-1,1952,1660,0,0
735,-636,0,0,0,0,0,0,0,0,0,-1,1959,1660,0,0
742,-636,0,0,0,0,0,0,0,0,0,-1,1966,1660,0,0
749,-636,0,0,0,0,0,0,0,0,0,-1,1973,1660,0,0
756,-636,0,0,0,0,0,0,0,0,0,-1,1980,1660,0,0
763,-636,0,0,0,0,0,0,0,0,0,-1,1987,1660,0,0
770,-636,0,0,0,0,0,0,0,0,0,-1,1994,1660,0,0
777,-636,0,0,0,0,0,0,0,0,0,-1,2001,1660,0,0
784,-636,0,0,0,0,0,0,0,0,0,-1,2008,1660,0,0
791,-636,0,0,0,0,0,0,0,0,0,-1,2015,1660,0,0
798,-636,0,0,0,0,0,0,0,0,0,-1,2022,1660,0,0
805,-636,0,0,0,0,0,0,0,0,0,-1,2029,1660,0,0
812,-636,0,0,0,0,0,0,0,0,0,-1,2036,1660,0,0
-700,-643,0,0,0,0,0,0,0,0,0,-1,524,1667,0,0
-693,-643,0,0,0,0,0,0,0,0,0,-1,531,1667,0,0
-686,-643,0,0,0,0,0,0,0,0,0,-1,538,1667,0,0
-679,-643,0,0,0,0,0,0,0,0,0,-1,545,1667,0,0
-672,-643,0,0,0,0,0,0,0,0,0,-1,552,1667,0,0
-665,-643,0,0,0,0,0,0,0,0,0,-1,559,1667,0,0
-658,-643,0,0,0,0,0,0,0,0,0,-1,566,1667,0,0
-651,-643,0,0,0,0,0,0,0,0,0,-1,573,1667,0,0
-644,-643,0,0,0,0,0,0,0,0,0,-1,580,1667,0,0
-637,-643,0,0,0,0,0,0,0,0,0,-1,587,1667,0,0
-630,-643,0,0,0,0,0,0,0,0,0,-1,594,1667,0,0
-623,-643,0,0,0,0,0,0,0,0,0,-1,601,1667,0,0
-616,-643,0,0,0,0,0,0,0,0,0,-1,608,1667,0,0
-609,-643,0,0,0,0,0,0,0,0,0,-1,615,1667,0,0
-602,-643,0,0,0,0,0,0,0,0,0,-1,622,1667,0,0
-595,-643,0,0,0,0,0,0,0,0,0,-1,629,1667,0,0
-588,-643,0,0,0,0,0,0,0,0,0,-1,636,1667,0,0
-581,-643,0,0,0,0,0,0,0,0,0,-1,643,1667,0,0
-574,-643,0,0,0,0,0,0,0,0,0,-1,650,1667,0,0
-567,-643,0,0,0,0,0,0,0,0,0,-1,657,1667,0,0
-560,-643,0,0,0,0,0,0,0,0,0,-1,664,1667,0,0
-553,-643,0,0,0,0,0,0,0,0,0,-1,671,1667,0,0
-546,-643,0,0,0,0,0,0,0,0,0,-1,678,1667,0,0
-539,-643,0,0,0,0,0,0,0,0,0,-1,685,1667,0,0
-532,-643,0,0,0,0,0,0,0,0,0,-1,692,1667,0,0
-525,-643,0,0,0,0,0,0,0,0,0,-1,699,1667,0,0
-518,-643,0,0,0,0,0,0,0,0,0,-1,706,1667,0,0
-511,-643,0,0,0,0,0,0,0,0,0,-1,713,1667,0,0
-504,-643,0,0,0,0,0,0,0,0,0,-1,720,1667,0,0
-497,-643,0,0,0,0,0,0,0,0,0,-1,727,1667,0,0
-490,-643,0,0,0,0,0,0,0,0,0,-1,734,1667,0,0
-483,-643,0,0,0,0,0,0,0,0,0,-1,741,1667,0,0
-476,-643,0,0,0,0,0,0,0,0,0,-1,748,1667,0,0
-469,-643,0,0,0,0,0,0,0,0,0,-1,755,1667,0,0
-462,-643,0,0,0,0,0,0,0,0,0,-1,762,1667,0,0
-455,-643,0,0,0,0,0,0,0,0,0,-1,769,1667,0,0
-448,-643,0,0,0,0,0,0,0,0,0,-1,776,1667,0,0
-441,-643,0,0,0,0,0,0,0,0,0,-1,783,1667,0,0
-434,-643,0,0,0,0,0,0,0,0,0,-1,790,1667,0,0
-427,-643,0,0,0,0,0,0,0,0,0,-1,797,1667,0,0
-420,-643,0,0,0,0,0,0,0,0,0,-1,804,1667,0,0
-413,-643,0,0,0,0,0,0,0,0,0,-1,811,1667,0,0
-406,-643,0,0,0,0,0,0,0,0,0,-1,818,1667,0,0
-399,-643,0.589417,11.6465,0,0,0,0,0,0,0,-1,825,1667,0.58939,-11.6465
-392,-643,0.865295,12.6523,0,0,0,0,0,0,0,-1,832,1667,0.865315,-12.6523
-385,-643,1.72968,13.2692,0,0,0,0,0,0,0,-1,839,1667,1.72967,-13.2692
-378,-643,2.66522,13.8193,0,0,0,0,0,0,0,-1,846,1667,2.66524,-13.8193
-371,-643,0.5849,3.26428,0,0,0,0,0,0,0,-1,853,1667,0.584909,-3.26426
-364,-643,1.69513,9.922,0,0,0,0,0,0,0,-1,860,1667,1.69511,-9.92205
-357,-643,1.14227,10.8429,0,0,0,0,0,0,0,-1,867,1667,1.14228,-10.8429
-350,-643,2.50061,9.96948,0,0,0,0,0,0,0,-1,874,1667,2.50059,-9.96954
-343,-643,2.61505,6.17407,0,0,0,0,0,0,0,-1,881,1667,2.61504,-6.17412
-336,-643,3.31781,12.6804,0,0,0,0,0,0,0,-1,888,1667,3.31783,-12.6804
-329,-643,3.48016,12.933,-0.00252022,-0.0256007,-0.0147915,0.00470026,-0.0328212,-0.454124,0.0236041,0.0392807,895,1667,3.48019,-12.9329
-322,-643,3.4397,13.1473,-0.00218428,-0.020814,-0.0129721,0.00447088,-0.0274692,-0.474023,0.0199706,0.0250523,902,1667,3.43969,-13.1474
-315,-643,3.3573,13.3448,-0.00196812,-0.0164669,-0.011207,0.00412975,-0.0225648,-0.498314,0.016592,0.0163375,909,1667,3.35728,-13.3448
-308,-643,3.35046,13.528,-0.00179848,-0.0126605,-0.0096753,0.00386588,-0.0183249,-0.529649,0.0136884,0.0120594,916,1667,3.35045,-13.5279
-301,-643,3.35986,13.7461,-0.00127721,-0.009158,-0.00808779,0.00377901,-0.0142142,-0.558719,0.0109553,0.0132276,923,1667,3.35989,-13.7461
-294,-643,3.35254,13.9709,-0.000538933,-0.00611405,-0.00654358,0.0037861,-0.0104391,-0.58404,0.00850705,0.0127721,930,1667,3.35256,-13.971
-287,-643,3.34015,14.1932,0.00013196,-0.00364297,-0.00514683,0.0037265,-0.00723751,-0.609651,0.00643735,0.0106775,937,1667,3.34015,-14.1932
-280,-643,3.32806,14.3977,0.000700609,-0.00183094,-0.00396422,0.00359624,-0.00472657,-0.630865,0.00481992,0.0133,944,1667,3.32805,-14.3977
-273,-643,3.3194,14.593,0.00120997,-0.000696829,-0.00297168,0.00337744,-0.0028643,-0.630171,0.00360773,0.0120284,951,1667,3.3194,-14.5931
-266,-643,3.31873,14.7983,0.00165373,-0.000125076,-0.00211175,0.00305572,-0.00152707,-0.586088,0.0026945,0.0121266,958,1667,3.31871,-14.7984
-259,-643,3.32831,15.0319,0.00189122,9.37228e-05,-0.00132126,0.00259043,-0.000605489,-0.486734,0.00196021,0.0115592,965,1667,3.3283,-15.0318
-252,-643,3.33191,15.2281,0.0021232,-8.50912e-05,-0.000677523,0.0023145,-0.00027639,-0.275186,0.0016429,0.0127077,972,1667,3.33188,-15.2281
-245,-643,3.33917,15.4255,0.0023942,-0.00111808,-0.000413214,0.00244216,-0.00116604,-0.115547,0.00212618,0.0114841,979,1667,3.33916,-15.4255
-238,-643,3.37335,15.6108,0.0026326,-0.0023449,-0.000287122,0.00264911,-0.0023614,-0.0574301,0.00289441,0.0134702,986,1667,3.37337,-15.6109
-231,-643,3.34052,15.8025,0.00272871,-0.00372442,-0.000430743,0.00275733,-0.00375305,-0.0663571,0.00377339,0.0101336,993,1667,3.34053,-15.8025
-224,-643,3.32983,15.9767,0.00298314,-0.00509854,-0.00046729,0.00301007,-0.00512547,-0.0575652,0.00474969,0.00912715,1000,1667,3.32982,-15.9767
-217,-643,3.3291,16.1379,0.00401075,-0.0060445,-0.000618509,0.00404865,-0.00608241,-0.0612035,0.00588832,0.00824725,1007,1667,3.32912,-16.1379
-210,-643,3.34332,16.3335,0.00735044,-0.00795824,-0.00178858,0.00755663,-0.00816443,-0.114775,0.00907882,0.0104752,1014,1667,3.34334,-16.3335
-203,-643,3.37,16.5344,0.0111752,-0.011585,-0.00199996,0.0113496,-0.0117594,-0.0869829,0.0133427,0.0123508,1021,1667,3.36994,-16.5345
-196,-643,3.38086,16.6973,0.0141726,-0.0131797,-0.00158947,0.0142647,-0.0132717,-0.0578516,0.0159016,0.0126749,1028,1667,3.38091,-16.6973
-189,-643,3.42285,16.86,0.0183128,-0.0158098,-0.00183991,0.0184118,-0.0159087,-0.0537129,0.0198325,0.0129953,1035,1667,3.4228,-16.86
-182,-643,3.45996,17.0051,0.0231041,-0.0185256,-0.00189699,0.0231904,-0.0186119,-0.0454426,0.0241827,0.0205075,1042,1667,3.45999,-17.0051
-175,-643,3.52686,17.1051,0.028137,-0.0211623,-0.00157202,0.0281871,-0.0212123,-0.0318442,0.0286154,0.0337072,1049,1667,3.52683,-17.1051
-168,-643,3.62622,17.2589,0.0331632,-0.0234625,-0.000793971,0.0331743,-0.0234736,-0.0140177,0.0328652,0.0405437,1056,1667,3.62621,-17.2589
-161,-643,4.11292,17.1158,0.0376435,-0.0255895,0.000314434,0.037645,-0.0255911,0.00497246,0.0367298,0.0458597,1063,1667,4.11295,-17.1158
-154,-643,4.33252,16.9222,0.0416059,-0.0272158,0.00167821,0.0416468,-0.0272567,0.0243655,0.0400696,0.0442202,1070,1667,4.33249,-16.9222
-147,-643,4.47937,16.7148,0,0,0,0,0,0,0,-1,1077,1667,4.47936,-16.7148
-140,-643,4.47034,17.266,0,0,0,0,0,0,0,-1,1084,1667,4.4703,-17.266
-133,-643,2.59351,17.3077,0,0,0,0,0,0,0,-1,1091,1667,2.5935,-17.3077
-126,-643,3.13904,17.689,0,0,0,0,0,0,0,-1,1098,1667,3.13909,-17.689
-119,-643,3.76282,14.1458,0,0,0,0,0,0,0,-1,1105,1667,3.76283,-14.1458
-112,-643,3.81458,16.2069,0,0,0,0,0,0,0,-1,1112,1667,3.81463,-16.2069
-105,-643,-2.23413,10.0996,0,0,0,0,0,0,0,-1,1119,1667,-2.23415,-10.0996
-98,-643,3.11035,4.68066,0,0,0,0,0,0,0,-1,1126,1667,3.11041,-4.68071
-91,-643,-1.74146,-2.5885,0,0,0,0,0,0,0,-1,1133,1667,-1.74146,2.58856
-84,-643,-3.07446,-0.199341,0,0,0,0,0,0,0,-1,1140,1667,-3.07449,0.199383
-77,-643,-3.63794,2.81165,0,0,0,0,0,0,0,-1,1147,1667,-3.63791,-2.8117
-70,-643,-3.36938,4.45203,0,0,0,0,0,0,0,-1,1154,1667,-3.36941,-4.452
-63,-643,-3.67822,6.26855,0,0,0,0,0,0,0,-1,1161,1667,-3.67823,-6.26856
-56,-643,-3.95142,8.1073,0,0,0,0,0,0,0,-1,1168,1667,-3.95139,-8.10732
-49,-643,-4.23535,9.90552,0,0,0,0,0,0,0,-1,1175,1667,-4.23537,-9.90557
-42,-643,-4.25195,10.7059,0,0,0,0,0,0,0,-1,1182,1667,-4.25192,-10.706
-35,-643,-4.10986,11.6588,0,0,0,0,0,0,0,-1,1189,1667,-4.10982,-11.6589
-28,-643,-1.38513,5.604,0,0,0,0,0,0,0,-1,1196,1667,-1.3851,-5.60403
-21,-643,3.97473,18.9484,0,0,0,0,0,0,0,-1,1203,1667,3.97472,-18.9483
-14,-643,3.69873,14.0221,0,0,0,0,0,0,0,-1,1210,1667,3.69878,-14.0221
-7,-643,1.3186,18.327,0,0,0,0,0,0,0,-1,1217,1667,1.31858,-18.3271
0,-643,2.83899,18.1299,0,0,0,0,0,0,0,-1,1224,1667,2.83895,-18.1299
7,-643,4.60144,18.0125,0.158934,-0.0120437,0.011463,0.159699,-0.0128088,0.0666463,0.110983,0.0446732,1231,1667,4.60148,-18.0125
14,-643,5.98413,17.9404,0.147005,-0.000359371,0.0128461,0.148116,-0.00147082,0.0863049,0.0992382,0.0414449,1238,1667,5.98412,-17.9404
21,-643,6.36475,19.262,0,0,0,0,0,0,0,-1,1245,1667,6.36477,-19.2619
28,-643,7.16333,19.3629,0,0,0,0,0,0,0,-1,1252,1667,7.1633,-19.3629
35,-643,7.93494,19.226,0,0,0,0,0,0,0,-1,1259,1667,7.93493,-19.226
42,-643,-0.331055,20.5562,0,0,0,0,0,0,0,-1,1266,1667,-0.331101,-20.5561
49,-643,0.621216,20.4341,0.13695,0.0300931,-0.00218647,0.136994,0.0300484,-0.0204504,0.0831434,0.0459993,1273,1667,0.621165,-20.434
56,-643,1.40808,20.2202,0.136999,0.0288388,-0.00579715,0.137308,0.0285289,-0.0533941,0.0836667,0.0456705,1280,1667,1.40808,-20.2202
63,-643,2.29907,19.9475,0.132255,0.0287379,-0.00691044,0.132714,0.0282786,-0.0663641,0.0807183,0.0450846,1287,1667,2.29903,-19.9475
70,-643,3.151,19.8959,0.124823,0.0241644,-0.00820201,0.125487,0.0235005,-0.0807733,0.0770288,0.0477066,1294,1667,3.15098,-19.8959
77,-643,6.16443,20.252,0.114333,0.0185704,-0.00895434,0.115163,0.0177403,-0.0924383,0.071598,0.0439707,1301,1667,6.16438,-20.2519
84,-643,6.05835,20.0469,0.0988076,0.01301,-0.0080449,0.0995554,0.0122622,-0.0926895,0.0626839,0.0479614,1308,1667,6.05831,-20.0469
91,-643,5.9884,19.5905,0.0776691,0.00697951,-0.00449003,0.0779532,0.00669545,-0.0631791,0.049887,0.0453715,1315,1667,5.98842,-19.5905
98,-643,6.10095,19.1307,0.0537443,0.0023734,0.00117927,0.0537714,0.00234634,0.0229398,0.0350916,0.0442091,1322,1667,6.101,-19.1308
105,-643,5.92114,18.8241,0,0,0,0,0,0,0,-1,1329,1667,5.92115,-18.8241
112,-643,6.40942,18.3566,0.00321377,-0.0069225,0.0135505,0.0126129,-0.0163216,0.606443,0.0167511,0.0456163,1336,1667,6.40946,-18.3565
119,-643,6.1073,18.0374,-0.0245759,-0.00902908,0.0209375,0.00553149,-0.0391365,0.963145,0.0281168,0.0464221,1343,1667,6.10726,-18.0373
126,-643,5.90442,17.5005,0,0,0,0,0,0,0,-1,1350,1667,5.90437,-17.5005
133,-643,5.48669,17.776,0,0,0,0,0,0,0,-1,1357,1667,5.48675,-17.776
140,-643,3.74731,17.8964,-0.0927862,-0.00824086,0.0500273,0.0149823,-0.116009,1.13619,0.0827869,0.0426965,1364,1667,3.74732,-17.8963
147,-643,2.79443,17.6855,-0.110174,-0.00429928,0.06089,0.0234477,-0.137921,1.14322,0.100677,0.0409657,1371,1667,2.79443,-17.6856
154,-643,2.1908,17.4343,0,0,0,0,0,0,0,-1,1378,1667,2.19083,-17.4344
161,-643,18.7611,11.0951,0,0,0,0,0,0,0,-1,1385,1667,18.7611,-11.0951
168,-643,10.5563,10.9818,0,0,0,0,0,0,0,-1,1392,1667,10.5562,-10.9819
175,-643,5.88525,-1.1698,0,0,0,0,0,0,0,-1,1399,1667,5.88526,1.16977
182,-643,5.80945,-0.418701,0,0,0,0,0,0,0,-1,1406,1667,5.80949,0.418712
189,-643,5.42297,12.9208,0,0,0,0,0,0,0,-1,1413,1667,5.42298,-12.9208
196,-643,5.51953,11.2415,0,0,0,0,0,0,0,-1,1420,1667,5.51948,-11.2414
203,-643,5.60828,9.82153,0,0,0,0,0,0,0,-1,1427,1667,5.60833,-9.82148
210,-643,4.73218,7.58728,0,0,0,0,0,0,0,-1,1434,1667,4.73222,-7.58728
217,-643,3.8031,5.28955,0,0,0,0,0,0,0,-1,1441,1667,3.80305,-5.28955
224,-643,2.96436,2.97095,0,0,0,0,0,0,0,-1,1448,1667,2.96432,-2.97095
231,-643,2.13403,1.08472,0,0,0,0,0,0,0,-1,1455,1667,2.13403,-1.08467
238,-643,1.18152,-0.261963,0,0,0,0,0,0,0,-1,1462,1667,1.18152,0.26192
245,-643,-0.157471,-1.79016,0,0,0,0,0,0,0,-1,1469,1667,-0.157517,1.7901
252,-643,8.08789,0.0202637,0,0,0,0,0,0,0,-1,1476,1667,8.08791,-0.0203056
259,-643,9.02979,-0.46936,0,0,0,0,0,0,0,-1,1483,1667,9.02974,0.46933
266,-643,4.55066,5.17554,0,0,0,0,0,0,0,-1,1490,1667,4.55063,-5.17556
273,-643,4.34363,6.56836,0,0,0,0,0,0,0,-1,1497,1667,4.34363,-6.5684
280,-643,5.75854,14.5217,0,0,0,0,0,0,0,-1,1504,1667,5.75854,-14.5218
287,-643,5.62756,18.1462,0,0,0,0,0,0,0,-1,1511,1667,5.62754,-18.1462
294,-643,6.10156,17.8113,0,0,0,0,0,0,0,-1,1518,1667,6.1015,-17.8113
301,-643,6.23804,17.7274,0.013351,-0.00430225,0.00063627,0.013374,-0.00432516,0.0359803,0.0106545,0.0418004,1525,1667,6.238,-17.7274
308,-643,6.45056,17.6499,0.0108097,-0.00288848,0.00133523,0.0109387,-0.00301742,0.0962674,0.00847916,0.0398093,1532,1667,6.45056,-17.65
315,-643,6.50696,17.5807,0.00854483,-0.00185755,0.00176491,0.00883611,-0.00214884,0.163568,0.00672249,0.0325446,1539,1667,6.50692,-17.5807
322,-643,6.50366,17.4441,0.00658869,-0.000899795,0.00195237,0.00706714,-0.00137824,0.240323,0.00523171,0.0150371,1546,1667,6.50371,-17.4441
329,-643,6.51318,17.293,0.00494877,-0.000273792,0.00215353,0.00572223,-0.00104726,0.344812,0.00420758,0.0106528,1553,1667,6.51321,-17.2929
336,-643,6.47986,17.1785,0.00362148,0.000155336,0.00213912,0.00464147,-0.000864662,0.44494,0.00341918,0.0107081,1560,1667,6.47988,-17.1785
343,-643,6.48059,17.0378,0.00234742,7.18448e-05,0.00214185,0.00363493,-0.00121567,0.541245,0.00291429,0.0133153,1567,1667,6.48057,-17.0378
350,-643,6.52869,16.8668,0.00163433,5.50689e-05,0.0018872,0.00289044,-0.00120104,0.587258,0.00242841,0.0128547,1574,1667,6.52866,-16.8668
357,-643,6.53821,16.7089,0.00115024,-3.78178e-05,0.00164614,0.00230626,-0.00119383,0.612239,0.00205452,0.0111691,1581,1667,6.53823,-16.7089
364,-643,6.54626,16.5387,0.00085715,-0.000177893,0.00128694,0.00172673,-0.00104747,0.594226,0.00161761,0.00961343,1588,1667,6.54624,-16.5387
371,-643,6.55127,16.3738,0.000690275,-0.000381174,0.000988507,0.00127889,-0.000969792,0.537076,0.00130236,0.00776667,1595,1667,6.55123,-16.3737
378,-643,6.54944,16.2095,0.00065137,-0.000530138,0.000756788,0.00102068,-0.000899446,0.453996,0.00110932,0.00922229,1602,1667,6.54945,-16.2094
385,-643,6.56519,16.022,0.000685689,-0.00064873,0.000363949,0.000778497,-0.000741539,0.249683,0.00087768,0.0144272,1609,1667,6.56522,-16.022
392,-643,6.56946,15.8114,0.000844297,-0.000862694,-2.57653e-05,0.000844686,-0.000863083,-0.0150894,0.000986,0.0152128,1616,1667,6.56945,-15.8114
399,-643,6.54382,15.6694,0.00096387,-0.000898411,-0.000253839,0.00099785,-0.000932391,-0.133072,0.00111464,0.0133146,1623,1667,6.54388,-15.6695
406,-643,6.53699,15.4965,0.00103907,-0.00108923,-0.000392082,0.001109,-0.00115916,-0.176507,0.00130963,0.0132333,1630,1667,6.53694,-15.4965
413,-643,6.54407,15.286,0.000950463,-0.00155604,-0.000517428,0.00105308,-0.00165866,-0.195775,0.00157858,0.0183313,1637,1667,6.54405,-15.286
420,-643,6.54199,15.0568,0.000456533,-0.00209072,-0.00062778,0.000602848,-0.00223704,-0.228979,0.00172773,0.0169608,1644,1667,6.54205,-15.0568
427,-643,6.55566,14.9036,-0.000396683,-0.002699,-0.000533793,-0.000278944,-0.00281674,-0.217094,0.0017921,0.0144233,1651,1667,6.55562,-14.9036
434,-643,6.54675,14.7284,-0.00100221,-0.00357252,-0.000536046,-0.000894897,-0.00367983,-0.197583,0.00221599,0.0151559,1658,1667,6.5468,-14.7283
441,-643,6.55945,14.5006,-0.0034982,-0.00441841,-0.000289286,-0.00341481,-0.0045018,-0.28064,0.00271247,0.0142889,1665,1667,6.55945,-14.5006
448,-643,6.55249,14.2701,-0.00725076,-0.00537726,-1.04005e-05,-0.00537721,-0.00725082,-1.56525,0.00434611,0.0178195,1672,1667,6.55254,-14.2701
455,-643,6.55347,14.1702,-0.0111175,-0.00671834,0.000129899,-0.00671451,-0.0111213,1.5413,0.0064668,0.0275956,1679,1667,6.55347,-14.1701
462,-643,6.46338,14.0961,-0.0157418,-0.00783,0.000471202,-0.00780204,-0.0157698,1.51152,0.00910486,0.0346951,1686,1667,6.46337,-14.096
469,-643,6.08081,13.8679,-0.0209585,-0.0088744,0.000571934,-0.00884739,-0.0209855,1.52361,0.0121655,0.0370285,1693,1667,6.08075,-13.8679
476,-643,5.73987,13.5153,-0.0266878,-0.00965863,0.000440338,-0.00964725,-0.0266992,1.54496,0.0156111,0.0467376,1700,1667,5.7399,-13.5153
483,-643,5.40503,13.0004,0,0,0,0,0,0,0,-1,1707,1667,5.40501,-13.0004
490,-643,5.52283,12.9911,-0.0394821,-0.0106473,-0.000137912,-0.0106466,-0.0394827,-1.56601,0.0235879,0.0477848,1714,1667,5.52286,-12.9911
497,-643,5.02759,12.295,-0.0454667,-0.0105699,-0.00107112,-0.010537,-0.0454995,-1.54014,0.027502,0.0454992,1721,1667,5.0276,-12.295
504,-643,4.58118,11.4801,-0.0509557,-0.0103361,-0.0024488,-0.0101891,-0.0511028,-1.5108,0.0312312,0.0475194,1728,1667,4.58119,-11.4801
511,-643,4.22314,10.5032,0,0,0,0,0,0,0,-1,1735,1667,4.22314,-10.5032
518,-643,7.40564,0.922607,0,0,0,0,0,0,0,-1,1742,1667,7.4057,-0.922598
525,-643,0,0,0,0,0,0,0,0,0,-1,1749,1667,0,0
532,-643,0,0,0,0,0,0,0,0,0,-1,1756,1667,0,0
539,-643,0,0,0,0,0,0,0,0,0,-1,1763,1667,0,0
546,-643,0,0,0,0,0,0,0,0,0,-1,1770,1667,0,0
553,-643,0,0,0,0,0,0,0,0,0,-1,1777,1667,0,0
560,-643,0,0,0,0,0,0,0,0,0,-1,1784,1667,0,0
567,-643,0,0,0,0,0,0,0,0,0,-1,1791,1667,0,0
574,-643,0,0,0,0,0,0,0,0,0,-1,1798,1667,0,0
581,-643,0,0,0,0,0,0,0,0,0,-1,1805,1667,0,0
588,-643,0,0,0,0,0,0,0,0,0,-1,1812,1667,0,0
595,-643,0,0,0,0,0,0,0,0,0,-1,1819,1667,0,0
602,-643,0,0,0,0,0,0,0,0,0,-1,1826,1667,0,0
609,-643,0,0,0,0,0,0,0,0,0,-1,1833,1667,0,0
616,-643,0,0,0,0,0,0,0,0,0,-1,1840,1667,0,0
623,-643,0,0,0,0,0,0,0,0,0,-1,1847,1667,0,0
630,-643,0,0,0,0,0,0,0,0,0,-1,1854,1667,0,0
637,-643,0,0,0,0,0,0,0,0,0,-1,1861,1667,0,0
644,-643,0,0,0,0,0,0,0,0,0,-1,1868,1667,0,0
651,-643,0,0,0,0,0,0,0,0,0,-1,1875,1667,0,0
658,-643,0,0,0,0,0,0,0,0,0,-1,1882,1667,0,0
665,-643,0,0,0,0,0,0,0,0,0,-1,1889,1667,0,0
672,-643,0,0,0,0,0,0,0,0,0,-1,1896,1667,0,0
679,-643,0,0,0,0,0,0,0,0,0,-1,1903,1667,0,0
686,-643,0,0,0,0,0,0,0,0,0,-1,1910,1667,0,0
693,-643,0,0,0,0,0,0,0,0,0,-1,1917,1667,0,0
700,-643,0,0,0,0,0,0,0,0,0,-1,1924,1667,0,0
707,-643,0,0,0,0,0,0,0,0,0,-1,1931,1667,0,0
714,-643,0,0,0,0,0,0,0,0,0,-1,1938,1667,0,0
721,-643,0,0,0,0,0,0,0,0,0,-1,1945,1667,0,0
728,-643,0,0,0,0,0,0,0,0,0,-1,1952,1667,0,0
735,-643,0,0,0,0,0,0,0,0,0,-1,1959,1667,0,0
742,-643,0,0,0,0,0,0,0,0,0,-1,1966,1667,0,0
749,-643,0,0,0,0,0,0,0,0,0,-1,1973,1667,0,0
756,-643,0,0,0,0,0,0,0,0,0,-1,1980,1667,0,0
763,-643,0,0,0,0,0,0,0,0,0,-1,1987,1667,0,0
770,-643,0,0,0,0,0,0,0,0,0,-1,1994,1667,0,0
777,-643,0,0,0,0,0,0,0,0,0,-1,2001,1667,0,0
784,-643,0,0,0,0,0,0,0,0,0,-1,2008,1667,0,0
791,-643,0,0,0,0,0,0,0,0,0,-1,2015,1667,0,0
798,-643,0,0,0,0,0,0,0,0,0,-1,2022,1667,0,0
805,-643,0,0,0,0,0,0,0,0,0,-1,2029,1667,0,0
812,-643,0,0,0,0,0,0,0,0,0,-1,2036,1667,0,0
-700,-650,0,0,0,0,0,0,0,0,0,-1,524,1674,0,0
-693,-650,0,0,0,0,0,0,0,0,0,-1,531,1674,0,0
-686,-650,0,0,0,0,0,0,0,0,0,-1,538,1674,0,0
-679,-650,0,0,0,0,0,0,0,0,0,-1,545,1674,0,0
-672,-650,0,0,0,0,0,0,0,0,0,-1,552,1674,0,0
-665,-650,0,0,0,0,0,0,0,0,0,-1,559,1674,0,0
-658,-650,0,0,0,0,0,0,0,0,0,-1,566,1674,0,0
-651,-650,0,0,0,0,0,0,0,0,0,-1,573,1674,0,0
-644,-650,0,0,0,0,0,0,0,0,0,-1,580,1674,0,0
-637,-650,0,0,0,0,0,0,0,0,0,-1,587,1674,0,0
-630,-650,0,0,0,0,0,0,0,0,0,-1,594,1674,0,0
-623,-650,0,0,0,0,0,0,0,0,0,-1,601,1674,0,0
-616,-650,0,0,0,0,0,0,0,0,0,-1,608,1674,0,0
-609,-650,0,0,0,0,0,0,0,0,0,-1,615,1674,0,0
-602,-650,0,0,0,0,0,0,0,0,0,-1,622,1674,0,0
-595,-650,0,0,0,0,0,0,0,0,0,-1,629,1674,0,0
-588,-650,0,0,0,0,0,0,0,0,0,-1,636,1674,0,0
-581,-650,0,0,0,0,0,0,0,0,0,-1,643,1674,0,0
-574,-650,0,0,0,0,0,0,0,0,0,-1,650,1674,0,0
-567,-650,0,0,0,0,0,0,0,0,0,-1,657,1674,0,0
-560,-650,0,0,0,0,0,0,0,0,0,-1,664,1674,0,0
-553,-650,0,0,0,0,0,0,0,0,0,-1,671,1674,0,0
-546,-650,0,0,0,0,0,0,0,0,0,-1,678,1674,0,0
-539,-650,0,0,0,0,0,0,0,0,0,-1,685,1674,0,0
-532,-650,0,0,0,0,0,0,0,0,0,-1,692,1674,0,0
-525,-650,0,0,0,0,0,0,0,0,0,-1,699,1674,0,0
-518,-650,0,0,0,0,0,0,0,0,0,-1,706,1674,0,0
-511,-650,0,0,0,0,0,0,0,0,0,-1,713,1674,0,0
-504,-650,0,0,0,0,0,0,0,0,0,-1,720,1674,0,0
-497,-650,0,0,0,0,0,0,0,0,0,-1,727,1674,0,0
-490,-650,0,0,0,0,0,0,0,0,0,-1,734,1674,0,0
-483,-650,0,0,0,0,0,0,0,0,0,-1,741,1674,0,0
-476,-650,0,0,0,0,0,0,0,0,0,-1,748,1674,0,0
-469,-650,0,0,0,0,0,0,0,0,0,-1,755,1674,0,0
-462,-650,0,0,0,0,0,0,0,0,0,-1,762,1674,0,0
-455,-650,0,0,0,0,0,0,0,0,0,-1,769,1674,0,0
-448,-650,0,0,0,0,0,0,0,0,0,-1,776,1674,0,0
-441,-650,0,0,0,0,0,0,0,0,0,-1,783,1674,0,0
-434,-650,0,0,0,0,0,0,0,0,0,-1,790,1674,0,0
-427,-650,0,0,0,0,0,0,0,0,0,-1,797,1674,0,0
-420,-650,0,0,0,0,0,0,0,0,0,-1,804,1674,0,0
-413,-650,0,0,0,0,0,0,0,0,0,-1,811,1674,0,0
-406,-650,0,0,0,0,0,0,0,0,0,-1,818,1674,0,0
-399,-650,0,0,0,0,0,0,0,0,0,-1,825,1674,0,0
-392,-650,5.44415,6.85669,0,0,0,0,0,0,0,-1,832,1674,5.44414,-6.85674
-385,-650,1.74451,14.0183,0,0,0,0,0,0,0,-1,839,1674,1.74453,-14.0183
-378,-650,0.997986,4.11108,0,0,0,0,0,0,0,-1,846,1674,0.998006,-4.11113
-371,-650,-1.80096,3.78625,0,0,0,0,0,0,0,-1,853,1674,-1.80094,-3.78625
-364,-650,-2.95679,2.57507,0,0,0,0,0,0,0,-1,860,1674,-2.95681,-2.57506
-357,-650,1.97833,10.8362,0,0,0,0,0,0,0,-1,867,1674,1.97835,-10.8362
-350,-650,-5.30243,0.159912,0,0,0,0,0,0,0,-1,874,1674,-5.30244,-0.159866
-343,-650,-6.21338,-1.4425,0,0,0,0,0,0,0,-1,881,1674,-6.21341,1.44248
-336,-650,3.39105,10.7294,0,0,0,0,0,0,0,-1,888,1674,3.39105,-10.7293
-329,-650,3.83282,13.067,0,0,0,0,0,0,0,-1,895,1674,3.83282,-13.0671
-322,-650,3.75989,13.2513,-0.00206777,-0.0318023,-0.0195824,0.00765171,-0.0415218,-0.460712,0.0305528,0.0421215,902,1674,3.75991,-13.2513
-315,-650,3.61176,13.3517,-0.00190755,-0.0250625,-0.0168588,0.00696629,-0.0339364,-0.484515,0.0252685,0.037771,909,1674,3.61175,-13.3517
-308,-650,3.55304,13.5242,-0.00172661,-0.0190639,-0.014425,0.00643405,-0.0272246,-0.51484,0.0206316,0.0212659,916,1674,3.55304,-13.5242
-301,-650,3.56342,13.7543,-0.00117467,-0.0134725,-0.0119876,0.00614906,-0.0207962,-0.548426,0.016305,0.011411,923,1674,3.5634,-13.7543
-294,-650,3.56036,13.979,-0.000372311,-0.00863328,-0.00970581,0.00604537,-0.015051,-0.584222,0.0125444,0.00997212,930,1674,3.56033,-13.979
-287,-650,3.55255,14.1779,0.000362157,-0.0047025,-0.00768506,0.00592135,-0.0102617,-0.626244,0.00945464,0.0137336,937,1674,3.55258,-14.1779
-280,-650,3.53198,14.3768,0.000884523,-0.00181495,-0.0059846,0.0056697,-0.00660013,-0.674486,0.00709077,0.0149784,944,1674,3.53196,-14.3769
-273,-650,3.5191,14.594,0.00129907,9.34038e-05,-0.0045416,0.00527768,-0.0038852,-0.719416,0.00531051,0.0138906,951,1674,3.51911,-14.594
-266,-650,3.52594,14.8116,0.00163332,0.00113532,-0.00332706,0.00472069,-0.00195205,-0.748047,0.0039615,0.0119267,958,1674,3.52593,-14.8116
-259,-650,3.52039,15.0234,0.00168014,0.00181628,-0.00219043,0.00393969,-0.000443272,-0.800932,0.002786,0.014241,965,1674,3.52041,-15.0234
-252,-650,3.52191,15.222,0.00177718,0.00190892,-0.00123252,0.00307733,0.000608767,-0.812095,0.00188175,0.0122935,972,1674,3.52188,-15.2221
-245,-650,3.53052,15.4048,0.00191582,0.000956015,-0.000766392,0.00234016,0.00053167,-0.505674,0.00141654,0.0115583,979,1674,3.53049,-15.4048
-238,-650,3.51495,15.6034,0.00198912,-0.000268802,-0.00054792,0.00211506,-0.000394739,-0.225922,0.00155837,0.0122766,986,1674,3.51493,-15.6034
-231,-650,3.49591,15.8058,0.0019479,-0.00160295,-0.000592417,0.00204413,-0.00169918,-0.16103,0.00216425,0.0163183,993,1674,3.49593,-15.8058
-224,-650,3.49957,15.985,0.00199753,-0.00330023,-0.000455417,0.0020364,-0.00333909,-0.0851318,0.00313377,0.0140214,1000,1674,3.49958,-15.985
-217,-650,3.50909,16.1492,0.00267044,-0.00419402,-0.000525911,0.0027105,-0.00423407,-0.0760224,0.00404149,0.00979653,1007,1674,3.5091,-16.1492
-210,-650,3.53467,16.3132,0.00500589,-0.00570585,-0.00126115,0.00515237,-0.00585233,-0.115629,0.00635785,0.00947624,1014,1674,3.53465,-16.3133
-203,-650,3.57251,16.4915,0.00773613,-0.00831853,-0.00128525,0.00783836,-0.00842077,-0.0793807,0.00938922,0.0137909,1021,1674,3.57246,-16.4914
-196,-650,3.56543,16.6699,0.00989516,-0.00944002,-0.000880753,0.00993519,-0.00948005,-0.0454265,0.0112104,0.0132378,1028,1674,3.56549,-16.6699
-189,-650,3.5553,16.8435,0.0127439,-0.0112683,-0.000927985,0.0127797,-0.0113041,-0.0385699,0.0139134,0.0109924,1035,1674,3.55534,-16.8435
-182,-650,3.59753,17.0245,0.0159984,-0.0131595,-0.000837376,0.0160224,-0.0131836,-0.0286871,0.0168886,0.00979972,1042,1674,3.59748,-17.0245
-175,-650,3.61353,17.1741,0.0194513,-0.0150408,-0.000490572,0.0194583,-0.0150478,-0.0142189,0.0199763,0.0141455,1049,1674,3.61351,-17.174
-168,-650,3.5885,17.3278,0.0228675,-0.0167191,0.000174965,0.0228683,-0.0167199,0.00441969,0.022948,0.0194487,1056,1674,3.5885,-17.3278
-161,-650,3.59631,17.4867,0.0259237,-0.0182969,0.0010707,0.0259496,-0.0183228,0.0241939,0.0256868,0.0283026,1063,1674,3.59625,-17.4867
-154,-650,3.65857,17.6328,0.028668,-0.0194968,0.00207839,0.0287575,-0.0195863,0.0430451,0.0280782,0.0305863,1070,1674,3.65858,-17.6329
-147,-650,3.66223,17.7297,0.03066,-0.0205307,0.00320878,0.0308604,-0.020731,0.0623576,0.0299771,0.0427288,1077,1674,3.66227,-17.7298
-140,-650,2.57385,17.3413,0,0,0,0,0,0,0,-1,1084,1674,2.57391,-17.3413
-133,-650,3.09985,17.6127,0,0,0,0,0,0,0,-1,1091,1674,3.09988,-17.6127
-126,-650,3.80078,17.8174,0,0,0,0,0,0,0,-1,1098,1674,3.80081,-17.8174
-119,-650,4.92798,17.2285,0,0,0,0,0,0,0,-1,1105,1674,4.92803,-17.2285
-112,-650,3.86292,14.4513,0,0,0,0,0,0,0,-1,1112,1674,3.8629,-14.4513
-105,-650,4.9259,12.0626,0,0,0,0,0,0,0,-1,1119,1674,4.92591,-12.0626
-98,-650,3.3761,6.78003,0,0,0,0,0,0,0,-1,1126,1674,3.37611,-6.78009
-91,-650,3.66809,7.04443,0,0,0,0,0,0,0,-1,1133,1674,3.66806,-7.04439
-84,-650,-3.82666,-1.59521,0,0,0,0,0,0,0,-1,1140,1674,-3.82661,1.59517
-77,-650,-4.70557,1.90198,0,0,0,0,0,0,0,-1,1147,1674,-4.7056,-1.90194
-70,-650,-4.88171,3.81653,0,0,0,0,0,0,0,-1,1154,1674,-4.88176,-3.81651
-63,-650,-5.14612,5.56543,0,0,0,0,0,0,0,-1,1161,1674,-5.14612,-5.56547
-56,-650,-5.38367,7.41101,0,0,0,0,0,0,0,-1,1168,1674,-5.38361,-7.41102
-49,-650,-5.11316,8.23706,0,0,0,0,0,0,0,-1,1175,1674,-5.11317,-8.23708
-42,-650,-4.99487,9.6792,0,0,0,0,0,0,0,-1,1182,1674,-4.99484,-9.67921
-35,-650,-4.77771,11.3369,0,0,0,0,0,0,0,-1,1189,1674,-4.77769,-11.3369
-28,-650,-4.1936,13.1501,0,0,0,0,0,0,0,-1,1196,1674,-4.19358,-13.1501
-21,-650,2.5354,14.5704,0,0,0,0,0,0,0,-1,1203,1674,2.53541,-14.5704
-14,-650,3.72583,14.9296,0,0,0,0,0,0,0,-1,1210,1674,3.72586,-14.9295
-7,-650,5.27295,21.8984,0,0,0,0,0,0,0,-1,1217,1674,5.27291,-21.8985
0,-650,1.81165,18.8766,0,0,0,0,0,0,0,-1,1224,1674,1.81163,-18.8766
7,-650,4.24561,19.798,0.132717,-0.00888835,0.00864787,0.133243,-0.00941453,0.0607693,0.0921274,0.043152,1231,1674,4.24556,-19.7979
14,-650,5.35913,18.7839,0.122986,-0.000363271,0.0101031,0.123808,-0.00118529,0.081185,0.0829368,0.0400967,1238,1674,5.35915,-18.7839
21,-650,6.26416,18.8766,0.116044,0.00832961,0.0100792,0.116979,0.0073946,0.0925026,0.075642,0.0443237,1245,1674,6.26421,-18.8766
28,-650,6.79578,19.3015,0.115248,0.0158689,0.00773059,0.115846,0.0152712,0.0771705,0.0726767,0.0454937,1252,1674,6.79573,-19.3015
35,-650,7.40747,19.3126,0.116086,0.0209717,0.00482487,0.11633,0.0207276,0.0505542,0.0716506,0.0448664,1259,1674,7.40748,-19.3126
42,-650,6.98706,19.5203,0,0,0,0,0,0,0,-1,1266,1674,6.98711,-19.5203
49,-650,0.727539,19.8018,0.116656,0.0248077,-0.00111417,0.116669,0.0247942,-0.0121282,0.0709734,0.0436621,1273,1674,0.727559,-19.8017
56,-650,1.22046,19.7136,0.116581,0.0236076,-0.00412864,0.116764,0.0234246,-0.0442903,0.0713286,0.0459872,1280,1674,1.22044,-19.7136
63,-650,2.29993,19.4332,0.112499,0.0233477,-0.00506165,0.112786,0.0230612,-0.0565337,0.0688038,0.0472177,1287,1674,2.29988,-19.4332
70,-650,3.00183,18.7229,0,0,0,0,0,0,0,-1,1294,1674,3.00183,-18.723
77,-650,7.01685,19.6853,0,0,0,0,0,0,0,-1,1301,1674,7.01679,-19.6853
84,-650,5.79541,20.1128,0,0,0,0,0,0,0,-1,1308,1674,5.79546,-20.1128
91,-650,5.69641,19.6548,0.065553,0.00316252,-0.00385657,0.0657905,0.00292503,-0.0615014,0.0429186,0.0481092,1315,1674,5.69637,-19.6548
98,-650,5.60913,19.1942,0.0444408,-0.00121563,0.000674688,0.0444508,-0.00122559,0.0147732,0.0300507,0.0451186,1322,1674,5.60916,-19.1942
105,-650,5.58997,18.8021,0.0229528,-0.00665469,0.00628192,0.0242305,-0.00793241,0.200659,0.0193477,0.0457952,1329,1674,5.58995,-18.8022
112,-650,5.59485,18.3783,-0.000306673,-0.00985912,0.0111823,0.00707671,-0.0172425,0.583564,0.0144438,0.0459972,1336,1674,5.59489,-18.3784
119,-650,5.58447,18.025,-0.0244439,-0.0115608,0.0174206,0.000571068,-0.0365758,0.962485,0.0245764,0.0453739,1343,1674,5.58443,-18.025
126,-650,5.55176,17.6616,0,0,0,0,0,0,0,-1,1350,1674,5.5518,-17.6617
133,-650,4.38342,18.2424,-0.0632239,-0.0108464,0.0326255,0.00480115,-0.0788715,1.12359,0.0542522,0.0495424,1357,1674,4.3834,-18.2424
140,-650,3.09265,18.1465,-0.0770664,-0.00870313,0.0406065,0.0101932,-0.0959627,1.13525,0.0676294,0.0451381,1364,1674,3.09265,-18.1464
147,-650,1.61548,17.814,-0.0871247,-0.00443282,0.0477506,0.0173846,-0.108942,1.14222,0.0790626,0.0419448,1371,1674,1.61544,-17.8139
154,-650,1.71521,18.1434,0,0,0,0,0,0,0,-1,1378,1674,1.71518,-18.1434
161,-650,1.92163,18.5155,0,0,0,0,0,0,0,-1,1385,1674,1.92164,-18.5155
168,-650,11.2113,7.87231,0,0,0,0,0,0,0,-1,1392,1674,11.2113,-7.87236
175,-650,5.62537,-0.230713,0,0,0,0,0,0,0,-1,1399,1674,5.62538,0.230745
182,-650,5.56006,0.421631,0,0,0,0,0,0,0,-1,1406,1674,5.56,-0.421652
189,-650,4.81543,11.0654,0,0,0,0,0,0,0,-1,1413,1674,4.81542,-11.0654
196,-650,5.39575,11.9077,0,0,0,0,0,0,0,-1,1420,1674,5.39575,-11.9078
203,-650,3.93628,11.8215,0,0,0,0,0,0,0,-1,1427,1674,3.93624,-11.8216
210,-650,5.40955,8.08594,0,0,0,0,0,0,0,-1,1434,1674,5.40958,-8.086
217,-650,5.12451,4.69739,0,0,0,0,0,0,0,-1,1441,1674,5.12451,-4.69738
224,-650,4.79041,1.45813,0,0,0,0,0,0,0,-1,1448,1674,4.79046,-1.45816
231,-650,4.04102,-0.642212,0,0,0,0,0,0,0,-1,1455,1674,4.04101,0.642209
238,-650,3.23022,-1.43396,0,0,0,0,0,0,0,-1,1462,1674,3.23023,1.43394
245,-650,1.65894,-2.55042,0,0,0,0,0,0,0,-1,1469,1674,1.65889,2.55036
252,-650,8.75342,0.355103,0,0,0,0,0,0,0,-1,1476,1674,8.75337,-0.355147
259,-650,5.61255,3.17566,0,0,0,0,0,0,0,-1,1483,1674,5.61257,-3.17572
266,-650,4.00403,6.10229,0,0,0,0,0,0,0,-1,1490,1674,4.00401,-6.10225
273,-650,5.4093,14.3718,0,0,0,0,0,0,0,-1,1497,1674,5.40929,-14.3718
280,-650,5.93701,18.0781,0,0,0,0,0,0,0,-1,1504,1674,5.937,-18.0781
287,-650,5.86401,18.0623,0.0142903,-0.00574438,-0.00105081,0.0143453,-0.00579934,-0.0522585,0.0119743,0.0476686,1511,1674,5.86401,-18.0623
294,-650,6.23511,17.8979,0.0120795,-0.00480416,-0.000282986,0.0120843,-0.0048089,-0.0167546,0.0100503,0.0423415,1518,1674,6.23512,-17.8979
301,-650,6.25427,17.6697,0.0101561,-0.00392671,0.000424664,0.0101689,-0.0039395,0.0301182,0.00840602,0.0336555,1525,1674,6.25426,-17.6696
308,-650,6.32837,17.6942,0.00832918,-0.00279003,0.00094506,0.00840893,-0.00286978,0.0841888,0.00676847,0.0214868,1532,1674,6.32834,-17.6942
315,-650,6.32886,17.6143,0.00664515,-0.00190439,0.00125927,0.00682677,-0.00208601,0.143239,0.00538298,0.0122181,1539,1674,6.32882,-17.6143
322,-650,6.33594,17.474,0.00515993,-0.00108968,0.00139839,0.00545856,-0.00138831,0.210392,0.00417939,0.00998503,1546,1674,6.33589,-17.474
329,-650,6.34668,17.306,0.00392399,-0.000482121,0.00151239,0.00439315,-0.000951287,0.300802,0.003292,0.0157364,1553,1674,6.34664,-17.306
336,-650,6.32825,17.1865,0.00291702,-3.77149e-05,0.0014742,0.00352673,-0.000647423,0.392162,0.00259403,0.0145713,1560,1674,6.32819,-17.1865
343,-650,6.32935,17.0541,0.00195691,5.10613e-05,0.00145265,0.0027413,-0.00073333,0.495111,0.00211479,0.0145796,1567,1674,6.32932,-17.0541
350,-650,6.37537,16.8638,0.00141583,0.000167361,0.0011814,0.00212777,-0.000544588,0.542351,0.00163065,0.0164217,1574,1674,6.37536,-16.8637
357,-650,6.37695,16.6873,0.00108468,0.000190894,0.000886457,0.00163052,-0.000354947,0.551924,0.00122262,0.0134415,1581,1674,6.37691,-16.6873
364,-650,6.38232,16.5314,0.000881592,0.000146002,0.000518829,0.00114977,-0.000122172,0.477063,0.000810311,0.00941673,1588,1674,6.38233,-16.5313
371,-650,6.3728,16.3651,0.000742689,-4.39118e-06,0.000224996,0.000805217,-6.6919e-05,0.271067,0.000560451,0.0112437,1595,1674,6.37282,-16.3651
378,-650,6.36145,16.1949,0.000781749,-0.000105125,-2.64687e-05,0.000782539,-0.000105915,-0.0298095,0.000560344,0.0119347,1602,1674,6.36146,-16.195
385,-650,6.35535,16.0057,0.000935654,-0.000186496,-0.000436444,0.00108542,-0.000336258,-0.33055,0.00085795,0.0129483,1609,1674,6.35538,-16.0057
392,-650,6.36829,15.8151,0.00113713,-0.000382734,-0.000826365,0.00149986,-0.000745467,-0.413627,0.0013205,0.0166812,1616,1674,6.36823,-15.8151
399,-650,6.36975,15.6632,0.00127448,-0.000533454,-0.00104892,0.00175521,-0.00101419,-0.429744,0.00161788,0.0158916,1623,1674,6.36976,-15.6632
406,-650,6.36707,15.5007,0.00139895,-0.000876866,-0.00113893,0.00187101,-0.00134892,-0.392923,0.00186715,0.0148945,1630,1674,6.36707,-15.5007
413,-650,6.36572,15.3008,0.00133424,-0.00153149,-0.00119754,0.00176878,-0.00196604,-0.348087,0.0021573,0.0154333,1637,1674,6.36575,-15.3007
420,-650,6.3623,15.1112,0.000755945,-0.00229193,-0.00126056,0.00120973,-0.00274572,-0.345545,0.00234037,0.0152415,1644,1674,6.36225,-15.1112
427,-650,6.35498,14.9353,-0.000325655,-0.00313519,-0.00110382,5.61343e-05,-0.00351698,-0.333,0.00236359,0.0142004,1651,1674,6.35502,-14.9354
434,-650,6.35449,14.7402,-0.00114604,-0.00431401,-0.000968853,-0.000873229,-0.00458682,-0.274472,0.00281236,0.0167471,1658,1674,6.35447,-14.7402
441,-650,6.35986,14.5168,-0.00449304,-0.00549845,-0.000586939,-0.00422295,-0.00576854,-0.431275,0.00344797,0.0262055,1665,1674,6.35991,-14.5169
448,-650,6.27441,14.4606,-0.00947199,-0.00683699,-0.000117232,-0.00683179,-0.00947719,-1.52642,0.0056468,0.0427572,1672,1674,6.2744,-14.4606
455,-650,6.16187,14.4094,-0.0145715,-0.0085425,0.000129981,-0.0085397,-0.0145743,1.54925,0.00845579,0.0495877,1679,1674,6.16191,-14.4094
462,-650,6.2157,14.3691,-0.0206776,-0.0100329,0.000659922,-0.00999213,-0.0207184,1.50912,0.0119642,0.0471671,1686,1674,6.21568,-14.3692
469,-650,5.98267,13.9988,-0.0274468,-0.0114881,0.000889489,-0.0114387,-0.0274963,1.51529,0.0159495,0.0454364,1693,1674,5.98269,-13.9988
476,-650,5.61206,13.6119,-0.0348247,-0.0126803,0.000898472,-0.0126439,-0.0348611,1.53031,0.0203784,0.0486377,1700,1674,5.612,-13.6119
483,-650,5.12488,13.1473,0,0,0,0,0,0,0,-1,1707,1674,5.12488,-13.1473
490,-650,4.66724,12.7153,-0.0509629,-0.0145356,0.000811104,-0.0145175,-0.050981,1.54854,0.0303293,0.0489254,1714,1674,4.6672,-12.7153
497,-650,4.27173,12.4008,-0.0580161,-0.0146618,-4.62019e-05,-0.0146617,-0.0580162,-1.56973,0.0348344,0.0482464,1721,1674,4.27176,-12.4007
504,-650,4.06628,11.7836,-0.0637642,-0.0145111,-0.00157718,-0.0144606,-0.0638146,-1.53882,0.0386357,0.0459518,1728,1674,4.06624,-11.7836
511,-650,4.07861,10.9446,0,0,0,0,0,0,0,-1,1735,1674,4.07861,-10.9446
518,-650,0,0,0,0,0,0,0,0,0,-1,1742,1674,0,0
525,-650,0,0,0,0,0,0,0,0,0,-1,1749,1674,0,0
532,-650,0,0,0,0,0,0,0,0,0,-1,1756,1674,0,0
539,-650,0,0,0,0,0,0,0,0,0,-1,1763,1674,0,0
546,-650,0,0,0,0,0,0,0,0,0,-1,1770,1674,0,0
553,-650,0,0,0,0,0,0,0,0,0,-1,1777,1674,0,0
560,-650,0,0,0,0,0,0,0,0,0,-1,1784,1674,0,0
567,-650,0,0,0,0,0,0,0,0,0,-1,1791,1674,0,0
574,-650,0,0,0,0,0,0,0,0,0,-1,1798,1674,0,0
581,-650,0,0,0,0,0,0,0,0,0,-1,1805,1674,0,0
588,-650,0,0,0,0,0,0,0,0,0,-1,1812,1674,0,0
595,-650,0,0,0,0,0,0,0,0,0,-1,1819,1674,0,0
602,-650,0,0,0,0,0,0,0,0,0,-1,1826,1674,0,0
609,-650,0,0,0,0,0,0,0,0,0,-1,1833,1674,0,0
616,-650,0,0,0,0,0,0,0,0,0,-1,1840,1674,0,0
623,-650,0,0,0,0,0,0,0,0,0,-1,1847,1674,0,0
630,-650,0,0,0,0,0,0,0,0,0,-1,1854,1674,0,0
637,-650,0,0,0,0,0,0,0,0,0,-1,1861,1674,0,0
644,-650,0,0,0,0,0,0,0,0,0,-1,1868,1674,0,0
651,-650,0,0,0,0,0,0,0,0,0,-1,1875,1674,0,0
658,-650,0,0,0,0,0,0,0,0,0,-1,1882,1674,0,0
665,-650,0,0,0,0,0,0,0,0,0,-1,1889,1674,0,0
672,-650,0,0,0,0,0,0,0,0,0,-1,1896,1674,0,0
679,-650,0,0,0,0,0,0,0,0,0,-1,1903,1674,0,0
686,-650,0,0,0,0,0,0,0,0,0,-1,1910,1674,0,0
693,-650,0,0,0,0,0,0,0,0,0,-1,1917,1674,0,0
700,-650,0,0,0,0,0,0,0,0,0,-1,1924,1674,0,0
707,-650,0,0,0,0,0,0,0,0,0,-1,1931,1674,0,0
714,-650,0,0,0,0,0,0,0,0,0,-1,1938,1674,0,0
721,-650,0,0,0,0,0,0,0,0,0,-1,1945,1674,0,0
728,-650,0,0,0,0,0,0,0,0,0,-1,1952,1674,0,0
735,-650,0,0,0,0,0,0,0,0,0,-1,1959,1674,0,0
742,-650,0,0,0,0,0,0,0,0,0,-1,1966,1674,0,0
749,-650,0,0,0,0,0,0,0,0,0,-1,1973,1674,0,0
756,-650,0,0,0,0,0,0,0,0,0,-1,1980,1674,0,0
763,-650,0,0,0,0,0,0,0,0,0,-1,1987,1674,0,0
770,-650,0,0,0,0,0,0,0,0,0,-1,1994,1674,0,0
777,-650,0,0,0,0,0,0,0,0,0,-1,2001,1674,0,0
784,-650,0,0,0,0,0,0,0,0,0,-1,2008,1674,0,0
791,-650,0,0,0,0,0,0,0,0,0,-1,2015,1674,0,0
798,-650,0,0,0,0,0,0,0,0,0,-1,2022,1674,0,0
805,-650,0,0,0,0,0,0,0,0,0,-1,2029,1674,0,0
812,-650,0,0,0,0,0,0,0,0,0,-1,2036,1674,0,0
-700,-657,0,0,0,0,0,0,0,0,0,-1,524,1681,0,0
-693,-657,0,0,0,0,0,0,0,0,0,-1,531,1681,0,0
-686,-657,0,0,0,0,0,0,0,0,0,-1,538,1681,0,0
-679,-657,0,0,0,0,0,0,0,0,0,-1,545,1681,0,0
-672,-657,0,0,0,0,0,0,0,0,0,-1,552,1681,0,0
-665,-657,0,0,0,0,0,0,0,0,0,-1,559,1681,0,0
-658,-657,0,0,0,0,0,0,0,0,0,-1,566,1681,0,0
-651,-657,0,0,0,0,0,0,0,0,0,-1,573,1681,0,0
-644,-657,0,0,0,0,0,0,0,0,0,-1,580,1681,0,0
-637,-657,0,0,0,0,0,0,0,0,0,-1,587,1681,0,0
-630,-657,0,0,0,0,0,0,0,0,0,-1,594,1681,0,0
-623,-657,0,0,0,0,0,0,0,0,0,-1,601,1681,0,0
-616,-657,0,0,0,0,0,0,0,0,0,-1,608,1681,0,0
-609,-657,0,0,0,0,0,0,0,0,0,-1,615,1681,0,0
-602,-657,0,0,0,0,0,0,0,0,0,-1,622,1681,0,0
-595,-657,0,0,0,0,0,0,0,0,0,-1,629,1681,0,0
-588,-657,0,0,0,0,0,0,0,0,0,-1,636,1681,0,0
-581,-657,0,0,0,0,0,0,0,0,0,-1,643,1681,0,0
-574,-657,0,0,0,0,0,0,0,0,0,-1,650,1681,0,0
-567,-657,0,0,0,0,0,0,0,0,0,-1,657,1681,0,0
-560,-657,0,0,0,0,0,0,0,0,0,-1,664,1681,0,0
-553,-657,0,0,0,0,0,0,0,0,0,-1,671,1681,0,0
-546,-657,0,0,0,0,0,0,0,0,0,-1,678,1681,0,0
-539,-657,0,0,0,0,0,0,0,0,0,-1,685,1681,0,0
-532,-657,0,0,0,0,0,0,0,0,0,-1,692,1681,0,0
-525,-657,0,0,0,0,0,0,0,0,0,-1,699,1681,0,0
-518,-657,0,0,0,0,0,0,0,0,0,-1,706,1681,0,0
-511,-657,0,0,0,0,0,0,0,0,0,-1,713,1681,0,0
-504,-657,0,0,0,0,0,0,0,0,0,-1,720,1681,0,0
-497,-657,0,0,0,0,0,0,0,0,0,-1,727,1681,0,0
-490,-657,0,0,0,0,0,0,0,0,0,-1,734,1681,0,0
-483,-657,0,0,0,0,0,0,0,0,0,-1,741,1681,0,0
-476,-657,0,0,0,0,0,0,0,0,0,-1,748,1681,0,0
-469,-657,0,0,0,0,0,0,0,0,0,-1,755,1681,0,0
-462,-657,0,0,0,0,0,0,0,0,0,-1,762,1681,0,0
-455,-657,0,0,0,0,0,0,0,0,0,-1,769,1681,0,0
-448,-657,0,0,0,0,0,0,0,0,0,-1,776,1681,0,0
-441,-657,0,0,0,0,0,0,0,0,0,-1,783,1681,0,0
-434,-657,0,0,0,0,0,0,0,0,0,-1,790,1681,0,0
-427,-657,0,0,0,0,0,0,0,0,0,-1,797,1681,0,0
-420,-657,0,0,0,0,0,0,0,0,0,-1,804,1681,0,0
-413,-657,0,0,0,0,0,0,0,0,0,-1,811,1681,0,0
-406,-657,0,0,0,0,0,0,0,0,0,-1,818,1681,0,0
-399,-657,0,0,0,0,0,0,0,0,0,-1,825,1681,0,0
-392,-657,0,0,0,0,0,0,0,0,0,-1,832,1681,0,0
-385,-657,1.09814,6.18896,0,0,0,0,0,0,0,-1,839,1681,1.09814,-6.18894
-378,-657,0.31488,4.46753,0,0,0,0,0,0,0,-1,846,1681,0.31487,-4.46755
-371,-657,-0.519043,2.69421,0,0,0,0,0,0,0,-1,853,1681,-0.519064,-2.69422
-364,-657,-3.42017,4.18323,0,0,0,0,0,0,0,-1,860,1681,-3.42019,-4.18319
-357,-657,-4.41913,2.97168,0,0,0,0,0,0,0,-1,867,1681,-4.41913,-2.97165
-350,-657,-5.42291,1.70276,0,0,0,0,0,0,0,-1,874,1681,-5.42291,-1.70277
-343,-657,-6.51294,0.397339,0,0,0,0,0,0,0,-1,881,1681,-6.51295,-0.397335
-336,-657,3.52148,10.3204,0,0,0,0,0,0,0,-1,888,1681,3.52147,-10.3204
-329,-657,3.46869,11.6112,0,0,0,0,0,0,0,-1,895,1681,3.46867,-11.6112
-322,-657,4.07703,13.4011,0,0,0,0,0,0,0,-1,902,1681,4.07706,-13.4011
-315,-657,4.08331,13.6637,-0.00125816,-0.0371748,-0.0244708,0.0111368,-0.0495697,-0.46885,0.0373169,0.0446454,909,1681,4.08333,-13.6637
-308,-657,4.05774,13.86,-0.00108352,-0.0279927,-0.0208272,0.0102571,-0.0393332,-0.498616,0.030227,0.0370368,916,1681,4.05771,-13.86
-301,-657,3.84106,13.7301,-0.000476463,-0.0194652,-0.0172774,0.00974341,-0.0296851,-0.534158,0.0237147,0.0282008,923,1681,3.84107,-13.7301
-294,-657,3.76917,13.983,0.000379538,-0.0120856,-0.0140203,0.00949015,-0.0211963,-0.576246,0.0181414,0.0161933,930,1681,3.76916,-13.9831
-287,-657,3.7348,14.2002,0.00116622,-0.00614194,-0.0111804,0.00927454,-0.0142503,-0.627456,0.0136829,0.0117137,937,1681,3.73479,-14.2002
-280,-657,3.71991,14.4005,0.00163297,-0.0018048,-0.00880122,0.00888158,-0.00905341,-0.688962,0.0103549,0.0138225,944,1681,3.71988,-14.4005
-273,-657,3.72986,14.6162,0.00192511,0.00104436,-0.00674617,0.00824526,-0.0052758,-0.752806,0.00786889,0.0101876,951,1681,3.72986,-14.6162
-266,-657,3.69385,14.8187,0.00210264,0.00257643,-0.00504351,0.00738861,-0.00270953,-0.808866,0.00603518,0.0149668,958,1681,3.69386,-14.8187
-259,-657,3.68451,15.0117,0.00190358,0.0037341,-0.00342961,0.00636848,-0.000730796,-0.915795,0.00450904,0.0190965,965,1681,3.68452,-15.0118
-252,-657,3.68964,15.2028,0.00183492,0.00405928,-0.00204872,0.00527823,0.000615959,-1.03407,0.00333253,0.0123488,972,1681,3.68964,-15.2027
-245,-657,3.69342,15.4017,0.00181919,0.00305699,-0.00130951,0.00388648,0.000989696,-1.00615,0.00233217,0.014776,979,1681,3.69344,-15.4017
-238,-657,3.68323,15.6052,0.001699,0.00167675,-0.00094323,0.00263117,0.000744583,-0.779502,0.00156608,0.0194212,986,1681,3.68321,-15.6052
-231,-657,3.69836,15.782,0.00148927,0.000223861,-0.000840222,0.00190837,-0.000195237,-0.462682,0.00134207,0.0195159,993,1681,3.69835,-15.782
-224,-657,3.69647,15.9872,0.00128435,-0.00203998,-0.000480412,0.00135238,-0.00210801,-0.14068,0.00201367,0.0149508,1000,1681,3.69646,-15.9872
-217,-657,3.70184,16.1743,0.00158184,-0.00297495,-0.000447704,0.00162541,-0.00301852,-0.0970137,0.00272109,0.00991071,1007,1681,3.70184,-16.1743
-210,-657,3.7149,16.3397,0.00313014,-0.00419957,-0.000853192,0.00322814,-0.00429758,-0.114365,0.00435957,0.010686,1014,1681,3.71491,-16.3397
-203,-657,3.7251,16.5137,0.00508152,-0.00599198,-0.000757465,0.0051331,-0.00604355,-0.0679813,0.00645998,0.0127652,1021,1681,3.72507,-16.5137
-196,-657,3.73572,16.6815,0.00668376,-0.00674923,-0.000387466,0.00669493,-0.0067604,-0.0288124,0.00776847,0.0133589,1028,1681,3.73573,-16.6815
-189,-657,3.74414,16.8452,0.00864039,-0.00797381,-0.000343875,0.00864751,-0.00798093,-0.0206859,0.009603,0.00985535,1035,1681,3.74413,-16.8452
-182,-657,3.74194,16.9998,0.0108366,-0.00924588,-0.000213764,0.0108389,-0.00924816,-0.0106427,0.0116094,0.00828,1042,1681,3.74195,-16.9998
-175,-657,3.75757,17.1636,0.0132037,-0.010522,8.6855e-05,0.013204,-0.0105224,0.00366073,0.0137276,0.0101002,1049,1681,3.75754,-17.1635
-168,-657,3.74878,17.3309,0.0154886,-0.011685,0.000596711,0.0155017,-0.0116981,0.0219451,0.0157549,0.0125257,1056,1681,3.74873,-17.3309
-161,-657,3.7511,17.4609,0.0175081,-0.0128025,0.00127748,0.0175618,-0.0128562,0.042047,0.0176318,0.0119759,1063,1681,3.75108,-17.461
-154,-657,3.77551,17.6223,0.0193563,-0.0136394,0.00198359,0.0194751,-0.0137582,0.0598295,0.0192817,0.0114912,1070,1681,3.77557,-17.6223
-147,-657,3.78088,17.741,0.0207362,-0.0144047,0.0027225,0.0209459,-0.0146144,0.0768626,0.0206389,0.0166563,1077,1681,3.78084,-17.741
-140,-657,3.7478,17.8475,0.0217725,-0.0148426,0.00351303,0.0221065,-0.0151766,0.0947925,0.021649,0.027435,1084,1681,3.74786,-17.8476
-133,-657,3.73694,17.9541,0.0226007,-0.0154734,0.00424746,0.0230688,-0.0159415,0.10976,0.0226475,0.0357041,1091,1681,3.73694,-17.9541
-126,-657,3.95093,18.0133,0.0233352,-0.0158109,0.0052124,0.0240173,-0.0164931,0.130132,0.0235228,0.0396996,1098,1681,3.95098,-18.0133
-119,-657,4.1261,18.2404,0,0,0,0,0,0,0,-1,1105,1681,4.12604,-18.2404
-112,-657,4.31104,18.1472,0,0,0,0,0,0,0,-1,1112,1681,4.311,-18.1472
-105,-657,3.82434,14.4906,0,0,0,0,0,0,0,-1,1119,1681,3.8244,-14.4906
-98,-657,3.78662,8.16785,0,0,0,0,0,0,0,-1,1126,1681,3.78663,-8.16786
-91,-657,3.6521,16.6017,0,0,0,0,0,0,0,-1,1133,1681,3.65215,-16.6017
-84,-657,4.08008,10.4579,0,0,0,0,0,0,0,-1,1140,1681,4.08006,-10.4579
-77,-657,-5.29846,0.396606,0,0,0,0,0,0,0,-1,1147,1681,-5.29842,-0.396573
-70,-657,-4.14893,2.14575,0,0,0,0,0,0,0,-1,1154,1681,-4.14893,-2.1458
-63,-657,-4.1239,3.177,0,0,0,0,0,0,0,-1,1161,1681,-4.12391,-3.17698
-56,-657,-6.40576,5.73987,0,0,0,0,0,0,0,-1,1168,1681,-6.40577,-5.7399
-49,-657,-5.98462,7.54053,0,0,0,0,0,0,0,-1,1175,1681,-5.98466,-7.5405
-42,-657,-5.71948,9.28955,0,0,0,0,0,0,0,-1,1182,1681,-5.71951,-9.2895
-35,-657,-5.44556,11.015,0,0,0,0,0,0,0,-1,1189,1681,-5.44555,-11.015
-28,-657,-1.3446,8.92847,0,0,0,0,0,0,0,-1,1196,1681,-1.34459,-8.92848
-21,-657,2.90698,13.8916,0,0,0,0,0,0,0,-1,1203,1681,2.90693,-13.8916
-14,-657,4.71362,20.9183,0,0,0,0,0,0,0,-1,1210,1681,4.7136,-20.9183
-7,-657,4.76575,21.1323,0,0,0,0,0,0,0,-1,1217,1681,4.76577,-21.1324
0,-657,3.73596,19.8251,0,0,0,0,0,0,0,-1,1224,1681,3.73592,-19.8251
7,-657,4.37744,19.6749,0.107848,-0.006657,0.00674715,0.108244,-0.0070532,0.058654,0.0746251,0.0437501,1231,1681,4.37742,-19.6749
14,-657,5.20276,19.3356,0.100137,-0.000482366,0.00810595,0.100785,-0.0011312,0.0798744,0.0675705,0.0419887,1238,1681,5.2028,-19.3356
21,-657,5.75391,18.5934,0.0954417,0.00609332,0.00809265,0.0961688,0.00536625,0.0896024,0.0624008,0.0417973,1245,1681,5.75388,-18.5934
28,-657,6.32312,19.127,0.0953381,0.0118147,0.0067496,0.09588,0.0112728,0.0801181,0.0605134,0.0431075,1252,1681,6.32312,-19.127
35,-657,6.73499,19.203,0.0961681,0.0160809,0.00466332,0.0964387,0.0158103,0.0579669,0.0597241,0.0416902,1259,1681,6.73493,-19.203
42,-657,6.5498,19.0078,0,0,0,0,0,0,0,-1,1266,1681,6.54984,-19.0078
49,-657,0.579346,19.0038,0.096665,0.0192769,3.37739e-06,0.096665,0.0192769,4.36422e-05,0.0590755,0.0453079,1273,1681,0.579368,-19.0037
56,-657,0.523438,18.8472,0.0965505,0.0182086,-0.00248194,0.0966291,0.0181301,-0.0316385,0.0593071,0.0433731,1280,1681,0.523479,-18.8472
63,-657,2.29358,18.9852,0,0,0,0,0,0,0,-1,1287,1681,2.29361,-18.9853
70,-657,3.91296,20.2982,0.0880799,0.0144903,-0.00426701,0.0883265,0.0142437,-0.057726,0.0547574,0.0491274,1294,1681,3.91298,-20.2982
77,-657,7.9574,19.1443,0.0809879,0.00943629,-0.00511827,0.0813522,0.00907202,-0.0710504,0.0514779,0.0460328,1301,1681,7.95738,-19.1443
84,-657,5.57129,19.8531,0,0,0,0,0,0,0,-1,1308,1681,5.57133,-19.8532
91,-657,5.58008,19.7822,0.0543334,-6.29714e-05,-0.00307813,0.054507,-0.000236601,-0.0563473,0.0364171,0.0478623,1315,1681,5.58011,-19.7822
98,-657,5.56555,19.5797,0.0364728,-0.00400941,0.000390857,0.0364766,-0.00401318,0.00965382,0.0257599,0.0462034,1322,1681,5.56555,-19.5797
105,-657,5.47449,19.298,0.018254,-0.00891358,0.00499421,0.019143,-0.00980257,0.17616,0.0169993,0.0478456,1329,1681,5.47445,-19.298
112,-657,5.2688,18.1156,-0.00132427,-0.0116607,0.00894659,0.00383961,-0.0168245,0.523478,0.0126913,0.0464434,1336,1681,5.26882,-18.1156
119,-657,5.13794,17.9412,0,0,0,0,0,0,0,-1,1343,1681,5.13789,-17.9412
126,-657,5.15381,18.6016,0,0,0,0,0,0,0,-1,1350,1681,5.15386,-18.6016
133,-657,3.76062,18.4064,-0.0525217,-0.0115657,0.0260047,0.00105607,-0.0651434,1.11893,0.0437852,0.0496341,1357,1681,3.7606,-18.4064
140,-657,2.42114,18.3209,-0.0629129,-0.00922317,0.0322144,0.00586542,-0.0780014,1.13276,0.0540623,0.049778,1364,1681,2.42119,-18.321
147,-657,1.13135,18.2686,0,0,0,0,0,0,0,-1,1371,1681,1.13133,-18.2686
154,-657,0.638062,18.3845,0,0,0,0,0,0,0,-1,1378,1681,0.638075,-18.3846
161,-657,12.8524,6.43372,0,0,0,0,0,0,0,-1,1385,1681,12.8524,-6.43366
168,-657,5.21643,0.70105,0,0,0,0,0,0,0,-1,1392,1681,5.21648,-0.7011
175,-657,5.52771,0.649048,0,0,0,0,0,0,0,-1,1399,1681,5.52774,-0.649019
182,-657,5.73999,1.02612,0,0,0,0,0,0,0,-1,1406,1681,5.73995,-1.02611
189,-657,5.92126,1.44116,0,0,0,0,0,0,0,-1,1413,1681,5.92126,-1.44115
196,-657,4.92834,9.59021,0,0,0,0,0,0,0,-1,1420,1681,4.9284,-9.59018
203,-657,6.26343,5.16492,0,0,0,0,0,0,0,-1,1427,1681,6.26345,-5.16488
210,-657,3.9856,5.28088,0,0,0,0,0,0,0,-1,1434,1681,3.98555,-5.28084
217,-657,3.95178,5.2843,0,0,0,0,0,0,0,-1,1441,1681,3.95174,-5.28431
224,-657,6.66736,-0.250244,0,0,0,0,0,0,0,-1,1448,1681,6.66737,0.250229
231,-657,6.85498,-1.70752,0,0,0,0,0,0,0,-1,1455,1681,6.855,1.70758
238,-657,5.34143,-2.89819,0,0,0,0,0,0,0,-1,1462,1681,5.34143,2.89813
245,-657,8.66003,-0.102783,0,0,0,0,0,0,0,-1,1469,1681,8.66,0.102824
252,-657,4.78955,0.623779,0,0,0,0,0,0,0,-1,1476,1681,4.7895,-0.623826
259,-657,2.61523,4.31909,0,0,0,0,0,0,0,-1,1483,1681,2.61523,-4.31908
266,-657,5.35437,11.4742,0,0,0,0,0,0,0,-1,1490,1681,5.35441,-11.4742
273,-657,5.93787,17.9598,0,0,0,0,0,0,0,-1,1497,1681,5.93787,-17.9598
280,-657,5.93713,18.0536,0.0117239,-0.00602182,-0.00137362,0.0118296,-0.00612751,-0.076796,0.0105404,0.0383228,1504,1681,5.93714,-18.0536
287,-657,6.05579,18.0331,0.0104446,-0.00475007,-0.00067912,0.0104749,-0.00478037,-0.0445762,0.00900983,0.0311729,1511,1681,6.05581,-18.0331
294,-657,6.11841,17.972,0.0089742,-0.00400642,-0.000200897,0.00897731,-0.00400953,-0.0154717,0.00767863,0.0259779,1518,1681,6.11845,-17.972
301,-657,6.15601,17.8959,0.00757928,-0.00332197,0.000255684,0.00758528,-0.00332797,0.0234374,0.0064586,0.0168259,1525,1681,6.15602,-17.8959
308,-657,6.17151,17.7482,0.00619929,-0.00246747,0.000649205,0.00624765,-0.00251583,0.0743544,0.00521027,0.0112458,1532,1681,6.17155,-17.7481
315,-657,6.17786,17.5969,0.00500633,-0.00172722,0.000852573,0.0051126,-0.0018335,0.124009,0.00415662,0.0104194,1539,1681,6.17782,-17.5969
322,-657,6.19678,17.4447,0.00396088,-0.0010287,0.000927951,0.00412787,-0.00119569,0.17805,0.00322522,0.0127653,1546,1681,6.1968,-17.4447
329,-657,6.18872,17.3093,0.00308627,-0.000463003,0.000951164,0.0033251,-0.000701834,0.246007,0.00248395,0.0182625,1553,1681,6.1887,-17.3093
336,-657,6.17212,17.1819,0.00238602,-1.51898e-05,0.000866402,0.00266599,-0.000295161,0.312551,0.00188344,0.0168192,1560,1681,6.17215,-17.1818
343,-657,6.20508,17.0377,0.00174736,0.000236355,0.000775335,0.00207441,-9.06998e-05,0.399177,0.00141414,0.0141474,1567,1681,6.20509,-17.0377
350,-657,6.22192,16.8589,0.00144678,0.000430626,0.000462908,0.00162604,0.000251371,0.369456,0.00101071,0.0153174,1574,1681,6.22187,-16.8589
357,-657,6.20715,16.6901,0.00132243,0.000531468,0.000104456,0.001336,0.000517906,0.129113,0.000777801,0.0145815,1581,1681,6.2072,-16.6901
364,-657,6.2218,16.5328,0.00124825,0.000555567,-0.00028449,0.00135011,0.000453704,-0.343831,0.000793334,0.0111026,1588,1681,6.2218,-16.5329
371,-657,6.23071,16.3716,0.00116217,0.000440973,-0.000578229,0.00148302,0.000120117,-0.506593,0.000951176,0.0149911,1595,1681,6.23067,-16.3716
378,-657,6.20361,16.1962,0.00128529,0.000354357,-0.000845275,0.00178478,-0.000145137,-0.53372,0.00124107,0.0141756,1602,1681,6.20363,-16.1961
385,-657,6.18384,16.0072,0.00154593,0.000269198,-0.00126311,0.00232282,-0.000507697,-0.551423,0.00174261,0.0124583,1609,1681,6.18385,-16.0072
392,-657,6.18506,15.8477,0.00177634,6.36733e-05,-0.00164159,0.00277153,-0.000931514,-0.54499,0.00222419,0.0130486,1616,1681,6.18502,-15.8477
399,-657,6.1969,15.6713,0.0019183,-0.000258392,-0.00185454,0.00298026,-0.00132035,-0.520049,0.00254386,0.0131339,1623,1681,6.19696,-15.6712
406,-657,6.21375,15.5032,0.00203929,-0.000810468,-0.00189777,0.00298756,-0.00175873,-0.463386,0.00277072,0.0140451,1630,1681,6.21378,-15.5032
413,-657,6.21643,15.3026,0.00191792,-0.00175151,-0.00184461,0.00268489,-0.00251848,-0.394044,0.00300468,0.0140905,1637,1681,6.2164,-15.3026
420,-657,6.21826,15.0685,0.00127365,-0.00276217,-0.00189202,0.00202191,-0.00351043,-0.376606,0.0032324,0.0156111,1644,1681,6.21831,-15.0685
427,-657,6.17822,14.8446,-4.56655e-05,-0.00386761,-0.00171678,0.000612242,-0.00452552,-0.36596,0.00324043,0.0194746,1651,1681,6.17818,-14.8446
434,-657,6.23376,14.642,-0.00112166,-0.00538104,-0.00146856,-0.000664411,-0.00583829,-0.301845,0.00369071,0.0266836,1658,1681,6.23377,-14.642
441,-657,6.34741,14.584,-0.00552269,-0.00696344,-0.000998636,-0.00501172,-0.00747441,-0.47294,0.00439821,0.0436373,1665,1681,6.34735,-14.584
448,-657,5.9491,14.6704,0,0,0,0,0,0,0,-1,1672,1681,5.94907,-14.6704
455,-657,5.771,14.6179,0,0,0,0,0,0,0,-1,1679,1681,5.77101,-14.6179
462,-657,6.02136,14.6343,0,0,0,0,0,0,0,-1,1686,1681,6.02136,-14.6343
469,-657,6.11353,14.0625,0,0,0,0,0,0,0,-1,1693,1681,6.11352,-14.0625
476,-657,5.72485,13.6294,0,0,0,0,0,0,0,-1,1700,1681,5.72481,-13.6294
483,-657,4.82898,13.2468,0,0,0,0,0,0,0,-1,1707,1681,4.82893,-13.2468
490,-657,4.19885,13.1021,-0.0642212,-0.0194298,0.00200188,-0.0193405,-0.0643105,1.52622,0.0380999,0.0488297,1714,1681,4.19881,-13.102
497,-657,3.43188,12.5037,-0.0729178,-0.0199303,0.00150896,-0.0198873,-0.0729607,1.54235,0.0435522,0.0496429,1721,1681,3.43183,-12.5037
504,-657,0,0,0,0,0,0,0,0,0,-1,1728,1681,0,0
511,-657,0,0,0,0,0,0,0,0,0,-1,1735,1681,0,0
518,-657,0,0,0,0,0,0,0,0,0,-1,1742,1681,0,0
525,-657,0,0,0,0,0,0,0,0,0,-1,1749,1681,0,0
532,-657,0,0,0,0,0,0,0,0,0,-1,1756,1681,0,0
539,-657,0,0,0,0,0,0,0,0,0,-1,1763,1681,0,0
546,-657,0,0,0,0,0,0,0,0,0,-1,1770,1681,0,0
553,-657,0,0,0,0,0,0,0,0,0,-1,1777,1681,0,0
560,-657,0,0,0,0,0,0,0,0,0,-1,1784,1681,0,0
567,-657,0,0,0,0,0,0,0,0,0,-1,1791,1681,0,0
574,-657,0,0,0,0,0,0,0,0,0,-1,1798,1681,0,0
581,-657,0,0,0,0,0,0,0,0,0,-1,1805,1681,0,0
588,-657,0,0,0,0,0,0,0,0,0,-1,1812,1681,0,0
595,-657,0,0,0,0,0,0,0,0,0,-1,1819,1681,0,0
602,-657,0,0,0,0,0,0,0,0,0,-1,1826,1681,0,0
609,-657,0,0,0,0,0,0,0,0,0,-1,1833,1681,0,0
616,-657,0,0,0,0,0,0,0,0,0,-1,1840,1681,0,0
623,-657,0,0,0,0,0,0,0,0,0,-1,1847,1681,0,0
630,-657,0,0,0,0,0,0,0,0,0,-1,1854,1681,0,0
637,-657,0,0,0,0,0,0,0,0,0,-1,1861,1681,0,0
644,-657,0,0,0,0,0,0,0,0,0,-1,1868,1681,0,0
651,-657,0,0,0,0,0,0,0,0,0,-1,1875,1681,0,0
658,-657,0,0,0,0,0,0,0,0,0,-1,1882,1681,0,0
665,-657,0,0,0,0,0,0,0,0,0,-1,1889,1681,0,0
672,-657,0,0,0,0,0,0,0,0,0,-1,1896,1681,0,0
679,-657,0,0,0,0,0,0,0,0,0,-1,1903,1681,0,0
686,-657,0,0,0,0,0,0,0,0,0,-1,1910,1681,0,0
693,-657,0,0,0,0,0,0,0,0,0,-1,1917,1681,0,0
700,-657,0,0,0,0,0,0,0,0,0,-1,1924,1681,0,0
707,-657,0,0,0,0,0,0,0,0,0,-1,1931,1681,0,0
714,-657,0,0,0,0,0,0,0,0,0,-1,1938,1681,0,0
721,-657,0,0,0,0,0,0,0,0,0,-1,1945,1681,0,0
728,-657,0,0,0,0,0,0,0,0,0,-1,1952,1681,0,0
735,-657,0,0,0,0,0,0,0,0,0,-1,1959,1681,0,0
742,-657,0,0,0,0,0,0,0,0,0,-1,1966,1681,0,0
749,-657,0,0,0,0,0,0,0,0,0,-1,1973,1681,0,0
756,-657,0,0,0,0,0,0,0,0,0,-1,1980,1681,0,0
763,-657,0,0,0,0,0,0,0,0,0,-1,1987,1681,0,0
770,-657,0,0,0,0,0,0,0,0,0,-1,1994,1681,0,0
777,-657,0,0,0,0,0,0,0,0,0,-1,2001,1681,0,0
784,-657,0,0,0,0,0,0,0,0,0,-1,2008,1681,0,0
791,-657,0,0,0,0,0,0,0,0,0,-1,2015,1681,0,0
798,-657,0,0,0,0,0,0,0,0,0,-1,2022,1681,0,0
805,-657,0,0,0,0,0,0,0,0,0,-1,2029,1681,0,0
812,-657,0,0,0,0,0,0,0,0,0,-1,2036,1681,0,0
-700,-664,0,0,0,0,0,0,0,0,0,-1,524,1688,0,0
-693,-664,0,0,0,0,0,0,0,0,0,-1,531,1688,0,0
-686,-664,0,0,0,0,0,0,0,0,0,-1,538,1688,0,0
-679,-664,0,0,0,0,0,0,0,0,0,-1,545,1688,0,0
-672,-664,0,0,0,0,0,0,0,0,0,-1,552,1688,0,0
-665,-664,0,0,0,0,0,0,0,0,0,-1,559,1688,0,0
-658,-664,0,0,0,0,0,0,0,0,0,-1,566,1688,0,0
-651,-664,0,0,0,0,0,0,0,0,0,-1,573,1688,0,0
-644,-664,0,0,0,0,0,0,0,0,0,-1,580,1688,0,0
-637,-664,0,0,0,0,0,0,0,0,0,-1,587,1688,0,0
-630,-664,0,0,0,0,0,0,0,0,0,-1,594,1688,0,0
-623,-664,0,0,0,0,0,0,0,0,0,-1,601,1688,0,0
-616,-664,0,0,0,0,0,0,0,0,0,-1,608,1688,0,0
-609,-664,0,0,0,0,0,0,0,0,0,-1,615,1688,0,0
-602,-664,0,0,0,0,0,0,0,0,0,-1,622,1688,0,0
-595,-664,0,0,0,0,0,0,0,0,0,-1,629,1688,0,0
-588,-664,0,0,0,0,0,0,0,0,0,-1,636,1688,0,0
-581,-664,0,0,0,0,0,0,0,0,0,-1,643,1688,0,0
-574,-664,0,0,0,0,0,0,0,0,0,-1,650,1688,0,0
-567,-664,0,0,0,0,0,0,0,0,0,-1,657,1688,0,0
-560,-664,0,0,0,0,0,0,0,0,0,-1,664,1688,0,0
-553,-664,0,0,0,0,0,0,0,0,0,-1,671,1688,0,0
-546,-664,0,0,0,0,0,0,0,0,0,-1,678,1688,0,0
-539,-664,0,0,0,0,0,0,0,0,0,-1,685,1688,0,0
-532,-664,0,0,0,0,0,0,0,0,0,-1,692,1688,0,0
-525,-664,0,0,0,0,0,0,0,0,0,-1,699,1688,0,0
-518,-664,0,0,0,0,0,0,0,0,0,-1,706,1688,0,0
-511,-664,0,0,0,0,0,0,0,0,0,-1,713,1688,0,0
-504,-664,0,0,0,0,0,0,0,0,0,-1,720,1688,0,0
-497,-664,0,0,0,0,0,0,0,0,0,-1,727,1688,0,0
-490,-664,0,0,0,0,0,0,0,0,0,-1,734,1688,0,0
-483,-664,0,0,0,0,0,0,0,0,0,-1,741,1688,0,0
-476,-664,0,0,0,0,0,0,0,0,0,-1,748,1688,0,0
-469,-664,0,0,0,0,0,0,0,0,0,-1,755,1688,0,0
-462,-664,0,0,0,0,0,0,0,0,0,-1,762,1688,0,0
-455,-664,0,0,0,0,0,0,0,0,0,-1,769,1688,0,0
-448,-664,0,0,0,0,0,0,0,0,0,-1,776,1688,0,0
-441,-664,0,0,0,0,0,0,0,0,0,-1,783,1688,0,0
-434,-664,0,0,0,0,0,0,0,0,0,-1,790,1688,0,0
-427,-664,0,0,0,0,0,0,0,0,0,-1,797,1688,0,0
-420,-664,0,0,0,0,0,0,0,0,0,-1,804,1688,0,0
-413,-664,0,0,0,0,0,0,0,0,0,-1,811,1688,0,0
-406,-664,0,0,0,0,0,0,0,0,0,-1,818,1688,0,0
-399,-664,0,0,0,0,0,0,0,0,0,-1,825,1688,0,0
-392,-664,0,0,0,0,0,0,0,0,0,-1,832,1688,0,0
-385,-664,0,0,0,0,0,0,0,0,0,-1,839,1688,0,0
-378,-664,0,0,0,0,0,0,0,0,0,-1,846,1688,0,0
-371,-664,-1.61676,5.92737,0,0,0,0,0,0,0,-1,853,1688,-1.61675,-5.92735
-364,-664,-3.901,5.87024,0,0,0,0,0,0,0,-1,860,1688,-3.90097,-5.87027
-357,-664,-4.81012,4.53479,0,0,0,0,0,0,0,-1,867,1688,-4.81012,-4.5348
-350,-664,-5.7193,3.19934,0,0,0,0,0,0,0,-1,874,1688,-5.71927,-3.19932
-343,-664,-6.37476,1.54712,0,0,0,0,0,0,0,-1,881,1688,-6.37479,-1.54714
-336,-664,3.33313,10.5156,0,0,0,0,0,0,0,-1,888,1688,3.33311,-10.5156
-329,-664,3.43506,10.6934,0,0,0,0,0,0,0,-1,895,1688,3.43506,-10.6934
-322,-664,3.7356,11.8364,0,0,0,0,0,0,0,-1,902,1688,3.73561,-11.8365
-315,-664,4.58044,14.1232,0,0,0,0,0,0,0,-1,909,1688,4.58043,-14.1232
-308,-664,4.62781,14.3187,0.000325546,-0.0397629,-0.0290892,0.0156077,-0.055045,-0.483725,0.0428573,0.0454327,916,1688,4.62779,-14.3187
-301,-664,4.14368,13.6868,0.000984096,-0.0272082,-0.0241344,0.0148373,-0.0410614,-0.521086,0.033436,0.0449047,923,1688,4.14368,-13.6868
-294,-664,4.09723,13.9794,0.00190575,-0.0164017,-0.0196522,0.0144315,-0.0289275,-0.567446,0.0254954,0.0430416,930,1688,4.09722,-13.9793
-287,-664,3.96277,14.2473,0.00274414,-0.00776575,-0.0157708,0.0141125,-0.0191341,-0.62458,0.0192678,0.030617,937,1688,3.96277,-14.2473
-280,-664,3.88599,14.4277,0.00310771,-0.00153445,-0.0125086,0.0135088,-0.0119355,-0.693662,0.0146996,0.0201946,944,1688,3.88597,-14.4277
-273,-664,3.91187,14.5892,0.00320476,0.00239661,-0.00961546,0.0124246,-0.00682326,-0.764399,0.0112685,0.0161249,951,1688,3.91189,-14.5892
-266,-664,3.8559,14.7891,0.00315447,0.00436213,-0.00724555,0.011029,-0.00351237,-0.826971,0.00876135,0.0219995,958,1688,3.85589,-14.7891
-259,-664,3.86194,15.0078,0.0026417,0.00596226,-0.00501395,0.00958366,-0.000979702,-0.945282,0.00673945,0.0191289,965,1688,3.86196,-15.0079
-252,-664,3.90533,15.2189,0.00236431,0.00643354,-0.00309776,0.00810511,0.000692745,-1.07597,0.00518793,0.0158558,972,1688,3.90535,-15.2189
-245,-664,3.8736,15.41,0.00217074,0.00519945,-0.00202487,0.0062136,0.00115659,-1.10647,0.00381576,0.019751,979,1688,3.87362,-15.4101
-238,-664,3.89502,15.6201,0.00182684,0.00347765,-0.00146735,0.00433582,0.000968675,-1.0416,0.00262785,0.0225967,986,1688,3.89502,-15.6201
-231,-664,3.9068,15.8199,0.0014298,0.00174653,-0.00119302,0.00279165,0.000384677,-0.851382,0.00174705,0.0186738,993,1688,3.90677,-15.82
-224,-664,3.90021,16.0031,0.000955855,-0.00129284,-0.000590983,0.00110171,-0.0014387,-0.241967,0.001471,0.0126605,1000,1688,3.90023,-16.003
-217,-664,3.89441,16.1719,0.000887912,-0.00233819,-0.000457752,0.000951605,-0.00240188,-0.138256,0.00199558,0.0104556,1007,1688,3.8944,-16.1719
-210,-664,3.89362,16.343,0.00183345,-0.00335128,-0.00062351,0.00190738,-0.0034252,-0.118017,0.00312006,0.0115628,1014,1688,3.89362,-16.343
-203,-664,3.8761,16.5134,0.00322816,-0.00447425,-0.000448903,0.00325424,-0.00450032,-0.058019,0.00449632,0.0131481,1021,1688,3.87612,-16.5134
-196,-664,3.88367,16.6619,0.00443193,-0.00492045,-0.000111989,0.00443327,-0.00492179,-0.0119721,0.0054036,0.0136231,1028,1688,3.88362,-16.6618
-189,-664,3.9021,16.8313,0.00577263,-0.0056748,-2.05446e-05,0.00577267,-0.00567484,-0.00179468,0.0066093,0.00961886,1035,1688,3.90206,-16.8314
-182,-664,3.91235,16.9991,0.00722408,-0.00647471,0.000110115,0.00722497,-0.0064756,0.00803762,0.00791397,0.00917099,1042,1688,3.91238,-16.9991
-175,-664,3.9187,17.1399,0.00884474,-0.007292,0.000344271,0.00885208,-0.00729934,0.0213217,0.00933938,0.0123162,1049,1688,3.91874,-17.1399
-168,-664,3.91968,17.2997,0.0103285,-0.00804071,0.000697866,0.010355,-0.00806719,0.0379182,0.0106633,0.0139916,1056,1688,3.91973,-17.2997
-161,-664,3.91699,17.4396,0.0116103,-0.00877799,0.00119542,0.0116801,-0.00884784,0.0583662,0.0118894,0.00998852,1063,1688,3.91703,-17.4396
-154,-664,3.9342,17.5958,0.0128175,-0.00932398,0.0016721,0.0129431,-0.00944954,0.0749524,0.0129807,0.00892249,1070,1688,3.93426,-17.5958
-147,-664,3.93298,17.7418,0.0137583,-0.00985538,0.00213603,0.01395,-0.010047,0.0894895,0.0139156,0.00974053,1077,1688,3.93294,-17.7419
-140,-664,3.94336,17.8818,0.0144393,-0.0101336,0.00262742,0.0147171,-0.0104114,0.105337,0.0145787,0.0106386,1084,1688,3.94337,-17.8818
-133,-664,3.96851,18.0227,0.0149749,-0.0105869,0.00309135,0.0153434,-0.0109554,0.118658,0.0152539,0.012066,1091,1688,3.96845,-18.0227
-126,-664,4.07446,18.1442,0.015514,-0.0107742,0.00373766,0.0160351,-0.0112953,0.138523,0.0158581,0.0215467,1098,1688,4.0745,-18.1442
-119,-664,4.22412,18.1929,0.0159877,-0.0105388,0.00443676,0.0167101,-0.0112612,0.161407,0.0162511,0.0354407,1105,1688,4.22411,-18.1929
-112,-664,4.31995,18.2946,0.0158212,-0.0106223,0.00505509,0.0167546,-0.0115557,0.182592,0.0164366,0.0465515,1112,1688,4.31989,-18.2946
-105,-664,4.15063,18.2529,0,0,0,0,0,0,0,-1,1119,1688,4.15069,-18.253
-98,-664,4.1123,17.1851,0,0,0,0,0,0,0,-1,1126,1688,4.11232,-17.1851
-91,-664,3.7981,16.9382,0,0,0,0,0,0,0,-1,1133,1688,3.79811,-16.9382
-84,-664,3.48389,16.6913,0,0,0,0,0,0,0,-1,1140,1688,3.4839,-16.6913
-77,-664,4.52014,11.2122,0,0,0,0,0,0,0,-1,1147,1688,4.5202,-11.2122
-70,-664,4.20374,8.24524,0,0,0,0,0,0,0,-1,1154,1688,4.20379,-8.24519
-63,-664,-4.677,2.40503,0,0,0,0,0,0,0,-1,1161,1688,-4.67702,-2.40498
-56,-664,-4.66504,3.32727,0,0,0,0,0,0,0,-1,1168,1688,-4.6651,-3.32724
-49,-664,-2.54297,3.31848,0,0,0,0,0,0,0,-1,1175,1688,-2.54297,-3.31852
-42,-664,-0.359253,4.38684,0,0,0,0,0,0,0,-1,1182,1688,-0.359261,-4.38685
-35,-664,-0.705566,3.55017,0,0,0,0,0,0,0,-1,1189,1688,-0.705567,-3.55023
-28,-664,-1.54236,10.2538,0,0,0,0,0,0,0,-1,1196,1688,-1.54236,-10.2538
-21,-664,2.65613,14.3899,0,0,0,0,0,0,0,-1,1203,1688,2.6561,-14.3899
-14,-664,4.18042,20.1932,0,0,0,0,0,0,0,-1,1210,1688,4.18047,-20.1932
-7,-664,4.24316,20.3318,0,0,0,0,0,0,0,-1,1217,1688,4.24316,-20.3318
0,-664,4.05457,19.8663,0,0,0,0,0,0,0,-1,1224,1688,4.05458,-19.8663
7,-664,4.573,19.7338,0.0849924,-0.00530385,0.0054441,0.0853194,-0.0056309,0.0600018,0.0588465,0.0462266,1231,1688,4.57305,-19.7337
14,-664,5.47156,19.3331,0.0791454,-0.000888287,0.00663637,0.0796919,-0.00143484,0.0821719,0.0536126,0.0457305,1238,1688,5.47159,-19.3331
21,-664,6.08948,19.1259,0,0,0,0,0,0,0,-1,1245,1688,6.08948,-19.1259
28,-664,5.83337,18.9076,0.0766882,0.0080191,0.00597279,0.0772038,0.00750347,0.0861175,0.0491593,0.0439765,1252,1688,5.83337,-18.9076
35,-664,6.20154,18.9191,0.077435,0.0113828,0.00456106,0.0777484,0.0110694,0.0686184,0.0485648,0.045449,1259,1688,6.20154,-18.9191
42,-664,6.33826,18.9821,0.077768,0.0134033,0.00282787,0.077892,0.0132793,0.0438225,0.0481163,0.0453169,1266,1688,6.33828,-18.9821
49,-664,6.69971,18.9817,0.0778216,0.013954,0.000988666,0.0778369,0.0139387,0.015475,0.0479255,0.0453118,1273,1688,6.69972,-18.9817
56,-664,7.12195,18.9723,0,0,0,0,0,0,0,-1,1280,1688,7.12196,-18.9723
63,-664,4.4469,20.0212,0,0,0,0,0,0,0,-1,1287,1688,4.44684,-20.0212
70,-664,4.20593,20.4072,0.0710606,0.00988182,-0.00258901,0.07117,0.00977245,-0.0422182,0.0445479,0.0470403,1294,1688,4.20589,-20.4072
77,-664,5.89441,19.5392,0.0655251,0.00543241,-0.00341156,0.0657182,0.00523935,-0.0565294,0.0421743,0.0456909,1301,1688,5.89439,-19.5392
84,-664,5.84485,19.5344,0,0,0,0,0,0,0,-1,1308,1688,5.84483,-19.5344
91,-664,5.5647,19.7595,0.0441154,-0.00262384,-0.00227943,0.0442263,-0.00273474,-0.0486152,0.0304368,0.0454552,1315,1688,5.56473,-19.7595
98,-664,5.46704,19.7067,0.0296375,-0.00602998,0.000239663,0.0296391,-0.00603159,0.00671897,0.0220467,0.0478878,1322,1688,5.46709,-19.7067
105,-664,5.29041,19.4702,0.0148606,-0.0102942,0.00387777,0.0154448,-0.0108784,0.149533,0.0152737,0.0493526,1329,1688,5.29042,-19.4703
112,-664,5.16882,19.2803,0,0,0,0,0,0,0,-1,1336,1688,5.16882,-19.2803
119,-664,5.05273,19.2545,0,0,0,0,0,0,0,-1,1343,1688,5.05279,-19.2545
126,-664,4.98328,18.8821,0,0,0,0,0,0,0,-1,1350,1688,4.98333,-18.8821
133,-664,4.88647,18.5745,0,0,0,0,0,0,0,-1,1357,1688,4.88649,-18.5745
140,-664,1.65808,18.4731,0,0,0,0,0,0,0,-1,1364,1688,1.65804,-18.4732
147,-664,0.767212,18.4705,0,0,0,0,0,0,0,-1,1371,1688,0.767185,-18.4705
154,-664,13.5482,5.89453,0,0,0,0,0,0,0,-1,1378,1688,13.5482,-5.8945
161,-664,4.60132,1.56238,0,0,0,0,0,0,0,-1,1385,1688,4.60134,-1.56233
168,-664,5.172,1.25488,0,0,0,0,0,0,0,-1,1392,1688,5.17203,-1.25484
175,-664,5.58313,1.16467,0,0,0,0,0,0,0,-1,1399,1688,5.58317,-1.16466
182,-664,5.74268,1.41113,0,0,0,0,0,0,0,-1,1406,1688,5.74263,-1.41115
189,-664,5.87744,1.87061,0,0,0,0,0,0,0,-1,1413,1688,5.87745,-1.87065
196,-664,6.7594,5.97473,0,0,0,0,0,0,0,-1,1420,1688,6.75943,-5.97478
203,-664,5.38452,5.22034,0,0,0,0,0,0,0,-1,1427,1688,5.38453,-5.2203
210,-664,5.25549,6.45715,0,0,0,0,0,0,0,-1,1434,1688,5.25549,-6.45721
217,-664,5.72009,6.73975,0,0,0,0,0,0,0,-1,1441,1688,5.72014,-6.73972
224,-664,5.05725,7.42908,0,0,0,0,0,0,0,-1,1448,1688,5.05723,-7.42912
231,-664,5.13318,7.60864,0,0,0,0,0,0,0,-1,1455,1688,5.13313,-7.60862
238,-664,4.23193,6.45471,0,0,0,0,0,0,0,-1,1462,1688,4.23197,-6.45476
245,-664,4.42004,6.80896,0,0,0,0,0,0,0,-1,1469,1688,4.4201,-6.80901
252,-664,3.67346,6.85461,0,0,0,0,0,0,0,-1,1476,1688,3.6734,-6.85462
259,-664,4.55823,11.7435,0,0,0,0,0,0,0,-1,1483,1688,4.55826,-11.7435
266,-664,5.81079,18.1378,0,0,0,0,0,0,0,-1,1490,1688,5.8108,-18.1378
273,-664,5.80396,18.1737,0.00878271,-0.00565081,-0.00125805,0.00889154,-0.00575964,-0.0862947,0.00852304,0.0376015,1497,1688,5.80398,-18.1737
280,-664,5.90344,18.1792,0.00839273,-0.00502992,-0.000918343,0.00845527,-0.00509246,-0.0679951,0.0079017,0.0226632,1504,1688,5.90339,-18.1792
287,-664,5.92236,18.0879,0.00756077,-0.0039527,-0.000535708,0.00758565,-0.00397757,-0.0463952,0.0067835,0.019901,1511,1688,5.92232,-18.0879
294,-664,6.00024,17.9976,0.00658237,-0.00330562,-0.00022343,0.00658742,-0.00331067,-0.0225807,0.00581811,0.0144171,1518,1688,6.00027,-17.9976
301,-664,6.0282,17.8868,0.0056118,-0.00271834,8.85336e-05,0.00561274,-0.00271928,0.0106265,0.00490623,0.00967679,1525,1688,6.02823,-17.8868
308,-664,6.0376,17.736,0.0046363,-0.00197812,0.000348818,0.00465464,-0.00199646,0.0525418,0.00394092,0.00970321,1532,1688,6.03765,-17.7359
315,-664,6.03833,17.5874,0.00378912,-0.00134181,0.000494913,0.00383643,-0.00138911,0.0952861,0.00312531,0.0113392,1539,1688,6.03833,-17.5874
322,-664,6.05652,17.4641,0.00306525,-0.000739268,0.00054116,0.00314073,-0.000814746,0.13858,0.00241172,0.0148109,1546,1688,6.05652,-17.4641
329,-664,6.03821,17.3287,0.00246223,-0.000235247,0.000496818,0.00255082,-0.000323841,0.176467,0.00181814,0.0160278,1553,1688,6.03826,-17.3288
336,-664,6.03381,17.1689,0.00200339,0.000182136,0.000373147,0.00207688,0.000108649,0.19445,0.00134983,0.0141034,1560,1688,6.03382,-17.1689
343,-664,6.05371,17.0137,0.0016366,0.000486699,0.000225848,0.00167937,0.000443932,0.187147,0.00100484,0.0117212,1567,1688,6.05369,-17.0137
350,-664,6.05042,16.8683,0.00154768,0.000667697,-0.000118935,0.00156347,0.000651906,-0.132002,0.00090681,0.0125768,1574,1688,6.05039,-16.8682
357,-664,6.03369,16.7014,0.00161835,0.000770656,-0.000541666,0.00188229,0.000506718,-0.453413,0.00112467,0.0125694,1581,1688,6.0337,-16.7015
364,-664,6.0509,16.5322,0.00167103,0.000802716,-0.00095964,0.00229015,0.000183592,-0.572967,0.0014694,0.0105696,1588,1688,6.05093,-16.5322
371,-664,6.07837,16.3683,0.00164985,0.000675617,-0.00125792,0.00251167,-0.00018621,-0.60067,0.00173984,0.0131456,1595,1688,6.0784,-16.3682
378,-664,6.05859,16.1843,0.00187218,0.00053781,-0.00155122,0.00289361,-0.000483618,-0.582305,0.00210885,0.0122328,1602,1688,6.05856,-16.1844
385,-664,6.02942,16.0121,0.00224775,0.000442837,-0.00200638,0.00354529,-0.000854703,-0.574057,0.00269401,0.0131592,1609,1688,6.02941,-16.0121
392,-664,5.99902,15.8718,0.00252519,0.000276843,-0.0024145,0.00406439,-0.00126236,-0.567526,0.00321411,0.0162023,1616,1688,5.99905,-15.8718
399,-664,6.021,15.6857,0.00268001,-0.000213525,-0.0026303,0.00423518,-0.0017687,-0.533962,0.00356251,0.0135641,1623,1688,6.02097,-15.6856
406,-664,6.05432,15.4973,0.00281068,-0.00096182,-0.002657,0.0041829,-0.00233404,-0.476723,0.00381269,0.012904,1630,1688,6.05427,-15.4974
413,-664,6.06543,15.2738,0.00265709,-0.00217552,-0.00252174,0.00373331,-0.00325174,-0.403374,0.00403601,0.0138341,1637,1688,6.06544,-15.2738
420,-664,6.03699,15.0488,0.00195245,-0.00343788,-0.00259837,0.003001,-0.00448644,-0.383557,0.00435114,0.0299317,1644,1688,6.03695,-15.0489
427,-664,5.96667,14.8336,0.000361996,-0.00482667,-0.00247454,0.0013529,-0.00581757,-0.380884,0.00439924,0.0460418,1651,1688,5.96671,-14.8336
434,-664,6.44458,14.6001,-0.000984241,-0.00663301,-0.00220128,-0.000227736,-0.00738951,-0.331021,0.00485221,0.0426479,1658,1688,6.44458,-14.6001
441,-664,6.46741,14.5833,-0.00657882,-0.00867135,-0.00175842,-0.00557894,-0.00967123,-0.517029,0.00560563,0.0474478,1665,1688,6.46736,-14.5833
448,-664,6.72021,14.6824,0,0,0,0,0,0,0,-1,1672,1688,6.72025,-14.6823
455,-664,7.53198,11.3838,0,0,0,0,0,0,0,-1,1679,1688,7.53195,-11.3838
462,-664,4.3147,4.25439,0,0,0,0,0,0,0,-1,1686,1688,4.31467,-4.25435
469,-664,6.05469,7.49341,0,0,0,0,0,0,0,-1,1693,1688,6.05474,-7.49339
476,-664,9.76514,11.5648,0,0,0,0,0,0,0,-1,1700,1688,9.76511,-11.5648
483,-664,8.41895,10.9768,0,0,0,0,0,0,0,-1,1707,1688,8.41897,-10.9769
490,-664,3.90771,13.2842,0,0,0,0,0,0,0,-1,1714,1688,3.90776,-13.2841
497,-664,0,0,0,0,0,0,0,0,0,-1,1721,1688,0,0
504,-664,0,0,0,0,0,0,0,0,0,-1,1728,1688,0,0
511,-664,0,0,0,0,0,0,0,0,0,-1,1735,1688,0,0
518,-664,0,0,0,0,0,0,0,0,0,-1,1742,1688,0,0
525,-664,0,0,0,0,0,0,0,0,0,-1,1749,1688,0,0
532,-664,0,0,0,0,0,0,0,0,0,-1,1756,1688,0,0
539,-664,0,0,0,0,0,0,0,0,0,-1,1763,1688,0,0
546,-664,0,0,0,0,0,0,0,0,0,-1,1770,1688,0,0
553,-664,0,0,0,0,0,0,0,0,0,-1,1777,1688,0,0
560,-664,0,0,0,0,0,0,0,0,0,-1,1784,1688,0,0
567,-664,0,0,0,0,0,0,0,0,0,-1,1791,1688,0,0
574,-664,0,0,0,0,0,0,0,0,0,-1,1798,1688,0,0
581,-664,0,0,0,0,0,0,0,0,0,-1,1805,1688,0,0
588,-664,0,0,0,0,0,0,0,0,0,-1,1812,1688,0,0
595,-664,0,0,0,0,0,0,0,0,0,-1,1819,1688,0,0
602,-664,0,0,0,0,0,0,0,0,0,-1,1826,1688,0,0
609,-664,0,0,0,0,0,0,0,0,0,-1,1833,1688,0,0
616,-664,0,0,0,0,0,0,0,0,0,-1,1840,1688,0,0
623,-664,0,0,0,0,0,0,0,0,0,-1,1847,1688,0,0
630,-664,0,0,0,0,0,0,0,0,0,-1,1854,1688,0,0
637,-664,0,0,0,0,0,0,0,0,0,-1,1861,1688,0,0
644,-664,0,0,0,0,0,0,0,0,0,-1,1868,1688,0,0
651,-664,0,0,0,0,0,0,0,0,0,-1,1875,1688,0,0
658,-664,0,0,0,0,0,0,0,0,0,-1,1882,1688,0,0
665,-664,0,0,0,0,0,0,0,0,0,-1,1889,1688,0,0
672,-664,0,0,0,0,0,0,0,0,0,-1,1896,1688,0,0
679,-664,0,0,0,0,0,0,0,0,0,-1,1903,1688,0,0
686,-664,0,0,0,0,0,0,0,0,0,-1,1910,1688,0,0
693,-664,0,0,0,0,0,0,0,0,0,-1,1917,1688,0,0
700,-664,0,0,0,0,0,0,0,0,0,-1,1924,1688,0,0
707,-664,0,0,0,0,0,0,0,0,0,-1,1931,1688,0,0
714,-664,0,0,0,0,0,0,0,0,0,-1,1938,1688,0,0
721,-664,0,0,0,0,0,0,0,0,0,-1,1945,1688,0,0
728,-664,0,0,0,0,0,0,0,0,0,-1,1952,1688,0,0
735,-664,0,0,0,0,0,0,0,0,0,-1,1959,1688,0,0
742,-664,0,0,0,0,0,0,0,0,0,-1,1966,1688,0,0
749,-664,0,0,0,0,0,0,0,0,0,-1,1973,1688,0,0
756,-664,0,0,0,0,0,0,0,0,0,-1,1980,1688,0,0
763,-664,0,0,0,0,0,0,0,0,0,-1,1987,1688,0,0
770,-664,0,0,0,0,0,0,0,0,0,-1,1994,1688,0,0
777,-664,0,0,0,0,0,0,0,0,0,-1,2001,1688,0,0
784,-664,0,0,0,0,0,0,0,0,0,-1,2008,1688,0,0
791,-664,0,0,0,0,0,0,0,0,0,-1,2015,1688,0,0
798,-664,0,0,0,0,0,0,0,0,0,-1,2022,1688,0,0
805,-664,0,0,0,0,0,0,0,0,0,-1,2029,1688,0,0
812,-664,0,0,0,0,0,0,0,0,0,-1,2036,1688,0,0
-700,-671,0,0,0,0,0,0,0,0,0,-1,524,1695,0,0
-693,-671,0,0,0,0,0,0,0,0,0,-1,531,1695,0,0
-686,-671,0,0,0,0,0,0,0,0,0,-1,538,1695,0,0
-679,-671,0,0,0,0,0,0,0,0,0,-1,545,1695,0,0
-672,-671,0,0,0,0,0,0,0,0,0,-1,552,1695,0,0
-665,-671,0,0,0,0,0,0,0,0,0,-1,559,1695,0,0
-658,-671,0,0,0,0,0,0,0,0,0,-1,566,1695,0,0
-651,-671,0,0,0,0,0,0,0,0,0,-1,573,1695,0,0
-644,-671,0,0,0,0,0,0,0,0,0,-1,580,1695,0,0
-637,-671,0,0,0,0,0,0,0,0,0,-1,587,1695,0,0
-630,-671,0,0,0,0,0,0,0,0,0,-1,594,1695,0,0
-623,-671,0,0,0,0,0,0,0,0,0,-1,601,1695,0,0
-616,-671,0,0,0,0,0,0,0,0,0,-1,608,1695,0,0
-609,-671,0,0,0,0,0,0,0,0,0,-1,615,1695,0,0
-602,-671,0,0,0,0,0,0,0,0,0,-1,622,1695,0,0
-595,-671,0,0,0,0,0,0,0,0,0,-1,629,1695,0,0
-588,-671,0,0,0,0,0,0,0,0,0,-1,636,1695,0,0
-581,-671,0,0,0,0,0,0,0,0,0,-1,643,1695,0,0
-574,-671,0,0,0,0,0,0,0,0,0,-1,650,1695,0,0
-567,-671,0,0,0,0,0,0,0,0,0,-1,657,1695,0,0
-560,-671,0,0,0,0,0,0,0,0,0,-1,664,1695,0,0
-553,-671,0,0,0,0,0,0,0,0,0,-1,671,1695,0,0
-546,-671,0,0,0,0,0,0,0,0,0,-1,678,1695,0,0
-539,-671,0,0,0,0,0,0,0,0,0,-1,685,1695,0,0
-532,-671,0,0,0,0,0,0,0,0,0,-1,692,1695,0,0
-525,-671,0,0,0,0,0,0,0,0,0,-1,699,1695,0,0
-518,-671,0,0,0,0,0,0,0,0,0,-1,706,1695,0,0
-511,-671,0,0,0,0,0,0,0,0,0,-1,713,1695,0,0
-504,-671,0,0,0,0,0,0,0,0,0,-1,720,1695,0,0
-497,-671,0,0,0,0,0,0,0,0,0,-1,727,1695,0,0
-490,-671,0,0,0,0,0,0,0,0,0,-1,734,1695,0,0
-483,-671,0,0,0,0,0,0,0,0,0,-1,741,1695,0,0
-476,-671,0,0,0,0,0,0,0,0,0,-1,748,1695,0,0
-469,-671,0,0,0,0,0,0,0,0,0,-1,755,1695,0,0
-462,-671,0,0,0,0,0,0,0,0,0,-1,762,1695,0,0
-455,-671,0,0,0,0,0,0,0,0,0,-1,769,1695,0,0
-448,-671,0,0,0,0,0,0,0,0,0,-1,776,1695,0,0
-441,-671,0,0,0,0,0,0,0,0,0,-1,783,1695,0,0
-434,-671,0,0,0,0,0,0,0,0,0,-1,790,1695,0,0
-427,-671,0,0,0,0,0,0,0,0,0,-1,797,1695,0,0
-420,-671,0,0,0,0,0,0,0,0,0,-1,804,1695,0,0
-413,-671,0,0,0,0,0,0,0,0,0,-1,811,1695,0,0
-406,-671,0,0,0,0,0,0,0,0,0,-1,818,1695,0,0
-399,-671,0,0,0,0,0,0,0,0,0,-1,825,1695,0,0
-392,-671,0,0,0,0,0,0,0,0,0,-1,832,1695,0,0
-385,-671,0,0,0,0,0,0,0,0,0,-1,839,1695,0,0
-378,-671,0,0,0,0,0,0,0,0,0,-1,846,1695,0,0
-371,-671,0,0,0,0,0,0,0,0,0,-1,853,1695,0,0
-364,-671,-4.18738,7.51416,0,0,0,0,0,0,0,-1,860,1695,-4.18739,-7.51419
-357,-671,-5.02393,6.07129,0,0,0,0,0,0,0,-1,867,1695,-5.0239,-6.07135
-350,-671,-5.72333,4.58386,0,0,0,0,0,0,0,-1,874,1695,-5.72333,-4.58386
-343,-671,-6.4884,3.11353,0,0,0,0,0,0,0,-1,881,1695,-6.48839,-3.11349
-336,-671,-7.30127,1.64417,0,0,0,0,0,0,0,-1,888,1695,-7.30127,-1.64414
-329,-671,3.58337,10.6238,0,0,0,0,0,0,0,-1,895,1695,3.58338,-10.6238
-322,-671,3.75763,10.859,0,0,0,0,0,0,0,-1,902,1695,3.75766,-10.8591
-315,-671,3.19891,13.6078,0,0,0,0,0,0,0,-1,909,1695,3.19892,-13.6078
-308,-671,3.26544,13.349,0,0,0,0,0,0,0,-1,916,1695,3.26546,-13.349
-301,-671,4.40417,13.6729,0,0,0,0,0,0,0,-1,923,1695,4.40415,-13.6728
-294,-671,4.38342,13.97,0,0,0,0,0,0,0,-1,930,1695,4.38345,-13.97
-287,-671,3.65845,14.4047,0.00529636,-0.00928271,-0.0216395,0.0208412,-0.0248275,-0.622937,0.0264003,0.0440347,937,1695,3.65842,-14.4047
-280,-671,4.04602,14.4181,0.00545039,-0.000665901,-0.0172895,0.0199501,-0.0151657,-0.697864,0.0203367,0.0389635,944,1695,4.04603,-14.4181
-273,-671,4.1167,14.5916,0.00519981,0.00440454,-0.0132244,0.0180326,-0.00842823,-0.770369,0.015609,0.0349692,951,1695,4.11668,-14.5915
-266,-671,4.16858,14.8567,0.00483583,0.00663692,-0.0099133,0.0156905,-0.00421774,-0.830695,0.0121135,0.0244394,958,1695,4.1686,-14.8567
-259,-671,4.04559,15.0629,0.00399326,0.00862354,-0.00691338,0.0135991,-0.000982333,-0.946968,0.00941063,0.0234273,965,1695,4.04561,-15.0629
-252,-671,4.07281,15.2386,0.00346237,0.00913867,-0.00430491,0.0114568,0.00114423,-1.07683,0.00728648,0.0171051,972,1695,4.0728,-15.2386
-245,-671,4.05884,15.4235,0.00308775,0.00743218,-0.00282492,0.00882349,0.00169644,-1.11316,0.0054063,0.0192476,979,1695,4.05885,-15.4234
-238,-671,4.08643,15.6212,0.00252082,0.00514058,-0.00203268,0.00624888,0.00141253,-1.07162,0.003784,0.0196813,986,1695,4.08644,-15.6213
-231,-671,4.11182,15.8247,0.00194493,0.00296398,-0.00157195,0.00410692,0.000801995,-0.942124,0.00251363,0.0152906,993,1695,4.11181,-15.8247
-224,-671,4.06873,15.9858,0.00120101,-0.00104127,-0.000722778,0.0014138,-0.00125406,-0.286313,0.00154121,0.0116787,1000,1695,4.06874,-15.9858
-217,-671,4.06238,16.1448,0.000775831,-0.00223809,-0.000519718,0.000862933,-0.00232519,-0.166052,0.00190411,0.011999,1007,1695,4.06241,-16.1447
-210,-671,4.06592,16.3308,0.0012355,-0.00308611,-0.000534696,0.00130067,-0.00315128,-0.12129,0.00264332,0.0115331,1014,1695,4.06593,-16.3308
-203,-671,4.02039,16.491,0.00221144,-0.00362303,-0.000321252,0.00222907,-0.00364066,-0.0548401,0.0034214,0.0180944,1021,1695,4.02043,-16.491
-196,-671,4.01807,16.6705,0.0030922,-0.00375724,-2.9487e-05,0.00309233,-0.00375737,-0.00430491,0.00396088,0.0156068,1028,1695,4.01808,-16.6705
-189,-671,4.04932,16.87,0.00395152,-0.00411233,7.10911e-05,0.00395215,-0.00411296,0.00881511,0.0046567,0.011959,1035,1695,4.04928,-16.87
-182,-671,4.05847,17.0123,0.0048443,-0.00451996,0.000184317,0.00484792,-0.00452358,0.0196729,0.00541172,0.00983144,1042,1695,4.05852,-17.0123
-175,-671,4.06055,17.1433,0.00591084,-0.00496027,0.000363607,0.00592299,-0.00497242,0.0333974,0.00629844,0.0122077,1049,1695,4.06057,-17.1433
-168,-671,4.0647,17.2864,0.00679882,-0.00537679,0.000574494,0.00682586,-0.00540383,0.0470448,0.00707671,0.0132442,1056,1695,4.06473,-17.2864
-161,-671,4.06677,17.4484,0.00754421,-0.0057979,0.00094457,0.00761075,-0.00586444,0.0703286,0.00780165,0.00896571,1063,1695,4.06676,-17.4484
-154,-671,4.07703,17.5817,0.00829965,-0.00615324,0.00129125,0.00841411,-0.0062677,0.0884091,0.00850669,0.00839113,1070,1695,4.07706,-17.5816
-147,-671,4.09277,17.7426,0.00895031,-0.00654473,0.00157871,0.00910953,-0.00670394,0.100509,0.00916506,0.00971263,1077,1695,4.09277,-17.7426
-140,-671,4.11328,17.8845,0.00942078,-0.0067583,0.00186359,0.00963266,-0.00697019,0.11321,0.00962666,0.010354,1084,1695,4.1133,-17.8845
-133,-671,4.11169,18.0154,0.00980005,-0.0071259,0.00213508,0.0100652,-0.00739107,0.123564,0.0101177,0.0123474,1091,1695,4.11175,-18.0153
-126,-671,4.13208,18.1825,0.0102342,-0.00726335,0.00254403,0.0105966,-0.00762573,0.141492,0.0105672,0.0155962,1098,1695,4.13206,-18.1825
-119,-671,4.18738,18.3134,0.0106914,-0.0070494,0.00303399,0.0111959,-0.00755391,0.164781,0.0108931,0.0281573,1105,1695,4.18737,-18.3134
-112,-671,4.19641,18.4756,0.0106705,-0.00705989,0.00340542,0.0113021,-0.00769146,0.183377,0.0110318,0.0399865,1112,1695,4.19647,-18.4756
-105,-671,4.02563,18.5646,0,0,0,0,0,0,0,-1,1119,1695,4.02561,-18.5646
-98,-671,4.10583,18.3799,0,0,0,0,0,0,0,-1,1126,1695,4.10582,-18.3798
-91,-671,4.30261,18.2085,0,0,0,0,0,0,0,-1,1133,1695,4.30265,-18.2085
-84,-671,4.5603,18.2725,0,0,0,0,0,0,0,-1,1140,1695,4.56033,-18.2724
-77,-671,4.31763,16.489,0,0,0,0,0,0,0,-1,1147,1695,4.31757,-16.489
-70,-671,3.06067,10.7737,0,0,0,0,0,0,0,-1,1154,1695,3.0607,-10.7737
-63,-671,2.94592,6.90198,0,0,0,0,0,0,0,-1,1161,1695,2.94594,-6.90198
-56,-671,-3.07678,2.87976,0,0,0,0,0,0,0,-1,1168,1695,-3.07675,-2.87979
-49,-671,-1.05957,4.76917,0,0,0,0,0,0,0,-1,1175,1695,-1.05958,-4.76921
-42,-671,0.539307,3.7865,0,0,0,0,0,0,0,-1,1182,1695,0.539266,-3.78648
-35,-671,-0.272461,0.347534,0,0,0,0,0,0,0,-1,1189,1695,-0.272434,-0.347569
-28,-671,-10.4878,17.2009,0,0,0,0,0,0,0,-1,1196,1695,-10.4878,-17.2009
-21,-671,-1.48584,18.1483,0,0,0,0,0,0,0,-1,1203,1695,-1.48583,-18.1483
-14,-671,3.2146,19.5127,0,0,0,0,0,0,0,-1,1210,1695,3.21464,-19.5127
-7,-671,3.70374,19.5664,0,0,0,0,0,0,0,-1,1217,1695,3.70374,-19.5664
0,-671,4.19067,19.7129,0,0,0,0,0,0,0,-1,1224,1695,4.19063,-19.7129
7,-671,4.58496,19.675,0.0647229,-0.0046378,0.00451774,0.0650159,-0.00493082,0.0647693,0.0450775,0.0447465,1231,1695,4.58493,-19.675
14,-671,5.1499,19.6362,0.0605313,-0.0015384,0.00552465,0.0610192,-0.0020263,0.0880844,0.0413714,0.0439591,1238,1695,5.14996,-19.6363
21,-671,5.44299,19.4788,0,0,0,0,0,0,0,-1,1245,1695,5.44298,-19.4788
28,-671,5.51453,19.1184,0.0598133,0.00464393,0.00531058,0.0603198,0.00413739,0.0950962,0.0389075,0.0460693,1252,1695,5.51452,-19.1185
35,-671,5.48877,19.1605,0.0604515,0.00716057,0.00442383,0.0608162,0.00679583,0.0822624,0.0384794,0.0449315,1259,1695,5.48877,-19.1605
42,-671,5.24451,19.4537,0.0606938,0.00872545,0.00316939,0.0608864,0.00853287,0.0606871,0.0380668,0.0468807,1266,1695,5.24446,-19.4537
49,-671,5.04541,19.8969,0.0607194,0.00916998,0.00174733,0.0607786,0.00911083,0.0338444,0.0378494,0.0437526,1273,1695,5.04547,-19.8968
56,-671,4.64392,19.6304,0.0606174,0.00847148,0.000137135,0.0606178,0.00847112,0.0026298,0.037905,0.0461949,1280,1695,4.64397,-19.6304
63,-671,4.75708,19.9819,0.058672,0.00805624,-0.000476445,0.0586765,0.00805175,-0.00941188,0.0367291,0.0489527,1287,1695,4.75711,-19.982
70,-671,4.91895,20.4105,0.0556036,0.00582622,-0.00121624,0.0556333,0.00579652,-0.0244142,0.0353156,0.0457213,1294,1695,4.91898,-20.4106
77,-671,4.84253,20.5692,0.0514347,0.00206841,-0.00197222,0.0515134,0.00198975,-0.039866,0.0336986,0.0437843,1301,1695,4.8425,-20.5692
84,-671,5.26855,19.9893,0,0,0,0,0,0,0,-1,1308,1695,5.26862,-19.9892
91,-671,5.31042,19.9464,0.0349553,-0.00449558,-0.00153618,0.035015,-0.0045553,-0.0388607,0.0250005,0.045558,1315,1695,5.31043,-19.9464
98,-671,5.3009,19.8458,0.0237415,-0.00731465,0.000170878,0.0237425,-0.00731559,0.00550201,0.0187488,0.0404475,1322,1695,5.30094,-19.8458
105,-671,5.16077,19.5886,0.0122995,-0.010901,0.00292872,0.0126635,-0.011265,0.123651,0.013823,0.0442261,1329,1695,5.16078,-19.5886
112,-671,5.29614,19.2083,0.000220776,-0.0127564,0.00515554,0.00201961,-0.0145553,0.335705,0.010442,0.0453693,1336,1695,5.2962,-19.2083
119,-671,5.36206,18.9313,-0.0121211,-0.0135217,0.00801468,-0.00477616,-0.0208666,0.741821,0.0126239,0.0458342,1343,1695,5.36208,-18.9313
126,-671,5.3302,18.5735,-0.0236828,-0.0131511,0.0113988,-0.00586054,-0.0309733,1.00178,0.0189991,0.0499915,1350,1695,5.33018,-18.5735
133,-671,5.24377,18.2943,0,0,0,0,0,0,0,-1,1357,1695,5.24375,-18.2943
140,-671,5.19531,18.0066,0,0,0,0,0,0,0,-1,1364,1695,5.19532,-18.0066
147,-671,5.5647,18.5807,0,0,0,0,0,0,0,-1,1371,1695,5.56467,-18.5807
154,-671,5.9635,18.0197,0,0,0,0,0,0,0,-1,1378,1695,5.96353,-18.0196
161,-671,4.49292,4.91272,0,0,0,0,0,0,0,-1,1385,1695,4.49297,-4.91273
168,-671,5.17639,6.1416,0,0,0,0,0,0,0,-1,1392,1695,5.1764,-6.14164
175,-671,5.6731,1.64685,0,0,0,0,0,0,0,-1,1399,1695,5.67313,-1.64691
182,-671,5.56812,1.71692,0,0,0,0,0,0,0,-1,1406,1695,5.56809,-1.71686
189,-671,6.98315,6.36169,0,0,0,0,0,0,0,-1,1413,1695,6.98312,-6.36175
196,-671,5.38123,5.69775,0,0,0,0,0,0,0,-1,1420,1695,5.38125,-5.69769
203,-671,5.95117,8.11658,0,0,0,0,0,0,0,-1,1427,1695,5.9512,-8.11662
210,-671,4.73596,8.39624,0,0,0,0,0,0,0,-1,1434,1695,4.736,-8.39618
217,-671,5.37097,11.863,0,0,0,0,0,0,0,-1,1441,1695,5.37094,-11.863
224,-671,5.08167,13.6694,0,0,0,0,0,0,0,-1,1448,1695,5.08165,-13.6695
231,-671,5.66663,15.3348,0,0,0,0,0,0,0,-1,1455,1695,5.66667,-15.3349
238,-671,6.32959,16.2036,0,0,0,0,0,0,0,-1,1462,1695,6.32961,-16.2037
245,-671,6.17627,17.963,0,0,0,0,0,0,0,-1,1469,1695,6.17629,-17.963
252,-671,5.79626,18.3146,0,0,0,0,0,0,0,-1,1476,1695,5.79625,-18.3145
259,-671,5.80444,18.556,0,0,0,0,0,0,0,-1,1483,1695,5.8044,-18.5561
266,-671,5.81152,18.4014,0.00609882,-0.00446184,-0.000712567,0.00614668,-0.0045097,-0.0670685,0.00617661,0.0271956,1490,1695,5.81154,-18.4014
273,-671,5.85132,18.3508,0.00607852,-0.00461607,-0.000587327,0.00611068,-0.00464823,-0.0546989,0.00623076,0.0105595,1497,1695,5.85131,-18.3508
280,-671,5.83862,18.2605,0.00583828,-0.0040742,-0.000438707,0.00585766,-0.00409358,-0.044143,0.00577536,0.00869194,1504,1695,5.83858,-18.2605
287,-671,5.84485,18.1049,0.00530192,-0.00319829,-0.000249971,0.00530926,-0.00320563,-0.0293738,0.00496583,0.01038,1511,1695,5.84483,-18.1049
294,-671,5.854,17.9714,0.00465745,-0.00256318,-0.000101977,0.00465889,-0.00256462,-0.0141193,0.00422851,0.0108591,1518,1695,5.85397,-17.9715
301,-671,5.86389,17.8674,0.00400264,-0.00198255,4.91321e-05,0.00400304,-0.00198295,0.00820822,0.003521,0.00994946,1525,1695,5.86384,-17.8674
308,-671,5.87244,17.7458,0.00335399,-0.00125371,0.000125223,0.00335739,-0.00125711,0.0271502,0.00275463,0.0109817,1532,1695,5.87239,-17.7459
315,-671,5.89478,17.608,0.00279823,-0.000644438,0.000153049,0.00280502,-0.000651229,0.0443399,0.00212068,0.013244,1539,1695,5.89481,-17.6081
322,-671,5.91309,17.4893,0.00236784,-9.14856e-05,0.000114305,0.00237314,-9.6787e-05,0.0463451,0.00161532,0.0155217,1546,1695,5.91304,-17.4893
329,-671,5.86951,17.3436,0.00201689,0.000359984,-2.31981e-05,0.00201722,0.000359659,-0.0139972,0.0012424,0.0135318,1553,1695,5.86951,-17.3436
336,-671,5.86572,17.1655,0.00178263,0.000743151,-0.000207555,0.00182254,0.000703241,-0.18997,0.00106135,0.010595,1560,1695,5.86566,-17.1655
343,-671,5.89026,17.0067,0.00166617,0.00105625,-0.000433818,0.00189149,0.000830925,-0.47904,0.00109473,0.0100072,1567,1695,5.89031,-17.0068
350,-671,5.9032,16.8575,0.00178196,0.0011826,-0.000817832,0.00235328,0.000611266,-0.609779,0.00140998,0.00974918,1574,1695,5.9032,-16.8575
357,-671,5.88599,16.689,0.00205795,0.00124501,-0.00130215,0.00301559,0.000287369,-0.634114,0.00192178,0.00925524,1581,1695,5.88595,-16.689
364,-671,5.87573,16.5287,0.00224545,0.00124252,-0.00175256,0.00356688,-7.89079e-05,-0.646054,0.00240465,0.0118637,1588,1695,5.8757,-16.5287
371,-671,5.87598,16.3745,0.00229581,0.00107207,-0.00204033,0.00381404,-0.000446163,-0.639721,0.00270372,0.0143377,1595,1695,5.87597,-16.3745
378,-671,5.88965,16.1796,0.00263885,0.000789989,-0.0023225,0.00421413,-0.000785299,-0.595994,0.00310448,0.0119506,1602,1695,5.88959,-16.1796
385,-671,5.87024,15.9968,0.00315941,0.000692909,-0.00284242,0.00502458,-0.00117227,-0.580717,0.00380121,0.0136163,1609,1695,5.87024,-15.9969
392,-671,5.81189,15.9064,0.00353479,0.000584515,-0.00331065,0.00568407,-0.00156477,-0.575814,0.00440461,0.0214226,1616,1695,5.81184,-15.9064
399,-671,5.82434,15.6846,0.00377439,-5.16077e-05,-0.00357657,0.00591743,-0.00219464,-0.539822,0.00484511,0.0182505,1623,1695,5.82432,-15.6845
406,-671,5.89075,15.4399,0.00396919,-0.000980118,-0.00364033,0.00589634,-0.00290728,-0.486883,0.00517951,0.0246564,1630,1695,5.89076,-15.4399
413,-671,5.82751,15.3363,0.00381588,-0.00250816,-0.00341174,0.00530557,-0.00399785,-0.411684,0.00538899,0.034691,1637,1695,5.82746,-15.3363
420,-671,5.63025,15.2012,0.00312893,-0.00401937,-0.00357108,0.00460723,-0.00549766,-0.392484,0.00584161,0.0490974,1644,1695,5.63029,-15.2012
427,-671,5.51196,14.9194,0,0,0,0,0,0,0,-1,1651,1695,5.51202,-14.9194
434,-671,6.62122,14.6691,0,0,0,0,0,0,0,-1,1658,1695,6.62125,-14.669
441,-671,6.37598,14.5306,0,0,0,0,0,0,0,-1,1665,1695,6.37593,-14.5307
448,-671,8.0636,12.2034,0,0,0,0,0,0,0,-1,1672,1695,8.06362,-12.2034
455,-671,3.40137,9.28076,0,0,0,0,0,0,0,-1,1679,1695,3.40135,-9.28082
462,-671,5.86255,4.47961,0,0,0,0,0,0,0,-1,1686,1695,5.8625,-4.4796
469,-671,3.71301,3.76978,0,0,0,0,0,0,0,-1,1693,1695,3.71297,-3.76974
476,-671,3.75574,3.18848,0,0,0,0,0,0,0,-1,1700,1695,3.7558,-3.18847
483,-671,7.81824,12.1041,0,0,0,0,0,0,0,-1,1707,1695,7.81826,-12.1041
490,-671,0,0,0,0,0,0,0,0,0,-1,1714,1695,0,0
497,-671,0,0,0,0,0,0,0,0,0,-1,1721,1695,0,0
504,-671,0,0,0,0,0,0,0,0,0,-1,1728,1695,0,0
511,-671,0,0,0,0,0,0,0,0,0,-1,1735,1695,0,0
518,-671,0,0,0,0,0,0,0,0,0,-1,1742,1695,0,0
525,-671,0,0,0,0,0,0,0,0,0,-1,1749,1695,0,0
532,-671,0,0,0,0,0,0,0,0,0,-1,1756,1695,0,0
539,-671,0,0,0,0,0,0,0,0,0,-1,1763,1695,0,0
546,-671,0,0,0,0,0,0,0,0,0,-1,1770,1695,0,0
553,-671,0,0,0,0,0,0,0,0,0,-1,1777,1695,0,0
560,-671,0,0,0,0,0,0,0,0,0,-1,1784,1695,0,0
567,-671,0,0,0,0,0,0,0,0,0,-1,1791,1695,0,0
574,-671,0,0,0,0,0,0,0,0,0,-1,1798,1695,0,0
581,-671,0,0,0,0,0,0,0,0,0,-1,1805,1695,0,0
588,-671,0,0,0,0,0,0,0,0,0,-1,1812,1695,0,0
595,-671,0,0,0,0,0,0,0,0,0,-1,1819,1695,0,0
602,-671,0,0,0,0,0,0,0,0,0,-1,1826,1695,0,0
609,-671,0,0,0,0,0,0,0,0,0,-1,1833,1695,0,0
616,-671,0,0,0,0,0,0,0,0,0,-1,1840,1695,0,0
623,-671,0,0,0,0,0,0,0,0,0,-1,1847,1695,0,0
630,-671,0,0,0,0,0,0,0,0,0,-1,1854,1695,0,0
637,-671,0,0,0,0,0,0,0,0,0,-1,1861,1695,0,0
644,-671,0,0,0,0,0,0,0,0,0,-1,1868,1695,0,0
651,-671,0,0,0,0,0,0,0,0,0,-1,1875,1695,0,0
658,-671,0,0,0,0,0,0,0,0,0,-1,1882,1695,0,0
665,-671,0,0,0,0,0,0,0,0,0,-1,1889,1695,0,0
672,-671,0,0,0,0,0,0,0,0,0,-1,1896,1695,0,0
679,-671,0,0,0,0,0,0,0,0,0,-1,1903,1695,0,0
686,-671,0,0,0,0,0,0,0,0,0,-1,1910,1695,0,0
693,-671,0,0,0,0,0,0,0,0,0,-1,1917,1695,0,0
700,-671,0,0,0,0,0,0,0,0,0,-1,1924,1695,0,0
707,-671,0,0,0,0,0,0,0,0,0,-1,1931,1695,0,0
714,-671,0,0,0,0,0,0,0,0,0,-1,1938,1695,0,0
721,-671,0,0,0,0,0,0,0,0,0,-1,1945,1695,0,0
728,-671,0,0,0,0,0,0,0,0,0,-1,1952,1695,0,0
735,-671,0,0,0,0,0,0,0,0,0,-1,1959,1695,0,0
742,-671,0,0,0,0,0,0,0,0,0,-1,1966,1695,0,0
749,-671,0,0,0,0,0,0,0,0,0,-1,1973,1695,0,0
756,-671,0,0,0,0,0,0,0,0,0,-1,1980,1695,0,0
763,-671,0,0,0,0,0,0,0,0,0,-1,1987,1695,0,0
770,-671,0,0,0,0,0,0,0,0,0,-1,1994,1695,0,0
777,-671,0,0,0,0,0,0,0,0,0,-1,2001,1695,0,0
784,-671,0,0,0,0,0,0,0,0,0,-1,2008,1695,0,0
791,-671,0,0,0,0,0,0,0,0,0,-1,2015,1695,0,0
798,-671,0,0,0,0,0,0,0,0,0,-1,2022,1695,0,0
805,-671,0,0,0,0,0,0,0,0,0,-1,2029,1695,0,0
812,-671,0,0,0,0,0,0,0,0,0,-1,2036,1695,0,0
-700,-678,0,0,0,0,0,0,0,0,0,-1,524,1702,0,0
-693,-678,0,0,0,0,0,0,0,0,0,-1,531,1702,0,0
-686,-678,0,0,0,0,0,0,0,0,0,-1,538,1702,0,0
-679,-678,0,0,0,0,0,0,0,0,0,-1,545,1702,0,0
-672,-678,0,0,0,0,0,0,0,0,0,-1,552,1702,0,0
-665,-678,0,0,0,0,0,0,0,0,0,-1,559,1702,0,0
-658,-678,0,0,0,0,0,0,0,0,0,-1,566,1702,0,0
-651,-678,0,0,0,0,0,0,0,0,0,-1,573,1702,0,0
-644,-678,0,0,0,0,0,0,0,0,0,-1,580,1702,0,0
-637,-678,0,0,0,0,0,0,0,0,0,-1,587,1702,0,0
-630,-678,0,0,0,0,0,0,0,0,0,-1,594,1702,0,0
-623,-678,0,0,0,0,0,0,0,0,0,-1,601,1702,0,0
-616,-678,0,0,0,0,0,0,0,0,0,-1,608,1702,0,0
-609,-678,0,0,0,0,0,0,0,0,0,-1,615,1702,0,0
-602,-678,0,0,0,0,0,0,0,0,0,-1,622,1702,0,0
-595,-678,0,0,0,0,0,0,0,0,0,-1,629,1702,0,0
-588,-678,0,0,0,0,0,0,0,0,0,-1,636,1702,0,0
-581,-678,0,0,0,0,0,0,0,0,0,-1,643,1702,0,0
-574,-678,0,0,0,0,0,0,0,0,0,-1,650,1702,0,0
-567,-678,0,0,0,0,0,0,0,0,0,-1,657,1702,0,0
-560,-678,0,0,0,0,0,0,0,0,0,-1,664,1702,0,0
-553,-678,0,0,0,0,0,0,0,0,0,-1,671,1702,0,0
-546,-678,0,0,0,0,0,0,0,0,0,-1,678,1702,0,0
-539,-678,0,0,0,0,0,0,0,0,0,-1,685,1702,0,0
-532,-678,0,0,0,0,0,0,0,0,0,-1,692,1702,0,0
-525,-678,0,0,0,0,0,0,0,0,0,-1,699,1702,0,0
-518,-678,0,0,0,0,0,0,0,0,0,-1,706,1702,0,0
-511,-678,0,0,0,0,0,0,0,0,0,-1,713,1702,0,0
-504,-678,0,0,0,0,0,0,0,0,0,-1,720,1702,0,0
-497,-678,0,0,0,0,0,0,0,0,0,-1,727,1702,0,0
-490,-678,0,0,0,0,0,0,0,0,0,-1,734,1702,0,0
-483,-678,0,0,0,0,0,0,0,0,0,-1,741,1702,0,0
-476,-678,0,0,0,0,0,0,0,0,0,-1,748,1702,0,0
-469,-678,0,0,0,0,0,0,0,0,0,-1,755,1702,0,0
-462,-678,0,0,0,0,0,0,0,0,0,-1,762,1702,0,0
-455,-678,0,0,0,0,0,0,0,0,0,-1,769,1702,0,0
-448,-678,0,0,0,0,0,0,0,0,0,-1,776,1702,0,0
-441,-678,0,0,0,0,0,0,0,0,0,-1,783,1702,0,0
-434,-678,0,0,0,0,0,0,0,0,0,-1,790,1702,0,0
-427,-678,0,0,0,0,0,0,0,0,0,-1,797,1702,0,0
-420,-678,0,0,0,0,0,0,0,0,0,-1,804,1702,0,0
-413,-678,0,0,0,0,0,0,0,0,0,-1,811,1702,0,0
-406,-678,0,0,0,0,0,0,0,0,0,-1,818,1702,0,0
-399,-678,0,0,0,0,0,0,0,0,0,-1,825,1702,0,0
-392,-678,0,0,0,0,0,0,0,0,0,-1,832,1702,0,0
-385,-678,0,0,0,0,0,0,0,0,0,-1,839,1702,0,0
-378,-678,0,0,0,0,0,0,0,0,0,-1,846,1702,0,0
-371,-678,0,0,0,0,0,0,0,0,0,-1,853,1702,0,0
-364,-678,0,0,0,0,0,0,0,0,0,-1,860,1702,0,0
-357,-678,0,0,0,0,0,0,0,0,0,-1,867,1702,0,0
-350,-678,-5.79944,6.11865,0,0,0,0,0,0,0,-1,874,1702,-5.79942,-6.11864
-343,-678,-6.44891,4.52759,0,0,0,0,0,0,0,-1,881,1702,-6.4489,-4.52758
-336,-678,-6.91888,2.99438,0,0,0,0,0,0,0,-1,888,1702,-6.9189,-2.99435
-329,-678,-7.14575,1.29761,0,0,0,0,0,0,0,-1,895,1702,-7.14577,-1.29755
-322,-678,4.74548,15.4724,0,0,0,0,0,0,0,-1,902,1702,4.7455,-15.4724
-315,-678,3.85352,14.8242,0,0,0,0,0,0,0,-1,909,1702,3.85354,-14.8242
-308,-678,3.91162,14.5909,0.00656578,-0.0722806,-0.0514159,0.0319329,-0.0976477,-0.45833,0.0779543,0.0470833,916,1702,3.9116,-14.591
-301,-678,3.78809,14.4279,0.00740058,-0.0474105,-0.0429961,0.0309826,-0.0709925,-0.501666,0.060367,0.0456158,923,1702,3.78807,-14.4279
-294,-678,3.65485,14.4998,0.00834071,-0.0265868,-0.0354871,0.0304284,-0.0486746,-0.556738,0.0460733,0.048118,930,1702,3.65485,-14.4997
-287,-678,3.42444,14.6626,0.00912824,-0.0101928,-0.0289405,0.0299781,-0.0310426,-0.62431,0.0352321,0.0467031,937,1702,3.42442,-14.6626
-280,-678,4.18024,14.3899,0,0,0,0,0,0,0,-1,944,1702,4.18025,-14.3899
-273,-678,4.14111,14.5156,0.00806722,0.00745072,-0.0178047,0.0255664,-0.0100484,-0.776743,0.0212029,0.0460141,951,1702,4.14109,-14.5156
-266,-678,4.3454,14.7573,0.00720604,0.00977953,-0.0133109,0.0218658,-0.0048802,-0.833582,0.0164471,0.0331964,958,1702,4.34541,-14.7573
-259,-678,4.27795,15.0719,0.00585536,0.012138,-0.0093072,0.0188197,-0.000826336,-0.948154,0.0128308,0.0236182,965,1702,4.27795,-15.0719
-252,-678,4.24921,15.2131,0.00493315,0.0126135,-0.00580222,0.0157312,0.0018154,-1.07773,0.00993778,0.0192138,972,1702,4.24918,-15.2132
-245,-678,4.26862,15.4296,0.00427826,0.0101364,-0.00380597,0.01201,0.00240475,-1.11336,0.0073376,0.0172998,979,1702,4.26861,-15.4296
-238,-678,4.25995,15.6222,0.00339276,0.00698846,-0.00270267,0.00843664,0.00194458,-1.0789,0.00510131,0.0150244,986,1702,4.25994,-15.6222
-231,-678,4.24939,15.7919,0.00256549,0.00413963,-0.00199844,0.00550041,0.00120471,-0.972992,0.00333863,0.0134927,993,1702,4.24939,-15.7918
-224,-678,4.21106,15.9513,0.00149381,-0.00108347,-0.00085912,0.00175394,-0.00134359,-0.294009,0.00179359,0.0130627,1000,1702,4.21105,-15.9512
-217,-678,4.23242,16.1461,0.000707173,-0.0024642,-0.000578612,0.000809442,-0.00256647,-0.174942,0.00203518,0.0132462,1007,1702,4.23245,-16.1461
-210,-678,4.23486,16.3514,0.000726206,-0.0031635,-0.000457673,0.000779331,-0.00321662,-0.11556,0.00244593,0.0138165,1014,1702,4.23484,-16.3515
-203,-678,4.20618,16.4999,0.00130003,-0.00307045,-0.000147921,0.00130503,-0.00307545,-0.0337939,0.00259701,0.0178778,1021,1702,4.20619,-16.4998
-196,-678,4.18909,16.6763,0.00184734,-0.00281697,0.00018176,0.00185441,-0.00282404,0.0388897,0.00272037,0.0180013,1028,1702,4.18906,-16.6763
-189,-678,4.20129,16.8707,0.0022207,-0.00274496,0.00035432,0.00224586,-0.00277012,0.0708754,0.00290124,0.0107958,1035,1702,4.20129,-16.8707
-182,-678,4.21436,17.0361,0.00255339,-0.00272691,0.000532341,0.00260653,-0.00278005,0.0994825,0.00311048,0.0100192,1042,1702,4.21431,-17.0361
-175,-678,4.21301,17.1602,0.00307732,-0.00276886,0.00076254,0.00317514,-0.00286669,0.12759,0.00348977,0.0101746,1049,1702,4.21305,-17.1602
-168,-678,4.21765,17.3135,0.00340871,-0.0028297,0.000938045,0.0035467,-0.0029677,0.146064,0.00376604,0.00934048,1056,1702,4.21764,-17.3135
-161,-678,4.21533,17.4674,0.00363814,-0.00293548,0.00127455,0.00387661,-0.00317395,0.184962,0.00407737,0.00806671,1063,1702,4.21539,-17.4674
-154,-678,4.21826,17.5968,0.00394224,-0.00313928,0.00160914,0.00429074,-0.00348778,0.213279,0.0044989,0.00804848,1070,1702,4.21822,-17.5968
-147,-678,4.23523,17.7355,0.00433408,-0.00343912,0.00180387,0.00473229,-0.00383733,0.217269,0.00495666,0.00990376,1077,1702,4.23526,-17.7355
-140,-678,4.25354,17.8711,0.00465995,-0.00365301,0.0019393,0.00509011,-0.00408316,0.218275,0.00530682,0.0107199,1084,1702,4.25351,-17.8711
-133,-678,4.25793,18.0092,0.00498025,-0.00403126,0.00203846,0.00541991,-0.00447092,0.212429,0.00571923,0.0114389,1091,1702,4.25788,-18.0092
-126,-678,4.25818,18.1567,0.00539438,-0.00424073,0.00222153,0.00588192,-0.00472828,0.216037,0.00613786,0.00902485,1098,1702,4.25812,-18.1567
-119,-678,4.3031,18.3436,0.00590875,-0.00414416,0.00248745,0.00649056,-0.00472597,0.229769,0.00650252,0.0189532,1105,1702,4.30312,-18.3436
-112,-678,4.29626,18.4901,0.00612965,-0.00421777,0.0026379,0.00676334,-0.00485145,0.235755,0.00673602,0.029936,1112,1702,4.29623,-18.4901
-105,-678,4.31018,18.5731,0.00618227,-0.00377736,0.00297186,0.00700164,-0.00459673,0.269024,0.00674413,0.0332901,1119,1702,4.31021,-18.5731
-98,-678,4.29614,18.5278,0.00670849,-0.00249114,0.00297617,0.00758735,-0.00337,0.287138,0.00648054,0.0230782,1126,1702,4.29619,-18.5278
-91,-678,4.36414,18.6326,0.00775195,-0.00264357,0.00296327,0.00853731,-0.00342893,0.259074,0.00711546,0.021851,1133,1702,4.36409,-18.6326
-84,-678,4.48242,18.6216,0.00863108,-0.00184759,0.00372842,0.00982228,-0.00303879,0.309241,0.00776199,0.0370922,1140,1702,4.48244,-18.6216
-77,-678,4.55273,18.728,0,0,0,0,0,0,0,-1,1147,1702,4.55277,-18.728
-70,-678,4.75891,19.6552,0,0,0,0,0,0,0,-1,1154,1702,4.75895,-19.6551
-63,-678,3.41687,11.0365,0,0,0,0,0,0,0,-1,1161,1702,3.41682,-11.0365
-56,-678,1.72388,6.13159,0,0,0,0,0,0,0,-1,1168,1702,1.72388,-6.13157
-49,-678,-0.241699,5.29895,0,0,0,0,0,0,0,-1,1175,1702,-0.241682,-5.29897
-42,-678,0.297119,3.90649,0,0,0,0,0,0,0,-1,1182,1702,0.297139,-3.90655
-35,-678,0.498413,3.64038,0,0,0,0,0,0,0,-1,1189,1702,0.498471,-3.64038
-28,-678,0.132446,3.55994,0,0,0,0,0,0,0,-1,1196,1702,0.132432,-3.55993
-21,-678,4.50403,19.4294,0,0,0,0,0,0,0,-1,1203,1702,4.50407,-19.4295
-14,-678,4.86035,19.5314,0,0,0,0,0,0,0,-1,1210,1702,4.8604,-19.5314
-7,-678,3.448,19.1046,0,0,0,0,0,0,0,-1,1217,1702,3.44796,-19.1047
0,-678,4.90808,19.34,0,0,0,0,0,0,0,-1,1224,1702,4.90811,-19.3399
7,-678,4.76233,19.7168,0.0474883,-0.00436119,0.00379203,0.0477642,-0.00463706,0.0726203,0.0334956,0.0430353,1231,1702,4.76236,-19.7168
14,-678,4.91394,19.739,0.0446748,-0.00225917,0.00462244,0.0451258,-0.00271009,0.0972432,0.0310267,0.0431444,1238,1702,4.91399,-19.739
21,-678,4.87134,19.9358,0,0,0,0,0,0,0,-1,1245,1702,4.87137,-19.9358
28,-678,5.17212,19.209,0.0450957,0.00183377,0.00469134,0.0455986,0.00133089,0.106786,0.0299653,0.0434817,1252,1702,5.17209,-19.2089
35,-678,5.177,19.0504,0.0456224,0.00361858,0.0041928,0.0460369,0.00320414,0.0985242,0.0296809,0.0427822,1259,1702,5.17703,-19.0505
42,-678,4.67542,18.9504,0.0457882,0.00478657,0.00331584,0.0460546,0.00452015,0.0801765,0.0293128,0.043254,1266,1702,4.67536,-18.9504
49,-678,5.40625,19.8313,0.0457873,0.00513908,0.00223717,0.0459101,0.00501633,0.0548166,0.0290792,0.0468359,1273,1702,5.40628,-19.8313
56,-678,4.81543,19.6124,0.045703,0.00461862,0.000977861,0.0457263,0.00459536,0.0237833,0.0290737,0.0451576,1280,1702,4.81543,-19.6124
63,-678,4.901,19.7163,0.0443026,0.00422247,0.000455476,0.0443078,0.0042173,0.0113622,0.0282379,0.0472857,1287,1702,4.90094,-19.7163
70,-678,5.21436,19.673,0.0420553,0.00247727,-0.000173614,0.042056,0.00247651,-0.00438651,0.0272494,0.0456055,1294,1702,5.21439,-19.6729
77,-678,5.60498,19.6368,0,0,0,0,0,0,0,-1,1301,1702,5.60499,-19.6369
84,-678,5.47913,19.7792,0.0342497,-0.00303564,-0.00125645,0.034292,-0.00307793,-0.0336473,0.0239533,0.0445695,1308,1702,5.47915,-19.7792
91,-678,5.31628,19.9353,0.0272283,-0.00575709,-0.00103673,0.0272609,-0.00578965,-0.0313888,0.0203798,0.0450754,1315,1702,5.31626,-19.9353
98,-678,5.07642,19.5638,0.0189767,-0.00801835,-1.37718e-05,0.0189767,-0.00801836,-0.000510159,0.0160079,0.0407577,1322,1702,5.07645,-19.5639
105,-678,4.59924,19.3339,0.0105486,-0.0109742,0.00193685,0.0107215,-0.0111471,0.0890375,0.0126266,0.0412014,1329,1702,4.59922,-19.3338
112,-678,5.1969,19.3159,0.00168884,-0.0124922,0.00343873,0.00247869,-0.0132821,0.225778,0.00978615,0.0436154,1336,1702,5.19694,-19.316
119,-678,5.24194,19.5089,-0.00751759,-0.0131559,0.00539866,-0.00424634,-0.0164272,0.544774,0.00984611,0.0444884,1343,1702,5.24192,-19.5089
126,-678,5.19727,19.7311,-0.016684,-0.0129239,0.00787454,-0.00670809,-0.0228998,0.902581,0.0135939,0.0469128,1350,1702,5.19725,-19.7311
133,-678,5.2356,19.8651,0,0,0,0,0,0,0,-1,1357,1702,5.23565,-19.8651
140,-678,5.41992,19.3245,0,0,0,0,0,0,0,-1,1364,1702,5.41997,-19.3245
147,-678,5.22229,19.999,0,0,0,0,0,0,0,-1,1371,1702,5.22226,-19.999
154,-678,6.10132,19.5603,0,0,0,0,0,0,0,-1,1378,1702,6.1013,-19.5603
161,-678,3.44202,4.53992,0,0,0,0,0,0,0,-1,1385,1702,3.442,-4.53996
168,-678,4.21863,5.25781,0,0,0,0,0,0,0,-1,1392,1702,4.21865,-5.25781
175,-678,5.21899,5.9635,0,0,0,0,0,0,0,-1,1399,1702,5.21894,-5.96346
182,-678,7.31262,6.75122,0,0,0,0,0,0,0,-1,1406,1702,7.3126,-6.75123
189,-678,5.96021,6.36853,0,0,0,0,0,0,0,-1,1413,1702,5.96018,-6.36851
196,-678,5.01599,8.15771,0,0,0,0,0,0,0,-1,1420,1702,5.01596,-8.15767
203,-678,4.64771,13.0559,0,0,0,0,0,0,0,-1,1427,1702,4.64766,-13.0559
210,-678,5.6532,18.5957,0,0,0,0,0,0,0,-1,1434,1702,5.65318,-18.5958
217,-678,5.86353,19.3373,0,0,0,0,0,0,0,-1,1441,1702,5.86347,-19.3372
224,-678,5.69263,19.027,0,0,0,0,0,0,0,-1,1448,1702,5.69267,-19.027
231,-678,5.63818,18.9014,0,0,0,0,0,0,0,-1,1455,1702,5.63816,-18.9013
238,-678,5.71497,19.0262,0,0,0,0,0,0,0,-1,1462,1702,5.71499,-19.0262
245,-678,5.69617,18.8738,0.00303742,-0.00256074,0.00023864,0.00304758,-0.0025709,0.0425254,0.00324772,0.0422825,1469,1702,5.69622,-18.8737
252,-678,5.69873,18.6552,0.0036826,-0.00294212,-7.85171e-05,0.00368353,-0.00294305,-0.0118499,0.00383381,0.0295878,1476,1702,5.69878,-18.6552
259,-678,5.69092,18.5958,0.00399927,-0.00318451,-0.000286498,0.00401068,-0.00319592,-0.039797,0.00416958,0.0164163,1483,1702,5.69097,-18.5958
266,-678,5.71838,18.4912,0.00408356,-0.00320984,-0.000360913,0.00410138,-0.00322765,-0.0493243,0.00424143,0.0106164,1490,1702,5.71843,-18.4912
273,-678,5.73938,18.3777,0.00414299,-0.00327828,-0.000342779,0.00415879,-0.00329408,-0.0460581,0.00431256,0.0102633,1497,1702,5.73932,-18.3776
280,-678,5.72424,18.2546,0.00399294,-0.00280847,-0.000302995,0.00400641,-0.00282194,-0.0444314,0.00396208,0.0106272,1504,1702,5.72424,-18.2547
287,-678,5.73169,18.1233,0.00362709,-0.0021279,-0.000215549,0.00363515,-0.00213596,-0.0373845,0.00336922,0.0110268,1511,1702,5.73169,-18.1233
294,-678,5.73206,17.9862,0.00318071,-0.00155744,-0.000153579,0.00318569,-0.00156242,-0.0323679,0.00279421,0.0118866,1518,1702,5.73206,-17.9862
301,-678,5.7196,17.8755,0.00273547,-0.0010436,-8.53631e-05,0.0027374,-0.00104552,-0.0225731,0.00225571,0.0114019,1525,1702,5.7196,-17.8755
308,-678,5.71326,17.7428,0.00233557,-0.000386909,-0.000131201,0.00234187,-0.000393217,-0.0480433,0.00170748,0.0123576,1532,1702,5.7132,-17.7429
315,-678,5.72852,17.608,0.00200409,0.000140696,-0.00016604,0.00201877,0.000126017,-0.0881802,0.00130587,0.0141617,1539,1702,5.7285,-17.6081
322,-678,5.74207,17.4843,0.00181984,0.000615592,-0.00026204,0.00187439,0.000561044,-0.205236,0.00111086,0.0174709,1546,1702,5.74209,-17.4842
329,-678,5.71826,17.3367,0.00169626,0.000985485,-0.000467364,0.00192801,0.000753735,-0.460333,0.00112193,0.0148615,1553,1702,5.71826,-17.3367
336,-678,5.70325,17.1569,0.00168481,0.00131777,-0.000705826,0.00223059,0.000771997,-0.65821,0.00130801,0.0121214,1560,1702,5.70328,-17.1568
343,-678,5.71863,17.0051,0.00182595,0.00164371,-0.00102088,0.00275976,0.000709895,-0.740889,0.00165477,0.0106575,1567,1702,5.71859,-17.0051
350,-678,5.73267,16.8629,0.00216624,0.00174389,-0.00146741,0.00343759,0.000472541,-0.713934,0.00215158,0.0104521,1574,1702,5.73268,-16.8629
357,-678,5.74475,16.6996,0.00267466,0.00180455,-0.00204706,0.00433239,0.000146824,-0.680692,0.00284058,0.00877223,1581,1702,5.74473,-16.6996
364,-678,5.73132,16.538,0.00304646,0.00181974,-0.00257902,0.00508405,-0.000217856,-0.668653,0.00346427,0.0115332,1588,1702,5.73133,-16.538
371,-678,5.71472,16.3593,0.00323561,0.0016661,-0.00292086,0.0054753,-0.000573589,-0.654161,0.00385565,0.0128594,1595,1702,5.71476,-16.3593
378,-678,5.73242,16.1664,0.00376167,0.00129153,-0.00326594,0.00601827,-0.000965066,-0.604626,0.00436954,0.0141056,1602,1702,5.73243,-16.1664
385,-678,5.7428,16.0172,0.00448109,0.00123329,-0.00392135,0.00710148,-0.0013871,-0.58909,0.00525803,0.019102,1609,1702,5.74274,-16.0172
392,-678,5.73083,15.9467,0.00502587,0.00125439,-0.00453134,0.00804819,-0.00176793,-0.58822,0.00604162,0.0346116,1616,1702,5.73079,-15.9467
399,-678,5.82104,15.8353,0.00542316,0.00046439,-0.00490568,0.00844041,-0.00255287,-0.551415,0.00664346,0.0435849,1623,1702,5.82109,-15.8353
406,-678,5.953,15.582,0.00571823,-0.000682937,-0.00506684,0.00851069,-0.0034754,-0.503707,0.00712081,0.0448544,1630,1702,5.95306,-15.582
413,-678,6.05188,15.3256,0,0,0,0,0,0,0,-1,1637,1702,6.05183,-15.3256
420,-678,5.31787,15.3046,0,0,0,0,0,0,0,-1,1644,1702,5.31793,-15.3046
427,-678,4.57483,10.1555,0,0,0,0,0,0,0,-1,1651,1702,4.57485,-10.1555
434,-678,5.73999,11.7773,0,0,0,0,0,0,0,-1,1658,1702,5.73994,-11.7774
441,-678,4.47729,11.1503,0,0,0,0,0,0,0,-1,1665,1702,4.47728,-11.1503
448,-678,3.25525,9.74719,0,0,0,0,0,0,0,-1,1672,1702,3.25522,-9.7472
455,-678,5.44678,5.54297,0,0,0,0,0,0,0,-1,1679,1702,5.44676,-5.54294
462,-678,3.86792,2.87402,0,0,0,0,0,0,0,-1,1686,1702,3.86796,-2.87406
469,-678,2.26587,1.98755,0,0,0,0,0,0,0,-1,1693,1702,2.26592,-1.98755
476,-678,0,0,0,0,0,0,0,0,0,-1,1700,1702,0,0
483,-678,0,0,0,0,0,0,0,0,0,-1,1707,1702,0,0
490,-678,0,0,0,0,0,0,0,0,0,-1,1714,1702,0,0
497,-678,0,0,0,0,0,0,0,0,0,-1,1721,1702,0,0
504,-678,0,0,0,0,0,0,0,0,0,-1,1728,1702,0,0
511,-678,0,0,0,0,0,0,0,0,0,-1,1735,1702,0,0
518,-678,0,0,0,0,0,0,0,0,0,-1,1742,1702,0,0
525,-678,0,0,0,0,0,0,0,0,0,-1,1749,1702,0,0
532,-678,0,0,0,0,0,0,0,0,0,-1,1756,1702,0,0
539,-678,0,0,0,0,0,0,0,0,0,-1,1763,1702,0,0
546,-678,0,0,0,0,0,0,0,0,0,-1,1770,1702,0,0
553,-678,0,0,0,0,0,0,0,0,0,-1,1777,1702,0,0
560,-678,0,0,0,0,0,0,0,0,0,-1,1784,1702,0,0
567,-678,0,0,0,0,0,0,0,0,0,-1,1791,1702,0,0
574,-678,0,0,0,0,0,0,0,0,0,-1,1798,1702,0,0
581,-678,0,0,0,0,0,0,0,0,0,-1,1805,1702,0,0
588,-678,0,0,0,0,0,0,0,0,0,-1,1812,1702,0,0
595,-678,0,0,0,0,0,0,0,0,0,-1,1819,1702,0,0
602,-678,0,0,0,0,0,0,0,0,0,-1,1826,1702,0,0
609,-678,0,0,0,0,0,0,0,0,0,-1,1833,1702,0,0
616,-678,0,0,0,0,0,0,0,0,0,-1,1840,1702,0,0
623,-678,0,0,0,0,0,0,0,0,0,-1,1847,1702,0,0
630,-678,0,0,0,0,0,0,0,0,0,-1,1854,1702,0,0
637,-678,0,0,0,0,0,0,0,0,0,-1,1861,1702,0,0
644,-678,0,0,0,0,0,0,0,0,0,-1,1868,1702,0,0
651,-678,0,0,0,0,0,0,0,0,0,-1,1875,1702,0,0
658,-678,0,0,0,0,0,0,0,0,0,-1,1882,1702,0,0
665,-678,0,0,0,0,0,0,0,0,0,-1,1889,1702,0,0
672,-678,0,0,0,0,0,0,0,0,0,-1,1896,1702,0,0
679,-678,0,0,0,0,0,0,0,0,0,-1,1903,1702,0,0
686,-678,0,0,0,0,0,0,0,0,0,-1,1910,1702,0,0
693,-678,0,0,0,0,0,0,0,0,0,-1,1917,1702,0,0
700,-678,0,0,0,0,0,0,0,0,0,-1,1924,1702,0,0
707,-678,0,0,0,0,0,0,0,0,0,-1,1931,1702,0,0
714,-678,0,0,0,0,0,0,0,0,0,-1,1938,1702,0,0
721,-678,0,0,0,0,0,0,0,0,0,-1,1945,1702,0,0
728,-678,0,0,0,0,0,0,0,0,0,-1,1952,1702,0,0
735,-678,0,0,0,0,0,0,0,0,0,-1,1959,1702,0,0
742,-678,0,0,0,0,0,0,0,0,0,-1,1966,1702,0,0
749,-678,0,0,0,0,0,0,0,0,0,-1,1973,1702,0,0
756,-678,0,0,0,0,0,0,0,0,0,-1,1980,1702,0,0
763,-678,0,0,0,0,0,0,0,0,0,-1,1987,1702,0,0
770,-678,0,0,0,0,0,0,0,0,0,-1,1994,1702,0,0
777,-678,0,0,0,0,0,0,0,0,0,-1,2001,1702,0,0
784,-678,0,0,0,0,0,0,0,0,0,-1,2008,1702,0,0
791,-678,0,0,0,0,0,0,0,0,0,-1,2015,1702,0,0
798,-678,0,0,0,0,0,0,0,0,0,-1,2022,1702,0,0
805,-678,0,0,0,0,0,0,0,0,0,-1,2029,1702,0,0
812,-678,0,0,0,0,0,0,0,0,0,-1,2036,1702,0,0
-700,-685,0,0,0,0,0,0,0,0,0,-1,524,1709,0,0
-693,-685,0,0,0,0,0,0,0,0,0,-1,531,1709,0,0
-686,-685,0,0,0,0,0,0,0,0,0,-1,538,1709,0,0
-679,-685,0,0,0,0,0,0,0,0,0,-1,545,1709,0,0
-672,-685,0,0,0,0,0,0,0,0,0,-1,552,1709,0,0
-665,-685,0,0,0,0,0,0,0,0,0,-1,559,1709,0,0
-658,-685,0,0,0,0,0,0,0,0,0,-1,566,1709,0,0
-651,-685,0,0,0,0,0,0,0,0,0,-1,573,1709,0,0
-644,-685,0,0,0,0,0,0,0,0,0,-1,580,1709,0,0
-637,-685,0,0,0,0,0,0,0,0,0,-1,587,1709,0,0
-630,-685,0,0,0,0,0,0,0,0,0,-1,594,1709,0,0
-623,-685,0,0,0,0,0,0,0,0,0,-1,601,1709,0,0
-616,-685,0,0,0,0,0,0,0,0,0,-1,608,1709,0,0
-609,-685,0,0,0,0,0,0,0,0,0,-1,615,1709,0,0
-602,-685,0,0,0,0,0,0,0,0,0,-1,622,1709,0,0
-595,-685,0,0,0,0,0,0,0,0,0,-1,629,1709,0,0
-588,-685,0,0,0,0,0,0,0,0,0,-1,636,1709,0,0
-581,-685,0,0,0,0,0,0,0,0,0,-1,643,1709,0,0
-574,-685,0,0,0,0,0,0,0,0,0,-1,650,1709,0,0
-567,-685,0,0,0,0,0,0,0,0,0,-1,657,1709,0,0
-560,-685,0,0,0,0,0,0,0,0,0,-1,664,1709,0,0
-553,-685,0,0,0,0,0,0,0,0,0,-1,671,1709,0,0
-546,-685,0,0,0,0,0,0,0,0,0,-1,678,1709,0,0
-539,-685,0,0,0,0,0,0,0,0,0,-1,685,1709,0,0
-532,-685,0,0,0,0,0,0,0,0,0,-1,692,1709,0,0
-525,-685,0,0,0,0,0,0,0,0,0,-1,699,1709,0,0
-518,-685,0,0,0,0,0,0,0,0,0,-1,706,1709,0,0
-511,-685,0,0,0,0,0,0,0,0,0,-1,713,1709,0,0
-504,-685,0,0,0,0,0,0,0,0,0,-1,720,1709,0,0
-497,-685,0,0,0,0,0,0,0,0,0,-1,727,1709,0,0
-490,-685,0,0,0,0,0,0,0,0,0,-1,734,1709,0,0
-483,-685,0,0,0,0,0,0,0,0,0,-1,741,1709,0,0
-476,-685,0,0,0,0,0,0,0,0,0,-1,748,1709,0,0
-469,-685,0,0,0,0,0,0,0,0,0,-1,755,1709,0,0
-462,-685,0,0,0,0,0,0,0,0,0,-1,762,1709,0,0
-455,-685,0,0,0,0,0,0,0,0,0,-1,769,1709,0,0
-448,-685,0,0,0,0,0,0,0,0,0,-1,776,1709,0,0
-441,-685,0,0,0,0,0,0,0,0,0,-1,783,1709,0,0
-434,-685,0,0,0,0,0,0,0,0,0,-1,790,1709,0,0
-427,-685,0,0,0,0,0,0,0,0,0,-1,797,1709,0,0
-420,-685,0,0,0,0,0,0,0,0,0,-1,804,1709,0,0
-413,-685,0,0,0,0,0,0,0,0,0,-1,811,1709,0,0
-406,-685,0,0,0,0,0,0,0,0,0,-1,818,1709,0,0
-399,-685,0,0,0,0,0,0,0,0,0,-1,825,1709,0,0
-392,-685,0,0,0,0,0,0,0,0,0,-1,832,1709,0,0
-385,-685,0,0,0,0,0,0,0,0,0,-1,839,1709,0,0
-378,-685,0,0,0,0,0,0,0,0,0,-1,846,1709,0,0
-371,-685,0,0,0,0,0,0,0,0,0,-1,853,1709,0,0
-364,-685,0,0,0,0,0,0,0,0,0,-1,860,1709,0,0
-357,-685,0,0,0,0,0,0,0,0,0,-1,867,1709,0,0
-350,-685,0,0,0,0,0,0,0,0,0,-1,874,1709,0,0
-343,-685,-5.98505,6.56335,0,0,0,0,0,0,0,-1,881,1709,-5.98505,-6.56329
-336,-685,-6.51312,5.10571,0,0,0,0,0,0,0,-1,888,1709,-6.51311,-5.10575
-329,-685,-6.81384,3.34106,0,0,0,0,0,0,0,-1,895,1709,-6.81385,-3.341
-322,-685,3.83191,16.7219,0,0,0,0,0,0,0,-1,902,1709,3.8319,-16.7219
-315,-685,4.36914,16.3297,0.0116636,-0.129318,-0.0766885,0.0453366,-0.162991,-0.413743,0.12651,0.0478677,909,1709,4.36913,-16.3297
-308,-685,4.66785,15.9467,0.0123729,-0.0912461,-0.0652678,0.0438948,-0.122768,-0.449924,0.0997499,0.0483597,916,1709,4.66784,-15.9466
-301,-685,4.43262,15.5825,0.0132857,-0.0583283,-0.0550263,0.0431295,-0.0881721,-0.496956,0.0772796,0.0496559,923,1709,4.43264,-15.5825
-294,-685,3.79559,15.2726,0.0141216,-0.0310311,-0.0458584,0.0426597,-0.0595692,-0.556662,0.0592904,0.0476879,930,1709,3.79561,-15.2726
-287,-685,3.74176,15.1799,0.014683,-0.00964713,-0.0377986,0.0422259,-0.03719,-0.629713,0.0458815,0.0493368,937,1709,3.74174,-15.18
-280,-685,3.16614,15.2306,0.0137072,0.00492897,-0.0307707,0.0404003,-0.0217641,-0.714556,0.0364243,0.0496769,944,1709,3.16615,-15.2306
-273,-685,4.1983,13.9392,0.0119715,0.0117744,-0.0233442,0.0352174,-0.0114715,-0.783287,0.0280939,0.0498521,951,1709,4.19827,-13.9393
-266,-685,4.71106,14.4856,0.0104208,0.0136964,-0.0173439,0.0294797,-0.00536249,-0.832475,0.021663,0.0436493,958,1709,4.71105,-14.4856
-259,-685,4.89233,15.0698,0.00847349,0.0163792,-0.0121348,0.0251888,-0.000336094,-0.94285,0.0169056,0.0391036,965,1709,4.8923,-15.0698
-252,-685,4.64606,15.3026,0.00705794,0.016711,-0.00749944,0.0208028,0.00296611,-1.07132,0.0129932,0.0373247,972,1709,4.64608,-15.3026
-245,-685,4.50848,15.4318,0.00611449,0.0130587,-0.0049036,0.015595,0.0035782,-1.09346,0.00943292,0.0318669,979,1709,4.50846,-15.4317
-238,-685,4.50085,15.5986,0.00488341,0.00868334,-0.00342518,0.0107002,0.00286652,-1.03862,0.00639581,0.0244588,986,1709,4.50087,-15.5987
-231,-685,4.45166,15.769,0.00375177,0.00489254,-0.00244259,0.00683046,0.00181385,-0.900101,0.00408552,0.0166487,993,1709,4.45168,-15.769
-224,-685,4.40546,15.9373,0.00230001,-0.00177529,-0.00100004,0.00253218,-0.00200747,-0.228123,0.0026268,0.0142593,1000,1709,4.40548,-15.9373
-217,-685,4.41003,16.1561,0.00112326,-0.00332379,-0.000660586,0.00121931,-0.00341984,-0.144392,0.00277704,0.0105696,1007,1709,4.41001,-16.1561
-210,-685,4.4032,16.3593,0.000835438,-0.00385322,-0.000512217,0.000890743,-0.00390853,-0.107556,0.00294781,0.0144696,1014,1709,4.40321,-16.3592
-203,-685,4.3949,16.5209,0.00120531,-0.00319273,-0.000210148,0.00121533,-0.00320275,-0.0476375,0.0026354,0.0151801,1021,1709,4.39488,-16.5209
-196,-685,4.38098,16.6819,0.00156472,-0.00251544,9.90443e-05,0.00156712,-0.00251784,0.0242556,0.00237965,0.0135288,1028,1709,4.38102,-16.6819
-189,-685,4.38354,16.8608,0.0016773,-0.0020624,0.000255242,0.00169464,-0.00207974,0.0678328,0.00218292,0.00926761,1035,1709,4.38353,-16.8609
-182,-685,4.37622,17.0157,0.00171676,-0.00168484,0.00038627,0.00176007,-0.00172815,0.111661,0.00201396,0.0132437,1042,1709,4.37625,-17.0158
-175,-685,4.38025,17.1578,0.00198674,-0.00142221,0.000567008,0.00207858,-0.00151405,0.160571,0.00208272,0.0128209,1049,1709,4.3802,-17.1578
-168,-685,4.3689,17.3114,0.00205972,-0.00120798,0.000603144,0.00216749,-0.00131576,0.176818,0.002031,0.0096274,1056,1709,4.36893,-17.3114
-161,-685,4.36829,17.4735,0.00204532,-0.00107181,0.000820878,0.00224828,-0.00127477,0.242385,0.00205975,0.0101585,1063,1709,4.36831,-17.4735
-154,-685,4.38037,17.6146,0.00214509,-0.0012106,0.00108128,0.00246332,-0.00152884,0.286231,0.00232583,0.00976692,1070,1709,4.38043,-17.6146
-147,-685,4.37537,17.7462,0.00245863,-0.00148433,0.00113431,0.00276166,-0.00178736,0.261053,0.00264638,0.00886655,1077,1709,4.37539,-17.7462
-140,-685,4.37708,17.8684,0.00276996,-0.00173701,0.00110654,0.00302698,-0.00199403,0.228225,0.00291926,0.0106932,1084,1709,4.37709,-17.8684
-133,-685,4.38745,18.0116,0.00307637,-0.00211902,0.00107685,0.00329072,-0.00233337,0.196488,0.00326272,0.0101958,1091,1709,4.38743,-18.0116
-126,-685,4.39392,18.1538,0.00341614,-0.00235781,0.00112436,0.00362735,-0.00256902,0.185693,0.00359483,0.00865458,1098,1709,4.39397,-18.1538
-119,-685,4.41553,18.2644,0.00384525,-0.00231759,0.00129489,0.00410627,-0.00257861,0.198909,0.00389296,0.0121397,1105,1709,4.41559,-18.2644
-112,-685,4.40259,18.3925,0.00410661,-0.00241254,0.0013884,0.00438998,-0.00269591,0.201335,0.00412983,0.0128422,1112,1709,4.40265,-18.3924
-105,-685,4.38257,18.5128,0.00440591,-0.00224565,0.00153202,0.00474182,-0.00258155,0.215838,0.00428903,0.011289,1119,1709,4.38252,-18.5129
-98,-685,4.44653,18.6105,0.00488841,-0.00168454,0.00172402,0.00531316,-0.00210928,0.241559,0.00441642,0.0142166,1126,1709,4.44659,-18.6105
-91,-685,4.45471,18.7203,0.00556091,-0.00145956,0.00218309,0.00618439,-0.00208305,0.278191,0.00496513,0.0172903,1133,1709,4.4547,-18.7203
-84,-685,4.45471,18.7921,0.00620728,-0.000915674,0.00275211,0.00714672,-0.00185511,0.32895,0.00548837,0.0174808,1140,1709,4.45475,-18.7921
-77,-685,4.52661,18.9882,0.00677338,-4.42765e-05,0.00291834,0.00785196,-0.00112286,0.354016,0.00564627,0.0191496,1147,1709,4.52665,-18.9882
-70,-685,4.72412,19.3336,0.00720091,0.000629802,0.00272698,0.00818517,-0.000354453,0.346381,0.00557868,0.0478648,1154,1709,4.72416,-19.3337
-63,-685,4.59229,19.4353,0,0,0,0,0,0,0,-1,1161,1709,4.59231,-19.4353
-56,-685,3.93909,15.8704,0,0,0,0,0,0,0,-1,1168,1709,3.93905,-15.8704
-49,-685,3.07471,9.86011,0,0,0,0,0,0,0,-1,1175,1709,3.07467,-9.86009
-42,-685,2.70618,7.54504,0,0,0,0,0,0,0,-1,1182,1709,2.7062,-7.54504
-35,-685,2.95264,7.91516,0,0,0,0,0,0,0,-1,1189,1709,2.95262,-7.91517
-28,-685,4.59778,19.4027,0,0,0,0,0,0,0,-1,1196,1709,4.59783,-19.4027
-21,-685,4.62256,19.4827,0.0344545,-0.0054407,-6.57431e-05,0.0344546,-0.00544081,-0.00164789,0.0249816,0.0438419,1203,1709,4.62253,-19.4827
-14,-685,4.75415,19.4539,0.0355649,-0.00655201,0.000523999,0.0355714,-0.00655853,0.012439,0.0261758,0.0262884,1210,1709,4.75419,-19.4538
-7,-685,4.81372,19.4821,0.0358073,-0.00710696,0.001968,0.0358974,-0.00719702,0.0457308,0.0266564,0.0376161,1217,1709,4.81374,-19.4821
0,-685,4.87415,19.5188,0.0348672,-0.00555598,0.00205761,0.0349717,-0.00566045,0.050727,0.0254123,0.0418603,1224,1709,4.8742,-19.5188
7,-685,4.87134,19.6869,0.0332248,-0.00434924,0.00297309,0.0334586,-0.00458303,0.0784755,0.0239798,0.0373532,1231,1709,4.87138,-19.6868
14,-685,4.91284,19.806,0.0314177,-0.00294393,0.0036514,0.0318014,-0.00332765,0.104706,0.0223927,0.0387218,1238,1709,4.91287,-19.8061
21,-685,4.93982,19.8546,0.0315652,-0.00130013,0.00352808,0.0319397,-0.0016746,0.105744,0.0218727,0.0373759,1245,1709,4.93984,-19.8546
28,-685,4.95947,19.7813,0.0325328,-0.000298669,0.00391363,0.0329929,-0.000758741,0.117019,0.0222525,0.038338,1252,1709,4.95944,-19.7812
35,-685,5.1311,19.4381,0.0329546,0.00099441,0.00370331,0.0333781,0.000570912,0.113862,0.0220643,0.0386462,1259,1709,5.13109,-19.4382
42,-685,5.24976,19.9022,0.0330582,0.00189208,0.00311449,0.0333663,0.00158389,0.0986323,0.0217355,0.0424484,1266,1709,5.2497,-19.9022
49,-685,5.14514,19.7889,0.0330127,0.00218544,0.00231741,0.0331859,0.0020122,0.0746152,0.0214846,0.0470337,1273,1709,5.14509,-19.7889
56,-685,4.92993,19.6448,0.032828,0.00181671,0.00135609,0.0328872,0.00175752,0.0436178,0.021363,0.0448748,1280,1709,4.9299,-19.6447
63,-685,4.97803,19.6902,0.0317392,0.0014641,0.000913843,0.0317668,0.00143654,0.030148,0.0207156,0.0434044,1287,1709,4.97801,-19.6902
70,-685,5.02405,19.6498,0.0301042,0.000109578,0.000385082,0.0301092,0.000104635,0.0128355,0.020038,0.0430499,1294,1709,5.02407,-19.6498
77,-685,5.0802,19.6282,0.0280445,-0.00235922,-0.000197349,0.0280458,-0.0023605,-0.0064906,0.0195316,0.0408104,1301,1709,5.08025,-19.6282
84,-685,5.41736,19.9124,0.0245174,-0.00427072,-0.000625385,0.0245309,-0.0042843,-0.0217101,0.0179533,0.0428503,1308,1709,5.41738,-19.9124
91,-685,5.24585,19.8927,0.0194698,-0.0064083,-0.000706998,0.0194891,-0.0064276,-0.0272932,0.0155836,0.0441321,1315,1709,5.24581,-19.8927
98,-685,5.22437,19.7009,0.0135983,-0.00825314,-0.000280719,0.0136019,-0.00825674,-0.0128439,0.0127452,0.0390772,1322,1709,5.22436,-19.7009
105,-685,5.1593,19.296,0.00759114,-0.0107478,0.00101604,0.00764726,-0.0108039,0.0551782,0.0107046,0.0411866,1329,1709,5.15936,-19.296
112,-685,5.12256,19.4989,0.00138554,-0.0120392,0.00187707,0.00164305,-0.0122967,0.136339,0.00879677,0.0417899,1336,1709,5.12255,-19.4989
119,-685,5.1355,19.645,-0.00517301,-0.0127002,0.00299543,-0.00412649,-0.0137467,0.336117,0.0081452,0.0387252,1343,1709,5.13552,-19.645
126,-685,5.21594,19.8149,-0.0122465,-0.0126889,0.00456881,-0.00789355,-0.0170419,0.761212,0.00984802,0.0407294,1350,1709,5.21593,-19.8149
133,-685,5.245,19.7231,-0.0179715,-0.0117888,0.00568538,-0.00840866,-0.0213516,1.03441,0.0124197,0.0438309,1357,1709,5.24494,-19.7232
140,-685,5.10498,19.6873,0,0,0,0,0,0,0,-1,1364,1709,5.10501,-19.6872
147,-685,5.25159,19.9012,0,0,0,0,0,0,0,-1,1371,1709,5.25157,-19.9012
154,-685,5.33484,19.9639,0,0,0,0,0,0,0,-1,1378,1709,5.33484,-19.9639
161,-685,5.70947,19.8971,0,0,0,0,0,0,0,-1,1385,1709,5.70949,-19.8971
168,-685,4.37524,10.8778,0,0,0,0,0,0,0,-1,1392,1709,4.37525,-10.8778
175,-685,3.97522,8.94324,0,0,0,0,0,0,0,-1,1399,1709,3.97519,-8.94328
182,-685,3.98218,9.19739,0,0,0,0,0,0,0,-1,1406,1709,3.98221,-9.1974
189,-685,4.53479,15.2343,0,0,0,0,0,0,0,-1,1413,1709,4.53474,-15.2343
196,-685,5.49438,19.5759,0,0,0,0,0,0,0,-1,1420,1709,5.49441,-19.576
203,-685,5.50378,19.376,0,0,0,0,0,0,0,-1,1427,1709,5.5038,-19.376
210,-685,5.63794,19.3273,0,0,0,0,0,0,0,-1,1434,1709,5.63794,-19.3272
217,-685,5.62048,19.2338,0.000210164,0.000406347,0.00155589,0.00186724,-0.00125073,0.816879,0.00181185,0.0309271,1441,1709,5.62047,-19.2338
224,-685,5.5498,19.0612,0.000338542,-0.000289201,0.00131529,0.0013769,-0.00132755,0.668273,0.0015615,0.0169394,1448,1709,5.54979,-19.0611
231,-685,5.52002,18.9575,0.000646029,-0.000930569,0.00106448,0.00118232,-0.00146686,0.466686,0.00153244,0.0161645,1455,1709,5.52001,-18.9575
238,-685,5.54004,18.8763,0.00132136,-0.00125968,0.000566362,0.00144017,-0.00137849,0.206776,0.00162749,0.0193089,1462,1709,5.54006,-18.8764
245,-685,5.55566,18.7881,0.00183577,-0.00165788,0.000320359,0.0018649,-0.00168701,0.0906899,0.00205155,0.0217665,1469,1709,5.55568,-18.7881
252,-685,5.57776,18.6918,0.0025924,-0.00172954,8.0232e-05,0.00259389,-0.00173103,0.0185554,0.0025135,0.0154838,1476,1709,5.57773,-18.6918
259,-685,5.58533,18.6063,0.0030342,-0.00173214,-9.59689e-05,0.00303613,-0.00173407,-0.0201238,0.00278807,0.0107522,1483,1709,5.58536,-18.6063
266,-685,5.5968,18.4935,0.00301481,-0.00182632,-0.000212235,0.0030241,-0.00183561,-0.0437281,0.00283359,0.0116895,1490,1709,5.59686,-18.4935
273,-685,5.60388,18.3615,0.00286624,-0.00189747,-0.000285689,0.00288332,-0.00191455,-0.0596867,0.00278881,0.0136163,1497,1709,5.60392,-18.3614
280,-685,5.60706,18.2286,0.00242688,-0.00169416,-0.000343146,0.00245526,-0.00172254,-0.0825097,0.00242438,0.0149196,1504,1709,5.60705,-18.2287
287,-685,5.61255,18.125,0.0018179,-0.00146644,-0.000349759,0.00185473,-0.00150327,-0.104925,0.00194228,0.011632,1511,1709,5.61255,-18.125
294,-685,5.599,18.0062,0.00117373,-0.00120483,-0.000379832,0.00123292,-0.00126401,-0.15457,0.00144164,0.0101423,1518,1709,5.59899,-18.0062
301,-685,5.57629,17.8827,0.000614585,-0.000952322,-0.000399804,0.000710701,-0.00104844,-0.235931,0.00102186,0.0122567,1525,1709,5.57623,-17.8827
308,-685,5.56372,17.7366,0.000231784,-0.000472761,-0.000587961,0.000564927,-0.000805904,-0.515504,0.000795515,0.0139247,1532,1709,5.56373,-17.7366
315,-685,5.59497,17.6007,-3.23331e-06,-5.18597e-05,-0.000695581,0.00066846,-0.000723553,-0.767928,0.000803888,0.0126632,1539,1709,5.59494,-17.6007
322,-685,5.6084,17.4618,6.45917e-05,0.000399116,-0.000841977,0.00109028,-0.000626576,-0.883449,0.00100321,0.0202192,1546,1709,5.60836,-17.4618
329,-685,5.58411,17.3073,0.000261248,0.000797404,-0.00110245,0.0016639,-0.000605252,-0.904666,0.00135679,0.0192052,1553,1709,5.58409,-17.3072
336,-685,5.59521,17.1416,0.000640813,0.00123446,-0.00138179,0.00235095,-0.000475671,-0.891197,0.00174757,0.0127824,1560,1709,5.59516,-17.1416
343,-685,5.57739,17.0031,0.00124351,0.00174625,-0.00176998,0.00328262,-0.000292864,-0.855936,0.00229228,0.0107569,1567,1709,5.57733,-17.003
350,-685,5.57678,16.8456,0.00203667,0.002003,-0.00226515,0.00428504,-0.000245383,-0.781682,0.0029419,0.0111876,1574,1709,5.57677,-16.8456
357,-685,5.59753,16.6859,0.00322857,0.0023937,-0.00290764,0.00574859,-0.000126323,-0.714103,0.00387518,0.00988801,1581,1709,5.59753,-16.6859
364,-685,5.57788,16.5239,0.00421609,0.00274043,-0.00352214,0.00707686,-0.000120332,-0.682149,0.00475852,0.00976308,1588,1709,5.57793,-16.5239
371,-685,5.62036,16.3408,0.00462636,0.00261922,-0.00393487,0.00768362,-0.000438037,-0.660537,0.00527449,0.0160654,1595,1709,5.62033,-16.3409
378,-685,5.57275,16.2079,0.00541541,0.00208274,-0.00434369,0.00840142,-0.000903274,-0.602244,0.00592503,0.0241114,1602,1709,5.5727,-16.2078
385,-685,5.54529,15.9153,0.00633294,0.00207105,-0.00522091,0.00984104,-0.00143704,-0.591639,0.00708843,0.0431509,1609,1709,5.54529,-15.9152
392,-685,5.6936,15.7076,0.00711947,0.00221496,-0.00608223,0.0112252,-0.00189077,-0.593774,0.00818683,0.0462421,1616,1709,5.69364,-15.7076
399,-685,5.92395,15.9347,0,0,0,0,0,0,0,-1,1623,1709,5.92395,-15.9347
406,-685,6.06433,15.724,0,0,0,0,0,0,0,-1,1630,1709,6.06433,-15.724
413,-685,5.67407,14.7061,0,0,0,0,0,0,0,-1,1637,1709,5.67403,-14.7061
420,-685,4.84631,10.3781,0,0,0,0,0,0,0,-1,1644,1709,4.84634,-10.378
427,-685,6.05151,9.21155,0,0,0,0,0,0,0,-1,1651,1709,6.05156,-9.21156
434,-685,4.87769,8.91418,0,0,0,0,0,0,0,-1,1658,1709,4.87768,-8.91413
441,-685,5.62,8.75549,0,0,0,0,0,0,0,-1,1665,1709,5.61996,-8.75545
448,-685,6.4043,8.58972,0,0,0,0,0,0,0,-1,1672,1709,6.40435,-8.58971
455,-685,2.31958,4.09802,0,0,0,0,0,0,0,-1,1679,1709,2.31957,-4.09803
462,-685,0,0,0,0,0,0,0,0,0,-1,1686,1709,0,0
469,-685,0,0,0,0,0,0,0,0,0,-1,1693,1709,0,0
476,-685,0,0,0,0,0,0,0,0,0,-1,1700,1709,0,0
483,-685,0,0,0,0,0,0,0,0,0,-1,1707,1709,0,0
490,-685,0,0,0,0,0,0,0,0,0,-1,1714,1709,0,0
497,-685,0,0,0,0,0,0,0,0,0,-1,1721,1709,0,0
504,-685,0,0,0,0,0,0,0,0,0,-1,1728,1709,0,0
511,-685,0,0,0,0,0,0,0,0,0,-1,1735,1709,0,0
518,-685,0,0,0,0,0,0,0,0,0,-1,1742,1709,0,0
525,-685,0,0,0,0,0,0,0,0,0,-1,1749,1709,0,0
532,-685,0,0,0,0,0,0,0,0,0,-1,1756,1709,0,0
539,-685,0,0,0,0,0,0,0,0,0,-1,1763,1709,0,0
546,-685,0,0,0,0,0,0,0,0,0,-1,1770,1709,0,0
553,-685,0,0,0,0,0,0,0,0,0,-1,1777,1709,0,0
560,-685,0,0,0,0,0,0,0,0,0,-1,1784,1709,0,0
567,-685,0,0,0,0,0,0,0,0,0,-1,1791,1709,0,0
574,-685,0,0,0,0,0,0,0,0,0,-1,1798,1709,0,0
581,-685,0,0,0,0,0,0,0,0,0,-1,1805,1709,0,0
588,-685,0,0,0,0,0,0,0,0,0,-1,1812,1709,0,0
595,-685,0,0,0,0,0,0,0,0,0,-1,1819,1709,0,0
602,-685,0,0,0,0,0,0,0,0,0,-1,1826,1709,0,0
609,-685,0,0,0,0,0,0,0,0,0,-1,1833,1709,0,0
616,-685,0,0,0,0,0,0,0,0,0,-1,1840,1709,0,0
623,-685,0,0,0,0,0,0,0,0,0,-1,1847,1709,0,0
630,-685,0,0,0,0,0,0,0,0,0,-1,1854,1709,0,0
637,-685,0,0,0,0,0,0,0,0,0,-1,1861,1709,0,0
644,-685,0,0,0,0,0,0,0,0,0,-1,1868,1709,0,0
651,-685,0,0,0,0,0,0,0,0,0,-1,1875,1709,0,0
658,-685,0,0,0,0,0,0,0,0,0,-1,1882,1709,0,0
665,-685,0,0,0,0,0,0,0,0,0,-1,1889,1709,0,0
672,-685,0,0,0,0,0,0,0,0,0,-1,1896,1709,0,0
679,-685,0,0,0,0,0,0,0,0,0,-1,1903,1709,0,0
686,-685,0,0,0,0,0,0,0,0,0,-1,1910,1709,0,0
693,-685,0,0,0,0,0,0,0,0,0,-1,1917,1709,0,0
700,-685,0,0,0,0,0,0,0,0,0,-1,1924,1709,0,0
707,-685,0,0,0,0,0,0,0,0,0,-1,1931,1709,0,0
714,-685,0,0,0,0,0,0,0,0,0,-1,1938,1709,0,0
721,-685,0,0,0,0,0,0,0,0,0,-1,1945,1709,0,0
728,-685,0,0,0,0,0,0,0,0,0,-1,1952,1709,0,0
735,-685,0,0,0,0,0,0,0,0,0,-1,1959,1709,0,0
742,-685,0,0,0,0,0,0,0,0,0,-1,1966,1709,0,0
749,-685,0,0,0,0,0,0,0,0,0,-1,1973,1709,0,0
756,-685,0,0,0,0,0,0,0,0,0,-1,1980,1709,0,0
763,-685,0,0,0,0,0,0,0,0,0,-1,1987,1709,0,0
770,-685,0,0,0,0,0,0,0,0,0,-1,1994,1709,0,0
777,-685,0,0,0,0,0,0,0,0,0,-1,2001,1709,0,0
784,-685,0,0,0,0,0,0,0,0,0,-1,2008,1709,0,0
791,-685,0,0,0,0,0,0,0,0,0,-1,2015,1709,0,0
798,-685,0,0,0,0,0,0,0,0,0,-1,2022,1709,0,0
805,-685,0,0,0,0,0,0,0,0,0,-1,2029,1709,0,0
812,-685,0,0,0,0,0,0,0,0,0,-1,2036,1709,0,0
-700,-692,0,0,0,0,0,0,0,0,0,-1,524,1716,0,0
-693,-692,0,0,0,0,0,0,0,0,0,-1,531,1716,0,0
-686,-692,0,0,0,0,0,0,0,0,0,-1,538,1716,0,0
-679,-692,0,0,0,0,0,0,0,0,0,-1,545,1716,0,0
-672,-692,0,0,0,0,0,0,0,0,0,-1,552,1716,0,0
-665,-692,0,0,0,0,0,0,0,0,0,-1,559,1716,0,0
-658,-692,0,0,0,0,0,0,0,0,0,-1,566,1716,0,0
-651,-692,0,0,0,0,0,0,0,0,0,-1,573,1716,0,0
-644,-692,0,0,0,0,0,0,0,0,0,-1,580,1716,0,0
-637,-692,0,0,0,0,0,0,0,0,0,-1,587,1716,0,0
-630,-692,0,0,0,0,0,0,0,0,0,-1,594,1716,0,0
-623,-692,0,0,0,0,0,0,0,0,0,-1,601,1716,0,0
-616,-692,0,0,0,0,0,0,0,0,0,-1,608,1716,0,0
-609,-692,0,0,0,0,0,0,0,0,0,-1,615,1716,0,0
-602,-692,0,0,0,0,0,0,0,0,0,-1,622,1716,0,0
-595,-692,0,0,0,0,0,0,0,0,0,-1,629,1716,0,0
-588,-692,0,0,0,0,0,0,0,0,0,-1,636,1716,0,0
-581,-692,0,0,0,0,0,0,0,0,0,-1,643,1716,0,0
-574,-692,0,0,0,0,0,0,0,0,0,-1,650,1716,0,0
-567,-692,0,0,0,0,0,0,0,0,0,-1,657,1716,0,0
-560,-692,0,0,0,0,0,0,0,0,0,-1,664,1716,0,0
-553,-692,0,0,0,0,0,0,0,0,0,-1,671,1716,0,0
-546,-692,0,0,0,0,0,0,0,0,0,-1,678,1716,0,0
-539,-692,0,0,0,0,0,0,0,0,0,-1,685,1716,0,0
-532,-692,0,0,0,0,0,0,0,0,0,-1,692,1716,0,0
-525,-692,0,0,0,0,0,0,0,0,0,-1,699,1716,0,0
-518,-692,0,0,0,0,0,0,0,0,0,-1,706,1716,0,0
-511,-692,0,0,0,0,0,0,0,0,0,-1,713,1716,0,0
-504,-692,0,0,0,0,0,0,0,0,0,-1,720,1716,0,0
-497,-692,0,0,0,0,0,0,0,0,0,-1,727,1716,0,0
-490,-692,0,0,0,0,0,0,0,0,0,-1,734,1716,0,0
-483,-692,0,0,0,0,0,0,0,0,0,-1,741,1716,0,0
-476,-692,0,0,0,0,0,0,0,0,0,-1,748,1716,0,0
-469,-692,0,0,0,0,0,0,0,0,0,-1,755,1716,0,0
-462,-692,0,0,0,0,0,0,0,0,0,-1,762,1716,0,0
-455,-692,0,0,0,0,0,0,0,0,0,-1,769,1716,0,0
-448,-692,0,0,0,0,0,0,0,0,0,-1,776,1716,0,0
-441,-692,0,0,0,0,0,0,0,0,0,-1,783,1716,0,0
-434,-692,0,0,0,0,0,0,0,0,0,-1,790,1716,0,0
-427,-692,0,0,0,0,0,0,0,0,0,-1,797,1716,0,0
-420,-692,0,0,0,0,0,0,0,0,0,-1,804,1716,0,0
-413,-692,0,0,0,0,0,0,0,0,0,-1,811,1716,0,0
-406,-692,0,0,0,0,0,0,0,0,0,-1,818,1716,0,0
-399,-692,0,0,0,0,0,0,0,0,0,-1,825,1716,0,0
-392,-692,0,0,0,0,0,0,0,0,0,-1,832,1716,0,0
-385,-692,0,0,0,0,0,0,0,0,0,-1,839,1716,0,0
-378,-692,0,0,0,0,0,0,0,0,0,-1,846,1716,0,0
-371,-692,0,0,0,0,0,0,0,0,0,-1,853,1716,0,0
-364,-692,0,0,0,0,0,0,0,0,0,-1,860,1716,0,0
-357,-692,0,0,0,0,0,0,0,0,0,-1,867,1716,0,0
-350,-692,0,0,0,0,0,0,0,0,0,-1,874,1716,0,0
-343,-692,0,0,0,0,0,0,0,0,0,-1,881,1716,0,0
-336,-692,0,0,0,0,0,0,0,0,0,-1,888,1716,0,0
-329,-692,3.03107,4.10266,0,0,0,0,0,0,0,-1,895,1716,3.03105,-4.10267
-322,-692,4.43713,18.5242,0,0,0,0,0,0,0,-1,902,1716,4.43711,-18.5241
-315,-692,5.38965,17.975,0.0203627,-0.158078,-0.0942739,0.0609416,-0.198656,-0.406466,0.156751,0.0481939,909,1716,5.38963,-17.975
-308,-692,5.86938,17.4392,0.0214399,-0.108836,-0.0807902,0.0600806,-0.147477,-0.446124,0.123324,0.0481167,916,1716,5.86937,-17.4392
-301,-692,5.00916,16.6921,0,0,0,0,0,0,0,-1,923,1716,5.00916,-16.6922
-294,-692,3.56244,16.0201,0,0,0,0,0,0,0,-1,930,1716,3.56244,-16.0201
-287,-692,4.07886,15.5864,0,0,0,0,0,0,0,-1,937,1716,4.07887,-15.5864
-280,-692,4.25482,12.7695,0.0203953,0.0114565,-0.0398186,0.0559946,-0.0241427,-0.72951,0.0474699,0.046985,944,1716,4.25485,-12.7696
-273,-692,4.72266,13.2423,0.0171477,0.0176119,-0.0298163,0.047197,-0.0124374,-0.78929,0.0363273,0.0451409,951,1716,4.72266,-13.2423
-266,-692,5.23077,13.7458,0.014688,0.0182443,-0.0219358,0.0384739,-0.00554156,-0.825841,0.0276819,0.0482526,958,1716,5.2308,-13.7458
-259,-692,5.61261,14.2842,0,0,0,0,0,0,0,-1,965,1716,5.6126,-14.2842
-252,-692,5.07294,15.4335,0.0101173,0.0214947,-0.00937654,0.0267733,0.00483873,-1.05806,0.0164745,0.0499556,972,1716,5.07294,-15.4334
-245,-692,4.77081,15.5009,0.00881387,0.0162526,-0.00610251,0.0196798,0.0053866,-1.05908,0.0117436,0.0461269,979,1716,4.77083,-15.5009
-238,-692,4.79517,15.6783,0.00712966,0.0102418,-0.00420879,0.013173,0.0041985,-0.962466,0.00777025,0.042526,986,1716,4.79517,-15.6784
-231,-692,4.76837,15.7913,0.00560768,0.00518453,-0.00294786,0.00835155,0.00244066,-0.749573,0.00495858,0.0327276,993,1716,4.76838,-15.7912
-224,-692,4.60077,15.9761,0.00372687,-0.00318514,-0.00118747,0.00392519,-0.00338345,-0.165479,0.00422351,0.0168415,1000,1716,4.6008,-15.9761
-217,-692,4.54541,16.1694,0.00220149,-0.00489197,-0.000808625,0.00229251,-0.00498299,-0.11208,0.00429518,0.0124338,1007,1716,4.54543,-16.1694
-210,-692,4.56653,16.3362,0.00166725,-0.00523664,-0.000660142,0.0017298,-0.00529919,-0.0944781,0.00422901,0.0133076,1014,1716,4.56653,-16.3361
-203,-692,4.57031,16.4888,0.00186987,-0.0040118,-0.00033472,0.00188885,-0.00403079,-0.0566653,0.00349148,0.0149726,1021,1716,4.57025,-16.4888
-196,-692,4.54932,16.6772,0.0020385,-0.0028602,3.1309e-05,0.0020387,-0.0028604,0.00639095,0.00284173,0.0168095,1028,1716,4.54934,-16.6773
-189,-692,4.52271,16.8436,0.00190141,-0.00200912,0.000223801,0.00191418,-0.00202188,0.0569823,0.00227277,0.00865425,1035,1716,4.52276,-16.8437
-182,-692,4.51831,17.0114,0.00166432,-0.00125952,0.000376636,0.00171206,-0.00130726,0.126074,0.00174842,0.0132259,1042,1716,4.51825,-17.0114
-175,-692,4.51453,17.1887,0.00168655,-0.000682219,0.000586856,0.00182397,-0.000819639,0.230019,0.00156257,0.0147504,1049,1716,4.51453,-17.1888
-168,-692,4.52429,17.3209,0.00150212,-0.000174139,0.00055873,0.00167129,-0.000343303,0.293991,0.00124451,0.0112736,1056,1716,4.52426,-17.3209
-161,-692,4.52856,17.4854,0.00122824,0.000248405,0.000753074,0.00163673,-0.000160088,0.497015,0.00114824,0.0126834,1063,1716,4.52857,-17.4853
-154,-692,4.51978,17.6406,0.00109776,0.00018538,0.00106588,0.00180097,-0.000517833,0.583197,0.00140543,0.0139708,1070,1716,4.51979,-17.6406
-147,-692,4.51062,17.764,0.00132041,-5.63172e-05,0.00107984,0.00191263,-0.000648537,0.50164,0.00153756,0.0131219,1077,1716,4.51059,-17.764
-140,-692,4.50769,17.895,0.00158671,-0.000313492,0.00099635,0.00201335,-0.000740128,0.404577,0.0016454,0.00984532,1084,1716,4.50765,-17.895
-133,-692,4.51563,18.0221,0.00184615,-0.000675749,0.000911772,0.00214126,-0.000970859,0.313026,0.00183865,0.00914232,1091,1716,4.51562,-18.0221
-126,-692,4.52148,18.149,0.00210271,-0.00095315,0.000888063,0.00234205,-0.00119248,0.263248,0.00207633,0.00721428,1098,1716,4.52145,-18.1491
-119,-692,4.52637,18.2588,0.00244558,-0.000964029,0.00100522,0.00271987,-0.00123832,0.266383,0.00233802,0.0104387,1105,1716,4.52633,-18.2588
-112,-692,4.53186,18.3958,0.00277168,-0.00107109,0.00105674,0.00304311,-0.00134252,0.251417,0.00259472,0.0107728,1112,1716,4.5318,-18.3957
-105,-692,4.55859,18.5143,0.00310008,-0.00107421,0.00113765,0.00338999,-0.00136413,0.249528,0.00282664,0.015365,1119,1716,4.55864,-18.5143
-98,-692,4.59351,18.6106,0.00346315,-0.00085109,0.00132716,0.00383872,-0.00122666,0.275777,0.00305136,0.0169573,1126,1716,4.59347,-18.6106
-91,-692,4.57861,18.6949,0.00391457,-0.000578093,0.00170179,0.00448641,-0.00114993,0.324169,0.00343894,0.0197309,1133,1716,4.57867,-18.695
-84,-692,4.58093,18.7838,0.00438977,-0.000189133,0.00208744,0.00519854,-0.000997903,0.369638,0.00384177,0.0216713,1140,1716,4.58089,-18.7838
-77,-692,4.57458,18.9351,0.00483566,0.000417615,0.00218663,0.00573487,-0.000481596,0.390152,0.00399347,0.0146934,1147,1716,4.57453,-18.9351
-70,-692,4.61475,19.0774,0.00521175,0.000883356,0.00203337,0.00601712,7.79824e-05,0.377121,0.00398567,0.0204388,1154,1716,4.61472,-19.0774
-63,-692,4.63525,19.1689,0.00561885,0.00107384,0.00176955,0.00622655,0.000466142,0.330801,0.0040047,0.0330515,1161,1716,4.6353,-19.169
-56,-692,4.68823,19.2505,0,0,0,0,0,0,0,-1,1168,1716,4.68823,-19.2505
-49,-692,4.63171,19.3191,0,0,0,0,0,0,0,-1,1175,1716,4.63167,-19.3191
-42,-692,4.64978,19.5031,0,0,0,0,0,0,0,-1,1182,1716,4.64977,-19.503
-35,-692,4.69202,19.55,0,0,0,0,0,0,0,-1,1189,1716,4.69206,-19.55
-28,-692,4.62024,19.559,0.0202038,-0.00374381,-0.000648587,0.0202214,-0.00376136,-0.0270571,0.0148939,0.0435851,1196,1716,4.62025,-19.5589
-21,-692,4.72437,19.4955,0.0219511,-0.00488405,-0.000312149,0.0219547,-0.00488768,-0.01163,0.0165087,0.0286159,1203,1716,4.72434,-19.4955
-14,-692,4.77405,19.5328,0.0229333,-0.00610557,0.000236611,0.0229353,-0.0061075,0.00814735,0.0176812,0.0156767,1210,1716,4.77404,-19.5329
-7,-692,4.77527,19.6217,0.0234003,-0.00683907,0.00148011,0.0234726,-0.00691134,0.0487911,0.0183903,0.0152008,1217,1716,4.77524,-19.6217
0,-692,4.81873,19.682,0.0229425,-0.00582783,0.00165103,0.0230369,-0.00592227,0.0571365,0.0176661,0.0174312,1224,1716,4.81869,-19.682
7,-692,4.85999,19.7089,0.0218937,-0.00507204,0.00239161,0.0221042,-0.00528251,0.0877777,0.0167765,0.0208278,1231,1716,4.85995,-19.7088
14,-692,4.89319,19.8209,0.0207438,-0.00414642,0.00298213,0.0210961,-0.00449873,0.117594,0.0157789,0.0233302,1238,1716,4.89321,-19.8209
21,-692,4.96533,19.8114,0.0211103,-0.00298418,0.00292371,0.02146,-0.00333387,0.119042,0.0155377,0.0246677,1245,1716,4.96537,-19.8114
28,-692,4.96338,19.7367,0.0219277,-0.00240341,0.00345185,0.022408,-0.00288365,0.138237,0.0159868,0.0240355,1252,1716,4.96334,-19.7367
35,-692,4.98865,19.8234,0.0221463,-0.00147578,0.00348956,0.022651,-0.00198049,0.143638,0.0158022,0.0229186,1259,1716,4.98866,-19.8234
42,-692,5.02039,19.9238,0.0221568,-0.000758177,0.00317944,0.0225898,-0.00119114,0.135344,0.0154722,0.0214704,1266,1716,5.02034,-19.9238
49,-692,5.02356,19.9211,0.022088,-0.000449567,0.00265207,0.0223959,-0.000757438,0.11557,0.0151894,0.027082,1273,1716,5.02355,-19.9212
56,-692,4.93079,19.9176,0.0219603,-0.000649824,0.00199144,0.0221344,-0.000823884,0.0871827,0.0150384,0.0315088,1280,1716,4.93077,-19.9176
63,-692,4.98499,19.9535,0.0212229,-0.000921544,0.00165337,0.0213456,-0.00104431,0.0741153,0.014591,0.0275651,1287,1716,4.985,-19.9535
70,-692,5.06543,19.9546,0.020173,-0.00184976,0.00123941,0.0202425,-0.0019193,0.056043,0.0141781,0.024328,1294,1716,5.06539,-19.9546
77,-692,5.14941,19.9879,0.0189334,-0.00374565,0.000756175,0.0189585,-0.00377084,0.0332932,0.0140655,0.0275229,1301,1716,5.14939,-19.9879
84,-692,5.25525,19.9591,0.0167093,-0.00513828,0.000318213,0.0167139,-0.00514291,0.014561,0.0131953,0.0325509,1308,1716,5.25522,-19.9591
91,-692,5.15039,19.9281,0.0135016,-0.00671413,1.91927e-05,0.0135017,-0.00671414,0.00094939,0.0118889,0.0324743,1315,1716,5.15034,-19.9281
98,-692,5.0957,19.8937,0.00982824,-0.00810342,3.08397e-05,0.00982829,-0.00810348,0.00171984,0.0103689,0.0263591,1322,1716,5.09567,-19.8937
105,-692,5.1405,19.8412,0.00608685,-0.0100446,0.000776359,0.00612413,-0.0100819,0.0479792,0.0094491,0.0321605,1329,1716,5.14051,-19.8412
112,-692,5.15735,19.8472,0.0023042,-0.0110285,0.0011768,0.00240727,-0.0111316,0.0873636,0.00834012,0.0345445,1336,1716,5.15737,-19.8472
119,-692,5.13831,19.8553,-0.0017867,-0.0115495,0.00170031,-0.00149905,-0.0118371,0.167591,0.00744223,0.0274091,1343,1716,5.13835,-19.8554
126,-692,5.19739,19.8285,-0.00661275,-0.0115784,0.00262417,-0.005483,-0.0127082,0.406533,0.00736001,0.0266063,1350,1716,5.19733,-19.8285
133,-692,5.21765,19.7765,-0.0103811,-0.010713,0.0029139,-0.00762847,-0.0134657,0.756954,0.00779732,0.0217527,1357,1716,5.21767,-19.7764
140,-692,5.25342,19.7418,-0.011982,-0.00990961,0.00374851,-0.00705672,-0.0148349,0.920245,0.00856831,0.02659,1364,1716,5.25338,-19.7418
147,-692,5.30273,19.8267,-0.0132505,-0.00899239,0.00456425,-0.00608504,-0.0161578,1.00363,0.00942294,0.0304012,1371,1716,5.30272,-19.8267
154,-692,5.24365,19.8333,-0.0139664,-0.00787531,0.00533205,-0.00478033,-0.0170614,1.04488,0.0101627,0.0277083,1378,1716,5.24368,-19.8333
161,-692,5.45911,19.8033,-0.0141932,-0.00643507,0.00614434,-0.00304777,-0.0175805,1.06697,0.0108481,0.0408261,1385,1716,5.45916,-19.8034
168,-692,5.64197,19.801,0,0,0,0,0,0,0,-1,1392,1716,5.64194,-19.801
175,-692,5.35706,19.6307,0,0,0,0,0,0,0,-1,1399,1716,5.35703,-19.6308
182,-692,5.37744,19.5132,0,0,0,0,0,0,0,-1,1406,1716,5.37744,-19.5132
189,-692,5.50769,19.5469,0,0,0,0,0,0,0,-1,1413,1716,5.50766,-19.5469
196,-692,5.40259,19.4083,-0.000547677,0.00170257,0.00339688,0.00415581,-0.00300092,0.945323,0.00414984,0.0293555,1420,1716,5.40256,-19.4083
203,-692,5.41187,19.3395,0.00123981,0.00135516,0.00195986,0.0032582,-0.000663223,0.800108,0.00242364,0.0189351,1427,1716,5.41192,-19.3394
210,-692,5.47827,19.2803,0.000698011,0.000961878,0.00177769,0.00261253,-0.000952637,0.822438,0.00213142,0.0175137,1434,1716,5.47823,-19.2803
217,-692,5.45789,19.178,0.000220076,0.000438334,0.00140088,0.00173433,-0.00107592,0.82427,0.00163727,0.016716,1441,1716,5.45792,-19.178
224,-692,5.43591,19.0961,0.000282286,-1.22315e-05,0.00114936,0.00129378,-0.00102373,0.721684,0.00134104,0.0134305,1448,1716,5.43586,-19.0961
231,-692,5.42346,18.9999,0.000448807,-0.000434614,0.000879867,0.000991614,-0.000977421,0.552767,0.00113683,0.011243,1455,1716,5.42351,-18.9999
238,-692,5.42896,18.8495,0.000839989,-0.000672214,0.000479806,0.000979378,-0.000811603,0.282729,0.00103553,0.0172629,1462,1716,5.4289,-18.8495
245,-692,5.42456,18.7578,0.00116716,-0.000934407,0.000221587,0.00119027,-0.000957517,0.103917,0.00124245,0.020408,1469,1716,5.42454,-18.7578
252,-692,5.45789,18.6959,0.00169734,-0.000943105,-1.30539e-05,0.0016974,-0.000943169,-0.00494365,0.00154513,0.0179268,1476,1716,5.45784,-18.6959
259,-692,5.4657,18.6042,0.00182265,-0.00101818,-0.000188675,0.00183513,-0.00103066,-0.0660288,0.00167615,0.00996724,1483,1716,5.46566,-18.6042
266,-692,5.45325,18.4977,0.00145726,-0.00130013,-0.000353046,0.00150174,-0.00134462,-0.125343,0.00164418,0.0102757,1490,1716,5.45319,-18.4976
273,-692,5.46301,18.3596,0.0008587,-0.0014693,-0.000527638,0.000972706,-0.0015833,-0.212796,0.00148968,0.0146749,1497,1716,5.46297,-18.3597
280,-692,5.48596,18.2427,-6.34406e-05,-0.00162217,-0.000635444,0.000162779,-0.00184839,-0.342012,0.00128995,0.014,1504,1716,5.48599,-18.2426
287,-692,5.4812,18.1432,-0.00111064,-0.00188534,-0.000682013,-0.000713654,-0.00228232,-0.527139,0.00134817,0.0106855,1511,1716,5.48115,-18.1432
294,-692,5.47144,18.0251,-0.0021505,-0.00201531,-0.000773395,-0.00130656,-0.00285925,-0.828988,0.00165283,0.0101141,1518,1716,5.47138,-18.0252
301,-692,5.47229,17.8912,-0.00297496,-0.00206586,-0.000860439,-0.00154728,-0.00349353,-1.02841,0.00202137,0.0132486,1525,1716,5.47231,-17.8913
308,-692,5.42395,17.7524,-0.00341289,-0.00175235,-0.0011703,-0.00114772,-0.00401752,-1.09392,0.00238949,0.0173635,1532,1716,5.4239,-17.7524
315,-692,5.45337,17.6101,-0.00358073,-0.00140698,-0.00133753,-0.000770403,-0.0042173,-1.12659,0.00259316,0.0162264,1539,1716,5.45342,-17.6101
322,-692,5.4729,17.4518,-0.00321584,-0.000904824,-0.0015219,-0.000149476,-0.00397119,-1.1101,0.00259907,0.0211349,1546,1716,5.47289,-17.4517
329,-692,5.45239,17.3032,-0.00259304,-0.000373719,-0.00182854,0.000655519,-0.00362228,-1.05812,0.00266042,0.0186066,1553,1716,5.45245,-17.3032
336,-692,5.46313,17.1632,-0.00164482,0.000297011,-0.00215261,0.00168754,-0.00303535,-0.997258,0.00276353,0.0119789,1560,1716,5.46317,-17.1632
343,-692,5.45959,17.0052,-0.000367065,0.00113354,-0.00262321,0.00311165,-0.00234517,-0.924691,0.00316084,0.0125071,1567,1716,5.45954,-17.0052
350,-692,5.45752,16.8376,0.00113206,0.00170424,-0.00318273,0.00461372,-0.00177741,-0.830222,0.00380912,0.013084,1574,1716,5.45753,-16.8377
357,-692,5.43115,16.6744,0.00360074,0.00280292,-0.00388609,0.00710834,-0.000704684,-0.734252,0.0049904,0.015885,1581,1716,5.43112,-16.6744
364,-692,5.39905,16.5256,0.00587676,0.00395951,-0.0046114,0.00962812,0.000208148,-0.682917,0.0063505,0.0216718,1588,1716,5.39901,-16.5256
371,-692,5.51917,16.3832,0.00664316,0.00388948,-0.00514102,0.0105885,-5.58742e-05,-0.654561,0.00707771,0.0336229,1595,1716,5.51916,-16.3831
378,-692,5.63513,16.2313,0.00780116,0.00310284,-0.00560491,0.0115293,-0.000625297,-0.586956,0.00790288,0.0433631,1602,1716,5.63511,-16.2313
385,-692,5.65833,15.9423,0,0,0,0,0,0,0,-1,1609,1716,5.65837,-15.9422
392,-692,5.47693,15.2743,0,0,0,0,0,0,0,-1,1616,1716,5.47698,-15.2743
399,-692,5.2627,10.4279,0,0,0,0,0,0,0,-1,1623,1716,5.26267,-10.4278
406,-692,4.73633,10.6808,0,0,0,0,0,0,0,-1,1630,1716,4.73637,-10.6808
413,-692,4.25085,10.5685,0,0,0,0,0,0,0,-1,1637,1716,4.2508,-10.5685
420,-692,5.48901,10.4845,0,0,0,0,0,0,0,-1,1644,1716,5.48906,-10.4845
427,-692,3.79578,8.60339,0,0,0,0,0,0,0,-1,1651,1716,3.79577,-8.6034
434,-692,4.78516,8.64636,0,0,0,0,0,0,0,-1,1658,1716,4.78512,-8.64634
441,-692,5.8208,8.74036,0,0,0,0,0,0,0,-1,1665,1716,5.82084,-8.7404
448,-692,6.73792,8.51013,0,0,0,0,0,0,0,-1,1672,1716,6.73793,-8.5101
455,-692,0,0,0,0,0,0,0,0,0,-1,1679,1716,0,0
462,-692,0,0,0,0,0,0,0,0,0,-1,1686,1716,0,0
469,-692,0,0,0,0,0,0,0,0,0,-1,1693,1716,0,0
476,-692,0,0,0,0,0,0,0,0,0,-1,1700,1716,0,0
483,-692,0,0,0,0,0,0,0,0,0,-1,1707,1716,0,0
490,-692,0,0,0,0,0,0,0,0,0,-1,1714,1716,0,0
497,-692,0,0,0,0,0,0,0,0,0,-1,1721,1716,0,0
504,-692,0,0,0,0,0,0,0,0,0,-1,1728,1716,0,0
511,-692,0,0,0,0,0,0,0,0,0,-1,1735,1716,0,0
518,-692,0,0,0,0,0,0,0,0,0,-1,1742,1716,0,0
525,-692,0,0,0,0,0,0,0,0,0,-1,1749,1716,0,0
532,-692,0,0,0,0,0,0,0,0,0,-1,1756,1716,0,0
539,-692,0,0,0,0,0,0,0,0,0,-1,1763,1716,0,0
546,-692,0,0,0,0,0,0,0,0,0,-1,1770,1716,0,0
553,-692,0,0,0,0,0,0,0,0,0,-1,1777,1716,0,0
560,-692,0,0,0,0,0,0,0,0,0,-1,1784,1716,0,0
567,-692,0,0,0,0,0,0,0,0,0,-1,1791,1716,0,0
574,-692,0,0,0,0,0,0,0,0,0,-1,1798,1716,0,0
581,-692,0,0,0,0,0,0,0,0,0,-1,1805,1716,0,0
588,-692,0,0,0,0,0,0,0,0,0,-1,1812,1716,0,0
595,-692,0,0,0,0,0,0,0,0,0,-1,1819,1716,0,0
602,-692,0,0,0,0,0,0,0,0,0,-1,1826,1716,0,0
609,-692,0,0,0,0,0,0,0,0,0,-1,1833,1716,0,0
616,-692,0,0,0,0,0,0,0,0,0,-1,1840,1716,0,0
623,-692,0,0,0,0,0,0,0,0,0,-1,1847,1716,0,0
630,-692,0,0,0,0,0,0,0,0,0,-1,1854,1716,0,0
637,-692,0,0,0,0,0,0,0,0,0,-1,1861,1716,0,0
644,-692,0,0,0,0,0,0,0,0,0,-1,1868,1716,0,0
651,-692,0,0,0,0,0,0,0,0,0,-1,1875,1716,0,0
658,-692,0,0,0,0,0,0,0,0,0,-1,1882,1716,0,0
665,-692,0,0,0,0,0,0,0,0,0,-1,1889,1716,0,0
672,-692,0,0,0,0,0,0,0,0,0,-1,1896,1716,0,0
679,-692,0,0,0,0,0,0,0,0,0,-1,1903,1716,0,0
686,-692,0,0,0,0,0,0,0,0,0,-1,1910,1716,0,0
693,-692,0,0,0,0,0,0,0,0,0,-1,1917,1716,0,0
700,-692,0,0,0,0,0,0,0,0,0,-1,1924,1716,0,0
707,-692,0,0,0,0,0,0,0,0,0,-1,1931,1716,0,0
714,-692,0,0,0,0,0,0,0,0,0,-1,1938,1716,0,0
721,-692,0,0,0,0,0,0,0,0,0,-1,1945,1716,0,0
728,-692,0,0,0,0,0,0,0,0,0,-1,1952,1716,0,0
735,-692,0,0,0,0,0,0,0,0,0,-1,1959,1716,0,0
742,-692,0,0,0,0,0,0,0,0,0,-1,1966,1716,0,0
749,-692,0,0,0,0,0,0,0,0,0,-1,1973,1716,0,0
756,-692,0,0,0,0,0,0,0,0,0,-1,1980,1716,0,0
763,-692,0,0,0,0,0,0,0,0,0,-1,1987,1716,0,0
770,-692,0,0,0,0,0,0,0,0,0,-1,1994,1716,0,0
777,-692,0,0,0,0,0,0,0,0,0,-1,2001,1716,0,0
784,-692,0,0,0,0,0,0,0,0,0,-1,2008,1716,0,0
791,-692,0,0,0,0,0,0,0,0,0,-1,2015,1716,0,0
798,-692,0,0,0,0,0,0,0,0,0,-1,2022,1716,0,0
805,-692,0,0,0,0,0,0,0,0,0,-1,2029,1716,0,0
812,-692,0,0,0,0,0,0,0,0,0,-1,2036,1716,0,0
-700,-699,0,0,0,0,0,0,0,0,0,-1,524,1723,0,0
-693,-699,0,0,0,0,0,0,0,0,0,-1,531,1723,0,0
-686,-699,0,0,0,0,0,0,0,0,0,-1,538,1723,0,0
-679,-699,0,0,0,0,0,0,0,0,0,-1,545,1723,0,0
-672,-699,0,0,0,0,0,0,0,0,0,-1,552,1723,0,0
-665,-699,0,0,0,0,0,0,0,0,0,-1,559,1723,0,0
-658,-699,0,0,0,0,0,0,0,0,0,-1,566,1723,0,0
-651,-699,0,0,0,0,0,0,0,0,0,-1,573,1723,0,0
-644,-699,0,0,0,0,0,0,0,0,0,-1,580,1723,0,0
-637,-699,0,0,0,0,0,0,0,0,0,-1,587,1723,0,0
-630,-699,0,0,0,0,0,0,0,0,0,-1,594,1723,0,0
-623,-699,0,0,0,0,0,0,0,0,0,-1,601,1723,0,0
-616,-699,0,0,0,0,0,0,0,0,0,-1,608,1723,0,0
-609,-699,0,0,0,0,0,0,0,0,0,-1,615,1723,0,0
-602,-699,0,0,0,0,0,0,0,0,0,-1,622,1723,0,0
-595,-699,0,0,0,0,0,0,0,0,0,-1,629,1723,0,0
-588,-699,0,0,0,0,0,0,0,0,0,-1,636,1723,0,0
-581,-699,0,0,0,0,0,0,0,0,0,-1,643,1723,0,0
-574,-699,0,0,0,0,0,0,0,0,0,-1,650,1723,0,0
-567,-699,0,0,0,0,0,0,0,0,0,-1,657,1723,0,0
-560,-699,0,0,0,0,0,0,0,0,0,-1,664,1723,0,0
-553,-699,0,0,0,0,0,0,0,0,0,-1,671,1723,0,0
-546,-699,0,0,0,0,0,0,0,0,0,-1,678,1723,0,0
-539,-699,0,0,0,0,0,0,0,0,0,-1,685,1723,0,0
-532,-699,0,0,0,0,0,0,0,0,0,-1,692,1723,0,0
-525,-699,0,0,0,0,0,0,0,0,0,-1,699,1723,0,0
-518,-699,0,0,0,0,0,0,0,0,0,-1,706,1723,0,0
-511,-699,0,0,0,0,0,0,0,0,0,-1,713,1723,0,0
-504,-699,0,0,0,0,0,0,0,0,0,-1,720,1723,0,0
-497,-699,0,0,0,0,0,0,0,0,0,-1,727,1723,0,0
-490,-699,0,0,0,0,0,0,0,0,0,-1,734,1723,0,0
-483,-699,0,0,0,0,0,0,0,0,0,-1,741,1723,0,0
-476,-699,0,0,0,0,0,0,0,0,0,-1,748,1723,0,0
-469,-699,0,0,0,0,0,0,0,0,0,-1,755,1723,0,0
-462,-699,0,0,0,0,0,0,0,0,0,-1,762,1723,0,0
-455,-699,0,0,0,0,0,0,0,0,0,-1,769,1723,0,0
-448,-699,0,0,0,0,0,0,0,0,0,-1,776,1723,0,0
-441,-699,0,0,0,0,0,0,0,0,0,-1,783,1723,0,0
-434,-699,0,0,0,0,0,0,0,0,0,-1,790,1723,0,0
-427,-699,0,0,0,0,0,0,0,0,0,-1,797,1723,0,0
-420,-699,0,0,0,0,0,0,0,0,0,-1,804,1723,0,0
-413,-699,0,0,0,0,0,0,0,0,0,-1,811,1723,0,0
-406,-699,0,0,0,0,0,0,0,0,0,-1,818,1723,0,0
-399,-699,0,0,0,0,0,0,0,0,0,-1,825,1723,0,0
-392,-699,0,0,0,0,0,0,0,0,0,-1,832,1723,0,0
-385,-699,0,0,0,0,0,0,0,0,0,-1,839,1723,0,0
-378,-699,0,0,0,0,0,0,0,0,0,-1,846,1723,0,0
-371,-699,0,0,0,0,0,0,0,0,0,-1,853,1723,0,0
-364,-699,0,0,0,0,0,0,0,0,0,-1,860,1723,0,0
-357,-699,0,0,0,0,0,0,0,0,0,-1,867,1723,0,0
-350,-699,0,0,0,0,0,0,0,0,0,-1,874,1723,0,0
-343,-699,0,0,0,0,0,0,0,0,0,-1,881,1723,0,0
-336,-699,0,0,0,0,0,0,0,0,0,-1,888,1723,0,0
-329,-699,0,0,0,0,0,0,0,0,0,-1,895,1723,0,0
-322,-699,0,0,0,0,0,0,0,0,0,-1,902,1723,0,0
-315,-699,6.20001,19.5193,0,0,0,0,0,0,0,-1,909,1723,6.20001,-19.5193
-308,-699,6.98151,18.9218,0,0,0,0,0,0,0,-1,916,1723,6.98151,-18.9217
-301,-699,4.72729,12.8752,0,0,0,0,0,0,0,-1,923,1723,4.72732,-12.8752
-294,-699,7.30756,14.6849,0,0,0,0,0,0,0,-1,930,1723,7.30753,-14.6849
-287,-699,6.84338,13.9138,0,0,0,0,0,0,0,-1,937,1723,6.84339,-13.9138
-280,-699,4.61371,12.2424,0,0,0,0,0,0,0,-1,944,1723,4.61373,-12.2425
-273,-699,5.08514,12.6868,0,0,0,0,0,0,0,-1,951,1723,5.08517,-12.6868
-266,-699,5.78046,12.9277,0,0,0,0,0,0,0,-1,958,1723,5.78047,-12.9278
-259,-699,5.67737,10.8545,0,0,0,0,0,0,0,-1,965,1723,5.67736,-10.8545
-252,-699,5.55518,15.5377,0,0,0,0,0,0,0,-1,972,1723,5.55518,-15.5377
-245,-699,5.07623,15.5533,0,0,0,0,0,0,0,-1,979,1723,5.07626,-15.5534
-238,-699,5.12982,15.7787,0,0,0,0,0,0,0,-1,986,1723,5.12981,-15.7787
-231,-699,4.99103,15.9615,0.00847537,0.00496237,-0.00338109,0.010529,0.00290874,-0.545833,0.00627852,0.043334,993,1723,4.99104,-15.9615
-224,-699,4.5932,16.0375,0.0060904,-0.00529067,-0.00135441,0.00624936,-0.00544964,-0.116831,0.00675968,0.034522,1000,1723,4.59318,-16.0375
-217,-699,4.66327,16.1956,0.00417563,-0.00711152,-0.00099413,0.00426252,-0.00719841,-0.0871819,0.00668895,0.0259804,1007,1723,4.66327,-16.1956
-210,-699,4.73877,16.3285,0.0033566,-0.00722595,-0.000893061,0.00343143,-0.00730078,-0.083602,0.00632906,0.0189813,1014,1723,4.7388,-16.3285
-203,-699,4.75049,16.4817,0.00331941,-0.00538231,-0.000564421,0.00335587,-0.00541877,-0.0645029,0.0051125,0.0223824,1021,1723,4.75051,-16.4817
-196,-699,4.71741,16.6456,0.00319553,-0.00366283,-0.000122176,0.00319771,-0.00366501,-0.0178067,0.00396525,0.0180122,1028,1723,4.71747,-16.6456
-189,-699,4.67627,16.8558,0.00273391,-0.00236285,0.000138976,0.0027377,-0.00236664,0.0272405,0.00294959,0.00892925,1035,1723,4.67627,-16.8559
-182,-699,4.67419,17.0243,0.00216907,-0.00118034,0.000357792,0.00220686,-0.00121813,0.10524,0.0020047,0.0118869,1042,1723,4.67417,-17.0242
-175,-699,4.68921,17.2043,0.00189703,-0.000242948,0.000659426,0.00208391,-0.000429827,0.276156,0.00155251,0.0145785,1049,1723,4.68922,-17.2044
-168,-699,4.71008,17.3434,0.00142813,0.000610801,0.000616582,0.00175918,0.000279748,0.492742,0.00109155,0.0159216,1056,1723,4.71008,-17.3433
-161,-699,4.67773,17.47,0.000862759,0.00138661,0.000854827,0.00201874,0.000230628,0.93406,0.00127592,0.0132785,1063,1723,4.67774,-17.4699
-154,-699,4.64294,17.6179,0.000462534,0.00142791,0.00131172,0.00234294,-0.000452492,0.9617,0.0017326,0.0129465,1070,1723,4.64295,-17.6179
-147,-699,4.63757,17.7568,0.000577282,0.0012523,0.0013364,0.00229315,-0.000463574,0.909086,0.00170444,0.014247,1077,1723,4.63755,-17.7568
-140,-699,4.64246,17.8971,0.000785558,0.00103826,0.00124076,0.00215908,-0.000335264,0.83614,0.00156317,0.00981082,1084,1723,4.64247,-17.8971
-133,-699,4.64819,18.0311,0.000991381,0.000722426,0.00112289,0.00198782,-0.000274013,0.725802,0.00142536,0.00884259,1091,1723,4.64815,-18.0312
-126,-699,4.66309,18.1472,0.00115809,0.000421888,0.00104992,0.00190256,-0.000322587,0.616794,0.00138845,0.0103781,1098,1723,4.66305,-18.1472
-119,-699,4.66724,18.2708,0.00137988,0.000345281,0.00108775,0.00206707,-0.000341915,0.563443,0.00150502,0.0148289,1105,1723,4.66728,-18.2708
-112,-699,4.64734,18.3972,0.0016714,0.000189445,0.00108574,0.00224491,-0.000384068,0.48597,0.00163969,0.0110708,1112,1723,4.64739,-18.3972
-105,-699,4.64099,18.5243,0.00197469,5.56259e-05,0.00107805,0.00245838,-0.000428062,0.421748,0.00179867,0.0119088,1119,1723,4.64104,-18.5243
-98,-699,4.6925,18.6143,0.00223601,3.18216e-05,0.0011507,0.00272725,-0.000459418,0.403484,0.00198907,0.0134402,1126,1723,4.69256,-18.6143
-91,-699,4.71191,18.6969,0.00254937,0.000191836,0.00133341,0.00315034,-0.000409135,0.423439,0.00224904,0.0197405,1133,1723,4.71194,-18.6969
-84,-699,4.69019,18.812,0.00289788,0.000459982,0.00156468,0.00366238,-0.000304519,0.454484,0.00254916,0.0228238,1140,1723,4.69016,-18.812
-77,-699,4.67908,18.9218,0.00325489,0.00083822,0.0016133,0.0040622,3.09122e-05,0.463973,0.00269789,0.0151859,1147,1723,4.67909,-18.9217
-70,-699,4.68945,19.0079,0.00357786,0.0011152,0.00147719,0.00426961,0.000423445,0.437961,0.00271628,0.0163439,1154,1723,4.68944,-19.0079
-63,-699,4.7085,19.1127,0.00390734,0.00120986,0.00127597,0.00441527,0.000701939,0.37884,0.00273967,0.0135971,1161,1723,4.70851,-19.1126
-56,-699,4.70972,19.205,0.00420043,0.00112492,0.00103685,0.00451733,0.000808024,0.296621,0.00278161,0.0101021,1168,1723,4.70967,-19.205
-49,-699,4.72437,19.3198,0.0043418,0.000566088,0.000971761,0.00457723,0.000330664,0.237686,0.00294745,0.0232503,1175,1723,4.72442,-19.3198
-42,-699,4.72681,19.4198,0.00700381,3.31803e-06,0.000140386,0.00700662,5.03846e-07,0.020043,0.00467091,0.0266348,1182,1723,4.7268,-19.4198
-35,-699,4.73096,19.4692,0.00951857,-0.0011113,-0.000290041,0.00952648,-0.00111921,-0.0272584,0.00675503,0.0243097,1189,1723,4.7309,-19.4692
-28,-699,4.78589,19.5162,0.0111687,-0.00132553,-0.000527059,0.0111909,-0.00134772,-0.0420846,0.00794801,0.0189981,1196,1723,4.78594,-19.5162
-21,-699,4.78442,19.5352,0.0123088,-0.0023039,-0.000350695,0.0123172,-0.00231231,-0.0239809,0.00908091,0.0130446,1203,1723,4.7844,-19.5352
-14,-699,4.78442,19.595,0.0130451,-0.00342975,6.99188e-05,0.0130454,-0.00343004,0.00424386,0.0100376,0.0118064,1210,1723,4.78448,-19.595
-7,-699,4.79211,19.6664,0.0135573,-0.00420743,0.00103732,0.0136177,-0.0042678,0.058129,0.0107862,0.00853123,1217,1723,4.79209,-19.6664
0,-699,4.81799,19.7124,0.0134837,-0.00384469,0.00127941,0.0135776,-0.00393864,0.0733037,0.0106112,0.00952524,1224,1723,4.818,-19.7124
7,-699,4.84631,19.7521,0.0129675,-0.00367212,0.00187447,0.013176,-0.00388067,0.110801,0.0103236,0.0151605,1231,1723,4.84636,-19.752
14,-699,4.87439,19.8086,0.0123995,-0.00338032,0.00238381,0.0127518,-0.00373257,0.146706,0.0099808,0.0175159,1238,1723,4.87434,-19.8086
21,-699,4.90564,19.8202,0.0127952,-0.00286514,0.00238508,0.0131504,-0.00322033,0.147836,0.0100145,0.0169347,1245,1723,4.9056,-19.8202
28,-699,4.90515,19.8035,0.0134089,-0.00283918,0.00294587,0.0139266,-0.00335679,0.173933,0.0105823,0.0163647,1252,1723,4.90511,-19.8034
35,-699,4.91675,19.8513,0.0135789,-0.0024688,0.00313352,0.014169,-0.00305896,0.186157,0.0106136,0.0142213,1259,1723,4.91679,-19.8513
42,-699,4.97351,19.9174,0.0135971,-0.00214415,0.0030147,0.0141547,-0.00270176,0.182896,0.0104541,0.0130307,1266,1723,4.97349,-19.9173
49,-699,4.99622,19.962,0.0135452,-0.00204688,0.0026881,0.0139956,-0.00249731,0.166019,0.0102646,0.0157072,1273,1723,4.99623,-19.9621
56,-699,5.01245,19.9856,0.0134655,-0.00227314,0.00223642,0.0137771,-0.00258476,0.138447,0.0101565,0.0151009,1280,1723,5.01242,-19.9856
63,-699,5.02014,19.9753,0.013074,-0.00266369,0.00199989,0.0133241,-0.00291385,0.124442,0.0099966,0.0130268,1287,1723,5.02009,-19.9753
70,-699,5.03833,19.9629,0.0125036,-0.00334704,0.00168585,0.0126809,-0.00352437,0.104797,0.00984138,0.011465,1294,1723,5.03831,-19.9629
77,-699,5.02966,19.9851,0.011788,-0.00471147,0.00129358,0.0118888,-0.00481228,0.077768,0.00992669,0.0108046,1301,1723,5.02972,-19.9851
84,-699,5.04028,19.9786,0.0104348,-0.00564932,0.000893459,0.0104843,-0.0056988,0.0553222,0.00947851,0.0125349,1308,1723,5.04023,-19.9787
91,-699,5.09375,19.9689,0.00859495,-0.00670743,0.000525388,0.00861297,-0.00672545,0.0342799,0.00887796,0.0123799,1315,1723,5.09374,-19.9689
98,-699,5.13586,19.9729,0.00654197,-0.00763732,0.000333064,0.00654979,-0.00764514,0.0234722,0.00820358,0.010777,1322,1723,5.13583,-19.9729
105,-699,5.13062,19.9683,0.00446084,-0.00896802,0.000715368,0.00449884,-0.00900602,0.0530707,0.00794046,0.0140869,1329,1723,5.13057,-19.9683
112,-699,5.12207,19.9583,0.002438,-0.00957152,0.000861928,0.00249955,-0.00963307,0.0712834,0.00739736,0.0204859,1336,1723,5.12203,-19.9583
119,-699,5.13,19.9382,0.000165875,-0.00983974,0.00105173,0.000275232,-0.0099491,0.103606,0.00672635,0.0151072,1343,1723,5.13005,-19.9382
126,-699,5.17407,19.9086,-0.00263891,-0.00975822,0.00157114,-0.0023076,-0.0100895,0.207829,0.00610431,0.0162055,1350,1723,5.17403,-19.9085
133,-699,5.21448,19.8727,-0.00468418,-0.0088473,0.00143828,-0.00423561,-0.00929586,0.302317,0.00537401,0.0146686,1357,1723,5.2145,-19.8726
140,-699,5.22949,19.8168,-0.00523795,-0.00805224,0.00180092,-0.00435963,-0.00893056,0.453766,0.00515655,0.0160777,1364,1723,5.22948,-19.8168
147,-699,5.2157,19.8019,-0.00555007,-0.00717044,0.00224406,-0.00397442,-0.00874609,0.612162,0.00505654,0.0146342,1371,1723,5.21575,-19.8019
154,-699,5.20349,19.7633,-0.00551601,-0.0060791,0.00271572,-0.00306728,-0.00852783,0.733747,0.00498776,0.0144156,1378,1723,5.20352,-19.7633
161,-699,5.22876,19.7166,-0.00537563,-0.0047318,0.00323961,-0.00179815,-0.00830928,0.83492,0.00504804,0.0100858,1385,1723,5.22878,-19.7165
168,-699,5.25,19.6823,-0.0053005,-0.00346106,0.00342759,-0.000831932,-0.00792962,0.916475,0.00503208,0.0112353,1392,1723,5.25004,-19.6822
175,-699,5.27698,19.6346,-0.00473175,-0.00168443,0.00316015,0.000300201,-0.00671638,1.01003,0.00458093,0.013454,1399,1723,5.27701,-19.6346
182,-699,5.31042,19.5326,-0.00374952,0.000509672,0.00293173,0.00200364,-0.00524349,1.09951,0.00432126,0.0137935,1406,1723,5.31037,-19.5325
189,-699,5.30383,19.4574,-0.00127293,0.000988836,0.00261588,0.00270782,-0.00299191,0.989423,0.0032921,0.0163318,1413,1723,5.30387,-19.4574
196,-699,5.29712,19.3817,0.000763529,0.00142248,0.00211065,0.00322921,-0.0010432,0.862825,0.00257205,0.0165445,1420,1723,5.2971,-19.3818
203,-699,5.2804,19.3368,0.000940497,0.00112078,0.00156129,0.00259453,-0.000533252,0.814234,0.00193212,0.0139785,1427,1723,5.28035,-19.3367
210,-699,5.32214,19.2539,0.00056171,0.00083837,0.00140594,0.00211276,-0.000712684,0.834435,0.00169672,0.0133457,1434,1723,5.32213,-19.2539
217,-699,5.34973,19.1831,0.000206046,0.000485901,0.00106198,0.00141713,-0.000725186,0.850901,0.00125819,0.0134361,1441,1723,5.3497,-19.1831
224,-699,5.33618,19.103,0.00021585,0.000196987,0.000755145,0.000961623,-0.000548786,0.779154,0.000882826,0.0145153,1448,1723,5.33613,-19.1031
231,-699,5.35449,19.0013,0.000280715,-7.56351e-05,0.000427728,0.000565894,-0.000360814,0.588047,0.000539385,0.0111425,1455,1723,5.35444,-19.0013
238,-699,5.33459,18.8889,0.000496575,-0.000222507,4.79404e-05,0.000499757,-0.000225689,0.0662779,0.000428684,0.0100202,1462,1723,5.33457,-18.8889
245,-699,5.33643,18.793,0.000698436,-0.000352121,-0.000241737,0.000751391,-0.000405076,-0.215655,0.000677592,0.0116685,1469,1723,5.3364,-18.793
252,-699,5.34155,18.7139,0.000607836,-0.000587009,-0.000502622,0.000791145,-0.000770318,-0.349716,0.000901538,0.0105033,1476,1723,5.34154,-18.7138
259,-699,5.34143,18.6255,-0.000110329,-0.00114962,-0.000677553,0.000223904,-0.00148386,-0.458269,0.0010717,0.0109352,1483,1723,5.34138,-18.6254
266,-699,5.32361,18.5132,-0.0011158,-0.00182056,-0.00086125,-0.000537628,-0.00239873,-0.591214,0.00145347,0.0130115,1490,1723,5.32357,-18.5132
273,-699,5.32764,18.3684,-0.0024673,-0.00228757,-0.00111103,-0.00126278,-0.00349209,-0.825753,0.00204174,0.0120393,1497,1723,5.32769,-18.3684
280,-699,5.35693,18.2485,-0.00419913,-0.00300494,-0.00122365,-0.00224048,-0.0049636,-1.01238,0.00287025,0.0117203,1504,1723,5.35698,-18.2486
287,-699,5.35571,18.1252,-0.00602777,-0.00393448,-0.00122383,-0.00337078,-0.00659147,-1.13916,0.00380592,0.0100276,1511,1723,5.35572,-18.1252
294,-699,5.35681,17.998,-0.00780962,-0.00467502,-0.00129897,-0.0042067,-0.00827795,-1.22477,0.00477949,0.0105072,1518,1723,5.35678,-17.998
301,-699,5.35779,17.8821,-0.00917141,-0.00517822,-0.0014348,-0.00471615,-0.00963348,-1.25924,0.00556229,0.0122174,1525,1723,5.35775,-17.8821
308,-699,5.34436,17.76,-0.0098519,-0.00512406,-0.00184442,-0.00448965,-0.0104863,-1.23951,0.00607508,0.0171495,1532,1723,5.34441,-17.76
315,-699,5.35303,17.5997,-0.0100721,-0.00489924,-0.00206296,-0.00417728,-0.0107941,-1.23416,0.00628478,0.0195061,1539,1723,5.35308,-17.5998
322,-699,5.32666,17.4492,-0.00940744,-0.00432305,-0.00228407,-0.00344768,-0.0102828,-1.20481,0.00604321,0.0207404,1546,1723,5.3267,-17.4493
329,-699,5.29639,17.2931,-0.00825877,-0.00358413,-0.00264249,-0.00239359,-0.00944931,-1.1475,0.00567258,0.0162098,1553,1723,5.29636,-17.2931
336,-699,5.31799,17.163,-0.00651394,-0.00253769,-0.00303208,-0.000900058,-0.00815158,-1.07558,0.00516059,0.0134146,1560,1723,5.31803,-17.1629
343,-699,5.33508,17.0166,-0.00425327,-0.00118282,-0.00361513,0.00120956,-0.00664565,-0.986193,0.00488381,0.0179494,1567,1723,5.33513,-17.0166
350,-699,5.35681,16.8953,-0.00164805,-3.95813e-05,-0.00428142,0.00351248,-0.00520012,-0.878238,0.00506158,0.028277,1574,1723,5.35682,-16.8953
357,-699,5.28357,16.833,0.00311729,0.00242959,-0.0050783,0.00786336,-0.00231649,-0.751595,0.00616131,0.0371844,1581,1723,5.28361,-16.833
364,-699,5.21899,16.5005,0.00817981,0.0056137,-0.00597956,0.0130124,0.000781084,-0.679714,0.00842666,0.0402701,1588,1723,5.21894,-16.5005
371,-699,5.35425,16.3164,0.00945524,0.00568876,-0.00669495,0.0145268,0.00061722,-0.648295,0.00948548,0.0478141,1595,1723,5.3543,-16.3164
378,-699,5.61926,16.0447,0,0,0,0,0,0,0,-1,1602,1723,5.61924,-16.0447
385,-699,5.37671,17.0181,0,0,0,0,0,0,0,-1,1609,1723,5.37677,-17.018
392,-699,5.21069,16.861,0,0,0,0,0,0,0,-1,1616,1723,5.21066,-16.8609
399,-699,3.91516,9.81726,0,0,0,0,0,0,0,-1,1623,1723,3.9152,-9.81721
406,-699,5.50757,21.6672,0,0,0,0,0,0,0,-1,1630,1723,5.50755,-21.6672
413,-699,9.31396,23.2781,0,0,0,0,0,0,0,-1,1637,1723,9.31396,-23.278
420,-699,2.15076,7.65527,0,0,0,0,0,0,0,-1,1644,1723,2.15079,-7.65522
427,-699,3.36328,8.2428,0,0,0,0,0,0,0,-1,1651,1723,3.36332,-8.24283
434,-699,4.66455,8.90222,0,0,0,0,0,0,0,-1,1658,1723,4.66456,-8.90223
441,-699,0,0,0,0,0,0,0,0,0,-1,1665,1723,0,0
448,-699,0,0,0,0,0,0,0,0,0,-1,1672,1723,0,0
455,-699,0,0,0,0,0,0,0,0,0,-1,1679,1723,0,0
462,-699,0,0,0,0,0,0,0,0,0,-1,1686,1723,0,0
469,-699,0,0,0,0,0,0,0,0,0,-1,1693,1723,0,0
476,-699,0,0,0,0,0,0,0,0,0,-1,1700,1723,0,0
483,-699,0,0,0,0,0,0,0,0,0,-1,1707,1723,0,0
490,-699,0,0,0,0,0,0,0,0,0,-1,1714,1723,0,0
497,-699,0,0,0,0,0,0,0,0,0,-1,1721,1723,0,0
504,-699,0,0,0,0,0,0,0,0,0,-1,1728,1723,0,0
511,-699,0,0,0,0,0,0,0,0,0,-1,1735,1723,0,0
518,-699,0,0,0,0,0,0,0,0,0,-1,1742,1723,0,0
525,-699,0,0,0,0,0,0,0,0,0,-1,1749,1723,0,0
532,-699,0,0,0,0,0,0,0,0,0,-1,1756,1723,0,0
539,-699,0,0,0,0,0,0,0,0,0,-1,1763,1723,0,0
546,-699,0,0,0,0,0,0,0,0,0,-1,1770,1723,0,0
553,-699,0,0,0,0,0,0,0,0,0,-1,1777,1723,0,0
560,-699,0,0,0,0,0,0,0,0,0,-1,1784,1723,0,0
567,-699,0,0,0,0,0,0,0,0,0,-1,1791,1723,0,0
574,-699,0,0,0,0,0,0,0,0,0,-1,1798,1723,0,0
581,-699,0,0,0,0,0,0,0,0,0,-1,1805,1723,0,0
588,-699,0,0,0,0,0,0,0,0,0,-1,1812,1723,0,0
595,-699,0,0,0,0,0,0,0,0,0,-1,1819,1723,0,0
602,-699,0,0,0,0,0,0,0,0,0,-1,1826,1723,0,0
609,-699,0,0,0,0,0,0,0,0,0,-1,1833,1723,0,0
616,-699,0,0,0,0,0,0,0,0,0,-1,1840,1723,0,0
623,-699,0,0,0,0,0,0,0,0,0,-1,1847,1723,0,0
630,-699,0,0,0,0,0,0,0,0,0,-1,1854,1723,0,0
637,-699,0,0,0,0,0,0,0,0,0,-1,1861,1723,0,0
644,-699,0,0,0,0,0,0,0,0,0,-1,1868,1723,0,0
651,-699,0,0,0,0,0,0,0,0,0,-1,1875,1723,0,0
658,-699,0,0,0,0,0,0,0,0,0,-1,1882,1723,0,0
665,-699,0,0,0,0,0,0,0,0,0,-1,1889,1723,0,0
672,-699,0,0,0,0,0,0,0,0,0,-1,1896,1723,0,0
679,-699,0,0,0,0,0,0,0,0,0,-1,1903,1723,0,0
686,-699,0,0,0,0,0,0,0,0,0,-1,1910,1723,0,0
693,-699,0,0,0,0,0,0,0,0,0,-1,1917,1723,0,0
700,-699,0,0,0,0,0,0,0,0,0,-1,1924,1723,0,0
707,-699,0,0,0,0,0,0,0,0,0,-1,1931,1723,0,0
714,-699,0,0,0,0,0,0,0,0,0,-1,1938,1723,0,0
721,-699,0,0,0,0,0,0,0,0,0,-1,1945,1723,0,0
728,-699,0,0,0,0,0,0,0,0,0,-1,1952,1723,0,0
735,-699,0,0,0,0,0,0,0,0,0,-1,1959,1723,0,0
742,-699,0,0,0,0,0,0,0,0,0,-1,1966,1723,0,0
749,-699,0,0,0,0,0,0,0,0,0,-1,1973,1723,0,0
756,-699,0,0,0,0,0,0,0,0,0,-1,1980,1723,0,0
763,-699,0,0,0,0,0,0,0,0,0,-1,1987,1723,0,0
770,-699,0,0,0,0,0,0,0,0,0,-1,1994,1723,0,0
777,-699,0,0,0,0,0,0,0,0,0,-1,2001,1723,0,0
784,-699,0,0,0,0,0,0,0,0,0,-1,2008,1723,0,0
791,-699,0,0,0,0,0,0,0,0,0,-1,2015,1723,0,0
798,-699,0,0,0,0,0,0,0,0,0,-1,2022,1723,0,0
805,-699,0,0,0,0,0,0,0,0,0,-1,2029,1723,0,0
812,-699,0,0,0,0,0,0,0,0,0,-1,2036,1723,0,0
-700,-706,0,0,0,0,0,0,0,0,0,-1,524,1730,0,0
-693,-706,0,0,0,0,0,0,0,0,0,-1,531,1730,0,0
-686,-706,0,0,0,0,0,0,0,0,0,-1,538,1730,0,0
-679,-706,0,0,0,0,0,0,0,0,0,-1,545,1730,0,0
-672,-706,0,0,0,0,0,0,0,0,0,-1,552,1730,0,0
-665,-706,0,0,0,0,0,0,0,0,0,-1,559,1730,0,0
-658,-706,0,0,0,0,0,0,0,0,0,-1,566,1730,0,0
-651,-706,0,0,0,0,0,0,0,0,0,-1,573,1730,0,0
-644,-706,0,0,0,0,0,0,0,0,0,-1,580,1730,0,0
-637,-706,0,0,0,0,0,0,0,0,0,-1,587,1730,0,0
-630,-706,0,0,0,0,0,0,0,0,0,-1,594,1730,0,0
-623,-706,0,0,0,0,0,0,0,0,0,-1,601,1730,0,0
-616,-706,0,0,0,0,0,0,0,0,0,-1,608,1730,0,0
-609,-706,0,0,0,0,0,0,0,0,0,-1,615,1730,0,0
-602,-706,0,0,0,0,0,0,0,0,0,-1,622,1730,0,0
-595,-706,0,0,0,0,0,0,0,0,0,-1,629,1730,0,0
-588,-706,0,0,0,0,0,0,0,0,0,-1,636,1730,0,0
-581,-706,0,0,0,0,0,0,0,0,0,-1,643,1730,0,0
-574,-706,0,0,0,0,0,0,0,0,0,-1,650,1730,0,0
-567,-706,0,0,0,0,0,0,0,0,0,-1,657,1730,0,0
-560,-706,0,0,0,0,0,0,0,0,0,-1,664,1730,0,0
-553,-706,0,0,0,0,0,0,0,0,0,-1,671,1730,0,0
-546,-706,0,0,0,0,0,0,0,0,0,-1,678,1730,0,0
-539,-706,0,0,0,0,0,0,0,0,0,-1,685,1730,0,0
-532,-706,0,0,0,0,0,0,0,0,0,-1,692,1730,0,0
-525,-706,0,0,0,0,0,0,0,0,0,-1,699,1730,0,0
-518,-706,0,0,0,0,0,0,0,0,0,-1,706,1730,0,0
-511,-706,0,0,0,0,0,0,0,0,0,-1,713,1730,0,0
-504,-706,0,0,0,0,0,0,0,0,0,-1,720,1730,0,0
-497,-706,0,0,0,0,0,0,0,0,0,-1,727,1730,0,0
-490,-706,0,0,0,0,0,0,0,0,0,-1,734,1730,0,0
-483,-706,0,0,0,0,0,0,0,0,0,-1,741,1730,0,0
-476,-706,0,0,0,0,0,0,0,0,0,-1,748,1730,0,0
-469,-706,0,0,0,0,0,0,0,0,0,-1,755,1730,0,0
-462,-706,0,0,0,0,0,0,0,0,0,-1,762,1730,0,0
-455,-706,0,0,0,0,0,0,0,0,0,-1,769,1730,0,0
-448,-706,0,0,0,0,0,0,0,0,0,-1,776,1730,0,0
-441,-706,0,0,0,0,0,0,0,0,0,-1,783,1730,0,0
-434,-706,0,0,0,0,0,0,0,0,0,-1,790,1730,0,0
-427,-706,0,0,0,0,0,0,0,0,0,-1,797,1730,0,0
-420,-706,0,0,0,0,0,0,0,0,0,-1,804,1730,0,0
-413,-706,0,0,0,0,0,0,0,0,0,-1,811,1730,0,0
-406,-706,0,0,0,0,0,0,0,0,0,-1,818,1730,0,0
-399,-706,0,0,0,0,0,0,0,0,0,-1,825,1730,0,0
-392,-706,0,0,0,0,0,0,0,0,0,-1,832,1730,0,0
-385,-706,0,0,0,0,0,0,0,0,0,-1,839,1730,0,0
-378,-706,0,0,0,0,0,0,0,0,0,-1,846,1730,0,0
-371,-706,0,0,0,0,0,0,0,0,0,-1,853,1730,0,0
-364,-706,0,0,0,0,0,0,0,0,0,-1,860,1730,0,0
-357,-706,0,0,0,0,0,0,0,0,0,-1,867,1730,0,0
-350,-706,0,0,0,0,0,0,0,0,0,-1,874,1730,0,0
-343,-706,0,0,0,0,0,0,0,0,0,-1,881,1730,0,0
-336,-706,0,0,0,0,0,0,0,0,0,-1,888,1730,0,0
-329,-706,0,0,0,0,0,0,0,0,0,-1,895,1730,0,0
-322,-706,0,0,0,0,0,0,0,0,0,-1,902,1730,0,0
-315,-706,0,0,0,0,0,0,0,0,0,-1,909,1730,0,0
-308,-706,5.08191,14.6245,0,0,0,0,0,0,0,-1,916,1730,5.08188,-14.6245
-301,-706,5.28516,13.4028,0,0,0,0,0,0,0,-1,923,1730,5.28516,-13.4029
-294,-706,7.02759,15.9609,0,0,0,0,0,0,0,-1,930,1730,7.02759,-15.961
-287,-706,7.98651,13.4701,0,0,0,0,0,0,0,-1,937,1730,7.98652,-13.4701
-280,-706,7.68011,12.5066,0,0,0,0,0,0,0,-1,944,1730,7.68009,-12.5065
-273,-706,7.03235,12.5133,0,0,0,0,0,0,0,-1,951,1730,7.03232,-12.5132
-266,-706,5.60547,12.5319,0,0,0,0,0,0,0,-1,958,1730,5.60548,-12.5319
-259,-706,3.3598,9.72961,0,0,0,0,0,0,0,-1,965,1730,3.35979,-9.72962
-252,-706,3.05963,10.0499,0,0,0,0,0,0,0,-1,972,1730,3.05962,-10.05
-245,-706,3.87848,20.3833,0,0,0,0,0,0,0,-1,979,1730,3.87848,-20.3833
-238,-706,5.35669,15.6281,0,0,0,0,0,0,0,-1,986,1730,5.35666,-15.6281
-231,-706,5.28302,16.104,0,0,0,0,0,0,0,-1,993,1730,5.28305,-16.104
-224,-706,4.573,16.1812,0.009674,-0.0082302,-0.00144594,0.00979002,-0.00834623,-0.0800684,0.010482,0.0415194,1000,1730,4.57301,-16.1812
-217,-706,4.69006,16.4548,0.00727289,-0.0100198,-0.00119047,0.00735447,-0.0101014,-0.0684122,0.0101196,0.0405194,1007,1730,4.69007,-16.4548
-210,-706,4.73047,16.4504,0.00605978,-0.00974525,-0.00116982,0.0061459,-0.00983137,-0.0734822,0.00930592,0.0390045,1014,1730,4.73045,-16.4504
-203,-706,4.89136,16.54,0.0056545,-0.0071545,-0.000815665,0.00570623,-0.00720624,-0.0633381,0.00747176,0.0319822,1021,1730,4.89137,-16.5401
-196,-706,4.87134,16.7041,0.0050944,-0.00474006,-0.00023415,0.00509997,-0.00474564,-0.0237911,0.00568559,0.0243953,1028,1730,4.87135,-16.7041
-189,-706,4.80139,16.8717,0.00419748,-0.00292646,0.000173511,0.0042017,-0.00293069,0.0243368,0.00413962,0.018911,1035,1730,4.80139,-16.8718
-182,-706,4.81909,17.0398,0.00322828,-0.00124885,0.000529928,0.00329015,-0.00131072,0.116224,0.00273704,0.0137324,1042,1730,4.81912,-17.0398
-175,-706,4.82654,17.1917,0.00259709,6.63872e-05,0.00099763,0.00294307,-0.00027959,0.333821,0.00206157,0.014725,1049,1730,4.82649,-17.1916
-168,-706,4.83923,17.3281,0.00180931,0.00128118,0.000980693,0.00256087,0.000529622,0.653884,0.00156095,0.0166433,1056,1730,4.83929,-17.3281
-161,-706,4.81958,17.4723,0.000929309,0.00242286,0.0013004,0.00317566,0.000176518,1.04604,0.00206079,0.0138913,1063,1730,4.81954,-17.4723
-154,-706,4.78967,17.6445,0.000238694,0.00253207,0.00194514,0.00364336,-0.000872594,1.05174,0.00276604,0.0125547,1070,1730,4.7897,-17.6445
-147,-706,4.79016,17.7651,0.000254425,0.00239206,0.00196632,0.00356127,-0.00091479,1.03434,0.00273067,0.0117699,1077,1730,4.79022,-17.7651
-140,-706,4.79211,17.9021,0.000398599,0.00220646,0.00183364,0.00334687,-0.000741813,1.0144,0.00251525,0.0111966,1084,1730,4.79209,-17.9021
-133,-706,4.78503,18.0114,0.000529981,0.00192962,0.00164977,0.00302186,-0.000562259,0.985991,0.00222579,0.00903524,1091,1730,4.78506,-18.0114
-126,-706,4.79834,18.1234,0.000576326,0.00160912,0.00149844,0.00267765,-0.000492198,0.951337,0.00196977,0.0130299,1098,1730,4.79836,-18.1234
-119,-706,4.78503,18.2524,0.000642401,0.00146958,0.00141298,0.00252826,-0.000416276,0.927775,0.00184003,0.0174615,1105,1730,4.78502,-18.2524
-112,-706,4.76453,18.4113,0.000843783,0.0012646,0.00130929,0.00238029,-0.000271899,0.86507,0.00168482,0.0126338,1112,1730,4.7645,-18.4112
-105,-706,4.7782,18.5348,0.00106399,0.00104956,0.00116638,0.00222318,-0.000109628,0.782306,0.00151998,0.00902966,1119,1730,4.7782,-18.5348
-98,-706,4.80408,18.6281,0.00119651,0.000837034,0.00107621,0.00210789,-7.43497e-05,0.702658,0.00143069,0.0100735,1126,1730,4.80413,-18.6281
-91,-706,4.81567,18.7321,0.00138548,0.000871834,0.0010613,0.00222059,3.67204e-05,0.666686,0.00146831,0.0135937,1133,1730,4.81562,-18.732
-84,-706,4.77563,18.8346,0.00162323,0.00103313,0.00114802,0.0025135,0.000142854,0.659617,0.00163014,0.0167293,1140,1730,4.77563,-18.8345
-77,-706,4.76672,18.9296,0.00190292,0.00119473,0.00115453,0.00275644,0.000341216,0.636602,0.00173511,0.0155862,1147,1730,4.76667,-18.9296
-70,-706,4.76599,19.0255,0.00216981,0.00129295,0.00102157,0.00284306,0.000619706,0.5827,0.00172629,0.0173258,1154,1730,4.76601,-19.0255
-63,-706,4.76782,19.119,0.00242731,0.00127956,0.000868277,0.00289422,0.00081265,0.493387,0.00172368,0.0126818,1161,1730,4.76783,-19.119
-56,-706,4.79773,19.2163,0.0026698,0.00114083,0.000710233,0.0029488,0.000861828,0.374314,0.00175079,0.0121956,1168,1730,4.79778,-19.2163
-49,-706,4.79724,19.3005,0.00281282,0.000734201,0.00064671,0.0029976,0.000549419,0.27831,0.00184277,0.013426,1175,1730,4.79729,-19.3005
-42,-706,4.80322,19.3745,0.00389719,0.000519925,0.000315734,0.00392645,0.000490661,0.0924209,0.00247038,0.0178216,1182,1730,4.80325,-19.3745
-35,-706,4.81506,19.4269,0.00507493,-3.32252e-05,8.81182e-05,0.00507645,-3.47451e-05,0.0172437,0.00339594,0.0170204,1189,1730,4.81511,-19.4269
-28,-706,4.84656,19.5022,0.00583721,-0.000283843,-0.000155054,0.00584113,-0.000287768,-0.0253096,0.00399347,0.0107573,1196,1730,4.84661,-19.5022
-21,-706,4.84631,19.5524,0.00643014,-0.00108234,-0.000131702,0.00643245,-0.00108464,-0.0175239,0.00469182,0.0111772,1203,1730,4.84628,-19.5524
-14,-706,4.86023,19.5917,0.00683062,-0.00205646,0.000102326,0.0068318,-0.00205764,0.0115119,0.00537338,0.010542,1210,1730,4.86027,-19.5917
-7,-706,4.86902,19.6559,0.00719794,-0.00275798,0.000774165,0.00725778,-0.00281781,0.0771413,0.00600246,0.0085545,1217,1730,4.86905,-19.6559
0,-706,4.87427,19.7179,0.00721537,-0.00278296,0.000977505,0.00731004,-0.00287763,0.0965487,0.00606458,0.0125969,1224,1730,4.87427,-19.7178
7,-706,4.88843,19.7657,0.00690871,-0.00296297,0.00136186,0.00709314,-0.0031474,0.134607,0.00605691,0.0146226,1231,1730,4.88847,-19.7658
14,-706,4.89404,19.8104,0.00657084,-0.00304455,0.00171758,0.00686843,-0.00334214,0.171562,0.00601112,0.0141298,1238,1730,4.89401,-19.8104
21,-706,4.91736,19.8168,0.00699333,-0.00290503,0.00170799,0.00727975,-0.00319146,0.166154,0.00619725,0.0121577,1245,1730,4.91736,-19.8168
28,-706,4.91748,19.8309,0.00753723,-0.00314374,0.0021249,0.00794444,-0.00355095,0.189341,0.00679652,0.0130737,1252,1730,4.91743,-19.831
35,-706,4.92603,19.9003,0.00772031,-0.00307769,0.0022854,0.00818409,-0.00354147,0.200215,0.00694438,0.0151554,1259,1730,4.92607,-19.9003
42,-706,4.95959,19.9563,0.00783326,-0.00296475,0.00223032,0.00827579,-0.00340728,0.195873,0.0069377,0.0131949,1266,1730,4.95959,-19.9563
49,-706,4.99731,19.9683,0.00790093,-0.00294977,0.00201669,0.00826363,-0.00331246,0.177944,0.00688421,0.0145522,1273,1730,4.99733,-19.9683
56,-706,5.01904,19.9679,0.00798566,-0.00308606,0.00172047,0.00824685,-0.00334725,0.150661,0.00689021,0.0125684,1280,1730,5.01898,-19.9679
63,-706,5.01111,19.9785,0.00789804,-0.00340673,0.00154921,0.0081065,-0.00361519,0.133756,0.00693113,0.0115432,1287,1730,5.01112,-19.9786
70,-706,5.02295,19.9707,0.00768365,-0.00386326,0.00134761,0.00783884,-0.00401845,0.114655,0.00696325,0.012977,1294,1730,5.02298,-19.9707
77,-706,5.02649,19.9775,0.00736915,-0.00469913,0.0011218,0.00747254,-0.00480252,0.0919051,0.00714267,0.0107964,1301,1730,5.02645,-19.9775
84,-706,5.03088,19.9901,0.00671975,-0.00522555,0.000843247,0.00677898,-0.00528478,0.0701289,0.0069828,0.00827261,1308,1730,5.03089,-19.9901
91,-706,5.06934,19.9957,0.00583187,-0.00584672,0.000559278,0.00585859,-0.00587344,0.0477436,0.00677349,0.0097777,1315,1730,5.06928,-19.9957
98,-706,5.09009,19.9929,0.00480079,-0.00641006,0.000320988,0.00480997,-0.00641925,0.0286006,0.00650535,0.0132744,1322,1730,5.09003,-19.9929
105,-706,5.10339,19.9937,0.00377674,-0.00722462,0.000506929,0.00380005,-0.00724793,0.045949,0.00648127,0.0147097,1329,1730,5.10341,-19.9936
112,-706,5.0824,19.984,0.002861,-0.00752168,0.000552882,0.00289036,-0.00755104,0.0530504,0.00622531,0.015481,1336,1730,5.08238,-19.984
119,-706,5.12,19.9791,0.00178597,-0.00761283,0.000563108,0.00181959,-0.00764645,0.0596284,0.00580009,0.0132279,1343,1730,5.11999,-19.9791
126,-706,5.14771,19.9341,0.00026562,-0.00747755,0.000802965,0.000348011,-0.00755994,0.10225,0.00515988,0.0139302,1350,1730,5.14775,-19.934
133,-706,5.16614,19.8887,-0.000703634,-0.00663667,0.000535961,-0.000655607,-0.0066847,0.089371,0.0042548,0.0120491,1357,1730,5.16611,-19.8887
140,-706,5.17505,19.8336,-0.000662767,-0.00590009,0.000626043,-0.000588973,-0.00597389,0.117333,0.00380151,0.0123763,1364,1730,5.17506,-19.8336
147,-706,5.2052,19.7743,-0.000514374,-0.00507439,0.000804445,-0.000376621,-0.00521214,0.169595,0.00335627,0.02222,1371,1730,5.20516,-19.7743
154,-706,5.20813,19.7654,-0.000248341,-0.0040925,0.00103744,1.37642e-05,-0.0043546,0.247469,0.00290767,0.020853,1378,1730,5.2081,-19.7654
161,-706,5.18127,19.7188,-6.24205e-05,-0.00297674,0.00130254,0.000434879,-0.00347404,0.364713,0.00247376,0.0106112,1385,1730,5.18133,-19.7187
168,-706,5.19202,19.6558,-0.000140484,-0.00181826,0.00139538,0.00064876,-0.00260751,0.514751,0.00199016,0.0103394,1392,1730,5.19197,-19.6558
175,-706,5.21973,19.6045,-6.43054e-05,-0.000523403,0.00125583,0.000982779,-0.00157049,0.695003,0.00148709,0.010555,1399,1730,5.21976,-19.6046
182,-706,5.23083,19.5363,7.36499e-05,0.000825579,0.00118231,0.00169027,-0.000791037,0.939338,0.0014636,0.010548,1406,1730,5.23088,-19.5362
189,-706,5.23462,19.4543,0.00052176,0.0010265,0.00116798,0.00196906,-0.000420805,0.891799,0.00147315,0.0140487,1413,1730,5.23468,-19.4543
196,-706,5.22168,19.3827,0.000784593,0.00118451,0.000977486,0.00198228,-1.31783e-05,0.886288,0.00132593,0.0127153,1420,1730,5.22171,-19.3826
203,-706,5.203,19.3221,0.000573113,0.00100321,0.000763411,0.00158128,-4.96011e-06,0.922688,0.00105585,0.0129704,1427,1730,5.20295,-19.3222
210,-706,5.21887,19.2603,0.00034584,0.000833315,0.000526537,0.00116979,9.3634e-06,1.00217,0.000776759,0.0119614,1434,1730,5.21884,-19.2602
217,-706,5.23108,19.2021,0.000116795,0.000631162,0.000113161,0.000654957,9.30004e-05,1.36354,0.000409176,0.0127765,1441,1730,5.23106,-19.2021
224,-706,5.21362,19.1141,0.000133611,0.000461239,-0.000311949,0.00064977,-5.49212e-05,-1.02717,0.000452599,0.0171463,1448,1730,5.21359,-19.1141
231,-706,5.23816,18.9996,0.000171652,0.000295962,-0.000738566,0.000974984,-0.00050737,-0.827377,0.000869916,0.0134867,1455,1730,5.23814,-18.9997
238,-706,5.23706,18.8984,0.000283645,0.000216245,-0.00111601,0.00136647,-0.000866578,-0.770304,0.00129997,0.00886186,1462,1730,5.23709,-18.8984
245,-706,5.23511,18.809,0.000414358,0.00019666,-0.0014167,0.00172638,-0.00111537,-0.747057,0.00165328,0.0106881,1469,1730,5.23511,-18.8089
252,-706,5.23828,18.7192,-0.000724718,-0.00057344,-0.00161148,0.000964174,-0.00226233,-0.80885,0.00191242,0.010747,1476,1730,5.23828,-18.7192
259,-706,5.25781,18.6212,-0.00288325,-0.00219305,-0.00163558,-0.000866563,-0.00420973,-0.889371,0.00256687,0.0121878,1483,1730,5.25778,-18.6212
266,-706,5.23425,18.5197,-0.00487719,-0.0035601,-0.00168078,-0.00241346,-0.00602383,-0.972111,0.00350067,0.0128598,1490,1730,5.23421,-18.5197
273,-706,5.22107,18.3857,-0.00735195,-0.004665,-0.00183923,-0.00373083,-0.00828613,-1.10084,0.00479189,0.0116693,1497,1730,5.22102,-18.3858
280,-706,5.22046,18.2451,-0.0102904,-0.00629683,-0.00177767,-0.00562018,-0.0109671,-1.20709,0.00633249,0.00946561,1504,1730,5.22045,-18.2451
287,-706,5.21338,18.111,-0.0133493,-0.00823823,-0.00150076,-0.00783014,-0.0137574,-1.3053,0.00796812,0.0101436,1511,1730,5.21336,-18.1109
294,-706,5.22974,18.001,-0.0163256,-0.0100009,-0.00134622,-0.00972627,-0.0166002,-1.36956,0.0096312,0.00991547,1518,1730,5.22979,-18.001
301,-706,5.22656,17.8726,-0.0185552,-0.0112395,-0.00145391,-0.0109612,-0.0188335,-1.38163,0.0109222,0.00940498,1525,1730,5.22655,-17.8725
308,-706,5.229,17.7319,-0.0197311,-0.0116656,-0.00190282,-0.0112393,-0.0201575,-1.35036,0.0116636,0.0116323,1532,1730,5.22904,-17.732
315,-706,5.24487,17.6056,-0.0202005,-0.0117212,-0.00215353,-0.0112056,-0.0207161,-1.3358,0.0119738,0.0181527,1539,1730,5.2449,-17.6055
322,-706,5.2301,17.4716,-0.0193441,-0.0111509,-0.0024303,-0.0104843,-0.0200107,-1.30307,0.0115576,0.0203815,1546,1730,5.23006,-17.4715
329,-706,5.19812,17.2936,-0.017711,-0.0102262,-0.00288685,-0.00924213,-0.018695,-1.24227,0.0107938,0.0169915,1553,1730,5.19813,-17.2936
336,-706,5.19629,17.137,-0.0150991,-0.00872912,-0.00342261,-0.00723882,-0.0165894,-1.16013,0.00960374,0.0226034,1560,1730,5.19624,-17.1369
343,-706,5.15332,16.9708,-0.0117462,-0.0066778,-0.00417366,-0.00432923,-0.0140948,-1.05824,0.00833697,0.0326837,1567,1730,5.15329,-16.9709
350,-706,5.1239,16.825,-0.00776733,-0.00463574,-0.00505761,-0.000907094,-0.011496,-0.935515,0.00738022,0.0388609,1574,1730,5.12388,-16.825
357,-706,5.57837,16.4535,0.000739466,0.000211822,-0.00630738,0.00678854,-0.00583725,-0.764497,0.0072964,0.0467197,1581,1730,5.57838,-16.4535
364,-706,5.02783,16.4608,0,0,0,0,0,0,0,-1,1588,1730,5.02787,-16.4608
371,-706,5.10571,16.2321,0,0,0,0,0,0,0,-1,1595,1730,5.1057,-16.2321
378,-706,5.95264,18.1953,0,0,0,0,0,0,0,-1,1602,1730,5.95269,-18.1953
385,-706,5.50513,18.2434,0,0,0,0,0,0,0,-1,1609,1730,5.50513,-18.2434
392,-706,5.05701,18.6085,0,0,0,0,0,0,0,-1,1616,1730,5.05699,-18.6085
399,-706,6.0332,16.6144,0,0,0,0,0,0,0,-1,1623,1730,6.03321,-16.6143
406,-706,6.04211,18.8085,0,0,0,0,0,0,0,-1,1630,1730,6.04216,-18.8085
413,-706,6.23413,20.7725,0,0,0,0,0,0,0,-1,1637,1730,6.23413,-20.7725
420,-706,6.51294,21.9171,0,0,0,0,0,0,0,-1,1644,1730,6.51292,-21.9171
427,-706,0,0,0,0,0,0,0,0,0,-1,1651,1730,0,0
434,-706,0,0,0,0,0,0,0,0,0,-1,1658,1730,0,0
441,-706,0,0,0,0,0,0,0,0,0,-1,1665,1730,0,0
448,-706,0,0,0,0,0,0,0,0,0,-1,1672,1730,0,0
455,-706,0,0,0,0,0,0,0,0,0,-1,1679,1730,0,0
462,-706,0,0,0,0,0,0,0,0,0,-1,1686,1730,0,0
469,-706,0,0,0,0,0,0,0,0,0,-1,1693,1730,0,0
476,-706,0,0,0,0,0,0,0,0,0,-1,1700,1730,0,0
483,-706,0,0,0,0,0,0,0,0,0,-1,1707,1730,0,0
490,-706,0,0,0,0,0,0,0,0,0,-1,1714,1730,0,0
497,-706,0,0,0,0,0,0,0,0,0,-1,1721,1730,0,0
504,-706,0,0,0,0,0,0,0,0,0,-1,1728,1730,0,0
511,-706,0,0,0,0,0,0,0,0,0,-1,1735,1730,0,0
518,-706,0,0,0,0,0,0,0,0,0,-1,1742,1730,0,0
525,-706,0,0,0,0,0,0,0,0,0,-1,1749,1730,0,0
532,-706,0,0,0,0,0,0,0,0,0,-1,1756,1730,0,0
539,-706,0,0,0,0,0,0,0,0,0,-1,1763,1730,0,0
546,-706,0,0,0,0,0,0,0,0,0,-1,1770,1730,0,0
553,-706,0,0,0,0,0,0,0,0,0,-1,1777,1730,0,0
560,-706,0,0,0,0,0,0,0,0,0,-1,1784,1730,0,0
567,-706,0,0,0,0,0,0,0,0,0,-1,1791,1730,0,0
574,-706,0,0,0,0,0,0,0,0,0,-1,1798,1730,0,0
581,-706,0,0,0,0,0,0,0,0,0,-1,1805,1730,0,0
588,-706,0,0,0,0,0,0,0,0,0,-1,1812,1730,0,0
595,-706,0,0,0,0,0,0,0,0,0,-1,1819,1730,0,0
602,-706,0,0,0,0,0,0,0,0,0,-1,1826,1730,0,0
609,-706,0,0,0,0,0,0,0,0,0,-1,1833,1730,0,0
616,-706,0,0,0,0,0,0,0,0,0,-1,1840,1730,0,0
623,-706,0,0,0,0,0,0,0,0,0,-1,1847,1730,0,0
630,-706,0,0,0,0,0,0,0,0,0,-1,1854,1730,0,0
637,-706,0,0,0,0,0,0,0,0,0,-1,1861,1730,0,0
644,-706,0,0,0,0,0,0,0,0,0,-1,1868,1730,0,0
651,-706,0,0,0,0,0,0,0,0,0,-1,1875,1730,0,0
658,-706,0,0,0,0,0,0,0,0,0,-1,1882,1730,0,0
665,-706,0,0,0,0,0,0,0,0,0,-1,1889,1730,0,0
672,-706,0,0,0,0,0,0,0,0,0,-1,1896,1730,0,0
679,-706,0,0,0,0,0,0,0,0,0,-1,1903,1730,0,0
686,-706,0,0,0,0,0,0,0,0,0,-1,1910,1730,0,0
693,-706,0,0,0,0,0,0,0,0,0,-1,1917,1730,0,0
700,-706,0,0,0,0,0,0,0,0,0,-1,1924,1730,0,0
707,-706,0,0,0,0,0,0,0,0,0,-1,1931,1730,0,0
714,-706,0,0,0,0,0,0,0,0,0,-1,1938,1730,0,0
721,-706,0,0,0,0,0,0,0,0,0,-1,1945,1730,0,0
728,-706,0,0,0,0,0,0,0,0,0,-1,1952,1730,0,0
735,-706,0,0,0,0,0,0,0,0,0,-1,1959,1730,0,0
742,-706,0,0,0,0,0,0,0,0,0,-1,1966,1730,0,0
749,-706,0,0,0,0,0,0,0,0,0,-1,1973,1730,0,0
756,-706,0,0,0,0,0,0,0,0,0,-1,1980,1730,0,0
763,-706,0,0,0,0,0,0,0,0,0,-1,1987,1730,0,0
770,-706,0,0,0,0,0,0,0,0,0,-1,1994,1730,0,0
777,-706,0,0,0,0,0,0,0,0,0,-1,2001,1730,0,0
784,-706,0,0,0,0,0,0,0,0,0,-1,2008,1730,0,0
791,-706,0,0,0,0,0,0,0,0,0,-1,2015,1730,0,0
798,-706,0,0,0,0,0,0,0,0,0,-1,2022,1730,0,0
805,-706,0,0,0,0,0,0,0,0,0,-1,2029,1730,0,0
812,-706,0,0,0,0,0,0,0,0,0,-1,2036,1730,0,0
-700,-713,0,0,0,0,0,0,0,0,0,-1,524,1737,0,0
-693,-713,0,0,0,0,0,0,0,0,0,-1,531,1737,0,0
-686,-713,0,0,0,0,0,0,0,0,0,-1,538,1737,0,0
-679,-713,0,0,0,0,0,0,0,0,0,-1,545,1737,0,0
-672,-713,0,0,0,0,0,0,0,0,0,-1,552,1737,0,0
-665,-713,0,0,0,0,0,0,0,0,0,-1,559,1737,0,0
-658,-713,0,0,0,0,0,0,0,0,0,-1,566,1737,0,0
-651,-713,0,0,0,0,0,0,0,0,0,-1,573,1737,0,0
-644,-713,0,0,0,0,0,0,0,0,0,-1,580,1737,0,0
-637,-713,0,0,0,0,0,0,0,0,0,-1,587,1737,0,0
-630,-713,0,0,0,0,0,0,0,0,0,-1,594,1737,0,0
-623,-713,0,0,0,0,0,0,0,0,0,-1,601,1737,0,0
-616,-713,0,0,0,0,0,0,0,0,0,-1,608,1737,0,0
-609,-713,0,0,0,0,0,0,0,0,0,-1,615,1737,0,0
-602,-713,0,0,0,0,0,0,0,0,0,-1,622,1737,0,0
-595,-713,0,0,0,0,0,0,0,0,0,-1,629,1737,0,0
-588,-713,0,0,0,0,0,0,0,0,0,-1,636,1737,0,0
-581,-713,0,0,0,0,0,0,0,0,0,-1,643,1737,0,0
-574,-713,0,0,0,0,0,0,0,0,0,-1,650,1737,0,0
-567,-713,0,0,0,0,0,0,0,0,0,-1,657,1737,0,0
-560,-713,0,0,0,0,0,0,0,0,0,-1,664,1737,0,0
-553,-713,0,0,0,0,0,0,0,0,0,-1,671,1737,0,0
-546,-713,0,0,0,0,0,0,0,0,0,-1,678,1737,0,0
-539,-713,0,0,0,0,0,0,0,0,0,-1,685,1737,0,0
-532,-713,0,0,0,0,0,0,0,0,0,-1,692,1737,0,0
-525,-713,0,0,0,0,0,0,0,0,0,-1,699,1737,0,0
-518,-713,0,0,0,0,0,0,0,0,0,-1,706,1737,0,0
-511,-713,0,0,0,0,0,0,0,0,0,-1,713,1737,0,0
-504,-713,0,0,0,0,0,0,0,0,0,-1,720,1737,0,0
-497,-713,0,0,0,0,0,0,0,0,0,-1,727,1737,0,0
-490,-713,0,0,0,0,0,0,0,0,0,-1,734,1737,0,0
-483,-713,0,0,0,0,0,0,0,0,0,-1,741,1737,0,0
-476,-713,0,0,0,0,0,0,0,0,0,-1,748,1737,0,0
-469,-713,0,0,0,0,0,0,0,0,0,-1,755,1737,0,0
-462,-713,0,0,0,0,0,0,0,0,0,-1,762,1737,0,0
-455,-713,0,0,0,0,0,0,0,0,0,-1,769,1737,0,0
-448,-713,0,0,0,0,0,0,0,0,0,-1,776,1737,0,0
-441,-713,0,0,0,0,0,0,0,0,0,-1,783,1737,0,0
-434,-713,0,0,0,0,0,0,0,0,0,-1,790,1737,0,0
-427,-713,0,0,0,0,0,0,0,0,0,-1,797,1737,0,0
-420,-713,0,0,0,0,0,0,0,0,0,-1,804,1737,0,0
-413,-713,0,0,0,0,0,0,0,0,0,-1,811,1737,0,0
-406,-713,0,0,0,0,0,0,0,0,0,-1,818,1737,0,0
-399,-713,0,0,0,0,0,0,0,0,0,-1,825,1737,0,0
-392,-713,0,0,0,0,0,0,0,0,0,-1,832,1737,0,0
-385,-713,0,0,0,0,0,0,0,0,0,-1,839,1737,0,0
-378,-713,0,0,0,0,0,0,0,0,0,-1,846,1737,0,0
-371,-713,0,0,0,0,0,0,0,0,0,-1,853,1737,0,0
-364,-713,0,0,0,0,0,0,0,0,0,-1,860,1737,0,0
-357,-713,0,0,0,0,0,0,0,0,0,-1,867,1737,0,0
-350,-713,0,0,0,0,0,0,0,0,0,-1,874,1737,0,0
-343,-713,0,0,0,0,0,0,0,0,0,-1,881,1737,0,0
-336,-713,0,0,0,0,0,0,0,0,0,-1,888,1737,0,0
-329,-713,0,0,0,0,0,0,0,0,0,-1,895,1737,0,0
-322,-713,0,0,0,0,0,0,0,0,0,-1,902,1737,0,0
-315,-713,0,0,0,0,0,0,0,0,0,-1,909,1737,0,0
-308,-713,0,0,0,0,0,0,0,0,0,-1,916,1737,0,0
-301,-713,0,0,0,0,0,0,0,0,0,-1,923,1737,0,0
-294,-713,6.3161,13.046,0,0,0,0,0,0,0,-1,930,1737,6.31612,-13.046
-287,-713,6.56073,15.8463,0,0,0,0,0,0,0,-1,937,1737,6.56074,-15.8463
-280,-713,8.95996,11.8666,0,0,0,0,0,0,0,-1,944,1737,8.95993,-11.8666
-273,-713,5.90009,13.9349,0,0,0,0,0,0,0,-1,951,1737,5.90006,-13.9349
-266,-713,6.52106,13.4521,0,0,0,0,0,0,0,-1,958,1737,6.52105,-13.4522
-259,-713,2.67322,10.5743,0,0,0,0,0,0,0,-1,965,1737,2.67324,-10.5743
-252,-713,4.41235,19.2604,0,0,0,0,0,0,0,-1,972,1737,4.41235,-19.2604
-245,-713,4.55988,18.9458,0,0,0,0,0,0,0,-1,979,1737,4.5599,-18.9458
-238,-713,4.2793,16.1282,0,0,0,0,0,0,0,-1,986,1737,4.27927,-16.1282
-231,-713,4.46399,16.094,0,0,0,0,0,0,0,-1,993,1737,4.464,-16.094
-224,-713,4.591,16.3455,0.0149279,-0.012331,-0.00147158,0.0150071,-0.0124102,-0.0537769,0.0158531,0.0451272,1000,1737,4.591,-16.3455
-217,-713,4.71631,16.6924,0.0119516,-0.0137933,-0.0014676,0.012035,-0.0138767,-0.0567603,0.0149727,0.0460692,1007,1737,4.71633,-16.6924
-210,-713,4.83459,16.4547,0.0101887,-0.012824,-0.0016372,0.0103046,-0.0129398,-0.0706692,0.0134489,0.0473025,1014,1737,4.83459,-16.4548
-203,-713,5.08276,16.4708,0.00918545,-0.00918978,-0.00127721,0.0092738,-0.00927813,-0.0690645,0.010711,0.0441616,1021,1737,5.08282,-16.4709
-196,-713,5.03564,16.6598,0.00791867,-0.00585302,-0.000459371,0.00793397,-0.00586832,-0.0333068,0.00799845,0.0426298,1028,1737,5.03561,-16.6598
-189,-713,4.95569,16.887,0.00637142,-0.00341886,0.000194026,0.00637526,-0.00342271,0.0198079,0.00574184,0.0415397,1035,1737,4.95563,-16.887
-182,-713,4.76892,17.1155,0.00484629,-0.00114151,0.000773598,0.00494462,-0.00123984,0.12643,0.00377813,0.0275424,1042,1737,4.76886,-17.1155
-175,-713,4.96472,17.1421,0.00373532,0.000573538,0.00150875,0.00433973,-3.08694e-05,0.381026,0.0029035,0.0226283,1049,1737,4.96469,-17.142
-168,-713,5.02478,17.2565,0.00253397,0.00218389,0.0015699,0.00393856,0.000779298,0.729878,0.00240834,0.0254108,1056,1737,5.02481,-17.2564
-161,-713,4.98438,17.4808,0.00125444,0.00370233,0.00203445,0.00485263,0.000104136,1.0562,0.00320094,0.0138488,1063,1737,4.98435,-17.4809
-154,-713,4.94348,17.6282,0.000200047,0.00380984,0.00294577,0.00545968,-0.0014498,1.06025,0.00420716,0.0113031,1070,1737,4.94349,-17.6282
-147,-713,4.93091,17.7844,0.000100981,0.00363379,0.00296303,0.00531698,-0.00158221,1.05419,0.00417326,0.0176564,1077,1737,4.93097,-17.7844
-140,-713,4.9408,17.9237,0.000169955,0.00342288,0.00277465,0.00501264,-0.0014198,1.0505,0.0039021,0.0181777,1084,1737,4.94083,-17.9238
-133,-713,4.91931,18.014,0.000214095,0.00314341,0.00248983,0.00456743,-0.00120993,1.05127,0.00351831,0.0117182,1091,1737,4.91927,-18.014
-126,-713,4.91748,18.1064,0.000131314,0.00277024,0.00221979,0.00403311,-0.00113155,1.05355,0.00313476,0.0175387,1098,1737,4.91754,-18.1065
-119,-713,4.90771,18.2117,4.34405e-05,0.00255329,0.00196432,0.00362933,-0.0010326,1.06965,0.00282732,0.0257677,1105,1737,4.90767,-18.2117
-112,-713,4.89148,18.4061,0.000158098,0.00229312,0.00171341,0.00324437,-0.000793144,1.06399,0.00247011,0.0134702,1112,1737,4.89149,-18.4062
-105,-713,4.90979,18.5258,0.000295282,0.00200695,0.00139214,0.00278528,-0.000483055,1.061,0.00203706,0.0104982,1119,1737,4.90979,-18.5258
-98,-713,4.91833,18.6251,0.000306362,0.00162941,0.00110124,0.00225255,-0.000316773,1.05587,0.00161766,0.00955801,1126,1737,4.91829,-18.6251
-91,-713,4.88599,18.7266,0.000388772,0.00152476,0.000881942,0.00200578,-9.22518e-05,1.07148,0.00136898,0.00999264,1133,1737,4.88597,-18.7266
-84,-713,4.85474,18.8282,0.000527487,0.00159251,0.000829001,0.0020453,7.47015e-05,1.07089,0.00133932,0.00968329,1140,1737,4.8547,-18.8283
-77,-713,4.87073,18.9344,0.000743562,0.00154521,0.00079626,0.00203584,0.000252933,1.01857,0.00128127,0.0126382,1147,1737,4.87076,-18.9345
-70,-713,4.86536,19.0226,0.000961349,0.00147131,0.000651437,0.00191589,0.000516769,0.971938,0.00114457,0.0141113,1154,1737,4.86542,-19.0225
-63,-713,4.85425,19.1212,0.00114442,0.00134499,0.000532737,0.0017868,0.000702613,0.878432,0.00103942,0.0121703,1161,1737,4.8543,-19.1212
-56,-713,4.8717,19.2142,0.00134488,0.00114268,0.000448222,0.00170326,0.000784299,0.674478,0.000984403,0.0123608,1168,1737,4.87164,-19.2142
-49,-713,4.8573,19.2906,0.00149968,0.000846986,0.000411467,0.0016985,0.000648159,0.45013,0.000989753,0.0149329,1175,1737,4.85725,-19.2907
-42,-713,4.88574,19.3302,0.00192528,0.000643622,0.000306079,0.00199462,0.000574278,0.222796,0.00118563,0.0173483,1182,1737,4.88571,-19.3302
-35,-713,4.91724,19.4003,0.00248064,0.000282047,0.0002308,0.00250461,0.00025808,0.103473,0.00159071,0.0146636,1189,1737,4.91727,-19.4003
-28,-713,4.92419,19.4971,0.0028364,-4.40844e-06,7.39053e-05,0.00283832,-6.32985e-06,0.0259921,0.00189433,0.0135341,1196,1737,4.92422,-19.497
-21,-713,4.90234,19.5592,0.00312242,-0.00063386,4.31168e-05,0.00312292,-0.000634354,0.0114766,0.00232246,0.00980977,1203,1737,4.90231,-19.5592
-14,-713,4.91797,19.5946,0.00333502,-0.00145895,0.000160086,0.00334036,-0.00146429,0.0333437,0.00284358,0.0103185,1210,1737,4.91802,-19.5946
-7,-713,4.93274,19.6667,0.00356846,-0.00207662,0.000586672,0.00362878,-0.00213694,0.102467,0.00336578,0.00949161,1217,1737,4.93275,-19.6667
0,-713,4.93616,19.7341,0.0036216,-0.0024341,0.000884204,0.00374806,-0.00256056,0.142062,0.00366373,0.0156279,1224,1737,4.93619,-19.7342
7,-713,4.93359,19.7657,0.0034845,-0.00288364,0.00116873,0.00369222,-0.00309136,0.175893,0.00392162,0.0179969,1231,1737,4.93354,-19.7658
14,-713,4.93811,19.8025,0.00334887,-0.00320655,0.0014461,0.0036537,-0.00351138,0.207753,0.00413704,0.0121553,1238,1737,4.93807,-19.8025
21,-713,4.95447,19.8391,0.00334597,-0.00334609,0.00154368,0.00368489,-0.00368501,0.216125,0.00425502,0.0106512,1245,1737,4.95447,-19.8391
28,-713,4.94995,19.8743,0.00327693,-0.00372876,0.00181919,0.00372116,-0.00417298,0.239502,0.00456017,0.0118267,1252,1737,4.95001,-19.8743
35,-713,4.95996,19.9285,0.00314502,-0.00384181,0.00197079,0.00366258,-0.00435938,0.256818,0.0046373,0.0115068,1259,1737,4.95994,-19.9284
42,-713,4.98425,19.989,0.00295222,-0.00384318,0.00195057,0.00347231,-0.00436327,0.260574,0.00453361,0.0112709,1266,1737,4.98421,-19.989
49,-713,5.00842,19.9564,0.00270971,-0.00384042,0.00179478,0.00316925,-0.00429996,0.250658,0.00432879,0.0107958,1273,1737,5.00844,-19.9565
56,-713,5.01611,19.9498,0.00252613,-0.00387291,0.00157144,0.00289121,-0.00423798,0.228271,0.00414045,0.0101873,1280,1737,5.0161,-19.9498
63,-713,5.00952,19.9799,0.00229952,-0.00402491,0.00144502,0.00261404,-0.00433943,0.214315,0.00405558,0.0110181,1287,1737,5.00956,-19.9799
70,-713,5.01135,19.9779,0.00207143,-0.00419806,0.00127872,0.0023222,-0.00444884,0.193656,0.00397301,0.0114115,1294,1737,5.01136,-19.9779
77,-713,5.01257,19.9945,0.00194596,-0.00456073,0.00111747,0.00213253,-0.00474729,0.165428,0.00406657,0.0108917,1301,1737,5.01253,-19.9944
84,-713,5.03442,20.0146,0.00174542,-0.00471802,0.000904481,0.0018696,-0.00484221,0.136447,0.00399974,0.0104634,1308,1737,5.03439,-20.0146
91,-713,5.05334,20.0203,0.0015705,-0.0049422,0.000672458,0.00163921,-0.00501091,0.101822,0.00400056,0.0112714,1315,1737,5.05335,-20.0202
98,-713,5.04651,19.9961,0.00135076,-0.00514467,0.000468753,0.00138442,-0.00517832,0.0716716,0.00399447,0.0114233,1322,1737,5.04645,-19.9961
105,-713,5.05383,19.9752,0.00121763,-0.00543554,0.000472471,0.00125101,-0.00546893,0.0705426,0.00412666,0.0129909,1329,1737,5.05389,-19.9752
112,-713,5.08191,19.9879,0.0012107,-0.0054445,0.000522024,0.0012514,-0.00548519,0.0778044,0.0041375,0.0140107,1336,1737,5.08191,-19.9879
119,-713,5.09998,19.9739,0.00108207,-0.0053992,0.000503524,0.00112096,-0.00543808,0.0770727,0.00405107,0.0147524,1343,1737,5.09995,-19.9739
126,-713,5.10681,19.948,0.000928362,-0.00516427,0.000573489,0.000981873,-0.00521778,0.0930393,0.0038478,0.0135285,1350,1737,5.10678,-19.948
133,-713,5.09753,19.9102,0.000975823,-0.00442492,0.000429929,0.00100983,-0.00445893,0.078943,0.0033602,0.0122609,1357,1737,5.09758,-19.9102
140,-713,5.11523,19.8622,0.00113912,-0.0037777,0.000419089,0.00117459,-0.00381317,0.0844242,0.003011,0.0139731,1364,1737,5.11529,-19.8622
147,-713,5.13745,19.8048,0.00129829,-0.00306583,0.000477241,0.00134987,-0.00311741,0.10766,0.00264563,0.0147717,1371,1737,5.13743,-19.8049
154,-713,5.11902,19.7861,0.00142347,-0.00227606,0.000558739,0.00150601,-0.0023586,0.146673,0.00224927,0.0137646,1378,1737,5.119,-19.7861
161,-713,5.11963,19.7168,0.00140251,-0.00143694,0.000636298,0.00153857,-0.00157301,0.210672,0.00179651,0.00991978,1385,1737,5.11967,-19.7168
168,-713,5.12231,19.6356,0.0011721,-0.00058185,0.000587693,0.00135081,-0.000760559,0.295201,0.00123477,0.00975521,1392,1737,5.12231,-19.6357
175,-713,5.15393,19.5958,0.00101527,0.000157255,0.000471649,0.00122383,-5.13114e-05,0.416355,0.000833519,0.0121725,1399,1737,5.15387,-19.5958
182,-713,5.16833,19.5537,0.000862998,0.000790477,0.000232475,0.00106202,0.000591451,0.708034,0.000614482,0.0111507,1406,1737,5.16828,-19.5537
189,-713,5.16895,19.4717,0.000650946,0.000932181,-3.61035e-05,0.000936742,0.000646385,-1.44514,0.000553696,0.01078,1413,1737,5.16897,-19.4717
196,-713,5.17627,19.4015,0.000450795,0.00102536,-0.000331685,0.00117688,0.000299277,-1.14229,0.00070629,0.0123636,1420,1737,5.17623,-19.4015
203,-713,5.15808,19.3405,0.000350777,0.00098576,-0.00069659,0.0014338,-9.72626e-05,-0.999223,0.000989882,0.0155489,1427,1737,5.15804,-19.3404
210,-713,5.15186,19.2404,0.000265071,0.000932347,-0.00109402,0.00174247,-0.000545054,-0.933401,0.0013797,0.0126292,1434,1737,5.15187,-19.2404
217,-713,5.15417,19.1694,0.000144123,0.000861598,-0.00160749,0.00214989,-0.00114417,-0.895183,0.00193115,0.0106916,1441,1737,5.15418,-19.1694
224,-713,5.13879,19.1023,0.000167623,0.000779979,-0.0021078,0.00260373,-0.00165612,-0.857523,0.00247963,0.0115674,1448,1737,5.13878,-19.1023
231,-713,5.15308,19.0087,0.000173122,0.000694981,-0.00255536,0.0030027,-0.00213459,-0.836277,0.0029801,0.0116487,1455,1737,5.15311,-19.0087
238,-713,5.14905,18.9028,0.000263019,0.00067197,-0.00289112,0.00336584,-0.00243085,-0.820702,0.0033612,0.00894867,1462,1737,5.14903,-18.9028
245,-713,5.13879,18.8121,0.000374158,0.00073298,-0.00312479,0.00368351,-0.00257637,-0.814074,0.00363293,0.0107306,1469,1737,5.1388,-18.8121
252,-713,5.14636,18.7065,-0.00225686,-0.000900069,-0.00313311,0.00162725,-0.00478418,-0.892015,0.00384831,0.0107912,1476,1737,5.14641,-18.7065
259,-713,5.16895,18.6005,-0.00639439,-0.0040685,-0.00291783,-0.0020904,-0.00837249,-0.975032,0.00503175,0.0114939,1483,1737,5.16889,-18.6004
266,-713,5.14197,18.5162,-0.00970361,-0.00639684,-0.0027897,-0.00480737,-0.0112931,-1.05291,0.00654402,0.0107028,1490,1737,5.14196,-18.5163
273,-713,5.11987,18.4038,-0.0136617,-0.00842368,-0.0028573,-0.00716669,-0.0149187,-1.15636,0.00861553,0.00849978,1497,1737,5.11992,-18.4038
280,-713,5.09985,18.2715,-0.0182068,-0.0112527,-0.00264196,-0.0103628,-0.0190967,-1.24592,0.0110388,0.00907872,1504,1737,5.09983,-18.2715
287,-713,5.09631,18.1343,-0.0229301,-0.0144918,-0.00211523,-0.0139913,-0.0234306,-1.33844,0.0136125,0.0105438,1511,1737,5.09635,-18.1343
294,-713,5.09839,18.0098,-0.0275562,-0.0175821,-0.0017562,-0.0172819,-0.0278564,-1.4015,0.0162375,0.0158248,1518,1737,5.09845,-18.0097
301,-713,5.08655,17.869,-0.0310559,-0.0197868,-0.00187465,-0.0194831,-0.0313595,-1.4102,0.0182821,0.0168651,1525,1737,5.08652,-17.869
308,-713,5.07642,17.7164,-0.0330425,-0.0208768,-0.00237469,-0.0204297,-0.0334896,-1.3847,0.0194906,0.0181735,1532,1737,5.07648,-17.7164
315,-713,5.10437,17.6154,-0.0340246,-0.0213551,-0.00266607,-0.0208169,-0.0345628,-1.37162,0.0200935,0.0251694,1539,1737,5.10439,-17.6154
322,-713,5.01123,17.4067,-0.0331712,-0.0209124,-0.00299375,-0.0202204,-0.0338633,-1.34362,0.0196735,0.0336282,1546,1737,5.01127,-17.4068
329,-713,5.01013,17.3265,-0.0312134,-0.0199208,-0.00353965,-0.018903,-0.0322311,-1.29081,0.0187012,0.0363634,1553,1737,5.01009,-17.3265
336,-713,4.96509,17.5182,-0.0278018,-0.0179916,-0.0042066,-0.0164349,-0.0293585,-1.21635,0.0169905,0.0403465,1560,1737,4.96514,-17.5181
343,-713,4.922,16.9484,0,0,0,0,0,0,0,-1,1567,1737,4.92205,-16.9484
350,-713,4.67737,16.6282,0,0,0,0,0,0,0,-1,1574,1737,4.67735,-16.6282
357,-713,5.17957,16.0354,0,0,0,0,0,0,0,-1,1581,1737,5.1796,-16.0354
364,-713,7.07642,19.3864,0,0,0,0,0,0,0,-1,1588,1737,7.07647,-19.3863
371,-713,6.58301,19.0181,0,0,0,0,0,0,0,-1,1595,1737,6.58296,-19.0181
378,-713,6.26428,18.7252,0,0,0,0,0,0,0,-1,1602,1737,6.26428,-18.7252
385,-713,5.9928,19.4026,0,0,0,0,0,0,0,-1,1609,1737,5.99285,-19.4026
392,-713,5.38123,20.2285,0,0,0,0,0,0,0,-1,1616,1737,5.38128,-20.2285
399,-713,2.84045,14.7314,0,0,0,0,0,0,0,-1,1623,1737,2.84046,-14.7315
406,-713,2.97656,16.4902,0,0,0,0,0,0,0,-1,1630,1737,2.97656,-16.4902
413,-713,3.24731,18.2787,0,0,0,0,0,0,0,-1,1637,1737,3.24726,-18.2787
420,-713,0,0,0,0,0,0,0,0,0,-1,1644,1737,0,0
427,-713,0,0,0,0,0,0,0,0,0,-1,1651,1737,0,0
434,-713,0,0,0,0,0,0,0,0,0,-1,1658,1737,0,0
441,-713,0,0,0,0,0,0,0,0,0,-1,1665,1737,0,0
448,-713,0,0,0,0,0,0,0,0,0,-1,1672,1737,0,0
455,-713,0,0,0,0,0,0,0,0,0,-1,1679,1737,0,0
462,-713,0,0,0,0,0,0,0,0,0,-1,1686,1737,0,0
469,-713,0,0,0,0,0,0,0,0,0,-1,1693,1737,0,0
476,-713,0,0,0,0,0,0,0,0,0,-1,1700,1737,0,0
483,-713,0,0,0,0,0,0,0,0,0,-1,1707,1737,0,0
490,-713,0,0,0,0,0,0,0,0,0,-1,1714,1737,0,0
497,-713,0,0,0,0,0,0,0,0,0,-1,1721,1737,0,0
504,-713,0,0,0,0,0,0,0,0,0,-1,1728,1737,0,0
511,-713,0,0,0,0,0,0,0,0,0,-1,1735,1737,0,0
518,-713,0,0,0,0,0,0,0,0,0,-1,1742,1737,0,0
525,-713,0,0,0,0,0,0,0,0,0,-1,1749,1737,0,0
532,-713,0,0,0,0,0,0,0,0,0,-1,1756,1737,0,0
539,-713,0,0,0,0,0,0,0,0,0,-1,1763,1737,0,0
546,-713,0,0,0,0,0,0,0,0,0,-1,1770,1737,0,0
553,-713,0,0,0,0,0,0,0,0,0,-1,1777,1737,0,0
560,-713,0,0,0,0,0,0,0,0,0,-1,1784,1737,0,0
567,-713,0,0,0,0,0,0,0,0,0,-1,1791,1737,0,0
574,-713,0,0,0,0,0,0,0,0,0,-1,1798,1737,0,0
581,-713,0,0,0,0,0,0,0,0,0,-1,1805,1737,0,0
588,-713,0,0,0,0,0,0,0,0,0,-1,1812,1737,0,0
595,-713,0,0,0,0,0,0,0,0,0,-1,1819,1737,0,0
602,-713,0,0,0,0,0,0,0,0,0,-1,1826,1737,0,0
609,-713,0,0,0,0,0,0,0,0,0,-1,1833,1737,0,0
616,-713,0,0,0,0,0,0,0,0,0,-1,1840,1737,0,0
623,-713,0,0,0,0,0,0,0,0,0,-1,1847,1737,0,0
630,-713,0,0,0,0,0,0,0,0,0,-1,1854,1737,0,0
637,-713,0,0,0,0,0,0,0,0,0,-1,1861,1737,0,0
644,-713,0,0,0,0,0,0,0,0,0,-1,1868,1737,0,0
651,-713,0,0,0,0,0,0,0,0,0,-1,1875,1737,0,0
658,-713,0,0,0,0,0,0,0,0,0,-1,1882,1737,0,0
665,-713,0,0,0,0,0,0,0,0,0,-1,1889,1737,0,0
672,-713,0,0,0,0,0,0,0,0,0,-1,1896,1737,0,0
679,-713,0,0,0,0,0,0,0,0,0,-1,1903,1737,0,0
686,-713,0,0,0,0,0,0,0,0,0,-1,1910,1737,0,0
693,-713,0,0,0,0,0,0,0,0,0,-1,1917,1737,0,0
700,-713,0,0,0,0,0,0,0,0,0,-1,1924,1737,0,0
707,-713,0,0,0,0,0,0,0,0,0,-1,1931,1737,0,0
714,-713,0,0,0,0,0,0,0,0,0,-1,1938,1737,0,0
721,-713,0,0,0,0,0,0,0,0,0,-1,1945,1737,0,0
728,-713,0,0,0,0,0,0,0,0,0,-1,1952,1737,0,0
735,-713,0,0,0,0,0,0,0,0,0,-1,1959,1737,0,0
742,-713,0,0,0,0,0,0,0,0,0,-1,1966,1737,0,0
749,-713,0,0,0,0,0,0,0,0,0,-1,1973,1737,0,0
756,-713,0,0,0,0,0,0,0,0,0,-1,1980,1737,0,0
763,-713,0,0,0,0,0,0,0,0,0,-1,1987,1737,0,0
770,-713,0,0,0,0,0,0,0,0,0,-1,1994,1737,0,0
777,-713,0,0,0,0,0,0,0,0,0,-1,2001,1737,0,0
784,-713,0,0,0,0,0,0,0,0,0,-1,2008,1737,0,0
791,-713,0,0,0,0,0,0,0,0,0,-1,2015,1737,0,0
798,-713,0,0,0,0,0,0,0,0,0,-1,2022,1737,0,0
805,-713,0,0,0,0,0,0,0,0,0,-1,2029,1737,0,0
812,-713,0,0,0,0,0,0,0,0,0,-1,2036,1737,0,0
-700,-720,0,0,0,0,0,0,0,0,0,-1,524,1744,0,0
-693,-720,0,0,0,0,0,0,0,0,0,-1,531,1744,0,0
-686,-720,0,0,0,0,0,0,0,0,0,-1,538,1744,0,0
-679,-720,0,0,0,0,0,0,0,0,0,-1,545,1744,0,0
-672,-720,0,0,0,0,0,0,0,0,0,-1,552,1744,0,0
-665,-720,0,0,0,0,0,0,0,0,0,-1,559,1744,0,0
-658,-720,0,0,0,0,0,0,0,0,0,-1,566,1744,0,0
-651,-720,0,0,0,0,0,0,0,0,0,-1,573,1744,0,0
-644,-720,0,0,0,0,0,0,0,0,0,-1,580,1744,0,0
-637,-720,0,0,0,0,0,0,0,0,0,-1,587,1744,0,0
-630,-720,0,0,0,0,0,0,0,0,0,-1,594,1744,0,0
-623,-720,0,0,0,0,0,0,0,0,0,-1,601,1744,0,0
-616,-720,0,0,0,0,0,0,0,0,0,-1,608,1744,0,0
-609,-720,0,0,0,0,0,0,0,0,0,-1,615,1744,0,0
-602,-720,0,0,0,0,0,0,0,0,0,-1,622,1744,0,0
-595,-720,0,0,0,0,0,0,0,0,0,-1,629,1744,0,0
-588,-720,0,0,0,0,0,0,0,0,0,-1,636,1744,0,0
-581,-720,0,0,0,0,0,0,0,0,0,-1,643,1744,0,0
-574,-720,0,0,0,0,0,0,0,0,0,-1,650,1744,0,0
-567,-720,0,0,0,0,0,0,0,0,0,-1,657,1744,0,0
-560,-720,0,0,0,0,0,0,0,0,0,-1,664,1744,0,0
-553,-720,0,0,0,0,0,0,0,0,0,-1,671,1744,0,0
-546,-720,0,0,0,0,0,0,0,0,0,-1,678,1744,0,0
-539,-720,0,0,0,0,0,0,0,0,0,-1,685,1744,0,0
-532,-720,0,0,0,0,0,0,0,0,0,-1,692,1744,0,0
-525,-720,0,0,0,0,0,0,0,0,0,-1,699,1744,0,0
-518,-720,0,0,0,0,0,0,0,0,0,-1,706,1744,0,0
-511,-720,0,0,0,0,0,0,0,0,0,-1,713,1744,0,0
-504,-720,0,0,0,0,0,0,0,0,0,-1,720,1744,0,0
-497,-720,0,0,0,0,0,0,0,0,0,-1,727,1744,0,0
-490,-720,0,0,0,0,0,0,0,0,0,-1,734,1744,0,0
-483,-720,0,0,0,0,0,0,0,0,0,-1,741,1744,0,0
-476,-720,0,0,0,0,0,0,0,0,0,-1,748,1744,0,0
-469,-720,0,0,0,0,0,0,0,0,0,-1,755,1744,0,0
-462,-720,0,0,0,0,0,0,0,0,0,-1,762,1744,0,0
-455,-720,0,0,0,0,0,0,0,0,0,-1,769,1744,0,0
-448,-720,0,0,0,0,0,0,0,0,0,-1,776,1744,0,0
-441,-720,0,0,0,0,0,0,0,0,0,-1,783,1744,0,0
-434,-720,0,0,0,0,0,0,0,0,0,-1,790,1744,0,0
-427,-720,0,0,0,0,0,0,0,0,0,-1,797,1744,0,0
-420,-720,0,0,0,0,0,0,0,0,0,-1,804,1744,0,0
-413,-720,0,0,0,0,0,0,0,0,0,-1,811,1744,0,0
-406,-720,0,0,0,0,0,0,0,0,0,-1,818,1744,0,0
-399,-720,0,0,0,0,0,0,0,0,0,-1,825,1744,0,0
-392,-720,0,0,0,0,0,0,0,0,0,-1,832,1744,0,0
-385,-720,0,0,0,0,0,0,0,0,0,-1,839,1744,0,0
-378,-720,0,0,0,0,0,0,0,0,0,-1,846,1744,0,0
-371,-720,0,0,0,0,0,0,0,0,0,-1,853,1744,0,0
-364,-720,0,0,0,0,0,0,0,0,0,-1,860,1744,0,0
-357,-720,0,0,0,0,0,0,0,0,0,-1,867,1744,0,0
-350,-720,0,0,0,0,0,0,0,0,0,-1,874,1744,0,0
-343,-720,0,0,0,0,0,0,0,0,0,-1,881,1744,0,0
-336,-720,0,0,0,0,0,0,0,0,0,-1,888,1744,0,0
-329,-720,0,0,0,0,0,0,0,0,0,-1,895,1744,0,0
-322,-720,0,0,0,0,0,0,0,0,0,-1,902,1744,0,0
-315,-720,0,0,0,0,0,0,0,0,0,-1,909,1744,0,0
-308,-720,0,0,0,0,0,0,0,0,0,-1,916,1744,0,0
-301,-720,0,0,0,0,0,0,0,0,0,-1,923,1744,0,0
-294,-720,0,0,0,0,0,0,0,0,0,-1,930,1744,0,0
-287,-720,0,0,0,0,0,0,0,0,0,-1,937,1744,0,0
-280,-720,6.3175,15.5583,0,0,0,0,0,0,0,-1,944,1744,6.3175,-15.5584
-273,-720,6.08392,14.9034,0,0,0,0,0,0,0,-1,951,1744,6.08392,-14.9035
-266,-720,7.28027,13.3165,0,0,0,0,0,0,0,-1,958,1744,7.28026,-13.3166
-259,-720,2.38904,5.20947,0,0,0,0,0,0,0,-1,965,1744,2.38906,-5.20952
-252,-720,6.11517,17.1084,0,0,0,0,0,0,0,-1,972,1744,6.11515,-17.1084
-245,-720,5.5979,17.2944,0,0,0,0,0,0,0,-1,979,1744,5.59787,-17.2944
-238,-720,4.98529,17.4607,0,0,0,0,0,0,0,-1,986,1744,4.98526,-17.4607
-231,-720,4.46246,16.5337,0,0,0,0,0,0,0,-1,993,1744,4.46247,-16.5337
-224,-720,4.57855,16.5471,0.0224073,-0.0178655,-0.00138873,0.0224551,-0.0179133,-0.0344287,0.0233559,0.0490047,1000,1744,4.57856,-16.5471
-217,-720,4.64832,17.068,0.018777,-0.0185734,-0.00184871,0.0188683,-0.0186647,-0.0493356,0.0216698,0.0455173,1007,1744,4.64831,-17.068
-210,-720,5.16272,16.4403,0.0162684,-0.0165397,-0.00234154,0.0164346,-0.016706,-0.070892,0.019134,0.0470922,1014,1744,5.16271,-16.4403
-203,-720,5.24426,16.4121,0,0,0,0,0,0,0,-1,1021,1744,5.24427,-16.4121
-196,-720,5.20117,16.6111,0,0,0,0,0,0,0,-1,1028,1744,5.20117,-16.6111
-189,-720,4.86414,16.6964,0,0,0,0,0,0,0,-1,1035,1744,4.86413,-16.6964
-182,-720,5.11475,17.0331,0.00723617,-0.000727456,0.00119251,0.00741091,-0.000902195,0.145494,0.00526716,0.0473365,1042,1744,5.1148,-17.033
-175,-720,5.19263,17.2311,0.00546663,0.00143811,0.00231289,0.0065194,0.000385334,0.427151,0.00422369,0.04601,1049,1744,5.1926,-17.2311
-168,-720,5.32678,17.3319,0.00376957,0.00347842,0.00250932,0.00613753,0.00111045,0.756424,0.00377636,0.0376202,1056,1744,5.32679,-17.3319
-161,-720,5.01648,17.4457,0.00200123,0.00538202,0.00318907,0.007301,8.22486e-05,1.0291,0.00484015,0.0304412,1063,1744,5.01652,-17.4456
-154,-720,5.08691,17.6583,0.000478969,0.0054187,0.0044394,0.00802904,-0.00213137,1.03925,0.00618676,0.0235997,1070,1744,5.08689,-17.6583
-147,-720,5.06201,17.8563,0.000243651,0.00512771,0.00440583,0.00772302,-0.00235166,1.03846,0.00608595,0.022831,1077,1744,5.06197,-17.8563
-140,-720,5.06726,17.9783,0.000221458,0.00482247,0.00409919,0.00722256,-0.00217864,1.0411,0.00568222,0.0192857,1084,1744,5.06727,-17.9782
-133,-720,5.03528,18.0438,0.000159181,0.00447831,0.00363935,0.0065506,-0.00191311,1.05317,0.00512521,0.0129956,1091,1744,5.03529,-18.0439
-126,-720,5.0304,18.1492,-6.89381e-05,0.00399448,0.00318062,0.00573692,-0.00181138,1.06962,0.00455022,0.0123081,1098,1744,5.03038,-18.1492
-119,-720,5.02441,18.2574,-0.000320133,0.00365795,0.0026856,0.00501088,-0.00167306,1.10414,0.00401616,0.0146646,1105,1744,5.02445,-18.2574
-112,-720,5.00098,18.3679,-0.000303538,0.00331594,0.00223407,0.00438131,-0.0013689,1.12582,0.00346842,0.0137476,1112,1744,5.00093,-18.3679
-105,-720,4.99292,18.4963,-0.000264062,0.00294359,0.00170553,0.00368094,-0.0010014,1.16274,0.00284708,0.012499,1119,1744,4.99287,-18.4963
-98,-720,5.00281,18.6108,-0.000380729,0.00239487,0.00119822,0.00284056,-0.000826426,1.21469,0.00222104,0.0100772,1126,1744,5.00286,-18.6109
-91,-720,4.97217,18.718,-0.000404659,0.00214519,0.00076517,0.00235718,-0.00061665,1.30052,0.00181232,0.00982632,1133,1744,4.97216,-18.718
-84,-720,4.95801,18.8326,-0.000362079,0.0021377,0.000580787,0.00226605,-0.000490426,1.3533,0.00169795,0.0102981,1140,1744,4.95799,-18.8327
-77,-720,4.96765,18.9542,-0.000212751,0.00189764,0.000519982,0.0020188,-0.000333914,1.34187,0.00146987,0.0123863,1147,1744,4.96764,-18.9542
-70,-720,4.96667,19.0447,-6.56499e-05,0.00167725,0.000358916,0.00174827,-0.000136668,1.37545,0.00121364,0.0111819,1154,1744,4.96672,-19.0447
-63,-720,4.93054,19.111,3.55358e-05,0.00143783,0.000262325,0.00148529,-1.19302e-05,1.39179,0.000994196,0.0106067,1161,1744,4.93052,-19.111
-56,-720,4.94189,19.2062,0.000196957,0.00115471,0.000243941,0.00121327,0.000138405,1.33523,0.000766883,0.0124329,1168,1744,4.94188,-19.2061
-49,-720,4.93042,19.2867,0.000364837,0.000926236,0.000247836,0.00101999,0.000271084,1.20915,0.00061005,0.0183525,1175,1744,4.93044,-19.2867
-42,-720,4.95251,19.3307,0.000570555,0.000785885,0.000279778,0.000977999,0.000378441,0.969075,0.000569438,0.0209541,1182,1744,4.95257,-19.3307
-35,-720,4.99402,19.3871,0.000867908,0.000516093,0.000259352,0.00100538,0.000378621,0.487406,0.00058632,0.0186844,1189,1744,4.994,-19.3871
-28,-720,4.97253,19.4862,0.0010722,0.00027544,0.000183576,0.00111246,0.000235178,0.215901,0.000677006,0.0110982,1196,1744,4.97255,-19.4862
-21,-720,4.96326,19.568,0.00122271,-0.000124774,0.000161355,0.00124176,-0.000143826,0.117532,0.000879708,0.00910486,1203,1744,4.96325,-19.568
-14,-720,4.97046,19.6077,0.00134812,-0.00073726,0.000218508,0.00137077,-0.00075991,0.103286,0.00124689,0.0110172,1210,1744,4.97041,-19.6077
-7,-720,4.96521,19.6804,0.00146163,-0.00123549,0.000445427,0.00153328,-0.00130715,0.159508,0.00164165,0.0124628,1217,1744,4.96524,-19.6804
0,-720,4.97253,19.7347,0.00145694,-0.00169565,0.000716905,0.00161231,-0.00185102,0.213421,0.00200113,0.012795,1224,1744,4.97252,-19.7347
7,-720,4.97998,19.7657,0.00135738,-0.00222403,0.000935807,0.00158716,-0.00245381,0.240779,0.00235087,0.0144478,1231,1744,4.98002,-19.7657
14,-720,4.98389,19.8158,0.00127871,-0.00268002,0.001134,0.00158054,-0.00298185,0.260132,0.00267519,0.0135792,1238,1744,4.98385,-19.8158
21,-720,4.99304,19.8727,0.00117921,-0.00301603,0.00126704,0.00153218,-0.003369,0.271691,0.00289518,0.0111432,1245,1744,4.99304,-19.8726
28,-720,4.99475,19.9023,0.00105027,-0.00345082,0.00144277,0.00147303,-0.00387358,0.285038,0.00318889,0.011018,1252,1744,4.99475,-19.9023
35,-720,4.99316,19.9415,0.000925352,-0.00368309,0.00156063,0.00140412,-0.00416185,0.297661,0.00334241,0.0105767,1259,1744,4.99316,-19.9415
42,-720,4.99548,19.9731,0.000781744,-0.00379377,0.00154949,0.00125709,-0.00426912,0.297663,0.0033448,0.0110421,1266,1744,4.9955,-19.9732
49,-720,5.0116,19.95,0.000608918,-0.00384906,0.00143297,0.00102979,-0.00426994,0.285676,0.00324482,0.0105755,1273,1744,5.01161,-19.9499
56,-720,5.02502,19.9631,0.000508407,-0.00387194,0.00125424,0.000842116,-0.00420565,0.26004,0.00312256,0.00885098,1280,1744,5.02499,-19.9632
63,-720,5.02002,19.9786,0.000438976,-0.00393178,0.00111445,0.000706734,-0.00419954,0.235791,0.00306257,0.0110426,1287,1744,5.02004,-19.9786
70,-720,5.02222,19.9801,0.000414615,-0.00396642,0.000974563,0.000621626,-0.00417343,0.209303,0.00301096,0.0118003,1294,1744,5.02224,-19.9801
77,-720,5.01306,20.0005,0.000451437,-0.0041434,0.000866072,0.000609261,-0.00430122,0.180251,0.00309065,0.0122676,1301,1744,5.01307,-20.0005
84,-720,5.04138,19.9985,0.000421868,-0.00410792,0.000694266,0.000525887,-0.00421194,0.14872,0.00299866,0.0121405,1308,1744,5.04134,-19.9985
91,-720,5.0575,19.9934,0.000452726,-0.00411937,0.000523805,0.000511968,-0.00417862,0.112621,0.00297114,0.0119919,1315,1744,5.05747,-19.9934
98,-720,5.02991,19.9951,0.000473959,-0.00411447,0.000383178,0.000505737,-0.00414625,0.0827459,0.00294724,0.0114527,1322,1744,5.02987,-19.9951
105,-720,5.03479,19.988,0.00054416,-0.00411379,0.000294807,0.000562745,-0.00413237,0.0629563,0.00296038,0.0109351,1329,1744,5.03478,-19.9881
112,-720,5.06079,19.9805,0.000638744,-0.00399514,0.00032532,0.000661471,-0.00401787,0.0697487,0.00292412,0.0104645,1336,1744,5.06077,-19.9804
119,-720,5.07568,19.9536,0.000605779,-0.00385594,0.000308268,0.000626978,-0.00387714,0.0686569,0.00281711,0.0111381,1343,1744,5.07563,-19.9537
126,-720,5.07715,19.9333,0.000637726,-0.00355423,0.000304511,0.000659731,-0.00357624,0.072137,0.00263178,0.0109862,1350,1744,5.07711,-19.9334
133,-720,5.06689,19.9202,0.000687884,-0.00294256,0.000249433,0.000704941,-0.00295961,0.0682785,0.00224525,0.0124801,1357,1744,5.06689,-19.9201
140,-720,5.06165,19.9067,0.000718138,-0.00234066,0.000231501,0.000735559,-0.00235808,0.0751136,0.0018662,0.0200585,1364,1744,5.06161,-19.9067
147,-720,5.06506,19.8441,0.000728943,-0.00170587,0.000249553,0.000754258,-0.00173119,0.101093,0.00147146,0.0198734,1371,1744,5.0651,-19.8442
154,-720,5.06848,19.7784,0.000697749,-0.00105506,0.000244345,0.000731174,-0.00108848,0.13595,0.00105731,0.0119766,1378,1744,5.06854,-19.7784
161,-720,5.08362,19.7112,0.000585074,-0.000436959,0.000230639,0.000634711,-0.000486596,0.211981,0.000649267,0.00904037,1385,1744,5.08366,-19.7112
168,-720,5.08093,19.6455,0.000440171,9.15028e-05,0.000146614,0.000493626,3.80475e-05,0.349621,0.000317163,0.00953577,1392,1744,5.0809,-19.6456
175,-720,5.08142,19.5865,0.000343793,0.000460928,-2.12164e-05,0.000464652,0.000340068,-1.39702,0.000277716,0.0147373,1399,1744,5.08142,-19.5865
182,-720,5.0874,19.5449,0.000283439,0.000659427,-0.000619148,0.00111849,-0.000175626,-0.932792,0.000810571,0.0147694,1406,1744,5.08746,-19.5449
189,-720,5.10522,19.4805,0.000269525,0.000823135,-0.00135842,0.00193267,-0.000840009,-0.885907,0.00164172,0.012503,1413,1744,5.10523,-19.4805
196,-720,5.10376,19.4059,0.000185162,0.000942201,-0.00193105,0.00253148,-0.00140412,-0.88218,0.00230308,0.0135132,1420,1744,5.10371,-19.4059
203,-720,5.07678,19.3115,0.00019157,0.0010297,-0.00255013,0.00319496,-0.0019737,-0.866836,0.00301177,0.0151703,1427,1744,5.07674,-19.3115
210,-720,5.05579,19.2411,0.000243794,0.00109667,-0.00319909,0.00389762,-0.00255716,-0.851657,0.00375336,0.0129507,1434,1744,5.05582,-19.2411
217,-720,5.06189,19.1588,0.000227887,0.0011479,-0.00389266,0.00460764,-0.00323186,-0.844212,0.00454931,0.0128286,1441,1744,5.06193,-19.1588
224,-720,5.07581,19.0719,0.000273873,0.00114183,-0.00451442,0.00524308,-0.00382737,-0.833317,0.00525805,0.00955055,1448,1744,5.07575,-19.0719
231,-720,5.08081,18.9863,0.000280788,0.00111159,-0.00502191,0.00573525,-0.00434288,-0.826663,0.00583709,0.0102137,1455,1744,5.08086,-18.9864
238,-720,5.06824,18.8928,0.000378528,0.00113082,-0.00534785,0.00611574,-0.00460639,-0.820508,0.00621084,0.00925693,1462,1744,5.06821,-18.8929
245,-720,5.03955,18.8158,0.000498126,0.00124838,-0.00551898,0.00640497,-0.00465846,-0.819331,0.00641395,0.0108082,1469,1744,5.03959,-18.8158
252,-720,5.05359,18.7032,-0.00419436,-0.00165298,-0.0052388,0.00246704,-0.00831438,-0.904377,0.00652268,0.0102514,1476,1744,5.05358,-18.7033
259,-720,5.06543,18.5917,-0.0110469,-0.00703531,-0.00467173,-0.00395698,-0.0141252,-0.988171,0.00841391,0.0094794,1483,1744,5.06539,-18.5917
266,-720,5.03381,18.5017,-0.0162323,-0.0107865,-0.00427298,-0.00844255,-0.0185762,-1.06907,0.0107398,0.00868329,1490,1744,5.03377,-18.5017
273,-720,5.0116,18.3833,-0.0223174,-0.014294,-0.00414079,-0.0125403,-0.0240711,-1.17018,0.0139015,0.015295,1497,1744,5.01159,-18.3833
280,-720,4.94885,18.2627,-0.0291893,-0.0188995,-0.00366577,-0.0177272,-0.0303616,-1.26126,0.0176113,0.0221881,1504,1744,4.94891,-18.2627
287,-720,4.88318,18.0569,-0.036401,-0.0240462,-0.00273916,-0.0234662,-0.0369811,-1.36211,0.0216072,0.0353182,1511,1744,4.88319,-18.0569
294,-720,5.00916,17.8832,-0.0435094,-0.0291469,-0.00202311,-0.0288674,-0.0437889,-1.43349,0.0257054,0.04004,1518,1744,5.00917,-17.8832
301,-720,4.94849,17.8163,-0.0488964,-0.0327717,-0.002136,-0.0324935,-0.0491745,-1.4413,0.0288761,0.0381219,1525,1744,4.94851,-17.8163
308,-720,4.77197,17.6265,-0.0521597,-0.0348828,-0.00265183,-0.0344849,-0.0525576,-1.42187,0.0308334,0.0393334,1532,1744,4.77193,-17.6265
315,-720,4.94153,17.5465,-0.0540238,-0.0360691,-0.00297041,-0.0355904,-0.0545024,-1.41103,0.0319543,0.0458782,1539,1744,4.94155,-17.5465
322,-720,4.97278,16.7754,-0.0535053,-0.0360253,-0.00334339,-0.0354076,-0.054123,-1.38812,0.0317394,0.0481435,1546,1744,4.97276,-16.7753
329,-720,4.97437,16.8967,0,0,0,0,0,0,0,-1,1553,1744,4.9744,-16.8967
336,-720,4.81616,17.9075,0,0,0,0,0,0,0,-1,1560,1744,4.81613,-17.9075
343,-720,5.19104,15.8707,0,0,0,0,0,0,0,-1,1567,1744,5.19098,-15.8707
350,-720,4.0741,11.1836,0,0,0,0,0,0,0,-1,1574,1744,4.07412,-11.1836
357,-720,5.23975,15.9412,0,0,0,0,0,0,0,-1,1581,1744,5.23978,-15.9412
364,-720,7.06262,19.2472,0,0,0,0,0,0,0,-1,1588,1744,7.06262,-19.2471
371,-720,6.59607,18.9454,0,0,0,0,0,0,0,-1,1595,1744,6.59608,-18.9454
378,-720,6.49023,19.1788,0,0,0,0,0,0,0,-1,1602,1744,6.49029,-19.1788
385,-720,6.70081,20.3156,0,0,0,0,0,0,0,-1,1609,1744,6.70076,-20.3156
392,-720,-0.195923,11.8507,0,0,0,0,0,0,0,-1,1616,1744,-0.195951,-11.8507
399,-720,-0.429932,12.9296,0,0,0,0,0,0,0,-1,1623,1744,-0.429942,-12.9296
406,-720,0,0,0,0,0,0,0,0,0,-1,1630,1744,0,0
413,-720,0,0,0,0,0,0,0,0,0,-1,1637,1744,0,0
420,-720,0,0,0,0,0,0,0,0,0,-1,1644,1744,0,0
427,-720,0,0,0,0,0,0,0,0,0,-1,1651,1744,0,0
434,-720,0,0,0,0,0,0,0,0,0,-1,1658,1744,0,0
441,-720,0,0,0,0,0,0,0,0,0,-1,1665,1744,0,0
448,-720,0,0,0,0,0,0,0,0,0,-1,1672,1744,0,0
455,-720,0,0,0,0,0,0,0,0,0,-1,1679,1744,0,0
462,-720,0,0,0,0,0,0,0,0,0,-1,1686,1744,0,0
469,-720,0,0,0,0,0,0,0,0,0,-1,1693,1744,0,0
476,-720,0,0,0,0,0,0,0,0,0,-1,1700,1744,0,0
483,-720,0,0,0,0,0,0,0,0,0,-1,1707,1744,0,0
490,-720,0,0,0,0,0,0,0,0,0,-1,1714,1744,0,0
497,-720,0,0,0,0,0,0,0,0,0,-1,1721,1744,0,0
504,-720,0,0,0,0,0,0,0,0,0,-1,1728,1744,0,0
511,-720,0,0,0,0,0,0,0,0,0,-1,1735,1744,0,0
518,-720,0,0,0,0,0,0,0,0,0,-1,1742,1744,0,0
525,-720,0,0,0,0,0,0,0,0,0,-1,1749,1744,0,0
532,-720,0,0,0,0,0,0,0,0,0,-1,1756,1744,0,0
539,-720,0,0,0,0,0,0,0,0,0,-1,1763,1744,0,0
546,-720,0,0,0,0,0,0,0,0,0,-1,1770,1744,0,0
553,-720,0,0,0,0,0,0,0,0,0,-1,1777,1744,0,0
560,-720,0,0,0,0,0,0,0,0,0,-1,1784,1744,0,0
567,-720,0,0,0,0,0,0,0,0,0,-1,1791,1744,0,0
574,-720,0,0,0,0,0,0,0,0,0,-1,1798,1744,0,0
581,-720,0,0,0,0,0,0,0,0,0,-1,1805,1744,0,0
588,-720,0,0,0,0,0,0,0,0,0,-1,1812,1744,0,0
595,-720,0,0,0,0,0,0,0,0,0,-1,1819,1744,0,0
602,-720,0,0,0,0,0,0,0,0,0,-1,1826,1744,0,0
609,-720,0,0,0,0,0,0,0,0,0,-1,1833,1744,0,0
616,-720,0,0,0,0,0,0,0,0,0,-1,1840,1744,0,0
623,-720,0,0,0,0,0,0,0,0,0,-1,1847,1744,0,0
630,-720,0,0,0,0,0,0,0,0,0,-1,1854,1744,0,0
637,-720,0,0,0,0,0,0,0,0,0,-1,1861,1744,0,0
644,-720,0,0,0,0,0,0,0,0,0,-1,1868,1744,0,0
651,-720,0,0,0,0,0,0,0,0,0,-1,1875,1744,0,0
658,-720,0,0,0,0,0,0,0,0,0,-1,1882,1744,0,0
665,-720,0,0,0,0,0,0,0,0,0,-1,1889,1744,0,0
672,-720,0,0,0,0,0,0,0,0,0,-1,1896,1744,0,0
679,-720,0,0,0,0,0,0,0,0,0,-1,1903,1744,0,0
686,-720,0,0,0,0,0,0,0,0,0,-1,1910,1744,0,0
693,-720,0,0,0,0,0,0,0,0,0,-1,1917,1744,0,0
700,-720,0,0,0,0,0,0,0,0,0,-1,1924,1744,0,0
707,-720,0,0,0,0,0,0,0,0,0,-1,1931,1744,0,0
714,-720,0,0,0,0,0,0,0,0,0,-1,1938,1744,0,0
721,-720,0,0,0,0,0,0,0,0,0,-1,1945,1744,0,0
728,-720,0,0,0,0,0,0,0,0,0,-1,1952,1744,0,0
735,-720,0,0,0,0,0,0,0,0,0,-1,1959,1744,0,0
742,-720,0,0,0,0,0,0,0,0,0,-1,1966,1744,0,0
749,-720,0,0,0,0,0,0,0,0,0,-1,1973,1744,0,0
756,-720,0,0,0,0,0,0,0,0,0,-1,1980,1744,0,0
763,-720,0,0,0,0,0,0,0,0,0,-1,1987,1744,0,0
770,-720,0,0,0,0,0,0,0,0,0,-1,1994,1744,0,0
777,-720,0,0,0,0,0,0,0,0,0,-1,2001,1744,0,0
784,-720,0,0,0,0,0,0,0,0,0,-1,2008,1744,0,0
791,-720,0,0,0,0,0,0,0,0,0,-1,2015,1744,0,0
798,-720,0,0,0,0,0,0,0,0,0,-1,2022,1744,0,0
805,-720,0,0,0,0,0,0,0,0,0,-1,2029,1744,0,0
812,-720,0,0,0,0,0,0,0,0,0,-1,2036,1744,0,0
-700,-727,0,0,0,0,0,0,0,0,0,-1,524,1751,0,0
-693,-727,0,0,0,0,0,0,0,0,0,-1,531,1751,0,0
-686,-727,0,0,0,0,0,0,0,0,0,-1,538,1751,0,0
-679,-727,0,0,0,0,0,0,0,0,0,-1,545,1751,0,0
-672,-727,0,0,0,0,0,0,0,0,0,-1,552,1751,0,0
-665,-727,0,0,0,0,0,0,0,0,0,-1,559,1751,0,0
-658,-727,0,0,0,0,0,0,0,0,0,-1,566,1751,0,0
-651,-727,0,0,0,0,0,0,0,0,0,-1,573,1751,0,0
-644,-727,0,0,0,0,0,0,0,0,0,-1,580,1751,0,0
-637,-727,0,0,0,0,0,0,0,0,0,-1,587,1751,0,0
-630,-727,0,0,0,0,0,0,0,0,0,-1,594,1751,0,0
-623,-727,0,0,0,0,0,0,0,0,0,-1,601,1751,0,0
-616,-727,0,0,0,0,0,0,0,0,0,-1,608,1751,0,0
-609,-727,0,0,0,0,0,0,0,0,0,-1,615,1751,0,0
-602,-727,0,0,0,0,0,0,0,0,0,-1,622,1751,0,0
-595,-727,0,0,0,0,0,0,0,0,0,-1,629,1751,0,0
-588,-727,0,0,0,0,0,0,0,0,0,-1,636,1751,0,0
-581,-727,0,0,0,0,0,0,0,0,0,-1,643,1751,0,0
-574,-727,0,0,0,0,0,0,0,0,0,-1,650,1751,0,0
-567,-727,0,0,0,0,0,0,0,0,0,-1,657,1751,0,0
-560,-727,0,0,0,0,0,0,0,0,0,-1,664,1751,0,0
-553,-727,0,0,0,0,0,0,0,0,0,-1,671,1751,0,0
-546,-727,0,0,0,0,0,0,0,0,0,-1,678,1751,0,0
-539,-727,0,0,0,0,0,0,0,0,0,-1,685,1751,0,0
-532,-727,0,0,0,0,0,0,0,0,0,-1,692,1751,0,0
-525,-727,0,0,0,0,0,0,0,0,0,-1,699,1751,0,0
-518,-727,0,0,0,0,0,0,0,0,0,-1,706,1751,0,0
-511,-727,0,0,0,0,0,0,0,0,0,-1,713,1751,0,0
-504,-727,0,0,0,0,0,0,0,0,0,-1,720,1751,0,0
-497,-727,0,0,0,0,0,0,0,0,0,-1,727,1751,0,0
-490,-727,0,0,0,0,0,0,0,0,0,-1,734,1751,0,0
-483,-727,0,0,0,0,0,0,0,0,0,-1,741,1751,0,0
-476,-727,0,0,0,0,0,0,0,0,0,-1,748,1751,0,0
-469,-727,0,0,0,0,0,0,0,0,0,-1,755,1751,0,0
-462,-727,0,0,0,0,0,0,0,0,0,-1,762,1751,0,0
-455,-727,0,0,0,0,0,0,0,0,0,-1,769,1751,0,0
-448,-727,0,0,0,0,0,0,0,0,0,-1,776,1751,0,0
-441,-727,0,0,0,0,0,0,0,0,0,-1,783,1751,0,0
-434,-727,0,0,0,0,0,0,0,0,0,-1,790,1751,0,0
-427,-727,0,0,0,0,0,0,0,0,0,-1,797,1751,0,0
-420,-727,0,0,0,0,0,0,0,0,0,-1,804,1751,0,0
-413,-727,0,0,0,0,0,0,0,0,0,-1,811,1751,0,0
-406,-727,0,0,0,0,0,0,0,0,0,-1,818,1751,0,0
-399,-727,0,0,0,0,0,0,0,0,0,-1,825,1751,0,0
-392,-727,0,0,0,0,0,0,0,0,0,-1,832,1751,0,0
-385,-727,0,0,0,0,0,0,0,0,0,-1,839,1751,0,0
-378,-727,0,0,0,0,0,0,0,0,0,-1,846,1751,0,0
-371,-727,0,0,0,0,0,0,0,0,0,-1,853,1751,0,0
-364,-727,0,0,0,0,0,0,0,0,0,-1,860,1751,0,0
-357,-727,0,0,0,0,0,0,0,0,0,-1,867,1751,0,0
-350,-727,0,0,0,0,0,0,0,0,0,-1,874,1751,0,0
-343,-727,0,0,0,0,0,0,0,0,0,-1,881,1751,0,0
-336,-727,0,0,0,0,0,0,0,0,0,-1,888,1751,0,0
-329,-727,0,0,0,0,0,0,0,0,0,-1,895,1751,0,0
-322,-727,0,0,0,0,0,0,0,0,0,-1,902,1751,0,0
-315,-727,0,0,0,0,0,0,0,0,0,-1,909,1751,0,0
-308,-727,0,0,0,0,0,0,0,0,0,-1,916,1751,0,0
-301,-727,0,0,0,0,0,0,0,0,0,-1,923,1751,0,0
-294,-727,0,0,0,0,0,0,0,0,0,-1,930,1751,0,0
-287,-727,0,0,0,0,0,0,0,0,0,-1,937,1751,0,0
-280,-727,0,0,0,0,0,0,0,0,0,-1,944,1751,0,0
-273,-727,0,0,0,0,0,0,0,0,0,-1,951,1751,0,0
-266,-727,4.24805,7.61145,0,0,0,0,0,0,0,-1,958,1751,4.24802,-7.6115
-259,-727,3.65228,5.4082,0,0,0,0,0,0,0,-1,965,1751,3.65229,-5.40818
-252,-727,7.46558,15.4333,0,0,0,0,0,0,0,-1,972,1751,7.46559,-15.4333
-245,-727,6.54272,15.9471,0,0,0,0,0,0,0,-1,979,1751,6.54274,-15.9472
-238,-727,5.71814,16.4174,0,0,0,0,0,0,0,-1,986,1751,5.71815,-16.4174
-231,-727,7.19049,20.2837,0,0,0,0,0,0,0,-1,993,1751,7.19047,-20.2837
-224,-727,4.66479,16.8412,0,0,0,0,0,0,0,-1,1000,1751,4.66481,-16.8412
-217,-727,4.54193,17.5852,0,0,0,0,0,0,0,-1,1007,1751,4.54192,-17.5853
-210,-727,5.45917,16.6589,0,0,0,0,0,0,0,-1,1014,1751,5.45916,-16.659
-203,-727,4.99561,17.9253,0,0,0,0,0,0,0,-1,1021,1751,4.99566,-17.9253
-196,-727,4.11609,15.9137,0,0,0,0,0,0,0,-1,1028,1751,4.11607,-15.9137
-189,-727,5.91272,17.6641,0,0,0,0,0,0,0,-1,1035,1751,5.91268,-17.6641
-182,-727,5.3623,17.1055,0,0,0,0,0,0,0,-1,1042,1751,5.36231,-17.1055
-175,-727,5.40271,17.3411,0,0,0,0,0,0,0,-1,1049,1751,5.40267,-17.341
-168,-727,5.61023,17.4727,0,0,0,0,0,0,0,-1,1056,1751,5.61019,-17.4726
-161,-727,4.98328,17.5614,0,0,0,0,0,0,0,-1,1063,1751,4.98329,-17.5614
-154,-727,5.13354,17.2345,0.0010091,0.00755486,0.00667941,0.0117201,-0.00315618,1.0132,0.00905082,0.0448167,1070,1751,5.13354,-17.2346
-147,-727,5.22034,17.7478,0.000597265,0.00704939,0.006508,0.011087,-0.00344039,1.0155,0.00876616,0.0415129,1077,1751,5.22035,-17.7478
-140,-727,5.07446,17.8367,0.000458665,0.00655566,0.00598514,0.0102239,-0.00320963,1.02095,0.00810064,0.0290864,1084,1751,5.07444,-17.8367
-133,-727,5.15393,17.9445,0.000269759,0.00605585,0.0052454,0.00915312,-0.00282751,1.03741,0.00723126,0.0210288,1091,1751,5.1539,-17.9444
-126,-727,5.09424,18.1144,-0.000114383,0.00538046,0.00450339,0.00790834,-0.00264226,1.0593,0.00633927,0.0149144,1098,1751,5.09429,-18.1144
-119,-727,5.11267,18.2888,-0.00052831,0.00486121,0.00367844,0.00672634,-0.00239344,1.10153,0.00545981,0.0126457,1105,1751,5.1127,-18.2888
-112,-727,5.11011,18.3804,-0.000618219,0.00439534,0.00295453,0.00576324,-0.00198613,1.1372,0.00464787,0.0138982,1112,1751,5.1101,-18.3803
-105,-727,5.08215,18.5021,-0.000689899,0.0039143,0.00217842,0.00478161,-0.00155722,1.1919,0.00381429,0.0127002,1119,1751,5.08217,-18.5021
-98,-727,5.08789,18.6199,-0.000936922,0.00319114,0.00142987,0.00363804,-0.00138382,1.26787,0.00299516,0.0108533,1126,1751,5.08792,-18.6198
-91,-727,5.08704,18.7318,-0.00106763,0.00278593,0.000762462,0.0029313,-0.001213,1.38239,0.00246031,0.0108257,1133,1751,5.08699,-18.7318
-84,-727,5.05884,18.8402,-0.00111477,0.00270774,0.00044006,0.00275774,-0.00116478,1.45764,0.00232608,0.0107972,1140,1751,5.05889,-18.8402
-77,-727,5.06067,18.9556,-0.001014,0.00227022,0.000343929,0.00230585,-0.00104963,1.46757,0.00198203,0.0112875,1147,1751,5.06061,-18.9556
-70,-727,5.06042,19.0499,-0.000930297,0.00190347,0.000151888,0.00191158,-0.000938415,1.5174,0.00167712,0.0124204,1154,1751,5.06043,-19.0499
-63,-727,5.04517,19.1316,-0.000654314,0.00109494,0.000314194,0.00114967,-0.000709036,1.39836,0.00108313,0.0104517,1161,1751,5.04517,-19.1316
-56,-727,5.03479,19.2084,-0.000196032,0.000434091,0.000627917,0.000821556,-0.000583497,1.01792,0.00081508,0.0104041,1168,1751,5.03476,-19.2084
-49,-727,5.0293,19.2784,0.000110693,7.94763e-05,0.000789501,0.00088474,-0.00069457,0.775515,0.000914016,0.0133686,1175,1751,5.0293,-19.2784
-42,-727,5.02527,19.3431,0.000416627,-9.10205e-05,0.000974935,0.00117024,-0.000844631,0.65805,0.00116834,0.0169507,1182,1751,5.02531,-19.3431
-35,-727,5.00574,19.4026,0.000741208,-0.000366368,0.00100022,0.00133072,-0.000955876,0.532572,0.00132606,0.0151508,1189,1751,5.00578,-19.4026
-28,-727,5.01941,19.4767,0.000927324,-0.00057482,0.000959541,0.00139479,-0.00104228,0.453334,0.00141194,0.00879081,1196,1751,5.0194,-19.4766
-21,-727,5.01843,19.557,0.0010423,-0.000747993,0.000912177,0.00142518,-0.00113087,0.39741,0.001479,0.00997839,1203,1751,5.01841,-19.557
-14,-727,5.0321,19.6053,0.00112088,-0.00110255,0.000875495,0.00142423,-0.0014059,0.333542,0.00163398,0.0119195,1210,1751,5.03206,-19.6054
-7,-727,5.01807,19.675,0.00109865,-0.00144366,0.00091042,0.00139105,-0.00173606,0.310763,0.0018091,0.0156319,1217,1751,5.01801,-19.675
0,-727,5.01392,19.7356,0.000985378,-0.00180665,0.00096401,0.00128588,-0.00210715,0.302176,0.001978,0.0145496,1224,1751,5.01389,-19.7356
7,-727,5.02283,19.7684,0.000835799,-0.00224087,0.000986317,0.00112484,-0.00252991,0.285068,0.00216142,0.013412,1231,1751,5.0228,-19.7685
14,-727,5.02966,19.8221,0.000706906,-0.00267236,0.00095977,0.000960471,-0.00292592,0.258292,0.0023375,0.0139396,1238,1751,5.02962,-19.8221
21,-727,5.02173,19.8777,0.000585951,-0.00305895,0.000913641,0.000802143,-0.00327514,0.232354,0.00249418,0.0124033,1245,1751,5.02178,-19.8777
28,-727,5.02808,19.8998,0.000452693,-0.00342142,0.000880603,0.000643463,-0.0036122,0.21334,0.0026488,0.0105393,1252,1751,5.02806,-19.8998
35,-727,5.03613,19.9298,0.000354444,-0.00367573,0.000846006,0.000524832,-0.00384612,0.198745,0.00275573,0.0115481,1259,1751,5.03614,-19.9298
42,-727,5.01428,19.9489,0.000229112,-0.00376988,0.000720083,0.000354822,-0.00389559,0.172836,0.00272305,0.0126136,1266,1751,5.01422,-19.9489
49,-727,5.0094,19.932,9.83628e-05,-0.0038713,0.000562661,0.000176574,-0.00394951,0.138117,0.00269379,0.0109627,1273,1751,5.00937,-19.932
56,-727,5.01965,19.9775,0.000116296,-0.00392275,0.000447953,0.00016538,-0.00397183,0.109139,0.0027047,0.00868484,1280,1751,5.01966,-19.9775
63,-727,5.03809,19.9873,0.00017825,-0.00395146,0.000403554,0.000217315,-0.00399052,0.0965034,0.00273567,0.0104691,1287,1751,5.03815,-19.9873
70,-727,5.0459,19.9877,0.000267098,-0.00394819,0.000434239,0.000311366,-0.00399246,0.101594,0.00277127,0.0121823,1294,1751,5.04588,-19.9877
77,-727,5.03748,20.0372,0.000463303,-0.00408281,0.000468658,0.000511114,-0.00413062,0.101665,0.00293897,0.0140716,1301,1751,5.03746,-20.0373
84,-727,5.05237,19.9894,0.00068878,-0.0039345,0.000282094,0.000705928,-0.00395165,0.0607158,0.00289854,0.015239,1308,1751,5.05236,-19.9894
91,-727,5.0614,19.9552,0.00088574,-0.00385199,0.000213817,0.000895371,-0.00386162,0.0450087,0.00291901,0.0157191,1315,1751,5.06141,-19.9552
98,-727,5.02856,19.9788,0.00111791,-0.00371086,0.000137842,0.00112184,-0.00371479,0.0285151,0.00292314,0.0132366,1322,1751,5.02853,-19.9787
105,-727,5.02539,19.9927,0.00135925,-0.00359451,4.86545e-05,0.00135973,-0.00359499,0.00982046,0.00295605,0.0122915,1329,1751,5.02541,-19.9926
112,-727,5.04248,19.9705,0.00156081,-0.00341175,-2.15917e-06,0.00156081,-0.00341175,-0.000434217,0.00293646,0.0104346,1336,1751,5.04252,-19.9704
119,-727,5.0614,19.9347,0.00163786,-0.00320978,-9.7703e-05,0.00163983,-0.00321175,-0.0201438,0.00284965,0.00857187,1343,1751,5.06143,-19.9347
126,-727,5.05811,19.9175,0.00172556,-0.00289456,-0.000218894,0.0017359,-0.0029049,-0.0472374,0.00270756,0.0103488,1350,1751,5.05815,-19.9175
133,-727,5.047,19.9048,0.00176625,-0.00242997,-0.000353915,0.00179589,-0.00245961,-0.0835548,0.00246685,0.0150907,1357,1751,5.04694,-19.9048
140,-727,5.03564,19.8667,0.00170705,-0.00189415,-0.000463523,0.00176576,-0.00195286,-0.125978,0.00214785,0.0219336,1364,1751,5.03565,-19.8667
147,-727,5.04126,19.8212,0.00158119,-0.00135423,-0.000539558,0.00167722,-0.00145027,-0.176142,0.00180724,0.01775,1371,1751,5.04127,-19.8211
154,-727,5.05811,19.7513,0.00137858,-0.000831005,-0.00064309,0.00155211,-0.00100454,-0.263574,0.00148733,0.0104368,1378,1751,5.05807,-19.7513
161,-727,5.04675,19.7006,0.00107736,-0.000395285,-0.000758293,0.00139801,-0.000715929,-0.400048,0.00124148,0.00943485,1385,1751,5.04672,-19.7006
168,-727,5.03308,19.655,0.000842129,-2.16443e-05,-0.000909515,0.00141709,-0.000596606,-0.563734,0.00119434,0.0125723,1392,1751,5.03305,-19.655
175,-727,5.04285,19.5931,0.000662757,0.000368758,-0.00115881,0.00168385,-0.000652336,-0.722308,0.00139193,0.01814,1399,1751,5.04281,-19.5932
182,-727,5.04126,19.5393,0.000354317,0.000718847,-0.00209059,0.0026351,-0.00156194,-0.82888,0.00244942,0.0194131,1406,1751,5.04129,-19.5393
189,-727,5.02136,19.4664,-1.95462e-05,0.000767495,-0.00293151,0.00333178,-0.00258383,-0.852118,0.00342447,0.0116022,1413,1751,5.02142,-19.4664
196,-727,5.02148,19.4022,6.59487e-06,0.000926617,-0.00389986,0.0043935,-0.00346029,-0.844105,0.00454505,0.0135048,1420,1751,5.0215,-19.4022
203,-727,5.00073,19.3032,0.000118674,0.0011237,-0.00489652,0.00554343,-0.00430105,-0.836533,0.00569878,0.0167961,1427,1751,5.0007,-19.3032
210,-727,4.98499,19.239,0.000310265,0.00132189,-0.00591324,0.00675091,-0.00511876,-0.828064,0.00687452,0.015949,1434,1751,4.98502,-19.2391
217,-727,4.98413,19.1665,0.000402024,0.00148609,-0.00689071,0.00785605,-0.00596794,-0.824648,0.00800606,0.0116912,1441,1751,4.98412,-19.1665
224,-727,4.99109,19.048,0.000490408,0.00153761,-0.00770685,0.00873862,-0.00671061,-0.819316,0.00894519,0.0123453,1448,1751,4.99107,-19.048
231,-727,4.99902,18.9674,0.0005175,0.00155005,-0.00832819,0.00937795,-0.0073104,-0.816354,0.00965964,0.0101643,1455,1751,4.99899,-18.9674
238,-727,4.99329,18.8781,0.000640123,0.00159584,-0.00868407,0.00981519,-0.00757923,-0.812884,0.0100703,0.0104624,1462,1751,4.99328,-18.878
245,-727,4.96973,18.7998,0.00078704,0.00175155,-0.0088107,0.0100932,-0.00755459,-0.812739,0.010224,0.00992512,1469,1751,4.96974,-18.7998
252,-727,4.96375,18.7047,-0.00669059,-0.00289145,-0.00809168,0.00352064,-0.0131027,-0.900689,0.010115,0.0108965,1476,1751,4.96378,-18.7047
259,-727,4.98779,18.589,-0.0171214,-0.0112579,-0.00701307,-0.00658848,-0.0217909,-0.983379,0.0129045,0.0145428,1483,1751,4.98785,-18.5889
266,-727,5.01477,18.4982,-0.0248773,-0.0169806,-0.00620462,-0.0135746,-0.0282833,-1.06876,0.0163338,0.0237345,1490,1751,5.01482,-18.4981
273,-727,5.07532,18.4329,-0.0338736,-0.0226477,-0.00570692,-0.020256,-0.0362653,-1.17395,0.0209856,0.0419827,1497,1751,5.07528,-18.4329
280,-727,4.88794,18.3677,0,0,0,0,0,0,0,-1,1504,1751,4.88791,-18.3677
287,-727,4.65308,17.9897,0,0,0,0,0,0,0,-1,1511,1751,4.65305,-17.9897
294,-727,4.83447,17.7738,0,0,0,0,0,0,0,-1,1518,1751,4.83452,-17.7739
301,-727,4.78748,17.843,0,0,0,0,0,0,0,-1,1525,1751,4.7875,-17.843
308,-727,4.38147,17.4354,0,0,0,0,0,0,0,-1,1532,1751,4.38152,-17.4354
315,-727,4.72107,17.3201,0,0,0,0,0,0,0,-1,1539,1751,4.72102,-17.3201
322,-727,4.82263,15.9088,0,0,0,0,0,0,0,-1,1546,1751,4.8226,-15.9088
329,-727,6.61853,11.6267,0,0,0,0,0,0,0,-1,1553,1751,6.61859,-11.6267
336,-727,3.34875,7.61792,0,0,0,0,0,0,0,-1,1560,1751,3.34872,-7.61791
343,-727,2.41699,8.72095,0,0,0,0,0,0,0,-1,1567,1751,2.41702,-8.72098
350,-727,3.89783,7.50195,0,0,0,0,0,0,0,-1,1574,1751,3.89782,-7.50193
357,-727,4.48462,10.2948,0,0,0,0,0,0,0,-1,1581,1751,4.48464,-10.2948
364,-727,6.96729,17.2365,0,0,0,0,0,0,0,-1,1588,1751,6.96732,-17.2365
371,-727,6.8031,18.2258,0,0,0,0,0,0,0,-1,1595,1751,6.80307,-18.2258
378,-727,6.6825,19.5815,0,0,0,0,0,0,0,-1,1602,1751,6.68251,-19.5815
385,-727,3.19275,14.7679,0,0,0,0,0,0,0,-1,1609,1751,3.19274,-14.768
392,-727,0,0,0,0,0,0,0,0,0,-1,1616,1751,0,0
399,-727,0,0,0,0,0,0,0,0,0,-1,1623,1751,0,0
406,-727,0,0,0,0,0,0,0,0,0,-1,1630,1751,0,0
413,-727,0,0,0,0,0,0,0,0,0,-1,1637,1751,0,0
420,-727,0,0,0,0,0,0,0,0,0,-1,1644,1751,0,0
427,-727,0,0,0,0,0,0,0,0,0,-1,1651,1751,0,0
434,-727,0,0,0,0,0,0,0,0,0,-1,1658,1751,0,0
441,-727,0,0,0,0,0,0,0,0,0,-1,1665,1751,0,0
448,-727,0,0,0,0,0,0,0,0,0,-1,1672,1751,0,0
455,-727,0,0,0,0,0,0,0,0,0,-1,1679,1751,0,0
462,-727,0,0,0,0,0,0,0,0,0,-1,1686,1751,0,0
469,-727,0,0,0,0,0,0,0,0,0,-1,1693,1751,0,0
476,-727,0,0,0,0,0,0,0,0,0,-1,1700,1751,0,0
483,-727,0,0,0,0,0,0,0,0,0,-1,1707,1751,0,0
490,-727,0,0,0,0,0,0,0,0,0,-1,1714,1751,0,0
497,-727,0,0,0,0,0,0,0,0,0,-1,1721,1751,0,0
504,-727,0,0,0,0,0,0,0,0,0,-1,1728,1751,0,0
511,-727,0,0,0,0,0,0,0,0,0,-1,1735,1751,0,0
518,-727,0,0,0,0,0,0,0,0,0,-1,1742,1751,0,0
525,-727,0,0,0,0,0,0,0,0,0,-1,1749,1751,0,0
532,-727,0,0,0,0,0,0,0,0,0,-1,1756,1751,0,0
539,-727,0,0,0,0,0,0,0,0,0,-1,1763,1751,0,0
546,-727,0,0,0,0,0,0,0,0,0,-1,1770,1751,0,0
553,-727,0,0,0,0,0,0,0,0,0,-1,1777,1751,0,0
560,-727,0,0,0,0,0,0,0,0,0,-1,1784,1751,0,0
567,-727,0,0,0,0,0,0,0,0,0,-1,1791,1751,0,0
574,-727,0,0,0,0,0,0,0,0,0,-1,1798,1751,0,0
581,-727,0,0,0,0,0,0,0,0,0,-1,1805,1751,0,0
588,-727,0,0,0,0,0,0,0,0,0,-1,1812,1751,0,0
595,-727,0,0,0,0,0,0,0,0,0,-1,1819,1751,0,0
602,-727,0,0,0,0,0,0,0,0,0,-1,1826,1751,0,0
609,-727,0,0,0,0,0,0,0,0,0,-1,1833,1751,0,0
616,-727,0,0,0,0,0,0,0,0,0,-1,1840,1751,0,0
623,-727,0,0,0,0,0,0,0,0,0,-1,1847,1751,0,0
630,-727,0,0,0,0,0,0,0,0,0,-1,1854,1751,0,0
637,-727,0,0,0,0,0,0,0,0,0,-1,1861,1751,0,0
644,-727,0,0,0,0,0,0,0,0,0,-1,1868,1751,0,0
651,-727,0,0,0,0,0,0,0,0,0,-1,1875,1751,0,0
658,-727,0,0,0,0,0,0,0,0,0,-1,1882,1751,0,0
665,-727,0,0,0,0,0,0,0,0,0,-1,1889,1751,0,0
672,-727,0,0,0,0,0,0,0,0,0,-1,1896,1751,0,0
679,-727,0,0,0,0,0,0,0,0,0,-1,1903,1751,0,0
686,-727,0,0,0,0,0,0,0,0,0,-1,1910,1751,0,0
693,-727,0,0,0,0,0,0,0,0,0,-1,1917,1751,0,0
700,-727,0,0,0,0,0,0,0,0,0,-1,1924,1751,0,0
707,-727,0,0,0,0,0,0,0,0,0,-1,1931,1751,0,0
714,-727,0,0,0,0,0,0,0,0,0,-1,1938,1751,0,0
721,-727,0,0,0,0,0,0,0,0,0,-1,1945,1751,0,0
728,-727,0,0,0,0,0,0,0,0,0,-1,1952,1751,0,0
735,-727,0,0,0,0,0,0,0,0,0,-1,1959,1751,0,0
742,-727,0,0,0,0,0,0,0,0,0,-1,1966,1751,0,0
749,-727,0,0,0,0,0,0,0,0,0,-1,1973,1751,0,0
756,-727,0,0,0,0,0,0,0,0,0,-1,1980,1751,0,0
763,-727,0,0,0,0,0,0,0,0,0,-1,1987,1751,0,0
770,-727,0,0,0,0,0,0,0,0,0,-1,1994,1751,0,0
777,-727,0,0,0,0,0,0,0,0,0,-1,2001,1751,0,0
784,-727,0,0,0,0,0,0,0,0,0,-1,2008,1751,0,0
791,-727,0,0,0,0,0,0,0,0,0,-1,2015,1751,0,0
798,-727,0,0,0,0,0,0,0,0,0,-1,2022,1751,0,0
805,-727,0,0,0,0,0,0,0,0,0,-1,2029,1751,0,0
812,-727,0,0,0,0,0,0,0,0,0,-1,2036,1751,0,0
-700,-734,0,0,0,0,0,0,0,0,0,-1,524,1758,0,0
-693,-734,0,0,0,0,0,0,0,0,0,-1,531,1758,0,0
-686,-734,0,0,0,0,0,0,0,0,0,-1,538,1758,0,0
-679,-734,0,0,0,0,0,0,0,0,0,-1,545,1758,0,0
-672,-734,0,0,0,0,0,0,0,0,0,-1,552,1758,0,0
-665,-734,0,0,0,0,0,0,0,0,0,-1,559,1758,0,0
-658,-734,0,0,0,0,0,0,0,0,0,-1,566,1758,0,0
-651,-734,0,0,0,0,0,0,0,0,0,-1,573,1758,0,0
-644,-734,0,0,0,0,0,0,0,0,0,-1,580,1758,0,0
-637,-734,0,0,0,0,0,0,0,0,0,-1,587,1758,0,0
-630,-734,0,0,0,0,0,0,0,0,0,-1,594,1758,0,0
-623,-734,0,0,0,0,0,0,0,0,0,-1,601,1758,0,0
-616,-734,0,0,0,0,0,0,0,0,0,-1,608,1758,0,0
-609,-734,0,0,0,0,0,0,0,0,0,-1,615,1758,0,0
-602,-734,0,0,0,0,0,0,0,0,0,-1,622,1758,0,0
-595,-734,0,0,0,0,0,0,0,0,0,-1,629,1758,0,0
-588,-734,0,0,0,0,0,0,0,0,0,-1,636,1758,0,0
-581,-734,0,0,0,0,0,0,0,0,0,-1,643,1758,0,0
-574,-734,0,0,0,0,0,0,0,0,0,-1,650,1758,0,0
-567,-734,0,0,0,0,0,0,0,0,0,-1,657,1758,0,0
-560,-734,0,0,0,0,0,0,0,0,0,-1,664,1758,0,0
-553,-734,0,0,0,0,0,0,0,0,0,-1,671,1758,0,0
-546,-734,0,0,0,0,0,0,0,0,0,-1,678,1758,0,0
-539,-734,0,0,0,0,0,0,0,0,0,-1,685,1758,0,0
-532,-734,0,0,0,0,0,0,0,0,0,-1,692,1758,0,0
-525,-734,0,0,0,0,0,0,0,0,0,-1,699,1758,0,0
-518,-734,0,0,0,0,0,0,0,0,0,-1,706,1758,0,0
-511,-734,0,0,0,0,0,0,0,0,0,-1,713,1758,0,0
-504,-734,0,0,0,0,0,0,0,0,0,-1,720,1758,0,0
-497,-734,0,0,0,0,0,0,0,0,0,-1,727,1758,0,0
-490,-734,0,0,0,0,0,0,0,0,0,-1,734,1758,0,0
-483,-734,0,0,0,0,0,0,0,0,0,-1,741,1758,0,0
-476,-734,0,0,0,0,0,0,0,0,0,-1,748,1758,0,0
-469,-734,0,0,0,0,0,0,0,0,0,-1,755,1758,0,0
-462,-734,0,0,0,0,0,0,0,0,0,-1,762,1758,0,0
-455,-734,0,0,0,0,0,0,0,0,0,-1,769,1758,0,0
-448,-734,0,0,0,0,0,0,0,0,0,-1,776,1758,0,0
-441,-734,0,0,0,0,0,0,0,0,0,-1,783,1758,0,0
-434,-734,0,0,0,0,0,0,0,0,0,-1,790,1758,0,0
-427,-734,0,0,0,0,0,0,0,0,0,-1,797,1758,0,0
-420,-734,0,0,0,0,0,0,0,0,0,-1,804,1758,0,0
-413,-734,0,0,0,0,0,0,0,0,0,-1,811,1758,0,0
-406,-734,0,0,0,0,0,0,0,0,0,-1,818,1758,0,0
-399,-734,0,0,0,0,0,0,0,0,0,-1,825,1758,0,0
-392,-734,0,0,0,0,0,0,0,0,0,-1,832,1758,0,0
-385,-734,0,0,0,0,0,0,0,0,0,-1,839,1758,0,0
-378,-734,0,0,0,0,0,0,0,0,0,-1,846,1758,0,0
-371,-734,0,0,0,0,0,0,0,0,0,-1,853,1758,0,0
-364,-734,0,0,0,0,0,0,0,0,0,-1,860,1758,0,0
-357,-734,0,0,0,0,0,0,0,0,0,-1,867,1758,0,0
-350,-734,0,0,0,0,0,0,0,0,0,-1,874,1758,0,0
-343,-734,0,0,0,0,0,0,0,0,0,-1,881,1758,0,0
-336,-734,0,0,0,0,0,0,0,0,0,-1,888,1758,0,0
-329,-734,0,0,0,0,0,0,0,0,0,-1,895,1758,0,0
-322,-734,0,0,0,0,0,0,0,0,0,-1,902,1758,0,0
-315,-734,0,0,0,0,0,0,0,0,0,-1,909,1758,0,0
-308,-734,0,0,0,0,0,0,0,0,0,-1,916,1758,0,0
-301,-734,0,0,0,0,0,0,0,0,0,-1,923,1758,0,0
-294,-734,0,0,0,0,0,0,0,0,0,-1,930,1758,0,0
-287,-734,0,0,0,0,0,0,0,0,0,-1,937,1758,0,0
-280,-734,0,0,0,0,0,0,0,0,0,-1,944,1758,0,0
-273,-734,0,0,0,0,0,0,0,0,0,-1,951,1758,0,0
-266,-734,0,0,0,0,0,0,0,0,0,-1,958,1758,0,0
-259,-734,0,0,0,0,0,0,0,0,0,-1,965,1758,0,0
-252,-734,8.4599,13.8206,0,0,0,0,0,0,0,-1,972,1758,8.4599,-13.8206
-245,-734,7.52032,14.3553,0,0,0,0,0,0,0,-1,979,1758,7.52035,-14.3554
-238,-734,7.14911,19.3379,0,0,0,0,0,0,0,-1,986,1758,7.14914,-19.3379
-231,-734,7.16083,19.4672,0,0,0,0,0,0,0,-1,993,1758,7.16084,-19.4671
-224,-734,7.09003,19.3512,0,0,0,0,0,0,0,-1,1000,1758,7.09002,-19.3512
-217,-734,4.60205,18.0885,0,0,0,0,0,0,0,-1,1007,1758,4.60207,-18.0885
-210,-734,5.90106,18.2217,0,0,0,0,0,0,0,-1,1014,1758,5.90103,-18.2217
-203,-734,5.12769,17.5935,0,0,0,0,0,0,0,-1,1021,1758,5.12764,-17.5936
-196,-734,4.81323,16.4907,0,0,0,0,0,0,0,-1,1028,1758,4.81322,-16.4908
-189,-734,4.37402,15.4702,0,0,0,0,0,0,0,-1,1035,1758,4.37402,-15.4702
-182,-734,5.00012,15.8203,0,0,0,0,0,0,0,-1,1042,1758,5.00015,-15.8204
-175,-734,5.5376,15.4185,0,0,0,0,0,0,0,-1,1049,1758,5.53755,-15.4184
-168,-734,4.50208,15.4194,0,0,0,0,0,0,0,-1,1056,1758,4.50212,-15.4194
-161,-734,3.51257,9.94104,0,0,0,0,0,0,0,-1,1063,1758,3.51257,-9.94101
-154,-734,5.35303,17.0848,0,0,0,0,0,0,0,-1,1070,1758,5.35306,-17.0849
-147,-734,5.10742,17.5342,0.00130331,0.00977734,0.00937796,0.015831,-0.00475038,0.997575,0.0124435,0.0474186,1077,1758,5.10739,-17.5342
-140,-734,5.16943,17.9541,0.00103559,0.00895681,0.00850373,0.014377,-0.00438462,1.00334,0.0113326,0.0430055,1084,1758,5.16947,-17.9541
-133,-734,5.27649,17.9607,0,0,0,0,0,0,0,-1,1091,1758,5.27644,-17.9607
-126,-734,5.17651,18.0657,0.000130773,0.007146,0.00617143,0.010737,-0.0034602,1.04381,0.0085481,0.0352938,1098,1758,5.1765,-18.0656
-119,-734,5.17188,18.2474,-0.000472914,0.0063334,0.00486812,0.00886995,-0.00300946,1.09045,0.00713136,0.0363338,1105,1758,5.17188,-18.2474
-112,-734,5.22327,18.3472,-0.000695472,0.0056652,0.00375402,0.00740494,-0.00243522,1.13683,0.00591781,0.0295401,1112,1758,5.2233,-18.3471
-105,-734,5.20142,18.4895,-0.000902741,0.00501829,0.0026579,0.00603636,-0.00192081,1.205,0.00479452,0.0215275,1119,1758,5.20139,-18.4895
-98,-734,5.21436,18.5756,-0.00128377,0.00408248,0.00162293,0.00453512,-0.00173641,1.2988,0.00373912,0.0199869,1126,1758,5.21435,-18.5755
-91,-734,5.20959,18.6603,-0.00151992,0.00345757,0.000685554,0.00355026,-0.00161262,1.4364,0.00304996,0.0243073,1133,1758,5.20958,-18.6602
-84,-734,5.16138,18.7974,-0.00165085,0.00325556,0.000218666,0.00326529,-0.00166058,1.52635,0.00289381,0.0196076,1140,1758,5.16134,-18.7973
-77,-734,5.14856,18.9421,-0.0015826,0.00256519,0.000103624,0.00256778,-0.00158519,1.54583,0.00241998,0.0156142,1147,1758,5.14851,-18.9421
-70,-734,5.11731,18.9816,-0.00156641,0.00201983,-9.6589e-05,0.00202243,-0.00156901,-1.54389,0.00207902,0.0117569,1154,1758,5.11727,-18.9816
-63,-734,5.11731,19.0868,-0.000615979,3.59726e-05,0.000424312,0.000245068,-0.000825073,1.11294,0.000647389,0.0117703,1161,1758,5.11728,-19.0868
-56,-734,5.12158,19.2081,0.000638087,-0.0014112,0.0011292,0.00113824,-0.00191135,0.416953,0.00177944,0.0117717,1168,1758,5.12164,-19.2081
-49,-734,5.10681,19.2858,0.0012226,-0.00202843,0.00145267,0.00177712,-0.00258295,0.364652,0.00253158,0.0117685,1175,1758,5.10687,-19.2858
-42,-734,5.09399,19.3496,0.00208569,-0.00230075,0.00182673,0.00274679,-0.00296186,0.347241,0.00329667,0.0134972,1182,1758,5.09397,-19.3496
-35,-734,5.099,19.4071,0.00282282,-0.00259979,0.00188599,0.00341426,-0.00319123,0.303884,0.00381441,0.0134247,1189,1758,5.09904,-19.4071
-28,-734,5.0946,19.4835,0.00311901,-0.00276865,0.00185868,0.00365668,-0.00330631,0.281588,0.00402178,0.009213,1196,1758,5.09456,-19.4835
-21,-734,5.1416,19.548,0.00323702,-0.00275694,0.00179623,0.00373408,-0.003254,0.269969,0.00403774,0.0147505,1203,1758,5.14165,-19.5479
-14,-734,5.09998,19.6306,0.00321839,-0.00285219,0.00171426,0.00366903,-0.00330283,0.257058,0.00402705,0.0159219,1210,1758,5.09992,-19.6306
-7,-734,5.08203,19.6731,0.00296282,-0.00293164,0.00165596,0.00339618,-0.00336499,0.255955,0.00390358,0.0173494,1217,1758,5.082,-19.673
0,-734,5.07715,19.7234,0.00257852,-0.00307945,0.00159493,0.00299715,-0.00349808,0.256682,0.00375373,0.0168354,1224,1758,5.07713,-19.7234
7,-734,5.06482,19.7794,0.00214929,-0.00331123,0.00150752,0.00253783,-0.00369978,0.252248,0.00362205,0.0124392,1231,1758,5.0648,-19.7795
14,-734,5.06213,19.8204,0.00170939,-0.00358807,0.00135308,0.00203499,-0.00391366,0.236142,0.00349108,0.0131724,1238,1758,5.06208,-19.8205
21,-734,5.04236,19.8688,0.0012658,-0.00388637,0.00118668,0.00152599,-0.00414655,0.215839,0.00338953,0.0119255,1245,1758,5.04233,-19.8687
28,-734,5.03882,19.9009,0.000823994,-0.00417631,0.00103839,0.00103106,-0.00438337,0.196826,0.00331974,0.0108192,1252,1758,5.03876,-19.9009
35,-734,5.04724,19.937,0.000469226,-0.00440225,0.000891229,0.000627155,-0.00456018,0.175383,0.00326929,0.0136526,1259,1758,5.04725,-19.9371
42,-734,5.0481,19.9614,9.07224e-05,-0.00443252,0.000670809,0.000188109,-0.0045299,0.14417,0.00308455,0.0129182,1266,1758,5.04812,-19.9614
49,-734,5.03845,19.9584,-0.000210342,-0.00454041,0.000451946,-0.000163674,-0.00458708,0.102896,0.00300498,0.0107298,1273,1758,5.03845,-19.9584
56,-734,5.03711,19.9792,-0.000178497,-0.00460271,0.000366749,-0.000148301,-0.00463291,0.0821486,0.00304038,0.00891035,1280,1758,5.03713,-19.9793
63,-734,5.05762,19.9825,-0.000133833,-0.00459267,0.000369823,-0.000103367,-0.00462314,0.082193,0.00304822,0.0113295,1287,1758,5.05759,-19.9825
70,-734,5.04504,19.9882,2.31087e-05,-0.00454394,0.000546725,8.76454e-05,-0.00460848,0.117499,0.00310195,0.0120871,1294,1758,5.0451,-19.9882
77,-734,5.0354,20.0742,0.000568006,-0.00462806,0.000586379,0.000633357,-0.00469341,0.110991,0.00336002,0.0168815,1301,1758,5.03543,-20.0742
84,-734,5.03247,20.0193,0.00118216,-0.00427745,0.000206601,0.00118997,-0.00428526,0.0377698,0.00332524,0.0172556,1308,1758,5.0325,-20.0193
91,-734,5.01831,19.9811,0.00162052,-0.00399604,6.04908e-05,0.00162117,-0.0039967,0.0107684,0.00333874,0.0180172,1315,1758,5.01828,-19.9811
98,-734,5.04407,19.9945,0.00220125,-0.00367379,-0.000110417,0.00220333,-0.00367586,-0.0187854,0.00342966,0.0135777,1322,1758,5.04401,-19.9945
105,-734,5.03528,19.9784,0.00272651,-0.0033613,-0.000343199,0.0027458,-0.00338059,-0.0561377,0.0035434,0.0143569,1329,1758,5.03527,-19.9783
112,-734,5.03503,19.9368,0.00312203,-0.00304079,-0.000614654,0.00318273,-0.00310149,-0.0984439,0.0036283,0.0122233,1336,1758,5.03503,-19.9368
119,-734,5.0426,19.8947,0.00338411,-0.00272738,-0.000958608,0.00353094,-0.00287421,-0.151992,0.00370449,0.0129776,1343,1758,5.04259,-19.8946
126,-734,5.01392,19.8798,0.00361037,-0.00234851,-0.00135917,0.00390575,-0.00264389,-0.213992,0.00380476,0.0159646,1350,1758,5.01386,-19.8798
133,-734,5.0033,19.8792,0.0037076,-0.00188638,-0.00176952,0.00422034,-0.00239913,-0.282041,0.00386967,0.0142814,1357,1758,5.00327,-19.8791
140,-734,5.00964,19.8472,0.00360233,-0.00136548,-0.00211601,0.00438144,-0.0021446,-0.352795,0.00384088,0.0185207,1364,1758,5.00961,-19.8472
147,-734,5.01123,19.7773,0.00337694,-0.000852833,-0.00239099,0.00445417,-0.00193006,-0.4233,0.00378074,0.0132517,1371,1758,5.01122,-19.7773
154,-734,5.00598,19.7595,0.00303315,-0.00038838,-0.00264199,0.0044699,-0.00182513,-0.49808,0.00373983,0.00913052,1378,1758,5.00599,-19.7596
161,-734,4.99866,19.7179,0.00248393,-7.2582e-05,-0.00292967,0.00440207,-0.00199072,-0.579691,0.00377739,0.00917011,1385,1758,4.99866,-19.7179
168,-734,4.96057,19.6506,0.00201183,0.000290497,-0.00323005,0.00449391,-0.00219158,-0.655195,0.00393542,0.014622,1392,1758,4.96057,-19.6506
175,-734,4.97375,19.589,0.00161753,0.000864805,-0.00367349,0.00493388,-0.00245156,-0.73435,0.00434353,0.0176336,1399,1758,4.9738,-19.589
182,-734,4.99438,19.5135,0.00053478,0.0014713,-0.00465231,0.00567885,-0.00367277,-0.835555,0.00544041,0.0151184,1406,1758,4.99434,-19.5135
189,-734,4.96558,19.4479,-0.000569946,0.00101984,-0.00499416,0.00528197,-0.00483208,-0.864318,0.00584128,0.0104643,1413,1758,4.96563,-19.4479
196,-734,4.94421,19.4039,-6.24271e-05,0.000984391,-0.0063423,0.00682484,-0.00590288,-0.826568,0.00735477,0.0120066,1420,1758,4.94424,-19.4039
203,-734,4.97034,19.3132,0.000160357,0.00126956,-0.00788376,0.0086182,-0.00718828,-0.820514,0.00913832,0.0128291,1427,1758,4.97028,-19.3132
210,-734,4.95935,19.218,0.000503904,0.00162428,-0.00944871,0.0105294,-0.00840121,-0.815007,0.0109526,0.0138105,1434,1758,4.9593,-19.218
217,-734,4.92822,19.1472,0.000714043,0.0019078,-0.0108735,0.0122008,-0.00957892,-0.812817,0.0126048,0.0106532,1441,1758,4.92817,-19.1472
224,-734,4.93604,19.0526,0.000856039,0.00203421,-0.0119894,0.013449,-0.0105588,-0.809945,0.0138944,0.0117107,1448,1758,4.93601,-19.0526
231,-734,4.92188,18.983,0.000915003,0.00210152,-0.0128045,0.0143265,-0.01131,-0.808548,0.0148353,0.013202,1455,1758,4.92183,-18.983
238,-734,4.88806,18.8903,0.00107182,0.00217769,-0.0132632,0.0148995,-0.01165,-0.806231,0.0153666,0.0170088,1462,1758,4.88808,-18.8902
245,-734,4.90332,18.7244,0.00125871,0.00237661,-0.0134086,0.0152379,-0.0116026,-0.806229,0.0155437,0.0226249,1469,1758,4.90333,-18.7244
252,-734,4.88489,18.6183,-0.00997975,-0.0046073,-0.0120283,0.00503112,-0.0196182,-0.895258,0.015039,0.0289255,1476,1758,4.88484,-18.6183
259,-734,4.99036,18.636,-0.0250871,-0.0169346,-0.0101847,-0.0100407,-0.031981,-0.975752,0.0188855,0.0375597,1483,1758,4.9903,-18.636
266,-734,4.94604,18.5111,0,0,0,0,0,0,0,-1,1490,1758,4.94602,-18.5112
273,-734,5.13074,18.6016,0,0,0,0,0,0,0,-1,1497,1758,5.13076,-18.6016
280,-734,16.6191,7.38013,0,0,0,0,0,0,0,-1,1504,1758,16.6192,-7.38011
287,-734,14.848,9.10046,0,0,0,0,0,0,0,-1,1511,1758,14.848,-9.1005
294,-734,12.0439,5.7876,0,0,0,0,0,0,0,-1,1518,1758,12.044,-5.78759
301,-734,10.5291,5.62451,-0.103801,-0.0746048,-0.00126883,-0.0745497,-0.103856,-1.52745,0.0618287,0.0455121,1525,1758,10.5291,-5.62457
308,-734,9.00854,5.43774,-0.110528,-0.0795561,-0.00165777,-0.0794676,-0.110617,-1.51747,0.0658641,0.0449146,1532,1758,9.00857,-5.4377
315,-734,7.50061,5.29468,0,0,0,0,0,0,0,-1,1539,1758,7.50062,-5.29463
322,-734,4.17163,11.5508,0,0,0,0,0,0,0,-1,1546,1758,4.17163,-11.5508
329,-734,5.45972,12.4125,0,0,0,0,0,0,0,-1,1553,1758,5.45969,-12.4125
336,-734,5.92188,13.8751,0,0,0,0,0,0,0,-1,1560,1758,5.92183,-13.8751
343,-734,5.54968,5.14221,0,0,0,0,0,0,0,-1,1567,1758,5.54973,-5.14225
350,-734,5.07397,6.73242,0,0,0,0,0,0,0,-1,1574,1758,5.07402,-6.73243
357,-734,5.05542,7.19189,0,0,0,0,0,0,0,-1,1581,1758,5.05541,-7.19184
364,-734,4.43896,10.4904,0,0,0,0,0,0,0,-1,1588,1758,4.43893,-10.4904
371,-734,7.36975,17.4751,0,0,0,0,0,0,0,-1,1595,1758,7.36972,-17.4752
378,-734,0,0,0,0,0,0,0,0,0,-1,1602,1758,0,0
385,-734,0,0,0,0,0,0,0,0,0,-1,1609,1758,0,0
392,-734,0,0,0,0,0,0,0,0,0,-1,1616,1758,0,0
399,-734,0,0,0,0,0,0,0,0,0,-1,1623,1758,0,0
406,-734,0,0,0,0,0,0,0,0,0,-1,1630,1758,0,0
413,-734,0,0,0,0,0,0,0,0,0,-1,1637,1758,0,0
420,-734,0,0,0,0,0,0,0,0,0,-1,1644,1758,0,0
427,-734,0,0,0,0,0,0,0,0,0,-1,1651,1758,0,0
434,-734,0,0,0,0,0,0,0,0,0,-1,1658,1758,0,0
441,-734,0,0,0,0,0,0,0,0,0,-1,1665,1758,0,0
448,-734,0,0,0,0,0,0,0,0,0,-1,1672,1758,0,0
455,-734,0,0,0,0,0,0,0,0,0,-1,1679,1758,0,0
462,-734,0,0,0,0,0,0,0,0,0,-1,1686,1758,0,0
469,-734,0,0,0,0,0,0,0,0,0,-1,1693,1758,0,0
476,-734,0,0,0,0,0,0,0,0,0,-1,1700,1758,0,0
483,-734,0,0,0,0,0,0,0,0,0,-1,1707,1758,0,0
490,-734,0,0,0,0,0,0,0,0,0,-1,1714,1758,0,0
497,-734,0,0,0,0,0,0,0,0,0,-1,1721,1758,0,0
504,-734,0,0,0,0,0,0,0,0,0,-1,1728,1758,0,0
511,-734,0,0,0,0,0,0,0,0,0,-1,1735,1758,0,0
518,-734,0,0,0,0,0,0,0,0,0,-1,1742,1758,0,0
525,-734,0,0,0,0,0,0,0,0,0,-1,1749,1758,0,0
532,-734,0,0,0,0,0,0,0,0,0,-1,1756,1758,0,0
539,-734,0,0,0,0,0,0,0,0,0,-1,1763,1758,0,0
546,-734,0,0,0,0,0,0,0,0,0,-1,1770,1758,0,0
553,-734,0,0,0,0,0,0,0,0,0,-1,1777,1758,0,0
560,-734,0,0,0,0,0,0,0,0,0,-1,1784,1758,0,0
567,-734,0,0,0,0,0,0,0,0,0,-1,1791,1758,0,0
574,-734,0,0,0,0,0,0,0,0,0,-1,1798,1758,0,0
581,-734,0,0,0,0,0,0,0,0,0,-1,1805,1758,0,0
588,-734,0,0,0,0,0,0,0,0,0,-1,1812,1758,0,0
595,-734,0,0,0,0,0,0,0,0,0,-1,1819,1758,0,0
602,-734,0,0,0,0,0,0,0,0,0,-1,1826,1758,0,0
609,-734,0,0,0,0,0,0,0,0,0,-1,1833,1758,0,0
616,-734,0,0,0,0,0,0,0,0,0,-1,1840,1758,0,0
623,-734,0,0,0,0,0,0,0,0,0,-1,1847,1758,0,0
630,-734,0,0,0,0,0,0,0,0,0,-1,1854,1758,0,0
637,-734,0,0,0,0,0,0,0,0,0,-1,1861,1758,0,0
644,-734,0,0,0,0,0,0,0,0,0,-1,1868,1758,0,0
651,-734,0,0,0,0,0,0,0,0,0,-1,1875,1758,0,0
658,-734,0,0,0,0,0,0,0,0,0,-1,1882,1758,0,0
665,-734,0,0,0,0,0,0,0,0,0,-1,1889,1758,0,0
672,-734,0,0,0,0,0,0,0,0,0,-1,1896,1758,0,0
679,-734,0,0,0,0,0,0,0,0,0,-1,1903,1758,0,0
686,-734,0,0,0,0,0,0,0,0,0,-1,1910,1758,0,0
693,-734,0,0,0,0,0,0,0,0,0,-1,1917,1758,0,0
700,-734,0,0,0,0,0,0,0,0,0,-1,1924,1758,0,0
707,-734,0,0,0,0,0,0,0,0,0,-1,1931,1758,0,0
714,-734,0,0,0,0,0,0,0,0,0,-1,1938,1758,0,0
721,-734,0,0,0,0,0,0,0,0,0,-1,1945,1758,0,0
728,-734,0,0,0,0,0,0,0,0,0,-1,1952,1758,0,0
735,-734,0,0,0,0,0,0,0,0,0,-1,1959,1758,0,0
742,-734,0,0,0,0,0,0,0,0,0,-1,1966,1758,0,0
749,-734,0,0,0,0,0,0,0,0,0,-1,1973,1758,0,0
756,-734,0,0,0,0,0,0,0,0,0,-1,1980,1758,0,0
763,-734,0,0,0,0,0,0,0,0,0,-1,1987,1758,0,0
770,-734,0,0,0,0,0,0,0,0,0,-1,1994,1758,0,0
777,-734,0,0,0,0,0,0,0,0,0,-1,2001,1758,0,0
784,-734,0,0,0,0,0,0,0,0,0,-1,2008,1758,0,0
791,-734,0,0,0,0,0,0,0,0,0,-1,2015,1758,0,0
798,-734,0,0,0,0,0,0,0,0,0,-1,2022,1758,0,0
805,-734,0,0,0,0,0,0,0,0,0,-1,2029,1758,0,0
812,-734,0,0,0,0,0,0,0,0,0,-1,2036,1758,0,0
-700,-741,0,0,0,0,0,0,0,0,0,-1,524,1765,0,0
-693,-741,0,0,0,0,0,0,0,0,0,-1,531,1765,0,0
-686,-741,0,0,0,0,0,0,0,0,0,-1,538,1765,0,0
-679,-741,0,0,0,0,0,0,0,0,0,-1,545,1765,0,0
-672,-741,0,0,0,0,0,0,0,0,0,-1,552,1765,0,0
-665,-741,0,0,0,0,0,0,0,0,0,-1,559,1765,0,0
-658,-741,0,0,0,0,0,0,0,0,0,-1,566,1765,0,0
-651,-741,0,0,0,0,0,0,0,0,0,-1,573,1765,0,0
-644,-741,0,0,0,0,0,0,0,0,0,-1,580,1765,0,0
-637,-741,0,0,0,0,0,0,0,0,0,-1,587,1765,0,0
-630,-741,0,0,0,0,0,0,0,0,0,-1,594,1765,0,0
-623,-741,0,0,0,0,0,0,0,0,0,-1,601,1765,0,0
-616,-741,0,0,0,0,0,0,0,0,0,-1,608,1765,0,0
-609,-741,0,0,0,0,0,0,0,0,0,-1,615,1765,0,0
-602,-741,0,0,0,0,0,0,0,0,0,-1,622,1765,0,0
-595,-741,0,0,0,0,0,0,0,0,0,-1,629,1765,0,0
-588,-741,0,0,0,0,0,0,0,0,0,-1,636,1765,0,0
-581,-741,0,0,0,0,0,0,0,0,0,-1,643,1765,0,0
-574,-741,0,0,0,0,0,0,0,0,0,-1,650,1765,0,0
-567,-741,0,0,0,0,0,0,0,0,0,-1,657,1765,0,0
-560,-741,0,0,0,0,0,0,0,0,0,-1,664,1765,0,0
-553,-741,0,0,0,0,0,0,0,0,0,-1,671,1765,0,0
-546,-741,0,0,0,0,0,0,0,0,0,-1,678,1765,0,0
-539,-741,0,0,0,0,0,0,0,0,0,-1,685,1765,0,0
-532,-741,0,0,0,0,0,0,0,0,0,-1,692,1765,0,0
-525,-741,0,0,0,0,0,0,0,0,0,-1,699,1765,0,0
-518,-741,0,0,0,0,0,0,0,0,0,-1,706,1765,0,0
-511,-741,0,0,0,0,0,0,0,0,0,-1,713,1765,0,0
-504,-741,0,0,0,0,0,0,0,0,0,-1,720,1765,0,0
-497,-741,0,0,0,0,0,0,0,0,0,-1,727,1765,0,0
-490,-741,0,0,0,0,0,0,0,0,0,-1,734,1765,0,0
-483,-741,0,0,0,0,0,0,0,0,0,-1,741,1765,0,0
-476,-741,0,0,0,0,0,0,0,0,0,-1,748,1765,0,0
-469,-741,0,0,0,0,0,0,0,0,0,-1,755,1765,0,0
-462,-741,0,0,0,0,0,0,0,0,0,-1,762,1765,0,0
-455,-741,0,0,0,0,0,0,0,0,0,-1,769,1765,0,0
-448,-741,0,0,0,0,0,0,0,0,0,-1,776,1765,0,0
-441,-741,0,0,0,0,0,0,0,0,0,-1,783,1765,0,0
-434,-741,0,0,0,0,0,0,0,0,0,-1,790,1765,0,0
-427,-741,0,0,0,0,0,0,0,0,0,-1,797,1765,0,0
-420,-741,0,0,0,0,0,0,0,0,0,-1,804,1765,0,0
-413,-741,0,0,0,0,0,0,0,0,0,-1,811,1765,0,0
-406,-741,0,0,0,0,0,0,0,0,0,-1,818,1765,0,0
-399,-741,0,0,0,0,0,0,0,0,0,-1,825,1765,0,0
-392,-741,0,0,0,0,0,0,0,0,0,-1,832,1765,0,0
-385,-741,0,0,0,0,0,0,0,0,0,-1,839,1765,0,0
-378,-741,0,0,0,0,0,0,0,0,0,-1,846,1765,0,0
-371,-741,0,0,0,0,0,0,0,0,0,-1,853,1765,0,0
-364,-741,0,0,0,0,0,0,0,0,0,-1,860,1765,0,0
-357,-741,0,0,0,0,0,0,0,0,0,-1,867,1765,0,0
-350,-741,0,0,0,0,0,0,0,0,0,-1,874,1765,0,0
-343,-741,0,0,0,0,0,0,0,0,0,-1,881,1765,0,0
-336,-741,0,0,0,0,0,0,0,0,0,-1,888,1765,0,0
-329,-741,0,0,0,0,0,0,0,0,0,-1,895,1765,0,0
-322,-741,0,0,0,0,0,0,0,0,0,-1,902,1765,0,0
-315,-741,0,0,0,0,0,0,0,0,0,-1,909,1765,0,0
-308,-741,0,0,0,0,0,0,0,0,0,-1,916,1765,0,0
-301,-741,0,0,0,0,0,0,0,0,0,-1,923,1765,0,0
-294,-741,0,0,0,0,0,0,0,0,0,-1,930,1765,0,0
-287,-741,0,0,0,0,0,0,0,0,0,-1,937,1765,0,0
-280,-741,0,0,0,0,0,0,0,0,0,-1,944,1765,0,0
-273,-741,0,0,0,0,0,0,0,0,0,-1,951,1765,0,0
-266,-741,0,0,0,0,0,0,0,0,0,-1,958,1765,0,0
-259,-741,0,0,0,0,0,0,0,0,0,-1,965,1765,0,0
-252,-741,0,0,0,0,0,0,0,0,0,-1,972,1765,0,0
-245,-741,0,0,0,0,0,0,0,0,0,-1,979,1765,0,0
-238,-741,1.66083,15.1331,0,0,0,0,0,0,0,-1,986,1765,1.66083,-15.1331
-231,-741,7.56659,19.473,0,0,0,0,0,0,0,-1,993,1765,7.56659,-19.473
-224,-741,7.19757,19.045,0,0,0,0,0,0,0,-1,1000,1765,7.19756,-19.0451
-217,-741,6.63574,18.6545,0,0,0,0,0,0,0,-1,1007,1765,6.63577,-18.6545
-210,-741,5.91467,18.6464,0,0,0,0,0,0,0,-1,1014,1765,5.91467,-18.6463
-203,-741,5.79761,18.1439,0,0,0,0,0,0,0,-1,1021,1765,5.79762,-18.1439
-196,-741,5.52917,17.0542,0,0,0,0,0,0,0,-1,1028,1765,5.52916,-17.0542
-189,-741,5.26074,15.9645,0,0,0,0,0,0,0,-1,1035,1765,5.26071,-15.9645
-182,-741,6.32788,16.0284,0,0,0,0,0,0,0,-1,1042,1765,6.32791,-16.0284
-175,-741,5.36108,15.3015,0,0,0,0,0,0,0,-1,1049,1765,5.3611,-15.3015
-168,-741,4.49768,14.7655,0,0,0,0,0,0,0,-1,1056,1765,4.49766,-14.7656
-161,-741,3.73047,14.4974,0,0,0,0,0,0,0,-1,1063,1765,3.73043,-14.4974
-154,-741,2.46143,9.75415,0,0,0,0,0,0,0,-1,1070,1765,2.46145,-9.75416
-147,-741,4.96484,17.5988,0,0,0,0,0,0,0,-1,1077,1765,4.9648,-17.5988
-140,-741,5.25549,18.1417,0,0,0,0,0,0,0,-1,1084,1765,5.25545,-18.1417
-133,-741,4.98279,18.7081,0,0,0,0,0,0,0,-1,1091,1765,4.98278,-18.7082
-126,-741,5.09717,18.2382,0,0,0,0,0,0,0,-1,1098,1765,5.0972,-18.2382
-119,-741,5.25256,18.2823,0,0,0,0,0,0,0,-1,1105,1765,5.25253,-18.2823
-112,-741,5.38403,18.2594,-0.000396051,0.00755678,0.00500733,0.00997452,-0.00281379,1.12097,0.00775958,0.0451631,1112,1765,5.38402,-18.2594
-105,-741,5.36023,18.4122,-0.000742044,0.00675841,0.0035528,0.00817409,-0.00215772,1.19161,0.00629317,0.0399447,1119,1765,5.3602,-18.4122
-98,-741,5.3606,18.5547,-0.00122062,0.00566538,0.0022481,0.00633434,-0.00188958,1.28157,0.00497387,0.0455767,1126,1765,5.36055,-18.5547
-91,-741,5.45837,18.4346,0,0,0,0,0,0,0,-1,1133,1765,5.45838,-18.4345
-84,-741,5.23865,18.5986,0,0,0,0,0,0,0,-1,1140,1765,5.23863,-18.5986
-77,-741,5.229,18.6667,0,0,0,0,0,0,0,-1,1147,1765,5.22905,-18.6667
-70,-741,5.14539,18.8031,0,0,0,0,0,0,0,-1,1154,1765,5.14538,-18.8031
-63,-741,5.12341,18.9995,0,0,0,0,0,0,0,-1,1161,1765,5.1234,-18.9995
-56,-741,5.19934,19.1783,0,0,0,0,0,0,0,-1,1168,1765,5.19934,-19.1784
-49,-741,5.18982,19.3424,0,0,0,0,0,0,0,-1,1175,1765,5.1898,-19.3424
-42,-741,5.17554,19.3877,0,0,0,0,0,0,0,-1,1182,1765,5.17548,-19.3876
-35,-741,5.1759,19.4088,0.00738942,-0.00689165,0.00288352,0.00794966,-0.00745189,0.191899,0.00889363,0.0216923,1189,1765,5.17595,-19.4088
-28,-741,5.17139,19.4976,0.0077861,-0.00692166,0.0028114,0.00830518,-0.00744074,0.182579,0.00909548,0.0132534,1196,1765,5.17134,-19.4976
-21,-741,5.20825,19.556,0.00775617,-0.00661281,0.00270693,0.0082492,-0.00710584,0.180163,0.00887343,0.0169573,1203,1765,5.20819,-19.556
-14,-741,5.15906,19.6234,0.00746701,-0.00632032,0.0025641,0.00792843,-0.00678174,0.178047,0.00850152,0.0177314,1210,1765,5.15902,-19.6234
-7,-741,5.12427,19.6394,0.00679541,-0.00595713,0.00239901,0.00723178,-0.0063935,0.179929,0.00787153,0.0150705,1217,1765,5.12424,-19.6395
0,-741,5.13513,19.6906,0.00593146,-0.00569516,0.0022265,0.00634325,-0.00610695,0.182884,0.00718856,0.0154446,1224,1765,5.13511,-19.6905
7,-741,5.10266,19.7689,0.00499137,-0.00557047,0.00203156,0.00536866,-0.00594776,0.183623,0.00653639,0.0168223,1231,1765,5.10262,-19.769
14,-741,5.099,19.8281,0.00400398,-0.00552816,0.00175362,0.00431635,-0.00584053,0.176282,0.00588605,0.0148964,1238,1765,5.09902,-19.8282
21,-741,5.08264,19.8519,0.00302416,-0.00556119,0.00147433,0.00327028,-0.00580731,0.165415,0.00530874,0.0117586,1245,1765,5.08266,-19.8519
28,-741,5.05603,19.8895,0.00205874,-0.00563889,0.0012125,0.00224522,-0.00582536,0.152595,0.00480994,0.0125054,1252,1765,5.05604,-19.8896
35,-741,5.07104,19.9156,0.00124585,-0.00571825,0.000959329,0.00137559,-0.00584799,0.134419,0.00442897,0.0140549,1259,1765,5.07103,-19.9156
42,-741,5.07751,19.9479,0.000430259,-0.0055663,0.000640785,0.000497968,-0.00563401,0.105275,0.00393252,0.0150669,1266,1765,5.07748,-19.9479
49,-741,5.06873,19.9655,-0.000225334,-0.00555104,0.000335548,-0.000204276,-0.0055721,0.062675,0.00364855,0.0101825,1273,1765,5.06877,-19.9655
56,-741,5.05518,19.9652,-0.000303729,-0.00552418,0.000249937,-0.00029179,-0.00553612,0.047731,0.00359743,0.00964199,1280,1765,5.05512,-19.9652
63,-741,5.07471,19.97,-0.000392686,-0.00540817,0.000330795,-0.000370963,-0.00542989,0.0655762,0.00350283,0.0137307,1287,1765,5.07468,-19.9699
70,-741,5.06165,19.978,-0.000240467,-0.00525347,0.000723148,-0.000138235,-0.0053557,0.140441,0.00352529,0.0159123,1294,1765,5.06158,-19.978
77,-741,5.0365,20.0406,0.000678054,-0.00523167,0.00088348,0.000807304,-0.00536092,0.145266,0.00387121,0.0135733,1301,1765,5.03656,-20.0406
84,-741,5.00769,20.0414,0.00170741,-0.00465858,0.000403149,0.00173284,-0.00468401,0.0629931,0.00383315,0.0165351,1308,1765,5.00768,-20.0414
91,-741,5.00488,20.0254,0.00247235,-0.00420381,0.000316959,0.00248737,-0.00421882,0.0473343,0.0039146,0.0138698,1315,1765,5.00483,-20.0254
98,-741,5.0249,20.0051,0.00343944,-0.00374718,0.000182464,0.00344407,-0.00375181,0.0253677,0.00415581,0.010402,1322,1765,5.02486,-20.0051
105,-741,5.02209,19.9471,0.00431431,-0.00328613,-6.06934e-05,0.00431479,-0.00328661,-0.00798484,0.00440203,0.0111383,1329,1765,5.02208,-19.9472
112,-741,5.03491,19.906,0.00501177,-0.00287842,-0.000417078,0.00503376,-0.00290041,-0.0526647,0.00463566,0.0113629,1336,1765,5.03494,-19.906
119,-741,5.02307,19.8871,0.00556464,-0.00251354,-0.000900445,0.0056638,-0.00261269,-0.109673,0.00488547,0.0138529,1343,1765,5.02304,-19.8871
126,-741,4.99463,19.85,0.00604603,-0.00211251,-0.00152941,0.00632331,-0.0023898,-0.179352,0.00519858,0.0191481,1350,1765,4.99465,-19.85
133,-741,4.97827,19.8552,0.00633538,-0.00161427,-0.00223303,0.00691968,-0.00219857,-0.255926,0.00549461,0.0144768,1357,1765,4.97833,-19.8553
140,-741,4.96924,19.8424,0.00628157,-0.0010529,-0.00291675,0.00730006,-0.0020714,-0.335951,0.0056844,0.0110143,1364,1765,4.96921,-19.8424
147,-741,4.96143,19.8052,0.00603876,-0.000493252,-0.00350732,0.00756526,-0.00201975,-0.410505,0.00583447,0.010092,1371,1765,4.96147,-19.8052
154,-741,4.95715,19.7781,0.00560265,1.7114e-05,-0.00401573,0.00770127,-0.0020815,-0.481563,0.00595063,0.00827407,1378,1765,4.95712,-19.778
161,-741,4.95728,19.7183,0.00484881,0.000348776,-0.004558,0.0076819,-0.00248431,-0.556124,0.00611983,0.0103379,1385,1765,4.95722,-19.7183
168,-741,4.94299,19.6573,0.00412729,0.000843651,-0.0052884,0.00802287,-0.00305193,-0.634887,0.00660525,0.0238396,1392,1765,4.94304,-19.6574
175,-741,4.92468,19.6273,0,0,0,0,0,0,0,-1,1399,1765,4.92474,-19.6273
182,-741,4.92773,19.5139,0,0,0,0,0,0,0,-1,1406,1765,4.92774,-19.5139
189,-741,4.89099,19.4716,0,0,0,0,0,0,0,-1,1413,1765,4.89093,-19.4716
196,-741,4.86328,19.428,0,0,0,0,0,0,0,-1,1420,1765,4.86326,-19.428
203,-741,4.90076,19.3198,0,0,0,0,0,0,0,-1,1427,1765,4.90077,-19.3198
210,-741,4.89648,19.1869,0,0,0,0,0,0,0,-1,1434,1765,4.89644,-19.1869
217,-741,4.88831,19.1069,0.00116211,0.00245681,-0.0164073,0.0182295,-0.0146106,-0.805115,0.0189986,0.031142,1441,1765,4.88831,-19.1069
224,-741,4.97229,19.0402,0.00138751,0.00269996,-0.0179787,0.0200344,-0.015947,-0.80364,0.0208185,0.0260054,1448,1765,4.97231,-19.0402
231,-741,5.05371,19.0081,0.00150367,0.00284957,-0.0190955,0.0212839,-0.0169307,-0.803012,0.0221109,0.0344876,1455,1765,5.05374,-19.008
238,-741,4.81824,18.8997,0.00170957,0.00297267,-0.0197593,0.0221106,-0.0174283,-0.801374,0.0228811,0.0373193,1462,1765,4.81818,-18.8996
245,-741,4.81433,18.7806,0.00195553,0.00323067,-0.0200175,0.0226207,-0.0174345,-0.801318,0.0231904,0.0456494,1469,1765,4.81433,-18.7806
252,-741,4.79272,18.6671,0,0,0,0,0,0,0,-1,1476,1765,4.79274,-18.6671
259,-741,4.96118,18.7388,0,0,0,0,0,0,0,-1,1483,1765,4.96122,-18.7388
266,-741,4.40173,15.2345,0,0,0,0,0,0,0,-1,1490,1765,4.40175,-15.2345
273,-741,17.0328,7.54468,0,0,0,0,0,0,0,-1,1497,1765,17.0328,-7.54474
280,-741,16.2363,9.84546,0,0,0,0,0,0,0,-1,1504,1765,16.2363,-9.84547
287,-741,14.5045,8.71423,0,0,0,0,0,0,0,-1,1511,1765,14.5045,-8.71429
294,-741,12.4823,6.75378,0,0,0,0,0,0,0,-1,1518,1765,12.4823,-6.75384
301,-741,10.7992,6.7207,-0.140468,-0.103376,0.000455287,-0.10337,-0.140473,1.55852,0.0840565,0.0452705,1525,1765,10.7992,-6.72074
308,-741,9.12964,6.65588,-0.148805,-0.109743,0.000186124,-0.109743,-0.148806,1.56603,0.089085,0.0435015,1532,1765,9.12969,-6.65594
315,-741,7.41541,6.69397,0,0,0,0,0,0,0,-1,1539,1765,7.41541,-6.69393
322,-741,3.08521,12.3561,0,0,0,0,0,0,0,-1,1546,1765,3.08526,-12.3561
329,-741,4.46472,13.5316,0,0,0,0,0,0,0,-1,1553,1765,4.46467,-13.5316
336,-741,4.74475,14.6453,0,0,0,0,0,0,0,-1,1560,1765,4.7447,-14.6452
343,-741,5.42297,5.93701,0,0,0,0,0,0,0,-1,1567,1765,5.42296,-5.937
350,-741,4.90369,5.44666,0,0,0,0,0,0,0,-1,1574,1765,4.90368,-5.44664
357,-741,4.02063,5.16626,0,0,0,0,0,0,0,-1,1581,1765,4.02058,-5.1662
364,-741,0,0,0,0,0,0,0,0,0,-1,1588,1765,0,0
371,-741,0,0,0,0,0,0,0,0,0,-1,1595,1765,0,0
378,-741,0,0,0,0,0,0,0,0,0,-1,1602,1765,0,0
385,-741,0,0,0,0,0,0,0,0,0,-1,1609,1765,0,0
392,-741,0,0,0,0,0,0,0,0,0,-1,1616,1765,0,0
399,-741,0,0,0,0,0,0,0,0,0,-1,1623,1765,0,0
406,-741,0,0,0,0,0,0,0,0,0,-1,1630,1765,0,0
413,-741,0,0,0,0,0,0,0,0,0,-1,1637,1765,0,0
420,-741,0,0,0,0,0,0,0,0,0,-1,1644,1765,0,0
427,-741,0,0,0,0,0,0,0,0,0,-1,1651,1765,0,0
434,-741,0,0,0,0,0,0,0,0,0,-1,1658,1765,0,0
441,-741,0,0,0,0,0,0,0,0,0,-1,1665,1765,0,0
448,-741,0,0,0,0,0,0,0,0,0,-1,1672,1765,0,0
455,-741,0,0,0,0,0,0,0,0,0,-1,1679,1765,0,0
462,-741,0,0,0,0,0,0,0,0,0,-1,1686,1765,0,0
469,-741,0,0,0,0,0,0,0,0,0,-1,1693,1765,0,0
476,-741,0,0,0,0,0,0,0,0,0,-1,1700,1765,0,0
483,-741,0,0,0,0,0,0,0,0,0,-1,1707,1765,0,0
490,-741,0,0,0,0,0,0,0,0,0,-1,1714,1765,0,0
497,-741,0,0,0,0,0,0,0,0,0,-1,1721,1765,0,0
504,-741,0,0,0,0,0,0,0,0,0,-1,1728,1765,0,0
511,-741,0,0,0,0,0,0,0,0,0,-1,1735,1765,0,0
518,-741,0,0,0,0,0,0,0,0,0,-1,1742,1765,0,0
525,-741,0,0,0,0,0,0,0,0,0,-1,1749,1765,0,0
532,-741,0,0,0,0,0,0,0,0,0,-1,1756,1765,0,0
539,-741,0,0,0,0,0,0,0,0,0,-1,1763,1765,0,0
546,-741,0,0,0,0,0,0,0,0,0,-1,1770,1765,0,0
553,-741,0,0,0,0,0,0,0,0,0,-1,1777,1765,0,0
560,-741,0,0,0,0,0,0,0,0,0,-1,1784,1765,0,0
567,-741,0,0,0,0,0,0,0,0,0,-1,1791,1765,0,0
574,-741,0,0,0,0,0,0,0,0,0,-1,1798,1765,0,0
581,-741,0,0,0,0,0,0,0,0,0,-1,1805,1765,0,0
588,-741,0,0,0,0,0,0,0,0,0,-1,1812,1765,0,0
595,-741,0,0,0,0,0,0,0,0,0,-1,1819,1765,0,0
602,-741,0,0,0,0,0,0,0,0,0,-1,1826,1765,0,0
609,-741,0,0,0,0,0,0,0,0,0,-1,1833,1765,0,0
616,-741,0,0,0,0,0,0,0,0,0,-1,1840,1765,0,0
623,-741,0,0,0,0,0,0,0,0,0,-1,1847,1765,0,0
630,-741,0,0,0,0,0,0,0,0,0,-1,1854,1765,0,0
637,-741,0,0,0,0,0,0,0,0,0,-1,1861,1765,0,0
644,-741,0,0,0,0,0,0,0,0,0,-1,1868,1765,0,0
651,-741,0,0,0,0,0,0,0,0,0,-1,1875,1765,0,0
658,-741,0,0,0,0,0,0,0,0,0,-1,1882,1765,0,0
665,-741,0,0,0,0,0,0,0,0,0,-1,1889,1765,0,0
672,-741,0,0,0,0,0,0,0,0,0,-1,1896,1765,0,0
679,-741,0,0,0,0,0,0,0,0,0,-1,1903,1765,0,0
686,-741,0,0,0,0,0,0,0,0,0,-1,1910,1765,0,0
693,-741,0,0,0,0,0,0,0,0,0,-1,1917,1765,0,0
700,-741,0,0,0,0,0,0,0,0,0,-1,1924,1765,0,0
707,-741,0,0,0,0,0,0,0,0,0,-1,1931,1765,0,0
714,-741,0,0,0,0,0,0,0,0,0,-1,1938,1765,0,0
721,-741,0,0,0,0,0,0,0,0,0,-1,1945,1765,0,0
728,-741,0,0,0,0,0,0,0,0,0,-1,1952,1765,0,0
735,-741,0,0,0,0,0,0,0,0,0,-1,1959,1765,0,0
742,-741,0,0,0,0,0,0,0,0,0,-1,1966,1765,0,0
749,-741,0,0,0,0,0,0,0,0,0,-1,1973,1765,0,0
756,-741,0,0,0,0,0,0,0,0,0,-1,1980,1765,0,0
763,-741,0,0,0,0,0,0,0,0,0,-1,1987,1765,0,0
770,-741,0,0,0,0,0,0,0,0,0,-1,1994,1765,0,0
777,-741,0,0,0,0,0,0,0,0,0,-1,2001,1765,0,0
784,-741,0,0,0,0,0,0,0,0,0,-1,2008,1765,0,0
791,-741,0,0,0,0,0,0,0,0,0,-1,2015,1765,0,0
798,-741,0,0,0,0,0,0,0,0,0,-1,2022,1765,0,0
805,-741,0,0,0,0,0,0,0,0,0,-1,2029,1765,0,0
812,-741,0,0,0,0,0,0,0,0,0,-1,2036,1765,0,0
-700,-748,0,0,0,0,0,0,0,0,0,-1,524,1772,0,0
-693,-748,0,0,0,0,0,0,0,0,0,-1,531,1772,0,0
-686,-748,0,0,0,0,0,0,0,0,0,-1,538,1772,0,0
-679,-748,0,0,0,0,0,0,0,0,0,-1,545,1772,0,0
-672,-748,0,0,0,0,0,0,0,0,0,-1,552,1772,0,0
-665,-748,0,0,0,0,0,0,0,0,0,-1,559,1772,0,0
-658,-748,0,0,0,0,0,0,0,0,0,-1,566,1772,0,0
-651,-748,0,0,0,0,0,0,0,0,0,-1,573,1772,0,0
-644,-748,0,0,0,0,0,0,0,0,0,-1,580,1772,0,0
-637,-748,0,0,0,0,0,0,0,0,0,-1,587,1772,0,0
-630,-748,0,0,0,0,0,0,0,0,0,-1,594,1772,0,0
-623,-748,0,0,0,0,0,0,0,0,0,-1,601,1772,0,0
-616,-748,0,0,0,0,0,0,0,0,0,-1,608,1772,0,0
-609,-748,0,0,0,0,0,0,0,0,0,-1,615,1772,0,0
-602,-748,0,0,0,0,0,0,0,0,0,-1,622,1772,0,0
-595,-748,0,0,0,0,0,0,0,0,0,-1,629,1772,0,0
-588,-748,0,0,0,0,0,0,0,0,0,-1,636,1772,0,0
-581,-748,0,0,0,0,0,0,0,0,0,-1,643,1772,0,0
-574,-748,0,0,0,0,0,0,0,0,0,-1,650,1772,0,0
-567,-748,0,0,0,0,0,0,0,0,0,-1,657,1772,0,0
-560,-748,0,0,0,0,0,0,0,0,0,-1,664,1772,0,0
-553,-748,0,0,0,0,0,0,0,0,0,-1,671,1772,0,0
-546,-748,0,0,0,0,0,0,0,0,0,-1,678,1772,0,0
-539,-748,0,0,0,0,0,0,0,0,0,-1,685,1772,0,0
-532,-748,0,0,0,0,0,0,0,0,0,-1,692,1772,0,0
-525,-748,0,0,0,0,0,0,0,0,0,-1,699,1772,0,0
-518,-748,0,0,0,0,0,0,0,0,0,-1,706,1772,0,0
-511,-748,0,0,0,0,0,0,0,0,0,-1,713,1772,0,0
-504,-748,0,0,0,0,0,0,0,0,0,-1,720,1772,0,0
-497,-748,0,0,0,0,0,0,0,0,0,-1,727,1772,0,0
-490,-748,0,0,0,0,0,0,0,0,0,-1,734,1772,0,0
-483,-748,0,0,0,0,0,0,0,0,0,-1,741,1772,0,0
-476,-748,0,0,0,0,0,0,0,0,0,-1,748,1772,0,0
-469,-748,0,0,0,0,0,0,0,0,0,-1,755,1772,0,0
-462,-748,0,0,0,0,0,0,0,0,0,-1,762,1772,0,0
-455,-748,0,0,0,0,0,0,0,0,0,-1,769,1772,0,0
-448,-748,0,0,0,0,0,0,0,0,0,-1,776,1772,0,0
-441,-748,0,0,0,0,0,0,0,0,0,-1,783,1772,0,0
-434,-748,0,0,0,0,0,0,0,0,0,-1,790,1772,0,0
-427,-748,0,0,0,0,0,0,0,0,0,-1,797,1772,0,0
-420,-748,0,0,0,0,0,0,0,0,0,-1,804,1772,0,0
-413,-748,0,0,0,0,0,0,0,0,0,-1,811,1772,0,0
-406,-748,0,0,0,0,0,0,0,0,0,-1,818,1772,0,0
-399,-748,0,0,0,0,0,0,0,0,0,-1,825,1772,0,0
-392,-748,0,0,0,0,0,0,0,0,0,-1,832,1772,0,0
-385,-748,0,0,0,0,0,0,0,0,0,-1,839,1772,0,0
-378,-748,0,0,0,0,0,0,0,0,0,-1,846,1772,0,0
-371,-748,0,0,0,0,0,0,0,0,0,-1,853,1772,0,0
-364,-748,0,0,0,0,0,0,0,0,0,-1,860,1772,0,0
-357,-748,0,0,0,0,0,0,0,0,0,-1,867,1772,0,0
-350,-748,0,0,0,0,0,0,0,0,0,-1,874,1772,0,0
-343,-748,0,0,0,0,0,0,0,0,0,-1,881,1772,0,0
-336,-748,0,0,0,0,0,0,0,0,0,-1,888,1772,0,0
-329,-748,0,0,0,0,0,0,0,0,0,-1,895,1772,0,0
-322,-748,0,0,0,0,0,0,0,0,0,-1,902,1772,0,0
-315,-748,0,0,0,0,0,0,0,0,0,-1,909,1772,0,0
-308,-748,0,0,0,0,0,0,0,0,0,-1,916,1772,0,0
-301,-748,0,0,0,0,0,0,0,0,0,-1,923,1772,0,0
-294,-748,0,0,0,0,0,0,0,0,0,-1,930,1772,0,0
-287,-748,0,0,0,0,0,0,0,0,0,-1,937,1772,0,0
-280,-748,0,0,0,0,0,0,0,0,0,-1,944,1772,0,0
-273,-748,0,0,0,0,0,0,0,0,0,-1,951,1772,0,0
-266,-748,0,0,0,0,0,0,0,0,0,-1,958,1772,0,0
-259,-748,0,0,0,0,0,0,0,0,0,-1,965,1772,0,0
-252,-748,0,0,0,0,0,0,0,0,0,-1,972,1772,0,0
-245,-748,0,0,0,0,0,0,0,0,0,-1,979,1772,0,0
-238,-748,0,0,0,0,0,0,0,0,0,-1,986,1772,0,0
-231,-748,0,0,0,0,0,0,0,0,0,-1,993,1772,0,0
-224,-748,0,0,0,0,0,0,0,0,0,-1,1000,1772,0,0
-217,-748,6.91595,18.5476,0,0,0,0,0,0,0,-1,1007,1772,6.91598,-18.5475
-210,-748,6.56482,15.8542,0,0,0,0,0,0,0,-1,1014,1772,6.56483,-15.8542
-203,-748,7.08105,16.2065,0,0,0,0,0,0,0,-1,1021,1772,7.0811,-16.2065
-196,-748,6.21082,17.6426,0,0,0,0,0,0,0,-1,1028,1772,6.21081,-17.6426
-189,-748,7.35205,17.4255,0,0,0,0,0,0,0,-1,1035,1772,7.35202,-17.4255
-182,-748,6.62622,16.2686,0,0,0,0,0,0,0,-1,1042,1772,6.6262,-16.2685
-175,-748,5.27954,14.9248,0,0,0,0,0,0,0,-1,1049,1772,5.27955,-14.9248
-168,-748,4.27917,14.0815,0,0,0,0,0,0,0,-1,1056,1772,4.27923,-14.0815
-161,-748,3.50562,13.2729,0,0,0,0,0,0,0,-1,1063,1772,3.5056,-13.2729
-154,-748,-3.38562,10.6989,0,0,0,0,0,0,0,-1,1070,1772,-3.38564,-10.6989
-147,-748,-6.38733,11.0702,0,0,0,0,0,0,0,-1,1077,1772,-6.38731,-11.0702
-140,-748,5.5824,17.1818,0,0,0,0,0,0,0,-1,1084,1772,5.58238,-17.1818
-133,-748,5.69946,17.6023,0,0,0,0,0,0,0,-1,1091,1772,5.69948,-17.6023
-126,-748,4.76257,18.3298,0,0,0,0,0,0,0,-1,1098,1772,4.76259,-18.3298
-119,-748,5.42957,17.0066,0,0,0,0,0,0,0,-1,1105,1772,5.42962,-17.0065
-112,-748,5.50879,18.2111,0,0,0,0,0,0,0,-1,1112,1772,5.50884,-18.2111
-105,-748,5.53149,18.338,0,0,0,0,0,0,0,-1,1119,1772,5.53152,-18.3381
-98,-748,5.54736,18.4131,0,0,0,0,0,0,0,-1,1126,1772,5.5474,-18.4131
-91,-748,4.85352,15.3033,0,0,0,0,0,0,0,-1,1133,1772,4.85351,-15.3033
-84,-748,-0.192017,7.26196,0,0,0,0,0,0,0,-1,1140,1772,-0.192047,-7.26201
-77,-748,4.42615,13.5537,0,0,0,0,0,0,0,-1,1147,1772,4.4261,-13.5538
-70,-748,4.46191,13.7446,0,0,0,0,0,0,0,-1,1154,1772,4.4619,-13.7446
-63,-748,4.49768,13.9355,0,0,0,0,0,0,0,-1,1161,1772,4.49769,-13.9355
-56,-748,3.05762,7.87817,0,0,0,0,0,0,0,-1,1168,1772,3.05768,-7.87822
-49,-748,3.04102,7.82471,0,0,0,0,0,0,0,-1,1175,1772,3.04096,-7.82468
-42,-748,0.793457,14.9474,0,0,0,0,0,0,0,-1,1182,1772,0.793413,-14.9474
-35,-748,5.28674,19.3551,0,0,0,0,0,0,0,-1,1189,1772,5.28674,-19.3551
-28,-748,5.24426,19.5236,0.0135523,-0.0125651,0.00429964,0.014242,-0.0132547,0.159037,0.0158786,0.0484041,1196,1772,5.24429,-19.5236
-21,-748,5.24268,19.5936,0.0132123,-0.0118287,0.00416789,0.0138878,-0.0125042,0.160673,0.0152444,0.0227755,1203,1772,5.2427,-19.5936
-14,-748,5.19727,19.5978,0.012481,-0.0110756,0.00392435,0.0131176,-0.0117122,0.160808,0.0143431,0.0156287,1210,1772,5.1973,-19.5978
-7,-748,5.18494,19.6306,0.0112612,-0.01019,0.00367836,0.0118745,-0.0108032,0.165191,0.0130978,0.0149848,1217,1772,5.18499,-19.6307
0,-748,5.17761,19.6964,0.00980954,-0.00940427,0.00343133,0.0104039,-0.00999867,0.171525,0.0117802,0.0156197,1224,1772,5.17756,-19.6964
7,-748,5.16309,19.7578,0.00829258,-0.00890467,0.00312991,0.00884451,-0.0094566,0.174546,0.0105681,0.0147742,1231,1772,5.16306,-19.7578
14,-748,5.14502,19.8156,0.00671365,-0.00852142,0.00272146,0.00718519,-0.00899296,0.171565,0.00935988,0.0152711,1238,1772,5.14503,-19.8155
21,-748,5.12842,19.839,0.00519519,-0.00827338,0.00232336,0.00558471,-0.0086629,0.166109,0.00828961,0.0111617,1245,1772,5.1284,-19.8389
28,-748,5.09424,19.8746,0.00374765,-0.00814209,0.00193144,0.00405354,-0.00844797,0.157067,0.00736489,0.0113241,1252,1772,5.09428,-19.8746
35,-748,5.10071,19.9091,0.00253671,-0.00788922,0.00157077,0.00276822,-0.00812073,0.146334,0.00653501,0.0127405,1259,1772,5.10069,-19.9091
42,-748,5.10132,19.9421,0.00134169,-0.00744392,0.0011384,0.0014868,-0.00758904,0.126786,0.00562089,0.0135048,1266,1772,5.10132,-19.9421
49,-748,5.09363,19.9531,0.000390083,-0.00717604,0.000708226,0.000455805,-0.00724176,0.0925338,0.00498672,0.0100333,1273,1772,5.09363,-19.9532
56,-748,5.07495,19.9674,0.0002281,-0.00687501,0.000557113,0.00027153,-0.00691844,0.0777984,0.00470541,0.00982083,1280,1772,5.07492,-19.9675
63,-748,5.07617,19.9615,5.87913e-05,-0.00650342,0.0006491,0.00012238,-0.00656701,0.0976539,0.00441936,0.0117742,1287,1772,5.07623,-19.9616
70,-748,5.07068,19.9622,0.00021978,-0.00611364,0.00118339,0.000433671,-0.00632753,0.178814,0.00437009,0.0134881,1294,1772,5.07073,-19.9622
77,-748,5.06348,19.9865,0.00147234,-0.00597879,0.00135586,0.00171139,-0.00621784,0.174517,0.00481809,0.0121083,1301,1772,5.06346,-19.9864
84,-748,5.01465,20.0129,0.00288682,-0.00512004,0.00061413,0.00293365,-0.00516687,0.0761072,0.00473571,0.0133934,1308,1772,5.01459,-20.0129
91,-748,5.00476,20.0134,0.00394789,-0.00445554,0.000472824,0.00397441,-0.00448207,0.0560298,0.00488528,0.0114901,1315,1772,5.00474,-20.0134
98,-748,4.99219,19.9912,0.00534715,-0.00386755,0.000241118,0.00535345,-0.00387386,0.0261429,0.00535017,0.0104949,1322,1772,4.99214,-19.9912
105,-748,4.98706,19.9338,0.00664489,-0.00337512,-0.000147559,0.00664707,-0.00337729,-0.0147222,0.0058893,0.012234,1329,1772,4.98708,-19.9339
112,-748,5.01892,19.9316,0.00771612,-0.00295485,-0.00067595,0.00775877,-0.0029975,-0.063009,0.00640973,0.0157264,1336,1772,5.01896,-19.9316
119,-748,5.00684,19.9227,0.00865987,-0.00260261,-0.0013999,0.00883127,-0.00277401,-0.121828,0.00699792,0.0136851,1343,1772,5.00686,-19.9228
126,-748,4.99707,19.9075,0.00948354,-0.0022105,-0.00239232,0.00995402,-0.00268099,-0.194185,0.00768712,0.0148885,1350,1772,4.99703,-19.9075
133,-748,4.94287,19.8701,0.0100437,-0.00165328,-0.00354165,0.0110324,-0.00264205,-0.272252,0.00837572,0.00912052,1357,1772,4.94287,-19.8702
140,-748,4.92712,19.853,0.0101273,-0.00116559,-0.00474426,0.0118558,-0.00289413,-0.349395,0.00902463,0.0115601,1364,1772,4.92715,-19.853
147,-748,4.9342,19.8102,0.00997525,-0.000431824,-0.00580947,0.0125709,-0.00302744,-0.420181,0.00955102,0.0127315,1371,1772,4.9342,-19.8102
154,-748,4.89941,19.7699,0.00955517,0.000279757,-0.00670357,0.0130689,-0.00323398,-0.482788,0.00996705,0.011451,1378,1772,4.89936,-19.7699
161,-748,4.89185,19.7356,0.00869921,0.000819188,-0.0076222,0.0133395,-0.00382111,-0.546855,0.0104033,0.0192608,1385,1772,4.89185,-19.7356
168,-748,4.89722,19.7169,0,0,0,0,0,0,0,-1,1392,1772,4.89722,-19.7169
175,-748,11.6235,16.8242,0,0,0,0,0,0,0,-1,1399,1772,11.6236,-16.8242
182,-748,7.62476,10.3058,0,0,0,0,0,0,0,-1,1406,1772,7.62476,-10.3058
189,-748,6.15857,6.95898,0,0,0,0,0,0,0,-1,1413,1772,6.15862,-6.95896
196,-748,3.9425,8.46021,0,0,0,0,0,0,0,-1,1420,1772,3.9425,-8.46026
203,-748,3.9668,12.9835,0,0,0,0,0,0,0,-1,1427,1772,3.96678,-12.9836
210,-748,4.71472,16.8318,0,0,0,0,0,0,0,-1,1434,1772,4.71471,-16.8317
217,-748,4.94812,19.01,0,0,0,0,0,0,0,-1,1441,1772,4.94813,-19.01
224,-748,5.3335,18.7778,0,0,0,0,0,0,0,-1,1448,1772,5.33348,-18.7778
231,-748,5.35559,19.0157,0.00259541,0.00378941,-0.0280055,0.0312042,-0.0248194,-0.796055,0.0324152,0.0440218,1455,1772,5.35558,-19.0158
238,-748,5.3208,18.8324,0.00286199,0.00397788,-0.0289891,0.0324144,-0.0255745,-0.79502,0.0335574,0.0470774,1462,1772,5.32078,-18.8324
245,-748,4.72974,18.8113,0,0,0,0,0,0,0,-1,1469,1772,4.72976,-18.8113
252,-748,4.66162,17.4098,0,0,0,0,0,0,0,-1,1476,1772,4.66163,-17.4098
259,-748,4.37708,14.7086,0,0,0,0,0,0,0,-1,1483,1772,4.37712,-14.7086
266,-748,17.9011,7.59448,0,0,0,0,0,0,0,-1,1490,1772,17.9011,-7.59452
273,-748,16.4131,7.57129,0,0,0,0,0,0,0,-1,1497,1772,16.413,-7.57125
280,-748,15.2177,7.24829,0,0,0,0,0,0,0,-1,1504,1772,15.2176,-7.24833
287,-748,14.161,8.32813,0,0,0,0,0,0,0,-1,1511,1772,14.161,-8.32808
294,-748,12.5262,7.21912,0,0,0,0,0,0,0,-1,1518,1772,12.5262,-7.21909
301,-748,11.23,7.83813,-0.181774,-0.136503,0.0035175,-0.136232,-0.182045,1.49371,0.10934,0.0487285,1525,1772,11.2299,-7.83808
308,-748,9.55615,8.18542,-0.191427,-0.144115,0.00335591,-0.143878,-0.191664,1.50033,0.1152,0.0449718,1532,1772,9.55615,-8.18545
315,-748,7.17224,8.47668,0,0,0,0,0,0,0,-1,1539,1772,7.17226,-8.47672
322,-748,4.79346,8.7218,0,0,0,0,0,0,0,-1,1546,1772,4.79347,-8.72175
329,-748,3.48315,14.6533,0,0,0,0,0,0,0,-1,1553,1772,3.48316,-14.6534
336,-748,3.76001,15.8163,0,0,0,0,0,0,0,-1,1560,1772,3.75995,-15.8163
343,-748,0,0,0,0,0,0,0,0,0,-1,1567,1772,0,0
350,-748,0,0,0,0,0,0,0,0,0,-1,1574,1772,0,0
357,-748,0,0,0,0,0,0,0,0,0,-1,1581,1772,0,0
364,-748,0,0,0,0,0,0,0,0,0,-1,1588,1772,0,0
371,-748,0,0,0,0,0,0,0,0,0,-1,1595,1772,0,0
378,-748,0,0,0,0,0,0,0,0,0,-1,1602,1772,0,0
385,-748,0,0,0,0,0,0,0,0,0,-1,1609,1772,0,0
392,-748,0,0,0,0,0,0,0,0,0,-1,1616,1772,0,0
399,-748,0,0,0,0,0,0,0,0,0,-1,1623,1772,0,0
406,-748,0,0,0,0,0,0,0,0,0,-1,1630,1772,0,0
413,-748,0,0,0,0,0,0,0,0,0,-1,1637,1772,0,0
420,-748,0,0,0,0,0,0,0,0,0,-1,1644,1772,0,0
427,-748,0,0,0,0,0,0,0,0,0,-1,1651,1772,0,0
434,-748,0,0,0,0,0,0,0,0,0,-1,1658,1772,0,0
441,-748,0,0,0,0,0,0,0,0,0,-1,1665,1772,0,0
448,-748,0,0,0,0,0,0,0,0,0,-1,1672,1772,0,0
455,-748,0,0,0,0,0,0,0,0,0,-1,1679,1772,0,0
462,-748,0,0,0,0,0,0,0,0,0,-1,1686,1772,0,0
469,-748,0,0,0,0,0,0,0,0,0,-1,1693,1772,0,0
476,-748,0,0,0,0,0,0,0,0,0,-1,1700,1772,0,0
483,-748,0,0,0,0,0,0,0,0,0,-1,1707,1772,0,0
490,-748,0,0,0,0,0,0,0,0,0,-1,1714,1772,0,0
497,-748,0,0,0,0,0,0,0,0,0,-1,1721,1772,0,0
504,-748,0,0,0,0,0,0,0,0,0,-1,1728,1772,0,0
511,-748,0,0,0,0,0,0,0,0,0,-1,1735,1772,0,0
518,-748,0,0,0,0,0,0,0,0,0,-1,1742,1772,0,0
525,-748,0,0,0,0,0,0,0,0,0,-1,1749,1772,0,0
532,-748,0,0,0,0,0,0,0,0,0,-1,1756,1772,0,0
539,-748,0,0,0,0,0,0,0,0,0,-1,1763,1772,0,0
546,-748,0,0,0,0,0,0,0,0,0,-1,1770,1772,0,0
553,-748,0,0,0,0,0,0,0,0,0,-1,1777,1772,0,0
560,-748,0,0,0,0,0,0,0,0,0,-1,1784,1772,0,0
567,-748,0,0,0,0,0,0,0,0,0,-1,1791,1772,0,0
574,-748,0,0,0,0,0,0,0,0,0,-1,1798,1772,0,0
581,-748,0,0,0,0,0,0,0,0,0,-1,1805,1772,0,0
588,-748,0,0,0,0,0,0,0,0,0,-1,1812,1772,0,0
595,-748,0,0,0,0,0,0,0,0,0,-1,1819,1772,0,0
602,-748,0,0,0,0,0,0,0,0,0,-1,1826,1772,0,0
609,-748,0,0,0,0,0,0,0,0,0,-1,1833,1772,0,0
616,-748,0,0,0,0,0,0,0,0,0,-1,1840,1772,0,0
623,-748,0,0,0,0,0,0,0,0,0,-1,1847,1772,0,0
630,-748,0,0,0,0,0,0,0,0,0,-1,1854,1772,0,0
637,-748,0,0,0,0,0,0,0,0,0,-1,1861,1772,0,0
644,-748,0,0,0,0,0,0,0,0,0,-1,1868,1772,0,0
651,-748,0,0,0,0,0,0,0,0,0,-1,1875,1772,0,0
658,-748,0,0,0,0,0,0,0,0,0,-1,1882,1772,0,0
665,-748,0,0,0,0,0,0,0,0,0,-1,1889,1772,0,0
672,-748,0,0,0,0,0,0,0,0,0,-1,1896,1772,0,0
679,-748,0,0,0,0,0,0,0,0,0,-1,1903,1772,0,0
686,-748,0,0,0,0,0,0,0,0,0,-1,1910,1772,0,0
693,-748,0,0,0,0,0,0,0,0,0,-1,1917,1772,0,0
700,-748,0,0,0,0,0,0,0,0,0,-1,1924,1772,0,0
707,-748,0,0,0,0,0,0,0,0,0,-1,1931,1772,0,0
714,-748,0,0,0,0,0,0,0,0,0,-1,1938,1772,0,0
721,-748,0,0,0,0,0,0,0,0,0,-1,1945,1772,0,0
728,-748,0,0,0,0,0,0,0,0,0,-1,1952,1772,0,0
735,-748,0,0,0,0,0,0,0,0,0,-1,1959,1772,0,0
742,-748,0,0,0,0,0,0,0,0,0,-1,1966,1772,0,0
749,-748,0,0,0,0,0,0,0,0,0,-1,1973,1772,0,0
756,-748,0,0,0,0,0,0,0,0,0,-1,1980,1772,0,0
763,-748,0,0,0,0,0,0,0,0,0,-1,1987,1772,0,0
770,-748,0,0,0,0,0,0,0,0,0,-1,1994,1772,0,0
777,-748,0,0,0,0,0,0,0,0,0,-1,2001,1772,0,0
784,-748,0,0,0,0,0,0,0,0,0,-1,2008,1772,0,0
791,-748,0,0,0,0,0,0,0,0,0,-1,2015,1772,0,0
798,-748,0,0,0,0,0,0,0,0,0,-1,2022,1772,0,0
805,-748,0,0,0,0,0,0,0,0,0,-1,2029,1772,0,0
812,-748,0,0,0,0,0,0,0,0,0,-1,2036,1772,0,0
-700,-755,0,0,0,0,0,0,0,0,0,-1,524,1779,0,0
-693,-755,0,0,0,0,0,0,0,0,0,-1,531,1779,0,0
-686,-755,0,0,0,0,0,0,0,0,0,-1,538,1779,0,0
-679,-755,0,0,0,0,0,0,0,0,0,-1,545,1779,0,0
-672,-755,0,0,0,0,0,0,0,0,0,-1,552,1779,0,0
-665,-755,0,0,0,0,0,0,0,0,0,-1,559,1779,0,0
-658,-755,0,0,0,0,0,0,0,0,0,-1,566,1779,0,0
-651,-755,0,0,0,0,0,0,0,0,0,-1,573,1779,0,0
-644,-755,0,0,0,0,0,0,0,0,0,-1,580,1779,0,0
-637,-755,0,0,0,0,0,0,0,0,0,-1,587,1779,0,0
-630,-755,0,0,0,0,0,0,0,0,0,-1,594,1779,0,0
-623,-755,0,0,0,0,0,0,0,0,0,-1,601,1779,0,0
-616,-755,0,0,0,0,0,0,0,0,0,-1,608,1779,0,0
-609,-755,0,0,0,0,0,0,0,0,0,-1,615,1779,0,0
-602,-755,0,0,0,0,0,0,0,0,0,-1,622,1779,0,0
-595,-755,0,0,0,0,0,0,0,0,0,-1,629,1779,0,0
-588,-755,0,0,0,0,0,0,0,0,0,-1,636,1779,0,0
-581,-755,0,0,0,0,0,0,0,0,0,-1,643,1779,0,0
-574,-755,0,0,0,0,0,0,0,0,0,-1,650,1779,0,0
-567,-755,0,0,0,0,0,0,0,0,0,-1,657,1779,0,0
-560,-755,0,0,0,0,0,0,0,0,0,-1,664,1779,0,0
-553,-755,0,0,0,0,0,0,0,0,0,-1,671,1779,0,0
-546,-755,0,0,0,0,0,0,0,0,0,-1,678,1779,0,0
-539,-755,0,0,0,0,0,0,0,0,0,-1,685,1779,0,0
-532,-755,0,0,0,0,0,0,0,0,0,-1,692,1779,0,0
-525,-755,0,0,0,0,0,0,0,0,0,-1,699,1779,0,0
-518,-755,0,0,0,0,0,0,0,0,0,-1,706,1779,0,0
-511,-755,0,0,0,0,0,0,0,0,0,-1,713,1779,0,0
-504,-755,0,0,0,0,0,0,0,0,0,-1,720,1779,0,0
-497,-755,0,0,0,0,0,0,0,0,0,-1,727,1779,0,0
-490,-755,0,0,0,0,0,0,0,0,0,-1,734,1779,0,0
-483,-755,0,0,0,0,0,0,0,0,0,-1,741,1779,0,0
-476,-755,0,0,0,0,0,0,0,0,0,-1,748,1779,0,0
-469,-755,0,0,0,0,0,0,0,0,0,-1,755,1779,0,0
-462,-755,0,0,0,0,0,0,0,0,0,-1,762,1779,0,0
-455,-755,0,0,0,0,0,0,0,0,0,-1,769,1779,0,0
-448,-755,0,0,0,0,0,0,0,0,0,-1,776,1779,0,0
-441,-755,0,0,0,0,0,0,0,0,0,-1,783,1779,0,0
-434,-755,0,0,0,0,0,0,0,0,0,-1,790,1779,0,0
-427,-755,0,0,0,0,0,0,0,0,0,-1,797,1779,0,0
-420,-755,0,0,0,0,0,0,0,0,0,-1,804,1779,0,0
-413,-755,0,0,0,0,0,0,0,0,0,-1,811,1779,0,0
-406,-755,0,0,0,0,0,0,0,0,0,-1,818,1779,0,0
-399,-755,0,0,0,0,0,0,0,0,0,-1,825,1779,0,0
-392,-755,0,0,0,0,0,0,0,0,0,-1,832,1779,0,0
-385,-755,0,0,0,0,0,0,0,0,0,-1,839,1779,0,0
-378,-755,0,0,0,0,0,0,0,0,0,-1,846,1779,0,0
-371,-755,0,0,0,0,0,0,0,0,0,-1,853,1779,0,0
-364,-755,0,0,0,0,0,0,0,0,0,-1,860,1779,0,0
-357,-755,0,0,0,0,0,0,0,0,0,-1,867,1779,0,0
-350,-755,0,0,0,0,0,0,0,0,0,-1,874,1779,0,0
-343,-755,0,0,0,0,0,0,0,0,0,-1,881,1779,0,0
-336,-755,0,0,0,0,0,0,0,0,0,-1,888,1779,0,0
-329,-755,0,0,0,0,0,0,0,0,0,-1,895,1779,0,0
-322,-755,0,0,0,0,0,0,0,0,0,-1,902,1779,0,0
-315,-755,0,0,0,0,0,0,0,0,0,-1,909,1779,0,0
-308,-755,0,0,0,0,0,0,0,0,0,-1,916,1779,0,0
-301,-755,0,0,0,0,0,0,0,0,0,-1,923,1779,0,0
-294,-755,0,0,0,0,0,0,0,0,0,-1,930,1779,0,0
-287,-755,0,0,0,0,0,0,0,0,0,-1,937,1779,0,0
-280,-755,0,0,0,0,0,0,0,0,0,-1,944,1779,0,0
-273,-755,0,0,0,0,0,0,0,0,0,-1,951,1779,0,0
-266,-755,0,0,0,0,0,0,0,0,0,-1,958,1779,0,0
-259,-755,0,0,0,0,0,0,0,0,0,-1,965,1779,0,0
-252,-755,0,0,0,0,0,0,0,0,0,-1,972,1779,0,0
-245,-755,0,0,0,0,0,0,0,0,0,-1,979,1779,0,0
-238,-755,0,0,0,0,0,0,0,0,0,-1,986,1779,0,0
-231,-755,0,0,0,0,0,0,0,0,0,-1,993,1779,0,0
-224,-755,0,0,0,0,0,0,0,0,0,-1,1000,1779,0,0
-217,-755,0,0,0,0,0,0,0,0,0,-1,1007,1779,0,0
-210,-755,0,0,0,0,0,0,0,0,0,-1,1014,1779,0,0
-203,-755,-3.07153,13.8969,0,0,0,0,0,0,0,-1,1021,1779,-3.07152,-13.8969
-196,-755,4.91333,14.9064,0,0,0,0,0,0,0,-1,1028,1779,4.91327,-14.9063
-189,-755,4.85864,12.9271,0,0,0,0,0,0,0,-1,1035,1779,4.85866,-12.9272
-182,-755,0.733154,13.2736,0,0,0,0,0,0,0,-1,1042,1779,0.733112,-13.2735
-175,-755,5.40198,14.8074,0,0,0,0,0,0,0,-1,1049,1779,5.40199,-14.8074
-168,-755,4.5177,13.7404,0,0,0,0,0,0,0,-1,1056,1779,4.5177,-13.7403
-161,-755,-2.85889,11.5868,0,0,0,0,0,0,0,-1,1063,1779,-2.85887,-11.5868
-154,-755,-5.39026,8.51416,0,0,0,0,0,0,0,-1,1070,1779,-5.3903,-8.51417
-147,-755,-6.45593,10.2422,0,0,0,0,0,0,0,-1,1077,1779,-6.45594,-10.2422
-140,-755,-7.52161,11.9702,0,0,0,0,0,0,0,-1,1084,1779,-7.52159,-11.9702
-133,-755,5.20081,16.4813,0,0,0,0,0,0,0,-1,1091,1779,5.20086,-16.4814
-126,-755,5.44031,16.7444,0,0,0,0,0,0,0,-1,1098,1779,5.44026,-16.7444
-119,-755,5.57678,16.7888,0,0,0,0,0,0,0,-1,1105,1779,5.57683,-16.7889
-112,-755,5.5083,16.6654,0,0,0,0,0,0,0,-1,1112,1779,5.50825,-16.6654
-105,-755,6.00085,18.864,0,0,0,0,0,0,0,-1,1119,1779,6.00081,-18.8641
-98,-755,4.26819,14.9769,0,0,0,0,0,0,0,-1,1126,1779,4.26815,-14.9769
-91,-755,3.91394,13.0228,0,0,0,0,0,0,0,-1,1133,1779,3.91399,-13.0228
-84,-755,0.169312,8.66443,0,0,0,0,0,0,0,-1,1140,1779,0.16932,-8.66446
-77,-755,-0.0491943,6.87439,0,0,0,0,0,0,0,-1,1147,1779,-0.0491385,-6.87443
-70,-755,4.5686,13.2169,0,0,0,0,0,0,0,-1,1154,1779,4.56865,-13.2169
-63,-755,-1.36316,7.3147,0,0,0,0,0,0,0,-1,1161,1779,-1.36312,-7.31473
-56,-755,0.0483398,5.06079,0,0,0,0,0,0,0,-1,1168,1779,0.0483138,-5.06084
-49,-755,-1.32263,5.33716,0,0,0,0,0,0,0,-1,1175,1779,-1.32264,-5.33718
-42,-755,-2.03613,4.01672,0,0,0,0,0,0,0,-1,1182,1779,-2.0361,-4.01671
-35,-755,-2.72498,2.37476,0,0,0,0,0,0,0,-1,1189,1779,-2.72502,-2.37473
-28,-755,5.20044,19.5908,0,0,0,0,0,0,0,-1,1196,1779,5.2004,-19.5908
-21,-755,5.21326,19.6947,0,0,0,0,0,0,0,-1,1203,1779,5.21325,-19.6947
-14,-755,5.25122,19.578,0.0196079,-0.0174845,0.00565962,0.0204522,-0.0183289,0.148093,0.0224014,0.0324956,1210,1779,5.25118,-19.578
-7,-755,5.20544,19.6228,0.0176301,-0.0158331,0.00531785,0.0184549,-0.0166579,0.153868,0.0202812,0.0224859,1217,1779,5.2054,-19.6228
0,-755,5.2113,19.6783,0.0153795,-0.0142433,0.00496887,0.0161907,-0.0150545,0.161839,0.0180434,0.0141566,1224,1779,5.21126,-19.6783
7,-755,5.21277,19.7264,0.0130423,-0.0131875,0.00455033,0.0138092,-0.0139544,0.166982,0.0160294,0.012405,1231,1779,5.21276,-19.7264
14,-755,5.18994,19.7804,0.0106236,-0.012346,0.00400387,0.0113015,-0.0130239,0.167724,0.014056,0.0111622,1238,1779,5.18992,-19.7804
21,-755,5.1521,19.8369,0.00833008,-0.0117395,0.00347174,0.00891367,-0.0123231,0.16654,0.0123136,0.0153501,1245,1779,5.15214,-19.837
28,-755,5.12708,19.8677,0.00618255,-0.0113558,0.00293672,0.00666123,-0.0118345,0.161576,0.0108169,0.0176566,1252,1779,5.12708,-19.8677
35,-755,5.15112,19.9268,0.00437341,-0.0108146,0.00244966,0.00475874,-0.0111999,0.15602,0.00946057,0.0186697,1259,1779,5.15113,-19.9267
42,-755,5.13281,19.9449,0.00263558,-0.0100656,0.00187735,0.00290726,-0.0103373,0.143717,0.0080378,0.0141236,1266,1779,5.13276,-19.945
49,-755,5.11792,19.9406,0.00126217,-0.00956799,0.00128926,0.00141353,-0.00971936,0.116868,0.0069985,0.00918143,1273,1779,5.11792,-19.9405
56,-755,5.0896,19.9642,0.000966693,-0.00903053,0.00106029,0.00107791,-0.00914175,0.104509,0.00648374,0.0083922,1280,1779,5.08963,-19.9642
63,-755,5.08435,19.964,0.000685624,-0.00844093,0.0011976,0.000840158,-0.00859547,0.128327,0.00602991,0.00888279,1287,1779,5.08436,-19.964
70,-755,5.08484,19.9617,0.000854913,-0.00788035,0.00195208,0.0012713,-0.00829674,0.210154,0.00599999,0.0113499,1294,1779,5.08488,-19.9617
77,-755,5.06787,19.9602,0.00258175,-0.00765182,0.00216152,0.00301957,-0.00808964,0.199849,0.00663283,0.0101358,1301,1779,5.06782,-19.9602
84,-755,5.04956,19.9645,0.00457605,-0.00645132,0.00108232,0.00468127,-0.00655654,0.0969163,0.0065182,0.0102339,1308,1779,5.04955,-19.9644
91,-755,5.01099,19.9653,0.00605403,-0.00547305,0.000850899,0.0061165,-0.00553552,0.0732879,0.00673009,0.0108974,1315,1779,5.011,-19.9653
98,-755,4.96838,19.9629,0.00805086,-0.00466718,0.000496249,0.00807019,-0.00468651,0.0389404,0.00745095,0.0119897,1322,1779,4.96844,-19.9629
105,-755,5.00867,19.9657,0.00995657,-0.00407874,-7.35737e-05,0.00995696,-0.00407912,-0.00524185,0.00833722,0.0157746,1329,1779,5.00865,-19.9657
112,-755,5.0177,19.9501,0.011602,-0.0035115,-0.000840913,0.0116486,-0.00355814,-0.055412,0.00918448,0.0222426,1336,1779,5.01775,-19.95
119,-755,4.96472,19.9309,0.0131221,-0.00301855,-0.00191663,0.0133465,-0.00324302,-0.116586,0.0101528,0.0216448,1343,1779,4.96471,-19.9309
126,-755,4.90271,19.9606,0.0144555,-0.00245869,-0.00344821,0.0151315,-0.00313465,-0.193576,0.0112787,0.0222293,1350,1779,4.90275,-19.9606
133,-755,4.84961,19.8927,0.0154143,-0.00163293,-0.00528408,0.0169193,-0.00313795,-0.277474,0.012458,0.0236509,1357,1779,4.84962,-19.8927
140,-755,4.84436,19.8799,0.015716,-0.000934008,-0.00729641,0.0184609,-0.00367893,-0.359824,0.0136993,0.0293033,1364,1779,4.8444,-19.8799
147,-755,4.9137,19.8494,0.0157071,0.000202913,-0.0091391,0.0199391,-0.00402906,-0.433664,0.0148195,0.0293867,1371,1779,4.91372,-19.8493
154,-755,4.8905,19.8175,0.0153696,0.0013023,-0.0107124,0.0211511,-0.00447919,-0.494901,0.0158068,0.0327975,1378,1779,4.89053,-19.8175
161,-755,4.79675,19.7994,0,0,0,0,0,0,0,-1,1385,1779,4.79678,-19.7995
168,-755,3.98181,7.35901,0,0,0,0,0,0,0,-1,1392,1779,3.98184,-7.35904
175,-755,8.17065,1.34363,0,0,0,0,0,0,0,-1,1399,1779,8.1706,-1.34368
182,-755,8.09216,2.96924,0,0,0,0,0,0,0,-1,1406,1779,8.09213,-2.9693
189,-755,8.04419,4.68042,0,0,0,0,0,0,0,-1,1413,1779,8.04419,-4.68046
196,-755,7.74841,7.4541,0,0,0,0,0,0,0,-1,1420,1779,7.74842,-7.45405
203,-755,4.80554,6.88696,0,0,0,0,0,0,0,-1,1427,1779,4.80554,-6.88697
210,-755,25.1694,7.35693,0,0,0,0,0,0,0,-1,1434,1779,25.1694,-7.35688
217,-755,5.01648,16.411,0,0,0,0,0,0,0,-1,1441,1779,5.01646,-16.411
224,-755,5.64783,19.2095,0,0,0,0,0,0,0,-1,1448,1779,5.64783,-19.2095
231,-755,5.89502,19.1318,0.00436728,0.00485033,-0.0407367,0.0453463,-0.0361287,-0.788363,0.0471398,0.0478443,1455,1779,5.89508,-19.1319
238,-755,6.00293,18.6532,0.00467307,0.00514081,-0.0420628,0.0469704,-0.0371565,-0.788178,0.0486808,0.0441192,1462,1779,6.0029,-18.6532
245,-755,6.07178,17.4039,0,0,0,0,0,0,0,-1,1469,1779,6.07181,-17.4039
252,-755,3.42957,12.0458,0,0,0,0,0,0,0,-1,1476,1779,3.42961,-12.0458
259,-755,18.481,8.25134,0,0,0,0,0,0,0,-1,1483,1779,18.4809,-8.25139
266,-755,17.255,7.86096,0,0,0,0,0,0,0,-1,1490,1779,17.255,-7.86092
273,-755,15.7932,7.59778,0,0,0,0,0,0,0,-1,1497,1779,15.7932,-7.59777
280,-755,14.6255,7.34802,0,0,0,0,0,0,0,-1,1504,1779,14.6254,-7.34806
287,-755,13.1736,7.34705,0,0,0,0,0,0,0,-1,1511,1779,13.1736,-7.34709
294,-755,12.9796,7.521,0,0,0,0,0,0,0,-1,1518,1779,12.9797,-7.52101
301,-755,11.6908,8.55408,-0.226089,-0.172876,0.00854519,-0.171537,-0.227428,1.41542,0.136847,0.0476083,1525,1779,11.6908,-8.5541
308,-755,10.1521,9.81482,-0.236896,-0.181624,0.00835226,-0.18039,-0.23813,1.42405,0.143434,0.0480555,1532,1779,10.1521,-9.81483
315,-755,7.73438,10.0964,0,0,0,0,0,0,0,-1,1539,1779,7.73435,-10.0964
322,-755,0,0,0,0,0,0,0,0,0,-1,1546,1779,0,0
329,-755,0,0,0,0,0,0,0,0,0,-1,1553,1779,0,0
336,-755,0,0,0,0,0,0,0,0,0,-1,1560,1779,0,0
343,-755,0,0,0,0,0,0,0,0,0,-1,1567,1779,0,0
350,-755,0,0,0,0,0,0,0,0,0,-1,1574,1779,0,0
357,-755,0,0,0,0,0,0,0,0,0,-1,1581,1779,0,0
364,-755,0,0,0,0,0,0,0,0,0,-1,1588,1779,0,0
371,-755,0,0,0,0,0,0,0,0,0,-1,1595,1779,0,0
378,-755,0,0,0,0,0,0,0,0,0,-1,1602,1779,0,0
385,-755,0,0,0,0,0,0,0,0,0,-1,1609,1779,0,0
392,-755,0,0,0,0,0,0,0,0,0,-1,1616,1779,0,0
399,-755,0,0,0,0,0,0,0,0,0,-1,1623,1779,0,0
406,-755,0,0,0,0,0,0,0,0,0,-1,1630,1779,0,0
413,-755,0,0,0,0,0,0,0,0,0,-1,1637,1779,0,0
420,-755,0,0,0,0,0,0,0,0,0,-1,1644,1779,0,0
427,-755,0,0,0,0,0,0,0,0,0,-1,1651,1779,0,0
434,-755,0,0,0,0,0,0,0,0,0,-1,1658,1779,0,0
441,-755,0,0,0,0,0,0,0,0,0,-1,1665,1779,0,0
448,-755,0,0,0,0,0,0,0,0,0,-1,1672,1779,0,0
455,-755,0,0,0,0,0,0,0,0,0,-1,1679,1779,0,0
462,-755,0,0,0,0,0,0,0,0,0,-1,1686,1779,0,0
469,-755,0,0,0,0,0,0,0,0,0,-1,1693,1779,0,0
476,-755,0,0,0,0,0,0,0,0,0,-1,1700,1779,0,0
483,-755,0,0,0,0,0,0,0,0,0,-1,1707,1779,0,0
490,-755,0,0,0,0,0,0,0,0,0,-1,1714,1779,0,0
497,-755,0,0,0,0,0,0,0,0,0,-1,1721,1779,0,0
504,-755,0,0,0,0,0,0,0,0,0,-1,1728,1779,0,0
511,-755,0,0,0,0,0,0,0,0,0,-1,1735,1779,0,0
518,-755,0,0,0,0,0,0,0,0,0,-1,1742,1779,0,0
525,-755,0,0,0,0,0,0,0,0,0,-1,1749,1779,0,0
532,-755,0,0,0,0,0,0,0,0,0,-1,1756,1779,0,0
539,-755,0,0,0,0,0,0,0,0,0,-1,1763,1779,0,0
546,-755,0,0,0,0,0,0,0,0,0,-1,1770,1779,0,0
553,-755,0,0,0,0,0,0,0,0,0,-1,1777,1779,0,0
560,-755,0,0,0,0,0,0,0,0,0,-1,1784,1779,0,0
567,-755,0,0,0,0,0,0,0,0,0,-1,1791,1779,0,0
574,-755,0,0,0,0,0,0,0,0,0,-1,1798,1779,0,0
581,-755,0,0,0,0,0,0,0,0,0,-1,1805,1779,0,0
588,-755,0,0,0,0,0,0,0,0,0,-1,1812,1779,0,0
595,-755,0,0,0,0,0,0,0,0,0,-1,1819,1779,0,0
602,-755,0,0,0,0,0,0,0,0,0,-1,1826,1779,0,0
609,-755,0,0,0,0,0,0,0,0,0,-1,1833,1779,0,0
616,-755,0,0,0,0,0,0,0,0,0,-1,1840,1779,0,0
623,-755,0,0,0,0,0,0,0,0,0,-1,1847,1779,0,0
630,-755,0,0,0,0,0,0,0,0,0,-1,1854,1779,0,0
637,-755,0,0,0,0,0,0,0,0,0,-1,1861,1779,0,0
644,-755,0,0,0,0,0,0,0,0,0,-1,1868,1779,0,0
651,-755,0,0,0,0,0,0,0,0,0,-1,1875,1779,0,0
658,-755,0,0,0,0,0,0,0,0,0,-1,1882,1779,0,0
665,-755,0,0,0,0,0,0,0,0,0,-1,1889,1779,0,0
672,-755,0,0,0,0,0,0,0,0,0,-1,1896,1779,0,0
679,-755,0,0,0,0,0,0,0,0,0,-1,1903,1779,0,0
686,-755,0,0,0,0,0,0,0,0,0,-1,1910,1779,0,0
693,-755,0,0,0,0,0,0,0,0,0,-1,1917,1779,0,0
700,-755,0,0,0,0,0,0,0,0,0,-1,1924,1779,0,0
707,-755,0,0,0,0,0,0,0,0,0,-1,1931,1779,0,0
714,-755,0,0,0,0,0,0,0,0,0,-1,1938,1779,0,0
721,-755,0,0,0,0,0,0,0,0,0,-1,1945,1779,0,0
728,-755,0,0,0,0,0,0,0,0,0,-1,1952,1779,0,0
735,-755,0,0,0,0,0,0,0,0,0,-1,1959,1779,0,0
742,-755,0,0,0,0,0,0,0,0,0,-1,1966,1779,0,0
749,-755,0,0,0,0,0,0,0,0,0,-1,1973,1779,0,0
756,-755,0,0,0,0,0,0,0,0,0,-1,1980,1779,0,0
763,-755,0,0,0,0,0,0,0,0,0,-1,1987,1779,0,0
770,-755,0,0,0,0,0,0,0,0,0,-1,1994,1779,0,0
777,-755,0,0,0,0,0,0,0,0,0,-1,2001,1779,0,0
784,-755,0,0,0,0,0,0,0,0,0,-1,2008,1779,0,0
791,-755,0,0,0,0,0,0,0,0,0,-1,2015,1779,0,0
798,-755,0,0,0,0,0,0,0,0,0,-1,2022,1779,0,0
805,-755,0,0,0,0,0,0,0,0,0,-1,2029,1779,0,0
812,-755,0,0,0,0,0,0,0,0,0,-1,2036,1779,0,0
-700,-762,0,0,0,0,0,0,0,0,0,-1,524,1786,0,0
-693,-762,0,0,0,0,0,0,0,0,0,-1,531,1786,0,0
-686,-762,0,0,0,0,0,0,0,0,0,-1,538,1786,0,0
-679,-762,0,0,0,0,0,0,0,0,0,-1,545,1786,0,0
-672,-762,0,0,0,0,0,0,0,0,0,-1,552,1786,0,0
-665,-762,0,0,0,0,0,0,0,0,0,-1,559,1786,0,0
-658,-762,0,0,0,0,0,0,0,0,0,-1,566,1786,0,0
-651,-762,0,0,0,0,0,0,0,0,0,-1,573,1786,0,0
-644,-762,0,0,0,0,0,0,0,0,0,-1,580,1786,0,0
-637,-762,0,0,0,0,0,0,0,0,0,-1,587,1786,0,0
-630,-762,0,0,0,0,0,0,0,0,0,-1,594,1786,0,0
-623,-762,0,0,0,0,0,0,0,0,0,-1,601,1786,0,0
-616,-762,0,0,0,0,0,0,0,0,0,-1,608,1786,0,0
-609,-762,0,0,0,0,0,0,0,0,0,-1,615,1786,0,0
-602,-762,0,0,0,0,0,0,0,0,0,-1,622,1786,0,0
-595,-762,0,0,0,0,0,0,0,0,0,-1,629,1786,0,0
-588,-762,0,0,0,0,0,0,0,0,0,-1,636,1786,0,0
-581,-762,0,0,0,0,0,0,0,0,0,-1,643,1786,0,0
-574,-762,0,0,0,0,0,0,0,0,0,-1,650,1786,0,0
-567,-762,0,0,0,0,0,0,0,0,0,-1,657,1786,0,0
-560,-762,0,0,0,0,0,0,0,0,0,-1,664,1786,0,0
-553,-762,0,0,0,0,0,0,0,0,0,-1,671,1786,0,0
-546,-762,0,0,0,0,0,0,0,0,0,-1,678,1786,0,0
-539,-762,0,0,0,0,0,0,0,0,0,-1,685,1786,0,0
-532,-762,0,0,0,0,0,0,0,0,0,-1,692,1786,0,0
-525,-762,0,0,0,0,0,0,0,0,0,-1,699,1786,0,0
-518,-762,0,0,0,0,0,0,0,0,0,-1,706,1786,0,0
-511,-762,0,0,0,0,0,0,0,0,0,-1,713,1786,0,0
-504,-762,0,0,0,0,0,0,0,0,0,-1,720,1786,0,0
-497,-762,0,0,0,0,0,0,0,0,0,-1,727,1786,0,0
-490,-762,0,0,0,0,0,0,0,0,0,-1,734,1786,0,0
-483,-762,0,0,0,0,0,0,0,0,0,-1,741,1786,0,0
-476,-762,0,0,0,0,0,0,0,0,0,-1,748,1786,0,0
-469,-762,0,0,0,0,0,0,0,0,0,-1,755,1786,0,0
-462,-762,0,0,0,0,0,0,0,0,0,-1,762,1786,0,0
-455,-762,0,0,0,0,0,0,0,0,0,-1,769,1786,0,0
-448,-762,0,0,0,0,0,0,0,0,0,-1,776,1786,0,0
-441,-762,0,0,0,0,0,0,0,0,0,-1,783,1786,0,0
-434,-762,0,0,0,0,0,0,0,0,0,-1,790,1786,0,0
-427,-762,0,0,0,0,0,0,0,0,0,-1,797,1786,0,0
-420,-762,0,0,0,0,0,0,0,0,0,-1,804,1786,0,0
-413,-762,0,0,0,0,0,0,0,0,0,-1,811,1786,0,0
-406,-762,0,0,0,0,0,0,0,0,0,-1,818,1786,0,0
-399,-762,0,0,0,0,0,0,0,0,0,-1,825,1786,0,0
-392,-762,0,0,0,0,0,0,0,0,0,-1,832,1786,0,0
-385,-762,0,0,0,0,0,0,0,0,0,-1,839,1786,0,0
-378,-762,0,0,0,0,0,0,0,0,0,-1,846,1786,0,0
-371,-762,0,0,0,0,0,0,0,0,0,-1,853,1786,0,0
-364,-762,0,0,0,0,0,0,0,0,0,-1,860,1786,0,0
-357,-762,0,0,0,0,0,0,0,0,0,-1,867,1786,0,0
-350,-762,0,0,0,0,0,0,0,0,0,-1,874,1786,0,0
-343,-762,0,0,0,0,0,0,0,0,0,-1,881,1786,0,0
-336,-762,0,0,0,0,0,0,0,0,0,-1,888,1786,0,0
-329,-762,0,0,0,0,0,0,0,0,0,-1,895,1786,0,0
-322,-762,0,0,0,0,0,0,0,0,0,-1,902,1786,0,0
-315,-762,0,0,0,0,0,0,0,0,0,-1,909,1786,0,0
-308,-762,0,0,0,0,0,0,0,0,0,-1,916,1786,0,0
-301,-762,0,0,0,0,0,0,0,0,0,-1,923,1786,0,0
-294,-762,0,0,0,0,0,0,0,0,0,-1,930,1786,0,0
-287,-762,0,0,0,0,0,0,0,0,0,-1,937,1786,0,0
-280,-762,0,0,0,0,0,0,0,0,0,-1,944,1786,0,0
-273,-762,0,0,0,0,0,0,0,0,0,-1,951,1786,0,0
-266,-762,0,0,0,0,0,0,0,0,0,-1,958,1786,0,0
-259,-762,0,0,0,0,0,0,0,0,0,-1,965,1786,0,0
-252,-762,0,0,0,0,0,0,0,0,0,-1,972,1786,0,0
-245,-762,0,0,0,0,0,0,0,0,0,-1,979,1786,0,0
-238,-762,0,0,0,0,0,0,0,0,0,-1,986,1786,0,0
-231,-762,0,0,0,0,0,0,0,0,0,-1,993,1786,0,0
-224,-762,0,0,0,0,0,0,0,0,0,-1,1000,1786,0,0
-217,-762,0,0,0,0,0,0,0,0,0,-1,1007,1786,0,0
-210,-762,0,0,0,0,0,0,0,0,0,-1,1014,1786,0,0
-203,-762,0,0,0,0,0,0,0,0,0,-1,1021,1786,0,0
-196,-762,0,0,0,0,0,0,0,0,0,-1,1028,1786,0,0
-189,-762,0,0,0,0,0,0,0,0,0,-1,1035,1786,0,0
-182,-762,4.44226,13.2462,0,0,0,0,0,0,0,-1,1042,1786,4.44227,-13.2462
-175,-762,-1.29956,14.1766,0,0,0,0,0,0,0,-1,1049,1786,-1.29956,-14.1767
-168,-762,-2.08618,13.0768,0,0,0,0,0,0,0,-1,1056,1786,-2.08623,-13.0768
-161,-762,-3.29077,11.9508,0,0,0,0,0,0,0,-1,1063,1786,-3.29076,-11.9508
-154,-762,-4.55823,11.1176,0,0,0,0,0,0,0,-1,1070,1786,-4.55828,-11.1175
-147,-762,-6.52454,9.41418,0,0,0,0,0,0,0,-1,1077,1786,-6.52458,-9.41419
-140,-762,4.99792,5.28589,0,0,0,0,0,0,0,-1,1084,1786,4.99793,-5.28587
-133,-762,6.06946,15.3156,0,0,0,0,0,0,0,-1,1091,1786,6.06945,-15.3155
-126,-762,5.93591,15.8995,0,0,0,0,0,0,0,-1,1098,1786,5.93595,-15.8995
-119,-762,5.76563,16.3793,0,0,0,0,0,0,0,-1,1105,1786,5.76559,-16.3793
-112,-762,5.81848,16.567,0,0,0,0,0,0,0,-1,1112,1786,5.81847,-16.5671
-105,-762,6.05835,16.9724,0,0,0,0,0,0,0,-1,1119,1786,6.05837,-16.9724
-98,-762,4.57495,16.0953,0,0,0,0,0,0,0,-1,1126,1786,4.57496,-16.0954
-91,-762,4.04016,14.6007,0,0,0,0,0,0,0,-1,1133,1786,4.04013,-14.6007
-84,-762,0.415161,10.0322,0,0,0,0,0,0,0,-1,1140,1786,0.415179,-10.0322
-77,-762,0.305054,8.49365,0,0,0,0,0,0,0,-1,1147,1786,0.305008,-8.49362
-70,-762,0.183716,6.74622,0,0,0,0,0,0,0,-1,1154,1786,0.183696,-6.74621
-63,-762,-0.883057,9.08813,0,0,0,0,0,0,0,-1,1161,1786,-0.88311,-9.08808
-56,-762,-0.578979,5.10254,0,0,0,0,0,0,0,-1,1168,1786,-0.578951,-5.10249
-49,-762,-2.04541,3.66321,0,0,0,0,0,0,0,-1,1175,1786,-2.0454,-3.66319
-42,-762,-2.23462,3.474,0,0,0,0,0,0,0,-1,1182,1786,-2.23459,-3.47399
-35,-762,-3.28992,1.68164,0,0,0,0,0,0,0,-1,1189,1786,-3.28998,-1.68164
-28,-762,-3.75378,1.37769,0,0,0,0,0,0,0,-1,1196,1786,-3.75373,-1.37767
-21,-762,5.85034,19.1193,0,0,0,0,0,0,0,-1,1203,1786,5.85039,-19.1193
-14,-762,5.29688,19.54,0,0,0,0,0,0,0,-1,1210,1786,5.29684,-19.54
-7,-762,5.18689,19.6052,0,0,0,0,0,0,0,-1,1217,1786,5.18694,-19.6052
0,-762,5.21997,19.6584,0.0228695,-0.0204812,0.00672056,0.0238875,-0.0214991,0.150328,0.0262161,0.0369963,1224,1786,5.21995,-19.6585
7,-762,5.23328,19.717,0.0194821,-0.0186686,0.00619971,0.0204643,-0.0196508,0.157121,0.0231621,0.0214185,1231,1786,5.23324,-19.717
14,-762,5.23523,19.8633,0.0159731,-0.0172082,0.00552609,0.0168692,-0.0181043,0.160764,0.0201962,0.0344934,1238,1786,5.23518,-19.8633
21,-762,5.17969,19.9106,0.0126537,-0.0161054,0.00486257,0.0134536,-0.0169053,0.163044,0.0175654,0.041994,1245,1786,5.17969,-19.9106
28,-762,5.15869,19.8729,0.00956904,-0.0153603,0.00417091,0.0102484,-0.0160396,0.161453,0.0152997,0.0391235,1252,1786,5.15871,-19.8729
35,-762,5.21716,19.9321,0.00695105,-0.0143767,0.00353834,0.00752275,-0.0149484,0.160188,0.0132078,0.0423367,1259,1786,5.21715,-19.9322
42,-762,5.21313,19.9148,0.00448556,-0.0131868,0.00279904,0.00491829,-0.0136195,0.153385,0.0110889,0.0407451,1266,1786,5.21311,-19.9148
49,-762,5.13049,19.9579,0.00254173,-0.012343,0.00201127,0.00280871,-0.01261,0.131971,0.00948256,0.0315558,1273,1786,5.13046,-19.9579
56,-762,5.12097,19.9747,0.00205329,-0.011465,0.0016825,0.00225955,-0.0116713,0.121982,0.00863316,0.0215107,1280,1786,5.12102,-19.9748
63,-762,5.09216,19.9851,0.00163166,-0.010575,0.00189677,0.00191961,-0.010863,0.150657,0.00795939,0.0196462,1287,1786,5.09221,-19.9852
70,-762,5.07642,19.9965,0.00182055,-0.00978578,0.00295529,0.00252971,-0.0104949,0.235512,0.00797475,0.0198146,1294,1786,5.07648,-19.9964
77,-762,5.07104,19.9819,0.00417533,-0.00941378,0.00322633,0.00490242,-0.0101409,0.221659,0.00885904,0.026108,1301,1786,5.07105,-19.9819
84,-762,5.08154,19.983,0.00692064,-0.00778073,0.00173949,0.00712365,-0.00798374,0.116184,0.00872697,0.0315517,1308,1786,5.08151,-19.9831
91,-762,5.12122,19.9749,0.00893263,-0.00641541,0.00141868,0.00906267,-0.00654544,0.0914018,0.00905032,0.0416159,1315,1786,5.12126,-19.9748
98,-762,5.06921,20.0533,0.0116955,-0.00535373,0.000937121,0.0117468,-0.00540508,0.0547459,0.0101258,0.0416731,1322,1786,5.06921,-20.0533
105,-762,5.09143,20.0509,0.0143967,-0.00463344,0.000154863,0.0143979,-0.0046347,0.00813708,0.0114603,0.0392385,1329,1786,5.09145,-20.0509
112,-762,5.04419,20.0239,0.0168032,-0.0038734,-0.000915489,0.0168437,-0.00391386,-0.0441613,0.0127358,0.0446996,1336,1786,5.04413,-20.0239
119,-762,4.9021,19.903,0.0191099,-0.00316049,-0.00245331,0.019377,-0.00342755,-0.108428,0.0141991,0.0448086,1343,1786,4.90211,-19.9029
126,-762,4.99646,20.1526,0.021143,-0.00231139,-0.00473503,0.0220628,-0.00323124,-0.191874,0.0158955,0.0415542,1350,1786,4.9965,-20.1525
133,-762,4.82019,19.973,0.0226468,-0.00102463,-0.00757086,0.024861,-0.0032389,-0.284537,0.0177524,0.0458526,1357,1786,4.82018,-19.9731
140,-762,4.76697,19.901,0,0,0,0,0,0,0,-1,1364,1786,4.76696,-19.901
147,-762,4.92712,19.5676,0,0,0,0,0,0,0,-1,1371,1786,4.92717,-19.5676
154,-762,4.87891,19.347,0,0,0,0,0,0,0,-1,1378,1786,4.87886,-19.347
161,-762,7.93408,-0.126221,0,0,0,0,0,0,0,-1,1385,1786,7.93402,0.126232
168,-762,8.19287,0.880615,0,0,0,0,0,0,0,-1,1392,1786,8.19291,-0.880603
175,-762,8.33997,1.95947,0,0,0,0,0,0,0,-1,1399,1786,8.33997,-1.95942
182,-762,8.28418,3.56482,0,0,0,0,0,0,0,-1,1406,1786,8.28415,-3.56485
189,-762,8.21179,5.23389,0,0,0,0,0,0,0,-1,1413,1786,8.21183,-5.23383
196,-762,8.05969,6.95483,0,0,0,0,0,0,0,-1,1420,1786,8.05972,-6.9548
203,-762,24.0077,7.10425,0,0,0,0,0,0,0,-1,1427,1786,24.0077,-7.10426
210,-762,23.8073,7.6499,0,0,0,0,0,0,0,-1,1434,1786,23.8073,-7.64987
217,-762,23.3193,8.24426,0,0,0,0,0,0,0,-1,1441,1786,23.3194,-8.2442
224,-762,2.65149,20.6106,0,0,0,0,0,0,0,-1,1448,1786,2.65153,-20.6106
231,-762,6.43127,19.5341,0,0,0,0,0,0,0,-1,1455,1786,6.43125,-19.5341
238,-762,6.81299,18.2596,0,0,0,0,0,0,0,-1,1462,1786,6.81303,-18.2597
245,-762,4.1626,14.0872,0,0,0,0,0,0,0,-1,1469,1786,4.16265,-14.0871
252,-762,4.51648,11.8605,0,0,0,0,0,0,0,-1,1476,1786,4.51644,-11.8605
259,-762,17.4619,7.89832,0,0,0,0,0,0,0,-1,1483,1786,17.462,-7.89836
266,-762,16.451,7.67773,0,0,0,0,0,0,0,-1,1490,1786,16.4511,-7.67773
273,-762,15.287,7.5304,0,0,0,0,0,0,0,-1,1497,1786,15.2869,-7.53044
280,-762,14.1501,7.38379,0,0,0,0,0,0,0,-1,1504,1786,14.1502,-7.38376
287,-762,12.6891,7.99133,0,0,0,0,0,0,0,-1,1511,1786,12.6891,-7.99135
294,-762,11.6133,8.5918,0,0,0,0,0,0,0,-1,1518,1786,11.6133,-8.59175
301,-762,11.8124,9.46521,0,0,0,0,0,0,0,-1,1525,1786,11.8124,-9.46525
308,-762,0,0,0,0,0,0,0,0,0,-1,1532,1786,0,0
315,-762,0,0,0,0,0,0,0,0,0,-1,1539,1786,0,0
322,-762,0,0,0,0,0,0,0,0,0,-1,1546,1786,0,0
329,-762,0,0,0,0,0,0,0,0,0,-1,1553,1786,0,0
336,-762,0,0,0,0,0,0,0,0,0,-1,1560,1786,0,0
343,-762,0,0,0,0,0,0,0,0,0,-1,1567,1786,0,0
350,-762,0,0,0,0,0,0,0,0,0,-1,1574,1786,0,0
357,-762,0,0,0,0,0,0,0,0,0,-1,1581,1786,0,0
364,-762,0,0,0,0,0,0,0,0,0,-1,1588,1786,0,0
371,-762,0,0,0,0,0,0,0,0,0,-1,1595,1786,0,0
378,-762,0,0,0,0,0,0,0,0,0,-1,1602,1786,0,0
385,-762,0,0,0,0,0,0,0,0,0,-1,1609,1786,0,0
392,-762,0,0,0,0,0,0,0,0,0,-1,1616,1786,0,0
399,-762,0,0,0,0,0,0,0,0,0,-1,1623,1786,0,0
406,-762,0,0,0,0,0,0,0,0,0,-1,1630,1786,0,0
413,-762,0,0,0,0,0,0,0,0,0,-1,1637,1786,0,0
420,-762,0,0,0,0,0,0,0,0,0,-1,1644,1786,0,0
427,-762,0,0,0,0,0,0,0,0,0,-1,1651,1786,0,0
434,-762,0,0,0,0,0,0,0,0,0,-1,1658,1786,0,0
441,-762,0,0,0,0,0,0,0,0,0,-1,1665,1786,0,0
448,-762,0,0,0,0,0,0,0,0,0,-1,1672,1786,0,0
455,-762,0,0,0,0,0,0,0,0,0,-1,1679,1786,0,0
462,-762,0,0,0,0,0,0,0,0,0,-1,1686,1786,0,0
469,-762,0,0,0,0,0,0,0,0,0,-1,1693,1786,0,0
476,-762,0,0,0,0,0,0,0,0,0,-1,1700,1786,0,0
483,-762,0,0,0,0,0,0,0,0,0,-1,1707,1786,0,0
490,-762,0,0,0,0,0,0,0,0,0,-1,1714,1786,0,0
497,-762,0,0,0,0,0,0,0,0,0,-1,1721,1786,0,0
504,-762,0,0,0,0,0,0,0,0,0,-1,1728,1786,0,0
511,-762,0,0,0,0,0,0,0,0,0,-1,1735,1786,0,0
518,-762,0,0,0,0,0,0,0,0,0,-1,1742,1786,0,0
525,-762,0,0,0,0,0,0,0,0,0,-1,1749,1786,0,0
532,-762,0,0,0,0,0,0,0,0,0,-1,1756,1786,0,0
539,-762,0,0,0,0,0,0,0,0,0,-1,1763,1786,0,0
546,-762,0,0,0,0,0,0,0,0,0,-1,1770,1786,0,0
553,-762,0,0,0,0,0,0,0,0,0,-1,1777,1786,0,0
560,-762,0,0,0,0,0,0,0,0,0,-1,1784,1786,0,0
567,-762,0,0,0,0,0,0,0,0,0,-1,1791,1786,0,0
574,-762,0,0,0,0,0,0,0,0,0,-1,1798,1786,0,0
581,-762,0,0,0,0,0,0,0,0,0,-1,1805,1786,0,0
588,-762,0,0,0,0,0,0,0,0,0,-1,1812,1786,0,0
595,-762,0,0,0,0,0,0,0,0,0,-1,1819,1786,0,0
602,-762,0,0,0,0,0,0,0,0,0,-1,1826,1786,0,0
609,-762,0,0,0,0,0,0,0,0,0,-1,1833,1786,0,0
616,-762,0,0,0,0,0,0,0,0,0,-1,1840,1786,0,0
623,-762,0,0,0,0,0,0,0,0,0,-1,1847,1786,0,0
630,-762,0,0,0,0,0,0,0,0,0,-1,1854,1786,0,0
637,-762,0,0,0,0,0,0,0,0,0,-1,1861,1786,0,0
644,-762,0,0,0,0,0,0,0,0,0,-1,1868,1786,0,0
651,-762,0,0,0,0,0,0,0,0,0,-1,1875,1786,0,0
658,-762,0,0,0,0,0,0,0,0,0,-1,1882,1786,0,0
665,-762,0,0,0,0,0,0,0,0,0,-1,1889,1786,0,0
672,-762,0,0,0,0,0,0,0,0,0,-1,1896,1786,0,0
679,-762,0,0,0,0,0,0,0,0,0,-1,1903,1786,0,0
686,-762,0,0,0,0,0,0,0,0,0,-1,1910,1786,0,0
693,-762,0,0,0,0,0,0,0,0,0,-1,1917,1786,0,0
700,-762,0,0,0,0,0,0,0,0,0,-1,1924,1786,0,0
707,-762,0,0,0,0,0,0,0,0,0,-1,1931,1786,0,0
714,-762,0,0,0,0,0,0,0,0,0,-1,1938,1786,0,0
721,-762,0,0,0,0,0,0,0,0,0,-1,1945,1786,0,0
728,-762,0,0,0,0,0,0,0,0,0,-1,1952,1786,0,0
735,-762,0,0,0,0,0,0,0,0,0,-1,1959,1786,0,0
742,-762,0,0,0,0,0,0,0,0,0,-1,1966,1786,0,0
749,-762,0,0,0,0,0,0,0,0,0,-1,1973,1786,0,0
756,-762,0,0,0,0,0,0,0,0,0,-1,1980,1786,0,0
763,-762,0,0,0,0,0,0,0,0,0,-1,1987,1786,0,0
770,-762,0,0,0,0,0,0,0,0,0,-1,1994,1786,0,0
777,-762,0,0,0,0,0,0,0,0,0,-1,2001,1786,0,0
784,-762,0,0,0,0,0,0,0,0,0,-1,2008,1786,0,0
791,-762,0,0,0,0,0,0,0,0,0,-1,2015,1786,0,0
798,-762,0,0,0,0,0,0,0,0,0,-1,2022,1786,0,0
805,-762,0,0,0,0,0,0,0,0,0,-1,2029,1786,0,0
812,-762,0,0,0,0,0,0,0,0,0,-1,2036,1786,0,0
-700,-769,0,0,0,0,0,0,0,0,0,-1,524,1793,0,0
-693,-769,0,0,0,0,0,0,0,0,0,-1,531,1793,0,0
-686,-769,0,0,0,0,0,0,0,0,0,-1,538,1793,0,0
-679,-769,0,0,0,0,0,0,0,0,0,-1,545,1793,0,0
-672,-769,0,0,0,0,0,0,0,0,0,-1,552,1793,0,0
-665,-769,0,0,0,0,0,0,0,0,0,-1,559,1793,0,0
-658,-769,0,0,0,0,0,0,0,0,0,-1,566,1793,0,0
-651,-769,0,0,0,0,0,0,0,0,0,-1,573,1793,0,0
-644,-769,0,0,0,0,0,0,0,0,0,-1,580,1793,0,0
-637,-769,0,0,0,0,0,0,0,0,0,-1,587,1793,0,0
-630,-769,0,0,0,0,0,0,0,0,0,-1,594,1793,0,0
-623,-769,0,0,0,0,0,0,0,0,0,-1,601,1793,0,0
-616,-769,0,0,0,0,0,0,0,0,0,-1,608,1793,0,0
-609,-769,0,0,0,0,0,0,0,0,0,-1,615,1793,0,0
-602,-769,0,0,0,0,0,0,0,0,0,-1,622,1793,0,0
-595,-769,0,0,0,0,0,0,0,0,0,-1,629,1793,0,0
-588,-769,0,0,0,0,0,0,0,0,0,-1,636,1793,0,0
-581,-769,0,0,0,0,0,0,0,0,0,-1,643,1793,0,0
-574,-769,0,0,0,0,0,0,0,0,0,-1,650,1793,0,0
-567,-769,0,0,0,0,0,0,0,0,0,-1,657,1793,0,0
-560,-769,0,0,0,0,0,0,0,0,0,-1,664,1793,0,0
-553,-769,0,0,0,0,0,0,0,0,0,-1,671,1793,0,0
-546,-769,0,0,0,0,0,0,0,0,0,-1,678,1793,0,0
-539,-769,0,0,0,0,0,0,0,0,0,-1,685,1793,0,0
-532,-769,0,0,0,0,0,0,0,0,0,-1,692,1793,0,0
-525,-769,0,0,0,0,0,0,0,0,0,-1,699,1793,0,0
-518,-769,0,0,0,0,0,0,0,0,0,-1,706,1793,0,0
-511,-769,0,0,0,0,0,0,0,0,0,-1,713,1793,0,0
-504,-769,0,0,0,0,0,0,0,0,0,-1,720,1793,0,0
-497,-769,0,0,0,0,0,0,0,0,0,-1,727,1793,0,0
-490,-769,0,0,0,0,0,0,0,0,0,-1,734,1793,0,0
-483,-769,0,0,0,0,0,0,0,0,0,-1,741,1793,0,0
-476,-769,0,0,0,0,0,0,0,0,0,-1,748,1793,0,0
-469,-769,0,0,0,0,0,0,0,0,0,-1,755,1793,0,0
-462,-769,0,0,0,0,0,0,0,0,0,-1,762,1793,0,0
-455,-769,0,0,0,0,0,0,0,0,0,-1,769,1793,0,0
-448,-769,0,0,0,0,0,0,0,0,0,-1,776,1793,0,0
-441,-769,0,0,0,0,0,0,0,0,0,-1,783,1793,0,0
-434,-769,0,0,0,0,0,0,0,0,0,-1,790,1793,0,0
-427,-769,0,0,0,0,0,0,0,0,0,-1,797,1793,0,0
-420,-769,0,0,0,0,0,0,0,0,0,-1,804,1793,0,0
-413,-769,0,0,0,0,0,0,0,0,0,-1,811,1793,0,0
-406,-769,0,0,0,0,0,0,0,0,0,-1,818,1793,0,0
-399,-769,0,0,0,0,0,0,0,0,0,-1,825,1793,0,0
-392,-769,0,0,0,0,0,0,0,0,0,-1,832,1793,0,0
-385,-769,0,0,0,0,0,0,0,0,0,-1,839,1793,0,0
-378,-769,0,0,0,0,0,0,0,0,0,-1,846,1793,0,0
-371,-769,0,0,0,0,0,0,0,0,0,-1,853,1793,0,0
-364,-769,0,0,0,0,0,0,0,0,0,-1,860,1793,0,0
-357,-769,0,0,0,0,0,0,0,0,0,-1,867,1793,0,0
-350,-769,0,0,0,0,0,0,0,0,0,-1,874,1793,0,0
-343,-769,0,0,0,0,0,0,0,0,0,-1,881,1793,0,0
-336,-769,0,0,0,0,0,0,0,0,0,-1,888,1793,0,0
-329,-769,0,0,0,0,0,0,0,0,0,-1,895,1793,0,0
-322,-769,0,0,0,0,0,0,0,0,0,-1,902,1793,0,0
-315,-769,0,0,0,0,0,0,0,0,0,-1,909,1793,0,0
-308,-769,0,0,0,0,0,0,0,0,0,-1,916,1793,0,0
-301,-769,0,0,0,0,0,0,0,0,0,-1,923,1793,0,0
-294,-769,0,0,0,0,0,0,0,0,0,-1,930,1793,0,0
-287,-769,0,0,0,0,0,0,0,0,0,-1,937,1793,0,0
-280,-769,0,0,0,0,0,0,0,0,0,-1,944,1793,0,0
-273,-769,0,0,0,0,0,0,0,0,0,-1,951,1793,0,0
-266,-769,0,0,0,0,0,0,0,0,0,-1,958,1793,0,0
-259,-769,0,0,0,0,0,0,0,0,0,-1,965,1793,0,0
-252,-769,0,0,0,0,0,0,0,0,0,-1,972,1793,0,0
-245,-769,0,0,0,0,0,0,0,0,0,-1,979,1793,0,0
-238,-769,0,0,0,0,0,0,0,0,0,-1,986,1793,0,0
-231,-769,0,0,0,0,0,0,0,0,0,-1,993,1793,0,0
-224,-769,0,0,0,0,0,0,0,0,0,-1,1000,1793,0,0
-217,-769,0,0,0,0,0,0,0,0,0,-1,1007,1793,0,0
-210,-769,0,0,0,0,0,0,0,0,0,-1,1014,1793,0,0
-203,-769,0,0,0,0,0,0,0,0,0,-1,1021,1793,0,0
-196,-769,0,0,0,0,0,0,0,0,0,-1,1028,1793,0,0
-189,-769,0,0,0,0,0,0,0,0,0,-1,1035,1793,0,0
-182,-769,0,0,0,0,0,0,0,0,0,-1,1042,1793,0,0
-175,-769,0,0,0,0,0,0,0,0,0,-1,1049,1793,0,0
-168,-769,0,0,0,0,0,0,0,0,0,-1,1056,1793,0,0
-161,-769,-3.61145,12.4761,0,0,0,0,0,0,0,-1,1063,1793,-3.6114,-12.476
-154,-769,-0.813232,5.32874,0,0,0,0,0,0,0,-1,1070,1793,-0.813269,-5.32872
-147,-769,4.26587,4.7002,0,0,0,0,0,0,0,-1,1077,1793,4.26593,-4.70022
-140,-769,4.10376,5.28589,0,0,0,0,0,0,0,-1,1084,1793,4.10371,-5.28584
-133,-769,6.422,8.21777,0,0,0,0,0,0,0,-1,1091,1793,6.42198,-8.21773
-126,-769,6.31982,15.8481,0,0,0,0,0,0,0,-1,1098,1793,6.31985,-15.8482
-119,-769,6.01685,16.2577,0,0,0,0,0,0,0,-1,1105,1793,6.01689,-16.2576
-112,-769,6.22778,16.5615,0,0,0,0,0,0,0,-1,1112,1793,6.22778,-16.5616
-105,-769,5.48938,18.1936,0,0,0,0,0,0,0,-1,1119,1793,5.48932,-18.1936
-98,-769,4.79919,17.3583,0,0,0,0,0,0,0,-1,1126,1793,4.79922,-17.3583
-91,-769,4.40686,15.8386,0,0,0,0,0,0,0,-1,1133,1793,4.40685,-15.8387
-84,-769,3.25684,11.7041,0,0,0,0,0,0,0,-1,1140,1793,3.25681,-11.7041
-77,-769,0.406616,9.9126,0,0,0,0,0,0,0,-1,1147,1793,0.406638,-9.91265
-70,-769,1.04944,11.9852,0,0,0,0,0,0,0,-1,1154,1793,1.04947,-11.9852
-63,-769,-2.39709,9.60339,0,0,0,0,0,0,0,-1,1161,1793,-2.39706,-9.6034
-56,-769,-5.84363,7.22156,0,0,0,0,0,0,0,-1,1168,1793,-5.84359,-7.22157
-49,-769,-2.41443,3.95471,0,0,0,0,0,0,0,-1,1175,1793,-2.41446,-3.95471
-42,-769,-3.1991,2.64941,0,0,0,0,0,0,0,-1,1182,1793,-3.19914,-2.64944
-35,-769,-3.50183,1.73389,0,0,0,0,0,0,0,-1,1189,1793,-3.50189,-1.7339
-28,-769,-3.96985,1.14075,0,0,0,0,0,0,0,-1,1196,1793,-3.96985,-1.14078
-21,-769,3.32703,16.424,0,0,0,0,0,0,0,-1,1203,1793,3.32707,-16.424
-14,-769,3.86243,16.9562,0,0,0,0,0,0,0,-1,1210,1793,3.8624,-16.9562
-7,-769,4.04968,18.3986,0,0,0,0,0,0,0,-1,1217,1793,4.04973,-18.3985
0,-769,5.17041,19.6584,0,0,0,0,0,0,0,-1,1224,1793,5.17046,-19.6585
7,-769,5.25134,19.7633,0.0275772,-0.0252963,0.00803222,0.0287705,-0.0264896,0.147482,0.0319135,0.0486085,1231,1793,5.25136,-19.7632
14,-769,5.34937,19.9657,0.0227754,-0.0230448,0.00728586,0.023906,-0.0241754,0.153953,0.02776,0.0472905,1238,1793,5.34942,-19.9657
21,-769,5.21252,19.9614,0,0,0,0,0,0,0,-1,1245,1793,5.21257,-19.9614
28,-769,5.41663,19.79,0.0140288,-0.0200554,0.0057042,0.0149581,-0.0209847,0.161495,0.0208486,0.0418577,1252,1793,5.41658,-19.79
35,-769,5.45642,20.0031,0.0104375,-0.0184459,0.00493254,0.0112566,-0.0192651,0.164563,0.0178227,0.0458335,1259,1793,5.45645,-20.003
42,-769,5.40088,20.2943,0.00711077,-0.0166633,0.00402771,0.00777459,-0.0173271,0.163346,0.0148382,0.0444986,1266,1793,5.40092,-20.2944
49,-769,5.15991,20.5208,0.00448468,-0.0153205,0.00301552,0.00493364,-0.0157695,0.147798,0.0124867,0.044772,1273,1793,5.15995,-20.5207
56,-769,4.94543,20.5201,0.00373212,-0.0139532,0.00255089,0.0040927,-0.0143138,0.140425,0.0111598,0.0434018,1280,1793,4.94549,-20.5201
63,-769,4.88684,20.1412,0.00315047,-0.0126435,0.00285974,0.00365232,-0.0131453,0.17372,0.0102013,0.0409904,1287,1793,4.88689,-20.1412
70,-769,5.07019,20.0354,0.00336316,-0.0115362,0.00428232,0.00450627,-0.0126793,0.260854,0.0102893,0.0434083,1294,1793,5.07014,-20.0354
77,-769,4.98132,19.9786,0.00644264,-0.0109353,0.00462159,0.00759528,-0.0120879,0.244418,0.0114623,0.047406,1301,1793,4.98132,-19.9786
84,-769,5.10864,20.0197,0,0,0,0,0,0,0,-1,1308,1793,5.1086,-20.0197
91,-769,5.24292,19.9816,0,0,0,0,0,0,0,-1,1315,1793,5.24288,-19.9816
98,-769,5.15137,20.1367,0,0,0,0,0,0,0,-1,1322,1793,5.15142,-20.1367
105,-769,5.14941,20.0948,0,0,0,0,0,0,0,-1,1329,1793,5.14946,-20.0948
112,-769,4.60754,20.0225,0.023374,-0.00366679,-0.000843268,0.0234003,-0.00369306,-0.0311447,0.0169657,0.0474559,1336,1793,4.60755,-20.0224
119,-769,4.71533,19.6178,0.0266982,-0.00264803,-0.00294917,0.0269916,-0.00294148,-0.0991744,0.0190507,0.0458522,1343,1793,4.71528,-19.6178
126,-769,5.224,19.524,0.0296369,-0.00137739,-0.00622217,0.0308387,-0.00257913,-0.19079,0.0214705,0.0446389,1350,1793,5.22397,-19.5241
133,-769,5.09351,19.7552,0.0318219,0.00059081,-0.0104678,0.0350058,-0.00259311,-0.295272,0.0242478,0.0492129,1357,1793,5.09355,-19.7552
140,-769,4.86523,19.3882,0,0,0,0,0,0,0,-1,1364,1793,4.86527,-19.3882
147,-769,4.85449,19.2598,0,0,0,0,0,0,0,-1,1371,1793,4.85448,-19.2598
154,-769,6.37561,1.00024,0,0,0,0,0,0,0,-1,1378,1793,6.37566,-1.00028
161,-769,6.57019,1.53223,0,0,0,0,0,0,0,-1,1385,1793,6.57019,-1.53226
168,-769,8.27637,0.756958,0,0,0,0,0,0,0,-1,1392,1793,8.27639,-0.756944
175,-769,8.47144,2.41174,0,0,0,0,0,0,0,-1,1399,1793,8.47147,-2.4118
182,-769,8.41479,4.05994,0,0,0,0,0,0,0,-1,1406,1793,8.41479,-4.05997
189,-769,8.25049,5.68433,0,0,0,0,0,0,0,-1,1413,1793,8.25054,-5.68428
196,-769,7.97729,7.42847,0,0,0,0,0,0,0,-1,1420,1793,7.9773,-7.42848
203,-769,22.0977,6.73889,0,0,0,0,0,0,0,-1,1427,1793,22.0977,-6.7389
210,-769,22.1115,7.77246,0,0,0,0,0,0,0,-1,1434,1793,22.1115,-7.77248
217,-769,22.4723,8.79102,0,0,0,0,0,0,0,-1,1441,1793,22.4723,-8.79099
224,-769,22.1348,9.35278,0,0,0,0,0,0,0,-1,1448,1793,22.1348,-9.35283
231,-769,3.13318,19.7184,0,0,0,0,0,0,0,-1,1455,1793,3.13323,-19.7184
238,-769,3.60303,16.9788,0,0,0,0,0,0,0,-1,1462,1793,3.60307,-16.9788
245,-769,4.02356,14.7208,0,0,0,0,0,0,0,-1,1469,1793,4.0235,-14.7208
252,-769,4.34961,12.5251,0,0,0,0,0,0,0,-1,1476,1793,4.34959,-12.5252
259,-769,16.4871,7.42102,0,0,0,0,0,0,0,-1,1483,1793,16.4871,-7.42104
266,-769,15.8488,7.3905,0,0,0,0,0,0,0,-1,1490,1793,15.8488,-7.39046
273,-769,14.8075,7.56152,0,0,0,0,0,0,0,-1,1497,1793,14.8075,-7.56152
280,-769,13.6519,7.43054,0,0,0,0,0,0,0,-1,1504,1793,13.6518,-7.43058
287,-769,0,0,0,0,0,0,0,0,0,-1,1511,1793,0,0
294,-769,0,0,0,0,0,0,0,0,0,-1,1518,1793,0,0
301,-769,0,0,0,0,0,0,0,0,0,-1,1525,1793,0,0
308,-769,0,0,0,0,0,0,0,0,0,-1,1532,1793,0,0
315,-769,0,0,0,0,0,0,0,0,0,-1,1539,1793,0,0
322,-769,0,0,0,0,0,0,0,0,0,-1,1546,1793,0,0
329,-769,0,0,0,0,0,0,0,0,0,-1,1553,1793,0,0
336,-769,0,0,0,0,0,0,0,0,0,-1,1560,1793,0,0
343,-769,0,0,0,0,0,0,0,0,0,-1,1567,1793,0,0
350,-769,0,0,0,0,0,0,0,0,0,-1,1574,1793,0,0
357,-769,0,0,0,0,0,0,0,0,0,-1,1581,1793,0,0
364,-769,0,0,0,0,0,0,0,0,0,-1,1588,1793,0,0
371,-769,0,0,0,0,0,0,0,0,0,-1,1595,1793,0,0
378,-769,0,0,0,0,0,0,0,0,0,-1,1602,1793,0,0
385,-769,0,0,0,0,0,0,0,0,0,-1,1609,1793,0,0
392,-769,0,0,0,0,0,0,0,0,0,-1,1616,1793,0,0
399,-769,0,0,0,0,0,0,0,0,0,-1,1623,1793,0,0
406,-769,0,0,0,0,0,0,0,0,0,-1,1630,1793,0,0
413,-769,0,0,0,0,0,0,0,0,0,-1,1637,1793,0,0
420,-769,0,0,0,0,0,0,0,0,0,-1,1644,1793,0,0
427,-769,0,0,0,0,0,0,0,0,0,-1,1651,1793,0,0
434,-769,0,0,0,0,0,0,0,0,0,-1,1658,1793,0,0
441,-769,0,0,0,0,0,0,0,0,0,-1,1665,1793,0,0
448,-769,0,0,0,0,0,0,0,0,0,-1,1672,1793,0,0
455,-769,0,0,0,0,0,0,0,0,0,-1,1679,1793,0,0
462,-769,0,0,0,0,0,0,0,0,0,-1,1686,1793,0,0
469,-769,0,0,0,0,0,0,0,0,0,-1,1693,1793,0,0
476,-769,0,0,0,0,0,0,0,0,0,-1,1700,1793,0,0
483,-769,0,0,0,0,0,0,0,0,0,-1,1707,1793,0,0
490,-769,0,0,0,0,0,0,0,0,0,-1,1714,1793,0,0
497,-769,0,0,0,0,0,0,0,0,0,-1,1721,1793,0,0
504,-769,0,0,0,0,0,0,0,0,0,-1,1728,1793,0,0
511,-769,0,0,0,0,0,0,0,0,0,-1,1735,1793,0,0
518,-769,0,0,0,0,0,0,0,0,0,-1,1742,1793,0,0
525,-769,0,0,0,0,0,0,0,0,0,-1,1749,1793,0,0
532,-769,0,0,0,0,0,0,0,0,0,-1,1756,1793,0,0
539,-769,0,0,0,0,0,0,0,0,0,-1,1763,1793,0,0
546,-769,0,0,0,0,0,0,0,0,0,-1,1770,1793,0,0
553,-769,0,0,0,0,0,0,0,0,0,-1,1777,1793,0,0
560,-769,0,0,0,0,0,0,0,0,0,-1,1784,1793,0,0
567,-769,0,0,0,0,0,0,0,0,0,-1,1791,1793,0,0
574,-769,0,0,0,0,0,0,0,0,0,-1,1798,1793,0,0
581,-769,0,0,0,0,0,0,0,0,0,-1,1805,1793,0,0
588,-769,0,0,0,0,0,0,0,0,0,-1,1812,1793,0,0
595,-769,0,0,0,0,0,0,0,0,0,-1,1819,1793,0,0
602,-769,0,0,0,0,0,0,0,0,0,-1,1826,1793,0,0
609,-769,0,0,0,0,0,0,0,0,0,-1,1833,1793,0,0
616,-769,0,0,0,0,0,0,0,0,0,-1,1840,1793,0,0
623,-769,0,0,0,0,0,0,0,0,0,-1,1847,1793,0,0
630,-769,0,0,0,0,0,0,0,0,0,-1,1854,1793,0,0
637,-769,0,0,0,0,0,0,0,0,0,-1,1861,1793,0,0
644,-769,0,0,0,0,0,0,0,0,0,-1,1868,1793,0,0
651,-769,0,0,0,0,0,0,0,0,0,-1,1875,1793,0,0
658,-769,0,0,0,0,0,0,0,0,0,-1,1882,1793,0,0
665,-769,0,0,0,0,0,0,0,0,0,-1,1889,1793,0,0
672,-769,0,0,0,0,0,0,0,0,0,-1,1896,1793,0,0
679,-769,0,0,0,0,0,0,0,0,0,-1,1903,1793,0,0
686,-769,0,0,0,0,0,0,0,0,0,-1,1910,1793,0,0
693,-769,0,0,0,0,0,0,0,0,0,-1,1917,1793,0,0
700,-769,0,0,0,0,0,0,0,0,0,-1,1924,1793,0,0
707,-769,0,0,0,0,0,0,0,0,0,-1,1931,1793,0,0
714,-769,0,0,0,0,0,0,0,0,0,-1,1938,1793,0,0
721,-769,0,0,0,0,0,0,0,0,0,-1,1945,1793,0,0
728,-769,0,0,0,0,0,0,0,0,0,-1,1952,1793,0,0
735,-769,0,0,0,0,0,0,0,0,0,-1,1959,1793,0,0
742,-769,0,0,0,0,0,0,0,0,0,-1,1966,1793,0,0
749,-769,0,0,0,0,0,0,0,0,0,-1,1973,1793,0,0
756,-769,0,0,0,0,0,0,0,0,0,-1,1980,1793,0,0
763,-769,0,0,0,0,0,0,0,0,0,-1,1987,1793,0,0
770,-769,0,0,0,0,0,0,0,0,0,-1,1994,1793,0,0
777,-769,0,0,0,0,0,0,0,0,0,-1,2001,1793,0,0
784,-769,0,0,0,0,0,0,0,0,0,-1,2008,1793,0,0
791,-769,0,0,0,0,0,0,0,0,0,-1,2015,1793,0,0
798,-769,0,0,0,0,0,0,0,0,0,-1,2022,1793,0,0
805,-769,0,0,0,0,0,0,0,0,0,-1,2029,1793,0,0
812,-769,0,0,0,0,0,0,0,0,0,-1,2036,1793,0,0
-700,-776,0,0,0,0,0,0,0,0,0,-1,524,1800,0,0
-693,-776,0,0,0,0,0,0,0,0,0,-1,531,1800,0,0
-686,-776,0,0,0,0,0,0,0,0,0,-1,538,1800,0,0
-679,-776,0,0,0,0,0,0,0,0,0,-1,545,1800,0,0
-672,-776,0,0,0,0,0,0,0,0,0,-1,552,1800,0,0
-665,-776,0,0,0,0,0,0,0,0,0,-1,559,1800,0,0
-658,-776,0,0,0,0,0,0,0,0,0,-1,566,1800,0,0
-651,-776,0,0,0,0,0,0,0,0,0,-1,573,1800,0,0
-644,-776,0,0,0,0,0,0,0,0,0,-1,580,1800,0,0
-637,-776,0,0,0,0,0,0,0,0,0,-1,587,1800,0,0
-630,-776,0,0,0,0,0,0,0,0,0,-1,594,1800,0,0
-623,-776,0,0,0,0,0,0,0,0,0,-1,601,1800,0,0
-616,-776,0,0,0,0,0,0,0,0,0,-1,608,1800,0,0
-609,-776,0,0,0,0,0,0,0,0,0,-1,615,1800,0,0
-602,-776,0,0,0,0,0,0,0,0,0,-1,622,1800,0,0
-595,-776,0,0,0,0,0,0,0,0,0,-1,629,1800,0,0
-588,-776,0,0,0,0,0,0,0,0,0,-1,636,1800,0,0
-581,-776,0,0,0,0,0,0,0,0,0,-1,643,1800,0,0
-574,-776,0,0,0,0,0,0,0,0,0,-1,650,1800,0,0
-567,-776,0,0,0,0,0,0,0,0,0,-1,657,1800,0,0
-560,-776,0,0,0,0,0,0,0,0,0,-1,664,1800,0,0
-553,-776,0,0,0,0,0,0,0,0,0,-1,671,1800,0,0
-546,-776,0,0,0,0,0,0,0,0,0,-1,678,1800,0,0
-539,-776,0,0,0,0,0,0,0,0,0,-1,685,1800,0,0
-532,-776,0,0,0,0,0,0,0,0,0,-1,692,1800,0,0
-525,-776,0,0,0,0,0,0,0,0,0,-1,699,1800,0,0
-518,-776,0,0,0,0,0,0,0,0,0,-1,706,1800,0,0
-511,-776,0,0,0,0,0,0,0,0,0,-1,713,1800,0,0
-504,-776,0,0,0,0,0,0,0,0,0,-1,720,1800,0,0
-497,-776,0,0,0,0,0,0,0,0,0,-1,727,1800,0,0
-490,-776,0,0,0,0,0,0,0,0,0,-1,734,1800,0,0
-483,-776,0,0,0,0,0,0,0,0,0,-1,741,1800,0,0
-476,-776,0,0,0,0,0,0,0,0,0,-1,748,1800,0,0
-469,-776,0,0,0,0,0,0,0,0,0,-1,755,1800,0,0
-462,-776,0,0,0,0,0,0,0,0,0,-1,762,1800,0,0
-455,-776,0,0,0,0,0,0,0,0,0,-1,769,1800,0,0
-448,-776,0,0,0,0,0,0,0,0,0,-1,776,1800,0,0
-441,-776,0,0,0,0,0,0,0,0,0,-1,783,1800,0,0
-434,-776,0,0,0,0,0,0,0,0,0,-1,790,1800,0,0
-427,-776,0,0,0,0,0,0,0,0,0,-1,797,1800,0,0
-420,-776,0,0,0,0,0,0,0,0,0,-1,804,1800,0,0
-413,-776,0,0,0,0,0,0,0,0,0,-1,811,1800,0,0
-406,-776,0,0,0,0,0,0,0,0,0,-1,818,1800,0,0
-399,-776,0,0,0,0,0,0,0,0,0,-1,825,1800,0,0
-392,-776,0,0,0,0,0,0,0,0,0,-1,832,1800,0,0
-385,-776,0,0,0,0,0,0,0,0,0,-1,839,1800,0,0
-378,-776,0,0,0,0,0,0,0,0,0,-1,846,1800,0,0
-371,-776,0,0,0,0,0,0,0,0,0,-1,853,1800,0,0
-364,-776,0,0,0,0,0,0,0,0,0,-1,860,1800,0,0
-357,-776,0,0,0,0,0,0,0,0,0,-1,867,1800,0,0
-350,-776,0,0,0,0,0,0,0,0,0,-1,874,1800,0,0
-343,-776,0,0,0,0,0,0,0,0,0,-1,881,1800,0,0
-336,-776,0,0,0,0,0,0,0,0,0,-1,888,1800,0,0
-329,-776,0,0,0,0,0,0,0,0,0,-1,895,1800,0,0
-322,-776,0,0,0,0,0,0,0,0,0,-1,902,1800,0,0
-315,-776,0,0,0,0,0,0,0,0,0,-1,909,1800,0,0
-308,-776,0,0,0,0,0,0,0,0,0,-1,916,1800,0,0
-301,-776,0,0,0,0,0,0,0,0,0,-1,923,1800,0,0
-294,-776,0,0,0,0,0,0,0,0,0,-1,930,1800,0,0
-287,-776,0,0,0,0,0,0,0,0,0,-1,937,1800,0,0
-280,-776,0,0,0,0,0,0,0,0,0,-1,944,1800,0,0
-273,-776,0,0,0,0,0,0,0,0,0,-1,951,1800,0,0
-266,-776,0,0,0,0,0,0,0,0,0,-1,958,1800,0,0
-259,-776,0,0,0,0,0,0,0,0,0,-1,965,1800,0,0
-252,-776,0,0,0,0,0,0,0,0,0,-1,972,1800,0,0
-245,-776,0,0,0,0,0,0,0,0,0,-1,979,1800,0,0
-238,-776,0,0,0,0,0,0,0,0,0,-1,986,1800,0,0
-231,-776,0,0,0,0,0,0,0,0,0,-1,993,1800,0,0
-224,-776,0,0,0,0,0,0,0,0,0,-1,1000,1800,0,0
-217,-776,0,0,0,0,0,0,0,0,0,-1,1007,1800,0,0
-210,-776,0,0,0,0,0,0,0,0,0,-1,1014,1800,0,0
-203,-776,0,0,0,0,0,0,0,0,0,-1,1021,1800,0,0
-196,-776,0,0,0,0,0,0,0,0,0,-1,1028,1800,0,0
-189,-776,0,0,0,0,0,0,0,0,0,-1,1035,1800,0,0
-182,-776,0,0,0,0,0,0,0,0,0,-1,1042,1800,0,0
-175,-776,0,0,0,0,0,0,0,0,0,-1,1049,1800,0,0
-168,-776,0,0,0,0,0,0,0,0,0,-1,1056,1800,0,0
-161,-776,0,0,0,0,0,0,0,0,0,-1,1063,1800,0,0
-154,-776,0,0,0,0,0,0,0,0,0,-1,1070,1800,0,0
-147,-776,0,0,0,0,0,0,0,0,0,-1,1077,1800,0,0
-140,-776,2.98499,5.20911,0,0,0,0,0,0,0,-1,1084,1800,2.98493,-5.2091
-133,-776,6.72363,9.35828,0,0,0,0,0,0,0,-1,1091,1800,6.72358,-9.35824
-126,-776,6.55029,13.7832,0,0,0,0,0,0,0,-1,1098,1800,6.55029,-13.7832
-119,-776,5.72107,13.7787,0,0,0,0,0,0,0,-1,1105,1800,5.72106,-13.7787
-112,-776,6.84998,20.4421,0,0,0,0,0,0,0,-1,1112,1800,6.84993,-20.4421
-105,-776,6.05493,19.5604,0,0,0,0,0,0,0,-1,1119,1800,6.05495,-19.5604
-98,-776,5.25793,18.6969,0,0,0,0,0,0,0,-1,1126,1800,5.25788,-18.6969
-91,-776,4.09448,17.8494,0,0,0,0,0,0,0,-1,1133,1800,4.09446,-17.8494
-84,-776,2.27747,12.7086,0,0,0,0,0,0,0,-1,1140,1800,2.27747,-12.7087
-77,-776,0.580078,11.1272,0,0,0,0,0,0,0,-1,1147,1800,0.58002,-11.1272
-70,-776,-0.562866,12.3163,0,0,0,0,0,0,0,-1,1154,1800,-0.562897,-12.3163
-63,-776,-3.96106,9.97656,0,0,0,0,0,0,0,-1,1161,1800,-3.961,-9.97654
-56,-776,-7.35913,7.63672,0,0,0,0,0,0,0,-1,1168,1800,-7.3591,-7.63676
-49,-776,-7.62952,3.1908,0,0,0,0,0,0,0,-1,1175,1800,-7.62955,-3.19076
-42,-776,-3.41272,3.0249,0,0,0,0,0,0,0,-1,1182,1800,-3.41269,-3.02488
-35,-776,-3.71753,1.63635,0,0,0,0,0,0,0,-1,1189,1800,-3.71755,-1.63631
-28,-776,-4.03979,0.716064,0,0,0,0,0,0,0,-1,1196,1800,-4.03977,-0.716055
-21,-776,2.72485,17.3027,0,0,0,0,0,0,0,-1,1203,1800,2.72485,-17.3027
-14,-776,3.27356,17.851,0.0534386,-0.0481062,0.0116954,0.0547682,-0.0494358,0.1132,0.0601885,0.0441848,1210,1800,3.27351,-17.851
-7,-776,3.70935,18.4664,0.04881,-0.0424551,0.0110378,0.050126,-0.0437711,0.118663,0.0542529,0.0495551,1217,1800,3.70935,-18.4664
0,-776,4.23779,19.0879,0,0,0,0,0,0,0,-1,1224,1800,4.23778,-19.0878
7,-776,5.01794,19.4536,0,0,0,0,0,0,0,-1,1231,1800,5.01797,-19.4536
14,-776,5.6814,19.4767,0,0,0,0,0,0,0,-1,1238,1800,5.68135,-19.4767
21,-776,6.04822,19.3691,0,0,0,0,0,0,0,-1,1245,1800,6.04821,-19.3691
28,-776,5.31128,19.7611,0,0,0,0,0,0,0,-1,1252,1800,5.31122,-19.7611
35,-776,5.54382,20.2648,0,0,0,0,0,0,0,-1,1259,1800,5.54381,-20.2647
42,-776,5.46863,20.6057,0.0105582,-0.0203069,0.00558266,0.0115369,-0.0212856,0.17355,0.0192267,0.0426078,1266,1800,5.4686,-20.6058
49,-776,5.21777,20.8518,0.00715901,-0.0182772,0.00432824,0.00787533,-0.0189935,0.164013,0.0159493,0.0450987,1273,1800,5.21772,-20.8518
56,-776,4.95178,21.1127,0,0,0,0,0,0,0,-1,1280,1800,4.95174,-21.1126
63,-776,4.82263,20.5106,0.00532938,-0.0143535,0.00409446,0.00614714,-0.0151713,0.19713,0.0126704,0.045574,1287,1800,4.82257,-20.5106
70,-776,4.89087,20.2457,0.00558543,-0.012806,0.0059285,0.00733085,-0.0145514,0.286321,0.0128609,0.0485859,1294,1800,4.89088,-20.2457
77,-776,4.93103,19.9583,0,0,0,0,0,0,0,-1,1301,1800,4.93097,-19.9582
84,-776,4.71643,19.7026,0,0,0,0,0,0,0,-1,1308,1800,4.71646,-19.7027
91,-776,3.14343,18.7729,0,0,0,0,0,0,0,-1,1315,1800,3.14337,-18.7729
98,-776,3.56433,19.2683,0,0,0,0,0,0,0,-1,1322,1800,3.56433,-19.2683
105,-776,3.98877,19.7211,0.0267193,-0.00372309,0.00126435,0.0267718,-0.00377552,0.0414372,0.0192303,0.0448497,1329,1800,3.98871,-19.721
112,-776,4.34033,20.2639,0.0312718,-0.00243806,-0.000557652,0.031281,-0.00244728,-0.0165367,0.0217158,0.0435501,1336,1800,4.34033,-20.2639
119,-776,4.46558,21.0684,0.0358533,-0.00100879,-0.00331513,0.0361491,-0.00130456,-0.088982,0.0245458,0.0422523,1343,1800,4.46557,-21.0683
126,-776,4.24805,21.9744,0.0399202,0.000842302,-0.00783441,0.0414324,-0.000669839,-0.190668,0.0278475,0.0465146,1350,1800,4.24805,-21.9743
133,-776,5.39075,19.4525,0.0429101,0.00376585,-0.0140102,0.0474078,-0.000731805,-0.310634,0.0318519,0.0477132,1357,1800,5.39077,-19.4526
140,-776,4.80615,19.5443,0,0,0,0,0,0,0,-1,1364,1800,4.80619,-19.5443
147,-776,6.46301,-0.617188,0,0,0,0,0,0,0,-1,1371,1800,6.46305,0.61724
154,-776,6.43774,0.344116,0,0,0,0,0,0,0,-1,1378,1800,6.43776,-0.344162
161,-776,6.50293,1.1731,0,0,0,0,0,0,0,-1,1385,1800,6.5029,-1.17313
168,-776,8.44971,1.22913,0,0,0,0,0,0,0,-1,1392,1800,8.44974,-1.22915
175,-776,8.61523,2.87061,0,0,0,0,0,0,0,-1,1399,1800,8.6152,-2.87063
182,-776,8.54065,4.60645,0,0,0,0,0,0,0,-1,1406,1800,8.5407,-4.60643
189,-776,8.35303,6.28223,0,0,0,0,0,0,0,-1,1413,1800,8.35297,-6.28225
196,-776,8.0387,8.21704,0,0,0,0,0,0,0,-1,1420,1800,8.03865,-8.217
203,-776,7.91736,9.79919,0,0,0,0,0,0,0,-1,1427,1800,7.91735,-9.79922
210,-776,20.2479,7.85718,0,0,0,0,0,0,0,-1,1434,1800,20.248,-7.85719
217,-776,21.5171,9.3418,0,0,0,0,0,0,0,-1,1441,1800,21.5171,-9.34182
224,-776,3.09253,14.9313,0,0,0,0,0,0,0,-1,1448,1800,3.09254,-14.9313
231,-776,20.8671,9.21057,0,0,0,0,0,0,0,-1,1455,1800,20.867,-9.21054
238,-776,20.7511,9.05847,0,0,0,0,0,0,0,-1,1462,1800,20.7511,-9.05848
245,-776,3.80823,15.4108,0,0,0,0,0,0,0,-1,1469,1800,3.80826,-15.4108
252,-776,16.6313,6.47168,0,0,0,0,0,0,0,-1,1476,1800,16.6313,-6.47165
259,-776,14.1882,7.69055,0,0,0,0,0,0,0,-1,1483,1800,14.1882,-7.69061
266,-776,0,0,0,0,0,0,0,0,0,-1,1490,1800,0,0
273,-776,0,0,0,0,0,0,0,0,0,-1,1497,1800,0,0
280,-776,0,0,0,0,0,0,0,0,0,-1,1504,1800,0,0
287,-776,0,0,0,0,0,0,0,0,0,-1,1511,1800,0,0
294,-776,0,0,0,0,0,0,0,0,0,-1,1518,1800,0,0
301,-776,0,0,0,0,0,0,0,0,0,-1,1525,1800,0,0
308,-776,0,0,0,0,0,0,0,0,0,-1,1532,1800,0,0
315,-776,0,0,0,0,0,0,0,0,0,-1,1539,1800,0,0
322,-776,0,0,0,0,0,0,0,0,0,-1,1546,1800,0,0
329,-776,0,0,0,0,0,0,0,0,0,-1,1553,1800,0,0
336,-776,0,0,0,0,0,0,0,0,0,-1,1560,1800,0,0
343,-776,0,0,0,0,0,0,0,0,0,-1,1567,1800,0,0
350,-776,0,0,0,0,0,0,0,0,0,-1,1574,1800,0,0
357,-776,0,0,0,0,0,0,0,0,0,-1,1581,1800,0,0
364,-776,0,0,0,0,0,0,0,0,0,-1,1588,1800,0,0
371,-776,0,0,0,0,0,0,0,0,0,-1,1595,1800,0,0
378,-776,0,0,0,0,0,0,0,0,0,-1,1602,1800,0,0
385,-776,0,0,0,0,0,0,0,0,0,-1,1609,1800,0,0
392,-776,0,0,0,0,0,0,0,0,0,-1,1616,1800,0,0
399,-776,0,0,0,0,0,0,0,0,0,-1,1623,1800,0,0
406,-776,0,0,0,0,0,0,0,0,0,-1,1630,1800,0,0
413,-776,0,0,0,0,0,0,0,0,0,-1,1637,1800,0,0
420,-776,0,0,0,0,0,0,0,0,0,-1,1644,1800,0,0
427,-776,0,0,0,0,0,0,0,0,0,-1,1651,1800,0,0
434,-776,0,0,0,0,0,0,0,0,0,-1,1658,1800,0,0
441,-776,0,0,0,0,0,0,0,0,0,-1,1665,1800,0,0
448,-776,0,0,0,0,0,0,0,0,0,-1,1672,1800,0,0
455,-776,0,0,0,0,0,0,0,0,0,-1,1679,1800,0,0
462,-776,0,0,0,0,0,0,0,0,0,-1,1686,1800,0,0
469,-776,0,0,0,0,0,0,0,0,0,-1,1693,1800,0,0
476,-776,0,0,0,0,0,0,0,0,0,-1,1700,1800,0,0
483,-776,0,0,0,0,0,0,0,0,0,-1,1707,1800,0,0
490,-776,0,0,0,0,0,0,0,0,0,-1,1714,1800,0,0
497,-776,0,0,0,0,0,0,0,0,0,-1,1721,1800,0,0
504,-776,0,0,0,0,0,0,0,0,0,-1,1728,1800,0,0
511,-776,0,0,0,0,0,0,0,0,0,-1,1735,1800,0,0
518,-776,0,0,0,0,0,0,0,0,0,-1,1742,1800,0,0
525,-776,0,0,0,0,0,0,0,0,0,-1,1749,1800,0,0
532,-776,0,0,0,0,0,0,0,0,0,-1,1756,1800,0,0
539,-776,0,0,0,0,0,0,0,0,0,-1,1763,1800,0,0
546,-776,0,0,0,0,0,0,0,0,0,-1,1770,1800,0,0
553,-776,0,0,0,0,0,0,0,0,0,-1,1777,1800,0,0
560,-776,0,0,0,0,0,0,0,0,0,-1,1784,1800,0,0
567,-776,0,0,0,0,0,0,0,0,0,-1,1791,1800,0,0
574,-776,0,0,0,0,0,0,0,0,0,-1,1798,1800,0,0
581,-776,0,0,0,0,0,0,0,0,0,-1,1805,1800,0,0
588,-776,0,0,0,0,0,0,0,0,0,-1,1812,1800,0,0
595,-776,0,0,0,0,0,0,0,0,0,-1,1819,1800,0,0
602,-776,0,0,0,0,0,0,0,0,0,-1,1826,1800,0,0
609,-776,0,0,0,0,0,0,0,0,0,-1,1833,1800,0,0
616,-776,0,0,0,0,0,0,0,0,0,-1,1840,1800,0,0
623,-776,0,0,0,0,0,0,0,0,0,-1,1847,1800,0,0
630,-776,0,0,0,0,0,0,0,0,0,-1,1854,1800,0,0
637,-776,0,0,0,0,0,0,0,0,0,-1,1861,1800,0,0
644,-776,0,0,0,0,0,0,0,0,0,-1,1868,1800,0,0
651,-776,0,0,0,0,0,0,0,0,0,-1,1875,1800,0,0
658,-776,0,0,0,0,0,0,0,0,0,-1,1882,1800,0,0
665,-776,0,0,0,0,0,0,0,0,0,-1,1889,1800,0,0
672,-776,0,0,0,0,0,0,0,0,0,-1,1896,1800,0,0
679,-776,0,0,0,0,0,0,0,0,0,-1,1903,1800,0,0
686,-776,0,0,0,0,0,0,0,0,0,-1,1910,1800,0,0
693,-776,0,0,0,0,0,0,0,0,0,-1,1917,1800,0,0
700,-776,0,0,0,0,0,0,0,0,0,-1,1924,1800,0,0
707,-776,0,0,0,0,0,0,0,0,0,-1,1931,1800,0,0
714,-776,0,0,0,0,0,0,0,0,0,-1,1938,1800,0,0
721,-776,0,0,0,0,0,0,0,0,0,-1,1945,1800,0,0
728,-776,0,0,0,0,0,0,0,0,0,-1,1952,1800,0,0
735,-776,0,0,0,0,0,0,0,0,0,-1,1959,1800,0,0
742,-776,0,0,0,0,0,0,0,0,0,-1,1966,1800,0,0
749,-776,0,0,0,0,0,0,0,0,0,-1,1973,1800,0,0
756,-776,0,0,0,0,0,0,0,0,0,-1,1980,1800,0,0
763,-776,0,0,0,0,0,0,0,0,0,-1,1987,1800,0,0
770,-776,0,0,0,0,0,0,0,0,0,-1,1994,1800,0,0
777,-776,0,0,0,0,0,0,0,0,0,-1,2001,1800,0,0
784,-776,0,0,0,0,0,0,0,0,0,-1,2008,1800,0,0
791,-776,0,0,0,0,0,0,0,0,0,-1,2015,1800,0,0
798,-776,0,0,0,0,0,0,0,0,0,-1,2022,1800,0,0
805,-776,0,0,0,0,0,0,0,0,0,-1,2029,1800,0,0
812,-776,0,0,0,0,0,0,0,0,0,-1,2036,1800,0,0
-700,-783,0,0,0,0,0,0,0,0,0,-1,524,1807,0,0
-693,-783,0,0,0,0,0,0,0,0,0,-1,531,1807,0,0
-686,-783,0,0,0,0,0,0,0,0,0,-1,538,1807,0,0
-679,-783,0,0,0,0,0,0,0,0,0,-1,545,1807,0,0
-672,-783,0,0,0,0,0,0,0,0,0,-1,552,1807,0,0
-665,-783,0,0,0,0,0,0,0,0,0,-1,559,1807,0,0
-658,-783,0,0,0,0,0,0,0,0,0,-1,566,1807,0,0
-651,-783,0,0,0,0,0,0,0,0,0,-1,573,1807,0,0
-644,-783,0,0,0,0,0,0,0,0,0,-1,580,1807,0,0
-637,-783,0,0,0,0,0,0,0,0,0,-1,587,1807,0,0
-630,-783,0,0,0,0,0,0,0,0,0,-1,594,1807,0,0
-623,-783,0,0,0,0,0,0,0,0,0,-1,601,1807,0,0
-616,-783,0,0,0,0,0,0,0,0,0,-1,608,1807,0,0
-609,-783,0,0,0,0,0,0,0,0,0,-1,615,1807,0,0
-602,-783,0,0,0,0,0,0,0,0,0,-1,622,1807,0,0
-595,-783,0,0,0,0,0,0,0,0,0,-1,629,1807,0,0
-588,-783,0,0,0,0,0,0,0,0,0,-1,636,1807,0,0
-581,-783,0,0,0,0,0,0,0,0,0,-1,643,1807,0,0
-574,-783,0,0,0,0,0,0,0,0,0,-1,650,1807,0,0
-567,-783,0,0,0,0,0,0,0,0,0,-1,657,1807,0,0
-560,-783,0,0,0,0,0,0,0,0,0,-1,664,1807,0,0
-553,-783,0,0,0,0,0,0,0,0,0,-1,671,1807,0,0
-546,-783,0,0,0,0,0,0,0,0,0,-1,678,1807,0,0
-539,-783,0,0,0,0,0,0,0,0,0,-1,685,1807,0,0
-532,-783,0,0,0,0,0,0,0,0,0,-1,692,1807,0,0
-525,-783,0,0,0,0,0,0,0,0,0,-1,699,1807,0,0
-518,-783,0,0,0,0,0,0,0,0,0,-1,706,1807,0,0
-511,-783,0,0,0,0,0,0,0,0,0,-1,713,1807,0,0
-504,-783,0,0,0,0,0,0,0,0,0,-1,720,1807,0,0
-497,-783,0,0,0,0,0,0,0,0,0,-1,727,1807,0,0
-490,-783,0,0,0,0,0,0,0,0,0,-1,734,1807,0,0
-483,-783,0,0,0,0,0,0,0,0,0,-1,741,1807,0,0
-476,-783,0,0,0,0,0,0,0,0,0,-1,748,1807,0,0
-469,-783,0,0,0,0,0,0,0,0,0,-1,755,1807,0,0
-462,-783,0,0,0,0,0,0,0,0,0,-1,762,1807,0,0
-455,-783,0,0,0,0,0,0,0,0,0,-1,769,1807,0,0
-448,-783,0,0,0,0,0,0,0,0,0,-1,776,1807,0,0
-441,-783,0,0,0,0,0,0,0,0,0,-1,783,1807,0,0
-434,-783,0,0,0,0,0,0,0,0,0,-1,790,1807,0,0
-427,-783,0,0,0,0,0,0,0,0,0,-1,797,1807,0,0
-420,-783,0,0,0,0,0,0,0,0,0,-1,804,1807,0,0
-413,-783,0,0,0,0,0,0,0,0,0,-1,811,1807,0,0
-406,-783,0,0,0,0,0,0,0,0,0,-1,818,1807,0,0
-399,-783,0,0,0,0,0,0,0,0,0,-1,825,1807,0,0
-392,-783,0,0,0,0,0,0,0,0,0,-1,832,1807,0,0
-385,-783,0,0,0,0,0,0,0,0,0,-1,839,1807,0,0
-378,-783,0,0,0,0,0,0,0,0,0,-1,846,1807,0,0
-371,-783,0,0,0,0,0,0,0,0,0,-1,853,1807,0,0
-364,-783,0,0,0,0,0,0,0,0,0,-1,860,1807,0,0
-357,-783,0,0,0,0,0,0,0,0,0,-1,867,1807,0,0
-350,-783,0,0,0,0,0,0,0,0,0,-1,874,1807,0,0
-343,-783,0,0,0,0,0,0,0,0,0,-1,881,1807,0,0
-336,-783,0,0,0,0,0,0,0,0,0,-1,888,1807,0,0
-329,-783,0,0,0,0,0,0,0,0,0,-1,895,1807,0,0
-322,-783,0,0,0,0,0,0,0,0,0,-1,902,1807,0,0
-315,-783,0,0,0,0,0,0,0,0,0,-1,909,1807,0,0
-308,-783,0,0,0,0,0,0,0,0,0,-1,916,1807,0,0
-301,-783,0,0,0,0,0,0,0,0,0,-1,923,1807,0,0
-294,-783,0,0,0,0,0,0,0,0,0,-1,930,1807,0,0
-287,-783,0,0,0,0,0,0,0,0,0,-1,937,1807,0,0
-280,-783,0,0,0,0,0,0,0,0,0,-1,944,1807,0,0
-273,-783,0,0,0,0,0,0,0,0,0,-1,951,1807,0,0
-266,-783,0,0,0,0,0,0,0,0,0,-1,958,1807,0,0
-259,-783,0,0,0,0,0,0,0,0,0,-1,965,1807,0,0
-252,-783,0,0,0,0,0,0,0,0,0,-1,972,1807,0,0
-245,-783,0,0,0,0,0,0,0,0,0,-1,979,1807,0,0
-238,-783,0,0,0,0,0,0,0,0,0,-1,986,1807,0,0
-231,-783,0,0,0,0,0,0,0,0,0,-1,993,1807,0,0
-224,-783,0,0,0,0,0,0,0,0,0,-1,1000,1807,0,0
-217,-783,0,0,0,0,0,0,0,0,0,-1,1007,1807,0,0
-210,-783,0,0,0,0,0,0,0,0,0,-1,1014,1807,0,0
-203,-783,0,0,0,0,0,0,0,0,0,-1,1021,1807,0,0
-196,-783,0,0,0,0,0,0,0,0,0,-1,1028,1807,0,0
-189,-783,0,0,0,0,0,0,0,0,0,-1,1035,1807,0,0
-182,-783,0,0,0,0,0,0,0,0,0,-1,1042,1807,0,0
-175,-783,0,0,0,0,0,0,0,0,0,-1,1049,1807,0,0
-168,-783,0,0,0,0,0,0,0,0,0,-1,1056,1807,0,0
-161,-783,0,0,0,0,0,0,0,0,0,-1,1063,1807,0,0
-154,-783,0,0,0,0,0,0,0,0,0,-1,1070,1807,0,0
-147,-783,0,0,0,0,0,0,0,0,0,-1,1077,1807,0,0
-140,-783,0,0,0,0,0,0,0,0,0,-1,1084,1807,0,0
-133,-783,0,0,0,0,0,0,0,0,0,-1,1091,1807,0,0
-126,-783,0,0,0,0,0,0,0,0,0,-1,1098,1807,0,0
-119,-783,0,0,0,0,0,0,0,0,0,-1,1105,1807,0,0
-112,-783,5.33936,14.7699,0,0,0,0,0,0,0,-1,1112,1807,5.33931,-14.7699
-105,-783,6.44263,21.2224,0,0,0,0,0,0,0,-1,1119,1807,6.44263,-21.2224
-98,-783,5.54773,20.5695,0,0,0,0,0,0,0,-1,1126,1807,5.54772,-20.5695
-91,-783,2.78186,14.2633,0,0,0,0,0,0,0,-1,1133,1807,2.78186,-14.2633
-84,-783,-0.0491943,14.5743,0,0,0,0,0,0,0,-1,1140,1807,-0.0491562,-14.5743
-77,-783,0.332764,12.7788,0,0,0,0,0,0,0,-1,1147,1807,0.332743,-12.7788
-70,-783,-1.93176,5.12817,0,0,0,0,0,0,0,-1,1154,1807,-1.93171,-5.12813
-63,-783,-5.31702,10.54,0,0,0,0,0,0,0,-1,1161,1807,-5.31703,-10.54
-56,-783,-6.26135,6.9679,0,0,0,0,0,0,0,-1,1168,1807,-6.26136,-6.96785
-49,-783,-3.17688,4.59705,0,0,0,0,0,0,0,-1,1175,1807,-3.17685,-4.5971
-42,-783,-3.72876,3.1405,0,0,0,0,0,0,0,-1,1182,1807,-3.72874,-3.14055
-35,-783,-3.97046,1.59399,0,0,0,0,0,0,0,-1,1189,1807,-3.97041,-1.59401
-28,-783,-4.12195,0.270386,0,0,0,0,0,0,0,-1,1196,1807,-4.12197,-0.270408
-21,-783,2.32776,18.5475,0,0,0,0,0,0,0,-1,1203,1807,2.3278,-18.5475
-14,-783,2.87048,18.8356,0.0681047,-0.0617589,0.0134943,0.0694921,-0.0631463,0.102453,0.076608,0.0460218,1210,1807,2.87047,-18.8356
-7,-783,3.40308,18.855,0.0626466,-0.0542197,0.0127296,0.0640171,-0.0555902,0.107248,0.0691124,0.0446689,1217,1807,3.40303,-18.855
0,-783,3.90759,19.3779,0,0,0,0,0,0,0,-1,1224,1807,3.90765,-19.3779
7,-783,4.65039,19.4188,0.0481714,-0.0414924,0.0118532,0.0497119,-0.0430329,0.129239,0.0535925,0.0459053,1231,1807,4.65042,-19.4189
14,-783,5.41284,19.467,0.0402935,-0.0371151,0.0112631,0.041899,-0.0387206,0.141592,0.0465578,0.0488669,1238,1807,5.4128,-19.467
21,-783,5.79175,19.8906,0,0,0,0,0,0,0,-1,1245,1807,5.79173,-19.8906
28,-783,5.69104,20.0363,0.0260367,-0.030901,0.0096242,0.0276194,-0.0324838,0.163,0.0347385,0.0472041,1252,1807,5.69104,-20.0363
35,-783,5.71863,20.3475,0.0201635,-0.0273818,0.00866169,0.0216923,-0.0289106,0.174703,0.0293145,0.0460166,1259,1807,5.71866,-20.3475
42,-783,5.57983,20.6718,0.014848,-0.0238948,0.00749302,0.0162467,-0.0252935,0.184541,0.0241721,0.0443753,1266,1807,5.57987,-20.6718
49,-783,5.41333,20.9729,0,0,0,0,0,0,0,-1,1273,1807,5.41338,-20.9729
56,-783,4.79919,20.8203,0,0,0,0,0,0,0,-1,1280,1807,4.79918,-20.8204
63,-783,4.65686,20.6873,0.00825301,-0.0153846,0.00561192,0.00951769,-0.0166493,0.221655,0.0152934,0.0466148,1287,1807,4.65681,-20.6872
70,-783,4.70996,20.3857,0.00859876,-0.0132418,0.00788455,0.0111476,-0.0157907,0.312673,0.0156297,0.0468562,1294,1807,4.71,-20.3857
77,-783,4.56055,19.8992,0.0132946,-0.0117598,0.00837321,0.0158353,-0.0143005,0.294602,0.0174064,0.0478848,1301,1807,4.56054,-19.8991
84,-783,4.60046,19.5856,0,0,0,0,0,0,0,-1,1308,1807,4.60052,-19.5856
91,-783,4.6582,19.2902,0,0,0,0,0,0,0,-1,1315,1807,4.65819,-19.2901
98,-783,3.55981,19.303,0,0,0,0,0,0,0,-1,1322,1807,3.55979,-19.303
105,-783,4.05518,19.6238,0.0344346,-0.00125212,0.00224923,0.0345758,-0.00139333,0.0626964,0.0235288,0.0487186,1329,1807,4.05512,-19.6238
112,-783,4.36597,20.3672,0.0403742,0.000401782,4.32703e-05,0.0403742,0.000401737,0.0010825,0.0267833,0.0446727,1336,1807,4.36602,-20.3672
119,-783,4.53162,21.3364,0.0464477,0.00238795,-0.00340045,0.0467086,0.00212705,-0.076574,0.0304548,0.0415294,1343,1807,4.53165,-21.3364
126,-783,4.5625,22.5747,0.0518783,0.00502213,-0.00941326,0.0536987,0.00320175,-0.191026,0.034781,0.0480155,1350,1807,4.56247,-22.5746
133,-783,5.74585,18.8914,0.0557911,0.00923207,-0.018187,0.0620532,0.00297005,-0.3316,0.0404152,0.049833,1357,1807,5.74581,-18.8914
140,-783,5.13074,18.4629,0.0577275,0.0137711,-0.0294151,0.0724683,-0.000969794,-0.464554,0.0486387,0.0491128,1364,1807,5.13077,-18.4629
147,-783,4.4873,18.2319,0,0,0,0,0,0,0,-1,1371,1807,4.48727,-18.2319
154,-783,6.37024,-0.145874,0,0,0,0,0,0,0,-1,1378,1807,6.37018,0.145866
161,-783,6.57568,1.16174,0,0,0,0,0,0,0,-1,1385,1807,6.57562,-1.1617
168,-783,8.62561,1.79944,0,0,0,0,0,0,0,-1,1392,1807,8.62561,-1.79946
175,-783,8.78699,3.40857,0,0,0,0,0,0,0,-1,1399,1807,8.78697,-3.40854
182,-783,8.70984,5.14661,0,0,0,0,0,0,0,-1,1406,1807,8.70989,-5.14666
189,-783,8.55762,6.79871,0,0,0,0,0,0,0,-1,1413,1807,8.55766,-6.79872
196,-783,8.25488,8.66626,0,0,0,0,0,0,0,-1,1420,1807,8.25492,-8.66628
203,-783,7.86755,10.5735,0,0,0,0,0,0,0,-1,1427,1807,7.8676,-10.5734
210,-783,5.6969,8.99231,0,0,0,0,0,0,0,-1,1434,1807,5.69693,-8.99234
217,-783,5.28503,3.80872,0,0,0,0,0,0,0,-1,1441,1807,5.285,-3.80868
224,-783,3.22571,6.62903,0,0,0,0,0,0,0,-1,1448,1807,3.2257,-6.62907
231,-783,4.27942,4.56262,0,0,0,0,0,0,0,-1,1455,1807,4.27948,-4.56267
238,-783,0,0,0,0,0,0,0,0,0,-1,1462,1807,0,0
245,-783,0,0,0,0,0,0,0,0,0,-1,1469,1807,0,0
252,-783,0,0,0,0,0,0,0,0,0,-1,1476,1807,0,0
259,-783,0,0,0,0,0,0,0,0,0,-1,1483,1807,0,0
266,-783,0,0,0,0,0,0,0,0,0,-1,1490,1807,0,0
273,-783,0,0,0,0,0,0,0,0,0,-1,1497,1807,0,0
280,-783,0,0,0,0,0,0,0,0,0,-1,1504,1807,0,0
287,-783,0,0,0,0,0,0,0,0,0,-1,1511,1807,0,0
294,-783,0,0,0,0,0,0,0,0,0,-1,1518,1807,0,0
301,-783,0,0,0,0,0,0,0,0,0,-1,1525,1807,0,0
308,-783,0,0,0,0,0,0,0,0,0,-1,1532,1807,0,0
315,-783,0,0,0,0,0,0,0,0,0,-1,1539,1807,0,0
322,-783,0,0,0,0,0,0,0,0,0,-1,1546,1807,0,0
329,-783,0,0,0,0,0,0,0,0,0,-1,1553,1807,0,0
336,-783,0,0,0,0,0,0,0,0,0,-1,1560,1807,0,0
343,-783,0,0,0,0,0,0,0,0,0,-1,1567,1807,0,0
350,-783,0,0,0,0,0,0,0,0,0,-1,1574,1807,0,0
357,-783,0,0,0,0,0,0,0,0,0,-1,1581,1807,0,0
364,-783,0,0,0,0,0,0,0,0,0,-1,1588,1807,0,0
371,-783,0,0,0,0,0,0,0,0,0,-1,1595,1807,0,0
378,-783,0,0,0,0,0,0,0,0,0,-1,1602,1807,0,0
385,-783,0,0,0,0,0,0,0,0,0,-1,1609,1807,0,0
392,-783,0,0,0,0,0,0,0,0,0,-1,1616,1807,0,0
399,-783,0,0,0,0,0,0,0,0,0,-1,1623,1807,0,0
406,-783,0,0,0,0,0,0,0,0,0,-1,1630,1807,0,0
413,-783,0,0,0,0,0,0,0,0,0,-1,1637,1807,0,0
420,-783,0,0,0,0,0,0,0,0,0,-1,1644,1807,0,0
427,-783,0,0,0,0,0,0,0,0,0,-1,1651,1807,0,0
434,-783,0,0,0,0,0,0,0,0,0,-1,1658,1807,0,0
441,-783,0,0,0,0,0,0,0,0,0,-1,1665,1807,0,0
448,-783,0,0,0,0,0,0,0,0,0,-1,1672,1807,0,0
455,-783,0,0,0,0,0,0,0,0,0,-1,1679,1807,0,0
462,-783,0,0,0,0,0,0,0,0,0,-1,1686,1807,0,0
469,-783,0,0,0,0,0,0,0,0,0,-1,1693,1807,0,0
476,-783,0,0,0,0,0,0,0,0,0,-1,1700,1807,0,0
483,-783,0,0,0,0,0,0,0,0,0,-1,1707,1807,0,0
490,-783,0,0,0,0,0,0,0,0,0,-1,1714,1807,0,0
497,-783,0,0,0,0,0,0,0,0,0,-1,1721,1807,0,0
504,-783,0,0,0,0,0,0,0,0,0,-1,1728,1807,0,0
511,-783,0,0,0,0,0,0,0,0,0,-1,1735,1807,0,0
518,-783,0,0,0,0,0,0,0,0,0,-1,1742,1807,0,0
525,-783,0,0,0,0,0,0,0,0,0,-1,1749,1807,0,0
532,-783,0,0,0,0,0,0,0,0,0,-1,1756,1807,0,0
539,-783,0,0,0,0,0,0,0,0,0,-1,1763,1807,0,0
546,-783,0,0,0,0,0,0,0,0,0,-1,1770,1807,0,0
553,-783,0,0,0,0,0,0,0,0,0,-1,1777,1807,0,0
560,-783,0,0,0,0,0,0,0,0,0,-1,1784,1807,0,0
567,-783,0,0,0,0,0,0,0,0,0,-1,1791,1807,0,0
574,-783,0,0,0,0,0,0,0,0,0,-1,1798,1807,0,0
581,-783,0,0,0,0,0,0,0,0,0,-1,1805,1807,0,0
588,-783,0,0,0,0,0,0,0,0,0,-1,1812,1807,0,0
595,-783,0,0,0,0,0,0,0,0,0,-1,1819,1807,0,0
602,-783,0,0,0,0,0,0,0,0,0,-1,1826,1807,0,0
609,-783,0,0,0,0,0,0,0,0,0,-1,1833,1807,0,0
616,-783,0,0,0,0,0,0,0,0,0,-1,1840,1807,0,0
623,-783,0,0,0,0,0,0,0,0,0,-1,1847,1807,0,0
630,-783,0,0,0,0,0,0,0,0,0,-1,1854,1807,0,0
637,-783,0,0,0,0,0,0,0,0,0,-1,1861,1807,0,0
644,-783,0,0,0,0,0,0,0,0,0,-1,1868,1807,0,0
651,-783,0,0,0,0,0,0,0,0,0,-1,1875,1807,0,0
658,-783,0,0,0,0,0,0,0,0,0,-1,1882,1807,0,0
665,-783,0,0,0,0,0,0,0,0,0,-1,1889,1807,0,0
672,-783,0,0,0,0,0,0,0,0,0,-1,1896,1807,0,0
679,-783,0,0,0,0,0,0,0,0,0,-1,1903,1807,0,0
686,-783,0,0,0,0,0,0,0,0,0,-1,1910,1807,0,0
693,-783,0,0,0,0,0,0,0,0,0,-1,1917,1807,0,0
700,-783,0,0,0,0,0,0,0,0,0,-1,1924,1807,0,0
707,-783,0,0,0,0,0,0,0,0,0,-1,1931,1807,0,0
714,-783,0,0,0,0,0,0,0,0,0,-1,1938,1807,0,0
721,-783,0,0,0,0,0,0,0,0,0,-1,1945,1807,0,0
728,-783,0,0,0,0,0,0,0,0,0,-1,1952,1807,0,0
735,-783,0,0,0,0,0,0,0,0,0,-1,1959,1807,0,0
742,-783,0,0,0,0,0,0,0,0,0,-1,1966,1807,0,0
749,-783,0,0,0,0,0,0,0,0,0,-1,1973,1807,0,0
756,-783,0,0,0,0,0,0,0,0,0,-1,1980,1807,0,0
763,-783,0,0,0,0,0,0,0,0,0,-1,1987,1807,0,0
770,-783,0,0,0,0,0,0,0,0,0,-1,1994,1807,0,0
777,-783,0,0,0,0,0,0,0,0,0,-1,2001,1807,0,0
784,-783,0,0,0,0,0,0,0,0,0,-1,2008,1807,0,0
791,-783,0,0,0,0,0,0,0,0,0,-1,2015,1807,0,0
798,-783,0,0,0,0,0,0,0,0,0,-1,2022,1807,0,0
805,-783,0,0,0,0,0,0,0,0,0,-1,2029,1807,0,0
812,-783,0,0,0,0,0,0,0,0,0,-1,2036,1807,0,0
-700,-790,0,0,0,0,0,0,0,0,0,-1,524,1814,0,0
-693,-790,0,0,0,0,0,0,0,0,0,-1,531,1814,0,0
-686,-790,0,0,0,0,0,0,0,0,0,-1,538,1814,0,0
-679,-790,0,0,0,0,0,0,0,0,0,-1,545,1814,0,0
-672,-790,0,0,0,0,0,0,0,0,0,-1,552,1814,0,0
-665,-790,0,0,0,0,0,0,0,0,0,-1,559,1814,0,0
-658,-790,0,0,0,0,0,0,0,0,0,-1,566,1814,0,0
-651,-790,0,0,0,0,0,0,0,0,0,-1,573,1814,0,0
-644,-790,0,0,0,0,0,0,0,0,0,-1,580,1814,0,0
-637,-790,0,0,0,0,0,0,0,0,0,-1,587,1814,0,0
-630,-790,0,0,0,0,0,0,0,0,0,-1,594,1814,0,0
-623,-790,0,0,0,0,0,0,0,0,0,-1,601,1814,0,0
-616,-790,0,0,0,0,0,0,0,0,0,-1,608,1814,0,0
-609,-790,0,0,0,0,0,0,0,0,0,-1,615,1814,0,0
-602,-790,0,0,0,0,0,0,0,0,0,-1,622,1814,0,0
-595,-790,0,0,0,0,0,0,0,0,0,-1,629,1814,0,0
-588,-790,0,0,0,0,0,0,0,0,0,-1,636,1814,0,0
-581,-790,0,0,0,0,0,0,0,0,0,-1,643,1814,0,0
-574,-790,0,0,0,0,0,0,0,0,0,-1,650,1814,0,0
-567,-790,0,0,0,0,0,0,0,0,0,-1,657,1814,0,0
-560,-790,0,0,0,0,0,0,0,0,0,-1,664,1814,0,0
-553,-790,0,0,0,0,0,0,0,0,0,-1,671,1814,0,0
-546,-790,0,0,0,0,0,0,0,0,0,-1,678,1814,0,0
-539,-790,0,0,0,0,0,0,0,0,0,-1,685,1814,0,0
-532,-790,0,0,0,0,0,0,0,0,0,-1,692,1814,0,0
-525,-790,0,0,0,0,0,0,0,0,0,-1,699,1814,0,0
-518,-790,0,0,0,0,0,0,0,0,0,-1,706,1814,0,0
-511,-790,0,0,0,0,0,0,0,0,0,-1,713,1814,0,0
-504,-790,0,0,0,0,0,0,0,0,0,-1,720,1814,0,0
-497,-790,0,0,0,0,0,0,0,0,0,-1,727,1814,0,0
-490,-790,0,0,0,0,0,0,0,0,0,-1,734,1814,0,0
-483,-790,0,0,0,0,0,0,0,0,0,-1,741,1814,0,0
-476,-790,0,0,0,0,0,0,0,0,0,-1,748,1814,0,0
-469,-790,0,0,0,0,0,0,0,0,0,-1,755,1814,0,0
-462,-790,0,0,0,0,0,0,0,0,0,-1,762,1814,0,0
-455,-790,0,0,0,0,0,0,0,0,0,-1,769,1814,0,0
-448,-790,0,0,0,0,0,0,0,0,0,-1,776,1814,0,0
-441,-790,0,0,0,0,0,0,0,0,0,-1,783,1814,0,0
-434,-790,0,0,0,0,0,0,0,0,0,-1,790,1814,0,0
-427,-790,0,0,0,0,0,0,0,0,0,-1,797,1814,0,0
-420,-790,0,0,0,0,0,0,0,0,0,-1,804,1814,0,0
-413,-790,0,0,0,0,0,0,0,0,0,-1,811,1814,0,0
-406,-790,0,0,0,0,0,0,0,0,0,-1,818,1814,0,0
-399,-790,0,0,0,0,0,0,0,0,0,-1,825,1814,0,0
-392,-790,0,0,0,0,0,0,0,0,0,-1,832,1814,0,0
-385,-790,0,0,0,0,0,0,0,0,0,-1,839,1814,0,0
-378,-790,0,0,0,0,0,0,0,0,0,-1,846,1814,0,0
-371,-790,0,0,0,0,0,0,0,0,0,-1,853,1814,0,0
-364,-790,0,0,0,0,0,0,0,0,0,-1,860,1814,0,0
-357,-790,0,0,0,0,0,0,0,0,0,-1,867,1814,0,0
-350,-790,0,0,0,0,0,0,0,0,0,-1,874,1814,0,0
-343,-790,0,0,0,0,0,0,0,0,0,-1,881,1814,0,0
-336,-790,0,0,0,0,0,0,0,0,0,-1,888,1814,0,0
-329,-790,0,0,0,0,0,0,0,0,0,-1,895,1814,0,0
-322,-790,0,0,0,0,0,0,0,0,0,-1,902,1814,0,0
-315,-790,0,0,0,0,0,0,0,0,0,-1,909,1814,0,0
-308,-790,0,0,0,0,0,0,0,0,0,-1,916,1814,0,0
-301,-790,0,0,0,0,0,0,0,0,0,-1,923,1814,0,0
-294,-790,0,0,0,0,0,0,0,0,0,-1,930,1814,0,0
-287,-790,0,0,0,0,0,0,0,0,0,-1,937,1814,0,0
-280,-790,0,0,0,0,0,0,0,0,0,-1,944,1814,0,0
-273,-790,0,0,0,0,0,0,0,0,0,-1,951,1814,0,0
-266,-790,0,0,0,0,0,0,0,0,0,-1,958,1814,0,0
-259,-790,0,0,0,0,0,0,0,0,0,-1,965,1814,0,0
-252,-790,0,0,0,0,0,0,0,0,0,-1,972,1814,0,0
-245,-790,0,0,0,0,0,0,0,0,0,-1,979,1814,0,0
-238,-790,0,0,0,0,0,0,0,0,0,-1,986,1814,0,0
-231,-790,0,0,0,0,0,0,0,0,0,-1,993,1814,0,0
-224,-790,0,0,0,0,0,0,0,0,0,-1,1000,1814,0,0
-217,-790,0,0,0,0,0,0,0,0,0,-1,1007,1814,0,0
-210,-790,0,0,0,0,0,0,0,0,0,-1,1014,1814,0,0
-203,-790,0,0,0,0,0,0,0,0,0,-1,1021,1814,0,0
-196,-790,0,0,0,0,0,0,0,0,0,-1,1028,1814,0,0
-189,-790,0,0,0,0,0,0,0,0,0,-1,1035,1814,0,0
-182,-790,0,0,0,0,0,0,0,0,0,-1,1042,1814,0,0
-175,-790,0,0,0,0,0,0,0,0,0,-1,1049,1814,0,0
-168,-790,0,0,0,0,0,0,0,0,0,-1,1056,1814,0,0
-161,-790,0,0,0,0,0,0,0,0,0,-1,1063,1814,0,0
-154,-790,0,0,0,0,0,0,0,0,0,-1,1070,1814,0,0
-147,-790,0,0,0,0,0,0,0,0,0,-1,1077,1814,0,0
-140,-790,0,0,0,0,0,0,0,0,0,-1,1084,1814,0,0
-133,-790,0,0,0,0,0,0,0,0,0,-1,1091,1814,0,0
-126,-790,0,0,0,0,0,0,0,0,0,-1,1098,1814,0,0
-119,-790,0,0,0,0,0,0,0,0,0,-1,1105,1814,0,0
-112,-790,0,0,0,0,0,0,0,0,0,-1,1112,1814,0,0
-105,-790,0,0,0,0,0,0,0,0,0,-1,1119,1814,0,0
-98,-790,0,0,0,0,0,0,0,0,0,-1,1126,1814,0,0
-91,-790,0,0,0,0,0,0,0,0,0,-1,1133,1814,0,0
-84,-790,0,0,0,0,0,0,0,0,0,-1,1140,1814,0,0
-77,-790,-0.969238,5.30847,0,0,0,0,0,0,0,-1,1147,1814,-0.969277,-5.3085
-70,-790,-1.23169,4.98914,0,0,0,0,0,0,0,-1,1154,1814,-1.23163,-4.98916
-63,-790,-1.69128,4.32263,0,0,0,0,0,0,0,-1,1161,1814,-1.69128,-4.32258
-56,-790,-2.24756,3.75305,0,0,0,0,0,0,0,-1,1168,1814,-2.24758,-3.75302
-49,-790,-3.11011,3.35779,0,0,0,0,0,0,0,-1,1175,1814,-3.11006,-3.35781
-42,-790,0.593262,1.19165,0,0,0,0,0,0,0,-1,1182,1814,0.593225,-1.19165
-35,-790,0.307129,-0.20105,0,0,0,0,0,0,0,-1,1189,1814,0.307178,0.201006
-28,-790,-2.78467,0.785156,0,0,0,0,0,0,0,-1,1196,1814,-2.78471,-0.785183
-21,-790,2.82043,19.0759,0,0,0,0,0,0,0,-1,1203,1814,2.82042,-19.0759
-14,-790,3.21606,19.2926,0.0841407,-0.0771494,0.0148658,0.0854994,-0.0785081,0.091145,0.0947185,0.0479047,1210,1814,3.216,-19.2926
-7,-790,3.55884,19.5076,0.0777717,-0.0672265,0.0139675,0.0791049,-0.0685597,0.0951627,0.0853266,0.0451346,1217,1814,3.55885,-19.5075
0,-790,3.91675,19.7039,0,0,0,0,0,0,0,-1,1224,1814,3.91674,-19.7039
7,-790,4.41687,19.5687,0.0601897,-0.0507201,0.0135979,0.0618326,-0.0523629,0.120231,0.0660063,0.0457528,1231,1814,4.41692,-19.5688
14,-790,5.43591,19.4631,0.0505908,-0.0449489,0.0133259,0.0524147,-0.0467728,0.136022,0.0572968,0.0457271,1238,1814,5.43597,-19.4632
21,-790,5.8634,20.0421,0,0,0,0,0,0,0,-1,1245,1814,5.86341,-20.0421
28,-790,5.74695,20.3467,0.0333632,-0.0365742,0.0120015,0.0353654,-0.0385764,0.165306,0.0427037,0.0436916,1252,1814,5.74697,-20.3466
35,-790,5.62781,20.6581,0.0263064,-0.0317401,0.0110327,0.0283326,-0.0337663,0.181632,0.0358986,0.0465182,1259,1814,5.62778,-20.658
42,-790,5.52258,20.8792,0,0,0,0,0,0,0,-1,1266,1814,5.52256,-20.8791
49,-790,5.88745,22.5033,0,0,0,0,0,0,0,-1,1273,1814,5.88745,-22.5034
56,-790,4.56128,20.8837,0,0,0,0,0,0,0,-1,1280,1814,4.56128,-20.8837
63,-790,4.42908,20.7434,0.0120168,-0.0153373,0.00743592,0.0139075,-0.017228,0.248988,0.0180101,0.0445685,1287,1814,4.42907,-20.7434
70,-790,4.46375,20.4135,0.0125375,-0.0123837,0.0101449,0.0161451,-0.0159912,0.341657,0.018554,0.0427912,1294,1814,4.46372,-20.4134
77,-790,4.40454,20.1332,0.0180358,-0.0101273,0.0107132,0.0216479,-0.0137394,0.325188,0.0206002,0.043666,1301,1814,4.40458,-20.1332
84,-790,4.08301,19.4395,0,0,0,0,0,0,0,-1,1308,1814,4.08295,-19.4394
91,-790,4.15283,19.1552,0,0,0,0,0,0,0,-1,1315,1814,4.15287,-19.1552
98,-790,6.88354,20.9657,0,0,0,0,0,0,0,-1,1322,1814,6.88354,-20.9657
105,-790,4.14478,19.6221,0,0,0,0,0,0,0,-1,1329,1814,4.14483,-19.6221
112,-790,4.25012,20.4208,0.0504407,0.00569164,0.00114008,0.0504698,0.00566262,0.0254552,0.0319268,0.0471852,1336,1814,4.25016,-20.4208
119,-790,4.42126,21.1863,0.0582135,0.00844294,-0.00293044,0.0583855,0.008271,-0.0586091,0.0364805,0.0451726,1343,1814,4.42131,-21.1862
126,-790,4.70422,21.9412,0.0652554,0.0121293,-0.0105995,0.0672921,0.0100926,-0.189837,0.0419043,0.0495169,1350,1814,4.70417,-21.9412
133,-790,5.3302,22.7369,0,0,0,0,0,0,0,-1,1357,1814,5.33024,-22.7369
140,-790,5.3479,18.0858,0,0,0,0,0,0,0,-1,1364,1814,5.34792,-18.0858
147,-790,4.70789,17.8878,0,0,0,0,0,0,0,-1,1371,1814,4.70794,-17.8878
154,-790,6.34485,-0.540405,0,0,0,0,0,0,0,-1,1378,1814,6.34482,0.540409
161,-790,6.62683,1.1134,0,0,0,0,0,0,0,-1,1385,1814,6.62682,-1.11344
168,-790,7.04077,2.23279,0,0,0,0,0,0,0,-1,1392,1814,7.04082,-2.23275
175,-790,9.03918,3.98535,0,0,0,0,0,0,0,-1,1399,1814,9.0392,-3.98535
182,-790,8.96997,5.67896,0,0,0,0,0,0,0,-1,1406,1814,8.97001,-5.6789
189,-790,8.59729,6.86975,0,0,0,0,0,0,0,-1,1413,1814,8.59728,-6.86972
196,-790,8.21924,9.29053,0,0,0,0,0,0,0,-1,1420,1814,8.21924,-9.29048
203,-790,0,0,0,0,0,0,0,0,0,-1,1427,1814,0,0
210,-790,0,0,0,0,0,0,0,0,0,-1,1434,1814,0,0
217,-790,0,0,0,0,0,0,0,0,0,-1,1441,1814,0,0
224,-790,0,0,0,0,0,0,0,0,0,-1,1448,1814,0,0
231,-790,0,0,0,0,0,0,0,0,0,-1,1455,1814,0,0
238,-790,0,0,0,0,0,0,0,0,0,-1,1462,1814,0,0
245,-790,0,0,0,0,0,0,0,0,0,-1,1469,1814,0,0
252,-790,0,0,0,0,0,0,0,0,0,-1,1476,1814,0,0
259,-790,0,0,0,0,0,0,0,0,0,-1,1483,1814,0,0
266,-790,0,0,0,0,0,0,0,0,0,-1,1490,1814,0,0
273,-790,0,0,0,0,0,0,0,0,0,-1,1497,1814,0,0
280,-790,0,0,0,0,0,0,0,0,0,-1,1504,1814,0,0
287,-790,0,0,0,0,0,0,0,0,0,-1,1511,1814,0,0
294,-790,0,0,0,0,0,0,0,0,0,-1,1518,1814,0,0
301,-790,0,0,0,0,0,0,0,0,0,-1,1525,1814,0,0
308,-790,0,0,0,0,0,0,0,0,0,-1,1532,1814,0,0
315,-790,0,0,0,0,0,0,0,0,0,-1,1539,1814,0,0
322,-790,0,0,0,0,0,0,0,0,0,-1,1546,1814,0,0
329,-790,0,0,0,0,0,0,0,0,0,-1,1553,1814,0,0
336,-790,0,0,0,0,0,0,0,0,0,-1,1560,1814,0,0
343,-790,0,0,0,0,0,0,0,0,0,-1,1567,1814,0,0
350,-790,0,0,0,0,0,0,0,0,0,-1,1574,1814,0,0
357,-790,0,0,0,0,0,0,0,0,0,-1,1581,1814,0,0
364,-790,0,0,0,0,0,0,0,0,0,-1,1588,1814,0,0
371,-790,0,0,0,0,0,0,0,0,0,-1,1595,1814,0,0
378,-790,0,0,0,0,0,0,0,0,0,-1,1602,1814,0,0
385,-790,0,0,0,0,0,0,0,0,0,-1,1609,1814,0,0
392,-790,0,0,0,0,0,0,0,0,0,-1,1616,1814,0,0
399,-790,0,0,0,0,0,0,0,0,0,-1,1623,1814,0,0
406,-790,0,0,0,0,0,0,0,0,0,-1,1630,1814,0,0
413,-790,0,0,0,0,0,0,0,0,0,-1,1637,1814,0,0
420,-790,0,0,0,0,0,0,0,0,0,-1,1644,1814,0,0
427,-790,0,0,0,0,0,0,0,0,0,-1,1651,1814,0,0
434,-790,0,0,0,0,0,0,0,0,0,-1,1658,1814,0,0
441,-790,0,0,0,0,0,0,0,0,0,-1,1665,1814,0,0
448,-790,0,0,0,0,0,0,0,0,0,-1,1672,1814,0,0
455,-790,0,0,0,0,0,0,0,0,0,-1,1679,1814,0,0
462,-790,0,0,0,0,0,0,0,0,0,-1,1686,1814,0,0
469,-790,0,0,0,0,0,0,0,0,0,-1,1693,1814,0,0
476,-790,0,0,0,0,0,0,0,0,0,-1,1700,1814,0,0
483,-790,0,0,0,0,0,0,0,0,0,-1,1707,1814,0,0
490,-790,0,0,0,0,0,0,0,0,0,-1,1714,1814,0,0
497,-790,0,0,0,0,0,0,0,0,0,-1,1721,1814,0,0
504,-790,0,0,0,0,0,0,0,0,0,-1,1728,1814,0,0
511,-790,0,0,0,0,0,0,0,0,0,-1,1735,1814,0,0
518,-790,0,0,0,0,0,0,0,0,0,-1,1742,1814,0,0
525,-790,0,0,0,0,0,0,0,0,0,-1,1749,1814,0,0
532,-790,0,0,0,0,0,0,0,0,0,-1,1756,1814,0,0
539,-790,0,0,0,0,0,0,0,0,0,-1,1763,1814,0,0
546,-790,0,0,0,0,0,0,0,0,0,-1,1770,1814,0,0
553,-790,0,0,0,0,0,0,0,0,0,-1,1777,1814,0,0
560,-790,0,0,0,0,0,0,0,0,0,-1,1784,1814,0,0
567,-790,0,0,0,0,0,0,0,0,0,-1,1791,1814,0,0
574,-790,0,0,0,0,0,0,0,0,0,-1,1798,1814,0,0
581,-790,0,0,0,0,0,0,0,0,0,-1,1805,1814,0,0
588,-790,0,0,0,0,0,0,0,0,0,-1,1812,1814,0,0
595,-790,0,0,0,0,0,0,0,0,0,-1,1819,1814,0,0
602,-790,0,0,0,0,0,0,0,0,0,-1,1826,1814,0,0
609,-790,0,0,0,0,0,0,0,0,0,-1,1833,1814,0,0
616,-790,0,0,0,0,0,0,0,0,0,-1,1840,1814,0,0
623,-790,0,0,0,0,0,0,0,0,0,-1,1847,1814,0,0
630,-790,0,0,0,0,0,0,0,0,0,-1,1854,1814,0,0
637,-790,0,0,0,0,0,0,0,0,0,-1,1861,1814,0,0
644,-790,0,0,0,0,0,0,0,0,0,-1,1868,1814,0,0
651,-790,0,0,0,0,0,0,0,0,0,-1,1875,1814,0,0
658,-790,0,0,0,0,0,0,0,0,0,-1,1882,1814,0,0
665,-790,0,0,0,0,0,0,0,0,0,-1,1889,1814,0,0
672,-790,0,0,0,0,0,0,0,0,0,-1,1896,1814,0,0
679,-790,0,0,0,0,0,0,0,0,0,-1,1903,1814,0,0
686,-790,0,0,0,0,0,0,0,0,0,-1,1910,1814,0,0
693,-790,0,0,0,0,0,0,0,0,0,-1,1917,1814,0,0
700,-790,0,0,0,0,0,0,0,0,0,-1,1924,1814,0,0
707,-790,0,0,0,0,0,0,0,0,0,-1,1931,1814,0,0
714,-790,0,0,0,0,0,0,0,0,0,-1,1938,1814,0,0
721,-790,0,0,0,0,0,0,0,0,0,-1,1945,1814,0,0
728,-790,0,0,0,0,0,0,0,0,0,-1,1952,1814,0,0
735,-790,0,0,0,0,0,0,0,0,0,-1,1959,1814,0,0
742,-790,0,0,0,0,0,0,0,0,0,-1,1966,1814,0,0
749,-790,0,0,0,0,0,0,0,0,0,-1,1973,1814,0,0
756,-790,0,0,0,0,0,0,0,0,0,-1,1980,1814,0,0
763,-790,0,0,0,0,0,0,0,0,0,-1,1987,1814,0,0
770,-790,0,0,0,0,0,0,0,0,0,-1,1994,1814,0,0
777,-790,0,0,0,0,0,0,0,0,0,-1,2001,1814,0,0
784,-790,0,0,0,0,0,0,0,0,0,-1,2008,1814,0,0
791,-790,0,0,0,0,0,0,0,0,0,-1,2015,1814,0,0
798,-790,0,0,0,0,0,0,0,0,0,-1,2022,1814,0,0
805,-790,0,0,0,0,0,0,0,0,0,-1,2029,1814,0,0
812,-790,0,0,0,0,0,0,0,0,0,-1,2036,1814,0,0
-700,-797,0,0,0,0,0,0,0,0,0,-1,524,1821,0,0
-693,-797,0,0,0,0,0,0,0,0,0,-1,531,1821,0,0
-686,-797,0,0,0,0,0,0,0,0,0,-1,538,1821,0,0
-679,-797,0,0,0,0,0,0,0,0,0,-1,545,1821,0,0
-672,-797,0,0,0,0,0,0,0,0,0,-1,552,1821,0,0
-665,-797,0,0,0,0,0,0,0,0,0,-1,559,1821,0,0
-658,-797,0,0,0,0,0,0,0,0,0,-1,566,1821,0,0
-651,-797,0,0,0,0,0,0,0,0,0,-1,573,1821,0,0
-644,-797,0,0,0,0,0,0,0,0,0,-1,580,1821,0,0
-637,-797,0,0,0,0,0,0,0,0,0,-1,587,1821,0,0
-630,-797,0,0,0,0,0,0,0,0,0,-1,594,1821,0,0
-623,-797,0,0,0,0,0,0,0,0,0,-1,601,1821,0,0
-616,-797,0,0,0,0,0,0,0,0,0,-1,608,1821,0,0
-609,-797,0,0,0,0,0,0,0,0,0,-1,615,1821,0,0
-602,-797,0,0,0,0,0,0,0,0,0,-1,622,1821,0,0
-595,-797,0,0,0,0,0,0,0,0,0,-1,629,1821,0,0
-588,-797,0,0,0,0,0,0,0,0,0,-1,636,1821,0,0
-581,-797,0,0,0,0,0,0,0,0,0,-1,643,1821,0,0
-574,-797,0,0,0,0,0,0,0,0,0,-1,650,1821,0,0
-567,-797,0,0,0,0,0,0,0,0,0,-1,657,1821,0,0
-560,-797,0,0,0,0,0,0,0,0,0,-1,664,1821,0,0
-553,-797,0,0,0,0,0,0,0,0,0,-1,671,1821,0,0
-546,-797,0,0,0,0,0,0,0,0,0,-1,678,1821,0,0
-539,-797,0,0,0,0,0,0,0,0,0,-1,685,1821,0,0
-532,-797,0,0,0,0,0,0,0,0,0,-1,692,1821,0,0
-525,-797,0,0,0,0,0,0,0,0,0,-1,699,1821,0,0
-518,-797,0,0,0,0,0,0,0,0,0,-1,706,1821,0,0
-511,-797,0,0,0,0,0,0,0,0,0,-1,713,1821,0,0
-504,-797,0,0,0,0,0,0,0,0,0,-1,720,1821,0,0
-497,-797,0,0,0,0,0,0,0,0,0,-1,727,1821,0,0
-490,-797,0,0,0,0,0,0,0,0,0,-1,734,1821,0,0
-483,-797,0,0,0,0,0,0,0,0,0,-1,741,1821,0,0
-476,-797,0,0,0,0,0,0,0,0,0,-1,748,1821,0,0
-469,-797,0,0,0,0,0,0,0,0,0,-1,755,1821,0,0
-462,-797,0,0,0,0,0,0,0,0,0,-1,762,1821,0,0
-455,-797,0,0,0,0,0,0,0,0,0,-1,769,1821,0,0
-448,-797,0,0,0,0,0,0,0,0,0,-1,776,1821,0,0
-441,-797,0,0,0,0,0,0,0,0,0,-1,783,1821,0,0
-434,-797,0,0,0,0,0,0,0,0,0,-1,790,1821,0,0
-427,-797,0,0,0,0,0,0,0,0,0,-1,797,1821,0,0
-420,-797,0,0,0,0,0,0,0,0,0,-1,804,1821,0,0
-413,-797,0,0,0,0,0,0,0,0,0,-1,811,1821,0,0
-406,-797,0,0,0,0,0,0,0,0,0,-1,818,1821,0,0
-399,-797,0,0,0,0,0,0,0,0,0,-1,825,1821,0,0
-392,-797,0,0,0,0,0,0,0,0,0,-1,832,1821,0,0
-385,-797,0,0,0,0,0,0,0,0,0,-1,839,1821,0,0
-378,-797,0,0,0,0,0,0,0,0,0,-1,846,1821,0,0
-371,-797,0,0,0,0,0,0,0,0,0,-1,853,1821,0,0
-364,-797,0,0,0,0,0,0,0,0,0,-1,860,1821,0,0
-357,-797,0,0,0,0,0,0,0,0,0,-1,867,1821,0,0
-350,-797,0,0,0,0,0,0,0,0,0,-1,874,1821,0,0
-343,-797,0,0,0,0,0,0,0,0,0,-1,881,1821,0,0
-336,-797,0,0,0,0,0,0,0,0,0,-1,888,1821,0,0
-329,-797,0,0,0,0,0,0,0,0,0,-1,895,1821,0,0
-322,-797,0,0,0,0,0,0,0,0,0,-1,902,1821,0,0
-315,-797,0,0,0,0,0,0,0,0,0,-1,909,1821,0,0
-308,-797,0,0,0,0,0,0,0,0,0,-1,916,1821,0,0
-301,-797,0,0,0,0,0,0,0,0,0,-1,923,1821,0,0
-294,-797,0,0,0,0,0,0,0,0,0,-1,930,1821,0,0
-287,-797,0,0,0,0,0,0,0,0,0,-1,937,1821,0,0
-280,-797,0,0,0,0,0,0,0,0,0,-1,944,1821,0,0
-273,-797,0,0,0,0,0,0,0,0,0,-1,951,1821,0,0
-266,-797,0,0,0,0,0,0,0,0,0,-1,958,1821,0,0
-259,-797,0,0,0,0,0,0,0,0,0,-1,965,1821,0,0
-252,-797,0,0,0,0,0,0,0,0,0,-1,972,1821,0,0
-245,-797,0,0,0,0,0,0,0,0,0,-1,979,1821,0,0
-238,-797,0,0,0,0,0,0,0,0,0,-1,986,1821,0,0
-231,-797,0,0,0,0,0,0,0,0,0,-1,993,1821,0,0
-224,-797,0,0,0,0,0,0,0,0,0,-1,1000,1821,0,0
-217,-797,0,0,0,0,0,0,0,0,0,-1,1007,1821,0,0
-210,-797,0,0,0,0,0,0,0,0,0,-1,1014,1821,0,0
-203,-797,0,0,0,0,0,0,0,0,0,-1,1021,1821,0,0
-196,-797,0,0,0,0,0,0,0,0,0,-1,1028,1821,0,0
-189,-797,0,0,0,0,0,0,0,0,0,-1,1035,1821,0,0
-182,-797,0,0,0,0,0,0,0,0,0,-1,1042,1821,0,0
-175,-797,0,0,0,0,0,0,0,0,0,-1,1049,1821,0,0
-168,-797,0,0,0,0,0,0,0,0,0,-1,1056,1821,0,0
-161,-797,0,0,0,0,0,0,0,0,0,-1,1063,1821,0,0
-154,-797,0,0,0,0,0,0,0,0,0,-1,1070,1821,0,0
-147,-797,0,0,0,0,0,0,0,0,0,-1,1077,1821,0,0
-140,-797,0,0,0,0,0,0,0,0,0,-1,1084,1821,0,0
-133,-797,0,0,0,0,0,0,0,0,0,-1,1091,1821,0,0
-126,-797,0,0,0,0,0,0,0,0,0,-1,1098,1821,0,0
-119,-797,0,0,0,0,0,0,0,0,0,-1,1105,1821,0,0
-112,-797,0,0,0,0,0,0,0,0,0,-1,1112,1821,0,0
-105,-797,0,0,0,0,0,0,0,0,0,-1,1119,1821,0,0
-98,-797,0,0,0,0,0,0,0,0,0,-1,1126,1821,0,0
-91,-797,0,0,0,0,0,0,0,0,0,-1,1133,1821,0,0
-84,-797,0,0,0,0,0,0,0,0,0,-1,1140,1821,0,0
-77,-797,0,0,0,0,0,0,0,0,0,-1,1147,1821,0,0
-70,-797,0,0,0,0,0,0,0,0,0,-1,1154,1821,0,0
-63,-797,0,0,0,0,0,0,0,0,0,-1,1161,1821,0,0
-56,-797,0,0,0,0,0,0,0,0,0,-1,1168,1821,0,0
-49,-797,0,0,0,0,0,0,0,0,0,-1,1175,1821,0,0
-42,-797,0.579834,0.692871,0,0,0,0,0,0,0,-1,1182,1821,0.579856,-0.692816
-35,-797,-0.185425,5.55396,0,0,0,0,0,0,0,-1,1189,1821,-0.18542,-5.55396
-28,-797,-0.310181,4.71509,0,0,0,0,0,0,0,-1,1196,1821,-0.310228,-4.71503
-21,-797,4.85986,19.3455,0,0,0,0,0,0,0,-1,1203,1821,4.85986,-19.3455
-14,-797,3.55859,19.5409,0,0,0,0,0,0,0,-1,1210,1821,3.55862,-19.5409
-7,-797,3.92554,19.817,0,0,0,0,0,0,0,-1,1217,1821,3.92555,-19.817
0,-797,4.12659,19.942,0,0,0,0,0,0,0,-1,1224,1821,4.12662,-19.9421
7,-797,4.18799,19.5892,0,0,0,0,0,0,0,-1,1231,1821,4.18793,-19.5893
14,-797,5.95227,20.0084,0.0614098,-0.0527862,0.0152839,0.06342,-0.0547964,0.130773,0.0683128,0.0441455,1238,1821,5.9523,-20.0084
21,-797,5.90015,20.3394,0,0,0,0,0,0,0,-1,1245,1821,5.90015,-20.3393
28,-797,5.77991,20.657,0.0412848,-0.0418349,0.0146501,0.0437913,-0.0443414,0.169452,0.0508838,0.0421535,1252,1821,5.77987,-20.657
35,-797,6.13269,21.1573,0.0331589,-0.0354264,0.0137796,0.0358239,-0.0380914,0.191039,0.0426817,0.0457948,1259,1821,6.13266,-21.1574
42,-797,6.31909,21.7736,0.0259137,-0.0295633,0.0125761,0.0286314,-0.0322811,0.212831,0.0351889,0.0471425,1266,1821,6.31911,-21.7736
49,-797,6.37085,22.8683,0.0201067,-0.0241021,0.0106045,0.0225188,-0.0265143,0.223657,0.0283406,0.0484433,1273,1821,6.3708,-22.8683
56,-797,6.15845,24.0076,0,0,0,0,0,0,0,-1,1280,1821,6.15841,-24.0075
63,-797,4.29272,20.7411,0.0167519,-0.0135257,0.00959127,0.0195345,-0.0163083,0.282364,0.0207218,0.0437071,1287,1821,4.29269,-20.7411
70,-797,4.29968,20.4724,0.0175888,-0.00943173,0.0126865,0.0226116,-0.0144545,0.376981,0.0215722,0.0413969,1294,1821,4.29965,-20.4725
77,-797,4.49622,20.343,0.0237907,-0.00602419,0.0133344,0.0288842,-0.0111177,0.364878,0.0238423,0.0397874,1301,1821,4.4962,-20.343
84,-797,4.58948,20.2864,0.0313788,-0.000125336,0.00934814,0.0339438,-0.00269035,0.267797,0.0235772,0.0443072,1308,1821,4.58952,-20.2863
91,-797,4.96399,20.0422,0,0,0,0,0,0,0,-1,1315,1821,4.96394,-20.0423
98,-797,5.68774,19.8406,0,0,0,0,0,0,0,-1,1322,1821,5.6877,-19.8406
105,-797,4.00916,19.757,0,0,0,0,0,0,0,-1,1329,1821,4.00917,-19.757
112,-797,4.18396,20.5184,0,0,0,0,0,0,0,-1,1336,1821,4.18392,-20.5184
119,-797,4.35864,21.2798,0,0,0,0,0,0,0,-1,1343,1821,4.35866,-21.2798
126,-797,4.90552,21.6669,0,0,0,0,0,0,0,-1,1350,1821,4.90553,-21.6669
133,-797,6.14539,17.7271,0,0,0,0,0,0,0,-1,1357,1821,6.14541,-17.727
140,-797,5.7229,17.7655,0,0,0,0,0,0,0,-1,1364,1821,5.7229,-17.7655
147,-797,5.49902,17.5623,0,0,0,0,0,0,0,-1,1371,1821,5.49907,-17.5622
154,-797,14.49,10.5256,0,0,0,0,0,0,0,-1,1378,1821,14.49,-10.5256
161,-797,6.79199,1.12952,0,0,0,0,0,0,0,-1,1385,1821,6.79203,-1.12957
168,-797,0,0,0,0,0,0,0,0,0,-1,1392,1821,0,0
175,-797,0,0,0,0,0,0,0,0,0,-1,1399,1821,0,0
182,-797,0,0,0,0,0,0,0,0,0,-1,1406,1821,0,0
189,-797,0,0,0,0,0,0,0,0,0,-1,1413,1821,0,0
196,-797,0,0,0,0,0,0,0,0,0,-1,1420,1821,0,0
203,-797,0,0,0,0,0,0,0,0,0,-1,1427,1821,0,0
210,-797,0,0,0,0,0,0,0,0,0,-1,1434,1821,0,0
217,-797,0,0,0,0,0,0,0,0,0,-1,1441,1821,0,0
224,-797,0,0,0,0,0,0,0,0,0,-1,1448,1821,0,0
231,-797,0,0,0,0,0,0,0,0,0,-1,1455,1821,0,0
238,-797,0,0,0,0,0,0,0,0,0,-1,1462,1821,0,0
245,-797,0,0,0,0,0,0,0,0,0,-1,1469,1821,0,0
252,-797,0,0,0,0,0,0,0,0,0,-1,1476,1821,0,0
259,-797,0,0,0,0,0,0,0,0,0,-1,1483,1821,0,0
266,-797,0,0,0,0,0,0,0,0,0,-1,1490,1821,0,0
273,-797,0,0,0,0,0,0,0,0,0,-1,1497,1821,0,0
280,-797,0,0,0,0,0,0,0,0,0,-1,1504,1821,0,0
287,-797,0,0,0,0,0,0,0,0,0,-1,1511,1821,0,0
294,-797,0,0,0,0,0,0,0,0,0,-1,1518,1821,0,0
301,-797,0,0,0,0,0,0,0,0,0,-1,1525,1821,0,0
308,-797,0,0,0,0,0,0,0,0,0,-1,1532,1821,0,0
315,-797,0,0,0,0,0,0,0,0,0,-1,1539,1821,0,0
322,-797,0,0,0,0,0,0,0,0,0,-1,1546,1821,0,0
329,-797,0,0,0,0,0,0,0,0,0,-1,1553,1821,0,0
336,-797,0,0,0,0,0,0,0,0,0,-1,1560,1821,0,0
343,-797,0,0,0,0,0,0,0,0,0,-1,1567,1821,0,0
350,-797,0,0,0,0,0,0,0,0,0,-1,1574,1821,0,0
357,-797,0,0,0,0,0,0,0,0,0,-1,1581,1821,0,0
364,-797,0,0,0,0,0,0,0,0,0,-1,1588,1821,0,0
371,-797,0,0,0,0,0,0,0,0,0,-1,1595,1821,0,0
378,-797,0,0,0,0,0,0,0,0,0,-1,1602,1821,0,0
385,-797,0,0,0,0,0,0,0,0,0,-1,1609,1821,0,0
392,-797,0,0,0,0,0,0,0,0,0,-1,1616,1821,0,0
399,-797,0,0,0,0,0,0,0,0,0,-1,1623,1821,0,0
406,-797,0,0,0,0,0,0,0,0,0,-1,1630,1821,0,0
413,-797,0,0,0,0,0,0,0,0,0,-1,1637,1821,0,0
420,-797,0,0,0,0,0,0,0,0,0,-1,1644,1821,0,0
427,-797,0,0,0,0,0,0,0,0,0,-1,1651,1821,0,0
434,-797,0,0,0,0,0,0,0,0,0,-1,1658,1821,0,0
441,-797,0,0,0,0,0,0,0,0,0,-1,1665,1821,0,0
448,-797,0,0,0,0,0,0,0,0,0,-1,1672,1821,0,0
455,-797,0,0,0,0,0,0,0,0,0,-1,1679,1821,0,0
462,-797,0,0,0,0,0,0,0,0,0,-1,1686,1821,0,0
469,-797,0,0,0,0,0,0,0,0,0,-1,1693,1821,0,0
476,-797,0,0,0,0,0,0,0,0,0,-1,1700,1821,0,0
483,-797,0,0,0,0,0,0,0,0,0,-1,1707,1821,0,0
490,-797,0,0,0,0,0,0,0,0,0,-1,1714,1821,0,0
497,-797,0,0,0,0,0,0,0,0,0,-1,1721,1821,0,0
504,-797,0,0,0,0,0,0,0,0,0,-1,1728,1821,0,0
511,-797,0,0,0,0,0,0,0,0,0,-1,1735,1821,0,0
518,-797,0,0,0,0,0,0,0,0,0,-1,1742,1821,0,0
525,-797,0,0,0,0,0,0,0,0,0,-1,1749,1821,0,0
532,-797,0,0,0,0,0,0,0,0,0,-1,1756,1821,0,0
539,-797,0,0,0,0,0,0,0,0,0,-1,1763,1821,0,0
546,-797,0,0,0,0,0,0,0,0,0,-1,1770,1821,0,0
553,-797,0,0,0,0,0,0,0,0,0,-1,1777,1821,0,0
560,-797,0,0,0,0,0,0,0,0,0,-1,1784,1821,0,0
567,-797,0,0,0,0,0,0,0,0,0,-1,1791,1821,0,0
574,-797,0,0,0,0,0,0,0,0,0,-1,1798,1821,0,0
581,-797,0,0,0,0,0,0,0,0,0,-1,1805,1821,0,0
588,-797,0,0,0,0,0,0,0,0,0,-1,1812,1821,0,0
595,-797,0,0,0,0,0,0,0,0,0,-1,1819,1821,0,0
602,-797,0,0,0,0,0,0,0,0,0,-1,1826,1821,0,0
609,-797,0,0,0,0,0,0,0,0,0,-1,1833,1821,0,0
616,-797,0,0,0,0,0,0,0,0,0,-1,1840,1821,0,0
623,-797,0,0,0,0,0,0,0,0,0,-1,1847,1821,0,0
630,-797,0,0,0,0,0,0,0,0,0,-1,1854,1821,0,0
637,-797,0,0,0,0,0,0,0,0,0,-1,1861,1821,0,0
644,-797,0,0,0,0,0,0,0,0,0,-1,1868,1821,0,0
651,-797,0,0,0,0,0,0,0,0,0,-1,1875,1821,0,0
658,-797,0,0,0,0,0,0,0,0,0,-1,1882,1821,0,0
665,-797,0,0,0,0,0,0,0,0,0,-1,1889,1821,0,0
672,-797,0,0,0,0,0,0,0,0,0,-1,1896,1821,0,0
679,-797,0,0,0,0,0,0,0,0,0,-1,1903,1821,0,0
686,-797,0,0,0,0,0,0,0,0,0,-1,1910,1821,0,0
693,-797,0,0,0,0,0,0,0,0,0,-1,1917,1821,0,0
700,-797,0,0,0,0,0,0,0,0,0,-1,1924,1821,0,0
707,-797,0,0,0,0,0,0,0,0,0,-1,1931,1821,0,0
714,-797,0,0,0,0,0,0,0,0,0,-1,1938,1821,0,0
721,-797,0,0,0,0,0,0,0,0,0,-1,1945,1821,0,0
728,-797,0,0,0,0,0,0,0,0,0,-1,1952,1821,0,0
735,-797,0,0,0,0,0,0,0,0,0,-1,1959,1821,0,0
742,-797,0,0,0,0,0,0,0,0,0,-1,1966,1821,0,0
749,-797,0,0,0,0,0,0,0,0,0,-1,1973,1821,0,0
756,-797,0,0,0,0,0,0,0,0,0,-1,1980,1821,0,0
763,-797,0,0,0,0,0,0,0,0,0,-1,1987,1821,0,0
770,-797,0,0,0,0,0,0,0,0,0,-1,1994,1821,0,0
777,-797,0,0,0,0,0,0,0,0,0,-1,2001,1821,0,0
784,-797,0,0,0,0,0,0,0,0,0,-1,2008,1821,0,0
791,-797,0,0,0,0,0,0,0,0,0,-1,2015,1821,0,0
798,-797,0,0,0,0,0,0,0,0,0,-1,2022,1821,0,0
805,-797,0,0,0,0,0,0,0,0,0,-1,2029,1821,0,0
812,-797,0,0,0,0,0,0,0,0,0,-1,2036,1821,0,0
-700,-804,0,0,0,0,0,0,0,0,0,-1,524,1828,0,0
-693,-804,0,0,0,0,0,0,0,0,0,-1,531,1828,0,0
-686,-804,0,0,0,0,0,0,0,0,0,-1,538,1828,0,0
-679,-804,0,0,0,0,0,0,0,0,0,-1,545,1828,0,0
-672,-804,0,0,0,0,0,0,0,0,0,-1,552,1828,0,0
-665,-804,0,0,0,0,0,0,0,0,0,-1,559,1828,0,0
-658,-804,0,0,0,0,0,0,0,0,0,-1,566,1828,0,0
-651,-804,0,0,0,0,0,0,0,0,0,-1,573,1828,0,0
-644,-804,0,0,0,0,0,0,0,0,0,-1,580,1828,0,0
-637,-804,0,0,0,0,0,0,0,0,0,-1,587,1828,0,0
-630,-804,0,0,0,0,0,0,0,0,0,-1,594,1828,0,0
-623,-804,0,0,0,0,0,0,0,0,0,-1,601,1828,0,0
-616,-804,0,0,0,0,0,0,0,0,0,-1,608,1828,0,0
-609,-804,0,0,0,0,0,0,0,0,0,-1,615,1828,0,0
-602,-804,0,0,0,0,0,0,0,0,0,-1,622,1828,0,0
-595,-804,0,0,0,0,0,0,0,0,0,-1,629,1828,0,0
-588,-804,0,0,0,0,0,0,0,0,0,-1,636,1828,0,0
-581,-804,0,0,0,0,0,0,0,0,0,-1,643,1828,0,0
-574,-804,0,0,0,0,0,0,0,0,0,-1,650,1828,0,0
-567,-804,0,0,0,0,0,0,0,0,0,-1,657,1828,0,0
-560,-804,0,0,0,0,0,0,0,0,0,-1,664,1828,0,0
-553,-804,0,0,0,0,0,0,0,0,0,-1,671,1828,0,0
-546,-804,0,0,0,0,0,0,0,0,0,-1,678,1828,0,0
-539,-804,0,0,0,0,0,0,0,0,0,-1,685,1828,0,0
-532,-804,0,0,0,0,0,0,0,0,0,-1,692,1828,0,0
-525,-804,0,0,0,0,0,0,0,0,0,-1,699,1828,0,0
-518,-804,0,0,0,0,0,0,0,0,0,-1,706,1828,0,0
-511,-804,0,0,0,0,0,0,0,0,0,-1,713,1828,0,0
-504,-804,0,0,0,0,0,0,0,0,0,-1,720,1828,0,0
-497,-804,0,0,0,0,0,0,0,0,0,-1,727,1828,0,0
-490,-804,0,0,0,0,0,0,0,0,0,-1,734,1828,0,0
-483,-804,0,0,0,0,0,0,0,0,0,-1,741,1828,0,0
-476,-804,0,0,0,0,0,0,0,0,0,-1,748,1828,0,0
-469,-804,0,0,0,0,0,0,0,0,0,-1,755,1828,0,0
-462,-804,0,0,0,0,0,0,0,0,0,-1,762,1828,0,0
-455,-804,0,0,0,0,0,0,0,0,0,-1,769,1828,0,0
-448,-804,0,0,0,0,0,0,0,0,0,-1,776,1828,0,0
-441,-804,0,0,0,0,0,0,0,0,0,-1,783,1828,0,0
-434,-804,0,0,0,0,0,0,0,0,0,-1,790,1828,0,0
-427,-804,0,0,0,0,0,0,0,0,0,-1,797,1828,0,0
-420,-804,0,0,0,0,0,0,0,0,0,-1,804,1828,0,0
-413,-804,0,0,0,0,0,0,0,0,0,-1,811,1828,0,0
-406,-804,0,0,0,0,0,0,0,0,0,-1,818,1828,0,0
-399,-804,0,0,0,0,0,0,0,0,0,-1,825,1828,0,0
-392,-804,0,0,0,0,0,0,0,0,0,-1,832,1828,0,0
-385,-804,0,0,0,0,0,0,0,0,0,-1,839,1828,0,0
-378,-804,0,0,0,0,0,0,0,0,0,-1,846,1828,0,0
-371,-804,0,0,0,0,0,0,0,0,0,-1,853,1828,0,0
-364,-804,0,0,0,0,0,0,0,0,0,-1,860,1828,0,0
-357,-804,0,0,0,0,0,0,0,0,0,-1,867,1828,0,0
-350,-804,0,0,0,0,0,0,0,0,0,-1,874,1828,0,0
-343,-804,0,0,0,0,0,0,0,0,0,-1,881,1828,0,0
-336,-804,0,0,0,0,0,0,0,0,0,-1,888,1828,0,0
-329,-804,0,0,0,0,0,0,0,0,0,-1,895,1828,0,0
-322,-804,0,0,0,0,0,0,0,0,0,-1,902,1828,0,0
-315,-804,0,0,0,0,0,0,0,0,0,-1,909,1828,0,0
-308,-804,0,0,0,0,0,0,0,0,0,-1,916,1828,0,0
-301,-804,0,0,0,0,0,0,0,0,0,-1,923,1828,0,0
-294,-804,0,0,0,0,0,0,0,0,0,-1,930,1828,0,0
-287,-804,0,0,0,0,0,0,0,0,0,-1,937,1828,0,0
-280,-804,0,0,0,0,0,0,0,0,0,-1,944,1828,0,0
-273,-804,0,0,0,0,0,0,0,0,0,-1,951,1828,0,0
-266,-804,0,0,0,0,0,0,0,0,0,-1,958,1828,0,0
-259,-804,0,0,0,0,0,0,0,0,0,-1,965,1828,0,0
-252,-804,0,0,0,0,0,0,0,0,0,-1,972,1828,0,0
-245,-804,0,0,0,0,0,0,0,0,0,-1,979,1828,0,0
-238,-804,0,0,0,0,0,0,0,0,0,-1,986,1828,0,0
-231,-804,0,0,0,0,0,0,0,0,0,-1,993,1828,0,0
-224,-804,0,0,0,0,0,0,0,0,0,-1,1000,1828,0,0
-217,-804,0,0,0,0,0,0,0,0,0,-1,1007,1828,0,0
-210,-804,0,0,0,0,0,0,0,0,0,-1,1014,1828,0,0
-203,-804,0,0,0,0,0,0,0,0,0,-1,1021,1828,0,0
-196,-804,0,0,0,0,0,0,0,0,0,-1,1028,1828,0,0
-189,-804,0,0,0,0,0,0,0,0,0,-1,1035,1828,0,0
-182,-804,0,0,0,0,0,0,0,0,0,-1,1042,1828,0,0
-175,-804,0,0,0,0,0,0,0,0,0,-1,1049,1828,0,0
-168,-804,0,0,0,0,0,0,0,0,0,-1,1056,1828,0,0
-161,-804,0,0,0,0,0,0,0,0,0,-1,1063,1828,0,0
-154,-804,0,0,0,0,0,0,0,0,0,-1,1070,1828,0,0
-147,-804,0,0,0,0,0,0,0,0,0,-1,1077,1828,0,0
-140,-804,0,0,0,0,0,0,0,0,0,-1,1084,1828,0,0
-133,-804,0,0,0,0,0,0,0,0,0,-1,1091,1828,0,0
-126,-804,0,0,0,0,0,0,0,0,0,-1,1098,1828,0,0
-119,-804,0,0,0,0,0,0,0,0,0,-1,1105,1828,0,0
-112,-804,0,0,0,0,0,0,0,0,0,-1,1112,1828,0,0
-105,-804,0,0,0,0,0,0,0,0,0,-1,1119,1828,0,0
-98,-804,0,0,0,0,0,0,0,0,0,-1,1126,1828,0,0
-91,-804,0,0,0,0,0,0,0,0,0,-1,1133,1828,0,0
-84,-804,0,0,0,0,0,0,0,0,0,-1,1140,1828,0,0
-77,-804,0,0,0,0,0,0,0,0,0,-1,1147,1828,0,0
-70,-804,0,0,0,0,0,0,0,0,0,-1,1154,1828,0,0
-63,-804,0,0,0,0,0,0,0,0,0,-1,1161,1828,0,0
-56,-804,0,0,0,0,0,0,0,0,0,-1,1168,1828,0,0
-49,-804,0,0,0,0,0,0,0,0,0,-1,1175,1828,0,0
-42,-804,0,0,0,0,0,0,0,0,0,-1,1182,1828,0,0
-35,-804,0,0,0,0,0,0,0,0,0,-1,1189,1828,0,0
-28,-804,0,0,0,0,0,0,0,0,0,-1,1196,1828,0,0
-21,-804,0,0,0,0,0,0,0,0,0,-1,1203,1828,0,0
-14,-804,0,0,0,0,0,0,0,0,0,-1,1210,1828,0,0
-7,-804,0,0,0,0,0,0,0,0,0,-1,1217,1828,0,0
0,-804,0,0,0,0,0,0,0,0,0,-1,1224,1828,0,0
7,-804,0,0,0,0,0,0,0,0,0,-1,1231,1828,0,0
14,-804,0,0,0,0,0,0,0,0,0,-1,1238,1828,0,0
21,-804,0,0,0,0,0,0,0,0,0,-1,1245,1828,0,0
28,-804,0,0,0,0,0,0,0,0,0,-1,1252,1828,0,0
35,-804,6.39417,21.5767,0.0404739,-0.037593,0.016936,0.0439897,-0.0411087,0.204686,0.049141,0.0429271,1259,1828,6.39412,-21.5767
42,-804,6.49292,22.1306,0.032593,-0.0303298,0.0158931,0.0363795,-0.0341163,0.233884,0.0407077,0.044821,1266,1828,6.49298,-22.1306
49,-804,6.68591,22.6949,0.0262733,-0.0231751,0.0137618,0.0298453,-0.026747,0.253953,0.0326899,0.0471614,1273,1828,6.68596,-22.695
56,-804,6.84277,23.2358,0,0,0,0,0,0,0,-1,1280,1828,6.84273,-23.2359
63,-804,4.0105,20.8491,0,0,0,0,0,0,0,-1,1287,1828,4.01048,-20.8491
70,-804,4.21094,20.5527,0,0,0,0,0,0,0,-1,1294,1828,4.2109,-20.5527
77,-804,4.41138,20.2563,0,0,0,0,0,0,0,-1,1301,1828,4.41132,-20.2563
84,-804,4.43604,19.3098,0,0,0,0,0,0,0,-1,1308,1828,4.43599,-19.3098
91,-804,0,0,0,0,0,0,0,0,0,-1,1315,1828,0,0
98,-804,0,0,0,0,0,0,0,0,0,-1,1322,1828,0,0
105,-804,0,0,0,0,0,0,0,0,0,-1,1329,1828,0,0
112,-804,0,0,0,0,0,0,0,0,0,-1,1336,1828,0,0
119,-804,0,0,0,0,0,0,0,0,0,-1,1343,1828,0,0
126,-804,0,0,0,0,0,0,0,0,0,-1,1350,1828,0,0
133,-804,0,0,0,0,0,0,0,0,0,-1,1357,1828,0,0
140,-804,0,0,0,0,0,0,0,0,0,-1,1364,1828,0,0
147,-804,0,0,0,0,0,0,0,0,0,-1,1371,1828,0,0
154,-804,0,0,0,0,0,0,0,0,0,-1,1378,1828,0,0
161,-804,0,0,0,0,0,0,0,0,0,-1,1385,1828,0,0
168,-804,0,0,0,0,0,0,0,0,0,-1,1392,1828,0,0
175,-804,0,0,0,0,0,0,0,0,0,-1,1399,1828,0,0
182,-804,0,0,0,0,0,0,0,0,0,-1,1406,1828,0,0
189,-804,0,0,0,0,0,0,0,0,0,-1,1413,1828,0,0
196,-804,0,0,0,0,0,0,0,0,0,-1,1420,1828,0,0
203,-804,0,0,0,0,0,0,0,0,0,-1,1427,1828,0,0
210,-804,0,0,0,0,0,0,0,0,0,-1,1434,1828,0,0
217,-804,0,0,0,0,0,0,0,0,0,-1,1441,1828,0,0
224,-804,0,0,0,0,0,0,0,0,0,-1,1448,1828,0,0
231,-804,0,0,0,0,0,0,0,0,0,-1,1455,1828,0,0
238,-804,0,0,0,0,0,0,0,0,0,-1,1462,1828,0,0
245,-804,0,0,0,0,0,0,0,0,0,-1,1469,1828,0,0
252,-804,0,0,0,0,0,0,0,0,0,-1,1476,1828,0,0
259,-804,0,0,0,0,0,0,0,0,0,-1,1483,1828,0,0
266,-804,0,0,0,0,0,0,0,0,0,-1,1490,1828,0,0
273,-804,0,0,0,0,0,0,0,0,0,-1,1497,1828,0,0
280,-804,0,0,0,0,0,0,0,0,0,-1,1504,1828,0,0
287,-804,0,0,0,0,0,0,0,0,0,-1,1511,1828,0,0
294,-804,0,0,0,0,0,0,0,0,0,-1,1518,1828,0,0
301,-804,0,0,0,0,0,0,0,0,0,-1,1525,1828,0,0
308,-804,0,0,0,0,0,0,0,0,0,-1,1532,1828,0,0
315,-804,0,0,0,0,0,0,0,0,0,-1,1539,1828,0,0
322,-804,0,0,0,0,0,0,0,0,0,-1,1546,1828,0,0
329,-804,0,0,0,0,0,0,0,0,0,-1,1553,1828,0,0
336,-804,0,0,0,0,0,0,0,0,0,-1,1560,1828,0,0
343,-804,0,0,0,0,0,0,0,0,0,-1,1567,1828,0,0
350,-804,0,0,0,0,0,0,0,0,0,-1,1574,1828,0,0
357,-804,0,0,0,0,0,0,0,0,0,-1,1581,1828,0,0
364,-804,0,0,0,0,0,0,0,0,0,-1,1588,1828,0,0
371,-804,0,0,0,0,0,0,0,0,0,-1,1595,1828,0,0
378,-804,0,0,0,0,0,0,0,0,0,-1,1602,1828,0,0
385,-804,0,0,0,0,0,0,0,0,0,-1,1609,1828,0,0
392,-804,0,0,0,0,0,0,0,0,0,-1,1616,1828,0,0
399,-804,0,0,0,0,0,0,0,0,0,-1,1623,1828,0,0
406,-804,0,0,0,0,0,0,0,0,0,-1,1630,1828,0,0
413,-804,0,0,0,0,0,0,0,0,0,-1,1637,1828,0,0
420,-804,0,0,0,0,0,0,0,0,0,-1,1644,1828,0,0
427,-804,0,0,0,0,0,0,0,0,0,-1,1651,1828,0,0
434,-804,0,0,0,0,0,0,0,0,0,-1,1658,1828,0,0
441,-804,0,0,0,0,0,0,0,0,0,-1,1665,1828,0,0
448,-804,0,0,0,0,0,0,0,0,0,-1,1672,1828,0,0
455,-804,0,0,0,0,0,0,0,0,0,-1,1679,1828,0,0
462,-804,0,0,0,0,0,0,0,0,0,-1,1686,1828,0,0
469,-804,0,0,0,0,0,0,0,0,0,-1,1693,1828,0,0
476,-804,0,0,0,0,0,0,0,0,0,-1,1700,1828,0,0
483,-804,0,0,0,0,0,0,0,0,0,-1,1707,1828,0,0
490,-804,0,0,0,0,0,0,0,0,0,-1,1714,1828,0,0
497,-804,0,0,0,0,0,0,0,0,0,-1,1721,1828,0,0
504,-804,0,0,0,0,0,0,0,0,0,-1,1728,1828,0,0
511,-804,0,0,0,0,0,0,0,0,0,-1,1735,1828,0,0
518,-804,0,0,0,0,0,0,0,0,0,-1,1742,1828,0,0
525,-804,0,0,0,0,0,0,0,0,0,-1,1749,1828,0,0
532,-804,0,0,0,0,0,0,0,0,0,-1,1756,1828,0,0
539,-804,0,0,0,0,0,0,0,0,0,-1,1763,1828,0,0
546,-804,0,0,0,0,0,0,0,0,0,-1,1770,1828,0,0
553,-804,0,0,0,0,0,0,0,0,0,-1,1777,1828,0,0
560,-804,0,0,0,0,0,0,0,0,0,-1,1784,1828,0,0
567,-804,0,0,0,0,0,0,0,0,0,-1,1791,1828,0,0
574,-804,0,0,0,0,0,0,0,0,0,-1,1798,1828,0,0
581,-804,0,0,0,0,0,0,0,0,0,-1,1805,1828,0,0
588,-804,0,0,0,0,0,0,0,0,0,-1,1812,1828,0,0
595,-804,0,0,0,0,0,0,0,0,0,-1,1819,1828,0,0
602,-804,0,0,0,0,0,0,0,0,0,-1,1826,1828,0,0
609,-804,0,0,0,0,0,0,0,0,0,-1,1833,1828,0,0
616,-804,0,0,0,0,0,0,0,0,0,-1,1840,1828,0,0
623,-804,0,0,0,0,0,0,0,0,0,-1,1847,1828,0,0
630,-804,0,0,0,0,0,0,0,0,0,-1,1854,1828,0,0
637,-804,0,0,0,0,0,0,0,0,0,-1,1861,1828,0,0
644,-804,0,0,0,0,0,0,0,0,0,-1,1868,1828,0,0
651,-804,0,0,0,0,0,0,0,0,0,-1,1875,1828,0,0
658,-804,0,0,0,0,0,0,0,0,0,-1,1882,1828,0,0
665,-804,0,0,0,0,0,0,0,0,0,-1,1889,1828,0,0
672,-804,0,0,0,0,0,0,0,0,0,-1,1896,1828,0,0
679,-804,0,0,0,0,0,0,0,0,0,-1,1903,1828,0,0
686,-804,0,0,0,0,0,0,0,0,0,-1,1910,1828,0,0
693,-804,0,0,0,0,0,0,0,0,0,-1,1917,1828,0,0
700,-804,0,0,0,0,0,0,0,0,0,-1,1924,1828,0,0
707,-804,0,0,0,0,0,0,0,0,0,-1,1931,1828,0,0
714,-804,0,0,0,0,0,0,0,0,0,-1,1938,1828,0,0
721,-804,0,0,0,0,0,0,0,0,0,-1,1945,1828,0,0
728,-804,0,0,0,0,0,0,0,0,0,-1,1952,1828,0,0
735,-804,0,0,0,0,0,0,0,0,0,-1,1959,1828,0,0
742,-804,0,0,0,0,0,0,0,0,0,-1,1966,1828,0,0
749,-804,0,0,0,0,0,0,0,0,0,-1,1973,1828,0,0
756,-804,0,0,0,0,0,0,0,0,0,-1,1980,1828,0,0
763,-804,0,0,0,0,0,0,0,0,0,-1,1987,1828,0,0
770,-804,0,0,0,0,0,0,0,0,0,-1,1994,1828,0,0
777,-804,0,0,0,0,0,0,0,0,0,-1,2001,1828,0,0
784,-804,0,0,0,0,0,0,0,0,0,-1,2008,1828,0,0
791,-804,0,0,0,0,0,0,0,0,0,-1,2015,1828,0,0
798,-804,0,0,0,0,0,0,0,0,0,-1,2022,1828,0,0
805,-804,0,0,0,0,0,0,0,0,0,-1,2029,1828,0,0
812,-804,0,0,0,0,0,0,0,0,0,-1,2036,1828,0,0

