 "x_c",  "y_c",  "u_c",  "v_c",  "exx",  "eyy",  "exy",  "e1",  "e2",  "gamma",  "e_vonmises",  "sigma",  "x",  "y",  "u",  "v"
-700,715,0,0,0,0,0,0,0,0,0,-1,524,309,0,0
-693,715,0,0,0,0,0,0,0,0,0,-1,531,309,0,0
-686,715,0,0,0,0,0,0,0,0,0,-1,538,309,0,0
-679,715,0,0,0,0,0,0,0,0,0,-1,545,309,0,0
-672,715,0,0,0,0,0,0,0,0,0,-1,552,309,0,0
-665,715,0,0,0,0,0,0,0,0,0,-1,559,309,0,0
-658,715,0,0,0,0,0,0,0,0,0,-1,566,309,0,0
-651,715,0,0,0,0,0,0,0,0,0,-1,573,309,0,0
-644,715,0,0,0,0,0,0,0,0,0,-1,580,309,0,0
-637,715,0,0,0,0,0,0,0,0,0,-1,587,309,0,0
-630,715,0,0,0,0,0,0,0,0,0,-1,594,309,0,0
-623,715,0,0,0,0,0,0,0,0,0,-1,601,309,0,0
-616,715,0,0,0,0,0,0,0,0,0,-1,608,309,0,0
-609,715,0,0,0,0,0,0,0,0,0,-1,615,309,0,0
-602,715,0,0,0,0,0,0,0,0,0,-1,622,309,0,0
-595,715,0,0,0,0,0,0,0,0,0,-1,629,309,0,0
-588,715,0,0,0,0,0,0,0,0,0,-1,636,309,0,0
-581,715,0,0,0,0,0,0,0,0,0,-1,643,309,0,0
-574,715,0,0,0,0,0,0,0,0,0,-1,650,309,0,0
-567,715,0,0,0,0,0,0,0,0,0,-1,657,309,0,0
-560,715,0,0,0,0,0,0,0,0,0,-1,664,309,0,0
-553,715,0,0,0,0,0,0,0,0,0,-1,671,309,0,0
-546,715,0,0,0,0,0,0,0,0,0,-1,678,309,0,0
-539,715,0,0,0,0,0,0,0,0,0,-1,685,309,0,0
-532,715,0,0,0,0,0,0,0,0,0,-1,692,309,0,0
-525,715,0,0,0,0,0,0,0,0,0,-1,699,309,0,0
-518,715,0,0,0,0,0,0,0,0,0,-1,706,309,0,0
-511,715,0,0,0,0,0,0,0,0,0,-1,713,309,0,0
-504,715,0,0,0,0,0,0,0,0,0,-1,720,309,0,0
-497,715,0,0,0,0,0,0,0,0,0,-1,727,309,0,0
-490,715,0,0,0,0,0,0,0,0,0,-1,734,309,0,0
-483,715,0,0,0,0,0,0,0,0,0,-1,741,309,0,0
-476,715,0,0,0,0,0,0,0,0,0,-1,748,309,0,0
-469,715,0,0,0,0,0,0,0,0,0,-1,755,309,0,0
-462,715,0,0,0,0,0,0,0,0,0,-1,762,309,0,0
-455,715,0,0,0,0,0,0,0,0,0,-1,769,309,0,0
-448,715,0,0,0,0,0,0,0,0,0,-1,776,309,0,0
-441,715,0,0,0,0,0,0,0,0,0,-1,783,309,0,0
-434,715,0,0,0,0,0,0,0,0,0,-1,790,309,0,0
-427,715,0,0,0,0,0,0,0,0,0,-1,797,309,0,0
-420,715,0,0,0,0,0,0,0,0,0,-1,804,309,0,0
-413,715,0,0,0,0,0,0,0,0,0,-1,811,309,0,0
-406,715,0,0,0,0,0,0,0,0,0,-1,818,309,0,0
-399,715,0,0,0,0,0,0,0,0,0,-1,825,309,0,0
-392,715,0,0,0,0,0,0,0,0,0,-1,832,309,0,0
-385,715,0,0,0,0,0,0,0,0,0,-1,839,309,0,0
-378,715,0,0,0,0,0,0,0,0,0,-1,846,309,0,0
-371,715,0,0,0,0,0,0,0,0,0,-1,853,309,0,0
-364,715,0,0,0,0,0,0,0,0,0,-1,860,309,0,0
-357,715,0,0,0,0,0,0,0,0,0,-1,867,309,0,0
-350,715,0,0,0,0,0,0,0,0,0,-1,874,309,0,0
-343,715,0,0,0,0,0,0,0,0,0,-1,881,309,0,0
-336,715,0,0,0,0,0,0,0,0,0,-1,888,309,0,0
-329,715,0,0,0,0,0,0,0,0,0,-1,895,309,0,0
-322,715,0,0,0,0,0,0,0,0,0,-1,902,309,0,0
-315,715,0,0,0,0,0,0,0,0,0,-1,909,309,0,0
-308,715,0,0,0,0,0,0,0,0,0,-1,916,309,0,0
-301,715,0,0,0,0,0,0,0,0,0,-1,923,309,0,0
-294,715,0,0,0,0,0,0,0,0,0,-1,930,309,0,0
-287,715,0,0,0,0,0,0,0,0,0,-1,937,309,0,0
-280,715,0,0,0,0,0,0,0,0,0,-1,944,309,0,0
-273,715,0,0,0,0,0,0,0,0,0,-1,951,309,0,0
-266,715,0,0,0,0,0,0,0,0,0,-1,958,309,0,0
-259,715,0,0,0,0,0,0,0,0,0,-1,965,309,0,0
-252,715,0,0,0,0,0,0,0,0,0,-1,972,309,0,0
-245,715,0,0,0,0,0,0,0,0,0,-1,979,309,0,0
-238,715,0,0,0,0,0,0,0,0,0,-1,986,309,0,0
-231,715,0,0,0,0,0,0,0,0,0,-1,993,309,0,0
-224,715,0,0,0,0,0,0,0,0,0,-1,1000,309,0,0
-217,715,0,0,0,0,0,0,0,0,0,-1,1007,309,0,0
-210,715,0,0,0,0,0,0,0,0,0,-1,1014,309,0,0
-203,715,0,0,0,0,0,0,0,0,0,-1,1021,309,0,0
-196,715,0,0,0,0,0,0,0,0,0,-1,1028,309,0,0
-189,715,0,0,0,0,0,0,0,0,0,-1,1035,309,0,0
-182,715,0,0,0,0,0,0,0,0,0,-1,1042,309,0,0
-175,715,0,0,0,0,0,0,0,0,0,-1,1049,309,0,0
-168,715,0,0,0,0,0,0,0,0,0,-1,1056,309,0,0
-161,715,0,0,0,0,0,0,0,0,0,-1,1063,309,0,0
-154,715,0,0,0,0,0,0,0,0,0,-1,1070,309,0,0
-147,715,0,0,0,0,0,0,0,0,0,-1,1077,309,0,0
-140,715,0,0,0,0,0,0,0,0,0,-1,1084,309,0,0
-133,715,0,0,0,0,0,0,0,0,0,-1,1091,309,0,0
-126,715,0,0,0,0,0,0,0,0,0,-1,1098,309,0,0
-119,715,0,0,0,0,0,0,0,0,0,-1,1105,309,0,0
-112,715,0,0,0,0,0,0,0,0,0,-1,1112,309,0,0
-105,715,0,0,0,0,0,0,0,0,0,-1,1119,309,0,0
-98,715,0,0,0,0,0,0,0,0,0,-1,1126,309,0,0
-91,715,0,0,0,0,0,0,0,0,0,-1,1133,309,0,0
-84,715,0,0,0,0,0,0,0,0,0,-1,1140,309,0,0
-77,715,0,0,0,0,0,0,0,0,0,-1,1147,309,0,0
-70,715,0,0,0,0,0,0,0,0,0,-1,1154,309,0,0
-63,715,0,0,0,0,0,0,0,0,0,-1,1161,309,0,0
-56,715,0,0,0,0,0,0,0,0,0,-1,1168,309,0,0
-49,715,0,0,0,0,0,0,0,0,0,-1,1175,309,0,0
-42,715,0,0,0,0,0,0,0,0,0,-1,1182,309,0,0
-35,715,0,0,0,0,0,0,0,0,0,-1,1189,309,0,0
-28,715,0,0,0,0,0,0,0,0,0,-1,1196,309,0,0
-21,715,0,0,0,0,0,0,0,0,0,-1,1203,309,0,0
-14,715,0,0,0,0,0,0,0,0,0,-1,1210,309,0,0
-7,715,0,0,0,0,0,0,0,0,0,-1,1217,309,0,0
0,715,0,0,0,0,0,0,0,0,0,-1,1224,309,0,0
7,715,0,0,0,0,0,0,0,0,0,-1,1231,309,0,0
14,715,0,0,0,0,0,0,0,0,0,-1,1238,309,0,0
21,715,0,0,0,0,0,0,0,0,0,-1,1245,309,0,0
28,715,0,0,0,0,0,0,0,0,0,-1,1252,309,0,0
35,715,0,0,0,0,0,0,0,0,0,-1,1259,309,0,0
42,715,0,0,0,0,0,0,0,0,0,-1,1266,309,0,0
49,715,0,0,0,0,0,0,0,0,0,-1,1273,309,0,0
56,715,0,0,0,0,0,0,0,0,0,-1,1280,309,0,0
63,715,5.95459,-11.3097,-0.00774779,0.0128948,0.0601503,0.0636029,-0.0584559,0.870367,0.0704915,0.0464472,1287,309,5.95461,11.3097
70,715,5.2312,-10.3034,-0.00888158,0.00602507,0.0566323,0.0556924,-0.0585489,0.850827,0.0659642,0.0458544,1294,309,5.23117,10.3034
77,715,0,0,0,0,0,0,0,0,0,-1,1301,309,0,0
84,715,0,0,0,0,0,0,0,0,0,-1,1308,309,0,0
91,715,0,0,0,0,0,0,0,0,0,-1,1315,309,0,0
98,715,0,0,0,0,0,0,0,0,0,-1,1322,309,0,0
105,715,0,0,0,0,0,0,0,0,0,-1,1329,309,0,0
112,715,0,0,0,0,0,0,0,0,0,-1,1336,309,0,0
119,715,0,0,0,0,0,0,0,0,0,-1,1343,309,0,0
126,715,0,0,0,0,0,0,0,0,0,-1,1350,309,0,0
133,715,0,0,0,0,0,0,0,0,0,-1,1357,309,0,0
140,715,0,0,0,0,0,0,0,0,0,-1,1364,309,0,0
147,715,0,0,0,0,0,0,0,0,0,-1,1371,309,0,0
154,715,0,0,0,0,0,0,0,0,0,-1,1378,309,0,0
161,715,0,0,0,0,0,0,0,0,0,-1,1385,309,0,0
168,715,0,0,0,0,0,0,0,0,0,-1,1392,309,0,0
175,715,0,0,0,0,0,0,0,0,0,-1,1399,309,0,0
182,715,0,0,0,0,0,0,0,0,0,-1,1406,309,0,0
189,715,0,0,0,0,0,0,0,0,0,-1,1413,309,0,0
196,715,0,0,0,0,0,0,0,0,0,-1,1420,309,0,0
203,715,0,0,0,0,0,0,0,0,0,-1,1427,309,0,0
210,715,0,0,0,0,0,0,0,0,0,-1,1434,309,0,0
217,715,0,0,0,0,0,0,0,0,0,-1,1441,309,0,0
224,715,0,0,0,0,0,0,0,0,0,-1,1448,309,0,0
231,715,0,0,0,0,0,0,0,0,0,-1,1455,309,0,0
238,715,0,0,0,0,0,0,0,0,0,-1,1462,309,0,0
245,715,0,0,0,0,0,0,0,0,0,-1,1469,309,0,0
252,715,0,0,0,0,0,0,0,0,0,-1,1476,309,0,0
259,715,0,0,0,0,0,0,0,0,0,-1,1483,309,0,0
266,715,0,0,0,0,0,0,0,0,0,-1,1490,309,0,0
273,715,0,0,0,0,0,0,0,0,0,-1,1497,309,0,0
280,715,0,0,0,0,0,0,0,0,0,-1,1504,309,0,0
287,715,0,0,0,0,0,0,0,0,0,-1,1511,309,0,0
294,715,0,0,0,0,0,0,0,0,0,-1,1518,309,0,0
301,715,0,0,0,0,0,0,0,0,0,-1,1525,309,0,0
308,715,0,0,0,0,0,0,0,0,0,-1,1532,309,0,0
315,715,0,0,0,0,0,0,0,0,0,-1,1539,309,0,0
322,715,0,0,0,0,0,0,0,0,0,-1,1546,309,0,0
329,715,0,0,0,0,0,0,0,0,0,-1,1553,309,0,0
336,715,0,0,0,0,0,0,0,0,0,-1,1560,309,0,0
343,715,0,0,0,0,0,0,0,0,0,-1,1567,309,0,0
350,715,0,0,0,0,0,0,0,0,0,-1,1574,309,0,0
357,715,0,0,0,0,0,0,0,0,0,-1,1581,309,0,0
364,715,0,0,0,0,0,0,0,0,0,-1,1588,309,0,0
371,715,0,0,0,0,0,0,0,0,0,-1,1595,309,0,0
378,715,0,0,0,0,0,0,0,0,0,-1,1602,309,0,0
385,715,0,0,0,0,0,0,0,0,0,-1,1609,309,0,0
392,715,0,0,0,0,0,0,0,0,0,-1,1616,309,0,0
399,715,0,0,0,0,0,0,0,0,0,-1,1623,309,0,0
406,715,0,0,0,0,0,0,0,0,0,-1,1630,309,0,0
413,715,0,0,0,0,0,0,0,0,0,-1,1637,309,0,0
420,715,0,0,0,0,0,0,0,0,0,-1,1644,309,0,0
427,715,0,0,0,0,0,0,0,0,0,-1,1651,309,0,0
434,715,0,0,0,0,0,0,0,0,0,-1,1658,309,0,0
441,715,0,0,0,0,0,0,0,0,0,-1,1665,309,0,0
448,715,0,0,0,0,0,0,0,0,0,-1,1672,309,0,0
455,715,0,0,0,0,0,0,0,0,0,-1,1679,309,0,0
462,715,0,0,0,0,0,0,0,0,0,-1,1686,309,0,0
469,715,0,0,0,0,0,0,0,0,0,-1,1693,309,0,0
476,715,0,0,0,0,0,0,0,0,0,-1,1700,309,0,0
483,715,0,0,0,0,0,0,0,0,0,-1,1707,309,0,0
490,715,0,0,0,0,0,0,0,0,0,-1,1714,309,0,0
497,715,0,0,0,0,0,0,0,0,0,-1,1721,309,0,0
504,715,0,0,0,0,0,0,0,0,0,-1,1728,309,0,0
511,715,0,0,0,0,0,0,0,0,0,-1,1735,309,0,0
518,715,0,0,0,0,0,0,0,0,0,-1,1742,309,0,0
525,715,0,0,0,0,0,0,0,0,0,-1,1749,309,0,0
532,715,0,0,0,0,0,0,0,0,0,-1,1756,309,0,0
539,715,0,0,0,0,0,0,0,0,0,-1,1763,309,0,0
546,715,0,0,0,0,0,0,0,0,0,-1,1770,309,0,0
553,715,0,0,0,0,0,0,0,0,0,-1,1777,309,0,0
560,715,0,0,0,0,0,0,0,0,0,-1,1784,309,0,0
567,715,0,0,0,0,0,0,0,0,0,-1,1791,309,0,0
574,715,0,0,0,0,0,0,0,0,0,-1,1798,309,0,0
581,715,0,0,0,0,0,0,0,0,0,-1,1805,309,0,0
588,715,0,0,0,0,0,0,0,0,0,-1,1812,309,0,0
595,715,0,0,0,0,0,0,0,0,0,-1,1819,309,0,0
602,715,0,0,0,0,0,0,0,0,0,-1,1826,309,0,0
609,715,0,0,0,0,0,0,0,0,0,-1,1833,309,0,0
616,715,0,0,0,0,0,0,0,0,0,-1,1840,309,0,0
623,715,0,0,0,0,0,0,0,0,0,-1,1847,309,0,0
630,715,0,0,0,0,0,0,0,0,0,-1,1854,309,0,0
637,715,0,0,0,0,0,0,0,0,0,-1,1861,309,0,0
644,715,0,0,0,0,0,0,0,0,0,-1,1868,309,0,0
651,715,0,0,0,0,0,0,0,0,0,-1,1875,309,0,0
658,715,0,0,0,0,0,0,0,0,0,-1,1882,309,0,0
665,715,0,0,0,0,0,0,0,0,0,-1,1889,309,0,0
672,715,0,0,0,0,0,0,0,0,0,-1,1896,309,0,0
679,715,0,0,0,0,0,0,0,0,0,-1,1903,309,0,0
686,715,0,0,0,0,0,0,0,0,0,-1,1910,309,0,0
693,715,0,0,0,0,0,0,0,0,0,-1,1917,309,0,0
700,715,0,0,0,0,0,0,0,0,0,-1,1924,309,0,0
707,715,0,0,0,0,0,0,0,0,0,-1,1931,309,0,0
714,715,0,0,0,0,0,0,0,0,0,-1,1938,309,0,0
721,715,0,0,0,0,0,0,0,0,0,-1,1945,309,0,0
728,715,0,0,0,0,0,0,0,0,0,-1,1952,309,0,0
735,715,0,0,0,0,0,0,0,0,0,-1,1959,309,0,0
742,715,0,0,0,0,0,0,0,0,0,-1,1966,309,0,0
749,715,0,0,0,0,0,0,0,0,0,-1,1973,309,0,0
756,715,0,0,0,0,0,0,0,0,0,-1,1980,309,0,0
763,715,0,0,0,0,0,0,0,0,0,-1,1987,309,0,0
770,715,0,0,0,0,0,0,0,0,0,-1,1994,309,0,0
777,715,0,0,0,0,0,0,0,0,0,-1,2001,309,0,0
784,715,0,0,0,0,0,0,0,0,0,-1,2008,309,0,0
791,715,0,0,0,0,0,0,0,0,0,-1,2015,309,0,0
798,715,0,0,0,0,0,0,0,0,0,-1,2022,309,0,0
805,715,0,0,0,0,0,0,0,0,0,-1,2029,309,0,0
812,715,0,0,0,0,0,0,0,0,0,-1,2036,309,0,0
-700,708,0,0,0,0,0,0,0,0,0,-1,524,316,0,0
-693,708,0,0,0,0,0,0,0,0,0,-1,531,316,0,0
-686,708,0,0,0,0,0,0,0,0,0,-1,538,316,0,0
-679,708,0,0,0,0,0,0,0,0,0,-1,545,316,0,0
-672,708,0,0,0,0,0,0,0,0,0,-1,552,316,0,0
-665,708,0,0,0,0,0,0,0,0,0,-1,559,316,0,0
-658,708,0,0,0,0,0,0,0,0,0,-1,566,316,0,0
-651,708,0,0,0,0,0,0,0,0,0,-1,573,316,0,0
-644,708,0,0,0,0,0,0,0,0,0,-1,580,316,0,0
-637,708,0,0,0,0,0,0,0,0,0,-1,587,316,0,0
-630,708,0,0,0,0,0,0,0,0,0,-1,594,316,0,0
-623,708,0,0,0,0,0,0,0,0,0,-1,601,316,0,0
-616,708,0,0,0,0,0,0,0,0,0,-1,608,316,0,0
-609,708,0,0,0,0,0,0,0,0,0,-1,615,316,0,0
-602,708,0,0,0,0,0,0,0,0,0,-1,622,316,0,0
-595,708,0,0,0,0,0,0,0,0,0,-1,629,316,0,0
-588,708,0,0,0,0,0,0,0,0,0,-1,636,316,0,0
-581,708,0,0,0,0,0,0,0,0,0,-1,643,316,0,0
-574,708,0,0,0,0,0,0,0,0,0,-1,650,316,0,0
-567,708,0,0,0,0,0,0,0,0,0,-1,657,316,0,0
-560,708,0,0,0,0,0,0,0,0,0,-1,664,316,0,0
-553,708,0,0,0,0,0,0,0,0,0,-1,671,316,0,0
-546,708,0,0,0,0,0,0,0,0,0,-1,678,316,0,0
-539,708,0,0,0,0,0,0,0,0,0,-1,685,316,0,0
-532,708,0,0,0,0,0,0,0,0,0,-1,692,316,0,0
-525,708,0,0,0,0,0,0,0,0,0,-1,699,316,0,0
-518,708,0,0,0,0,0,0,0,0,0,-1,706,316,0,0
-511,708,0,0,0,0,0,0,0,0,0,-1,713,316,0,0
-504,708,0,0,0,0,0,0,0,0,0,-1,720,316,0,0
-497,708,0,0,0,0,0,0,0,0,0,-1,727,316,0,0
-490,708,0,0,0,0,0,0,0,0,0,-1,734,316,0,0
-483,708,0,0,0,0,0,0,0,0,0,-1,741,316,0,0
-476,708,0,0,0,0,0,0,0,0,0,-1,748,316,0,0
-469,708,0,0,0,0,0,0,0,0,0,-1,755,316,0,0
-462,708,0,0,0,0,0,0,0,0,0,-1,762,316,0,0
-455,708,0,0,0,0,0,0,0,0,0,-1,769,316,0,0
-448,708,0,0,0,0,0,0,0,0,0,-1,776,316,0,0
-441,708,0,0,0,0,0,0,0,0,0,-1,783,316,0,0
-434,708,0,0,0,0,0,0,0,0,0,-1,790,316,0,0
-427,708,0,0,0,0,0,0,0,0,0,-1,797,316,0,0
-420,708,0,0,0,0,0,0,0,0,0,-1,804,316,0,0
-413,708,0,0,0,0,0,0,0,0,0,-1,811,316,0,0
-406,708,0,0,0,0,0,0,0,0,0,-1,818,316,0,0
-399,708,0,0,0,0,0,0,0,0,0,-1,825,316,0,0
-392,708,0,0,0,0,0,0,0,0,0,-1,832,316,0,0
-385,708,0,0,0,0,0,0,0,0,0,-1,839,316,0,0
-378,708,0,0,0,0,0,0,0,0,0,-1,846,316,0,0
-371,708,0,0,0,0,0,0,0,0,0,-1,853,316,0,0
-364,708,0,0,0,0,0,0,0,0,0,-1,860,316,0,0
-357,708,0,0,0,0,0,0,0,0,0,-1,867,316,0,0
-350,708,0,0,0,0,0,0,0,0,0,-1,874,316,0,0
-343,708,0,0,0,0,0,0,0,0,0,-1,881,316,0,0
-336,708,0,0,0,0,0,0,0,0,0,-1,888,316,0,0
-329,708,0,0,0,0,0,0,0,0,0,-1,895,316,0,0
-322,708,0,0,0,0,0,0,0,0,0,-1,902,316,0,0
-315,708,0,0,0,0,0,0,0,0,0,-1,909,316,0,0
-308,708,0,0,0,0,0,0,0,0,0,-1,916,316,0,0
-301,708,0,0,0,0,0,0,0,0,0,-1,923,316,0,0
-294,708,0,0,0,0,0,0,0,0,0,-1,930,316,0,0
-287,708,0,0,0,0,0,0,0,0,0,-1,937,316,0,0
-280,708,0,0,0,0,0,0,0,0,0,-1,944,316,0,0
-273,708,0,0,0,0,0,0,0,0,0,-1,951,316,0,0
-266,708,0,0,0,0,0,0,0,0,0,-1,958,316,0,0
-259,708,0,0,0,0,0,0,0,0,0,-1,965,316,0,0
-252,708,0,0,0,0,0,0,0,0,0,-1,972,316,0,0
-245,708,0,0,0,0,0,0,0,0,0,-1,979,316,0,0
-238,708,0,0,0,0,0,0,0,0,0,-1,986,316,0,0
-231,708,0,0,0,0,0,0,0,0,0,-1,993,316,0,0
-224,708,0,0,0,0,0,0,0,0,0,-1,1000,316,0,0
-217,708,0,0,0,0,0,0,0,0,0,-1,1007,316,0,0
-210,708,0,0,0,0,0,0,0,0,0,-1,1014,316,0,0
-203,708,0,0,0,0,0,0,0,0,0,-1,1021,316,0,0
-196,708,0,0,0,0,0,0,0,0,0,-1,1028,316,0,0
-189,708,0,0,0,0,0,0,0,0,0,-1,1035,316,0,0
-182,708,0,0,0,0,0,0,0,0,0,-1,1042,316,0,0
-175,708,0,0,0,0,0,0,0,0,0,-1,1049,316,0,0
-168,708,0,0,0,0,0,0,0,0,0,-1,1056,316,0,0
-161,708,0,0,0,0,0,0,0,0,0,-1,1063,316,0,0
-154,708,0,0,0,0,0,0,0,0,0,-1,1070,316,0,0
-147,708,0,0,0,0,0,0,0,0,0,-1,1077,316,0,0
-140,708,0,0,0,0,0,0,0,0,0,-1,1084,316,0,0
-133,708,0,0,0,0,0,0,0,0,0,-1,1091,316,0,0
-126,708,0,0,0,0,0,0,0,0,0,-1,1098,316,0,0
-119,708,0,0,0,0,0,0,0,0,0,-1,1105,316,0,0
-112,708,0,0,0,0,0,0,0,0,0,-1,1112,316,0,0
-105,708,0,0,0,0,0,0,0,0,0,-1,1119,316,0,0
-98,708,0,0,0,0,0,0,0,0,0,-1,1126,316,0,0
-91,708,0,0,0,0,0,0,0,0,0,-1,1133,316,0,0
-84,708,0,0,0,0,0,0,0,0,0,-1,1140,316,0,0
-77,708,0,0,0,0,0,0,0,0,0,-1,1147,316,0,0
-70,708,0,0,0,0,0,0,0,0,0,-1,1154,316,0,0
-63,708,0,0,0,0,0,0,0,0,0,-1,1161,316,0,0
-56,708,0,0,0,0,0,0,0,0,0,-1,1168,316,0,0
-49,708,0,0,0,0,0,0,0,0,0,-1,1175,316,0,0
-42,708,0,0,0,0,0,0,0,0,0,-1,1182,316,0,0
-35,708,-2.71204,-6.31558,0,0,0,0,0,0,0,-1,1189,316,-2.712,6.3156
-28,708,-2.92371,-5.53253,0,0,0,0,0,0,0,-1,1196,316,-2.92375,5.53254
-21,708,-10.6349,-7.11816,0,0,0,0,0,0,0,-1,1203,316,-10.6349,7.11818
-14,708,1.92627,-14.9867,0,0,0,0,0,0,0,-1,1210,316,1.92628,14.9867
-7,708,2.4895,-14.0587,0,0,0,0,0,0,0,-1,1217,316,2.48954,14.0586
0,708,3.05273,-13.1306,0,0,0,0,0,0,0,-1,1224,316,3.05279,13.1306
7,708,3.41956,-12.2682,0.106997,0.0677922,0.0179298,0.11396,0.060829,0.370432,0.0658449,0.0447431,1231,316,3.41961,12.2682
14,708,4.38782,-11.5043,0.086891,0.0677155,0.0215607,0.1009,0.0537069,0.576184,0.0582948,0.0439761,1238,316,4.3878,11.5043
21,708,4.98303,-10.223,0.0658916,0.0649879,0.0272072,0.0926507,0.0382288,0.777095,0.0537635,0.043918,1245,316,4.98306,10.223
28,708,4.85559,-13.8368,0,0,0,0,0,0,0,-1,1252,316,4.85563,13.8368
35,708,5.32642,-13.7039,0.0300972,0.0451335,0.0415314,0.0798217,-0.00459107,0.87494,0.054809,0.0441179,1259,316,5.32636,13.7038
42,708,5.58508,-13.4185,0.0207066,0.0391038,0.0451169,0.0759503,-0.0161399,0.885962,0.0567833,0.0431131,1266,316,5.5851,13.4185
49,708,5.875,-12.7332,0.0138304,0.0309561,0.0464724,0.069648,-0.0248615,0.876504,0.0565704,0.0419019,1273,316,5.87506,12.7332
56,708,5.82092,-12.0775,0.00757776,0.0209041,0.0484804,0.0631771,-0.0346952,0.853691,0.0572986,0.0420797,1280,316,5.82087,12.0775
63,708,5.28357,-11.3654,0.00326598,0.0166341,0.0458075,0.0562427,-0.0363426,0.857845,0.0538641,0.042655,1287,316,5.28361,11.3654
70,708,4.78516,-10.6162,0.00464713,0.0115386,0.0419285,0.0501627,-0.033977,0.826396,0.0488768,0.0420836,1294,316,4.78514,10.6163
77,708,4.26013,-9.85001,0,0,0,0,0,0,0,-1,1301,316,4.26014,9.85
84,708,5.27026,-14.128,0.0199922,0.0121625,0.0282403,0.0445878,-0.012433,0.716524,0.0346218,0.0450871,1308,316,5.27028,14.128
91,708,5.14819,-14.5127,0.0260635,0.0169622,0.0198323,0.0418605,0.00116521,0.672622,0.0275268,0.0418676,1315,316,5.14819,14.5127
98,708,4.83435,-15.1611,0.0305439,0.0234312,0.0122264,0.0397207,0.0142544,0.643867,0.0232353,0.0454639,1322,316,4.83437,15.1611
105,708,4.95459,-15.9841,0.0341695,0.0302279,0.00585769,0.038379,0.0260184,0.623126,0.022621,0.0476804,1329,316,4.95462,15.9841
112,708,1.08618,-13.721,0.0369455,0.0371221,0.00185198,0.0388879,0.0351798,0.809223,0.0247819,0.0461669,1336,316,1.08622,13.721
119,708,1.97888,-13.4161,0,0,0,0,0,0,0,-1,1343,316,1.97891,13.4161
126,708,2.71863,-12.8539,0.0419644,0.0502554,0.00116874,0.050417,0.0418028,1.4334,0.0311397,0.0432878,1350,316,2.71863,12.854
133,708,3.67859,-12.5117,0.0413359,0.0537315,0.00751086,0.0572716,0.0377959,1.13035,0.0336249,0.048123,1357,316,3.6786,12.5117
140,708,4.6676,-12.2309,0,0,0,0,0,0,0,-1,1364,316,4.66764,12.2309
147,708,3.49329,-12.8955,0,0,0,0,0,0,0,-1,1371,316,3.49324,12.8955
154,708,0,0,0,0,0,0,0,0,0,-1,1378,316,0,0
161,708,0,0,0,0,0,0,0,0,0,-1,1385,316,0,0
168,708,0,0,0,0,0,0,0,0,0,-1,1392,316,0,0
175,708,0,0,0,0,0,0,0,0,0,-1,1399,316,0,0
182,708,0,0,0,0,0,0,0,0,0,-1,1406,316,0,0
189,708,0,0,0,0,0,0,0,0,0,-1,1413,316,0,0
196,708,0,0,0,0,0,0,0,0,0,-1,1420,316,0,0
203,708,0,0,0,0,0,0,0,0,0,-1,1427,316,0,0
210,708,0,0,0,0,0,0,0,0,0,-1,1434,316,0,0
217,708,0,0,0,0,0,0,0,0,0,-1,1441,316,0,0
224,708,0,0,0,0,0,0,0,0,0,-1,1448,316,0,0
231,708,0,0,0,0,0,0,0,0,0,-1,1455,316,0,0
238,708,0,0,0,0,0,0,0,0,0,-1,1462,316,0,0
245,708,0,0,0,0,0,0,0,0,0,-1,1469,316,0,0
252,708,0,0,0,0,0,0,0,0,0,-1,1476,316,0,0
259,708,0,0,0,0,0,0,0,0,0,-1,1483,316,0,0
266,708,0,0,0,0,0,0,0,0,0,-1,1490,316,0,0
273,708,0,0,0,0,0,0,0,0,0,-1,1497,316,0,0
280,708,0,0,0,0,0,0,0,0,0,-1,1504,316,0,0
287,708,0,0,0,0,0,0,0,0,0,-1,1511,316,0,0
294,708,0,0,0,0,0,0,0,0,0,-1,1518,316,0,0
301,708,0,0,0,0,0,0,0,0,0,-1,1525,316,0,0
308,708,0,0,0,0,0,0,0,0,0,-1,1532,316,0,0
315,708,0,0,0,0,0,0,0,0,0,-1,1539,316,0,0
322,708,0,0,0,0,0,0,0,0,0,-1,1546,316,0,0
329,708,0,0,0,0,0,0,0,0,0,-1,1553,316,0,0
336,708,0,0,0,0,0,0,0,0,0,-1,1560,316,0,0
343,708,0,0,0,0,0,0,0,0,0,-1,1567,316,0,0
350,708,0,0,0,0,0,0,0,0,0,-1,1574,316,0,0
357,708,0,0,0,0,0,0,0,0,0,-1,1581,316,0,0
364,708,0,0,0,0,0,0,0,0,0,-1,1588,316,0,0
371,708,0,0,0,0,0,0,0,0,0,-1,1595,316,0,0
378,708,0,0,0,0,0,0,0,0,0,-1,1602,316,0,0
385,708,0,0,0,0,0,0,0,0,0,-1,1609,316,0,0
392,708,0,0,0,0,0,0,0,0,0,-1,1616,316,0,0
399,708,0,0,0,0,0,0,0,0,0,-1,1623,316,0,0
406,708,0,0,0,0,0,0,0,0,0,-1,1630,316,0,0
413,708,0,0,0,0,0,0,0,0,0,-1,1637,316,0,0
420,708,0,0,0,0,0,0,0,0,0,-1,1644,316,0,0
427,708,0,0,0,0,0,0,0,0,0,-1,1651,316,0,0
434,708,0,0,0,0,0,0,0,0,0,-1,1658,316,0,0
441,708,0,0,0,0,0,0,0,0,0,-1,1665,316,0,0
448,708,0,0,0,0,0,0,0,0,0,-1,1672,316,0,0
455,708,0,0,0,0,0,0,0,0,0,-1,1679,316,0,0
462,708,0,0,0,0,0,0,0,0,0,-1,1686,316,0,0
469,708,0,0,0,0,0,0,0,0,0,-1,1693,316,0,0
476,708,0,0,0,0,0,0,0,0,0,-1,1700,316,0,0
483,708,0,0,0,0,0,0,0,0,0,-1,1707,316,0,0
490,708,0,0,0,0,0,0,0,0,0,-1,1714,316,0,0
497,708,0,0,0,0,0,0,0,0,0,-1,1721,316,0,0
504,708,0,0,0,0,0,0,0,0,0,-1,1728,316,0,0
511,708,0,0,0,0,0,0,0,0,0,-1,1735,316,0,0
518,708,0,0,0,0,0,0,0,0,0,-1,1742,316,0,0
525,708,0,0,0,0,0,0,0,0,0,-1,1749,316,0,0
532,708,0,0,0,0,0,0,0,0,0,-1,1756,316,0,0
539,708,0,0,0,0,0,0,0,0,0,-1,1763,316,0,0
546,708,0,0,0,0,0,0,0,0,0,-1,1770,316,0,0
553,708,0,0,0,0,0,0,0,0,0,-1,1777,316,0,0
560,708,0,0,0,0,0,0,0,0,0,-1,1784,316,0,0
567,708,0,0,0,0,0,0,0,0,0,-1,1791,316,0,0
574,708,0,0,0,0,0,0,0,0,0,-1,1798,316,0,0
581,708,0,0,0,0,0,0,0,0,0,-1,1805,316,0,0
588,708,0,0,0,0,0,0,0,0,0,-1,1812,316,0,0
595,708,0,0,0,0,0,0,0,0,0,-1,1819,316,0,0
602,708,0,0,0,0,0,0,0,0,0,-1,1826,316,0,0
609,708,0,0,0,0,0,0,0,0,0,-1,1833,316,0,0
616,708,0,0,0,0,0,0,0,0,0,-1,1840,316,0,0
623,708,0,0,0,0,0,0,0,0,0,-1,1847,316,0,0
630,708,0,0,0,0,0,0,0,0,0,-1,1854,316,0,0
637,708,0,0,0,0,0,0,0,0,0,-1,1861,316,0,0
644,708,0,0,0,0,0,0,0,0,0,-1,1868,316,0,0
651,708,0,0,0,0,0,0,0,0,0,-1,1875,316,0,0
658,708,0,0,0,0,0,0,0,0,0,-1,1882,316,0,0
665,708,0,0,0,0,0,0,0,0,0,-1,1889,316,0,0
672,708,0,0,0,0,0,0,0,0,0,-1,1896,316,0,0
679,708,0,0,0,0,0,0,0,0,0,-1,1903,316,0,0
686,708,0,0,0,0,0,0,0,0,0,-1,1910,316,0,0
693,708,0,0,0,0,0,0,0,0,0,-1,1917,316,0,0
700,708,0,0,0,0,0,0,0,0,0,-1,1924,316,0,0
707,708,0,0,0,0,0,0,0,0,0,-1,1931,316,0,0
714,708,0,0,0,0,0,0,0,0,0,-1,1938,316,0,0
721,708,0,0,0,0,0,0,0,0,0,-1,1945,316,0,0
728,708,0,0,0,0,0,0,0,0,0,-1,1952,316,0,0
735,708,0,0,0,0,0,0,0,0,0,-1,1959,316,0,0
742,708,0,0,0,0,0,0,0,0,0,-1,1966,316,0,0
749,708,0,0,0,0,0,0,0,0,0,-1,1973,316,0,0
756,708,0,0,0,0,0,0,0,0,0,-1,1980,316,0,0
763,708,0,0,0,0,0,0,0,0,0,-1,1987,316,0,0
770,708,0,0,0,0,0,0,0,0,0,-1,1994,316,0,0
777,708,0,0,0,0,0,0,0,0,0,-1,2001,316,0,0
784,708,0,0,0,0,0,0,0,0,0,-1,2008,316,0,0
791,708,0,0,0,0,0,0,0,0,0,-1,2015,316,0,0
798,708,0,0,0,0,0,0,0,0,0,-1,2022,316,0,0
805,708,0,0,0,0,0,0,0,0,0,-1,2029,316,0,0
812,708,0,0,0,0,0,0,0,0,0,-1,2036,316,0,0
-700,701,0,0,0,0,0,0,0,0,0,-1,524,323,0,0
-693,701,0,0,0,0,0,0,0,0,0,-1,531,323,0,0
-686,701,0,0,0,0,0,0,0,0,0,-1,538,323,0,0
-679,701,0,0,0,0,0,0,0,0,0,-1,545,323,0,0
-672,701,0,0,0,0,0,0,0,0,0,-1,552,323,0,0
-665,701,0,0,0,0,0,0,0,0,0,-1,559,323,0,0
-658,701,0,0,0,0,0,0,0,0,0,-1,566,323,0,0
-651,701,0,0,0,0,0,0,0,0,0,-1,573,323,0,0
-644,701,0,0,0,0,0,0,0,0,0,-1,580,323,0,0
-637,701,0,0,0,0,0,0,0,0,0,-1,587,323,0,0
-630,701,0,0,0,0,0,0,0,0,0,-1,594,323,0,0
-623,701,0,0,0,0,0,0,0,0,0,-1,601,323,0,0
-616,701,0,0,0,0,0,0,0,0,0,-1,608,323,0,0
-609,701,0,0,0,0,0,0,0,0,0,-1,615,323,0,0
-602,701,0,0,0,0,0,0,0,0,0,-1,622,323,0,0
-595,701,0,0,0,0,0,0,0,0,0,-1,629,323,0,0
-588,701,0,0,0,0,0,0,0,0,0,-1,636,323,0,0
-581,701,0,0,0,0,0,0,0,0,0,-1,643,323,0,0
-574,701,0,0,0,0,0,0,0,0,0,-1,650,323,0,0
-567,701,0,0,0,0,0,0,0,0,0,-1,657,323,0,0
-560,701,0,0,0,0,0,0,0,0,0,-1,664,323,0,0
-553,701,0,0,0,0,0,0,0,0,0,-1,671,323,0,0
-546,701,0,0,0,0,0,0,0,0,0,-1,678,323,0,0
-539,701,0,0,0,0,0,0,0,0,0,-1,685,323,0,0
-532,701,0,0,0,0,0,0,0,0,0,-1,692,323,0,0
-525,701,0,0,0,0,0,0,0,0,0,-1,699,323,0,0
-518,701,0,0,0,0,0,0,0,0,0,-1,706,323,0,0
-511,701,0,0,0,0,0,0,0,0,0,-1,713,323,0,0
-504,701,0,0,0,0,0,0,0,0,0,-1,720,323,0,0
-497,701,0,0,0,0,0,0,0,0,0,-1,727,323,0,0
-490,701,0,0,0,0,0,0,0,0,0,-1,734,323,0,0
-483,701,0,0,0,0,0,0,0,0,0,-1,741,323,0,0
-476,701,0,0,0,0,0,0,0,0,0,-1,748,323,0,0
-469,701,0,0,0,0,0,0,0,0,0,-1,755,323,0,0
-462,701,0,0,0,0,0,0,0,0,0,-1,762,323,0,0
-455,701,0,0,0,0,0,0,0,0,0,-1,769,323,0,0
-448,701,0,0,0,0,0,0,0,0,0,-1,776,323,0,0
-441,701,0,0,0,0,0,0,0,0,0,-1,783,323,0,0
-434,701,0,0,0,0,0,0,0,0,0,-1,790,323,0,0
-427,701,0,0,0,0,0,0,0,0,0,-1,797,323,0,0
-420,701,0,0,0,0,0,0,0,0,0,-1,804,323,0,0
-413,701,0,0,0,0,0,0,0,0,0,-1,811,323,0,0
-406,701,0,0,0,0,0,0,0,0,0,-1,818,323,0,0
-399,701,0,0,0,0,0,0,0,0,0,-1,825,323,0,0
-392,701,0,0,0,0,0,0,0,0,0,-1,832,323,0,0
-385,701,0,0,0,0,0,0,0,0,0,-1,839,323,0,0
-378,701,0,0,0,0,0,0,0,0,0,-1,846,323,0,0
-371,701,0,0,0,0,0,0,0,0,0,-1,853,323,0,0
-364,701,0,0,0,0,0,0,0,0,0,-1,860,323,0,0
-357,701,0,0,0,0,0,0,0,0,0,-1,867,323,0,0
-350,701,0,0,0,0,0,0,0,0,0,-1,874,323,0,0
-343,701,0,0,0,0,0,0,0,0,0,-1,881,323,0,0
-336,701,0,0,0,0,0,0,0,0,0,-1,888,323,0,0
-329,701,0,0,0,0,0,0,0,0,0,-1,895,323,0,0
-322,701,0,0,0,0,0,0,0,0,0,-1,902,323,0,0
-315,701,0,0,0,0,0,0,0,0,0,-1,909,323,0,0
-308,701,0,0,0,0,0,0,0,0,0,-1,916,323,0,0
-301,701,0,0,0,0,0,0,0,0,0,-1,923,323,0,0
-294,701,0,0,0,0,0,0,0,0,0,-1,930,323,0,0
-287,701,0,0,0,0,0,0,0,0,0,-1,937,323,0,0
-280,701,0,0,0,0,0,0,0,0,0,-1,944,323,0,0
-273,701,0,0,0,0,0,0,0,0,0,-1,951,323,0,0
-266,701,0,0,0,0,0,0,0,0,0,-1,958,323,0,0
-259,701,0,0,0,0,0,0,0,0,0,-1,965,323,0,0
-252,701,0,0,0,0,0,0,0,0,0,-1,972,323,0,0
-245,701,0,0,0,0,0,0,0,0,0,-1,979,323,0,0
-238,701,0,0,0,0,0,0,0,0,0,-1,986,323,0,0
-231,701,0,0,0,0,0,0,0,0,0,-1,993,323,0,0
-224,701,0,0,0,0,0,0,0,0,0,-1,1000,323,0,0
-217,701,0,0,0,0,0,0,0,0,0,-1,1007,323,0,0
-210,701,0,0,0,0,0,0,0,0,0,-1,1014,323,0,0
-203,701,0,0,0,0,0,0,0,0,0,-1,1021,323,0,0
-196,701,0,0,0,0,0,0,0,0,0,-1,1028,323,0,0
-189,701,0,0,0,0,0,0,0,0,0,-1,1035,323,0,0
-182,701,0,0,0,0,0,0,0,0,0,-1,1042,323,0,0
-175,701,0,0,0,0,0,0,0,0,0,-1,1049,323,0,0
-168,701,0,0,0,0,0,0,0,0,0,-1,1056,323,0,0
-161,701,0,0,0,0,0,0,0,0,0,-1,1063,323,0,0
-154,701,0,0,0,0,0,0,0,0,0,-1,1070,323,0,0
-147,701,0,0,0,0,0,0,0,0,0,-1,1077,323,0,0
-140,701,0,0,0,0,0,0,0,0,0,-1,1084,323,0,0
-133,701,0,0,0,0,0,0,0,0,0,-1,1091,323,0,0
-126,701,0,0,0,0,0,0,0,0,0,-1,1098,323,0,0
-119,701,0,0,0,0,0,0,0,0,0,-1,1105,323,0,0
-112,701,0,0,0,0,0,0,0,0,0,-1,1112,323,0,0
-105,701,0,0,0,0,0,0,0,0,0,-1,1119,323,0,0
-98,701,0,0,0,0,0,0,0,0,0,-1,1126,323,0,0
-91,701,0,0,0,0,0,0,0,0,0,-1,1133,323,0,0
-84,701,0,0,0,0,0,0,0,0,0,-1,1140,323,0,0
-77,701,0,0,0,0,0,0,0,0,0,-1,1147,323,0,0
-70,701,-2.36731,-1.49271,0,0,0,0,0,0,0,-1,1154,323,-2.36729,1.4927
-63,701,-2.479,-0.295959,0,0,0,0,0,0,0,-1,1161,323,-2.47895,0.295961
-56,701,-0.420166,-0.101776,0,0,0,0,0,0,0,-1,1168,323,-0.420119,0.101777
-49,701,-1.09021,-0.155762,0,0,0,0,0,0,0,-1,1175,323,-1.09024,0.155768
-42,701,-0.210327,-0.299133,0,0,0,0,0,0,0,-1,1182,323,-0.210379,0.29914
-35,701,-2.9635,-7.98676,0,0,0,0,0,0,0,-1,1189,323,-2.9635,7.98676
-28,701,-6.64417,-5.4917,0,0,0,0,0,0,0,-1,1196,323,-6.64411,5.4917
-21,701,1.08557,-12.5659,0,0,0,0,0,0,0,-1,1203,323,1.08558,12.5658
-14,701,2.20337,-14.5905,0,0,0,0,0,0,0,-1,1210,323,2.20337,14.5905
-7,701,2.84521,-13.9849,0.106039,0.0431468,0.0226382,0.11334,0.0358456,0.311982,0.0668932,0.0476307,1217,323,2.84523,13.9849
0,701,3.43506,-13.3967,0.0945409,0.0506667,0.0206078,0.102702,0.0425053,0.377083,0.0595877,0.0493873,1224,323,3.43512,13.3967
7,701,4.52942,-13.0395,0.0811819,0.0548759,0.0201372,0.0920811,0.0439767,0.496098,0.0531809,0.0426674,1231,323,4.52945,13.0395
14,701,5.43799,-12.3152,0.0651546,0.0555998,0.022658,0.0835334,0.0372211,0.681496,0.0483231,0.0442848,1238,323,5.43793,12.3152
21,701,6.01892,-11.3166,0.048489,0.0537072,0.0266717,0.0778971,0.0242991,0.834154,0.0460221,0.0469753,1245,323,6.01887,11.3166
28,701,6.58203,-10.4739,0,0,0,0,0,0,0,-1,1252,323,6.58201,10.4739
35,701,5.42224,-13.4854,0.0221407,0.0375923,0.0363781,0.0670559,-0.00732293,0.890031,0.0473341,0.04334,1259,323,5.42223,13.4854
42,701,5.56396,-13.3139,0.0171575,0.0351566,0.0372947,0.0645223,-0.0122081,0.903789,0.0476089,0.0451543,1266,323,5.56399,13.3139
49,701,5.65039,-12.8966,0.0135689,0.0290648,0.0370698,0.0591877,-0.016554,0.88842,0.0459807,0.0444758,1273,323,5.65045,12.8966
56,701,5.40393,-12.3749,0.0101466,0.0213839,0.0378183,0.0539987,-0.0224682,0.859143,0.045382,0.0423792,1280,323,5.40398,12.3749
63,701,4.82532,-11.5396,0.00852802,0.0175644,0.034746,0.0480847,-0.0219923,0.850053,0.0413833,0.0411879,1287,323,4.82527,11.5396
70,701,4.62207,-10.9365,0.0111434,0.0138512,0.0309849,0.0435118,-0.0185172,0.807232,0.0367688,0.0433304,1294,323,4.62201,10.9365
77,701,4.17383,-10.2314,0.0169551,0.0121636,0.0267577,0.0414241,-0.0123054,0.74075,0.0325038,0.0447174,1301,323,4.17388,10.2314
84,701,3.65857,-9.57953,0.0248669,0.0142578,0.0198408,0.0401,-0.000975313,0.654776,0.0270643,0.0424927,1308,323,3.65858,9.57954
91,701,4.75769,-14.7426,0.0297759,0.0176731,0.0135149,0.0385323,0.00891666,0.574904,0.023292,0.0425642,1315,323,4.75766,14.7426
98,701,4.69495,-15.2054,0.0324878,0.0225243,0.00817113,0.0370761,0.017936,0.511645,0.0214096,0.0426535,1322,323,4.69489,15.2054
105,701,4.74194,-15.7051,0.0340144,0.0273191,0.00396805,0.0358583,0.0254752,0.434999,0.0213053,0.0444944,1329,323,4.74199,15.7051
112,701,4.86304,-16.0778,0.0344937,0.0319848,0.00160343,0.0352751,0.0312034,0.453452,0.0222839,0.0426921,1336,323,4.86302,16.0778
119,701,1.89746,-13.2097,0,0,0,0,0,0,0,-1,1343,323,1.89752,13.2097
126,701,2.80237,-12.8763,0.0342808,0.0414999,0.00247142,0.0422649,0.0335158,1.27061,0.0257603,0.0459597,1350,323,2.80238,12.8764
133,701,3.77002,-12.5865,0.0323096,0.0445248,0.00730392,0.0479382,0.0288962,1.13361,0.0278714,0.0461512,1357,323,3.77001,12.5865
140,701,4.80383,-12.5728,0,0,0,0,0,0,0,-1,1364,323,4.80378,12.5728
147,701,2.59497,-13.1842,0,0,0,0,0,0,0,-1,1371,323,2.59496,13.1842
154,701,2.18579,-12.7114,0,0,0,0,0,0,0,-1,1378,323,2.18576,12.7114
161,701,2.11853,-12.0428,0,0,0,0,0,0,0,-1,1385,323,2.11854,12.0428
168,701,6.88513,-0.0237427,0,0,0,0,0,0,0,-1,1392,323,6.88517,0.0237498
175,701,6.94556,0.0693054,0,0,0,0,0,0,0,-1,1399,323,6.94555,-0.0692958
182,701,8.80652,5.42807,0,0,0,0,0,0,0,-1,1406,323,8.8065,-5.42808
189,701,8.58081,4.24493,0,0,0,0,0,0,0,-1,1413,323,8.58082,-4.24494
196,701,0,0,0,0,0,0,0,0,0,-1,1420,323,0,0
203,701,0,0,0,0,0,0,0,0,0,-1,1427,323,0,0
210,701,0,0,0,0,0,0,0,0,0,-1,1434,323,0,0
217,701,0,0,0,0,0,0,0,0,0,-1,1441,323,0,0
224,701,0,0,0,0,0,0,0,0,0,-1,1448,323,0,0
231,701,0,0,0,0,0,0,0,0,0,-1,1455,323,0,0
238,701,0,0,0,0,0,0,0,0,0,-1,1462,323,0,0
245,701,0,0,0,0,0,0,0,0,0,-1,1469,323,0,0
252,701,0,0,0,0,0,0,0,0,0,-1,1476,323,0,0
259,701,0,0,0,0,0,0,0,0,0,-1,1483,323,0,0
266,701,0,0,0,0,0,0,0,0,0,-1,1490,323,0,0
273,701,0,0,0,0,0,0,0,0,0,-1,1497,323,0,0
280,701,0,0,0,0,0,0,0,0,0,-1,1504,323,0,0
287,701,0,0,0,0,0,0,0,0,0,-1,1511,323,0,0
294,701,0,0,0,0,0,0,0,0,0,-1,1518,323,0,0
301,701,0,0,0,0,0,0,0,0,0,-1,1525,323,0,0
308,701,0,0,0,0,0,0,0,0,0,-1,1532,323,0,0
315,701,0,0,0,0,0,0,0,0,0,-1,1539,323,0,0
322,701,0,0,0,0,0,0,0,0,0,-1,1546,323,0,0
329,701,0,0,0,0,0,0,0,0,0,-1,1553,323,0,0
336,701,0,0,0,0,0,0,0,0,0,-1,1560,323,0,0
343,701,0,0,0,0,0,0,0,0,0,-1,1567,323,0,0
350,701,0,0,0,0,0,0,0,0,0,-1,1574,323,0,0
357,701,0,0,0,0,0,0,0,0,0,-1,1581,323,0,0
364,701,0,0,0,0,0,0,0,0,0,-1,1588,323,0,0
371,701,0,0,0,0,0,0,0,0,0,-1,1595,323,0,0
378,701,0,0,0,0,0,0,0,0,0,-1,1602,323,0,0
385,701,0,0,0,0,0,0,0,0,0,-1,1609,323,0,0
392,701,0,0,0,0,0,0,0,0,0,-1,1616,323,0,0
399,701,0,0,0,0,0,0,0,0,0,-1,1623,323,0,0
406,701,0,0,0,0,0,0,0,0,0,-1,1630,323,0,0
413,701,0,0,0,0,0,0,0,0,0,-1,1637,323,0,0
420,701,0,0,0,0,0,0,0,0,0,-1,1644,323,0,0
427,701,0,0,0,0,0,0,0,0,0,-1,1651,323,0,0
434,701,0,0,0,0,0,0,0,0,0,-1,1658,323,0,0
441,701,0,0,0,0,0,0,0,0,0,-1,1665,323,0,0
448,701,0,0,0,0,0,0,0,0,0,-1,1672,323,0,0
455,701,0,0,0,0,0,0,0,0,0,-1,1679,323,0,0
462,701,0,0,0,0,0,0,0,0,0,-1,1686,323,0,0
469,701,0,0,0,0,0,0,0,0,0,-1,1693,323,0,0
476,701,0,0,0,0,0,0,0,0,0,-1,1700,323,0,0
483,701,0,0,0,0,0,0,0,0,0,-1,1707,323,0,0
490,701,0,0,0,0,0,0,0,0,0,-1,1714,323,0,0
497,701,0,0,0,0,0,0,0,0,0,-1,1721,323,0,0
504,701,0,0,0,0,0,0,0,0,0,-1,1728,323,0,0
511,701,0,0,0,0,0,0,0,0,0,-1,1735,323,0,0
518,701,0,0,0,0,0,0,0,0,0,-1,1742,323,0,0
525,701,0,0,0,0,0,0,0,0,0,-1,1749,323,0,0
532,701,0,0,0,0,0,0,0,0,0,-1,1756,323,0,0
539,701,0,0,0,0,0,0,0,0,0,-1,1763,323,0,0
546,701,0,0,0,0,0,0,0,0,0,-1,1770,323,0,0
553,701,0,0,0,0,0,0,0,0,0,-1,1777,323,0,0
560,701,0,0,0,0,0,0,0,0,0,-1,1784,323,0,0
567,701,0,0,0,0,0,0,0,0,0,-1,1791,323,0,0
574,701,0,0,0,0,0,0,0,0,0,-1,1798,323,0,0
581,701,0,0,0,0,0,0,0,0,0,-1,1805,323,0,0
588,701,0,0,0,0,0,0,0,0,0,-1,1812,323,0,0
595,701,0,0,0,0,0,0,0,0,0,-1,1819,323,0,0
602,701,0,0,0,0,0,0,0,0,0,-1,1826,323,0,0
609,701,0,0,0,0,0,0,0,0,0,-1,1833,323,0,0
616,701,0,0,0,0,0,0,0,0,0,-1,1840,323,0,0
623,701,0,0,0,0,0,0,0,0,0,-1,1847,323,0,0
630,701,0,0,0,0,0,0,0,0,0,-1,1854,323,0,0
637,701,0,0,0,0,0,0,0,0,0,-1,1861,323,0,0
644,701,0,0,0,0,0,0,0,0,0,-1,1868,323,0,0
651,701,0,0,0,0,0,0,0,0,0,-1,1875,323,0,0
658,701,0,0,0,0,0,0,0,0,0,-1,1882,323,0,0
665,701,0,0,0,0,0,0,0,0,0,-1,1889,323,0,0
672,701,0,0,0,0,0,0,0,0,0,-1,1896,323,0,0
679,701,0,0,0,0,0,0,0,0,0,-1,1903,323,0,0
686,701,0,0,0,0,0,0,0,0,0,-1,1910,323,0,0
693,701,0,0,0,0,0,0,0,0,0,-1,1917,323,0,0
700,701,0,0,0,0,0,0,0,0,0,-1,1924,323,0,0
707,701,0,0,0,0,0,0,0,0,0,-1,1931,323,0,0
714,701,0,0,0,0,0,0,0,0,0,-1,1938,323,0,0
721,701,0,0,0,0,0,0,0,0,0,-1,1945,323,0,0
728,701,0,0,0,0,0,0,0,0,0,-1,1952,323,0,0
735,701,0,0,0,0,0,0,0,0,0,-1,1959,323,0,0
742,701,0,0,0,0,0,0,0,0,0,-1,1966,323,0,0
749,701,0,0,0,0,0,0,0,0,0,-1,1973,323,0,0
756,701,0,0,0,0,0,0,0,0,0,-1,1980,323,0,0
763,701,0,0,0,0,0,0,0,0,0,-1,1987,323,0,0
770,701,0,0,0,0,0,0,0,0,0,-1,1994,323,0,0
777,701,0,0,0,0,0,0,0,0,0,-1,2001,323,0,0
784,701,0,0,0,0,0,0,0,0,0,-1,2008,323,0,0
791,701,0,0,0,0,0,0,0,0,0,-1,2015,323,0,0
798,701,0,0,0,0,0,0,0,0,0,-1,2022,323,0,0
805,701,0,0,0,0,0,0,0,0,0,-1,2029,323,0,0
812,701,0,0,0,0,0,0,0,0,0,-1,2036,323,0,0
-700,694,0,0,0,0,0,0,0,0,0,-1,524,330,0,0
-693,694,0,0,0,0,0,0,0,0,0,-1,531,330,0,0
-686,694,0,0,0,0,0,0,0,0,0,-1,538,330,0,0
-679,694,0,0,0,0,0,0,0,0,0,-1,545,330,0,0
-672,694,0,0,0,0,0,0,0,0,0,-1,552,330,0,0
-665,694,0,0,0,0,0,0,0,0,0,-1,559,330,0,0
-658,694,0,0,0,0,0,0,0,0,0,-1,566,330,0,0
-651,694,0,0,0,0,0,0,0,0,0,-1,573,330,0,0
-644,694,0,0,0,0,0,0,0,0,0,-1,580,330,0,0
-637,694,0,0,0,0,0,0,0,0,0,-1,587,330,0,0
-630,694,0,0,0,0,0,0,0,0,0,-1,594,330,0,0
-623,694,0,0,0,0,0,0,0,0,0,-1,601,330,0,0
-616,694,0,0,0,0,0,0,0,0,0,-1,608,330,0,0
-609,694,0,0,0,0,0,0,0,0,0,-1,615,330,0,0
-602,694,0,0,0,0,0,0,0,0,0,-1,622,330,0,0
-595,694,0,0,0,0,0,0,0,0,0,-1,629,330,0,0
-588,694,0,0,0,0,0,0,0,0,0,-1,636,330,0,0
-581,694,0,0,0,0,0,0,0,0,0,-1,643,330,0,0
-574,694,0,0,0,0,0,0,0,0,0,-1,650,330,0,0
-567,694,0,0,0,0,0,0,0,0,0,-1,657,330,0,0
-560,694,0,0,0,0,0,0,0,0,0,-1,664,330,0,0
-553,694,0,0,0,0,0,0,0,0,0,-1,671,330,0,0
-546,694,0,0,0,0,0,0,0,0,0,-1,678,330,0,0
-539,694,0,0,0,0,0,0,0,0,0,-1,685,330,0,0
-532,694,0,0,0,0,0,0,0,0,0,-1,692,330,0,0
-525,694,0,0,0,0,0,0,0,0,0,-1,699,330,0,0
-518,694,0,0,0,0,0,0,0,0,0,-1,706,330,0,0
-511,694,0,0,0,0,0,0,0,0,0,-1,713,330,0,0
-504,694,0,0,0,0,0,0,0,0,0,-1,720,330,0,0
-497,694,0,0,0,0,0,0,0,0,0,-1,727,330,0,0
-490,694,0,0,0,0,0,0,0,0,0,-1,734,330,0,0
-483,694,0,0,0,0,0,0,0,0,0,-1,741,330,0,0
-476,694,0,0,0,0,0,0,0,0,0,-1,748,330,0,0
-469,694,0,0,0,0,0,0,0,0,0,-1,755,330,0,0
-462,694,0,0,0,0,0,0,0,0,0,-1,762,330,0,0
-455,694,0,0,0,0,0,0,0,0,0,-1,769,330,0,0
-448,694,0,0,0,0,0,0,0,0,0,-1,776,330,0,0
-441,694,0,0,0,0,0,0,0,0,0,-1,783,330,0,0
-434,694,0,0,0,0,0,0,0,0,0,-1,790,330,0,0
-427,694,0,0,0,0,0,0,0,0,0,-1,797,330,0,0
-420,694,0,0,0,0,0,0,0,0,0,-1,804,330,0,0
-413,694,0,0,0,0,0,0,0,0,0,-1,811,330,0,0
-406,694,0,0,0,0,0,0,0,0,0,-1,818,330,0,0
-399,694,0,0,0,0,0,0,0,0,0,-1,825,330,0,0
-392,694,0,0,0,0,0,0,0,0,0,-1,832,330,0,0
-385,694,0,0,0,0,0,0,0,0,0,-1,839,330,0,0
-378,694,0,0,0,0,0,0,0,0,0,-1,846,330,0,0
-371,694,0,0,0,0,0,0,0,0,0,-1,853,330,0,0
-364,694,0,0,0,0,0,0,0,0,0,-1,860,330,0,0
-357,694,0,0,0,0,0,0,0,0,0,-1,867,330,0,0
-350,694,0,0,0,0,0,0,0,0,0,-1,874,330,0,0
-343,694,0,0,0,0,0,0,0,0,0,-1,881,330,0,0
-336,694,0,0,0,0,0,0,0,0,0,-1,888,330,0,0
-329,694,0,0,0,0,0,0,0,0,0,-1,895,330,0,0
-322,694,0,0,0,0,0,0,0,0,0,-1,902,330,0,0
-315,694,0,0,0,0,0,0,0,0,0,-1,909,330,0,0
-308,694,0,0,0,0,0,0,0,0,0,-1,916,330,0,0
-301,694,0,0,0,0,0,0,0,0,0,-1,923,330,0,0
-294,694,0,0,0,0,0,0,0,0,0,-1,930,330,0,0
-287,694,0,0,0,0,0,0,0,0,0,-1,937,330,0,0
-280,694,0,0,0,0,0,0,0,0,0,-1,944,330,0,0
-273,694,0,0,0,0,0,0,0,0,0,-1,951,330,0,0
-266,694,0,0,0,0,0,0,0,0,0,-1,958,330,0,0
-259,694,0,0,0,0,0,0,0,0,0,-1,965,330,0,0
-252,694,0,0,0,0,0,0,0,0,0,-1,972,330,0,0
-245,694,0,0,0,0,0,0,0,0,0,-1,979,330,0,0
-238,694,0,0,0,0,0,0,0,0,0,-1,986,330,0,0
-231,694,0,0,0,0,0,0,0,0,0,-1,993,330,0,0
-224,694,0,0,0,0,0,0,0,0,0,-1,1000,330,0,0
-217,694,0,0,0,0,0,0,0,0,0,-1,1007,330,0,0
-210,694,0,0,0,0,0,0,0,0,0,-1,1014,330,0,0
-203,694,0,0,0,0,0,0,0,0,0,-1,1021,330,0,0
-196,694,0,0,0,0,0,0,0,0,0,-1,1028,330,0,0
-189,694,0,0,0,0,0,0,0,0,0,-1,1035,330,0,0
-182,694,0,0,0,0,0,0,0,0,0,-1,1042,330,0,0
-175,694,0,0,0,0,0,0,0,0,0,-1,1049,330,0,0
-168,694,0,0,0,0,0,0,0,0,0,-1,1056,330,0,0
-161,694,0,0,0,0,0,0,0,0,0,-1,1063,330,0,0
-154,694,0,0,0,0,0,0,0,0,0,-1,1070,330,0,0
-147,694,0,0,0,0,0,0,0,0,0,-1,1077,330,0,0
-140,694,0,0,0,0,0,0,0,0,0,-1,1084,330,0,0
-133,694,0,0,0,0,0,0,0,0,0,-1,1091,330,0,0
-126,694,0,0,0,0,0,0,0,0,0,-1,1098,330,0,0
-119,694,0,0,0,0,0,0,0,0,0,-1,1105,330,0,0
-112,694,0,0,0,0,0,0,0,0,0,-1,1112,330,0,0
-105,694,-1.35962,-7.57141,0,0,0,0,0,0,0,-1,1119,330,-1.3596,7.57142
-98,694,1.34875,-10.1051,0,0,0,0,0,0,0,-1,1126,330,1.34874,10.1051
-91,694,1.35474,-9.22229,0,0,0,0,0,0,0,-1,1133,330,1.35476,9.22229
-84,694,-4.39136,-4.62332,0,0,0,0,0,0,0,-1,1140,330,-4.3914,4.62331
-77,694,-4.93396,-10.2672,0,0,0,0,0,0,0,-1,1147,330,-4.9339,10.2672
-70,694,-6.49402,-10.0714,0,0,0,0,0,0,0,-1,1154,330,-6.49399,10.0714
-63,694,-5.80835,-4.75275,0,0,0,0,0,0,0,-1,1161,330,-5.80834,4.75274
-56,694,-6.50623,-0.649139,0,0,0,0,0,0,0,-1,1168,330,-6.5062,0.649126
-49,694,-1.11426,0.0341797,0,0,0,0,0,0,0,-1,1175,330,-1.11424,-0.0341846
-42,694,-0.346313,-0.709595,0,0,0,0,0,0,0,-1,1182,330,-0.346298,0.709581
-35,694,-0.459106,-1.24713,0,0,0,0,0,0,0,-1,1189,330,-0.459142,1.24714
-28,694,-6.48413,-3.95972,0,0,0,0,0,0,0,-1,1196,330,-6.48414,3.9597
-21,694,1.78479,-14.8739,0,0,0,0,0,0,0,-1,1203,330,1.78474,14.8739
-14,694,2.2572,-14.3983,0.0876863,0.0263945,0.0229252,0.0953122,0.0187686,0.321131,0.0583011,0.0487693,1210,330,2.25721,14.3982
-7,694,2.90564,-13.8242,0.0801569,0.0349492,0.0211932,0.0885383,0.0265678,0.376601,0.0524621,0.0471426,1217,330,2.90559,13.8242
0,694,3.51294,-13.1406,0.0710567,0.0404157,0.0198672,0.0808245,0.0306479,0.45695,0.0471159,0.0465828,1224,330,3.51299,13.1406
7,694,4.08691,-12.7074,0.0604567,0.0438259,0.0195758,0.07341,0.0308726,0.584556,0.0425613,0.043203,1231,330,4.08688,12.7074
14,694,4.06079,-14.3632,0,0,0,0,0,0,0,-1,1238,330,4.06078,14.3632
21,694,4.5116,-13.9492,0,0,0,0,0,0,0,-1,1245,330,4.51161,13.9492
28,694,5.1825,-13.5131,0.0224895,0.0401067,0.0280603,0.0607085,0.0018877,0.937486,0.039858,0.0475354,1252,330,5.18249,13.5131
35,694,5.51978,-13.2601,0.0158682,0.0307457,0.030703,0.0548982,-0.00828428,0.904248,0.0396498,0.042465,1259,330,5.5198,13.2601
42,694,5.55469,-13.2431,0.0136141,0.0304515,0.0301323,0.0533191,-0.0092535,0.92162,0.0389982,0.0460717,1266,330,5.55467,13.2431
49,694,5.45215,-13.1069,0.0120763,0.0258944,0.0290988,0.0488931,-0.0109225,0.901957,0.0367808,0.0474275,1273,330,5.45211,13.1069
56,694,5.375,-13.011,0.010491,0.020085,0.0291082,0.0447888,-0.0142129,0.867063,0.0355567,0.0467602,1280,330,5.37498,13.0109
63,694,4.34424,-11.2725,0.0105214,0.0168153,0.02606,0.0399177,-0.0125809,0.845486,0.0316502,0.0444,1287,330,4.34429,11.2725
70,694,3.8158,-10.4062,0.0135886,0.0141534,0.0226784,0.0365512,-0.00880916,0.791624,0.0277735,0.0456402,1294,330,3.8158,10.4062
77,694,3.12048,-9.55362,0.0187806,0.0129388,0.0191458,0.035227,-0.00350766,0.709702,0.0247369,0.0476093,1301,330,3.12046,9.55361
84,694,2.48328,-8.4173,0.0252464,0.0144225,0.0138912,0.0347427,0.00492619,0.599645,0.0217069,0.0439064,1308,330,2.48324,8.4173
91,694,2.0033,-7.13913,0.0290688,0.0168428,0.0092511,0.0340442,0.0118674,0.493438,0.0199535,0.0456307,1315,330,2.00334,7.13914
98,694,4.68689,-15.2642,0.0305237,0.0204663,0.00562661,0.0330413,0.0179487,0.420728,0.0191001,0.0432082,1322,330,4.68689,15.2642
105,694,4.64465,-15.4417,0.0307367,0.0238338,0.00300444,0.0318612,0.0227093,0.358133,0.018942,0.0412875,1329,330,4.64463,15.4417
112,694,4.62183,-15.2721,0.0299256,0.0269594,0.00175339,0.030739,0.026146,0.434364,0.0191462,0.0404198,1336,330,4.62188,15.2721
119,694,2.875,-13.5335,0.0287946,0.0304337,0.00154806,0.0313657,0.0278625,1.02884,0.0198461,0.0420857,1343,330,2.87503,13.5335
126,694,2.7887,-13.198,0.0270973,0.0338158,0.00329654,0.0351631,0.02575,1.18281,0.0210191,0.0452654,1350,330,2.78865,13.198
133,694,2.88354,-13.0926,0,0,0,0,0,0,0,-1,1357,330,2.88352,13.0926
140,694,2.53955,-12.6654,0,0,0,0,0,0,0,-1,1364,330,2.53955,12.6654
147,694,2.31165,-12.5034,0,0,0,0,0,0,0,-1,1371,330,2.3116,12.5034
154,694,1.82581,-12.8891,0,0,0,0,0,0,0,-1,1378,330,1.82585,12.8891
161,694,1.87231,-12.4088,0,0,0,0,0,0,0,-1,1385,330,1.87227,12.4088
168,694,6.77161,1.01288,0,0,0,0,0,0,0,-1,1392,330,6.77156,-1.01287
175,694,6.72839,0.473175,0,0,0,0,0,0,0,-1,1399,330,6.72838,-0.473182
182,694,8.29028,5.75238,0,0,0,0,0,0,0,-1,1406,330,8.29034,-5.75237
189,694,7.9801,4.46118,0,0,0,0,0,0,0,-1,1413,330,7.9801,-4.46118
196,694,7.39331,3.32632,0,0,0,0,0,0,0,-1,1420,330,7.39329,-3.32633
203,694,7.04492,2.20529,0,0,0,0,0,0,0,-1,1427,330,7.04496,-2.20529
210,694,6.44714,0.646912,0,0,0,0,0,0,0,-1,1434,330,6.44717,-0.646903
217,694,7.12061,-0.644958,0,0,0,0,0,0,0,-1,1441,330,7.12059,0.644961
224,694,6.74011,-1.70544,0,0,0,0,0,0,0,-1,1448,330,6.74013,1.70546
231,694,0,0,0,0,0,0,0,0,0,-1,1455,330,0,0
238,694,0,0,0,0,0,0,0,0,0,-1,1462,330,0,0
245,694,0,0,0,0,0,0,0,0,0,-1,1469,330,0,0
252,694,0,0,0,0,0,0,0,0,0,-1,1476,330,0,0
259,694,0,0,0,0,0,0,0,0,0,-1,1483,330,0,0
266,694,0,0,0,0,0,0,0,0,0,-1,1490,330,0,0
273,694,0,0,0,0,0,0,0,0,0,-1,1497,330,0,0
280,694,0,0,0,0,0,0,0,0,0,-1,1504,330,0,0
287,694,0,0,0,0,0,0,0,0,0,-1,1511,330,0,0
294,694,0,0,0,0,0,0,0,0,0,-1,1518,330,0,0
301,694,0,0,0,0,0,0,0,0,0,-1,1525,330,0,0
308,694,0,0,0,0,0,0,0,0,0,-1,1532,330,0,0
315,694,0,0,0,0,0,0,0,0,0,-1,1539,330,0,0
322,694,0,0,0,0,0,0,0,0,0,-1,1546,330,0,0
329,694,0,0,0,0,0,0,0,0,0,-1,1553,330,0,0
336,694,0,0,0,0,0,0,0,0,0,-1,1560,330,0,0
343,694,0,0,0,0,0,0,0,0,0,-1,1567,330,0,0
350,694,0,0,0,0,0,0,0,0,0,-1,1574,330,0,0
357,694,0,0,0,0,0,0,0,0,0,-1,1581,330,0,0
364,694,0,0,0,0,0,0,0,0,0,-1,1588,330,0,0
371,694,0,0,0,0,0,0,0,0,0,-1,1595,330,0,0
378,694,0,0,0,0,0,0,0,0,0,-1,1602,330,0,0
385,694,0,0,0,0,0,0,0,0,0,-1,1609,330,0,0
392,694,0,0,0,0,0,0,0,0,0,-1,1616,330,0,0
399,694,0,0,0,0,0,0,0,0,0,-1,1623,330,0,0
406,694,0,0,0,0,0,0,0,0,0,-1,1630,330,0,0
413,694,0,0,0,0,0,0,0,0,0,-1,1637,330,0,0
420,694,0,0,0,0,0,0,0,0,0,-1,1644,330,0,0
427,694,0,0,0,0,0,0,0,0,0,-1,1651,330,0,0
434,694,0,0,0,0,0,0,0,0,0,-1,1658,330,0,0
441,694,0,0,0,0,0,0,0,0,0,-1,1665,330,0,0
448,694,0,0,0,0,0,0,0,0,0,-1,1672,330,0,0
455,694,0,0,0,0,0,0,0,0,0,-1,1679,330,0,0
462,694,0,0,0,0,0,0,0,0,0,-1,1686,330,0,0
469,694,0,0,0,0,0,0,0,0,0,-1,1693,330,0,0
476,694,0,0,0,0,0,0,0,0,0,-1,1700,330,0,0
483,694,0,0,0,0,0,0,0,0,0,-1,1707,330,0,0
490,694,0,0,0,0,0,0,0,0,0,-1,1714,330,0,0
497,694,0,0,0,0,0,0,0,0,0,-1,1721,330,0,0
504,694,0,0,0,0,0,0,0,0,0,-1,1728,330,0,0
511,694,0,0,0,0,0,0,0,0,0,-1,1735,330,0,0
518,694,0,0,0,0,0,0,0,0,0,-1,1742,330,0,0
525,694,0,0,0,0,0,0,0,0,0,-1,1749,330,0,0
532,694,0,0,0,0,0,0,0,0,0,-1,1756,330,0,0
539,694,0,0,0,0,0,0,0,0,0,-1,1763,330,0,0
546,694,0,0,0,0,0,0,0,0,0,-1,1770,330,0,0
553,694,0,0,0,0,0,0,0,0,0,-1,1777,330,0,0
560,694,0,0,0,0,0,0,0,0,0,-1,1784,330,0,0
567,694,0,0,0,0,0,0,0,0,0,-1,1791,330,0,0
574,694,0,0,0,0,0,0,0,0,0,-1,1798,330,0,0
581,694,0,0,0,0,0,0,0,0,0,-1,1805,330,0,0
588,694,0,0,0,0,0,0,0,0,0,-1,1812,330,0,0
595,694,0,0,0,0,0,0,0,0,0,-1,1819,330,0,0
602,694,0,0,0,0,0,0,0,0,0,-1,1826,330,0,0
609,694,0,0,0,0,0,0,0,0,0,-1,1833,330,0,0
616,694,0,0,0,0,0,0,0,0,0,-1,1840,330,0,0
623,694,0,0,0,0,0,0,0,0,0,-1,1847,330,0,0
630,694,0,0,0,0,0,0,0,0,0,-1,1854,330,0,0
637,694,0,0,0,0,0,0,0,0,0,-1,1861,330,0,0
644,694,0,0,0,0,0,0,0,0,0,-1,1868,330,0,0
651,694,0,0,0,0,0,0,0,0,0,-1,1875,330,0,0
658,694,0,0,0,0,0,0,0,0,0,-1,1882,330,0,0
665,694,0,0,0,0,0,0,0,0,0,-1,1889,330,0,0
672,694,0,0,0,0,0,0,0,0,0,-1,1896,330,0,0
679,694,0,0,0,0,0,0,0,0,0,-1,1903,330,0,0
686,694,0,0,0,0,0,0,0,0,0,-1,1910,330,0,0
693,694,0,0,0,0,0,0,0,0,0,-1,1917,330,0,0
700,694,0,0,0,0,0,0,0,0,0,-1,1924,330,0,0
707,694,0,0,0,0,0,0,0,0,0,-1,1931,330,0,0
714,694,0,0,0,0,0,0,0,0,0,-1,1938,330,0,0
721,694,0,0,0,0,0,0,0,0,0,-1,1945,330,0,0
728,694,0,0,0,0,0,0,0,0,0,-1,1952,330,0,0
735,694,0,0,0,0,0,0,0,0,0,-1,1959,330,0,0
742,694,0,0,0,0,0,0,0,0,0,-1,1966,330,0,0
749,694,0,0,0,0,0,0,0,0,0,-1,1973,330,0,0
756,694,0,0,0,0,0,0,0,0,0,-1,1980,330,0,0
763,694,0,0,0,0,0,0,0,0,0,-1,1987,330,0,0
770,694,0,0,0,0,0,0,0,0,0,-1,1994,330,0,0
777,694,0,0,0,0,0,0,0,0,0,-1,2001,330,0,0
784,694,0,0,0,0,0,0,0,0,0,-1,2008,330,0,0
791,694,0,0,0,0,0,0,0,0,0,-1,2015,330,0,0
798,694,0,0,0,0,0,0,0,0,0,-1,2022,330,0,0
805,694,0,0,0,0,0,0,0,0,0,-1,2029,330,0,0
812,694,0,0,0,0,0,0,0,0,0,-1,2036,330,0,0
-700,687,0,0,0,0,0,0,0,0,0,-1,524,337,0,0
-693,687,0,0,0,0,0,0,0,0,0,-1,531,337,0,0
-686,687,0,0,0,0,0,0,0,0,0,-1,538,337,0,0
-679,687,0,0,0,0,0,0,0,0,0,-1,545,337,0,0
-672,687,0,0,0,0,0,0,0,0,0,-1,552,337,0,0
-665,687,0,0,0,0,0,0,0,0,0,-1,559,337,0,0
-658,687,0,0,0,0,0,0,0,0,0,-1,566,337,0,0
-651,687,0,0,0,0,0,0,0,0,0,-1,573,337,0,0
-644,687,0,0,0,0,0,0,0,0,0,-1,580,337,0,0
-637,687,0,0,0,0,0,0,0,0,0,-1,587,337,0,0
-630,687,0,0,0,0,0,0,0,0,0,-1,594,337,0,0
-623,687,0,0,0,0,0,0,0,0,0,-1,601,337,0,0
-616,687,0,0,0,0,0,0,0,0,0,-1,608,337,0,0
-609,687,0,0,0,0,0,0,0,0,0,-1,615,337,0,0
-602,687,0,0,0,0,0,0,0,0,0,-1,622,337,0,0
-595,687,0,0,0,0,0,0,0,0,0,-1,629,337,0,0
-588,687,0,0,0,0,0,0,0,0,0,-1,636,337,0,0
-581,687,0,0,0,0,0,0,0,0,0,-1,643,337,0,0
-574,687,0,0,0,0,0,0,0,0,0,-1,650,337,0,0
-567,687,0,0,0,0,0,0,0,0,0,-1,657,337,0,0
-560,687,0,0,0,0,0,0,0,0,0,-1,664,337,0,0
-553,687,0,0,0,0,0,0,0,0,0,-1,671,337,0,0
-546,687,0,0,0,0,0,0,0,0,0,-1,678,337,0,0
-539,687,0,0,0,0,0,0,0,0,0,-1,685,337,0,0
-532,687,0,0,0,0,0,0,0,0,0,-1,692,337,0,0
-525,687,0,0,0,0,0,0,0,0,0,-1,699,337,0,0
-518,687,0,0,0,0,0,0,0,0,0,-1,706,337,0,0
-511,687,0,0,0,0,0,0,0,0,0,-1,713,337,0,0
-504,687,0,0,0,0,0,0,0,0,0,-1,720,337,0,0
-497,687,0,0,0,0,0,0,0,0,0,-1,727,337,0,0
-490,687,0,0,0,0,0,0,0,0,0,-1,734,337,0,0
-483,687,0,0,0,0,0,0,0,0,0,-1,741,337,0,0
-476,687,0,0,0,0,0,0,0,0,0,-1,748,337,0,0
-469,687,0,0,0,0,0,0,0,0,0,-1,755,337,0,0
-462,687,0,0,0,0,0,0,0,0,0,-1,762,337,0,0
-455,687,0,0,0,0,0,0,0,0,0,-1,769,337,0,0
-448,687,0,0,0,0,0,0,0,0,0,-1,776,337,0,0
-441,687,0,0,0,0,0,0,0,0,0,-1,783,337,0,0
-434,687,0,0,0,0,0,0,0,0,0,-1,790,337,0,0
-427,687,0,0,0,0,0,0,0,0,0,-1,797,337,0,0
-420,687,0,0,0,0,0,0,0,0,0,-1,804,337,0,0
-413,687,0,0,0,0,0,0,0,0,0,-1,811,337,0,0
-406,687,0,0,0,0,0,0,0,0,0,-1,818,337,0,0
-399,687,0,0,0,0,0,0,0,0,0,-1,825,337,0,0
-392,687,0,0,0,0,0,0,0,0,0,-1,832,337,0,0
-385,687,0,0,0,0,0,0,0,0,0,-1,839,337,0,0
-378,687,0,0,0,0,0,0,0,0,0,-1,846,337,0,0
-371,687,0,0,0,0,0,0,0,0,0,-1,853,337,0,0
-364,687,0,0,0,0,0,0,0,0,0,-1,860,337,0,0
-357,687,0,0,0,0,0,0,0,0,0,-1,867,337,0,0
-350,687,0,0,0,0,0,0,0,0,0,-1,874,337,0,0
-343,687,0,0,0,0,0,0,0,0,0,-1,881,337,0,0
-336,687,0,0,0,0,0,0,0,0,0,-1,888,337,0,0
-329,687,0,0,0,0,0,0,0,0,0,-1,895,337,0,0
-322,687,0,0,0,0,0,0,0,0,0,-1,902,337,0,0
-315,687,0,0,0,0,0,0,0,0,0,-1,909,337,0,0
-308,687,0,0,0,0,0,0,0,0,0,-1,916,337,0,0
-301,687,0,0,0,0,0,0,0,0,0,-1,923,337,0,0
-294,687,0,0,0,0,0,0,0,0,0,-1,930,337,0,0
-287,687,0,0,0,0,0,0,0,0,0,-1,937,337,0,0
-280,687,0,0,0,0,0,0,0,0,0,-1,944,337,0,0
-273,687,0,0,0,0,0,0,0,0,0,-1,951,337,0,0
-266,687,0,0,0,0,0,0,0,0,0,-1,958,337,0,0
-259,687,0,0,0,0,0,0,0,0,0,-1,965,337,0,0
-252,687,0,0,0,0,0,0,0,0,0,-1,972,337,0,0
-245,687,0,0,0,0,0,0,0,0,0,-1,979,337,0,0
-238,687,0,0,0,0,0,0,0,0,0,-1,986,337,0,0
-231,687,0,0,0,0,0,0,0,0,0,-1,993,337,0,0
-224,687,0,0,0,0,0,0,0,0,0,-1,1000,337,0,0
-217,687,0,0,0,0,0,0,0,0,0,-1,1007,337,0,0
-210,687,0,0,0,0,0,0,0,0,0,-1,1014,337,0,0
-203,687,0,0,0,0,0,0,0,0,0,-1,1021,337,0,0
-196,687,0,0,0,0,0,0,0,0,0,-1,1028,337,0,0
-189,687,0,0,0,0,0,0,0,0,0,-1,1035,337,0,0
-182,687,0,0,0,0,0,0,0,0,0,-1,1042,337,0,0
-175,687,0,0,0,0,0,0,0,0,0,-1,1049,337,0,0
-168,687,0,0,0,0,0,0,0,0,0,-1,1056,337,0,0
-161,687,0,0,0,0,0,0,0,0,0,-1,1063,337,0,0
-154,687,0,0,0,0,0,0,0,0,0,-1,1070,337,0,0
-147,687,0,0,0,0,0,0,0,0,0,-1,1077,337,0,0
-140,687,0,0,0,0,0,0,0,0,0,-1,1084,337,0,0
-133,687,3.94824,-12.1252,0,0,0,0,0,0,0,-1,1091,337,3.94828,12.1252
-126,687,4.90063,-11.4611,0,0,0,0,0,0,0,-1,1098,337,4.90064,11.4611
-119,687,2.34839,-14.2607,0,0,0,0,0,0,0,-1,1105,337,2.3484,14.2607
-112,687,4.97925,-16.3433,0,0,0,0,0,0,0,-1,1112,337,4.97921,16.3433
-105,687,5.18494,-14.7532,0,0,0,0,0,0,0,-1,1119,337,5.18497,14.7532
-98,687,5.27942,-13.1133,0,0,0,0,0,0,0,-1,1126,337,5.27944,13.1133
-91,687,2.28162,-7.72437,0,0,0,0,0,0,0,-1,1133,337,2.28167,7.72437
-84,687,-0.867676,-5.7392,0,0,0,0,0,0,0,-1,1140,337,-0.867619,5.73919
-77,687,-3.63806,-12.9185,0,0,0,0,0,0,0,-1,1147,337,-3.6381,12.9185
-70,687,-6.24756,-13.2618,0,0,0,0,0,0,0,-1,1154,337,-6.24752,13.2618
-63,687,-8.37585,-12.8959,0,0,0,0,0,0,0,-1,1161,337,-8.3758,12.8959
-56,687,-10.7112,-8.02322,0,0,0,0,0,0,0,-1,1168,337,-10.7112,8.02323
-49,687,-7.44934,-0.550262,0,0,0,0,0,0,0,-1,1175,337,-7.44938,0.550261
-42,687,-4.2019,-0.405609,0,0,0,0,0,0,0,-1,1182,337,-4.20192,0.405614
-35,687,-4.42273,-0.688171,0,0,0,0,0,0,0,-1,1189,337,-4.42276,0.688178
-28,687,-1.14038,-1.39072,0,0,0,0,0,0,0,-1,1196,337,-1.14035,1.3907
-21,687,1.9989,-14.6456,0,0,0,0,0,0,0,-1,1203,337,1.99886,14.6456
-14,687,2.302,-14.1722,0.0648639,0.0222284,0.0196161,0.0725158,0.0145766,0.371926,0.0442919,0.0480589,1210,337,2.30197,14.1722
-7,687,2.63354,-13.6064,0.0590795,0.0277608,0.0185198,0.067673,0.0191673,0.434447,0.0402763,0.0497199,1217,337,2.6335,13.6063
0,687,2.84448,-12.9244,0,0,0,0,0,0,0,-1,1224,337,2.84453,12.9244
7,687,3.35059,-14.7405,0.0438931,0.0343218,0.017552,0.0573001,0.0209147,0.652306,0.0334818,0.0480769,1231,337,3.35056,14.7405
14,687,3.64319,-14.3536,0.0342827,0.0353615,0.0189057,0.0537355,0.0159087,0.79966,0.0318729,0.0460021,1238,337,3.64321,14.3536
21,687,4.00745,-13.9865,0,0,0,0,0,0,0,-1,1245,337,4.00746,13.9866
28,687,4.44092,-13.467,0.0149747,0.0318234,0.0236614,0.0485154,-0.00171735,0.956419,0.032931,0.0452596,1252,337,4.44096,13.467
35,687,2.66248,-14.2662,0.0109953,0.0245928,0.0250539,0.043754,-0.00816595,0.917891,0.0322379,0.043501,1259,337,2.66247,14.2662
42,687,2.37183,-14.2394,0,0,0,0,0,0,0,-1,1266,337,2.37177,14.2394
49,687,2.63123,-13.8145,0,0,0,0,0,0,0,-1,1273,337,2.63126,13.8145
56,687,2.92358,-13.7474,0,0,0,0,0,0,0,-1,1280,337,2.92359,13.7474
63,687,3.45569,-13.6924,0,0,0,0,0,0,0,-1,1287,337,3.45565,13.6924
70,687,3.44434,-10.2593,0,0,0,0,0,0,0,-1,1294,337,3.44437,10.2593
77,687,2.55359,-9.13989,0,0,0,0,0,0,0,-1,1301,337,2.55354,9.1399
84,687,2.06506,-7.85867,0.0231139,0.0133817,0.00968107,0.029083,0.0074126,0.55252,0.0174507,0.0470875,1308,337,2.06505,7.85868
91,687,4.30933,-14.7995,0.0259722,0.0150896,0.00638482,0.0289198,0.012142,0.432507,0.0167682,0.0446134,1315,337,4.30929,14.7995
98,687,4.71631,-15.1435,0.0265608,0.0177824,0.00404259,0.0281388,0.0162044,0.372156,0.0163082,0.0457104,1322,337,4.71632,15.1435
105,687,2.73059,-13.6953,0.0260096,0.0201429,0.00253898,0.0269558,0.0191967,0.35673,0.0160231,0.0468715,1329,337,2.73054,13.6954
112,687,2.9137,-13.5018,0,0,0,0,0,0,0,-1,1336,337,2.91367,13.5018
119,687,3.11462,-13.2838,0.0228014,0.0245778,0.00219838,0.0260607,0.0213186,0.977391,0.0160286,0.0409419,1343,337,3.11461,13.2838
126,687,2.71741,-13.3042,0.0206922,0.0271346,0.00372586,0.0288387,0.0189881,1.14184,0.0169263,0.0428481,1350,337,2.71743,13.3042
133,687,2.73547,-12.9876,0.0182509,0.0293257,0.00635622,0.0322183,0.0153584,1.14373,0.018608,0.0473032,1357,337,2.73546,12.9876
140,687,2.52563,-12.8323,0.0174625,0.032282,0.00850429,0.0361517,0.0135927,1.14376,0.0210851,0.0473199,1364,337,2.52567,12.8323
147,687,2.35449,-12.7063,0.0189131,0.0324288,0.0101401,0.0378566,0.0134853,1.07932,0.0221557,0.0464372,1371,337,2.35447,12.7063
154,687,2.20142,-12.5894,0,0,0,0,0,0,0,-1,1378,337,2.20145,12.5894
161,687,1.80078,-12.469,0,0,0,0,0,0,0,-1,1385,337,1.80076,12.469
168,687,6.66968,1.37039,0,0,0,0,0,0,0,-1,1392,337,6.6697,-1.37039
175,687,6.64075,0.771606,0,0,0,0,0,0,0,-1,1399,337,6.64073,-0.771595
182,687,6.67249,0.289917,0,0,0,0,0,0,0,-1,1406,337,6.67247,-0.289916
189,687,7.76062,4.53635,0,0,0,0,0,0,0,-1,1413,337,7.76064,-4.53636
196,687,6.99048,3.2966,0,0,0,0,0,0,0,-1,1420,337,6.99046,-3.2966
203,687,6.36499,2.1445,0,0,0,0,0,0,0,-1,1427,337,6.36499,-2.14451
210,687,6.68066,0.674652,0,0,0,0,0,0,0,-1,1434,337,6.68062,-0.674655
217,687,5.99683,-0.630493,0,0,0,0,0,0,0,-1,1441,337,5.99684,0.630497
224,687,5.52917,0.524902,0,0,0,0,0,0,0,-1,1448,337,5.5292,-0.524915
231,687,5.85583,-1.73651,0,0,0,0,0,0,0,-1,1455,337,5.85577,1.73651
238,687,5.96582,-2.96774,0,0,0,0,0,0,0,-1,1462,337,5.96577,2.96773
245,687,1.28259,2.32211,0,0,0,0,0,0,0,-1,1469,337,1.28258,-2.32211
252,687,1.97278,3.88422,0,0,0,0,0,0,0,-1,1476,337,1.97281,-3.88421
259,687,0,0,0,0,0,0,0,0,0,-1,1483,337,0,0
266,687,0,0,0,0,0,0,0,0,0,-1,1490,337,0,0
273,687,0,0,0,0,0,0,0,0,0,-1,1497,337,0,0
280,687,0,0,0,0,0,0,0,0,0,-1,1504,337,0,0
287,687,0,0,0,0,0,0,0,0,0,-1,1511,337,0,0
294,687,0,0,0,0,0,0,0,0,0,-1,1518,337,0,0
301,687,0,0,0,0,0,0,0,0,0,-1,1525,337,0,0
308,687,0,0,0,0,0,0,0,0,0,-1,1532,337,0,0
315,687,0,0,0,0,0,0,0,0,0,-1,1539,337,0,0
322,687,0,0,0,0,0,0,0,0,0,-1,1546,337,0,0
329,687,0,0,0,0,0,0,0,0,0,-1,1553,337,0,0
336,687,0,0,0,0,0,0,0,0,0,-1,1560,337,0,0
343,687,0,0,0,0,0,0,0,0,0,-1,1567,337,0,0
350,687,0,0,0,0,0,0,0,0,0,-1,1574,337,0,0
357,687,0,0,0,0,0,0,0,0,0,-1,1581,337,0,0
364,687,0,0,0,0,0,0,0,0,0,-1,1588,337,0,0
371,687,0,0,0,0,0,0,0,0,0,-1,1595,337,0,0
378,687,0,0,0,0,0,0,0,0,0,-1,1602,337,0,0
385,687,0,0,0,0,0,0,0,0,0,-1,1609,337,0,0
392,687,0,0,0,0,0,0,0,0,0,-1,1616,337,0,0
399,687,0,0,0,0,0,0,0,0,0,-1,1623,337,0,0
406,687,0,0,0,0,0,0,0,0,0,-1,1630,337,0,0
413,687,0,0,0,0,0,0,0,0,0,-1,1637,337,0,0
420,687,0,0,0,0,0,0,0,0,0,-1,1644,337,0,0
427,687,0,0,0,0,0,0,0,0,0,-1,1651,337,0,0
434,687,0,0,0,0,0,0,0,0,0,-1,1658,337,0,0
441,687,0,0,0,0,0,0,0,0,0,-1,1665,337,0,0
448,687,0,0,0,0,0,0,0,0,0,-1,1672,337,0,0
455,687,0,0,0,0,0,0,0,0,0,-1,1679,337,0,0
462,687,0,0,0,0,0,0,0,0,0,-1,1686,337,0,0
469,687,0,0,0,0,0,0,0,0,0,-1,1693,337,0,0
476,687,0,0,0,0,0,0,0,0,0,-1,1700,337,0,0
483,687,0,0,0,0,0,0,0,0,0,-1,1707,337,0,0
490,687,0,0,0,0,0,0,0,0,0,-1,1714,337,0,0
497,687,0,0,0,0,0,0,0,0,0,-1,1721,337,0,0
504,687,0,0,0,0,0,0,0,0,0,-1,1728,337,0,0
511,687,0,0,0,0,0,0,0,0,0,-1,1735,337,0,0
518,687,0,0,0,0,0,0,0,0,0,-1,1742,337,0,0
525,687,0,0,0,0,0,0,0,0,0,-1,1749,337,0,0
532,687,0,0,0,0,0,0,0,0,0,-1,1756,337,0,0
539,687,0,0,0,0,0,0,0,0,0,-1,1763,337,0,0
546,687,0,0,0,0,0,0,0,0,0,-1,1770,337,0,0
553,687,0,0,0,0,0,0,0,0,0,-1,1777,337,0,0
560,687,0,0,0,0,0,0,0,0,0,-1,1784,337,0,0
567,687,0,0,0,0,0,0,0,0,0,-1,1791,337,0,0
574,687,0,0,0,0,0,0,0,0,0,-1,1798,337,0,0
581,687,0,0,0,0,0,0,0,0,0,-1,1805,337,0,0
588,687,0,0,0,0,0,0,0,0,0,-1,1812,337,0,0
595,687,0,0,0,0,0,0,0,0,0,-1,1819,337,0,0
602,687,0,0,0,0,0,0,0,0,0,-1,1826,337,0,0
609,687,0,0,0,0,0,0,0,0,0,-1,1833,337,0,0
616,687,0,0,0,0,0,0,0,0,0,-1,1840,337,0,0
623,687,0,0,0,0,0,0,0,0,0,-1,1847,337,0,0
630,687,0,0,0,0,0,0,0,0,0,-1,1854,337,0,0
637,687,0,0,0,0,0,0,0,0,0,-1,1861,337,0,0
644,687,0,0,0,0,0,0,0,0,0,-1,1868,337,0,0
651,687,0,0,0,0,0,0,0,0,0,-1,1875,337,0,0
658,687,0,0,0,0,0,0,0,0,0,-1,1882,337,0,0
665,687,0,0,0,0,0,0,0,0,0,-1,1889,337,0,0
672,687,0,0,0,0,0,0,0,0,0,-1,1896,337,0,0
679,687,0,0,0,0,0,0,0,0,0,-1,1903,337,0,0
686,687,0,0,0,0,0,0,0,0,0,-1,1910,337,0,0
693,687,0,0,0,0,0,0,0,0,0,-1,1917,337,0,0
700,687,0,0,0,0,0,0,0,0,0,-1,1924,337,0,0
707,687,0,0,0,0,0,0,0,0,0,-1,1931,337,0,0
714,687,0,0,0,0,0,0,0,0,0,-1,1938,337,0,0
721,687,0,0,0,0,0,0,0,0,0,-1,1945,337,0,0
728,687,0,0,0,0,0,0,0,0,0,-1,1952,337,0,0
735,687,0,0,0,0,0,0,0,0,0,-1,1959,337,0,0
742,687,0,0,0,0,0,0,0,0,0,-1,1966,337,0,0
749,687,0,0,0,0,0,0,0,0,0,-1,1973,337,0,0
756,687,0,0,0,0,0,0,0,0,0,-1,1980,337,0,0
763,687,0,0,0,0,0,0,0,0,0,-1,1987,337,0,0
770,687,0,0,0,0,0,0,0,0,0,-1,1994,337,0,0
777,687,0,0,0,0,0,0,0,0,0,-1,2001,337,0,0
784,687,0,0,0,0,0,0,0,0,0,-1,2008,337,0,0
791,687,0,0,0,0,0,0,0,0,0,-1,2015,337,0,0
798,687,0,0,0,0,0,0,0,0,0,-1,2022,337,0,0
805,687,0,0,0,0,0,0,0,0,0,-1,2029,337,0,0
812,687,0,0,0,0,0,0,0,0,0,-1,2036,337,0,0
-700,680,0,0,0,0,0,0,0,0,0,-1,524,344,0,0
-693,680,0,0,0,0,0,0,0,0,0,-1,531,344,0,0
-686,680,0,0,0,0,0,0,0,0,0,-1,538,344,0,0
-679,680,0,0,0,0,0,0,0,0,0,-1,545,344,0,0
-672,680,0,0,0,0,0,0,0,0,0,-1,552,344,0,0
-665,680,0,0,0,0,0,0,0,0,0,-1,559,344,0,0
-658,680,0,0,0,0,0,0,0,0,0,-1,566,344,0,0
-651,680,0,0,0,0,0,0,0,0,0,-1,573,344,0,0
-644,680,0,0,0,0,0,0,0,0,0,-1,580,344,0,0
-637,680,0,0,0,0,0,0,0,0,0,-1,587,344,0,0
-630,680,0,0,0,0,0,0,0,0,0,-1,594,344,0,0
-623,680,0,0,0,0,0,0,0,0,0,-1,601,344,0,0
-616,680,0,0,0,0,0,0,0,0,0,-1,608,344,0,0
-609,680,0,0,0,0,0,0,0,0,0,-1,615,344,0,0
-602,680,0,0,0,0,0,0,0,0,0,-1,622,344,0,0
-595,680,0,0,0,0,0,0,0,0,0,-1,629,344,0,0
-588,680,0,0,0,0,0,0,0,0,0,-1,636,344,0,0
-581,680,0,0,0,0,0,0,0,0,0,-1,643,344,0,0
-574,680,0,0,0,0,0,0,0,0,0,-1,650,344,0,0
-567,680,0,0,0,0,0,0,0,0,0,-1,657,344,0,0
-560,680,0,0,0,0,0,0,0,0,0,-1,664,344,0,0
-553,680,0,0,0,0,0,0,0,0,0,-1,671,344,0,0
-546,680,0,0,0,0,0,0,0,0,0,-1,678,344,0,0
-539,680,0,0,0,0,0,0,0,0,0,-1,685,344,0,0
-532,680,0,0,0,0,0,0,0,0,0,-1,692,344,0,0
-525,680,0,0,0,0,0,0,0,0,0,-1,699,344,0,0
-518,680,0,0,0,0,0,0,0,0,0,-1,706,344,0,0
-511,680,0,0,0,0,0,0,0,0,0,-1,713,344,0,0
-504,680,0,0,0,0,0,0,0,0,0,-1,720,344,0,0
-497,680,0,0,0,0,0,0,0,0,0,-1,727,344,0,0
-490,680,0,0,0,0,0,0,0,0,0,-1,734,344,0,0
-483,680,0,0,0,0,0,0,0,0,0,-1,741,344,0,0
-476,680,0,0,0,0,0,0,0,0,0,-1,748,344,0,0
-469,680,0,0,0,0,0,0,0,0,0,-1,755,344,0,0
-462,680,0,0,0,0,0,0,0,0,0,-1,762,344,0,0
-455,680,0,0,0,0,0,0,0,0,0,-1,769,344,0,0
-448,680,0,0,0,0,0,0,0,0,0,-1,776,344,0,0
-441,680,0,0,0,0,0,0,0,0,0,-1,783,344,0,0
-434,680,0,0,0,0,0,0,0,0,0,-1,790,344,0,0
-427,680,0,0,0,0,0,0,0,0,0,-1,797,344,0,0
-420,680,0,0,0,0,0,0,0,0,0,-1,804,344,0,0
-413,680,0,0,0,0,0,0,0,0,0,-1,811,344,0,0
-406,680,0,0,0,0,0,0,0,0,0,-1,818,344,0,0
-399,680,0,0,0,0,0,0,0,0,0,-1,825,344,0,0
-392,680,0,0,0,0,0,0,0,0,0,-1,832,344,0,0
-385,680,0,0,0,0,0,0,0,0,0,-1,839,344,0,0
-378,680,0,0,0,0,0,0,0,0,0,-1,846,344,0,0
-371,680,0,0,0,0,0,0,0,0,0,-1,853,344,0,0
-364,680,0,0,0,0,0,0,0,0,0,-1,860,344,0,0
-357,680,0,0,0,0,0,0,0,0,0,-1,867,344,0,0
-350,680,0,0,0,0,0,0,0,0,0,-1,874,344,0,0
-343,680,0,0,0,0,0,0,0,0,0,-1,881,344,0,0
-336,680,0,0,0,0,0,0,0,0,0,-1,888,344,0,0
-329,680,0,0,0,0,0,0,0,0,0,-1,895,344,0,0
-322,680,0,0,0,0,0,0,0,0,0,-1,902,344,0,0
-315,680,0,0,0,0,0,0,0,0,0,-1,909,344,0,0
-308,680,0,0,0,0,0,0,0,0,0,-1,916,344,0,0
-301,680,0,0,0,0,0,0,0,0,0,-1,923,344,0,0
-294,680,0,0,0,0,0,0,0,0,0,-1,930,344,0,0
-287,680,0,0,0,0,0,0,0,0,0,-1,937,344,0,0
-280,680,0,0,0,0,0,0,0,0,0,-1,944,344,0,0
-273,680,0,0,0,0,0,0,0,0,0,-1,951,344,0,0
-266,680,0,0,0,0,0,0,0,0,0,-1,958,344,0,0
-259,680,0,0,0,0,0,0,0,0,0,-1,965,344,0,0
-252,680,0,0,0,0,0,0,0,0,0,-1,972,344,0,0
-245,680,0,0,0,0,0,0,0,0,0,-1,979,344,0,0
-238,680,0,0,0,0,0,0,0,0,0,-1,986,344,0,0
-231,680,0,0,0,0,0,0,0,0,0,-1,993,344,0,0
-224,680,0,0,0,0,0,0,0,0,0,-1,1000,344,0,0
-217,680,0,0,0,0,0,0,0,0,0,-1,1007,344,0,0
-210,680,0,0,0,0,0,0,0,0,0,-1,1014,344,0,0
-203,680,0,0,0,0,0,0,0,0,0,-1,1021,344,0,0
-196,680,0,0,0,0,0,0,0,0,0,-1,1028,344,0,0
-189,680,0,0,0,0,0,0,0,0,0,-1,1035,344,0,0
-182,680,0,0,0,0,0,0,0,0,0,-1,1042,344,0,0
-175,680,0,0,0,0,0,0,0,0,0,-1,1049,344,0,0
-168,680,0,0,0,0,0,0,0,0,0,-1,1056,344,0,0
-161,680,0,0,0,0,0,0,0,0,0,-1,1063,344,0,0
-154,680,2.93018,-16.3629,0,0,0,0,0,0,0,-1,1070,344,2.93013,16.3629
-147,680,3.67163,-17.456,0,0,0,0,0,0,0,-1,1077,344,3.67165,17.456
-140,680,5.20984,-17.8335,0,0,0,0,0,0,0,-1,1084,344,5.20978,17.8335
-133,680,4.31287,-11.7563,0,0,0,0,0,0,0,-1,1091,344,4.31291,11.7563
-126,680,5.39258,-10.8755,0,0,0,0,0,0,0,-1,1098,344,5.39259,10.8755
-119,680,4.16895,-15.9802,0,0,0,0,0,0,0,-1,1105,344,4.16891,15.9802
-112,680,4.07593,-15.1262,0,0,0,0,0,0,0,-1,1112,344,4.07599,15.1262
-105,680,4.23413,-14.1487,0,0,0,0,0,0,0,-1,1119,344,4.23415,14.1487
-98,680,4.38269,-13.0401,0,0,0,0,0,0,0,-1,1126,344,4.38271,13.0401
-91,680,1.41431,-12.1647,0,0,0,0,0,0,0,-1,1133,344,1.41432,12.1647
-84,680,1.92285,-8.71033,0,0,0,0,0,0,0,-1,1140,344,1.92286,8.71034
-77,680,-0.118652,-5.75586,0,0,0,0,0,0,0,-1,1147,344,-0.118628,5.75586
-70,680,-4.04382,-16.124,0,0,0,0,0,0,0,-1,1154,344,-4.04388,16.124
-63,680,-5.41333,-13.0013,0,0,0,0,0,0,0,-1,1161,344,-5.41332,13.0013
-56,680,-6.96912,-8.83356,0,0,0,0,0,0,0,-1,1168,344,-6.96907,8.83354
-49,680,-6.7677,-2.24063,0,0,0,0,0,0,0,-1,1175,344,-6.76772,2.24063
-42,680,-1.02368,0.618805,0,0,0,0,0,0,0,-1,1182,344,-1.0237,-0.618797
-35,680,-0.947876,-0.942719,0,0,0,0,0,0,0,-1,1189,344,-0.947842,0.942731
-28,680,-1.46118,-1.10574,0,0,0,0,0,0,0,-1,1196,344,-1.4612,1.10575
-21,680,2.20276,-14.4115,0,0,0,0,0,0,0,-1,1203,344,2.2028,14.4115
-14,680,2.3645,-13.9663,0.0463965,0.0179251,0.0159738,0.0535575,0.0107641,0.421435,0.0327127,0.0470078,1210,344,2.36454,13.9663
-7,680,2.43933,-13.4802,0.0421455,0.0214857,0.0153152,0.0502889,0.0133423,0.488699,0.0300816,0.0498439,1217,344,2.43927,13.4802
0,680,2.54431,-13.0951,0,0,0,0,0,0,0,-1,1224,344,2.5443,13.0951
7,680,3.00623,-14.1606,0,0,0,0,0,0,0,-1,1231,344,3.00624,14.1606
14,680,3.18274,-14.3142,0,0,0,0,0,0,0,-1,1238,344,3.18277,14.3142
21,680,3.40112,-13.9236,0,0,0,0,0,0,0,-1,1245,344,3.40112,13.9236
28,680,2.81653,-14.1811,0.00946987,0.0246068,0.0191733,0.0376513,-0.00357465,0.973381,0.0263733,0.0409903,1252,344,2.81652,14.1811
35,680,2.62878,-14.2216,0.00730094,0.0191946,0.0197695,0.0338923,-0.00739677,0.931497,0.0254217,0.0414617,1259,344,2.62878,14.2216
42,680,2.50903,-14.148,0.00758393,0.0206274,0.0182063,0.0334448,-0.00523353,0.957384,0.0242302,0.0435176,1266,344,2.50908,14.148
49,680,2.64636,-13.9107,0.00796012,0.0181236,0.0168123,0.0306053,-0.00452164,0.932164,0.0220657,0.0429695,1273,344,2.64636,13.9107
56,680,2.80103,-13.876,0.00817721,0.0149603,0.0162823,0.0282005,-0.00506306,0.888078,0.0206955,0.0401048,1280,344,2.80103,13.876
63,680,2.91577,-13.9137,0.00955413,0.012813,0.013938,0.0252165,-0.0028494,0.843586,0.0178368,0.0375815,1287,344,2.91571,13.9137
70,680,2.94006,-13.9669,0.012282,0.0115354,0.0116379,0.0235526,0.000264755,0.769365,0.0156142,0.0366248,1294,344,2.94009,13.9669
77,680,2.82861,-14.1786,0.0157926,0.0109492,0.009503,0.0231777,0.00356424,0.660636,0.0144114,0.0407258,1301,344,2.82867,14.1786
84,680,3.94812,-14.4299,0,0,0,0,0,0,0,-1,1308,344,3.94813,14.4299
91,680,3.87671,-14.5518,0.0217452,0.0128692,0.00448835,0.0236191,0.0109952,0.395522,0.0136473,0.0429803,1315,344,3.87675,14.5518
98,680,2.75183,-14.5345,0.021779,0.0148608,0.00307523,0.0229483,0.0136915,0.363362,0.0133314,0.0458894,1322,344,2.7518,14.5345
105,680,2.58545,-14.1881,0.0208531,0.0165224,0.00233052,0.0218689,0.0155065,0.411059,0.0129887,0.0466127,1329,344,2.58542,14.1881
112,680,2.71521,-13.7713,0.0192196,0.0179117,0.00223969,0.0208989,0.0162325,0.643357,0.0126669,0.0472695,1336,344,2.71515,13.7713
119,680,2.87744,-13.3364,0.0173112,0.0195078,0.0026101,0.0212412,0.0155777,0.984544,0.0127011,0.0434292,1343,344,2.8774,13.3364
126,680,2.65491,-13.4835,0.0152186,0.0214284,0.00386032,0.0232775,0.0133695,1.12408,0.0134887,0.0423517,1350,344,2.65485,13.4835
133,680,2.57349,-13.1852,0.0130261,0.0232221,0.0057335,0.0257963,0.0104519,1.1488,0.0149825,0.0449473,1357,344,2.57344,13.1852
140,680,2.42578,-13.0471,0.010924,0.025839,0.00768657,0.0290912,0.00767175,1.17053,0.0174097,0.0463353,1364,344,2.42575,13.0471
147,680,2.50439,-12.8916,0.010331,0.0244173,0.00963557,0.0293094,0.00543889,1.101,0.0180026,0.0453731,1371,344,2.50435,12.8916
154,680,2.65845,-12.8464,0,0,0,0,0,0,0,-1,1378,344,2.6584,12.8464
161,680,1.83545,-12.9141,0,0,0,0,0,0,0,-1,1385,344,1.83546,12.9141
168,680,6.85046,1.69257,0,0,0,0,0,0,0,-1,1392,344,6.85045,-1.69257
175,680,6.66541,0.942078,0,0,0,0,0,0,0,-1,1399,344,6.66538,-0.942088
182,680,6.52917,0.532379,0,0,0,0,0,0,0,-1,1406,344,6.52922,-0.532385
189,680,7.55884,4.77695,0,0,0,0,0,0,0,-1,1413,344,7.55886,-4.77694
196,680,6.55627,3.35254,0,0,0,0,0,0,0,-1,1420,344,6.55622,-3.35255
203,680,5.7334,1.90753,0,0,0,0,0,0,0,-1,1427,344,5.73341,-1.90754
210,680,5.27515,0.493622,0,0,0,0,0,0,0,-1,1434,344,5.27514,-0.493632
217,680,3.96936,1.3656,0,0,0,0,0,0,0,-1,1441,344,3.96942,-1.36559
224,680,3.9491,-0.640228,0,0,0,0,0,0,0,-1,1448,344,3.94908,0.64024
231,680,4.24866,-1.96881,0,0,0,0,0,0,0,-1,1455,344,4.2486,1.96882
238,680,4.29333,-3.23984,0,0,0,0,0,0,0,-1,1462,344,4.29332,3.23984
245,680,2.44397,0.985382,0,0,0,0,0,0,0,-1,1469,344,2.44402,-0.985394
252,680,3.07349,2.18951,0,0,0,0,0,0,0,-1,1476,344,3.0735,-2.18952
259,680,2.82971,1.30682,0,0,0,0,0,0,0,-1,1483,344,2.82972,-1.30684
266,680,2.67554,1.44067,0,0,0,0,0,0,0,-1,1490,344,2.67551,-1.44066
273,680,2.46411,1.54666,0,0,0,0,0,0,0,-1,1497,344,2.46407,-1.54666
280,680,0,0,0,0,0,0,0,0,0,-1,1504,344,0,0
287,680,0,0,0,0,0,0,0,0,0,-1,1511,344,0,0
294,680,0,0,0,0,0,0,0,0,0,-1,1518,344,0,0
301,680,0,0,0,0,0,0,0,0,0,-1,1525,344,0,0
308,680,0,0,0,0,0,0,0,0,0,-1,1532,344,0,0
315,680,0,0,0,0,0,0,0,0,0,-1,1539,344,0,0
322,680,0,0,0,0,0,0,0,0,0,-1,1546,344,0,0
329,680,0,0,0,0,0,0,0,0,0,-1,1553,344,0,0
336,680,0,0,0,0,0,0,0,0,0,-1,1560,344,0,0
343,680,0,0,0,0,0,0,0,0,0,-1,1567,344,0,0
350,680,0,0,0,0,0,0,0,0,0,-1,1574,344,0,0
357,680,0,0,0,0,0,0,0,0,0,-1,1581,344,0,0
364,680,0,0,0,0,0,0,0,0,0,-1,1588,344,0,0
371,680,0,0,0,0,0,0,0,0,0,-1,1595,344,0,0
378,680,0,0,0,0,0,0,0,0,0,-1,1602,344,0,0
385,680,0,0,0,0,0,0,0,0,0,-1,1609,344,0,0
392,680,0,0,0,0,0,0,0,0,0,-1,1616,344,0,0
399,680,0,0,0,0,0,0,0,0,0,-1,1623,344,0,0
406,680,0,0,0,0,0,0,0,0,0,-1,1630,344,0,0
413,680,0,0,0,0,0,0,0,0,0,-1,1637,344,0,0
420,680,0,0,0,0,0,0,0,0,0,-1,1644,344,0,0
427,680,0,0,0,0,0,0,0,0,0,-1,1651,344,0,0
434,680,0,0,0,0,0,0,0,0,0,-1,1658,344,0,0
441,680,0,0,0,0,0,0,0,0,0,-1,1665,344,0,0
448,680,0,0,0,0,0,0,0,0,0,-1,1672,344,0,0
455,680,0,0,0,0,0,0,0,0,0,-1,1679,344,0,0
462,680,0,0,0,0,0,0,0,0,0,-1,1686,344,0,0
469,680,0,0,0,0,0,0,0,0,0,-1,1693,344,0,0
476,680,0,0,0,0,0,0,0,0,0,-1,1700,344,0,0
483,680,0,0,0,0,0,0,0,0,0,-1,1707,344,0,0
490,680,0,0,0,0,0,0,0,0,0,-1,1714,344,0,0
497,680,0,0,0,0,0,0,0,0,0,-1,1721,344,0,0
504,680,0,0,0,0,0,0,0,0,0,-1,1728,344,0,0
511,680,0,0,0,0,0,0,0,0,0,-1,1735,344,0,0
518,680,0,0,0,0,0,0,0,0,0,-1,1742,344,0,0
525,680,0,0,0,0,0,0,0,0,0,-1,1749,344,0,0
532,680,0,0,0,0,0,0,0,0,0,-1,1756,344,0,0
539,680,0,0,0,0,0,0,0,0,0,-1,1763,344,0,0
546,680,0,0,0,0,0,0,0,0,0,-1,1770,344,0,0
553,680,0,0,0,0,0,0,0,0,0,-1,1777,344,0,0
560,680,0,0,0,0,0,0,0,0,0,-1,1784,344,0,0
567,680,0,0,0,0,0,0,0,0,0,-1,1791,344,0,0
574,680,0,0,0,0,0,0,0,0,0,-1,1798,344,0,0
581,680,0,0,0,0,0,0,0,0,0,-1,1805,344,0,0
588,680,0,0,0,0,0,0,0,0,0,-1,1812,344,0,0
595,680,0,0,0,0,0,0,0,0,0,-1,1819,344,0,0
602,680,0,0,0,0,0,0,0,0,0,-1,1826,344,0,0
609,680,0,0,0,0,0,0,0,0,0,-1,1833,344,0,0
616,680,0,0,0,0,0,0,0,0,0,-1,1840,344,0,0
623,680,0,0,0,0,0,0,0,0,0,-1,1847,344,0,0
630,680,0,0,0,0,0,0,0,0,0,-1,1854,344,0,0
637,680,0,0,0,0,0,0,0,0,0,-1,1861,344,0,0
644,680,0,0,0,0,0,0,0,0,0,-1,1868,344,0,0
651,680,0,0,0,0,0,0,0,0,0,-1,1875,344,0,0
658,680,0,0,0,0,0,0,0,0,0,-1,1882,344,0,0
665,680,0,0,0,0,0,0,0,0,0,-1,1889,344,0,0
672,680,0,0,0,0,0,0,0,0,0,-1,1896,344,0,0
679,680,0,0,0,0,0,0,0,0,0,-1,1903,344,0,0
686,680,0,0,0,0,0,0,0,0,0,-1,1910,344,0,0
693,680,0,0,0,0,0,0,0,0,0,-1,1917,344,0,0
700,680,0,0,0,0,0,0,0,0,0,-1,1924,344,0,0
707,680,0,0,0,0,0,0,0,0,0,-1,1931,344,0,0
714,680,0,0,0,0,0,0,0,0,0,-1,1938,344,0,0
721,680,0,0,0,0,0,0,0,0,0,-1,1945,344,0,0
728,680,0,0,0,0,0,0,0,0,0,-1,1952,344,0,0
735,680,0,0,0,0,0,0,0,0,0,-1,1959,344,0,0
742,680,0,0,0,0,0,0,0,0,0,-1,1966,344,0,0
749,680,0,0,0,0,0,0,0,0,0,-1,1973,344,0,0
756,680,0,0,0,0,0,0,0,0,0,-1,1980,344,0,0
763,680,0,0,0,0,0,0,0,0,0,-1,1987,344,0,0
770,680,0,0,0,0,0,0,0,0,0,-1,1994,344,0,0
777,680,0,0,0,0,0,0,0,0,0,-1,2001,344,0,0
784,680,0,0,0,0,0,0,0,0,0,-1,2008,344,0,0
791,680,0,0,0,0,0,0,0,0,0,-1,2015,344,0,0
798,680,0,0,0,0,0,0,0,0,0,-1,2022,344,0,0
805,680,0,0,0,0,0,0,0,0,0,-1,2029,344,0,0
812,680,0,0,0,0,0,0,0,0,0,-1,2036,344,0,0
-700,673,0,0,0,0,0,0,0,0,0,-1,524,351,0,0
-693,673,0,0,0,0,0,0,0,0,0,-1,531,351,0,0
-686,673,0,0,0,0,0,0,0,0,0,-1,538,351,0,0
-679,673,0,0,0,0,0,0,0,0,0,-1,545,351,0,0
-672,673,0,0,0,0,0,0,0,0,0,-1,552,351,0,0
-665,673,0,0,0,0,0,0,0,0,0,-1,559,351,0,0
-658,673,0,0,0,0,0,0,0,0,0,-1,566,351,0,0
-651,673,0,0,0,0,0,0,0,0,0,-1,573,351,0,0
-644,673,0,0,0,0,0,0,0,0,0,-1,580,351,0,0
-637,673,0,0,0,0,0,0,0,0,0,-1,587,351,0,0
-630,673,0,0,0,0,0,0,0,0,0,-1,594,351,0,0
-623,673,0,0,0,0,0,0,0,0,0,-1,601,351,0,0
-616,673,0,0,0,0,0,0,0,0,0,-1,608,351,0,0
-609,673,0,0,0,0,0,0,0,0,0,-1,615,351,0,0
-602,673,0,0,0,0,0,0,0,0,0,-1,622,351,0,0
-595,673,0,0,0,0,0,0,0,0,0,-1,629,351,0,0
-588,673,0,0,0,0,0,0,0,0,0,-1,636,351,0,0
-581,673,0,0,0,0,0,0,0,0,0,-1,643,351,0,0
-574,673,0,0,0,0,0,0,0,0,0,-1,650,351,0,0
-567,673,0,0,0,0,0,0,0,0,0,-1,657,351,0,0
-560,673,0,0,0,0,0,0,0,0,0,-1,664,351,0,0
-553,673,0,0,0,0,0,0,0,0,0,-1,671,351,0,0
-546,673,0,0,0,0,0,0,0,0,0,-1,678,351,0,0
-539,673,0,0,0,0,0,0,0,0,0,-1,685,351,0,0
-532,673,0,0,0,0,0,0,0,0,0,-1,692,351,0,0
-525,673,0,0,0,0,0,0,0,0,0,-1,699,351,0,0
-518,673,0,0,0,0,0,0,0,0,0,-1,706,351,0,0
-511,673,0,0,0,0,0,0,0,0,0,-1,713,351,0,0
-504,673,0,0,0,0,0,0,0,0,0,-1,720,351,0,0
-497,673,0,0,0,0,0,0,0,0,0,-1,727,351,0,0
-490,673,0,0,0,0,0,0,0,0,0,-1,734,351,0,0
-483,673,0,0,0,0,0,0,0,0,0,-1,741,351,0,0
-476,673,0,0,0,0,0,0,0,0,0,-1,748,351,0,0
-469,673,0,0,0,0,0,0,0,0,0,-1,755,351,0,0
-462,673,0,0,0,0,0,0,0,0,0,-1,762,351,0,0
-455,673,0,0,0,0,0,0,0,0,0,-1,769,351,0,0
-448,673,0,0,0,0,0,0,0,0,0,-1,776,351,0,0
-441,673,0,0,0,0,0,0,0,0,0,-1,783,351,0,0
-434,673,0,0,0,0,0,0,0,0,0,-1,790,351,0,0
-427,673,0,0,0,0,0,0,0,0,0,-1,797,351,0,0
-420,673,0,0,0,0,0,0,0,0,0,-1,804,351,0,0
-413,673,0,0,0,0,0,0,0,0,0,-1,811,351,0,0
-406,673,0,0,0,0,0,0,0,0,0,-1,818,351,0,0
-399,673,0,0,0,0,0,0,0,0,0,-1,825,351,0,0
-392,673,0,0,0,0,0,0,0,0,0,-1,832,351,0,0
-385,673,0,0,0,0,0,0,0,0,0,-1,839,351,0,0
-378,673,0,0,0,0,0,0,0,0,0,-1,846,351,0,0
-371,673,0,0,0,0,0,0,0,0,0,-1,853,351,0,0
-364,673,0,0,0,0,0,0,0,0,0,-1,860,351,0,0
-357,673,0,0,0,0,0,0,0,0,0,-1,867,351,0,0
-350,673,0,0,0,0,0,0,0,0,0,-1,874,351,0,0
-343,673,0,0,0,0,0,0,0,0,0,-1,881,351,0,0
-336,673,0,0,0,0,0,0,0,0,0,-1,888,351,0,0
-329,673,0,0,0,0,0,0,0,0,0,-1,895,351,0,0
-322,673,0,0,0,0,0,0,0,0,0,-1,902,351,0,0
-315,673,0,0,0,0,0,0,0,0,0,-1,909,351,0,0
-308,673,0,0,0,0,0,0,0,0,0,-1,916,351,0,0
-301,673,0,0,0,0,0,0,0,0,0,-1,923,351,0,0
-294,673,0,0,0,0,0,0,0,0,0,-1,930,351,0,0
-287,673,0,0,0,0,0,0,0,0,0,-1,937,351,0,0
-280,673,0,0,0,0,0,0,0,0,0,-1,944,351,0,0
-273,673,0,0,0,0,0,0,0,0,0,-1,951,351,0,0
-266,673,0,0,0,0,0,0,0,0,0,-1,958,351,0,0
-259,673,0,0,0,0,0,0,0,0,0,-1,965,351,0,0
-252,673,0,0,0,0,0,0,0,0,0,-1,972,351,0,0
-245,673,0,0,0,0,0,0,0,0,0,-1,979,351,0,0
-238,673,0,0,0,0,0,0,0,0,0,-1,986,351,0,0
-231,673,0,0,0,0,0,0,0,0,0,-1,993,351,0,0
-224,673,0,0,0,0,0,0,0,0,0,-1,1000,351,0,0
-217,673,0,0,0,0,0,0,0,0,0,-1,1007,351,0,0
-210,673,0,0,0,0,0,0,0,0,0,-1,1014,351,0,0
-203,673,0,0,0,0,0,0,0,0,0,-1,1021,351,0,0
-196,673,0,0,0,0,0,0,0,0,0,-1,1028,351,0,0
-189,673,0,0,0,0,0,0,0,0,0,-1,1035,351,0,0
-182,673,0,0,0,0,0,0,0,0,0,-1,1042,351,0,0
-175,673,0.0117188,-12.6462,0,0,0,0,0,0,0,-1,1049,351,0.0117447,12.6462
-168,673,0.9375,-13.6093,0,0,0,0,0,0,0,-1,1056,351,0.937509,13.6093
-161,673,2.07959,-14.7435,0,0,0,0,0,0,0,-1,1063,351,2.07955,14.7435
-154,673,3.1676,-15.8547,0,0,0,0,0,0,0,-1,1070,351,3.16758,15.8547
-147,673,4.38293,-16.4111,0,0,0,0,0,0,0,-1,1077,351,4.38293,16.4111
-140,673,5.70911,-16.5766,0,0,0,0,0,0,0,-1,1084,351,5.70908,16.5766
-133,673,4.42725,-11.1406,0,0,0,0,0,0,0,-1,1091,351,4.42727,11.1406
-126,673,3.34668,-12.8099,0,0,0,0,0,0,0,-1,1098,351,3.34663,12.8099
-119,673,2.58777,-11.3328,0,0,0,0,0,0,0,-1,1105,351,2.58774,11.3328
-112,673,2.25818,-11.5403,0,0,0,0,0,0,0,-1,1112,351,2.25817,11.5403
-105,673,3.39172,-10.5479,0,0,0,0,0,0,0,-1,1119,351,3.39173,10.5479
-98,673,3.63,-11.0757,0,0,0,0,0,0,0,-1,1126,351,3.62996,11.0757
-91,673,2.17114,-12.2805,0,0,0,0,0,0,0,-1,1133,351,2.17118,12.2805
-84,673,2.86609,-11.5558,0,0,0,0,0,0,0,-1,1140,351,2.86611,11.5558
-77,673,1.60266,-8.87473,0,0,0,0,0,0,0,-1,1147,351,1.60268,8.87474
-70,673,1.88684,-4.7381,0,0,0,0,0,0,0,-1,1154,351,1.88682,4.73809
-63,673,1.11719,-2.95016,0,0,0,0,0,0,0,-1,1161,351,1.11724,2.95016
-56,673,-6.18872,-9.52338,0,0,0,0,0,0,0,-1,1168,351,-6.18874,9.52336
-49,673,-0.926758,-0.115448,0,0,0,0,0,0,0,-1,1175,351,-0.926732,0.115444
-42,673,-1.15015,0.289917,0,0,0,0,0,0,0,-1,1182,351,-1.15017,-0.289932
-35,673,-0.919556,-1.00711,0,0,0,0,0,0,0,-1,1189,351,-0.919514,1.00711
-28,673,1.03564,-2.58228,0,0,0,0,0,0,0,-1,1196,351,1.0356,2.58229
-21,673,2.66016,-13.723,0,0,0,0,0,0,0,-1,1203,351,2.66012,13.723
-14,673,2.53662,-13.9612,0.0318743,0.0138309,0.0123878,0.0381773,0.00752781,0.470673,0.0233503,0.0446168,1210,351,2.53656,13.9612
-7,673,2.64417,-13.8891,0.0289106,0.0160947,0.0120364,0.0361385,0.0088668,0.540789,0.0217478,0.0411322,1217,351,2.6442,13.8891
0,673,2.78955,-13.8715,0.0252393,0.0179776,0.011811,0.0339649,0.00925196,0.636277,0.0202756,0.0418727,1224,351,2.7896,13.8715
7,673,2.88281,-14.0558,0.0208783,0.0194646,0.0118804,0.0320728,0.00827002,0.755684,0.0192275,0.0421981,1231,351,2.88283,14.0558
14,673,2.85461,-14.0348,0.0157701,0.0202651,0.0126333,0.0308492,0.0051859,0.873429,0.019074,0.0369795,1238,351,2.85464,14.0348
21,673,2.78479,-13.9467,0.0105616,0.0199294,0.0136409,0.0296681,0.000822859,0.950777,0.0195102,0.023344,1245,351,2.78484,13.9467
28,673,2.77246,-13.9663,0.00560282,0.0184635,0.0149264,0.0282857,-0.0042194,0.988786,0.0204095,0.0165698,1252,351,2.7725,13.9663
35,673,2.75391,-14.0123,0.00460746,0.0145561,0.0150543,0.0254366,-0.00627311,0.944963,0.01939,0.0237878,1259,351,2.75389,14.0123
42,673,2.68274,-14.0292,0.00530379,0.016115,0.0135335,0.0252825,-0.00386372,0.975404,0.0182795,0.0269388,1266,351,2.68271,14.0292
49,673,2.65027,-13.99,0.00598358,0.0142957,0.0122796,0.0231035,-0.0028242,0.948574,0.0164249,0.0176682,1273,351,2.65022,13.99
56,673,2.65039,-13.9698,0.00651865,0.0120389,0.0117432,0.0213419,-0.00278439,0.900823,0.0152411,0.0143345,1280,351,2.65035,13.9697
63,673,2.68384,-13.9516,0.00797906,0.0103838,0.00987582,0.0191302,-0.000767325,0.845974,0.0130168,0.016776,1287,351,2.68388,13.9516
70,673,2.63513,-13.9228,0.010257,0.00952886,0.00812605,0.0180271,0.00175874,0.763011,0.0114769,0.0251158,1294,351,2.63516,13.9228
77,673,2.65894,-13.9635,0.0129473,0.00913475,0.00659201,0.0179031,0.00417892,0.644648,0.010815,0.0344291,1301,351,2.65899,13.9635
84,673,2.72485,-14.0232,0.0158322,0.00962399,0.00469585,0.0183572,0.00709903,0.493352,0.0106888,0.0402782,1308,351,2.72491,14.0232
91,673,3.01746,-14.424,0.0172246,0.0104636,0.00323864,0.0185256,0.00916259,0.381986,0.010696,0.0412384,1315,351,3.01743,14.424
98,673,2.67944,-14.2338,0.0169449,0.0119291,0.00247118,0.0179578,0.0109161,0.389012,0.0104481,0.0424636,1322,351,2.67941,14.2338
105,673,2.50305,-14.1403,0.0159113,0.0131123,0.00221165,0.0171291,0.0118946,0.503311,0.0101356,0.0397236,1329,351,2.50304,14.1403
112,673,2.5199,-13.8486,0.0143499,0.0140586,0.00236111,0.0165698,0.0118387,0.754593,0.00985559,0.0418865,1336,351,2.51986,13.8486
119,673,2.58923,-13.7582,0,0,0,0,0,0,0,-1,1343,351,2.58919,13.7582
126,673,2.50854,-13.555,0.010743,0.0166002,0.00375334,0.0184323,0.00891092,1.11669,0.0106438,0.0401994,1350,351,2.50852,13.555
133,673,2.45483,-13.466,0.00891771,0.01804,0.005053,0.0202859,0.00667173,1.15254,0.0119385,0.0395293,1357,351,2.45486,13.466
140,673,2.35791,-13.3762,0.00640214,0.0201549,0.00671195,0.0228877,0.00366942,1.18415,0.0141943,0.0391936,1364,351,2.35795,13.3762
147,673,2.45996,-13.2263,0.00501952,0.018178,0.00852676,0.0223687,0.000828807,1.11399,0.014644,0.0396303,1371,351,2.45992,13.2263
154,673,2.65576,-13.1135,0.00554966,0.0191061,0.00922353,0.0237742,0.000881589,1.10228,0.0155639,0.039761,1378,351,2.65572,13.1135
161,673,2.36353,-13.3672,0,0,0,0,0,0,0,-1,1385,351,2.36358,13.3672
168,673,6.87061,1.83954,0,0,0,0,0,0,0,-1,1392,351,6.87063,-1.83953
175,673,6.6228,1.1459,0,0,0,0,0,0,0,-1,1399,351,6.62276,-1.14591
182,673,6.37244,0.796112,0,0,0,0,0,0,0,-1,1406,351,6.3724,-0.796102
189,673,6.12097,0.265472,0,0,0,0,0,0,0,-1,1413,351,6.121,-0.265482
196,673,6.02173,3.12717,0,0,0,0,0,0,0,-1,1420,351,6.02176,-3.12717
203,673,5.04456,1.6351,0,0,0,0,0,0,0,-1,1427,351,5.04455,-1.63509
210,673,4.79224,0.447479,0,0,0,0,0,0,0,-1,1434,351,4.79229,-0.447469
217,673,2.01648,0.972687,0,0,0,0,0,0,0,-1,1441,351,2.01644,-0.972691
224,673,2.3689,-1.80539,0,0,0,0,0,0,0,-1,1448,351,2.36896,1.80539
231,673,2.65857,-2.18497,0,0,0,0,0,0,0,-1,1455,351,2.65852,2.18496
238,673,3.24146,-1.01593,0,0,0,0,0,0,0,-1,1462,351,3.24142,1.01593
245,673,3.5376,-0.190399,0,0,0,0,0,0,0,-1,1469,351,3.53759,0.1904
252,673,3.80518,0.55603,0,0,0,0,0,0,0,-1,1476,351,3.80519,-0.556022
259,673,3.88562,1.29617,0,0,0,0,0,0,0,-1,1483,351,3.88562,-1.29618
266,673,4.22424,2.04834,0,0,0,0,0,0,0,-1,1490,351,4.22429,-2.04834
273,673,6.07886,0.385895,0,0,0,0,0,0,0,-1,1497,351,6.0789,-0.385906
280,673,6.97534,-0.0820007,0,0,0,0,0,0,0,-1,1504,351,6.97536,0.0820122
287,673,7.66968,-0.348541,0,0,0,0,0,0,0,-1,1511,351,7.66969,0.348534
294,673,8.20996,0.28537,0,0,0,0,0,0,0,-1,1518,351,8.20993,-0.28536
301,673,0,0,0,0,0,0,0,0,0,-1,1525,351,0,0
308,673,0,0,0,0,0,0,0,0,0,-1,1532,351,0,0
315,673,0,0,0,0,0,0,0,0,0,-1,1539,351,0,0
322,673,0,0,0,0,0,0,0,0,0,-1,1546,351,0,0
329,673,0,0,0,0,0,0,0,0,0,-1,1553,351,0,0
336,673,0,0,0,0,0,0,0,0,0,-1,1560,351,0,0
343,673,0,0,0,0,0,0,0,0,0,-1,1567,351,0,0
350,673,0,0,0,0,0,0,0,0,0,-1,1574,351,0,0
357,673,0,0,0,0,0,0,0,0,0,-1,1581,351,0,0
364,673,0,0,0,0,0,0,0,0,0,-1,1588,351,0,0
371,673,0,0,0,0,0,0,0,0,0,-1,1595,351,0,0
378,673,0,0,0,0,0,0,0,0,0,-1,1602,351,0,0
385,673,0,0,0,0,0,0,0,0,0,-1,1609,351,0,0
392,673,0,0,0,0,0,0,0,0,0,-1,1616,351,0,0
399,673,0,0,0,0,0,0,0,0,0,-1,1623,351,0,0
406,673,0,0,0,0,0,0,0,0,0,-1,1630,351,0,0
413,673,0,0,0,0,0,0,0,0,0,-1,1637,351,0,0
420,673,0,0,0,0,0,0,0,0,0,-1,1644,351,0,0
427,673,0,0,0,0,0,0,0,0,0,-1,1651,351,0,0
434,673,0,0,0,0,0,0,0,0,0,-1,1658,351,0,0
441,673,0,0,0,0,0,0,0,0,0,-1,1665,351,0,0
448,673,0,0,0,0,0,0,0,0,0,-1,1672,351,0,0
455,673,0,0,0,0,0,0,0,0,0,-1,1679,351,0,0
462,673,0,0,0,0,0,0,0,0,0,-1,1686,351,0,0
469,673,0,0,0,0,0,0,0,0,0,-1,1693,351,0,0
476,673,0,0,0,0,0,0,0,0,0,-1,1700,351,0,0
483,673,0,0,0,0,0,0,0,0,0,-1,1707,351,0,0
490,673,0,0,0,0,0,0,0,0,0,-1,1714,351,0,0
497,673,0,0,0,0,0,0,0,0,0,-1,1721,351,0,0
504,673,0,0,0,0,0,0,0,0,0,-1,1728,351,0,0
511,673,0,0,0,0,0,0,0,0,0,-1,1735,351,0,0
518,673,0,0,0,0,0,0,0,0,0,-1,1742,351,0,0
525,673,0,0,0,0,0,0,0,0,0,-1,1749,351,0,0
532,673,0,0,0,0,0,0,0,0,0,-1,1756,351,0,0
539,673,0,0,0,0,0,0,0,0,0,-1,1763,351,0,0
546,673,0,0,0,0,0,0,0,0,0,-1,1770,351,0,0
553,673,0,0,0,0,0,0,0,0,0,-1,1777,351,0,0
560,673,0,0,0,0,0,0,0,0,0,-1,1784,351,0,0
567,673,0,0,0,0,0,0,0,0,0,-1,1791,351,0,0
574,673,0,0,0,0,0,0,0,0,0,-1,1798,351,0,0
581,673,0,0,0,0,0,0,0,0,0,-1,1805,351,0,0
588,673,0,0,0,0,0,0,0,0,0,-1,1812,351,0,0
595,673,0,0,0,0,0,0,0,0,0,-1,1819,351,0,0
602,673,0,0,0,0,0,0,0,0,0,-1,1826,351,0,0
609,673,0,0,0,0,0,0,0,0,0,-1,1833,351,0,0
616,673,0,0,0,0,0,0,0,0,0,-1,1840,351,0,0
623,673,0,0,0,0,0,0,0,0,0,-1,1847,351,0,0
630,673,0,0,0,0,0,0,0,0,0,-1,1854,351,0,0
637,673,0,0,0,0,0,0,0,0,0,-1,1861,351,0,0
644,673,0,0,0,0,0,0,0,0,0,-1,1868,351,0,0
651,673,0,0,0,0,0,0,0,0,0,-1,1875,351,0,0
658,673,0,0,0,0,0,0,0,0,0,-1,1882,351,0,0
665,673,0,0,0,0,0,0,0,0,0,-1,1889,351,0,0
672,673,0,0,0,0,0,0,0,0,0,-1,1896,351,0,0
679,673,0,0,0,0,0,0,0,0,0,-1,1903,351,0,0
686,673,0,0,0,0,0,0,0,0,0,-1,1910,351,0,0
693,673,0,0,0,0,0,0,0,0,0,-1,1917,351,0,0
700,673,0,0,0,0,0,0,0,0,0,-1,1924,351,0,0
707,673,0,0,0,0,0,0,0,0,0,-1,1931,351,0,0
714,673,0,0,0,0,0,0,0,0,0,-1,1938,351,0,0
721,673,0,0,0,0,0,0,0,0,0,-1,1945,351,0,0
728,673,0,0,0,0,0,0,0,0,0,-1,1952,351,0,0
735,673,0,0,0,0,0,0,0,0,0,-1,1959,351,0,0
742,673,0,0,0,0,0,0,0,0,0,-1,1966,351,0,0
749,673,0,0,0,0,0,0,0,0,0,-1,1973,351,0,0
756,673,0,0,0,0,0,0,0,0,0,-1,1980,351,0,0
763,673,0,0,0,0,0,0,0,0,0,-1,1987,351,0,0
770,673,0,0,0,0,0,0,0,0,0,-1,1994,351,0,0
777,673,0,0,0,0,0,0,0,0,0,-1,2001,351,0,0
784,673,0,0,0,0,0,0,0,0,0,-1,2008,351,0,0
791,673,0,0,0,0,0,0,0,0,0,-1,2015,351,0,0
798,673,0,0,0,0,0,0,0,0,0,-1,2022,351,0,0
805,673,0,0,0,0,0,0,0,0,0,-1,2029,351,0,0
812,673,0,0,0,0,0,0,0,0,0,-1,2036,351,0,0
-700,666,0,0,0,0,0,0,0,0,0,-1,524,358,0,0
-693,666,0,0,0,0,0,0,0,0,0,-1,531,358,0,0
-686,666,0,0,0,0,0,0,0,0,0,-1,538,358,0,0
-679,666,0,0,0,0,0,0,0,0,0,-1,545,358,0,0
-672,666,0,0,0,0,0,0,0,0,0,-1,552,358,0,0
-665,666,0,0,0,0,0,0,0,0,0,-1,559,358,0,0
-658,666,0,0,0,0,0,0,0,0,0,-1,566,358,0,0
-651,666,0,0,0,0,0,0,0,0,0,-1,573,358,0,0
-644,666,0,0,0,0,0,0,0,0,0,-1,580,358,0,0
-637,666,0,0,0,0,0,0,0,0,0,-1,587,358,0,0
-630,666,0,0,0,0,0,0,0,0,0,-1,594,358,0,0
-623,666,0,0,0,0,0,0,0,0,0,-1,601,358,0,0
-616,666,0,0,0,0,0,0,0,0,0,-1,608,358,0,0
-609,666,0,0,0,0,0,0,0,0,0,-1,615,358,0,0
-602,666,0,0,0,0,0,0,0,0,0,-1,622,358,0,0
-595,666,0,0,0,0,0,0,0,0,0,-1,629,358,0,0
-588,666,0,0,0,0,0,0,0,0,0,-1,636,358,0,0
-581,666,0,0,0,0,0,0,0,0,0,-1,643,358,0,0
-574,666,0,0,0,0,0,0,0,0,0,-1,650,358,0,0
-567,666,0,0,0,0,0,0,0,0,0,-1,657,358,0,0
-560,666,0,0,0,0,0,0,0,0,0,-1,664,358,0,0
-553,666,0,0,0,0,0,0,0,0,0,-1,671,358,0,0
-546,666,0,0,0,0,0,0,0,0,0,-1,678,358,0,0
-539,666,0,0,0,0,0,0,0,0,0,-1,685,358,0,0
-532,666,0,0,0,0,0,0,0,0,0,-1,692,358,0,0
-525,666,0,0,0,0,0,0,0,0,0,-1,699,358,0,0
-518,666,0,0,0,0,0,0,0,0,0,-1,706,358,0,0
-511,666,0,0,0,0,0,0,0,0,0,-1,713,358,0,0
-504,666,0,0,0,0,0,0,0,0,0,-1,720,358,0,0
-497,666,0,0,0,0,0,0,0,0,0,-1,727,358,0,0
-490,666,0,0,0,0,0,0,0,0,0,-1,734,358,0,0
-483,666,0,0,0,0,0,0,0,0,0,-1,741,358,0,0
-476,666,0,0,0,0,0,0,0,0,0,-1,748,358,0,0
-469,666,0,0,0,0,0,0,0,0,0,-1,755,358,0,0
-462,666,0,0,0,0,0,0,0,0,0,-1,762,358,0,0
-455,666,0,0,0,0,0,0,0,0,0,-1,769,358,0,0
-448,666,0,0,0,0,0,0,0,0,0,-1,776,358,0,0
-441,666,0,0,0,0,0,0,0,0,0,-1,783,358,0,0
-434,666,0,0,0,0,0,0,0,0,0,-1,790,358,0,0
-427,666,0,0,0,0,0,0,0,0,0,-1,797,358,0,0
-420,666,0,0,0,0,0,0,0,0,0,-1,804,358,0,0
-413,666,0,0,0,0,0,0,0,0,0,-1,811,358,0,0
-406,666,0,0,0,0,0,0,0,0,0,-1,818,358,0,0
-399,666,0,0,0,0,0,0,0,0,0,-1,825,358,0,0
-392,666,0,0,0,0,0,0,0,0,0,-1,832,358,0,0
-385,666,0,0,0,0,0,0,0,0,0,-1,839,358,0,0
-378,666,0,0,0,0,0,0,0,0,0,-1,846,358,0,0
-371,666,0,0,0,0,0,0,0,0,0,-1,853,358,0,0
-364,666,0,0,0,0,0,0,0,0,0,-1,860,358,0,0
-357,666,0,0,0,0,0,0,0,0,0,-1,867,358,0,0
-350,666,0,0,0,0,0,0,0,0,0,-1,874,358,0,0
-343,666,0,0,0,0,0,0,0,0,0,-1,881,358,0,0
-336,666,0,0,0,0,0,0,0,0,0,-1,888,358,0,0
-329,666,0,0,0,0,0,0,0,0,0,-1,895,358,0,0
-322,666,0,0,0,0,0,0,0,0,0,-1,902,358,0,0
-315,666,0,0,0,0,0,0,0,0,0,-1,909,358,0,0
-308,666,0,0,0,0,0,0,0,0,0,-1,916,358,0,0
-301,666,0,0,0,0,0,0,0,0,0,-1,923,358,0,0
-294,666,0,0,0,0,0,0,0,0,0,-1,930,358,0,0
-287,666,0,0,0,0,0,0,0,0,0,-1,937,358,0,0
-280,666,0,0,0,0,0,0,0,0,0,-1,944,358,0,0
-273,666,0,0,0,0,0,0,0,0,0,-1,951,358,0,0
-266,666,0,0,0,0,0,0,0,0,0,-1,958,358,0,0
-259,666,0,0,0,0,0,0,0,0,0,-1,965,358,0,0
-252,666,0,0,0,0,0,0,0,0,0,-1,972,358,0,0
-245,666,0,0,0,0,0,0,0,0,0,-1,979,358,0,0
-238,666,0,0,0,0,0,0,0,0,0,-1,986,358,0,0
-231,666,0,0,0,0,0,0,0,0,0,-1,993,358,0,0
-224,666,0,0,0,0,0,0,0,0,0,-1,1000,358,0,0
-217,666,0,0,0,0,0,0,0,0,0,-1,1007,358,0,0
-210,666,0,0,0,0,0,0,0,0,0,-1,1014,358,0,0
-203,666,0,0,0,0,0,0,0,0,0,-1,1021,358,0,0
-196,666,1.68958,-9.41406,0,0,0,0,0,0,0,-1,1028,358,1.68961,9.41406
-189,666,5.26538,-13.977,0,0,0,0,0,0,0,-1,1035,358,5.26541,13.977
-182,666,6.17688,-12.7998,0,0,0,0,0,0,0,-1,1042,358,6.17688,12.7998
-175,666,1.07922,-14.7207,0,0,0,0,0,0,0,-1,1049,358,1.07921,14.7207
-168,666,1.52307,-14.8425,0,0,0,0,0,0,0,-1,1056,358,1.52308,14.8425
-161,666,2.2666,-15.1104,0,0,0,0,0,0,0,-1,1063,358,2.26666,15.1104
-154,666,3.35693,-15.1993,0,0,0,0,0,0,0,-1,1070,358,3.35698,15.1993
-147,666,3.96851,-15.5034,0,0,0,0,0,0,0,-1,1077,358,3.96852,15.5035
-140,666,4.33569,-14.0707,0,0,0,0,0,0,0,-1,1084,358,4.33569,14.0707
-133,666,2.13062,-12.6639,0,0,0,0,0,0,0,-1,1091,358,2.13061,12.6639
-126,666,3.12463,-11.4328,0,0,0,0,0,0,0,-1,1098,358,3.12468,11.4328
-119,666,1.82532,-12.7102,0,0,0,0,0,0,0,-1,1105,358,1.82533,12.7102
-112,666,2.45288,-12.0727,0.00542192,0.0581642,-0.00846418,0.0594892,0.00409687,-1.41551,0.0383669,0.0438209,1112,358,2.45288,12.0727
-105,666,3.17285,-11.516,0.00463516,0.0609294,-0.0102406,0.0627345,0.00283013,-1.39633,0.0409122,0.0423329,1119,358,3.17289,11.516
-98,666,3.25586,-11.698,0.00336669,0.0613578,-0.0116567,0.0636132,0.00111132,-1.37967,0.0420432,0.0436499,1126,358,3.25586,11.698
-91,666,2.74182,-12.7343,0.00186253,0.0596118,-0.0126328,0.0622543,-0.000780001,-1.36459,0.0417653,0.0445858,1133,358,2.74182,12.7343
-84,666,3.33777,-12.3149,0,0,0,0,0,0,0,-1,1140,358,3.33778,12.3149
-77,666,0.964722,-10.3601,0,0,0,0,0,0,0,-1,1147,358,0.964669,10.3601
-70,666,2.05957,-6.51086,0,0,0,0,0,0,0,-1,1154,358,2.05959,6.51088
-63,666,1.47485,-3.79593,0,0,0,0,0,0,0,-1,1161,358,1.47481,3.79593
-56,666,0.424683,-2.04132,0,0,0,0,0,0,0,-1,1168,358,0.424665,2.04132
-49,666,0.754395,-2.23169,0,0,0,0,0,0,0,-1,1175,358,0.754383,2.23169
-42,666,1.34473,-3.53897,0,0,0,0,0,0,0,-1,1182,358,1.34476,3.53896
-35,666,2.56738,-13.9917,0,0,0,0,0,0,0,-1,1189,358,2.56733,13.9917
-28,666,2.72693,-13.7289,0,0,0,0,0,0,0,-1,1196,358,2.72694,13.7289
-21,666,2.71228,-13.7889,0.0225881,0.00847078,0.00907283,0.0270247,0.00403419,0.454807,0.0168337,0.0317199,1203,358,2.71232,13.7889
-14,666,2.74329,-13.8666,0.0209047,0.0101396,0.00912901,0.0261198,0.00492446,0.519026,0.0160259,0.0239857,1210,358,2.74331,13.8666
-7,666,2.76672,-13.8802,0.018963,0.01158,0.00898606,0.0249863,0.00555674,0.590505,0.0151489,0.0161938,1217,358,2.7667,13.8802
0,666,2.78735,-13.8932,0.0165029,0.0128643,0.00892179,0.023789,0.0055782,0.68482,0.0143656,0.011191,1224,358,2.78737,13.8932
7,666,2.75342,-13.938,0.0135331,0.0139425,0.00903953,0.0227797,0.00469599,0.796719,0.0138883,0.0138895,1231,358,2.75339,13.938
14,666,2.73901,-13.9568,0.01003,0.0145886,0.00959521,0.0221715,0.00244707,0.90201,0.0140366,0.0138889,1238,358,2.73906,13.9568
21,666,2.71045,-13.9713,0.00645529,0.0144228,0.0102882,0.0214717,-0.000593537,0.970117,0.0145163,0.0111035,1245,358,2.71048,13.9713
28,666,2.68713,-13.9848,0.00305555,0.0133976,0.0111338,0.0205027,-0.00404948,1.0028,0.0151992,0.0113765,1252,358,2.68715,13.9848
35,666,2.70313,-13.9828,0.00275922,0.0106859,0.0110229,0.0184363,-0.0049912,0.957979,0.014249,0.0103523,1259,358,2.7031,13.9827
42,666,2.67847,-14.0006,0.00356192,0.0121161,0.00970914,0.0184485,-0.00277046,0.99287,0.0133189,0.0116228,1266,358,2.67841,14.0006
49,666,2.65845,-13.9993,0.00430341,0.0108148,0.00868057,0.0168302,-0.00171191,0.964809,0.0118321,0.0103759,1273,358,2.65842,13.9993
56,666,2.65332,-13.9977,0.00492951,0.00924335,0.00821833,0.0155831,-0.00141023,0.91373,0.0108893,0.0116721,1280,358,2.65338,13.9977
63,666,2.604,-14.0074,0.00626318,0.00800589,0.00681823,0.0140082,0.00026086,0.848953,0.00925308,0.0133171,1287,358,2.60405,14.0074
70,666,2.58887,-13.9883,0.00805117,0.0074434,0.00555975,0.0133153,0.00217923,0.758096,0.00824702,0.0131881,1294,358,2.58882,13.9883
77,666,2.60767,-13.9458,0.010023,0.00718086,0.00452203,0.013342,0.00386185,0.633158,0.00792737,0.0162722,1301,358,2.60772,13.9458
84,666,2.58704,-13.9596,0.0120755,0.00750538,0.0032827,0.0137902,0.00579075,0.481346,0.00799573,0.0220956,1308,358,2.58707,13.9596
91,666,2.59058,-13.9594,0.012969,0.00809164,0.0023983,0.0139507,0.00710993,0.388527,0.00805492,0.0202937,1315,358,2.59063,13.9595
98,666,2.58264,-13.907,0.0125512,0.00916696,0.00205254,0.0135192,0.00819897,0.440675,0.00786408,0.0173201,1322,358,2.58269,13.907
105,666,2.55603,-13.8536,0.0115794,0.0100256,0.00207649,0.0130196,0.00858541,0.606381,0.00764316,0.0181937,1329,358,2.55597,13.8536
112,666,2.52417,-13.8293,0.0102368,0.0106941,0.00233311,0.0128098,0.00812119,0.834243,0.00748371,0.0213942,1336,358,2.52419,13.8293
119,666,2.50952,-13.7398,0.00876431,0.0114734,0.00272779,0.0131644,0.00707325,1.01585,0.00760753,0.0239255,1343,358,2.50948,13.7398
126,666,2.47034,-13.6183,0.00726217,0.0125468,0.00344746,0.014248,0.00556088,1.11237,0.00829186,0.0253115,1350,358,2.47036,13.6183
133,666,2.4353,-13.5684,0.00583098,0.0136699,0.00432305,0.0155857,0.00391512,1.15363,0.00936241,0.0219029,1357,358,2.43536,13.5684
140,666,2.41138,-13.6018,0.0034461,0.0152613,0.00564136,0.0175222,0.00118519,1.18962,0.0113072,0.0200488,1364,358,2.41132,13.6018
147,666,2.37573,-13.5433,0.00197591,0.0133274,0.00710136,0.0167425,-0.00143919,1.12254,0.011671,0.0194669,1371,358,2.37568,13.5433
154,666,2.37463,-13.407,0.00214384,0.0141546,0.00742963,0.0177025,-0.00140399,1.12529,0.0122964,0.0180479,1378,358,2.3746,13.407
161,666,2.40515,-13.3709,0.00400465,0.0142825,0.00675138,0.0176282,0.000658897,1.1107,0.0115388,0.0258333,1385,358,2.40512,13.3709
168,666,2.41443,-13.3565,0,0,0,0,0,0,0,-1,1392,358,2.41437,13.3565
175,666,2.60034,-13.4895,0,0,0,0,0,0,0,-1,1399,358,2.60036,13.4895
182,666,2.60876,-5.17068,0,0,0,0,0,0,0,-1,1406,358,2.6088,5.17068
189,666,2.46973,-5.49979,0,0,0,0,0,0,0,-1,1413,358,2.46975,5.49979
196,666,2.32458,-5.23651,0,0,0,0,0,0,0,-1,1420,358,2.32461,5.23653
203,666,2.28064,-3.88004,0,0,0,0,0,0,0,-1,1427,358,2.28059,3.88003
210,666,3.02576,-5.83548,0,0,0,0,0,0,0,-1,1434,358,3.02581,5.83547
217,666,2.30444,-5.36011,0,0,0,0,0,0,0,-1,1441,358,2.30447,5.3601
224,666,1.82324,-6.03101,0,0,0,0,0,0,0,-1,1448,358,1.82322,6.031
231,666,2.29797,-10.1093,0,0,0,0,0,0,0,-1,1455,358,2.29801,10.1093
238,666,2.52429,-6.10568,0,0,0,0,0,0,0,-1,1462,358,2.52423,6.10567
245,666,4.53345,-1.38205,0,0,0,0,0,0,0,-1,1469,358,4.53349,1.38204
252,666,4.77405,-0.246979,0,0,0,0,0,0,0,-1,1476,358,4.77405,0.246993
259,666,4.83655,1.14087,0,0,0,0,0,0,0,-1,1483,358,4.83652,-1.14087
266,666,6.14148,0.749512,0,0,0,0,0,0,0,-1,1490,358,6.14144,-0.749519
273,666,2.61304,-1.53772,0,0,0,0,0,0,0,-1,1497,358,2.613,1.53773
280,666,8.70898,-0.836975,0,0,0,0,0,0,0,-1,1504,358,8.70894,0.836988
287,666,2.27039,-4.09058,0,0,0,0,0,0,0,-1,1511,358,2.27042,4.09059
294,666,9.87,-1.10745,0,0,0,0,0,0,0,-1,1518,358,9.87,1.10745
301,666,3.61511,-3.23752,0,0,0,0,0,0,0,-1,1525,358,3.61511,3.23753
308,666,1.08496,-1.87576,0,0,0,0,0,0,0,-1,1532,358,1.08491,1.87575
315,666,1.76294,-0.284027,0,0,0,0,0,0,0,-1,1539,358,1.76291,0.284016
322,666,0,0,0,0,0,0,0,0,0,-1,1546,358,0,0
329,666,0,0,0,0,0,0,0,0,0,-1,1553,358,0,0
336,666,0,0,0,0,0,0,0,0,0,-1,1560,358,0,0
343,666,0,0,0,0,0,0,0,0,0,-1,1567,358,0,0
350,666,0,0,0,0,0,0,0,0,0,-1,1574,358,0,0
357,666,0,0,0,0,0,0,0,0,0,-1,1581,358,0,0
364,666,0,0,0,0,0,0,0,0,0,-1,1588,358,0,0
371,666,0,0,0,0,0,0,0,0,0,-1,1595,358,0,0
378,666,0,0,0,0,0,0,0,0,0,-1,1602,358,0,0
385,666,0,0,0,0,0,0,0,0,0,-1,1609,358,0,0
392,666,0,0,0,0,0,0,0,0,0,-1,1616,358,0,0
399,666,0,0,0,0,0,0,0,0,0,-1,1623,358,0,0
406,666,0,0,0,0,0,0,0,0,0,-1,1630,358,0,0
413,666,0,0,0,0,0,0,0,0,0,-1,1637,358,0,0
420,666,0,0,0,0,0,0,0,0,0,-1,1644,358,0,0
427,666,0,0,0,0,0,0,0,0,0,-1,1651,358,0,0
434,666,0,0,0,0,0,0,0,0,0,-1,1658,358,0,0
441,666,0,0,0,0,0,0,0,0,0,-1,1665,358,0,0
448,666,0,0,0,0,0,0,0,0,0,-1,1672,358,0,0
455,666,0,0,0,0,0,0,0,0,0,-1,1679,358,0,0
462,666,0,0,0,0,0,0,0,0,0,-1,1686,358,0,0
469,666,0,0,0,0,0,0,0,0,0,-1,1693,358,0,0
476,666,0,0,0,0,0,0,0,0,0,-1,1700,358,0,0
483,666,0,0,0,0,0,0,0,0,0,-1,1707,358,0,0
490,666,0,0,0,0,0,0,0,0,0,-1,1714,358,0,0
497,666,0,0,0,0,0,0,0,0,0,-1,1721,358,0,0
504,666,0,0,0,0,0,0,0,0,0,-1,1728,358,0,0
511,666,0,0,0,0,0,0,0,0,0,-1,1735,358,0,0
518,666,0,0,0,0,0,0,0,0,0,-1,1742,358,0,0
525,666,0,0,0,0,0,0,0,0,0,-1,1749,358,0,0
532,666,0,0,0,0,0,0,0,0,0,-1,1756,358,0,0
539,666,0,0,0,0,0,0,0,0,0,-1,1763,358,0,0
546,666,0,0,0,0,0,0,0,0,0,-1,1770,358,0,0
553,666,0,0,0,0,0,0,0,0,0,-1,1777,358,0,0
560,666,0,0,0,0,0,0,0,0,0,-1,1784,358,0,0
567,666,0,0,0,0,0,0,0,0,0,-1,1791,358,0,0
574,666,0,0,0,0,0,0,0,0,0,-1,1798,358,0,0
581,666,0,0,0,0,0,0,0,0,0,-1,1805,358,0,0
588,666,0,0,0,0,0,0,0,0,0,-1,1812,358,0,0
595,666,0,0,0,0,0,0,0,0,0,-1,1819,358,0,0
602,666,0,0,0,0,0,0,0,0,0,-1,1826,358,0,0
609,666,0,0,0,0,0,0,0,0,0,-1,1833,358,0,0
616,666,0,0,0,0,0,0,0,0,0,-1,1840,358,0,0
623,666,0,0,0,0,0,0,0,0,0,-1,1847,358,0,0
630,666,0,0,0,0,0,0,0,0,0,-1,1854,358,0,0
637,666,0,0,0,0,0,0,0,0,0,-1,1861,358,0,0
644,666,0,0,0,0,0,0,0,0,0,-1,1868,358,0,0
651,666,0,0,0,0,0,0,0,0,0,-1,1875,358,0,0
658,666,0,0,0,0,0,0,0,0,0,-1,1882,358,0,0
665,666,0,0,0,0,0,0,0,0,0,-1,1889,358,0,0
672,666,0,0,0,0,0,0,0,0,0,-1,1896,358,0,0
679,666,0,0,0,0,0,0,0,0,0,-1,1903,358,0,0
686,666,0,0,0,0,0,0,0,0,0,-1,1910,358,0,0
693,666,0,0,0,0,0,0,0,0,0,-1,1917,358,0,0
700,666,0,0,0,0,0,0,0,0,0,-1,1924,358,0,0
707,666,0,0,0,0,0,0,0,0,0,-1,1931,358,0,0
714,666,0,0,0,0,0,0,0,0,0,-1,1938,358,0,0
721,666,0,0,0,0,0,0,0,0,0,-1,1945,358,0,0
728,666,0,0,0,0,0,0,0,0,0,-1,1952,358,0,0
735,666,0,0,0,0,0,0,0,0,0,-1,1959,358,0,0
742,666,0,0,0,0,0,0,0,0,0,-1,1966,358,0,0
749,666,0,0,0,0,0,0,0,0,0,-1,1973,358,0,0
756,666,0,0,0,0,0,0,0,0,0,-1,1980,358,0,0
763,666,0,0,0,0,0,0,0,0,0,-1,1987,358,0,0
770,666,0,0,0,0,0,0,0,0,0,-1,1994,358,0,0
777,666,0,0,0,0,0,0,0,0,0,-1,2001,358,0,0
784,666,0,0,0,0,0,0,0,0,0,-1,2008,358,0,0
791,666,0,0,0,0,0,0,0,0,0,-1,2015,358,0,0
798,666,0,0,0,0,0,0,0,0,0,-1,2022,358,0,0
805,666,0,0,0,0,0,0,0,0,0,-1,2029,358,0,0
812,666,0,0,0,0,0,0,0,0,0,-1,2036,358,0,0
-700,659,0,0,0,0,0,0,0,0,0,-1,524,365,0,0
-693,659,0,0,0,0,0,0,0,0,0,-1,531,365,0,0
-686,659,0,0,0,0,0,0,0,0,0,-1,538,365,0,0
-679,659,0,0,0,0,0,0,0,0,0,-1,545,365,0,0
-672,659,0,0,0,0,0,0,0,0,0,-1,552,365,0,0
-665,659,0,0,0,0,0,0,0,0,0,-1,559,365,0,0
-658,659,0,0,0,0,0,0,0,0,0,-1,566,365,0,0
-651,659,0,0,0,0,0,0,0,0,0,-1,573,365,0,0
-644,659,0,0,0,0,0,0,0,0,0,-1,580,365,0,0
-637,659,0,0,0,0,0,0,0,0,0,-1,587,365,0,0
-630,659,0,0,0,0,0,0,0,0,0,-1,594,365,0,0
-623,659,0,0,0,0,0,0,0,0,0,-1,601,365,0,0
-616,659,0,0,0,0,0,0,0,0,0,-1,608,365,0,0
-609,659,0,0,0,0,0,0,0,0,0,-1,615,365,0,0
-602,659,0,0,0,0,0,0,0,0,0,-1,622,365,0,0
-595,659,0,0,0,0,0,0,0,0,0,-1,629,365,0,0
-588,659,0,0,0,0,0,0,0,0,0,-1,636,365,0,0
-581,659,0,0,0,0,0,0,0,0,0,-1,643,365,0,0
-574,659,0,0,0,0,0,0,0,0,0,-1,650,365,0,0
-567,659,0,0,0,0,0,0,0,0,0,-1,657,365,0,0
-560,659,0,0,0,0,0,0,0,0,0,-1,664,365,0,0
-553,659,0,0,0,0,0,0,0,0,0,-1,671,365,0,0
-546,659,0,0,0,0,0,0,0,0,0,-1,678,365,0,0
-539,659,0,0,0,0,0,0,0,0,0,-1,685,365,0,0
-532,659,0,0,0,0,0,0,0,0,0,-1,692,365,0,0
-525,659,0,0,0,0,0,0,0,0,0,-1,699,365,0,0
-518,659,0,0,0,0,0,0,0,0,0,-1,706,365,0,0
-511,659,0,0,0,0,0,0,0,0,0,-1,713,365,0,0
-504,659,0,0,0,0,0,0,0,0,0,-1,720,365,0,0
-497,659,0,0,0,0,0,0,0,0,0,-1,727,365,0,0
-490,659,0,0,0,0,0,0,0,0,0,-1,734,365,0,0
-483,659,0,0,0,0,0,0,0,0,0,-1,741,365,0,0
-476,659,0,0,0,0,0,0,0,0,0,-1,748,365,0,0
-469,659,0,0,0,0,0,0,0,0,0,-1,755,365,0,0
-462,659,0,0,0,0,0,0,0,0,0,-1,762,365,0,0
-455,659,0,0,0,0,0,0,0,0,0,-1,769,365,0,0
-448,659,0,0,0,0,0,0,0,0,0,-1,776,365,0,0
-441,659,0,0,0,0,0,0,0,0,0,-1,783,365,0,0
-434,659,0,0,0,0,0,0,0,0,0,-1,790,365,0,0
-427,659,0,0,0,0,0,0,0,0,0,-1,797,365,0,0
-420,659,0,0,0,0,0,0,0,0,0,-1,804,365,0,0
-413,659,0,0,0,0,0,0,0,0,0,-1,811,365,0,0
-406,659,0,0,0,0,0,0,0,0,0,-1,818,365,0,0
-399,659,0,0,0,0,0,0,0,0,0,-1,825,365,0,0
-392,659,0,0,0,0,0,0,0,0,0,-1,832,365,0,0
-385,659,0,0,0,0,0,0,0,0,0,-1,839,365,0,0
-378,659,0,0,0,0,0,0,0,0,0,-1,846,365,0,0
-371,659,0,0,0,0,0,0,0,0,0,-1,853,365,0,0
-364,659,0,0,0,0,0,0,0,0,0,-1,860,365,0,0
-357,659,0,0,0,0,0,0,0,0,0,-1,867,365,0,0
-350,659,0,0,0,0,0,0,0,0,0,-1,874,365,0,0
-343,659,0,0,0,0,0,0,0,0,0,-1,881,365,0,0
-336,659,0,0,0,0,0,0,0,0,0,-1,888,365,0,0
-329,659,0,0,0,0,0,0,0,0,0,-1,895,365,0,0
-322,659,0,0,0,0,0,0,0,0,0,-1,902,365,0,0
-315,659,0,0,0,0,0,0,0,0,0,-1,909,365,0,0
-308,659,0,0,0,0,0,0,0,0,0,-1,916,365,0,0
-301,659,0,0,0,0,0,0,0,0,0,-1,923,365,0,0
-294,659,0,0,0,0,0,0,0,0,0,-1,930,365,0,0
-287,659,0,0,0,0,0,0,0,0,0,-1,937,365,0,0
-280,659,0,0,0,0,0,0,0,0,0,-1,944,365,0,0
-273,659,0,0,0,0,0,0,0,0,0,-1,951,365,0,0
-266,659,0,0,0,0,0,0,0,0,0,-1,958,365,0,0
-259,659,0,0,0,0,0,0,0,0,0,-1,965,365,0,0
-252,659,0,0,0,0,0,0,0,0,0,-1,972,365,0,0
-245,659,0,0,0,0,0,0,0,0,0,-1,979,365,0,0
-238,659,0,0,0,0,0,0,0,0,0,-1,986,365,0,0
-231,659,0,0,0,0,0,0,0,0,0,-1,993,365,0,0
-224,659,0,0,0,0,0,0,0,0,0,-1,1000,365,0,0
-217,659,1.57928,-8.48126,0,0,0,0,0,0,0,-1,1007,365,1.57926,8.48126
-210,659,2.00287,-9.36227,0,0,0,0,0,0,0,-1,1014,365,2.00284,9.36228
-203,659,2.23798,-10.0347,0,0,0,0,0,0,0,-1,1021,365,2.23795,10.0347
-196,659,3.26367,-12.3659,0,0,0,0,0,0,0,-1,1028,365,3.26361,12.3659
-189,659,4.08716,-12.5415,0,0,0,0,0,0,0,-1,1035,365,4.08715,12.5415
-182,659,1.23779,-13.8358,0,0,0,0,0,0,0,-1,1042,365,1.23778,13.8358
-175,659,1.42932,-13.6959,0,0,0,0,0,0,0,-1,1049,365,1.4293,13.6959
-168,659,1.83704,-13.8517,0,0,0,0,0,0,0,-1,1056,365,1.83705,13.8517
-161,659,2.33862,-14.0818,0,0,0,0,0,0,0,-1,1063,365,2.33862,14.0818
-154,659,3.05579,-14.1869,0,0,0,0,0,0,0,-1,1070,365,3.05577,14.1869
-147,659,3.40405,-14.2679,0,0,0,0,0,0,0,-1,1077,365,3.40402,14.2679
-140,659,3.3728,-12.9516,0,0,0,0,0,0,0,-1,1084,365,3.3728,12.9516
-133,659,2.44214,-12.7537,0,0,0,0,0,0,0,-1,1091,365,2.44208,12.7537
-126,659,2.81433,-12.4144,0,0,0,0,0,0,0,-1,1098,365,2.81439,12.4144
-119,659,3.0824,-12.683,0.00214448,0.037382,-0.00464726,0.0379845,0.00154189,-1.44185,0.024825,0.0420487,1105,365,3.08234,12.683
-112,659,3.18079,-12.6797,0.00235652,0.0406185,-0.00581993,0.0414842,0.00149085,-1.42314,0.0271728,0.0397138,1112,365,3.18081,12.6797
-105,659,3.03882,-12.6291,0.00204765,0.0426878,-0.00698796,0.0438558,0.000879658,-1.40518,0.0289484,0.0390939,1119,365,3.03881,12.6291
-98,659,2.92078,-12.5463,0.00137122,0.0429527,-0.00789297,0.0444006,-7.66031e-05,-1.38938,0.029626,0.0406428,1126,365,2.92077,12.5463
-91,659,2.87854,-13.0221,0.000559405,0.0416321,-0.00847458,0.043312,-0.00112046,-1.37511,0.0292553,0.0426317,1133,365,2.87848,13.0221
-84,659,3.02747,-13.0218,0,0,0,0,0,0,0,-1,1140,365,3.02752,13.0218
-77,659,2.81433,-12.8881,0,0,0,0,0,0,0,-1,1147,365,2.81435,12.8881
-70,659,2.9353,-12.7028,0,0,0,0,0,0,0,-1,1154,365,2.93533,12.7028
-63,659,2.11267,-9.7796,0,0,0,0,0,0,0,-1,1161,365,2.11266,9.7796
-56,659,2.11182,-9.91541,0,0,0,0,0,0,0,-1,1168,365,2.11178,9.91541
-49,659,2.78467,-13.5925,0,0,0,0,0,0,0,-1,1175,365,2.78469,13.5925
-42,659,2.80701,-13.6993,0,0,0,0,0,0,0,-1,1182,365,2.80701,13.6993
-35,659,2.75085,-13.8481,0.0137128,0.0035691,0.00594078,0.0164522,0.000829635,0.43207,0.0107023,0.044363,1189,365,2.7509,13.8481
-28,659,2.79968,-13.8177,0.0146709,0.0049531,0.0058244,0.017397,0.00222698,0.437764,0.0109316,0.0165608,1196,365,2.7997,13.8177
-21,659,2.77393,-13.8377,0.0141372,0.00596399,0.00620278,0.0174786,0.00262261,0.494118,0.010884,0.0110839,1203,365,2.77391,13.8377
-14,659,2.75793,-13.8986,0.0130431,0.00705781,0.00638202,0.0170993,0.00300162,0.566161,0.0105424,0.0085264,1210,365,2.75789,13.8986
-7,659,2.76196,-13.9321,0.0118709,0.00795805,0.0063657,0.0165741,0.00325493,0.636309,0.0101401,0.00885965,1217,365,2.76192,13.9321
0,659,2.75098,-13.9383,0.0103253,0.00881081,0.00639123,0.016004,0.0031321,0.726434,0.00979367,0.00813726,1224,365,2.75094,13.9383
7,659,2.73059,-13.9538,0.00841219,0.00956668,0.00652284,0.0155378,0.00244111,0.829531,0.0096483,0.00700366,1231,365,2.73058,13.9538
14,659,2.70923,-13.974,0.00618702,0.0100767,0.00686783,0.0152698,0.000993988,0.923378,0.00986522,0.00933514,1238,365,2.70918,13.974
21,659,2.70642,-13.9842,0.00391211,0.0100179,0.00727376,0.0148534,-0.000923465,0.984089,0.010224,0.0113958,1245,365,2.70638,13.9842
28,659,2.70483,-13.9941,0.00171682,0.00932611,0.00778253,0.0141842,-0.00314128,1.01275,0.0106587,0.010522,1252,365,2.70485,13.9941
35,659,2.67395,-14.0014,0.00185511,0.00749419,0.00754111,0.0127256,-0.00337632,0.964296,0.00980491,0.0103597,1259,365,2.67389,14.0014
42,659,2.65784,-14.0165,0.00267379,0.008685,0.00644594,0.0127916,-0.00143283,1.00355,0.00904327,0.0108692,1266,365,2.65783,14.0165
49,659,2.64661,-14.0257,0.0034075,0.00775679,0.0056177,0.0116061,-0.000441779,0.970069,0.00788877,0.0110534,1273,365,2.64658,14.0257
56,659,2.64429,-14.0224,0.00402772,0.00666989,0.00523568,0.0107486,-5.09745e-05,0.90898,0.00718278,0.0146423,1280,365,2.64431,14.0224
63,659,2.61877,-14.0316,0.00515332,0.00575926,0.00421852,0.00968567,0.00122691,0.821247,0.00608948,0.0159748,1287,365,2.61877,14.0316
70,659,2.60205,-14.0232,0.00648396,0.00538543,0.00335824,0.00933756,0.00253184,0.704337,0.0055761,0.0168684,1294,365,2.60206,14.0232
77,659,2.58276,-14.0031,0.0078484,0.00520844,0.00272149,0.00955313,0.00350371,0.559602,0.0055804,0.0161475,1301,365,2.58282,14.003
84,659,2.58765,-13.9842,0.00922437,0.00542336,0.0019755,0.0100651,0.0045826,0.402372,0.00581884,0.0115847,1308,365,2.58763,13.9842
91,659,2.56274,-13.95,0.00971233,0.00583903,0.0015084,0.0102304,0.00532091,0.330863,0.00590814,0.0101239,1315,365,2.56271,13.95
98,659,2.55103,-13.9105,0.00920143,0.00663444,0.00145449,0.00985776,0.00597811,0.423885,0.0057342,0.00767119,1322,365,2.55097,13.9105
105,659,2.53967,-13.8542,0.00830731,0.00727566,0.00166232,0.009532,0.00605098,0.634956,0.00556958,0.00888382,1329,365,2.53963,13.8543
112,659,2.53479,-13.8265,0.00717772,0.00777526,0.00198644,0.00948528,0.00546771,0.86004,0.00549762,0.0103217,1336,365,2.5348,13.8265
119,659,2.55054,-13.7827,0.00593422,0.00835236,0.00240221,0.00983262,0.00445397,1.01855,0.00568522,0.0117376,1343,365,2.5506,13.7827
126,659,2.51526,-13.7084,0.00471845,0.00916689,0.00296829,0.0106518,0.00323351,1.10693,0.00630606,0.0127576,1350,365,2.51522,13.7084
133,659,2.46667,-13.6617,0.00365525,0.0100281,0.0035399,0.0116045,0.00207888,1.15185,0.00714489,0.0113455,1357,365,2.46671,13.6617
140,659,2.44458,-13.6136,0.00167592,0.0111736,0.00452724,0.0129858,-0.000136293,1.19004,0.00870298,0.00914913,1364,365,2.44456,13.6136
147,659,2.45239,-13.5426,0.000442195,0.0095881,0.00558531,0.0122337,-0.00220341,1.12843,0.00898083,0.00813537,1371,365,2.45237,13.5426
154,659,2.44312,-13.4492,0.000490453,0.0102612,0.0056576,0.0128508,-0.00209915,1.14154,0.00934583,0.00875387,1378,365,2.44308,13.4492
161,659,2.43213,-13.3905,0.00172871,0.0102607,0.00504999,0.0126054,-0.000615981,1.13612,0.00861625,0.0106021,1385,365,2.43209,13.3905
168,659,2.44788,-13.3516,0.00224111,0.00850392,0.00541577,0.0116284,-0.000883383,1.04752,0.00806288,0.0187944,1392,365,2.44785,13.3516
175,659,2.45837,-13.3082,0.00278618,0.00829919,0.00528807,0.0115061,-0.000420704,1.02566,0.00781473,0.0421617,1399,365,2.45835,13.3082
182,659,2.33911,-13.2902,0,0,0,0,0,0,0,-1,1406,365,2.33906,13.2902
189,659,2.41211,-13.028,0,0,0,0,0,0,0,-1,1413,365,2.41207,13.028
196,659,2.3562,-11.9105,0,0,0,0,0,0,0,-1,1420,365,2.35617,11.9105
203,659,2.38623,-12.2163,0,0,0,0,0,0,0,-1,1427,365,2.38617,12.2163
210,659,2.26526,-12.9318,0,0,0,0,0,0,0,-1,1434,365,2.26523,12.9318
217,659,2.42188,-12.3343,0,0,0,0,0,0,0,-1,1441,365,2.42182,12.3343
224,659,2.3385,-12.4091,0,0,0,0,0,0,0,-1,1448,365,2.33853,12.4092
231,659,2.29456,-12.5178,0,0,0,0,0,0,0,-1,1455,365,2.29461,12.5178
238,659,2.67053,-12.6286,0,0,0,0,0,0,0,-1,1462,365,2.67052,12.6286
245,659,2.37061,-12.7079,0,0,0,0,0,0,0,-1,1469,365,2.37065,12.7079
252,659,1.90186,-12.9124,0,0,0,0,0,0,0,-1,1476,365,1.90186,12.9124
259,659,2.33069,-3.36703,0,0,0,0,0,0,0,-1,1483,365,2.33073,3.36702
266,659,2.15417,-11.5728,0,0,0,0,0,0,0,-1,1490,365,2.15414,11.5728
273,659,2.11707,-11.4852,0,0,0,0,0,0,0,-1,1497,365,2.11701,11.4852
280,659,1.70947,-9.4129,0,0,0,0,0,0,0,-1,1504,365,1.70952,9.4129
287,659,3.03662,-10.7155,0,0,0,0,0,0,0,-1,1511,365,3.03656,10.7154
294,659,3.79797,-10.4218,0,0,0,0,0,0,0,-1,1518,365,3.79793,10.4218
301,659,4.16455,-9.48904,0,0,0,0,0,0,0,-1,1525,365,4.16457,9.48904
308,659,1.84546,-4.83203,0,0,0,0,0,0,0,-1,1532,365,1.84545,4.83203
315,659,2.02905,-3.83633,0,0,0,0,0,0,0,-1,1539,365,2.0291,3.83632
322,659,0.382813,-2.2424,0,0,0,0,0,0,0,-1,1546,365,0.382801,2.2424
329,659,0.604004,-1.75998,0,0,0,0,0,0,0,-1,1553,365,0.603966,1.75998
336,659,2.09851,-1.17941,0,0,0,0,0,0,0,-1,1560,365,2.09857,1.17942
343,659,0,0,0,0,0,0,0,0,0,-1,1567,365,0,0
350,659,0,0,0,0,0,0,0,0,0,-1,1574,365,0,0
357,659,0,0,0,0,0,0,0,0,0,-1,1581,365,0,0
364,659,0,0,0,0,0,0,0,0,0,-1,1588,365,0,0
371,659,0,0,0,0,0,0,0,0,0,-1,1595,365,0,0
378,659,0,0,0,0,0,0,0,0,0,-1,1602,365,0,0
385,659,0,0,0,0,0,0,0,0,0,-1,1609,365,0,0
392,659,0,0,0,0,0,0,0,0,0,-1,1616,365,0,0
399,659,0,0,0,0,0,0,0,0,0,-1,1623,365,0,0
406,659,0,0,0,0,0,0,0,0,0,-1,1630,365,0,0
413,659,0,0,0,0,0,0,0,0,0,-1,1637,365,0,0
420,659,0,0,0,0,0,0,0,0,0,-1,1644,365,0,0
427,659,0,0,0,0,0,0,0,0,0,-1,1651,365,0,0
434,659,0,0,0,0,0,0,0,0,0,-1,1658,365,0,0
441,659,0,0,0,0,0,0,0,0,0,-1,1665,365,0,0
448,659,0,0,0,0,0,0,0,0,0,-1,1672,365,0,0
455,659,0,0,0,0,0,0,0,0,0,-1,1679,365,0,0
462,659,0,0,0,0,0,0,0,0,0,-1,1686,365,0,0
469,659,0,0,0,0,0,0,0,0,0,-1,1693,365,0,0
476,659,0,0,0,0,0,0,0,0,0,-1,1700,365,0,0
483,659,0,0,0,0,0,0,0,0,0,-1,1707,365,0,0
490,659,0,0,0,0,0,0,0,0,0,-1,1714,365,0,0
497,659,0,0,0,0,0,0,0,0,0,-1,1721,365,0,0
504,659,0,0,0,0,0,0,0,0,0,-1,1728,365,0,0
511,659,0,0,0,0,0,0,0,0,0,-1,1735,365,0,0
518,659,0,0,0,0,0,0,0,0,0,-1,1742,365,0,0
525,659,0,0,0,0,0,0,0,0,0,-1,1749,365,0,0
532,659,0,0,0,0,0,0,0,0,0,-1,1756,365,0,0
539,659,0,0,0,0,0,0,0,0,0,-1,1763,365,0,0
546,659,0,0,0,0,0,0,0,0,0,-1,1770,365,0,0
553,659,0,0,0,0,0,0,0,0,0,-1,1777,365,0,0
560,659,0,0,0,0,0,0,0,0,0,-1,1784,365,0,0
567,659,0,0,0,0,0,0,0,0,0,-1,1791,365,0,0
574,659,0,0,0,0,0,0,0,0,0,-1,1798,365,0,0
581,659,0,0,0,0,0,0,0,0,0,-1,1805,365,0,0
588,659,0,0,0,0,0,0,0,0,0,-1,1812,365,0,0
595,659,0,0,0,0,0,0,0,0,0,-1,1819,365,0,0
602,659,0,0,0,0,0,0,0,0,0,-1,1826,365,0,0
609,659,0,0,0,0,0,0,0,0,0,-1,1833,365,0,0
616,659,0,0,0,0,0,0,0,0,0,-1,1840,365,0,0
623,659,0,0,0,0,0,0,0,0,0,-1,1847,365,0,0
630,659,0,0,0,0,0,0,0,0,0,-1,1854,365,0,0
637,659,0,0,0,0,0,0,0,0,0,-1,1861,365,0,0
644,659,0,0,0,0,0,0,0,0,0,-1,1868,365,0,0
651,659,0,0,0,0,0,0,0,0,0,-1,1875,365,0,0
658,659,0,0,0,0,0,0,0,0,0,-1,1882,365,0,0
665,659,0,0,0,0,0,0,0,0,0,-1,1889,365,0,0
672,659,0,0,0,0,0,0,0,0,0,-1,1896,365,0,0
679,659,0,0,0,0,0,0,0,0,0,-1,1903,365,0,0
686,659,0,0,0,0,0,0,0,0,0,-1,1910,365,0,0
693,659,0,0,0,0,0,0,0,0,0,-1,1917,365,0,0
700,659,0,0,0,0,0,0,0,0,0,-1,1924,365,0,0
707,659,0,0,0,0,0,0,0,0,0,-1,1931,365,0,0
714,659,0,0,0,0,0,0,0,0,0,-1,1938,365,0,0
721,659,0,0,0,0,0,0,0,0,0,-1,1945,365,0,0
728,659,0,0,0,0,0,0,0,0,0,-1,1952,365,0,0
735,659,0,0,0,0,0,0,0,0,0,-1,1959,365,0,0
742,659,0,0,0,0,0,0,0,0,0,-1,1966,365,0,0
749,659,0,0,0,0,0,0,0,0,0,-1,1973,365,0,0
756,659,0,0,0,0,0,0,0,0,0,-1,1980,365,0,0
763,659,0,0,0,0,0,0,0,0,0,-1,1987,365,0,0
770,659,0,0,0,0,0,0,0,0,0,-1,1994,365,0,0
777,659,0,0,0,0,0,0,0,0,0,-1,2001,365,0,0
784,659,0,0,0,0,0,0,0,0,0,-1,2008,365,0,0
791,659,0,0,0,0,0,0,0,0,0,-1,2015,365,0,0
798,659,0,0,0,0,0,0,0,0,0,-1,2022,365,0,0
805,659,0,0,0,0,0,0,0,0,0,-1,2029,365,0,0
812,659,0,0,0,0,0,0,0,0,0,-1,2036,365,0,0
-700,652,0,0,0,0,0,0,0,0,0,-1,524,372,0,0
-693,652,0,0,0,0,0,0,0,0,0,-1,531,372,0,0
-686,652,0,0,0,0,0,0,0,0,0,-1,538,372,0,0
-679,652,0,0,0,0,0,0,0,0,0,-1,545,372,0,0
-672,652,0,0,0,0,0,0,0,0,0,-1,552,372,0,0
-665,652,0,0,0,0,0,0,0,0,0,-1,559,372,0,0
-658,652,0,0,0,0,0,0,0,0,0,-1,566,372,0,0
-651,652,0,0,0,0,0,0,0,0,0,-1,573,372,0,0
-644,652,0,0,0,0,0,0,0,0,0,-1,580,372,0,0
-637,652,0,0,0,0,0,0,0,0,0,-1,587,372,0,0
-630,652,0,0,0,0,0,0,0,0,0,-1,594,372,0,0
-623,652,0,0,0,0,0,0,0,0,0,-1,601,372,0,0
-616,652,0,0,0,0,0,0,0,0,0,-1,608,372,0,0
-609,652,0,0,0,0,0,0,0,0,0,-1,615,372,0,0
-602,652,0,0,0,0,0,0,0,0,0,-1,622,372,0,0
-595,652,0,0,0,0,0,0,0,0,0,-1,629,372,0,0
-588,652,0,0,0,0,0,0,0,0,0,-1,636,372,0,0
-581,652,0,0,0,0,0,0,0,0,0,-1,643,372,0,0
-574,652,0,0,0,0,0,0,0,0,0,-1,650,372,0,0
-567,652,0,0,0,0,0,0,0,0,0,-1,657,372,0,0
-560,652,0,0,0,0,0,0,0,0,0,-1,664,372,0,0
-553,652,0,0,0,0,0,0,0,0,0,-1,671,372,0,0
-546,652,0,0,0,0,0,0,0,0,0,-1,678,372,0,0
-539,652,0,0,0,0,0,0,0,0,0,-1,685,372,0,0
-532,652,0,0,0,0,0,0,0,0,0,-1,692,372,0,0
-525,652,0,0,0,0,0,0,0,0,0,-1,699,372,0,0
-518,652,0,0,0,0,0,0,0,0,0,-1,706,372,0,0
-511,652,0,0,0,0,0,0,0,0,0,-1,713,372,0,0
-504,652,0,0,0,0,0,0,0,0,0,-1,720,372,0,0
-497,652,0,0,0,0,0,0,0,0,0,-1,727,372,0,0
-490,652,0,0,0,0,0,0,0,0,0,-1,734,372,0,0
-483,652,0,0,0,0,0,0,0,0,0,-1,741,372,0,0
-476,652,0,0,0,0,0,0,0,0,0,-1,748,372,0,0
-469,652,0,0,0,0,0,0,0,0,0,-1,755,372,0,0
-462,652,0,0,0,0,0,0,0,0,0,-1,762,372,0,0
-455,652,0,0,0,0,0,0,0,0,0,-1,769,372,0,0
-448,652,0,0,0,0,0,0,0,0,0,-1,776,372,0,0
-441,652,0,0,0,0,0,0,0,0,0,-1,783,372,0,0
-434,652,0,0,0,0,0,0,0,0,0,-1,790,372,0,0
-427,652,0,0,0,0,0,0,0,0,0,-1,797,372,0,0
-420,652,0,0,0,0,0,0,0,0,0,-1,804,372,0,0
-413,652,0,0,0,0,0,0,0,0,0,-1,811,372,0,0
-406,652,0,0,0,0,0,0,0,0,0,-1,818,372,0,0
-399,652,0,0,0,0,0,0,0,0,0,-1,825,372,0,0
-392,652,0,0,0,0,0,0,0,0,0,-1,832,372,0,0
-385,652,0,0,0,0,0,0,0,0,0,-1,839,372,0,0
-378,652,0,0,0,0,0,0,0,0,0,-1,846,372,0,0
-371,652,0,0,0,0,0,0,0,0,0,-1,853,372,0,0
-364,652,0,0,0,0,0,0,0,0,0,-1,860,372,0,0
-357,652,0,0,0,0,0,0,0,0,0,-1,867,372,0,0
-350,652,0,0,0,0,0,0,0,0,0,-1,874,372,0,0
-343,652,0,0,0,0,0,0,0,0,0,-1,881,372,0,0
-336,652,0,0,0,0,0,0,0,0,0,-1,888,372,0,0
-329,652,0,0,0,0,0,0,0,0,0,-1,895,372,0,0
-322,652,0,0,0,0,0,0,0,0,0,-1,902,372,0,0
-315,652,0,0,0,0,0,0,0,0,0,-1,909,372,0,0
-308,652,0,0,0,0,0,0,0,0,0,-1,916,372,0,0
-301,652,0,0,0,0,0,0,0,0,0,-1,923,372,0,0
-294,652,0,0,0,0,0,0,0,0,0,-1,930,372,0,0
-287,652,0,0,0,0,0,0,0,0,0,-1,937,372,0,0
-280,652,0,0,0,0,0,0,0,0,0,-1,944,372,0,0
-273,652,0,0,0,0,0,0,0,0,0,-1,951,372,0,0
-266,652,0,0,0,0,0,0,0,0,0,-1,958,372,0,0
-259,652,0,0,0,0,0,0,0,0,0,-1,965,372,0,0
-252,652,0,0,0,0,0,0,0,0,0,-1,972,372,0,0
-245,652,0,0,0,0,0,0,0,0,0,-1,979,372,0,0
-238,652,0,0,0,0,0,0,0,0,0,-1,986,372,0,0
-231,652,-3.1214,-6.93527,0,0,0,0,0,0,0,-1,993,372,-3.1214,6.93528
-224,652,-3.74396,-5.71695,0,0,0,0,0,0,0,-1,1000,372,-3.74397,5.71694
-217,652,3.08069,-9.83069,0,0,0,0,0,0,0,-1,1007,372,3.08068,9.83069
-210,652,3.51178,-10.4496,0,0,0,0,0,0,0,-1,1014,372,3.51181,10.4496
-203,652,2.26929,-12.32,0,0,0,0,0,0,0,-1,1021,372,2.26929,12.32
-196,652,2.8833,-11.9591,0,0,0,0,0,0,0,-1,1028,372,2.88328,11.9591
-189,652,3.7583,-11.691,0,0,0,0,0,0,0,-1,1035,372,3.75831,11.691
-182,652,1.33374,-12.6816,0,0,0,0,0,0,0,-1,1042,372,1.33379,12.6816
-175,652,1.74902,-12.5601,0,0,0,0,0,0,0,-1,1049,372,1.74905,12.5601
-168,652,2.24512,-12.7752,0,0,0,0,0,0,0,-1,1056,372,2.24515,12.7752
-161,652,3.07288,-12.0371,0,0,0,0,0,0,0,-1,1063,372,3.07291,12.0372
-154,652,2.7915,-13.38,0,0,0,0,0,0,0,-1,1070,372,2.79154,13.38
-147,652,3.24915,-12.3338,0,0,0,0,0,0,0,-1,1077,372,3.24919,12.3338
-140,652,3.18591,-12.7588,-0.000992337,0.0162179,-0.00167173,0.0163788,-0.00115322,-1.47486,0.0113232,0.0415721,1084,372,3.18587,12.7588
-133,652,2.67419,-12.5986,-0.000650399,0.0196727,-0.00158209,0.0197951,-0.000772823,-1.49357,0.0134617,0.0401113,1091,372,2.67416,12.5986
-126,652,2.91663,-12.7253,-0.000438829,0.0228133,-0.00241365,0.0230613,-0.00068673,-1.46845,0.0156081,0.0377909,1098,372,2.91668,12.7252
-119,652,3.01208,-12.7068,0.000235721,0.0256315,-0.00319604,0.0260275,-0.000160323,-1.44751,0.0174054,0.0335553,1105,372,3.01211,12.7068
-112,652,2.98401,-12.803,0.000583396,0.0280257,-0.00394429,0.0285813,2.77329e-05,-1.43084,0.019045,0.0235191,1112,372,2.98398,12.803
-105,652,2.93237,-12.8861,0.000546659,0.0295661,-0.00470066,0.0303085,-0.000195774,-1.41415,0.0202712,0.020637,1119,372,2.93235,12.8861
-98,652,2.86389,-12.9788,0.00023246,0.029768,-0.00528048,0.0306837,-0.000683218,-1.3991,0.0206873,0.0237132,1126,372,2.86394,12.9788
-91,652,2.85327,-13.1049,-0.000153286,0.0288544,-0.00562336,0.0299064,-0.00120527,-1.38586,0.0203513,0.022684,1133,372,2.85323,13.1049
-84,652,2.85864,-13.2093,-0.000255482,0.026635,-0.00573736,0.0278079,-0.00142844,-1.36913,0.0190326,0.0227504,1140,372,2.85863,13.2093
-77,652,2.82483,-13.2805,-0.000749236,0.0233133,-0.00526148,0.0244135,-0.0018494,-1.36467,0.0169258,0.0291261,1147,372,2.82486,13.2805
-70,652,2.87805,-13.3196,-0.00127458,0.0195226,-0.0047945,0.0205747,-0.00232667,-1.35478,0.0145541,0.0421812,1154,372,2.87809,13.3196
-63,652,2.91321,-13.2982,0,0,0,0,0,0,0,-1,1161,372,2.91316,13.2982
-56,652,2.73425,-13.5082,0,0,0,0,0,0,0,-1,1168,372,2.7343,13.5082
-49,652,2.80957,-13.6244,0.00315257,0.00409151,-0.000437882,0.00426403,0.00298006,-1.1955,0.00252592,0.0313268,1175,372,2.80954,13.6244
-42,652,2.77563,-13.6791,0.00558621,0.00261205,0.00159317,0.00627848,0.00191977,0.409913,0.00371493,0.0111738,1182,372,2.77559,13.6792
-35,652,2.76355,-13.7425,0.00741759,0.002125,0.0036401,0.00927165,0.000270939,0.471094,0.0060928,0.00872033,1189,372,2.76355,13.7425
-28,652,2.76208,-13.7889,0.00800221,0.00260641,0.0039855,0.0101171,0.000491531,0.487861,0.006587,0.00731193,1196,372,2.76213,13.7889
-21,652,2.74084,-13.8356,0.00764917,0.00309742,0.0044408,0.0103633,0.000383272,0.548603,0.00678473,0.00770079,1203,372,2.74086,13.8356
-14,652,2.73438,-13.8853,0.00695206,0.00369658,0.00472598,0.0103228,0.000325871,0.619549,0.00677583,0.00941108,1210,372,2.73442,13.8853
-7,652,2.72949,-13.9433,0.00627881,0.0042146,0.0048205,0.0101765,0.000316953,0.679936,0.00668116,0.012526,1217,372,2.72952,13.9433
0,652,2.69519,-13.9549,0.00534597,0.00475932,0.00490031,0.00996173,0.00014357,0.755504,0.00659381,0.0121604,1224,372,2.69517,13.9549
7,652,2.67737,-13.9576,0.00417605,0.00529994,0.00500785,0.00977727,-0.000301281,0.841271,0.0066209,0.011873,1231,372,2.67738,13.9577
14,652,2.69971,-13.9959,0.002802,0.00573439,0.00521194,0.00968244,-0.00114605,0.922512,0.00686892,0.0108919,1238,372,2.69969,13.9959
21,652,2.70166,-13.9981,0.00140299,0.00578859,0.0054112,0.00943441,-0.00224283,0.977903,0.00715536,0.0103837,1245,372,2.70161,13.9981
28,652,2.69385,-14.0201,7.08538e-05,0.005408,0.00566237,0.00899911,-0.00352026,1.0056,0.00745522,0.00912781,1252,372,2.69379,14.0201
35,652,2.66003,-14.0414,0.000525277,0.0045045,0.00528113,0.00815838,-0.00312859,0.965546,0.00672876,0.00925409,1259,372,2.66008,14.0414
42,652,2.6427,-14.0516,0.00140726,0.00564543,0.00433319,0.00834994,-0.00129725,1.01282,0.00604561,0.0104859,1266,372,2.6427,14.0516
49,652,2.64465,-14.0619,0.0022095,0.00517154,0.00363848,0.00761887,-0.000237828,0.97868,0.00516035,0.0130728,1273,372,2.64468,14.0619
56,652,2.63928,-14.0504,0.00300995,0.00461472,0.00325407,0.00716387,0.000460804,0.906276,0.00462996,0.0152222,1280,372,2.6393,14.0503
63,652,2.62219,-14.0533,0.00421774,0.00387678,0.00249833,0.0065514,0.00154312,0.751333,0.00395488,0.0179315,1287,372,2.62215,14.0533
70,652,2.62866,-14.0271,0.00541481,0.00367853,0.00190219,0.0066376,0.00245574,0.571321,0.00387518,0.0161775,1294,372,2.62863,14.0271
77,652,2.60657,-14.0012,0.00647993,0.00354035,0.00147032,0.00708911,0.00293117,0.392788,0.00411328,0.0150478,1301,372,2.60651,14.0012
84,652,2.61121,-13.98,0.00744252,0.00354883,0.00106587,0.0077152,0.00327616,0.250455,0.00447121,0.0124613,1308,372,2.6112,13.98
91,652,2.57104,-13.9765,0.00772093,0.00366489,0.000873655,0.00790111,0.00348471,0.203383,0.00457227,0.0149262,1315,372,2.571,13.9765
98,652,2.57898,-13.9258,0.00718595,0.00406572,0.000999539,0.00747868,0.00377299,0.284898,0.00431788,0.0124302,1322,372,2.579,13.9258
105,652,2.57556,-13.851,0.00634121,0.00438055,0.00130845,0.00699584,0.00372592,0.463894,0.00404191,0.0103695,1329,372,2.57554,13.851
112,652,2.5697,-13.8193,0.00530302,0.00461378,0.00166446,0.00665815,0.00325864,0.683317,0.00384437,0.00956009,1336,372,2.56965,13.8193
119,652,2.57141,-13.7796,0.00418221,0.004953,0.00203112,0.00663496,0.00250024,0.879157,0.00386925,0.0104392,1343,372,2.57142,13.7796
126,652,2.53955,-13.7296,0.00308293,0.00554003,0.00245081,0.00705297,0.00156998,1.01774,0.00427584,0.0121298,1350,372,2.53952,13.7295
133,652,2.4978,-13.6728,0.0021291,0.00622556,0.00281757,0.00766071,0.000693947,1.09969,0.00489226,0.0128242,1357,372,2.49781,13.6728
140,652,2.50134,-13.6199,0.000376056,0.00696046,0.0035855,0.00853595,-0.00119943,1.15679,0.00612968,0.0102442,1364,372,2.50139,13.6199
147,652,2.51697,-13.5588,-0.000721878,0.00591538,0.00429647,0.00802565,-0.00283215,1.11424,0.0065034,0.00962528,1371,372,2.51691,13.5588
154,652,2.51221,-13.4724,-0.000776073,0.00664,0.00415954,0.00850434,-0.00264041,1.14943,0.00672476,0.00899387,1378,372,2.51223,13.4724
161,652,2.49451,-13.4016,-9.81238e-05,0.00671471,0.00365948,0.00830784,-0.00169125,1.1602,0.00617993,0.00981266,1385,372,2.49455,13.4016
168,652,2.46716,-13.3315,7.97244e-05,0.00627531,0.00365968,0.00797226,-0.00161723,1.13662,0.00592791,0.0107504,1392,372,2.46719,13.3316
175,652,2.45984,-13.2392,0.000479246,0.00605254,0.00356196,0.00778839,-0.0012566,1.11734,0.00565784,0.0109,1399,372,2.45981,13.2392
182,652,2.43616,-13.1771,0.000464232,0.00530171,0.00341892,0.00707096,-0.00130502,1.09325,0.00520382,0.0162692,1406,372,2.43621,13.1771
189,652,2.46594,-13.0495,0.000265005,0.00403726,0.00339953,0.00603885,-0.00173658,1.03867,0.00471265,0.0246535,1413,372,2.46598,13.0495
196,652,2.44299,-12.9377,0,0,0,0,0,0,0,-1,1420,372,2.44299,12.9377
203,652,2.46399,-13.0609,0,0,0,0,0,0,0,-1,1427,372,2.464,13.0609
210,652,2.36682,-12.975,-0.00133957,-0.00164008,0.0029978,0.00151175,-0.00449139,0.760359,0.00360541,0.0426977,1434,372,2.36683,12.975
217,652,2.41553,-12.6025,-0.00186386,-0.00178389,0.00301132,0.00118771,-0.00483546,0.792036,0.00368393,0.0410957,1441,372,2.41554,12.6025
224,652,2.4104,-12.3938,-0.00234188,-0.00183937,0.00279708,0.000717716,-0.00489897,0.830191,0.00352963,0.0330044,1448,372,2.41038,12.3938
231,652,2.39001,-12.3453,-0.00258647,-0.00181474,0.00270176,0.000528571,-0.00492979,0.856328,0.00347614,0.0366306,1455,372,2.38996,12.3453
238,652,2.51697,-12.3517,-0.00262691,-0.00134205,0.002783,0.000871713,-0.00484067,0.898832,0.0035535,0.039688,1462,372,2.51701,12.3517
245,652,2.39124,-12.3029,-0.00272942,-0.000800948,0.00268937,0.00109182,-0.00462219,0.957528,0.00350259,0.0393401,1469,372,2.39128,12.3028
252,652,2.13403,-12.2613,-0.00238848,0.000204273,0.00281459,0.00200669,-0.00419089,1.00121,0.00365149,0.0468157,1476,372,2.13405,12.2612
259,652,1.85327,-12.1463,0,0,0,0,0,0,0,-1,1483,372,1.85329,12.1463
266,652,2.31836,-11.5335,-0.00134258,0.00301024,0.00473931,0.00604899,-0.00438133,1.00065,0.00604755,0.0490364,1490,372,2.31838,11.5335
273,652,2.28735,-11.5031,-0.00162902,0.00535877,0.00737877,0.010029,-0.00629929,1.00651,0.00950879,0.0474106,1497,372,2.28736,11.5031
280,652,2.40369,-11.5034,0,0,0,0,0,0,0,-1,1504,372,2.4037,11.5034
287,652,3.11133,-10.5877,0,0,0,0,0,0,0,-1,1511,372,3.1113,10.5877
294,652,3.76099,-10.4329,0,0,0,0,0,0,0,-1,1518,372,3.76097,10.4329
301,652,4.41077,-9.34216,0,0,0,0,0,0,0,-1,1525,372,4.4108,9.34216
308,652,5.06067,-8.25143,0,0,0,0,0,0,0,-1,1532,372,5.06062,8.25143
315,652,2.02148,-10.9823,0,0,0,0,0,0,0,-1,1539,372,2.02152,10.9823
322,652,5.31433,-2.42712,0,0,0,0,0,0,0,-1,1546,372,5.31435,2.42712
329,652,4.35828,-2.34665,0,0,0,0,0,0,0,-1,1553,372,4.35832,2.34665
336,652,4.60815,-2.13776,0,0,0,0,0,0,0,-1,1560,372,4.6082,2.13775
343,652,4.18225,-6.7092,0,0,0,0,0,0,0,-1,1567,372,4.18231,6.70921
350,652,4.64563,-7.2074,0,0,0,0,0,0,0,-1,1574,372,4.6456,7.2074
357,652,0,0,0,0,0,0,0,0,0,-1,1581,372,0,0
364,652,0,0,0,0,0,0,0,0,0,-1,1588,372,0,0
371,652,0,0,0,0,0,0,0,0,0,-1,1595,372,0,0
378,652,0,0,0,0,0,0,0,0,0,-1,1602,372,0,0
385,652,0,0,0,0,0,0,0,0,0,-1,1609,372,0,0
392,652,0,0,0,0,0,0,0,0,0,-1,1616,372,0,0
399,652,0,0,0,0,0,0,0,0,0,-1,1623,372,0,0
406,652,0,0,0,0,0,0,0,0,0,-1,1630,372,0,0
413,652,0,0,0,0,0,0,0,0,0,-1,1637,372,0,0
420,652,0,0,0,0,0,0,0,0,0,-1,1644,372,0,0
427,652,0,0,0,0,0,0,0,0,0,-1,1651,372,0,0
434,652,0,0,0,0,0,0,0,0,0,-1,1658,372,0,0
441,652,0,0,0,0,0,0,0,0,0,-1,1665,372,0,0
448,652,0,0,0,0,0,0,0,0,0,-1,1672,372,0,0
455,652,0,0,0,0,0,0,0,0,0,-1,1679,372,0,0
462,652,0,0,0,0,0,0,0,0,0,-1,1686,372,0,0
469,652,0,0,0,0,0,0,0,0,0,-1,1693,372,0,0
476,652,0,0,0,0,0,0,0,0,0,-1,1700,372,0,0
483,652,0,0,0,0,0,0,0,0,0,-1,1707,372,0,0
490,652,0,0,0,0,0,0,0,0,0,-1,1714,372,0,0
497,652,0,0,0,0,0,0,0,0,0,-1,1721,372,0,0
504,652,0,0,0,0,0,0,0,0,0,-1,1728,372,0,0
511,652,0,0,0,0,0,0,0,0,0,-1,1735,372,0,0
518,652,0,0,0,0,0,0,0,0,0,-1,1742,372,0,0
525,652,0,0,0,0,0,0,0,0,0,-1,1749,372,0,0
532,652,0,0,0,0,0,0,0,0,0,-1,1756,372,0,0
539,652,0,0,0,0,0,0,0,0,0,-1,1763,372,0,0
546,652,0,0,0,0,0,0,0,0,0,-1,1770,372,0,0
553,652,0,0,0,0,0,0,0,0,0,-1,1777,372,0,0
560,652,0,0,0,0,0,0,0,0,0,-1,1784,372,0,0
567,652,0,0,0,0,0,0,0,0,0,-1,1791,372,0,0
574,652,0,0,0,0,0,0,0,0,0,-1,1798,372,0,0
581,652,0,0,0,0,0,0,0,0,0,-1,1805,372,0,0
588,652,0,0,0,0,0,0,0,0,0,-1,1812,372,0,0
595,652,0,0,0,0,0,0,0,0,0,-1,1819,372,0,0
602,652,0,0,0,0,0,0,0,0,0,-1,1826,372,0,0
609,652,0,0,0,0,0,0,0,0,0,-1,1833,372,0,0
616,652,0,0,0,0,0,0,0,0,0,-1,1840,372,0,0
623,652,0,0,0,0,0,0,0,0,0,-1,1847,372,0,0
630,652,0,0,0,0,0,0,0,0,0,-1,1854,372,0,0
637,652,0,0,0,0,0,0,0,0,0,-1,1861,372,0,0
644,652,0,0,0,0,0,0,0,0,0,-1,1868,372,0,0
651,652,0,0,0,0,0,0,0,0,0,-1,1875,372,0,0
658,652,0,0,0,0,0,0,0,0,0,-1,1882,372,0,0
665,652,0,0,0,0,0,0,0,0,0,-1,1889,372,0,0
672,652,0,0,0,0,0,0,0,0,0,-1,1896,372,0,0
679,652,0,0,0,0,0,0,0,0,0,-1,1903,372,0,0
686,652,0,0,0,0,0,0,0,0,0,-1,1910,372,0,0
693,652,0,0,0,0,0,0,0,0,0,-1,1917,372,0,0
700,652,0,0,0,0,0,0,0,0,0,-1,1924,372,0,0
707,652,0,0,0,0,0,0,0,0,0,-1,1931,372,0,0
714,652,0,0,0,0,0,0,0,0,0,-1,1938,372,0,0
721,652,0,0,0,0,0,0,0,0,0,-1,1945,372,0,0
728,652,0,0,0,0,0,0,0,0,0,-1,1952,372,0,0
735,652,0,0,0,0,0,0,0,0,0,-1,1959,372,0,0
742,652,0,0,0,0,0,0,0,0,0,-1,1966,372,0,0
749,652,0,0,0,0,0,0,0,0,0,-1,1973,372,0,0
756,652,0,0,0,0,0,0,0,0,0,-1,1980,372,0,0
763,652,0,0,0,0,0,0,0,0,0,-1,1987,372,0,0
770,652,0,0,0,0,0,0,0,0,0,-1,1994,372,0,0
777,652,0,0,0,0,0,0,0,0,0,-1,2001,372,0,0
784,652,0,0,0,0,0,0,0,0,0,-1,2008,372,0,0
791,652,0,0,0,0,0,0,0,0,0,-1,2015,372,0,0
798,652,0,0,0,0,0,0,0,0,0,-1,2022,372,0,0
805,652,0,0,0,0,0,0,0,0,0,-1,2029,372,0,0
812,652,0,0,0,0,0,0,0,0,0,-1,2036,372,0,0
-700,645,0,0,0,0,0,0,0,0,0,-1,524,379,0,0
-693,645,0,0,0,0,0,0,0,0,0,-1,531,379,0,0
-686,645,0,0,0,0,0,0,0,0,0,-1,538,379,0,0
-679,645,0,0,0,0,0,0,0,0,0,-1,545,379,0,0
-672,645,0,0,0,0,0,0,0,0,0,-1,552,379,0,0
-665,645,0,0,0,0,0,0,0,0,0,-1,559,379,0,0
-658,645,0,0,0,0,0,0,0,0,0,-1,566,379,0,0
-651,645,0,0,0,0,0,0,0,0,0,-1,573,379,0,0
-644,645,0,0,0,0,0,0,0,0,0,-1,580,379,0,0
-637,645,0,0,0,0,0,0,0,0,0,-1,587,379,0,0
-630,645,0,0,0,0,0,0,0,0,0,-1,594,379,0,0
-623,645,0,0,0,0,0,0,0,0,0,-1,601,379,0,0
-616,645,0,0,0,0,0,0,0,0,0,-1,608,379,0,0
-609,645,0,0,0,0,0,0,0,0,0,-1,615,379,0,0
-602,645,0,0,0,0,0,0,0,0,0,-1,622,379,0,0
-595,645,0,0,0,0,0,0,0,0,0,-1,629,379,0,0
-588,645,0,0,0,0,0,0,0,0,0,-1,636,379,0,0
-581,645,0,0,0,0,0,0,0,0,0,-1,643,379,0,0
-574,645,0,0,0,0,0,0,0,0,0,-1,650,379,0,0
-567,645,0,0,0,0,0,0,0,0,0,-1,657,379,0,0
-560,645,0,0,0,0,0,0,0,0,0,-1,664,379,0,0
-553,645,0,0,0,0,0,0,0,0,0,-1,671,379,0,0
-546,645,0,0,0,0,0,0,0,0,0,-1,678,379,0,0
-539,645,0,0,0,0,0,0,0,0,0,-1,685,379,0,0
-532,645,0,0,0,0,0,0,0,0,0,-1,692,379,0,0
-525,645,0,0,0,0,0,0,0,0,0,-1,699,379,0,0
-518,645,0,0,0,0,0,0,0,0,0,-1,706,379,0,0
-511,645,0,0,0,0,0,0,0,0,0,-1,713,379,0,0
-504,645,0,0,0,0,0,0,0,0,0,-1,720,379,0,0
-497,645,0,0,0,0,0,0,0,0,0,-1,727,379,0,0
-490,645,0,0,0,0,0,0,0,0,0,-1,734,379,0,0
-483,645,0,0,0,0,0,0,0,0,0,-1,741,379,0,0
-476,645,0,0,0,0,0,0,0,0,0,-1,748,379,0,0
-469,645,0,0,0,0,0,0,0,0,0,-1,755,379,0,0
-462,645,0,0,0,0,0,0,0,0,0,-1,762,379,0,0
-455,645,0,0,0,0,0,0,0,0,0,-1,769,379,0,0
-448,645,0,0,0,0,0,0,0,0,0,-1,776,379,0,0
-441,645,0,0,0,0,0,0,0,0,0,-1,783,379,0,0
-434,645,0,0,0,0,0,0,0,0,0,-1,790,379,0,0
-427,645,0,0,0,0,0,0,0,0,0,-1,797,379,0,0
-420,645,0,0,0,0,0,0,0,0,0,-1,804,379,0,0
-413,645,0,0,0,0,0,0,0,0,0,-1,811,379,0,0
-406,645,0,0,0,0,0,0,0,0,0,-1,818,379,0,0
-399,645,0,0,0,0,0,0,0,0,0,-1,825,379,0,0
-392,645,0,0,0,0,0,0,0,0,0,-1,832,379,0,0
-385,645,0,0,0,0,0,0,0,0,0,-1,839,379,0,0
-378,645,0,0,0,0,0,0,0,0,0,-1,846,379,0,0
-371,645,0,0,0,0,0,0,0,0,0,-1,853,379,0,0
-364,645,0,0,0,0,0,0,0,0,0,-1,860,379,0,0
-357,645,0,0,0,0,0,0,0,0,0,-1,867,379,0,0
-350,645,0,0,0,0,0,0,0,0,0,-1,874,379,0,0
-343,645,0,0,0,0,0,0,0,0,0,-1,881,379,0,0
-336,645,0,0,0,0,0,0,0,0,0,-1,888,379,0,0
-329,645,0,0,0,0,0,0,0,0,0,-1,895,379,0,0
-322,645,0,0,0,0,0,0,0,0,0,-1,902,379,0,0
-315,645,0,0,0,0,0,0,0,0,0,-1,909,379,0,0
-308,645,0,0,0,0,0,0,0,0,0,-1,916,379,0,0
-301,645,0,0,0,0,0,0,0,0,0,-1,923,379,0,0
-294,645,0,0,0,0,0,0,0,0,0,-1,930,379,0,0
-287,645,0,0,0,0,0,0,0,0,0,-1,937,379,0,0
-280,645,0,0,0,0,0,0,0,0,0,-1,944,379,0,0
-273,645,0,0,0,0,0,0,0,0,0,-1,951,379,0,0
-266,645,0,0,0,0,0,0,0,0,0,-1,958,379,0,0
-259,645,0,0,0,0,0,0,0,0,0,-1,965,379,0,0
-252,645,10.0122,-9.04193,0,0,0,0,0,0,0,-1,972,379,10.0122,9.04192
-245,645,-3.15631,-11.1812,0,0,0,0,0,0,0,-1,979,379,-3.15633,11.1812
-238,645,-2.591,-10.3983,0,0,0,0,0,0,0,-1,986,379,-2.59098,10.3983
-231,645,-1.71124,-10.0034,0,0,0,0,0,0,0,-1,993,379,-1.71127,10.0033
-224,645,-2.58899,-7.38031,0,0,0,0,0,0,0,-1,1000,379,-2.58896,7.38031
-217,645,-3.33527,-5.9166,0,0,0,0,0,0,0,-1,1007,379,-3.33529,5.91658
-210,645,0.728638,-13.0316,0,0,0,0,0,0,0,-1,1014,379,0.728654,13.0316
-203,645,1.53198,-12.3115,0,0,0,0,0,0,0,-1,1021,379,1.53198,12.3115
-196,645,2.30298,-11.7168,0,0,0,0,0,0,0,-1,1028,379,2.30292,11.7168
-189,645,3.14294,-11.3177,0,0,0,0,0,0,0,-1,1035,379,3.14296,11.3178
-182,645,3.91882,-10.224,0,0,0,0,0,0,0,-1,1042,379,3.91878,10.224
-175,645,2.92468,-11.5233,0,0,0,0,0,0,0,-1,1049,379,2.92471,11.5233
-168,645,2.86719,-11.8519,0,0,0,0,0,0,0,-1,1056,379,2.86717,11.8519
-161,645,2.91895,-11.9856,0,0,0,0,0,0,0,-1,1063,379,2.9189,11.9856
-154,645,3.03088,-12.1978,0,0,0,0,0,0,0,-1,1070,379,3.03084,12.1978
-147,645,3.06091,-12.2539,-0.00226824,0.00834529,-0.000910744,0.00842287,-0.00234583,-1.48581,0.00653899,0.0389408,1077,379,3.06095,12.2539
-140,645,2.90247,-12.4341,-0.00151064,0.0109991,-0.00140911,0.0111559,-0.0016674,-1.46001,0.00805082,0.0337223,1084,379,2.9025,12.4341
-133,645,2.76685,-12.5499,-0.00135554,0.0133401,-0.00115446,0.0134303,-0.00144568,-1.49288,0.00947225,0.0291837,1091,379,2.76686,12.5499
-126,645,2.91138,-12.6236,-0.00126172,0.0154478,-0.00169556,0.0156181,-0.00143203,-1.47068,0.0109208,0.0250308,1098,379,2.91143,12.6236
-119,645,2.88953,-12.7489,-0.000668998,0.0174381,-0.00221714,0.0177056,-0.000936527,-1.45071,0.012128,0.0169679,1105,379,2.88954,12.7489
-112,645,2.85657,-12.8717,-0.000281761,0.0191555,-0.00268994,0.0195209,-0.000647153,-1.43579,0.0132349,0.0112118,1112,379,2.85651,12.8717
-105,645,2.84387,-12.9626,-0.000173035,0.0202613,-0.00317928,0.0207445,-0.000656257,-1.41996,0.0140535,0.0114514,1119,379,2.84392,12.9627
-98,645,2.80457,-13.0521,-0.000269617,0.0203935,-0.00355748,0.0209889,-0.000864943,-1.40499,0.0142896,0.0122849,1126,379,2.80459,13.052
-91,645,2.78845,-13.153,-0.000396604,0.0197471,-0.00375832,0.0204255,-0.00107497,-1.39222,0.0139891,0.0120999,1133,379,2.7884,13.153
-84,645,2.78113,-13.2447,-0.000322734,0.0183019,-0.00381608,0.0190535,-0.0010743,-1.37634,0.0130751,0.0116142,1140,379,2.78109,13.2446
-77,645,2.76819,-13.354,-0.000614838,0.0160535,-0.00343551,0.0167338,-0.00129516,-1.3753,0.0116117,0.0108974,1147,379,2.76824,13.354
-70,645,2.78296,-13.4357,-0.000968901,0.0135118,-0.00311058,0.0141517,-0.00160881,-1.36791,0.0100139,0.0109029,1154,379,2.78291,13.4357
-63,645,2.76648,-13.4967,-0.000265127,0.0102,-0.0024309,0.0107371,-0.000802223,-1.35334,0.00743993,0.0113461,1161,379,2.76654,13.4967
-56,645,2.75806,-13.5561,0.000232109,0.00697271,-0.00126862,0.00720356,1.25472e-06,-1.39079,0.00480196,0.0118663,1168,379,2.7581,13.5561
-49,645,2.75781,-13.6119,0.00105289,0.00344912,-0.000768373,0.00367433,0.00082767,-1.28567,0.00222557,0.00982222,1175,379,2.75777,13.6119
-42,645,2.74158,-13.6809,0.00227618,0.00214196,0.000483198,0.00269691,0.00172123,0.716396,0.00157677,0.00934058,1182,379,2.7416,13.6809
-35,645,2.72766,-13.7514,0.00319283,0.00155738,0.00185962,0.00440657,0.000343635,0.578259,0.00283013,0.00944617,1189,379,2.72764,13.7514
-28,645,2.70984,-13.8071,0.00338098,0.00151034,0.00211287,0.0047563,0.000135024,0.577024,0.00312683,0.00805748,1196,379,2.70985,13.8071
-21,645,2.70117,-13.8324,0.00307831,0.0015973,0.00244303,0.0048906,-0.00021499,0.638244,0.00333437,0.00982947,1203,379,2.70116,13.8324
-14,645,2.70337,-13.8781,0.00262099,0.00177317,0.00266673,0.00489729,-0.000503127,0.706576,0.00344484,0.00971059,1210,379,2.70339,13.8781
-7,645,2.698,-13.9419,0.00226443,0.00194819,0.00276242,0.00487325,-0.000660635,0.75681,0.00348995,0.0128786,1217,379,2.69797,13.9419
0,645,2.65979,-13.9413,0.00177334,0.00217128,0.00286617,0.00484538,-0.000900757,0.820052,0.0035686,0.0236128,1224,379,2.65984,13.9414
7,645,2.66626,-13.9723,0.00116978,0.00243403,0.00299062,0.0048586,-0.00125479,0.88955,0.00372839,0.0155844,1231,379,2.6663,13.9723
14,645,2.67468,-14.0027,0.000441017,0.00268674,0.00317075,0.00492758,-0.00179982,0.955574,0.00402156,0.0151851,1238,379,2.67464,14.0027
21,645,2.67285,-14.017,-0.000299004,0.00273766,0.00332804,0.00487736,-0.0024387,0.999407,0.00430144,0.0100367,1245,379,2.67289,14.017
28,645,2.65222,-14.0308,-0.000931974,0.00255416,0.00347696,0.00470051,-0.00307832,1.01775,0.00452355,0.00859714,1252,379,2.65216,14.0308
35,645,2.64014,-14.0534,-0.000387273,0.00217131,0.00322141,0.00435815,-0.00257411,0.97441,0.00404628,0.00860531,1259,379,2.64018,14.0534
42,645,2.63818,-14.0735,0.000359501,0.00319571,0.00253841,0.00468527,-0.00113007,1.04013,0.00356049,0.00834348,1266,379,2.63821,14.0736
49,645,2.66895,-14.0734,0.00114162,0.00299775,0.00209799,0.00436377,-0.00022441,0.993639,0.0029868,0.0111432,1273,379,2.66897,14.0734
56,645,2.67493,-14.0437,0.00187251,0.00274496,0.00185558,0.00421491,0.000402566,0.900847,0.00268582,0.0115154,1280,379,2.67498,14.0437
63,645,2.65564,-14.0404,0.0028143,0.00228434,0.00142463,0.00399838,0.00110026,0.693449,0.00238499,0.0116303,1287,379,2.6557,14.0404
70,645,2.63916,-14.0198,0.0036482,0.00227074,0.00108849,0.00424756,0.00167138,0.503325,0.0024708,0.0152098,1294,379,2.63911,14.0198
77,645,2.6167,-14.0044,0.00429773,0.0021842,0.000916163,0.00463957,0.00184235,0.357126,0.0026975,0.0183118,1301,379,2.6167,14.0044
84,645,2.64038,-13.9822,0.00482491,0.00209423,0.000741786,0.00501341,0.00190573,0.248841,0.00292209,0.0136021,1308,379,2.64041,13.9822
91,645,2.61157,-13.9626,0.00487649,0.00203189,0.00072225,0.00504937,0.00185901,0.234935,0.00294884,0.014284,1315,379,2.61155,13.9626
98,645,2.62219,-13.9211,0.00432935,0.00215009,0.000923221,0.00466788,0.00181156,0.351456,0.00271741,0.0125726,1322,379,2.62218,13.9212
105,645,2.63293,-13.8595,0.00357174,0.00223478,0.00124016,0.00431211,0.00149441,0.538209,0.00252837,0.00913541,1329,379,2.63291,13.8595
112,645,2.61072,-13.8215,0.00271029,0.00227385,0.00157068,0.00407784,0.000906299,0.716373,0.00247246,0.00842702,1336,379,2.61069,13.8215
119,645,2.60217,-13.7805,0.00184587,0.00243262,0.00186131,0.00402353,0.000254957,0.863564,0.00260154,0.00873508,1343,379,2.60221,13.7805
126,645,2.59058,-13.7437,0.00103596,0.00280792,0.00214535,0.00424304,-0.00039916,0.98122,0.0029707,0.0109199,1350,379,2.59053,13.7437
133,645,2.57703,-13.685,0.000335204,0.00328707,0.00237804,0.00460997,-0.000987692,1.06313,0.00345,0.0124878,1357,379,2.57708,13.685
140,645,2.56934,-13.6234,-0.000808531,0.00377017,0.00283228,0.00512265,-0.00216101,1.12529,0.00431954,0.0127338,1364,379,2.56929,13.6234
147,645,2.55066,-13.566,-0.00139474,0.00317491,0.00321932,0.0048378,-0.00305763,1.09401,0.00459689,0.0132845,1371,379,2.55063,13.566
154,645,2.55786,-13.4872,-0.00133224,0.00389935,0.00296501,0.0052375,-0.00267038,1.14685,0.00464512,0.0109484,1378,379,2.55791,13.4872
161,645,2.56104,-13.411,-0.000796954,0.00407723,0.00253314,0.00515528,-0.001875,1.16844,0.00420363,0.0126483,1385,379,2.56103,13.411
168,645,2.55408,-13.3414,-0.000598625,0.00410266,0.00233301,0.00506388,-0.00155985,1.17998,0.0039986,0.0155134,1392,379,2.55402,13.3414
175,645,2.57581,-13.257,-0.000275676,0.00403471,0.00225821,0.00500111,-0.00124208,1.16643,0.00381609,0.0133828,1399,379,2.57582,13.2571
182,645,2.55176,-13.1662,8.62871e-06,0.00357509,0.00218028,0.00460851,-0.00102479,1.12818,0.00346483,0.00974203,1406,379,2.55179,13.1662
189,645,2.53613,-13.0465,0.000188459,0.0027057,0.0022307,0.00400836,-0.0011142,1.04225,0.00311088,0.0108443,1413,379,2.53617,13.0465
196,645,2.51672,-12.9641,6.39457e-05,0.00147979,0.00233852,0.00321519,-0.00167145,0.932375,0.00286785,0.0108208,1420,379,2.51673,12.964
203,645,2.49023,-12.8601,-0.000519888,-0.000148594,0.0022308,0.00190428,-0.00257276,0.826912,0.0025944,0.0105324,1427,379,2.49021,12.8601
210,645,2.51208,-12.7562,-0.00106029,-0.000982367,0.00215499,0.00113401,-0.00317667,0.794438,0.00258024,0.0137661,1434,379,2.51208,12.7562
217,645,2.48535,-12.6512,-0.00145079,-0.00103994,0.0022,0.000964208,-0.00345494,0.83195,0.00268308,0.0132674,1441,379,2.4853,12.6512
224,645,2.45349,-12.5014,-0.00178378,-0.00100763,0.00209835,0.000738235,-0.00352964,0.876836,0.00263389,0.0125836,1448,379,2.45346,12.5014
231,645,2.4635,-12.3744,-0.0018755,-0.000898962,0.0021245,0.000792659,-0.00356712,0.89835,0.00268164,0.0134378,1455,379,2.46344,12.3744
238,645,2.44409,-12.2716,-0.00178453,-0.000358864,0.00234979,0.00138383,-0.00352723,0.932667,0.00292403,0.010086,1462,379,2.44412,12.2716
245,645,2.44458,-12.129,-0.00178924,0.000169433,0.00240433,0.00178623,-0.00340604,0.978799,0.00304599,0.0108116,1469,379,2.44464,12.129
252,645,2.46826,-11.9363,-0.00147716,0.00102784,0.00261251,0.00267258,-0.0031219,1.00892,0.00334879,0.0181802,1476,379,2.46832,11.9363
259,645,2.4458,-11.7675,-0.000785132,0.00209476,0.00303964,0.00401827,-0.00270864,1.0066,0.00390824,0.028038,1483,379,2.44577,11.7674
266,645,2.4093,-11.637,-0.000668611,0.00322934,0.00434363,0.00604121,-0.00348048,0.996283,0.00556323,0.0260781,1490,379,2.40925,11.637
273,645,2.40527,-11.5205,-0.000917952,0.0050697,0.00642367,0.00916294,-0.0050112,1.00346,0.00829963,0.026307,1497,379,2.40522,11.5205
280,645,2.50317,-11.3483,-0.000780298,0.00629812,0.00875206,0.0121995,-0.00668167,0.977539,0.0110551,0.0459499,1504,379,2.50317,11.3483
287,645,2.58813,-11.2515,0,0,0,0,0,0,0,-1,1511,379,2.58815,11.2515
294,645,3.76416,-10.3552,0,0,0,0,0,0,0,-1,1518,379,3.76416,10.3552
301,645,4.65698,-9.19528,0,0,0,0,0,0,0,-1,1525,379,4.65702,9.19527
308,645,2.776,-11.6742,0,0,0,0,0,0,0,-1,1532,379,2.77596,11.6742
315,645,2.44275,-10.7509,0,0,0,0,0,0,0,-1,1539,379,2.44271,10.7509
322,645,2.65393,-9.63715,0,0,0,0,0,0,0,-1,1546,379,2.65397,9.63715
329,645,2.42358,-9.06589,0,0,0,0,0,0,0,-1,1553,379,2.4236,9.06589
336,645,0.61792,-6.51047,0,0,0,0,0,0,0,-1,1560,379,0.617879,6.51047
343,645,3.48962,-5.22675,0,0,0,0,0,0,0,-1,1567,379,3.48959,5.22675
350,645,3.93213,-5.72198,0,0,0,0,0,0,0,-1,1574,379,3.9321,5.72198
357,645,1.63928,-6.465,0,0,0,0,0,0,0,-1,1581,379,1.63926,6.46499
364,645,-0.0794678,-3.22021,0,0,0,0,0,0,0,-1,1588,379,-0.0794987,3.22021
371,645,0,0,0,0,0,0,0,0,0,-1,1595,379,0,0
378,645,0,0,0,0,0,0,0,0,0,-1,1602,379,0,0
385,645,0,0,0,0,0,0,0,0,0,-1,1609,379,0,0
392,645,0,0,0,0,0,0,0,0,0,-1,1616,379,0,0
399,645,0,0,0,0,0,0,0,0,0,-1,1623,379,0,0
406,645,0,0,0,0,0,0,0,0,0,-1,1630,379,0,0
413,645,0,0,0,0,0,0,0,0,0,-1,1637,379,0,0
420,645,0,0,0,0,0,0,0,0,0,-1,1644,379,0,0
427,645,0,0,0,0,0,0,0,0,0,-1,1651,379,0,0
434,645,0,0,0,0,0,0,0,0,0,-1,1658,379,0,0
441,645,0,0,0,0,0,0,0,0,0,-1,1665,379,0,0
448,645,0,0,0,0,0,0,0,0,0,-1,1672,379,0,0
455,645,0,0,0,0,0,0,0,0,0,-1,1679,379,0,0
462,645,0,0,0,0,0,0,0,0,0,-1,1686,379,0,0
469,645,0,0,0,0,0,0,0,0,0,-1,1693,379,0,0
476,645,0,0,0,0,0,0,0,0,0,-1,1700,379,0,0
483,645,0,0,0,0,0,0,0,0,0,-1,1707,379,0,0
490,645,0,0,0,0,0,0,0,0,0,-1,1714,379,0,0
497,645,0,0,0,0,0,0,0,0,0,-1,1721,379,0,0
504,645,0,0,0,0,0,0,0,0,0,-1,1728,379,0,0
511,645,0,0,0,0,0,0,0,0,0,-1,1735,379,0,0
518,645,0,0,0,0,0,0,0,0,0,-1,1742,379,0,0
525,645,0,0,0,0,0,0,0,0,0,-1,1749,379,0,0
532,645,0,0,0,0,0,0,0,0,0,-1,1756,379,0,0
539,645,0,0,0,0,0,0,0,0,0,-1,1763,379,0,0
546,645,0,0,0,0,0,0,0,0,0,-1,1770,379,0,0
553,645,0,0,0,0,0,0,0,0,0,-1,1777,379,0,0
560,645,0,0,0,0,0,0,0,0,0,-1,1784,379,0,0
567,645,0,0,0,0,0,0,0,0,0,-1,1791,379,0,0
574,645,0,0,0,0,0,0,0,0,0,-1,1798,379,0,0
581,645,0,0,0,0,0,0,0,0,0,-1,1805,379,0,0
588,645,0,0,0,0,0,0,0,0,0,-1,1812,379,0,0
595,645,0,0,0,0,0,0,0,0,0,-1,1819,379,0,0
602,645,0,0,0,0,0,0,0,0,0,-1,1826,379,0,0
609,645,0,0,0,0,0,0,0,0,0,-1,1833,379,0,0
616,645,0,0,0,0,0,0,0,0,0,-1,1840,379,0,0
623,645,0,0,0,0,0,0,0,0,0,-1,1847,379,0,0
630,645,0,0,0,0,0,0,0,0,0,-1,1854,379,0,0
637,645,0,0,0,0,0,0,0,0,0,-1,1861,379,0,0
644,645,0,0,0,0,0,0,0,0,0,-1,1868,379,0,0
651,645,0,0,0,0,0,0,0,0,0,-1,1875,379,0,0
658,645,0,0,0,0,0,0,0,0,0,-1,1882,379,0,0
665,645,0,0,0,0,0,0,0,0,0,-1,1889,379,0,0
672,645,0,0,0,0,0,0,0,0,0,-1,1896,379,0,0
679,645,0,0,0,0,0,0,0,0,0,-1,1903,379,0,0
686,645,0,0,0,0,0,0,0,0,0,-1,1910,379,0,0
693,645,0,0,0,0,0,0,0,0,0,-1,1917,379,0,0
700,645,0,0,0,0,0,0,0,0,0,-1,1924,379,0,0
707,645,0,0,0,0,0,0,0,0,0,-1,1931,379,0,0
714,645,0,0,0,0,0,0,0,0,0,-1,1938,379,0,0
721,645,0,0,0,0,0,0,0,0,0,-1,1945,379,0,0
728,645,0,0,0,0,0,0,0,0,0,-1,1952,379,0,0
735,645,0,0,0,0,0,0,0,0,0,-1,1959,379,0,0
742,645,0,0,0,0,0,0,0,0,0,-1,1966,379,0,0
749,645,0,0,0,0,0,0,0,0,0,-1,1973,379,0,0
756,645,0,0,0,0,0,0,0,0,0,-1,1980,379,0,0
763,645,0,0,0,0,0,0,0,0,0,-1,1987,379,0,0
770,645,0,0,0,0,0,0,0,0,0,-1,1994,379,0,0
777,645,0,0,0,0,0,0,0,0,0,-1,2001,379,0,0
784,645,0,0,0,0,0,0,0,0,0,-1,2008,379,0,0
791,645,0,0,0,0,0,0,0,0,0,-1,2015,379,0,0
798,645,0,0,0,0,0,0,0,0,0,-1,2022,379,0,0
805,645,0,0,0,0,0,0,0,0,0,-1,2029,379,0,0
812,645,0,0,0,0,0,0,0,0,0,-1,2036,379,0,0
-700,638,0,0,0,0,0,0,0,0,0,-1,524,386,0,0
-693,638,0,0,0,0,0,0,0,0,0,-1,531,386,0,0
-686,638,0,0,0,0,0,0,0,0,0,-1,538,386,0,0
-679,638,0,0,0,0,0,0,0,0,0,-1,545,386,0,0
-672,638,0,0,0,0,0,0,0,0,0,-1,552,386,0,0
-665,638,0,0,0,0,0,0,0,0,0,-1,559,386,0,0
-658,638,0,0,0,0,0,0,0,0,0,-1,566,386,0,0
-651,638,0,0,0,0,0,0,0,0,0,-1,573,386,0,0
-644,638,0,0,0,0,0,0,0,0,0,-1,580,386,0,0
-637,638,0,0,0,0,0,0,0,0,0,-1,587,386,0,0
-630,638,0,0,0,0,0,0,0,0,0,-1,594,386,0,0
-623,638,0,0,0,0,0,0,0,0,0,-1,601,386,0,0
-616,638,0,0,0,0,0,0,0,0,0,-1,608,386,0,0
-609,638,0,0,0,0,0,0,0,0,0,-1,615,386,0,0
-602,638,0,0,0,0,0,0,0,0,0,-1,622,386,0,0
-595,638,0,0,0,0,0,0,0,0,0,-1,629,386,0,0
-588,638,0,0,0,0,0,0,0,0,0,-1,636,386,0,0
-581,638,0,0,0,0,0,0,0,0,0,-1,643,386,0,0
-574,638,0,0,0,0,0,0,0,0,0,-1,650,386,0,0
-567,638,0,0,0,0,0,0,0,0,0,-1,657,386,0,0
-560,638,0,0,0,0,0,0,0,0,0,-1,664,386,0,0
-553,638,0,0,0,0,0,0,0,0,0,-1,671,386,0,0
-546,638,0,0,0,0,0,0,0,0,0,-1,678,386,0,0
-539,638,0,0,0,0,0,0,0,0,0,-1,685,386,0,0
-532,638,0,0,0,0,0,0,0,0,0,-1,692,386,0,0
-525,638,0,0,0,0,0,0,0,0,0,-1,699,386,0,0
-518,638,0,0,0,0,0,0,0,0,0,-1,706,386,0,0
-511,638,0,0,0,0,0,0,0,0,0,-1,713,386,0,0
-504,638,0,0,0,0,0,0,0,0,0,-1,720,386,0,0
-497,638,0,0,0,0,0,0,0,0,0,-1,727,386,0,0
-490,638,0,0,0,0,0,0,0,0,0,-1,734,386,0,0
-483,638,0,0,0,0,0,0,0,0,0,-1,741,386,0,0
-476,638,0,0,0,0,0,0,0,0,0,-1,748,386,0,0
-469,638,0,0,0,0,0,0,0,0,0,-1,755,386,0,0
-462,638,0,0,0,0,0,0,0,0,0,-1,762,386,0,0
-455,638,0,0,0,0,0,0,0,0,0,-1,769,386,0,0
-448,638,0,0,0,0,0,0,0,0,0,-1,776,386,0,0
-441,638,0,0,0,0,0,0,0,0,0,-1,783,386,0,0
-434,638,0,0,0,0,0,0,0,0,0,-1,790,386,0,0
-427,638,0,0,0,0,0,0,0,0,0,-1,797,386,0,0
-420,638,0,0,0,0,0,0,0,0,0,-1,804,386,0,0
-413,638,0,0,0,0,0,0,0,0,0,-1,811,386,0,0
-406,638,0,0,0,0,0,0,0,0,0,-1,818,386,0,0
-399,638,0,0,0,0,0,0,0,0,0,-1,825,386,0,0
-392,638,0,0,0,0,0,0,0,0,0,-1,832,386,0,0
-385,638,0,0,0,0,0,0,0,0,0,-1,839,386,0,0
-378,638,0,0,0,0,0,0,0,0,0,-1,846,386,0,0
-371,638,0,0,0,0,0,0,0,0,0,-1,853,386,0,0
-364,638,0,0,0,0,0,0,0,0,0,-1,860,386,0,0
-357,638,0,0,0,0,0,0,0,0,0,-1,867,386,0,0
-350,638,0,0,0,0,0,0,0,0,0,-1,874,386,0,0
-343,638,0,0,0,0,0,0,0,0,0,-1,881,386,0,0
-336,638,0,0,0,0,0,0,0,0,0,-1,888,386,0,0
-329,638,0,0,0,0,0,0,0,0,0,-1,895,386,0,0
-322,638,0,0,0,0,0,0,0,0,0,-1,902,386,0,0
-315,638,0,0,0,0,0,0,0,0,0,-1,909,386,0,0
-308,638,0,0,0,0,0,0,0,0,0,-1,916,386,0,0
-301,638,0,0,0,0,0,0,0,0,0,-1,923,386,0,0
-294,638,0,0,0,0,0,0,0,0,0,-1,930,386,0,0
-287,638,0,0,0,0,0,0,0,0,0,-1,937,386,0,0
-280,638,0,0,0,0,0,0,0,0,0,-1,944,386,0,0
-273,638,0,0,0,0,0,0,0,0,0,-1,951,386,0,0
-266,638,0.603821,-10.3962,0,0,0,0,0,0,0,-1,958,386,0.603829,10.3962
-259,638,9.24457,-8.64029,0,0,0,0,0,0,0,-1,965,386,9.24457,8.64028
-252,638,8.62463,-8.76974,0,0,0,0,0,0,0,-1,972,386,8.62463,8.76974
-245,638,7.86023,-9.08749,0,0,0,0,0,0,0,-1,979,386,7.86023,9.08748
-238,638,3.05347,-9.05939,0,0,0,0,0,0,0,-1,986,386,3.05344,9.05939
-231,638,-0.0879517,-10.0367,0,0,0,0,0,0,0,-1,993,386,-0.0879783,10.0367
-224,638,-0.990479,-9.01202,0,0,0,0,0,0,0,-1,1000,386,-0.990463,9.01204
-217,638,-0.470337,-14.8554,0,0,0,0,0,0,0,-1,1007,386,-0.470331,14.8554
-210,638,0.0127563,-13.7673,0,0,0,0,0,0,0,-1,1014,386,0.0127578,13.7673
-203,638,0.749573,-12.3973,0,0,0,0,0,0,0,-1,1021,386,0.749547,12.3973
-196,638,2.31567,-11.9454,0,0,0,0,0,0,0,-1,1028,386,2.31571,11.9454
-189,638,2.42993,-11.4931,0,0,0,0,0,0,0,-1,1035,386,2.42991,11.4931
-182,638,3.03235,-11.4672,0,0,0,0,0,0,0,-1,1042,386,3.0323,11.4672
-175,638,3.09131,-11.61,0,0,0,0,0,0,0,-1,1049,386,3.09134,11.61
-168,638,2.82483,-11.8681,-0.00420622,-0.00144993,-0.00293177,0.000411454,-0.00606761,-1.00511,0.00418896,0.0339336,1056,386,2.82488,11.8681
-161,638,2.81519,-12.0253,-0.00316684,0.000369104,-0.00228652,0.00149145,-0.00428918,-1.11449,0.00346529,0.0291493,1063,386,2.81521,12.0253
-154,638,2.90137,-12.1332,-0.00233623,0.00315512,-0.00133801,0.00346378,-0.0026449,-1.34407,0.0035374,0.0217389,1070,386,2.90136,12.1332
-147,638,2.86121,-12.2694,-0.00211758,0.00572805,-0.000956235,0.00584292,-0.00223244,-1.45125,0.00481514,0.0166165,1077,386,2.86118,12.2694
-140,638,2.8158,-12.3994,-0.00156534,0.00751163,-0.00115375,0.00765599,-0.00170969,-1.44633,0.00575911,0.0134503,1084,386,2.81579,12.3994
-133,638,2.80188,-12.5558,-0.0015126,0.00904057,-0.00083868,0.00910681,-0.00157884,-1.49198,0.00666016,0.0114175,1091,386,2.8019,12.5558
-126,638,2.79675,-12.6749,-0.0014778,0.0104254,-0.00121104,0.0105473,-0.00159976,-1.47043,0.00762098,0.0134868,1098,386,2.79671,12.6749
-119,638,2.77161,-12.778,-0.000964035,0.0117874,-0.00158038,0.0119804,-0.00115698,-1.44931,0.00839917,0.0149883,1105,386,2.77161,12.7781
-112,638,2.75037,-12.8864,-0.000570727,0.0129732,-0.00189114,0.0132323,-0.000829831,-1.43463,0.00911075,0.013734,1112,386,2.75032,12.8864
-105,638,2.75171,-12.9812,-0.000376762,0.0137305,-0.00222168,0.0140721,-0.000718368,-1.41823,0.00962982,0.0159685,1119,386,2.75168,12.9812
-98,638,2.75269,-13.0829,-0.000339078,0.0137946,-0.0024849,0.0142187,-0.000763231,-1.40173,0.00974353,0.0145883,1126,386,2.75267,13.0828
-91,638,2.71411,-13.1795,-0.000315347,0.0133178,-0.00260927,0.0138002,-0.000797675,-1.38801,0.00947719,0.0116273,1133,386,2.71407,13.1795
-84,638,2.68127,-13.2605,-0.000163487,0.0123409,-0.00261914,0.0128674,-0.000689921,-1.37244,0.00881722,0.0133371,1140,386,2.68129,13.2605
-77,638,2.69397,-13.3507,-0.000311322,0.0108014,-0.00230608,0.011261,-0.000770868,-1.3741,0.00777703,0.0104016,1147,386,2.69396,13.3507
-70,638,2.72424,-13.4324,-0.000515485,0.00908946,-0.00205579,0.00951097,-0.000936997,-1.36856,0.00667494,0.0106661,1154,386,2.72419,13.4324
-63,638,2.70166,-13.5062,-0.000320282,0.00705263,-0.00175107,0.00744737,-0.000715025,-1.34907,0.00521961,0.011782,1161,386,2.70164,13.5062
-56,638,2.69592,-13.5718,-0.000268819,0.00497273,-0.00121504,0.00524069,-0.000536779,-1.35374,0.00368577,0.0140972,1168,386,2.69591,13.5718
-49,638,2.68457,-13.6291,-1.34657e-05,0.00276226,-0.00100059,0.00308534,-0.000336551,-1.25847,0.00217777,0.0118282,1175,386,2.68453,13.6291
-42,638,2.68201,-13.7003,0.000521242,0.00156609,-0.000380399,0.00168991,0.000397422,-1.25611,0.00102027,0.010834,1182,386,2.68199,13.7003
-35,638,2.67676,-13.7568,0.000990264,0.00101693,0.000427933,0.00143174,0.000575459,0.800974,0.000831899,0.0100235,1189,386,2.67674,13.7568
-28,638,2.67212,-13.8034,0.00104523,0.000780551,0.000550444,0.00147902,0.000346763,0.667424,0.000893155,0.00944871,1196,386,2.67207,13.8034
-21,638,2.65686,-13.8262,0.000824487,0.000600477,0.000690062,0.00141158,1.3389e-05,0.704944,0.000936619,0.0117257,1203,386,2.65687,13.8262
-14,638,2.65344,-13.8757,0.000564075,0.000415536,0.000745637,0.00123913,-0.000259521,0.735759,0.000924813,0.0118662,1210,386,2.65347,13.8757
-7,638,2.65149,-13.9721,0.000430801,0.000366456,0.000768357,0.00116766,-0.000370402,0.764475,0.000926913,0.0165149,1217,386,2.65147,13.9721
0,638,2.67737,-13.9676,0.000250211,0.000365692,0.000846166,0.00115609,-0.000540182,0.819464,0.00100063,0.0300163,1224,386,2.67736,13.9676
7,638,2.64099,-13.9737,4.31514e-05,0.000398052,0.000947722,0.00118479,-0.00074359,0.877946,0.00112302,0.0223483,1231,386,2.64103,13.9737
14,638,2.64185,-13.9826,-0.000231401,0.000360457,0.0010819,0.00118617,-0.00105711,0.918896,0.00129587,0.0122454,1238,386,2.64188,13.9826
21,638,2.65076,-14.0348,-0.000516099,0.000309853,0.0012025,0.00116832,-0.00137456,0.950803,0.00146974,0.0106327,1245,386,2.65077,14.0348
28,638,2.63171,-14.0334,-0.000684173,0.000127463,0.00129281,0.00107666,-0.00163337,0.937479,0.0015756,0.00868626,1252,386,2.63166,14.0334
35,638,2.62732,-14.0454,4.92784e-06,-0.00013241,0.00115026,0.00108856,-0.00121605,0.755584,0.00133124,0.0103417,1259,386,2.62729,14.0454
42,638,2.66016,-14.0603,0.000572666,2.02914e-05,0.000852553,0.00119265,-0.000599695,0.628756,0.00105352,0.00922537,1266,386,2.66019,14.0603
49,638,2.68738,-14.0533,0.000949741,-0.000370024,0.000804674,0.0013305,-0.000750789,0.441971,0.00121707,0.00779016,1273,386,2.68742,14.0533
56,638,2.68127,-14.0307,0.00142574,-0.000773117,0.000750448,0.00165745,-0.00100482,0.299469,0.00155238,0.0103765,1280,386,2.68126,14.0307
63,638,2.6626,-14.0391,0.00197564,-0.00119138,0.000579681,0.00207841,-0.00129414,0.175461,0.00196461,0.0127912,1287,386,2.66254,14.0391
70,638,2.64587,-14.0327,0.00236213,-0.00135894,0.000465033,0.00241937,-0.00141617,0.122464,0.00223956,0.0169092,1294,386,2.64587,14.0327
77,638,2.63843,-14.0152,0.00261562,-0.00157512,0.000493729,0.002673,-0.0016325,0.115704,0.00250986,0.0174549,1301,386,2.63837,14.0152
84,638,2.65894,-13.9878,0.00281368,-0.00171685,0.000507386,0.00286981,-0.00177298,0.110174,0.00270533,0.012631,1308,386,2.65894,13.9878
91,638,2.63208,-13.9599,0.0026916,-0.00169974,0.000594422,0.00277064,-0.00177878,0.132194,0.00264734,0.0133673,1315,386,2.63204,13.9599
98,638,2.64575,-13.9308,0.00216667,-0.00153097,0.000740564,0.00230947,-0.00167377,0.190495,0.00230947,0.0124727,1322,386,2.64572,13.9308
105,638,2.66418,-13.8758,0.00155478,-0.00130091,0.000938369,0.00183552,-0.00158165,0.290708,0.00197472,0.00903634,1329,386,2.66413,13.8758
112,638,2.64258,-13.8414,0.000974247,-0.00103858,0.00115755,0.00150171,-0.00156604,0.427563,0.0017713,0.00848568,1336,386,2.6426,13.8414
119,638,2.64502,-13.806,0.000481747,-0.000597121,0.00131908,0.00136743,-0.0014828,0.5913,0.00164603,0.0108036,1343,386,2.64506,13.806
126,638,2.65869,-13.753,7.22828e-05,-0.000120951,0.00145046,0.00142934,-0.00147801,0.752142,0.00167864,0.0138735,1350,386,2.65865,13.753
133,638,2.66016,-13.6841,-0.000278632,0.000421513,0.00156278,0.00167295,-0.00153007,0.895582,0.00184988,0.0144095,1357,386,2.66019,13.6841
140,638,2.66077,-13.6228,-0.000954125,0.000917506,0.00179974,0.00201019,-0.00204681,1.02515,0.00234235,0.0156686,1364,386,2.66071,13.6228
147,638,2.6604,-13.5662,-0.000997165,0.00105712,0.0018922,0.00218298,-0.00212303,1.03406,0.00248616,0.0173141,1371,386,2.66042,13.5662
154,638,2.64209,-13.4984,-0.00063677,0.00161023,0.001586,0.00243034,-0.00145688,1.09356,0.00226763,0.0149734,1378,386,2.64211,13.4984
161,638,2.64075,-13.3949,-0.000322019,0.00173568,0.00139056,0.00243662,-0.00102296,1.1039,0.00205222,0.017686,1385,386,2.64077,13.3949
168,638,2.65771,-13.2992,-0.000263824,0.00178914,0.00133527,0.00244688,-0.000921567,1.11309,0.00201014,0.0226486,1392,386,2.65771,13.2992
175,638,2.65393,-13.279,-0.000135504,0.00186971,0.00133513,0.00253677,-0.000802567,1.10745,0.00201276,0.0185084,1399,386,2.65397,13.279
182,638,2.62073,-13.1758,2.62826e-05,0.00176723,0.00131761,0.00247594,-0.000682428,1.07731,0.00191898,0.0132173,1406,386,2.62072,13.1758
189,638,2.59705,-13.0644,0.00010663,0.00136738,0.00140577,0.00227764,-0.000803637,0.996166,0.00184558,0.0124158,1413,386,2.59701,13.0644
196,638,2.60327,-12.9673,3.09586e-06,0.000733235,0.00153742,0.00194834,-0.001212,0.901967,0.00184106,0.0147046,1420,386,2.60329,12.9673
203,638,2.58081,-12.8929,-0.00038514,-0.000177393,0.00151293,0.00123523,-0.00179776,0.819673,0.00176111,0.0209978,1427,386,2.58083,12.8929
210,638,2.59229,-12.7899,-0.0007422,-0.000596283,0.00152157,0.000854078,-0.00219256,0.809354,0.00181468,0.0174201,1434,386,2.5923,12.7899
217,638,2.58667,-12.6759,-0.00103006,-0.00057094,0.00158734,0.00080335,-0.00240435,0.85721,0.00192732,0.0120751,1441,386,2.58667,12.6759
224,638,2.56775,-12.5379,-0.00126098,-0.000508725,0.00158252,0.000741751,-0.00251146,0.902072,0.0019687,0.0104007,1448,386,2.56779,12.5379
231,638,2.57031,-12.4039,-0.00127014,-0.000376424,0.00168746,0.000922342,-0.0025689,0.914833,0.00208906,0.0111234,1455,386,2.57025,12.4039
238,638,2.56372,-12.2903,-0.00112848,0.000140132,0.00197392,0.00157916,-0.00256751,0.940858,0.00241664,0.0108091,1462,386,2.56372,12.2903
245,638,2.55139,-12.1511,-0.00109171,0.00060886,0.00210525,0.00202906,-0.0025119,0.977324,0.00262666,0.0122576,1469,386,2.55133,12.1511
252,638,2.54468,-12.0087,-0.000828685,0.00130845,0.00233975,0.00281209,-0.00233233,0.999605,0.00297444,0.0140466,1476,386,2.54471,12.0087
259,638,2.53137,-11.8667,-0.000289537,0.00212161,0.00273929,0.00390888,-0.00207681,0.992695,0.00350939,0.0134489,1483,386,2.53134,11.8667
266,638,2.50195,-11.737,-0.000232833,0.00293369,0.00380678,0.00547332,-0.00277247,0.98247,0.00484509,0.0110168,1490,386,2.50193,11.737
273,638,2.49609,-11.6003,-0.000463113,0.00432111,0.0053945,0.00783008,-0.00397208,0.994089,0.00693428,0.0112567,1497,386,2.49613,11.6004
280,638,2.53467,-11.3701,-0.000384151,0.00516873,0.00716806,0.0100793,-0.00529469,0.970169,0.0090183,0.0223091,1504,386,2.53472,11.3701
287,638,2.82556,-10.9242,-0.000850249,0.00599472,0.00938614,0.0125629,-0.00741841,0.960223,0.011663,0.0393377,1511,386,2.82554,10.9242
294,638,3.02112,-10.5896,0,0,0,0,0,0,0,-1,1518,386,3.02106,10.5896
301,638,2.39868,-10.9393,0,0,0,0,0,0,0,-1,1525,386,2.39864,10.9393
308,638,3.28284,-11.3996,0,0,0,0,0,0,0,-1,1532,386,3.28278,11.3996
315,638,2.84961,-10.7766,-0.00605727,0.00889709,0.0213846,0.024074,-0.0212342,0.953581,0.0261758,0.0426434,1539,386,2.8496,10.7766
322,638,2.52295,-9.96805,-0.00847272,0.00882803,0.0249179,0.0265543,-0.026199,0.952468,0.0304574,0.0413375,1546,386,2.52295,9.96806
329,638,2.33179,-9.00693,0,0,0,0,0,0,0,-1,1553,386,2.33173,9.00694
336,638,2.20642,-7.77731,0,0,0,0,0,0,0,-1,1560,386,2.20646,7.7773
343,638,1.04028,-10.3387,0,0,0,0,0,0,0,-1,1567,386,1.04031,10.3387
350,638,2.3783,-11.33,0,0,0,0,0,0,0,-1,1574,386,2.37831,11.33
357,638,0.130371,-3.02618,0,0,0,0,0,0,0,-1,1581,386,0.130345,3.0262
364,638,3.78149,-6.45215,0,0,0,0,0,0,0,-1,1588,386,3.78155,6.45216
371,638,4.18604,-6.71164,0,0,0,0,0,0,0,-1,1595,386,4.18598,6.71164
378,638,4.59045,-6.97113,0,0,0,0,0,0,0,-1,1602,386,4.5904,6.97112
385,638,0,0,0,0,0,0,0,0,0,-1,1609,386,0,0
392,638,0,0,0,0,0,0,0,0,0,-1,1616,386,0,0
399,638,0,0,0,0,0,0,0,0,0,-1,1623,386,0,0
406,638,0,0,0,0,0,0,0,0,0,-1,1630,386,0,0
413,638,0,0,0,0,0,0,0,0,0,-1,1637,386,0,0
420,638,0,0,0,0,0,0,0,0,0,-1,1644,386,0,0
427,638,0,0,0,0,0,0,0,0,0,-1,1651,386,0,0
434,638,0,0,0,0,0,0,0,0,0,-1,1658,386,0,0
441,638,0,0,0,0,0,0,0,0,0,-1,1665,386,0,0
448,638,0,0,0,0,0,0,0,0,0,-1,1672,386,0,0
455,638,0,0,0,0,0,0,0,0,0,-1,1679,386,0,0
462,638,0,0,0,0,0,0,0,0,0,-1,1686,386,0,0
469,638,0,0,0,0,0,0,0,0,0,-1,1693,386,0,0
476,638,0,0,0,0,0,0,0,0,0,-1,1700,386,0,0
483,638,0,0,0,0,0,0,0,0,0,-1,1707,386,0,0
490,638,0,0,0,0,0,0,0,0,0,-1,1714,386,0,0
497,638,0,0,0,0,0,0,0,0,0,-1,1721,386,0,0
504,638,0,0,0,0,0,0,0,0,0,-1,1728,386,0,0
511,638,0,0,0,0,0,0,0,0,0,-1,1735,386,0,0
518,638,0,0,0,0,0,0,0,0,0,-1,1742,386,0,0
525,638,0,0,0,0,0,0,0,0,0,-1,1749,386,0,0
532,638,0,0,0,0,0,0,0,0,0,-1,1756,386,0,0
539,638,0,0,0,0,0,0,0,0,0,-1,1763,386,0,0
546,638,0,0,0,0,0,0,0,0,0,-1,1770,386,0,0
553,638,0,0,0,0,0,0,0,0,0,-1,1777,386,0,0
560,638,0,0,0,0,0,0,0,0,0,-1,1784,386,0,0
567,638,0,0,0,0,0,0,0,0,0,-1,1791,386,0,0
574,638,0,0,0,0,0,0,0,0,0,-1,1798,386,0,0
581,638,0,0,0,0,0,0,0,0,0,-1,1805,386,0,0
588,638,0,0,0,0,0,0,0,0,0,-1,1812,386,0,0
595,638,0,0,0,0,0,0,0,0,0,-1,1819,386,0,0
602,638,0,0,0,0,0,0,0,0,0,-1,1826,386,0,0
609,638,0,0,0,0,0,0,0,0,0,-1,1833,386,0,0
616,638,0,0,0,0,0,0,0,0,0,-1,1840,386,0,0
623,638,0,0,0,0,0,0,0,0,0,-1,1847,386,0,0
630,638,0,0,0,0,0,0,0,0,0,-1,1854,386,0,0
637,638,0,0,0,0,0,0,0,0,0,-1,1861,386,0,0
644,638,0,0,0,0,0,0,0,0,0,-1,1868,386,0,0
651,638,0,0,0,0,0,0,0,0,0,-1,1875,386,0,0
658,638,0,0,0,0,0,0,0,0,0,-1,1882,386,0,0
665,638,0,0,0,0,0,0,0,0,0,-1,1889,386,0,0
672,638,0,0,0,0,0,0,0,0,0,-1,1896,386,0,0
679,638,0,0,0,0,0,0,0,0,0,-1,1903,386,0,0
686,638,0,0,0,0,0,0,0,0,0,-1,1910,386,0,0
693,638,0,0,0,0,0,0,0,0,0,-1,1917,386,0,0
700,638,0,0,0,0,0,0,0,0,0,-1,1924,386,0,0
707,638,0,0,0,0,0,0,0,0,0,-1,1931,386,0,0
714,638,0,0,0,0,0,0,0,0,0,-1,1938,386,0,0
721,638,0,0,0,0,0,0,0,0,0,-1,1945,386,0,0
728,638,0,0,0,0,0,0,0,0,0,-1,1952,386,0,0
735,638,0,0,0,0,0,0,0,0,0,-1,1959,386,0,0
742,638,0,0,0,0,0,0,0,0,0,-1,1966,386,0,0
749,638,0,0,0,0,0,0,0,0,0,-1,1973,386,0,0
756,638,0,0,0,0,0,0,0,0,0,-1,1980,386,0,0
763,638,0,0,0,0,0,0,0,0,0,-1,1987,386,0,0
770,638,0,0,0,0,0,0,0,0,0,-1,1994,386,0,0
777,638,0,0,0,0,0,0,0,0,0,-1,2001,386,0,0
784,638,0,0,0,0,0,0,0,0,0,-1,2008,386,0,0
791,638,0,0,0,0,0,0,0,0,0,-1,2015,386,0,0
798,638,0,0,0,0,0,0,0,0,0,-1,2022,386,0,0
805,638,0,0,0,0,0,0,0,0,0,-1,2029,386,0,0
812,638,0,0,0,0,0,0,0,0,0,-1,2036,386,0,0
-700,631,0,0,0,0,0,0,0,0,0,-1,524,393,0,0
-693,631,0,0,0,0,0,0,0,0,0,-1,531,393,0,0
-686,631,0,0,0,0,0,0,0,0,0,-1,538,393,0,0
-679,631,0,0,0,0,0,0,0,0,0,-1,545,393,0,0
-672,631,0,0,0,0,0,0,0,0,0,-1,552,393,0,0
-665,631,0,0,0,0,0,0,0,0,0,-1,559,393,0,0
-658,631,0,0,0,0,0,0,0,0,0,-1,566,393,0,0
-651,631,0,0,0,0,0,0,0,0,0,-1,573,393,0,0
-644,631,0,0,0,0,0,0,0,0,0,-1,580,393,0,0
-637,631,0,0,0,0,0,0,0,0,0,-1,587,393,0,0
-630,631,0,0,0,0,0,0,0,0,0,-1,594,393,0,0
-623,631,0,0,0,0,0,0,0,0,0,-1,601,393,0,0
-616,631,0,0,0,0,0,0,0,0,0,-1,608,393,0,0
-609,631,0,0,0,0,0,0,0,0,0,-1,615,393,0,0
-602,631,0,0,0,0,0,0,0,0,0,-1,622,393,0,0
-595,631,0,0,0,0,0,0,0,0,0,-1,629,393,0,0
-588,631,0,0,0,0,0,0,0,0,0,-1,636,393,0,0
-581,631,0,0,0,0,0,0,0,0,0,-1,643,393,0,0
-574,631,0,0,0,0,0,0,0,0,0,-1,650,393,0,0
-567,631,0,0,0,0,0,0,0,0,0,-1,657,393,0,0
-560,631,0,0,0,0,0,0,0,0,0,-1,664,393,0,0
-553,631,0,0,0,0,0,0,0,0,0,-1,671,393,0,0
-546,631,0,0,0,0,0,0,0,0,0,-1,678,393,0,0
-539,631,0,0,0,0,0,0,0,0,0,-1,685,393,0,0
-532,631,0,0,0,0,0,0,0,0,0,-1,692,393,0,0
-525,631,0,0,0,0,0,0,0,0,0,-1,699,393,0,0
-518,631,0,0,0,0,0,0,0,0,0,-1,706,393,0,0
-511,631,0,0,0,0,0,0,0,0,0,-1,713,393,0,0
-504,631,0,0,0,0,0,0,0,0,0,-1,720,393,0,0
-497,631,0,0,0,0,0,0,0,0,0,-1,727,393,0,0
-490,631,0,0,0,0,0,0,0,0,0,-1,734,393,0,0
-483,631,0,0,0,0,0,0,0,0,0,-1,741,393,0,0
-476,631,0,0,0,0,0,0,0,0,0,-1,748,393,0,0
-469,631,0,0,0,0,0,0,0,0,0,-1,755,393,0,0
-462,631,0,0,0,0,0,0,0,0,0,-1,762,393,0,0
-455,631,0,0,0,0,0,0,0,0,0,-1,769,393,0,0
-448,631,0,0,0,0,0,0,0,0,0,-1,776,393,0,0
-441,631,0,0,0,0,0,0,0,0,0,-1,783,393,0,0
-434,631,0,0,0,0,0,0,0,0,0,-1,790,393,0,0
-427,631,0,0,0,0,0,0,0,0,0,-1,797,393,0,0
-420,631,0,0,0,0,0,0,0,0,0,-1,804,393,0,0
-413,631,0,0,0,0,0,0,0,0,0,-1,811,393,0,0
-406,631,0,0,0,0,0,0,0,0,0,-1,818,393,0,0
-399,631,0,0,0,0,0,0,0,0,0,-1,825,393,0,0
-392,631,0,0,0,0,0,0,0,0,0,-1,832,393,0,0
-385,631,0,0,0,0,0,0,0,0,0,-1,839,393,0,0
-378,631,0,0,0,0,0,0,0,0,0,-1,846,393,0,0
-371,631,0,0,0,0,0,0,0,0,0,-1,853,393,0,0
-364,631,0,0,0,0,0,0,0,0,0,-1,860,393,0,0
-357,631,0,0,0,0,0,0,0,0,0,-1,867,393,0,0
-350,631,0,0,0,0,0,0,0,0,0,-1,874,393,0,0
-343,631,0,0,0,0,0,0,0,0,0,-1,881,393,0,0
-336,631,0,0,0,0,0,0,0,0,0,-1,888,393,0,0
-329,631,0,0,0,0,0,0,0,0,0,-1,895,393,0,0
-322,631,0,0,0,0,0,0,0,0,0,-1,902,393,0,0
-315,631,0,0,0,0,0,0,0,0,0,-1,909,393,0,0
-308,631,0,0,0,0,0,0,0,0,0,-1,916,393,0,0
-301,631,0,0,0,0,0,0,0,0,0,-1,923,393,0,0
-294,631,0,0,0,0,0,0,0,0,0,-1,930,393,0,0
-287,631,0,0,0,0,0,0,0,0,0,-1,937,393,0,0
-280,631,1.38763,-14.3453,0,0,0,0,0,0,0,-1,944,393,1.38762,14.3453
-273,631,2.6192,-11.8094,0,0,0,0,0,0,0,-1,951,393,2.61918,11.8094
-266,631,0.616394,-9.4404,0,0,0,0,0,0,0,-1,958,393,0.616411,9.4404
-259,631,2.33258,-10.2035,0,0,0,0,0,0,0,-1,965,393,2.33256,10.2035
-252,631,1.69513,-10.2877,0,0,0,0,0,0,0,-1,972,393,1.69513,10.2877
-245,631,3.28119,-8.41373,0,0,0,0,0,0,0,-1,979,393,3.28122,8.41373
-238,631,3.02991,-9.08221,0,0,0,0,0,0,0,-1,986,393,3.02993,9.08221
-231,631,2.77863,-9.7507,0,0,0,0,0,0,0,-1,993,393,2.77864,9.7507
-224,631,0.539063,-9.05594,0,0,0,0,0,0,0,-1,1000,393,0.539048,9.05593
-217,631,2.8056,-11.3224,0,0,0,0,0,0,0,-1,1007,393,2.80559,11.3224
-210,631,2.89948,-11.2531,0,0,0,0,0,0,0,-1,1014,393,2.89946,11.2531
-203,631,2.63617,-11.5324,0,0,0,0,0,0,0,-1,1021,393,2.63617,11.5325
-196,631,2.56042,-11.4916,-0.00233813,-0.0027917,-0.00608357,0.00352288,-0.00865271,-0.766768,0.00723456,0.0491921,1028,393,2.56042,11.4916
-189,631,1.96838,-11.5468,-0.00307451,-0.0016543,-0.00504853,0.00273382,-0.00746262,-0.855268,0.0060943,0.0415747,1035,393,1.96842,11.5468
-182,631,2.849,-11.5405,-0.00316107,-0.000589761,-0.00440334,0.00271178,-0.00646261,-0.927436,0.00544239,0.0419603,1042,393,2.84901,11.5405
-175,631,2.93274,-11.6954,-0.00288635,-0.00051755,-0.00355059,0.00204098,-0.00544488,-0.946384,0.00446842,0.033939,1049,393,2.93277,11.6954
-168,631,2.77905,-11.8994,-0.00294132,-0.000407946,-0.0025381,0.001162,-0.00451126,-1.01685,0.00346049,0.0181633,1056,393,2.77905,11.8994
-161,631,2.73828,-12.0583,-0.00240417,0.000634252,-0.00198397,0.00161387,-0.00338379,-1.11215,0.0029451,0.00874026,1063,393,2.73828,12.0583
-154,631,2.72107,-12.1924,-0.00188607,0.00232795,-0.00126103,0.00267648,-0.0022346,-1.30114,0.00283924,0.00794291,1070,393,2.72102,12.1923
-147,631,2.7135,-12.3107,-0.00178336,0.00394704,-0.000899996,0.00408506,-0.00192138,-1.41862,0.00354203,0.00891913,1077,393,2.71356,12.3107
-140,631,2.70728,-12.4568,-0.00138217,0.00508269,-0.00094363,0.00521761,-0.00151709,-1.42878,0.00407925,0.00913719,1084,393,2.70729,12.4568
-133,631,2.68542,-12.5768,-0.00133528,0.00602056,-0.000649612,0.00607748,-0.00139221,-1.48339,0.0045867,0.0080742,1091,393,2.68548,12.5768
-126,631,2.68225,-12.662,-0.00128432,0.00688112,-0.000926783,0.00698499,-0.00138819,-1.45919,0.00518175,0.0120579,1098,393,2.68227,12.662
-119,631,2.68518,-12.7722,-0.000792609,0.00777928,-0.0012177,0.0079489,-0.000962237,-1.43239,0.00564741,0.0156224,1105,393,2.68524,12.7722
-112,631,2.65796,-12.8979,-0.000363303,0.00856376,-0.00144613,0.00879218,-0.000591724,-1.41414,0.00606832,0.0144913,1112,393,2.65799,12.898
-105,631,2.67627,-13.0056,-7.91253e-05,0.00905676,-0.0016959,0.00936141,-0.000383775,-1.39305,0.00637272,0.0182414,1119,393,2.67625,13.0056
-98,631,2.6792,-13.0871,6.99259e-05,0.00906444,-0.00190708,0.00945209,-0.000317721,-1.37026,0.00640992,0.0150758,1126,393,2.67925,13.0871
-91,631,2.63562,-13.2029,0.000191222,0.00869402,-0.00200592,0.00914348,-0.000258239,-1.35037,0.00618353,0.0166648,1133,393,2.63566,13.2029
-84,631,2.61829,-13.2915,0.000363829,0.00798803,-0.0019862,0.00847443,-0.000122571,-1.33063,0.00569092,0.015713,1140,393,2.61824,13.2915
-77,631,2.63306,-13.3562,0.00031074,0.00691175,-0.00172595,0.00733579,-0.000113297,-1.32988,0.00492873,0.00988295,1147,393,2.63301,13.3562
-70,631,2.64758,-13.4208,0.000225294,0.00575957,-0.00150879,0.00614418,-0.000159312,-1.3212,0.00415024,0.0110396,1154,393,2.6476,13.4208
-63,631,2.63831,-13.4911,0.000285144,0.00451464,-0.00133192,0.00489913,-9.93398e-05,-1.28977,0.0032997,0.0120578,1161,393,2.63828,13.4911
-56,631,2.63013,-13.5726,0.000199102,0.0032161,-0.00112706,0.00359064,-0.000175435,-1.24996,0.00245433,0.0124724,1168,393,2.63009,13.5726
-49,631,2.61389,-13.639,0.00023177,0.00191779,-0.00100675,0.00238787,-0.000238313,-1.13395,0.00167701,0.0100742,1175,393,2.61388,13.639
-42,631,2.60364,-13.7026,0.000391871,0.000840223,-0.000713517,0.00136395,-0.000131858,-0.937608,0.000956289,0.00888985,1182,393,2.60364,13.7026
-35,631,2.61694,-13.7484,0.000540978,0.000248984,-0.000298292,0.000727086,6.28768e-05,-0.557815,0.000465183,0.00985975,1189,393,2.61689,13.7485
-28,631,2.60388,-13.7923,0.000497039,-0.000204094,-0.000269736,0.0005888,-0.000295855,-0.32791,0.000520007,0.0121257,1196,393,2.60385,13.7923
-21,631,2.59119,-13.8448,0.000382608,-0.00069797,-0.000246164,0.000436043,-0.000751405,-0.213757,0.000693586,0.011863,1203,393,2.59115,13.8448
-14,631,2.58069,-13.9137,0.000303328,-0.0011999,-0.000271991,0.000351028,-0.0012476,-0.173608,0.000970146,0.0140984,1210,393,2.58067,13.9137
-7,631,2.59094,-13.9912,0.000256076,-0.00148046,-0.000322619,0.000314076,-0.00153846,-0.177879,0.00114478,0.0204837,1217,393,2.59095,13.9912
0,631,2.61633,-13.9983,0.000245674,-0.00168531,-0.000274907,0.000284049,-0.00172368,-0.138696,0.00125457,0.0214843,1224,393,2.61636,13.9983
7,631,2.60168,-13.9791,0.000292951,-0.00183214,-0.000156181,0.000304368,-0.00184356,-0.0729714,0.00134205,0.0171309,1231,393,2.60165,13.9791
14,631,2.6073,-14.0069,0.000246185,-0.00200614,4.56182e-05,0.000247109,-0.00200706,0.0202428,0.00142756,0.0101469,1238,393,2.60725,14.0069
21,631,2.62659,-14.0435,0.000176739,-0.00214138,0.000251141,0.000203635,-0.00216828,0.106689,0.00151796,0.0123967,1245,393,2.62655,14.0435
28,631,2.62036,-14.0614,0.000202575,-0.00233076,0.000455489,0.000281982,-0.00241016,0.172599,0.00170854,0.0136987,1252,393,2.62032,14.0614
35,631,2.63147,-14.0481,0.000450622,-0.0025086,0.000759634,0.000634228,-0.0026922,0.237156,0.00203936,0.0131677,1259,393,2.63148,14.0481
42,631,2.66602,-14.0556,0.000642425,-0.0029511,0.00106325,0.00093345,-0.00324213,0.267169,0.00253062,0.0122153,1266,393,2.66597,14.0556
49,631,2.67285,-14.054,0.000746398,-0.0034549,0.00136805,0.0011526,-0.00386111,0.288628,0.00303219,0.0106314,1273,393,2.67284,14.054
56,631,2.66553,-14.0457,0.00091467,-0.00402598,0.00155555,0.00136363,-0.00447494,0.280984,0.00352684,0.0114957,1280,393,2.66554,14.0456
63,631,2.66602,-14.0468,0.00103154,-0.00447955,0.00169399,0.00151059,-0.0049586,0.275599,0.00390783,0.0136912,1287,393,2.666,14.0468
70,631,2.66809,-14.0321,0.00107963,-0.00488928,0.00181311,0.00158721,-0.00539686,0.272964,0.00422749,0.0140193,1294,393,2.66812,14.0321
77,631,2.67078,-14.0331,0.00115123,-0.00525738,0.00190486,0.00167467,-0.00578081,0.268172,0.0045168,0.0137639,1301,393,2.67072,14.0331
84,631,2.66931,-14.016,0.00122443,-0.00544834,0.00184967,0.00170285,-0.00592676,0.253105,0.0046245,0.0111578,1308,393,2.6693,14.016
91,631,2.64783,-13.9867,0.00118178,-0.0053734,0.00174201,0.00161596,-0.00580758,0.244261,0.00450797,0.014162,1315,393,2.64786,13.9867
98,631,2.65527,-13.955,0.000973684,-0.00512057,0.00159907,0.00136778,-0.00551467,0.241637,0.00420715,0.0129023,1322,393,2.65531,13.955
105,631,2.67334,-13.9051,0.000658824,-0.00470973,0.0014513,0.00102604,-0.00507695,0.247825,0.00377343,0.0105576,1329,393,2.67329,13.9051
112,631,2.69543,-13.8593,0.000401439,-0.00420947,0.00133938,0.000762264,-0.0045703,0.263151,0.00333016,0.0108956,1336,393,2.69543,13.8593
119,631,2.70044,-13.8106,0.0002672,-0.0034853,0.00116198,0.000597873,-0.00381598,0.277248,0.00276491,0.0117709,1343,393,2.70041,13.8106
126,631,2.7085,-13.7478,0.000135831,-0.00275605,0.00101129,0.000454389,-0.00307461,0.305162,0.00221678,0.0153996,1350,393,2.7085,13.7478
133,631,2.73267,-13.6949,-4.55264e-05,-0.0020288,0.000909193,0.00030819,-0.00238252,0.371026,0.00170041,0.0162325,1357,393,2.73269,13.6949
140,631,2.74731,-13.6483,-0.000289846,-0.00144372,0.00079396,0.00011466,-0.00184822,0.471202,0.00127209,0.0180494,1364,393,2.74727,13.6483
147,631,2.76709,-13.595,-0.000319285,-0.000816179,0.000694299,0.000169681,-0.00130514,0.613578,0.000931821,0.0210392,1371,393,2.7671,13.595
154,631,2.74768,-13.5173,-0.000204784,-0.000427854,0.000581904,0.000276178,-0.000908816,0.690711,0.000715919,0.0200496,1378,393,2.74771,13.5173
161,631,2.72681,-13.4006,-0.000159528,-0.000329434,0.000560823,0.00032274,-0.000811701,0.71023,0.000674945,0.0227178,1385,393,2.72681,13.4006
168,631,2.73718,-13.2779,-0.000149932,-0.000244132,0.00055611,0.000361069,-0.000755133,0.743151,0.00065769,0.0269419,1392,393,2.73715,13.2779
175,631,2.72876,-13.2506,-0.000120251,-5.4455e-05,0.000571041,0.000484635,-0.000659341,0.814172,0.000663037,0.0204845,1399,393,2.72876,13.2506
182,631,2.70959,-13.1794,-6.57095e-05,6.21027e-05,0.000590235,0.000591881,-0.000595488,0.839324,0.000685529,0.0118133,1406,393,2.70959,13.1794
189,631,2.70618,-13.0584,-6.9101e-05,5.00736e-05,0.000711713,0.00070469,-0.000723717,0.827163,0.000824715,0.0113936,1413,393,2.70619,13.0584
196,631,2.69409,-12.9697,-0.000135014,-7.48064e-05,0.000849902,0.000745525,-0.000955345,0.803101,0.000984485,0.0114214,1420,393,2.69406,12.9697
203,631,2.7124,-12.8872,-0.000300612,-0.000376365,0.000871367,0.000533702,-0.00121068,0.763678,0.00103209,0.0141044,1427,393,2.71238,12.8872
210,631,2.71008,-12.8025,-0.000460985,-0.000434945,0.000913567,0.000465695,-0.00136162,0.792524,0.00109646,0.0165623,1434,393,2.71014,12.8025
217,631,2.70471,-12.6867,-0.000661545,-0.000264578,0.000971301,0.000528312,-0.00145443,0.886185,0.00118563,0.015871,1441,393,2.70472,12.6867
224,631,2.6825,-12.5511,-0.000820437,-0.000156204,0.00105298,0.000615794,-0.00159244,0.938163,0.00131583,0.011685,1448,393,2.68245,12.5511
231,631,2.68518,-12.4069,-0.000786046,1.45363e-05,0.00121828,0.000896598,-0.00166811,0.944128,0.0015029,0.0106509,1455,393,2.68521,12.4069
238,631,2.65063,-12.2537,-0.000631906,0.00049476,0.0015294,0.00156127,-0.00169842,0.961856,0.00188254,0.0150894,1462,393,2.65062,12.2537
245,631,2.65625,-12.1461,-0.000574393,0.00090987,0.00170865,0.0020306,-0.00169512,0.990275,0.00215395,0.017041,1469,393,2.65619,12.1461
252,631,2.65698,-12.0421,-0.000357487,0.00147353,0.00195113,0.00271326,-0.00159722,1.00476,0.00251631,0.0174586,1476,393,2.65703,12.0421
259,631,2.62915,-11.8878,5.47162e-05,0.00207484,0.00231294,0.00358865,-0.00145909,0.991268,0.00299952,0.0126632,1483,393,2.62911,11.8878
266,631,2.64368,-11.7524,7.19942e-05,0.00262323,0.00316979,0.00476445,-0.00206923,0.976697,0.00404642,0.0119115,1490,393,2.64363,11.7525
273,631,2.64746,-11.6,-0.000132894,0.00364253,0.0043728,0.00651768,-0.00300804,0.989162,0.00562273,0.013739,1497,393,2.64745,11.6
280,631,2.63806,-11.4681,-0.000111011,0.00417446,0.00571022,0.00813073,-0.00406729,0.964891,0.0071716,0.0121517,1504,393,2.63811,11.4681
287,631,2.64856,-11.2852,-0.000490282,0.00466476,0.00733286,0.00985991,-0.00568543,0.954405,0.00908234,0.0146771,1511,393,2.64851,11.2853
294,631,2.62231,-11.0805,-0.00102817,0.00536492,0.00911892,0.0118313,-0.00749457,0.953976,0.0112511,0.0192024,1518,393,2.62234,11.0805
301,631,2.57434,-10.9187,-0.00173868,0.00596727,0.0111331,0.0138952,-0.00966665,0.951989,0.0136763,0.0275761,1525,393,2.57438,10.9187
308,631,2.70581,-10.7934,-0.00271845,0.00653245,0.0134965,0.0161741,-0.0123601,0.950483,0.0165232,0.0332191,1532,393,2.7058,10.7934
315,631,2.89465,-10.6827,-0.00422785,0.00642806,0.0156606,0.0176422,-0.015442,0.949363,0.0191153,0.0347034,1539,393,2.89465,10.6828
322,631,2.49268,-10.2516,-0.00582344,0.00639687,0.017976,0.0192728,-0.0186993,0.949226,0.021924,0.0377608,1546,393,2.4927,10.2516
329,631,2.11462,-9.86136,0,0,0,0,0,0,0,-1,1553,393,2.11466,9.86136
336,631,2.95667,-10.3798,0,0,0,0,0,0,0,-1,1560,393,2.95664,10.3798
343,631,2.39612,-6.96481,0,0,0,0,0,0,0,-1,1567,393,2.39608,6.96482
350,631,2.1344,-9.23401,0,0,0,0,0,0,0,-1,1574,393,2.13439,9.23401
357,631,2.6449,-9.60303,0,0,0,0,0,0,0,-1,1581,393,2.64491,9.60304
364,631,3.39136,-5.7594,0,0,0,0,0,0,0,-1,1588,393,3.39137,5.75939
371,631,3.72839,-6.0574,0,0,0,0,0,0,0,-1,1595,393,3.72845,6.05742
378,631,4.06555,-6.35544,0,0,0,0,0,0,0,-1,1602,393,4.06553,6.35544
385,631,3.90442,-3.58298,0,0,0,0,0,0,0,-1,1609,393,3.90437,3.58299
392,631,0.352295,-2.21301,0,0,0,0,0,0,0,-1,1616,393,0.352345,2.213
399,631,0,0,0,0,0,0,0,0,0,-1,1623,393,0,0
406,631,0,0,0,0,0,0,0,0,0,-1,1630,393,0,0
413,631,0,0,0,0,0,0,0,0,0,-1,1637,393,0,0
420,631,0,0,0,0,0,0,0,0,0,-1,1644,393,0,0
427,631,0,0,0,0,0,0,0,0,0,-1,1651,393,0,0
434,631,0,0,0,0,0,0,0,0,0,-1,1658,393,0,0
441,631,0,0,0,0,0,0,0,0,0,-1,1665,393,0,0
448,631,0,0,0,0,0,0,0,0,0,-1,1672,393,0,0
455,631,0,0,0,0,0,0,0,0,0,-1,1679,393,0,0
462,631,0,0,0,0,0,0,0,0,0,-1,1686,393,0,0
469,631,0,0,0,0,0,0,0,0,0,-1,1693,393,0,0
476,631,0,0,0,0,0,0,0,0,0,-1,1700,393,0,0
483,631,0,0,0,0,0,0,0,0,0,-1,1707,393,0,0
490,631,0,0,0,0,0,0,0,0,0,-1,1714,393,0,0
497,631,0,0,0,0,0,0,0,0,0,-1,1721,393,0,0
504,631,0,0,0,0,0,0,0,0,0,-1,1728,393,0,0
511,631,0,0,0,0,0,0,0,0,0,-1,1735,393,0,0
518,631,0,0,0,0,0,0,0,0,0,-1,1742,393,0,0
525,631,0,0,0,0,0,0,0,0,0,-1,1749,393,0,0
532,631,0,0,0,0,0,0,0,0,0,-1,1756,393,0,0
539,631,0,0,0,0,0,0,0,0,0,-1,1763,393,0,0
546,631,0,0,0,0,0,0,0,0,0,-1,1770,393,0,0
553,631,0,0,0,0,0,0,0,0,0,-1,1777,393,0,0
560,631,0,0,0,0,0,0,0,0,0,-1,1784,393,0,0
567,631,0,0,0,0,0,0,0,0,0,-1,1791,393,0,0
574,631,0,0,0,0,0,0,0,0,0,-1,1798,393,0,0
581,631,0,0,0,0,0,0,0,0,0,-1,1805,393,0,0
588,631,0,0,0,0,0,0,0,0,0,-1,1812,393,0,0
595,631,0,0,0,0,0,0,0,0,0,-1,1819,393,0,0
602,631,0,0,0,0,0,0,0,0,0,-1,1826,393,0,0
609,631,0,0,0,0,0,0,0,0,0,-1,1833,393,0,0
616,631,0,0,0,0,0,0,0,0,0,-1,1840,393,0,0
623,631,0,0,0,0,0,0,0,0,0,-1,1847,393,0,0
630,631,0,0,0,0,0,0,0,0,0,-1,1854,393,0,0
637,631,0,0,0,0,0,0,0,0,0,-1,1861,393,0,0
644,631,0,0,0,0,0,0,0,0,0,-1,1868,393,0,0
651,631,0,0,0,0,0,0,0,0,0,-1,1875,393,0,0
658,631,0,0,0,0,0,0,0,0,0,-1,1882,393,0,0
665,631,0,0,0,0,0,0,0,0,0,-1,1889,393,0,0
672,631,0,0,0,0,0,0,0,0,0,-1,1896,393,0,0
679,631,0,0,0,0,0,0,0,0,0,-1,1903,393,0,0
686,631,0,0,0,0,0,0,0,0,0,-1,1910,393,0,0
693,631,0,0,0,0,0,0,0,0,0,-1,1917,393,0,0
700,631,0,0,0,0,0,0,0,0,0,-1,1924,393,0,0
707,631,0,0,0,0,0,0,0,0,0,-1,1931,393,0,0
714,631,0,0,0,0,0,0,0,0,0,-1,1938,393,0,0
721,631,0,0,0,0,0,0,0,0,0,-1,1945,393,0,0
728,631,0,0,0,0,0,0,0,0,0,-1,1952,393,0,0
735,631,0,0,0,0,0,0,0,0,0,-1,1959,393,0,0
742,631,0,0,0,0,0,0,0,0,0,-1,1966,393,0,0
749,631,0,0,0,0,0,0,0,0,0,-1,1973,393,0,0
756,631,0,0,0,0,0,0,0,0,0,-1,1980,393,0,0
763,631,0,0,0,0,0,0,0,0,0,-1,1987,393,0,0
770,631,0,0,0,0,0,0,0,0,0,-1,1994,393,0,0
777,631,0,0,0,0,0,0,0,0,0,-1,2001,393,0,0
784,631,0,0,0,0,0,0,0,0,0,-1,2008,393,0,0
791,631,0,0,0,0,0,0,0,0,0,-1,2015,393,0,0
798,631,0,0,0,0,0,0,0,0,0,-1,2022,393,0,0
805,631,0,0,0,0,0,0,0,0,0,-1,2029,393,0,0
812,631,0,0,0,0,0,0,0,0,0,-1,2036,393,0,0
-700,624,0,0,0,0,0,0,0,0,0,-1,524,400,0,0
-693,624,0,0,0,0,0,0,0,0,0,-1,531,400,0,0
-686,624,0,0,0,0,0,0,0,0,0,-1,538,400,0,0
-679,624,0,0,0,0,0,0,0,0,0,-1,545,400,0,0
-672,624,0,0,0,0,0,0,0,0,0,-1,552,400,0,0
-665,624,0,0,0,0,0,0,0,0,0,-1,559,400,0,0
-658,624,0,0,0,0,0,0,0,0,0,-1,566,400,0,0
-651,624,0,0,0,0,0,0,0,0,0,-1,573,400,0,0
-644,624,0,0,0,0,0,0,0,0,0,-1,580,400,0,0
-637,624,0,0,0,0,0,0,0,0,0,-1,587,400,0,0
-630,624,0,0,0,0,0,0,0,0,0,-1,594,400,0,0
-623,624,0,0,0,0,0,0,0,0,0,-1,601,400,0,0
-616,624,0,0,0,0,0,0,0,0,0,-1,608,400,0,0
-609,624,0,0,0,0,0,0,0,0,0,-1,615,400,0,0
-602,624,0,0,0,0,0,0,0,0,0,-1,622,400,0,0
-595,624,0,0,0,0,0,0,0,0,0,-1,629,400,0,0
-588,624,0,0,0,0,0,0,0,0,0,-1,636,400,0,0
-581,624,0,0,0,0,0,0,0,0,0,-1,643,400,0,0
-574,624,0,0,0,0,0,0,0,0,0,-1,650,400,0,0
-567,624,0,0,0,0,0,0,0,0,0,-1,657,400,0,0
-560,624,0,0,0,0,0,0,0,0,0,-1,664,400,0,0
-553,624,0,0,0,0,0,0,0,0,0,-1,671,400,0,0
-546,624,0,0,0,0,0,0,0,0,0,-1,678,400,0,0
-539,624,0,0,0,0,0,0,0,0,0,-1,685,400,0,0
-532,624,0,0,0,0,0,0,0,0,0,-1,692,400,0,0
-525,624,0,0,0,0,0,0,0,0,0,-1,699,400,0,0
-518,624,0,0,0,0,0,0,0,0,0,-1,706,400,0,0
-511,624,0,0,0,0,0,0,0,0,0,-1,713,400,0,0
-504,624,0,0,0,0,0,0,0,0,0,-1,720,400,0,0
-497,624,0,0,0,0,0,0,0,0,0,-1,727,400,0,0
-490,624,0,0,0,0,0,0,0,0,0,-1,734,400,0,0
-483,624,0,0,0,0,0,0,0,0,0,-1,741,400,0,0
-476,624,0,0,0,0,0,0,0,0,0,-1,748,400,0,0
-469,624,0,0,0,0,0,0,0,0,0,-1,755,400,0,0
-462,624,0,0,0,0,0,0,0,0,0,-1,762,400,0,0
-455,624,0,0,0,0,0,0,0,0,0,-1,769,400,0,0
-448,624,0,0,0,0,0,0,0,0,0,-1,776,400,0,0
-441,624,0,0,0,0,0,0,0,0,0,-1,783,400,0,0
-434,624,0,0,0,0,0,0,0,0,0,-1,790,400,0,0
-427,624,0,0,0,0,0,0,0,0,0,-1,797,400,0,0
-420,624,0,0,0,0,0,0,0,0,0,-1,804,400,0,0
-413,624,0,0,0,0,0,0,0,0,0,-1,811,400,0,0
-406,624,0,0,0,0,0,0,0,0,0,-1,818,400,0,0
-399,624,0,0,0,0,0,0,0,0,0,-1,825,400,0,0
-392,624,0,0,0,0,0,0,0,0,0,-1,832,400,0,0
-385,624,0,0,0,0,0,0,0,0,0,-1,839,400,0,0
-378,624,0,0,0,0,0,0,0,0,0,-1,846,400,0,0
-371,624,0,0,0,0,0,0,0,0,0,-1,853,400,0,0
-364,624,0,0,0,0,0,0,0,0,0,-1,860,400,0,0
-357,624,0,0,0,0,0,0,0,0,0,-1,867,400,0,0
-350,624,0,0,0,0,0,0,0,0,0,-1,874,400,0,0
-343,624,0,0,0,0,0,0,0,0,0,-1,881,400,0,0
-336,624,0,0,0,0,0,0,0,0,0,-1,888,400,0,0
-329,624,0,0,0,0,0,0,0,0,0,-1,895,400,0,0
-322,624,0,0,0,0,0,0,0,0,0,-1,902,400,0,0
-315,624,0,0,0,0,0,0,0,0,0,-1,909,400,0,0
-308,624,0,0,0,0,0,0,0,0,0,-1,916,400,0,0
-301,624,0,0,0,0,0,0,0,0,0,-1,923,400,0,0
-294,624,-0.912903,-12.9461,0,0,0,0,0,0,0,-1,930,400,-0.912926,12.9461
-287,624,0.12146,-15.0862,0,0,0,0,0,0,0,-1,937,400,0.121451,15.0862
-280,624,1.44836,-13.0475,0,0,0,0,0,0,0,-1,944,400,1.44835,13.0475
-273,624,2.56573,-11.0646,0,0,0,0,0,0,0,-1,951,400,2.56571,11.0646
-266,624,2.61993,-9.22894,0,0,0,0,0,0,0,-1,958,400,2.61992,9.22893
-259,624,2.33655,-9.63861,0,0,0,0,0,0,0,-1,965,400,2.33654,9.63861
-252,624,1.87445,-10.0717,0,0,0,0,0,0,0,-1,972,400,1.87447,10.0717
-245,624,1.42847,-10.5612,0,0,0,0,0,0,0,-1,979,400,1.42844,10.5612
-238,624,2.37012,-11.6685,0,0,0,0,0,0,0,-1,986,400,2.3701,11.6686
-231,624,2.45801,-9.7988,0,0,0,0,0,0,0,-1,993,400,2.458,9.7988
-224,624,2.66168,-10.3783,0,0,0,0,0,0,0,-1,1000,400,2.66167,10.3783
-217,624,2.98315,-10.7943,0,0,0,0,0,0,0,-1,1007,400,2.98316,10.7943
-210,624,2.77106,-11.1334,-0.00228756,-0.00493401,-0.0051497,0.0017062,-0.00892777,-0.659642,0.00659457,0.0429683,1014,400,2.77107,11.1334
-203,624,2.586,-11.3624,-0.00186532,-0.00345307,-0.00491172,0.00231627,-0.00763466,-0.705277,0.00601247,0.0376037,1021,400,2.58602,11.3624
-196,624,2.68457,-11.3127,-0.0017105,-0.0019226,-0.00453933,0.00272401,-0.00635712,-0.773719,0.00538104,0.0354743,1028,400,2.6846,11.3127
-189,624,2.56189,-11.4088,-0.00211494,-0.000873402,-0.00390339,0.00245827,-0.00544662,-0.864255,0.00467133,0.03365,1035,400,2.5619,11.4088
-182,624,2.6377,-11.5958,-0.0021736,-3.23628e-05,-0.00345653,0.00251556,-0.00472152,-0.935581,0.00424254,0.0291773,1042,400,2.63766,11.5958
-175,624,2.68457,-11.7741,-0.00196695,-1.05624e-05,-0.00283906,0.0020141,-0.00399161,-0.951303,0.00352949,0.0179475,1049,400,2.68458,11.7741
-168,624,2.65784,-11.9139,-0.0020262,-7.79327e-08,-0.00207255,0.00129375,-0.00332003,-1.01272,0.00274806,0.0118836,1056,400,2.65781,11.9139
-161,624,2.6217,-12.0609,-0.00174274,0.000588255,-0.00162902,0.00142578,-0.00258026,-1.09591,0.00234468,0.00957908,1063,400,2.62167,12.0609
-154,624,2.60535,-12.2001,-0.00137995,0.00159866,-0.00109866,0.00196005,-0.00174134,-1.253,0.00213824,0.00905146,1070,400,2.60534,12.2001
-147,624,2.5907,-12.3311,-0.00128247,0.00260227,-0.000801626,0.00276119,-0.00144139,-1.37509,0.00246592,0.0101427,1077,400,2.59073,12.3311
-140,624,2.57581,-12.4696,-0.00092573,0.00328367,-0.000803676,0.00343189,-0.00107395,-1.38842,0.00271759,0.00946023,1084,400,2.57576,12.4696
-133,624,2.57385,-12.5713,-0.000851197,0.0038258,-0.000579289,0.00389649,-0.000921879,-1.44938,0.00295331,0.0105407,1091,400,2.57389,12.5713
-126,624,2.57971,-12.6806,-0.000763135,0.00433509,-0.00081684,0.00446277,-0.000890811,-1.41574,0.00331229,0.0124871,1098,400,2.57976,12.6806
-119,624,2.57166,-12.7799,-0.000293376,0.00490673,-0.00107905,0.00512175,-0.000508395,-1.37411,0.00359596,0.0147227,1105,400,2.57163,12.7799
-112,624,2.56055,-12.8885,0.000153406,0.00539266,-0.00127607,0.00568693,-0.000140864,-1.34415,0.00383911,0.0165561,1112,400,2.56054,12.8885
-105,624,2.56055,-13.001,0.00050387,0.00568236,-0.00149244,0.00608169,0.00010454,-1.30935,0.00402007,0.0119622,1119,400,2.56049,13.001
-98,624,2.55164,-13.0816,0.000743852,0.00563599,-0.00168734,0.00616151,0.000218328,-1.26887,0.00403687,0.0127416,1126,400,2.5516,13.0816
-91,624,2.52185,-13.1919,0.000949394,0.00533258,-0.00178996,0.00597065,0.000311319,-1.22836,0.00388083,0.018163,1133,400,2.5218,13.1919
-84,624,2.52441,-13.2992,0.00113719,0.0047862,-0.00175251,0.00549154,0.000431848,-1.18816,0.0035259,0.016533,1140,400,2.52442,13.2992
-77,624,2.55273,-13.3778,0.00116595,0.00402243,-0.0015357,0.00469139,0.000496993,-1.15998,0.00297579,0.0122465,1147,400,2.55271,13.3778
-70,624,2.55969,-13.4401,0.00119383,0.00327646,-0.00133169,0.00392563,0.000544657,-1.11722,0.00245575,0.0128153,1154,400,2.55966,13.4401
-63,624,2.55737,-13.4976,0.00123951,0.00254893,-0.00116891,0.00323399,0.000554446,-1.04068,0.001997,0.0142136,1161,400,2.55738,13.4976
-56,624,2.56836,-13.5704,0.00107806,0.00175635,-0.00112225,0.00258958,0.000244835,-0.932137,0.00165084,0.0117967,1168,400,2.56831,13.5704
-49,624,2.56653,-13.6453,0.000909176,0.00110684,-0.00101982,0.0020326,-1.65852e-05,-0.833703,0.00136063,0.0096778,1175,400,2.56658,13.6453
-42,624,2.55896,-13.7006,0.000783853,0.000445044,-0.000812162,0.00144409,-0.000215193,-0.68258,0.00104189,0.00993312,1182,400,2.55891,13.7006
-35,624,2.56274,-13.7469,0.000681883,-0.00015435,-0.000562992,0.000965037,-0.000437505,-0.466002,0.000828631,0.0146157,1189,400,2.56273,13.7469
-28,624,2.53491,-13.8109,0.000471422,-0.000736001,-0.000556881,0.000689041,-0.00095362,-0.372534,0.000952483,0.0183773,1196,400,2.53495,13.8109
-21,624,2.53455,-13.8558,0.000217137,-0.0014174,-0.000582087,0.00040324,-0.0016035,-0.309445,0.00122573,0.0139504,1203,400,2.53455,13.8558
-14,624,2.56799,-13.8983,3.54026e-05,-0.00205692,-0.00064503,0.000218273,-0.00223979,-0.276257,0.00157101,0.015335,1210,400,2.56801,13.8983
-7,624,2.5282,-13.9319,-0.000128718,-0.00241758,-0.000753088,9.6838e-05,-0.00264314,-0.291005,0.00179524,0.0184276,1217,400,2.5282,13.9318
0,624,2.56421,-13.9588,-0.000166415,-0.00272704,-0.000798586,6.22257e-05,-0.00295568,-0.278847,0.00199152,0.0179091,1224,400,2.5642,13.9588
7,624,2.57227,-13.9842,-8.31851e-05,-0.00296415,-0.000694492,7.54913e-05,-0.00312283,-0.224623,0.0021075,0.0135382,1231,400,2.57222,13.9842
14,624,2.59167,-14.0224,-0.000115175,-0.00324244,-0.00047744,-4.39083e-05,-0.00331371,-0.148174,0.00219465,0.0116433,1238,400,2.59168,14.0224
21,624,2.60498,-14.0276,-0.000143919,-0.00348848,-0.000261794,-0.000123551,-0.00350885,-0.0776444,0.00229916,0.0117994,1245,400,2.60497,14.0276
28,624,2.59949,-14.0483,-3.36601e-05,-0.00381973,-1.94685e-05,-3.356e-05,-0.00381983,-0.00514198,0.00253544,0.0106171,1252,400,2.59946,14.0483
35,624,2.61548,-14.0558,0.000382204,-0.00412896,0.00033664,0.000407187,-0.00415395,0.0740769,0.00291452,0.0144316,1259,400,2.61551,14.0558
42,624,2.65576,-14.0551,0.000887079,-0.00474642,0.000637934,0.000958415,-0.00481776,0.111361,0.0035744,0.016919,1266,400,2.65572,14.0551
49,624,2.67249,-14.0547,0.0012624,-0.00533621,0.000934972,0.00139232,-0.00546613,0.138072,0.00418611,0.0174884,1273,400,2.67248,14.0547
56,624,2.65576,-14.048,0.00173982,-0.00610606,0.00111851,0.00189616,-0.0062624,0.138876,0.00493007,0.0159383,1280,400,2.65578,14.048
63,624,2.68384,-14.041,0.00213183,-0.00660128,0.00122609,0.0023007,-0.00677015,0.136871,0.00544485,0.0134092,1287,400,2.6838,14.041
70,624,2.6886,-14.051,0.00243114,-0.00691509,0.00128308,0.00260408,-0.00708804,0.133981,0.00579192,0.0126894,1294,400,2.68863,14.051
77,624,2.68823,-14.0172,0.00275347,-0.00719969,0.00131921,0.00292535,-0.00737157,0.129562,0.00612688,0.0122153,1301,400,2.68817,14.0172
84,624,2.69727,-14.0046,0.00301673,-0.00721864,0.00112014,0.00313788,-0.00733979,0.10774,0.00620932,0.0106623,1308,400,2.69722,14.0046
91,624,2.69727,-13.985,0.00308031,-0.00700099,0.000890049,0.00315829,-0.00707897,0.0873863,0.00605325,0.011415,1315,400,2.69733,13.985
98,624,2.70557,-13.9675,0.00280677,-0.00655198,0.000602512,0.0028454,-0.00659061,0.0640273,0.00558909,0.0125223,1322,400,2.70555,13.9675
105,624,2.72412,-13.9286,0.00228866,-0.00591313,0.000359292,0.00230437,-0.00592884,0.043695,0.00490458,0.0138115,1329,400,2.72406,13.9286
112,624,2.76123,-13.8629,0.0017956,-0.00525279,0.000154025,0.00179897,-0.00525615,0.0218387,0.00423315,0.0131823,1336,400,2.76129,13.8629
119,624,2.76038,-13.812,0.00140139,-0.00437321,-0.000108003,0.00140341,-0.00437523,-0.0186945,0.00348026,0.0139878,1343,400,2.76035,13.812
126,624,2.75684,-13.7366,0.000957312,-0.00355673,-0.000296751,0.000976736,-0.00357616,-0.0653645,0.00276774,0.0172559,1350,400,2.75681,13.7366
133,624,2.79785,-13.681,0.000427512,-0.00279852,-0.000411371,0.000479142,-0.00285015,-0.124855,0.00207831,0.0172431,1357,400,2.79782,13.681
140,624,2.80627,-13.6393,-0.000190442,-0.00227006,-0.00050966,-7.22541e-05,-0.00238825,-0.227867,0.00156864,0.0171175,1364,400,2.80628,13.6393
147,624,2.79749,-13.5811,-0.000572231,-0.00174473,-0.000499056,-0.000388581,-0.00192838,-0.352616,0.00117763,0.0209509,1371,400,2.79745,13.5811
154,624,2.82056,-13.537,-0.000601262,-0.00153623,-0.000496041,-0.000387132,-0.00175036,-0.407513,0.00106166,0.0233756,1378,400,2.82057,13.537
161,624,2.82251,-13.4209,-0.000670546,-0.00146815,-0.000453296,-0.000465592,-0.0016731,-0.424633,0.00099712,0.0225115,1385,400,2.82248,13.4209
168,624,2.82458,-13.319,-0.000673059,-0.00153146,-0.000392638,-0.000520557,-0.00168396,-0.370469,0.000995571,0.0221438,1392,400,2.82454,13.319
175,624,2.82336,-13.2736,-0.000611774,-0.00141649,-0.000301784,-0.000511175,-0.00151709,-0.321762,0.000891283,0.0166913,1399,400,2.82333,13.2736
182,624,2.81506,-13.1892,-0.000552517,-0.00123341,-0.000219579,-0.000487848,-0.00129808,-0.286416,0.000757113,0.0105412,1406,400,2.8151,13.1892
189,624,2.81482,-13.0646,-0.000554478,-0.0010268,1.31644e-05,-0.000554112,-0.00102717,0.027843,0.000593649,0.0105704,1413,400,2.81483,13.0646
196,624,2.79614,-12.9732,-0.000489356,-0.000779709,0.00016107,-0.000417692,-0.000851373,0.418624,0.000491569,0.0107453,1420,400,2.79618,12.9732
203,624,2.81067,-12.8953,-0.000309844,-0.000633368,0.000261357,-0.000164239,-0.000778973,0.508286,0.000474147,0.0140497,1427,400,2.81068,12.8953
210,624,2.81958,-12.7987,-0.0002177,-0.000384848,0.000338594,4.74814e-05,-0.00065003,0.664403,0.000450016,0.0177328,1434,400,2.81959,12.7987
217,624,2.81177,-12.6668,-0.00035386,-1.10505e-05,0.000373486,0.000228484,-0.000593395,1.00053,0.000489854,0.0188835,1441,400,2.81177,12.6668
224,624,2.8042,-12.5471,-0.000459391,0.000181217,0.000538267,0.000487272,-0.000765446,1.05379,0.000729177,0.014811,1448,400,2.8042,12.5471
231,624,2.78784,-12.4232,-0.000403045,0.000411529,0.000755226,0.000862292,-0.000853808,1.03269,0.000990795,0.0118236,1455,400,2.78789,12.4232
238,624,2.7572,-12.286,-0.000255745,0.000857391,0.00107306,0.00150963,-0.000907987,1.02464,0.00141015,0.0168794,1462,400,2.75724,12.286
245,624,2.75134,-12.1772,-0.000186479,0.00123524,0.00128494,0.00199285,-0.000944085,1.03806,0.0017313,0.0180652,1469,400,2.75134,12.1771
252,624,2.7561,-12.0528,-1.06105e-05,0.00169779,0.00152707,0.00259334,-0.000906154,1.0404,0.00209724,0.0134016,1476,400,2.75609,12.0528
259,624,2.78149,-11.8986,0.000296555,0.00214757,0.00185026,0.00329088,-0.000846758,1.0173,0.00252397,0.00889975,1483,400,2.78148,11.8986
266,624,2.80298,-11.7502,0.000295402,0.00251414,0.0025288,0.0041662,-0.00135666,0.992104,0.00332331,0.013033,1490,400,2.80294,11.7502
273,624,2.79224,-11.59,0.000123136,0.00325959,0.00344034,0.00547227,-0.00208954,0.999246,0.00450908,0.0158074,1497,400,2.79223,11.59
280,624,2.77698,-11.4646,0.000114729,0.00357857,0.00445047,0.00662223,-0.00292893,0.970959,0.00565012,0.0140857,1504,400,2.77696,11.4646
287,624,2.77271,-11.3243,-0.000189106,0.00385017,0.00563743,0.00781882,-0.00415775,0.957403,0.00702154,0.0111789,1511,400,2.77276,11.3243
294,624,2.75745,-11.1508,-0.000598129,0.00426465,0.00691073,0.00915923,-0.0054927,0.95455,0.00854713,0.00946588,1518,400,2.75748,11.1507
301,624,2.73157,-10.9901,-0.00114714,0.0045637,0.00830874,0.010494,-0.00707742,0.950908,0.0102086,0.0106334,1525,400,2.73152,10.9901
308,624,2.73169,-10.8004,-0.00186266,0.00484627,0.00991617,0.01196,-0.00897637,0.948497,0.0121285,0.0139533,1532,400,2.73164,10.8004
315,624,2.72986,-10.6076,-0.00288244,0.00472111,0.0113591,0.0128978,-0.0110591,0.946884,0.0138451,0.0156852,1539,400,2.72983,10.6076
322,624,2.71655,-10.4703,-0.00392873,0.00469134,0.0128308,0.0139167,-0.0131541,0.947433,0.0156314,0.0227017,1546,400,2.71661,10.4704
329,624,3.0271,-10.3996,-0.00522433,0.00500669,0.0141144,0.014904,-0.0151216,0.959252,0.0173354,0.039103,1553,400,3.02713,10.3996
336,624,2.89075,-10.1996,-0.0071493,0.00519547,0.0143375,0.0146328,-0.0165866,0.98866,0.0180363,0.0435071,1560,400,2.89069,10.1996
343,624,2.96985,-9.65771,0,0,0,0,0,0,0,-1,1567,400,2.96985,9.65773
350,624,1.99194,-7.29742,0,0,0,0,0,0,0,-1,1574,400,1.99198,7.29741
357,624,2.64075,-3.13092,0,0,0,0,0,0,0,-1,1581,400,2.64076,3.13091
364,624,3.16565,-4.9458,0,0,0,0,0,0,0,-1,1588,400,3.16564,4.94579
371,624,3.37561,-5.23529,0,0,0,0,0,0,0,-1,1595,400,3.37563,5.23529
378,624,1.50439,-5.22165,0,0,0,0,0,0,0,-1,1602,400,1.50438,5.22164
385,624,0.724731,-2.43875,0,0,0,0,0,0,0,-1,1609,400,0.724746,2.43875
392,624,4.26819,-5.14236,0,0,0,0,0,0,0,-1,1616,400,4.26818,5.14236
399,624,3.86841,-2.36917,0,0,0,0,0,0,0,-1,1623,400,3.86838,2.36916
406,624,4.35376,-2.6962,0,0,0,0,0,0,0,-1,1630,400,4.35373,2.69619
413,624,0,0,0,0,0,0,0,0,0,-1,1637,400,0,0
420,624,0,0,0,0,0,0,0,0,0,-1,1644,400,0,0
427,624,0,0,0,0,0,0,0,0,0,-1,1651,400,0,0
434,624,0,0,0,0,0,0,0,0,0,-1,1658,400,0,0
441,624,0,0,0,0,0,0,0,0,0,-1,1665,400,0,0
448,624,0,0,0,0,0,0,0,0,0,-1,1672,400,0,0
455,624,0,0,0,0,0,0,0,0,0,-1,1679,400,0,0
462,624,0,0,0,0,0,0,0,0,0,-1,1686,400,0,0
469,624,0,0,0,0,0,0,0,0,0,-1,1693,400,0,0
476,624,0,0,0,0,0,0,0,0,0,-1,1700,400,0,0
483,624,0,0,0,0,0,0,0,0,0,-1,1707,400,0,0
490,624,0,0,0,0,0,0,0,0,0,-1,1714,400,0,0
497,624,0,0,0,0,0,0,0,0,0,-1,1721,400,0,0
504,624,0,0,0,0,0,0,0,0,0,-1,1728,400,0,0
511,624,0,0,0,0,0,0,0,0,0,-1,1735,400,0,0
518,624,0,0,0,0,0,0,0,0,0,-1,1742,400,0,0
525,624,0,0,0,0,0,0,0,0,0,-1,1749,400,0,0
532,624,0,0,0,0,0,0,0,0,0,-1,1756,400,0,0
539,624,0,0,0,0,0,0,0,0,0,-1,1763,400,0,0
546,624,0,0,0,0,0,0,0,0,0,-1,1770,400,0,0
553,624,0,0,0,0,0,0,0,0,0,-1,1777,400,0,0
560,624,0,0,0,0,0,0,0,0,0,-1,1784,400,0,0
567,624,0,0,0,0,0,0,0,0,0,-1,1791,400,0,0
574,624,0,0,0,0,0,0,0,0,0,-1,1798,400,0,0
581,624,0,0,0,0,0,0,0,0,0,-1,1805,400,0,0
588,624,0,0,0,0,0,0,0,0,0,-1,1812,400,0,0
595,624,0,0,0,0,0,0,0,0,0,-1,1819,400,0,0
602,624,0,0,0,0,0,0,0,0,0,-1,1826,400,0,0
609,624,0,0,0,0,0,0,0,0,0,-1,1833,400,0,0
616,624,0,0,0,0,0,0,0,0,0,-1,1840,400,0,0
623,624,0,0,0,0,0,0,0,0,0,-1,1847,400,0,0
630,624,0,0,0,0,0,0,0,0,0,-1,1854,400,0,0
637,624,0,0,0,0,0,0,0,0,0,-1,1861,400,0,0
644,624,0,0,0,0,0,0,0,0,0,-1,1868,400,0,0
651,624,0,0,0,0,0,0,0,0,0,-1,1875,400,0,0
658,624,0,0,0,0,0,0,0,0,0,-1,1882,400,0,0
665,624,0,0,0,0,0,0,0,0,0,-1,1889,400,0,0
672,624,0,0,0,0,0,0,0,0,0,-1,1896,400,0,0
679,624,0,0,0,0,0,0,0,0,0,-1,1903,400,0,0
686,624,0,0,0,0,0,0,0,0,0,-1,1910,400,0,0
693,624,0,0,0,0,0,0,0,0,0,-1,1917,400,0,0
700,624,0,0,0,0,0,0,0,0,0,-1,1924,400,0,0
707,624,0,0,0,0,0,0,0,0,0,-1,1931,400,0,0
714,624,0,0,0,0,0,0,0,0,0,-1,1938,400,0,0
721,624,0,0,0,0,0,0,0,0,0,-1,1945,400,0,0
728,624,0,0,0,0,0,0,0,0,0,-1,1952,400,0,0
735,624,0,0,0,0,0,0,0,0,0,-1,1959,400,0,0
742,624,0,0,0,0,0,0,0,0,0,-1,1966,400,0,0
749,624,0,0,0,0,0,0,0,0,0,-1,1973,400,0,0
756,624,0,0,0,0,0,0,0,0,0,-1,1980,400,0,0
763,624,0,0,0,0,0,0,0,0,0,-1,1987,400,0,0
770,624,0,0,0,0,0,0,0,0,0,-1,1994,400,0,0
777,624,0,0,0,0,0,0,0,0,0,-1,2001,400,0,0
784,624,0,0,0,0,0,0,0,0,0,-1,2008,400,0,0
791,624,0,0,0,0,0,0,0,0,0,-1,2015,400,0,0
798,624,0,0,0,0,0,0,0,0,0,-1,2022,400,0,0
805,624,0,0,0,0,0,0,0,0,0,-1,2029,400,0,0
812,624,0,0,0,0,0,0,0,0,0,-1,2036,400,0,0
-700,617,0,0,0,0,0,0,0,0,0,-1,524,407,0,0
-693,617,0,0,0,0,0,0,0,0,0,-1,531,407,0,0
-686,617,0,0,0,0,0,0,0,0,0,-1,538,407,0,0
-679,617,0,0,0,0,0,0,0,0,0,-1,545,407,0,0
-672,617,0,0,0,0,0,0,0,0,0,-1,552,407,0,0
-665,617,0,0,0,0,0,0,0,0,0,-1,559,407,0,0
-658,617,0,0,0,0,0,0,0,0,0,-1,566,407,0,0
-651,617,0,0,0,0,0,0,0,0,0,-1,573,407,0,0
-644,617,0,0,0,0,0,0,0,0,0,-1,580,407,0,0
-637,617,0,0,0,0,0,0,0,0,0,-1,587,407,0,0
-630,617,0,0,0,0,0,0,0,0,0,-1,594,407,0,0
-623,617,0,0,0,0,0,0,0,0,0,-1,601,407,0,0
-616,617,0,0,0,0,0,0,0,0,0,-1,608,407,0,0
-609,617,0,0,0,0,0,0,0,0,0,-1,615,407,0,0
-602,617,0,0,0,0,0,0,0,0,0,-1,622,407,0,0
-595,617,0,0,0,0,0,0,0,0,0,-1,629,407,0,0
-588,617,0,0,0,0,0,0,0,0,0,-1,636,407,0,0
-581,617,0,0,0,0,0,0,0,0,0,-1,643,407,0,0
-574,617,0,0,0,0,0,0,0,0,0,-1,650,407,0,0
-567,617,0,0,0,0,0,0,0,0,0,-1,657,407,0,0
-560,617,0,0,0,0,0,0,0,0,0,-1,664,407,0,0
-553,617,0,0,0,0,0,0,0,0,0,-1,671,407,0,0
-546,617,0,0,0,0,0,0,0,0,0,-1,678,407,0,0
-539,617,0,0,0,0,0,0,0,0,0,-1,685,407,0,0
-532,617,0,0,0,0,0,0,0,0,0,-1,692,407,0,0
-525,617,0,0,0,0,0,0,0,0,0,-1,699,407,0,0
-518,617,0,0,0,0,0,0,0,0,0,-1,706,407,0,0
-511,617,0,0,0,0,0,0,0,0,0,-1,713,407,0,0
-504,617,0,0,0,0,0,0,0,0,0,-1,720,407,0,0
-497,617,0,0,0,0,0,0,0,0,0,-1,727,407,0,0
-490,617,0,0,0,0,0,0,0,0,0,-1,734,407,0,0
-483,617,0,0,0,0,0,0,0,0,0,-1,741,407,0,0
-476,617,0,0,0,0,0,0,0,0,0,-1,748,407,0,0
-469,617,0,0,0,0,0,0,0,0,0,-1,755,407,0,0
-462,617,0,0,0,0,0,0,0,0,0,-1,762,407,0,0
-455,617,0,0,0,0,0,0,0,0,0,-1,769,407,0,0
-448,617,0,0,0,0,0,0,0,0,0,-1,776,407,0,0
-441,617,0,0,0,0,0,0,0,0,0,-1,783,407,0,0
-434,617,0,0,0,0,0,0,0,0,0,-1,790,407,0,0
-427,617,0,0,0,0,0,0,0,0,0,-1,797,407,0,0
-420,617,0,0,0,0,0,0,0,0,0,-1,804,407,0,0
-413,617,0,0,0,0,0,0,0,0,0,-1,811,407,0,0
-406,617,0,0,0,0,0,0,0,0,0,-1,818,407,0,0
-399,617,0,0,0,0,0,0,0,0,0,-1,825,407,0,0
-392,617,0,0,0,0,0,0,0,0,0,-1,832,407,0,0
-385,617,0,0,0,0,0,0,0,0,0,-1,839,407,0,0
-378,617,0,0,0,0,0,0,0,0,0,-1,846,407,0,0
-371,617,0,0,0,0,0,0,0,0,0,-1,853,407,0,0
-364,617,0,0,0,0,0,0,0,0,0,-1,860,407,0,0
-357,617,0,0,0,0,0,0,0,0,0,-1,867,407,0,0
-350,617,0,0,0,0,0,0,0,0,0,-1,874,407,0,0
-343,617,0,0,0,0,0,0,0,0,0,-1,881,407,0,0
-336,617,0,0,0,0,0,0,0,0,0,-1,888,407,0,0
-329,617,0,0,0,0,0,0,0,0,0,-1,895,407,0,0
-322,617,0,0,0,0,0,0,0,0,0,-1,902,407,0,0
-315,617,0,0,0,0,0,0,0,0,0,-1,909,407,0,0
-308,617,0,0,0,0,0,0,0,0,0,-1,916,407,0,0
-301,617,-1.61346,-11.4687,0,0,0,0,0,0,0,-1,923,407,-1.61344,11.4687
-294,617,-0.867493,-11.1655,0,0,0,0,0,0,0,-1,930,407,-0.867487,11.1655
-287,617,-0.212524,-10.7744,0,0,0,0,0,0,0,-1,937,407,-0.212541,10.7743
-280,617,2.19739,-11.6377,0,0,0,0,0,0,0,-1,944,407,2.19737,11.6377
-273,617,2.36188,-10.5736,0,0,0,0,0,0,0,-1,951,407,2.36188,10.5736
-266,617,2.00537,-8.98315,0,0,0,0,0,0,0,-1,958,407,2.00539,8.98315
-259,617,2.03473,-9.50534,0,0,0,0,0,0,0,-1,965,407,2.0347,9.50533
-252,617,2.08514,-9.93616,0,0,0,0,0,0,0,-1,972,407,2.08514,9.93614
-245,617,2.48816,-11.1948,0,0,0,0,0,0,0,-1,979,407,2.48815,11.1948
-238,617,2.32629,-11.3678,0,0,0,0,0,0,0,-1,986,407,2.32629,11.3678
-231,617,2.29962,-11.6877,0,0,0,0,0,0,0,-1,993,407,2.29964,11.6877
-224,617,2.49719,-10.4997,-0.00190845,-0.00650577,-0.00352834,3.94881e-06,-0.00841818,-0.496689,0.00561343,0.0426037,1000,407,2.4972,10.4997
-217,617,2.69476,-10.8222,-0.00191754,-0.00498322,-0.00373393,0.000585934,-0.00748669,-0.590628,0.00519746,0.0331844,1007,407,2.69473,10.8222
-210,617,2.60474,-11.0522,-0.00166046,-0.00358689,-0.00380965,0.00130585,-0.00655321,-0.661575,0.00486289,0.0218935,1014,407,2.60476,11.0522
-203,617,2.55487,-11.2216,-0.00138632,-0.00254048,-0.00361198,0.00169439,-0.00562119,-0.706184,0.00442182,0.0171947,1021,407,2.55484,11.2216
-196,617,2.53833,-11.3525,-0.00127032,-0.00139214,-0.00334883,0.00201815,-0.00468061,-0.776305,0.00396805,0.014668,1028,407,2.53839,11.3525
-189,617,2.5354,-11.4969,-0.00147498,-0.000487735,-0.00293914,0.00199895,-0.00396166,-0.868595,0.00350299,0.0132885,1035,407,2.53545,11.4969
-182,617,2.50903,-11.6545,-0.00147487,0.000180973,-0.00263178,0.00211199,-0.00340589,-0.937791,0.00321481,0.0146861,1042,407,2.50901,11.6545
-175,617,2.51697,-11.7838,-0.00129236,0.000162774,-0.0022122,0.00176398,-0.00289356,-0.94427,0.00271527,0.0120854,1049,407,2.51698,11.7838
-168,617,2.51343,-11.9138,-0.00131966,0.000135324,-0.00166715,0.0012268,-0.00241113,-0.991128,0.00213714,0.00974009,1056,407,2.51347,11.9138
-161,617,2.48767,-12.0768,-0.00113206,0.00046944,-0.0013635,0.00124993,-0.00191255,-1.0509,0.00183917,0.0104628,1063,407,2.48764,12.0768
-154,617,2.46533,-12.216,-0.000826911,0.00107739,-0.00101245,0.00151508,-0.0012646,-1.16275,0.00160702,0.0105888,1070,407,2.46539,12.216
-147,617,2.46716,-12.3369,-0.000682728,0.00169842,-0.000812738,0.00194938,-0.000933685,-1.2713,0.00169862,0.0146557,1077,407,2.46718,12.3368
-140,617,2.46753,-12.4686,-0.000320089,0.0020715,-0.000842929,0.00233873,-0.000587324,-1.26379,0.00178739,0.0112313,1084,407,2.46754,12.4686
-133,617,2.47217,-12.588,-0.000175709,0.00234315,-0.000722071,0.00253546,-0.000368019,-1.31051,0.00182539,0.0129545,1091,407,2.47214,12.588
-126,617,2.46692,-12.6941,-9.61681e-06,0.00260796,-0.000951525,0.0029173,-0.000318953,-1.25648,0.00205943,0.013182,1098,407,2.46698,12.6941
-119,617,2.44019,-12.7997,0.00046757,0.00293533,-0.0012091,0.00342898,-2.60855e-05,-1.18317,0.00229473,0.0133531,1105,407,2.44014,12.7997
-112,617,2.43396,-12.8963,0.000947236,0.00318139,-0.00140001,0.00385537,0.000273257,-1.12213,0.00248417,0.0151248,1112,407,2.43392,12.8963
-105,617,2.4325,-12.9978,0.00136855,0.00330772,-0.00160534,0.00421355,0.000462714,-1.05707,0.00266821,0.0151479,1119,407,2.43245,12.9978
-98,617,2.4436,-13.0925,0.00169313,0.00319976,-0.00179722,0.00439516,0.000497728,-0.983853,0.0027791,0.0128245,1126,407,2.44356,13.0925
-91,617,2.43213,-13.1995,0.00197157,0.00293913,-0.00191883,0.00443423,0.00047647,-0.908885,0.00281082,0.0177587,1133,407,2.43212,13.1995
-84,617,2.44861,-13.2922,0.00217263,0.00248302,-0.00186082,0.0041951,0.000460543,-0.827002,0.00265656,0.0169047,1140,407,2.44858,13.2922
-77,617,2.46387,-13.3734,0.00227504,0.00191773,-0.0016679,0.00377382,0.000418949,-0.732045,0.00238851,0.0130171,1147,407,2.46386,13.3734
-70,617,2.46765,-13.4435,0.00240367,0.00147612,-0.00146781,0.00347923,0.000400556,-0.63238,0.00219817,0.0142831,1154,407,2.46768,13.4435
-63,617,2.47021,-13.5114,0.00245739,0.00110897,-0.00127549,0.0032259,0.000340457,-0.542271,0.00204657,0.0164198,1161,407,2.47022,13.5114
-56,617,2.4967,-13.5758,0.00219002,0.000647087,-0.00134596,0.00296993,-0.000132821,-0.525168,0.00202568,0.0126143,1168,407,2.49676,13.5758
-49,617,2.50476,-13.6347,0.00180344,0.000455648,-0.00125365,0.00255284,-0.000293758,-0.538783,0.00180779,0.00991735,1175,407,2.50472,13.6347
-42,617,2.51563,-13.7107,0.00132902,0.00014923,-0.00108163,0.00197115,-0.000492905,-0.535755,0.00150554,0.011317,1182,407,2.51567,13.7107
-35,617,2.53467,-13.7757,0.00085801,-0.000427469,-0.000900791,0.00132186,-0.000891318,-0.475524,0.00128581,0.0163084,1189,407,2.53472,13.7757
-28,617,2.50244,-13.8189,0.000338798,-0.00110282,-0.000852376,0.000734282,-0.0014983,-0.434417,0.0013139,0.0176391,1196,407,2.5025,13.8189
-21,617,2.52612,-13.8378,-0.000156917,-0.00201371,-0.00082818,0.000158793,-0.00232942,-0.364204,0.00160849,0.0130779,1203,407,2.52607,13.8378
-14,617,2.52649,-13.8545,-0.000521973,-0.00282523,-0.00086239,-0.000234864,-0.00311234,-0.32138,0.00200121,0.0150728,1210,407,2.5265,13.8545
-7,617,2.47815,-13.899,-0.000870109,-0.00325862,-0.000988711,-0.000513946,-0.00361478,-0.345758,0.00225812,0.0173284,1217,407,2.47809,13.8989
0,617,2.52222,-13.9279,-0.000961843,-0.00364042,-0.00107188,-0.000585728,-0.00401653,-0.337472,0.00250537,0.0149048,1224,407,2.52219,13.9279
7,617,2.57422,-13.9833,-0.000847545,-0.00395044,-0.000910089,-0.000600313,-0.00419768,-0.265256,0.00262136,0.010985,1231,407,2.57421,13.9833
14,617,2.57349,-14.0144,-0.000838428,-0.00430143,-0.00061689,-0.000731819,-0.00440804,-0.171127,0.00272768,0.0131346,1238,407,2.57351,14.0144
21,617,2.58582,-14.0161,-0.000782688,-0.00476905,-0.000309348,-0.000758824,-0.00479292,-0.0769874,0.00297477,0.0117355,1245,407,2.5858,14.0161
28,617,2.58862,-14.032,-0.000538251,-0.00536281,1.8558e-05,-0.00053818,-0.00536289,0.00384648,0.00341005,0.00992138,1252,407,2.58866,14.0319
35,617,2.59302,-14.055,0.00010172,-0.00592431,0.000433556,0.000132754,-0.00595534,0.0714566,0.00401521,0.0127088,1259,407,2.59307,14.055
42,617,2.68079,-14.0504,0.00089254,-0.00685614,0.000740947,0.000962755,-0.00692636,0.0944815,0.00496967,0.0184663,1266,407,2.68082,14.0505
49,617,2.69922,-14.0492,0.00153724,-0.0077319,0.00104879,0.00165442,-0.00784909,0.111274,0.00586254,0.0179623,1273,407,2.69921,14.0492
56,617,2.67712,-14.0305,0.00233265,-0.008857,0.00118688,0.00245715,-0.00898151,0.10452,0.00695298,0.0127064,1280,407,2.67716,14.0305
63,617,2.68506,-14.0458,0.00302729,-0.00952285,0.00118451,0.0031381,-0.00963367,0.0932849,0.0076851,0.00938173,1287,407,2.68501,14.0458
70,617,2.69653,-14.0648,0.00354663,-0.00980294,0.00109347,0.00363561,-0.00989191,0.0811894,0.00808375,0.0143625,1294,407,2.69655,14.0648
77,617,2.72083,-14.0124,0.00422259,-0.0100008,0.00104385,0.00429879,-0.010077,0.0728694,0.00852042,0.0125995,1301,407,2.72084,14.0124
84,617,2.72827,-13.9718,0.00486659,-0.00975869,0.000572806,0.00488899,-0.00978109,0.0390856,0.00862532,0.00993702,1308,407,2.72828,13.9718
91,617,2.74524,-13.9615,0.00517676,-0.00925479,0.000150925,0.00517834,-0.00925637,0.0104564,0.00844401,0.00945207,1315,407,2.74521,13.9615
98,617,2.77173,-13.9364,0.00493625,-0.00838705,-0.000345911,0.00494523,-0.00839602,-0.0259396,0.00778799,0.0111152,1322,407,2.77179,13.9364
105,617,2.78528,-13.9023,0.00429173,-0.00729298,-0.000767295,0.00434233,-0.00734358,-0.0658501,0.00682063,0.0126341,1329,407,2.78531,13.9022
112,617,2.79553,-13.8579,0.00370309,-0.00623407,-0.0011167,0.00382704,-0.00635802,-0.110539,0.00594056,0.0143702,1336,407,2.79558,13.8579
119,617,2.79724,-13.8037,0.00316351,-0.00495051,-0.0014958,0.00343048,-0.00521748,-0.176616,0.0050283,0.0174071,1343,407,2.79728,13.8037
126,617,2.8125,-13.7262,0.00247229,-0.00371708,-0.00176061,0.00293806,-0.00418285,-0.258624,0.00413214,0.020548,1350,407,2.81253,13.7262
133,617,2.83875,-13.6744,0.00159657,-0.00267862,-0.00188821,0.00231111,-0.00339316,-0.361765,0.00331305,0.0175632,1357,407,2.83869,13.6744
140,617,2.86145,-13.6399,0.000535638,-0.00203731,-0.00195226,0.00158718,-0.00308885,-0.494071,0.00274572,0.0144426,1364,407,2.86145,13.6399
147,617,2.84766,-13.5842,-0.000284669,-0.00149499,-0.00185453,0.00106094,-0.00284061,-0.627688,0.00232936,0.0184343,1371,407,2.84769,13.5842
154,617,2.87061,-13.5312,-0.000641776,-0.00137053,-0.00177739,0.000808199,-0.00282051,-0.684295,0.0021998,0.0217884,1378,407,2.87057,13.5312
161,617,2.89648,-13.4261,-0.00103497,-0.0013366,-0.00165612,0.000477186,-0.00284875,-0.739991,0.00207659,0.0228826,1385,407,2.89651,13.4261
168,617,2.90747,-13.3604,-0.00125644,-0.00167299,-0.00152312,7.25834e-05,-0.00300201,-0.717447,0.00202597,0.0208199,1392,407,2.90746,13.3604
175,617,2.89954,-13.3085,-0.00124708,-0.00186011,-0.00133406,-0.00018478,-0.00292241,-0.672478,0.00188969,0.0165624,1399,407,2.89954,13.3085
182,617,2.9082,-13.2033,-0.0013825,-0.00183724,-0.00127297,-0.000316753,-0.00290299,-0.697023,0.00183886,0.0112894,1406,407,2.90821,13.2034
189,617,2.89038,-13.0895,-0.00156095,-0.00169324,-0.000765412,-0.000858831,-0.00239536,-0.742297,0.00140129,0.0111876,1413,407,2.89033,13.0895
196,617,2.88074,-13.0106,-0.00126307,-0.00124882,-0.000587713,-0.000668189,-0.0018437,-0.791459,0.00107781,0.0140336,1420,407,2.88068,13.0106
203,617,2.90295,-12.9081,-0.000545604,-0.000890748,-0.000358451,-0.000320346,-0.00111601,-0.561054,0.00066352,0.0144967,1427,407,2.90296,12.9081
210,617,2.92334,-12.7914,-1.30243e-05,-0.000452562,-0.000206892,6.90391e-05,-0.000534626,-0.377614,0.000381518,0.0138932,1434,407,2.92338,12.7914
217,617,2.90332,-12.6339,-9.74878e-05,0.00018013,-0.000217887,0.000299667,-0.000217025,-1.06901,0.000299582,0.0183661,1441,407,2.90329,12.6339
224,617,2.90405,-12.5377,-0.000161055,0.000480253,2.69393e-05,0.000481383,-0.000162184,1.52889,0.000386498,0.0183139,1448,407,2.90405,12.5377
231,617,2.92017,-12.429,-9.11827e-05,0.000784923,0.000292815,0.000873777,-0.000180037,1.27618,0.000650883,0.0144571,1455,407,2.9202,12.429
238,617,2.90247,-12.3051,4.91427e-05,0.00118991,0.000607657,0.00145295,-0.00021389,1.16228,0.00104723,0.0150818,1462,407,2.90246,12.3051
245,617,2.9071,-12.2029,0.000133989,0.00152902,0.000841847,0.00192477,-0.000261763,1.13135,0.00137874,0.0132549,1469,407,2.90706,12.2029
252,617,2.93298,-12.0538,0.000277531,0.00189628,0.00107786,0.00243483,-0.00026101,1.10744,0.00171685,0.014233,1476,407,2.93293,12.0538
259,617,2.94714,-11.8961,0.00049479,0.00220664,0.0013631,0.00296026,-0.000258834,1.06575,0.0020652,0.0113583,1483,407,2.94711,11.896
266,617,2.94116,-11.7417,0.000487799,0.00241354,0.00188159,0.00356431,-0.000662973,1.02189,0.00262525,0.0131119,1490,407,2.94122,11.7417
273,617,2.91687,-11.5952,0.000355011,0.00291796,0.00255532,0.00449512,-0.00122216,1.01782,0.0034765,0.013679,1497,407,2.91682,11.5952
280,617,2.90942,-11.4607,0.000325582,0.00306916,0.00330788,0.00527841,-0.00188367,0.981957,0.00428707,0.0124988,1504,407,2.9094,11.4607
287,617,2.90234,-11.312,8.51061e-05,0.00318443,0.00416936,0.0060828,-0.00281327,0.963326,0.0052505,0.0118603,1511,407,2.9023,11.312
294,617,2.88501,-11.1492,-0.000231001,0.0033916,0.00508034,0.00697387,-0.00381327,0.956639,0.00631644,0.00964239,1518,407,2.88502,11.1492
301,617,2.86987,-10.9855,-0.000669776,0.00348731,0.00606364,0.00781876,-0.00500123,0.950516,0.00746098,0.0078098,1525,407,2.86989,10.9855
308,617,2.86304,-10.8177,-0.001204,0.00360528,0.00717984,0.00877245,-0.00637117,0.946985,0.00877974,0.00802645,1532,407,2.86307,10.8177
315,617,2.85425,-10.6458,-0.00190228,0.00349214,0.00816326,0.00939223,-0.00780238,0.944956,0.00994145,0.00890977,1539,407,2.85425,10.6458
322,617,2.85413,-10.4722,-0.00260559,0.00348682,0.00911921,0.0100552,-0.00917393,0.946592,0.0111058,0.0112878,1546,407,2.85409,10.4722
329,617,2.85083,-10.3078,-0.00349773,0.00375429,0.00990047,0.0106719,-0.0104153,0.960935,0.012175,0.0122719,1553,407,2.85082,10.3078
336,617,2.85156,-10.1128,-0.00488471,0.00394278,0.0098921,0.0103612,-0.0113031,0.995238,0.0125118,0.0258932,1560,407,2.85155,10.1128
343,617,2.78357,-9.74567,0,0,0,0,0,0,0,-1,1567,407,2.78363,9.74566
350,617,2.88879,-9.66373,0,0,0,0,0,0,0,-1,1574,407,2.88885,9.66372
357,617,2.1748,-7.16504,0,0,0,0,0,0,0,-1,1581,407,2.1748,7.16505
364,617,2.30127,-7.60257,0,0,0,0,0,0,0,-1,1588,407,2.30125,7.60258
371,617,2.60266,-6.20667,0,0,0,0,0,0,0,-1,1595,407,2.60261,6.20668
378,617,2.27588,-7.47134,0,0,0,0,0,0,0,-1,1602,407,2.27582,7.47136
385,617,1.37012,-5.41284,0,0,0,0,0,0,0,-1,1609,407,1.37016,5.41286
392,617,3.40723,-2.54929,0,0,0,0,0,0,0,-1,1616,407,3.40725,2.54929
399,617,3.25,-2.14835,0,0,0,0,0,0,0,-1,1623,407,3.25006,2.14836
406,617,3.02429,-3.19577,0,0,0,0,0,0,0,-1,1630,407,3.02431,3.19577
413,617,2.92786,-3.80649,0,0,0,0,0,0,0,-1,1637,407,2.92788,3.8065
420,617,3.42737,-4.47391,0,0,0,0,0,0,0,-1,1644,407,3.42737,4.47391
427,617,0,0,0,0,0,0,0,0,0,-1,1651,407,0,0
434,617,0,0,0,0,0,0,0,0,0,-1,1658,407,0,0
441,617,0,0,0,0,0,0,0,0,0,-1,1665,407,0,0
448,617,0,0,0,0,0,0,0,0,0,-1,1672,407,0,0
455,617,0,0,0,0,0,0,0,0,0,-1,1679,407,0,0
462,617,0,0,0,0,0,0,0,0,0,-1,1686,407,0,0
469,617,0,0,0,0,0,0,0,0,0,-1,1693,407,0,0
476,617,0,0,0,0,0,0,0,0,0,-1,1700,407,0,0
483,617,0,0,0,0,0,0,0,0,0,-1,1707,407,0,0
490,617,0,0,0,0,0,0,0,0,0,-1,1714,407,0,0
497,617,0,0,0,0,0,0,0,0,0,-1,1721,407,0,0
504,617,0,0,0,0,0,0,0,0,0,-1,1728,407,0,0
511,617,0,0,0,0,0,0,0,0,0,-1,1735,407,0,0
518,617,0,0,0,0,0,0,0,0,0,-1,1742,407,0,0
525,617,0,0,0,0,0,0,0,0,0,-1,1749,407,0,0
532,617,0,0,0,0,0,0,0,0,0,-1,1756,407,0,0
539,617,0,0,0,0,0,0,0,0,0,-1,1763,407,0,0
546,617,0,0,0,0,0,0,0,0,0,-1,1770,407,0,0
553,617,0,0,0,0,0,0,0,0,0,-1,1777,407,0,0
560,617,0,0,0,0,0,0,0,0,0,-1,1784,407,0,0
567,617,0,0,0,0,0,0,0,0,0,-1,1791,407,0,0
574,617,0,0,0,0,0,0,0,0,0,-1,1798,407,0,0
581,617,0,0,0,0,0,0,0,0,0,-1,1805,407,0,0
588,617,0,0,0,0,0,0,0,0,0,-1,1812,407,0,0
595,617,0,0,0,0,0,0,0,0,0,-1,1819,407,0,0
602,617,0,0,0,0,0,0,0,0,0,-1,1826,407,0,0
609,617,0,0,0,0,0,0,0,0,0,-1,1833,407,0,0
616,617,0,0,0,0,0,0,0,0,0,-1,1840,407,0,0
623,617,0,0,0,0,0,0,0,0,0,-1,1847,407,0,0
630,617,0,0,0,0,0,0,0,0,0,-1,1854,407,0,0
637,617,0,0,0,0,0,0,0,0,0,-1,1861,407,0,0
644,617,0,0,0,0,0,0,0,0,0,-1,1868,407,0,0
651,617,0,0,0,0,0,0,0,0,0,-1,1875,407,0,0
658,617,0,0,0,0,0,0,0,0,0,-1,1882,407,0,0
665,617,0,0,0,0,0,0,0,0,0,-1,1889,407,0,0
672,617,0,0,0,0,0,0,0,0,0,-1,1896,407,0,0
679,617,0,0,0,0,0,0,0,0,0,-1,1903,407,0,0
686,617,0,0,0,0,0,0,0,0,0,-1,1910,407,0,0
693,617,0,0,0,0,0,0,0,0,0,-1,1917,407,0,0
700,617,0,0,0,0,0,0,0,0,0,-1,1924,407,0,0
707,617,0,0,0,0,0,0,0,0,0,-1,1931,407,0,0
714,617,0,0,0,0,0,0,0,0,0,-1,1938,407,0,0
721,617,0,0,0,0,0,0,0,0,0,-1,1945,407,0,0
728,617,0,0,0,0,0,0,0,0,0,-1,1952,407,0,0
735,617,0,0,0,0,0,0,0,0,0,-1,1959,407,0,0
742,617,0,0,0,0,0,0,0,0,0,-1,1966,407,0,0
749,617,0,0,0,0,0,0,0,0,0,-1,1973,407,0,0
756,617,0,0,0,0,0,0,0,0,0,-1,1980,407,0,0
763,617,0,0,0,0,0,0,0,0,0,-1,1987,407,0,0
770,617,0,0,0,0,0,0,0,0,0,-1,1994,407,0,0
777,617,0,0,0,0,0,0,0,0,0,-1,2001,407,0,0
784,617,0,0,0,0,0,0,0,0,0,-1,2008,407,0,0
791,617,0,0,0,0,0,0,0,0,0,-1,2015,407,0,0
798,617,0,0,0,0,0,0,0,0,0,-1,2022,407,0,0
805,617,0,0,0,0,0,0,0,0,0,-1,2029,407,0,0
812,617,0,0,0,0,0,0,0,0,0,-1,2036,407,0,0
-700,610,0,0,0,0,0,0,0,0,0,-1,524,414,0,0
-693,610,0,0,0,0,0,0,0,0,0,-1,531,414,0,0
-686,610,0,0,0,0,0,0,0,0,0,-1,538,414,0,0
-679,610,0,0,0,0,0,0,0,0,0,-1,545,414,0,0
-672,610,0,0,0,0,0,0,0,0,0,-1,552,414,0,0
-665,610,0,0,0,0,0,0,0,0,0,-1,559,414,0,0
-658,610,0,0,0,0,0,0,0,0,0,-1,566,414,0,0
-651,610,0,0,0,0,0,0,0,0,0,-1,573,414,0,0
-644,610,0,0,0,0,0,0,0,0,0,-1,580,414,0,0
-637,610,0,0,0,0,0,0,0,0,0,-1,587,414,0,0
-630,610,0,0,0,0,0,0,0,0,0,-1,594,414,0,0
-623,610,0,0,0,0,0,0,0,0,0,-1,601,414,0,0
-616,610,0,0,0,0,0,0,0,0,0,-1,608,414,0,0
-609,610,0,0,0,0,0,0,0,0,0,-1,615,414,0,0
-602,610,0,0,0,0,0,0,0,0,0,-1,622,414,0,0
-595,610,0,0,0,0,0,0,0,0,0,-1,629,414,0,0
-588,610,0,0,0,0,0,0,0,0,0,-1,636,414,0,0
-581,610,0,0,0,0,0,0,0,0,0,-1,643,414,0,0
-574,610,0,0,0,0,0,0,0,0,0,-1,650,414,0,0
-567,610,0,0,0,0,0,0,0,0,0,-1,657,414,0,0
-560,610,0,0,0,0,0,0,0,0,0,-1,664,414,0,0
-553,610,0,0,0,0,0,0,0,0,0,-1,671,414,0,0
-546,610,0,0,0,0,0,0,0,0,0,-1,678,414,0,0
-539,610,0,0,0,0,0,0,0,0,0,-1,685,414,0,0
-532,610,0,0,0,0,0,0,0,0,0,-1,692,414,0,0
-525,610,0,0,0,0,0,0,0,0,0,-1,699,414,0,0
-518,610,0,0,0,0,0,0,0,0,0,-1,706,414,0,0
-511,610,0,0,0,0,0,0,0,0,0,-1,713,414,0,0
-504,610,0,0,0,0,0,0,0,0,0,-1,720,414,0,0
-497,610,0,0,0,0,0,0,0,0,0,-1,727,414,0,0
-490,610,0,0,0,0,0,0,0,0,0,-1,734,414,0,0
-483,610,0,0,0,0,0,0,0,0,0,-1,741,414,0,0
-476,610,0,0,0,0,0,0,0,0,0,-1,748,414,0,0
-469,610,0,0,0,0,0,0,0,0,0,-1,755,414,0,0
-462,610,0,0,0,0,0,0,0,0,0,-1,762,414,0,0
-455,610,0,0,0,0,0,0,0,0,0,-1,769,414,0,0
-448,610,0,0,0,0,0,0,0,0,0,-1,776,414,0,0
-441,610,0,0,0,0,0,0,0,0,0,-1,783,414,0,0
-434,610,0,0,0,0,0,0,0,0,0,-1,790,414,0,0
-427,610,0,0,0,0,0,0,0,0,0,-1,797,414,0,0
-420,610,0,0,0,0,0,0,0,0,0,-1,804,414,0,0
-413,610,0,0,0,0,0,0,0,0,0,-1,811,414,0,0
-406,610,0,0,0,0,0,0,0,0,0,-1,818,414,0,0
-399,610,0,0,0,0,0,0,0,0,0,-1,825,414,0,0
-392,610,0,0,0,0,0,0,0,0,0,-1,832,414,0,0
-385,610,0,0,0,0,0,0,0,0,0,-1,839,414,0,0
-378,610,0,0,0,0,0,0,0,0,0,-1,846,414,0,0
-371,610,0,0,0,0,0,0,0,0,0,-1,853,414,0,0
-364,610,0,0,0,0,0,0,0,0,0,-1,860,414,0,0
-357,610,0,0,0,0,0,0,0,0,0,-1,867,414,0,0
-350,610,0,0,0,0,0,0,0,0,0,-1,874,414,0,0
-343,610,0,0,0,0,0,0,0,0,0,-1,881,414,0,0
-336,610,0,0,0,0,0,0,0,0,0,-1,888,414,0,0
-329,610,0,0,0,0,0,0,0,0,0,-1,895,414,0,0
-322,610,0,0,0,0,0,0,0,0,0,-1,902,414,0,0
-315,610,5.57825,-7.69159,0,0,0,0,0,0,0,-1,909,414,5.57823,7.69159
-308,610,5.54938,-7.44653,0,0,0,0,0,0,0,-1,916,414,5.54937,7.44653
-301,610,-1.54291,-9.7341,0,0,0,0,0,0,0,-1,923,414,-1.54293,9.73409
-294,610,-1.43835,-9.29047,0,0,0,0,0,0,0,-1,930,414,-1.43836,9.29047
-287,610,2.08557,-11.9136,0,0,0,0,0,0,0,-1,937,414,2.08555,11.9136
-280,610,2.25854,-11.0924,0,0,0,0,0,0,0,-1,944,414,2.25856,11.0924
-273,610,2.44586,-10.2559,0,0,0,0,0,0,0,-1,951,414,2.44589,10.2559
-266,610,2.6048,-9.41223,0,0,0,0,0,0,0,-1,958,414,2.60478,9.41223
-259,610,2.76428,-9.75449,0,0,0,0,0,0,0,-1,965,414,2.76431,9.75449
-252,610,2.46576,-10.4016,0,0,0,0,0,0,0,-1,972,414,2.46576,10.4016
-245,610,2.4444,-10.6822,-7.46622e-06,-0.0073355,-0.00235706,0.000685208,-0.00802817,-0.285825,0.00559452,0.0461047,979,414,2.44438,10.6821
-238,610,2.43054,-10.8251,-0.00107384,-0.00684363,-0.0027776,4.59761e-05,-0.00796345,-0.383226,0.00532436,0.0395724,986,414,2.43054,10.8251
-231,610,2.41681,-10.4276,-0.001165,-0.005794,-0.00263338,2.6437e-05,-0.00698544,-0.424878,0.0046658,0.0332543,993,414,2.41683,10.4276
-224,610,2.39618,-10.6545,-0.00137227,-0.00464657,-0.00260199,6.47602e-05,-0.0060836,-0.504595,0.00407749,0.0234434,1000,414,2.39618,10.6545
-217,610,2.42297,-10.8589,-0.00136516,-0.00357239,-0.00272985,0.000475723,-0.00541327,-0.593305,0.00377742,0.0134253,1007,414,2.42299,10.8588
-210,610,2.42786,-11.0405,-0.00119681,-0.00256165,-0.00277507,0.000978515,-0.00473697,-0.664834,0.00352966,0.00952449,1014,414,2.42784,11.0405
-203,610,2.40576,-11.1955,-0.00100013,-0.00184533,-0.00260565,0.00121697,-0.00406243,-0.705005,0.00319223,0.0118626,1021,414,2.40577,11.1955
-196,610,2.41138,-11.3635,-0.000869615,-0.000988323,-0.00244217,0.00151392,-0.00337186,-0.773249,0.00288799,0.013374,1028,414,2.41142,11.3635
-189,610,2.42139,-11.5139,-0.000920343,-0.000228222,-0.00222536,0.00167782,-0.00282639,-0.862534,0.00262854,0.0111813,1035,414,2.42141,11.514
-182,610,2.40186,-11.669,-0.000843432,0.000328498,-0.0020672,0.00189118,-0.00240611,-0.923504,0.00248697,0.0116639,1042,414,2.40189,11.669
-175,610,2.37207,-11.7982,-0.000638346,0.000296237,-0.00181797,0.00170601,-0.00204812,-0.911195,0.00217044,0.0114542,1049,414,2.37209,11.7982
-168,610,2.36133,-11.9145,-0.000599166,0.000262678,-0.00146237,0.00135629,-0.00169278,-0.92868,0.00176396,0.0108215,1056,414,2.36135,11.9145
-161,610,2.34131,-12.0909,-0.000505543,0.000382265,-0.00127502,0.00128844,-0.00141172,-0.952913,0.00155948,0.0107615,1063,414,2.3413,12.0908
-154,610,2.32922,-12.2162,-0.000276391,0.000607253,-0.00107687,0.00132942,-0.000998555,-0.980068,0.00134857,0.0129607,1070,414,2.32921,12.2162
-147,610,2.34973,-12.3291,-9.39039e-05,0.000842322,-0.00094468,0.00142851,-0.000680091,-1.01543,0.0012427,0.0143741,1077,414,2.34974,12.3291
-140,610,2.36292,-12.4683,0.000293965,0.000885622,-0.000968939,0.00160289,-0.000423299,-0.93356,0.00123413,0.0117325,1084,414,2.36293,12.4683
-133,610,2.36133,-12.5813,0.000506573,0.000883746,-0.000928138,0.00164226,-0.000251944,-0.885628,0.00118776,0.0128982,1091,414,2.36139,12.5813
-126,610,2.3551,-12.6958,0.00076691,0.000929218,-0.00113631,0.00198727,-0.000291144,-0.821047,0.0014318,0.010976,1098,414,2.35511,12.6958
-119,610,2.34033,-12.7899,0.00128865,0.00106009,-0.00139054,0.0025696,-0.000220855,-0.744398,0.00179123,0.00973702,1105,414,2.34036,12.7899
-112,610,2.33899,-12.8951,0.00185245,0.00115318,-0.00159759,0.00313821,-0.000132585,-0.677672,0.00213771,0.0165629,1112,414,2.33905,12.8951
-105,610,2.34033,-12.9909,0.00240008,0.00126278,-0.00182851,0.00374632,-8.34612e-05,-0.634643,0.00252583,0.0159346,1119,414,2.34037,12.9909
-98,610,2.36499,-13.0878,0.00287564,0.0012459,-0.00205849,0.00427468,-0.00015314,-0.596933,0.00290218,0.0120639,1126,414,2.36497,13.0878
-91,610,2.36475,-13.1835,0.00330911,0.00124153,-0.00229157,0.00478929,-0.000238647,-0.573502,0.00327531,0.0134916,1133,414,2.36469,13.1835
-84,610,2.37927,-13.2685,0.00358748,0.00107461,-0.00230594,0.00495706,-0.000294972,-0.535951,0.00340729,0.0140329,1140,414,2.37922,13.2685
-77,610,2.37988,-13.3795,0.00377473,0.000821749,-0.0022054,0.00495226,-0.00035578,-0.490421,0.00342626,0.0110995,1147,414,2.37992,13.3796
-70,610,2.37964,-13.4651,0.00398595,0.000704324,-0.00204905,0.00497019,-0.000279913,-0.447794,0.00341059,0.0134683,1154,414,2.3796,13.4651
-63,610,2.39319,-13.5353,0.00403939,0.000604996,-0.00185676,0.00485129,-0.000206905,-0.412215,0.00330532,0.0130931,1161,414,2.39317,13.5353
-56,610,2.42798,-13.5895,0.00350378,0.00017881,-0.00207114,0.00449713,-0.000814542,-0.447208,0.00330325,0.0115613,1168,414,2.42798,13.5895
-49,610,2.43921,-13.6379,0.00282261,8.38642e-05,-0.00200991,0.0038853,-0.000978826,-0.486362,0.00297073,0.0117249,1175,414,2.43921,13.638
-42,610,2.45618,-13.7092,0.00187788,0.000120028,-0.0017266,0.00293639,-0.00093848,-0.549967,0.00233418,0.0137912,1182,414,2.45615,13.7092
-35,610,2.46753,-13.7749,0.000869869,-0.000324779,-0.00136997,0.00176708,-0.00122199,-0.579818,0.00173528,0.0140182,1189,414,2.46749,13.7749
-28,610,2.46948,-13.8228,-7.69264e-05,-0.00103927,-0.00119323,0.000728497,-0.00184469,-0.593746,0.00153151,0.0119711,1196,414,2.46945,13.8228
-21,610,2.47729,-13.8477,-0.000855994,-0.00218618,-0.00103948,-0.000287042,-0.00275513,-0.500801,0.00174894,0.00993873,1203,414,2.47724,13.8477
-14,610,2.48035,-13.8715,-0.00140529,-0.00317973,-0.000996682,-0.000958143,-0.00362688,-0.421718,0.00217022,0.0119409,1210,414,2.48034,13.8715
-7,610,2.48743,-13.8975,-0.00193488,-0.00370609,-0.00112071,-0.0013921,-0.00424887,-0.451023,0.0025012,0.0137576,1217,414,2.48747,13.8975
0,610,2.52344,-13.9269,-0.00211849,-0.00414065,-0.00116179,-0.00158943,-0.00466972,-0.427324,0.00274148,0.010468,1224,414,2.5234,13.9269
7,610,2.56287,-13.9636,-0.00200971,-0.00459051,-0.000829207,-0.00176625,-0.00483397,-0.285576,0.00282441,0.0109054,1231,414,2.56283,13.9636
14,610,2.58447,-13.9973,-0.00196773,-0.00508485,-0.00042773,-0.0019101,-0.00514248,-0.133922,0.00300155,0.0130282,1238,414,2.5845,13.9973
21,610,2.59204,-14.0137,-0.00181846,-0.00594608,-1.23405e-05,-0.00181842,-0.00594611,-0.00298971,0.00351823,0.0117787,1245,414,2.59202,14.0137
28,610,2.59778,-14.0407,-0.00143221,-0.00693002,0.000378623,-0.00140626,-0.00695597,0.0684374,0.00424689,0.0116951,1252,414,2.59781,14.0407
35,610,2.62061,-14.0518,-0.000545604,-0.00790255,0.00081438,-0.000456534,-0.00799162,0.108938,0.00518228,0.0154339,1259,414,2.62066,14.0518
42,610,2.65637,-14.0388,0.000564272,-0.00929618,0.00110371,0.000686302,-0.00941822,0.110117,0.00651963,0.0141784,1266,414,2.65637,14.0388
49,610,2.68811,-14.048,0.00153351,-0.0106077,0.00136884,0.00168592,-0.0107601,0.110889,0.00779639,0.0140305,1273,414,2.68814,14.048
56,610,2.69788,-14.0428,0.00276416,-0.0121952,0.00139666,0.00289344,-0.0123245,0.0923003,0.00933156,0.0126314,1280,414,2.69785,14.0428
63,610,2.70093,-14.0317,0.00404371,-0.0131801,0.001227,0.00413068,-0.013267,0.0707622,0.0104961,0.0148971,1287,414,2.70091,14.0317
70,610,2.73523,-14.0194,0.00498165,-0.0135554,0.000873891,0.00502275,-0.0135965,0.047004,0.0111232,0.0215672,1294,414,2.73528,14.0194
77,610,2.74475,-14.0024,0.00617312,-0.0136756,0.000651998,0.00619451,-0.013697,0.0328013,0.0117535,0.027525,1301,414,2.74473,14.0024
84,610,2.77307,-13.944,0.00769468,-0.0131335,-0.000181957,0.00769627,-0.0131351,-0.0087352,0.0121629,0.0297646,1308,414,2.77306,13.944
91,610,2.84241,-13.9175,0.00857877,-0.0122962,-0.000851224,0.00861342,-0.0123309,-0.0406872,0.0121555,0.0248852,1315,414,2.84246,13.9175
98,610,2.8833,-13.9056,0.00866063,-0.0108951,-0.0016104,0.00879236,-0.0110269,-0.0816164,0.0114669,0.0223214,1322,414,2.88325,13.9056
105,610,2.85815,-13.8637,0.00817847,-0.00921467,-0.00229602,0.00847645,-0.00951265,-0.129062,0.0103918,0.0173513,1329,414,2.85814,13.8637
112,610,2.84534,-13.8541,0.00775113,-0.0075672,-0.00287939,0.00827449,-0.00809056,-0.179797,0.00944856,0.0115803,1336,414,2.84538,13.8541
119,610,2.82483,-13.827,0.00723855,-0.0056388,-0.00340833,0.00808501,-0.00648526,-0.243426,0.00842904,0.0168296,1343,414,2.82481,13.827
126,610,2.84009,-13.7353,0.00641262,-0.00367375,-0.00379397,0.00768037,-0.0049415,-0.322485,0.00734421,0.0244144,1350,414,2.84012,13.7353
133,610,2.88428,-13.6744,0.00521236,-0.00207795,-0.00397885,0.00696336,-0.00382895,-0.41457,0.00631793,0.0193301,1357,414,2.8843,13.6744
140,610,2.90735,-13.6555,0.00364204,-0.00102694,-0.00407504,0.00600391,-0.00338881,-0.52528,0.0054925,0.0146538,1364,414,2.90735,13.6554
147,610,2.90454,-13.5807,0.00220242,-0.000219251,-0.00398887,0.00516018,-0.00317701,-0.638041,0.00485866,0.0161156,1371,414,2.90458,13.5807
154,610,2.90173,-13.4946,0.00121106,2.18672e-05,-0.00390233,0.00456383,-0.0033309,-0.709795,0.00457652,0.0214112,1378,414,2.90176,13.4946
161,610,2.98096,-13.4232,0.000125392,0.000146369,-0.00373417,0.00387007,-0.00359831,-0.786803,0.00431282,0.0265656,1385,414,2.98097,13.4232
168,610,3.02271,-13.3442,-0.000835487,-0.000373368,-0.00352912,0.00293225,-0.00414111,-0.818088,0.00410364,0.026578,1392,414,3.02267,13.3442
175,610,3.00305,-13.2505,-0.00114081,-0.000897325,-0.00311556,0.00209887,-0.00413701,-0.804926,0.00366382,0.0208611,1399,414,3.0031,13.2505
182,610,2.99377,-13.1743,-0.00177977,-0.00130586,-0.00301454,0.00148102,-0.00456665,-0.82462,0.00363996,0.0148874,1406,414,2.9938,13.1743
189,610,2.99353,-13.0951,-0.00314086,-0.00157438,-0.00194554,-0.000260336,-0.0044549,-0.976763,0.00288707,0.0130881,1413,414,2.99359,13.0951
196,610,2.99341,-12.9976,-0.00252554,-0.00115808,-0.00163589,-6.87859e-05,-0.00361483,-0.983344,0.00238729,0.0124769,1420,414,2.99344,12.9976
203,610,3.0061,-12.885,-0.00106936,-0.000915912,-0.00111124,0.000121251,-0.00210652,-0.819865,0.00144646,0.0137108,1427,414,3.00614,12.885
210,610,3.01282,-12.7794,0.000133684,-0.000617619,-0.000728588,0.00057776,-0.0010617,-0.547378,0.000960187,0.0106995,1434,414,3.01281,12.7794
217,610,3.0177,-12.6418,9.4263e-05,0.000342352,-0.000814828,0.00104252,-0.000605908,-0.860935,0.000962786,0.0160395,1441,414,3.01767,12.6419
224,610,3.02698,-12.5359,6.64383e-05,0.000778933,-0.000490197,0.00102866,-0.000183289,-1.09962,0.000754329,0.0194733,1448,414,3.02703,12.536
231,610,3.05042,-12.4371,0.000149446,0.00117652,-0.000174019,0.0012052,0.000120762,-1.40744,0.000766392,0.0158479,1455,414,3.05037,12.4371
238,610,3.05261,-12.3009,0.000288435,0.00155308,0.000138178,0.001568,0.000273514,1.46322,0.000967142,0.0115118,1462,414,3.05266,12.3009
245,610,3.04688,-12.1779,0.000397359,0.00186573,0.000393908,0.00196473,0.000298363,1.32458,0.00122256,0.0133867,1469,414,3.04683,12.1779
252,610,3.07092,-12.0445,0.000513065,0.00214545,0.000622749,0.00235589,0.000302619,1.24491,0.00148007,0.0150738,1476,414,3.07089,12.0445
259,610,3.0752,-11.9,0.000650336,0.00232638,0.00087271,0.00269828,0.000278438,1.16796,0.00171359,0.0125246,1483,414,3.07525,11.9
266,610,3.06897,-11.76,0.00064469,0.00238735,0.00124794,0.00303804,-6.00482e-06,1.09016,0.00202737,0.0120889,1490,414,3.06902,11.76
273,610,3.04187,-11.6183,0.000554464,0.00266403,0.00172317,0.00362962,-0.000411123,1.06004,0.00256778,0.00951147,1497,414,3.04183,11.6183
280,610,3.0437,-11.4599,0.000514594,0.00266312,0.00226538,0.00409604,-0.000918327,1.0068,0.00308274,0.00940348,1504,414,3.04371,11.4599
287,610,3.03027,-11.2983,0.000333541,0.00264829,0.00287185,0.00458721,-0.00160538,0.976945,0.00371089,0.0123648,1511,414,3.03025,11.2983
294,610,3.02856,-11.1447,9.14482e-05,0.00268314,0.00351705,0.00513548,-0.00236089,0.961905,0.00442574,0.0104501,1518,414,3.02853,11.1447
301,610,3.03589,-10.9966,-0.000264079,0.00262392,0.00421448,0.00563492,-0.00327508,0.950444,0.00520398,0.00994712,1525,414,3.03595,10.9967
308,610,3.05591,-10.8246,-0.000661634,0.0026377,0.00500764,0.0062604,-0.00428433,0.944515,0.00612354,0.0117389,1532,414,3.05591,10.8245
315,610,3.05042,-10.6539,-0.0011355,0.00254444,0.00569839,0.00669255,-0.00528362,0.941561,0.00693038,0.0129817,1539,414,3.05047,10.6539
322,610,3.01868,-10.4721,-0.00161583,0.00257038,0.00634377,0.00715744,-0.00620288,0.944748,0.00772014,0.0130106,1546,414,3.01872,10.4721
329,610,2.99561,-10.2885,-0.00224762,0.00282178,0.00684471,0.00758604,-0.00701188,0.962726,0.00843028,0.011502,1553,414,2.99565,10.2884
336,610,3.00635,-10.0983,-0.00326693,0.0030428,0.00675844,0.00734647,-0.00757059,1.00377,0.00861269,0.0110939,1560,414,3.00638,10.0983
343,610,3.00732,-9.89386,-0.00421256,0.00318366,0.00641184,0.00688742,-0.00791632,1.04698,0.00855383,0.0244188,1567,414,3.00734,9.89386
350,610,2.98218,-9.78348,-0.00498482,0.00384502,0.00610289,0.00696249,-0.00810228,1.09853,0.00870594,0.0485981,1574,414,2.98218,9.78348
357,610,3.02661,-9.33908,0,0,0,0,0,0,0,-1,1581,414,3.02663,9.33908
364,610,3.06494,-9.18231,0,0,0,0,0,0,0,-1,1588,414,3.06496,9.18231
371,610,2.98987,-8.84097,0,0,0,0,0,0,0,-1,1595,414,2.98984,8.84097
378,610,2.85461,-8.58499,0,0,0,0,0,0,0,-1,1602,414,2.85457,8.585
385,610,2.19946,-8.5947,0,0,0,0,0,0,0,-1,1609,414,2.19951,8.59469
392,610,2.54626,0.0437622,0,0,0,0,0,0,0,-1,1616,414,2.54632,-0.0437683
399,610,3.03833,-2.82547,0,0,0,0,0,0,0,-1,1623,414,3.03827,2.82546
406,610,2.91687,-2.9166,0,0,0,0,0,0,0,-1,1630,414,2.91688,2.91659
413,610,3.01929,-3.20306,0,0,0,0,0,0,0,-1,1637,414,3.01929,3.20306
420,610,4.78149,-3.64041,0,0,0,0,0,0,0,-1,1644,414,4.78152,3.64042
427,610,5.20764,-4.67545,0,0,0,0,0,0,0,-1,1651,414,5.20759,4.67545
434,610,5.39233,-5.45441,0,0,0,0,0,0,0,-1,1658,414,5.39228,5.4544
441,610,0,0,0,0,0,0,0,0,0,-1,1665,414,0,0
448,610,0,0,0,0,0,0,0,0,0,-1,1672,414,0,0
455,610,0,0,0,0,0,0,0,0,0,-1,1679,414,0,0
462,610,0,0,0,0,0,0,0,0,0,-1,1686,414,0,0
469,610,0,0,0,0,0,0,0,0,0,-1,1693,414,0,0
476,610,0,0,0,0,0,0,0,0,0,-1,1700,414,0,0
483,610,0,0,0,0,0,0,0,0,0,-1,1707,414,0,0
490,610,0,0,0,0,0,0,0,0,0,-1,1714,414,0,0
497,610,0,0,0,0,0,0,0,0,0,-1,1721,414,0,0
504,610,0,0,0,0,0,0,0,0,0,-1,1728,414,0,0
511,610,0,0,0,0,0,0,0,0,0,-1,1735,414,0,0
518,610,0,0,0,0,0,0,0,0,0,-1,1742,414,0,0
525,610,0,0,0,0,0,0,0,0,0,-1,1749,414,0,0
532,610,0,0,0,0,0,0,0,0,0,-1,1756,414,0,0
539,610,0,0,0,0,0,0,0,0,0,-1,1763,414,0,0
546,610,0,0,0,0,0,0,0,0,0,-1,1770,414,0,0
553,610,0,0,0,0,0,0,0,0,0,-1,1777,414,0,0
560,610,0,0,0,0,0,0,0,0,0,-1,1784,414,0,0
567,610,0,0,0,0,0,0,0,0,0,-1,1791,414,0,0
574,610,0,0,0,0,0,0,0,0,0,-1,1798,414,0,0
581,610,0,0,0,0,0,0,0,0,0,-1,1805,414,0,0
588,610,0,0,0,0,0,0,0,0,0,-1,1812,414,0,0
595,610,0,0,0,0,0,0,0,0,0,-1,1819,414,0,0
602,610,0,0,0,0,0,0,0,0,0,-1,1826,414,0,0
609,610,0,0,0,0,0,0,0,0,0,-1,1833,414,0,0
616,610,0,0,0,0,0,0,0,0,0,-1,1840,414,0,0
623,610,0,0,0,0,0,0,0,0,0,-1,1847,414,0,0
630,610,0,0,0,0,0,0,0,0,0,-1,1854,414,0,0
637,610,0,0,0,0,0,0,0,0,0,-1,1861,414,0,0
644,610,0,0,0,0,0,0,0,0,0,-1,1868,414,0,0
651,610,0,0,0,0,0,0,0,0,0,-1,1875,414,0,0
658,610,0,0,0,0,0,0,0,0,0,-1,1882,414,0,0
665,610,0,0,0,0,0,0,0,0,0,-1,1889,414,0,0
672,610,0,0,0,0,0,0,0,0,0,-1,1896,414,0,0
679,610,0,0,0,0,0,0,0,0,0,-1,1903,414,0,0
686,610,0,0,0,0,0,0,0,0,0,-1,1910,414,0,0
693,610,0,0,0,0,0,0,0,0,0,-1,1917,414,0,0
700,610,0,0,0,0,0,0,0,0,0,-1,1924,414,0,0
707,610,0,0,0,0,0,0,0,0,0,-1,1931,414,0,0
714,610,0,0,0,0,0,0,0,0,0,-1,1938,414,0,0
721,610,0,0,0,0,0,0,0,0,0,-1,1945,414,0,0
728,610,0,0,0,0,0,0,0,0,0,-1,1952,414,0,0
735,610,0,0,0,0,0,0,0,0,0,-1,1959,414,0,0
742,610,0,0,0,0,0,0,0,0,0,-1,1966,414,0,0
749,610,0,0,0,0,0,0,0,0,0,-1,1973,414,0,0
756,610,0,0,0,0,0,0,0,0,0,-1,1980,414,0,0
763,610,0,0,0,0,0,0,0,0,0,-1,1987,414,0,0
770,610,0,0,0,0,0,0,0,0,0,-1,1994,414,0,0
777,610,0,0,0,0,0,0,0,0,0,-1,2001,414,0,0
784,610,0,0,0,0,0,0,0,0,0,-1,2008,414,0,0
791,610,0,0,0,0,0,0,0,0,0,-1,2015,414,0,0
798,610,0,0,0,0,0,0,0,0,0,-1,2022,414,0,0
805,610,0,0,0,0,0,0,0,0,0,-1,2029,414,0,0
812,610,0,0,0,0,0,0,0,0,0,-1,2036,414,0,0
-700,603,0,0,0,0,0,0,0,0,0,-1,524,421,0,0
-693,603,0,0,0,0,0,0,0,0,0,-1,531,421,0,0
-686,603,0,0,0,0,0,0,0,0,0,-1,538,421,0,0
-679,603,0,0,0,0,0,0,0,0,0,-1,545,421,0,0
-672,603,0,0,0,0,0,0,0,0,0,-1,552,421,0,0
-665,603,0,0,0,0,0,0,0,0,0,-1,559,421,0,0
-658,603,0,0,0,0,0,0,0,0,0,-1,566,421,0,0
-651,603,0,0,0,0,0,0,0,0,0,-1,573,421,0,0
-644,603,0,0,0,0,0,0,0,0,0,-1,580,421,0,0
-637,603,0,0,0,0,0,0,0,0,0,-1,587,421,0,0
-630,603,0,0,0,0,0,0,0,0,0,-1,594,421,0,0
-623,603,0,0,0,0,0,0,0,0,0,-1,601,421,0,0
-616,603,0,0,0,0,0,0,0,0,0,-1,608,421,0,0
-609,603,0,0,0,0,0,0,0,0,0,-1,615,421,0,0
-602,603,0,0,0,0,0,0,0,0,0,-1,622,421,0,0
-595,603,0,0,0,0,0,0,0,0,0,-1,629,421,0,0
-588,603,0,0,0,0,0,0,0,0,0,-1,636,421,0,0
-581,603,0,0,0,0,0,0,0,0,0,-1,643,421,0,0
-574,603,0,0,0,0,0,0,0,0,0,-1,650,421,0,0
-567,603,0,0,0,0,0,0,0,0,0,-1,657,421,0,0
-560,603,0,0,0,0,0,0,0,0,0,-1,664,421,0,0
-553,603,0,0,0,0,0,0,0,0,0,-1,671,421,0,0
-546,603,0,0,0,0,0,0,0,0,0,-1,678,421,0,0
-539,603,0,0,0,0,0,0,0,0,0,-1,685,421,0,0
-532,603,0,0,0,0,0,0,0,0,0,-1,692,421,0,0
-525,603,0,0,0,0,0,0,0,0,0,-1,699,421,0,0
-518,603,0,0,0,0,0,0,0,0,0,-1,706,421,0,0
-511,603,0,0,0,0,0,0,0,0,0,-1,713,421,0,0
-504,603,0,0,0,0,0,0,0,0,0,-1,720,421,0,0
-497,603,0,0,0,0,0,0,0,0,0,-1,727,421,0,0
-490,603,0,0,0,0,0,0,0,0,0,-1,734,421,0,0
-483,603,0,0,0,0,0,0,0,0,0,-1,741,421,0,0
-476,603,0,0,0,0,0,0,0,0,0,-1,748,421,0,0
-469,603,0,0,0,0,0,0,0,0,0,-1,755,421,0,0
-462,603,0,0,0,0,0,0,0,0,0,-1,762,421,0,0
-455,603,0,0,0,0,0,0,0,0,0,-1,769,421,0,0
-448,603,0,0,0,0,0,0,0,0,0,-1,776,421,0,0
-441,603,0,0,0,0,0,0,0,0,0,-1,783,421,0,0
-434,603,0,0,0,0,0,0,0,0,0,-1,790,421,0,0
-427,603,0,0,0,0,0,0,0,0,0,-1,797,421,0,0
-420,603,0,0,0,0,0,0,0,0,0,-1,804,421,0,0
-413,603,0,0,0,0,0,0,0,0,0,-1,811,421,0,0
-406,603,0,0,0,0,0,0,0,0,0,-1,818,421,0,0
-399,603,0,0,0,0,0,0,0,0,0,-1,825,421,0,0
-392,603,0,0,0,0,0,0,0,0,0,-1,832,421,0,0
-385,603,0,0,0,0,0,0,0,0,0,-1,839,421,0,0
-378,603,0,0,0,0,0,0,0,0,0,-1,846,421,0,0
-371,603,0,0,0,0,0,0,0,0,0,-1,853,421,0,0
-364,603,0,0,0,0,0,0,0,0,0,-1,860,421,0,0
-357,603,0,0,0,0,0,0,0,0,0,-1,867,421,0,0
-350,603,0,0,0,0,0,0,0,0,0,-1,874,421,0,0
-343,603,0,0,0,0,0,0,0,0,0,-1,881,421,0,0
-336,603,0,0,0,0,0,0,0,0,0,-1,888,421,0,0
-329,603,4.6095,-8.85309,0,0,0,0,0,0,0,-1,895,421,4.60952,8.8531
-322,603,4.4209,-8.48056,0,0,0,0,0,0,0,-1,902,421,4.42093,8.48056
-315,603,3.94946,-8.08862,0,0,0,0,0,0,0,-1,909,421,3.94948,8.08863
-308,603,3.67664,-7.59,0,0,0,0,0,0,0,-1,916,421,3.67665,7.58999
-301,603,3.6507,-10.1701,0,0,0,0,0,0,0,-1,923,421,3.65069,10.1701
-294,603,2.11639,-8.81082,0,0,0,0,0,0,0,-1,930,421,2.11641,8.81081
-287,603,2.45331,-9.04086,0,0,0,0,0,0,0,-1,937,421,2.4533,9.04087
-280,603,2.37317,-9.24542,0,0,0,0,0,0,0,-1,944,421,2.37317,9.24541
-273,603,2.46686,-9.4111,0,0,0,0,0,0,0,-1,951,421,2.46686,9.4111
-266,603,2.43915,-9.58939,0,0,0,0,0,0,0,-1,958,421,2.43918,9.5894
-259,603,2.38782,-9.70374,0.00374712,-0.00506441,-0.00351932,0.00498018,-0.00629747,-0.337004,0.00652595,0.0463701,965,421,2.38782,9.70372
-252,603,2.32092,-10.1172,0.0021171,-0.00518327,-0.00269323,0.00300314,-0.00606931,-0.317834,0.00533676,0.0424264,972,421,2.32093,10.1172
-245,603,2.23938,-10.2423,0.000234018,-0.00493657,-0.00201863,0.000928754,-0.00563131,-0.331465,0.00409902,0.0311132,979,421,2.2394,10.2423
-238,603,2.34094,-10.3203,-0.000689545,-0.00466163,-0.00216781,0.000264443,-0.00561562,-0.414565,0.00383494,0.0182012,986,421,2.34094,10.3203
-231,603,2.33368,-10.527,-0.000881656,-0.0039596,-0.00200112,0.000103838,-0.00494509,-0.457606,0.00333188,0.0124422,993,421,2.33365,10.527
-224,603,2.26654,-10.7165,-0.0010172,-0.00320507,-0.00193666,0.000113127,-0.00433539,-0.52831,0.0029287,0.0121412,1000,421,2.26652,10.7165
-217,603,2.25037,-10.8651,-0.000963335,-0.00248645,-0.00200362,0.000418577,-0.00386836,-0.603785,0.00272916,0.0102113,1007,421,2.25037,10.8651
-210,603,2.26617,-11.0373,-0.000783649,-0.00182193,-0.00203312,0.000795558,-0.00340114,-0.660398,0.00257393,0.00917708,1014,421,2.26617,11.0373
-203,603,2.26593,-11.2094,-0.000560707,-0.00133445,-0.00192254,0.0010135,-0.00290866,-0.686109,0.00235092,0.0145361,1021,421,2.26595,11.2094
-196,603,2.29346,-11.3864,-0.000367033,-0.000726078,-0.00182441,0.00128667,-0.00237978,-0.736356,0.00214796,0.015952,1028,421,2.29342,11.3864
-189,603,2.2832,-11.5172,-0.000289437,-0.000133948,-0.00172864,0.0015187,-0.00194208,-0.80787,0.00200306,0.0136062,1035,421,2.28321,11.5172
-182,603,2.26721,-11.6803,-0.000131697,0.000309324,-0.00167596,0.00177922,-0.00160159,-0.850809,0.00195281,0.0101733,1042,421,2.26723,11.6803
-175,603,2.25049,-11.818,0.000106258,0.000261563,-0.00155429,0.00174013,-0.00137231,-0.810358,0.00180115,0.010566,1049,421,2.25051,11.818
-168,603,2.23035,-11.919,0.000192969,0.000230398,-0.00135673,0.00156854,-0.00114517,-0.792295,0.00157311,0.0136162,1056,421,2.2304,11.919
-161,603,2.21289,-12.0829,0.00033006,0.000265053,-0.00127665,0.00157462,-0.000979508,-0.772671,0.00148791,0.0129067,1063,421,2.21292,12.0829
-154,603,2.20752,-12.2275,0.000590134,0.0003337,-0.00119654,0.0016653,-0.000741471,-0.732023,0.00142327,0.0117434,1070,421,2.2075,12.2275
-147,603,2.23169,-12.3461,0.000848468,0.000402089,-0.00115409,0.00180075,-0.000550197,-0.689882,0.00141989,0.0128422,1077,421,2.23172,12.3461
-140,603,2.25952,-12.4717,0.0012782,0.000287492,-0.00125558,0.00213261,-0.000566912,-0.597509,0.00164363,0.0113106,1084,421,2.25953,12.4717
-133,603,2.24622,-12.5729,0.00158536,0.00016674,-0.00133202,0.00238515,-0.000633054,-0.540742,0.00183783,0.0112919,1091,421,2.24618,12.5729
-126,603,2.2356,-12.6768,0.00195643,0.000148875,-0.00156324,0.00285835,-0.000753044,-0.523302,0.00219997,0.00930403,1098,421,2.23565,12.6768
-119,603,2.24121,-12.7751,0.00254484,0.000193614,-0.00186105,0.00357049,-0.000832043,-0.5037,0.00270074,0.0101387,1105,421,2.24118,12.7751
-112,603,2.25818,-12.875,0.00319507,0.000228784,-0.0021372,0.00431334,-0.000889484,-0.482066,0.00321336,0.0151599,1112,421,2.25812,12.875
-105,603,2.26233,-12.994,0.00385054,0.000379083,-0.00244575,0.00511388,-0.000884261,-0.476798,0.00373903,0.0141855,1119,421,2.26228,12.9939
-98,603,2.271,-13.0717,0.00444297,0.000459376,-0.00275135,0.00584782,-0.00094547,-0.472093,0.00424891,0.0114712,1126,421,2.271,13.0717
-91,603,2.28357,-13.1523,0.00499587,0.000683577,-0.00311576,0.00662877,-0.000949328,-0.482725,0.00476724,0.00858981,1133,421,2.28356,13.1524
-84,603,2.29309,-13.2771,0.00532098,0.000734561,-0.00319006,0.00695655,-0.000901007,-0.473762,0.00496536,0.00878371,1140,421,2.29309,13.2771
-77,603,2.3136,-13.4099,0.00556626,0.00065679,-0.00313619,0.00709416,-0.000871118,-0.453343,0.00504495,0.0114795,1147,421,2.31364,13.41
-70,603,2.39929,-13.6306,0.00586406,0.000707037,-0.00297782,0.0072246,-0.000653502,-0.42857,0.00504835,0.0298804,1154,421,2.39933,13.6306
-63,603,2.48401,-13.8811,0,0,0,0,0,0,0,-1,1161,421,2.48402,13.8811
-56,603,2.35242,-13.6114,0,0,0,0,0,0,0,-1,1168,421,2.35247,13.6113
-49,603,2.3844,-13.6391,0,0,0,0,0,0,0,-1,1175,421,2.38436,13.6391
-42,603,2.3988,-13.6892,0,0,0,0,0,0,0,-1,1182,421,2.39886,13.6892
-35,603,2.31982,-13.7339,0.000618003,-2.76387e-05,-0.00189196,0.00221448,-0.00162412,-0.700898,0.00222494,0.0412004,1189,421,2.31982,13.7339
-28,603,2.3385,-13.7729,-0.000945866,-0.000700071,-0.00147673,0.000658864,-0.0023048,-0.826914,0.00179688,0.0240867,1196,421,2.33845,13.7728
-21,603,2.40735,-13.8099,-0.00206155,-0.00212239,-0.00112104,-0.000970516,-0.00321342,-0.771833,0.00190313,0.0193187,1203,421,2.40729,13.8099
-14,603,2.47363,-13.8506,-0.0027858,-0.00331854,-0.000981247,-0.00203541,-0.00406893,-0.652863,0.0023492,0.0208475,1210,421,2.47366,13.8506
-7,603,2.50037,-13.895,-0.00346784,-0.00396547,-0.00111248,-0.00257669,-0.00485662,-0.675379,0.00280571,0.0229964,1217,421,2.5004,13.895
0,603,2.49255,-13.9371,-0.00369673,-0.00453192,-0.0011823,-0.00286044,-0.00536821,-0.615634,0.00310157,0.0253214,1224,421,2.49251,13.9371
7,603,2.50317,-13.9283,-0.00355082,-0.00519062,-0.000755632,-0.00325572,-0.00548571,-0.372315,0.00318558,0.0310148,1231,421,2.50318,13.9283
14,603,2.6189,-13.9218,-0.003435,-0.00588703,-0.000286011,-0.00340208,-0.00591995,-0.114593,0.00343057,0.0281527,1238,421,2.61885,13.9218
21,603,2.66943,-13.9518,-0.00300246,-0.00722329,0.000219401,-0.00299109,-0.00723467,0.0517945,0.00419775,0.0206167,1245,421,2.66941,13.9518
28,603,2.71484,-13.9606,-0.00225064,-0.00871515,0.000623581,-0.00219104,-0.00877476,0.0952913,0.00527346,0.0240963,1252,421,2.71488,13.9606
35,603,2.61816,-13.9432,-0.000974126,-0.0101854,0.00105941,-0.000853852,-0.0103057,0.113046,0.00660425,0.0330093,1259,421,2.61821,13.9432
42,603,2.60876,-13.99,0.000711049,-0.0121298,0.00129156,0.00083967,-0.0122584,0.0992579,0.00846603,0.0279046,1266,421,2.60879,13.99
49,603,2.672,-14.0354,0.00226737,-0.0139372,0.00144986,0.00239608,-0.0140659,0.0885355,0.0102695,0.0158589,1273,421,2.67196,14.0354
56,603,2.66309,-14.0428,0.00417969,-0.0160182,0.00131138,0.00426447,-0.016103,0.0645655,0.0124036,0.0279905,1280,421,2.66308,14.0429
63,603,2.63269,-13.9842,0.00614739,-0.0172948,0.000961934,0.00618679,-0.0173342,0.0409425,0.014079,0.0373895,1287,421,2.63266,13.9842
70,603,2.54932,-13.8914,0.00760953,-0.0177284,0.000349183,0.00761434,-0.0177332,0.0137776,0.0150181,0.0427882,1294,421,2.54934,13.8914
77,603,2.53003,-13.9989,0.00935222,-0.0177146,-2.9841e-05,0.00935226,-0.0177147,-0.00110249,0.0158738,0.0435096,1301,421,2.53003,13.9989
84,603,2.72583,-13.988,0.0114252,-0.0167338,-0.00121259,0.0114773,-0.016786,-0.0429561,0.0164135,0.0443695,1308,421,2.72586,13.988
91,603,2.9552,-13.8366,0.0125689,-0.0153612,-0.0021187,0.0127287,-0.015521,-0.0752833,0.0163365,0.0463096,1315,421,2.95524,13.8366
98,603,2.99561,-13.8474,0.0125517,-0.0132218,-0.00310205,0.0129198,-0.0135899,-0.118111,0.015307,0.0451438,1322,421,2.99561,13.8475
105,603,3.03821,-13.7698,0.0118359,-0.010787,-0.00398021,0.0125158,-0.0114668,-0.169171,0.0138508,0.037342,1329,421,3.03825,13.7698
112,603,2.97107,-13.7076,0.0111558,-0.00837397,-0.00476732,0.0122574,-0.00947556,-0.227086,0.0125817,0.0301895,1336,421,2.9711,13.7076
119,603,2.89478,-13.7593,0.0102421,-0.0056137,-0.0054486,0.0119339,-0.00730551,-0.301065,0.0112145,0.0330455,1343,421,2.89474,13.7593
126,603,2.93372,-13.7368,0.00883151,-0.00274842,-0.00597602,0.0113624,-0.0052793,-0.400605,0.00981972,0.0400363,1350,421,2.93367,13.7368
133,603,3.00732,-13.6928,0.00694576,-0.000428979,-0.00622437,0.010493,-0.00397621,-0.517989,0.0086316,0.0344809,1357,421,3.00738,13.6929
140,603,3.03748,-13.5859,0.00467105,0.00110063,-0.00638012,0.00951101,-0.00373933,-0.648983,0.0078883,0.0218442,1364,421,3.03754,13.5859
147,603,3.01294,-13.5344,0.00247724,0.00222238,-0.0063561,0.00870718,-0.00400756,-0.775376,0.00750615,0.0166381,1371,421,3.01288,13.5344
154,603,2.96533,-13.4737,0.000806951,0.00258412,-0.00630728,0.0080651,-0.00467403,-0.855379,0.00744129,0.0247242,1378,421,2.96534,13.4737
161,603,2.97388,-13.4102,-0.000878381,0.00279212,-0.00614897,0.00737387,-0.00546013,-0.930422,0.00743713,0.029568,1385,421,2.97388,13.4102
168,603,3.11951,-13.327,-0.00231298,0.00201164,-0.00592243,0.00615416,-0.00645549,-0.960432,0.00728088,0.0279669,1392,421,3.11945,13.327
175,603,3.19324,-13.2046,-0.00268858,0.00101655,-0.00530664,0.0047847,-0.00645672,-0.953336,0.00651413,0.0299009,1399,421,3.19329,13.2046
182,603,3.20728,-13.1477,-0.00358303,4.66331e-05,-0.00516819,0.00370938,-0.00724577,-0.954249,0.00643387,0.0356482,1406,421,3.20734,13.1477
189,603,3.19995,-13.0366,-0.00574407,-0.000874174,-0.00338739,0.000862618,-0.00748086,-1.09702,0.00529824,0.0308045,1413,421,3.19989,13.0366
196,603,3.13635,-12.9086,-0.00449407,-0.000720125,-0.00286118,0.000820296,-0.0060345,-1.07691,0.00432245,0.0228301,1420,421,3.13631,12.9086
203,603,3.12524,-12.8456,-0.0019036,-0.000875723,-0.00192367,0.000601479,-0.0033808,-0.915932,0.00247881,0.0129034,1427,421,3.12523,12.8456
210,603,3.13123,-12.7963,0.00020597,-0.000862057,-0.00123341,0.00101601,-0.0016721,-0.581103,0.00156731,0.0108503,1434,421,3.13117,12.7963
217,603,3.13879,-12.6729,0.000206847,0.000505355,-0.0014304,0.00179427,-0.00108207,-0.837382,0.00167753,0.012995,1441,421,3.13885,12.6729
224,603,3.16321,-12.5532,0.000213162,0.00111276,-0.00102318,0.00178065,-0.000454722,-0.992488,0.00136417,0.0166413,1448,421,3.16318,12.5532
231,603,3.17297,-12.4358,0.000316091,0.00162486,-0.000650978,0.00189351,4.74417e-05,-1.1794,0.00124683,0.014692,1455,421,3.17297,12.4358
238,603,3.16003,-12.2917,0.000469706,0.00198545,-0.000335513,0.0020564,0.000398761,-1.36241,0.00125924,0.0112912,1462,421,3.16002,12.2917
245,603,3.16138,-12.1765,0.000617756,0.00227959,-5.60996e-05,0.00228148,0.000615865,-1.53709,0.0013629,0.0130387,1469,421,3.16134,12.1765
252,603,3.18311,-12.0587,0.000723109,0.00248056,0.000170369,0.00249692,0.000706745,1.47504,0.00148614,0.0114482,1476,421,3.18313,12.0587
259,603,3.18774,-11.9188,0.000802636,0.00253984,0.00039322,0.0026247,0.000717775,1.35825,0.00156636,0.0104401,1483,421,3.18778,11.9188
266,603,3.16907,-11.7737,0.000810186,0.0024617,0.000648349,0.00268581,0.000586071,1.23798,0.00163068,0.0110936,1490,421,3.1691,11.7736
273,603,3.18054,-11.6207,0.000744955,0.00249947,0.000953981,0.00291823,0.000326195,1.15716,0.00184639,0.00981284,1497,421,3.18049,11.6207
280,603,3.19189,-11.4547,0.000686627,0.00234124,0.00131896,0.00307089,-4.30195e-05,1.0655,0.00206175,0.0115807,1504,421,3.19186,11.4547
287,603,3.19702,-11.2958,0.000545364,0.00220317,0.00171796,0.00328175,-0.000533211,1.01017,0.00238552,0.0114279,1511,421,3.19701,11.2958
294,603,3.18152,-11.1447,0.000345552,0.00208147,0.00216132,0.0035426,-0.00111558,0.976335,0.00280845,0.00938196,1518,421,3.18148,11.1447
301,603,3.177,-10.991,3.68092e-05,0.00189321,0.00265558,0.00377813,-0.00184812,0.953525,0.00331141,0.0107389,1525,421,3.17696,10.991
308,603,3.20984,-10.8338,-0.000269699,0.0018401,0.00323444,0.00418732,-0.00261692,0.943033,0.00396315,0.0155008,1532,421,3.20988,10.8338
315,603,3.21545,-10.6671,-0.000592255,0.00177234,0.00374423,0.0045165,-0.00333641,0.938327,0.00455091,0.0157241,1539,421,3.21551,10.6672
322,603,3.1908,-10.4689,-0.000928585,0.00183211,0.00421889,0.00489073,-0.0039872,0.943501,0.00513452,0.0153576,1546,421,3.19079,10.4689
329,603,3.16077,-10.2815,-0.0013823,0.00208147,0.00459018,0.00525561,-0.00455645,0.965792,0.00566979,0.0112791,1553,421,3.16082,10.2815
336,603,3.15686,-10.1142,-0.00212934,0.00234282,0.00453397,0.00516213,-0.00494865,1.01449,0.00583789,0.00921847,1560,421,3.15688,10.1142
343,603,3.16809,-9.93658,-0.00281717,0.00257187,0.0043037,0.00495498,-0.00520028,1.06509,0.00586371,0.0110044,1567,421,3.16807,9.93657
350,603,3.16003,-9.73837,-0.00338953,0.00316675,0.00410563,0.00514241,-0.00536518,1.1223,0.00606702,0.0203658,1574,421,3.16007,9.73837
357,603,3.16675,-9.48572,-0.0042017,0.00386111,0.00371767,0.00531362,-0.00565421,1.19833,0.00633329,0.0255609,1581,421,3.16676,9.48571
364,603,3.14355,-9.25436,-0.0052605,0.00477445,0.0031195,0.00566513,-0.00615119,1.29267,0.00682408,0.0249768,1588,421,3.14356,9.25437
371,603,3.1217,-9.01181,-0.0060775,0.00592525,0.00195239,0.00623485,-0.00638709,1.41353,0.00728746,0.0272453,1595,421,3.12176,9.01182
378,603,3.07935,-8.79324,-0.00703778,0.00614981,0.000511282,0.0061696,-0.00705757,1.5321,0.00764244,0.0352235,1602,421,3.07937,8.79323
385,603,2.76172,-8.66959,-0.00852061,0.00728171,-0.000700333,0.00731269,-0.00855159,-1.52659,0.00916855,0.0431998,1609,421,2.76174,8.66958
392,603,2.62122,-8.55573,0,0,0,0,0,0,0,-1,1616,421,2.6212,8.55573
399,603,2.38013,-5.37076,0,0,0,0,0,0,0,-1,1623,421,2.38016,5.37075
406,603,3.01917,-2.37219,0,0,0,0,0,0,0,-1,1630,421,3.01915,2.37219
413,603,2.38928,-2.41275,0,0,0,0,0,0,0,-1,1637,421,2.38926,2.41274
420,603,2.74866,-2.30066,0,0,0,0,0,0,0,-1,1644,421,2.74867,2.30065
427,603,7.11548,-3.35352,0,0,0,0,0,0,0,-1,1651,421,7.11549,3.35351
434,603,7.32153,-4.50525,0,0,0,0,0,0,0,-1,1658,421,7.32149,4.50525
441,603,3.18213,-0.250946,0,0,0,0,0,0,0,-1,1665,421,3.18212,0.250944
448,603,2.95667,-0.066925,0,0,0,0,0,0,0,-1,1672,421,2.95662,0.0669226
455,603,0,0,0,0,0,0,0,0,0,-1,1679,421,0,0
462,603,0,0,0,0,0,0,0,0,0,-1,1686,421,0,0
469,603,0,0,0,0,0,0,0,0,0,-1,1693,421,0,0
476,603,0,0,0,0,0,0,0,0,0,-1,1700,421,0,0
483,603,0,0,0,0,0,0,0,0,0,-1,1707,421,0,0
490,603,0,0,0,0,0,0,0,0,0,-1,1714,421,0,0
497,603,0,0,0,0,0,0,0,0,0,-1,1721,421,0,0
504,603,0,0,0,0,0,0,0,0,0,-1,1728,421,0,0
511,603,0,0,0,0,0,0,0,0,0,-1,1735,421,0,0
518,603,0,0,0,0,0,0,0,0,0,-1,1742,421,0,0
525,603,0,0,0,0,0,0,0,0,0,-1,1749,421,0,0
532,603,0,0,0,0,0,0,0,0,0,-1,1756,421,0,0
539,603,0,0,0,0,0,0,0,0,0,-1,1763,421,0,0
546,603,0,0,0,0,0,0,0,0,0,-1,1770,421,0,0
553,603,0,0,0,0,0,0,0,0,0,-1,1777,421,0,0
560,603,0,0,0,0,0,0,0,0,0,-1,1784,421,0,0
567,603,0,0,0,0,0,0,0,0,0,-1,1791,421,0,0
574,603,0,0,0,0,0,0,0,0,0,-1,1798,421,0,0
581,603,0,0,0,0,0,0,0,0,0,-1,1805,421,0,0
588,603,0,0,0,0,0,0,0,0,0,-1,1812,421,0,0
595,603,0,0,0,0,0,0,0,0,0,-1,1819,421,0,0
602,603,0,0,0,0,0,0,0,0,0,-1,1826,421,0,0
609,603,0,0,0,0,0,0,0,0,0,-1,1833,421,0,0
616,603,0,0,0,0,0,0,0,0,0,-1,1840,421,0,0
623,603,0,0,0,0,0,0,0,0,0,-1,1847,421,0,0
630,603,0,0,0,0,0,0,0,0,0,-1,1854,421,0,0
637,603,0,0,0,0,0,0,0,0,0,-1,1861,421,0,0
644,603,0,0,0,0,0,0,0,0,0,-1,1868,421,0,0
651,603,0,0,0,0,0,0,0,0,0,-1,1875,421,0,0
658,603,0,0,0,0,0,0,0,0,0,-1,1882,421,0,0
665,603,0,0,0,0,0,0,0,0,0,-1,1889,421,0,0
672,603,0,0,0,0,0,0,0,0,0,-1,1896,421,0,0
679,603,0,0,0,0,0,0,0,0,0,-1,1903,421,0,0
686,603,0,0,0,0,0,0,0,0,0,-1,1910,421,0,0
693,603,0,0,0,0,0,0,0,0,0,-1,1917,421,0,0
700,603,0,0,0,0,0,0,0,0,0,-1,1924,421,0,0
707,603,0,0,0,0,0,0,0,0,0,-1,1931,421,0,0
714,603,0,0,0,0,0,0,0,0,0,-1,1938,421,0,0
721,603,0,0,0,0,0,0,0,0,0,-1,1945,421,0,0
728,603,0,0,0,0,0,0,0,0,0,-1,1952,421,0,0
735,603,0,0,0,0,0,0,0,0,0,-1,1959,421,0,0
742,603,0,0,0,0,0,0,0,0,0,-1,1966,421,0,0
749,603,0,0,0,0,0,0,0,0,0,-1,1973,421,0,0
756,603,0,0,0,0,0,0,0,0,0,-1,1980,421,0,0
763,603,0,0,0,0,0,0,0,0,0,-1,1987,421,0,0
770,603,0,0,0,0,0,0,0,0,0,-1,1994,421,0,0
777,603,0,0,0,0,0,0,0,0,0,-1,2001,421,0,0
784,603,0,0,0,0,0,0,0,0,0,-1,2008,421,0,0
791,603,0,0,0,0,0,0,0,0,0,-1,2015,421,0,0
798,603,0,0,0,0,0,0,0,0,0,-1,2022,421,0,0
805,603,0,0,0,0,0,0,0,0,0,-1,2029,421,0,0
812,603,0,0,0,0,0,0,0,0,0,-1,2036,421,0,0
-700,596,0,0,0,0,0,0,0,0,0,-1,524,428,0,0
-693,596,0,0,0,0,0,0,0,0,0,-1,531,428,0,0
-686,596,0,0,0,0,0,0,0,0,0,-1,538,428,0,0
-679,596,0,0,0,0,0,0,0,0,0,-1,545,428,0,0
-672,596,0,0,0,0,0,0,0,0,0,-1,552,428,0,0
-665,596,0,0,0,0,0,0,0,0,0,-1,559,428,0,0
-658,596,0,0,0,0,0,0,0,0,0,-1,566,428,0,0
-651,596,0,0,0,0,0,0,0,0,0,-1,573,428,0,0
-644,596,0,0,0,0,0,0,0,0,0,-1,580,428,0,0
-637,596,0,0,0,0,0,0,0,0,0,-1,587,428,0,0
-630,596,0,0,0,0,0,0,0,0,0,-1,594,428,0,0
-623,596,0,0,0,0,0,0,0,0,0,-1,601,428,0,0
-616,596,0,0,0,0,0,0,0,0,0,-1,608,428,0,0
-609,596,0,0,0,0,0,0,0,0,0,-1,615,428,0,0
-602,596,0,0,0,0,0,0,0,0,0,-1,622,428,0,0
-595,596,0,0,0,0,0,0,0,0,0,-1,629,428,0,0
-588,596,0,0,0,0,0,0,0,0,0,-1,636,428,0,0
-581,596,0,0,0,0,0,0,0,0,0,-1,643,428,0,0
-574,596,0,0,0,0,0,0,0,0,0,-1,650,428,0,0
-567,596,0,0,0,0,0,0,0,0,0,-1,657,428,0,0
-560,596,0,0,0,0,0,0,0,0,0,-1,664,428,0,0
-553,596,0,0,0,0,0,0,0,0,0,-1,671,428,0,0
-546,596,0,0,0,0,0,0,0,0,0,-1,678,428,0,0
-539,596,0,0,0,0,0,0,0,0,0,-1,685,428,0,0
-532,596,0,0,0,0,0,0,0,0,0,-1,692,428,0,0
-525,596,0,0,0,0,0,0,0,0,0,-1,699,428,0,0
-518,596,0,0,0,0,0,0,0,0,0,-1,706,428,0,0
-511,596,0,0,0,0,0,0,0,0,0,-1,713,428,0,0
-504,596,0,0,0,0,0,0,0,0,0,-1,720,428,0,0
-497,596,0,0,0,0,0,0,0,0,0,-1,727,428,0,0
-490,596,0,0,0,0,0,0,0,0,0,-1,734,428,0,0
-483,596,0,0,0,0,0,0,0,0,0,-1,741,428,0,0
-476,596,0,0,0,0,0,0,0,0,0,-1,748,428,0,0
-469,596,0,0,0,0,0,0,0,0,0,-1,755,428,0,0
-462,596,0,0,0,0,0,0,0,0,0,-1,762,428,0,0
-455,596,0,0,0,0,0,0,0,0,0,-1,769,428,0,0
-448,596,0,0,0,0,0,0,0,0,0,-1,776,428,0,0
-441,596,0,0,0,0,0,0,0,0,0,-1,783,428,0,0
-434,596,0,0,0,0,0,0,0,0,0,-1,790,428,0,0
-427,596,0,0,0,0,0,0,0,0,0,-1,797,428,0,0
-420,596,0,0,0,0,0,0,0,0,0,-1,804,428,0,0
-413,596,0,0,0,0,0,0,0,0,0,-1,811,428,0,0
-406,596,0,0,0,0,0,0,0,0,0,-1,818,428,0,0
-399,596,0,0,0,0,0,0,0,0,0,-1,825,428,0,0
-392,596,0,0,0,0,0,0,0,0,0,-1,832,428,0,0
-385,596,0,0,0,0,0,0,0,0,0,-1,839,428,0,0
-378,596,0,0,0,0,0,0,0,0,0,-1,846,428,0,0
-371,596,0,0,0,0,0,0,0,0,0,-1,853,428,0,0
-364,596,0,0,0,0,0,0,0,0,0,-1,860,428,0,0
-357,596,0,0,0,0,0,0,0,0,0,-1,867,428,0,0
-350,596,0,0,0,0,0,0,0,0,0,-1,874,428,0,0
-343,596,0,0,0,0,0,0,0,0,0,-1,881,428,0,0
-336,596,1.89813,-9.66019,0,0,0,0,0,0,0,-1,888,428,1.89813,9.6602
-329,596,1.54865,-9.16202,0,0,0,0,0,0,0,-1,895,428,1.54866,9.16203
-322,596,2.35809,-9.06784,0,0,0,0,0,0,0,-1,902,428,2.35812,9.06783
-315,596,2.46185,-8.86038,0,0,0,0,0,0,0,-1,909,428,2.46188,8.86039
-308,596,3.04694,-9.22971,0,0,0,0,0,0,0,-1,916,428,3.04693,9.22971
-301,596,1.82562,-8.57568,0,0,0,0,0,0,0,-1,923,428,1.82563,8.5757
-294,596,1.94037,-8.7218,0.0124149,0.0052137,-0.0118281,0.0211783,-0.00354969,-0.637649,0.0154387,0.0450556,930,428,1.94036,8.72181
-287,596,2.06268,-8.96558,0.010466,0.0021185,-0.00947304,0.016644,-0.00405952,-0.577897,0.0126679,0.0476825,937,428,2.06267,8.96557
-280,596,2.17474,-9.2027,0.00824171,0.000147691,-0.00731755,0.0125568,-0.00416741,-0.532805,0.0100525,0.0497282,944,428,2.17477,9.20271
-273,596,2.27008,-9.41699,0.00635606,-0.00107105,-0.00583587,0.00955971,-0.00427471,-0.502045,0.00817927,0.0451121,951,428,2.2701,9.417
-266,596,2.25018,-9.61517,0.00481383,-0.00256921,-0.00437108,0.00684364,-0.00459903,-0.434742,0.00664866,0.0397442,958,428,2.25016,9.61519
-259,596,2.16272,-9.81976,0.00309208,-0.00333156,-0.00311658,0.00435562,-0.00459511,-0.385175,0.00516832,0.0336637,965,428,2.16275,9.81977
-252,596,2.1806,-10.0308,0.00176383,-0.00342054,-0.00235101,0.00267117,-0.00432788,-0.368324,0.00407847,0.0166841,972,428,2.18058,10.0308
-245,596,2.17499,-10.1852,0.000376214,-0.0032754,-0.00170029,0.00104531,-0.0039445,-0.374908,0.00303864,0.0114767,979,428,2.17501,10.1852
-238,596,2.17969,-10.3582,-0.000349406,-0.00317583,-0.00168988,0.000440307,-0.00396554,-0.437162,0.00280202,0.00993812,986,428,2.17969,10.3582
-231,596,2.15497,-10.5485,-0.00052966,-0.00278817,-0.00152307,0.000237126,-0.00355496,-0.466401,0.00245284,0.0121747,993,428,2.15496,10.5485
-224,596,2.12244,-10.7328,-0.000596812,-0.00232792,-0.00143482,0.000213309,-0.00313804,-0.513995,0.00216663,0.0127555,1000,428,2.12243,10.7329
-217,596,2.11102,-10.887,-0.000502491,-0.00187642,-0.0014469,0.00041224,-0.00279115,-0.563762,0.00201231,0.0125483,1007,428,2.11099,10.887
-210,596,2.12915,-11.0524,-0.000306709,-0.00147672,-0.00145283,0.00067447,-0.0024579,-0.593996,0.00190368,0.0102175,1014,428,2.12915,11.0524
-203,596,2.12653,-11.2206,-5.34639e-05,-0.00113881,-0.00138798,0.000894159,-0.00208644,-0.599044,0.00176614,0.0122684,1021,428,2.12655,11.2206
-196,596,2.1377,-11.383,0.000192398,-0.000706095,-0.0013341,0.00115086,-0.00166456,-0.622991,0.00163448,0.0128406,1028,428,2.13771,11.383
-189,596,2.1134,-11.5179,0.000403608,-0.000216167,-0.00134844,0.00147731,-0.00128987,-0.672453,0.00159885,0.0112008,1035,428,2.11345,11.5179
-182,596,2.10291,-11.6712,0.000654705,0.000183521,-0.00139821,0.00183703,-0.000998808,-0.701935,0.00166094,0.0110636,1042,428,2.10291,11.6712
-175,596,2.12341,-11.8226,0.000931586,0.000190299,-0.00140291,0.00201199,-0.000890104,-0.656251,0.00171675,0.0136787,1049,428,2.12346,11.8226
-168,596,2.12427,-11.9294,0.00108945,0.000223154,-0.00136246,0.00208596,-0.000773349,-0.631491,0.00170782,0.0164126,1056,428,2.12431,11.9294
-161,596,2.11157,-12.0863,0.00128493,0.000273225,-0.00141374,0.00228059,-0.000722436,-0.61359,0.00180992,0.0143368,1063,428,2.11162,12.0863
-154,596,2.09546,-12.2488,0.00157658,0.000334877,-0.00145712,0.0025396,-0.000628139,-0.584004,0.0019367,0.012233,1070,428,2.0954,12.2488
-147,596,2.13025,-12.368,0.00190833,0.00038474,-0.00151934,0.00284617,-0.000553093,-0.553015,0.00210616,0.0127844,1077,428,2.1302,12.368
-140,596,2.15784,-12.4629,0.00239219,0.000211034,-0.00173335,0.0033495,-0.000746277,-0.5046,0.00251888,0.0127628,1084,428,2.15778,12.4629
-133,596,2.1366,-12.5712,0.00278107,2.3218e-05,-0.00193111,0.00377503,-0.00097075,-0.475349,0.00289504,0.0120823,1091,428,2.13664,12.5712
-126,596,2.12183,-12.6753,0.00325713,-3.72865e-05,-0.00219856,0.00435709,-0.00113725,-0.463896,0.00334881,0.00938973,1098,428,2.12185,12.6753
-119,596,2.12927,-12.7879,0.00391808,-9.24407e-05,-0.00255073,0.0051574,-0.00133176,-0.452278,0.00395759,0.0130814,1105,428,2.1293,12.7879
-112,596,2.13733,-12.896,0.00467579,-0.000158647,-0.00291246,0.00604346,-0.00152632,-0.439027,0.00462252,0.0152635,1112,428,2.13737,12.896
-105,596,2.14856,-12.9958,0.00547564,-4.29989e-05,-0.00331451,0.00702907,-0.00159643,-0.438276,0.00529897,0.014823,1119,428,2.14851,12.9958
-98,596,2.17603,-13.0688,0.00625106,-1.58632e-06,-0.0036979,0.00796709,-0.00171762,-0.43448,0.00596692,0.0095766,1126,428,2.17605,13.0688
-91,596,2.19153,-13.1712,0.00703078,0.000324664,-0.00421385,0.00906285,-0.0017074,-0.449335,0.00668412,0.0100659,1133,428,2.19154,13.1712
-84,596,2.245,-13.3614,0.00760148,0.00052737,-0.00437388,0.00968951,-0.00156066,-0.445393,0.00703781,0.0167334,1140,428,2.24497,13.3614
-77,596,2.27966,-13.5558,0.00800442,0.000504762,-0.00432021,0.0099752,-0.00146602,-0.42798,0.00718881,0.0429505,1147,428,2.2797,13.5558
-70,596,2.36267,-13.8569,0,0,0,0,0,0,0,-1,1154,428,2.36264,13.8569
-63,596,1.95569,-12.2758,0,0,0,0,0,0,0,-1,1161,428,1.95563,12.2759
-56,596,1.60107,-10.5827,0,0,0,0,0,0,0,-1,1168,428,1.60108,10.5827
-49,596,1.59473,-10.0393,0,0,0,0,0,0,0,-1,1175,428,1.59472,10.0393
-42,596,1.99585,-6.6246,0,0,0,0,0,0,0,-1,1182,428,1.99586,6.62459
-35,596,2.01331,-13.5965,0,0,0,0,0,0,0,-1,1189,428,2.01325,13.5965
-28,596,2.18188,-13.6978,0,0,0,0,0,0,0,-1,1196,428,2.18185,13.6978
-21,596,2.32751,-13.7236,0,0,0,0,0,0,0,-1,1203,428,2.32755,13.7236
-14,596,2.46643,-13.7823,0,0,0,0,0,0,0,-1,1210,428,2.46637,13.7824
-7,596,2.74243,-13.6499,-0.00561528,-0.00361479,-0.00102561,-0.00318243,-0.00604764,-1.17184,0.00349321,0.049686,1217,428,2.74244,13.6499
0,596,2.50793,-13.9685,-0.00587428,-0.00436823,-0.0011347,-0.00375942,-0.00648309,-1.07835,0.0037589,0.0485146,1224,428,2.50796,13.9685
7,596,2.46179,-13.87,-0.0057107,-0.00532481,-0.000606617,-0.00488119,-0.00615432,-0.93937,0.00375122,0.0463599,1231,428,2.46179,13.87
14,596,2.68774,-13.6149,-0.00549863,-0.00629747,-6.95789e-05,-0.00549262,-0.00630348,-0.0862353,0.0039598,0.0437369,1238,428,2.68776,13.6149
21,596,2.8468,-13.7912,-0.00478494,-0.00822293,0.000542692,-0.00470131,-0.00830656,0.1529,0.00480969,0.0420169,1245,428,2.84681,13.7912
28,596,2.90051,-13.8929,-0.00367026,-0.010354,0.000989641,-0.00352681,-0.0104975,0.143952,0.00616848,0.0431913,1252,428,2.90051,13.8929
35,596,2.59326,-13.8257,-0.00198257,-0.0124875,0.00141174,-0.00179615,-0.0126739,0.131286,0.00791873,0.0443012,1259,428,2.59332,13.8257
42,596,2.53271,-13.9377,0.000288184,-0.0151126,0.00157968,0.000448544,-0.0152729,0.101168,0.0103347,0.044987,1266,428,2.53277,13.9377
49,596,2.23547,-13.8923,0.00246616,-0.017561,0.00161819,0.00259607,-0.0176909,0.0801071,0.0127477,0.0413764,1273,428,2.23549,13.8923
56,596,2.45801,-14.0024,0.00512225,-0.020267,0.0012975,0.00518839,-0.0203331,0.0509275,0.0155757,0.0405149,1280,428,2.45802,14.0024
63,596,2.45581,-13.7667,0.0079096,-0.0219127,0.000741584,0.00792803,-0.0219312,0.0248463,0.01786,0.0445503,1287,428,2.45577,13.7667
70,596,2.32825,-13.7362,0.00998292,-0.0223936,-0.000182986,0.00998395,-0.0223946,-0.00565158,0.019146,0.044794,1294,428,2.32829,13.7362
77,596,2.26404,-13.8625,0.0124085,-0.0221657,-0.00073213,0.012424,-0.0221812,-0.021163,0.0202423,0.0407909,1301,428,2.26408,13.8625
84,596,2.50964,-13.96,0.0152344,-0.0205637,-0.00232263,0.0153845,-0.0207138,-0.0645208,0.0209169,0.043327,1308,428,2.50965,13.96
91,596,2.97314,-13.5868,0.0167311,-0.0184546,-0.00350132,0.0170761,-0.0187996,-0.0982264,0.0207208,0.0420978,1315,428,2.97313,13.5868
98,596,3.14526,-13.386,0.0166207,-0.0153478,-0.00473446,0.0173071,-0.0160343,-0.143981,0.0192543,0.0476077,1322,428,3.14532,13.3861
105,596,3.12219,-13.4055,0.015725,-0.0119557,-0.00584594,0.016909,-0.0131397,-0.199826,0.017394,0.0468081,1329,428,3.12218,13.4055
112,596,3.07959,-13.4852,0.0148305,-0.0085598,-0.00690168,0.0167151,-0.0104444,-0.266566,0.0158192,0.0414139,1336,428,3.07953,13.4852
119,596,3.03503,-13.5347,0.0134743,-0.00476368,-0.00776725,0.0163339,-0.00762326,-0.35276,0.0141331,0.0462656,1343,428,3.03507,13.5347
126,596,2.95361,-13.4272,0.0114008,-0.000810707,-0.00846668,0.0157336,-0.00514359,-0.473009,0.0125597,0.0484641,1350,428,2.95365,13.4272
133,596,2.99414,-13.4819,0.0086628,0.00235269,-0.00881551,0.0148708,-0.00385536,-0.613551,0.0114181,0.0459856,1357,428,2.99416,13.4819
140,596,3.20374,-13.3755,0.00545021,0.00443625,-0.00905159,0.014009,-0.00412255,-0.757422,0.0109747,0.0413114,1364,428,3.20372,13.3755
147,596,3.06555,-13.2908,0.00230225,0.00585444,-0.00915268,0.0134018,-0.00524507,-0.881233,0.0111038,0.0375765,1371,428,3.0656,13.2908
154,596,2.81055,-13.2449,-0.00030303,0.00635678,-0.00922628,0.0128357,-0.00678193,-0.958581,0.0115046,0.0425432,1378,428,2.81055,13.2449
161,596,2.79041,-13.1628,-0.00272948,0.00669486,-0.00914488,0.0122702,-0.00830485,-1.0233,0.0119523,0.0447071,1385,428,2.79042,13.1628
168,596,3.18359,-13.1894,0,0,0,0,0,0,0,-1,1392,428,3.18364,13.1894
175,596,3.36096,-13.0352,0,0,0,0,0,0,0,-1,1399,428,3.36092,13.0352
182,596,3.40125,-13.0945,0,0,0,0,0,0,0,-1,1406,428,3.40119,13.0945
189,596,3.37634,-12.9805,0,0,0,0,0,0,0,-1,1413,428,3.37629,12.9805
196,596,3.30005,-12.7429,0,0,0,0,0,0,0,-1,1420,428,3.30003,12.7429
203,596,3.22607,-12.8392,0,0,0,0,0,0,0,-1,1427,428,3.2261,12.8392
210,596,3.26233,-12.8598,0.000106288,-0.00146438,-0.0016711,0.00116739,-0.00252548,-0.565737,0.00217961,0.0438587,1434,428,3.26232,12.8598
217,596,3.24231,-12.6833,0.000115569,0.000474568,-0.00209009,0.00239285,-0.00180272,-0.828234,0.00243029,0.0149759,1441,428,3.24231,12.6833
224,596,3.26074,-12.5595,0.000143079,0.00134012,-0.00162441,0.00247276,-0.000989563,-0.961908,0.00205921,0.0117328,1448,428,3.26073,12.5595
231,596,3.276,-12.4202,0.00027934,0.00203608,-0.00119817,0.00264335,-0.000327934,-1.10169,0.0018811,0.0116309,1455,428,3.27603,12.4202
238,596,3.26367,-12.2756,0.000486094,0.00242118,-0.000874839,0.00275805,0.000149228,-1.20324,0.00179103,0.0140294,1462,428,3.26373,12.2756
245,596,3.28601,-12.1604,0.000718308,0.00273138,-0.000560249,0.0028768,0.000572892,-1.31684,0.00175829,0.0134949,1469,428,3.28603,12.1604
252,596,3.32532,-12.0514,0.000853702,0.00288053,-0.000319675,0.00292975,0.000804478,-1.41801,0.00174785,0.0106689,1476,428,3.32531,12.0514
259,596,3.32361,-11.9176,0.000919033,0.00284183,-0.00010002,0.00284702,0.000913844,-1.51896,0.00167848,0.00864744,1483,428,3.32355,11.9176
266,596,3.30542,-11.7715,0.000975753,0.00264542,7.47981e-05,0.00264877,0.000972409,1.52612,0.00154716,0.00924842,1490,428,3.30541,11.7715
273,596,3.32813,-11.6078,0.000961717,0.00247909,0.000269323,0.00252548,0.000915332,1.40024,0.00147636,0.0110259,1497,428,3.3281,11.6078
280,596,3.33862,-11.4507,0.000906946,0.00218525,0.000509486,0.00236346,0.000728729,1.2343,0.00139757,0.0122614,1504,428,3.33859,11.4506
287,596,3.34875,-11.3105,0.0008073,0.00189542,0.000763575,0.00228894,0.000413784,1.09494,0.00140844,0.0112779,1511,428,3.34876,11.3105
294,596,3.33582,-11.1609,0.000632466,0.00161354,0.00106245,0.00229323,-4.72263e-05,1.00167,0.0015448,0.00929588,1518,428,3.33586,11.1609
301,596,3.32117,-10.9943,0.000331425,0.00128472,0.00140876,0.00229528,-0.000679143,0.948525,0.0017998,0.0101964,1525,428,3.3212,10.9943
308,596,3.36206,-10.8477,6.25586e-05,0.00113664,0.00182358,0.00250061,-0.00130141,0.928599,0.0022312,0.0152681,1532,428,3.36211,10.8477
315,596,3.35071,-10.674,-0.00016659,0.00106851,0.0022087,0.00274437,-0.00184245,0.921716,0.00266521,0.0159821,1539,428,3.35069,10.674
322,596,3.33179,-10.4699,-0.00042691,0.00113801,0.00256887,0.00304094,-0.00232984,0.933231,0.00310987,0.0132413,1546,428,3.33177,10.4699
329,596,3.31433,-10.2906,-0.000777646,0.00136541,0.00286281,0.00335066,-0.00276289,0.964473,0.00353509,0.0102218,1553,428,3.31433,10.2906
336,596,3.30359,-10.1227,-0.00133924,0.00165782,0.00287268,0.00339934,-0.00308075,1.02581,0.00374279,0.00878813,1560,428,3.30356,10.1227
343,596,3.31628,-9.95303,-0.00186672,0.00195207,0.00276087,0.00339948,-0.00331414,1.08793,0.00387621,0.0110944,1567,428,3.31626,9.95303
350,596,3.32788,-9.74551,-0.0023152,0.00250398,0.0026695,0.00369055,-0.00350177,1.15253,0.00415296,0.0118166,1574,428,3.32786,9.74552
357,596,3.31995,-9.54004,-0.00292718,0.00312377,0.00244566,0.00398864,-0.00379205,1.23089,0.00449266,0.00951688,1581,428,3.31999,9.54004
364,596,3.30725,-9.33365,-0.00370017,0.00390255,0.0020816,0.00443517,-0.00423279,1.3203,0.0050049,0.00895738,1588,428,3.30727,9.33365
371,596,3.30432,-9.12845,-0.00433002,0.00477879,0.00138385,0.00498439,-0.00453562,1.4233,0.00549842,0.00985068,1595,428,3.30436,9.12844
378,596,3.28955,-8.92435,-0.00504617,0.00509985,0.00055373,0.00512998,-0.0050763,1.51644,0.00589263,0.0136951,1602,428,3.2896,8.92435
385,596,3.26379,-8.65585,-0.00594014,0.00580374,-0.000220276,0.00580787,-0.00594427,-1.55205,0.00678525,0.0233861,1609,428,3.26382,8.65586
392,596,3.15869,-8.45901,-0.00613703,0.00617328,-0.000751832,0.00621903,-0.00618277,-1.51002,0.00716019,0.0352733,1616,428,3.15865,8.45902
399,596,3.07141,-8.30615,0,0,0,0,0,0,0,-1,1623,428,3.07142,8.30614
406,596,2.42261,-6.35526,0,0,0,0,0,0,0,-1,1630,428,2.42257,6.35526
413,596,3.39124,-2.63528,0,0,0,0,0,0,0,-1,1637,428,3.39122,2.6353
420,596,2.6344,-3.06308,0,0,0,0,0,0,0,-1,1644,428,2.63439,3.06308
427,596,2.99329,-1.90512,0,0,0,0,0,0,0,-1,1651,428,2.99327,1.90512
434,596,3.80896,-0.253998,0,0,0,0,0,0,0,-1,1658,428,3.80902,0.254004
441,596,3.86401,-0.131622,0,0,0,0,0,0,0,-1,1665,428,3.86406,0.131613
448,596,1.0769,0.0083313,0,0,0,0,0,0,0,-1,1672,428,1.07684,-0.00832231
455,596,2.00769,-1.43329,0,0,0,0,0,0,0,-1,1679,428,2.00765,1.4333
462,596,0,0,0,0,0,0,0,0,0,-1,1686,428,0,0
469,596,0,0,0,0,0,0,0,0,0,-1,1693,428,0,0
476,596,0,0,0,0,0,0,0,0,0,-1,1700,428,0,0
483,596,0,0,0,0,0,0,0,0,0,-1,1707,428,0,0
490,596,0,0,0,0,0,0,0,0,0,-1,1714,428,0,0
497,596,0,0,0,0,0,0,0,0,0,-1,1721,428,0,0
504,596,0,0,0,0,0,0,0,0,0,-1,1728,428,0,0
511,596,0,0,0,0,0,0,0,0,0,-1,1735,428,0,0
518,596,0,0,0,0,0,0,0,0,0,-1,1742,428,0,0
525,596,0,0,0,0,0,0,0,0,0,-1,1749,428,0,0
532,596,0,0,0,0,0,0,0,0,0,-1,1756,428,0,0
539,596,0,0,0,0,0,0,0,0,0,-1,1763,428,0,0
546,596,0,0,0,0,0,0,0,0,0,-1,1770,428,0,0
553,596,0,0,0,0,0,0,0,0,0,-1,1777,428,0,0
560,596,0,0,0,0,0,0,0,0,0,-1,1784,428,0,0
567,596,0,0,0,0,0,0,0,0,0,-1,1791,428,0,0
574,596,0,0,0,0,0,0,0,0,0,-1,1798,428,0,0
581,596,0,0,0,0,0,0,0,0,0,-1,1805,428,0,0
588,596,0,0,0,0,0,0,0,0,0,-1,1812,428,0,0
595,596,0,0,0,0,0,0,0,0,0,-1,1819,428,0,0
602,596,0,0,0,0,0,0,0,0,0,-1,1826,428,0,0
609,596,0,0,0,0,0,0,0,0,0,-1,1833,428,0,0
616,596,0,0,0,0,0,0,0,0,0,-1,1840,428,0,0
623,596,0,0,0,0,0,0,0,0,0,-1,1847,428,0,0
630,596,0,0,0,0,0,0,0,0,0,-1,1854,428,0,0
637,596,0,0,0,0,0,0,0,0,0,-1,1861,428,0,0
644,596,0,0,0,0,0,0,0,0,0,-1,1868,428,0,0
651,596,0,0,0,0,0,0,0,0,0,-1,1875,428,0,0
658,596,0,0,0,0,0,0,0,0,0,-1,1882,428,0,0
665,596,0,0,0,0,0,0,0,0,0,-1,1889,428,0,0
672,596,0,0,0,0,0,0,0,0,0,-1,1896,428,0,0
679,596,0,0,0,0,0,0,0,0,0,-1,1903,428,0,0
686,596,0,0,0,0,0,0,0,0,0,-1,1910,428,0,0
693,596,0,0,0,0,0,0,0,0,0,-1,1917,428,0,0
700,596,0,0,0,0,0,0,0,0,0,-1,1924,428,0,0
707,596,0,0,0,0,0,0,0,0,0,-1,1931,428,0,0
714,596,0,0,0,0,0,0,0,0,0,-1,1938,428,0,0
721,596,0,0,0,0,0,0,0,0,0,-1,1945,428,0,0
728,596,0,0,0,0,0,0,0,0,0,-1,1952,428,0,0
735,596,0,0,0,0,0,0,0,0,0,-1,1959,428,0,0
742,596,0,0,0,0,0,0,0,0,0,-1,1966,428,0,0
749,596,0,0,0,0,0,0,0,0,0,-1,1973,428,0,0
756,596,0,0,0,0,0,0,0,0,0,-1,1980,428,0,0
763,596,0,0,0,0,0,0,0,0,0,-1,1987,428,0,0
770,596,0,0,0,0,0,0,0,0,0,-1,1994,428,0,0
777,596,0,0,0,0,0,0,0,0,0,-1,2001,428,0,0
784,596,0,0,0,0,0,0,0,0,0,-1,2008,428,0,0
791,596,0,0,0,0,0,0,0,0,0,-1,2015,428,0,0
798,596,0,0,0,0,0,0,0,0,0,-1,2022,428,0,0
805,596,0,0,0,0,0,0,0,0,0,-1,2029,428,0,0
812,596,0,0,0,0,0,0,0,0,0,-1,2036,428,0,0
-700,589,0,0,0,0,0,0,0,0,0,-1,524,435,0,0
-693,589,0,0,0,0,0,0,0,0,0,-1,531,435,0,0
-686,589,0,0,0,0,0,0,0,0,0,-1,538,435,0,0
-679,589,0,0,0,0,0,0,0,0,0,-1,545,435,0,0
-672,589,0,0,0,0,0,0,0,0,0,-1,552,435,0,0
-665,589,0,0,0,0,0,0,0,0,0,-1,559,435,0,0
-658,589,0,0,0,0,0,0,0,0,0,-1,566,435,0,0
-651,589,0,0,0,0,0,0,0,0,0,-1,573,435,0,0
-644,589,0,0,0,0,0,0,0,0,0,-1,580,435,0,0
-637,589,0,0,0,0,0,0,0,0,0,-1,587,435,0,0
-630,589,0,0,0,0,0,0,0,0,0,-1,594,435,0,0
-623,589,0,0,0,0,0,0,0,0,0,-1,601,435,0,0
-616,589,0,0,0,0,0,0,0,0,0,-1,608,435,0,0
-609,589,0,0,0,0,0,0,0,0,0,-1,615,435,0,0
-602,589,0,0,0,0,0,0,0,0,0,-1,622,435,0,0
-595,589,0,0,0,0,0,0,0,0,0,-1,629,435,0,0
-588,589,0,0,0,0,0,0,0,0,0,-1,636,435,0,0
-581,589,0,0,0,0,0,0,0,0,0,-1,643,435,0,0
-574,589,0,0,0,0,0,0,0,0,0,-1,650,435,0,0
-567,589,0,0,0,0,0,0,0,0,0,-1,657,435,0,0
-560,589,0,0,0,0,0,0,0,0,0,-1,664,435,0,0
-553,589,0,0,0,0,0,0,0,0,0,-1,671,435,0,0
-546,589,0,0,0,0,0,0,0,0,0,-1,678,435,0,0
-539,589,0,0,0,0,0,0,0,0,0,-1,685,435,0,0
-532,589,0,0,0,0,0,0,0,0,0,-1,692,435,0,0
-525,589,0,0,0,0,0,0,0,0,0,-1,699,435,0,0
-518,589,0,0,0,0,0,0,0,0,0,-1,706,435,0,0
-511,589,0,0,0,0,0,0,0,0,0,-1,713,435,0,0
-504,589,0,0,0,0,0,0,0,0,0,-1,720,435,0,0
-497,589,0,0,0,0,0,0,0,0,0,-1,727,435,0,0
-490,589,0,0,0,0,0,0,0,0,0,-1,734,435,0,0
-483,589,0,0,0,0,0,0,0,0,0,-1,741,435,0,0
-476,589,0,0,0,0,0,0,0,0,0,-1,748,435,0,0
-469,589,0,0,0,0,0,0,0,0,0,-1,755,435,0,0
-462,589,0,0,0,0,0,0,0,0,0,-1,762,435,0,0
-455,589,0,0,0,0,0,0,0,0,0,-1,769,435,0,0
-448,589,0,0,0,0,0,0,0,0,0,-1,776,435,0,0
-441,589,0,0,0,0,0,0,0,0,0,-1,783,435,0,0
-434,589,0,0,0,0,0,0,0,0,0,-1,790,435,0,0
-427,589,0,0,0,0,0,0,0,0,0,-1,797,435,0,0
-420,589,0,0,0,0,0,0,0,0,0,-1,804,435,0,0
-413,589,0,0,0,0,0,0,0,0,0,-1,811,435,0,0
-406,589,0,0,0,0,0,0,0,0,0,-1,818,435,0,0
-399,589,0,0,0,0,0,0,0,0,0,-1,825,435,0,0
-392,589,0,0,0,0,0,0,0,0,0,-1,832,435,0,0
-385,589,0,0,0,0,0,0,0,0,0,-1,839,435,0,0
-378,589,0,0,0,0,0,0,0,0,0,-1,846,435,0,0
-371,589,0,0,0,0,0,0,0,0,0,-1,853,435,0,0
-364,589,0,0,0,0,0,0,0,0,0,-1,860,435,0,0
-357,589,0,0,0,0,0,0,0,0,0,-1,867,435,0,0
-350,589,-0.262695,-13.5742,0,0,0,0,0,0,0,-1,874,435,-0.262715,13.5742
-343,589,0.187195,-13.2853,0,0,0,0,0,0,0,-1,881,435,0.187181,13.2853
-336,589,0.677856,-12.7685,0,0,0,0,0,0,0,-1,888,435,0.677838,12.7685
-329,589,0.0882568,-9.79782,0,0,0,0,0,0,0,-1,895,435,0.0882795,9.79781
-322,589,2.35541,-7.75186,0,0,0,0,0,0,0,-1,902,435,2.35544,7.75185
-315,589,1.46716,-7.46674,0,0,0,0,0,0,0,-1,909,435,1.46716,7.46675
-308,589,2.20892,-9.41675,0,0,0,0,0,0,0,-1,916,435,2.20895,9.41674
-301,589,1.76233,-8.51538,0,0,0,0,0,0,0,-1,923,435,1.76235,8.51538
-294,589,1.81714,-8.74338,0.00922371,0.00467117,-0.00992079,0.017126,-0.00323114,-0.672628,0.0126329,0.0477951,930,435,1.81714,8.74339
-287,589,1.91315,-8.97437,0.00795294,0.00251808,-0.0080684,0.0137492,-0.00327821,-0.622965,0.010432,0.0413667,937,435,1.91312,8.97437
-280,589,2.01373,-9.2002,0.00639358,0.000991856,-0.00631704,0.0105629,-0.00317748,-0.583383,0.00830623,0.0296438,944,435,2.01374,9.20021
-273,589,2.07117,-9.43085,0.00497934,-6.07129e-05,-0.00503737,0.00809186,-0.00317323,-0.553468,0.00670738,0.0190283,951,435,2.07115,9.43084
-266,589,2.05499,-9.63113,0.0038276,-0.00140362,-0.0037967,0.00582245,-0.00339846,-0.483773,0.00538466,0.0169376,958,435,2.055,9.63115
-259,589,2.02246,-9.81128,0.00252795,-0.00209415,-0.0026821,0.00375732,-0.00332352,-0.429787,0.00409068,0.0151318,965,435,2.02249,9.81127
-252,589,2.01166,-10.0122,0.00148309,-0.00219479,-0.00199088,0.00235437,-0.00306607,-0.412525,0.00313847,0.0097296,972,435,2.01163,10.0122
-245,589,2.01477,-10.1865,0.000463346,-0.00216412,-0.00138619,0.00105943,-0.0027602,-0.406114,0.00227698,0.00914332,979,435,2.01476,10.1865
-238,589,2.01764,-10.3811,-6.51198e-05,-0.00220251,-0.00128479,0.000537348,-0.00280498,-0.438479,0.00207245,0.012469,986,435,2.01766,10.3811
-231,589,1.98846,-10.5509,-0.000177233,-0.00206119,-0.00112455,0.000347734,-0.00258616,-0.436757,0.00185094,0.0143424,993,435,1.98849,10.5509
-224,589,1.96918,-10.7329,-0.000153263,-0.00182949,-0.00102429,0.000332101,-0.00231486,-0.442515,0.00166502,0.0147638,1000,435,1.96919,10.7329
-217,589,1.97223,-10.9095,9.89686e-06,-0.00158298,-0.000997938,0.000490248,-0.00206333,-0.448612,0.00156478,0.0155211,1007,435,1.97224,10.9095
-210,589,1.97668,-11.0632,0.000263225,-0.00138762,-0.000989266,0.0007262,-0.0018506,-0.437721,0.0015342,0.0135957,1014,435,1.97669,11.0632
-203,589,1.9765,-11.2061,0.000587677,-0.00114025,-0.000974861,0.00102632,-0.00157889,-0.422817,0.00151536,0.00940879,1021,435,1.97652,11.2061
-196,589,1.95703,-11.3569,0.000924186,-0.000828003,-0.000966993,0.00135294,-0.00125675,-0.417338,0.00150704,0.0118232,1028,435,1.95708,11.3569
-189,589,1.94617,-11.5178,0.00122461,-0.000436804,-0.001055,0.00173669,-0.000948891,-0.451893,0.0015726,0.0160071,1035,435,1.94615,11.5178
-182,589,1.9624,-11.6489,0.00155248,-5.44695e-05,-0.00119911,0.00219241,-0.000694405,-0.490224,0.0017399,0.0126339,1042,435,1.9624,11.6489
-175,589,1.98132,-11.7911,0.00187429,1.93417e-05,-0.00132125,0.0025611,-0.000667464,-0.479375,0.00196798,0.0159788,1049,435,1.98137,11.7911
-168,589,1.995,-11.9398,0.00209005,0.000135184,-0.00142988,0.00284465,-0.000619411,-0.485588,0.00213309,0.0131642,1056,435,1.99497,11.9398
-161,589,1.98267,-12.0912,0.00232494,0.000226494,-0.00161465,0.00320133,-0.000649892,-0.497276,0.00238061,0.0119788,1063,435,1.9827,12.0913
-154,589,1.96814,-12.2254,0.00263354,0.000329538,-0.00179747,0.00361648,-0.000653407,-0.500422,0.00265572,0.0120112,1070,435,1.96818,12.2254
-147,589,2.00208,-12.3386,0.00302908,0.000406504,-0.00199508,0.00410522,-0.000669641,-0.494667,0.00298517,0.0119283,1077,435,2.0021,12.3386
-140,589,2.02917,-12.4361,0.00355651,0.000209398,-0.00234923,0.00476734,-0.00100143,-0.475903,0.00355931,0.0135181,1084,435,2.02922,12.4361
-133,589,2.0177,-12.5544,0.00404773,-9.9422e-06,-0.00270076,0.00539681,-0.00135902,-0.463261,0.00412617,0.0122075,1091,435,2.0177,12.5544
-126,589,2.0249,-12.6813,0.00466639,-8.02956e-05,-0.00304139,0.00615088,-0.00156478,-0.454077,0.00470964,0.0098514,1098,435,2.02491,12.6813
-119,589,2.0127,-12.795,0.00546563,-0.000236405,-0.00348481,0.00711708,-0.00188786,-0.44255,0.00548342,0.0163973,1105,435,2.01269,12.795
-112,589,2.02942,-12.896,0.00640757,-0.00042209,-0.00398217,0.00823857,-0.00225309,-0.430974,0.00637749,0.0176851,1112,435,2.02939,12.896
-105,589,2.05481,-13.0229,0.00743425,-0.00036574,-0.00452937,0.00951131,-0.0024428,-0.429962,0.00729281,0.0173742,1119,435,2.05479,13.0229
-98,589,2.09888,-13.0919,0.00849184,-0.000452622,-0.00502751,0.0107484,-0.00270919,-0.421892,0.00821887,0.0180425,1126,435,2.09886,13.0919
-91,589,2.16516,-13.165,0.00965131,-9.93294e-05,-0.00575987,0.0123222,-0.00277019,-0.434189,0.00927708,0.024976,1133,435,2.16515,13.165
-84,589,2.25574,-13.3373,0.0105496,0.000185596,-0.00601183,0.0133045,-0.00256936,-0.429698,0.00983862,0.0410861,1140,435,2.25578,13.3373
-77,589,2.33411,-13.6418,0,0,0,0,0,0,0,-1,1147,435,2.33414,13.6417
-70,589,1.48267,-9.90961,0,0,0,0,0,0,0,-1,1154,435,1.48264,9.9096
-63,589,0.880127,-5.50586,0,0,0,0,0,0,0,-1,1161,435,0.880186,5.50587
-56,589,-2.78052,-7.28082,0,0,0,0,0,0,0,-1,1168,435,-2.78053,7.28082
-49,589,-0.525757,-2.76703,0,0,0,0,0,0,0,-1,1175,435,-0.525771,2.76702
-42,589,-2.7738,-2.87921,0,0,0,0,0,0,0,-1,1182,435,-2.77383,2.87922
-35,589,-2.55225,-3.27551,0,0,0,0,0,0,0,-1,1189,435,-2.55223,3.27552
-28,589,-0.0632324,-3.42938,0,0,0,0,0,0,0,-1,1196,435,-0.063241,3.42938
-21,589,2.03931,-12.8662,0,0,0,0,0,0,0,-1,1203,435,2.03928,12.8662
-14,589,2.2207,-13.0023,0,0,0,0,0,0,0,-1,1210,435,2.22073,13.0023
-7,589,2.94397,-13.4338,0,0,0,0,0,0,0,-1,1217,435,2.94397,13.4338
0,589,2.61987,-14.0202,0,0,0,0,0,0,0,-1,1224,435,2.61983,14.0202
7,589,2.51282,-13.8748,0,0,0,0,0,0,0,-1,1231,435,2.51278,13.8747
14,589,2.75757,-13.4082,0,0,0,0,0,0,0,-1,1238,435,2.75756,13.4082
21,589,2.82129,-13.7668,-0.00708527,-0.0087564,0.00111841,-0.00652477,-0.00931691,0.464576,0.00552114,0.0446638,1245,435,2.8213,13.7668
28,589,2.68396,-13.7779,-0.00549408,-0.0117226,0.00158824,-0.00511246,-0.0121042,0.235805,0.00701637,0.0457346,1252,435,2.68393,13.7779
35,589,2.61047,-13.7514,-0.00332802,-0.0147385,0.00194105,-0.00300687,-0.0150597,0.163969,0.00920273,0.047745,1259,435,2.61045,13.7514
42,589,2.46362,-13.9125,0,0,0,0,0,0,0,-1,1266,435,2.46364,13.9125
49,589,1.75354,-13.7824,0.00262033,-0.0214457,0.00178225,0.0027516,-0.021577,0.0735223,0.0153841,0.0450899,1273,435,1.75358,13.7824
56,589,2.04224,-14.1037,0.00619437,-0.0248619,0.00116939,0.00623834,-0.0249059,0.0375829,0.0190274,0.0433591,1280,435,2.04218,14.1037
63,589,2.28784,-13.6543,0.0100154,-0.0269614,0.00031566,0.0100181,-0.0269641,0.00853587,0.0220862,0.0438451,1287,435,2.28781,13.6543
70,589,2.28906,-13.5043,0.0128678,-0.027518,-0.00103448,0.0128943,-0.0275445,-0.0255925,0.0238526,0.0438469,1294,435,2.28902,13.5043
77,589,2.27307,-13.5691,0.0161464,-0.0270008,-0.00182029,0.0162231,-0.0270775,-0.0420883,0.02526,0.041124,1301,435,2.27308,13.5691
84,589,2.24512,-13.8007,0.0199535,-0.0246453,-0.00390896,0.0202935,-0.0249853,-0.0867658,0.0261885,0.0422387,1308,435,2.24516,13.8007
91,589,3.43066,-12.5742,0.0219729,-0.0216552,-0.00541576,0.0226351,-0.0223174,-0.121675,0.0259536,0.0404002,1315,435,3.43069,12.5742
98,589,2.83777,-13.132,0.0218732,-0.0173997,-0.00693244,0.023061,-0.0185875,-0.16969,0.0240919,0.0424697,1322,435,2.83781,13.132
105,589,3.17908,-13.2456,0,0,0,0,0,0,0,-1,1329,435,3.17912,13.2456
112,589,3.1178,-13.3424,0.0198575,-0.00824187,-0.00969658,0.0228787,-0.0112631,-0.302047,0.0200885,0.0435417,1336,435,3.11786,13.3424
119,589,3.11975,-13.299,0.0180387,-0.00318131,-0.0107614,0.022541,-0.00768354,-0.396241,0.0181393,0.0451818,1343,435,3.11974,13.299
126,589,3.09851,-13.1003,0,0,0,0,0,0,0,-1,1350,435,3.09856,13.1003
133,589,3.18616,-13.1469,0.0114408,0.00631462,-0.0121388,0.0212842,-0.00352876,-0.681352,0.0155002,0.0459149,1357,435,3.1861,13.1469
140,589,3.2312,-13.0684,0.00704337,0.00908228,-0.0124777,0.0205821,-0.00445649,-0.826159,0.0154231,0.0447082,1364,435,3.23123,13.0684
147,589,3.25781,-12.9676,0.00259758,0.0108299,-0.0127582,0.0201196,-0.00669205,-0.941441,0.0161138,0.0474484,1371,435,3.25783,12.9676
154,589,2.69031,-12.9557,-0.00136219,0.0114834,-0.0130107,0.0195703,-0.00944907,-1.01468,0.0170906,0.0443838,1378,435,2.6903,12.9557
161,589,2.62231,-12.895,-0.00476628,0.011967,-0.0130336,0.0190883,-0.0118875,-1.07074,0.0180442,0.0447441,1385,435,2.62231,12.8949
168,589,2.76904,-12.7765,0,0,0,0,0,0,0,-1,1392,435,2.76906,12.7765
175,589,8.66992,-7.65527,0,0,0,0,0,0,0,-1,1399,435,8.66994,7.65528
182,589,3.8136,-2.45389,0,0,0,0,0,0,0,-1,1406,435,3.81363,2.4539
189,589,3.69983,-3.68149,0,0,0,0,0,0,0,-1,1413,435,3.69987,3.68147
196,589,3.31055,-5.31677,0,0,0,0,0,0,0,-1,1420,435,3.31059,5.31678
203,589,2.72559,-8.84338,0,0,0,0,0,0,0,-1,1427,435,2.72558,8.84338
210,589,3.52295,-12.7792,0,0,0,0,0,0,0,-1,1434,435,3.523,12.7792
217,589,3.43628,-12.5698,-0.000104783,0.000680345,-0.00278288,0.00309821,-0.00252265,-0.855468,0.00325087,0.0371205,1441,435,3.43633,12.5698
224,589,3.41077,-12.5616,3.90631e-06,0.00185578,-0.00220539,0.00332172,-0.00146203,-0.98415,0.00283062,0.0217914,1448,435,3.4108,12.5616
231,589,3.41077,-12.4614,0.00022404,0.00274266,-0.00169019,0.00359109,-0.000624397,-1.10557,0.00262705,0.0195746,1455,435,3.41078,12.4614
238,589,3.3855,-12.3271,0.000510707,0.00311068,-0.00135804,0.00369064,-6.92621e-05,-1.16718,0.00248384,0.0218382,1462,435,3.38546,12.327
245,589,3.38831,-12.1263,0.000841668,0.00339373,-0.00101778,0.00374992,0.000485484,-1.23416,0.00235486,0.0206611,1469,435,3.38835,12.1263
252,589,3.45642,-12.025,0.000993411,0.00343448,-0.000782072,0.00366354,0.000764345,-1.28587,0.00223165,0.0137689,1476,435,3.45638,12.025
259,589,3.46399,-11.9223,0.00102677,0.00324604,-0.000583716,0.00339021,0.000882602,-1.32866,0.0020309,0.00976419,1483,435,3.46403,11.9223
266,589,3.4668,-11.7659,0.00111763,0.00290548,-0.000501439,0.00303652,0.000986591,-1.31519,0.0017886,0.00938067,1490,435,3.4668,11.7659
273,589,3.4834,-11.6176,0.00112623,0.00249258,-0.000420504,0.00261162,0.00100719,-1.29492,0.00152091,0.0115509,1497,435,3.48337,11.6176
280,589,3.49072,-11.4697,0.00106047,0.00204181,-0.000289147,0.00212067,0.00098161,-1.30454,0.00122549,0.0124226,1504,435,3.49074,11.4697
287,589,3.50427,-11.33,0.000979194,0.00160477,-0.000146636,0.00163743,0.000946528,-1.35161,0.000949206,0.0108681,1511,435,3.50421,11.3301
294,589,3.50586,-11.1604,0.00080876,0.0011755,4.90805e-05,0.00118195,0.000802305,1.44003,0.000696792,0.01053,1518,435,3.50584,11.1604
301,589,3.49695,-10.9854,0.000513293,0.000723396,0.00029726,0.000933621,0.000303068,0.955248,0.000549969,0.0112239,1525,435,3.49701,10.9854
308,589,3.51587,-10.8226,0.000257596,0.000487936,0.000596833,0.000980609,-0.000235077,0.880711,0.000744573,0.0106232,1532,435,3.51592,10.8226
315,589,3.5116,-10.6546,7.07626e-05,0.000397951,0.000891138,0.00114039,-0.000671673,0.876177,0.00105779,0.0105082,1539,435,3.51154,10.6546
322,589,3.50281,-10.4846,-0.000147701,0.000449304,0.00119243,0.00138002,-0.00107842,0.908044,0.00142294,0.0110431,1546,435,3.50283,10.4846
329,589,3.50623,-10.3035,-0.000417684,0.000635887,0.00146749,0.00166828,-0.00145008,0.95772,0.00180185,0.00971078,1553,435,3.50617,10.3035
336,589,3.50464,-10.1297,-0.000813619,0.000937799,0.00157267,0.00186213,-0.00173795,1.03943,0.00207892,0.0089844,1560,435,3.50461,10.1297
343,589,3.49634,-9.96555,-0.00120662,0.00126586,0.00159267,0.00204577,-0.00198653,1.11543,0.00232814,0.0107503,1567,435,3.4963,9.96554
350,589,3.48889,-9.75391,-0.00153554,0.00177485,0.00162202,0.00243712,-0.00219781,1.18316,0.00267717,0.0166032,1574,435,3.48887,9.75391
357,589,3.50745,-9.54608,-0.00195794,0.00233505,0.00156188,0.00284315,-0.00246605,1.25628,0.00306784,0.0132827,1581,435,3.50751,9.54608
364,589,3.50525,-9.3403,-0.00248671,0.00301791,0.00140158,0.00335423,-0.00282303,1.33529,0.00357084,0.0106869,1588,435,3.50526,9.34031
371,589,3.48767,-9.14059,-0.0029335,0.00372338,0.00103912,0.00388181,-0.00309194,1.41949,0.00403489,0.0113144,1595,435,3.48772,9.14061
378,589,3.48364,-8.94345,-0.00342432,0.00408288,0.000600244,0.00413057,-0.00347201,1.49151,0.00439484,0.0124867,1602,435,3.48364,8.94344
385,589,3.47339,-8.7287,-0.00393646,0.00454143,0.000118991,0.0045431,-0.00393813,1.55676,0.00490079,0.0143003,1609,435,3.47343,8.72869
392,589,3.45093,-8.50406,-0.00391616,0.00468505,-0.000150007,0.00468766,-0.00391877,-1.55336,0.00497553,0.0164041,1616,435,3.45093,8.50406
399,589,3.45178,-8.22266,-0.00378544,0.0047667,-0.000142778,0.00476908,-0.00378783,-1.55411,0.00495115,0.0245032,1623,435,3.45174,8.22265
406,589,3.45374,-8.01193,0,0,0,0,0,0,0,-1,1630,435,3.45376,8.01195
413,589,3.40698,-7.72119,0,0,0,0,0,0,0,-1,1637,435,3.40696,7.72119
420,589,2.79724,-5.79956,0,0,0,0,0,0,0,-1,1644,435,2.7973,5.79955
427,589,2.87976,-5.28177,0,0,0,0,0,0,0,-1,1651,435,2.87972,5.28177
434,589,2.52734,-2.73029,0,0,0,0,0,0,0,-1,1658,435,2.52736,2.73029
441,589,3.17639,-2.02435,0,0,0,0,0,0,0,-1,1665,435,3.17643,2.02435
448,589,0.453735,-3.2868,0,0,0,0,0,0,0,-1,1672,435,0.453701,3.28681
455,589,0.664307,-3.46848,0,0,0,0,0,0,0,-1,1679,435,0.66425,3.46846
462,589,3.46716,-4.41891,0,0,0,0,0,0,0,-1,1686,435,3.4672,4.41891
469,589,0.0238037,-3.81497,0,0,0,0,0,0,0,-1,1693,435,0.0237965,3.81498
476,589,0,0,0,0,0,0,0,0,0,-1,1700,435,0,0
483,589,0,0,0,0,0,0,0,0,0,-1,1707,435,0,0
490,589,0,0,0,0,0,0,0,0,0,-1,1714,435,0,0
497,589,0,0,0,0,0,0,0,0,0,-1,1721,435,0,0
504,589,0,0,0,0,0,0,0,0,0,-1,1728,435,0,0
511,589,0,0,0,0,0,0,0,0,0,-1,1735,435,0,0
518,589,0,0,0,0,0,0,0,0,0,-1,1742,435,0,0
525,589,0,0,0,0,0,0,0,0,0,-1,1749,435,0,0
532,589,0,0,0,0,0,0,0,0,0,-1,1756,435,0,0
539,589,0,0,0,0,0,0,0,0,0,-1,1763,435,0,0
546,589,0,0,0,0,0,0,0,0,0,-1,1770,435,0,0
553,589,0,0,0,0,0,0,0,0,0,-1,1777,435,0,0
560,589,0,0,0,0,0,0,0,0,0,-1,1784,435,0,0
567,589,0,0,0,0,0,0,0,0,0,-1,1791,435,0,0
574,589,0,0,0,0,0,0,0,0,0,-1,1798,435,0,0
581,589,0,0,0,0,0,0,0,0,0,-1,1805,435,0,0
588,589,0,0,0,0,0,0,0,0,0,-1,1812,435,0,0
595,589,0,0,0,0,0,0,0,0,0,-1,1819,435,0,0
602,589,0,0,0,0,0,0,0,0,0,-1,1826,435,0,0
609,589,0,0,0,0,0,0,0,0,0,-1,1833,435,0,0
616,589,0,0,0,0,0,0,0,0,0,-1,1840,435,0,0
623,589,0,0,0,0,0,0,0,0,0,-1,1847,435,0,0
630,589,0,0,0,0,0,0,0,0,0,-1,1854,435,0,0
637,589,0,0,0,0,0,0,0,0,0,-1,1861,435,0,0
644,589,0,0,0,0,0,0,0,0,0,-1,1868,435,0,0
651,589,0,0,0,0,0,0,0,0,0,-1,1875,435,0,0
658,589,0,0,0,0,0,0,0,0,0,-1,1882,435,0,0
665,589,0,0,0,0,0,0,0,0,0,-1,1889,435,0,0
672,589,0,0,0,0,0,0,0,0,0,-1,1896,435,0,0
679,589,0,0,0,0,0,0,0,0,0,-1,1903,435,0,0
686,589,0,0,0,0,0,0,0,0,0,-1,1910,435,0,0
693,589,0,0,0,0,0,0,0,0,0,-1,1917,435,0,0
700,589,0,0,0,0,0,0,0,0,0,-1,1924,435,0,0
707,589,0,0,0,0,0,0,0,0,0,-1,1931,435,0,0
714,589,0,0,0,0,0,0,0,0,0,-1,1938,435,0,0
721,589,0,0,0,0,0,0,0,0,0,-1,1945,435,0,0
728,589,0,0,0,0,0,0,0,0,0,-1,1952,435,0,0
735,589,0,0,0,0,0,0,0,0,0,-1,1959,435,0,0
742,589,0,0,0,0,0,0,0,0,0,-1,1966,435,0,0
749,589,0,0,0,0,0,0,0,0,0,-1,1973,435,0,0
756,589,0,0,0,0,0,0,0,0,0,-1,1980,435,0,0
763,589,0,0,0,0,0,0,0,0,0,-1,1987,435,0,0
770,589,0,0,0,0,0,0,0,0,0,-1,1994,435,0,0
777,589,0,0,0,0,0,0,0,0,0,-1,2001,435,0,0
784,589,0,0,0,0,0,0,0,0,0,-1,2008,435,0,0
791,589,0,0,0,0,0,0,0,0,0,-1,2015,435,0,0
798,589,0,0,0,0,0,0,0,0,0,-1,2022,435,0,0
805,589,0,0,0,0,0,0,0,0,0,-1,2029,435,0,0
812,589,0,0,0,0,0,0,0,0,0,-1,2036,435,0,0
-700,582,0,0,0,0,0,0,0,0,0,-1,524,442,0,0
-693,582,0,0,0,0,0,0,0,0,0,-1,531,442,0,0
-686,582,0,0,0,0,0,0,0,0,0,-1,538,442,0,0
-679,582,0,0,0,0,0,0,0,0,0,-1,545,442,0,0
-672,582,0,0,0,0,0,0,0,0,0,-1,552,442,0,0
-665,582,0,0,0,0,0,0,0,0,0,-1,559,442,0,0
-658,582,0,0,0,0,0,0,0,0,0,-1,566,442,0,0
-651,582,0,0,0,0,0,0,0,0,0,-1,573,442,0,0
-644,582,0,0,0,0,0,0,0,0,0,-1,580,442,0,0
-637,582,0,0,0,0,0,0,0,0,0,-1,587,442,0,0
-630,582,0,0,0,0,0,0,0,0,0,-1,594,442,0,0
-623,582,0,0,0,0,0,0,0,0,0,-1,601,442,0,0
-616,582,0,0,0,0,0,0,0,0,0,-1,608,442,0,0
-609,582,0,0,0,0,0,0,0,0,0,-1,615,442,0,0
-602,582,0,0,0,0,0,0,0,0,0,-1,622,442,0,0
-595,582,0,0,0,0,0,0,0,0,0,-1,629,442,0,0
-588,582,0,0,0,0,0,0,0,0,0,-1,636,442,0,0
-581,582,0,0,0,0,0,0,0,0,0,-1,643,442,0,0
-574,582,0,0,0,0,0,0,0,0,0,-1,650,442,0,0
-567,582,0,0,0,0,0,0,0,0,0,-1,657,442,0,0
-560,582,0,0,0,0,0,0,0,0,0,-1,664,442,0,0
-553,582,0,0,0,0,0,0,0,0,0,-1,671,442,0,0
-546,582,0,0,0,0,0,0,0,0,0,-1,678,442,0,0
-539,582,0,0,0,0,0,0,0,0,0,-1,685,442,0,0
-532,582,0,0,0,0,0,0,0,0,0,-1,692,442,0,0
-525,582,0,0,0,0,0,0,0,0,0,-1,699,442,0,0
-518,582,0,0,0,0,0,0,0,0,0,-1,706,442,0,0
-511,582,0,0,0,0,0,0,0,0,0,-1,713,442,0,0
-504,582,0,0,0,0,0,0,0,0,0,-1,720,442,0,0
-497,582,0,0,0,0,0,0,0,0,0,-1,727,442,0,0
-490,582,0,0,0,0,0,0,0,0,0,-1,734,442,0,0
-483,582,0,0,0,0,0,0,0,0,0,-1,741,442,0,0
-476,582,0,0,0,0,0,0,0,0,0,-1,748,442,0,0
-469,582,0,0,0,0,0,0,0,0,0,-1,755,442,0,0
-462,582,0,0,0,0,0,0,0,0,0,-1,762,442,0,0
-455,582,0,0,0,0,0,0,0,0,0,-1,769,442,0,0
-448,582,0,0,0,0,0,0,0,0,0,-1,776,442,0,0
-441,582,0,0,0,0,0,0,0,0,0,-1,783,442,0,0
-434,582,0,0,0,0,0,0,0,0,0,-1,790,442,0,0
-427,582,0,0,0,0,0,0,0,0,0,-1,797,442,0,0
-420,582,0,0,0,0,0,0,0,0,0,-1,804,442,0,0
-413,582,0,0,0,0,0,0,0,0,0,-1,811,442,0,0
-406,582,0,0,0,0,0,0,0,0,0,-1,818,442,0,0
-399,582,0,0,0,0,0,0,0,0,0,-1,825,442,0,0
-392,582,0,0,0,0,0,0,0,0,0,-1,832,442,0,0
-385,582,0,0,0,0,0,0,0,0,0,-1,839,442,0,0
-378,582,0,0,0,0,0,0,0,0,0,-1,846,442,0,0
-371,582,0,0,0,0,0,0,0,0,0,-1,853,442,0,0
-364,582,0,0,0,0,0,0,0,0,0,-1,860,442,0,0
-357,582,6.4043,-4.18127,0,0,0,0,0,0,0,-1,867,442,6.40427,4.18126
-350,582,-1.12933,-15.713,0,0,0,0,0,0,0,-1,874,442,-1.12935,15.713
-343,582,-0.551086,-15.4312,0,0,0,0,0,0,0,-1,881,442,-0.5511,15.4311
-336,582,0.0556641,-4.78558,0,0,0,0,0,0,0,-1,888,442,0.0556634,4.78559
-329,582,2.53162,-7.58139,0,0,0,0,0,0,0,-1,895,442,2.5316,7.5814
-322,582,1.76892,-6.59277,0,0,0,0,0,0,0,-1,902,442,1.76892,6.59278
-315,582,1.4444,-7.61786,0,0,0,0,0,0,0,-1,909,442,1.44438,7.61787
-308,582,0.704834,-8.48767,0,0,0,0,0,0,0,-1,916,442,0.704863,8.48767
-301,582,1.12256,-8.80615,0.00716583,0.00591425,-0.00965162,0.0162119,-0.00313184,-0.753025,0.011989,0.041996,923,442,1.12255,8.80614
-294,582,1.52228,-8.82364,0.00664768,0.00401601,-0.00810471,0.0135427,-0.00287899,-0.704923,0.0101255,0.0403461,930,442,1.5223,8.82365
-287,582,1.71722,-9.02426,0.00587213,0.00254879,-0.00667692,0.011091,-0.00267012,-0.663442,0.00842629,0.0312314,937,442,1.71725,9.02427
-280,582,1.87946,-9.22006,0.00482679,0.00139324,-0.00528874,0.00867041,-0.00245039,-0.628459,0.00674706,0.0150987,944,442,1.87945,9.22006
-273,582,1.87616,-9.40906,0.00382574,0.000511779,-0.00423158,0.00671319,-0.00237567,-0.598787,0.005443,0.0101439,951,442,1.87619,9.40907
-266,582,1.87292,-9.62119,0.00301999,-0.000667987,-0.00320712,0.00487545,-0.00252345,-0.524493,0.00434311,0.00947266,958,442,1.87294,9.62118
-259,582,1.85876,-9.82132,0.00208799,-0.00131867,-0.00224912,0.00320599,-0.00243666,-0.46131,0.00326786,0.00830548,965,442,1.85879,9.82132
-252,582,1.83667,-10.0027,0.00131354,-0.00145213,-0.00164239,0.00207772,-0.00221631,-0.435493,0.00247959,0.00804357,972,442,1.8367,10.0027
-245,582,1.83344,-10.1855,0.000622434,-0.00152166,-0.00110854,0.00109251,-0.00199174,-0.401067,0.00180574,0.010722,979,442,1.83343,10.1856
-238,582,1.83136,-10.3749,0.000291058,-0.00166917,-0.000962082,0.000684342,-0.00206246,-0.388056,0.00165106,0.0148615,986,442,1.83137,10.3749
-231,582,1.8302,-10.5432,0.000282992,-0.00171641,-0.000813243,0.000571999,-0.00200542,-0.341455,0.0015629,0.0122336,993,442,1.83018,10.5433
-224,582,1.82831,-10.7127,0.000409977,-0.00165525,-0.000703923,0.000627083,-0.00187236,-0.299165,0.00150157,0.0107721,1000,442,1.82832,10.7127
-217,582,1.82556,-10.8969,0.000650577,-0.00156154,-0.000638449,0.000821618,-0.00173258,-0.261754,0.00150561,0.0130857,1007,442,1.82555,10.8969
-210,582,1.83124,-11.0467,0.000969916,-0.00151864,-0.000607761,0.00111041,-0.00165914,-0.22718,0.00160943,0.0128494,1014,442,1.83123,11.0467
-203,582,1.82709,-11.2008,0.00137515,-0.00131498,-0.000635767,0.00151783,-0.00145767,-0.220771,0.00171802,0.0100578,1021,442,1.82711,11.2008
-196,582,1.80408,-11.3615,0.00179426,-0.00107506,-0.000660496,0.001939,-0.0012198,-0.215728,0.00183942,0.014874,1028,442,1.80403,11.3615
-189,582,1.79468,-11.5038,0.0021771,-0.000754976,-0.000809772,0.00238587,-0.000963751,-0.252325,0.00199116,0.0211895,1035,442,1.79464,11.5038
-182,582,1.83838,-11.6337,0.00258821,-0.000356779,-0.00104965,0.00292403,-0.000692597,-0.309644,0.00221659,0.0150126,1042,442,1.8384,11.6337
-175,582,1.84851,-11.7618,0.00296739,-0.000183761,-0.00129338,0.00343026,-0.000646631,-0.343675,0.00253008,0.0129702,1049,442,1.84847,11.7618
-168,582,1.84668,-11.9295,0.00324922,4.7299e-05,-0.00156489,0.003887,-0.000590478,-0.387002,0.00280892,0.0109477,1056,442,1.84662,11.9295
-161,582,1.8385,-12.0863,0.00354233,0.000224936,-0.00190904,0.00441261,-0.000645338,-0.427725,0.00317876,0.0124751,1063,442,1.83849,12.0863
-154,582,1.83594,-12.2005,0.0038919,0.000420791,-0.00227605,0.00501861,-0.000705917,-0.459662,0.00360417,0.0120021,1070,442,1.83597,12.2005
-147,582,1.85815,-12.3133,0.00436157,0.000585396,-0.00268666,0.00575723,-0.000810265,-0.479109,0.00413479,0.0112807,1077,442,1.85817,12.3133
-140,582,1.87146,-12.4166,0.00496139,0.000433626,-0.00325953,0.00666609,-0.00127108,-0.481871,0.00492276,0.0125982,1084,442,1.87148,12.4166
-133,582,1.9054,-12.5535,0.00558424,0.000229055,-0.00380486,0.00755922,-0.00174593,-0.478786,0.00571112,0.0152165,1091,442,1.90534,12.5535
-126,582,1.93799,-12.6425,0.00638575,0.000185668,-0.0042533,0.00854887,-0.00197745,-0.470483,0.00646008,0.0128398,1098,442,1.93799,12.6425
-119,582,1.90576,-12.7226,0.00738571,-9.49681e-05,-0.00481645,0.0097436,-0.00245285,-0.455251,0.0074492,0.0165086,1105,442,1.90578,12.7226
-112,582,1.89624,-12.8448,0.00857374,-0.000448551,-0.00546705,0.0111505,-0.00302536,-0.440453,0.00862095,0.0252976,1112,442,1.8962,12.8448
-105,582,1.94165,-12.9727,0.00987632,-0.000511078,-0.00617475,0.0127512,-0.00338597,-0.435741,0.00982589,0.0344491,1119,442,1.94161,12.9727
-98,582,2.1134,-13.133,0.0112908,-0.000891927,-0.00679296,0.0143235,-0.00392466,-0.4199,0.0110911,0.037553,1126,442,2.11343,13.133
-91,582,2.4928,-13.028,0.012976,-0.000633262,-0.00781181,0.0165313,-0.00418853,-0.427099,0.0126503,0.0417524,1133,442,2.49277,13.028
-84,582,2.72009,-13.119,0,0,0,0,0,0,0,-1,1140,442,2.72011,13.119
-77,582,2.30212,-11.4907,0,0,0,0,0,0,0,-1,1147,442,2.30207,11.4907
-70,582,1.49255,-6.36548,0,0,0,0,0,0,0,-1,1154,442,1.49251,6.36549
-63,582,-4.62915,-4.0347,0,0,0,0,0,0,0,-1,1161,442,-4.6292,4.03471
-56,582,-5.81714,-5.24149,0,0,0,0,0,0,0,-1,1168,442,-5.81718,5.24149
-49,582,-3.88672,-10.1064,0,0,0,0,0,0,0,-1,1175,442,-3.88678,10.1064
-42,582,-0.948975,1.13968,0,0,0,0,0,0,0,-1,1182,442,-0.949003,-1.13969
-35,582,-2.58435,-3.86911,0,0,0,0,0,0,0,-1,1189,442,-2.58437,3.86912
-28,582,-0.825317,-3.45941,0,0,0,0,0,0,0,-1,1196,442,-0.825377,3.45942
-21,582,1.13599,-12.3673,0,0,0,0,0,0,0,-1,1203,442,1.13603,12.3673
-14,582,1.31189,-12.301,0,0,0,0,0,0,0,-1,1210,442,1.31187,12.301
-7,582,1.64893,-12.182,0,0,0,0,0,0,0,-1,1217,442,1.64895,12.182
0,582,2.34656,-12.9893,0,0,0,0,0,0,0,-1,1224,442,2.34654,12.9893
7,582,3.27991,-13.2276,0,0,0,0,0,0,0,-1,1231,442,3.27987,13.2276
14,582,3.1571,-13.4392,0,0,0,0,0,0,0,-1,1238,442,3.15705,13.4392
21,582,2.92395,-13.6765,-0.00985531,-0.0086231,0.0020655,-0.00708377,-0.0113946,0.930339,0.00664331,0.0439614,1245,442,2.92392,13.6765
28,582,2.71606,-13.6639,-0.00765371,-0.0126692,0.00252928,-0.00659971,-0.0137232,0.394835,0.00792504,0.0446579,1252,442,2.71611,13.6639
35,582,2.65491,-13.6404,-0.00494328,-0.0168305,0.00274217,-0.00434121,-0.0174325,0.216133,0.0104788,0.0456579,1259,442,2.65485,13.6404
42,582,2.64587,-13.6457,-0.00112898,-0.021326,0.00252915,-0.00081709,-0.0216379,0.1227,0.0141607,0.0483044,1266,442,2.64588,13.6457
49,582,1.55322,-13.9907,0.00282353,-0.0254955,0.00197256,0.00296027,-0.0256322,0.0692095,0.0181555,0.0436696,1273,442,1.55324,13.9907
56,582,2.36096,-13.5736,0.00748558,-0.0296775,0.000926752,0.00750868,-0.0297006,0.0249168,0.0227207,0.045754,1280,442,2.36094,13.5736
63,582,2.37939,-13.3997,0.0125631,-0.0323352,-0.000339475,0.0125656,-0.0323378,-0.00756041,0.0267496,0.0441395,1287,442,2.37933,13.3998
70,582,2.42798,-13.2959,0.0163842,-0.0330381,-0.00225657,0.016487,-0.033141,-0.0455326,0.0291855,0.0444192,1294,442,2.42792,13.2959
77,582,2.59314,-13.1866,0.0207017,-0.0321766,-0.00337803,0.0209166,-0.0323916,-0.0635388,0.0310143,0.0445963,1301,442,2.5932,13.1866
84,582,2.69495,-13.3335,0.0256608,-0.0289109,-0.00605746,0.0263251,-0.0295752,-0.109229,0.0322922,0.0458406,1308,442,2.69489,13.3335
91,582,2.73547,-13.5193,0,0,0,0,0,0,0,-1,1315,442,2.73544,13.5194
98,582,2.70776,-12.6048,0,0,0,0,0,0,0,-1,1322,442,2.70779,12.6048
105,582,2.14404,-13.0307,0,0,0,0,0,0,0,-1,1329,442,2.14402,13.0307
112,582,3.07605,-13.533,0.0258663,-0.00726837,-0.0132225,0.0304959,-0.011898,-0.336793,0.025249,0.0426695,1336,442,3.07599,13.533
119,582,3.10461,-13.2118,0.0234224,-0.000726169,-0.0144726,0.030196,-0.00749981,-0.437748,0.0230412,0.0424786,1343,442,3.10458,13.2118
126,582,3.26489,-12.8832,0.0196064,0.00614007,-0.0155856,0.0298511,-0.00410462,-0.581501,0.0214005,0.0455966,1350,442,3.26485,12.8832
133,582,3.20471,-13.2041,0.0144793,0.0115388,-0.0161707,0.0292465,-0.00322837,-0.740062,0.020658,0.0456393,1357,442,3.20476,13.2041
140,582,3.4657,-13.34,0.008493,0.0150991,-0.0166119,0.0287332,-0.00514103,-0.883537,0.0210792,0.042827,1364,442,3.46564,13.34
147,582,3.56677,-13.0619,0.0022671,0.0171858,-0.0171117,0.0283933,-0.00894039,-0.990941,0.0225088,0.0468081,1371,442,3.56677,13.0619
154,582,3.23779,-12.9358,-0.00359817,0.0179904,-0.0175917,0.0278355,-0.0134433,-1.06058,0.0243103,0.0464632,1378,442,3.23782,12.9358
161,582,2.54919,-12.5987,0,0,0,0,0,0,0,-1,1385,442,2.54917,12.5987
168,582,17.8916,-12.5874,0,0,0,0,0,0,0,-1,1392,442,17.8917,12.5874
175,582,6.50549,-2.00424,0,0,0,0,0,0,0,-1,1399,442,6.50546,2.00425
182,582,5.18958,-2.18652,0,0,0,0,0,0,0,-1,1406,442,5.1896,2.18652
189,582,6.19751,-0.880951,0,0,0,0,0,0,0,-1,1413,442,6.19754,0.88096
196,582,4.87354,-2.22327,0,0,0,0,0,0,0,-1,1420,442,4.87348,2.22325
203,582,3.11401,-4.48257,0,0,0,0,0,0,0,-1,1427,442,3.11404,4.48259
210,582,2.93115,-11.0731,0,0,0,0,0,0,0,-1,1434,442,2.93113,11.0731
217,582,3.62134,-12.5723,0,0,0,0,0,0,0,-1,1441,442,3.62137,12.5723
224,582,3.6084,-12.5595,-0.000391115,0.00297698,-0.0029061,0.00465172,-0.00206586,-1.048,0.00397302,0.042959,1448,442,3.60838,12.5595
231,582,3.53711,-12.3903,4.00117e-05,0.00408864,-0.00219526,0.00505046,-0.000921812,-1.15785,0.00371259,0.0447015,1455,442,3.53717,12.3903
238,582,3.50879,-12.3804,0.00062638,0.00452684,-0.00168328,0.00515281,4.02797e-07,-1.21477,0.00343507,0.0428854,1462,442,3.50877,12.3804
245,582,3.54102,-12.3878,0.00115229,0.00473238,-0.00126488,0.00513418,0.000750491,-1.26322,0.00320208,0.0419767,1469,442,3.54098,12.3879
252,582,3.66968,-12.1466,0.00136053,0.00457792,-0.00100559,0.00486635,0.0010721,-1.29146,0.00295248,0.0286921,1476,442,3.66969,12.1466
259,582,3.57776,-12.0099,0.0013801,0.00414869,-0.000814736,0.00437065,0.00115814,-1.30481,0.00261466,0.0221969,1483,442,3.57771,12.0099
266,582,3.57336,-11.8711,0.0014547,0.0035632,-0.000755209,0.00380578,0.00121212,-1.25999,0.00224501,0.0160303,1490,442,3.57341,11.8711
273,582,3.62854,-11.6657,0.00140695,0.00283548,-0.000728047,0.00314113,0.0011013,-1.17332,0.00184032,0.0133311,1497,442,3.62859,11.6658
280,582,3.64197,-11.5065,0.00127799,0.0021427,-0.000714871,0.00254579,0.000874894,-1.05737,0.00149357,0.0117244,1504,442,3.64193,11.5065
287,582,3.67322,-11.3365,0.0011588,0.00146084,-0.000709744,0.00203545,0.000584185,-0.890227,0.00121019,0.010918,1511,442,3.67327,11.3365
294,582,3.67126,-11.1509,0.000943528,0.000824442,-0.00065886,0.00154553,0.00022244,-0.740334,0.000964793,0.00939399,1518,442,3.67122,11.1509
301,582,3.67554,-10.9726,0.00062103,0.000204443,-0.000558895,0.00100918,-0.000183711,-0.607027,0.00074165,0.0106383,1525,442,3.67549,10.9726
308,582,3.6958,-10.8229,0.000369533,-0.000149513,-0.000422156,0.000605558,-0.000385538,-0.509799,0.00057689,0.013336,1532,442,3.69584,10.8229
315,582,3.68494,-10.6612,0.000228971,-0.000300811,-0.00026226,0.000336836,-0.000408676,-0.390204,0.000431088,0.0134601,1539,442,3.68494,10.6612
322,582,3.68799,-10.4829,6.09327e-05,-0.000296464,-5.35466e-05,6.87828e-05,-0.000304314,-0.145567,0.000229269,0.0104422,1546,442,3.688,10.4829
329,582,3.69067,-10.3043,-0.000112685,-0.000161684,0.000188085,5.249e-05,-0.000326859,0.720634,0.000237345,0.0098927,1553,442,3.69062,10.3043
336,582,3.68054,-10.1204,-0.000346358,0.000142257,0.000368938,0.000340444,-0.000544546,1.07785,0.000515459,0.0104677,1560,442,3.68057,10.1204
343,582,3.68457,-9.92688,-0.000608997,0.000506983,0.000507963,0.000703566,-0.000805579,1.20155,0.000871968,0.0131617,1567,442,3.68454,9.92689
350,582,3.68579,-9.74579,-0.000852389,0.000969339,0.000638703,0.00117096,-0.00105401,1.26503,0.00128517,0.015816,1574,442,3.68575,9.74578
357,582,3.69812,-9.53656,-0.00114956,0.0014695,0.000718414,0.00165362,-0.00133368,1.31991,0.00172801,0.0131588,1581,442,3.69813,9.53656
364,582,3.68494,-9.33151,-0.00153784,0.00206791,0.000723526,0.00220767,-0.00167761,1.37998,0.00225011,0.0107225,1588,442,3.68495,9.33152
371,582,3.66846,-9.14197,-0.00192043,0.00264104,0.000633797,0.00272747,-0.00200686,1.43527,0.0027439,0.0151999,1595,442,3.66842,9.14198
378,582,3.66235,-8.94971,-0.00231226,0.00304482,0.000498513,0.00309081,-0.00235825,1.47879,0.00315548,0.0162592,1602,442,3.66236,8.9497
385,582,3.66492,-8.74207,-0.00264044,0.00336196,0.00019818,0.0033685,-0.00264698,1.53783,0.00348135,0.011267,1609,442,3.66492,8.74206
392,582,3.64001,-8.52151,-0.00256934,0.00340386,7.39079e-05,0.00340477,-0.00257026,1.55843,0.00346088,0.00928456,1616,442,3.63999,8.52151
399,582,3.62415,-8.31815,-0.00241868,0.0034386,0.000156693,0.00344279,-0.00242287,1.54407,0.00340356,0.0136547,1623,442,3.62412,8.31815
406,582,3.6355,-8.04675,-0.00214646,0.00338177,0.000180267,0.00338764,-0.00215233,1.53823,0.0032249,0.0214932,1630,442,3.63554,8.04676
413,582,3.61902,-7.77045,-0.001703,0.00294716,0.000153544,0.00295223,-0.00170806,1.53783,0.00272239,0.0401242,1637,442,3.619,7.77045
420,582,3.57849,-7.60275,0,0,0,0,0,0,0,-1,1644,442,3.57853,7.60275
427,582,3.50525,-7.41467,0,0,0,0,0,0,0,-1,1651,442,3.50529,7.41469
434,582,3.26172,-7.22696,0,0,0,0,0,0,0,-1,1658,442,3.26174,7.22695
441,582,3.53467,-6.9884,0,0,0,0,0,0,0,-1,1665,442,3.53462,6.9884
448,582,1.52722,-2.85928,0,0,0,0,0,0,0,-1,1672,442,1.52724,2.85927
455,582,3.6698,-4.4032,0,0,0,0,0,0,0,-1,1679,442,3.66983,4.40319
462,582,1.38074,-3.94418,0,0,0,0,0,0,0,-1,1686,442,1.38074,3.94419
469,582,4.39624,-6.42285,0,0,0,0,0,0,0,-1,1693,442,4.39622,6.42284
476,582,4.12891,-6.03848,0,0,0,0,0,0,0,-1,1700,442,4.12895,6.03848
483,582,0,0,0,0,0,0,0,0,0,-1,1707,442,0,0
490,582,0,0,0,0,0,0,0,0,0,-1,1714,442,0,0
497,582,0,0,0,0,0,0,0,0,0,-1,1721,442,0,0
504,582,0,0,0,0,0,0,0,0,0,-1,1728,442,0,0
511,582,0,0,0,0,0,0,0,0,0,-1,1735,442,0,0
518,582,0,0,0,0,0,0,0,0,0,-1,1742,442,0,0
525,582,0,0,0,0,0,0,0,0,0,-1,1749,442,0,0
532,582,0,0,0,0,0,0,0,0,0,-1,1756,442,0,0
539,582,0,0,0,0,0,0,0,0,0,-1,1763,442,0,0
546,582,0,0,0,0,0,0,0,0,0,-1,1770,442,0,0
553,582,0,0,0,0,0,0,0,0,0,-1,1777,442,0,0
560,582,0,0,0,0,0,0,0,0,0,-1,1784,442,0,0
567,582,0,0,0,0,0,0,0,0,0,-1,1791,442,0,0
574,582,0,0,0,0,0,0,0,0,0,-1,1798,442,0,0
581,582,0,0,0,0,0,0,0,0,0,-1,1805,442,0,0
588,582,0,0,0,0,0,0,0,0,0,-1,1812,442,0,0
595,582,0,0,0,0,0,0,0,0,0,-1,1819,442,0,0
602,582,0,0,0,0,0,0,0,0,0,-1,1826,442,0,0
609,582,0,0,0,0,0,0,0,0,0,-1,1833,442,0,0
616,582,0,0,0,0,0,0,0,0,0,-1,1840,442,0,0
623,582,0,0,0,0,0,0,0,0,0,-1,1847,442,0,0
630,582,0,0,0,0,0,0,0,0,0,-1,1854,442,0,0
637,582,0,0,0,0,0,0,0,0,0,-1,1861,442,0,0
644,582,0,0,0,0,0,0,0,0,0,-1,1868,442,0,0
651,582,0,0,0,0,0,0,0,0,0,-1,1875,442,0,0
658,582,0,0,0,0,0,0,0,0,0,-1,1882,442,0,0
665,582,0,0,0,0,0,0,0,0,0,-1,1889,442,0,0
672,582,0,0,0,0,0,0,0,0,0,-1,1896,442,0,0
679,582,0,0,0,0,0,0,0,0,0,-1,1903,442,0,0
686,582,0,0,0,0,0,0,0,0,0,-1,1910,442,0,0
693,582,0,0,0,0,0,0,0,0,0,-1,1917,442,0,0
700,582,0,0,0,0,0,0,0,0,0,-1,1924,442,0,0
707,582,0,0,0,0,0,0,0,0,0,-1,1931,442,0,0
714,582,0,0,0,0,0,0,0,0,0,-1,1938,442,0,0
721,582,0,0,0,0,0,0,0,0,0,-1,1945,442,0,0
728,582,0,0,0,0,0,0,0,0,0,-1,1952,442,0,0
735,582,0,0,0,0,0,0,0,0,0,-1,1959,442,0,0
742,582,0,0,0,0,0,0,0,0,0,-1,1966,442,0,0
749,582,0,0,0,0,0,0,0,0,0,-1,1973,442,0,0
756,582,0,0,0,0,0,0,0,0,0,-1,1980,442,0,0
763,582,0,0,0,0,0,0,0,0,0,-1,1987,442,0,0
770,582,0,0,0,0,0,0,0,0,0,-1,1994,442,0,0
777,582,0,0,0,0,0,0,0,0,0,-1,2001,442,0,0
784,582,0,0,0,0,0,0,0,0,0,-1,2008,442,0,0
791,582,0,0,0,0,0,0,0,0,0,-1,2015,442,0,0
798,582,0,0,0,0,0,0,0,0,0,-1,2022,442,0,0
805,582,0,0,0,0,0,0,0,0,0,-1,2029,442,0,0
812,582,0,0,0,0,0,0,0,0,0,-1,2036,442,0,0
-700,575,0,0,0,0,0,0,0,0,0,-1,524,449,0,0
-693,575,0,0,0,0,0,0,0,0,0,-1,531,449,0,0
-686,575,0,0,0,0,0,0,0,0,0,-1,538,449,0,0
-679,575,0,0,0,0,0,0,0,0,0,-1,545,449,0,0
-672,575,0,0,0,0,0,0,0,0,0,-1,552,449,0,0
-665,575,0,0,0,0,0,0,0,0,0,-1,559,449,0,0
-658,575,0,0,0,0,0,0,0,0,0,-1,566,449,0,0
-651,575,0,0,0,0,0,0,0,0,0,-1,573,449,0,0
-644,575,0,0,0,0,0,0,0,0,0,-1,580,449,0,0
-637,575,0,0,0,0,0,0,0,0,0,-1,587,449,0,0
-630,575,0,0,0,0,0,0,0,0,0,-1,594,449,0,0
-623,575,0,0,0,0,0,0,0,0,0,-1,601,449,0,0
-616,575,0,0,0,0,0,0,0,0,0,-1,608,449,0,0
-609,575,0,0,0,0,0,0,0,0,0,-1,615,449,0,0
-602,575,0,0,0,0,0,0,0,0,0,-1,622,449,0,0
-595,575,0,0,0,0,0,0,0,0,0,-1,629,449,0,0
-588,575,0,0,0,0,0,0,0,0,0,-1,636,449,0,0
-581,575,0,0,0,0,0,0,0,0,0,-1,643,449,0,0
-574,575,0,0,0,0,0,0,0,0,0,-1,650,449,0,0
-567,575,0,0,0,0,0,0,0,0,0,-1,657,449,0,0
-560,575,0,0,0,0,0,0,0,0,0,-1,664,449,0,0
-553,575,0,0,0,0,0,0,0,0,0,-1,671,449,0,0
-546,575,0,0,0,0,0,0,0,0,0,-1,678,449,0,0
-539,575,0,0,0,0,0,0,0,0,0,-1,685,449,0,0
-532,575,0,0,0,0,0,0,0,0,0,-1,692,449,0,0
-525,575,0,0,0,0,0,0,0,0,0,-1,699,449,0,0
-518,575,0,0,0,0,0,0,0,0,0,-1,706,449,0,0
-511,575,0,0,0,0,0,0,0,0,0,-1,713,449,0,0
-504,575,0,0,0,0,0,0,0,0,0,-1,720,449,0,0
-497,575,0,0,0,0,0,0,0,0,0,-1,727,449,0,0
-490,575,0,0,0,0,0,0,0,0,0,-1,734,449,0,0
-483,575,0,0,0,0,0,0,0,0,0,-1,741,449,0,0
-476,575,0,0,0,0,0,0,0,0,0,-1,748,449,0,0
-469,575,0,0,0,0,0,0,0,0,0,-1,755,449,0,0
-462,575,0,0,0,0,0,0,0,0,0,-1,762,449,0,0
-455,575,0,0,0,0,0,0,0,0,0,-1,769,449,0,0
-448,575,0,0,0,0,0,0,0,0,0,-1,776,449,0,0
-441,575,0,0,0,0,0,0,0,0,0,-1,783,449,0,0
-434,575,0,0,0,0,0,0,0,0,0,-1,790,449,0,0
-427,575,0,0,0,0,0,0,0,0,0,-1,797,449,0,0
-420,575,0,0,0,0,0,0,0,0,0,-1,804,449,0,0
-413,575,0,0,0,0,0,0,0,0,0,-1,811,449,0,0
-406,575,0,0,0,0,0,0,0,0,0,-1,818,449,0,0
-399,575,0,0,0,0,0,0,0,0,0,-1,825,449,0,0
-392,575,0,0,0,0,0,0,0,0,0,-1,832,449,0,0
-385,575,0,0,0,0,0,0,0,0,0,-1,839,449,0,0
-378,575,0,0,0,0,0,0,0,0,0,-1,846,449,0,0
-371,575,0.56897,-3.52304,0,0,0,0,0,0,0,-1,853,449,0.568955,3.52306
-364,575,1.49805,-4.67191,0,0,0,0,0,0,0,-1,860,449,1.49803,4.6719
-357,575,2.87567,-6.9155,0,0,0,0,0,0,0,-1,867,449,2.87569,6.91548
-350,575,2.76715,-7.23752,0,0,0,0,0,0,0,-1,874,449,2.76717,7.2375
-343,575,0.124512,-6.51617,0,0,0,0,0,0,0,-1,881,449,0.124497,6.51618
-336,575,2.31653,-7.94482,0,0,0,0,0,0,0,-1,888,449,2.31655,7.94481
-329,575,1.80823,-7.93375,0,0,0,0,0,0,0,-1,895,449,1.8082,7.93374
-322,575,1.71606,-7.41504,0.00267053,0.00712051,-0.00978012,0.0149255,-0.0051345,-0.897245,0.0120327,0.0454306,902,449,1.71607,7.41505
-315,575,1.43195,-7.77939,0.00399934,0.00645607,-0.00930885,0.0146173,-0.00416185,-0.850997,0.0113885,0.0416909,909,449,1.43192,7.77938
-308,575,1.56189,-8.53699,0.00466758,0.00564763,-0.00855564,0.0137273,-0.00341205,-0.814005,0.0104758,0.0422794,916,449,1.5619,8.53697
-301,575,1.72241,-8.6745,0.00485594,0.00459054,-0.00760283,0.0123272,-0.00288075,-0.776672,0.00932788,0.0313576,923,449,1.72242,8.67449
-294,575,1.68823,-8.82986,0.00464044,0.00329225,-0.00645261,0.0104541,-0.00252138,-0.733352,0.00794435,0.0216612,930,449,1.68826,8.82986
-287,575,1.70038,-9.03854,0.00422236,0.00230393,-0.00537292,0.00872101,-0.00219473,-0.697065,0.0066671,0.0158539,937,449,1.70038,9.03854
-280,575,1.71173,-9.23843,0.00357913,0.00142758,-0.00430614,0.00694184,-0.00193513,-0.662992,0.00539,0.0124164,944,449,1.71174,9.23845
-273,575,1.70135,-9.4335,0.0029289,0.000691931,-0.00347149,0.00545764,-0.00183681,-0.629553,0.00438099,0.0111212,951,449,1.70136,9.43351
-266,575,1.69629,-9.64645,0.00241625,-0.000339549,-0.00265286,0.00402771,-0.00195101,-0.545874,0.00352054,0.012303,958,449,1.69632,9.64646
-259,575,1.68878,-9.8288,0.0017826,-0.00095599,-0.00184818,0.00271347,-0.00188686,-0.466577,0.00267025,0.0119733,965,449,1.68879,9.8288
-252,575,1.66852,-10.0117,0.0012584,-0.00112824,-0.00132027,0.00184473,-0.00171457,-0.417931,0.00205542,0.0113519,972,449,1.6685,10.0116
-245,575,1.64777,-10.1947,0.000899203,-0.00126691,-0.000850636,0.00119332,-0.00156102,-0.332888,0.00159493,0.0138455,979,449,1.64776,10.1947
-238,575,1.6488,-10.3708,0.000748402,-0.00148548,-0.000653599,0.000925582,-0.00166266,-0.264721,0.00151439,0.0136488,986,449,1.6488,10.3708
-231,575,1.66534,-10.5312,0.000823054,-0.0016777,-0.000510707,0.00092333,-0.00177797,-0.193881,0.0015854,0.0116738,993,449,1.66537,10.5312
-224,575,1.64923,-10.6881,0.00104072,-0.00175101,-0.000386398,0.00109322,-0.00180351,-0.135027,0.0016891,0.012122,1000,449,1.64925,10.6882
-217,575,1.67285,-10.8727,0.00134543,-0.00177396,-0.000281452,0.00137062,-0.00179915,-0.0892659,0.00183563,0.0102683,1007,449,1.67285,10.8727
-210,575,1.68945,-11.0571,0.00172556,-0.00185588,-0.00023177,0.0017405,-0.00187082,-0.0643563,0.00208545,0.00847765,1014,449,1.68943,11.0571
-203,575,1.66998,-11.2047,0.00221465,-0.0016676,-0.000308889,0.00223907,-0.00169202,-0.0789029,0.00227693,0.0111098,1021,449,1.66996,11.2048
-196,575,1.66663,-11.3604,0.00272049,-0.0014743,-0.000380647,0.00275475,-0.00150856,-0.0897657,0.00249623,0.0145801,1028,449,1.66665,11.3604
-189,575,1.70154,-11.5011,0.00320831,-0.00119338,-0.000615159,0.00329267,-0.00127773,-0.136277,0.00272286,0.0156107,1035,449,1.7015,11.5011
-182,575,1.70325,-11.6386,0.00375194,-0.000747333,-0.000985035,0.00395815,-0.000953538,-0.206358,0.00300743,0.0140318,1042,449,1.70323,11.6386
-175,575,1.69373,-11.7846,0.00425464,-0.000421311,-0.00139552,0.00463946,-0.000806129,-0.269066,0.00339375,0.0121562,1049,449,1.69371,11.7846
-168,575,1.68787,-11.9296,0.00465852,-2.5921e-05,-0.00187586,0.00531711,-0.000684512,-0.337642,0.00379355,0.0109986,1056,449,1.68792,11.9296
-161,575,1.69971,-12.083,0.00507129,0.000304837,-0.00243237,0.00609339,-0.000717258,-0.397802,0.00432123,0.0147239,1063,449,1.69966,12.083
-154,575,1.70837,-12.1954,0.00551888,0.000689333,-0.00304871,0.00699329,-0.000785078,-0.450456,0.00494471,0.0165322,1070,449,1.70838,12.1954
-147,575,1.7395,-12.2638,0.00611158,0.00103966,-0.00374743,0.00810047,-0.000949237,-0.487933,0.00574293,0.0167166,1077,449,1.73956,12.2638
-140,575,1.70618,-12.3472,0.00687621,0.00104997,-0.00459198,0.00940116,-0.00147497,-0.502735,0.00681253,0.0275193,1084,449,1.70616,12.3472
-133,575,1.83911,-12.5122,0.00759599,0.000922726,-0.00532003,0.0105392,-0.00202044,-0.505314,0.00778745,0.0357301,1091,449,1.83905,12.5122
-126,575,1.92981,-12.5281,0.00847718,0.000920454,-0.00592164,0.0117232,-0.00232555,-0.50143,0.00869494,0.0404202,1098,449,1.92977,12.5281
-119,575,1.77869,-12.5935,0.00972788,0.000421667,-0.00662747,0.0131726,-0.00302305,-0.479333,0.00994378,0.0396441,1105,449,1.77868,12.5935
-112,575,1.8158,-12.7613,0.0112596,-0.000204423,-0.00744169,0.0149209,-0.00386574,-0.457228,0.0114554,0.043974,1112,449,1.81575,12.7613
-105,575,1.83093,-12.9929,0,0,0,0,0,0,0,-1,1119,449,1.83094,12.9929
-98,575,2.14709,-13.1363,0,0,0,0,0,0,0,-1,1126,449,2.14714,13.1363
-91,575,2.77039,-12.7953,0,0,0,0,0,0,0,-1,1133,449,2.77036,12.7953
-84,575,1.16553,-11.9056,0,0,0,0,0,0,0,-1,1140,449,1.16558,11.9056
-77,575,0.205078,-11.2584,0,0,0,0,0,0,0,-1,1147,449,0.205117,11.2584
-70,575,-4.2467,-1.78738,0,0,0,0,0,0,0,-1,1154,449,-4.24674,1.78739
-63,575,-4.52209,-3.48798,0,0,0,0,0,0,0,-1,1161,449,-4.5221,3.48796
-56,575,-5.5968,-5.4928,0,0,0,0,0,0,0,-1,1168,449,-5.59683,5.49281
-49,575,-5.96863,-7.17612,0,0,0,0,0,0,0,-1,1175,449,-5.96868,7.1761
-42,575,-0.830322,0.773499,0,0,0,0,0,0,0,-1,1182,449,-0.83038,-0.77351
-35,575,-0.62085,0.205139,0,0,0,0,0,0,0,-1,1189,449,-0.620855,-0.205126
-28,575,0.49292,-3.87988,0,0,0,0,0,0,0,-1,1196,449,0.492941,3.87989
-21,575,1.146,-12.8181,0,0,0,0,0,0,0,-1,1203,449,1.14602,12.8181
-14,575,1.47229,-12.6021,0,0,0,0,0,0,0,-1,1210,449,1.47229,12.6021
-7,575,1.73352,-12.3568,0,0,0,0,0,0,0,-1,1217,449,1.7335,12.3567
0,575,3.30249,-13.0702,0,0,0,0,0,0,0,-1,1224,449,3.30246,13.0702
7,575,3.23022,-13.2644,-0.01552,-0.000162477,0.00183409,5.3525e-05,-0.015736,1.45357,0.0105085,0.0497456,1231,449,3.23018,13.2644
14,575,3.09131,-13.4563,-0.0150727,-0.00267477,0.00252567,-0.00217999,-0.0155675,1.37735,0.0097334,0.0481348,1238,449,3.09129,13.4563
21,575,2.79932,-13.6492,-0.0129724,-0.00761812,0.00356352,-0.00583816,-0.0147524,1.10755,0.00857879,0.0431969,1245,449,2.79936,13.6492
28,575,2.6709,-13.5621,-0.0099978,-0.013024,0.00397416,-0.00725844,-0.0157634,0.603503,0.00911046,0.0427696,1252,449,2.67091,13.5621
35,575,2.65247,-13.5171,-0.00668023,-0.0186213,0.00395386,-0.00548974,-0.0198118,0.292462,0.0118112,0.0411173,1259,449,2.65242,13.5171
42,575,2.63379,-13.5179,-0.00189786,-0.0243086,0.00336065,-0.00140476,-0.0248017,0.145689,0.0160867,0.0442072,1266,449,2.63376,13.5179
49,575,2.59412,-13.5428,0.00323305,-0.0295258,0.00224779,0.00338656,-0.0296793,0.0681904,0.0210062,0.0468916,1273,449,2.5941,13.5429
56,575,2.72241,-13.4392,0.00913274,-0.034478,0.000591613,0.00914076,-0.034486,0.0135624,0.0265671,0.0448302,1280,449,2.72242,13.4392
63,575,2.56189,-13.1158,0.015689,-0.0378329,-0.00122946,0.0157173,-0.0378611,-0.0229549,0.0318019,0.0438824,1287,449,2.56189,13.1158
70,575,2.48779,-13.1014,0.0206905,-0.038833,-0.00388282,0.0209427,-0.0390852,-0.0648653,0.0351808,0.0439016,1294,449,2.48779,13.1014
77,575,2.49805,-13.0127,0.0262471,-0.0376178,-0.00548323,0.0267144,-0.0380852,-0.0850274,0.0376036,0.047117,1301,449,2.49807,13.0127
84,575,2.71472,-12.9645,0.032492,-0.0333119,-0.00884531,0.0336602,-0.0344802,-0.131315,0.0393418,0.0467265,1308,449,2.71476,12.9645
91,575,2.98889,-13.6841,0.0356546,-0.0279837,-0.0112139,0.0375728,-0.0299019,-0.169417,0.0390404,0.0477455,1315,449,2.98889,13.6841
98,575,3.26819,-14.339,0,0,0,0,0,0,0,-1,1322,449,3.26821,14.339
105,575,2.87585,-15.0554,0.0342462,-0.0133927,-0.0154059,0.0387941,-0.0179406,-0.287053,0.0334853,0.0436938,1329,449,2.87591,15.0554
112,575,3.37354,-13.6686,0.0328137,-0.00566979,-0.017537,0.0396063,-0.0124624,-0.369539,0.031394,0.0434967,1336,449,3.37359,13.6686
119,575,3.33923,-13.3071,0.0295157,0.00253258,-0.0189293,0.0392694,-0.00722104,-0.475787,0.028889,0.041047,1343,449,3.33921,13.3071
126,575,3.20459,-13.307,0.0244177,0.0111486,-0.0202244,0.039068,-0.0035017,-0.626905,0.0272876,0.0452545,1350,449,3.20462,13.307
133,575,3.18933,-13.6049,0.0175421,0.0178615,-0.020876,0.0385784,-0.00317479,-0.789224,0.0268399,0.0467265,1357,449,3.18929,13.6049
140,575,3.79956,-13.7306,0,0,0,0,0,0,0,-1,1364,449,3.79959,13.7305
147,575,4.0741,-13.2377,0.000814155,0.0246906,-0.0221083,0.037878,-0.0123733,-1.03296,0.0302325,0.0447807,1371,449,4.07404,13.2377
154,575,3.74182,-13.1509,-0.00768955,0.0255694,-0.0228157,0.0371727,-0.0192929,-1.10032,0.0331408,0.0469511,1378,449,3.74188,13.1509
161,575,3.42627,-13.063,0,0,0,0,0,0,0,-1,1385,449,3.42632,13.063
168,575,9.2522,-0.307129,0,0,0,0,0,0,0,-1,1392,449,9.25225,0.307127
175,575,4.32617,1.93634,0,0,0,0,0,0,0,-1,1399,449,4.32612,-1.93634
182,575,6.3147,-2.88345,0,0,0,0,0,0,0,-1,1406,449,6.31466,2.88346
189,575,6.10449,-1.30817,0,0,0,0,0,0,0,-1,1413,449,6.10455,1.30817
196,575,5.79895,0.818359,0,0,0,0,0,0,0,-1,1420,449,5.79895,-0.81837
203,575,3.29724,-1.46378,0,0,0,0,0,0,0,-1,1427,449,3.29722,1.46377
210,575,2.32739,-7.74503,0,0,0,0,0,0,0,-1,1434,449,2.32741,7.74502
217,575,3.33618,-11.5521,0,0,0,0,0,0,0,-1,1441,449,3.3362,11.5521
224,575,3.8092,-12.6021,0,0,0,0,0,0,0,-1,1448,449,3.80916,12.6021
231,575,3.67126,-12.4433,0,0,0,0,0,0,0,-1,1455,449,3.67126,12.4433
238,575,3.79395,-12.5367,0,0,0,0,0,0,0,-1,1462,449,3.79398,12.5367
245,575,3.83264,-12.798,0,0,0,0,0,0,0,-1,1469,449,3.83264,12.798
252,575,3.86926,-12.4016,0,0,0,0,0,0,0,-1,1476,449,3.86924,12.4016
259,575,3.71033,-12.237,0,0,0,0,0,0,0,-1,1483,449,3.71036,12.237
266,575,3.66016,-12.0734,0,0,0,0,0,0,0,-1,1490,449,3.66016,12.0734
273,575,3.81921,-11.759,0.00154235,0.00343817,-0.00106425,0.00391545,0.00106507,-1.14922,0.00233761,0.0451469,1497,449,3.81923,11.759
280,575,3.83691,-11.4566,0.00136956,0.00246071,-0.00111546,0.00315687,0.000673396,-1.01284,0.00191989,0.0294454,1504,449,3.83689,11.4566
287,575,3.79407,-11.3546,0.00123065,0.00146123,-0.00116752,0.00251913,0.000172743,-0.834613,0.0016249,0.0150395,1511,449,3.79406,11.3546
294,575,3.85046,-11.1684,0.000969494,0.000590263,-0.00117857,0.0019736,-0.000413844,-0.705638,0.00147319,0.00966665,1518,449,3.85044,11.1684
301,575,3.86243,-10.992,0.000609775,-0.000220363,-0.00114669,0.00141421,-0.0010248,-0.611749,0.00141413,0.00945239,1525,449,3.86245,10.992
308,575,3.86829,-10.8347,0.000329586,-0.000730522,-0.00110913,0.00102881,-0.00142975,-0.562492,0.00142573,0.0105432,1532,449,3.86823,10.8347
315,575,3.85559,-10.6714,0.000201392,-0.000965672,-0.00101968,0.000792706,-0.00155699,-0.525509,0.00138031,0.0106247,1539,449,3.85563,10.6714
322,575,3.87939,-10.4822,5.93697e-05,-0.00102527,-0.000852109,0.000527099,-0.001493,-0.502005,0.00120993,0.00969392,1546,449,3.87942,10.4822
329,575,3.87415,-10.3095,-3.71924e-05,-0.0009533,-0.000622845,0.000277897,-0.00126839,-0.468346,0.000951844,0.010172,1553,449,3.87409,10.3095
336,575,3.85315,-10.1248,-0.000136084,-0.000655116,-0.000381443,6.57532e-05,-0.000856953,-0.486689,0.000594434,0.012099,1560,449,3.85321,10.1248
343,575,3.87793,-9.93344,-0.000307079,-0.000300094,-0.000177734,-0.000125818,-0.000481355,-0.795222,0.000288267,0.0120216,1567,449,3.87792,9.93343
350,575,3.87427,-9.74365,-0.000452618,0.000121356,1.91565e-05,0.000121995,-0.000453256,1.53747,0.000349996,0.0107806,1574,449,3.8743,9.74366
357,575,3.86792,-9.52469,-0.000606516,0.000576917,0.000186479,0.000605606,-0.000635205,1.41815,0.00071645,0.0105872,1581,449,3.86794,9.52468
364,575,3.86218,-9.32922,-0.000840094,0.00111071,0.00029385,0.00115401,-0.000883396,1.42449,0.00117975,0.0102186,1588,449,3.86222,9.32923
371,575,3.87451,-9.15036,-0.00111247,0.00161115,0.000340761,0.00165314,-0.00115446,1.4482,0.00162947,0.0188588,1595,449,3.87447,9.15035
378,575,3.8689,-8.95758,-0.00140284,0.00204752,0.00035361,0.00208339,-0.00143871,1.46971,0.00204481,0.0190304,1602,449,3.86891,8.95759
385,575,3.8501,-8.72128,-0.0015971,0.00232308,0.000193967,0.00233266,-0.00160667,1.52148,0.00228721,0.011561,1609,449,3.85006,8.72128
392,575,3.83228,-8.50522,-0.00150571,0.00237721,0.000166432,0.00238433,-0.00151283,1.52804,0.0022687,0.00903364,1616,449,3.8323,8.50523
399,575,3.83032,-8.31564,-0.00135388,0.00242512,0.000296682,0.00244827,-0.00137703,1.49292,0.00223722,0.00932406,1623,449,3.83031,8.31563
406,575,3.83289,-8.091,-0.00112752,0.00239144,0.00036264,0.00242842,-0.0011645,1.46917,0.00211673,0.0103877,1630,449,3.83285,8.09101
413,575,3.82019,-7.86679,-0.000791705,0.00211022,0.000405639,0.00216585,-0.00084734,1.43449,0.00179433,0.0121777,1637,449,3.82013,7.8668
420,575,3.80432,-7.64438,-0.00081779,0.00124063,0.00107641,0.0017007,-0.00127786,1.16689,0.00172543,0.0140871,1644,449,3.80436,7.64439
427,575,3.76233,-7.4534,-0.00105434,-0.000331568,0.00193097,0.00127154,-0.00265745,0.877904,0.00231497,0.02037,1651,449,3.76238,7.45339
434,575,3.6853,-7.30411,-0.000928449,-0.00184542,0.00286782,0.0015173,-0.00429118,0.706132,0.00347866,0.0306096,1658,449,3.68535,7.3041
441,575,3.90991,-7.1084,-0.000904859,-0.0035444,0.00434223,0.00231374,-0.006763,0.637865,0.00544628,0.0476662,1665,449,3.90987,7.1084
448,575,4.1748,-6.89462,0,0,0,0,0,0,0,-1,1672,449,4.17479,6.89462
455,575,2.88135,-4.53244,0,0,0,0,0,0,0,-1,1679,449,2.8814,4.53243
462,575,4.31079,-6.21469,0,0,0,0,0,0,0,-1,1686,449,4.31079,6.21468
469,575,4.24304,-6.19894,-0.00791594,-0.0133244,0.0110716,0.000776916,-0.0220173,0.665619,0.0149439,0.0482739,1693,449,4.24305,6.19896
476,575,4.06592,-6.07227,-0.010761,-0.0162503,0.0129607,-0.000257527,-0.0267538,0.681055,0.0177506,0.048988,1700,449,4.06596,6.07227
483,575,3.82458,-5.90753,0,0,0,0,0,0,0,-1,1707,449,3.82462,5.90754
490,575,1.55469,-5.33722,0,0,0,0,0,0,0,-1,1714,449,1.55467,5.33722
497,575,0,0,0,0,0,0,0,0,0,-1,1721,449,0,0
504,575,0,0,0,0,0,0,0,0,0,-1,1728,449,0,0
511,575,0,0,0,0,0,0,0,0,0,-1,1735,449,0,0
518,575,0,0,0,0,0,0,0,0,0,-1,1742,449,0,0
525,575,0,0,0,0,0,0,0,0,0,-1,1749,449,0,0
532,575,0,0,0,0,0,0,0,0,0,-1,1756,449,0,0
539,575,0,0,0,0,0,0,0,0,0,-1,1763,449,0,0
546,575,0,0,0,0,0,0,0,0,0,-1,1770,449,0,0
553,575,0,0,0,0,0,0,0,0,0,-1,1777,449,0,0
560,575,0,0,0,0,0,0,0,0,0,-1,1784,449,0,0
567,575,0,0,0,0,0,0,0,0,0,-1,1791,449,0,0
574,575,0,0,0,0,0,0,0,0,0,-1,1798,449,0,0
581,575,0,0,0,0,0,0,0,0,0,-1,1805,449,0,0
588,575,0,0,0,0,0,0,0,0,0,-1,1812,449,0,0
595,575,0,0,0,0,0,0,0,0,0,-1,1819,449,0,0
602,575,0,0,0,0,0,0,0,0,0,-1,1826,449,0,0
609,575,0,0,0,0,0,0,0,0,0,-1,1833,449,0,0
616,575,0,0,0,0,0,0,0,0,0,-1,1840,449,0,0
623,575,0,0,0,0,0,0,0,0,0,-1,1847,449,0,0
630,575,0,0,0,0,0,0,0,0,0,-1,1854,449,0,0
637,575,0,0,0,0,0,0,0,0,0,-1,1861,449,0,0
644,575,0,0,0,0,0,0,0,0,0,-1,1868,449,0,0
651,575,0,0,0,0,0,0,0,0,0,-1,1875,449,0,0
658,575,0,0,0,0,0,0,0,0,0,-1,1882,449,0,0
665,575,0,0,0,0,0,0,0,0,0,-1,1889,449,0,0
672,575,0,0,0,0,0,0,0,0,0,-1,1896,449,0,0
679,575,0,0,0,0,0,0,0,0,0,-1,1903,449,0,0
686,575,0,0,0,0,0,0,0,0,0,-1,1910,449,0,0
693,575,0,0,0,0,0,0,0,0,0,-1,1917,449,0,0
700,575,0,0,0,0,0,0,0,0,0,-1,1924,449,0,0
707,575,0,0,0,0,0,0,0,0,0,-1,1931,449,0,0
714,575,0,0,0,0,0,0,0,0,0,-1,1938,449,0,0
721,575,0,0,0,0,0,0,0,0,0,-1,1945,449,0,0
728,575,0,0,0,0,0,0,0,0,0,-1,1952,449,0,0
735,575,0,0,0,0,0,0,0,0,0,-1,1959,449,0,0
742,575,0,0,0,0,0,0,0,0,0,-1,1966,449,0,0
749,575,0,0,0,0,0,0,0,0,0,-1,1973,449,0,0
756,575,0,0,0,0,0,0,0,0,0,-1,1980,449,0,0
763,575,0,0,0,0,0,0,0,0,0,-1,1987,449,0,0
770,575,0,0,0,0,0,0,0,0,0,-1,1994,449,0,0
777,575,0,0,0,0,0,0,0,0,0,-1,2001,449,0,0
784,575,0,0,0,0,0,0,0,0,0,-1,2008,449,0,0
791,575,0,0,0,0,0,0,0,0,0,-1,2015,449,0,0
798,575,0,0,0,0,0,0,0,0,0,-1,2022,449,0,0
805,575,0,0,0,0,0,0,0,0,0,-1,2029,449,0,0
812,575,0,0,0,0,0,0,0,0,0,-1,2036,449,0,0
-700,568,0,0,0,0,0,0,0,0,0,-1,524,456,0,0
-693,568,0,0,0,0,0,0,0,0,0,-1,531,456,0,0
-686,568,0,0,0,0,0,0,0,0,0,-1,538,456,0,0
-679,568,0,0,0,0,0,0,0,0,0,-1,545,456,0,0
-672,568,0,0,0,0,0,0,0,0,0,-1,552,456,0,0
-665,568,0,0,0,0,0,0,0,0,0,-1,559,456,0,0
-658,568,0,0,0,0,0,0,0,0,0,-1,566,456,0,0
-651,568,0,0,0,0,0,0,0,0,0,-1,573,456,0,0
-644,568,0,0,0,0,0,0,0,0,0,-1,580,456,0,0
-637,568,0,0,0,0,0,0,0,0,0,-1,587,456,0,0
-630,568,0,0,0,0,0,0,0,0,0,-1,594,456,0,0
-623,568,0,0,0,0,0,0,0,0,0,-1,601,456,0,0
-616,568,0,0,0,0,0,0,0,0,0,-1,608,456,0,0
-609,568,0,0,0,0,0,0,0,0,0,-1,615,456,0,0
-602,568,0,0,0,0,0,0,0,0,0,-1,622,456,0,0
-595,568,0,0,0,0,0,0,0,0,0,-1,629,456,0,0
-588,568,0,0,0,0,0,0,0,0,0,-1,636,456,0,0
-581,568,0,0,0,0,0,0,0,0,0,-1,643,456,0,0
-574,568,0,0,0,0,0,0,0,0,0,-1,650,456,0,0
-567,568,0,0,0,0,0,0,0,0,0,-1,657,456,0,0
-560,568,0,0,0,0,0,0,0,0,0,-1,664,456,0,0
-553,568,0,0,0,0,0,0,0,0,0,-1,671,456,0,0
-546,568,0,0,0,0,0,0,0,0,0,-1,678,456,0,0
-539,568,0,0,0,0,0,0,0,0,0,-1,685,456,0,0
-532,568,0,0,0,0,0,0,0,0,0,-1,692,456,0,0
-525,568,0,0,0,0,0,0,0,0,0,-1,699,456,0,0
-518,568,0,0,0,0,0,0,0,0,0,-1,706,456,0,0
-511,568,0,0,0,0,0,0,0,0,0,-1,713,456,0,0
-504,568,0,0,0,0,0,0,0,0,0,-1,720,456,0,0
-497,568,0,0,0,0,0,0,0,0,0,-1,727,456,0,0
-490,568,0,0,0,0,0,0,0,0,0,-1,734,456,0,0
-483,568,0,0,0,0,0,0,0,0,0,-1,741,456,0,0
-476,568,0,0,0,0,0,0,0,0,0,-1,748,456,0,0
-469,568,0,0,0,0,0,0,0,0,0,-1,755,456,0,0
-462,568,0,0,0,0,0,0,0,0,0,-1,762,456,0,0
-455,568,0,0,0,0,0,0,0,0,0,-1,769,456,0,0
-448,568,0,0,0,0,0,0,0,0,0,-1,776,456,0,0
-441,568,0,0,0,0,0,0,0,0,0,-1,783,456,0,0
-434,568,0,0,0,0,0,0,0,0,0,-1,790,456,0,0
-427,568,0,0,0,0,0,0,0,0,0,-1,797,456,0,0
-420,568,0,0,0,0,0,0,0,0,0,-1,804,456,0,0
-413,568,0,0,0,0,0,0,0,0,0,-1,811,456,0,0
-406,568,0,0,0,0,0,0,0,0,0,-1,818,456,0,0
-399,568,0,0,0,0,0,0,0,0,0,-1,825,456,0,0
-392,568,0,0,0,0,0,0,0,0,0,-1,832,456,0,0
-385,568,0,0,0,0,0,0,0,0,0,-1,839,456,0,0
-378,568,0.321777,-7.29929,0,0,0,0,0,0,0,-1,846,456,0.321806,7.29927
-371,568,1.09595,-7.46707,0,0,0,0,0,0,0,-1,853,456,1.09597,7.46707
-364,568,2.24109,-7.00473,0,0,0,0,0,0,0,-1,860,456,2.24108,7.00473
-357,568,2.29712,-7.2334,0,0,0,0,0,0,0,-1,867,456,2.29713,7.23341
-350,568,1.73596,-7.22437,0,0,0,0,0,0,0,-1,874,456,1.73598,7.22436
-343,568,2.0365,-7.33499,0,0,0,0,0,0,0,-1,881,456,2.0365,7.33498
-336,568,1.66803,-7.82883,0,0,0,0,0,0,0,-1,888,456,1.66802,7.82884
-329,568,1.61176,-7.88416,0.000131696,0.00488181,-0.0073759,0.0102556,-0.00524211,-0.941157,0.00910234,0.0462496,895,456,1.61178,7.88414
-322,568,1.60413,-7.96799,0.00142416,0.00500695,-0.00733407,0.0107652,-0.00433412,-0.905181,0.00897732,0.0417021,902,456,1.60413,7.96798
-315,568,1.58923,-8.15637,0.00237305,0.00466301,-0.00701261,0.0106235,-0.00358744,-0.866321,0.00853332,0.0363942,909,456,1.58926,8.15637
-308,568,1.56274,-8.4537,0.00291731,0.00418716,-0.00648406,0.0100673,-0.00296284,-0.834203,0.00788689,0.0268089,916,456,1.56277,8.45369
-301,568,1.57251,-8.64371,0.00318291,0.00349024,-0.00581937,0.00915797,-0.00248482,-0.798598,0.00708045,0.0146771,923,456,1.57253,8.6437
-294,568,1.55811,-8.83023,0.00318074,0.00260081,-0.00499564,0.00789482,-0.00211328,-0.756409,0.00609109,0.0109146,930,456,1.55811,8.83024
-287,568,1.54901,-9.04715,0.0030123,0.00192794,-0.00420127,0.00670623,-0.001766,-0.721227,0.0051612,0.0102595,937,456,1.54902,9.04714
-280,568,1.53784,-9.25446,0.00266124,0.00123899,-0.00339852,0.00542224,-0.00152201,-0.682263,0.00421478,0.0107761,944,456,1.53787,9.25444
-273,568,1.52374,-9.45023,0.0022791,0.000625148,-0.0027588,0.0043322,-0.00142796,-0.639781,0.00346367,0.0124414,951,456,1.52375,9.45022
-266,568,1.50079,-9.65079,0.001994,-0.000258311,-0.00212377,0.00327173,-0.00153603,-0.541616,0.00283542,0.0127707,958,456,1.50081,9.65079
-259,568,1.49652,-9.84055,0.00161927,-0.000825767,-0.00146963,0.00230839,-0.00151488,-0.438465,0.00222316,0.0127955,965,456,1.49655,9.84055
-252,568,1.48236,-10.0207,0.0013313,-0.0010196,-0.00101946,0.0017118,-0.00140009,-0.357223,0.00179966,0.0120288,972,456,1.48236,10.0207
-245,568,1.48438,-10.1855,0.00120928,-0.00121964,-0.000628318,0.00136219,-0.00137255,-0.238721,0.00157891,0.0135108,979,456,1.4844,10.1855
-238,568,1.49097,-10.3618,0.00124383,-0.00149958,-0.000421462,0.00130712,-0.00156287,-0.149049,0.00165918,0.0123735,986,456,1.49097,10.3617
-231,568,1.49164,-10.538,0.00146035,-0.00181161,-0.00028389,0.0014848,-0.00183606,-0.0859091,0.00192087,0.0108087,993,456,1.49161,10.538
-224,568,1.4743,-10.7022,0.00178018,-0.00200351,-0.000145116,0.00178574,-0.00200907,-0.0382781,0.0021922,0.0124678,1000,456,1.47431,10.7023
-217,568,1.50287,-10.8741,0.00216339,-0.0021352,-5.98463e-06,0.00216339,-0.00213521,-0.00139223,0.00248182,0.0112991,1007,456,1.50289,10.8741
-210,568,1.5127,-11.0469,0.00263025,-0.00234871,5.79664e-05,0.00263093,-0.00234938,0.0116402,0.00287691,0.010498,1014,456,1.51272,11.0469
-203,568,1.49908,-11.2048,0.00323076,-0.00218234,-6.74854e-05,0.0032316,-0.00218318,-0.0124645,0.0031457,0.00955643,1021,456,1.49909,11.2048
-196,568,1.54126,-11.3412,0.00386225,-0.0020283,-0.000188545,0.00386828,-0.00203433,-0.0319645,0.00346227,0.0129118,1028,456,1.54128,11.3412
-189,568,1.56323,-11.488,0.00449708,-0.00176773,-0.00051732,0.00453951,-0.00181016,-0.0818369,0.00377719,0.0131513,1035,456,1.56325,11.488
-182,568,1.55737,-11.6384,0.00521279,-0.00124333,-0.00103229,0.00537383,-0.00140437,-0.154754,0.00413103,0.0145029,1042,456,1.5574,11.6384
-175,568,1.54565,-11.7898,0.0058791,-0.000716844,-0.00162998,0.00625991,-0.00109766,-0.229514,0.00458319,0.0127613,1049,456,1.54568,11.7897
-168,568,1.55603,-11.9081,0.00644547,-8.74142e-05,-0.00235631,0.00720666,-0.000848605,-0.312462,0.00511084,0.0160383,1056,456,1.55604,11.908
-161,568,1.53735,-12.0204,0.00702344,0.000483039,-0.0031783,0.00831348,-0.000807,-0.385574,0.00582997,0.0252024,1063,456,1.53732,12.0204
-154,568,1.60706,-12.2762,0.00762743,0.00118625,-0.00410976,0.00962817,-0.000814497,-0.453054,0.00670678,0.0340849,1070,456,1.6071,12.2761
-147,568,1.7511,-12.3195,0.0083671,0.00186846,-0.00520448,0.0112533,-0.00101775,-0.506339,0.00786344,0.0422555,1077,456,1.75114,12.3195
-140,568,1.88831,-12.4456,0.00924898,0.00217777,-0.00644226,0.0130621,-0.00163532,-0.534432,0.0093012,0.047231,1084,456,1.88834,12.4456
-133,568,1.91687,-12.6763,0.0101036,0.00219465,-0.00737418,0.0145167,-0.00221846,-0.539282,0.0104957,0.0478943,1091,456,1.91693,12.6763
-126,568,1.90601,-12.8901,0,0,0,0,0,0,0,-1,1098,456,1.90603,12.8902
-119,568,1.80457,-12.7287,0,0,0,0,0,0,0,-1,1105,456,1.8046,12.7287
-112,568,1.74243,-12.6191,0,0,0,0,0,0,0,-1,1112,456,1.7424,12.6191
-105,568,1.65088,-11.8353,0,0,0,0,0,0,0,-1,1119,456,1.65091,11.8353
-98,568,0.930664,-12.1578,0,0,0,0,0,0,0,-1,1126,456,0.930642,12.1578
-91,568,1.11621,-11.1853,0,0,0,0,0,0,0,-1,1133,456,1.11626,11.1853
-84,568,0.461792,-9.7959,0,0,0,0,0,0,0,-1,1140,456,0.461793,9.7959
-77,568,-1.13806,-8.57822,0,0,0,0,0,0,0,-1,1147,456,-1.13807,8.57821
-70,568,-4.09766,-1.42911,0,0,0,0,0,0,0,-1,1154,456,-4.09767,1.4291
-63,568,-5.92273,-3.70752,0,0,0,0,0,0,0,-1,1161,456,-5.92272,3.70751
-56,568,-5.24158,-6.01385,0,0,0,0,0,0,0,-1,1168,456,-5.24161,6.01386
-49,568,-5.24365,-8.33557,0,0,0,0,0,0,0,-1,1175,456,-5.24371,8.33557
-42,568,-0.664795,0.521973,0,0,0,0,0,0,0,-1,1182,456,-0.664829,-0.521984
-35,568,-0.153076,-1.67731,0,0,0,0,0,0,0,-1,1189,456,-0.153068,1.67731
-28,568,1.25439,-4.48798,0,0,0,0,0,0,0,-1,1196,456,1.2544,4.48797
-21,568,1.57764,-12.9899,0,0,0,0,0,0,0,-1,1203,456,1.57765,12.9899
-14,568,1.80322,-12.8782,0,0,0,0,0,0,0,-1,1210,456,1.80325,12.8782
-7,568,1.85266,-12.5573,0,0,0,0,0,0,0,-1,1217,456,1.85266,12.5572
0,568,3.18201,-13.1327,0,0,0,0,0,0,0,-1,1224,456,3.18195,13.1327
7,568,3.15942,-13.3331,-0.0193838,0.00412368,0.00368397,0.0046875,-0.0199476,1.41893,0.0151053,0.0479637,1231,456,3.15939,13.3331
14,568,3.02905,-13.5017,-0.01901,0.000846029,0.00453407,0.00183238,-0.0199964,1.35659,0.0139818,0.044074,1238,456,3.02911,13.5017
21,568,2.75757,-13.6703,-0.0162228,-0.00565177,0.00582649,-0.0030706,-0.0188039,1.15377,0.0116481,0.0416997,1245,456,2.75759,13.6703
28,568,2.65588,-13.3921,-0.0122444,-0.0127139,0.00610735,-0.00636728,-0.018591,0.76619,0.0109096,0.0406746,1252,456,2.65592,13.3921
35,568,2.63184,-13.316,-0.00825695,-0.0200342,0.00573002,-0.00592918,-0.0223619,0.385875,0.013377,0.039636,1259,456,2.63189,13.316
42,568,2.5249,-13.3083,0,0,0,0,0,0,0,-1,1266,456,2.52486,13.3083
49,568,2.50513,-13.4446,0,0,0,0,0,0,0,-1,1273,456,2.5051,13.4447
56,568,2.56995,-13.4378,0.0113744,-0.0389706,0.0001785,0.011375,-0.0389712,0.00354548,0.0304882,0.045546,1280,456,2.56991,13.4378
63,568,2.47046,-13.1438,0.0196109,-0.0432206,-0.0023675,0.0197,-0.0433097,-0.037609,0.0372202,0.0453848,1287,456,2.47045,13.1438
70,568,2.52649,-12.9547,0.0260237,-0.0448008,-0.00595678,0.0265212,-0.0452983,-0.083326,0.0419348,0.0457681,1294,456,2.52653,12.9547
77,568,2.46045,-11.5814,0.0330294,-0.0432975,-0.0082491,0.0339107,-0.0441789,-0.106438,0.0452148,0.0440453,1301,456,2.46042,11.5814
84,568,2.59155,-12.5169,0.0406105,-0.0378654,-0.0123792,0.042517,-0.0397719,-0.152804,0.0475183,0.0450816,1308,456,2.59159,12.5169
91,568,2.7478,-13.3745,0.0442236,-0.0311169,-0.0152891,0.047208,-0.0341013,-0.192776,0.0471468,0.0413466,1315,456,2.74786,13.3745
98,568,2.99988,-13.9975,0.0436027,-0.0223054,-0.0177534,0.0480806,-0.0267833,-0.247075,0.0438018,0.0427591,1322,456,2.99988,13.9975
105,568,3.21179,-14.5347,0.0423807,-0.0131816,-0.0201712,0.0489313,-0.0197322,-0.314007,0.0408202,0.0463985,1329,456,3.21179,14.5347
112,568,3.65063,-15.0576,0.0405359,-0.00362267,-0.0226752,0.0501056,-0.0131924,-0.399357,0.038561,0.0480438,1336,456,3.65061,15.0576
119,568,4.08557,-15.5656,0.0360682,0.00636399,-0.0241156,0.0495383,-0.00710615,-0.509395,0.0356313,0.0453268,1343,456,4.08556,15.5656
126,568,2.96753,-13.6238,0.0293368,0.0168423,-0.0255209,0.049364,-0.00318485,-0.665364,0.0340207,0.0453065,1350,456,2.96747,13.6238
133,568,5.60767,-13.596,0.0202794,0.0249395,-0.0261426,0.0488557,-0.00363674,-0.829845,0.0338479,0.0478128,1357,456,5.60769,13.596
140,568,5.27551,-13.5849,0,0,0,0,0,0,0,-1,1364,456,5.27552,13.5849
147,568,4.76709,-13.5486,-0.00235281,0.0329682,-0.0275485,0.048031,-0.0174156,-1.07043,0.0391394,0.0461895,1371,456,4.76708,13.5486
154,568,4.19092,-13.3181,-0.0144588,0.0337509,-0.0284342,0.0469227,-0.0276306,-1.13699,0.0435211,0.0459841,1378,456,4.19097,13.3181
161,568,3.8811,-13.2599,0,0,0,0,0,0,0,-1,1385,456,3.88108,13.2599
168,568,9.09583,-0.563782,0,0,0,0,0,0,0,-1,1392,456,9.09586,0.563788
175,568,10.5151,0.747498,0,0,0,0,0,0,0,-1,1399,456,10.5152,-0.747501
182,568,6.35095,-3.63361,0,0,0,0,0,0,0,-1,1406,456,6.35093,3.63359
189,568,6.17493,-1.70911,0,0,0,0,0,0,0,-1,1413,456,6.17497,1.70911
196,568,6.04724,0.200836,0,0,0,0,0,0,0,-1,1420,456,6.04724,-0.200835
203,568,5.9281,2.08649,0,0,0,0,0,0,0,-1,1427,456,5.92812,-2.08648
210,568,1.46216,-2.50446,0,0,0,0,0,0,0,-1,1434,456,1.46219,2.50446
217,568,2.62366,-7.86703,0,0,0,0,0,0,0,-1,1441,456,2.62365,7.86704
224,568,3.43494,-12.1555,0,0,0,0,0,0,0,-1,1448,456,3.43492,12.1555
231,568,4.38245,-9.3205,0,0,0,0,0,0,0,-1,1455,456,4.38244,9.32048
238,568,3.88123,-9.43616,0,0,0,0,0,0,0,-1,1462,456,3.88117,9.43617
245,568,3.34387,-10.6774,0,0,0,0,0,0,0,-1,1469,456,3.34389,10.6774
252,568,3.56946,-9.28928,0,0,0,0,0,0,0,-1,1476,456,3.56948,9.28928
259,568,3.38843,-8.73068,0,0,0,0,0,0,0,-1,1483,456,3.38842,8.73068
266,568,3.104,-9.16876,0,0,0,0,0,0,0,-1,1490,456,3.10397,9.16876
273,568,3.86084,-11.9847,0,0,0,0,0,0,0,-1,1497,456,3.8609,11.9847
280,568,3.82727,-11.6525,0,0,0,0,0,0,0,-1,1504,456,3.82728,11.6525
287,568,3.9989,-11.2839,0.00134786,0.00114674,-0.00162557,0.00287598,-0.000381381,-0.754508,0.00205627,0.0396257,1511,456,3.99893,11.2839
294,568,4.05981,-11.1377,0.00103538,5.66649e-05,-0.00165089,0.00226792,-0.00117587,-0.641314,0.00202132,0.0253537,1518,456,4.05983,11.1377
301,568,4.05554,-10.9927,0.000617406,-0.000914434,-0.00165122,0.0016717,-0.00196872,-0.568242,0.00210413,0.0191222,1525,456,4.05554,10.9927
308,568,4.04211,-10.8125,0.000251774,-0.0015678,-0.00170633,0.0012757,-0.00259173,-0.540477,0.00227555,0.0118841,1532,456,4.04208,10.8125
315,568,4.03284,-10.6403,7.94448e-05,-0.00184817,-0.00166897,0.00104291,-0.00281164,-0.523547,0.0023022,0.00739716,1539,456,4.03281,10.6403
322,568,4.06189,-10.4806,-7.96596e-05,-0.00192745,-0.00152462,0.000779156,-0.00278626,-0.512995,0.00216449,0.00908736,1546,456,4.06193,10.4806
329,568,4.07593,-10.3136,-0.000121732,-0.0018678,-0.00129496,0.000567002,-0.00255653,-0.488807,0.00192145,0.0107389,1553,456,4.07599,10.3136
336,568,4.06079,-10.1203,-0.00010876,-0.0015381,-0.00100153,0.000406943,-0.0020538,-0.475508,0.00152308,0.011867,1560,456,4.06074,10.1203
343,568,4.07996,-9.93643,-0.000238566,-0.00122685,-0.000785102,0.000194957,-0.00166037,-0.504521,0.00117729,0.0109911,1567,456,4.07999,9.93643
350,568,4.06323,-9.7579,-0.000319454,-0.000871595,-0.0005709,3.86214e-05,-0.00122967,-0.560189,0.000832953,0.00959988,1574,456,4.06322,9.75789
357,568,4.04602,-9.54752,-0.000356259,-0.000467383,-0.000360404,-4.71596e-05,-0.000776483,-0.708918,0.000502673,0.00936061,1581,456,4.04608,9.54752
364,568,4.08118,-9.34512,-0.000472763,1.532e-05,-0.000192012,8.18023e-05,-0.000539245,-1.23748,0.000389637,0.0113201,1588,456,4.08122,9.34513
371,568,4.08289,-9.15833,-0.000637539,0.000475681,-6.39392e-05,0.000479342,-0.0006412,-1.51361,0.000649191,0.0205957,1595,456,4.08291,9.15831
378,568,4.05945,-8.94077,-0.000783316,0.000941613,4.61418e-05,0.000942846,-0.00078455,1.54407,0.000998707,0.0197247,1602,456,4.05949,8.94076
385,568,4.04736,-8.73517,-0.000877642,0.00123787,2.21388e-05,0.0012381,-0.000877874,1.56033,0.00122755,0.00950917,1609,456,4.04742,8.73518
392,568,4.04541,-8.5264,-0.000797997,0.00138392,8.8078e-05,0.00138747,-0.000801546,1.53052,0.00127883,0.010247,1616,456,4.04547,8.52639
399,568,4.03699,-8.34692,-0.000651686,0.00151416,0.000272403,0.0015479,-0.000685421,1.44758,0.00132107,0.0160329,1623,456,4.03699,8.34693
406,568,4.04871,-8.10678,-0.000458805,0.00158881,0.000401488,0.00166472,-0.000534714,1.38394,0.00132453,0.0144226,1630,456,4.04874,8.10677
413,568,4.04736,-7.86478,-0.000192557,0.00151504,0.000531002,0.00166669,-0.000344211,1.2926,0.00124187,0.0122322,1637,456,4.04741,7.86478
420,568,4.04028,-7.63434,-0.000209722,0.000944247,0.00108571,0.00159677,-0.000862242,1.02964,0.00144067,0.0106247,1644,456,4.04023,7.63433
427,568,4.0343,-7.40665,-0.000391434,-0.000147616,0.00174307,0.0014778,-0.00201685,0.820311,0.00202563,0.0124028,1651,456,4.0343,7.40664
434,568,4.04639,-7.20154,-0.000359185,-0.00119922,0.00243492,0.00169168,-0.00325009,0.69999,0.00290003,0.0161342,1658,456,4.04643,7.20153
441,568,4.03516,-7.04855,-0.00047066,-0.00243669,0.00345143,0.00213501,-0.00504236,0.646664,0.00425567,0.0235317,1665,456,4.03518,7.04857
448,568,4.13306,-6.64584,-0.00120907,-0.00402093,0.00448481,0.00208502,-0.00731502,0.633506,0.00570024,0.0394798,1672,456,4.13305,6.64583
455,568,4.12744,-6.25101,0,0,0,0,0,0,0,-1,1679,456,4.12747,6.25102
462,568,3.94507,-6.14133,0,0,0,0,0,0,0,-1,1686,456,3.94505,6.14134
469,568,4.03101,-6.06619,-0.00545947,-0.00997284,0.00814652,0.000737148,-0.0161695,0.65028,0.0110336,0.0440848,1693,456,4.03096,6.0662
476,568,3.92896,-5.82803,-0.0072886,-0.0124159,0.00938938,-0.000119185,-0.0195853,0.652127,0.0130173,0.0472269,1700,456,3.92893,5.82804
483,568,3.82581,-5.5629,0,0,0,0,0,0,0,-1,1707,456,3.82584,5.56289
490,568,2.37109,-4.57193,0,0,0,0,0,0,0,-1,1714,456,2.37115,4.57194
497,568,6.58289,-3.47745,0,0,0,0,0,0,0,-1,1721,456,6.58294,3.47744
504,568,0,0,0,0,0,0,0,0,0,-1,1728,456,0,0
511,568,0,0,0,0,0,0,0,0,0,-1,1735,456,0,0
518,568,0,0,0,0,0,0,0,0,0,-1,1742,456,0,0
525,568,0,0,0,0,0,0,0,0,0,-1,1749,456,0,0
532,568,0,0,0,0,0,0,0,0,0,-1,1756,456,0,0
539,568,0,0,0,0,0,0,0,0,0,-1,1763,456,0,0
546,568,0,0,0,0,0,0,0,0,0,-1,1770,456,0,0
553,568,0,0,0,0,0,0,0,0,0,-1,1777,456,0,0
560,568,0,0,0,0,0,0,0,0,0,-1,1784,456,0,0
567,568,0,0,0,0,0,0,0,0,0,-1,1791,456,0,0
574,568,0,0,0,0,0,0,0,0,0,-1,1798,456,0,0
581,568,0,0,0,0,0,0,0,0,0,-1,1805,456,0,0
588,568,0,0,0,0,0,0,0,0,0,-1,1812,456,0,0
595,568,0,0,0,0,0,0,0,0,0,-1,1819,456,0,0
602,568,0,0,0,0,0,0,0,0,0,-1,1826,456,0,0
609,568,0,0,0,0,0,0,0,0,0,-1,1833,456,0,0
616,568,0,0,0,0,0,0,0,0,0,-1,1840,456,0,0
623,568,0,0,0,0,0,0,0,0,0,-1,1847,456,0,0
630,568,0,0,0,0,0,0,0,0,0,-1,1854,456,0,0
637,568,0,0,0,0,0,0,0,0,0,-1,1861,456,0,0
644,568,0,0,0,0,0,0,0,0,0,-1,1868,456,0,0
651,568,0,0,0,0,0,0,0,0,0,-1,1875,456,0,0
658,568,0,0,0,0,0,0,0,0,0,-1,1882,456,0,0
665,568,0,0,0,0,0,0,0,0,0,-1,1889,456,0,0
672,568,0,0,0,0,0,0,0,0,0,-1,1896,456,0,0
679,568,0,0,0,0,0,0,0,0,0,-1,1903,456,0,0
686,568,0,0,0,0,0,0,0,0,0,-1,1910,456,0,0
693,568,0,0,0,0,0,0,0,0,0,-1,1917,456,0,0
700,568,0,0,0,0,0,0,0,0,0,-1,1924,456,0,0
707,568,0,0,0,0,0,0,0,0,0,-1,1931,456,0,0
714,568,0,0,0,0,0,0,0,0,0,-1,1938,456,0,0
721,568,0,0,0,0,0,0,0,0,0,-1,1945,456,0,0
728,568,0,0,0,0,0,0,0,0,0,-1,1952,456,0,0
735,568,0,0,0,0,0,0,0,0,0,-1,1959,456,0,0
742,568,0,0,0,0,0,0,0,0,0,-1,1966,456,0,0
749,568,0,0,0,0,0,0,0,0,0,-1,1973,456,0,0
756,568,0,0,0,0,0,0,0,0,0,-1,1980,456,0,0
763,568,0,0,0,0,0,0,0,0,0,-1,1987,456,0,0
770,568,0,0,0,0,0,0,0,0,0,-1,1994,456,0,0
777,568,0,0,0,0,0,0,0,0,0,-1,2001,456,0,0
784,568,0,0,0,0,0,0,0,0,0,-1,2008,456,0,0
791,568,0,0,0,0,0,0,0,0,0,-1,2015,456,0,0
798,568,0,0,0,0,0,0,0,0,0,-1,2022,456,0,0
805,568,0,0,0,0,0,0,0,0,0,-1,2029,456,0,0
812,568,0,0,0,0,0,0,0,0,0,-1,2036,456,0,0
-700,561,0,0,0,0,0,0,0,0,0,-1,524,463,0,0
-693,561,0,0,0,0,0,0,0,0,0,-1,531,463,0,0
-686,561,0,0,0,0,0,0,0,0,0,-1,538,463,0,0
-679,561,0,0,0,0,0,0,0,0,0,-1,545,463,0,0
-672,561,0,0,0,0,0,0,0,0,0,-1,552,463,0,0
-665,561,0,0,0,0,0,0,0,0,0,-1,559,463,0,0
-658,561,0,0,0,0,0,0,0,0,0,-1,566,463,0,0
-651,561,0,0,0,0,0,0,0,0,0,-1,573,463,0,0
-644,561,0,0,0,0,0,0,0,0,0,-1,580,463,0,0
-637,561,0,0,0,0,0,0,0,0,0,-1,587,463,0,0
-630,561,0,0,0,0,0,0,0,0,0,-1,594,463,0,0
-623,561,0,0,0,0,0,0,0,0,0,-1,601,463,0,0
-616,561,0,0,0,0,0,0,0,0,0,-1,608,463,0,0
-609,561,0,0,0,0,0,0,0,0,0,-1,615,463,0,0
-602,561,0,0,0,0,0,0,0,0,0,-1,622,463,0,0
-595,561,0,0,0,0,0,0,0,0,0,-1,629,463,0,0
-588,561,0,0,0,0,0,0,0,0,0,-1,636,463,0,0
-581,561,0,0,0,0,0,0,0,0,0,-1,643,463,0,0
-574,561,0,0,0,0,0,0,0,0,0,-1,650,463,0,0
-567,561,0,0,0,0,0,0,0,0,0,-1,657,463,0,0
-560,561,0,0,0,0,0,0,0,0,0,-1,664,463,0,0
-553,561,0,0,0,0,0,0,0,0,0,-1,671,463,0,0
-546,561,0,0,0,0,0,0,0,0,0,-1,678,463,0,0
-539,561,0,0,0,0,0,0,0,0,0,-1,685,463,0,0
-532,561,0,0,0,0,0,0,0,0,0,-1,692,463,0,0
-525,561,0,0,0,0,0,0,0,0,0,-1,699,463,0,0
-518,561,0,0,0,0,0,0,0,0,0,-1,706,463,0,0
-511,561,0,0,0,0,0,0,0,0,0,-1,713,463,0,0
-504,561,0,0,0,0,0,0,0,0,0,-1,720,463,0,0
-497,561,0,0,0,0,0,0,0,0,0,-1,727,463,0,0
-490,561,0,0,0,0,0,0,0,0,0,-1,734,463,0,0
-483,561,0,0,0,0,0,0,0,0,0,-1,741,463,0,0
-476,561,0,0,0,0,0,0,0,0,0,-1,748,463,0,0
-469,561,0,0,0,0,0,0,0,0,0,-1,755,463,0,0
-462,561,0,0,0,0,0,0,0,0,0,-1,762,463,0,0
-455,561,0,0,0,0,0,0,0,0,0,-1,769,463,0,0
-448,561,0,0,0,0,0,0,0,0,0,-1,776,463,0,0
-441,561,0,0,0,0,0,0,0,0,0,-1,783,463,0,0
-434,561,0,0,0,0,0,0,0,0,0,-1,790,463,0,0
-427,561,0,0,0,0,0,0,0,0,0,-1,797,463,0,0
-420,561,0,0,0,0,0,0,0,0,0,-1,804,463,0,0
-413,561,0,0,0,0,0,0,0,0,0,-1,811,463,0,0
-406,561,0,0,0,0,0,0,0,0,0,-1,818,463,0,0
-399,561,0,0,0,0,0,0,0,0,0,-1,825,463,0,0
-392,561,-0.498413,-4.28265,0,0,0,0,0,0,0,-1,832,463,-0.49843,4.28265
-385,561,0.273926,-7.0257,0,0,0,0,0,0,0,-1,839,463,0.27391,7.02569
-378,561,0.495178,-7.37878,0,0,0,0,0,0,0,-1,846,463,0.495164,7.37879
-371,561,1.06299,-7.56818,0,0,0,0,0,0,0,-1,853,463,1.06297,7.56817
-364,561,1.45264,-7.57684,0,0,0,0,0,0,0,-1,860,463,1.45264,7.57684
-357,561,1.35852,-7.53738,0,0,0,0,0,0,0,-1,867,463,1.35851,7.53737
-350,561,1.49213,-7.41827,0,0,0,0,0,0,0,-1,874,463,1.49213,7.41829
-343,561,1.69702,-7.47083,-0.00161183,0.00183723,-0.00550106,0.00587774,-0.00565233,-0.937292,0.00665731,0.0471252,881,463,1.69705,7.47083
-336,561,1.55823,-7.68521,-0.000849566,0.00288343,-0.00563129,0.00694949,-0.00491563,-0.945426,0.00688379,0.0470302,888,463,1.55822,7.6852
-329,561,1.41211,-7.87289,-0.000176185,0.00325123,-0.00550836,0.0073063,-0.00423125,-0.936207,0.00673961,0.0333707,895,463,1.41213,7.87291
-322,561,1.37067,-8.01321,0.000606212,0.00349038,-0.00542693,0.00766356,-0.00356697,-0.915261,0.00662618,0.0252567,902,463,1.37065,8.0132
-315,561,1.40448,-8.16837,0.00128604,0.00334376,-0.00518476,0.00760075,-0.00297096,-0.883345,0.00629566,0.0190313,909,463,1.40446,8.16835
-308,561,1.38373,-8.38184,0.00174599,0.00307881,-0.00480522,0.00726361,-0.00243881,-0.854301,0.005828,0.0148091,916,463,1.38375,8.38182
-301,561,1.37915,-8.62939,0.00205066,0.00261643,-0.00433349,0.00667626,-0.00200917,-0.817992,0.00525031,0.0112455,923,463,1.37912,8.62939
-294,561,1.35028,-8.83493,0.00218833,0.00198858,-0.00374002,0.00582981,-0.00165289,-0.772049,0.00453896,0.00976687,930,463,1.35028,8.83492
-287,561,1.35535,-9.04877,0.00219062,0.00149738,-0.00315111,0.00501411,-0.00132611,-0.730618,0.00386144,0.00886693,937,463,1.35533,9.04878
-280,561,1.34851,-9.24133,0.00204796,0.000919707,-0.00255162,0.00409707,-0.00112941,-0.676606,0.00317552,0.0118055,944,463,1.34854,9.24134
-273,561,1.32697,-9.43741,0.00185442,0.000370506,-0.00206768,0.00330923,-0.00108431,-0.613136,0.00264281,0.0148483,951,463,1.32695,9.43742
-266,561,1.3139,-9.64011,0.00173592,-0.000398103,-0.00159373,0.00258685,-0.00124903,-0.490416,0.0022591,0.0102113,958,463,1.31392,9.64011
-259,561,1.29791,-9.82376,0.0015488,-0.00094973,-0.0010885,0.00195649,-0.00135742,-0.358368,0.00192368,0.0103724,965,463,1.29789,9.82376
-252,561,1.28601,-9.99478,0.00145733,-0.00120493,-0.000716397,0.00163786,-0.00138546,-0.246865,0.00174754,0.0138664,972,463,1.28602,9.99479
-245,561,1.30499,-10.1755,0.00154799,-0.00148786,-0.00040511,0.00160111,-0.00154099,-0.130403,0.00181421,0.0174085,979,463,1.30499,10.1755
-238,561,1.32336,-10.3649,0.00174999,-0.00184315,-0.000215345,0.00176285,-0.00185601,-0.0596479,0.00208958,0.0137601,986,463,1.32337,10.3649
-231,561,1.31287,-10.5466,0.0021128,-0.00226421,-9.28724e-05,0.00211477,-0.00226618,-0.0212055,0.00252984,0.0105931,993,463,1.31284,10.5466
-224,561,1.30377,-10.7214,0.00254642,-0.00256379,5.42367e-05,0.002547,-0.00256436,0.0106118,0.00295105,0.0108558,1000,463,1.3038,10.7214
-217,561,1.32996,-10.8848,0.00303732,-0.0027756,0.00021861,0.00304553,-0.00278381,0.0375369,0.0033667,0.0114037,1007,463,1.32997,10.8848
-210,561,1.33319,-11.0526,0.00364835,-0.00309048,0.000296389,0.00366136,-0.00310349,0.0438694,0.00391011,0.0122926,1014,463,1.33317,11.0526
-203,561,1.33783,-11.2141,0.0044272,-0.00291527,0.000126683,0.00442938,-0.00291745,0.0172467,0.00427153,0.0134888,1021,463,1.33781,11.2141
-196,561,1.37537,-11.3522,0.0052516,-0.0027534,-4.01568e-05,0.0052518,-0.0027536,-0.0050163,0.00469634,0.0136623,1028,463,1.37536,11.3522
-189,561,1.3866,-11.494,0.00611127,-0.00244996,-0.000461091,0.00613603,-0.00247473,-0.0536511,0.00511904,0.015993,1035,463,1.38662,11.494
-182,561,1.38843,-11.6537,0.00707896,-0.00177703,-0.00112783,0.00722033,-0.0019184,-0.1247,0.00556437,0.0183642,1042,463,1.38847,11.6537
-175,561,1.38464,-11.8046,0.00798761,-0.000953532,-0.00193317,0.00838768,-0.0013536,-0.20407,0.00609331,0.0281094,1049,463,1.3846,11.8046
-168,561,1.41858,-11.971,0.00872895,-3.63918e-05,-0.0029125,0.00960845,-0.000915892,-0.293267,0.00673173,0.0400709,1056,463,1.4186,11.971
-161,561,1.4198,-11.9841,0.00951969,0.000857825,-0.00405088,0.0111189,-0.000741387,-0.375999,0.00767168,0.0445019,1063,463,1.41986,11.9841
-154,561,1.73584,-12.4712,0.0103408,0.00202753,-0.0053896,0.0129905,-0.000622108,-0.456921,0.00887495,0.0455613,1070,463,1.73589,12.4712
-147,561,1.84985,-12.3817,0.0112893,0.0032065,-0.00705642,0.0153797,-0.000883883,-0.525335,0.0105601,0.0468691,1077,463,1.84989,12.3816
-140,561,1.93848,-12.2568,0,0,0,0,0,0,0,-1,1084,463,1.93849,12.2568
-133,561,2.16492,-12.7023,0,0,0,0,0,0,0,-1,1091,463,2.16489,12.7023
-126,561,0.453491,-10.7643,0,0,0,0,0,0,0,-1,1098,463,0.453469,10.7643
-119,561,1.57874,-12.7647,0,0,0,0,0,0,0,-1,1105,463,1.57875,12.7647
-112,561,1.05957,-11.1366,0,0,0,0,0,0,0,-1,1112,463,1.05963,11.1366
-105,561,1.13269,-10.9895,0,0,0,0,0,0,0,-1,1119,463,1.1327,10.9895
-98,561,1.5387,-7.54352,0,0,0,0,0,0,0,-1,1126,463,1.53871,7.54351
-91,561,1.29553,-6.57968,0,0,0,0,0,0,0,-1,1133,463,1.29549,6.5797
-84,561,1.23364,-5.84555,0,0,0,0,0,0,0,-1,1140,463,1.23363,5.84556
-77,561,-2.36023,1.00204,0,0,0,0,0,0,0,-1,1147,463,-2.3602,-1.00205
-70,561,-3.90015,-1.41541,0,0,0,0,0,0,0,-1,1154,463,-3.90009,1.4154
-63,561,-6.95691,-4.02756,0,0,0,0,0,0,0,-1,1161,463,-6.95696,4.02756
-56,561,-5.37988,-6.66855,0,0,0,0,0,0,0,-1,1168,463,-5.37988,6.66854
-49,561,-5.7439,-9.11029,0,0,0,0,0,0,0,-1,1175,463,-5.74387,9.1103
-42,561,-1.72644,-5.63065,0,0,0,0,0,0,0,-1,1182,463,-1.72648,5.63064
-35,561,-1.65674,-4.87994,0,0,0,0,0,0,0,-1,1189,463,-1.6567,4.87993
-28,561,-1.91418,-3.86896,0,0,0,0,0,0,0,-1,1196,463,-1.91414,3.86895
-21,561,10.9413,-16.1349,0,0,0,0,0,0,0,-1,1203,463,10.9413,16.135
-14,561,10.7742,-15.725,0,0,0,0,0,0,0,-1,1210,463,10.7742,15.725
-7,561,10.8099,-15.472,0,0,0,0,0,0,0,-1,1217,463,10.81,15.472
0,561,3.15247,-13.5291,0,0,0,0,0,0,0,-1,1224,463,3.15243,13.529
7,561,3.06323,-13.634,-0.0231088,0.0100718,0.00625726,0.0112126,-0.0242495,1.39046,0.0209302,0.0460359,1231,463,3.06324,13.634
14,561,2.94629,-13.6314,-0.0229627,0.00593738,0.00750552,0.00777036,-0.0247957,1.33127,0.0196398,0.0420508,1238,463,2.94623,13.6314
21,561,2.76379,-13.3217,0,0,0,0,0,0,0,-1,1245,463,2.76379,13.3217
28,561,2.7937,-13.0226,0,0,0,0,0,0,0,-1,1252,463,2.79364,13.0226
35,561,2.65967,-13.0775,0,0,0,0,0,0,0,-1,1259,463,2.65961,13.0775
42,561,3.1842,-15.545,0,0,0,0,0,0,0,-1,1266,463,3.18415,15.545
49,561,2.80066,-14.4082,0.00600127,-0.0365068,0.00325209,0.00624863,-0.0367542,0.0759163,0.0268293,0.0445203,1273,463,2.80065,14.4082
56,561,2.33533,-13.2728,0.0145978,-0.0426701,-0.000318089,0.0145995,-0.0426719,-0.00555417,0.0343642,0.0435465,1280,463,2.3353,13.2728
63,561,2.30383,-13.2052,0,0,0,0,0,0,0,-1,1287,463,2.3038,13.2052
70,561,2.31348,-10.3683,0.0327382,-0.0507544,-0.00854153,0.033603,-0.0516193,-0.10091,0.0495683,0.0449225,1294,463,2.31343,10.3682
77,561,2.41431,-11.0799,0.0414085,-0.0491494,-0.0118438,0.0429318,-0.0506728,-0.127921,0.0541042,0.0439171,1301,463,2.41425,11.0799
84,561,2.43701,-11.9981,0.0502121,-0.0425786,-0.0168054,0.0531619,-0.0455285,-0.17376,0.0570357,0.042196,1308,463,2.43698,11.9981
91,561,2.44507,-12.9999,0.0539556,-0.0343012,-0.020318,0.0584085,-0.038754,-0.215746,0.0564781,0.0405908,1315,463,2.44512,12.9999
98,561,2.75244,-13.5524,0.0526239,-0.023773,-0.0230515,0.0590404,-0.0301895,-0.271483,0.0524069,0.0433039,1322,463,2.75238,13.5524
105,561,3.26147,-14.1527,0.0512151,-0.0129058,-0.0258402,0.0603321,-0.0220228,-0.339189,0.0492326,0.0479331,1329,463,3.26151,14.1527
112,561,3.98645,-14.594,0.0486643,-0.00141883,-0.0286413,0.0616674,-0.014422,-0.426177,0.0466678,0.0492603,1336,463,3.9865,14.594
119,561,6.48047,-14.1917,0.0426055,0.0103827,-0.0299657,0.0605164,-0.00752819,-0.538738,0.0430735,0.0436868,1343,463,6.4805,14.1917
126,561,2.7052,-13.9316,0.0338476,0.0227477,-0.031349,0.060134,-0.00353883,-0.697787,0.0413195,0.0450429,1350,463,2.70521,13.9316
133,561,5.82556,-14.1791,0.0221916,0.032252,-0.0317798,0.0593973,-0.00495364,-0.863889,0.0413484,0.0497605,1357,463,5.82552,14.1791
140,561,6.00696,-13.8992,0,0,0,0,0,0,0,-1,1364,463,6.007,13.8992
147,561,5.45581,-13.8123,-0.00782925,0.0416158,-0.0331367,0.0582363,-0.0244498,-1.10589,0.0490492,0.0478269,1371,463,5.45586,13.8123
154,561,5.05017,-13.8708,-0.0248131,0.0421465,-0.0341105,0.0564623,-0.0391289,-1.17343,0.0554913,0.0465534,1378,463,5.05017,13.8708
161,561,4.51428,-13.9126,0,0,0,0,0,0,0,-1,1385,463,4.51433,13.9126
168,561,-1.68591,-18.2095,0,0,0,0,0,0,0,-1,1392,463,-1.68589,18.2095
175,561,10.4185,0.276398,0,0,0,0,0,0,0,-1,1399,463,10.4185,-0.276394
182,561,6.45703,-4.02127,0,0,0,0,0,0,0,-1,1406,463,6.45704,4.02127
189,561,6.50854,-2.08685,0,0,0,0,0,0,0,-1,1413,463,6.50851,2.08686
196,561,6.44775,-0.27182,0,0,0,0,0,0,0,-1,1420,463,6.44773,0.271814
203,561,6.18591,1.1301,0,0,0,0,0,0,0,-1,1427,463,6.18592,-1.13009
210,561,5.68713,2.68427,0,0,0,0,0,0,0,-1,1434,463,5.6871,-2.68425
217,561,3.61743,-7.33582,0,0,0,0,0,0,0,-1,1441,463,3.61738,7.33581
224,561,4.27466,-8.59171,0,0,0,0,0,0,0,-1,1448,463,4.27466,8.59171
231,561,4.93188,-9.8476,0,0,0,0,0,0,0,-1,1455,463,4.93193,9.84761
238,561,2.18018,-5.18359,0,0,0,0,0,0,0,-1,1462,463,2.18023,5.18359
245,561,3.07568,-3.50238,0,0,0,0,0,0,0,-1,1469,463,3.0757,3.50238
252,561,3.47412,-3.71109,0,0,0,0,0,0,0,-1,1476,463,3.47413,3.71109
259,561,3.42212,-3.2334,0,0,0,0,0,0,0,-1,1483,463,3.42214,3.2334
266,561,4.44373,-5.90027,0,0,0,0,0,0,0,-1,1490,463,4.44372,5.90026
273,561,2.59485,-3.65268,0,0,0,0,0,0,0,-1,1497,463,2.5948,3.65268
280,561,3.10767,-6.38235,0,0,0,0,0,0,0,-1,1504,463,3.10766,6.38235
287,561,4.25647,-11.1597,0,0,0,0,0,0,0,-1,1511,463,4.25647,11.1597
294,561,4.29736,-11.086,0,0,0,0,0,0,0,-1,1518,463,4.29741,11.086
301,561,4.28992,-10.9821,0.000398936,-0.0020694,-0.00223204,0.00171529,-0.00338575,-0.532851,0.00299726,0.0398975,1525,463,4.28995,10.9822
308,561,4.24316,-10.8123,-4.0961e-05,-0.00285295,-0.00237698,0.00131472,-0.00420863,-0.518324,0.00333162,0.0326456,1532,463,4.24321,10.8123
315,561,4.21497,-10.6599,-0.000233631,-0.00313153,-0.00235893,0.00108581,-0.00445097,-0.509986,0.00338776,0.0223442,1539,463,4.21501,10.6598
322,561,4.25488,-10.5347,-0.000369657,-0.00317915,-0.00220014,0.000835943,-0.00438475,-0.50128,0.00323799,0.0230059,1546,463,4.25487,10.5347
329,561,4.25708,-10.3119,-0.000306301,-0.00307234,-0.00193128,0.000686095,-0.00406473,-0.474669,0.0029651,0.0154254,1553,463,4.25707,10.3118
336,561,4.26929,-10.1075,-0.000155927,-0.00266565,-0.00156934,0.00059857,-0.00342015,-0.448147,0.00250359,0.0117879,1560,463,4.26928,10.1075
343,561,4.26855,-9.92938,-0.0002797,-0.00245151,-0.0013606,0.000375206,-0.00310642,-0.448605,0.00220667,0.0102239,1567,463,4.26854,9.92939
350,561,4.2428,-9.74527,-0.000328407,-0.0022377,-0.00117606,0.000231692,-0.0027978,-0.44447,0.00194703,0.00945621,1574,463,4.24275,9.74528
357,561,4.24304,-9.54147,-0.000296852,-0.00189659,-0.00102477,0.000203257,-0.0023967,-0.454018,0.00166968,0.0100259,1581,463,4.2431,9.54148
364,561,4.27515,-9.35812,-0.000344454,-0.00144959,-0.000846828,0.000114142,-0.00190818,-0.496329,0.00131182,0.00962379,1588,463,4.27517,9.35813
371,561,4.26501,-9.17389,-0.00044011,-0.0010052,-0.000691266,2.41254e-05,-0.00146944,-0.591391,0.000987764,0.0160825,1595,463,4.26502,9.17388
378,561,4.24194,-8.95425,-0.000501548,-0.000494215,-0.000517822,1.99535e-05,-0.00101572,-0.788938,0.000683892,0.0121829,1602,463,4.24193,8.95426
385,561,4.25659,-8.74817,-0.000544651,-0.000123767,-0.000452095,0.000164465,-0.000832883,-1.00322,0.000617422,0.0105356,1609,463,4.25654,8.74816
392,561,4.27222,-8.51205,-0.000480834,0.00017241,-0.000322349,0.00030469,-0.000613114,-1.18139,0.000539776,0.0140794,1616,463,4.27224,8.51205
399,561,4.2489,-8.29474,-0.000346749,0.000417308,-7.59454e-05,0.000424783,-0.000354225,-1.47268,0.000450375,0.0194149,1623,463,4.24885,8.29475
406,561,4.25818,-8.08124,-0.000175159,0.000643205,0.000144388,0.000667933,-0.000199887,1.40118,0.000524765,0.0188094,1630,463,4.25815,8.08123
413,561,4.26392,-7.86734,5.4063e-05,0.000797937,0.000392591,0.0009668,-0.0001148,1.16459,0.00068601,0.0182457,1637,463,4.26391,7.86735
420,561,4.24194,-7.63913,6.11561e-05,0.000525275,0.000899718,0.00122238,-0.000635947,0.91161,0.00109057,0.0145737,1644,463,4.24191,7.63913
427,561,4.25769,-7.3959,-6.57049e-05,-0.000144206,0.00144758,0.00134316,-0.00155307,0.771844,0.0016736,0.0106071,1651,463,4.25767,7.3959
434,561,4.28247,-7.16803,-7.00802e-05,-0.000809229,0.00200075,0.00159494,-0.00247425,0.694069,0.00236756,0.0113905,1658,463,4.28247,7.16803
441,561,4.26733,-6.95486,-0.000203068,-0.00166352,0.00274492,0.0019071,-0.00377368,0.655395,0.0033383,0.014007,1665,463,4.26734,6.95488
448,561,4.24219,-6.72006,-0.000752244,-0.00280928,0.00350235,0.00186949,-0.00543101,0.642581,0.00437894,0.0178107,1672,463,4.24218,6.72005
455,561,4.22253,-6.43976,-0.00159104,-0.00419956,0.00425992,0.00155981,-0.00735041,0.636844,0.00549451,0.0333547,1679,463,4.22256,6.43976
462,561,4.17432,-6.19513,-0.00252301,-0.00564854,0.00500368,0.00115627,-0.00932782,0.634036,0.00663762,0.0359393,1686,463,4.17437,6.19514
469,561,4.16138,-5.91672,-0.00351363,-0.00742458,0.00585819,0.000706842,-0.0116451,0.624312,0.00800939,0.0243917,1693,463,4.16133,5.91671
476,561,4.10046,-5.66531,-0.00457244,-0.00940377,0.00664188,7.94237e-05,-0.0140556,0.610984,0.00939701,0.0445559,1700,463,4.10051,5.66532
483,561,4.01575,-5.40298,0,0,0,0,0,0,0,-1,1707,463,4.01577,5.40298
490,561,6.13135,-2.58374,0,0,0,0,0,0,0,-1,1714,463,6.13139,2.58373
497,561,7.30652,-2.46649,0,0,0,0,0,0,0,-1,1721,463,7.30649,2.4665
504,561,6.45044,-2.35263,0,0,0,0,0,0,0,-1,1728,463,6.4504,2.35263
511,561,0,0,0,0,0,0,0,0,0,-1,1735,463,0,0
518,561,0,0,0,0,0,0,0,0,0,-1,1742,463,0,0
525,561,0,0,0,0,0,0,0,0,0,-1,1749,463,0,0
532,561,0,0,0,0,0,0,0,0,0,-1,1756,463,0,0
539,561,0,0,0,0,0,0,0,0,0,-1,1763,463,0,0
546,561,0,0,0,0,0,0,0,0,0,-1,1770,463,0,0
553,561,0,0,0,0,0,0,0,0,0,-1,1777,463,0,0
560,561,0,0,0,0,0,0,0,0,0,-1,1784,463,0,0
567,561,0,0,0,0,0,0,0,0,0,-1,1791,463,0,0
574,561,0,0,0,0,0,0,0,0,0,-1,1798,463,0,0
581,561,0,0,0,0,0,0,0,0,0,-1,1805,463,0,0
588,561,0,0,0,0,0,0,0,0,0,-1,1812,463,0,0
595,561,0,0,0,0,0,0,0,0,0,-1,1819,463,0,0
602,561,0,0,0,0,0,0,0,0,0,-1,1826,463,0,0
609,561,0,0,0,0,0,0,0,0,0,-1,1833,463,0,0
616,561,0,0,0,0,0,0,0,0,0,-1,1840,463,0,0
623,561,0,0,0,0,0,0,0,0,0,-1,1847,463,0,0
630,561,0,0,0,0,0,0,0,0,0,-1,1854,463,0,0
637,561,0,0,0,0,0,0,0,0,0,-1,1861,463,0,0
644,561,0,0,0,0,0,0,0,0,0,-1,1868,463,0,0
651,561,0,0,0,0,0,0,0,0,0,-1,1875,463,0,0
658,561,0,0,0,0,0,0,0,0,0,-1,1882,463,0,0
665,561,0,0,0,0,0,0,0,0,0,-1,1889,463,0,0
672,561,0,0,0,0,0,0,0,0,0,-1,1896,463,0,0
679,561,0,0,0,0,0,0,0,0,0,-1,1903,463,0,0
686,561,0,0,0,0,0,0,0,0,0,-1,1910,463,0,0
693,561,0,0,0,0,0,0,0,0,0,-1,1917,463,0,0
700,561,0,0,0,0,0,0,0,0,0,-1,1924,463,0,0
707,561,0,0,0,0,0,0,0,0,0,-1,1931,463,0,0
714,561,0,0,0,0,0,0,0,0,0,-1,1938,463,0,0
721,561,0,0,0,0,0,0,0,0,0,-1,1945,463,0,0
728,561,0,0,0,0,0,0,0,0,0,-1,1952,463,0,0
735,561,0,0,0,0,0,0,0,0,0,-1,1959,463,0,0
742,561,0,0,0,0,0,0,0,0,0,-1,1966,463,0,0
749,561,0,0,0,0,0,0,0,0,0,-1,1973,463,0,0
756,561,0,0,0,0,0,0,0,0,0,-1,1980,463,0,0
763,561,0,0,0,0,0,0,0,0,0,-1,1987,463,0,0
770,561,0,0,0,0,0,0,0,0,0,-1,1994,463,0,0
777,561,0,0,0,0,0,0,0,0,0,-1,2001,463,0,0
784,561,0,0,0,0,0,0,0,0,0,-1,2008,463,0,0
791,561,0,0,0,0,0,0,0,0,0,-1,2015,463,0,0
798,561,0,0,0,0,0,0,0,0,0,-1,2022,463,0,0
805,561,0,0,0,0,0,0,0,0,0,-1,2029,463,0,0
812,561,0,0,0,0,0,0,0,0,0,-1,2036,463,0,0
-700,554,0,0,0,0,0,0,0,0,0,-1,524,470,0,0
-693,554,0,0,0,0,0,0,0,0,0,-1,531,470,0,0
-686,554,0,0,0,0,0,0,0,0,0,-1,538,470,0,0
-679,554,0,0,0,0,0,0,0,0,0,-1,545,470,0,0
-672,554,0,0,0,0,0,0,0,0,0,-1,552,470,0,0
-665,554,0,0,0,0,0,0,0,0,0,-1,559,470,0,0
-658,554,0,0,0,0,0,0,0,0,0,-1,566,470,0,0
-651,554,0,0,0,0,0,0,0,0,0,-1,573,470,0,0
-644,554,0,0,0,0,0,0,0,0,0,-1,580,470,0,0
-637,554,0,0,0,0,0,0,0,0,0,-1,587,470,0,0
-630,554,0,0,0,0,0,0,0,0,0,-1,594,470,0,0
-623,554,0,0,0,0,0,0,0,0,0,-1,601,470,0,0
-616,554,0,0,0,0,0,0,0,0,0,-1,608,470,0,0
-609,554,0,0,0,0,0,0,0,0,0,-1,615,470,0,0
-602,554,0,0,0,0,0,0,0,0,0,-1,622,470,0,0
-595,554,0,0,0,0,0,0,0,0,0,-1,629,470,0,0
-588,554,0,0,0,0,0,0,0,0,0,-1,636,470,0,0
-581,554,0,0,0,0,0,0,0,0,0,-1,643,470,0,0
-574,554,0,0,0,0,0,0,0,0,0,-1,650,470,0,0
-567,554,0,0,0,0,0,0,0,0,0,-1,657,470,0,0
-560,554,0,0,0,0,0,0,0,0,0,-1,664,470,0,0
-553,554,0,0,0,0,0,0,0,0,0,-1,671,470,0,0
-546,554,0,0,0,0,0,0,0,0,0,-1,678,470,0,0
-539,554,0,0,0,0,0,0,0,0,0,-1,685,470,0,0
-532,554,0,0,0,0,0,0,0,0,0,-1,692,470,0,0
-525,554,0,0,0,0,0,0,0,0,0,-1,699,470,0,0
-518,554,0,0,0,0,0,0,0,0,0,-1,706,470,0,0
-511,554,0,0,0,0,0,0,0,0,0,-1,713,470,0,0
-504,554,0,0,0,0,0,0,0,0,0,-1,720,470,0,0
-497,554,0,0,0,0,0,0,0,0,0,-1,727,470,0,0
-490,554,0,0,0,0,0,0,0,0,0,-1,734,470,0,0
-483,554,0,0,0,0,0,0,0,0,0,-1,741,470,0,0
-476,554,0,0,0,0,0,0,0,0,0,-1,748,470,0,0
-469,554,0,0,0,0,0,0,0,0,0,-1,755,470,0,0
-462,554,0,0,0,0,0,0,0,0,0,-1,762,470,0,0
-455,554,0,0,0,0,0,0,0,0,0,-1,769,470,0,0
-448,554,0,0,0,0,0,0,0,0,0,-1,776,470,0,0
-441,554,0,0,0,0,0,0,0,0,0,-1,783,470,0,0
-434,554,0,0,0,0,0,0,0,0,0,-1,790,470,0,0
-427,554,0,0,0,0,0,0,0,0,0,-1,797,470,0,0
-420,554,0,0,0,0,0,0,0,0,0,-1,804,470,0,0
-413,554,0,0,0,0,0,0,0,0,0,-1,811,470,0,0
-406,554,0,0,0,0,0,0,0,0,0,-1,818,470,0,0
-399,554,1.22241,-4.88776,0,0,0,0,0,0,0,-1,825,470,1.2224,4.88775
-392,554,-0.667969,-3.71759,0,0,0,0,0,0,0,-1,832,470,-0.667998,3.71759
-385,554,0.376343,-6.9808,0,0,0,0,0,0,0,-1,839,470,0.376336,6.98082
-378,554,0.642395,-7.45447,0,0,0,0,0,0,0,-1,846,470,0.642421,7.45448
-371,554,1.24487,-7.94312,0,0,0,0,0,0,0,-1,853,470,1.24484,7.94311
-364,554,1.04883,-7.68756,0,0,0,0,0,0,0,-1,860,470,1.0488,7.68757
-357,554,1.24969,-7.43643,0,0,0,0,0,0,0,-1,867,470,1.24968,7.43644
-350,554,0.988037,-6.44641,0,0,0,0,0,0,0,-1,874,470,0.988022,6.44642
-343,554,1.14307,-6.9754,-0.000845551,0.00126823,-0.00447218,0.0048067,-0.00438403,-0.901432,0.00530814,0.0436714,881,470,1.14308,6.97542
-336,554,1.22797,-7.55005,-0.000529134,0.0019626,-0.00436367,0.00525477,-0.0038213,-0.924453,0.00526181,0.0346041,888,470,1.22799,7.55006
-329,554,1.18256,-7.79132,-0.000269232,0.00217018,-0.0040645,0.00519404,-0.00329309,-0.931166,0.00494085,0.0167209,895,470,1.18258,7.79131
-322,554,1.16687,-8.00497,0.000196961,0.00239688,-0.00394126,0.0053888,-0.00279495,-0.92148,0.00480335,0.00921836,902,470,1.16688,8.00497
-315,554,1.17535,-8.21091,0.000677526,0.00234043,-0.00372821,0.00532877,-0.00231082,-0.895111,0.00452399,0.00999397,909,470,1.17534,8.21091
-308,554,1.17242,-8.42587,0.00105272,0.00219606,-0.00343548,0.00510711,-0.00185833,-0.867843,0.00416476,0.0126047,916,470,1.17243,8.42587
-301,554,1.18597,-8.62994,0.00135515,0.00188495,-0.00308973,0.00472112,-0.00148101,-0.828161,0.00374014,0.012757,923,470,1.18599,8.62995
-294,554,1.13593,-8.84375,0.00156897,0.00146555,-0.00266637,0.00418413,-0.00114961,-0.775703,0.00324131,0.0108901,930,470,1.13594,8.84374
-287,554,1.13196,-9.05463,0.00167523,0.00112639,-0.00224256,0.0036601,-0.000858477,-0.724516,0.00277092,0.0107662,937,470,1.13194,9.05463
-280,554,1.14703,-9.23401,0.00167278,0.000630236,-0.00181846,0.0030432,-0.000740185,-0.645812,0.00231531,0.0108157,944,470,1.14705,9.23402
-273,554,1.1308,-9.43033,0.00163872,0.000152822,-0.00148448,0.00255578,-0.000764242,-0.553383,0.00200769,0.0141404,951,470,1.13077,9.43032
-266,554,1.12445,-9.6492,0.00166211,-0.00049913,-0.00116503,0.00217052,-0.00100754,-0.411483,0.00187536,0.0118151,958,470,1.12444,9.64921
-259,554,1.1109,-9.79947,0.00163774,-0.00105172,-0.000809454,0.00186257,-0.00127655,-0.270924,0.00182287,0.0114295,965,470,1.11092,9.79948
-252,554,1.091,-9.96182,0.00173225,-0.0014025,-0.00051454,0.00181455,-0.00148479,-0.158598,0.00190805,0.014129,972,470,1.09103,9.96181
-245,554,1.08356,-10.1494,0.00203322,-0.00179743,-0.000274925,0.00205285,-0.00181706,-0.0712827,0.00223568,0.0177389,979,470,1.08357,10.1494
-238,554,1.13208,-10.3706,0.00240217,-0.00226479,-9.71031e-05,0.00240419,-0.00226681,-0.0207945,0.00269719,0.0131563,986,470,1.13211,10.3706
-231,554,1.13354,-10.55,0.0029229,-0.00283286,2.63431e-05,0.00292302,-0.00283298,0.0045767,0.00332337,0.0100516,993,470,1.13355,10.55
-224,554,1.13196,-10.7123,0.00349348,-0.00328835,0.000206747,0.00349978,-0.00329465,0.0304478,0.00392336,0.0101611,1000,470,1.13198,10.7123
-217,554,1.15948,-10.8723,0.00412099,-0.00362843,0.000428958,0.00414466,-0.0036521,0.0551291,0.00450446,0.0101602,1007,470,1.15948,10.8723
-210,554,1.18658,-11.0593,0.00490602,-0.0040786,0.000558179,0.00494057,-0.00411315,0.0618093,0.00523443,0.0131821,1014,470,1.1866,11.0593
-203,554,1.19751,-11.247,0.00590044,-0.00391629,0.000384476,0.00591547,-0.00393132,0.0390856,0.00572339,0.0203464,1021,470,1.19749,11.247
-196,554,1.21008,-11.3322,0.0069697,-0.00372889,0.000195617,0.00697327,-0.00373247,0.0182762,0.00627465,0.0270902,1028,470,1.21002,11.3322
-189,554,1.28516,-11.3963,0.0081176,-0.00326713,-0.000314022,0.00812625,-0.00327579,-0.0275548,0.00677861,0.0321104,1035,470,1.28514,11.3963
-182,554,1.44836,-11.4135,0.00941131,-0.002283,-0.00116466,0.00952617,-0.00239786,-0.0983055,0.00728286,0.0379863,1042,470,1.44835,11.4135
-175,554,1.20862,-11.8368,0,0,0,0,0,0,0,-1,1049,470,1.20857,11.8368
-168,554,1.28625,-12.0481,0,0,0,0,0,0,0,-1,1056,470,1.28629,12.0481
-161,554,2.04675,-12.8025,0,0,0,0,0,0,0,-1,1063,470,2.04679,12.8025
-154,554,2.12366,-12.8809,0,0,0,0,0,0,0,-1,1070,470,2.12367,12.8809
-147,554,1.87744,-12.4924,0,0,0,0,0,0,0,-1,1077,470,1.87739,12.4924
-140,554,1.8894,-12.0389,0,0,0,0,0,0,0,-1,1084,470,1.88936,12.0389
-133,554,1.05115,-10.659,0,0,0,0,0,0,0,-1,1091,470,1.05113,10.659
-126,554,-0.195923,-8.76236,0,0,0,0,0,0,0,-1,1098,470,-0.195888,8.76235
-119,554,0.361694,-10.4571,0,0,0,0,0,0,0,-1,1105,470,0.361651,10.4571
-112,554,0.944214,-10.2726,0,0,0,0,0,0,0,-1,1112,470,0.944204,10.2726
-105,554,2.82129,-9.46112,0,0,0,0,0,0,0,-1,1119,470,2.82127,9.46112
-98,554,1.51929,-7.3624,0,0,0,0,0,0,0,-1,1126,470,1.51928,7.36241
-91,554,1.41089,-6.5864,0,0,0,0,0,0,0,-1,1133,470,1.41093,6.58638
-84,554,1.62305,-5.87186,0,0,0,0,0,0,0,-1,1140,470,1.62299,5.87186
-77,554,-2.56958,1.33258,0,0,0,0,0,0,0,-1,1147,470,-2.56959,-1.33257
-70,554,-3.68164,-1.18332,0,0,0,0,0,0,0,-1,1154,470,-3.68158,1.18331
-63,554,-4.86853,-3.88708,0,0,0,0,0,0,0,-1,1161,470,-4.86853,3.88708
-56,554,-5.69958,-6.45422,0,0,0,0,0,0,0,-1,1168,470,-5.69955,6.45422
-49,554,-6.23645,-8.8569,0,0,0,0,0,0,0,-1,1175,470,-6.23643,8.85689
-42,554,-6.62524,-11.5382,0,0,0,0,0,0,0,-1,1182,470,-6.62522,11.5382
-35,554,-2.40173,-4.59482,0,0,0,0,0,0,0,-1,1189,470,-2.40169,4.59481
-28,554,-0.760132,-1.65555,0,0,0,0,0,0,0,-1,1196,470,-0.760095,1.65556
-21,554,6.67249,-10.1976,0,0,0,0,0,0,0,-1,1203,470,6.67249,10.1976
-14,554,10.7109,-14.7352,0,0,0,0,0,0,0,-1,1210,470,10.711,14.7352
-7,554,10.5144,-14.7876,0,0,0,0,0,0,0,-1,1217,470,10.5144,14.7876
0,554,9.31885,-14.8671,0,0,0,0,0,0,0,-1,1224,470,9.31889,14.8671
7,554,3.28674,-13.905,0,0,0,0,0,0,0,-1,1231,470,3.2868,13.905
14,554,2.60181,-13.621,-0.0264604,0.0127654,0.0122371,0.0162699,-0.0299649,1.29188,0.0270812,0.0430175,1238,470,2.60177,13.621
21,554,2.53772,-13.6469,0,0,0,0,0,0,0,-1,1245,470,2.53773,13.6469
28,554,2.93018,-12.666,0,0,0,0,0,0,0,-1,1252,470,2.93012,12.666
35,554,2.9303,-12.4968,0,0,0,0,0,0,0,-1,1259,470,2.9303,12.4968
42,554,3.45251,-15.6745,0,0,0,0,0,0,0,-1,1266,470,3.45251,15.6745
49,554,3.09045,-14.6573,0,0,0,0,0,0,0,-1,1273,470,3.09048,14.6574
56,554,2.36987,-13.1212,0,0,0,0,0,0,0,-1,1280,470,2.36993,13.1212
63,554,1.04578,-9.17459,0,0,0,0,0,0,0,-1,1287,470,1.04572,9.1746
70,554,1.54248,-9.75793,0.0413963,-0.0564058,-0.0115123,0.0427331,-0.0577426,-0.115605,0.0582251,0.0409248,1294,470,1.54254,9.75794
77,554,2.31702,-10.5929,0.0519345,-0.0550627,-0.0163591,0.0543798,-0.057508,-0.148378,0.0646068,0.0441107,1301,470,2.31696,10.5929
84,554,2.18555,-11.5853,0,0,0,0,0,0,0,-1,1308,470,2.1856,11.5853
91,554,2.11597,-12.646,0.0646955,-0.0376379,-0.0264204,0.0711141,-0.0440566,-0.238325,0.0671027,0.0416254,1315,470,2.11595,12.646
98,554,2.8125,-13.464,0.0619961,-0.0255025,-0.029346,0.0709269,-0.0344333,-0.295422,0.0620341,0.0443748,1322,470,2.8125,13.464
105,554,3.23975,-14.0895,0.0601752,-0.0129739,-0.0324826,0.0725171,-0.0253158,-0.363106,0.0586343,0.0497853,1329,470,3.23976,14.0895
112,554,3.66882,-14.6888,0,0,0,0,0,0,0,-1,1336,470,3.66888,14.6887
119,554,7.0448,-14.3236,0,0,0,0,0,0,0,-1,1343,470,7.04479,14.3236
126,554,7.73193,-14.5867,0,0,0,0,0,0,0,-1,1350,470,7.73196,14.5867
133,554,7.2489,-14.407,0.0225286,0.0387888,-0.037578,0.0691062,-0.00778873,-0.891932,0.0488744,0.0462989,1357,470,7.24888,14.407
140,554,6.703,-14.2153,0.0047831,0.046294,-0.0376921,0.0685674,-0.0174904,-1.03707,0.0525216,0.0490503,1364,470,6.70295,14.2153
147,554,6.0957,-14.0518,-0.0161649,0.049782,-0.038562,0.0675459,-0.0339288,-1.13912,0.0596484,0.0497096,1371,470,6.09575,14.0518
154,554,5.51611,-13.8936,0,0,0,0,0,0,0,-1,1378,470,5.51606,13.8935
161,554,-1.74866,-15.3942,0,0,0,0,0,0,0,-1,1385,470,-1.74866,15.3942
168,554,-1.89685,-16.8844,0,0,0,0,0,0,0,-1,1392,470,-1.89688,16.8844
175,554,10.663,0.286957,0,0,0,0,0,0,0,-1,1399,470,10.663,-0.286966
182,554,6.71106,-4.50217,0,0,0,0,0,0,0,-1,1406,470,6.71107,4.50215
189,554,6.90479,-2.50348,0,0,0,0,0,0,0,-1,1413,470,6.90477,2.50348
196,554,6.96216,-0.740906,0,0,0,0,0,0,0,-1,1420,470,6.96214,0.740912
203,554,6.43518,0.414154,0,0,0,0,0,0,0,-1,1427,470,6.43523,-0.414141
210,554,6.21167,1.96707,0,0,0,0,0,0,0,-1,1434,470,6.21165,-1.96706
217,554,5.64551,3.4989,0,0,0,0,0,0,0,-1,1441,470,5.64555,-3.49891
224,554,4.85144,-8.85172,0,0,0,0,0,0,0,-1,1448,470,4.85146,8.85173
231,554,3.25073,-5.29642,0,0,0,0,0,0,0,-1,1455,470,3.25078,5.29642
238,554,4.28625,-3.25253,0,0,0,0,0,0,0,-1,1462,470,4.28622,3.25252
245,554,4.0752,-2.90033,0,0,0,0,0,0,0,-1,1469,470,4.07515,2.90032
252,554,3.52112,-0.934998,0,0,0,0,0,0,0,-1,1476,470,3.52113,0.934996
259,554,3.96448,-2.16425,0,0,0,0,0,0,0,-1,1483,470,3.96446,2.16424
266,554,3.0592,-2.71716,0,0,0,0,0,0,0,-1,1490,470,3.05923,2.71718
273,554,2.58521,-3.06876,0,0,0,0,0,0,0,-1,1497,470,2.58524,3.06874
280,554,2.83301,-0.991699,0,0,0,0,0,0,0,-1,1504,470,2.83303,0.991704
287,554,3.54126,-4.12277,0,0,0,0,0,0,0,-1,1511,470,3.54123,4.12277
294,554,3.62036,-8.50146,0,0,0,0,0,0,0,-1,1518,470,3.62031,8.50145
301,554,4.49536,-10.855,0,0,0,0,0,0,0,-1,1525,470,4.49538,10.855
308,554,4.46521,-10.9059,0,0,0,0,0,0,0,-1,1532,470,4.46525,10.9059
315,554,4.40137,-10.7119,0,0,0,0,0,0,0,-1,1539,470,4.40131,10.7119
322,554,4.54675,-10.3447,-0.000926542,-0.00485847,-0.00310308,0.000780932,-0.00656595,-0.503035,0.00465947,0.0475427,1546,470,4.54676,10.3447
329,554,4.43237,-10.2368,-0.000686261,-0.00462382,-0.00272357,0.000705606,-0.00601568,-0.472444,0.00426516,0.0272111,1553,470,4.43239,10.2368
336,554,4.43433,-10.096,-0.000353445,-0.00407519,-0.00224552,0.000702047,-0.00513068,-0.439397,0.00367688,0.0125837,1560,470,4.43432,10.096
343,554,4.43542,-9.94101,-0.00047366,-0.00394661,-0.00203477,0.000464866,-0.00488514,-0.432165,0.00342226,0.0100303,1567,470,4.43547,9.94102
350,554,4.43701,-9.73993,-0.000481563,-0.00383947,-0.00186513,0.000348986,-0.00467002,-0.418941,0.00323595,0.00947467,1574,470,4.43704,9.73993
357,554,4.46936,-9.53354,-0.00037391,-0.00350928,-0.00175288,0.000410051,-0.00429324,-0.420557,0.00300817,0.010891,1581,470,4.4693,9.53355
364,554,4.47632,-9.35101,-0.000353172,-0.00305211,-0.00155272,0.000354543,-0.00375982,-0.427659,0.0026327,0.00897865,1588,470,4.47628,9.35101
371,554,4.46619,-9.15964,-0.00039345,-0.00257248,-0.00136245,0.000261545,-0.00322748,-0.448127,0.00224392,0.00819909,1595,470,4.46623,9.15962
378,554,4.45984,-8.9382,-0.000390255,-0.00198402,-0.00113322,0.00019822,-0.0025725,-0.478963,0.00178474,0.00968489,1602,470,4.45989,8.93821
385,554,4.48157,-8.73331,-0.000407486,-0.00151891,-0.00100486,0.000185089,-0.00211148,-0.532818,0.00147323,0.00959235,1609,470,4.48152,8.73331
392,554,4.49084,-8.5155,-0.000384361,-0.00106748,-0.000847361,0.000187691,-0.00163953,-0.593817,0.00116065,0.0130665,1616,470,4.49087,8.51551
399,554,4.48071,-8.28192,-0.00028257,-0.000733836,-0.000580744,0.000114833,-0.00113124,-0.600111,0.000795206,0.0176019,1623,470,4.48075,8.28193
406,554,4.47388,-8.08051,-0.000143788,-0.000391867,-0.00031808,7.35828e-05,-0.000609238,-0.599486,0.000432776,0.0169444,1630,470,4.47392,8.08049
413,554,4.48389,-7.85693,5.5867e-05,-5.29105e-05,-2.31928e-06,5.59164e-05,-5.29599e-05,-0.0213084,6.28675e-05,0.0168954,1637,470,4.48395,7.85694
420,554,4.45959,-7.65955,8.94064e-05,-7.04654e-05,0.000455167,0.000471603,-0.000452662,0.698475,0.000533662,0.0184098,1644,470,4.45965,7.65956
427,554,4.47913,-7.41479,1.56069e-05,-0.000388077,0.000929769,0.00076519,-0.00113766,0.678513,0.0011056,0.0123981,1651,470,4.47907,7.4148
434,554,4.48669,-7.18848,8.87202e-06,-0.000749867,0.00139503,0.0010752,-0.00181619,0.652637,0.00168752,0.0100966,1658,470,4.48664,7.18849
441,554,4.48132,-6.94595,-8.82719e-05,-0.00129786,0.00198125,0.00137844,-0.00276457,0.637261,0.00243619,0.0110074,1665,470,4.48129,6.94595
448,554,4.47388,-6.70129,-0.00043973,-0.00203646,0.00257951,0.00146213,-0.00393832,0.635322,0.00322536,0.0120987,1672,470,4.47385,6.7013
455,554,4.45227,-6.47452,-0.000985115,-0.00299906,0.00313716,0.00130272,-0.00528689,0.630102,0.00402965,0.0135669,1679,470,4.45224,6.47452
462,554,4.41431,-6.22388,-0.00152533,-0.00407542,0.00361577,0.00103362,-0.00663438,0.615888,0.00480466,0.0167737,1686,470,4.41425,6.22387
469,554,4.3988,-5.95407,-0.00202936,-0.00547934,0.00413017,0.000721572,-0.00823027,0.587581,0.00574251,0.0227464,1693,470,4.39876,5.95409
476,554,4.4021,-5.67682,-0.002643,-0.00705831,0.00456544,0.000220533,-0.00992184,0.560194,0.00668929,0.048767,1700,470,4.40213,5.67682
483,554,4.40771,-5.4046,0,0,0,0,0,0,0,-1,1707,470,4.40766,5.4046
490,554,7.31543,-3.51794,0,0,0,0,0,0,0,-1,1714,470,7.3154,3.51794
497,554,7.9751,-2.43454,0,0,0,0,0,0,0,-1,1721,470,7.97505,2.43453
504,554,2.13257,-3.81628,0,0,0,0,0,0,0,-1,1728,470,2.1326,3.8163
511,554,1.31396,-4.02713,0,0,0,0,0,0,0,-1,1735,470,1.31398,4.02712
518,554,-1.15686,-2.436,0,0,0,0,0,0,0,-1,1742,470,-1.15691,2.43599
525,554,0,0,0,0,0,0,0,0,0,-1,1749,470,0,0
532,554,0,0,0,0,0,0,0,0,0,-1,1756,470,0,0
539,554,0,0,0,0,0,0,0,0,0,-1,1763,470,0,0
546,554,0,0,0,0,0,0,0,0,0,-1,1770,470,0,0
553,554,0,0,0,0,0,0,0,0,0,-1,1777,470,0,0
560,554,0,0,0,0,0,0,0,0,0,-1,1784,470,0,0
567,554,0,0,0,0,0,0,0,0,0,-1,1791,470,0,0
574,554,0,0,0,0,0,0,0,0,0,-1,1798,470,0,0
581,554,0,0,0,0,0,0,0,0,0,-1,1805,470,0,0
588,554,0,0,0,0,0,0,0,0,0,-1,1812,470,0,0
595,554,0,0,0,0,0,0,0,0,0,-1,1819,470,0,0
602,554,0,0,0,0,0,0,0,0,0,-1,1826,470,0,0
609,554,0,0,0,0,0,0,0,0,0,-1,1833,470,0,0
616,554,0,0,0,0,0,0,0,0,0,-1,1840,470,0,0
623,554,0,0,0,0,0,0,0,0,0,-1,1847,470,0,0
630,554,0,0,0,0,0,0,0,0,0,-1,1854,470,0,0
637,554,0,0,0,0,0,0,0,0,0,-1,1861,470,0,0
644,554,0,0,0,0,0,0,0,0,0,-1,1868,470,0,0
651,554,0,0,0,0,0,0,0,0,0,-1,1875,470,0,0
658,554,0,0,0,0,0,0,0,0,0,-1,1882,470,0,0
665,554,0,0,0,0,0,0,0,0,0,-1,1889,470,0,0
672,554,0,0,0,0,0,0,0,0,0,-1,1896,470,0,0
679,554,0,0,0,0,0,0,0,0,0,-1,1903,470,0,0
686,554,0,0,0,0,0,0,0,0,0,-1,1910,470,0,0
693,554,0,0,0,0,0,0,0,0,0,-1,1917,470,0,0
700,554,0,0,0,0,0,0,0,0,0,-1,1924,470,0,0
707,554,0,0,0,0,0,0,0,0,0,-1,1931,470,0,0
714,554,0,0,0,0,0,0,0,0,0,-1,1938,470,0,0
721,554,0,0,0,0,0,0,0,0,0,-1,1945,470,0,0
728,554,0,0,0,0,0,0,0,0,0,-1,1952,470,0,0
735,554,0,0,0,0,0,0,0,0,0,-1,1959,470,0,0
742,554,0,0,0,0,0,0,0,0,0,-1,1966,470,0,0
749,554,0,0,0,0,0,0,0,0,0,-1,1973,470,0,0
756,554,0,0,0,0,0,0,0,0,0,-1,1980,470,0,0
763,554,0,0,0,0,0,0,0,0,0,-1,1987,470,0,0
770,554,0,0,0,0,0,0,0,0,0,-1,1994,470,0,0
777,554,0,0,0,0,0,0,0,0,0,-1,2001,470,0,0
784,554,0,0,0,0,0,0,0,0,0,-1,2008,470,0,0
791,554,0,0,0,0,0,0,0,0,0,-1,2015,470,0,0
798,554,0,0,0,0,0,0,0,0,0,-1,2022,470,0,0
805,554,0,0,0,0,0,0,0,0,0,-1,2029,470,0,0
812,554,0,0,0,0,0,0,0,0,0,-1,2036,470,0,0
-700,547,0,0,0,0,0,0,0,0,0,-1,524,477,0,0
-693,547,0,0,0,0,0,0,0,0,0,-1,531,477,0,0
-686,547,0,0,0,0,0,0,0,0,0,-1,538,477,0,0
-679,547,0,0,0,0,0,0,0,0,0,-1,545,477,0,0
-672,547,0,0,0,0,0,0,0,0,0,-1,552,477,0,0
-665,547,0,0,0,0,0,0,0,0,0,-1,559,477,0,0
-658,547,0,0,0,0,0,0,0,0,0,-1,566,477,0,0
-651,547,0,0,0,0,0,0,0,0,0,-1,573,477,0,0
-644,547,0,0,0,0,0,0,0,0,0,-1,580,477,0,0
-637,547,0,0,0,0,0,0,0,0,0,-1,587,477,0,0
-630,547,0,0,0,0,0,0,0,0,0,-1,594,477,0,0
-623,547,0,0,0,0,0,0,0,0,0,-1,601,477,0,0
-616,547,0,0,0,0,0,0,0,0,0,-1,608,477,0,0
-609,547,0,0,0,0,0,0,0,0,0,-1,615,477,0,0
-602,547,0,0,0,0,0,0,0,0,0,-1,622,477,0,0
-595,547,0,0,0,0,0,0,0,0,0,-1,629,477,0,0
-588,547,0,0,0,0,0,0,0,0,0,-1,636,477,0,0
-581,547,0,0,0,0,0,0,0,0,0,-1,643,477,0,0
-574,547,0,0,0,0,0,0,0,0,0,-1,650,477,0,0
-567,547,0,0,0,0,0,0,0,0,0,-1,657,477,0,0
-560,547,0,0,0,0,0,0,0,0,0,-1,664,477,0,0
-553,547,0,0,0,0,0,0,0,0,0,-1,671,477,0,0
-546,547,0,0,0,0,0,0,0,0,0,-1,678,477,0,0
-539,547,0,0,0,0,0,0,0,0,0,-1,685,477,0,0
-532,547,0,0,0,0,0,0,0,0,0,-1,692,477,0,0
-525,547,0,0,0,0,0,0,0,0,0,-1,699,477,0,0
-518,547,0,0,0,0,0,0,0,0,0,-1,706,477,0,0
-511,547,0,0,0,0,0,0,0,0,0,-1,713,477,0,0
-504,547,0,0,0,0,0,0,0,0,0,-1,720,477,0,0
-497,547,0,0,0,0,0,0,0,0,0,-1,727,477,0,0
-490,547,0,0,0,0,0,0,0,0,0,-1,734,477,0,0
-483,547,0,0,0,0,0,0,0,0,0,-1,741,477,0,0
-476,547,0,0,0,0,0,0,0,0,0,-1,748,477,0,0
-469,547,0,0,0,0,0,0,0,0,0,-1,755,477,0,0
-462,547,0,0,0,0,0,0,0,0,0,-1,762,477,0,0
-455,547,0,0,0,0,0,0,0,0,0,-1,769,477,0,0
-448,547,0,0,0,0,0,0,0,0,0,-1,776,477,0,0
-441,547,0,0,0,0,0,0,0,0,0,-1,783,477,0,0
-434,547,0,0,0,0,0,0,0,0,0,-1,790,477,0,0
-427,547,0,0,0,0,0,0,0,0,0,-1,797,477,0,0
-420,547,0,0,0,0,0,0,0,0,0,-1,804,477,0,0
-413,547,0,0,0,0,0,0,0,0,0,-1,811,477,0,0
-406,547,-1.9129,-4.21432,0,0,0,0,0,0,0,-1,818,477,-1.91292,4.21433
-399,547,-3.53412,0.451965,0,0,0,0,0,0,0,-1,825,477,-3.53412,-0.451962
-392,547,-3.37329,1.82104,0,0,0,0,0,0,0,-1,832,477,-3.37327,-1.82105
-385,547,-0.308533,-4.51331,0,0,0,0,0,0,0,-1,839,477,-0.308519,4.51331
-378,547,0.832397,-7.59033,0,0,0,0,0,0,0,-1,846,477,0.832371,7.59032
-371,547,1.20789,-8.06766,0,0,0,0,0,0,0,-1,853,477,1.20791,8.06765
-364,547,0.271729,-4.58582,0,0,0,0,0,0,0,-1,860,477,0.271753,4.5858
-357,547,1.13318,-6.4292,0,0,0,0,0,0,0,-1,867,477,1.1332,6.4292
-350,547,1.07721,-7.17087,0,0,0,0,0,0,0,-1,874,477,1.07721,7.17086
-343,547,0.995483,-7.24136,-0.000247092,0.00100822,-0.00362953,0.00406396,-0.00330284,-0.871016,0.00426078,0.0361298,881,477,0.995493,7.24136
-336,547,0.992798,-7.57391,-0.000202693,0.00139391,-0.00338316,0.00407167,-0.00288046,-0.901261,0.00403341,0.0170995,888,477,0.992823,7.5739
-329,547,0.97406,-7.78799,-0.000206585,0.00143619,-0.00296914,0.00369546,-0.00246585,-0.920344,0.00358077,0.00957842,895,477,0.974041,7.78801
-322,547,0.970825,-7.99976,4.22433e-05,0.00159667,-0.00280481,0.00372996,-0.00209104,-0.920557,0.00340487,0.00996426,902,477,0.970841,7.99977
-315,547,0.966858,-8.22064,0.000375011,0.00157096,-0.00259585,0.00363682,-0.00169085,-0.898602,0.00314359,0.00997339,909,477,0.966866,8.22064
-308,547,0.967712,-8.43201,0.000690347,0.00148373,-0.00234761,0.00346793,-0.00129386,-0.869096,0.00284313,0.0113453,916,477,0.96772,8.43202
-301,547,0.969116,-8.64313,0.000993594,0.0012716,-0.00207779,0.00321503,-0.00094984,-0.818798,0.00252035,0.0105187,923,477,0.96912,8.64313
-294,547,0.939453,-8.85278,0.00125507,0.000952638,-0.00176351,0.00287384,-0.000666129,-0.742629,0.00217225,0.00928158,930,477,0.939438,8.85279
-287,547,0.921387,-9.04227,0.00142979,0.00065162,-0.00144221,0.00253447,-0.000453065,-0.653643,0.00185916,0.0108245,937,477,0.921359,9.04228
-280,547,0.937988,-9.2236,0.00153017,0.000171326,-0.00113257,0.00217147,-0.000469979,-0.515227,0.00162709,0.0119584,944,477,0.938009,9.2236
-273,547,0.938232,-9.4314,0.00162261,-0.000287219,-0.000912079,0.0019882,-0.000652816,-0.38123,0.00158844,0.0117676,951,477,0.938236,9.43139
-266,547,0.930725,-9.63589,0.0017594,-0.000874029,-0.000715926,0.00194144,-0.00105608,-0.249005,0.0017556,0.0115928,958,477,0.930738,9.6359
-259,547,0.918457,-9.80453,0.00187061,-0.00146881,-0.000494359,0.00194226,-0.00154046,-0.143926,0.0020152,0.0104652,965,477,0.918456,9.80453
-252,547,0.922852,-9.98257,0.00213462,-0.00195312,-0.000266642,0.00215194,-0.00197044,-0.0648635,0.00238082,0.010864,972,477,0.922824,9.98258
-245,547,0.932556,-10.175,0.00263964,-0.0024756,-0.000105531,0.00264181,-0.00247777,-0.0206191,0.0029563,0.013451,979,477,0.932579,10.1749
-238,547,0.960876,-10.3696,0.00317625,-0.00306256,4.54349e-05,0.00317658,-0.00306289,0.00728212,0.00360256,0.00951894,986,477,0.960895,10.3696
-231,547,0.971619,-10.5513,0.00386895,-0.00376085,0.000154779,0.00387208,-0.00376399,0.020275,0.00440884,0.00805387,993,477,0.971601,10.5513
-224,547,0.975281,-10.7018,0.00459946,-0.0043531,0.000356072,0.0046136,-0.00436724,0.0396896,0.00518574,0.00969907,1000,477,0.975292,10.7018
-217,547,1.00183,-10.8814,0.00540031,-0.00478268,0.000626569,0.00543872,-0.00482109,0.0612231,0.00592708,0.0137291,1007,477,1.00185,10.8814
-210,547,1.00385,-11.041,0.00641306,-0.0053305,0.000806229,0.00646815,-0.0053856,0.0682262,0.00685327,0.023708,1014,477,1.00385,11.041
-203,547,1.039,-11.019,0.00768415,-0.00515837,0.000653771,0.00771735,-0.00519157,0.0507319,0.00750037,0.035263,1021,477,1.039,11.0189
-196,547,1.05237,-11.0611,0.00907846,-0.00486276,0.000460193,0.00909364,-0.00487794,0.0329617,0.00818798,0.0445815,1028,477,1.05239,11.0611
-189,547,1.07422,-11.1027,0,0,0,0,0,0,0,-1,1035,477,1.07427,11.1027
-182,547,1.56677,-11.2305,0,0,0,0,0,0,0,-1,1042,477,1.56681,11.2305
-175,547,0.149902,-11.3664,0,0,0,0,0,0,0,-1,1049,477,0.149873,11.3664
-168,547,1.12463,-8.66785,0,0,0,0,0,0,0,-1,1056,477,1.12461,8.66786
-161,547,-0.866577,-10.5763,0,0,0,0,0,0,0,-1,1063,477,-0.866574,10.5763
-154,547,2.27588,-13.0551,0,0,0,0,0,0,0,-1,1070,477,2.27592,13.055
-147,547,2.24561,-12.1978,0,0,0,0,0,0,0,-1,1077,477,2.24557,12.1978
-140,547,0.928467,-10.8473,0,0,0,0,0,0,0,-1,1084,477,0.928422,10.8473
-133,547,3.49597,-11.0495,0,0,0,0,0,0,0,-1,1091,477,3.49598,11.0495
-126,547,0.784302,-9.76431,0,0,0,0,0,0,0,-1,1098,477,0.78428,9.76432
-119,547,-0.531006,-10.0229,0,0,0,0,0,0,0,-1,1105,477,-0.530984,10.0229
-112,547,4.36194,-9.23029,0,0,0,0,0,0,0,-1,1112,477,4.36195,9.23029
-105,547,4.448,-9.17819,0,0,0,0,0,0,0,-1,1119,477,4.44799,9.1782
-98,547,1.50391,-7.20621,0,0,0,0,0,0,0,-1,1126,477,1.50395,7.20621
-91,547,1.37805,-7.12024,0,0,0,0,0,0,0,-1,1133,477,1.37804,7.12025
-84,547,1.94202,-6.66241,0,0,0,0,0,0,0,-1,1140,477,1.94201,6.66241
-77,547,-2.28357,1.8588,0,0,0,0,0,0,0,-1,1147,477,-2.28356,-1.85879
-70,547,-3.70178,-0.874908,0,0,0,0,0,0,0,-1,1154,477,-3.70182,0.874918
-63,547,-5.12012,-3.60861,0,0,0,0,0,0,0,-1,1161,477,-5.12009,3.60862
-56,547,-6.01917,-6.2399,0,0,0,0,0,0,0,-1,1168,477,-6.01921,6.23991
-49,547,-6.729,-8.60349,0,0,0,0,0,0,0,-1,1175,477,-6.72899,8.60348
-42,547,-2.41736,-5.53012,0,0,0,0,0,0,0,-1,1182,477,-2.41734,5.53011
-35,547,-2.96838,-4.45734,0,0,0,0,0,0,0,-1,1189,477,-2.96839,4.45734
-28,547,-0.869141,-1.29901,0,0,0,0,0,0,0,-1,1196,477,-0.869135,1.29901
-21,547,7.02197,-10.6903,0,0,0,0,0,0,0,-1,1203,477,7.02195,10.6903
-14,547,11.5408,-14.3576,0,0,0,0,0,0,0,-1,1210,477,11.5408,14.3576
-7,547,10.4785,-14.3481,0,0,0,0,0,0,0,-1,1217,477,10.4785,14.3481
0,547,9.19397,-14.4309,0,0,0,0,0,0,0,-1,1224,477,9.19399,14.4309
7,547,8.01172,-14.3112,0,0,0,0,0,0,0,-1,1231,477,8.01175,14.3112
14,547,0,0,0,0,0,0,0,0,0,-1,1238,477,0,0
21,547,0,0,0,0,0,0,0,0,0,-1,1245,477,0,0
28,547,0,0,0,0,0,0,0,0,0,-1,1252,477,0,0
35,547,0,0,0,0,0,0,0,0,0,-1,1259,477,0,0
42,547,0,0,0,0,0,0,0,0,0,-1,1266,477,0,0
49,547,0,0,0,0,0,0,0,0,0,-1,1273,477,0,0
56,547,0,0,0,0,0,0,0,0,0,-1,1280,477,0,0
63,547,0,0,0,0,0,0,0,0,0,-1,1287,477,0,0
70,547,0,0,0,0,0,0,0,0,0,-1,1294,477,0,0
77,547,0,0,0,0,0,0,0,0,0,-1,1301,477,0,0
84,547,0,0,0,0,0,0,0,0,0,-1,1308,477,0,0
91,547,0,0,0,0,0,0,0,0,0,-1,1315,477,0,0
98,547,0,0,0,0,0,0,0,0,0,-1,1322,477,0,0
105,547,2.87695,-13.7336,0,0,0,0,0,0,0,-1,1329,477,2.87697,13.7336
112,547,8.12427,-14.6705,0,0,0,0,0,0,0,-1,1336,477,8.1243,14.6705
119,547,7.70276,-14.4937,0,0,0,0,0,0,0,-1,1343,477,7.70276,14.4937
126,547,7.35144,-14.475,0,0,0,0,0,0,0,-1,1350,477,7.35142,14.475
133,547,7.44275,-14.4995,0.0202196,0.0406453,-0.0428274,0.0744607,-0.0135959,-0.902445,0.0547382,0.0443909,1357,477,7.44273,14.4995
140,547,7.24219,-14.451,-0.00112342,0.0493181,-0.0424377,0.0734637,-0.0252691,-1.05351,0.0592239,0.0426688,1364,477,7.24221,14.451
147,547,6.60876,-14.2423,-0.0274301,0.0538808,-0.0430792,0.0724594,-0.0460088,-1.16363,0.0689636,0.0458221,1371,477,6.60872,14.2423
154,547,6.15161,-14.0266,0,0,0,0,0,0,0,-1,1378,477,6.15166,14.0266
161,547,1.75159,-9.24216,0,0,0,0,0,0,0,-1,1385,477,1.75159,9.24217
168,547,-6.75854,-16.465,0,0,0,0,0,0,0,-1,1392,477,-6.75852,16.465
175,547,3.35034,-0.26532,0,0,0,0,0,0,0,-1,1399,477,3.3503,0.265306
182,547,4.26038,3.72672,0,0,0,0,0,0,0,-1,1406,477,4.26039,-3.7267
189,547,3.40454,1.28671,0,0,0,0,0,0,0,-1,1413,477,3.40457,-1.28673
196,547,3.53931,1.87793,0,0,0,0,0,0,0,-1,1420,477,3.53928,-1.87794
203,547,6.49414,-0.425842,0,0,0,0,0,0,0,-1,1427,477,6.4941,0.425844
210,547,4.82092,0.53595,0,0,0,0,0,0,0,-1,1434,477,4.82096,-0.535942
217,547,4.68579,0.480072,0,0,0,0,0,0,0,-1,1441,477,4.68577,-0.480069
224,547,4.55615,0.739807,0,0,0,0,0,0,0,-1,1448,477,4.55613,-0.73981
231,547,5.90869,-3.57721,0,0,0,0,0,0,0,-1,1455,477,5.90871,3.57722
238,547,5.50049,-3.15356,0,0,0,0,0,0,0,-1,1462,477,5.50045,3.15356
245,547,5.13708,-2.65213,0,0,0,0,0,0,0,-1,1469,477,5.13708,2.65212
252,547,3.73511,-0.645233,0,0,0,0,0,0,0,-1,1476,477,3.73515,0.645237
259,547,5.86816,-3.20816,0,0,0,0,0,0,0,-1,1483,477,5.86815,3.20816
266,547,5.40222,-2.45731,0,0,0,0,0,0,0,-1,1490,477,5.40221,2.45732
273,547,3.05737,0.495789,0,0,0,0,0,0,0,-1,1497,477,3.05742,-0.49578
280,547,2.0885,1.47797,0,0,0,0,0,0,0,-1,1504,477,2.08848,-1.47795
287,547,2.31177,-2.21716,0,0,0,0,0,0,0,-1,1511,477,2.31174,2.21717
294,547,2.4823,-3.03659,0,0,0,0,0,0,0,-1,1518,477,2.48229,3.0366
301,547,4.72119,-3.93454,0,0,0,0,0,0,0,-1,1525,477,4.72119,3.93453
308,547,4.07471,-5.42175,0,0,0,0,0,0,0,-1,1532,477,4.07468,5.42174
315,547,3.58496,-6.62112,0,0,0,0,0,0,0,-1,1539,477,3.58497,6.62113
322,547,4.80261,-10.3129,0,0,0,0,0,0,0,-1,1546,477,4.80264,10.3129
329,547,4.5542,-10.2592,0,0,0,0,0,0,0,-1,1553,477,4.55417,10.2592
336,547,4.62244,-10.1024,-0.00102891,-0.00564338,-0.00301677,0.000461784,-0.00713407,-0.458945,0.00491721,0.0329996,1560,477,4.62244,10.1024
343,547,4.64929,-9.98816,-0.00120118,-0.00572306,-0.00288757,0.000205298,-0.00712954,-0.453257,0.00482291,0.0254096,1567,477,4.64924,9.98816
350,547,4.6759,-9.78839,-0.00116587,-0.00582144,-0.00280048,0.000147949,-0.00713526,-0.438656,0.00480691,0.0204453,1574,477,4.67592,9.78838
357,547,4.6759,-9.56381,-0.000956192,-0.00550523,-0.00279557,0.00037327,-0.00683469,-0.443905,0.00468584,0.0152928,1581,477,4.67585,9.5638
364,547,4.66541,-9.35596,-0.000815258,-0.00501697,-0.0025689,0.000402443,-0.00623467,-0.442646,0.00429688,0.00992922,1588,477,4.66542,9.35596
371,547,4.67114,-9.14349,-0.000728982,-0.00448075,-0.00232631,0.000383551,-0.00559329,-0.446089,0.00386306,0.00825309,1595,477,4.67115,9.1435
378,547,4.69043,-8.92908,-0.000593842,-0.00377898,-0.00201997,0.000385856,-0.00475868,-0.451581,0.00330858,0.00954712,1602,477,4.69043,8.92909
385,547,4.69434,-8.71951,-0.00052472,-0.00318579,-0.00180356,0.000385986,-0.00409649,-0.467598,0.00286833,0.0103618,1609,477,4.69436,8.7195
392,547,4.6908,-8.51367,-0.000482139,-0.00253471,-0.00158869,0.000382924,-0.00339977,-0.498621,0.00240434,0.0112114,1616,477,4.69085,8.51368
399,547,4.67188,-8.29407,-0.00036136,-0.00206975,-0.00127137,0.000316126,-0.00274723,-0.489601,0.00194544,0.0133418,1623,477,4.67193,8.29407
406,547,4.69482,-8.07455,-0.000213146,-0.0015607,-0.000936803,0.000267017,-0.00204086,-0.473641,0.00145775,0.0129399,1630,477,4.69477,8.07456
413,547,4.70801,-7.86349,-8.57661e-06,-0.00100191,-0.000534559,0.000224436,-0.00123492,-0.411064,0.000907392,0.0133152,1637,477,4.70799,7.8635
420,547,4.68591,-7.66333,5.95646e-05,-0.000745443,-8.5976e-05,6.86446e-05,-0.000754523,-0.10522,0.000527388,0.0162434,1644,477,4.68595,7.66334
427,547,4.70325,-7.41446,3.19208e-05,-0.000727492,0.000361012,0.000176148,-0.00087172,0.380083,0.000647894,0.0146374,1651,477,4.70326,7.41447
434,547,4.69177,-7.18799,2.33061e-05,-0.000809652,0.000785224,0.000495664,-0.00128201,0.541565,0.00105928,0.00992908,1658,477,4.69182,7.18799
441,547,4.67847,-6.95407,-4.12774e-05,-0.00109546,0.00127465,0.00081096,-0.0019477,0.589344,0.00163717,0.0105054,1665,477,4.67851,6.95406
448,547,4.67224,-6.72241,-0.000214519,-0.00149743,0.0017935,0.00104878,-0.00276073,0.613659,0.00227225,0.010777,1672,477,4.67224,6.72242
455,547,4.67407,-6.48596,-0.000533048,-0.00212176,0.00223784,0.00104723,-0.00370204,0.614852,0.00288126,0.0109872,1679,477,4.67403,6.48595
462,547,4.65479,-6.24261,-0.000783968,-0.00291167,0.00256489,0.000928944,-0.00462459,0.588809,0.00343483,0.0110488,1686,477,4.65473,6.2426
469,547,4.64148,-6,-0.000940463,-0.00403138,0.00287054,0.000774209,-0.00574605,0.538457,0.00411313,0.0199278,1693,477,4.64143,5.99998
476,547,4.68665,-5.68945,-0.00122874,-0.00526945,0.00307627,0.000431297,-0.00692949,0.494844,0.00476993,0.0438649,1700,477,4.68665,5.68946
483,547,4.6145,-5.72296,0,0,0,0,0,0,0,-1,1707,477,4.61447,5.72296
490,547,3.65271,-3.71707,0,0,0,0,0,0,0,-1,1714,477,3.65277,3.71708
497,547,2.55481,-3.81421,0,0,0,0,0,0,0,-1,1721,477,2.55476,3.8142
504,547,4.01953,-2.22714,0,0,0,0,0,0,0,-1,1728,477,4.0195,2.22713
511,547,4.82495,-1.45642,0,0,0,0,0,0,0,-1,1735,477,4.82495,1.45641
518,547,4.69446,-3.75436,0,0,0,0,0,0,0,-1,1742,477,4.69445,3.75438
525,547,0.781616,-3.76355,0,0,0,0,0,0,0,-1,1749,477,0.781645,3.76354
532,547,0,0,0,0,0,0,0,0,0,-1,1756,477,0,0
539,547,0,0,0,0,0,0,0,0,0,-1,1763,477,0,0
546,547,0,0,0,0,0,0,0,0,0,-1,1770,477,0,0
553,547,0,0,0,0,0,0,0,0,0,-1,1777,477,0,0
560,547,0,0,0,0,0,0,0,0,0,-1,1784,477,0,0
567,547,0,0,0,0,0,0,0,0,0,-1,1791,477,0,0
574,547,0,0,0,0,0,0,0,0,0,-1,1798,477,0,0
581,547,0,0,0,0,0,0,0,0,0,-1,1805,477,0,0
588,547,0,0,0,0,0,0,0,0,0,-1,1812,477,0,0
595,547,0,0,0,0,0,0,0,0,0,-1,1819,477,0,0
602,547,0,0,0,0,0,0,0,0,0,-1,1826,477,0,0
609,547,0,0,0,0,0,0,0,0,0,-1,1833,477,0,0
616,547,0,0,0,0,0,0,0,0,0,-1,1840,477,0,0
623,547,0,0,0,0,0,0,0,0,0,-1,1847,477,0,0
630,547,0,0,0,0,0,0,0,0,0,-1,1854,477,0,0
637,547,0,0,0,0,0,0,0,0,0,-1,1861,477,0,0
644,547,0,0,0,0,0,0,0,0,0,-1,1868,477,0,0
651,547,0,0,0,0,0,0,0,0,0,-1,1875,477,0,0
658,547,0,0,0,0,0,0,0,0,0,-1,1882,477,0,0
665,547,0,0,0,0,0,0,0,0,0,-1,1889,477,0,0
672,547,0,0,0,0,0,0,0,0,0,-1,1896,477,0,0
679,547,0,0,0,0,0,0,0,0,0,-1,1903,477,0,0
686,547,0,0,0,0,0,0,0,0,0,-1,1910,477,0,0
693,547,0,0,0,0,0,0,0,0,0,-1,1917,477,0,0
700,547,0,0,0,0,0,0,0,0,0,-1,1924,477,0,0
707,547,0,0,0,0,0,0,0,0,0,-1,1931,477,0,0
714,547,0,0,0,0,0,0,0,0,0,-1,1938,477,0,0
721,547,0,0,0,0,0,0,0,0,0,-1,1945,477,0,0
728,547,0,0,0,0,0,0,0,0,0,-1,1952,477,0,0
735,547,0,0,0,0,0,0,0,0,0,-1,1959,477,0,0
742,547,0,0,0,0,0,0,0,0,0,-1,1966,477,0,0
749,547,0,0,0,0,0,0,0,0,0,-1,1973,477,0,0
756,547,0,0,0,0,0,0,0,0,0,-1,1980,477,0,0
763,547,0,0,0,0,0,0,0,0,0,-1,1987,477,0,0
770,547,0,0,0,0,0,0,0,0,0,-1,1994,477,0,0
777,547,0,0,0,0,0,0,0,0,0,-1,2001,477,0,0
784,547,0,0,0,0,0,0,0,0,0,-1,2008,477,0,0
791,547,0,0,0,0,0,0,0,0,0,-1,2015,477,0,0
798,547,0,0,0,0,0,0,0,0,0,-1,2022,477,0,0
805,547,0,0,0,0,0,0,0,0,0,-1,2029,477,0,0
812,547,0,0,0,0,0,0,0,0,0,-1,2036,477,0,0
-700,540,0,0,0,0,0,0,0,0,0,-1,524,484,0,0
-693,540,0,0,0,0,0,0,0,0,0,-1,531,484,0,0
-686,540,0,0,0,0,0,0,0,0,0,-1,538,484,0,0
-679,540,0,0,0,0,0,0,0,0,0,-1,545,484,0,0
-672,540,0,0,0,0,0,0,0,0,0,-1,552,484,0,0
-665,540,0,0,0,0,0,0,0,0,0,-1,559,484,0,0
-658,540,0,0,0,0,0,0,0,0,0,-1,566,484,0,0
-651,540,0,0,0,0,0,0,0,0,0,-1,573,484,0,0
-644,540,0,0,0,0,0,0,0,0,0,-1,580,484,0,0
-637,540,0,0,0,0,0,0,0,0,0,-1,587,484,0,0
-630,540,0,0,0,0,0,0,0,0,0,-1,594,484,0,0
-623,540,0,0,0,0,0,0,0,0,0,-1,601,484,0,0
-616,540,0,0,0,0,0,0,0,0,0,-1,608,484,0,0
-609,540,0,0,0,0,0,0,0,0,0,-1,615,484,0,0
-602,540,0,0,0,0,0,0,0,0,0,-1,622,484,0,0
-595,540,0,0,0,0,0,0,0,0,0,-1,629,484,0,0
-588,540,0,0,0,0,0,0,0,0,0,-1,636,484,0,0
-581,540,0,0,0,0,0,0,0,0,0,-1,643,484,0,0
-574,540,0,0,0,0,0,0,0,0,0,-1,650,484,0,0
-567,540,0,0,0,0,0,0,0,0,0,-1,657,484,0,0
-560,540,0,0,0,0,0,0,0,0,0,-1,664,484,0,0
-553,540,0,0,0,0,0,0,0,0,0,-1,671,484,0,0
-546,540,0,0,0,0,0,0,0,0,0,-1,678,484,0,0
-539,540,0,0,0,0,0,0,0,0,0,-1,685,484,0,0
-532,540,0,0,0,0,0,0,0,0,0,-1,692,484,0,0
-525,540,0,0,0,0,0,0,0,0,0,-1,699,484,0,0
-518,540,0,0,0,0,0,0,0,0,0,-1,706,484,0,0
-511,540,0,0,0,0,0,0,0,0,0,-1,713,484,0,0
-504,540,0,0,0,0,0,0,0,0,0,-1,720,484,0,0
-497,540,0,0,0,0,0,0,0,0,0,-1,727,484,0,0
-490,540,0,0,0,0,0,0,0,0,0,-1,734,484,0,0
-483,540,0,0,0,0,0,0,0,0,0,-1,741,484,0,0
-476,540,0,0,0,0,0,0,0,0,0,-1,748,484,0,0
-469,540,0,0,0,0,0,0,0,0,0,-1,755,484,0,0
-462,540,0,0,0,0,0,0,0,0,0,-1,762,484,0,0
-455,540,0,0,0,0,0,0,0,0,0,-1,769,484,0,0
-448,540,0,0,0,0,0,0,0,0,0,-1,776,484,0,0
-441,540,0,0,0,0,0,0,0,0,0,-1,783,484,0,0
-434,540,0,0,0,0,0,0,0,0,0,-1,790,484,0,0
-427,540,0,0,0,0,0,0,0,0,0,-1,797,484,0,0
-420,540,0.50824,-4.86896,0,0,0,0,0,0,0,-1,804,484,0.508247,4.86897
-413,540,-2.80725,-0.0874329,0,0,0,0,0,0,0,-1,811,484,-2.80723,0.0874207
-406,540,-3.07605,0.0525513,0,0,0,0,0,0,0,-1,818,484,-3.07607,-0.0525456
-399,540,-3.17102,-0.438995,0,0,0,0,0,0,0,-1,825,484,-3.17104,0.439004
-392,540,-3.39374,0.737396,0,0,0,0,0,0,0,-1,832,484,-3.39375,-0.737408
-385,540,-3.64734,2.07758,0,0,0,0,0,0,0,-1,839,484,-3.64734,-2.07757
-378,540,-3.828,-3.2016,0,0,0,0,0,0,0,-1,846,484,-3.82798,3.20159
-371,540,-0.0177002,-4.21246,0,0,0,0,0,0,0,-1,853,484,-0.0176722,4.21247
-364,540,0.595764,-6.70291,0,0,0,0,0,0,0,-1,860,484,0.595749,6.70292
-357,540,0.845398,-6.85602,0,0,0,0,0,0,0,-1,867,484,0.845394,6.85603
-350,540,0.831848,-7.11694,0.000430246,0.000786146,-0.00337111,0.003984,-0.00276761,-0.811767,0.00391907,0.0301991,874,484,0.831854,7.11695
-343,540,0.795044,-7.32367,6.51923e-05,0.000837407,-0.00290118,0.00337806,-0.00247546,-0.851553,0.00339289,0.0131026,881,484,0.795033,7.32366
-336,540,0.769653,-7.56317,-1.63621e-05,0.00101046,-0.00260706,0.00315418,-0.00216008,-0.88262,0.00308603,0.0123045,888,484,0.76964,7.56318
-329,540,0.758484,-7.78464,-0.000137824,0.000939374,-0.00215931,0.00262624,-0.00182469,-0.90762,0.0025836,0.0100544,895,484,0.758459,7.78462
-322,540,0.745483,-7.9921,1.27994e-05,0.00103163,-0.00199323,0.00257952,-0.00153508,-0.910507,0.00240094,0.0129769,902,484,0.745456,7.99208
-315,540,0.748291,-8.21536,0.000286937,0.00101908,-0.00180481,0.00249457,-0.00118855,-0.885457,0.00217055,0.0121967,909,484,0.748313,8.21538
-308,540,0.755615,-8.42511,0.000590119,0.000966947,-0.00160145,0.00239102,-0.000833958,-0.843955,0.00193293,0.0118506,916,484,0.755619,8.42512
-301,540,0.738098,-8.61581,0.000911617,0.000806751,-0.00138615,0.00224633,-0.000527959,-0.766494,0.00170107,0.0112593,923,484,0.7381,8.61582
-294,540,0.750793,-8.82291,0.00122281,0.00052106,-0.00114153,0.00206617,-0.000322305,-0.636296,0.0014965,0.0104081,930,484,0.750807,8.82291
-287,540,0.75531,-9.03836,0.00146084,0.000193465,-0.000886013,0.00191646,-0.000262149,-0.474966,0.00137339,0.00853333,937,484,0.755317,9.03837
-280,540,0.744202,-9.23941,0.00164538,-0.000322879,-0.000649299,0.00184027,-0.000517775,-0.291607,0.00143101,0.00923049,944,484,0.744176,9.23941
-273,540,0.748291,-9.4259,0.00184624,-0.000810075,-0.000502215,0.00193802,-0.000901855,-0.180756,0.00167558,0.0107884,951,484,0.748287,9.42589
-266,540,0.752075,-9.63055,0.00208151,-0.00138381,-0.000391304,0.00212514,-0.00142745,-0.111057,0.00206423,0.0115825,958,484,0.752045,9.63055
-259,540,0.748047,-9.82327,0.00230155,-0.00205123,-0.000284571,0.00232007,-0.00206976,-0.0650082,0.00253584,0.0108379,965,484,0.748042,9.82328
-252,540,0.751221,-10.0072,0.00270207,-0.00270972,-9.2379e-05,0.00270365,-0.0027113,-0.0170633,0.00312632,0.0114505,972,484,0.751238,10.0072
-245,540,0.760681,-10.1944,0.00342221,-0.00338026,-7.21488e-06,0.00342222,-0.00338026,-0.00106063,0.00392744,0.0124878,979,484,0.760682,10.1944
-238,540,0.775024,-10.3608,0.00413178,-0.00409916,0.000121766,0.00413358,-0.00410096,0.0147894,0.00475423,0.00929459,986,484,0.774999,10.3608
-231,540,0.788879,-10.5357,0.00500665,-0.00491228,0.000229742,0.00501197,-0.0049176,0.0231455,0.00573293,0.0112471,993,484,0.788909,10.5357
-224,540,0.807556,-10.6975,0.00590531,-0.00562191,0.000474332,0.0059248,-0.0056414,0.0410563,0.00667842,0.0156247,1000,484,0.807544,10.6975
-217,540,0.837769,-10.888,0.00690525,-0.0060921,0.000816591,0.00695635,-0.0061432,0.0624999,0.00756789,0.0267026,1007,484,0.837785,10.888
-210,540,0.906311,-10.9093,0.00820961,-0.00669385,0.00107939,0.00828738,-0.00677162,0.0719249,0.00870899,0.0423148,1014,484,0.906297,10.9093
-203,540,0.946167,-10.9776,0.00982437,-0.00647732,0.000993061,0.00988465,-0.00653759,0.0606189,0.0095468,0.0438578,1021,484,0.94618,10.9776
-196,540,1.0564,-11.0934,0.0116232,-0.0060067,0.000829283,0.0116622,-0.00604562,0.0469003,0.0103936,0.0475559,1028,484,1.05639,11.0934
-189,540,1.43164,-11.3992,0,0,0,0,0,0,0,-1,1035,484,1.43166,11.3992
-182,540,1.59473,-11.5579,0,0,0,0,0,0,0,-1,1042,484,1.59477,11.5579
-175,540,1.73413,-10.728,0,0,0,0,0,0,0,-1,1049,484,1.73414,10.728
-168,540,1.18164,-7.65347,0,0,0,0,0,0,0,-1,1056,484,1.18163,7.65347
-161,540,-1.31653,-9.93869,0,0,0,0,0,0,0,-1,1063,484,-1.31651,9.93868
-154,540,0.81665,-10.381,0,0,0,0,0,0,0,-1,1070,484,0.816696,10.3809
-147,540,0.852905,-10.892,0,0,0,0,0,0,0,-1,1077,484,0.852844,10.892
-140,540,0.889038,-11.403,0,0,0,0,0,0,0,-1,1084,484,0.888992,11.403
-133,540,0.733276,-8.80582,0,0,0,0,0,0,0,-1,1091,484,0.733219,8.80582
-126,540,1.06201,-9.57385,0,0,0,0,0,0,0,-1,1098,484,1.06204,9.57385
-119,540,6.18579,-10.4846,0,0,0,0,0,0,0,-1,1105,484,6.18582,10.4846
-112,540,5.8468,-9.65106,0,0,0,0,0,0,0,-1,1112,484,5.84681,9.65106
-105,540,5.50781,-8.81754,0,0,0,0,0,0,0,-1,1119,484,5.5078,8.81753
-98,540,0.73877,-3.08093,0,0,0,0,0,0,0,-1,1126,484,0.738754,3.08092
-91,540,1.56519,-7.48666,0,0,0,0,0,0,0,-1,1133,484,1.56514,7.48667
-84,540,-0.945923,4.43073,0,0,0,0,0,0,0,-1,1140,484,-0.945891,-4.43074
-77,540,-2.28894,2.14368,0,0,0,0,0,0,0,-1,1147,484,-2.28894,-2.14368
-70,540,-3.75244,-0.452576,0,0,0,0,0,0,0,-1,1154,484,-3.75244,0.452576
-63,540,-5.26257,-3.04767,0,0,0,0,0,0,0,-1,1161,484,-5.26262,3.04766
-56,540,-5.19055,-6.12595,0,0,0,0,0,0,0,-1,1168,484,-5.19057,6.12595
-49,540,-5.63867,-8.52298,0,0,0,0,0,0,0,-1,1175,484,-5.63871,8.52298
-42,540,0,0,0,0,0,0,0,0,0,-1,1182,484,0,0
-35,540,0,0,0,0,0,0,0,0,0,-1,1189,484,0,0
-28,540,0,0,0,0,0,0,0,0,0,-1,1196,484,0,0
-21,540,0,0,0,0,0,0,0,0,0,-1,1203,484,0,0
-14,540,0,0,0,0,0,0,0,0,0,-1,1210,484,0,0
-7,540,0,0,0,0,0,0,0,0,0,-1,1217,484,0,0
0,540,0,0,0,0,0,0,0,0,0,-1,1224,484,0,0
7,540,0,0,0,0,0,0,0,0,0,-1,1231,484,0,0
14,540,0,0,0,0,0,0,0,0,0,-1,1238,484,0,0
21,540,0,0,0,0,0,0,0,0,0,-1,1245,484,0,0
28,540,0,0,0,0,0,0,0,0,0,-1,1252,484,0,0
35,540,0,0,0,0,0,0,0,0,0,-1,1259,484,0,0
42,540,0,0,0,0,0,0,0,0,0,-1,1266,484,0,0
49,540,0,0,0,0,0,0,0,0,0,-1,1273,484,0,0
56,540,0,0,0,0,0,0,0,0,0,-1,1280,484,0,0
63,540,0,0,0,0,0,0,0,0,0,-1,1287,484,0,0
70,540,0,0,0,0,0,0,0,0,0,-1,1294,484,0,0
77,540,0,0,0,0,0,0,0,0,0,-1,1301,484,0,0
84,540,0,0,0,0,0,0,0,0,0,-1,1308,484,0,0
91,540,0,0,0,0,0,0,0,0,0,-1,1315,484,0,0
98,540,0,0,0,0,0,0,0,0,0,-1,1322,484,0,0
105,540,0,0,0,0,0,0,0,0,0,-1,1329,484,0,0
112,540,0,0,0,0,0,0,0,0,0,-1,1336,484,0,0
119,540,0,0,0,0,0,0,0,0,0,-1,1343,484,0,0
126,540,0,0,0,0,0,0,0,0,0,-1,1350,484,0,0
133,540,0,0,0,0,0,0,0,0,0,-1,1357,484,0,0
140,540,0,0,0,0,0,0,0,0,0,-1,1364,484,0,0
147,540,0,0,0,0,0,0,0,0,0,-1,1371,484,0,0
154,540,0,0,0,0,0,0,0,0,0,-1,1378,484,0,0
161,540,0,0,0,0,0,0,0,0,0,-1,1385,484,0,0
168,540,3.05078,-0.0010376,0,0,0,0,0,0,0,-1,1392,484,3.05084,0.00102554
175,540,3.37708,0.617035,0,0,0,0,0,0,0,-1,1399,484,3.37707,-0.617046
182,540,3.32678,1.23267,0,0,0,0,0,0,0,-1,1406,484,3.32678,-1.23266
189,540,3.5813,2.15619,0,0,0,0,0,0,0,-1,1413,484,3.58129,-2.1562
196,540,1.84448,-0.801483,0,0,0,0,0,0,0,-1,1420,484,1.84446,0.80148
203,540,4.14648,0.702087,0,0,0,0,0,0,0,-1,1427,484,4.14645,-0.702089
210,540,4.50671,-0.56076,0,0,0,0,0,0,0,-1,1434,484,4.50667,0.560771
217,540,5.00452,-0.278717,0,0,0,0,0,0,0,-1,1441,484,5.00452,0.278709
224,540,6.44458,-2.83527,0,0,0,0,0,0,0,-1,1448,484,6.44457,2.83525
231,540,6.9231,-3.10504,0,0,0,0,0,0,0,-1,1455,484,6.92307,3.10505
238,540,6.4823,-2.58365,0,0,0,0,0,0,0,-1,1462,484,6.48225,2.58363
245,540,6.02087,-1.97916,0,0,0,0,0,0,0,-1,1469,484,6.02088,1.97915
252,540,6.50647,-3.56006,0,0,0,0,0,0,0,-1,1476,484,6.50649,3.56006
259,540,6.01941,-2.798,0,0,0,0,0,0,0,-1,1483,484,6.01941,2.79801
266,540,5.5332,-2.02853,0,0,0,0,0,0,0,-1,1490,484,5.53323,2.02855
273,540,5.06787,-1.28137,0,0,0,0,0,0,0,-1,1497,484,5.06786,1.28136
280,540,1.62903,-2.14609,0,0,0,0,0,0,0,-1,1504,484,1.62906,2.1461
287,540,1.97156,-2.45053,0,0,0,0,0,0,0,-1,1511,484,1.97159,2.45053
294,540,2.44165,-2.6185,0,0,0,0,0,0,0,-1,1518,484,2.44167,2.6185
301,540,4.36169,-2.54272,0,0,0,0,0,0,0,-1,1525,484,4.36165,2.54272
308,540,4.2019,-4.30469,0,0,0,0,0,0,0,-1,1532,484,4.20193,4.3047
315,540,4.45923,-5.32101,0,0,0,0,0,0,0,-1,1539,484,4.45923,5.32103
322,540,4.71655,-6.33737,0,0,0,0,0,0,0,-1,1546,484,4.71653,6.33736
329,540,4.40649,-9.53268,0,0,0,0,0,0,0,-1,1553,484,4.40647,9.53269
336,540,4.49072,-9.57944,0,0,0,0,0,0,0,-1,1560,484,4.49072,9.57945
343,540,4.85156,-10.0916,0,0,0,0,0,0,0,-1,1567,484,4.8516,10.0916
350,540,4.8877,-9.88995,0,0,0,0,0,0,0,-1,1574,484,4.88767,9.88996
357,540,5.03284,-9.3891,-0.00188829,-0.00820015,-0.00425014,0.000249507,-0.0103379,-0.466041,0.00697662,0.04197,1581,484,5.03288,9.38911
364,540,4.86169,-9.31107,-0.0016394,-0.00758891,-0.00397479,0.000350532,-0.00957885,-0.464159,0.00650589,0.0228108,1588,484,4.86171,9.31108
371,540,4.84644,-9.14383,-0.00143682,-0.00689916,-0.00365522,0.000394899,-0.00873088,-0.464546,0.00595658,0.0150597,1595,484,4.84642,9.14384
378,540,4.87488,-8.92209,-0.0011792,-0.00600032,-0.00324771,0.000454799,-0.00763431,-0.466142,0.00524771,0.0117972,1602,484,4.87493,8.92209
385,540,4.89343,-8.7132,-0.00106289,-0.0052041,-0.00294126,0.000463503,-0.0067305,-0.4787,0.00464921,0.013651,1609,484,4.89343,8.71319
392,540,4.89734,-8.50525,-0.00100515,-0.00426892,-0.00264998,0.000475108,-0.00574917,-0.509416,0.00400057,0.0124617,1616,484,4.89734,8.50525
399,540,4.87927,-8.31161,-0.000843805,-0.00361141,-0.0022494,0.000413363,-0.00486858,-0.509643,0.00339191,0.016714,1623,484,4.87923,8.3116
406,540,4.91956,-8.09875,-0.000651508,-0.0028771,-0.00181368,0.000363549,-0.00389215,-0.510234,0.00272405,0.0171054,1630,484,4.91955,8.09875
413,540,4.92224,-7.87125,-0.000396839,-0.00206374,-0.00129931,0.000313358,-0.00277393,-0.500226,0.0019621,0.0128519,1637,484,4.92225,7.87126
420,540,4.91418,-7.63361,-0.000252344,-0.00151998,-0.000811213,0.0001433,-0.00191562,-0.453775,0.00132743,0.0119468,1644,484,4.91417,7.63361
427,540,4.90613,-7.39792,-0.000196495,-0.00119,-0.000337896,-9.24665e-05,-0.00129402,-0.298661,0.000833572,0.0129082,1651,484,4.90609,7.39791
434,540,4.89087,-7.18417,-0.00014456,-0.00102131,0.000102333,-0.000132774,-0.0010331,0.114665,0.000649018,0.015709,1658,484,4.89084,7.18416
441,540,4.90222,-6.95126,-0.000108815,-0.001066,0.000579073,0.000163842,-0.00133866,0.440057,0.000951766,0.0191895,1665,484,4.90221,6.95127
448,540,4.89441,-6.72525,-0.000121449,-0.00117239,0.00107217,0.000547095,-0.00184093,0.55755,0.00144461,0.0120391,1672,484,4.89438,6.72526
455,540,4.88782,-6.49026,-0.000249988,-0.00151897,0.00147012,0.000716717,-0.00248568,0.581677,0.00194065,0.0109832,1679,484,4.88781,6.49026
462,540,4.87695,-6.23154,-0.000280012,-0.00208434,0.00172972,0.00076868,-0.00313303,0.545022,0.00238654,0.0111858,1686,484,4.87691,6.23154
469,540,4.86707,-6.00815,-0.000187793,-0.00297843,0.00191664,0.000787629,-0.00395385,0.470761,0.0029339,0.014632,1693,484,4.86701,6.00816
476,540,4.85095,-5.83423,-0.000241626,-0.0039395,0.00199766,0.000631423,-0.00481255,0.412021,0.00343822,0.0215024,1700,484,4.85098,5.83422
483,540,4.88293,-5.63138,-0.000321942,-0.00501919,0.00191891,0.000362292,-0.00570343,0.342521,0.00392862,0.0382649,1707,484,4.88288,5.63138
490,540,5.08044,-5.32797,0,0,0,0,0,0,0,-1,1714,484,5.08047,5.32797
497,540,4.27393,-2.67752,0,0,0,0,0,0,0,-1,1721,484,4.27395,2.67751
504,540,4.74207,-4.03241,0,0,0,0,0,0,0,-1,1728,484,4.74201,4.0324
511,540,4.91089,-3.47696,0,0,0,0,0,0,0,-1,1735,484,4.91087,3.47697
518,540,4.854,-3.87787,0,0,0,0,0,0,0,-1,1742,484,4.85401,3.87788
525,540,6.24841,-3.39841,0,0,0,0,0,0,0,-1,1749,484,6.24847,3.39839
532,540,2.84265,-1.07925,0,0,0,0,0,0,0,-1,1756,484,2.84269,1.07927
539,540,0,0,0,0,0,0,0,0,0,-1,1763,484,0,0
546,540,0,0,0,0,0,0,0,0,0,-1,1770,484,0,0
553,540,0,0,0,0,0,0,0,0,0,-1,1777,484,0,0
560,540,0,0,0,0,0,0,0,0,0,-1,1784,484,0,0
567,540,0,0,0,0,0,0,0,0,0,-1,1791,484,0,0
574,540,0,0,0,0,0,0,0,0,0,-1,1798,484,0,0
581,540,0,0,0,0,0,0,0,0,0,-1,1805,484,0,0
588,540,0,0,0,0,0,0,0,0,0,-1,1812,484,0,0
595,540,0,0,0,0,0,0,0,0,0,-1,1819,484,0,0
602,540,0,0,0,0,0,0,0,0,0,-1,1826,484,0,0
609,540,0,0,0,0,0,0,0,0,0,-1,1833,484,0,0
616,540,0,0,0,0,0,0,0,0,0,-1,1840,484,0,0
623,540,0,0,0,0,0,0,0,0,0,-1,1847,484,0,0
630,540,0,0,0,0,0,0,0,0,0,-1,1854,484,0,0
637,540,0,0,0,0,0,0,0,0,0,-1,1861,484,0,0
644,540,0,0,0,0,0,0,0,0,0,-1,1868,484,0,0
651,540,0,0,0,0,0,0,0,0,0,-1,1875,484,0,0
658,540,0,0,0,0,0,0,0,0,0,-1,1882,484,0,0
665,540,0,0,0,0,0,0,0,0,0,-1,1889,484,0,0
672,540,0,0,0,0,0,0,0,0,0,-1,1896,484,0,0
679,540,0,0,0,0,0,0,0,0,0,-1,1903,484,0,0
686,540,0,0,0,0,0,0,0,0,0,-1,1910,484,0,0
693,540,0,0,0,0,0,0,0,0,0,-1,1917,484,0,0
700,540,0,0,0,0,0,0,0,0,0,-1,1924,484,0,0
707,540,0,0,0,0,0,0,0,0,0,-1,1931,484,0,0
714,540,0,0,0,0,0,0,0,0,0,-1,1938,484,0,0
721,540,0,0,0,0,0,0,0,0,0,-1,1945,484,0,0
728,540,0,0,0,0,0,0,0,0,0,-1,1952,484,0,0
735,540,0,0,0,0,0,0,0,0,0,-1,1959,484,0,0
742,540,0,0,0,0,0,0,0,0,0,-1,1966,484,0,0
749,540,0,0,0,0,0,0,0,0,0,-1,1973,484,0,0
756,540,0,0,0,0,0,0,0,0,0,-1,1980,484,0,0
763,540,0,0,0,0,0,0,0,0,0,-1,1987,484,0,0
770,540,0,0,0,0,0,0,0,0,0,-1,1994,484,0,0
777,540,0,0,0,0,0,0,0,0,0,-1,2001,484,0,0
784,540,0,0,0,0,0,0,0,0,0,-1,2008,484,0,0
791,540,0,0,0,0,0,0,0,0,0,-1,2015,484,0,0
798,540,0,0,0,0,0,0,0,0,0,-1,2022,484,0,0
805,540,0,0,0,0,0,0,0,0,0,-1,2029,484,0,0
812,540,0,0,0,0,0,0,0,0,0,-1,2036,484,0,0
-700,533,0,0,0,0,0,0,0,0,0,-1,524,491,0,0
-693,533,0,0,0,0,0,0,0,0,0,-1,531,491,0,0
-686,533,0,0,0,0,0,0,0,0,0,-1,538,491,0,0
-679,533,0,0,0,0,0,0,0,0,0,-1,545,491,0,0
-672,533,0,0,0,0,0,0,0,0,0,-1,552,491,0,0
-665,533,0,0,0,0,0,0,0,0,0,-1,559,491,0,0
-658,533,0,0,0,0,0,0,0,0,0,-1,566,491,0,0
-651,533,0,0,0,0,0,0,0,0,0,-1,573,491,0,0
-644,533,0,0,0,0,0,0,0,0,0,-1,580,491,0,0
-637,533,0,0,0,0,0,0,0,0,0,-1,587,491,0,0
-630,533,0,0,0,0,0,0,0,0,0,-1,594,491,0,0
-623,533,0,0,0,0,0,0,0,0,0,-1,601,491,0,0
-616,533,0,0,0,0,0,0,0,0,0,-1,608,491,0,0
-609,533,0,0,0,0,0,0,0,0,0,-1,615,491,0,0
-602,533,0,0,0,0,0,0,0,0,0,-1,622,491,0,0
-595,533,0,0,0,0,0,0,0,0,0,-1,629,491,0,0
-588,533,0,0,0,0,0,0,0,0,0,-1,636,491,0,0
-581,533,0,0,0,0,0,0,0,0,0,-1,643,491,0,0
-574,533,0,0,0,0,0,0,0,0,0,-1,650,491,0,0
-567,533,0,0,0,0,0,0,0,0,0,-1,657,491,0,0
-560,533,0,0,0,0,0,0,0,0,0,-1,664,491,0,0
-553,533,0,0,0,0,0,0,0,0,0,-1,671,491,0,0
-546,533,0,0,0,0,0,0,0,0,0,-1,678,491,0,0
-539,533,0,0,0,0,0,0,0,0,0,-1,685,491,0,0
-532,533,0,0,0,0,0,0,0,0,0,-1,692,491,0,0
-525,533,0,0,0,0,0,0,0,0,0,-1,699,491,0,0
-518,533,0,0,0,0,0,0,0,0,0,-1,706,491,0,0
-511,533,0,0,0,0,0,0,0,0,0,-1,713,491,0,0
-504,533,0,0,0,0,0,0,0,0,0,-1,720,491,0,0
-497,533,0,0,0,0,0,0,0,0,0,-1,727,491,0,0
-490,533,0,0,0,0,0,0,0,0,0,-1,734,491,0,0
-483,533,0,0,0,0,0,0,0,0,0,-1,741,491,0,0
-476,533,0,0,0,0,0,0,0,0,0,-1,748,491,0,0
-469,533,0,0,0,0,0,0,0,0,0,-1,755,491,0,0
-462,533,0,0,0,0,0,0,0,0,0,-1,762,491,0,0
-455,533,0,0,0,0,0,0,0,0,0,-1,769,491,0,0
-448,533,0,0,0,0,0,0,0,0,0,-1,776,491,0,0
-441,533,0,0,0,0,0,0,0,0,0,-1,783,491,0,0
-434,533,0,0,0,0,0,0,0,0,0,-1,790,491,0,0
-427,533,-1.82031,-0.947235,0,0,0,0,0,0,0,-1,797,491,-1.82033,0.947223
-420,533,-2.23145,-1.00183,0,0,0,0,0,0,0,-1,804,491,-2.23147,1.00182
-413,533,-2.5105,-1.17044,0,0,0,0,0,0,0,-1,811,491,-2.51047,1.17043
-406,533,-2.77142,-1.09973,0,0,0,0,0,0,0,-1,818,491,-2.77141,1.09973
-399,533,-2.93634,-1.02002,0,0,0,0,0,0,0,-1,825,491,-2.93633,1.02003
-392,533,-3.13538,-0.855316,0,0,0,0,0,0,0,-1,832,491,-3.1354,0.855305
-385,533,0.109924,-4.41916,0,0,0,0,0,0,0,-1,839,491,0.109918,4.41915
-378,533,-0.761414,-5.15549,0,0,0,0,0,0,0,-1,846,491,-0.761387,5.15549
-371,533,0.435974,-6.30829,0,0,0,0,0,0,0,-1,853,491,0.435961,6.30828
-364,533,0.527161,-6.68091,0.0023337,0.00176839,-0.00440042,0.00646054,-0.00235845,-0.753325,0.00527205,0.0409603,860,491,0.52714,6.68091
-357,533,0.625854,-6.91101,0.00127213,0.00121642,-0.0033976,0.00464199,-0.00215344,-0.781299,0.00401008,0.0257836,867,491,0.625867,6.91101
-350,533,0.584229,-7.07483,0.000691454,0.00077029,-0.00281169,0.00354284,-0.0020811,-0.792407,0.00328334,0.0108484,874,491,0.584212,7.07484
-343,533,0.571716,-7.33817,0.000356593,0.000688728,-0.00237611,0.00290456,-0.00185924,-0.820287,0.00277237,0.00991345,881,491,0.571701,7.33818
-336,533,0.547363,-7.58145,0.000255806,0.000741932,-0.00208435,0.00259735,-0.00159961,-0.843443,0.00244583,0.0147432,888,491,0.547364,7.58146
-329,533,0.562134,-7.78015,0.000115379,0.000614477,-0.00164419,0.00202795,-0.0012981,-0.860711,0.00193565,0.0139589,895,491,0.562157,7.78017
-322,533,0.5448,-7.99628,0.000235377,0.000648657,-0.00148143,0.00193779,-0.00105376,-0.854694,0.00175213,0.0111902,902,491,0.544827,7.99627
-315,533,0.540039,-8.22113,0.000484756,0.000641312,-0.00130287,0.00186825,-0.000742186,-0.815403,0.00155318,0.0118979,909,491,0.540038,8.22112
-308,533,0.542664,-8.42926,0.000794235,0.000605523,-0.00112045,0.0018243,-0.000424538,-0.743391,0.00137966,0.0117062,916,491,0.542691,8.42926
-301,533,0.529297,-8.61389,0.0011401,0.000464813,-0.000925639,0.00178776,-0.00018284,-0.610512,0.00125722,0.0125895,923,491,0.529326,8.61388
-294,533,0.553223,-8.81888,0.00149628,0.000180713,-0.000716526,0.00181116,-0.000134175,-0.414059,0.00125456,0.0111768,930,491,0.553223,8.81889
-287,533,0.564087,-9.02704,0.00179365,-0.000197368,-0.00049701,0.00191082,-0.000314539,-0.231525,0.00139064,0.00895779,937,491,0.564104,9.02705
-280,533,0.552673,-9.22736,0.00205582,-0.000790286,-0.000299748,0.00208705,-0.000821513,-0.103801,0.00173143,0.00803734,944,491,0.552691,9.22736
-273,533,0.540405,-9.42407,0.00235305,-0.00133978,-0.000191479,0.00236295,-0.00134968,-0.0516669,0.00216994,0.0107623,951,491,0.540397,9.42408
-266,533,0.55481,-9.62183,0.00266915,-0.00195044,-0.000120708,0.0026723,-0.00195359,-0.0261058,0.00268149,0.0104744,958,491,0.554834,9.62183
-259,533,0.575806,-9.82196,0.00299675,-0.00272354,-0.000128922,0.00299965,-0.00272644,-0.0225224,0.00330722,0.0106494,965,491,0.575828,9.82196
-252,533,0.576172,-10.0032,0.00353359,-0.00360295,3.22801e-05,0.00353373,-0.00360309,0.00452309,0.00412051,0.0135722,972,491,0.576152,10.0032
-245,533,0.620789,-10.1664,0.00446561,-0.0044672,4.40346e-05,0.00446582,-0.00446741,0.00492938,0.00515761,0.0198681,979,491,0.620765,10.1664
-238,533,0.60022,-10.2847,0.00532961,-0.00536566,0.000147423,0.00533164,-0.00536769,0.0137805,0.00617727,0.0210285,986,491,0.600225,10.2847
-231,533,0.650024,-10.4622,0.00637947,-0.00631591,0.000261647,0.00638486,-0.0063213,0.0205979,0.00733594,0.0287812,993,491,0.650043,10.4623
-224,533,0.685852,-10.6476,0.00744314,-0.00717098,0.000572861,0.00746556,-0.0071934,0.0391191,0.00846384,0.0363052,1000,491,0.685855,10.6477
-217,533,0.735535,-10.8276,0.00866685,-0.00765822,0.00101077,0.00872919,-0.00772056,0.0616013,0.00950322,0.04627,1007,491,0.735517,10.8276
-210,533,0.834167,-10.7529,0,0,0,0,0,0,0,-1,1014,491,0.834178,10.7529
-203,533,0.677979,-11.0192,0.012359,-0.00800731,0.0014516,0.0124619,-0.00811026,0.0707976,0.0119656,0.0478687,1021,491,0.678003,11.0192
-196,533,0.834351,-11.1324,0.0146852,-0.00730168,0.00137614,0.014771,-0.00738747,0.0622651,0.0130278,0.0455842,1028,491,0.834398,11.1324
-189,533,1.40491,-11.4227,0,0,0,0,0,0,0,-1,1035,491,1.4049,11.4227
-182,533,1.26123,-11.4969,0,0,0,0,0,0,0,-1,1042,491,1.26128,11.4969
-175,533,0.937744,-7.36966,0,0,0,0,0,0,0,-1,1049,491,0.937769,7.36965
-168,533,2.64807,-2.7543,0,0,0,0,0,0,0,-1,1056,491,2.64812,2.7543
-161,533,1.91833,-1.76553,0,0,0,0,0,0,0,-1,1063,491,1.91836,1.76554
-154,533,-1.24805,-5.92294,0,0,0,0,0,0,0,-1,1070,491,-1.24806,5.92295
-147,533,0.212036,-10.6896,0,0,0,0,0,0,0,-1,1077,491,0.212037,10.6896
-140,533,0.481812,-8.27359,0,0,0,0,0,0,0,-1,1084,491,0.481827,8.2736
-133,533,1.23474,-8.92532,0,0,0,0,0,0,0,-1,1091,491,1.2347,8.92532
-126,533,2.89612,-2.59003,0,0,0,0,0,0,0,-1,1098,491,2.89608,2.59003
-119,533,3.00842,-12.8239,0,0,0,0,0,0,0,-1,1105,491,3.00841,12.8239
-112,533,7.05884,-10.21,0,0,0,0,0,0,0,-1,1112,491,7.0588,10.21
-105,533,3.84839,1.12769,0,0,0,0,0,0,0,-1,1119,491,3.84843,-1.12769
-98,533,-1.39392,-5.16367,0,0,0,0,0,0,0,-1,1126,491,-1.39394,5.16367
-91,533,0.367432,4.49753,0,0,0,0,0,0,0,-1,1133,491,0.367468,-4.49754
-84,533,-0.88623,3.03604,0,0,0,0,0,0,0,-1,1140,491,-0.886288,-3.03605
-77,533,0,0,0,0,0,0,0,0,0,-1,1147,491,0,0
-70,533,0,0,0,0,0,0,0,0,0,-1,1154,491,0,0
-63,533,0,0,0,0,0,0,0,0,0,-1,1161,491,0,0
-56,533,0,0,0,0,0,0,0,0,0,-1,1168,491,0,0
-49,533,0,0,0,0,0,0,0,0,0,-1,1175,491,0,0
-42,533,0,0,0,0,0,0,0,0,0,-1,1182,491,0,0
-35,533,0,0,0,0,0,0,0,0,0,-1,1189,491,0,0
-28,533,0,0,0,0,0,0,0,0,0,-1,1196,491,0,0
-21,533,0,0,0,0,0,0,0,0,0,-1,1203,491,0,0
-14,533,0,0,0,0,0,0,0,0,0,-1,1210,491,0,0
-7,533,0,0,0,0,0,0,0,0,0,-1,1217,491,0,0
0,533,0,0,0,0,0,0,0,0,0,-1,1224,491,0,0
7,533,0,0,0,0,0,0,0,0,0,-1,1231,491,0,0
14,533,0,0,0,0,0,0,0,0,0,-1,1238,491,0,0
21,533,0,0,0,0,0,0,0,0,0,-1,1245,491,0,0
28,533,0,0,0,0,0,0,0,0,0,-1,1252,491,0,0
35,533,0,0,0,0,0,0,0,0,0,-1,1259,491,0,0
42,533,0,0,0,0,0,0,0,0,0,-1,1266,491,0,0
49,533,0,0,0,0,0,0,0,0,0,-1,1273,491,0,0
56,533,0,0,0,0,0,0,0,0,0,-1,1280,491,0,0
63,533,0,0,0,0,0,0,0,0,0,-1,1287,491,0,0
70,533,0,0,0,0,0,0,0,0,0,-1,1294,491,0,0
77,533,0,0,0,0,0,0,0,0,0,-1,1301,491,0,0
84,533,0,0,0,0,0,0,0,0,0,-1,1308,491,0,0
91,533,0,0,0,0,0,0,0,0,0,-1,1315,491,0,0
98,533,0,0,0,0,0,0,0,0,0,-1,1322,491,0,0
105,533,0,0,0,0,0,0,0,0,0,-1,1329,491,0,0
112,533,0,0,0,0,0,0,0,0,0,-1,1336,491,0,0
119,533,0,0,0,0,0,0,0,0,0,-1,1343,491,0,0
126,533,0,0,0,0,0,0,0,0,0,-1,1350,491,0,0
133,533,0,0,0,0,0,0,0,0,0,-1,1357,491,0,0
140,533,0,0,0,0,0,0,0,0,0,-1,1364,491,0,0
147,533,0,0,0,0,0,0,0,0,0,-1,1371,491,0,0
154,533,0,0,0,0,0,0,0,0,0,-1,1378,491,0,0
161,533,0,0,0,0,0,0,0,0,0,-1,1385,491,0,0
168,533,0,0,0,0,0,0,0,0,0,-1,1392,491,0,0
175,533,0,0,0,0,0,0,0,0,0,-1,1399,491,0,0
182,533,0,0,0,0,0,0,0,0,0,-1,1406,491,0,0
189,533,0,0,0,0,0,0,0,0,0,-1,1413,491,0,0
196,533,0,0,0,0,0,0,0,0,0,-1,1420,491,0,0
203,533,3.7887,1.16193,0,0,0,0,0,0,0,-1,1427,491,3.78872,-1.16193
210,533,5.09558,-0.216034,0,0,0,0,0,0,0,-1,1434,491,5.09559,0.216028
217,533,6.91614,-2.46814,0,0,0,0,0,0,0,-1,1441,491,6.91618,2.46814
224,533,7.23621,-2.1857,0,0,0,0,0,0,0,-1,1448,491,7.23621,2.1857
231,533,7.23474,-1.92282,0,0,0,0,0,0,0,-1,1455,491,7.2347,1.92282
238,533,7.23535,-1.67258,0,0,0,0,0,0,0,-1,1462,491,7.23539,1.67258
245,533,6.86682,-1.2301,0,0,0,0,0,0,0,-1,1469,491,6.86686,1.23011
252,533,6.63354,-3.07825,0,0,0,0,0,0,0,-1,1476,491,6.6335,3.07824
259,533,6.16431,-2.35037,0,0,0,0,0,0,0,-1,1483,491,6.1643,2.35037
266,533,5.68884,-1.6214,0,0,0,0,0,0,0,-1,1490,491,5.68885,1.6214
273,533,5.21399,-0.864227,0,0,0,0,0,0,0,-1,1497,491,5.21403,0.864227
280,533,1.41089,-1.97946,0,0,0,0,0,0,0,-1,1504,491,1.41087,1.97946
287,533,1.6814,-2.44443,0,0,0,0,0,0,0,-1,1511,491,1.6814,2.44444
294,533,2.2384,-2.57626,0,0,0,0,0,0,0,-1,1518,491,2.23839,2.57625
301,533,3.39941,-4.0817,0,0,0,0,0,0,0,-1,1525,491,3.3994,4.08171
308,533,4.13733,-4.14752,0,0,0,0,0,0,0,-1,1532,491,4.13727,4.14752
315,533,4.80762,-5.29349,0,0,0,0,0,0,0,-1,1539,491,4.80762,5.29347
322,533,5.47803,-6.43942,0,0,0,0,0,0,0,-1,1546,491,5.47798,6.43943
329,533,3.88477,-3.86301,0,0,0,0,0,0,0,-1,1553,491,3.88475,3.86299
336,533,4.35278,-9.26563,0,0,0,0,0,0,0,-1,1560,491,4.35282,9.26561
343,533,5.87952,-6.38858,0,0,0,0,0,0,0,-1,1567,491,5.87953,6.38857
350,533,5.62915,-8.02426,0,0,0,0,0,0,0,-1,1574,491,5.6291,8.02426
357,533,5.29163,-9.5477,0,0,0,0,0,0,0,-1,1581,491,5.29162,9.54771
364,533,5.14014,-9.28543,0,0,0,0,0,0,0,-1,1588,491,5.14011,9.28544
371,533,5.00452,-9.18304,0,0,0,0,0,0,0,-1,1595,491,5.00456,9.18305
378,533,5.00098,-8.92126,-0.00208925,-0.00887967,-0.00482455,0.000415008,-0.0113839,-0.478784,0.00773134,0.024851,1602,491,5.00098,8.92126
385,533,5.10071,-8.68341,-0.00188848,-0.00772817,-0.00439657,0.000469489,-0.0100861,-0.49228,0.00688593,0.0218378,1609,491,5.10068,8.68341
392,533,5.10876,-8.51187,-0.00177496,-0.00639268,-0.00399889,0.000533754,-0.00870139,-0.523589,0.00598678,0.013577,1616,491,5.10871,8.51188
399,533,5.13,-8.31866,-0.00151592,-0.00544669,-0.00347195,0.000508326,-0.00747093,-0.527847,0.00515842,0.0126847,1623,491,5.12997,8.31868
406,533,5.1554,-8.10886,-0.00122329,-0.00440464,-0.0028965,0.000490568,-0.0061185,-0.534295,0.00425196,0.0158407,1630,491,5.15538,8.10886
413,533,5.15234,-7.86502,-0.000865882,-0.00327548,-0.00223602,0.000469262,-0.00461063,-0.53829,0.00324151,0.013518,1637,491,5.1523,7.86503
420,533,5.1366,-7.62637,-0.000611598,-0.00241224,-0.00165679,0.000373696,-0.00339753,-0.536513,0.00239931,0.0123487,1644,491,5.13663,7.62639
427,533,5.13196,-7.38315,-0.000452886,-0.00176895,-0.00110674,0.000176671,-0.00239851,-0.51719,0.00166103,0.0130005,1651,491,5.13197,7.38314
434,533,5.12268,-7.17072,-0.00032734,-0.00135309,-0.000610777,-4.26628e-05,-0.00163777,-0.436153,0.00107791,0.0124936,1658,491,5.12273,7.17071
441,533,5.13721,-6.9361,-0.000193424,-0.00116617,-9.95337e-05,-0.000183344,-0.00117625,-0.100929,0.000730759,0.0147637,1665,491,5.1372,6.93609
448,533,5.12708,-6.7142,-6.57117e-05,-0.00100796,0.000414752,9.08401e-05,-0.00116451,0.360925,0.000808323,0.015803,1672,491,5.12711,6.71419
455,533,5.11328,-6.4971,-6.99749e-05,-0.00111577,0.000810484,0.000371652,-0.00155739,0.498914,0.00118179,0.0155574,1679,491,5.11333,6.49711
462,533,5.10242,-6.21658,2.13594e-05,-0.00151097,0.00105384,0.000558111,-0.00204772,0.471083,0.0015843,0.014718,1686,491,5.1024,6.21659
469,533,5.11047,-5.98468,0.000233129,-0.00223579,0.00117323,0.000701717,-0.00270437,0.379988,0.00207672,0.00955255,1693,491,5.11052,5.98467
476,533,5.12036,-5.74997,0.000277875,-0.00299523,0.00118685,0.000662936,-0.00338029,0.313724,0.00250393,0.0107098,1700,491,5.12038,5.74998
483,533,5.15588,-5.49988,0.000274814,-0.00381319,0.00105775,0.000532288,-0.00407066,0.238772,0.00290749,0.0193203,1707,491,5.15584,5.49989
490,533,5.19165,-5.39786,0.00016845,-0.00488715,0.000682662,0.000259009,-0.0049777,0.131885,0.00340809,0.0430132,1714,491,5.19167,5.39784
497,533,5.2522,-5.30249,0,0,0,0,0,0,0,-1,1721,491,5.25219,5.3025
504,533,5.01514,-4.5451,0,0,0,0,0,0,0,-1,1728,491,5.01513,4.54511
511,533,5.09412,-4.37048,0,0,0,0,0,0,0,-1,1735,491,5.09407,4.37049
518,533,5.06519,-3.09314,0,0,0,0,0,0,0,-1,1742,491,5.06514,3.09315
525,533,5.00793,-3.79895,0,0,0,0,0,0,0,-1,1749,491,5.00799,3.79896
532,533,3.24243,0.0737,0,0,0,0,0,0,0,-1,1756,491,3.24239,-0.0737072
539,533,3.61609,1.62427,0,0,0,0,0,0,0,-1,1763,491,3.61606,-1.62426
546,533,3.59607,1.65799,0,0,0,0,0,0,0,-1,1770,491,3.59605,-1.658
553,533,0,0,0,0,0,0,0,0,0,-1,1777,491,0,0
560,533,0,0,0,0,0,0,0,0,0,-1,1784,491,0,0
567,533,0,0,0,0,0,0,0,0,0,-1,1791,491,0,0
574,533,0,0,0,0,0,0,0,0,0,-1,1798,491,0,0
581,533,0,0,0,0,0,0,0,0,0,-1,1805,491,0,0
588,533,0,0,0,0,0,0,0,0,0,-1,1812,491,0,0
595,533,0,0,0,0,0,0,0,0,0,-1,1819,491,0,0
602,533,0,0,0,0,0,0,0,0,0,-1,1826,491,0,0
609,533,0,0,0,0,0,0,0,0,0,-1,1833,491,0,0
616,533,0,0,0,0,0,0,0,0,0,-1,1840,491,0,0
623,533,0,0,0,0,0,0,0,0,0,-1,1847,491,0,0
630,533,0,0,0,0,0,0,0,0,0,-1,1854,491,0,0
637,533,0,0,0,0,0,0,0,0,0,-1,1861,491,0,0
644,533,0,0,0,0,0,0,0,0,0,-1,1868,491,0,0
651,533,0,0,0,0,0,0,0,0,0,-1,1875,491,0,0
658,533,0,0,0,0,0,0,0,0,0,-1,1882,491,0,0
665,533,0,0,0,0,0,0,0,0,0,-1,1889,491,0,0
672,533,0,0,0,0,0,0,0,0,0,-1,1896,491,0,0
679,533,0,0,0,0,0,0,0,0,0,-1,1903,491,0,0
686,533,0,0,0,0,0,0,0,0,0,-1,1910,491,0,0
693,533,0,0,0,0,0,0,0,0,0,-1,1917,491,0,0
700,533,0,0,0,0,0,0,0,0,0,-1,1924,491,0,0
707,533,0,0,0,0,0,0,0,0,0,-1,1931,491,0,0
714,533,0,0,0,0,0,0,0,0,0,-1,1938,491,0,0
721,533,0,0,0,0,0,0,0,0,0,-1,1945,491,0,0
728,533,0,0,0,0,0,0,0,0,0,-1,1952,491,0,0
735,533,0,0,0,0,0,0,0,0,0,-1,1959,491,0,0
742,533,0,0,0,0,0,0,0,0,0,-1,1966,491,0,0
749,533,0,0,0,0,0,0,0,0,0,-1,1973,491,0,0
756,533,0,0,0,0,0,0,0,0,0,-1,1980,491,0,0
763,533,0,0,0,0,0,0,0,0,0,-1,1987,491,0,0
770,533,0,0,0,0,0,0,0,0,0,-1,1994,491,0,0
777,533,0,0,0,0,0,0,0,0,0,-1,2001,491,0,0
784,533,0,0,0,0,0,0,0,0,0,-1,2008,491,0,0
791,533,0,0,0,0,0,0,0,0,0,-1,2015,491,0,0
798,533,0,0,0,0,0,0,0,0,0,-1,2022,491,0,0
805,533,0,0,0,0,0,0,0,0,0,-1,2029,491,0,0
812,533,0,0,0,0,0,0,0,0,0,-1,2036,491,0,0
-700,526,0,0,0,0,0,0,0,0,0,-1,524,498,0,0
-693,526,0,0,0,0,0,0,0,0,0,-1,531,498,0,0
-686,526,0,0,0,0,0,0,0,0,0,-1,538,498,0,0
-679,526,0,0,0,0,0,0,0,0,0,-1,545,498,0,0
-672,526,0,0,0,0,0,0,0,0,0,-1,552,498,0,0
-665,526,0,0,0,0,0,0,0,0,0,-1,559,498,0,0
-658,526,0,0,0,0,0,0,0,0,0,-1,566,498,0,0
-651,526,0,0,0,0,0,0,0,0,0,-1,573,498,0,0
-644,526,0,0,0,0,0,0,0,0,0,-1,580,498,0,0
-637,526,0,0,0,0,0,0,0,0,0,-1,587,498,0,0
-630,526,0,0,0,0,0,0,0,0,0,-1,594,498,0,0
-623,526,0,0,0,0,0,0,0,0,0,-1,601,498,0,0
-616,526,0,0,0,0,0,0,0,0,0,-1,608,498,0,0
-609,526,0,0,0,0,0,0,0,0,0,-1,615,498,0,0
-602,526,0,0,0,0,0,0,0,0,0,-1,622,498,0,0
-595,526,0,0,0,0,0,0,0,0,0,-1,629,498,0,0
-588,526,0,0,0,0,0,0,0,0,0,-1,636,498,0,0
-581,526,0,0,0,0,0,0,0,0,0,-1,643,498,0,0
-574,526,0,0,0,0,0,0,0,0,0,-1,650,498,0,0
-567,526,0,0,0,0,0,0,0,0,0,-1,657,498,0,0
-560,526,0,0,0,0,0,0,0,0,0,-1,664,498,0,0
-553,526,0,0,0,0,0,0,0,0,0,-1,671,498,0,0
-546,526,0,0,0,0,0,0,0,0,0,-1,678,498,0,0
-539,526,0,0,0,0,0,0,0,0,0,-1,685,498,0,0
-532,526,0,0,0,0,0,0,0,0,0,-1,692,498,0,0
-525,526,0,0,0,0,0,0,0,0,0,-1,699,498,0,0
-518,526,0,0,0,0,0,0,0,0,0,-1,706,498,0,0
-511,526,0,0,0,0,0,0,0,0,0,-1,713,498,0,0
-504,526,0,0,0,0,0,0,0,0,0,-1,720,498,0,0
-497,526,0,0,0,0,0,0,0,0,0,-1,727,498,0,0
-490,526,0,0,0,0,0,0,0,0,0,-1,734,498,0,0
-483,526,0,0,0,0,0,0,0,0,0,-1,741,498,0,0
-476,526,0,0,0,0,0,0,0,0,0,-1,748,498,0,0
-469,526,0,0,0,0,0,0,0,0,0,-1,755,498,0,0
-462,526,0,0,0,0,0,0,0,0,0,-1,762,498,0,0
-455,526,0,0,0,0,0,0,0,0,0,-1,769,498,0,0
-448,526,0,0,0,0,0,0,0,0,0,-1,776,498,0,0
-441,526,0,0,0,0,0,0,0,0,0,-1,783,498,0,0
-434,526,-1.01361,-1.88202,0,0,0,0,0,0,0,-1,790,498,-1.01362,1.88203
-427,526,-1.38489,-2.00546,0,0,0,0,0,0,0,-1,797,498,-1.38489,2.00547
-420,526,-1.79395,-2.09637,0,0,0,0,0,0,0,-1,804,498,-1.79397,2.09639
-413,526,-2.15332,-2.18826,0,0,0,0,0,0,0,-1,811,498,-2.15331,2.18826
-406,526,-2.4693,-2.20227,0,0,0,0,0,0,0,-1,818,498,-2.4693,2.20226
-399,526,-2.71814,-2.1713,0,0,0,0,0,0,0,-1,825,498,-2.71811,2.17129
-392,526,-0.0762939,-4.91406,0,0,0,0,0,0,0,-1,832,498,-0.0762724,4.91406
-385,526,-0.552917,-5.40482,0,0,0,0,0,0,0,-1,839,498,-0.552919,5.40481
-378,526,0.103943,-5.97775,0,0,0,0,0,0,0,-1,846,498,0.103923,5.97777
-371,526,0.336365,-6.29706,0.00312995,0.00218857,-0.00471979,0.00740246,-0.00208394,-0.735699,0.00575675,0.0414309,853,498,0.336369,6.29707
-364,526,0.422852,-6.69443,0.00209411,0.00173591,-0.00378401,0.00570326,-0.00187323,-0.761751,0.00455679,0.0231,860,498,0.422831,6.69441
-357,526,0.341187,-6.86026,0.00131263,0.0012145,-0.00293244,0.00419641,-0.00166929,-0.777033,0.00348976,0.0152167,867,498,0.341205,6.86027
-350,526,0.364868,-7.07196,0.000823112,0.000765018,-0.00235401,0.00314825,-0.00156013,-0.779229,0.00276945,0.010774,874,498,0.364857,7.07195
-343,526,0.34729,-7.34644,0.000536041,0.000617426,-0.00194773,0.00252489,-0.00137142,-0.795843,0.00228215,0.0141882,881,498,0.347306,7.34644
-336,526,0.322937,-7.58743,0.000446303,0.000590648,-0.00165715,0.0021772,-0.00114025,-0.80716,0.00194627,0.0150105,888,498,0.322949,7.58742
-329,526,0.342896,-7.7999,0.00033802,0.000436834,-0.00124174,0.00163015,-0.000855292,-0.805282,0.00145803,0.0154894,895,498,0.342924,7.79989
-322,526,0.357544,-7.97885,0.000479147,0.00041039,-0.00108506,0.00153038,-0.000640838,-0.769562,0.00128814,0.0109469,902,498,0.357517,7.97886
-315,526,0.353699,-8.22046,0.00075481,0.000396127,-0.00092246,0.0015152,-0.000364263,-0.689388,0.00115093,0.00918991,909,498,0.353725,8.22046
-308,526,0.341248,-8.44281,0.00113324,0.000352683,-0.000771814,0.00160784,-0.000121915,-0.551313,0.00111476,0.00829667,916,498,0.341217,8.4428
-301,526,0.330322,-8.62921,0.00157773,0.000202337,-0.000610171,0.0018094,-2.93336e-05,-0.362869,0.00121616,0.00946995,923,498,0.33033,8.6292
-294,526,0.341919,-8.82886,0.00205714,-0.000109389,-0.000453731,0.00214832,-0.000200575,-0.198328,0.00150354,0.00915735,930,498,0.341899,8.82885
-287,526,0.343323,-9.01978,0.00249652,-0.000558056,-0.000291124,0.00252402,-0.000585554,-0.0941776,0.00190805,0.00926199,937,498,0.343351,9.01978
-280,526,0.335876,-9.21927,0.00291496,-0.00125814,-0.000146362,0.00292009,-0.00126327,-0.0350154,0.0024776,0.0114973,944,498,0.335892,9.21928
-273,526,0.34082,-9.41104,0.00338891,-0.00190695,-8.08475e-05,0.00339015,-0.00190819,-0.0152614,0.00309863,0.00968247,951,498,0.340821,9.41105
-266,526,0.351746,-9.6073,0.00384399,-0.00259909,-4.23185e-05,0.00384426,-0.00259937,-0.00656768,0.00374331,0.00955243,958,498,0.351766,9.6073
-259,526,0.386353,-9.79648,0.00429427,-0.00351695,-0.000158497,0.00429749,-0.00352016,-0.0202798,0.00452095,0.0166656,965,498,0.386351,9.79647
-252,526,0.417419,-9.94583,0.00493911,-0.00468542,1.74045e-05,0.00493914,-0.00468545,0.00180834,0.0055574,0.0326656,972,498,0.417421,9.94582
-245,526,0.541992,-10.0503,0.00595558,-0.00576149,4.77819e-05,0.00595577,-0.00576169,0.00407788,0.00676539,0.0413053,979,498,0.542016,10.0503
-238,526,0.544739,-10.2076,0.00688203,-0.0069005,0.000124675,0.00688316,-0.00690162,0.00904488,0.00795865,0.0393951,986,498,0.544711,10.2076
-231,526,0.516357,-10.266,0.00805972,-0.00801349,0.000259273,0.0080639,-0.00801767,0.0161252,0.00928471,0.0466282,993,498,0.516335,10.266
-224,526,0.693787,-10.47,0,0,0,0,0,0,0,-1,1000,498,0.693762,10.47
-217,526,0.489685,-10.7963,0,0,0,0,0,0,0,-1,1007,498,0.489656,10.7963
-210,526,0.171021,-8.39801,0,0,0,0,0,0,0,-1,1014,498,0.170997,8.398
-203,526,0.396851,-11.2669,0,0,0,0,0,0,0,-1,1021,498,0.396826,11.2669
-196,526,0.536499,-11.4486,0,0,0,0,0,0,0,-1,1028,498,0.536498,11.4486
-189,526,0.401245,-5.96826,0,0,0,0,0,0,0,-1,1035,498,0.401197,5.96826
-182,526,1.7323,-2.99405,0,0,0,0,0,0,0,-1,1042,498,1.73226,2.99404
-175,526,2.27637,-2.07983,0,0,0,0,0,0,0,-1,1049,498,2.27639,2.07984
-168,526,2.12036,-1.66049,0,0,0,0,0,0,0,-1,1056,498,2.12035,1.66048
-161,526,2.09082,-1.20572,0,0,0,0,0,0,0,-1,1063,498,2.09086,1.2057
-154,526,-1.3446,-5.37799,0,0,0,0,0,0,0,-1,1070,498,-1.34457,5.37799
-147,526,-0.472656,-6.64996,0,0,0,0,0,0,0,-1,1077,498,-0.472659,6.64997
-140,526,0.422852,-8.03339,0,0,0,0,0,0,0,-1,1084,498,0.422844,8.0334
-133,526,1.09583,-9.2215,0,0,0,0,0,0,0,-1,1091,498,1.09581,9.2215
-126,526,3.42529,-2.36053,0,0,0,0,0,0,0,-1,1098,498,3.42523,2.36052
-119,526,2.7771,-0.764099,0,0,0,0,0,0,0,-1,1105,498,2.7771,0.764107
-112,526,2.57715,-1.1893,0,0,0,0,0,0,0,-1,1112,498,2.57718,1.1893
-105,526,0,0,0,0,0,0,0,0,0,-1,1119,498,0,0
-98,526,0,0,0,0,0,0,0,0,0,-1,1126,498,0,0
-91,526,0,0,0,0,0,0,0,0,0,-1,1133,498,0,0
-84,526,0,0,0,0,0,0,0,0,0,-1,1140,498,0,0
-77,526,0,0,0,0,0,0,0,0,0,-1,1147,498,0,0
-70,526,0,0,0,0,0,0,0,0,0,-1,1154,498,0,0
-63,526,0,0,0,0,0,0,0,0,0,-1,1161,498,0,0
-56,526,0,0,0,0,0,0,0,0,0,-1,1168,498,0,0
-49,526,0,0,0,0,0,0,0,0,0,-1,1175,498,0,0
-42,526,0,0,0,0,0,0,0,0,0,-1,1182,498,0,0
-35,526,0,0,0,0,0,0,0,0,0,-1,1189,498,0,0
-28,526,0,0,0,0,0,0,0,0,0,-1,1196,498,0,0
-21,526,0,0,0,0,0,0,0,0,0,-1,1203,498,0,0
-14,526,0,0,0,0,0,0,0,0,0,-1,1210,498,0,0
-7,526,0,0,0,0,0,0,0,0,0,-1,1217,498,0,0
0,526,0,0,0,0,0,0,0,0,0,-1,1224,498,0,0
7,526,0,0,0,0,0,0,0,0,0,-1,1231,498,0,0
14,526,0,0,0,0,0,0,0,0,0,-1,1238,498,0,0
21,526,0,0,0,0,0,0,0,0,0,-1,1245,498,0,0
28,526,0,0,0,0,0,0,0,0,0,-1,1252,498,0,0
35,526,0,0,0,0,0,0,0,0,0,-1,1259,498,0,0
42,526,0,0,0,0,0,0,0,0,0,-1,1266,498,0,0
49,526,0,0,0,0,0,0,0,0,0,-1,1273,498,0,0
56,526,0,0,0,0,0,0,0,0,0,-1,1280,498,0,0
63,526,0,0,0,0,0,0,0,0,0,-1,1287,498,0,0
70,526,0,0,0,0,0,0,0,0,0,-1,1294,498,0,0
77,526,0,0,0,0,0,0,0,0,0,-1,1301,498,0,0
84,526,0,0,0,0,0,0,0,0,0,-1,1308,498,0,0
91,526,0,0,0,0,0,0,0,0,0,-1,1315,498,0,0
98,526,0,0,0,0,0,0,0,0,0,-1,1322,498,0,0
105,526,0,0,0,0,0,0,0,0,0,-1,1329,498,0,0
112,526,0,0,0,0,0,0,0,0,0,-1,1336,498,0,0
119,526,0,0,0,0,0,0,0,0,0,-1,1343,498,0,0
126,526,0,0,0,0,0,0,0,0,0,-1,1350,498,0,0
133,526,0,0,0,0,0,0,0,0,0,-1,1357,498,0,0
140,526,0,0,0,0,0,0,0,0,0,-1,1364,498,0,0
147,526,0,0,0,0,0,0,0,0,0,-1,1371,498,0,0
154,526,0,0,0,0,0,0,0,0,0,-1,1378,498,0,0
161,526,0,0,0,0,0,0,0,0,0,-1,1385,498,0,0
168,526,0,0,0,0,0,0,0,0,0,-1,1392,498,0,0
175,526,0,0,0,0,0,0,0,0,0,-1,1399,498,0,0
182,526,0,0,0,0,0,0,0,0,0,-1,1406,498,0,0
189,526,0,0,0,0,0,0,0,0,0,-1,1413,498,0,0
196,526,0,0,0,0,0,0,0,0,0,-1,1420,498,0,0
203,526,0,0,0,0,0,0,0,0,0,-1,1427,498,0,0
210,526,0,0,0,0,0,0,0,0,0,-1,1434,498,0,0
217,526,0,0,0,0,0,0,0,0,0,-1,1441,498,0,0
224,526,0,0,0,0,0,0,0,0,0,-1,1448,498,0,0
231,526,7.93237,-1.30618,0,0,0,0,0,0,0,-1,1455,498,7.93238,1.30618
238,526,7.97717,-1.08197,0,0,0,0,0,0,0,-1,1462,498,7.97723,1.08196
245,526,7.2793,-0.792938,0,0,0,0,0,0,0,-1,1469,498,7.27931,0.792926
252,526,6.73523,-2.23608,0,0,0,0,0,0,0,-1,1476,498,6.73525,2.23608
259,526,6.22949,-1.84967,0,0,0,0,0,0,0,-1,1483,498,6.22953,1.84968
266,526,5.72375,-1.46329,0,0,0,0,0,0,0,-1,1490,498,5.72381,1.46328
273,526,4.33984,0.49173,0,0,0,0,0,0,0,-1,1497,498,4.33979,-0.491727
280,526,1.4585,-1.59897,0,0,0,0,0,0,0,-1,1504,498,1.45846,1.59895
287,526,1.46411,-2.40134,0,0,0,0,0,0,0,-1,1511,498,1.46406,2.40133
294,526,5.57471,-4.59085,0,0,0,0,0,0,0,-1,1518,498,5.57466,4.59084
301,526,4.42786,-3.99677,0,0,0,0,0,0,0,-1,1525,498,4.42788,3.99676
308,526,5.79529,-4.19366,0,0,0,0,0,0,0,-1,1532,498,5.79528,4.19368
315,526,5.09851,-5.20068,0,0,0,0,0,0,0,-1,1539,498,5.09851,5.20068
322,526,5.50708,-4.72348,0,0,0,0,0,0,0,-1,1546,498,5.50713,4.72347
329,526,3.88672,-4.345,0,0,0,0,0,0,0,-1,1553,498,3.88674,4.34501
336,526,4.97876,-2.23828,0,0,0,0,0,0,0,-1,1560,498,4.97877,2.23828
343,526,3.31665,-2.69696,0,0,0,0,0,0,0,-1,1567,498,3.31667,2.69696
350,526,6.06287,-6.12015,0,0,0,0,0,0,0,-1,1574,498,6.06286,6.12014
357,526,5.79736,-7.7854,0,0,0,0,0,0,0,-1,1581,498,5.79734,7.78539
364,526,5.31055,-9.52139,0,0,0,0,0,0,0,-1,1588,498,5.31055,9.52139
371,526,5.05884,-9.0159,0,0,0,0,0,0,0,-1,1595,498,5.05882,9.01591
378,526,5.08826,-9.2757,0,0,0,0,0,0,0,-1,1602,498,5.08822,9.27569
385,526,5.24585,-8.81332,0,0,0,0,0,0,0,-1,1609,498,5.24585,8.81331
392,526,5.3938,-8.53094,-0.00288359,-0.00906536,-0.00570527,0.000514261,-0.0124632,-0.537151,0.00848543,0.0299921,1616,498,5.39378,8.53095
399,526,5.34375,-8.31363,-0.00244604,-0.00766029,-0.00497707,0.000565405,-0.0106717,-0.544134,0.00731025,0.0176086,1623,498,5.34376,8.31364
406,526,5.39294,-8.0784,-0.00199133,-0.00618583,-0.00420483,0.000610251,-0.00878742,-0.554066,0.00607193,0.013129,1630,498,5.39289,8.07841
413,526,5.38574,-7.85443,-0.00147381,-0.00463264,-0.00333755,0.000639166,-0.00674562,-0.564398,0.00472457,0.0132898,1637,498,5.38571,7.85442
420,526,5.37231,-7.63177,-0.00107542,-0.00339337,-0.00260442,0.000616256,-0.00508505,-0.576053,0.00361301,0.0131921,1644,498,5.37227,7.63178
427,526,5.37085,-7.39365,-0.000793988,-0.00241313,-0.00192424,0.00048405,-0.00369117,-0.586277,0.00263698,0.0127523,1651,498,5.37086,7.39365
434,526,5.35486,-7.13684,-0.000581038,-0.00173606,-0.00133076,0.000292117,-0.00260921,-0.580675,0.00184457,0.0118222,1658,498,5.35489,7.13685
441,526,5.33765,-6.90808,-0.000347023,-0.00131784,-0.000745683,5.73244e-05,-0.00172218,-0.496875,0.0011677,0.0110409,1665,498,5.33769,6.90809
448,526,5.3501,-6.69226,-8.59927e-05,-0.000908029,-0.000169845,-5.22825e-05,-0.00094174,-0.19593,0.000611145,0.0100275,1672,498,5.35011,6.69227
455,526,5.34741,-6.47009,1.45948e-05,-0.000809101,0.000262129,9.09378e-05,-0.000885444,0.283403,0.000622825,0.0126148,1679,498,5.34735,6.47011
462,526,5.34253,-6.21921,0.000189838,-0.00106605,0.000533943,0.000386157,-0.00126237,0.352335,0.000995582,0.0100619,1686,498,5.34249,6.2192
469,526,5.35278,-5.98422,0.000469276,-0.00165443,0.000623855,0.000638977,-0.00182414,0.265594,0.00147593,0.00727674,1693,498,5.35281,5.98421
476,526,5.35254,-5.7478,0.000565414,-0.00227686,0.000603329,0.00068818,-0.00239962,0.200741,0.0018718,0.0090798,1700,498,5.35256,5.74779
483,526,5.36157,-5.48175,0.000593317,-0.00292722,0.00045397,0.000650914,-0.00298482,0.126199,0.00223862,0.0108018,1707,498,5.36159,5.48176
490,526,5.41577,-5.19037,0.000517468,-0.00379532,8.32382e-05,0.000519074,-0.00379693,0.0192908,0.00272086,0.0202399,1714,498,5.41577,5.19036
497,526,5.32605,-5.00958,0.000530853,-0.00457974,-0.000310537,0.000549653,-0.00459854,-0.0604669,0.00326437,0.0267284,1721,498,5.32606,5.00958
504,526,5.2644,-4.7009,0.00106955,-0.00491512,-0.000460171,0.00110473,-0.00495029,-0.076294,0.00372347,0.0289958,1728,498,5.26442,4.70088
511,526,5.33337,-4.49097,0.0021054,-0.00501269,-0.00022708,0.00211263,-0.00501993,-0.0318586,0.00423048,0.0386205,1735,498,5.3334,4.49096
518,526,5.35974,-4.29834,0,0,0,0,0,0,0,-1,1742,498,5.35969,4.29834
525,526,5.19897,-3.81149,0,0,0,0,0,0,0,-1,1749,498,5.19899,3.81149
532,526,3.54285,-2.81274,0,0,0,0,0,0,0,-1,1756,498,3.54284,2.81273
539,526,3.29407,0.932312,0,0,0,0,0,0,0,-1,1763,498,3.2941,-0.93232
546,526,3.36731,1.07721,0,0,0,0,0,0,0,-1,1770,498,3.36735,-1.07719
553,526,3.40796,1.37137,0,0,0,0,0,0,0,-1,1777,498,3.40792,-1.37138
560,526,0,0,0,0,0,0,0,0,0,-1,1784,498,0,0
567,526,0,0,0,0,0,0,0,0,0,-1,1791,498,0,0
574,526,0,0,0,0,0,0,0,0,0,-1,1798,498,0,0
581,526,0,0,0,0,0,0,0,0,0,-1,1805,498,0,0
588,526,0,0,0,0,0,0,0,0,0,-1,1812,498,0,0
595,526,0,0,0,0,0,0,0,0,0,-1,1819,498,0,0
602,526,0,0,0,0,0,0,0,0,0,-1,1826,498,0,0
609,526,0,0,0,0,0,0,0,0,0,-1,1833,498,0,0
616,526,0,0,0,0,0,0,0,0,0,-1,1840,498,0,0
623,526,0,0,0,0,0,0,0,0,0,-1,1847,498,0,0
630,526,0,0,0,0,0,0,0,0,0,-1,1854,498,0,0
637,526,0,0,0,0,0,0,0,0,0,-1,1861,498,0,0
644,526,0,0,0,0,0,0,0,0,0,-1,1868,498,0,0
651,526,0,0,0,0,0,0,0,0,0,-1,1875,498,0,0
658,526,0,0,0,0,0,0,0,0,0,-1,1882,498,0,0
665,526,0,0,0,0,0,0,0,0,0,-1,1889,498,0,0
672,526,0,0,0,0,0,0,0,0,0,-1,1896,498,0,0
679,526,0,0,0,0,0,0,0,0,0,-1,1903,498,0,0
686,526,0,0,0,0,0,0,0,0,0,-1,1910,498,0,0
693,526,0,0,0,0,0,0,0,0,0,-1,1917,498,0,0
700,526,0,0,0,0,0,0,0,0,0,-1,1924,498,0,0
707,526,0,0,0,0,0,0,0,0,0,-1,1931,498,0,0
714,526,0,0,0,0,0,0,0,0,0,-1,1938,498,0,0
721,526,0,0,0,0,0,0,0,0,0,-1,1945,498,0,0
728,526,0,0,0,0,0,0,0,0,0,-1,1952,498,0,0
735,526,0,0,0,0,0,0,0,0,0,-1,1959,498,0,0
742,526,0,0,0,0,0,0,0,0,0,-1,1966,498,0,0
749,526,0,0,0,0,0,0,0,0,0,-1,1973,498,0,0
756,526,0,0,0,0,0,0,0,0,0,-1,1980,498,0,0
763,526,0,0,0,0,0,0,0,0,0,-1,1987,498,0,0
770,526,0,0,0,0,0,0,0,0,0,-1,1994,498,0,0
777,526,0,0,0,0,0,0,0,0,0,-1,2001,498,0,0
784,526,0,0,0,0,0,0,0,0,0,-1,2008,498,0,0
791,526,0,0,0,0,0,0,0,0,0,-1,2015,498,0,0
798,526,0,0,0,0,0,0,0,0,0,-1,2022,498,0,0
805,526,0,0,0,0,0,0,0,0,0,-1,2029,498,0,0
812,526,0,0,0,0,0,0,0,0,0,-1,2036,498,0,0
-700,519,0,0,0,0,0,0,0,0,0,-1,524,505,0,0
-693,519,0,0,0,0,0,0,0,0,0,-1,531,505,0,0
-686,519,0,0,0,0,0,0,0,0,0,-1,538,505,0,0
-679,519,0,0,0,0,0,0,0,0,0,-1,545,505,0,0
-672,519,0,0,0,0,0,0,0,0,0,-1,552,505,0,0
-665,519,0,0,0,0,0,0,0,0,0,-1,559,505,0,0
-658,519,0,0,0,0,0,0,0,0,0,-1,566,505,0,0
-651,519,0,0,0,0,0,0,0,0,0,-1,573,505,0,0
-644,519,0,0,0,0,0,0,0,0,0,-1,580,505,0,0
-637,519,0,0,0,0,0,0,0,0,0,-1,587,505,0,0
-630,519,0,0,0,0,0,0,0,0,0,-1,594,505,0,0
-623,519,0,0,0,0,0,0,0,0,0,-1,601,505,0,0
-616,519,0,0,0,0,0,0,0,0,0,-1,608,505,0,0
-609,519,0,0,0,0,0,0,0,0,0,-1,615,505,0,0
-602,519,0,0,0,0,0,0,0,0,0,-1,622,505,0,0
-595,519,0,0,0,0,0,0,0,0,0,-1,629,505,0,0
-588,519,0,0,0,0,0,0,0,0,0,-1,636,505,0,0
-581,519,0,0,0,0,0,0,0,0,0,-1,643,505,0,0
-574,519,0,0,0,0,0,0,0,0,0,-1,650,505,0,0
-567,519,0,0,0,0,0,0,0,0,0,-1,657,505,0,0
-560,519,0,0,0,0,0,0,0,0,0,-1,664,505,0,0
-553,519,0,0,0,0,0,0,0,0,0,-1,671,505,0,0
-546,519,0,0,0,0,0,0,0,0,0,-1,678,505,0,0
-539,519,0,0,0,0,0,0,0,0,0,-1,685,505,0,0
-532,519,0,0,0,0,0,0,0,0,0,-1,692,505,0,0
-525,519,0,0,0,0,0,0,0,0,0,-1,699,505,0,0
-518,519,0,0,0,0,0,0,0,0,0,-1,706,505,0,0
-511,519,0,0,0,0,0,0,0,0,0,-1,713,505,0,0
-504,519,0,0,0,0,0,0,0,0,0,-1,720,505,0,0
-497,519,0,0,0,0,0,0,0,0,0,-1,727,505,0,0
-490,519,0,0,0,0,0,0,0,0,0,-1,734,505,0,0
-483,519,0,0,0,0,0,0,0,0,0,-1,741,505,0,0
-476,519,0,0,0,0,0,0,0,0,0,-1,748,505,0,0
-469,519,0,0,0,0,0,0,0,0,0,-1,755,505,0,0
-462,519,0,0,0,0,0,0,0,0,0,-1,762,505,0,0
-455,519,0,0,0,0,0,0,0,0,0,-1,769,505,0,0
-448,519,0,0,0,0,0,0,0,0,0,-1,776,505,0,0
-441,519,1.64478,-2.70544,0,0,0,0,0,0,0,-1,783,505,1.64479,2.70544
-434,519,1.67749,-2.85846,0,0,0,0,0,0,0,-1,790,505,1.67747,2.85846
-427,519,-0.949463,-3.06372,0,0,0,0,0,0,0,-1,797,505,-0.949445,3.06371
-420,519,-1.28473,-4.05075,0,0,0,0,0,0,0,-1,804,505,-1.28475,4.05074
-413,519,-1.82922,-3.40952,0,0,0,0,0,0,0,-1,811,505,-1.82921,3.40951
-406,519,-2.14984,-3.47256,0,0,0,0,0,0,0,-1,818,505,-2.14987,3.47256
-399,519,-0.0453491,-5.24426,0,0,0,0,0,0,0,-1,825,505,-0.0453416,5.24427
-392,519,-0.355103,-5.39218,0,0,0,0,0,0,0,-1,832,505,-0.35509,5.39219
-385,519,-0.306946,-5.6485,0.00443231,0.00371187,-0.0063059,0.0103883,-0.0022441,-0.756867,0.00778216,0.0476379,839,505,-0.306921,5.64848
-378,519,0.052124,-6.07147,0.00342593,0.00264291,-0.00495686,0.00800672,-0.00193788,-0.745988,0.00608747,0.0361451,846,505,0.052112,6.07146
-371,519,0.182007,-6.37213,0.0026074,0.00188177,-0.00386584,0.00612741,-0.00163824,-0.73861,0.00472663,0.0198036,853,505,0.18203,6.37212
-364,519,0.150757,-6.60379,0.00193509,0.00133139,-0.00305447,0.00470258,-0.00143611,-0.736147,0.00370766,0.0128795,860,505,0.150736,6.60379
-357,519,0.154785,-6.84882,0.00138332,0.000866066,-0.00233345,0.00347243,-0.00122305,-0.730206,0.00281271,0.00998461,867,505,0.154764,6.84882
-350,519,0.154663,-7.08417,0.00105585,0.00042661,-0.00182438,0.00259254,-0.00111008,-0.700011,0.00219408,0.011026,874,505,0.154644,7.08414
-343,519,0.139465,-7.32745,0.000878572,0.00025837,-0.00146219,0.00206318,-0.00092624,-0.680907,0.00176706,0.0136127,881,505,0.139465,7.32743
-336,519,0.115295,-7.5686,0.000853042,0.000204385,-0.00120506,0.00177665,-0.000719224,-0.653943,0.00148348,0.0137936,888,505,0.115273,7.5686
-329,519,0.122437,-7.77307,0.000838388,9.73136e-05,-0.000874762,0.00141785,-0.000482152,-0.585062,0.00114045,0.0123244,895,505,0.122438,7.77305
-322,519,0.145447,-7.97815,0.00105155,8.46976e-05,-0.000787556,0.00149222,-0.000355968,-0.510135,0.00113227,0.0109571,902,505,0.14545,7.97816
-315,519,0.152466,-8.20789,0.00138632,0.000144354,-0.000719943,0.00171609,-0.00018542,-0.429533,0.00121061,0.00946833,909,505,0.152445,8.20791
-308,519,0.132629,-8.43793,0.00184798,0.000170095,-0.000685354,0.00209234,-7.42595e-05,-0.342488,0.00142029,0.00759661,916,505,0.132623,8.43794
-301,519,0.115112,-8.64978,0.00238216,8.07946e-05,-0.000637521,0.00254696,-8.40089e-05,-0.252969,0.00172666,0.0113575,923,505,0.115118,8.64979
-294,519,0.129089,-8.82831,0.00295231,-0.000210296,-0.000608124,0.00306521,-0.000323199,-0.183568,0.00215929,0.014103,930,505,0.12909,8.8283
-287,519,0.112061,-9.02435,0.0035114,-0.000682566,-0.000577344,0.00358942,-0.000760592,-0.134332,0.00268266,0.0104069,937,505,0.11209,9.02437
-280,519,0.110474,-9.24115,0.00406305,-0.00150367,-0.000538325,0.00411463,-0.00155525,-0.0955248,0.00338285,0.014257,944,505,0.110502,9.24115
-273,519,0.154968,-9.44037,0.00468578,-0.002294,-0.000510948,0.00472299,-0.0023312,-0.0726876,0.00415004,0.0209417,951,505,0.154959,9.44036
-266,519,0.161133,-9.65723,0.00530877,-0.00326913,-0.000419223,0.00532921,-0.00328957,-0.0487177,0.00502229,0.0282477,958,505,0.161163,9.65721
-259,519,0.267578,-9.79932,0.00585009,-0.00446931,-0.000505124,0.00587475,-0.00449398,-0.0487935,0.00600406,0.0462908,965,505,0.26757,9.79931
-252,519,0.255432,-9.9823,0,0,0,0,0,0,0,-1,972,505,0.255456,9.98231
-245,519,0.450317,-9.9469,0,0,0,0,0,0,0,-1,979,505,0.450301,9.94691
-238,519,0.487122,-10.1252,0,0,0,0,0,0,0,-1,986,505,0.487128,10.1253
-231,519,0.330322,-10.0452,0,0,0,0,0,0,0,-1,993,505,0.330339,10.0452
-224,519,-0.0494995,-7.97394,0,0,0,0,0,0,0,-1,1000,505,-0.0495123,7.97392
-217,519,-2.97125,-4.84393,0,0,0,0,0,0,0,-1,1007,505,-2.97128,4.84393
-210,519,-2.14398,-4.74774,0,0,0,0,0,0,0,-1,1014,505,-2.14397,4.74775
-203,519,-0.513611,-5.39017,0,0,0,0,0,0,0,-1,1021,505,-0.513585,5.39017
-196,519,-0.374023,-5.41635,0,0,0,0,0,0,0,-1,1028,505,-0.374047,5.41635
-189,519,-0.234497,-5.44254,0,0,0,0,0,0,0,-1,1035,505,-0.234508,5.44253
-182,519,2.76697,-1.19659,0,0,0,0,0,0,0,-1,1042,505,2.76696,1.19661
-175,519,2.31323,-0.960938,0,0,0,0,0,0,0,-1,1049,505,2.31319,0.960941
-168,519,2.01074,-0.721405,0,0,0,0,0,0,0,-1,1056,505,2.01072,0.721407
-161,519,2.32056,-0.522339,0,0,0,0,0,0,0,-1,1063,505,2.32057,0.522328
-154,519,2.55566,0.116669,0,0,0,0,0,0,0,-1,1070,505,2.55563,-0.116661
-147,519,-0.55127,-6.14001,0,0,0,0,0,0,0,-1,1077,505,-0.551252,6.14001
-140,519,0.240601,-7.53503,0,0,0,0,0,0,0,-1,1084,505,0.240653,7.53501
-133,519,2.70911,-4.4516,0,0,0,0,0,0,0,-1,1091,505,2.70915,4.45161
-126,519,0,0,0,0,0,0,0,0,0,-1,1098,505,0,0
-119,519,0,0,0,0,0,0,0,0,0,-1,1105,505,0,0
-112,519,0,0,0,0,0,0,0,0,0,-1,1112,505,0,0
-105,519,0,0,0,0,0,0,0,0,0,-1,1119,505,0,0
-98,519,0,0,0,0,0,0,0,0,0,-1,1126,505,0,0
-91,519,0,0,0,0,0,0,0,0,0,-1,1133,505,0,0
-84,519,0,0,0,0,0,0,0,0,0,-1,1140,505,0,0
-77,519,0,0,0,0,0,0,0,0,0,-1,1147,505,0,0
-70,519,0,0,0,0,0,0,0,0,0,-1,1154,505,0,0
-63,519,0,0,0,0,0,0,0,0,0,-1,1161,505,0,0
-56,519,0,0,0,0,0,0,0,0,0,-1,1168,505,0,0
-49,519,0,0,0,0,0,0,0,0,0,-1,1175,505,0,0
-42,519,0,0,0,0,0,0,0,0,0,-1,1182,505,0,0
-35,519,0,0,0,0,0,0,0,0,0,-1,1189,505,0,0
-28,519,0,0,0,0,0,0,0,0,0,-1,1196,505,0,0
-21,519,0,0,0,0,0,0,0,0,0,-1,1203,505,0,0
-14,519,0,0,0,0,0,0,0,0,0,-1,1210,505,0,0
-7,519,0,0,0,0,0,0,0,0,0,-1,1217,505,0,0
0,519,0,0,0,0,0,0,0,0,0,-1,1224,505,0,0
7,519,0,0,0,0,0,0,0,0,0,-1,1231,505,0,0
14,519,0,0,0,0,0,0,0,0,0,-1,1238,505,0,0
21,519,0,0,0,0,0,0,0,0,0,-1,1245,505,0,0
28,519,0,0,0,0,0,0,0,0,0,-1,1252,505,0,0
35,519,0,0,0,0,0,0,0,0,0,-1,1259,505,0,0
42,519,0,0,0,0,0,0,0,0,0,-1,1266,505,0,0
49,519,0,0,0,0,0,0,0,0,0,-1,1273,505,0,0
56,519,0,0,0,0,0,0,0,0,0,-1,1280,505,0,0
63,519,0,0,0,0,0,0,0,0,0,-1,1287,505,0,0
70,519,0,0,0,0,0,0,0,0,0,-1,1294,505,0,0
77,519,0,0,0,0,0,0,0,0,0,-1,1301,505,0,0
84,519,0,0,0,0,0,0,0,0,0,-1,1308,505,0,0
91,519,0,0,0,0,0,0,0,0,0,-1,1315,505,0,0
98,519,0,0,0,0,0,0,0,0,0,-1,1322,505,0,0
105,519,0,0,0,0,0,0,0,0,0,-1,1329,505,0,0
112,519,0,0,0,0,0,0,0,0,0,-1,1336,505,0,0
119,519,0,0,0,0,0,0,0,0,0,-1,1343,505,0,0
126,519,0,0,0,0,0,0,0,0,0,-1,1350,505,0,0
133,519,0,0,0,0,0,0,0,0,0,-1,1357,505,0,0
140,519,0,0,0,0,0,0,0,0,0,-1,1364,505,0,0
147,519,0,0,0,0,0,0,0,0,0,-1,1371,505,0,0
154,519,0,0,0,0,0,0,0,0,0,-1,1378,505,0,0
161,519,0,0,0,0,0,0,0,0,0,-1,1385,505,0,0
168,519,0,0,0,0,0,0,0,0,0,-1,1392,505,0,0
175,519,0,0,0,0,0,0,0,0,0,-1,1399,505,0,0
182,519,0,0,0,0,0,0,0,0,0,-1,1406,505,0,0
189,519,0,0,0,0,0,0,0,0,0,-1,1413,505,0,0
196,519,0,0,0,0,0,0,0,0,0,-1,1420,505,0,0
203,519,0,0,0,0,0,0,0,0,0,-1,1427,505,0,0
210,519,0,0,0,0,0,0,0,0,0,-1,1434,505,0,0
217,519,0,0,0,0,0,0,0,0,0,-1,1441,505,0,0
224,519,0,0,0,0,0,0,0,0,0,-1,1448,505,0,0
231,519,0,0,0,0,0,0,0,0,0,-1,1455,505,0,0
238,519,0,0,0,0,0,0,0,0,0,-1,1462,505,0,0
245,519,0,0,0,0,0,0,0,0,0,-1,1469,505,0,0
252,519,5.26208,0.0938416,0,0,0,0,0,0,0,-1,1476,505,5.26207,-0.0938493
259,519,6.14246,-1.36441,0,0,0,0,0,0,0,-1,1483,505,6.14241,1.36441
266,519,5.31909,-0.400787,0,0,0,0,0,0,0,-1,1490,505,5.31912,0.400773
273,519,4.02393,0.325531,0,0,0,0,0,0,0,-1,1497,505,4.0239,-0.325522
280,519,4.68848,0.53006,0,0,0,0,0,0,0,-1,1504,505,4.68842,-0.530073
287,519,7.9519,-3.80801,0,0,0,0,0,0,0,-1,1511,505,7.95193,3.808
294,519,6.92273,-3.38889,0,0,0,0,0,0,0,-1,1518,505,6.92268,3.38888
301,519,5.35669,-2.92661,0,0,0,0,0,0,0,-1,1525,505,5.35675,2.9266
308,519,7.37549,-5.64529,0,0,0,0,0,0,0,-1,1532,505,7.3755,5.64529
315,519,6.30029,-4.53754,0,0,0,0,0,0,0,-1,1539,505,6.30024,4.53753
322,519,5.84302,-5.45117,0,0,0,0,0,0,0,-1,1546,505,5.84303,5.45116
329,519,4.92407,0.62384,0,0,0,0,0,0,0,-1,1553,505,4.92403,-0.623832
336,519,3.10095,-0.329285,0,0,0,0,0,0,0,-1,1560,505,3.1009,0.329283
343,519,2.49146,-2.31119,0,0,0,0,0,0,0,-1,1567,505,2.49145,2.31119
350,519,3.47729,-2.22516,0,0,0,0,0,0,0,-1,1574,505,3.47726,2.22515
357,519,4.51917,-4.51691,0,0,0,0,0,0,0,-1,1581,505,4.51914,4.51691
364,519,3.54626,-7.20673,0,0,0,0,0,0,0,-1,1588,505,3.54622,7.20675
371,519,5.349,-8.20068,0,0,0,0,0,0,0,-1,1595,505,5.34898,8.20068
378,519,5.52307,-8.1026,0,0,0,0,0,0,0,-1,1602,505,5.52311,8.10259
385,519,5.94128,-8.51361,0,0,0,0,0,0,0,-1,1609,505,5.94126,8.51358
392,519,5.76453,-8.2323,-0.00442212,-0.0128511,-0.00817364,0.000559592,-0.0178329,-0.547365,0.0120794,0.045455,1616,505,5.7645,8.23229
399,519,5.60291,-8.19385,-0.00366454,-0.0106697,-0.00705287,0.000707579,-0.0150419,-0.554928,0.0102719,0.0352421,1623,505,5.60296,8.19382
406,519,5.58606,-8.10266,-0.0029457,-0.00849573,-0.00592425,0.000821264,-0.0122627,-0.566367,0.00846218,0.0214721,1630,505,5.58606,8.10269
413,519,5.63159,-7.87579,-0.00220335,-0.00631963,-0.00472191,0.000889462,-0.00941245,-0.579877,0.00659149,0.0134919,1637,505,5.63155,7.8758
420,519,5.59583,-7.63745,-0.00164871,-0.00458742,-0.00371018,0.000872473,-0.00710861,-0.596857,0.00505506,0.0147792,1644,505,5.59579,7.63745
427,519,5.60339,-7.4198,-0.0012245,-0.00319806,-0.00279989,0.000757408,-0.00517997,-0.615977,0.00373149,0.0132884,1651,505,5.60339,7.41983
434,519,5.59509,-7.16412,-0.000904203,-0.00218085,-0.00204396,0.000598784,-0.00368384,-0.634048,0.0026779,0.0123808,1658,505,5.5951,7.16413
441,519,5.57031,-6.91696,-0.000558951,-0.00147772,-0.00134936,0.000407081,-0.00244375,-0.621329,0.00178044,0.0120648,1665,505,5.5703,6.91695
448,519,5.57703,-6.69485,-0.000154086,-0.000785013,-0.000691617,0.000290615,-0.00122971,-0.57143,0.000931911,0.00898223,1672,505,5.57708,6.69486
455,519,5.57336,-6.47501,6.27948e-05,-0.000459409,-0.000212481,0.000138327,-0.000534941,-0.341546,0.000410578,0.0101097,1679,505,5.57334,6.47502
462,519,5.57788,-6.22864,0.000325922,-0.000563873,9.40278e-05,0.00033575,-0.000573701,0.104141,0.000531029,0.0100423,1686,505,5.57783,6.22864
469,519,5.59558,-5.97412,0.000670641,-0.00100538,0.000157909,0.000685389,-0.00102012,0.0931249,0.000990979,0.00993291,1693,505,5.59559,5.97411
476,519,5.59937,-5.7272,0.000821433,-0.00148865,0.000108451,0.000826514,-0.00149373,0.0468093,0.00135793,0.0124674,1700,505,5.59936,5.72721
483,519,5.58521,-5.47989,0.000877572,-0.0019978,-6.17146e-05,0.000878896,-0.00199912,-0.02145,0.00170307,0.0138877,1707,505,5.58525,5.47989
490,519,5.5957,-5.19556,0.0008319,-0.00271149,-0.000433093,0.000884067,-0.00276366,-0.119875,0.00219723,0.011621,1714,505,5.59571,5.19557
497,519,5.59937,-4.95731,0.000864016,-0.00334446,-0.000782508,0.0010048,-0.00348524,-0.178013,0.00272099,0.0128835,1721,505,5.59941,4.95731
504,519,5.55945,-4.72464,0.00132962,-0.00345027,-0.000840557,0.00147313,-0.00359378,-0.169096,0.00300957,0.0129568,1728,505,5.55949,4.72463
511,519,5.59998,-4.48962,0.00220609,-0.00332475,-0.000497244,0.00225044,-0.0033691,-0.0889534,0.0032658,0.0189542,1735,505,5.59999,4.48963
518,519,5.79492,-4.4671,0.00312464,-0.0028571,-0.000122174,0.00312713,-0.00285959,-0.0204131,0.00345758,0.0429211,1742,505,5.79487,4.46711
525,519,6.07678,-4.41873,0,0,0,0,0,0,0,-1,1749,505,6.07674,4.41873
532,519,3.5155,-2.86511,0,0,0,0,0,0,0,-1,1756,505,3.51554,2.8651
539,519,3.30005,0.0229797,0,0,0,0,0,0,0,-1,1763,505,3.30008,-0.0229869
546,519,4.62024,-2.89774,0,0,0,0,0,0,0,-1,1770,505,4.62023,2.89775
553,519,4.14136,0.0667419,0,0,0,0,0,0,0,-1,1777,505,4.14141,-0.0667503
560,519,3.77856,0.279724,0,0,0,0,0,0,0,-1,1784,505,3.77861,-0.279731
567,519,0,0,0,0,0,0,0,0,0,-1,1791,505,0,0
574,519,0,0,0,0,0,0,0,0,0,-1,1798,505,0,0
581,519,0,0,0,0,0,0,0,0,0,-1,1805,505,0,0
588,519,0,0,0,0,0,0,0,0,0,-1,1812,505,0,0
595,519,0,0,0,0,0,0,0,0,0,-1,1819,505,0,0
602,519,0,0,0,0,0,0,0,0,0,-1,1826,505,0,0
609,519,0,0,0,0,0,0,0,0,0,-1,1833,505,0,0
616,519,0,0,0,0,0,0,0,0,0,-1,1840,505,0,0
623,519,0,0,0,0,0,0,0,0,0,-1,1847,505,0,0
630,519,0,0,0,0,0,0,0,0,0,-1,1854,505,0,0
637,519,0,0,0,0,0,0,0,0,0,-1,1861,505,0,0
644,519,0,0,0,0,0,0,0,0,0,-1,1868,505,0,0
651,519,0,0,0,0,0,0,0,0,0,-1,1875,505,0,0
658,519,0,0,0,0,0,0,0,0,0,-1,1882,505,0,0
665,519,0,0,0,0,0,0,0,0,0,-1,1889,505,0,0
672,519,0,0,0,0,0,0,0,0,0,-1,1896,505,0,0
679,519,0,0,0,0,0,0,0,0,0,-1,1903,505,0,0
686,519,0,0,0,0,0,0,0,0,0,-1,1910,505,0,0
693,519,0,0,0,0,0,0,0,0,0,-1,1917,505,0,0
700,519,0,0,0,0,0,0,0,0,0,-1,1924,505,0,0
707,519,0,0,0,0,0,0,0,0,0,-1,1931,505,0,0
714,519,0,0,0,0,0,0,0,0,0,-1,1938,505,0,0
721,519,0,0,0,0,0,0,0,0,0,-1,1945,505,0,0
728,519,0,0,0,0,0,0,0,0,0,-1,1952,505,0,0
735,519,0,0,0,0,0,0,0,0,0,-1,1959,505,0,0
742,519,0,0,0,0,0,0,0,0,0,-1,1966,505,0,0
749,519,0,0,0,0,0,0,0,0,0,-1,1973,505,0,0
756,519,0,0,0,0,0,0,0,0,0,-1,1980,505,0,0
763,519,0,0,0,0,0,0,0,0,0,-1,1987,505,0,0
770,519,0,0,0,0,0,0,0,0,0,-1,1994,505,0,0
777,519,0,0,0,0,0,0,0,0,0,-1,2001,505,0,0
784,519,0,0,0,0,0,0,0,0,0,-1,2008,505,0,0
791,519,0,0,0,0,0,0,0,0,0,-1,2015,505,0,0
798,519,0,0,0,0,0,0,0,0,0,-1,2022,505,0,0
805,519,0,0,0,0,0,0,0,0,0,-1,2029,505,0,0
812,519,0,0,0,0,0,0,0,0,0,-1,2036,505,0,0
-700,512,0,0,0,0,0,0,0,0,0,-1,524,512,0,0
-693,512,0,0,0,0,0,0,0,0,0,-1,531,512,0,0
-686,512,0,0,0,0,0,0,0,0,0,-1,538,512,0,0
-679,512,0,0,0,0,0,0,0,0,0,-1,545,512,0,0
-672,512,0,0,0,0,0,0,0,0,0,-1,552,512,0,0
-665,512,0,0,0,0,0,0,0,0,0,-1,559,512,0,0
-658,512,0,0,0,0,0,0,0,0,0,-1,566,512,0,0
-651,512,0,0,0,0,0,0,0,0,0,-1,573,512,0,0
-644,512,0,0,0,0,0,0,0,0,0,-1,580,512,0,0
-637,512,0,0,0,0,0,0,0,0,0,-1,587,512,0,0
-630,512,0,0,0,0,0,0,0,0,0,-1,594,512,0,0
-623,512,0,0,0,0,0,0,0,0,0,-1,601,512,0,0
-616,512,0,0,0,0,0,0,0,0,0,-1,608,512,0,0
-609,512,0,0,0,0,0,0,0,0,0,-1,615,512,0,0
-602,512,0,0,0,0,0,0,0,0,0,-1,622,512,0,0
-595,512,0,0,0,0,0,0,0,0,0,-1,629,512,0,0
-588,512,0,0,0,0,0,0,0,0,0,-1,636,512,0,0
-581,512,0,0,0,0,0,0,0,0,0,-1,643,512,0,0
-574,512,0,0,0,0,0,0,0,0,0,-1,650,512,0,0
-567,512,0,0,0,0,0,0,0,0,0,-1,657,512,0,0
-560,512,0,0,0,0,0,0,0,0,0,-1,664,512,0,0
-553,512,0,0,0,0,0,0,0,0,0,-1,671,512,0,0
-546,512,0,0,0,0,0,0,0,0,0,-1,678,512,0,0
-539,512,0,0,0,0,0,0,0,0,0,-1,685,512,0,0
-532,512,0,0,0,0,0,0,0,0,0,-1,692,512,0,0
-525,512,0,0,0,0,0,0,0,0,0,-1,699,512,0,0
-518,512,0,0,0,0,0,0,0,0,0,-1,706,512,0,0
-511,512,0,0,0,0,0,0,0,0,0,-1,713,512,0,0
-504,512,0,0,0,0,0,0,0,0,0,-1,720,512,0,0
-497,512,0,0,0,0,0,0,0,0,0,-1,727,512,0,0
-490,512,0,0,0,0,0,0,0,0,0,-1,734,512,0,0
-483,512,0,0,0,0,0,0,0,0,0,-1,741,512,0,0
-476,512,0,0,0,0,0,0,0,0,0,-1,748,512,0,0
-469,512,0,0,0,0,0,0,0,0,0,-1,755,512,0,0
-462,512,0,0,0,0,0,0,0,0,0,-1,762,512,0,0
-455,512,0,0,0,0,0,0,0,0,0,-1,769,512,0,0
-448,512,1.15979,-3.66168,0,0,0,0,0,0,0,-1,776,512,1.15981,3.6617
-441,512,0.877319,-3.48383,0,0,0,0,0,0,0,-1,783,512,0.877305,3.48386
-434,512,0.756165,-3.5448,0,0,0,0,0,0,0,-1,790,512,0.756189,3.54483
-427,512,-1.63092,-4.28064,0,0,0,0,0,0,0,-1,797,512,-1.63092,4.28064
-420,512,-1.33789,-4.37897,0,0,0,0,0,0,0,-1,804,512,-1.33789,4.37896
-413,512,-1.47351,-4.59778,0,0,0,0,0,0,0,-1,811,512,-1.47354,4.59779
-406,512,-0.0492554,-4.52802,0,0,0,0,0,0,0,-1,818,512,-0.0492735,4.528
-399,512,0.105652,-5.50885,0,0,0,0,0,0,0,-1,825,512,0.105634,5.50887
-392,512,0.0461426,-5.73779,0.00367457,0.00422704,-0.0056736,0.00963112,-0.00172951,-0.809723,0.00706814,0.0358055,832,512,0.0461392,5.73776
-385,512,-0.041626,-5.89081,0.00300783,0.00347867,-0.00460534,0.0078546,-0.0013681,-0.810936,0.00574698,0.0195106,839,512,-0.0416518,5.89083
-378,512,-0.0636597,-6.12988,0.00244897,0.00258871,-0.00369117,0.00621067,-0.00117299,-0.794862,0.00458177,0.0149119,846,512,-0.0636673,6.12987
-371,512,-0.0621338,-6.37769,0.00200267,0.00183264,-0.00300424,0.0049231,-0.00108779,-0.771253,0.00369838,0.0113564,853,512,-0.0621141,6.37767
-364,512,-0.0578613,-6.63239,0.00163538,0.00120434,-0.00246165,0.00389093,-0.00105121,-0.741734,0.00300626,0.00932104,860,512,-0.0578388,6.63239
-357,512,-0.0554199,-6.85712,0.00134597,0.000684808,-0.00199528,0.00303787,-0.00100709,-0.703303,0.00243149,0.0104135,867,512,-0.0554428,6.85714
-350,512,-0.0542603,-7.09406,0.00120647,0.00014681,-0.0016847,0.0024427,-0.00108941,-0.633047,0.00208856,0.0107062,874,512,-0.0542847,7.09405
-343,512,-0.0787964,-7.32867,0.00116702,-0.000145196,-0.00147821,0.00212819,-0.00110637,-0.576533,0.00189828,0.0111412,881,512,-0.0788026,7.32869
-336,512,-0.100342,-7.55774,0.0012421,-0.000319635,-0.00134183,0.00201373,-0.00109127,-0.52188,0.00181885,0.0115695,888,512,-0.100346,7.55775
-329,512,-0.0947266,-7.76831,0.00137101,-0.000445919,-0.001164,0.0019391,-0.00101401,-0.454041,0.00173264,0.0123992,895,512,-0.0947002,7.76831
-322,512,-0.0883179,-7.99841,0.00170929,-0.000496944,-0.00116569,0.00221107,-0.000998724,-0.406485,0.00189672,0.0107989,902,512,-0.0882966,7.99841
-315,512,-0.0767212,-8.2312,0.0035428,-0.000162791,-0.00209233,0.00448477,-0.00110476,-0.42302,0.00341814,0.0108883,909,512,-0.0767492,8.23118
-308,512,-0.086853,-8.44519,0.00518763,9.04422e-05,-0.00282273,0.00644208,-0.001164,-0.418195,0.0047307,0.0107261,916,512,-0.0868785,8.44517
-301,512,-0.0859985,-8.66724,0.00747151,0.000333147,-0.00388289,0.00917641,-0.00137175,-0.413735,0.00662238,0.0138687,923,512,-0.0859858,8.66724
-294,512,-0.0681152,-8.84528,0.010459,0.000495993,-0.0054275,0.0128445,-0.00188953,-0.41411,0.00925735,0.0141808,930,512,-0.0680884,8.84527
-287,512,-0.141968,-8.98071,0.0143424,0.000705813,-0.00755077,0.0176977,-0.00264955,-0.418165,0.0127736,0.0203152,937,512,-0.141973,8.98069
-280,512,-0.0592041,-9.25879,0.0191243,0.000754944,-0.0101187,0.0236052,-0.00372593,-0.416875,0.0171145,0.0285252,944,512,-0.0591956,9.25879
-273,512,0.0653687,-9.32025,0.0244283,0.000641139,-0.0131054,0.0302324,-0.00516301,-0.416918,0.0220781,0.0487975,951,512,0.0653803,9.32025
-266,512,0.0269775,-9.78033,0,0,0,0,0,0,0,-1,958,512,0.0269884,9.78034
-259,512,0.0875244,-9.97559,0,0,0,0,0,0,0,-1,965,512,0.0875454,9.97561
-252,512,1.45941,-3.43475,0,0,0,0,0,0,0,-1,972,512,1.45938,3.43475
-245,512,4.12927,-11.272,0,0,0,0,0,0,0,-1,979,512,4.1293,11.272
-238,512,0.227051,-8.92969,0,0,0,0,0,0,0,-1,986,512,0.227073,8.92968
-231,512,-2.54437,-10.169,0,0,0,0,0,0,0,-1,993,512,-2.54439,10.169
-224,512,-4.84601,-7.52783,0,0,0,0,0,0,0,-1,1000,512,-4.84602,7.52786
-217,512,-7.37274,-3.89563,0,0,0,0,0,0,0,-1,1007,512,-7.37274,3.89561
-210,512,-3.76642,-1.94702,0,0,0,0,0,0,0,-1,1014,512,-3.76641,1.94702
-203,512,-2.48328,-5.19061,0,0,0,0,0,0,0,-1,1021,512,-2.48328,5.19059
-196,512,-1.14929,-4.63202,0,0,0,0,0,0,0,-1,1028,512,-1.14934,4.632
-189,512,0.197998,4.55505,0,0,0,0,0,0,0,-1,1035,512,0.197996,-4.55506
-182,512,2.73938,0.0778503,0,0,0,0,0,0,0,-1,1042,512,2.73944,-0.077852
-175,512,2.29565,0.209808,0,0,0,0,0,0,0,-1,1049,512,2.29565,-0.209813
-168,512,2.09399,-0.302856,0,0,0,0,0,0,0,-1,1056,512,2.09403,0.302826
-161,512,2.76636,0.0921021,0,0,0,0,0,0,0,-1,1063,512,2.76633,-0.0921104
-154,512,3.41382,0.466187,0,0,0,0,0,0,0,-1,1070,512,3.41382,-0.466178
-147,512,0,0,0,0,0,0,0,0,0,-1,1077,512,0,0
-140,512,0,0,0,0,0,0,0,0,0,-1,1084,512,0,0
-133,512,0,0,0,0,0,0,0,0,0,-1,1091,512,0,0
-126,512,0,0,0,0,0,0,0,0,0,-1,1098,512,0,0
-119,512,0,0,0,0,0,0,0,0,0,-1,1105,512,0,0
-112,512,0,0,0,0,0,0,0,0,0,-1,1112,512,0,0
-105,512,0,0,0,0,0,0,0,0,0,-1,1119,512,0,0
-98,512,0,0,0,0,0,0,0,0,0,-1,1126,512,0,0
-91,512,0,0,0,0,0,0,0,0,0,-1,1133,512,0,0
-84,512,0,0,0,0,0,0,0,0,0,-1,1140,512,0,0
-77,512,0,0,0,0,0,0,0,0,0,-1,1147,512,0,0
-70,512,0,0,0,0,0,0,0,0,0,-1,1154,512,0,0
-63,512,0,0,0,0,0,0,0,0,0,-1,1161,512,0,0
-56,512,0,0,0,0,0,0,0,0,0,-1,1168,512,0,0
-49,512,0,0,0,0,0,0,0,0,0,-1,1175,512,0,0
-42,512,0,0,0,0,0,0,0,0,0,-1,1182,512,0,0
-35,512,0,0,0,0,0,0,0,0,0,-1,1189,512,0,0
-28,512,0,0,0,0,0,0,0,0,0,-1,1196,512,0,0
-21,512,0,0,0,0,0,0,0,0,0,-1,1203,512,0,0
-14,512,0,0,0,0,0,0,0,0,0,-1,1210,512,0,0
-7,512,0,0,0,0,0,0,0,0,0,-1,1217,512,0,0
0,512,0,0,0,0,0,0,0,0,0,-1,1224,512,0,0
7,512,0,0,0,0,0,0,0,0,0,-1,1231,512,0,0
14,512,0,0,0,0,0,0,0,0,0,-1,1238,512,0,0
21,512,0,0,0,0,0,0,0,0,0,-1,1245,512,0,0
28,512,0,0,0,0,0,0,0,0,0,-1,1252,512,0,0
35,512,0,0,0,0,0,0,0,0,0,-1,1259,512,0,0
42,512,0,0,0,0,0,0,0,0,0,-1,1266,512,0,0
49,512,0,0,0,0,0,0,0,0,0,-1,1273,512,0,0
56,512,0,0,0,0,0,0,0,0,0,-1,1280,512,0,0
63,512,0,0,0,0,0,0,0,0,0,-1,1287,512,0,0
70,512,0,0,0,0,0,0,0,0,0,-1,1294,512,0,0
77,512,0,0,0,0,0,0,0,0,0,-1,1301,512,0,0
84,512,0,0,0,0,0,0,0,0,0,-1,1308,512,0,0
91,512,0,0,0,0,0,0,0,0,0,-1,1315,512,0,0
98,512,0,0,0,0,0,0,0,0,0,-1,1322,512,0,0
105,512,0,0,0,0,0,0,0,0,0,-1,1329,512,0,0
112,512,0,0,0,0,0,0,0,0,0,-1,1336,512,0,0
119,512,0,0,0,0,0,0,0,0,0,-1,1343,512,0,0
126,512,0,0,0,0,0,0,0,0,0,-1,1350,512,0,0
133,512,0,0,0,0,0,0,0,0,0,-1,1357,512,0,0
140,512,0,0,0,0,0,0,0,0,0,-1,1364,512,0,0
147,512,0,0,0,0,0,0,0,0,0,-1,1371,512,0,0
154,512,0,0,0,0,0,0,0,0,0,-1,1378,512,0,0
161,512,0,0,0,0,0,0,0,0,0,-1,1385,512,0,0
168,512,0,0,0,0,0,0,0,0,0,-1,1392,512,0,0
175,512,0,0,0,0,0,0,0,0,0,-1,1399,512,0,0
182,512,0,0,0,0,0,0,0,0,0,-1,1406,512,0,0
189,512,0,0,0,0,0,0,0,0,0,-1,1413,512,0,0
196,512,0,0,0,0,0,0,0,0,0,-1,1420,512,0,0
203,512,0,0,0,0,0,0,0,0,0,-1,1427,512,0,0
210,512,0,0,0,0,0,0,0,0,0,-1,1434,512,0,0
217,512,0,0,0,0,0,0,0,0,0,-1,1441,512,0,0
224,512,0,0,0,0,0,0,0,0,0,-1,1448,512,0,0
231,512,0,0,0,0,0,0,0,0,0,-1,1455,512,0,0
238,512,0,0,0,0,0,0,0,0,0,-1,1462,512,0,0
245,512,0,0,0,0,0,0,0,0,0,-1,1469,512,0,0
252,512,0,0,0,0,0,0,0,0,0,-1,1476,512,0,0
259,512,0,0,0,0,0,0,0,0,0,-1,1483,512,0,0
266,512,0,0,0,0,0,0,0,0,0,-1,1490,512,0,0
273,512,4.00745,0.618622,0,0,0,0,0,0,0,-1,1497,512,4.00747,-0.618611
280,512,4.49609,0.649841,0,0,0,0,0,0,0,-1,1504,512,4.49612,-0.649834
287,512,4.77234,0.458069,0,0,0,0,0,0,0,-1,1511,512,4.77233,-0.458083
294,512,8.54956,-2.36273,0,0,0,0,0,0,0,-1,1518,512,8.54952,2.36274
301,512,6.302,-1.69092,0,0,0,0,0,0,0,-1,1525,512,6.30196,1.69093
308,512,8.2439,-6.22754,0,0,0,0,0,0,0,-1,1532,512,8.24394,6.22757
315,512,7.53687,-6.04211,0,0,0,0,0,0,0,-1,1539,512,7.53691,6.04211
322,512,6.82983,-5.85663,0,0,0,0,0,0,0,-1,1546,512,6.82988,5.85666
329,512,4.38147,-0.329651,0,0,0,0,0,0,0,-1,1553,512,4.38144,0.329662
336,512,4.41467,-0.741455,0,0,0,0,0,0,0,-1,1560,512,4.41467,0.741442
343,512,4.44727,-1.21667,0,0,0,0,0,0,0,-1,1567,512,4.44732,1.21666
350,512,4.55469,-1.65082,0,0,0,0,0,0,0,-1,1574,512,4.5547,1.65083
357,512,5.79993,-2.67456,0,0,0,0,0,0,0,-1,1581,512,5.79991,2.67454
364,512,5.18298,-6.80133,0,0,0,0,0,0,0,-1,1588,512,5.18296,6.80132
371,512,5.28467,-7.69269,0,0,0,0,0,0,0,-1,1595,512,5.28464,7.69269
378,512,5.58667,-7.75049,0,0,0,0,0,0,0,-1,1602,512,5.58663,7.7505
385,512,6.34155,-8.12,0,0,0,0,0,0,0,-1,1609,512,6.34159,8.11999
392,512,6.06384,-7.87494,-0.00657902,-0.0179147,-0.0113577,0.000446488,-0.0249402,-0.553962,0.0167776,0.0496162,1616,512,6.0638,7.87494
399,512,5.92542,-7.75995,-0.0052927,-0.0145986,-0.00960177,0.000724126,-0.0206154,-0.559776,0.0139912,0.0475426,1623,512,5.92544,7.75996
406,512,5.88538,-7.90991,-0.0041787,-0.0114152,-0.00797642,0.000961749,-0.0165557,-0.572468,0.0113713,0.0400641,1630,512,5.88535,7.90993
413,512,5.76697,-7.9256,-0.00310907,-0.00838211,-0.00633456,0.00111574,-0.0126069,-0.588196,0.00880014,0.0318867,1637,512,5.76696,7.9256
420,512,5.83142,-7.65985,-0.00233955,-0.00604779,-0.00496163,0.00110307,-0.00949042,-0.606587,0.00672486,0.0178739,1644,512,5.83142,7.65984
427,512,5.84412,-7.42102,-0.00174211,-0.00419885,-0.00376428,0.000989152,-0.00693011,-0.627684,0.00498263,0.0139599,1651,512,5.84406,7.42104
434,512,5.8468,-7.18445,-0.00126099,-0.00275472,-0.00277335,0.000864301,-0.00488001,-0.653869,0.00357643,0.0105666,1658,512,5.84686,7.18444
441,512,5.82202,-6.9425,-0.000781849,-0.00172797,-0.00192313,0.000725546,-0.00323537,-0.6648,0.00243506,0.0119433,1665,512,5.82198,6.94253
448,512,5.80664,-6.69775,-0.000235422,-0.00074041,-0.00114591,0.000685481,-0.00166131,-0.676959,0.00139342,0.00850822,1672,512,5.80668,6.69772
455,512,5.81458,-6.45892,8.21262e-05,-0.000198987,-0.000577403,0.000535834,-0.000652695,-0.666006,0.000687302,0.00859984,1679,512,5.81462,6.45895
462,512,5.82727,-6.20746,0.000396892,-0.000170572,-0.000189957,0.00045461,-0.000228289,-0.294979,0.000401424,0.00959776,1686,512,5.82725,6.20744
469,512,5.82483,-5.95624,0.000752832,-0.000480953,-0.000105765,0.000761833,-0.000489954,-0.0848986,0.00072838,0.0113179,1693,512,5.82477,5.95621
476,512,5.81909,-5.71875,0.000909041,-0.000851859,-0.000138133,0.000919811,-0.000862629,-0.0778105,0.00102927,0.0147,1700,512,5.81906,5.71872
483,512,5.81213,-5.46716,0.000947497,-0.00125796,-0.000285652,0.000983894,-0.00129436,-0.126735,0.00131941,0.0135198,1707,512,5.81213,5.46716
490,512,5.82996,-5.19922,0.000865239,-0.00186214,-0.000615124,0.000997554,-0.00199446,-0.211873,0.00175911,0.0102707,1714,512,5.82992,5.1992
497,512,5.84644,-4.94403,0.000814453,-0.00241622,-0.000917889,0.00105703,-0.00265879,-0.258367,0.00221077,0.0107076,1721,512,5.84646,4.94402
504,512,5.80811,-4.67078,0.00115459,-0.00237594,-0.000896712,0.00136929,-0.00259064,-0.235004,0.00232223,0.0117736,1728,512,5.80808,4.67078
511,512,5.78088,-4.40631,0.00183327,-0.00212417,-0.000482802,0.00189132,-0.00218222,-0.119661,0.00235385,0.0131778,1735,512,5.78083,4.40632
518,512,5.90442,-4.2442,0.00244939,-0.00157986,-6.60119e-05,0.00245047,-0.00158094,-0.0163773,0.00234552,0.0211554,1742,512,5.90438,4.24423
525,512,6.14246,-4.08234,0,0,0,0,0,0,0,-1,1749,512,6.14251,4.08231
532,512,5.40063,-3.45978,0,0,0,0,0,0,0,-1,1756,512,5.40062,3.45976
539,512,4.39929,-3.11737,0,0,0,0,0,0,0,-1,1763,512,4.3993,3.11735
546,512,2.77551,-0.66449,0,0,0,0,0,0,0,-1,1770,512,2.77548,0.664503
553,512,3.927,-0.448853,0,0,0,0,0,0,0,-1,1777,512,3.92704,0.448843
560,512,3.55762,-0.201233,0,0,0,0,0,0,0,-1,1784,512,3.55768,0.201259
567,512,3.09045,0.191193,0,0,0,0,0,0,0,-1,1791,512,3.09045,-0.191203
574,512,0,0,0,0,0,0,0,0,0,-1,1798,512,0,0
581,512,0,0,0,0,0,0,0,0,0,-1,1805,512,0,0
588,512,0,0,0,0,0,0,0,0,0,-1,1812,512,0,0
595,512,0,0,0,0,0,0,0,0,0,-1,1819,512,0,0
602,512,0,0,0,0,0,0,0,0,0,-1,1826,512,0,0
609,512,0,0,0,0,0,0,0,0,0,-1,1833,512,0,0
616,512,0,0,0,0,0,0,0,0,0,-1,1840,512,0,0
623,512,0,0,0,0,0,0,0,0,0,-1,1847,512,0,0
630,512,0,0,0,0,0,0,0,0,0,-1,1854,512,0,0
637,512,0,0,0,0,0,0,0,0,0,-1,1861,512,0,0
644,512,0,0,0,0,0,0,0,0,0,-1,1868,512,0,0
651,512,0,0,0,0,0,0,0,0,0,-1,1875,512,0,0
658,512,0,0,0,0,0,0,0,0,0,-1,1882,512,0,0
665,512,0,0,0,0,0,0,0,0,0,-1,1889,512,0,0
672,512,0,0,0,0,0,0,0,0,0,-1,1896,512,0,0
679,512,0,0,0,0,0,0,0,0,0,-1,1903,512,0,0
686,512,0,0,0,0,0,0,0,0,0,-1,1910,512,0,0
693,512,0,0,0,0,0,0,0,0,0,-1,1917,512,0,0
700,512,0,0,0,0,0,0,0,0,0,-1,1924,512,0,0
707,512,0,0,0,0,0,0,0,0,0,-1,1931,512,0,0
714,512,0,0,0,0,0,0,0,0,0,-1,1938,512,0,0
721,512,0,0,0,0,0,0,0,0,0,-1,1945,512,0,0
728,512,0,0,0,0,0,0,0,0,0,-1,1952,512,0,0
735,512,0,0,0,0,0,0,0,0,0,-1,1959,512,0,0
742,512,0,0,0,0,0,0,0,0,0,-1,1966,512,0,0
749,512,0,0,0,0,0,0,0,0,0,-1,1973,512,0,0
756,512,0,0,0,0,0,0,0,0,0,-1,1980,512,0,0
763,512,0,0,0,0,0,0,0,0,0,-1,1987,512,0,0
770,512,0,0,0,0,0,0,0,0,0,-1,1994,512,0,0
777,512,0,0,0,0,0,0,0,0,0,-1,2001,512,0,0
784,512,0,0,0,0,0,0,0,0,0,-1,2008,512,0,0
791,512,0,0,0,0,0,0,0,0,0,-1,2015,512,0,0
798,512,0,0,0,0,0,0,0,0,0,-1,2022,512,0,0
805,512,0,0,0,0,0,0,0,0,0,-1,2029,512,0,0
812,512,0,0,0,0,0,0,0,0,0,-1,2036,512,0,0
-700,505,0,0,0,0,0,0,0,0,0,-1,524,519,0,0
-693,505,0,0,0,0,0,0,0,0,0,-1,531,519,0,0
-686,505,0,0,0,0,0,0,0,0,0,-1,538,519,0,0
-679,505,0,0,0,0,0,0,0,0,0,-1,545,519,0,0
-672,505,0,0,0,0,0,0,0,0,0,-1,552,519,0,0
-665,505,0,0,0,0,0,0,0,0,0,-1,559,519,0,0
-658,505,0,0,0,0,0,0,0,0,0,-1,566,519,0,0
-651,505,0,0,0,0,0,0,0,0,0,-1,573,519,0,0
-644,505,0,0,0,0,0,0,0,0,0,-1,580,519,0,0
-637,505,0,0,0,0,0,0,0,0,0,-1,587,519,0,0
-630,505,0,0,0,0,0,0,0,0,0,-1,594,519,0,0
-623,505,0,0,0,0,0,0,0,0,0,-1,601,519,0,0
-616,505,0,0,0,0,0,0,0,0,0,-1,608,519,0,0
-609,505,0,0,0,0,0,0,0,0,0,-1,615,519,0,0
-602,505,0,0,0,0,0,0,0,0,0,-1,622,519,0,0
-595,505,0,0,0,0,0,0,0,0,0,-1,629,519,0,0
-588,505,0,0,0,0,0,0,0,0,0,-1,636,519,0,0
-581,505,0,0,0,0,0,0,0,0,0,-1,643,519,0,0
-574,505,0,0,0,0,0,0,0,0,0,-1,650,519,0,0
-567,505,0,0,0,0,0,0,0,0,0,-1,657,519,0,0
-560,505,0,0,0,0,0,0,0,0,0,-1,664,519,0,0
-553,505,0,0,0,0,0,0,0,0,0,-1,671,519,0,0
-546,505,0,0,0,0,0,0,0,0,0,-1,678,519,0,0
-539,505,0,0,0,0,0,0,0,0,0,-1,685,519,0,0
-532,505,0,0,0,0,0,0,0,0,0,-1,692,519,0,0
-525,505,0,0,0,0,0,0,0,0,0,-1,699,519,0,0
-518,505,0,0,0,0,0,0,0,0,0,-1,706,519,0,0
-511,505,0,0,0,0,0,0,0,0,0,-1,713,519,0,0
-504,505,0,0,0,0,0,0,0,0,0,-1,720,519,0,0
-497,505,0,0,0,0,0,0,0,0,0,-1,727,519,0,0
-490,505,0,0,0,0,0,0,0,0,0,-1,734,519,0,0
-483,505,0,0,0,0,0,0,0,0,0,-1,741,519,0,0
-476,505,0,0,0,0,0,0,0,0,0,-1,748,519,0,0
-469,505,0,0,0,0,0,0,0,0,0,-1,755,519,0,0
-462,505,0,0,0,0,0,0,0,0,0,-1,762,519,0,0
-455,505,0.12384,-4.06439,0,0,0,0,0,0,0,-1,769,519,0.123847,4.06437
-448,505,-8.69983,4.69598,0,0,0,0,0,0,0,-1,776,519,-8.69984,-4.69598
-441,505,-6.83331,2.30151,0,0,0,0,0,0,0,-1,783,519,-6.83334,-2.30154
-434,505,-0.144592,-3.50854,0,0,0,0,0,0,0,-1,790,519,-0.144573,3.50856
-427,505,-1.66138,-4.58167,0,0,0,0,0,0,0,-1,797,519,-1.66135,4.58165
-420,505,-1.37573,-4.68701,0,0,0,0,0,0,0,-1,804,519,-1.37573,4.68702
-413,505,-0.188721,-4.82477,0,0,0,0,0,0,0,-1,811,519,-0.188748,4.82478
-406,505,-0.151672,-5.13721,0,0,0,0,0,0,0,-1,818,519,-0.151661,5.13719
-399,505,-0.167175,-5.41888,0.00300378,0.00409742,-0.00517138,0.00875081,-0.00164961,-0.838072,0.00645439,0.0419495,825,519,-0.167158,5.41888
-392,505,-0.202148,-5.65143,0.00214408,0.00379846,-0.0043562,0.00740531,-0.00146277,-0.879225,0.00548982,0.0210876,832,519,-0.202179,5.65144
-385,505,-0.267212,-5.90967,0.00173085,0.00346677,-0.00355091,0.00625426,-0.00105665,-0.905265,0.00456269,0.00945971,839,519,-0.267225,5.90968
-378,505,-0.302368,-6.14581,0.00159475,0.00262059,-0.00289693,0.00504966,-0.000834315,-0.873019,0.00367624,0.0104534,846,519,-0.302342,6.14584
-371,505,-0.303284,-6.40063,0.00157756,0.00182648,-0.00247854,0.00418368,-0.000779639,-0.810484,0.00308205,0.0125787,853,519,-0.303281,6.40065
-364,505,-0.309143,-6.65576,0.00162909,0.00102816,-0.00212831,0.00347803,-0.000820791,-0.715274,0.00263525,0.0132772,860,519,-0.309123,6.65577
-357,505,-0.282288,-6.86725,0.00175238,0.000287891,-0.00184407,0.00300426,-0.000963992,-0.596404,0.00238988,0.0110984,867,519,-0.282272,6.86728
-350,505,-0.29248,-7.08459,0.0019708,-0.00053608,-0.00166948,0.00280501,-0.00137029,-0.463393,0.00245759,0.0107367,874,519,-0.292504,7.08462
-343,505,-0.309875,-7.33429,0.00223626,-0.00117146,-0.00157277,0.00285119,-0.00178639,-0.372706,0.00270093,0.00903024,881,519,-0.309906,7.33428
-336,505,-0.327332,-7.53888,0.00255043,-0.00169997,-0.00152504,0.00304099,-0.00219054,-0.31122,0.0030337,0.0108914,888,519,-0.327327,7.53891
-329,505,-0.334412,-7.74225,0.00292509,-0.00207163,-0.00148689,0.00333407,-0.00248061,-0.268421,0.00336914,0.0141785,895,519,-0.334417,7.74222
-322,505,-0.334534,-7.99152,0.00345148,-0.00236598,-0.00157011,0.0038482,-0.00276269,-0.247486,0.00383391,0.0151924,902,519,-0.334523,7.99151
-315,505,-0.318604,-8.23364,0.00671312,-0.00191072,-0.00343873,0.0079164,-0.00311401,-0.336605,0.00656652,0.0130202,909,519,-0.318621,8.23364
-308,505,-0.314636,-8.44098,0.00952677,-0.00154872,-0.00493881,0.0114092,-0.00343111,-0.364145,0.00897126,0.0120356,916,519,-0.31466,8.44098
-301,505,-0.279358,-8.67816,0.0135907,-0.00101258,-0.0071635,0.0165179,-0.0039398,-0.387924,0.0125334,0.0179366,923,519,-0.279348,8.67816
-294,505,-0.26825,-8.85724,0,0,0,0,0,0,0,-1,930,519,-0.268265,8.85721
-287,505,-0.314026,-9.08002,0,0,0,0,0,0,0,-1,937,519,-0.314043,9.07999
-280,505,-0.206177,-9.45319,0,0,0,0,0,0,0,-1,944,519,-0.206159,9.45317
-273,505,-0.0680542,-9.44867,0,0,0,0,0,0,0,-1,951,519,-0.0680462,9.44866
-266,505,-0.036377,-9.07922,0,0,0,0,0,0,0,-1,958,519,-0.0364055,9.0792
-259,505,0.10321,-6.69824,0,0,0,0,0,0,0,-1,965,519,0.103235,6.69826
-252,505,6.82312,-15.6972,0,0,0,0,0,0,0,-1,972,519,6.82314,15.6972
-245,505,4.26727,-12.9861,0,0,0,0,0,0,0,-1,979,519,4.2673,12.9861
-238,505,1.67432,-11.2307,0,0,0,0,0,0,0,-1,986,519,1.67429,11.2307
-231,505,-0.958435,-8.3075,0,0,0,0,0,0,0,-1,993,519,-0.958421,8.30751
-224,505,-3.69653,-5.12732,0,0,0,0,0,0,0,-1,1000,519,-3.69653,5.12733
-217,505,-6.34302,-1.65533,0,0,0,0,0,0,0,-1,1007,519,-6.34299,1.65535
-210,505,-3.06128,-0.396301,0,0,0,0,0,0,0,-1,1014,519,-3.06129,0.396294
-203,505,-4.26465,2.03607,0,0,0,0,0,0,0,-1,1021,519,-4.26462,-2.03606
-196,505,-5.47595,4.27295,0,0,0,0,0,0,0,-1,1028,519,-5.47597,-4.27292
-189,505,1.51526,5.56207,0,0,0,0,0,0,0,-1,1035,519,1.51523,-5.56209
-182,505,2.97815,7.5097,0,0,0,0,0,0,0,-1,1042,519,2.97812,-7.5097
-175,505,-2.38416,-2.17548,0,0,0,0,0,0,0,-1,1049,519,-2.38411,2.1755
-168,505,0,0,0,0,0,0,0,0,0,-1,1056,519,0,0
-161,505,0,0,0,0,0,0,0,0,0,-1,1063,519,0,0
-154,505,0,0,0,0,0,0,0,0,0,-1,1070,519,0,0
-147,505,0,0,0,0,0,0,0,0,0,-1,1077,519,0,0
-140,505,0,0,0,0,0,0,0,0,0,-1,1084,519,0,0
-133,505,0,0,0,0,0,0,0,0,0,-1,1091,519,0,0
-126,505,0,0,0,0,0,0,0,0,0,-1,1098,519,0,0
-119,505,0,0,0,0,0,0,0,0,0,-1,1105,519,0,0
-112,505,0,0,0,0,0,0,0,0,0,-1,1112,519,0,0
-105,505,0,0,0,0,0,0,0,0,0,-1,1119,519,0,0
-98,505,0,0,0,0,0,0,0,0,0,-1,1126,519,0,0
-91,505,0,0,0,0,0,0,0,0,0,-1,1133,519,0,0
-84,505,0,0,0,0,0,0,0,0,0,-1,1140,519,0,0
-77,505,0,0,0,0,0,0,0,0,0,-1,1147,519,0,0
-70,505,0,0,0,0,0,0,0,0,0,-1,1154,519,0,0
-63,505,0,0,0,0,0,0,0,0,0,-1,1161,519,0,0
-56,505,0,0,0,0,0,0,0,0,0,-1,1168,519,0,0
-49,505,0,0,0,0,0,0,0,0,0,-1,1175,519,0,0
-42,505,0,0,0,0,0,0,0,0,0,-1,1182,519,0,0
-35,505,0,0,0,0,0,0,0,0,0,-1,1189,519,0,0
-28,505,0,0,0,0,0,0,0,0,0,-1,1196,519,0,0
-21,505,0,0,0,0,0,0,0,0,0,-1,1203,519,0,0
-14,505,0,0,0,0,0,0,0,0,0,-1,1210,519,0,0
-7,505,0,0,0,0,0,0,0,0,0,-1,1217,519,0,0
0,505,0,0,0,0,0,0,0,0,0,-1,1224,519,0,0
7,505,0,0,0,0,0,0,0,0,0,-1,1231,519,0,0
14,505,0,0,0,0,0,0,0,0,0,-1,1238,519,0,0
21,505,0,0,0,0,0,0,0,0,0,-1,1245,519,0,0
28,505,0,0,0,0,0,0,0,0,0,-1,1252,519,0,0
35,505,0,0,0,0,0,0,0,0,0,-1,1259,519,0,0
42,505,0,0,0,0,0,0,0,0,0,-1,1266,519,0,0
49,505,0,0,0,0,0,0,0,0,0,-1,1273,519,0,0
56,505,0,0,0,0,0,0,0,0,0,-1,1280,519,0,0
63,505,0,0,0,0,0,0,0,0,0,-1,1287,519,0,0
70,505,0,0,0,0,0,0,0,0,0,-1,1294,519,0,0
77,505,0,0,0,0,0,0,0,0,0,-1,1301,519,0,0
84,505,0,0,0,0,0,0,0,0,0,-1,1308,519,0,0
91,505,0,0,0,0,0,0,0,0,0,-1,1315,519,0,0
98,505,0,0,0,0,0,0,0,0,0,-1,1322,519,0,0
105,505,0,0,0,0,0,0,0,0,0,-1,1329,519,0,0
112,505,0,0,0,0,0,0,0,0,0,-1,1336,519,0,0
119,505,0,0,0,0,0,0,0,0,0,-1,1343,519,0,0
126,505,0,0,0,0,0,0,0,0,0,-1,1350,519,0,0
133,505,0,0,0,0,0,0,0,0,0,-1,1357,519,0,0
140,505,0,0,0,0,0,0,0,0,0,-1,1364,519,0,0
147,505,0,0,0,0,0,0,0,0,0,-1,1371,519,0,0
154,505,0,0,0,0,0,0,0,0,0,-1,1378,519,0,0
161,505,0,0,0,0,0,0,0,0,0,-1,1385,519,0,0
168,505,0,0,0,0,0,0,0,0,0,-1,1392,519,0,0
175,505,0,0,0,0,0,0,0,0,0,-1,1399,519,0,0
182,505,0,0,0,0,0,0,0,0,0,-1,1406,519,0,0
189,505,0,0,0,0,0,0,0,0,0,-1,1413,519,0,0
196,505,0,0,0,0,0,0,0,0,0,-1,1420,519,0,0
203,505,0,0,0,0,0,0,0,0,0,-1,1427,519,0,0
210,505,0,0,0,0,0,0,0,0,0,-1,1434,519,0,0
217,505,0,0,0,0,0,0,0,0,0,-1,1441,519,0,0
224,505,0,0,0,0,0,0,0,0,0,-1,1448,519,0,0
231,505,0,0,0,0,0,0,0,0,0,-1,1455,519,0,0
238,505,0,0,0,0,0,0,0,0,0,-1,1462,519,0,0
245,505,0,0,0,0,0,0,0,0,0,-1,1469,519,0,0
252,505,0,0,0,0,0,0,0,0,0,-1,1476,519,0,0
259,505,0,0,0,0,0,0,0,0,0,-1,1483,519,0,0
266,505,0,0,0,0,0,0,0,0,0,-1,1490,519,0,0
273,505,0,0,0,0,0,0,0,0,0,-1,1497,519,0,0
280,505,0,0,0,0,0,0,0,0,0,-1,1504,519,0,0
287,505,4.39478,0.499512,0,0,0,0,0,0,0,-1,1511,519,4.39476,-0.499506
294,505,4.88867,0.0822754,0,0,0,0,0,0,0,-1,1518,519,4.88871,-0.0822748
301,505,4.82153,-0.0704346,0,0,0,0,0,0,0,-1,1525,519,4.82156,0.0704312
308,505,4.67761,-0.29187,0,0,0,0,0,0,0,-1,1532,519,4.67762,0.291845
315,505,8.44055,-6.54352,0,0,0,0,0,0,0,-1,1539,519,8.44059,6.54349
322,505,4.78955,-0.594116,0,0,0,0,0,0,0,-1,1546,519,4.78957,0.594096
329,505,5.16321,0.434631,0,0,0,0,0,0,0,-1,1553,519,5.16316,-0.434614
336,505,4.94495,-0.920471,0,0,0,0,0,0,0,-1,1560,519,4.945,0.920495
343,505,5.01855,-1.4823,0,0,0,0,0,0,0,-1,1567,519,5.01851,1.48227
350,505,5.33154,-1.77838,0,0,0,0,0,0,0,-1,1574,519,5.33152,1.77838
357,505,5.56567,-1.9425,0,0,0,0,0,0,0,-1,1581,519,5.56562,1.94248
364,505,5.85205,-2.6579,0,0,0,0,0,0,0,-1,1588,519,5.85211,2.65788
371,505,5.88477,-7.00922,0,0,0,0,0,0,0,-1,1595,519,5.88473,7.00924
378,505,5.44104,-7.10162,0,0,0,0,0,0,0,-1,1602,519,5.44099,7.10162
385,505,5.71021,-6.69141,0,0,0,0,0,0,0,-1,1609,519,5.71018,6.69143
392,505,6.14124,-7.40881,0,0,0,0,0,0,0,-1,1616,519,6.14127,7.40883
399,505,6.16199,-7.32916,0,0,0,0,0,0,0,-1,1623,519,6.16194,7.32914
406,505,6.87695,-7.82245,0,0,0,0,0,0,0,-1,1630,519,6.87701,7.82245
413,505,5.91345,-7.99939,0,0,0,0,0,0,0,-1,1637,519,5.9135,7.99942
420,505,6.09741,-7.67181,-0.00329823,-0.00775363,-0.00645997,0.00130736,-0.0123592,-0.61936,0.00870804,0.0355657,1644,519,6.09743,7.6718
427,505,6.07666,-7.409,-0.00243892,-0.00534358,-0.00487919,0.0011995,-0.00898201,-0.640745,0.00642527,0.0135997,1651,519,6.07668,7.40899
434,505,6.07935,-7.18073,-0.00173382,-0.00340657,-0.00357022,0.00109668,-0.00623707,-0.67034,0.0045677,0.00953717,1658,519,6.07939,7.18074
441,505,6.07104,-6.93073,-0.00108008,-0.00203551,-0.00250168,0.000989087,-0.00410468,-0.691056,0.00311887,0.00973375,1665,519,6.07107,6.93071
448,505,6.06396,-6.68884,-0.000373095,-0.000750012,-0.00154879,0.000998661,-0.00212177,-0.724855,0.00184007,0.00953996,1672,519,6.06399,6.68883
455,505,6.06323,-6.44904,5.44153e-05,-2.30527e-05,-0.00083877,0.000855345,-0.000823982,-0.762325,0.000969616,0.0104994,1679,519,6.06321,6.44903
462,505,6.06018,-6.19464,0.000411905,0.000110657,-0.000326881,0.000621195,-9.86338e-05,-0.569502,0.000450621,0.0112183,1686,519,6.06015,6.19467
469,505,6.0752,-5.9577,0.000762424,-8.03483e-05,-0.00017744,0.000798259,-0.000116183,-0.199276,0.000574827,0.0114507,1693,519,6.07523,5.95773
476,505,6.05029,-5.716,0.000924263,-0.000354558,-0.000148044,0.000941177,-0.000371472,-0.113761,0.000781289,0.0118174,1700,519,6.05032,5.71599
483,505,6.04919,-5.48462,0.00095894,-0.000670126,-0.000227254,0.000990048,-0.000701234,-0.13604,0.000981196,0.0123403,1707,519,6.04926,5.48465
490,505,6.06641,-5.22803,0.000871725,-0.00116066,-0.000464689,0.000972933,-0.00126187,-0.214447,0.00129385,0.01106,1714,519,6.06642,5.22805
497,505,6.08752,-4.95624,0.000770641,-0.00164146,-0.000708191,0.000963194,-0.00183401,-0.265477,0.00164085,0.0107314,1721,519,6.08758,4.95621
504,505,6.06189,-4.68762,0.0010145,-0.0015097,-0.000642327,0.00116855,-0.00166375,-0.235384,0.00164354,0.0122334,1728,519,6.06193,4.68762
511,505,6.04651,-4.42896,0.00157432,-0.00115929,-0.000178122,0.00158587,-0.00117085,-0.0647949,0.0015976,0.014169,1735,519,6.04649,4.42894
518,505,6.14624,-4.2146,0.00202688,-0.00057097,0.000258755,0.0020524,-0.000596492,0.0983166,0.00160449,0.0250397,1742,519,6.14626,4.21461
525,505,5.91528,-4.03943,0.00281873,0.000606484,0.00109878,0.00327171,0.000153497,0.391034,0.00213182,0.0376922,1749,519,5.9153,4.0394
532,505,5.79846,-3.70929,0.00424528,0.00273793,0.0026943,0.00628933,0.000693875,0.64902,0.0039818,0.0454387,1756,519,5.7984,3.70927
539,505,5.80481,-3.43677,0,0,0,0,0,0,0,-1,1763,519,5.80478,3.43675
546,505,4.69727,-1.47705,0,0,0,0,0,0,0,-1,1770,519,4.69723,1.47703
553,505,2.82837,0.162659,0,0,0,0,0,0,0,-1,1777,519,2.82841,-0.162672
560,505,3.66223,-0.479797,0,0,0,0,0,0,0,-1,1784,519,3.66219,0.47982
567,505,4.65271,-0.950256,0,0,0,0,0,0,0,-1,1791,519,4.65274,0.95028
574,505,5.54443,-1.19977,0,0,0,0,0,0,0,-1,1798,519,5.54443,1.19974
581,505,0,0,0,0,0,0,0,0,0,-1,1805,519,0,0
588,505,0,0,0,0,0,0,0,0,0,-1,1812,519,0,0
595,505,0,0,0,0,0,0,0,0,0,-1,1819,519,0,0
602,505,0,0,0,0,0,0,0,0,0,-1,1826,519,0,0
609,505,0,0,0,0,0,0,0,0,0,-1,1833,519,0,0
616,505,0,0,0,0,0,0,0,0,0,-1,1840,519,0,0
623,505,0,0,0,0,0,0,0,0,0,-1,1847,519,0,0
630,505,0,0,0,0,0,0,0,0,0,-1,1854,519,0,0
637,505,0,0,0,0,0,0,0,0,0,-1,1861,519,0,0
644,505,0,0,0,0,0,0,0,0,0,-1,1868,519,0,0
651,505,0,0,0,0,0,0,0,0,0,-1,1875,519,0,0
658,505,0,0,0,0,0,0,0,0,0,-1,1882,519,0,0
665,505,0,0,0,0,0,0,0,0,0,-1,1889,519,0,0
672,505,0,0,0,0,0,0,0,0,0,-1,1896,519,0,0
679,505,0,0,0,0,0,0,0,0,0,-1,1903,519,0,0
686,505,0,0,0,0,0,0,0,0,0,-1,1910,519,0,0
693,505,0,0,0,0,0,0,0,0,0,-1,1917,519,0,0
700,505,0,0,0,0,0,0,0,0,0,-1,1924,519,0,0
707,505,0,0,0,0,0,0,0,0,0,-1,1931,519,0,0
714,505,0,0,0,0,0,0,0,0,0,-1,1938,519,0,0
721,505,0,0,0,0,0,0,0,0,0,-1,1945,519,0,0
728,505,0,0,0,0,0,0,0,0,0,-1,1952,519,0,0
735,505,0,0,0,0,0,0,0,0,0,-1,1959,519,0,0
742,505,0,0,0,0,0,0,0,0,0,-1,1966,519,0,0
749,505,0,0,0,0,0,0,0,0,0,-1,1973,519,0,0
756,505,0,0,0,0,0,0,0,0,0,-1,1980,519,0,0
763,505,0,0,0,0,0,0,0,0,0,-1,1987,519,0,0
770,505,0,0,0,0,0,0,0,0,0,-1,1994,519,0,0
777,505,0,0,0,0,0,0,0,0,0,-1,2001,519,0,0
784,505,0,0,0,0,0,0,0,0,0,-1,2008,519,0,0
791,505,0,0,0,0,0,0,0,0,0,-1,2015,519,0,0
798,505,0,0,0,0,0,0,0,0,0,-1,2022,519,0,0
805,505,0,0,0,0,0,0,0,0,0,-1,2029,519,0,0
812,505,0,0,0,0,0,0,0,0,0,-1,2036,519,0,0
-700,498,0,0,0,0,0,0,0,0,0,-1,524,526,0,0
-693,498,0,0,0,0,0,0,0,0,0,-1,531,526,0,0
-686,498,0,0,0,0,0,0,0,0,0,-1,538,526,0,0
-679,498,0,0,0,0,0,0,0,0,0,-1,545,526,0,0
-672,498,0,0,0,0,0,0,0,0,0,-1,552,526,0,0
-665,498,0,0,0,0,0,0,0,0,0,-1,559,526,0,0
-658,498,0,0,0,0,0,0,0,0,0,-1,566,526,0,0
-651,498,0,0,0,0,0,0,0,0,0,-1,573,526,0,0
-644,498,0,0,0,0,0,0,0,0,0,-1,580,526,0,0
-637,498,0,0,0,0,0,0,0,0,0,-1,587,526,0,0
-630,498,0,0,0,0,0,0,0,0,0,-1,594,526,0,0
-623,498,0,0,0,0,0,0,0,0,0,-1,601,526,0,0
-616,498,0,0,0,0,0,0,0,0,0,-1,608,526,0,0
-609,498,0,0,0,0,0,0,0,0,0,-1,615,526,0,0
-602,498,0,0,0,0,0,0,0,0,0,-1,622,526,0,0
-595,498,0,0,0,0,0,0,0,0,0,-1,629,526,0,0
-588,498,0,0,0,0,0,0,0,0,0,-1,636,526,0,0
-581,498,0,0,0,0,0,0,0,0,0,-1,643,526,0,0
-574,498,0,0,0,0,0,0,0,0,0,-1,650,526,0,0
-567,498,0,0,0,0,0,0,0,0,0,-1,657,526,0,0
-560,498,0,0,0,0,0,0,0,0,0,-1,664,526,0,0
-553,498,0,0,0,0,0,0,0,0,0,-1,671,526,0,0
-546,498,0,0,0,0,0,0,0,0,0,-1,678,526,0,0
-539,498,0,0,0,0,0,0,0,0,0,-1,685,526,0,0
-532,498,0,0,0,0,0,0,0,0,0,-1,692,526,0,0
-525,498,0,0,0,0,0,0,0,0,0,-1,699,526,0,0
-518,498,0,0,0,0,0,0,0,0,0,-1,706,526,0,0
-511,498,0,0,0,0,0,0,0,0,0,-1,713,526,0,0
-504,498,0,0,0,0,0,0,0,0,0,-1,720,526,0,0
-497,498,0,0,0,0,0,0,0,0,0,-1,727,526,0,0
-490,498,0,0,0,0,0,0,0,0,0,-1,734,526,0,0
-483,498,0,0,0,0,0,0,0,0,0,-1,741,526,0,0
-476,498,0,0,0,0,0,0,0,0,0,-1,748,526,0,0
-469,498,0,0,0,0,0,0,0,0,0,-1,755,526,0,0
-462,498,-0.642761,-3.18683,0,0,0,0,0,0,0,-1,762,526,-0.642769,3.18684
-455,498,-9.23761,5.4342,0,0,0,0,0,0,0,-1,769,526,-9.23759,-5.4342
-448,498,-7.53302,3.61194,0,0,0,0,0,0,0,-1,776,526,-7.533,-3.61193
-441,498,-5.77063,1.55023,0,0,0,0,0,0,0,-1,783,526,-5.77061,-1.55021
-434,498,-3.99854,-0.286499,0,0,0,0,0,0,0,-1,790,526,-3.99855,0.286512
-427,498,-0.936523,-4.0929,0,0,0,0,0,0,0,-1,797,526,-0.936499,4.09287
-420,498,-1.62524,-4.38037,0,0,0,0,0,0,0,-1,804,526,-1.62527,4.38039
-413,498,-0.428284,-4.77856,0,0,0,0,0,0,0,-1,811,526,-0.428257,4.77853
-406,498,-0.433167,-5.08026,0.00285055,0.00360732,-0.00466501,0.00790926,-0.00145139,-0.825865,0.00581731,0.0432106,818,526,-0.43319,5.08023
-399,498,-0.462708,-5.38049,0.00190391,0.00323187,-0.0039254,0.00654905,-0.00141327,-0.86918,0.00490546,0.0241489,825,526,-0.462697,5.38047
-392,498,-0.487305,-5.67322,0.00127214,0.00293207,-0.00323463,0.00544151,-0.0012373,-0.910983,0.00410278,0.0120101,832,526,-0.487313,5.67319
-385,498,-0.507385,-5.91321,0.00114934,0.00253428,-0.00260793,0.00454011,-0.000856491,-0.915166,0.00334894,0.00850071,839,526,-0.507364,5.91323
-378,498,-0.527893,-6.13763,0.00127157,0.00171119,-0.00208739,0.00359031,-0.000607552,-0.837857,0.00261965,0.00953506,846,526,-0.527897,6.13763
-371,498,-0.521179,-6.38098,0.00153043,0.000913606,-0.00182217,0.00307011,-0.000626068,-0.701565,0.00228421,0.0143713,853,526,-0.521193,6.38101
-364,498,-0.5224,-6.6438,0.00186421,2.59774e-05,-0.00159026,0.00278186,-0.000891673,-0.523368,0.00221252,0.014691,860,526,-0.522406,6.64381
-357,498,-0.528015,-6.85657,0.00228134,-0.00083124,-0.00144556,0.00284912,-0.00139902,-0.374263,0.00249984,0.0106388,867,526,-0.528035,6.85659
-350,498,-0.535767,-7.08246,0.00277301,-0.00180911,-0.00139829,0.00316601,-0.00220211,-0.273989,0.0031159,0.0105306,874,526,-0.535784,7.08245
-343,498,-0.53064,-7.3288,0.00329634,-0.00265378,-0.00143363,0.00362375,-0.00298119,-0.224524,0.00381937,0.0109185,881,526,-0.530637,7.32881
-336,498,-0.530151,-7.5462,0.00384347,-0.00341573,-0.00152835,0.00415212,-0.00372438,-0.199272,0.00454974,0.0142768,888,526,-0.530138,7.54622
-329,498,-0.554565,-7.73895,0.00450757,-0.00393955,-0.00171878,0.00484391,-0.00427589,-0.193242,0.00526872,0.0190985,895,526,-0.554559,7.73895
-322,498,-0.565552,-7.97705,0.00531283,-0.00442437,-0.00198346,0.00570135,-0.0048129,-0.193434,0.00607763,0.0178236,902,526,-0.565542,7.97705
-315,498,-0.541626,-8.22021,0.011095,-0.00363708,-0.00555118,0.0129525,-0.00549461,-0.322907,0.0109367,0.0152874,909,526,-0.541602,8.22021
-308,498,-0.528198,-8.44379,0.0160841,-0.00304916,-0.00852389,0.0193306,-0.00629569,-0.363911,0.0154202,0.0190136,916,526,-0.528212,8.44377
-301,498,-0.501831,-8.72888,0,0,0,0,0,0,0,-1,923,526,-0.501852,8.72887
-294,498,-0.442749,-8.26361,0,0,0,0,0,0,0,-1,930,526,-0.442763,8.2636
-287,498,-0.220825,-8.51526,0,0,0,0,0,0,0,-1,937,526,-0.220826,8.51525
-280,498,-0.341614,-8.66608,0,0,0,0,0,0,0,-1,944,526,-0.341589,8.66606
-273,498,-0.988892,-8.62921,0,0,0,0,0,0,0,-1,951,526,-0.988906,8.62922
-266,498,0.362488,-6.33545,0,0,0,0,0,0,0,-1,958,526,0.362478,6.33547
-259,498,10.9454,-17.3615,0,0,0,0,0,0,0,-1,965,526,10.9454,17.3614
-252,498,8.56586,-14.6886,0,0,0,0,0,0,0,-1,972,526,8.56584,14.6886
-245,498,5.97382,-11.928,0,0,0,0,0,0,0,-1,979,526,5.97381,11.928
-238,498,3.31403,-9.40442,0,0,0,0,0,0,0,-1,986,526,3.31405,9.40443
-231,498,0.675598,-6.60547,0,0,0,0,0,0,0,-1,993,526,0.675587,6.60545
-224,498,-2.11243,-4.76312,0,0,0,0,0,0,0,-1,1000,526,-2.11245,4.76314
-217,498,-3.82239,-1.42841,0,0,0,0,0,0,0,-1,1007,526,-3.82241,1.42843
-210,498,-1.80591,-0.358215,0,0,0,0,0,0,0,-1,1014,526,-1.8059,0.3582
-203,498,-3.17316,1.06641,0,0,0,0,0,0,0,-1,1021,526,-3.17313,-1.0664
-196,498,-0.103271,5.40527,0,0,0,0,0,0,0,-1,1028,526,-0.103285,-5.40528
-189,498,3.00256,6.47137,0,0,0,0,0,0,0,-1,1035,526,3.00256,-6.47139
-182,498,0,0,0,0,0,0,0,0,0,-1,1042,526,0,0
-175,498,0,0,0,0,0,0,0,0,0,-1,1049,526,0,0
-168,498,0,0,0,0,0,0,0,0,0,-1,1056,526,0,0
-161,498,0,0,0,0,0,0,0,0,0,-1,1063,526,0,0
-154,498,0,0,0,0,0,0,0,0,0,-1,1070,526,0,0
-147,498,0,0,0,0,0,0,0,0,0,-1,1077,526,0,0
-140,498,0,0,0,0,0,0,0,0,0,-1,1084,526,0,0
-133,498,0,0,0,0,0,0,0,0,0,-1,1091,526,0,0
-126,498,0,0,0,0,0,0,0,0,0,-1,1098,526,0,0
-119,498,0,0,0,0,0,0,0,0,0,-1,1105,526,0,0
-112,498,0,0,0,0,0,0,0,0,0,-1,1112,526,0,0
-105,498,0,0,0,0,0,0,0,0,0,-1,1119,526,0,0
-98,498,0,0,0,0,0,0,0,0,0,-1,1126,526,0,0
-91,498,0,0,0,0,0,0,0,0,0,-1,1133,526,0,0
-84,498,0,0,0,0,0,0,0,0,0,-1,1140,526,0,0
-77,498,0,0,0,0,0,0,0,0,0,-1,1147,526,0,0
-70,498,0,0,0,0,0,0,0,0,0,-1,1154,526,0,0
-63,498,0,0,0,0,0,0,0,0,0,-1,1161,526,0,0
-56,498,0,0,0,0,0,0,0,0,0,-1,1168,526,0,0
-49,498,0,0,0,0,0,0,0,0,0,-1,1175,526,0,0
-42,498,0,0,0,0,0,0,0,0,0,-1,1182,526,0,0
-35,498,0,0,0,0,0,0,0,0,0,-1,1189,526,0,0
-28,498,0,0,0,0,0,0,0,0,0,-1,1196,526,0,0
-21,498,0,0,0,0,0,0,0,0,0,-1,1203,526,0,0
-14,498,0,0,0,0,0,0,0,0,0,-1,1210,526,0,0
-7,498,0,0,0,0,0,0,0,0,0,-1,1217,526,0,0
0,498,0,0,0,0,0,0,0,0,0,-1,1224,526,0,0
7,498,0,0,0,0,0,0,0,0,0,-1,1231,526,0,0
14,498,0,0,0,0,0,0,0,0,0,-1,1238,526,0,0
21,498,0,0,0,0,0,0,0,0,0,-1,1245,526,0,0
28,498,0,0,0,0,0,0,0,0,0,-1,1252,526,0,0
35,498,0,0,0,0,0,0,0,0,0,-1,1259,526,0,0
42,498,0,0,0,0,0,0,0,0,0,-1,1266,526,0,0
49,498,0,0,0,0,0,0,0,0,0,-1,1273,526,0,0
56,498,0,0,0,0,0,0,0,0,0,-1,1280,526,0,0
63,498,0,0,0,0,0,0,0,0,0,-1,1287,526,0,0
70,498,0,0,0,0,0,0,0,0,0,-1,1294,526,0,0
77,498,0,0,0,0,0,0,0,0,0,-1,1301,526,0,0
84,498,0,0,0,0,0,0,0,0,0,-1,1308,526,0,0
91,498,0,0,0,0,0,0,0,0,0,-1,1315,526,0,0
98,498,0,0,0,0,0,0,0,0,0,-1,1322,526,0,0
105,498,0,0,0,0,0,0,0,0,0,-1,1329,526,0,0
112,498,0,0,0,0,0,0,0,0,0,-1,1336,526,0,0
119,498,0,0,0,0,0,0,0,0,0,-1,1343,526,0,0
126,498,0,0,0,0,0,0,0,0,0,-1,1350,526,0,0
133,498,0,0,0,0,0,0,0,0,0,-1,1357,526,0,0
140,498,0,0,0,0,0,0,0,0,0,-1,1364,526,0,0
147,498,0,0,0,0,0,0,0,0,0,-1,1371,526,0,0
154,498,0,0,0,0,0,0,0,0,0,-1,1378,526,0,0
161,498,0,0,0,0,0,0,0,0,0,-1,1385,526,0,0
168,498,0,0,0,0,0,0,0,0,0,-1,1392,526,0,0
175,498,0,0,0,0,0,0,0,0,0,-1,1399,526,0,0
182,498,0,0,0,0,0,0,0,0,0,-1,1406,526,0,0
189,498,0,0,0,0,0,0,0,0,0,-1,1413,526,0,0
196,498,0,0,0,0,0,0,0,0,0,-1,1420,526,0,0
203,498,0,0,0,0,0,0,0,0,0,-1,1427,526,0,0
210,498,0,0,0,0,0,0,0,0,0,-1,1434,526,0,0
217,498,0,0,0,0,0,0,0,0,0,-1,1441,526,0,0
224,498,0,0,0,0,0,0,0,0,0,-1,1448,526,0,0
231,498,0,0,0,0,0,0,0,0,0,-1,1455,526,0,0
238,498,0,0,0,0,0,0,0,0,0,-1,1462,526,0,0
245,498,0,0,0,0,0,0,0,0,0,-1,1469,526,0,0
252,498,0,0,0,0,0,0,0,0,0,-1,1476,526,0,0
259,498,0,0,0,0,0,0,0,0,0,-1,1483,526,0,0
266,498,0,0,0,0,0,0,0,0,0,-1,1490,526,0,0
273,498,0,0,0,0,0,0,0,0,0,-1,1497,526,0,0
280,498,0,0,0,0,0,0,0,0,0,-1,1504,526,0,0
287,498,0,0,0,0,0,0,0,0,0,-1,1511,526,0,0
294,498,0,0,0,0,0,0,0,0,0,-1,1518,526,0,0
301,498,0,0,0,0,0,0,0,0,0,-1,1525,526,0,0
308,498,4.77942,-0.293884,0,0,0,0,0,0,0,-1,1532,526,4.77939,0.293899
315,498,4.56091,-0.564148,0,0,0,0,0,0,0,-1,1539,526,4.56097,0.564142
322,498,4.52344,-0.447266,0,0,0,0,0,0,0,-1,1546,526,4.52341,0.447295
329,498,4.63232,-0.156982,0,0,0,0,0,0,0,-1,1553,526,4.63238,0.156991
336,498,5.22644,0.0925903,0,0,0,0,0,0,0,-1,1560,526,5.22648,-0.0926188
343,498,6.22607,-1.67615,0,0,0,0,0,0,0,-1,1567,526,6.22605,1.67617
350,498,6.19373,-1.59906,0,0,0,0,0,0,0,-1,1574,526,6.19367,1.59906
357,498,6.21472,-1.58929,0,0,0,0,0,0,0,-1,1581,526,6.21476,1.58927
364,498,5.73547,-1.2019,0,0,0,0,0,0,0,-1,1588,526,5.73547,1.20192
371,498,3.27087,-4.55334,0,0,0,0,0,0,0,-1,1595,526,3.27089,4.55332
378,498,8.42944,-4.70624,0,0,0,0,0,0,0,-1,1602,526,8.42942,4.70624
385,498,4.7793,-5.15314,0,0,0,0,0,0,0,-1,1609,526,4.77935,5.15311
392,498,10.2383,-8.63074,0,0,0,0,0,0,0,-1,1616,526,10.2383,8.63074
399,498,9.27588,-8.1925,0,0,0,0,0,0,0,-1,1623,526,9.27592,8.19253
406,498,8.0697,-7.7074,0,0,0,0,0,0,0,-1,1630,526,8.06974,7.70741
413,498,6.72974,-7.18671,0,0,0,0,0,0,0,-1,1637,526,6.72975,7.18672
420,498,6.41003,-7.55627,0,0,0,0,0,0,0,-1,1644,526,6.41003,7.5563
427,498,6.3999,-7.367,-0.00325969,-0.00651315,-0.00612802,0.00145384,-0.0112267,-0.655661,0.00801315,0.0395991,1651,526,6.39985,7.36699
434,498,6.37732,-7.16309,-0.00225588,-0.00396866,-0.00439791,0.00136825,-0.00759279,-0.689238,0.0055742,0.0184059,1658,526,6.37731,7.16307
441,498,6.32446,-6.91901,-0.00139357,-0.00220783,-0.00305642,0.00128272,-0.00488412,-0.719185,0.00375736,0.00995963,1665,526,6.32445,6.91898
448,498,6.32935,-6.68933,-0.000507112,-0.000625655,-0.00190147,0.00133601,-0.00246878,-0.769818,0.00222891,0.00917453,1672,526,6.32939,6.68931
455,498,6.31104,-6.44879,5.42143e-05,0.000265473,-0.00102491,0.00119018,-0.000870495,-0.836748,0.0011945,0.0130398,1679,526,6.31099,6.44881
462,498,6.31104,-6.20264,0.000454547,0.000484378,-0.000373415,0.000843175,9.57504e-05,-0.80536,0.000533074,0.0155078,1686,526,6.31103,6.20261
469,498,6.31189,-5.95844,0.000792103,0.000401278,-0.000148111,0.00084189,0.00035149,-0.324282,0.000488266,0.0134456,1693,526,6.31188,5.95843
476,498,6.31311,-5.70984,0.000965078,0.000202801,-4.96046e-05,0.000968293,0.000199586,-0.0647105,0.000590355,0.00967751,1700,526,6.31307,5.70981
483,498,6.3136,-5.46167,0.00100332,-4.97681e-05,-5.6645e-05,0.00100636,-5.28063e-05,-0.0535835,0.00068918,0.00787661,1707,526,6.31364,5.46166
490,498,6.31189,-5.22845,0.00092426,-0.000446978,-0.000198894,0.000952526,-0.000475244,-0.141172,0.000839536,0.00988351,1714,526,6.31192,5.22844
497,498,6.3269,-4.9751,0.00078051,-0.000878966,-0.000396542,0.000870397,-0.000968853,-0.222911,0.0010624,0.0112782,1721,526,6.3269,4.97511
504,498,6.3092,-4.71405,0.000921897,-0.000723097,-0.000324369,0.000983547,-0.000784747,-0.187822,0.00102307,0.0138609,1728,526,6.30915,4.71402
511,498,6.29602,-4.44641,0.00135585,-0.000350448,0.000144336,0.00136798,-0.000362571,0.0837965,0.00105384,0.0154138,1735,526,6.29604,4.44642
518,498,6.36084,-4.1662,0.00166608,0.000203777,0.000571386,0.00186287,6.9933e-06,0.331675,0.00123959,0.0170169,1742,526,6.3609,4.16621
525,498,6.29626,-3.92871,0.00227704,0.00128632,0.00133472,0.00320536,0.000358006,0.60771,0.00202813,0.0295075,1749,526,6.29631,3.92874
532,498,6.146,-3.7583,0.00343471,0.00317607,0.00273513,0.00604357,0.000567209,0.761775,0.00385392,0.0418325,1756,526,6.14605,3.75832
539,498,5.99683,-3.51062,0.00536897,0.00633422,0.0050227,0.0108974,0.000805763,0.833296,0.00701182,0.0484976,1763,526,5.99681,3.51062
546,498,6.24463,-2.8064,0,0,0,0,0,0,0,-1,1770,526,6.24463,2.80641
553,498,6.54492,-1.69403,0,0,0,0,0,0,0,-1,1777,526,6.54489,1.69402
560,498,3.69385,-0.615112,0,0,0,0,0,0,0,-1,1784,526,3.69381,0.615118
567,498,5.12695,-0.581604,0,0,0,0,0,0,0,-1,1791,526,5.12699,0.58159
574,498,3.88,0.0286255,0,0,0,0,0,0,0,-1,1798,526,3.87999,-0.0286535
581,498,10.8722,2.58551,0,0,0,0,0,0,0,-1,1805,526,10.8723,-2.58551
588,498,0,0,0,0,0,0,0,0,0,-1,1812,526,0,0
595,498,0,0,0,0,0,0,0,0,0,-1,1819,526,0,0
602,498,0,0,0,0,0,0,0,0,0,-1,1826,526,0,0
609,498,0,0,0,0,0,0,0,0,0,-1,1833,526,0,0
616,498,0,0,0,0,0,0,0,0,0,-1,1840,526,0,0
623,498,0,0,0,0,0,0,0,0,0,-1,1847,526,0,0
630,498,0,0,0,0,0,0,0,0,0,-1,1854,526,0,0
637,498,0,0,0,0,0,0,0,0,0,-1,1861,526,0,0
644,498,0,0,0,0,0,0,0,0,0,-1,1868,526,0,0
651,498,0,0,0,0,0,0,0,0,0,-1,1875,526,0,0
658,498,0,0,0,0,0,0,0,0,0,-1,1882,526,0,0
665,498,0,0,0,0,0,0,0,0,0,-1,1889,526,0,0
672,498,0,0,0,0,0,0,0,0,0,-1,1896,526,0,0
679,498,0,0,0,0,0,0,0,0,0,-1,1903,526,0,0
686,498,0,0,0,0,0,0,0,0,0,-1,1910,526,0,0
693,498,0,0,0,0,0,0,0,0,0,-1,1917,526,0,0
700,498,0,0,0,0,0,0,0,0,0,-1,1924,526,0,0
707,498,0,0,0,0,0,0,0,0,0,-1,1931,526,0,0
714,498,0,0,0,0,0,0,0,0,0,-1,1938,526,0,0
721,498,0,0,0,0,0,0,0,0,0,-1,1945,526,0,0
728,498,0,0,0,0,0,0,0,0,0,-1,1952,526,0,0
735,498,0,0,0,0,0,0,0,0,0,-1,1959,526,0,0
742,498,0,0,0,0,0,0,0,0,0,-1,1966,526,0,0
749,498,0,0,0,0,0,0,0,0,0,-1,1973,526,0,0
756,498,0,0,0,0,0,0,0,0,0,-1,1980,526,0,0
763,498,0,0,0,0,0,0,0,0,0,-1,1987,526,0,0
770,498,0,0,0,0,0,0,0,0,0,-1,1994,526,0,0
777,498,0,0,0,0,0,0,0,0,0,-1,2001,526,0,0
784,498,0,0,0,0,0,0,0,0,0,-1,2008,526,0,0
791,498,0,0,0,0,0,0,0,0,0,-1,2015,526,0,0
798,498,0,0,0,0,0,0,0,0,0,-1,2022,526,0,0
805,498,0,0,0,0,0,0,0,0,0,-1,2029,526,0,0
812,498,0,0,0,0,0,0,0,0,0,-1,2036,526,0,0
-700,491,0,0,0,0,0,0,0,0,0,-1,524,533,0,0
-693,491,0,0,0,0,0,0,0,0,0,-1,531,533,0,0
-686,491,0,0,0,0,0,0,0,0,0,-1,538,533,0,0
-679,491,0,0,0,0,0,0,0,0,0,-1,545,533,0,0
-672,491,0,0,0,0,0,0,0,0,0,-1,552,533,0,0
-665,491,0,0,0,0,0,0,0,0,0,-1,559,533,0,0
-658,491,0,0,0,0,0,0,0,0,0,-1,566,533,0,0
-651,491,0,0,0,0,0,0,0,0,0,-1,573,533,0,0
-644,491,0,0,0,0,0,0,0,0,0,-1,580,533,0,0
-637,491,0,0,0,0,0,0,0,0,0,-1,587,533,0,0
-630,491,0,0,0,0,0,0,0,0,0,-1,594,533,0,0
-623,491,0,0,0,0,0,0,0,0,0,-1,601,533,0,0
-616,491,0,0,0,0,0,0,0,0,0,-1,608,533,0,0
-609,491,0,0,0,0,0,0,0,0,0,-1,615,533,0,0
-602,491,0,0,0,0,0,0,0,0,0,-1,622,533,0,0
-595,491,0,0,0,0,0,0,0,0,0,-1,629,533,0,0
-588,491,0,0,0,0,0,0,0,0,0,-1,636,533,0,0
-581,491,0,0,0,0,0,0,0,0,0,-1,643,533,0,0
-574,491,0,0,0,0,0,0,0,0,0,-1,650,533,0,0
-567,491,0,0,0,0,0,0,0,0,0,-1,657,533,0,0
-560,491,0,0,0,0,0,0,0,0,0,-1,664,533,0,0
-553,491,0,0,0,0,0,0,0,0,0,-1,671,533,0,0
-546,491,0,0,0,0,0,0,0,0,0,-1,678,533,0,0
-539,491,0,0,0,0,0,0,0,0,0,-1,685,533,0,0
-532,491,0,0,0,0,0,0,0,0,0,-1,692,533,0,0
-525,491,0,0,0,0,0,0,0,0,0,-1,699,533,0,0
-518,491,0,0,0,0,0,0,0,0,0,-1,706,533,0,0
-511,491,0,0,0,0,0,0,0,0,0,-1,713,533,0,0
-504,491,0,0,0,0,0,0,0,0,0,-1,720,533,0,0
-497,491,0,0,0,0,0,0,0,0,0,-1,727,533,0,0
-490,491,0,0,0,0,0,0,0,0,0,-1,734,533,0,0
-483,491,0,0,0,0,0,0,0,0,0,-1,741,533,0,0
-476,491,0,0,0,0,0,0,0,0,0,-1,748,533,0,0
-469,491,-5.85913,4.55011,0,0,0,0,0,0,0,-1,755,533,-5.8591,-4.55009
-462,491,-9.93713,4.90381,0,0,0,0,0,0,0,-1,762,533,-9.93716,-4.9038
-455,491,-8.03961,3.86096,0,0,0,0,0,0,0,-1,769,533,-8.03964,-3.86097
-448,491,-6.47961,2.47772,0,0,0,0,0,0,0,-1,776,533,-6.47959,-2.47774
-441,491,-4.97974,0.87384,0,0,0,0,0,0,0,-1,783,533,-4.97975,-0.87385
-434,491,-3.24835,-0.961914,0,0,0,0,0,0,0,-1,790,533,-3.24835,0.961933
-427,491,-1.14362,-3.10339,0,0,0,0,0,0,0,-1,797,533,-1.14363,3.10339
-420,491,-0.844604,-4.72693,0,0,0,0,0,0,0,-1,804,533,-0.844617,4.72696
-413,491,-0.772949,-5.013,0.00319378,0.00339004,-0.00443184,0.00772483,-0.00114101,-0.796467,0.00556932,0.0402806,811,533,-0.772939,5.01299
-406,491,-0.736877,-5.24261,0.00226816,0.00275476,-0.00358045,0.00610017,-0.00107725,-0.819322,0.00446935,0.0219326,818,533,-0.736879,5.24262
-399,491,-0.743774,-5.43988,0.00148693,0.00243604,-0.00293213,0.00493177,-0.0010088,-0.865626,0.00367061,0.0110602,825,533,-0.743765,5.4399
-392,491,-0.756165,-5.68042,0.00101152,0.00204036,-0.0023225,0.00390473,-0.000852849,-0.894385,0.00292912,0.00930524,832,533,-0.756176,5.68045
-385,491,-0.74707,-5.91187,0.00107291,0.00149225,-0.00184016,0.00313465,-0.000569482,-0.842124,0.00230318,0.00859285,839,533,-0.747093,5.91185
-378,491,-0.754211,-6.13031,0.00135772,0.000629906,-0.0014225,0.00246212,-0.000474494,-0.660172,0.00182031,0.0121082,846,533,-0.754237,6.13028
-371,491,-0.75708,-6.37195,0.00180859,-0.00023901,-0.00127981,0.00242372,-0.00085414,-0.44804,0.00196346,0.0133011,853,533,-0.757086,6.37196
-364,491,-0.741394,-6.62787,0.00236481,-0.00127627,-0.00115655,0.00270112,-0.00161258,-0.282979,0.00251681,0.0129983,860,533,-0.741406,6.62786
-357,491,-0.757202,-6.85004,0.00304328,-0.00232004,-0.00115102,0.00327986,-0.00255662,-0.20272,0.00337831,0.0119899,867,533,-0.757212,6.85001
-350,491,-0.763916,-7.07031,0.00380383,-0.00351832,-0.00124293,0.00400907,-0.00372355,-0.163645,0.00446544,0.0135463,874,533,-0.763916,7.07034
-343,491,-0.735779,-7.28198,0.00460648,-0.00464599,-0.00143182,0.00482299,-0.00486249,-0.150075,0.00559193,0.0204072,881,533,-0.735765,7.28196
-336,491,-0.714783,-7.49933,0.00543131,-0.00571985,-0.00169604,0.00568356,-0.00597211,-0.147648,0.00673009,0.0216258,888,533,-0.714783,7.49934
-329,491,-0.747192,-7.70978,0.00644522,-0.00648623,-0.00214701,0.00679236,-0.00683338,-0.160302,0.00786684,0.0236912,895,533,-0.747207,7.70979
-322,491,-0.785583,-7.94757,0.00761285,-0.00725213,-0.00262814,0.00806383,-0.00770311,-0.16994,0.00910384,0.0222197,902,533,-0.785592,7.94755
-315,491,-0.781921,-8.1709,0.0175084,-0.00590089,-0.00892962,0.0205257,-0.00891823,-0.325857,0.0174342,0.019512,909,533,-0.781899,8.17091
-308,491,-0.594421,-8.47955,0.0262372,-0.00493474,-0.0143983,0.0318699,-0.0105675,-0.372905,0.0255094,0.0459657,916,533,-0.594407,8.47958
-301,491,-0.188293,-8.9162,0,0,0,0,0,0,0,-1,923,533,-0.188266,8.91621
-294,491,-0.777283,-8.60913,0,0,0,0,0,0,0,-1,930,533,-0.777288,8.6091
-287,491,-0.26123,-8.69055,0,0,0,0,0,0,0,-1,937,533,-0.261204,8.69053
-280,491,0.2948,-5.99219,0,0,0,0,0,0,0,-1,944,533,0.294811,5.99221
-273,491,0.369995,-5.33691,0,0,0,0,0,0,0,-1,951,533,0.369985,5.33693
-266,491,1.1167,-5.0321,0,0,0,0,0,0,0,-1,958,533,1.11668,5.0321
-259,491,12.0862,-16.9615,0,0,0,0,0,0,0,-1,965,533,12.0862,16.9615
-252,491,9.72443,-13.8417,0,0,0,0,0,0,0,-1,972,533,9.72444,13.8418
-245,491,7.36926,-10.7169,0,0,0,0,0,0,0,-1,979,533,7.36924,10.7169
-238,491,4.84167,-7.53986,0,0,0,0,0,0,0,-1,986,533,4.84169,7.53984
-231,491,2.15582,-5.05225,0,0,0,0,0,0,0,-1,993,533,2.1558,5.05223
-224,491,-0.429749,-3.09216,0,0,0,0,0,0,0,-1,1000,533,-0.429743,3.09215
-217,491,-2.92743,-1.0766,0,0,0,0,0,0,0,-1,1007,533,-2.92743,1.07659
-210,491,-0.92395,0.374512,0,0,0,0,0,0,0,-1,1014,533,-0.923959,-0.374531
-203,491,0.417419,4.77161,0,0,0,0,0,0,0,-1,1021,533,0.417446,-4.77162
-196,491,0,0,0,0,0,0,0,0,0,-1,1028,533,0,0
-189,491,0,0,0,0,0,0,0,0,0,-1,1035,533,0,0
-182,491,0,0,0,0,0,0,0,0,0,-1,1042,533,0,0
-175,491,0,0,0,0,0,0,0,0,0,-1,1049,533,0,0
-168,491,0,0,0,0,0,0,0,0,0,-1,1056,533,0,0
-161,491,0,0,0,0,0,0,0,0,0,-1,1063,533,0,0
-154,491,0,0,0,0,0,0,0,0,0,-1,1070,533,0,0
-147,491,0,0,0,0,0,0,0,0,0,-1,1077,533,0,0
-140,491,0,0,0,0,0,0,0,0,0,-1,1084,533,0,0
-133,491,0,0,0,0,0,0,0,0,0,-1,1091,533,0,0
-126,491,0,0,0,0,0,0,0,0,0,-1,1098,533,0,0
-119,491,0,0,0,0,0,0,0,0,0,-1,1105,533,0,0
-112,491,0,0,0,0,0,0,0,0,0,-1,1112,533,0,0
-105,491,0,0,0,0,0,0,0,0,0,-1,1119,533,0,0
-98,491,0,0,0,0,0,0,0,0,0,-1,1126,533,0,0
-91,491,0,0,0,0,0,0,0,0,0,-1,1133,533,0,0
-84,491,0,0,0,0,0,0,0,0,0,-1,1140,533,0,0
-77,491,0,0,0,0,0,0,0,0,0,-1,1147,533,0,0
-70,491,0,0,0,0,0,0,0,0,0,-1,1154,533,0,0
-63,491,0,0,0,0,0,0,0,0,0,-1,1161,533,0,0
-56,491,0,0,0,0,0,0,0,0,0,-1,1168,533,0,0
-49,491,0,0,0,0,0,0,0,0,0,-1,1175,533,0,0
-42,491,0,0,0,0,0,0,0,0,0,-1,1182,533,0,0
-35,491,0,0,0,0,0,0,0,0,0,-1,1189,533,0,0
-28,491,0,0,0,0,0,0,0,0,0,-1,1196,533,0,0
-21,491,0,0,0,0,0,0,0,0,0,-1,1203,533,0,0
-14,491,0,0,0,0,0,0,0,0,0,-1,1210,533,0,0
-7,491,0,0,0,0,0,0,0,0,0,-1,1217,533,0,0
0,491,0,0,0,0,0,0,0,0,0,-1,1224,533,0,0
7,491,0,0,0,0,0,0,0,0,0,-1,1231,533,0,0
14,491,0,0,0,0,0,0,0,0,0,-1,1238,533,0,0
21,491,0,0,0,0,0,0,0,0,0,-1,1245,533,0,0
28,491,0,0,0,0,0,0,0,0,0,-1,1252,533,0,0
35,491,0,0,0,0,0,0,0,0,0,-1,1259,533,0,0
42,491,0,0,0,0,0,0,0,0,0,-1,1266,533,0,0
49,491,0,0,0,0,0,0,0,0,0,-1,1273,533,0,0
56,491,0,0,0,0,0,0,0,0,0,-1,1280,533,0,0
63,491,0,0,0,0,0,0,0,0,0,-1,1287,533,0,0
70,491,0,0,0,0,0,0,0,0,0,-1,1294,533,0,0
77,491,0,0,0,0,0,0,0,0,0,-1,1301,533,0,0
84,491,0,0,0,0,0,0,0,0,0,-1,1308,533,0,0
91,491,0,0,0,0,0,0,0,0,0,-1,1315,533,0,0
98,491,0,0,0,0,0,0,0,0,0,-1,1322,533,0,0
105,491,0,0,0,0,0,0,0,0,0,-1,1329,533,0,0
112,491,0,0,0,0,0,0,0,0,0,-1,1336,533,0,0
119,491,0,0,0,0,0,0,0,0,0,-1,1343,533,0,0
126,491,0,0,0,0,0,0,0,0,0,-1,1350,533,0,0
133,491,0,0,0,0,0,0,0,0,0,-1,1357,533,0,0
140,491,0,0,0,0,0,0,0,0,0,-1,1364,533,0,0
147,491,0,0,0,0,0,0,0,0,0,-1,1371,533,0,0
154,491,0,0,0,0,0,0,0,0,0,-1,1378,533,0,0
161,491,0,0,0,0,0,0,0,0,0,-1,1385,533,0,0
168,491,0,0,0,0,0,0,0,0,0,-1,1392,533,0,0
175,491,0,0,0,0,0,0,0,0,0,-1,1399,533,0,0
182,491,0,0,0,0,0,0,0,0,0,-1,1406,533,0,0
189,491,0,0,0,0,0,0,0,0,0,-1,1413,533,0,0
196,491,0,0,0,0,0,0,0,0,0,-1,1420,533,0,0
203,491,0,0,0,0,0,0,0,0,0,-1,1427,533,0,0
210,491,0,0,0,0,0,0,0,0,0,-1,1434,533,0,0
217,491,0,0,0,0,0,0,0,0,0,-1,1441,533,0,0
224,491,0,0,0,0,0,0,0,0,0,-1,1448,533,0,0
231,491,0,0,0,0,0,0,0,0,0,-1,1455,533,0,0
238,491,0,0,0,0,0,0,0,0,0,-1,1462,533,0,0
245,491,0,0,0,0,0,0,0,0,0,-1,1469,533,0,0
252,491,0,0,0,0,0,0,0,0,0,-1,1476,533,0,0
259,491,0,0,0,0,0,0,0,0,0,-1,1483,533,0,0
266,491,0,0,0,0,0,0,0,0,0,-1,1490,533,0,0
273,491,0,0,0,0,0,0,0,0,0,-1,1497,533,0,0
280,491,0,0,0,0,0,0,0,0,0,-1,1504,533,0,0
287,491,0,0,0,0,0,0,0,0,0,-1,1511,533,0,0
294,491,0,0,0,0,0,0,0,0,0,-1,1518,533,0,0
301,491,0,0,0,0,0,0,0,0,0,-1,1525,533,0,0
308,491,0,0,0,0,0,0,0,0,0,-1,1532,533,0,0
315,491,0,0,0,0,0,0,0,0,0,-1,1539,533,0,0
322,491,4.26331,-0.734314,0,0,0,0,0,0,0,-1,1546,533,4.26326,0.734324
329,491,4.25354,-0.783752,0,0,0,0,0,0,0,-1,1553,533,4.25359,0.783734
336,491,4.81604,-0.722107,0,0,0,0,0,0,0,-1,1560,533,4.81605,0.722115
343,491,6.14478,-1.44281,0,0,0,0,0,0,0,-1,1567,533,6.14474,1.44281
350,491,6.36353,-1.30792,0,0,0,0,0,0,0,-1,1574,533,6.36352,1.3079
357,491,6.69482,-1.06018,0,0,0,0,0,0,0,-1,1581,533,6.69489,1.06018
364,491,8.01086,-1.69604,0,0,0,0,0,0,0,-1,1588,533,8.01087,1.69607
371,491,8.2135,-0.539307,0,0,0,0,0,0,0,-1,1595,533,8.21348,0.53929
378,491,13.3589,2.17267,0,0,0,0,0,0,0,-1,1602,533,13.3589,-2.17264
385,491,8.08228,-4.95471,0,0,0,0,0,0,0,-1,1609,533,8.08227,4.95474
392,491,2.88721,-4.30988,0,0,0,0,0,0,0,-1,1616,533,2.88716,4.30986
399,491,10.5629,-8.46191,0,0,0,0,0,0,0,-1,1623,533,10.5628,8.46192
406,491,9.45276,-7.62054,0,0,0,0,0,0,0,-1,1630,533,9.45277,7.62051
413,491,5.31848,-3.7124,0,0,0,0,0,0,0,-1,1637,533,5.31849,3.7124
420,491,4.86389,-3.95892,0,0,0,0,0,0,0,-1,1644,533,4.86387,3.95893
427,491,6.86731,-7.24701,0,0,0,0,0,0,0,-1,1651,533,6.86733,7.24702
434,491,6.76355,-7.04498,-0.00273291,-0.00439616,-0.00514461,0.00164685,-0.00877592,-0.705267,0.00646981,0.0418421,1658,533,6.76354,7.04501
441,491,6.60754,-6.94354,-0.00161707,-0.00217281,-0.00348186,0.001598,-0.00538787,-0.74558,0.00422651,0.0233293,1665,533,6.60759,6.94354
448,491,6.59436,-6.67749,-0.000539218,-0.000267694,-0.00211095,0.00171185,-0.00251876,-0.817511,0.00245731,0.0128953,1672,533,6.59438,6.67746
455,491,6.58594,-6.43933,0.000161688,0.000773979,-0.00107093,0.00158166,-0.000645996,-0.924619,0.00132342,0.0113008,1679,533,6.58599,6.43935
462,491,6.56848,-6.20953,0.000617457,0.00106286,-0.000282494,0.00119988,0.000480439,-1.1192,0.000697317,0.0140986,1686,533,6.56852,6.20954
469,491,6.55396,-5.95099,0.000940848,0.00107453,8.54359e-06,0.00107507,0.000940304,1.50723,0.000676282,0.0134231,1693,533,6.55397,5.95096
476,491,6.57581,-5.69098,0.00113159,0.000927877,0.000164424,0.00122315,0.000836318,0.508088,0.000721906,0.00966472,1700,533,6.57586,5.69096
483,491,6.57349,-5.43427,0.0011846,0.000699725,0.000215415,0.00126648,0.000617849,0.363221,0.000731274,0.0108223,1707,533,6.57352,5.43426
490,491,6.57776,-5.22241,0.00113034,0.000357744,0.000151194,0.00115887,0.000329209,0.186533,0.000689557,0.010079,1714,533,6.57774,5.22243
497,491,6.57898,-4.99011,0.000950767,-7.80544e-05,-2.9381e-05,0.000951605,-7.88928e-05,-0.0285269,0.000662269,0.0114918,1721,533,6.57896,4.99011
504,491,6.57629,-4.72308,0.000979443,1.02434e-05,5.63088e-06,0.000979476,1.02107e-05,0.00580956,0.000649607,0.0130299,1728,533,6.57633,4.7231
511,491,6.56445,-4.44128,0.00127402,0.000310384,0.000420504,0.00143171,0.000152692,0.358776,0.000907866,0.0119821,1735,533,6.56447,4.44129
518,491,6.55151,-4.17761,0.00145015,0.000748835,0.000792415,0.00196603,0.000232959,0.57709,0.00124035,0.00932072,1742,533,6.55152,4.17761
525,491,6.56921,-3.89972,0.0018883,0.00165859,0.00143727,0.0032153,0.000331594,0.745528,0.00204199,0.00929065,1749,533,6.56918,3.89971
532,491,6.59314,-3.65302,0.00278534,0.00324481,0.00261225,0.00563741,0.000392746,0.829257,0.00363444,0.0181079,1756,533,6.59312,3.65299
539,491,6.51855,-3.45941,0.00426955,0.00572599,0.00445099,0.00950794,0.000487605,0.866484,0.0061825,0.0280508,1763,533,6.5185,3.45944
546,491,6.44287,-2.98639,0.00642091,0.00902548,0.00695035,0.0147945,0.000651894,0.878009,0.00965304,0.039451,1770,533,6.44285,2.98636
553,491,6.68933,-2.19287,0.00937724,0.013245,0.0102496,0.0217415,0.000880674,0.878641,0.0142099,0.0470106,1777,533,6.68935,2.19286
560,491,6.89355,-1.70514,0,0,0,0,0,0,0,-1,1784,533,6.89359,1.70514
567,491,5.67651,-1.3562,0,0,0,0,0,0,0,-1,1791,533,5.67649,1.3562
574,491,8.0719,1.58325,0,0,0,0,0,0,0,-1,1798,533,8.07195,-1.58326
581,491,9.44812,1.60931,0,0,0,0,0,0,0,-1,1805,533,9.44808,-1.60933
588,491,11.0497,1.54962,0,0,0,0,0,0,0,-1,1812,533,11.0496,-1.54963
595,491,0,0,0,0,0,0,0,0,0,-1,1819,533,0,0
602,491,0,0,0,0,0,0,0,0,0,-1,1826,533,0,0
609,491,0,0,0,0,0,0,0,0,0,-1,1833,533,0,0
616,491,0,0,0,0,0,0,0,0,0,-1,1840,533,0,0
623,491,0,0,0,0,0,0,0,0,0,-1,1847,533,0,0
630,491,0,0,0,0,0,0,0,0,0,-1,1854,533,0,0
637,491,0,0,0,0,0,0,0,0,0,-1,1861,533,0,0
644,491,0,0,0,0,0,0,0,0,0,-1,1868,533,0,0
651,491,0,0,0,0,0,0,0,0,0,-1,1875,533,0,0
658,491,0,0,0,0,0,0,0,0,0,-1,1882,533,0,0
665,491,0,0,0,0,0,0,0,0,0,-1,1889,533,0,0
672,491,0,0,0,0,0,0,0,0,0,-1,1896,533,0,0
679,491,0,0,0,0,0,0,0,0,0,-1,1903,533,0,0
686,491,0,0,0,0,0,0,0,0,0,-1,1910,533,0,0
693,491,0,0,0,0,0,0,0,0,0,-1,1917,533,0,0
700,491,0,0,0,0,0,0,0,0,0,-1,1924,533,0,0
707,491,0,0,0,0,0,0,0,0,0,-1,1931,533,0,0
714,491,0,0,0,0,0,0,0,0,0,-1,1938,533,0,0
721,491,0,0,0,0,0,0,0,0,0,-1,1945,533,0,0
728,491,0,0,0,0,0,0,0,0,0,-1,1952,533,0,0
735,491,0,0,0,0,0,0,0,0,0,-1,1959,533,0,0
742,491,0,0,0,0,0,0,0,0,0,-1,1966,533,0,0
749,491,0,0,0,0,0,0,0,0,0,-1,1973,533,0,0
756,491,0,0,0,0,0,0,0,0,0,-1,1980,533,0,0
763,491,0,0,0,0,0,0,0,0,0,-1,1987,533,0,0
770,491,0,0,0,0,0,0,0,0,0,-1,1994,533,0,0
777,491,0,0,0,0,0,0,0,0,0,-1,2001,533,0,0
784,491,0,0,0,0,0,0,0,0,0,-1,2008,533,0,0
791,491,0,0,0,0,0,0,0,0,0,-1,2015,533,0,0
798,491,0,0,0,0,0,0,0,0,0,-1,2022,533,0,0
805,491,0,0,0,0,0,0,0,0,0,-1,2029,533,0,0
812,491,0,0,0,0,0,0,0,0,0,-1,2036,533,0,0
-700,484,0,0,0,0,0,0,0,0,0,-1,524,540,0,0
-693,484,0,0,0,0,0,0,0,0,0,-1,531,540,0,0
-686,484,0,0,0,0,0,0,0,0,0,-1,538,540,0,0
-679,484,0,0,0,0,0,0,0,0,0,-1,545,540,0,0
-672,484,0,0,0,0,0,0,0,0,0,-1,552,540,0,0
-665,484,0,0,0,0,0,0,0,0,0,-1,559,540,0,0
-658,484,0,0,0,0,0,0,0,0,0,-1,566,540,0,0
-651,484,0,0,0,0,0,0,0,0,0,-1,573,540,0,0
-644,484,0,0,0,0,0,0,0,0,0,-1,580,540,0,0
-637,484,0,0,0,0,0,0,0,0,0,-1,587,540,0,0
-630,484,0,0,0,0,0,0,0,0,0,-1,594,540,0,0
-623,484,0,0,0,0,0,0,0,0,0,-1,601,540,0,0
-616,484,0,0,0,0,0,0,0,0,0,-1,608,540,0,0
-609,484,0,0,0,0,0,0,0,0,0,-1,615,540,0,0
-602,484,0,0,0,0,0,0,0,0,0,-1,622,540,0,0
-595,484,0,0,0,0,0,0,0,0,0,-1,629,540,0,0
-588,484,0,0,0,0,0,0,0,0,0,-1,636,540,0,0
-581,484,0,0,0,0,0,0,0,0,0,-1,643,540,0,0
-574,484,0,0,0,0,0,0,0,0,0,-1,650,540,0,0
-567,484,0,0,0,0,0,0,0,0,0,-1,657,540,0,0
-560,484,0,0,0,0,0,0,0,0,0,-1,664,540,0,0
-553,484,0,0,0,0,0,0,0,0,0,-1,671,540,0,0
-546,484,0,0,0,0,0,0,0,0,0,-1,678,540,0,0
-539,484,0,0,0,0,0,0,0,0,0,-1,685,540,0,0
-532,484,0,0,0,0,0,0,0,0,0,-1,692,540,0,0
-525,484,0,0,0,0,0,0,0,0,0,-1,699,540,0,0
-518,484,0,0,0,0,0,0,0,0,0,-1,706,540,0,0
-511,484,0,0,0,0,0,0,0,0,0,-1,713,540,0,0
-504,484,0,0,0,0,0,0,0,0,0,-1,720,540,0,0
-497,484,0,0,0,0,0,0,0,0,0,-1,727,540,0,0
-490,484,0,0,0,0,0,0,0,0,0,-1,734,540,0,0
-483,484,0,0,0,0,0,0,0,0,0,-1,741,540,0,0
-476,484,-8.46552,1.44702,0,0,0,0,0,0,0,-1,748,540,-8.46554,-1.44702
-469,484,-7.82343,1.70355,0,0,0,0,0,0,0,-1,755,540,-7.82345,-1.70355
-462,484,-8.36987,3.08612,0,0,0,0,0,0,0,-1,762,540,-8.36988,-3.0861
-455,484,-6.77197,2.07092,0,0,0,0,0,0,0,-1,769,540,-6.77197,-2.07094
-448,484,-5.09277,0.928589,0,0,0,0,0,0,0,-1,776,540,-5.09279,-0.928591
-441,484,-3.39404,-0.489868,0,0,0,0,0,0,0,-1,783,540,-3.39407,0.489893
-434,484,-1.40558,-3.76276,0,0,0,0,0,0,0,-1,790,540,-1.40558,3.76273
-427,484,-0.991699,-4.32568,0,0,0,0,0,0,0,-1,797,540,-0.991675,4.32571
-420,484,-0.949524,-4.63629,0.00397886,0.00371182,-0.0044044,0.00825176,-0.000561082,-0.770245,0.00569742,0.0357617,804,540,-0.949498,4.6363
-413,484,-0.933472,-4.90784,0.00290274,0.00287461,-0.00353181,0.00642051,-0.000643159,-0.783408,0.00451004,0.0211935,811,540,-0.933451,4.90786
-406,484,-0.94519,-5.19269,0.00203374,0.00230838,-0.00277669,0.00495114,-0.000609021,-0.810106,0.00352136,0.0132639,818,540,-0.945164,5.19267
-399,484,-0.974426,-5.44714,0.00134566,0.00190863,-0.00217871,0.00382397,-0.000569676,-0.84964,0.00275888,0.016183,825,540,-0.974446,5.44713
-392,484,-0.977417,-5.67786,0.000946423,0.00132974,-0.00161303,0.00276246,-0.000486297,-0.84453,0.00202331,0.0172199,832,540,-0.977441,5.67784
-385,484,-0.976013,-5.90961,0.0011071,0.000494127,-0.00122827,0.00206654,-0.000465316,-0.663132,0.00155616,0.0121721,839,540,-0.976029,5.90959
-378,484,-0.970947,-6.14172,0.00147407,-0.000531407,-0.000863839,0.00179485,-0.000852187,-0.35556,0.00156024,0.0129636,846,540,-0.970952,6.14173
-371,484,-0.979492,-6.35815,0.00204918,-0.0016037,-0.00078196,0.00220953,-0.00176405,-0.202261,0.00229895,0.0146496,853,540,-0.979474,6.35813
-364,484,-0.988892,-6.59894,0.00278787,-0.00291475,-0.000721321,0.00287769,-0.00300457,-0.12389,0.00339639,0.0110563,860,540,-0.98891,6.59893
-357,484,-0.997192,-6.82867,0.00371939,-0.0042834,-0.000815753,0.0038017,-0.00436571,-0.100555,0.0047192,0.0118678,867,540,-0.997204,6.82867
-350,484,-0.992981,-7.05029,0.00477893,-0.00585142,-0.00102173,0.00487624,-0.00594873,-0.0949566,0.00626002,0.0130107,874,540,-0.992985,7.05031
-343,484,-0.949158,-7.28125,0.00592957,-0.00743844,-0.00135426,0.00606538,-0.00757426,-0.0999529,0.0078909,0.0200749,881,540,-0.949147,7.28123
-336,484,-0.925781,-7.51056,0.00713643,-0.00903465,-0.0017903,0.00733226,-0.00923048,-0.108952,0.00958341,0.0240373,888,540,-0.925763,7.51058
-329,484,-0.923401,-7.70483,0.0086241,-0.0103016,-0.00251342,0.00895221,-0.0106298,-0.129807,0.0113195,0.0308543,895,540,-0.9234,7.70484
-322,484,-0.834412,-8.0271,0.0103261,-0.0116036,-0.00325125,0.0107979,-0.0120755,-0.144129,0.0132128,0.0410648,902,540,-0.834403,8.0271
-315,484,-0.769653,-8.28961,0,0,0,0,0,0,0,-1,909,540,-0.769683,8.28961
-308,484,-0.382874,-8.44482,0,0,0,0,0,0,0,-1,916,540,-0.382898,8.44483
-301,484,-1.33453,-6.52667,0,0,0,0,0,0,0,-1,923,540,-1.33454,6.5267
-294,484,-1.61224,-8.17059,0,0,0,0,0,0,0,-1,930,540,-1.61227,8.17058
-287,484,-0.715759,-5.62103,0,0,0,0,0,0,0,-1,937,540,-0.715772,5.62105
-280,484,2.66742,-1.6795,0,0,0,0,0,0,0,-1,944,540,2.6674,1.67949
-273,484,2.53125,-2.22296,0,0,0,0,0,0,0,-1,951,540,2.53128,2.22295
-266,484,2.6778,-2.72058,0,0,0,0,0,0,0,-1,958,540,2.6778,2.72061
-259,484,2.41718,-2.59894,0,0,0,0,0,0,0,-1,965,540,2.41717,2.59892
-252,484,10.6069,-11.696,0,0,0,0,0,0,0,-1,972,540,10.6069,11.696
-245,484,8.0415,-9.22931,0,0,0,0,0,0,0,-1,979,540,8.0415,9.2293
-238,484,5.56836,-6.82672,0,0,0,0,0,0,0,-1,986,540,5.56834,6.82672
-231,484,3.39185,-3.8576,0,0,0,0,0,0,0,-1,993,540,3.39183,3.85763
-224,484,1.14313,-1.21228,0,0,0,0,0,0,0,-1,1000,540,1.14312,1.21226
-217,484,-0.745056,1.17358,0,0,0,0,0,0,0,-1,1007,540,-0.745043,-1.17359
-210,484,0,0,0,0,0,0,0,0,0,-1,1014,540,0,0
-203,484,0,0,0,0,0,0,0,0,0,-1,1021,540,0,0
-196,484,0,0,0,0,0,0,0,0,0,-1,1028,540,0,0
-189,484,0,0,0,0,0,0,0,0,0,-1,1035,540,0,0
-182,484,0,0,0,0,0,0,0,0,0,-1,1042,540,0,0
-175,484,0,0,0,0,0,0,0,0,0,-1,1049,540,0,0
-168,484,0,0,0,0,0,0,0,0,0,-1,1056,540,0,0
-161,484,0,0,0,0,0,0,0,0,0,-1,1063,540,0,0
-154,484,0,0,0,0,0,0,0,0,0,-1,1070,540,0,0
-147,484,0,0,0,0,0,0,0,0,0,-1,1077,540,0,0
-140,484,0,0,0,0,0,0,0,0,0,-1,1084,540,0,0
-133,484,0,0,0,0,0,0,0,0,0,-1,1091,540,0,0
-126,484,0,0,0,0,0,0,0,0,0,-1,1098,540,0,0
-119,484,0,0,0,0,0,0,0,0,0,-1,1105,540,0,0
-112,484,0,0,0,0,0,0,0,0,0,-1,1112,540,0,0
-105,484,0,0,0,0,0,0,0,0,0,-1,1119,540,0,0
-98,484,0,0,0,0,0,0,0,0,0,-1,1126,540,0,0
-91,484,0,0,0,0,0,0,0,0,0,-1,1133,540,0,0
-84,484,0,0,0,0,0,0,0,0,0,-1,1140,540,0,0
-77,484,0,0,0,0,0,0,0,0,0,-1,1147,540,0,0
-70,484,0,0,0,0,0,0,0,0,0,-1,1154,540,0,0
-63,484,0,0,0,0,0,0,0,0,0,-1,1161,540,0,0
-56,484,0,0,0,0,0,0,0,0,0,-1,1168,540,0,0
-49,484,0,0,0,0,0,0,0,0,0,-1,1175,540,0,0
-42,484,0,0,0,0,0,0,0,0,0,-1,1182,540,0,0
-35,484,0,0,0,0,0,0,0,0,0,-1,1189,540,0,0
-28,484,0,0,0,0,0,0,0,0,0,-1,1196,540,0,0
-21,484,0,0,0,0,0,0,0,0,0,-1,1203,540,0,0
-14,484,0,0,0,0,0,0,0,0,0,-1,1210,540,0,0
-7,484,0,0,0,0,0,0,0,0,0,-1,1217,540,0,0
0,484,0,0,0,0,0,0,0,0,0,-1,1224,540,0,0
7,484,0,0,0,0,0,0,0,0,0,-1,1231,540,0,0
14,484,0,0,0,0,0,0,0,0,0,-1,1238,540,0,0
21,484,0,0,0,0,0,0,0,0,0,-1,1245,540,0,0
28,484,0,0,0,0,0,0,0,0,0,-1,1252,540,0,0
35,484,0,0,0,0,0,0,0,0,0,-1,1259,540,0,0
42,484,0,0,0,0,0,0,0,0,0,-1,1266,540,0,0
49,484,0,0,0,0,0,0,0,0,0,-1,1273,540,0,0
56,484,0,0,0,0,0,0,0,0,0,-1,1280,540,0,0
63,484,0,0,0,0,0,0,0,0,0,-1,1287,540,0,0
70,484,0,0,0,0,0,0,0,0,0,-1,1294,540,0,0
77,484,0,0,0,0,0,0,0,0,0,-1,1301,540,0,0
84,484,0,0,0,0,0,0,0,0,0,-1,1308,540,0,0
91,484,0,0,0,0,0,0,0,0,0,-1,1315,540,0,0
98,484,0,0,0,0,0,0,0,0,0,-1,1322,540,0,0
105,484,0,0,0,0,0,0,0,0,0,-1,1329,540,0,0
112,484,0,0,0,0,0,0,0,0,0,-1,1336,540,0,0
119,484,0,0,0,0,0,0,0,0,0,-1,1343,540,0,0
126,484,0,0,0,0,0,0,0,0,0,-1,1350,540,0,0
133,484,0,0,0,0,0,0,0,0,0,-1,1357,540,0,0
140,484,0,0,0,0,0,0,0,0,0,-1,1364,540,0,0
147,484,0,0,0,0,0,0,0,0,0,-1,1371,540,0,0
154,484,0,0,0,0,0,0,0,0,0,-1,1378,540,0,0
161,484,0,0,0,0,0,0,0,0,0,-1,1385,540,0,0
168,484,0,0,0,0,0,0,0,0,0,-1,1392,540,0,0
175,484,0,0,0,0,0,0,0,0,0,-1,1399,540,0,0
182,484,0,0,0,0,0,0,0,0,0,-1,1406,540,0,0
189,484,0,0,0,0,0,0,0,0,0,-1,1413,540,0,0
196,484,0,0,0,0,0,0,0,0,0,-1,1420,540,0,0
203,484,0,0,0,0,0,0,0,0,0,-1,1427,540,0,0
210,484,0,0,0,0,0,0,0,0,0,-1,1434,540,0,0
217,484,0,0,0,0,0,0,0,0,0,-1,1441,540,0,0
224,484,0,0,0,0,0,0,0,0,0,-1,1448,540,0,0
231,484,0,0,0,0,0,0,0,0,0,-1,1455,540,0,0
238,484,0,0,0,0,0,0,0,0,0,-1,1462,540,0,0
245,484,0,0,0,0,0,0,0,0,0,-1,1469,540,0,0
252,484,0,0,0,0,0,0,0,0,0,-1,1476,540,0,0
259,484,0,0,0,0,0,0,0,0,0,-1,1483,540,0,0
266,484,0,0,0,0,0,0,0,0,0,-1,1490,540,0,0
273,484,0,0,0,0,0,0,0,0,0,-1,1497,540,0,0
280,484,0,0,0,0,0,0,0,0,0,-1,1504,540,0,0
287,484,0,0,0,0,0,0,0,0,0,-1,1511,540,0,0
294,484,0,0,0,0,0,0,0,0,0,-1,1518,540,0,0
301,484,0,0,0,0,0,0,0,0,0,-1,1525,540,0,0
308,484,0,0,0,0,0,0,0,0,0,-1,1532,540,0,0
315,484,0,0,0,0,0,0,0,0,0,-1,1539,540,0,0
322,484,0,0,0,0,0,0,0,0,0,-1,1546,540,0,0
329,484,0,0,0,0,0,0,0,0,0,-1,1553,540,0,0
336,484,4.38708,-1.64136,0,0,0,0,0,0,0,-1,1560,540,4.38704,1.64138
343,484,7.57996,-1.05457,0,0,0,0,0,0,0,-1,1567,540,7.57995,1.05454
350,484,8.10425,-1.18878,0,0,0,0,0,0,0,-1,1574,540,8.1043,1.18877
357,484,7.74902,-3.80286,0,0,0,0,0,0,0,-1,1581,540,7.74901,3.80287
364,484,6.31262,-3.87213,0,0,0,0,0,0,0,-1,1588,540,6.31263,3.87215
371,484,7.21008,0.973511,0,0,0,0,0,0,0,-1,1595,540,7.21014,-0.973541
378,484,11.0563,1.5014,0,0,0,0,0,0,0,-1,1602,540,11.0563,-1.5014
385,484,14.3469,2.5545,0,0,0,0,0,0,0,-1,1609,540,14.3469,-2.55453
392,484,7.39453,-4.95026,0,0,0,0,0,0,0,-1,1616,540,7.39448,4.95023
399,484,7.14417,-2.5639,0,0,0,0,0,0,0,-1,1623,540,7.14417,2.56391
406,484,7.88953,-2.47321,0,0,0,0,0,0,0,-1,1630,540,7.88954,2.47323
413,484,4.4895,-1.08673,0,0,0,0,0,0,0,-1,1637,540,4.48952,1.08674
420,484,4.50012,-2.11255,0,0,0,0,0,0,0,-1,1644,540,4.50012,2.11256
427,484,5.28601,-3.54053,0,0,0,0,0,0,0,-1,1651,540,5.28599,3.54051
434,484,7.27173,-6.9248,0,0,0,0,0,0,0,-1,1658,540,7.27177,6.9248
441,484,6.95459,-6.96637,0,0,0,0,0,0,0,-1,1665,540,6.95455,6.96639
448,484,6.74487,-6.58295,-0.000457304,0.00018901,-0.00224308,0.00213209,-0.00240038,-0.85694,0.00261835,0.0415998,1672,540,6.74487,6.58297
455,484,6.79712,-6.42499,0.00041295,0.00139932,-0.0010083,0.00202858,-0.000216316,-1.01285,0.00142996,0.0199002,1679,540,6.79706,6.42496
462,484,6.82727,-6.19995,0.000924372,0.00177402,-6.99458e-05,0.00177974,0.000918653,-1.48921,0.00102771,0.0132991,1686,540,6.82722,6.19993
469,484,6.85291,-5.94537,0.0012178,0.00188979,0.00029014,0.00199772,0.00110986,1.21465,0.00115576,0.0144967,1693,540,6.85295,5.94537
476,484,6.84229,-5.67206,0.00142866,0.00179964,0.000511001,0.00215778,0.00107053,0.959501,0.00124581,0.015346,1700,540,6.84226,5.67209
483,484,6.83801,-5.43311,0.00150139,0.00157607,0.000616676,0.00215653,0.000920923,0.815635,0.00124949,0.0121006,1707,540,6.83804,5.43311
490,484,6.83948,-5.21667,0.00147885,0.00126753,0.000619127,0.00200127,0.000745112,0.700885,0.00116792,0.011929,1714,540,6.83951,5.2167
497,484,6.8374,-4.97449,0.00126078,0.000785913,0.000430605,0.00151507,0.00053162,0.533441,0.0008876,0.0133727,1721,540,6.83738,4.97449
504,484,6.83777,-4.70294,0.00115637,0.000724236,0.000383151,0.00138018,0.000500429,0.528662,0.000806817,0.0154171,1728,540,6.83775,4.70292
511,484,6.83545,-4.41663,0.00129501,0.000872572,0.000681986,0.00179774,0.000369845,0.635227,0.00109621,0.0173752,1735,540,6.8355,4.41665
518,484,6.81714,-4.17487,0.00135485,0.00113687,0.00095943,0.00221146,0.000280263,0.728841,0.00139034,0.0145922,1742,540,6.81715,4.17489
525,484,6.82227,-3.9126,0.00163617,0.00181597,0.00144796,0.00317682,0.000275329,0.816402,0.00203233,0.0125304,1749,540,6.82228,3.9126
532,484,6.84888,-3.65228,0.00229418,0.00304814,0.00236465,0.00506567,0.000276655,0.864444,0.00328877,0.0138398,1756,540,6.84884,3.65229
539,484,6.82739,-3.33795,0.00339283,0.00489108,0.0037682,0.0079839,0.000300009,0.88352,0.00522547,0.0211779,1763,540,6.82741,3.33798
546,484,6.72595,-3.12189,0.00497645,0.00738262,0.00567384,0.0119795,0.00037955,0.889871,0.00786289,0.0241879,1770,540,6.7259,3.12187
553,484,6.8009,-2.76776,0.0070802,0.010454,0.00807061,0.0170121,0.000522084,0.888424,0.0111715,0.0374861,1777,540,6.80087,2.76777
560,484,7.43408,-2.09729,0.00979063,0.0140293,0.0110607,0.0231719,0.000647997,0.880054,0.0152365,0.0491561,1784,540,7.43406,2.0973
567,484,7.78223,-1.38312,0,0,0,0,0,0,0,-1,1791,540,7.78224,1.38311
574,484,5.74463,1.50922,0,0,0,0,0,0,0,-1,1798,540,5.74463,-1.50924
581,484,10.34,2.9491,0,0,0,0,0,0,0,-1,1805,540,10.34,-2.94912
588,484,10.6669,2.88568,0,0,0,0,0,0,0,-1,1812,540,10.6669,-2.88567
595,484,10.7233,1.04767,0,0,0,0,0,0,0,-1,1819,540,10.7233,-1.04766
602,484,0,0,0,0,0,0,0,0,0,-1,1826,540,0,0
609,484,0,0,0,0,0,0,0,0,0,-1,1833,540,0,0
616,484,0,0,0,0,0,0,0,0,0,-1,1840,540,0,0
623,484,0,0,0,0,0,0,0,0,0,-1,1847,540,0,0
630,484,0,0,0,0,0,0,0,0,0,-1,1854,540,0,0
637,484,0,0,0,0,0,0,0,0,0,-1,1861,540,0,0
644,484,0,0,0,0,0,0,0,0,0,-1,1868,540,0,0
651,484,0,0,0,0,0,0,0,0,0,-1,1875,540,0,0
658,484,0,0,0,0,0,0,0,0,0,-1,1882,540,0,0
665,484,0,0,0,0,0,0,0,0,0,-1,1889,540,0,0
672,484,0,0,0,0,0,0,0,0,0,-1,1896,540,0,0
679,484,0,0,0,0,0,0,0,0,0,-1,1903,540,0,0
686,484,0,0,0,0,0,0,0,0,0,-1,1910,540,0,0
693,484,0,0,0,0,0,0,0,0,0,-1,1917,540,0,0
700,484,0,0,0,0,0,0,0,0,0,-1,1924,540,0,0
707,484,0,0,0,0,0,0,0,0,0,-1,1931,540,0,0
714,484,0,0,0,0,0,0,0,0,0,-1,1938,540,0,0
721,484,0,0,0,0,0,0,0,0,0,-1,1945,540,0,0
728,484,0,0,0,0,0,0,0,0,0,-1,1952,540,0,0
735,484,0,0,0,0,0,0,0,0,0,-1,1959,540,0,0
742,484,0,0,0,0,0,0,0,0,0,-1,1966,540,0,0
749,484,0,0,0,0,0,0,0,0,0,-1,1973,540,0,0
756,484,0,0,0,0,0,0,0,0,0,-1,1980,540,0,0
763,484,0,0,0,0,0,0,0,0,0,-1,1987,540,0,0
770,484,0,0,0,0,0,0,0,0,0,-1,1994,540,0,0
777,484,0,0,0,0,0,0,0,0,0,-1,2001,540,0,0
784,484,0,0,0,0,0,0,0,0,0,-1,2008,540,0,0
791,484,0,0,0,0,0,0,0,0,0,-1,2015,540,0,0
798,484,0,0,0,0,0,0,0,0,0,-1,2022,540,0,0
805,484,0,0,0,0,0,0,0,0,0,-1,2029,540,0,0
812,484,0,0,0,0,0,0,0,0,0,-1,2036,540,0,0
-700,477,0,0,0,0,0,0,0,0,0,-1,524,547,0,0
-693,477,0,0,0,0,0,0,0,0,0,-1,531,547,0,0
-686,477,0,0,0,0,0,0,0,0,0,-1,538,547,0,0
-679,477,0,0,0,0,0,0,0,0,0,-1,545,547,0,0
-672,477,0,0,0,0,0,0,0,0,0,-1,552,547,0,0
-665,477,0,0,0,0,0,0,0,0,0,-1,559,547,0,0
-658,477,0,0,0,0,0,0,0,0,0,-1,566,547,0,0
-651,477,0,0,0,0,0,0,0,0,0,-1,573,547,0,0
-644,477,0,0,0,0,0,0,0,0,0,-1,580,547,0,0
-637,477,0,0,0,0,0,0,0,0,0,-1,587,547,0,0
-630,477,0,0,0,0,0,0,0,0,0,-1,594,547,0,0
-623,477,0,0,0,0,0,0,0,0,0,-1,601,547,0,0
-616,477,0,0,0,0,0,0,0,0,0,-1,608,547,0,0
-609,477,0,0,0,0,0,0,0,0,0,-1,615,547,0,0
-602,477,0,0,0,0,0,0,0,0,0,-1,622,547,0,0
-595,477,0,0,0,0,0,0,0,0,0,-1,629,547,0,0
-588,477,0,0,0,0,0,0,0,0,0,-1,636,547,0,0
-581,477,0,0,0,0,0,0,0,0,0,-1,643,547,0,0
-574,477,0,0,0,0,0,0,0,0,0,-1,650,547,0,0
-567,477,0,0,0,0,0,0,0,0,0,-1,657,547,0,0
-560,477,0,0,0,0,0,0,0,0,0,-1,664,547,0,0
-553,477,0,0,0,0,0,0,0,0,0,-1,671,547,0,0
-546,477,0,0,0,0,0,0,0,0,0,-1,678,547,0,0
-539,477,0,0,0,0,0,0,0,0,0,-1,685,547,0,0
-532,477,0,0,0,0,0,0,0,0,0,-1,692,547,0,0
-525,477,0,0,0,0,0,0,0,0,0,-1,699,547,0,0
-518,477,0,0,0,0,0,0,0,0,0,-1,706,547,0,0
-511,477,0,0,0,0,0,0,0,0,0,-1,713,547,0,0
-504,477,0,0,0,0,0,0,0,0,0,-1,720,547,0,0
-497,477,0,0,0,0,0,0,0,0,0,-1,727,547,0,0
-490,477,0,0,0,0,0,0,0,0,0,-1,734,547,0,0
-483,477,-8.65143,0.118408,0,0,0,0,0,0,0,-1,741,547,-8.65141,-0.118398
-476,477,-7.96857,0.303589,0,0,0,0,0,0,0,-1,748,547,-7.96857,-0.303598
-469,477,-7.26617,0.525085,0,0,0,0,0,0,0,-1,755,547,-7.2662,-0.525111
-462,477,-6.65143,1.06042,0,0,0,0,0,0,0,-1,762,547,-6.65143,-1.06043
-455,477,-5.31757,0.429016,0,0,0,0,0,0,0,-1,769,547,-5.31756,-0.42902
-448,477,-3.77142,-0.38324,0,0,0,0,0,0,0,-1,776,547,-3.77141,0.38322
-441,477,-1.00885,-3.68896,0,0,0,0,0,0,0,-1,783,547,-1.00882,3.68896
-434,477,-1.36237,-4.013,0.00713934,0.00449683,-0.00642522,0.0123777,-0.000741574,-0.683994,0.0085098,0.042393,790,547,-1.36236,4.01298
-427,477,-1.17706,-4.40155,0.00505126,0.00362827,-0.00492958,0.00932043,-0.0006409,-0.713727,0.0064379,0.0227808,797,547,-1.17704,4.40154
-420,477,-1.229,-4.5683,0.00353141,0.00318373,-0.00377502,0.00713659,-0.000421447,-0.762389,0.00490425,0.0196972,804,547,-1.229,4.5683
-413,477,-1.20496,-4.88055,0.00245805,0.00242858,-0.00290192,0.00534527,-0.000458643,-0.78286,0.00372581,0.0157957,811,547,-1.20494,4.88055
-406,477,-1.21045,-5.16437,0.00167719,0.00188018,-0.0021641,0.00394516,-0.000387789,-0.808831,0.00276844,0.0113745,818,547,-1.21047,5.16437
-399,477,-1.2019,-5.43408,0.00110314,0.00133031,-0.00151513,0.0027361,-0.000302654,-0.822813,0.00193287,0.0185783,825,547,-1.20188,5.43406
-392,477,-1.21021,-5.67639,0.000815179,0.000513239,-0.000900166,0.00157695,-0.00024853,-0.702314,0.00114318,0.0174639,832,547,-1.21019,5.67641
-385,477,-1.21698,-5.88867,0.00111416,-0.000693731,-0.000527252,0.00125669,-0.000836261,-0.264017,0.00121647,0.0154284,839,547,-1.21698,5.88867
-378,477,-1.20294,-6.13257,0.00160558,-0.00199244,-0.00014262,0.00161123,-0.00199808,-0.0395556,0.00208782,0.0132857,846,547,-1.20293,6.13257
-371,477,-1.21069,-6.3526,0.00235368,-0.00339753,-5.06477e-05,0.00235412,-0.00339798,-0.00880554,0.00333916,0.0131071,853,547,-1.21072,6.35258
-364,477,-1.22357,-6.58929,0.00333932,-0.00512229,-7.13143e-06,0.00333933,-0.00512229,-0.000842797,0.00492134,0.0133018,860,547,-1.22358,6.5893
-357,477,-1.23865,-6.82385,0.00460643,-0.006986,-0.00017368,0.00460903,-0.0069886,-0.0149777,0.00674271,0.0103298,867,547,-1.23863,6.82388
-350,477,-1.23816,-7.04108,0.00608314,-0.00912932,-0.000492584,0.00609907,-0.00914526,-0.0323351,0.00885969,0.00920134,874,547,-1.23815,7.04107
-343,477,-1.16071,-7.28534,0.00774008,-0.0114347,-0.000997436,0.00779182,-0.0114864,-0.0518317,0.0111982,0.0170872,881,547,-1.1607,7.28534
-336,477,-1.10254,-7.55273,0.00953173,-0.0138685,-0.00166584,0.00964972,-0.0139865,-0.0707136,0.0137227,0.0287641,888,547,-1.10253,7.55271
-329,477,-1.01587,-7.80896,0,0,0,0,0,0,0,-1,895,547,-1.01589,7.80893
-322,477,-1.05347,-8.27277,0,0,0,0,0,0,0,-1,902,547,-1.05345,8.27276
-315,477,-1.44391,-7.70148,0,0,0,0,0,0,0,-1,909,547,-1.44389,7.70149
-308,477,-1.30127,-6.55188,0,0,0,0,0,0,0,-1,916,547,-1.30128,6.55185
-301,477,-1.21185,-6.28351,0,0,0,0,0,0,0,-1,923,547,-1.21184,6.28352
-294,477,-0.352905,3.27142,0,0,0,0,0,0,0,-1,930,547,-0.35292,-3.27144
-287,477,3.54364,2.15399,0,0,0,0,0,0,0,-1,937,547,3.54362,-2.15396
-280,477,1.97308,-0.954163,0,0,0,0,0,0,0,-1,944,547,1.9731,0.954178
-273,477,2.11621,-3.76709,0,0,0,0,0,0,0,-1,951,547,2.11619,3.76706
-266,477,2.04669,-3.42389,0,0,0,0,0,0,0,-1,958,547,2.04671,3.42391
-259,477,-1.33478,-3.41205,0,0,0,0,0,0,0,-1,965,547,-1.3348,3.41206
-252,477,0.597168,-5.32922,0,0,0,0,0,0,0,-1,972,547,0.597144,5.32924
-245,477,2.27161,-7.02875,0,0,0,0,0,0,0,-1,979,547,2.27158,7.02873
-238,477,7.29095,-4.50336,0,0,0,0,0,0,0,-1,986,547,7.29093,4.50335
-231,477,4.88141,-2.23413,0,0,0,0,0,0,0,-1,993,547,4.88143,2.23413
-224,477,0,0,0,0,0,0,0,0,0,-1,1000,547,0,0
-217,477,0,0,0,0,0,0,0,0,0,-1,1007,547,0,0
-210,477,0,0,0,0,0,0,0,0,0,-1,1014,547,0,0
-203,477,0,0,0,0,0,0,0,0,0,-1,1021,547,0,0
-196,477,0,0,0,0,0,0,0,0,0,-1,1028,547,0,0
-189,477,0,0,0,0,0,0,0,0,0,-1,1035,547,0,0
-182,477,0,0,0,0,0,0,0,0,0,-1,1042,547,0,0
-175,477,0,0,0,0,0,0,0,0,0,-1,1049,547,0,0
-168,477,0,0,0,0,0,0,0,0,0,-1,1056,547,0,0
-161,477,0,0,0,0,0,0,0,0,0,-1,1063,547,0,0
-154,477,0,0,0,0,0,0,0,0,0,-1,1070,547,0,0
-147,477,0,0,0,0,0,0,0,0,0,-1,1077,547,0,0
-140,477,0,0,0,0,0,0,0,0,0,-1,1084,547,0,0
-133,477,0,0,0,0,0,0,0,0,0,-1,1091,547,0,0
-126,477,0,0,0,0,0,0,0,0,0,-1,1098,547,0,0
-119,477,0,0,0,0,0,0,0,0,0,-1,1105,547,0,0
-112,477,0,0,0,0,0,0,0,0,0,-1,1112,547,0,0
-105,477,0,0,0,0,0,0,0,0,0,-1,1119,547,0,0
-98,477,0,0,0,0,0,0,0,0,0,-1,1126,547,0,0
-91,477,0,0,0,0,0,0,0,0,0,-1,1133,547,0,0
-84,477,0,0,0,0,0,0,0,0,0,-1,1140,547,0,0
-77,477,0,0,0,0,0,0,0,0,0,-1,1147,547,0,0
-70,477,0,0,0,0,0,0,0,0,0,-1,1154,547,0,0
-63,477,0,0,0,0,0,0,0,0,0,-1,1161,547,0,0
-56,477,0,0,0,0,0,0,0,0,0,-1,1168,547,0,0
-49,477,0,0,0,0,0,0,0,0,0,-1,1175,547,0,0
-42,477,0,0,0,0,0,0,0,0,0,-1,1182,547,0,0
-35,477,0,0,0,0,0,0,0,0,0,-1,1189,547,0,0
-28,477,0,0,0,0,0,0,0,0,0,-1,1196,547,0,0
-21,477,0,0,0,0,0,0,0,0,0,-1,1203,547,0,0
-14,477,0,0,0,0,0,0,0,0,0,-1,1210,547,0,0
-7,477,0,0,0,0,0,0,0,0,0,-1,1217,547,0,0
0,477,0,0,0,0,0,0,0,0,0,-1,1224,547,0,0
7,477,0,0,0,0,0,0,0,0,0,-1,1231,547,0,0
14,477,0,0,0,0,0,0,0,0,0,-1,1238,547,0,0
21,477,0,0,0,0,0,0,0,0,0,-1,1245,547,0,0
28,477,0,0,0,0,0,0,0,0,0,-1,1252,547,0,0
35,477,0,0,0,0,0,0,0,0,0,-1,1259,547,0,0
42,477,0,0,0,0,0,0,0,0,0,-1,1266,547,0,0
49,477,0,0,0,0,0,0,0,0,0,-1,1273,547,0,0
56,477,0,0,0,0,0,0,0,0,0,-1,1280,547,0,0
63,477,0,0,0,0,0,0,0,0,0,-1,1287,547,0,0
70,477,0,0,0,0,0,0,0,0,0,-1,1294,547,0,0
77,477,0,0,0,0,0,0,0,0,0,-1,1301,547,0,0
84,477,0,0,0,0,0,0,0,0,0,-1,1308,547,0,0
91,477,0,0,0,0,0,0,0,0,0,-1,1315,547,0,0
98,477,0,0,0,0,0,0,0,0,0,-1,1322,547,0,0
105,477,0,0,0,0,0,0,0,0,0,-1,1329,547,0,0
112,477,0,0,0,0,0,0,0,0,0,-1,1336,547,0,0
119,477,0,0,0,0,0,0,0,0,0,-1,1343,547,0,0
126,477,0,0,0,0,0,0,0,0,0,-1,1350,547,0,0
133,477,0,0,0,0,0,0,0,0,0,-1,1357,547,0,0
140,477,0,0,0,0,0,0,0,0,0,-1,1364,547,0,0
147,477,0,0,0,0,0,0,0,0,0,-1,1371,547,0,0
154,477,0,0,0,0,0,0,0,0,0,-1,1378,547,0,0
161,477,0,0,0,0,0,0,0,0,0,-1,1385,547,0,0
168,477,0,0,0,0,0,0,0,0,0,-1,1392,547,0,0
175,477,0,0,0,0,0,0,0,0,0,-1,1399,547,0,0
182,477,0,0,0,0,0,0,0,0,0,-1,1406,547,0,0
189,477,0,0,0,0,0,0,0,0,0,-1,1413,547,0,0
196,477,0,0,0,0,0,0,0,0,0,-1,1420,547,0,0
203,477,0,0,0,0,0,0,0,0,0,-1,1427,547,0,0
210,477,0,0,0,0,0,0,0,0,0,-1,1434,547,0,0
217,477,0,0,0,0,0,0,0,0,0,-1,1441,547,0,0
224,477,0,0,0,0,0,0,0,0,0,-1,1448,547,0,0
231,477,0,0,0,0,0,0,0,0,0,-1,1455,547,0,0
238,477,0,0,0,0,0,0,0,0,0,-1,1462,547,0,0
245,477,0,0,0,0,0,0,0,0,0,-1,1469,547,0,0
252,477,0,0,0,0,0,0,0,0,0,-1,1476,547,0,0
259,477,0,0,0,0,0,0,0,0,0,-1,1483,547,0,0
266,477,0,0,0,0,0,0,0,0,0,-1,1490,547,0,0
273,477,0,0,0,0,0,0,0,0,0,-1,1497,547,0,0
280,477,0,0,0,0,0,0,0,0,0,-1,1504,547,0,0
287,477,0,0,0,0,0,0,0,0,0,-1,1511,547,0,0
294,477,0,0,0,0,0,0,0,0,0,-1,1518,547,0,0
301,477,0,0,0,0,0,0,0,0,0,-1,1525,547,0,0
308,477,0,0,0,0,0,0,0,0,0,-1,1532,547,0,0
315,477,0,0,0,0,0,0,0,0,0,-1,1539,547,0,0
322,477,0,0,0,0,0,0,0,0,0,-1,1546,547,0,0
329,477,0,0,0,0,0,0,0,0,0,-1,1553,547,0,0
336,477,0,0,0,0,0,0,0,0,0,-1,1560,547,0,0
343,477,0,0,0,0,0,0,0,0,0,-1,1567,547,0,0
350,477,1.7699,-3.32275,0,0,0,0,0,0,0,-1,1574,547,1.7699,3.32272
357,477,3.073,-4.83313,0,0,0,0,0,0,0,-1,1581,547,3.07303,4.83316
364,477,4.30127,-4.22864,0,0,0,0,0,0,0,-1,1588,547,4.30125,4.22865
371,477,4.57703,0.283264,0,0,0,0,0,0,0,-1,1595,547,4.57706,-0.283262
378,477,8.57947,1.05969,0,0,0,0,0,0,0,-1,1602,547,8.5795,-1.05972
385,477,12.3726,2.02356,0,0,0,0,0,0,0,-1,1609,547,12.3725,-2.02355
392,477,16.4678,2.76843,0,0,0,0,0,0,0,-1,1616,547,16.4678,-2.76845
399,477,8.00037,-2.29523,0,0,0,0,0,0,0,-1,1623,547,8.00031,2.2952
406,477,4.82495,2.7475,0,0,0,0,0,0,0,-1,1630,547,4.825,-2.74752
413,477,4.88171,-0.336426,0,0,0,0,0,0,0,-1,1637,547,4.88169,0.336398
420,477,3.34875,0.102722,0,0,0,0,0,0,0,-1,1644,547,3.34871,-0.1027
427,477,1.66772,-0.373108,0,0,0,0,0,0,0,-1,1651,547,1.66768,0.373104
434,477,3.76978,-2.30798,0,0,0,0,0,0,0,-1,1658,547,3.76974,2.30801
441,477,4.05444,-2.80402,0,0,0,0,0,0,0,-1,1665,547,4.05444,2.804
448,477,6.87878,-6.53424,0,0,0,0,0,0,0,-1,1672,547,6.87874,6.53423
455,477,6.95557,-6.48737,0,0,0,0,0,0,0,-1,1679,547,6.95552,6.48735
462,477,7.10083,-6.28979,0.00151981,0.00248583,0.000316274,0.00258017,0.00142547,1.28093,0.00149239,0.0362463,1686,547,7.10088,6.28982
469,477,7.12732,-5.94635,0.00174337,0.00272024,0.000722453,0.00310388,0.00135973,1.08264,0.0017966,0.0231414,1693,547,7.12732,5.94635
476,477,7.10205,-5.69324,0.00196757,0.00270378,0.00101348,0.00341394,0.00125741,0.959593,0.00199369,0.0176314,1700,547,7.10206,5.69325
483,477,7.10413,-5.44385,0.00205358,0.00248192,0.00116497,0.00345224,0.00108325,0.876303,0.00203871,0.0117579,1707,547,7.10413,5.44382
490,477,7.09094,-5.19873,0.00205292,0.00220164,0.00121397,0.00334352,0.00091104,0.815986,0.00199589,0.0110097,1714,547,7.09096,5.19875
497,477,7.09485,-4.93945,0.00177427,0.00165415,0.000991535,0.00270756,0.000720856,0.755148,0.00161916,0.0127514,1721,547,7.09486,4.93947
504,477,7.10156,-4.6723,0.00149802,0.00138828,0.000820444,0.00226543,0.000620873,0.752008,0.00135172,0.0179431,1728,547,7.10158,4.67227
511,477,7.09973,-4.42285,0.00144268,0.00133371,0.000945975,0.00233574,0.00044065,0.756632,0.00143304,0.021888,1735,547,7.09973,4.42283
518,477,7.09863,-4.19098,0.0013749,0.00140447,0.00109948,0.00248927,0.000290099,0.792121,0.00157176,0.0191853,1742,547,7.09858,4.19099
525,477,7.08899,-3.90625,0.00148893,0.0018402,0.00141399,0.00308942,0.000239705,0.847188,0.00198454,0.0160499,1749,547,7.08893,3.90624
532,477,7.08423,-3.68054,0.00189715,0.00271361,0.00206038,0.00440582,0.000204945,0.883198,0.00287134,0.0178118,1756,547,7.0842,3.68051
539,477,7.06897,-3.34119,0.00262125,0.00399916,0.00305132,0.00643834,0.000182077,0.896431,0.00423284,0.0168602,1763,547,7.06893,3.3412
546,477,7.05286,-3.09326,0.00370134,0.00578999,0.00442346,0.00929074,0.000200601,0.90132,0.00612805,0.0204548,1770,547,7.05281,3.09326
553,477,7.03638,-2.82062,0.00509883,0.00796735,0.00608589,0.0127857,0.000280472,0.901122,0.00843187,0.0220575,1777,547,7.03643,2.8206
560,477,7.02832,-2.43353,0.00684318,0.0104232,0.00809035,0.0169192,0.00034719,0.894271,0.0111655,0.0380862,1784,547,7.02832,2.43356
567,477,7.07251,-2.03503,0,0,0,0,0,0,0,-1,1791,547,7.07255,2.035
574,477,6.82593,-0.916992,0,0,0,0,0,0,0,-1,1798,547,6.82598,0.916977
581,477,9.29321,-0.557007,0,0,0,0,0,0,0,-1,1805,547,9.29324,0.55703
588,477,9.75195,0.422729,0,0,0,0,0,0,0,-1,1812,547,9.75198,-0.42273
595,477,9.89172,1.21326,0,0,0,0,0,0,0,-1,1819,547,9.89174,-1.21328
602,477,6.5271,-0.964417,0,0,0,0,0,0,0,-1,1826,547,6.52706,0.964427
609,477,0,0,0,0,0,0,0,0,0,-1,1833,547,0,0
616,477,0,0,0,0,0,0,0,0,0,-1,1840,547,0,0
623,477,0,0,0,0,0,0,0,0,0,-1,1847,547,0,0
630,477,0,0,0,0,0,0,0,0,0,-1,1854,547,0,0
637,477,0,0,0,0,0,0,0,0,0,-1,1861,547,0,0
644,477,0,0,0,0,0,0,0,0,0,-1,1868,547,0,0
651,477,0,0,0,0,0,0,0,0,0,-1,1875,547,0,0
658,477,0,0,0,0,0,0,0,0,0,-1,1882,547,0,0
665,477,0,0,0,0,0,0,0,0,0,-1,1889,547,0,0
672,477,0,0,0,0,0,0,0,0,0,-1,1896,547,0,0
679,477,0,0,0,0,0,0,0,0,0,-1,1903,547,0,0
686,477,0,0,0,0,0,0,0,0,0,-1,1910,547,0,0
693,477,0,0,0,0,0,0,0,0,0,-1,1917,547,0,0
700,477,0,0,0,0,0,0,0,0,0,-1,1924,547,0,0
707,477,0,0,0,0,0,0,0,0,0,-1,1931,547,0,0
714,477,0,0,0,0,0,0,0,0,0,-1,1938,547,0,0
721,477,0,0,0,0,0,0,0,0,0,-1,1945,547,0,0
728,477,0,0,0,0,0,0,0,0,0,-1,1952,547,0,0
735,477,0,0,0,0,0,0,0,0,0,-1,1959,547,0,0
742,477,0,0,0,0,0,0,0,0,0,-1,1966,547,0,0
749,477,0,0,0,0,0,0,0,0,0,-1,1973,547,0,0
756,477,0,0,0,0,0,0,0,0,0,-1,1980,547,0,0
763,477,0,0,0,0,0,0,0,0,0,-1,1987,547,0,0
770,477,0,0,0,0,0,0,0,0,0,-1,1994,547,0,0
777,477,0,0,0,0,0,0,0,0,0,-1,2001,547,0,0
784,477,0,0,0,0,0,0,0,0,0,-1,2008,547,0,0
791,477,0,0,0,0,0,0,0,0,0,-1,2015,547,0,0
798,477,0,0,0,0,0,0,0,0,0,-1,2022,547,0,0
805,477,0,0,0,0,0,0,0,0,0,-1,2029,547,0,0
812,477,0,0,0,0,0,0,0,0,0,-1,2036,547,0,0
-700,470,0,0,0,0,0,0,0,0,0,-1,524,554,0,0
-693,470,0,0,0,0,0,0,0,0,0,-1,531,554,0,0
-686,470,0,0,0,0,0,0,0,0,0,-1,538,554,0,0
-679,470,0,0,0,0,0,0,0,0,0,-1,545,554,0,0
-672,470,0,0,0,0,0,0,0,0,0,-1,552,554,0,0
-665,470,0,0,0,0,0,0,0,0,0,-1,559,554,0,0
-658,470,0,0,0,0,0,0,0,0,0,-1,566,554,0,0
-651,470,0,0,0,0,0,0,0,0,0,-1,573,554,0,0
-644,470,0,0,0,0,0,0,0,0,0,-1,580,554,0,0
-637,470,0,0,0,0,0,0,0,0,0,-1,587,554,0,0
-630,470,0,0,0,0,0,0,0,0,0,-1,594,554,0,0
-623,470,0,0,0,0,0,0,0,0,0,-1,601,554,0,0
-616,470,0,0,0,0,0,0,0,0,0,-1,608,554,0,0
-609,470,0,0,0,0,0,0,0,0,0,-1,615,554,0,0
-602,470,0,0,0,0,0,0,0,0,0,-1,622,554,0,0
-595,470,0,0,0,0,0,0,0,0,0,-1,629,554,0,0
-588,470,0,0,0,0,0,0,0,0,0,-1,636,554,0,0
-581,470,0,0,0,0,0,0,0,0,0,-1,643,554,0,0
-574,470,0,0,0,0,0,0,0,0,0,-1,650,554,0,0
-567,470,0,0,0,0,0,0,0,0,0,-1,657,554,0,0
-560,470,0,0,0,0,0,0,0,0,0,-1,664,554,0,0
-553,470,0,0,0,0,0,0,0,0,0,-1,671,554,0,0
-546,470,0,0,0,0,0,0,0,0,0,-1,678,554,0,0
-539,470,0,0,0,0,0,0,0,0,0,-1,685,554,0,0
-532,470,0,0,0,0,0,0,0,0,0,-1,692,554,0,0
-525,470,0,0,0,0,0,0,0,0,0,-1,699,554,0,0
-518,470,0,0,0,0,0,0,0,0,0,-1,706,554,0,0
-511,470,0,0,0,0,0,0,0,0,0,-1,713,554,0,0
-504,470,0,0,0,0,0,0,0,0,0,-1,720,554,0,0
-497,470,0,0,0,0,0,0,0,0,0,-1,727,554,0,0
-490,470,-8.75464,-0.825745,0,0,0,0,0,0,0,-1,734,554,-8.75464,0.825717
-483,470,-7.98273,-0.603271,0,0,0,0,0,0,0,-1,741,554,-7.98272,0.603276
-476,470,-7.24121,-0.427368,0,0,0,0,0,0,0,-1,748,554,-7.24121,0.427339
-469,470,-6.23016,-0.651855,0,0,0,0,0,0,0,-1,755,554,-6.23014,0.651829
-462,470,-4.87915,-1.03705,0,0,0,0,0,0,0,-1,762,554,-4.87914,1.03702
-455,470,-3.55457,-1.53186,0,0,0,0,0,0,0,-1,769,554,-3.55456,1.53187
-448,470,-1.8764,-3.36847,0,0,0,0,0,0,0,-1,776,554,-1.87641,3.36846
-441,470,-1.28326,-3.74695,0.00921696,0.00474899,-0.00734541,0.0146606,-0.000694634,-0.637776,0.0100133,0.0487732,783,554,-1.28329,3.74696
-434,470,-1.32043,-4.18549,0.0064971,0.00363335,-0.00546752,0.0107171,-0.000586677,-0.657331,0.00734812,0.0255616,790,554,-1.32045,4.18546
-427,470,-1.45172,-4.41058,0.00456086,0.00289709,-0.00409955,0.00791208,-0.000454122,-0.685297,0.00543242,0.0130466,797,554,-1.4517,4.41055
-420,470,-1.45728,-4.65564,0.00308552,0.00242144,-0.00299923,0.00577104,-0.00026407,-0.730268,0.00393833,0.0125759,804,554,-1.4573,4.65566
-413,470,-1.4469,-4.91956,0.00204537,0.00177104,-0.00216619,0.00407873,-0.000262331,-0.75378,0.00281068,0.0124904,811,554,-1.4469,4.91953
-406,470,-1.46387,-5.15302,0.00133273,0.00126233,-0.00145931,0.00275726,-0.000162197,-0.77334,0.00189456,0.00957745,818,554,-1.46384,5.15301
-399,470,-1.43933,-5.42548,0.000845076,0.00060956,-0.000786478,0.00152256,-6.79274e-05,-0.711086,0.00103843,0.0127913,825,554,-1.43935,5.42549
-392,470,-1.44183,-5.67065,0.000659443,-0.000384644,-0.000148549,0.000680167,-0.000405367,-0.138613,0.000633392,0.0142166,832,554,-1.4418,5.67067
-385,470,-1.43805,-5.88611,0.00109472,-0.00192006,0.000195053,0.00110728,-0.00193262,0.0643416,0.00177652,0.0116314,839,554,-1.43806,5.88612
-378,470,-1.45459,-6.15057,0.00171501,-0.00348269,0.000582267,0.00177944,-0.00354712,0.110204,0.00313123,0.0160753,846,554,-1.45461,6.1506
-371,470,-1.45691,-6.37372,0.00265128,-0.00525599,0.00068417,0.00271004,-0.00531475,0.0856757,0.00471377,0.0137442,853,554,-1.45691,6.37374
-364,470,-1.45844,-6.58795,0.00392403,-0.00747554,0.000709881,0.00396807,-0.00751957,0.0619536,0.00673722,0.0140477,860,554,-1.45846,6.58796
-357,470,-1.46381,-6.81897,0.00559667,-0.00998682,0.000473613,0.00561105,-0.0100012,0.0303546,0.00913176,0.0133309,867,554,-1.46381,6.81898
-350,470,-1.45306,-7.05792,0.00760499,-0.0129386,3.47623e-05,0.00760505,-0.0129386,0.00169212,0.0119934,0.00986134,874,554,-1.45307,7.05793
-343,470,-1.37067,-7.30481,0.00994475,-0.0162904,-0.000675404,0.00996212,-0.0163078,-0.0257215,0.0153137,0.0225259,881,554,-1.37069,7.30484
-336,470,-1.47894,-7.46545,0.0125826,-0.0200088,-0.0016509,0.012666,-0.0200922,-0.0504823,0.0190743,0.0348982,888,554,-1.47893,7.46548
-329,470,-1.34845,-7.52972,0,0,0,0,0,0,0,-1,895,554,-1.34847,7.52974
-322,470,-0.436462,-7.77435,0,0,0,0,0,0,0,-1,902,554,-0.436447,7.77436
-315,470,0.262939,-7.7981,0,0,0,0,0,0,0,-1,909,554,0.26297,7.79811
-308,470,-1.39368,-6.68152,0,0,0,0,0,0,0,-1,916,554,-1.39369,6.68149
-301,470,-0.0340576,3.34888,0,0,0,0,0,0,0,-1,923,554,-0.0340496,-3.3489
-294,470,-1.18378,3.22266,0,0,0,0,0,0,0,-1,930,554,-1.18376,-3.22268
-287,470,-2.15454,3.2204,0,0,0,0,0,0,0,-1,937,554,-2.15452,-3.22037
-280,470,-3.00537,3.099,0,0,0,0,0,0,0,-1,944,554,-3.00536,-3.09898
-273,470,-10.7747,3.25928,0,0,0,0,0,0,0,-1,951,554,-10.7746,-3.2593
-266,470,-7.88147,0.0951538,0,0,0,0,0,0,0,-1,958,554,-7.88148,-0.0951677
-259,470,-5.11902,-3.29401,0,0,0,0,0,0,0,-1,965,554,-5.11899,3.294
-252,470,-0.369019,-4.24976,0,0,0,0,0,0,0,-1,972,554,-0.36901,4.24977
-245,470,1.33221,-6.81122,0,0,0,0,0,0,0,-1,979,554,1.33223,6.8112
-238,470,0,0,0,0,0,0,0,0,0,-1,986,554,0,0
-231,470,0,0,0,0,0,0,0,0,0,-1,993,554,0,0
-224,470,0,0,0,0,0,0,0,0,0,-1,1000,554,0,0
-217,470,0,0,0,0,0,0,0,0,0,-1,1007,554,0,0
-210,470,0,0,0,0,0,0,0,0,0,-1,1014,554,0,0
-203,470,0,0,0,0,0,0,0,0,0,-1,1021,554,0,0
-196,470,0,0,0,0,0,0,0,0,0,-1,1028,554,0,0
-189,470,0,0,0,0,0,0,0,0,0,-1,1035,554,0,0
-182,470,0,0,0,0,0,0,0,0,0,-1,1042,554,0,0
-175,470,0,0,0,0,0,0,0,0,0,-1,1049,554,0,0
-168,470,0,0,0,0,0,0,0,0,0,-1,1056,554,0,0
-161,470,0,0,0,0,0,0,0,0,0,-1,1063,554,0,0
-154,470,0,0,0,0,0,0,0,0,0,-1,1070,554,0,0
-147,470,0,0,0,0,0,0,0,0,0,-1,1077,554,0,0
-140,470,0,0,0,0,0,0,0,0,0,-1,1084,554,0,0
-133,470,0,0,0,0,0,0,0,0,0,-1,1091,554,0,0
-126,470,0,0,0,0,0,0,0,0,0,-1,1098,554,0,0
-119,470,0,0,0,0,0,0,0,0,0,-1,1105,554,0,0
-112,470,0,0,0,0,0,0,0,0,0,-1,1112,554,0,0
-105,470,0,0,0,0,0,0,0,0,0,-1,1119,554,0,0
-98,470,0,0,0,0,0,0,0,0,0,-1,1126,554,0,0
-91,470,0,0,0,0,0,0,0,0,0,-1,1133,554,0,0
-84,470,0,0,0,0,0,0,0,0,0,-1,1140,554,0,0
-77,470,0,0,0,0,0,0,0,0,0,-1,1147,554,0,0
-70,470,0,0,0,0,0,0,0,0,0,-1,1154,554,0,0
-63,470,0,0,0,0,0,0,0,0,0,-1,1161,554,0,0
-56,470,0,0,0,0,0,0,0,0,0,-1,1168,554,0,0
-49,470,0,0,0,0,0,0,0,0,0,-1,1175,554,0,0
-42,470,0,0,0,0,0,0,0,0,0,-1,1182,554,0,0
-35,470,0,0,0,0,0,0,0,0,0,-1,1189,554,0,0
-28,470,0,0,0,0,0,0,0,0,0,-1,1196,554,0,0
-21,470,0,0,0,0,0,0,0,0,0,-1,1203,554,0,0
-14,470,0,0,0,0,0,0,0,0,0,-1,1210,554,0,0
-7,470,0,0,0,0,0,0,0,0,0,-1,1217,554,0,0
0,470,0,0,0,0,0,0,0,0,0,-1,1224,554,0,0
7,470,0,0,0,0,0,0,0,0,0,-1,1231,554,0,0
14,470,0,0,0,0,0,0,0,0,0,-1,1238,554,0,0
21,470,0,0,0,0,0,0,0,0,0,-1,1245,554,0,0
28,470,0,0,0,0,0,0,0,0,0,-1,1252,554,0,0
35,470,0,0,0,0,0,0,0,0,0,-1,1259,554,0,0
42,470,0,0,0,0,0,0,0,0,0,-1,1266,554,0,0
49,470,0,0,0,0,0,0,0,0,0,-1,1273,554,0,0
56,470,0,0,0,0,0,0,0,0,0,-1,1280,554,0,0
63,470,0,0,0,0,0,0,0,0,0,-1,1287,554,0,0
70,470,0,0,0,0,0,0,0,0,0,-1,1294,554,0,0
77,470,0,0,0,0,0,0,0,0,0,-1,1301,554,0,0
84,470,0,0,0,0,0,0,0,0,0,-1,1308,554,0,0
91,470,0,0,0,0,0,0,0,0,0,-1,1315,554,0,0
98,470,0,0,0,0,0,0,0,0,0,-1,1322,554,0,0
105,470,0,0,0,0,0,0,0,0,0,-1,1329,554,0,0
112,470,0,0,0,0,0,0,0,0,0,-1,1336,554,0,0
119,470,0,0,0,0,0,0,0,0,0,-1,1343,554,0,0
126,470,0,0,0,0,0,0,0,0,0,-1,1350,554,0,0
133,470,0,0,0,0,0,0,0,0,0,-1,1357,554,0,0
140,470,0,0,0,0,0,0,0,0,0,-1,1364,554,0,0
147,470,0,0,0,0,0,0,0,0,0,-1,1371,554,0,0
154,470,0,0,0,0,0,0,0,0,0,-1,1378,554,0,0
161,470,0,0,0,0,0,0,0,0,0,-1,1385,554,0,0
168,470,0,0,0,0,0,0,0,0,0,-1,1392,554,0,0
175,470,0,0,0,0,0,0,0,0,0,-1,1399,554,0,0
182,470,0,0,0,0,0,0,0,0,0,-1,1406,554,0,0
189,470,0,0,0,0,0,0,0,0,0,-1,1413,554,0,0
196,470,0,0,0,0,0,0,0,0,0,-1,1420,554,0,0
203,470,0,0,0,0,0,0,0,0,0,-1,1427,554,0,0
210,470,0,0,0,0,0,0,0,0,0,-1,1434,554,0,0
217,470,0,0,0,0,0,0,0,0,0,-1,1441,554,0,0
224,470,0,0,0,0,0,0,0,0,0,-1,1448,554,0,0
231,470,0,0,0,0,0,0,0,0,0,-1,1455,554,0,0
238,470,0,0,0,0,0,0,0,0,0,-1,1462,554,0,0
245,470,0,0,0,0,0,0,0,0,0,-1,1469,554,0,0
252,470,0,0,0,0,0,0,0,0,0,-1,1476,554,0,0
259,470,0,0,0,0,0,0,0,0,0,-1,1483,554,0,0
266,470,0,0,0,0,0,0,0,0,0,-1,1490,554,0,0
273,470,0,0,0,0,0,0,0,0,0,-1,1497,554,0,0
280,470,0,0,0,0,0,0,0,0,0,-1,1504,554,0,0
287,470,0,0,0,0,0,0,0,0,0,-1,1511,554,0,0
294,470,0,0,0,0,0,0,0,0,0,-1,1518,554,0,0
301,470,0,0,0,0,0,0,0,0,0,-1,1525,554,0,0
308,470,0,0,0,0,0,0,0,0,0,-1,1532,554,0,0
315,470,0,0,0,0,0,0,0,0,0,-1,1539,554,0,0
322,470,0,0,0,0,0,0,0,0,0,-1,1546,554,0,0
329,470,0,0,0,0,0,0,0,0,0,-1,1553,554,0,0
336,470,0,0,0,0,0,0,0,0,0,-1,1560,554,0,0
343,470,0,0,0,0,0,0,0,0,0,-1,1567,554,0,0
350,470,0,0,0,0,0,0,0,0,0,-1,1574,554,0,0
357,470,0,0,0,0,0,0,0,0,0,-1,1581,554,0,0
364,470,1.33423,0.293335,0,0,0,0,0,0,0,-1,1588,554,1.33422,-0.293348
371,470,2.22498,-0.0305176,0,0,0,0,0,0,0,-1,1595,554,2.22494,0.0305046
378,470,6.27051,0.710083,0,0,0,0,0,0,0,-1,1602,554,6.27054,-0.710093
385,470,10.3657,1.47296,0,0,0,0,0,0,0,-1,1609,554,10.3657,-1.47299
392,470,15.3881,3.01935,0,0,0,0,0,0,0,-1,1616,554,15.388,-3.01937
399,470,18.4479,2.93793,0,0,0,0,0,0,0,-1,1623,554,18.4479,-2.93792
406,470,15.1896,1.36676,0,0,0,0,0,0,0,-1,1630,554,15.1896,-1.36679
413,470,6.55383,1.99207,0,0,0,0,0,0,0,-1,1637,554,6.5538,-1.99208
420,470,4.47095,0.845703,0,0,0,0,0,0,0,-1,1644,554,4.47098,-0.845718
427,470,3.51038,1.19684,0,0,0,0,0,0,0,-1,1651,554,3.51039,-1.19684
434,470,3.31775,-1.37427,0,0,0,0,0,0,0,-1,1658,554,3.31781,1.37426
441,470,2.55457,-2.05902,0,0,0,0,0,0,0,-1,1665,554,2.55461,2.05904
448,470,3.27258,-2.64032,0,0,0,0,0,0,0,-1,1672,554,3.27257,2.64029
455,470,7.63464,-6.15411,0,0,0,0,0,0,0,-1,1679,554,7.63466,6.1541
462,470,7.39587,-6.36334,0,0,0,0,0,0,0,-1,1686,554,7.39583,6.36335
469,470,7.2373,-6.10602,0,0,0,0,0,0,0,-1,1693,554,7.23729,6.10604
476,470,7.31165,-5.7218,0.00272269,0.00383026,0.001776,0.00513681,0.00141614,0.936529,0.00306361,0.0304886,1700,554,7.31162,5.7218
483,470,7.36536,-5.44391,0.0028491,0.00351101,0.0019015,0.00511015,0.00124997,0.87156,0.00307596,0.0142542,1707,554,7.36533,5.44392
490,470,7.35303,-5.18585,0.00287069,0.00318879,0.00192775,0.00496404,0.00109544,0.826557,0.00301138,0.0116329,1714,554,7.35305,5.18586
497,470,7.36133,-4.93713,0.00250125,0.00249531,0.00160704,0.00410532,0.000891238,0.784473,0.00249347,0.0121237,1721,554,7.36132,4.93711
504,470,7.3689,-4.68842,0.00200859,0.00194862,0.00125471,0.00323367,0.000723535,0.77345,0.00195964,0.0193289,1728,554,7.36884,4.68839
511,470,7.38354,-4.46649,0.00172536,0.0016445,0.0011591,0.00284473,0.000525128,0.767964,0.00174794,0.02606,1735,554,7.38357,4.46646
518,470,7.41418,-4.20978,0.00152649,0.00152182,0.00118439,0.00270855,0.000339764,0.784414,0.00170377,0.0242316,1742,554,7.41413,4.20979
525,470,7.38696,-3.88251,0.00147787,0.00173542,0.00134768,0.00296046,0.000252828,0.83303,0.001895,0.0146978,1749,554,7.38701,3.8825
532,470,7.34534,-3.5993,0.00165012,0.00230019,0.00176241,0.00376729,0.000183018,0.876588,0.0024528,0.0131352,1756,554,7.34537,3.59933
539,470,7.33838,-3.37445,0.00204368,0.00313268,0.00241715,0.0050659,0.000110459,0.896181,0.00334106,0.0162581,1763,554,7.33839,3.37446
546,470,7.33557,-3.10974,0.0027074,0.00439637,0.0033794,0.0070352,6.85672e-05,0.907837,0.00466744,0.0146344,1770,554,7.33552,3.10976
553,470,7.35034,-2.82745,0.00356033,0.00589246,0.00448868,0.00936406,8.8728e-05,0.912479,0.00621334,0.0120426,1777,554,7.35039,2.82745
560,470,7.37708,-2.534,0.00458787,0.00752307,0.00577081,0.01201,0.000100974,0.909916,0.0079732,0.0157736,1784,554,7.37708,2.53398
567,470,7.32715,-2.25867,0.00580867,0.00929588,0.00723,0.0149895,0.000115002,0.90372,0.00995492,0.0189016,1791,554,7.3271,2.25869
574,470,7.18457,-2.14404,0,0,0,0,0,0,0,-1,1798,554,7.18451,2.14402
581,470,8.24646,-4.06317,0,0,0,0,0,0,0,-1,1805,554,8.24648,4.06318
588,470,11.1803,1.74927,0,0,0,0,0,0,0,-1,1812,554,11.1803,-1.74926
595,470,4.72192,3.44116,0,0,0,0,0,0,0,-1,1819,554,4.72191,-3.44116
602,470,14.4307,2.76141,0,0,0,0,0,0,0,-1,1826,554,14.4306,-2.76139
609,470,20.9181,4.41058,0,0,0,0,0,0,0,-1,1833,554,20.9181,-4.4106
616,470,0,0,0,0,0,0,0,0,0,-1,1840,554,0,0
623,470,0,0,0,0,0,0,0,0,0,-1,1847,554,0,0
630,470,0,0,0,0,0,0,0,0,0,-1,1854,554,0,0
637,470,0,0,0,0,0,0,0,0,0,-1,1861,554,0,0
644,470,0,0,0,0,0,0,0,0,0,-1,1868,554,0,0
651,470,0,0,0,0,0,0,0,0,0,-1,1875,554,0,0
658,470,0,0,0,0,0,0,0,0,0,-1,1882,554,0,0
665,470,0,0,0,0,0,0,0,0,0,-1,1889,554,0,0
672,470,0,0,0,0,0,0,0,0,0,-1,1896,554,0,0
679,470,0,0,0,0,0,0,0,0,0,-1,1903,554,0,0
686,470,0,0,0,0,0,0,0,0,0,-1,1910,554,0,0
693,470,0,0,0,0,0,0,0,0,0,-1,1917,554,0,0
700,470,0,0,0,0,0,0,0,0,0,-1,1924,554,0,0
707,470,0,0,0,0,0,0,0,0,0,-1,1931,554,0,0
714,470,0,0,0,0,0,0,0,0,0,-1,1938,554,0,0
721,470,0,0,0,0,0,0,0,0,0,-1,1945,554,0,0
728,470,0,0,0,0,0,0,0,0,0,-1,1952,554,0,0
735,470,0,0,0,0,0,0,0,0,0,-1,1959,554,0,0
742,470,0,0,0,0,0,0,0,0,0,-1,1966,554,0,0
749,470,0,0,0,0,0,0,0,0,0,-1,1973,554,0,0
756,470,0,0,0,0,0,0,0,0,0,-1,1980,554,0,0
763,470,0,0,0,0,0,0,0,0,0,-1,1987,554,0,0
770,470,0,0,0,0,0,0,0,0,0,-1,1994,554,0,0
777,470,0,0,0,0,0,0,0,0,0,-1,2001,554,0,0
784,470,0,0,0,0,0,0,0,0,0,-1,2008,554,0,0
791,470,0,0,0,0,0,0,0,0,0,-1,2015,554,0,0
798,470,0,0,0,0,0,0,0,0,0,-1,2022,554,0,0
805,470,0,0,0,0,0,0,0,0,0,-1,2029,554,0,0
812,470,0,0,0,0,0,0,0,0,0,-1,2036,554,0,0
-700,463,0,0,0,0,0,0,0,0,0,-1,524,561,0,0
-693,463,0,0,0,0,0,0,0,0,0,-1,531,561,0,0
-686,463,0,0,0,0,0,0,0,0,0,-1,538,561,0,0
-679,463,0,0,0,0,0,0,0,0,0,-1,545,561,0,0
-672,463,0,0,0,0,0,0,0,0,0,-1,552,561,0,0
-665,463,0,0,0,0,0,0,0,0,0,-1,559,561,0,0
-658,463,0,0,0,0,0,0,0,0,0,-1,566,561,0,0
-651,463,0,0,0,0,0,0,0,0,0,-1,573,561,0,0
-644,463,0,0,0,0,0,0,0,0,0,-1,580,561,0,0
-637,463,0,0,0,0,0,0,0,0,0,-1,587,561,0,0
-630,463,0,0,0,0,0,0,0,0,0,-1,594,561,0,0
-623,463,0,0,0,0,0,0,0,0,0,-1,601,561,0,0
-616,463,0,0,0,0,0,0,0,0,0,-1,608,561,0,0
-609,463,0,0,0,0,0,0,0,0,0,-1,615,561,0,0
-602,463,0,0,0,0,0,0,0,0,0,-1,622,561,0,0
-595,463,0,0,0,0,0,0,0,0,0,-1,629,561,0,0
-588,463,0,0,0,0,0,0,0,0,0,-1,636,561,0,0
-581,463,0,0,0,0,0,0,0,0,0,-1,643,561,0,0
-574,463,0,0,0,0,0,0,0,0,0,-1,650,561,0,0
-567,463,0,0,0,0,0,0,0,0,0,-1,657,561,0,0
-560,463,0,0,0,0,0,0,0,0,0,-1,664,561,0,0
-553,463,0,0,0,0,0,0,0,0,0,-1,671,561,0,0
-546,463,0,0,0,0,0,0,0,0,0,-1,678,561,0,0
-539,463,0,0,0,0,0,0,0,0,0,-1,685,561,0,0
-532,463,0,0,0,0,0,0,0,0,0,-1,692,561,0,0
-525,463,0,0,0,0,0,0,0,0,0,-1,699,561,0,0
-518,463,0,0,0,0,0,0,0,0,0,-1,706,561,0,0
-511,463,0,0,0,0,0,0,0,0,0,-1,713,561,0,0
-504,463,0,0,0,0,0,0,0,0,0,-1,720,561,0,0
-497,463,-11.5931,1.22791,0,0,0,0,0,0,0,-1,727,561,-11.5931,-1.2279
-490,463,-7.96594,-1.6192,0,0,0,0,0,0,0,-1,734,561,-7.96596,1.61923
-483,463,-7.30029,-1.27533,0,0,0,0,0,0,0,-1,741,561,-7.30026,1.27533
-476,463,-6.8407,-1.11157,0,0,0,0,0,0,0,-1,748,561,-6.84072,1.11158
-469,463,-5.14545,-2.138,0,0,0,0,0,0,0,-1,755,561,-5.14546,2.13799
-462,463,-3.13672,-3.07977,0,0,0,0,0,0,0,-1,762,561,-3.13672,3.07974
-455,463,-2.05182,-3.18634,0,0,0,0,0,0,0,-1,769,561,-2.05179,3.18634
-448,463,-1.89288,-3.51099,0.011344,0.00537857,-0.00863405,0.017496,-0.000773452,-0.619086,0.0119302,0.0449045,776,561,-1.89288,3.51097
-441,463,-1.56134,-3.8479,0.00813287,0.00393378,-0.00629554,0.0126697,-0.000603085,-0.624449,0.00865452,0.0313641,783,561,-1.56135,3.84791
-434,463,-1.66199,-4.15717,0.00569671,0.00286487,-0.00453786,0.00903442,-0.000472843,-0.634172,0.00618659,0.0135941,790,561,-1.662,4.15715
-427,463,-1.68457,-4.40491,0.00390512,0.00221184,-0.0032718,0.00643805,-0.000321089,-0.658791,0.00440297,0.00945742,797,561,-1.68457,4.4049
-420,463,-1.6698,-4.65613,0.002476,0.00166457,-0.00220901,0.00431625,-0.000175677,-0.694578,0.00293781,0.010184,804,561,-1.66982,4.65612
-413,463,-1.67987,-4.91711,0.00143523,0.00105425,-0.00137045,0.00262836,-0.000138881,-0.716343,0.00180032,0.00893122,811,561,-1.67988,4.91713
-406,463,-1.70276,-5.15442,0.000752422,0.000531746,-0.000644697,0.00129615,-1.19872e-05,-0.700646,0.000868127,0.00784574,818,561,-1.70277,5.15439
-399,463,-1.69922,-5.39435,0.000324317,-0.000259022,8.60158e-05,0.000336736,-0.000271441,0.14339,0.000351805,0.0090722,825,561,-1.69924,5.39434
-392,463,-1.69189,-5.65082,0.000227401,-0.00144859,0.000776212,0.000531658,-0.00175285,0.37357,0.00138035,0.0092338,832,561,-1.69189,5.65084
-385,463,-1.69824,-5.89948,0.000794294,-0.00332387,0.00112391,0.00108106,-0.00361064,0.249819,0.00283696,0.010247,839,561,-1.69827,5.89949
-378,463,-1.70709,-6.14636,0.00156003,-0.00519654,0.00153596,0.00189281,-0.00552932,0.213359,0.00445331,0.0113428,846,561,-1.7071,6.14638
-371,463,-1.69324,-6.40619,0.00272941,-0.00741512,0.00166993,0.00299723,-0.00768295,0.159026,0.00636094,0.0115608,853,561,-1.69325,6.40618
-364,463,-1.67212,-6.59814,0.00437406,-0.0102441,0.00168569,0.00456593,-0.0104359,0.113334,0.00887959,0.0143286,860,561,-1.67209,6.59817
-357,463,-1.67969,-6.80865,0.00658523,-0.013589,0.00138073,0.00667929,-0.013683,0.0680174,0.0119858,0.0159541,867,561,-1.67966,6.80869
-350,463,-1.64325,-7.09955,0.00933658,-0.0176245,0.000798299,0.0093602,-0.0176481,0.0295748,0.0158361,0.0178412,874,561,-1.64324,7.09955
-343,463,-1.51453,-7.2146,0.0126826,-0.0224422,-0.000183156,0.0126835,-0.0224431,-0.00521425,0.0205397,0.0334836,881,561,-1.51455,7.21461
-336,463,-1.50427,-7.50916,0.0166481,-0.0280927,-0.00159455,0.0167049,-0.0281495,-0.0355795,0.0261762,0.0399111,888,561,-1.5043,7.50913
-329,463,-1.3537,-7.91998,0,0,0,0,0,0,0,-1,895,561,-1.35369,7.92001
-322,463,0.24762,-7.66815,0,0,0,0,0,0,0,-1,902,561,0.247602,7.66818
-315,463,-0.944763,-5.96234,0,0,0,0,0,0,0,-1,909,561,-0.94479,5.96237
-308,463,-1.1535,-3.17889,0,0,0,0,0,0,0,-1,916,561,-1.15352,3.17889
-301,463,-1.50366,-3.15338,0,0,0,0,0,0,0,-1,923,561,-1.50364,3.15341
-294,463,-2.35889,-3.93463,0,0,0,0,0,0,0,-1,930,561,-2.35886,3.93465
-287,463,-2.80322,2.73999,0,0,0,0,0,0,0,-1,937,561,-2.80322,-2.74
-280,463,-12.1693,5.75903,0,0,0,0,0,0,0,-1,944,561,-12.1693,-5.75903
-273,463,-9.35687,2.61792,0,0,0,0,0,0,0,-1,951,561,-9.3569,-2.61791
-266,463,-6.67712,-0.441833,0.557623,0.0930352,-0.363663,0.756851,-0.106193,-0.501181,0.543434,0.048976,958,561,-6.6771,0.441817
-259,463,-3.98285,-3.73212,0,0,0,0,0,0,0,-1,965,561,-3.98286,3.73209
-252,463,0,0,0,0,0,0,0,0,0,-1,972,561,0,0
-245,463,0,0,0,0,0,0,0,0,0,-1,979,561,0,0
-238,463,0,0,0,0,0,0,0,0,0,-1,986,561,0,0
-231,463,0,0,0,0,0,0,0,0,0,-1,993,561,0,0
-224,463,0,0,0,0,0,0,0,0,0,-1,1000,561,0,0
-217,463,0,0,0,0,0,0,0,0,0,-1,1007,561,0,0
-210,463,0,0,0,0,0,0,0,0,0,-1,1014,561,0,0
-203,463,0,0,0,0,0,0,0,0,0,-1,1021,561,0,0
-196,463,0,0,0,0,0,0,0,0,0,-1,1028,561,0,0
-189,463,0,0,0,0,0,0,0,0,0,-1,1035,561,0,0
-182,463,0,0,0,0,0,0,0,0,0,-1,1042,561,0,0
-175,463,0,0,0,0,0,0,0,0,0,-1,1049,561,0,0
-168,463,0,0,0,0,0,0,0,0,0,-1,1056,561,0,0
-161,463,0,0,0,0,0,0,0,0,0,-1,1063,561,0,0
-154,463,0,0,0,0,0,0,0,0,0,-1,1070,561,0,0
-147,463,0,0,0,0,0,0,0,0,0,-1,1077,561,0,0
-140,463,0,0,0,0,0,0,0,0,0,-1,1084,561,0,0
-133,463,0,0,0,0,0,0,0,0,0,-1,1091,561,0,0
-126,463,0,0,0,0,0,0,0,0,0,-1,1098,561,0,0
-119,463,0,0,0,0,0,0,0,0,0,-1,1105,561,0,0
-112,463,0,0,0,0,0,0,0,0,0,-1,1112,561,0,0
-105,463,0,0,0,0,0,0,0,0,0,-1,1119,561,0,0
-98,463,0,0,0,0,0,0,0,0,0,-1,1126,561,0,0
-91,463,0,0,0,0,0,0,0,0,0,-1,1133,561,0,0
-84,463,0,0,0,0,0,0,0,0,0,-1,1140,561,0,0
-77,463,0,0,0,0,0,0,0,0,0,-1,1147,561,0,0
-70,463,0,0,0,0,0,0,0,0,0,-1,1154,561,0,0
-63,463,0,0,0,0,0,0,0,0,0,-1,1161,561,0,0
-56,463,0,0,0,0,0,0,0,0,0,-1,1168,561,0,0
-49,463,0,0,0,0,0,0,0,0,0,-1,1175,561,0,0
-42,463,0,0,0,0,0,0,0,0,0,-1,1182,561,0,0
-35,463,0,0,0,0,0,0,0,0,0,-1,1189,561,0,0
-28,463,0,0,0,0,0,0,0,0,0,-1,1196,561,0,0
-21,463,0,0,0,0,0,0,0,0,0,-1,1203,561,0,0
-14,463,0,0,0,0,0,0,0,0,0,-1,1210,561,0,0
-7,463,0,0,0,0,0,0,0,0,0,-1,1217,561,0,0
0,463,0,0,0,0,0,0,0,0,0,-1,1224,561,0,0
7,463,0,0,0,0,0,0,0,0,0,-1,1231,561,0,0
14,463,0,0,0,0,0,0,0,0,0,-1,1238,561,0,0
21,463,0,0,0,0,0,0,0,0,0,-1,1245,561,0,0
28,463,0,0,0,0,0,0,0,0,0,-1,1252,561,0,0
35,463,0,0,0,0,0,0,0,0,0,-1,1259,561,0,0
42,463,0,0,0,0,0,0,0,0,0,-1,1266,561,0,0
49,463,0,0,0,0,0,0,0,0,0,-1,1273,561,0,0
56,463,0,0,0,0,0,0,0,0,0,-1,1280,561,0,0
63,463,0,0,0,0,0,0,0,0,0,-1,1287,561,0,0
70,463,0,0,0,0,0,0,0,0,0,-1,1294,561,0,0
77,463,0,0,0,0,0,0,0,0,0,-1,1301,561,0,0
84,463,0,0,0,0,0,0,0,0,0,-1,1308,561,0,0
91,463,0,0,0,0,0,0,0,0,0,-1,1315,561,0,0
98,463,0,0,0,0,0,0,0,0,0,-1,1322,561,0,0
105,463,0,0,0,0,0,0,0,0,0,-1,1329,561,0,0
112,463,0,0,0,0,0,0,0,0,0,-1,1336,561,0,0
119,463,0,0,0,0,0,0,0,0,0,-1,1343,561,0,0
126,463,0,0,0,0,0,0,0,0,0,-1,1350,561,0,0
133,463,0,0,0,0,0,0,0,0,0,-1,1357,561,0,0
140,463,0,0,0,0,0,0,0,0,0,-1,1364,561,0,0
147,463,0,0,0,0,0,0,0,0,0,-1,1371,561,0,0
154,463,0,0,0,0,0,0,0,0,0,-1,1378,561,0,0
161,463,0,0,0,0,0,0,0,0,0,-1,1385,561,0,0
168,463,0,0,0,0,0,0,0,0,0,-1,1392,561,0,0
175,463,0,0,0,0,0,0,0,0,0,-1,1399,561,0,0
182,463,0,0,0,0,0,0,0,0,0,-1,1406,561,0,0
189,463,0,0,0,0,0,0,0,0,0,-1,1413,561,0,0
196,463,0,0,0,0,0,0,0,0,0,-1,1420,561,0,0
203,463,0,0,0,0,0,0,0,0,0,-1,1427,561,0,0
210,463,0,0,0,0,0,0,0,0,0,-1,1434,561,0,0
217,463,0,0,0,0,0,0,0,0,0,-1,1441,561,0,0
224,463,0,0,0,0,0,0,0,0,0,-1,1448,561,0,0
231,463,0,0,0,0,0,0,0,0,0,-1,1455,561,0,0
238,463,0,0,0,0,0,0,0,0,0,-1,1462,561,0,0
245,463,0,0,0,0,0,0,0,0,0,-1,1469,561,0,0
252,463,0,0,0,0,0,0,0,0,0,-1,1476,561,0,0
259,463,0,0,0,0,0,0,0,0,0,-1,1483,561,0,0
266,463,0,0,0,0,0,0,0,0,0,-1,1490,561,0,0
273,463,0,0,0,0,0,0,0,0,0,-1,1497,561,0,0
280,463,0,0,0,0,0,0,0,0,0,-1,1504,561,0,0
287,463,0,0,0,0,0,0,0,0,0,-1,1511,561,0,0
294,463,0,0,0,0,0,0,0,0,0,-1,1518,561,0,0
301,463,0,0,0,0,0,0,0,0,0,-1,1525,561,0,0
308,463,0,0,0,0,0,0,0,0,0,-1,1532,561,0,0
315,463,0,0,0,0,0,0,0,0,0,-1,1539,561,0,0
322,463,0,0,0,0,0,0,0,0,0,-1,1546,561,0,0
329,463,0,0,0,0,0,0,0,0,0,-1,1553,561,0,0
336,463,0,0,0,0,0,0,0,0,0,-1,1560,561,0,0
343,463,0,0,0,0,0,0,0,0,0,-1,1567,561,0,0
350,463,0,0,0,0,0,0,0,0,0,-1,1574,561,0,0
357,463,0,0,0,0,0,0,0,0,0,-1,1581,561,0,0
364,463,0,0,0,0,0,0,0,0,0,-1,1588,561,0,0
371,463,1.75842,0.152588,0,0,0,0,0,0,0,-1,1595,561,1.75844,-0.152558
378,463,4.30493,0.169861,0,0,0,0,0,0,0,-1,1602,561,4.30489,-0.169877
385,463,8.49524,1.90533,0,0,0,0,0,0,0,-1,1609,561,8.49529,-1.90533
392,463,13.4452,2.6582,0,0,0,0,0,0,0,-1,1616,561,13.4452,-2.65821
399,463,19.6376,3.51965,0,0,0,0,0,0,0,-1,1623,561,19.6376,-3.51966
406,463,7.28088,1.38538,0,0,0,0,0,0,0,-1,1630,561,7.28091,-1.38537
413,463,8.05847,1.82239,0,0,0,0,0,0,0,-1,1637,561,8.05851,-1.82241
420,463,8.849,2.26611,0,0,0,0,0,0,0,-1,1644,561,8.84899,-2.26613
427,463,5.12207,1.69183,0,0,0,0,0,0,0,-1,1651,561,5.12206,-1.69184
434,463,4.59814,1.81995,0,0,0,0,0,0,0,-1,1658,561,4.59812,-1.81994
441,463,1.76392,-5.99225,0,0,0,0,0,0,0,-1,1665,561,1.7639,5.99225
448,463,2.49939,-4.30536,0,0,0,0,0,0,0,-1,1672,561,2.49941,4.30536
455,463,4.40295,-3.02557,0,0,0,0,0,0,0,-1,1679,561,4.40299,3.02558
462,463,5.38293,-4.06445,0,0,0,0,0,0,0,-1,1686,561,5.38289,4.06444
469,463,5.94373,-4.50647,0,0,0,0,0,0,0,-1,1693,561,5.94368,4.50646
476,463,7.24707,-6.00812,0,0,0,0,0,0,0,-1,1700,561,7.2471,6.0081
483,463,7.47839,-5.63684,0.00413402,0.00454502,0.00283704,0.007184,0.00149504,0.821552,0.00437694,0.0396393,1707,561,7.47842,5.63684
490,463,7.60254,-5.24603,0.00406948,0.00417157,0.00279796,0.00691895,0.00132209,0.794519,0.00424119,0.019984,1714,561,7.60251,5.24604
497,463,7.60461,-4.94171,0.00349409,0.00330387,0.00233638,0.0057373,0.00106066,0.765055,0.00352491,0.0125112,1721,561,7.6046,4.94172
504,463,7.6145,-4.67944,0.00266543,0.00245512,0.00176145,0.00432486,0.000795691,0.755584,0.00265801,0.0159029,1728,561,7.61447,4.67946
511,463,7.64648,-4.43317,0.00206866,0.00190066,0.00140978,0.00339694,0.000572371,0.755641,0.0021,0.0225263,1735,561,7.64645,4.43319
518,463,7.70728,-4.16321,0.00170415,0.00162155,0.00131064,0.00297415,0.000351561,0.769648,0.00187659,0.022673,1742,561,7.70724,4.16323
525,463,7.66211,-3.87579,0.0014851,0.00166185,0.00134149,0.00291787,0.000229081,0.81829,0.00187356,0.0184429,1749,561,7.66208,3.87577
532,463,7.64014,-3.61249,0.00144067,0.00197852,0.0015495,0.00328226,0.00013693,0.87132,0.00214399,0.0163501,1756,561,7.6401,3.61249
539,463,7.62415,-3.34698,0.00156174,0.0024501,0.00191477,0.00397153,4.0303e-05,0.89937,0.00263436,0.0162729,1763,561,7.6242,3.34696
546,463,7.59656,-3.10559,0.00191776,0.00331159,0.00253993,0.00524848,-1.91354e-05,0.919295,0.00350538,0.0127878,1770,561,7.59655,3.10558
553,463,7.59314,-2.80823,0.0024009,0.00429891,0.00322794,0.00671446,-1.46469e-05,0.928369,0.0044812,0.0114528,1777,561,7.59313,2.80824
560,463,7.63,-2.49396,0.00294936,0.00534064,0.00399179,0.008312,-2.20072e-05,0.930909,0.00554869,0.0125098,1784,561,7.63002,2.49397
567,463,7.56812,-2.24402,0.00360933,0.00644449,0.00484874,0.0100786,-2.48021e-05,0.927615,0.00672737,0.017784,1791,561,7.56816,2.24404
574,463,7.45435,-2.12854,0.00424038,0.00760089,0.00572101,0.0118833,-4.20148e-05,0.928232,0.00793623,0.0496848,1798,561,7.45436,2.12853
581,463,7.53296,-1.95343,0,0,0,0,0,0,0,-1,1805,561,7.53298,1.95343
588,463,1.97424,2.16016,0,0,0,0,0,0,0,-1,1812,561,1.97422,-2.16013
595,463,9.98657,2.99854,0,0,0,0,0,0,0,-1,1819,561,9.98662,-2.99856
602,463,17.2202,4.91302,0,0,0,0,0,0,0,-1,1826,561,17.2202,-4.91305
609,463,17.96,4.03131,0,0,0,0,0,0,0,-1,1833,561,17.96,-4.03132
616,463,20.8352,3.15131,0,0,0,0,0,0,0,-1,1840,561,20.8352,-3.1513
623,463,0,0,0,0,0,0,0,0,0,-1,1847,561,0,0
630,463,0,0,0,0,0,0,0,0,0,-1,1854,561,0,0
637,463,0,0,0,0,0,0,0,0,0,-1,1861,561,0,0
644,463,0,0,0,0,0,0,0,0,0,-1,1868,561,0,0
651,463,0,0,0,0,0,0,0,0,0,-1,1875,561,0,0
658,463,0,0,0,0,0,0,0,0,0,-1,1882,561,0,0
665,463,0,0,0,0,0,0,0,0,0,-1,1889,561,0,0
672,463,0,0,0,0,0,0,0,0,0,-1,1896,561,0,0
679,463,0,0,0,0,0,0,0,0,0,-1,1903,561,0,0
686,463,0,0,0,0,0,0,0,0,0,-1,1910,561,0,0
693,463,0,0,0,0,0,0,0,0,0,-1,1917,561,0,0
700,463,0,0,0,0,0,0,0,0,0,-1,1924,561,0,0
707,463,0,0,0,0,0,0,0,0,0,-1,1931,561,0,0
714,463,0,0,0,0,0,0,0,0,0,-1,1938,561,0,0
721,463,0,0,0,0,0,0,0,0,0,-1,1945,561,0,0
728,463,0,0,0,0,0,0,0,0,0,-1,1952,561,0,0
735,463,0,0,0,0,0,0,0,0,0,-1,1959,561,0,0
742,463,0,0,0,0,0,0,0,0,0,-1,1966,561,0,0
749,463,0,0,0,0,0,0,0,0,0,-1,1973,561,0,0
756,463,0,0,0,0,0,0,0,0,0,-1,1980,561,0,0
763,463,0,0,0,0,0,0,0,0,0,-1,1987,561,0,0
770,463,0,0,0,0,0,0,0,0,0,-1,1994,561,0,0
777,463,0,0,0,0,0,0,0,0,0,-1,2001,561,0,0
784,463,0,0,0,0,0,0,0,0,0,-1,2008,561,0,0
791,463,0,0,0,0,0,0,0,0,0,-1,2015,561,0,0
798,463,0,0,0,0,0,0,0,0,0,-1,2022,561,0,0
805,463,0,0,0,0,0,0,0,0,0,-1,2029,561,0,0
812,463,0,0,0,0,0,0,0,0,0,-1,2036,561,0,0
-700,456,0,0,0,0,0,0,0,0,0,-1,524,568,0,0
-693,456,0,0,0,0,0,0,0,0,0,-1,531,568,0,0
-686,456,0,0,0,0,0,0,0,0,0,-1,538,568,0,0
-679,456,0,0,0,0,0,0,0,0,0,-1,545,568,0,0
-672,456,0,0,0,0,0,0,0,0,0,-1,552,568,0,0
-665,456,0,0,0,0,0,0,0,0,0,-1,559,568,0,0
-658,456,0,0,0,0,0,0,0,0,0,-1,566,568,0,0
-651,456,0,0,0,0,0,0,0,0,0,-1,573,568,0,0
-644,456,0,0,0,0,0,0,0,0,0,-1,580,568,0,0
-637,456,0,0,0,0,0,0,0,0,0,-1,587,568,0,0
-630,456,0,0,0,0,0,0,0,0,0,-1,594,568,0,0
-623,456,0,0,0,0,0,0,0,0,0,-1,601,568,0,0
-616,456,0,0,0,0,0,0,0,0,0,-1,608,568,0,0
-609,456,0,0,0,0,0,0,0,0,0,-1,615,568,0,0
-602,456,0,0,0,0,0,0,0,0,0,-1,622,568,0,0
-595,456,0,0,0,0,0,0,0,0,0,-1,629,568,0,0
-588,456,0,0,0,0,0,0,0,0,0,-1,636,568,0,0
-581,456,0,0,0,0,0,0,0,0,0,-1,643,568,0,0
-574,456,0,0,0,0,0,0,0,0,0,-1,650,568,0,0
-567,456,0,0,0,0,0,0,0,0,0,-1,657,568,0,0
-560,456,0,0,0,0,0,0,0,0,0,-1,664,568,0,0
-553,456,0,0,0,0,0,0,0,0,0,-1,671,568,0,0
-546,456,0,0,0,0,0,0,0,0,0,-1,678,568,0,0
-539,456,0,0,0,0,0,0,0,0,0,-1,685,568,0,0
-532,456,0,0,0,0,0,0,0,0,0,-1,692,568,0,0
-525,456,0,0,0,0,0,0,0,0,0,-1,699,568,0,0
-518,456,0,0,0,0,0,0,0,0,0,-1,706,568,0,0
-511,456,0,0,0,0,0,0,0,0,0,-1,713,568,0,0
-504,456,-13.3015,0.873108,0,0,0,0,0,0,0,-1,720,568,-13.3015,-0.873114
-497,456,-8.65094,-2.38385,0,0,0,0,0,0,0,-1,727,568,-8.65095,2.38387
-490,456,-7.60706,-2.29663,0,0,0,0,0,0,0,-1,734,568,-7.60707,2.2966
-483,456,-6.44977,-2.14655,0,0,0,0,0,0,0,-1,741,568,-6.44978,2.14653
-476,456,-5.2099,-1.96356,0,0,0,0,0,0,0,-1,748,568,-5.20988,1.96356
-469,456,-2.81238,-3.51501,0,0,0,0,0,0,0,-1,755,568,-2.81237,3.51501
-462,456,-2.53406,-3.711,0,0,0,0,0,0,0,-1,762,568,-2.53405,3.71102
-455,456,-2.07355,-3.18469,0,0,0,0,0,0,0,-1,769,568,-2.07355,3.18468
-448,456,-1.93073,-3.55792,0.00963388,0.00426967,-0.00707833,0.0145212,-0.000617667,-0.604298,0.00989313,0.0345996,776,568,-1.9307,3.55791
-441,456,-1.86737,-3.90637,0.00705052,0.0032456,-0.00530428,0.0107832,-0.000487072,-0.613212,0.00735653,0.01571,783,568,-1.8674,3.90637
-434,456,-1.91589,-4.17578,0.00499408,0.00223792,-0.00376003,0.00762061,-0.000388608,-0.609745,0.00521477,0.00942231,790,568,-1.91589,4.1758
-427,456,-1.92517,-4.41107,0.00341993,0.00165806,-0.00260214,0.00528621,-0.000208219,-0.622182,0.00359556,0.00820329,797,568,-1.92519,4.41106
-420,456,-1.91736,-4.64856,0.0020828,0.00101847,-0.00157102,0.00320934,-0.000108072,-0.622096,0.00217648,0.00898452,804,568,-1.91738,4.64857
-413,456,-1.92743,-4.90332,0.00107241,0.000421198,-0.000724957,0.00154153,-4.79163e-05,-0.574328,0.00104402,0.00810618,811,568,-1.92743,4.90335
-406,456,-1.94611,-5.14551,0.000433038,-0.000143091,2.36521e-05,0.000434007,-0.00014406,0.0409616,0.00034746,0.0074894,818,568,-1.94611,5.14548
-399,456,-1.94336,-5.38074,5.47864e-05,-0.00109581,0.000822303,0.000483057,-0.00152408,0.480164,0.00120966,0.00873668,825,568,-1.94333,5.38075
-392,456,-1.93457,-5.63702,1.47443e-05,-0.00251296,0.00159183,0.000783438,-0.00328165,0.449874,0.00249034,0.00873873,832,568,-1.93456,5.63702
-385,456,-1.93719,-5.8819,0.000649381,-0.00478034,0.00200011,0.0013066,-0.00543755,0.317475,0.00413005,0.00927357,839,568,-1.93722,5.88187
-378,456,-1.94904,-6.13702,0.00147121,-0.00706842,0.00251189,0.00215527,-0.00775249,0.265882,0.00601683,0.0104386,846,568,-1.94902,6.13701
-371,456,-1.94531,-6.3927,0.00276786,-0.0098815,0.00278463,0.00335374,-0.0104674,0.207371,0.00832448,0.011417,853,568,-1.94534,6.39271
-364,456,-1.92969,-6.5993,0.00468234,-0.013523,0.00291011,0.00513621,-0.0139769,0.154715,0.0114216,0.0148361,860,568,-1.92968,6.59929
-357,456,-1.90741,-6.84741,0.00736136,-0.0179938,0.00266118,0.00763766,-0.0182701,0.103454,0.015372,0.0164962,867,568,-1.9074,6.84743
-350,456,-1.78363,-6.95203,0.010862,-0.0235225,0.00203567,0.0109821,-0.0236426,0.0589288,0.0204312,0.0332684,874,568,-1.78361,6.95203
-343,456,-1.42694,-6.65845,0.0153616,-0.030383,0.000849964,0.0153774,-0.0303988,0.0185721,0.0268991,0.0417912,881,568,-1.42691,6.65844
-336,456,-0.792114,-6.23657,0.0209649,-0.0385648,-0.00104459,0.0209832,-0.0385832,-0.0175401,0.0348875,0.0475885,888,568,-0.792107,6.2366
-329,456,-0.243835,-5.89624,0,0,0,0,0,0,0,-1,895,568,-0.243831,5.89625
-322,456,-0.662537,-7.66632,0,0,0,0,0,0,0,-1,902,568,-0.662564,7.66633
-315,456,-0.675476,-3.38397,0,0,0,0,0,0,0,-1,909,568,-0.675473,3.38399
-308,456,-1.1618,-3.15314,0,0,0,0,0,0,0,-1,916,568,-1.16178,3.15314
-301,456,-1.83551,-3.26447,0,0,0,0,0,0,0,-1,923,568,-1.8355,3.26449
-294,456,-2.93414,-3.35449,0,0,0,0,0,0,0,-1,930,568,-2.93413,3.35451
-287,456,-3.7569,-3.53101,0,0,0,0,0,0,0,-1,937,568,-3.75692,3.53101
-280,456,-3.58478,1.37744,0,0,0,0,0,0,0,-1,944,568,-3.58476,-1.37746
-273,456,-7.93915,1.9765,0,0,0,0,0,0,0,-1,951,568,-7.93916,-1.97652
-266,456,-5.47864,-0.988281,0,0,0,0,0,0,0,-1,958,568,-5.47862,0.988297
-259,456,0,0,0,0,0,0,0,0,0,-1,965,568,0,0
-252,456,0,0,0,0,0,0,0,0,0,-1,972,568,0,0
-245,456,0,0,0,0,0,0,0,0,0,-1,979,568,0,0
-238,456,0,0,0,0,0,0,0,0,0,-1,986,568,0,0
-231,456,0,0,0,0,0,0,0,0,0,-1,993,568,0,0
-224,456,0,0,0,0,0,0,0,0,0,-1,1000,568,0,0
-217,456,0,0,0,0,0,0,0,0,0,-1,1007,568,0,0
-210,456,0,0,0,0,0,0,0,0,0,-1,1014,568,0,0
-203,456,0,0,0,0,0,0,0,0,0,-1,1021,568,0,0
-196,456,0,0,0,0,0,0,0,0,0,-1,1028,568,0,0
-189,456,0,0,0,0,0,0,0,0,0,-1,1035,568,0,0
-182,456,0,0,0,0,0,0,0,0,0,-1,1042,568,0,0
-175,456,0,0,0,0,0,0,0,0,0,-1,1049,568,0,0
-168,456,0,0,0,0,0,0,0,0,0,-1,1056,568,0,0
-161,456,0,0,0,0,0,0,0,0,0,-1,1063,568,0,0
-154,456,0,0,0,0,0,0,0,0,0,-1,1070,568,0,0
-147,456,0,0,0,0,0,0,0,0,0,-1,1077,568,0,0
-140,456,0,0,0,0,0,0,0,0,0,-1,1084,568,0,0
-133,456,0,0,0,0,0,0,0,0,0,-1,1091,568,0,0
-126,456,0,0,0,0,0,0,0,0,0,-1,1098,568,0,0
-119,456,0,0,0,0,0,0,0,0,0,-1,1105,568,0,0
-112,456,0,0,0,0,0,0,0,0,0,-1,1112,568,0,0
-105,456,0,0,0,0,0,0,0,0,0,-1,1119,568,0,0
-98,456,0,0,0,0,0,0,0,0,0,-1,1126,568,0,0
-91,456,0,0,0,0,0,0,0,0,0,-1,1133,568,0,0
-84,456,0,0,0,0,0,0,0,0,0,-1,1140,568,0,0
-77,456,0,0,0,0,0,0,0,0,0,-1,1147,568,0,0
-70,456,0,0,0,0,0,0,0,0,0,-1,1154,568,0,0
-63,456,0,0,0,0,0,0,0,0,0,-1,1161,568,0,0
-56,456,0,0,0,0,0,0,0,0,0,-1,1168,568,0,0
-49,456,0,0,0,0,0,0,0,0,0,-1,1175,568,0,0
-42,456,0,0,0,0,0,0,0,0,0,-1,1182,568,0,0
-35,456,0,0,0,0,0,0,0,0,0,-1,1189,568,0,0
-28,456,0,0,0,0,0,0,0,0,0,-1,1196,568,0,0
-21,456,0,0,0,0,0,0,0,0,0,-1,1203,568,0,0
-14,456,0,0,0,0,0,0,0,0,0,-1,1210,568,0,0
-7,456,0,0,0,0,0,0,0,0,0,-1,1217,568,0,0
0,456,0,0,0,0,0,0,0,0,0,-1,1224,568,0,0
7,456,0,0,0,0,0,0,0,0,0,-1,1231,568,0,0
14,456,0,0,0,0,0,0,0,0,0,-1,1238,568,0,0
21,456,0,0,0,0,0,0,0,0,0,-1,1245,568,0,0
28,456,0,0,0,0,0,0,0,0,0,-1,1252,568,0,0
35,456,0,0,0,0,0,0,0,0,0,-1,1259,568,0,0
42,456,0,0,0,0,0,0,0,0,0,-1,1266,568,0,0
49,456,0,0,0,0,0,0,0,0,0,-1,1273,568,0,0
56,456,0,0,0,0,0,0,0,0,0,-1,1280,568,0,0
63,456,0,0,0,0,0,0,0,0,0,-1,1287,568,0,0
70,456,0,0,0,0,0,0,0,0,0,-1,1294,568,0,0
77,456,0,0,0,0,0,0,0,0,0,-1,1301,568,0,0
84,456,0,0,0,0,0,0,0,0,0,-1,1308,568,0,0
91,456,0,0,0,0,0,0,0,0,0,-1,1315,568,0,0
98,456,0,0,0,0,0,0,0,0,0,-1,1322,568,0,0
105,456,0,0,0,0,0,0,0,0,0,-1,1329,568,0,0
112,456,0,0,0,0,0,0,0,0,0,-1,1336,568,0,0
119,456,0,0,0,0,0,0,0,0,0,-1,1343,568,0,0
126,456,0,0,0,0,0,0,0,0,0,-1,1350,568,0,0
133,456,0,0,0,0,0,0,0,0,0,-1,1357,568,0,0
140,456,0,0,0,0,0,0,0,0,0,-1,1364,568,0,0
147,456,0,0,0,0,0,0,0,0,0,-1,1371,568,0,0
154,456,0,0,0,0,0,0,0,0,0,-1,1378,568,0,0
161,456,0,0,0,0,0,0,0,0,0,-1,1385,568,0,0
168,456,0,0,0,0,0,0,0,0,0,-1,1392,568,0,0
175,456,0,0,0,0,0,0,0,0,0,-1,1399,568,0,0
182,456,0,0,0,0,0,0,0,0,0,-1,1406,568,0,0
189,456,0,0,0,0,0,0,0,0,0,-1,1413,568,0,0
196,456,0,0,0,0,0,0,0,0,0,-1,1420,568,0,0
203,456,0,0,0,0,0,0,0,0,0,-1,1427,568,0,0
210,456,0,0,0,0,0,0,0,0,0,-1,1434,568,0,0
217,456,0,0,0,0,0,0,0,0,0,-1,1441,568,0,0
224,456,0,0,0,0,0,0,0,0,0,-1,1448,568,0,0
231,456,0,0,0,0,0,0,0,0,0,-1,1455,568,0,0
238,456,0,0,0,0,0,0,0,0,0,-1,1462,568,0,0
245,456,0,0,0,0,0,0,0,0,0,-1,1469,568,0,0
252,456,0,0,0,0,0,0,0,0,0,-1,1476,568,0,0
259,456,0,0,0,0,0,0,0,0,0,-1,1483,568,0,0
266,456,0,0,0,0,0,0,0,0,0,-1,1490,568,0,0
273,456,0,0,0,0,0,0,0,0,0,-1,1497,568,0,0
280,456,0,0,0,0,0,0,0,0,0,-1,1504,568,0,0
287,456,0,0,0,0,0,0,0,0,0,-1,1511,568,0,0
294,456,0,0,0,0,0,0,0,0,0,-1,1518,568,0,0
301,456,0,0,0,0,0,0,0,0,0,-1,1525,568,0,0
308,456,0,0,0,0,0,0,0,0,0,-1,1532,568,0,0
315,456,0,0,0,0,0,0,0,0,0,-1,1539,568,0,0
322,456,0,0,0,0,0,0,0,0,0,-1,1546,568,0,0
329,456,0,0,0,0,0,0,0,0,0,-1,1553,568,0,0
336,456,0,0,0,0,0,0,0,0,0,-1,1560,568,0,0
343,456,0,0,0,0,0,0,0,0,0,-1,1567,568,0,0
350,456,0,0,0,0,0,0,0,0,0,-1,1574,568,0,0
357,456,0,0,0,0,0,0,0,0,0,-1,1581,568,0,0
364,456,0,0,0,0,0,0,0,0,0,-1,1588,568,0,0
371,456,0,0,0,0,0,0,0,0,0,-1,1595,568,0,0
378,456,0,0,0,0,0,0,0,0,0,-1,1602,568,0,0
385,456,5.66284,0.660645,0,0,0,0,0,0,0,-1,1609,568,5.66285,-0.660615
392,456,15.1713,4.17755,0,0,0,0,0,0,0,-1,1616,568,15.1713,-4.17755
399,456,18.0848,4.00708,0,0,0,0,0,0,0,-1,1623,568,18.0848,-4.00706
406,456,20.9983,3.83655,0,0,0,0,0,0,0,-1,1630,568,20.9983,-3.83658
413,456,9.55115,1.49933,0,0,0,0,0,0,0,-1,1637,568,9.55119,-1.49933
420,456,6.33875,1.88824,0,0,0,0,0,0,0,-1,1644,568,6.33876,-1.88827
427,456,6.21375,2.02905,0,0,0,0,0,0,0,-1,1651,568,6.21372,-2.02904
434,456,3.0719,-4.86285,0,0,0,0,0,0,0,-1,1658,568,3.07184,4.86287
441,456,2.90344,-4.70459,0,0,0,0,0,0,0,-1,1665,568,2.90346,4.7046
448,456,3.06995,-4.93689,0,0,0,0,0,0,0,-1,1672,568,3.06991,4.93687
455,456,3.46582,-3.43701,0,0,0,0,0,0,0,-1,1679,568,3.46585,3.43698
462,456,4.68445,-4.45831,0,0,0,0,0,0,0,-1,1686,568,4.68439,4.45833
469,456,4.93201,-2.289,0,0,0,0,0,0,0,-1,1693,568,4.93197,2.28903
476,456,4.8363,-2.79364,0,0,0,0,0,0,0,-1,1700,568,4.83636,2.79363
483,456,7.43213,-6.03455,0,0,0,0,0,0,0,-1,1707,568,7.43216,6.03455
490,456,7.9187,-5.4967,0,0,0,0,0,0,0,-1,1714,568,7.91866,5.49668
497,456,7.89795,-5.03937,0.00466748,0.00415507,0.00319126,0.0076128,0.00120975,0.745342,0.00472387,0.0360759,1721,568,7.89792,5.03934
504,456,7.86279,-4.68329,0.00347033,0.00293605,0.00232146,0.00553998,0.000866411,0.728113,0.00344107,0.0113686,1728,568,7.8628,4.68326
511,456,7.88538,-4.41083,0.00255505,0.0020828,0.00165788,0.00399354,0.000644311,0.714661,0.0024757,0.0138705,1735,568,7.88541,4.41082
518,456,7.91626,-4.13885,0.00204416,0.0016427,0.00141561,0.0032732,0.000413659,0.71497,0.00205815,0.0159809,1742,568,7.91621,4.13887
525,456,7.90576,-3.87701,0.00167893,0.0015308,0.00132244,0.00292938,0.00028035,0.757424,0.0018665,0.0159508,1749,568,7.90578,3.87704
532,456,7.89551,-3.60199,0.00144606,0.00163794,0.00135136,0.00289676,0.000187232,0.820836,0.00187189,0.0157573,1756,568,7.89546,3.602
539,456,7.88318,-3.31439,0.00134078,0.00182818,0.0014847,0.00308905,7.99093e-05,0.866742,0.00203325,0.0185762,1763,568,7.88319,3.31441
546,456,7.85071,-3.06335,0.00145058,0.00238215,0.0018526,0.00382662,6.11111e-06,0.908557,0.00254905,0.0201206,1770,568,7.85073,3.06333
553,456,7.8457,-2.77234,0.00165811,0.00300809,0.00225385,0.00468586,-1.9656e-05,0.93089,0.00313048,0.0133706,1777,568,7.84567,2.77233
560,456,7.87695,-2.51471,0.00187921,0.00365468,0.00269319,0.00560267,-6.87805e-05,0.944602,0.00375825,0.0104724,1784,568,7.87695,2.51468
567,456,7.88293,-2.23322,0.00218663,0.00436235,0.0032202,0.00667348,-0.000124504,0.948291,0.00449106,0.0136942,1791,568,7.88291,2.23321
574,456,7.82971,-2.10431,0.00248211,0.00506952,0.00374765,0.00774048,-0.000188854,0.951596,0.00522441,0.0382821,1798,568,7.82975,2.10432
581,456,7.95288,-1.93323,0,0,0,0,0,0,0,-1,1805,568,7.95282,1.93325
588,456,5.23901,-0.0901489,0,0,0,0,0,0,0,-1,1812,568,5.23906,0.0901656
595,456,6.90063,3.14886,0,0,0,0,0,0,0,-1,1819,568,6.90066,-3.14887
602,456,12.3827,4.21948,0,0,0,0,0,0,0,-1,1826,568,12.3827,-4.21951
609,456,14.9966,3.5708,0,0,0,0,0,0,0,-1,1833,568,14.9966,-3.57083
616,456,17.7407,2.6579,0,0,0,0,0,0,0,-1,1840,568,17.7408,-2.6579
623,456,20.6838,1.7121,0,0,0,0,0,0,0,-1,1847,568,20.6838,-1.71208
630,456,0,0,0,0,0,0,0,0,0,-1,1854,568,0,0
637,456,0,0,0,0,0,0,0,0,0,-1,1861,568,0,0
644,456,0,0,0,0,0,0,0,0,0,-1,1868,568,0,0
651,456,0,0,0,0,0,0,0,0,0,-1,1875,568,0,0
658,456,0,0,0,0,0,0,0,0,0,-1,1882,568,0,0
665,456,0,0,0,0,0,0,0,0,0,-1,1889,568,0,0
672,456,0,0,0,0,0,0,0,0,0,-1,1896,568,0,0
679,456,0,0,0,0,0,0,0,0,0,-1,1903,568,0,0
686,456,0,0,0,0,0,0,0,0,0,-1,1910,568,0,0
693,456,0,0,0,0,0,0,0,0,0,-1,1917,568,0,0
700,456,0,0,0,0,0,0,0,0,0,-1,1924,568,0,0
707,456,0,0,0,0,0,0,0,0,0,-1,1931,568,0,0
714,456,0,0,0,0,0,0,0,0,0,-1,1938,568,0,0
721,456,0,0,0,0,0,0,0,0,0,-1,1945,568,0,0
728,456,0,0,0,0,0,0,0,0,0,-1,1952,568,0,0
735,456,0,0,0,0,0,0,0,0,0,-1,1959,568,0,0
742,456,0,0,0,0,0,0,0,0,0,-1,1966,568,0,0
749,456,0,0,0,0,0,0,0,0,0,-1,1973,568,0,0
756,456,0,0,0,0,0,0,0,0,0,-1,1980,568,0,0
763,456,0,0,0,0,0,0,0,0,0,-1,1987,568,0,0
770,456,0,0,0,0,0,0,0,0,0,-1,1994,568,0,0
777,456,0,0,0,0,0,0,0,0,0,-1,2001,568,0,0
784,456,0,0,0,0,0,0,0,0,0,-1,2008,568,0,0
791,456,0,0,0,0,0,0,0,0,0,-1,2015,568,0,0
798,456,0,0,0,0,0,0,0,0,0,-1,2022,568,0,0
805,456,0,0,0,0,0,0,0,0,0,-1,2029,568,0,0
812,456,0,0,0,0,0,0,0,0,0,-1,2036,568,0,0
-700,449,0,0,0,0,0,0,0,0,0,-1,524,575,0,0
-693,449,0,0,0,0,0,0,0,0,0,-1,531,575,0,0
-686,449,0,0,0,0,0,0,0,0,0,-1,538,575,0,0
-679,449,0,0,0,0,0,0,0,0,0,-1,545,575,0,0
-672,449,0,0,0,0,0,0,0,0,0,-1,552,575,0,0
-665,449,0,0,0,0,0,0,0,0,0,-1,559,575,0,0
-658,449,0,0,0,0,0,0,0,0,0,-1,566,575,0,0
-651,449,0,0,0,0,0,0,0,0,0,-1,573,575,0,0
-644,449,0,0,0,0,0,0,0,0,0,-1,580,575,0,0
-637,449,0,0,0,0,0,0,0,0,0,-1,587,575,0,0
-630,449,0,0,0,0,0,0,0,0,0,-1,594,575,0,0
-623,449,0,0,0,0,0,0,0,0,0,-1,601,575,0,0
-616,449,0,0,0,0,0,0,0,0,0,-1,608,575,0,0
-609,449,0,0,0,0,0,0,0,0,0,-1,615,575,0,0
-602,449,0,0,0,0,0,0,0,0,0,-1,622,575,0,0
-595,449,0,0,0,0,0,0,0,0,0,-1,629,575,0,0
-588,449,0,0,0,0,0,0,0,0,0,-1,636,575,0,0
-581,449,0,0,0,0,0,0,0,0,0,-1,643,575,0,0
-574,449,0,0,0,0,0,0,0,0,0,-1,650,575,0,0
-567,449,0,0,0,0,0,0,0,0,0,-1,657,575,0,0
-560,449,0,0,0,0,0,0,0,0,0,-1,664,575,0,0
-553,449,0,0,0,0,0,0,0,0,0,-1,671,575,0,0
-546,449,0,0,0,0,0,0,0,0,0,-1,678,575,0,0
-539,449,0,0,0,0,0,0,0,0,0,-1,685,575,0,0
-532,449,0,0,0,0,0,0,0,0,0,-1,692,575,0,0
-525,449,0,0,0,0,0,0,0,0,0,-1,699,575,0,0
-518,449,0,0,0,0,0,0,0,0,0,-1,706,575,0,0
-511,449,-0.941345,-4.4519,0,0,0,0,0,0,0,-1,713,575,-0.941356,4.45191
-504,449,-14.1078,0.318237,0,0,0,0,0,0,0,-1,720,575,-14.1078,-0.318231
-497,449,-5.80096,1.13574,0,0,0,0,0,0,0,-1,727,575,-5.80098,-1.13577
-490,449,-7.85406,-3.01788,0,0,0,0,0,0,0,-1,734,575,-7.85409,3.01788
-483,449,-6.14349,-2.40863,0,0,0,0,0,0,0,-1,741,575,-6.14349,2.40865
-476,449,-4.43286,-1.79944,0,0,0,0,0,0,0,-1,748,575,-4.43288,1.79943
-469,449,-2.38068,-2.56067,0,0,0,0,0,0,0,-1,755,575,-2.38068,2.56065
-462,449,-2.80847,-3.54919,0,0,0,0,0,0,0,-1,762,575,-2.8085,3.54917
-455,449,-2.47156,-3.54443,0.0110156,0.00457084,-0.00786871,0.0162961,-0.00070975,-0.591057,0.0111082,0.0487541,769,575,-2.47155,3.54445
-448,449,-2.14856,-3.62915,0.00824488,0.0033328,-0.00584885,0.0121324,-0.000554749,-0.586619,0.0082794,0.0242737,776,575,-2.14853,3.62918
-441,449,-2.14185,-3.93964,0.00608343,0.00263496,-0.00442247,0.0091059,-0.000387509,-0.599522,0.0062038,0.0138932,783,575,-2.14187,3.93966
-434,449,-2.17322,-4.18896,0.00427882,0.00170084,-0.00303389,0.00628619,-0.00030653,-0.584521,0.00429662,0.0119296,790,575,-2.17322,4.18895
-427,449,-2.19214,-4.43774,0.00283162,0.00117679,-0.00194463,0.00411754,-0.000109135,-0.584256,0.00278212,0.0121338,797,575,-2.19216,4.43777
-420,449,-2.16681,-4.65759,0.00152077,0.00042484,-0.000916266,0.00204042,-9.48146e-05,-0.51591,0.00139296,0.0119272,804,575,-2.16679,4.65761
-413,449,-2.16248,-4.89832,0.000482108,-0.000181257,-3.92952e-05,0.000484428,-0.000183577,-0.0589614,0.000398497,0.00934141,811,575,-2.1625,4.89832
-406,449,-2.18176,-5.1463,-0.000176855,-0.000818289,0.00075947,0.000326839,-0.00132198,0.585612,0.00100809,0.00811607,818,575,-2.18178,5.14632
-399,449,-2.18713,-5.39496,-0.000559779,-0.0019558,0.00165323,0.000536755,-0.00305233,0.585646,0.00223539,0.00819396,825,575,-2.18715,5.39494
-392,449,-2.18213,-5.64557,-0.000592289,-0.00362509,0.00254199,0.000851239,-0.00506862,0.516462,0.00369565,0.00943348,832,575,-2.18215,5.64559
-385,449,-2.16614,-5.87225,5.14037e-05,-0.00631869,0.00307808,0.0012957,-0.00756298,0.38416,0.00552477,0.00991767,839,575,-2.16612,5.87222
-378,449,-2.18024,-6.11017,0.000877397,-0.00912287,0.00376433,0.00213598,-0.0103815,0.32266,0.00773194,0.00926314,846,575,-2.18025,6.11017
-371,449,-2.19812,-6.36475,0.00226224,-0.0126823,0.00427637,0.00339939,-0.0138195,0.2599,0.0105306,0.0104852,853,575,-2.19814,6.36475
-364,449,-2.19287,-6.63397,0.0044333,-0.0173593,0.00462993,0.00537616,-0.0183021,0.200897,0.0143336,0.0184572,860,575,-2.19288,6.634
-357,449,-2.06488,-6.79846,0.00763998,-0.0232971,0.00455655,0.00829713,-0.0239542,0.143233,0.0193379,0.0338286,867,575,-2.06485,6.79847
-350,449,-1.80457,-6.54974,0.0120507,-0.0308854,0.00402041,0.0124239,-0.0312586,0.0925649,0.0259898,0.0490326,874,575,-1.80456,6.54975
-343,449,-1.67706,-6.59308,0,0,0,0,0,0,0,-1,881,575,-1.67707,6.59306
-336,449,-0.788574,-5.76691,0,0,0,0,0,0,0,-1,888,575,-0.78858,5.76691
-329,449,-0.733398,-7.78937,0,0,0,0,0,0,0,-1,895,575,-0.733398,7.78937
-322,449,-0.628845,-3.16669,0,0,0,0,0,0,0,-1,902,575,-0.628861,3.16667
-315,449,-0.540344,-3.21918,0,0,0,0,0,0,0,-1,909,575,-0.540336,3.21917
-308,449,-1.04413,-2.99341,0,0,0,0,0,0,0,-1,916,575,-1.04415,2.99338
-301,449,-1.58691,-2.80725,0,0,0,0,0,0,0,-1,923,575,-1.58692,2.80728
-294,449,-3.71118,-2.76086,0,0,0,0,0,0,0,-1,930,575,-3.71119,2.76087
-287,449,-4.4082,-2.69525,0,0,0,0,0,0,0,-1,937,575,-4.40822,2.69526
-280,449,-5.09955,-2.96295,0,0,0,0,0,0,0,-1,944,575,-5.09953,2.96297
-273,449,0,0,0,0,0,0,0,0,0,-1,951,575,0,0
-266,449,0,0,0,0,0,0,0,0,0,-1,958,575,0,0
-259,449,0,0,0,0,0,0,0,0,0,-1,965,575,0,0
-252,449,0,0,0,0,0,0,0,0,0,-1,972,575,0,0
-245,449,0,0,0,0,0,0,0,0,0,-1,979,575,0,0
-238,449,0,0,0,0,0,0,0,0,0,-1,986,575,0,0
-231,449,0,0,0,0,0,0,0,0,0,-1,993,575,0,0
-224,449,0,0,0,0,0,0,0,0,0,-1,1000,575,0,0
-217,449,0,0,0,0,0,0,0,0,0,-1,1007,575,0,0
-210,449,0,0,0,0,0,0,0,0,0,-1,1014,575,0,0
-203,449,0,0,0,0,0,0,0,0,0,-1,1021,575,0,0
-196,449,0,0,0,0,0,0,0,0,0,-1,1028,575,0,0
-189,449,0,0,0,0,0,0,0,0,0,-1,1035,575,0,0
-182,449,0,0,0,0,0,0,0,0,0,-1,1042,575,0,0
-175,449,0,0,0,0,0,0,0,0,0,-1,1049,575,0,0
-168,449,0,0,0,0,0,0,0,0,0,-1,1056,575,0,0
-161,449,0,0,0,0,0,0,0,0,0,-1,1063,575,0,0
-154,449,0,0,0,0,0,0,0,0,0,-1,1070,575,0,0
-147,449,0,0,0,0,0,0,0,0,0,-1,1077,575,0,0
-140,449,0,0,0,0,0,0,0,0,0,-1,1084,575,0,0
-133,449,0,0,0,0,0,0,0,0,0,-1,1091,575,0,0
-126,449,0,0,0,0,0,0,0,0,0,-1,1098,575,0,0
-119,449,0,0,0,0,0,0,0,0,0,-1,1105,575,0,0
-112,449,0,0,0,0,0,0,0,0,0,-1,1112,575,0,0
-105,449,0,0,0,0,0,0,0,0,0,-1,1119,575,0,0
-98,449,0,0,0,0,0,0,0,0,0,-1,1126,575,0,0
-91,449,0,0,0,0,0,0,0,0,0,-1,1133,575,0,0
-84,449,0,0,0,0,0,0,0,0,0,-1,1140,575,0,0
-77,449,0,0,0,0,0,0,0,0,0,-1,1147,575,0,0
-70,449,0,0,0,0,0,0,0,0,0,-1,1154,575,0,0
-63,449,0,0,0,0,0,0,0,0,0,-1,1161,575,0,0
-56,449,0,0,0,0,0,0,0,0,0,-1,1168,575,0,0
-49,449,0,0,0,0,0,0,0,0,0,-1,1175,575,0,0
-42,449,0,0,0,0,0,0,0,0,0,-1,1182,575,0,0
-35,449,0,0,0,0,0,0,0,0,0,-1,1189,575,0,0
-28,449,0,0,0,0,0,0,0,0,0,-1,1196,575,0,0
-21,449,0,0,0,0,0,0,0,0,0,-1,1203,575,0,0
-14,449,0,0,0,0,0,0,0,0,0,-1,1210,575,0,0
-7,449,0,0,0,0,0,0,0,0,0,-1,1217,575,0,0
0,449,0,0,0,0,0,0,0,0,0,-1,1224,575,0,0
7,449,0,0,0,0,0,0,0,0,0,-1,1231,575,0,0
14,449,0,0,0,0,0,0,0,0,0,-1,1238,575,0,0
21,449,0,0,0,0,0,0,0,0,0,-1,1245,575,0,0
28,449,0,0,0,0,0,0,0,0,0,-1,1252,575,0,0
35,449,0,0,0,0,0,0,0,0,0,-1,1259,575,0,0
42,449,0,0,0,0,0,0,0,0,0,-1,1266,575,0,0
49,449,0,0,0,0,0,0,0,0,0,-1,1273,575,0,0
56,449,0,0,0,0,0,0,0,0,0,-1,1280,575,0,0
63,449,0,0,0,0,0,0,0,0,0,-1,1287,575,0,0
70,449,0,0,0,0,0,0,0,0,0,-1,1294,575,0,0
77,449,0,0,0,0,0,0,0,0,0,-1,1301,575,0,0
84,449,0,0,0,0,0,0,0,0,0,-1,1308,575,0,0
91,449,0,0,0,0,0,0,0,0,0,-1,1315,575,0,0
98,449,0,0,0,0,0,0,0,0,0,-1,1322,575,0,0
105,449,0,0,0,0,0,0,0,0,0,-1,1329,575,0,0
112,449,0,0,0,0,0,0,0,0,0,-1,1336,575,0,0
119,449,0,0,0,0,0,0,0,0,0,-1,1343,575,0,0
126,449,0,0,0,0,0,0,0,0,0,-1,1350,575,0,0
133,449,0,0,0,0,0,0,0,0,0,-1,1357,575,0,0
140,449,0,0,0,0,0,0,0,0,0,-1,1364,575,0,0
147,449,0,0,0,0,0,0,0,0,0,-1,1371,575,0,0
154,449,0,0,0,0,0,0,0,0,0,-1,1378,575,0,0
161,449,0,0,0,0,0,0,0,0,0,-1,1385,575,0,0
168,449,0,0,0,0,0,0,0,0,0,-1,1392,575,0,0
175,449,0,0,0,0,0,0,0,0,0,-1,1399,575,0,0
182,449,0,0,0,0,0,0,0,0,0,-1,1406,575,0,0
189,449,0,0,0,0,0,0,0,0,0,-1,1413,575,0,0
196,449,0,0,0,0,0,0,0,0,0,-1,1420,575,0,0
203,449,0,0,0,0,0,0,0,0,0,-1,1427,575,0,0
210,449,0,0,0,0,0,0,0,0,0,-1,1434,575,0,0
217,449,0,0,0,0,0,0,0,0,0,-1,1441,575,0,0
224,449,0,0,0,0,0,0,0,0,0,-1,1448,575,0,0
231,449,0,0,0,0,0,0,0,0,0,-1,1455,575,0,0
238,449,0,0,0,0,0,0,0,0,0,-1,1462,575,0,0
245,449,0,0,0,0,0,0,0,0,0,-1,1469,575,0,0
252,449,0,0,0,0,0,0,0,0,0,-1,1476,575,0,0
259,449,0,0,0,0,0,0,0,0,0,-1,1483,575,0,0
266,449,0,0,0,0,0,0,0,0,0,-1,1490,575,0,0
273,449,0,0,0,0,0,0,0,0,0,-1,1497,575,0,0
280,449,0,0,0,0,0,0,0,0,0,-1,1504,575,0,0
287,449,0,0,0,0,0,0,0,0,0,-1,1511,575,0,0
294,449,0,0,0,0,0,0,0,0,0,-1,1518,575,0,0
301,449,0,0,0,0,0,0,0,0,0,-1,1525,575,0,0
308,449,0,0,0,0,0,0,0,0,0,-1,1532,575,0,0
315,449,0,0,0,0,0,0,0,0,0,-1,1539,575,0,0
322,449,0,0,0,0,0,0,0,0,0,-1,1546,575,0,0
329,449,0,0,0,0,0,0,0,0,0,-1,1553,575,0,0
336,449,0,0,0,0,0,0,0,0,0,-1,1560,575,0,0
343,449,0,0,0,0,0,0,0,0,0,-1,1567,575,0,0
350,449,0,0,0,0,0,0,0,0,0,-1,1574,575,0,0
357,449,0,0,0,0,0,0,0,0,0,-1,1581,575,0,0
364,449,0,0,0,0,0,0,0,0,0,-1,1588,575,0,0
371,449,0,0,0,0,0,0,0,0,0,-1,1595,575,0,0
378,449,0,0,0,0,0,0,0,0,0,-1,1602,575,0,0
385,449,0,0,0,0,0,0,0,0,0,-1,1609,575,0,0
392,449,7.95471,3.66217,0,0,0,0,0,0,0,-1,1616,575,7.95471,-3.66218
399,449,16.532,4.49445,0,0,0,0,0,0,0,-1,1623,575,16.532,-4.49446
406,449,16.9824,4.24963,0,0,0,0,0,0,0,-1,1630,575,16.9824,-4.24963
413,449,17.1477,2.617,0,0,0,0,0,0,0,-1,1637,575,17.1477,-2.61702
420,449,4.70264,2.21893,0,0,0,0,0,0,0,-1,1644,575,4.70263,-2.21894
427,449,8.96924,-4.53351,0,0,0,0,0,0,0,-1,1651,575,8.96925,4.53353
434,449,4.12927,-7.06952,0,0,0,0,0,0,0,-1,1658,575,4.12932,7.06952
441,449,3.89856,-6.06458,0,0,0,0,0,0,0,-1,1665,575,3.89855,6.06459
448,449,4.03198,-5.18207,0,0,0,0,0,0,0,-1,1672,575,4.03197,5.18207
455,449,4.21948,-4.09467,0,0,0,0,0,0,0,-1,1679,575,4.21952,4.09465
462,449,4.23181,-2.96924,0,0,0,0,0,0,0,-1,1686,575,4.23185,2.96926
469,449,4.51672,-2.95135,0,0,0,0,0,0,0,-1,1693,575,4.51672,2.95135
476,449,4.71838,-1.86688,0,0,0,0,0,0,0,-1,1700,575,4.71842,1.86689
483,449,4.87878,-1.73126,0,0,0,0,0,0,0,-1,1707,575,4.87875,1.73128
490,449,5.73279,-2.74573,0,0,0,0,0,0,0,-1,1714,575,5.73282,2.74575
497,449,8.13867,-5.2395,0,0,0,0,0,0,0,-1,1721,575,8.13867,5.23953
504,449,8.07874,-4.6955,0.00404051,0.00353186,0.00290576,0.00670305,0.000869315,0.741747,0.00420896,0.03933,1728,575,8.07879,4.69551
511,449,8.13232,-4.4082,0.00288506,0.00233728,0.0019211,0.0045517,0.000670643,0.714592,0.00283746,0.0109704,1735,575,8.13236,4.40818
518,449,8.15747,-4.14215,0.00232313,0.00173879,0.00155871,0.00361682,0.000445097,0.692752,0.00227739,0.0125779,1742,575,8.15752,4.14215
525,449,8.14783,-3.88184,0.00189758,0.00150466,0.00138296,0.00309796,0.000304276,0.714841,0.00197172,0.0120644,1749,575,8.14781,3.88182
532,449,8.12708,-3.62183,0.00156004,0.00144208,0.00127992,0.00278234,0.000219778,0.762374,0.00178615,0.0103062,1756,575,8.1271,3.62181
539,449,8.10535,-3.33435,0.00131912,0.00142292,0.00124172,0.00261383,0.000128213,0.806285,0.00170143,0.0129841,1763,575,8.10529,3.33435
546,449,8.11169,-3.06616,0.00126956,0.00173432,0.00141294,0.00293386,7.0021e-05,0.866902,0.00193299,0.0214476,1770,575,8.11165,3.06615
553,449,8.12158,-2.80499,0.00129854,0.00209083,0.00160927,0.00335199,3.73774e-05,0.906081,0.00222231,0.0147447,1777,575,8.12155,2.80499
560,449,8.14319,-2.5437,0.00130757,0.00245717,0.00182346,0.00379428,-2.9542e-05,0.938081,0.00253942,0.0125514,1784,575,8.14315,2.54367
567,449,8.12256,-2.26459,0.00141005,0.00288968,0.00212854,0.00440331,-0.000103574,0.952652,0.00297066,0.00916192,1791,575,8.12259,2.26456
574,449,8.12122,-1.96606,0.00158756,0.00333763,0.00249189,0.00510366,-0.000178468,0.954249,0.00346346,0.0191958,1798,575,8.12126,1.96604
581,449,8.09729,-1.68518,0.0017724,0.00387191,0.00297552,0.00597742,-0.000333119,0.95498,0.0041005,0.0465603,1805,575,8.09725,1.68518
588,449,8.09521,-1.1853,0,0,0,0,0,0,0,-1,1812,575,8.09523,1.18531
595,449,8.40454,-0.702637,0,0,0,0,0,0,0,-1,1819,575,8.40452,0.702635
602,449,9.46167,4.17444,0,0,0,0,0,0,0,-1,1826,575,9.46164,-4.17442
609,449,12.2028,3.18652,0,0,0,0,0,0,0,-1,1833,575,12.2027,-3.18655
616,449,14.9438,2.19867,0,0,0,0,0,0,0,-1,1840,575,14.9438,-2.19867
623,449,9.83789,-0.0820313,0,0,0,0,0,0,0,-1,1847,575,9.83794,0.0820443
630,449,8.90686,4.99329,0,0,0,0,0,0,0,-1,1854,575,8.90685,-4.99327
637,449,0,0,0,0,0,0,0,0,0,-1,1861,575,0,0
644,449,0,0,0,0,0,0,0,0,0,-1,1868,575,0,0
651,449,0,0,0,0,0,0,0,0,0,-1,1875,575,0,0
658,449,0,0,0,0,0,0,0,0,0,-1,1882,575,0,0
665,449,0,0,0,0,0,0,0,0,0,-1,1889,575,0,0
672,449,0,0,0,0,0,0,0,0,0,-1,1896,575,0,0
679,449,0,0,0,0,0,0,0,0,0,-1,1903,575,0,0
686,449,0,0,0,0,0,0,0,0,0,-1,1910,575,0,0
693,449,0,0,0,0,0,0,0,0,0,-1,1917,575,0,0
700,449,0,0,0,0,0,0,0,0,0,-1,1924,575,0,0
707,449,0,0,0,0,0,0,0,0,0,-1,1931,575,0,0
714,449,0,0,0,0,0,0,0,0,0,-1,1938,575,0,0
721,449,0,0,0,0,0,0,0,0,0,-1,1945,575,0,0
728,449,0,0,0,0,0,0,0,0,0,-1,1952,575,0,0
735,449,0,0,0,0,0,0,0,0,0,-1,1959,575,0,0
742,449,0,0,0,0,0,0,0,0,0,-1,1966,575,0,0
749,449,0,0,0,0,0,0,0,0,0,-1,1973,575,0,0
756,449,0,0,0,0,0,0,0,0,0,-1,1980,575,0,0
763,449,0,0,0,0,0,0,0,0,0,-1,1987,575,0,0
770,449,0,0,0,0,0,0,0,0,0,-1,1994,575,0,0
777,449,0,0,0,0,0,0,0,0,0,-1,2001,575,0,0
784,449,0,0,0,0,0,0,0,0,0,-1,2008,575,0,0
791,449,0,0,0,0,0,0,0,0,0,-1,2015,575,0,0
798,449,0,0,0,0,0,0,0,0,0,-1,2022,575,0,0
805,449,0,0,0,0,0,0,0,0,0,-1,2029,575,0,0
812,449,0,0,0,0,0,0,0,0,0,-1,2036,575,0,0
-700,442,0,0,0,0,0,0,0,0,0,-1,524,582,0,0
-693,442,0,0,0,0,0,0,0,0,0,-1,531,582,0,0
-686,442,0,0,0,0,0,0,0,0,0,-1,538,582,0,0
-679,442,0,0,0,0,0,0,0,0,0,-1,545,582,0,0
-672,442,0,0,0,0,0,0,0,0,0,-1,552,582,0,0
-665,442,0,0,0,0,0,0,0,0,0,-1,559,582,0,0
-658,442,0,0,0,0,0,0,0,0,0,-1,566,582,0,0
-651,442,0,0,0,0,0,0,0,0,0,-1,573,582,0,0
-644,442,0,0,0,0,0,0,0,0,0,-1,580,582,0,0
-637,442,0,0,0,0,0,0,0,0,0,-1,587,582,0,0
-630,442,0,0,0,0,0,0,0,0,0,-1,594,582,0,0
-623,442,0,0,0,0,0,0,0,0,0,-1,601,582,0,0
-616,442,0,0,0,0,0,0,0,0,0,-1,608,582,0,0
-609,442,0,0,0,0,0,0,0,0,0,-1,615,582,0,0
-602,442,0,0,0,0,0,0,0,0,0,-1,622,582,0,0
-595,442,0,0,0,0,0,0,0,0,0,-1,629,582,0,0
-588,442,0,0,0,0,0,0,0,0,0,-1,636,582,0,0
-581,442,0,0,0,0,0,0,0,0,0,-1,643,582,0,0
-574,442,0,0,0,0,0,0,0,0,0,-1,650,582,0,0
-567,442,0,0,0,0,0,0,0,0,0,-1,657,582,0,0
-560,442,0,0,0,0,0,0,0,0,0,-1,664,582,0,0
-553,442,0,0,0,0,0,0,0,0,0,-1,671,582,0,0
-546,442,0,0,0,0,0,0,0,0,0,-1,678,582,0,0
-539,442,0,0,0,0,0,0,0,0,0,-1,685,582,0,0
-532,442,0,0,0,0,0,0,0,0,0,-1,692,582,0,0
-525,442,0,0,0,0,0,0,0,0,0,-1,699,582,0,0
-518,442,-0.493774,-5.72943,0,0,0,0,0,0,0,-1,706,582,-0.493791,5.72946
-511,442,-1.68738,-5.91357,0,0,0,0,0,0,0,-1,713,582,-1.68736,5.91359
-504,442,-3.20807,-6.34082,0,0,0,0,0,0,0,-1,720,582,-3.2081,6.34083
-497,442,-13.6886,-0.250122,0,0,0,0,0,0,0,-1,727,582,-13.6886,0.250143
-490,442,-7.30066,-3.28326,0,0,0,0,0,0,0,-1,734,582,-7.30064,3.28329
-483,442,-5.604,-2.63538,0,0,0,0,0,0,0,-1,741,582,-5.604,2.63537
-476,442,-2.79602,-2.28821,0,0,0,0,0,0,0,-1,748,582,-2.79602,2.28822
-469,442,-2.3443,-3.00787,0,0,0,0,0,0,0,-1,755,582,-2.34429,3.00784
-462,442,-2.43353,-3.33624,0.0115291,0.00510626,-0.00849754,0.0174018,-0.000766448,-0.604733,0.0118649,0.0367253,762,582,-2.43355,3.33627
-455,442,-2.48419,-3.47632,0.00898488,0.00365851,-0.00644785,0.0132979,-0.0006545,-0.589552,0.00909129,0.0265516,769,582,-2.4842,3.47635
-448,442,-2.40228,-3.64734,0.00687893,0.00261361,-0.00482045,0.0100174,-0.000524874,-0.577132,0.00685993,0.013792,776,582,-2.40226,3.64732
-441,442,-2.39752,-3.91882,0.00506681,0.0021062,-0.00360953,0.00748778,-0.000314777,-0.590802,0.00510002,0.012939,783,582,-2.39753,3.91882
-434,442,-2.40613,-4.16998,0.00343344,0.00119616,-0.00230838,0.00487995,-0.000250346,-0.559772,0.00333988,0.0132002,790,582,-2.40615,4.17
-427,442,-2.43451,-4.42651,0.00205871,0.000680725,-0.00123948,0.00278783,-4.83887e-05,-0.531728,0.00187489,0.0131944,797,582,-2.43452,4.42651
-420,442,-2.40991,-4.66498,0.000744931,-0.000215507,-0.000178787,0.000777133,-0.000247709,-0.178202,0.000617449,0.0131409,804,582,-2.40993,4.665
-413,442,-2.40991,-4.89374,-0.000349273,-0.000871889,0.000763982,0.000196853,-0.00141802,0.620618,0.00101733,0.0107173,811,582,-2.40991,4.89375
-406,442,-2.42993,-5.14673,-0.00107096,-0.00162493,0.00165418,0.000329261,-0.00302515,0.702444,0.002135,0.00893795,818,582,-2.42996,5.14673
-399,442,-2.44446,-5.40973,-0.00150552,-0.00297281,0.00268069,0.000540104,-0.00501843,0.651829,0.00353942,0.00841621,825,582,-2.44447,5.40975
-392,442,-2.42834,-5.64026,-0.00158217,-0.00491271,0.0037382,0.000844896,-0.00733978,0.575856,0.00519776,0.0103935,832,582,-2.42834,5.64023
-385,442,-2.41498,-5.86469,-0.0010009,-0.00804948,0.00447751,0.00117294,-0.0102233,0.451983,0.00723828,0.0111588,839,582,-2.41498,5.8647
-378,442,-2.42767,-6.11902,-0.000251606,-0.0114526,0.00542603,0.00194581,-0.01365,0.38479,0.00981311,0.0110333,846,582,-2.42765,6.11899
-371,442,-2.45764,-6.41266,0.00114594,-0.0158962,0.00628964,0.00321582,-0.0179661,0.31793,0.0131807,0.0217761,853,582,-2.45766,6.41264
-364,442,-2.53394,-6.71997,0.00354108,-0.0218334,0.0070031,0.00534555,-0.0236378,0.252181,0.0178098,0.0367681,860,582,-2.53393,6.71999
-357,442,-2.26074,-6.86249,0,0,0,0,0,0,0,-1,867,582,-2.26076,6.86252
-350,442,-1.75372,-6.27618,0,0,0,0,0,0,0,-1,874,582,-1.75371,6.27618
-343,442,-1.4599,-4.63605,0,0,0,0,0,0,0,-1,881,582,-1.4599,4.63607
-336,442,-1.4054,-2.64313,0,0,0,0,0,0,0,-1,888,582,-1.40539,2.64315
-329,442,-0.952576,-2.76923,0,0,0,0,0,0,0,-1,895,582,-0.952571,2.7692
-322,442,-0.972534,-2.63208,0,0,0,0,0,0,0,-1,902,582,-0.972512,2.6321
-315,442,-0.445557,-2.89764,0,0,0,0,0,0,0,-1,909,582,-0.445582,2.89765
-308,442,-0.654175,-3.07831,0,0,0,0,0,0,0,-1,916,582,-0.654145,3.07832
-301,442,-1.37427,-2.41455,0,0,0,0,0,0,0,-1,923,582,-1.37425,2.41453
-294,442,-2.99963,-2.07855,0,0,0,0,0,0,0,-1,930,582,-2.99964,2.07857
-287,442,-5.62799,-2.76422,0,0,0,0,0,0,0,-1,937,582,-5.628,2.76424
-280,442,0,0,0,0,0,0,0,0,0,-1,944,582,0,0
-273,442,0,0,0,0,0,0,0,0,0,-1,951,582,0,0
-266,442,0,0,0,0,0,0,0,0,0,-1,958,582,0,0
-259,442,0,0,0,0,0,0,0,0,0,-1,965,582,0,0
-252,442,0,0,0,0,0,0,0,0,0,-1,972,582,0,0
-245,442,0,0,0,0,0,0,0,0,0,-1,979,582,0,0
-238,442,0,0,0,0,0,0,0,0,0,-1,986,582,0,0
-231,442,0,0,0,0,0,0,0,0,0,-1,993,582,0,0
-224,442,0,0,0,0,0,0,0,0,0,-1,1000,582,0,0
-217,442,0,0,0,0,0,0,0,0,0,-1,1007,582,0,0
-210,442,0,0,0,0,0,0,0,0,0,-1,1014,582,0,0
-203,442,0,0,0,0,0,0,0,0,0,-1,1021,582,0,0
-196,442,0,0,0,0,0,0,0,0,0,-1,1028,582,0,0
-189,442,0,0,0,0,0,0,0,0,0,-1,1035,582,0,0
-182,442,0,0,0,0,0,0,0,0,0,-1,1042,582,0,0
-175,442,0,0,0,0,0,0,0,0,0,-1,1049,582,0,0
-168,442,0,0,0,0,0,0,0,0,0,-1,1056,582,0,0
-161,442,0,0,0,0,0,0,0,0,0,-1,1063,582,0,0
-154,442,0,0,0,0,0,0,0,0,0,-1,1070,582,0,0
-147,442,0,0,0,0,0,0,0,0,0,-1,1077,582,0,0
-140,442,0,0,0,0,0,0,0,0,0,-1,1084,582,0,0
-133,442,0,0,0,0,0,0,0,0,0,-1,1091,582,0,0
-126,442,0,0,0,0,0,0,0,0,0,-1,1098,582,0,0
-119,442,0,0,0,0,0,0,0,0,0,-1,1105,582,0,0
-112,442,0,0,0,0,0,0,0,0,0,-1,1112,582,0,0
-105,442,0,0,0,0,0,0,0,0,0,-1,1119,582,0,0
-98,442,0,0,0,0,0,0,0,0,0,-1,1126,582,0,0
-91,442,0,0,0,0,0,0,0,0,0,-1,1133,582,0,0
-84,442,0,0,0,0,0,0,0,0,0,-1,1140,582,0,0
-77,442,0,0,0,0,0,0,0,0,0,-1,1147,582,0,0
-70,442,0,0,0,0,0,0,0,0,0,-1,1154,582,0,0
-63,442,0,0,0,0,0,0,0,0,0,-1,1161,582,0,0
-56,442,0,0,0,0,0,0,0,0,0,-1,1168,582,0,0
-49,442,0,0,0,0,0,0,0,0,0,-1,1175,582,0,0
-42,442,0,0,0,0,0,0,0,0,0,-1,1182,582,0,0
-35,442,0,0,0,0,0,0,0,0,0,-1,1189,582,0,0
-28,442,0,0,0,0,0,0,0,0,0,-1,1196,582,0,0
-21,442,0,0,0,0,0,0,0,0,0,-1,1203,582,0,0
-14,442,0,0,0,0,0,0,0,0,0,-1,1210,582,0,0
-7,442,0,0,0,0,0,0,0,0,0,-1,1217,582,0,0
0,442,0,0,0,0,0,0,0,0,0,-1,1224,582,0,0
7,442,0,0,0,0,0,0,0,0,0,-1,1231,582,0,0
14,442,0,0,0,0,0,0,0,0,0,-1,1238,582,0,0
21,442,0,0,0,0,0,0,0,0,0,-1,1245,582,0,0
28,442,0,0,0,0,0,0,0,0,0,-1,1252,582,0,0
35,442,0,0,0,0,0,0,0,0,0,-1,1259,582,0,0
42,442,0,0,0,0,0,0,0,0,0,-1,1266,582,0,0
49,442,0,0,0,0,0,0,0,0,0,-1,1273,582,0,0
56,442,0,0,0,0,0,0,0,0,0,-1,1280,582,0,0
63,442,0,0,0,0,0,0,0,0,0,-1,1287,582,0,0
70,442,0,0,0,0,0,0,0,0,0,-1,1294,582,0,0
77,442,0,0,0,0,0,0,0,0,0,-1,1301,582,0,0
84,442,0,0,0,0,0,0,0,0,0,-1,1308,582,0,0
91,442,0,0,0,0,0,0,0,0,0,-1,1315,582,0,0
98,442,0,0,0,0,0,0,0,0,0,-1,1322,582,0,0
105,442,0,0,0,0,0,0,0,0,0,-1,1329,582,0,0
112,442,0,0,0,0,0,0,0,0,0,-1,1336,582,0,0
119,442,0,0,0,0,0,0,0,0,0,-1,1343,582,0,0
126,442,0,0,0,0,0,0,0,0,0,-1,1350,582,0,0
133,442,0,0,0,0,0,0,0,0,0,-1,1357,582,0,0
140,442,0,0,0,0,0,0,0,0,0,-1,1364,582,0,0
147,442,0,0,0,0,0,0,0,0,0,-1,1371,582,0,0
154,442,0,0,0,0,0,0,0,0,0,-1,1378,582,0,0
161,442,0,0,0,0,0,0,0,0,0,-1,1385,582,0,0
168,442,0,0,0,0,0,0,0,0,0,-1,1392,582,0,0
175,442,0,0,0,0,0,0,0,0,0,-1,1399,582,0,0
182,442,0,0,0,0,0,0,0,0,0,-1,1406,582,0,0
189,442,0,0,0,0,0,0,0,0,0,-1,1413,582,0,0
196,442,0,0,0,0,0,0,0,0,0,-1,1420,582,0,0
203,442,0,0,0,0,0,0,0,0,0,-1,1427,582,0,0
210,442,0,0,0,0,0,0,0,0,0,-1,1434,582,0,0
217,442,0,0,0,0,0,0,0,0,0,-1,1441,582,0,0
224,442,0,0,0,0,0,0,0,0,0,-1,1448,582,0,0
231,442,0,0,0,0,0,0,0,0,0,-1,1455,582,0,0
238,442,0,0,0,0,0,0,0,0,0,-1,1462,582,0,0
245,442,0,0,0,0,0,0,0,0,0,-1,1469,582,0,0
252,442,0,0,0,0,0,0,0,0,0,-1,1476,582,0,0
259,442,0,0,0,0,0,0,0,0,0,-1,1483,582,0,0
266,442,0,0,0,0,0,0,0,0,0,-1,1490,582,0,0
273,442,0,0,0,0,0,0,0,0,0,-1,1497,582,0,0
280,442,0,0,0,0,0,0,0,0,0,-1,1504,582,0,0
287,442,0,0,0,0,0,0,0,0,0,-1,1511,582,0,0
294,442,0,0,0,0,0,0,0,0,0,-1,1518,582,0,0
301,442,0,0,0,0,0,0,0,0,0,-1,1525,582,0,0
308,442,0,0,0,0,0,0,0,0,0,-1,1532,582,0,0
315,442,0,0,0,0,0,0,0,0,0,-1,1539,582,0,0
322,442,0,0,0,0,0,0,0,0,0,-1,1546,582,0,0
329,442,0,0,0,0,0,0,0,0,0,-1,1553,582,0,0
336,442,0,0,0,0,0,0,0,0,0,-1,1560,582,0,0
343,442,0,0,0,0,0,0,0,0,0,-1,1567,582,0,0
350,442,0,0,0,0,0,0,0,0,0,-1,1574,582,0,0
357,442,0,0,0,0,0,0,0,0,0,-1,1581,582,0,0
364,442,0,0,0,0,0,0,0,0,0,-1,1588,582,0,0
371,442,0,0,0,0,0,0,0,0,0,-1,1595,582,0,0
378,442,0,0,0,0,0,0,0,0,0,-1,1602,582,0,0
385,442,0,0,0,0,0,0,0,0,0,-1,1609,582,0,0
392,442,0,0,0,0,0,0,0,0,0,-1,1616,582,0,0
399,442,0,0,0,0,0,0,0,0,0,-1,1623,582,0,0
406,442,14.1736,4.27441,0,0,0,0,0,0,0,-1,1630,582,14.1736,-4.27439
413,442,3.66699,2.87408,0,0,0,0,0,0,0,-1,1637,582,3.66703,-2.87408
420,442,4.69055,3.09448,0,0,0,0,0,0,0,-1,1644,582,4.69054,-3.0945
427,442,2.44519,-1.35358,0,0,0,0,0,0,0,-1,1651,582,2.44514,1.35361
434,442,8.45898,-3.86719,0,0,0,0,0,0,0,-1,1658,582,8.45904,3.86719
441,442,4.89368,-7.42456,0,0,0,0,0,0,0,-1,1665,582,4.89365,7.42457
448,442,4.7749,-5.88562,0,0,0,0,0,0,0,-1,1672,582,4.7749,5.8856
455,442,4.87024,-4.60687,0,0,0,0,0,0,0,-1,1679,582,4.87019,4.60686
462,442,5.02307,-3.72821,0,0,0,0,0,0,0,-1,1686,582,5.02311,3.7282
469,442,5.12976,-2.98834,0,0,0,0,0,0,0,-1,1693,582,5.12971,2.98834
476,442,5.4624,1.76947,0,0,0,0,0,0,0,-1,1700,582,5.46234,-1.76944
483,442,5.98486,1.87042,0,0,0,0,0,0,0,-1,1707,582,5.98492,-1.87045
490,442,5.04407,-2.35834,0,0,0,0,0,0,0,-1,1714,582,5.04411,2.35837
497,442,6.20984,-3.07831,0,0,0,0,0,0,0,-1,1721,582,6.2098,3.07833
504,442,8.2063,-4.69415,0,0,0,0,0,0,0,-1,1728,582,8.20632,4.69416
511,442,8.32886,-4.42548,0.00318013,0.00254592,0.0020851,0.0049721,0.000753945,0.709936,0.00309419,0.0251056,1735,582,8.32885,4.42548
518,442,8.42798,-4.11877,0.00259241,0.0018026,0.00165548,0.00389944,0.000495578,0.668314,0.00245119,0.011127,1742,582,8.42798,4.11876
525,442,8.41724,-3.87433,0.00213656,0.0014736,0.0014579,0.00330019,0.000309977,0.673614,0.00210442,0.00989347,1749,582,8.4172,3.87431
532,442,8.41248,-3.61658,0.00172919,0.00127676,0.00128205,0.00280483,0.000201122,0.698074,0.00180658,0.0102872,1756,582,8.41252,3.61659
539,442,8.39185,-3.32959,0.00139584,0.00111658,0.00113601,0.00240077,0.000111659,0.724248,0.00156462,0.0116741,1763,582,8.39179,3.32959
546,442,8.40527,-3.08978,0.00122876,0.00125008,0.00116679,0.00240626,7.25746e-05,0.789966,0.00158054,0.0144389,1770,582,8.40526,3.08977
553,442,8.38831,-2.80768,0.00113064,0.00143321,0.00122915,0.00252035,4.35018e-05,0.84663,0.00166592,0.0143657,1777,582,8.38831,2.80771
560,442,8.39612,-2.51447,0.000996986,0.00163842,0.00130021,0.00265688,-2.14754e-05,0.906318,0.00177846,0.0128378,1784,582,8.39617,2.51447
567,442,8.37573,-2.26642,0.000955743,0.00192562,0.00146458,0.00298346,-0.000102096,0.945273,0.00202386,0.00935365,1791,582,8.37575,2.26641
574,442,8.37842,-1.99603,0.00104982,0.00226252,0.00173241,0.00349163,-0.000179286,0.953738,0.00238976,0.0118305,1798,582,8.37844,1.99606
581,442,8.41333,-1.68445,0.00120097,0.00270967,0.00210904,0.00419521,-0.000284571,0.957145,0.00289632,0.0183377,1805,582,8.41334,1.68443
588,442,8.35974,-1.5119,0.00151183,0.00326511,0.00264971,0.00517943,-0.000402489,0.945153,0.00359464,0.0284405,1812,582,8.3597,1.51191
595,442,8.41016,-1.04016,0.00198367,0.00416926,0.0034309,0.0066772,-0.000524271,0.939576,0.00463612,0.0446712,1819,582,8.41011,1.04017
602,442,8.36133,-0.6745,0,0,0,0,0,0,0,-1,1826,582,8.36128,0.674514
609,442,9.38428,2.86908,0,0,0,0,0,0,0,-1,1833,582,9.38429,-2.86906
616,442,9.78345,-0.103394,0,0,0,0,0,0,0,-1,1840,582,9.78341,0.103424
623,442,9.23828,0.326721,0,0,0,0,0,0,0,-1,1847,582,9.23829,-0.326727
630,442,7.74304,2.3924,0,0,0,0,0,0,0,-1,1854,582,7.7431,-2.39238
637,442,5.87805,1.84027,0,0,0,0,0,0,0,-1,1861,582,5.87807,-1.84025
644,442,0,0,0,0,0,0,0,0,0,-1,1868,582,0,0
651,442,0,0,0,0,0,0,0,0,0,-1,1875,582,0,0
658,442,0,0,0,0,0,0,0,0,0,-1,1882,582,0,0
665,442,0,0,0,0,0,0,0,0,0,-1,1889,582,0,0
672,442,0,0,0,0,0,0,0,0,0,-1,1896,582,0,0
679,442,0,0,0,0,0,0,0,0,0,-1,1903,582,0,0
686,442,0,0,0,0,0,0,0,0,0,-1,1910,582,0,0
693,442,0,0,0,0,0,0,0,0,0,-1,1917,582,0,0
700,442,0,0,0,0,0,0,0,0,0,-1,1924,582,0,0
707,442,0,0,0,0,0,0,0,0,0,-1,1931,582,0,0
714,442,0,0,0,0,0,0,0,0,0,-1,1938,582,0,0
721,442,0,0,0,0,0,0,0,0,0,-1,1945,582,0,0
728,442,0,0,0,0,0,0,0,0,0,-1,1952,582,0,0
735,442,0,0,0,0,0,0,0,0,0,-1,1959,582,0,0
742,442,0,0,0,0,0,0,0,0,0,-1,1966,582,0,0
749,442,0,0,0,0,0,0,0,0,0,-1,1973,582,0,0
756,442,0,0,0,0,0,0,0,0,0,-1,1980,582,0,0
763,442,0,0,0,0,0,0,0,0,0,-1,1987,582,0,0
770,442,0,0,0,0,0,0,0,0,0,-1,1994,582,0,0
777,442,0,0,0,0,0,0,0,0,0,-1,2001,582,0,0
784,442,0,0,0,0,0,0,0,0,0,-1,2008,582,0,0
791,442,0,0,0,0,0,0,0,0,0,-1,2015,582,0,0
798,442,0,0,0,0,0,0,0,0,0,-1,2022,582,0,0
805,442,0,0,0,0,0,0,0,0,0,-1,2029,582,0,0
812,442,0,0,0,0,0,0,0,0,0,-1,2036,582,0,0
-700,435,0,0,0,0,0,0,0,0,0,-1,524,589,0,0
-693,435,0,0,0,0,0,0,0,0,0,-1,531,589,0,0
-686,435,0,0,0,0,0,0,0,0,0,-1,538,589,0,0
-679,435,0,0,0,0,0,0,0,0,0,-1,545,589,0,0
-672,435,0,0,0,0,0,0,0,0,0,-1,552,589,0,0
-665,435,0,0,0,0,0,0,0,0,0,-1,559,589,0,0
-658,435,0,0,0,0,0,0,0,0,0,-1,566,589,0,0
-651,435,0,0,0,0,0,0,0,0,0,-1,573,589,0,0
-644,435,0,0,0,0,0,0,0,0,0,-1,580,589,0,0
-637,435,0,0,0,0,0,0,0,0,0,-1,587,589,0,0
-630,435,0,0,0,0,0,0,0,0,0,-1,594,589,0,0
-623,435,0,0,0,0,0,0,0,0,0,-1,601,589,0,0
-616,435,0,0,0,0,0,0,0,0,0,-1,608,589,0,0
-609,435,0,0,0,0,0,0,0,0,0,-1,615,589,0,0
-602,435,0,0,0,0,0,0,0,0,0,-1,622,589,0,0
-595,435,0,0,0,0,0,0,0,0,0,-1,629,589,0,0
-588,435,0,0,0,0,0,0,0,0,0,-1,636,589,0,0
-581,435,0,0,0,0,0,0,0,0,0,-1,643,589,0,0
-574,435,0,0,0,0,0,0,0,0,0,-1,650,589,0,0
-567,435,0,0,0,0,0,0,0,0,0,-1,657,589,0,0
-560,435,0,0,0,0,0,0,0,0,0,-1,664,589,0,0
-553,435,0,0,0,0,0,0,0,0,0,-1,671,589,0,0
-546,435,0,0,0,0,0,0,0,0,0,-1,678,589,0,0
-539,435,0,0,0,0,0,0,0,0,0,-1,685,589,0,0
-532,435,0,0,0,0,0,0,0,0,0,-1,692,589,0,0
-525,435,-10.0776,10.0547,0,0,0,0,0,0,0,-1,699,589,-10.0776,-10.0547
-518,435,-0.928711,-4.91492,0,0,0,0,0,0,0,-1,706,589,-0.928723,4.91489
-511,435,-2.43555,-5.38599,0,0,0,0,0,0,0,-1,713,589,-2.43553,5.38597
-504,435,-3.89355,-5.72308,0,0,0,0,0,0,0,-1,720,589,-3.89353,5.72309
-497,435,-5.18701,-5.97711,0,0,0,0,0,0,0,-1,727,589,-5.18703,5.97714
-490,435,-6.48621,-3.1344,0,0,0,0,0,0,0,-1,734,589,-6.4862,3.13439
-483,435,-5.33392,-2.60278,0,0,0,0,0,0,0,-1,741,589,-5.33394,2.60281
-476,435,-2.83978,-2.46191,0,0,0,0,0,0,0,-1,748,589,-2.83976,2.46191
-469,435,-2.71124,-2.78644,0.0108908,0.00593269,-0.00848369,0.0172502,-0.000426739,-0.64325,0.011645,0.031575,755,589,-2.71126,2.78643
-462,435,-2.60565,-3.19373,0.00900975,0.00429336,-0.00673725,0.0137896,-0.000486488,-0.61705,0.00935944,0.015661,762,589,-2.60563,3.19371
-455,435,-2.67389,-3.40588,0.00712295,0.00300319,-0.00514694,0.0106069,-0.000480766,-0.595052,0.00723685,0.013541,769,589,-2.67391,3.40591
-448,435,-2.6554,-3.65442,0.00548775,0.00209623,-0.00383172,0.00798218,-0.000398197,-0.577074,0.00545903,0.0117736,776,589,-2.65539,3.6544
-441,435,-2.65564,-3.90649,0.00395745,0.00172902,-0.00281467,0.00587041,-0.000183951,-0.596932,0.00397635,0.0100892,783,589,-2.65566,3.90647
-434,435,-2.66345,-4.13354,0.00249329,0.000846356,-0.00160402,0.00347286,-0.000133221,-0.548252,0.0023609,0.0121362,790,589,-2.66345,4.13354
-427,435,-2.66968,-4.40814,0.00120255,0.000331029,-0.000553746,0.00147143,6.2146e-05,-0.452037,0.00096091,0.0104889,797,589,-2.66971,4.40814
-420,435,-2.66589,-4.65131,-9.34637e-05,-0.000716289,0.000540561,0.000218969,-0.00102872,0.524071,0.000769264,0.0103337,804,589,-2.66589,4.65132
-413,435,-2.67365,-4.8833,-0.00124193,-0.00146112,0.00156452,0.000216833,-0.00291988,0.75043,0.00202274,0.0104739,811,589,-2.67365,4.88332
-406,435,-2.6673,-5.13586,-0.0020576,-0.00239046,0.00258313,0.000364459,-0.00481251,0.753228,0.00333647,0.0106204,818,589,-2.66728,5.13585
-399,435,-2.67883,-5.38525,-0.00259407,-0.00400726,0.00378883,0.000553488,-0.00715482,0.69321,0.00496467,0.00957585,825,589,-2.67882,5.38525
-392,435,-2.68127,-5.62616,-0.00278866,-0.00628884,0.00508559,0.000839537,-0.00991704,0.619681,0.00690823,0.0105364,832,589,-2.68129,5.62616
-385,435,-2.66742,-5.88647,-0.0023833,-0.00995251,0.00614512,0.00104915,-0.013385,0.509394,0.00929278,0.0119061,839,589,-2.66745,5.88649
-378,435,-2.66772,-6.12799,-0.00184907,-0.0141256,0.00750535,0.00170846,-0.0176832,0.442632,0.0123976,0.0185159,846,589,-2.66773,6.12798
-371,435,-2.83521,-6.3833,-0.000550503,-0.0196857,0.00888943,0.00294179,-0.023178,0.374336,0.0165202,0.0382042,853,589,-2.83519,6.3833
-364,435,-3.20056,-6.58197,0.00193634,-0.0272301,0.010186,0.00514148,-0.0304352,0.304852,0.0222033,0.0460916,860,589,-3.20054,6.58196
-357,435,-3.32245,-6.85107,0,0,0,0,0,0,0,-1,867,589,-3.32247,6.85108
-350,435,-0.86676,-3.69836,0,0,0,0,0,0,0,-1,874,589,-0.866784,3.69834
-343,435,-1.60706,-2.36835,0,0,0,0,0,0,0,-1,881,589,-1.60706,2.36838
-336,435,-2.07263,-1.94012,0,0,0,0,0,0,0,-1,888,589,-2.07265,1.94014
-329,435,-2.55963,-1.5517,0,0,0,0,0,0,0,-1,895,589,-2.5596,1.55168
-322,435,-3.08545,-1.55255,0,0,0,0,0,0,0,-1,902,589,-3.08544,1.55254
-315,435,-0.404297,-2.63763,0,0,0,0,0,0,0,-1,909,589,-0.404276,2.63761
-308,435,-1.70056,-1.90369,0,0,0,0,0,0,0,-1,916,589,-1.70056,1.90367
-301,435,-1.25232,-2.05511,0,0,0,0,0,0,0,-1,923,589,-1.25234,2.05514
-294,435,-1.79974,-1.97321,0,0,0,0,0,0,0,-1,930,589,-1.79973,1.97322
-287,435,0,0,0,0,0,0,0,0,0,-1,937,589,0,0
-280,435,0,0,0,0,0,0,0,0,0,-1,944,589,0,0
-273,435,0,0,0,0,0,0,0,0,0,-1,951,589,0,0
-266,435,0,0,0,0,0,0,0,0,0,-1,958,589,0,0
-259,435,0,0,0,0,0,0,0,0,0,-1,965,589,0,0
-252,435,0,0,0,0,0,0,0,0,0,-1,972,589,0,0
-245,435,0,0,0,0,0,0,0,0,0,-1,979,589,0,0
-238,435,0,0,0,0,0,0,0,0,0,-1,986,589,0,0
-231,435,0,0,0,0,0,0,0,0,0,-1,993,589,0,0
-224,435,0,0,0,0,0,0,0,0,0,-1,1000,589,0,0
-217,435,0,0,0,0,0,0,0,0,0,-1,1007,589,0,0
-210,435,0,0,0,0,0,0,0,0,0,-1,1014,589,0,0
-203,435,0,0,0,0,0,0,0,0,0,-1,1021,589,0,0
-196,435,0,0,0,0,0,0,0,0,0,-1,1028,589,0,0
-189,435,0,0,0,0,0,0,0,0,0,-1,1035,589,0,0
-182,435,0,0,0,0,0,0,0,0,0,-1,1042,589,0,0
-175,435,0,0,0,0,0,0,0,0,0,-1,1049,589,0,0
-168,435,0,0,0,0,0,0,0,0,0,-1,1056,589,0,0
-161,435,0,0,0,0,0,0,0,0,0,-1,1063,589,0,0
-154,435,0,0,0,0,0,0,0,0,0,-1,1070,589,0,0
-147,435,0,0,0,0,0,0,0,0,0,-1,1077,589,0,0
-140,435,0,0,0,0,0,0,0,0,0,-1,1084,589,0,0
-133,435,0,0,0,0,0,0,0,0,0,-1,1091,589,0,0
-126,435,0,0,0,0,0,0,0,0,0,-1,1098,589,0,0
-119,435,0,0,0,0,0,0,0,0,0,-1,1105,589,0,0
-112,435,0,0,0,0,0,0,0,0,0,-1,1112,589,0,0
-105,435,0,0,0,0,0,0,0,0,0,-1,1119,589,0,0
-98,435,0,0,0,0,0,0,0,0,0,-1,1126,589,0,0
-91,435,0,0,0,0,0,0,0,0,0,-1,1133,589,0,0
-84,435,0,0,0,0,0,0,0,0,0,-1,1140,589,0,0
-77,435,0,0,0,0,0,0,0,0,0,-1,1147,589,0,0
-70,435,0,0,0,0,0,0,0,0,0,-1,1154,589,0,0
-63,435,0,0,0,0,0,0,0,0,0,-1,1161,589,0,0
-56,435,0,0,0,0,0,0,0,0,0,-1,1168,589,0,0
-49,435,0,0,0,0,0,0,0,0,0,-1,1175,589,0,0
-42,435,0,0,0,0,0,0,0,0,0,-1,1182,589,0,0
-35,435,0,0,0,0,0,0,0,0,0,-1,1189,589,0,0
-28,435,0,0,0,0,0,0,0,0,0,-1,1196,589,0,0
-21,435,0,0,0,0,0,0,0,0,0,-1,1203,589,0,0
-14,435,0,0,0,0,0,0,0,0,0,-1,1210,589,0,0
-7,435,0,0,0,0,0,0,0,0,0,-1,1217,589,0,0
0,435,0,0,0,0,0,0,0,0,0,-1,1224,589,0,0
7,435,0,0,0,0,0,0,0,0,0,-1,1231,589,0,0
14,435,0,0,0,0,0,0,0,0,0,-1,1238,589,0,0
21,435,0,0,0,0,0,0,0,0,0,-1,1245,589,0,0
28,435,0,0,0,0,0,0,0,0,0,-1,1252,589,0,0
35,435,0,0,0,0,0,0,0,0,0,-1,1259,589,0,0
42,435,0,0,0,0,0,0,0,0,0,-1,1266,589,0,0
49,435,0,0,0,0,0,0,0,0,0,-1,1273,589,0,0
56,435,0,0,0,0,0,0,0,0,0,-1,1280,589,0,0
63,435,0,0,0,0,0,0,0,0,0,-1,1287,589,0,0
70,435,0,0,0,0,0,0,0,0,0,-1,1294,589,0,0
77,435,0,0,0,0,0,0,0,0,0,-1,1301,589,0,0
84,435,0,0,0,0,0,0,0,0,0,-1,1308,589,0,0
91,435,0,0,0,0,0,0,0,0,0,-1,1315,589,0,0
98,435,0,0,0,0,0,0,0,0,0,-1,1322,589,0,0
105,435,0,0,0,0,0,0,0,0,0,-1,1329,589,0,0
112,435,0,0,0,0,0,0,0,0,0,-1,1336,589,0,0
119,435,0,0,0,0,0,0,0,0,0,-1,1343,589,0,0
126,435,0,0,0,0,0,0,0,0,0,-1,1350,589,0,0
133,435,0,0,0,0,0,0,0,0,0,-1,1357,589,0,0
140,435,0,0,0,0,0,0,0,0,0,-1,1364,589,0,0
147,435,0,0,0,0,0,0,0,0,0,-1,1371,589,0,0
154,435,0,0,0,0,0,0,0,0,0,-1,1378,589,0,0
161,435,0,0,0,0,0,0,0,0,0,-1,1385,589,0,0
168,435,0,0,0,0,0,0,0,0,0,-1,1392,589,0,0
175,435,0,0,0,0,0,0,0,0,0,-1,1399,589,0,0
182,435,0,0,0,0,0,0,0,0,0,-1,1406,589,0,0
189,435,0,0,0,0,0,0,0,0,0,-1,1413,589,0,0
196,435,0,0,0,0,0,0,0,0,0,-1,1420,589,0,0
203,435,0,0,0,0,0,0,0,0,0,-1,1427,589,0,0
210,435,0,0,0,0,0,0,0,0,0,-1,1434,589,0,0
217,435,0,0,0,0,0,0,0,0,0,-1,1441,589,0,0
224,435,0,0,0,0,0,0,0,0,0,-1,1448,589,0,0
231,435,0,0,0,0,0,0,0,0,0,-1,1455,589,0,0
238,435,0,0,0,0,0,0,0,0,0,-1,1462,589,0,0
245,435,0,0,0,0,0,0,0,0,0,-1,1469,589,0,0
252,435,0,0,0,0,0,0,0,0,0,-1,1476,589,0,0
259,435,0,0,0,0,0,0,0,0,0,-1,1483,589,0,0
266,435,0,0,0,0,0,0,0,0,0,-1,1490,589,0,0
273,435,0,0,0,0,0,0,0,0,0,-1,1497,589,0,0
280,435,0,0,0,0,0,0,0,0,0,-1,1504,589,0,0
287,435,0,0,0,0,0,0,0,0,0,-1,1511,589,0,0
294,435,0,0,0,0,0,0,0,0,0,-1,1518,589,0,0
301,435,0,0,0,0,0,0,0,0,0,-1,1525,589,0,0
308,435,0,0,0,0,0,0,0,0,0,-1,1532,589,0,0
315,435,0,0,0,0,0,0,0,0,0,-1,1539,589,0,0
322,435,0,0,0,0,0,0,0,0,0,-1,1546,589,0,0
329,435,0,0,0,0,0,0,0,0,0,-1,1553,589,0,0
336,435,0,0,0,0,0,0,0,0,0,-1,1560,589,0,0
343,435,0,0,0,0,0,0,0,0,0,-1,1567,589,0,0
350,435,0,0,0,0,0,0,0,0,0,-1,1574,589,0,0
357,435,0,0,0,0,0,0,0,0,0,-1,1581,589,0,0
364,435,0,0,0,0,0,0,0,0,0,-1,1588,589,0,0
371,435,0,0,0,0,0,0,0,0,0,-1,1595,589,0,0
378,435,0,0,0,0,0,0,0,0,0,-1,1602,589,0,0
385,435,0,0,0,0,0,0,0,0,0,-1,1609,589,0,0
392,435,0,0,0,0,0,0,0,0,0,-1,1616,589,0,0
399,435,0,0,0,0,0,0,0,0,0,-1,1623,589,0,0
406,435,0,0,0,0,0,0,0,0,0,-1,1630,589,0,0
413,435,3.62073,3.42682,0,0,0,0,0,0,0,-1,1637,589,3.62069,-3.4268
420,435,3.6062,3.71564,0,0,0,0,0,0,0,-1,1644,589,3.60616,-3.71562
427,435,3.11963,0.640198,0,0,0,0,0,0,0,-1,1651,589,3.11967,-0.640192
434,435,2.72107,-1.34802,0,0,0,0,0,0,0,-1,1658,589,2.7211,1.34803
441,435,7.33191,-1.57452,0,0,0,0,0,0,0,-1,1665,589,7.33193,1.57452
448,435,7.4585,-0.00292969,0,0,0,0,0,0,0,-1,1672,589,7.45848,0.00294131
455,435,5.49915,-5.047,0,0,0,0,0,0,0,-1,1679,589,5.49914,5.04703
462,435,5.60669,-4.71466,0,0,0,0,0,0,0,-1,1686,589,5.60675,4.71469
469,435,5.87708,1.22351,0,0,0,0,0,0,0,-1,1693,589,5.87703,-1.22351
476,435,6.14136,1.37714,0,0,0,0,0,0,0,-1,1700,589,6.14138,-1.37712
483,435,6.49243,1.36169,0,0,0,0,0,0,0,-1,1707,589,6.49242,-1.36171
490,435,4.38391,-1.36218,0,0,0,0,0,0,0,-1,1714,589,4.38389,1.3622
497,435,7.23499,-3.64551,0,0,0,0,0,0,0,-1,1721,589,7.23495,3.64551
504,435,7.31189,-3.75909,0,0,0,0,0,0,0,-1,1728,589,7.31184,3.75911
511,435,8.55505,-4.52319,0,0,0,0,0,0,0,-1,1735,589,8.55507,4.52319
518,435,8.68713,-4.14056,0.00316982,0.00216428,0.00206546,0.00479282,0.000541281,0.666011,0.00303094,0.0183955,1742,589,8.68711,4.14059
525,435,8.67773,-3.88434,0.00253061,0.00162565,0.00171311,0.00384999,0.000306271,0.656282,0.00247091,0.0111271,1749,589,8.67773,3.88433
532,435,8.6908,-3.61261,0.00193457,0.00119186,0.00134939,0.00296278,0.000163653,0.651122,0.00192296,0.0131717,1756,589,8.69081,3.61259
539,435,8.68616,-3.33069,0.00142265,0.000826341,0.0010064,0.00217414,7.48567e-05,0.641388,0.00142513,0.0150212,1763,589,8.68616,3.33067
546,435,8.67285,-3.06213,0.0010808,0.000720348,0.000831344,0.00175123,4.99188e-05,0.678656,0.00115121,0.0141518,1770,589,8.67284,3.06213
553,435,8.66772,-2.80029,0.0008438,0.000710137,0.000738335,0.00151832,3.56153e-05,0.740263,0.00100055,0.0101333,1777,589,8.66769,2.80026
560,435,8.65051,-2.52026,0.000600745,0.000769737,0.000685404,0.00137583,-5.35155e-06,0.846728,0.000919011,0.00878023,1784,589,8.6505,2.52028
567,435,8.66724,-2.25226,0.000472856,0.000953023,0.000756469,0.00150659,-8.07141e-05,0.939058,0.00103235,0.0082406,1791,589,8.66719,2.25229
574,435,8.66028,-1.9895,0.000549431,0.00123817,0.000984247,0.00193655,-0.000148952,0.953682,0.00134344,0.00972309,1798,589,8.66026,1.98949
581,435,8.63855,-1.72974,0.00071708,0.00166793,0.00133252,0.0026073,-0.000222288,0.956753,0.00181684,0.0163739,1805,589,8.63851,1.72977
588,435,8.6283,-1.46509,0.00101138,0.00222873,0.00183936,0.00355751,-0.000317398,0.945186,0.00248424,0.0219752,1812,589,8.62828,1.46506
595,435,8.57703,-1.19446,0.00149758,0.00308821,0.00259521,0.00500723,-0.000421448,0.934082,0.00348714,0.0249183,1819,589,8.57702,1.19443
602,435,8.62781,-0.825867,0.00211095,0.00417286,0.00363728,0.00692248,-0.000638663,0.923497,0.00484193,0.0452895,1826,589,8.62783,0.825872
609,435,8.72888,-0.528076,0,0,0,0,0,0,0,-1,1833,589,8.72886,0.52806
616,435,5.05151,-2.75269,0,0,0,0,0,0,0,-1,1840,589,5.05157,2.7527
623,435,11.7588,3.9704,0,0,0,0,0,0,0,-1,1847,589,11.7587,-3.97043
630,435,4.72742,-0.87561,0,0,0,0,0,0,0,-1,1854,589,4.7274,0.875636
637,435,5.05286,1.48792,0,0,0,0,0,0,0,-1,1861,589,5.05291,-1.48792
644,435,0,0,0,0,0,0,0,0,0,-1,1868,589,0,0
651,435,0,0,0,0,0,0,0,0,0,-1,1875,589,0,0
658,435,0,0,0,0,0,0,0,0,0,-1,1882,589,0,0
665,435,0,0,0,0,0,0,0,0,0,-1,1889,589,0,0
672,435,0,0,0,0,0,0,0,0,0,-1,1896,589,0,0
679,435,0,0,0,0,0,0,0,0,0,-1,1903,589,0,0
686,435,0,0,0,0,0,0,0,0,0,-1,1910,589,0,0
693,435,0,0,0,0,0,0,0,0,0,-1,1917,589,0,0
700,435,0,0,0,0,0,0,0,0,0,-1,1924,589,0,0
707,435,0,0,0,0,0,0,0,0,0,-1,1931,589,0,0
714,435,0,0,0,0,0,0,0,0,0,-1,1938,589,0,0
721,435,0,0,0,0,0,0,0,0,0,-1,1945,589,0,0
728,435,0,0,0,0,0,0,0,0,0,-1,1952,589,0,0
735,435,0,0,0,0,0,0,0,0,0,-1,1959,589,0,0
742,435,0,0,0,0,0,0,0,0,0,-1,1966,589,0,0
749,435,0,0,0,0,0,0,0,0,0,-1,1973,589,0,0
756,435,0,0,0,0,0,0,0,0,0,-1,1980,589,0,0
763,435,0,0,0,0,0,0,0,0,0,-1,1987,589,0,0
770,435,0,0,0,0,0,0,0,0,0,-1,1994,589,0,0
777,435,0,0,0,0,0,0,0,0,0,-1,2001,589,0,0
784,435,0,0,0,0,0,0,0,0,0,-1,2008,589,0,0
791,435,0,0,0,0,0,0,0,0,0,-1,2015,589,0,0
798,435,0,0,0,0,0,0,0,0,0,-1,2022,589,0,0
805,435,0,0,0,0,0,0,0,0,0,-1,2029,589,0,0
812,435,0,0,0,0,0,0,0,0,0,-1,2036,589,0,0
-700,428,0,0,0,0,0,0,0,0,0,-1,524,596,0,0
-693,428,0,0,0,0,0,0,0,0,0,-1,531,596,0,0
-686,428,0,0,0,0,0,0,0,0,0,-1,538,596,0,0
-679,428,0,0,0,0,0,0,0,0,0,-1,545,596,0,0
-672,428,0,0,0,0,0,0,0,0,0,-1,552,596,0,0
-665,428,0,0,0,0,0,0,0,0,0,-1,559,596,0,0
-658,428,0,0,0,0,0,0,0,0,0,-1,566,596,0,0
-651,428,0,0,0,0,0,0,0,0,0,-1,573,596,0,0
-644,428,0,0,0,0,0,0,0,0,0,-1,580,596,0,0
-637,428,0,0,0,0,0,0,0,0,0,-1,587,596,0,0
-630,428,0,0,0,0,0,0,0,0,0,-1,594,596,0,0
-623,428,0,0,0,0,0,0,0,0,0,-1,601,596,0,0
-616,428,0,0,0,0,0,0,0,0,0,-1,608,596,0,0
-609,428,0,0,0,0,0,0,0,0,0,-1,615,596,0,0
-602,428,0,0,0,0,0,0,0,0,0,-1,622,596,0,0
-595,428,0,0,0,0,0,0,0,0,0,-1,629,596,0,0
-588,428,0,0,0,0,0,0,0,0,0,-1,636,596,0,0
-581,428,0,0,0,0,0,0,0,0,0,-1,643,596,0,0
-574,428,0,0,0,0,0,0,0,0,0,-1,650,596,0,0
-567,428,0,0,0,0,0,0,0,0,0,-1,657,596,0,0
-560,428,0,0,0,0,0,0,0,0,0,-1,664,596,0,0
-553,428,0,0,0,0,0,0,0,0,0,-1,671,596,0,0
-546,428,0,0,0,0,0,0,0,0,0,-1,678,596,0,0
-539,428,0,0,0,0,0,0,0,0,0,-1,685,596,0,0
-532,428,0,0,0,0,0,0,0,0,0,-1,692,596,0,0
-525,428,-9.59918,7.58618,0,0,0,0,0,0,0,-1,699,596,-9.59918,-7.5862
-518,428,-9.69434,5.60547,0,0,0,0,0,0,0,-1,706,596,-9.69436,-5.60549
-511,428,-3.32758,-4.85852,0,0,0,0,0,0,0,-1,713,596,-3.32759,4.85853
-504,428,-4.19916,-4.97797,0,0,0,0,0,0,0,-1,720,596,-4.19918,4.97795
-497,428,-2.85516,-3.52179,0,0,0,0,0,0,0,-1,727,596,-2.85517,3.52181
-490,428,-3.76495,-1.23987,0,0,0,0,0,0,0,-1,734,596,-3.76495,1.23984
-483,428,-3.74573,-1.72833,0,0,0,0,0,0,0,-1,741,596,-3.74571,1.72834
-476,428,-3.3103,-2.27789,0.0094037,0.00658695,-0.00783167,0.0159526,3.80259e-05,-0.696434,0.0106224,0.0408563,748,596,-3.31028,2.27792
-469,428,-2.8634,-2.85815,0.00806184,0.00484354,-0.00641429,0.0130657,-0.000160364,-0.6625,0.00876444,0.020328,755,596,-2.86341,2.85815
-462,428,-2.88477,-3.09454,0.00683968,0.00349383,-0.00519078,0.0106205,-0.000286945,-0.629509,0.00717786,0.0166274,762,596,-2.88478,3.09453
-455,428,-2.91553,-3.37286,0.00545257,0.00239648,-0.00396881,0.00817733,-0.000328285,-0.601638,0.00556421,0.0117211,769,596,-2.91551,3.37283
-448,428,-2.91284,-3.63116,0.0041906,0.00163645,-0.00291029,0.00609168,-0.00026463,-0.578642,0.00415214,0.0100637,776,596,-2.91287,3.63114
-441,428,-2.91248,-3.90472,0.00287629,0.00139993,-0.00204538,0.00431262,-3.63977e-05,-0.612222,0.00288729,0.0116858,783,596,-2.91247,3.90472
-434,428,-2.91425,-4.17657,0.00153691,0.0005577,-0.000905458,0.00207666,1.79529e-05,-0.53755,0.00137849,0.00951086,790,596,-2.91426,4.17659
-427,428,-2.90747,-4.43427,0.000294005,4.08094e-05,0.000145566,0.000360323,-2.55087e-05,0.42749,0.000249154,0.0110417,797,596,-2.90745,4.43429
-420,428,-2.90271,-4.63165,-0.00100456,-0.00114416,0.00128774,0.000215267,-0.00236399,0.758322,0.00165243,0.0113983,804,596,-2.9027,4.63163
-413,428,-2.8952,-4.85077,-0.00224099,-0.00200859,0.00242067,0.000298667,-0.00454825,0.809382,0.00313647,0.0131818,811,596,-2.89518,4.8508
-406,428,-2.89667,-5.11243,-0.00321934,-0.00317028,0.003613,0.000418281,-0.00680789,0.788793,0.00468425,0.0154021,818,596,-2.89665,5.11244
-399,428,-2.91223,-5.36572,-0.00394069,-0.00511295,0.00504797,0.000555067,-0.00960871,0.727601,0.00659861,0.0139357,825,596,-2.91222,5.36575
-392,428,-2.89948,-5.62738,-0.004364,-0.00781652,0.00666022,0.000790035,-0.0129706,0.658594,0.00892205,0.0135205,832,596,-2.89945,5.62736
-385,428,-2.9046,-5.90405,-0.0042995,-0.0121305,0.00816954,0.000844382,-0.0172744,0.561931,0.0118078,0.0210213,839,596,-2.90461,5.90404
-378,428,-2.97186,-5.95697,-0.00415877,-0.0172719,0.010083,0.00131191,-0.0227426,0.497118,0.0156174,0.0388821,846,596,-2.97185,5.95695
-371,428,-3.06897,-5.43848,-0.00318102,-0.0242754,0.0122123,0.00240816,-0.0298646,0.429214,0.0207591,0.0480608,853,596,-3.06898,5.43845
-364,428,-3.09979,-5.23859,0,0,0,0,0,0,0,-1,860,596,-3.09978,5.23861
-357,428,-3.20996,-4.70966,0,0,0,0,0,0,0,-1,867,596,-3.20997,4.70965
-350,428,-1.62793,-3.94055,0,0,0,0,0,0,0,-1,874,596,-1.62794,3.94055
-343,428,-0.0567017,-4.80994,0,0,0,0,0,0,0,-1,881,596,-0.0567096,4.80996
-336,428,-3.29175,-1.39569,0,0,0,0,0,0,0,-1,888,596,-3.29172,1.39568
-329,428,-3.71564,-0.791321,0,0,0,0,0,0,0,-1,895,596,-3.71564,0.791299
-322,428,-5.52863,-3.59827,0,0,0,0,0,0,0,-1,902,596,-5.52865,3.59829
-315,428,-4.57172,-1.22052,0,0,0,0,0,0,0,-1,909,596,-4.57171,1.22052
-308,428,-5.26538,-1.1521,0,0,0,0,0,0,0,-1,916,596,-5.26539,1.15209
-301,428,0,0,0,0,0,0,0,0,0,-1,923,596,0,0
-294,428,0,0,0,0,0,0,0,0,0,-1,930,596,0,0
-287,428,0,0,0,0,0,0,0,0,0,-1,937,596,0,0
-280,428,0,0,0,0,0,0,0,0,0,-1,944,596,0,0
-273,428,0,0,0,0,0,0,0,0,0,-1,951,596,0,0
-266,428,0,0,0,0,0,0,0,0,0,-1,958,596,0,0
-259,428,0,0,0,0,0,0,0,0,0,-1,965,596,0,0
-252,428,0,0,0,0,0,0,0,0,0,-1,972,596,0,0
-245,428,0,0,0,0,0,0,0,0,0,-1,979,596,0,0
-238,428,0,0,0,0,0,0,0,0,0,-1,986,596,0,0
-231,428,0,0,0,0,0,0,0,0,0,-1,993,596,0,0
-224,428,0,0,0,0,0,0,0,0,0,-1,1000,596,0,0
-217,428,0,0,0,0,0,0,0,0,0,-1,1007,596,0,0
-210,428,0,0,0,0,0,0,0,0,0,-1,1014,596,0,0
-203,428,0,0,0,0,0,0,0,0,0,-1,1021,596,0,0
-196,428,0,0,0,0,0,0,0,0,0,-1,1028,596,0,0
-189,428,0,0,0,0,0,0,0,0,0,-1,1035,596,0,0
-182,428,0,0,0,0,0,0,0,0,0,-1,1042,596,0,0
-175,428,0,0,0,0,0,0,0,0,0,-1,1049,596,0,0
-168,428,0,0,0,0,0,0,0,0,0,-1,1056,596,0,0
-161,428,0,0,0,0,0,0,0,0,0,-1,1063,596,0,0
-154,428,0,0,0,0,0,0,0,0,0,-1,1070,596,0,0
-147,428,0,0,0,0,0,0,0,0,0,-1,1077,596,0,0
-140,428,0,0,0,0,0,0,0,0,0,-1,1084,596,0,0
-133,428,0,0,0,0,0,0,0,0,0,-1,1091,596,0,0
-126,428,0,0,0,0,0,0,0,0,0,-1,1098,596,0,0
-119,428,0,0,0,0,0,0,0,0,0,-1,1105,596,0,0
-112,428,0,0,0,0,0,0,0,0,0,-1,1112,596,0,0
-105,428,0,0,0,0,0,0,0,0,0,-1,1119,596,0,0
-98,428,0,0,0,0,0,0,0,0,0,-1,1126,596,0,0
-91,428,0,0,0,0,0,0,0,0,0,-1,1133,596,0,0
-84,428,0,0,0,0,0,0,0,0,0,-1,1140,596,0,0
-77,428,0,0,0,0,0,0,0,0,0,-1,1147,596,0,0
-70,428,0,0,0,0,0,0,0,0,0,-1,1154,596,0,0
-63,428,0,0,0,0,0,0,0,0,0,-1,1161,596,0,0
-56,428,0,0,0,0,0,0,0,0,0,-1,1168,596,0,0
-49,428,0,0,0,0,0,0,0,0,0,-1,1175,596,0,0
-42,428,0,0,0,0,0,0,0,0,0,-1,1182,596,0,0
-35,428,0,0,0,0,0,0,0,0,0,-1,1189,596,0,0
-28,428,0,0,0,0,0,0,0,0,0,-1,1196,596,0,0
-21,428,0,0,0,0,0,0,0,0,0,-1,1203,596,0,0
-14,428,0,0,0,0,0,0,0,0,0,-1,1210,596,0,0
-7,428,0,0,0,0,0,0,0,0,0,-1,1217,596,0,0
0,428,0,0,0,0,0,0,0,0,0,-1,1224,596,0,0
7,428,0,0,0,0,0,0,0,0,0,-1,1231,596,0,0
14,428,0,0,0,0,0,0,0,0,0,-1,1238,596,0,0
21,428,0,0,0,0,0,0,0,0,0,-1,1245,596,0,0
28,428,0,0,0,0,0,0,0,0,0,-1,1252,596,0,0
35,428,0,0,0,0,0,0,0,0,0,-1,1259,596,0,0
42,428,0,0,0,0,0,0,0,0,0,-1,1266,596,0,0
49,428,0,0,0,0,0,0,0,0,0,-1,1273,596,0,0
56,428,0,0,0,0,0,0,0,0,0,-1,1280,596,0,0
63,428,0,0,0,0,0,0,0,0,0,-1,1287,596,0,0
70,428,0,0,0,0,0,0,0,0,0,-1,1294,596,0,0
77,428,0,0,0,0,0,0,0,0,0,-1,1301,596,0,0
84,428,0,0,0,0,0,0,0,0,0,-1,1308,596,0,0
91,428,0,0,0,0,0,0,0,0,0,-1,1315,596,0,0
98,428,0,0,0,0,0,0,0,0,0,-1,1322,596,0,0
105,428,0,0,0,0,0,0,0,0,0,-1,1329,596,0,0
112,428,0,0,0,0,0,0,0,0,0,-1,1336,596,0,0
119,428,0,0,0,0,0,0,0,0,0,-1,1343,596,0,0
126,428,0,0,0,0,0,0,0,0,0,-1,1350,596,0,0
133,428,0,0,0,0,0,0,0,0,0,-1,1357,596,0,0
140,428,0,0,0,0,0,0,0,0,0,-1,1364,596,0,0
147,428,0,0,0,0,0,0,0,0,0,-1,1371,596,0,0
154,428,0,0,0,0,0,0,0,0,0,-1,1378,596,0,0
161,428,0,0,0,0,0,0,0,0,0,-1,1385,596,0,0
168,428,0,0,0,0,0,0,0,0,0,-1,1392,596,0,0
175,428,0,0,0,0,0,0,0,0,0,-1,1399,596,0,0
182,428,0,0,0,0,0,0,0,0,0,-1,1406,596,0,0
189,428,0,0,0,0,0,0,0,0,0,-1,1413,596,0,0
196,428,0,0,0,0,0,0,0,0,0,-1,1420,596,0,0
203,428,0,0,0,0,0,0,0,0,0,-1,1427,596,0,0
210,428,0,0,0,0,0,0,0,0,0,-1,1434,596,0,0
217,428,0,0,0,0,0,0,0,0,0,-1,1441,596,0,0
224,428,0,0,0,0,0,0,0,0,0,-1,1448,596,0,0
231,428,0,0,0,0,0,0,0,0,0,-1,1455,596,0,0
238,428,0,0,0,0,0,0,0,0,0,-1,1462,596,0,0
245,428,0,0,0,0,0,0,0,0,0,-1,1469,596,0,0
252,428,0,0,0,0,0,0,0,0,0,-1,1476,596,0,0
259,428,0,0,0,0,0,0,0,0,0,-1,1483,596,0,0
266,428,0,0,0,0,0,0,0,0,0,-1,1490,596,0,0
273,428,0,0,0,0,0,0,0,0,0,-1,1497,596,0,0
280,428,0,0,0,0,0,0,0,0,0,-1,1504,596,0,0
287,428,0,0,0,0,0,0,0,0,0,-1,1511,596,0,0
294,428,0,0,0,0,0,0,0,0,0,-1,1518,596,0,0
301,428,0,0,0,0,0,0,0,0,0,-1,1525,596,0,0
308,428,0,0,0,0,0,0,0,0,0,-1,1532,596,0,0
315,428,0,0,0,0,0,0,0,0,0,-1,1539,596,0,0
322,428,0,0,0,0,0,0,0,0,0,-1,1546,596,0,0
329,428,0,0,0,0,0,0,0,0,0,-1,1553,596,0,0
336,428,0,0,0,0,0,0,0,0,0,-1,1560,596,0,0
343,428,0,0,0,0,0,0,0,0,0,-1,1567,596,0,0
350,428,0,0,0,0,0,0,0,0,0,-1,1574,596,0,0
357,428,0,0,0,0,0,0,0,0,0,-1,1581,596,0,0
364,428,0,0,0,0,0,0,0,0,0,-1,1588,596,0,0
371,428,0,0,0,0,0,0,0,0,0,-1,1595,596,0,0
378,428,0,0,0,0,0,0,0,0,0,-1,1602,596,0,0
385,428,0,0,0,0,0,0,0,0,0,-1,1609,596,0,0
392,428,0,0,0,0,0,0,0,0,0,-1,1616,596,0,0
399,428,0,0,0,0,0,0,0,0,0,-1,1623,596,0,0
406,428,0,0,0,0,0,0,0,0,0,-1,1630,596,0,0
413,428,0,0,0,0,0,0,0,0,0,-1,1637,596,0,0
420,428,2.95886,0.551819,0,0,0,0,0,0,0,-1,1644,596,2.9589,-0.551797
427,428,3.19385,0.384705,0,0,0,0,0,0,0,-1,1651,596,3.19383,-0.384692
434,428,8.18152,1.80432,0,0,0,0,0,0,0,-1,1658,596,8.18148,-1.80434
441,428,8.17993,0.607483,0,0,0,0,0,0,0,-1,1665,596,8.17997,-0.607513
448,428,7.84338,-0.385986,0,0,0,0,0,0,0,-1,1672,596,7.84336,0.385978
455,428,6.64038,2.1123,0,0,0,0,0,0,0,-1,1679,596,6.64037,-2.11229
462,428,4.84106,4.12341,0,0,0,0,0,0,0,-1,1686,596,4.84107,-4.12339
469,428,7.83789,3.10083,0,0,0,0,0,0,0,-1,1693,596,7.83785,-3.10086
476,428,7.61255,1.73956,0,0,0,0,0,0,0,-1,1700,596,7.61252,-1.73958
483,428,7.22766,1.05121,0,0,0,0,0,0,0,-1,1707,596,7.2277,-1.05121
490,428,5.4071,-3.2793,0,0,0,0,0,0,0,-1,1714,596,5.40707,3.27929
497,428,7.84106,-3.65491,0,0,0,0,0,0,0,-1,1721,596,7.84107,3.65491
504,428,6.92139,-2.83356,0,0,0,0,0,0,0,-1,1728,596,6.92137,2.83353
511,428,7.88501,-3.78723,0,0,0,0,0,0,0,-1,1735,596,7.88502,3.78722
518,428,8.90283,-4.21014,0,0,0,0,0,0,0,-1,1742,596,8.90279,4.21016
525,428,8.85938,-3.93585,0.00336891,0.00238278,0.00241905,0.00534463,0.000407057,0.684863,0.00343545,0.0348551,1749,596,8.85934,3.93588
532,428,8.92896,-3.59094,0.00244875,0.00168431,0.00180688,0.00391339,0.000219668,0.681167,0.00253887,0.0176179,1756,596,8.92892,3.59094
539,428,8.96155,-3.3335,0.00164056,0.00110597,0.00121821,0.00262045,0.000126072,0.677402,0.0017065,0.0201216,1763,596,8.96151,3.33348
546,428,8.94543,-3.06897,0.00101853,0.000728924,0.000787711,0.00167464,7.28189e-05,0.694498,0.00109296,0.0158131,1770,596,8.94547,3.06897
553,428,8.93689,-2.78711,0.00057107,0.000499503,0.000502059,0.00103862,3.19538e-05,0.749821,0.000682011,0.010477,1777,596,8.93691,2.78712
560,428,8.94165,-2.51465,0.000180778,0.000385899,0.000298826,0.000599275,-3.2598e-05,0.950705,0.000410814,0.0114547,1784,596,8.94165,2.51466
567,428,8.94714,-2.24084,-4.94398e-05,0.000419549,0.000249116,0.000527175,-0.000157066,1.16299,0.000413862,0.010444,1791,596,8.9472,2.24084
574,428,8.94751,-1.98175,-5.77141e-07,0.00058917,0.000403286,0.000793886,-0.000205293,1.10107,0.000609327,0.0123749,1798,596,8.94751,1.98175
581,428,8.92261,-1.7038,0.000186337,0.000917489,0.000695774,0.00133788,-0.000234056,1.02729,0.000979308,0.0112616,1805,596,8.92265,1.70377
588,428,8.91016,-1.41852,0.000505564,0.00139641,0.00115913,0.00219275,-0.000290783,0.968835,0.00156778,0.0152864,1812,596,8.91021,1.41849
595,428,8.89233,-1.14307,0.00104143,0.00213105,0.00186458,0.00352879,-0.000356306,0.927536,0.00247984,0.0105426,1819,596,8.89234,1.14309
602,428,8.87732,-0.873535,0.00174274,0.00311099,0.00283055,0.00533891,-0.000485182,0.903971,0.00373153,0.01926,1826,596,8.8773,0.873507
609,428,8.87378,-0.549255,0,0,0,0,0,0,0,-1,1833,596,8.8738,0.549262
616,428,5.88977,-0.239319,0,0,0,0,0,0,0,-1,1840,596,5.88983,0.239293
623,428,8.10767,1.20917,0,0,0,0,0,0,0,-1,1847,596,8.10763,-1.20919
630,428,4.94434,0.773193,0,0,0,0,0,0,0,-1,1854,596,4.9443,-0.773171
637,428,3.95435,1.90857,0,0,0,0,0,0,0,-1,1861,596,3.95439,-1.90858
644,428,5.75476,0.888977,0,0,0,0,0,0,0,-1,1868,596,5.75472,-0.888955
651,428,0,0,0,0,0,0,0,0,0,-1,1875,596,0,0
658,428,0,0,0,0,0,0,0,0,0,-1,1882,596,0,0
665,428,0,0,0,0,0,0,0,0,0,-1,1889,596,0,0
672,428,0,0,0,0,0,0,0,0,0,-1,1896,596,0,0
679,428,0,0,0,0,0,0,0,0,0,-1,1903,596,0,0
686,428,0,0,0,0,0,0,0,0,0,-1,1910,596,0,0
693,428,0,0,0,0,0,0,0,0,0,-1,1917,596,0,0
700,428,0,0,0,0,0,0,0,0,0,-1,1924,596,0,0
707,428,0,0,0,0,0,0,0,0,0,-1,1931,596,0,0
714,428,0,0,0,0,0,0,0,0,0,-1,1938,596,0,0
721,428,0,0,0,0,0,0,0,0,0,-1,1945,596,0,0
728,428,0,0,0,0,0,0,0,0,0,-1,1952,596,0,0
735,428,0,0,0,0,0,0,0,0,0,-1,1959,596,0,0
742,428,0,0,0,0,0,0,0,0,0,-1,1966,596,0,0
749,428,0,0,0,0,0,0,0,0,0,-1,1973,596,0,0
756,428,0,0,0,0,0,0,0,0,0,-1,1980,596,0,0
763,428,0,0,0,0,0,0,0,0,0,-1,1987,596,0,0
770,428,0,0,0,0,0,0,0,0,0,-1,1994,596,0,0
777,428,0,0,0,0,0,0,0,0,0,-1,2001,596,0,0
784,428,0,0,0,0,0,0,0,0,0,-1,2008,596,0,0
791,428,0,0,0,0,0,0,0,0,0,-1,2015,596,0,0
798,428,0,0,0,0,0,0,0,0,0,-1,2022,596,0,0
805,428,0,0,0,0,0,0,0,0,0,-1,2029,596,0,0
812,428,0,0,0,0,0,0,0,0,0,-1,2036,596,0,0
-700,421,0,0,0,0,0,0,0,0,0,-1,524,603,0,0
-693,421,0,0,0,0,0,0,0,0,0,-1,531,603,0,0
-686,421,0,0,0,0,0,0,0,0,0,-1,538,603,0,0
-679,421,0,0,0,0,0,0,0,0,0,-1,545,603,0,0
-672,421,0,0,0,0,0,0,0,0,0,-1,552,603,0,0
-665,421,0,0,0,0,0,0,0,0,0,-1,559,603,0,0
-658,421,0,0,0,0,0,0,0,0,0,-1,566,603,0,0
-651,421,0,0,0,0,0,0,0,0,0,-1,573,603,0,0
-644,421,0,0,0,0,0,0,0,0,0,-1,580,603,0,0
-637,421,0,0,0,0,0,0,0,0,0,-1,587,603,0,0
-630,421,0,0,0,0,0,0,0,0,0,-1,594,603,0,0
-623,421,0,0,0,0,0,0,0,0,0,-1,601,603,0,0
-616,421,0,0,0,0,0,0,0,0,0,-1,608,603,0,0
-609,421,0,0,0,0,0,0,0,0,0,-1,615,603,0,0
-602,421,0,0,0,0,0,0,0,0,0,-1,622,603,0,0
-595,421,0,0,0,0,0,0,0,0,0,-1,629,603,0,0
-588,421,0,0,0,0,0,0,0,0,0,-1,636,603,0,0
-581,421,0,0,0,0,0,0,0,0,0,-1,643,603,0,0
-574,421,0,0,0,0,0,0,0,0,0,-1,650,603,0,0
-567,421,0,0,0,0,0,0,0,0,0,-1,657,603,0,0
-560,421,0,0,0,0,0,0,0,0,0,-1,664,603,0,0
-553,421,0,0,0,0,0,0,0,0,0,-1,671,603,0,0
-546,421,0,0,0,0,0,0,0,0,0,-1,678,603,0,0
-539,421,0,0,0,0,0,0,0,0,0,-1,685,603,0,0
-532,421,-8.97382,6.95636,0,0,0,0,0,0,0,-1,692,603,-8.97384,-6.95634
-525,421,-9.2019,5.10803,0,0,0,0,0,0,0,-1,699,603,-9.20192,-5.10806
-518,421,-9.54236,3.41217,0,0,0,0,0,0,0,-1,706,603,-9.54234,-3.41218
-511,421,-2.75134,-5.12311,0,0,0,0,0,0,0,-1,713,603,-2.75136,5.12308
-504,421,-4.97272,-4.38385,0,0,0,0,0,0,0,-1,720,603,-4.9727,4.38383
-497,421,-3.53619,-1.31927,0,0,0,0,0,0,0,-1,727,603,-3.53618,1.31925
-490,421,-3.54834,-1.59711,0.00694559,0.00893195,-0.00686915,0.0148793,0.000998188,-0.857193,0.00960414,0.0481537,734,603,-3.54833,1.59713
-483,421,-3.36548,-2.1687,0.00673709,0.00681363,-0.00621643,0.0129919,0.000558812,-0.788476,0.00848114,0.0409214,741,603,-3.36546,2.16868
-476,421,-3.15204,-2.62628,0.0062398,0.00512218,-0.00543146,0.0111411,0.000220859,-0.734136,0.0073549,0.0248145,748,603,-3.15206,2.62628
-469,421,-3.15137,-2.84729,0.00560068,0.00368276,-0.00454364,0.00928546,-2.01957e-06,-0.681397,0.00619098,0.0190667,755,603,-3.15138,2.84731
-462,421,-3.15936,-3.11804,0.0048885,0.0026297,-0.00375282,0.00767819,-0.000159982,-0.639236,0.00517294,0.0182697,762,603,-3.15934,3.11801
-455,421,-3.15228,-3.3634,0.0039161,0.00175488,-0.0028693,0.00590154,-0.00023055,-0.605307,0.00401342,0.0175243,769,603,-3.15228,3.36342
-448,421,-3.15234,-3.61823,0.00297068,0.00115853,-0.00205948,0.00431459,-0.000185382,-0.578165,0.00294014,0.0175032,776,603,-3.15237,3.61825
-441,421,-3.17108,-3.90009,0.00183879,0.00104514,-0.00133675,0.00283638,4.7554e-05,-0.641112,0.00187527,0.0129923,783,603,-3.17108,3.90009
-434,421,-3.17865,-4.17694,0.000604584,0.00027853,-0.000280189,0.000765724,0.000117391,-0.521916,0.0004762,0.00961653,790,603,-3.17867,4.17694
-427,421,-3.1637,-4.41187,-0.000607107,-0.00021593,0.000759833,0.000373084,-0.00119612,0.911368,0.000946608,0.0101158,797,603,-3.16367,4.41184
-420,421,-3.14594,-4.62048,-0.00191623,-0.00148594,0.00194084,0.000251643,-0.00365382,0.840598,0.00252395,0.0121295,804,603,-3.14591,4.6205
-413,421,-3.14673,-4.84906,-0.00326654,-0.00246496,0.00320049,0.000359741,-0.00609124,0.847688,0.0041859,0.0141751,811,603,-3.14671,4.84906
-406,421,-3.17969,-5.14099,-0.00447104,-0.00387851,0.00461463,0.000449361,-0.00879891,0.817455,0.00602132,0.0190084,818,603,-3.17969,5.141
-399,421,-3.15344,-5.44702,-0.00545985,-0.00617456,0.0063489,0.000541746,-0.0121761,0.757285,0.00830391,0.0181133,825,603,-3.15341,5.44703
-392,421,-3.18951,-5.64905,-0.00624801,-0.00936185,0.00840304,0.000741133,-0.016351,0.693797,0.0111559,0.0199992,832,603,-3.18949,5.64907
-385,421,-3.30298,-5.89594,-0.00676003,-0.0144589,0.0105764,0.000645631,-0.0218646,0.610866,0.0147963,0.04163,839,603,-3.30295,5.89595
-378,421,-3.33807,-5.9538,0,0,0,0,0,0,0,-1,846,603,-3.33809,5.95381
-371,421,-3.60419,-4.92261,0,0,0,0,0,0,0,-1,853,603,-3.60418,4.9226
-364,421,-5.06079,-5.61859,0,0,0,0,0,0,0,-1,860,603,-5.0608,5.61861
-357,421,-5.57581,-5.5918,0,0,0,0,0,0,0,-1,867,603,-5.5758,5.59181
-350,421,-5.38019,-3.75024,0,0,0,0,0,0,0,-1,874,603,-5.38017,3.75026
-343,421,-6.22797,-2.57123,0,0,0,0,0,0,0,-1,881,603,-6.22798,2.57121
-336,421,-6.22882,-2.59369,0,0,0,0,0,0,0,-1,888,603,-6.22883,2.5937
-329,421,-4.50134,-1.49469,0,0,0,0,0,0,0,-1,895,603,-4.50137,1.49468
-322,421,-6.30377,-0.285339,0,0,0,0,0,0,0,-1,902,603,-6.30379,0.285355
-315,421,-4.47821,-1.26733,0,0,0,0,0,0,0,-1,909,603,-4.47824,1.26732
-308,421,0,0,0,0,0,0,0,0,0,-1,916,603,0,0
-301,421,0,0,0,0,0,0,0,0,0,-1,923,603,0,0
-294,421,0,0,0,0,0,0,0,0,0,-1,930,603,0,0
-287,421,0,0,0,0,0,0,0,0,0,-1,937,603,0,0
-280,421,0,0,0,0,0,0,0,0,0,-1,944,603,0,0
-273,421,0,0,0,0,0,0,0,0,0,-1,951,603,0,0
-266,421,0,0,0,0,0,0,0,0,0,-1,958,603,0,0
-259,421,0,0,0,0,0,0,0,0,0,-1,965,603,0,0
-252,421,0,0,0,0,0,0,0,0,0,-1,972,603,0,0
-245,421,0,0,0,0,0,0,0,0,0,-1,979,603,0,0
-238,421,0,0,0,0,0,0,0,0,0,-1,986,603,0,0
-231,421,0,0,0,0,0,0,0,0,0,-1,993,603,0,0
-224,421,0,0,0,0,0,0,0,0,0,-1,1000,603,0,0
-217,421,0,0,0,0,0,0,0,0,0,-1,1007,603,0,0
-210,421,0,0,0,0,0,0,0,0,0,-1,1014,603,0,0
-203,421,0,0,0,0,0,0,0,0,0,-1,1021,603,0,0
-196,421,0,0,0,0,0,0,0,0,0,-1,1028,603,0,0
-189,421,0,0,0,0,0,0,0,0,0,-1,1035,603,0,0
-182,421,0,0,0,0,0,0,0,0,0,-1,1042,603,0,0
-175,421,0,0,0,0,0,0,0,0,0,-1,1049,603,0,0
-168,421,0,0,0,0,0,0,0,0,0,-1,1056,603,0,0
-161,421,0,0,0,0,0,0,0,0,0,-1,1063,603,0,0
-154,421,0,0,0,0,0,0,0,0,0,-1,1070,603,0,0
-147,421,0,0,0,0,0,0,0,0,0,-1,1077,603,0,0
-140,421,0,0,0,0,0,0,0,0,0,-1,1084,603,0,0
-133,421,0,0,0,0,0,0,0,0,0,-1,1091,603,0,0
-126,421,0,0,0,0,0,0,0,0,0,-1,1098,603,0,0
-119,421,0,0,0,0,0,0,0,0,0,-1,1105,603,0,0
-112,421,0,0,0,0,0,0,0,0,0,-1,1112,603,0,0
-105,421,0,0,0,0,0,0,0,0,0,-1,1119,603,0,0
-98,421,0,0,0,0,0,0,0,0,0,-1,1126,603,0,0
-91,421,0,0,0,0,0,0,0,0,0,-1,1133,603,0,0
-84,421,0,0,0,0,0,0,0,0,0,-1,1140,603,0,0
-77,421,0,0,0,0,0,0,0,0,0,-1,1147,603,0,0
-70,421,0,0,0,0,0,0,0,0,0,-1,1154,603,0,0
-63,421,0,0,0,0,0,0,0,0,0,-1,1161,603,0,0
-56,421,0,0,0,0,0,0,0,0,0,-1,1168,603,0,0
-49,421,0,0,0,0,0,0,0,0,0,-1,1175,603,0,0
-42,421,0,0,0,0,0,0,0,0,0,-1,1182,603,0,0
-35,421,0,0,0,0,0,0,0,0,0,-1,1189,603,0,0
-28,421,0,0,0,0,0,0,0,0,0,-1,1196,603,0,0
-21,421,0,0,0,0,0,0,0,0,0,-1,1203,603,0,0
-14,421,0,0,0,0,0,0,0,0,0,-1,1210,603,0,0
-7,421,0,0,0,0,0,0,0,0,0,-1,1217,603,0,0
0,421,0,0,0,0,0,0,0,0,0,-1,1224,603,0,0
7,421,0,0,0,0,0,0,0,0,0,-1,1231,603,0,0
14,421,0,0,0,0,0,0,0,0,0,-1,1238,603,0,0
21,421,0,0,0,0,0,0,0,0,0,-1,1245,603,0,0
28,421,0,0,0,0,0,0,0,0,0,-1,1252,603,0,0
35,421,0,0,0,0,0,0,0,0,0,-1,1259,603,0,0
42,421,0,0,0,0,0,0,0,0,0,-1,1266,603,0,0
49,421,0,0,0,0,0,0,0,0,0,-1,1273,603,0,0
56,421,0,0,0,0,0,0,0,0,0,-1,1280,603,0,0
63,421,0,0,0,0,0,0,0,0,0,-1,1287,603,0,0
70,421,0,0,0,0,0,0,0,0,0,-1,1294,603,0,0
77,421,0,0,0,0,0,0,0,0,0,-1,1301,603,0,0
84,421,0,0,0,0,0,0,0,0,0,-1,1308,603,0,0
91,421,0,0,0,0,0,0,0,0,0,-1,1315,603,0,0
98,421,0,0,0,0,0,0,0,0,0,-1,1322,603,0,0
105,421,0,0,0,0,0,0,0,0,0,-1,1329,603,0,0
112,421,0,0,0,0,0,0,0,0,0,-1,1336,603,0,0
119,421,0,0,0,0,0,0,0,0,0,-1,1343,603,0,0
126,421,0,0,0,0,0,0,0,0,0,-1,1350,603,0,0
133,421,0,0,0,0,0,0,0,0,0,-1,1357,603,0,0
140,421,0,0,0,0,0,0,0,0,0,-1,1364,603,0,0
147,421,0,0,0,0,0,0,0,0,0,-1,1371,603,0,0
154,421,0,0,0,0,0,0,0,0,0,-1,1378,603,0,0
161,421,0,0,0,0,0,0,0,0,0,-1,1385,603,0,0
168,421,0,0,0,0,0,0,0,0,0,-1,1392,603,0,0
175,421,0,0,0,0,0,0,0,0,0,-1,1399,603,0,0
182,421,0,0,0,0,0,0,0,0,0,-1,1406,603,0,0
189,421,0,0,0,0,0,0,0,0,0,-1,1413,603,0,0
196,421,0,0,0,0,0,0,0,0,0,-1,1420,603,0,0
203,421,0,0,0,0,0,0,0,0,0,-1,1427,603,0,0
210,421,0,0,0,0,0,0,0,0,0,-1,1434,603,0,0
217,421,0,0,0,0,0,0,0,0,0,-1,1441,603,0,0
224,421,0,0,0,0,0,0,0,0,0,-1,1448,603,0,0
231,421,0,0,0,0,0,0,0,0,0,-1,1455,603,0,0
238,421,0,0,0,0,0,0,0,0,0,-1,1462,603,0,0
245,421,0,0,0,0,0,0,0,0,0,-1,1469,603,0,0
252,421,0,0,0,0,0,0,0,0,0,-1,1476,603,0,0
259,421,0,0,0,0,0,0,0,0,0,-1,1483,603,0,0
266,421,0,0,0,0,0,0,0,0,0,-1,1490,603,0,0
273,421,0,0,0,0,0,0,0,0,0,-1,1497,603,0,0
280,421,0,0,0,0,0,0,0,0,0,-1,1504,603,0,0
287,421,0,0,0,0,0,0,0,0,0,-1,1511,603,0,0
294,421,0,0,0,0,0,0,0,0,0,-1,1518,603,0,0
301,421,0,0,0,0,0,0,0,0,0,-1,1525,603,0,0
308,421,0,0,0,0,0,0,0,0,0,-1,1532,603,0,0
315,421,0,0,0,0,0,0,0,0,0,-1,1539,603,0,0
322,421,0,0,0,0,0,0,0,0,0,-1,1546,603,0,0
329,421,0,0,0,0,0,0,0,0,0,-1,1553,603,0,0
336,421,0,0,0,0,0,0,0,0,0,-1,1560,603,0,0
343,421,0,0,0,0,0,0,0,0,0,-1,1567,603,0,0
350,421,0,0,0,0,0,0,0,0,0,-1,1574,603,0,0
357,421,0,0,0,0,0,0,0,0,0,-1,1581,603,0,0
364,421,0,0,0,0,0,0,0,0,0,-1,1588,603,0,0
371,421,0,0,0,0,0,0,0,0,0,-1,1595,603,0,0
378,421,0,0,0,0,0,0,0,0,0,-1,1602,603,0,0
385,421,0,0,0,0,0,0,0,0,0,-1,1609,603,0,0
392,421,0,0,0,0,0,0,0,0,0,-1,1616,603,0,0
399,421,0,0,0,0,0,0,0,0,0,-1,1623,603,0,0
406,421,0,0,0,0,0,0,0,0,0,-1,1630,603,0,0
413,421,0,0,0,0,0,0,0,0,0,-1,1637,603,0,0
420,421,0,0,0,0,0,0,0,0,0,-1,1644,603,0,0
427,421,0,0,0,0,0,0,0,0,0,-1,1651,603,0,0
434,421,3.68176,-0.0327759,0,0,0,0,0,0,0,-1,1658,603,3.6818,0.0328037
441,421,8.06689,0.527832,0,0,0,0,0,0,0,-1,1665,603,8.06693,-0.527851
448,421,6.93921,0.802246,0,0,0,0,0,0,0,-1,1672,603,6.93923,-0.802251
455,421,7.29456,2.14825,0,0,0,0,0,0,0,-1,1679,603,7.29461,-2.14827
462,421,7.86902,3.53174,0,0,0,0,0,0,0,-1,1686,603,7.869,-3.53173
469,421,8.06604,2.81213,0,0,0,0,0,0,0,-1,1693,603,8.06606,-2.81212
476,421,8.26306,2.09253,0,0,0,0,0,0,0,-1,1700,603,8.26312,-2.09251
483,421,8.05322,0.798096,0,0,0,0,0,0,0,-1,1707,603,8.05323,-0.7981
490,421,7.51233,0.213074,0,0,0,0,0,0,0,-1,1714,603,7.51235,-0.213043
497,421,7.49634,-2.86688,0,0,0,0,0,0,0,-1,1721,603,7.4963,2.86688
504,421,6.90491,-2.18671,0,0,0,0,0,0,0,-1,1728,603,6.90491,2.18669
511,421,6.31348,-1.50653,0,0,0,0,0,0,0,-1,1735,603,6.31353,1.5065
518,421,6.27588,-2.49878,0,0,0,0,0,0,0,-1,1742,603,6.2759,2.4988
525,421,9.00464,-3.99622,0,0,0,0,0,0,0,-1,1749,603,9.00458,3.99624
532,421,9.13684,-3.62378,0.00282907,0.00260538,0.00253257,0.00525226,0.000182187,0.763331,0.00344239,0.0353213,1756,603,9.13687,3.62377
539,421,9.2417,-3.34552,0.00195983,0.00188938,0.00178267,0.00370762,0.000141587,0.77552,0.00242593,0.0210409,1763,603,9.24166,3.34553
546,421,9.21887,-3.07117,0.0012765,0.00129533,0.00117545,0.0024614,0.000110428,0.789402,0.00160539,0.0125784,1770,603,9.21889,3.07119
553,421,9.21448,-2.77637,0.000803203,0.000889286,0.000760557,0.00160802,8.44697e-05,0.813664,0.00104499,0.0109655,1777,603,9.2145,2.77634
560,421,9.21509,-2.51135,0.00040863,0.000630304,0.000453919,0.000986722,5.22119e-05,0.905144,0.00064112,0.0137566,1784,603,9.21508,2.51136
567,421,9.21509,-2.24475,0.000165748,0.000508132,0.000301929,0.000684025,-1.01448e-05,1.0433,0.000459435,0.0162127,1791,603,9.2151,2.24478
574,421,9.21753,-1.97192,0.000211307,0.000531189,0.000371151,0.000775394,-3.28987e-05,0.98884,0.000528237,0.0175188,1798,603,9.21754,1.9719
581,421,9.21265,-1.6687,0.000389809,0.000710542,0.000576169,0.00114825,-4.78949e-05,0.921129,0.000781951,0.014812,1805,603,9.21263,1.66873
588,421,9.18494,-1.41779,0.000672424,0.00104159,0.000944883,0.00181975,-0.000105738,0.881858,0.0012499,0.0108122,1812,603,9.18497,1.4178
595,421,9.1864,-1.13336,0.00117359,0.00160529,0.00154046,0.00294495,-0.00016607,0.855005,0.00202093,0.0145518,1819,603,9.18641,1.13337
602,421,9.17651,-0.896667,0.00184505,0.00240702,0.00236522,0.00450788,-0.000255814,0.84452,0.00309405,0.0145924,1826,603,9.17651,0.896687
609,421,9.14246,-0.664001,0.00280332,0.00325426,0.00341375,0.00644997,-0.000392398,0.818374,0.00443657,0.0336996,1833,603,9.14247,0.664024
616,421,9.42627,-0.374573,0,0,0,0,0,0,0,-1,1840,603,9.42622,0.374563
623,421,6.19885,0.376648,0,0,0,0,0,0,0,-1,1847,603,6.19881,-0.376624
630,421,6.54993,0.778748,0,0,0,0,0,0,0,-1,1854,603,6.54991,-0.778744
637,421,3.74512,1.65405,0,0,0,0,0,0,0,-1,1861,603,3.74517,-1.65407
644,421,3.58081,0.354675,0,0,0,0,0,0,0,-1,1868,603,3.58082,-0.354704
651,421,3.28687,3.66351,0,0,0,0,0,0,0,-1,1875,603,3.28688,-3.66353
658,421,0,0,0,0,0,0,0,0,0,-1,1882,603,0,0
665,421,0,0,0,0,0,0,0,0,0,-1,1889,603,0,0
672,421,0,0,0,0,0,0,0,0,0,-1,1896,603,0,0
679,421,0,0,0,0,0,0,0,0,0,-1,1903,603,0,0
686,421,0,0,0,0,0,0,0,0,0,-1,1910,603,0,0
693,421,0,0,0,0,0,0,0,0,0,-1,1917,603,0,0
700,421,0,0,0,0,0,0,0,0,0,-1,1924,603,0,0
707,421,0,0,0,0,0,0,0,0,0,-1,1931,603,0,0
714,421,0,0,0,0,0,0,0,0,0,-1,1938,603,0,0
721,421,0,0,0,0,0,0,0,0,0,-1,1945,603,0,0
728,421,0,0,0,0,0,0,0,0,0,-1,1952,603,0,0
735,421,0,0,0,0,0,0,0,0,0,-1,1959,603,0,0
742,421,0,0,0,0,0,0,0,0,0,-1,1966,603,0,0
749,421,0,0,0,0,0,0,0,0,0,-1,1973,603,0,0
756,421,0,0,0,0,0,0,0,0,0,-1,1980,603,0,0
763,421,0,0,0,0,0,0,0,0,0,-1,1987,603,0,0
770,421,0,0,0,0,0,0,0,0,0,-1,1994,603,0,0
777,421,0,0,0,0,0,0,0,0,0,-1,2001,603,0,0
784,421,0,0,0,0,0,0,0,0,0,-1,2008,603,0,0
791,421,0,0,0,0,0,0,0,0,0,-1,2015,603,0,0
798,421,0,0,0,0,0,0,0,0,0,-1,2022,603,0,0
805,421,0,0,0,0,0,0,0,0,0,-1,2029,603,0,0
812,421,0,0,0,0,0,0,0,0,0,-1,2036,603,0,0
-700,414,0,0,0,0,0,0,0,0,0,-1,524,610,0,0
-693,414,0,0,0,0,0,0,0,0,0,-1,531,610,0,0
-686,414,0,0,0,0,0,0,0,0,0,-1,538,610,0,0
-679,414,0,0,0,0,0,0,0,0,0,-1,545,610,0,0
-672,414,0,0,0,0,0,0,0,0,0,-1,552,610,0,0
-665,414,0,0,0,0,0,0,0,0,0,-1,559,610,0,0
-658,414,0,0,0,0,0,0,0,0,0,-1,566,610,0,0
-651,414,0,0,0,0,0,0,0,0,0,-1,573,610,0,0
-644,414,0,0,0,0,0,0,0,0,0,-1,580,610,0,0
-637,414,0,0,0,0,0,0,0,0,0,-1,587,610,0,0
-630,414,0,0,0,0,0,0,0,0,0,-1,594,610,0,0
-623,414,0,0,0,0,0,0,0,0,0,-1,601,610,0,0
-616,414,0,0,0,0,0,0,0,0,0,-1,608,610,0,0
-609,414,0,0,0,0,0,0,0,0,0,-1,615,610,0,0
-602,414,0,0,0,0,0,0,0,0,0,-1,622,610,0,0
-595,414,0,0,0,0,0,0,0,0,0,-1,629,610,0,0
-588,414,0,0,0,0,0,0,0,0,0,-1,636,610,0,0
-581,414,0,0,0,0,0,0,0,0,0,-1,643,610,0,0
-574,414,0,0,0,0,0,0,0,0,0,-1,650,610,0,0
-567,414,0,0,0,0,0,0,0,0,0,-1,657,610,0,0
-560,414,0,0,0,0,0,0,0,0,0,-1,664,610,0,0
-553,414,0,0,0,0,0,0,0,0,0,-1,671,610,0,0
-546,414,0,0,0,0,0,0,0,0,0,-1,678,610,0,0
-539,414,-7.50146,5.65619,0,0,0,0,0,0,0,-1,685,610,-7.50149,-5.65617
-532,414,-8.15204,4.01605,0,0,0,0,0,0,0,-1,692,610,-8.15206,-4.01606
-525,414,-8.80328,2.42987,0,0,0,0,0,0,0,-1,699,610,-8.8033,-2.42985
-518,414,-3.92554,-4.91833,0,0,0,0,0,0,0,-1,706,610,-3.92551,4.91833
-511,414,-2.77478,-4.28168,0,0,0,0,0,0,0,-1,713,610,-2.77479,4.28166
-504,414,-1.62408,-3.64496,0,0,0,0,0,0,0,-1,720,610,-1.62406,3.64499
-497,414,-3.41083,-1.79242,0,0,0,0,0,0,0,-1,727,610,-3.41084,1.79239
-490,414,-3.39935,-2.02905,0.00318679,0.00677815,-0.00384603,0.00922704,0.000737902,-1.0038,0.00592074,0.0374742,734,610,-3.39936,2.02906
-483,414,-3.36017,-2.32782,0.00378725,0.00517504,-0.00381252,0.00835629,0.000605998,-0.875416,0.00538025,0.0175395,741,610,-3.36019,2.32785
-476,414,-3.39447,-2.60443,0.0039612,0.00389979,-0.00356585,0.00749647,0.000364515,-0.781092,0.00488068,0.012177,748,610,-3.39446,2.60446
-469,414,-3.42712,-2.85712,0.00383549,0.00277259,-0.00310851,0.00645765,0.000150422,-0.700733,0.00425585,0.0118912,755,610,-3.42712,2.85709
-462,414,-3.42816,-3.12762,0.00347701,0.0019515,-0.00263872,0.00546101,-3.2498e-05,-0.644702,0.00365156,0.0202084,762,610,-3.42818,3.12762
-455,414,-3.39606,-3.40222,0.00279503,0.00126072,-0.00200915,0.0041785,-0.000122756,-0.603025,0.00282747,0.0224795,769,610,-3.39608,3.4022
-448,414,-3.40607,-3.64307,0.00205934,0.000803114,-0.00138816,0.00295488,-9.24274e-05,-0.572942,0.00200144,0.0228734,776,610,-3.40608,3.64306
-441,414,-3.41168,-3.89233,0.0010135,0.00076884,-0.00075016,0.00165124,0.000131101,-0.704574,0.00105983,0.0167111,783,610,-3.41171,3.89232
-434,414,-3.42468,-4.1546,-0.000202843,9.28742e-05,0.000248775,0.000234413,-0.000344383,1.05352,0.000336173,0.00950557,790,610,-3.42471,4.1546
-427,414,-3.41895,-4.39008,-0.00147705,-0.000374928,0.00129794,0.000484084,-0.00233607,0.986151,0.00174131,0.0101804,797,610,-3.41893,4.39005
-420,414,-3.41705,-4.63,-0.00288615,-0.00169289,0.0025345,0.000314264,-0.0048933,0.900995,0.00337184,0.0104921,804,610,-3.41707,4.62998
-413,414,-3.41846,-4.88184,-0.00445997,-0.0027952,0.00396214,0.000421048,-0.00767622,0.888935,0.00526345,0.0113363,811,610,-3.41847,4.88186
-406,414,-3.41992,-5.22272,-0.00604238,-0.00449205,0.00566883,0.000454368,-0.0109888,0.853348,0.00748192,0.0177589,818,610,-3.4199,5.22271
-399,414,-3.44287,-5.4126,-0.00747991,-0.00718507,0.0078081,0.000477002,-0.015142,0.794837,0.0102574,0.0246484,825,610,-3.44284,5.4126
-392,414,-3.52264,-5.55457,-0.00886494,-0.0109339,0.0104757,0.00062722,-0.020426,0.736183,0.0138312,0.0297783,832,610,-3.52267,5.55454
-385,414,-3.74725,-5.63696,-0.0101473,-0.0169057,0.0134937,0.000383885,-0.0274369,0.662707,0.0184205,0.0419735,839,610,-3.74725,5.63698
-378,414,-3.61877,-5.72205,0,0,0,0,0,0,0,-1,846,610,-3.61879,5.72205
-371,414,-3.55896,-5.48523,0,0,0,0,0,0,0,-1,853,610,-3.55895,5.48526
-364,414,-3.46417,-5.16553,0,0,0,0,0,0,0,-1,860,610,-3.4642,5.1655
-357,414,-5.95874,-2.51605,0,0,0,0,0,0,0,-1,867,610,-5.95872,2.51603
-350,414,-6.4502,-2.41821,0,0,0,0,0,0,0,-1,874,610,-6.45021,2.41822
-343,414,-6.80249,-2.32117,0,0,0,0,0,0,0,-1,881,610,-6.80252,2.32116
-336,414,-7.11017,-2.52026,0,0,0,0,0,0,0,-1,888,610,-7.11016,2.52026
-329,414,-7.59747,-2.70313,0,0,0,0,0,0,0,-1,895,610,-7.59747,2.70315
-322,414,-4.42236,-1.29163,0,0,0,0,0,0,0,-1,902,610,-4.42238,1.2916
-315,414,0,0,0,0,0,0,0,0,0,-1,909,610,0,0
-308,414,0,0,0,0,0,0,0,0,0,-1,916,610,0,0
-301,414,0,0,0,0,0,0,0,0,0,-1,923,610,0,0
-294,414,0,0,0,0,0,0,0,0,0,-1,930,610,0,0
-287,414,0,0,0,0,0,0,0,0,0,-1,937,610,0,0
-280,414,0,0,0,0,0,0,0,0,0,-1,944,610,0,0
-273,414,0,0,0,0,0,0,0,0,0,-1,951,610,0,0
-266,414,0,0,0,0,0,0,0,0,0,-1,958,610,0,0
-259,414,0,0,0,0,0,0,0,0,0,-1,965,610,0,0
-252,414,0,0,0,0,0,0,0,0,0,-1,972,610,0,0
-245,414,0,0,0,0,0,0,0,0,0,-1,979,610,0,0
-238,414,0,0,0,0,0,0,0,0,0,-1,986,610,0,0
-231,414,0,0,0,0,0,0,0,0,0,-1,993,610,0,0
-224,414,0,0,0,0,0,0,0,0,0,-1,1000,610,0,0
-217,414,0,0,0,0,0,0,0,0,0,-1,1007,610,0,0
-210,414,0,0,0,0,0,0,0,0,0,-1,1014,610,0,0
-203,414,0,0,0,0,0,0,0,0,0,-1,1021,610,0,0
-196,414,0,0,0,0,0,0,0,0,0,-1,1028,610,0,0
-189,414,0,0,0,0,0,0,0,0,0,-1,1035,610,0,0
-182,414,0,0,0,0,0,0,0,0,0,-1,1042,610,0,0
-175,414,0,0,0,0,0,0,0,0,0,-1,1049,610,0,0
-168,414,0,0,0,0,0,0,0,0,0,-1,1056,610,0,0
-161,414,0,0,0,0,0,0,0,0,0,-1,1063,610,0,0
-154,414,0,0,0,0,0,0,0,0,0,-1,1070,610,0,0
-147,414,0,0,0,0,0,0,0,0,0,-1,1077,610,0,0
-140,414,0,0,0,0,0,0,0,0,0,-1,1084,610,0,0
-133,414,0,0,0,0,0,0,0,0,0,-1,1091,610,0,0
-126,414,0,0,0,0,0,0,0,0,0,-1,1098,610,0,0
-119,414,0,0,0,0,0,0,0,0,0,-1,1105,610,0,0
-112,414,0,0,0,0,0,0,0,0,0,-1,1112,610,0,0
-105,414,0,0,0,0,0,0,0,0,0,-1,1119,610,0,0
-98,414,0,0,0,0,0,0,0,0,0,-1,1126,610,0,0
-91,414,0,0,0,0,0,0,0,0,0,-1,1133,610,0,0
-84,414,0,0,0,0,0,0,0,0,0,-1,1140,610,0,0
-77,414,0,0,0,0,0,0,0,0,0,-1,1147,610,0,0
-70,414,0,0,0,0,0,0,0,0,0,-1,1154,610,0,0
-63,414,0,0,0,0,0,0,0,0,0,-1,1161,610,0,0
-56,414,0,0,0,0,0,0,0,0,0,-1,1168,610,0,0
-49,414,0,0,0,0,0,0,0,0,0,-1,1175,610,0,0
-42,414,0,0,0,0,0,0,0,0,0,-1,1182,610,0,0
-35,414,0,0,0,0,0,0,0,0,0,-1,1189,610,0,0
-28,414,0,0,0,0,0,0,0,0,0,-1,1196,610,0,0
-21,414,0,0,0,0,0,0,0,0,0,-1,1203,610,0,0
-14,414,0,0,0,0,0,0,0,0,0,-1,1210,610,0,0
-7,414,0,0,0,0,0,0,0,0,0,-1,1217,610,0,0
0,414,0,0,0,0,0,0,0,0,0,-1,1224,610,0,0
7,414,0,0,0,0,0,0,0,0,0,-1,1231,610,0,0
14,414,0,0,0,0,0,0,0,0,0,-1,1238,610,0,0
21,414,0,0,0,0,0,0,0,0,0,-1,1245,610,0,0
28,414,0,0,0,0,0,0,0,0,0,-1,1252,610,0,0
35,414,0,0,0,0,0,0,0,0,0,-1,1259,610,0,0
42,414,0,0,0,0,0,0,0,0,0,-1,1266,610,0,0
49,414,0,0,0,0,0,0,0,0,0,-1,1273,610,0,0
56,414,0,0,0,0,0,0,0,0,0,-1,1280,610,0,0
63,414,0,0,0,0,0,0,0,0,0,-1,1287,610,0,0
70,414,0,0,0,0,0,0,0,0,0,-1,1294,610,0,0
77,414,0,0,0,0,0,0,0,0,0,-1,1301,610,0,0
84,414,0,0,0,0,0,0,0,0,0,-1,1308,610,0,0
91,414,0,0,0,0,0,0,0,0,0,-1,1315,610,0,0
98,414,0,0,0,0,0,0,0,0,0,-1,1322,610,0,0
105,414,0,0,0,0,0,0,0,0,0,-1,1329,610,0,0
112,414,0,0,0,0,0,0,0,0,0,-1,1336,610,0,0
119,414,0,0,0,0,0,0,0,0,0,-1,1343,610,0,0
126,414,0,0,0,0,0,0,0,0,0,-1,1350,610,0,0
133,414,0,0,0,0,0,0,0,0,0,-1,1357,610,0,0
140,414,0,0,0,0,0,0,0,0,0,-1,1364,610,0,0
147,414,0,0,0,0,0,0,0,0,0,-1,1371,610,0,0
154,414,0,0,0,0,0,0,0,0,0,-1,1378,610,0,0
161,414,0,0,0,0,0,0,0,0,0,-1,1385,610,0,0
168,414,0,0,0,0,0,0,0,0,0,-1,1392,610,0,0
175,414,0,0,0,0,0,0,0,0,0,-1,1399,610,0,0
182,414,0,0,0,0,0,0,0,0,0,-1,1406,610,0,0
189,414,0,0,0,0,0,0,0,0,0,-1,1413,610,0,0
196,414,0,0,0,0,0,0,0,0,0,-1,1420,610,0,0
203,414,0,0,0,0,0,0,0,0,0,-1,1427,610,0,0
210,414,0,0,0,0,0,0,0,0,0,-1,1434,610,0,0
217,414,0,0,0,0,0,0,0,0,0,-1,1441,610,0,0
224,414,0,0,0,0,0,0,0,0,0,-1,1448,610,0,0
231,414,0,0,0,0,0,0,0,0,0,-1,1455,610,0,0
238,414,0,0,0,0,0,0,0,0,0,-1,1462,610,0,0
245,414,0,0,0,0,0,0,0,0,0,-1,1469,610,0,0
252,414,0,0,0,0,0,0,0,0,0,-1,1476,610,0,0
259,414,0,0,0,0,0,0,0,0,0,-1,1483,610,0,0
266,414,0,0,0,0,0,0,0,0,0,-1,1490,610,0,0
273,414,0,0,0,0,0,0,0,0,0,-1,1497,610,0,0
280,414,0,0,0,0,0,0,0,0,0,-1,1504,610,0,0
287,414,0,0,0,0,0,0,0,0,0,-1,1511,610,0,0
294,414,0,0,0,0,0,0,0,0,0,-1,1518,610,0,0
301,414,0,0,0,0,0,0,0,0,0,-1,1525,610,0,0
308,414,0,0,0,0,0,0,0,0,0,-1,1532,610,0,0
315,414,0,0,0,0,0,0,0,0,0,-1,1539,610,0,0
322,414,0,0,0,0,0,0,0,0,0,-1,1546,610,0,0
329,414,0,0,0,0,0,0,0,0,0,-1,1553,610,0,0
336,414,0,0,0,0,0,0,0,0,0,-1,1560,610,0,0
343,414,0,0,0,0,0,0,0,0,0,-1,1567,610,0,0
350,414,0,0,0,0,0,0,0,0,0,-1,1574,610,0,0
357,414,0,0,0,0,0,0,0,0,0,-1,1581,610,0,0
364,414,0,0,0,0,0,0,0,0,0,-1,1588,610,0,0
371,414,0,0,0,0,0,0,0,0,0,-1,1595,610,0,0
378,414,0,0,0,0,0,0,0,0,0,-1,1602,610,0,0
385,414,0,0,0,0,0,0,0,0,0,-1,1609,610,0,0
392,414,0,0,0,0,0,0,0,0,0,-1,1616,610,0,0
399,414,0,0,0,0,0,0,0,0,0,-1,1623,610,0,0
406,414,0,0,0,0,0,0,0,0,0,-1,1630,610,0,0
413,414,0,0,0,0,0,0,0,0,0,-1,1637,610,0,0
420,414,0,0,0,0,0,0,0,0,0,-1,1644,610,0,0
427,414,0,0,0,0,0,0,0,0,0,-1,1651,610,0,0
434,414,0,0,0,0,0,0,0,0,0,-1,1658,610,0,0
441,414,7.84375,0.584412,0,0,0,0,0,0,0,-1,1665,610,7.84379,-0.584394
448,414,7.40808,1.25446,0,0,0,0,0,0,0,-1,1672,610,7.40807,-1.25446
455,414,6.3512,1.73846,0,0,0,0,0,0,0,-1,1679,610,6.3512,-1.73847
462,414,8.18103,3.22113,0,0,0,0,0,0,0,-1,1686,610,8.18108,-3.22112
469,414,8.38513,2.49579,0,0,0,0,0,0,0,-1,1693,610,8.38516,-2.49576
476,414,8.64099,1.71161,0,0,0,0,0,0,0,-1,1700,610,8.64097,-1.71164
483,414,8.62744,0.687622,0,0,0,0,0,0,0,-1,1707,610,8.62749,-0.687615
490,414,8.38831,-0.0302734,0,0,0,0,0,0,0,-1,1714,610,8.38835,0.0302913
497,414,4.71094,-0.110046,0,0,0,0,0,0,0,-1,1721,610,4.71089,0.110024
504,414,7.19568,-1.43835,0,0,0,0,0,0,0,-1,1728,610,7.19563,1.43836
511,414,5.94153,-1.28772,0,0,0,0,0,0,0,-1,1735,610,5.94151,1.28769
518,414,4.53381,-0.0996704,0,0,0,0,0,0,0,-1,1742,610,4.53378,0.0996819
525,414,6.18811,-1.64056,0,0,0,0,0,0,0,-1,1749,610,6.18814,1.64055
532,414,9.42786,-3.81848,0,0,0,0,0,0,0,-1,1756,610,9.42783,3.81848
539,414,9.48328,-3.43188,0.00184645,0.00247153,0.00204186,0.00422463,9.33448e-05,0.861342,0.00278583,0.0416263,1763,610,9.48323,3.4319
546,414,9.4801,-3.05914,0.00111342,0.00174431,0.00133539,0.00280101,5.67203e-05,0.901381,0.00184872,0.0134226,1770,610,9.48005,3.05913
553,414,9.48718,-2.78003,0.000646905,0.00124124,0.000869824,0.00186326,2.48853e-05,0.950001,0.00123396,0.0119408,1777,610,9.48723,2.78002
560,414,9.49609,-2.48962,0.000297243,0.000922864,0.000538667,0.00123296,-1.28534e-05,1.04846,0.000826291,0.014065,1784,610,9.49606,2.48962
567,414,9.49536,-2.19611,9.80721e-05,0.000718505,0.000357183,0.000881379,-6.48013e-05,1.14297,0.000610334,0.0233067,1791,610,9.4954,2.19608
574,414,9.48132,-1.9306,0.000197521,0.000665066,0.000405249,0.000899136,-3.65489e-05,1.04701,0.000611971,0.0201226,1798,610,9.48135,1.93062
581,414,9.49231,-1.66138,0.000439283,0.000770214,0.000589652,0.00121718,-7.67899e-06,0.922188,0.000814023,0.0150847,1805,610,9.49235,1.66135
588,414,9.46777,-1.42285,0.000775306,0.00102166,0.000923544,0.0018302,-3.32411e-05,0.851693,0.00123137,0.0146351,1812,610,9.46781,1.42285
595,414,9.46448,-1.14832,0.00134401,0.00148574,0.00146509,0.00288168,-5.1922e-05,0.809565,0.00193866,0.0205999,1819,610,9.46449,1.14833
602,414,9.46997,-0.877319,0.00201178,0.00217372,0.00219734,0.00429158,-0.000106082,0.803815,0.00289706,0.0242132,1826,610,9.46996,0.877349
609,414,9.40967,-0.61438,0.00265232,0.00285353,0.00298631,0.00574093,-0.000235086,0.802236,0.00390801,0.0241067,1833,610,9.4097,0.614405
616,414,9.77698,-0.160278,0,0,0,0,0,0,0,-1,1840,610,9.77703,0.160258
623,414,9.6969,0.0378418,0,0,0,0,0,0,0,-1,1847,610,9.69685,-0.0378644
630,414,5.47144,0.499329,0,0,0,0,0,0,0,-1,1854,610,5.47142,-0.499303
637,414,6.57898,2.38019,0,0,0,0,0,0,0,-1,1861,610,6.579,-2.38019
644,414,5.87073,1.51422,0,0,0,0,0,0,0,-1,1868,610,5.87076,-1.51424
651,414,3.6377,0.820557,0,0,0,0,0,0,0,-1,1875,610,3.6377,-0.820543
658,414,2.29761,3.87323,0,0,0,0,0,0,0,-1,1882,610,2.29758,-3.87325
665,414,0,0,0,0,0,0,0,0,0,-1,1889,610,0,0
672,414,0,0,0,0,0,0,0,0,0,-1,1896,610,0,0
679,414,0,0,0,0,0,0,0,0,0,-1,1903,610,0,0
686,414,0,0,0,0,0,0,0,0,0,-1,1910,610,0,0
693,414,0,0,0,0,0,0,0,0,0,-1,1917,610,0,0
700,414,0,0,0,0,0,0,0,0,0,-1,1924,610,0,0
707,414,0,0,0,0,0,0,0,0,0,-1,1931,610,0,0
714,414,0,0,0,0,0,0,0,0,0,-1,1938,610,0,0
721,414,0,0,0,0,0,0,0,0,0,-1,1945,610,0,0
728,414,0,0,0,0,0,0,0,0,0,-1,1952,610,0,0
735,414,0,0,0,0,0,0,0,0,0,-1,1959,610,0,0
742,414,0,0,0,0,0,0,0,0,0,-1,1966,610,0,0
749,414,0,0,0,0,0,0,0,0,0,-1,1973,610,0,0
756,414,0,0,0,0,0,0,0,0,0,-1,1980,610,0,0
763,414,0,0,0,0,0,0,0,0,0,-1,1987,610,0,0
770,414,0,0,0,0,0,0,0,0,0,-1,1994,610,0,0
777,414,0,0,0,0,0,0,0,0,0,-1,2001,610,0,0
784,414,0,0,0,0,0,0,0,0,0,-1,2008,610,0,0
791,414,0,0,0,0,0,0,0,0,0,-1,2015,610,0,0
798,414,0,0,0,0,0,0,0,0,0,-1,2022,610,0,0
805,414,0,0,0,0,0,0,0,0,0,-1,2029,610,0,0
812,414,0,0,0,0,0,0,0,0,0,-1,2036,610,0,0
-700,407,0,0,0,0,0,0,0,0,0,-1,524,617,0,0
-693,407,0,0,0,0,0,0,0,0,0,-1,531,617,0,0
-686,407,0,0,0,0,0,0,0,0,0,-1,538,617,0,0
-679,407,0,0,0,0,0,0,0,0,0,-1,545,617,0,0
-672,407,0,0,0,0,0,0,0,0,0,-1,552,617,0,0
-665,407,0,0,0,0,0,0,0,0,0,-1,559,617,0,0
-658,407,0,0,0,0,0,0,0,0,0,-1,566,617,0,0
-651,407,0,0,0,0,0,0,0,0,0,-1,573,617,0,0
-644,407,0,0,0,0,0,0,0,0,0,-1,580,617,0,0
-637,407,0,0,0,0,0,0,0,0,0,-1,587,617,0,0
-630,407,0,0,0,0,0,0,0,0,0,-1,594,617,0,0
-623,407,0,0,0,0,0,0,0,0,0,-1,601,617,0,0
-616,407,0,0,0,0,0,0,0,0,0,-1,608,617,0,0
-609,407,0,0,0,0,0,0,0,0,0,-1,615,617,0,0
-602,407,0,0,0,0,0,0,0,0,0,-1,622,617,0,0
-595,407,0,0,0,0,0,0,0,0,0,-1,629,617,0,0
-588,407,0,0,0,0,0,0,0,0,0,-1,636,617,0,0
-581,407,0,0,0,0,0,0,0,0,0,-1,643,617,0,0
-574,407,0,0,0,0,0,0,0,0,0,-1,650,617,0,0
-567,407,0,0,0,0,0,0,0,0,0,-1,657,617,0,0
-560,407,0,0,0,0,0,0,0,0,0,-1,664,617,0,0
-553,407,0,0,0,0,0,0,0,0,0,-1,671,617,0,0
-546,407,-8.54517,-0.658142,0,0,0,0,0,0,0,-1,678,617,-8.54515,0.658112
-539,407,-6.09442,-1.01154,0,0,0,0,0,0,0,-1,685,617,-6.09441,1.01155
-532,407,-7.75665,1.62152,0,0,0,0,0,0,0,-1,692,617,-7.75667,-1.62154
-525,407,-4.53937,-5.61676,0,0,0,0,0,0,0,-1,699,617,-4.53938,5.61677
-518,407,-3.18182,-2.29443,0,0,0,0,0,0,0,-1,706,617,-3.18185,2.2944
-511,407,-2.87604,-3.50256,0,0,0,0,0,0,0,-1,713,617,-2.87606,3.50259
-504,407,-3.66583,-3.13287,0,0,0,0,0,0,0,-1,720,617,-3.66581,3.13287
-497,407,-3.57416,-2.62561,-0.000311043,0.00521837,-0.000566995,0.00527591,-0.000368585,-1.46966,0.00364635,0.0408111,727,617,-3.57415,2.6256
-490,407,-3.58624,-2.15491,0.000832183,0.00531291,-0.00177264,0.00592938,0.000215713,-1.23611,0.00388301,0.0212829,734,617,-3.58625,2.15491
-483,407,-3.60223,-2.34705,0.00160069,0.00392069,-0.0021629,0.00521502,0.000306362,-1.03154,0.00337919,0.0114022,741,617,-3.60223,2.34707
-476,407,-3.63422,-2.5827,0.00207968,0.00293974,-0.00216768,0.00471963,0.000299795,-0.883318,0.0030514,0.0094237,748,617,-3.63425,2.58272
-469,407,-3.66718,-2.83789,0.00226161,0.00206678,-0.00200281,0.00416937,0.00015902,-0.761099,0.00272812,0.0114031,755,617,-3.66718,2.8379
-462,407,-3.66821,-3.11005,0.00214789,0.00143216,-0.00176422,0.00359017,-1.0123e-05,-0.685332,0.00239683,0.0182085,762,617,-3.66822,3.11004
-455,407,-3.67114,-3.39673,0.00169929,0.000905774,-0.00132378,0.00268449,-7.94239e-05,-0.6398,0.00181671,0.0210294,769,617,-3.67116,3.39671
-448,407,-3.63898,-3.64191,0.00113787,0.000577723,-0.000848551,0.00175137,-3.57815e-05,-0.625997,0.00117969,0.0187509,776,617,-3.63896,3.64188
-441,407,-3.64136,-3.87781,0.000174384,0.000580155,-0.000251496,0.000700399,5.41401e-05,-1.12481,0.000449973,0.0144824,783,617,-3.64137,3.87783
-434,407,-3.66327,-4.11981,-0.00100626,2.2567e-05,0.000701643,0.000378167,-0.00136186,1.10172,0.00105677,0.0101604,790,617,-3.66327,4.11984
-427,407,-3.66083,-4.37408,-0.00232303,-0.000408537,0.00176599,0.000642953,-0.00337452,1.03376,0.00249181,0.00992632,797,617,-3.6608,4.37406
-420,407,-3.65936,-4.62811,-0.00381501,-0.00173729,0.00306439,0.000459541,-0.00601185,0.948824,0.00416953,0.0100796,804,617,-3.65934,4.62813
-413,407,-3.65186,-4.88654,-0.00562703,-0.00297817,0.00469866,0.000579149,-0.00918435,0.922771,0.0063248,0.0113943,811,617,-3.65183,4.88651
-406,407,-3.68549,-5.08453,-0.00767434,-0.00501076,0.00677766,0.000564717,-0.0132498,0.882411,0.00902734,0.0233364,818,617,-3.68546,5.08451
-399,407,-3.62225,-5.39069,0,0,0,0,0,0,0,-1,825,617,-3.62227,5.39069
-392,407,-3.84827,-5.77411,0,0,0,0,0,0,0,-1,832,617,-3.84829,5.7741
-385,407,-4.07434,-6.15753,0,0,0,0,0,0,0,-1,839,617,-4.07431,6.15752
-378,407,-4.54865,-5.72198,0,0,0,0,0,0,0,-1,846,617,-4.54863,5.722
-371,407,-4.4549,-5.58197,0,0,0,0,0,0,0,-1,853,617,-4.45492,5.58199
-364,407,-6.26666,-1.91302,0,0,0,0,0,0,0,-1,860,617,-6.26669,1.91305
-357,407,-6.64447,-1.83337,0,0,0,0,0,0,0,-1,867,617,-6.64446,1.8334
-350,407,-7.03351,-1.77551,0,0,0,0,0,0,0,-1,874,617,-7.03349,1.77551
-343,407,-7.40967,-1.95026,0,0,0,0,0,0,0,-1,881,617,-7.40969,1.95026
-336,407,-8.10229,-2.40662,0,0,0,0,0,0,0,-1,888,617,-8.10229,2.40664
-329,407,-8.81232,-2.76331,0,0,0,0,0,0,0,-1,895,617,-8.81235,2.76331
-322,407,0,0,0,0,0,0,0,0,0,-1,902,617,0,0
-315,407,0,0,0,0,0,0,0,0,0,-1,909,617,0,0
-308,407,0,0,0,0,0,0,0,0,0,-1,916,617,0,0
-301,407,0,0,0,0,0,0,0,0,0,-1,923,617,0,0
-294,407,0,0,0,0,0,0,0,0,0,-1,930,617,0,0
-287,407,0,0,0,0,0,0,0,0,0,-1,937,617,0,0
-280,407,0,0,0,0,0,0,0,0,0,-1,944,617,0,0
-273,407,0,0,0,0,0,0,0,0,0,-1,951,617,0,0
-266,407,0,0,0,0,0,0,0,0,0,-1,958,617,0,0
-259,407,0,0,0,0,0,0,0,0,0,-1,965,617,0,0
-252,407,0,0,0,0,0,0,0,0,0,-1,972,617,0,0
-245,407,0,0,0,0,0,0,0,0,0,-1,979,617,0,0
-238,407,0,0,0,0,0,0,0,0,0,-1,986,617,0,0
-231,407,0,0,0,0,0,0,0,0,0,-1,993,617,0,0
-224,407,0,0,0,0,0,0,0,0,0,-1,1000,617,0,0
-217,407,0,0,0,0,0,0,0,0,0,-1,1007,617,0,0
-210,407,0,0,0,0,0,0,0,0,0,-1,1014,617,0,0
-203,407,0,0,0,0,0,0,0,0,0,-1,1021,617,0,0
-196,407,0,0,0,0,0,0,0,0,0,-1,1028,617,0,0
-189,407,0,0,0,0,0,0,0,0,0,-1,1035,617,0,0
-182,407,0,0,0,0,0,0,0,0,0,-1,1042,617,0,0
-175,407,0,0,0,0,0,0,0,0,0,-1,1049,617,0,0
-168,407,0,0,0,0,0,0,0,0,0,-1,1056,617,0,0
-161,407,0,0,0,0,0,0,0,0,0,-1,1063,617,0,0
-154,407,0,0,0,0,0,0,0,0,0,-1,1070,617,0,0
-147,407,0,0,0,0,0,0,0,0,0,-1,1077,617,0,0
-140,407,0,0,0,0,0,0,0,0,0,-1,1084,617,0,0
-133,407,0,0,0,0,0,0,0,0,0,-1,1091,617,0,0
-126,407,0,0,0,0,0,0,0,0,0,-1,1098,617,0,0
-119,407,0,0,0,0,0,0,0,0,0,-1,1105,617,0,0
-112,407,0,0,0,0,0,0,0,0,0,-1,1112,617,0,0
-105,407,0,0,0,0,0,0,0,0,0,-1,1119,617,0,0
-98,407,0,0,0,0,0,0,0,0,0,-1,1126,617,0,0
-91,407,0,0,0,0,0,0,0,0,0,-1,1133,617,0,0
-84,407,0,0,0,0,0,0,0,0,0,-1,1140,617,0,0
-77,407,0,0,0,0,0,0,0,0,0,-1,1147,617,0,0
-70,407,0,0,0,0,0,0,0,0,0,-1,1154,617,0,0
-63,407,0,0,0,0,0,0,0,0,0,-1,1161,617,0,0
-56,407,0,0,0,0,0,0,0,0,0,-1,1168,617,0,0
-49,407,0,0,0,0,0,0,0,0,0,-1,1175,617,0,0
-42,407,0,0,0,0,0,0,0,0,0,-1,1182,617,0,0
-35,407,0,0,0,0,0,0,0,0,0,-1,1189,617,0,0
-28,407,0,0,0,0,0,0,0,0,0,-1,1196,617,0,0
-21,407,0,0,0,0,0,0,0,0,0,-1,1203,617,0,0
-14,407,0,0,0,0,0,0,0,0,0,-1,1210,617,0,0
-7,407,0,0,0,0,0,0,0,0,0,-1,1217,617,0,0
0,407,0,0,0,0,0,0,0,0,0,-1,1224,617,0,0
7,407,0,0,0,0,0,0,0,0,0,-1,1231,617,0,0
14,407,0,0,0,0,0,0,0,0,0,-1,1238,617,0,0
21,407,0,0,0,0,0,0,0,0,0,-1,1245,617,0,0
28,407,0,0,0,0,0,0,0,0,0,-1,1252,617,0,0
35,407,0,0,0,0,0,0,0,0,0,-1,1259,617,0,0
42,407,0,0,0,0,0,0,0,0,0,-1,1266,617,0,0
49,407,0,0,0,0,0,0,0,0,0,-1,1273,617,0,0
56,407,0,0,0,0,0,0,0,0,0,-1,1280,617,0,0
63,407,0,0,0,0,0,0,0,0,0,-1,1287,617,0,0
70,407,0,0,0,0,0,0,0,0,0,-1,1294,617,0,0
77,407,0,0,0,0,0,0,0,0,0,-1,1301,617,0,0
84,407,0,0,0,0,0,0,0,0,0,-1,1308,617,0,0
91,407,0,0,0,0,0,0,0,0,0,-1,1315,617,0,0
98,407,0,0,0,0,0,0,0,0,0,-1,1322,617,0,0
105,407,0,0,0,0,0,0,0,0,0,-1,1329,617,0,0
112,407,0,0,0,0,0,0,0,0,0,-1,1336,617,0,0
119,407,0,0,0,0,0,0,0,0,0,-1,1343,617,0,0
126,407,0,0,0,0,0,0,0,0,0,-1,1350,617,0,0
133,407,0,0,0,0,0,0,0,0,0,-1,1357,617,0,0
140,407,0,0,0,0,0,0,0,0,0,-1,1364,617,0,0
147,407,0,0,0,0,0,0,0,0,0,-1,1371,617,0,0
154,407,0,0,0,0,0,0,0,0,0,-1,1378,617,0,0
161,407,0,0,0,0,0,0,0,0,0,-1,1385,617,0,0
168,407,0,0,0,0,0,0,0,0,0,-1,1392,617,0,0
175,407,0,0,0,0,0,0,0,0,0,-1,1399,617,0,0
182,407,0,0,0,0,0,0,0,0,0,-1,1406,617,0,0
189,407,0,0,0,0,0,0,0,0,0,-1,1413,617,0,0
196,407,0,0,0,0,0,0,0,0,0,-1,1420,617,0,0
203,407,0,0,0,0,0,0,0,0,0,-1,1427,617,0,0
210,407,0,0,0,0,0,0,0,0,0,-1,1434,617,0,0
217,407,0,0,0,0,0,0,0,0,0,-1,1441,617,0,0
224,407,0,0,0,0,0,0,0,0,0,-1,1448,617,0,0
231,407,0,0,0,0,0,0,0,0,0,-1,1455,617,0,0
238,407,0,0,0,0,0,0,0,0,0,-1,1462,617,0,0
245,407,0,0,0,0,0,0,0,0,0,-1,1469,617,0,0
252,407,0,0,0,0,0,0,0,0,0,-1,1476,617,0,0
259,407,0,0,0,0,0,0,0,0,0,-1,1483,617,0,0
266,407,0,0,0,0,0,0,0,0,0,-1,1490,617,0,0
273,407,0,0,0,0,0,0,0,0,0,-1,1497,617,0,0
280,407,0,0,0,0,0,0,0,0,0,-1,1504,617,0,0
287,407,0,0,0,0,0,0,0,0,0,-1,1511,617,0,0
294,407,0,0,0,0,0,0,0,0,0,-1,1518,617,0,0
301,407,0,0,0,0,0,0,0,0,0,-1,1525,617,0,0
308,407,0,0,0,0,0,0,0,0,0,-1,1532,617,0,0
315,407,0,0,0,0,0,0,0,0,0,-1,1539,617,0,0
322,407,0,0,0,0,0,0,0,0,0,-1,1546,617,0,0
329,407,0,0,0,0,0,0,0,0,0,-1,1553,617,0,0
336,407,0,0,0,0,0,0,0,0,0,-1,1560,617,0,0
343,407,0,0,0,0,0,0,0,0,0,-1,1567,617,0,0
350,407,0,0,0,0,0,0,0,0,0,-1,1574,617,0,0
357,407,0,0,0,0,0,0,0,0,0,-1,1581,617,0,0
364,407,0,0,0,0,0,0,0,0,0,-1,1588,617,0,0
371,407,0,0,0,0,0,0,0,0,0,-1,1595,617,0,0
378,407,0,0,0,0,0,0,0,0,0,-1,1602,617,0,0
385,407,0,0,0,0,0,0,0,0,0,-1,1609,617,0,0
392,407,0,0,0,0,0,0,0,0,0,-1,1616,617,0,0
399,407,0,0,0,0,0,0,0,0,0,-1,1623,617,0,0
406,407,0,0,0,0,0,0,0,0,0,-1,1630,617,0,0
413,407,0,0,0,0,0,0,0,0,0,-1,1637,617,0,0
420,407,0,0,0,0,0,0,0,0,0,-1,1644,617,0,0
427,407,0,0,0,0,0,0,0,0,0,-1,1651,617,0,0
434,407,0,0,0,0,0,0,0,0,0,-1,1658,617,0,0
441,407,0,0,0,0,0,0,0,0,0,-1,1665,617,0,0
448,407,7.02893,2.13843,0,0,0,0,0,0,0,-1,1672,617,7.02899,-2.13844
455,407,7.55237,2.29242,0,0,0,0,0,0,0,-1,1679,617,7.55236,-2.29244
462,407,8.2926,2.46173,0,0,0,0,0,0,0,-1,1686,617,8.29261,-2.46174
469,407,8.71509,2.22681,0,0,0,0,0,0,0,-1,1693,617,8.71511,-2.22681
476,407,8.89917,1.47766,0,0,0,0,0,0,0,-1,1700,617,8.89914,-1.47768
483,407,9.02612,0.682983,0,0,0,0,0,0,0,-1,1707,617,9.02608,-0.683004
490,407,9.12659,0.000671387,0,0,0,0,0,0,0,-1,1714,617,9.12653,-0.000675931
497,407,7.76819,0.855835,0,0,0,0,0,0,0,-1,1721,617,7.7682,-0.855865
504,407,4.69336,0.160706,0,0,0,0,0,0,0,-1,1728,617,4.69337,-0.1607
511,407,4.07104,-0.00140381,0,0,0,0,0,0,0,-1,1735,617,4.07109,0.00141425
518,407,6.09534,1.9411,0,0,0,0,0,0,0,-1,1742,617,6.09532,-1.94113
525,407,5.72534,-1.35986,0,0,0,0,0,0,0,-1,1749,617,5.72529,1.35988
532,407,7.31763,-2.34937,0,0,0,0,0,0,0,-1,1756,617,7.31766,2.34937
539,407,9.67566,-3.50269,0,0,0,0,0,0,0,-1,1763,617,9.67561,3.50271
546,407,9.75049,-3.04211,0.00069093,0.00208509,0.00137522,0.00292981,-0.000153789,1.01997,0.00200643,0.0150473,1770,617,9.75043,3.04211
553,407,9.74841,-2.7652,0.000289302,0.00148543,0.000881153,0.00195231,-0.000177581,1.08355,0.00136459,0.0146974,1777,617,9.74837,2.76522
560,407,9.78137,-2.44977,2.761e-05,0.00110735,0.000544148,0.001334,-0.000199043,1.17612,0.000962565,0.0153705,1784,617,9.78137,2.44978
567,407,9.75684,-2.19885,-0.000106409,0.000824214,0.000347491,0.000939648,-0.000221843,1.25007,0.000711994,0.0275134,1791,617,9.75684,2.19888
574,407,9.76013,-1.94519,4.94157e-05,0.000712822,0.00038201,0.000887042,-0.000124805,1.14291,0.000637051,0.0245181,1798,617,9.76019,1.94517
581,407,9.75586,-1.67584,0.000356773,0.000783297,0.000558628,0.00116799,-2.79163e-05,0.967741,0.000788128,0.017335,1805,617,9.75582,1.67584
588,407,9.73096,-1.40924,0.000751095,0.00101027,0.000874574,0.00176481,-3.43868e-06,0.85895,0.00117769,0.0122458,1812,617,9.73093,1.40925
595,407,9.76318,-1.15405,0.00137731,0.00143618,0.00138069,0.00278775,2.57384e-05,0.796056,0.00184998,0.0224042,1819,617,9.76321,1.15403
602,407,9.76758,-0.870728,0.00205069,0.00208325,0.00205463,0.00412166,1.22772e-05,0.789359,0.00274369,0.0184364,1826,617,9.7676,0.870701
609,407,9.74207,-0.561096,0.00249361,0.00270585,0.00268092,0.00528275,-8.32912e-05,0.805179,0.00354992,0.0160001,1833,617,9.7421,0.561106
616,407,9.7998,-0.189209,0.00287451,0.00401598,0.00361395,0.00710399,-0.000213495,0.863714,0.00480874,0.0268251,1840,617,9.79978,0.189181
623,407,10.0182,0.254333,0,0,0,0,0,0,0,-1,1847,617,10.0181,-0.254307
630,407,7.06177,0.814575,0,0,0,0,0,0,0,-1,1854,617,7.06178,-0.814579
637,407,6.27808,1.17114,0,0,0,0,0,0,0,-1,1861,617,6.27803,-1.17116
644,407,5.09766,2.27747,0,0,0,0,0,0,0,-1,1868,617,5.09764,-2.27746
651,407,7.37524,0.0513916,0,0,0,0,0,0,0,-1,1875,617,7.3752,-0.0513923
658,407,3.76685,0.594177,0,0,0,0,0,0,0,-1,1882,617,3.76683,-0.594184
665,407,5.76123,0.375061,0,0,0,0,0,0,0,-1,1889,617,5.76118,-0.37509
672,407,0,0,0,0,0,0,0,0,0,-1,1896,617,0,0
679,407,0,0,0,0,0,0,0,0,0,-1,1903,617,0,0
686,407,0,0,0,0,0,0,0,0,0,-1,1910,617,0,0
693,407,0,0,0,0,0,0,0,0,0,-1,1917,617,0,0
700,407,0,0,0,0,0,0,0,0,0,-1,1924,617,0,0
707,407,0,0,0,0,0,0,0,0,0,-1,1931,617,0,0
714,407,0,0,0,0,0,0,0,0,0,-1,1938,617,0,0
721,407,0,0,0,0,0,0,0,0,0,-1,1945,617,0,0
728,407,0,0,0,0,0,0,0,0,0,-1,1952,617,0,0
735,407,0,0,0,0,0,0,0,0,0,-1,1959,617,0,0
742,407,0,0,0,0,0,0,0,0,0,-1,1966,617,0,0
749,407,0,0,0,0,0,0,0,0,0,-1,1973,617,0,0
756,407,0,0,0,0,0,0,0,0,0,-1,1980,617,0,0
763,407,0,0,0,0,0,0,0,0,0,-1,1987,617,0,0
770,407,0,0,0,0,0,0,0,0,0,-1,1994,617,0,0
777,407,0,0,0,0,0,0,0,0,0,-1,2001,617,0,0
784,407,0,0,0,0,0,0,0,0,0,-1,2008,617,0,0
791,407,0,0,0,0,0,0,0,0,0,-1,2015,617,0,0
798,407,0,0,0,0,0,0,0,0,0,-1,2022,617,0,0
805,407,0,0,0,0,0,0,0,0,0,-1,2029,617,0,0
812,407,0,0,0,0,0,0,0,0,0,-1,2036,617,0,0
-700,400,0,0,0,0,0,0,0,0,0,-1,524,624,0,0
-693,400,0,0,0,0,0,0,0,0,0,-1,531,624,0,0
-686,400,0,0,0,0,0,0,0,0,0,-1,538,624,0,0
-679,400,0,0,0,0,0,0,0,0,0,-1,545,624,0,0
-672,400,0,0,0,0,0,0,0,0,0,-1,552,624,0,0
-665,400,0,0,0,0,0,0,0,0,0,-1,559,624,0,0
-658,400,0,0,0,0,0,0,0,0,0,-1,566,624,0,0
-651,400,0,0,0,0,0,0,0,0,0,-1,573,624,0,0
-644,400,0,0,0,0,0,0,0,0,0,-1,580,624,0,0
-637,400,0,0,0,0,0,0,0,0,0,-1,587,624,0,0
-630,400,0,0,0,0,0,0,0,0,0,-1,594,624,0,0
-623,400,0,0,0,0,0,0,0,0,0,-1,601,624,0,0
-616,400,0,0,0,0,0,0,0,0,0,-1,608,624,0,0
-609,400,0,0,0,0,0,0,0,0,0,-1,615,624,0,0
-602,400,0,0,0,0,0,0,0,0,0,-1,622,624,0,0
-595,400,0,0,0,0,0,0,0,0,0,-1,629,624,0,0
-588,400,0,0,0,0,0,0,0,0,0,-1,636,624,0,0
-581,400,0,0,0,0,0,0,0,0,0,-1,643,624,0,0
-574,400,0,0,0,0,0,0,0,0,0,-1,650,624,0,0
-567,400,0,0,0,0,0,0,0,0,0,-1,657,624,0,0
-560,400,0,0,0,0,0,0,0,0,0,-1,664,624,0,0
-553,400,0,0,0,0,0,0,0,0,0,-1,671,624,0,0
-546,400,-8.41174,-1.4599,0,0,0,0,0,0,0,-1,678,624,-8.41173,1.45989
-539,400,-5.69104,-1.7337,0,0,0,0,0,0,0,-1,685,624,-5.69103,1.7337
-532,400,-3.03632,-2.03912,0,0,0,0,0,0,0,-1,692,624,-3.03632,2.03909
-525,400,-3.08356,-0.877563,0,0,0,0,0,0,0,-1,699,624,-3.08353,0.877541
-518,400,-3.42749,-1.6701,0,0,0,0,0,0,0,-1,706,624,-3.42747,1.6701
-511,400,-3.77142,-2.46265,0,0,0,0,0,0,0,-1,713,624,-3.77141,2.46266
-504,400,-3.00183,-1.39056,0,0,0,0,0,0,0,-1,720,624,-3.00182,1.39055
-497,400,-3.88135,-2.11957,-0.00169964,0.00331549,0.000982138,0.00350097,-0.00188512,1.38414,0.00315596,0.0350643,727,624,-3.88137,2.11955
-490,400,-3.8728,-2.08313,-0.0005326,0.00414416,-0.000425813,0.00418261,-0.000571054,-1.48073,0.00299695,0.0157715,734,624,-3.87277,2.08315
-483,400,-3.89716,-2.3338,0.0002734,0.00294513,-0.00100852,0.00328307,-6.45467e-05,-1.24746,0.00221054,0.0137187,741,624,-3.89715,2.33378
-476,400,-3.89587,-2.57147,0.000942205,0.00219564,-0.00119315,0.00291665,0.000221188,-1.02722,0.00187506,0.0130729,748,624,-3.89585,2.57149
-469,400,-3.91687,-2.83142,0.00136021,0.00154168,-0.00124733,0.00270157,0.000200322,-0.821705,0.00173813,0.0134458,755,624,-3.91685,2.83144
-462,400,-3.89532,-3.11401,0.00140793,0.0010726,-0.00118157,0.00243368,4.68568e-05,-0.714919,0.00160706,0.0177947,762,624,-3.8953,3.11402
-455,400,-3.89563,-3.37341,0.0011107,0.000707634,-0.00089471,0.00182629,-7.9599e-06,-0.674622,0.00122019,0.0197706,769,624,-3.89565,3.37338
-448,400,-3.91571,-3.61023,0.000629458,0.000507821,-0.000530393,0.00110251,3.47709e-05,-0.728314,0.000723694,0.0156026,776,624,-3.91572,3.61026
-441,400,-3.90302,-3.86554,-0.000334263,0.000503114,6.33009e-05,0.000507872,-0.000339021,1.49577,0.000492182,0.0142319,783,624,-3.90304,3.86555
-434,400,-3.91882,-4.11096,-0.00155407,9.96983e-05,0.000984784,0.000558714,-0.00201309,1.13463,0.00156197,0.0105971,790,624,-3.91882,4.11097
-427,400,-3.91711,-4.35876,-0.00299967,-0.000266668,0.00207196,0.000848839,-0.00411517,1.07692,0.00306582,0.0094198,797,624,-3.91712,4.35873
-420,400,-3.88391,-4.6358,-0.00467208,-0.00154746,0.00343925,0.000667702,-0.00688724,0.998593,0.00482947,0.0125317,804,624,-3.88393,4.63579
-413,400,-3.92407,-4.88678,-0.00685212,-0.00290475,0.00531421,0.000790455,-0.0105473,0.963203,0.0073093,0.0271559,811,624,-3.92409,4.88675
-406,400,-4.28174,-5.08185,-0.00956898,-0.00526872,0.00784365,0.000714162,-0.0155519,0.919174,0.010614,0.0386958,818,624,-4.28171,5.08187
-399,400,-4.3736,-5.69232,0,0,0,0,0,0,0,-1,825,624,-4.37358,5.69229
-392,400,-4.07983,-5.99487,0,0,0,0,0,0,0,-1,832,624,-4.07984,5.9949
-385,400,-3.68738,-5.04205,0,0,0,0,0,0,0,-1,839,624,-3.68736,5.04207
-378,400,-6.84064,-1.28662,0,0,0,0,0,0,0,-1,846,624,-6.84062,1.28662
-371,400,-6.98865,-1.2572,0,0,0,0,0,0,0,-1,853,624,-6.98865,1.25721
-364,400,-6.97247,-1.24133,0,0,0,0,0,0,0,-1,860,624,-6.97249,1.24135
-357,400,-7.18329,-1.23218,0,0,0,0,0,0,0,-1,867,624,-7.18327,1.2322
-350,400,-7.40186,-1.19409,0,0,0,0,0,0,0,-1,874,624,-7.40187,1.19407
-343,400,-8.09357,-1.51147,0,0,0,0,0,0,0,-1,881,624,-8.09355,1.51148
-336,400,0,0,0,0,0,0,0,0,0,-1,888,624,0,0
-329,400,0,0,0,0,0,0,0,0,0,-1,895,624,0,0
-322,400,0,0,0,0,0,0,0,0,0,-1,902,624,0,0
-315,400,0,0,0,0,0,0,0,0,0,-1,909,624,0,0
-308,400,0,0,0,0,0,0,0,0,0,-1,916,624,0,0
-301,400,0,0,0,0,0,0,0,0,0,-1,923,624,0,0
-294,400,0,0,0,0,0,0,0,0,0,-1,930,624,0,0
-287,400,0,0,0,0,0,0,0,0,0,-1,937,624,0,0
-280,400,0,0,0,0,0,0,0,0,0,-1,944,624,0,0
-273,400,0,0,0,0,0,0,0,0,0,-1,951,624,0,0
-266,400,0,0,0,0,0,0,0,0,0,-1,958,624,0,0
-259,400,0,0,0,0,0,0,0,0,0,-1,965,624,0,0
-252,400,0,0,0,0,0,0,0,0,0,-1,972,624,0,0
-245,400,0,0,0,0,0,0,0,0,0,-1,979,624,0,0
-238,400,0,0,0,0,0,0,0,0,0,-1,986,624,0,0
-231,400,0,0,0,0,0,0,0,0,0,-1,993,624,0,0
-224,400,0,0,0,0,0,0,0,0,0,-1,1000,624,0,0
-217,400,0,0,0,0,0,0,0,0,0,-1,1007,624,0,0
-210,400,0,0,0,0,0,0,0,0,0,-1,1014,624,0,0
-203,400,0,0,0,0,0,0,0,0,0,-1,1021,624,0,0
-196,400,0,0,0,0,0,0,0,0,0,-1,1028,624,0,0
-189,400,0,0,0,0,0,0,0,0,0,-1,1035,624,0,0
-182,400,0,0,0,0,0,0,0,0,0,-1,1042,624,0,0
-175,400,0,0,0,0,0,0,0,0,0,-1,1049,624,0,0
-168,400,0,0,0,0,0,0,0,0,0,-1,1056,624,0,0
-161,400,0,0,0,0,0,0,0,0,0,-1,1063,624,0,0
-154,400,0,0,0,0,0,0,0,0,0,-1,1070,624,0,0
-147,400,0,0,0,0,0,0,0,0,0,-1,1077,624,0,0
-140,400,0,0,0,0,0,0,0,0,0,-1,1084,624,0,0
-133,400,0,0,0,0,0,0,0,0,0,-1,1091,624,0,0
-126,400,0,0,0,0,0,0,0,0,0,-1,1098,624,0,0
-119,400,0,0,0,0,0,0,0,0,0,-1,1105,624,0,0
-112,400,0,0,0,0,0,0,0,0,0,-1,1112,624,0,0
-105,400,0,0,0,0,0,0,0,0,0,-1,1119,624,0,0
-98,400,0,0,0,0,0,0,0,0,0,-1,1126,624,0,0
-91,400,0,0,0,0,0,0,0,0,0,-1,1133,624,0,0
-84,400,0,0,0,0,0,0,0,0,0,-1,1140,624,0,0
-77,400,0,0,0,0,0,0,0,0,0,-1,1147,624,0,0
-70,400,0,0,0,0,0,0,0,0,0,-1,1154,624,0,0
-63,400,0,0,0,0,0,0,0,0,0,-1,1161,624,0,0
-56,400,0,0,0,0,0,0,0,0,0,-1,1168,624,0,0
-49,400,0,0,0,0,0,0,0,0,0,-1,1175,624,0,0
-42,400,0,0,0,0,0,0,0,0,0,-1,1182,624,0,0
-35,400,0,0,0,0,0,0,0,0,0,-1,1189,624,0,0
-28,400,0,0,0,0,0,0,0,0,0,-1,1196,624,0,0
-21,400,0,0,0,0,0,0,0,0,0,-1,1203,624,0,0
-14,400,0,0,0,0,0,0,0,0,0,-1,1210,624,0,0
-7,400,0,0,0,0,0,0,0,0,0,-1,1217,624,0,0
0,400,0,0,0,0,0,0,0,0,0,-1,1224,624,0,0
7,400,0,0,0,0,0,0,0,0,0,-1,1231,624,0,0
14,400,0,0,0,0,0,0,0,0,0,-1,1238,624,0,0
21,400,0,0,0,0,0,0,0,0,0,-1,1245,624,0,0
28,400,0,0,0,0,0,0,0,0,0,-1,1252,624,0,0
35,400,0,0,0,0,0,0,0,0,0,-1,1259,624,0,0
42,400,0,0,0,0,0,0,0,0,0,-1,1266,624,0,0
49,400,0,0,0,0,0,0,0,0,0,-1,1273,624,0,0
56,400,0,0,0,0,0,0,0,0,0,-1,1280,624,0,0
63,400,0,0,0,0,0,0,0,0,0,-1,1287,624,0,0
70,400,0,0,0,0,0,0,0,0,0,-1,1294,624,0,0
77,400,0,0,0,0,0,0,0,0,0,-1,1301,624,0,0
84,400,0,0,0,0,0,0,0,0,0,-1,1308,624,0,0
91,400,0,0,0,0,0,0,0,0,0,-1,1315,624,0,0
98,400,0,0,0,0,0,0,0,0,0,-1,1322,624,0,0
105,400,0,0,0,0,0,0,0,0,0,-1,1329,624,0,0
112,400,0,0,0,0,0,0,0,0,0,-1,1336,624,0,0
119,400,0,0,0,0,0,0,0,0,0,-1,1343,624,0,0
126,400,0,0,0,0,0,0,0,0,0,-1,1350,624,0,0
133,400,0,0,0,0,0,0,0,0,0,-1,1357,624,0,0
140,400,0,0,0,0,0,0,0,0,0,-1,1364,624,0,0
147,400,0,0,0,0,0,0,0,0,0,-1,1371,624,0,0
154,400,0,0,0,0,0,0,0,0,0,-1,1378,624,0,0
161,400,0,0,0,0,0,0,0,0,0,-1,1385,624,0,0
168,400,0,0,0,0,0,0,0,0,0,-1,1392,624,0,0
175,400,0,0,0,0,0,0,0,0,0,-1,1399,624,0,0
182,400,0,0,0,0,0,0,0,0,0,-1,1406,624,0,0
189,400,0,0,0,0,0,0,0,0,0,-1,1413,624,0,0
196,400,0,0,0,0,0,0,0,0,0,-1,1420,624,0,0
203,400,0,0,0,0,0,0,0,0,0,-1,1427,624,0,0
210,400,0,0,0,0,0,0,0,0,0,-1,1434,624,0,0
217,400,0,0,0,0,0,0,0,0,0,-1,1441,624,0,0
224,400,0,0,0,0,0,0,0,0,0,-1,1448,624,0,0
231,400,0,0,0,0,0,0,0,0,0,-1,1455,624,0,0
238,400,0,0,0,0,0,0,0,0,0,-1,1462,624,0,0
245,400,0,0,0,0,0,0,0,0,0,-1,1469,624,0,0
252,400,0,0,0,0,0,0,0,0,0,-1,1476,624,0,0
259,400,0,0,0,0,0,0,0,0,0,-1,1483,624,0,0
266,400,0,0,0,0,0,0,0,0,0,-1,1490,624,0,0
273,400,0,0,0,0,0,0,0,0,0,-1,1497,624,0,0
280,400,0,0,0,0,0,0,0,0,0,-1,1504,624,0,0
287,400,0,0,0,0,0,0,0,0,0,-1,1511,624,0,0
294,400,0,0,0,0,0,0,0,0,0,-1,1518,624,0,0
301,400,0,0,0,0,0,0,0,0,0,-1,1525,624,0,0
308,400,0,0,0,0,0,0,0,0,0,-1,1532,624,0,0
315,400,0,0,0,0,0,0,0,0,0,-1,1539,624,0,0
322,400,0,0,0,0,0,0,0,0,0,-1,1546,624,0,0
329,400,0,0,0,0,0,0,0,0,0,-1,1553,624,0,0
336,400,0,0,0,0,0,0,0,0,0,-1,1560,624,0,0
343,400,0,0,0,0,0,0,0,0,0,-1,1567,624,0,0
350,400,0,0,0,0,0,0,0,0,0,-1,1574,624,0,0
357,400,0,0,0,0,0,0,0,0,0,-1,1581,624,0,0
364,400,0,0,0,0,0,0,0,0,0,-1,1588,624,0,0
371,400,0,0,0,0,0,0,0,0,0,-1,1595,624,0,0
378,400,0,0,0,0,0,0,0,0,0,-1,1602,624,0,0
385,400,0,0,0,0,0,0,0,0,0,-1,1609,624,0,0
392,400,0,0,0,0,0,0,0,0,0,-1,1616,624,0,0
399,400,0,0,0,0,0,0,0,0,0,-1,1623,624,0,0
406,400,0,0,0,0,0,0,0,0,0,-1,1630,624,0,0
413,400,0,0,0,0,0,0,0,0,0,-1,1637,624,0,0
420,400,0,0,0,0,0,0,0,0,0,-1,1644,624,0,0
427,400,0,0,0,0,0,0,0,0,0,-1,1651,624,0,0
434,400,0,0,0,0,0,0,0,0,0,-1,1658,624,0,0
441,400,0,0,0,0,0,0,0,0,0,-1,1665,624,0,0
448,400,0,0,0,0,0,0,0,0,0,-1,1672,624,0,0
455,400,8.91309,2.75885,0,0,0,0,0,0,0,-1,1679,624,8.91312,-2.75885
462,400,8.90356,2.37878,0,0,0,0,0,0,0,-1,1686,624,8.90353,-2.37878
469,400,9.14429,1.76849,0,0,0,0,0,0,0,-1,1693,624,9.14432,-1.76847
476,400,9.23254,1.25995,0,0,0,0,0,0,0,-1,1700,624,9.23252,-1.25994
483,400,9.59766,0.562439,0,0,0,0,0,0,0,-1,1707,624,9.59771,-0.56242
490,400,9.92578,-0.213745,0,0,0,0,0,0,0,-1,1714,624,9.92579,0.21376
497,400,9.19141,0.175232,0,0,0,0,0,0,0,-1,1721,624,9.19138,-0.175209
504,400,9.23438,0.00823975,0,0,0,0,0,0,0,-1,1728,624,9.23436,-0.00823766
511,400,6.16687,3.3501,0,0,0,0,0,0,0,-1,1735,624,6.16682,-3.35007
518,400,6.55237,1.74994,0,0,0,0,0,0,0,-1,1742,624,6.55236,-1.74993
525,400,6.99731,1.08783,0,0,0,0,0,0,0,-1,1749,624,6.99736,-1.08785
532,400,6.96582,-1.74982,0,0,0,0,0,0,0,-1,1756,624,6.96585,1.74983
539,400,10.1261,-3.28986,0,0,0,0,0,0,0,-1,1763,624,10.1261,3.28985
546,400,10.0933,-3.06628,-0.000324065,0.00215873,0.000969081,0.00249219,-0.000657528,1.23939,0.00191857,0.0265656,1770,624,10.0932,3.06627
553,400,10.0005,-2.76483,-0.000707075,0.00144135,0.000437104,0.00152688,-0.0007926,1.37757,0.00136133,0.0149867,1777,624,10.0004,2.76484
560,400,10.033,-2.44385,-0.000895335,0.000986938,8.77296e-05,0.000991018,-0.000899415,1.52432,0.00109187,0.0127476,1784,624,10.033,2.44385
567,400,10.0566,-2.2171,-0.000965044,0.000624164,-0.000125837,0.000634066,-0.000974947,-1.49227,0.000935887,0.0172262,1791,624,10.0566,2.21711
574,400,10.033,-1.98236,-0.000729615,0.000473558,-9.22243e-05,0.000480586,-0.000736643,-1.49474,0.000707932,0.020207,1798,624,10.0329,1.98236
581,400,9.99438,-1.68573,-0.00029249,0.000542379,0.000121457,0.00055969,-0.0003098,1.42922,0.000508864,0.0194999,1805,624,9.99435,1.68575
588,400,9.98608,-1.37512,0.000253584,0.000794984,0.000494161,0.00108773,-3.91646e-05,1.03597,0.000738556,0.0155304,1812,624,9.98608,1.37511
595,400,10.0243,-1.125,0.00103498,0.00124685,0.00105563,0.00220184,7.99863e-05,0.835408,0.00144197,0.0138204,1819,624,10.0243,1.12497
602,400,10.035,-0.855286,0.00183459,0.00191505,0.00177762,0.00365289,9.67458e-05,0.796712,0.00240366,0.0124805,1826,624,10.035,0.855263
609,400,9.9939,-0.575012,0.00226988,0.00256732,0.00239519,0.0048184,1.88048e-05,0.816404,0.00320602,0.0130705,1833,624,9.9939,0.575028
616,400,9.9873,-0.29364,0.00255115,0.0036602,0.00316705,0.0063209,-0.000109551,0.872066,0.00425092,0.0168082,1840,624,9.98726,0.29361
623,400,10.2338,0.145996,0.00264044,0.00477647,0.00387721,0.00773008,-0.000313159,0.919795,0.00526088,0.0424381,1847,624,10.2338,-0.145968
630,400,10.5646,0.5448,0,0,0,0,0,0,0,-1,1854,624,10.5646,-0.544792
637,400,6.92896,1.01917,0,0,0,0,0,0,0,-1,1861,624,6.92899,-1.01918
644,400,8.65381,1.4599,0,0,0,0,0,0,0,-1,1868,624,8.65379,-1.45991
651,400,7.90601,0.424072,0,0,0,0,0,0,0,-1,1875,624,7.90598,-0.424097
658,400,8.69031,1.0484,0,0,0,0,0,0,0,-1,1882,624,8.6903,-1.0484
665,400,5.98438,0.522522,0,0,0,0,0,0,0,-1,1889,624,5.98442,-0.522552
672,400,0,0,0,0,0,0,0,0,0,-1,1896,624,0,0
679,400,0,0,0,0,0,0,0,0,0,-1,1903,624,0,0
686,400,0,0,0,0,0,0,0,0,0,-1,1910,624,0,0
693,400,0,0,0,0,0,0,0,0,0,-1,1917,624,0,0
700,400,0,0,0,0,0,0,0,0,0,-1,1924,624,0,0
707,400,0,0,0,0,0,0,0,0,0,-1,1931,624,0,0
714,400,0,0,0,0,0,0,0,0,0,-1,1938,624,0,0
721,400,0,0,0,0,0,0,0,0,0,-1,1945,624,0,0
728,400,0,0,0,0,0,0,0,0,0,-1,1952,624,0,0
735,400,0,0,0,0,0,0,0,0,0,-1,1959,624,0,0
742,400,0,0,0,0,0,0,0,0,0,-1,1966,624,0,0
749,400,0,0,0,0,0,0,0,0,0,-1,1973,624,0,0
756,400,0,0,0,0,0,0,0,0,0,-1,1980,624,0,0
763,400,0,0,0,0,0,0,0,0,0,-1,1987,624,0,0
770,400,0,0,0,0,0,0,0,0,0,-1,1994,624,0,0
777,400,0,0,0,0,0,0,0,0,0,-1,2001,624,0,0
784,400,0,0,0,0,0,0,0,0,0,-1,2008,624,0,0
791,400,0,0,0,0,0,0,0,0,0,-1,2015,624,0,0
798,400,0,0,0,0,0,0,0,0,0,-1,2022,624,0,0
805,400,0,0,0,0,0,0,0,0,0,-1,2029,624,0,0
812,400,0,0,0,0,0,0,0,0,0,-1,2036,624,0,0
-700,393,0,0,0,0,0,0,0,0,0,-1,524,631,0,0
-693,393,0,0,0,0,0,0,0,0,0,-1,531,631,0,0
-686,393,0,0,0,0,0,0,0,0,0,-1,538,631,0,0
-679,393,0,0,0,0,0,0,0,0,0,-1,545,631,0,0
-672,393,0,0,0,0,0,0,0,0,0,-1,552,631,0,0
-665,393,0,0,0,0,0,0,0,0,0,-1,559,631,0,0
-658,393,0,0,0,0,0,0,0,0,0,-1,566,631,0,0
-651,393,0,0,0,0,0,0,0,0,0,-1,573,631,0,0
-644,393,0,0,0,0,0,0,0,0,0,-1,580,631,0,0
-637,393,0,0,0,0,0,0,0,0,0,-1,587,631,0,0
-630,393,0,0,0,0,0,0,0,0,0,-1,594,631,0,0
-623,393,0,0,0,0,0,0,0,0,0,-1,601,631,0,0
-616,393,0,0,0,0,0,0,0,0,0,-1,608,631,0,0
-609,393,0,0,0,0,0,0,0,0,0,-1,615,631,0,0
-602,393,0,0,0,0,0,0,0,0,0,-1,622,631,0,0
-595,393,0,0,0,0,0,0,0,0,0,-1,629,631,0,0
-588,393,0,0,0,0,0,0,0,0,0,-1,636,631,0,0
-581,393,0,0,0,0,0,0,0,0,0,-1,643,631,0,0
-574,393,0,0,0,0,0,0,0,0,0,-1,650,631,0,0
-567,393,0,0,0,0,0,0,0,0,0,-1,657,631,0,0
-560,393,0,0,0,0,0,0,0,0,0,-1,664,631,0,0
-553,393,-2.35107,3.92633,0,0,0,0,0,0,0,-1,671,631,-2.35108,-3.92634
-546,393,-1.78778,2.4856,0,0,0,0,0,0,0,-1,678,631,-1.78778,-2.48557
-539,393,-5.2113,-2.20245,0,0,0,0,0,0,0,-1,685,631,-5.21128,2.20247
-532,393,-2.83643,-2.01624,0,0,0,0,0,0,0,-1,692,631,-2.83642,2.01626
-525,393,-3.54681,-0.511169,0,0,0,0,0,0,0,-1,699,631,-3.54678,0.511173
-518,393,-3.55054,-0.99939,0,0,0,0,0,0,0,-1,706,631,-3.55055,0.999377
-511,393,-3.16931,-1.21777,0,0,0,0,0,0,0,-1,713,631,-3.16933,1.21775
-504,393,-3.63776,-1.48682,-0.00578751,-0.00490705,0.00128129,-0.00399247,-0.00670209,0.950871,0.00389301,0.0477241,720,631,-3.63773,1.48681
-497,393,-4.14752,-1.71979,-0.00231287,0.00201713,0.00169333,0.00260069,-0.00289643,1.23892,0.0031753,0.0254437,727,631,-4.14754,1.71979
-490,393,-4.16052,-2.078,-0.00131828,0.00334511,0.000287139,0.00336273,-0.00133589,1.50953,0.00279561,0.013599,734,631,-4.16051,2.07802
-483,393,-4.16284,-2.33392,-0.000565225,0.0023201,-0.000357221,0.00236367,-0.000608793,-1.44943,0.0018131,0.0180551,741,631,-4.16283,2.33395
-476,393,-4.15161,-2.56604,0.00019848,0.00174119,-0.000650339,0.00197876,-3.90899e-05,-1.22056,0.00133239,0.0155463,748,631,-4.15159,2.56606
-469,393,-4.17358,-2.82446,0.000758369,0.00125484,-0.000854478,0.00189641,0.000116799,-0.926763,0.00122719,0.0121454,755,631,-4.17358,2.82448
-462,393,-4.17755,-3.10339,0.000908106,0.000912856,-0.000902608,0.00181309,7.87014e-06,-0.786714,0.00120611,0.0141682,762,631,-4.17758,3.1034
-455,393,-4.17926,-3.37158,0.000731892,0.000682333,-0.000727694,0.00143523,-2.10031e-05,-0.768379,0.000963896,0.0137834,769,631,-4.17925,3.37156
-448,393,-4.16974,-3.62994,0.00030963,0.00058294,-0.000429453,0.000896956,-4.38673e-06,-0.939436,0.000599439,0.0136268,776,631,-4.16977,3.62994
-441,393,-4.16791,-3.87115,-0.000633235,0.000502526,0.000203316,0.000537825,-0.000668534,1.39889,0.000697853,0.011836,783,631,-4.16791,3.87115
-434,393,-4.18134,-4.10455,-0.00184466,0.000248442,0.00112111,0.000735565,-0.00233179,1.16091,0.00184914,0.0101128,790,631,-4.18136,4.10454
-427,393,-4.14764,-4.38019,-0.00337804,-5.66888e-05,0.00225422,0.00108252,-0.00451725,1.10286,0.00342976,0.0160267,797,631,-4.14763,4.38019
-420,393,-4.17139,-4.62177,-0.00521153,-0.00127114,0.0037245,0.000972162,-0.00745484,1.02868,0.00532362,0.0326763,804,631,-4.17136,4.62174
-413,393,-4.48596,-4.7439,-0.00779792,-0.0027636,0.00589633,0.00113039,-0.0116919,0.987138,0.00819742,0.0466128,811,631,-4.48599,4.74391
-406,393,-4.72162,-4.90796,0,0,0,0,0,0,0,-1,818,631,-4.72163,4.90796
-399,393,-5.07343,-5.92365,0,0,0,0,0,0,0,-1,825,631,-5.07344,5.92364
-392,393,-2.08063,-3.02386,0,0,0,0,0,0,0,-1,832,631,-2.08063,3.02384
-385,393,-3.16931,-0.624756,0,0,0,0,0,0,0,-1,839,631,-3.16928,0.624764
-378,393,-7.33081,-0.872314,0,0,0,0,0,0,0,-1,846,631,-7.33081,0.872325
-371,393,-7.47858,-0.811096,0,0,0,0,0,0,0,-1,853,631,-7.47859,0.811075
-364,393,-7.64917,-0.662415,0,0,0,0,0,0,0,-1,860,631,-7.64917,0.662406
-357,393,-8.09686,-0.726013,0,0,0,0,0,0,0,-1,867,631,-8.09689,0.726029
-350,393,-8.38788,-0.511841,0,0,0,0,0,0,0,-1,874,631,-8.38785,0.511811
-343,393,0,0,0,0,0,0,0,0,0,-1,881,631,0,0
-336,393,0,0,0,0,0,0,0,0,0,-1,888,631,0,0
-329,393,0,0,0,0,0,0,0,0,0,-1,895,631,0,0
-322,393,0,0,0,0,0,0,0,0,0,-1,902,631,0,0
-315,393,0,0,0,0,0,0,0,0,0,-1,909,631,0,0
-308,393,0,0,0,0,0,0,0,0,0,-1,916,631,0,0
-301,393,0,0,0,0,0,0,0,0,0,-1,923,631,0,0
-294,393,0,0,0,0,0,0,0,0,0,-1,930,631,0,0
-287,393,0,0,0,0,0,0,0,0,0,-1,937,631,0,0
-280,393,0,0,0,0,0,0,0,0,0,-1,944,631,0,0
-273,393,0,0,0,0,0,0,0,0,0,-1,951,631,0,0
-266,393,0,0,0,0,0,0,0,0,0,-1,958,631,0,0
-259,393,0,0,0,0,0,0,0,0,0,-1,965,631,0,0
-252,393,0,0,0,0,0,0,0,0,0,-1,972,631,0,0
-245,393,0,0,0,0,0,0,0,0,0,-1,979,631,0,0
-238,393,0,0,0,0,0,0,0,0,0,-1,986,631,0,0
-231,393,0,0,0,0,0,0,0,0,0,-1,993,631,0,0
-224,393,0,0,0,0,0,0,0,0,0,-1,1000,631,0,0
-217,393,0,0,0,0,0,0,0,0,0,-1,1007,631,0,0
-210,393,0,0,0,0,0,0,0,0,0,-1,1014,631,0,0
-203,393,0,0,0,0,0,0,0,0,0,-1,1021,631,0,0
-196,393,0,0,0,0,0,0,0,0,0,-1,1028,631,0,0
-189,393,0,0,0,0,0,0,0,0,0,-1,1035,631,0,0
-182,393,0,0,0,0,0,0,0,0,0,-1,1042,631,0,0
-175,393,0,0,0,0,0,0,0,0,0,-1,1049,631,0,0
-168,393,0,0,0,0,0,0,0,0,0,-1,1056,631,0,0
-161,393,0,0,0,0,0,0,0,0,0,-1,1063,631,0,0
-154,393,0,0,0,0,0,0,0,0,0,-1,1070,631,0,0
-147,393,0,0,0,0,0,0,0,0,0,-1,1077,631,0,0
-140,393,0,0,0,0,0,0,0,0,0,-1,1084,631,0,0
-133,393,0,0,0,0,0,0,0,0,0,-1,1091,631,0,0
-126,393,0,0,0,0,0,0,0,0,0,-1,1098,631,0,0
-119,393,0,0,0,0,0,0,0,0,0,-1,1105,631,0,0
-112,393,0,0,0,0,0,0,0,0,0,-1,1112,631,0,0
-105,393,0,0,0,0,0,0,0,0,0,-1,1119,631,0,0
-98,393,0,0,0,0,0,0,0,0,0,-1,1126,631,0,0
-91,393,0,0,0,0,0,0,0,0,0,-1,1133,631,0,0
-84,393,0,0,0,0,0,0,0,0,0,-1,1140,631,0,0
-77,393,0,0,0,0,0,0,0,0,0,-1,1147,631,0,0
-70,393,0,0,0,0,0,0,0,0,0,-1,1154,631,0,0
-63,393,0,0,0,0,0,0,0,0,0,-1,1161,631,0,0
-56,393,0,0,0,0,0,0,0,0,0,-1,1168,631,0,0
-49,393,0,0,0,0,0,0,0,0,0,-1,1175,631,0,0
-42,393,0,0,0,0,0,0,0,0,0,-1,1182,631,0,0
-35,393,0,0,0,0,0,0,0,0,0,-1,1189,631,0,0
-28,393,0,0,0,0,0,0,0,0,0,-1,1196,631,0,0
-21,393,0,0,0,0,0,0,0,0,0,-1,1203,631,0,0
-14,393,0,0,0,0,0,0,0,0,0,-1,1210,631,0,0
-7,393,0,0,0,0,0,0,0,0,0,-1,1217,631,0,0
0,393,0,0,0,0,0,0,0,0,0,-1,1224,631,0,0
7,393,0,0,0,0,0,0,0,0,0,-1,1231,631,0,0
14,393,0,0,0,0,0,0,0,0,0,-1,1238,631,0,0
21,393,0,0,0,0,0,0,0,0,0,-1,1245,631,0,0
28,393,0,0,0,0,0,0,0,0,0,-1,1252,631,0,0
35,393,0,0,0,0,0,0,0,0,0,-1,1259,631,0,0
42,393,0,0,0,0,0,0,0,0,0,-1,1266,631,0,0
49,393,0,0,0,0,0,0,0,0,0,-1,1273,631,0,0
56,393,0,0,0,0,0,0,0,0,0,-1,1280,631,0,0
63,393,0,0,0,0,0,0,0,0,0,-1,1287,631,0,0
70,393,0,0,0,0,0,0,0,0,0,-1,1294,631,0,0
77,393,0,0,0,0,0,0,0,0,0,-1,1301,631,0,0
84,393,0,0,0,0,0,0,0,0,0,-1,1308,631,0,0
91,393,0,0,0,0,0,0,0,0,0,-1,1315,631,0,0
98,393,0,0,0,0,0,0,0,0,0,-1,1322,631,0,0
105,393,0,0,0,0,0,0,0,0,0,-1,1329,631,0,0
112,393,0,0,0,0,0,0,0,0,0,-1,1336,631,0,0
119,393,0,0,0,0,0,0,0,0,0,-1,1343,631,0,0
126,393,0,0,0,0,0,0,0,0,0,-1,1350,631,0,0
133,393,0,0,0,0,0,0,0,0,0,-1,1357,631,0,0
140,393,0,0,0,0,0,0,0,0,0,-1,1364,631,0,0
147,393,0,0,0,0,0,0,0,0,0,-1,1371,631,0,0
154,393,0,0,0,0,0,0,0,0,0,-1,1378,631,0,0
161,393,0,0,0,0,0,0,0,0,0,-1,1385,631,0,0
168,393,0,0,0,0,0,0,0,0,0,-1,1392,631,0,0
175,393,0,0,0,0,0,0,0,0,0,-1,1399,631,0,0
182,393,0,0,0,0,0,0,0,0,0,-1,1406,631,0,0
189,393,0,0,0,0,0,0,0,0,0,-1,1413,631,0,0
196,393,0,0,0,0,0,0,0,0,0,-1,1420,631,0,0
203,393,0,0,0,0,0,0,0,0,0,-1,1427,631,0,0
210,393,0,0,0,0,0,0,0,0,0,-1,1434,631,0,0
217,393,0,0,0,0,0,0,0,0,0,-1,1441,631,0,0
224,393,0,0,0,0,0,0,0,0,0,-1,1448,631,0,0
231,393,0,0,0,0,0,0,0,0,0,-1,1455,631,0,0
238,393,0,0,0,0,0,0,0,0,0,-1,1462,631,0,0
245,393,0,0,0,0,0,0,0,0,0,-1,1469,631,0,0
252,393,0,0,0,0,0,0,0,0,0,-1,1476,631,0,0
259,393,0,0,0,0,0,0,0,0,0,-1,1483,631,0,0
266,393,0,0,0,0,0,0,0,0,0,-1,1490,631,0,0
273,393,0,0,0,0,0,0,0,0,0,-1,1497,631,0,0
280,393,0,0,0,0,0,0,0,0,0,-1,1504,631,0,0
287,393,0,0,0,0,0,0,0,0,0,-1,1511,631,0,0
294,393,0,0,0,0,0,0,0,0,0,-1,1518,631,0,0
301,393,0,0,0,0,0,0,0,0,0,-1,1525,631,0,0
308,393,0,0,0,0,0,0,0,0,0,-1,1532,631,0,0
315,393,0,0,0,0,0,0,0,0,0,-1,1539,631,0,0
322,393,0,0,0,0,0,0,0,0,0,-1,1546,631,0,0
329,393,0,0,0,0,0,0,0,0,0,-1,1553,631,0,0
336,393,0,0,0,0,0,0,0,0,0,-1,1560,631,0,0
343,393,0,0,0,0,0,0,0,0,0,-1,1567,631,0,0
350,393,0,0,0,0,0,0,0,0,0,-1,1574,631,0,0
357,393,0,0,0,0,0,0,0,0,0,-1,1581,631,0,0
364,393,0,0,0,0,0,0,0,0,0,-1,1588,631,0,0
371,393,0,0,0,0,0,0,0,0,0,-1,1595,631,0,0
378,393,0,0,0,0,0,0,0,0,0,-1,1602,631,0,0
385,393,0,0,0,0,0,0,0,0,0,-1,1609,631,0,0
392,393,0,0,0,0,0,0,0,0,0,-1,1616,631,0,0
399,393,0,0,0,0,0,0,0,0,0,-1,1623,631,0,0
406,393,0,0,0,0,0,0,0,0,0,-1,1630,631,0,0
413,393,0,0,0,0,0,0,0,0,0,-1,1637,631,0,0
420,393,0,0,0,0,0,0,0,0,0,-1,1644,631,0,0
427,393,0,0,0,0,0,0,0,0,0,-1,1651,631,0,0
434,393,0,0,0,0,0,0,0,0,0,-1,1658,631,0,0
441,393,0,0,0,0,0,0,0,0,0,-1,1665,631,0,0
448,393,0,0,0,0,0,0,0,0,0,-1,1672,631,0,0
455,393,0,0,0,0,0,0,0,0,0,-1,1679,631,0,0
462,393,8.51099,1.89502,0,0,0,0,0,0,0,-1,1686,631,8.51103,-1.89504
469,393,9.39465,1.51703,0,0,0,0,0,0,0,-1,1693,631,9.39465,-1.51703
476,393,9.95569,1.185,0,0,0,0,0,0,0,-1,1700,631,9.95575,-1.18497
483,393,10.5267,0.887329,0,0,0,0,0,0,0,-1,1707,631,10.5267,-0.887321
490,393,10.9303,0.761414,0,0,0,0,0,0,0,-1,1714,631,10.9303,-0.761386
497,393,8.32153,1.88104,0,0,0,0,0,0,0,-1,1721,631,8.32148,-1.88103
504,393,9.46985,1.78711,0,0,0,0,0,0,0,-1,1728,631,9.46986,-1.78713
511,393,9.66565,-0.375977,0,0,0,0,0,0,0,-1,1735,631,9.66571,0.375949
518,393,7.01599,1.62482,0,0,0,0,0,0,0,-1,1742,631,7.01597,-1.62483
525,393,7.88245,-1.13422,0,0,0,0,0,0,0,-1,1749,631,7.88246,1.13423
532,393,7.06335,-1.18103,0,0,0,0,0,0,0,-1,1756,631,7.06332,1.18101
539,393,9.91626,-2.46301,0,0,0,0,0,0,0,-1,1763,631,9.91625,2.46302
546,393,10.4114,-3.07623,0,0,0,0,0,0,0,-1,1770,631,10.4114,3.07622
553,393,10.2986,-2.76593,-0.00172326,0.00173582,0.000260178,0.00175528,-0.00174272,1.49614,0.00201958,0.0234119,1777,631,10.2986,2.76593
560,393,10.3093,-2.49982,-0.00181799,0.00113093,-0.000172025,0.00114093,-0.00182799,-1.51272,0.00172934,0.0140315,1784,631,10.3093,2.49982
567,393,10.3062,-2.21991,-0.00183646,0.000619688,-0.000464451,0.000704581,-0.00192135,-1.39001,0.0015694,0.0147419,1791,631,10.3062,2.21989
574,393,10.2954,-1.98267,-0.00155911,0.000357822,-0.000499364,0.000480106,-0.00168139,-1.33064,0.00131061,0.0165845,1798,631,10.2955,1.98269
581,393,10.2664,-1.66705,-0.00104048,0.000347298,-0.000309917,0.000413363,-0.00110655,-1.36077,0.000907433,0.0161264,1805,631,10.2663,1.66705
588,393,10.2549,-1.35455,-0.000396908,0.000551063,5.67385e-05,0.000554447,-0.000400292,1.51123,0.000553609,0.0174996,1812,631,10.2549,1.35454
595,393,10.2888,-1.12482,0.000465727,0.000956645,0.000602383,0.00136166,6.07125e-05,0.978867,0.000888227,0.0141269,1819,631,10.2888,1.12482
602,393,10.2982,-0.869873,0.00130643,0.00157247,0.00129379,0.00274006,0.000138834,0.836625,0.00178223,0.0153156,1826,631,10.2982,0.869872
609,393,10.2777,-0.590942,0.00168087,0.00219333,0.00184003,0.00379488,7.93207e-05,0.85458,0.0025039,0.0153692,1833,631,10.2778,0.590932
616,393,10.2686,-0.302612,0.00184698,0.00303988,0.00239066,0.00490738,-2.05154e-05,0.907648,0.00327844,0.0155981,1840,631,10.2685,0.302619
623,393,10.311,0.0385742,0.00183333,0.00400124,0.00284003,0.00595714,-0.000122571,0.967701,0.00401291,0.0222803,1847,631,10.3111,-0.0385862
630,393,10.4451,0.420593,0.00115761,0.00494121,0.00289649,0.00650897,-0.000410153,1.07469,0.00448229,0.0439302,1854,631,10.4451,-0.420606
637,393,10.4818,0.860474,0,0,0,0,0,0,0,-1,1861,631,10.4818,-0.860443
644,393,8.97583,1.30585,0,0,0,0,0,0,0,-1,1868,631,8.97586,-1.30584
651,393,9.58679,0.726563,0,0,0,0,0,0,0,-1,1875,631,9.58684,-0.726583
658,393,9.21338,1.50836,0,0,0,0,0,0,0,-1,1882,631,9.21338,-1.50834
665,393,6.1001,2.32129,0,0,0,0,0,0,0,-1,1889,631,6.10012,-2.3213
672,393,7.14575,2.43225,0,0,0,0,0,0,0,-1,1896,631,7.14572,-2.43222
679,393,0,0,0,0,0,0,0,0,0,-1,1903,631,0,0
686,393,0,0,0,0,0,0,0,0,0,-1,1910,631,0,0
693,393,0,0,0,0,0,0,0,0,0,-1,1917,631,0,0
700,393,0,0,0,0,0,0,0,0,0,-1,1924,631,0,0
707,393,0,0,0,0,0,0,0,0,0,-1,1931,631,0,0
714,393,0,0,0,0,0,0,0,0,0,-1,1938,631,0,0
721,393,0,0,0,0,0,0,0,0,0,-1,1945,631,0,0
728,393,0,0,0,0,0,0,0,0,0,-1,1952,631,0,0
735,393,0,0,0,0,0,0,0,0,0,-1,1959,631,0,0
742,393,0,0,0,0,0,0,0,0,0,-1,1966,631,0,0
749,393,0,0,0,0,0,0,0,0,0,-1,1973,631,0,0
756,393,0,0,0,0,0,0,0,0,0,-1,1980,631,0,0
763,393,0,0,0,0,0,0,0,0,0,-1,1987,631,0,0
770,393,0,0,0,0,0,0,0,0,0,-1,1994,631,0,0
777,393,0,0,0,0,0,0,0,0,0,-1,2001,631,0,0
784,393,0,0,0,0,0,0,0,0,0,-1,2008,631,0,0
791,393,0,0,0,0,0,0,0,0,0,-1,2015,631,0,0
798,393,0,0,0,0,0,0,0,0,0,-1,2022,631,0,0
805,393,0,0,0,0,0,0,0,0,0,-1,2029,631,0,0
812,393,0,0,0,0,0,0,0,0,0,-1,2036,631,0,0
-700,386,0,0,0,0,0,0,0,0,0,-1,524,638,0,0
-693,386,0,0,0,0,0,0,0,0,0,-1,531,638,0,0
-686,386,0,0,0,0,0,0,0,0,0,-1,538,638,0,0
-679,386,0,0,0,0,0,0,0,0,0,-1,545,638,0,0
-672,386,0,0,0,0,0,0,0,0,0,-1,552,638,0,0
-665,386,0,0,0,0,0,0,0,0,0,-1,559,638,0,0
-658,386,0,0,0,0,0,0,0,0,0,-1,566,638,0,0
-651,386,0,0,0,0,0,0,0,0,0,-1,573,638,0,0
-644,386,0,0,0,0,0,0,0,0,0,-1,580,638,0,0
-637,386,0,0,0,0,0,0,0,0,0,-1,587,638,0,0
-630,386,0,0,0,0,0,0,0,0,0,-1,594,638,0,0
-623,386,0,0,0,0,0,0,0,0,0,-1,601,638,0,0
-616,386,0,0,0,0,0,0,0,0,0,-1,608,638,0,0
-609,386,0,0,0,0,0,0,0,0,0,-1,615,638,0,0
-602,386,0,0,0,0,0,0,0,0,0,-1,622,638,0,0
-595,386,0,0,0,0,0,0,0,0,0,-1,629,638,0,0
-588,386,0,0,0,0,0,0,0,0,0,-1,636,638,0,0
-581,386,0,0,0,0,0,0,0,0,0,-1,643,638,0,0
-574,386,0,0,0,0,0,0,0,0,0,-1,650,638,0,0
-567,386,0,0,0,0,0,0,0,0,0,-1,657,638,0,0
-560,386,-3.97229,-5.13898,0,0,0,0,0,0,0,-1,664,638,-3.97232,5.13897
-553,386,-4.94244,-5.54309,0,0,0,0,0,0,0,-1,671,638,-4.94242,5.5431
-546,386,-1.78668,1.72827,0,0,0,0,0,0,0,-1,678,638,-1.78668,-1.72829
-539,386,-0.879456,-2.90009,0,0,0,0,0,0,0,-1,685,638,-0.879442,2.90008
-532,386,-4.83362,1.61053,0,0,0,0,0,0,0,-1,692,638,-4.83361,-1.61051
-525,386,-4.03229,-0.373779,0,0,0,0,0,0,0,-1,699,638,-4.0323,0.373779
-518,386,-3.98175,-0.858154,-0.0208599,-0.0287794,-0.000423776,-0.0208373,-0.028802,-0.0533074,0.0171735,0.0498616,706,638,-3.98177,0.858154
-511,386,-4.11981,-1.10236,-0.0107969,-0.0144749,0.000680705,-0.0106749,-0.0145969,0.177253,0.00872294,0.0441476,713,638,-4.11982,1.10238
-504,386,-4.33612,-1.53094,-0.00517423,-0.00510525,0.0016021,-0.00353727,-0.00674221,0.79616,0.00389419,0.0273642,720,638,-4.33614,1.53093
-497,386,-4.43152,-1.82025,-0.0022334,0.00128565,0.0018985,0.00211461,-0.00306235,1.15911,0.00300557,0.0125945,727,638,-4.43154,1.82025
-490,386,-4.42188,-2.08826,-0.00139003,0.00284736,0.000573693,0.00292366,-0.00146633,1.43858,0.00258069,0.0117056,734,638,-4.42189,2.08829
-483,386,-4.40564,-2.36151,-0.000709702,0.00192498,-6.93235e-05,0.0019268,-0.000711525,-1.54451,0.00157618,0.0156421,741,638,-4.40562,2.36151
-476,386,-4.39728,-2.60687,9.36018e-05,0.00144979,-0.000405095,0.00156157,-1.81866e-05,-1.30154,0.00104716,0.0148254,748,638,-4.39726,2.6069
-469,386,-4.42554,-2.84839,0.000738533,0.00107423,-0.000703095,0.00162924,0.00018353,-0.90257,0.00103044,0.0110086,755,638,-4.42551,2.8484
-462,386,-4.42578,-3.10828,0.000939605,0.000815947,-0.000824352,0.00170444,5.11089e-05,-0.747966,0.00111965,0.0104039,762,638,-4.42576,3.10828
-455,386,-4.43225,-3.3714,0.000813411,0.000684565,-0.00072997,0.0014818,1.61805e-05,-0.741385,0.000982514,0.0113473,769,638,-4.43227,3.37141
-448,386,-4.41046,-3.63477,0.000346139,0.000648338,-0.000463849,0.000985078,9.39937e-06,-0.942854,0.000653608,0.0116911,776,638,-4.41048,3.63474
-441,386,-4.41937,-3.86517,-0.000669705,0.000418398,0.000228,0.000464242,-0.000715549,1.37237,0.000686284,0.0115681,783,638,-4.41935,3.86516
-434,386,-4.38928,-4.15002,-0.00196233,0.000261168,0.0011627,0.000758098,-0.00245926,1.1669,0.00194217,0.0198942,790,638,-4.3893,4.15002
-427,386,-4.34723,-4.44647,0,0,0,0,0,0,0,-1,797,638,-4.34722,4.44645
-420,386,-4.47778,-4.62848,0,0,0,0,0,0,0,-1,804,638,-4.47781,4.6285
-413,386,-4.78247,-4.77252,0,0,0,0,0,0,0,-1,811,638,-4.78245,4.7725
-406,386,-4.51135,-4.10999,0,0,0,0,0,0,0,-1,818,638,-4.51135,4.10996
-399,386,-3.57117,-3.42126,0,0,0,0,0,0,0,-1,825,638,-3.57116,3.42129
-392,386,-4.00977,0.403625,0,0,0,0,0,0,0,-1,832,638,-4.0098,-0.403616
-385,386,-3.2406,-0.118469,0,0,0,0,0,0,0,-1,839,638,-3.24058,0.118485
-378,386,-2.55243,-1.22748,0,0,0,0,0,0,0,-1,846,638,-2.55243,1.22748
-371,386,-7.95807,-0.330261,0,0,0,0,0,0,0,-1,853,638,-7.95806,0.330284
-364,386,-8.90637,-0.665955,0,0,0,0,0,0,0,-1,860,638,-8.90635,0.665951
-357,386,-9.10364,-0.388733,0,0,0,0,0,0,0,-1,867,638,-9.10364,0.388744
-350,386,0,0,0,0,0,0,0,0,0,-1,874,638,0,0
-343,386,0,0,0,0,0,0,0,0,0,-1,881,638,0,0
-336,386,0,0,0,0,0,0,0,0,0,-1,888,638,0,0
-329,386,0,0,0,0,0,0,0,0,0,-1,895,638,0,0
-322,386,0,0,0,0,0,0,0,0,0,-1,902,638,0,0
-315,386,0,0,0,0,0,0,0,0,0,-1,909,638,0,0
-308,386,0,0,0,0,0,0,0,0,0,-1,916,638,0,0
-301,386,0,0,0,0,0,0,0,0,0,-1,923,638,0,0
-294,386,0,0,0,0,0,0,0,0,0,-1,930,638,0,0
-287,386,0,0,0,0,0,0,0,0,0,-1,937,638,0,0
-280,386,0,0,0,0,0,0,0,0,0,-1,944,638,0,0
-273,386,0,0,0,0,0,0,0,0,0,-1,951,638,0,0
-266,386,0,0,0,0,0,0,0,0,0,-1,958,638,0,0
-259,386,0,0,0,0,0,0,0,0,0,-1,965,638,0,0
-252,386,0,0,0,0,0,0,0,0,0,-1,972,638,0,0
-245,386,0,0,0,0,0,0,0,0,0,-1,979,638,0,0
-238,386,0,0,0,0,0,0,0,0,0,-1,986,638,0,0
-231,386,0,0,0,0,0,0,0,0,0,-1,993,638,0,0
-224,386,0,0,0,0,0,0,0,0,0,-1,1000,638,0,0
-217,386,0,0,0,0,0,0,0,0,0,-1,1007,638,0,0
-210,386,0,0,0,0,0,0,0,0,0,-1,1014,638,0,0
-203,386,0,0,0,0,0,0,0,0,0,-1,1021,638,0,0
-196,386,0,0,0,0,0,0,0,0,0,-1,1028,638,0,0
-189,386,0,0,0,0,0,0,0,0,0,-1,1035,638,0,0
-182,386,0,0,0,0,0,0,0,0,0,-1,1042,638,0,0
-175,386,0,0,0,0,0,0,0,0,0,-1,1049,638,0,0
-168,386,0,0,0,0,0,0,0,0,0,-1,1056,638,0,0
-161,386,0,0,0,0,0,0,0,0,0,-1,1063,638,0,0
-154,386,0,0,0,0,0,0,0,0,0,-1,1070,638,0,0
-147,386,0,0,0,0,0,0,0,0,0,-1,1077,638,0,0
-140,386,0,0,0,0,0,0,0,0,0,-1,1084,638,0,0
-133,386,0,0,0,0,0,0,0,0,0,-1,1091,638,0,0
-126,386,0,0,0,0,0,0,0,0,0,-1,1098,638,0,0
-119,386,0,0,0,0,0,0,0,0,0,-1,1105,638,0,0
-112,386,0,0,0,0,0,0,0,0,0,-1,1112,638,0,0
-105,386,0,0,0,0,0,0,0,0,0,-1,1119,638,0,0
-98,386,0,0,0,0,0,0,0,0,0,-1,1126,638,0,0
-91,386,0,0,0,0,0,0,0,0,0,-1,1133,638,0,0
-84,386,0,0,0,0,0,0,0,0,0,-1,1140,638,0,0
-77,386,0,0,0,0,0,0,0,0,0,-1,1147,638,0,0
-70,386,0,0,0,0,0,0,0,0,0,-1,1154,638,0,0
-63,386,0,0,0,0,0,0,0,0,0,-1,1161,638,0,0
-56,386,0,0,0,0,0,0,0,0,0,-1,1168,638,0,0
-49,386,0,0,0,0,0,0,0,0,0,-1,1175,638,0,0
-42,386,0,0,0,0,0,0,0,0,0,-1,1182,638,0,0
-35,386,0,0,0,0,0,0,0,0,0,-1,1189,638,0,0
-28,386,0,0,0,0,0,0,0,0,0,-1,1196,638,0,0
-21,386,0,0,0,0,0,0,0,0,0,-1,1203,638,0,0
-14,386,0,0,0,0,0,0,0,0,0,-1,1210,638,0,0
-7,386,0,0,0,0,0,0,0,0,0,-1,1217,638,0,0
0,386,0,0,0,0,0,0,0,0,0,-1,1224,638,0,0
7,386,0,0,0,0,0,0,0,0,0,-1,1231,638,0,0
14,386,0,0,0,0,0,0,0,0,0,-1,1238,638,0,0
21,386,0,0,0,0,0,0,0,0,0,-1,1245,638,0,0
28,386,0,0,0,0,0,0,0,0,0,-1,1252,638,0,0
35,386,0,0,0,0,0,0,0,0,0,-1,1259,638,0,0
42,386,0,0,0,0,0,0,0,0,0,-1,1266,638,0,0
49,386,0,0,0,0,0,0,0,0,0,-1,1273,638,0,0
56,386,0,0,0,0,0,0,0,0,0,-1,1280,638,0,0
63,386,0,0,0,0,0,0,0,0,0,-1,1287,638,0,0
70,386,0,0,0,0,0,0,0,0,0,-1,1294,638,0,0
77,386,0,0,0,0,0,0,0,0,0,-1,1301,638,0,0
84,386,0,0,0,0,0,0,0,0,0,-1,1308,638,0,0
91,386,0,0,0,0,0,0,0,0,0,-1,1315,638,0,0
98,386,0,0,0,0,0,0,0,0,0,-1,1322,638,0,0
105,386,0,0,0,0,0,0,0,0,0,-1,1329,638,0,0
112,386,0,0,0,0,0,0,0,0,0,-1,1336,638,0,0
119,386,0,0,0,0,0,0,0,0,0,-1,1343,638,0,0
126,386,0,0,0,0,0,0,0,0,0,-1,1350,638,0,0
133,386,0,0,0,0,0,0,0,0,0,-1,1357,638,0,0
140,386,0,0,0,0,0,0,0,0,0,-1,1364,638,0,0
147,386,0,0,0,0,0,0,0,0,0,-1,1371,638,0,0
154,386,0,0,0,0,0,0,0,0,0,-1,1378,638,0,0
161,386,0,0,0,0,0,0,0,0,0,-1,1385,638,0,0
168,386,0,0,0,0,0,0,0,0,0,-1,1392,638,0,0
175,386,0,0,0,0,0,0,0,0,0,-1,1399,638,0,0
182,386,0,0,0,0,0,0,0,0,0,-1,1406,638,0,0
189,386,0,0,0,0,0,0,0,0,0,-1,1413,638,0,0
196,386,0,0,0,0,0,0,0,0,0,-1,1420,638,0,0
203,386,0,0,0,0,0,0,0,0,0,-1,1427,638,0,0
210,386,0,0,0,0,0,0,0,0,0,-1,1434,638,0,0
217,386,0,0,0,0,0,0,0,0,0,-1,1441,638,0,0
224,386,0,0,0,0,0,0,0,0,0,-1,1448,638,0,0
231,386,0,0,0,0,0,0,0,0,0,-1,1455,638,0,0
238,386,0,0,0,0,0,0,0,0,0,-1,1462,638,0,0
245,386,0,0,0,0,0,0,0,0,0,-1,1469,638,0,0
252,386,0,0,0,0,0,0,0,0,0,-1,1476,638,0,0
259,386,0,0,0,0,0,0,0,0,0,-1,1483,638,0,0
266,386,0,0,0,0,0,0,0,0,0,-1,1490,638,0,0
273,386,0,0,0,0,0,0,0,0,0,-1,1497,638,0,0
280,386,0,0,0,0,0,0,0,0,0,-1,1504,638,0,0
287,386,0,0,0,0,0,0,0,0,0,-1,1511,638,0,0
294,386,0,0,0,0,0,0,0,0,0,-1,1518,638,0,0
301,386,0,0,0,0,0,0,0,0,0,-1,1525,638,0,0
308,386,0,0,0,0,0,0,0,0,0,-1,1532,638,0,0
315,386,0,0,0,0,0,0,0,0,0,-1,1539,638,0,0
322,386,0,0,0,0,0,0,0,0,0,-1,1546,638,0,0
329,386,0,0,0,0,0,0,0,0,0,-1,1553,638,0,0
336,386,0,0,0,0,0,0,0,0,0,-1,1560,638,0,0
343,386,0,0,0,0,0,0,0,0,0,-1,1567,638,0,0
350,386,0,0,0,0,0,0,0,0,0,-1,1574,638,0,0
357,386,0,0,0,0,0,0,0,0,0,-1,1581,638,0,0
364,386,0,0,0,0,0,0,0,0,0,-1,1588,638,0,0
371,386,0,0,0,0,0,0,0,0,0,-1,1595,638,0,0
378,386,0,0,0,0,0,0,0,0,0,-1,1602,638,0,0
385,386,0,0,0,0,0,0,0,0,0,-1,1609,638,0,0
392,386,0,0,0,0,0,0,0,0,0,-1,1616,638,0,0
399,386,0,0,0,0,0,0,0,0,0,-1,1623,638,0,0
406,386,0,0,0,0,0,0,0,0,0,-1,1630,638,0,0
413,386,0,0,0,0,0,0,0,0,0,-1,1637,638,0,0
420,386,0,0,0,0,0,0,0,0,0,-1,1644,638,0,0
427,386,0,0,0,0,0,0,0,0,0,-1,1651,638,0,0
434,386,0,0,0,0,0,0,0,0,0,-1,1658,638,0,0
441,386,0,0,0,0,0,0,0,0,0,-1,1665,638,0,0
448,386,0,0,0,0,0,0,0,0,0,-1,1672,638,0,0
455,386,0,0,0,0,0,0,0,0,0,-1,1679,638,0,0
462,386,0,0,0,0,0,0,0,0,0,-1,1686,638,0,0
469,386,9.84692,1.55804,0,0,0,0,0,0,0,-1,1693,638,9.84691,-1.55807
476,386,10.6145,0.986511,0,0,0,0,0,0,0,-1,1700,638,10.6145,-0.986529
483,386,11.4113,0.732971,0,0,0,0,0,0,0,-1,1707,638,11.4112,-0.732958
490,386,7.79785,1.79572,0,0,0,0,0,0,0,-1,1714,638,7.79788,-1.7957
497,386,8.96362,1.77081,0,0,0,0,0,0,0,-1,1721,638,8.96357,-1.77081
504,386,10.0555,1.69427,0,0,0,0,0,0,0,-1,1728,638,10.0555,-1.69426
511,386,11.2172,1.534,0,0,0,0,0,0,0,-1,1735,638,11.2172,-1.53398
518,386,7.41553,1.75238,0,0,0,0,0,0,0,-1,1742,638,7.41547,-1.75238
525,386,8.82422,-1.1449,0,0,0,0,0,0,0,-1,1749,638,8.82426,1.14492
532,386,10.6432,0.617371,0,0,0,0,0,0,0,-1,1756,638,10.6432,-0.617359
539,386,9.62061,-0.393616,0,0,0,0,0,0,0,-1,1763,638,9.62059,0.393634
546,386,10.4854,-2.67078,0,0,0,0,0,0,0,-1,1770,638,10.4853,2.6708
553,386,10.656,-2.54034,-0.00313713,0.00220603,0.000129868,0.00220919,-0.00314029,1.54651,0.00310408,0.048545,1777,638,10.656,2.54037
560,386,10.6188,-2.40735,-0.00308297,0.00134675,-0.000442614,0.00139054,-0.00312676,-1.47218,0.00267151,0.0306981,1784,638,10.6188,2.40737
567,386,10.5411,-2.1745,-0.00300542,0.000610065,-0.00084863,0.000799347,-0.00319471,-1.35134,0.00244029,0.0200613,1791,638,10.5412,2.1745
574,386,10.5652,-1.93207,-0.00266032,0.000183492,-0.000976972,0.000486779,-0.0029636,-1.26979,0.00215639,0.0140747,1798,638,10.5652,1.93206
581,386,10.5394,-1.66211,-0.0020275,5.7777e-05,-0.000822846,0.000343359,-0.00231308,-1.23674,0.00166833,0.0139425,1805,638,10.5395,1.66211
588,386,10.5454,-1.37952,-0.00124941,0.000194845,-0.000465937,0.000332115,-0.00138668,-1.28429,0.00105277,0.0129518,1812,638,10.5454,1.3795
595,386,10.5397,-1.1377,-0.000287525,0.000545734,5.83185e-05,0.000549796,-0.000291587,1.50126,0.000493339,0.0135326,1819,638,10.5397,1.1377
602,386,10.5454,-0.876099,0.000609171,0.00110387,0.000711184,0.00160949,0.00010355,0.952756,0.0010402,0.0149534,1826,638,10.5454,0.876075
609,386,10.5729,-0.600769,0.000962883,0.00168715,0.00118767,0.00256667,8.33607e-05,0.933375,0.00168401,0.0149151,1833,638,10.5728,0.600746
616,386,10.5619,-0.302368,0.00105297,0.00230124,0.00153418,0.00333339,2.08258e-05,0.978584,0.00221535,0.0116816,1840,638,10.5619,0.302382
623,386,10.5457,-0.0057373,0.000931205,0.0031021,0.00176975,0.00409276,-5.94554e-05,1.06048,0.00274854,0.0104828,1847,638,10.5456,0.00575937
630,386,10.6178,0.272095,0.00034235,0.00380497,0.00167782,0.00448458,-0.000337251,1.18594,0.00310824,0.0213234,1854,638,10.6178,-0.27211
637,386,10.5266,0.568665,-0.0013988,0.00368955,0.000858803,0.00383058,-0.00153984,1.40802,0.00319326,0.0421601,1861,638,10.5266,-0.568667
644,386,10.645,0.681885,0,0,0,0,0,0,0,-1,1868,638,10.6451,-0.681874
651,386,9.3866,1.31097,0,0,0,0,0,0,0,-1,1875,638,9.3866,-1.31095
658,386,10.4337,1.28308,0,0,0,0,0,0,0,-1,1882,638,10.4337,-1.2831
665,386,6.33167,1.78601,0,0,0,0,0,0,0,-1,1889,638,6.33171,-1.78601
672,386,7.23352,2.14435,0,0,0,0,0,0,0,-1,1896,638,7.23353,-2.14433
679,386,8.07764,2.57104,0,0,0,0,0,0,0,-1,1903,638,8.07758,-2.57103
686,386,0,0,0,0,0,0,0,0,0,-1,1910,638,0,0
693,386,0,0,0,0,0,0,0,0,0,-1,1917,638,0,0
700,386,0,0,0,0,0,0,0,0,0,-1,1924,638,0,0
707,386,0,0,0,0,0,0,0,0,0,-1,1931,638,0,0
714,386,0,0,0,0,0,0,0,0,0,-1,1938,638,0,0
721,386,0,0,0,0,0,0,0,0,0,-1,1945,638,0,0
728,386,0,0,0,0,0,0,0,0,0,-1,1952,638,0,0
735,386,0,0,0,0,0,0,0,0,0,-1,1959,638,0,0
742,386,0,0,0,0,0,0,0,0,0,-1,1966,638,0,0
749,386,0,0,0,0,0,0,0,0,0,-1,1973,638,0,0
756,386,0,0,0,0,0,0,0,0,0,-1,1980,638,0,0
763,386,0,0,0,0,0,0,0,0,0,-1,1987,638,0,0
770,386,0,0,0,0,0,0,0,0,0,-1,1994,638,0,0
777,386,0,0,0,0,0,0,0,0,0,-1,2001,638,0,0
784,386,0,0,0,0,0,0,0,0,0,-1,2008,638,0,0
791,386,0,0,0,0,0,0,0,0,0,-1,2015,638,0,0
798,386,0,0,0,0,0,0,0,0,0,-1,2022,638,0,0
805,386,0,0,0,0,0,0,0,0,0,-1,2029,638,0,0
812,386,0,0,0,0,0,0,0,0,0,-1,2036,638,0,0
-700,379,0,0,0,0,0,0,0,0,0,-1,524,645,0,0
-693,379,0,0,0,0,0,0,0,0,0,-1,531,645,0,0
-686,379,0,0,0,0,0,0,0,0,0,-1,538,645,0,0
-679,379,0,0,0,0,0,0,0,0,0,-1,545,645,0,0
-672,379,0,0,0,0,0,0,0,0,0,-1,552,645,0,0
-665,379,0,0,0,0,0,0,0,0,0,-1,559,645,0,0
-658,379,0,0,0,0,0,0,0,0,0,-1,566,645,0,0
-651,379,0,0,0,0,0,0,0,0,0,-1,573,645,0,0
-644,379,0,0,0,0,0,0,0,0,0,-1,580,645,0,0
-637,379,0,0,0,0,0,0,0,0,0,-1,587,645,0,0
-630,379,0,0,0,0,0,0,0,0,0,-1,594,645,0,0
-623,379,0,0,0,0,0,0,0,0,0,-1,601,645,0,0
-616,379,0,0,0,0,0,0,0,0,0,-1,608,645,0,0
-609,379,0,0,0,0,0,0,0,0,0,-1,615,645,0,0
-602,379,0,0,0,0,0,0,0,0,0,-1,622,645,0,0
-595,379,0,0,0,0,0,0,0,0,0,-1,629,645,0,0
-588,379,0,0,0,0,0,0,0,0,0,-1,636,645,0,0
-581,379,0,0,0,0,0,0,0,0,0,-1,643,645,0,0
-574,379,0,0,0,0,0,0,0,0,0,-1,650,645,0,0
-567,379,-3.06555,-3.93073,-0.117493,-0.159368,-0.010191,-0.115144,-0.161717,-0.226487,0.0961243,0.0439657,657,645,-3.06553,3.93073
-560,379,-4.17487,-4.09064,-0.0991918,-0.137693,-0.00869556,-0.097319,-0.139565,-0.212137,0.0826428,0.0487031,664,645,-4.1749,4.09064
-553,379,-5.17108,-4.53119,-0.0834092,-0.11495,-0.00630529,-0.0821955,-0.116164,-0.190172,0.0689671,0.0491664,671,645,-5.17106,4.53117
-546,379,-6.23053,-4.92102,0,0,0,0,0,0,0,-1,678,645,-6.23054,4.92105
-539,379,-0.71698,-2.19427,0,0,0,0,0,0,0,-1,685,645,-0.716959,2.19427
-532,379,-4.15576,0.072876,0,0,0,0,0,0,0,-1,692,645,-4.15576,-0.0729009
-525,379,-4.4834,-0.476318,0,0,0,0,0,0,0,-1,699,645,-4.48338,0.476292
-518,379,-4.4397,-0.969604,-0.0170055,-0.0254116,6.63868e-05,-0.0170049,-0.0254122,0.00789672,0.014949,0.0444672,706,645,-4.4397,0.9696
-511,379,-4.51245,-1.37726,-0.00882659,-0.0129819,0.000908444,-0.00863666,-0.0131718,0.206098,0.00772667,0.0306469,713,645,-4.51244,1.37727
-504,379,-4.6214,-1.63,-0.0043164,-0.00494618,0.00170589,-0.00289658,-0.006366,0.694131,0.00368037,0.0171515,720,645,-4.62141,1.62999
-497,379,-4.67761,-1.83954,-0.00188455,0.000740286,0.0018919,0.00173042,-0.00287468,1.08864,0.00268598,0.0105473,727,645,-4.67764,1.83953
-490,379,-4.66772,-2.08759,-0.0011561,0.00236538,0.000672216,0.00248933,-0.00128005,1.38845,0.00221327,0.0105184,734,645,-4.66773,2.08759
-483,379,-4.64734,-2.35376,-0.000526994,0.00151232,5.57187e-05,0.00151384,-0.000528515,1.5435,0.00122404,0.0129266,741,645,-4.64736,2.35379
-476,379,-4.64923,-2.59607,0.000315747,0.00110421,-0.00030448,0.00120811,0.000211856,-1.24197,0.000744896,0.0133451,748,645,-4.64922,2.59604
-469,379,-4.67749,-2.83551,0.0010565,0.000825228,-0.000690983,0.00164145,0.000240269,-0.702493,0.00102366,0.011141,755,645,-4.67749,2.8355
-462,379,-4.6792,-3.09583,0.00133888,0.000650747,-0.00089526,0.00195391,3.57133e-05,-0.60194,0.00129087,0.00852211,762,645,-4.67921,3.09585
-455,379,-4.68243,-3.34229,0.00128987,0.000636377,-0.000904399,0.00192474,1.51055e-06,-0.612051,0.00128266,0.00900251,769,645,-4.68242,3.34228
-448,379,-4.6731,-3.59528,0.000792408,0.000689329,-0.000694139,0.00143692,4.4819e-05,-0.748341,0.000943361,0.0114825,776,645,-4.67308,3.59526
-441,379,-4.64429,-3.86938,-0.000267744,0.000315898,2.02406e-05,0.000316599,-0.000268445,1.53617,0.000338156,0.0160656,783,645,-4.64426,3.86936
-434,379,-4.52118,-4.21442,0,0,0,0,0,0,0,-1,790,645,-4.52118,4.21444
-427,379,-4.16113,-4.13452,0,0,0,0,0,0,0,-1,797,645,-4.16116,4.1345
-420,379,-4.63953,-3.46869,0,0,0,0,0,0,0,-1,804,645,-4.63953,3.46872
-413,379,-4.62543,-3.7912,0,0,0,0,0,0,0,-1,811,645,-4.62541,3.79123
-406,379,-4.64063,-4.38489,0,0,0,0,0,0,0,-1,818,645,-4.64065,4.3849
-399,379,-2.93536,-1.40118,0,0,0,0,0,0,0,-1,825,645,-2.93534,1.40119
-392,379,-4.16711,-0.466003,0,0,0,0,0,0,0,-1,832,645,-4.16714,0.465992
-385,379,-3.51862,0.441101,0,0,0,0,0,0,0,-1,839,645,-3.51859,-0.441072
-378,379,-5.3504,0.212219,0,0,0,0,0,0,0,-1,846,645,-5.35038,-0.212241
-371,379,-4.32092,-0.186707,0,0,0,0,0,0,0,-1,853,645,-4.3209,0.186707
-364,379,-3.40887,-0.549805,0,0,0,0,0,0,0,-1,860,645,-3.4089,0.549802
-357,379,0,0,0,0,0,0,0,0,0,-1,867,645,0,0
-350,379,0,0,0,0,0,0,0,0,0,-1,874,645,0,0
-343,379,0,0,0,0,0,0,0,0,0,-1,881,645,0,0
-336,379,0,0,0,0,0,0,0,0,0,-1,888,645,0,0
-329,379,0,0,0,0,0,0,0,0,0,-1,895,645,0,0
-322,379,0,0,0,0,0,0,0,0,0,-1,902,645,0,0
-315,379,0,0,0,0,0,0,0,0,0,-1,909,645,0,0
-308,379,0,0,0,0,0,0,0,0,0,-1,916,645,0,0
-301,379,0,0,0,0,0,0,0,0,0,-1,923,645,0,0
-294,379,0,0,0,0,0,0,0,0,0,-1,930,645,0,0
-287,379,0,0,0,0,0,0,0,0,0,-1,937,645,0,0
-280,379,0,0,0,0,0,0,0,0,0,-1,944,645,0,0
-273,379,0,0,0,0,0,0,0,0,0,-1,951,645,0,0
-266,379,0,0,0,0,0,0,0,0,0,-1,958,645,0,0
-259,379,0,0,0,0,0,0,0,0,0,-1,965,645,0,0
-252,379,0,0,0,0,0,0,0,0,0,-1,972,645,0,0
-245,379,0,0,0,0,0,0,0,0,0,-1,979,645,0,0
-238,379,0,0,0,0,0,0,0,0,0,-1,986,645,0,0
-231,379,0,0,0,0,0,0,0,0,0,-1,993,645,0,0
-224,379,0,0,0,0,0,0,0,0,0,-1,1000,645,0,0
-217,379,0,0,0,0,0,0,0,0,0,-1,1007,645,0,0
-210,379,0,0,0,0,0,0,0,0,0,-1,1014,645,0,0
-203,379,0,0,0,0,0,0,0,0,0,-1,1021,645,0,0
-196,379,0,0,0,0,0,0,0,0,0,-1,1028,645,0,0
-189,379,0,0,0,0,0,0,0,0,0,-1,1035,645,0,0
-182,379,0,0,0,0,0,0,0,0,0,-1,1042,645,0,0
-175,379,0,0,0,0,0,0,0,0,0,-1,1049,645,0,0
-168,379,0,0,0,0,0,0,0,0,0,-1,1056,645,0,0
-161,379,0,0,0,0,0,0,0,0,0,-1,1063,645,0,0
-154,379,0,0,0,0,0,0,0,0,0,-1,1070,645,0,0
-147,379,0,0,0,0,0,0,0,0,0,-1,1077,645,0,0
-140,379,0,0,0,0,0,0,0,0,0,-1,1084,645,0,0
-133,379,0,0,0,0,0,0,0,0,0,-1,1091,645,0,0
-126,379,0,0,0,0,0,0,0,0,0,-1,1098,645,0,0
-119,379,0,0,0,0,0,0,0,0,0,-1,1105,645,0,0
-112,379,0,0,0,0,0,0,0,0,0,-1,1112,645,0,0
-105,379,0,0,0,0,0,0,0,0,0,-1,1119,645,0,0
-98,379,0,0,0,0,0,0,0,0,0,-1,1126,645,0,0
-91,379,0,0,0,0,0,0,0,0,0,-1,1133,645,0,0
-84,379,0,0,0,0,0,0,0,0,0,-1,1140,645,0,0
-77,379,0,0,0,0,0,0,0,0,0,-1,1147,645,0,0
-70,379,0,0,0,0,0,0,0,0,0,-1,1154,645,0,0
-63,379,0,0,0,0,0,0,0,0,0,-1,1161,645,0,0
-56,379,0,0,0,0,0,0,0,0,0,-1,1168,645,0,0
-49,379,0,0,0,0,0,0,0,0,0,-1,1175,645,0,0
-42,379,0,0,0,0,0,0,0,0,0,-1,1182,645,0,0
-35,379,0,0,0,0,0,0,0,0,0,-1,1189,645,0,0
-28,379,0,0,0,0,0,0,0,0,0,-1,1196,645,0,0
-21,379,0,0,0,0,0,0,0,0,0,-1,1203,645,0,0
-14,379,0,0,0,0,0,0,0,0,0,-1,1210,645,0,0
-7,379,0,0,0,0,0,0,0,0,0,-1,1217,645,0,0
0,379,0,0,0,0,0,0,0,0,0,-1,1224,645,0,0
7,379,0,0,0,0,0,0,0,0,0,-1,1231,645,0,0
14,379,0,0,0,0,0,0,0,0,0,-1,1238,645,0,0
21,379,0,0,0,0,0,0,0,0,0,-1,1245,645,0,0
28,379,0,0,0,0,0,0,0,0,0,-1,1252,645,0,0
35,379,0,0,0,0,0,0,0,0,0,-1,1259,645,0,0
42,379,0,0,0,0,0,0,0,0,0,-1,1266,645,0,0
49,379,0,0,0,0,0,0,0,0,0,-1,1273,645,0,0
56,379,0,0,0,0,0,0,0,0,0,-1,1280,645,0,0
63,379,0,0,0,0,0,0,0,0,0,-1,1287,645,0,0
70,379,0,0,0,0,0,0,0,0,0,-1,1294,645,0,0
77,379,0,0,0,0,0,0,0,0,0,-1,1301,645,0,0
84,379,0,0,0,0,0,0,0,0,0,-1,1308,645,0,0
91,379,0,0,0,0,0,0,0,0,0,-1,1315,645,0,0
98,379,0,0,0,0,0,0,0,0,0,-1,1322,645,0,0
105,379,0,0,0,0,0,0,0,0,0,-1,1329,645,0,0
112,379,0,0,0,0,0,0,0,0,0,-1,1336,645,0,0
119,379,0,0,0,0,0,0,0,0,0,-1,1343,645,0,0
126,379,0,0,0,0,0,0,0,0,0,-1,1350,645,0,0
133,379,0,0,0,0,0,0,0,0,0,-1,1357,645,0,0
140,379,0,0,0,0,0,0,0,0,0,-1,1364,645,0,0
147,379,0,0,0,0,0,0,0,0,0,-1,1371,645,0,0
154,379,0,0,0,0,0,0,0,0,0,-1,1378,645,0,0
161,379,0,0,0,0,0,0,0,0,0,-1,1385,645,0,0
168,379,0,0,0,0,0,0,0,0,0,-1,1392,645,0,0
175,379,0,0,0,0,0,0,0,0,0,-1,1399,645,0,0
182,379,0,0,0,0,0,0,0,0,0,-1,1406,645,0,0
189,379,0,0,0,0,0,0,0,0,0,-1,1413,645,0,0
196,379,0,0,0,0,0,0,0,0,0,-1,1420,645,0,0
203,379,0,0,0,0,0,0,0,0,0,-1,1427,645,0,0
210,379,0,0,0,0,0,0,0,0,0,-1,1434,645,0,0
217,379,0,0,0,0,0,0,0,0,0,-1,1441,645,0,0
224,379,0,0,0,0,0,0,0,0,0,-1,1448,645,0,0
231,379,0,0,0,0,0,0,0,0,0,-1,1455,645,0,0
238,379,0,0,0,0,0,0,0,0,0,-1,1462,645,0,0
245,379,0,0,0,0,0,0,0,0,0,-1,1469,645,0,0
252,379,0,0,0,0,0,0,0,0,0,-1,1476,645,0,0
259,379,0,0,0,0,0,0,0,0,0,-1,1483,645,0,0
266,379,0,0,0,0,0,0,0,0,0,-1,1490,645,0,0
273,379,0,0,0,0,0,0,0,0,0,-1,1497,645,0,0
280,379,0,0,0,0,0,0,0,0,0,-1,1504,645,0,0
287,379,0,0,0,0,0,0,0,0,0,-1,1511,645,0,0
294,379,0,0,0,0,0,0,0,0,0,-1,1518,645,0,0
301,379,0,0,0,0,0,0,0,0,0,-1,1525,645,0,0
308,379,0,0,0,0,0,0,0,0,0,-1,1532,645,0,0
315,379,0,0,0,0,0,0,0,0,0,-1,1539,645,0,0
322,379,0,0,0,0,0,0,0,0,0,-1,1546,645,0,0
329,379,0,0,0,0,0,0,0,0,0,-1,1553,645,0,0
336,379,0,0,0,0,0,0,0,0,0,-1,1560,645,0,0
343,379,0,0,0,0,0,0,0,0,0,-1,1567,645,0,0
350,379,0,0,0,0,0,0,0,0,0,-1,1574,645,0,0
357,379,0,0,0,0,0,0,0,0,0,-1,1581,645,0,0
364,379,0,0,0,0,0,0,0,0,0,-1,1588,645,0,0
371,379,0,0,0,0,0,0,0,0,0,-1,1595,645,0,0
378,379,0,0,0,0,0,0,0,0,0,-1,1602,645,0,0
385,379,0,0,0,0,0,0,0,0,0,-1,1609,645,0,0
392,379,0,0,0,0,0,0,0,0,0,-1,1616,645,0,0
399,379,0,0,0,0,0,0,0,0,0,-1,1623,645,0,0
406,379,0,0,0,0,0,0,0,0,0,-1,1630,645,0,0
413,379,0,0,0,0,0,0,0,0,0,-1,1637,645,0,0
420,379,0,0,0,0,0,0,0,0,0,-1,1644,645,0,0
427,379,0,0,0,0,0,0,0,0,0,-1,1651,645,0,0
434,379,0,0,0,0,0,0,0,0,0,-1,1658,645,0,0
441,379,0,0,0,0,0,0,0,0,0,-1,1665,645,0,0
448,379,0,0,0,0,0,0,0,0,0,-1,1672,645,0,0
455,379,0,0,0,0,0,0,0,0,0,-1,1679,645,0,0
462,379,0,0,0,0,0,0,0,0,0,-1,1686,645,0,0
469,379,0,0,0,0,0,0,0,0,0,-1,1693,645,0,0
476,379,11.1787,0.830383,0,0,0,0,0,0,0,-1,1700,645,11.1787,-0.830365
483,379,7.4231,1.54321,0,0,0,0,0,0,0,-1,1707,645,7.42314,-1.54324
490,379,8.52881,1.56677,0,0,0,0,0,0,0,-1,1714,645,8.52878,-1.56677
497,379,9.63599,1.49573,0,0,0,0,0,0,0,-1,1721,645,9.63604,-1.4957
504,379,10.0833,1.35229,0,0,0,0,0,0,0,-1,1728,645,10.0832,-1.35227
511,379,8.14343,1.59912,0,0,0,0,0,0,0,-1,1735,645,8.14347,-1.59912
518,379,12.7955,-0.324097,0,0,0,0,0,0,0,-1,1742,645,12.7955,0.324101
525,379,6.03711,1.10352,0,0,0,0,0,0,0,-1,1749,645,6.03711,-1.10351
532,379,8.70947,0.887817,0,0,0,0,0,0,0,-1,1756,645,8.70953,-0.887808
539,379,9.87097,0.111389,0,0,0,0,0,0,0,-1,1763,645,9.87095,-0.111395
546,379,8.42383,-0.730652,0,0,0,0,0,0,0,-1,1770,645,8.42378,0.730638
553,379,11.032,-2.80481,0,0,0,0,0,0,0,-1,1777,645,11.032,2.80482
560,379,10.9023,-2.41241,-0.00484546,0.00142196,-0.000976424,0.00157056,-0.00499406,-1.41977,0.00395815,0.0387806,1784,645,10.9023,2.41242
567,379,10.735,-2.14142,-0.0046068,0.000448565,-0.00147352,0.000846705,-0.00500493,-1.3069,0.00365173,0.0225349,1791,645,10.735,2.14139
574,379,10.845,-1.9259,-0.00411429,-0.000133312,-0.0016529,0.000463501,-0.00471111,-1.22429,0.00330609,0.01232,1798,645,10.845,1.92592
581,379,10.8413,-1.66071,-0.00327178,-0.000353545,-0.00147961,0.000265382,-0.00389071,-1.17461,0.00268664,0.0141235,1805,645,10.8413,1.66071
588,379,10.8387,-1.38092,-0.0022731,-0.000254448,-0.00107728,0.000212463,-0.00274001,-1.16182,0.00190145,0.0161406,1812,645,10.8388,1.38093
595,379,10.8097,-1.13947,-0.00115675,7.24284e-05,-0.000527497,0.000267761,-0.00135208,-1.21615,0.00100263,0.0134842,1819,645,10.8098,1.13944
602,379,10.8098,-0.876282,-0.000155934,0.000599107,0.000128267,0.000620302,-0.000177129,1.40703,0.000483516,0.0140417,1826,645,10.8098,0.876266
609,379,10.8148,-0.600403,0.000240888,0.00116116,0.000587894,0.00144758,-4.55314e-05,1.11744,0.000980582,0.0154044,1833,645,10.8149,0.600414
616,379,10.8075,-0.315552,0.000305719,0.00157351,0.000797603,0.00195843,-7.92057e-05,1.12116,0.00133281,0.0121206,1840,645,10.8075,0.315538
623,379,10.8193,-0.00891113,0.000110526,0.00224022,0.000899513,0.00256929,-0.000218551,1.22008,0.00179017,0.0118765,1847,645,10.8193,0.00893622
630,379,10.8373,0.258423,-0.00044998,0.00273655,0.00072074,0.00289199,-0.000605417,1.35839,0.00215829,0.013609,1854,645,10.8373,-0.258439
637,379,10.8425,0.546265,-0.0017714,0.00259667,5.45914e-06,0.00259667,-0.00177141,1.56955,0.00253687,0.0187163,1861,645,10.8426,-0.546278
644,379,10.825,0.890381,-0.00391337,0.00258586,-0.00110933,0.00276999,-0.0040975,-1.40631,0.00398956,0.0315631,1868,645,10.8249,-0.890398
651,379,11.1079,1.23175,0,0,0,0,0,0,0,-1,1875,645,11.1078,-1.23177
658,379,10.7289,1.41089,0,0,0,0,0,0,0,-1,1882,645,10.7289,-1.41087
665,379,10.3323,2.34113,0,0,0,0,0,0,0,-1,1889,645,10.3323,-2.34114
672,379,7.57605,2.15326,0,0,0,0,0,0,0,-1,1896,645,7.57599,-2.15326
679,379,8.55078,2.50409,0,0,0,0,0,0,0,-1,1903,645,8.55073,-2.50406
686,379,0,0,0,0,0,0,0,0,0,-1,1910,645,0,0
693,379,0,0,0,0,0,0,0,0,0,-1,1917,645,0,0
700,379,0,0,0,0,0,0,0,0,0,-1,1924,645,0,0
707,379,0,0,0,0,0,0,0,0,0,-1,1931,645,0,0
714,379,0,0,0,0,0,0,0,0,0,-1,1938,645,0,0
721,379,0,0,0,0,0,0,0,0,0,-1,1945,645,0,0
728,379,0,0,0,0,0,0,0,0,0,-1,1952,645,0,0
735,379,0,0,0,0,0,0,0,0,0,-1,1959,645,0,0
742,379,0,0,0,0,0,0,0,0,0,-1,1966,645,0,0
749,379,0,0,0,0,0,0,0,0,0,-1,1973,645,0,0
756,379,0,0,0,0,0,0,0,0,0,-1,1980,645,0,0
763,379,0,0,0,0,0,0,0,0,0,-1,1987,645,0,0
770,379,0,0,0,0,0,0,0,0,0,-1,1994,645,0,0
777,379,0,0,0,0,0,0,0,0,0,-1,2001,645,0,0
784,379,0,0,0,0,0,0,0,0,0,-1,2008,645,0,0
791,379,0,0,0,0,0,0,0,0,0,-1,2015,645,0,0
798,379,0,0,0,0,0,0,0,0,0,-1,2022,645,0,0
805,379,0,0,0,0,0,0,0,0,0,-1,2029,645,0,0
812,379,0,0,0,0,0,0,0,0,0,-1,2036,645,0,0
-700,372,0,0,0,0,0,0,0,0,0,-1,524,652,0,0
-693,372,0,0,0,0,0,0,0,0,0,-1,531,652,0,0
-686,372,0,0,0,0,0,0,0,0,0,-1,538,652,0,0
-679,372,0,0,0,0,0,0,0,0,0,-1,545,652,0,0
-672,372,0,0,0,0,0,0,0,0,0,-1,552,652,0,0
-665,372,0,0,0,0,0,0,0,0,0,-1,559,652,0,0
-658,372,0,0,0,0,0,0,0,0,0,-1,566,652,0,0
-651,372,0,0,0,0,0,0,0,0,0,-1,573,652,0,0
-644,372,0,0,0,0,0,0,0,0,0,-1,580,652,0,0
-637,372,0,0,0,0,0,0,0,0,0,-1,587,652,0,0
-630,372,0,0,0,0,0,0,0,0,0,-1,594,652,0,0
-623,372,0,0,0,0,0,0,0,0,0,-1,601,652,0,0
-616,372,0,0,0,0,0,0,0,0,0,-1,608,652,0,0
-609,372,0,0,0,0,0,0,0,0,0,-1,615,652,0,0
-602,372,0,0,0,0,0,0,0,0,0,-1,622,652,0,0
-595,372,0,0,0,0,0,0,0,0,0,-1,629,652,0,0
-588,372,0,0,0,0,0,0,0,0,0,-1,636,652,0,0
-581,372,0,0,0,0,0,0,0,0,0,-1,643,652,0,0
-574,372,0,0,0,0,0,0,0,0,0,-1,650,652,0,0
-567,372,-3.15521,-2.69354,-0.0960152,-0.140278,-0.00785555,-0.0946624,-0.141631,-0.170539,0.0833017,0.0468215,657,652,-3.15522,2.69353
-560,372,-4.17346,-3.47296,-0.0797291,-0.122166,-0.00647318,-0.0787637,-0.123131,-0.148052,0.0720086,0.0480685,664,652,-4.17346,3.47297
-553,372,-4.2403,-3.32458,-0.0657875,-0.102134,-0.00470338,-0.0651887,-0.102732,-0.126627,0.0600241,0.048831,671,652,-4.24028,3.32461
-546,372,-4.2403,-3.75372,0,0,0,0,0,0,0,-1,678,652,-4.24028,3.75369
-539,372,-5.60229,0.236755,0,0,0,0,0,0,0,-1,685,652,-5.60228,-0.236735
-532,372,-4.85162,0.23175,0,0,0,0,0,0,0,-1,692,652,-4.85163,-0.231763
-525,372,-4.81854,-0.311707,-0.0204876,-0.0338016,9.38879e-05,-0.0204869,-0.0338022,0.00705135,0.0196616,0.0478805,699,652,-4.81856,0.311678
-518,372,-4.81897,-0.979126,-0.0133906,-0.0221778,0.000377956,-0.0133744,-0.022194,0.0429065,0.0129034,0.0319654,706,652,-4.81898,0.979148
-511,372,-4.89594,-1.35828,-0.0069224,-0.0115841,0.00104982,-0.00669689,-0.0118096,0.211594,0.00683869,0.0190953,713,652,-4.89593,1.35826
-504,372,-4.92413,-1.57159,-0.00341102,-0.00475597,0.00173592,-0.00222187,-0.00594512,0.600605,0.00346871,0.0120951,720,652,-4.92416,1.57158
-497,372,-4.92004,-1.83258,-0.0014608,0.000190138,0.00180328,0.00134791,-0.00261857,1.00004,0.00232889,0.0108353,727,652,-4.92006,1.83256
-490,372,-4.91693,-2.07037,-0.000832208,0.0018022,0.000680928,0.00196779,-0.000997802,1.33224,0.00174245,0.0119638,734,652,-4.91692,2.07039
-483,372,-4.91022,-2.31854,-0.000230061,0.00106167,7.49572e-05,0.00106601,-0.000234396,1.51303,0.000800329,0.0128576,741,652,-4.91024,2.31853
-476,372,-4.92596,-2.55591,0.000756186,0.000733594,-0.000359602,0.00110467,0.000385111,-0.769697,0.000647451,0.0136722,748,652,-4.92595,2.5559
-469,372,-4.92688,-2.81128,0.00173051,0.000572518,-0.000891313,0.00221437,8.86508e-05,-0.497353,0.0014476,0.00992647,755,652,-4.92687,2.81127
-462,372,-4.91418,-3.07458,0.00233668,0.00049613,-0.00126582,0.0029814,-0.000148592,-0.471084,0.00203894,0.00903423,762,652,-4.91419,3.07459
-455,372,-4.93481,-3.31647,0.00272668,0.00059113,-0.00150247,0.00350215,-0.000184345,-0.47647,0.00239858,0.0103365,769,652,-4.93479,3.31649
-448,372,-4.93091,-3.58246,0.002737,0.000679824,-0.00151782,0.00354192,-0.000125102,-0.487606,0.00240407,0.011642,776,652,-4.93093,3.58248
-441,372,-4.79999,-4.00006,0.00241888,0.000104031,-0.00104755,0.00282254,-0.00029963,-0.367804,0.00198911,0.0336181,783,652,-4.79996,4.00004
-434,372,-4.7356,-4.49866,0,0,0,0,0,0,0,-1,790,652,-4.7356,4.49863
-427,372,-4.54248,-3.56268,0,0,0,0,0,0,0,-1,797,652,-4.54247,3.56266
-420,372,-4.66168,-2.93597,0,0,0,0,0,0,0,-1,804,652,-4.66166,2.93599
-413,372,-4.74762,-3.29541,0,0,0,0,0,0,0,-1,811,652,-4.74763,3.29542
-406,372,-0.885437,-0.583923,0,0,0,0,0,0,0,-1,818,652,-0.885437,0.5839
-399,372,-3.97357,-0.825012,0,0,0,0,0,0,0,-1,825,652,-3.97359,0.825037
-392,372,-7.64337,0.173035,0,0,0,0,0,0,0,-1,832,652,-7.64337,-0.173019
-385,372,-6.48871,-0.0271606,0,0,0,0,0,0,0,-1,839,652,-6.48874,0.0271353
-378,372,-5.33044,-0.242432,0,0,0,0,0,0,0,-1,846,652,-5.33042,0.242457
-371,372,-4.40802,-0.495667,0,0,0,0,0,0,0,-1,853,652,-4.40802,0.495661
-364,372,0,0,0,0,0,0,0,0,0,-1,860,652,0,0
-357,372,0,0,0,0,0,0,0,0,0,-1,867,652,0,0
-350,372,0,0,0,0,0,0,0,0,0,-1,874,652,0,0
-343,372,0,0,0,0,0,0,0,0,0,-1,881,652,0,0
-336,372,0,0,0,0,0,0,0,0,0,-1,888,652,0,0
-329,372,0,0,0,0,0,0,0,0,0,-1,895,652,0,0
-322,372,0,0,0,0,0,0,0,0,0,-1,902,652,0,0
-315,372,0,0,0,0,0,0,0,0,0,-1,909,652,0,0
-308,372,0,0,0,0,0,0,0,0,0,-1,916,652,0,0
-301,372,0,0,0,0,0,0,0,0,0,-1,923,652,0,0
-294,372,0,0,0,0,0,0,0,0,0,-1,930,652,0,0
-287,372,0,0,0,0,0,0,0,0,0,-1,937,652,0,0
-280,372,0,0,0,0,0,0,0,0,0,-1,944,652,0,0
-273,372,0,0,0,0,0,0,0,0,0,-1,951,652,0,0
-266,372,0,0,0,0,0,0,0,0,0,-1,958,652,0,0
-259,372,0,0,0,0,0,0,0,0,0,-1,965,652,0,0
-252,372,0,0,0,0,0,0,0,0,0,-1,972,652,0,0
-245,372,0,0,0,0,0,0,0,0,0,-1,979,652,0,0
-238,372,0,0,0,0,0,0,0,0,0,-1,986,652,0,0
-231,372,0,0,0,0,0,0,0,0,0,-1,993,652,0,0
-224,372,0,0,0,0,0,0,0,0,0,-1,1000,652,0,0
-217,372,0,0,0,0,0,0,0,0,0,-1,1007,652,0,0
-210,372,0,0,0,0,0,0,0,0,0,-1,1014,652,0,0
-203,372,0,0,0,0,0,0,0,0,0,-1,1021,652,0,0
-196,372,0,0,0,0,0,0,0,0,0,-1,1028,652,0,0
-189,372,0,0,0,0,0,0,0,0,0,-1,1035,652,0,0
-182,372,0,0,0,0,0,0,0,0,0,-1,1042,652,0,0
-175,372,0,0,0,0,0,0,0,0,0,-1,1049,652,0,0
-168,372,0,0,0,0,0,0,0,0,0,-1,1056,652,0,0
-161,372,0,0,0,0,0,0,0,0,0,-1,1063,652,0,0
-154,372,0,0,0,0,0,0,0,0,0,-1,1070,652,0,0
-147,372,0,0,0,0,0,0,0,0,0,-1,1077,652,0,0
-140,372,0,0,0,0,0,0,0,0,0,-1,1084,652,0,0
-133,372,0,0,0,0,0,0,0,0,0,-1,1091,652,0,0
-126,372,0,0,0,0,0,0,0,0,0,-1,1098,652,0,0
-119,372,0,0,0,0,0,0,0,0,0,-1,1105,652,0,0
-112,372,0,0,0,0,0,0,0,0,0,-1,1112,652,0,0
-105,372,0,0,0,0,0,0,0,0,0,-1,1119,652,0,0
-98,372,0,0,0,0,0,0,0,0,0,-1,1126,652,0,0
-91,372,0,0,0,0,0,0,0,0,0,-1,1133,652,0,0
-84,372,0,0,0,0,0,0,0,0,0,-1,1140,652,0,0
-77,372,0,0,0,0,0,0,0,0,0,-1,1147,652,0,0
-70,372,0,0,0,0,0,0,0,0,0,-1,1154,652,0,0
-63,372,0,0,0,0,0,0,0,0,0,-1,1161,652,0,0
-56,372,0,0,0,0,0,0,0,0,0,-1,1168,652,0,0
-49,372,0,0,0,0,0,0,0,0,0,-1,1175,652,0,0
-42,372,0,0,0,0,0,0,0,0,0,-1,1182,652,0,0
-35,372,0,0,0,0,0,0,0,0,0,-1,1189,652,0,0
-28,372,0,0,0,0,0,0,0,0,0,-1,1196,652,0,0
-21,372,0,0,0,0,0,0,0,0,0,-1,1203,652,0,0
-14,372,0,0,0,0,0,0,0,0,0,-1,1210,652,0,0
-7,372,0,0,0,0,0,0,0,0,0,-1,1217,652,0,0
0,372,0,0,0,0,0,0,0,0,0,-1,1224,652,0,0
7,372,0,0,0,0,0,0,0,0,0,-1,1231,652,0,0
14,372,0,0,0,0,0,0,0,0,0,-1,1238,652,0,0
21,372,0,0,0,0,0,0,0,0,0,-1,1245,652,0,0
28,372,0,0,0,0,0,0,0,0,0,-1,1252,652,0,0
35,372,0,0,0,0,0,0,0,0,0,-1,1259,652,0,0
42,372,0,0,0,0,0,0,0,0,0,-1,1266,652,0,0
49,372,0,0,0,0,0,0,0,0,0,-1,1273,652,0,0
56,372,0,0,0,0,0,0,0,0,0,-1,1280,652,0,0
63,372,0,0,0,0,0,0,0,0,0,-1,1287,652,0,0
70,372,0,0,0,0,0,0,0,0,0,-1,1294,652,0,0
77,372,0,0,0,0,0,0,0,0,0,-1,1301,652,0,0
84,372,0,0,0,0,0,0,0,0,0,-1,1308,652,0,0
91,372,0,0,0,0,0,0,0,0,0,-1,1315,652,0,0
98,372,0,0,0,0,0,0,0,0,0,-1,1322,652,0,0
105,372,0,0,0,0,0,0,0,0,0,-1,1329,652,0,0
112,372,0,0,0,0,0,0,0,0,0,-1,1336,652,0,0
119,372,0,0,0,0,0,0,0,0,0,-1,1343,652,0,0
126,372,0,0,0,0,0,0,0,0,0,-1,1350,652,0,0
133,372,0,0,0,0,0,0,0,0,0,-1,1357,652,0,0
140,372,0,0,0,0,0,0,0,0,0,-1,1364,652,0,0
147,372,0,0,0,0,0,0,0,0,0,-1,1371,652,0,0
154,372,0,0,0,0,0,0,0,0,0,-1,1378,652,0,0
161,372,0,0,0,0,0,0,0,0,0,-1,1385,652,0,0
168,372,0,0,0,0,0,0,0,0,0,-1,1392,652,0,0
175,372,0,0,0,0,0,0,0,0,0,-1,1399,652,0,0
182,372,0,0,0,0,0,0,0,0,0,-1,1406,652,0,0
189,372,0,0,0,0,0,0,0,0,0,-1,1413,652,0,0
196,372,0,0,0,0,0,0,0,0,0,-1,1420,652,0,0
203,372,0,0,0,0,0,0,0,0,0,-1,1427,652,0,0
210,372,0,0,0,0,0,0,0,0,0,-1,1434,652,0,0
217,372,0,0,0,0,0,0,0,0,0,-1,1441,652,0,0
224,372,0,0,0,0,0,0,0,0,0,-1,1448,652,0,0
231,372,0,0,0,0,0,0,0,0,0,-1,1455,652,0,0
238,372,0,0,0,0,0,0,0,0,0,-1,1462,652,0,0
245,372,0,0,0,0,0,0,0,0,0,-1,1469,652,0,0
252,372,0,0,0,0,0,0,0,0,0,-1,1476,652,0,0
259,372,0,0,0,0,0,0,0,0,0,-1,1483,652,0,0
266,372,0,0,0,0,0,0,0,0,0,-1,1490,652,0,0
273,372,0,0,0,0,0,0,0,0,0,-1,1497,652,0,0
280,372,0,0,0,0,0,0,0,0,0,-1,1504,652,0,0
287,372,0,0,0,0,0,0,0,0,0,-1,1511,652,0,0
294,372,0,0,0,0,0,0,0,0,0,-1,1518,652,0,0
301,372,0,0,0,0,0,0,0,0,0,-1,1525,652,0,0
308,372,0,0,0,0,0,0,0,0,0,-1,1532,652,0,0
315,372,0,0,0,0,0,0,0,0,0,-1,1539,652,0,0
322,372,0,0,0,0,0,0,0,0,0,-1,1546,652,0,0
329,372,0,0,0,0,0,0,0,0,0,-1,1553,652,0,0
336,372,0,0,0,0,0,0,0,0,0,-1,1560,652,0,0
343,372,0,0,0,0,0,0,0,0,0,-1,1567,652,0,0
350,372,0,0,0,0,0,0,0,0,0,-1,1574,652,0,0
357,372,0,0,0,0,0,0,0,0,0,-1,1581,652,0,0
364,372,0,0,0,0,0,0,0,0,0,-1,1588,652,0,0
371,372,0,0,0,0,0,0,0,0,0,-1,1595,652,0,0
378,372,0,0,0,0,0,0,0,0,0,-1,1602,652,0,0
385,372,0,0,0,0,0,0,0,0,0,-1,1609,652,0,0
392,372,0,0,0,0,0,0,0,0,0,-1,1616,652,0,0
399,372,0,0,0,0,0,0,0,0,0,-1,1623,652,0,0
406,372,0,0,0,0,0,0,0,0,0,-1,1630,652,0,0
413,372,0,0,0,0,0,0,0,0,0,-1,1637,652,0,0
420,372,0,0,0,0,0,0,0,0,0,-1,1644,652,0,0
427,372,0,0,0,0,0,0,0,0,0,-1,1651,652,0,0
434,372,0,0,0,0,0,0,0,0,0,-1,1658,652,0,0
441,372,0,0,0,0,0,0,0,0,0,-1,1665,652,0,0
448,372,0,0,0,0,0,0,0,0,0,-1,1672,652,0,0
455,372,0,0,0,0,0,0,0,0,0,-1,1679,652,0,0
462,372,0,0,0,0,0,0,0,0,0,-1,1686,652,0,0
469,372,0,0,0,0,0,0,0,0,0,-1,1693,652,0,0
476,372,0,0,0,0,0,0,0,0,0,-1,1700,652,0,0
483,372,8.74182,1.53125,0,0,0,0,0,0,0,-1,1707,652,8.74186,-1.53126
490,372,9.78455,1.67096,0,0,0,0,0,0,0,-1,1714,652,9.7846,-1.67093
497,372,9.97644,1.46069,0,0,0,0,0,0,0,-1,1721,652,9.97647,-1.46071
504,372,10.1216,1.28375,0,0,0,0,0,0,0,-1,1728,652,10.1216,-1.28376
511,372,11.7367,-0.0272217,0,0,0,0,0,0,0,-1,1735,652,11.7367,0.0272326
518,372,12.0657,-0.0995483,0,0,0,0,0,0,0,-1,1742,652,12.0657,0.0995285
525,372,12.3947,-0.171814,0,0,0,0,0,0,0,-1,1749,652,12.3946,0.171824
532,372,9.36597,1.72034,0,0,0,0,0,0,0,-1,1756,652,9.36597,-1.72036
539,372,7.82886,-0.0865479,0,0,0,0,0,0,0,-1,1763,652,7.82882,0.0865771
546,372,10.953,-0.187195,0,0,0,0,0,0,0,-1,1770,652,10.953,0.187181
553,372,10.6967,-3.48956,0,0,0,0,0,0,0,-1,1777,652,10.6966,3.48953
560,372,10.9597,-2.84375,-0.00751227,0.00108254,-0.00204231,0.00154316,-0.00797288,-1.34897,0.00589733,0.0447739,1784,652,10.9597,2.84375
567,372,11.0518,-2.20599,-0.006908,-8.99911e-05,-0.00253187,0.000747378,-0.00774537,-1.25139,0.00542988,0.025528,1791,652,11.0517,2.206
574,372,11.14,-1.89319,-0.00611008,-0.000775809,-0.00266836,0.000329824,-0.00721572,-1.17798,0.0049241,0.0181496,1798,652,11.14,1.89317
581,372,11.1317,-1.66388,-0.00491721,-0.00103114,-0.0023854,0.000102431,-0.00605078,-1.12717,0.00406843,0.0161775,1805,652,11.1318,1.66386
588,372,11.1161,-1.37494,-0.00358684,-0.000905733,-0.00186113,4.7375e-05,-0.00453994,-1.09751,0.00304254,0.0154449,1812,652,11.116,1.37496
595,372,11.0919,-1.11096,-0.00223858,-0.000551035,-0.00122465,9.23784e-05,-0.00288199,-1.08705,0.00195285,0.0127285,1819,652,11.0919,1.11099
602,372,11.092,-0.867859,-0.0010549,-8.72309e-06,-0.000510021,0.000198765,-0.00126239,-1.18442,0.000915072,0.0132132,1826,652,11.0921,0.867829
609,372,11.0533,-0.585876,-0.000502448,0.000574133,3.00718e-06,0.000574141,-0.000502456,1.568,0.000622033,0.0142294,1833,652,11.0534,0.585887
616,372,11.0687,-0.301025,-0.000363305,0.000848728,0.000155057,0.00086825,-0.000382828,1.44555,0.000740211,0.0135286,1840,652,11.0687,0.301019
623,372,11.1031,-0.0114746,-0.000533476,0.00143022,0.000200236,0.00145043,-0.000553686,1.47021,0.00119506,0.0123458,1847,652,11.1032,0.0114779
630,372,11.1134,0.274231,-0.000986268,0.00178583,-2.78558e-06,0.00178584,-0.000986271,-1.56979,0.00162252,0.0164909,1854,652,11.1134,-0.274239
637,372,11.1381,0.511719,-0.00189838,0.00169877,-0.000583983,0.00179121,-0.00199081,-1.41382,0.00218456,0.0193764,1861,652,11.1381,-0.511707
644,372,11.1616,0.855286,-0.00360581,0.00155759,-0.00164202,0.00203553,-0.00408374,-1.28755,0.00359833,0.0224122,1868,652,11.1616,-0.855305
651,372,11.3551,1.24896,0,0,0,0,0,0,0,-1,1875,652,11.3552,-1.24896
658,372,10.8821,1.38947,0,0,0,0,0,0,0,-1,1882,652,10.8821,-1.38944
665,372,10.5061,2.09711,0,0,0,0,0,0,0,-1,1889,652,10.5061,-2.09708
672,372,9.34106,1.48444,0,0,0,0,0,0,0,-1,1896,652,9.34109,-1.48444
679,372,10.7308,2.32391,0,0,0,0,0,0,0,-1,1903,652,10.7309,-2.3239
686,372,11.6295,2.52997,0,0,0,0,0,0,0,-1,1910,652,11.6296,-2.52996
693,372,0,0,0,0,0,0,0,0,0,-1,1917,652,0,0
700,372,0,0,0,0,0,0,0,0,0,-1,1924,652,0,0
707,372,0,0,0,0,0,0,0,0,0,-1,1931,652,0,0
714,372,0,0,0,0,0,0,0,0,0,-1,1938,652,0,0
721,372,0,0,0,0,0,0,0,0,0,-1,1945,652,0,0
728,372,0,0,0,0,0,0,0,0,0,-1,1952,652,0,0
735,372,0,0,0,0,0,0,0,0,0,-1,1959,652,0,0
742,372,0,0,0,0,0,0,0,0,0,-1,1966,652,0,0
749,372,0,0,0,0,0,0,0,0,0,-1,1973,652,0,0
756,372,0,0,0,0,0,0,0,0,0,-1,1980,652,0,0
763,372,0,0,0,0,0,0,0,0,0,-1,1987,652,0,0
770,372,0,0,0,0,0,0,0,0,0,-1,1994,652,0,0
777,372,0,0,0,0,0,0,0,0,0,-1,2001,652,0,0
784,372,0,0,0,0,0,0,0,0,0,-1,2008,652,0,0
791,372,0,0,0,0,0,0,0,0,0,-1,2015,652,0,0
798,372,0,0,0,0,0,0,0,0,0,-1,2022,652,0,0
805,372,0,0,0,0,0,0,0,0,0,-1,2029,652,0,0
812,372,0,0,0,0,0,0,0,0,0,-1,2036,652,0,0
-700,365,0,0,0,0,0,0,0,0,0,-1,524,659,0,0
-693,365,0,0,0,0,0,0,0,0,0,-1,531,659,0,0
-686,365,0,0,0,0,0,0,0,0,0,-1,538,659,0,0
-679,365,0,0,0,0,0,0,0,0,0,-1,545,659,0,0
-672,365,0,0,0,0,0,0,0,0,0,-1,552,659,0,0
-665,365,0,0,0,0,0,0,0,0,0,-1,559,659,0,0
-658,365,0,0,0,0,0,0,0,0,0,-1,566,659,0,0
-651,365,0,0,0,0,0,0,0,0,0,-1,573,659,0,0
-644,365,0,0,0,0,0,0,0,0,0,-1,580,659,0,0
-637,365,0,0,0,0,0,0,0,0,0,-1,587,659,0,0
-630,365,0,0,0,0,0,0,0,0,0,-1,594,659,0,0
-623,365,0,0,0,0,0,0,0,0,0,-1,601,659,0,0
-616,365,0,0,0,0,0,0,0,0,0,-1,608,659,0,0
-609,365,0,0,0,0,0,0,0,0,0,-1,615,659,0,0
-602,365,0,0,0,0,0,0,0,0,0,-1,622,659,0,0
-595,365,0,0,0,0,0,0,0,0,0,-1,629,659,0,0
-588,365,0,0,0,0,0,0,0,0,0,-1,636,659,0,0
-581,365,0,0,0,0,0,0,0,0,0,-1,643,659,0,0
-574,365,-2.66309,-0.84613,-0.0954231,-0.125594,-0.00793287,-0.0934644,-0.127553,-0.24206,0.0762559,0.0479441,650,659,-2.6631,0.846132
-567,365,-3.58246,-1.52191,-0.078146,-0.119306,-0.00696915,-0.076998,-0.120454,-0.163259,0.0704371,0.0478854,657,659,-3.58248,1.52189
-560,365,-4.3587,-1.95514,-0.0634841,-0.10501,-0.00551018,-0.0627654,-0.105729,-0.129703,0.0613982,0.0483045,664,659,-4.35868,1.95516
-553,365,-4.51044,-2.44611,-0.0512007,-0.0880773,-0.00398172,-0.0507756,-0.0885023,-0.106341,0.0512816,0.0462496,671,659,-4.51041,2.44608
-546,365,-4.55188,-3.1192,-0.0401172,-0.0714198,-0.00247783,-0.0399223,-0.0716147,-0.0785059,0.0414377,0.0460197,678,659,-4.55189,3.11922
-539,365,-5.69336,0.0458984,0,0,0,0,0,0,0,-1,685,659,-5.69337,-0.0459058
-532,365,-5.24829,-0.493042,0,0,0,0,0,0,0,-1,692,659,-5.2483,0.493012
-525,365,-5.09113,-0.742981,0,0,0,0,0,0,0,-1,699,659,-5.09114,0.742972
-518,365,-5.16632,-1.03638,0,0,0,0,0,0,0,-1,706,659,-5.16633,1.0364
-511,365,-5.17059,-1.31866,-0.00505642,-0.0101829,0.001151,-0.00480985,-0.0104294,0.211029,0.00602747,0.0208842,713,659,-5.17056,1.31867
-504,365,-5.17279,-1.56085,-0.00238537,-0.00453085,0.00172253,-0.00142886,-0.00548737,0.506901,0.00328716,0.0123957,720,659,-5.17281,1.56086
-497,365,-5.1701,-1.82697,-0.000820451,-0.000315651,0.00165325,0.00110435,-0.00224046,0.861148,0.00196791,0.0122637,727,659,-5.17008,1.82694
-490,365,-5.16608,-2.07556,-0.000230206,0.00121311,0.000599382,0.00142956,-0.000446657,1.22425,0.0011317,0.0132366,734,659,-5.16608,2.07555
-483,365,-5.16241,-2.31671,0.000434637,0.000617127,-2.93506e-05,0.000621731,0.000430032,-1.41519,0.000367643,0.0128769,741,659,-5.1624,2.31673
-476,365,-5.15247,-2.56152,0.00166115,0.000368165,-0.000596263,0.00189413,0.000135179,-0.372502,0.00122019,0.0132129,748,659,-5.15248,2.56153
-469,365,-5.15436,-2.81714,0.00295431,0.000305495,-0.00130306,0.00348787,-0.000228062,-0.388637,0.00240487,0.0117251,755,659,-5.15433,2.81712
-462,365,-5.14581,-3.07507,0.00403883,0.000279813,-0.0018825,0.00481947,-0.00050082,-0.393096,0.00339226,0.0126085,762,659,-5.14581,3.07505
-455,365,-5.16156,-3.3197,0.00509404,0.000374175,-0.00237828,0.00608456,-0.000616339,-0.394635,0.00427665,0.0146462,769,659,-5.16158,3.31967
-448,365,-5.10815,-3.63678,0.00597964,0.000339575,-0.0026745,0.00704619,-0.000726979,-0.379459,0.00495759,0.021409,776,659,-5.10817,3.63679
-441,365,-4.95453,-4.03656,0,0,0,0,0,0,0,-1,783,659,-4.9545,4.03654
-434,365,-5.45056,-3.98041,0,0,0,0,0,0,0,-1,790,659,-5.45055,3.98042
-427,365,-5.05377,-4.74689,0,0,0,0,0,0,0,-1,797,659,-5.05376,4.7469
-420,365,-4.58813,-3.16376,0,0,0,0,0,0,0,-1,804,659,-4.58816,3.16374
-413,365,0.141357,0.672729,0,0,0,0,0,0,0,-1,811,659,0.141365,-0.672714
-406,365,-1.75067,-0.934448,0,0,0,0,0,0,0,-1,818,659,-1.7507,0.934424
-399,365,-4.10242,-1.25439,0,0,0,0,0,0,0,-1,825,659,-4.10244,1.25438
-392,365,-7.46545,-0.779724,0,0,0,0,0,0,0,-1,832,659,-7.46543,0.779744
-385,365,-6.27875,-0.887573,0,0,0,0,0,0,0,-1,839,659,-6.27874,0.887545
-378,365,-5.34503,-0.263306,0,0,0,0,0,0,0,-1,846,659,-5.34504,0.263275
-371,365,0,0,0,0,0,0,0,0,0,-1,853,659,0,0
-364,365,0,0,0,0,0,0,0,0,0,-1,860,659,0,0
-357,365,0,0,0,0,0,0,0,0,0,-1,867,659,0,0
-350,365,0,0,0,0,0,0,0,0,0,-1,874,659,0,0
-343,365,0,0,0,0,0,0,0,0,0,-1,881,659,0,0
-336,365,0,0,0,0,0,0,0,0,0,-1,888,659,0,0
-329,365,0,0,0,0,0,0,0,0,0,-1,895,659,0,0
-322,365,0,0,0,0,0,0,0,0,0,-1,902,659,0,0
-315,365,0,0,0,0,0,0,0,0,0,-1,909,659,0,0
-308,365,0,0,0,0,0,0,0,0,0,-1,916,659,0,0
-301,365,0,0,0,0,0,0,0,0,0,-1,923,659,0,0
-294,365,0,0,0,0,0,0,0,0,0,-1,930,659,0,0
-287,365,0,0,0,0,0,0,0,0,0,-1,937,659,0,0
-280,365,0,0,0,0,0,0,0,0,0,-1,944,659,0,0
-273,365,0,0,0,0,0,0,0,0,0,-1,951,659,0,0
-266,365,0,0,0,0,0,0,0,0,0,-1,958,659,0,0
-259,365,0,0,0,0,0,0,0,0,0,-1,965,659,0,0
-252,365,0,0,0,0,0,0,0,0,0,-1,972,659,0,0
-245,365,0,0,0,0,0,0,0,0,0,-1,979,659,0,0
-238,365,0,0,0,0,0,0,0,0,0,-1,986,659,0,0
-231,365,0,0,0,0,0,0,0,0,0,-1,993,659,0,0
-224,365,0,0,0,0,0,0,0,0,0,-1,1000,659,0,0
-217,365,0,0,0,0,0,0,0,0,0,-1,1007,659,0,0
-210,365,0,0,0,0,0,0,0,0,0,-1,1014,659,0,0
-203,365,0,0,0,0,0,0,0,0,0,-1,1021,659,0,0
-196,365,0,0,0,0,0,0,0,0,0,-1,1028,659,0,0
-189,365,0,0,0,0,0,0,0,0,0,-1,1035,659,0,0
-182,365,0,0,0,0,0,0,0,0,0,-1,1042,659,0,0
-175,365,0,0,0,0,0,0,0,0,0,-1,1049,659,0,0
-168,365,0,0,0,0,0,0,0,0,0,-1,1056,659,0,0
-161,365,0,0,0,0,0,0,0,0,0,-1,1063,659,0,0
-154,365,0,0,0,0,0,0,0,0,0,-1,1070,659,0,0
-147,365,0,0,0,0,0,0,0,0,0,-1,1077,659,0,0
-140,365,0,0,0,0,0,0,0,0,0,-1,1084,659,0,0
-133,365,0,0,0,0,0,0,0,0,0,-1,1091,659,0,0
-126,365,0,0,0,0,0,0,0,0,0,-1,1098,659,0,0
-119,365,0,0,0,0,0,0,0,0,0,-1,1105,659,0,0
-112,365,0,0,0,0,0,0,0,0,0,-1,1112,659,0,0
-105,365,0,0,0,0,0,0,0,0,0,-1,1119,659,0,0
-98,365,0,0,0,0,0,0,0,0,0,-1,1126,659,0,0
-91,365,0,0,0,0,0,0,0,0,0,-1,1133,659,0,0
-84,365,0,0,0,0,0,0,0,0,0,-1,1140,659,0,0
-77,365,0,0,0,0,0,0,0,0,0,-1,1147,659,0,0
-70,365,0,0,0,0,0,0,0,0,0,-1,1154,659,0,0
-63,365,0,0,0,0,0,0,0,0,0,-1,1161,659,0,0
-56,365,0,0,0,0,0,0,0,0,0,-1,1168,659,0,0
-49,365,0,0,0,0,0,0,0,0,0,-1,1175,659,0,0
-42,365,0,0,0,0,0,0,0,0,0,-1,1182,659,0,0
-35,365,0,0,0,0,0,0,0,0,0,-1,1189,659,0,0
-28,365,0,0,0,0,0,0,0,0,0,-1,1196,659,0,0
-21,365,0,0,0,0,0,0,0,0,0,-1,1203,659,0,0
-14,365,0,0,0,0,0,0,0,0,0,-1,1210,659,0,0
-7,365,0,0,0,0,0,0,0,0,0,-1,1217,659,0,0
0,365,0,0,0,0,0,0,0,0,0,-1,1224,659,0,0
7,365,0,0,0,0,0,0,0,0,0,-1,1231,659,0,0
14,365,0,0,0,0,0,0,0,0,0,-1,1238,659,0,0
21,365,0,0,0,0,0,0,0,0,0,-1,1245,659,0,0
28,365,0,0,0,0,0,0,0,0,0,-1,1252,659,0,0
35,365,0,0,0,0,0,0,0,0,0,-1,1259,659,0,0
42,365,0,0,0,0,0,0,0,0,0,-1,1266,659,0,0
49,365,0,0,0,0,0,0,0,0,0,-1,1273,659,0,0
56,365,0,0,0,0,0,0,0,0,0,-1,1280,659,0,0
63,365,0,0,0,0,0,0,0,0,0,-1,1287,659,0,0
70,365,0,0,0,0,0,0,0,0,0,-1,1294,659,0,0
77,365,0,0,0,0,0,0,0,0,0,-1,1301,659,0,0
84,365,0,0,0,0,0,0,0,0,0,-1,1308,659,0,0
91,365,0,0,0,0,0,0,0,0,0,-1,1315,659,0,0
98,365,0,0,0,0,0,0,0,0,0,-1,1322,659,0,0
105,365,0,0,0,0,0,0,0,0,0,-1,1329,659,0,0
112,365,0,0,0,0,0,0,0,0,0,-1,1336,659,0,0
119,365,0,0,0,0,0,0,0,0,0,-1,1343,659,0,0
126,365,0,0,0,0,0,0,0,0,0,-1,1350,659,0,0
133,365,0,0,0,0,0,0,0,0,0,-1,1357,659,0,0
140,365,0,0,0,0,0,0,0,0,0,-1,1364,659,0,0
147,365,0,0,0,0,0,0,0,0,0,-1,1371,659,0,0
154,365,0,0,0,0,0,0,0,0,0,-1,1378,659,0,0
161,365,0,0,0,0,0,0,0,0,0,-1,1385,659,0,0
168,365,0,0,0,0,0,0,0,0,0,-1,1392,659,0,0
175,365,0,0,0,0,0,0,0,0,0,-1,1399,659,0,0
182,365,0,0,0,0,0,0,0,0,0,-1,1406,659,0,0
189,365,0,0,0,0,0,0,0,0,0,-1,1413,659,0,0
196,365,0,0,0,0,0,0,0,0,0,-1,1420,659,0,0
203,365,0,0,0,0,0,0,0,0,0,-1,1427,659,0,0
210,365,0,0,0,0,0,0,0,0,0,-1,1434,659,0,0
217,365,0,0,0,0,0,0,0,0,0,-1,1441,659,0,0
224,365,0,0,0,0,0,0,0,0,0,-1,1448,659,0,0
231,365,0,0,0,0,0,0,0,0,0,-1,1455,659,0,0
238,365,0,0,0,0,0,0,0,0,0,-1,1462,659,0,0
245,365,0,0,0,0,0,0,0,0,0,-1,1469,659,0,0
252,365,0,0,0,0,0,0,0,0,0,-1,1476,659,0,0
259,365,0,0,0,0,0,0,0,0,0,-1,1483,659,0,0
266,365,0,0,0,0,0,0,0,0,0,-1,1490,659,0,0
273,365,0,0,0,0,0,0,0,0,0,-1,1497,659,0,0
280,365,0,0,0,0,0,0,0,0,0,-1,1504,659,0,0
287,365,0,0,0,0,0,0,0,0,0,-1,1511,659,0,0
294,365,0,0,0,0,0,0,0,0,0,-1,1518,659,0,0
301,365,0,0,0,0,0,0,0,0,0,-1,1525,659,0,0
308,365,0,0,0,0,0,0,0,0,0,-1,1532,659,0,0
315,365,0,0,0,0,0,0,0,0,0,-1,1539,659,0,0
322,365,0,0,0,0,0,0,0,0,0,-1,1546,659,0,0
329,365,0,0,0,0,0,0,0,0,0,-1,1553,659,0,0
336,365,0,0,0,0,0,0,0,0,0,-1,1560,659,0,0
343,365,0,0,0,0,0,0,0,0,0,-1,1567,659,0,0
350,365,0,0,0,0,0,0,0,0,0,-1,1574,659,0,0
357,365,0,0,0,0,0,0,0,0,0,-1,1581,659,0,0
364,365,0,0,0,0,0,0,0,0,0,-1,1588,659,0,0
371,365,0,0,0,0,0,0,0,0,0,-1,1595,659,0,0
378,365,0,0,0,0,0,0,0,0,0,-1,1602,659,0,0
385,365,0,0,0,0,0,0,0,0,0,-1,1609,659,0,0
392,365,0,0,0,0,0,0,0,0,0,-1,1616,659,0,0
399,365,0,0,0,0,0,0,0,0,0,-1,1623,659,0,0
406,365,0,0,0,0,0,0,0,0,0,-1,1630,659,0,0
413,365,0,0,0,0,0,0,0,0,0,-1,1637,659,0,0
420,365,0,0,0,0,0,0,0,0,0,-1,1644,659,0,0
427,365,0,0,0,0,0,0,0,0,0,-1,1651,659,0,0
434,365,0,0,0,0,0,0,0,0,0,-1,1658,659,0,0
441,365,0,0,0,0,0,0,0,0,0,-1,1665,659,0,0
448,365,0,0,0,0,0,0,0,0,0,-1,1672,659,0,0
455,365,0,0,0,0,0,0,0,0,0,-1,1679,659,0,0
462,365,0,0,0,0,0,0,0,0,0,-1,1686,659,0,0
469,365,0,0,0,0,0,0,0,0,0,-1,1693,659,0,0
476,365,0,0,0,0,0,0,0,0,0,-1,1700,659,0,0
483,365,0,0,0,0,0,0,0,0,0,-1,1707,659,0,0
490,365,8.39551,0.471252,0,0,0,0,0,0,0,-1,1714,659,8.39551,-0.471241
497,365,9.89233,1.35394,0,0,0,0,0,0,0,-1,1721,659,9.89237,-1.35396
504,365,10.1414,1.18005,0,0,0,0,0,0,0,-1,1728,659,10.1413,-1.18004
511,365,10.5151,0.993896,0,0,0,0,0,0,0,-1,1735,659,10.5152,-0.993894
518,365,11.2029,0.398132,0,0,0,0,0,0,0,-1,1742,659,11.2029,-0.398136
525,365,15.5748,3.85303,0,0,0,0,0,0,0,-1,1749,659,15.5748,-3.85303
532,365,11.2446,1.00629,0,0,0,0,0,0,0,-1,1756,659,11.2446,-1.00631
539,365,12.6301,1.03204,0,0,0,0,0,0,0,-1,1763,659,12.6302,-1.03204
546,365,11.647,0.84198,0,0,0,0,0,0,0,-1,1770,659,11.6469,-0.841955
553,365,12.028,-0.558899,0,0,0,0,0,0,0,-1,1777,659,12.028,0.558873
560,365,11.3646,-3.4248,0,0,0,0,0,0,0,-1,1784,659,11.3646,3.42479
567,365,11.4825,-2.37482,0,0,0,0,0,0,0,-1,1791,659,11.4825,2.37484
574,365,11.5808,-1.97687,-0.00863051,-0.001811,-0.00401464,4.64781e-05,-0.010488,-1.13745,0.00700753,0.044121,1798,659,11.5808,1.97685
581,365,11.3947,-1.716,-0.00692292,-0.00200763,-0.00352699,-0.000166475,-0.00876408,-1.08969,0.00578802,0.0213327,1805,659,11.3947,1.71601
588,365,11.3501,-1.40375,-0.00511506,-0.00175796,-0.0027824,-0.000187011,-0.00668601,-1.05681,0.00439633,0.0124062,1812,659,11.3501,1.40373
595,365,11.3588,-1.09509,-0.00344737,-0.001303,-0.00198468,-0.000119406,-0.00463097,-1.03305,0.00304829,0.0118689,1819,659,11.3588,1.09509
602,365,11.3618,-0.837036,-0.00199945,-0.000690589,-0.00115768,-1.51694e-05,-0.00267487,-1.04265,0.00177821,0.0135281,1826,659,11.3618,0.837041
609,365,11.3204,-0.551208,-0.00118273,-3.46952e-05,-0.00052783,0.000171096,-0.00138852,-1.19904,0.000987662,0.0148582,1833,659,11.3205,0.551228
616,365,11.3496,-0.266113,-0.000889692,0.000179994,-0.000362408,0.000291213,-0.00100091,-1.27303,0.000782619,0.0159892,1840,659,11.3496,0.266117
623,365,11.3833,-0.0120239,-0.000973331,0.000713911,-0.000323969,0.000773978,-0.0010334,-1.38747,0.00104707,0.0114415,1847,659,11.3833,0.0120516
630,365,11.3612,0.25769,-0.00127506,0.000980083,-0.00051556,0.00109236,-0.00138734,-1.35637,0.00143503,0.0151818,1854,659,11.3612,-0.257688
637,365,11.3654,0.488037,-0.00173152,0.000981972,-0.00094809,0.00128041,-0.00202996,-1.26584,0.0019275,0.0202984,1861,659,11.3653,-0.488053
644,365,11.3834,0.764832,-0.0028591,0.000702227,-0.00186621,0.001501,-0.00365787,-1.16637,0.00306402,0.0149783,1868,659,11.3834,-0.764852
651,365,11.502,1.10242,-0.00392734,0.000341096,-0.00300571,0.00189323,-0.00547948,-1.09412,0.00442131,0.0293146,1875,659,11.5019,-1.10243
658,365,10.9362,1.10663,-0.00471874,-0.000230557,-0.00429884,0.00237468,-0.00732398,-1.02595,0.00583749,0.046755,1882,659,10.9361,-1.10663
665,365,10.4799,1.31177,0,0,0,0,0,0,0,-1,1889,659,10.4799,-1.31178
672,365,10.0579,2.15088,0,0,0,0,0,0,0,-1,1896,659,10.0579,-2.15088
679,365,10.9718,2.19208,0,0,0,0,0,0,0,-1,1903,659,10.9718,-2.19211
686,365,12.2134,2.17108,0,0,0,0,0,0,0,-1,1910,659,12.2134,-2.17109
693,365,13.7141,1.98279,0,0,0,0,0,0,0,-1,1917,659,13.7141,-1.98278
700,365,0,0,0,0,0,0,0,0,0,-1,1924,659,0,0
707,365,0,0,0,0,0,0,0,0,0,-1,1931,659,0,0
714,365,0,0,0,0,0,0,0,0,0,-1,1938,659,0,0
721,365,0,0,0,0,0,0,0,0,0,-1,1945,659,0,0
728,365,0,0,0,0,0,0,0,0,0,-1,1952,659,0,0
735,365,0,0,0,0,0,0,0,0,0,-1,1959,659,0,0
742,365,0,0,0,0,0,0,0,0,0,-1,1966,659,0,0
749,365,0,0,0,0,0,0,0,0,0,-1,1973,659,0,0
756,365,0,0,0,0,0,0,0,0,0,-1,1980,659,0,0
763,365,0,0,0,0,0,0,0,0,0,-1,1987,659,0,0
770,365,0,0,0,0,0,0,0,0,0,-1,1994,659,0,0
777,365,0,0,0,0,0,0,0,0,0,-1,2001,659,0,0
784,365,0,0,0,0,0,0,0,0,0,-1,2008,659,0,0
791,365,0,0,0,0,0,0,0,0,0,-1,2015,659,0,0
798,365,0,0,0,0,0,0,0,0,0,-1,2022,659,0,0
805,365,0,0,0,0,0,0,0,0,0,-1,2029,659,0,0
812,365,0,0,0,0,0,0,0,0,0,-1,2036,659,0,0
-700,358,0,0,0,0,0,0,0,0,0,-1,524,666,0,0
-693,358,0,0,0,0,0,0,0,0,0,-1,531,666,0,0
-686,358,0,0,0,0,0,0,0,0,0,-1,538,666,0,0
-679,358,0,0,0,0,0,0,0,0,0,-1,545,666,0,0
-672,358,0,0,0,0,0,0,0,0,0,-1,552,666,0,0
-665,358,0,0,0,0,0,0,0,0,0,-1,559,666,0,0
-658,358,0,0,0,0,0,0,0,0,0,-1,566,666,0,0
-651,358,0,0,0,0,0,0,0,0,0,-1,573,666,0,0
-644,358,0,0,0,0,0,0,0,0,0,-1,580,666,0,0
-637,358,0,0,0,0,0,0,0,0,0,-1,587,666,0,0
-630,358,0,0,0,0,0,0,0,0,0,-1,594,666,0,0
-623,358,0,0,0,0,0,0,0,0,0,-1,601,666,0,0
-616,358,0,0,0,0,0,0,0,0,0,-1,608,666,0,0
-609,358,0,0,0,0,0,0,0,0,0,-1,615,666,0,0
-602,358,0,0,0,0,0,0,0,0,0,-1,622,666,0,0
-595,358,0,0,0,0,0,0,0,0,0,-1,629,666,0,0
-588,358,0,0,0,0,0,0,0,0,0,-1,636,666,0,0
-581,358,-3.12964,0.277771,0,0,0,0,0,0,0,-1,643,666,-3.12965,-0.277791
-574,358,-3.58069,-0.14679,-0.0799831,-0.103415,-0.00614635,-0.0784687,-0.104929,-0.241572,0.0630127,0.0463186,650,666,-3.58067,0.146818
-567,358,-4.03613,-0.519653,-0.0636022,-0.0986759,-0.0057538,-0.0626824,-0.0995957,-0.158515,0.0581396,0.0477797,657,666,-4.03615,0.519673
-560,358,-4.5,-0.96814,-0.0502601,-0.0872389,-0.00463247,-0.0496886,-0.0878104,-0.122747,0.0508438,0.0465506,664,666,-4.49999,0.968149
-553,358,-5.13574,-1.46173,-0.0394109,-0.0732507,-0.00340354,-0.039072,-0.0735896,-0.0992535,0.0425141,0.0452958,671,666,-5.13574,1.46173
-546,358,-5.91486,-1.55084,-0.030191,-0.0590941,-0.00218554,-0.0300267,-0.0592584,-0.0750477,0.0342139,0.0475767,678,666,-5.91487,1.55082
-539,358,-5.76331,-0.00909424,-0.0223849,-0.0456246,-0.00114555,-0.0223286,-0.0456809,-0.0491341,0.0263761,0.0479266,685,666,-5.7633,0.00909049
-532,358,-5.6225,-0.49353,-0.0160412,-0.0336855,-0.000325432,-0.0160352,-0.0336915,-0.0184357,0.0194593,0.0418628,692,666,-5.62247,0.493531
-525,358,-5.39032,-0.936218,-0.0110727,-0.023605,0.000277492,-0.0110666,-0.0236112,0.0221277,0.0136408,0.031211,699,666,-5.39035,0.936196
-518,358,-5.32452,-1.01569,-0.00683257,-0.0153905,0.000450434,-0.00680893,-0.0154142,0.0524401,0.0089195,0.0263223,706,666,-5.32455,1.01568
-511,358,-5.41095,-1.30334,-0.00309038,-0.008373,0.000843015,-0.00295911,-0.00850427,0.154473,0.00498504,0.0153208,713,666,-5.41098,1.30333
-504,358,-5.4245,-1.55164,-0.00112907,-0.0038444,0.00128259,-0.000619038,-0.00435443,0.378486,0.00272019,0.0115874,720,666,-5.4245,1.55161
-497,358,-5.41339,-1.82477,8.31259e-05,-0.000425847,0.00111005,0.000967491,-0.00131021,0.672717,0.00131999,0.0107638,727,666,-5.41336,1.82477
-490,358,-5.40259,-2.08582,0.000657987,0.0008455,0.000253534,0.00102206,0.000481429,0.962499,0.000590415,0.0100365,734,666,-5.40259,2.08583
-483,358,-5.41113,-2.31653,0.00148893,0.000308737,-0.000242131,0.00153667,0.000260992,-0.194688,0.000949485,0.00966019,741,666,-5.41116,2.31651
-476,358,-5.39374,-2.54803,0.0032021,-2.86303e-05,-0.000778178,0.00337976,-0.000206298,-0.224465,0.002325,0.0108224,748,666,-5.39373,2.54806
-469,358,-5.40741,-2.80029,0.00507155,-0.000206025,-0.00139633,0.00541821,-0.00055269,-0.243349,0.00380976,0.012359,755,666,-5.40741,2.8003
-462,358,-5.40765,-3.05853,0.00706115,-0.00045125,-0.00186212,0.00749739,-0.000887486,-0.230119,0.00531882,0.015308,762,666,-5.40768,3.05855
-455,358,-5.35449,-3.33441,0.00940049,-0.000689449,-0.00224657,0.0098781,-0.00116705,-0.209473,0.00700689,0.0219495,769,666,-5.35451,3.33443
-448,358,-5.26752,-3.67444,0,0,0,0,0,0,0,-1,776,666,-5.26754,3.67446
-441,358,-5.56293,-3.98041,0,0,0,0,0,0,0,-1,783,666,-5.56291,3.98043
-434,358,-5.21558,-4.43127,0,0,0,0,0,0,0,-1,790,666,-5.21559,4.43125
-427,358,-3.56189,-3.15729,0,0,0,0,0,0,0,-1,797,666,-3.56192,3.15729
-420,358,0.200195,1.08234,0,0,0,0,0,0,0,-1,804,666,0.200174,-1.08231
-413,358,0.0325317,0.161072,0,0,0,0,0,0,0,-1,811,666,0.0325501,-0.161098
-406,358,-3.85846,0.753113,0,0,0,0,0,0,0,-1,818,666,-3.85846,-0.753129
-399,358,-1.31213,0.190735,0,0,0,0,0,0,0,-1,825,666,-1.31215,-0.190763
-392,358,-3.73914,-0.832214,0,0,0,0,0,0,0,-1,832,666,-3.73915,0.832202
-385,358,-5.95178,-1.69141,0,0,0,0,0,0,0,-1,839,666,-5.9518,1.69143
-378,358,0,0,0,0,0,0,0,0,0,-1,846,666,0,0
-371,358,0,0,0,0,0,0,0,0,0,-1,853,666,0,0
-364,358,0,0,0,0,0,0,0,0,0,-1,860,666,0,0
-357,358,0,0,0,0,0,0,0,0,0,-1,867,666,0,0
-350,358,0,0,0,0,0,0,0,0,0,-1,874,666,0,0
-343,358,0,0,0,0,0,0,0,0,0,-1,881,666,0,0
-336,358,0,0,0,0,0,0,0,0,0,-1,888,666,0,0
-329,358,0,0,0,0,0,0,0,0,0,-1,895,666,0,0
-322,358,0,0,0,0,0,0,0,0,0,-1,902,666,0,0
-315,358,0,0,0,0,0,0,0,0,0,-1,909,666,0,0
-308,358,0,0,0,0,0,0,0,0,0,-1,916,666,0,0
-301,358,0,0,0,0,0,0,0,0,0,-1,923,666,0,0
-294,358,0,0,0,0,0,0,0,0,0,-1,930,666,0,0
-287,358,0,0,0,0,0,0,0,0,0,-1,937,666,0,0
-280,358,0,0,0,0,0,0,0,0,0,-1,944,666,0,0
-273,358,0,0,0,0,0,0,0,0,0,-1,951,666,0,0
-266,358,0,0,0,0,0,0,0,0,0,-1,958,666,0,0
-259,358,0,0,0,0,0,0,0,0,0,-1,965,666,0,0
-252,358,0,0,0,0,0,0,0,0,0,-1,972,666,0,0
-245,358,0,0,0,0,0,0,0,0,0,-1,979,666,0,0
-238,358,0,0,0,0,0,0,0,0,0,-1,986,666,0,0
-231,358,0,0,0,0,0,0,0,0,0,-1,993,666,0,0
-224,358,0,0,0,0,0,0,0,0,0,-1,1000,666,0,0
-217,358,0,0,0,0,0,0,0,0,0,-1,1007,666,0,0
-210,358,0,0,0,0,0,0,0,0,0,-1,1014,666,0,0
-203,358,0,0,0,0,0,0,0,0,0,-1,1021,666,0,0
-196,358,0,0,0,0,0,0,0,0,0,-1,1028,666,0,0
-189,358,0,0,0,0,0,0,0,0,0,-1,1035,666,0,0
-182,358,0,0,0,0,0,0,0,0,0,-1,1042,666,0,0
-175,358,0,0,0,0,0,0,0,0,0,-1,1049,666,0,0
-168,358,0,0,0,0,0,0,0,0,0,-1,1056,666,0,0
-161,358,0,0,0,0,0,0,0,0,0,-1,1063,666,0,0
-154,358,0,0,0,0,0,0,0,0,0,-1,1070,666,0,0
-147,358,0,0,0,0,0,0,0,0,0,-1,1077,666,0,0
-140,358,0,0,0,0,0,0,0,0,0,-1,1084,666,0,0
-133,358,0,0,0,0,0,0,0,0,0,-1,1091,666,0,0
-126,358,0,0,0,0,0,0,0,0,0,-1,1098,666,0,0
-119,358,0,0,0,0,0,0,0,0,0,-1,1105,666,0,0
-112,358,0,0,0,0,0,0,0,0,0,-1,1112,666,0,0
-105,358,0,0,0,0,0,0,0,0,0,-1,1119,666,0,0
-98,358,0,0,0,0,0,0,0,0,0,-1,1126,666,0,0
-91,358,0,0,0,0,0,0,0,0,0,-1,1133,666,0,0
-84,358,0,0,0,0,0,0,0,0,0,-1,1140,666,0,0
-77,358,0,0,0,0,0,0,0,0,0,-1,1147,666,0,0
-70,358,0,0,0,0,0,0,0,0,0,-1,1154,666,0,0
-63,358,0,0,0,0,0,0,0,0,0,-1,1161,666,0,0
-56,358,0,0,0,0,0,0,0,0,0,-1,1168,666,0,0
-49,358,0,0,0,0,0,0,0,0,0,-1,1175,666,0,0
-42,358,0,0,0,0,0,0,0,0,0,-1,1182,666,0,0
-35,358,0,0,0,0,0,0,0,0,0,-1,1189,666,0,0
-28,358,0,0,0,0,0,0,0,0,0,-1,1196,666,0,0
-21,358,0,0,0,0,0,0,0,0,0,-1,1203,666,0,0
-14,358,0,0,0,0,0,0,0,0,0,-1,1210,666,0,0
-7,358,0,0,0,0,0,0,0,0,0,-1,1217,666,0,0
0,358,0,0,0,0,0,0,0,0,0,-1,1224,666,0,0
7,358,0,0,0,0,0,0,0,0,0,-1,1231,666,0,0
14,358,0,0,0,0,0,0,0,0,0,-1,1238,666,0,0
21,358,0,0,0,0,0,0,0,0,0,-1,1245,666,0,0
28,358,0,0,0,0,0,0,0,0,0,-1,1252,666,0,0
35,358,0,0,0,0,0,0,0,0,0,-1,1259,666,0,0
42,358,0,0,0,0,0,0,0,0,0,-1,1266,666,0,0
49,358,0,0,0,0,0,0,0,0,0,-1,1273,666,0,0
56,358,0,0,0,0,0,0,0,0,0,-1,1280,666,0,0
63,358,0,0,0,0,0,0,0,0,0,-1,1287,666,0,0
70,358,0,0,0,0,0,0,0,0,0,-1,1294,666,0,0
77,358,0,0,0,0,0,0,0,0,0,-1,1301,666,0,0
84,358,0,0,0,0,0,0,0,0,0,-1,1308,666,0,0
91,358,0,0,0,0,0,0,0,0,0,-1,1315,666,0,0
98,358,0,0,0,0,0,0,0,0,0,-1,1322,666,0,0
105,358,0,0,0,0,0,0,0,0,0,-1,1329,666,0,0
112,358,0,0,0,0,0,0,0,0,0,-1,1336,666,0,0
119,358,0,0,0,0,0,0,0,0,0,-1,1343,666,0,0
126,358,0,0,0,0,0,0,0,0,0,-1,1350,666,0,0
133,358,0,0,0,0,0,0,0,0,0,-1,1357,666,0,0
140,358,0,0,0,0,0,0,0,0,0,-1,1364,666,0,0
147,358,0,0,0,0,0,0,0,0,0,-1,1371,666,0,0
154,358,0,0,0,0,0,0,0,0,0,-1,1378,666,0,0
161,358,0,0,0,0,0,0,0,0,0,-1,1385,666,0,0
168,358,0,0,0,0,0,0,0,0,0,-1,1392,666,0,0
175,358,0,0,0,0,0,0,0,0,0,-1,1399,666,0,0
182,358,0,0,0,0,0,0,0,0,0,-1,1406,666,0,0
189,358,0,0,0,0,0,0,0,0,0,-1,1413,666,0,0
196,358,0,0,0,0,0,0,0,0,0,-1,1420,666,0,0
203,358,0,0,0,0,0,0,0,0,0,-1,1427,666,0,0
210,358,0,0,0,0,0,0,0,0,0,-1,1434,666,0,0
217,358,0,0,0,0,0,0,0,0,0,-1,1441,666,0,0
224,358,0,0,0,0,0,0,0,0,0,-1,1448,666,0,0
231,358,0,0,0,0,0,0,0,0,0,-1,1455,666,0,0
238,358,0,0,0,0,0,0,0,0,0,-1,1462,666,0,0
245,358,0,0,0,0,0,0,0,0,0,-1,1469,666,0,0
252,358,0,0,0,0,0,0,0,0,0,-1,1476,666,0,0
259,358,0,0,0,0,0,0,0,0,0,-1,1483,666,0,0
266,358,0,0,0,0,0,0,0,0,0,-1,1490,666,0,0
273,358,0,0,0,0,0,0,0,0,0,-1,1497,666,0,0
280,358,0,0,0,0,0,0,0,0,0,-1,1504,666,0,0
287,358,0,0,0,0,0,0,0,0,0,-1,1511,666,0,0
294,358,0,0,0,0,0,0,0,0,0,-1,1518,666,0,0
301,358,0,0,0,0,0,0,0,0,0,-1,1525,666,0,0
308,358,0,0,0,0,0,0,0,0,0,-1,1532,666,0,0
315,358,0,0,0,0,0,0,0,0,0,-1,1539,666,0,0
322,358,0,0,0,0,0,0,0,0,0,-1,1546,666,0,0
329,358,0,0,0,0,0,0,0,0,0,-1,1553,666,0,0
336,358,0,0,0,0,0,0,0,0,0,-1,1560,666,0,0
343,358,0,0,0,0,0,0,0,0,0,-1,1567,666,0,0
350,358,0,0,0,0,0,0,0,0,0,-1,1574,666,0,0
357,358,0,0,0,0,0,0,0,0,0,-1,1581,666,0,0
364,358,0,0,0,0,0,0,0,0,0,-1,1588,666,0,0
371,358,0,0,0,0,0,0,0,0,0,-1,1595,666,0,0
378,358,0,0,0,0,0,0,0,0,0,-1,1602,666,0,0
385,358,0,0,0,0,0,0,0,0,0,-1,1609,666,0,0
392,358,0,0,0,0,0,0,0,0,0,-1,1616,666,0,0
399,358,0,0,0,0,0,0,0,0,0,-1,1623,666,0,0
406,358,0,0,0,0,0,0,0,0,0,-1,1630,666,0,0
413,358,0,0,0,0,0,0,0,0,0,-1,1637,666,0,0
420,358,0,0,0,0,0,0,0,0,0,-1,1644,666,0,0
427,358,0,0,0,0,0,0,0,0,0,-1,1651,666,0,0
434,358,0,0,0,0,0,0,0,0,0,-1,1658,666,0,0
441,358,0,0,0,0,0,0,0,0,0,-1,1665,666,0,0
448,358,0,0,0,0,0,0,0,0,0,-1,1672,666,0,0
455,358,0,0,0,0,0,0,0,0,0,-1,1679,666,0,0
462,358,0,0,0,0,0,0,0,0,0,-1,1686,666,0,0
469,358,0,0,0,0,0,0,0,0,0,-1,1693,666,0,0
476,358,0,0,0,0,0,0,0,0,0,-1,1700,666,0,0
483,358,0,0,0,0,0,0,0,0,0,-1,1707,666,0,0
490,358,0,0,0,0,0,0,0,0,0,-1,1714,666,0,0
497,358,8.57239,1.1322,0,0,0,0,0,0,0,-1,1721,666,8.57234,-1.13219
504,358,10.5972,0.832947,0,0,0,0,0,0,0,-1,1728,666,10.5972,-0.832968
511,358,10.6873,0.868469,0,0,0,0,0,0,0,-1,1735,666,10.6872,-0.868484
518,358,16.5884,2.34894,0,0,0,0,0,0,0,-1,1742,666,16.5884,-2.34894
525,358,15.7626,3.65344,0,0,0,0,0,0,0,-1,1749,666,15.7626,-3.65342
532,358,14.9368,4.95789,0,0,0,0,0,0,0,-1,1756,666,14.9367,-4.9579
539,358,15.1597,3.42694,0,0,0,0,0,0,0,-1,1763,666,15.1597,-3.42692
546,358,12.3792,1.53558,0,0,0,0,0,0,0,-1,1770,666,12.3792,-1.5356
553,358,11.6584,1.26172,0,0,0,0,0,0,0,-1,1777,666,11.6585,-1.26175
560,358,10.8234,1.43042,0,0,0,0,0,0,0,-1,1784,666,10.8233,-1.43041
567,358,10.1333,-0.955139,0,0,0,0,0,0,0,-1,1791,666,10.1333,0.955132
574,358,12.0669,-2.16913,0,0,0,0,0,0,0,-1,1798,666,12.0668,2.16914
581,358,11.7878,-1.63489,-0.00913491,-0.00322059,-0.00480368,-0.000536817,-0.0118187,-1.0613,0.00770642,0.0330054,1805,666,11.7878,1.6349
588,358,11.5833,-1.41077,-0.00675897,-0.00274479,-0.00374207,-0.000505526,-0.00899824,-1.03155,0.00583762,0.0166393,1812,666,11.5832,1.41079
595,358,11.6324,-1.09418,-0.00470345,-0.00211459,-0.00271446,-0.000401723,-0.00641632,-1.00788,0.00415012,0.0115796,1819,666,11.6324,1.09416
602,358,11.6311,-0.811829,-0.00291584,-0.00139013,-0.0017436,-0.000249809,-0.00405616,-0.991611,0.00262481,0.0125642,1826,666,11.6311,0.811846
609,358,11.5951,-0.56134,-0.00173581,-0.0006212,-0.000955672,-7.2206e-05,-0.00228481,-1.04937,0.00149972,0.0167079,1833,666,11.5951,0.56134
616,358,11.6008,-0.272095,-0.0012248,-0.000397905,-0.000720662,1.94872e-05,-0.00164219,-1.04583,0.00110134,0.015892,1840,666,11.6009,0.2721
623,358,11.6429,0.00158691,-0.00118452,0.000114159,-0.000653793,0.000386279,-0.00145664,-1.17639,0.00112223,0.0139663,1847,666,11.6429,-0.00159004
630,358,11.629,0.2453,-0.00132064,0.000331344,-0.000815339,0.000665972,-0.00165527,-1.18134,0.00138015,0.0171559,1854,666,11.6291,-0.245329
637,358,11.6053,0.483154,-0.00139639,0.000437749,-0.00108913,0.000944481,-0.00190312,-1.13532,0.00167483,0.0239656,1861,666,11.6054,-0.483168
644,358,11.6348,0.736511,-0.00212097,8.36684e-05,-0.00185483,0.00113901,-0.00317631,-1.05351,0.00258235,0.018985,1868,666,11.6347,-0.736525
651,358,11.7095,1.08801,-0.0027468,-0.000357867,-0.00280796,0.00149912,-0.00460379,-0.986497,0.00367235,0.0203695,1875,666,11.7095,-1.08801
658,358,11.4343,1.26538,-0.00292225,-0.000970962,-0.00380187,0.00197845,-0.00587166,-0.910999,0.0047144,0.0367085,1882,666,11.4343,-1.26536
665,358,10.9801,1.34393,-0.00219445,-0.00172902,-0.00467947,0.00272351,-0.00664698,-0.810244,0.00556589,0.0457069,1889,666,10.9801,-1.34393
672,358,10.6792,1.53442,0,0,0,0,0,0,0,-1,1896,666,10.6792,-1.53442
679,358,11.2441,2.52136,0,0,0,0,0,0,0,-1,1903,666,11.2441,-2.52135
686,358,11.9557,2.2002,0,0,0,0,0,0,0,-1,1910,666,11.9557,-2.20021
693,358,13.188,2.52203,0,0,0,0,0,0,0,-1,1917,666,13.188,-2.52202
700,358,0,0,0,0,0,0,0,0,0,-1,1924,666,0,0
707,358,0,0,0,0,0,0,0,0,0,-1,1931,666,0,0
714,358,0,0,0,0,0,0,0,0,0,-1,1938,666,0,0
721,358,0,0,0,0,0,0,0,0,0,-1,1945,666,0,0
728,358,0,0,0,0,0,0,0,0,0,-1,1952,666,0,0
735,358,0,0,0,0,0,0,0,0,0,-1,1959,666,0,0
742,358,0,0,0,0,0,0,0,0,0,-1,1966,666,0,0
749,358,0,0,0,0,0,0,0,0,0,-1,1973,666,0,0
756,358,0,0,0,0,0,0,0,0,0,-1,1980,666,0,0
763,358,0,0,0,0,0,0,0,0,0,-1,1987,666,0,0
770,358,0,0,0,0,0,0,0,0,0,-1,1994,666,0,0
777,358,0,0,0,0,0,0,0,0,0,-1,2001,666,0,0
784,358,0,0,0,0,0,0,0,0,0,-1,2008,666,0,0
791,358,0,0,0,0,0,0,0,0,0,-1,2015,666,0,0
798,358,0,0,0,0,0,0,0,0,0,-1,2022,666,0,0
805,358,0,0,0,0,0,0,0,0,0,-1,2029,666,0,0
812,358,0,0,0,0,0,0,0,0,0,-1,2036,666,0,0
-700,351,0,0,0,0,0,0,0,0,0,-1,524,673,0,0
-693,351,0,0,0,0,0,0,0,0,0,-1,531,673,0,0
-686,351,0,0,0,0,0,0,0,0,0,-1,538,673,0,0
-679,351,0,0,0,0,0,0,0,0,0,-1,545,673,0,0
-672,351,0,0,0,0,0,0,0,0,0,-1,552,673,0,0
-665,351,0,0,0,0,0,0,0,0,0,-1,559,673,0,0
-658,351,0,0,0,0,0,0,0,0,0,-1,566,673,0,0
-651,351,0,0,0,0,0,0,0,0,0,-1,573,673,0,0
-644,351,0,0,0,0,0,0,0,0,0,-1,580,673,0,0
-637,351,0,0,0,0,0,0,0,0,0,-1,587,673,0,0
-630,351,0,0,0,0,0,0,0,0,0,-1,594,673,0,0
-623,351,0,0,0,0,0,0,0,0,0,-1,601,673,0,0
-616,351,0,0,0,0,0,0,0,0,0,-1,608,673,0,0
-609,351,0,0,0,0,0,0,0,0,0,-1,615,673,0,0
-602,351,0,0,0,0,0,0,0,0,0,-1,622,673,0,0
-595,351,0,0,0,0,0,0,0,0,0,-1,629,673,0,0
-588,351,0,0,0,0,0,0,0,0,0,-1,636,673,0,0
-581,351,-4.08875,0.467529,0,0,0,0,0,0,0,-1,643,673,-4.08874,-0.467548
-574,351,-4.07184,0.444153,0,0,0,0,0,0,0,-1,650,673,-4.07181,-0.444158
-567,351,-4.36963,-0.291565,0,0,0,0,0,0,0,-1,657,673,-4.36964,0.291565
-560,351,-6.30347,1.41028,0,0,0,0,0,0,0,-1,664,673,-6.30344,-1.41026
-553,351,-5.74854,-0.492004,-0.0300447,-0.0592925,-0.0024173,-0.0298462,-0.059491,-0.0819081,0.0343472,0.0449614,671,673,-5.74855,0.491997
-546,351,-6.09375,-0.691528,-0.0223503,-0.0474963,-0.00162897,-0.0222453,-0.0476014,-0.0644219,0.0275022,0.0434689,678,673,-6.09374,0.691529
-539,351,-6.06042,-0.379578,-0.016129,-0.0364412,-0.000922571,-0.0160872,-0.036483,-0.0452953,0.0211124,0.0431177,685,673,-6.06045,0.379569
-532,351,-5.57361,-0.536987,-0.0112261,-0.0267029,-0.000360018,-0.0112177,-0.0267113,-0.023245,0.0154875,0.0317821,692,673,-5.57362,0.536969
-525,351,-5.62061,-0.87738,-0.00745716,-0.0185054,3.96454e-05,-0.00745702,-0.0185055,0.00358832,0.010751,0.0218186,699,673,-5.62058,0.877378
-518,351,-5.67493,-1.04541,-0.00423335,-0.0118384,0.00010669,-0.00423186,-0.0118399,0.0140252,0.00692776,0.0126968,706,673,-5.67492,1.04542
-511,351,-5.66638,-1.28815,-0.00149693,-0.00633724,0.000344792,-0.00147249,-0.00636167,0.0707573,0.00384544,0.0110469,713,673,-5.66636,1.28816
-504,351,-5.68079,-1.55255,-0.000155965,-0.00281369,0.000737607,3.50215e-05,-0.00300467,0.253362,0.00201489,0.0103991,720,673,-5.68078,1.55257
-497,351,-5.67151,-1.80731,0.000613853,-0.000162544,0.000705675,0.00103106,-0.00057975,0.533934,0.000942089,0.010092,727,673,-5.67148,1.80731
-490,351,-5.66614,-2.05188,0.00093846,0.000799873,0.000445311,0.00131984,0.000418497,0.708213,0.00077882,0.00905657,734,673,-5.66614,2.05185
-483,351,-5.6748,-2.29224,0.0015314,0.000327728,0.00058651,0.00176992,8.92069e-05,0.386251,0.00115136,0.0106025,741,673,-5.67479,2.29223
-476,351,-5.68695,-2.53796,0.00312598,-6.71973e-05,0.000659546,0.00325685,-0.000198062,0.195873,0.00224017,0.0106665,748,673,-5.68694,2.53794
-469,351,-5.67816,-2.77234,0.00471705,-0.000321193,0.000886075,0.00486834,-0.000472484,0.169112,0.00341397,0.0124137,755,673,-5.67814,2.77235
-462,351,-5.65625,-3.05524,0.00654971,-0.000696108,0.00131769,0.00678189,-0.000928295,0.174418,0.00486034,0.0176777,762,673,-5.65623,3.05524
-455,351,-5.59381,-3.4057,0.00891246,-0.00112545,0.00174954,0.00920865,-0.00142164,0.167708,0.00666372,0.0342126,769,673,-5.59381,3.40569
-448,351,-5.29779,-3.48853,0,0,0,0,0,0,0,-1,776,673,-5.2978,3.48852
-441,351,-4.31567,-2.3009,0,0,0,0,0,0,0,-1,783,673,-4.31565,2.30089
-434,351,-3.81708,-2.28003,0,0,0,0,0,0,0,-1,790,673,-3.81706,2.28006
-427,351,-2.05157,-2.7785,0,0,0,0,0,0,0,-1,797,673,-2.05157,2.77848
-420,351,-1.06989,-2.43665,0,0,0,0,0,0,0,-1,804,673,-1.06991,2.43663
-413,351,-0.392334,-2.06671,0,0,0,0,0,0,0,-1,811,673,-0.392363,2.06672
-406,351,-1.86316,-2.58105,0,0,0,0,0,0,0,-1,818,673,-1.86313,2.58106
-399,351,1.00952,-1.53455,0,0,0,0,0,0,0,-1,825,673,1.00954,1.53457
-392,351,-1.02197,0.877136,0,0,0,0,0,0,0,-1,832,673,-1.02195,-0.877143
-385,351,-1.47205,1.04437,0,0,0,0,0,0,0,-1,839,673,-1.47207,-1.04435
-378,351,0,0,0,0,0,0,0,0,0,-1,846,673,0,0
-371,351,0,0,0,0,0,0,0,0,0,-1,853,673,0,0
-364,351,0,0,0,0,0,0,0,0,0,-1,860,673,0,0
-357,351,0,0,0,0,0,0,0,0,0,-1,867,673,0,0
-350,351,0,0,0,0,0,0,0,0,0,-1,874,673,0,0
-343,351,0,0,0,0,0,0,0,0,0,-1,881,673,0,0
-336,351,0,0,0,0,0,0,0,0,0,-1,888,673,0,0
-329,351,0,0,0,0,0,0,0,0,0,-1,895,673,0,0
-322,351,0,0,0,0,0,0,0,0,0,-1,902,673,0,0
-315,351,0,0,0,0,0,0,0,0,0,-1,909,673,0,0
-308,351,0,0,0,0,0,0,0,0,0,-1,916,673,0,0
-301,351,0,0,0,0,0,0,0,0,0,-1,923,673,0,0
-294,351,0,0,0,0,0,0,0,0,0,-1,930,673,0,0
-287,351,0,0,0,0,0,0,0,0,0,-1,937,673,0,0
-280,351,0,0,0,0,0,0,0,0,0,-1,944,673,0,0
-273,351,0,0,0,0,0,0,0,0,0,-1,951,673,0,0
-266,351,0,0,0,0,0,0,0,0,0,-1,958,673,0,0
-259,351,0,0,0,0,0,0,0,0,0,-1,965,673,0,0
-252,351,0,0,0,0,0,0,0,0,0,-1,972,673,0,0
-245,351,0,0,0,0,0,0,0,0,0,-1,979,673,0,0
-238,351,0,0,0,0,0,0,0,0,0,-1,986,673,0,0
-231,351,0,0,0,0,0,0,0,0,0,-1,993,673,0,0
-224,351,0,0,0,0,0,0,0,0,0,-1,1000,673,0,0
-217,351,0,0,0,0,0,0,0,0,0,-1,1007,673,0,0
-210,351,0,0,0,0,0,0,0,0,0,-1,1014,673,0,0
-203,351,0,0,0,0,0,0,0,0,0,-1,1021,673,0,0
-196,351,0,0,0,0,0,0,0,0,0,-1,1028,673,0,0
-189,351,0,0,0,0,0,0,0,0,0,-1,1035,673,0,0
-182,351,0,0,0,0,0,0,0,0,0,-1,1042,673,0,0
-175,351,0,0,0,0,0,0,0,0,0,-1,1049,673,0,0
-168,351,0,0,0,0,0,0,0,0,0,-1,1056,673,0,0
-161,351,0,0,0,0,0,0,0,0,0,-1,1063,673,0,0
-154,351,0,0,0,0,0,0,0,0,0,-1,1070,673,0,0
-147,351,0,0,0,0,0,0,0,0,0,-1,1077,673,0,0
-140,351,0,0,0,0,0,0,0,0,0,-1,1084,673,0,0
-133,351,0,0,0,0,0,0,0,0,0,-1,1091,673,0,0
-126,351,0,0,0,0,0,0,0,0,0,-1,1098,673,0,0
-119,351,0,0,0,0,0,0,0,0,0,-1,1105,673,0,0
-112,351,0,0,0,0,0,0,0,0,0,-1,1112,673,0,0
-105,351,0,0,0,0,0,0,0,0,0,-1,1119,673,0,0
-98,351,0,0,0,0,0,0,0,0,0,-1,1126,673,0,0
-91,351,0,0,0,0,0,0,0,0,0,-1,1133,673,0,0
-84,351,0,0,0,0,0,0,0,0,0,-1,1140,673,0,0
-77,351,0,0,0,0,0,0,0,0,0,-1,1147,673,0,0
-70,351,0,0,0,0,0,0,0,0,0,-1,1154,673,0,0
-63,351,0,0,0,0,0,0,0,0,0,-1,1161,673,0,0
-56,351,0,0,0,0,0,0,0,0,0,-1,1168,673,0,0
-49,351,0,0,0,0,0,0,0,0,0,-1,1175,673,0,0
-42,351,0,0,0,0,0,0,0,0,0,-1,1182,673,0,0
-35,351,0,0,0,0,0,0,0,0,0,-1,1189,673,0,0
-28,351,0,0,0,0,0,0,0,0,0,-1,1196,673,0,0
-21,351,0,0,0,0,0,0,0,0,0,-1,1203,673,0,0
-14,351,0,0,0,0,0,0,0,0,0,-1,1210,673,0,0
-7,351,0,0,0,0,0,0,0,0,0,-1,1217,673,0,0
0,351,0,0,0,0,0,0,0,0,0,-1,1224,673,0,0
7,351,0,0,0,0,0,0,0,0,0,-1,1231,673,0,0
14,351,0,0,0,0,0,0,0,0,0,-1,1238,673,0,0
21,351,0,0,0,0,0,0,0,0,0,-1,1245,673,0,0
28,351,0,0,0,0,0,0,0,0,0,-1,1252,673,0,0
35,351,0,0,0,0,0,0,0,0,0,-1,1259,673,0,0
42,351,0,0,0,0,0,0,0,0,0,-1,1266,673,0,0
49,351,0,0,0,0,0,0,0,0,0,-1,1273,673,0,0
56,351,0,0,0,0,0,0,0,0,0,-1,1280,673,0,0
63,351,0,0,0,0,0,0,0,0,0,-1,1287,673,0,0
70,351,0,0,0,0,0,0,0,0,0,-1,1294,673,0,0
77,351,0,0,0,0,0,0,0,0,0,-1,1301,673,0,0
84,351,0,0,0,0,0,0,0,0,0,-1,1308,673,0,0
91,351,0,0,0,0,0,0,0,0,0,-1,1315,673,0,0
98,351,0,0,0,0,0,0,0,0,0,-1,1322,673,0,0
105,351,0,0,0,0,0,0,0,0,0,-1,1329,673,0,0
112,351,0,0,0,0,0,0,0,0,0,-1,1336,673,0,0
119,351,0,0,0,0,0,0,0,0,0,-1,1343,673,0,0
126,351,0,0,0,0,0,0,0,0,0,-1,1350,673,0,0
133,351,0,0,0,0,0,0,0,0,0,-1,1357,673,0,0
140,351,0,0,0,0,0,0,0,0,0,-1,1364,673,0,0
147,351,0,0,0,0,0,0,0,0,0,-1,1371,673,0,0
154,351,0,0,0,0,0,0,0,0,0,-1,1378,673,0,0
161,351,0,0,0,0,0,0,0,0,0,-1,1385,673,0,0
168,351,0,0,0,0,0,0,0,0,0,-1,1392,673,0,0
175,351,0,0,0,0,0,0,0,0,0,-1,1399,673,0,0
182,351,0,0,0,0,0,0,0,0,0,-1,1406,673,0,0
189,351,0,0,0,0,0,0,0,0,0,-1,1413,673,0,0
196,351,0,0,0,0,0,0,0,0,0,-1,1420,673,0,0
203,351,0,0,0,0,0,0,0,0,0,-1,1427,673,0,0
210,351,0,0,0,0,0,0,0,0,0,-1,1434,673,0,0
217,351,0,0,0,0,0,0,0,0,0,-1,1441,673,0,0
224,351,0,0,0,0,0,0,0,0,0,-1,1448,673,0,0
231,351,0,0,0,0,0,0,0,0,0,-1,1455,673,0,0
238,351,0,0,0,0,0,0,0,0,0,-1,1462,673,0,0
245,351,0,0,0,0,0,0,0,0,0,-1,1469,673,0,0
252,351,0,0,0,0,0,0,0,0,0,-1,1476,673,0,0
259,351,0,0,0,0,0,0,0,0,0,-1,1483,673,0,0
266,351,0,0,0,0,0,0,0,0,0,-1,1490,673,0,0
273,351,0,0,0,0,0,0,0,0,0,-1,1497,673,0,0
280,351,0,0,0,0,0,0,0,0,0,-1,1504,673,0,0
287,351,0,0,0,0,0,0,0,0,0,-1,1511,673,0,0
294,351,0,0,0,0,0,0,0,0,0,-1,1518,673,0,0
301,351,0,0,0,0,0,0,0,0,0,-1,1525,673,0,0
308,351,0,0,0,0,0,0,0,0,0,-1,1532,673,0,0
315,351,0,0,0,0,0,0,0,0,0,-1,1539,673,0,0
322,351,0,0,0,0,0,0,0,0,0,-1,1546,673,0,0
329,351,0,0,0,0,0,0,0,0,0,-1,1553,673,0,0
336,351,0,0,0,0,0,0,0,0,0,-1,1560,673,0,0
343,351,0,0,0,0,0,0,0,0,0,-1,1567,673,0,0
350,351,0,0,0,0,0,0,0,0,0,-1,1574,673,0,0
357,351,0,0,0,0,0,0,0,0,0,-1,1581,673,0,0
364,351,0,0,0,0,0,0,0,0,0,-1,1588,673,0,0
371,351,0,0,0,0,0,0,0,0,0,-1,1595,673,0,0
378,351,0,0,0,0,0,0,0,0,0,-1,1602,673,0,0
385,351,0,0,0,0,0,0,0,0,0,-1,1609,673,0,0
392,351,0,0,0,0,0,0,0,0,0,-1,1616,673,0,0
399,351,0,0,0,0,0,0,0,0,0,-1,1623,673,0,0
406,351,0,0,0,0,0,0,0,0,0,-1,1630,673,0,0
413,351,0,0,0,0,0,0,0,0,0,-1,1637,673,0,0
420,351,0,0,0,0,0,0,0,0,0,-1,1644,673,0,0
427,351,0,0,0,0,0,0,0,0,0,-1,1651,673,0,0
434,351,0,0,0,0,0,0,0,0,0,-1,1658,673,0,0
441,351,0,0,0,0,0,0,0,0,0,-1,1665,673,0,0
448,351,0,0,0,0,0,0,0,0,0,-1,1672,673,0,0
455,351,0,0,0,0,0,0,0,0,0,-1,1679,673,0,0
462,351,0,0,0,0,0,0,0,0,0,-1,1686,673,0,0
469,351,0,0,0,0,0,0,0,0,0,-1,1693,673,0,0
476,351,0,0,0,0,0,0,0,0,0,-1,1700,673,0,0
483,351,0,0,0,0,0,0,0,0,0,-1,1707,673,0,0
490,351,0,0,0,0,0,0,0,0,0,-1,1714,673,0,0
497,351,0,0,0,0,0,0,0,0,0,-1,1721,673,0,0
504,351,10.8842,1.61615,0,0,0,0,0,0,0,-1,1728,673,10.8842,-1.61618
511,351,15.4548,0.0236816,0,0,0,0,0,0,0,-1,1735,673,15.4549,-0.0236664
518,351,16.7448,2.49268,0,0,0,0,0,0,0,-1,1742,673,16.7448,-2.49269
525,351,16.0701,3.43225,0,0,0,0,0,0,0,-1,1749,673,16.07,-3.43227
532,351,16.4181,3.33472,0,0,0,0,0,0,0,-1,1756,673,16.4181,-3.33473
539,351,15.3387,3.54486,0,0,0,0,0,0,0,-1,1763,673,15.3387,-3.54485
546,351,13.9387,4.59357,0,0,0,0,0,0,0,-1,1770,673,13.9388,-4.59359
553,351,12.0682,2.02832,0,0,0,0,0,0,0,-1,1777,673,12.0683,-2.02831
560,351,12.0173,0.55304,0,0,0,0,0,0,0,-1,1784,673,12.0174,-0.553028
567,351,10.7827,0.130188,0,0,0,0,0,0,0,-1,1791,673,10.7827,-0.130183
574,351,13.0577,-0.749023,0,0,0,0,0,0,0,-1,1798,673,13.0578,0.749009
581,351,12.473,-0.993103,-0.0114413,-0.00459901,-0.00599854,-0.00111461,-0.0149257,-1.04456,0.00960054,0.0485035,1805,673,12.473,0.993124
588,351,11.8699,-1.33643,-0.0084033,-0.00379635,-0.00457335,-0.000979132,-0.0112205,-1.01869,0.00717627,0.0335532,1812,673,11.8699,1.33643
595,351,11.8965,-1.15955,-0.00592798,-0.00294411,-0.00331856,-0.000797543,-0.00807455,-0.996648,0.00513786,0.0188291,1819,673,11.8965,1.15958
602,351,11.9188,-0.845703,-0.00375412,-0.00206666,-0.00220934,-0.000545423,-0.00527536,-0.967799,0.00334993,0.0178547,1826,673,11.9188,0.845706
609,351,11.928,-0.563538,-0.00215512,-0.00115418,-0.00124768,-0.000310339,-0.00299896,-0.976136,0.00190431,0.0181052,1833,673,11.928,0.563527
616,351,11.9148,-0.28894,-0.00140432,-0.000867435,-0.000910935,-0.000186214,-0.00208554,-0.928688,0.00133264,0.0145806,1840,673,11.9147,0.288967
623,351,11.9325,0.00299072,-0.0012384,-0.000359094,-0.000797574,0.000111978,-0.00170947,-1.03729,0.00117875,0.0153269,1847,673,11.9325,-0.00296022
630,351,11.9465,0.229797,-0.00123645,-0.000158759,-0.000925251,0.000373116,-0.00176833,-1.04908,0.00132094,0.0250762,1854,673,11.9465,-0.229791
637,351,11.9426,0.520569,-0.00102131,4.57332e-05,-0.00106751,0.000705618,-0.0016812,-1.01714,0.00141588,0.0281329,1861,673,11.9426,-0.520577
644,351,11.9283,0.788391,-0.00140781,-0.000335903,-0.00170618,0.000916519,-0.00266024,-0.937581,0.00214528,0.0203862,1868,673,11.9284,-0.788396
651,351,11.9447,1.06781,-0.00166693,-0.000809368,-0.00249373,0.00129218,-0.00376848,-0.870537,0.00303613,0.0151091,1875,673,11.9447,-1.06782
658,351,11.8943,1.36151,-0.00138539,-0.00141211,-0.00324465,0.00184593,-0.00464343,-0.78334,0.00386094,0.0240391,1882,673,11.8943,-1.36153
665,351,11.6016,1.46637,-0.000190007,-0.00215306,-0.00380855,0.00276146,-0.00510453,-0.659284,0.0046081,0.031173,1889,673,11.6016,-1.46638
672,351,11.5801,1.89081,0.00245056,-0.00306917,-0.00410975,0.00464114,-0.00525976,-0.489714,0.00572,0.0452299,1896,673,11.5801,-1.8908
679,351,11.7974,2.04578,0,0,0,0,0,0,0,-1,1903,673,11.7974,-2.04577
686,351,12.1202,2.25208,0,0,0,0,0,0,0,-1,1910,673,12.1202,-2.25209
693,351,13.5187,2.34595,0,0,0,0,0,0,0,-1,1917,673,13.5187,-2.34596
700,351,14.5629,-2.40173,0,0,0,0,0,0,0,-1,1924,673,14.5629,2.40172
707,351,0,0,0,0,0,0,0,0,0,-1,1931,673,0,0
714,351,0,0,0,0,0,0,0,0,0,-1,1938,673,0,0
721,351,0,0,0,0,0,0,0,0,0,-1,1945,673,0,0
728,351,0,0,0,0,0,0,0,0,0,-1,1952,673,0,0
735,351,0,0,0,0,0,0,0,0,0,-1,1959,673,0,0
742,351,0,0,0,0,0,0,0,0,0,-1,1966,673,0,0
749,351,0,0,0,0,0,0,0,0,0,-1,1973,673,0,0
756,351,0,0,0,0,0,0,0,0,0,-1,1980,673,0,0
763,351,0,0,0,0,0,0,0,0,0,-1,1987,673,0,0
770,351,0,0,0,0,0,0,0,0,0,-1,1994,673,0,0
777,351,0,0,0,0,0,0,0,0,0,-1,2001,673,0,0
784,351,0,0,0,0,0,0,0,0,0,-1,2008,673,0,0
791,351,0,0,0,0,0,0,0,0,0,-1,2015,673,0,0
798,351,0,0,0,0,0,0,0,0,0,-1,2022,673,0,0
805,351,0,0,0,0,0,0,0,0,0,-1,2029,673,0,0
812,351,0,0,0,0,0,0,0,0,0,-1,2036,673,0,0
-700,344,0,0,0,0,0,0,0,0,0,-1,524,680,0,0
-693,344,0,0,0,0,0,0,0,0,0,-1,531,680,0,0
-686,344,0,0,0,0,0,0,0,0,0,-1,538,680,0,0
-679,344,0,0,0,0,0,0,0,0,0,-1,545,680,0,0
-672,344,0,0,0,0,0,0,0,0,0,-1,552,680,0,0
-665,344,0,0,0,0,0,0,0,0,0,-1,559,680,0,0
-658,344,0,0,0,0,0,0,0,0,0,-1,566,680,0,0
-651,344,0,0,0,0,0,0,0,0,0,-1,573,680,0,0
-644,344,0,0,0,0,0,0,0,0,0,-1,580,680,0,0
-637,344,0,0,0,0,0,0,0,0,0,-1,587,680,0,0
-630,344,0,0,0,0,0,0,0,0,0,-1,594,680,0,0
-623,344,0,0,0,0,0,0,0,0,0,-1,601,680,0,0
-616,344,0,0,0,0,0,0,0,0,0,-1,608,680,0,0
-609,344,0,0,0,0,0,0,0,0,0,-1,615,680,0,0
-602,344,0,0,0,0,0,0,0,0,0,-1,622,680,0,0
-595,344,0,0,0,0,0,0,0,0,0,-1,629,680,0,0
-588,344,-7.89941,5.00134,0,0,0,0,0,0,0,-1,636,680,-7.89941,-5.00132
-581,344,-7.30463,3.9386,0,0,0,0,0,0,0,-1,643,680,-7.30465,-3.93857
-574,344,-4.55396,3.9068,0,0,0,0,0,0,0,-1,650,680,-4.55396,-3.90678
-567,344,-6.67731,2.04541,0,0,0,0,0,0,0,-1,657,680,-6.67731,-2.04542
-560,344,-6.58002,1.26825,-0.0300512,-0.0567106,-0.00190317,-0.029916,-0.0568457,-0.0709093,0.032835,0.0476953,664,680,-6.58003,-1.26827
-553,344,-6.40961,0.476379,-0.0221036,-0.0467405,-0.00151041,-0.0220113,-0.0468327,-0.0610025,0.0270551,0.0457151,671,680,-6.40961,-0.476408
-546,344,-6.11102,-0.0618896,-0.0159128,-0.0370301,-0.00102073,-0.0158636,-0.0370794,-0.0481865,0.021482,0.043603,678,680,-6.111,0.0618725
-539,344,-5.89117,-0.320801,-0.0110987,-0.0281694,-0.000570251,-0.0110797,-0.0281884,-0.0333558,0.0163982,0.0371914,685,680,-5.89116,0.320786
-532,344,-5.79395,-0.563171,-0.00739507,-0.0204225,-0.000217541,-0.00739144,-0.0204261,-0.0166924,0.0119421,0.0207445,692,680,-5.79395,0.563177
-525,344,-5.92285,-0.794739,-0.00459679,-0.0139359,1.8131e-05,-0.00459676,-0.0139359,0.00194141,0.00819971,0.0187361,699,680,-5.92286,0.79472
-518,344,-5.94507,-1.08649,-0.00222676,-0.00868299,1.48409e-05,-0.00222673,-0.00868303,0.00229868,0.00520762,0.0192321,706,680,-5.94507,1.08647
-511,344,-5.94946,-1.31372,-0.000362694,-0.00453392,0.000196982,-0.000353412,-0.0045432,0.0470844,0.00291814,0.0167881,713,680,-5.94947,1.31373
-504,344,-5.93695,-1.57294,0.000396881,-0.00191285,0.000659257,0.000571802,-0.00208778,0.259355,0.00161652,0.017867,720,680,-5.93693,1.57294
-497,344,-5.91925,-1.81799,0.000652249,1.7902e-05,0.000937461,0.00132474,-0.000654587,0.622277,0.00116439,0.0155383,727,680,-5.91923,1.81797
-490,344,-5.9292,-2.04041,0.00065467,0.00066598,0.0013775,0.00203784,-0.00071719,0.787451,0.00165041,0.0129863,734,680,-5.92922,2.04039
-483,344,-5.9201,-2.28168,0.000945291,0.000262824,0.00225662,0.00288634,-0.00167822,0.71036,0.00266594,0.0125067,741,680,-5.92013,2.28169
-476,344,-5.91998,-2.53656,0.00241027,-0.000198587,0.00296421,0.00434437,-0.00213269,0.57812,0.00381151,0.0133077,748,680,-5.91996,2.53657
-469,344,-5.92755,-2.81,0.00367662,-0.000539339,0.00406373,0.00614657,-0.0030093,0.546139,0.00538859,0.0122876,755,680,-5.92755,2.80997
-462,344,-5.91388,-3.11932,0.00544129,-0.00104148,0.00527384,0.00839022,-0.00399041,0.509849,0.00729686,0.0240597,762,680,-5.91386,3.11932
-455,344,-5.84106,-3.38879,0,0,0,0,0,0,0,-1,769,680,-5.84107,3.38882
-448,344,-5.67657,-2.72864,0,0,0,0,0,0,0,-1,776,680,-5.6766,2.72863
-441,344,-5.09229,-2.34167,0,0,0,0,0,0,0,-1,783,680,-5.09229,2.34168
-434,344,-4.28778,-2.08807,0,0,0,0,0,0,0,-1,790,680,-4.28778,2.08809
-427,344,-3.06506,-1.45404,0,0,0,0,0,0,0,-1,797,680,-3.06505,1.45402
-420,344,-1.96582,-1.57574,0,0,0,0,0,0,0,-1,804,680,-1.96579,1.57574
-413,344,-0.817993,-1.4751,0,0,0,0,0,0,0,-1,811,680,-0.818017,1.47511
-406,344,-0.00714111,-1.25189,0,0,0,0,0,0,0,-1,818,680,-0.00714956,1.25191
-399,344,0.240051,-1.75769,0,0,0,0,0,0,0,-1,825,680,0.240079,1.75767
-392,344,1.11353,-2.05615,0,0,0,0,0,0,0,-1,832,680,1.11351,2.05616
-385,344,0,0,0,0,0,0,0,0,0,-1,839,680,0,0
-378,344,0,0,0,0,0,0,0,0,0,-1,846,680,0,0
-371,344,0,0,0,0,0,0,0,0,0,-1,853,680,0,0
-364,344,0,0,0,0,0,0,0,0,0,-1,860,680,0,0
-357,344,0,0,0,0,0,0,0,0,0,-1,867,680,0,0
-350,344,0,0,0,0,0,0,0,0,0,-1,874,680,0,0
-343,344,0,0,0,0,0,0,0,0,0,-1,881,680,0,0
-336,344,0,0,0,0,0,0,0,0,0,-1,888,680,0,0
-329,344,0,0,0,0,0,0,0,0,0,-1,895,680,0,0
-322,344,0,0,0,0,0,0,0,0,0,-1,902,680,0,0
-315,344,0,0,0,0,0,0,0,0,0,-1,909,680,0,0
-308,344,0,0,0,0,0,0,0,0,0,-1,916,680,0,0
-301,344,0,0,0,0,0,0,0,0,0,-1,923,680,0,0
-294,344,0,0,0,0,0,0,0,0,0,-1,930,680,0,0
-287,344,0,0,0,0,0,0,0,0,0,-1,937,680,0,0
-280,344,0,0,0,0,0,0,0,0,0,-1,944,680,0,0
-273,344,0,0,0,0,0,0,0,0,0,-1,951,680,0,0
-266,344,0,0,0,0,0,0,0,0,0,-1,958,680,0,0
-259,344,0,0,0,0,0,0,0,0,0,-1,965,680,0,0
-252,344,0,0,0,0,0,0,0,0,0,-1,972,680,0,0
-245,344,0,0,0,0,0,0,0,0,0,-1,979,680,0,0
-238,344,0,0,0,0,0,0,0,0,0,-1,986,680,0,0
-231,344,0,0,0,0,0,0,0,0,0,-1,993,680,0,0
-224,344,0,0,0,0,0,0,0,0,0,-1,1000,680,0,0
-217,344,0,0,0,0,0,0,0,0,0,-1,1007,680,0,0
-210,344,0,0,0,0,0,0,0,0,0,-1,1014,680,0,0
-203,344,0,0,0,0,0,0,0,0,0,-1,1021,680,0,0
-196,344,0,0,0,0,0,0,0,0,0,-1,1028,680,0,0
-189,344,0,0,0,0,0,0,0,0,0,-1,1035,680,0,0
-182,344,0,0,0,0,0,0,0,0,0,-1,1042,680,0,0
-175,344,0,0,0,0,0,0,0,0,0,-1,1049,680,0,0
-168,344,0,0,0,0,0,0,0,0,0,-1,1056,680,0,0
-161,344,0,0,0,0,0,0,0,0,0,-1,1063,680,0,0
-154,344,0,0,0,0,0,0,0,0,0,-1,1070,680,0,0
-147,344,0,0,0,0,0,0,0,0,0,-1,1077,680,0,0
-140,344,0,0,0,0,0,0,0,0,0,-1,1084,680,0,0
-133,344,0,0,0,0,0,0,0,0,0,-1,1091,680,0,0
-126,344,0,0,0,0,0,0,0,0,0,-1,1098,680,0,0
-119,344,0,0,0,0,0,0,0,0,0,-1,1105,680,0,0
-112,344,0,0,0,0,0,0,0,0,0,-1,1112,680,0,0
-105,344,0,0,0,0,0,0,0,0,0,-1,1119,680,0,0
-98,344,0,0,0,0,0,0,0,0,0,-1,1126,680,0,0
-91,344,0,0,0,0,0,0,0,0,0,-1,1133,680,0,0
-84,344,0,0,0,0,0,0,0,0,0,-1,1140,680,0,0
-77,344,0,0,0,0,0,0,0,0,0,-1,1147,680,0,0
-70,344,0,0,0,0,0,0,0,0,0,-1,1154,680,0,0
-63,344,0,0,0,0,0,0,0,0,0,-1,1161,680,0,0
-56,344,0,0,0,0,0,0,0,0,0,-1,1168,680,0,0
-49,344,0,0,0,0,0,0,0,0,0,-1,1175,680,0,0
-42,344,0,0,0,0,0,0,0,0,0,-1,1182,680,0,0
-35,344,0,0,0,0,0,0,0,0,0,-1,1189,680,0,0
-28,344,0,0,0,0,0,0,0,0,0,-1,1196,680,0,0
-21,344,0,0,0,0,0,0,0,0,0,-1,1203,680,0,0
-14,344,0,0,0,0,0,0,0,0,0,-1,1210,680,0,0
-7,344,0,0,0,0,0,0,0,0,0,-1,1217,680,0,0
0,344,0,0,0,0,0,0,0,0,0,-1,1224,680,0,0
7,344,0,0,0,0,0,0,0,0,0,-1,1231,680,0,0
14,344,0,0,0,0,0,0,0,0,0,-1,1238,680,0,0
21,344,0,0,0,0,0,0,0,0,0,-1,1245,680,0,0
28,344,0,0,0,0,0,0,0,0,0,-1,1252,680,0,0
35,344,0,0,0,0,0,0,0,0,0,-1,1259,680,0,0
42,344,0,0,0,0,0,0,0,0,0,-1,1266,680,0,0
49,344,0,0,0,0,0,0,0,0,0,-1,1273,680,0,0
56,344,0,0,0,0,0,0,0,0,0,-1,1280,680,0,0
63,344,0,0,0,0,0,0,0,0,0,-1,1287,680,0,0
70,344,0,0,0,0,0,0,0,0,0,-1,1294,680,0,0
77,344,0,0,0,0,0,0,0,0,0,-1,1301,680,0,0
84,344,0,0,0,0,0,0,0,0,0,-1,1308,680,0,0
91,344,0,0,0,0,0,0,0,0,0,-1,1315,680,0,0
98,344,0,0,0,0,0,0,0,0,0,-1,1322,680,0,0
105,344,0,0,0,0,0,0,0,0,0,-1,1329,680,0,0
112,344,0,0,0,0,0,0,0,0,0,-1,1336,680,0,0
119,344,0,0,0,0,0,0,0,0,0,-1,1343,680,0,0
126,344,0,0,0,0,0,0,0,0,0,-1,1350,680,0,0
133,344,0,0,0,0,0,0,0,0,0,-1,1357,680,0,0
140,344,0,0,0,0,0,0,0,0,0,-1,1364,680,0,0
147,344,0,0,0,0,0,0,0,0,0,-1,1371,680,0,0
154,344,0,0,0,0,0,0,0,0,0,-1,1378,680,0,0
161,344,0,0,0,0,0,0,0,0,0,-1,1385,680,0,0
168,344,0,0,0,0,0,0,0,0,0,-1,1392,680,0,0
175,344,0,0,0,0,0,0,0,0,0,-1,1399,680,0,0
182,344,0,0,0,0,0,0,0,0,0,-1,1406,680,0,0
189,344,0,0,0,0,0,0,0,0,0,-1,1413,680,0,0
196,344,0,0,0,0,0,0,0,0,0,-1,1420,680,0,0
203,344,0,0,0,0,0,0,0,0,0,-1,1427,680,0,0
210,344,0,0,0,0,0,0,0,0,0,-1,1434,680,0,0
217,344,0,0,0,0,0,0,0,0,0,-1,1441,680,0,0
224,344,0,0,0,0,0,0,0,0,0,-1,1448,680,0,0
231,344,0,0,0,0,0,0,0,0,0,-1,1455,680,0,0
238,344,0,0,0,0,0,0,0,0,0,-1,1462,680,0,0
245,344,0,0,0,0,0,0,0,0,0,-1,1469,680,0,0
252,344,0,0,0,0,0,0,0,0,0,-1,1476,680,0,0
259,344,0,0,0,0,0,0,0,0,0,-1,1483,680,0,0
266,344,0,0,0,0,0,0,0,0,0,-1,1490,680,0,0
273,344,0,0,0,0,0,0,0,0,0,-1,1497,680,0,0
280,344,0,0,0,0,0,0,0,0,0,-1,1504,680,0,0
287,344,0,0,0,0,0,0,0,0,0,-1,1511,680,0,0
294,344,0,0,0,0,0,0,0,0,0,-1,1518,680,0,0
301,344,0,0,0,0,0,0,0,0,0,-1,1525,680,0,0
308,344,0,0,0,0,0,0,0,0,0,-1,1532,680,0,0
315,344,0,0,0,0,0,0,0,0,0,-1,1539,680,0,0
322,344,0,0,0,0,0,0,0,0,0,-1,1546,680,0,0
329,344,0,0,0,0,0,0,0,0,0,-1,1553,680,0,0
336,344,0,0,0,0,0,0,0,0,0,-1,1560,680,0,0
343,344,0,0,0,0,0,0,0,0,0,-1,1567,680,0,0
350,344,0,0,0,0,0,0,0,0,0,-1,1574,680,0,0
357,344,0,0,0,0,0,0,0,0,0,-1,1581,680,0,0
364,344,0,0,0,0,0,0,0,0,0,-1,1588,680,0,0
371,344,0,0,0,0,0,0,0,0,0,-1,1595,680,0,0
378,344,0,0,0,0,0,0,0,0,0,-1,1602,680,0,0
385,344,0,0,0,0,0,0,0,0,0,-1,1609,680,0,0
392,344,0,0,0,0,0,0,0,0,0,-1,1616,680,0,0
399,344,0,0,0,0,0,0,0,0,0,-1,1623,680,0,0
406,344,0,0,0,0,0,0,0,0,0,-1,1630,680,0,0
413,344,0,0,0,0,0,0,0,0,0,-1,1637,680,0,0
420,344,0,0,0,0,0,0,0,0,0,-1,1644,680,0,0
427,344,0,0,0,0,0,0,0,0,0,-1,1651,680,0,0
434,344,0,0,0,0,0,0,0,0,0,-1,1658,680,0,0
441,344,0,0,0,0,0,0,0,0,0,-1,1665,680,0,0
448,344,0,0,0,0,0,0,0,0,0,-1,1672,680,0,0
455,344,0,0,0,0,0,0,0,0,0,-1,1679,680,0,0
462,344,0,0,0,0,0,0,0,0,0,-1,1686,680,0,0
469,344,0,0,0,0,0,0,0,0,0,-1,1693,680,0,0
476,344,0,0,0,0,0,0,0,0,0,-1,1700,680,0,0
483,344,0,0,0,0,0,0,0,0,0,-1,1707,680,0,0
490,344,0,0,0,0,0,0,0,0,0,-1,1714,680,0,0
497,344,0,0,0,0,0,0,0,0,0,-1,1721,680,0,0
504,344,0,0,0,0,0,0,0,0,0,-1,1728,680,0,0
511,344,15.4819,0.452637,0,0,0,0,0,0,0,-1,1735,680,15.4819,-0.452656
518,344,17.1357,2.31207,0,0,0,0,0,0,0,-1,1742,680,17.1358,-2.31207
525,344,16.4807,2.83368,0,0,0,0,0,0,0,-1,1749,680,16.4807,-2.83368
532,344,15.8599,3.37219,0,0,0,0,0,0,0,-1,1756,680,15.8598,-3.3722
539,344,15.3691,3.78113,0,0,0,0,0,0,0,-1,1763,680,15.3691,-3.78113
546,344,14.6722,4.30243,0,0,0,0,0,0,0,-1,1770,680,14.6722,-4.30241
553,344,14.8136,4.35681,0,0,0,0,0,0,0,-1,1777,680,14.8136,-4.35679
560,344,11.9363,2.14185,0,0,0,0,0,0,0,-1,1784,680,11.9362,-2.14182
567,344,11.397,0.925842,0,0,0,0,0,0,0,-1,1791,680,11.397,-0.92583
574,344,10.0004,0.504639,0,0,0,0,0,0,0,-1,1798,680,10.0004,-0.504645
581,344,13.176,-0.500244,0,0,0,0,0,0,0,-1,1805,680,13.176,0.500254
588,344,12.2537,-1.40424,0,0,0,0,0,0,0,-1,1812,680,12.2536,1.40422
595,344,12.1035,-1.22443,0,0,0,0,0,0,0,-1,1819,680,12.1036,1.22445
602,344,12.2815,-0.806152,-0.00425092,-0.00260858,-0.00244027,-0.000855013,-0.00600448,-0.947701,0.00375061,0.0305418,1826,680,12.2815,0.806153
609,344,12.2157,-0.538025,-0.00227075,-0.00154177,-0.00132083,-0.000536066,-0.00327646,-0.920025,0.00202936,0.0152544,1833,680,12.2156,0.538015
616,344,12.2086,-0.259949,-0.00133697,-0.00116127,-0.00088525,-0.000359525,-0.00213872,-0.834856,0.00132237,0.0204899,1840,680,12.2087,0.25993
623,344,12.2383,0.00482178,-0.00111368,-0.000662873,-0.00073675,-0.000117818,-0.00165874,-0.933849,0.00106872,0.0194518,1847,680,12.2383,-0.00482946
630,344,12.204,0.247192,-0.00106584,-0.000468867,-0.00085355,0.000136881,-0.00167159,-0.953602,0.00116271,0.0260385,1854,680,12.2039,-0.247163
637,344,12.1775,0.52771,-0.000696448,-0.000197923,-0.000922572,0.000508467,-0.00140284,-0.917339,0.00114305,0.0242922,1861,680,12.1775,-0.527682
644,344,12.2106,0.801697,-0.000826932,-0.000588295,-0.00145456,0.000751832,-0.00216706,-0.826322,0.00175,0.0159369,1868,680,12.2106,-0.801695
651,344,12.2136,1.06403,-0.000799376,-0.00106737,-0.00208512,0.00115605,-0.0030228,-0.753311,0.00249161,0.0114165,1875,680,12.2137,-1.064
658,344,12.187,1.3653,-0.000207298,-0.0016382,-0.00263297,0.0018057,-0.00365119,-0.652738,0.00321003,0.0184117,1882,680,12.187,-1.36531
665,344,12.0936,1.62756,0.00123041,-0.00233578,-0.00296014,0.00290301,-0.00400838,-0.514319,0.00400727,0.0282874,1889,680,12.0937,-1.62759
672,344,12.1277,1.79358,0.00396242,-0.00319685,-0.00296031,0.00502791,-0.00426235,-0.34549,0.0053698,0.0229091,1896,680,12.1277,-1.7936
679,344,12.3652,1.91913,0.0084707,-0.00435568,-0.00235803,0.00889047,-0.00477545,-0.176171,0.00800837,0.0437063,1903,680,12.3652,-1.91913
686,344,12.6948,2.12823,0,0,0,0,0,0,0,-1,1910,680,12.6948,-2.12824
693,344,12.4362,-1.42346,0,0,0,0,0,0,0,-1,1917,680,12.4361,1.42348
700,344,17.5396,2.61206,0,0,0,0,0,0,0,-1,1924,680,17.5396,-2.61204
707,344,18.5829,3.29352,0,0,0,0,0,0,0,-1,1931,680,18.5828,-3.2935
714,344,0,0,0,0,0,0,0,0,0,-1,1938,680,0,0
721,344,0,0,0,0,0,0,0,0,0,-1,1945,680,0,0
728,344,0,0,0,0,0,0,0,0,0,-1,1952,680,0,0
735,344,0,0,0,0,0,0,0,0,0,-1,1959,680,0,0
742,344,0,0,0,0,0,0,0,0,0,-1,1966,680,0,0
749,344,0,0,0,0,0,0,0,0,0,-1,1973,680,0,0
756,344,0,0,0,0,0,0,0,0,0,-1,1980,680,0,0
763,344,0,0,0,0,0,0,0,0,0,-1,1987,680,0,0
770,344,0,0,0,0,0,0,0,0,0,-1,1994,680,0,0
777,344,0,0,0,0,0,0,0,0,0,-1,2001,680,0,0
784,344,0,0,0,0,0,0,0,0,0,-1,2008,680,0,0
791,344,0,0,0,0,0,0,0,0,0,-1,2015,680,0,0
798,344,0,0,0,0,0,0,0,0,0,-1,2022,680,0,0
805,344,0,0,0,0,0,0,0,0,0,-1,2029,680,0,0
812,344,0,0,0,0,0,0,0,0,0,-1,2036,680,0,0
-700,337,0,0,0,0,0,0,0,0,0,-1,524,687,0,0
-693,337,0,0,0,0,0,0,0,0,0,-1,531,687,0,0
-686,337,0,0,0,0,0,0,0,0,0,-1,538,687,0,0
-679,337,0,0,0,0,0,0,0,0,0,-1,545,687,0,0
-672,337,0,0,0,0,0,0,0,0,0,-1,552,687,0,0
-665,337,0,0,0,0,0,0,0,0,0,-1,559,687,0,0
-658,337,0,0,0,0,0,0,0,0,0,-1,566,687,0,0
-651,337,0,0,0,0,0,0,0,0,0,-1,573,687,0,0
-644,337,0,0,0,0,0,0,0,0,0,-1,580,687,0,0
-637,337,0,0,0,0,0,0,0,0,0,-1,587,687,0,0
-630,337,0,0,0,0,0,0,0,0,0,-1,594,687,0,0
-623,337,0,0,0,0,0,0,0,0,0,-1,601,687,0,0
-616,337,0,0,0,0,0,0,0,0,0,-1,608,687,0,0
-609,337,0,0,0,0,0,0,0,0,0,-1,615,687,0,0
-602,337,0,0,0,0,0,0,0,0,0,-1,622,687,0,0
-595,337,0,0,0,0,0,0,0,0,0,-1,629,687,0,0
-588,337,-8.20203,3.8374,0,0,0,0,0,0,0,-1,636,687,-8.20205,-3.8374
-581,337,-7.54236,2.87201,0,0,0,0,0,0,0,-1,643,687,-7.54236,-2.87198
-574,337,-5.24377,3.62292,0,0,0,0,0,0,0,-1,650,687,-5.24378,-3.6229
-567,337,-6.43872,1.46991,0,0,0,0,0,0,0,-1,657,687,-6.43873,-1.46993
-560,337,-6.5191,1.11334,-0.0217068,-0.0443209,-0.000743606,-0.0216824,-0.0443453,-0.0328351,0.0256049,0.0470062,664,687,-6.51911,-1.11332
-553,337,-6.35565,0.646484,-0.0155367,-0.0357658,-0.000603186,-0.0155187,-0.0357838,-0.0297824,0.0207203,0.0460741,671,687,-6.35562,-0.646468
-546,337,-6.16968,0.0935059,-0.0107836,-0.0279359,-0.000386596,-0.0107749,-0.0279447,-0.0225237,0.0162741,0.0393055,678,687,-6.1697,-0.0934833
-539,337,-6.09583,-0.304138,-0.00716882,-0.0210426,-0.000172836,-0.00716666,-0.0210447,-0.0124552,0.0123544,0.0249446,685,687,-6.09583,0.304116
-532,337,-6.12335,-0.569031,-0.00441817,-0.015086,-1.74143e-05,-0.00441814,-0.015086,-0.0016324,0.0089556,0.0144593,692,687,-6.12336,0.569003
-525,337,-6.17743,-0.823486,-0.00236906,-0.0101094,6.80326e-05,-0.00236846,-0.01011,0.00878845,0.0061056,0.0142509,699,687,-6.17742,0.823479
-518,337,-6.19476,-1.07825,-0.000659702,-0.00615825,5.15204e-05,-0.000659219,-0.00615874,0.00936871,0.00390468,0.0213974,706,687,-6.19479,1.07827
-511,337,-6.20673,-1.31647,0.000491486,-0.00320931,0.000300584,0.000515741,-0.00323356,0.0805181,0.00234659,0.0230626,713,687,-6.2067,1.31649
-504,337,-6.18304,-1.58368,0.000694744,-0.00140777,0.00100886,0.00110052,-0.00181354,0.382411,0.00169914,0.0240195,720,687,-6.18304,1.5837
-497,337,-6.16577,-1.82593,0.000365988,-0.000142863,0.00184478,0.00197381,-0.00175068,0.716872,0.00215162,0.0167771,727,687,-6.1658,1.82595
-490,337,-6.18695,-2.04828,-7.21255e-05,0.000149993,0.00316272,0.0032036,-0.00312574,0.802949,0.00365434,0.0137407,734,687,-6.18697,2.04827
-483,337,-6.177,-2.3056,-0.000205862,-0.000334127,0.00492632,0.00465674,-0.00519673,0.778889,0.00569175,0.013861,741,687,-6.17698,2.30559
-476,337,-6.16736,-2.57141,0.00105602,-0.000992063,0.00632119,0.00643558,-0.00637163,0.705095,0.00739428,0.0129745,748,687,-6.16739,2.57143
-469,337,-6.16205,-2.89197,0.00199241,-0.00157123,0.00827326,0.00867355,-0.00825238,0.679333,0.00977319,0.0216437,755,687,-6.16206,2.89197
-462,337,-6.1355,-3.0108,0.00382777,-0.00231143,0.0100417,0.0112586,-0.00974223,0.637066,0.0121354,0.0494994,762,687,-6.1355,3.01079
-455,337,-6.00574,-3.12933,0,0,0,0,0,0,0,-1,769,687,-6.00576,3.12934
-448,337,-5.30627,-2.07202,0,0,0,0,0,0,0,-1,776,687,-5.30628,2.07205
-441,337,-4.24762,-1.49597,0,0,0,0,0,0,0,-1,783,687,-4.24762,1.49598
-434,337,-6.86908,1.37531,0,0,0,0,0,0,0,-1,790,687,-6.86908,-1.3753
-427,337,-9.92004,2.487,0,0,0,0,0,0,0,-1,797,687,-9.92002,-2.48701
-420,337,-2.95996,-1.76697,0,0,0,0,0,0,0,-1,804,687,-2.95998,1.76696
-413,337,-1.29169,-1.99487,0,0,0,0,0,0,0,-1,811,687,-1.29171,1.9949
-406,337,-1.02356,-1.89563,0,0,0,0,0,0,0,-1,818,687,-1.02357,1.89564
-399,337,-0.472839,-2.21338,0,0,0,0,0,0,0,-1,825,687,-0.472837,2.2134
-392,337,0,0,0,0,0,0,0,0,0,-1,832,687,0,0
-385,337,0,0,0,0,0,0,0,0,0,-1,839,687,0,0
-378,337,0,0,0,0,0,0,0,0,0,-1,846,687,0,0
-371,337,0,0,0,0,0,0,0,0,0,-1,853,687,0,0
-364,337,0,0,0,0,0,0,0,0,0,-1,860,687,0,0
-357,337,0,0,0,0,0,0,0,0,0,-1,867,687,0,0
-350,337,0,0,0,0,0,0,0,0,0,-1,874,687,0,0
-343,337,0,0,0,0,0,0,0,0,0,-1,881,687,0,0
-336,337,0,0,0,0,0,0,0,0,0,-1,888,687,0,0
-329,337,0,0,0,0,0,0,0,0,0,-1,895,687,0,0
-322,337,0,0,0,0,0,0,0,0,0,-1,902,687,0,0
-315,337,0,0,0,0,0,0,0,0,0,-1,909,687,0,0
-308,337,0,0,0,0,0,0,0,0,0,-1,916,687,0,0
-301,337,0,0,0,0,0,0,0,0,0,-1,923,687,0,0
-294,337,0,0,0,0,0,0,0,0,0,-1,930,687,0,0
-287,337,0,0,0,0,0,0,0,0,0,-1,937,687,0,0
-280,337,0,0,0,0,0,0,0,0,0,-1,944,687,0,0
-273,337,0,0,0,0,0,0,0,0,0,-1,951,687,0,0
-266,337,0,0,0,0,0,0,0,0,0,-1,958,687,0,0
-259,337,0,0,0,0,0,0,0,0,0,-1,965,687,0,0
-252,337,0,0,0,0,0,0,0,0,0,-1,972,687,0,0
-245,337,0,0,0,0,0,0,0,0,0,-1,979,687,0,0
-238,337,0,0,0,0,0,0,0,0,0,-1,986,687,0,0
-231,337,0,0,0,0,0,0,0,0,0,-1,993,687,0,0
-224,337,0,0,0,0,0,0,0,0,0,-1,1000,687,0,0
-217,337,0,0,0,0,0,0,0,0,0,-1,1007,687,0,0
-210,337,0,0,0,0,0,0,0,0,0,-1,1014,687,0,0
-203,337,0,0,0,0,0,0,0,0,0,-1,1021,687,0,0
-196,337,0,0,0,0,0,0,0,0,0,-1,1028,687,0,0
-189,337,0,0,0,0,0,0,0,0,0,-1,1035,687,0,0
-182,337,0,0,0,0,0,0,0,0,0,-1,1042,687,0,0
-175,337,0,0,0,0,0,0,0,0,0,-1,1049,687,0,0
-168,337,0,0,0,0,0,0,0,0,0,-1,1056,687,0,0
-161,337,0,0,0,0,0,0,0,0,0,-1,1063,687,0,0
-154,337,0,0,0,0,0,0,0,0,0,-1,1070,687,0,0
-147,337,0,0,0,0,0,0,0,0,0,-1,1077,687,0,0
-140,337,0,0,0,0,0,0,0,0,0,-1,1084,687,0,0
-133,337,0,0,0,0,0,0,0,0,0,-1,1091,687,0,0
-126,337,0,0,0,0,0,0,0,0,0,-1,1098,687,0,0
-119,337,0,0,0,0,0,0,0,0,0,-1,1105,687,0,0
-112,337,0,0,0,0,0,0,0,0,0,-1,1112,687,0,0
-105,337,0,0,0,0,0,0,0,0,0,-1,1119,687,0,0
-98,337,0,0,0,0,0,0,0,0,0,-1,1126,687,0,0
-91,337,0,0,0,0,0,0,0,0,0,-1,1133,687,0,0
-84,337,0,0,0,0,0,0,0,0,0,-1,1140,687,0,0
-77,337,0,0,0,0,0,0,0,0,0,-1,1147,687,0,0
-70,337,0,0,0,0,0,0,0,0,0,-1,1154,687,0,0
-63,337,0,0,0,0,0,0,0,0,0,-1,1161,687,0,0
-56,337,0,0,0,0,0,0,0,0,0,-1,1168,687,0,0
-49,337,0,0,0,0,0,0,0,0,0,-1,1175,687,0,0
-42,337,0,0,0,0,0,0,0,0,0,-1,1182,687,0,0
-35,337,0,0,0,0,0,0,0,0,0,-1,1189,687,0,0
-28,337,0,0,0,0,0,0,0,0,0,-1,1196,687,0,0
-21,337,0,0,0,0,0,0,0,0,0,-1,1203,687,0,0
-14,337,0,0,0,0,0,0,0,0,0,-1,1210,687,0,0
-7,337,0,0,0,0,0,0,0,0,0,-1,1217,687,0,0
0,337,0,0,0,0,0,0,0,0,0,-1,1224,687,0,0
7,337,0,0,0,0,0,0,0,0,0,-1,1231,687,0,0
14,337,0,0,0,0,0,0,0,0,0,-1,1238,687,0,0
21,337,0,0,0,0,0,0,0,0,0,-1,1245,687,0,0
28,337,0,0,0,0,0,0,0,0,0,-1,1252,687,0,0
35,337,0,0,0,0,0,0,0,0,0,-1,1259,687,0,0
42,337,0,0,0,0,0,0,0,0,0,-1,1266,687,0,0
49,337,0,0,0,0,0,0,0,0,0,-1,1273,687,0,0
56,337,0,0,0,0,0,0,0,0,0,-1,1280,687,0,0
63,337,0,0,0,0,0,0,0,0,0,-1,1287,687,0,0
70,337,0,0,0,0,0,0,0,0,0,-1,1294,687,0,0
77,337,0,0,0,0,0,0,0,0,0,-1,1301,687,0,0
84,337,0,0,0,0,0,0,0,0,0,-1,1308,687,0,0
91,337,0,0,0,0,0,0,0,0,0,-1,1315,687,0,0
98,337,0,0,0,0,0,0,0,0,0,-1,1322,687,0,0
105,337,0,0,0,0,0,0,0,0,0,-1,1329,687,0,0
112,337,0,0,0,0,0,0,0,0,0,-1,1336,687,0,0
119,337,0,0,0,0,0,0,0,0,0,-1,1343,687,0,0
126,337,0,0,0,0,0,0,0,0,0,-1,1350,687,0,0
133,337,0,0,0,0,0,0,0,0,0,-1,1357,687,0,0
140,337,0,0,0,0,0,0,0,0,0,-1,1364,687,0,0
147,337,0,0,0,0,0,0,0,0,0,-1,1371,687,0,0
154,337,0,0,0,0,0,0,0,0,0,-1,1378,687,0,0
161,337,0,0,0,0,0,0,0,0,0,-1,1385,687,0,0
168,337,0,0,0,0,0,0,0,0,0,-1,1392,687,0,0
175,337,0,0,0,0,0,0,0,0,0,-1,1399,687,0,0
182,337,0,0,0,0,0,0,0,0,0,-1,1406,687,0,0
189,337,0,0,0,0,0,0,0,0,0,-1,1413,687,0,0
196,337,0,0,0,0,0,0,0,0,0,-1,1420,687,0,0
203,337,0,0,0,0,0,0,0,0,0,-1,1427,687,0,0
210,337,0,0,0,0,0,0,0,0,0,-1,1434,687,0,0
217,337,0,0,0,0,0,0,0,0,0,-1,1441,687,0,0
224,337,0,0,0,0,0,0,0,0,0,-1,1448,687,0,0
231,337,0,0,0,0,0,0,0,0,0,-1,1455,687,0,0
238,337,0,0,0,0,0,0,0,0,0,-1,1462,687,0,0
245,337,0,0,0,0,0,0,0,0,0,-1,1469,687,0,0
252,337,0,0,0,0,0,0,0,0,0,-1,1476,687,0,0
259,337,0,0,0,0,0,0,0,0,0,-1,1483,687,0,0
266,337,0,0,0,0,0,0,0,0,0,-1,1490,687,0,0
273,337,0,0,0,0,0,0,0,0,0,-1,1497,687,0,0
280,337,0,0,0,0,0,0,0,0,0,-1,1504,687,0,0
287,337,0,0,0,0,0,0,0,0,0,-1,1511,687,0,0
294,337,0,0,0,0,0,0,0,0,0,-1,1518,687,0,0
301,337,0,0,0,0,0,0,0,0,0,-1,1525,687,0,0
308,337,0,0,0,0,0,0,0,0,0,-1,1532,687,0,0
315,337,0,0,0,0,0,0,0,0,0,-1,1539,687,0,0
322,337,0,0,0,0,0,0,0,0,0,-1,1546,687,0,0
329,337,0,0,0,0,0,0,0,0,0,-1,1553,687,0,0
336,337,0,0,0,0,0,0,0,0,0,-1,1560,687,0,0
343,337,0,0,0,0,0,0,0,0,0,-1,1567,687,0,0
350,337,0,0,0,0,0,0,0,0,0,-1,1574,687,0,0
357,337,0,0,0,0,0,0,0,0,0,-1,1581,687,0,0
364,337,0,0,0,0,0,0,0,0,0,-1,1588,687,0,0
371,337,0,0,0,0,0,0,0,0,0,-1,1595,687,0,0
378,337,0,0,0,0,0,0,0,0,0,-1,1602,687,0,0
385,337,0,0,0,0,0,0,0,0,0,-1,1609,687,0,0
392,337,0,0,0,0,0,0,0,0,0,-1,1616,687,0,0
399,337,0,0,0,0,0,0,0,0,0,-1,1623,687,0,0
406,337,0,0,0,0,0,0,0,0,0,-1,1630,687,0,0
413,337,0,0,0,0,0,0,0,0,0,-1,1637,687,0,0
420,337,0,0,0,0,0,0,0,0,0,-1,1644,687,0,0
427,337,0,0,0,0,0,0,0,0,0,-1,1651,687,0,0
434,337,0,0,0,0,0,0,0,0,0,-1,1658,687,0,0
441,337,0,0,0,0,0,0,0,0,0,-1,1665,687,0,0
448,337,0,0,0,0,0,0,0,0,0,-1,1672,687,0,0
455,337,0,0,0,0,0,0,0,0,0,-1,1679,687,0,0
462,337,0,0,0,0,0,0,0,0,0,-1,1686,687,0,0
469,337,0,0,0,0,0,0,0,0,0,-1,1693,687,0,0
476,337,0,0,0,0,0,0,0,0,0,-1,1700,687,0,0
483,337,0,0,0,0,0,0,0,0,0,-1,1707,687,0,0
490,337,0,0,0,0,0,0,0,0,0,-1,1714,687,0,0
497,337,0,0,0,0,0,0,0,0,0,-1,1721,687,0,0
504,337,0,0,0,0,0,0,0,0,0,-1,1728,687,0,0
511,337,0,0,0,0,0,0,0,0,0,-1,1735,687,0,0
518,337,18.0369,1.64581,0,0,0,0,0,0,0,-1,1742,687,18.0368,-1.64581
525,337,16.9935,2.33093,0,0,0,0,0,0,0,-1,1749,687,16.9935,-2.33094
532,337,16.3579,2.91357,0,0,0,0,0,0,0,-1,1756,687,16.3579,-2.91358
539,337,15.7062,3.49115,0,0,0,0,0,0,0,-1,1763,687,15.7062,-3.49114
546,337,15.0701,4.06219,0,0,0,0,0,0,0,-1,1770,687,15.0701,-4.06219
553,337,19.068,3.61273,0,0,0,0,0,0,0,-1,1777,687,19.068,-3.6127
560,337,18.4053,3.62793,0,0,0,0,0,0,0,-1,1784,687,18.4052,-3.6279
567,337,11.9288,1.38776,0,0,0,0,0,0,0,-1,1791,687,11.9288,-1.38777
574,337,10.704,1.19476,0,0,0,0,0,0,0,-1,1798,687,10.704,-1.19478
581,337,8.50427,0.561768,0,0,0,0,0,0,0,-1,1805,687,8.5043,-0.561754
588,337,8.5885,-0.0536499,0,0,0,0,0,0,0,-1,1812,687,8.58844,0.0536788
595,337,12.1854,-1.34119,0,0,0,0,0,0,0,-1,1819,687,12.1854,1.3412
602,337,12.4594,-0.819641,-0.00628875,-0.00185866,-0.00205456,-0.0010525,-0.00709491,-1.19688,0.00442106,0.0449773,1826,687,12.4593,0.81964
609,337,12.484,-0.489258,-0.00341729,-0.00108887,-0.00099494,-0.000721643,-0.00378452,-1.21722,0.00232018,0.0230527,1833,687,12.484,0.489256
616,337,12.4727,-0.244507,-0.00189042,-0.000877793,-0.000565146,-0.000625329,-0.00214289,-1.15067,0.00127244,0.0176814,1840,687,12.4726,0.244506
623,337,12.4667,-0.00323486,-0.00128577,-0.000579068,-0.000436469,-0.000370849,-0.00149399,-1.12567,0.000898269,0.0151526,1847,687,12.4667,0.00320797
630,337,12.4341,0.259216,-0.00100121,-0.000501247,-0.00058082,-0.000118896,-0.00138356,-0.988611,0.000885404,0.0196026,1854,687,12.4341,-0.259195
637,337,12.4471,0.523499,-0.0004431,-0.000267096,-0.000642956,0.000293852,-0.00100405,-0.853411,0.000785848,0.0170141,1861,687,12.4472,-0.523524
644,337,12.4702,0.814453,-0.000314377,-0.000682329,-0.00110169,0.000618591,-0.0016153,-0.702664,0.00133184,0.0105602,1868,687,12.4702,-0.814424
651,337,12.4586,1.05957,-9.37077e-05,-0.00115822,-0.00161046,0.00107017,-0.0023221,-0.625799,0.0020025,0.00935451,1875,687,12.4587,-1.05955
658,337,12.4613,1.31549,0.000654271,-0.00165299,-0.00199243,0.00180295,-0.00280167,-0.522978,0.00267924,0.0117441,1882,687,12.4613,-1.31548
665,337,12.4717,1.58575,0.00212722,-0.00226568,-0.00215263,0.00300619,-0.00314465,-0.387661,0.00355149,0.0139007,1889,687,12.4717,-1.58573
672,337,12.4563,1.81653,0.00467032,-0.00300938,-0.00196736,0.00514498,-0.00348404,-0.236741,0.00501263,0.0181617,1896,687,12.4563,-1.81653
679,337,12.4246,1.9057,0.00863791,-0.00399413,-0.00121827,0.00875433,-0.00411055,-0.0952729,0.00758712,0.0382215,1903,687,12.4246,-1.90571
686,337,13.1564,2.29144,0.0145601,-0.00527453,0.000392056,0.0145679,-0.00528227,0.0197559,0.0118711,0.0481135,1910,687,13.1564,-2.29145
693,337,13.7942,2.97107,0,0,0,0,0,0,0,-1,1917,687,13.7942,-2.97107
700,337,17.2661,2.44379,0,0,0,0,0,0,0,-1,1924,687,17.2661,-2.44378
707,337,17.8453,3.15723,0,0,0,0,0,0,0,-1,1931,687,17.8453,-3.15725
714,337,0,0,0,0,0,0,0,0,0,-1,1938,687,0,0
721,337,0,0,0,0,0,0,0,0,0,-1,1945,687,0,0
728,337,0,0,0,0,0,0,0,0,0,-1,1952,687,0,0
735,337,0,0,0,0,0,0,0,0,0,-1,1959,687,0,0
742,337,0,0,0,0,0,0,0,0,0,-1,1966,687,0,0
749,337,0,0,0,0,0,0,0,0,0,-1,1973,687,0,0
756,337,0,0,0,0,0,0,0,0,0,-1,1980,687,0,0
763,337,0,0,0,0,0,0,0,0,0,-1,1987,687,0,0
770,337,0,0,0,0,0,0,0,0,0,-1,1994,687,0,0
777,337,0,0,0,0,0,0,0,0,0,-1,2001,687,0,0
784,337,0,0,0,0,0,0,0,0,0,-1,2008,687,0,0
791,337,0,0,0,0,0,0,0,0,0,-1,2015,687,0,0
798,337,0,0,0,0,0,0,0,0,0,-1,2022,687,0,0
805,337,0,0,0,0,0,0,0,0,0,-1,2029,687,0,0
812,337,0,0,0,0,0,0,0,0,0,-1,2036,687,0,0
-700,330,0,0,0,0,0,0,0,0,0,-1,524,694,0,0
-693,330,0,0,0,0,0,0,0,0,0,-1,531,694,0,0
-686,330,0,0,0,0,0,0,0,0,0,-1,538,694,0,0
-679,330,0,0,0,0,0,0,0,0,0,-1,545,694,0,0
-672,330,0,0,0,0,0,0,0,0,0,-1,552,694,0,0
-665,330,0,0,0,0,0,0,0,0,0,-1,559,694,0,0
-658,330,0,0,0,0,0,0,0,0,0,-1,566,694,0,0
-651,330,0,0,0,0,0,0,0,0,0,-1,573,694,0,0
-644,330,0,0,0,0,0,0,0,0,0,-1,580,694,0,0
-637,330,0,0,0,0,0,0,0,0,0,-1,587,694,0,0
-630,330,0,0,0,0,0,0,0,0,0,-1,594,694,0,0
-623,330,0,0,0,0,0,0,0,0,0,-1,601,694,0,0
-616,330,0,0,0,0,0,0,0,0,0,-1,608,694,0,0
-609,330,0,0,0,0,0,0,0,0,0,-1,615,694,0,0
-602,330,0,0,0,0,0,0,0,0,0,-1,622,694,0,0
-595,330,-4.67883,1.65515,0,0,0,0,0,0,0,-1,629,694,-4.67881,-1.65515
-588,330,-8.5047,2.67346,0,0,0,0,0,0,0,-1,636,694,-8.50469,-2.67348
-581,330,-7.78009,1.80542,0,0,0,0,0,0,0,-1,643,694,-7.78008,-1.80539
-574,330,-6.66821,1.24548,0,0,0,0,0,0,0,-1,650,694,-6.66821,-1.24549
-567,330,-6.61774,0.970642,0,0,0,0,0,0,0,-1,657,694,-6.61773,-0.970634
-560,330,-6.61169,0.70459,-0.0144081,-0.0330886,-0.000131574,-0.0144072,-0.0330895,-0.00704292,0.0191573,0.0455241,664,694,-6.61168,-0.704602
-553,330,-6.41876,0.330444,-0.0101056,-0.0262643,1.64383e-06,-0.0101056,-0.0262643,0.00010173,0.0152973,0.0397612,671,694,-6.41874,-0.330459
-546,330,-6.31598,-0.0478516,-0.00679628,-0.0203208,9.6045e-05,-0.0067956,-0.0203214,0.00710109,0.0119451,0.0251971,678,694,-6.31596,0.0478411
-539,330,-6.35181,-0.331299,-0.00429466,-0.0152441,0.000168575,-0.00429207,-0.0152467,0.0153909,0.00907851,0.0116536,685,694,-6.35181,0.331308
-532,330,-6.42792,-0.57605,-0.00237379,-0.0108758,0.000188134,-0.00236963,-0.01088,0.0221137,0.00660666,0.0102578,692,694,-6.42793,0.57602
-525,330,-6.43732,-0.83844,-0.000956871,-0.00721343,0.000191112,-0.000951039,-0.00721926,0.0305079,0.00452923,0.0104572,699,694,-6.43731,0.838444
-518,330,-6.42847,-1.05927,0.00022558,-0.0043748,0.000245443,0.000238638,-0.00438786,0.0531516,0.00300794,0.0129415,706,694,-6.42849,1.05924
-511,330,-6.44769,-1.31195,0.000830286,-0.00238982,0.000727074,0.000986842,-0.00254638,0.212085,0.0021051,0.0182803,713,694,-6.44768,1.31195
-504,330,-6.42438,-1.5719,0.000587644,-0.00126374,0.00191094,0.0017853,-0.0024614,0.559846,0.00246217,0.0173449,720,694,-6.42435,1.5719
-497,330,-6.4198,-1.80255,-0.000218353,-0.000526607,0.00350066,0.00313157,-0.00387653,0.763398,0.00405374,0.0124409,727,694,-6.41983,1.80254
-490,330,-6.42474,-2.06628,-0.00097665,-0.000545101,0.00586055,0.00510364,-0.00662539,0.803799,0.00679073,0.0125388,734,694,-6.42477,2.06626
-483,330,-6.4339,-2.32635,-0.00137237,-0.00114858,0.00862957,0.00736983,-0.00989077,0.791881,0.0100008,0.0124735,741,694,-6.43389,2.32636
-476,330,-6.44635,-2.57025,-0.000160629,-0.00199771,0.0107264,0.0096865,-0.0118448,0.742686,0.0124519,0.0221091,748,694,-6.44635,2.57027
-469,330,-6.28387,-2.6897,0.000583884,-0.00279688,0.0135057,0.0125046,-0.0147176,0.723142,0.015734,0.0420159,755,694,-6.28386,2.68972
-462,330,-5.98737,-3.07245,0,0,0,0,0,0,0,-1,762,694,-5.98738,3.07247
-455,330,-5.04254,-1.79303,0,0,0,0,0,0,0,-1,769,694,-5.04252,1.79305
-448,330,-4.89886,-1.66156,0,0,0,0,0,0,0,-1,776,694,-4.89886,1.66157
-441,330,-5.30676,-2.34045,0,0,0,0,0,0,0,-1,783,694,-5.30679,2.34048
-434,330,-7.20428,1.00024,0,0,0,0,0,0,0,-1,790,694,-7.20431,-1.00027
-427,330,-16.0428,2.89258,0,0,0,0,0,0,0,-1,797,694,-16.0428,-2.89259
-420,330,-15.2923,3.32672,0,0,0,0,0,0,0,-1,804,694,-15.2923,-3.32675
-413,330,-10.4567,2.56183,0,0,0,0,0,0,0,-1,811,694,-10.4567,-2.56182
-406,330,-1.65375,-1.74371,0,0,0,0,0,0,0,-1,818,694,-1.65375,1.74371
-399,330,0,0,0,0,0,0,0,0,0,-1,825,694,0,0
-392,330,0,0,0,0,0,0,0,0,0,-1,832,694,0,0
-385,330,0,0,0,0,0,0,0,0,0,-1,839,694,0,0
-378,330,0,0,0,0,0,0,0,0,0,-1,846,694,0,0
-371,330,0,0,0,0,0,0,0,0,0,-1,853,694,0,0
-364,330,0,0,0,0,0,0,0,0,0,-1,860,694,0,0
-357,330,0,0,0,0,0,0,0,0,0,-1,867,694,0,0
-350,330,0,0,0,0,0,0,0,0,0,-1,874,694,0,0
-343,330,0,0,0,0,0,0,0,0,0,-1,881,694,0,0
-336,330,0,0,0,0,0,0,0,0,0,-1,888,694,0,0
-329,330,0,0,0,0,0,0,0,0,0,-1,895,694,0,0
-322,330,0,0,0,0,0,0,0,0,0,-1,902,694,0,0
-315,330,0,0,0,0,0,0,0,0,0,-1,909,694,0,0
-308,330,0,0,0,0,0,0,0,0,0,-1,916,694,0,0
-301,330,0,0,0,0,0,0,0,0,0,-1,923,694,0,0
-294,330,0,0,0,0,0,0,0,0,0,-1,930,694,0,0
-287,330,0,0,0,0,0,0,0,0,0,-1,937,694,0,0
-280,330,0,0,0,0,0,0,0,0,0,-1,944,694,0,0
-273,330,0,0,0,0,0,0,0,0,0,-1,951,694,0,0
-266,330,0,0,0,0,0,0,0,0,0,-1,958,694,0,0
-259,330,0,0,0,0,0,0,0,0,0,-1,965,694,0,0
-252,330,0,0,0,0,0,0,0,0,0,-1,972,694,0,0
-245,330,0,0,0,0,0,0,0,0,0,-1,979,694,0,0
-238,330,0,0,0,0,0,0,0,0,0,-1,986,694,0,0
-231,330,0,0,0,0,0,0,0,0,0,-1,993,694,0,0
-224,330,0,0,0,0,0,0,0,0,0,-1,1000,694,0,0
-217,330,0,0,0,0,0,0,0,0,0,-1,1007,694,0,0
-210,330,0,0,0,0,0,0,0,0,0,-1,1014,694,0,0
-203,330,0,0,0,0,0,0,0,0,0,-1,1021,694,0,0
-196,330,0,0,0,0,0,0,0,0,0,-1,1028,694,0,0
-189,330,0,0,0,0,0,0,0,0,0,-1,1035,694,0,0
-182,330,0,0,0,0,0,0,0,0,0,-1,1042,694,0,0
-175,330,0,0,0,0,0,0,0,0,0,-1,1049,694,0,0
-168,330,0,0,0,0,0,0,0,0,0,-1,1056,694,0,0
-161,330,0,0,0,0,0,0,0,0,0,-1,1063,694,0,0
-154,330,0,0,0,0,0,0,0,0,0,-1,1070,694,0,0
-147,330,0,0,0,0,0,0,0,0,0,-1,1077,694,0,0
-140,330,0,0,0,0,0,0,0,0,0,-1,1084,694,0,0
-133,330,0,0,0,0,0,0,0,0,0,-1,1091,694,0,0
-126,330,0,0,0,0,0,0,0,0,0,-1,1098,694,0,0
-119,330,0,0,0,0,0,0,0,0,0,-1,1105,694,0,0
-112,330,0,0,0,0,0,0,0,0,0,-1,1112,694,0,0
-105,330,0,0,0,0,0,0,0,0,0,-1,1119,694,0,0
-98,330,0,0,0,0,0,0,0,0,0,-1,1126,694,0,0
-91,330,0,0,0,0,0,0,0,0,0,-1,1133,694,0,0
-84,330,0,0,0,0,0,0,0,0,0,-1,1140,694,0,0
-77,330,0,0,0,0,0,0,0,0,0,-1,1147,694,0,0
-70,330,0,0,0,0,0,0,0,0,0,-1,1154,694,0,0
-63,330,0,0,0,0,0,0,0,0,0,-1,1161,694,0,0
-56,330,0,0,0,0,0,0,0,0,0,-1,1168,694,0,0
-49,330,0,0,0,0,0,0,0,0,0,-1,1175,694,0,0
-42,330,0,0,0,0,0,0,0,0,0,-1,1182,694,0,0
-35,330,0,0,0,0,0,0,0,0,0,-1,1189,694,0,0
-28,330,0,0,0,0,0,0,0,0,0,-1,1196,694,0,0
-21,330,0,0,0,0,0,0,0,0,0,-1,1203,694,0,0
-14,330,0,0,0,0,0,0,0,0,0,-1,1210,694,0,0
-7,330,0,0,0,0,0,0,0,0,0,-1,1217,694,0,0
0,330,0,0,0,0,0,0,0,0,0,-1,1224,694,0,0
7,330,0,0,0,0,0,0,0,0,0,-1,1231,694,0,0
14,330,0,0,0,0,0,0,0,0,0,-1,1238,694,0,0
21,330,0,0,0,0,0,0,0,0,0,-1,1245,694,0,0
28,330,0,0,0,0,0,0,0,0,0,-1,1252,694,0,0
35,330,0,0,0,0,0,0,0,0,0,-1,1259,694,0,0
42,330,0,0,0,0,0,0,0,0,0,-1,1266,694,0,0
49,330,0,0,0,0,0,0,0,0,0,-1,1273,694,0,0
56,330,0,0,0,0,0,0,0,0,0,-1,1280,694,0,0
63,330,0,0,0,0,0,0,0,0,0,-1,1287,694,0,0
70,330,0,0,0,0,0,0,0,0,0,-1,1294,694,0,0
77,330,0,0,0,0,0,0,0,0,0,-1,1301,694,0,0
84,330,0,0,0,0,0,0,0,0,0,-1,1308,694,0,0
91,330,0,0,0,0,0,0,0,0,0,-1,1315,694,0,0
98,330,0,0,0,0,0,0,0,0,0,-1,1322,694,0,0
105,330,0,0,0,0,0,0,0,0,0,-1,1329,694,0,0
112,330,0,0,0,0,0,0,0,0,0,-1,1336,694,0,0
119,330,0,0,0,0,0,0,0,0,0,-1,1343,694,0,0
126,330,0,0,0,0,0,0,0,0,0,-1,1350,694,0,0
133,330,0,0,0,0,0,0,0,0,0,-1,1357,694,0,0
140,330,0,0,0,0,0,0,0,0,0,-1,1364,694,0,0
147,330,0,0,0,0,0,0,0,0,0,-1,1371,694,0,0
154,330,0,0,0,0,0,0,0,0,0,-1,1378,694,0,0
161,330,0,0,0,0,0,0,0,0,0,-1,1385,694,0,0
168,330,0,0,0,0,0,0,0,0,0,-1,1392,694,0,0
175,330,0,0,0,0,0,0,0,0,0,-1,1399,694,0,0
182,330,0,0,0,0,0,0,0,0,0,-1,1406,694,0,0
189,330,0,0,0,0,0,0,0,0,0,-1,1413,694,0,0
196,330,0,0,0,0,0,0,0,0,0,-1,1420,694,0,0
203,330,0,0,0,0,0,0,0,0,0,-1,1427,694,0,0
210,330,0,0,0,0,0,0,0,0,0,-1,1434,694,0,0
217,330,0,0,0,0,0,0,0,0,0,-1,1441,694,0,0
224,330,0,0,0,0,0,0,0,0,0,-1,1448,694,0,0
231,330,0,0,0,0,0,0,0,0,0,-1,1455,694,0,0
238,330,0,0,0,0,0,0,0,0,0,-1,1462,694,0,0
245,330,0,0,0,0,0,0,0,0,0,-1,1469,694,0,0
252,330,0,0,0,0,0,0,0,0,0,-1,1476,694,0,0
259,330,0,0,0,0,0,0,0,0,0,-1,1483,694,0,0
266,330,0,0,0,0,0,0,0,0,0,-1,1490,694,0,0
273,330,0,0,0,0,0,0,0,0,0,-1,1497,694,0,0
280,330,0,0,0,0,0,0,0,0,0,-1,1504,694,0,0
287,330,0,0,0,0,0,0,0,0,0,-1,1511,694,0,0
294,330,0,0,0,0,0,0,0,0,0,-1,1518,694,0,0
301,330,0,0,0,0,0,0,0,0,0,-1,1525,694,0,0
308,330,0,0,0,0,0,0,0,0,0,-1,1532,694,0,0
315,330,0,0,0,0,0,0,0,0,0,-1,1539,694,0,0
322,330,0,0,0,0,0,0,0,0,0,-1,1546,694,0,0
329,330,0,0,0,0,0,0,0,0,0,-1,1553,694,0,0
336,330,0,0,0,0,0,0,0,0,0,-1,1560,694,0,0
343,330,0,0,0,0,0,0,0,0,0,-1,1567,694,0,0
350,330,0,0,0,0,0,0,0,0,0,-1,1574,694,0,0
357,330,0,0,0,0,0,0,0,0,0,-1,1581,694,0,0
364,330,0,0,0,0,0,0,0,0,0,-1,1588,694,0,0
371,330,0,0,0,0,0,0,0,0,0,-1,1595,694,0,0
378,330,0,0,0,0,0,0,0,0,0,-1,1602,694,0,0
385,330,0,0,0,0,0,0,0,0,0,-1,1609,694,0,0
392,330,0,0,0,0,0,0,0,0,0,-1,1616,694,0,0
399,330,0,0,0,0,0,0,0,0,0,-1,1623,694,0,0
406,330,0,0,0,0,0,0,0,0,0,-1,1630,694,0,0
413,330,0,0,0,0,0,0,0,0,0,-1,1637,694,0,0
420,330,0,0,0,0,0,0,0,0,0,-1,1644,694,0,0
427,330,0,0,0,0,0,0,0,0,0,-1,1651,694,0,0
434,330,0,0,0,0,0,0,0,0,0,-1,1658,694,0,0
441,330,0,0,0,0,0,0,0,0,0,-1,1665,694,0,0
448,330,0,0,0,0,0,0,0,0,0,-1,1672,694,0,0
455,330,0,0,0,0,0,0,0,0,0,-1,1679,694,0,0
462,330,0,0,0,0,0,0,0,0,0,-1,1686,694,0,0
469,330,0,0,0,0,0,0,0,0,0,-1,1693,694,0,0
476,330,0,0,0,0,0,0,0,0,0,-1,1700,694,0,0
483,330,0,0,0,0,0,0,0,0,0,-1,1707,694,0,0
490,330,0,0,0,0,0,0,0,0,0,-1,1714,694,0,0
497,330,0,0,0,0,0,0,0,0,0,-1,1721,694,0,0
504,330,0,0,0,0,0,0,0,0,0,-1,1728,694,0,0
511,330,0,0,0,0,0,0,0,0,0,-1,1735,694,0,0
518,330,0,0,0,0,0,0,0,0,0,-1,1742,694,0,0
525,330,17.5052,1.86627,0,0,0,0,0,0,0,-1,1749,694,17.5052,-1.86629
532,330,16.8772,2.56702,0,0,0,0,0,0,0,-1,1756,694,16.8772,-2.567
539,330,16.1982,5.49628,0,0,0,0,0,0,0,-1,1763,694,16.1983,-5.49626
546,330,20.1758,3.75854,0,0,0,0,0,0,0,-1,1770,694,20.1758,-3.75856
553,330,19.3512,3.78687,0,0,0,0,0,0,0,-1,1777,694,19.3512,-3.78684
560,330,18.6956,3.84155,0,0,0,0,0,0,0,-1,1784,694,18.6956,-3.84155
567,330,18.0321,3.98578,0,0,0,0,0,0,0,-1,1791,694,18.0321,-3.98576
574,330,12.0454,2.1662,0,0,0,0,0,0,0,-1,1798,694,12.0455,-2.16618
581,330,11.4215,4.50836,0,0,0,0,0,0,0,-1,1805,694,11.4215,-4.50837
588,330,6.45667,-0.0630493,0,0,0,0,0,0,0,-1,1812,694,6.45661,0.0630695
595,330,8.23193,-0.258484,0,0,0,0,0,0,0,-1,1819,694,8.23188,0.258459
602,330,12.3911,-1.11615,0,0,0,0,0,0,0,-1,1826,694,12.3911,1.11615
609,330,12.6317,-0.546143,-0.00500749,0.00103016,-0.0015389,0.00139978,-0.0053771,-1.33508,0.00413115,0.032618,1833,694,12.6317,0.546153
616,330,12.7202,-0.243652,-0.00280514,0.000405134,-0.000782295,0.00058562,-0.00298563,-1.34405,0.00221162,0.0120946,1840,694,12.7202,0.243663
623,330,12.7241,0.0098877,-0.00161773,-2.45433e-05,-0.000361341,5.35797e-05,-0.00169585,-1.35787,0.00114884,0.0123364,1847,694,12.7241,-0.00988918
630,330,12.7255,0.278687,-0.000969024,-0.000284183,-0.000354485,-0.000133743,-0.00111946,-1.16944,0.000705964,0.0130103,1854,694,12.7255,-0.278674
637,330,12.7454,0.551514,-0.00024008,-0.000141852,-0.000376458,0.000188682,-0.000570614,-0.850263,0.000456492,0.012239,1861,694,12.7453,-0.551498
644,330,12.7388,0.826599,0.000133145,-0.000579551,-0.000732671,0.000591531,-0.00103794,-0.559057,0.000952468,0.00758236,1868,694,12.7388,-0.826601
651,330,12.7131,1.06897,0.00049083,-0.00107535,-0.00113002,0.00108257,-0.0016671,-0.482395,0.00159943,0.0104353,1875,694,12.7131,-1.06898
658,330,12.7074,1.32501,0.00124158,-0.00150589,-0.00140855,0.00183537,-0.00209969,-0.398956,0.00227362,0.0116368,1882,694,12.7074,-1.325
665,330,12.7189,1.6131,0.00257634,-0.00204689,-0.00148469,0.00301206,-0.00248261,-0.285462,0.00317726,0.00995588,1889,694,12.7188,-1.61307
672,330,12.7415,1.87604,0.00473208,-0.00269112,-0.00123952,0.00493358,-0.00289262,-0.161156,0.00456939,0.0130072,1896,694,12.7414,-1.87607
679,330,12.6353,2.02399,0.00795437,-0.00353023,-0.000517224,0.00797761,-0.00355347,-0.0449152,0.00681885,0.0261877,1903,694,12.6353,-2.02396
686,330,12.942,2.30566,0.0126577,-0.00462379,0.000896554,0.012704,-0.00467018,0.0516946,0.0103823,0.0433965,1910,694,12.942,-2.30565
693,330,13.2556,2.47894,0,0,0,0,0,0,0,-1,1917,694,13.2556,-2.47892
700,330,16.7338,2.16406,0,0,0,0,0,0,0,-1,1924,694,16.7337,-2.16404
707,330,17.0448,2.79681,0,0,0,0,0,0,0,-1,1931,694,17.0448,-2.79682
714,330,17.3251,3.49585,0,0,0,0,0,0,0,-1,1938,694,17.325,-3.49584
721,330,0,0,0,0,0,0,0,0,0,-1,1945,694,0,0
728,330,0,0,0,0,0,0,0,0,0,-1,1952,694,0,0
735,330,0,0,0,0,0,0,0,0,0,-1,1959,694,0,0
742,330,0,0,0,0,0,0,0,0,0,-1,1966,694,0,0
749,330,0,0,0,0,0,0,0,0,0,-1,1973,694,0,0
756,330,0,0,0,0,0,0,0,0,0,-1,1980,694,0,0
763,330,0,0,0,0,0,0,0,0,0,-1,1987,694,0,0
770,330,0,0,0,0,0,0,0,0,0,-1,1994,694,0,0
777,330,0,0,0,0,0,0,0,0,0,-1,2001,694,0,0
784,330,0,0,0,0,0,0,0,0,0,-1,2008,694,0,0
791,330,0,0,0,0,0,0,0,0,0,-1,2015,694,0,0
798,330,0,0,0,0,0,0,0,0,0,-1,2022,694,0,0
805,330,0,0,0,0,0,0,0,0,0,-1,2029,694,0,0
812,330,0,0,0,0,0,0,0,0,0,-1,2036,694,0,0
-700,323,0,0,0,0,0,0,0,0,0,-1,524,701,0,0
-693,323,0,0,0,0,0,0,0,0,0,-1,531,701,0,0
-686,323,0,0,0,0,0,0,0,0,0,-1,538,701,0,0
-679,323,0,0,0,0,0,0,0,0,0,-1,545,701,0,0
-672,323,0,0,0,0,0,0,0,0,0,-1,552,701,0,0
-665,323,0,0,0,0,0,0,0,0,0,-1,559,701,0,0
-658,323,0,0,0,0,0,0,0,0,0,-1,566,701,0,0
-651,323,0,0,0,0,0,0,0,0,0,-1,573,701,0,0
-644,323,0,0,0,0,0,0,0,0,0,-1,580,701,0,0
-637,323,0,0,0,0,0,0,0,0,0,-1,587,701,0,0
-630,323,0,0,0,0,0,0,0,0,0,-1,594,701,0,0
-623,323,0,0,0,0,0,0,0,0,0,-1,601,701,0,0
-616,323,0,0,0,0,0,0,0,0,0,-1,608,701,0,0
-609,323,0,0,0,0,0,0,0,0,0,-1,615,701,0,0
-602,323,-4.15833,2.12256,0,0,0,0,0,0,0,-1,622,701,-4.1583,-2.12257
-595,323,-4.052,1.79156,0,0,0,0,0,0,0,-1,629,701,-4.05198,-1.79158
-588,323,-4.07019,1.94543,0,0,0,0,0,0,0,-1,636,701,-4.07019,-1.94542
-581,323,-6.63727,0.562805,0,0,0,0,0,0,0,-1,643,701,-6.63728,-0.56279
-574,323,-6.15887,0.426697,0,0,0,0,0,0,0,-1,650,701,-6.15887,-0.426727
-567,323,-6.8894,-0.0759888,0,0,0,0,0,0,0,-1,657,701,-6.88942,0.0759632
-560,323,-6.81104,0.335022,0,0,0,0,0,0,0,-1,664,701,-6.81105,-0.335048
-553,323,-6.67358,0.0766602,-0.0044565,-0.0174669,0.00113862,-0.0043576,-0.0175658,0.0866383,0.010562,0.0325508,671,701,-6.67356,-0.0766844
-546,323,-6.65009,-0.106567,-0.00273157,-0.0133253,0.00101423,-0.00263534,-0.0134216,0.0945933,0.00821146,0.011793,678,701,-6.6501,0.10655
-539,323,-6.66003,-0.311951,-0.00145637,-0.00991804,0.000881615,-0.00136549,-0.0100089,0.102719,0.00626723,0.0109405,685,701,-6.66005,0.311921
-532,323,-6.67249,-0.577209,-0.000471392,-0.00701156,0.000708804,-0.000395456,-0.0070875,0.106726,0.00459885,0.0100575,692,701,-6.67249,0.577211
-525,323,-6.68689,-0.828125,0.000232782,-0.00459366,0.00057453,0.00030023,-0.0046611,0.116863,0.00321216,0.0077882,699,701,-6.68688,0.82814
-518,323,-6.68109,-1.04486,0.000847131,-0.00278258,0.00064227,0.000957428,-0.00289288,0.170071,0.0023147,0.00881592,706,701,-6.68111,1.04485
-511,323,-6.69696,-1.29529,0.00087758,-0.00167072,0.0014352,0.00152261,-0.00231576,0.422386,0.0022318,0.0122044,713,701,-6.69694,1.29529
-504,323,-6.69971,-1.54108,0.000163229,-0.00114893,0.00324281,0.00281566,-0.00380137,0.685586,0.00383445,0.0133951,720,701,-6.69971,1.54109
-497,323,-6.68298,-1.78528,-0.00113587,-0.000863327,0.00568798,0.00469001,-0.00668921,0.797375,0.00660351,0.0110792,727,701,-6.68298,1.78527
-490,323,-6.69873,-2.05847,-0.00220326,-0.00113848,0.00912259,0.00746725,-0.010809,0.814545,0.0106104,0.0120796,734,701,-6.69872,2.05849
-483,323,-6.70227,-2.31323,-0.00284753,-0.00182114,0.0128625,0.0105384,-0.0152071,0.805337,0.0149454,0.0167873,741,701,-6.70229,2.31325
-476,323,-6.58649,-2.5788,-0.00173177,-0.00277298,0.0156345,0.0133908,-0.0178956,0.768755,0.0181255,0.038722,748,701,-6.58646,2.57881
-469,323,-6.12762,-2.52179,0,0,0,0,0,0,0,-1,755,701,-6.12763,2.52178
-462,323,-5.29431,-1.45697,0,0,0,0,0,0,0,-1,762,701,-5.29431,1.45699
-455,323,-5.0658,-1.36639,0,0,0,0,0,0,0,-1,769,701,-5.06578,1.3664
-448,323,-4.91608,-1.59601,0,0,0,0,0,0,0,-1,776,701,-4.91606,1.59604
-441,323,-11.7404,3.01556,0,0,0,0,0,0,0,-1,783,701,-11.7404,-3.01556
-434,323,-15.3158,2.479,0,0,0,0,0,0,0,-1,790,701,-15.3158,-2.47898
-427,323,-15.4075,2.98248,0.0633912,-0.0150076,-0.00890817,0.0643907,-0.0160071,-0.111729,0.0491397,0.0420243,797,701,-15.4075,-2.98248
-420,323,-14.8839,3.49579,0,0,0,0,0,0,0,-1,804,701,-14.8839,-3.49579
-413,323,-14.0645,4.22607,0,0,0,0,0,0,0,-1,811,701,-14.0645,-4.22605
-406,323,0,0,0,0,0,0,0,0,0,-1,818,701,0,0
-399,323,0,0,0,0,0,0,0,0,0,-1,825,701,0,0
-392,323,0,0,0,0,0,0,0,0,0,-1,832,701,0,0
-385,323,0,0,0,0,0,0,0,0,0,-1,839,701,0,0
-378,323,0,0,0,0,0,0,0,0,0,-1,846,701,0,0
-371,323,0,0,0,0,0,0,0,0,0,-1,853,701,0,0
-364,323,0,0,0,0,0,0,0,0,0,-1,860,701,0,0
-357,323,0,0,0,0,0,0,0,0,0,-1,867,701,0,0
-350,323,0,0,0,0,0,0,0,0,0,-1,874,701,0,0
-343,323,0,0,0,0,0,0,0,0,0,-1,881,701,0,0
-336,323,0,0,0,0,0,0,0,0,0,-1,888,701,0,0
-329,323,0,0,0,0,0,0,0,0,0,-1,895,701,0,0
-322,323,0,0,0,0,0,0,0,0,0,-1,902,701,0,0
-315,323,0,0,0,0,0,0,0,0,0,-1,909,701,0,0
-308,323,0,0,0,0,0,0,0,0,0,-1,916,701,0,0
-301,323,0,0,0,0,0,0,0,0,0,-1,923,701,0,0
-294,323,0,0,0,0,0,0,0,0,0,-1,930,701,0,0
-287,323,0,0,0,0,0,0,0,0,0,-1,937,701,0,0
-280,323,0,0,0,0,0,0,0,0,0,-1,944,701,0,0
-273,323,0,0,0,0,0,0,0,0,0,-1,951,701,0,0
-266,323,0,0,0,0,0,0,0,0,0,-1,958,701,0,0
-259,323,0,0,0,0,0,0,0,0,0,-1,965,701,0,0
-252,323,0,0,0,0,0,0,0,0,0,-1,972,701,0,0
-245,323,0,0,0,0,0,0,0,0,0,-1,979,701,0,0
-238,323,0,0,0,0,0,0,0,0,0,-1,986,701,0,0
-231,323,0,0,0,0,0,0,0,0,0,-1,993,701,0,0
-224,323,0,0,0,0,0,0,0,0,0,-1,1000,701,0,0
-217,323,0,0,0,0,0,0,0,0,0,-1,1007,701,0,0
-210,323,0,0,0,0,0,0,0,0,0,-1,1014,701,0,0
-203,323,0,0,0,0,0,0,0,0,0,-1,1021,701,0,0
-196,323,0,0,0,0,0,0,0,0,0,-1,1028,701,0,0
-189,323,0,0,0,0,0,0,0,0,0,-1,1035,701,0,0
-182,323,0,0,0,0,0,0,0,0,0,-1,1042,701,0,0
-175,323,0,0,0,0,0,0,0,0,0,-1,1049,701,0,0
-168,323,0,0,0,0,0,0,0,0,0,-1,1056,701,0,0
-161,323,0,0,0,0,0,0,0,0,0,-1,1063,701,0,0
-154,323,0,0,0,0,0,0,0,0,0,-1,1070,701,0,0
-147,323,0,0,0,0,0,0,0,0,0,-1,1077,701,0,0
-140,323,0,0,0,0,0,0,0,0,0,-1,1084,701,0,0
-133,323,0,0,0,0,0,0,0,0,0,-1,1091,701,0,0
-126,323,0,0,0,0,0,0,0,0,0,-1,1098,701,0,0
-119,323,0,0,0,0,0,0,0,0,0,-1,1105,701,0,0
-112,323,0,0,0,0,0,0,0,0,0,-1,1112,701,0,0
-105,323,0,0,0,0,0,0,0,0,0,-1,1119,701,0,0
-98,323,0,0,0,0,0,0,0,0,0,-1,1126,701,0,0
-91,323,0,0,0,0,0,0,0,0,0,-1,1133,701,0,0
-84,323,0,0,0,0,0,0,0,0,0,-1,1140,701,0,0
-77,323,0,0,0,0,0,0,0,0,0,-1,1147,701,0,0
-70,323,0,0,0,0,0,0,0,0,0,-1,1154,701,0,0
-63,323,0,0,0,0,0,0,0,0,0,-1,1161,701,0,0
-56,323,0,0,0,0,0,0,0,0,0,-1,1168,701,0,0
-49,323,0,0,0,0,0,0,0,0,0,-1,1175,701,0,0
-42,323,0,0,0,0,0,0,0,0,0,-1,1182,701,0,0
-35,323,0,0,0,0,0,0,0,0,0,-1,1189,701,0,0
-28,323,0,0,0,0,0,0,0,0,0,-1,1196,701,0,0
-21,323,0,0,0,0,0,0,0,0,0,-1,1203,701,0,0
-14,323,0,0,0,0,0,0,0,0,0,-1,1210,701,0,0
-7,323,0,0,0,0,0,0,0,0,0,-1,1217,701,0,0
0,323,0,0,0,0,0,0,0,0,0,-1,1224,701,0,0
7,323,0,0,0,0,0,0,0,0,0,-1,1231,701,0,0
14,323,0,0,0,0,0,0,0,0,0,-1,1238,701,0,0
21,323,0,0,0,0,0,0,0,0,0,-1,1245,701,0,0
28,323,0,0,0,0,0,0,0,0,0,-1,1252,701,0,0
35,323,0,0,0,0,0,0,0,0,0,-1,1259,701,0,0
42,323,0,0,0,0,0,0,0,0,0,-1,1266,701,0,0
49,323,0,0,0,0,0,0,0,0,0,-1,1273,701,0,0
56,323,0,0,0,0,0,0,0,0,0,-1,1280,701,0,0
63,323,0,0,0,0,0,0,0,0,0,-1,1287,701,0,0
70,323,0,0,0,0,0,0,0,0,0,-1,1294,701,0,0
77,323,0,0,0,0,0,0,0,0,0,-1,1301,701,0,0
84,323,0,0,0,0,0,0,0,0,0,-1,1308,701,0,0
91,323,0,0,0,0,0,0,0,0,0,-1,1315,701,0,0
98,323,0,0,0,0,0,0,0,0,0,-1,1322,701,0,0
105,323,0,0,0,0,0,0,0,0,0,-1,1329,701,0,0
112,323,0,0,0,0,0,0,0,0,0,-1,1336,701,0,0
119,323,0,0,0,0,0,0,0,0,0,-1,1343,701,0,0
126,323,0,0,0,0,0,0,0,0,0,-1,1350,701,0,0
133,323,0,0,0,0,0,0,0,0,0,-1,1357,701,0,0
140,323,0,0,0,0,0,0,0,0,0,-1,1364,701,0,0
147,323,0,0,0,0,0,0,0,0,0,-1,1371,701,0,0
154,323,0,0,0,0,0,0,0,0,0,-1,1378,701,0,0
161,323,0,0,0,0,0,0,0,0,0,-1,1385,701,0,0
168,323,0,0,0,0,0,0,0,0,0,-1,1392,701,0,0
175,323,0,0,0,0,0,0,0,0,0,-1,1399,701,0,0
182,323,0,0,0,0,0,0,0,0,0,-1,1406,701,0,0
189,323,0,0,0,0,0,0,0,0,0,-1,1413,701,0,0
196,323,0,0,0,0,0,0,0,0,0,-1,1420,701,0,0
203,323,0,0,0,0,0,0,0,0,0,-1,1427,701,0,0
210,323,0,0,0,0,0,0,0,0,0,-1,1434,701,0,0
217,323,0,0,0,0,0,0,0,0,0,-1,1441,701,0,0
224,323,0,0,0,0,0,0,0,0,0,-1,1448,701,0,0
231,323,0,0,0,0,0,0,0,0,0,-1,1455,701,0,0
238,323,0,0,0,0,0,0,0,0,0,-1,1462,701,0,0
245,323,0,0,0,0,0,0,0,0,0,-1,1469,701,0,0
252,323,0,0,0,0,0,0,0,0,0,-1,1476,701,0,0
259,323,0,0,0,0,0,0,0,0,0,-1,1483,701,0,0
266,323,0,0,0,0,0,0,0,0,0,-1,1490,701,0,0
273,323,0,0,0,0,0,0,0,0,0,-1,1497,701,0,0
280,323,0,0,0,0,0,0,0,0,0,-1,1504,701,0,0
287,323,0,0,0,0,0,0,0,0,0,-1,1511,701,0,0
294,323,0,0,0,0,0,0,0,0,0,-1,1518,701,0,0
301,323,0,0,0,0,0,0,0,0,0,-1,1525,701,0,0
308,323,0,0,0,0,0,0,0,0,0,-1,1532,701,0,0
315,323,0,0,0,0,0,0,0,0,0,-1,1539,701,0,0
322,323,0,0,0,0,0,0,0,0,0,-1,1546,701,0,0
329,323,0,0,0,0,0,0,0,0,0,-1,1553,701,0,0
336,323,0,0,0,0,0,0,0,0,0,-1,1560,701,0,0
343,323,0,0,0,0,0,0,0,0,0,-1,1567,701,0,0
350,323,0,0,0,0,0,0,0,0,0,-1,1574,701,0,0
357,323,0,0,0,0,0,0,0,0,0,-1,1581,701,0,0
364,323,0,0,0,0,0,0,0,0,0,-1,1588,701,0,0
371,323,0,0,0,0,0,0,0,0,0,-1,1595,701,0,0
378,323,0,0,0,0,0,0,0,0,0,-1,1602,701,0,0
385,323,0,0,0,0,0,0,0,0,0,-1,1609,701,0,0
392,323,0,0,0,0,0,0,0,0,0,-1,1616,701,0,0
399,323,0,0,0,0,0,0,0,0,0,-1,1623,701,0,0
406,323,0,0,0,0,0,0,0,0,0,-1,1630,701,0,0
413,323,0,0,0,0,0,0,0,0,0,-1,1637,701,0,0
420,323,0,0,0,0,0,0,0,0,0,-1,1644,701,0,0
427,323,0,0,0,0,0,0,0,0,0,-1,1651,701,0,0
434,323,0,0,0,0,0,0,0,0,0,-1,1658,701,0,0
441,323,0,0,0,0,0,0,0,0,0,-1,1665,701,0,0
448,323,0,0,0,0,0,0,0,0,0,-1,1672,701,0,0
455,323,0,0,0,0,0,0,0,0,0,-1,1679,701,0,0
462,323,0,0,0,0,0,0,0,0,0,-1,1686,701,0,0
469,323,0,0,0,0,0,0,0,0,0,-1,1693,701,0,0
476,323,0,0,0,0,0,0,0,0,0,-1,1700,701,0,0
483,323,0,0,0,0,0,0,0,0,0,-1,1707,701,0,0
490,323,0,0,0,0,0,0,0,0,0,-1,1714,701,0,0
497,323,0,0,0,0,0,0,0,0,0,-1,1721,701,0,0
504,323,0,0,0,0,0,0,0,0,0,-1,1728,701,0,0
511,323,0,0,0,0,0,0,0,0,0,-1,1735,701,0,0
518,323,0,0,0,0,0,0,0,0,0,-1,1742,701,0,0
525,323,0,0,0,0,0,0,0,0,0,-1,1749,701,0,0
532,323,16.1195,3.75397,0,0,0,0,0,0,0,-1,1756,701,16.1196,-3.75396
539,323,15.8151,4.36414,0,0,0,0,0,0,0,-1,1763,701,15.8151,-4.36415
546,323,14.9697,4.06653,0,0,0,0,0,0,0,-1,1770,701,14.9697,-4.06654
553,323,19.7142,3.41541,0,0,0,0,0,0,0,-1,1777,701,19.7142,-3.41542
560,323,19.1747,3.96667,0,0,0,0,0,0,0,-1,1784,701,19.1747,-3.96669
567,323,18.6687,4.57452,0,0,0,0,0,0,0,-1,1791,701,18.6686,-4.57453
574,323,12.514,5.89685,0,0,0,0,0,0,0,-1,1798,701,12.5141,-5.89683
581,323,11.821,5.3476,0,0,0,0,0,0,0,-1,1805,701,11.821,-5.34762
588,323,11.7933,7.00818,0,0,0,0,0,0,0,-1,1812,701,11.7933,-7.00819
595,323,6.67847,0.06604,0,0,0,0,0,0,0,-1,1819,701,6.67841,-0.0660418
602,323,11.2856,-0.595459,0,0,0,0,0,0,0,-1,1826,701,11.2856,0.595433
609,323,12.7405,-0.636658,0,0,0,0,0,0,0,-1,1833,701,12.7405,0.636656
616,323,12.9805,-0.257141,-0.00373341,0.00171268,-0.0017067,0.00220333,-0.00422406,-1.29086,0.00377149,0.0150902,1840,701,12.9804,0.257117
623,323,13.0135,0.0303955,-0.0020908,0.000548184,-0.000746294,0.000744612,-0.00228723,-1.31343,0.0018244,0.0118051,1847,701,13.0136,-0.0303829
630,323,13.0184,0.316895,-0.00119963,-7.74747e-05,-0.000322823,8.76741e-06,-0.00128588,-1.30974,0.000860188,0.0127131,1854,701,13.0185,-0.316892
637,323,13.0212,0.58606,-0.000303946,2.95846e-06,-0.000257977,0.000149673,-0.00045066,-1.0537,0.000360831,0.0102734,1861,701,13.0213,-0.586034
644,323,13.0089,0.826172,0.000305992,-0.000410046,-0.000468276,0.000537431,-0.000641485,-0.459025,0.00068153,0.0073571,1868,701,13.009,-0.826146
651,323,12.9803,1.09497,0.000785061,-0.000909755,-0.000749409,0.0010689,-0.00119359,-0.362052,0.00130691,0.00904832,1875,701,12.9804,-1.095
658,323,12.9514,1.36768,0.00150122,-0.00128808,-0.000960208,0.00179981,-0.00158666,-0.301481,0.00195647,0.0122802,1882,701,12.9514,-1.36769
665,323,12.9525,1.64099,0.00272458,-0.00175268,-0.000993997,0.00293534,-0.00196344,-0.208935,0.0028468,0.0107674,1889,701,12.9525,-1.64096
672,323,12.9746,1.91119,0.00464244,-0.00235394,-0.000720483,0.00471586,-0.00242737,-0.101559,0.0041941,0.00954348,1896,701,12.9746,-1.91122
679,323,12.9677,2.12915,0.0073638,-0.00308898,-7.06337e-05,0.00736428,-0.00308946,-0.006757,0.0062014,0.0189893,1903,701,12.9676,-2.12915
686,323,12.9717,2.2829,0.0113031,-0.0040526,0.00112292,0.0113848,-0.00413428,0.0726125,0.0092802,0.0428637,1910,701,12.9717,-2.2829
693,323,13.0166,2.45062,0,0,0,0,0,0,0,-1,1917,701,13.0166,-2.45063
700,323,10.7705,0.828613,0,0,0,0,0,0,0,-1,1924,701,10.7705,-0.828591
707,323,16.3435,3.5528,0,0,0,0,0,0,0,-1,1931,701,16.3435,-3.55277
714,323,16.6884,3.48865,0,0,0,0,0,0,0,-1,1938,701,16.6884,-3.48866
721,323,0,0,0,0,0,0,0,0,0,-1,1945,701,0,0
728,323,0,0,0,0,0,0,0,0,0,-1,1952,701,0,0
735,323,0,0,0,0,0,0,0,0,0,-1,1959,701,0,0
742,323,0,0,0,0,0,0,0,0,0,-1,1966,701,0,0
749,323,0,0,0,0,0,0,0,0,0,-1,1973,701,0,0
756,323,0,0,0,0,0,0,0,0,0,-1,1980,701,0,0
763,323,0,0,0,0,0,0,0,0,0,-1,1987,701,0,0
770,323,0,0,0,0,0,0,0,0,0,-1,1994,701,0,0
777,323,0,0,0,0,0,0,0,0,0,-1,2001,701,0,0
784,323,0,0,0,0,0,0,0,0,0,-1,2008,701,0,0
791,323,0,0,0,0,0,0,0,0,0,-1,2015,701,0,0
798,323,0,0,0,0,0,0,0,0,0,-1,2022,701,0,0
805,323,0,0,0,0,0,0,0,0,0,-1,2029,701,0,0
812,323,0,0,0,0,0,0,0,0,0,-1,2036,701,0,0
-700,316,0,0,0,0,0,0,0,0,0,-1,524,708,0,0
-693,316,0,0,0,0,0,0,0,0,0,-1,531,708,0,0
-686,316,0,0,0,0,0,0,0,0,0,-1,538,708,0,0
-679,316,0,0,0,0,0,0,0,0,0,-1,545,708,0,0
-672,316,0,0,0,0,0,0,0,0,0,-1,552,708,0,0
-665,316,0,0,0,0,0,0,0,0,0,-1,559,708,0,0
-658,316,0,0,0,0,0,0,0,0,0,-1,566,708,0,0
-651,316,0,0,0,0,0,0,0,0,0,-1,573,708,0,0
-644,316,0,0,0,0,0,0,0,0,0,-1,580,708,0,0
-637,316,0,0,0,0,0,0,0,0,0,-1,587,708,0,0
-630,316,0,0,0,0,0,0,0,0,0,-1,594,708,0,0
-623,316,0,0,0,0,0,0,0,0,0,-1,601,708,0,0
-616,316,0,0,0,0,0,0,0,0,0,-1,608,708,0,0
-609,316,0,0,0,0,0,0,0,0,0,-1,615,708,0,0
-602,316,-0.451782,-0.0494995,0,0,0,0,0,0,0,-1,622,708,-0.451768,0.0495022
-595,316,-3.3761,2.17188,0,0,0,0,0,0,0,-1,629,708,-3.37609,-2.17189
-588,316,-5.00177,2.60675,0,0,0,0,0,0,0,-1,636,708,-5.00175,-2.60676
-581,316,-3.94653,0.393433,0,0,0,0,0,0,0,-1,643,708,-3.94655,-0.39342
-574,316,-6.59229,0.232666,0,0,0,0,0,0,0,-1,650,708,-6.59229,-0.232646
-567,316,-6.76428,0.154114,-0.00101945,-0.0185355,0.00134233,-0.000917179,-0.0186378,0.0760427,0.012131,0.0492031,657,708,-6.76425,-0.154115
-560,316,-6.70551,0.0328979,-0.0022321,-0.0136181,0.00201902,-0.00188468,-0.0139655,0.170405,0.00875006,0.0461894,664,708,-6.7055,-0.032926
-553,316,-6.80328,-0.000854492,-0.0013757,-0.0105387,0.0018737,-0.00100736,-0.0109071,0.194108,0.00695993,0.0314398,671,708,-6.80326,0.000881076
-546,316,-6.93988,-0.0661621,-0.000740658,-0.00804156,0.00161832,-0.000398021,-0.0083842,0.208643,0.00546163,0.0178671,678,708,-6.93987,0.066137
-539,316,-6.90894,-0.32489,-0.000315998,-0.00607395,0.00141838,1.44341e-05,-0.00640438,0.228882,0.00427441,0.0130776,685,708,-6.90895,0.324894
-532,316,-6.92084,-0.568054,4.21354e-08,-0.00438352,0.00118975,0.000302137,-0.00468562,0.248659,0.00322917,0.01107,692,708,-6.92087,0.568037
-525,316,-6.92383,-0.790222,0.000160902,-0.00297362,0.00105837,0.000484792,-0.00329751,0.296978,0.00237647,0.00928312,699,708,-6.92386,0.79022
-518,316,-6.91589,-1.03302,0.000292988,-0.00199413,0.00129175,0.000874639,-0.00257578,0.423087,0.00207124,0.00874922,706,708,-6.91587,1.03301
-511,316,-6.91986,-1.28247,-0.000178831,-0.00150768,0.00252154,0.00176435,-0.00345086,0.656576,0.00306304,0.0100107,713,708,-6.91983,1.28248
-504,316,-6.94446,-1.5415,-0.00138493,-0.0014347,0.0050332,0.00362344,-0.00644307,0.782926,0.00588741,0.0133444,720,708,-6.94447,1.54147
-497,316,-6.93622,-1.78485,-0.00325169,-0.00147885,0.00837042,0.00605196,-0.0107825,0.838151,0.00984645,0.0117417,727,708,-6.93622,1.78486
-490,316,-6.94232,-2.05182,-0.00472284,-0.00198564,0.0128145,0.00953312,-0.0162416,0.838597,0.0150481,0.013591,734,708,-6.94235,2.0518
-483,316,-6.82819,-2.39001,-0.00563442,-0.00276937,0.017431,0.0132878,-0.0216916,0.826397,0.0203888,0.0388564,741,708,-6.82819,2.38998
-476,316,-6.64868,-2.7099,0,0,0,0,0,0,0,-1,748,708,-6.6487,2.70991
-469,316,-6.24194,-1.42725,0,0,0,0,0,0,0,-1,755,708,-6.24192,1.42725
-462,316,-5.74237,-1.40039,0,0,0,0,0,0,0,-1,762,708,-5.74238,1.40039
-455,316,-5.44745,-1.21899,0,0,0,0,0,0,0,-1,769,708,-5.44746,1.21898
-448,316,-11.8394,2.75592,0,0,0,0,0,0,0,-1,776,708,-11.8393,-2.75591
-441,316,-14.9241,2.22833,0,0,0,0,0,0,0,-1,783,708,-14.9242,-2.22835
-434,316,-15.0129,2.83905,0.0399844,-0.0141648,0.0109962,0.0421322,-0.0163126,0.192896,0.0348235,0.0460064,790,708,-15.0129,-2.83908
-427,316,-14.6848,3.17792,0.0627255,-0.0171116,-0.00367135,0.062894,-0.0172801,-0.0458565,0.0487217,0.0430544,797,708,-14.6848,-3.1779
-420,316,-13.5587,2.737,0,0,0,0,0,0,0,-1,804,708,-13.5587,-2.73703
-413,316,0,0,0,0,0,0,0,0,0,-1,811,708,0,0
-406,316,0,0,0,0,0,0,0,0,0,-1,818,708,0,0
-399,316,0,0,0,0,0,0,0,0,0,-1,825,708,0,0
-392,316,0,0,0,0,0,0,0,0,0,-1,832,708,0,0
-385,316,0,0,0,0,0,0,0,0,0,-1,839,708,0,0
-378,316,0,0,0,0,0,0,0,0,0,-1,846,708,0,0
-371,316,0,0,0,0,0,0,0,0,0,-1,853,708,0,0
-364,316,0,0,0,0,0,0,0,0,0,-1,860,708,0,0
-357,316,0,0,0,0,0,0,0,0,0,-1,867,708,0,0
-350,316,0,0,0,0,0,0,0,0,0,-1,874,708,0,0
-343,316,0,0,0,0,0,0,0,0,0,-1,881,708,0,0
-336,316,0,0,0,0,0,0,0,0,0,-1,888,708,0,0
-329,316,0,0,0,0,0,0,0,0,0,-1,895,708,0,0
-322,316,0,0,0,0,0,0,0,0,0,-1,902,708,0,0
-315,316,0,0,0,0,0,0,0,0,0,-1,909,708,0,0
-308,316,0,0,0,0,0,0,0,0,0,-1,916,708,0,0
-301,316,0,0,0,0,0,0,0,0,0,-1,923,708,0,0
-294,316,0,0,0,0,0,0,0,0,0,-1,930,708,0,0
-287,316,0,0,0,0,0,0,0,0,0,-1,937,708,0,0
-280,316,0,0,0,0,0,0,0,0,0,-1,944,708,0,0
-273,316,0,0,0,0,0,0,0,0,0,-1,951,708,0,0
-266,316,0,0,0,0,0,0,0,0,0,-1,958,708,0,0
-259,316,0,0,0,0,0,0,0,0,0,-1,965,708,0,0
-252,316,0,0,0,0,0,0,0,0,0,-1,972,708,0,0
-245,316,0,0,0,0,0,0,0,0,0,-1,979,708,0,0
-238,316,0,0,0,0,0,0,0,0,0,-1,986,708,0,0
-231,316,0,0,0,0,0,0,0,0,0,-1,993,708,0,0
-224,316,0,0,0,0,0,0,0,0,0,-1,1000,708,0,0
-217,316,0,0,0,0,0,0,0,0,0,-1,1007,708,0,0
-210,316,0,0,0,0,0,0,0,0,0,-1,1014,708,0,0
-203,316,0,0,0,0,0,0,0,0,0,-1,1021,708,0,0
-196,316,0,0,0,0,0,0,0,0,0,-1,1028,708,0,0
-189,316,0,0,0,0,0,0,0,0,0,-1,1035,708,0,0
-182,316,0,0,0,0,0,0,0,0,0,-1,1042,708,0,0
-175,316,0,0,0,0,0,0,0,0,0,-1,1049,708,0,0
-168,316,0,0,0,0,0,0,0,0,0,-1,1056,708,0,0
-161,316,0,0,0,0,0,0,0,0,0,-1,1063,708,0,0
-154,316,0,0,0,0,0,0,0,0,0,-1,1070,708,0,0
-147,316,0,0,0,0,0,0,0,0,0,-1,1077,708,0,0
-140,316,0,0,0,0,0,0,0,0,0,-1,1084,708,0,0
-133,316,0,0,0,0,0,0,0,0,0,-1,1091,708,0,0
-126,316,0,0,0,0,0,0,0,0,0,-1,1098,708,0,0
-119,316,0,0,0,0,0,0,0,0,0,-1,1105,708,0,0
-112,316,0,0,0,0,0,0,0,0,0,-1,1112,708,0,0
-105,316,0,0,0,0,0,0,0,0,0,-1,1119,708,0,0
-98,316,0,0,0,0,0,0,0,0,0,-1,1126,708,0,0
-91,316,0,0,0,0,0,0,0,0,0,-1,1133,708,0,0
-84,316,0,0,0,0,0,0,0,0,0,-1,1140,708,0,0
-77,316,0,0,0,0,0,0,0,0,0,-1,1147,708,0,0
-70,316,0,0,0,0,0,0,0,0,0,-1,1154,708,0,0
-63,316,0,0,0,0,0,0,0,0,0,-1,1161,708,0,0
-56,316,0,0,0,0,0,0,0,0,0,-1,1168,708,0,0
-49,316,0,0,0,0,0,0,0,0,0,-1,1175,708,0,0
-42,316,0,0,0,0,0,0,0,0,0,-1,1182,708,0,0
-35,316,0,0,0,0,0,0,0,0,0,-1,1189,708,0,0
-28,316,0,0,0,0,0,0,0,0,0,-1,1196,708,0,0
-21,316,0,0,0,0,0,0,0,0,0,-1,1203,708,0,0
-14,316,0,0,0,0,0,0,0,0,0,-1,1210,708,0,0
-7,316,0,0,0,0,0,0,0,0,0,-1,1217,708,0,0
0,316,0,0,0,0,0,0,0,0,0,-1,1224,708,0,0
7,316,0,0,0,0,0,0,0,0,0,-1,1231,708,0,0
14,316,0,0,0,0,0,0,0,0,0,-1,1238,708,0,0
21,316,0,0,0,0,0,0,0,0,0,-1,1245,708,0,0
28,316,0,0,0,0,0,0,0,0,0,-1,1252,708,0,0
35,316,0,0,0,0,0,0,0,0,0,-1,1259,708,0,0
42,316,0,0,0,0,0,0,0,0,0,-1,1266,708,0,0
49,316,0,0,0,0,0,0,0,0,0,-1,1273,708,0,0
56,316,0,0,0,0,0,0,0,0,0,-1,1280,708,0,0
63,316,0,0,0,0,0,0,0,0,0,-1,1287,708,0,0
70,316,0,0,0,0,0,0,0,0,0,-1,1294,708,0,0
77,316,0,0,0,0,0,0,0,0,0,-1,1301,708,0,0
84,316,0,0,0,0,0,0,0,0,0,-1,1308,708,0,0
91,316,0,0,0,0,0,0,0,0,0,-1,1315,708,0,0
98,316,0,0,0,0,0,0,0,0,0,-1,1322,708,0,0
105,316,0,0,0,0,0,0,0,0,0,-1,1329,708,0,0
112,316,0,0,0,0,0,0,0,0,0,-1,1336,708,0,0
119,316,0,0,0,0,0,0,0,0,0,-1,1343,708,0,0
126,316,0,0,0,0,0,0,0,0,0,-1,1350,708,0,0
133,316,0,0,0,0,0,0,0,0,0,-1,1357,708,0,0
140,316,0,0,0,0,0,0,0,0,0,-1,1364,708,0,0
147,316,0,0,0,0,0,0,0,0,0,-1,1371,708,0,0
154,316,0,0,0,0,0,0,0,0,0,-1,1378,708,0,0
161,316,0,0,0,0,0,0,0,0,0,-1,1385,708,0,0
168,316,0,0,0,0,0,0,0,0,0,-1,1392,708,0,0
175,316,0,0,0,0,0,0,0,0,0,-1,1399,708,0,0
182,316,0,0,0,0,0,0,0,0,0,-1,1406,708,0,0
189,316,0,0,0,0,0,0,0,0,0,-1,1413,708,0,0
196,316,0,0,0,0,0,0,0,0,0,-1,1420,708,0,0
203,316,0,0,0,0,0,0,0,0,0,-1,1427,708,0,0
210,316,0,0,0,0,0,0,0,0,0,-1,1434,708,0,0
217,316,0,0,0,0,0,0,0,0,0,-1,1441,708,0,0
224,316,0,0,0,0,0,0,0,0,0,-1,1448,708,0,0
231,316,0,0,0,0,0,0,0,0,0,-1,1455,708,0,0
238,316,0,0,0,0,0,0,0,0,0,-1,1462,708,0,0
245,316,0,0,0,0,0,0,0,0,0,-1,1469,708,0,0
252,316,0,0,0,0,0,0,0,0,0,-1,1476,708,0,0
259,316,0,0,0,0,0,0,0,0,0,-1,1483,708,0,0
266,316,0,0,0,0,0,0,0,0,0,-1,1490,708,0,0
273,316,0,0,0,0,0,0,0,0,0,-1,1497,708,0,0
280,316,0,0,0,0,0,0,0,0,0,-1,1504,708,0,0
287,316,0,0,0,0,0,0,0,0,0,-1,1511,708,0,0
294,316,0,0,0,0,0,0,0,0,0,-1,1518,708,0,0
301,316,0,0,0,0,0,0,0,0,0,-1,1525,708,0,0
308,316,0,0,0,0,0,0,0,0,0,-1,1532,708,0,0
315,316,0,0,0,0,0,0,0,0,0,-1,1539,708,0,0
322,316,0,0,0,0,0,0,0,0,0,-1,1546,708,0,0
329,316,0,0,0,0,0,0,0,0,0,-1,1553,708,0,0
336,316,0,0,0,0,0,0,0,0,0,-1,1560,708,0,0
343,316,0,0,0,0,0,0,0,0,0,-1,1567,708,0,0
350,316,0,0,0,0,0,0,0,0,0,-1,1574,708,0,0
357,316,0,0,0,0,0,0,0,0,0,-1,1581,708,0,0
364,316,0,0,0,0,0,0,0,0,0,-1,1588,708,0,0
371,316,0,0,0,0,0,0,0,0,0,-1,1595,708,0,0
378,316,0,0,0,0,0,0,0,0,0,-1,1602,708,0,0
385,316,0,0,0,0,0,0,0,0,0,-1,1609,708,0,0
392,316,0,0,0,0,0,0,0,0,0,-1,1616,708,0,0
399,316,0,0,0,0,0,0,0,0,0,-1,1623,708,0,0
406,316,0,0,0,0,0,0,0,0,0,-1,1630,708,0,0
413,316,0,0,0,0,0,0,0,0,0,-1,1637,708,0,0
420,316,0,0,0,0,0,0,0,0,0,-1,1644,708,0,0
427,316,0,0,0,0,0,0,0,0,0,-1,1651,708,0,0
434,316,0,0,0,0,0,0,0,0,0,-1,1658,708,0,0
441,316,0,0,0,0,0,0,0,0,0,-1,1665,708,0,0
448,316,0,0,0,0,0,0,0,0,0,-1,1672,708,0,0
455,316,0,0,0,0,0,0,0,0,0,-1,1679,708,0,0
462,316,0,0,0,0,0,0,0,0,0,-1,1686,708,0,0
469,316,0,0,0,0,0,0,0,0,0,-1,1693,708,0,0
476,316,0,0,0,0,0,0,0,0,0,-1,1700,708,0,0
483,316,0,0,0,0,0,0,0,0,0,-1,1707,708,0,0
490,316,0,0,0,0,0,0,0,0,0,-1,1714,708,0,0
497,316,0,0,0,0,0,0,0,0,0,-1,1721,708,0,0
504,316,0,0,0,0,0,0,0,0,0,-1,1728,708,0,0
511,316,0,0,0,0,0,0,0,0,0,-1,1735,708,0,0
518,316,0,0,0,0,0,0,0,0,0,-1,1742,708,0,0
525,316,0,0,0,0,0,0,0,0,0,-1,1749,708,0,0
532,316,15.6722,2.51886,0,0,0,0,0,0,0,-1,1756,708,15.6722,-2.51888
539,316,19.1591,2.70428,0,0,0,0,0,0,0,-1,1763,708,19.159,-2.70428
546,316,19.3698,3.4729,0,0,0,0,0,0,0,-1,1770,708,19.3697,-3.47291
553,316,19.9391,3.10297,0,0,0,0,0,0,0,-1,1777,708,19.9391,-3.10297
560,316,19.39,3.67322,0,0,0,0,0,0,0,-1,1784,708,19.39,-3.67322
567,316,20.8519,0.674194,0,0,0,0,0,0,0,-1,1791,708,20.8519,-0.674223
574,316,18.2991,4.84393,0,0,0,0,0,0,0,-1,1798,708,18.2991,-4.84392
581,316,19.7086,2.66235,0,0,0,0,0,0,0,-1,1805,708,19.7087,-2.66236
588,316,19.7659,2.90198,0,0,0,0,0,0,0,-1,1812,708,19.7659,-2.902
595,316,12.5363,1.50702,0,0,0,0,0,0,0,-1,1819,708,12.5363,-1.50701
602,316,7.79919,0.0422363,0,0,0,0,0,0,0,-1,1826,708,7.79923,-0.0422066
609,316,13.187,-0.610413,0,0,0,0,0,0,0,-1,1833,708,13.187,0.610424
616,316,13.2582,-0.264648,-0.00331686,0.00254944,-0.00290307,0.00374318,-0.0045106,-1.18067,0.00477218,0.0187055,1840,708,13.2582,0.264656
623,316,13.2769,0.0308838,-0.00148653,0.000854225,-0.00160926,0.00167369,-0.002306,-1.0998,0.00230732,0.00994209,1847,708,13.2769,-0.0308961
630,316,13.2699,0.301941,-0.00057323,-6.22881e-05,-0.000822129,0.000543148,-0.00117867,-0.93604,0.00101641,0.0112414,1854,708,13.2699,-0.301945
637,316,13.266,0.572144,0.000171092,3.22257e-05,-0.000568504,0.000674387,-0.000471069,-0.724633,0.000664793,0.0110727,1861,708,13.2659,-0.572146
644,316,13.2517,0.850891,0.000802149,-0.000267731,-0.000555789,0.00103861,-0.000504194,-0.402255,0.000908378,0.0113537,1868,708,13.2517,-0.850876
651,316,13.2216,1.11786,0.00114605,-0.000717059,-0.000626887,0.00133734,-0.00090835,-0.29617,0.00130441,0.0126493,1875,708,13.2215,-1.11789
658,316,13.2043,1.38928,0.00159346,-0.00102316,-0.000694126,0.00176619,-0.00119589,-0.243895,0.00172069,0.0196953,1882,708,13.2044,-1.38929
665,316,13.2034,1.67444,0.00257399,-0.0014033,-0.0006262,0.00267025,-0.00149956,-0.152529,0.00243886,0.0152771,1889,708,13.2033,-1.67443
672,316,13.2284,1.92932,0.0042182,-0.00191599,-0.000325505,0.00423542,-0.00193321,-0.0528662,0.0036432,0.0127191,1896,708,13.2284,-1.92931
679,316,13.2498,2.17126,0.00644844,-0.00249945,0.000269071,0.00645652,-0.00250753,0.0300348,0.00534018,0.0180703,1903,708,13.2498,-2.17124
686,316,13.1572,2.30566,0.00963874,-0.00325596,0.00131684,0.00977185,-0.00338907,0.100737,0.0078907,0.0330114,1910,708,13.1572,-2.30565
693,316,13.5477,2.33905,0.0141361,-0.00427137,0.00303094,0.0146223,-0.0047576,0.159066,0.0116621,0.0493415,1917,708,13.5477,-2.33904
700,316,13.7031,2.77612,0,0,0,0,0,0,0,-1,1924,708,13.7031,-2.77614
707,316,15.6554,3.52722,0,0,0,0,0,0,0,-1,1931,708,15.6553,-3.52723
714,316,16.0535,3.45276,0,0,0,0,0,0,0,-1,1938,708,16.0534,-3.45274
721,316,16.4965,3.36438,0,0,0,0,0,0,0,-1,1945,708,16.4965,-3.36439
728,316,0,0,0,0,0,0,0,0,0,-1,1952,708,0,0
735,316,0,0,0,0,0,0,0,0,0,-1,1959,708,0,0
742,316,0,0,0,0,0,0,0,0,0,-1,1966,708,0,0
749,316,0,0,0,0,0,0,0,0,0,-1,1973,708,0,0
756,316,0,0,0,0,0,0,0,0,0,-1,1980,708,0,0
763,316,0,0,0,0,0,0,0,0,0,-1,1987,708,0,0
770,316,0,0,0,0,0,0,0,0,0,-1,1994,708,0,0
777,316,0,0,0,0,0,0,0,0,0,-1,2001,708,0,0
784,316,0,0,0,0,0,0,0,0,0,-1,2008,708,0,0
791,316,0,0,0,0,0,0,0,0,0,-1,2015,708,0,0
798,316,0,0,0,0,0,0,0,0,0,-1,2022,708,0,0
805,316,0,0,0,0,0,0,0,0,0,-1,2029,708,0,0
812,316,0,0,0,0,0,0,0,0,0,-1,2036,708,0,0
-700,309,0,0,0,0,0,0,0,0,0,-1,524,715,0,0
-693,309,0,0,0,0,0,0,0,0,0,-1,531,715,0,0
-686,309,0,0,0,0,0,0,0,0,0,-1,538,715,0,0
-679,309,0,0,0,0,0,0,0,0,0,-1,545,715,0,0
-672,309,0,0,0,0,0,0,0,0,0,-1,552,715,0,0
-665,309,0,0,0,0,0,0,0,0,0,-1,559,715,0,0
-658,309,0,0,0,0,0,0,0,0,0,-1,566,715,0,0
-651,309,0,0,0,0,0,0,0,0,0,-1,573,715,0,0
-644,309,0,0,0,0,0,0,0,0,0,-1,580,715,0,0
-637,309,0,0,0,0,0,0,0,0,0,-1,587,715,0,0
-630,309,0,0,0,0,0,0,0,0,0,-1,594,715,0,0
-623,309,0,0,0,0,0,0,0,0,0,-1,601,715,0,0
-616,309,0,0,0,0,0,0,0,0,0,-1,608,715,0,0
-609,309,-5.95392,-3.93689,0,0,0,0,0,0,0,-1,615,715,-5.95392,3.93686
-602,309,-4.99786,-3.31287,0,0,0,0,0,0,0,-1,622,715,-4.99786,3.31284
-595,309,-6.80847,2.4046,0,0,0,0,0,0,0,-1,629,715,-6.80845,-2.40458
-588,309,-6.08795,2.19324,0,0,0,0,0,0,0,-1,636,715,-6.08793,-2.19325
-581,309,-5.97552,1.3277,0,0,0,0,0,0,0,-1,643,715,-5.97552,-1.32769
-574,309,-6.65289,-0.634094,0,0,0,0,0,0,0,-1,650,715,-6.65288,0.634089
-567,309,-6.8371,-0.395508,0.00682472,-0.00802996,0.00238464,0.00719814,-0.00840338,0.155333,0.0090165,0.0465729,657,715,-6.83711,0.395515
-560,309,-6.79077,-0.103577,0.00186133,-0.00503977,0.00256096,0.00270786,-0.00588629,0.319242,0.00507368,0.0449734,664,715,-6.79078,0.103598
-553,309,-7.09766,0.0866089,0.000903783,-0.00446708,0.00187657,0.00149449,-0.00505779,0.304959,0.00396504,0.03144,671,715,-7.09768,-0.0866288
-546,309,-7.1756,-0.0686035,0.000669831,-0.0034607,0.00167592,0.00126427,-0.00405514,0.340851,0.00320897,0.0164387,678,715,-7.17563,0.0686084
-539,309,-7.15698,-0.308655,0.000407806,-0.00272553,0.00151737,0.00102216,-0.00333988,0.384706,0.00263426,0.0149929,685,715,-7.15699,0.308633
-532,309,-7.15515,-0.55072,7.85932e-05,-0.00213633,0.00135264,0.000719306,-0.00277705,0.442366,0.00213197,0.0125482,692,715,-7.15517,0.550749
-525,309,-7.16901,-0.792664,-0.000337875,-0.00167836,0.00134112,0.000491158,-0.0025074,0.553669,0.00185709,0.0144446,699,715,-7.169,0.792674
-518,309,-7.1554,-1.04327,-0.000781704,-0.0015357,0.00186622,0.000745214,-0.00306262,0.685733,0.00233021,0.0133695,706,715,-7.15542,1.04326
-511,309,-7.15845,-1.28247,-0.00180838,-0.00165252,0.00367267,0.00194305,-0.00540395,0.796006,0.00439587,0.0124078,713,715,-7.15842,1.28245
-504,309,-7.15674,-1.5296,-0.00360885,-0.00206855,0.00700027,0.00420381,-0.0098812,0.840186,0.00834929,0.0106205,720,715,-7.15671,1.52962
-497,309,-7.16107,-1.78107,-0.00613134,-0.0024879,0.011265,0.00710176,-0.015721,0.865561,0.0134863,0.0139443,727,715,-7.16109,1.78105
-490,309,-7.14783,-2.03125,-0.00806079,-0.00324496,0.0166271,0.0111477,-0.0224534,0.857308,0.0197622,0.0267004,734,715,-7.14785,2.03123
-483,309,-7.01758,-2.36652,0,0,0,0,0,0,0,-1,741,715,-7.01761,2.36654
-476,309,-5.29486,-1.2262,0,0,0,0,0,0,0,-1,748,715,-5.29484,1.22622
-469,309,-4.22717,-0.592896,0,0,0,0,0,0,0,-1,755,715,-4.2272,0.592905
-462,309,-12.9673,0.390442,0,0,0,0,0,0,0,-1,762,715,-12.9674,-0.390427
-455,309,-13.405,1.09027,0,0,0,0,0,0,0,-1,769,715,-13.405,-1.09028
-448,309,-15.3145,1.95068,0,0,0,0,0,0,0,-1,776,715,-15.3145,-1.9507
-441,309,-15.121,2.48975,0.0170862,-0.0122634,0.03156,0.0372163,-0.0323935,0.567777,0.0402214,0.0473646,783,715,-15.1209,-2.48977
-434,309,-14.7424,2.98273,0.0349682,-0.015022,0.0206811,0.0424148,-0.0224686,0.345615,0.0380459,0.0458011,790,715,-14.7424,-2.98275
-427,309,-14.1808,3.20197,0.057021,-0.0183367,0.00616157,0.0575215,-0.0188372,0.0810469,0.0459328,0.0437549,797,715,-14.1808,-3.20199
-420,309,-13.3781,3.26843,0,0,0,0,0,0,0,-1,804,715,-13.3781,-3.26842
-413,309,0,0,0,0,0,0,0,0,0,-1,811,715,0,0
-406,309,0,0,0,0,0,0,0,0,0,-1,818,715,0,0
-399,309,0,0,0,0,0,0,0,0,0,-1,825,715,0,0
-392,309,0,0,0,0,0,0,0,0,0,-1,832,715,0,0
-385,309,0,0,0,0,0,0,0,0,0,-1,839,715,0,0
-378,309,0,0,0,0,0,0,0,0,0,-1,846,715,0,0
-371,309,0,0,0,0,0,0,0,0,0,-1,853,715,0,0
-364,309,0,0,0,0,0,0,0,0,0,-1,860,715,0,0
-357,309,0,0,0,0,0,0,0,0,0,-1,867,715,0,0
-350,309,0,0,0,0,0,0,0,0,0,-1,874,715,0,0
-343,309,0,0,0,0,0,0,0,0,0,-1,881,715,0,0
-336,309,0,0,0,0,0,0,0,0,0,-1,888,715,0,0
-329,309,0,0,0,0,0,0,0,0,0,-1,895,715,0,0
-322,309,0,0,0,0,0,0,0,0,0,-1,902,715,0,0
-315,309,0,0,0,0,0,0,0,0,0,-1,909,715,0,0
-308,309,0,0,0,0,0,0,0,0,0,-1,916,715,0,0
-301,309,0,0,0,0,0,0,0,0,0,-1,923,715,0,0
-294,309,0,0,0,0,0,0,0,0,0,-1,930,715,0,0
-287,309,0,0,0,0,0,0,0,0,0,-1,937,715,0,0
-280,309,0,0,0,0,0,0,0,0,0,-1,944,715,0,0
-273,309,0,0,0,0,0,0,0,0,0,-1,951,715,0,0
-266,309,0,0,0,0,0,0,0,0,0,-1,958,715,0,0
-259,309,0,0,0,0,0,0,0,0,0,-1,965,715,0,0
-252,309,0,0,0,0,0,0,0,0,0,-1,972,715,0,0
-245,309,0,0,0,0,0,0,0,0,0,-1,979,715,0,0
-238,309,0,0,0,0,0,0,0,0,0,-1,986,715,0,0
-231,309,0,0,0,0,0,0,0,0,0,-1,993,715,0,0
-224,309,0,0,0,0,0,0,0,0,0,-1,1000,715,0,0
-217,309,0,0,0,0,0,0,0,0,0,-1,1007,715,0,0
-210,309,0,0,0,0,0,0,0,0,0,-1,1014,715,0,0
-203,309,0,0,0,0,0,0,0,0,0,-1,1021,715,0,0
-196,309,0,0,0,0,0,0,0,0,0,-1,1028,715,0,0
-189,309,0,0,0,0,0,0,0,0,0,-1,1035,715,0,0
-182,309,0,0,0,0,0,0,0,0,0,-1,1042,715,0,0
-175,309,0,0,0,0,0,0,0,0,0,-1,1049,715,0,0
-168,309,0,0,0,0,0,0,0,0,0,-1,1056,715,0,0
-161,309,0,0,0,0,0,0,0,0,0,-1,1063,715,0,0
-154,309,0,0,0,0,0,0,0,0,0,-1,1070,715,0,0
-147,309,0,0,0,0,0,0,0,0,0,-1,1077,715,0,0
-140,309,0,0,0,0,0,0,0,0,0,-1,1084,715,0,0
-133,309,0,0,0,0,0,0,0,0,0,-1,1091,715,0,0
-126,309,0,0,0,0,0,0,0,0,0,-1,1098,715,0,0
-119,309,0,0,0,0,0,0,0,0,0,-1,1105,715,0,0
-112,309,0,0,0,0,0,0,0,0,0,-1,1112,715,0,0
-105,309,0,0,0,0,0,0,0,0,0,-1,1119,715,0,0
-98,309,0,0,0,0,0,0,0,0,0,-1,1126,715,0,0
-91,309,0,0,0,0,0,0,0,0,0,-1,1133,715,0,0
-84,309,0,0,0,0,0,0,0,0,0,-1,1140,715,0,0
-77,309,0,0,0,0,0,0,0,0,0,-1,1147,715,0,0
-70,309,0,0,0,0,0,0,0,0,0,-1,1154,715,0,0
-63,309,0,0,0,0,0,0,0,0,0,-1,1161,715,0,0
-56,309,0,0,0,0,0,0,0,0,0,-1,1168,715,0,0
-49,309,0,0,0,0,0,0,0,0,0,-1,1175,715,0,0
-42,309,0,0,0,0,0,0,0,0,0,-1,1182,715,0,0
-35,309,0,0,0,0,0,0,0,0,0,-1,1189,715,0,0
-28,309,0,0,0,0,0,0,0,0,0,-1,1196,715,0,0
-21,309,0,0,0,0,0,0,0,0,0,-1,1203,715,0,0
-14,309,0,0,0,0,0,0,0,0,0,-1,1210,715,0,0
-7,309,0,0,0,0,0,0,0,0,0,-1,1217,715,0,0
0,309,0,0,0,0,0,0,0,0,0,-1,1224,715,0,0
7,309,0,0,0,0,0,0,0,0,0,-1,1231,715,0,0
14,309,0,0,0,0,0,0,0,0,0,-1,1238,715,0,0
21,309,0,0,0,0,0,0,0,0,0,-1,1245,715,0,0
28,309,0,0,0,0,0,0,0,0,0,-1,1252,715,0,0
35,309,0,0,0,0,0,0,0,0,0,-1,1259,715,0,0
42,309,0,0,0,0,0,0,0,0,0,-1,1266,715,0,0
49,309,0,0,0,0,0,0,0,0,0,-1,1273,715,0,0
56,309,0,0,0,0,0,0,0,0,0,-1,1280,715,0,0
63,309,0,0,0,0,0,0,0,0,0,-1,1287,715,0,0
70,309,0,0,0,0,0,0,0,0,0,-1,1294,715,0,0
77,309,0,0,0,0,0,0,0,0,0,-1,1301,715,0,0
84,309,0,0,0,0,0,0,0,0,0,-1,1308,715,0,0
91,309,0,0,0,0,0,0,0,0,0,-1,1315,715,0,0
98,309,0,0,0,0,0,0,0,0,0,-1,1322,715,0,0
105,309,0,0,0,0,0,0,0,0,0,-1,1329,715,0,0
112,309,0,0,0,0,0,0,0,0,0,-1,1336,715,0,0
119,309,0,0,0,0,0,0,0,0,0,-1,1343,715,0,0
126,309,0,0,0,0,0,0,0,0,0,-1,1350,715,0,0
133,309,0,0,0,0,0,0,0,0,0,-1,1357,715,0,0
140,309,0,0,0,0,0,0,0,0,0,-1,1364,715,0,0
147,309,0,0,0,0,0,0,0,0,0,-1,1371,715,0,0
154,309,0,0,0,0,0,0,0,0,0,-1,1378,715,0,0
161,309,0,0,0,0,0,0,0,0,0,-1,1385,715,0,0
168,309,0,0,0,0,0,0,0,0,0,-1,1392,715,0,0
175,309,0,0,0,0,0,0,0,0,0,-1,1399,715,0,0
182,309,0,0,0,0,0,0,0,0,0,-1,1406,715,0,0
189,309,0,0,0,0,0,0,0,0,0,-1,1413,715,0,0
196,309,0,0,0,0,0,0,0,0,0,-1,1420,715,0,0
203,309,0,0,0,0,0,0,0,0,0,-1,1427,715,0,0
210,309,0,0,0,0,0,0,0,0,0,-1,1434,715,0,0
217,309,0,0,0,0,0,0,0,0,0,-1,1441,715,0,0
224,309,0,0,0,0,0,0,0,0,0,-1,1448,715,0,0
231,309,0,0,0,0,0,0,0,0,0,-1,1455,715,0,0
238,309,0,0,0,0,0,0,0,0,0,-1,1462,715,0,0
245,309,0,0,0,0,0,0,0,0,0,-1,1469,715,0,0
252,309,0,0,0,0,0,0,0,0,0,-1,1476,715,0,0
259,309,0,0,0,0,0,0,0,0,0,-1,1483,715,0,0
266,309,0,0,0,0,0,0,0,0,0,-1,1490,715,0,0
273,309,0,0,0,0,0,0,0,0,0,-1,1497,715,0,0
280,309,0,0,0,0,0,0,0,0,0,-1,1504,715,0,0
287,309,0,0,0,0,0,0,0,0,0,-1,1511,715,0,0
294,309,0,0,0,0,0,0,0,0,0,-1,1518,715,0,0
301,309,0,0,0,0,0,0,0,0,0,-1,1525,715,0,0
308,309,0,0,0,0,0,0,0,0,0,-1,1532,715,0,0
315,309,0,0,0,0,0,0,0,0,0,-1,1539,715,0,0
322,309,0,0,0,0,0,0,0,0,0,-1,1546,715,0,0
329,309,0,0,0,0,0,0,0,0,0,-1,1553,715,0,0
336,309,0,0,0,0,0,0,0,0,0,-1,1560,715,0,0
343,309,0,0,0,0,0,0,0,0,0,-1,1567,715,0,0
350,309,0,0,0,0,0,0,0,0,0,-1,1574,715,0,0
357,309,0,0,0,0,0,0,0,0,0,-1,1581,715,0,0
364,309,0,0,0,0,0,0,0,0,0,-1,1588,715,0,0
371,309,0,0,0,0,0,0,0,0,0,-1,1595,715,0,0
378,309,0,0,0,0,0,0,0,0,0,-1,1602,715,0,0
385,309,0,0,0,0,0,0,0,0,0,-1,1609,715,0,0
392,309,0,0,0,0,0,0,0,0,0,-1,1616,715,0,0
399,309,0,0,0,0,0,0,0,0,0,-1,1623,715,0,0
406,309,0,0,0,0,0,0,0,0,0,-1,1630,715,0,0
413,309,0,0,0,0,0,0,0,0,0,-1,1637,715,0,0
420,309,0,0,0,0,0,0,0,0,0,-1,1644,715,0,0
427,309,0,0,0,0,0,0,0,0,0,-1,1651,715,0,0
434,309,0,0,0,0,0,0,0,0,0,-1,1658,715,0,0
441,309,0,0,0,0,0,0,0,0,0,-1,1665,715,0,0
448,309,0,0,0,0,0,0,0,0,0,-1,1672,715,0,0
455,309,0,0,0,0,0,0,0,0,0,-1,1679,715,0,0
462,309,0,0,0,0,0,0,0,0,0,-1,1686,715,0,0
469,309,0,0,0,0,0,0,0,0,0,-1,1693,715,0,0
476,309,0,0,0,0,0,0,0,0,0,-1,1700,715,0,0
483,309,0,0,0,0,0,0,0,0,0,-1,1707,715,0,0
490,309,0,0,0,0,0,0,0,0,0,-1,1714,715,0,0
497,309,0,0,0,0,0,0,0,0,0,-1,1721,715,0,0
504,309,0,0,0,0,0,0,0,0,0,-1,1728,715,0,0
511,309,0,0,0,0,0,0,0,0,0,-1,1735,715,0,0
518,309,0,0,0,0,0,0,0,0,0,-1,1742,715,0,0
525,309,0,0,0,0,0,0,0,0,0,-1,1749,715,0,0
532,309,0,0,0,0,0,0,0,0,0,-1,1756,715,0,0
539,309,19.4202,2.61884,0,0,0,0,0,0,0,-1,1763,715,19.4202,-2.61883
546,309,19.571,3.34857,0,0,0,0,0,0,0,-1,1770,715,19.571,-3.3486
553,309,20.3191,3.7149,0,0,0,0,0,0,0,-1,1777,715,20.3191,-3.71488
560,309,21.6508,-0.27533,0,0,0,0,0,0,0,-1,1784,715,21.6508,0.275359
567,309,18.7012,6.53198,0,0,0,0,0,0,0,-1,1791,715,18.7012,-6.53195
574,309,20.6499,1.4809,0,0,0,0,0,0,0,-1,1798,715,20.6499,-1.48087
581,309,20.2668,2.29675,0,0,0,0,0,0,0,-1,1805,715,20.2669,-2.29676
588,309,20.0039,2.70148,0,0,0,0,0,0,0,-1,1812,715,20.0039,-2.70145
595,309,19.585,3.71558,0,0,0,0,0,0,0,-1,1819,715,19.5849,-3.71555
602,309,11.0811,3.47772,0,0,0,0,0,0,0,-1,1826,715,11.0811,-3.47772
609,309,13.5441,-0.636353,0,0,0,0,0,0,0,-1,1833,715,13.5441,0.636342
616,309,13.5525,-0.280212,-0.00136494,0.00331629,-0.00424226,0.00582081,-0.00386946,-1.03749,0.00563236,0.0265483,1840,715,13.5525,0.280212
623,309,13.5497,0.0361938,0.000461852,0.0012556,-0.00283893,0.00372526,-0.00200781,-0.854847,0.00335913,0.0108087,1847,715,13.5497,-0.0361772
630,309,13.5278,0.31073,0.00117918,4.4115e-05,-0.00173681,0.00243883,-0.00121554,-0.627483,0.00214889,0.0101331,1854,715,13.5278,-0.310719
637,309,13.5009,0.577515,0.0015589,0.000106415,-0.00120279,0.00223769,-0.000572381,-0.513795,0.00171474,0.0128165,1861,715,13.5009,-0.577486
644,309,13.4803,0.859863,0.00201205,-7.48667e-05,-0.000889946,0.00234002,-0.000402834,-0.353082,0.00171018,0.0151607,1868,715,13.4803,-0.859882
651,309,13.4901,1.1344,0.00205765,-0.000490283,-0.000662314,0.00221953,-0.000652161,-0.239714,0.00173834,0.0136973,1875,715,13.4902,-1.13442
658,309,13.5077,1.39673,0.00202128,-0.000700683,-0.000550448,0.00212838,-0.000807783,-0.192168,0.00175142,0.0181416,1882,715,13.5077,-1.39674
665,309,13.5236,1.66669,0.00262233,-0.00100068,-0.000339958,0.00265396,-0.0010323,-0.0927541,0.00219583,0.0157428,1889,715,13.5235,-1.66667
672,309,13.5212,1.92517,0.00400314,-0.00142096,1.4313e-06,0.00400314,-0.00142096,0.000263879,0.00324774,0.0147032,1896,715,13.5213,-1.92518
679,309,13.5322,2.16284,0.00584779,-0.00185983,0.000562272,0.00588859,-0.00190063,0.072439,0.00468947,0.0155922,1903,715,13.5322,-2.16283
686,309,13.4856,2.39581,0.0084331,-0.00231861,0.0015802,0.00866054,-0.00254605,0.142946,0.00678356,0.0224909,1910,715,13.4855,-2.39584
693,309,13.2517,2.59711,0.0120893,-0.00297269,0.00314243,0.0127186,-0.00360201,0.197651,0.00990064,0.0387585,1917,715,13.2517,-2.59711
700,309,13.1398,2.85492,0,0,0,0,0,0,0,-1,1924,715,13.1398,-2.8549
707,309,14.9912,3.57965,0,0,0,0,0,0,0,-1,1931,715,14.9912,-3.57966
714,309,15.4188,3.46863,0,0,0,0,0,0,0,-1,1938,715,15.4188,-3.46865
721,309,15.9757,3.27216,0,0,0,0,0,0,0,-1,1945,715,15.9757,-3.27215
728,309,0,0,0,0,0,0,0,0,0,-1,1952,715,0,0
735,309,0,0,0,0,0,0,0,0,0,-1,1959,715,0,0
742,309,0,0,0,0,0,0,0,0,0,-1,1966,715,0,0
749,309,0,0,0,0,0,0,0,0,0,-1,1973,715,0,0
756,309,0,0,0,0,0,0,0,0,0,-1,1980,715,0,0
763,309,0,0,0,0,0,0,0,0,0,-1,1987,715,0,0
770,309,0,0,0,0,0,0,0,0,0,-1,1994,715,0,0
777,309,0,0,0,0,0,0,0,0,0,-1,2001,715,0,0
784,309,0,0,0,0,0,0,0,0,0,-1,2008,715,0,0
791,309,0,0,0,0,0,0,0,0,0,-1,2015,715,0,0
798,309,0,0,0,0,0,0,0,0,0,-1,2022,715,0,0
805,309,0,0,0,0,0,0,0,0,0,-1,2029,715,0,0
812,309,0,0,0,0,0,0,0,0,0,-1,2036,715,0,0
-700,302,0,0,0,0,0,0,0,0,0,-1,524,722,0,0
-693,302,0,0,0,0,0,0,0,0,0,-1,531,722,0,0
-686,302,0,0,0,0,0,0,0,0,0,-1,538,722,0,0
-679,302,0,0,0,0,0,0,0,0,0,-1,545,722,0,0
-672,302,0,0,0,0,0,0,0,0,0,-1,552,722,0,0
-665,302,0,0,0,0,0,0,0,0,0,-1,559,722,0,0
-658,302,0,0,0,0,0,0,0,0,0,-1,566,722,0,0
-651,302,0,0,0,0,0,0,0,0,0,-1,573,722,0,0
-644,302,0,0,0,0,0,0,0,0,0,-1,580,722,0,0
-637,302,0,0,0,0,0,0,0,0,0,-1,587,722,0,0
-630,302,0,0,0,0,0,0,0,0,0,-1,594,722,0,0
-623,302,0,0,0,0,0,0,0,0,0,-1,601,722,0,0
-616,302,0,0,0,0,0,0,0,0,0,-1,608,722,0,0
-609,302,-6.14014,-3.6167,0,0,0,0,0,0,0,-1,615,722,-6.14016,3.61669
-602,302,0.92865,-1.99158,0,0,0,0,0,0,0,-1,622,722,0.928637,1.99157
-595,302,-7.89941,2.13641,0,0,0,0,0,0,0,-1,629,722,-7.89939,-2.13639
-588,302,-7.10895,1.79163,0,0,0,0,0,0,0,-1,636,722,-7.10896,-1.79163
-581,302,-5.7077,0.972351,0,0,0,0,0,0,0,-1,643,722,-5.70771,-0.972357
-574,302,-7.00409,-0.477722,0,0,0,0,0,0,0,-1,650,722,-7.00409,0.477746
-567,302,-7.06055,-0.328857,0.0116123,-0.00236441,0.00222058,0.0119566,-0.00270873,0.153832,0.00901076,0.0463716,657,722,-7.06057,0.328862
-560,302,-7.17389,0.156067,0.0043896,-0.000304619,0.00238568,0.00538919,-0.00130421,0.396774,0.00409731,0.0403138,664,722,-7.17386,-0.156084
-553,302,-7.40851,0.19458,0.00216891,-0.0011579,0.00146442,0.00272169,-0.00171067,0.360933,0.00258112,0.0185004,671,722,-7.40849,-0.194607
-546,302,-7.42657,-0.0731201,0.00129916,-0.00108354,0.00136403,0.00191885,-0.00170324,0.426436,0.00209245,0.0155874,678,722,-7.42659,0.0731231
-539,302,-7.42499,-0.281616,0.000647367,-0.00108977,0.00134997,0.00138405,-0.00182645,0.499538,0.00185944,0.0151881,685,722,-7.42498,0.281618
-532,302,-7.41156,-0.521423,-9.19056e-05,-0.00114795,0.00133651,0.000817107,-0.00205696,0.597271,0.00171004,0.0142838,692,722,-7.41154,0.52141
-525,302,-7.41748,-0.79425,-0.000906938,-0.00124401,0.00150939,0.000443294,-0.00259425,0.729799,0.00189463,0.0182724,699,722,-7.41746,0.794268
-518,302,-7.42517,-1.03857,-0.00175073,-0.00159082,0.00239317,0.000723729,-0.00406527,0.802097,0.00298086,0.0175876,706,722,-7.42519,1.03855
-511,302,-7.40912,-1.26953,-0.00317766,-0.0020256,0.00483829,0.00227083,-0.0074741,0.844648,0.00588751,0.0110917,713,722,-7.40914,1.26951
-504,302,-7.40771,-1.52325,-0.00544834,-0.00274936,0.00901991,0.00502144,-0.0132192,0.859654,0.01088,0.0109396,720,722,-7.40771,1.52323
-497,302,-7.42218,-1.77203,-0.00845295,-0.00338478,0.014141,0.00844738,-0.0202851,0.874058,0.0170516,0.0145522,727,722,-7.42218,1.77201
-490,302,-7.33258,-1.95514,-0.0107086,-0.00429302,0.0202955,0.0130467,-0.0280483,0.863777,0.0242474,0.0372659,734,722,-7.33258,1.95516
-483,302,-7.00446,-1.96924,0,0,0,0,0,0,0,-1,741,722,-7.00446,1.96926
-476,302,-4.29749,-0.203491,0,0,0,0,0,0,0,-1,748,722,-4.29751,0.203464
-469,302,-13.2776,-0.451294,0,0,0,0,0,0,0,-1,755,722,-13.2776,0.451285
-462,302,-13.748,0.298767,-0.0109808,-0.00872219,0.0420866,0.0322503,-0.0519533,0.798812,0.0490566,0.043771,762,722,-13.7481,-0.298784
-455,302,-14.215,1.04968,-0.00778898,-0.0099778,0.0454698,0.0365996,-0.0543664,0.773366,0.0528521,0.0437151,769,722,-14.215,-1.04968
-448,302,-15.4131,2.0777,-0.00132706,-0.0114302,0.046014,0.0399118,-0.052669,0.730726,0.0536205,0.0472725,776,722,-15.4131,-2.07769
-441,302,-15.3919,2.60461,0.0102984,-0.0134198,0.0419501,0.0420334,-0.0451548,0.647645,0.0503489,0.0487739,783,722,-15.3919,-2.60462
-434,302,-15.207,2.92285,0,0,0,0,0,0,0,-1,790,722,-15.207,-2.92287
-427,302,-13.8761,3.5506,0,0,0,0,0,0,0,-1,797,722,-13.8761,-3.55061
-420,302,0,0,0,0,0,0,0,0,0,-1,804,722,0,0
-413,302,0,0,0,0,0,0,0,0,0,-1,811,722,0,0
-406,302,0,0,0,0,0,0,0,0,0,-1,818,722,0,0
-399,302,0,0,0,0,0,0,0,0,0,-1,825,722,0,0
-392,302,0,0,0,0,0,0,0,0,0,-1,832,722,0,0
-385,302,0,0,0,0,0,0,0,0,0,-1,839,722,0,0
-378,302,0,0,0,0,0,0,0,0,0,-1,846,722,0,0
-371,302,0,0,0,0,0,0,0,0,0,-1,853,722,0,0
-364,302,0,0,0,0,0,0,0,0,0,-1,860,722,0,0
-357,302,0,0,0,0,0,0,0,0,0,-1,867,722,0,0
-350,302,0,0,0,0,0,0,0,0,0,-1,874,722,0,0
-343,302,0,0,0,0,0,0,0,0,0,-1,881,722,0,0
-336,302,0,0,0,0,0,0,0,0,0,-1,888,722,0,0
-329,302,0,0,0,0,0,0,0,0,0,-1,895,722,0,0
-322,302,0,0,0,0,0,0,0,0,0,-1,902,722,0,0
-315,302,0,0,0,0,0,0,0,0,0,-1,909,722,0,0
-308,302,0,0,0,0,0,0,0,0,0,-1,916,722,0,0
-301,302,0,0,0,0,0,0,0,0,0,-1,923,722,0,0
-294,302,0,0,0,0,0,0,0,0,0,-1,930,722,0,0
-287,302,0,0,0,0,0,0,0,0,0,-1,937,722,0,0
-280,302,0,0,0,0,0,0,0,0,0,-1,944,722,0,0
-273,302,0,0,0,0,0,0,0,0,0,-1,951,722,0,0
-266,302,0,0,0,0,0,0,0,0,0,-1,958,722,0,0
-259,302,0,0,0,0,0,0,0,0,0,-1,965,722,0,0
-252,302,0,0,0,0,0,0,0,0,0,-1,972,722,0,0
-245,302,0,0,0,0,0,0,0,0,0,-1,979,722,0,0
-238,302,0,0,0,0,0,0,0,0,0,-1,986,722,0,0
-231,302,0,0,0,0,0,0,0,0,0,-1,993,722,0,0
-224,302,0,0,0,0,0,0,0,0,0,-1,1000,722,0,0
-217,302,0,0,0,0,0,0,0,0,0,-1,1007,722,0,0
-210,302,0,0,0,0,0,0,0,0,0,-1,1014,722,0,0
-203,302,0,0,0,0,0,0,0,0,0,-1,1021,722,0,0
-196,302,0,0,0,0,0,0,0,0,0,-1,1028,722,0,0
-189,302,0,0,0,0,0,0,0,0,0,-1,1035,722,0,0
-182,302,0,0,0,0,0,0,0,0,0,-1,1042,722,0,0
-175,302,0,0,0,0,0,0,0,0,0,-1,1049,722,0,0
-168,302,0,0,0,0,0,0,0,0,0,-1,1056,722,0,0
-161,302,0,0,0,0,0,0,0,0,0,-1,1063,722,0,0
-154,302,0,0,0,0,0,0,0,0,0,-1,1070,722,0,0
-147,302,0,0,0,0,0,0,0,0,0,-1,1077,722,0,0
-140,302,0,0,0,0,0,0,0,0,0,-1,1084,722,0,0
-133,302,0,0,0,0,0,0,0,0,0,-1,1091,722,0,0
-126,302,0,0,0,0,0,0,0,0,0,-1,1098,722,0,0
-119,302,0,0,0,0,0,0,0,0,0,-1,1105,722,0,0
-112,302,0,0,0,0,0,0,0,0,0,-1,1112,722,0,0
-105,302,0,0,0,0,0,0,0,0,0,-1,1119,722,0,0
-98,302,0,0,0,0,0,0,0,0,0,-1,1126,722,0,0
-91,302,0,0,0,0,0,0,0,0,0,-1,1133,722,0,0
-84,302,0,0,0,0,0,0,0,0,0,-1,1140,722,0,0
-77,302,0,0,0,0,0,0,0,0,0,-1,1147,722,0,0
-70,302,0,0,0,0,0,0,0,0,0,-1,1154,722,0,0
-63,302,0,0,0,0,0,0,0,0,0,-1,1161,722,0,0
-56,302,0,0,0,0,0,0,0,0,0,-1,1168,722,0,0
-49,302,0,0,0,0,0,0,0,0,0,-1,1175,722,0,0
-42,302,0,0,0,0,0,0,0,0,0,-1,1182,722,0,0
-35,302,0,0,0,0,0,0,0,0,0,-1,1189,722,0,0
-28,302,0,0,0,0,0,0,0,0,0,-1,1196,722,0,0
-21,302,0,0,0,0,0,0,0,0,0,-1,1203,722,0,0
-14,302,0,0,0,0,0,0,0,0,0,-1,1210,722,0,0
-7,302,0,0,0,0,0,0,0,0,0,-1,1217,722,0,0
0,302,0,0,0,0,0,0,0,0,0,-1,1224,722,0,0
7,302,0,0,0,0,0,0,0,0,0,-1,1231,722,0,0
14,302,0,0,0,0,0,0,0,0,0,-1,1238,722,0,0
21,302,0,0,0,0,0,0,0,0,0,-1,1245,722,0,0
28,302,0,0,0,0,0,0,0,0,0,-1,1252,722,0,0
35,302,0,0,0,0,0,0,0,0,0,-1,1259,722,0,0
42,302,0,0,0,0,0,0,0,0,0,-1,1266,722,0,0
49,302,0,0,0,0,0,0,0,0,0,-1,1273,722,0,0
56,302,0,0,0,0,0,0,0,0,0,-1,1280,722,0,0
63,302,0,0,0,0,0,0,0,0,0,-1,1287,722,0,0
70,302,0,0,0,0,0,0,0,0,0,-1,1294,722,0,0
77,302,0,0,0,0,0,0,0,0,0,-1,1301,722,0,0
84,302,0,0,0,0,0,0,0,0,0,-1,1308,722,0,0
91,302,0,0,0,0,0,0,0,0,0,-1,1315,722,0,0
98,302,0,0,0,0,0,0,0,0,0,-1,1322,722,0,0
105,302,0,0,0,0,0,0,0,0,0,-1,1329,722,0,0
112,302,0,0,0,0,0,0,0,0,0,-1,1336,722,0,0
119,302,0,0,0,0,0,0,0,0,0,-1,1343,722,0,0
126,302,0,0,0,0,0,0,0,0,0,-1,1350,722,0,0
133,302,0,0,0,0,0,0,0,0,0,-1,1357,722,0,0
140,302,0,0,0,0,0,0,0,0,0,-1,1364,722,0,0
147,302,0,0,0,0,0,0,0,0,0,-1,1371,722,0,0
154,302,0,0,0,0,0,0,0,0,0,-1,1378,722,0,0
161,302,0,0,0,0,0,0,0,0,0,-1,1385,722,0,0
168,302,0,0,0,0,0,0,0,0,0,-1,1392,722,0,0
175,302,0,0,0,0,0,0,0,0,0,-1,1399,722,0,0
182,302,0,0,0,0,0,0,0,0,0,-1,1406,722,0,0
189,302,0,0,0,0,0,0,0,0,0,-1,1413,722,0,0
196,302,0,0,0,0,0,0,0,0,0,-1,1420,722,0,0
203,302,0,0,0,0,0,0,0,0,0,-1,1427,722,0,0
210,302,0,0,0,0,0,0,0,0,0,-1,1434,722,0,0
217,302,0,0,0,0,0,0,0,0,0,-1,1441,722,0,0
224,302,0,0,0,0,0,0,0,0,0,-1,1448,722,0,0
231,302,0,0,0,0,0,0,0,0,0,-1,1455,722,0,0
238,302,0,0,0,0,0,0,0,0,0,-1,1462,722,0,0
245,302,0,0,0,0,0,0,0,0,0,-1,1469,722,0,0
252,302,0,0,0,0,0,0,0,0,0,-1,1476,722,0,0
259,302,0,0,0,0,0,0,0,0,0,-1,1483,722,0,0
266,302,0,0,0,0,0,0,0,0,0,-1,1490,722,0,0
273,302,0,0,0,0,0,0,0,0,0,-1,1497,722,0,0
280,302,0,0,0,0,0,0,0,0,0,-1,1504,722,0,0
287,302,0,0,0,0,0,0,0,0,0,-1,1511,722,0,0
294,302,0,0,0,0,0,0,0,0,0,-1,1518,722,0,0
301,302,0,0,0,0,0,0,0,0,0,-1,1525,722,0,0
308,302,0,0,0,0,0,0,0,0,0,-1,1532,722,0,0
315,302,0,0,0,0,0,0,0,0,0,-1,1539,722,0,0
322,302,0,0,0,0,0,0,0,0,0,-1,1546,722,0,0
329,302,0,0,0,0,0,0,0,0,0,-1,1553,722,0,0
336,302,0,0,0,0,0,0,0,0,0,-1,1560,722,0,0
343,302,0,0,0,0,0,0,0,0,0,-1,1567,722,0,0
350,302,0,0,0,0,0,0,0,0,0,-1,1574,722,0,0
357,302,0,0,0,0,0,0,0,0,0,-1,1581,722,0,0
364,302,0,0,0,0,0,0,0,0,0,-1,1588,722,0,0
371,302,0,0,0,0,0,0,0,0,0,-1,1595,722,0,0
378,302,0,0,0,0,0,0,0,0,0,-1,1602,722,0,0
385,302,0,0,0,0,0,0,0,0,0,-1,1609,722,0,0
392,302,0,0,0,0,0,0,0,0,0,-1,1616,722,0,0
399,302,0,0,0,0,0,0,0,0,0,-1,1623,722,0,0
406,302,0,0,0,0,0,0,0,0,0,-1,1630,722,0,0
413,302,0,0,0,0,0,0,0,0,0,-1,1637,722,0,0
420,302,0,0,0,0,0,0,0,0,0,-1,1644,722,0,0
427,302,0,0,0,0,0,0,0,0,0,-1,1651,722,0,0
434,302,0,0,0,0,0,0,0,0,0,-1,1658,722,0,0
441,302,0,0,0,0,0,0,0,0,0,-1,1665,722,0,0
448,302,0,0,0,0,0,0,0,0,0,-1,1672,722,0,0
455,302,0,0,0,0,0,0,0,0,0,-1,1679,722,0,0
462,302,0,0,0,0,0,0,0,0,0,-1,1686,722,0,0
469,302,0,0,0,0,0,0,0,0,0,-1,1693,722,0,0
476,302,0,0,0,0,0,0,0,0,0,-1,1700,722,0,0
483,302,0,0,0,0,0,0,0,0,0,-1,1707,722,0,0
490,302,0,0,0,0,0,0,0,0,0,-1,1714,722,0,0
497,302,0,0,0,0,0,0,0,0,0,-1,1721,722,0,0
504,302,0,0,0,0,0,0,0,0,0,-1,1728,722,0,0
511,302,0,0,0,0,0,0,0,0,0,-1,1735,722,0,0
518,302,0,0,0,0,0,0,0,0,0,-1,1742,722,0,0
525,302,0,0,0,0,0,0,0,0,0,-1,1749,722,0,0
532,302,0,0,0,0,0,0,0,0,0,-1,1756,722,0,0
539,302,0,0,0,0,0,0,0,0,0,-1,1763,722,0,0
546,302,15.8817,5.34479,0,0,0,0,0,0,0,-1,1770,722,15.8818,-5.34477
553,302,16.7661,4.97906,0,0,0,0,0,0,0,-1,1777,722,16.7661,-4.97906
560,302,18.0425,4.83038,0,0,0,0,0,0,0,-1,1784,722,18.0425,-4.83037
567,302,19.3651,5.58191,0,0,0,0,0,0,0,-1,1791,722,19.3651,-5.5819
574,302,20.6876,6.33344,0,0,0,0,0,0,0,-1,1798,722,20.6876,-6.33344
581,302,21.2574,2.7666,0,0,0,0,0,0,0,-1,1805,722,21.2575,-2.76657
588,302,20.2638,2.61786,0,0,0,0,0,0,0,-1,1812,722,20.2638,-2.61788
595,302,20.5049,3.34808,0,0,0,0,0,0,0,-1,1819,722,20.5049,-3.34808
602,302,14.7349,5.21246,0,0,0,0,0,0,0,-1,1826,722,14.7349,-5.21247
609,302,11.1578,-0.125854,0,0,0,0,0,0,0,-1,1833,722,11.1579,0.125839
616,302,13.8011,-0.289001,0,0,0,0,0,0,0,-1,1840,722,13.8012,0.28903
623,302,13.8196,0.0339966,0.00188884,0.00189266,-0.00364429,0.00553504,-0.00175354,-0.78566,0.0043928,0.0146235,1847,722,13.8196,-0.0339871
630,302,13.7831,0.322815,0.00254394,0.000301987,-0.00238801,0.00406099,-0.00121507,-0.565956,0.00319043,0.0107042,1854,722,13.7831,-0.322843
637,302,13.7451,0.588867,0.00265239,0.000267791,-0.00170233,0.00353843,-0.000618249,-0.479903,0.00258975,0.0138136,1861,722,13.7451,-0.588837
644,302,13.744,0.858398,0.00298447,0.000170759,-0.00115607,0.00339853,-0.000243306,-0.34393,0.00235099,0.0159515,1868,722,13.744,-0.858374
651,302,13.7792,1.14056,0.00276517,-0.000225866,-0.000663417,0.00290571,-0.000366409,-0.208761,0.00207012,0.0140173,1875,722,13.7792,-1.14055
658,302,13.8048,1.37939,0.00234089,-0.00035318,-0.000439242,0.00241069,-0.000422986,-0.157604,0.0017651,0.0148923,1882,722,13.8048,-1.37942
665,302,13.7808,1.6427,0.00261527,-0.000588145,-0.000124463,0.0026201,-0.000592974,-0.0387751,0.0019743,0.0145061,1889,722,13.7807,-1.64268
672,302,13.7837,1.89716,0.00373614,-0.000943335,0.000266867,0.00375131,-0.000958505,0.0567838,0.00287416,0.0110595,1896,722,13.7837,-1.89713
679,302,13.7797,2.14691,0.00527059,-0.00129068,0.000771821,0.00536016,-0.00138024,0.115532,0.00411149,0.00936063,1903,722,13.7797,-2.14693
686,302,13.7917,2.38818,0.00732288,-0.00155521,0.00170188,0.00763794,-0.00187027,0.183052,0.00581649,0.0141377,1910,722,13.7918,-2.38819
693,302,13.6293,2.57031,0.0102249,-0.00198202,0.00305813,0.0109482,-0.0027053,0.232242,0.008348,0.0305177,1917,722,13.6293,-2.57033
700,302,13.6196,2.66461,0,0,0,0,0,0,0,-1,1924,722,13.6197,-2.66463
707,302,14.088,3.76178,0,0,0,0,0,0,0,-1,1931,722,14.088,-3.76178
714,302,14.9647,3.55219,0,0,0,0,0,0,0,-1,1938,722,14.9647,-3.55216
721,302,15.5615,3.40717,0,0,0,0,0,0,0,-1,1945,722,15.5615,-3.40716
728,302,16.0975,3.23981,0,0,0,0,0,0,0,-1,1952,722,16.0975,-3.23983
735,302,0,0,0,0,0,0,0,0,0,-1,1959,722,0,0
742,302,0,0,0,0,0,0,0,0,0,-1,1966,722,0,0
749,302,0,0,0,0,0,0,0,0,0,-1,1973,722,0,0
756,302,0,0,0,0,0,0,0,0,0,-1,1980,722,0,0
763,302,0,0,0,0,0,0,0,0,0,-1,1987,722,0,0
770,302,0,0,0,0,0,0,0,0,0,-1,1994,722,0,0
777,302,0,0,0,0,0,0,0,0,0,-1,2001,722,0,0
784,302,0,0,0,0,0,0,0,0,0,-1,2008,722,0,0
791,302,0,0,0,0,0,0,0,0,0,-1,2015,722,0,0
798,302,0,0,0,0,0,0,0,0,0,-1,2022,722,0,0
805,302,0,0,0,0,0,0,0,0,0,-1,2029,722,0,0
812,302,0,0,0,0,0,0,0,0,0,-1,2036,722,0,0
-700,295,0,0,0,0,0,0,0,0,0,-1,524,729,0,0
-693,295,0,0,0,0,0,0,0,0,0,-1,531,729,0,0
-686,295,0,0,0,0,0,0,0,0,0,-1,538,729,0,0
-679,295,0,0,0,0,0,0,0,0,0,-1,545,729,0,0
-672,295,0,0,0,0,0,0,0,0,0,-1,552,729,0,0
-665,295,0,0,0,0,0,0,0,0,0,-1,559,729,0,0
-658,295,0,0,0,0,0,0,0,0,0,-1,566,729,0,0
-651,295,0,0,0,0,0,0,0,0,0,-1,573,729,0,0
-644,295,0,0,0,0,0,0,0,0,0,-1,580,729,0,0
-637,295,0,0,0,0,0,0,0,0,0,-1,587,729,0,0
-630,295,0,0,0,0,0,0,0,0,0,-1,594,729,0,0
-623,295,0,0,0,0,0,0,0,0,0,-1,601,729,0,0
-616,295,-14.2637,-0.2052,0,0,0,0,0,0,0,-1,608,729,-14.2637,0.205178
-609,295,-3.52533,-0.174438,0,0,0,0,0,0,0,-1,615,729,-3.52534,0.17441
-602,295,-0.795044,-1.32373,0,0,0,0,0,0,0,-1,622,729,-0.795031,1.32371
-595,295,-0.615479,-1.95447,0,0,0,0,0,0,0,-1,629,729,-0.615481,1.95445
-588,295,-7.98999,1.56903,0,0,0,0,0,0,0,-1,636,729,-7.98997,-1.56905
-581,295,-7.71167,1.37335,0,0,0,0,0,0,0,-1,643,729,-7.71166,-1.37334
-574,295,-7.7323,0.653259,0.0280073,-0.00654311,-0.00124726,0.0280523,-0.00658808,-0.0360372,0.0212409,0.0470036,650,729,-7.73232,-0.653232
-567,295,-7.40967,0.345093,0.0117408,-0.00216067,0.00255832,0.0121966,-0.00261654,0.176339,0.00912912,0.0432031,657,729,-7.40967,-0.345068
-560,295,-7.63098,0.359253,0.00406795,0.000398113,0.00266317,0.00546713,-0.00100106,0.483746,0.0040202,0.0239461,664,729,-7.63096,-0.359266
-553,295,-7.62183,0.151794,0.00160458,-0.000549468,0.00157377,0.00243458,-0.00137947,0.485323,0.00222995,0.0176544,671,729,-7.62181,-0.151774
-546,295,-7.6792,-0.0611572,0.000746028,-0.00059481,0.00150916,0.00172698,-0.00157576,0.576375,0.00190751,0.0218786,678,729,-7.67921,0.0611386
-539,295,-7.6825,-0.267151,3.34823e-05,-0.000714165,0.00153972,0.00124411,-0.00192479,0.666309,0.00184358,0.0195003,685,729,-7.68248,0.26717
-532,295,-7.6676,-0.537781,-0.000876856,-0.000927493,0.00159204,0.000690065,-0.00249441,0.777447,0.00193444,0.0156345,692,729,-7.66758,0.537791
-525,295,-7.66541,-0.791443,-0.00193453,-0.001184,0.00185644,0.000334724,-0.00345325,0.885126,0.00242147,0.0142578,699,729,-7.66543,0.791415
-518,295,-7.67395,-1.02155,-0.00308388,-0.00168183,0.00296462,0.000663521,-0.00542923,0.901498,0.00385972,0.0106807,706,729,-7.67395,1.02156
-511,295,-7.65002,-1.26227,-0.00484864,-0.00224412,0.00585801,0.00245463,-0.0095474,0.894772,0.00732161,0.00934434,713,729,-7.65005,1.26226
-504,295,-7.65625,-1.51709,-0.00750221,-0.00316706,0.0106484,0.00553215,-0.0162014,0.885805,0.0130421,0.011433,720,729,-7.65626,1.51709
-497,295,-7.67303,-1.75024,-0.0108485,-0.00393495,0.0162881,0.00925916,-0.0240426,0.88996,0.0198482,0.0160991,727,729,-7.67305,1.75022
-490,295,-7.69281,-1.96661,0,0,0,0,0,0,0,-1,734,729,-7.69279,1.96661
-483,295,-6.84503,-0.454651,0,0,0,0,0,0,0,-1,741,729,-6.84505,0.454639
-476,295,-13.1738,-0.836243,0,0,0,0,0,0,0,-1,748,729,-13.1738,0.836223
-469,295,-13.624,-0.496948,0,0,0,0,0,0,0,-1,755,729,-13.6239,0.496961
-462,295,-14.3126,0.0700073,-0.015075,-0.00965008,0.0469122,0.034628,-0.059353,0.814276,0.0548823,0.0476945,762,729,-14.3126,-0.0699823
-455,295,-14.8516,0.947571,-0.0125484,-0.0109578,0.0513417,0.0395948,-0.063101,0.793143,0.0598069,0.0466275,769,729,-14.8515,-0.947541
-448,295,-15.4005,2.06067,-0.0068395,-0.0124466,0.0531663,0.0435972,-0.0628832,0.759057,0.0618117,0.0471475,776,729,-15.4005,-2.06067
-441,295,-15.7908,2.98505,0,0,0,0,0,0,0,-1,783,729,-15.7907,-2.98502
-434,295,-11.528,0.559875,0,0,0,0,0,0,0,-1,790,729,-11.528,-0.559849
-427,295,0,0,0,0,0,0,0,0,0,-1,797,729,0,0
-420,295,0,0,0,0,0,0,0,0,0,-1,804,729,0,0
-413,295,0,0,0,0,0,0,0,0,0,-1,811,729,0,0
-406,295,0,0,0,0,0,0,0,0,0,-1,818,729,0,0
-399,295,0,0,0,0,0,0,0,0,0,-1,825,729,0,0
-392,295,0,0,0,0,0,0,0,0,0,-1,832,729,0,0
-385,295,0,0,0,0,0,0,0,0,0,-1,839,729,0,0
-378,295,0,0,0,0,0,0,0,0,0,-1,846,729,0,0
-371,295,0,0,0,0,0,0,0,0,0,-1,853,729,0,0
-364,295,0,0,0,0,0,0,0,0,0,-1,860,729,0,0
-357,295,0,0,0,0,0,0,0,0,0,-1,867,729,0,0
-350,295,0,0,0,0,0,0,0,0,0,-1,874,729,0,0
-343,295,0,0,0,0,0,0,0,0,0,-1,881,729,0,0
-336,295,0,0,0,0,0,0,0,0,0,-1,888,729,0,0
-329,295,0,0,0,0,0,0,0,0,0,-1,895,729,0,0
-322,295,0,0,0,0,0,0,0,0,0,-1,902,729,0,0
-315,295,0,0,0,0,0,0,0,0,0,-1,909,729,0,0
-308,295,0,0,0,0,0,0,0,0,0,-1,916,729,0,0
-301,295,0,0,0,0,0,0,0,0,0,-1,923,729,0,0
-294,295,0,0,0,0,0,0,0,0,0,-1,930,729,0,0
-287,295,0,0,0,0,0,0,0,0,0,-1,937,729,0,0
-280,295,0,0,0,0,0,0,0,0,0,-1,944,729,0,0
-273,295,0,0,0,0,0,0,0,0,0,-1,951,729,0,0
-266,295,0,0,0,0,0,0,0,0,0,-1,958,729,0,0
-259,295,0,0,0,0,0,0,0,0,0,-1,965,729,0,0
-252,295,0,0,0,0,0,0,0,0,0,-1,972,729,0,0
-245,295,0,0,0,0,0,0,0,0,0,-1,979,729,0,0
-238,295,0,0,0,0,0,0,0,0,0,-1,986,729,0,0
-231,295,0,0,0,0,0,0,0,0,0,-1,993,729,0,0
-224,295,0,0,0,0,0,0,0,0,0,-1,1000,729,0,0
-217,295,0,0,0,0,0,0,0,0,0,-1,1007,729,0,0
-210,295,0,0,0,0,0,0,0,0,0,-1,1014,729,0,0
-203,295,0,0,0,0,0,0,0,0,0,-1,1021,729,0,0
-196,295,0,0,0,0,0,0,0,0,0,-1,1028,729,0,0
-189,295,0,0,0,0,0,0,0,0,0,-1,1035,729,0,0
-182,295,0,0,0,0,0,0,0,0,0,-1,1042,729,0,0
-175,295,0,0,0,0,0,0,0,0,0,-1,1049,729,0,0
-168,295,0,0,0,0,0,0,0,0,0,-1,1056,729,0,0
-161,295,0,0,0,0,0,0,0,0,0,-1,1063,729,0,0
-154,295,0,0,0,0,0,0,0,0,0,-1,1070,729,0,0
-147,295,0,0,0,0,0,0,0,0,0,-1,1077,729,0,0
-140,295,0,0,0,0,0,0,0,0,0,-1,1084,729,0,0
-133,295,0,0,0,0,0,0,0,0,0,-1,1091,729,0,0
-126,295,0,0,0,0,0,0,0,0,0,-1,1098,729,0,0
-119,295,0,0,0,0,0,0,0,0,0,-1,1105,729,0,0
-112,295,0,0,0,0,0,0,0,0,0,-1,1112,729,0,0
-105,295,0,0,0,0,0,0,0,0,0,-1,1119,729,0,0
-98,295,0,0,0,0,0,0,0,0,0,-1,1126,729,0,0
-91,295,0,0,0,0,0,0,0,0,0,-1,1133,729,0,0
-84,295,0,0,0,0,0,0,0,0,0,-1,1140,729,0,0
-77,295,0,0,0,0,0,0,0,0,0,-1,1147,729,0,0
-70,295,0,0,0,0,0,0,0,0,0,-1,1154,729,0,0
-63,295,0,0,0,0,0,0,0,0,0,-1,1161,729,0,0
-56,295,0,0,0,0,0,0,0,0,0,-1,1168,729,0,0
-49,295,0,0,0,0,0,0,0,0,0,-1,1175,729,0,0
-42,295,0,0,0,0,0,0,0,0,0,-1,1182,729,0,0
-35,295,0,0,0,0,0,0,0,0,0,-1,1189,729,0,0
-28,295,0,0,0,0,0,0,0,0,0,-1,1196,729,0,0
-21,295,0,0,0,0,0,0,0,0,0,-1,1203,729,0,0
-14,295,0,0,0,0,0,0,0,0,0,-1,1210,729,0,0
-7,295,0,0,0,0,0,0,0,0,0,-1,1217,729,0,0
0,295,0,0,0,0,0,0,0,0,0,-1,1224,729,0,0
7,295,0,0,0,0,0,0,0,0,0,-1,1231,729,0,0
14,295,0,0,0,0,0,0,0,0,0,-1,1238,729,0,0
21,295,0,0,0,0,0,0,0,0,0,-1,1245,729,0,0
28,295,0,0,0,0,0,0,0,0,0,-1,1252,729,0,0
35,295,0,0,0,0,0,0,0,0,0,-1,1259,729,0,0
42,295,0,0,0,0,0,0,0,0,0,-1,1266,729,0,0
49,295,0,0,0,0,0,0,0,0,0,-1,1273,729,0,0
56,295,0,0,0,0,0,0,0,0,0,-1,1280,729,0,0
63,295,0,0,0,0,0,0,0,0,0,-1,1287,729,0,0
70,295,0,0,0,0,0,0,0,0,0,-1,1294,729,0,0
77,295,0,0,0,0,0,0,0,0,0,-1,1301,729,0,0
84,295,0,0,0,0,0,0,0,0,0,-1,1308,729,0,0
91,295,0,0,0,0,0,0,0,0,0,-1,1315,729,0,0
98,295,0,0,0,0,0,0,0,0,0,-1,1322,729,0,0
105,295,0,0,0,0,0,0,0,0,0,-1,1329,729,0,0
112,295,0,0,0,0,0,0,0,0,0,-1,1336,729,0,0
119,295,0,0,0,0,0,0,0,0,0,-1,1343,729,0,0
126,295,0,0,0,0,0,0,0,0,0,-1,1350,729,0,0
133,295,0,0,0,0,0,0,0,0,0,-1,1357,729,0,0
140,295,0,0,0,0,0,0,0,0,0,-1,1364,729,0,0
147,295,0,0,0,0,0,0,0,0,0,-1,1371,729,0,0
154,295,0,0,0,0,0,0,0,0,0,-1,1378,729,0,0
161,295,0,0,0,0,0,0,0,0,0,-1,1385,729,0,0
168,295,0,0,0,0,0,0,0,0,0,-1,1392,729,0,0
175,295,0,0,0,0,0,0,0,0,0,-1,1399,729,0,0
182,295,0,0,0,0,0,0,0,0,0,-1,1406,729,0,0
189,295,0,0,0,0,0,0,0,0,0,-1,1413,729,0,0
196,295,0,0,0,0,0,0,0,0,0,-1,1420,729,0,0
203,295,0,0,0,0,0,0,0,0,0,-1,1427,729,0,0
210,295,0,0,0,0,0,0,0,0,0,-1,1434,729,0,0
217,295,0,0,0,0,0,0,0,0,0,-1,1441,729,0,0
224,295,0,0,0,0,0,0,0,0,0,-1,1448,729,0,0
231,295,0,0,0,0,0,0,0,0,0,-1,1455,729,0,0
238,295,0,0,0,0,0,0,0,0,0,-1,1462,729,0,0
245,295,0,0,0,0,0,0,0,0,0,-1,1469,729,0,0
252,295,0,0,0,0,0,0,0,0,0,-1,1476,729,0,0
259,295,0,0,0,0,0,0,0,0,0,-1,1483,729,0,0
266,295,0,0,0,0,0,0,0,0,0,-1,1490,729,0,0
273,295,0,0,0,0,0,0,0,0,0,-1,1497,729,0,0
280,295,0,0,0,0,0,0,0,0,0,-1,1504,729,0,0
287,295,0,0,0,0,0,0,0,0,0,-1,1511,729,0,0
294,295,0,0,0,0,0,0,0,0,0,-1,1518,729,0,0
301,295,0,0,0,0,0,0,0,0,0,-1,1525,729,0,0
308,295,0,0,0,0,0,0,0,0,0,-1,1532,729,0,0
315,295,0,0,0,0,0,0,0,0,0,-1,1539,729,0,0
322,295,0,0,0,0,0,0,0,0,0,-1,1546,729,0,0
329,295,0,0,0,0,0,0,0,0,0,-1,1553,729,0,0
336,295,0,0,0,0,0,0,0,0,0,-1,1560,729,0,0
343,295,0,0,0,0,0,0,0,0,0,-1,1567,729,0,0
350,295,0,0,0,0,0,0,0,0,0,-1,1574,729,0,0
357,295,0,0,0,0,0,0,0,0,0,-1,1581,729,0,0
364,295,0,0,0,0,0,0,0,0,0,-1,1588,729,0,0
371,295,0,0,0,0,0,0,0,0,0,-1,1595,729,0,0
378,295,0,0,0,0,0,0,0,0,0,-1,1602,729,0,0
385,295,0,0,0,0,0,0,0,0,0,-1,1609,729,0,0
392,295,0,0,0,0,0,0,0,0,0,-1,1616,729,0,0
399,295,0,0,0,0,0,0,0,0,0,-1,1623,729,0,0
406,295,0,0,0,0,0,0,0,0,0,-1,1630,729,0,0
413,295,0,0,0,0,0,0,0,0,0,-1,1637,729,0,0
420,295,0,0,0,0,0,0,0,0,0,-1,1644,729,0,0
427,295,0,0,0,0,0,0,0,0,0,-1,1651,729,0,0
434,295,0,0,0,0,0,0,0,0,0,-1,1658,729,0,0
441,295,0,0,0,0,0,0,0,0,0,-1,1665,729,0,0
448,295,0,0,0,0,0,0,0,0,0,-1,1672,729,0,0
455,295,0,0,0,0,0,0,0,0,0,-1,1679,729,0,0
462,295,0,0,0,0,0,0,0,0,0,-1,1686,729,0,0
469,295,0,0,0,0,0,0,0,0,0,-1,1693,729,0,0
476,295,0,0,0,0,0,0,0,0,0,-1,1700,729,0,0
483,295,0,0,0,0,0,0,0,0,0,-1,1707,729,0,0
490,295,0,0,0,0,0,0,0,0,0,-1,1714,729,0,0
497,295,0,0,0,0,0,0,0,0,0,-1,1721,729,0,0
504,295,0,0,0,0,0,0,0,0,0,-1,1728,729,0,0
511,295,0,0,0,0,0,0,0,0,0,-1,1735,729,0,0
518,295,0,0,0,0,0,0,0,0,0,-1,1742,729,0,0
525,295,0,0,0,0,0,0,0,0,0,-1,1749,729,0,0
532,295,0,0,0,0,0,0,0,0,0,-1,1756,729,0,0
539,295,0,0,0,0,0,0,0,0,0,-1,1763,729,0,0
546,295,16.4219,5.28088,0,0,0,0,0,0,0,-1,1770,729,16.4219,-5.28089
553,295,17.2222,4.76135,0,0,0,0,0,0,0,-1,1777,729,17.2222,-4.76137
560,295,18.548,4.12823,0,0,0,0,0,0,0,-1,1784,729,18.5479,-4.12822
567,295,19.7676,4.82178,0,0,0,0,0,0,0,-1,1791,729,19.7675,-4.82178
574,295,21.7506,1.77063,0,0,0,0,0,0,0,-1,1798,729,21.7506,-1.77061
581,295,21.4136,2.34357,0,0,0,0,0,0,0,-1,1805,729,21.4136,-2.34359
588,295,20.8696,2.55627,0,0,0,0,0,0,0,-1,1812,729,20.8697,-2.55626
595,295,20.5913,3.03241,0,0,0,0,0,0,0,-1,1819,729,20.5913,-3.03238
602,295,20.4539,3.32324,0,0,0,0,0,0,0,-1,1826,729,20.4538,-3.32322
609,295,11.7737,2.19989,0,0,0,0,0,0,0,-1,1833,729,11.7736,-2.19988
616,295,14.0366,-0.187866,0,0,0,0,0,0,0,-1,1840,729,14.0367,0.18785
623,295,14.0374,0.0651855,0.0035683,0.00181027,-0.00379436,0.00658413,-0.00120556,-0.671574,0.00484156,0.0301746,1847,729,14.0374,-0.0651762
630,295,14.0376,0.325989,0.00415336,-9.0351e-05,-0.00256772,0.00536249,-0.00129948,-0.440095,0.00407777,0.0117402,1854,729,14.0376,-0.326008
637,295,14.0382,0.593933,0.00394484,-0.000158308,-0.00195997,0.0047306,-0.000944062,-0.381283,0.00351098,0.0130405,1861,729,14.0382,-0.593937
644,295,14.0411,0.860718,0.00410187,-0.000105942,-0.00133462,0.00448947,-0.000493546,-0.282648,0.00317033,0.0126766,1868,729,14.0412,-0.860696
651,295,14.0436,1.12158,0.00354488,-0.000371264,-0.000709082,0.00366932,-0.000495701,-0.173721,0.00262708,0.0124077,1875,729,14.0436,-1.12161
658,295,14.0387,1.37482,0.00260297,-0.000325916,-0.000436249,0.00266657,-0.000389513,-0.144762,0.00192076,0.0127838,1882,729,14.0386,-1.37484
665,295,14.0341,1.62335,0.00243714,-0.000427247,-4.48052e-05,0.00243785,-0.000427948,-0.015637,0.00178506,0.0120447,1889,729,14.034,-1.62338
672,295,14.0287,1.8811,0.00325153,-0.000662277,0.000386424,0.00328931,-0.000700066,0.0974796,0.00245967,0.0127956,1896,729,14.0287,-1.88109
679,295,14.0255,2.15332,0.00453262,-0.000900503,0.000826741,0.00465563,-0.00102352,0.147714,0.00349524,0.0100544,1903,729,14.0255,-2.1533
686,295,14.0427,2.39343,0.00620896,-0.00101303,0.00163068,0.00656009,-0.00136415,0.212087,0.00489193,0.00971122,1910,729,14.0428,-2.39343
693,295,14.0432,2.60858,0.00859175,-0.00125437,0.0027756,0.00932028,-0.00198291,0.256687,0.00696916,0.0230828,1917,729,14.0432,-2.6086
700,295,14.1064,2.85474,0.0118337,-0.00143824,0.00452858,0.0132317,-0.0028362,0.299418,0.00990284,0.0371454,1924,729,14.1064,-2.85476
707,295,14.2732,3.21045,0,0,0,0,0,0,0,-1,1931,729,14.2732,-3.21047
714,295,14.7632,3.75299,0,0,0,0,0,0,0,-1,1938,729,14.7632,-3.753
721,295,15.6415,3.70654,0,0,0,0,0,0,0,-1,1945,729,15.6414,-3.70652
728,295,16.4916,3.75092,0,0,0,0,0,0,0,-1,1952,729,16.4915,-3.75091
735,295,0,0,0,0,0,0,0,0,0,-1,1959,729,0,0
742,295,0,0,0,0,0,0,0,0,0,-1,1966,729,0,0
749,295,0,0,0,0,0,0,0,0,0,-1,1973,729,0,0
756,295,0,0,0,0,0,0,0,0,0,-1,1980,729,0,0
763,295,0,0,0,0,0,0,0,0,0,-1,1987,729,0,0
770,295,0,0,0,0,0,0,0,0,0,-1,1994,729,0,0
777,295,0,0,0,0,0,0,0,0,0,-1,2001,729,0,0
784,295,0,0,0,0,0,0,0,0,0,-1,2008,729,0,0
791,295,0,0,0,0,0,0,0,0,0,-1,2015,729,0,0
798,295,0,0,0,0,0,0,0,0,0,-1,2022,729,0,0
805,295,0,0,0,0,0,0,0,0,0,-1,2029,729,0,0
812,295,0,0,0,0,0,0,0,0,0,-1,2036,729,0,0
-700,288,0,0,0,0,0,0,0,0,0,-1,524,736,0,0
-693,288,0,0,0,0,0,0,0,0,0,-1,531,736,0,0
-686,288,0,0,0,0,0,0,0,0,0,-1,538,736,0,0
-679,288,0,0,0,0,0,0,0,0,0,-1,545,736,0,0
-672,288,0,0,0,0,0,0,0,0,0,-1,552,736,0,0
-665,288,0,0,0,0,0,0,0,0,0,-1,559,736,0,0
-658,288,0,0,0,0,0,0,0,0,0,-1,566,736,0,0
-651,288,0,0,0,0,0,0,0,0,0,-1,573,736,0,0
-644,288,0,0,0,0,0,0,0,0,0,-1,580,736,0,0
-637,288,0,0,0,0,0,0,0,0,0,-1,587,736,0,0
-630,288,0,0,0,0,0,0,0,0,0,-1,594,736,0,0
-623,288,0,0,0,0,0,0,0,0,0,-1,601,736,0,0
-616,288,-4.38214,1.62183,0,0,0,0,0,0,0,-1,608,736,-4.38215,-1.62181
-609,288,-4.35089,0.701416,0,0,0,0,0,0,0,-1,615,736,-4.35091,-0.701399
-602,288,-4.3197,-0.218994,0,0,0,0,0,0,0,-1,622,736,-4.31967,0.219013
-595,288,-11.2771,-0.210388,0,0,0,0,0,0,0,-1,629,736,-11.2771,0.210363
-588,288,-8.19269,1.50598,0,0,0,0,0,0,0,-1,636,736,-8.19268,-1.50601
-581,288,-8.00647,1.20569,0.0557508,-0.0113218,-0.00815068,0.0567271,-0.012298,-0.119209,0.0425145,0.0495698,643,736,-8.00649,-1.20572
-574,288,-7.80194,0.876892,0.0264307,-0.00702357,-0.000619026,0.0264421,-0.00703502,-0.0184952,0.0203819,0.0392469,650,736,-7.80197,-0.876921
-567,288,-7.77185,0.539001,0.0109534,-0.0024995,0.00294578,0.0115702,-0.00311626,0.206389,0.00893523,0.0258785,657,736,-7.77186,-0.538981
-560,288,-7.88525,0.354004,0.00341699,0.000346108,0.00313213,0.00536979,-0.00160669,0.5575,0.00421867,0.0131094,664,736,-7.88524,-0.353977
-553,288,-7.86133,0.169434,0.000852549,-0.000581975,0.00196371,0.00222589,-0.00195532,0.610297,0.00241571,0.018738,671,736,-7.86134,-0.169457
-546,288,-7.88928,-0.045105,-1.06144e-06,-0.000620308,0.00192472,0.00163878,-0.00226015,0.705648,0.00226055,0.0201787,678,736,-7.8893,0.0450844
-539,288,-7.8988,-0.2854,-0.000711377,-0.000726737,0.00193627,0.00121723,-0.00265534,0.783415,0.00228664,0.0160139,685,736,-7.89881,0.285378
-532,288,-7.86639,-0.554504,-0.00167654,-0.000990154,0.00196345,0.000659874,-0.00332657,0.87192,0.00246726,0.0120568,692,736,-7.8664,0.554486
-525,288,-7.88306,-0.795532,-0.00282583,-0.00129242,0.00220066,0.000271275,-0.00438952,0.953021,0.00302084,0.0119174,699,736,-7.88309,0.795542
-518,288,-7.91046,-1.02643,-0.00414019,-0.0018389,0.00337983,0.000580782,-0.00655987,0.949467,0.00457913,0.0124163,706,736,-7.91046,1.02645
-511,288,-7.91174,-1.26929,-0.00607542,-0.00244581,0.00647207,0.00246108,-0.0109823,0.922091,0.00826496,0.00939595,713,736,-7.91175,1.26929
-504,288,-7.90295,-1.51874,-0.00889348,-0.00347475,0.011509,0.00563951,-0.0180077,0.900999,0.0142616,0.0107188,720,736,-7.90295,1.51874
-497,288,-7.87445,-1.70636,-0.0123386,-0.0042967,0.0172651,0.00940949,-0.0260448,0.899806,0.0212073,0.0216497,727,736,-7.87444,1.70636
-490,288,-7.78088,-1.88031,0,0,0,0,0,0,0,-1,734,736,-7.7809,1.88031
-483,288,-9.34424,-0.476624,0,0,0,0,0,0,0,-1,741,736,-9.34422,0.476643
-476,288,-14.1824,-1.22766,0,0,0,0,0,0,0,-1,748,736,-14.1824,1.22766
-469,288,-14.1815,-0.392822,-0.0179278,-0.00876216,0.0425039,0.0294052,-0.0560952,0.839101,0.050159,0.0487891,755,736,-14.1815,0.392829
-462,288,-14.4615,0.236328,-0.0176143,-0.00993706,0.0485843,0.03496,-0.0625114,0.824821,0.0570196,0.0478096,762,736,-14.4616,-0.236312
-455,288,-14.8964,0.921204,-0.0154883,-0.0111729,0.0534805,0.0401935,-0.0668546,0.80556,0.0624399,0.0436573,769,736,-14.8964,-0.921191
-448,288,-15.2437,2.09753,-0.00999629,-0.0126232,0.0557523,0.0444581,-0.0670776,0.773621,0.064835,0.0438941,776,736,-15.2437,-2.09751
-441,288,-15.4451,3.48572,0,0,0,0,0,0,0,-1,783,736,-15.4451,-3.48574
-434,288,-12.8195,1.03143,0,0,0,0,0,0,0,-1,790,736,-12.8195,-1.03145
-427,288,0,0,0,0,0,0,0,0,0,-1,797,736,0,0
-420,288,0,0,0,0,0,0,0,0,0,-1,804,736,0,0
-413,288,0,0,0,0,0,0,0,0,0,-1,811,736,0,0
-406,288,0,0,0,0,0,0,0,0,0,-1,818,736,0,0
-399,288,0,0,0,0,0,0,0,0,0,-1,825,736,0,0
-392,288,0,0,0,0,0,0,0,0,0,-1,832,736,0,0
-385,288,0,0,0,0,0,0,0,0,0,-1,839,736,0,0
-378,288,0,0,0,0,0,0,0,0,0,-1,846,736,0,0
-371,288,0,0,0,0,0,0,0,0,0,-1,853,736,0,0
-364,288,0,0,0,0,0,0,0,0,0,-1,860,736,0,0
-357,288,0,0,0,0,0,0,0,0,0,-1,867,736,0,0
-350,288,0,0,0,0,0,0,0,0,0,-1,874,736,0,0
-343,288,0,0,0,0,0,0,0,0,0,-1,881,736,0,0
-336,288,0,0,0,0,0,0,0,0,0,-1,888,736,0,0
-329,288,0,0,0,0,0,0,0,0,0,-1,895,736,0,0
-322,288,0,0,0,0,0,0,0,0,0,-1,902,736,0,0
-315,288,0,0,0,0,0,0,0,0,0,-1,909,736,0,0
-308,288,0,0,0,0,0,0,0,0,0,-1,916,736,0,0
-301,288,0,0,0,0,0,0,0,0,0,-1,923,736,0,0
-294,288,0,0,0,0,0,0,0,0,0,-1,930,736,0,0
-287,288,0,0,0,0,0,0,0,0,0,-1,937,736,0,0
-280,288,0,0,0,0,0,0,0,0,0,-1,944,736,0,0
-273,288,0,0,0,0,0,0,0,0,0,-1,951,736,0,0
-266,288,0,0,0,0,0,0,0,0,0,-1,958,736,0,0
-259,288,0,0,0,0,0,0,0,0,0,-1,965,736,0,0
-252,288,0,0,0,0,0,0,0,0,0,-1,972,736,0,0
-245,288,0,0,0,0,0,0,0,0,0,-1,979,736,0,0
-238,288,0,0,0,0,0,0,0,0,0,-1,986,736,0,0
-231,288,0,0,0,0,0,0,0,0,0,-1,993,736,0,0
-224,288,0,0,0,0,0,0,0,0,0,-1,1000,736,0,0
-217,288,0,0,0,0,0,0,0,0,0,-1,1007,736,0,0
-210,288,0,0,0,0,0,0,0,0,0,-1,1014,736,0,0
-203,288,0,0,0,0,0,0,0,0,0,-1,1021,736,0,0
-196,288,0,0,0,0,0,0,0,0,0,-1,1028,736,0,0
-189,288,0,0,0,0,0,0,0,0,0,-1,1035,736,0,0
-182,288,0,0,0,0,0,0,0,0,0,-1,1042,736,0,0
-175,288,0,0,0,0,0,0,0,0,0,-1,1049,736,0,0
-168,288,0,0,0,0,0,0,0,0,0,-1,1056,736,0,0
-161,288,0,0,0,0,0,0,0,0,0,-1,1063,736,0,0
-154,288,0,0,0,0,0,0,0,0,0,-1,1070,736,0,0
-147,288,0,0,0,0,0,0,0,0,0,-1,1077,736,0,0
-140,288,0,0,0,0,0,0,0,0,0,-1,1084,736,0,0
-133,288,0,0,0,0,0,0,0,0,0,-1,1091,736,0,0
-126,288,0,0,0,0,0,0,0,0,0,-1,1098,736,0,0
-119,288,0,0,0,0,0,0,0,0,0,-1,1105,736,0,0
-112,288,0,0,0,0,0,0,0,0,0,-1,1112,736,0,0
-105,288,0,0,0,0,0,0,0,0,0,-1,1119,736,0,0
-98,288,0,0,0,0,0,0,0,0,0,-1,1126,736,0,0
-91,288,0,0,0,0,0,0,0,0,0,-1,1133,736,0,0
-84,288,0,0,0,0,0,0,0,0,0,-1,1140,736,0,0
-77,288,0,0,0,0,0,0,0,0,0,-1,1147,736,0,0
-70,288,0,0,0,0,0,0,0,0,0,-1,1154,736,0,0
-63,288,0,0,0,0,0,0,0,0,0,-1,1161,736,0,0
-56,288,0,0,0,0,0,0,0,0,0,-1,1168,736,0,0
-49,288,0,0,0,0,0,0,0,0,0,-1,1175,736,0,0
-42,288,0,0,0,0,0,0,0,0,0,-1,1182,736,0,0
-35,288,0,0,0,0,0,0,0,0,0,-1,1189,736,0,0
-28,288,0,0,0,0,0,0,0,0,0,-1,1196,736,0,0
-21,288,0,0,0,0,0,0,0,0,0,-1,1203,736,0,0
-14,288,0,0,0,0,0,0,0,0,0,-1,1210,736,0,0
-7,288,0,0,0,0,0,0,0,0,0,-1,1217,736,0,0
0,288,0,0,0,0,0,0,0,0,0,-1,1224,736,0,0
7,288,0,0,0,0,0,0,0,0,0,-1,1231,736,0,0
14,288,0,0,0,0,0,0,0,0,0,-1,1238,736,0,0
21,288,0,0,0,0,0,0,0,0,0,-1,1245,736,0,0
28,288,0,0,0,0,0,0,0,0,0,-1,1252,736,0,0
35,288,0,0,0,0,0,0,0,0,0,-1,1259,736,0,0
42,288,0,0,0,0,0,0,0,0,0,-1,1266,736,0,0
49,288,0,0,0,0,0,0,0,0,0,-1,1273,736,0,0
56,288,0,0,0,0,0,0,0,0,0,-1,1280,736,0,0
63,288,0,0,0,0,0,0,0,0,0,-1,1287,736,0,0
70,288,0,0,0,0,0,0,0,0,0,-1,1294,736,0,0
77,288,0,0,0,0,0,0,0,0,0,-1,1301,736,0,0
84,288,0,0,0,0,0,0,0,0,0,-1,1308,736,0,0
91,288,0,0,0,0,0,0,0,0,0,-1,1315,736,0,0
98,288,0,0,0,0,0,0,0,0,0,-1,1322,736,0,0
105,288,0,0,0,0,0,0,0,0,0,-1,1329,736,0,0
112,288,0,0,0,0,0,0,0,0,0,-1,1336,736,0,0
119,288,0,0,0,0,0,0,0,0,0,-1,1343,736,0,0
126,288,0,0,0,0,0,0,0,0,0,-1,1350,736,0,0
133,288,0,0,0,0,0,0,0,0,0,-1,1357,736,0,0
140,288,0,0,0,0,0,0,0,0,0,-1,1364,736,0,0
147,288,0,0,0,0,0,0,0,0,0,-1,1371,736,0,0
154,288,0,0,0,0,0,0,0,0,0,-1,1378,736,0,0
161,288,0,0,0,0,0,0,0,0,0,-1,1385,736,0,0
168,288,0,0,0,0,0,0,0,0,0,-1,1392,736,0,0
175,288,0,0,0,0,0,0,0,0,0,-1,1399,736,0,0
182,288,0,0,0,0,0,0,0,0,0,-1,1406,736,0,0
189,288,0,0,0,0,0,0,0,0,0,-1,1413,736,0,0
196,288,0,0,0,0,0,0,0,0,0,-1,1420,736,0,0
203,288,0,0,0,0,0,0,0,0,0,-1,1427,736,0,0
210,288,0,0,0,0,0,0,0,0,0,-1,1434,736,0,0
217,288,0,0,0,0,0,0,0,0,0,-1,1441,736,0,0
224,288,0,0,0,0,0,0,0,0,0,-1,1448,736,0,0
231,288,0,0,0,0,0,0,0,0,0,-1,1455,736,0,0
238,288,0,0,0,0,0,0,0,0,0,-1,1462,736,0,0
245,288,0,0,0,0,0,0,0,0,0,-1,1469,736,0,0
252,288,0,0,0,0,0,0,0,0,0,-1,1476,736,0,0
259,288,0,0,0,0,0,0,0,0,0,-1,1483,736,0,0
266,288,0,0,0,0,0,0,0,0,0,-1,1490,736,0,0
273,288,0,0,0,0,0,0,0,0,0,-1,1497,736,0,0
280,288,0,0,0,0,0,0,0,0,0,-1,1504,736,0,0
287,288,0,0,0,0,0,0,0,0,0,-1,1511,736,0,0
294,288,0,0,0,0,0,0,0,0,0,-1,1518,736,0,0
301,288,0,0,0,0,0,0,0,0,0,-1,1525,736,0,0
308,288,0,0,0,0,0,0,0,0,0,-1,1532,736,0,0
315,288,0,0,0,0,0,0,0,0,0,-1,1539,736,0,0
322,288,0,0,0,0,0,0,0,0,0,-1,1546,736,0,0
329,288,0,0,0,0,0,0,0,0,0,-1,1553,736,0,0
336,288,0,0,0,0,0,0,0,0,0,-1,1560,736,0,0
343,288,0,0,0,0,0,0,0,0,0,-1,1567,736,0,0
350,288,0,0,0,0,0,0,0,0,0,-1,1574,736,0,0
357,288,0,0,0,0,0,0,0,0,0,-1,1581,736,0,0
364,288,0,0,0,0,0,0,0,0,0,-1,1588,736,0,0
371,288,0,0,0,0,0,0,0,0,0,-1,1595,736,0,0
378,288,0,0,0,0,0,0,0,0,0,-1,1602,736,0,0
385,288,0,0,0,0,0,0,0,0,0,-1,1609,736,0,0
392,288,0,0,0,0,0,0,0,0,0,-1,1616,736,0,0
399,288,0,0,0,0,0,0,0,0,0,-1,1623,736,0,0
406,288,0,0,0,0,0,0,0,0,0,-1,1630,736,0,0
413,288,0,0,0,0,0,0,0,0,0,-1,1637,736,0,0
420,288,0,0,0,0,0,0,0,0,0,-1,1644,736,0,0
427,288,0,0,0,0,0,0,0,0,0,-1,1651,736,0,0
434,288,0,0,0,0,0,0,0,0,0,-1,1658,736,0,0
441,288,0,0,0,0,0,0,0,0,0,-1,1665,736,0,0
448,288,0,0,0,0,0,0,0,0,0,-1,1672,736,0,0
455,288,0,0,0,0,0,0,0,0,0,-1,1679,736,0,0
462,288,0,0,0,0,0,0,0,0,0,-1,1686,736,0,0
469,288,0,0,0,0,0,0,0,0,0,-1,1693,736,0,0
476,288,0,0,0,0,0,0,0,0,0,-1,1700,736,0,0
483,288,0,0,0,0,0,0,0,0,0,-1,1707,736,0,0
490,288,0,0,0,0,0,0,0,0,0,-1,1714,736,0,0
497,288,0,0,0,0,0,0,0,0,0,-1,1721,736,0,0
504,288,0,0,0,0,0,0,0,0,0,-1,1728,736,0,0
511,288,0,0,0,0,0,0,0,0,0,-1,1735,736,0,0
518,288,0,0,0,0,0,0,0,0,0,-1,1742,736,0,0
525,288,0,0,0,0,0,0,0,0,0,-1,1749,736,0,0
532,288,0,0,0,0,0,0,0,0,0,-1,1756,736,0,0
539,288,0,0,0,0,0,0,0,0,0,-1,1763,736,0,0
546,288,0,0,0,0,0,0,0,0,0,-1,1770,736,0,0
553,288,17.7463,4.54291,0,0,0,0,0,0,0,-1,1777,736,17.7464,-4.54293
560,288,19.995,3.67139,0,0,0,0,0,0,0,-1,1784,736,19.995,-3.6714
567,288,20.3287,4.17645,0,0,0,0,0,0,0,-1,1791,736,20.3288,-4.17648
574,288,21.9601,1.92407,0,0,0,0,0,0,0,-1,1798,736,21.9601,-1.92406
581,288,21.6361,2.25598,0,0,0,0,0,0,0,-1,1805,736,21.6361,-2.25599
588,288,21.2053,2.54883,-0.0185004,0.026985,-0.0113218,0.0296473,-0.0211627,-1.33984,0.0294712,0.0426319,1812,736,21.2053,-2.54886
595,288,20.7993,2.82092,-0.0100712,0.0178061,-0.00937602,0.0206661,-0.0129312,-1.27472,0.019568,0.0452341,1819,736,20.7993,-2.8209
602,288,20.5172,2.99756,0,0,0,0,0,0,0,-1,1826,736,20.5173,-2.99757
609,288,17.5223,4.86414,0,0,0,0,0,0,0,-1,1833,736,17.5223,-4.86412
616,288,13.4886,0.801331,0,0,0,0,0,0,0,-1,1840,736,13.4886,-0.80132
623,288,14.2517,0.0884399,0,0,0,0,0,0,0,-1,1847,736,14.2518,-0.0884532
630,288,14.2645,0.345337,0.00582235,-0.000473933,-0.00307689,0.00707626,-0.00172784,-0.386976,0.00538663,0.0203918,1854,736,14.2645,-0.345321
637,288,14.3103,0.594971,0.00545905,-0.000510967,-0.00245346,0.00633794,-0.00138986,-0.343985,0.00475675,0.0105381,1861,736,14.3103,-0.595
644,288,14.3251,0.854187,0.00548374,-0.000371417,-0.00173676,0.00596014,-0.000847813,-0.267717,0.00428408,0.00984314,1868,736,14.325,-0.854165
651,288,14.2992,1.11041,0.0045551,-0.000599383,-0.000965463,0.00473,-0.000774285,-0.179215,0.00344059,0.0109569,1875,736,14.2992,-1.11044
658,288,14.3016,1.39587,0.00297113,-0.000444,-0.00062116,0.0030806,-0.000553471,-0.174444,0.00226092,0.0163373,1882,736,14.3016,-1.39584
665,288,14.2961,1.63385,0.00226088,-0.000446683,-0.000102709,0.00226477,-0.000450574,-0.0378615,0.0016803,0.0169857,1889,736,14.2961,-1.63385
672,288,14.2959,1.86035,0.00270858,-0.000558816,0.000422416,0.00276231,-0.000612544,0.126511,0.00207606,0.0147533,1896,736,14.2959,-1.86035
679,288,14.3046,2.13861,0.0037589,-0.000628234,0.000814153,0.00390512,-0.000774449,0.177698,0.00289628,0.0124105,1903,736,14.3045,-2.13861
686,288,14.2942,2.36066,0.00514495,-0.000585247,0.00152168,0.00552397,-0.000964269,0.244113,0.00404259,0.00956462,1910,736,14.2942,-2.36063
693,288,14.3042,2.63354,0.00715104,-0.000634977,0.00250805,0.007889,-0.00137293,0.28616,0.00577167,0.0125695,1917,736,14.3041,-2.63355
700,288,14.2557,2.90558,0.0098896,-0.000614278,0.00398756,0.0112319,-0.00195654,0.324699,0.00821809,0.0247936,1924,736,14.2558,-2.9056
707,288,14.4099,3.25885,0.0135944,-0.000701788,0.00615683,0.0158804,-0.00298777,0.355515,0.0117106,0.0382848,1931,736,14.41,-3.25887
714,288,14.5516,3.63586,0,0,0,0,0,0,0,-1,1938,736,14.5517,-3.63584
721,288,15.9327,4.39313,0,0,0,0,0,0,0,-1,1945,736,15.9327,-4.39312
728,288,16.871,4.44733,0,0,0,0,0,0,0,-1,1952,736,16.8709,-4.4473
735,288,16.448,3.76532,0,0,0,0,0,0,0,-1,1959,736,16.448,-3.76532
742,288,0,0,0,0,0,0,0,0,0,-1,1966,736,0,0
749,288,0,0,0,0,0,0,0,0,0,-1,1973,736,0,0
756,288,0,0,0,0,0,0,0,0,0,-1,1980,736,0,0
763,288,0,0,0,0,0,0,0,0,0,-1,1987,736,0,0
770,288,0,0,0,0,0,0,0,0,0,-1,1994,736,0,0
777,288,0,0,0,0,0,0,0,0,0,-1,2001,736,0,0
784,288,0,0,0,0,0,0,0,0,0,-1,2008,736,0,0
791,288,0,0,0,0,0,0,0,0,0,-1,2015,736,0,0
798,288,0,0,0,0,0,0,0,0,0,-1,2022,736,0,0
805,288,0,0,0,0,0,0,0,0,0,-1,2029,736,0,0
812,288,0,0,0,0,0,0,0,0,0,-1,2036,736,0,0
-700,281,0,0,0,0,0,0,0,0,0,-1,524,743,0,0
-693,281,0,0,0,0,0,0,0,0,0,-1,531,743,0,0
-686,281,0,0,0,0,0,0,0,0,0,-1,538,743,0,0
-679,281,0,0,0,0,0,0,0,0,0,-1,545,743,0,0
-672,281,0,0,0,0,0,0,0,0,0,-1,552,743,0,0
-665,281,0,0,0,0,0,0,0,0,0,-1,559,743,0,0
-658,281,0,0,0,0,0,0,0,0,0,-1,566,743,0,0
-651,281,0,0,0,0,0,0,0,0,0,-1,573,743,0,0
-644,281,0,0,0,0,0,0,0,0,0,-1,580,743,0,0
-637,281,0,0,0,0,0,0,0,0,0,-1,587,743,0,0
-630,281,0,0,0,0,0,0,0,0,0,-1,594,743,0,0
-623,281,-12.2452,-3.02161,0,0,0,0,0,0,0,-1,601,743,-12.2453,3.02161
-616,281,-5.30048,1.97839,0,0,0,0,0,0,0,-1,608,743,-5.30046,-1.97839
-609,281,-5.20056,1.40259,0,0,0,0,0,0,0,-1,615,743,-5.20058,-1.4026
-602,281,-5.09332,1.11975,0,0,0,0,0,0,0,-1,622,743,-5.09331,-1.11975
-595,281,-7.53943,0.47229,0,0,0,0,0,0,0,-1,629,743,-7.53945,-0.472296
-588,281,-8.49609,2.35413,0,0,0,0,0,0,0,-1,636,743,-8.49607,-2.35413
-581,281,-8.30872,1.61829,0.052013,-0.0109651,-0.00738826,0.0528681,-0.0118202,-0.11523,0.0397753,0.0463591,643,743,-8.30872,-1.61827
-574,281,-8.05603,0.823914,0.0251408,-0.0074075,-0.000663748,0.0251543,-0.00742103,-0.0203814,0.0197144,0.0297186,650,743,-8.056,-0.823918
-567,281,-8.1236,0.6026,0.010597,-0.00298832,0.00264808,0.0110949,-0.00348624,0.185861,0.00879218,0.0142373,657,743,-8.1236,-0.602592
-560,281,-8.13416,0.377258,0.0032172,-0.000139267,0.00295044,0.00493331,-0.00185538,0.526814,0.00405151,0.00810369,664,743,-8.13416,-0.377233
-553,281,-8.1095,0.155396,0.000475393,-0.00102332,0.00187946,0.00174938,-0.00229731,0.595702,0.00234348,0.0134092,671,743,-8.10948,-0.155381
-546,281,-8.10815,-0.0484619,-0.000511121,-0.00113493,0.00203742,0.00123813,-0.00288418,0.709444,0.00244244,0.0149723,678,743,-8.10818,0.0484364
-539,281,-8.11511,-0.294189,-0.00139613,-0.00129484,0.00222472,0.000879812,-0.00357078,0.796778,0.00272161,0.0126151,685,743,-8.1151,0.294192
-532,281,-8.11456,-0.537109,-0.0025863,-0.00166203,0.00243526,0.000354555,-0.00460288,0.879167,0.00319334,0.0112659,692,743,-8.11454,0.537111
-525,281,-8.13312,-0.77832,-0.00397805,-0.00207339,0.00284712,-2.35441e-05,-0.00602789,0.946793,0.00401077,0.0133506,699,743,-8.13311,0.778326
-518,281,-8.14124,-1.02313,-0.00552687,-0.00269253,0.00419857,0.0003216,-0.00854099,0.948162,0.00580417,0.0124228,706,743,-8.14122,1.02314
-511,281,-8.15063,-1.26904,-0.00758081,-0.00333173,0.00738551,0.00222874,-0.0131413,0.925449,0.00959049,0.0113952,713,743,-8.15065,1.26905
-504,281,-8.15973,-1.52576,-0.0103964,-0.00440698,0.0124287,0.00538275,-0.0201861,0.90362,0.0155651,0.0134449,720,743,-8.15973,1.52573
-497,281,-8.02155,-1.81696,-0.0137119,-0.00522266,0.018048,0.00907318,-0.0280077,0.900892,0.0223197,0.0351902,727,743,-8.02157,1.81695
-490,281,-8.24622,-1.63959,0,0,0,0,0,0,0,-1,734,743,-8.24623,1.63961
-483,281,-8.65936,-1.56268,0,0,0,0,0,0,0,-1,741,743,-8.65934,1.56268
-476,281,-10.4659,-2.07819,0,0,0,0,0,0,0,-1,748,743,-10.4659,2.07816
-469,281,-14.6923,-0.273132,-0.019032,-0.00914831,0.0425231,0.0287192,-0.0568995,0.843246,0.0503166,0.0485094,755,743,-14.6923,0.273115
-462,281,-14.7755,0.679993,-0.0185534,-0.0100897,0.0483479,0.0342112,-0.0628542,0.829051,0.0568483,0.0447057,762,743,-14.7755,-0.679988
-455,281,-14.8798,1.52954,-0.0161115,-0.0110288,0.0528516,0.0393426,-0.0664829,0.809422,0.0617645,0.0430617,769,743,-14.8798,-1.52952
-448,281,-15.3083,1.97791,0,0,0,0,0,0,0,-1,776,743,-15.3083,-1.97789
-441,281,-13.2051,3.54559,0,0,0,0,0,0,0,-1,783,743,-13.2051,-3.5456
-434,281,0,0,0,0,0,0,0,0,0,-1,790,743,0,0
-427,281,0,0,0,0,0,0,0,0,0,-1,797,743,0,0
-420,281,0,0,0,0,0,0,0,0,0,-1,804,743,0,0
-413,281,0,0,0,0,0,0,0,0,0,-1,811,743,0,0
-406,281,0,0,0,0,0,0,0,0,0,-1,818,743,0,0
-399,281,0,0,0,0,0,0,0,0,0,-1,825,743,0,0
-392,281,0,0,0,0,0,0,0,0,0,-1,832,743,0,0
-385,281,0,0,0,0,0,0,0,0,0,-1,839,743,0,0
-378,281,0,0,0,0,0,0,0,0,0,-1,846,743,0,0
-371,281,0,0,0,0,0,0,0,0,0,-1,853,743,0,0
-364,281,0,0,0,0,0,0,0,0,0,-1,860,743,0,0
-357,281,0,0,0,0,0,0,0,0,0,-1,867,743,0,0
-350,281,0,0,0,0,0,0,0,0,0,-1,874,743,0,0
-343,281,0,0,0,0,0,0,0,0,0,-1,881,743,0,0
-336,281,0,0,0,0,0,0,0,0,0,-1,888,743,0,0
-329,281,0,0,0,0,0,0,0,0,0,-1,895,743,0,0
-322,281,0,0,0,0,0,0,0,0,0,-1,902,743,0,0
-315,281,0,0,0,0,0,0,0,0,0,-1,909,743,0,0
-308,281,0,0,0,0,0,0,0,0,0,-1,916,743,0,0
-301,281,0,0,0,0,0,0,0,0,0,-1,923,743,0,0
-294,281,0,0,0,0,0,0,0,0,0,-1,930,743,0,0
-287,281,0,0,0,0,0,0,0,0,0,-1,937,743,0,0
-280,281,0,0,0,0,0,0,0,0,0,-1,944,743,0,0
-273,281,0,0,0,0,0,0,0,0,0,-1,951,743,0,0
-266,281,0,0,0,0,0,0,0,0,0,-1,958,743,0,0
-259,281,0,0,0,0,0,0,0,0,0,-1,965,743,0,0
-252,281,0,0,0,0,0,0,0,0,0,-1,972,743,0,0
-245,281,0,0,0,0,0,0,0,0,0,-1,979,743,0,0
-238,281,0,0,0,0,0,0,0,0,0,-1,986,743,0,0
-231,281,0,0,0,0,0,0,0,0,0,-1,993,743,0,0
-224,281,0,0,0,0,0,0,0,0,0,-1,1000,743,0,0
-217,281,0,0,0,0,0,0,0,0,0,-1,1007,743,0,0
-210,281,0,0,0,0,0,0,0,0,0,-1,1014,743,0,0
-203,281,0,0,0,0,0,0,0,0,0,-1,1021,743,0,0
-196,281,0,0,0,0,0,0,0,0,0,-1,1028,743,0,0
-189,281,0,0,0,0,0,0,0,0,0,-1,1035,743,0,0
-182,281,0,0,0,0,0,0,0,0,0,-1,1042,743,0,0
-175,281,0,0,0,0,0,0,0,0,0,-1,1049,743,0,0
-168,281,0,0,0,0,0,0,0,0,0,-1,1056,743,0,0
-161,281,0,0,0,0,0,0,0,0,0,-1,1063,743,0,0
-154,281,0,0,0,0,0,0,0,0,0,-1,1070,743,0,0
-147,281,0,0,0,0,0,0,0,0,0,-1,1077,743,0,0
-140,281,0,0,0,0,0,0,0,0,0,-1,1084,743,0,0
-133,281,0,0,0,0,0,0,0,0,0,-1,1091,743,0,0
-126,281,0,0,0,0,0,0,0,0,0,-1,1098,743,0,0
-119,281,0,0,0,0,0,0,0,0,0,-1,1105,743,0,0
-112,281,0,0,0,0,0,0,0,0,0,-1,1112,743,0,0
-105,281,0,0,0,0,0,0,0,0,0,-1,1119,743,0,0
-98,281,0,0,0,0,0,0,0,0,0,-1,1126,743,0,0
-91,281,0,0,0,0,0,0,0,0,0,-1,1133,743,0,0
-84,281,0,0,0,0,0,0,0,0,0,-1,1140,743,0,0
-77,281,0,0,0,0,0,0,0,0,0,-1,1147,743,0,0
-70,281,0,0,0,0,0,0,0,0,0,-1,1154,743,0,0
-63,281,0,0,0,0,0,0,0,0,0,-1,1161,743,0,0
-56,281,0,0,0,0,0,0,0,0,0,-1,1168,743,0,0
-49,281,0,0,0,0,0,0,0,0,0,-1,1175,743,0,0
-42,281,0,0,0,0,0,0,0,0,0,-1,1182,743,0,0
-35,281,0,0,0,0,0,0,0,0,0,-1,1189,743,0,0
-28,281,0,0,0,0,0,0,0,0,0,-1,1196,743,0,0
-21,281,0,0,0,0,0,0,0,0,0,-1,1203,743,0,0
-14,281,0,0,0,0,0,0,0,0,0,-1,1210,743,0,0
-7,281,0,0,0,0,0,0,0,0,0,-1,1217,743,0,0
0,281,0,0,0,0,0,0,0,0,0,-1,1224,743,0,0
7,281,0,0,0,0,0,0,0,0,0,-1,1231,743,0,0
14,281,0,0,0,0,0,0,0,0,0,-1,1238,743,0,0
21,281,0,0,0,0,0,0,0,0,0,-1,1245,743,0,0
28,281,0,0,0,0,0,0,0,0,0,-1,1252,743,0,0
35,281,0,0,0,0,0,0,0,0,0,-1,1259,743,0,0
42,281,0,0,0,0,0,0,0,0,0,-1,1266,743,0,0
49,281,0,0,0,0,0,0,0,0,0,-1,1273,743,0,0
56,281,0,0,0,0,0,0,0,0,0,-1,1280,743,0,0
63,281,0,0,0,0,0,0,0,0,0,-1,1287,743,0,0
70,281,0,0,0,0,0,0,0,0,0,-1,1294,743,0,0
77,281,0,0,0,0,0,0,0,0,0,-1,1301,743,0,0
84,281,0,0,0,0,0,0,0,0,0,-1,1308,743,0,0
91,281,0,0,0,0,0,0,0,0,0,-1,1315,743,0,0
98,281,0,0,0,0,0,0,0,0,0,-1,1322,743,0,0
105,281,0,0,0,0,0,0,0,0,0,-1,1329,743,0,0
112,281,0,0,0,0,0,0,0,0,0,-1,1336,743,0,0
119,281,0,0,0,0,0,0,0,0,0,-1,1343,743,0,0
126,281,0,0,0,0,0,0,0,0,0,-1,1350,743,0,0
133,281,0,0,0,0,0,0,0,0,0,-1,1357,743,0,0
140,281,0,0,0,0,0,0,0,0,0,-1,1364,743,0,0
147,281,0,0,0,0,0,0,0,0,0,-1,1371,743,0,0
154,281,0,0,0,0,0,0,0,0,0,-1,1378,743,0,0
161,281,0,0,0,0,0,0,0,0,0,-1,1385,743,0,0
168,281,0,0,0,0,0,0,0,0,0,-1,1392,743,0,0
175,281,0,0,0,0,0,0,0,0,0,-1,1399,743,0,0
182,281,0,0,0,0,0,0,0,0,0,-1,1406,743,0,0
189,281,0,0,0,0,0,0,0,0,0,-1,1413,743,0,0
196,281,0,0,0,0,0,0,0,0,0,-1,1420,743,0,0
203,281,0,0,0,0,0,0,0,0,0,-1,1427,743,0,0
210,281,0,0,0,0,0,0,0,0,0,-1,1434,743,0,0
217,281,0,0,0,0,0,0,0,0,0,-1,1441,743,0,0
224,281,0,0,0,0,0,0,0,0,0,-1,1448,743,0,0
231,281,0,0,0,0,0,0,0,0,0,-1,1455,743,0,0
238,281,0,0,0,0,0,0,0,0,0,-1,1462,743,0,0
245,281,0,0,0,0,0,0,0,0,0,-1,1469,743,0,0
252,281,0,0,0,0,0,0,0,0,0,-1,1476,743,0,0
259,281,0,0,0,0,0,0,0,0,0,-1,1483,743,0,0
266,281,0,0,0,0,0,0,0,0,0,-1,1490,743,0,0
273,281,0,0,0,0,0,0,0,0,0,-1,1497,743,0,0
280,281,0,0,0,0,0,0,0,0,0,-1,1504,743,0,0
287,281,0,0,0,0,0,0,0,0,0,-1,1511,743,0,0
294,281,0,0,0,0,0,0,0,0,0,-1,1518,743,0,0
301,281,0,0,0,0,0,0,0,0,0,-1,1525,743,0,0
308,281,0,0,0,0,0,0,0,0,0,-1,1532,743,0,0
315,281,0,0,0,0,0,0,0,0,0,-1,1539,743,0,0
322,281,0,0,0,0,0,0,0,0,0,-1,1546,743,0,0
329,281,0,0,0,0,0,0,0,0,0,-1,1553,743,0,0
336,281,0,0,0,0,0,0,0,0,0,-1,1560,743,0,0
343,281,0,0,0,0,0,0,0,0,0,-1,1567,743,0,0
350,281,0,0,0,0,0,0,0,0,0,-1,1574,743,0,0
357,281,0,0,0,0,0,0,0,0,0,-1,1581,743,0,0
364,281,0,0,0,0,0,0,0,0,0,-1,1588,743,0,0
371,281,0,0,0,0,0,0,0,0,0,-1,1595,743,0,0
378,281,0,0,0,0,0,0,0,0,0,-1,1602,743,0,0
385,281,0,0,0,0,0,0,0,0,0,-1,1609,743,0,0
392,281,0,0,0,0,0,0,0,0,0,-1,1616,743,0,0
399,281,0,0,0,0,0,0,0,0,0,-1,1623,743,0,0
406,281,0,0,0,0,0,0,0,0,0,-1,1630,743,0,0
413,281,0,0,0,0,0,0,0,0,0,-1,1637,743,0,0
420,281,0,0,0,0,0,0,0,0,0,-1,1644,743,0,0
427,281,0,0,0,0,0,0,0,0,0,-1,1651,743,0,0
434,281,0,0,0,0,0,0,0,0,0,-1,1658,743,0,0
441,281,0,0,0,0,0,0,0,0,0,-1,1665,743,0,0
448,281,0,0,0,0,0,0,0,0,0,-1,1672,743,0,0
455,281,0,0,0,0,0,0,0,0,0,-1,1679,743,0,0
462,281,0,0,0,0,0,0,0,0,0,-1,1686,743,0,0
469,281,0,0,0,0,0,0,0,0,0,-1,1693,743,0,0
476,281,0,0,0,0,0,0,0,0,0,-1,1700,743,0,0
483,281,0,0,0,0,0,0,0,0,0,-1,1707,743,0,0
490,281,0,0,0,0,0,0,0,0,0,-1,1714,743,0,0
497,281,0,0,0,0,0,0,0,0,0,-1,1721,743,0,0
504,281,0,0,0,0,0,0,0,0,0,-1,1728,743,0,0
511,281,0,0,0,0,0,0,0,0,0,-1,1735,743,0,0
518,281,0,0,0,0,0,0,0,0,0,-1,1742,743,0,0
525,281,0,0,0,0,0,0,0,0,0,-1,1749,743,0,0
532,281,0,0,0,0,0,0,0,0,0,-1,1756,743,0,0
539,281,0,0,0,0,0,0,0,0,0,-1,1763,743,0,0
546,281,0,0,0,0,0,0,0,0,0,-1,1770,743,0,0
553,281,0,0,0,0,0,0,0,0,0,-1,1777,743,0,0
560,281,20.899,3.59973,0,0,0,0,0,0,0,-1,1784,743,20.899,-3.59973
567,281,20.8265,4.08087,-0.0398024,0.0643645,-0.0218724,0.0687707,-0.0442087,-1.372,0.0657405,0.0439102,1791,743,20.8265,-4.08088
574,281,20.6727,4.18939,-0.0314422,0.0487127,-0.0189866,0.0529827,-0.0357122,-1.34958,0.0515306,0.0471492,1798,743,20.6727,-4.18936
581,281,21.515,2.72491,0,0,0,0,0,0,0,-1,1805,743,21.515,-2.72494
588,281,21.3323,2.54102,-0.0144691,0.0242466,-0.0127703,0.0280794,-0.0183019,-1.27922,0.0269759,0.0441892,1812,743,21.3323,-2.54103
595,281,21.0552,2.54523,-0.00718196,0.0162379,-0.010557,0.0202941,-0.0112382,-1.20396,0.0184538,0.0448571,1819,743,21.0552,-2.54525
602,281,20.6842,2.57703,0,0,0,0,0,0,0,-1,1826,743,20.6842,-2.57702
609,281,22.1361,3.23053,0,0,0,0,0,0,0,-1,1833,743,22.1361,-3.23054
616,281,18.9973,0.716797,0,0,0,0,0,0,0,-1,1840,743,18.9973,-0.716792
623,281,14.3489,0.158325,0,0,0,0,0,0,0,-1,1847,743,14.3489,-0.158342
630,281,14.452,0.369507,0.00711545,-0.000442413,-0.00350221,0.00848878,-0.00181575,-0.373706,0.00635154,0.0367725,1854,743,14.452,-0.369526
637,281,14.5356,0.601685,0.00660612,-0.000464233,-0.00292896,0.00766184,-0.00151995,-0.345945,0.0056827,0.0134815,1861,743,14.5356,-0.601656
644,281,14.5592,0.867981,0.00654309,-0.00029272,-0.00221502,0.00719807,-0.0009477,-0.287507,0.0051438,0.0103011,1868,743,14.5592,-0.867969
651,281,14.5642,1.11511,0.00535851,-0.000557974,-0.00140397,0.00567477,-0.00087423,-0.22156,0.00410573,0.0113667,1875,743,14.5642,-1.11509
658,281,14.5513,1.38153,0.00326715,-0.000425586,-0.00105496,0.00354728,-0.00070572,-0.259551,0.00263183,0.019455,1882,743,14.5513,-1.38153
665,281,14.5333,1.62982,0.00204927,-0.000436416,-0.000450983,0.00212857,-0.000515709,-0.174044,0.00161857,0.0203609,1889,743,14.5333,-1.62984
672,281,14.5483,1.87549,0.00210919,-0.000493704,0.000152239,0.00211807,-0.000502578,0.0582238,0.001606,0.0125886,1896,743,14.5483,-1.87549
679,281,14.5509,2.11365,0.00290941,-0.000435057,0.000518889,0.00298807,-0.000513712,0.150438,0.00218352,0.0183656,1903,743,14.5509,-2.11366
686,281,14.5284,2.33832,0.00405559,-0.000223423,0.00120064,0.00436945,-0.000537285,0.255691,0.00310758,0.0144128,1910,743,14.5284,-2.33833
693,281,14.533,2.59857,0.00575021,-8.10482e-05,0.00210043,0.006428,-0.000758844,0.312145,0.00455938,0.0114372,1917,743,14.5329,-2.59857
700,281,14.5217,2.86816,0.00817399,-0.000118926,0.00341066,0.00939649,-0.00134143,0.34417,0.00675601,0.0185299,1924,743,14.5217,-2.86818
707,281,14.5337,3.14319,0.0114383,-0.000262588,0.00523066,0.0134356,-0.00225992,0.364763,0.00979764,0.0360105,1931,743,14.5337,-3.14319
714,281,14.5637,3.39722,0,0,0,0,0,0,0,-1,1938,743,14.5637,-3.39721
721,281,15.5507,3.42883,0,0,0,0,0,0,0,-1,1945,743,15.5506,-3.42882
728,281,15.9291,3.63123,0,0,0,0,0,0,0,-1,1952,743,15.9291,-3.63125
735,281,16.7875,2.70435,0,0,0,0,0,0,0,-1,1959,743,16.7875,-2.70433
742,281,0,0,0,0,0,0,0,0,0,-1,1966,743,0,0
749,281,0,0,0,0,0,0,0,0,0,-1,1973,743,0,0
756,281,0,0,0,0,0,0,0,0,0,-1,1980,743,0,0
763,281,0,0,0,0,0,0,0,0,0,-1,1987,743,0,0
770,281,0,0,0,0,0,0,0,0,0,-1,1994,743,0,0
777,281,0,0,0,0,0,0,0,0,0,-1,2001,743,0,0
784,281,0,0,0,0,0,0,0,0,0,-1,2008,743,0,0
791,281,0,0,0,0,0,0,0,0,0,-1,2015,743,0,0
798,281,0,0,0,0,0,0,0,0,0,-1,2022,743,0,0
805,281,0,0,0,0,0,0,0,0,0,-1,2029,743,0,0
812,281,0,0,0,0,0,0,0,0,0,-1,2036,743,0,0
-700,274,0,0,0,0,0,0,0,0,0,-1,524,750,0,0
-693,274,0,0,0,0,0,0,0,0,0,-1,531,750,0,0
-686,274,0,0,0,0,0,0,0,0,0,-1,538,750,0,0
-679,274,0,0,0,0,0,0,0,0,0,-1,545,750,0,0
-672,274,0,0,0,0,0,0,0,0,0,-1,552,750,0,0
-665,274,0,0,0,0,0,0,0,0,0,-1,559,750,0,0
-658,274,0,0,0,0,0,0,0,0,0,-1,566,750,0,0
-651,274,0,0,0,0,0,0,0,0,0,-1,573,750,0,0
-644,274,0,0,0,0,0,0,0,0,0,-1,580,750,0,0
-637,274,0,0,0,0,0,0,0,0,0,-1,587,750,0,0
-630,274,0,0,0,0,0,0,0,0,0,-1,594,750,0,0
-623,274,-12.6198,-1.30408,0,0,0,0,0,0,0,-1,601,750,-12.6197,1.30408
-616,274,-10.4524,-2.85681,0,0,0,0,0,0,0,-1,608,750,-10.4524,2.85684
-609,274,-5.93671,1.71143,0,0,0,0,0,0,0,-1,615,750,-5.9367,-1.71144
-602,274,-6.09863,1.27521,0,0,0,0,0,0,0,-1,622,750,-6.09862,-1.27524
-595,274,-8.24921,1.49182,0,0,0,0,0,0,0,-1,629,750,-8.24923,-1.49183
-588,274,-8.315,1.42529,0,0,0,0,0,0,0,-1,636,750,-8.31501,-1.42529
-581,274,-8.29132,1.13721,0.0478391,-0.00995126,-0.0071518,0.048711,-0.0108232,-0.121316,0.0366188,0.0409437,643,750,-8.2913,-1.13719
-574,274,-8.27612,0.826965,0.0237007,-0.00725249,-0.00108266,0.0237385,-0.00729031,-0.0349203,0.0187347,0.0209103,650,750,-8.27614,-0.826937
-567,274,-8.37585,0.6203,0.010179,-0.00312192,0.00199794,0.0104726,-0.00341556,0.145922,0.00835627,0.017734,657,750,-8.37584,-0.620282
-560,274,-8.38159,0.411072,0.00307781,-0.000433546,0.00246198,0.004346,-0.00170173,0.47566,0.00360119,0.014682,664,750,-8.38157,-0.411068
-553,274,-8.34894,0.147339,0.000234477,-0.00135068,0.00151959,0.00115576,-0.00227197,0.545019,0.00201367,0.00913265,671,750,-8.34892,-0.147334
-546,274,-8.34943,-0.0776978,-0.000866509,-0.00166905,0.00192171,0.000695377,-0.00323094,0.682472,0.0024193,0.0103568,678,750,-8.3494,0.0777151
-539,274,-8.36261,-0.290344,-0.00190838,-0.00197232,0.002332,0.000391869,-0.00427257,0.778544,0.00298758,0.0109375,685,750,-8.36264,0.290363
-532,274,-8.37085,-0.514709,-0.00327088,-0.00250366,0.00276169,-9.90701e-05,-0.00567547,0.854408,0.00375106,0.0113296,692,750,-8.37083,0.514684
-525,274,-8.37158,-0.759338,-0.00480597,-0.00306082,0.0033508,-0.000470844,-0.00739594,0.912773,0.00478141,0.0115778,699,750,-8.37157,0.759327
-518,274,-8.36761,-0.99762,-0.0064651,-0.00372505,0.00477526,-0.000127166,-0.010063,0.925096,0.00666667,0.0116631,706,750,-8.36762,0.997609
-511,274,-8.37817,-1.26239,-0.00848951,-0.00435075,0.00783075,0.00167944,-0.0145197,0.914577,0.0102854,0.0117726,713,750,-8.3782,1.26242
-504,274,-8.39435,-1.55402,-0.0111433,-0.0053911,0.012585,0.00464229,-0.0211767,0.897735,0.0158928,0.0209098,720,750,-8.39433,1.55399
-497,274,-8.45074,-1.69861,-0.0141688,-0.00613939,0.0177896,0.00808286,-0.0283911,0.896378,0.0221195,0.0445044,727,750,-8.45077,1.69862
-490,274,-8.25488,-1.69128,0,0,0,0,0,0,0,-1,734,750,-8.2549,1.69126
-483,274,-10.4796,-1.42651,0,0,0,0,0,0,0,-1,741,750,-10.4796,1.42651
-476,274,-10.9879,-1.76489,0,0,0,0,0,0,0,-1,748,750,-10.9879,1.76492
-469,274,-11.4951,-2.09802,0,0,0,0,0,0,0,-1,755,750,-11.4951,2.09803
-462,274,-15.3295,0.780884,-0.0175715,-0.00987028,0.0455797,0.0320212,-0.059463,0.827539,0.0536046,0.0471656,762,750,-15.3295,-0.780879
-455,274,-15.3959,1.64392,-0.0141578,-0.0104027,0.0490415,0.0367971,-0.0613577,0.804531,0.057258,0.0458266,769,750,-15.396,-1.64392
-448,274,-15.4174,2.46222,0,0,0,0,0,0,0,-1,776,750,-15.4174,-2.46222
-441,274,0,0,0,0,0,0,0,0,0,-1,783,750,0,0
-434,274,0,0,0,0,0,0,0,0,0,-1,790,750,0,0
-427,274,0,0,0,0,0,0,0,0,0,-1,797,750,0,0
-420,274,0,0,0,0,0,0,0,0,0,-1,804,750,0,0
-413,274,0,0,0,0,0,0,0,0,0,-1,811,750,0,0
-406,274,0,0,0,0,0,0,0,0,0,-1,818,750,0,0
-399,274,0,0,0,0,0,0,0,0,0,-1,825,750,0,0
-392,274,0,0,0,0,0,0,0,0,0,-1,832,750,0,0
-385,274,0,0,0,0,0,0,0,0,0,-1,839,750,0,0
-378,274,0,0,0,0,0,0,0,0,0,-1,846,750,0,0
-371,274,0,0,0,0,0,0,0,0,0,-1,853,750,0,0
-364,274,0,0,0,0,0,0,0,0,0,-1,860,750,0,0
-357,274,0,0,0,0,0,0,0,0,0,-1,867,750,0,0
-350,274,0,0,0,0,0,0,0,0,0,-1,874,750,0,0
-343,274,0,0,0,0,0,0,0,0,0,-1,881,750,0,0
-336,274,0,0,0,0,0,0,0,0,0,-1,888,750,0,0
-329,274,0,0,0,0,0,0,0,0,0,-1,895,750,0,0
-322,274,0,0,0,0,0,0,0,0,0,-1,902,750,0,0
-315,274,0,0,0,0,0,0,0,0,0,-1,909,750,0,0
-308,274,0,0,0,0,0,0,0,0,0,-1,916,750,0,0
-301,274,0,0,0,0,0,0,0,0,0,-1,923,750,0,0
-294,274,0,0,0,0,0,0,0,0,0,-1,930,750,0,0
-287,274,0,0,0,0,0,0,0,0,0,-1,937,750,0,0
-280,274,0,0,0,0,0,0,0,0,0,-1,944,750,0,0
-273,274,0,0,0,0,0,0,0,0,0,-1,951,750,0,0
-266,274,0,0,0,0,0,0,0,0,0,-1,958,750,0,0
-259,274,0,0,0,0,0,0,0,0,0,-1,965,750,0,0
-252,274,0,0,0,0,0,0,0,0,0,-1,972,750,0,0
-245,274,0,0,0,0,0,0,0,0,0,-1,979,750,0,0
-238,274,0,0,0,0,0,0,0,0,0,-1,986,750,0,0
-231,274,0,0,0,0,0,0,0,0,0,-1,993,750,0,0
-224,274,0,0,0,0,0,0,0,0,0,-1,1000,750,0,0
-217,274,0,0,0,0,0,0,0,0,0,-1,1007,750,0,0
-210,274,0,0,0,0,0,0,0,0,0,-1,1014,750,0,0
-203,274,0,0,0,0,0,0,0,0,0,-1,1021,750,0,0
-196,274,0,0,0,0,0,0,0,0,0,-1,1028,750,0,0
-189,274,0,0,0,0,0,0,0,0,0,-1,1035,750,0,0
-182,274,0,0,0,0,0,0,0,0,0,-1,1042,750,0,0
-175,274,0,0,0,0,0,0,0,0,0,-1,1049,750,0,0
-168,274,0,0,0,0,0,0,0,0,0,-1,1056,750,0,0
-161,274,0,0,0,0,0,0,0,0,0,-1,1063,750,0,0
-154,274,0,0,0,0,0,0,0,0,0,-1,1070,750,0,0
-147,274,0,0,0,0,0,0,0,0,0,-1,1077,750,0,0
-140,274,0,0,0,0,0,0,0,0,0,-1,1084,750,0,0
-133,274,0,0,0,0,0,0,0,0,0,-1,1091,750,0,0
-126,274,0,0,0,0,0,0,0,0,0,-1,1098,750,0,0
-119,274,0,0,0,0,0,0,0,0,0,-1,1105,750,0,0
-112,274,0,0,0,0,0,0,0,0,0,-1,1112,750,0,0
-105,274,0,0,0,0,0,0,0,0,0,-1,1119,750,0,0
-98,274,0,0,0,0,0,0,0,0,0,-1,1126,750,0,0
-91,274,0,0,0,0,0,0,0,0,0,-1,1133,750,0,0
-84,274,0,0,0,0,0,0,0,0,0,-1,1140,750,0,0
-77,274,0,0,0,0,0,0,0,0,0,-1,1147,750,0,0
-70,274,0,0,0,0,0,0,0,0,0,-1,1154,750,0,0
-63,274,0,0,0,0,0,0,0,0,0,-1,1161,750,0,0
-56,274,0,0,0,0,0,0,0,0,0,-1,1168,750,0,0
-49,274,0,0,0,0,0,0,0,0,0,-1,1175,750,0,0
-42,274,0,0,0,0,0,0,0,0,0,-1,1182,750,0,0
-35,274,0,0,0,0,0,0,0,0,0,-1,1189,750,0,0
-28,274,0,0,0,0,0,0,0,0,0,-1,1196,750,0,0
-21,274,0,0,0,0,0,0,0,0,0,-1,1203,750,0,0
-14,274,0,0,0,0,0,0,0,0,0,-1,1210,750,0,0
-7,274,0,0,0,0,0,0,0,0,0,-1,1217,750,0,0
0,274,0,0,0,0,0,0,0,0,0,-1,1224,750,0,0
7,274,0,0,0,0,0,0,0,0,0,-1,1231,750,0,0
14,274,0,0,0,0,0,0,0,0,0,-1,1238,750,0,0
21,274,0,0,0,0,0,0,0,0,0,-1,1245,750,0,0
28,274,0,0,0,0,0,0,0,0,0,-1,1252,750,0,0
35,274,0,0,0,0,0,0,0,0,0,-1,1259,750,0,0
42,274,0,0,0,0,0,0,0,0,0,-1,1266,750,0,0
49,274,0,0,0,0,0,0,0,0,0,-1,1273,750,0,0
56,274,0,0,0,0,0,0,0,0,0,-1,1280,750,0,0
63,274,0,0,0,0,0,0,0,0,0,-1,1287,750,0,0
70,274,0,0,0,0,0,0,0,0,0,-1,1294,750,0,0
77,274,0,0,0,0,0,0,0,0,0,-1,1301,750,0,0
84,274,0,0,0,0,0,0,0,0,0,-1,1308,750,0,0
91,274,0,0,0,0,0,0,0,0,0,-1,1315,750,0,0
98,274,0,0,0,0,0,0,0,0,0,-1,1322,750,0,0
105,274,0,0,0,0,0,0,0,0,0,-1,1329,750,0,0
112,274,0,0,0,0,0,0,0,0,0,-1,1336,750,0,0
119,274,0,0,0,0,0,0,0,0,0,-1,1343,750,0,0
126,274,0,0,0,0,0,0,0,0,0,-1,1350,750,0,0
133,274,0,0,0,0,0,0,0,0,0,-1,1357,750,0,0
140,274,0,0,0,0,0,0,0,0,0,-1,1364,750,0,0
147,274,0,0,0,0,0,0,0,0,0,-1,1371,750,0,0
154,274,0,0,0,0,0,0,0,0,0,-1,1378,750,0,0
161,274,0,0,0,0,0,0,0,0,0,-1,1385,750,0,0
168,274,0,0,0,0,0,0,0,0,0,-1,1392,750,0,0
175,274,0,0,0,0,0,0,0,0,0,-1,1399,750,0,0
182,274,0,0,0,0,0,0,0,0,0,-1,1406,750,0,0
189,274,0,0,0,0,0,0,0,0,0,-1,1413,750,0,0
196,274,0,0,0,0,0,0,0,0,0,-1,1420,750,0,0
203,274,0,0,0,0,0,0,0,0,0,-1,1427,750,0,0
210,274,0,0,0,0,0,0,0,0,0,-1,1434,750,0,0
217,274,0,0,0,0,0,0,0,0,0,-1,1441,750,0,0
224,274,0,0,0,0,0,0,0,0,0,-1,1448,750,0,0
231,274,0,0,0,0,0,0,0,0,0,-1,1455,750,0,0
238,274,0,0,0,0,0,0,0,0,0,-1,1462,750,0,0
245,274,0,0,0,0,0,0,0,0,0,-1,1469,750,0,0
252,274,0,0,0,0,0,0,0,0,0,-1,1476,750,0,0
259,274,0,0,0,0,0,0,0,0,0,-1,1483,750,0,0
266,274,0,0,0,0,0,0,0,0,0,-1,1490,750,0,0
273,274,0,0,0,0,0,0,0,0,0,-1,1497,750,0,0
280,274,0,0,0,0,0,0,0,0,0,-1,1504,750,0,0
287,274,0,0,0,0,0,0,0,0,0,-1,1511,750,0,0
294,274,0,0,0,0,0,0,0,0,0,-1,1518,750,0,0
301,274,0,0,0,0,0,0,0,0,0,-1,1525,750,0,0
308,274,0,0,0,0,0,0,0,0,0,-1,1532,750,0,0
315,274,0,0,0,0,0,0,0,0,0,-1,1539,750,0,0
322,274,0,0,0,0,0,0,0,0,0,-1,1546,750,0,0
329,274,0,0,0,0,0,0,0,0,0,-1,1553,750,0,0
336,274,0,0,0,0,0,0,0,0,0,-1,1560,750,0,0
343,274,0,0,0,0,0,0,0,0,0,-1,1567,750,0,0
350,274,0,0,0,0,0,0,0,0,0,-1,1574,750,0,0
357,274,0,0,0,0,0,0,0,0,0,-1,1581,750,0,0
364,274,0,0,0,0,0,0,0,0,0,-1,1588,750,0,0
371,274,0,0,0,0,0,0,0,0,0,-1,1595,750,0,0
378,274,0,0,0,0,0,0,0,0,0,-1,1602,750,0,0
385,274,0,0,0,0,0,0,0,0,0,-1,1609,750,0,0
392,274,0,0,0,0,0,0,0,0,0,-1,1616,750,0,0
399,274,0,0,0,0,0,0,0,0,0,-1,1623,750,0,0
406,274,0,0,0,0,0,0,0,0,0,-1,1630,750,0,0
413,274,0,0,0,0,0,0,0,0,0,-1,1637,750,0,0
420,274,0,0,0,0,0,0,0,0,0,-1,1644,750,0,0
427,274,0,0,0,0,0,0,0,0,0,-1,1651,750,0,0
434,274,0,0,0,0,0,0,0,0,0,-1,1658,750,0,0
441,274,0,0,0,0,0,0,0,0,0,-1,1665,750,0,0
448,274,0,0,0,0,0,0,0,0,0,-1,1672,750,0,0
455,274,0,0,0,0,0,0,0,0,0,-1,1679,750,0,0
462,274,0,0,0,0,0,0,0,0,0,-1,1686,750,0,0
469,274,0,0,0,0,0,0,0,0,0,-1,1693,750,0,0
476,274,0,0,0,0,0,0,0,0,0,-1,1700,750,0,0
483,274,0,0,0,0,0,0,0,0,0,-1,1707,750,0,0
490,274,0,0,0,0,0,0,0,0,0,-1,1714,750,0,0
497,274,0,0,0,0,0,0,0,0,0,-1,1721,750,0,0
504,274,0,0,0,0,0,0,0,0,0,-1,1728,750,0,0
511,274,0,0,0,0,0,0,0,0,0,-1,1735,750,0,0
518,274,0,0,0,0,0,0,0,0,0,-1,1742,750,0,0
525,274,0,0,0,0,0,0,0,0,0,-1,1749,750,0,0
532,274,0,0,0,0,0,0,0,0,0,-1,1756,750,0,0
539,274,0,0,0,0,0,0,0,0,0,-1,1763,750,0,0
546,274,0,0,0,0,0,0,0,0,0,-1,1770,750,0,0
553,274,0,0,0,0,0,0,0,0,0,-1,1777,750,0,0
560,274,21.6702,3.16217,0,0,0,0,0,0,0,-1,1784,750,21.6702,-3.16215
567,274,21.3302,3.56049,-0.0321905,0.056605,-0.0192927,0.0606156,-0.0362011,-1.36583,0.0564865,0.042205,1791,750,21.3302,-3.56047
574,274,21.1149,3.71069,-0.0237953,0.041711,-0.0176857,0.0461808,-0.0282652,-1.32324,0.0433943,0.0452758,1798,750,21.1149,-3.71068
581,274,21.7283,2.72516,0,0,0,0,0,0,0,-1,1805,750,21.7283,-2.72514
588,274,21.5857,2.54956,-0.008415,0.0201963,-0.0128693,0.0251331,-0.0133518,-1.2045,0.0225636,0.0450303,1812,750,21.5857,-2.54956
595,274,21.4302,2.35504,-0.00259353,0.0136148,-0.0108419,0.0190467,-0.00802538,-1.10634,0.016056,0.0463326,1819,750,21.4302,-2.35505
602,274,21.2472,2.2702,0,0,0,0,0,0,0,-1,1826,750,21.2472,-2.27022
609,274,22.0928,2.84149,0,0,0,0,0,0,0,-1,1833,750,22.0928,-2.84152
616,274,22.5817,2.27869,0,0,0,0,0,0,0,-1,1840,750,22.5817,-2.27868
623,274,14.8237,0.0809326,0,0,0,0,0,0,0,-1,1847,750,14.8237,-0.0809205
630,274,14.8053,0.337585,0.00776095,-0.000457473,-0.00378844,0.00924082,-0.00193735,-0.372402,0.00689763,0.0416121,1854,750,14.8052,-0.337576
637,274,14.7717,0.617737,0.00699243,-0.000424362,-0.00328404,0.00823753,-0.00166946,-0.362393,0.0061245,0.0129147,1861,750,14.7717,-0.617752
644,274,14.7966,0.865723,0.00676314,-0.000203928,-0.00261225,0.00763379,-0.00107457,-0.321714,0.0054826,0.011268,1868,750,14.7966,-0.865701
651,274,14.8114,1.1073,0.00543855,-0.000475044,-0.00182188,0.00595478,-0.00099127,-0.276111,0.00433819,0.0126483,1875,750,14.8114,-1.1073
658,274,14.8007,1.35608,0.00318442,-0.000388913,-0.00150719,0.00373523,-0.000939727,-0.350377,0.00285541,0.0154022,1882,750,14.8007,-1.35606
665,274,14.7872,1.64111,0.00177571,-0.000441135,-0.000832669,0.00205363,-0.000719053,-0.322141,0.00166147,0.0153051,1889,750,14.7872,-1.64111
672,274,14.8171,1.88812,0.00172132,-0.000481978,-0.000139847,0.00173016,-0.000490819,-0.0631338,0.00134719,0.0131063,1896,750,14.8172,-1.88809
679,274,14.8215,2.12537,0.00252563,-0.000353594,0.000229476,0.00254381,-0.000371768,0.0790355,0.00183241,0.0141466,1903,750,14.8215,-2.12537
686,274,14.8187,2.37329,0.00363526,-2.72782e-05,0.00092283,0.00385464,-0.000246658,0.233393,0.0026558,0.0152231,1910,750,14.8187,-2.37332
693,274,14.8038,2.63287,0.00520227,0.000274908,0.00178695,0.00578209,-0.000304914,0.313758,0.00396028,0.0125051,1917,750,14.8039,-2.63285
700,274,14.8108,2.8985,0.00742252,0.000330818,0.00298386,0.00851094,-0.0007576,0.349771,0.00594261,0.0133601,1924,750,14.8108,-2.89847
707,274,14.8213,3.16693,0.010324,0.000330329,0.00455494,0.0120885,-0.00143419,0.369585,0.00857712,0.0197729,1931,750,14.8212,-3.16696
714,274,15.0795,3.40881,0.0139217,0.000155762,0.00669057,0.0166376,-0.00256018,0.385613,0.0120362,0.0393508,1938,750,15.0795,-3.40883
721,274,15.5992,3.40497,0.0182296,-6.38018e-05,0.00957676,0.0223258,-0.00416009,0.404182,0.0164469,0.0469661,1945,750,15.5992,-3.40498
728,274,15.9652,3.51184,0,0,0,0,0,0,0,-1,1952,750,15.9653,-3.51187
735,274,16.4368,3.62958,0,0,0,0,0,0,0,-1,1959,750,16.4368,-3.6296
742,274,11.7815,-0.740234,0,0,0,0,0,0,0,-1,1966,750,11.7815,0.740253
749,274,0,0,0,0,0,0,0,0,0,-1,1973,750,0,0
756,274,0,0,0,0,0,0,0,0,0,-1,1980,750,0,0
763,274,0,0,0,0,0,0,0,0,0,-1,1987,750,0,0
770,274,0,0,0,0,0,0,0,0,0,-1,1994,750,0,0
777,274,0,0,0,0,0,0,0,0,0,-1,2001,750,0,0
784,274,0,0,0,0,0,0,0,0,0,-1,2008,750,0,0
791,274,0,0,0,0,0,0,0,0,0,-1,2015,750,0,0
798,274,0,0,0,0,0,0,0,0,0,-1,2022,750,0,0
805,274,0,0,0,0,0,0,0,0,0,-1,2029,750,0,0
812,274,0,0,0,0,0,0,0,0,0,-1,2036,750,0,0
-700,267,0,0,0,0,0,0,0,0,0,-1,524,757,0,0
-693,267,0,0,0,0,0,0,0,0,0,-1,531,757,0,0
-686,267,0,0,0,0,0,0,0,0,0,-1,538,757,0,0
-679,267,0,0,0,0,0,0,0,0,0,-1,545,757,0,0
-672,267,0,0,0,0,0,0,0,0,0,-1,552,757,0,0
-665,267,0,0,0,0,0,0,0,0,0,-1,559,757,0,0
-658,267,0,0,0,0,0,0,0,0,0,-1,566,757,0,0
-651,267,0,0,0,0,0,0,0,0,0,-1,573,757,0,0
-644,267,0,0,0,0,0,0,0,0,0,-1,580,757,0,0
-637,267,0,0,0,0,0,0,0,0,0,-1,587,757,0,0
-630,267,-15.1672,2.00659,0.366906,-0.086086,-0.111573,0.392896,-0.112076,-0.228857,0.306204,0.0434803,594,757,-15.1673,-2.00658
-623,267,-12.9192,0.324097,0.300038,-0.069016,-0.0863697,0.319251,-0.0882289,-0.218885,0.247541,0.0390091,601,757,-12.9192,-0.32411
-616,267,-10.7416,-1.16833,0.235445,-0.0527561,-0.0642395,0.249115,-0.0664265,-0.209676,0.192087,0.0395357,608,757,-10.7416,1.16833
-609,267,-8.00061,2.32159,0,0,0,0,0,0,0,-1,615,757,-8.0006,-2.32157
-602,267,-8.49731,1.74554,0,0,0,0,0,0,0,-1,622,757,-8.49731,-1.74556
-595,267,-8.50848,1.47247,0.0958076,-0.0199846,-0.0210766,0.0995247,-0.0237017,-0.174564,0.0755008,0.0491537,629,757,-8.5085,-1.47249
-588,267,-8.54108,1.29944,0.0659115,-0.0133741,-0.0128675,0.0679475,-0.0154101,-0.156929,0.0512138,0.044189,636,757,-8.54106,-1.29943
-581,267,-8.52277,1.0827,0.0432753,-0.00793027,-0.00696618,0.0442061,-0.00886106,-0.132828,0.0328255,0.0279518,643,757,-8.52277,-1.08267
-574,267,-8.54553,0.841064,0.0220526,-0.00623253,-0.00154874,0.0221371,-0.00631708,-0.0545374,0.0172536,0.0142442,650,757,-8.54552,-0.841038
-567,267,-8.60797,0.664551,0.00975738,-0.00262408,0.00126478,0.00988525,-0.00275196,0.100765,0.00767377,0.0201746,657,757,-8.60796,-0.664554
-560,267,-8.60461,0.444946,0.00307357,-0.000311501,0.00187749,0.00390881,-0.00114674,0.418579,0.00306059,0.0214645,664,757,-8.60463,-0.444938
-553,267,-8.6098,0.203186,0.000158677,-0.00122814,0.00106555,0.000736575,-0.00180604,0.496947,0.00151064,0.0169532,671,757,-8.60978,-0.203186
-546,267,-8.59613,-0.0656128,-0.00108008,-0.00180566,0.0016611,0.000257388,-0.00314312,0.677885,0.00218627,0.01105,678,757,-8.59611,0.0655929
-539,267,-8.59576,-0.304199,-0.00227094,-0.00228127,0.00225058,-2.55213e-05,-0.00452669,0.78425,0.00300932,0.00992051,685,757,-8.59575,0.304185
-532,267,-8.58624,-0.527344,-0.00374542,-0.00298578,0.00284354,-0.0004968,-0.00623439,0.851791,0.00400096,0.0100282,692,757,-8.58622,0.527321
-525,267,-8.59283,-0.74884,-0.00530135,-0.00367204,0.00353535,-0.000858697,-0.00811469,0.898637,0.00514749,0.00993057,699,757,-8.59284,0.748858
-518,267,-8.60547,-0.980835,-0.00693508,-0.00437856,0.00491619,-0.000577172,-0.0107365,0.912587,0.00697323,0.00995177,706,757,-8.60546,0.980863
-511,267,-8.61566,-1.2511,-0.00880372,-0.00497998,0.00766787,0.00101077,-0.0147945,0.907575,0.0102166,0.0140232,713,757,-8.61566,1.25107
-504,267,-8.68323,-1.47461,-0.0111683,-0.00597187,0.0119285,0.0036381,-0.0207783,0.892631,0.0152106,0.027173,720,757,-8.68325,1.47463
-497,267,-9.36847,-1.32068,-0.0137877,-0.00666302,0.0165539,0.0067075,-0.0271582,0.89138,0.0207067,0.0440487,727,757,-9.36847,1.32071
-490,267,-9.98645,-1.15948,-0.0156741,-0.0073844,0.0217191,0.0105818,-0.0336403,0.879684,0.0266635,0.0468978,734,757,-9.98643,1.15948
-483,267,-10.409,-1.24652,0,0,0,0,0,0,0,-1,741,757,-10.409,1.24653
-476,267,-11.5342,-1.4505,0,0,0,0,0,0,0,-1,748,757,-11.5342,1.4505
-469,267,-12.0913,-1.77136,0,0,0,0,0,0,0,-1,755,757,-12.0913,1.77136
-462,267,-15.592,0.68988,0,0,0,0,0,0,0,-1,762,757,-15.592,-0.68987
-455,267,-14.8386,1.02191,0,0,0,0,0,0,0,-1,769,757,-14.8386,-1.02194
-448,267,-14.1798,1.396,0,0,0,0,0,0,0,-1,776,757,-14.1798,-1.39597
-441,267,0,0,0,0,0,0,0,0,0,-1,783,757,0,0
-434,267,0,0,0,0,0,0,0,0,0,-1,790,757,0,0
-427,267,0,0,0,0,0,0,0,0,0,-1,797,757,0,0
-420,267,0,0,0,0,0,0,0,0,0,-1,804,757,0,0
-413,267,0,0,0,0,0,0,0,0,0,-1,811,757,0,0
-406,267,0,0,0,0,0,0,0,0,0,-1,818,757,0,0
-399,267,0,0,0,0,0,0,0,0,0,-1,825,757,0,0
-392,267,0,0,0,0,0,0,0,0,0,-1,832,757,0,0
-385,267,0,0,0,0,0,0,0,0,0,-1,839,757,0,0
-378,267,0,0,0,0,0,0,0,0,0,-1,846,757,0,0
-371,267,0,0,0,0,0,0,0,0,0,-1,853,757,0,0
-364,267,0,0,0,0,0,0,0,0,0,-1,860,757,0,0
-357,267,0,0,0,0,0,0,0,0,0,-1,867,757,0,0
-350,267,0,0,0,0,0,0,0,0,0,-1,874,757,0,0
-343,267,0,0,0,0,0,0,0,0,0,-1,881,757,0,0
-336,267,0,0,0,0,0,0,0,0,0,-1,888,757,0,0
-329,267,0,0,0,0,0,0,0,0,0,-1,895,757,0,0
-322,267,0,0,0,0,0,0,0,0,0,-1,902,757,0,0
-315,267,0,0,0,0,0,0,0,0,0,-1,909,757,0,0
-308,267,0,0,0,0,0,0,0,0,0,-1,916,757,0,0
-301,267,0,0,0,0,0,0,0,0,0,-1,923,757,0,0
-294,267,0,0,0,0,0,0,0,0,0,-1,930,757,0,0
-287,267,0,0,0,0,0,0,0,0,0,-1,937,757,0,0
-280,267,0,0,0,0,0,0,0,0,0,-1,944,757,0,0
-273,267,0,0,0,0,0,0,0,0,0,-1,951,757,0,0
-266,267,0,0,0,0,0,0,0,0,0,-1,958,757,0,0
-259,267,0,0,0,0,0,0,0,0,0,-1,965,757,0,0
-252,267,0,0,0,0,0,0,0,0,0,-1,972,757,0,0
-245,267,0,0,0,0,0,0,0,0,0,-1,979,757,0,0
-238,267,0,0,0,0,0,0,0,0,0,-1,986,757,0,0
-231,267,0,0,0,0,0,0,0,0,0,-1,993,757,0,0
-224,267,0,0,0,0,0,0,0,0,0,-1,1000,757,0,0
-217,267,0,0,0,0,0,0,0,0,0,-1,1007,757,0,0
-210,267,0,0,0,0,0,0,0,0,0,-1,1014,757,0,0
-203,267,0,0,0,0,0,0,0,0,0,-1,1021,757,0,0
-196,267,0,0,0,0,0,0,0,0,0,-1,1028,757,0,0
-189,267,0,0,0,0,0,0,0,0,0,-1,1035,757,0,0
-182,267,0,0,0,0,0,0,0,0,0,-1,1042,757,0,0
-175,267,0,0,0,0,0,0,0,0,0,-1,1049,757,0,0
-168,267,0,0,0,0,0,0,0,0,0,-1,1056,757,0,0
-161,267,0,0,0,0,0,0,0,0,0,-1,1063,757,0,0
-154,267,0,0,0,0,0,0,0,0,0,-1,1070,757,0,0
-147,267,0,0,0,0,0,0,0,0,0,-1,1077,757,0,0
-140,267,0,0,0,0,0,0,0,0,0,-1,1084,757,0,0
-133,267,0,0,0,0,0,0,0,0,0,-1,1091,757,0,0
-126,267,0,0,0,0,0,0,0,0,0,-1,1098,757,0,0
-119,267,0,0,0,0,0,0,0,0,0,-1,1105,757,0,0
-112,267,0,0,0,0,0,0,0,0,0,-1,1112,757,0,0
-105,267,0,0,0,0,0,0,0,0,0,-1,1119,757,0,0
-98,267,0,0,0,0,0,0,0,0,0,-1,1126,757,0,0
-91,267,0,0,0,0,0,0,0,0,0,-1,1133,757,0,0
-84,267,0,0,0,0,0,0,0,0,0,-1,1140,757,0,0
-77,267,0,0,0,0,0,0,0,0,0,-1,1147,757,0,0
-70,267,0,0,0,0,0,0,0,0,0,-1,1154,757,0,0
-63,267,0,0,0,0,0,0,0,0,0,-1,1161,757,0,0
-56,267,0,0,0,0,0,0,0,0,0,-1,1168,757,0,0
-49,267,0,0,0,0,0,0,0,0,0,-1,1175,757,0,0
-42,267,0,0,0,0,0,0,0,0,0,-1,1182,757,0,0
-35,267,0,0,0,0,0,0,0,0,0,-1,1189,757,0,0
-28,267,0,0,0,0,0,0,0,0,0,-1,1196,757,0,0
-21,267,0,0,0,0,0,0,0,0,0,-1,1203,757,0,0
-14,267,0,0,0,0,0,0,0,0,0,-1,1210,757,0,0
-7,267,0,0,0,0,0,0,0,0,0,-1,1217,757,0,0
0,267,0,0,0,0,0,0,0,0,0,-1,1224,757,0,0
7,267,0,0,0,0,0,0,0,0,0,-1,1231,757,0,0
14,267,0,0,0,0,0,0,0,0,0,-1,1238,757,0,0
21,267,0,0,0,0,0,0,0,0,0,-1,1245,757,0,0
28,267,0,0,0,0,0,0,0,0,0,-1,1252,757,0,0
35,267,0,0,0,0,0,0,0,0,0,-1,1259,757,0,0
42,267,0,0,0,0,0,0,0,0,0,-1,1266,757,0,0
49,267,0,0,0,0,0,0,0,0,0,-1,1273,757,0,0
56,267,0,0,0,0,0,0,0,0,0,-1,1280,757,0,0
63,267,0,0,0,0,0,0,0,0,0,-1,1287,757,0,0
70,267,0,0,0,0,0,0,0,0,0,-1,1294,757,0,0
77,267,0,0,0,0,0,0,0,0,0,-1,1301,757,0,0
84,267,0,0,0,0,0,0,0,0,0,-1,1308,757,0,0
91,267,0,0,0,0,0,0,0,0,0,-1,1315,757,0,0
98,267,0,0,0,0,0,0,0,0,0,-1,1322,757,0,0
105,267,0,0,0,0,0,0,0,0,0,-1,1329,757,0,0
112,267,0,0,0,0,0,0,0,0,0,-1,1336,757,0,0
119,267,0,0,0,0,0,0,0,0,0,-1,1343,757,0,0
126,267,0,0,0,0,0,0,0,0,0,-1,1350,757,0,0
133,267,0,0,0,0,0,0,0,0,0,-1,1357,757,0,0
140,267,0,0,0,0,0,0,0,0,0,-1,1364,757,0,0
147,267,0,0,0,0,0,0,0,0,0,-1,1371,757,0,0
154,267,0,0,0,0,0,0,0,0,0,-1,1378,757,0,0
161,267,0,0,0,0,0,0,0,0,0,-1,1385,757,0,0
168,267,0,0,0,0,0,0,0,0,0,-1,1392,757,0,0
175,267,0,0,0,0,0,0,0,0,0,-1,1399,757,0,0
182,267,0,0,0,0,0,0,0,0,0,-1,1406,757,0,0
189,267,0,0,0,0,0,0,0,0,0,-1,1413,757,0,0
196,267,0,0,0,0,0,0,0,0,0,-1,1420,757,0,0
203,267,0,0,0,0,0,0,0,0,0,-1,1427,757,0,0
210,267,0,0,0,0,0,0,0,0,0,-1,1434,757,0,0
217,267,0,0,0,0,0,0,0,0,0,-1,1441,757,0,0
224,267,0,0,0,0,0,0,0,0,0,-1,1448,757,0,0
231,267,0,0,0,0,0,0,0,0,0,-1,1455,757,0,0
238,267,0,0,0,0,0,0,0,0,0,-1,1462,757,0,0
245,267,0,0,0,0,0,0,0,0,0,-1,1469,757,0,0
252,267,0,0,0,0,0,0,0,0,0,-1,1476,757,0,0
259,267,0,0,0,0,0,0,0,0,0,-1,1483,757,0,0
266,267,0,0,0,0,0,0,0,0,0,-1,1490,757,0,0
273,267,0,0,0,0,0,0,0,0,0,-1,1497,757,0,0
280,267,0,0,0,0,0,0,0,0,0,-1,1504,757,0,0
287,267,0,0,0,0,0,0,0,0,0,-1,1511,757,0,0
294,267,0,0,0,0,0,0,0,0,0,-1,1518,757,0,0
301,267,0,0,0,0,0,0,0,0,0,-1,1525,757,0,0
308,267,0,0,0,0,0,0,0,0,0,-1,1532,757,0,0
315,267,0,0,0,0,0,0,0,0,0,-1,1539,757,0,0
322,267,0,0,0,0,0,0,0,0,0,-1,1546,757,0,0
329,267,0,0,0,0,0,0,0,0,0,-1,1553,757,0,0
336,267,0,0,0,0,0,0,0,0,0,-1,1560,757,0,0
343,267,0,0,0,0,0,0,0,0,0,-1,1567,757,0,0
350,267,0,0,0,0,0,0,0,0,0,-1,1574,757,0,0
357,267,0,0,0,0,0,0,0,0,0,-1,1581,757,0,0
364,267,0,0,0,0,0,0,0,0,0,-1,1588,757,0,0
371,267,0,0,0,0,0,0,0,0,0,-1,1595,757,0,0
378,267,0,0,0,0,0,0,0,0,0,-1,1602,757,0,0
385,267,0,0,0,0,0,0,0,0,0,-1,1609,757,0,0
392,267,0,0,0,0,0,0,0,0,0,-1,1616,757,0,0
399,267,0,0,0,0,0,0,0,0,0,-1,1623,757,0,0
406,267,0,0,0,0,0,0,0,0,0,-1,1630,757,0,0
413,267,0,0,0,0,0,0,0,0,0,-1,1637,757,0,0
420,267,0,0,0,0,0,0,0,0,0,-1,1644,757,0,0
427,267,0,0,0,0,0,0,0,0,0,-1,1651,757,0,0
434,267,0,0,0,0,0,0,0,0,0,-1,1658,757,0,0
441,267,0,0,0,0,0,0,0,0,0,-1,1665,757,0,0
448,267,0,0,0,0,0,0,0,0,0,-1,1672,757,0,0
455,267,0,0,0,0,0,0,0,0,0,-1,1679,757,0,0
462,267,0,0,0,0,0,0,0,0,0,-1,1686,757,0,0
469,267,0,0,0,0,0,0,0,0,0,-1,1693,757,0,0
476,267,0,0,0,0,0,0,0,0,0,-1,1700,757,0,0
483,267,0,0,0,0,0,0,0,0,0,-1,1707,757,0,0
490,267,0,0,0,0,0,0,0,0,0,-1,1714,757,0,0
497,267,0,0,0,0,0,0,0,0,0,-1,1721,757,0,0
504,267,0,0,0,0,0,0,0,0,0,-1,1728,757,0,0
511,267,0,0,0,0,0,0,0,0,0,-1,1735,757,0,0
518,267,0,0,0,0,0,0,0,0,0,-1,1742,757,0,0
525,267,0,0,0,0,0,0,0,0,0,-1,1749,757,0,0
532,267,0,0,0,0,0,0,0,0,0,-1,1756,757,0,0
539,267,0,0,0,0,0,0,0,0,0,-1,1763,757,0,0
546,267,0,0,0,0,0,0,0,0,0,-1,1770,757,0,0
553,267,0,0,0,0,0,0,0,0,0,-1,1777,757,0,0
560,267,0,0,0,0,0,0,0,0,0,-1,1784,757,0,0
567,267,21.8276,3.11713,-0.0265957,0.0490406,-0.0155843,0.0521258,-0.0296809,-1.37536,0.04782,0.0368265,1791,757,21.8276,-3.11716
574,267,21.6552,3.21722,-0.017739,0.0352366,-0.0150972,0.039237,-0.0217393,-1.31177,0.0356846,0.040376,1798,757,21.6551,-3.21724
581,267,22.0378,2.94043,0,0,0,0,0,0,0,-1,1805,757,22.0378,-2.94044
588,267,21.8557,2.6109,-0.00307977,0.016379,-0.0119043,0.0220241,-0.00872482,-1.128,0.018298,0.0438512,1812,757,21.8558,-2.61092
595,267,21.3468,2.84552,0.00185262,0.0109736,-0.0102536,0.0176352,-0.00480894,-0.994646,0.0136452,0.0471135,1819,757,21.3469,-2.84552
602,267,21.7506,3.12604,0.00530075,0.00724924,-0.00866462,0.0149942,-0.00244423,-0.841383,0.0109026,0.0433535,1826,757,21.7507,-3.12604
609,267,22.2833,2.60364,0.00734365,0.00466721,-0.00729809,0.0134252,-0.00141434,-0.694723,0.0094569,0.0395748,1833,757,22.2833,-2.60363
616,267,22.6953,2.08258,0.00826639,0.0029262,-0.00612174,0.012275,-0.00108241,-0.579753,0.00856696,0.0443062,1840,757,22.6953,-2.08255
623,267,23.2198,1.61707,0,0,0,0,0,0,0,-1,1847,757,23.2199,-1.61705
630,267,15.0854,0.518311,0,0,0,0,0,0,0,-1,1854,757,15.0854,-0.518321
637,267,15.043,0.640015,0.00746691,-0.000504465,-0.0033816,0.00870817,-0.00174572,-0.351793,0.00646638,0.0248697,1861,757,15.0429,-0.640025
644,267,15.0504,0.869019,0.00703671,-0.000270915,-0.00276452,0.0079647,-0.00119891,-0.32386,0.00575124,0.0118204,1868,757,15.0504,-0.868993
651,267,15.0536,1.11536,0.00559502,-0.000549043,-0.00204202,0.00621179,-0.00116581,-0.293324,0.00457953,0.0142468,1875,757,15.0536,-1.11534
658,267,15.0541,1.38153,0.00325321,-0.000515623,-0.00180754,0.00397997,-0.00124238,-0.382289,0.00315019,0.0148567,1882,757,15.0541,-1.38152
665,267,15.0569,1.64624,0.00168402,-0.000613022,-0.00113614,0.00215102,-0.00108002,-0.38999,0.0018993,0.0145874,1889,757,15.0568,-1.64621
672,267,15.0747,1.90131,0.0015129,-0.000637555,-0.000407643,0.00158758,-0.000712234,-0.18119,0.00135948,0.0123519,1896,757,15.0747,-1.90132
679,267,15.0798,2.1416,0.00229716,-0.000462596,-5.79658e-05,0.00229838,-0.000463813,-0.0209916,0.00170798,0.0118509,1903,757,15.0798,-2.14162
686,267,15.0837,2.4068,0.00336459,-8.48014e-05,0.000632451,0.0034769,-0.000197106,0.175738,0.00238635,0.0124494,1910,757,15.0838,-2.40677
693,267,15.0558,2.63068,0.00482993,0.00032853,0.00145746,0.00526062,-0.000102157,0.287328,0.00354162,0.0127818,1917,757,15.0557,-2.63067
700,267,15.0415,2.8819,0.00686768,0.000435746,0.00256183,0.00776333,-0.000459903,0.336331,0.00533547,0.0141741,1924,757,15.0415,-2.88187
707,267,15.0498,3.13177,0.00971689,0.000655366,0.00398445,0.0112197,-0.000847413,0.360664,0.00777765,0.0143786,1931,757,15.0498,-3.1318
714,267,15.1584,3.34766,0.0135412,0.000479363,0.00586003,0.0157848,-0.00176427,0.365654,0.0111579,0.0288748,1938,757,15.1584,-3.34767
721,267,15.3997,3.64288,0.0181286,0.000282716,0.0083034,0.0213944,-0.00298308,0.374725,0.0153542,0.0436401,1945,757,15.3996,-3.64287
728,267,15.5554,3.88019,0,0,0,0,0,0,0,-1,1952,757,15.5554,-3.88018
735,267,15.9551,4.39764,0,0,0,0,0,0,0,-1,1959,757,15.9551,-4.39762
742,267,16.1127,4.81091,0,0,0,0,0,0,0,-1,1966,757,16.1127,-4.81091
749,267,0,0,0,0,0,0,0,0,0,-1,1973,757,0,0
756,267,0,0,0,0,0,0,0,0,0,-1,1980,757,0,0
763,267,0,0,0,0,0,0,0,0,0,-1,1987,757,0,0
770,267,0,0,0,0,0,0,0,0,0,-1,1994,757,0,0
777,267,0,0,0,0,0,0,0,0,0,-1,2001,757,0,0
784,267,0,0,0,0,0,0,0,0,0,-1,2008,757,0,0
791,267,0,0,0,0,0,0,0,0,0,-1,2015,757,0,0
798,267,0,0,0,0,0,0,0,0,0,-1,2022,757,0,0
805,267,0,0,0,0,0,0,0,0,0,-1,2029,757,0,0
812,267,0,0,0,0,0,0,0,0,0,-1,2036,757,0,0
-700,260,0,0,0,0,0,0,0,0,0,-1,524,764,0,0
-693,260,0,0,0,0,0,0,0,0,0,-1,531,764,0,0
-686,260,0,0,0,0,0,0,0,0,0,-1,538,764,0,0
-679,260,0,0,0,0,0,0,0,0,0,-1,545,764,0,0
-672,260,0,0,0,0,0,0,0,0,0,-1,552,764,0,0
-665,260,0,0,0,0,0,0,0,0,0,-1,559,764,0,0
-658,260,0,0,0,0,0,0,0,0,0,-1,566,764,0,0
-651,260,0,0,0,0,0,0,0,0,0,-1,573,764,0,0
-644,260,0,0,0,0,0,0,0,0,0,-1,580,764,0,0
-637,260,0,0,0,0,0,0,0,0,0,-1,587,764,0,0
-630,260,-15.4026,3.43158,0.296037,-0.0613627,-0.0974497,0.320881,-0.0862067,-0.249624,0.247708,0.0460291,594,764,-15.4026,-3.4316
-623,260,-11.3009,1.24768,0.245697,-0.050116,-0.0754199,0.263817,-0.068235,-0.235774,0.202492,0.0450166,601,764,-11.3009,-1.24767
-616,260,-10.7172,0.454407,0.19639,-0.039637,-0.0567057,0.209307,-0.0525538,-0.223964,0.15996,0.041587,608,764,-10.7172,-0.454427
-609,260,-8.25537,2.2262,0.152161,-0.0303204,-0.0413487,0.161093,-0.0392525,-0.212749,0.122592,0.0444654,615,764,-8.25536,-2.22622
-602,260,-8.37531,1.7146,0.114019,-0.0223458,-0.0290963,0.119968,-0.0282946,-0.201672,0.0908902,0.0462026,622,764,-8.37534,-1.71458
-595,260,-8.5874,1.41467,0.0826961,-0.0159557,-0.0193452,0.086354,-0.0196135,-0.186878,0.0650996,0.0473741,629,764,-8.5874,-1.41469
-588,260,-8.82288,1.28064,0.0576706,-0.0107939,-0.0120331,0.059724,-0.0128472,-0.169012,0.0447178,0.0400168,636,764,-8.82287,-1.28065
-581,260,-8.80255,1.05841,0.0383451,-0.00640134,-0.00677919,0.0393496,-0.00740585,-0.147106,0.0290184,0.0216452,643,764,-8.80255,-1.05842
-574,260,-8.8136,0.834717,0.0200546,-0.00551527,-0.00194391,0.0202016,-0.0056622,-0.0754454,0.0156993,0.0147393,650,764,-8.81359,-0.83471
-567,260,-8.84241,0.655823,0.00915097,-0.00240373,0.000673499,0.00919009,-0.00244285,0.0580259,0.00708286,0.0156629,657,764,-8.84242,-0.655841
-560,260,-8.83228,0.44635,0.00299662,-0.000499095,0.00144614,0.00351731,-0.00101979,0.345606,0.0027486,0.0181271,664,764,-8.83228,-0.446364
-553,260,-8.82361,0.191101,8.21174e-05,-0.00131919,0.00077348,0.000425106,-0.00166218,0.417381,0.00127369,0.0163036,671,764,-8.82363,-0.191107
-546,260,-8.83185,-0.0418701,-0.00127909,-0.0021045,0.00150638,-0.000129908,-0.00325368,0.651694,0.00212714,0.0108924,678,764,-8.83183,0.0419
-539,260,-8.82062,-0.290527,-0.00258642,-0.00272611,0.00221807,-0.000437098,-0.00487544,0.769659,0.00311483,0.0104147,685,764,-8.8206,0.29052
-532,260,-8.81329,-0.509766,-0.00409063,-0.00356699,0.00291272,-0.000904351,-0.00675327,0.830222,0.00423305,0.0124764,692,764,-8.81327,0.509748
-525,260,-8.8208,-0.746521,-0.00552302,-0.00434912,0.00361593,-0.00127281,-0.00859933,0.865858,0.00535924,0.0122182,699,764,-8.82082,0.746502
-518,260,-8.83429,-0.97937,-0.00700793,-0.00506518,0.00483534,-0.00110461,-0.0109685,0.884524,0.00697335,0.0130502,706,764,-8.83431,0.979357
-511,260,-8.82892,-1.20984,-0.0086195,-0.0056092,0.00713512,0.000177794,-0.0144065,0.889349,0.00966414,0.0215425,713,764,-8.82893,1.20984
-504,260,-8.99725,-1.34015,-0.0105937,-0.00650853,0.0107216,0.00236335,-0.0194656,0.879525,0.0138323,0.0408656,720,764,-8.99724,1.34014
-497,260,-9.20227,-1.49603,0,0,0,0,0,0,0,-1,727,764,-9.20224,1.49604
-490,260,-10.2865,-1.11108,-0.0141804,-0.00767238,0.0189912,0.00834154,-0.0301944,0.870246,0.0234108,0.0498584,734,764,-10.2865,1.11111
-483,260,-11.1536,-0.886536,-0.0152585,-0.00809625,0.0237153,0.0123068,-0.0356616,0.860334,0.0287679,0.0440177,741,764,-11.1536,0.886547
-476,260,-12.0349,-0.996216,0,0,0,0,0,0,0,-1,748,764,-12.0349,0.996243
-469,260,-13.0912,-1.36816,0,0,0,0,0,0,0,-1,755,764,-13.0912,1.36818
-462,260,-14.2017,-1.46539,0,0,0,0,0,0,0,-1,762,764,-14.2017,1.46538
-455,260,-14.7269,1.01868,0,0,0,0,0,0,0,-1,769,764,-14.7269,-1.01869
-448,260,0,0,0,0,0,0,0,0,0,-1,776,764,0,0
-441,260,0,0,0,0,0,0,0,0,0,-1,783,764,0,0
-434,260,0,0,0,0,0,0,0,0,0,-1,790,764,0,0
-427,260,0,0,0,0,0,0,0,0,0,-1,797,764,0,0
-420,260,0,0,0,0,0,0,0,0,0,-1,804,764,0,0
-413,260,0,0,0,0,0,0,0,0,0,-1,811,764,0,0
-406,260,0,0,0,0,0,0,0,0,0,-1,818,764,0,0
-399,260,0,0,0,0,0,0,0,0,0,-1,825,764,0,0
-392,260,0,0,0,0,0,0,0,0,0,-1,832,764,0,0
-385,260,0,0,0,0,0,0,0,0,0,-1,839,764,0,0
-378,260,0,0,0,0,0,0,0,0,0,-1,846,764,0,0
-371,260,0,0,0,0,0,0,0,0,0,-1,853,764,0,0
-364,260,0,0,0,0,0,0,0,0,0,-1,860,764,0,0
-357,260,0,0,0,0,0,0,0,0,0,-1,867,764,0,0
-350,260,0,0,0,0,0,0,0,0,0,-1,874,764,0,0
-343,260,0,0,0,0,0,0,0,0,0,-1,881,764,0,0
-336,260,0,0,0,0,0,0,0,0,0,-1,888,764,0,0
-329,260,0,0,0,0,0,0,0,0,0,-1,895,764,0,0
-322,260,0,0,0,0,0,0,0,0,0,-1,902,764,0,0
-315,260,0,0,0,0,0,0,0,0,0,-1,909,764,0,0
-308,260,0,0,0,0,0,0,0,0,0,-1,916,764,0,0
-301,260,0,0,0,0,0,0,0,0,0,-1,923,764,0,0
-294,260,0,0,0,0,0,0,0,0,0,-1,930,764,0,0
-287,260,0,0,0,0,0,0,0,0,0,-1,937,764,0,0
-280,260,0,0,0,0,0,0,0,0,0,-1,944,764,0,0
-273,260,0,0,0,0,0,0,0,0,0,-1,951,764,0,0
-266,260,0,0,0,0,0,0,0,0,0,-1,958,764,0,0
-259,260,0,0,0,0,0,0,0,0,0,-1,965,764,0,0
-252,260,0,0,0,0,0,0,0,0,0,-1,972,764,0,0
-245,260,0,0,0,0,0,0,0,0,0,-1,979,764,0,0
-238,260,0,0,0,0,0,0,0,0,0,-1,986,764,0,0
-231,260,0,0,0,0,0,0,0,0,0,-1,993,764,0,0
-224,260,0,0,0,0,0,0,0,0,0,-1,1000,764,0,0
-217,260,0,0,0,0,0,0,0,0,0,-1,1007,764,0,0
-210,260,0,0,0,0,0,0,0,0,0,-1,1014,764,0,0
-203,260,0,0,0,0,0,0,0,0,0,-1,1021,764,0,0
-196,260,0,0,0,0,0,0,0,0,0,-1,1028,764,0,0
-189,260,0,0,0,0,0,0,0,0,0,-1,1035,764,0,0
-182,260,0,0,0,0,0,0,0,0,0,-1,1042,764,0,0
-175,260,0,0,0,0,0,0,0,0,0,-1,1049,764,0,0
-168,260,0,0,0,0,0,0,0,0,0,-1,1056,764,0,0
-161,260,0,0,0,0,0,0,0,0,0,-1,1063,764,0,0
-154,260,0,0,0,0,0,0,0,0,0,-1,1070,764,0,0
-147,260,0,0,0,0,0,0,0,0,0,-1,1077,764,0,0
-140,260,0,0,0,0,0,0,0,0,0,-1,1084,764,0,0
-133,260,0,0,0,0,0,0,0,0,0,-1,1091,764,0,0
-126,260,0,0,0,0,0,0,0,0,0,-1,1098,764,0,0
-119,260,0,0,0,0,0,0,0,0,0,-1,1105,764,0,0
-112,260,0,0,0,0,0,0,0,0,0,-1,1112,764,0,0
-105,260,0,0,0,0,0,0,0,0,0,-1,1119,764,0,0
-98,260,0,0,0,0,0,0,0,0,0,-1,1126,764,0,0
-91,260,0,0,0,0,0,0,0,0,0,-1,1133,764,0,0
-84,260,0,0,0,0,0,0,0,0,0,-1,1140,764,0,0
-77,260,0,0,0,0,0,0,0,0,0,-1,1147,764,0,0
-70,260,0,0,0,0,0,0,0,0,0,-1,1154,764,0,0
-63,260,0,0,0,0,0,0,0,0,0,-1,1161,764,0,0
-56,260,0,0,0,0,0,0,0,0,0,-1,1168,764,0,0
-49,260,0,0,0,0,0,0,0,0,0,-1,1175,764,0,0
-42,260,0,0,0,0,0,0,0,0,0,-1,1182,764,0,0
-35,260,0,0,0,0,0,0,0,0,0,-1,1189,764,0,0
-28,260,0,0,0,0,0,0,0,0,0,-1,1196,764,0,0
-21,260,0,0,0,0,0,0,0,0,0,-1,1203,764,0,0
-14,260,0,0,0,0,0,0,0,0,0,-1,1210,764,0,0
-7,260,0,0,0,0,0,0,0,0,0,-1,1217,764,0,0
0,260,0,0,0,0,0,0,0,0,0,-1,1224,764,0,0
7,260,0,0,0,0,0,0,0,0,0,-1,1231,764,0,0
14,260,0,0,0,0,0,0,0,0,0,-1,1238,764,0,0
21,260,0,0,0,0,0,0,0,0,0,-1,1245,764,0,0
28,260,0,0,0,0,0,0,0,0,0,-1,1252,764,0,0
35,260,0,0,0,0,0,0,0,0,0,-1,1259,764,0,0
42,260,0,0,0,0,0,0,0,0,0,-1,1266,764,0,0
49,260,0,0,0,0,0,0,0,0,0,-1,1273,764,0,0
56,260,0,0,0,0,0,0,0,0,0,-1,1280,764,0,0
63,260,0,0,0,0,0,0,0,0,0,-1,1287,764,0,0
70,260,0,0,0,0,0,0,0,0,0,-1,1294,764,0,0
77,260,0,0,0,0,0,0,0,0,0,-1,1301,764,0,0
84,260,0,0,0,0,0,0,0,0,0,-1,1308,764,0,0
91,260,0,0,0,0,0,0,0,0,0,-1,1315,764,0,0
98,260,0,0,0,0,0,0,0,0,0,-1,1322,764,0,0
105,260,0,0,0,0,0,0,0,0,0,-1,1329,764,0,0
112,260,0,0,0,0,0,0,0,0,0,-1,1336,764,0,0
119,260,0,0,0,0,0,0,0,0,0,-1,1343,764,0,0
126,260,0,0,0,0,0,0,0,0,0,-1,1350,764,0,0
133,260,0,0,0,0,0,0,0,0,0,-1,1357,764,0,0
140,260,0,0,0,0,0,0,0,0,0,-1,1364,764,0,0
147,260,0,0,0,0,0,0,0,0,0,-1,1371,764,0,0
154,260,0,0,0,0,0,0,0,0,0,-1,1378,764,0,0
161,260,0,0,0,0,0,0,0,0,0,-1,1385,764,0,0
168,260,0,0,0,0,0,0,0,0,0,-1,1392,764,0,0
175,260,0,0,0,0,0,0,0,0,0,-1,1399,764,0,0
182,260,0,0,0,0,0,0,0,0,0,-1,1406,764,0,0
189,260,0,0,0,0,0,0,0,0,0,-1,1413,764,0,0
196,260,0,0,0,0,0,0,0,0,0,-1,1420,764,0,0
203,260,0,0,0,0,0,0,0,0,0,-1,1427,764,0,0
210,260,0,0,0,0,0,0,0,0,0,-1,1434,764,0,0
217,260,0,0,0,0,0,0,0,0,0,-1,1441,764,0,0
224,260,0,0,0,0,0,0,0,0,0,-1,1448,764,0,0
231,260,0,0,0,0,0,0,0,0,0,-1,1455,764,0,0
238,260,0,0,0,0,0,0,0,0,0,-1,1462,764,0,0
245,260,0,0,0,0,0,0,0,0,0,-1,1469,764,0,0
252,260,0,0,0,0,0,0,0,0,0,-1,1476,764,0,0
259,260,0,0,0,0,0,0,0,0,0,-1,1483,764,0,0
266,260,0,0,0,0,0,0,0,0,0,-1,1490,764,0,0
273,260,0,0,0,0,0,0,0,0,0,-1,1497,764,0,0
280,260,0,0,0,0,0,0,0,0,0,-1,1504,764,0,0
287,260,0,0,0,0,0,0,0,0,0,-1,1511,764,0,0
294,260,0,0,0,0,0,0,0,0,0,-1,1518,764,0,0
301,260,0,0,0,0,0,0,0,0,0,-1,1525,764,0,0
308,260,0,0,0,0,0,0,0,0,0,-1,1532,764,0,0
315,260,0,0,0,0,0,0,0,0,0,-1,1539,764,0,0
322,260,0,0,0,0,0,0,0,0,0,-1,1546,764,0,0
329,260,0,0,0,0,0,0,0,0,0,-1,1553,764,0,0
336,260,0,0,0,0,0,0,0,0,0,-1,1560,764,0,0
343,260,0,0,0,0,0,0,0,0,0,-1,1567,764,0,0
350,260,0,0,0,0,0,0,0,0,0,-1,1574,764,0,0
357,260,0,0,0,0,0,0,0,0,0,-1,1581,764,0,0
364,260,0,0,0,0,0,0,0,0,0,-1,1588,764,0,0
371,260,0,0,0,0,0,0,0,0,0,-1,1595,764,0,0
378,260,0,0,0,0,0,0,0,0,0,-1,1602,764,0,0
385,260,0,0,0,0,0,0,0,0,0,-1,1609,764,0,0
392,260,0,0,0,0,0,0,0,0,0,-1,1616,764,0,0
399,260,0,0,0,0,0,0,0,0,0,-1,1623,764,0,0
406,260,0,0,0,0,0,0,0,0,0,-1,1630,764,0,0
413,260,0,0,0,0,0,0,0,0,0,-1,1637,764,0,0
420,260,0,0,0,0,0,0,0,0,0,-1,1644,764,0,0
427,260,0,0,0,0,0,0,0,0,0,-1,1651,764,0,0
434,260,0,0,0,0,0,0,0,0,0,-1,1658,764,0,0
441,260,0,0,0,0,0,0,0,0,0,-1,1665,764,0,0
448,260,0,0,0,0,0,0,0,0,0,-1,1672,764,0,0
455,260,0,0,0,0,0,0,0,0,0,-1,1679,764,0,0
462,260,0,0,0,0,0,0,0,0,0,-1,1686,764,0,0
469,260,0,0,0,0,0,0,0,0,0,-1,1693,764,0,0
476,260,0,0,0,0,0,0,0,0,0,-1,1700,764,0,0
483,260,0,0,0,0,0,0,0,0,0,-1,1707,764,0,0
490,260,0,0,0,0,0,0,0,0,0,-1,1714,764,0,0
497,260,0,0,0,0,0,0,0,0,0,-1,1721,764,0,0
504,260,0,0,0,0,0,0,0,0,0,-1,1728,764,0,0
511,260,0,0,0,0,0,0,0,0,0,-1,1735,764,0,0
518,260,0,0,0,0,0,0,0,0,0,-1,1742,764,0,0
525,260,0,0,0,0,0,0,0,0,0,-1,1749,764,0,0
532,260,0,0,0,0,0,0,0,0,0,-1,1756,764,0,0
539,260,0,0,0,0,0,0,0,0,0,-1,1763,764,0,0
546,260,0,0,0,0,0,0,0,0,0,-1,1770,764,0,0
553,260,0,0,0,0,0,0,0,0,0,-1,1777,764,0,0
560,260,0,0,0,0,0,0,0,0,0,-1,1784,764,0,0
567,260,0,0,0,0,0,0,0,0,0,-1,1791,764,0,0
574,260,21.9889,2.828,-0.0139802,0.0296478,-0.0121388,0.0327978,-0.0171302,-1.3169,0.0292952,0.0365017,1798,764,21.9889,-2.82799
581,260,22.0059,2.88251,-0.00577274,0.0195931,-0.0114249,0.0239802,-0.0101599,-1.20416,0.020242,0.0398083,1805,764,22.0059,-2.88251
588,260,21.9033,2.93158,0.000734823,0.0130155,-0.0104308,0.0189791,-0.00522878,-1.05142,0.0147088,0.0443275,1812,764,21.9033,-2.93158
595,260,21.5923,2.95801,0.00504556,0.00867253,-0.00917911,0.0162156,-0.00249749,-0.882926,0.0117318,0.0443866,1819,764,21.5922,-2.95803
602,260,21.3215,3.27502,0.00761929,0.00579471,-0.00790408,0.0146636,-0.00124956,-0.727942,0.0102177,0.0434392,1826,764,21.3215,-3.27503
609,260,22.3475,2.50415,0.00882541,0.00382679,-0.00676049,0.0135338,-0.000881582,-0.608343,0.00933028,0.0383651,1833,764,22.3476,-2.50415
616,260,23.2489,2.03003,0.00904109,0.00254771,-0.00573069,0.0123809,-0.000792089,-0.52767,0.00853022,0.0420431,1840,764,23.2489,-2.03001
623,260,23.4502,1.48517,0,0,0,0,0,0,0,-1,1847,764,23.4502,-1.48519
630,260,15.3221,0.412415,0,0,0,0,0,0,0,-1,1854,764,15.3222,-0.412445
637,260,15.3002,0.648499,0.00701517,-3.58384e-05,-0.00326004,0.00829144,-0.00131211,-0.373148,0.0060129,0.0488202,1861,764,15.3001,-0.64852
644,260,15.3024,0.879578,0.00630628,0.000280971,-0.00270525,0.00734264,-0.000755384,-0.365844,0.00516533,0.0236053,1868,764,15.3024,-0.879594
651,260,15.334,1.13983,0.00476415,4.65294e-05,-0.00206886,0.00554288,-0.000732203,-0.360003,0.00396194,0.013438,1875,764,15.334,-1.13981
658,260,15.3041,1.41968,0.0025122,2.86425e-06,-0.0019403,0.00356815,-0.00105308,-0.498394,0.00279669,0.0163314,1882,764,15.3041,-1.41965
665,260,15.2976,1.67157,0.000970741,-0.000214017,-0.00134623,0.00184917,-0.00109244,-0.578134,0.00171697,0.0161072,1889,764,15.2976,-1.67155
672,260,15.3116,1.91669,0.000823636,-0.000365638,-0.00066107,0.00111816,-0.000660161,-0.419127,0.001038,0.0135086,1896,764,15.3117,-1.9167
679,260,15.3057,2.15253,0.0016496,-0.000314211,-0.00036844,0.00171645,-0.00038106,-0.179486,0.00129021,0.012187,1903,764,15.3056,-2.15254
686,260,15.296,2.39447,0.0027234,-4.32188e-05,0.000277705,0.002751,-7.08187e-05,0.0990605,0.00185805,0.0145941,1910,764,15.296,-2.39445
693,260,15.2677,2.61194,0.00412514,0.00035635,0.00102265,0.00438475,9.6739e-05,0.248609,0.00289146,0.0149144,1917,764,15.2677,-2.61194
700,260,15.2473,2.85938,0.0059969,0.000423154,0.0019963,0.00663813,-0.000218074,0.310798,0.00449987,0.0138475,1924,764,15.2474,-2.85935
707,260,15.2588,3.10986,0.00878952,0.000863069,0.00334285,0.0100111,-0.000358471,0.350345,0.00679668,0.014156,1931,764,15.2588,-3.10983
714,260,15.3032,3.34222,0.0127954,0.000717519,0.00515861,0.0146988,-0.00118583,0.35347,0.0102174,0.024066,1938,764,15.3032,-3.34222
721,260,15.4847,3.53796,0.0175945,0.000551517,0.0074311,0.0203795,-0.0022335,0.358577,0.0143887,0.0407451,1945,764,15.4847,-3.53794
728,260,15.731,3.69159,0.024163,9.40342e-05,0.0107052,0.0282354,-0.00397834,0.363505,0.0202802,0.0467424,1952,764,15.731,-3.69156
735,260,15.6365,4.27014,0.0331376,-0.000841676,0.0152063,0.0389488,-0.00665291,0.365032,0.028444,0.0475249,1959,764,15.6365,-4.27017
742,260,15.833,4.61877,0,0,0,0,0,0,0,-1,1966,764,15.833,-4.61875
749,260,16.0095,4.91089,0,0,0,0,0,0,0,-1,1973,764,16.0095,-4.9109
756,260,0,0,0,0,0,0,0,0,0,-1,1980,764,0,0
763,260,0,0,0,0,0,0,0,0,0,-1,1987,764,0,0
770,260,0,0,0,0,0,0,0,0,0,-1,1994,764,0,0
777,260,0,0,0,0,0,0,0,0,0,-1,2001,764,0,0
784,260,0,0,0,0,0,0,0,0,0,-1,2008,764,0,0
791,260,0,0,0,0,0,0,0,0,0,-1,2015,764,0,0
798,260,0,0,0,0,0,0,0,0,0,-1,2022,764,0,0
805,260,0,0,0,0,0,0,0,0,0,-1,2029,764,0,0
812,260,0,0,0,0,0,0,0,0,0,-1,2036,764,0,0
-700,253,0,0,0,0,0,0,0,0,0,-1,524,771,0,0
-693,253,0,0,0,0,0,0,0,0,0,-1,531,771,0,0
-686,253,0,0,0,0,0,0,0,0,0,-1,538,771,0,0
-679,253,0,0,0,0,0,0,0,0,0,-1,545,771,0,0
-672,253,0,0,0,0,0,0,0,0,0,-1,552,771,0,0
-665,253,0,0,0,0,0,0,0,0,0,-1,559,771,0,0
-658,253,0,0,0,0,0,0,0,0,0,-1,566,771,0,0
-651,253,0,0,0,0,0,0,0,0,0,-1,573,771,0,0
-644,253,0,0,0,0,0,0,0,0,0,-1,580,771,0,0
-637,253,-13.5086,4.06274,0.26788,-0.0507895,-0.111056,0.302765,-0.0856738,-0.304355,0.235651,0.0451873,587,771,-13.5086,-4.06276
-630,253,-12.8084,3.24341,0.233065,-0.0437334,-0.0874611,0.258384,-0.0690528,-0.28179,0.199302,0.047659,594,771,-12.8084,-3.24344
-623,253,-11.7768,2.51593,0.195596,-0.0362367,-0.0678764,0.214006,-0.0546476,-0.264869,0.163951,0.0465425,601,771,-11.7768,-2.51593
-616,253,-10.7111,1.6015,0.158496,-0.0291726,-0.0513838,0.171644,-0.0423204,-0.2505,0.130838,0.0449561,608,771,-10.7111,-1.6015
-609,253,-9.98804,0.926331,0.124235,-0.0226048,-0.0378179,0.133402,-0.0317723,-0.237823,0.101202,0.0406779,615,771,-9.98806,-0.926335
-602,253,-8.53619,1.65961,0.0940269,-0.0168045,-0.026936,0.100226,-0.0230041,-0.226221,0.0756605,0.0469081,622,771,-8.53619,-1.6596
-595,253,-8.77148,1.4198,0.0690976,-0.0121678,-0.0181166,0.0729534,-0.0160236,-0.209704,0.0547639,0.0448315,629,771,-8.77149,-1.4198
-588,253,-9.10095,1.22864,0.0488736,-0.00815419,-0.0114877,0.0511007,-0.0103813,-0.191493,0.0380032,0.0348529,636,771,-9.10097,-1.22864
-581,253,-9.03839,1.0285,0.0327983,-0.00466064,-0.0067398,0.0339741,-0.0058364,-0.172711,0.0248246,0.0201288,643,771,-9.03839,-1.0285
-574,253,-9.0614,0.827576,0.01752,-0.00440944,-0.00241817,0.0177835,-0.00467292,-0.108533,0.0136819,0.0175966,650,771,-9.0614,-0.827568
-567,253,-9.07343,0.619019,0.00819457,-0.00185128,3.72166e-05,0.00819471,-0.00185142,0.00370461,0.00617352,0.0152604,657,771,-9.07341,-0.619046
-560,253,-9.04413,0.41217,0.00274275,-0.000483347,0.00097508,0.00301457,-0.000755161,0.271859,0.00230308,0.0119261,664,771,-9.04416,-0.412147
-553,253,-9.03632,0.178772,-4.31799e-05,-0.00121515,0.000481965,0.000129564,-0.00138789,0.344152,0.000971333,0.0109991,671,771,-9.0363,-0.178795
-546,253,-9.05634,-0.020874,-0.00147619,-0.00224478,0.00134237,-0.000464192,-0.00325677,0.645986,0.00203418,0.00931114,678,771,-9.05632,0.0208854
-539,253,-9.05768,-0.263245,-0.00282706,-0.00303687,0.00215438,-0.000775037,-0.00508889,0.761071,0.00316603,0.010314,685,771,-9.05769,0.263248
-532,253,-9.06421,-0.504517,-0.00422085,-0.00398046,0.00289812,-0.00120005,-0.00700126,0.806123,0.00432337,0.0149924,692,771,-9.06419,0.504546
-525,253,-9.0614,-0.762329,-0.00542689,-0.00483027,0.0035649,-0.00155122,-0.00870594,0.827141,0.00536221,0.0128168,699,771,-9.06137,0.762329
-518,253,-9.06104,-0.96582,-0.00665005,-0.00553466,0.00455841,-0.00149995,-0.0106848,0.846268,0.00667956,0.0159722,706,771,-9.06106,0.965828
-511,253,-9.08154,-1.15637,-0.00793707,-0.0060189,0.00635384,-0.000552171,-0.0134038,0.860305,0.00875761,0.0362581,713,771,-9.08156,1.15636
-504,253,-9.23346,-1.2337,0,0,0,0,0,0,0,-1,720,771,-9.23347,1.23371
-497,253,-9.71637,-1.34497,0,0,0,0,0,0,0,-1,727,771,-9.71638,1.34497
-490,253,-10.5853,-1.03699,0,0,0,0,0,0,0,-1,734,771,-10.5853,1.03698
-483,253,-11.6929,-0.321716,0,0,0,0,0,0,0,-1,741,771,-11.6929,0.321733
-476,253,-12.3513,-0.237732,0,0,0,0,0,0,0,-1,748,771,-12.3512,0.237738
-469,253,-14.3757,-0.931274,0,0,0,0,0,0,0,-1,755,771,-14.3757,0.9313
-462,253,-14.6418,0.930481,-0.0110844,-0.00637365,0.0320824,0.0234397,-0.0408977,0.822041,0.0375983,0.0479885,762,771,-14.6418,-0.930506
-455,253,-14.5885,1.01373,0,0,0,0,0,0,0,-1,769,771,-14.5885,-1.01376
-448,253,0,0,0,0,0,0,0,0,0,-1,776,771,0,0
-441,253,0,0,0,0,0,0,0,0,0,-1,783,771,0,0
-434,253,0,0,0,0,0,0,0,0,0,-1,790,771,0,0
-427,253,0,0,0,0,0,0,0,0,0,-1,797,771,0,0
-420,253,0,0,0,0,0,0,0,0,0,-1,804,771,0,0
-413,253,0,0,0,0,0,0,0,0,0,-1,811,771,0,0
-406,253,0,0,0,0,0,0,0,0,0,-1,818,771,0,0
-399,253,0,0,0,0,0,0,0,0,0,-1,825,771,0,0
-392,253,0,0,0,0,0,0,0,0,0,-1,832,771,0,0
-385,253,0,0,0,0,0,0,0,0,0,-1,839,771,0,0
-378,253,0,0,0,0,0,0,0,0,0,-1,846,771,0,0
-371,253,0,0,0,0,0,0,0,0,0,-1,853,771,0,0
-364,253,0,0,0,0,0,0,0,0,0,-1,860,771,0,0
-357,253,0,0,0,0,0,0,0,0,0,-1,867,771,0,0
-350,253,0,0,0,0,0,0,0,0,0,-1,874,771,0,0
-343,253,0,0,0,0,0,0,0,0,0,-1,881,771,0,0
-336,253,0,0,0,0,0,0,0,0,0,-1,888,771,0,0
-329,253,0,0,0,0,0,0,0,0,0,-1,895,771,0,0
-322,253,0,0,0,0,0,0,0,0,0,-1,902,771,0,0
-315,253,0,0,0,0,0,0,0,0,0,-1,909,771,0,0
-308,253,0,0,0,0,0,0,0,0,0,-1,916,771,0,0
-301,253,0,0,0,0,0,0,0,0,0,-1,923,771,0,0
-294,253,0,0,0,0,0,0,0,0,0,-1,930,771,0,0
-287,253,0,0,0,0,0,0,0,0,0,-1,937,771,0,0
-280,253,0,0,0,0,0,0,0,0,0,-1,944,771,0,0
-273,253,0,0,0,0,0,0,0,0,0,-1,951,771,0,0
-266,253,0,0,0,0,0,0,0,0,0,-1,958,771,0,0
-259,253,0,0,0,0,0,0,0,0,0,-1,965,771,0,0
-252,253,0,0,0,0,0,0,0,0,0,-1,972,771,0,0
-245,253,0,0,0,0,0,0,0,0,0,-1,979,771,0,0
-238,253,0,0,0,0,0,0,0,0,0,-1,986,771,0,0
-231,253,0,0,0,0,0,0,0,0,0,-1,993,771,0,0
-224,253,0,0,0,0,0,0,0,0,0,-1,1000,771,0,0
-217,253,0,0,0,0,0,0,0,0,0,-1,1007,771,0,0
-210,253,0,0,0,0,0,0,0,0,0,-1,1014,771,0,0
-203,253,0,0,0,0,0,0,0,0,0,-1,1021,771,0,0
-196,253,0,0,0,0,0,0,0,0,0,-1,1028,771,0,0
-189,253,0,0,0,0,0,0,0,0,0,-1,1035,771,0,0
-182,253,0,0,0,0,0,0,0,0,0,-1,1042,771,0,0
-175,253,0,0,0,0,0,0,0,0,0,-1,1049,771,0,0
-168,253,0,0,0,0,0,0,0,0,0,-1,1056,771,0,0
-161,253,0,0,0,0,0,0,0,0,0,-1,1063,771,0,0
-154,253,0,0,0,0,0,0,0,0,0,-1,1070,771,0,0
-147,253,0,0,0,0,0,0,0,0,0,-1,1077,771,0,0
-140,253,0,0,0,0,0,0,0,0,0,-1,1084,771,0,0
-133,253,0,0,0,0,0,0,0,0,0,-1,1091,771,0,0
-126,253,0,0,0,0,0,0,0,0,0,-1,1098,771,0,0
-119,253,0,0,0,0,0,0,0,0,0,-1,1105,771,0,0
-112,253,0,0,0,0,0,0,0,0,0,-1,1112,771,0,0
-105,253,0,0,0,0,0,0,0,0,0,-1,1119,771,0,0
-98,253,0,0,0,0,0,0,0,0,0,-1,1126,771,0,0
-91,253,0,0,0,0,0,0,0,0,0,-1,1133,771,0,0
-84,253,0,0,0,0,0,0,0,0,0,-1,1140,771,0,0
-77,253,0,0,0,0,0,0,0,0,0,-1,1147,771,0,0
-70,253,0,0,0,0,0,0,0,0,0,-1,1154,771,0,0
-63,253,0,0,0,0,0,0,0,0,0,-1,1161,771,0,0
-56,253,0,0,0,0,0,0,0,0,0,-1,1168,771,0,0
-49,253,0,0,0,0,0,0,0,0,0,-1,1175,771,0,0
-42,253,0,0,0,0,0,0,0,0,0,-1,1182,771,0,0
-35,253,0,0,0,0,0,0,0,0,0,-1,1189,771,0,0
-28,253,0,0,0,0,0,0,0,0,0,-1,1196,771,0,0
-21,253,0,0,0,0,0,0,0,0,0,-1,1203,771,0,0
-14,253,0,0,0,0,0,0,0,0,0,-1,1210,771,0,0
-7,253,0,0,0,0,0,0,0,0,0,-1,1217,771,0,0
0,253,0,0,0,0,0,0,0,0,0,-1,1224,771,0,0
7,253,0,0,0,0,0,0,0,0,0,-1,1231,771,0,0
14,253,0,0,0,0,0,0,0,0,0,-1,1238,771,0,0
21,253,0,0,0,0,0,0,0,0,0,-1,1245,771,0,0
28,253,0,0,0,0,0,0,0,0,0,-1,1252,771,0,0
35,253,0,0,0,0,0,0,0,0,0,-1,1259,771,0,0
42,253,0,0,0,0,0,0,0,0,0,-1,1266,771,0,0
49,253,0,0,0,0,0,0,0,0,0,-1,1273,771,0,0
56,253,0,0,0,0,0,0,0,0,0,-1,1280,771,0,0
63,253,0,0,0,0,0,0,0,0,0,-1,1287,771,0,0
70,253,0,0,0,0,0,0,0,0,0,-1,1294,771,0,0
77,253,0,0,0,0,0,0,0,0,0,-1,1301,771,0,0
84,253,0,0,0,0,0,0,0,0,0,-1,1308,771,0,0
91,253,0,0,0,0,0,0,0,0,0,-1,1315,771,0,0
98,253,0,0,0,0,0,0,0,0,0,-1,1322,771,0,0
105,253,0,0,0,0,0,0,0,0,0,-1,1329,771,0,0
112,253,0,0,0,0,0,0,0,0,0,-1,1336,771,0,0
119,253,0,0,0,0,0,0,0,0,0,-1,1343,771,0,0
126,253,0,0,0,0,0,0,0,0,0,-1,1350,771,0,0
133,253,0,0,0,0,0,0,0,0,0,-1,1357,771,0,0
140,253,0,0,0,0,0,0,0,0,0,-1,1364,771,0,0
147,253,0,0,0,0,0,0,0,0,0,-1,1371,771,0,0
154,253,0,0,0,0,0,0,0,0,0,-1,1378,771,0,0
161,253,0,0,0,0,0,0,0,0,0,-1,1385,771,0,0
168,253,0,0,0,0,0,0,0,0,0,-1,1392,771,0,0
175,253,0,0,0,0,0,0,0,0,0,-1,1399,771,0,0
182,253,0,0,0,0,0,0,0,0,0,-1,1406,771,0,0
189,253,0,0,0,0,0,0,0,0,0,-1,1413,771,0,0
196,253,0,0,0,0,0,0,0,0,0,-1,1420,771,0,0
203,253,0,0,0,0,0,0,0,0,0,-1,1427,771,0,0
210,253,0,0,0,0,0,0,0,0,0,-1,1434,771,0,0
217,253,0,0,0,0,0,0,0,0,0,-1,1441,771,0,0
224,253,0,0,0,0,0,0,0,0,0,-1,1448,771,0,0
231,253,0,0,0,0,0,0,0,0,0,-1,1455,771,0,0
238,253,0,0,0,0,0,0,0,0,0,-1,1462,771,0,0
245,253,0,0,0,0,0,0,0,0,0,-1,1469,771,0,0
252,253,0,0,0,0,0,0,0,0,0,-1,1476,771,0,0
259,253,0,0,0,0,0,0,0,0,0,-1,1483,771,0,0
266,253,0,0,0,0,0,0,0,0,0,-1,1490,771,0,0
273,253,0,0,0,0,0,0,0,0,0,-1,1497,771,0,0
280,253,0,0,0,0,0,0,0,0,0,-1,1504,771,0,0
287,253,0,0,0,0,0,0,0,0,0,-1,1511,771,0,0
294,253,0,0,0,0,0,0,0,0,0,-1,1518,771,0,0
301,253,0,0,0,0,0,0,0,0,0,-1,1525,771,0,0
308,253,0,0,0,0,0,0,0,0,0,-1,1532,771,0,0
315,253,0,0,0,0,0,0,0,0,0,-1,1539,771,0,0
322,253,0,0,0,0,0,0,0,0,0,-1,1546,771,0,0
329,253,0,0,0,0,0,0,0,0,0,-1,1553,771,0,0
336,253,0,0,0,0,0,0,0,0,0,-1,1560,771,0,0
343,253,0,0,0,0,0,0,0,0,0,-1,1567,771,0,0
350,253,0,0,0,0,0,0,0,0,0,-1,1574,771,0,0
357,253,0,0,0,0,0,0,0,0,0,-1,1581,771,0,0
364,253,0,0,0,0,0,0,0,0,0,-1,1588,771,0,0
371,253,0,0,0,0,0,0,0,0,0,-1,1595,771,0,0
378,253,0,0,0,0,0,0,0,0,0,-1,1602,771,0,0
385,253,0,0,0,0,0,0,0,0,0,-1,1609,771,0,0
392,253,0,0,0,0,0,0,0,0,0,-1,1616,771,0,0
399,253,0,0,0,0,0,0,0,0,0,-1,1623,771,0,0
406,253,0,0,0,0,0,0,0,0,0,-1,1630,771,0,0
413,253,0,0,0,0,0,0,0,0,0,-1,1637,771,0,0
420,253,0,0,0,0,0,0,0,0,0,-1,1644,771,0,0
427,253,0,0,0,0,0,0,0,0,0,-1,1651,771,0,0
434,253,0,0,0,0,0,0,0,0,0,-1,1658,771,0,0
441,253,0,0,0,0,0,0,0,0,0,-1,1665,771,0,0
448,253,0,0,0,0,0,0,0,0,0,-1,1672,771,0,0
455,253,0,0,0,0,0,0,0,0,0,-1,1679,771,0,0
462,253,0,0,0,0,0,0,0,0,0,-1,1686,771,0,0
469,253,0,0,0,0,0,0,0,0,0,-1,1693,771,0,0
476,253,0,0,0,0,0,0,0,0,0,-1,1700,771,0,0
483,253,0,0,0,0,0,0,0,0,0,-1,1707,771,0,0
490,253,0,0,0,0,0,0,0,0,0,-1,1714,771,0,0
497,253,0,0,0,0,0,0,0,0,0,-1,1721,771,0,0
504,253,0,0,0,0,0,0,0,0,0,-1,1728,771,0,0
511,253,0,0,0,0,0,0,0,0,0,-1,1735,771,0,0
518,253,0,0,0,0,0,0,0,0,0,-1,1742,771,0,0
525,253,0,0,0,0,0,0,0,0,0,-1,1749,771,0,0
532,253,0,0,0,0,0,0,0,0,0,-1,1756,771,0,0
539,253,0,0,0,0,0,0,0,0,0,-1,1763,771,0,0
546,253,0,0,0,0,0,0,0,0,0,-1,1770,771,0,0
553,253,0,0,0,0,0,0,0,0,0,-1,1777,771,0,0
560,253,0,0,0,0,0,0,0,0,0,-1,1784,771,0,0
567,253,0,0,0,0,0,0,0,0,0,-1,1791,771,0,0
574,253,21.9655,2.71558,-0.0123771,0.0245433,-0.00907213,0.0266521,-0.0144859,-1.34241,0.0240947,0.0347164,1798,771,21.9654,-2.7156
581,253,21.9978,2.80383,-0.00383817,0.0154835,-0.00895292,0.0189941,-0.00734876,-1.1971,0.0156966,0.0396843,1805,771,21.9978,-2.80385
588,253,21.9587,2.92395,0.00278115,0.0100628,-0.00856527,0.0157289,-0.00288499,-0.986362,0.0115681,0.0433657,1812,771,21.9588,-2.92397
595,253,22.4957,2.66046,0.0067788,0.00674972,-0.00773934,0.0145036,-0.000975089,-0.784459,0.0100099,0.0434173,1819,771,22.4958,-2.66047
602,253,21.2295,3.16156,0,0,0,0,0,0,0,-1,1826,771,21.2295,-3.16158
609,253,22.2225,2.63251,0,0,0,0,0,0,0,-1,1833,771,22.2226,-2.63251
616,253,23.2156,2.10345,0,0,0,0,0,0,0,-1,1840,771,23.2156,-2.10343
623,253,22.8488,2.19537,0,0,0,0,0,0,0,-1,1847,771,22.8488,-2.1954
630,253,22.9821,2.20215,0,0,0,0,0,0,0,-1,1854,771,22.982,-2.20213
637,253,15.4559,0.489807,0,0,0,0,0,0,0,-1,1861,771,15.4559,-0.4898
644,253,15.5236,0.810181,0.00567804,0.00096373,-0.00277472,0.00696166,-0.000319888,-0.433293,0.00475133,0.0410872,1868,771,15.5236,-0.810176
651,253,15.5649,1.14716,0.0041133,0.000766522,-0.00226014,0.00525211,-0.000372291,-0.466737,0.00363187,0.0212334,1875,771,15.5649,-1.14713
658,253,15.5745,1.42474,0.00205326,0.000641985,-0.00223834,0.00369456,-0.000999313,-0.632704,0.00285505,0.018504,1882,771,15.5745,-1.42473
665,253,15.5016,1.66052,0.0006195,0.000287926,-0.00173365,0.00219527,-0.00128785,-0.737729,0.0020336,0.0215111,1889,771,15.5016,-1.66053
672,253,15.4973,1.88983,0.000517155,-3.67406e-05,-0.00109143,0.00136623,-0.000885814,-0.661147,0.00131004,0.0171317,1896,771,15.4973,-1.88986
679,253,15.5574,2.14404,0.00135178,-0.000189765,-0.000810073,0.00169918,-0.000537165,-0.405127,0.001348,0.0131791,1903,771,15.5574,-2.14406
686,253,15.5524,2.38672,0.00242257,-0.000102044,-0.00017834,0.0024351,-0.00011458,-0.0701761,0.00166291,0.0176373,1910,771,15.5524,-2.38674
693,253,15.5211,2.64154,0.00378513,0.000214254,0.000508971,0.00385626,0.000143125,0.138851,0.00252449,0.0174229,1917,771,15.5212,-2.64154
700,253,15.5232,2.87256,0.00553366,0.000163415,0.00136213,0.0058594,-0.000162324,0.234731,0.00396148,0.0157799,1924,771,15.5232,-2.87257
707,253,15.5277,3.11426,0.00823944,0.000650334,0.00259508,0.00904196,-0.000152188,0.299918,0.00607934,0.0152302,1931,771,15.5277,-3.11427
714,253,15.5216,3.34808,0.012263,0.000503146,0.00430747,0.0136719,-0.000905814,0.316127,0.00943107,0.0192247,1938,771,15.5217,-3.34808
721,253,15.5802,3.51971,0.0170872,0.000324561,0.00640382,0.0192536,-0.00184189,0.326219,0.0134917,0.0324858,1945,771,15.5802,-3.51971
728,253,15.6581,3.68414,0.0237788,-0.000141417,0.00943456,0.027052,-0.00341467,0.333949,0.019274,0.0417306,1952,771,15.658,-3.68413
735,253,15.5026,4.03723,0.0330634,-0.00103131,0.0137177,0.0378973,-0.00586516,0.338794,0.0274297,0.0455194,1959,771,15.5025,-4.03722
742,253,15.5258,4.32739,0,0,0,0,0,0,0,-1,1966,771,15.5258,-4.3274
749,253,16.3292,4.35529,0,0,0,0,0,0,0,-1,1973,771,16.3292,-4.3553
756,253,0,0,0,0,0,0,0,0,0,-1,1980,771,0,0
763,253,0,0,0,0,0,0,0,0,0,-1,1987,771,0,0
770,253,0,0,0,0,0,0,0,0,0,-1,1994,771,0,0
777,253,0,0,0,0,0,0,0,0,0,-1,2001,771,0,0
784,253,0,0,0,0,0,0,0,0,0,-1,2008,771,0,0
791,253,0,0,0,0,0,0,0,0,0,-1,2015,771,0,0
798,253,0,0,0,0,0,0,0,0,0,-1,2022,771,0,0
805,253,0,0,0,0,0,0,0,0,0,-1,2029,771,0,0
812,253,0,0,0,0,0,0,0,0,0,-1,2036,771,0,0
-700,246,0,0,0,0,0,0,0,0,0,-1,524,778,0,0
-693,246,0,0,0,0,0,0,0,0,0,-1,531,778,0,0
-686,246,0,0,0,0,0,0,0,0,0,-1,538,778,0,0
-679,246,0,0,0,0,0,0,0,0,0,-1,545,778,0,0
-672,246,0,0,0,0,0,0,0,0,0,-1,552,778,0,0
-665,246,0,0,0,0,0,0,0,0,0,-1,559,778,0,0
-658,246,0,0,0,0,0,0,0,0,0,-1,566,778,0,0
-651,246,0,0,0,0,0,0,0,0,0,-1,573,778,0,0
-644,246,0,0,0,0,0,0,0,0,0,-1,580,778,0,0
-637,246,-13.2435,5.28839,0,0,0,0,0,0,0,-1,587,778,-13.2435,-5.28841
-630,246,-11.3007,4.08453,0,0,0,0,0,0,0,-1,594,778,-11.3007,-4.08453
-623,246,-11.6882,2.78247,0,0,0,0,0,0,0,-1,601,778,-11.6882,-2.78246
-616,246,-11.0394,2.3764,0.123472,-0.0221455,-0.0478596,0.137793,-0.0364669,-0.290757,0.106127,0.0480383,608,778,-11.0393,-2.37643
-609,246,-10.3742,1.98138,0.0978897,-0.0172516,-0.0354409,0.107924,-0.027286,-0.275908,0.0825616,0.0454078,615,778,-10.3742,-1.98141
-602,246,-10.1014,1.84839,0,0,0,0,0,0,0,-1,622,778,-10.1014,-1.84839
-595,246,-9.57788,1.47406,0,0,0,0,0,0,0,-1,629,778,-9.57789,-1.47403
-588,246,-9.2821,1.21594,0.0400294,-0.00609177,-0.0110185,0.0425266,-0.00858891,-0.222867,0.0316055,0.0275993,636,778,-9.28209,-1.21594
-581,246,-9.28906,1.03717,0.02716,-0.00314729,-0.00658413,0.0285286,-0.00451586,-0.204941,0.0206893,0.0146073,643,778,-9.28906,-1.03716
-574,246,-9.27411,0.827576,0.0147934,-0.00325236,-0.00266592,0.015179,-0.00363796,-0.143644,0.011525,0.0164665,650,778,-9.27413,-0.827597
-567,246,-9.30023,0.624756,0.0070606,-0.00120409,-0.000361002,0.00707634,-0.00121983,-0.0435694,0.00517234,0.0163106,657,778,-9.30025,-0.624784
-560,246,-9.27527,0.387451,0.00233572,-0.000398961,0.000660867,0.00248706,-0.000550293,0.225108,0.00186867,0.0129455,664,778,-9.27528,-0.387476
-553,246,-9.27112,0.178406,-0.000220816,-0.00103275,0.000324516,-0.000107052,-0.00114651,0.337178,0.000731273,0.0122879,671,778,-9.27112,-0.178387
-546,246,-9.28162,-0.0180664,-0.00166468,-0.0022584,0.00124611,-0.000680563,-0.00324252,0.668463,0.00197432,0.0100962,678,778,-9.28161,0.0180514
-539,246,-9.27856,-0.253479,-0.00297697,-0.00318665,0.00209222,-0.00098697,-0.00517666,0.760364,0.00317369,0.0102011,685,778,-9.27858,0.253477
-532,246,-9.29254,-0.506226,-0.00415512,-0.00415416,0.00282466,-0.00132999,-0.0069793,0.785483,0.004279,0.012389,692,778,-9.29254,0.506245
-525,246,-9.28589,-0.733032,-0.00506372,-0.00502143,0.00341941,-0.0016231,-0.00846205,0.78849,0.00518571,0.0131993,699,778,-9.28588,0.733059
-518,246,-9.29425,-0.901611,-0.00597235,-0.00570419,0.00419261,-0.00164351,-0.010033,0.801383,0.00621373,0.0194675,706,778,-9.29426,0.901607
-511,246,-9.45959,-1.0611,-0.00688232,-0.00620328,0.00547534,-0.00105695,-0.0120287,0.816363,0.00769103,0.0405992,713,778,-9.4596,1.06108
-504,246,-9.6283,-1.23022,-0.00787202,-0.00690338,0.00751318,0.000141072,-0.0149165,0.817585,0.00999167,0.0454674,720,778,-9.62827,1.23023
-497,246,-9.68976,-1.47577,0,0,0,0,0,0,0,-1,727,778,-9.68975,1.47574
-490,246,-9.75586,-1.72107,0,0,0,0,0,0,0,-1,734,778,-9.75588,1.72109
-483,246,-12.47,-0.0308228,0,0,0,0,0,0,0,-1,741,778,-12.47,0.030852
-476,246,-14.68,1.13177,0,0,0,0,0,0,0,-1,748,778,-14.68,-1.13178
-469,246,-14.6033,1.04285,-0.00716519,-0.00667104,0.0212809,0.0143643,-0.0282005,0.791203,0.0250038,0.0440582,755,778,-14.6033,-1.04286
-462,246,-14.6484,0.865967,-0.00380082,-0.00560692,0.0235264,0.0188399,-0.0282476,0.766215,0.0273662,0.0478936,762,778,-14.6484,-0.865974
-455,246,0,0,0,0,0,0,0,0,0,-1,769,778,0,0
-448,246,0,0,0,0,0,0,0,0,0,-1,776,778,0,0
-441,246,0,0,0,0,0,0,0,0,0,-1,783,778,0,0
-434,246,0,0,0,0,0,0,0,0,0,-1,790,778,0,0
-427,246,0,0,0,0,0,0,0,0,0,-1,797,778,0,0
-420,246,0,0,0,0,0,0,0,0,0,-1,804,778,0,0
-413,246,0,0,0,0,0,0,0,0,0,-1,811,778,0,0
-406,246,0,0,0,0,0,0,0,0,0,-1,818,778,0,0
-399,246,0,0,0,0,0,0,0,0,0,-1,825,778,0,0
-392,246,0,0,0,0,0,0,0,0,0,-1,832,778,0,0
-385,246,0,0,0,0,0,0,0,0,0,-1,839,778,0,0
-378,246,0,0,0,0,0,0,0,0,0,-1,846,778,0,0
-371,246,0,0,0,0,0,0,0,0,0,-1,853,778,0,0
-364,246,0,0,0,0,0,0,0,0,0,-1,860,778,0,0
-357,246,0,0,0,0,0,0,0,0,0,-1,867,778,0,0
-350,246,0,0,0,0,0,0,0,0,0,-1,874,778,0,0
-343,246,0,0,0,0,0,0,0,0,0,-1,881,778,0,0
-336,246,0,0,0,0,0,0,0,0,0,-1,888,778,0,0
-329,246,0,0,0,0,0,0,0,0,0,-1,895,778,0,0
-322,246,0,0,0,0,0,0,0,0,0,-1,902,778,0,0
-315,246,0,0,0,0,0,0,0,0,0,-1,909,778,0,0
-308,246,0,0,0,0,0,0,0,0,0,-1,916,778,0,0
-301,246,0,0,0,0,0,0,0,0,0,-1,923,778,0,0
-294,246,0,0,0,0,0,0,0,0,0,-1,930,778,0,0
-287,246,0,0,0,0,0,0,0,0,0,-1,937,778,0,0
-280,246,0,0,0,0,0,0,0,0,0,-1,944,778,0,0
-273,246,0,0,0,0,0,0,0,0,0,-1,951,778,0,0
-266,246,0,0,0,0,0,0,0,0,0,-1,958,778,0,0
-259,246,0,0,0,0,0,0,0,0,0,-1,965,778,0,0
-252,246,0,0,0,0,0,0,0,0,0,-1,972,778,0,0
-245,246,0,0,0,0,0,0,0,0,0,-1,979,778,0,0
-238,246,0,0,0,0,0,0,0,0,0,-1,986,778,0,0
-231,246,0,0,0,0,0,0,0,0,0,-1,993,778,0,0
-224,246,0,0,0,0,0,0,0,0,0,-1,1000,778,0,0
-217,246,0,0,0,0,0,0,0,0,0,-1,1007,778,0,0
-210,246,0,0,0,0,0,0,0,0,0,-1,1014,778,0,0
-203,246,0,0,0,0,0,0,0,0,0,-1,1021,778,0,0
-196,246,0,0,0,0,0,0,0,0,0,-1,1028,778,0,0
-189,246,0,0,0,0,0,0,0,0,0,-1,1035,778,0,0
-182,246,0,0,0,0,0,0,0,0,0,-1,1042,778,0,0
-175,246,0,0,0,0,0,0,0,0,0,-1,1049,778,0,0
-168,246,0,0,0,0,0,0,0,0,0,-1,1056,778,0,0
-161,246,0,0,0,0,0,0,0,0,0,-1,1063,778,0,0
-154,246,0,0,0,0,0,0,0,0,0,-1,1070,778,0,0
-147,246,0,0,0,0,0,0,0,0,0,-1,1077,778,0,0
-140,246,0,0,0,0,0,0,0,0,0,-1,1084,778,0,0
-133,246,0,0,0,0,0,0,0,0,0,-1,1091,778,0,0
-126,246,0,0,0,0,0,0,0,0,0,-1,1098,778,0,0
-119,246,0,0,0,0,0,0,0,0,0,-1,1105,778,0,0
-112,246,0,0,0,0,0,0,0,0,0,-1,1112,778,0,0
-105,246,0,0,0,0,0,0,0,0,0,-1,1119,778,0,0
-98,246,0,0,0,0,0,0,0,0,0,-1,1126,778,0,0
-91,246,0,0,0,0,0,0,0,0,0,-1,1133,778,0,0
-84,246,0,0,0,0,0,0,0,0,0,-1,1140,778,0,0
-77,246,0,0,0,0,0,0,0,0,0,-1,1147,778,0,0
-70,246,0,0,0,0,0,0,0,0,0,-1,1154,778,0,0
-63,246,0,0,0,0,0,0,0,0,0,-1,1161,778,0,0
-56,246,0,0,0,0,0,0,0,0,0,-1,1168,778,0,0
-49,246,0,0,0,0,0,0,0,0,0,-1,1175,778,0,0
-42,246,0,0,0,0,0,0,0,0,0,-1,1182,778,0,0
-35,246,0,0,0,0,0,0,0,0,0,-1,1189,778,0,0
-28,246,0,0,0,0,0,0,0,0,0,-1,1196,778,0,0
-21,246,0,0,0,0,0,0,0,0,0,-1,1203,778,0,0
-14,246,0,0,0,0,0,0,0,0,0,-1,1210,778,0,0
-7,246,0,0,0,0,0,0,0,0,0,-1,1217,778,0,0
0,246,0,0,0,0,0,0,0,0,0,-1,1224,778,0,0
7,246,0,0,0,0,0,0,0,0,0,-1,1231,778,0,0
14,246,0,0,0,0,0,0,0,0,0,-1,1238,778,0,0
21,246,0,0,0,0,0,0,0,0,0,-1,1245,778,0,0
28,246,0,0,0,0,0,0,0,0,0,-1,1252,778,0,0
35,246,0,0,0,0,0,0,0,0,0,-1,1259,778,0,0
42,246,0,0,0,0,0,0,0,0,0,-1,1266,778,0,0
49,246,0,0,0,0,0,0,0,0,0,-1,1273,778,0,0
56,246,0,0,0,0,0,0,0,0,0,-1,1280,778,0,0
63,246,0,0,0,0,0,0,0,0,0,-1,1287,778,0,0
70,246,0,0,0,0,0,0,0,0,0,-1,1294,778,0,0
77,246,0,0,0,0,0,0,0,0,0,-1,1301,778,0,0
84,246,0,0,0,0,0,0,0,0,0,-1,1308,778,0,0
91,246,0,0,0,0,0,0,0,0,0,-1,1315,778,0,0
98,246,0,0,0,0,0,0,0,0,0,-1,1322,778,0,0
105,246,0,0,0,0,0,0,0,0,0,-1,1329,778,0,0
112,246,0,0,0,0,0,0,0,0,0,-1,1336,778,0,0
119,246,0,0,0,0,0,0,0,0,0,-1,1343,778,0,0
126,246,0,0,0,0,0,0,0,0,0,-1,1350,778,0,0
133,246,0,0,0,0,0,0,0,0,0,-1,1357,778,0,0
140,246,0,0,0,0,0,0,0,0,0,-1,1364,778,0,0
147,246,0,0,0,0,0,0,0,0,0,-1,1371,778,0,0
154,246,0,0,0,0,0,0,0,0,0,-1,1378,778,0,0
161,246,0,0,0,0,0,0,0,0,0,-1,1385,778,0,0
168,246,0,0,0,0,0,0,0,0,0,-1,1392,778,0,0
175,246,0,0,0,0,0,0,0,0,0,-1,1399,778,0,0
182,246,0,0,0,0,0,0,0,0,0,-1,1406,778,0,0
189,246,0,0,0,0,0,0,0,0,0,-1,1413,778,0,0
196,246,0,0,0,0,0,0,0,0,0,-1,1420,778,0,0
203,246,0,0,0,0,0,0,0,0,0,-1,1427,778,0,0
210,246,0,0,0,0,0,0,0,0,0,-1,1434,778,0,0
217,246,0,0,0,0,0,0,0,0,0,-1,1441,778,0,0
224,246,0,0,0,0,0,0,0,0,0,-1,1448,778,0,0
231,246,0,0,0,0,0,0,0,0,0,-1,1455,778,0,0
238,246,0,0,0,0,0,0,0,0,0,-1,1462,778,0,0
245,246,0,0,0,0,0,0,0,0,0,-1,1469,778,0,0
252,246,0,0,0,0,0,0,0,0,0,-1,1476,778,0,0
259,246,0,0,0,0,0,0,0,0,0,-1,1483,778,0,0
266,246,0,0,0,0,0,0,0,0,0,-1,1490,778,0,0
273,246,0,0,0,0,0,0,0,0,0,-1,1497,778,0,0
280,246,0,0,0,0,0,0,0,0,0,-1,1504,778,0,0
287,246,0,0,0,0,0,0,0,0,0,-1,1511,778,0,0
294,246,0,0,0,0,0,0,0,0,0,-1,1518,778,0,0
301,246,0,0,0,0,0,0,0,0,0,-1,1525,778,0,0
308,246,0,0,0,0,0,0,0,0,0,-1,1532,778,0,0
315,246,0,0,0,0,0,0,0,0,0,-1,1539,778,0,0
322,246,0,0,0,0,0,0,0,0,0,-1,1546,778,0,0
329,246,0,0,0,0,0,0,0,0,0,-1,1553,778,0,0
336,246,0,0,0,0,0,0,0,0,0,-1,1560,778,0,0
343,246,0,0,0,0,0,0,0,0,0,-1,1567,778,0,0
350,246,0,0,0,0,0,0,0,0,0,-1,1574,778,0,0
357,246,0,0,0,0,0,0,0,0,0,-1,1581,778,0,0
364,246,0,0,0,0,0,0,0,0,0,-1,1588,778,0,0
371,246,0,0,0,0,0,0,0,0,0,-1,1595,778,0,0
378,246,0,0,0,0,0,0,0,0,0,-1,1602,778,0,0
385,246,0,0,0,0,0,0,0,0,0,-1,1609,778,0,0
392,246,0,0,0,0,0,0,0,0,0,-1,1616,778,0,0
399,246,0,0,0,0,0,0,0,0,0,-1,1623,778,0,0
406,246,0,0,0,0,0,0,0,0,0,-1,1630,778,0,0
413,246,0,0,0,0,0,0,0,0,0,-1,1637,778,0,0
420,246,0,0,0,0,0,0,0,0,0,-1,1644,778,0,0
427,246,0,0,0,0,0,0,0,0,0,-1,1651,778,0,0
434,246,0,0,0,0,0,0,0,0,0,-1,1658,778,0,0
441,246,0,0,0,0,0,0,0,0,0,-1,1665,778,0,0
448,246,0,0,0,0,0,0,0,0,0,-1,1672,778,0,0
455,246,0,0,0,0,0,0,0,0,0,-1,1679,778,0,0
462,246,0,0,0,0,0,0,0,0,0,-1,1686,778,0,0
469,246,0,0,0,0,0,0,0,0,0,-1,1693,778,0,0
476,246,0,0,0,0,0,0,0,0,0,-1,1700,778,0,0
483,246,0,0,0,0,0,0,0,0,0,-1,1707,778,0,0
490,246,0,0,0,0,0,0,0,0,0,-1,1714,778,0,0
497,246,0,0,0,0,0,0,0,0,0,-1,1721,778,0,0
504,246,0,0,0,0,0,0,0,0,0,-1,1728,778,0,0
511,246,0,0,0,0,0,0,0,0,0,-1,1735,778,0,0
518,246,0,0,0,0,0,0,0,0,0,-1,1742,778,0,0
525,246,0,0,0,0,0,0,0,0,0,-1,1749,778,0,0
532,246,0,0,0,0,0,0,0,0,0,-1,1756,778,0,0
539,246,0,0,0,0,0,0,0,0,0,-1,1763,778,0,0
546,246,0,0,0,0,0,0,0,0,0,-1,1770,778,0,0
553,246,0,0,0,0,0,0,0,0,0,-1,1777,778,0,0
560,246,0,0,0,0,0,0,0,0,0,-1,1784,778,0,0
567,246,0,0,0,0,0,0,0,0,0,-1,1791,778,0,0
574,246,0,0,0,0,0,0,0,0,0,-1,1798,778,0,0
581,246,21.9528,2.89063,-0.0034624,0.0118062,-0.0067602,0.0143691,-0.0060253,-1.20842,0.0120987,0.0395067,1805,778,21.9528,-2.89061
588,246,21.9053,2.83746,0.00337901,0.00753192,-0.00674736,0.0125151,-0.00160418,-0.934671,0.0089263,0.0402872,1812,778,21.9052,-2.83748
595,246,22.1449,2.77197,0.00727129,0.00522325,-0.00626423,0.0125946,-0.000100112,-0.704379,0.00843,0.0370926,1819,778,22.1449,-2.77197
602,246,21.9548,2.8681,0,0,0,0,0,0,0,-1,1826,778,21.9549,-2.86812
609,246,22.2246,2.81604,0.00949728,0.00320671,-0.00510346,0.0123468,0.000357154,-0.509237,0.00811479,0.0496501,1833,778,22.2246,-2.81605
616,246,22.3864,2.70892,0,0,0,0,0,0,0,-1,1840,778,22.3864,-2.70891
623,246,22.2792,2.93542,0.00832667,0.00192641,-0.00389383,0.0101667,8.64258e-05,-0.441438,0.00674915,0.042272,1847,778,22.2791,-2.93544
630,246,22.3503,2.9787,0,0,0,0,0,0,0,-1,1854,778,22.3504,-2.9787
637,246,22.4106,3.0426,0,0,0,0,0,0,0,-1,1861,778,22.4107,-3.0426
644,246,15.6573,0.921875,0,0,0,0,0,0,0,-1,1868,778,15.6574,-0.921871
651,246,15.7311,1.18054,0.00337639,0.00150528,-0.00231129,0.00493429,-5.26258e-05,-0.593089,0.00330721,0.0288922,1875,778,15.7311,-1.18054
658,246,15.7969,1.43854,0.00156622,0.00127889,-0.00236813,0.00379504,-0.000949924,-0.755103,0.00289902,0.0195759,1882,778,15.7969,-1.43852
665,246,15.7769,1.6582,0.000281422,0.000796043,-0.00198503,0.00254037,-0.0014629,-0.849852,0.00233903,0.0214272,1889,778,15.7769,-1.65821
672,246,15.7813,1.91144,0.000204416,0.000300502,-0.00144089,0.00169415,-0.00118923,-0.802063,0.00167321,0.0208165,1896,778,15.7813,-1.91145
679,246,15.8003,2.14764,0.000965641,-8.39178e-05,-0.00118747,0.00173912,-0.000857397,-0.577336,0.00152764,0.0201568,1903,778,15.8003,-2.14766
686,246,15.8079,2.39539,0.001963,-0.000205302,-0.000599883,0.0021179,-0.0003602,-0.252694,0.00154605,0.0204248,1910,778,15.8079,-2.39536
693,246,15.7925,2.65619,0.0032411,5.15663e-06,1.23931e-05,0.00324115,5.10924e-06,0.00382974,0.00215907,0.0163654,1917,778,15.7925,-2.65616
700,246,15.7952,2.87891,0.00483118,-0.000158388,0.000751813,0.004942,-0.000269207,0.146349,0.00338797,0.014219,1924,778,15.7951,-2.87889
707,246,15.8,3.10272,0.00746133,0.000345756,0.00193117,0.00795167,-0.000144577,0.24865,0.00534995,0.0136961,1931,778,15.8,-3.10275
714,246,15.7565,3.34509,0.0115705,0.000272664,0.00362822,0.0126354,-0.000792153,0.285466,0.00869965,0.0127488,1938,778,15.7565,-3.34507
721,246,15.7627,3.53253,0.0165209,0.00018487,0.00569058,0.0183078,-0.00160197,0.30425,0.0127727,0.017284,1945,778,15.7627,-3.53256
728,246,15.8025,3.82013,0.0233465,-0.000171075,0.0085982,0.0261547,-0.00297931,0.315685,0.0185097,0.0323402,1952,778,15.8025,-3.8201
735,246,15.8192,3.97455,0.0329018,-0.000864247,0.0128081,0.0372104,-0.00517284,0.324504,0.0266988,0.0437838,1959,778,15.8192,-3.97457
742,246,15.5773,4.19568,0,0,0,0,0,0,0,-1,1966,778,15.5773,-4.19566
749,246,15.3524,4.94763,0,0,0,0,0,0,0,-1,1973,778,15.3525,-4.94761
756,246,13.2834,4.66998,0,0,0,0,0,0,0,-1,1980,778,13.2835,-4.66999
763,246,0,0,0,0,0,0,0,0,0,-1,1987,778,0,0
770,246,0,0,0,0,0,0,0,0,0,-1,1994,778,0,0
777,246,0,0,0,0,0,0,0,0,0,-1,2001,778,0,0
784,246,0,0,0,0,0,0,0,0,0,-1,2008,778,0,0
791,246,0,0,0,0,0,0,0,0,0,-1,2015,778,0,0
798,246,0,0,0,0,0,0,0,0,0,-1,2022,778,0,0
805,246,0,0,0,0,0,0,0,0,0,-1,2029,778,0,0
812,246,0,0,0,0,0,0,0,0,0,-1,2036,778,0,0
-700,239,0,0,0,0,0,0,0,0,0,-1,524,785,0,0
-693,239,0,0,0,0,0,0,0,0,0,-1,531,785,0,0
-686,239,0,0,0,0,0,0,0,0,0,-1,538,785,0,0
-679,239,0,0,0,0,0,0,0,0,0,-1,545,785,0,0
-672,239,0,0,0,0,0,0,0,0,0,-1,552,785,0,0
-665,239,0,0,0,0,0,0,0,0,0,-1,559,785,0,0
-658,239,0,0,0,0,0,0,0,0,0,-1,566,785,0,0
-651,239,0,0,0,0,0,0,0,0,0,-1,573,785,0,0
-644,239,0,0,0,0,0,0,0,0,0,-1,580,785,0,0
-637,239,-11.8177,3.51318,0,0,0,0,0,0,0,-1,587,785,-11.8177,-3.51318
-630,239,-11.4196,3.48779,0.129797,-0.0269052,-0.0761867,0.160732,-0.0578395,-0.385696,0.13077,0.0469714,594,785,-11.4196,-3.48781
-623,239,-10.988,3.38843,0,0,0,0,0,0,0,-1,601,785,-10.988,-3.38844
-616,239,-10.441,3.23468,0.0920235,-0.018673,-0.0455675,0.108368,-0.0350174,-0.34439,0.0863187,0.0449665,608,785,-10.441,-3.23467
-609,239,-10.7255,2.31152,0.0737796,-0.0145291,-0.0338491,0.0852613,-0.0260108,-0.327023,0.0672103,0.0478943,615,785,-10.7255,-2.31153
-602,239,-10.2767,2.04645,0.0570875,-0.0107523,-0.0243392,0.0649164,-0.0185812,-0.311204,0.0506211,0.0497638,622,785,-10.2767,-2.04647
-595,239,-9.65338,1.54187,0.043126,-0.00785135,-0.0164297,0.0479623,-0.0126877,-0.286281,0.0369377,0.0393674,629,785,-9.65341,-1.54188
-588,239,-9.46112,1.24103,0.0314138,-0.00488828,-0.0104587,0.0342114,-0.00768586,-0.26137,0.0257547,0.0177936,636,785,-9.46112,-1.24105
-581,239,-9.49554,1.0293,0.0214719,-0.00222715,-0.00617935,0.0229864,-0.00374159,-0.240343,0.0167116,0.0100777,643,785,-9.49556,-1.02927
-574,239,-9.49878,0.8125,0.0118052,-0.00241393,-0.00253695,0.0122443,-0.00285301,-0.171375,0.00926154,0.0110251,650,785,-9.49879,-0.812471
-567,239,-9.50739,0.599121,0.00562687,-0.000785907,-0.000370126,0.00564816,-0.000807199,-0.0574626,0.00406133,0.0130615,657,785,-9.50741,-0.599106
-560,239,-9.50287,0.394165,0.00165083,-0.000490019,0.000664811,0.00184048,-0.000679667,0.277885,0.00150558,0.0129363,664,785,-9.50287,-0.394179
-553,239,-9.50177,0.189087,-0.000598894,-0.00101128,0.000431463,-0.000326887,-0.00128329,0.562494,0.00077005,0.0135494,671,785,-9.50175,-0.189062
-546,239,-9.53394,-0.0236816,-0.00198419,-0.00236803,0.00132162,-0.00084063,-0.00351159,0.713294,0.00211723,0.0147727,678,785,-9.53396,0.0236675
-539,239,-9.51331,-0.265137,-0.00319677,-0.00337951,0.0021202,-0.00116597,-0.00541031,0.763864,0.00328787,0.0160911,685,785,-9.5133,0.265118
-532,239,-9.49109,-0.495789,-0.00413529,-0.00432726,0.00278044,-0.00144918,-0.00701338,0.768144,0.0042752,0.0132731,692,785,-9.49108,0.495795
-525,239,-9.51056,-0.697571,-0.00472463,-0.00519551,0.00325824,-0.00169334,-0.0082268,0.749332,0.00501628,0.0152378,699,785,-9.51059,0.697577
-518,239,-9.58759,-0.888977,-0.00528039,-0.00587478,0.0037951,-0.00177087,-0.00938431,0.746323,0.00575742,0.0368089,706,785,-9.58758,0.888957
-511,239,-9.78644,-1.11993,-0.00577659,-0.00636792,0.00461484,-0.00144796,-0.0106966,0.753408,0.00670074,0.0428396,713,785,-9.78645,1.11991
-504,239,-9.43237,-1.66315,-0.00622622,-0.00697228,0.00590956,-0.000677923,-0.0125206,0.753878,0.0081305,0.0447666,720,785,-9.43239,1.66317
-497,239,-8.76514,-1.35815,0,0,0,0,0,0,0,-1,727,785,-8.76514,1.35818
-490,239,-14.6421,0.255554,0,0,0,0,0,0,0,-1,734,785,-14.6421,-0.255543
-483,239,-14.3261,1.2309,0,0,0,0,0,0,0,-1,741,785,-14.3261,-1.23091
-476,239,-14.6069,1.06458,-0.00372975,-0.00655391,0.0119253,0.0068668,-0.0171505,0.726467,0.0142838,0.0417715,748,785,-14.607,-1.06455
-469,239,-14.5589,0.978271,-0.000653477,-0.00556822,0.0131106,0.0102281,-0.0164497,0.692756,0.0155414,0.0422275,755,785,-14.5589,-0.978293
-462,239,-14.6072,0.839478,0.00417152,-0.00412326,0.0133451,0.0139988,-0.0139506,0.63474,0.0161366,0.0436052,762,785,-14.6071,-0.839484
-455,239,0,0,0,0,0,0,0,0,0,-1,769,785,0,0
-448,239,0,0,0,0,0,0,0,0,0,-1,776,785,0,0
-441,239,0,0,0,0,0,0,0,0,0,-1,783,785,0,0
-434,239,0,0,0,0,0,0,0,0,0,-1,790,785,0,0
-427,239,0,0,0,0,0,0,0,0,0,-1,797,785,0,0
-420,239,0,0,0,0,0,0,0,0,0,-1,804,785,0,0
-413,239,0,0,0,0,0,0,0,0,0,-1,811,785,0,0
-406,239,0,0,0,0,0,0,0,0,0,-1,818,785,0,0
-399,239,0,0,0,0,0,0,0,0,0,-1,825,785,0,0
-392,239,0,0,0,0,0,0,0,0,0,-1,832,785,0,0
-385,239,0,0,0,0,0,0,0,0,0,-1,839,785,0,0
-378,239,0,0,0,0,0,0,0,0,0,-1,846,785,0,0
-371,239,0,0,0,0,0,0,0,0,0,-1,853,785,0,0
-364,239,0,0,0,0,0,0,0,0,0,-1,860,785,0,0
-357,239,0,0,0,0,0,0,0,0,0,-1,867,785,0,0
-350,239,0,0,0,0,0,0,0,0,0,-1,874,785,0,0
-343,239,0,0,0,0,0,0,0,0,0,-1,881,785,0,0
-336,239,0,0,0,0,0,0,0,0,0,-1,888,785,0,0
-329,239,0,0,0,0,0,0,0,0,0,-1,895,785,0,0
-322,239,0,0,0,0,0,0,0,0,0,-1,902,785,0,0
-315,239,0,0,0,0,0,0,0,0,0,-1,909,785,0,0
-308,239,0,0,0,0,0,0,0,0,0,-1,916,785,0,0
-301,239,0,0,0,0,0,0,0,0,0,-1,923,785,0,0
-294,239,0,0,0,0,0,0,0,0,0,-1,930,785,0,0
-287,239,0,0,0,0,0,0,0,0,0,-1,937,785,0,0
-280,239,0,0,0,0,0,0,0,0,0,-1,944,785,0,0
-273,239,0,0,0,0,0,0,0,0,0,-1,951,785,0,0
-266,239,0,0,0,0,0,0,0,0,0,-1,958,785,0,0
-259,239,0,0,0,0,0,0,0,0,0,-1,965,785,0,0
-252,239,0,0,0,0,0,0,0,0,0,-1,972,785,0,0
-245,239,0,0,0,0,0,0,0,0,0,-1,979,785,0,0
-238,239,0,0,0,0,0,0,0,0,0,-1,986,785,0,0
-231,239,0,0,0,0,0,0,0,0,0,-1,993,785,0,0
-224,239,0,0,0,0,0,0,0,0,0,-1,1000,785,0,0
-217,239,0,0,0,0,0,0,0,0,0,-1,1007,785,0,0
-210,239,0,0,0,0,0,0,0,0,0,-1,1014,785,0,0
-203,239,0,0,0,0,0,0,0,0,0,-1,1021,785,0,0
-196,239,0,0,0,0,0,0,0,0,0,-1,1028,785,0,0
-189,239,0,0,0,0,0,0,0,0,0,-1,1035,785,0,0
-182,239,0,0,0,0,0,0,0,0,0,-1,1042,785,0,0
-175,239,0,0,0,0,0,0,0,0,0,-1,1049,785,0,0
-168,239,0,0,0,0,0,0,0,0,0,-1,1056,785,0,0
-161,239,0,0,0,0,0,0,0,0,0,-1,1063,785,0,0
-154,239,0,0,0,0,0,0,0,0,0,-1,1070,785,0,0
-147,239,0,0,0,0,0,0,0,0,0,-1,1077,785,0,0
-140,239,0,0,0,0,0,0,0,0,0,-1,1084,785,0,0
-133,239,0,0,0,0,0,0,0,0,0,-1,1091,785,0,0
-126,239,0,0,0,0,0,0,0,0,0,-1,1098,785,0,0
-119,239,0,0,0,0,0,0,0,0,0,-1,1105,785,0,0
-112,239,0,0,0,0,0,0,0,0,0,-1,1112,785,0,0
-105,239,0,0,0,0,0,0,0,0,0,-1,1119,785,0,0
-98,239,0,0,0,0,0,0,0,0,0,-1,1126,785,0,0
-91,239,0,0,0,0,0,0,0,0,0,-1,1133,785,0,0
-84,239,0,0,0,0,0,0,0,0,0,-1,1140,785,0,0
-77,239,0,0,0,0,0,0,0,0,0,-1,1147,785,0,0
-70,239,0,0,0,0,0,0,0,0,0,-1,1154,785,0,0
-63,239,0,0,0,0,0,0,0,0,0,-1,1161,785,0,0
-56,239,0,0,0,0,0,0,0,0,0,-1,1168,785,0,0
-49,239,0,0,0,0,0,0,0,0,0,-1,1175,785,0,0
-42,239,0,0,0,0,0,0,0,0,0,-1,1182,785,0,0
-35,239,0,0,0,0,0,0,0,0,0,-1,1189,785,0,0
-28,239,0,0,0,0,0,0,0,0,0,-1,1196,785,0,0
-21,239,0,0,0,0,0,0,0,0,0,-1,1203,785,0,0
-14,239,0,0,0,0,0,0,0,0,0,-1,1210,785,0,0
-7,239,0,0,0,0,0,0,0,0,0,-1,1217,785,0,0
0,239,0,0,0,0,0,0,0,0,0,-1,1224,785,0,0
7,239,0,0,0,0,0,0,0,0,0,-1,1231,785,0,0
14,239,0,0,0,0,0,0,0,0,0,-1,1238,785,0,0
21,239,0,0,0,0,0,0,0,0,0,-1,1245,785,0,0
28,239,0,0,0,0,0,0,0,0,0,-1,1252,785,0,0
35,239,0,0,0,0,0,0,0,0,0,-1,1259,785,0,0
42,239,0,0,0,0,0,0,0,0,0,-1,1266,785,0,0
49,239,0,0,0,0,0,0,0,0,0,-1,1273,785,0,0
56,239,0,0,0,0,0,0,0,0,0,-1,1280,785,0,0
63,239,0,0,0,0,0,0,0,0,0,-1,1287,785,0,0
70,239,0,0,0,0,0,0,0,0,0,-1,1294,785,0,0
77,239,0,0,0,0,0,0,0,0,0,-1,1301,785,0,0
84,239,0,0,0,0,0,0,0,0,0,-1,1308,785,0,0
91,239,0,0,0,0,0,0,0,0,0,-1,1315,785,0,0
98,239,0,0,0,0,0,0,0,0,0,-1,1322,785,0,0
105,239,0,0,0,0,0,0,0,0,0,-1,1329,785,0,0
112,239,0,0,0,0,0,0,0,0,0,-1,1336,785,0,0
119,239,0,0,0,0,0,0,0,0,0,-1,1343,785,0,0
126,239,0,0,0,0,0,0,0,0,0,-1,1350,785,0,0
133,239,0,0,0,0,0,0,0,0,0,-1,1357,785,0,0
140,239,0,0,0,0,0,0,0,0,0,-1,1364,785,0,0
147,239,0,0,0,0,0,0,0,0,0,-1,1371,785,0,0
154,239,0,0,0,0,0,0,0,0,0,-1,1378,785,0,0
161,239,0,0,0,0,0,0,0,0,0,-1,1385,785,0,0
168,239,0,0,0,0,0,0,0,0,0,-1,1392,785,0,0
175,239,0,0,0,0,0,0,0,0,0,-1,1399,785,0,0
182,239,0,0,0,0,0,0,0,0,0,-1,1406,785,0,0
189,239,0,0,0,0,0,0,0,0,0,-1,1413,785,0,0
196,239,0,0,0,0,0,0,0,0,0,-1,1420,785,0,0
203,239,0,0,0,0,0,0,0,0,0,-1,1427,785,0,0
210,239,0,0,0,0,0,0,0,0,0,-1,1434,785,0,0
217,239,0,0,0,0,0,0,0,0,0,-1,1441,785,0,0
224,239,0,0,0,0,0,0,0,0,0,-1,1448,785,0,0
231,239,0,0,0,0,0,0,0,0,0,-1,1455,785,0,0
238,239,0,0,0,0,0,0,0,0,0,-1,1462,785,0,0
245,239,0,0,0,0,0,0,0,0,0,-1,1469,785,0,0
252,239,0,0,0,0,0,0,0,0,0,-1,1476,785,0,0
259,239,0,0,0,0,0,0,0,0,0,-1,1483,785,0,0
266,239,0,0,0,0,0,0,0,0,0,-1,1490,785,0,0
273,239,0,0,0,0,0,0,0,0,0,-1,1497,785,0,0
280,239,0,0,0,0,0,0,0,0,0,-1,1504,785,0,0
287,239,0,0,0,0,0,0,0,0,0,-1,1511,785,0,0
294,239,0,0,0,0,0,0,0,0,0,-1,1518,785,0,0
301,239,0,0,0,0,0,0,0,0,0,-1,1525,785,0,0
308,239,0,0,0,0,0,0,0,0,0,-1,1532,785,0,0
315,239,0,0,0,0,0,0,0,0,0,-1,1539,785,0,0
322,239,0,0,0,0,0,0,0,0,0,-1,1546,785,0,0
329,239,0,0,0,0,0,0,0,0,0,-1,1553,785,0,0
336,239,0,0,0,0,0,0,0,0,0,-1,1560,785,0,0
343,239,0,0,0,0,0,0,0,0,0,-1,1567,785,0,0
350,239,0,0,0,0,0,0,0,0,0,-1,1574,785,0,0
357,239,0,0,0,0,0,0,0,0,0,-1,1581,785,0,0
364,239,0,0,0,0,0,0,0,0,0,-1,1588,785,0,0
371,239,0,0,0,0,0,0,0,0,0,-1,1595,785,0,0
378,239,0,0,0,0,0,0,0,0,0,-1,1602,785,0,0
385,239,0,0,0,0,0,0,0,0,0,-1,1609,785,0,0
392,239,0,0,0,0,0,0,0,0,0,-1,1616,785,0,0
399,239,0,0,0,0,0,0,0,0,0,-1,1623,785,0,0
406,239,0,0,0,0,0,0,0,0,0,-1,1630,785,0,0
413,239,0,0,0,0,0,0,0,0,0,-1,1637,785,0,0
420,239,0,0,0,0,0,0,0,0,0,-1,1644,785,0,0
427,239,0,0,0,0,0,0,0,0,0,-1,1651,785,0,0
434,239,0,0,0,0,0,0,0,0,0,-1,1658,785,0,0
441,239,0,0,0,0,0,0,0,0,0,-1,1665,785,0,0
448,239,0,0,0,0,0,0,0,0,0,-1,1672,785,0,0
455,239,0,0,0,0,0,0,0,0,0,-1,1679,785,0,0
462,239,0,0,0,0,0,0,0,0,0,-1,1686,785,0,0
469,239,0,0,0,0,0,0,0,0,0,-1,1693,785,0,0
476,239,0,0,0,0,0,0,0,0,0,-1,1700,785,0,0
483,239,0,0,0,0,0,0,0,0,0,-1,1707,785,0,0
490,239,0,0,0,0,0,0,0,0,0,-1,1714,785,0,0
497,239,0,0,0,0,0,0,0,0,0,-1,1721,785,0,0
504,239,0,0,0,0,0,0,0,0,0,-1,1728,785,0,0
511,239,0,0,0,0,0,0,0,0,0,-1,1735,785,0,0
518,239,0,0,0,0,0,0,0,0,0,-1,1742,785,0,0
525,239,0,0,0,0,0,0,0,0,0,-1,1749,785,0,0
532,239,0,0,0,0,0,0,0,0,0,-1,1756,785,0,0
539,239,0,0,0,0,0,0,0,0,0,-1,1763,785,0,0
546,239,0,0,0,0,0,0,0,0,0,-1,1770,785,0,0
553,239,0,0,0,0,0,0,0,0,0,-1,1777,785,0,0
560,239,0,0,0,0,0,0,0,0,0,-1,1784,785,0,0
567,239,0,0,0,0,0,0,0,0,0,-1,1791,785,0,0
574,239,0,0,0,0,0,0,0,0,0,-1,1798,785,0,0
581,239,21.854,2.97314,-0.00397697,0.00835005,-0.00510367,0.0101888,-0.00581573,-1.22499,0.00935449,0.0391791,1805,785,21.854,-2.97313
588,239,21.8646,2.95044,0.00305365,0.0051195,-0.00525862,0.00944568,-0.00127253,-0.882376,0.00676133,0.0369934,1812,785,21.8646,-2.95044
595,239,21.9,2.81049,0.00685911,0.00371865,-0.00498771,0.0105179,5.98421e-05,-0.6329,0.00699208,0.0323287,1819,785,21.9,-2.81051
602,239,22.0735,2.79572,0.00854385,0.00341516,-0.00451555,0.0111724,0.000786625,-0.52716,0.00720038,0.037623,1826,785,22.0734,-2.79572
609,239,22.2474,2.79266,0.00881159,0.00312446,-0.00417782,0.0110217,0.000914306,-0.486593,0.00706282,0.0479375,1833,785,22.2474,-2.79267
616,239,22.2677,2.81329,0,0,0,0,0,0,0,-1,1840,785,22.2677,-2.81329
623,239,21.5754,3.62811,0,0,0,0,0,0,0,-1,1847,785,21.5754,-3.6281
630,239,21.754,3.91833,0,0,0,0,0,0,0,-1,1854,785,21.754,-3.91836
637,239,21.4707,3.57098,0,0,0,0,0,0,0,-1,1861,785,21.4708,-3.57099
644,239,15.7351,1.06226,0,0,0,0,0,0,0,-1,1868,785,15.7351,-1.06227
651,239,15.8716,1.2724,0.00246577,0.00212974,-0.0023404,0.00464417,-4.86684e-05,-0.749565,0.00311247,0.041727,1875,785,15.8715,-1.27238
658,239,16.0171,1.47937,0.00096747,0.00184787,-0.00246177,0.00390849,-0.00109314,-0.873871,0.00303635,0.0180448,1882,785,16.0171,-1.47935
665,239,16.0609,1.7016,-0.000101941,0.00132692,-0.00221852,0.00294321,-0.00171822,-0.941171,0.00272208,0.0137009,1889,785,16.0609,-1.70162
672,239,16.0632,1.9339,-0.000121924,0.000736004,-0.00179931,0.00215678,-0.0015427,-0.902416,0.00214568,0.0198368,1896,785,16.0633,-1.93391
679,239,16.0419,2.19012,0.000556488,0.000163534,-0.00157052,0.00194277,-0.00122275,-0.72317,0.00184331,0.021674,1903,785,16.0419,-2.19012
686,239,16.021,2.44226,0.00145385,-0.000154738,-0.00104719,0.00196997,-0.000670862,-0.457922,0.00158499,0.0232408,1910,785,16.0209,-2.44229
693,239,16.0188,2.65668,0.0026225,-8.12938e-05,-0.000522631,0.00272001,-0.0001788,-0.184447,0.00187578,0.0150279,1917,785,16.0188,-2.65669
700,239,16.0306,2.88556,0.00403137,-0.000361291,0.00011177,0.00403421,-0.000364133,0.0254229,0.0028187,0.0110905,1924,785,16.0307,-2.88554
707,239,16.0273,3.09271,0.00657405,0.000131008,0.00127416,0.00681688,-0.000111817,0.188318,0.00458231,0.0104926,1931,785,16.0273,-3.09272
714,239,16.0034,3.30206,0.0107549,0.000173575,0.00299409,0.0115434,-0.00061488,0.257491,0.00790852,0.00961569,1938,785,16.0034,-3.30203
721,239,15.9924,3.5199,0.0158052,0.000281,0.00504941,0.0173031,-0.00121685,0.28837,0.0119617,0.0184782,1945,785,15.9925,-3.51987
728,239,16.069,3.84155,0.0227044,0.000469961,0.00783685,0.025189,-0.00201461,0.307013,0.0175029,0.0309342,1952,785,16.069,-3.84156
735,239,16.4025,4.03748,0.0322401,0.000417631,0.0118664,0.0361777,-0.00352002,0.3204,0.0253733,0.0425969,1959,785,16.4025,-4.03747
742,239,16.3934,4.06439,0,0,0,0,0,0,0,-1,1966,785,16.3934,-4.06438
749,239,16.3494,4.10089,0,0,0,0,0,0,0,-1,1973,785,16.3494,-4.10087
756,239,20.0591,4.65704,0,0,0,0,0,0,0,-1,1980,785,20.0591,-4.65705
763,239,0,0,0,0,0,0,0,0,0,-1,1987,785,0,0
770,239,0,0,0,0,0,0,0,0,0,-1,1994,785,0,0
777,239,0,0,0,0,0,0,0,0,0,-1,2001,785,0,0
784,239,0,0,0,0,0,0,0,0,0,-1,2008,785,0,0
791,239,0,0,0,0,0,0,0,0,0,-1,2015,785,0,0
798,239,0,0,0,0,0,0,0,0,0,-1,2022,785,0,0
805,239,0,0,0,0,0,0,0,0,0,-1,2029,785,0,0
812,239,0,0,0,0,0,0,0,0,0,-1,2036,785,0,0
-700,232,0,0,0,0,0,0,0,0,0,-1,524,792,0,0
-693,232,0,0,0,0,0,0,0,0,0,-1,531,792,0,0
-686,232,0,0,0,0,0,0,0,0,0,-1,538,792,0,0
-679,232,0,0,0,0,0,0,0,0,0,-1,545,792,0,0
-672,232,0,0,0,0,0,0,0,0,0,-1,552,792,0,0
-665,232,0,0,0,0,0,0,0,0,0,-1,559,792,0,0
-658,232,0,0,0,0,0,0,0,0,0,-1,566,792,0,0
-651,232,0,0,0,0,0,0,0,0,0,-1,573,792,0,0
-644,232,-14.5914,-0.213806,0,0,0,0,0,0,0,-1,580,792,-14.5914,0.213817
-637,232,-14.6583,0.131531,0,0,0,0,0,0,0,-1,587,792,-14.6583,-0.131521
-630,232,-15.0256,0.466797,0,0,0,0,0,0,0,-1,594,792,-15.0256,-0.466798
-623,232,-10.9128,2.96765,0,0,0,0,0,0,0,-1,601,792,-10.9128,-2.96763
-616,232,-10.5545,2.78198,0.064073,-0.0105526,-0.0424006,0.0832408,-0.0297203,-0.424569,0.0676142,0.0462386,608,792,-10.5545,-2.78201
-609,232,-10.2473,2.50293,0.0518718,-0.00823719,-0.0316303,0.0654493,-0.0218147,-0.405469,0.0524394,0.0485456,615,792,-10.2473,-2.50291
-602,232,-10.0378,2.12195,0.0405637,-0.00607698,-0.0228361,0.0498827,-0.015396,-0.387454,0.0394029,0.0480135,622,792,-10.0378,-2.12196
-595,232,-9.70343,1.61682,0.031066,-0.00447649,-0.0153924,0.0368053,-0.0102157,-0.356895,0.0285578,0.0331825,629,792,-9.70342,-1.6168
-588,232,-9.69519,1.26721,0.022941,-0.00280666,-0.00983932,0.0262705,-0.00613615,-0.326292,0.0198773,0.0125398,636,792,-9.69516,-1.26721
-581,232,-9.70105,1.03613,0.0157922,-0.0011119,-0.00582216,0.0176034,-0.00292311,-0.3016,0.0128215,0.00822941,643,792,-9.70105,-1.03615
-574,232,-9.70709,0.826965,0.00874705,-0.0016568,-0.00244111,0.00929135,-0.00220109,-0.219382,0.00704352,0.00754086,650,792,-9.70712,-0.826971
-567,232,-9.74243,0.607056,0.00423102,-0.000593878,-0.000373463,0.00425975,-0.000622614,-0.0767938,0.0030685,0.00942152,657,792,-9.7424,-0.607039
-560,232,-9.73877,0.401123,0.00109302,-0.000703387,0.000677853,0.0013201,-0.000930463,0.323244,0.00130583,0.0116587,664,792,-9.73878,-0.401131
-553,232,-9.72815,0.189697,-0.000790635,-0.00106519,0.00052391,-0.000386318,-0.00146951,0.657264,0.000879648,0.0125283,671,792,-9.72813,-0.189671
-546,232,-9.76154,-0.0405273,-0.00203265,-0.0023623,0.00135467,-0.000832811,-0.00356213,0.72486,0.00215157,0.0211768,678,792,-9.76151,0.040499
-539,232,-9.75024,-0.279358,-0.00306397,-0.00326117,0.00206874,-0.00109149,-0.00523365,0.761586,0.00318817,0.0255267,685,792,-9.75026,0.27937
-532,232,-9.72894,-0.488403,-0.0037277,-0.00403486,0.0026469,-0.00122993,-0.00653264,0.756419,0.00400851,0.016121,692,792,-9.72896,0.488409
-525,232,-9.7901,-0.645203,-0.00401546,-0.00478142,0.00302757,-0.00134675,-0.00745014,0.722483,0.00458426,0.0260936,699,792,-9.7901,0.645189
-518,232,-9.91907,-0.854187,-0.00425756,-0.00534945,0.00334869,-0.0014106,-0.0081964,0.704593,0.00506004,0.0499406,706,792,-9.91906,0.854163
-511,232,-10.285,-0.68219,-0.00441175,-0.00572383,0.00383796,-0.00117416,-0.00896142,0.700749,0.0056239,0.0462194,713,792,-10.285,0.682196
-504,232,-9.84106,-0.90564,0,0,0,0,0,0,0,-1,720,792,-9.84107,0.905636
-497,232,-14.4127,0.101563,-0.00407137,-0.0062976,0.00517436,0.00010825,-0.0104772,0.679452,0.00702117,0.0463251,727,792,-14.4127,-0.101591
-490,232,-14.6432,0.824707,-0.00322076,-0.00614199,0.00573104,0.00123286,-0.0105956,0.660624,0.00750851,0.045841,734,792,-14.6432,-0.824704
-483,232,-14.5638,1.14484,-0.00159456,-0.00555907,0.00612249,0.00285857,-0.0100122,0.62884,0.00780416,0.0419719,741,792,-14.5639,-1.14485
-476,232,-14.5179,1.01636,0.00113888,-0.0044258,0.00617924,0.0051333,-0.00842022,0.573858,0.00790146,0.0351872,748,792,-14.5179,-1.01636
-469,232,-14.4445,0.983887,0.0053639,-0.00282441,0.00561854,0.00822173,-0.00568225,0.470538,0.00807197,0.0332134,755,792,-14.4445,-0.983887
-462,232,0,0,0,0,0,0,0,0,0,-1,762,792,0,0
-455,232,0,0,0,0,0,0,0,0,0,-1,769,792,0,0
-448,232,0,0,0,0,0,0,0,0,0,-1,776,792,0,0
-441,232,0,0,0,0,0,0,0,0,0,-1,783,792,0,0
-434,232,0,0,0,0,0,0,0,0,0,-1,790,792,0,0
-427,232,0,0,0,0,0,0,0,0,0,-1,797,792,0,0
-420,232,0,0,0,0,0,0,0,0,0,-1,804,792,0,0
-413,232,0,0,0,0,0,0,0,0,0,-1,811,792,0,0
-406,232,0,0,0,0,0,0,0,0,0,-1,818,792,0,0
-399,232,0,0,0,0,0,0,0,0,0,-1,825,792,0,0
-392,232,0,0,0,0,0,0,0,0,0,-1,832,792,0,0
-385,232,0,0,0,0,0,0,0,0,0,-1,839,792,0,0
-378,232,0,0,0,0,0,0,0,0,0,-1,846,792,0,0
-371,232,0,0,0,0,0,0,0,0,0,-1,853,792,0,0
-364,232,0,0,0,0,0,0,0,0,0,-1,860,792,0,0
-357,232,0,0,0,0,0,0,0,0,0,-1,867,792,0,0
-350,232,0,0,0,0,0,0,0,0,0,-1,874,792,0,0
-343,232,0,0,0,0,0,0,0,0,0,-1,881,792,0,0
-336,232,0,0,0,0,0,0,0,0,0,-1,888,792,0,0
-329,232,0,0,0,0,0,0,0,0,0,-1,895,792,0,0
-322,232,0,0,0,0,0,0,0,0,0,-1,902,792,0,0
-315,232,0,0,0,0,0,0,0,0,0,-1,909,792,0,0
-308,232,0,0,0,0,0,0,0,0,0,-1,916,792,0,0
-301,232,0,0,0,0,0,0,0,0,0,-1,923,792,0,0
-294,232,0,0,0,0,0,0,0,0,0,-1,930,792,0,0
-287,232,0,0,0,0,0,0,0,0,0,-1,937,792,0,0
-280,232,0,0,0,0,0,0,0,0,0,-1,944,792,0,0
-273,232,0,0,0,0,0,0,0,0,0,-1,951,792,0,0
-266,232,0,0,0,0,0,0,0,0,0,-1,958,792,0,0
-259,232,0,0,0,0,0,0,0,0,0,-1,965,792,0,0
-252,232,0,0,0,0,0,0,0,0,0,-1,972,792,0,0
-245,232,0,0,0,0,0,0,0,0,0,-1,979,792,0,0
-238,232,0,0,0,0,0,0,0,0,0,-1,986,792,0,0
-231,232,0,0,0,0,0,0,0,0,0,-1,993,792,0,0
-224,232,0,0,0,0,0,0,0,0,0,-1,1000,792,0,0
-217,232,0,0,0,0,0,0,0,0,0,-1,1007,792,0,0
-210,232,0,0,0,0,0,0,0,0,0,-1,1014,792,0,0
-203,232,0,0,0,0,0,0,0,0,0,-1,1021,792,0,0
-196,232,0,0,0,0,0,0,0,0,0,-1,1028,792,0,0
-189,232,0,0,0,0,0,0,0,0,0,-1,1035,792,0,0
-182,232,0,0,0,0,0,0,0,0,0,-1,1042,792,0,0
-175,232,0,0,0,0,0,0,0,0,0,-1,1049,792,0,0
-168,232,0,0,0,0,0,0,0,0,0,-1,1056,792,0,0
-161,232,0,0,0,0,0,0,0,0,0,-1,1063,792,0,0
-154,232,0,0,0,0,0,0,0,0,0,-1,1070,792,0,0
-147,232,0,0,0,0,0,0,0,0,0,-1,1077,792,0,0
-140,232,0,0,0,0,0,0,0,0,0,-1,1084,792,0,0
-133,232,0,0,0,0,0,0,0,0,0,-1,1091,792,0,0
-126,232,0,0,0,0,0,0,0,0,0,-1,1098,792,0,0
-119,232,0,0,0,0,0,0,0,0,0,-1,1105,792,0,0
-112,232,0,0,0,0,0,0,0,0,0,-1,1112,792,0,0
-105,232,0,0,0,0,0,0,0,0,0,-1,1119,792,0,0
-98,232,0,0,0,0,0,0,0,0,0,-1,1126,792,0,0
-91,232,0,0,0,0,0,0,0,0,0,-1,1133,792,0,0
-84,232,0,0,0,0,0,0,0,0,0,-1,1140,792,0,0
-77,232,0,0,0,0,0,0,0,0,0,-1,1147,792,0,0
-70,232,0,0,0,0,0,0,0,0,0,-1,1154,792,0,0
-63,232,0,0,0,0,0,0,0,0,0,-1,1161,792,0,0
-56,232,0,0,0,0,0,0,0,0,0,-1,1168,792,0,0
-49,232,0,0,0,0,0,0,0,0,0,-1,1175,792,0,0
-42,232,0,0,0,0,0,0,0,0,0,-1,1182,792,0,0
-35,232,0,0,0,0,0,0,0,0,0,-1,1189,792,0,0
-28,232,0,0,0,0,0,0,0,0,0,-1,1196,792,0,0
-21,232,0,0,0,0,0,0,0,0,0,-1,1203,792,0,0
-14,232,0,0,0,0,0,0,0,0,0,-1,1210,792,0,0
-7,232,0,0,0,0,0,0,0,0,0,-1,1217,792,0,0
0,232,0,0,0,0,0,0,0,0,0,-1,1224,792,0,0
7,232,0,0,0,0,0,0,0,0,0,-1,1231,792,0,0
14,232,0,0,0,0,0,0,0,0,0,-1,1238,792,0,0
21,232,0,0,0,0,0,0,0,0,0,-1,1245,792,0,0
28,232,0,0,0,0,0,0,0,0,0,-1,1252,792,0,0
35,232,0,0,0,0,0,0,0,0,0,-1,1259,792,0,0
42,232,0,0,0,0,0,0,0,0,0,-1,1266,792,0,0
49,232,0,0,0,0,0,0,0,0,0,-1,1273,792,0,0
56,232,0,0,0,0,0,0,0,0,0,-1,1280,792,0,0
63,232,0,0,0,0,0,0,0,0,0,-1,1287,792,0,0
70,232,0,0,0,0,0,0,0,0,0,-1,1294,792,0,0
77,232,0,0,0,0,0,0,0,0,0,-1,1301,792,0,0
84,232,0,0,0,0,0,0,0,0,0,-1,1308,792,0,0
91,232,0,0,0,0,0,0,0,0,0,-1,1315,792,0,0
98,232,0,0,0,0,0,0,0,0,0,-1,1322,792,0,0
105,232,0,0,0,0,0,0,0,0,0,-1,1329,792,0,0
112,232,0,0,0,0,0,0,0,0,0,-1,1336,792,0,0
119,232,0,0,0,0,0,0,0,0,0,-1,1343,792,0,0
126,232,0,0,0,0,0,0,0,0,0,-1,1350,792,0,0
133,232,0,0,0,0,0,0,0,0,0,-1,1357,792,0,0
140,232,0,0,0,0,0,0,0,0,0,-1,1364,792,0,0
147,232,0,0,0,0,0,0,0,0,0,-1,1371,792,0,0
154,232,0,0,0,0,0,0,0,0,0,-1,1378,792,0,0
161,232,0,0,0,0,0,0,0,0,0,-1,1385,792,0,0
168,232,0,0,0,0,0,0,0,0,0,-1,1392,792,0,0
175,232,0,0,0,0,0,0,0,0,0,-1,1399,792,0,0
182,232,0,0,0,0,0,0,0,0,0,-1,1406,792,0,0
189,232,0,0,0,0,0,0,0,0,0,-1,1413,792,0,0
196,232,0,0,0,0,0,0,0,0,0,-1,1420,792,0,0
203,232,0,0,0,0,0,0,0,0,0,-1,1427,792,0,0
210,232,0,0,0,0,0,0,0,0,0,-1,1434,792,0,0
217,232,0,0,0,0,0,0,0,0,0,-1,1441,792,0,0
224,232,0,0,0,0,0,0,0,0,0,-1,1448,792,0,0
231,232,0,0,0,0,0,0,0,0,0,-1,1455,792,0,0
238,232,0,0,0,0,0,0,0,0,0,-1,1462,792,0,0
245,232,0,0,0,0,0,0,0,0,0,-1,1469,792,0,0
252,232,0,0,0,0,0,0,0,0,0,-1,1476,792,0,0
259,232,0,0,0,0,0,0,0,0,0,-1,1483,792,0,0
266,232,0,0,0,0,0,0,0,0,0,-1,1490,792,0,0
273,232,0,0,0,0,0,0,0,0,0,-1,1497,792,0,0
280,232,0,0,0,0,0,0,0,0,0,-1,1504,792,0,0
287,232,0,0,0,0,0,0,0,0,0,-1,1511,792,0,0
294,232,0,0,0,0,0,0,0,0,0,-1,1518,792,0,0
301,232,0,0,0,0,0,0,0,0,0,-1,1525,792,0,0
308,232,0,0,0,0,0,0,0,0,0,-1,1532,792,0,0
315,232,0,0,0,0,0,0,0,0,0,-1,1539,792,0,0
322,232,0,0,0,0,0,0,0,0,0,-1,1546,792,0,0
329,232,0,0,0,0,0,0,0,0,0,-1,1553,792,0,0
336,232,0,0,0,0,0,0,0,0,0,-1,1560,792,0,0
343,232,0,0,0,0,0,0,0,0,0,-1,1567,792,0,0
350,232,0,0,0,0,0,0,0,0,0,-1,1574,792,0,0
357,232,0,0,0,0,0,0,0,0,0,-1,1581,792,0,0
364,232,0,0,0,0,0,0,0,0,0,-1,1588,792,0,0
371,232,0,0,0,0,0,0,0,0,0,-1,1595,792,0,0
378,232,0,0,0,0,0,0,0,0,0,-1,1602,792,0,0
385,232,0,0,0,0,0,0,0,0,0,-1,1609,792,0,0
392,232,0,0,0,0,0,0,0,0,0,-1,1616,792,0,0
399,232,0,0,0,0,0,0,0,0,0,-1,1623,792,0,0
406,232,0,0,0,0,0,0,0,0,0,-1,1630,792,0,0
413,232,0,0,0,0,0,0,0,0,0,-1,1637,792,0,0
420,232,0,0,0,0,0,0,0,0,0,-1,1644,792,0,0
427,232,0,0,0,0,0,0,0,0,0,-1,1651,792,0,0
434,232,0,0,0,0,0,0,0,0,0,-1,1658,792,0,0
441,232,0,0,0,0,0,0,0,0,0,-1,1665,792,0,0
448,232,0,0,0,0,0,0,0,0,0,-1,1672,792,0,0
455,232,0,0,0,0,0,0,0,0,0,-1,1679,792,0,0
462,232,0,0,0,0,0,0,0,0,0,-1,1686,792,0,0
469,232,0,0,0,0,0,0,0,0,0,-1,1693,792,0,0
476,232,0,0,0,0,0,0,0,0,0,-1,1700,792,0,0
483,232,0,0,0,0,0,0,0,0,0,-1,1707,792,0,0
490,232,0,0,0,0,0,0,0,0,0,-1,1714,792,0,0
497,232,0,0,0,0,0,0,0,0,0,-1,1721,792,0,0
504,232,0,0,0,0,0,0,0,0,0,-1,1728,792,0,0
511,232,0,0,0,0,0,0,0,0,0,-1,1735,792,0,0
518,232,0,0,0,0,0,0,0,0,0,-1,1742,792,0,0
525,232,0,0,0,0,0,0,0,0,0,-1,1749,792,0,0
532,232,0,0,0,0,0,0,0,0,0,-1,1756,792,0,0
539,232,0,0,0,0,0,0,0,0,0,-1,1763,792,0,0
546,232,0,0,0,0,0,0,0,0,0,-1,1770,792,0,0
553,232,0,0,0,0,0,0,0,0,0,-1,1777,792,0,0
560,232,0,0,0,0,0,0,0,0,0,-1,1784,792,0,0
567,232,0,0,0,0,0,0,0,0,0,-1,1791,792,0,0
574,232,0,0,0,0,0,0,0,0,0,-1,1798,792,0,0
581,232,0,0,0,0,0,0,0,0,0,-1,1805,792,0,0
588,232,21.8083,3.10779,0.0029349,0.0024882,-0.00425427,0.00697168,-0.00154858,-0.759172,0.00524081,0.0401328,1812,792,21.8083,-3.10778
595,232,21.8003,2.81683,0.00667442,0.00180374,-0.00410961,0.00901609,-0.000537924,-0.517919,0.00619782,0.0367137,1819,792,21.8003,-2.81685
602,232,21.9557,2.76984,0.00821566,0.00229428,-0.00358162,0.00990188,0.00060807,-0.440013,0.00640819,0.0350149,1826,792,21.9557,-2.76987
609,232,22.1144,2.76428,0.00831271,0.00262458,-0.00336363,0.0098735,0.00106379,-0.434451,0.00625795,0.040065,1833,792,22.1143,-2.76426
616,232,22.1226,2.81848,0.00747243,0.00287909,-0.00321618,0.00912779,0.00122374,-0.475335,0.00572108,0.0434133,1840,792,22.1226,-2.81848
623,232,21.6769,3.50891,0.00645374,0.00274395,-0.00295069,0.00808413,0.00111356,-0.504795,0.00505925,0.040538,1847,792,21.6769,-3.50891
630,232,21.9208,3.34753,0.00522368,0.00243475,-0.00273257,0.00689702,0.000761404,-0.549466,0.0043664,0.0438511,1854,792,21.9208,-3.34753
637,232,16.3468,1.35834,0,0,0,0,0,0,0,-1,1861,792,16.3469,-1.35831
644,232,16.4448,1.57477,0,0,0,0,0,0,0,-1,1868,792,16.4448,-1.57478
651,232,16.3105,1.68945,0.00167442,0.00242423,-0.00242491,0.00450305,-0.000404397,-0.862093,0.00314551,0.0434238,1875,792,16.3106,-1.68948
658,232,16.3138,1.55963,0.000527905,0.0020796,-0.00259599,0.0040132,-0.00140569,-0.930605,0.00324709,0.0243857,1882,792,16.3138,-1.55962
665,232,16.2966,1.72107,-0.000293129,0.00157293,-0.00248136,0.00329087,-0.00201108,-0.965228,0.00309066,0.0121014,1889,792,16.2966,-1.72106
672,232,16.2622,1.94507,-0.000242933,0.000968963,-0.00218685,0.00263226,-0.00190623,-0.920551,0.00263146,0.0179905,1896,792,16.2622,-1.94506
679,232,16.2611,2.19684,0.000348919,0.000300743,-0.0019705,0.00229548,-0.00164582,-0.779286,0.00228579,0.0198594,1903,792,16.2611,-2.19686
686,232,16.2521,2.44904,0.00113362,-0.000149068,-0.00150576,0.00212893,-0.00114438,-0.584071,0.00191813,0.0195436,1910,792,16.252,-2.44901
693,232,16.2622,2.646,0.00216352,-0.000206246,-0.00106797,0.00257379,-0.000616517,-0.366776,0.00195406,0.0106083,1917,792,16.2622,-2.64602
700,232,16.2761,2.8739,0.00333796,-0.000588951,-0.000532025,0.00340876,-0.000659754,-0.132305,0.00252137,0.0116572,1924,792,16.2762,-2.8739
707,232,16.2767,3.09753,0.00568053,-0.000130559,0.000606851,0.00574322,-0.000193256,0.10295,0.00389483,0.0119826,1931,792,16.2768,-3.09755
714,232,16.2728,3.30591,0.0098268,6.71352e-05,0.00231921,0.0103499,-0.000455947,0.221832,0.00705682,0.0127418,1938,792,16.2728,-3.3059
721,232,16.2518,3.49896,0.0149549,0.00043859,0.00433364,0.0161502,-0.000756733,0.269133,0.0110277,0.0169885,1945,792,16.2518,-3.49897
728,232,16.2903,3.76709,0.0218649,0.00122849,0.00688661,0.0239519,-0.000858583,0.294264,0.0162617,0.0295547,1952,792,16.2903,-3.76708
735,232,16.6819,4.17468,0.0312968,0.00185693,0.0105969,0.0347144,-0.00156069,0.311979,0.0236803,0.0446866,1959,792,16.6819,-4.17469
742,232,16.9254,4.58472,0,0,0,0,0,0,0,-1,1966,792,16.9254,-4.58469
749,232,19.3286,5.19641,0.0603203,0.00430417,0.0225288,0.0682566,-0.00363214,0.338699,0.0467621,0.0429973,1973,792,19.3286,-5.19641
756,232,19.7025,4.65796,0,0,0,0,0,0,0,-1,1980,792,19.7026,-4.65796
763,232,20.2119,4.50836,0,0,0,0,0,0,0,-1,1987,792,20.212,-4.50837
770,232,0,0,0,0,0,0,0,0,0,-1,1994,792,0,0
777,232,0,0,0,0,0,0,0,0,0,-1,2001,792,0,0
784,232,0,0,0,0,0,0,0,0,0,-1,2008,792,0,0
791,232,0,0,0,0,0,0,0,0,0,-1,2015,792,0,0
798,232,0,0,0,0,0,0,0,0,0,-1,2022,792,0,0
805,232,0,0,0,0,0,0,0,0,0,-1,2029,792,0,0
812,232,0,0,0,0,0,0,0,0,0,-1,2036,792,0,0
-700,225,0,0,0,0,0,0,0,0,0,-1,524,799,0,0
-693,225,0,0,0,0,0,0,0,0,0,-1,531,799,0,0
-686,225,0,0,0,0,0,0,0,0,0,-1,538,799,0,0
-679,225,0,0,0,0,0,0,0,0,0,-1,545,799,0,0
-672,225,0,0,0,0,0,0,0,0,0,-1,552,799,0,0
-665,225,0,0,0,0,0,0,0,0,0,-1,559,799,0,0
-658,225,0,0,0,0,0,0,0,0,0,-1,566,799,0,0
-651,225,0,0,0,0,0,0,0,0,0,-1,573,799,0,0
-644,225,-13.3649,0.478577,0.0661931,0.00133476,-0.0950785,0.134221,-0.0666928,-0.621046,0.118161,0.0478125,580,799,-13.3649,-0.47857
-637,225,-13.281,0.672241,0.0624925,0.000488828,-0.0774054,0.114874,-0.0518922,-0.594924,0.0985445,0.0433297,587,799,-13.281,-0.672241
-630,225,-13.448,0.989807,0.0565238,-0.000178408,-0.061947,0.0962991,-0.0399537,-0.570792,0.0808767,0.0450217,594,799,-13.448,-0.98979
-623,225,-13.5664,1.40509,0,0,0,0,0,0,0,-1,601,799,-13.5664,-1.40506
-616,225,-10.6129,2.21405,0,0,0,0,0,0,0,-1,608,799,-10.6129,-2.21403
-609,225,-9.94482,1.99902,0,0,0,0,0,0,0,-1,615,799,-9.9448,-1.99901
-602,225,-9.95898,1.74518,0.0271071,-0.000728933,-0.0199314,0.037499,-0.0111209,-0.480608,0.0294156,0.0452899,622,799,-9.95898,-1.74518
-595,225,-9.95264,1.48523,0.021089,-0.000706728,-0.0132403,0.0273396,-0.00695729,-0.441069,0.0209344,0.0283476,629,799,-9.95261,-1.4852
-588,225,-9.9353,1.25208,0.0157574,-0.000693602,-0.00841479,0.0192991,-0.00423533,-0.398386,0.0144857,0.0127789,636,799,-9.93527,-1.25207
-581,225,-9.92151,1.04718,0.0109173,-0.000219333,-0.0049438,0.0127953,-0.00209731,-0.363029,0.0093084,0.0101629,643,799,-9.92151,-1.04719
-574,225,-9.92316,0.834412,0.00609569,-0.00119013,-0.0020111,0.00661395,-0.00170839,-0.252212,0.00507552,0.00737904,650,799,-9.92315,-0.834423
-567,225,-9.94989,0.605896,0.00296292,-0.000675744,-0.00021671,0.00297578,-0.000688605,-0.0592783,0.00224881,0.00948972,657,799,-9.9499,-0.605917
-560,225,-9.93994,0.392456,0.000539805,-0.001043,0.000734008,0.000827795,-0.00133099,0.373896,0.00125761,0.0101053,664,799,-9.93991,-0.39245
-553,225,-9.92212,0.179138,-0.000990021,-0.00122404,0.000622435,-0.000473692,-0.00174037,0.69249,0.00103899,0.0102785,671,799,-9.92212,-0.179122
-546,225,-9.95819,-0.0541992,-0.00205752,-0.00231018,0.0013486,-0.000829342,-0.00353836,0.738696,0.0021368,0.0197286,678,799,-9.95821,0.0541995
-539,225,-9.96179,-0.277954,-0.00288343,-0.00299427,0.00195787,-0.000980201,-0.0048975,0.771249,0.00299227,0.0234151,685,799,-9.96179,0.277948
-532,225,-9.97705,-0.466614,-0.00330337,-0.00353934,0.00245337,-0.00096515,-0.00587757,0.761371,0.00363957,0.017174,692,799,-9.97705,0.466602
-525,225,-10.0978,-0.456787,-0.00335249,-0.00409345,0.00275559,-0.000942587,-0.00650335,0.718576,0.00405803,0.0384219,699,799,-10.0978,0.456783
-518,225,-10.1888,-0.393494,-0.00336506,-0.00449711,0.00293281,-0.000944157,-0.00691802,0.690072,0.00433173,0.0430551,706,799,-10.1889,0.393521
-511,225,-10.1796,-0.279419,-0.00325706,-0.00472307,0.00318281,-0.000723938,-0.00725619,0.672221,0.00461512,0.0472106,713,799,-10.1796,0.279438
-504,225,-9.96454,-0.434204,0,0,0,0,0,0,0,-1,720,799,-9.96454,0.434214
-497,225,-14.4979,0.596558,-0.00211519,-0.00494147,0.00353983,0.000283151,-0.00733981,0.595485,0.00499027,0.042945,727,799,-14.4979,-0.59653
-490,225,-14.5742,0.953613,-0.000697938,-0.00457869,0.00327182,0.00116561,-0.00644224,0.517749,0.00473146,0.0400079,734,799,-14.5742,-0.953624
-483,225,-14.5759,0.98999,0.00162373,-0.00367591,0.00249705,0.0026149,-0.00466708,0.377862,0.00425954,0.0334358,741,799,-14.5759,-0.989967
-476,225,-14.4565,1.04437,0.00512173,-0.00206854,0.00111802,0.00529156,-0.00223837,0.15075,0.00446494,0.0313169,748,799,-14.4565,-1.0444
-469,225,-14.3268,1.03998,0.0101362,0.000110696,-0.000995028,0.010234,1.28942e-05,-0.097976,0.00681838,0.0354832,755,799,-14.3269,-1.03998
-462,225,0,0,0,0,0,0,0,0,0,-1,762,799,0,0
-455,225,0,0,0,0,0,0,0,0,0,-1,769,799,0,0
-448,225,0,0,0,0,0,0,0,0,0,-1,776,799,0,0
-441,225,0,0,0,0,0,0,0,0,0,-1,783,799,0,0
-434,225,0,0,0,0,0,0,0,0,0,-1,790,799,0,0
-427,225,0,0,0,0,0,0,0,0,0,-1,797,799,0,0
-420,225,0,0,0,0,0,0,0,0,0,-1,804,799,0,0
-413,225,0,0,0,0,0,0,0,0,0,-1,811,799,0,0
-406,225,0,0,0,0,0,0,0,0,0,-1,818,799,0,0
-399,225,0,0,0,0,0,0,0,0,0,-1,825,799,0,0
-392,225,0,0,0,0,0,0,0,0,0,-1,832,799,0,0
-385,225,0,0,0,0,0,0,0,0,0,-1,839,799,0,0
-378,225,0,0,0,0,0,0,0,0,0,-1,846,799,0,0
-371,225,0,0,0,0,0,0,0,0,0,-1,853,799,0,0
-364,225,0,0,0,0,0,0,0,0,0,-1,860,799,0,0
-357,225,0,0,0,0,0,0,0,0,0,-1,867,799,0,0
-350,225,0,0,0,0,0,0,0,0,0,-1,874,799,0,0
-343,225,0,0,0,0,0,0,0,0,0,-1,881,799,0,0
-336,225,0,0,0,0,0,0,0,0,0,-1,888,799,0,0
-329,225,0,0,0,0,0,0,0,0,0,-1,895,799,0,0
-322,225,0,0,0,0,0,0,0,0,0,-1,902,799,0,0
-315,225,0,0,0,0,0,0,0,0,0,-1,909,799,0,0
-308,225,0,0,0,0,0,0,0,0,0,-1,916,799,0,0
-301,225,0,0,0,0,0,0,0,0,0,-1,923,799,0,0
-294,225,0,0,0,0,0,0,0,0,0,-1,930,799,0,0
-287,225,0,0,0,0,0,0,0,0,0,-1,937,799,0,0
-280,225,0,0,0,0,0,0,0,0,0,-1,944,799,0,0
-273,225,0,0,0,0,0,0,0,0,0,-1,951,799,0,0
-266,225,0,0,0,0,0,0,0,0,0,-1,958,799,0,0
-259,225,0,0,0,0,0,0,0,0,0,-1,965,799,0,0
-252,225,0,0,0,0,0,0,0,0,0,-1,972,799,0,0
-245,225,0,0,0,0,0,0,0,0,0,-1,979,799,0,0
-238,225,0,0,0,0,0,0,0,0,0,-1,986,799,0,0
-231,225,0,0,0,0,0,0,0,0,0,-1,993,799,0,0
-224,225,0,0,0,0,0,0,0,0,0,-1,1000,799,0,0
-217,225,0,0,0,0,0,0,0,0,0,-1,1007,799,0,0
-210,225,0,0,0,0,0,0,0,0,0,-1,1014,799,0,0
-203,225,0,0,0,0,0,0,0,0,0,-1,1021,799,0,0
-196,225,0,0,0,0,0,0,0,0,0,-1,1028,799,0,0
-189,225,0,0,0,0,0,0,0,0,0,-1,1035,799,0,0
-182,225,0,0,0,0,0,0,0,0,0,-1,1042,799,0,0
-175,225,0,0,0,0,0,0,0,0,0,-1,1049,799,0,0
-168,225,0,0,0,0,0,0,0,0,0,-1,1056,799,0,0
-161,225,0,0,0,0,0,0,0,0,0,-1,1063,799,0,0
-154,225,0,0,0,0,0,0,0,0,0,-1,1070,799,0,0
-147,225,0,0,0,0,0,0,0,0,0,-1,1077,799,0,0
-140,225,0,0,0,0,0,0,0,0,0,-1,1084,799,0,0
-133,225,0,0,0,0,0,0,0,0,0,-1,1091,799,0,0
-126,225,0,0,0,0,0,0,0,0,0,-1,1098,799,0,0
-119,225,0,0,0,0,0,0,0,0,0,-1,1105,799,0,0
-112,225,0,0,0,0,0,0,0,0,0,-1,1112,799,0,0
-105,225,0,0,0,0,0,0,0,0,0,-1,1119,799,0,0
-98,225,0,0,0,0,0,0,0,0,0,-1,1126,799,0,0
-91,225,0,0,0,0,0,0,0,0,0,-1,1133,799,0,0
-84,225,0,0,0,0,0,0,0,0,0,-1,1140,799,0,0
-77,225,0,0,0,0,0,0,0,0,0,-1,1147,799,0,0
-70,225,0,0,0,0,0,0,0,0,0,-1,1154,799,0,0
-63,225,0,0,0,0,0,0,0,0,0,-1,1161,799,0,0
-56,225,0,0,0,0,0,0,0,0,0,-1,1168,799,0,0
-49,225,0,0,0,0,0,0,0,0,0,-1,1175,799,0,0
-42,225,0,0,0,0,0,0,0,0,0,-1,1182,799,0,0
-35,225,0,0,0,0,0,0,0,0,0,-1,1189,799,0,0
-28,225,0,0,0,0,0,0,0,0,0,-1,1196,799,0,0
-21,225,0,0,0,0,0,0,0,0,0,-1,1203,799,0,0
-14,225,0,0,0,0,0,0,0,0,0,-1,1210,799,0,0
-7,225,0,0,0,0,0,0,0,0,0,-1,1217,799,0,0
0,225,0,0,0,0,0,0,0,0,0,-1,1224,799,0,0
7,225,0,0,0,0,0,0,0,0,0,-1,1231,799,0,0
14,225,0,0,0,0,0,0,0,0,0,-1,1238,799,0,0
21,225,0,0,0,0,0,0,0,0,0,-1,1245,799,0,0
28,225,0,0,0,0,0,0,0,0,0,-1,1252,799,0,0
35,225,0,0,0,0,0,0,0,0,0,-1,1259,799,0,0
42,225,0,0,0,0,0,0,0,0,0,-1,1266,799,0,0
49,225,0,0,0,0,0,0,0,0,0,-1,1273,799,0,0
56,225,0,0,0,0,0,0,0,0,0,-1,1280,799,0,0
63,225,0,0,0,0,0,0,0,0,0,-1,1287,799,0,0
70,225,0,0,0,0,0,0,0,0,0,-1,1294,799,0,0
77,225,0,0,0,0,0,0,0,0,0,-1,1301,799,0,0
84,225,0,0,0,0,0,0,0,0,0,-1,1308,799,0,0
91,225,0,0,0,0,0,0,0,0,0,-1,1315,799,0,0
98,225,0,0,0,0,0,0,0,0,0,-1,1322,799,0,0
105,225,0,0,0,0,0,0,0,0,0,-1,1329,799,0,0
112,225,0,0,0,0,0,0,0,0,0,-1,1336,799,0,0
119,225,0,0,0,0,0,0,0,0,0,-1,1343,799,0,0
126,225,0,0,0,0,0,0,0,0,0,-1,1350,799,0,0
133,225,0,0,0,0,0,0,0,0,0,-1,1357,799,0,0
140,225,0,0,0,0,0,0,0,0,0,-1,1364,799,0,0
147,225,0,0,0,0,0,0,0,0,0,-1,1371,799,0,0
154,225,0,0,0,0,0,0,0,0,0,-1,1378,799,0,0
161,225,0,0,0,0,0,0,0,0,0,-1,1385,799,0,0
168,225,0,0,0,0,0,0,0,0,0,-1,1392,799,0,0
175,225,0,0,0,0,0,0,0,0,0,-1,1399,799,0,0
182,225,0,0,0,0,0,0,0,0,0,-1,1406,799,0,0
189,225,0,0,0,0,0,0,0,0,0,-1,1413,799,0,0
196,225,0,0,0,0,0,0,0,0,0,-1,1420,799,0,0
203,225,0,0,0,0,0,0,0,0,0,-1,1427,799,0,0
210,225,0,0,0,0,0,0,0,0,0,-1,1434,799,0,0
217,225,0,0,0,0,0,0,0,0,0,-1,1441,799,0,0
224,225,0,0,0,0,0,0,0,0,0,-1,1448,799,0,0
231,225,0,0,0,0,0,0,0,0,0,-1,1455,799,0,0
238,225,0,0,0,0,0,0,0,0,0,-1,1462,799,0,0
245,225,0,0,0,0,0,0,0,0,0,-1,1469,799,0,0
252,225,0,0,0,0,0,0,0,0,0,-1,1476,799,0,0
259,225,0,0,0,0,0,0,0,0,0,-1,1483,799,0,0
266,225,0,0,0,0,0,0,0,0,0,-1,1490,799,0,0
273,225,0,0,0,0,0,0,0,0,0,-1,1497,799,0,0
280,225,0,0,0,0,0,0,0,0,0,-1,1504,799,0,0
287,225,0,0,0,0,0,0,0,0,0,-1,1511,799,0,0
294,225,0,0,0,0,0,0,0,0,0,-1,1518,799,0,0
301,225,0,0,0,0,0,0,0,0,0,-1,1525,799,0,0
308,225,0,0,0,0,0,0,0,0,0,-1,1532,799,0,0
315,225,0,0,0,0,0,0,0,0,0,-1,1539,799,0,0
322,225,0,0,0,0,0,0,0,0,0,-1,1546,799,0,0
329,225,0,0,0,0,0,0,0,0,0,-1,1553,799,0,0
336,225,0,0,0,0,0,0,0,0,0,-1,1560,799,0,0
343,225,0,0,0,0,0,0,0,0,0,-1,1567,799,0,0
350,225,0,0,0,0,0,0,0,0,0,-1,1574,799,0,0
357,225,0,0,0,0,0,0,0,0,0,-1,1581,799,0,0
364,225,0,0,0,0,0,0,0,0,0,-1,1588,799,0,0
371,225,0,0,0,0,0,0,0,0,0,-1,1595,799,0,0
378,225,0,0,0,0,0,0,0,0,0,-1,1602,799,0,0
385,225,0,0,0,0,0,0,0,0,0,-1,1609,799,0,0
392,225,0,0,0,0,0,0,0,0,0,-1,1616,799,0,0
399,225,0,0,0,0,0,0,0,0,0,-1,1623,799,0,0
406,225,0,0,0,0,0,0,0,0,0,-1,1630,799,0,0
413,225,0,0,0,0,0,0,0,0,0,-1,1637,799,0,0
420,225,0,0,0,0,0,0,0,0,0,-1,1644,799,0,0
427,225,0,0,0,0,0,0,0,0,0,-1,1651,799,0,0
434,225,0,0,0,0,0,0,0,0,0,-1,1658,799,0,0
441,225,0,0,0,0,0,0,0,0,0,-1,1665,799,0,0
448,225,0,0,0,0,0,0,0,0,0,-1,1672,799,0,0
455,225,0,0,0,0,0,0,0,0,0,-1,1679,799,0,0
462,225,0,0,0,0,0,0,0,0,0,-1,1686,799,0,0
469,225,0,0,0,0,0,0,0,0,0,-1,1693,799,0,0
476,225,0,0,0,0,0,0,0,0,0,-1,1700,799,0,0
483,225,0,0,0,0,0,0,0,0,0,-1,1707,799,0,0
490,225,0,0,0,0,0,0,0,0,0,-1,1714,799,0,0
497,225,0,0,0,0,0,0,0,0,0,-1,1721,799,0,0
504,225,0,0,0,0,0,0,0,0,0,-1,1728,799,0,0
511,225,0,0,0,0,0,0,0,0,0,-1,1735,799,0,0
518,225,0,0,0,0,0,0,0,0,0,-1,1742,799,0,0
525,225,0,0,0,0,0,0,0,0,0,-1,1749,799,0,0
532,225,0,0,0,0,0,0,0,0,0,-1,1756,799,0,0
539,225,0,0,0,0,0,0,0,0,0,-1,1763,799,0,0
546,225,0,0,0,0,0,0,0,0,0,-1,1770,799,0,0
553,225,0,0,0,0,0,0,0,0,0,-1,1777,799,0,0
560,225,0,0,0,0,0,0,0,0,0,-1,1784,799,0,0
567,225,0,0,0,0,0,0,0,0,0,-1,1791,799,0,0
574,225,0,0,0,0,0,0,0,0,0,-1,1798,799,0,0
581,225,0,0,0,0,0,0,0,0,0,-1,1805,799,0,0
588,225,21.7466,3.21875,0.00364805,-0.000921935,-0.00355691,0.00559068,-0.00286456,-0.499888,0.00496549,0.0393248,1812,799,21.7465,-3.21872
595,225,21.807,2.94165,0.00689003,-0.000740163,-0.0033779,0.00817053,-0.00202067,-0.362346,0.00623077,0.0356147,1819,799,21.807,-2.94162
602,225,21.8933,2.88855,0.00796902,0.000692116,-0.00258887,0.00879606,-0.000134921,-0.309212,0.00590953,0.0329121,1826,799,21.8933,-2.88854
609,225,21.9832,2.84711,0.00772417,0.00186295,-0.00242542,0.00859765,0.000989464,-0.345677,0.00543207,0.0338971,1833,799,21.9831,-2.84711
616,225,21.9834,2.8468,0.00666281,0.00263491,-0.00246052,0.00782851,0.00146921,-0.442437,0.00480474,0.0396325,1840,799,21.9834,-2.84683
623,225,21.9977,2.9762,0.00542978,0.00295565,-0.00243718,0.00692588,0.00145956,-0.550551,0.00421581,0.0385642,1847,799,21.9976,-2.97621
630,225,21.9541,2.98596,0.00413609,0.00290756,-0.00244658,0.00604433,0.000999315,-0.662405,0.00374121,0.0410836,1854,799,21.9541,-2.98594
637,225,21.5966,3.1969,0.0029558,0.00298301,-0.00259729,0.00556672,0.000372081,-0.788017,0.00359355,0.0436744,1861,799,21.5966,-3.19689
644,225,16.9005,1.89301,0,0,0,0,0,0,0,-1,1868,799,16.9005,-1.89298
651,225,16.847,1.79633,0.000982745,0.00267164,-0.00253048,0.00449486,-0.000840469,-0.946443,0.00331246,0.0446285,1875,799,16.8471,-1.79631
658,225,16.658,1.80011,0.000171766,0.00224359,-0.00271569,0.00411424,-0.00169888,-0.967607,0.00345142,0.0394745,1882,799,16.658,-1.8001
665,225,16.5406,1.71252,-0.000415147,0.00174268,-0.0026925,0.00356438,-0.00223685,-0.975958,0.00337845,0.01461,1889,799,16.5406,-1.71253
672,225,16.4913,1.97083,-0.00031237,0.001145,-0.00249028,0.00301101,-0.00217838,-0.927731,0.00300893,0.0172739,1896,799,16.4913,-1.97082
679,225,16.4977,2.21356,0.000194762,0.000407905,-0.00226405,0.00256789,-0.00196522,-0.808917,0.00262489,0.0176024,1903,799,16.4977,-2.21358
686,225,16.5059,2.43585,0.000887527,-0.000132004,-0.00184254,0.00228951,-0.00153399,-0.650441,0.00222182,0.0106426,1910,799,16.5058,-2.43586
693,225,16.4956,2.64508,0.00180398,-0.000293103,-0.00147164,0.00256241,-0.00105154,-0.475865,0.00214643,0.0097451,1917,799,16.4956,-2.64508
700,225,16.4994,2.86871,0.00276482,-0.000726787,-0.00102425,0.0030431,-0.00100507,-0.265289,0.00243394,0.0109401,1924,799,16.4994,-2.86873
707,225,16.496,3.10077,0.00488469,-0.000309412,6.36368e-05,0.00488547,-0.000310191,0.0122493,0.00336515,0.0114024,1931,799,16.496,-3.10079
714,225,16.5071,3.3252,0.00889065,5.30103e-05,0.00171254,0.0092109,-0.000267239,0.184867,0.00623159,0.0129659,1938,799,16.5071,-3.32517
721,225,16.5262,3.52759,0.0139553,0.000668371,0.00367455,0.0149038,-0.00028013,0.252613,0.0100305,0.0139596,1945,799,16.5262,-3.52759
728,225,16.4952,3.6972,0.0206539,0.00182082,0.00602059,0.0224141,6.06561e-05,0.284431,0.0149225,0.0226497,1952,799,16.4952,-3.6972
735,225,16.6377,3.85895,0.0296461,0.00288869,0.00943076,0.0326359,-0.000101142,0.307007,0.0217911,0.0442695,1959,799,16.6377,-3.85895
742,225,16.7308,3.91943,0,0,0,0,0,0,0,-1,1966,799,16.7308,-3.91941
749,225,18.8126,6.09058,0,0,0,0,0,0,0,-1,1973,799,18.8126,-6.09055
756,225,18.4277,5.06842,0,0,0,0,0,0,0,-1,1980,799,18.4278,-5.0684
763,225,19.7914,4.47046,0,0,0,0,0,0,0,-1,1987,799,19.7914,-4.47046
770,225,0,0,0,0,0,0,0,0,0,-1,1994,799,0,0
777,225,0,0,0,0,0,0,0,0,0,-1,2001,799,0,0
784,225,0,0,0,0,0,0,0,0,0,-1,2008,799,0,0
791,225,0,0,0,0,0,0,0,0,0,-1,2015,799,0,0
798,225,0,0,0,0,0,0,0,0,0,-1,2022,799,0,0
805,225,0,0,0,0,0,0,0,0,0,-1,2029,799,0,0
812,225,0,0,0,0,0,0,0,0,0,-1,2036,799,0,0
-700,218,0,0,0,0,0,0,0,0,0,-1,524,806,0,0
-693,218,0,0,0,0,0,0,0,0,0,-1,531,806,0,0
-686,218,0,0,0,0,0,0,0,0,0,-1,538,806,0,0
-679,218,0,0,0,0,0,0,0,0,0,-1,545,806,0,0
-672,218,0,0,0,0,0,0,0,0,0,-1,552,806,0,0
-665,218,0,0,0,0,0,0,0,0,0,-1,559,806,0,0
-658,218,0,0,0,0,0,0,0,0,0,-1,566,806,0,0
-651,218,-12.145,0.967285,0.0321648,0.0108141,-0.094173,0.116266,-0.0732867,-0.72896,0.110372,0.0463123,573,806,-12.145,-0.967292
-644,218,-11.9377,1.01007,0.033496,0.0106023,-0.0794796,0.102349,-0.0582505,-0.713879,0.09388,0.0445292,580,806,-11.9378,-1.01006
-637,218,-11.8553,1.25183,0.0328431,0.00920827,-0.0657564,0.0878355,-0.0457842,-0.69649,0.0784085,0.0452019,587,806,-11.8553,-1.25182
-630,218,-11.774,1.54028,0.0305504,0.00749752,-0.0532192,0.0734771,-0.0354291,-0.678753,0.0641434,0.0481379,594,806,-11.7741,-1.54027
-623,218,-11.5097,1.9837,0,0,0,0,0,0,0,-1,601,806,-11.5097,-1.98371
-616,218,-10.9203,1.71307,0,0,0,0,0,0,0,-1,608,806,-10.9204,-1.71306
-609,218,-10.3447,1.36194,0.0198582,0.0031204,-0.0243836,0.0372692,-0.0142905,-0.620088,0.0307376,0.0474128,615,806,-10.3447,-1.36195
-602,218,-10.1691,1.46106,0.0161487,0.002159,-0.0176725,0.0281603,-0.00985263,-0.596956,0.0227794,0.0361852,622,806,-10.1691,-1.46108
-595,218,-10.1756,1.38806,0.0128105,0.00127385,-0.0116076,0.0200041,-0.00591972,-0.554799,0.0156861,0.0160659,629,806,-10.1756,-1.38806
-588,218,-10.1597,1.24115,0.00965752,0.000362559,-0.00731796,0.013679,-0.00365896,-0.502491,0.0105526,0.0106528,636,806,-10.1597,-1.24113
-581,218,-10.1508,1.05573,0.00668209,0.000150565,-0.00424023,0.00876841,-0.00193575,-0.457251,0.00658637,0.0100284,643,806,-10.1508,-1.05574
-574,218,-10.1576,0.833374,0.00359558,-0.000914683,-0.00161231,0.00411266,-0.00143176,-0.310345,0.00332347,0.00929041,650,806,-10.1576,-0.833369
-567,218,-10.1279,0.597168,0.00146832,-0.000725118,-1.16255e-05,0.00146838,-0.00072518,-0.00529993,0.00129045,0.0149405,657,806,-10.1279,-0.597161
-560,218,-10.1334,0.413086,-0.00047123,-0.00122316,0.000842544,7.5427e-05,-0.00176981,0.575543,0.0012058,0.0149404,664,806,-10.1334,-0.413079
-553,218,-10.1288,0.200256,-0.00176504,-0.00127087,0.000771315,-0.000708029,-0.00232788,0.940406,0.00137794,0.0156021,671,806,-10.1288,-0.200261
-546,218,-10.143,-0.0391846,-0.00267411,-0.00210259,0.00136842,-0.000990412,-0.00378629,0.888332,0.00226735,0.0143571,678,806,-10.143,0.0391807
-539,218,-10.1654,-0.273987,-0.00329303,-0.00260908,0.00185842,-0.00106143,-0.00484068,0.876388,0.00293793,0.0195829,685,806,-10.1654,0.273988
-532,218,-10.2245,-0.418091,-0.00345673,-0.00296872,0.00225158,-0.000947963,-0.00547749,0.839373,0.00338028,0.0228224,692,806,-10.2245,0.418093
-525,218,-10.3561,-0.535095,0,0,0,0,0,0,0,-1,699,806,-10.3561,0.535117
-518,218,-10.3624,-0.125061,0,0,0,0,0,0,0,-1,706,806,-10.3624,0.125084
-511,218,-10.5307,-0.0826416,0,0,0,0,0,0,0,-1,713,806,-10.5307,0.0826351
-504,218,-14.7224,1.03796,-0.0016727,-0.00375745,0.00271924,0.000197103,-0.00562725,0.60237,0.0038189,0.0422473,720,806,-14.7224,-1.03795
-497,218,-14.6273,0.925537,-0.000280806,-0.00361553,0.00247023,0.00103212,-0.00492846,0.48853,0.00367827,0.0429264,727,806,-14.6273,-0.925521
-490,218,-14.5419,0.974243,0.00185152,-0.003115,0.00173307,0.00239648,-0.00365996,0.304659,0.00352196,0.0347966,734,806,-14.542,-0.974217
-483,218,-14.4999,1.00061,0.00500443,-0.00205746,0.000262749,0.0050142,-0.00206723,0.0371382,0.00420481,0.0335502,741,806,-14.4999,-1.00058
-476,218,-14.3397,1.10114,0.00941486,-0.000273624,-0.00203803,0.00982612,-0.000684879,-0.199116,0.00679056,0.0362574,748,806,-14.3397,-1.10115
-469,218,0,0,0,0,0,0,0,0,0,-1,755,806,0,0
-462,218,0,0,0,0,0,0,0,0,0,-1,762,806,0,0
-455,218,0,0,0,0,0,0,0,0,0,-1,769,806,0,0
-448,218,0,0,0,0,0,0,0,0,0,-1,776,806,0,0
-441,218,0,0,0,0,0,0,0,0,0,-1,783,806,0,0
-434,218,0,0,0,0,0,0,0,0,0,-1,790,806,0,0
-427,218,0,0,0,0,0,0,0,0,0,-1,797,806,0,0
-420,218,0,0,0,0,0,0,0,0,0,-1,804,806,0,0
-413,218,0,0,0,0,0,0,0,0,0,-1,811,806,0,0
-406,218,0,0,0,0,0,0,0,0,0,-1,818,806,0,0
-399,218,0,0,0,0,0,0,0,0,0,-1,825,806,0,0
-392,218,0,0,0,0,0,0,0,0,0,-1,832,806,0,0
-385,218,0,0,0,0,0,0,0,0,0,-1,839,806,0,0
-378,218,0,0,0,0,0,0,0,0,0,-1,846,806,0,0
-371,218,0,0,0,0,0,0,0,0,0,-1,853,806,0,0
-364,218,0,0,0,0,0,0,0,0,0,-1,860,806,0,0
-357,218,0,0,0,0,0,0,0,0,0,-1,867,806,0,0
-350,218,0,0,0,0,0,0,0,0,0,-1,874,806,0,0
-343,218,0,0,0,0,0,0,0,0,0,-1,881,806,0,0
-336,218,0,0,0,0,0,0,0,0,0,-1,888,806,0,0
-329,218,0,0,0,0,0,0,0,0,0,-1,895,806,0,0
-322,218,0,0,0,0,0,0,0,0,0,-1,902,806,0,0
-315,218,0,0,0,0,0,0,0,0,0,-1,909,806,0,0
-308,218,0,0,0,0,0,0,0,0,0,-1,916,806,0,0
-301,218,0,0,0,0,0,0,0,0,0,-1,923,806,0,0
-294,218,0,0,0,0,0,0,0,0,0,-1,930,806,0,0
-287,218,0,0,0,0,0,0,0,0,0,-1,937,806,0,0
-280,218,0,0,0,0,0,0,0,0,0,-1,944,806,0,0
-273,218,0,0,0,0,0,0,0,0,0,-1,951,806,0,0
-266,218,0,0,0,0,0,0,0,0,0,-1,958,806,0,0
-259,218,0,0,0,0,0,0,0,0,0,-1,965,806,0,0
-252,218,0,0,0,0,0,0,0,0,0,-1,972,806,0,0
-245,218,0,0,0,0,0,0,0,0,0,-1,979,806,0,0
-238,218,0,0,0,0,0,0,0,0,0,-1,986,806,0,0
-231,218,0,0,0,0,0,0,0,0,0,-1,993,806,0,0
-224,218,0,0,0,0,0,0,0,0,0,-1,1000,806,0,0
-217,218,0,0,0,0,0,0,0,0,0,-1,1007,806,0,0
-210,218,0,0,0,0,0,0,0,0,0,-1,1014,806,0,0
-203,218,0,0,0,0,0,0,0,0,0,-1,1021,806,0,0
-196,218,0,0,0,0,0,0,0,0,0,-1,1028,806,0,0
-189,218,0,0,0,0,0,0,0,0,0,-1,1035,806,0,0
-182,218,0,0,0,0,0,0,0,0,0,-1,1042,806,0,0
-175,218,0,0,0,0,0,0,0,0,0,-1,1049,806,0,0
-168,218,0,0,0,0,0,0,0,0,0,-1,1056,806,0,0
-161,218,0,0,0,0,0,0,0,0,0,-1,1063,806,0,0
-154,218,0,0,0,0,0,0,0,0,0,-1,1070,806,0,0
-147,218,0,0,0,0,0,0,0,0,0,-1,1077,806,0,0
-140,218,0,0,0,0,0,0,0,0,0,-1,1084,806,0,0
-133,218,0,0,0,0,0,0,0,0,0,-1,1091,806,0,0
-126,218,0,0,0,0,0,0,0,0,0,-1,1098,806,0,0
-119,218,0,0,0,0,0,0,0,0,0,-1,1105,806,0,0
-112,218,0,0,0,0,0,0,0,0,0,-1,1112,806,0,0
-105,218,0,0,0,0,0,0,0,0,0,-1,1119,806,0,0
-98,218,0,0,0,0,0,0,0,0,0,-1,1126,806,0,0
-91,218,0,0,0,0,0,0,0,0,0,-1,1133,806,0,0
-84,218,0,0,0,0,0,0,0,0,0,-1,1140,806,0,0
-77,218,0,0,0,0,0,0,0,0,0,-1,1147,806,0,0
-70,218,0,0,0,0,0,0,0,0,0,-1,1154,806,0,0
-63,218,0,0,0,0,0,0,0,0,0,-1,1161,806,0,0
-56,218,0,0,0,0,0,0,0,0,0,-1,1168,806,0,0
-49,218,0,0,0,0,0,0,0,0,0,-1,1175,806,0,0
-42,218,0,0,0,0,0,0,0,0,0,-1,1182,806,0,0
-35,218,0,0,0,0,0,0,0,0,0,-1,1189,806,0,0
-28,218,0,0,0,0,0,0,0,0,0,-1,1196,806,0,0
-21,218,0,0,0,0,0,0,0,0,0,-1,1203,806,0,0
-14,218,0,0,0,0,0,0,0,0,0,-1,1210,806,0,0
-7,218,0,0,0,0,0,0,0,0,0,-1,1217,806,0,0
0,218,0,0,0,0,0,0,0,0,0,-1,1224,806,0,0
7,218,0,0,0,0,0,0,0,0,0,-1,1231,806,0,0
14,218,0,0,0,0,0,0,0,0,0,-1,1238,806,0,0
21,218,0,0,0,0,0,0,0,0,0,-1,1245,806,0,0
28,218,0,0,0,0,0,0,0,0,0,-1,1252,806,0,0
35,218,0,0,0,0,0,0,0,0,0,-1,1259,806,0,0
42,218,0,0,0,0,0,0,0,0,0,-1,1266,806,0,0
49,218,0,0,0,0,0,0,0,0,0,-1,1273,806,0,0
56,218,0,0,0,0,0,0,0,0,0,-1,1280,806,0,0
63,218,0,0,0,0,0,0,0,0,0,-1,1287,806,0,0
70,218,0,0,0,0,0,0,0,0,0,-1,1294,806,0,0
77,218,0,0,0,0,0,0,0,0,0,-1,1301,806,0,0
84,218,0,0,0,0,0,0,0,0,0,-1,1308,806,0,0
91,218,0,0,0,0,0,0,0,0,0,-1,1315,806,0,0
98,218,0,0,0,0,0,0,0,0,0,-1,1322,806,0,0
105,218,0,0,0,0,0,0,0,0,0,-1,1329,806,0,0
112,218,0,0,0,0,0,0,0,0,0,-1,1336,806,0,0
119,218,0,0,0,0,0,0,0,0,0,-1,1343,806,0,0
126,218,0,0,0,0,0,0,0,0,0,-1,1350,806,0,0
133,218,0,0,0,0,0,0,0,0,0,-1,1357,806,0,0
140,218,0,0,0,0,0,0,0,0,0,-1,1364,806,0,0
147,218,0,0,0,0,0,0,0,0,0,-1,1371,806,0,0
154,218,0,0,0,0,0,0,0,0,0,-1,1378,806,0,0
161,218,0,0,0,0,0,0,0,0,0,-1,1385,806,0,0
168,218,0,0,0,0,0,0,0,0,0,-1,1392,806,0,0
175,218,0,0,0,0,0,0,0,0,0,-1,1399,806,0,0
182,218,0,0,0,0,0,0,0,0,0,-1,1406,806,0,0
189,218,0,0,0,0,0,0,0,0,0,-1,1413,806,0,0
196,218,0,0,0,0,0,0,0,0,0,-1,1420,806,0,0
203,218,0,0,0,0,0,0,0,0,0,-1,1427,806,0,0
210,218,0,0,0,0,0,0,0,0,0,-1,1434,806,0,0
217,218,0,0,0,0,0,0,0,0,0,-1,1441,806,0,0
224,218,0,0,0,0,0,0,0,0,0,-1,1448,806,0,0
231,218,0,0,0,0,0,0,0,0,0,-1,1455,806,0,0
238,218,0,0,0,0,0,0,0,0,0,-1,1462,806,0,0
245,218,0,0,0,0,0,0,0,0,0,-1,1469,806,0,0
252,218,0,0,0,0,0,0,0,0,0,-1,1476,806,0,0
259,218,0,0,0,0,0,0,0,0,0,-1,1483,806,0,0
266,218,0,0,0,0,0,0,0,0,0,-1,1490,806,0,0
273,218,0,0,0,0,0,0,0,0,0,-1,1497,806,0,0
280,218,0,0,0,0,0,0,0,0,0,-1,1504,806,0,0
287,218,0,0,0,0,0,0,0,0,0,-1,1511,806,0,0
294,218,0,0,0,0,0,0,0,0,0,-1,1518,806,0,0
301,218,0,0,0,0,0,0,0,0,0,-1,1525,806,0,0
308,218,0,0,0,0,0,0,0,0,0,-1,1532,806,0,0
315,218,0,0,0,0,0,0,0,0,0,-1,1539,806,0,0
322,218,0,0,0,0,0,0,0,0,0,-1,1546,806,0,0
329,218,0,0,0,0,0,0,0,0,0,-1,1553,806,0,0
336,218,0,0,0,0,0,0,0,0,0,-1,1560,806,0,0
343,218,0,0,0,0,0,0,0,0,0,-1,1567,806,0,0
350,218,0,0,0,0,0,0,0,0,0,-1,1574,806,0,0
357,218,0,0,0,0,0,0,0,0,0,-1,1581,806,0,0
364,218,0,0,0,0,0,0,0,0,0,-1,1588,806,0,0
371,218,0,0,0,0,0,0,0,0,0,-1,1595,806,0,0
378,218,0,0,0,0,0,0,0,0,0,-1,1602,806,0,0
385,218,0,0,0,0,0,0,0,0,0,-1,1609,806,0,0
392,218,0,0,0,0,0,0,0,0,0,-1,1616,806,0,0
399,218,0,0,0,0,0,0,0,0,0,-1,1623,806,0,0
406,218,0,0,0,0,0,0,0,0,0,-1,1630,806,0,0
413,218,0,0,0,0,0,0,0,0,0,-1,1637,806,0,0
420,218,0,0,0,0,0,0,0,0,0,-1,1644,806,0,0
427,218,0,0,0,0,0,0,0,0,0,-1,1651,806,0,0
434,218,0,0,0,0,0,0,0,0,0,-1,1658,806,0,0
441,218,0,0,0,0,0,0,0,0,0,-1,1665,806,0,0
448,218,0,0,0,0,0,0,0,0,0,-1,1672,806,0,0
455,218,0,0,0,0,0,0,0,0,0,-1,1679,806,0,0
462,218,0,0,0,0,0,0,0,0,0,-1,1686,806,0,0
469,218,0,0,0,0,0,0,0,0,0,-1,1693,806,0,0
476,218,0,0,0,0,0,0,0,0,0,-1,1700,806,0,0
483,218,0,0,0,0,0,0,0,0,0,-1,1707,806,0,0
490,218,0,0,0,0,0,0,0,0,0,-1,1714,806,0,0
497,218,0,0,0,0,0,0,0,0,0,-1,1721,806,0,0
504,218,0,0,0,0,0,0,0,0,0,-1,1728,806,0,0
511,218,0,0,0,0,0,0,0,0,0,-1,1735,806,0,0
518,218,0,0,0,0,0,0,0,0,0,-1,1742,806,0,0
525,218,0,0,0,0,0,0,0,0,0,-1,1749,806,0,0
532,218,0,0,0,0,0,0,0,0,0,-1,1756,806,0,0
539,218,0,0,0,0,0,0,0,0,0,-1,1763,806,0,0
546,218,0,0,0,0,0,0,0,0,0,-1,1770,806,0,0
553,218,0,0,0,0,0,0,0,0,0,-1,1777,806,0,0
560,218,0,0,0,0,0,0,0,0,0,-1,1784,806,0,0
567,218,0,0,0,0,0,0,0,0,0,-1,1791,806,0,0
574,218,0,0,0,0,0,0,0,0,0,-1,1798,806,0,0
581,218,0,0,0,0,0,0,0,0,0,-1,1805,806,0,0
588,218,0,0,0,0,0,0,0,0,0,-1,1812,806,0,0
595,218,21.7936,3.00616,0.00732381,-0.00293772,-0.00299032,0.00813163,-0.00374554,-0.263846,0.00701141,0.0373366,1819,806,21.7936,-3.00615
602,218,21.8673,2.98425,0.00774283,-0.000618391,-0.00178995,0.0081099,-0.000985464,-0.20227,0.00576324,0.0330844,1826,806,21.8673,-2.98428
609,218,21.9614,2.92535,0.00709042,0.00142725,-0.0015948,0.00750864,0.00100903,-0.256468,0.00470562,0.0303268,1833,806,21.9615,-2.92537
616,218,21.9414,2.91516,0.00587585,0.00269059,-0.00177036,0.00666454,0.00190191,-0.4191,0.00396417,0.0309926,1840,806,21.9415,-2.91516
623,218,21.9557,2.85651,0.00452609,0.00340128,-0.00197592,0.00601808,0.00190928,-0.646751,0.00355105,0.0343871,1847,806,21.9557,-2.8565
630,218,21.8599,2.95435,0,0,0,0,0,0,0,-1,1854,806,21.8599,-2.95432
637,218,21.7926,3.11053,0.00224851,0.00356183,-0.00248208,0.00547264,0.0003377,-0.914716,0.00354123,0.0435739,1861,806,21.7926,-3.11054
644,218,21.7156,3.42963,0.00144692,0.00344076,-0.0025806,0.0052103,-0.000322626,-0.969725,0.00358592,0.0439639,1868,806,21.7156,-3.42962
651,218,17.1805,2.16351,0,0,0,0,0,0,0,-1,1875,806,17.1805,-2.1635
658,218,16.8169,2.05518,0.000108884,0.00246995,-0.00279484,0.00432336,-0.00174453,-0.98523,0.00360722,0.0475108,1882,806,16.8169,-2.05516
665,218,16.8412,1.77905,-0.000316204,0.00193812,-0.00282248,0.00385018,-0.00222827,-0.975372,0.0035508,0.0324098,1889,806,16.8412,-1.77904
672,218,16.7523,1.95862,-0.000246713,0.00133346,-0.00266932,0.00332716,-0.00224042,-0.929284,0.00323479,0.0125067,1896,806,16.7524,-1.9586
679,218,16.754,2.20264,0.000147247,0.000547597,-0.00243444,0.00279008,-0.00209523,-0.826419,0.00283003,0.0113161,1903,806,16.754,-2.20264
686,218,16.7509,2.42981,0.000707924,-5.90797e-05,-0.00207027,0.00242992,-0.00178107,-0.693815,0.00244082,0.0107229,1910,806,16.7508,-2.42981
693,218,16.7332,2.65271,0.00145593,-0.000313853,-0.00177533,0.00255468,-0.0014126,-0.5542,0.00232193,0.0115666,1917,806,16.7331,-2.65271
700,218,16.7263,2.8764,0.00215137,-0.00077042,-0.00141645,0.0027253,-0.00134435,-0.384976,0.00239428,0.00998674,1924,806,16.7263,-2.8764
707,218,16.7212,3.09589,0.00391947,-0.000417223,-0.000398532,0.00395579,-0.000453543,-0.0908834,0.00280064,0.00782464,1931,806,16.7212,-3.09589
714,218,16.7407,3.31763,0.00757808,7.66147e-05,0.00115664,0.00775237,-9.76757e-05,0.149562,0.00520111,0.0103708,1938,806,16.7408,-3.31763
721,218,16.7637,3.54053,0.0123591,0.000885149,0.00301587,0.0131035,0.000140741,0.241993,0.00868915,0.0134102,1945,806,16.7637,-3.54052
728,218,16.7642,3.7301,0.0185042,0.00234729,0.00509685,0.0199776,0.000873818,0.281423,0.0130369,0.0188738,1952,806,16.7642,-3.73011
735,218,16.801,3.82709,0.0264254,0.00373054,0.00800348,0.0289639,0.00119202,0.307141,0.0189245,0.0342052,1959,806,16.801,-3.8271
742,218,16.8269,3.91412,0,0,0,0,0,0,0,-1,1966,806,16.827,-3.91412
749,218,17.0353,4.52661,0,0,0,0,0,0,0,-1,1973,806,17.0353,-4.52659
756,218,18.0529,4.66022,0.0675313,0.0120752,0.024652,0.0769054,0.00270113,0.36337,0.050394,0.0477613,1980,806,18.0529,-4.66019
763,218,19.1091,4.60846,0.0876938,0.0169631,0.0333511,0.100939,0.00371773,0.378047,0.0660884,0.0430163,1987,806,19.1092,-4.60843
770,218,0,0,0,0,0,0,0,0,0,-1,1994,806,0,0
777,218,0,0,0,0,0,0,0,0,0,-1,2001,806,0,0
784,218,0,0,0,0,0,0,0,0,0,-1,2008,806,0,0
791,218,0,0,0,0,0,0,0,0,0,-1,2015,806,0,0
798,218,0,0,0,0,0,0,0,0,0,-1,2022,806,0,0
805,218,0,0,0,0,0,0,0,0,0,-1,2029,806,0,0
812,218,0,0,0,0,0,0,0,0,0,-1,2036,806,0,0
-700,211,0,0,0,0,0,0,0,0,0,-1,524,813,0,0
-693,211,0,0,0,0,0,0,0,0,0,-1,531,813,0,0
-686,211,0,0,0,0,0,0,0,0,0,-1,538,813,0,0
-679,211,0,0,0,0,0,0,0,0,0,-1,545,813,0,0
-672,211,0,0,0,0,0,0,0,0,0,-1,552,813,0,0
-665,211,0,0,0,0,0,0,0,0,0,-1,559,813,0,0
-658,211,0,0,0,0,0,0,0,0,0,-1,566,813,0,0
-651,211,-10.1385,1.17841,0.00421511,0.0214828,-0.0724488,0.0858105,-0.0601125,-0.844704,0.084683,0.0432841,573,813,-10.1385,-1.17843
-644,211,-10.1976,1.2644,0.00592171,0.0218135,-0.0627683,0.0771368,-0.0494016,-0.848359,0.0736396,0.0458181,580,813,-10.1976,-1.26439
-637,211,-10.1508,2.18188,0,0,0,0,0,0,0,-1,587,813,-10.1508,-2.1819
-630,211,-10.3475,2.0882,0.00751425,0.0169192,-0.0432138,0.0556856,-0.0312522,-0.839594,0.0508501,0.0458878,594,813,-10.3474,-2.08817
-623,211,-10.5027,2.05487,0.00744379,0.0137609,-0.0343988,0.0451459,-0.0239412,-0.831181,0.0405088,0.0469231,601,813,-10.5027,-2.0549
-616,211,-10.7232,1.74249,0.00704359,0.0107296,-0.0265923,0.0355426,-0.0177695,-0.819996,0.0313447,0.0480367,608,813,-10.7232,-1.74249
-609,211,-10.4748,1.52533,0.00654027,0.0082251,-0.0202319,0.0276321,-0.0128668,-0.806205,0.0238944,0.0369616,615,813,-10.4748,-1.52533
-602,211,-10.3624,1.5191,0.00578193,0.00598491,-0.0147255,0.0206093,-0.00884246,-0.788844,0.0174505,0.0188388,622,813,-10.3623,-1.51913
-595,211,-10.3749,1.42206,0.00480463,0.00399453,-0.00943974,0.013848,-0.00504885,-0.763957,0.0112975,0.00926406,629,813,-10.3749,-1.42207
-588,211,-10.357,1.23535,0.00365691,0.00194302,-0.00581725,0.00868,-0.00308007,-0.712268,0.0070416,0.0096763,636,813,-10.357,-1.23534
-581,211,-10.3558,1.03394,0.00239965,0.000877086,-0.00327407,0.00499978,-0.00172304,-0.671169,0.00403217,0.0106877,643,813,-10.3559,-1.03391
-574,211,-10.3842,0.822937,0.000926245,-0.000517732,-0.00104566,0.00147495,-0.00106644,-0.483249,0.00147358,0.0122708,650,813,-10.3842,-0.822924
-567,211,-10.3724,0.619751,-0.000291415,-0.000703009,0.000245421,-0.000176925,-0.0008175,0.436495,0.000496643,0.0186893,657,813,-10.3725,-0.619778
-560,211,-10.3581,0.444824,-0.00180472,-0.00134453,0.000955923,-0.0005914,-0.00255785,0.903503,0.00154627,0.0211517,664,813,-10.3581,-0.444794
-553,211,-10.3409,0.2229,-0.00289902,-0.00135459,0.000898826,-0.000941817,-0.0033118,1.14028,0.00197044,0.0177249,671,813,-10.3409,-0.222878
-546,211,-10.3926,0.0751343,-0.00356146,-0.00198128,0.00134508,-0.0012114,-0.00433133,1.05095,0.00258035,0.0224951,678,813,-10.3927,-0.0751533
-539,211,-10.3977,-0.1698,-0.00388942,-0.00235836,0.00168384,-0.0012742,-0.00497358,0.998749,0.00298312,0.017155,685,813,-10.3977,0.169819
-532,211,-10.4312,-0.311646,0,0,0,0,0,0,0,-1,692,813,-10.4311,0.311637
-525,211,-10.4468,0.0341797,0,0,0,0,0,0,0,-1,699,813,-10.4468,-0.0341982
-518,211,-10.5704,0.0186768,0,0,0,0,0,0,0,-1,706,813,-10.5704,-0.018704
-511,211,-14.3982,1.034,0,0,0,0,0,0,0,-1,713,813,-14.3982,-1.03401
-504,211,-14.4706,0.988464,-0.000290923,-0.00277665,0.00214534,0.000945565,-0.00401313,0.522856,0.00304003,0.044834,720,813,-14.4706,-0.988447
-497,211,-14.5529,0.937195,0.0017833,-0.00240711,0.00187147,0.00249741,-0.00312122,0.364527,0.00325058,0.0450455,727,813,-14.5529,-0.937185
-490,211,-14.5505,0.939819,0.00462183,-0.00164826,0.0011775,0.00483567,-0.0018621,0.179644,0.00399197,0.0349843,734,813,-14.5505,-0.939826
-483,211,-14.3835,1.05237,0.00838188,-0.000315859,-0.00012151,0.00838358,-0.000317556,-0.0139667,0.00569785,0.0336503,741,813,-14.3835,-1.05239
-476,211,-14.1793,1.20013,0.0131834,0.00170714,-0.00207314,0.0135464,0.00134411,-0.17335,0.00861791,0.0369984,748,813,-14.1793,-1.20015
-469,211,0,0,0,0,0,0,0,0,0,-1,755,813,0,0
-462,211,0,0,0,0,0,0,0,0,0,-1,762,813,0,0
-455,211,0,0,0,0,0,0,0,0,0,-1,769,813,0,0
-448,211,0,0,0,0,0,0,0,0,0,-1,776,813,0,0
-441,211,0,0,0,0,0,0,0,0,0,-1,783,813,0,0
-434,211,0,0,0,0,0,0,0,0,0,-1,790,813,0,0
-427,211,0,0,0,0,0,0,0,0,0,-1,797,813,0,0
-420,211,0,0,0,0,0,0,0,0,0,-1,804,813,0,0
-413,211,0,0,0,0,0,0,0,0,0,-1,811,813,0,0
-406,211,0,0,0,0,0,0,0,0,0,-1,818,813,0,0
-399,211,0,0,0,0,0,0,0,0,0,-1,825,813,0,0
-392,211,0,0,0,0,0,0,0,0,0,-1,832,813,0,0
-385,211,0,0,0,0,0,0,0,0,0,-1,839,813,0,0
-378,211,0,0,0,0,0,0,0,0,0,-1,846,813,0,0
-371,211,0,0,0,0,0,0,0,0,0,-1,853,813,0,0
-364,211,0,0,0,0,0,0,0,0,0,-1,860,813,0,0
-357,211,0,0,0,0,0,0,0,0,0,-1,867,813,0,0
-350,211,0,0,0,0,0,0,0,0,0,-1,874,813,0,0
-343,211,0,0,0,0,0,0,0,0,0,-1,881,813,0,0
-336,211,0,0,0,0,0,0,0,0,0,-1,888,813,0,0
-329,211,0,0,0,0,0,0,0,0,0,-1,895,813,0,0
-322,211,0,0,0,0,0,0,0,0,0,-1,902,813,0,0
-315,211,0,0,0,0,0,0,0,0,0,-1,909,813,0,0
-308,211,0,0,0,0,0,0,0,0,0,-1,916,813,0,0
-301,211,0,0,0,0,0,0,0,0,0,-1,923,813,0,0
-294,211,0,0,0,0,0,0,0,0,0,-1,930,813,0,0
-287,211,0,0,0,0,0,0,0,0,0,-1,937,813,0,0
-280,211,0,0,0,0,0,0,0,0,0,-1,944,813,0,0
-273,211,0,0,0,0,0,0,0,0,0,-1,951,813,0,0
-266,211,0,0,0,0,0,0,0,0,0,-1,958,813,0,0
-259,211,0,0,0,0,0,0,0,0,0,-1,965,813,0,0
-252,211,0,0,0,0,0,0,0,0,0,-1,972,813,0,0
-245,211,0,0,0,0,0,0,0,0,0,-1,979,813,0,0
-238,211,0,0,0,0,0,0,0,0,0,-1,986,813,0,0
-231,211,0,0,0,0,0,0,0,0,0,-1,993,813,0,0
-224,211,0,0,0,0,0,0,0,0,0,-1,1000,813,0,0
-217,211,0,0,0,0,0,0,0,0,0,-1,1007,813,0,0
-210,211,0,0,0,0,0,0,0,0,0,-1,1014,813,0,0
-203,211,0,0,0,0,0,0,0,0,0,-1,1021,813,0,0
-196,211,0,0,0,0,0,0,0,0,0,-1,1028,813,0,0
-189,211,0,0,0,0,0,0,0,0,0,-1,1035,813,0,0
-182,211,0,0,0,0,0,0,0,0,0,-1,1042,813,0,0
-175,211,0,0,0,0,0,0,0,0,0,-1,1049,813,0,0
-168,211,0,0,0,0,0,0,0,0,0,-1,1056,813,0,0
-161,211,0,0,0,0,0,0,0,0,0,-1,1063,813,0,0
-154,211,0,0,0,0,0,0,0,0,0,-1,1070,813,0,0
-147,211,0,0,0,0,0,0,0,0,0,-1,1077,813,0,0
-140,211,0,0,0,0,0,0,0,0,0,-1,1084,813,0,0
-133,211,0,0,0,0,0,0,0,0,0,-1,1091,813,0,0
-126,211,0,0,0,0,0,0,0,0,0,-1,1098,813,0,0
-119,211,0,0,0,0,0,0,0,0,0,-1,1105,813,0,0
-112,211,0,0,0,0,0,0,0,0,0,-1,1112,813,0,0
-105,211,0,0,0,0,0,0,0,0,0,-1,1119,813,0,0
-98,211,0,0,0,0,0,0,0,0,0,-1,1126,813,0,0
-91,211,0,0,0,0,0,0,0,0,0,-1,1133,813,0,0
-84,211,0,0,0,0,0,0,0,0,0,-1,1140,813,0,0
-77,211,0,0,0,0,0,0,0,0,0,-1,1147,813,0,0
-70,211,0,0,0,0,0,0,0,0,0,-1,1154,813,0,0
-63,211,0,0,0,0,0,0,0,0,0,-1,1161,813,0,0
-56,211,0,0,0,0,0,0,0,0,0,-1,1168,813,0,0
-49,211,0,0,0,0,0,0,0,0,0,-1,1175,813,0,0
-42,211,0,0,0,0,0,0,0,0,0,-1,1182,813,0,0
-35,211,0,0,0,0,0,0,0,0,0,-1,1189,813,0,0
-28,211,0,0,0,0,0,0,0,0,0,-1,1196,813,0,0
-21,211,0,0,0,0,0,0,0,0,0,-1,1203,813,0,0
-14,211,0,0,0,0,0,0,0,0,0,-1,1210,813,0,0
-7,211,0,0,0,0,0,0,0,0,0,-1,1217,813,0,0
0,211,0,0,0,0,0,0,0,0,0,-1,1224,813,0,0
7,211,0,0,0,0,0,0,0,0,0,-1,1231,813,0,0
14,211,0,0,0,0,0,0,0,0,0,-1,1238,813,0,0
21,211,0,0,0,0,0,0,0,0,0,-1,1245,813,0,0
28,211,0,0,0,0,0,0,0,0,0,-1,1252,813,0,0
35,211,0,0,0,0,0,0,0,0,0,-1,1259,813,0,0
42,211,0,0,0,0,0,0,0,0,0,-1,1266,813,0,0
49,211,0,0,0,0,0,0,0,0,0,-1,1273,813,0,0
56,211,0,0,0,0,0,0,0,0,0,-1,1280,813,0,0
63,211,0,0,0,0,0,0,0,0,0,-1,1287,813,0,0
70,211,0,0,0,0,0,0,0,0,0,-1,1294,813,0,0
77,211,0,0,0,0,0,0,0,0,0,-1,1301,813,0,0
84,211,0,0,0,0,0,0,0,0,0,-1,1308,813,0,0
91,211,0,0,0,0,0,0,0,0,0,-1,1315,813,0,0
98,211,0,0,0,0,0,0,0,0,0,-1,1322,813,0,0
105,211,0,0,0,0,0,0,0,0,0,-1,1329,813,0,0
112,211,0,0,0,0,0,0,0,0,0,-1,1336,813,0,0
119,211,0,0,0,0,0,0,0,0,0,-1,1343,813,0,0
126,211,0,0,0,0,0,0,0,0,0,-1,1350,813,0,0
133,211,0,0,0,0,0,0,0,0,0,-1,1357,813,0,0
140,211,0,0,0,0,0,0,0,0,0,-1,1364,813,0,0
147,211,0,0,0,0,0,0,0,0,0,-1,1371,813,0,0
154,211,0,0,0,0,0,0,0,0,0,-1,1378,813,0,0
161,211,0,0,0,0,0,0,0,0,0,-1,1385,813,0,0
168,211,0,0,0,0,0,0,0,0,0,-1,1392,813,0,0
175,211,0,0,0,0,0,0,0,0,0,-1,1399,813,0,0
182,211,0,0,0,0,0,0,0,0,0,-1,1406,813,0,0
189,211,0,0,0,0,0,0,0,0,0,-1,1413,813,0,0
196,211,0,0,0,0,0,0,0,0,0,-1,1420,813,0,0
203,211,0,0,0,0,0,0,0,0,0,-1,1427,813,0,0
210,211,0,0,0,0,0,0,0,0,0,-1,1434,813,0,0
217,211,0,0,0,0,0,0,0,0,0,-1,1441,813,0,0
224,211,0,0,0,0,0,0,0,0,0,-1,1448,813,0,0
231,211,0,0,0,0,0,0,0,0,0,-1,1455,813,0,0
238,211,0,0,0,0,0,0,0,0,0,-1,1462,813,0,0
245,211,0,0,0,0,0,0,0,0,0,-1,1469,813,0,0
252,211,0,0,0,0,0,0,0,0,0,-1,1476,813,0,0
259,211,0,0,0,0,0,0,0,0,0,-1,1483,813,0,0
266,211,0,0,0,0,0,0,0,0,0,-1,1490,813,0,0
273,211,0,0,0,0,0,0,0,0,0,-1,1497,813,0,0
280,211,0,0,0,0,0,0,0,0,0,-1,1504,813,0,0
287,211,0,0,0,0,0,0,0,0,0,-1,1511,813,0,0
294,211,0,0,0,0,0,0,0,0,0,-1,1518,813,0,0
301,211,0,0,0,0,0,0,0,0,0,-1,1525,813,0,0
308,211,0,0,0,0,0,0,0,0,0,-1,1532,813,0,0
315,211,0,0,0,0,0,0,0,0,0,-1,1539,813,0,0
322,211,0,0,0,0,0,0,0,0,0,-1,1546,813,0,0
329,211,0,0,0,0,0,0,0,0,0,-1,1553,813,0,0
336,211,0,0,0,0,0,0,0,0,0,-1,1560,813,0,0
343,211,0,0,0,0,0,0,0,0,0,-1,1567,813,0,0
350,211,0,0,0,0,0,0,0,0,0,-1,1574,813,0,0
357,211,0,0,0,0,0,0,0,0,0,-1,1581,813,0,0
364,211,0,0,0,0,0,0,0,0,0,-1,1588,813,0,0
371,211,0,0,0,0,0,0,0,0,0,-1,1595,813,0,0
378,211,0,0,0,0,0,0,0,0,0,-1,1602,813,0,0
385,211,0,0,0,0,0,0,0,0,0,-1,1609,813,0,0
392,211,0,0,0,0,0,0,0,0,0,-1,1616,813,0,0
399,211,0,0,0,0,0,0,0,0,0,-1,1623,813,0,0
406,211,0,0,0,0,0,0,0,0,0,-1,1630,813,0,0
413,211,0,0,0,0,0,0,0,0,0,-1,1637,813,0,0
420,211,0,0,0,0,0,0,0,0,0,-1,1644,813,0,0
427,211,0,0,0,0,0,0,0,0,0,-1,1651,813,0,0
434,211,0,0,0,0,0,0,0,0,0,-1,1658,813,0,0
441,211,0,0,0,0,0,0,0,0,0,-1,1665,813,0,0
448,211,0,0,0,0,0,0,0,0,0,-1,1672,813,0,0
455,211,0,0,0,0,0,0,0,0,0,-1,1679,813,0,0
462,211,0,0,0,0,0,0,0,0,0,-1,1686,813,0,0
469,211,0,0,0,0,0,0,0,0,0,-1,1693,813,0,0
476,211,0,0,0,0,0,0,0,0,0,-1,1700,813,0,0
483,211,0,0,0,0,0,0,0,0,0,-1,1707,813,0,0
490,211,0,0,0,0,0,0,0,0,0,-1,1714,813,0,0
497,211,0,0,0,0,0,0,0,0,0,-1,1721,813,0,0
504,211,0,0,0,0,0,0,0,0,0,-1,1728,813,0,0
511,211,0,0,0,0,0,0,0,0,0,-1,1735,813,0,0
518,211,0,0,0,0,0,0,0,0,0,-1,1742,813,0,0
525,211,0,0,0,0,0,0,0,0,0,-1,1749,813,0,0
532,211,0,0,0,0,0,0,0,0,0,-1,1756,813,0,0
539,211,0,0,0,0,0,0,0,0,0,-1,1763,813,0,0
546,211,0,0,0,0,0,0,0,0,0,-1,1770,813,0,0
553,211,0,0,0,0,0,0,0,0,0,-1,1777,813,0,0
560,211,0,0,0,0,0,0,0,0,0,-1,1784,813,0,0
567,211,0,0,0,0,0,0,0,0,0,-1,1791,813,0,0
574,211,0,0,0,0,0,0,0,0,0,-1,1798,813,0,0
581,211,0,0,0,0,0,0,0,0,0,-1,1805,813,0,0
588,211,0,0,0,0,0,0,0,0,0,-1,1812,813,0,0
595,211,21.9363,2.89832,0.00946216,-0.00476439,-0.00368866,0.0103617,-0.00566391,-0.239193,0.00938396,0.0399411,1819,813,21.9363,-2.89835
602,211,21.9928,2.88562,0.00821653,-0.00181579,-0.00164514,0.00847942,-0.00207868,-0.158457,0.00645833,0.0381227,1826,813,21.9928,-2.88563
609,211,22.0192,2.90387,0.00660349,0.00099488,-0.00109036,0.00680801,0.000790362,-0.185414,0.0042995,0.0368941,1833,813,22.0192,-2.90384
616,211,21.9674,2.91248,0.00500758,0.00267821,-0.00116129,0.00548761,0.00219819,-0.391968,0.00318909,0.030954,1840,813,21.9674,-2.91248
623,211,21.9209,2.88367,0.00351087,0.00372043,-0.00144992,0.00506935,0.00216195,-0.821469,0.00293732,0.0318823,1847,813,21.9209,-2.88367
630,211,21.9393,2.86365,0.00232701,0.00403423,-0.00181709,0.00518822,0.00117302,-1.00498,0.00314167,0.0364957,1854,813,21.9393,-2.86363
637,211,21.8356,3.04651,0.00148487,0.00400577,-0.00217834,0.00526204,0.000228595,-1.04768,0.00343436,0.03977,1861,813,21.8356,-3.04654
644,211,21.6426,3.31866,0.000884198,0.00375926,-0.00237796,0.00510043,-0.000456975,-1.05727,0.0035624,0.0389589,1868,813,21.6426,-3.31865
651,211,21.064,3.71716,0.000387252,0.00319818,-0.00250008,0.00466077,-0.00107534,-1.04147,0.0035208,0.0440588,1875,813,21.064,-3.71716
658,211,16.697,2.25458,0,0,0,0,0,0,0,-1,1882,813,16.6971,-2.25458
665,211,16.9482,1.86517,0,0,0,0,0,0,0,-1,1889,813,16.9482,-1.86517
672,211,16.9147,2.00128,-6.25215e-05,0.00142196,-0.00274261,0.00352099,-0.00216156,-0.917549,0.00331197,0.0190727,1896,813,16.9146,-2.00131
679,211,16.9706,2.19116,0.000226486,0.000628924,-0.00252353,0.00295924,-0.00210383,-0.825183,0.00293704,0.0127658,1903,813,16.9706,-2.19115
686,211,16.9727,2.44214,0.000672849,-2.27142e-05,-0.00223186,0.00258386,-0.00193372,-0.708107,0.00261722,0.0111201,1910,813,16.9727,-2.44214
693,211,16.9618,2.66382,0.00128776,-0.000368793,-0.00203006,0.00265201,-0.00173304,-0.591703,0.00255017,0.0123939,1917,813,16.9618,-2.66381
700,211,16.9148,2.8761,0.00178076,-0.000862533,-0.00176087,0.0026608,-0.00174257,-0.463467,0.00256065,0.0150837,1924,813,16.9148,-2.87613
707,211,16.9225,3.11432,0.0032102,-0.000638259,-0.00083251,0.00338257,-0.00081063,-0.204165,0.00256826,0.0207884,1931,813,16.9225,-3.11431
714,211,16.9333,3.3399,0.00646455,-6.20601e-05,0.000579204,0.00651555,-0.000113063,0.0878303,0.00438188,0.0224314,1938,813,16.9333,-3.33989
721,211,16.9562,3.52173,0.0108972,0.000907041,0.00226687,0.0113875,0.000416727,0.213014,0.00745663,0.0170305,1945,813,16.9562,-3.52173
728,211,16.978,3.72412,0.0164438,0.00256779,0.0040043,0.0175165,0.00149516,0.261725,0.0112125,0.0147967,1952,813,16.978,-3.72414
735,211,16.9985,3.87549,0.0233168,0.00423214,0.00633532,0.0252284,0.00232055,0.293049,0.0161012,0.0233981,1959,813,16.9985,-3.87547
742,211,17.0295,4.03497,0.0326028,0.00652578,0.00974379,0.0358414,0.00328718,0.320888,0.0228774,0.0450992,1966,813,17.0295,-4.03497
749,211,17.1104,4.02954,0,0,0,0,0,0,0,-1,1973,813,17.1103,-4.02951
756,211,17.6575,4.26691,0.0587214,0.0139804,0.0200412,0.0663857,0.00631609,0.365267,0.0423092,0.048609,1980,813,17.6575,-4.2669
763,211,18.6011,4.89063,0.0757234,0.019728,0.0271145,0.0867009,0.00875053,0.384687,0.0551158,0.0486185,1987,813,18.6011,-4.89064
770,211,18.7389,5.75238,0,0,0,0,0,0,0,-1,1994,813,18.7389,-5.75237
777,211,0,0,0,0,0,0,0,0,0,-1,2001,813,0,0
784,211,0,0,0,0,0,0,0,0,0,-1,2008,813,0,0
791,211,0,0,0,0,0,0,0,0,0,-1,2015,813,0,0
798,211,0,0,0,0,0,0,0,0,0,-1,2022,813,0,0
805,211,0,0,0,0,0,0,0,0,0,-1,2029,813,0,0
812,211,0,0,0,0,0,0,0,0,0,-1,2036,813,0,0
-700,204,0,0,0,0,0,0,0,0,0,-1,524,820,0,0
-693,204,0,0,0,0,0,0,0,0,0,-1,531,820,0,0
-686,204,0,0,0,0,0,0,0,0,0,-1,538,820,0,0
-679,204,0,0,0,0,0,0,0,0,0,-1,545,820,0,0
-672,204,0,0,0,0,0,0,0,0,0,-1,552,820,0,0
-665,204,0,0,0,0,0,0,0,0,0,-1,559,820,0,0
-658,204,0,0,0,0,0,0,0,0,0,-1,566,820,0,0
-651,204,-8.0708,1.19244,-0.0166117,0.0310529,-0.0493665,0.0620388,-0.0475976,-1.01028,0.0634813,0.0436503,573,820,-8.07083,-1.19244
-644,204,-8.40375,1.80756,-0.0150533,0.0313251,-0.0451604,0.058902,-0.0426302,-1.02259,0.05887,0.0476749,580,820,-8.40375,-1.80756
-637,204,-8.33545,3.15857,0,0,0,0,0,0,0,-1,587,820,-8.33543,-3.15854
-630,204,-9.22723,2.53113,-0.0105747,0.0243024,-0.0333759,0.0445209,-0.0307932,-1.02614,0.0437228,0.0405326,594,820,-9.22724,-2.53115
-623,204,-9.58331,2.34827,-0.00830486,0.0197643,-0.0272113,0.0363471,-0.0248877,-1.02349,0.0355597,0.0406398,601,820,-9.58333,-2.34825
-616,204,-10.3855,1.56616,-0.00616997,0.0153918,-0.0214423,0.028611,-0.0193891,-1.01833,0.0278828,0.0431315,608,820,-10.3855,-1.56616
-609,204,-10.484,1.60913,-0.00416858,0.0118314,-0.0167961,0.0224354,-0.0147726,-1.00765,0.0216334,0.0341236,615,820,-10.484,-1.60912
-602,204,-10.5583,1.58496,-0.00263244,0.0085632,-0.0124564,0.0166218,-0.0106911,-0.996572,0.0158925,0.015193,622,820,-10.5583,-1.58494
-595,204,-10.5754,1.41724,-0.00181194,0.00569127,-0.00788047,0.0106676,-0.00678824,-1.00756,0.0101607,0.013369,629,820,-10.5754,-1.41722
-588,204,-10.5664,1.22028,-0.00138011,0.00270222,-0.00480692,0.00588339,-0.00456128,-0.986177,0.00604632,0.0112887,636,820,-10.5664,-1.22029
-581,204,-10.5691,1.01862,-0.00133199,0.000974763,-0.00264381,0.00270583,-0.00306305,-0.991081,0.00333279,0.0113216,643,820,-10.5691,-1.01863
-574,204,-10.5817,0.834412,-0.00153635,-0.00057979,-0.000724112,-0.000190264,-0.00192588,-1.07726,0.00122543,0.0129437,650,820,-10.5817,-0.834411
-567,204,-10.5586,0.639526,-0.00217422,-0.00100268,0.000446216,-0.00085208,-0.00232481,1.2453,0.00135808,0.0134114,657,820,-10.5586,-0.639507
-560,204,-10.5721,0.42804,-0.0034178,-0.00165502,0.00109813,-0.00112831,-0.00394451,1.12357,0.00234583,0.0132102,664,820,-10.5722,-0.428064
-553,204,-10.5649,0.236206,-0.00432397,-0.00159836,0.00110187,-0.00120863,-0.00471369,1.23084,0.00282706,0.0104321,671,820,-10.5649,-0.236194
-546,204,-10.5973,0.0754395,-0.00485284,-0.00203912,0.00145017,-0.00142552,-0.00546644,1.17052,0.00327425,0.0161455,678,820,-10.5973,-0.0754411
-539,204,-10.64,-0.15094,-0.00494744,-0.00228716,0.00166037,-0.00148984,-0.00574476,1.12311,0.00344242,0.0289427,685,820,-10.64,0.150927
-532,204,-10.5977,-0.395569,0,0,0,0,0,0,0,-1,692,820,-10.5977,0.395549
-525,204,-14.1476,1.35687,0,0,0,0,0,0,0,-1,699,820,-14.1476,-1.35687
-518,204,-14.3482,1.11652,0,0,0,0,0,0,0,-1,706,820,-14.3482,-1.11649
-511,204,-14.5488,0.876099,0,0,0,0,0,0,0,-1,713,820,-14.5488,-0.876104
-504,204,-14.3619,1.09491,0.00057531,-0.00170491,0.00174435,0.00151909,-0.00264869,0.495946,0.00243555,0.0493592,720,820,-14.362,-1.09493
-497,204,-14.3674,1.10199,0.00337687,-0.000999823,0.00144644,0.0038117,-0.00143465,0.292025,0.0031309,0.0400308,727,820,-14.3674,-1.10201
-490,204,-14.3718,1.04846,0.00692806,0.00013618,0.00081402,0.00702426,3.99807e-05,0.117633,0.00466957,0.0349066,734,820,-14.3719,-1.04845
-483,204,-14.2601,1.07996,0.0112086,0.00183632,-0.000286232,0.0112174,0.00182758,-0.0305023,0.00694961,0.0410455,741,820,-14.2601,-1.07996
-476,204,0,0,0,0,0,0,0,0,0,-1,748,820,0,0
-469,204,0,0,0,0,0,0,0,0,0,-1,755,820,0,0
-462,204,0,0,0,0,0,0,0,0,0,-1,762,820,0,0
-455,204,0,0,0,0,0,0,0,0,0,-1,769,820,0,0
-448,204,0,0,0,0,0,0,0,0,0,-1,776,820,0,0
-441,204,0,0,0,0,0,0,0,0,0,-1,783,820,0,0
-434,204,0,0,0,0,0,0,0,0,0,-1,790,820,0,0
-427,204,0,0,0,0,0,0,0,0,0,-1,797,820,0,0
-420,204,0,0,0,0,0,0,0,0,0,-1,804,820,0,0
-413,204,0,0,0,0,0,0,0,0,0,-1,811,820,0,0
-406,204,0,0,0,0,0,0,0,0,0,-1,818,820,0,0
-399,204,0,0,0,0,0,0,0,0,0,-1,825,820,0,0
-392,204,0,0,0,0,0,0,0,0,0,-1,832,820,0,0
-385,204,0,0,0,0,0,0,0,0,0,-1,839,820,0,0
-378,204,0,0,0,0,0,0,0,0,0,-1,846,820,0,0
-371,204,0,0,0,0,0,0,0,0,0,-1,853,820,0,0
-364,204,0,0,0,0,0,0,0,0,0,-1,860,820,0,0
-357,204,0,0,0,0,0,0,0,0,0,-1,867,820,0,0
-350,204,0,0,0,0,0,0,0,0,0,-1,874,820,0,0
-343,204,0,0,0,0,0,0,0,0,0,-1,881,820,0,0
-336,204,0,0,0,0,0,0,0,0,0,-1,888,820,0,0
-329,204,0,0,0,0,0,0,0,0,0,-1,895,820,0,0
-322,204,0,0,0,0,0,0,0,0,0,-1,902,820,0,0
-315,204,0,0,0,0,0,0,0,0,0,-1,909,820,0,0
-308,204,0,0,0,0,0,0,0,0,0,-1,916,820,0,0
-301,204,0,0,0,0,0,0,0,0,0,-1,923,820,0,0
-294,204,0,0,0,0,0,0,0,0,0,-1,930,820,0,0
-287,204,0,0,0,0,0,0,0,0,0,-1,937,820,0,0
-280,204,0,0,0,0,0,0,0,0,0,-1,944,820,0,0
-273,204,0,0,0,0,0,0,0,0,0,-1,951,820,0,0
-266,204,0,0,0,0,0,0,0,0,0,-1,958,820,0,0
-259,204,0,0,0,0,0,0,0,0,0,-1,965,820,0,0
-252,204,0,0,0,0,0,0,0,0,0,-1,972,820,0,0
-245,204,0,0,0,0,0,0,0,0,0,-1,979,820,0,0
-238,204,0,0,0,0,0,0,0,0,0,-1,986,820,0,0
-231,204,0,0,0,0,0,0,0,0,0,-1,993,820,0,0
-224,204,0,0,0,0,0,0,0,0,0,-1,1000,820,0,0
-217,204,0,0,0,0,0,0,0,0,0,-1,1007,820,0,0
-210,204,0,0,0,0,0,0,0,0,0,-1,1014,820,0,0
-203,204,0,0,0,0,0,0,0,0,0,-1,1021,820,0,0
-196,204,0,0,0,0,0,0,0,0,0,-1,1028,820,0,0
-189,204,0,0,0,0,0,0,0,0,0,-1,1035,820,0,0
-182,204,0,0,0,0,0,0,0,0,0,-1,1042,820,0,0
-175,204,0,0,0,0,0,0,0,0,0,-1,1049,820,0,0
-168,204,0,0,0,0,0,0,0,0,0,-1,1056,820,0,0
-161,204,0,0,0,0,0,0,0,0,0,-1,1063,820,0,0
-154,204,0,0,0,0,0,0,0,0,0,-1,1070,820,0,0
-147,204,0,0,0,0,0,0,0,0,0,-1,1077,820,0,0
-140,204,0,0,0,0,0,0,0,0,0,-1,1084,820,0,0
-133,204,0,0,0,0,0,0,0,0,0,-1,1091,820,0,0
-126,204,0,0,0,0,0,0,0,0,0,-1,1098,820,0,0
-119,204,0,0,0,0,0,0,0,0,0,-1,1105,820,0,0
-112,204,0,0,0,0,0,0,0,0,0,-1,1112,820,0,0
-105,204,0,0,0,0,0,0,0,0,0,-1,1119,820,0,0
-98,204,0,0,0,0,0,0,0,0,0,-1,1126,820,0,0
-91,204,0,0,0,0,0,0,0,0,0,-1,1133,820,0,0
-84,204,0,0,0,0,0,0,0,0,0,-1,1140,820,0,0
-77,204,0,0,0,0,0,0,0,0,0,-1,1147,820,0,0
-70,204,0,0,0,0,0,0,0,0,0,-1,1154,820,0,0
-63,204,0,0,0,0,0,0,0,0,0,-1,1161,820,0,0
-56,204,0,0,0,0,0,0,0,0,0,-1,1168,820,0,0
-49,204,0,0,0,0,0,0,0,0,0,-1,1175,820,0,0
-42,204,0,0,0,0,0,0,0,0,0,-1,1182,820,0,0
-35,204,0,0,0,0,0,0,0,0,0,-1,1189,820,0,0
-28,204,0,0,0,0,0,0,0,0,0,-1,1196,820,0,0
-21,204,0,0,0,0,0,0,0,0,0,-1,1203,820,0,0
-14,204,0,0,0,0,0,0,0,0,0,-1,1210,820,0,0
-7,204,0,0,0,0,0,0,0,0,0,-1,1217,820,0,0
0,204,0,0,0,0,0,0,0,0,0,-1,1224,820,0,0
7,204,0,0,0,0,0,0,0,0,0,-1,1231,820,0,0
14,204,0,0,0,0,0,0,0,0,0,-1,1238,820,0,0
21,204,0,0,0,0,0,0,0,0,0,-1,1245,820,0,0
28,204,0,0,0,0,0,0,0,0,0,-1,1252,820,0,0
35,204,0,0,0,0,0,0,0,0,0,-1,1259,820,0,0
42,204,0,0,0,0,0,0,0,0,0,-1,1266,820,0,0
49,204,0,0,0,0,0,0,0,0,0,-1,1273,820,0,0
56,204,0,0,0,0,0,0,0,0,0,-1,1280,820,0,0
63,204,0,0,0,0,0,0,0,0,0,-1,1287,820,0,0
70,204,0,0,0,0,0,0,0,0,0,-1,1294,820,0,0
77,204,0,0,0,0,0,0,0,0,0,-1,1301,820,0,0
84,204,0,0,0,0,0,0,0,0,0,-1,1308,820,0,0
91,204,0,0,0,0,0,0,0,0,0,-1,1315,820,0,0
98,204,0,0,0,0,0,0,0,0,0,-1,1322,820,0,0
105,204,0,0,0,0,0,0,0,0,0,-1,1329,820,0,0
112,204,0,0,0,0,0,0,0,0,0,-1,1336,820,0,0
119,204,0,0,0,0,0,0,0,0,0,-1,1343,820,0,0
126,204,0,0,0,0,0,0,0,0,0,-1,1350,820,0,0
133,204,0,0,0,0,0,0,0,0,0,-1,1357,820,0,0
140,204,0,0,0,0,0,0,0,0,0,-1,1364,820,0,0
147,204,0,0,0,0,0,0,0,0,0,-1,1371,820,0,0
154,204,0,0,0,0,0,0,0,0,0,-1,1378,820,0,0
161,204,0,0,0,0,0,0,0,0,0,-1,1385,820,0,0
168,204,0,0,0,0,0,0,0,0,0,-1,1392,820,0,0
175,204,0,0,0,0,0,0,0,0,0,-1,1399,820,0,0
182,204,0,0,0,0,0,0,0,0,0,-1,1406,820,0,0
189,204,0,0,0,0,0,0,0,0,0,-1,1413,820,0,0
196,204,0,0,0,0,0,0,0,0,0,-1,1420,820,0,0
203,204,0,0,0,0,0,0,0,0,0,-1,1427,820,0,0
210,204,0,0,0,0,0,0,0,0,0,-1,1434,820,0,0
217,204,0,0,0,0,0,0,0,0,0,-1,1441,820,0,0
224,204,0,0,0,0,0,0,0,0,0,-1,1448,820,0,0
231,204,0,0,0,0,0,0,0,0,0,-1,1455,820,0,0
238,204,0,0,0,0,0,0,0,0,0,-1,1462,820,0,0
245,204,0,0,0,0,0,0,0,0,0,-1,1469,820,0,0
252,204,0,0,0,0,0,0,0,0,0,-1,1476,820,0,0
259,204,0,0,0,0,0,0,0,0,0,-1,1483,820,0,0
266,204,0,0,0,0,0,0,0,0,0,-1,1490,820,0,0
273,204,0,0,0,0,0,0,0,0,0,-1,1497,820,0,0
280,204,0,0,0,0,0,0,0,0,0,-1,1504,820,0,0
287,204,0,0,0,0,0,0,0,0,0,-1,1511,820,0,0
294,204,0,0,0,0,0,0,0,0,0,-1,1518,820,0,0
301,204,0,0,0,0,0,0,0,0,0,-1,1525,820,0,0
308,204,0,0,0,0,0,0,0,0,0,-1,1532,820,0,0
315,204,0,0,0,0,0,0,0,0,0,-1,1539,820,0,0
322,204,0,0,0,0,0,0,0,0,0,-1,1546,820,0,0
329,204,0,0,0,0,0,0,0,0,0,-1,1553,820,0,0
336,204,0,0,0,0,0,0,0,0,0,-1,1560,820,0,0
343,204,0,0,0,0,0,0,0,0,0,-1,1567,820,0,0
350,204,0,0,0,0,0,0,0,0,0,-1,1574,820,0,0
357,204,0,0,0,0,0,0,0,0,0,-1,1581,820,0,0
364,204,0,0,0,0,0,0,0,0,0,-1,1588,820,0,0
371,204,0,0,0,0,0,0,0,0,0,-1,1595,820,0,0
378,204,0,0,0,0,0,0,0,0,0,-1,1602,820,0,0
385,204,0,0,0,0,0,0,0,0,0,-1,1609,820,0,0
392,204,0,0,0,0,0,0,0,0,0,-1,1616,820,0,0
399,204,0,0,0,0,0,0,0,0,0,-1,1623,820,0,0
406,204,0,0,0,0,0,0,0,0,0,-1,1630,820,0,0
413,204,0,0,0,0,0,0,0,0,0,-1,1637,820,0,0
420,204,0,0,0,0,0,0,0,0,0,-1,1644,820,0,0
427,204,0,0,0,0,0,0,0,0,0,-1,1651,820,0,0
434,204,0,0,0,0,0,0,0,0,0,-1,1658,820,0,0
441,204,0,0,0,0,0,0,0,0,0,-1,1665,820,0,0
448,204,0,0,0,0,0,0,0,0,0,-1,1672,820,0,0
455,204,0,0,0,0,0,0,0,0,0,-1,1679,820,0,0
462,204,0,0,0,0,0,0,0,0,0,-1,1686,820,0,0
469,204,0,0,0,0,0,0,0,0,0,-1,1693,820,0,0
476,204,0,0,0,0,0,0,0,0,0,-1,1700,820,0,0
483,204,0,0,0,0,0,0,0,0,0,-1,1707,820,0,0
490,204,0,0,0,0,0,0,0,0,0,-1,1714,820,0,0
497,204,0,0,0,0,0,0,0,0,0,-1,1721,820,0,0
504,204,0,0,0,0,0,0,0,0,0,-1,1728,820,0,0
511,204,0,0,0,0,0,0,0,0,0,-1,1735,820,0,0
518,204,0,0,0,0,0,0,0,0,0,-1,1742,820,0,0
525,204,0,0,0,0,0,0,0,0,0,-1,1749,820,0,0
532,204,0,0,0,0,0,0,0,0,0,-1,1756,820,0,0
539,204,0,0,0,0,0,0,0,0,0,-1,1763,820,0,0
546,204,0,0,0,0,0,0,0,0,0,-1,1770,820,0,0
553,204,0,0,0,0,0,0,0,0,0,-1,1777,820,0,0
560,204,0,0,0,0,0,0,0,0,0,-1,1784,820,0,0
567,204,0,0,0,0,0,0,0,0,0,-1,1791,820,0,0
574,204,0,0,0,0,0,0,0,0,0,-1,1798,820,0,0
581,204,0,0,0,0,0,0,0,0,0,-1,1805,820,0,0
588,204,0,0,0,0,0,0,0,0,0,-1,1812,820,0,0
595,204,0,0,0,0,0,0,0,0,0,-1,1819,820,0,0
602,204,21.9701,2.91925,0.00900679,-0.0025416,-0.00161151,0.00922745,-0.00276226,-0.136081,0.00724997,0.0379992,1826,820,21.97,-2.91928
609,204,21.9445,2.97345,0.00618917,0.000631214,-0.000643593,0.00626272,0.000557661,-0.113791,0.00400223,0.0419926,1833,820,21.9445,-2.97344
616,204,21.9586,2.93097,0.00415384,0.002519,-0.000571125,0.0043336,0.00233924,-0.304923,0.00250464,0.0391613,1840,820,21.9586,-2.93099
623,204,21.913,2.87488,0.00256745,0.00372853,-0.000888261,0.00420914,0.00208685,-1.07484,0.00243018,0.0285403,1847,820,21.9129,-2.87487
630,204,21.9143,2.84827,0.00151267,0.00417026,-0.00135367,0.00473834,0.000944589,-1.17346,0.00289585,0.0257311,1854,820,21.9143,-2.84827
637,204,21.8837,2.92932,0.00089512,0.00412795,-0.00180657,0.00493568,8.73897e-05,-1.15035,0.00326171,0.0305424,1861,820,21.8837,-2.9293
644,204,21.7963,2.9964,0.000561689,0.00379556,-0.00209368,0.00482399,-0.000466741,-1.11421,0.00338233,0.0376868,1868,820,21.7963,-2.99639
651,204,21.9048,3.00598,0.000324643,0.00318425,-0.00228873,0.00445308,-0.000944191,-1.06459,0.0033284,0.0439818,1875,820,21.9048,-3.00598
658,204,22.2268,2.87799,0,0,0,0,0,0,0,-1,1882,820,22.2269,-2.87798
665,204,17.1641,1.93689,0,0,0,0,0,0,0,-1,1889,820,17.1641,-1.93692
672,204,17.0975,1.95581,0.00026931,0.00131972,-0.00262393,0.00347049,-0.00188146,-0.884172,0.00313502,0.0371749,1896,820,17.0976,-1.95579
679,204,17.153,2.13708,0.000456736,0.000542737,-0.00243834,0.00293846,-0.00193899,-0.794215,0.00283563,0.0210519,1903,820,17.1529,-2.13711
686,204,17.1824,2.43787,0.000793456,-0.00010553,-0.00224258,0.00263115,-0.00194322,-0.686491,0.00265095,0.0117592,1910,820,17.1824,-2.43785
693,204,17.1527,2.6604,0.00127033,-0.000491808,-0.00214728,0.00271027,-0.00193176,-0.590714,0.00269261,0.0168303,1917,820,17.1527,-2.66038
700,204,17.2054,2.88171,0.00156769,-0.000987935,-0.001983,0.00264892,-0.00206917,-0.49919,0.00273084,0.0183428,1924,820,17.2054,-2.88173
707,204,17.1523,3.14227,0.0026407,-0.000895289,-0.00119741,0.00300803,-0.00126261,-0.297653,0.00253337,0.0149867,1931,820,17.1523,-3.14227
714,204,17.158,3.37885,0.00543633,-0.00027916,-1.30195e-05,0.00543636,-0.000279189,-0.00227791,0.0037208,0.0233351,1938,820,17.158,-3.37886
721,204,17.1561,3.54474,0.00951836,0.000773127,0.00142929,0.00974603,0.000545457,0.157962,0.00632338,0.0216958,1945,820,17.1562,-3.54477
728,204,17.1548,3.73395,0.0145207,0.00250806,0.0027469,0.015119,0.00190974,0.214468,0.00950694,0.0126939,1952,820,17.1548,-3.73394
735,204,17.157,3.92926,0.0204099,0.00438551,0.0043365,0.0215081,0.00328725,0.248046,0.0133783,0.0143508,1959,820,17.1569,-3.92926
742,204,17.225,4.03125,0.0284066,0.00687002,0.00688633,0.0304202,0.00485639,0.28448,0.0188708,0.0290675,1966,820,17.2249,-4.03124
749,204,17.3206,4.0921,0.0383939,0.010311,0.0102703,0.0417491,0.0069558,0.315754,0.0258282,0.0457842,1973,820,17.3206,-4.09211
756,204,17.4117,4.1601,0,0,0,0,0,0,0,-1,1980,820,17.4118,-4.16008
763,204,18.2537,5.16034,0.0642756,0.0212433,0.0196262,0.0718822,0.0136367,0.369747,0.0440846,0.046405,1987,820,18.2536,-5.16036
770,204,18.6893,5.68665,0.0795994,0.0296621,0.0254308,0.09027,0.0189915,0.397284,0.0549545,0.0469989,1994,820,18.6894,-5.68664
777,204,0,0,0,0,0,0,0,0,0,-1,2001,820,0,0
784,204,0,0,0,0,0,0,0,0,0,-1,2008,820,0,0
791,204,0,0,0,0,0,0,0,0,0,-1,2015,820,0,0
798,204,0,0,0,0,0,0,0,0,0,-1,2022,820,0,0
805,204,0,0,0,0,0,0,0,0,0,-1,2029,820,0,0
812,204,0,0,0,0,0,0,0,0,0,-1,2036,820,0,0
-700,197,0,0,0,0,0,0,0,0,0,-1,524,827,0,0
-693,197,0,0,0,0,0,0,0,0,0,-1,531,827,0,0
-686,197,0,0,0,0,0,0,0,0,0,-1,538,827,0,0
-679,197,0,0,0,0,0,0,0,0,0,-1,545,827,0,0
-672,197,0,0,0,0,0,0,0,0,0,-1,552,827,0,0
-665,197,0,0,0,0,0,0,0,0,0,-1,559,827,0,0
-658,197,-13.9348,5.44788,0,0,0,0,0,0,0,-1,566,827,-13.9347,-5.44789
-651,197,-5.87665,1.40833,0,0,0,0,0,0,0,-1,573,827,-5.87666,-1.40833
-644,197,-7.17413,4.58612,0,0,0,0,0,0,0,-1,580,827,-7.17416,-4.5861
-637,197,-7.70154,4.0343,-0.0195313,0.037264,-0.0258921,0.0472959,-0.0295632,-1.20116,0.0447665,0.0482587,587,827,-7.70155,-4.0343
-630,197,-8.27478,3.45264,-0.0172895,0.0322371,-0.0229236,0.0412186,-0.026271,-1.19738,0.0392824,0.0416304,594,827,-8.27477,-3.45263
-623,197,-8.77222,2.85016,-0.0146745,0.0264581,-0.019392,0.0341588,-0.0223752,-1.19279,0.0328754,0.0430419,601,827,-8.77222,-2.85014
-616,197,-10.5009,1.42859,0,0,0,0,0,0,0,-1,608,827,-10.5009,-1.42862
-609,197,-10.6557,1.60229,-0.00919325,0.0160931,-0.0129264,0.0215315,-0.0146316,-1.17256,0.021005,0.0332912,615,827,-10.6557,-1.60231
-602,197,-10.7783,1.57373,-0.00682832,0.0116708,-0.00977534,0.015879,-0.0110365,-1.16428,0.0156233,0.0173983,622,827,-10.7783,-1.57371
-595,197,-10.7852,1.4173,-0.00532164,0.00776007,-0.00600414,0.010098,-0.00765955,-1.19948,0.0102845,0.017501,629,827,-10.7852,-1.41732
-588,197,-10.7755,1.20892,-0.00420148,0.00369639,-0.00358937,0.0050839,-0.00558899,-1.20193,0.0061643,0.0176925,636,827,-10.7755,-1.20895
-581,197,-10.7648,1.02655,-0.00353613,0.00118843,-0.00190676,0.00186196,-0.00420965,-1.23125,0.00359173,0.0103129,643,827,-10.7648,-1.02655
-574,197,-10.7672,0.848022,-0.00328218,-0.00053812,-0.000351905,-0.00049371,-0.00332659,-1.44526,0.00207285,0.0117159,650,827,-10.7672,-0.848042
-567,197,-10.7784,0.641479,-0.00358446,-0.00118502,0.000634782,-0.00102744,-0.00374205,1.32747,0.00223247,0.0135939,657,827,-10.7785,-0.641477
-560,197,-10.7844,0.44873,-0.00454407,-0.0017956,0.00115185,-0.00137671,-0.00496295,1.222,0.00295851,0.0136813,664,827,-10.7844,-0.448756
-553,197,-10.7999,0.271118,-0.00521958,-0.00171153,0.00118727,-0.00134749,-0.00558362,1.27328,0.00336443,0.0139231,671,827,-10.7999,-0.271137
-546,197,-10.7675,0.0392456,-0.00556315,-0.00192944,0.00146427,-0.00141283,-0.00607976,1.23162,0.00367392,0.0245725,678,827,-10.7675,-0.0392324
-539,197,-10.8387,-0.159607,0,0,0,0,0,0,0,-1,685,827,-10.8387,0.159583
-532,197,-12.957,1.23853,0,0,0,0,0,0,0,-1,692,827,-12.957,-1.23854
-525,197,-14.221,1.40088,0,0,0,0,0,0,0,-1,699,827,-14.221,-1.40089
-518,197,-14.3859,1.12146,-0.00310889,-0.00165472,0.00169579,-0.000536717,-0.00422689,0.987922,0.00265715,0.0451036,706,827,-14.3859,-1.12144
-511,197,-14.55,0.853333,-0.00149923,-0.00121275,0.001687,0.000337086,-0.00304906,0.827751,0.00215388,0.0445649,713,827,-14.5501,-0.853331
-504,197,-14.5742,0.811768,0.000830211,-0.000570488,0.00163748,0.00191082,-0.0016511,0.58332,0.0020583,0.0409217,720,827,-14.5742,-0.811765
-497,197,-14.5093,0.939758,0.00416059,0.000392092,0.00139702,0.00462199,-6.93053e-05,0.318993,0.00310469,0.0411112,727,827,-14.5094,-0.939766
-490,197,-14.4236,1.05438,0.00825995,0.00183302,0.000914615,0.00838758,0.00170539,0.138643,0.00511884,0.0395125,734,827,-14.4237,-1.05437
-483,197,-14.3098,1.08667,0.0132852,0.00383716,6.77285e-06,0.0132852,0.00383715,0.00071685,0.00789497,0.0411103,741,827,-14.3098,-1.08667
-476,197,0,0,0,0,0,0,0,0,0,-1,748,827,0,0
-469,197,0,0,0,0,0,0,0,0,0,-1,755,827,0,0
-462,197,0,0,0,0,0,0,0,0,0,-1,762,827,0,0
-455,197,0,0,0,0,0,0,0,0,0,-1,769,827,0,0
-448,197,0,0,0,0,0,0,0,0,0,-1,776,827,0,0
-441,197,0,0,0,0,0,0,0,0,0,-1,783,827,0,0
-434,197,0,0,0,0,0,0,0,0,0,-1,790,827,0,0
-427,197,0,0,0,0,0,0,0,0,0,-1,797,827,0,0
-420,197,0,0,0,0,0,0,0,0,0,-1,804,827,0,0
-413,197,0,0,0,0,0,0,0,0,0,-1,811,827,0,0
-406,197,0,0,0,0,0,0,0,0,0,-1,818,827,0,0
-399,197,0,0,0,0,0,0,0,0,0,-1,825,827,0,0
-392,197,0,0,0,0,0,0,0,0,0,-1,832,827,0,0
-385,197,0,0,0,0,0,0,0,0,0,-1,839,827,0,0
-378,197,0,0,0,0,0,0,0,0,0,-1,846,827,0,0
-371,197,0,0,0,0,0,0,0,0,0,-1,853,827,0,0
-364,197,0,0,0,0,0,0,0,0,0,-1,860,827,0,0
-357,197,0,0,0,0,0,0,0,0,0,-1,867,827,0,0
-350,197,0,0,0,0,0,0,0,0,0,-1,874,827,0,0
-343,197,0,0,0,0,0,0,0,0,0,-1,881,827,0,0
-336,197,0,0,0,0,0,0,0,0,0,-1,888,827,0,0
-329,197,0,0,0,0,0,0,0,0,0,-1,895,827,0,0
-322,197,0,0,0,0,0,0,0,0,0,-1,902,827,0,0
-315,197,0,0,0,0,0,0,0,0,0,-1,909,827,0,0
-308,197,0,0,0,0,0,0,0,0,0,-1,916,827,0,0
-301,197,0,0,0,0,0,0,0,0,0,-1,923,827,0,0
-294,197,0,0,0,0,0,0,0,0,0,-1,930,827,0,0
-287,197,0,0,0,0,0,0,0,0,0,-1,937,827,0,0
-280,197,0,0,0,0,0,0,0,0,0,-1,944,827,0,0
-273,197,0,0,0,0,0,0,0,0,0,-1,951,827,0,0
-266,197,0,0,0,0,0,0,0,0,0,-1,958,827,0,0
-259,197,0,0,0,0,0,0,0,0,0,-1,965,827,0,0
-252,197,0,0,0,0,0,0,0,0,0,-1,972,827,0,0
-245,197,0,0,0,0,0,0,0,0,0,-1,979,827,0,0
-238,197,0,0,0,0,0,0,0,0,0,-1,986,827,0,0
-231,197,0,0,0,0,0,0,0,0,0,-1,993,827,0,0
-224,197,0,0,0,0,0,0,0,0,0,-1,1000,827,0,0
-217,197,0,0,0,0,0,0,0,0,0,-1,1007,827,0,0
-210,197,0,0,0,0,0,0,0,0,0,-1,1014,827,0,0
-203,197,0,0,0,0,0,0,0,0,0,-1,1021,827,0,0
-196,197,0,0,0,0,0,0,0,0,0,-1,1028,827,0,0
-189,197,0,0,0,0,0,0,0,0,0,-1,1035,827,0,0
-182,197,0,0,0,0,0,0,0,0,0,-1,1042,827,0,0
-175,197,0,0,0,0,0,0,0,0,0,-1,1049,827,0,0
-168,197,0,0,0,0,0,0,0,0,0,-1,1056,827,0,0
-161,197,0,0,0,0,0,0,0,0,0,-1,1063,827,0,0
-154,197,0,0,0,0,0,0,0,0,0,-1,1070,827,0,0
-147,197,0,0,0,0,0,0,0,0,0,-1,1077,827,0,0
-140,197,0,0,0,0,0,0,0,0,0,-1,1084,827,0,0
-133,197,0,0,0,0,0,0,0,0,0,-1,1091,827,0,0
-126,197,0,0,0,0,0,0,0,0,0,-1,1098,827,0,0
-119,197,0,0,0,0,0,0,0,0,0,-1,1105,827,0,0
-112,197,0,0,0,0,0,0,0,0,0,-1,1112,827,0,0
-105,197,0,0,0,0,0,0,0,0,0,-1,1119,827,0,0
-98,197,0,0,0,0,0,0,0,0,0,-1,1126,827,0,0
-91,197,0,0,0,0,0,0,0,0,0,-1,1133,827,0,0
-84,197,0,0,0,0,0,0,0,0,0,-1,1140,827,0,0
-77,197,0,0,0,0,0,0,0,0,0,-1,1147,827,0,0
-70,197,0,0,0,0,0,0,0,0,0,-1,1154,827,0,0
-63,197,0,0,0,0,0,0,0,0,0,-1,1161,827,0,0
-56,197,0,0,0,0,0,0,0,0,0,-1,1168,827,0,0
-49,197,0,0,0,0,0,0,0,0,0,-1,1175,827,0,0
-42,197,0,0,0,0,0,0,0,0,0,-1,1182,827,0,0
-35,197,0,0,0,0,0,0,0,0,0,-1,1189,827,0,0
-28,197,0,0,0,0,0,0,0,0,0,-1,1196,827,0,0
-21,197,0,0,0,0,0,0,0,0,0,-1,1203,827,0,0
-14,197,0,0,0,0,0,0,0,0,0,-1,1210,827,0,0
-7,197,0,0,0,0,0,0,0,0,0,-1,1217,827,0,0
0,197,0,0,0,0,0,0,0,0,0,-1,1224,827,0,0
7,197,0,0,0,0,0,0,0,0,0,-1,1231,827,0,0
14,197,0,0,0,0,0,0,0,0,0,-1,1238,827,0,0
21,197,0,0,0,0,0,0,0,0,0,-1,1245,827,0,0
28,197,0,0,0,0,0,0,0,0,0,-1,1252,827,0,0
35,197,0,0,0,0,0,0,0,0,0,-1,1259,827,0,0
42,197,0,0,0,0,0,0,0,0,0,-1,1266,827,0,0
49,197,0,0,0,0,0,0,0,0,0,-1,1273,827,0,0
56,197,0,0,0,0,0,0,0,0,0,-1,1280,827,0,0
63,197,0,0,0,0,0,0,0,0,0,-1,1287,827,0,0
70,197,0,0,0,0,0,0,0,0,0,-1,1294,827,0,0
77,197,0,0,0,0,0,0,0,0,0,-1,1301,827,0,0
84,197,0,0,0,0,0,0,0,0,0,-1,1308,827,0,0
91,197,0,0,0,0,0,0,0,0,0,-1,1315,827,0,0
98,197,0,0,0,0,0,0,0,0,0,-1,1322,827,0,0
105,197,0,0,0,0,0,0,0,0,0,-1,1329,827,0,0
112,197,0,0,0,0,0,0,0,0,0,-1,1336,827,0,0
119,197,0,0,0,0,0,0,0,0,0,-1,1343,827,0,0
126,197,0,0,0,0,0,0,0,0,0,-1,1350,827,0,0
133,197,0,0,0,0,0,0,0,0,0,-1,1357,827,0,0
140,197,0,0,0,0,0,0,0,0,0,-1,1364,827,0,0
147,197,0,0,0,0,0,0,0,0,0,-1,1371,827,0,0
154,197,0,0,0,0,0,0,0,0,0,-1,1378,827,0,0
161,197,0,0,0,0,0,0,0,0,0,-1,1385,827,0,0
168,197,0,0,0,0,0,0,0,0,0,-1,1392,827,0,0
175,197,0,0,0,0,0,0,0,0,0,-1,1399,827,0,0
182,197,0,0,0,0,0,0,0,0,0,-1,1406,827,0,0
189,197,0,0,0,0,0,0,0,0,0,-1,1413,827,0,0
196,197,0,0,0,0,0,0,0,0,0,-1,1420,827,0,0
203,197,0,0,0,0,0,0,0,0,0,-1,1427,827,0,0
210,197,0,0,0,0,0,0,0,0,0,-1,1434,827,0,0
217,197,0,0,0,0,0,0,0,0,0,-1,1441,827,0,0
224,197,0,0,0,0,0,0,0,0,0,-1,1448,827,0,0
231,197,0,0,0,0,0,0,0,0,0,-1,1455,827,0,0
238,197,0,0,0,0,0,0,0,0,0,-1,1462,827,0,0
245,197,0,0,0,0,0,0,0,0,0,-1,1469,827,0,0
252,197,0,0,0,0,0,0,0,0,0,-1,1476,827,0,0
259,197,0,0,0,0,0,0,0,0,0,-1,1483,827,0,0
266,197,0,0,0,0,0,0,0,0,0,-1,1490,827,0,0
273,197,0,0,0,0,0,0,0,0,0,-1,1497,827,0,0
280,197,0,0,0,0,0,0,0,0,0,-1,1504,827,0,0
287,197,0,0,0,0,0,0,0,0,0,-1,1511,827,0,0
294,197,0,0,0,0,0,0,0,0,0,-1,1518,827,0,0
301,197,0,0,0,0,0,0,0,0,0,-1,1525,827,0,0
308,197,0,0,0,0,0,0,0,0,0,-1,1532,827,0,0
315,197,0,0,0,0,0,0,0,0,0,-1,1539,827,0,0
322,197,0,0,0,0,0,0,0,0,0,-1,1546,827,0,0
329,197,0,0,0,0,0,0,0,0,0,-1,1553,827,0,0
336,197,0,0,0,0,0,0,0,0,0,-1,1560,827,0,0
343,197,0,0,0,0,0,0,0,0,0,-1,1567,827,0,0
350,197,0,0,0,0,0,0,0,0,0,-1,1574,827,0,0
357,197,0,0,0,0,0,0,0,0,0,-1,1581,827,0,0
364,197,0,0,0,0,0,0,0,0,0,-1,1588,827,0,0
371,197,0,0,0,0,0,0,0,0,0,-1,1595,827,0,0
378,197,0,0,0,0,0,0,0,0,0,-1,1602,827,0,0
385,197,0,0,0,0,0,0,0,0,0,-1,1609,827,0,0
392,197,0,0,0,0,0,0,0,0,0,-1,1616,827,0,0
399,197,0,0,0,0,0,0,0,0,0,-1,1623,827,0,0
406,197,0,0,0,0,0,0,0,0,0,-1,1630,827,0,0
413,197,0,0,0,0,0,0,0,0,0,-1,1637,827,0,0
420,197,0,0,0,0,0,0,0,0,0,-1,1644,827,0,0
427,197,0,0,0,0,0,0,0,0,0,-1,1651,827,0,0
434,197,0,0,0,0,0,0,0,0,0,-1,1658,827,0,0
441,197,0,0,0,0,0,0,0,0,0,-1,1665,827,0,0
448,197,0,0,0,0,0,0,0,0,0,-1,1672,827,0,0
455,197,0,0,0,0,0,0,0,0,0,-1,1679,827,0,0
462,197,0,0,0,0,0,0,0,0,0,-1,1686,827,0,0
469,197,0,0,0,0,0,0,0,0,0,-1,1693,827,0,0
476,197,0,0,0,0,0,0,0,0,0,-1,1700,827,0,0
483,197,0,0,0,0,0,0,0,0,0,-1,1707,827,0,0
490,197,0,0,0,0,0,0,0,0,0,-1,1714,827,0,0
497,197,0,0,0,0,0,0,0,0,0,-1,1721,827,0,0
504,197,0,0,0,0,0,0,0,0,0,-1,1728,827,0,0
511,197,0,0,0,0,0,0,0,0,0,-1,1735,827,0,0
518,197,0,0,0,0,0,0,0,0,0,-1,1742,827,0,0
525,197,0,0,0,0,0,0,0,0,0,-1,1749,827,0,0
532,197,0,0,0,0,0,0,0,0,0,-1,1756,827,0,0
539,197,0,0,0,0,0,0,0,0,0,-1,1763,827,0,0
546,197,0,0,0,0,0,0,0,0,0,-1,1770,827,0,0
553,197,0,0,0,0,0,0,0,0,0,-1,1777,827,0,0
560,197,0,0,0,0,0,0,0,0,0,-1,1784,827,0,0
567,197,0,0,0,0,0,0,0,0,0,-1,1791,827,0,0
574,197,0,0,0,0,0,0,0,0,0,-1,1798,827,0,0
581,197,0,0,0,0,0,0,0,0,0,-1,1805,827,0,0
588,197,0,0,0,0,0,0,0,0,0,-1,1812,827,0,0
595,197,0,0,0,0,0,0,0,0,0,-1,1819,827,0,0
602,197,21.8936,2.89752,0.00945024,-0.00299159,-0.00113801,0.00955347,-0.00309482,-0.0904661,0.00761323,0.0375358,1826,827,21.8936,-2.89752
609,197,21.9175,2.83881,0.00625018,0.000225396,-0.000119082,0.00625253,0.000223044,-0.0197551,0.00409603,0.0392453,1833,827,21.9175,-2.83882
616,197,22.0046,2.87042,0.0042398,0.00210811,-8.69476e-05,0.00424334,0.00210457,-0.040698,0.00244992,0.0396264,1840,827,22.0046,-2.87045
623,197,21.9619,2.74207,0.00271026,0.00335906,-0.000489383,0.00362179,0.00244752,-1.07808,0.00213368,0.0361315,1847,827,21.9619,-2.74204
630,197,22.0029,2.66968,0.00174237,0.00387043,-0.00102697,0.00428519,0.00132761,-1.18696,0.00253301,0.0288424,1854,827,22.0029,-2.66968
637,197,21.9685,2.77667,0.00121575,0.00381315,-0.0015349,0.00452506,0.00050384,-1.13651,0.00286357,0.026959,1861,827,21.9685,-2.77669
644,197,21.9232,2.84015,0.00100548,0.00345001,-0.00185901,0.00445257,2.91597e-06,-1.07621,0.00296741,0.0331301,1868,827,21.9232,-2.84012
651,197,22.299,2.95538,0.000893005,0.00282931,-0.00207568,0.00415152,-0.000429208,-1.00361,0.00292128,0.0408086,1875,827,22.2989,-2.95536
658,197,22.2531,2.78699,0,0,0,0,0,0,0,-1,1882,827,22.2531,-2.78699
665,197,14.0618,1.80304,0,0,0,0,0,0,0,-1,1889,827,14.0617,-1.80303
672,197,17.3923,1.87225,0,0,0,0,0,0,0,-1,1896,827,17.3923,-1.87224
679,197,17.4504,2.22198,0.000771185,0.000342842,-0.0022132,0.00278055,-0.00166652,-0.737163,0.00259423,0.0267164,1903,827,17.4505,-2.22196
686,197,17.4019,2.44904,0.00102402,-0.00022938,-0.00209135,0.00258055,-0.00178591,-0.639824,0.00253485,0.0153553,1910,827,17.4018,-2.44902
693,197,17.3896,2.71069,0.00139038,-0.000585581,-0.00206874,0.00269495,-0.00189015,-0.562624,0.00266077,0.0139929,1917,827,17.3897,-2.7107
700,197,17.4359,2.94794,0.00154817,-0.00101284,-0.00196618,0.00261406,-0.00207873,-0.496767,0.00271525,0.0207623,1924,827,17.436,-2.94793
707,197,17.4371,3.14227,0.00229345,-0.00098234,-0.00130779,0.0027515,-0.0014404,-0.3369,0.00245934,0.00892173,1931,827,17.4371,-3.14226
714,197,17.3938,3.34222,0.00459776,-0.00033733,-0.000350072,0.00462247,-0.000362038,-0.0704649,0.00320914,0.0109875,1938,827,17.3938,-3.34222
721,197,17.3824,3.53931,0.00826795,0.000712344,0.00082984,0.00835801,0.000622276,0.108114,0.0053766,0.0119702,1945,827,17.3824,-3.53932
728,197,17.3708,3.74109,0.012731,0.00243021,0.00178498,0.0130316,0.00212967,0.166808,0.00807203,0.0102837,1952,827,17.3709,-3.74109
735,197,17.3739,3.94733,0.017768,0.00437089,0.00282053,0.0183376,0.0038013,0.199267,0.0111756,0.0107387,1959,827,17.3739,-3.94731
742,197,17.4114,4.14203,0.0245599,0.00686999,0.00464125,0.0257036,0.00572623,0.241619,0.0155818,0.0195589,1966,827,17.4114,-4.14202
749,197,17.4369,4.32843,0.0328772,0.0103357,0.00702013,0.0348847,0.00832822,0.278531,0.0210373,0.0432329,1973,827,17.4369,-4.32842
756,197,17.4443,4.52753,0,0,0,0,0,0,0,-1,1980,827,17.4443,-4.52751
763,197,18.1411,4.85767,0.053596,0.021395,0.0132351,0.0583376,0.0166534,0.344016,0.0346993,0.0438309,1987,827,18.1412,-4.85765
770,197,18.6515,5.56921,0.0650325,0.0299045,0.01666,0.0716769,0.02326,0.379495,0.0422238,0.0442534,1994,827,18.6514,-5.56924
777,197,0,0,0,0,0,0,0,0,0,-1,2001,827,0,0
784,197,0,0,0,0,0,0,0,0,0,-1,2008,827,0,0
791,197,0,0,0,0,0,0,0,0,0,-1,2015,827,0,0
798,197,0,0,0,0,0,0,0,0,0,-1,2022,827,0,0
805,197,0,0,0,0,0,0,0,0,0,-1,2029,827,0,0
812,197,0,0,0,0,0,0,0,0,0,-1,2036,827,0,0
-700,190,0,0,0,0,0,0,0,0,0,-1,524,834,0,0
-693,190,0,0,0,0,0,0,0,0,0,-1,531,834,0,0
-686,190,0,0,0,0,0,0,0,0,0,-1,538,834,0,0
-679,190,0,0,0,0,0,0,0,0,0,-1,545,834,0,0
-672,190,0,0,0,0,0,0,0,0,0,-1,552,834,0,0
-665,190,0,0,0,0,0,0,0,0,0,-1,559,834,0,0
-658,190,-13.0889,4.46521,0,0,0,0,0,0,0,-1,566,834,-13.0889,-4.46523
-651,190,-6.49225,6.27222,0,0,0,0,0,0,0,-1,573,834,-6.49225,-6.27223
-644,190,-6.77814,5.60486,-0.0199964,0.0483887,-0.00888583,0.0495245,-0.0211321,-1.44367,0.0418771,0.0488217,580,834,-6.77816,-5.60487
-637,190,-7.07074,4.93616,-0.0192018,0.0451178,-0.0106679,0.046841,-0.0209249,-1.41065,0.040067,0.048376,587,834,-7.07075,-4.93617
-630,190,-7.60095,4.3548,-0.0176412,0.039253,-0.0111166,0.0413479,-0.0197362,-1.38453,0.0359952,0.0468916,594,834,-7.60093,-4.35477
-623,190,-8.05048,3.54095,-0.0155153,0.0323263,-0.0105054,0.0345314,-0.0177205,-1.36389,0.0306837,0.0468867,601,834,-8.0505,-3.54096
-616,190,-8.28894,2.37286,0,0,0,0,0,0,0,-1,608,834,-8.28894,-2.37285
-609,190,-10.8788,1.66455,-0.0105685,0.0198602,-0.00848655,0.0220671,-0.0127753,-1.31639,0.0203533,0.0241941,615,834,-10.8788,-1.66457
-602,190,-10.9569,1.5719,-0.00828999,0.0142401,-0.00671533,0.0160898,-0.0101397,-1.30202,0.015273,0.0161577,622,834,-10.9569,-1.57187
-595,190,-10.9774,1.42749,-0.00685245,0.00940773,-0.00384254,0.0102701,-0.00771477,-1.35004,0.0104184,0.0187777,629,834,-10.9774,-1.42746
-588,190,-10.9742,1.22571,-0.00569509,0.00443528,-0.00212967,0.00486478,-0.0061246,-1.37179,0.0063586,0.0150445,636,834,-10.9742,-1.2257
-581,190,-10.9586,1.03601,-0.00505413,0.00138702,-0.000925475,0.00151735,-0.00518447,-1.43088,0.00405779,0.00973779,643,834,-10.9586,-1.03598
-574,190,-10.9612,0.828857,-0.00482527,-0.000518393,0.000302461,-0.000497255,-0.00484641,1.50103,0.00307861,0.00936534,650,834,-10.9612,-0.828872
-567,190,-10.967,0.621826,-0.00507686,-0.00127574,0.00103965,-0.00100996,-0.00534264,1.32052,0.00327739,0.0120445,657,834,-10.967,-0.621821
-560,190,-11.0013,0.444458,-0.00583198,-0.00185378,0.00140121,-0.0014098,-0.00627597,1.26395,0.00380219,0.0201531,664,834,-11.0013,-0.444463
-553,190,-11.0082,0.269287,-0.00630065,-0.00185571,0.00145308,-0.00142285,-0.00673351,1.28127,0.00409791,0.0179392,671,834,-11.0082,-0.26926
-546,190,-10.9736,0.0456543,-0.00647562,-0.00191291,0.00165151,-0.00137787,-0.00701066,1.2575,0.0042889,0.0350725,678,834,-10.9736,-0.0456509
-539,190,-10.9194,-0.097229,0,0,0,0,0,0,0,-1,685,834,-10.9195,0.0972516
-532,190,-10.994,-0.181396,0,0,0,0,0,0,0,-1,692,834,-10.994,0.181381
-525,190,-14.2524,1.2644,0,0,0,0,0,0,0,-1,699,834,-14.2524,-1.26442
-518,190,-14.4501,0.999207,-0.00340923,-0.00123665,0.00176951,-0.000246599,-0.00439928,1.06068,0.0028542,0.0496952,706,834,-14.4501,-0.999178
-511,190,-14.551,0.777954,-0.00143861,-0.000647473,0.00180476,0.000804561,-0.00289064,0.893282,0.00224389,0.0437747,713,834,-14.551,-0.777963
-504,190,-14.7475,1.04266,0.00139222,0.000224469,0.00181125,0.00271138,-0.00109469,0.629476,0.00226255,0.0428574,720,834,-14.7475,-1.04268
-497,190,-14.6254,1.58521,0,0,0,0,0,0,0,-1,727,834,-14.6254,-1.58518
-490,190,-14.4609,1.38074,0,0,0,0,0,0,0,-1,734,834,-14.4609,-1.38075
-483,190,0,0,0,0,0,0,0,0,0,-1,741,834,0,0
-476,190,0,0,0,0,0,0,0,0,0,-1,748,834,0,0
-469,190,0,0,0,0,0,0,0,0,0,-1,755,834,0,0
-462,190,0,0,0,0,0,0,0,0,0,-1,762,834,0,0
-455,190,0,0,0,0,0,0,0,0,0,-1,769,834,0,0
-448,190,0,0,0,0,0,0,0,0,0,-1,776,834,0,0
-441,190,0,0,0,0,0,0,0,0,0,-1,783,834,0,0
-434,190,0,0,0,0,0,0,0,0,0,-1,790,834,0,0
-427,190,0,0,0,0,0,0,0,0,0,-1,797,834,0,0
-420,190,0,0,0,0,0,0,0,0,0,-1,804,834,0,0
-413,190,0,0,0,0,0,0,0,0,0,-1,811,834,0,0
-406,190,0,0,0,0,0,0,0,0,0,-1,818,834,0,0
-399,190,0,0,0,0,0,0,0,0,0,-1,825,834,0,0
-392,190,0,0,0,0,0,0,0,0,0,-1,832,834,0,0
-385,190,0,0,0,0,0,0,0,0,0,-1,839,834,0,0
-378,190,0,0,0,0,0,0,0,0,0,-1,846,834,0,0
-371,190,0,0,0,0,0,0,0,0,0,-1,853,834,0,0
-364,190,0,0,0,0,0,0,0,0,0,-1,860,834,0,0
-357,190,0,0,0,0,0,0,0,0,0,-1,867,834,0,0
-350,190,0,0,0,0,0,0,0,0,0,-1,874,834,0,0
-343,190,0,0,0,0,0,0,0,0,0,-1,881,834,0,0
-336,190,0,0,0,0,0,0,0,0,0,-1,888,834,0,0
-329,190,0,0,0,0,0,0,0,0,0,-1,895,834,0,0
-322,190,0,0,0,0,0,0,0,0,0,-1,902,834,0,0
-315,190,0,0,0,0,0,0,0,0,0,-1,909,834,0,0
-308,190,0,0,0,0,0,0,0,0,0,-1,916,834,0,0
-301,190,0,0,0,0,0,0,0,0,0,-1,923,834,0,0
-294,190,0,0,0,0,0,0,0,0,0,-1,930,834,0,0
-287,190,0,0,0,0,0,0,0,0,0,-1,937,834,0,0
-280,190,0,0,0,0,0,0,0,0,0,-1,944,834,0,0
-273,190,0,0,0,0,0,0,0,0,0,-1,951,834,0,0
-266,190,0,0,0,0,0,0,0,0,0,-1,958,834,0,0
-259,190,0,0,0,0,0,0,0,0,0,-1,965,834,0,0
-252,190,0,0,0,0,0,0,0,0,0,-1,972,834,0,0
-245,190,0,0,0,0,0,0,0,0,0,-1,979,834,0,0
-238,190,0,0,0,0,0,0,0,0,0,-1,986,834,0,0
-231,190,0,0,0,0,0,0,0,0,0,-1,993,834,0,0
-224,190,0,0,0,0,0,0,0,0,0,-1,1000,834,0,0
-217,190,0,0,0,0,0,0,0,0,0,-1,1007,834,0,0
-210,190,0,0,0,0,0,0,0,0,0,-1,1014,834,0,0
-203,190,0,0,0,0,0,0,0,0,0,-1,1021,834,0,0
-196,190,0,0,0,0,0,0,0,0,0,-1,1028,834,0,0
-189,190,0,0,0,0,0,0,0,0,0,-1,1035,834,0,0
-182,190,0,0,0,0,0,0,0,0,0,-1,1042,834,0,0
-175,190,0,0,0,0,0,0,0,0,0,-1,1049,834,0,0
-168,190,0,0,0,0,0,0,0,0,0,-1,1056,834,0,0
-161,190,0,0,0,0,0,0,0,0,0,-1,1063,834,0,0
-154,190,0,0,0,0,0,0,0,0,0,-1,1070,834,0,0
-147,190,0,0,0,0,0,0,0,0,0,-1,1077,834,0,0
-140,190,0,0,0,0,0,0,0,0,0,-1,1084,834,0,0
-133,190,0,0,0,0,0,0,0,0,0,-1,1091,834,0,0
-126,190,0,0,0,0,0,0,0,0,0,-1,1098,834,0,0
-119,190,0,0,0,0,0,0,0,0,0,-1,1105,834,0,0
-112,190,0,0,0,0,0,0,0,0,0,-1,1112,834,0,0
-105,190,0,0,0,0,0,0,0,0,0,-1,1119,834,0,0
-98,190,0,0,0,0,0,0,0,0,0,-1,1126,834,0,0
-91,190,0,0,0,0,0,0,0,0,0,-1,1133,834,0,0
-84,190,0,0,0,0,0,0,0,0,0,-1,1140,834,0,0
-77,190,0,0,0,0,0,0,0,0,0,-1,1147,834,0,0
-70,190,0,0,0,0,0,0,0,0,0,-1,1154,834,0,0
-63,190,0,0,0,0,0,0,0,0,0,-1,1161,834,0,0
-56,190,0,0,0,0,0,0,0,0,0,-1,1168,834,0,0
-49,190,0,0,0,0,0,0,0,0,0,-1,1175,834,0,0
-42,190,0,0,0,0,0,0,0,0,0,-1,1182,834,0,0
-35,190,0,0,0,0,0,0,0,0,0,-1,1189,834,0,0
-28,190,0,0,0,0,0,0,0,0,0,-1,1196,834,0,0
-21,190,0,0,0,0,0,0,0,0,0,-1,1203,834,0,0
-14,190,0,0,0,0,0,0,0,0,0,-1,1210,834,0,0
-7,190,0,0,0,0,0,0,0,0,0,-1,1217,834,0,0
0,190,0,0,0,0,0,0,0,0,0,-1,1224,834,0,0
7,190,0,0,0,0,0,0,0,0,0,-1,1231,834,0,0
14,190,0,0,0,0,0,0,0,0,0,-1,1238,834,0,0
21,190,0,0,0,0,0,0,0,0,0,-1,1245,834,0,0
28,190,0,0,0,0,0,0,0,0,0,-1,1252,834,0,0
35,190,0,0,0,0,0,0,0,0,0,-1,1259,834,0,0
42,190,0,0,0,0,0,0,0,0,0,-1,1266,834,0,0
49,190,0,0,0,0,0,0,0,0,0,-1,1273,834,0,0
56,190,0,0,0,0,0,0,0,0,0,-1,1280,834,0,0
63,190,0,0,0,0,0,0,0,0,0,-1,1287,834,0,0
70,190,0,0,0,0,0,0,0,0,0,-1,1294,834,0,0
77,190,0,0,0,0,0,0,0,0,0,-1,1301,834,0,0
84,190,0,0,0,0,0,0,0,0,0,-1,1308,834,0,0
91,190,0,0,0,0,0,0,0,0,0,-1,1315,834,0,0
98,190,0,0,0,0,0,0,0,0,0,-1,1322,834,0,0
105,190,0,0,0,0,0,0,0,0,0,-1,1329,834,0,0
112,190,0,0,0,0,0,0,0,0,0,-1,1336,834,0,0
119,190,0,0,0,0,0,0,0,0,0,-1,1343,834,0,0
126,190,0,0,0,0,0,0,0,0,0,-1,1350,834,0,0
133,190,0,0,0,0,0,0,0,0,0,-1,1357,834,0,0
140,190,0,0,0,0,0,0,0,0,0,-1,1364,834,0,0
147,190,0,0,0,0,0,0,0,0,0,-1,1371,834,0,0
154,190,0,0,0,0,0,0,0,0,0,-1,1378,834,0,0
161,190,0,0,0,0,0,0,0,0,0,-1,1385,834,0,0
168,190,0,0,0,0,0,0,0,0,0,-1,1392,834,0,0
175,190,0,0,0,0,0,0,0,0,0,-1,1399,834,0,0
182,190,0,0,0,0,0,0,0,0,0,-1,1406,834,0,0
189,190,0,0,0,0,0,0,0,0,0,-1,1413,834,0,0
196,190,0,0,0,0,0,0,0,0,0,-1,1420,834,0,0
203,190,0,0,0,0,0,0,0,0,0,-1,1427,834,0,0
210,190,0,0,0,0,0,0,0,0,0,-1,1434,834,0,0
217,190,0,0,0,0,0,0,0,0,0,-1,1441,834,0,0
224,190,0,0,0,0,0,0,0,0,0,-1,1448,834,0,0
231,190,0,0,0,0,0,0,0,0,0,-1,1455,834,0,0
238,190,0,0,0,0,0,0,0,0,0,-1,1462,834,0,0
245,190,0,0,0,0,0,0,0,0,0,-1,1469,834,0,0
252,190,0,0,0,0,0,0,0,0,0,-1,1476,834,0,0
259,190,0,0,0,0,0,0,0,0,0,-1,1483,834,0,0
266,190,0,0,0,0,0,0,0,0,0,-1,1490,834,0,0
273,190,0,0,0,0,0,0,0,0,0,-1,1497,834,0,0
280,190,0,0,0,0,0,0,0,0,0,-1,1504,834,0,0
287,190,0,0,0,0,0,0,0,0,0,-1,1511,834,0,0
294,190,0,0,0,0,0,0,0,0,0,-1,1518,834,0,0
301,190,0,0,0,0,0,0,0,0,0,-1,1525,834,0,0
308,190,0,0,0,0,0,0,0,0,0,-1,1532,834,0,0
315,190,0,0,0,0,0,0,0,0,0,-1,1539,834,0,0
322,190,0,0,0,0,0,0,0,0,0,-1,1546,834,0,0
329,190,0,0,0,0,0,0,0,0,0,-1,1553,834,0,0
336,190,0,0,0,0,0,0,0,0,0,-1,1560,834,0,0
343,190,0,0,0,0,0,0,0,0,0,-1,1567,834,0,0
350,190,0,0,0,0,0,0,0,0,0,-1,1574,834,0,0
357,190,0,0,0,0,0,0,0,0,0,-1,1581,834,0,0
364,190,0,0,0,0,0,0,0,0,0,-1,1588,834,0,0
371,190,0,0,0,0,0,0,0,0,0,-1,1595,834,0,0
378,190,0,0,0,0,0,0,0,0,0,-1,1602,834,0,0
385,190,0,0,0,0,0,0,0,0,0,-1,1609,834,0,0
392,190,0,0,0,0,0,0,0,0,0,-1,1616,834,0,0
399,190,0,0,0,0,0,0,0,0,0,-1,1623,834,0,0
406,190,0,0,0,0,0,0,0,0,0,-1,1630,834,0,0
413,190,0,0,0,0,0,0,0,0,0,-1,1637,834,0,0
420,190,0,0,0,0,0,0,0,0,0,-1,1644,834,0,0
427,190,0,0,0,0,0,0,0,0,0,-1,1651,834,0,0
434,190,0,0,0,0,0,0,0,0,0,-1,1658,834,0,0
441,190,0,0,0,0,0,0,0,0,0,-1,1665,834,0,0
448,190,0,0,0,0,0,0,0,0,0,-1,1672,834,0,0
455,190,0,0,0,0,0,0,0,0,0,-1,1679,834,0,0
462,190,0,0,0,0,0,0,0,0,0,-1,1686,834,0,0
469,190,0,0,0,0,0,0,0,0,0,-1,1693,834,0,0
476,190,0,0,0,0,0,0,0,0,0,-1,1700,834,0,0
483,190,0,0,0,0,0,0,0,0,0,-1,1707,834,0,0
490,190,0,0,0,0,0,0,0,0,0,-1,1714,834,0,0
497,190,0,0,0,0,0,0,0,0,0,-1,1721,834,0,0
504,190,0,0,0,0,0,0,0,0,0,-1,1728,834,0,0
511,190,0,0,0,0,0,0,0,0,0,-1,1735,834,0,0
518,190,0,0,0,0,0,0,0,0,0,-1,1742,834,0,0
525,190,0,0,0,0,0,0,0,0,0,-1,1749,834,0,0
532,190,0,0,0,0,0,0,0,0,0,-1,1756,834,0,0
539,190,0,0,0,0,0,0,0,0,0,-1,1763,834,0,0
546,190,0,0,0,0,0,0,0,0,0,-1,1770,834,0,0
553,190,0,0,0,0,0,0,0,0,0,-1,1777,834,0,0
560,190,0,0,0,0,0,0,0,0,0,-1,1784,834,0,0
567,190,0,0,0,0,0,0,0,0,0,-1,1791,834,0,0
574,190,0,0,0,0,0,0,0,0,0,-1,1798,834,0,0
581,190,0,0,0,0,0,0,0,0,0,-1,1805,834,0,0
588,190,0,0,0,0,0,0,0,0,0,-1,1812,834,0,0
595,190,0,0,0,0,0,0,0,0,0,-1,1819,834,0,0
602,190,21.964,2.79401,0.0105039,-0.0034087,-0.000453987,0.0105187,-0.0034235,-0.0325852,0.00838976,0.0399707,1826,834,21.964,-2.79398
609,190,21.9263,2.84949,0.00680786,-0.000199672,0.000458935,0.00683779,-0.000229601,0.065121,0.00463695,0.0385817,1833,834,21.9263,-2.84949
616,190,22.0605,2.88226,0.00472267,0.00163904,0.000372001,0.00476691,0.0015948,0.118375,0.00280195,0.0390169,1840,834,22.0606,-2.88229
623,190,22.0334,2.66437,0.00314767,0.00288192,-0.000130029,0.00320071,0.00282888,-0.38728,0.0020213,0.0395621,1847,834,22.0335,-2.66436
630,190,22.0629,2.46234,0.00217711,0.00344176,-0.00072809,0.00377377,0.00184509,-1.14296,0.00217897,0.0418534,1854,834,22.0629,-2.46233
637,190,22.03,2.60468,0.00166286,0.00337999,-0.00128014,0.00406282,0.000980029,-1.08079,0.00244815,0.0358935,1861,834,22.03,-2.60469
644,190,21.9423,2.79053,0.00149033,0.00300256,-0.00163369,0.00404663,0.000446267,-1.00213,0.00256198,0.0285401,1868,834,21.9423,-2.79052
651,190,21.98,2.84076,0.00141889,0.00239154,-0.00184786,0.003816,-5.56838e-06,-0.914072,0.00254586,0.0387123,1875,834,21.98,-2.84075
658,190,22.2933,2.633,0.00135249,0.00176249,-0.00200579,0.00357373,-0.000458742,-0.836323,0.0025492,0.0459985,1882,834,22.2933,-2.633
665,190,22.7227,2.31061,0,0,0,0,0,0,0,-1,1889,834,22.7226,-2.31059
672,190,17.8745,2.25403,0,0,0,0,0,0,0,-1,1896,834,17.8745,-2.254
679,190,17.6986,2.42041,0.00104064,0.00014934,-0.00195703,0.00260212,-0.00141214,-0.673448,0.00235133,0.0336634,1903,834,17.6986,-2.42043
686,190,17.5858,2.50354,0.0011942,-0.000291519,-0.00188119,0.00247389,-0.00157121,-0.597352,0.00235474,0.0138686,1910,834,17.5858,-2.50356
693,190,17.6133,2.68964,0.00145774,-0.000569858,-0.00190191,0.00259918,-0.0017113,-0.540533,0.00250619,0.0117321,1917,834,17.6133,-2.68963
700,190,17.6278,2.92255,0.00150891,-0.000900146,-0.0018315,0.00249648,-0.00188771,-0.494522,0.00253933,0.0107036,1924,834,17.6278,-2.92252
707,190,17.6228,3.12958,0.00195356,-0.000900808,-0.00126942,0.00243642,-0.00138367,-0.363481,0.00223328,0.012904,1931,834,17.6228,-3.12958
714,190,17.6261,3.33142,0.0037499,-0.000263702,-0.000497503,0.00381065,-0.00032445,-0.121505,0.0026552,0.0115611,1938,834,17.6261,-3.33142
721,190,17.616,3.53607,0.00695605,0.000774553,0.000424446,0.00698506,0.000745545,0.0682371,0.00442916,0.0110328,1945,834,17.616,-3.53609
728,190,17.6185,3.72296,0.0108911,0.00246281,0.000970997,0.0110015,0.00235239,0.113231,0.00668952,0.0128615,1952,834,17.6186,-3.72295
735,190,17.6268,3.91681,0.0152005,0.00441295,0.00140887,0.0153815,0.00423199,0.127747,0.00917499,0.011833,1959,834,17.6268,-3.91684
742,190,17.6202,4.17969,0.0210267,0.00688612,0.0024939,0.0214536,0.00645917,0.169552,0.0127088,0.0150297,1966,834,17.6203,-4.17966
749,190,17.6063,4.47632,0.027941,0.0102427,0.00380179,0.0287231,0.00946058,0.20289,0.0169021,0.0376763,1973,834,17.6063,-4.47629
756,190,17.6399,4.56427,0.0359478,0.0147837,0.00530712,0.037204,0.0135275,0.232433,0.0217445,0.0473817,1980,834,17.6399,-4.56424
763,190,18.1323,4.65253,0.0446802,0.0208509,0.00681024,0.0464892,0.0190419,0.259633,0.0269864,0.0442341,1987,834,18.1323,-4.65254
770,190,18.5822,5.26862,0.053498,0.0288805,0.00800199,0.0558704,0.026508,0.288225,0.0322708,0.0436961,1994,834,18.5822,-5.26861
777,190,19.0981,5.76569,0.0614516,0.0394095,0.00833246,0.0642469,0.0366142,0.323682,0.0372136,0.0442422,2001,834,19.0982,-5.76569
784,190,0,0,0,0,0,0,0,0,0,-1,2008,834,0,0
791,190,0,0,0,0,0,0,0,0,0,-1,2015,834,0,0
798,190,0,0,0,0,0,0,0,0,0,-1,2022,834,0,0
805,190,0,0,0,0,0,0,0,0,0,-1,2029,834,0,0
812,190,0,0,0,0,0,0,0,0,0,-1,2036,834,0,0
-700,183,0,0,0,0,0,0,0,0,0,-1,524,841,0,0
-693,183,0,0,0,0,0,0,0,0,0,-1,531,841,0,0
-686,183,0,0,0,0,0,0,0,0,0,-1,538,841,0,0
-679,183,0,0,0,0,0,0,0,0,0,-1,545,841,0,0
-672,183,0,0,0,0,0,0,0,0,0,-1,552,841,0,0
-665,183,0,0,0,0,0,0,0,0,0,-1,559,841,0,0
-658,183,-14.9835,2.93585,0,0,0,0,0,0,0,-1,566,841,-14.9834,-2.93582
-651,183,-6.31714,7.32794,0,0,0,0,0,0,0,-1,573,841,-6.31717,-7.32796
-644,183,-6.27167,6.57019,-0.0160348,0.0480612,0.00416012,0.0483301,-0.0163036,1.50625,0.0388133,0.0438318,580,841,-6.27168,-6.57017
-637,183,-6.33984,5.95026,-0.0157601,0.0452319,0.000240993,0.0452329,-0.015761,1.56685,0.0365595,0.0459665,587,841,-6.33987,-5.95027
-630,183,-6.7691,5.37854,-0.0150012,0.0396819,-0.00231684,0.0397798,-0.0150992,-1.52853,0.0327351,0.0452147,594,841,-6.76913,-5.37857
-623,183,-8.24658,4.21832,-0.0137054,0.0328694,-0.00363583,0.0331515,-0.0139876,-1.49336,0.0279554,0.0482372,601,841,-8.24659,-4.21834
-616,183,-11.1332,1.87164,-0.0121976,0.0263097,-0.00430815,0.0267858,-0.0126737,-1.46073,0.0232626,0.039308,608,841,-11.1332,-1.87162
-609,183,-11.1183,1.73975,-0.0101975,0.0205949,-0.00477238,0.0213176,-0.0109202,-1.42051,0.0189324,0.0164455,615,841,-11.1183,-1.73975
-602,183,-11.144,1.58197,-0.00846296,0.0146598,-0.00396653,0.0153213,-0.00912446,-1.40555,0.0142641,0.0112063,622,841,-11.144,-1.58198
-595,183,-11.1712,1.39893,-0.00748198,0.00956477,-0.00182569,0.0097581,-0.00767531,-1.46529,0.0100891,0.0110038,629,841,-11.1712,-1.39895
-588,183,-11.1627,1.20929,-0.00667472,0.00433259,-0.000675872,0.00437394,-0.00671606,-1.5097,0.00645023,0.0105361,636,841,-11.1627,-1.20928
-581,183,-11.1653,1.01929,-0.00634557,0.0012182,0.000134215,0.00122058,-0.00634795,1.55306,0.00469205,0.0101306,643,841,-11.1653,-1.01926
-574,183,-11.1583,0.845337,-0.00627187,-0.000497678,0.00114149,-0.000280209,-0.00648934,1.38254,0.00423591,0.0103856,650,841,-11.1583,-0.845352
-567,183,-11.1241,0.659058,-0.00653527,-0.00131042,0.00164329,-0.000836554,-0.00700913,1.29005,0.00442037,0.0175639,657,841,-11.1241,-0.659053
-560,183,-11.2189,0.505432,-0.00717339,-0.00181191,0.00184593,-0.00123783,-0.00774747,1.26928,0.0048058,0.0218733,664,841,-11.219,-0.505422
-553,183,-11.1456,0.239258,-0.0075642,-0.00189348,0.00188128,-0.00132612,-0.00813156,1.27789,0.00503752,0.0180505,671,841,-11.1456,-0.239269
-546,183,-11.0355,0.0556641,-0.00759632,-0.0018502,0.00197422,-0.00123729,-0.00820924,1.26977,0.00511057,0.0430037,678,841,-11.0355,-0.0556672
-539,183,-10.691,-0.143066,0,0,0,0,0,0,0,-1,685,841,-10.691,0.14309
-532,183,-14.4158,0.791626,0,0,0,0,0,0,0,-1,692,841,-14.4158,-0.791642
-525,183,-14.3747,1.13593,0,0,0,0,0,0,0,-1,699,841,-14.3747,-1.13595
-518,183,-14.4864,0.85321,-0.00391952,-0.000873853,0.00189489,3.42862e-05,-0.00482765,1.12388,0.00322993,0.0483962,706,841,-14.4864,-0.853189
-511,183,-14.525,0.639709,-0.00149607,-0.0001539,0.00192561,0.00121422,-0.00286419,0.953069,0.00241805,0.0415477,713,841,-14.525,-0.639738
-504,183,-14.5616,1.04034,0.00201008,0.00092687,0.00193539,0.00347822,-0.000541268,0.648966,0.0025187,0.0406678,720,841,-14.5617,-1.04034
-497,183,-14.4234,1.40393,0.00680617,0.00253209,0.00195799,0.00756752,0.00177074,0.370851,0.00457057,0.0424411,727,841,-14.4234,-1.40395
-490,183,-14.4212,1.32867,0.0117762,0.00489065,0.00227348,0.0124591,0.00420772,0.291814,0.00731847,0.0407887,734,841,-14.4212,-1.32868
-483,183,0,0,0,0,0,0,0,0,0,-1,741,841,0,0
-476,183,0,0,0,0,0,0,0,0,0,-1,748,841,0,0
-469,183,0,0,0,0,0,0,0,0,0,-1,755,841,0,0
-462,183,0,0,0,0,0,0,0,0,0,-1,762,841,0,0
-455,183,0,0,0,0,0,0,0,0,0,-1,769,841,0,0
-448,183,0,0,0,0,0,0,0,0,0,-1,776,841,0,0
-441,183,0,0,0,0,0,0,0,0,0,-1,783,841,0,0
-434,183,0,0,0,0,0,0,0,0,0,-1,790,841,0,0
-427,183,0,0,0,0,0,0,0,0,0,-1,797,841,0,0
-420,183,0,0,0,0,0,0,0,0,0,-1,804,841,0,0
-413,183,0,0,0,0,0,0,0,0,0,-1,811,841,0,0
-406,183,0,0,0,0,0,0,0,0,0,-1,818,841,0,0
-399,183,0,0,0,0,0,0,0,0,0,-1,825,841,0,0
-392,183,0,0,0,0,0,0,0,0,0,-1,832,841,0,0
-385,183,0,0,0,0,0,0,0,0,0,-1,839,841,0,0
-378,183,0,0,0,0,0,0,0,0,0,-1,846,841,0,0
-371,183,0,0,0,0,0,0,0,0,0,-1,853,841,0,0
-364,183,0,0,0,0,0,0,0,0,0,-1,860,841,0,0
-357,183,0,0,0,0,0,0,0,0,0,-1,867,841,0,0
-350,183,0,0,0,0,0,0,0,0,0,-1,874,841,0,0
-343,183,0,0,0,0,0,0,0,0,0,-1,881,841,0,0
-336,183,0,0,0,0,0,0,0,0,0,-1,888,841,0,0
-329,183,0,0,0,0,0,0,0,0,0,-1,895,841,0,0
-322,183,0,0,0,0,0,0,0,0,0,-1,902,841,0,0
-315,183,0,0,0,0,0,0,0,0,0,-1,909,841,0,0
-308,183,0,0,0,0,0,0,0,0,0,-1,916,841,0,0
-301,183,0,0,0,0,0,0,0,0,0,-1,923,841,0,0
-294,183,0,0,0,0,0,0,0,0,0,-1,930,841,0,0
-287,183,0,0,0,0,0,0,0,0,0,-1,937,841,0,0
-280,183,0,0,0,0,0,0,0,0,0,-1,944,841,0,0
-273,183,0,0,0,0,0,0,0,0,0,-1,951,841,0,0
-266,183,0,0,0,0,0,0,0,0,0,-1,958,841,0,0
-259,183,0,0,0,0,0,0,0,0,0,-1,965,841,0,0
-252,183,0,0,0,0,0,0,0,0,0,-1,972,841,0,0
-245,183,0,0,0,0,0,0,0,0,0,-1,979,841,0,0
-238,183,0,0,0,0,0,0,0,0,0,-1,986,841,0,0
-231,183,0,0,0,0,0,0,0,0,0,-1,993,841,0,0
-224,183,0,0,0,0,0,0,0,0,0,-1,1000,841,0,0
-217,183,0,0,0,0,0,0,0,0,0,-1,1007,841,0,0
-210,183,0,0,0,0,0,0,0,0,0,-1,1014,841,0,0
-203,183,0,0,0,0,0,0,0,0,0,-1,1021,841,0,0
-196,183,0,0,0,0,0,0,0,0,0,-1,1028,841,0,0
-189,183,0,0,0,0,0,0,0,0,0,-1,1035,841,0,0
-182,183,0,0,0,0,0,0,0,0,0,-1,1042,841,0,0
-175,183,0,0,0,0,0,0,0,0,0,-1,1049,841,0,0
-168,183,0,0,0,0,0,0,0,0,0,-1,1056,841,0,0
-161,183,0,0,0,0,0,0,0,0,0,-1,1063,841,0,0
-154,183,0,0,0,0,0,0,0,0,0,-1,1070,841,0,0
-147,183,0,0,0,0,0,0,0,0,0,-1,1077,841,0,0
-140,183,0,0,0,0,0,0,0,0,0,-1,1084,841,0,0
-133,183,0,0,0,0,0,0,0,0,0,-1,1091,841,0,0
-126,183,0,0,0,0,0,0,0,0,0,-1,1098,841,0,0
-119,183,0,0,0,0,0,0,0,0,0,-1,1105,841,0,0
-112,183,0,0,0,0,0,0,0,0,0,-1,1112,841,0,0
-105,183,0,0,0,0,0,0,0,0,0,-1,1119,841,0,0
-98,183,0,0,0,0,0,0,0,0,0,-1,1126,841,0,0
-91,183,0,0,0,0,0,0,0,0,0,-1,1133,841,0,0
-84,183,0,0,0,0,0,0,0,0,0,-1,1140,841,0,0
-77,183,0,0,0,0,0,0,0,0,0,-1,1147,841,0,0
-70,183,0,0,0,0,0,0,0,0,0,-1,1154,841,0,0
-63,183,0,0,0,0,0,0,0,0,0,-1,1161,841,0,0
-56,183,0,0,0,0,0,0,0,0,0,-1,1168,841,0,0
-49,183,0,0,0,0,0,0,0,0,0,-1,1175,841,0,0
-42,183,0,0,0,0,0,0,0,0,0,-1,1182,841,0,0
-35,183,0,0,0,0,0,0,0,0,0,-1,1189,841,0,0
-28,183,0,0,0,0,0,0,0,0,0,-1,1196,841,0,0
-21,183,0,0,0,0,0,0,0,0,0,-1,1203,841,0,0
-14,183,0,0,0,0,0,0,0,0,0,-1,1210,841,0,0
-7,183,0,0,0,0,0,0,0,0,0,-1,1217,841,0,0
0,183,0,0,0,0,0,0,0,0,0,-1,1224,841,0,0
7,183,0,0,0,0,0,0,0,0,0,-1,1231,841,0,0
14,183,0,0,0,0,0,0,0,0,0,-1,1238,841,0,0
21,183,0,0,0,0,0,0,0,0,0,-1,1245,841,0,0
28,183,0,0,0,0,0,0,0,0,0,-1,1252,841,0,0
35,183,0,0,0,0,0,0,0,0,0,-1,1259,841,0,0
42,183,0,0,0,0,0,0,0,0,0,-1,1266,841,0,0
49,183,0,0,0,0,0,0,0,0,0,-1,1273,841,0,0
56,183,0,0,0,0,0,0,0,0,0,-1,1280,841,0,0
63,183,0,0,0,0,0,0,0,0,0,-1,1287,841,0,0
70,183,0,0,0,0,0,0,0,0,0,-1,1294,841,0,0
77,183,0,0,0,0,0,0,0,0,0,-1,1301,841,0,0
84,183,0,0,0,0,0,0,0,0,0,-1,1308,841,0,0
91,183,0,0,0,0,0,0,0,0,0,-1,1315,841,0,0
98,183,0,0,0,0,0,0,0,0,0,-1,1322,841,0,0
105,183,0,0,0,0,0,0,0,0,0,-1,1329,841,0,0
112,183,0,0,0,0,0,0,0,0,0,-1,1336,841,0,0
119,183,0,0,0,0,0,0,0,0,0,-1,1343,841,0,0
126,183,0,0,0,0,0,0,0,0,0,-1,1350,841,0,0
133,183,0,0,0,0,0,0,0,0,0,-1,1357,841,0,0
140,183,0,0,0,0,0,0,0,0,0,-1,1364,841,0,0
147,183,0,0,0,0,0,0,0,0,0,-1,1371,841,0,0
154,183,0,0,0,0,0,0,0,0,0,-1,1378,841,0,0
161,183,0,0,0,0,0,0,0,0,0,-1,1385,841,0,0
168,183,0,0,0,0,0,0,0,0,0,-1,1392,841,0,0
175,183,0,0,0,0,0,0,0,0,0,-1,1399,841,0,0
182,183,0,0,0,0,0,0,0,0,0,-1,1406,841,0,0
189,183,0,0,0,0,0,0,0,0,0,-1,1413,841,0,0
196,183,0,0,0,0,0,0,0,0,0,-1,1420,841,0,0
203,183,0,0,0,0,0,0,0,0,0,-1,1427,841,0,0
210,183,0,0,0,0,0,0,0,0,0,-1,1434,841,0,0
217,183,0,0,0,0,0,0,0,0,0,-1,1441,841,0,0
224,183,0,0,0,0,0,0,0,0,0,-1,1448,841,0,0
231,183,0,0,0,0,0,0,0,0,0,-1,1455,841,0,0
238,183,0,0,0,0,0,0,0,0,0,-1,1462,841,0,0
245,183,0,0,0,0,0,0,0,0,0,-1,1469,841,0,0
252,183,0,0,0,0,0,0,0,0,0,-1,1476,841,0,0
259,183,0,0,0,0,0,0,0,0,0,-1,1483,841,0,0
266,183,0,0,0,0,0,0,0,0,0,-1,1490,841,0,0
273,183,0,0,0,0,0,0,0,0,0,-1,1497,841,0,0
280,183,0,0,0,0,0,0,0,0,0,-1,1504,841,0,0
287,183,0,0,0,0,0,0,0,0,0,-1,1511,841,0,0
294,183,0,0,0,0,0,0,0,0,0,-1,1518,841,0,0
301,183,0,0,0,0,0,0,0,0,0,-1,1525,841,0,0
308,183,0,0,0,0,0,0,0,0,0,-1,1532,841,0,0
315,183,0,0,0,0,0,0,0,0,0,-1,1539,841,0,0
322,183,0,0,0,0,0,0,0,0,0,-1,1546,841,0,0
329,183,0,0,0,0,0,0,0,0,0,-1,1553,841,0,0
336,183,0,0,0,0,0,0,0,0,0,-1,1560,841,0,0
343,183,0,0,0,0,0,0,0,0,0,-1,1567,841,0,0
350,183,0,0,0,0,0,0,0,0,0,-1,1574,841,0,0
357,183,0,0,0,0,0,0,0,0,0,-1,1581,841,0,0
364,183,0,0,0,0,0,0,0,0,0,-1,1588,841,0,0
371,183,0,0,0,0,0,0,0,0,0,-1,1595,841,0,0
378,183,0,0,0,0,0,0,0,0,0,-1,1602,841,0,0
385,183,0,0,0,0,0,0,0,0,0,-1,1609,841,0,0
392,183,0,0,0,0,0,0,0,0,0,-1,1616,841,0,0
399,183,0,0,0,0,0,0,0,0,0,-1,1623,841,0,0
406,183,0,0,0,0,0,0,0,0,0,-1,1630,841,0,0
413,183,0,0,0,0,0,0,0,0,0,-1,1637,841,0,0
420,183,0,0,0,0,0,0,0,0,0,-1,1644,841,0,0
427,183,0,0,0,0,0,0,0,0,0,-1,1651,841,0,0
434,183,0,0,0,0,0,0,0,0,0,-1,1658,841,0,0
441,183,0,0,0,0,0,0,0,0,0,-1,1665,841,0,0
448,183,0,0,0,0,0,0,0,0,0,-1,1672,841,0,0
455,183,0,0,0,0,0,0,0,0,0,-1,1679,841,0,0
462,183,0,0,0,0,0,0,0,0,0,-1,1686,841,0,0
469,183,0,0,0,0,0,0,0,0,0,-1,1693,841,0,0
476,183,0,0,0,0,0,0,0,0,0,-1,1700,841,0,0
483,183,0,0,0,0,0,0,0,0,0,-1,1707,841,0,0
490,183,0,0,0,0,0,0,0,0,0,-1,1714,841,0,0
497,183,0,0,0,0,0,0,0,0,0,-1,1721,841,0,0
504,183,0,0,0,0,0,0,0,0,0,-1,1728,841,0,0
511,183,0,0,0,0,0,0,0,0,0,-1,1735,841,0,0
518,183,0,0,0,0,0,0,0,0,0,-1,1742,841,0,0
525,183,0,0,0,0,0,0,0,0,0,-1,1749,841,0,0
532,183,0,0,0,0,0,0,0,0,0,-1,1756,841,0,0
539,183,0,0,0,0,0,0,0,0,0,-1,1763,841,0,0
546,183,0,0,0,0,0,0,0,0,0,-1,1770,841,0,0
553,183,0,0,0,0,0,0,0,0,0,-1,1777,841,0,0
560,183,0,0,0,0,0,0,0,0,0,-1,1784,841,0,0
567,183,0,0,0,0,0,0,0,0,0,-1,1791,841,0,0
574,183,0,0,0,0,0,0,0,0,0,-1,1798,841,0,0
581,183,0,0,0,0,0,0,0,0,0,-1,1805,841,0,0
588,183,0,0,0,0,0,0,0,0,0,-1,1812,841,0,0
595,183,0,0,0,0,0,0,0,0,0,-1,1819,841,0,0
602,183,0,0,0,0,0,0,0,0,0,-1,1826,841,0,0
609,183,21.8108,2.94537,0.00723051,-0.000663775,0.000992745,0.00735344,-0.000786704,0.123199,0.00518446,0.0412226,1833,841,21.8108,-2.94535
616,183,21.9851,2.93573,0.00511107,0.000899301,0.000938665,0.0053108,0.000699575,0.20965,0.00333191,0.0394523,1840,841,21.9851,-2.93575
623,183,22.1223,2.88983,0.00350475,0.00199885,0.000443964,0.0036259,0.00187771,0.266381,0.00209386,0.0429514,1847,841,22.1223,-2.88982
630,183,22.0836,2.75922,0.00251771,0.00261125,-0.000173824,0.00274449,0.00238447,-0.916828,0.00172224,0.0427528,1854,841,22.0837,-2.75919
637,183,22.0022,2.71533,0.00199672,0.0026202,-0.000772122,0.00314114,0.00147578,-0.977265,0.00181464,0.036978,1861,841,22.0022,-2.71535
644,183,21.8252,2.84534,0.00182949,0.00231566,-0.00118042,0.00327776,0.000867388,-0.886945,0.00196107,0.0302446,1868,841,21.8252,-2.84533
651,183,21.8853,2.82336,0.00175574,0.00180663,-0.00144114,0.00322254,0.000339817,-0.794225,0.00204453,0.0271066,1875,841,21.8852,-2.82334
658,183,22.2493,2.5094,0.00167768,0.00128239,-0.0016221,0.00311414,-0.000154062,-0.724774,0.0021293,0.0426618,1882,841,22.2493,-2.50941
665,183,22.6012,2.19373,0,0,0,0,0,0,0,-1,1889,841,22.6012,-2.19371
672,183,17.8065,2.39734,0,0,0,0,0,0,0,-1,1896,841,17.8065,-2.39732
679,183,17.8378,2.44495,0.00117229,3.98529e-06,-0.00165275,0.00234109,-0.00116481,-0.615529,0.00206176,0.0396323,1903,841,17.8377,-2.44493
686,183,17.8516,2.51917,0.0012351,-0.000311067,-0.00162788,0.00226414,-0.00134011,-0.563714,0.00210359,0.0169044,1910,841,17.8516,-2.51918
693,183,17.8657,2.71289,0.00140311,-0.000529037,-0.00169669,0.00238948,-0.00151541,-0.526595,0.00227324,0.012906,1917,841,17.8657,-2.7129
700,183,17.8522,2.9353,0.00139314,-0.000782373,-0.00165398,0.002285,-0.00167423,-0.494527,0.00229491,0.014044,1924,841,17.8522,-2.93529
707,183,17.8218,3.13593,0.00161944,-0.000819855,-0.00120566,0.00211477,-0.00131519,-0.389816,0.00199814,0.012508,1931,841,17.8218,-3.13594
714,183,17.8353,3.33221,0.00297096,-0.000211688,-0.000647267,0.00309756,-0.000338289,-0.193155,0.00218655,0.016584,1938,841,17.8353,-3.33221
721,183,17.833,3.53833,0.00572268,0.000795417,-2.89453e-05,0.00572285,0.000795247,-0.00587426,0.00357972,0.0147899,1945,841,17.833,-3.5383
728,183,17.824,3.73712,0.00915349,0.00240079,0.000108767,0.00915524,0.00239904,0.0161016,0.00548169,0.0125832,1952,841,17.824,-3.73715
735,183,17.823,3.92273,0.0128316,0.00430153,-3.50343e-05,0.0128318,0.00430139,-0.00410705,0.00754135,0.0120019,1959,841,17.823,-3.92272
742,183,17.8195,4.13049,0.0178949,0.00666474,0.00032888,0.0179046,0.00665511,0.0292519,0.01045,0.0113414,1966,841,17.8195,-4.13048
749,183,17.7618,4.37634,0.0237199,0.009797,0.00063756,0.023749,0.00976786,0.0456649,0.0137832,0.031317,1973,841,17.7618,-4.37634
756,183,17.6486,4.47662,0.0303751,0.0139819,0.00085363,0.0304194,0.0139375,0.0518851,0.0175831,0.0444641,1980,841,17.6486,-4.4766
763,183,17.756,4.38245,0.0375369,0.0195076,0.000779423,0.0375705,0.019474,0.0431238,0.0216962,0.0462216,1987,841,17.7559,-4.38244
770,183,18.7184,4.81958,0.0446378,0.0267125,0.000117774,0.0446386,0.0267118,0.00656993,0.0259379,0.0466411,1994,841,18.7184,-4.8196
777,183,19.3911,4.91345,0.0508602,0.0359883,-0.00160706,0.0510319,0.0358166,-0.106423,0.030253,0.0467695,2001,841,19.3912,-4.91346
784,183,0,0,0,0,0,0,0,0,0,-1,2008,841,0,0
791,183,0,0,0,0,0,0,0,0,0,-1,2015,841,0,0
798,183,0,0,0,0,0,0,0,0,0,-1,2022,841,0,0
805,183,0,0,0,0,0,0,0,0,0,-1,2029,841,0,0
812,183,0,0,0,0,0,0,0,0,0,-1,2036,841,0,0
-700,176,0,0,0,0,0,0,0,0,0,-1,524,848,0,0
-693,176,0,0,0,0,0,0,0,0,0,-1,531,848,0,0
-686,176,0,0,0,0,0,0,0,0,0,-1,538,848,0,0
-679,176,0,0,0,0,0,0,0,0,0,-1,545,848,0,0
-672,176,0,0,0,0,0,0,0,0,0,-1,552,848,0,0
-665,176,-12.9362,1.95441,0,0,0,0,0,0,0,-1,559,848,-12.9362,-1.95442
-658,176,-14.6345,3.45154,0,0,0,0,0,0,0,-1,566,848,-14.6345,-3.45153
-651,176,-11.7972,2.16974,0,0,0,0,0,0,0,-1,573,848,-11.7972,-2.16975
-644,176,-11.7216,2.15363,-0.00884065,0.0486934,0.0170347,0.0533587,-0.013506,1.30348,0.0408261,0.0474688,580,848,-11.7216,-2.1536
-637,176,-11.4533,1.83972,-0.00966293,0.0458543,0.0112157,0.0480345,-0.0118431,1.3788,0.0366148,0.047044,587,848,-11.4533,-1.83975
-630,176,-11.2883,2.00775,-0.0101455,0.0404633,0.00672677,0.0413421,-0.0110243,1.44088,0.0318781,0.0448179,594,848,-11.2883,-2.00778
-623,176,-11.423,1.87909,-0.0100606,0.0337412,0.00354682,0.0340265,-0.010346,1.49052,0.026807,0.0433712,601,848,-11.423,-1.87908
-616,176,-11.3387,1.87988,-0.00981134,0.0273727,0.00114153,0.0274077,-0.00984636,1.54014,0.022291,0.0291385,608,848,-11.3387,-1.8799
-609,176,-11.3237,1.75293,-0.00880674,0.0215886,-0.000788483,0.0216091,-0.00882718,-1.54488,0.0180815,0.0116018,615,848,-11.3237,-1.75294
-602,176,-11.3481,1.5708,-0.00788876,0.0152415,-0.00111844,0.0152954,-0.00794271,-1.52259,0.0136386,0.0113718,622,848,-11.3481,-1.57083
-595,176,-11.3686,1.38953,-0.00761693,0.00981056,0.000192181,0.00981268,-0.00761905,1.55977,0.0100907,0.0105574,629,848,-11.3686,-1.38954
-588,176,-11.359,1.19336,-0.00741503,0.0043702,0.000738543,0.0044163,-0.00746113,1.50845,0.00693214,0.0110176,636,848,-11.359,-1.19336
-581,176,-11.3586,1.02643,-0.00760425,0.00117449,0.00113055,0.00131775,-0.00774751,1.44475,0.00565566,0.0101166,643,848,-11.3586,-1.02644
-574,176,-11.3526,0.855164,-0.00785875,-0.000647647,0.00181463,-0.000216754,-0.00828965,1.33766,0.00545562,0.012004,650,848,-11.3526,-0.855135
-567,176,-11.301,0.729309,-0.00818799,-0.00147074,0.0021392,-0.000847341,-0.00881139,1.28723,0.00561317,0.0224963,657,848,-11.301,-0.729289
-560,176,-11.4149,0.518677,-0.00864025,-0.0018548,0.00222999,-0.00118755,-0.0093075,1.28006,0.00584947,0.0185517,664,848,-11.4148,-0.518703
-553,176,-11.313,0.255432,-0.00887065,-0.0019379,0.00219183,-0.00130307,-0.00950548,1.28888,0.00595038,0.0326797,671,848,-11.313,-0.255462
-546,176,-11.1147,-0.0288086,0,0,0,0,0,0,0,-1,678,848,-11.1147,0.0288056
-539,176,-14.3548,0.828918,0,0,0,0,0,0,0,-1,685,848,-14.3548,-0.828909
-532,176,-14.3991,0.87207,-0.00727639,-0.00124676,0.00180177,-0.000749381,-0.00777377,1.30146,0.00495165,0.0404971,692,848,-14.3991,-0.872099
-525,176,-14.4929,0.856567,-0.00578984,-0.000869254,0.00161795,-0.000384927,-0.00627417,1.27994,0.00406056,0.0492243,699,848,-14.4929,-0.856561
-518,176,-14.5641,0.693115,-0.00370638,-0.000266786,0.00146681,0.000273775,-0.00424695,1.21771,0.00292683,0.0440451,706,848,-14.5641,-0.693134
-511,176,-14.5496,0.462158,-0.000643832,0.000567143,0.00139099,0.00147871,-0.0015554,0.990676,0.00175193,0.0396181,713,848,-14.5496,-0.462129
-504,176,-14.4982,0.843994,0.00364245,0.00168797,0.00139489,0.00436836,0.00096206,0.479839,0.00265041,0.0405279,720,848,-14.4983,-0.843994
-497,176,-14.4662,1.12732,0.00901504,0.00320954,0.00171321,0.0094829,0.00274167,0.266591,0.00563494,0.041213,727,848,-14.4662,-1.12731
-490,176,-14.4085,1.12756,0.0132471,0.00510303,0.00316537,0.0143327,0.00401744,0.330387,0.00853709,0.0395182,734,848,-14.4085,-1.12758
-483,176,0,0,0,0,0,0,0,0,0,-1,741,848,0,0
-476,176,0,0,0,0,0,0,0,0,0,-1,748,848,0,0
-469,176,0,0,0,0,0,0,0,0,0,-1,755,848,0,0
-462,176,0,0,0,0,0,0,0,0,0,-1,762,848,0,0
-455,176,0,0,0,0,0,0,0,0,0,-1,769,848,0,0
-448,176,0,0,0,0,0,0,0,0,0,-1,776,848,0,0
-441,176,0,0,0,0,0,0,0,0,0,-1,783,848,0,0
-434,176,0,0,0,0,0,0,0,0,0,-1,790,848,0,0
-427,176,0,0,0,0,0,0,0,0,0,-1,797,848,0,0
-420,176,0,0,0,0,0,0,0,0,0,-1,804,848,0,0
-413,176,0,0,0,0,0,0,0,0,0,-1,811,848,0,0
-406,176,0,0,0,0,0,0,0,0,0,-1,818,848,0,0
-399,176,0,0,0,0,0,0,0,0,0,-1,825,848,0,0
-392,176,0,0,0,0,0,0,0,0,0,-1,832,848,0,0
-385,176,0,0,0,0,0,0,0,0,0,-1,839,848,0,0
-378,176,0,0,0,0,0,0,0,0,0,-1,846,848,0,0
-371,176,0,0,0,0,0,0,0,0,0,-1,853,848,0,0
-364,176,0,0,0,0,0,0,0,0,0,-1,860,848,0,0
-357,176,0,0,0,0,0,0,0,0,0,-1,867,848,0,0
-350,176,0,0,0,0,0,0,0,0,0,-1,874,848,0,0
-343,176,0,0,0,0,0,0,0,0,0,-1,881,848,0,0
-336,176,0,0,0,0,0,0,0,0,0,-1,888,848,0,0
-329,176,0,0,0,0,0,0,0,0,0,-1,895,848,0,0
-322,176,0,0,0,0,0,0,0,0,0,-1,902,848,0,0
-315,176,0,0,0,0,0,0,0,0,0,-1,909,848,0,0
-308,176,0,0,0,0,0,0,0,0,0,-1,916,848,0,0
-301,176,0,0,0,0,0,0,0,0,0,-1,923,848,0,0
-294,176,0,0,0,0,0,0,0,0,0,-1,930,848,0,0
-287,176,0,0,0,0,0,0,0,0,0,-1,937,848,0,0
-280,176,0,0,0,0,0,0,0,0,0,-1,944,848,0,0
-273,176,0,0,0,0,0,0,0,0,0,-1,951,848,0,0
-266,176,0,0,0,0,0,0,0,0,0,-1,958,848,0,0
-259,176,0,0,0,0,0,0,0,0,0,-1,965,848,0,0
-252,176,0,0,0,0,0,0,0,0,0,-1,972,848,0,0
-245,176,0,0,0,0,0,0,0,0,0,-1,979,848,0,0
-238,176,0,0,0,0,0,0,0,0,0,-1,986,848,0,0
-231,176,0,0,0,0,0,0,0,0,0,-1,993,848,0,0
-224,176,0,0,0,0,0,0,0,0,0,-1,1000,848,0,0
-217,176,0,0,0,0,0,0,0,0,0,-1,1007,848,0,0
-210,176,0,0,0,0,0,0,0,0,0,-1,1014,848,0,0
-203,176,0,0,0,0,0,0,0,0,0,-1,1021,848,0,0
-196,176,0,0,0,0,0,0,0,0,0,-1,1028,848,0,0
-189,176,0,0,0,0,0,0,0,0,0,-1,1035,848,0,0
-182,176,0,0,0,0,0,0,0,0,0,-1,1042,848,0,0
-175,176,0,0,0,0,0,0,0,0,0,-1,1049,848,0,0
-168,176,0,0,0,0,0,0,0,0,0,-1,1056,848,0,0
-161,176,0,0,0,0,0,0,0,0,0,-1,1063,848,0,0
-154,176,0,0,0,0,0,0,0,0,0,-1,1070,848,0,0
-147,176,0,0,0,0,0,0,0,0,0,-1,1077,848,0,0
-140,176,0,0,0,0,0,0,0,0,0,-1,1084,848,0,0
-133,176,0,0,0,0,0,0,0,0,0,-1,1091,848,0,0
-126,176,0,0,0,0,0,0,0,0,0,-1,1098,848,0,0
-119,176,0,0,0,0,0,0,0,0,0,-1,1105,848,0,0
-112,176,0,0,0,0,0,0,0,0,0,-1,1112,848,0,0
-105,176,0,0,0,0,0,0,0,0,0,-1,1119,848,0,0
-98,176,0,0,0,0,0,0,0,0,0,-1,1126,848,0,0
-91,176,0,0,0,0,0,0,0,0,0,-1,1133,848,0,0
-84,176,0,0,0,0,0,0,0,0,0,-1,1140,848,0,0
-77,176,0,0,0,0,0,0,0,0,0,-1,1147,848,0,0
-70,176,0,0,0,0,0,0,0,0,0,-1,1154,848,0,0
-63,176,0,0,0,0,0,0,0,0,0,-1,1161,848,0,0
-56,176,0,0,0,0,0,0,0,0,0,-1,1168,848,0,0
-49,176,0,0,0,0,0,0,0,0,0,-1,1175,848,0,0
-42,176,0,0,0,0,0,0,0,0,0,-1,1182,848,0,0
-35,176,0,0,0,0,0,0,0,0,0,-1,1189,848,0,0
-28,176,0,0,0,0,0,0,0,0,0,-1,1196,848,0,0
-21,176,0,0,0,0,0,0,0,0,0,-1,1203,848,0,0
-14,176,0,0,0,0,0,0,0,0,0,-1,1210,848,0,0
-7,176,0,0,0,0,0,0,0,0,0,-1,1217,848,0,0
0,176,0,0,0,0,0,0,0,0,0,-1,1224,848,0,0
7,176,0,0,0,0,0,0,0,0,0,-1,1231,848,0,0
14,176,0,0,0,0,0,0,0,0,0,-1,1238,848,0,0
21,176,0,0,0,0,0,0,0,0,0,-1,1245,848,0,0
28,176,0,0,0,0,0,0,0,0,0,-1,1252,848,0,0
35,176,0,0,0,0,0,0,0,0,0,-1,1259,848,0,0
42,176,0,0,0,0,0,0,0,0,0,-1,1266,848,0,0
49,176,0,0,0,0,0,0,0,0,0,-1,1273,848,0,0
56,176,0,0,0,0,0,0,0,0,0,-1,1280,848,0,0
63,176,0,0,0,0,0,0,0,0,0,-1,1287,848,0,0
70,176,0,0,0,0,0,0,0,0,0,-1,1294,848,0,0
77,176,0,0,0,0,0,0,0,0,0,-1,1301,848,0,0
84,176,0,0,0,0,0,0,0,0,0,-1,1308,848,0,0
91,176,0,0,0,0,0,0,0,0,0,-1,1315,848,0,0
98,176,0,0,0,0,0,0,0,0,0,-1,1322,848,0,0
105,176,0,0,0,0,0,0,0,0,0,-1,1329,848,0,0
112,176,0,0,0,0,0,0,0,0,0,-1,1336,848,0,0
119,176,0,0,0,0,0,0,0,0,0,-1,1343,848,0,0
126,176,0,0,0,0,0,0,0,0,0,-1,1350,848,0,0
133,176,0,0,0,0,0,0,0,0,0,-1,1357,848,0,0
140,176,0,0,0,0,0,0,0,0,0,-1,1364,848,0,0
147,176,0,0,0,0,0,0,0,0,0,-1,1371,848,0,0
154,176,0,0,0,0,0,0,0,0,0,-1,1378,848,0,0
161,176,0,0,0,0,0,0,0,0,0,-1,1385,848,0,0
168,176,0,0,0,0,0,0,0,0,0,-1,1392,848,0,0
175,176,0,0,0,0,0,0,0,0,0,-1,1399,848,0,0
182,176,0,0,0,0,0,0,0,0,0,-1,1406,848,0,0
189,176,0,0,0,0,0,0,0,0,0,-1,1413,848,0,0
196,176,0,0,0,0,0,0,0,0,0,-1,1420,848,0,0
203,176,0,0,0,0,0,0,0,0,0,-1,1427,848,0,0
210,176,0,0,0,0,0,0,0,0,0,-1,1434,848,0,0
217,176,0,0,0,0,0,0,0,0,0,-1,1441,848,0,0
224,176,0,0,0,0,0,0,0,0,0,-1,1448,848,0,0
231,176,0,0,0,0,0,0,0,0,0,-1,1455,848,0,0
238,176,0,0,0,0,0,0,0,0,0,-1,1462,848,0,0
245,176,0,0,0,0,0,0,0,0,0,-1,1469,848,0,0
252,176,0,0,0,0,0,0,0,0,0,-1,1476,848,0,0
259,176,0,0,0,0,0,0,0,0,0,-1,1483,848,0,0
266,176,0,0,0,0,0,0,0,0,0,-1,1490,848,0,0
273,176,0,0,0,0,0,0,0,0,0,-1,1497,848,0,0
280,176,0,0,0,0,0,0,0,0,0,-1,1504,848,0,0
287,176,0,0,0,0,0,0,0,0,0,-1,1511,848,0,0
294,176,0,0,0,0,0,0,0,0,0,-1,1518,848,0,0
301,176,0,0,0,0,0,0,0,0,0,-1,1525,848,0,0
308,176,0,0,0,0,0,0,0,0,0,-1,1532,848,0,0
315,176,0,0,0,0,0,0,0,0,0,-1,1539,848,0,0
322,176,0,0,0,0,0,0,0,0,0,-1,1546,848,0,0
329,176,0,0,0,0,0,0,0,0,0,-1,1553,848,0,0
336,176,0,0,0,0,0,0,0,0,0,-1,1560,848,0,0
343,176,0,0,0,0,0,0,0,0,0,-1,1567,848,0,0
350,176,0,0,0,0,0,0,0,0,0,-1,1574,848,0,0
357,176,0,0,0,0,0,0,0,0,0,-1,1581,848,0,0
364,176,0,0,0,0,0,0,0,0,0,-1,1588,848,0,0
371,176,0,0,0,0,0,0,0,0,0,-1,1595,848,0,0
378,176,0,0,0,0,0,0,0,0,0,-1,1602,848,0,0
385,176,0,0,0,0,0,0,0,0,0,-1,1609,848,0,0
392,176,0,0,0,0,0,0,0,0,0,-1,1616,848,0,0
399,176,0,0,0,0,0,0,0,0,0,-1,1623,848,0,0
406,176,0,0,0,0,0,0,0,0,0,-1,1630,848,0,0
413,176,0,0,0,0,0,0,0,0,0,-1,1637,848,0,0
420,176,0,0,0,0,0,0,0,0,0,-1,1644,848,0,0
427,176,0,0,0,0,0,0,0,0,0,-1,1651,848,0,0
434,176,0,0,0,0,0,0,0,0,0,-1,1658,848,0,0
441,176,0,0,0,0,0,0,0,0,0,-1,1665,848,0,0
448,176,0,0,0,0,0,0,0,0,0,-1,1672,848,0,0
455,176,0,0,0,0,0,0,0,0,0,-1,1679,848,0,0
462,176,0,0,0,0,0,0,0,0,0,-1,1686,848,0,0
469,176,0,0,0,0,0,0,0,0,0,-1,1693,848,0,0
476,176,0,0,0,0,0,0,0,0,0,-1,1700,848,0,0
483,176,0,0,0,0,0,0,0,0,0,-1,1707,848,0,0
490,176,0,0,0,0,0,0,0,0,0,-1,1714,848,0,0
497,176,0,0,0,0,0,0,0,0,0,-1,1721,848,0,0
504,176,0,0,0,0,0,0,0,0,0,-1,1728,848,0,0
511,176,0,0,0,0,0,0,0,0,0,-1,1735,848,0,0
518,176,0,0,0,0,0,0,0,0,0,-1,1742,848,0,0
525,176,0,0,0,0,0,0,0,0,0,-1,1749,848,0,0
532,176,0,0,0,0,0,0,0,0,0,-1,1756,848,0,0
539,176,0,0,0,0,0,0,0,0,0,-1,1763,848,0,0
546,176,0,0,0,0,0,0,0,0,0,-1,1770,848,0,0
553,176,0,0,0,0,0,0,0,0,0,-1,1777,848,0,0
560,176,0,0,0,0,0,0,0,0,0,-1,1784,848,0,0
567,176,0,0,0,0,0,0,0,0,0,-1,1791,848,0,0
574,176,0,0,0,0,0,0,0,0,0,-1,1798,848,0,0
581,176,0,0,0,0,0,0,0,0,0,-1,1805,848,0,0
588,176,0,0,0,0,0,0,0,0,0,-1,1812,848,0,0
595,176,0,0,0,0,0,0,0,0,0,-1,1819,848,0,0
602,176,0,0,0,0,0,0,0,0,0,-1,1826,848,0,0
609,176,21.748,2.98828,0.00773921,-2.74749e-05,0.00145003,0.0080011,-0.000289364,0.178683,0.00543309,0.0394857,1833,848,21.7481,-2.98828
616,176,21.868,2.9917,0.00553525,0.000962311,0.00139856,0.00592906,0.000568498,0.274477,0.0037775,0.0390199,1840,848,21.8681,-2.99168
623,176,22.1233,3.09473,0.00388872,0.00160974,0.00095724,0.00423743,0.00126103,0.349347,0.00251241,0.0436578,1847,848,22.1233,-3.0947
630,176,22.1176,3.02972,0.00288103,0.00204999,0.000393743,0.00303795,0.00189307,0.379249,0.00177161,0.0407818,1854,848,22.1176,-3.02974
637,176,22.0077,2.95416,0.00234197,0.00202705,-0.000188308,0.00242998,0.00193905,-0.43719,0.00148367,0.0334058,1861,848,22.0077,-2.95414
644,176,21.8033,2.99683,0.00202808,0.00174832,-0.000642271,0.00254552,0.00123087,-0.678178,0.00146992,0.0340072,1868,848,21.8034,-2.9968
651,176,21.8271,2.92627,0.00180478,0.0013122,-0.000962323,0.00255183,0.000565147,-0.66012,0.00154762,0.0339734,1875,848,21.8272,-2.92626
658,176,22.0146,2.63306,0.00161679,0.000859848,-0.00119119,0.00248819,-1.15527e-05,-0.631579,0.00166266,0.0375488,1882,848,22.0147,-2.63306
665,176,22.0737,2.61847,0,0,0,0,0,0,0,-1,1889,848,22.0737,-2.61849
672,176,16.9304,2.80719,0,0,0,0,0,0,0,-1,1896,848,16.9305,-2.80719
679,176,18.1449,2.41418,0,0,0,0,0,0,0,-1,1903,848,18.1449,-2.41416
686,176,18.1259,2.55231,0.00061162,-0.000396629,-0.00144776,0.00164051,-0.00142552,-0.617858,0.00177163,0.0229293,1910,848,18.1259,-2.55233
693,176,18.0833,2.7663,0.000632122,-0.000586186,-0.00158478,0.00172079,-0.00167485,-0.601915,0.00196054,0.0122266,1917,848,18.0833,-2.76627
700,176,18.0734,2.95734,0.000554959,-0.000753508,-0.00161047,0.00163901,-0.00183756,-0.592462,0.00200829,0.0147142,1924,848,18.0733,-2.95734
707,176,18.056,3.15326,0.000664667,-0.000775324,-0.00132357,0.0014514,-0.00156206,-0.536294,0.00174022,0.0136945,1931,848,18.056,-3.15326
714,176,18.0378,3.34094,0.00174162,-0.00018616,-0.000970363,0.00214546,-0.000590002,-0.394373,0.00166225,0.012536,1938,848,18.0379,-3.34091
721,176,18.0398,3.53741,0.00422915,0.000763586,-0.000606514,0.00433223,0.000660505,-0.168348,0.0026951,0.0115262,1945,848,18.0398,-3.53741
728,176,18.0377,3.75226,0.00739986,0.00221915,-0.000825233,0.00752813,0.00209088,-0.154207,0.00448722,0.0136726,1952,848,18.0377,-3.75227
735,176,18.0282,3.93018,0.0107642,0.0040168,-0.00147409,0.0110722,0.00370882,-0.205968,0.00650756,0.0134854,1959,848,18.0282,-3.93016
742,176,18.0387,4.112,0.015484,0.00617568,-0.00160218,0.015752,0.00590762,-0.16577,0.00918864,0.0164201,1966,848,18.0387,-4.11201
749,176,17.9739,4.32416,0.0207296,0.00896204,-0.00203117,0.0210703,0.00862131,-0.166203,0.0122317,0.0265506,1973,848,17.9738,-4.32418
756,176,18.0001,4.20288,0.0266469,0.0126149,-0.00272253,0.0271566,0.0121051,-0.185079,0.0157096,0.0424685,1980,848,18.0002,-4.20286
763,176,18.3046,4.03772,0.0330429,0.0173527,-0.00382824,0.0339271,0.0164685,-0.226993,0.0195906,0.0469818,1987,848,18.3046,-4.0377
770,176,18.5403,4.39453,0.0394625,0.0234309,-0.00556531,0.041205,0.0216883,-0.303443,0.0238007,0.0461596,1994,848,18.5403,-4.39456
777,176,18.5867,4.18024,0,0,0,0,0,0,0,-1,2001,848,18.5867,-4.18024
784,176,0,0,0,0,0,0,0,0,0,-1,2008,848,0,0
791,176,0,0,0,0,0,0,0,0,0,-1,2015,848,0,0
798,176,0,0,0,0,0,0,0,0,0,-1,2022,848,0,0
805,176,0,0,0,0,0,0,0,0,0,-1,2029,848,0,0
812,176,0,0,0,0,0,0,0,0,0,-1,2036,848,0,0
-700,169,0,0,0,0,0,0,0,0,0,-1,524,855,0,0
-693,169,0,0,0,0,0,0,0,0,0,-1,531,855,0,0
-686,169,0,0,0,0,0,0,0,0,0,-1,538,855,0,0
-679,169,0,0,0,0,0,0,0,0,0,-1,545,855,0,0
-672,169,0,0,0,0,0,0,0,0,0,-1,552,855,0,0
-665,169,-13.0022,2.35864,-0.000289998,0.0304078,0.0554521,0.0725961,-0.0424782,0.920416,0.0671924,0.0440509,559,855,-13.0022,-2.35865
-658,169,-14.1647,3.72192,0.00099063,0.0439751,0.0438321,0.0713006,-0.0263349,1.01334,0.0583286,0.0478483,566,855,-14.1647,-3.72191
-651,169,-11.8654,2.18713,0,0,0,0,0,0,0,-1,573,855,-11.8654,-2.18712
-644,169,-11.8279,2.14307,-0.00113966,0.0490943,0.0260016,0.060129,-0.0121744,1.16945,0.0447002,0.0480794,580,855,-11.828,-2.14304
-637,169,-11.7645,2.07281,-0.00287816,0.0458086,0.0190985,0.0524063,-0.00947587,1.23817,0.038487,0.0458617,587,855,-11.7645,-2.07279
-630,169,-11.6912,1.99243,-0.00446241,0.0403637,0.0134385,0.0440838,-0.00818246,1.30074,0.0324623,0.0471253,594,855,-11.6912,-1.99242
-623,169,-11.6006,1.94104,-0.00551766,0.033711,0.00902283,0.0356868,-0.00749346,1.35522,0.0266426,0.0383364,601,855,-11.6007,-1.94105
-616,169,-11.5206,1.88879,-0.00647487,0.027582,0.00538543,0.0284134,-0.00730618,1.41764,0.0217898,0.0214768,608,855,-11.5206,-1.88881
-609,169,-11.5303,1.75403,-0.00654681,0.0218565,0.00238049,0.0220546,-0.00674494,1.48776,0.017393,0.0130676,615,855,-11.5303,-1.75403
-602,169,-11.5406,1.56781,-0.00654871,0.015115,0.00114682,0.0151755,-0.00660925,1.51806,0.0128975,0.011981,622,855,-11.5407,-1.56778
-595,169,-11.5478,1.38342,-0.00698265,0.00951438,0.00170222,0.00968819,-0.00715646,1.46904,0.00976181,0.0107658,629,855,-11.5478,-1.38343
-588,169,-11.5399,1.20734,-0.00739383,0.00408132,0.00171863,0.00433319,-0.0076457,1.42528,0.0070036,0.00938192,636,855,-11.5399,-1.20736
-581,169,-11.5481,1.03772,-0.00810156,0.000951546,0.00177432,0.00128687,-0.00843689,1.38401,0.00609898,0.00969037,643,855,-11.5481,-1.0377
-574,169,-11.6082,0.868286,-0.00872546,-0.000862929,0.0021805,-0.000298703,-0.00928969,1.31759,0.006096,0.0127596,650,855,-11.6082,-0.868271
-567,169,-11.529,0.748108,-0.00917327,-0.00166046,0.0023873,-0.000966045,-0.00986768,1.28773,0.00628125,0.0209557,657,855,-11.529,-0.748082
-560,169,-11.5929,0.576843,-0.00955763,-0.00198861,0.00245267,-0.00126334,-0.0102829,1.28328,0.00647536,0.0210412,664,855,-11.5929,-0.576859
-553,169,-11.5253,0.285156,-0.00975028,-0.00206412,0.00241603,-0.00136777,-0.0104466,1.29018,0.00655623,0.0301625,671,855,-11.5252,-0.285163
-546,169,-12.4677,0.491882,-0.00953485,-0.00175977,0.00227646,-0.00114229,-0.0101523,1.30592,0.00642142,0.0426076,678,855,-12.4677,-0.491882
-539,169,-13.6216,0.697266,0,0,0,0,0,0,0,-1,685,855,-13.6216,-0.69728
-532,169,-14.4258,0.993835,-0.00778516,-0.00112431,0.00180207,-0.000668028,-0.00824145,1.32281,0.00528571,0.036612,692,855,-14.4259,-0.993819
-525,169,-14.4807,0.872986,-0.00598907,-0.00065176,0.00152731,-0.000245614,-0.00639521,1.31089,0.00418401,0.0469569,699,855,-14.4807,-0.872984
-518,169,-14.7007,0.661316,-0.0034152,2.95602e-05,0.00129859,0.000464246,-0.00384988,1.24778,0.0027345,0.0428098,706,855,-14.7007,-0.661311
-511,169,-14.606,0.615295,0.000368686,0.000881742,0.00116572,0.00181883,-0.000568399,0.893701,0.00143991,0.0413018,713,855,-14.606,-0.615324
-504,169,-14.467,0.820984,0.00555294,0.00188426,0.00123718,0.00593116,0.00150604,0.296689,0.00355992,0.0423752,720,855,-14.467,-0.820965
-497,169,-14.402,0.784851,0.0116862,0.00301795,0.00191443,0.0120902,0.00261396,0.20797,0.00734552,0.0415387,727,855,-14.402,-0.784856
-490,169,0,0,0,0,0,0,0,0,0,-1,734,855,0,0
-483,169,0,0,0,0,0,0,0,0,0,-1,741,855,0,0
-476,169,0,0,0,0,0,0,0,0,0,-1,748,855,0,0
-469,169,0,0,0,0,0,0,0,0,0,-1,755,855,0,0
-462,169,0,0,0,0,0,0,0,0,0,-1,762,855,0,0
-455,169,0,0,0,0,0,0,0,0,0,-1,769,855,0,0
-448,169,0,0,0,0,0,0,0,0,0,-1,776,855,0,0
-441,169,0,0,0,0,0,0,0,0,0,-1,783,855,0,0
-434,169,0,0,0,0,0,0,0,0,0,-1,790,855,0,0
-427,169,0,0,0,0,0,0,0,0,0,-1,797,855,0,0
-420,169,0,0,0,0,0,0,0,0,0,-1,804,855,0,0
-413,169,0,0,0,0,0,0,0,0,0,-1,811,855,0,0
-406,169,0,0,0,0,0,0,0,0,0,-1,818,855,0,0
-399,169,0,0,0,0,0,0,0,0,0,-1,825,855,0,0
-392,169,0,0,0,0,0,0,0,0,0,-1,832,855,0,0
-385,169,0,0,0,0,0,0,0,0,0,-1,839,855,0,0
-378,169,0,0,0,0,0,0,0,0,0,-1,846,855,0,0
-371,169,0,0,0,0,0,0,0,0,0,-1,853,855,0,0
-364,169,0,0,0,0,0,0,0,0,0,-1,860,855,0,0
-357,169,0,0,0,0,0,0,0,0,0,-1,867,855,0,0
-350,169,0,0,0,0,0,0,0,0,0,-1,874,855,0,0
-343,169,0,0,0,0,0,0,0,0,0,-1,881,855,0,0
-336,169,0,0,0,0,0,0,0,0,0,-1,888,855,0,0
-329,169,0,0,0,0,0,0,0,0,0,-1,895,855,0,0
-322,169,0,0,0,0,0,0,0,0,0,-1,902,855,0,0
-315,169,0,0,0,0,0,0,0,0,0,-1,909,855,0,0
-308,169,0,0,0,0,0,0,0,0,0,-1,916,855,0,0
-301,169,0,0,0,0,0,0,0,0,0,-1,923,855,0,0
-294,169,0,0,0,0,0,0,0,0,0,-1,930,855,0,0
-287,169,0,0,0,0,0,0,0,0,0,-1,937,855,0,0
-280,169,0,0,0,0,0,0,0,0,0,-1,944,855,0,0
-273,169,0,0,0,0,0,0,0,0,0,-1,951,855,0,0
-266,169,0,0,0,0,0,0,0,0,0,-1,958,855,0,0
-259,169,0,0,0,0,0,0,0,0,0,-1,965,855,0,0
-252,169,0,0,0,0,0,0,0,0,0,-1,972,855,0,0
-245,169,0,0,0,0,0,0,0,0,0,-1,979,855,0,0
-238,169,0,0,0,0,0,0,0,0,0,-1,986,855,0,0
-231,169,0,0,0,0,0,0,0,0,0,-1,993,855,0,0
-224,169,0,0,0,0,0,0,0,0,0,-1,1000,855,0,0
-217,169,0,0,0,0,0,0,0,0,0,-1,1007,855,0,0
-210,169,0,0,0,0,0,0,0,0,0,-1,1014,855,0,0
-203,169,0,0,0,0,0,0,0,0,0,-1,1021,855,0,0
-196,169,0,0,0,0,0,0,0,0,0,-1,1028,855,0,0
-189,169,0,0,0,0,0,0,0,0,0,-1,1035,855,0,0
-182,169,0,0,0,0,0,0,0,0,0,-1,1042,855,0,0
-175,169,0,0,0,0,0,0,0,0,0,-1,1049,855,0,0
-168,169,0,0,0,0,0,0,0,0,0,-1,1056,855,0,0
-161,169,0,0,0,0,0,0,0,0,0,-1,1063,855,0,0
-154,169,0,0,0,0,0,0,0,0,0,-1,1070,855,0,0
-147,169,0,0,0,0,0,0,0,0,0,-1,1077,855,0,0
-140,169,0,0,0,0,0,0,0,0,0,-1,1084,855,0,0
-133,169,0,0,0,0,0,0,0,0,0,-1,1091,855,0,0
-126,169,0,0,0,0,0,0,0,0,0,-1,1098,855,0,0
-119,169,0,0,0,0,0,0,0,0,0,-1,1105,855,0,0
-112,169,0,0,0,0,0,0,0,0,0,-1,1112,855,0,0
-105,169,0,0,0,0,0,0,0,0,0,-1,1119,855,0,0
-98,169,0,0,0,0,0,0,0,0,0,-1,1126,855,0,0
-91,169,0,0,0,0,0,0,0,0,0,-1,1133,855,0,0
-84,169,0,0,0,0,0,0,0,0,0,-1,1140,855,0,0
-77,169,0,0,0,0,0,0,0,0,0,-1,1147,855,0,0
-70,169,0,0,0,0,0,0,0,0,0,-1,1154,855,0,0
-63,169,0,0,0,0,0,0,0,0,0,-1,1161,855,0,0
-56,169,0,0,0,0,0,0,0,0,0,-1,1168,855,0,0
-49,169,0,0,0,0,0,0,0,0,0,-1,1175,855,0,0
-42,169,0,0,0,0,0,0,0,0,0,-1,1182,855,0,0
-35,169,0,0,0,0,0,0,0,0,0,-1,1189,855,0,0
-28,169,0,0,0,0,0,0,0,0,0,-1,1196,855,0,0
-21,169,0,0,0,0,0,0,0,0,0,-1,1203,855,0,0
-14,169,0,0,0,0,0,0,0,0,0,-1,1210,855,0,0
-7,169,0,0,0,0,0,0,0,0,0,-1,1217,855,0,0
0,169,0,0,0,0,0,0,0,0,0,-1,1224,855,0,0
7,169,0,0,0,0,0,0,0,0,0,-1,1231,855,0,0
14,169,0,0,0,0,0,0,0,0,0,-1,1238,855,0,0
21,169,0,0,0,0,0,0,0,0,0,-1,1245,855,0,0
28,169,0,0,0,0,0,0,0,0,0,-1,1252,855,0,0
35,169,0,0,0,0,0,0,0,0,0,-1,1259,855,0,0
42,169,0,0,0,0,0,0,0,0,0,-1,1266,855,0,0
49,169,0,0,0,0,0,0,0,0,0,-1,1273,855,0,0
56,169,0,0,0,0,0,0,0,0,0,-1,1280,855,0,0
63,169,0,0,0,0,0,0,0,0,0,-1,1287,855,0,0
70,169,0,0,0,0,0,0,0,0,0,-1,1294,855,0,0
77,169,0,0,0,0,0,0,0,0,0,-1,1301,855,0,0
84,169,0,0,0,0,0,0,0,0,0,-1,1308,855,0,0
91,169,0,0,0,0,0,0,0,0,0,-1,1315,855,0,0
98,169,0,0,0,0,0,0,0,0,0,-1,1322,855,0,0
105,169,0,0,0,0,0,0,0,0,0,-1,1329,855,0,0
112,169,0,0,0,0,0,0,0,0,0,-1,1336,855,0,0
119,169,0,0,0,0,0,0,0,0,0,-1,1343,855,0,0
126,169,0,0,0,0,0,0,0,0,0,-1,1350,855,0,0
133,169,0,0,0,0,0,0,0,0,0,-1,1357,855,0,0
140,169,0,0,0,0,0,0,0,0,0,-1,1364,855,0,0
147,169,0,0,0,0,0,0,0,0,0,-1,1371,855,0,0
154,169,0,0,0,0,0,0,0,0,0,-1,1378,855,0,0
161,169,0,0,0,0,0,0,0,0,0,-1,1385,855,0,0
168,169,0,0,0,0,0,0,0,0,0,-1,1392,855,0,0
175,169,0,0,0,0,0,0,0,0,0,-1,1399,855,0,0
182,169,0,0,0,0,0,0,0,0,0,-1,1406,855,0,0
189,169,0,0,0,0,0,0,0,0,0,-1,1413,855,0,0
196,169,0,0,0,0,0,0,0,0,0,-1,1420,855,0,0
203,169,0,0,0,0,0,0,0,0,0,-1,1427,855,0,0
210,169,0,0,0,0,0,0,0,0,0,-1,1434,855,0,0
217,169,0,0,0,0,0,0,0,0,0,-1,1441,855,0,0
224,169,0,0,0,0,0,0,0,0,0,-1,1448,855,0,0
231,169,0,0,0,0,0,0,0,0,0,-1,1455,855,0,0
238,169,0,0,0,0,0,0,0,0,0,-1,1462,855,0,0
245,169,0,0,0,0,0,0,0,0,0,-1,1469,855,0,0
252,169,0,0,0,0,0,0,0,0,0,-1,1476,855,0,0
259,169,0,0,0,0,0,0,0,0,0,-1,1483,855,0,0
266,169,0,0,0,0,0,0,0,0,0,-1,1490,855,0,0
273,169,0,0,0,0,0,0,0,0,0,-1,1497,855,0,0
280,169,0,0,0,0,0,0,0,0,0,-1,1504,855,0,0
287,169,0,0,0,0,0,0,0,0,0,-1,1511,855,0,0
294,169,0,0,0,0,0,0,0,0,0,-1,1518,855,0,0
301,169,0,0,0,0,0,0,0,0,0,-1,1525,855,0,0
308,169,0,0,0,0,0,0,0,0,0,-1,1532,855,0,0
315,169,0,0,0,0,0,0,0,0,0,-1,1539,855,0,0
322,169,0,0,0,0,0,0,0,0,0,-1,1546,855,0,0
329,169,0,0,0,0,0,0,0,0,0,-1,1553,855,0,0
336,169,0,0,0,0,0,0,0,0,0,-1,1560,855,0,0
343,169,0,0,0,0,0,0,0,0,0,-1,1567,855,0,0
350,169,0,0,0,0,0,0,0,0,0,-1,1574,855,0,0
357,169,0,0,0,0,0,0,0,0,0,-1,1581,855,0,0
364,169,0,0,0,0,0,0,0,0,0,-1,1588,855,0,0
371,169,0,0,0,0,0,0,0,0,0,-1,1595,855,0,0
378,169,0,0,0,0,0,0,0,0,0,-1,1602,855,0,0
385,169,0,0,0,0,0,0,0,0,0,-1,1609,855,0,0
392,169,0,0,0,0,0,0,0,0,0,-1,1616,855,0,0
399,169,0,0,0,0,0,0,0,0,0,-1,1623,855,0,0
406,169,0,0,0,0,0,0,0,0,0,-1,1630,855,0,0
413,169,0,0,0,0,0,0,0,0,0,-1,1637,855,0,0
420,169,0,0,0,0,0,0,0,0,0,-1,1644,855,0,0
427,169,0,0,0,0,0,0,0,0,0,-1,1651,855,0,0
434,169,0,0,0,0,0,0,0,0,0,-1,1658,855,0,0
441,169,0,0,0,0,0,0,0,0,0,-1,1665,855,0,0
448,169,0,0,0,0,0,0,0,0,0,-1,1672,855,0,0
455,169,0,0,0,0,0,0,0,0,0,-1,1679,855,0,0
462,169,0,0,0,0,0,0,0,0,0,-1,1686,855,0,0
469,169,0,0,0,0,0,0,0,0,0,-1,1693,855,0,0
476,169,0,0,0,0,0,0,0,0,0,-1,1700,855,0,0
483,169,0,0,0,0,0,0,0,0,0,-1,1707,855,0,0
490,169,0,0,0,0,0,0,0,0,0,-1,1714,855,0,0
497,169,0,0,0,0,0,0,0,0,0,-1,1721,855,0,0
504,169,0,0,0,0,0,0,0,0,0,-1,1728,855,0,0
511,169,0,0,0,0,0,0,0,0,0,-1,1735,855,0,0
518,169,0,0,0,0,0,0,0,0,0,-1,1742,855,0,0
525,169,0,0,0,0,0,0,0,0,0,-1,1749,855,0,0
532,169,0,0,0,0,0,0,0,0,0,-1,1756,855,0,0
539,169,0,0,0,0,0,0,0,0,0,-1,1763,855,0,0
546,169,0,0,0,0,0,0,0,0,0,-1,1770,855,0,0
553,169,0,0,0,0,0,0,0,0,0,-1,1777,855,0,0
560,169,0,0,0,0,0,0,0,0,0,-1,1784,855,0,0
567,169,0,0,0,0,0,0,0,0,0,-1,1791,855,0,0
574,169,0,0,0,0,0,0,0,0,0,-1,1798,855,0,0
581,169,0,0,0,0,0,0,0,0,0,-1,1805,855,0,0
588,169,0,0,0,0,0,0,0,0,0,-1,1812,855,0,0
595,169,0,0,0,0,0,0,0,0,0,-1,1819,855,0,0
602,169,0,0,0,0,0,0,0,0,0,-1,1826,855,0,0
609,169,0,0,0,0,0,0,0,0,0,-1,1833,855,0,0
616,169,21.886,3.03424,0.00538868,0.00162068,0.00206793,0.00630214,0.000707219,0.415953,0.00398665,0.039924,1840,855,21.8859,-3.03421
623,169,22.1401,2.81714,0.00389892,0.00174613,0.00160305,0.00475343,0.000891615,0.489739,0.00291752,0.0434789,1847,855,22.1401,-2.81715
630,169,22.1343,2.87976,0.00304256,0.00189094,0.00101747,0.00363586,0.00129764,0.527905,0.00212763,0.0407478,1854,855,22.1343,-2.87973
637,169,22.1198,2.94647,0.00255429,0.0017421,0.000396976,0.00271609,0.0015803,0.387021,0.00157512,0.0364341,1861,855,22.1197,-2.94644
644,169,21.9214,3.12469,0.00209403,0.00143215,-0.000151363,0.002127,0.00139918,-0.214483,0.00124825,0.0359968,1868,855,21.9214,-3.12472
651,169,21.8522,3.08221,0.00163096,0.00103564,-0.000572611,0.00197866,0.000687944,-0.545705,0.00115991,0.0368175,1875,855,21.8522,-3.08219
658,169,21.9236,2.77649,0.0012438,0.000637487,-0.000871096,0.00186299,1.83037e-05,-0.617944,0.00123593,0.0365342,1882,855,21.9235,-2.7765
665,169,22.0095,2.69269,0.000753646,0.000361129,-0.00110051,0.00167526,-0.000560482,-0.697159,0.00134323,0.048456,1889,855,22.0095,-2.69266
672,169,22.0812,2.6795,0,0,0,0,0,0,0,-1,1896,855,22.0812,-2.67949
679,169,18.1903,2.31793,0,0,0,0,0,0,0,-1,1903,855,18.1903,-2.31793
686,169,18.2354,2.5528,-0.000499806,-0.000363574,-0.00137379,0.000943783,-0.00180716,-0.810169,0.00161412,0.0232707,1910,855,18.2353,-2.55282
693,169,18.2784,2.77765,-0.000662672,-0.000508081,-0.00155387,0.000970413,-0.00214117,-0.81025,0.00183837,0.0127724,1917,855,18.2784,-2.77766
700,169,18.2942,2.98413,-0.000747661,-0.0006371,-0.00161967,0.000928235,-0.002313,-0.802457,0.00192741,0.0125368,1924,855,18.2942,-2.9841
707,169,18.2709,3.1543,-0.000646743,-0.000665904,-0.00144228,0.000785991,-0.00209864,-0.782077,0.00172196,0.0139875,1931,855,18.2709,-3.15432
714,169,18.252,3.33441,0.000340684,-0.000174351,-0.00122926,0.00133912,-0.00117278,-0.682147,0.0014513,0.0142657,1938,855,18.2519,-3.33444
721,169,18.2316,3.53619,0.00275064,0.000590967,-0.00103587,0.00316716,0.000174447,-0.382311,0.00205576,0.0151736,1945,855,18.2315,-3.5362
728,169,18.238,3.73486,0.00585812,0.00176881,-0.00151367,0.00635744,0.00126949,-0.318634,0.0038849,0.0120444,1952,855,18.238,-3.73488
735,169,18.2349,3.91608,0.00916233,0.00329582,-0.00255824,0.0101212,0.00233695,-0.358606,0.00611908,0.0180157,1959,855,18.2349,-3.91605
742,169,18.2334,4.10663,0.0137408,0.00508271,-0.00303263,0.0146974,0.00412617,-0.305539,0.00875327,0.0143438,1966,855,18.2334,-4.10663
749,169,18.2051,4.16791,0.0186386,0.00734694,-0.00397826,0.0198994,0.0060861,-0.306917,0.0117741,0.0231575,1973,855,18.2051,-4.16789
756,169,18.3058,4.13379,0.024047,0.0103088,-0.00530784,0.0258587,0.00849701,-0.32894,0.0152192,0.0440844,1980,855,18.3058,-4.13379
763,169,18.4316,4.08875,0.0298086,0.0141309,-0.00709242,0.0325409,0.0113985,-0.367724,0.0190662,0.0485474,1987,855,18.4316,-4.08874
770,169,18.3391,4.24249,0.0355564,0.019004,-0.0094357,0.0398312,0.0147292,-0.425385,0.0232551,0.0462013,1994,855,18.3391,-4.24251
777,169,18.0718,4.20892,0.0406158,0.0251598,-0.0124523,0.0475433,0.0182324,-0.50768,0.0276964,0.0437017,2001,855,18.0717,-4.20894
784,169,17.3473,3.60822,0.0439788,0.0329123,-0.0162929,0.0556524,0.0212388,-0.621704,0.0324296,0.0461005,2008,855,17.3473,-3.60821
791,169,0,0,0,0,0,0,0,0,0,-1,2015,855,0,0
798,169,0,0,0,0,0,0,0,0,0,-1,2022,855,0,0
805,169,0,0,0,0,0,0,0,0,0,-1,2029,855,0,0
812,169,0,0,0,0,0,0,0,0,0,-1,2036,855,0,0
-700,162,0,0,0,0,0,0,0,0,0,-1,524,862,0,0
-693,162,0,0,0,0,0,0,0,0,0,-1,531,862,0,0
-686,162,0,0,0,0,0,0,0,0,0,-1,538,862,0,0
-679,162,0,0,0,0,0,0,0,0,0,-1,545,862,0,0
-672,162,0,0,0,0,0,0,0,0,0,-1,552,862,0,0
-665,162,-13.4117,2.70496,0.00914169,0.0343635,0.0665965,0.0895325,-0.0460274,0.878972,0.0795977,0.0460522,559,862,-13.4117,-2.70495
-658,162,-13.8577,3.97168,0.00963253,0.04314,0.0528452,0.0818236,-0.0290511,0.938903,0.0663865,0.0472518,566,862,-13.8577,-3.9717
-651,162,-13.8682,5.03168,0,0,0,0,0,0,0,-1,573,862,-13.8681,-5.03167
-644,162,-11.9568,2.11395,0,0,0,0,0,0,0,-1,580,862,-11.9568,-2.11394
-637,162,-12.2155,2.34106,0.00328352,0.041484,0.024397,0.0533682,-0.00860059,1.11751,0.038765,0.0437307,587,862,-12.2155,-2.34109
-630,162,-11.8686,2.1712,0.000746509,0.0365042,0.0178893,0.0439172,-0.00666657,1.17795,0.0317346,0.044449,594,862,-11.8686,-2.17119
-623,162,-11.7272,2.03619,-0.00127286,0.0305838,0.0126571,0.0350003,-0.00568938,1.23507,0.0254429,0.0324005,601,862,-11.7272,-2.03616
-616,162,-11.6957,1.89227,-0.00326165,0.025285,0.00820926,0.0274774,-0.00545404,1.30982,0.020381,0.0176445,608,862,-11.6957,-1.89229
-609,162,-11.718,1.73138,-0.00431893,0.0201932,0.00454085,0.0210074,-0.00513308,1.39339,0.0159929,0.0128018,615,862,-11.718,-1.7314
-602,162,-11.733,1.54987,-0.00518057,0.0138429,0.00265563,0.0142067,-0.00554433,1.43467,0.0117631,0.0110138,622,862,-11.733,-1.54986
-595,162,-11.7382,1.38617,-0.00623842,0.00855549,0.00259977,0.00899906,-0.00668199,1.40181,0.00908634,0.0101869,629,862,-11.7382,-1.38616
-588,162,-11.7337,1.21869,-0.00722414,0.00364122,0.00228853,0.00410357,-0.00768649,1.37145,0.00691097,0.0107067,636,862,-11.7337,-1.21871
-581,162,-11.787,1.04004,-0.00838283,0.000812608,0.00213748,0.00128518,-0.0088554,1.35321,0.00637532,0.0128562,643,862,-11.7871,-1.04002
-574,162,-11.8696,0.872253,-0.00931002,-0.000885857,0.00236838,-0.000265667,-0.00993021,1.31468,0.00653339,0.0177126,650,862,-11.8696,-0.872279
-567,162,-11.8043,0.724365,-0.00986052,-0.00166046,0.00253618,-0.000939451,-0.0105815,1.29381,0.00676299,0.025655,657,862,-11.8043,-0.724335
-560,162,-11.7824,0.43396,-0.0102091,-0.00203506,0.00264785,-0.00125229,-0.0109919,1.28336,0.0069482,0.0224175,664,862,-11.7824,-0.433956
-553,162,-11.7038,0.207642,-0.0104212,-0.00218473,0.00268782,-0.00138521,-0.0112207,1.28167,0.00706414,0.0282737,671,862,-11.7038,-0.207651
-546,162,-12.8964,0.554443,-0.0102259,-0.00195212,0.00260132,-0.00120222,-0.0109758,1.29013,0.00695122,0.0408187,678,862,-12.8964,-0.55443
-539,162,-14.0381,0.812134,0,0,0,0,0,0,0,-1,685,862,-14.0381,-0.812132
-532,162,-14.3793,0.96228,-0.00824145,-0.00142698,0.00215837,-0.000800876,-0.00886756,1.28846,0.00566365,0.0371528,692,862,-14.3793,-0.962257
-525,162,-14.468,0.842712,-0.00614761,-0.000979894,0.00187627,-0.000370525,-0.00675698,1.25677,0.00438636,0.0413183,699,862,-14.468,-0.842692
-518,162,-14.618,0.763855,-0.00305105,-0.000333911,0.00163014,0.000429565,-0.00381452,1.13279,0.00269763,0.0422007,706,862,-14.618,-0.763848
-511,162,-14.5995,0.74469,0.00148473,0.000508763,0.00147524,0.0025506,-0.00055711,0.625672,0.00191334,0.0448969,713,862,-14.5996,-0.744713
-504,162,-14.5353,0.815674,0.00744754,0.00149558,0.00162875,0.00786409,0.00107903,0.250383,0.00492263,0.045512,720,862,-14.5353,-0.815675
-497,162,-14.3928,0.867554,0.0139516,0.00259454,0.00253084,0.0144901,0.00205609,0.209629,0.00905286,0.0434963,727,862,-14.3928,-0.867549
-490,162,0,0,0,0,0,0,0,0,0,-1,734,862,0,0
-483,162,0,0,0,0,0,0,0,0,0,-1,741,862,0,0
-476,162,0,0,0,0,0,0,0,0,0,-1,748,862,0,0
-469,162,0,0,0,0,0,0,0,0,0,-1,755,862,0,0
-462,162,0,0,0,0,0,0,0,0,0,-1,762,862,0,0
-455,162,0,0,0,0,0,0,0,0,0,-1,769,862,0,0
-448,162,0,0,0,0,0,0,0,0,0,-1,776,862,0,0
-441,162,0,0,0,0,0,0,0,0,0,-1,783,862,0,0
-434,162,0,0,0,0,0,0,0,0,0,-1,790,862,0,0
-427,162,0,0,0,0,0,0,0,0,0,-1,797,862,0,0
-420,162,0,0,0,0,0,0,0,0,0,-1,804,862,0,0
-413,162,0,0,0,0,0,0,0,0,0,-1,811,862,0,0
-406,162,0,0,0,0,0,0,0,0,0,-1,818,862,0,0
-399,162,0,0,0,0,0,0,0,0,0,-1,825,862,0,0
-392,162,0,0,0,0,0,0,0,0,0,-1,832,862,0,0
-385,162,0,0,0,0,0,0,0,0,0,-1,839,862,0,0
-378,162,0,0,0,0,0,0,0,0,0,-1,846,862,0,0
-371,162,0,0,0,0,0,0,0,0,0,-1,853,862,0,0
-364,162,0,0,0,0,0,0,0,0,0,-1,860,862,0,0
-357,162,0,0,0,0,0,0,0,0,0,-1,867,862,0,0
-350,162,0,0,0,0,0,0,0,0,0,-1,874,862,0,0
-343,162,0,0,0,0,0,0,0,0,0,-1,881,862,0,0
-336,162,0,0,0,0,0,0,0,0,0,-1,888,862,0,0
-329,162,0,0,0,0,0,0,0,0,0,-1,895,862,0,0
-322,162,0,0,0,0,0,0,0,0,0,-1,902,862,0,0
-315,162,0,0,0,0,0,0,0,0,0,-1,909,862,0,0
-308,162,0,0,0,0,0,0,0,0,0,-1,916,862,0,0
-301,162,0,0,0,0,0,0,0,0,0,-1,923,862,0,0
-294,162,0,0,0,0,0,0,0,0,0,-1,930,862,0,0
-287,162,0,0,0,0,0,0,0,0,0,-1,937,862,0,0
-280,162,0,0,0,0,0,0,0,0,0,-1,944,862,0,0
-273,162,0,0,0,0,0,0,0,0,0,-1,951,862,0,0
-266,162,0,0,0,0,0,0,0,0,0,-1,958,862,0,0
-259,162,0,0,0,0,0,0,0,0,0,-1,965,862,0,0
-252,162,0,0,0,0,0,0,0,0,0,-1,972,862,0,0
-245,162,0,0,0,0,0,0,0,0,0,-1,979,862,0,0
-238,162,0,0,0,0,0,0,0,0,0,-1,986,862,0,0
-231,162,0,0,0,0,0,0,0,0,0,-1,993,862,0,0
-224,162,0,0,0,0,0,0,0,0,0,-1,1000,862,0,0
-217,162,0,0,0,0,0,0,0,0,0,-1,1007,862,0,0
-210,162,0,0,0,0,0,0,0,0,0,-1,1014,862,0,0
-203,162,0,0,0,0,0,0,0,0,0,-1,1021,862,0,0
-196,162,0,0,0,0,0,0,0,0,0,-1,1028,862,0,0
-189,162,0,0,0,0,0,0,0,0,0,-1,1035,862,0,0
-182,162,0,0,0,0,0,0,0,0,0,-1,1042,862,0,0
-175,162,0,0,0,0,0,0,0,0,0,-1,1049,862,0,0
-168,162,0,0,0,0,0,0,0,0,0,-1,1056,862,0,0
-161,162,0,0,0,0,0,0,0,0,0,-1,1063,862,0,0
-154,162,0,0,0,0,0,0,0,0,0,-1,1070,862,0,0
-147,162,0,0,0,0,0,0,0,0,0,-1,1077,862,0,0
-140,162,0,0,0,0,0,0,0,0,0,-1,1084,862,0,0
-133,162,0,0,0,0,0,0,0,0,0,-1,1091,862,0,0
-126,162,0,0,0,0,0,0,0,0,0,-1,1098,862,0,0
-119,162,0,0,0,0,0,0,0,0,0,-1,1105,862,0,0
-112,162,0,0,0,0,0,0,0,0,0,-1,1112,862,0,0
-105,162,0,0,0,0,0,0,0,0,0,-1,1119,862,0,0
-98,162,0,0,0,0,0,0,0,0,0,-1,1126,862,0,0
-91,162,0,0,0,0,0,0,0,0,0,-1,1133,862,0,0
-84,162,0,0,0,0,0,0,0,0,0,-1,1140,862,0,0
-77,162,0,0,0,0,0,0,0,0,0,-1,1147,862,0,0
-70,162,0,0,0,0,0,0,0,0,0,-1,1154,862,0,0
-63,162,0,0,0,0,0,0,0,0,0,-1,1161,862,0,0
-56,162,0,0,0,0,0,0,0,0,0,-1,1168,862,0,0
-49,162,0,0,0,0,0,0,0,0,0,-1,1175,862,0,0
-42,162,0,0,0,0,0,0,0,0,0,-1,1182,862,0,0
-35,162,0,0,0,0,0,0,0,0,0,-1,1189,862,0,0
-28,162,0,0,0,0,0,0,0,0,0,-1,1196,862,0,0
-21,162,0,0,0,0,0,0,0,0,0,-1,1203,862,0,0
-14,162,0,0,0,0,0,0,0,0,0,-1,1210,862,0,0
-7,162,0,0,0,0,0,0,0,0,0,-1,1217,862,0,0
0,162,0,0,0,0,0,0,0,0,0,-1,1224,862,0,0
7,162,0,0,0,0,0,0,0,0,0,-1,1231,862,0,0
14,162,0,0,0,0,0,0,0,0,0,-1,1238,862,0,0
21,162,0,0,0,0,0,0,0,0,0,-1,1245,862,0,0
28,162,0,0,0,0,0,0,0,0,0,-1,1252,862,0,0
35,162,0,0,0,0,0,0,0,0,0,-1,1259,862,0,0
42,162,0,0,0,0,0,0,0,0,0,-1,1266,862,0,0
49,162,0,0,0,0,0,0,0,0,0,-1,1273,862,0,0
56,162,0,0,0,0,0,0,0,0,0,-1,1280,862,0,0
63,162,0,0,0,0,0,0,0,0,0,-1,1287,862,0,0
70,162,0,0,0,0,0,0,0,0,0,-1,1294,862,0,0
77,162,0,0,0,0,0,0,0,0,0,-1,1301,862,0,0
84,162,0,0,0,0,0,0,0,0,0,-1,1308,862,0,0
91,162,0,0,0,0,0,0,0,0,0,-1,1315,862,0,0
98,162,0,0,0,0,0,0,0,0,0,-1,1322,862,0,0
105,162,0,0,0,0,0,0,0,0,0,-1,1329,862,0,0
112,162,0,0,0,0,0,0,0,0,0,-1,1336,862,0,0
119,162,0,0,0,0,0,0,0,0,0,-1,1343,862,0,0
126,162,0,0,0,0,0,0,0,0,0,-1,1350,862,0,0
133,162,0,0,0,0,0,0,0,0,0,-1,1357,862,0,0
140,162,0,0,0,0,0,0,0,0,0,-1,1364,862,0,0
147,162,0,0,0,0,0,0,0,0,0,-1,1371,862,0,0
154,162,0,0,0,0,0,0,0,0,0,-1,1378,862,0,0
161,162,0,0,0,0,0,0,0,0,0,-1,1385,862,0,0
168,162,0,0,0,0,0,0,0,0,0,-1,1392,862,0,0
175,162,0,0,0,0,0,0,0,0,0,-1,1399,862,0,0
182,162,0,0,0,0,0,0,0,0,0,-1,1406,862,0,0
189,162,0,0,0,0,0,0,0,0,0,-1,1413,862,0,0
196,162,0,0,0,0,0,0,0,0,0,-1,1420,862,0,0
203,162,0,0,0,0,0,0,0,0,0,-1,1427,862,0,0
210,162,0,0,0,0,0,0,0,0,0,-1,1434,862,0,0
217,162,0,0,0,0,0,0,0,0,0,-1,1441,862,0,0
224,162,0,0,0,0,0,0,0,0,0,-1,1448,862,0,0
231,162,0,0,0,0,0,0,0,0,0,-1,1455,862,0,0
238,162,0,0,0,0,0,0,0,0,0,-1,1462,862,0,0
245,162,0,0,0,0,0,0,0,0,0,-1,1469,862,0,0
252,162,0,0,0,0,0,0,0,0,0,-1,1476,862,0,0
259,162,0,0,0,0,0,0,0,0,0,-1,1483,862,0,0
266,162,0,0,0,0,0,0,0,0,0,-1,1490,862,0,0
273,162,0,0,0,0,0,0,0,0,0,-1,1497,862,0,0
280,162,0,0,0,0,0,0,0,0,0,-1,1504,862,0,0
287,162,0,0,0,0,0,0,0,0,0,-1,1511,862,0,0
294,162,0,0,0,0,0,0,0,0,0,-1,1518,862,0,0
301,162,0,0,0,0,0,0,0,0,0,-1,1525,862,0,0
308,162,0,0,0,0,0,0,0,0,0,-1,1532,862,0,0
315,162,0,0,0,0,0,0,0,0,0,-1,1539,862,0,0
322,162,0,0,0,0,0,0,0,0,0,-1,1546,862,0,0
329,162,0,0,0,0,0,0,0,0,0,-1,1553,862,0,0
336,162,0,0,0,0,0,0,0,0,0,-1,1560,862,0,0
343,162,0,0,0,0,0,0,0,0,0,-1,1567,862,0,0
350,162,0,0,0,0,0,0,0,0,0,-1,1574,862,0,0
357,162,0,0,0,0,0,0,0,0,0,-1,1581,862,0,0
364,162,0,0,0,0,0,0,0,0,0,-1,1588,862,0,0
371,162,0,0,0,0,0,0,0,0,0,-1,1595,862,0,0
378,162,0,0,0,0,0,0,0,0,0,-1,1602,862,0,0
385,162,0,0,0,0,0,0,0,0,0,-1,1609,862,0,0
392,162,0,0,0,0,0,0,0,0,0,-1,1616,862,0,0
399,162,0,0,0,0,0,0,0,0,0,-1,1623,862,0,0
406,162,0,0,0,0,0,0,0,0,0,-1,1630,862,0,0
413,162,0,0,0,0,0,0,0,0,0,-1,1637,862,0,0
420,162,0,0,0,0,0,0,0,0,0,-1,1644,862,0,0
427,162,0,0,0,0,0,0,0,0,0,-1,1651,862,0,0
434,162,0,0,0,0,0,0,0,0,0,-1,1658,862,0,0
441,162,0,0,0,0,0,0,0,0,0,-1,1665,862,0,0
448,162,0,0,0,0,0,0,0,0,0,-1,1672,862,0,0
455,162,0,0,0,0,0,0,0,0,0,-1,1679,862,0,0
462,162,0,0,0,0,0,0,0,0,0,-1,1686,862,0,0
469,162,0,0,0,0,0,0,0,0,0,-1,1693,862,0,0
476,162,0,0,0,0,0,0,0,0,0,-1,1700,862,0,0
483,162,0,0,0,0,0,0,0,0,0,-1,1707,862,0,0
490,162,0,0,0,0,0,0,0,0,0,-1,1714,862,0,0
497,162,0,0,0,0,0,0,0,0,0,-1,1721,862,0,0
504,162,0,0,0,0,0,0,0,0,0,-1,1728,862,0,0
511,162,0,0,0,0,0,0,0,0,0,-1,1735,862,0,0
518,162,0,0,0,0,0,0,0,0,0,-1,1742,862,0,0
525,162,0,0,0,0,0,0,0,0,0,-1,1749,862,0,0
532,162,0,0,0,0,0,0,0,0,0,-1,1756,862,0,0
539,162,0,0,0,0,0,0,0,0,0,-1,1763,862,0,0
546,162,0,0,0,0,0,0,0,0,0,-1,1770,862,0,0
553,162,0,0,0,0,0,0,0,0,0,-1,1777,862,0,0
560,162,0,0,0,0,0,0,0,0,0,-1,1784,862,0,0
567,162,0,0,0,0,0,0,0,0,0,-1,1791,862,0,0
574,162,0,0,0,0,0,0,0,0,0,-1,1798,862,0,0
581,162,0,0,0,0,0,0,0,0,0,-1,1805,862,0,0
588,162,0,0,0,0,0,0,0,0,0,-1,1812,862,0,0
595,162,0,0,0,0,0,0,0,0,0,-1,1819,862,0,0
602,162,0,0,0,0,0,0,0,0,0,-1,1826,862,0,0
609,162,0,0,0,0,0,0,0,0,0,-1,1833,862,0,0
616,162,21.9706,2.86084,0.00571302,0.00173695,0.00295208,0.00728407,0.0001659,0.489061,0.0048017,0.0408539,1840,862,21.9706,-2.86082
623,162,21.9664,2.8548,0.00407268,0.00164051,0.00235753,0.00550929,0.000203897,0.547282,0.00360682,0.042164,1847,862,21.9664,-2.8548
630,162,22.0106,2.7926,0.00310082,0.00165318,0.00164706,0.00417608,0.000577912,0.578369,0.00261281,0.0400814,1854,862,22.0107,-2.79261
637,162,22.0288,2.82697,0.00251608,0.00145062,0.000910505,0.00303825,0.000928445,0.520704,0.00179779,0.0399191,1861,862,22.0288,-2.82694
644,162,22.021,2.9931,0.0018997,0.00113868,0.000249579,0.00197425,0.00106413,0.290259,0.00114099,0.0390972,1868,862,22.021,-2.9931
651,162,21.9397,2.9906,0.00114566,0.00078735,-0.000290922,0.00130816,0.000624844,-0.509414,0.000755521,0.0353482,1875,862,21.9397,-2.99061
658,162,21.9343,2.80072,0.000519956,0.000451633,-0.000662387,0.00114906,-0.000177473,-0.759634,0.000831536,0.0354783,1882,862,21.9343,-2.80074
665,162,21.937,2.76855,-0.000125487,0.000226963,-0.000934368,0.00100158,-0.000900103,-0.878605,0.00109846,0.0413344,1889,862,21.9371,-2.76856
672,162,21.9528,2.82166,0,0,0,0,0,0,0,-1,1896,862,21.9527,-2.82165
679,162,19.7626,2.96234,0,0,0,0,0,0,0,-1,1903,862,19.7626,-2.96237
686,162,18.4954,2.60956,-0.00177941,-0.000314468,-0.00133798,0.000478412,-0.00257229,-1.03584,0.00189457,0.0332523,1910,862,18.4954,-2.60953
693,162,18.4745,2.79779,-0.00208496,-0.000387503,-0.00153486,0.000517658,-0.00299012,-1.03796,0.00218649,0.0170909,1917,862,18.4745,-2.7978
700,162,18.4849,2.98602,-0.00219419,-0.000435009,-0.00159595,0.000507687,-0.00313689,-1.03726,0.00227941,0.0157246,1924,862,18.4849,-2.98603
707,162,18.4811,3.14734,-0.0021237,-0.000467249,-0.00148558,0.000405383,-0.00299633,-1.03969,0.00214549,0.0115023,1931,862,18.4811,-3.14737
714,162,18.4587,3.33136,-0.00124328,-5.19753e-05,-0.00142254,0.000894585,-0.00218984,-0.98367,0.00183238,0.0158581,1938,862,18.4588,-3.33138
721,162,18.3892,3.58368,0.00106172,0.000526711,-0.00136677,0.00218691,-0.000598482,-0.688759,0.00169307,0.0283579,1945,862,18.3892,-3.58367
728,162,18.3749,3.74622,0.00409779,0.00144831,-0.00203602,0.00520211,0.000343995,-0.496982,0.00335928,0.0211102,1952,862,18.3748,-3.74624
735,162,18.4283,3.91064,0.00735394,0.00270564,-0.00335922,0.00911465,0.000944938,-0.482773,0.00578722,0.0113676,1959,862,18.4284,-3.91066
742,162,18.4268,4.10602,0.0118204,0.00414737,-0.00408035,0.0135846,0.00238317,-0.408093,0.00837582,0.0125615,1966,862,18.4267,-4.10604
749,162,18.3976,4.24847,0.0164409,0.00595274,-0.00534334,0.0186836,0.00371005,-0.397387,0.0114217,0.0168439,1973,862,18.3976,-4.24849
756,162,18.4818,4.2876,0.0214843,0.0083124,-0.007045,0.0245424,0.00525435,-0.409531,0.0149217,0.0377909,1980,862,18.4818,-4.28759
763,162,18.624,4.25323,0.0267428,0.0113605,-0.00919568,0.0310397,0.00706354,-0.437129,0.0187866,0.0449462,1987,862,18.624,-4.25323
770,162,18.4939,4.16443,0.0319892,0.0152447,-0.0117918,0.0380787,0.00915524,-0.476694,0.022951,0.0439445,1994,862,18.4939,-4.16444
777,162,17.947,3.97723,0.0366125,0.0201449,-0.01483,0.0453411,0.0114162,-0.531981,0.0272317,0.0429892,2001,862,17.947,-3.97721
784,162,17.6012,3.58612,0.0396731,0.0263026,-0.0182736,0.052446,0.0135297,-0.610039,0.0314399,0.0427973,2008,862,17.6012,-3.58613
791,162,0,0,0,0,0,0,0,0,0,-1,2015,862,0,0
798,162,0,0,0,0,0,0,0,0,0,-1,2022,862,0,0
805,162,0,0,0,0,0,0,0,0,0,-1,2029,862,0,0
812,162,0,0,0,0,0,0,0,0,0,-1,2036,862,0,0
-700,155,0,0,0,0,0,0,0,0,0,-1,524,869,0,0
-693,155,0,0,0,0,0,0,0,0,0,-1,531,869,0,0
-686,155,0,0,0,0,0,0,0,0,0,-1,538,869,0,0
-679,155,0,0,0,0,0,0,0,0,0,-1,545,869,0,0
-672,155,0,0,0,0,0,0,0,0,0,-1,552,869,0,0
-665,155,-13.8663,2.9458,0.0230498,0.0319217,0.0697248,0.0973515,-0.04238,0.817166,0.0827289,0.0488678,559,869,-13.8662,-2.94581
-658,155,-13.806,4.16785,0.0209563,0.0382016,0.0557714,0.086013,-0.0268552,0.862094,0.0680827,0.0452703,566,869,-13.806,-4.16785
-651,155,-13.5905,3.1687,0,0,0,0,0,0,0,-1,573,869,-13.5904,-3.16871
-644,155,-12.7991,2.52252,0,0,0,0,0,0,0,-1,580,869,-12.7991,-2.52255
-637,155,-12.5472,2.33063,0.00985422,0.0355789,0.0266462,0.0523047,-0.00687163,1.01026,0.0373715,0.0443859,587,869,-12.5472,-2.33063
-630,155,-12.1673,2.1178,0.00616338,0.0312898,0.0199548,0.0423068,-0.00485367,1.06634,0.0299538,0.0395734,594,869,-12.1673,-2.1178
-623,155,-11.8403,2.05072,0.00308429,0.0262707,0.0145072,0.0332479,-0.00389292,1.12251,0.0235703,0.0241958,601,869,-11.8402,-2.05073
-616,155,-11.8709,1.88947,-1.79652e-05,0.0219431,0.00977055,0.0256607,-0.00373558,1.20722,0.0184786,0.013149,608,869,-11.8709,-1.88947
-609,155,-11.9028,1.71136,-0.00213496,0.0176403,0.00589315,0.0192633,-0.00375795,1.30206,0.0142609,0.0128636,615,869,-11.9028,-1.71134
-602,155,-11.9136,1.53992,-0.00388882,0.0118659,0.00367497,0.0126809,-0.00470389,1.35254,0.0103834,0.0115897,622,869,-11.9137,-1.53989
-595,155,-11.9297,1.38452,-0.00563527,0.00725989,0.00322055,0.00801948,-0.00639485,1.33917,0.00833972,0.0104231,629,869,-11.9297,-1.38455
-588,155,-11.9147,1.22791,-0.00720067,0.00311556,0.00273421,0.00379543,-0.00788054,1.32709,0.00687728,0.0114572,636,869,-11.9147,-1.22788
-581,155,-11.9994,1.07019,-0.00874623,0.000715365,0.00247511,0.00132373,-0.00935459,1.32978,0.00672123,0.0172025,643,869,-11.9994,-1.0702
-574,155,-12.0295,0.939148,-0.00990197,-0.000840886,0.00255831,-0.000168471,-0.0105744,1.31377,0.00699411,0.0230645,650,869,-12.0295,-0.939168
-567,155,-11.9919,0.705872,-0.0105203,-0.00160636,0.00265899,-0.000873458,-0.0112532,1.30184,0.0072286,0.0241438,657,869,-11.9919,-0.705898
-560,155,-11.98,0.454163,-0.0108248,-0.00202431,0.00276128,-0.00122967,-0.0116194,1.29059,0.00737066,0.0218991,664,869,-11.98,-0.454172
-553,155,-11.9828,0.328918,-0.0109992,-0.00225185,0.00283274,-0.00141463,-0.0118365,1.28343,0.00746425,0.0427577,671,869,-11.9828,-0.328927
-546,155,-13.1927,0.701904,-0.0107476,-0.00214762,0.00278218,-0.00132604,-0.0115692,1.28366,0.00731099,0.0470543,678,869,-13.1927,-0.701895
-539,155,-14.1066,1.06799,0,0,0,0,0,0,0,-1,685,869,-14.1066,-1.06797
-532,155,-14.3545,0.976196,-0.00835863,-0.00181686,0.00234954,-0.00106046,-0.00911503,1.25934,0.00575585,0.0359375,692,869,-14.3545,-0.976218
-525,155,-14.3468,1.05011,-0.00587093,-0.00145209,0.00204507,-0.000650887,-0.00667214,1.1974,0.00424778,0.0386126,699,869,-14.3468,-1.05014
-518,155,-14.4218,1.06097,-0.00213506,-0.000891867,0.00175471,0.000348091,-0.00337502,0.955624,0.00237456,0.045408,706,869,-14.4218,-1.06099
-511,155,-14.4359,1.07739,0.0031621,-9.40493e-05,0.00154806,0.0037806,-0.00071255,0.380105,0.00278843,0.0477185,713,869,-14.4358,-1.07737
-504,155,-14.4601,1.11438,0.0096185,0.000852126,0.00180065,0.00997395,0.000496679,0.194894,0.00649008,0.0443685,720,869,-14.4601,-1.11438
-497,155,0,0,0,0,0,0,0,0,0,-1,727,869,0,0
-490,155,0,0,0,0,0,0,0,0,0,-1,734,869,0,0
-483,155,0,0,0,0,0,0,0,0,0,-1,741,869,0,0
-476,155,0,0,0,0,0,0,0,0,0,-1,748,869,0,0
-469,155,0,0,0,0,0,0,0,0,0,-1,755,869,0,0
-462,155,0,0,0,0,0,0,0,0,0,-1,762,869,0,0
-455,155,0,0,0,0,0,0,0,0,0,-1,769,869,0,0
-448,155,0,0,0,0,0,0,0,0,0,-1,776,869,0,0
-441,155,0,0,0,0,0,0,0,0,0,-1,783,869,0,0
-434,155,0,0,0,0,0,0,0,0,0,-1,790,869,0,0
-427,155,0,0,0,0,0,0,0,0,0,-1,797,869,0,0
-420,155,0,0,0,0,0,0,0,0,0,-1,804,869,0,0
-413,155,0,0,0,0,0,0,0,0,0,-1,811,869,0,0
-406,155,0,0,0,0,0,0,0,0,0,-1,818,869,0,0
-399,155,0,0,0,0,0,0,0,0,0,-1,825,869,0,0
-392,155,0,0,0,0,0,0,0,0,0,-1,832,869,0,0
-385,155,0,0,0,0,0,0,0,0,0,-1,839,869,0,0
-378,155,0,0,0,0,0,0,0,0,0,-1,846,869,0,0
-371,155,0,0,0,0,0,0,0,0,0,-1,853,869,0,0
-364,155,0,0,0,0,0,0,0,0,0,-1,860,869,0,0
-357,155,0,0,0,0,0,0,0,0,0,-1,867,869,0,0
-350,155,0,0,0,0,0,0,0,0,0,-1,874,869,0,0
-343,155,0,0,0,0,0,0,0,0,0,-1,881,869,0,0
-336,155,0,0,0,0,0,0,0,0,0,-1,888,869,0,0
-329,155,0,0,0,0,0,0,0,0,0,-1,895,869,0,0
-322,155,0,0,0,0,0,0,0,0,0,-1,902,869,0,0
-315,155,0,0,0,0,0,0,0,0,0,-1,909,869,0,0
-308,155,0,0,0,0,0,0,0,0,0,-1,916,869,0,0
-301,155,0,0,0,0,0,0,0,0,0,-1,923,869,0,0
-294,155,0,0,0,0,0,0,0,0,0,-1,930,869,0,0
-287,155,0,0,0,0,0,0,0,0,0,-1,937,869,0,0
-280,155,0,0,0,0,0,0,0,0,0,-1,944,869,0,0
-273,155,0,0,0,0,0,0,0,0,0,-1,951,869,0,0
-266,155,0,0,0,0,0,0,0,0,0,-1,958,869,0,0
-259,155,0,0,0,0,0,0,0,0,0,-1,965,869,0,0
-252,155,0,0,0,0,0,0,0,0,0,-1,972,869,0,0
-245,155,0,0,0,0,0,0,0,0,0,-1,979,869,0,0
-238,155,0,0,0,0,0,0,0,0,0,-1,986,869,0,0
-231,155,0,0,0,0,0,0,0,0,0,-1,993,869,0,0
-224,155,0,0,0,0,0,0,0,0,0,-1,1000,869,0,0
-217,155,0,0,0,0,0,0,0,0,0,-1,1007,869,0,0
-210,155,0,0,0,0,0,0,0,0,0,-1,1014,869,0,0
-203,155,0,0,0,0,0,0,0,0,0,-1,1021,869,0,0
-196,155,0,0,0,0,0,0,0,0,0,-1,1028,869,0,0
-189,155,0,0,0,0,0,0,0,0,0,-1,1035,869,0,0
-182,155,0,0,0,0,0,0,0,0,0,-1,1042,869,0,0
-175,155,0,0,0,0,0,0,0,0,0,-1,1049,869,0,0
-168,155,0,0,0,0,0,0,0,0,0,-1,1056,869,0,0
-161,155,0,0,0,0,0,0,0,0,0,-1,1063,869,0,0
-154,155,0,0,0,0,0,0,0,0,0,-1,1070,869,0,0
-147,155,0,0,0,0,0,0,0,0,0,-1,1077,869,0,0
-140,155,0,0,0,0,0,0,0,0,0,-1,1084,869,0,0
-133,155,0,0,0,0,0,0,0,0,0,-1,1091,869,0,0
-126,155,0,0,0,0,0,0,0,0,0,-1,1098,869,0,0
-119,155,0,0,0,0,0,0,0,0,0,-1,1105,869,0,0
-112,155,0,0,0,0,0,0,0,0,0,-1,1112,869,0,0
-105,155,0,0,0,0,0,0,0,0,0,-1,1119,869,0,0
-98,155,0,0,0,0,0,0,0,0,0,-1,1126,869,0,0
-91,155,0,0,0,0,0,0,0,0,0,-1,1133,869,0,0
-84,155,0,0,0,0,0,0,0,0,0,-1,1140,869,0,0
-77,155,0,0,0,0,0,0,0,0,0,-1,1147,869,0,0
-70,155,0,0,0,0,0,0,0,0,0,-1,1154,869,0,0
-63,155,0,0,0,0,0,0,0,0,0,-1,1161,869,0,0
-56,155,0,0,0,0,0,0,0,0,0,-1,1168,869,0,0
-49,155,0,0,0,0,0,0,0,0,0,-1,1175,869,0,0
-42,155,0,0,0,0,0,0,0,0,0,-1,1182,869,0,0
-35,155,0,0,0,0,0,0,0,0,0,-1,1189,869,0,0
-28,155,0,0,0,0,0,0,0,0,0,-1,1196,869,0,0
-21,155,0,0,0,0,0,0,0,0,0,-1,1203,869,0,0
-14,155,0,0,0,0,0,0,0,0,0,-1,1210,869,0,0
-7,155,0,0,0,0,0,0,0,0,0,-1,1217,869,0,0
0,155,0,0,0,0,0,0,0,0,0,-1,1224,869,0,0
7,155,0,0,0,0,0,0,0,0,0,-1,1231,869,0,0
14,155,0,0,0,0,0,0,0,0,0,-1,1238,869,0,0
21,155,0,0,0,0,0,0,0,0,0,-1,1245,869,0,0
28,155,0,0,0,0,0,0,0,0,0,-1,1252,869,0,0
35,155,0,0,0,0,0,0,0,0,0,-1,1259,869,0,0
42,155,0,0,0,0,0,0,0,0,0,-1,1266,869,0,0
49,155,0,0,0,0,0,0,0,0,0,-1,1273,869,0,0
56,155,0,0,0,0,0,0,0,0,0,-1,1280,869,0,0
63,155,0,0,0,0,0,0,0,0,0,-1,1287,869,0,0
70,155,0,0,0,0,0,0,0,0,0,-1,1294,869,0,0
77,155,0,0,0,0,0,0,0,0,0,-1,1301,869,0,0
84,155,0,0,0,0,0,0,0,0,0,-1,1308,869,0,0
91,155,0,0,0,0,0,0,0,0,0,-1,1315,869,0,0
98,155,0,0,0,0,0,0,0,0,0,-1,1322,869,0,0
105,155,0,0,0,0,0,0,0,0,0,-1,1329,869,0,0
112,155,0,0,0,0,0,0,0,0,0,-1,1336,869,0,0
119,155,0,0,0,0,0,0,0,0,0,-1,1343,869,0,0
126,155,0,0,0,0,0,0,0,0,0,-1,1350,869,0,0
133,155,0,0,0,0,0,0,0,0,0,-1,1357,869,0,0
140,155,0,0,0,0,0,0,0,0,0,-1,1364,869,0,0
147,155,0,0,0,0,0,0,0,0,0,-1,1371,869,0,0
154,155,0,0,0,0,0,0,0,0,0,-1,1378,869,0,0
161,155,0,0,0,0,0,0,0,0,0,-1,1385,869,0,0
168,155,0,0,0,0,0,0,0,0,0,-1,1392,869,0,0
175,155,0,0,0,0,0,0,0,0,0,-1,1399,869,0,0
182,155,0,0,0,0,0,0,0,0,0,-1,1406,869,0,0
189,155,0,0,0,0,0,0,0,0,0,-1,1413,869,0,0
196,155,0,0,0,0,0,0,0,0,0,-1,1420,869,0,0
203,155,0,0,0,0,0,0,0,0,0,-1,1427,869,0,0
210,155,0,0,0,0,0,0,0,0,0,-1,1434,869,0,0
217,155,0,0,0,0,0,0,0,0,0,-1,1441,869,0,0
224,155,0,0,0,0,0,0,0,0,0,-1,1448,869,0,0
231,155,0,0,0,0,0,0,0,0,0,-1,1455,869,0,0
238,155,0,0,0,0,0,0,0,0,0,-1,1462,869,0,0
245,155,0,0,0,0,0,0,0,0,0,-1,1469,869,0,0
252,155,0,0,0,0,0,0,0,0,0,-1,1476,869,0,0
259,155,0,0,0,0,0,0,0,0,0,-1,1483,869,0,0
266,155,0,0,0,0,0,0,0,0,0,-1,1490,869,0,0
273,155,0,0,0,0,0,0,0,0,0,-1,1497,869,0,0
280,155,0,0,0,0,0,0,0,0,0,-1,1504,869,0,0
287,155,0,0,0,0,0,0,0,0,0,-1,1511,869,0,0
294,155,0,0,0,0,0,0,0,0,0,-1,1518,869,0,0
301,155,0,0,0,0,0,0,0,0,0,-1,1525,869,0,0
308,155,0,0,0,0,0,0,0,0,0,-1,1532,869,0,0
315,155,0,0,0,0,0,0,0,0,0,-1,1539,869,0,0
322,155,0,0,0,0,0,0,0,0,0,-1,1546,869,0,0
329,155,0,0,0,0,0,0,0,0,0,-1,1553,869,0,0
336,155,0,0,0,0,0,0,0,0,0,-1,1560,869,0,0
343,155,0,0,0,0,0,0,0,0,0,-1,1567,869,0,0
350,155,0,0,0,0,0,0,0,0,0,-1,1574,869,0,0
357,155,0,0,0,0,0,0,0,0,0,-1,1581,869,0,0
364,155,0,0,0,0,0,0,0,0,0,-1,1588,869,0,0
371,155,0,0,0,0,0,0,0,0,0,-1,1595,869,0,0
378,155,0,0,0,0,0,0,0,0,0,-1,1602,869,0,0
385,155,0,0,0,0,0,0,0,0,0,-1,1609,869,0,0
392,155,0,0,0,0,0,0,0,0,0,-1,1616,869,0,0
399,155,0,0,0,0,0,0,0,0,0,-1,1623,869,0,0
406,155,0,0,0,0,0,0,0,0,0,-1,1630,869,0,0
413,155,0,0,0,0,0,0,0,0,0,-1,1637,869,0,0
420,155,0,0,0,0,0,0,0,0,0,-1,1644,869,0,0
427,155,0,0,0,0,0,0,0,0,0,-1,1651,869,0,0
434,155,0,0,0,0,0,0,0,0,0,-1,1658,869,0,0
441,155,0,0,0,0,0,0,0,0,0,-1,1665,869,0,0
448,155,0,0,0,0,0,0,0,0,0,-1,1672,869,0,0
455,155,0,0,0,0,0,0,0,0,0,-1,1679,869,0,0
462,155,0,0,0,0,0,0,0,0,0,-1,1686,869,0,0
469,155,0,0,0,0,0,0,0,0,0,-1,1693,869,0,0
476,155,0,0,0,0,0,0,0,0,0,-1,1700,869,0,0
483,155,0,0,0,0,0,0,0,0,0,-1,1707,869,0,0
490,155,0,0,0,0,0,0,0,0,0,-1,1714,869,0,0
497,155,0,0,0,0,0,0,0,0,0,-1,1721,869,0,0
504,155,0,0,0,0,0,0,0,0,0,-1,1728,869,0,0
511,155,0,0,0,0,0,0,0,0,0,-1,1735,869,0,0
518,155,0,0,0,0,0,0,0,0,0,-1,1742,869,0,0
525,155,0,0,0,0,0,0,0,0,0,-1,1749,869,0,0
532,155,0,0,0,0,0,0,0,0,0,-1,1756,869,0,0
539,155,0,0,0,0,0,0,0,0,0,-1,1763,869,0,0
546,155,0,0,0,0,0,0,0,0,0,-1,1770,869,0,0
553,155,0,0,0,0,0,0,0,0,0,-1,1777,869,0,0
560,155,0,0,0,0,0,0,0,0,0,-1,1784,869,0,0
567,155,0,0,0,0,0,0,0,0,0,-1,1791,869,0,0
574,155,0,0,0,0,0,0,0,0,0,-1,1798,869,0,0
581,155,0,0,0,0,0,0,0,0,0,-1,1805,869,0,0
588,155,0,0,0,0,0,0,0,0,0,-1,1812,869,0,0
595,155,0,0,0,0,0,0,0,0,0,-1,1819,869,0,0
602,155,0,0,0,0,0,0,0,0,0,-1,1826,869,0,0
609,155,0,0,0,0,0,0,0,0,0,-1,1833,869,0,0
616,155,21.9899,2.74609,0.00607452,0.00230827,0.00392993,0.00854921,-0.000166414,0.561974,0.00575575,0.0425234,1840,869,21.9899,-2.74612
623,155,21.8938,2.78015,0.00444556,0.00178958,0.00320377,0.00658566,-0.000350525,0.588922,0.00451183,0.0404815,1847,869,21.8938,-2.78017
630,155,21.8914,2.73749,0.00344369,0.00139928,0.00236889,0.00500151,-0.000158544,0.581711,0.00338842,0.0419002,1854,869,21.8914,-2.73748
637,155,21.8918,2.89185,0.0028039,0.000886635,0.00150152,0.00362671,6.38261e-05,0.501294,0.00239681,0.0413672,1861,869,21.8919,-2.89182
644,155,21.9858,2.97119,0.00203664,0.000383731,0.000699642,0.00229302,0.000127353,0.351246,0.00148805,0.0399181,1868,869,21.9858,-2.97121
651,155,21.9857,2.82611,0.000990172,-1.83005e-05,1.39749e-05,0.000990366,-1.84941e-05,0.013854,0.000666494,0.0364992,1875,869,21.9857,-2.82613
658,155,21.9039,2.7868,7.26968e-05,-0.00032392,-0.000468671,0.000383288,-0.000634512,-0.585256,0.000593564,0.0293568,1882,869,21.9039,-2.78679
665,155,21.8871,2.8009,-0.000784295,-0.000485401,-0.000808764,0.000187608,-0.0014573,-0.87676,0.00103973,0.0325477,1889,869,21.8871,-2.80091
672,155,21.9005,2.81543,-0.00158439,-0.000672356,-0.000977076,-5.01217e-05,-0.00220663,-1.00373,0.00145467,0.0402017,1896,869,21.9005,-2.81542
679,155,21.9489,2.82056,0,0,0,0,0,0,0,-1,1903,869,21.9489,-2.82055
686,155,18.7313,2.69873,0,0,0,0,0,0,0,-1,1910,869,18.7313,-2.6987
693,155,18.639,2.80237,-0.00334054,-0.000672134,-0.00158777,6.75761e-05,-0.00408025,-1.13482,0.00274297,0.0236016,1917,869,18.6391,-2.80235
700,155,18.6947,3.00989,-0.00347328,-0.000580551,-0.00164988,0.000167186,-0.00422102,-1.14528,0.00287137,0.0172133,1924,869,18.6947,-3.00986
707,155,18.752,3.21906,-0.00343337,-0.000452438,-0.00162175,0.00025972,-0.00414552,-1.15702,0.0028542,0.0121355,1931,869,18.7519,-3.21904
714,155,18.7085,3.3385,-0.00256173,-3.0203e-05,-0.00166898,0.000798703,-0.00339064,-1.10983,0.0025684,0.0214645,1938,869,18.7085,-3.33849
721,155,18.6206,3.5509,-0.000293193,0.000437802,-0.00171002,0.00182095,-0.00167634,-0.890683,0.00201974,0.0255125,1945,869,18.6206,-3.55091
728,155,18.6072,3.74078,0.00273356,0.00119185,-0.00251292,0.0045912,-0.000665791,-0.636576,0.00330516,0.0194111,1952,869,18.6071,-3.74078
735,155,18.6228,3.90747,0.00605877,0.00222509,-0.0039829,0.00856209,-0.000278225,-0.561123,0.00580302,0.0161387,1959,869,18.6228,-3.90746
742,155,18.6404,4.08856,0.0106029,0.00336336,-0.00483912,0.0130263,0.00093997,-0.46428,0.00838846,0.0169977,1966,869,18.6404,-4.08853
749,155,18.6184,4.27454,0.01524,0.00477307,-0.00628098,0.0181821,0.00183097,-0.438062,0.0115595,0.0138372,1973,869,18.6184,-4.27453
756,155,18.6525,4.4303,0.0202996,0.00660345,-0.00815882,0.0241034,0.00279965,-0.43626,0.0152218,0.0236429,1980,869,18.6524,-4.43029
763,155,18.8707,4.3385,0.0255459,0.00895076,-0.0104465,0.0305893,0.00390745,-0.449773,0.0192232,0.0390425,1987,869,18.8707,-4.33848
770,155,18.9663,3.90546,0.0308871,0.011923,-0.013054,0.0375394,0.00527072,-0.471295,0.0234675,0.0426255,1994,869,18.9663,-3.90546
777,155,19.3446,4.60803,0.0358416,0.0156379,-0.0158865,0.044566,0.00691353,-0.502208,0.0276953,0.0463222,2001,869,19.3446,-4.60801
784,155,18.4559,2.99426,0.0395796,0.0202466,-0.0187897,0.0510434,0.00878269,-0.547825,0.031512,0.043072,2008,869,18.4559,-2.99428
791,155,0,0,0,0,0,0,0,0,0,-1,2015,869,0,0
798,155,0,0,0,0,0,0,0,0,0,-1,2022,869,0,0
805,155,0,0,0,0,0,0,0,0,0,-1,2029,869,0,0
812,155,0,0,0,0,0,0,0,0,0,-1,2036,869,0,0
-700,148,0,0,0,0,0,0,0,0,0,-1,524,876,0,0
-693,148,0,0,0,0,0,0,0,0,0,-1,531,876,0,0
-686,148,0,0,0,0,0,0,0,0,0,-1,538,876,0,0
-679,148,0,0,0,0,0,0,0,0,0,-1,545,876,0,0
-672,148,-14.3624,1.66394,0.0401153,0.0137728,0.0805013,0.108516,-0.0546277,0.704309,0.0958884,0.0471123,552,876,-14.3624,-1.66397
-665,148,-14.1713,2.9162,0.0373512,0.0255598,0.065559,0.0972791,-0.034368,0.740554,0.0788463,0.0472402,559,876,-14.1713,-2.91619
-658,148,-13.4924,3.63239,0.0325946,0.0308734,0.0530685,0.0848095,-0.0213415,0.77729,0.0648351,0.0430505,566,876,-13.4924,-3.6324
-651,148,-13.5472,3.06464,0,0,0,0,0,0,0,-1,573,876,-13.5472,-3.06465
-644,148,-13.0835,2.58447,0,0,0,0,0,0,0,-1,580,876,-13.0835,-2.5845
-637,148,-12.7701,1.93628,0,0,0,0,0,0,0,-1,587,876,-12.7701,-1.93626
-630,148,-12.2111,1.67059,0,0,0,0,0,0,0,-1,594,876,-12.211,-1.67056
-623,148,-11.9539,1.9621,0.00766882,0.0214998,0.0146218,0.030759,-0.00159039,1.00629,0.0210561,0.0207841,601,876,-11.9539,-1.96208
-616,148,-12.0337,1.8858,0.0035011,0.0181109,0.0100001,0.0231901,-0.00157802,1.10084,0.016012,0.0116604,608,876,-12.0337,-1.88581
-609,148,-12.0876,1.71307,0.000315257,0.0146286,0.00632401,0.0170224,-0.00207852,1.20894,0.0121008,0.0109547,615,876,-12.0876,-1.7131
-602,148,-12.1021,1.53644,-0.00240963,0.00959296,0.00410977,0.0108653,-0.00368197,1.27057,0.00873351,0.0111992,622,876,-12.102,-1.53644
-595,148,-12.0973,1.38202,-0.00491217,0.00580505,0.00347927,0.0068355,-0.00594261,1.28286,0.00738345,0.00977484,629,876,-12.0973,-1.38201
-588,148,-12.1038,1.20691,-0.00702947,0.00249979,0.00296774,0.00334847,-0.00787815,1.29226,0.00665523,0.0133985,636,876,-12.1038,-1.20694
-581,148,-12.1627,1.05817,-0.00889365,0.000564196,0.00268626,0.0012739,-0.00960336,1.3125,0.00686638,0.0214638,643,876,-12.1627,-1.05816
-574,148,-12.0398,0.952087,-0.0102238,-0.000831283,0.00269431,-0.000113286,-0.0109418,1.31036,0.00725707,0.0265722,650,876,-12.0398,-0.952088
-567,148,-12.1379,0.748352,-0.010911,-0.00158249,0.00275096,-0.000831665,-0.0116618,1.30436,0.00751268,0.0342224,657,876,-12.1379,-0.748328
-560,148,-12.1484,0.489441,-0.0111969,-0.00204315,0.00284783,-0.00122948,-0.0120106,1.2925,0.0076303,0.0315428,664,876,-12.1485,-0.489427
-553,148,-12.2371,0.451599,0,0,0,0,0,0,0,-1,671,876,-12.2371,-0.451607
-546,148,-13.631,0.714722,0,0,0,0,0,0,0,-1,678,876,-13.631,-0.714739
-539,148,-14.4042,0.911621,-0.0100218,-0.00239564,0.00272165,-0.00152396,-0.0108935,1.26084,0.00681141,0.0358469,685,876,-14.4042,-0.911646
-532,148,-14.351,1.00311,-0.00814904,-0.00235998,0.00245929,-0.0014563,-0.00905272,1.21866,0.00561305,0.0348358,692,876,-14.3509,-1.00311
-525,148,-14.2873,1.13904,-0.00523682,-0.00219146,0.00211479,-0.0011082,-0.00632007,1.09741,0.00389686,0.0372196,699,876,-14.2873,-1.13906
-518,148,-14.2922,1.078,-0.000869652,-0.00185691,0.00175358,0.000458448,-0.00318501,0.6482,0.00229149,0.0461335,706,876,-14.2922,-1.07799
-511,148,-14.2657,1.03925,0.00505657,-0.00129125,0.00147493,0.00538254,-0.00161721,0.217507,0.00423172,0.0457779,713,876,-14.2657,-1.03925
-504,148,-14.2056,1.07019,0.0116521,-0.000651744,0.00187875,0.0119326,-0.000932227,0.148198,0.0082833,0.0441059,720,876,-14.2056,-1.0702
-497,148,0,0,0,0,0,0,0,0,0,-1,727,876,0,0
-490,148,0,0,0,0,0,0,0,0,0,-1,734,876,0,0
-483,148,0,0,0,0,0,0,0,0,0,-1,741,876,0,0
-476,148,0,0,0,0,0,0,0,0,0,-1,748,876,0,0
-469,148,0,0,0,0,0,0,0,0,0,-1,755,876,0,0
-462,148,0,0,0,0,0,0,0,0,0,-1,762,876,0,0
-455,148,0,0,0,0,0,0,0,0,0,-1,769,876,0,0
-448,148,0,0,0,0,0,0,0,0,0,-1,776,876,0,0
-441,148,0,0,0,0,0,0,0,0,0,-1,783,876,0,0
-434,148,0,0,0,0,0,0,0,0,0,-1,790,876,0,0
-427,148,0,0,0,0,0,0,0,0,0,-1,797,876,0,0
-420,148,0,0,0,0,0,0,0,0,0,-1,804,876,0,0
-413,148,0,0,0,0,0,0,0,0,0,-1,811,876,0,0
-406,148,0,0,0,0,0,0,0,0,0,-1,818,876,0,0
-399,148,0,0,0,0,0,0,0,0,0,-1,825,876,0,0
-392,148,0,0,0,0,0,0,0,0,0,-1,832,876,0,0
-385,148,0,0,0,0,0,0,0,0,0,-1,839,876,0,0
-378,148,0,0,0,0,0,0,0,0,0,-1,846,876,0,0
-371,148,0,0,0,0,0,0,0,0,0,-1,853,876,0,0
-364,148,0,0,0,0,0,0,0,0,0,-1,860,876,0,0
-357,148,0,0,0,0,0,0,0,0,0,-1,867,876,0,0
-350,148,0,0,0,0,0,0,0,0,0,-1,874,876,0,0
-343,148,0,0,0,0,0,0,0,0,0,-1,881,876,0,0
-336,148,0,0,0,0,0,0,0,0,0,-1,888,876,0,0
-329,148,0,0,0,0,0,0,0,0,0,-1,895,876,0,0
-322,148,0,0,0,0,0,0,0,0,0,-1,902,876,0,0
-315,148,0,0,0,0,0,0,0,0,0,-1,909,876,0,0
-308,148,0,0,0,0,0,0,0,0,0,-1,916,876,0,0
-301,148,0,0,0,0,0,0,0,0,0,-1,923,876,0,0
-294,148,0,0,0,0,0,0,0,0,0,-1,930,876,0,0
-287,148,0,0,0,0,0,0,0,0,0,-1,937,876,0,0
-280,148,0,0,0,0,0,0,0,0,0,-1,944,876,0,0
-273,148,0,0,0,0,0,0,0,0,0,-1,951,876,0,0
-266,148,0,0,0,0,0,0,0,0,0,-1,958,876,0,0
-259,148,0,0,0,0,0,0,0,0,0,-1,965,876,0,0
-252,148,0,0,0,0,0,0,0,0,0,-1,972,876,0,0
-245,148,0,0,0,0,0,0,0,0,0,-1,979,876,0,0
-238,148,0,0,0,0,0,0,0,0,0,-1,986,876,0,0
-231,148,0,0,0,0,0,0,0,0,0,-1,993,876,0,0
-224,148,0,0,0,0,0,0,0,0,0,-1,1000,876,0,0
-217,148,0,0,0,0,0,0,0,0,0,-1,1007,876,0,0
-210,148,0,0,0,0,0,0,0,0,0,-1,1014,876,0,0
-203,148,0,0,0,0,0,0,0,0,0,-1,1021,876,0,0
-196,148,0,0,0,0,0,0,0,0,0,-1,1028,876,0,0
-189,148,0,0,0,0,0,0,0,0,0,-1,1035,876,0,0
-182,148,0,0,0,0,0,0,0,0,0,-1,1042,876,0,0
-175,148,0,0,0,0,0,0,0,0,0,-1,1049,876,0,0
-168,148,0,0,0,0,0,0,0,0,0,-1,1056,876,0,0
-161,148,0,0,0,0,0,0,0,0,0,-1,1063,876,0,0
-154,148,0,0,0,0,0,0,0,0,0,-1,1070,876,0,0
-147,148,0,0,0,0,0,0,0,0,0,-1,1077,876,0,0
-140,148,0,0,0,0,0,0,0,0,0,-1,1084,876,0,0
-133,148,0,0,0,0,0,0,0,0,0,-1,1091,876,0,0
-126,148,0,0,0,0,0,0,0,0,0,-1,1098,876,0,0
-119,148,0,0,0,0,0,0,0,0,0,-1,1105,876,0,0
-112,148,0,0,0,0,0,0,0,0,0,-1,1112,876,0,0
-105,148,0,0,0,0,0,0,0,0,0,-1,1119,876,0,0
-98,148,0,0,0,0,0,0,0,0,0,-1,1126,876,0,0
-91,148,0,0,0,0,0,0,0,0,0,-1,1133,876,0,0
-84,148,0,0,0,0,0,0,0,0,0,-1,1140,876,0,0
-77,148,0,0,0,0,0,0,0,0,0,-1,1147,876,0,0
-70,148,0,0,0,0,0,0,0,0,0,-1,1154,876,0,0
-63,148,0,0,0,0,0,0,0,0,0,-1,1161,876,0,0
-56,148,0,0,0,0,0,0,0,0,0,-1,1168,876,0,0
-49,148,0,0,0,0,0,0,0,0,0,-1,1175,876,0,0
-42,148,0,0,0,0,0,0,0,0,0,-1,1182,876,0,0
-35,148,0,0,0,0,0,0,0,0,0,-1,1189,876,0,0
-28,148,0,0,0,0,0,0,0,0,0,-1,1196,876,0,0
-21,148,0,0,0,0,0,0,0,0,0,-1,1203,876,0,0
-14,148,0,0,0,0,0,0,0,0,0,-1,1210,876,0,0
-7,148,0,0,0,0,0,0,0,0,0,-1,1217,876,0,0
0,148,0,0,0,0,0,0,0,0,0,-1,1224,876,0,0
7,148,0,0,0,0,0,0,0,0,0,-1,1231,876,0,0
14,148,0,0,0,0,0,0,0,0,0,-1,1238,876,0,0
21,148,0,0,0,0,0,0,0,0,0,-1,1245,876,0,0
28,148,0,0,0,0,0,0,0,0,0,-1,1252,876,0,0
35,148,0,0,0,0,0,0,0,0,0,-1,1259,876,0,0
42,148,0,0,0,0,0,0,0,0,0,-1,1266,876,0,0
49,148,0,0,0,0,0,0,0,0,0,-1,1273,876,0,0
56,148,0,0,0,0,0,0,0,0,0,-1,1280,876,0,0
63,148,0,0,0,0,0,0,0,0,0,-1,1287,876,0,0
70,148,0,0,0,0,0,0,0,0,0,-1,1294,876,0,0
77,148,0,0,0,0,0,0,0,0,0,-1,1301,876,0,0
84,148,0,0,0,0,0,0,0,0,0,-1,1308,876,0,0
91,148,0,0,0,0,0,0,0,0,0,-1,1315,876,0,0
98,148,0,0,0,0,0,0,0,0,0,-1,1322,876,0,0
105,148,0,0,0,0,0,0,0,0,0,-1,1329,876,0,0
112,148,0,0,0,0,0,0,0,0,0,-1,1336,876,0,0
119,148,0,0,0,0,0,0,0,0,0,-1,1343,876,0,0
126,148,0,0,0,0,0,0,0,0,0,-1,1350,876,0,0
133,148,0,0,0,0,0,0,0,0,0,-1,1357,876,0,0
140,148,0,0,0,0,0,0,0,0,0,-1,1364,876,0,0
147,148,0,0,0,0,0,0,0,0,0,-1,1371,876,0,0
154,148,0,0,0,0,0,0,0,0,0,-1,1378,876,0,0
161,148,0,0,0,0,0,0,0,0,0,-1,1385,876,0,0
168,148,0,0,0,0,0,0,0,0,0,-1,1392,876,0,0
175,148,0,0,0,0,0,0,0,0,0,-1,1399,876,0,0
182,148,0,0,0,0,0,0,0,0,0,-1,1406,876,0,0
189,148,0,0,0,0,0,0,0,0,0,-1,1413,876,0,0
196,148,0,0,0,0,0,0,0,0,0,-1,1420,876,0,0
203,148,0,0,0,0,0,0,0,0,0,-1,1427,876,0,0
210,148,0,0,0,0,0,0,0,0,0,-1,1434,876,0,0
217,148,0,0,0,0,0,0,0,0,0,-1,1441,876,0,0
224,148,0,0,0,0,0,0,0,0,0,-1,1448,876,0,0
231,148,0,0,0,0,0,0,0,0,0,-1,1455,876,0,0
238,148,0,0,0,0,0,0,0,0,0,-1,1462,876,0,0
245,148,0,0,0,0,0,0,0,0,0,-1,1469,876,0,0
252,148,0,0,0,0,0,0,0,0,0,-1,1476,876,0,0
259,148,0,0,0,0,0,0,0,0,0,-1,1483,876,0,0
266,148,0,0,0,0,0,0,0,0,0,-1,1490,876,0,0
273,148,0,0,0,0,0,0,0,0,0,-1,1497,876,0,0
280,148,0,0,0,0,0,0,0,0,0,-1,1504,876,0,0
287,148,0,0,0,0,0,0,0,0,0,-1,1511,876,0,0
294,148,0,0,0,0,0,0,0,0,0,-1,1518,876,0,0
301,148,0,0,0,0,0,0,0,0,0,-1,1525,876,0,0
308,148,0,0,0,0,0,0,0,0,0,-1,1532,876,0,0
315,148,0,0,0,0,0,0,0,0,0,-1,1539,876,0,0
322,148,0,0,0,0,0,0,0,0,0,-1,1546,876,0,0
329,148,0,0,0,0,0,0,0,0,0,-1,1553,876,0,0
336,148,0,0,0,0,0,0,0,0,0,-1,1560,876,0,0
343,148,0,0,0,0,0,0,0,0,0,-1,1567,876,0,0
350,148,0,0,0,0,0,0,0,0,0,-1,1574,876,0,0
357,148,0,0,0,0,0,0,0,0,0,-1,1581,876,0,0
364,148,0,0,0,0,0,0,0,0,0,-1,1588,876,0,0
371,148,0,0,0,0,0,0,0,0,0,-1,1595,876,0,0
378,148,0,0,0,0,0,0,0,0,0,-1,1602,876,0,0
385,148,0,0,0,0,0,0,0,0,0,-1,1609,876,0,0
392,148,0,0,0,0,0,0,0,0,0,-1,1616,876,0,0
399,148,0,0,0,0,0,0,0,0,0,-1,1623,876,0,0
406,148,0,0,0,0,0,0,0,0,0,-1,1630,876,0,0
413,148,0,0,0,0,0,0,0,0,0,-1,1637,876,0,0
420,148,0,0,0,0,0,0,0,0,0,-1,1644,876,0,0
427,148,0,0,0,0,0,0,0,0,0,-1,1651,876,0,0
434,148,0,0,0,0,0,0,0,0,0,-1,1658,876,0,0
441,148,0,0,0,0,0,0,0,0,0,-1,1665,876,0,0
448,148,0,0,0,0,0,0,0,0,0,-1,1672,876,0,0
455,148,0,0,0,0,0,0,0,0,0,-1,1679,876,0,0
462,148,0,0,0,0,0,0,0,0,0,-1,1686,876,0,0
469,148,0,0,0,0,0,0,0,0,0,-1,1693,876,0,0
476,148,0,0,0,0,0,0,0,0,0,-1,1700,876,0,0
483,148,0,0,0,0,0,0,0,0,0,-1,1707,876,0,0
490,148,0,0,0,0,0,0,0,0,0,-1,1714,876,0,0
497,148,0,0,0,0,0,0,0,0,0,-1,1721,876,0,0
504,148,0,0,0,0,0,0,0,0,0,-1,1728,876,0,0
511,148,0,0,0,0,0,0,0,0,0,-1,1735,876,0,0
518,148,0,0,0,0,0,0,0,0,0,-1,1742,876,0,0
525,148,0,0,0,0,0,0,0,0,0,-1,1749,876,0,0
532,148,0,0,0,0,0,0,0,0,0,-1,1756,876,0,0
539,148,0,0,0,0,0,0,0,0,0,-1,1763,876,0,0
546,148,0,0,0,0,0,0,0,0,0,-1,1770,876,0,0
553,148,0,0,0,0,0,0,0,0,0,-1,1777,876,0,0
560,148,0,0,0,0,0,0,0,0,0,-1,1784,876,0,0
567,148,0,0,0,0,0,0,0,0,0,-1,1791,876,0,0
574,148,0,0,0,0,0,0,0,0,0,-1,1798,876,0,0
581,148,0,0,0,0,0,0,0,0,0,-1,1805,876,0,0
588,148,0,0,0,0,0,0,0,0,0,-1,1812,876,0,0
595,148,0,0,0,0,0,0,0,0,0,-1,1819,876,0,0
602,148,0,0,0,0,0,0,0,0,0,-1,1826,876,0,0
609,148,0,0,0,0,0,0,0,0,0,-1,1833,876,0,0
616,148,0,0,0,0,0,0,0,0,0,-1,1840,876,0,0
623,148,21.8563,2.42487,0.0052259,0.00192801,0.00353464,0.0074773,-0.000323397,0.567149,0.00509609,0.0415509,1847,876,21.8563,-2.42489
630,148,21.8315,2.64624,0.0038264,0.00129785,0.00276856,0.00560569,-0.000481447,0.571211,0.00390751,0.0416846,1854,876,21.8316,-2.64625
637,148,21.9039,2.84094,0.00286173,0.000619166,0.00192026,0.0039641,-0.000483211,0.521141,0.00281765,0.0371377,1861,876,21.9039,-2.84092
644,148,21.8896,2.94586,0.00179674,2.8984e-06,0.00106484,0.00229207,-0.000492426,0.435392,0.0017159,0.0386862,1868,876,21.8897,-2.94587
651,148,21.8433,2.80322,0.000361189,-0.000426232,0.000269366,0.000444517,-0.000509561,0.300012,0.000551264,0.0416755,1875,876,21.8432,-2.80322
658,148,21.7686,2.89661,-0.000914184,-0.000707511,-0.000316129,-0.000478258,-0.00114344,-0.943364,0.000663097,0.034807,1882,876,21.7686,-2.89662
665,148,21.8323,2.85217,-0.00200595,-0.000828826,-0.000736003,-0.000474994,-0.00235978,-1.12267,0.00144119,0.0254517,1889,876,21.8323,-2.85219
672,148,21.8573,2.80853,-0.00293538,-0.000954092,-0.000979887,-0.000551339,-0.00333813,-1.18083,0.00206631,0.0290865,1896,876,21.8573,-2.80851
679,148,21.918,2.76862,0,0,0,0,0,0,0,-1,1903,876,21.9179,-2.76863
686,148,18.7836,2.50629,0,0,0,0,0,0,0,-1,1910,876,18.7836,-2.50627
693,148,18.8136,2.74963,-0.00492843,-0.000756961,-0.00170122,-0.000151146,-0.00553425,-1.22869,0.00364016,0.0384021,1917,876,18.8136,-2.7496
700,148,18.901,3.05682,-0.00498413,-0.000579004,-0.00176845,4.30928e-05,-0.00560623,-1.23254,0.00375193,0.017659,1924,876,18.9011,-3.05685
707,148,18.9777,3.28833,-0.00482573,-0.000385749,-0.00174297,0.000216724,-0.0054282,-1.23799,0.00369316,0.0143902,1931,876,18.9777,-3.28832
714,148,18.9446,3.39624,-0.00385415,3.46332e-05,-0.00182748,0.000758636,-0.00457816,-1.19359,0.00333388,0.0136716,1938,876,18.9445,-3.39622
721,148,18.8394,3.53961,-0.00150518,0.000400425,-0.00189351,0.00156735,-0.0026721,-1.0185,0.00247519,0.0155646,1945,876,18.8394,-3.53964
728,148,18.8186,3.74927,0.00165466,0.00104468,-0.00270101,0.00406785,-0.0013685,-0.729178,0.0032651,0.0189381,1952,876,18.8187,-3.74927
735,148,18.8253,3.92407,0.00516604,0.0019,-0.00412546,0.00796993,-0.000903886,-0.596941,0.00563878,0.0181948,1959,876,18.8253,-3.92407
742,148,18.814,4.0976,0.00994374,0.00280583,-0.00492889,0.0124601,0.000289437,-0.472043,0.00821197,0.0199665,1966,876,18.814,-4.09763
749,148,18.8085,4.28418,0.0147791,0.00391829,-0.0063357,0.0176932,0.00100422,-0.431093,0.0114754,0.0158335,1973,876,18.8084,-4.28417
756,148,18.8229,4.46973,0.0200239,0.00533887,-0.00815331,0.0236536,0.00170919,-0.418838,0.0152313,0.0196711,1980,876,18.8228,-4.46971
763,148,19.0925,4.42749,0.0253911,0.00712765,-0.010309,0.0300312,0.00248751,-0.422942,0.0192453,0.0413651,1987,876,19.0925,-4.42748
770,148,19.4886,4.33466,0.0309118,0.0093386,-0.0126317,0.0367358,0.0035146,-0.432014,0.0234071,0.04576,1994,876,19.4886,-4.33468
777,148,19.7898,4.81744,0.0362166,0.0120384,-0.014957,0.0433592,0.00489587,-0.44552,0.0274202,0.0462571,2001,876,19.7897,-4.81746
784,148,19.8948,5.39691,0,0,0,0,0,0,0,-1,2008,876,19.8948,-5.39692
791,148,22.1697,4.59912,0,0,0,0,0,0,0,-1,2015,876,22.1697,-4.59909
798,148,0,0,0,0,0,0,0,0,0,-1,2022,876,0,0
805,148,0,0,0,0,0,0,0,0,0,-1,2029,876,0,0
812,148,0,0,0,0,0,0,0,0,0,-1,2036,876,0,0
-700,141,0,0,0,0,0,0,0,0,0,-1,524,883,0,0
-693,141,0,0,0,0,0,0,0,0,0,-1,531,883,0,0
-686,141,0,0,0,0,0,0,0,0,0,-1,538,883,0,0
-679,141,0,0,0,0,0,0,0,0,0,-1,545,883,0,0
-672,141,-14.6378,1.65332,0.0556974,0.00715386,0.0667032,0.102408,-0.0395563,0.610906,0.0845981,0.0438187,552,883,-14.6378,-1.65335
-665,141,-14.4861,2.82977,0.0494913,0.0176868,0.0553423,0.0911707,-0.0239926,0.645495,0.0701591,0.0442063,559,883,-14.4861,-2.82979
-658,141,-14.0585,3.89825,0.042367,0.0227821,0.045433,0.0790509,-0.0139018,0.679254,0.0578936,0.0471856,566,883,-14.0585,-3.89826
-651,141,-13.504,2.96057,0,0,0,0,0,0,0,-1,573,883,-13.504,-2.96059
-644,141,-12.9944,2.4328,0,0,0,0,0,0,0,-1,580,883,-12.9945,-2.43282
-637,141,-12.9359,1.42175,0,0,0,0,0,0,0,-1,587,883,-12.9359,-1.42175
-630,141,-12.0698,2.09906,0,0,0,0,0,0,0,-1,594,883,-12.0698,-2.09907
-623,141,-12.0751,1.97467,0.0112249,0.0170012,0.0131631,0.0275893,0.000636833,0.893393,0.0181843,0.0219207,601,883,-12.0751,-1.97466
-616,141,-12.1913,1.86017,0.00617226,0.0144785,0.00904401,0.0202774,0.000373357,1.00064,0.0133955,0.0121712,608,883,-12.1914,-1.86017
-609,141,-12.2476,1.71301,0.00207589,0.0116982,0.0058687,0.0144758,-0.000701686,1.12875,0.00989271,0.0127057,615,883,-12.2475,-1.71302
-602,141,-12.2568,1.53796,-0.00143359,0.00741004,0.00394957,0.0089171,-0.00294065,1.20627,0.00713004,0.0118057,622,883,-12.2568,-1.53794
-595,141,-12.2594,1.3717,-0.00449865,0.00442329,0.00339715,0.00556954,-0.0056449,1.24538,0.00647471,0.0102949,629,883,-12.2594,-1.37169
-588,141,-12.3634,1.22351,-0.00699294,0.00193829,0.00297286,0.00283733,-0.00789198,1.27712,0.00641963,0.0155124,636,883,-12.3634,-1.22353
-581,141,-12.3688,1.09961,-0.00907684,0.000401819,0.0026857,0.0011099,-0.00978491,1.31302,0.00692296,0.0213732,643,883,-12.3689,-1.09958
-574,141,-12.1975,1.00336,-0.0104717,-0.000805191,0.00266761,-0.000117894,-0.011159,1.31863,0.00740033,0.0263288,650,883,-12.1975,-1.00336
-567,141,-12.2045,0.888977,-0.0111578,-0.00150026,0.00272574,-0.000784065,-0.011874,1.31385,0.00766803,0.0320799,657,883,-12.2045,-0.88898
-560,141,-12.395,0.861694,-0.0113771,-0.00198781,0.00285933,-0.00118559,-0.0121793,1.29727,0.00775462,0.0404053,664,883,-12.395,-0.861717
-553,141,-13.4514,1.0639,0,0,0,0,0,0,0,-1,671,883,-13.4514,-1.06389
-546,141,-14.4265,0.934021,-0.0109788,-0.00246913,0.00295079,-0.00154606,-0.0119019,1.26762,0.00747275,0.0355441,678,883,-14.4265,-0.934014
-539,141,-14.4067,0.907898,-0.00976893,-0.00256608,0.00279118,-0.00161108,-0.0107239,1.24113,0.00667736,0.0297324,685,883,-14.4067,-0.907917
-532,141,-14.3363,0.946533,-0.00759074,-0.0026568,0.00252782,-0.00159166,-0.00865588,1.17201,0.00532,0.0295439,692,883,-14.3363,-0.946519
-525,141,-14.3138,0.948242,-0.00425837,-0.00265346,0.00215544,-0.00115595,-0.00575589,0.963596,0.00351587,0.0362624,699,883,-14.3138,-0.948229
-518,141,-14.4025,1.00873,0.000654138,-0.00252693,0.00172329,0.00140871,-0.0032815,0.412719,0.00277892,0.0408457,706,883,-14.4025,-1.00874
-511,141,-14.4274,1.0415,0.00688392,-0.00217607,0.00136336,0.00708463,-0.00237678,0.14617,0.0056835,0.0385841,713,883,-14.4274,-1.04153
-504,141,-14.3821,1.08862,0.0130096,-0.0018289,0.0019093,0.0132513,-0.00207063,0.125939,0.00959918,0.0398152,720,883,-14.3821,-1.08865
-497,141,0,0,0,0,0,0,0,0,0,-1,727,883,0,0
-490,141,0,0,0,0,0,0,0,0,0,-1,734,883,0,0
-483,141,0,0,0,0,0,0,0,0,0,-1,741,883,0,0
-476,141,0,0,0,0,0,0,0,0,0,-1,748,883,0,0
-469,141,0,0,0,0,0,0,0,0,0,-1,755,883,0,0
-462,141,0,0,0,0,0,0,0,0,0,-1,762,883,0,0
-455,141,0,0,0,0,0,0,0,0,0,-1,769,883,0,0
-448,141,0,0,0,0,0,0,0,0,0,-1,776,883,0,0
-441,141,0,0,0,0,0,0,0,0,0,-1,783,883,0,0
-434,141,0,0,0,0,0,0,0,0,0,-1,790,883,0,0
-427,141,0,0,0,0,0,0,0,0,0,-1,797,883,0,0
-420,141,0,0,0,0,0,0,0,0,0,-1,804,883,0,0
-413,141,0,0,0,0,0,0,0,0,0,-1,811,883,0,0
-406,141,0,0,0,0,0,0,0,0,0,-1,818,883,0,0
-399,141,0,0,0,0,0,0,0,0,0,-1,825,883,0,0
-392,141,0,0,0,0,0,0,0,0,0,-1,832,883,0,0
-385,141,0,0,0,0,0,0,0,0,0,-1,839,883,0,0
-378,141,0,0,0,0,0,0,0,0,0,-1,846,883,0,0
-371,141,0,0,0,0,0,0,0,0,0,-1,853,883,0,0
-364,141,0,0,0,0,0,0,0,0,0,-1,860,883,0,0
-357,141,0,0,0,0,0,0,0,0,0,-1,867,883,0,0
-350,141,0,0,0,0,0,0,0,0,0,-1,874,883,0,0
-343,141,0,0,0,0,0,0,0,0,0,-1,881,883,0,0
-336,141,0,0,0,0,0,0,0,0,0,-1,888,883,0,0
-329,141,0,0,0,0,0,0,0,0,0,-1,895,883,0,0
-322,141,0,0,0,0,0,0,0,0,0,-1,902,883,0,0
-315,141,0,0,0,0,0,0,0,0,0,-1,909,883,0,0
-308,141,0,0,0,0,0,0,0,0,0,-1,916,883,0,0
-301,141,0,0,0,0,0,0,0,0,0,-1,923,883,0,0
-294,141,0,0,0,0,0,0,0,0,0,-1,930,883,0,0
-287,141,0,0,0,0,0,0,0,0,0,-1,937,883,0,0
-280,141,0,0,0,0,0,0,0,0,0,-1,944,883,0,0
-273,141,0,0,0,0,0,0,0,0,0,-1,951,883,0,0
-266,141,0,0,0,0,0,0,0,0,0,-1,958,883,0,0
-259,141,0,0,0,0,0,0,0,0,0,-1,965,883,0,0
-252,141,0,0,0,0,0,0,0,0,0,-1,972,883,0,0
-245,141,0,0,0,0,0,0,0,0,0,-1,979,883,0,0
-238,141,0,0,0,0,0,0,0,0,0,-1,986,883,0,0
-231,141,0,0,0,0,0,0,0,0,0,-1,993,883,0,0
-224,141,0,0,0,0,0,0,0,0,0,-1,1000,883,0,0
-217,141,0,0,0,0,0,0,0,0,0,-1,1007,883,0,0
-210,141,0,0,0,0,0,0,0,0,0,-1,1014,883,0,0
-203,141,0,0,0,0,0,0,0,0,0,-1,1021,883,0,0
-196,141,0,0,0,0,0,0,0,0,0,-1,1028,883,0,0
-189,141,0,0,0,0,0,0,0,0,0,-1,1035,883,0,0
-182,141,0,0,0,0,0,0,0,0,0,-1,1042,883,0,0
-175,141,0,0,0,0,0,0,0,0,0,-1,1049,883,0,0
-168,141,0,0,0,0,0,0,0,0,0,-1,1056,883,0,0
-161,141,0,0,0,0,0,0,0,0,0,-1,1063,883,0,0
-154,141,0,0,0,0,0,0,0,0,0,-1,1070,883,0,0
-147,141,0,0,0,0,0,0,0,0,0,-1,1077,883,0,0
-140,141,0,0,0,0,0,0,0,0,0,-1,1084,883,0,0
-133,141,0,0,0,0,0,0,0,0,0,-1,1091,883,0,0
-126,141,0,0,0,0,0,0,0,0,0,-1,1098,883,0,0
-119,141,0,0,0,0,0,0,0,0,0,-1,1105,883,0,0
-112,141,0,0,0,0,0,0,0,0,0,-1,1112,883,0,0
-105,141,0,0,0,0,0,0,0,0,0,-1,1119,883,0,0
-98,141,0,0,0,0,0,0,0,0,0,-1,1126,883,0,0
-91,141,0,0,0,0,0,0,0,0,0,-1,1133,883,0,0
-84,141,0,0,0,0,0,0,0,0,0,-1,1140,883,0,0
-77,141,0,0,0,0,0,0,0,0,0,-1,1147,883,0,0
-70,141,0,0,0,0,0,0,0,0,0,-1,1154,883,0,0
-63,141,0,0,0,0,0,0,0,0,0,-1,1161,883,0,0
-56,141,0,0,0,0,0,0,0,0,0,-1,1168,883,0,0
-49,141,0,0,0,0,0,0,0,0,0,-1,1175,883,0,0
-42,141,0,0,0,0,0,0,0,0,0,-1,1182,883,0,0
-35,141,0,0,0,0,0,0,0,0,0,-1,1189,883,0,0
-28,141,0,0,0,0,0,0,0,0,0,-1,1196,883,0,0
-21,141,0,0,0,0,0,0,0,0,0,-1,1203,883,0,0
-14,141,0,0,0,0,0,0,0,0,0,-1,1210,883,0,0
-7,141,0,0,0,0,0,0,0,0,0,-1,1217,883,0,0
0,141,0,0,0,0,0,0,0,0,0,-1,1224,883,0,0
7,141,0,0,0,0,0,0,0,0,0,-1,1231,883,0,0
14,141,0,0,0,0,0,0,0,0,0,-1,1238,883,0,0
21,141,0,0,0,0,0,0,0,0,0,-1,1245,883,0,0
28,141,0,0,0,0,0,0,0,0,0,-1,1252,883,0,0
35,141,0,0,0,0,0,0,0,0,0,-1,1259,883,0,0
42,141,0,0,0,0,0,0,0,0,0,-1,1266,883,0,0
49,141,0,0,0,0,0,0,0,0,0,-1,1273,883,0,0
56,141,0,0,0,0,0,0,0,0,0,-1,1280,883,0,0
63,141,0,0,0,0,0,0,0,0,0,-1,1287,883,0,0
70,141,0,0,0,0,0,0,0,0,0,-1,1294,883,0,0
77,141,0,0,0,0,0,0,0,0,0,-1,1301,883,0,0
84,141,0,0,0,0,0,0,0,0,0,-1,1308,883,0,0
91,141,0,0,0,0,0,0,0,0,0,-1,1315,883,0,0
98,141,0,0,0,0,0,0,0,0,0,-1,1322,883,0,0
105,141,0,0,0,0,0,0,0,0,0,-1,1329,883,0,0
112,141,0,0,0,0,0,0,0,0,0,-1,1336,883,0,0
119,141,0,0,0,0,0,0,0,0,0,-1,1343,883,0,0
126,141,0,0,0,0,0,0,0,0,0,-1,1350,883,0,0
133,141,0,0,0,0,0,0,0,0,0,-1,1357,883,0,0
140,141,0,0,0,0,0,0,0,0,0,-1,1364,883,0,0
147,141,0,0,0,0,0,0,0,0,0,-1,1371,883,0,0
154,141,0,0,0,0,0,0,0,0,0,-1,1378,883,0,0
161,141,0,0,0,0,0,0,0,0,0,-1,1385,883,0,0
168,141,0,0,0,0,0,0,0,0,0,-1,1392,883,0,0
175,141,0,0,0,0,0,0,0,0,0,-1,1399,883,0,0
182,141,0,0,0,0,0,0,0,0,0,-1,1406,883,0,0
189,141,0,0,0,0,0,0,0,0,0,-1,1413,883,0,0
196,141,0,0,0,0,0,0,0,0,0,-1,1420,883,0,0
203,141,0,0,0,0,0,0,0,0,0,-1,1427,883,0,0
210,141,0,0,0,0,0,0,0,0,0,-1,1434,883,0,0
217,141,0,0,0,0,0,0,0,0,0,-1,1441,883,0,0
224,141,0,0,0,0,0,0,0,0,0,-1,1448,883,0,0
231,141,0,0,0,0,0,0,0,0,0,-1,1455,883,0,0
238,141,0,0,0,0,0,0,0,0,0,-1,1462,883,0,0
245,141,0,0,0,0,0,0,0,0,0,-1,1469,883,0,0
252,141,0,0,0,0,0,0,0,0,0,-1,1476,883,0,0
259,141,0,0,0,0,0,0,0,0,0,-1,1483,883,0,0
266,141,0,0,0,0,0,0,0,0,0,-1,1490,883,0,0
273,141,0,0,0,0,0,0,0,0,0,-1,1497,883,0,0
280,141,0,0,0,0,0,0,0,0,0,-1,1504,883,0,0
287,141,0,0,0,0,0,0,0,0,0,-1,1511,883,0,0
294,141,0,0,0,0,0,0,0,0,0,-1,1518,883,0,0
301,141,0,0,0,0,0,0,0,0,0,-1,1525,883,0,0
308,141,0,0,0,0,0,0,0,0,0,-1,1532,883,0,0
315,141,0,0,0,0,0,0,0,0,0,-1,1539,883,0,0
322,141,0,0,0,0,0,0,0,0,0,-1,1546,883,0,0
329,141,0,0,0,0,0,0,0,0,0,-1,1553,883,0,0
336,141,0,0,0,0,0,0,0,0,0,-1,1560,883,0,0
343,141,0,0,0,0,0,0,0,0,0,-1,1567,883,0,0
350,141,0,0,0,0,0,0,0,0,0,-1,1574,883,0,0
357,141,0,0,0,0,0,0,0,0,0,-1,1581,883,0,0
364,141,0,0,0,0,0,0,0,0,0,-1,1588,883,0,0
371,141,0,0,0,0,0,0,0,0,0,-1,1595,883,0,0
378,141,0,0,0,0,0,0,0,0,0,-1,1602,883,0,0
385,141,0,0,0,0,0,0,0,0,0,-1,1609,883,0,0
392,141,0,0,0,0,0,0,0,0,0,-1,1616,883,0,0
399,141,0,0,0,0,0,0,0,0,0,-1,1623,883,0,0
406,141,0,0,0,0,0,0,0,0,0,-1,1630,883,0,0
413,141,0,0,0,0,0,0,0,0,0,-1,1637,883,0,0
420,141,0,0,0,0,0,0,0,0,0,-1,1644,883,0,0
427,141,0,0,0,0,0,0,0,0,0,-1,1651,883,0,0
434,141,0,0,0,0,0,0,0,0,0,-1,1658,883,0,0
441,141,0,0,0,0,0,0,0,0,0,-1,1665,883,0,0
448,141,0,0,0,0,0,0,0,0,0,-1,1672,883,0,0
455,141,0,0,0,0,0,0,0,0,0,-1,1679,883,0,0
462,141,0,0,0,0,0,0,0,0,0,-1,1686,883,0,0
469,141,0,0,0,0,0,0,0,0,0,-1,1693,883,0,0
476,141,0,0,0,0,0,0,0,0,0,-1,1700,883,0,0
483,141,0,0,0,0,0,0,0,0,0,-1,1707,883,0,0
490,141,0,0,0,0,0,0,0,0,0,-1,1714,883,0,0
497,141,0,0,0,0,0,0,0,0,0,-1,1721,883,0,0
504,141,0,0,0,0,0,0,0,0,0,-1,1728,883,0,0
511,141,0,0,0,0,0,0,0,0,0,-1,1735,883,0,0
518,141,0,0,0,0,0,0,0,0,0,-1,1742,883,0,0
525,141,0,0,0,0,0,0,0,0,0,-1,1749,883,0,0
532,141,0,0,0,0,0,0,0,0,0,-1,1756,883,0,0
539,141,0,0,0,0,0,0,0,0,0,-1,1763,883,0,0
546,141,0,0,0,0,0,0,0,0,0,-1,1770,883,0,0
553,141,0,0,0,0,0,0,0,0,0,-1,1777,883,0,0
560,141,0,0,0,0,0,0,0,0,0,-1,1784,883,0,0
567,141,0,0,0,0,0,0,0,0,0,-1,1791,883,0,0
574,141,0,0,0,0,0,0,0,0,0,-1,1798,883,0,0
581,141,0,0,0,0,0,0,0,0,0,-1,1805,883,0,0
588,141,0,0,0,0,0,0,0,0,0,-1,1812,883,0,0
595,141,0,0,0,0,0,0,0,0,0,-1,1819,883,0,0
602,141,0,0,0,0,0,0,0,0,0,-1,1826,883,0,0
609,141,0,0,0,0,0,0,0,0,0,-1,1833,883,0,0
616,141,0,0,0,0,0,0,0,0,0,-1,1840,883,0,0
623,141,21.735,2.52686,0.00554773,0.00141598,0.00432904,0.00827857,-0.00131486,0.562772,0.0060055,0.0453673,1847,883,21.7349,-2.52687
630,141,21.8384,2.63672,0.00374225,0.00088276,0.00346196,0.00605808,-0.00143307,0.589572,0.00459158,0.0463828,1854,883,21.8384,-2.63674
637,141,21.9604,2.78851,0.00252851,0.000358927,0.00251963,0.00418695,-0.00129951,0.582123,0.0033106,0.042629,1861,883,21.9604,-2.78853
644,141,21.8766,2.89813,0.00130855,-0.000133421,0.00156641,0.00231194,-0.00113681,0.569714,0.0020293,0.0393213,1868,883,21.8766,-2.89814
651,141,21.8112,2.99121,-0.000409037,-0.000462236,0.000631064,0.000195988,-0.00106726,0.764335,0.000785035,0.0402461,1875,883,21.8112,-2.9912
658,141,21.8442,2.99487,-0.00200909,-0.000659837,-9.42364e-05,-0.000653287,-0.00201564,-1.5014,0.00118749,0.0378118,1882,883,21.8442,-2.99485
665,141,21.8213,2.86322,-0.003329,-0.000734031,-0.000617647,-0.000594521,-0.00346851,-1.34865,0.00214185,0.0282192,1889,883,21.8212,-2.86319
672,141,21.8741,2.78583,-0.004387,-0.000819652,-0.000948155,-0.000583303,-0.00462335,-1.3265,0.00290737,0.0204714,1896,883,21.8742,-2.78584
679,141,21.9188,2.74127,-0.00521985,-0.000730946,-0.00126822,-0.000397425,-0.00555337,-1.31364,0.00357714,0.0233123,1903,883,21.9189,-2.74126
686,141,21.9487,2.68341,0,0,0,0,0,0,0,-1,1910,883,21.9487,-2.68339
693,141,18.9645,2.73621,0,0,0,0,0,0,0,-1,1917,883,18.9645,-2.73623
700,141,19.0428,3.00952,-0.00646661,-0.000400661,-0.00184562,0.000116749,-0.00698402,-1.29747,0.00469542,0.0177232,1924,883,19.0428,-3.00952
707,141,19.0516,3.19702,-0.00617244,-0.000263253,-0.00180922,0.000246672,-0.00668236,-1.29607,0.00453937,0.0148487,1931,883,19.0517,-3.197
714,141,18.9963,3.34503,-0.00509081,9.78453e-05,-0.00194208,0.000744229,-0.00573719,-1.2495,0.00409547,0.0151223,1938,883,18.9963,-3.34505
721,141,19.0092,3.526,-0.00265187,0.000331811,-0.00203002,0.00135921,-0.00367927,-1.10228,0.00301001,0.0117523,1945,883,19.0091,-3.52601
728,141,19.0017,3.67505,0.000641938,0.000839528,-0.0027863,0.00352878,-0.00204732,-0.803119,0.00325701,0.0144036,1952,883,19.0017,-3.67502
735,141,18.9899,3.90228,0.00437586,0.00150441,-0.00407179,0.00725764,-0.00137737,-0.615902,0.0053569,0.0150582,1959,883,18.9899,-3.90226
742,141,18.989,4.09644,0.00943615,0.00219527,-0.00473354,0.0117751,-0.00014365,-0.45893,0.00789837,0.0160138,1966,883,18.989,-4.09643
749,141,18.9935,4.27917,0.0145749,0.0030557,-0.00598384,0.0171207,0.00050992,-0.402245,0.0112477,0.0131598,1973,883,18.9935,-4.27916
756,141,19.0049,4.47424,0.0201431,0.00413184,-0.00759478,0.0231725,0.00110249,-0.379534,0.0150942,0.0195094,1980,883,19.0048,-4.47423
763,141,19.1703,4.64996,0.0257669,0.0054612,-0.00943456,0.0294737,0.00175435,-0.374372,0.0190913,0.0436493,1987,883,19.1703,-4.64997
770,141,19.7145,5.07538,0.031579,0.00705702,-0.011247,0.0359561,0.00267987,-0.371147,0.0231293,0.0444228,1994,883,19.7145,-5.07536
777,141,20.4629,5.10565,0.0372858,0.00893869,-0.0128015,0.0422111,0.00401333,-0.36729,0.026903,0.0415617,2001,883,20.4629,-5.10564
784,141,21.368,3.95526,0.0421583,0.0111122,-0.0137767,0.0473901,0.0058804,-0.362933,0.0298271,0.0448674,2008,883,21.3681,-3.95529
791,141,22.0294,4.47809,0.0450379,0.0135865,-0.0135722,0.0500849,0.00853958,-0.356014,0.0309388,0.0440104,2015,883,22.0294,-4.47807
798,141,0,0,0,0,0,0,0,0,0,-1,2022,883,0,0
805,141,0,0,0,0,0,0,0,0,0,-1,2029,883,0,0
812,141,0,0,0,0,0,0,0,0,0,-1,2036,883,0,0
-700,134,0,0,0,0,0,0,0,0,0,-1,524,890,0,0
-693,134,0,0,0,0,0,0,0,0,0,-1,531,890,0,0
-686,134,0,0,0,0,0,0,0,0,0,-1,538,890,0,0
-679,134,0,0,0,0,0,0,0,0,0,-1,545,890,0,0
-672,134,-15.1878,1.78497,0.0665909,0.00341094,0.053387,0.0970339,-0.0270321,0.518245,0.0753343,0.0437984,552,890,-15.1878,-1.78499
-665,134,-15.03,2.91064,0.0580645,0.0127252,0.0452867,0.0860387,-0.0152489,0.553342,0.0630597,0.0456631,559,890,-15.03,-2.91061
-658,134,-14.997,0.7724,0.0492961,0.0173821,0.0377799,0.0743507,-0.00767246,0.585579,0.0523125,0.0408438,566,890,-14.997,-0.772399
-651,134,-14.3363,0.722961,0,0,0,0,0,0,0,-1,573,890,-14.3363,-0.722977
-644,134,-13.8807,1.01862,0.0330683,0.0193204,0.0250257,0.0521469,0.000241768,0.651366,0.0346843,0.0424171,580,890,-13.8808,-1.0186
-637,134,-13.1927,1.07269,0.0257913,0.0181003,0.0197684,0.0420848,0.00180682,0.689335,0.0274741,0.0487146,587,890,-13.1927,-1.07271
-630,134,-12.74,1.37268,0,0,0,0,0,0,0,-1,594,890,-12.74,-1.37268
-623,134,-12.2904,1.99561,0.0136103,0.013487,0.0114432,0.024992,0.00210527,0.782704,0.0160058,0.0216162,601,890,-12.2904,-1.99559
-616,134,-12.3768,1.84027,0.00791944,0.011534,0.00788535,0.0178166,0.00163693,0.898051,0.0113714,0.0123584,608,890,-12.3768,-1.84025
-609,134,-12.407,1.69495,0.00315702,0.00922352,0.00525866,0.012261,0.000119512,1.047,0.00813448,0.0118179,615,890,-12.407,-1.69496
-602,134,-12.4031,1.52386,-0.000929389,0.00554404,0.00368181,0.00720958,-0.00259492,1.14597,0.00586591,0.0119266,622,890,-12.4031,-1.52388
-595,134,-12.3975,1.39612,-0.00432056,0.00321606,0.00322134,0.00440529,-0.00550979,1.21714,0.0057363,0.0124543,629,890,-12.3975,-1.39611
-588,134,-12.5759,1.29626,-0.00698018,0.00136989,0.00285729,0.00225401,-0.0078643,1.27072,0.00613384,0.0208043,636,890,-12.5759,-1.29626
-581,134,-12.5457,1.06909,-0.00912998,0.000182703,0.00258082,0.000850095,-0.00979738,1.31774,0.0068326,0.0254471,643,890,-12.5456,-1.06907
-574,134,-12.5012,0.913635,-0.0105206,-0.000850207,0.00253843,-0.000224382,-0.0111464,1.32908,0.00735728,0.0280848,650,890,-12.5012,-0.913638
-567,134,-12.3351,0.760437,-0.0111881,-0.00148521,0.00259624,-0.000834199,-0.0118391,1.32511,0.00762988,0.0242792,657,890,-12.3351,-0.760456
-560,134,-12.7875,1.05438,-0.0113379,-0.00199783,0.00273235,-0.00125723,-0.0120785,1.30611,0.0076677,0.0457492,664,890,-12.7875,-1.05438
-553,134,-14.2528,0.878113,0,0,0,0,0,0,0,-1,671,890,-14.2528,-0.878097
-546,134,-14.3456,0.895447,-0.0106645,-0.0025618,0.00283226,-0.00166996,-0.0115563,1.26574,0.00721229,0.026409,678,890,-14.3456,-0.895469
-539,134,-14.3619,0.896729,-0.00920833,-0.00275213,0.00269932,-0.00177227,-0.0101882,1.22258,0.00628522,0.0182357,685,890,-14.3619,-0.896699
-532,134,-14.3476,0.916992,-0.00671904,-0.00295963,0.00246971,-0.00173567,-0.007943,1.11068,0.00482205,0.0226638,692,890,-14.3476,-0.916974
-525,134,-14.3934,0.901062,-0.0029817,-0.00312985,0.00213305,-0.000921437,-0.00519012,0.768042,0.0031975,0.0333427,699,890,-14.3934,-0.901077
-518,134,-14.3867,1.03003,0.00241368,-0.003261,0.00174158,0.00290554,-0.00375286,0.275255,0.00385459,0.0396195,706,890,-14.3867,-1.03004
-511,134,-14.3453,1.08716,0.00875631,-0.00322421,0.00147931,0.00893627,-0.00340417,0.121054,0.00735953,0.0422689,713,890,-14.3453,-1.08716
-504,134,0,0,0,0,0,0,0,0,0,-1,720,890,0,0
-497,134,0,0,0,0,0,0,0,0,0,-1,727,890,0,0
-490,134,0,0,0,0,0,0,0,0,0,-1,734,890,0,0
-483,134,0,0,0,0,0,0,0,0,0,-1,741,890,0,0
-476,134,0,0,0,0,0,0,0,0,0,-1,748,890,0,0
-469,134,0,0,0,0,0,0,0,0,0,-1,755,890,0,0
-462,134,0,0,0,0,0,0,0,0,0,-1,762,890,0,0
-455,134,0,0,0,0,0,0,0,0,0,-1,769,890,0,0
-448,134,0,0,0,0,0,0,0,0,0,-1,776,890,0,0
-441,134,0,0,0,0,0,0,0,0,0,-1,783,890,0,0
-434,134,0,0,0,0,0,0,0,0,0,-1,790,890,0,0
-427,134,0,0,0,0,0,0,0,0,0,-1,797,890,0,0
-420,134,0,0,0,0,0,0,0,0,0,-1,804,890,0,0
-413,134,0,0,0,0,0,0,0,0,0,-1,811,890,0,0
-406,134,0,0,0,0,0,0,0,0,0,-1,818,890,0,0
-399,134,0,0,0,0,0,0,0,0,0,-1,825,890,0,0
-392,134,0,0,0,0,0,0,0,0,0,-1,832,890,0,0
-385,134,0,0,0,0,0,0,0,0,0,-1,839,890,0,0
-378,134,0,0,0,0,0,0,0,0,0,-1,846,890,0,0
-371,134,0,0,0,0,0,0,0,0,0,-1,853,890,0,0
-364,134,0,0,0,0,0,0,0,0,0,-1,860,890,0,0
-357,134,0,0,0,0,0,0,0,0,0,-1,867,890,0,0
-350,134,0,0,0,0,0,0,0,0,0,-1,874,890,0,0
-343,134,0,0,0,0,0,0,0,0,0,-1,881,890,0,0
-336,134,0,0,0,0,0,0,0,0,0,-1,888,890,0,0
-329,134,0,0,0,0,0,0,0,0,0,-1,895,890,0,0
-322,134,0,0,0,0,0,0,0,0,0,-1,902,890,0,0
-315,134,0,0,0,0,0,0,0,0,0,-1,909,890,0,0
-308,134,0,0,0,0,0,0,0,0,0,-1,916,890,0,0
-301,134,0,0,0,0,0,0,0,0,0,-1,923,890,0,0
-294,134,0,0,0,0,0,0,0,0,0,-1,930,890,0,0
-287,134,0,0,0,0,0,0,0,0,0,-1,937,890,0,0
-280,134,0,0,0,0,0,0,0,0,0,-1,944,890,0,0
-273,134,0,0,0,0,0,0,0,0,0,-1,951,890,0,0
-266,134,0,0,0,0,0,0,0,0,0,-1,958,890,0,0
-259,134,0,0,0,0,0,0,0,0,0,-1,965,890,0,0
-252,134,0,0,0,0,0,0,0,0,0,-1,972,890,0,0
-245,134,0,0,0,0,0,0,0,0,0,-1,979,890,0,0
-238,134,0,0,0,0,0,0,0,0,0,-1,986,890,0,0
-231,134,0,0,0,0,0,0,0,0,0,-1,993,890,0,0
-224,134,0,0,0,0,0,0,0,0,0,-1,1000,890,0,0
-217,134,0,0,0,0,0,0,0,0,0,-1,1007,890,0,0
-210,134,0,0,0,0,0,0,0,0,0,-1,1014,890,0,0
-203,134,0,0,0,0,0,0,0,0,0,-1,1021,890,0,0
-196,134,0,0,0,0,0,0,0,0,0,-1,1028,890,0,0
-189,134,0,0,0,0,0,0,0,0,0,-1,1035,890,0,0
-182,134,0,0,0,0,0,0,0,0,0,-1,1042,890,0,0
-175,134,0,0,0,0,0,0,0,0,0,-1,1049,890,0,0
-168,134,0,0,0,0,0,0,0,0,0,-1,1056,890,0,0
-161,134,0,0,0,0,0,0,0,0,0,-1,1063,890,0,0
-154,134,0,0,0,0,0,0,0,0,0,-1,1070,890,0,0
-147,134,0,0,0,0,0,0,0,0,0,-1,1077,890,0,0
-140,134,0,0,0,0,0,0,0,0,0,-1,1084,890,0,0
-133,134,0,0,0,0,0,0,0,0,0,-1,1091,890,0,0
-126,134,0,0,0,0,0,0,0,0,0,-1,1098,890,0,0
-119,134,0,0,0,0,0,0,0,0,0,-1,1105,890,0,0
-112,134,0,0,0,0,0,0,0,0,0,-1,1112,890,0,0
-105,134,0,0,0,0,0,0,0,0,0,-1,1119,890,0,0
-98,134,0,0,0,0,0,0,0,0,0,-1,1126,890,0,0
-91,134,0,0,0,0,0,0,0,0,0,-1,1133,890,0,0
-84,134,0,0,0,0,0,0,0,0,0,-1,1140,890,0,0
-77,134,0,0,0,0,0,0,0,0,0,-1,1147,890,0,0
-70,134,0,0,0,0,0,0,0,0,0,-1,1154,890,0,0
-63,134,0,0,0,0,0,0,0,0,0,-1,1161,890,0,0
-56,134,0,0,0,0,0,0,0,0,0,-1,1168,890,0,0
-49,134,0,0,0,0,0,0,0,0,0,-1,1175,890,0,0
-42,134,0,0,0,0,0,0,0,0,0,-1,1182,890,0,0
-35,134,0,0,0,0,0,0,0,0,0,-1,1189,890,0,0
-28,134,0,0,0,0,0,0,0,0,0,-1,1196,890,0,0
-21,134,0,0,0,0,0,0,0,0,0,-1,1203,890,0,0
-14,134,0,0,0,0,0,0,0,0,0,-1,1210,890,0,0
-7,134,0,0,0,0,0,0,0,0,0,-1,1217,890,0,0
0,134,0,0,0,0,0,0,0,0,0,-1,1224,890,0,0
7,134,0,0,0,0,0,0,0,0,0,-1,1231,890,0,0
14,134,0,0,0,0,0,0,0,0,0,-1,1238,890,0,0
21,134,0,0,0,0,0,0,0,0,0,-1,1245,890,0,0
28,134,0,0,0,0,0,0,0,0,0,-1,1252,890,0,0
35,134,0,0,0,0,0,0,0,0,0,-1,1259,890,0,0
42,134,0,0,0,0,0,0,0,0,0,-1,1266,890,0,0
49,134,0,0,0,0,0,0,0,0,0,-1,1273,890,0,0
56,134,0,0,0,0,0,0,0,0,0,-1,1280,890,0,0
63,134,0,0,0,0,0,0,0,0,0,-1,1287,890,0,0
70,134,0,0,0,0,0,0,0,0,0,-1,1294,890,0,0
77,134,0,0,0,0,0,0,0,0,0,-1,1301,890,0,0
84,134,0,0,0,0,0,0,0,0,0,-1,1308,890,0,0
91,134,0,0,0,0,0,0,0,0,0,-1,1315,890,0,0
98,134,0,0,0,0,0,0,0,0,0,-1,1322,890,0,0
105,134,0,0,0,0,0,0,0,0,0,-1,1329,890,0,0
112,134,0,0,0,0,0,0,0,0,0,-1,1336,890,0,0
119,134,0,0,0,0,0,0,0,0,0,-1,1343,890,0,0
126,134,0,0,0,0,0,0,0,0,0,-1,1350,890,0,0
133,134,0,0,0,0,0,0,0,0,0,-1,1357,890,0,0
140,134,0,0,0,0,0,0,0,0,0,-1,1364,890,0,0
147,134,0,0,0,0,0,0,0,0,0,-1,1371,890,0,0
154,134,0,0,0,0,0,0,0,0,0,-1,1378,890,0,0
161,134,0,0,0,0,0,0,0,0,0,-1,1385,890,0,0
168,134,0,0,0,0,0,0,0,0,0,-1,1392,890,0,0
175,134,0,0,0,0,0,0,0,0,0,-1,1399,890,0,0
182,134,0,0,0,0,0,0,0,0,0,-1,1406,890,0,0
189,134,0,0,0,0,0,0,0,0,0,-1,1413,890,0,0
196,134,0,0,0,0,0,0,0,0,0,-1,1420,890,0,0
203,134,0,0,0,0,0,0,0,0,0,-1,1427,890,0,0
210,134,0,0,0,0,0,0,0,0,0,-1,1434,890,0,0
217,134,0,0,0,0,0,0,0,0,0,-1,1441,890,0,0
224,134,0,0,0,0,0,0,0,0,0,-1,1448,890,0,0
231,134,0,0,0,0,0,0,0,0,0,-1,1455,890,0,0
238,134,0,0,0,0,0,0,0,0,0,-1,1462,890,0,0
245,134,0,0,0,0,0,0,0,0,0,-1,1469,890,0,0
252,134,0,0,0,0,0,0,0,0,0,-1,1476,890,0,0
259,134,0,0,0,0,0,0,0,0,0,-1,1483,890,0,0
266,134,0,0,0,0,0,0,0,0,0,-1,1490,890,0,0
273,134,0,0,0,0,0,0,0,0,0,-1,1497,890,0,0
280,134,0,0,0,0,0,0,0,0,0,-1,1504,890,0,0
287,134,0,0,0,0,0,0,0,0,0,-1,1511,890,0,0
294,134,0,0,0,0,0,0,0,0,0,-1,1518,890,0,0
301,134,0,0,0,0,0,0,0,0,0,-1,1525,890,0,0
308,134,0,0,0,0,0,0,0,0,0,-1,1532,890,0,0
315,134,0,0,0,0,0,0,0,0,0,-1,1539,890,0,0
322,134,0,0,0,0,0,0,0,0,0,-1,1546,890,0,0
329,134,0,0,0,0,0,0,0,0,0,-1,1553,890,0,0
336,134,0,0,0,0,0,0,0,0,0,-1,1560,890,0,0
343,134,0,0,0,0,0,0,0,0,0,-1,1567,890,0,0
350,134,0,0,0,0,0,0,0,0,0,-1,1574,890,0,0
357,134,0,0,0,0,0,0,0,0,0,-1,1581,890,0,0
364,134,0,0,0,0,0,0,0,0,0,-1,1588,890,0,0
371,134,0,0,0,0,0,0,0,0,0,-1,1595,890,0,0
378,134,0,0,0,0,0,0,0,0,0,-1,1602,890,0,0
385,134,0,0,0,0,0,0,0,0,0,-1,1609,890,0,0
392,134,0,0,0,0,0,0,0,0,0,-1,1616,890,0,0
399,134,0,0,0,0,0,0,0,0,0,-1,1623,890,0,0
406,134,0,0,0,0,0,0,0,0,0,-1,1630,890,0,0
413,134,0,0,0,0,0,0,0,0,0,-1,1637,890,0,0
420,134,0,0,0,0,0,0,0,0,0,-1,1644,890,0,0
427,134,0,0,0,0,0,0,0,0,0,-1,1651,890,0,0
434,134,0,0,0,0,0,0,0,0,0,-1,1658,890,0,0
441,134,0,0,0,0,0,0,0,0,0,-1,1665,890,0,0
448,134,0,0,0,0,0,0,0,0,0,-1,1672,890,0,0
455,134,0,0,0,0,0,0,0,0,0,-1,1679,890,0,0
462,134,0,0,0,0,0,0,0,0,0,-1,1686,890,0,0
469,134,0,0,0,0,0,0,0,0,0,-1,1693,890,0,0
476,134,0,0,0,0,0,0,0,0,0,-1,1700,890,0,0
483,134,0,0,0,0,0,0,0,0,0,-1,1707,890,0,0
490,134,0,0,0,0,0,0,0,0,0,-1,1714,890,0,0
497,134,0,0,0,0,0,0,0,0,0,-1,1721,890,0,0
504,134,0,0,0,0,0,0,0,0,0,-1,1728,890,0,0
511,134,0,0,0,0,0,0,0,0,0,-1,1735,890,0,0
518,134,0,0,0,0,0,0,0,0,0,-1,1742,890,0,0
525,134,0,0,0,0,0,0,0,0,0,-1,1749,890,0,0
532,134,0,0,0,0,0,0,0,0,0,-1,1756,890,0,0
539,134,0,0,0,0,0,0,0,0,0,-1,1763,890,0,0
546,134,0,0,0,0,0,0,0,0,0,-1,1770,890,0,0
553,134,0,0,0,0,0,0,0,0,0,-1,1777,890,0,0
560,134,0,0,0,0,0,0,0,0,0,-1,1784,890,0,0
567,134,0,0,0,0,0,0,0,0,0,-1,1791,890,0,0
574,134,0,0,0,0,0,0,0,0,0,-1,1798,890,0,0
581,134,0,0,0,0,0,0,0,0,0,-1,1805,890,0,0
588,134,0,0,0,0,0,0,0,0,0,-1,1812,890,0,0
595,134,0,0,0,0,0,0,0,0,0,-1,1819,890,0,0
602,134,0,0,0,0,0,0,0,0,0,-1,1826,890,0,0
609,134,0,0,0,0,0,0,0,0,0,-1,1833,890,0,0
616,134,0,0,0,0,0,0,0,0,0,-1,1840,890,0,0
623,134,21.8081,2.8313,0.00574224,0.000629009,0.00497899,0.00878265,-0.0024114,0.548211,0.00680288,0.0441947,1847,890,21.8081,-2.83128
630,134,21.7865,2.82623,0.00359355,0.000269922,0.00397828,0.00624316,-0.00237968,0.587553,0.00514227,0.0463262,1854,890,21.7865,-2.82625
637,134,21.9507,2.91968,0.00225606,-4.89765e-05,0.00293347,0.0042553,-0.00204821,0.598219,0.00371295,0.0455139,1861,890,21.9507,-2.91965
644,134,22.004,3.03186,0.00103915,-0.000365148,0.00192508,0.00238613,-0.00171213,0.610526,0.00237677,0.0400134,1868,890,22.004,-3.03186
651,134,21.8627,2.90106,-0.000867553,-0.000575177,0.000902527,0.000192925,-0.00163566,0.865689,0.0011601,0.0406957,1875,890,21.8627,-2.90105
658,134,21.8539,2.93964,-0.00284199,-0.000679952,6.33836e-05,-0.000678095,-0.00284385,1.54151,0.00171514,0.0401982,1882,890,21.8539,-2.93963
665,134,21.863,2.84723,-0.00446077,-0.000706174,-0.000547189,-0.000628053,-0.00453889,-1.42899,0.00283982,0.032737,1889,890,21.8631,-2.84725
672,134,21.8849,2.77319,-0.00571853,-0.000747503,-0.000944176,-0.000574211,-0.00589182,-1.38928,0.00375116,0.0208887,1896,890,21.8849,-2.77321
679,134,21.8907,2.7384,-0.00669701,-0.000635316,-0.00130458,-0.00036647,-0.00696585,-1.36756,0.00452669,0.0154009,1903,890,21.8907,-2.73842
686,134,21.8988,2.72113,0,0,0,0,0,0,0,-1,1910,890,21.8988,-2.72115
693,134,19.1559,2.8725,0,0,0,0,0,0,0,-1,1917,890,19.1559,-2.87249
700,134,19.1218,2.95795,-0.00802246,-0.000296842,-0.00189888,0.000144653,-0.00846395,-1.34235,0.00569147,0.0212537,1924,890,19.1218,-2.95795
707,134,19.0051,3.0332,-0.00767998,-0.000188252,-0.00185454,0.000245695,-0.00811393,-1.34094,0.00549302,0.0192337,1931,890,19.0051,-3.03322
714,134,19.0663,3.29315,-0.00648911,0.000139402,-0.00201357,0.000703129,-0.00705284,-1.29782,0.00495293,0.0182482,1938,890,19.0663,-3.29314
721,134,19.1895,3.54333,-0.00399905,0.000268629,-0.00207886,0.00111388,-0.0048443,-1.18462,0.0036578,0.0157977,1945,890,19.1894,-3.54333
728,134,19.2009,3.70398,-0.000671275,0.000633261,-0.00273156,0.00278936,-0.00282737,-0.902598,0.00324284,0.0158438,1952,890,19.2009,-3.70396
735,134,19.1985,3.90027,0.00317829,0.00110151,-0.00381631,0.00609496,-0.00181516,-0.652568,0.00478454,0.020705,1959,890,19.1984,-3.90026
742,134,19.1736,4.08081,0.00839292,0.00155511,-0.00427094,0.0104448,-0.000496805,-0.447874,0.00713459,0.0143504,1966,890,19.1736,-4.0808
749,134,19.181,4.24426,0.0136973,0.00215228,-0.00526635,0.0157386,0.000110929,-0.369789,0.0104556,0.012023,1973,890,19.181,-4.24424
756,134,19.1798,4.43048,0.0194366,0.00288343,-0.00655923,0.0217205,0.000599455,-0.335078,0.0142847,0.0162839,1980,890,19.1798,-4.43047
763,134,19.2577,4.59869,0.0251188,0.00378152,-0.00795781,0.0277598,0.00114051,-0.320439,0.0181383,0.037234,1987,890,19.2577,-4.59871
770,134,19.9836,4.1424,0.0309533,0.0048342,-0.00914569,0.0338373,0.00195025,-0.305465,0.021937,0.0409468,1994,890,19.9837,-4.14238
777,134,20.7844,4.05438,0.0367569,0.0060236,-0.00982926,0.0396316,0.00314885,-0.284532,0.0254365,0.0449663,2001,890,20.7845,-4.0544
784,134,21.4988,4.07019,0.0418435,0.00732031,-0.00964241,0.0443541,0.00480974,-0.254713,0.0281037,0.0466674,2008,890,21.4988,-4.07017
791,134,22.1859,4.17438,0.0451463,0.0086981,-0.00795397,0.0468064,0.00703795,-0.205766,0.029143,0.0426765,2015,890,22.1859,-4.17436
798,134,0,0,0,0,0,0,0,0,0,-1,2022,890,0,0
805,134,0,0,0,0,0,0,0,0,0,-1,2029,890,0,0
812,134,0,0,0,0,0,0,0,0,0,-1,2036,890,0,0
-700,127,0,0,0,0,0,0,0,0,0,-1,524,897,0,0
-693,127,0,0,0,0,0,0,0,0,0,-1,531,897,0,0
-686,127,0,0,0,0,0,0,0,0,0,-1,538,897,0,0
-679,127,-17.1227,3.06525,0,0,0,0,0,0,0,-1,545,897,-17.1227,-3.06523
-672,127,-16.3814,3.12561,0.0739567,-4.87739e-05,0.0390701,0.0907654,-0.0168575,0.406284,0.0668418,0.0487161,552,897,-16.3814,-3.12562
-665,127,-15.0533,2.98407,0.0638847,0.00473932,0.0333338,0.078873,-0.010249,0.422558,0.0563101,0.046815,559,897,-15.0534,-2.98405
-658,127,-14.9021,4.16357,0.0541066,0.00713103,0.0279586,0.0671339,-0.00589635,0.436041,0.0468453,0.0479753,566,897,-14.9021,-4.16357
-651,127,-14.1191,0.999634,0,0,0,0,0,0,0,-1,573,897,-14.1191,-0.999626
-644,127,-13.731,1.23596,0.0364987,0.0081646,0.0185922,0.0457063,-0.001043,0.459833,0.0308244,0.0439015,580,897,-13.731,-1.23596
-637,127,-13.321,1.47809,0.0287299,0.00760456,0.0146825,0.0362544,8.0049e-05,0.473583,0.0241429,0.042773,587,897,-13.321,-1.47808
-630,127,-12.7752,1.8139,0,0,0,0,0,0,0,-1,594,897,-12.7752,-1.81393
-623,127,-12.5253,1.94275,0.0156601,0.0055113,0.00849779,0.0204833,0.000688124,0.51624,0.013432,0.0137142,601,897,-12.5253,-1.94278
-616,127,-12.5478,1.83569,0.00950733,0.00483783,0.00578535,0.0134113,0.000933875,0.593611,0.00864639,0.010377,608,897,-12.5478,-1.83569
-609,127,-12.5486,1.68677,0.00421643,0.00380372,0.0039473,0.00796276,5.73886e-05,0.759283,0.00528948,0.0136809,615,897,-12.5487,-1.68678
-602,127,-12.5562,1.53766,-0.000302836,0.0016022,0.00293218,0.00373269,-0.00243333,0.942446,0.0035862,0.014381,622,897,-12.5562,-1.53767
-595,127,-12.5558,1.40961,-0.00394309,0.00071788,0.00276271,0.00200178,-0.00522698,1.13577,0.00430977,0.0154274,629,897,-12.5558,-1.40963
-588,127,-12.6443,1.27112,-0.00672989,0.000107755,0.00263654,0.0010063,-0.00762844,1.24234,0.00545211,0.02008,636,897,-12.6443,-1.27112
-581,127,-12.674,1.05884,-0.00893825,-0.000338832,0.002481,0.000325619,-0.0096027,1.30912,0.00651305,0.0277039,643,897,-12.674,-1.05886
-574,127,-12.6499,0.92865,-0.0103378,-0.000935281,0.00246414,-0.000328639,-0.0109444,1.32941,0.00718924,0.02825,650,897,-12.6499,-0.928622
-567,127,-12.2793,0.690552,0,0,0,0,0,0,0,-1,657,897,-12.2793,-0.690561
-560,127,-13.287,0.887573,-0.0111909,-0.00187473,0.00261356,-0.00119161,-0.011874,1.31514,0.00755021,0.047643,664,897,-13.2871,-0.887598
-553,127,-14.3385,0.918335,-0.0110364,-0.00222467,0.00271335,-0.00145619,-0.0118049,1.2948,0.00743226,0.0409397,671,897,-14.3385,-0.918361
-546,127,-14.3402,0.864075,-0.0102561,-0.0025095,0.0027067,-0.00165748,-0.0111081,1.26583,0.00691942,0.0233616,678,897,-14.3402,-0.864063
-539,127,-14.3268,0.893677,-0.00859127,-0.00281344,0.00259675,-0.0018179,-0.00958681,1.2047,0.00587967,0.0208247,685,897,-14.3268,-0.89366
-532,127,-14.3414,0.952332,-0.00585493,-0.00316936,0.00239005,-0.00177072,-0.00725356,1.04134,0.00436682,0.0165691,692,897,-14.3414,-0.952337
-525,127,-14.392,1.04785,-0.00179826,-0.00358729,0.00207824,-0.000430206,-0.00495535,0.582172,0.00316991,0.0305018,699,897,-14.392,-1.04783
-518,127,-14.3129,1.06378,0.00390513,-0.00410967,0.0017244,0.00426039,-0.00446493,0.203177,0.00503803,0.0391665,706,897,-14.3129,-1.06379
-511,127,-14.1591,0.948242,0.00998277,-0.00453477,0.00158077,0.0101529,-0.0047049,0.107213,0.00876827,0.0438098,713,897,-14.1591,-0.948241
-504,127,0,0,0,0,0,0,0,0,0,-1,720,897,0,0
-497,127,0,0,0,0,0,0,0,0,0,-1,727,897,0,0
-490,127,0,0,0,0,0,0,0,0,0,-1,734,897,0,0
-483,127,0,0,0,0,0,0,0,0,0,-1,741,897,0,0
-476,127,0,0,0,0,0,0,0,0,0,-1,748,897,0,0
-469,127,0,0,0,0,0,0,0,0,0,-1,755,897,0,0
-462,127,0,0,0,0,0,0,0,0,0,-1,762,897,0,0
-455,127,0,0,0,0,0,0,0,0,0,-1,769,897,0,0
-448,127,0,0,0,0,0,0,0,0,0,-1,776,897,0,0
-441,127,0,0,0,0,0,0,0,0,0,-1,783,897,0,0
-434,127,0,0,0,0,0,0,0,0,0,-1,790,897,0,0
-427,127,0,0,0,0,0,0,0,0,0,-1,797,897,0,0
-420,127,0,0,0,0,0,0,0,0,0,-1,804,897,0,0
-413,127,0,0,0,0,0,0,0,0,0,-1,811,897,0,0
-406,127,0,0,0,0,0,0,0,0,0,-1,818,897,0,0
-399,127,0,0,0,0,0,0,0,0,0,-1,825,897,0,0
-392,127,0,0,0,0,0,0,0,0,0,-1,832,897,0,0
-385,127,0,0,0,0,0,0,0,0,0,-1,839,897,0,0
-378,127,0,0,0,0,0,0,0,0,0,-1,846,897,0,0
-371,127,0,0,0,0,0,0,0,0,0,-1,853,897,0,0
-364,127,0,0,0,0,0,0,0,0,0,-1,860,897,0,0
-357,127,0,0,0,0,0,0,0,0,0,-1,867,897,0,0
-350,127,0,0,0,0,0,0,0,0,0,-1,874,897,0,0
-343,127,0,0,0,0,0,0,0,0,0,-1,881,897,0,0
-336,127,0,0,0,0,0,0,0,0,0,-1,888,897,0,0
-329,127,0,0,0,0,0,0,0,0,0,-1,895,897,0,0
-322,127,0,0,0,0,0,0,0,0,0,-1,902,897,0,0
-315,127,0,0,0,0,0,0,0,0,0,-1,909,897,0,0
-308,127,0,0,0,0,0,0,0,0,0,-1,916,897,0,0
-301,127,0,0,0,0,0,0,0,0,0,-1,923,897,0,0
-294,127,0,0,0,0,0,0,0,0,0,-1,930,897,0,0
-287,127,0,0,0,0,0,0,0,0,0,-1,937,897,0,0
-280,127,0,0,0,0,0,0,0,0,0,-1,944,897,0,0
-273,127,0,0,0,0,0,0,0,0,0,-1,951,897,0,0
-266,127,0,0,0,0,0,0,0,0,0,-1,958,897,0,0
-259,127,0,0,0,0,0,0,0,0,0,-1,965,897,0,0
-252,127,0,0,0,0,0,0,0,0,0,-1,972,897,0,0
-245,127,0,0,0,0,0,0,0,0,0,-1,979,897,0,0
-238,127,0,0,0,0,0,0,0,0,0,-1,986,897,0,0
-231,127,0,0,0,0,0,0,0,0,0,-1,993,897,0,0
-224,127,0,0,0,0,0,0,0,0,0,-1,1000,897,0,0
-217,127,0,0,0,0,0,0,0,0,0,-1,1007,897,0,0
-210,127,0,0,0,0,0,0,0,0,0,-1,1014,897,0,0
-203,127,0,0,0,0,0,0,0,0,0,-1,1021,897,0,0
-196,127,0,0,0,0,0,0,0,0,0,-1,1028,897,0,0
-189,127,0,0,0,0,0,0,0,0,0,-1,1035,897,0,0
-182,127,0,0,0,0,0,0,0,0,0,-1,1042,897,0,0
-175,127,0,0,0,0,0,0,0,0,0,-1,1049,897,0,0
-168,127,0,0,0,0,0,0,0,0,0,-1,1056,897,0,0
-161,127,0,0,0,0,0,0,0,0,0,-1,1063,897,0,0
-154,127,0,0,0,0,0,0,0,0,0,-1,1070,897,0,0
-147,127,0,0,0,0,0,0,0,0,0,-1,1077,897,0,0
-140,127,0,0,0,0,0,0,0,0,0,-1,1084,897,0,0
-133,127,0,0,0,0,0,0,0,0,0,-1,1091,897,0,0
-126,127,0,0,0,0,0,0,0,0,0,-1,1098,897,0,0
-119,127,0,0,0,0,0,0,0,0,0,-1,1105,897,0,0
-112,127,0,0,0,0,0,0,0,0,0,-1,1112,897,0,0
-105,127,0,0,0,0,0,0,0,0,0,-1,1119,897,0,0
-98,127,0,0,0,0,0,0,0,0,0,-1,1126,897,0,0
-91,127,0,0,0,0,0,0,0,0,0,-1,1133,897,0,0
-84,127,0,0,0,0,0,0,0,0,0,-1,1140,897,0,0
-77,127,0,0,0,0,0,0,0,0,0,-1,1147,897,0,0
-70,127,0,0,0,0,0,0,0,0,0,-1,1154,897,0,0
-63,127,0,0,0,0,0,0,0,0,0,-1,1161,897,0,0
-56,127,0,0,0,0,0,0,0,0,0,-1,1168,897,0,0
-49,127,0,0,0,0,0,0,0,0,0,-1,1175,897,0,0
-42,127,0,0,0,0,0,0,0,0,0,-1,1182,897,0,0
-35,127,0,0,0,0,0,0,0,0,0,-1,1189,897,0,0
-28,127,0,0,0,0,0,0,0,0,0,-1,1196,897,0,0
-21,127,0,0,0,0,0,0,0,0,0,-1,1203,897,0,0
-14,127,0,0,0,0,0,0,0,0,0,-1,1210,897,0,0
-7,127,0,0,0,0,0,0,0,0,0,-1,1217,897,0,0
0,127,0,0,0,0,0,0,0,0,0,-1,1224,897,0,0
7,127,0,0,0,0,0,0,0,0,0,-1,1231,897,0,0
14,127,0,0,0,0,0,0,0,0,0,-1,1238,897,0,0
21,127,0,0,0,0,0,0,0,0,0,-1,1245,897,0,0
28,127,0,0,0,0,0,0,0,0,0,-1,1252,897,0,0
35,127,0,0,0,0,0,0,0,0,0,-1,1259,897,0,0
42,127,0,0,0,0,0,0,0,0,0,-1,1266,897,0,0
49,127,0,0,0,0,0,0,0,0,0,-1,1273,897,0,0
56,127,0,0,0,0,0,0,0,0,0,-1,1280,897,0,0
63,127,0,0,0,0,0,0,0,0,0,-1,1287,897,0,0
70,127,0,0,0,0,0,0,0,0,0,-1,1294,897,0,0
77,127,0,0,0,0,0,0,0,0,0,-1,1301,897,0,0
84,127,0,0,0,0,0,0,0,0,0,-1,1308,897,0,0
91,127,0,0,0,0,0,0,0,0,0,-1,1315,897,0,0
98,127,0,0,0,0,0,0,0,0,0,-1,1322,897,0,0
105,127,0,0,0,0,0,0,0,0,0,-1,1329,897,0,0
112,127,0,0,0,0,0,0,0,0,0,-1,1336,897,0,0
119,127,0,0,0,0,0,0,0,0,0,-1,1343,897,0,0
126,127,0,0,0,0,0,0,0,0,0,-1,1350,897,0,0
133,127,0,0,0,0,0,0,0,0,0,-1,1357,897,0,0
140,127,0,0,0,0,0,0,0,0,0,-1,1364,897,0,0
147,127,0,0,0,0,0,0,0,0,0,-1,1371,897,0,0
154,127,0,0,0,0,0,0,0,0,0,-1,1378,897,0,0
161,127,0,0,0,0,0,0,0,0,0,-1,1385,897,0,0
168,127,0,0,0,0,0,0,0,0,0,-1,1392,897,0,0
175,127,0,0,0,0,0,0,0,0,0,-1,1399,897,0,0
182,127,0,0,0,0,0,0,0,0,0,-1,1406,897,0,0
189,127,0,0,0,0,0,0,0,0,0,-1,1413,897,0,0
196,127,0,0,0,0,0,0,0,0,0,-1,1420,897,0,0
203,127,0,0,0,0,0,0,0,0,0,-1,1427,897,0,0
210,127,0,0,0,0,0,0,0,0,0,-1,1434,897,0,0
217,127,0,0,0,0,0,0,0,0,0,-1,1441,897,0,0
224,127,0,0,0,0,0,0,0,0,0,-1,1448,897,0,0
231,127,0,0,0,0,0,0,0,0,0,-1,1455,897,0,0
238,127,0,0,0,0,0,0,0,0,0,-1,1462,897,0,0
245,127,0,0,0,0,0,0,0,0,0,-1,1469,897,0,0
252,127,0,0,0,0,0,0,0,0,0,-1,1476,897,0,0
259,127,0,0,0,0,0,0,0,0,0,-1,1483,897,0,0
266,127,0,0,0,0,0,0,0,0,0,-1,1490,897,0,0
273,127,0,0,0,0,0,0,0,0,0,-1,1497,897,0,0
280,127,0,0,0,0,0,0,0,0,0,-1,1504,897,0,0
287,127,0,0,0,0,0,0,0,0,0,-1,1511,897,0,0
294,127,0,0,0,0,0,0,0,0,0,-1,1518,897,0,0
301,127,0,0,0,0,0,0,0,0,0,-1,1525,897,0,0
308,127,0,0,0,0,0,0,0,0,0,-1,1532,897,0,0
315,127,0,0,0,0,0,0,0,0,0,-1,1539,897,0,0
322,127,0,0,0,0,0,0,0,0,0,-1,1546,897,0,0
329,127,0,0,0,0,0,0,0,0,0,-1,1553,897,0,0
336,127,0,0,0,0,0,0,0,0,0,-1,1560,897,0,0
343,127,0,0,0,0,0,0,0,0,0,-1,1567,897,0,0
350,127,0,0,0,0,0,0,0,0,0,-1,1574,897,0,0
357,127,0,0,0,0,0,0,0,0,0,-1,1581,897,0,0
364,127,0,0,0,0,0,0,0,0,0,-1,1588,897,0,0
371,127,0,0,0,0,0,0,0,0,0,-1,1595,897,0,0
378,127,0,0,0,0,0,0,0,0,0,-1,1602,897,0,0
385,127,0,0,0,0,0,0,0,0,0,-1,1609,897,0,0
392,127,0,0,0,0,0,0,0,0,0,-1,1616,897,0,0
399,127,0,0,0,0,0,0,0,0,0,-1,1623,897,0,0
406,127,0,0,0,0,0,0,0,0,0,-1,1630,897,0,0
413,127,0,0,0,0,0,0,0,0,0,-1,1637,897,0,0
420,127,0,0,0,0,0,0,0,0,0,-1,1644,897,0,0
427,127,0,0,0,0,0,0,0,0,0,-1,1651,897,0,0
434,127,0,0,0,0,0,0,0,0,0,-1,1658,897,0,0
441,127,0,0,0,0,0,0,0,0,0,-1,1665,897,0,0
448,127,0,0,0,0,0,0,0,0,0,-1,1672,897,0,0
455,127,0,0,0,0,0,0,0,0,0,-1,1679,897,0,0
462,127,0,0,0,0,0,0,0,0,0,-1,1686,897,0,0
469,127,0,0,0,0,0,0,0,0,0,-1,1693,897,0,0
476,127,0,0,0,0,0,0,0,0,0,-1,1700,897,0,0
483,127,0,0,0,0,0,0,0,0,0,-1,1707,897,0,0
490,127,0,0,0,0,0,0,0,0,0,-1,1714,897,0,0
497,127,0,0,0,0,0,0,0,0,0,-1,1721,897,0,0
504,127,0,0,0,0,0,0,0,0,0,-1,1728,897,0,0
511,127,0,0,0,0,0,0,0,0,0,-1,1735,897,0,0
518,127,0,0,0,0,0,0,0,0,0,-1,1742,897,0,0
525,127,0,0,0,0,0,0,0,0,0,-1,1749,897,0,0
532,127,0,0,0,0,0,0,0,0,0,-1,1756,897,0,0
539,127,0,0,0,0,0,0,0,0,0,-1,1763,897,0,0
546,127,0,0,0,0,0,0,0,0,0,-1,1770,897,0,0
553,127,0,0,0,0,0,0,0,0,0,-1,1777,897,0,0
560,127,0,0,0,0,0,0,0,0,0,-1,1784,897,0,0
567,127,0,0,0,0,0,0,0,0,0,-1,1791,897,0,0
574,127,0,0,0,0,0,0,0,0,0,-1,1798,897,0,0
581,127,0,0,0,0,0,0,0,0,0,-1,1805,897,0,0
588,127,0,0,0,0,0,0,0,0,0,-1,1812,897,0,0
595,127,0,0,0,0,0,0,0,0,0,-1,1819,897,0,0
602,127,0,0,0,0,0,0,0,0,0,-1,1826,897,0,0
609,127,0,0,0,0,0,0,0,0,0,-1,1833,897,0,0
616,127,0,0,0,0,0,0,0,0,0,-1,1840,897,0,0
623,127,0,0,0,0,0,0,0,0,0,-1,1847,897,0,0
630,127,21.7877,3.00482,0.00308994,-0.000239259,0.00390977,0.00567472,-0.00282404,0.584144,0.00499792,0.0408005,1854,897,21.7878,-3.00482
637,127,21.8989,2.76617,0.00186763,-0.00030676,0.00289626,0.00387403,-0.00231315,0.605846,0.00360986,0.0404402,1861,897,21.8989,-2.76617
644,127,21.9773,2.82764,0.000838351,-0.000384177,0.00197759,0.002297,-0.00184282,0.635508,0.00239491,0.039145,1868,897,21.9773,-2.82761
651,127,21.6683,2.81812,-0.00108919,-0.000444627,0.000989494,0.000273746,-0.00180757,0.942833,0.00130589,0.0441372,1875,897,21.6684,-2.81814
658,127,21.6683,2.97516,-0.00332579,-0.000461724,0.000115723,-0.000457056,-0.00333046,1.53048,0.00208472,0.0448175,1882,897,21.6684,-2.97518
665,127,21.826,2.85834,-0.00523135,-0.000448419,-0.00054248,-0.000387663,-0.00529211,-1.45926,0.00340621,0.0385264,1889,897,21.8261,-2.85834
672,127,21.8335,2.74719,-0.00669131,-0.000464351,-0.00097482,-0.000315312,-0.00684035,-1.41908,0.00445885,0.0298757,1896,897,21.8335,-2.74717
679,127,21.8878,2.73596,-0.00781665,-0.00035942,-0.00134854,-0.000123046,-0.00805302,-1.39728,0.00532814,0.0222137,1903,897,21.8878,-2.73593
686,127,21.8062,2.72906,0,0,0,0,0,0,0,-1,1910,897,21.8061,-2.72904
693,127,20.5009,2.84357,-0.00929363,-0.000217188,-0.00185403,0.000146926,-0.00965775,-1.37687,0.00648803,0.0389013,1917,897,20.5009,-2.84359
700,127,19.3651,2.96417,-0.00915571,-8.15932e-05,-0.00191796,0.000307146,-0.00954445,-1.37082,0.00646778,0.0285741,1924,897,19.3651,-2.96418
707,127,19.2112,3.09027,-0.008758,-2.93097e-05,-0.00185774,0.000349624,-0.00913694,-1.36958,0.00621111,0.0228337,1931,897,19.2111,-3.09026
714,127,19.2737,3.31171,-0.00750825,0.000239958,-0.00200543,0.000728243,-0.00799653,-1.33196,0.0055896,0.0195058,1938,897,19.2737,-3.31173
721,127,19.4167,3.59241,-0.00503539,0.000271559,-0.00203108,0.000959673,-0.0057235,-1.24414,0.00417251,0.0148863,1945,897,19.4168,-3.59241
728,127,19.3953,3.71527,-0.00177175,0.000536747,-0.00254039,0.00217281,-0.00340782,-0.998635,0.00324817,0.0142206,1952,897,19.3953,-3.71528
735,127,19.3861,3.89398,0.00204752,0.000855863,-0.00336575,0.00486978,-0.00196639,-0.697792,0.00406379,0.0191396,1959,897,19.3861,-3.89399
742,127,19.3685,4.0719,0.00721417,0.00112651,-0.00358045,0.00886976,-0.000529076,-0.433115,0.00609719,0.0171336,1966,897,19.3685,-4.07188
749,127,19.3557,4.2182,0.0124804,0.00153868,-0.00425903,0.0139428,7.63135e-05,-0.330745,0.00926984,0.0120849,1973,897,19.3558,-4.21821
756,127,19.3485,4.37939,0.0181719,0.00204104,-0.00515948,0.019681,0.000531946,-0.284552,0.012947,0.0141761,1980,897,19.3485,-4.37941
763,127,19.3905,4.48334,0.0236808,0.00267466,-0.00604301,0.0252952,0.00106029,-0.261051,0.0165214,0.0221351,1987,897,19.3905,-4.48334
770,127,20.0634,4.34467,0.0292581,0.00341523,-0.00656323,0.0308294,0.00184393,-0.234987,0.0199667,0.0356195,1994,897,20.0634,-4.34464
777,127,20.9553,4.27832,0.0348004,0.0042271,-0.0063739,0.036076,0.0029515,-0.19752,0.0231297,0.0453587,2001,897,20.9553,-4.27833
784,127,21.5933,4.17035,0.0396506,0.00506635,-0.00507415,0.0403797,0.00433725,-0.142712,0.0255968,0.0461945,2008,897,21.5933,-4.17037
791,127,22.5349,4.32312,0.042776,0.005898,-0.00200984,0.0428852,0.00578879,-0.0542855,0.0268692,0.0411036,2015,897,22.5349,-4.32311
798,127,0,0,0,0,0,0,0,0,0,-1,2022,897,0,0
805,127,0,0,0,0,0,0,0,0,0,-1,2029,897,0,0
812,127,0,0,0,0,0,0,0,0,0,-1,2036,897,0,0
-700,120,0,0,0,0,0,0,0,0,0,-1,524,904,0,0
-693,120,0,0,0,0,0,0,0,0,0,-1,531,904,0,0
-686,120,0,0,0,0,0,0,0,0,0,-1,538,904,0,0
-679,120,-16.5132,2.95319,0,0,0,0,0,0,0,-1,545,904,-16.5132,-2.95317
-672,120,-15.9196,3.078,0.0773967,0.00214205,0.0280741,0.0867159,-0.00717708,0.320503,0.0603454,0.0452657,552,904,-15.9196,-3.07798
-665,120,-15.3021,2.90125,0.0661044,0.00215234,0.0230691,0.0735574,-0.00530068,0.312489,0.0508973,0.0453769,559,904,-15.3021,-2.90125
-658,120,-14.4615,1.68152,0.0553776,0.00175029,0.0186711,0.0612378,-0.00410991,0.304128,0.0422619,0.0408321,566,904,-14.4616,-1.68149
-651,120,-13.8044,1.72565,0,0,0,0,0,0,0,-1,573,904,-13.8044,-1.72567
-644,120,-13.3438,1.62476,0,0,0,0,0,0,0,-1,580,904,-13.3437,-1.62478
-637,120,-13.2496,1.49084,0,0,0,0,0,0,0,-1,587,904,-13.2497,-1.49084
-630,120,-12.6912,2.0473,0.0213666,-0.000200403,0.00630543,0.0230747,-0.0019086,0.264558,0.0160572,0.0215664,594,904,-12.6912,-2.04732
-623,120,-12.7141,1.9303,0.0150671,-0.000405168,0.0044746,0.0162679,-0.00160603,0.262194,0.0114183,0.01043,601,904,-12.7141,-1.93027
-616,120,-12.7086,1.81201,0.00880157,-0.000259312,0.00268444,0.00953716,-0.000994905,0.267456,0.00671436,0.00943866,608,904,-12.7086,-1.81201
-609,120,-12.715,1.6875,0.00337685,-0.000323763,0.00174561,0.00407032,-0.00101723,0.378146,0.00310861,0.012778,615,904,-12.715,-1.68752
-602,120,-12.7424,1.55035,-0.00113739,-0.00135329,0.00143658,0.000195285,-0.00268597,0.747897,0.00185916,0.0132622,622,904,-12.7424,-1.55038
-595,120,-12.7248,1.42163,-0.00454281,-0.00120017,0.0017258,-0.000469054,-0.00527392,1.17008,0.00337049,0.0177969,629,904,-12.7248,-1.42165
-588,120,-12.7365,1.25134,-0.00712962,-0.000873064,0.00195236,-0.000313818,-0.00768886,1.29182,0.00502457,0.0224877,636,904,-12.7365,-1.25133
-581,120,-12.8235,1.10638,-0.00916433,-0.000709711,0.00203785,-0.000244156,-0.00962989,1.3462,0.00634011,0.0272851,643,904,-12.8235,-1.10641
-574,120,-12.7391,0.910339,-0.0103946,-0.000906413,0.00217556,-0.000431359,-0.0108697,1.35581,0.00710701,0.02454,650,904,-12.7392,-0.910324
-567,120,-12.552,0.557251,0,0,0,0,0,0,0,-1,657,904,-12.552,-0.557263
-560,120,-14.277,1.03674,0,0,0,0,0,0,0,-1,664,904,-14.277,-1.03674
-553,120,-14.3557,1.04321,-0.0107528,-0.00185868,0.00255064,-0.00117913,-0.0114324,1.31042,0.00726051,0.038316,671,904,-14.3557,-1.04319
-546,120,-14.3387,0.932129,-0.00980226,-0.00213547,0.00257706,-0.00134975,-0.010588,1.27486,0.00665452,0.0327578,678,904,-14.3387,-0.932099
-539,120,-14.3171,0.906555,-0.00794542,-0.00246985,0.00252656,-0.00148218,-0.00893308,1.19815,0.00552796,0.0264509,685,904,-14.3172,-0.906534
-532,120,-14.3017,0.951904,-0.005014,-0.00289859,0.00239867,-0.00133478,-0.00657782,0.993051,0.00401494,0.0274931,692,904,-14.3017,-0.951882
-525,120,-14.4875,1.13422,-0.000764303,-0.00350611,0.00218761,0.000446458,-0.00471687,0.505499,0.00330347,0.0343603,699,904,-14.4876,-1.13424
-518,120,-14.4813,1.27856,0.00493444,-0.00440748,0.00197334,0.00533417,-0.00480722,0.199863,0.00585777,0.0395389,706,904,-14.4813,-1.27858
-511,120,-14.2758,1.13971,0.0102387,-0.005324,0.00205723,0.010506,-0.00559135,0.129233,0.00943711,0.0412955,713,904,-14.2758,-1.1397
-504,120,0,0,0,0,0,0,0,0,0,-1,720,904,0,0
-497,120,0,0,0,0,0,0,0,0,0,-1,727,904,0,0
-490,120,0,0,0,0,0,0,0,0,0,-1,734,904,0,0
-483,120,0,0,0,0,0,0,0,0,0,-1,741,904,0,0
-476,120,0,0,0,0,0,0,0,0,0,-1,748,904,0,0
-469,120,0,0,0,0,0,0,0,0,0,-1,755,904,0,0
-462,120,0,0,0,0,0,0,0,0,0,-1,762,904,0,0
-455,120,0,0,0,0,0,0,0,0,0,-1,769,904,0,0
-448,120,0,0,0,0,0,0,0,0,0,-1,776,904,0,0
-441,120,0,0,0,0,0,0,0,0,0,-1,783,904,0,0
-434,120,0,0,0,0,0,0,0,0,0,-1,790,904,0,0
-427,120,0,0,0,0,0,0,0,0,0,-1,797,904,0,0
-420,120,0,0,0,0,0,0,0,0,0,-1,804,904,0,0
-413,120,0,0,0,0,0,0,0,0,0,-1,811,904,0,0
-406,120,0,0,0,0,0,0,0,0,0,-1,818,904,0,0
-399,120,0,0,0,0,0,0,0,0,0,-1,825,904,0,0
-392,120,0,0,0,0,0,0,0,0,0,-1,832,904,0,0
-385,120,0,0,0,0,0,0,0,0,0,-1,839,904,0,0
-378,120,0,0,0,0,0,0,0,0,0,-1,846,904,0,0
-371,120,0,0,0,0,0,0,0,0,0,-1,853,904,0,0
-364,120,0,0,0,0,0,0,0,0,0,-1,860,904,0,0
-357,120,0,0,0,0,0,0,0,0,0,-1,867,904,0,0
-350,120,0,0,0,0,0,0,0,0,0,-1,874,904,0,0
-343,120,0,0,0,0,0,0,0,0,0,-1,881,904,0,0
-336,120,0,0,0,0,0,0,0,0,0,-1,888,904,0,0
-329,120,0,0,0,0,0,0,0,0,0,-1,895,904,0,0
-322,120,0,0,0,0,0,0,0,0,0,-1,902,904,0,0
-315,120,0,0,0,0,0,0,0,0,0,-1,909,904,0,0
-308,120,0,0,0,0,0,0,0,0,0,-1,916,904,0,0
-301,120,0,0,0,0,0,0,0,0,0,-1,923,904,0,0
-294,120,0,0,0,0,0,0,0,0,0,-1,930,904,0,0
-287,120,0,0,0,0,0,0,0,0,0,-1,937,904,0,0
-280,120,0,0,0,0,0,0,0,0,0,-1,944,904,0,0
-273,120,0,0,0,0,0,0,0,0,0,-1,951,904,0,0
-266,120,0,0,0,0,0,0,0,0,0,-1,958,904,0,0
-259,120,0,0,0,0,0,0,0,0,0,-1,965,904,0,0
-252,120,0,0,0,0,0,0,0,0,0,-1,972,904,0,0
-245,120,0,0,0,0,0,0,0,0,0,-1,979,904,0,0
-238,120,0,0,0,0,0,0,0,0,0,-1,986,904,0,0
-231,120,0,0,0,0,0,0,0,0,0,-1,993,904,0,0
-224,120,0,0,0,0,0,0,0,0,0,-1,1000,904,0,0
-217,120,0,0,0,0,0,0,0,0,0,-1,1007,904,0,0
-210,120,0,0,0,0,0,0,0,0,0,-1,1014,904,0,0
-203,120,0,0,0,0,0,0,0,0,0,-1,1021,904,0,0
-196,120,0,0,0,0,0,0,0,0,0,-1,1028,904,0,0
-189,120,0,0,0,0,0,0,0,0,0,-1,1035,904,0,0
-182,120,0,0,0,0,0,0,0,0,0,-1,1042,904,0,0
-175,120,0,0,0,0,0,0,0,0,0,-1,1049,904,0,0
-168,120,0,0,0,0,0,0,0,0,0,-1,1056,904,0,0
-161,120,0,0,0,0,0,0,0,0,0,-1,1063,904,0,0
-154,120,0,0,0,0,0,0,0,0,0,-1,1070,904,0,0
-147,120,0,0,0,0,0,0,0,0,0,-1,1077,904,0,0
-140,120,0,0,0,0,0,0,0,0,0,-1,1084,904,0,0
-133,120,0,0,0,0,0,0,0,0,0,-1,1091,904,0,0
-126,120,0,0,0,0,0,0,0,0,0,-1,1098,904,0,0
-119,120,0,0,0,0,0,0,0,0,0,-1,1105,904,0,0
-112,120,0,0,0,0,0,0,0,0,0,-1,1112,904,0,0
-105,120,0,0,0,0,0,0,0,0,0,-1,1119,904,0,0
-98,120,0,0,0,0,0,0,0,0,0,-1,1126,904,0,0
-91,120,0,0,0,0,0,0,0,0,0,-1,1133,904,0,0
-84,120,0,0,0,0,0,0,0,0,0,-1,1140,904,0,0
-77,120,0,0,0,0,0,0,0,0,0,-1,1147,904,0,0
-70,120,0,0,0,0,0,0,0,0,0,-1,1154,904,0,0
-63,120,0,0,0,0,0,0,0,0,0,-1,1161,904,0,0
-56,120,0,0,0,0,0,0,0,0,0,-1,1168,904,0,0
-49,120,0,0,0,0,0,0,0,0,0,-1,1175,904,0,0
-42,120,0,0,0,0,0,0,0,0,0,-1,1182,904,0,0
-35,120,0,0,0,0,0,0,0,0,0,-1,1189,904,0,0
-28,120,0,0,0,0,0,0,0,0,0,-1,1196,904,0,0
-21,120,0,0,0,0,0,0,0,0,0,-1,1203,904,0,0
-14,120,0,0,0,0,0,0,0,0,0,-1,1210,904,0,0
-7,120,0,0,0,0,0,0,0,0,0,-1,1217,904,0,0
0,120,0,0,0,0,0,0,0,0,0,-1,1224,904,0,0
7,120,0,0,0,0,0,0,0,0,0,-1,1231,904,0,0
14,120,0,0,0,0,0,0,0,0,0,-1,1238,904,0,0
21,120,0,0,0,0,0,0,0,0,0,-1,1245,904,0,0
28,120,0,0,0,0,0,0,0,0,0,-1,1252,904,0,0
35,120,0,0,0,0,0,0,0,0,0,-1,1259,904,0,0
42,120,0,0,0,0,0,0,0,0,0,-1,1266,904,0,0
49,120,0,0,0,0,0,0,0,0,0,-1,1273,904,0,0
56,120,0,0,0,0,0,0,0,0,0,-1,1280,904,0,0
63,120,0,0,0,0,0,0,0,0,0,-1,1287,904,0,0
70,120,0,0,0,0,0,0,0,0,0,-1,1294,904,0,0
77,120,0,0,0,0,0,0,0,0,0,-1,1301,904,0,0
84,120,0,0,0,0,0,0,0,0,0,-1,1308,904,0,0
91,120,0,0,0,0,0,0,0,0,0,-1,1315,904,0,0
98,120,0,0,0,0,0,0,0,0,0,-1,1322,904,0,0
105,120,0,0,0,0,0,0,0,0,0,-1,1329,904,0,0
112,120,0,0,0,0,0,0,0,0,0,-1,1336,904,0,0
119,120,0,0,0,0,0,0,0,0,0,-1,1343,904,0,0
126,120,0,0,0,0,0,0,0,0,0,-1,1350,904,0,0
133,120,0,0,0,0,0,0,0,0,0,-1,1357,904,0,0
140,120,0,0,0,0,0,0,0,0,0,-1,1364,904,0,0
147,120,0,0,0,0,0,0,0,0,0,-1,1371,904,0,0
154,120,0,0,0,0,0,0,0,0,0,-1,1378,904,0,0
161,120,0,0,0,0,0,0,0,0,0,-1,1385,904,0,0
168,120,0,0,0,0,0,0,0,0,0,-1,1392,904,0,0
175,120,0,0,0,0,0,0,0,0,0,-1,1399,904,0,0
182,120,0,0,0,0,0,0,0,0,0,-1,1406,904,0,0
189,120,0,0,0,0,0,0,0,0,0,-1,1413,904,0,0
196,120,0,0,0,0,0,0,0,0,0,-1,1420,904,0,0
203,120,0,0,0,0,0,0,0,0,0,-1,1427,904,0,0
210,120,0,0,0,0,0,0,0,0,0,-1,1434,904,0,0
217,120,0,0,0,0,0,0,0,0,0,-1,1441,904,0,0
224,120,0,0,0,0,0,0,0,0,0,-1,1448,904,0,0
231,120,0,0,0,0,0,0,0,0,0,-1,1455,904,0,0
238,120,0,0,0,0,0,0,0,0,0,-1,1462,904,0,0
245,120,0,0,0,0,0,0,0,0,0,-1,1469,904,0,0
252,120,0,0,0,0,0,0,0,0,0,-1,1476,904,0,0
259,120,0,0,0,0,0,0,0,0,0,-1,1483,904,0,0
266,120,0,0,0,0,0,0,0,0,0,-1,1490,904,0,0
273,120,0,0,0,0,0,0,0,0,0,-1,1497,904,0,0
280,120,0,0,0,0,0,0,0,0,0,-1,1504,904,0,0
287,120,0,0,0,0,0,0,0,0,0,-1,1511,904,0,0
294,120,0,0,0,0,0,0,0,0,0,-1,1518,904,0,0
301,120,0,0,0,0,0,0,0,0,0,-1,1525,904,0,0
308,120,0,0,0,0,0,0,0,0,0,-1,1532,904,0,0
315,120,0,0,0,0,0,0,0,0,0,-1,1539,904,0,0
322,120,0,0,0,0,0,0,0,0,0,-1,1546,904,0,0
329,120,0,0,0,0,0,0,0,0,0,-1,1553,904,0,0
336,120,0,0,0,0,0,0,0,0,0,-1,1560,904,0,0
343,120,0,0,0,0,0,0,0,0,0,-1,1567,904,0,0
350,120,0,0,0,0,0,0,0,0,0,-1,1574,904,0,0
357,120,0,0,0,0,0,0,0,0,0,-1,1581,904,0,0
364,120,0,0,0,0,0,0,0,0,0,-1,1588,904,0,0
371,120,0,0,0,0,0,0,0,0,0,-1,1595,904,0,0
378,120,0,0,0,0,0,0,0,0,0,-1,1602,904,0,0
385,120,0,0,0,0,0,0,0,0,0,-1,1609,904,0,0
392,120,0,0,0,0,0,0,0,0,0,-1,1616,904,0,0
399,120,0,0,0,0,0,0,0,0,0,-1,1623,904,0,0
406,120,0,0,0,0,0,0,0,0,0,-1,1630,904,0,0
413,120,0,0,0,0,0,0,0,0,0,-1,1637,904,0,0
420,120,0,0,0,0,0,0,0,0,0,-1,1644,904,0,0
427,120,0,0,0,0,0,0,0,0,0,-1,1651,904,0,0
434,120,0,0,0,0,0,0,0,0,0,-1,1658,904,0,0
441,120,0,0,0,0,0,0,0,0,0,-1,1665,904,0,0
448,120,0,0,0,0,0,0,0,0,0,-1,1672,904,0,0
455,120,0,0,0,0,0,0,0,0,0,-1,1679,904,0,0
462,120,0,0,0,0,0,0,0,0,0,-1,1686,904,0,0
469,120,0,0,0,0,0,0,0,0,0,-1,1693,904,0,0
476,120,0,0,0,0,0,0,0,0,0,-1,1700,904,0,0
483,120,0,0,0,0,0,0,0,0,0,-1,1707,904,0,0
490,120,0,0,0,0,0,0,0,0,0,-1,1714,904,0,0
497,120,0,0,0,0,0,0,0,0,0,-1,1721,904,0,0
504,120,0,0,0,0,0,0,0,0,0,-1,1728,904,0,0
511,120,0,0,0,0,0,0,0,0,0,-1,1735,904,0,0
518,120,0,0,0,0,0,0,0,0,0,-1,1742,904,0,0
525,120,0,0,0,0,0,0,0,0,0,-1,1749,904,0,0
532,120,0,0,0,0,0,0,0,0,0,-1,1756,904,0,0
539,120,0,0,0,0,0,0,0,0,0,-1,1763,904,0,0
546,120,0,0,0,0,0,0,0,0,0,-1,1770,904,0,0
553,120,0,0,0,0,0,0,0,0,0,-1,1777,904,0,0
560,120,0,0,0,0,0,0,0,0,0,-1,1784,904,0,0
567,120,0,0,0,0,0,0,0,0,0,-1,1791,904,0,0
574,120,0,0,0,0,0,0,0,0,0,-1,1798,904,0,0
581,120,0,0,0,0,0,0,0,0,0,-1,1805,904,0,0
588,120,0,0,0,0,0,0,0,0,0,-1,1812,904,0,0
595,120,0,0,0,0,0,0,0,0,0,-1,1819,904,0,0
602,120,0,0,0,0,0,0,0,0,0,-1,1826,904,0,0
609,120,0,0,0,0,0,0,0,0,0,-1,1833,904,0,0
616,120,0,0,0,0,0,0,0,0,0,-1,1840,904,0,0
623,120,0,0,0,0,0,0,0,0,0,-1,1847,904,0,0
630,120,21.889,2.64844,0.00226556,-0.00125155,0.00359454,0.00450866,-0.00349465,0.557901,0.00463306,0.0380673,1854,904,21.889,-2.64841
637,120,22.0267,2.64758,0.00133534,-0.000956585,0.00268905,0.00311242,-0.00273367,0.583972,0.0033776,0.0377368,1861,904,22.0267,-2.64758
644,120,21.9116,2.70026,0.000677206,-0.000655709,0.00193316,0.00205557,-0.00203407,0.619403,0.00236116,0.0369611,1868,904,21.9117,-2.70023
651,120,21.6356,2.84521,-0.0010462,-0.000442074,0.00105805,0.000356185,-0.00184446,0.924446,0.00136396,0.0453286,1875,904,21.6356,-2.84524
658,120,22.0712,2.61713,0,0,0,0,0,0,0,-1,1882,904,22.0712,-2.61711
665,120,21.7941,2.89282,-0.00553398,-0.000147139,-0.000463662,-0.000107521,-0.00557359,-1.48556,0.00368041,0.0391825,1889,904,21.7941,-2.89281
672,120,21.8196,2.79468,-0.00718824,-0.000101478,-0.000912996,1.42541e-05,-0.00730397,-1.44471,0.00487407,0.0349712,1896,904,21.8196,-2.79469
679,120,21.8436,2.74133,-0.008463,1.52438e-05,-0.00128077,0.000204499,-0.00865226,-1.42409,0.00583753,0.0302268,1903,904,21.8437,-2.74134
686,120,21.8416,2.77112,-0.00951593,2.36988e-05,-0.00155317,0.000270203,-0.00976243,-1.4134,0.0066002,0.0180442,1910,904,21.8416,-2.77114
693,120,21.1958,2.86865,-0.00999479,0.000130051,-0.00175835,0.000426725,-0.0102915,-1.40365,0.00700755,0.044593,1917,904,21.1958,-2.86868
700,120,19.9998,2.99695,-0.00983994,0.00022177,-0.00180865,0.000537009,-0.0101552,-1.39823,0.00695604,0.0331778,1924,904,19.9997,-2.99697
707,120,19.4897,3.23975,-0.00946397,0.000200021,-0.00172028,0.000497113,-0.00976106,-1.39978,0.00667925,0.0205768,1931,904,19.4897,-3.23975
714,120,19.5687,3.44958,-0.00823542,0.000392377,-0.00184135,0.000768924,-0.00861197,-1.36908,0.00601403,0.0171839,1938,904,19.5687,-3.44961
721,120,19.578,3.59564,-0.00582775,0.000342209,-0.00184692,0.000852813,-0.00633836,-1.30107,0.00453664,0.0140399,1945,904,19.578,-3.59563
728,120,19.576,3.74713,-0.00269127,0.000558354,-0.00221825,0.0016832,-0.00381612,-1.10149,0.00325366,0.0104576,1952,904,19.5761,-3.74712
735,120,19.546,3.90118,0.000952328,0.000779755,-0.00277249,0.00363987,-0.00190779,-0.769842,0.00325457,0.0125684,1959,904,19.5461,-3.9012
742,120,19.5299,4.06,0.00592154,0.000980926,-0.00277926,0.00716966,-0.000267195,-0.422092,0.00487128,0.0132872,1966,904,19.5299,-4.05999
749,120,19.5242,4.19684,0.0110422,0.00134635,-0.00315905,0.0119806,0.000407908,-0.28876,0.00785464,0.010399,1973,904,19.5241,-4.19685
756,120,19.5134,4.33704,0.016584,0.00178235,-0.00368177,0.0174492,0.000917115,-0.230815,0.0113395,0.0117693,1980,904,19.5135,-4.33702
763,120,19.4819,4.4527,0.0218114,0.00233537,-0.00409711,0.0226382,0.00150858,-0.199126,0.0146152,0.0215314,1987,904,19.4819,-4.4527
770,120,20.1062,4.49255,0.0269579,0.00296459,-0.00405153,0.0276236,0.00229892,-0.162847,0.0176993,0.0384604,1994,904,20.1062,-4.49258
777,120,20.8066,4.4903,0,0,0,0,0,0,0,-1,2001,904,20.8066,-4.49031
784,120,19.4877,5.52832,0,0,0,0,0,0,0,-1,2008,904,19.4877,-5.52834
791,120,19.4857,5.45557,0.0384989,0.00477938,0.00293588,0.0387526,0.00452567,0.0862034,0.0244664,0.0437381,2015,904,19.4857,-5.45558
798,120,19.3075,5.36444,0.0371792,0.00517296,0.00976576,0.0399236,0.00242855,0.273958,0.0258443,0.043211,2022,904,19.3075,-5.36445
805,120,0,0,0,0,0,0,0,0,0,-1,2029,904,0,0
812,120,0,0,0,0,0,0,0,0,0,-1,2036,904,0,0
-700,113,0,0,0,0,0,0,0,0,0,-1,524,911,0,0
-693,113,0,0,0,0,0,0,0,0,0,-1,531,911,0,0
-686,113,0,0,0,0,0,0,0,0,0,-1,538,911,0,0
-679,113,-16.1701,2.84564,0,0,0,0,0,0,0,-1,545,911,-16.1701,-2.84565
-672,113,-15.7101,2.9494,0.0767261,0.00621294,0.0194249,0.0817232,0.0012159,0.251789,0.0540814,0.0494859,552,911,-15.7101,-2.9494
-665,113,-15.2203,3.02301,0.0665786,0.00526371,0.0152431,0.070159,0.00168331,0.230705,0.0462218,0.045603,559,911,-15.2203,-3.02301
-658,113,-14.7047,3.00024,0.0561584,0.00417415,0.0119779,0.0587855,0.00154704,0.215911,0.038685,0.043208,566,911,-14.7046,-3.00025
-651,113,-13.317,2.76361,0,0,0,0,0,0,0,-1,573,911,-13.3169,-2.76359
-644,113,-13.084,1.99622,0.0369669,0.00216264,0.00707511,0.0383502,0.000779364,0.193077,0.025311,0.0429242,580,911,-13.084,-1.99621
-637,113,-12.9758,1.91394,0.0285946,0.00136689,0.00525108,0.0295722,0.000389282,0.184066,0.0195863,0.0335205,587,911,-12.9758,-1.91392
-630,113,-12.8583,2.04449,0.0212658,0.00073457,0.00375901,0.0219323,6.79847e-05,0.175506,0.014599,0.0151543,594,911,-12.8583,-2.04452
-623,113,-12.8683,1.92804,0.0147073,0.000296495,0.00262088,0.0151692,-0.000165358,0.17443,0.0101684,0.0102349,601,911,-12.8683,-1.92805
-616,113,-12.8666,1.79901,0.00828294,0.000153292,0.00154138,0.00856538,-0.00012914,0.181223,0.00575378,0.00894169,608,911,-12.8666,-1.79901
-609,113,-12.8826,1.69385,0.00265102,-5.1238e-05,0.00116481,0.0030838,-0.000484016,0.355738,0.00223474,0.0105387,615,911,-12.8825,-1.69382
-602,113,-12.899,1.56671,-0.00185338,-0.00104486,0.00115228,-0.00022798,-0.00267026,0.954106,0.00170925,0.0145752,622,911,-12.899,-1.56671
-595,113,-12.8964,1.44684,-0.004965,-0.00103514,0.00141175,-0.000580568,-0.00541957,1.25929,0.00343592,0.0180548,629,911,-12.8964,-1.44682
-588,113,-12.8702,1.29211,-0.0073249,-0.000779538,0.00161289,-0.000403677,-0.00770076,1.34185,0.00500471,0.0187541,636,911,-12.8702,-1.29214
-581,113,-12.8629,1.15753,-0.00913387,-0.000650315,0.00169186,-0.000325357,-0.00945883,1.38104,0.00620028,0.0194508,643,911,-12.8629,-1.15756
-574,113,-12.7764,0.92688,-0.010134,-0.000812014,0.00179531,-0.000478209,-0.0104678,1.38696,0.0068247,0.0203541,650,911,-12.7765,-0.926896
-567,113,-12.9068,0.65155,0,0,0,0,0,0,0,-1,657,911,-12.9068,-0.651537
-560,113,-14.272,1.05139,0,0,0,0,0,0,0,-1,664,911,-14.272,-1.05137
-553,113,-14.313,1.07983,-0.0100699,-0.00159071,0.00213984,-0.00108129,-0.0105793,1.33709,0.00672152,0.0369706,671,911,-14.313,-1.07981
-546,113,-14.2939,1.02972,-0.00896184,-0.00181773,0.00219287,-0.00119833,-0.00958124,1.29551,0.00602788,0.0350999,678,911,-14.2939,-1.02975
-539,113,-14.2585,0.951172,-0.00698126,-0.00209018,0.00220046,-0.00124594,-0.00782551,1.20445,0.00485528,0.0360849,685,911,-14.2585,-0.951143
-532,113,-14.2497,0.869751,-0.00400933,-0.00246743,0.00217384,-0.000931882,-0.00554488,0.955804,0.00342844,0.036477,692,911,-14.2497,-0.869739
-525,113,-14.4307,0.859924,0.000140595,-0.00306149,0.00211681,0.00119365,-0.00411454,0.461623,0.00321563,0.0376275,699,911,-14.4307,-0.859945
-518,113,-14.4609,1.12885,0.00528835,-0.00401477,0.00213819,0.00575625,-0.00448267,0.215434,0.00592666,0.039088,706,911,-14.4609,-1.12884
-511,113,-14.4472,1.42169,0.00911615,-0.00496524,0.00253594,0.00955893,-0.00540802,0.172859,0.00875125,0.0392779,713,911,-14.4472,-1.4217
-504,113,0,0,0,0,0,0,0,0,0,-1,720,911,0,0
-497,113,0,0,0,0,0,0,0,0,0,-1,727,911,0,0
-490,113,0,0,0,0,0,0,0,0,0,-1,734,911,0,0
-483,113,0,0,0,0,0,0,0,0,0,-1,741,911,0,0
-476,113,0,0,0,0,0,0,0,0,0,-1,748,911,0,0
-469,113,0,0,0,0,0,0,0,0,0,-1,755,911,0,0
-462,113,0,0,0,0,0,0,0,0,0,-1,762,911,0,0
-455,113,0,0,0,0,0,0,0,0,0,-1,769,911,0,0
-448,113,0,0,0,0,0,0,0,0,0,-1,776,911,0,0
-441,113,0,0,0,0,0,0,0,0,0,-1,783,911,0,0
-434,113,0,0,0,0,0,0,0,0,0,-1,790,911,0,0
-427,113,0,0,0,0,0,0,0,0,0,-1,797,911,0,0
-420,113,0,0,0,0,0,0,0,0,0,-1,804,911,0,0
-413,113,0,0,0,0,0,0,0,0,0,-1,811,911,0,0
-406,113,0,0,0,0,0,0,0,0,0,-1,818,911,0,0
-399,113,0,0,0,0,0,0,0,0,0,-1,825,911,0,0
-392,113,0,0,0,0,0,0,0,0,0,-1,832,911,0,0
-385,113,0,0,0,0,0,0,0,0,0,-1,839,911,0,0
-378,113,0,0,0,0,0,0,0,0,0,-1,846,911,0,0
-371,113,0,0,0,0,0,0,0,0,0,-1,853,911,0,0
-364,113,0,0,0,0,0,0,0,0,0,-1,860,911,0,0
-357,113,0,0,0,0,0,0,0,0,0,-1,867,911,0,0
-350,113,0,0,0,0,0,0,0,0,0,-1,874,911,0,0
-343,113,0,0,0,0,0,0,0,0,0,-1,881,911,0,0
-336,113,0,0,0,0,0,0,0,0,0,-1,888,911,0,0
-329,113,0,0,0,0,0,0,0,0,0,-1,895,911,0,0
-322,113,0,0,0,0,0,0,0,0,0,-1,902,911,0,0
-315,113,0,0,0,0,0,0,0,0,0,-1,909,911,0,0
-308,113,0,0,0,0,0,0,0,0,0,-1,916,911,0,0
-301,113,0,0,0,0,0,0,0,0,0,-1,923,911,0,0
-294,113,0,0,0,0,0,0,0,0,0,-1,930,911,0,0
-287,113,0,0,0,0,0,0,0,0,0,-1,937,911,0,0
-280,113,0,0,0,0,0,0,0,0,0,-1,944,911,0,0
-273,113,0,0,0,0,0,0,0,0,0,-1,951,911,0,0
-266,113,0,0,0,0,0,0,0,0,0,-1,958,911,0,0
-259,113,0,0,0,0,0,0,0,0,0,-1,965,911,0,0
-252,113,0,0,0,0,0,0,0,0,0,-1,972,911,0,0
-245,113,0,0,0,0,0,0,0,0,0,-1,979,911,0,0
-238,113,0,0,0,0,0,0,0,0,0,-1,986,911,0,0
-231,113,0,0,0,0,0,0,0,0,0,-1,993,911,0,0
-224,113,0,0,0,0,0,0,0,0,0,-1,1000,911,0,0
-217,113,0,0,0,0,0,0,0,0,0,-1,1007,911,0,0
-210,113,0,0,0,0,0,0,0,0,0,-1,1014,911,0,0
-203,113,0,0,0,0,0,0,0,0,0,-1,1021,911,0,0
-196,113,0,0,0,0,0,0,0,0,0,-1,1028,911,0,0
-189,113,0,0,0,0,0,0,0,0,0,-1,1035,911,0,0
-182,113,0,0,0,0,0,0,0,0,0,-1,1042,911,0,0
-175,113,0,0,0,0,0,0,0,0,0,-1,1049,911,0,0
-168,113,0,0,0,0,0,0,0,0,0,-1,1056,911,0,0
-161,113,0,0,0,0,0,0,0,0,0,-1,1063,911,0,0
-154,113,0,0,0,0,0,0,0,0,0,-1,1070,911,0,0
-147,113,0,0,0,0,0,0,0,0,0,-1,1077,911,0,0
-140,113,0,0,0,0,0,0,0,0,0,-1,1084,911,0,0
-133,113,0,0,0,0,0,0,0,0,0,-1,1091,911,0,0
-126,113,0,0,0,0,0,0,0,0,0,-1,1098,911,0,0
-119,113,0,0,0,0,0,0,0,0,0,-1,1105,911,0,0
-112,113,0,0,0,0,0,0,0,0,0,-1,1112,911,0,0
-105,113,0,0,0,0,0,0,0,0,0,-1,1119,911,0,0
-98,113,0,0,0,0,0,0,0,0,0,-1,1126,911,0,0
-91,113,0,0,0,0,0,0,0,0,0,-1,1133,911,0,0
-84,113,0,0,0,0,0,0,0,0,0,-1,1140,911,0,0
-77,113,0,0,0,0,0,0,0,0,0,-1,1147,911,0,0
-70,113,0,0,0,0,0,0,0,0,0,-1,1154,911,0,0
-63,113,0,0,0,0,0,0,0,0,0,-1,1161,911,0,0
-56,113,0,0,0,0,0,0,0,0,0,-1,1168,911,0,0
-49,113,0,0,0,0,0,0,0,0,0,-1,1175,911,0,0
-42,113,0,0,0,0,0,0,0,0,0,-1,1182,911,0,0
-35,113,0,0,0,0,0,0,0,0,0,-1,1189,911,0,0
-28,113,0,0,0,0,0,0,0,0,0,-1,1196,911,0,0
-21,113,0,0,0,0,0,0,0,0,0,-1,1203,911,0,0
-14,113,0,0,0,0,0,0,0,0,0,-1,1210,911,0,0
-7,113,0,0,0,0,0,0,0,0,0,-1,1217,911,0,0
0,113,0,0,0,0,0,0,0,0,0,-1,1224,911,0,0
7,113,0,0,0,0,0,0,0,0,0,-1,1231,911,0,0
14,113,0,0,0,0,0,0,0,0,0,-1,1238,911,0,0
21,113,0,0,0,0,0,0,0,0,0,-1,1245,911,0,0
28,113,0,0,0,0,0,0,0,0,0,-1,1252,911,0,0
35,113,0,0,0,0,0,0,0,0,0,-1,1259,911,0,0
42,113,0,0,0,0,0,0,0,0,0,-1,1266,911,0,0
49,113,0,0,0,0,0,0,0,0,0,-1,1273,911,0,0
56,113,0,0,0,0,0,0,0,0,0,-1,1280,911,0,0
63,113,0,0,0,0,0,0,0,0,0,-1,1287,911,0,0
70,113,0,0,0,0,0,0,0,0,0,-1,1294,911,0,0
77,113,0,0,0,0,0,0,0,0,0,-1,1301,911,0,0
84,113,0,0,0,0,0,0,0,0,0,-1,1308,911,0,0
91,113,0,0,0,0,0,0,0,0,0,-1,1315,911,0,0
98,113,0,0,0,0,0,0,0,0,0,-1,1322,911,0,0
105,113,0,0,0,0,0,0,0,0,0,-1,1329,911,0,0
112,113,0,0,0,0,0,0,0,0,0,-1,1336,911,0,0
119,113,0,0,0,0,0,0,0,0,0,-1,1343,911,0,0
126,113,0,0,0,0,0,0,0,0,0,-1,1350,911,0,0
133,113,0,0,0,0,0,0,0,0,0,-1,1357,911,0,0
140,113,0,0,0,0,0,0,0,0,0,-1,1364,911,0,0
147,113,0,0,0,0,0,0,0,0,0,-1,1371,911,0,0
154,113,0,0,0,0,0,0,0,0,0,-1,1378,911,0,0
161,113,0,0,0,0,0,0,0,0,0,-1,1385,911,0,0
168,113,0,0,0,0,0,0,0,0,0,-1,1392,911,0,0
175,113,0,0,0,0,0,0,0,0,0,-1,1399,911,0,0
182,113,0,0,0,0,0,0,0,0,0,-1,1406,911,0,0
189,113,0,0,0,0,0,0,0,0,0,-1,1413,911,0,0
196,113,0,0,0,0,0,0,0,0,0,-1,1420,911,0,0
203,113,0,0,0,0,0,0,0,0,0,-1,1427,911,0,0
210,113,0,0,0,0,0,0,0,0,0,-1,1434,911,0,0
217,113,0,0,0,0,0,0,0,0,0,-1,1441,911,0,0
224,113,0,0,0,0,0,0,0,0,0,-1,1448,911,0,0
231,113,0,0,0,0,0,0,0,0,0,-1,1455,911,0,0
238,113,0,0,0,0,0,0,0,0,0,-1,1462,911,0,0
245,113,0,0,0,0,0,0,0,0,0,-1,1469,911,0,0
252,113,0,0,0,0,0,0,0,0,0,-1,1476,911,0,0
259,113,0,0,0,0,0,0,0,0,0,-1,1483,911,0,0
266,113,0,0,0,0,0,0,0,0,0,-1,1490,911,0,0
273,113,0,0,0,0,0,0,0,0,0,-1,1497,911,0,0
280,113,0,0,0,0,0,0,0,0,0,-1,1504,911,0,0
287,113,0,0,0,0,0,0,0,0,0,-1,1511,911,0,0
294,113,0,0,0,0,0,0,0,0,0,-1,1518,911,0,0
301,113,0,0,0,0,0,0,0,0,0,-1,1525,911,0,0
308,113,0,0,0,0,0,0,0,0,0,-1,1532,911,0,0
315,113,0,0,0,0,0,0,0,0,0,-1,1539,911,0,0
322,113,0,0,0,0,0,0,0,0,0,-1,1546,911,0,0
329,113,0,0,0,0,0,0,0,0,0,-1,1553,911,0,0
336,113,0,0,0,0,0,0,0,0,0,-1,1560,911,0,0
343,113,0,0,0,0,0,0,0,0,0,-1,1567,911,0,0
350,113,0,0,0,0,0,0,0,0,0,-1,1574,911,0,0
357,113,0,0,0,0,0,0,0,0,0,-1,1581,911,0,0
364,113,0,0,0,0,0,0,0,0,0,-1,1588,911,0,0
371,113,0,0,0,0,0,0,0,0,0,-1,1595,911,0,0
378,113,0,0,0,0,0,0,0,0,0,-1,1602,911,0,0
385,113,0,0,0,0,0,0,0,0,0,-1,1609,911,0,0
392,113,0,0,0,0,0,0,0,0,0,-1,1616,911,0,0
399,113,0,0,0,0,0,0,0,0,0,-1,1623,911,0,0
406,113,0,0,0,0,0,0,0,0,0,-1,1630,911,0,0
413,113,0,0,0,0,0,0,0,0,0,-1,1637,911,0,0
420,113,0,0,0,0,0,0,0,0,0,-1,1644,911,0,0
427,113,0,0,0,0,0,0,0,0,0,-1,1651,911,0,0
434,113,0,0,0,0,0,0,0,0,0,-1,1658,911,0,0
441,113,0,0,0,0,0,0,0,0,0,-1,1665,911,0,0
448,113,0,0,0,0,0,0,0,0,0,-1,1672,911,0,0
455,113,0,0,0,0,0,0,0,0,0,-1,1679,911,0,0
462,113,0,0,0,0,0,0,0,0,0,-1,1686,911,0,0
469,113,0,0,0,0,0,0,0,0,0,-1,1693,911,0,0
476,113,0,0,0,0,0,0,0,0,0,-1,1700,911,0,0
483,113,0,0,0,0,0,0,0,0,0,-1,1707,911,0,0
490,113,0,0,0,0,0,0,0,0,0,-1,1714,911,0,0
497,113,0,0,0,0,0,0,0,0,0,-1,1721,911,0,0
504,113,0,0,0,0,0,0,0,0,0,-1,1728,911,0,0
511,113,0,0,0,0,0,0,0,0,0,-1,1735,911,0,0
518,113,0,0,0,0,0,0,0,0,0,-1,1742,911,0,0
525,113,0,0,0,0,0,0,0,0,0,-1,1749,911,0,0
532,113,0,0,0,0,0,0,0,0,0,-1,1756,911,0,0
539,113,0,0,0,0,0,0,0,0,0,-1,1763,911,0,0
546,113,0,0,0,0,0,0,0,0,0,-1,1770,911,0,0
553,113,0,0,0,0,0,0,0,0,0,-1,1777,911,0,0
560,113,0,0,0,0,0,0,0,0,0,-1,1784,911,0,0
567,113,0,0,0,0,0,0,0,0,0,-1,1791,911,0,0
574,113,0,0,0,0,0,0,0,0,0,-1,1798,911,0,0
581,113,0,0,0,0,0,0,0,0,0,-1,1805,911,0,0
588,113,0,0,0,0,0,0,0,0,0,-1,1812,911,0,0
595,113,0,0,0,0,0,0,0,0,0,-1,1819,911,0,0
602,113,0,0,0,0,0,0,0,0,0,-1,1826,911,0,0
609,113,0,0,0,0,0,0,0,0,0,-1,1833,911,0,0
616,113,0,0,0,0,0,0,0,0,0,-1,1840,911,0,0
623,113,0,0,0,0,0,0,0,0,0,-1,1847,911,0,0
630,113,21.895,2.55884,0.00156669,-0.00304909,0.00340569,0.00337281,-0.00485521,0.487612,0.00477608,0.038707,1854,911,21.8951,-2.55886
637,113,22.0405,2.72491,0.000968836,-0.00227829,0.00249912,0.00232547,-0.00363492,0.497333,0.0034688,0.0348151,1861,911,22.0406,-2.72489
644,113,21.9905,2.87427,0.000670691,-0.00150061,0.00184735,0.00172778,-0.0025577,0.519743,0.00248964,0.0345933,1868,911,21.9905,-2.8743
651,113,21.9562,2.69354,-0.000778314,-0.000924128,0.00108703,0.000238251,-0.00194069,0.751913,0.00138008,0.0433292,1875,911,21.9562,-2.69356
658,113,22.149,2.39209,-0.00314037,-0.000473491,0.000303381,-0.000439414,-0.00317445,1.45894,0.0019861,0.0450856,1882,911,22.149,-2.3921
665,113,21.9789,2.6618,-0.00544599,-0.00014018,-0.000338387,-0.000118686,-0.00546748,-1.50736,0.00360608,0.0386368,1889,911,21.9789,-2.6618
672,113,21.8268,2.70886,-0.00726626,3.98571e-05,-0.000780074,0.000122217,-0.00734862,-1.46561,0.00494033,0.0362673,1896,911,21.8268,-2.70888
679,113,21.8005,2.69958,-0.00866305,0.000209746,-0.00111393,0.000347456,-0.00880076,-1.44779,0.00598635,0.0306276,1903,911,21.8005,-2.69956
686,113,21.8087,2.72443,-0.00975957,0.000239252,-0.00135958,0.000420822,-0.00994114,-1.43803,0.00677206,0.0250984,1910,911,21.8088,-2.72444
693,113,21.5906,2.76605,0,0,0,0,0,0,0,-1,1917,911,21.5906,-2.76604
700,113,20.6122,3.01074,-0.0100565,0.000446583,-0.00155815,0.000672861,-0.0102828,-1.42658,0.00709012,0.0465541,1924,911,20.6122,-3.01071
707,113,19.6978,3.19421,-0.00972553,0.00039465,-0.00145392,0.000599388,-0.00993027,-1.4309,0.00682875,0.0325588,1931,911,19.6977,-3.1942
714,113,19.6786,3.40106,-0.00855216,0.000550296,-0.00156915,0.000813203,-0.00881507,-1.40479,0.00616568,0.0181149,1938,911,19.6786,-3.40104
721,113,19.6831,3.55988,-0.00625191,0.000465367,-0.00156671,0.000812808,-0.00659936,-1.35256,0.00469402,0.0173993,1945,911,19.6831,-3.55989
728,113,19.7255,3.73352,-0.00332579,0.000645078,-0.00181682,0.00135089,-0.0040316,-1.20026,0.0032335,0.0168537,1952,911,19.7254,-3.73354
735,113,19.6969,3.90033,6.63925e-05,0.000820306,-0.00212845,0.00260492,-0.00171822,-0.873041,0.00251341,0.0156231,1959,911,19.6968,-3.90031
742,113,19.6888,4.06018,0.00472145,0.00101117,-0.00198156,0.00558074,0.000151881,-0.409169,0.00367092,0.0124069,1966,911,19.6888,-4.06018
749,113,19.6995,4.19177,0.00959117,0.00138726,-0.00210014,0.0100975,0.000880889,-0.236595,0.00645812,0.0090652,1973,911,19.6995,-4.19175
756,113,19.6992,4.31317,0.0149105,0.00181389,-0.00226903,0.0152925,0.00143191,-0.16678,0.00975278,0.0102562,1980,911,19.6992,-4.31319
763,113,19.6658,4.45178,0.019826,0.00233183,-0.00225018,0.0201108,0.00204704,-0.125895,0.0127796,0.0211548,1987,911,19.6657,-4.45179
770,113,19.6729,4.771,0.0245042,0.00288736,-0.00171194,0.0246389,0.00275263,-0.0785425,0.0155896,0.0435071,1994,911,19.6729,-4.77101
777,113,19.7161,5.09863,0,0,0,0,0,0,0,-1,2001,911,19.7161,-5.09863
784,113,19.5139,5.31409,0.032214,0.00382565,0.00240288,0.032416,0.0036237,0.0838482,0.0205097,0.0485346,2008,911,19.5139,-5.3141
791,113,19.3846,5.40155,0.0333851,0.00405487,0.00699224,0.0349667,0.00247323,0.222456,0.022532,0.0466022,2015,911,19.3846,-5.40154
798,113,19.1508,5.40149,0.0303946,0.0040336,0.0143804,0.0367211,-0.00229286,0.414454,0.0252797,0.0440668,2022,911,19.1508,-5.40152
805,113,0,0,0,0,0,0,0,0,0,-1,2029,911,0,0
812,113,0,0,0,0,0,0,0,0,0,-1,2036,911,0,0
-700,106,0,0,0,0,0,0,0,0,0,-1,524,918,0,0
-693,106,0,0,0,0,0,0,0,0,0,-1,531,918,0,0
-686,106,0,0,0,0,0,0,0,0,0,-1,538,918,0,0
-679,106,-15.8297,2.65472,0,0,0,0,0,0,0,-1,545,918,-15.8296,-2.65474
-672,106,-15.4232,2.80438,0.0836497,0.0208713,0.00648362,0.0843123,0.0202087,0.101846,0.0508292,0.047257,552,918,-15.4232,-2.80436
-665,106,-14.9314,2.97186,0.0705193,0.0148836,0.00500367,0.0709657,0.0144371,0.0889848,0.0433078,0.0437928,559,918,-14.9314,-2.97184
-658,106,-13.5977,2.95166,0,0,0,0,0,0,0,-1,566,918,-13.5977,-2.95165
-651,106,-13.3647,2.69293,0.0467798,0.00733536,0.00310519,0.0470228,0.0070924,0.0780821,0.0292722,0.0467643,573,918,-13.3647,-2.69293
-644,106,-13.1532,2.45172,0.0366974,0.00499529,0.00240649,0.036879,0.00481366,0.0753343,0.0231489,0.0426507,580,918,-13.1532,-2.45169
-637,106,-12.9312,2.15271,0.0278631,0.0032819,0.00182849,0.0279984,0.00314663,0.073844,0.0177101,0.0275401,587,918,-12.9312,-2.15273
-630,106,-12.9888,2.05438,0.0203423,0.00178959,0.00137636,0.0204438,0.00168804,0.0736493,0.0131028,0.0117371,594,918,-12.9888,-2.05438
-623,106,-13.0019,1.92413,0.0134864,0.000944339,0.0010336,0.013571,0.00085973,0.0816764,0.00877481,0.0100133,601,918,-13.0019,-1.92415
-616,106,-13.0047,1.78925,0.00700793,0.000503901,0.000645094,0.00707129,0.000440535,0.0979127,0.00457443,0.00992086,608,918,-13.0047,-1.78923
-609,106,-13.0184,1.66809,0.00158695,0.000217736,0.000716492,0.00189332,-8.86404e-05,0.404076,0.00129278,0.0105889,615,918,-13.0184,-1.66807
-602,106,-13.0211,1.54352,-0.00262199,-0.00067343,0.000924176,-0.000304831,-0.00299059,1.19129,0.00190028,0.0131069,622,918,-13.0211,-1.54351
-595,106,-13.0541,1.42053,-0.00537247,-0.000750217,0.00114793,-0.000480831,-0.00564186,1.3403,0.00361165,0.0157481,629,918,-13.0541,-1.42052
-588,106,-13.0353,1.26459,-0.00747372,-0.000557557,0.00130447,-0.000319699,-0.00771158,1.39044,0.00503787,0.0173131,636,918,-13.0353,-1.26461
-581,106,-12.9594,1.12329,-0.00902632,-0.000450433,0.00134145,-0.000245498,-0.00923126,1.4192,0.00607399,0.014017,643,918,-12.9594,-1.12328
-574,106,-12.9888,0.99353,-0.00980235,-0.000571141,0.00136364,-0.000373918,-0.00999957,1.42716,0.0065453,0.0210082,650,918,-12.9888,-0.993542
-567,106,-13.6472,0.94458,-0.0101121,-0.000701113,0.00144429,-0.000484447,-0.0103288,1.42189,0.00673017,0.0378224,657,918,-13.6471,-0.94461
-560,106,-14.4641,0.921387,0,0,0,0,0,0,0,-1,664,918,-14.4641,-0.921362
-553,106,-14.2939,1.06152,-0.00932161,-0.00115104,0.00155926,-0.000863588,-0.00960906,1.38849,0.00613846,0.0331744,671,918,-14.2939,-1.06153
-546,106,-14.2774,0.9422,-0.00806545,-0.00130258,0.00156762,-0.000956877,-0.00841115,1.35374,0.00531725,0.0364465,678,918,-14.2774,-0.942204
-539,106,-14.246,0.881775,-0.00598589,-0.00149346,0.00154523,-0.00101329,-0.00646607,1.26951,0.00401579,0.040637,685,918,-14.2459,-0.881756
-532,106,-14.1791,0.963562,-0.0030199,-0.00178002,0.00150418,-0.00077303,-0.00402689,0.980864,0.00246761,0.0397256,692,918,-14.1791,-0.963533
-525,106,-14.3662,0.660767,0.000900192,-0.00227496,0.00145018,0.00146283,-0.0028376,0.3701,0.00252479,0.0396532,699,918,-14.3662,-0.660779
-518,106,-14.4133,0.858582,0.00518428,-0.0030977,0.00151604,0.00545307,-0.00336649,0.175475,0.00513926,0.0393174,706,918,-14.4133,-0.858605
-511,106,0,0,0,0,0,0,0,0,0,-1,713,918,0,0
-504,106,0,0,0,0,0,0,0,0,0,-1,720,918,0,0
-497,106,0,0,0,0,0,0,0,0,0,-1,727,918,0,0
-490,106,0,0,0,0,0,0,0,0,0,-1,734,918,0,0
-483,106,0,0,0,0,0,0,0,0,0,-1,741,918,0,0
-476,106,0,0,0,0,0,0,0,0,0,-1,748,918,0,0
-469,106,0,0,0,0,0,0,0,0,0,-1,755,918,0,0
-462,106,0,0,0,0,0,0,0,0,0,-1,762,918,0,0
-455,106,0,0,0,0,0,0,0,0,0,-1,769,918,0,0
-448,106,0,0,0,0,0,0,0,0,0,-1,776,918,0,0
-441,106,0,0,0,0,0,0,0,0,0,-1,783,918,0,0
-434,106,0,0,0,0,0,0,0,0,0,-1,790,918,0,0
-427,106,0,0,0,0,0,0,0,0,0,-1,797,918,0,0
-420,106,0,0,0,0,0,0,0,0,0,-1,804,918,0,0
-413,106,0,0,0,0,0,0,0,0,0,-1,811,918,0,0
-406,106,0,0,0,0,0,0,0,0,0,-1,818,918,0,0
-399,106,0,0,0,0,0,0,0,0,0,-1,825,918,0,0
-392,106,0,0,0,0,0,0,0,0,0,-1,832,918,0,0
-385,106,0,0,0,0,0,0,0,0,0,-1,839,918,0,0
-378,106,0,0,0,0,0,0,0,0,0,-1,846,918,0,0
-371,106,0,0,0,0,0,0,0,0,0,-1,853,918,0,0
-364,106,0,0,0,0,0,0,0,0,0,-1,860,918,0,0
-357,106,0,0,0,0,0,0,0,0,0,-1,867,918,0,0
-350,106,0,0,0,0,0,0,0,0,0,-1,874,918,0,0
-343,106,0,0,0,0,0,0,0,0,0,-1,881,918,0,0
-336,106,0,0,0,0,0,0,0,0,0,-1,888,918,0,0
-329,106,0,0,0,0,0,0,0,0,0,-1,895,918,0,0
-322,106,0,0,0,0,0,0,0,0,0,-1,902,918,0,0
-315,106,0,0,0,0,0,0,0,0,0,-1,909,918,0,0
-308,106,0,0,0,0,0,0,0,0,0,-1,916,918,0,0
-301,106,0,0,0,0,0,0,0,0,0,-1,923,918,0,0
-294,106,0,0,0,0,0,0,0,0,0,-1,930,918,0,0
-287,106,0,0,0,0,0,0,0,0,0,-1,937,918,0,0
-280,106,0,0,0,0,0,0,0,0,0,-1,944,918,0,0
-273,106,0,0,0,0,0,0,0,0,0,-1,951,918,0,0
-266,106,0,0,0,0,0,0,0,0,0,-1,958,918,0,0
-259,106,0,0,0,0,0,0,0,0,0,-1,965,918,0,0
-252,106,0,0,0,0,0,0,0,0,0,-1,972,918,0,0
-245,106,0,0,0,0,0,0,0,0,0,-1,979,918,0,0
-238,106,0,0,0,0,0,0,0,0,0,-1,986,918,0,0
-231,106,0,0,0,0,0,0,0,0,0,-1,993,918,0,0
-224,106,0,0,0,0,0,0,0,0,0,-1,1000,918,0,0
-217,106,0,0,0,0,0,0,0,0,0,-1,1007,918,0,0
-210,106,0,0,0,0,0,0,0,0,0,-1,1014,918,0,0
-203,106,0,0,0,0,0,0,0,0,0,-1,1021,918,0,0
-196,106,0,0,0,0,0,0,0,0,0,-1,1028,918,0,0
-189,106,0,0,0,0,0,0,0,0,0,-1,1035,918,0,0
-182,106,0,0,0,0,0,0,0,0,0,-1,1042,918,0,0
-175,106,0,0,0,0,0,0,0,0,0,-1,1049,918,0,0
-168,106,0,0,0,0,0,0,0,0,0,-1,1056,918,0,0
-161,106,0,0,0,0,0,0,0,0,0,-1,1063,918,0,0
-154,106,0,0,0,0,0,0,0,0,0,-1,1070,918,0,0
-147,106,0,0,0,0,0,0,0,0,0,-1,1077,918,0,0
-140,106,0,0,0,0,0,0,0,0,0,-1,1084,918,0,0
-133,106,0,0,0,0,0,0,0,0,0,-1,1091,918,0,0
-126,106,0,0,0,0,0,0,0,0,0,-1,1098,918,0,0
-119,106,0,0,0,0,0,0,0,0,0,-1,1105,918,0,0
-112,106,0,0,0,0,0,0,0,0,0,-1,1112,918,0,0
-105,106,0,0,0,0,0,0,0,0,0,-1,1119,918,0,0
-98,106,0,0,0,0,0,0,0,0,0,-1,1126,918,0,0
-91,106,0,0,0,0,0,0,0,0,0,-1,1133,918,0,0
-84,106,0,0,0,0,0,0,0,0,0,-1,1140,918,0,0
-77,106,0,0,0,0,0,0,0,0,0,-1,1147,918,0,0
-70,106,0,0,0,0,0,0,0,0,0,-1,1154,918,0,0
-63,106,0,0,0,0,0,0,0,0,0,-1,1161,918,0,0
-56,106,0,0,0,0,0,0,0,0,0,-1,1168,918,0,0
-49,106,0,0,0,0,0,0,0,0,0,-1,1175,918,0,0
-42,106,0,0,0,0,0,0,0,0,0,-1,1182,918,0,0
-35,106,0,0,0,0,0,0,0,0,0,-1,1189,918,0,0
-28,106,0,0,0,0,0,0,0,0,0,-1,1196,918,0,0
-21,106,0,0,0,0,0,0,0,0,0,-1,1203,918,0,0
-14,106,0,0,0,0,0,0,0,0,0,-1,1210,918,0,0
-7,106,0,0,0,0,0,0,0,0,0,-1,1217,918,0,0
0,106,0,0,0,0,0,0,0,0,0,-1,1224,918,0,0
7,106,0,0,0,0,0,0,0,0,0,-1,1231,918,0,0
14,106,0,0,0,0,0,0,0,0,0,-1,1238,918,0,0
21,106,0,0,0,0,0,0,0,0,0,-1,1245,918,0,0
28,106,0,0,0,0,0,0,0,0,0,-1,1252,918,0,0
35,106,0,0,0,0,0,0,0,0,0,-1,1259,918,0,0
42,106,0,0,0,0,0,0,0,0,0,-1,1266,918,0,0
49,106,0,0,0,0,0,0,0,0,0,-1,1273,918,0,0
56,106,0,0,0,0,0,0,0,0,0,-1,1280,918,0,0
63,106,0,0,0,0,0,0,0,0,0,-1,1287,918,0,0
70,106,0,0,0,0,0,0,0,0,0,-1,1294,918,0,0
77,106,0,0,0,0,0,0,0,0,0,-1,1301,918,0,0
84,106,0,0,0,0,0,0,0,0,0,-1,1308,918,0,0
91,106,0,0,0,0,0,0,0,0,0,-1,1315,918,0,0
98,106,0,0,0,0,0,0,0,0,0,-1,1322,918,0,0
105,106,0,0,0,0,0,0,0,0,0,-1,1329,918,0,0
112,106,0,0,0,0,0,0,0,0,0,-1,1336,918,0,0
119,106,0,0,0,0,0,0,0,0,0,-1,1343,918,0,0
126,106,0,0,0,0,0,0,0,0,0,-1,1350,918,0,0
133,106,0,0,0,0,0,0,0,0,0,-1,1357,918,0,0
140,106,0,0,0,0,0,0,0,0,0,-1,1364,918,0,0
147,106,0,0,0,0,0,0,0,0,0,-1,1371,918,0,0
154,106,0,0,0,0,0,0,0,0,0,-1,1378,918,0,0
161,106,0,0,0,0,0,0,0,0,0,-1,1385,918,0,0
168,106,0,0,0,0,0,0,0,0,0,-1,1392,918,0,0
175,106,0,0,0,0,0,0,0,0,0,-1,1399,918,0,0
182,106,0,0,0,0,0,0,0,0,0,-1,1406,918,0,0
189,106,0,0,0,0,0,0,0,0,0,-1,1413,918,0,0
196,106,0,0,0,0,0,0,0,0,0,-1,1420,918,0,0
203,106,0,0,0,0,0,0,0,0,0,-1,1427,918,0,0
210,106,0,0,0,0,0,0,0,0,0,-1,1434,918,0,0
217,106,0,0,0,0,0,0,0,0,0,-1,1441,918,0,0
224,106,0,0,0,0,0,0,0,0,0,-1,1448,918,0,0
231,106,0,0,0,0,0,0,0,0,0,-1,1455,918,0,0
238,106,0,0,0,0,0,0,0,0,0,-1,1462,918,0,0
245,106,0,0,0,0,0,0,0,0,0,-1,1469,918,0,0
252,106,0,0,0,0,0,0,0,0,0,-1,1476,918,0,0
259,106,0,0,0,0,0,0,0,0,0,-1,1483,918,0,0
266,106,0,0,0,0,0,0,0,0,0,-1,1490,918,0,0
273,106,0,0,0,0,0,0,0,0,0,-1,1497,918,0,0
280,106,0,0,0,0,0,0,0,0,0,-1,1504,918,0,0
287,106,0,0,0,0,0,0,0,0,0,-1,1511,918,0,0
294,106,0,0,0,0,0,0,0,0,0,-1,1518,918,0,0
301,106,0,0,0,0,0,0,0,0,0,-1,1525,918,0,0
308,106,0,0,0,0,0,0,0,0,0,-1,1532,918,0,0
315,106,0,0,0,0,0,0,0,0,0,-1,1539,918,0,0
322,106,0,0,0,0,0,0,0,0,0,-1,1546,918,0,0
329,106,0,0,0,0,0,0,0,0,0,-1,1553,918,0,0
336,106,0,0,0,0,0,0,0,0,0,-1,1560,918,0,0
343,106,0,0,0,0,0,0,0,0,0,-1,1567,918,0,0
350,106,0,0,0,0,0,0,0,0,0,-1,1574,918,0,0
357,106,0,0,0,0,0,0,0,0,0,-1,1581,918,0,0
364,106,0,0,0,0,0,0,0,0,0,-1,1588,918,0,0
371,106,0,0,0,0,0,0,0,0,0,-1,1595,918,0,0
378,106,0,0,0,0,0,0,0,0,0,-1,1602,918,0,0
385,106,0,0,0,0,0,0,0,0,0,-1,1609,918,0,0
392,106,0,0,0,0,0,0,0,0,0,-1,1616,918,0,0
399,106,0,0,0,0,0,0,0,0,0,-1,1623,918,0,0
406,106,0,0,0,0,0,0,0,0,0,-1,1630,918,0,0
413,106,0,0,0,0,0,0,0,0,0,-1,1637,918,0,0
420,106,0,0,0,0,0,0,0,0,0,-1,1644,918,0,0
427,106,0,0,0,0,0,0,0,0,0,-1,1651,918,0,0
434,106,0,0,0,0,0,0,0,0,0,-1,1658,918,0,0
441,106,0,0,0,0,0,0,0,0,0,-1,1665,918,0,0
448,106,0,0,0,0,0,0,0,0,0,-1,1672,918,0,0
455,106,0,0,0,0,0,0,0,0,0,-1,1679,918,0,0
462,106,0,0,0,0,0,0,0,0,0,-1,1686,918,0,0
469,106,0,0,0,0,0,0,0,0,0,-1,1693,918,0,0
476,106,0,0,0,0,0,0,0,0,0,-1,1700,918,0,0
483,106,0,0,0,0,0,0,0,0,0,-1,1707,918,0,0
490,106,0,0,0,0,0,0,0,0,0,-1,1714,918,0,0
497,106,0,0,0,0,0,0,0,0,0,-1,1721,918,0,0
504,106,0,0,0,0,0,0,0,0,0,-1,1728,918,0,0
511,106,0,0,0,0,0,0,0,0,0,-1,1735,918,0,0
518,106,0,0,0,0,0,0,0,0,0,-1,1742,918,0,0
525,106,0,0,0,0,0,0,0,0,0,-1,1749,918,0,0
532,106,0,0,0,0,0,0,0,0,0,-1,1756,918,0,0
539,106,0,0,0,0,0,0,0,0,0,-1,1763,918,0,0
546,106,0,0,0,0,0,0,0,0,0,-1,1770,918,0,0
553,106,0,0,0,0,0,0,0,0,0,-1,1777,918,0,0
560,106,0,0,0,0,0,0,0,0,0,-1,1784,918,0,0
567,106,0,0,0,0,0,0,0,0,0,-1,1791,918,0,0
574,106,0,0,0,0,0,0,0,0,0,-1,1798,918,0,0
581,106,0,0,0,0,0,0,0,0,0,-1,1805,918,0,0
588,106,0,0,0,0,0,0,0,0,0,-1,1812,918,0,0
595,106,0,0,0,0,0,0,0,0,0,-1,1819,918,0,0
602,106,0,0,0,0,0,0,0,0,0,-1,1826,918,0,0
609,106,0,0,0,0,0,0,0,0,0,-1,1833,918,0,0
616,106,0,0,0,0,0,0,0,0,0,-1,1840,918,0,0
623,106,0,0,0,0,0,0,0,0,0,-1,1847,918,0,0
630,106,21.8384,2.65704,0.000922779,-0.00490149,0.0028575,0.00209058,-0.00606928,0.387965,0.00489422,0.0399057,1854,918,21.8384,-2.65703
637,106,21.9696,2.81726,0.000613872,-0.00372898,0.00199538,0.00139145,-0.00450656,0.371586,0.00356002,0.0355983,1861,918,21.9696,-2.81724
644,106,21.9158,3.26978,0,0,0,0,0,0,0,-1,1868,918,21.9158,-3.26976
651,106,21.9841,2.75513,-0.000441721,-0.00165955,0.000898546,3.47974e-05,-0.00213606,0.487609,0.00143578,0.0400827,1875,918,21.9841,-2.75516
658,106,22.105,2.43073,-0.00265532,-0.000941204,0.000262436,-0.000901925,-0.0026946,1.42223,0.00158381,0.0429291,1882,918,22.1049,-2.43071
665,106,21.964,2.61584,-0.00499813,-0.000388441,-0.000273547,-0.000372265,-0.00501431,-1.51173,0.00322595,0.0414225,1889,918,21.964,-2.61586
672,106,21.776,2.90582,-0.00691483,-4.37382e-05,-0.00063907,1.51952e-05,-0.00697377,-1.47884,0.00465425,0.0392741,1896,918,21.7761,-2.90583
679,106,21.8127,2.81653,-0.0083738,0.000198761,-0.000896012,0.000291412,-0.00846645,-1.46776,0.0057439,0.0332957,1903,918,21.8127,-2.81654
686,106,21.7992,2.73059,-0.00947171,0.000275589,-0.00109413,0.000396895,-0.00959301,-1.46038,0.00653166,0.0295816,1910,918,21.7992,-2.73059
693,106,21.8622,2.63733,-0.00985725,0.000436794,-0.00121281,0.000577754,-0.00999821,-1.45509,0.00686617,0.024966,1917,918,21.8622,-2.63735
700,106,21.1716,2.8739,0,0,0,0,0,0,0,-1,1924,918,21.1717,-2.87388
707,106,20.0502,3.18787,-0.00947574,0.000514992,-0.00111578,0.000638089,-0.00959884,-1.46092,0.00662218,0.041296,1931,918,20.0502,-3.18785
714,106,19.8536,3.38696,-0.00842112,0.000667815,-0.00123001,0.000831331,-0.00858464,-1.43863,0.00601937,0.0199791,1938,918,19.8537,-3.38696
721,106,19.8743,3.56628,-0.0063379,0.000581194,-0.00122377,0.000791262,-0.00654797,-1.4008,0.00465155,0.0184684,1945,918,19.8742,-3.56626
728,106,19.8912,3.75311,-0.00374358,0.000777436,-0.00136715,0.00115871,-0.00412485,-1.29883,0.0032067,0.0171473,1952,918,19.8912,-3.75311
735,106,19.8777,3.90503,-0.000775282,0.000937748,-0.00148305,0.00179385,-0.00163138,-1.04727,0.0019783,0.0154471,1959,918,19.8776,-3.90505
742,106,19.8699,4.04297,0.00329352,0.00114638,-0.00121132,0.00383854,0.000601351,-0.422807,0.00238399,0.0112837,1966,918,19.8698,-4.043
749,106,19.8619,4.18378,0.00758753,0.00146149,-0.00113469,0.00779094,0.00125808,-0.177387,0.00482954,0.00887798,1973,918,19.8619,-4.18378
756,106,19.8547,4.29883,0.0123218,0.00183602,-0.000988528,0.0124142,0.00174365,-0.0931795,0.00776046,0.00960807,1980,918,19.8548,-4.2988
763,106,19.8451,4.45538,0.016532,0.0022324,-0.000603795,0.0165574,0.00220695,-0.0421247,0.0103811,0.0172139,1987,918,19.8451,-4.45538
770,106,19.803,4.70142,0.0202855,0.00255804,0.000269613,0.0202896,0.00255394,0.0152041,0.0127606,0.035475,1994,918,19.803,-4.70143
777,106,19.7678,4.96057,0.0234816,0.0026878,0.00191727,0.0236569,0.00251249,0.0911798,0.015004,0.0438698,2001,918,19.7679,-4.9606
784,106,19.7443,5.18506,0.0254466,0.00244854,0.00463841,0.0263469,0.00154828,0.191706,0.0170719,0.04695,2008,918,19.7443,-5.18506
791,106,19.7074,5.40991,0,0,0,0,0,0,0,-1,2015,918,19.7074,-5.40991
798,106,18.9692,5.30585,0,0,0,0,0,0,0,-1,2022,918,18.9693,-5.30582
805,106,0,0,0,0,0,0,0,0,0,-1,2029,918,0,0
812,106,0,0,0,0,0,0,0,0,0,-1,2036,918,0,0
-700,99,0,0,0,0,0,0,0,0,0,-1,524,925,0,0
-693,99,0,0,0,0,0,0,0,0,0,-1,531,925,0,0
-686,99,0,0,0,0,0,0,0,0,0,-1,538,925,0,0
-679,99,-19.9167,-2.00946,0,0,0,0,0,0,0,-1,545,925,-19.9167,2.00948
-672,99,-14.8335,3.18372,0,0,0,0,0,0,0,-1,552,925,-14.8335,-3.18371
-665,99,-14.6222,3.18524,0.0686521,0.0276021,0.000244423,0.0686536,0.0276006,0.005954,0.03989,0.0494091,559,925,-14.6222,-3.18521
-658,99,-14.3542,3.17139,0.0559927,0.0192146,-0.00035575,0.0559961,0.0192111,-0.00967168,0.0328558,0.0462401,566,925,-14.3542,-3.17141
-651,99,-13.7346,2.7926,0.0445271,0.0130908,-0.000534437,0.0445362,0.0130817,-0.0169941,0.0264322,0.0478721,573,925,-13.7346,-2.79258
-644,99,-13.352,2.43951,0.0344267,0.00871434,-0.000498521,0.0344363,0.00870468,-0.0193787,0.0206761,0.045693,580,925,-13.352,-2.43952
-637,99,-13.0423,2.11554,0.0257479,0.00559861,-0.000456267,0.0257582,0.00558829,-0.0226289,0.0156457,0.0297169,587,925,-13.0423,-2.11553
-630,99,-13.1129,2.04364,0.0184578,0.00287394,-0.000273723,0.0184626,0.00286913,-0.0175573,0.0114722,0.0127272,594,925,-13.1129,-2.04363
-623,99,-13.1526,1.91339,0.0117036,0.00139229,-5.0083e-05,0.0117038,0.00139205,-0.00485694,0.00738243,0.00768857,601,925,-13.1527,-1.9134
-616,99,-13.156,1.7865,0.00547872,0.000717707,-1.4501e-05,0.00547876,0.000717663,-0.00304574,0.00343834,0.00868134,608,925,-13.156,-1.78651
-609,99,-13.1504,1.65491,0.0005057,0.000410994,0.000344887,0.00080647,0.000110225,0.717174,0.000504931,0.010351,615,925,-13.1504,-1.65491
-602,99,-13.1429,1.55035,-0.00329996,-0.00031452,0.000692356,-0.000161771,-0.00345271,1.35365,0.00224982,0.0111966,622,925,-13.1429,-1.55038
-595,99,-13.1849,1.4455,-0.00571369,-0.000432471,0.000867077,-0.000293756,-0.0058524,1.41216,0.00380746,0.0138887,629,925,-13.1849,-1.44551
-588,99,-13.1792,1.28668,-0.00756238,-0.000264338,0.000961124,-0.000139884,-0.00768683,1.44202,0.00507857,0.0138645,636,925,-13.1792,-1.28667
-581,99,-13.1146,1.12689,-0.00887912,-0.000129926,0.000933019,-3.1535e-05,-0.00897751,1.46573,0.00597452,0.0107251,643,925,-13.1146,-1.12687
-574,99,-13.2421,1.0127,-0.00946356,-0.000193495,0.00085984,-0.000114416,-0.00954264,1.47908,0.00632396,0.0175473,650,925,-13.2421,-1.01269
-567,99,-13.7573,0.796021,-0.00966158,-0.000263399,0.000865659,-0.000184329,-0.00974065,1.47971,0.0064332,0.0419017,657,925,-13.7573,-0.796005
-560,99,-14.3118,0.913513,-0.00935331,-0.000488206,0.000859457,-0.000405652,-0.00943586,1.47504,0.00615981,0.0341423,664,925,-14.3118,-0.913501
-553,99,-14.2979,1.05298,-0.00862396,-0.000584859,0.000814338,-0.000503199,-0.00870562,1.47085,0.0056435,0.0371258,671,925,-14.2979,-1.05296
-546,99,-14.2895,1.05408,-0.00723544,-0.000705145,0.000726826,-0.000625227,-0.00731536,1.46128,0.00468243,0.0399983,678,925,-14.2895,-1.05408
-539,99,-14.3102,0.921448,-0.00508938,-0.000886889,0.000608425,-0.000800576,-0.00517569,1.42987,0.00321698,0.0412008,685,925,-14.3102,-0.921465
-532,99,-14.2273,1.13428,-0.00216232,-0.001199,0.000472427,-0.00100599,-0.00235534,1.18294,0.00136466,0.0440545,692,925,-14.2273,-1.13429
-525,99,-14.3047,1.1012,0.00145339,-0.00175327,0.000325327,0.00148606,-0.00178594,0.100095,0.00189174,0.0413858,699,925,-14.3047,-1.1012
-518,99,-14.4105,1.03009,0.00475812,-0.00265336,0.000347742,0.0047744,-0.00266964,0.0467824,0.0043547,0.0391833,706,925,-14.4105,-1.03009
-511,99,0,0,0,0,0,0,0,0,0,-1,713,925,0,0
-504,99,0,0,0,0,0,0,0,0,0,-1,720,925,0,0
-497,99,0,0,0,0,0,0,0,0,0,-1,727,925,0,0
-490,99,0,0,0,0,0,0,0,0,0,-1,734,925,0,0
-483,99,0,0,0,0,0,0,0,0,0,-1,741,925,0,0
-476,99,0,0,0,0,0,0,0,0,0,-1,748,925,0,0
-469,99,0,0,0,0,0,0,0,0,0,-1,755,925,0,0
-462,99,0,0,0,0,0,0,0,0,0,-1,762,925,0,0
-455,99,0,0,0,0,0,0,0,0,0,-1,769,925,0,0
-448,99,0,0,0,0,0,0,0,0,0,-1,776,925,0,0
-441,99,0,0,0,0,0,0,0,0,0,-1,783,925,0,0
-434,99,0,0,0,0,0,0,0,0,0,-1,790,925,0,0
-427,99,0,0,0,0,0,0,0,0,0,-1,797,925,0,0
-420,99,0,0,0,0,0,0,0,0,0,-1,804,925,0,0
-413,99,0,0,0,0,0,0,0,0,0,-1,811,925,0,0
-406,99,0,0,0,0,0,0,0,0,0,-1,818,925,0,0
-399,99,0,0,0,0,0,0,0,0,0,-1,825,925,0,0
-392,99,0,0,0,0,0,0,0,0,0,-1,832,925,0,0
-385,99,0,0,0,0,0,0,0,0,0,-1,839,925,0,0
-378,99,0,0,0,0,0,0,0,0,0,-1,846,925,0,0
-371,99,0,0,0,0,0,0,0,0,0,-1,853,925,0,0
-364,99,0,0,0,0,0,0,0,0,0,-1,860,925,0,0
-357,99,0,0,0,0,0,0,0,0,0,-1,867,925,0,0
-350,99,0,0,0,0,0,0,0,0,0,-1,874,925,0,0
-343,99,0,0,0,0,0,0,0,0,0,-1,881,925,0,0
-336,99,0,0,0,0,0,0,0,0,0,-1,888,925,0,0
-329,99,0,0,0,0,0,0,0,0,0,-1,895,925,0,0
-322,99,0,0,0,0,0,0,0,0,0,-1,902,925,0,0
-315,99,0,0,0,0,0,0,0,0,0,-1,909,925,0,0
-308,99,0,0,0,0,0,0,0,0,0,-1,916,925,0,0
-301,99,0,0,0,0,0,0,0,0,0,-1,923,925,0,0
-294,99,0,0,0,0,0,0,0,0,0,-1,930,925,0,0
-287,99,0,0,0,0,0,0,0,0,0,-1,937,925,0,0
-280,99,0,0,0,0,0,0,0,0,0,-1,944,925,0,0
-273,99,0,0,0,0,0,0,0,0,0,-1,951,925,0,0
-266,99,0,0,0,0,0,0,0,0,0,-1,958,925,0,0
-259,99,0,0,0,0,0,0,0,0,0,-1,965,925,0,0
-252,99,0,0,0,0,0,0,0,0,0,-1,972,925,0,0
-245,99,0,0,0,0,0,0,0,0,0,-1,979,925,0,0
-238,99,0,0,0,0,0,0,0,0,0,-1,986,925,0,0
-231,99,0,0,0,0,0,0,0,0,0,-1,993,925,0,0
-224,99,0,0,0,0,0,0,0,0,0,-1,1000,925,0,0
-217,99,0,0,0,0,0,0,0,0,0,-1,1007,925,0,0
-210,99,0,0,0,0,0,0,0,0,0,-1,1014,925,0,0
-203,99,0,0,0,0,0,0,0,0,0,-1,1021,925,0,0
-196,99,0,0,0,0,0,0,0,0,0,-1,1028,925,0,0
-189,99,0,0,0,0,0,0,0,0,0,-1,1035,925,0,0
-182,99,0,0,0,0,0,0,0,0,0,-1,1042,925,0,0
-175,99,0,0,0,0,0,0,0,0,0,-1,1049,925,0,0
-168,99,0,0,0,0,0,0,0,0,0,-1,1056,925,0,0
-161,99,0,0,0,0,0,0,0,0,0,-1,1063,925,0,0
-154,99,0,0,0,0,0,0,0,0,0,-1,1070,925,0,0
-147,99,0,0,0,0,0,0,0,0,0,-1,1077,925,0,0
-140,99,0,0,0,0,0,0,0,0,0,-1,1084,925,0,0
-133,99,0,0,0,0,0,0,0,0,0,-1,1091,925,0,0
-126,99,0,0,0,0,0,0,0,0,0,-1,1098,925,0,0
-119,99,0,0,0,0,0,0,0,0,0,-1,1105,925,0,0
-112,99,0,0,0,0,0,0,0,0,0,-1,1112,925,0,0
-105,99,0,0,0,0,0,0,0,0,0,-1,1119,925,0,0
-98,99,0,0,0,0,0,0,0,0,0,-1,1126,925,0,0
-91,99,0,0,0,0,0,0,0,0,0,-1,1133,925,0,0
-84,99,0,0,0,0,0,0,0,0,0,-1,1140,925,0,0
-77,99,0,0,0,0,0,0,0,0,0,-1,1147,925,0,0
-70,99,0,0,0,0,0,0,0,0,0,-1,1154,925,0,0
-63,99,0,0,0,0,0,0,0,0,0,-1,1161,925,0,0
-56,99,0,0,0,0,0,0,0,0,0,-1,1168,925,0,0
-49,99,0,0,0,0,0,0,0,0,0,-1,1175,925,0,0
-42,99,0,0,0,0,0,0,0,0,0,-1,1182,925,0,0
-35,99,0,0,0,0,0,0,0,0,0,-1,1189,925,0,0
-28,99,0,0,0,0,0,0,0,0,0,-1,1196,925,0,0
-21,99,0,0,0,0,0,0,0,0,0,-1,1203,925,0,0
-14,99,0,0,0,0,0,0,0,0,0,-1,1210,925,0,0
-7,99,0,0,0,0,0,0,0,0,0,-1,1217,925,0,0
0,99,0,0,0,0,0,0,0,0,0,-1,1224,925,0,0
7,99,0,0,0,0,0,0,0,0,0,-1,1231,925,0,0
14,99,0,0,0,0,0,0,0,0,0,-1,1238,925,0,0
21,99,0,0,0,0,0,0,0,0,0,-1,1245,925,0,0
28,99,0,0,0,0,0,0,0,0,0,-1,1252,925,0,0
35,99,0,0,0,0,0,0,0,0,0,-1,1259,925,0,0
42,99,0,0,0,0,0,0,0,0,0,-1,1266,925,0,0
49,99,0,0,0,0,0,0,0,0,0,-1,1273,925,0,0
56,99,0,0,0,0,0,0,0,0,0,-1,1280,925,0,0
63,99,0,0,0,0,0,0,0,0,0,-1,1287,925,0,0
70,99,0,0,0,0,0,0,0,0,0,-1,1294,925,0,0
77,99,0,0,0,0,0,0,0,0,0,-1,1301,925,0,0
84,99,0,0,0,0,0,0,0,0,0,-1,1308,925,0,0
91,99,0,0,0,0,0,0,0,0,0,-1,1315,925,0,0
98,99,0,0,0,0,0,0,0,0,0,-1,1322,925,0,0
105,99,0,0,0,0,0,0,0,0,0,-1,1329,925,0,0
112,99,0,0,0,0,0,0,0,0,0,-1,1336,925,0,0
119,99,0,0,0,0,0,0,0,0,0,-1,1343,925,0,0
126,99,0,0,0,0,0,0,0,0,0,-1,1350,925,0,0
133,99,0,0,0,0,0,0,0,0,0,-1,1357,925,0,0
140,99,0,0,0,0,0,0,0,0,0,-1,1364,925,0,0
147,99,0,0,0,0,0,0,0,0,0,-1,1371,925,0,0
154,99,0,0,0,0,0,0,0,0,0,-1,1378,925,0,0
161,99,0,0,0,0,0,0,0,0,0,-1,1385,925,0,0
168,99,0,0,0,0,0,0,0,0,0,-1,1392,925,0,0
175,99,0,0,0,0,0,0,0,0,0,-1,1399,925,0,0
182,99,0,0,0,0,0,0,0,0,0,-1,1406,925,0,0
189,99,0,0,0,0,0,0,0,0,0,-1,1413,925,0,0
196,99,0,0,0,0,0,0,0,0,0,-1,1420,925,0,0
203,99,0,0,0,0,0,0,0,0,0,-1,1427,925,0,0
210,99,0,0,0,0,0,0,0,0,0,-1,1434,925,0,0
217,99,0,0,0,0,0,0,0,0,0,-1,1441,925,0,0
224,99,0,0,0,0,0,0,0,0,0,-1,1448,925,0,0
231,99,0,0,0,0,0,0,0,0,0,-1,1455,925,0,0
238,99,0,0,0,0,0,0,0,0,0,-1,1462,925,0,0
245,99,0,0,0,0,0,0,0,0,0,-1,1469,925,0,0
252,99,0,0,0,0,0,0,0,0,0,-1,1476,925,0,0
259,99,0,0,0,0,0,0,0,0,0,-1,1483,925,0,0
266,99,0,0,0,0,0,0,0,0,0,-1,1490,925,0,0
273,99,0,0,0,0,0,0,0,0,0,-1,1497,925,0,0
280,99,0,0,0,0,0,0,0,0,0,-1,1504,925,0,0
287,99,0,0,0,0,0,0,0,0,0,-1,1511,925,0,0
294,99,0,0,0,0,0,0,0,0,0,-1,1518,925,0,0
301,99,0,0,0,0,0,0,0,0,0,-1,1525,925,0,0
308,99,0,0,0,0,0,0,0,0,0,-1,1532,925,0,0
315,99,0,0,0,0,0,0,0,0,0,-1,1539,925,0,0
322,99,0,0,0,0,0,0,0,0,0,-1,1546,925,0,0
329,99,0,0,0,0,0,0,0,0,0,-1,1553,925,0,0
336,99,0,0,0,0,0,0,0,0,0,-1,1560,925,0,0
343,99,0,0,0,0,0,0,0,0,0,-1,1567,925,0,0
350,99,0,0,0,0,0,0,0,0,0,-1,1574,925,0,0
357,99,0,0,0,0,0,0,0,0,0,-1,1581,925,0,0
364,99,0,0,0,0,0,0,0,0,0,-1,1588,925,0,0
371,99,0,0,0,0,0,0,0,0,0,-1,1595,925,0,0
378,99,0,0,0,0,0,0,0,0,0,-1,1602,925,0,0
385,99,0,0,0,0,0,0,0,0,0,-1,1609,925,0,0
392,99,0,0,0,0,0,0,0,0,0,-1,1616,925,0,0
399,99,0,0,0,0,0,0,0,0,0,-1,1623,925,0,0
406,99,0,0,0,0,0,0,0,0,0,-1,1630,925,0,0
413,99,0,0,0,0,0,0,0,0,0,-1,1637,925,0,0
420,99,0,0,0,0,0,0,0,0,0,-1,1644,925,0,0
427,99,0,0,0,0,0,0,0,0,0,-1,1651,925,0,0
434,99,0,0,0,0,0,0,0,0,0,-1,1658,925,0,0
441,99,0,0,0,0,0,0,0,0,0,-1,1665,925,0,0
448,99,0,0,0,0,0,0,0,0,0,-1,1672,925,0,0
455,99,0,0,0,0,0,0,0,0,0,-1,1679,925,0,0
462,99,0,0,0,0,0,0,0,0,0,-1,1686,925,0,0
469,99,0,0,0,0,0,0,0,0,0,-1,1693,925,0,0
476,99,0,0,0,0,0,0,0,0,0,-1,1700,925,0,0
483,99,0,0,0,0,0,0,0,0,0,-1,1707,925,0,0
490,99,0,0,0,0,0,0,0,0,0,-1,1714,925,0,0
497,99,0,0,0,0,0,0,0,0,0,-1,1721,925,0,0
504,99,0,0,0,0,0,0,0,0,0,-1,1728,925,0,0
511,99,0,0,0,0,0,0,0,0,0,-1,1735,925,0,0
518,99,0,0,0,0,0,0,0,0,0,-1,1742,925,0,0
525,99,0,0,0,0,0,0,0,0,0,-1,1749,925,0,0
532,99,0,0,0,0,0,0,0,0,0,-1,1756,925,0,0
539,99,0,0,0,0,0,0,0,0,0,-1,1763,925,0,0
546,99,0,0,0,0,0,0,0,0,0,-1,1770,925,0,0
553,99,0,0,0,0,0,0,0,0,0,-1,1777,925,0,0
560,99,0,0,0,0,0,0,0,0,0,-1,1784,925,0,0
567,99,0,0,0,0,0,0,0,0,0,-1,1791,925,0,0
574,99,0,0,0,0,0,0,0,0,0,-1,1798,925,0,0
581,99,0,0,0,0,0,0,0,0,0,-1,1805,925,0,0
588,99,0,0,0,0,0,0,0,0,0,-1,1812,925,0,0
595,99,0,0,0,0,0,0,0,0,0,-1,1819,925,0,0
602,99,0,0,0,0,0,0,0,0,0,-1,1826,925,0,0
609,99,0,0,0,0,0,0,0,0,0,-1,1833,925,0,0
616,99,0,0,0,0,0,0,0,0,0,-1,1840,925,0,0
623,99,0,0,0,0,0,0,0,0,0,-1,1847,925,0,0
630,99,0,0,0,0,0,0,0,0,0,-1,1854,925,0,0
637,99,22.0317,2.55499,0,0,0,0,0,0,0,-1,1861,925,22.0317,-2.55497
644,99,21.4939,3.61334,0,0,0,0,0,0,0,-1,1868,925,21.4939,-3.61333
651,99,21.7479,3.17627,-0.000239838,-0.00240791,0.0003933,-0.000170696,-0.00247705,0.174021,0.00159751,0.0392192,1875,925,21.7479,-3.17629
658,99,21.9832,2.72687,-0.00216776,-0.0014037,-1.83974e-05,-0.00140326,-0.0021682,-1.54674,0.00126977,0.0414471,1882,925,21.9832,-2.72685
665,99,21.8622,2.73157,-0.0044049,-0.000591826,-0.000346556,-0.000560584,-0.00443614,-1.48089,0.0027894,0.0407005,1889,925,21.8621,-2.73159
672,99,21.8523,3.1958,0,0,0,0,0,0,0,-1,1896,925,21.8523,-3.1958
679,99,21.8586,2.92352,-0.00777616,0.0002924,-0.000661546,0.000346281,-0.00783004,-1.48953,0.0053392,0.0371671,1903,925,21.8586,-2.92351
686,99,21.8391,2.77411,-0.00884124,0.000434997,-0.000761347,0.000497069,-0.00890331,-1.48945,0.00610797,0.0307433,1910,925,21.8391,-2.77408
693,99,21.8054,2.73602,-0.00917485,0.000643466,-0.000801473,0.00070846,-0.00923985,-1.48988,0.00640912,0.0257794,1917,925,21.8054,-2.73603
700,99,21.618,2.77661,0,0,0,0,0,0,0,-1,1924,925,21.6181,-2.77661
707,99,20.4707,3.19171,0,0,0,0,0,0,0,-1,1931,925,20.4707,-3.19169
714,99,19.3232,3.60675,0,0,0,0,0,0,0,-1,1938,925,19.3233,-3.60676
721,99,20.0151,3.5506,-0.00619356,0.000858872,-0.000739354,0.00093555,-0.00627024,-1.46746,0.00452437,0.0210069,1945,925,20.0152,-3.55058
728,99,20.0481,3.73895,-0.00399904,0.00106618,-0.0008102,0.00119262,-0.00412548,-1.41599,0.00322229,0.0161511,1952,925,20.0481,-3.73897
735,99,20.0397,3.89661,-0.00154554,0.00118839,-0.000748401,0.00137985,-0.001737,-1.32034,0.00180345,0.0135373,1959,925,20.0397,-3.89659
742,99,20.0237,4.02972,0.00182908,0.0014146,-0.000367511,0.00204375,0.00119992,-0.528671,0.00118592,0.0116337,1966,925,20.0237,-4.02973
749,99,19.9978,4.17676,0.00549117,0.00174557,-3.48379e-06,0.00549117,0.00174556,-0.0009301,0.00323967,0.0102565,1973,925,19.9978,-4.17676
756,99,19.9839,4.28894,0.00954076,0.00213352,0.000574528,0.00958506,0.00208922,0.0769497,0.00582,0.0105479,1980,925,19.9839,-4.28894
763,99,20.0005,4.40179,0.013099,0.00255306,0.00155617,0.0133238,0.00232822,0.143488,0.00821715,0.012818,1987,925,20.0005,-4.40182
770,99,20.0182,4.59338,0.0162166,0.00292492,0.00313826,0.0169203,0.00222121,0.220587,0.0106175,0.0252829,1994,925,20.0182,-4.5934
777,99,20.3435,4.88959,0.0188824,0.00311083,0.00557426,0.0206537,0.0013396,0.307662,0.013345,0.0412389,2001,925,20.3435,-4.88962
784,99,19.9764,5.12854,0.0206576,0.00293642,0.00914913,0.0245334,-0.00093943,0.40071,0.0166776,0.0476436,2008,925,19.9765,-5.12853
791,99,19.882,5.32349,0,0,0,0,0,0,0,-1,2015,925,19.882,-5.32346
798,99,18.8867,5.03772,0,0,0,0,0,0,0,-1,2022,925,18.8867,-5.03775
805,99,0,0,0,0,0,0,0,0,0,-1,2029,925,0,0
812,99,0,0,0,0,0,0,0,0,0,-1,2036,925,0,0
-700,92,0,0,0,0,0,0,0,0,0,-1,524,932,0,0
-693,92,0,0,0,0,0,0,0,0,0,-1,531,932,0,0
-686,92,-14.9408,2.20874,0,0,0,0,0,0,0,-1,538,932,-14.9408,-2.20877
-679,92,-14.2772,3.48413,0,0,0,0,0,0,0,-1,545,932,-14.2772,-3.48411
-672,92,-13.9031,3.28027,0,0,0,0,0,0,0,-1,552,932,-13.9031,-3.28025
-665,92,-14.3094,3.3504,0,0,0,0,0,0,0,-1,559,932,-14.3094,-3.35037
-658,92,-14.1489,3.03198,0.0533547,0.0259556,-0.00321808,0.0537276,0.0255827,-0.115361,0.0310314,0.0489896,566,932,-14.1489,-3.03201
-651,92,-13.9637,2.70496,0.0419651,0.0180514,-0.00295431,0.0423246,0.0176918,-0.121115,0.0245454,0.0470712,573,932,-13.9637,-2.70496
-644,92,-13.5301,2.3866,0.0320158,0.0121884,-0.00241485,0.0323057,0.0118986,-0.119467,0.0188661,0.0453097,580,932,-13.5301,-2.38662
-637,92,-13.192,2.12396,0.0236284,0.00791889,-0.00200582,0.0238804,0.00766683,-0.12501,0.0140786,0.0256983,587,932,-13.192,-2.12396
-630,92,-13.2444,2.01526,0.0166508,0.0041113,-0.00142891,0.0168116,0.00395053,-0.112039,0.0101504,0.0117814,594,932,-13.2445,-2.01528
-623,92,-13.2754,1.90179,0.0100505,0.00207669,-0.00079057,0.0101282,0.00199906,-0.0978758,0.00619423,0.00844584,601,932,-13.2754,-1.90182
-616,92,-13.2991,1.77008,0.00418108,0.00111353,-0.000384126,0.00422845,0.00106616,-0.122699,0.00253931,0.00805938,608,932,-13.2991,-1.7701
-609,92,-13.2958,1.64618,-0.000245904,0.00074952,7.95904e-05,0.000755844,-0.000252228,1.49151,0.000605737,0.009084,615,932,-13.2958,-1.64616
-602,92,-13.2659,1.53992,-0.0036733,0.000115942,0.000467578,0.000172786,-0.00373015,1.44982,0.00254632,0.00961058,622,932,-13.2658,-1.53991
-595,92,-13.238,1.41602,-0.00590267,-7.42899e-05,0.000621246,-8.80682e-06,-0.00596815,1.46578,0.00397584,0.0155907,629,932,-13.238,-1.416
-588,92,-13.2287,1.2804,-0.0076138,3.61098e-05,0.000677775,9.5696e-05,-0.00767338,1.48311,0.00514778,0.0167726,636,932,-13.2287,-1.28042
-581,92,-13.2333,1.15308,-0.00882603,0.000153156,0.000622837,0.000196153,-0.00886903,1.50187,0.00597914,0.0137353,643,932,-13.2333,-1.15309
-574,92,-13.4962,1.08484,-0.00934437,0.000106487,0.000504003,0.000133288,-0.00937117,1.51767,0.00629235,0.0230831,650,932,-13.4962,-1.08482
-567,92,-14.01,0.895508,-0.00952473,5.98395e-05,0.000472809,8.31066e-05,-0.009548,1.52163,0.00639321,0.0442468,657,932,-14.01,-0.895509
-560,92,-14.2684,0.805359,-0.00918193,-0.000129672,0.000420993,-0.000110135,-0.00920146,1.52442,0.00609793,0.0375045,664,932,-14.2684,-0.805363
-553,92,-14.4094,0.937561,-0.00837043,-0.000232371,0.000313212,-0.000220335,-0.00838246,1.53238,0.00551633,0.0394728,671,932,-14.4094,-0.937561
-546,92,-14.3931,1.10565,-0.00687969,-0.000385116,0.000142932,-0.000381972,-0.00688283,1.5488,0.00446668,0.0406109,678,932,-14.3931,-1.10567
-539,92,-14.3266,0.964844,-0.00464359,-0.000636675,-8.70464e-05,-0.000634785,-0.00464548,-1.54909,0.00290857,0.0394744,685,932,-14.3266,-0.964818
-532,92,-14.3147,1.00476,-0.0016638,-0.00106912,-0.000379125,-0.000884641,-0.00184827,-1.11794,0.00106743,0.042115,692,932,-14.3147,-1.00479
-525,92,-14.311,1.15558,0.00177769,-0.00177689,-0.000748673,0.00192894,-0.00192815,-0.199342,0.00222689,0.0391779,699,932,-14.3111,-1.15558
-518,92,-14.3598,1.242,0.00439224,-0.00284426,-0.00100943,0.00453041,-0.00298243,-0.136033,0.00436813,0.0383441,706,932,-14.3598,-1.24201
-511,92,0,0,0,0,0,0,0,0,0,-1,713,932,0,0
-504,92,0,0,0,0,0,0,0,0,0,-1,720,932,0,0
-497,92,0,0,0,0,0,0,0,0,0,-1,727,932,0,0
-490,92,0,0,0,0,0,0,0,0,0,-1,734,932,0,0
-483,92,0,0,0,0,0,0,0,0,0,-1,741,932,0,0
-476,92,0,0,0,0,0,0,0,0,0,-1,748,932,0,0
-469,92,0,0,0,0,0,0,0,0,0,-1,755,932,0,0
-462,92,0,0,0,0,0,0,0,0,0,-1,762,932,0,0
-455,92,0,0,0,0,0,0,0,0,0,-1,769,932,0,0
-448,92,0,0,0,0,0,0,0,0,0,-1,776,932,0,0
-441,92,0,0,0,0,0,0,0,0,0,-1,783,932,0,0
-434,92,0,0,0,0,0,0,0,0,0,-1,790,932,0,0
-427,92,0,0,0,0,0,0,0,0,0,-1,797,932,0,0
-420,92,0,0,0,0,0,0,0,0,0,-1,804,932,0,0
-413,92,0,0,0,0,0,0,0,0,0,-1,811,932,0,0
-406,92,0,0,0,0,0,0,0,0,0,-1,818,932,0,0
-399,92,0,0,0,0,0,0,0,0,0,-1,825,932,0,0
-392,92,0,0,0,0,0,0,0,0,0,-1,832,932,0,0
-385,92,0,0,0,0,0,0,0,0,0,-1,839,932,0,0
-378,92,0,0,0,0,0,0,0,0,0,-1,846,932,0,0
-371,92,0,0,0,0,0,0,0,0,0,-1,853,932,0,0
-364,92,0,0,0,0,0,0,0,0,0,-1,860,932,0,0
-357,92,0,0,0,0,0,0,0,0,0,-1,867,932,0,0
-350,92,0,0,0,0,0,0,0,0,0,-1,874,932,0,0
-343,92,0,0,0,0,0,0,0,0,0,-1,881,932,0,0
-336,92,0,0,0,0,0,0,0,0,0,-1,888,932,0,0
-329,92,0,0,0,0,0,0,0,0,0,-1,895,932,0,0
-322,92,0,0,0,0,0,0,0,0,0,-1,902,932,0,0
-315,92,0,0,0,0,0,0,0,0,0,-1,909,932,0,0
-308,92,0,0,0,0,0,0,0,0,0,-1,916,932,0,0
-301,92,0,0,0,0,0,0,0,0,0,-1,923,932,0,0
-294,92,0,0,0,0,0,0,0,0,0,-1,930,932,0,0
-287,92,0,0,0,0,0,0,0,0,0,-1,937,932,0,0
-280,92,0,0,0,0,0,0,0,0,0,-1,944,932,0,0
-273,92,0,0,0,0,0,0,0,0,0,-1,951,932,0,0
-266,92,0,0,0,0,0,0,0,0,0,-1,958,932,0,0
-259,92,0,0,0,0,0,0,0,0,0,-1,965,932,0,0
-252,92,0,0,0,0,0,0,0,0,0,-1,972,932,0,0
-245,92,0,0,0,0,0,0,0,0,0,-1,979,932,0,0
-238,92,0,0,0,0,0,0,0,0,0,-1,986,932,0,0
-231,92,0,0,0,0,0,0,0,0,0,-1,993,932,0,0
-224,92,0,0,0,0,0,0,0,0,0,-1,1000,932,0,0
-217,92,0,0,0,0,0,0,0,0,0,-1,1007,932,0,0
-210,92,0,0,0,0,0,0,0,0,0,-1,1014,932,0,0
-203,92,0,0,0,0,0,0,0,0,0,-1,1021,932,0,0
-196,92,0,0,0,0,0,0,0,0,0,-1,1028,932,0,0
-189,92,0,0,0,0,0,0,0,0,0,-1,1035,932,0,0
-182,92,0,0,0,0,0,0,0,0,0,-1,1042,932,0,0
-175,92,0,0,0,0,0,0,0,0,0,-1,1049,932,0,0
-168,92,0,0,0,0,0,0,0,0,0,-1,1056,932,0,0
-161,92,0,0,0,0,0,0,0,0,0,-1,1063,932,0,0
-154,92,0,0,0,0,0,0,0,0,0,-1,1070,932,0,0
-147,92,0,0,0,0,0,0,0,0,0,-1,1077,932,0,0
-140,92,0,0,0,0,0,0,0,0,0,-1,1084,932,0,0
-133,92,0,0,0,0,0,0,0,0,0,-1,1091,932,0,0
-126,92,0,0,0,0,0,0,0,0,0,-1,1098,932,0,0
-119,92,0,0,0,0,0,0,0,0,0,-1,1105,932,0,0
-112,92,0,0,0,0,0,0,0,0,0,-1,1112,932,0,0
-105,92,0,0,0,0,0,0,0,0,0,-1,1119,932,0,0
-98,92,0,0,0,0,0,0,0,0,0,-1,1126,932,0,0
-91,92,0,0,0,0,0,0,0,0,0,-1,1133,932,0,0
-84,92,0,0,0,0,0,0,0,0,0,-1,1140,932,0,0
-77,92,0,0,0,0,0,0,0,0,0,-1,1147,932,0,0
-70,92,0,0,0,0,0,0,0,0,0,-1,1154,932,0,0
-63,92,0,0,0,0,0,0,0,0,0,-1,1161,932,0,0
-56,92,0,0,0,0,0,0,0,0,0,-1,1168,932,0,0
-49,92,0,0,0,0,0,0,0,0,0,-1,1175,932,0,0
-42,92,0,0,0,0,0,0,0,0,0,-1,1182,932,0,0
-35,92,0,0,0,0,0,0,0,0,0,-1,1189,932,0,0
-28,92,0,0,0,0,0,0,0,0,0,-1,1196,932,0,0
-21,92,0,0,0,0,0,0,0,0,0,-1,1203,932,0,0
-14,92,0,0,0,0,0,0,0,0,0,-1,1210,932,0,0
-7,92,0,0,0,0,0,0,0,0,0,-1,1217,932,0,0
0,92,0,0,0,0,0,0,0,0,0,-1,1224,932,0,0
7,92,0,0,0,0,0,0,0,0,0,-1,1231,932,0,0
14,92,0,0,0,0,0,0,0,0,0,-1,1238,932,0,0
21,92,0,0,0,0,0,0,0,0,0,-1,1245,932,0,0
28,92,0,0,0,0,0,0,0,0,0,-1,1252,932,0,0
35,92,0,0,0,0,0,0,0,0,0,-1,1259,932,0,0
42,92,0,0,0,0,0,0,0,0,0,-1,1266,932,0,0
49,92,0,0,0,0,0,0,0,0,0,-1,1273,932,0,0
56,92,0,0,0,0,0,0,0,0,0,-1,1280,932,0,0
63,92,0,0,0,0,0,0,0,0,0,-1,1287,932,0,0
70,92,0,0,0,0,0,0,0,0,0,-1,1294,932,0,0
77,92,0,0,0,0,0,0,0,0,0,-1,1301,932,0,0
84,92,0,0,0,0,0,0,0,0,0,-1,1308,932,0,0
91,92,0,0,0,0,0,0,0,0,0,-1,1315,932,0,0
98,92,0,0,0,0,0,0,0,0,0,-1,1322,932,0,0
105,92,0,0,0,0,0,0,0,0,0,-1,1329,932,0,0
112,92,0,0,0,0,0,0,0,0,0,-1,1336,932,0,0
119,92,0,0,0,0,0,0,0,0,0,-1,1343,932,0,0
126,92,0,0,0,0,0,0,0,0,0,-1,1350,932,0,0
133,92,0,0,0,0,0,0,0,0,0,-1,1357,932,0,0
140,92,0,0,0,0,0,0,0,0,0,-1,1364,932,0,0
147,92,0,0,0,0,0,0,0,0,0,-1,1371,932,0,0
154,92,0,0,0,0,0,0,0,0,0,-1,1378,932,0,0
161,92,0,0,0,0,0,0,0,0,0,-1,1385,932,0,0
168,92,0,0,0,0,0,0,0,0,0,-1,1392,932,0,0
175,92,0,0,0,0,0,0,0,0,0,-1,1399,932,0,0
182,92,0,0,0,0,0,0,0,0,0,-1,1406,932,0,0
189,92,0,0,0,0,0,0,0,0,0,-1,1413,932,0,0
196,92,0,0,0,0,0,0,0,0,0,-1,1420,932,0,0
203,92,0,0,0,0,0,0,0,0,0,-1,1427,932,0,0
210,92,0,0,0,0,0,0,0,0,0,-1,1434,932,0,0
217,92,0,0,0,0,0,0,0,0,0,-1,1441,932,0,0
224,92,0,0,0,0,0,0,0,0,0,-1,1448,932,0,0
231,92,0,0,0,0,0,0,0,0,0,-1,1455,932,0,0
238,92,0,0,0,0,0,0,0,0,0,-1,1462,932,0,0
245,92,0,0,0,0,0,0,0,0,0,-1,1469,932,0,0
252,92,0,0,0,0,0,0,0,0,0,-1,1476,932,0,0
259,92,0,0,0,0,0,0,0,0,0,-1,1483,932,0,0
266,92,0,0,0,0,0,0,0,0,0,-1,1490,932,0,0
273,92,0,0,0,0,0,0,0,0,0,-1,1497,932,0,0
280,92,0,0,0,0,0,0,0,0,0,-1,1504,932,0,0
287,92,0,0,0,0,0,0,0,0,0,-1,1511,932,0,0
294,92,0,0,0,0,0,0,0,0,0,-1,1518,932,0,0
301,92,0,0,0,0,0,0,0,0,0,-1,1525,932,0,0
308,92,0,0,0,0,0,0,0,0,0,-1,1532,932,0,0
315,92,0,0,0,0,0,0,0,0,0,-1,1539,932,0,0
322,92,0,0,0,0,0,0,0,0,0,-1,1546,932,0,0
329,92,0,0,0,0,0,0,0,0,0,-1,1553,932,0,0
336,92,0,0,0,0,0,0,0,0,0,-1,1560,932,0,0
343,92,0,0,0,0,0,0,0,0,0,-1,1567,932,0,0
350,92,0,0,0,0,0,0,0,0,0,-1,1574,932,0,0
357,92,0,0,0,0,0,0,0,0,0,-1,1581,932,0,0
364,92,0,0,0,0,0,0,0,0,0,-1,1588,932,0,0
371,92,0,0,0,0,0,0,0,0,0,-1,1595,932,0,0
378,92,0,0,0,0,0,0,0,0,0,-1,1602,932,0,0
385,92,0,0,0,0,0,0,0,0,0,-1,1609,932,0,0
392,92,0,0,0,0,0,0,0,0,0,-1,1616,932,0,0
399,92,0,0,0,0,0,0,0,0,0,-1,1623,932,0,0
406,92,0,0,0,0,0,0,0,0,0,-1,1630,932,0,0
413,92,0,0,0,0,0,0,0,0,0,-1,1637,932,0,0
420,92,0,0,0,0,0,0,0,0,0,-1,1644,932,0,0
427,92,0,0,0,0,0,0,0,0,0,-1,1651,932,0,0
434,92,0,0,0,0,0,0,0,0,0,-1,1658,932,0,0
441,92,0,0,0,0,0,0,0,0,0,-1,1665,932,0,0
448,92,0,0,0,0,0,0,0,0,0,-1,1672,932,0,0
455,92,0,0,0,0,0,0,0,0,0,-1,1679,932,0,0
462,92,0,0,0,0,0,0,0,0,0,-1,1686,932,0,0
469,92,0,0,0,0,0,0,0,0,0,-1,1693,932,0,0
476,92,0,0,0,0,0,0,0,0,0,-1,1700,932,0,0
483,92,0,0,0,0,0,0,0,0,0,-1,1707,932,0,0
490,92,0,0,0,0,0,0,0,0,0,-1,1714,932,0,0
497,92,0,0,0,0,0,0,0,0,0,-1,1721,932,0,0
504,92,0,0,0,0,0,0,0,0,0,-1,1728,932,0,0
511,92,0,0,0,0,0,0,0,0,0,-1,1735,932,0,0
518,92,0,0,0,0,0,0,0,0,0,-1,1742,932,0,0
525,92,0,0,0,0,0,0,0,0,0,-1,1749,932,0,0
532,92,0,0,0,0,0,0,0,0,0,-1,1756,932,0,0
539,92,0,0,0,0,0,0,0,0,0,-1,1763,932,0,0
546,92,0,0,0,0,0,0,0,0,0,-1,1770,932,0,0
553,92,0,0,0,0,0,0,0,0,0,-1,1777,932,0,0
560,92,0,0,0,0,0,0,0,0,0,-1,1784,932,0,0
567,92,0,0,0,0,0,0,0,0,0,-1,1791,932,0,0
574,92,0,0,0,0,0,0,0,0,0,-1,1798,932,0,0
581,92,0,0,0,0,0,0,0,0,0,-1,1805,932,0,0
588,92,0,0,0,0,0,0,0,0,0,-1,1812,932,0,0
595,92,0,0,0,0,0,0,0,0,0,-1,1819,932,0,0
602,92,0,0,0,0,0,0,0,0,0,-1,1826,932,0,0
609,92,0,0,0,0,0,0,0,0,0,-1,1833,932,0,0
616,92,0,0,0,0,0,0,0,0,0,-1,1840,932,0,0
623,92,0,0,0,0,0,0,0,0,0,-1,1847,932,0,0
630,92,0,0,0,0,0,0,0,0,0,-1,1854,932,0,0
637,92,22.0876,2.43835,-0.000485729,-0.00676849,-0.000345877,-0.000466745,-0.00678748,-0.0548309,0.0043777,0.0424073,1861,932,22.0876,-2.43833
644,92,21.8361,2.54541,9.09427e-05,-0.00461985,-0.000404001,0.000125339,-0.00465425,-0.0849341,0.00314545,0.038298,1868,932,21.8361,-2.54542
651,92,21.8922,2.66656,-0.000194252,-0.00306106,-0.000466029,-0.000120397,-0.00313491,-0.15717,0.00205099,0.0403649,1875,932,21.8922,-2.66655
658,92,21.8408,2.71857,-0.00175177,-0.00181739,-0.000551366,-0.00123224,-0.00233693,-0.755679,0.00134989,0.0453606,1882,932,21.8408,-2.71855
665,92,21.7089,2.7608,-0.00377928,-0.00080167,-0.000585861,-0.000690546,-0.00389041,-1.38335,0.00239681,0.04423,1889,932,21.7089,-2.76082
672,92,21.7883,2.87933,-0.00560563,-0.000121059,-0.00055079,-6.62929e-05,-0.0056604,-1.47169,0.00375169,0.0403617,1896,932,21.7883,-2.87932
679,92,21.913,2.85413,-0.00701454,0.000309617,-0.000486576,0.000341801,-0.00704673,-1.50475,0.0048158,0.0379986,1903,932,21.913,-2.85412
686,92,21.8896,2.76654,-0.00803148,0.000498844,-0.000467289,0.000524365,-0.008057,-1.51623,0.00555438,0.0303154,1910,932,21.8897,-2.76652
693,92,21.8049,2.84808,-0.00833373,0.000735508,-0.00043088,0.000755933,-0.00835416,-1.52343,0.00583775,0.0229721,1917,932,21.805,-2.84808
700,92,21.8453,2.67273,0,0,0,0,0,0,0,-1,1924,932,21.8453,-2.67273
707,92,20.8204,3.21539,0,0,0,0,0,0,0,-1,1931,932,20.8205,-3.2154
714,92,19.7957,3.75806,0,0,0,0,0,0,0,-1,1938,932,19.7956,-3.75806
721,92,20.2084,3.60742,-0.00595132,0.00102905,-0.00031472,0.00104321,-0.00596548,-1.52583,0.00436646,0.0255135,1945,932,20.2083,-3.60742
728,92,20.1776,3.78296,-0.00419943,0.00123597,-0.000375376,0.00126177,-0.00422523,-1.50217,0.00331836,0.0175554,1952,932,20.1776,-3.78296
735,92,20.1738,3.90515,-0.00233954,0.00139476,-0.000286361,0.00141659,-0.00236137,-1.49471,0.00220383,0.0147749,1959,932,20.1738,-3.90513
742,92,20.1932,4.01904,0.000209372,0.00173236,4.14427e-05,0.00173349,0.000208245,1.54361,0.00109288,0.0163613,1966,932,20.1932,-4.01902
749,92,20.1716,4.17749,0.00293502,0.00227262,0.000450971,0.00316335,0.0020443,0.468672,0.00185222,0.0147699,1973,932,20.1716,-4.17746
756,92,20.1206,4.30048,0.0058619,0.00295969,0.00113961,0.0062559,0.00256569,0.332867,0.00363125,0.0133666,1980,932,20.1206,-4.30046
763,92,20.1536,4.41028,0.00825005,0.00377722,0.00229084,0.00921512,0.00281215,0.39871,0.00545333,0.0152824,1987,932,20.1535,-4.41031
770,92,20.2104,4.56085,0.0100672,0.00473311,0.00405879,0.0122568,0.00254351,0.494723,0.00746912,0.0246954,1994,932,20.2104,-4.56082
777,92,20.8971,4.42865,0.011342,0.00573824,0.00664532,0.015752,0.00132826,0.585891,0.0100877,0.0425629,2001,932,20.8971,-4.42862
784,92,21.5708,4.28143,0,0,0,0,0,0,0,-1,2008,932,21.5707,-4.28143
791,92,18.8016,5.453,0,0,0,0,0,0,0,-1,2015,932,18.8016,-5.45301
798,92,18.5498,4.69525,0,0,0,0,0,0,0,-1,2022,932,18.5498,-4.69526
805,92,0,0,0,0,0,0,0,0,0,-1,2029,932,0,0
812,92,0,0,0,0,0,0,0,0,0,-1,2036,932,0,0
-700,85,0,0,0,0,0,0,0,0,0,-1,524,939,0,0
-693,85,0,0,0,0,0,0,0,0,0,-1,531,939,0,0
-686,85,-15.354,2.43433,0,0,0,0,0,0,0,-1,538,939,-15.354,-2.43432
-679,85,-15.0368,2.68927,0.0902169,0.0752504,-0.00363588,0.0910534,0.0744139,-0.22614,0.0559862,0.0447756,545,939,-15.0368,-2.68927
-672,85,-14.3453,3.03546,0,0,0,0,0,0,0,-1,552,939,-14.3453,-3.03549
-665,85,-14.0776,2.81531,0.0637991,0.0435445,-0.00583945,0.065362,0.0419816,-0.26152,0.0382428,0.0431871,559,939,-14.0776,-2.81534
-658,85,-14.0408,2.53516,0.0511369,0.0315969,-0.0054866,0.052572,0.0301617,-0.255844,0.0304623,0.0465707,566,939,-14.0408,-2.53518
-651,85,-13.184,2.323,0.0397154,0.0221728,-0.00470131,0.0408959,0.0209923,-0.24601,0.0236141,0.0443924,573,939,-13.184,-2.32301
-644,85,-13.2544,2.23633,0.029848,0.0150518,-0.00372565,0.0307332,0.0141667,-0.23326,0.0177618,0.0346517,580,939,-13.2544,-2.23634
-637,85,-13.3287,2.10736,0.0216796,0.00982214,-0.00303993,0.0224135,0.00908821,-0.236896,0.0130173,0.0168947,587,939,-13.3287,-2.10733
-630,85,-13.3777,1.98584,0.0149693,0.00505275,-0.00218862,0.0154309,0.00459119,-0.207842,0.00914925,0.0107066,594,939,-13.3777,-1.98584
-623,85,-13.4056,1.87646,0.00851433,0.00252528,-0.00128747,0.00877937,0.00226024,-0.203024,0.00526382,0.0092075,601,939,-13.4057,-1.87646
-616,85,-13.4252,1.76904,0.00298466,0.00138315,-0.000721185,0.00326155,0.00110626,-0.366581,0.00191525,0.0090494,608,939,-13.4253,-1.76904
-609,85,-13.423,1.6485,-0.000875826,0.00096816,-0.000289454,0.00101253,-0.000920195,-1.4187,0.00111628,0.011877,615,939,-13.423,-1.64849
-602,85,-13.4089,1.52844,-0.00386774,0.000514011,0.000142592,0.000518647,-0.00387238,1.5383,0.0027707,0.0158413,622,939,-13.4089,-1.52845
-595,85,-13.3662,1.41882,-0.00586117,0.00026442,0.000259553,0.000275398,-0.00587215,1.52853,0.00400972,0.0166035,629,939,-13.3662,-1.41885
-588,85,-13.3561,1.29089,-0.00738251,0.000325699,0.000271507,0.000335251,-0.00739207,1.53563,0.00504351,0.0151959,636,939,-13.3561,-1.29088
-581,85,-13.3704,1.1991,-0.00845241,0.000427335,0.00018518,0.000431194,-0.00845627,1.54995,0.0057866,0.0161891,643,939,-13.3704,-1.19907
-574,85,-13.6449,1.17657,-0.0088796,0.000420307,3.34783e-05,0.000420427,-0.00887972,1.5672,0.00606482,0.0287733,650,939,-13.6449,-1.17655
-567,85,-14.0803,1.17432,0,0,0,0,0,0,0,-1,657,939,-14.0803,-1.17429
-560,85,-14.2302,0.969849,-0.00861406,0.000306905,-9.99949e-05,0.000308025,-0.00861518,-1.55959,0.00584883,0.0350602,664,939,-14.2302,-0.969831
-553,85,-14.3302,0.951172,-0.00774204,0.000252798,-0.000248174,0.000260494,-0.00774974,-1.53979,0.00525547,0.0405094,671,939,-14.3302,-0.951199
-546,85,-14.2828,0.91394,-0.00621984,0.000135689,-0.000469642,0.000170206,-0.00625436,-1.49743,0.00422745,0.0420391,678,939,-14.2829,-0.913948
-539,85,-14.2499,0.946533,-0.00401907,-9.79797e-05,-0.000782593,5.24437e-05,-0.0041695,-1.3809,0.00279731,0.0392601,685,939,-14.25,-0.946512
-532,85,-14.3347,1.03851,-0.00119321,-0.000528868,-0.00122594,0.000409111,-0.00213119,-0.917696,0.00157497,0.0389857,692,939,-14.3347,-1.03851
-525,85,-14.1792,0.927612,0,0,0,0,0,0,0,-1,699,939,-14.1792,-0.9276
-518,85,-14.2406,0.961731,0,0,0,0,0,0,0,-1,706,939,-14.2406,-0.961733
-511,85,0,0,0,0,0,0,0,0,0,-1,713,939,0,0
-504,85,0,0,0,0,0,0,0,0,0,-1,720,939,0,0
-497,85,0,0,0,0,0,0,0,0,0,-1,727,939,0,0
-490,85,0,0,0,0,0,0,0,0,0,-1,734,939,0,0
-483,85,0,0,0,0,0,0,0,0,0,-1,741,939,0,0
-476,85,0,0,0,0,0,0,0,0,0,-1,748,939,0,0
-469,85,0,0,0,0,0,0,0,0,0,-1,755,939,0,0
-462,85,0,0,0,0,0,0,0,0,0,-1,762,939,0,0
-455,85,0,0,0,0,0,0,0,0,0,-1,769,939,0,0
-448,85,0,0,0,0,0,0,0,0,0,-1,776,939,0,0
-441,85,0,0,0,0,0,0,0,0,0,-1,783,939,0,0
-434,85,0,0,0,0,0,0,0,0,0,-1,790,939,0,0
-427,85,0,0,0,0,0,0,0,0,0,-1,797,939,0,0
-420,85,0,0,0,0,0,0,0,0,0,-1,804,939,0,0
-413,85,0,0,0,0,0,0,0,0,0,-1,811,939,0,0
-406,85,0,0,0,0,0,0,0,0,0,-1,818,939,0,0
-399,85,0,0,0,0,0,0,0,0,0,-1,825,939,0,0
-392,85,0,0,0,0,0,0,0,0,0,-1,832,939,0,0
-385,85,0,0,0,0,0,0,0,0,0,-1,839,939,0,0
-378,85,0,0,0,0,0,0,0,0,0,-1,846,939,0,0
-371,85,0,0,0,0,0,0,0,0,0,-1,853,939,0,0
-364,85,0,0,0,0,0,0,0,0,0,-1,860,939,0,0
-357,85,0,0,0,0,0,0,0,0,0,-1,867,939,0,0
-350,85,0,0,0,0,0,0,0,0,0,-1,874,939,0,0
-343,85,0,0,0,0,0,0,0,0,0,-1,881,939,0,0
-336,85,0,0,0,0,0,0,0,0,0,-1,888,939,0,0
-329,85,0,0,0,0,0,0,0,0,0,-1,895,939,0,0
-322,85,0,0,0,0,0,0,0,0,0,-1,902,939,0,0
-315,85,0,0,0,0,0,0,0,0,0,-1,909,939,0,0
-308,85,0,0,0,0,0,0,0,0,0,-1,916,939,0,0
-301,85,0,0,0,0,0,0,0,0,0,-1,923,939,0,0
-294,85,0,0,0,0,0,0,0,0,0,-1,930,939,0,0
-287,85,0,0,0,0,0,0,0,0,0,-1,937,939,0,0
-280,85,0,0,0,0,0,0,0,0,0,-1,944,939,0,0
-273,85,0,0,0,0,0,0,0,0,0,-1,951,939,0,0
-266,85,0,0,0,0,0,0,0,0,0,-1,958,939,0,0
-259,85,0,0,0,0,0,0,0,0,0,-1,965,939,0,0
-252,85,0,0,0,0,0,0,0,0,0,-1,972,939,0,0
-245,85,0,0,0,0,0,0,0,0,0,-1,979,939,0,0
-238,85,0,0,0,0,0,0,0,0,0,-1,986,939,0,0
-231,85,0,0,0,0,0,0,0,0,0,-1,993,939,0,0
-224,85,0,0,0,0,0,0,0,0,0,-1,1000,939,0,0
-217,85,0,0,0,0,0,0,0,0,0,-1,1007,939,0,0
-210,85,0,0,0,0,0,0,0,0,0,-1,1014,939,0,0
-203,85,0,0,0,0,0,0,0,0,0,-1,1021,939,0,0
-196,85,0,0,0,0,0,0,0,0,0,-1,1028,939,0,0
-189,85,0,0,0,0,0,0,0,0,0,-1,1035,939,0,0
-182,85,0,0,0,0,0,0,0,0,0,-1,1042,939,0,0
-175,85,0,0,0,0,0,0,0,0,0,-1,1049,939,0,0
-168,85,0,0,0,0,0,0,0,0,0,-1,1056,939,0,0
-161,85,0,0,0,0,0,0,0,0,0,-1,1063,939,0,0
-154,85,0,0,0,0,0,0,0,0,0,-1,1070,939,0,0
-147,85,0,0,0,0,0,0,0,0,0,-1,1077,939,0,0
-140,85,0,0,0,0,0,0,0,0,0,-1,1084,939,0,0
-133,85,0,0,0,0,0,0,0,0,0,-1,1091,939,0,0
-126,85,0,0,0,0,0,0,0,0,0,-1,1098,939,0,0
-119,85,0,0,0,0,0,0,0,0,0,-1,1105,939,0,0
-112,85,0,0,0,0,0,0,0,0,0,-1,1112,939,0,0
-105,85,0,0,0,0,0,0,0,0,0,-1,1119,939,0,0
-98,85,0,0,0,0,0,0,0,0,0,-1,1126,939,0,0
-91,85,0,0,0,0,0,0,0,0,0,-1,1133,939,0,0
-84,85,0,0,0,0,0,0,0,0,0,-1,1140,939,0,0
-77,85,0,0,0,0,0,0,0,0,0,-1,1147,939,0,0
-70,85,0,0,0,0,0,0,0,0,0,-1,1154,939,0,0
-63,85,0,0,0,0,0,0,0,0,0,-1,1161,939,0,0
-56,85,0,0,0,0,0,0,0,0,0,-1,1168,939,0,0
-49,85,0,0,0,0,0,0,0,0,0,-1,1175,939,0,0
-42,85,0,0,0,0,0,0,0,0,0,-1,1182,939,0,0
-35,85,0,0,0,0,0,0,0,0,0,-1,1189,939,0,0
-28,85,0,0,0,0,0,0,0,0,0,-1,1196,939,0,0
-21,85,0,0,0,0,0,0,0,0,0,-1,1203,939,0,0
-14,85,0,0,0,0,0,0,0,0,0,-1,1210,939,0,0
-7,85,0,0,0,0,0,0,0,0,0,-1,1217,939,0,0
0,85,0,0,0,0,0,0,0,0,0,-1,1224,939,0,0
7,85,0,0,0,0,0,0,0,0,0,-1,1231,939,0,0
14,85,0,0,0,0,0,0,0,0,0,-1,1238,939,0,0
21,85,0,0,0,0,0,0,0,0,0,-1,1245,939,0,0
28,85,0,0,0,0,0,0,0,0,0,-1,1252,939,0,0
35,85,0,0,0,0,0,0,0,0,0,-1,1259,939,0,0
42,85,0,0,0,0,0,0,0,0,0,-1,1266,939,0,0
49,85,0,0,0,0,0,0,0,0,0,-1,1273,939,0,0
56,85,0,0,0,0,0,0,0,0,0,-1,1280,939,0,0
63,85,0,0,0,0,0,0,0,0,0,-1,1287,939,0,0
70,85,0,0,0,0,0,0,0,0,0,-1,1294,939,0,0
77,85,0,0,0,0,0,0,0,0,0,-1,1301,939,0,0
84,85,0,0,0,0,0,0,0,0,0,-1,1308,939,0,0
91,85,0,0,0,0,0,0,0,0,0,-1,1315,939,0,0
98,85,0,0,0,0,0,0,0,0,0,-1,1322,939,0,0
105,85,0,0,0,0,0,0,0,0,0,-1,1329,939,0,0
112,85,0,0,0,0,0,0,0,0,0,-1,1336,939,0,0
119,85,0,0,0,0,0,0,0,0,0,-1,1343,939,0,0
126,85,0,0,0,0,0,0,0,0,0,-1,1350,939,0,0
133,85,0,0,0,0,0,0,0,0,0,-1,1357,939,0,0
140,85,0,0,0,0,0,0,0,0,0,-1,1364,939,0,0
147,85,0,0,0,0,0,0,0,0,0,-1,1371,939,0,0
154,85,0,0,0,0,0,0,0,0,0,-1,1378,939,0,0
161,85,0,0,0,0,0,0,0,0,0,-1,1385,939,0,0
168,85,0,0,0,0,0,0,0,0,0,-1,1392,939,0,0
175,85,0,0,0,0,0,0,0,0,0,-1,1399,939,0,0
182,85,0,0,0,0,0,0,0,0,0,-1,1406,939,0,0
189,85,0,0,0,0,0,0,0,0,0,-1,1413,939,0,0
196,85,0,0,0,0,0,0,0,0,0,-1,1420,939,0,0
203,85,0,0,0,0,0,0,0,0,0,-1,1427,939,0,0
210,85,0,0,0,0,0,0,0,0,0,-1,1434,939,0,0
217,85,0,0,0,0,0,0,0,0,0,-1,1441,939,0,0
224,85,0,0,0,0,0,0,0,0,0,-1,1448,939,0,0
231,85,0,0,0,0,0,0,0,0,0,-1,1455,939,0,0
238,85,0,0,0,0,0,0,0,0,0,-1,1462,939,0,0
245,85,0,0,0,0,0,0,0,0,0,-1,1469,939,0,0
252,85,0,0,0,0,0,0,0,0,0,-1,1476,939,0,0
259,85,0,0,0,0,0,0,0,0,0,-1,1483,939,0,0
266,85,0,0,0,0,0,0,0,0,0,-1,1490,939,0,0
273,85,0,0,0,0,0,0,0,0,0,-1,1497,939,0,0
280,85,0,0,0,0,0,0,0,0,0,-1,1504,939,0,0
287,85,0,0,0,0,0,0,0,0,0,-1,1511,939,0,0
294,85,0,0,0,0,0,0,0,0,0,-1,1518,939,0,0
301,85,0,0,0,0,0,0,0,0,0,-1,1525,939,0,0
308,85,0,0,0,0,0,0,0,0,0,-1,1532,939,0,0
315,85,0,0,0,0,0,0,0,0,0,-1,1539,939,0,0
322,85,0,0,0,0,0,0,0,0,0,-1,1546,939,0,0
329,85,0,0,0,0,0,0,0,0,0,-1,1553,939,0,0
336,85,0,0,0,0,0,0,0,0,0,-1,1560,939,0,0
343,85,0,0,0,0,0,0,0,0,0,-1,1567,939,0,0
350,85,0,0,0,0,0,0,0,0,0,-1,1574,939,0,0
357,85,0,0,0,0,0,0,0,0,0,-1,1581,939,0,0
364,85,0,0,0,0,0,0,0,0,0,-1,1588,939,0,0
371,85,0,0,0,0,0,0,0,0,0,-1,1595,939,0,0
378,85,0,0,0,0,0,0,0,0,0,-1,1602,939,0,0
385,85,0,0,0,0,0,0,0,0,0,-1,1609,939,0,0
392,85,0,0,0,0,0,0,0,0,0,-1,1616,939,0,0
399,85,0,0,0,0,0,0,0,0,0,-1,1623,939,0,0
406,85,0,0,0,0,0,0,0,0,0,-1,1630,939,0,0
413,85,0,0,0,0,0,0,0,0,0,-1,1637,939,0,0
420,85,0,0,0,0,0,0,0,0,0,-1,1644,939,0,0
427,85,0,0,0,0,0,0,0,0,0,-1,1651,939,0,0
434,85,0,0,0,0,0,0,0,0,0,-1,1658,939,0,0
441,85,0,0,0,0,0,0,0,0,0,-1,1665,939,0,0
448,85,0,0,0,0,0,0,0,0,0,-1,1672,939,0,0
455,85,0,0,0,0,0,0,0,0,0,-1,1679,939,0,0
462,85,0,0,0,0,0,0,0,0,0,-1,1686,939,0,0
469,85,0,0,0,0,0,0,0,0,0,-1,1693,939,0,0
476,85,0,0,0,0,0,0,0,0,0,-1,1700,939,0,0
483,85,0,0,0,0,0,0,0,0,0,-1,1707,939,0,0
490,85,0,0,0,0,0,0,0,0,0,-1,1714,939,0,0
497,85,0,0,0,0,0,0,0,0,0,-1,1721,939,0,0
504,85,0,0,0,0,0,0,0,0,0,-1,1728,939,0,0
511,85,0,0,0,0,0,0,0,0,0,-1,1735,939,0,0
518,85,0,0,0,0,0,0,0,0,0,-1,1742,939,0,0
525,85,0,0,0,0,0,0,0,0,0,-1,1749,939,0,0
532,85,0,0,0,0,0,0,0,0,0,-1,1756,939,0,0
539,85,0,0,0,0,0,0,0,0,0,-1,1763,939,0,0
546,85,0,0,0,0,0,0,0,0,0,-1,1770,939,0,0
553,85,0,0,0,0,0,0,0,0,0,-1,1777,939,0,0
560,85,0,0,0,0,0,0,0,0,0,-1,1784,939,0,0
567,85,0,0,0,0,0,0,0,0,0,-1,1791,939,0,0
574,85,0,0,0,0,0,0,0,0,0,-1,1798,939,0,0
581,85,0,0,0,0,0,0,0,0,0,-1,1805,939,0,0
588,85,0,0,0,0,0,0,0,0,0,-1,1812,939,0,0
595,85,0,0,0,0,0,0,0,0,0,-1,1819,939,0,0
602,85,0,0,0,0,0,0,0,0,0,-1,1826,939,0,0
609,85,0,0,0,0,0,0,0,0,0,-1,1833,939,0,0
616,85,0,0,0,0,0,0,0,0,0,-1,1840,939,0,0
623,85,0,0,0,0,0,0,0,0,0,-1,1847,939,0,0
630,85,0,0,0,0,0,0,0,0,0,-1,1854,939,0,0
637,85,21.9971,2.59595,-0.00120654,-0.00769207,-0.00147425,-0.000887149,-0.00801146,-0.213348,0.00507119,0.0472426,1861,939,21.9971,-2.59594
644,85,21.7966,2.58954,-0.000394844,-0.00539687,-0.00131216,-7.15307e-05,-0.00572019,-0.241586,0.00378984,0.0423557,1868,939,21.7966,-2.58952
651,85,21.7557,2.70532,-0.000313955,-0.00371968,-0.00112402,2.35632e-05,-0.0040572,-0.291712,0.00271269,0.0425736,1875,939,21.7557,-2.70533
658,85,21.6636,2.80078,-0.00143806,-0.00236488,-0.000916807,-0.000874199,-0.00292874,-0.551396,0.00173608,0.0444702,1882,939,21.6635,-2.80077
665,85,21.61,2.84772,-0.00313971,-0.00124002,-0.000682614,-0.00102018,-0.00335955,-1.25923,0.00198886,0.045626,1889,939,21.61,-2.8477
672,85,21.8566,2.67816,-0.00477435,-0.000449325,-0.000427323,-0.000407509,-0.00481617,-1.47325,0.00308393,0.0419313,1896,939,21.8566,-2.67816
679,85,21.9264,2.65808,-0.00607418,4.20206e-05,-0.000200452,4.85831e-05,-0.00608074,-1.53807,0.00407012,0.0383743,1903,939,21.9263,-2.65807
686,85,21.8656,2.74365,-0.00701721,0.000288407,-7.84667e-05,0.00028925,-0.00701805,-1.56006,0.00477804,0.0338176,1910,939,21.8656,-2.74367
693,85,21.7915,2.87292,-0.00730229,0.0005587,1.30922e-05,0.000558721,-0.00730231,1.56913,0.00506473,0.0263045,1917,939,21.7915,-2.8729
700,85,21.8105,2.7948,-0.0073002,0.00074936,0.000125455,0.000751314,-0.00730215,1.55522,0.00513689,0.0295982,1924,939,21.8105,-2.79478
707,85,21.1644,3.10938,-0.00727091,0.00078486,0.000239861,0.000791995,-0.00727805,1.54106,0.00513643,0.0492774,1931,939,21.1644,-3.10936
714,85,20.3562,3.42926,0,0,0,0,0,0,0,-1,1938,939,20.3562,-3.42925
721,85,20.3435,3.61438,-0.00556911,0.000977496,6.66959e-05,0.000978175,-0.00556979,1.56061,0.00407854,0.0237365,1945,939,20.3435,-3.61441
728,85,20.3042,3.81696,-0.00427768,0.00114253,2.05647e-05,0.00114261,-0.00427776,1.567,0.00329933,0.0178213,1952,939,20.3041,-3.81698
735,85,20.3008,3.9165,-0.00301338,0.00130872,0.000111324,0.00131158,-0.00301625,1.54506,0.00256247,0.0164357,1959,939,20.3008,-3.91653
742,85,20.3427,4.02606,-0.00131256,0.00168408,0.000364669,0.00172782,-0.0013563,1.45142,0.00178492,0.0143143,1966,939,20.3427,-4.02604
749,85,20.3145,4.17743,0.000392271,0.00232875,0.000772234,0.00259899,0.000122031,1.23417,0.00169345,0.0133653,1973,939,20.3145,-4.17741
756,85,20.2742,4.29749,0.00198672,0.00319292,0.00154891,0.004252,0.000927638,0.971053,0.00258162,0.0129469,1980,939,20.2742,-4.29752
763,85,20.288,4.42529,0.00298821,0.00425066,0.00284237,0.00653105,0.000707812,0.894664,0.00413832,0.0129502,1987,939,20.2879,-4.42531
770,85,20.2982,4.54327,0.00322576,0.00560264,0.00476887,0.00932892,-0.000500521,0.907515,0.00639266,0.0183983,1994,939,20.2983,-4.54328
777,85,20.2709,4.64514,0.00275754,0.00720313,0.00744998,0.0127549,-0.00279418,0.930375,0.00957155,0.0406715,2001,939,20.2709,-4.64516
784,85,20.2661,4.74268,0,0,0,0,0,0,0,-1,2008,939,20.2661,-4.74269
791,85,18.4276,5.12787,0,0,0,0,0,0,0,-1,2015,939,18.4277,-5.12789
798,85,18.2505,4.18738,0,0,0,0,0,0,0,-1,2022,939,18.2505,-4.18736
805,85,18.0734,3.24683,0,0,0,0,0,0,0,-1,2029,939,18.0733,-3.24683
812,85,0,0,0,0,0,0,0,0,0,-1,2036,939,0,0
-700,78,0,0,0,0,0,0,0,0,0,-1,524,946,0,0
-693,78,0,0,0,0,0,0,0,0,0,-1,531,946,0,0
-686,78,-15.3263,3.12878,0,0,0,0,0,0,0,-1,538,946,-15.3263,-3.12879
-679,78,-15.3075,2.99316,0,0,0,0,0,0,0,-1,545,946,-15.3075,-2.99317
-672,78,-14.7619,2.76453,0,0,0,0,0,0,0,-1,552,946,-14.7619,-2.76454
-665,78,-14.5705,2.53888,0,0,0,0,0,0,0,-1,559,946,-14.5705,-2.53886
-658,78,-14.1802,2.32605,0,0,0,0,0,0,0,-1,566,946,-14.1802,-2.32608
-651,78,-13.2844,2.32556,0.0369541,0.0277205,-0.00450231,0.038786,0.0258886,-0.386422,0.022808,0.0437164,573,946,-13.2844,-2.32554
-644,78,-13.385,2.21832,0.0273168,0.0191603,-0.00346583,0.0285906,0.0178865,-0.352199,0.0166795,0.0252514,580,946,-13.385,-2.21832
-637,78,-13.4464,2.08215,0.0194304,0.0127221,-0.00286748,0.0204891,0.0116634,-0.353666,0.0118671,0.0124314,587,946,-13.4464,-2.08213
-630,78,-13.4998,1.95117,0.0130103,0.00667266,-0.00206084,0.0136215,0.00606147,-0.288308,0.00788024,0.012245,594,946,-13.4998,-1.95118
-623,78,-13.5197,1.84717,0.00677978,0.00345786,-0.00116368,0.00714686,0.00309079,-0.305566,0.00413877,0.0118061,601,946,-13.5197,-1.84716
-616,78,-13.5382,1.75531,0.00166106,0.00197862,-0.000683509,0.00252155,0.00111813,-0.899522,0.00145892,0.0104481,608,946,-13.5382,-1.75531
-609,78,-13.5305,1.66602,-0.00161416,0.0013716,-0.000505497,0.00145486,-0.00169742,-1.40755,0.00182176,0.0114199,615,946,-13.5305,-1.66604
-602,78,-13.5257,1.54401,-0.00413333,0.000892184,-0.000214714,0.000901341,-0.00414249,-1.52818,0.00310601,0.015198,622,946,-13.5257,-1.544
-595,78,-13.5027,1.40314,-0.00582378,0.000545888,-0.000168092,0.000550321,-0.00582822,-1.54443,0.0040813,0.0142694,629,946,-13.5027,-1.40314
-588,78,-13.5028,1.33075,-0.0070694,0.000527806,-0.000217489,0.000534027,-0.00707562,-1.5422,0.00490479,0.0119818,636,946,-13.5028,-1.33075
-581,78,-13.5541,1.2757,-0.00793943,0.000586116,-0.000344092,0.000599982,-0.00795329,-1.53052,0.00551308,0.0190541,643,946,-13.5541,-1.2757
-574,78,-13.8505,1.14661,-0.0082962,0.000632979,-0.000536746,0.000665128,-0.00832835,-1.51097,0.0057867,0.0252147,650,946,-13.8505,-1.14659
-567,78,-14.205,1.0589,0,0,0,0,0,0,0,-1,657,946,-14.2049,-1.05891
-560,78,-14.3058,0.999146,-0.00795271,0.000683623,-0.000709422,0.00074151,-0.0080106,-1.48938,0.00560394,0.0305319,664,946,-14.3058,-0.999122
-553,78,-14.3161,1.08679,-0.00706555,0.00072838,-0.000864017,0.000823014,-0.00716018,-1.4617,0.00507011,0.038809,671,946,-14.3161,-1.08679
-546,78,-14.2288,1.07947,-0.0056054,0.00072527,-0.00109036,0.000907803,-0.00578794,-1.40493,0.0041941,0.0432823,678,946,-14.2287,-1.07948
-539,78,-14.1016,1.07922,-0.00358341,0.000622816,-0.00141633,0.00105527,-0.00401586,-1.27446,0.00308966,0.040838,685,946,-14.1016,-1.07921
-532,78,-14.2251,1.24738,-0.00113709,0.00035285,-0.00191239,0.00166025,-0.00244449,-0.971131,0.00238425,0.0400815,692,946,-14.2251,-1.24739
-525,78,-14.2922,1.07458,0.000984751,-9.95921e-05,-0.00268124,0.00317808,-0.00229292,-0.685639,0.00317244,0.0406892,699,946,-14.2922,-1.07457
-518,78,-14.1664,0.906921,0,0,0,0,0,0,0,-1,706,946,-14.1664,-0.906896
-511,78,0,0,0,0,0,0,0,0,0,-1,713,946,0,0
-504,78,0,0,0,0,0,0,0,0,0,-1,720,946,0,0
-497,78,0,0,0,0,0,0,0,0,0,-1,727,946,0,0
-490,78,0,0,0,0,0,0,0,0,0,-1,734,946,0,0
-483,78,0,0,0,0,0,0,0,0,0,-1,741,946,0,0
-476,78,0,0,0,0,0,0,0,0,0,-1,748,946,0,0
-469,78,0,0,0,0,0,0,0,0,0,-1,755,946,0,0
-462,78,0,0,0,0,0,0,0,0,0,-1,762,946,0,0
-455,78,0,0,0,0,0,0,0,0,0,-1,769,946,0,0
-448,78,0,0,0,0,0,0,0,0,0,-1,776,946,0,0
-441,78,0,0,0,0,0,0,0,0,0,-1,783,946,0,0
-434,78,0,0,0,0,0,0,0,0,0,-1,790,946,0,0
-427,78,0,0,0,0,0,0,0,0,0,-1,797,946,0,0
-420,78,0,0,0,0,0,0,0,0,0,-1,804,946,0,0
-413,78,0,0,0,0,0,0,0,0,0,-1,811,946,0,0
-406,78,0,0,0,0,0,0,0,0,0,-1,818,946,0,0
-399,78,0,0,0,0,0,0,0,0,0,-1,825,946,0,0
-392,78,0,0,0,0,0,0,0,0,0,-1,832,946,0,0
-385,78,0,0,0,0,0,0,0,0,0,-1,839,946,0,0
-378,78,0,0,0,0,0,0,0,0,0,-1,846,946,0,0
-371,78,0,0,0,0,0,0,0,0,0,-1,853,946,0,0
-364,78,0,0,0,0,0,0,0,0,0,-1,860,946,0,0
-357,78,0,0,0,0,0,0,0,0,0,-1,867,946,0,0
-350,78,0,0,0,0,0,0,0,0,0,-1,874,946,0,0
-343,78,0,0,0,0,0,0,0,0,0,-1,881,946,0,0
-336,78,0,0,0,0,0,0,0,0,0,-1,888,946,0,0
-329,78,0,0,0,0,0,0,0,0,0,-1,895,946,0,0
-322,78,0,0,0,0,0,0,0,0,0,-1,902,946,0,0
-315,78,0,0,0,0,0,0,0,0,0,-1,909,946,0,0
-308,78,0,0,0,0,0,0,0,0,0,-1,916,946,0,0
-301,78,0,0,0,0,0,0,0,0,0,-1,923,946,0,0
-294,78,0,0,0,0,0,0,0,0,0,-1,930,946,0,0
-287,78,0,0,0,0,0,0,0,0,0,-1,937,946,0,0
-280,78,0,0,0,0,0,0,0,0,0,-1,944,946,0,0
-273,78,0,0,0,0,0,0,0,0,0,-1,951,946,0,0
-266,78,0,0,0,0,0,0,0,0,0,-1,958,946,0,0
-259,78,0,0,0,0,0,0,0,0,0,-1,965,946,0,0
-252,78,0,0,0,0,0,0,0,0,0,-1,972,946,0,0
-245,78,0,0,0,0,0,0,0,0,0,-1,979,946,0,0
-238,78,0,0,0,0,0,0,0,0,0,-1,986,946,0,0
-231,78,0,0,0,0,0,0,0,0,0,-1,993,946,0,0
-224,78,0,0,0,0,0,0,0,0,0,-1,1000,946,0,0
-217,78,0,0,0,0,0,0,0,0,0,-1,1007,946,0,0
-210,78,0,0,0,0,0,0,0,0,0,-1,1014,946,0,0
-203,78,0,0,0,0,0,0,0,0,0,-1,1021,946,0,0
-196,78,0,0,0,0,0,0,0,0,0,-1,1028,946,0,0
-189,78,0,0,0,0,0,0,0,0,0,-1,1035,946,0,0
-182,78,0,0,0,0,0,0,0,0,0,-1,1042,946,0,0
-175,78,0,0,0,0,0,0,0,0,0,-1,1049,946,0,0
-168,78,0,0,0,0,0,0,0,0,0,-1,1056,946,0,0
-161,78,0,0,0,0,0,0,0,0,0,-1,1063,946,0,0
-154,78,0,0,0,0,0,0,0,0,0,-1,1070,946,0,0
-147,78,0,0,0,0,0,0,0,0,0,-1,1077,946,0,0
-140,78,0,0,0,0,0,0,0,0,0,-1,1084,946,0,0
-133,78,0,0,0,0,0,0,0,0,0,-1,1091,946,0,0
-126,78,0,0,0,0,0,0,0,0,0,-1,1098,946,0,0
-119,78,0,0,0,0,0,0,0,0,0,-1,1105,946,0,0
-112,78,0,0,0,0,0,0,0,0,0,-1,1112,946,0,0
-105,78,0,0,0,0,0,0,0,0,0,-1,1119,946,0,0
-98,78,0,0,0,0,0,0,0,0,0,-1,1126,946,0,0
-91,78,0,0,0,0,0,0,0,0,0,-1,1133,946,0,0
-84,78,0,0,0,0,0,0,0,0,0,-1,1140,946,0,0
-77,78,0,0,0,0,0,0,0,0,0,-1,1147,946,0,0
-70,78,0,0,0,0,0,0,0,0,0,-1,1154,946,0,0
-63,78,0,0,0,0,0,0,0,0,0,-1,1161,946,0,0
-56,78,0,0,0,0,0,0,0,0,0,-1,1168,946,0,0
-49,78,0,0,0,0,0,0,0,0,0,-1,1175,946,0,0
-42,78,0,0,0,0,0,0,0,0,0,-1,1182,946,0,0
-35,78,0,0,0,0,0,0,0,0,0,-1,1189,946,0,0
-28,78,0,0,0,0,0,0,0,0,0,-1,1196,946,0,0
-21,78,0,0,0,0,0,0,0,0,0,-1,1203,946,0,0
-14,78,0,0,0,0,0,0,0,0,0,-1,1210,946,0,0
-7,78,0,0,0,0,0,0,0,0,0,-1,1217,946,0,0
0,78,0,0,0,0,0,0,0,0,0,-1,1224,946,0,0
7,78,0,0,0,0,0,0,0,0,0,-1,1231,946,0,0
14,78,0,0,0,0,0,0,0,0,0,-1,1238,946,0,0
21,78,0,0,0,0,0,0,0,0,0,-1,1245,946,0,0
28,78,0,0,0,0,0,0,0,0,0,-1,1252,946,0,0
35,78,0,0,0,0,0,0,0,0,0,-1,1259,946,0,0
42,78,0,0,0,0,0,0,0,0,0,-1,1266,946,0,0
49,78,0,0,0,0,0,0,0,0,0,-1,1273,946,0,0
56,78,0,0,0,0,0,0,0,0,0,-1,1280,946,0,0
63,78,0,0,0,0,0,0,0,0,0,-1,1287,946,0,0
70,78,0,0,0,0,0,0,0,0,0,-1,1294,946,0,0
77,78,0,0,0,0,0,0,0,0,0,-1,1301,946,0,0
84,78,0,0,0,0,0,0,0,0,0,-1,1308,946,0,0
91,78,0,0,0,0,0,0,0,0,0,-1,1315,946,0,0
98,78,0,0,0,0,0,0,0,0,0,-1,1322,946,0,0
105,78,0,0,0,0,0,0,0,0,0,-1,1329,946,0,0
112,78,0,0,0,0,0,0,0,0,0,-1,1336,946,0,0
119,78,0,0,0,0,0,0,0,0,0,-1,1343,946,0,0
126,78,0,0,0,0,0,0,0,0,0,-1,1350,946,0,0
133,78,0,0,0,0,0,0,0,0,0,-1,1357,946,0,0
140,78,0,0,0,0,0,0,0,0,0,-1,1364,946,0,0
147,78,0,0,0,0,0,0,0,0,0,-1,1371,946,0,0
154,78,0,0,0,0,0,0,0,0,0,-1,1378,946,0,0
161,78,0,0,0,0,0,0,0,0,0,-1,1385,946,0,0
168,78,0,0,0,0,0,0,0,0,0,-1,1392,946,0,0
175,78,0,0,0,0,0,0,0,0,0,-1,1399,946,0,0
182,78,0,0,0,0,0,0,0,0,0,-1,1406,946,0,0
189,78,0,0,0,0,0,0,0,0,0,-1,1413,946,0,0
196,78,0,0,0,0,0,0,0,0,0,-1,1420,946,0,0
203,78,0,0,0,0,0,0,0,0,0,-1,1427,946,0,0
210,78,0,0,0,0,0,0,0,0,0,-1,1434,946,0,0
217,78,0,0,0,0,0,0,0,0,0,-1,1441,946,0,0
224,78,0,0,0,0,0,0,0,0,0,-1,1448,946,0,0
231,78,0,0,0,0,0,0,0,0,0,-1,1455,946,0,0
238,78,0,0,0,0,0,0,0,0,0,-1,1462,946,0,0
245,78,0,0,0,0,0,0,0,0,0,-1,1469,946,0,0
252,78,0,0,0,0,0,0,0,0,0,-1,1476,946,0,0
259,78,0,0,0,0,0,0,0,0,0,-1,1483,946,0,0
266,78,0,0,0,0,0,0,0,0,0,-1,1490,946,0,0
273,78,0,0,0,0,0,0,0,0,0,-1,1497,946,0,0
280,78,0,0,0,0,0,0,0,0,0,-1,1504,946,0,0
287,78,0,0,0,0,0,0,0,0,0,-1,1511,946,0,0
294,78,0,0,0,0,0,0,0,0,0,-1,1518,946,0,0
301,78,0,0,0,0,0,0,0,0,0,-1,1525,946,0,0
308,78,0,0,0,0,0,0,0,0,0,-1,1532,946,0,0
315,78,0,0,0,0,0,0,0,0,0,-1,1539,946,0,0
322,78,0,0,0,0,0,0,0,0,0,-1,1546,946,0,0
329,78,0,0,0,0,0,0,0,0,0,-1,1553,946,0,0
336,78,0,0,0,0,0,0,0,0,0,-1,1560,946,0,0
343,78,0,0,0,0,0,0,0,0,0,-1,1567,946,0,0
350,78,0,0,0,0,0,0,0,0,0,-1,1574,946,0,0
357,78,0,0,0,0,0,0,0,0,0,-1,1581,946,0,0
364,78,0,0,0,0,0,0,0,0,0,-1,1588,946,0,0
371,78,0,0,0,0,0,0,0,0,0,-1,1595,946,0,0
378,78,0,0,0,0,0,0,0,0,0,-1,1602,946,0,0
385,78,0,0,0,0,0,0,0,0,0,-1,1609,946,0,0
392,78,0,0,0,0,0,0,0,0,0,-1,1616,946,0,0
399,78,0,0,0,0,0,0,0,0,0,-1,1623,946,0,0
406,78,0,0,0,0,0,0,0,0,0,-1,1630,946,0,0
413,78,0,0,0,0,0,0,0,0,0,-1,1637,946,0,0
420,78,0,0,0,0,0,0,0,0,0,-1,1644,946,0,0
427,78,0,0,0,0,0,0,0,0,0,-1,1651,946,0,0
434,78,0,0,0,0,0,0,0,0,0,-1,1658,946,0,0
441,78,0,0,0,0,0,0,0,0,0,-1,1665,946,0,0
448,78,0,0,0,0,0,0,0,0,0,-1,1672,946,0,0
455,78,0,0,0,0,0,0,0,0,0,-1,1679,946,0,0
462,78,0,0,0,0,0,0,0,0,0,-1,1686,946,0,0
469,78,0,0,0,0,0,0,0,0,0,-1,1693,946,0,0
476,78,0,0,0,0,0,0,0,0,0,-1,1700,946,0,0
483,78,0,0,0,0,0,0,0,0,0,-1,1707,946,0,0
490,78,0,0,0,0,0,0,0,0,0,-1,1714,946,0,0
497,78,0,0,0,0,0,0,0,0,0,-1,1721,946,0,0
504,78,0,0,0,0,0,0,0,0,0,-1,1728,946,0,0
511,78,0,0,0,0,0,0,0,0,0,-1,1735,946,0,0
518,78,0,0,0,0,0,0,0,0,0,-1,1742,946,0,0
525,78,0,0,0,0,0,0,0,0,0,-1,1749,946,0,0
532,78,0,0,0,0,0,0,0,0,0,-1,1756,946,0,0
539,78,0,0,0,0,0,0,0,0,0,-1,1763,946,0,0
546,78,0,0,0,0,0,0,0,0,0,-1,1770,946,0,0
553,78,0,0,0,0,0,0,0,0,0,-1,1777,946,0,0
560,78,0,0,0,0,0,0,0,0,0,-1,1784,946,0,0
567,78,0,0,0,0,0,0,0,0,0,-1,1791,946,0,0
574,78,0,0,0,0,0,0,0,0,0,-1,1798,946,0,0
581,78,0,0,0,0,0,0,0,0,0,-1,1805,946,0,0
588,78,0,0,0,0,0,0,0,0,0,-1,1812,946,0,0
595,78,0,0,0,0,0,0,0,0,0,-1,1819,946,0,0
602,78,0,0,0,0,0,0,0,0,0,-1,1826,946,0,0
609,78,0,0,0,0,0,0,0,0,0,-1,1833,946,0,0
616,78,0,0,0,0,0,0,0,0,0,-1,1840,946,0,0
623,78,0,0,0,0,0,0,0,0,0,-1,1847,946,0,0
630,78,0,0,0,0,0,0,0,0,0,-1,1854,946,0,0
637,78,21.9445,2.88312,-0.00177356,-0.00806019,-0.00214007,-0.0011142,-0.00871955,-0.298873,0.00547952,0.0480975,1861,946,21.9444,-2.88311
644,78,21.7769,2.60101,-0.000796423,-0.00584366,-0.00193132,-0.000142202,-0.00649788,-0.326611,0.00428531,0.0459098,1868,946,21.7769,-2.60102
651,78,21.665,2.63409,-0.000437436,-0.00420501,-0.00163437,0.00017273,-0.00481518,-0.35731,0.00326922,0.0419571,1875,946,21.665,-2.6341
658,78,21.7175,2.74225,-0.00114029,-0.00284973,-0.00122616,-0.000500342,-0.00348968,-0.48102,0.0021789,0.0389169,1882,946,21.7175,-2.74223
665,78,21.8691,2.92401,-0.00248019,-0.00167087,-0.000764801,-0.00121027,-0.00294079,-1.02873,0.0017067,0.0427663,1889,946,21.8692,-2.924
672,78,21.9973,3.00952,-0.00387953,-0.000777148,-0.000290277,-0.000750222,-0.00390646,-1.4783,0.00239375,0.0427204,1896,946,21.9973,-3.00955
679,78,22.0941,2.62439,-0.00505469,-0.000199325,0.00011135,-0.000196773,-0.00505724,1.54788,0.00330785,0.0389614,1903,946,22.0941,-2.62437
686,78,21.9276,2.52039,-0.00591943,0.000130476,0.000359554,0.000151769,-0.00594072,1.51164,0.00401203,0.0370424,1910,946,21.9276,-2.5204
693,78,21.8207,2.70483,-0.00619941,0.000459134,0.000523139,0.000499984,-0.00624026,1.49287,0.00433646,0.0310299,1917,946,21.8207,-2.70484
700,78,21.7909,2.76752,-0.00626426,0.000686852,0.000657516,0.0007485,-0.00632591,1.47731,0.00448763,0.0250563,1924,946,21.7909,-2.7675
707,78,21.624,3.12091,-0.00631536,0.000770201,0.000755564,0.000849874,-0.00639504,1.46574,0.00457305,0.0409076,1931,946,21.624,-3.12091
714,78,20.403,3.56055,0,0,0,0,0,0,0,-1,1938,946,20.4029,-3.56057
721,78,20.4449,3.66791,-0.00512243,0.00100727,0.000583303,0.00106228,-0.00517745,1.47676,0.00385483,0.0225805,1945,946,20.4449,-3.66792
728,78,20.4647,3.82556,-0.00423097,0.00113879,0.000534578,0.00119149,-0.00428367,1.47253,0.00332489,0.0208003,1952,946,20.4648,-3.82553
735,78,20.4575,3.91602,-0.00348047,0.00129276,0.000596677,0.00136622,-0.00355393,1.4483,0.00293275,0.0138587,1959,946,20.4575,-3.91602
742,78,20.4683,4.03009,-0.00251798,0.00167538,0.000757704,0.00180809,-0.00265069,1.39741,0.00258956,0.0127187,1966,946,20.4682,-4.0301
749,78,20.441,4.16052,-0.00167143,0.0023633,0.00107354,0.00263116,-0.00193929,1.32628,0.00264881,0.0131974,1973,946,20.441,-4.1605
756,78,20.4438,4.24933,-0.00115145,0.00330164,0.00180063,0.00393861,-0.00178843,1.23078,0.0033833,0.0141594,1980,946,20.4439,-4.24934
763,78,20.4463,4.38995,-0.00126497,0.00448473,0.0030677,0.0058141,-0.00259434,1.16188,0.00497184,0.0128228,1987,946,20.4463,-4.38996
770,78,20.4333,4.51031,-0.00227613,0.00608486,0.00496611,0.00839581,-0.00458708,1.13526,0.00760243,0.0164187,1994,946,20.4333,-4.51029
777,78,20.4202,4.59235,-0.00404556,0.00805869,0.00751216,0.0116534,-0.00764024,1.12448,0.0112192,0.0364818,2001,946,20.4202,-4.59237
784,78,20.4033,4.67804,0,0,0,0,0,0,0,-1,2008,946,20.4033,-4.67803
791,78,17.8453,5.50421,0,0,0,0,0,0,0,-1,2015,946,17.8453,-5.50419
798,78,17.7894,4.08728,0,0,0,0,0,0,0,-1,2022,946,17.7895,-4.08728
805,78,17.7336,2.67035,0,0,0,0,0,0,0,-1,2029,946,17.7336,-2.67037
812,78,0,0,0,0,0,0,0,0,0,-1,2036,946,0,0
-700,71,0,0,0,0,0,0,0,0,0,-1,524,953,0,0
-693,71,0,0,0,0,0,0,0,0,0,-1,531,953,0,0
-686,71,-15.8715,2.83746,0,0,0,0,0,0,0,-1,538,953,-15.8715,-2.83746
-679,71,-15.8137,2.79547,0,0,0,0,0,0,0,-1,545,953,-15.8137,-2.79549
-672,71,-15.6007,2.50897,0.0691926,0.0772939,-0.00700377,0.081334,0.0651525,-1.04757,0.0497145,0.0476451,552,953,-15.6007,-2.509
-665,71,-15.3458,2.22333,0,0,0,0,0,0,0,-1,559,953,-15.3457,-2.22332
-658,71,-15.2652,1.73682,0,0,0,0,0,0,0,-1,566,953,-15.2652,-1.73683
-651,71,-13.3882,2.61285,0.0340035,0.032393,-0.0041867,0.0374617,0.0289348,-0.690389,0.0226731,0.0456877,573,953,-13.3882,-2.61284
-644,71,-13.5271,2.23553,0.0248398,0.0226501,-0.00311983,0.0270513,0.0204386,-0.616641,0.0162839,0.0319809,580,953,-13.5271,-2.23556
-637,71,-13.576,2.07196,0.0173367,0.0152058,-0.0026038,0.0190846,0.0134579,-0.591193,0.0113235,0.013632,587,953,-13.5761,-2.07198
-630,71,-13.6206,1.94226,0.0112388,0.0080538,-0.00186554,0.0120991,0.00719348,-0.432099,0.00702692,0.0126552,594,953,-13.6206,-1.94229
-623,71,-13.6427,1.83783,0.00531629,0.00425113,-0.00102533,0.00593911,0.00362831,-0.545865,0.00345695,0.0122235,601,953,-13.6427,-1.83782
-616,71,-13.6598,1.73694,0.000685973,0.00255521,-0.000746818,0.00281694,0.000424244,-1.23371,0.00175374,0.0119355,608,953,-13.6598,-1.73696
-609,71,-13.642,1.67786,-0.00201375,0.00179134,-0.000775076,0.00194316,-0.00216557,-1.37737,0.00237334,0.0137612,615,953,-13.6419,-1.67788
-602,71,-13.6129,1.565,-0.00407742,0.00127789,-0.000583727,0.00134078,-0.00414031,-1.46348,0.00329923,0.0152657,622,953,-13.6129,-1.56503
-595,71,-13.6173,1.44019,-0.00545377,0.000870217,-0.000622396,0.00093089,-0.00551444,-1.47362,0.00402266,0.0159606,629,953,-13.6173,-1.44016
-588,71,-13.6091,1.38843,-0.00642539,0.000792257,-0.000734576,0.00086626,-0.00649939,-1.47039,0.00464866,0.0163508,636,953,-13.6091,-1.38845
-581,71,-13.7271,1.26752,-0.00707087,0.000826267,-0.000886373,0.000924531,-0.00716913,-1.46039,0.00511552,0.0246746,643,953,-13.7271,-1.26752
-574,71,-14.0835,1.08954,-0.0072959,0.000904362,-0.00110667,0.00105109,-0.00744262,-1.43898,0.00534666,0.0288173,650,953,-14.0835,-1.08952
-567,71,-14.2485,0.888428,-0.00725809,0.0010102,-0.00120303,0.00118168,-0.00742957,-1.42921,0.00539029,0.018792,657,953,-14.2485,-0.888426
-560,71,-14.2982,0.938782,-0.006786,0.00106898,-0.00129392,0.00127663,-0.00699366,-1.41167,0.00514109,0.0253096,664,953,-14.2981,-0.938768
-553,71,-14.3817,1.08667,-0.00588511,0.00117566,-0.00144625,0.00146041,-0.00616986,-1.37639,0.00467668,0.0358636,671,953,-14.3816,-1.08665
-546,71,-14.3337,1.09863,-0.00452786,0.00124941,-0.00167459,0.00169971,-0.00497816,-1.30811,0.00400735,0.0402054,678,953,-14.3337,-1.09863
-539,71,-14.2261,0.928406,-0.00276678,0.00124733,-0.00202026,0.00208804,-0.00360748,-1.17646,0.00332709,0.0410872,685,953,-14.2261,-0.928426
-532,71,-14.3645,0.813416,-0.000840182,0.00113071,-0.00259421,0.00292033,-0.00262981,-0.966912,0.00320584,0.0430452,692,953,-14.3645,-0.813402
-525,71,-14.4014,0.975891,0.000303189,0.000953678,-0.00354795,0.00419126,-0.0029344,-0.831106,0.00413528,0.0429922,699,953,-14.4014,-0.975912
-518,71,0,0,0,0,0,0,0,0,0,-1,706,953,0,0
-511,71,0,0,0,0,0,0,0,0,0,-1,713,953,0,0
-504,71,0,0,0,0,0,0,0,0,0,-1,720,953,0,0
-497,71,0,0,0,0,0,0,0,0,0,-1,727,953,0,0
-490,71,0,0,0,0,0,0,0,0,0,-1,734,953,0,0
-483,71,0,0,0,0,0,0,0,0,0,-1,741,953,0,0
-476,71,0,0,0,0,0,0,0,0,0,-1,748,953,0,0
-469,71,0,0,0,0,0,0,0,0,0,-1,755,953,0,0
-462,71,0,0,0,0,0,0,0,0,0,-1,762,953,0,0
-455,71,0,0,0,0,0,0,0,0,0,-1,769,953,0,0
-448,71,0,0,0,0,0,0,0,0,0,-1,776,953,0,0
-441,71,0,0,0,0,0,0,0,0,0,-1,783,953,0,0
-434,71,0,0,0,0,0,0,0,0,0,-1,790,953,0,0
-427,71,0,0,0,0,0,0,0,0,0,-1,797,953,0,0
-420,71,0,0,0,0,0,0,0,0,0,-1,804,953,0,0
-413,71,0,0,0,0,0,0,0,0,0,-1,811,953,0,0
-406,71,0,0,0,0,0,0,0,0,0,-1,818,953,0,0
-399,71,0,0,0,0,0,0,0,0,0,-1,825,953,0,0
-392,71,0,0,0,0,0,0,0,0,0,-1,832,953,0,0
-385,71,0,0,0,0,0,0,0,0,0,-1,839,953,0,0
-378,71,0,0,0,0,0,0,0,0,0,-1,846,953,0,0
-371,71,0,0,0,0,0,0,0,0,0,-1,853,953,0,0
-364,71,0,0,0,0,0,0,0,0,0,-1,860,953,0,0
-357,71,0,0,0,0,0,0,0,0,0,-1,867,953,0,0
-350,71,0,0,0,0,0,0,0,0,0,-1,874,953,0,0
-343,71,0,0,0,0,0,0,0,0,0,-1,881,953,0,0
-336,71,0,0,0,0,0,0,0,0,0,-1,888,953,0,0
-329,71,0,0,0,0,0,0,0,0,0,-1,895,953,0,0
-322,71,0,0,0,0,0,0,0,0,0,-1,902,953,0,0
-315,71,0,0,0,0,0,0,0,0,0,-1,909,953,0,0
-308,71,0,0,0,0,0,0,0,0,0,-1,916,953,0,0
-301,71,0,0,0,0,0,0,0,0,0,-1,923,953,0,0
-294,71,0,0,0,0,0,0,0,0,0,-1,930,953,0,0
-287,71,0,0,0,0,0,0,0,0,0,-1,937,953,0,0
-280,71,0,0,0,0,0,0,0,0,0,-1,944,953,0,0
-273,71,0,0,0,0,0,0,0,0,0,-1,951,953,0,0
-266,71,0,0,0,0,0,0,0,0,0,-1,958,953,0,0
-259,71,0,0,0,0,0,0,0,0,0,-1,965,953,0,0
-252,71,0,0,0,0,0,0,0,0,0,-1,972,953,0,0
-245,71,0,0,0,0,0,0,0,0,0,-1,979,953,0,0
-238,71,0,0,0,0,0,0,0,0,0,-1,986,953,0,0
-231,71,0,0,0,0,0,0,0,0,0,-1,993,953,0,0
-224,71,0,0,0,0,0,0,0,0,0,-1,1000,953,0,0
-217,71,0,0,0,0,0,0,0,0,0,-1,1007,953,0,0
-210,71,0,0,0,0,0,0,0,0,0,-1,1014,953,0,0
-203,71,0,0,0,0,0,0,0,0,0,-1,1021,953,0,0
-196,71,0,0,0,0,0,0,0,0,0,-1,1028,953,0,0
-189,71,0,0,0,0,0,0,0,0,0,-1,1035,953,0,0
-182,71,0,0,0,0,0,0,0,0,0,-1,1042,953,0,0
-175,71,0,0,0,0,0,0,0,0,0,-1,1049,953,0,0
-168,71,0,0,0,0,0,0,0,0,0,-1,1056,953,0,0
-161,71,0,0,0,0,0,0,0,0,0,-1,1063,953,0,0
-154,71,0,0,0,0,0,0,0,0,0,-1,1070,953,0,0
-147,71,0,0,0,0,0,0,0,0,0,-1,1077,953,0,0
-140,71,0,0,0,0,0,0,0,0,0,-1,1084,953,0,0
-133,71,0,0,0,0,0,0,0,0,0,-1,1091,953,0,0
-126,71,0,0,0,0,0,0,0,0,0,-1,1098,953,0,0
-119,71,0,0,0,0,0,0,0,0,0,-1,1105,953,0,0
-112,71,0,0,0,0,0,0,0,0,0,-1,1112,953,0,0
-105,71,0,0,0,0,0,0,0,0,0,-1,1119,953,0,0
-98,71,0,0,0,0,0,0,0,0,0,-1,1126,953,0,0
-91,71,0,0,0,0,0,0,0,0,0,-1,1133,953,0,0
-84,71,0,0,0,0,0,0,0,0,0,-1,1140,953,0,0
-77,71,0,0,0,0,0,0,0,0,0,-1,1147,953,0,0
-70,71,0,0,0,0,0,0,0,0,0,-1,1154,953,0,0
-63,71,0,0,0,0,0,0,0,0,0,-1,1161,953,0,0
-56,71,0,0,0,0,0,0,0,0,0,-1,1168,953,0,0
-49,71,0,0,0,0,0,0,0,0,0,-1,1175,953,0,0
-42,71,0,0,0,0,0,0,0,0,0,-1,1182,953,0,0
-35,71,0,0,0,0,0,0,0,0,0,-1,1189,953,0,0
-28,71,0,0,0,0,0,0,0,0,0,-1,1196,953,0,0
-21,71,0,0,0,0,0,0,0,0,0,-1,1203,953,0,0
-14,71,0,0,0,0,0,0,0,0,0,-1,1210,953,0,0
-7,71,0,0,0,0,0,0,0,0,0,-1,1217,953,0,0
0,71,0,0,0,0,0,0,0,0,0,-1,1224,953,0,0
7,71,0,0,0,0,0,0,0,0,0,-1,1231,953,0,0
14,71,0,0,0,0,0,0,0,0,0,-1,1238,953,0,0
21,71,0,0,0,0,0,0,0,0,0,-1,1245,953,0,0
28,71,0,0,0,0,0,0,0,0,0,-1,1252,953,0,0
35,71,0,0,0,0,0,0,0,0,0,-1,1259,953,0,0
42,71,0,0,0,0,0,0,0,0,0,-1,1266,953,0,0
49,71,0,0,0,0,0,0,0,0,0,-1,1273,953,0,0
56,71,0,0,0,0,0,0,0,0,0,-1,1280,953,0,0
63,71,0,0,0,0,0,0,0,0,0,-1,1287,953,0,0
70,71,0,0,0,0,0,0,0,0,0,-1,1294,953,0,0
77,71,0,0,0,0,0,0,0,0,0,-1,1301,953,0,0
84,71,0,0,0,0,0,0,0,0,0,-1,1308,953,0,0
91,71,0,0,0,0,0,0,0,0,0,-1,1315,953,0,0
98,71,0,0,0,0,0,0,0,0,0,-1,1322,953,0,0
105,71,0,0,0,0,0,0,0,0,0,-1,1329,953,0,0
112,71,0,0,0,0,0,0,0,0,0,-1,1336,953,0,0
119,71,0,0,0,0,0,0,0,0,0,-1,1343,953,0,0
126,71,0,0,0,0,0,0,0,0,0,-1,1350,953,0,0
133,71,0,0,0,0,0,0,0,0,0,-1,1357,953,0,0
140,71,0,0,0,0,0,0,0,0,0,-1,1364,953,0,0
147,71,0,0,0,0,0,0,0,0,0,-1,1371,953,0,0
154,71,0,0,0,0,0,0,0,0,0,-1,1378,953,0,0
161,71,0,0,0,0,0,0,0,0,0,-1,1385,953,0,0
168,71,0,0,0,0,0,0,0,0,0,-1,1392,953,0,0
175,71,0,0,0,0,0,0,0,0,0,-1,1399,953,0,0
182,71,0,0,0,0,0,0,0,0,0,-1,1406,953,0,0
189,71,0,0,0,0,0,0,0,0,0,-1,1413,953,0,0
196,71,0,0,0,0,0,0,0,0,0,-1,1420,953,0,0
203,71,0,0,0,0,0,0,0,0,0,-1,1427,953,0,0
210,71,0,0,0,0,0,0,0,0,0,-1,1434,953,0,0
217,71,0,0,0,0,0,0,0,0,0,-1,1441,953,0,0
224,71,0,0,0,0,0,0,0,0,0,-1,1448,953,0,0
231,71,0,0,0,0,0,0,0,0,0,-1,1455,953,0,0
238,71,0,0,0,0,0,0,0,0,0,-1,1462,953,0,0
245,71,0,0,0,0,0,0,0,0,0,-1,1469,953,0,0
252,71,0,0,0,0,0,0,0,0,0,-1,1476,953,0,0
259,71,0,0,0,0,0,0,0,0,0,-1,1483,953,0,0
266,71,0,0,0,0,0,0,0,0,0,-1,1490,953,0,0
273,71,0,0,0,0,0,0,0,0,0,-1,1497,953,0,0
280,71,0,0,0,0,0,0,0,0,0,-1,1504,953,0,0
287,71,0,0,0,0,0,0,0,0,0,-1,1511,953,0,0
294,71,0,0,0,0,0,0,0,0,0,-1,1518,953,0,0
301,71,0,0,0,0,0,0,0,0,0,-1,1525,953,0,0
308,71,0,0,0,0,0,0,0,0,0,-1,1532,953,0,0
315,71,0,0,0,0,0,0,0,0,0,-1,1539,953,0,0
322,71,0,0,0,0,0,0,0,0,0,-1,1546,953,0,0
329,71,0,0,0,0,0,0,0,0,0,-1,1553,953,0,0
336,71,0,0,0,0,0,0,0,0,0,-1,1560,953,0,0
343,71,0,0,0,0,0,0,0,0,0,-1,1567,953,0,0
350,71,0,0,0,0,0,0,0,0,0,-1,1574,953,0,0
357,71,0,0,0,0,0,0,0,0,0,-1,1581,953,0,0
364,71,0,0,0,0,0,0,0,0,0,-1,1588,953,0,0
371,71,0,0,0,0,0,0,0,0,0,-1,1595,953,0,0
378,71,0,0,0,0,0,0,0,0,0,-1,1602,953,0,0
385,71,0,0,0,0,0,0,0,0,0,-1,1609,953,0,0
392,71,0,0,0,0,0,0,0,0,0,-1,1616,953,0,0
399,71,0,0,0,0,0,0,0,0,0,-1,1623,953,0,0
406,71,0,0,0,0,0,0,0,0,0,-1,1630,953,0,0
413,71,0,0,0,0,0,0,0,0,0,-1,1637,953,0,0
420,71,0,0,0,0,0,0,0,0,0,-1,1644,953,0,0
427,71,0,0,0,0,0,0,0,0,0,-1,1651,953,0,0
434,71,0,0,0,0,0,0,0,0,0,-1,1658,953,0,0
441,71,0,0,0,0,0,0,0,0,0,-1,1665,953,0,0
448,71,0,0,0,0,0,0,0,0,0,-1,1672,953,0,0
455,71,0,0,0,0,0,0,0,0,0,-1,1679,953,0,0
462,71,0,0,0,0,0,0,0,0,0,-1,1686,953,0,0
469,71,0,0,0,0,0,0,0,0,0,-1,1693,953,0,0
476,71,0,0,0,0,0,0,0,0,0,-1,1700,953,0,0
483,71,0,0,0,0,0,0,0,0,0,-1,1707,953,0,0
490,71,0,0,0,0,0,0,0,0,0,-1,1714,953,0,0
497,71,0,0,0,0,0,0,0,0,0,-1,1721,953,0,0
504,71,0,0,0,0,0,0,0,0,0,-1,1728,953,0,0
511,71,0,0,0,0,0,0,0,0,0,-1,1735,953,0,0
518,71,0,0,0,0,0,0,0,0,0,-1,1742,953,0,0
525,71,0,0,0,0,0,0,0,0,0,-1,1749,953,0,0
532,71,0,0,0,0,0,0,0,0,0,-1,1756,953,0,0
539,71,0,0,0,0,0,0,0,0,0,-1,1763,953,0,0
546,71,0,0,0,0,0,0,0,0,0,-1,1770,953,0,0
553,71,0,0,0,0,0,0,0,0,0,-1,1777,953,0,0
560,71,0,0,0,0,0,0,0,0,0,-1,1784,953,0,0
567,71,0,0,0,0,0,0,0,0,0,-1,1791,953,0,0
574,71,0,0,0,0,0,0,0,0,0,-1,1798,953,0,0
581,71,0,0,0,0,0,0,0,0,0,-1,1805,953,0,0
588,71,0,0,0,0,0,0,0,0,0,-1,1812,953,0,0
595,71,0,0,0,0,0,0,0,0,0,-1,1819,953,0,0
602,71,0,0,0,0,0,0,0,0,0,-1,1826,953,0,0
609,71,0,0,0,0,0,0,0,0,0,-1,1833,953,0,0
616,71,0,0,0,0,0,0,0,0,0,-1,1840,953,0,0
623,71,0,0,0,0,0,0,0,0,0,-1,1847,953,0,0
630,71,0,0,0,0,0,0,0,0,0,-1,1854,953,0,0
637,71,21.9025,2.91565,-0.00208627,-0.00820547,-0.00243518,-0.00123546,-0.00905627,-0.336123,0.00567074,0.043106,1861,953,21.9025,-2.91566
644,71,21.7877,2.67499,-0.00120343,-0.00583087,-0.00236986,-0.000205119,-0.00682918,-0.398692,0.00448598,0.0435332,1868,953,21.7878,-2.675
651,71,21.712,2.59021,-0.000614396,-0.00411727,-0.00204423,0.00032608,-0.00505775,-0.431192,0.00348561,0.0407801,1875,953,21.7121,-2.59023
658,71,21.8864,2.67645,-0.000856729,-0.00276566,-0.00149966,-3.35575e-05,-0.00358883,-0.502002,0.00238145,0.0376296,1882,953,21.8863,-2.67646
665,71,21.9326,2.74512,-0.00173361,-0.00157981,-0.000842617,-0.000810592,-0.00250283,-0.830903,0.00147459,0.0395386,1889,953,21.9327,-2.74513
672,71,21.9775,2.81403,-0.00276487,-0.000632947,-0.000147578,-0.00062278,-0.00277503,-1.50201,0.00168133,0.0410646,1896,953,21.9775,-2.81403
679,71,21.8986,2.56757,-0.0037089,-3.96408e-06,0.000451546,5.02749e-05,-0.00376314,1.45125,0.00252568,0.0404802,1903,953,21.8985,-2.56754
686,71,21.775,2.45367,-0.00442903,0.000367487,0.000843717,0.000511571,-0.00457312,1.40166,0.00323279,0.0382955,1910,953,21.775,-2.45367
693,71,21.8014,2.57196,-0.0046837,0.000707278,0.00109277,0.000920364,-0.00489679,1.37822,0.00361063,0.0349312,1917,953,21.8014,-2.57195
700,71,21.774,2.71167,-0.00481881,0.000929745,0.0012615,0.00119439,-0.00508345,1.36401,0.00384937,0.0309636,1924,953,21.774,-2.71166
707,71,21.803,2.83789,0,0,0,0,0,0,0,-1,1931,953,21.8029,-2.83789
714,71,20.7788,3.57996,0,0,0,0,0,0,0,-1,1938,953,20.7788,-3.57996
721,71,20.6598,3.6604,-0.00429229,0.00122646,0.00117756,0.00146722,-0.00453305,1.36912,0.00361185,0.0309091,1945,953,20.6598,-3.66041
728,71,20.583,3.8252,-0.00379986,0.00136548,0.00110418,0.00159161,-0.004026,1.36879,0.0033433,0.0190805,1952,953,20.583,-3.82519
735,71,20.6001,3.91046,-0.00352948,0.00154612,0.00112369,0.00178377,-0.00376712,1.36238,0.00327229,0.0123699,1959,953,20.6002,-3.91047
742,71,20.6049,4.01575,-0.00323223,0.00200423,0.00112302,0.00223491,-0.00346292,1.3682,0.00331501,0.0127284,1966,953,20.6048,-4.01575
749,71,20.5917,4.13239,-0.00317594,0.00277511,0.00125452,0.00302876,-0.00342958,1.3713,0.00373112,0.0153458,1973,953,20.5916,-4.13238
756,71,20.5759,4.24817,-0.00357401,0.00387616,0.00180154,0.00428892,-0.00398678,1.34557,0.00477904,0.0162483,1980,953,20.5759,-4.24817
763,71,20.5648,4.39136,-0.0045949,0.00529329,0.00283904,0.00605044,-0.00535206,1.31017,0.00658735,0.0139547,1987,953,20.5648,-4.39135
770,71,20.5411,4.49847,-0.00665241,0.00727466,0.00445947,0.0085802,-0.00795796,1.286,0.00955057,0.0151472,1994,953,20.5411,-4.4985
777,71,20.5906,4.60083,-0.00950387,0.00972924,0.00659984,0.0117761,-0.0115508,1.27006,0.013468,0.0336964,2001,953,20.5906,-4.60081
784,71,20.6802,4.76917,-0.01354,0.0128022,0.00949151,0.0158658,-0.0166036,1.25858,0.0187478,0.0463913,2008,953,20.6801,-4.76914
791,71,20.454,4.63342,0,0,0,0,0,0,0,-1,2015,953,20.454,-4.63341
798,71,17.9331,4.47559,0,0,0,0,0,0,0,-1,2022,953,17.9331,-4.47562
805,71,19.4341,2.76361,0,0,0,0,0,0,0,-1,2029,953,19.434,-2.76362
812,71,0,0,0,0,0,0,0,0,0,-1,2036,953,0,0
-700,64,0,0,0,0,0,0,0,0,0,-1,524,960,0,0
-693,64,0,0,0,0,0,0,0,0,0,-1,531,960,0,0
-686,64,-16.4142,2.55402,0.0895106,0.129735,-0.00368437,0.13007,0.0891759,-1.4802,0.0768009,0.0466241,538,960,-16.4142,-2.55404
-679,64,-16.4124,2.50983,0.0777879,0.104685,-0.00445587,0.105404,0.077069,-1.41082,0.0629858,0.0445242,545,960,-16.4123,-2.50985
-672,64,-16.1816,2.23193,0.0651986,0.0827578,-0.00432698,0.0837661,0.0641902,-1.34184,0.0505973,0.0473929,552,960,-16.1817,-2.23192
-665,64,-15.9165,1.93671,0,0,0,0,0,0,0,-1,559,960,-15.9165,-1.93671
-658,64,-14.0945,1.51794,0,0,0,0,0,0,0,-1,566,960,-14.0945,-1.51793
-651,64,-13.9241,1.83807,0.0309838,0.0345613,-0.00224157,0.0356403,0.0299047,-1.12216,0.0220979,0.0442546,573,960,-13.9241,-1.83809
-644,64,-13.6925,1.99292,0.0223103,0.0241411,-0.00155009,0.0250259,0.0214255,-1.05211,0.0156227,0.031725,580,960,-13.6925,-1.99295
-637,64,-13.6888,2.00232,0.0152419,0.016196,-0.00145369,0.0172489,0.014189,-0.943949,0.0106272,0.015521,587,960,-13.6889,-2.00231
-630,64,-13.7312,1.93182,0.0095354,0.00848144,-0.00106723,0.0101987,0.00781817,-0.556068,0.00616087,0.012354,594,960,-13.7312,-1.93181
-623,64,-13.7453,1.83276,0.00404154,0.00444559,-0.000517551,0.00479915,0.00368798,-0.971478,0.00290087,0.012719,601,960,-13.7453,-1.83275
-616,64,-13.7495,1.73218,-0.00011201,0.0028077,-0.000623759,0.00293537,-0.000239685,-1.3689,0.00204151,0.0156555,608,960,-13.7495,-1.73218
-609,64,-13.7331,1.65912,-0.00230951,0.00203491,-0.000980101,0.00224579,-0.00252039,-1.35887,0.00275327,0.0147537,615,960,-13.7331,-1.6591
-602,64,-13.7213,1.56744,-0.00395523,0.00161481,-0.000999639,0.00178878,-0.0041292,-1.39849,0.00350468,0.0154074,622,960,-13.7213,-1.56741
-595,64,-13.7214,1.47815,-0.00509575,0.0012392,-0.00113163,0.00143528,-0.00529183,-1.39923,0.00409112,0.0162123,629,960,-13.7214,-1.47818
-588,64,-13.7138,1.46899,-0.00591984,0.00115686,-0.00129919,0.00138783,-0.00615082,-1.39485,0.00463297,0.0226059,636,960,-13.7138,-1.469
-581,64,-13.8796,1.30682,-0.00645622,0.00119245,-0.00147371,0.00146657,-0.00673035,-1.38689,0.00504728,0.0295502,643,960,-13.8797,-1.30683
-574,64,-14.1641,1.15289,-0.00661522,0.00126885,-0.00169922,0.00161948,-0.00696586,-1.3673,0.00526738,0.0316141,650,960,-14.1641,-1.15289
-567,64,-14.2282,0.894165,-0.00652068,0.0013705,-0.00178841,0.0017569,-0.00690708,-1.35801,0.00528854,0.0243273,657,960,-14.2282,-0.894173
-560,64,-14.3017,0.903931,-0.00604124,0.0014572,-0.00186665,0.00189618,-0.00648022,-1.33982,0.00507177,0.0321898,664,960,-14.3017,-0.903946
-553,64,-14.374,0.989624,-0.00515767,0.00155511,-0.00200393,0.00210783,-0.00571038,-1.30167,0.00467085,0.0364959,671,960,-14.374,-0.989628
-546,64,-14.3432,1.04358,-0.00388876,0.0016161,-0.00223732,0.00241071,-0.00468337,-1.22953,0.00416524,0.0376994,678,960,-14.3432,-1.04355
-539,64,-14.3658,0.930786,-0.00231346,0.0016108,-0.00263598,0.00293475,-0.00363742,-1.10534,0.00380166,0.0399173,685,960,-14.3658,-0.930794
-532,64,-14.4913,0.888245,-0.000759686,0.00155518,-0.00337111,0.00396203,-0.00316653,-0.950762,0.00412421,0.0424444,692,960,-14.4914,-0.888251
-525,64,-14.4097,0.730652,-0.000302449,0.0015627,-0.00464157,0.00536446,-0.0041042,-0.884537,0.00548285,0.0420729,699,960,-14.4097,-0.730629
-518,64,0,0,0,0,0,0,0,0,0,-1,706,960,0,0
-511,64,0,0,0,0,0,0,0,0,0,-1,713,960,0,0
-504,64,0,0,0,0,0,0,0,0,0,-1,720,960,0,0
-497,64,0,0,0,0,0,0,0,0,0,-1,727,960,0,0
-490,64,0,0,0,0,0,0,0,0,0,-1,734,960,0,0
-483,64,0,0,0,0,0,0,0,0,0,-1,741,960,0,0
-476,64,0,0,0,0,0,0,0,0,0,-1,748,960,0,0
-469,64,0,0,0,0,0,0,0,0,0,-1,755,960,0,0
-462,64,0,0,0,0,0,0,0,0,0,-1,762,960,0,0
-455,64,0,0,0,0,0,0,0,0,0,-1,769,960,0,0
-448,64,0,0,0,0,0,0,0,0,0,-1,776,960,0,0
-441,64,0,0,0,0,0,0,0,0,0,-1,783,960,0,0
-434,64,0,0,0,0,0,0,0,0,0,-1,790,960,0,0
-427,64,0,0,0,0,0,0,0,0,0,-1,797,960,0,0
-420,64,0,0,0,0,0,0,0,0,0,-1,804,960,0,0
-413,64,0,0,0,0,0,0,0,0,0,-1,811,960,0,0
-406,64,0,0,0,0,0,0,0,0,0,-1,818,960,0,0
-399,64,0,0,0,0,0,0,0,0,0,-1,825,960,0,0
-392,64,0,0,0,0,0,0,0,0,0,-1,832,960,0,0
-385,64,0,0,0,0,0,0,0,0,0,-1,839,960,0,0
-378,64,0,0,0,0,0,0,0,0,0,-1,846,960,0,0
-371,64,0,0,0,0,0,0,0,0,0,-1,853,960,0,0
-364,64,0,0,0,0,0,0,0,0,0,-1,860,960,0,0
-357,64,0,0,0,0,0,0,0,0,0,-1,867,960,0,0
-350,64,0,0,0,0,0,0,0,0,0,-1,874,960,0,0
-343,64,0,0,0,0,0,0,0,0,0,-1,881,960,0,0
-336,64,0,0,0,0,0,0,0,0,0,-1,888,960,0,0
-329,64,0,0,0,0,0,0,0,0,0,-1,895,960,0,0
-322,64,0,0,0,0,0,0,0,0,0,-1,902,960,0,0
-315,64,0,0,0,0,0,0,0,0,0,-1,909,960,0,0
-308,64,0,0,0,0,0,0,0,0,0,-1,916,960,0,0
-301,64,0,0,0,0,0,0,0,0,0,-1,923,960,0,0
-294,64,0,0,0,0,0,0,0,0,0,-1,930,960,0,0
-287,64,0,0,0,0,0,0,0,0,0,-1,937,960,0,0
-280,64,0,0,0,0,0,0,0,0,0,-1,944,960,0,0
-273,64,0,0,0,0,0,0,0,0,0,-1,951,960,0,0
-266,64,0,0,0,0,0,0,0,0,0,-1,958,960,0,0
-259,64,0,0,0,0,0,0,0,0,0,-1,965,960,0,0
-252,64,0,0,0,0,0,0,0,0,0,-1,972,960,0,0
-245,64,0,0,0,0,0,0,0,0,0,-1,979,960,0,0
-238,64,0,0,0,0,0,0,0,0,0,-1,986,960,0,0
-231,64,0,0,0,0,0,0,0,0,0,-1,993,960,0,0
-224,64,0,0,0,0,0,0,0,0,0,-1,1000,960,0,0
-217,64,0,0,0,0,0,0,0,0,0,-1,1007,960,0,0
-210,64,0,0,0,0,0,0,0,0,0,-1,1014,960,0,0
-203,64,0,0,0,0,0,0,0,0,0,-1,1021,960,0,0
-196,64,0,0,0,0,0,0,0,0,0,-1,1028,960,0,0
-189,64,0,0,0,0,0,0,0,0,0,-1,1035,960,0,0
-182,64,0,0,0,0,0,0,0,0,0,-1,1042,960,0,0
-175,64,0,0,0,0,0,0,0,0,0,-1,1049,960,0,0
-168,64,0,0,0,0,0,0,0,0,0,-1,1056,960,0,0
-161,64,0,0,0,0,0,0,0,0,0,-1,1063,960,0,0
-154,64,0,0,0,0,0,0,0,0,0,-1,1070,960,0,0
-147,64,0,0,0,0,0,0,0,0,0,-1,1077,960,0,0
-140,64,0,0,0,0,0,0,0,0,0,-1,1084,960,0,0
-133,64,0,0,0,0,0,0,0,0,0,-1,1091,960,0,0
-126,64,0,0,0,0,0,0,0,0,0,-1,1098,960,0,0
-119,64,0,0,0,0,0,0,0,0,0,-1,1105,960,0,0
-112,64,0,0,0,0,0,0,0,0,0,-1,1112,960,0,0
-105,64,0,0,0,0,0,0,0,0,0,-1,1119,960,0,0
-98,64,0,0,0,0,0,0,0,0,0,-1,1126,960,0,0
-91,64,0,0,0,0,0,0,0,0,0,-1,1133,960,0,0
-84,64,0,0,0,0,0,0,0,0,0,-1,1140,960,0,0
-77,64,0,0,0,0,0,0,0,0,0,-1,1147,960,0,0
-70,64,0,0,0,0,0,0,0,0,0,-1,1154,960,0,0
-63,64,0,0,0,0,0,0,0,0,0,-1,1161,960,0,0
-56,64,0,0,0,0,0,0,0,0,0,-1,1168,960,0,0
-49,64,0,0,0,0,0,0,0,0,0,-1,1175,960,0,0
-42,64,0,0,0,0,0,0,0,0,0,-1,1182,960,0,0
-35,64,0,0,0,0,0,0,0,0,0,-1,1189,960,0,0
-28,64,0,0,0,0,0,0,0,0,0,-1,1196,960,0,0
-21,64,0,0,0,0,0,0,0,0,0,-1,1203,960,0,0
-14,64,0,0,0,0,0,0,0,0,0,-1,1210,960,0,0
-7,64,0,0,0,0,0,0,0,0,0,-1,1217,960,0,0
0,64,0,0,0,0,0,0,0,0,0,-1,1224,960,0,0
7,64,0,0,0,0,0,0,0,0,0,-1,1231,960,0,0
14,64,0,0,0,0,0,0,0,0,0,-1,1238,960,0,0
21,64,0,0,0,0,0,0,0,0,0,-1,1245,960,0,0
28,64,0,0,0,0,0,0,0,0,0,-1,1252,960,0,0
35,64,0,0,0,0,0,0,0,0,0,-1,1259,960,0,0
42,64,0,0,0,0,0,0,0,0,0,-1,1266,960,0,0
49,64,0,0,0,0,0,0,0,0,0,-1,1273,960,0,0
56,64,0,0,0,0,0,0,0,0,0,-1,1280,960,0,0
63,64,0,0,0,0,0,0,0,0,0,-1,1287,960,0,0
70,64,0,0,0,0,0,0,0,0,0,-1,1294,960,0,0
77,64,0,0,0,0,0,0,0,0,0,-1,1301,960,0,0
84,64,0,0,0,0,0,0,0,0,0,-1,1308,960,0,0
91,64,0,0,0,0,0,0,0,0,0,-1,1315,960,0,0
98,64,0,0,0,0,0,0,0,0,0,-1,1322,960,0,0
105,64,0,0,0,0,0,0,0,0,0,-1,1329,960,0,0
112,64,0,0,0,0,0,0,0,0,0,-1,1336,960,0,0
119,64,0,0,0,0,0,0,0,0,0,-1,1343,960,0,0
126,64,0,0,0,0,0,0,0,0,0,-1,1350,960,0,0
133,64,0,0,0,0,0,0,0,0,0,-1,1357,960,0,0
140,64,0,0,0,0,0,0,0,0,0,-1,1364,960,0,0
147,64,0,0,0,0,0,0,0,0,0,-1,1371,960,0,0
154,64,0,0,0,0,0,0,0,0,0,-1,1378,960,0,0
161,64,0,0,0,0,0,0,0,0,0,-1,1385,960,0,0
168,64,0,0,0,0,0,0,0,0,0,-1,1392,960,0,0
175,64,0,0,0,0,0,0,0,0,0,-1,1399,960,0,0
182,64,0,0,0,0,0,0,0,0,0,-1,1406,960,0,0
189,64,0,0,0,0,0,0,0,0,0,-1,1413,960,0,0
196,64,0,0,0,0,0,0,0,0,0,-1,1420,960,0,0
203,64,0,0,0,0,0,0,0,0,0,-1,1427,960,0,0
210,64,0,0,0,0,0,0,0,0,0,-1,1434,960,0,0
217,64,0,0,0,0,0,0,0,0,0,-1,1441,960,0,0
224,64,0,0,0,0,0,0,0,0,0,-1,1448,960,0,0
231,64,0,0,0,0,0,0,0,0,0,-1,1455,960,0,0
238,64,0,0,0,0,0,0,0,0,0,-1,1462,960,0,0
245,64,0,0,0,0,0,0,0,0,0,-1,1469,960,0,0
252,64,0,0,0,0,0,0,0,0,0,-1,1476,960,0,0
259,64,0,0,0,0,0,0,0,0,0,-1,1483,960,0,0
266,64,0,0,0,0,0,0,0,0,0,-1,1490,960,0,0
273,64,0,0,0,0,0,0,0,0,0,-1,1497,960,0,0
280,64,0,0,0,0,0,0,0,0,0,-1,1504,960,0,0
287,64,0,0,0,0,0,0,0,0,0,-1,1511,960,0,0
294,64,0,0,0,0,0,0,0,0,0,-1,1518,960,0,0
301,64,0,0,0,0,0,0,0,0,0,-1,1525,960,0,0
308,64,0,0,0,0,0,0,0,0,0,-1,1532,960,0,0
315,64,0,0,0,0,0,0,0,0,0,-1,1539,960,0,0
322,64,0,0,0,0,0,0,0,0,0,-1,1546,960,0,0
329,64,0,0,0,0,0,0,0,0,0,-1,1553,960,0,0
336,64,0,0,0,0,0,0,0,0,0,-1,1560,960,0,0
343,64,0,0,0,0,0,0,0,0,0,-1,1567,960,0,0
350,64,0,0,0,0,0,0,0,0,0,-1,1574,960,0,0
357,64,0,0,0,0,0,0,0,0,0,-1,1581,960,0,0
364,64,0,0,0,0,0,0,0,0,0,-1,1588,960,0,0
371,64,0,0,0,0,0,0,0,0,0,-1,1595,960,0,0
378,64,0,0,0,0,0,0,0,0,0,-1,1602,960,0,0
385,64,0,0,0,0,0,0,0,0,0,-1,1609,960,0,0
392,64,0,0,0,0,0,0,0,0,0,-1,1616,960,0,0
399,64,0,0,0,0,0,0,0,0,0,-1,1623,960,0,0
406,64,0,0,0,0,0,0,0,0,0,-1,1630,960,0,0
413,64,0,0,0,0,0,0,0,0,0,-1,1637,960,0,0
420,64,0,0,0,0,0,0,0,0,0,-1,1644,960,0,0
427,64,0,0,0,0,0,0,0,0,0,-1,1651,960,0,0
434,64,0,0,0,0,0,0,0,0,0,-1,1658,960,0,0
441,64,0,0,0,0,0,0,0,0,0,-1,1665,960,0,0
448,64,0,0,0,0,0,0,0,0,0,-1,1672,960,0,0
455,64,0,0,0,0,0,0,0,0,0,-1,1679,960,0,0
462,64,0,0,0,0,0,0,0,0,0,-1,1686,960,0,0
469,64,0,0,0,0,0,0,0,0,0,-1,1693,960,0,0
476,64,0,0,0,0,0,0,0,0,0,-1,1700,960,0,0
483,64,0,0,0,0,0,0,0,0,0,-1,1707,960,0,0
490,64,0,0,0,0,0,0,0,0,0,-1,1714,960,0,0
497,64,0,0,0,0,0,0,0,0,0,-1,1721,960,0,0
504,64,0,0,0,0,0,0,0,0,0,-1,1728,960,0,0
511,64,0,0,0,0,0,0,0,0,0,-1,1735,960,0,0
518,64,0,0,0,0,0,0,0,0,0,-1,1742,960,0,0
525,64,0,0,0,0,0,0,0,0,0,-1,1749,960,0,0
532,64,0,0,0,0,0,0,0,0,0,-1,1756,960,0,0
539,64,0,0,0,0,0,0,0,0,0,-1,1763,960,0,0
546,64,0,0,0,0,0,0,0,0,0,-1,1770,960,0,0
553,64,0,0,0,0,0,0,0,0,0,-1,1777,960,0,0
560,64,0,0,0,0,0,0,0,0,0,-1,1784,960,0,0
567,64,0,0,0,0,0,0,0,0,0,-1,1791,960,0,0
574,64,0,0,0,0,0,0,0,0,0,-1,1798,960,0,0
581,64,0,0,0,0,0,0,0,0,0,-1,1805,960,0,0
588,64,0,0,0,0,0,0,0,0,0,-1,1812,960,0,0
595,64,0,0,0,0,0,0,0,0,0,-1,1819,960,0,0
602,64,0,0,0,0,0,0,0,0,0,-1,1826,960,0,0
609,64,0,0,0,0,0,0,0,0,0,-1,1833,960,0,0
616,64,0,0,0,0,0,0,0,0,0,-1,1840,960,0,0
623,64,0,0,0,0,0,0,0,0,0,-1,1847,960,0,0
630,64,0,0,0,0,0,0,0,0,0,-1,1854,960,0,0
637,64,0,0,0,0,0,0,0,0,0,-1,1861,960,0,0
644,64,21.6908,2.81311,-0.00108774,-0.00508285,-0.00289524,0.00043218,-0.00660277,-0.483426,0.00455275,0.0416434,1868,960,21.6908,-2.81311
651,64,21.8248,2.69397,-0.000438931,-0.00349355,-0.00244951,0.000920411,-0.00485289,-0.506632,0.0035817,0.0397842,1875,960,21.8249,-2.69395
658,64,21.9194,2.56635,-0.000382635,-0.00232396,-0.00174346,0.00064216,-0.00334875,-0.531395,0.00247449,0.0362939,1882,960,21.9194,-2.56633
665,64,21.8071,2.66785,-0.000902201,-0.00130402,-0.000908384,-0.000172772,-0.00203344,-0.676565,0.00130187,0.0371928,1889,960,21.8072,-2.66785
672,64,21.8138,2.52271,-0.00161215,-0.000444144,-1.94422e-05,-0.00044382,-0.00161247,-1.55416,0.000961801,0.0425068,1896,960,21.8138,-2.5227
679,64,21.7234,2.40454,-0.00233857,0.000143917,0.00074567,0.000350676,-0.00254533,1.30031,0.00182504,0.0419351,1903,960,21.7234,-2.40454
686,64,21.6047,2.48083,-0.00291736,0.000510513,0.00127038,0.00092999,-0.00333684,1.25187,0.00259081,0.0372082,1910,960,21.6047,-2.48082
693,64,21.677,2.61768,-0.00314982,0.000829772,0.00159294,0.00138885,-0.0037089,1.23326,0.00304309,0.0347165,1917,960,21.677,-2.61771
700,64,21.8177,2.73157,-0.00334798,0.00103279,0.00178438,0.00166762,-0.0039828,1.22899,0.00335231,0.0306891,1924,960,21.8177,-2.73157
707,64,21.7697,2.91534,-0.00358045,0.00112831,0.00187453,0.00178341,-0.00423555,1.23459,0.00356988,0.0358162,1931,960,21.7696,-2.91533
714,64,21.73,3.31384,0,0,0,0,0,0,0,-1,1938,960,21.73,-3.31384
721,64,20.666,3.71527,0,0,0,0,0,0,0,-1,1945,960,20.666,-3.7153
728,64,20.689,3.83563,-0.00314651,0.00150623,0.00155031,0.00197547,-0.00361575,1.27688,0.00327407,0.0148273,1952,960,20.689,-3.83564
735,64,20.7061,3.93994,-0.00321509,0.00171718,0.0015186,0.00214725,-0.00364515,1.29482,0.00338131,0.0178463,1959,960,20.706,-3.93994
742,64,20.7234,4.01862,-0.00334557,0.00225128,0.00140196,0.00258282,-0.00367711,1.33858,0.00363253,0.0157166,1966,960,20.7234,-4.0186
749,64,20.6931,4.12891,-0.00377327,0.00311094,0.00139062,0.00338124,-0.00404357,1.37882,0.0042924,0.012168,1973,960,20.6932,-4.12889
756,64,20.6842,4.25488,-0.00474139,0.00429799,0.00180503,0.0046451,-0.0050885,1.38081,0.00562164,0.014181,1980,960,20.6842,-4.25491
763,64,20.6759,4.38104,-0.00620911,0.00582905,0.00267813,0.00639796,-0.00677802,1.36148,0.00760821,0.0137948,1987,960,20.6759,-4.38104
770,64,20.6433,4.47595,-0.00868007,0.00801988,0.00411109,0.00897706,-0.00963726,1.34204,0.0107492,0.0130024,1994,960,20.6433,-4.47596
777,64,20.624,4.62482,-0.0118778,0.010754,0.00605158,0.0122705,-0.0133944,1.32525,0.0148224,0.0298425,2001,960,20.624,-4.6248
784,64,20.4138,4.95679,-0.0161928,0.0141667,0.00871247,0.0164893,-0.0185154,1.31027,0.0202212,0.0448122,2008,960,20.4138,-4.95678
791,64,20.0894,5.22186,0,0,0,0,0,0,0,-1,2015,960,20.0893,-5.22187
798,64,18.822,5.1142,0,0,0,0,0,0,0,-1,2022,960,18.8221,-5.11421
805,64,18.6002,5.62445,0,0,0,0,0,0,0,-1,2029,960,18.6002,-5.62446
812,64,0,0,0,0,0,0,0,0,0,-1,2036,960,0,0
-700,57,0,0,0,0,0,0,0,0,0,-1,524,967,0,0
-693,57,0,0,0,0,0,0,0,0,0,-1,531,967,0,0
-686,57,-17.3119,2.59778,0.0860616,0.136127,-0.0025365,0.136256,0.0859334,-1.52031,0.0795577,0.045977,538,967,-17.3119,-2.59779
-679,57,-16.9686,2.18121,0.0736929,0.110088,-0.0029439,0.110324,0.0734563,-1.4906,0.0648528,0.0430126,545,967,-16.9686,-2.18122
-672,57,-13.53,1.53552,0.0610084,0.0872557,-0.00268774,0.0875281,0.060736,-1.46979,0.0517855,0.0447633,552,967,-13.5299,-1.5355
-665,57,-13.1308,2.54718,0,0,0,0,0,0,0,-1,559,967,-13.1308,-2.54718
-658,57,-13.9388,1.86023,0,0,0,0,0,0,0,-1,566,967,-13.9388,-1.86023
-651,57,-13.8963,1.91193,0.0279514,0.0369354,-0.000899275,0.0370246,0.0278622,-1.47201,0.0222664,0.0438769,573,967,-13.8963,-1.91194
-644,57,-13.7814,1.93115,0.0198267,0.0259678,-0.000437976,0.0259989,0.0197956,-1.49996,0.0156794,0.0281572,580,967,-13.7814,-1.93118
-637,57,-13.7833,1.94153,0.0131881,0.0175545,-0.000597449,0.0176347,0.0131079,-1.43724,0.0105756,0.0150473,587,967,-13.7833,-1.94156
-630,57,-13.8248,1.88763,0.00787448,0.00936335,-0.000451605,0.00948962,0.00774821,-1.29815,0.00583324,0.0121975,594,967,-13.8248,-1.88762
-623,57,-13.828,1.81268,0.00291024,0.00500131,-0.000132272,0.00500964,0.0029019,-1.50787,0.00290441,0.011969,601,967,-13.828,-1.81266
-616,57,-13.8268,1.7442,-0.000763736,0.00328765,-0.000542942,0.00335915,-0.000835236,-1.43986,0.00256361,0.0137668,608,967,-13.8268,-1.74422
-609,57,-13.8332,1.63708,-0.00251088,0.00240374,-0.001176,0.00267064,-0.00277778,-1.34762,0.00314585,0.0132228,615,967,-13.8332,-1.63708
-602,57,-13.8256,1.55463,-0.00376508,0.00190646,-0.00137912,0.00222403,-0.00408266,-1.34447,0.0036935,0.0099525,622,967,-13.8256,-1.55462
-595,57,-13.805,1.50787,-0.00465877,0.00155865,-0.00159454,0.00194374,-0.00504386,-1.33383,0.00416454,0.0109145,629,967,-13.805,-1.5079
-588,57,-13.8329,1.50427,-0.00530144,0.00144285,-0.00180794,0.00189693,-0.00575552,-1.32473,0.00460155,0.0168333,636,967,-13.8329,-1.50428
-581,57,-14.0167,1.2652,-0.00570051,0.00144952,-0.00199627,0.00196911,-0.00622011,-1.31616,0.00493582,0.0248847,643,967,-14.0168,-1.26519
-574,57,-14.2171,0.953064,-0.00579567,0.00150416,-0.00220073,0.0021163,-0.0064078,-1.2995,0.00512508,0.0280911,650,967,-14.2171,-0.953054
-567,57,-14.2358,0.797241,-0.00565154,0.00156377,-0.00225339,0.00220969,-0.00629746,-1.29164,0.00509711,0.0326403,657,967,-14.2359,-0.797243
-560,57,-14.3036,0.915833,-0.00517112,0.00162861,-0.00229264,0.00232939,-0.0058719,-1.27415,0.00488003,0.0395702,664,967,-14.3037,-0.915854
-553,57,-14.2994,1.01794,-0.00433548,0.00165684,-0.00237278,0.0024826,-0.00516124,-1.23589,0.00450259,0.0389522,671,967,-14.2994,-1.01793
-546,57,-14.2386,1.14868,-0.00318448,0.00161848,-0.00257058,0.00273481,-0.00430081,-1.1611,0.00409542,0.0402146,678,967,-14.2386,-1.14869
-539,57,-14.2941,1.15778,-0.00181245,0.00149064,-0.00299604,0.00326018,-0.00358199,-1.0373,0.00395179,0.0413805,685,967,-14.2941,-1.15778
-532,57,-14.3448,0.942505,-0.000624796,0.00133685,-0.0039095,0.00438669,-0.00367463,-0.908303,0.00466025,0.040455,692,967,-14.3448,-0.942515
-525,57,-14.2964,0.51123,-0.000727512,0.001291,-0.00558286,0.00595509,-0.0053916,-0.874821,0.00655371,0.0420991,699,967,-14.2964,-0.511237
-518,57,0,0,0,0,0,0,0,0,0,-1,706,967,0,0
-511,57,0,0,0,0,0,0,0,0,0,-1,713,967,0,0
-504,57,0,0,0,0,0,0,0,0,0,-1,720,967,0,0
-497,57,0,0,0,0,0,0,0,0,0,-1,727,967,0,0
-490,57,0,0,0,0,0,0,0,0,0,-1,734,967,0,0
-483,57,0,0,0,0,0,0,0,0,0,-1,741,967,0,0
-476,57,0,0,0,0,0,0,0,0,0,-1,748,967,0,0
-469,57,0,0,0,0,0,0,0,0,0,-1,755,967,0,0
-462,57,0,0,0,0,0,0,0,0,0,-1,762,967,0,0
-455,57,0,0,0,0,0,0,0,0,0,-1,769,967,0,0
-448,57,0,0,0,0,0,0,0,0,0,-1,776,967,0,0
-441,57,0,0,0,0,0,0,0,0,0,-1,783,967,0,0
-434,57,0,0,0,0,0,0,0,0,0,-1,790,967,0,0
-427,57,0,0,0,0,0,0,0,0,0,-1,797,967,0,0
-420,57,0,0,0,0,0,0,0,0,0,-1,804,967,0,0
-413,57,0,0,0,0,0,0,0,0,0,-1,811,967,0,0
-406,57,0,0,0,0,0,0,0,0,0,-1,818,967,0,0
-399,57,0,0,0,0,0,0,0,0,0,-1,825,967,0,0
-392,57,0,0,0,0,0,0,0,0,0,-1,832,967,0,0
-385,57,0,0,0,0,0,0,0,0,0,-1,839,967,0,0
-378,57,0,0,0,0,0,0,0,0,0,-1,846,967,0,0
-371,57,0,0,0,0,0,0,0,0,0,-1,853,967,0,0
-364,57,0,0,0,0,0,0,0,0,0,-1,860,967,0,0
-357,57,0,0,0,0,0,0,0,0,0,-1,867,967,0,0
-350,57,0,0,0,0,0,0,0,0,0,-1,874,967,0,0
-343,57,0,0,0,0,0,0,0,0,0,-1,881,967,0,0
-336,57,0,0,0,0,0,0,0,0,0,-1,888,967,0,0
-329,57,0,0,0,0,0,0,0,0,0,-1,895,967,0,0
-322,57,0,0,0,0,0,0,0,0,0,-1,902,967,0,0
-315,57,0,0,0,0,0,0,0,0,0,-1,909,967,0,0
-308,57,0,0,0,0,0,0,0,0,0,-1,916,967,0,0
-301,57,0,0,0,0,0,0,0,0,0,-1,923,967,0,0
-294,57,0,0,0,0,0,0,0,0,0,-1,930,967,0,0
-287,57,0,0,0,0,0,0,0,0,0,-1,937,967,0,0
-280,57,0,0,0,0,0,0,0,0,0,-1,944,967,0,0
-273,57,0,0,0,0,0,0,0,0,0,-1,951,967,0,0
-266,57,0,0,0,0,0,0,0,0,0,-1,958,967,0,0
-259,57,0,0,0,0,0,0,0,0,0,-1,965,967,0,0
-252,57,0,0,0,0,0,0,0,0,0,-1,972,967,0,0
-245,57,0,0,0,0,0,0,0,0,0,-1,979,967,0,0
-238,57,0,0,0,0,0,0,0,0,0,-1,986,967,0,0
-231,57,0,0,0,0,0,0,0,0,0,-1,993,967,0,0
-224,57,0,0,0,0,0,0,0,0,0,-1,1000,967,0,0
-217,57,0,0,0,0,0,0,0,0,0,-1,1007,967,0,0
-210,57,0,0,0,0,0,0,0,0,0,-1,1014,967,0,0
-203,57,0,0,0,0,0,0,0,0,0,-1,1021,967,0,0
-196,57,0,0,0,0,0,0,0,0,0,-1,1028,967,0,0
-189,57,0,0,0,0,0,0,0,0,0,-1,1035,967,0,0
-182,57,0,0,0,0,0,0,0,0,0,-1,1042,967,0,0
-175,57,0,0,0,0,0,0,0,0,0,-1,1049,967,0,0
-168,57,0,0,0,0,0,0,0,0,0,-1,1056,967,0,0
-161,57,0,0,0,0,0,0,0,0,0,-1,1063,967,0,0
-154,57,0,0,0,0,0,0,0,0,0,-1,1070,967,0,0
-147,57,0,0,0,0,0,0,0,0,0,-1,1077,967,0,0
-140,57,0,0,0,0,0,0,0,0,0,-1,1084,967,0,0
-133,57,0,0,0,0,0,0,0,0,0,-1,1091,967,0,0
-126,57,0,0,0,0,0,0,0,0,0,-1,1098,967,0,0
-119,57,0,0,0,0,0,0,0,0,0,-1,1105,967,0,0
-112,57,0,0,0,0,0,0,0,0,0,-1,1112,967,0,0
-105,57,0,0,0,0,0,0,0,0,0,-1,1119,967,0,0
-98,57,0,0,0,0,0,0,0,0,0,-1,1126,967,0,0
-91,57,0,0,0,0,0,0,0,0,0,-1,1133,967,0,0
-84,57,0,0,0,0,0,0,0,0,0,-1,1140,967,0,0
-77,57,0,0,0,0,0,0,0,0,0,-1,1147,967,0,0
-70,57,0,0,0,0,0,0,0,0,0,-1,1154,967,0,0
-63,57,0,0,0,0,0,0,0,0,0,-1,1161,967,0,0
-56,57,0,0,0,0,0,0,0,0,0,-1,1168,967,0,0
-49,57,0,0,0,0,0,0,0,0,0,-1,1175,967,0,0
-42,57,0,0,0,0,0,0,0,0,0,-1,1182,967,0,0
-35,57,0,0,0,0,0,0,0,0,0,-1,1189,967,0,0
-28,57,0,0,0,0,0,0,0,0,0,-1,1196,967,0,0
-21,57,0,0,0,0,0,0,0,0,0,-1,1203,967,0,0
-14,57,0,0,0,0,0,0,0,0,0,-1,1210,967,0,0
-7,57,0,0,0,0,0,0,0,0,0,-1,1217,967,0,0
0,57,0,0,0,0,0,0,0,0,0,-1,1224,967,0,0
7,57,0,0,0,0,0,0,0,0,0,-1,1231,967,0,0
14,57,0,0,0,0,0,0,0,0,0,-1,1238,967,0,0
21,57,0,0,0,0,0,0,0,0,0,-1,1245,967,0,0
28,57,0,0,0,0,0,0,0,0,0,-1,1252,967,0,0
35,57,0,0,0,0,0,0,0,0,0,-1,1259,967,0,0
42,57,0,0,0,0,0,0,0,0,0,-1,1266,967,0,0
49,57,0,0,0,0,0,0,0,0,0,-1,1273,967,0,0
56,57,0,0,0,0,0,0,0,0,0,-1,1280,967,0,0
63,57,0,0,0,0,0,0,0,0,0,-1,1287,967,0,0
70,57,0,0,0,0,0,0,0,0,0,-1,1294,967,0,0
77,57,0,0,0,0,0,0,0,0,0,-1,1301,967,0,0
84,57,0,0,0,0,0,0,0,0,0,-1,1308,967,0,0
91,57,0,0,0,0,0,0,0,0,0,-1,1315,967,0,0
98,57,0,0,0,0,0,0,0,0,0,-1,1322,967,0,0
105,57,0,0,0,0,0,0,0,0,0,-1,1329,967,0,0
112,57,0,0,0,0,0,0,0,0,0,-1,1336,967,0,0
119,57,0,0,0,0,0,0,0,0,0,-1,1343,967,0,0
126,57,0,0,0,0,0,0,0,0,0,-1,1350,967,0,0
133,57,0,0,0,0,0,0,0,0,0,-1,1357,967,0,0
140,57,0,0,0,0,0,0,0,0,0,-1,1364,967,0,0
147,57,0,0,0,0,0,0,0,0,0,-1,1371,967,0,0
154,57,0,0,0,0,0,0,0,0,0,-1,1378,967,0,0
161,57,0,0,0,0,0,0,0,0,0,-1,1385,967,0,0
168,57,0,0,0,0,0,0,0,0,0,-1,1392,967,0,0
175,57,0,0,0,0,0,0,0,0,0,-1,1399,967,0,0
182,57,0,0,0,0,0,0,0,0,0,-1,1406,967,0,0
189,57,0,0,0,0,0,0,0,0,0,-1,1413,967,0,0
196,57,0,0,0,0,0,0,0,0,0,-1,1420,967,0,0
203,57,0,0,0,0,0,0,0,0,0,-1,1427,967,0,0
210,57,0,0,0,0,0,0,0,0,0,-1,1434,967,0,0
217,57,0,0,0,0,0,0,0,0,0,-1,1441,967,0,0
224,57,0,0,0,0,0,0,0,0,0,-1,1448,967,0,0
231,57,0,0,0,0,0,0,0,0,0,-1,1455,967,0,0
238,57,0,0,0,0,0,0,0,0,0,-1,1462,967,0,0
245,57,0,0,0,0,0,0,0,0,0,-1,1469,967,0,0
252,57,0,0,0,0,0,0,0,0,0,-1,1476,967,0,0
259,57,0,0,0,0,0,0,0,0,0,-1,1483,967,0,0
266,57,0,0,0,0,0,0,0,0,0,-1,1490,967,0,0
273,57,0,0,0,0,0,0,0,0,0,-1,1497,967,0,0
280,57,0,0,0,0,0,0,0,0,0,-1,1504,967,0,0
287,57,0,0,0,0,0,0,0,0,0,-1,1511,967,0,0
294,57,0,0,0,0,0,0,0,0,0,-1,1518,967,0,0
301,57,0,0,0,0,0,0,0,0,0,-1,1525,967,0,0
308,57,0,0,0,0,0,0,0,0,0,-1,1532,967,0,0
315,57,0,0,0,0,0,0,0,0,0,-1,1539,967,0,0
322,57,0,0,0,0,0,0,0,0,0,-1,1546,967,0,0
329,57,0,0,0,0,0,0,0,0,0,-1,1553,967,0,0
336,57,0,0,0,0,0,0,0,0,0,-1,1560,967,0,0
343,57,0,0,0,0,0,0,0,0,0,-1,1567,967,0,0
350,57,0,0,0,0,0,0,0,0,0,-1,1574,967,0,0
357,57,0,0,0,0,0,0,0,0,0,-1,1581,967,0,0
364,57,0,0,0,0,0,0,0,0,0,-1,1588,967,0,0
371,57,0,0,0,0,0,0,0,0,0,-1,1595,967,0,0
378,57,0,0,0,0,0,0,0,0,0,-1,1602,967,0,0
385,57,0,0,0,0,0,0,0,0,0,-1,1609,967,0,0
392,57,0,0,0,0,0,0,0,0,0,-1,1616,967,0,0
399,57,0,0,0,0,0,0,0,0,0,-1,1623,967,0,0
406,57,0,0,0,0,0,0,0,0,0,-1,1630,967,0,0
413,57,0,0,0,0,0,0,0,0,0,-1,1637,967,0,0
420,57,0,0,0,0,0,0,0,0,0,-1,1644,967,0,0
427,57,0,0,0,0,0,0,0,0,0,-1,1651,967,0,0
434,57,0,0,0,0,0,0,0,0,0,-1,1658,967,0,0
441,57,0,0,0,0,0,0,0,0,0,-1,1665,967,0,0
448,57,0,0,0,0,0,0,0,0,0,-1,1672,967,0,0
455,57,0,0,0,0,0,0,0,0,0,-1,1679,967,0,0
462,57,0,0,0,0,0,0,0,0,0,-1,1686,967,0,0
469,57,0,0,0,0,0,0,0,0,0,-1,1693,967,0,0
476,57,0,0,0,0,0,0,0,0,0,-1,1700,967,0,0
483,57,0,0,0,0,0,0,0,0,0,-1,1707,967,0,0
490,57,0,0,0,0,0,0,0,0,0,-1,1714,967,0,0
497,57,0,0,0,0,0,0,0,0,0,-1,1721,967,0,0
504,57,0,0,0,0,0,0,0,0,0,-1,1728,967,0,0
511,57,0,0,0,0,0,0,0,0,0,-1,1735,967,0,0
518,57,0,0,0,0,0,0,0,0,0,-1,1742,967,0,0
525,57,0,0,0,0,0,0,0,0,0,-1,1749,967,0,0
532,57,0,0,0,0,0,0,0,0,0,-1,1756,967,0,0
539,57,0,0,0,0,0,0,0,0,0,-1,1763,967,0,0
546,57,0,0,0,0,0,0,0,0,0,-1,1770,967,0,0
553,57,0,0,0,0,0,0,0,0,0,-1,1777,967,0,0
560,57,0,0,0,0,0,0,0,0,0,-1,1784,967,0,0
567,57,0,0,0,0,0,0,0,0,0,-1,1791,967,0,0
574,57,0,0,0,0,0,0,0,0,0,-1,1798,967,0,0
581,57,0,0,0,0,0,0,0,0,0,-1,1805,967,0,0
588,57,0,0,0,0,0,0,0,0,0,-1,1812,967,0,0
595,57,0,0,0,0,0,0,0,0,0,-1,1819,967,0,0
602,57,0,0,0,0,0,0,0,0,0,-1,1826,967,0,0
609,57,0,0,0,0,0,0,0,0,0,-1,1833,967,0,0
616,57,0,0,0,0,0,0,0,0,0,-1,1840,967,0,0
623,57,0,0,0,0,0,0,0,0,0,-1,1847,967,0,0
630,57,0,0,0,0,0,0,0,0,0,-1,1854,967,0,0
637,57,0,0,0,0,0,0,0,0,0,-1,1861,967,0,0
644,57,21.7,2.89807,-0.000781314,-0.0037621,-0.00320584,0.00126364,-0.00580706,-0.567811,0.00435414,0.0405652,1868,967,21.7,-2.89806
651,57,21.7922,2.76007,-0.000280953,-0.0025986,-0.00268754,0.00148695,-0.00436651,-0.58185,0.00351317,0.0342647,1875,967,21.7923,-2.76005
658,57,21.7971,2.63086,-0.000145714,-0.00179282,-0.00191787,0.00111795,-0.00305648,-0.582598,0.00249523,0.033498,1882,967,21.7972,-2.63087
665,57,21.7336,2.61169,-0.000467636,-0.00106173,-0.00101416,0.000292088,-0.00182145,-0.642934,0.00132246,0.041787,1889,967,21.7337,-2.61166
672,57,21.8514,2.43909,-0.000957626,-0.000381253,-2.78069e-05,-0.000379915,-0.000958965,-1.5227,0.000557624,0.0441547,1896,967,21.8515,-2.43909
679,57,21.7045,2.53607,-0.00153286,0.000121831,0.000843427,0.000475955,-0.00188698,1.17328,0.00144304,0.0412118,1903,967,21.7045,-2.53608
686,57,21.6748,2.60809,-0.00200543,0.000454814,0.0014806,0.00114963,-0.00270024,1.13203,0.00228203,0.0385862,1910,967,21.6749,-2.60807
693,57,21.7617,2.65808,-0.0022117,0.000755668,0.00187791,0.00166528,-0.00312131,1.11973,0.00280583,0.0334257,1917,967,21.7618,-2.65808
700,57,21.8333,2.71918,-0.00243434,0.000941821,0.00209604,0.00194502,-0.00343753,1.1244,0.00314719,0.025217,1924,967,21.8333,-2.71916
707,57,21.8016,2.84662,-0.00269255,0.00106673,0.00219109,0.00207394,-0.00369976,1.13992,0.00337721,0.038519,1931,967,21.8017,-2.84662
714,57,21.646,3.62592,0,0,0,0,0,0,0,-1,1938,967,21.646,-3.62591
721,57,20.7994,3.73865,0,0,0,0,0,0,0,-1,1945,967,20.7994,-3.73864
728,57,20.8063,3.86609,-0.00269148,0.00156146,0.00187425,0.00226954,-0.00339956,1.20958,0.00329466,0.0195767,1952,967,20.8063,-3.86609
735,57,20.8364,3.9743,-0.0029771,0.00181062,0.00179839,0.00241088,-0.00357736,1.24865,0.00347911,0.0206855,1959,967,20.8364,-3.9743
742,57,20.8407,4.0462,-0.0033498,0.00241656,0.00164118,0.00285094,-0.00378418,1.31205,0.0038434,0.0155525,1966,967,20.8407,-4.04619
749,57,20.8025,4.13507,-0.00401769,0.0033568,0.00155656,0.00367188,-0.00433277,1.37107,0.00462674,0.0121322,1973,967,20.8024,-4.13507
756,57,20.7734,4.22791,-0.00537753,0.0045887,0.00189314,0.0049362,-0.00572503,1.38926,0.00616088,0.0106281,1980,967,20.7735,-4.22791
763,57,20.7905,4.32068,-0.00713514,0.00615754,0.00266241,0.00667097,-0.00764857,1.38029,0.00827381,0.0117336,1987,967,20.7905,-4.32065
770,57,20.7832,4.39172,-0.00984828,0.00841972,0.00399551,0.00925538,-0.0106839,1.36462,0.0115218,0.0107769,1994,967,20.7832,-4.39173
777,57,20.7216,4.57428,-0.01327,0.0112701,0.00589329,0.0126119,-0.0146119,1.34691,0.0157318,0.0262161,2001,967,20.7215,-4.57427
784,57,20.6294,4.83649,-0.0177901,0.0147816,0.0085533,0.0168911,-0.0198996,1.329,0.0212647,0.0462805,2008,967,20.6294,-4.83646
791,57,20.0651,5.3338,-0.0234424,0.018988,0.0120707,0.0221815,-0.026636,1.31215,0.0282239,0.0463136,2015,967,20.065,-5.3338
798,57,19.7178,5.78815,-0.0302188,0.0240577,0.0165182,0.0286895,-0.0348505,1.29741,0.0367423,0.0435515,2022,967,19.7177,-5.78816
805,57,19.623,5.91766,0,0,0,0,0,0,0,-1,2029,967,19.6229,-5.91766
812,57,0,0,0,0,0,0,0,0,0,-1,2036,967,0,0
-700,50,0,0,0,0,0,0,0,0,0,-1,524,974,0,0
-693,50,-14.7599,-2.37744,0.0918734,0.164637,0.000316055,0.164639,0.091872,1.56645,0.0952672,0.0490542,531,974,-14.7599,2.37746
-686,50,-14.4962,-1.1665,0.0807483,0.135808,-0.00079594,0.135819,0.0807368,-1.55634,0.0788801,0.0427419,538,974,-14.4962,1.16648
-679,50,-14.2288,0.194397,0.0683017,0.109929,-0.000875106,0.109947,0.0682834,-1.54979,0.0640951,0.0437743,545,974,-14.2288,-0.194417
-672,50,-13.7244,1.43597,0.0558873,0.0871297,-0.000544418,0.0871392,0.0558779,-1.55338,0.0509746,0.0464494,552,974,-13.7244,-1.43597
-665,50,-13.3325,2.54114,0,0,0,0,0,0,0,-1,559,974,-13.3325,-2.54113
-658,50,-13.9771,1.83063,0,0,0,0,0,0,0,-1,566,974,-13.9771,-1.83066
-651,50,-13.9297,1.87579,0.0246025,0.0368179,0.000729613,0.0368613,0.0245591,1.51135,0.0216705,0.0412868,573,974,-13.9298,-1.87582
-644,50,-13.8636,1.91559,0.0171617,0.0258684,0.000886715,0.0259578,0.0170723,1.47033,0.0152332,0.0244078,580,974,-13.8637,-1.91556
-637,50,-13.8907,1.90125,0.0110524,0.0174629,0.000427161,0.0174912,0.0110241,1.50455,0.0102122,0.0135515,587,974,-13.8908,-1.90125
-630,50,-13.9032,1.8587,0.00622318,0.00929522,0.000261001,0.00931724,0.00620117,1.48664,0.00547672,0.00950791,594,974,-13.9032,-1.85867
-623,50,-13.9026,1.80054,0.00195259,0.00493186,0.000248837,0.0049525,0.00193195,1.48804,0.00288226,0.010038,601,974,-13.9026,-1.80054
-616,50,-13.9015,1.74561,-0.0011365,0.00330558,-0.000519841,0.0033656,-0.00119652,-1.45584,0.00273138,0.0104938,608,974,-13.9015,-1.74558
-609,50,-13.9062,1.65381,-0.00243414,0.0024589,-0.00145523,0.00285898,-0.00283422,-1.3025,0.00328698,0.0100353,615,974,-13.9062,-1.65382
-602,50,-13.9111,1.55524,-0.00329926,0.00206144,-0.00185974,0.00264343,-0.00388126,-1.26751,0.00378956,0.0104166,622,974,-13.9112,-1.55525
-595,50,-13.89,1.5,-0.00390764,0.00177517,-0.00216021,0.00250309,-0.00463556,-1.24578,0.00418235,0.0106044,629,974,-13.8899,-1.49998
-588,50,-13.9396,1.42151,-0.00435366,0.00169455,-0.00241703,0.00254178,-0.0052009,-1.23365,0.00455727,0.0125307,636,974,-13.9396,-1.42151
-581,50,-14.1266,1.10876,-0.00462339,0.00172484,-0.00259404,0.00265,-0.00554855,-1.22821,0.00483104,0.0193494,643,974,-14.1267,-1.10878
-574,50,-14.2211,0.80896,-0.00467333,0.0018115,-0.00274261,0.00281587,-0.0056777,-1.21976,0.00499569,0.0260864,650,974,-14.2211,-0.808984
-567,50,-14.2227,0.707397,-0.00451118,0.00190083,-0.00269958,0.00288602,-0.00549638,-1.22087,0.00491718,0.0362075,657,974,-14.2227,-0.707378
-560,50,-14.2013,0.731567,-0.00408543,0.00198527,-0.0025962,0.00294411,-0.00504428,-1.21701,0.00466493,0.0416732,664,974,-14.2013,-0.731585
-553,50,-14.1638,0.881409,-0.00339945,0.00202325,-0.00249853,0.00299891,-0.00437512,-1.19851,0.00428204,0.0408306,671,974,-14.1638,-0.881391
-546,50,-14.1996,1.24408,0,0,0,0,0,0,0,-1,678,974,-14.1997,-1.24406
-539,50,-14.0785,1.18378,-0.00151317,0.00183144,-0.00273037,0.00336093,-0.00304267,-1.06017,0.00369864,0.0418269,685,974,-14.0785,-1.18378
-532,50,-14.1487,0.932129,-0.00088817,0.00168638,-0.00354491,0.00417051,-0.00337229,-0.959562,0.00436296,0.0426709,692,974,-14.1487,-0.932157
-525,50,-14.1514,0.57489,-0.00170756,0.00164559,-0.00523869,0.00546945,-0.00553142,-0.940266,0.00635139,0.0424729,699,974,-14.1514,-0.57487
-518,50,0,0,0,0,0,0,0,0,0,-1,706,974,0,0
-511,50,0,0,0,0,0,0,0,0,0,-1,713,974,0,0
-504,50,0,0,0,0,0,0,0,0,0,-1,720,974,0,0
-497,50,0,0,0,0,0,0,0,0,0,-1,727,974,0,0
-490,50,0,0,0,0,0,0,0,0,0,-1,734,974,0,0
-483,50,0,0,0,0,0,0,0,0,0,-1,741,974,0,0
-476,50,0,0,0,0,0,0,0,0,0,-1,748,974,0,0
-469,50,0,0,0,0,0,0,0,0,0,-1,755,974,0,0
-462,50,0,0,0,0,0,0,0,0,0,-1,762,974,0,0
-455,50,0,0,0,0,0,0,0,0,0,-1,769,974,0,0
-448,50,0,0,0,0,0,0,0,0,0,-1,776,974,0,0
-441,50,0,0,0,0,0,0,0,0,0,-1,783,974,0,0
-434,50,0,0,0,0,0,0,0,0,0,-1,790,974,0,0
-427,50,0,0,0,0,0,0,0,0,0,-1,797,974,0,0
-420,50,0,0,0,0,0,0,0,0,0,-1,804,974,0,0
-413,50,0,0,0,0,0,0,0,0,0,-1,811,974,0,0
-406,50,0,0,0,0,0,0,0,0,0,-1,818,974,0,0
-399,50,0,0,0,0,0,0,0,0,0,-1,825,974,0,0
-392,50,0,0,0,0,0,0,0,0,0,-1,832,974,0,0
-385,50,0,0,0,0,0,0,0,0,0,-1,839,974,0,0
-378,50,0,0,0,0,0,0,0,0,0,-1,846,974,0,0
-371,50,0,0,0,0,0,0,0,0,0,-1,853,974,0,0
-364,50,0,0,0,0,0,0,0,0,0,-1,860,974,0,0
-357,50,0,0,0,0,0,0,0,0,0,-1,867,974,0,0
-350,50,0,0,0,0,0,0,0,0,0,-1,874,974,0,0
-343,50,0,0,0,0,0,0,0,0,0,-1,881,974,0,0
-336,50,0,0,0,0,0,0,0,0,0,-1,888,974,0,0
-329,50,0,0,0,0,0,0,0,0,0,-1,895,974,0,0
-322,50,0,0,0,0,0,0,0,0,0,-1,902,974,0,0
-315,50,0,0,0,0,0,0,0,0,0,-1,909,974,0,0
-308,50,0,0,0,0,0,0,0,0,0,-1,916,974,0,0
-301,50,0,0,0,0,0,0,0,0,0,-1,923,974,0,0
-294,50,0,0,0,0,0,0,0,0,0,-1,930,974,0,0
-287,50,0,0,0,0,0,0,0,0,0,-1,937,974,0,0
-280,50,0,0,0,0,0,0,0,0,0,-1,944,974,0,0
-273,50,0,0,0,0,0,0,0,0,0,-1,951,974,0,0
-266,50,0,0,0,0,0,0,0,0,0,-1,958,974,0,0
-259,50,0,0,0,0,0,0,0,0,0,-1,965,974,0,0
-252,50,0,0,0,0,0,0,0,0,0,-1,972,974,0,0
-245,50,0,0,0,0,0,0,0,0,0,-1,979,974,0,0
-238,50,0,0,0,0,0,0,0,0,0,-1,986,974,0,0
-231,50,0,0,0,0,0,0,0,0,0,-1,993,974,0,0
-224,50,0,0,0,0,0,0,0,0,0,-1,1000,974,0,0
-217,50,0,0,0,0,0,0,0,0,0,-1,1007,974,0,0
-210,50,0,0,0,0,0,0,0,0,0,-1,1014,974,0,0
-203,50,0,0,0,0,0,0,0,0,0,-1,1021,974,0,0
-196,50,0,0,0,0,0,0,0,0,0,-1,1028,974,0,0
-189,50,0,0,0,0,0,0,0,0,0,-1,1035,974,0,0
-182,50,0,0,0,0,0,0,0,0,0,-1,1042,974,0,0
-175,50,0,0,0,0,0,0,0,0,0,-1,1049,974,0,0
-168,50,0,0,0,0,0,0,0,0,0,-1,1056,974,0,0
-161,50,0,0,0,0,0,0,0,0,0,-1,1063,974,0,0
-154,50,0,0,0,0,0,0,0,0,0,-1,1070,974,0,0
-147,50,0,0,0,0,0,0,0,0,0,-1,1077,974,0,0
-140,50,0,0,0,0,0,0,0,0,0,-1,1084,974,0,0
-133,50,0,0,0,0,0,0,0,0,0,-1,1091,974,0,0
-126,50,0,0,0,0,0,0,0,0,0,-1,1098,974,0,0
-119,50,0,0,0,0,0,0,0,0,0,-1,1105,974,0,0
-112,50,0,0,0,0,0,0,0,0,0,-1,1112,974,0,0
-105,50,0,0,0,0,0,0,0,0,0,-1,1119,974,0,0
-98,50,0,0,0,0,0,0,0,0,0,-1,1126,974,0,0
-91,50,0,0,0,0,0,0,0,0,0,-1,1133,974,0,0
-84,50,0,0,0,0,0,0,0,0,0,-1,1140,974,0,0
-77,50,0,0,0,0,0,0,0,0,0,-1,1147,974,0,0
-70,50,0,0,0,0,0,0,0,0,0,-1,1154,974,0,0
-63,50,0,0,0,0,0,0,0,0,0,-1,1161,974,0,0
-56,50,0,0,0,0,0,0,0,0,0,-1,1168,974,0,0
-49,50,0,0,0,0,0,0,0,0,0,-1,1175,974,0,0
-42,50,0,0,0,0,0,0,0,0,0,-1,1182,974,0,0
-35,50,0,0,0,0,0,0,0,0,0,-1,1189,974,0,0
-28,50,0,0,0,0,0,0,0,0,0,-1,1196,974,0,0
-21,50,0,0,0,0,0,0,0,0,0,-1,1203,974,0,0
-14,50,0,0,0,0,0,0,0,0,0,-1,1210,974,0,0
-7,50,0,0,0,0,0,0,0,0,0,-1,1217,974,0,0
0,50,0,0,0,0,0,0,0,0,0,-1,1224,974,0,0
7,50,0,0,0,0,0,0,0,0,0,-1,1231,974,0,0
14,50,0,0,0,0,0,0,0,0,0,-1,1238,974,0,0
21,50,0,0,0,0,0,0,0,0,0,-1,1245,974,0,0
28,50,0,0,0,0,0,0,0,0,0,-1,1252,974,0,0
35,50,0,0,0,0,0,0,0,0,0,-1,1259,974,0,0
42,50,0,0,0,0,0,0,0,0,0,-1,1266,974,0,0
49,50,0,0,0,0,0,0,0,0,0,-1,1273,974,0,0
56,50,0,0,0,0,0,0,0,0,0,-1,1280,974,0,0
63,50,0,0,0,0,0,0,0,0,0,-1,1287,974,0,0
70,50,0,0,0,0,0,0,0,0,0,-1,1294,974,0,0
77,50,0,0,0,0,0,0,0,0,0,-1,1301,974,0,0
84,50,0,0,0,0,0,0,0,0,0,-1,1308,974,0,0
91,50,0,0,0,0,0,0,0,0,0,-1,1315,974,0,0
98,50,0,0,0,0,0,0,0,0,0,-1,1322,974,0,0
105,50,0,0,0,0,0,0,0,0,0,-1,1329,974,0,0
112,50,0,0,0,0,0,0,0,0,0,-1,1336,974,0,0
119,50,0,0,0,0,0,0,0,0,0,-1,1343,974,0,0
126,50,0,0,0,0,0,0,0,0,0,-1,1350,974,0,0
133,50,0,0,0,0,0,0,0,0,0,-1,1357,974,0,0
140,50,0,0,0,0,0,0,0,0,0,-1,1364,974,0,0
147,50,0,0,0,0,0,0,0,0,0,-1,1371,974,0,0
154,50,0,0,0,0,0,0,0,0,0,-1,1378,974,0,0
161,50,0,0,0,0,0,0,0,0,0,-1,1385,974,0,0
168,50,0,0,0,0,0,0,0,0,0,-1,1392,974,0,0
175,50,0,0,0,0,0,0,0,0,0,-1,1399,974,0,0
182,50,0,0,0,0,0,0,0,0,0,-1,1406,974,0,0
189,50,0,0,0,0,0,0,0,0,0,-1,1413,974,0,0
196,50,0,0,0,0,0,0,0,0,0,-1,1420,974,0,0
203,50,0,0,0,0,0,0,0,0,0,-1,1427,974,0,0
210,50,0,0,0,0,0,0,0,0,0,-1,1434,974,0,0
217,50,0,0,0,0,0,0,0,0,0,-1,1441,974,0,0
224,50,0,0,0,0,0,0,0,0,0,-1,1448,974,0,0
231,50,0,0,0,0,0,0,0,0,0,-1,1455,974,0,0
238,50,0,0,0,0,0,0,0,0,0,-1,1462,974,0,0
245,50,0,0,0,0,0,0,0,0,0,-1,1469,974,0,0
252,50,0,0,0,0,0,0,0,0,0,-1,1476,974,0,0
259,50,0,0,0,0,0,0,0,0,0,-1,1483,974,0,0
266,50,0,0,0,0,0,0,0,0,0,-1,1490,974,0,0
273,50,0,0,0,0,0,0,0,0,0,-1,1497,974,0,0
280,50,0,0,0,0,0,0,0,0,0,-1,1504,974,0,0
287,50,0,0,0,0,0,0,0,0,0,-1,1511,974,0,0
294,50,0,0,0,0,0,0,0,0,0,-1,1518,974,0,0
301,50,0,0,0,0,0,0,0,0,0,-1,1525,974,0,0
308,50,0,0,0,0,0,0,0,0,0,-1,1532,974,0,0
315,50,0,0,0,0,0,0,0,0,0,-1,1539,974,0,0
322,50,0,0,0,0,0,0,0,0,0,-1,1546,974,0,0
329,50,0,0,0,0,0,0,0,0,0,-1,1553,974,0,0
336,50,0,0,0,0,0,0,0,0,0,-1,1560,974,0,0
343,50,0,0,0,0,0,0,0,0,0,-1,1567,974,0,0
350,50,0,0,0,0,0,0,0,0,0,-1,1574,974,0,0
357,50,0,0,0,0,0,0,0,0,0,-1,1581,974,0,0
364,50,0,0,0,0,0,0,0,0,0,-1,1588,974,0,0
371,50,0,0,0,0,0,0,0,0,0,-1,1595,974,0,0
378,50,0,0,0,0,0,0,0,0,0,-1,1602,974,0,0
385,50,0,0,0,0,0,0,0,0,0,-1,1609,974,0,0
392,50,0,0,0,0,0,0,0,0,0,-1,1616,974,0,0
399,50,0,0,0,0,0,0,0,0,0,-1,1623,974,0,0
406,50,0,0,0,0,0,0,0,0,0,-1,1630,974,0,0
413,50,0,0,0,0,0,0,0,0,0,-1,1637,974,0,0
420,50,0,0,0,0,0,0,0,0,0,-1,1644,974,0,0
427,50,0,0,0,0,0,0,0,0,0,-1,1651,974,0,0
434,50,0,0,0,0,0,0,0,0,0,-1,1658,974,0,0
441,50,0,0,0,0,0,0,0,0,0,-1,1665,974,0,0
448,50,0,0,0,0,0,0,0,0,0,-1,1672,974,0,0
455,50,0,0,0,0,0,0,0,0,0,-1,1679,974,0,0
462,50,0,0,0,0,0,0,0,0,0,-1,1686,974,0,0
469,50,0,0,0,0,0,0,0,0,0,-1,1693,974,0,0
476,50,0,0,0,0,0,0,0,0,0,-1,1700,974,0,0
483,50,0,0,0,0,0,0,0,0,0,-1,1707,974,0,0
490,50,0,0,0,0,0,0,0,0,0,-1,1714,974,0,0
497,50,0,0,0,0,0,0,0,0,0,-1,1721,974,0,0
504,50,0,0,0,0,0,0,0,0,0,-1,1728,974,0,0
511,50,0,0,0,0,0,0,0,0,0,-1,1735,974,0,0
518,50,0,0,0,0,0,0,0,0,0,-1,1742,974,0,0
525,50,0,0,0,0,0,0,0,0,0,-1,1749,974,0,0
532,50,0,0,0,0,0,0,0,0,0,-1,1756,974,0,0
539,50,0,0,0,0,0,0,0,0,0,-1,1763,974,0,0
546,50,0,0,0,0,0,0,0,0,0,-1,1770,974,0,0
553,50,0,0,0,0,0,0,0,0,0,-1,1777,974,0,0
560,50,0,0,0,0,0,0,0,0,0,-1,1784,974,0,0
567,50,0,0,0,0,0,0,0,0,0,-1,1791,974,0,0
574,50,0,0,0,0,0,0,0,0,0,-1,1798,974,0,0
581,50,0,0,0,0,0,0,0,0,0,-1,1805,974,0,0
588,50,0,0,0,0,0,0,0,0,0,-1,1812,974,0,0
595,50,0,0,0,0,0,0,0,0,0,-1,1819,974,0,0
602,50,0,0,0,0,0,0,0,0,0,-1,1826,974,0,0
609,50,0,0,0,0,0,0,0,0,0,-1,1833,974,0,0
616,50,0,0,0,0,0,0,0,0,0,-1,1840,974,0,0
623,50,0,0,0,0,0,0,0,0,0,-1,1847,974,0,0
630,50,0,0,0,0,0,0,0,0,0,-1,1854,974,0,0
637,50,0,0,0,0,0,0,0,0,0,-1,1861,974,0,0
644,50,21.6853,2.99432,-0.000826096,-0.00215107,-0.00319055,0.00177002,-0.00474719,-0.683033,0.00389138,0.0368098,1868,974,21.6853,-2.9943
651,50,21.641,2.83533,-0.000356931,-0.00146034,-0.0026418,0.00179016,-0.00360743,-0.68246,0.00317463,0.0313281,1875,974,21.641,-2.83535
658,50,21.7393,2.66742,-0.000203185,-0.00104737,-0.00189398,0.00131516,-0.00256572,-0.675759,0.00227907,0.0373399,1882,974,21.7393,-2.6674
665,50,21.7332,2.58264,-0.000422116,-0.000629055,-0.00100637,0.000486089,-0.00153726,-0.734171,0.0012196,0.0429263,1889,974,21.7331,-2.58262
672,50,21.7544,2.65662,-0.000783181,-0.000162307,-4.47515e-06,-0.000162275,-0.000783213,-1.56359,0.000477335,0.0417946,1896,974,21.7544,-2.65663
679,50,21.6896,2.74579,-0.00127513,0.000214237,0.000920247,0.000653365,-0.00171425,1.12557,0.00141195,0.041084,1903,974,21.6896,-2.74577
686,50,21.6691,2.76135,-0.0016916,0.000475669,0.00163453,0.00135314,-0.00256907,1.07812,0.00230048,0.0424585,1910,974,21.6691,-2.76136
693,50,21.7567,2.62268,-0.00188693,0.000739159,0.00208771,0.00189241,-0.00304018,1.06611,0.00287342,0.0397431,1917,974,21.7567,-2.6227
700,50,21.778,2.7085,-0.00211437,0.000891267,0.00233173,0.00216251,-0.00338562,1.07165,0.00322906,0.0226376,1924,974,21.778,-2.70851
707,50,21.8003,2.81024,-0.0023643,0.00100304,0.00243227,0.00227753,-0.00363878,1.08814,0.00344579,0.0315356,1931,974,21.8003,-2.81026
714,50,21.7251,3.21039,-0.00247509,0.00119892,0.00242953,0.00240777,-0.00368394,1.1091,0.00354268,0.0480535,1938,974,21.7251,-3.21036
721,50,20.9165,3.69183,0,0,0,0,0,0,0,-1,1945,974,20.9165,-3.69181
728,50,20.9116,3.8562,-0.00258915,0.00152552,0.00218586,0.00246995,-0.00353358,1.16296,0.00348423,0.0209733,1952,974,20.9116,-3.85619
735,50,20.9447,3.95105,-0.00301557,0.00181151,0.00206451,0.00257403,-0.00377809,1.21699,0.0036893,0.0190189,1959,974,20.9447,-3.95102
742,50,20.9294,4.04181,-0.00354659,0.00248214,0.00187356,0.00301694,-0.00408139,1.29274,0.00411356,0.0150614,1966,974,20.9295,-4.04184
749,50,20.9197,4.10437,-0.00437492,0.00349158,0.0017382,0.00385854,-0.00474188,1.36274,0.00497418,0.0147227,1973,974,20.9197,-4.10435
756,50,20.9032,4.1994,-0.005988,0.0047539,0.00202466,0.00512284,-0.00635694,1.39055,0.00664061,0.0115554,1980,974,20.9032,-4.19942
763,50,20.9124,4.29608,-0.00803571,0.00635918,0.0026637,0.00683627,-0.00851281,1.39357,0.0088794,0.0115782,1987,974,20.9124,-4.29607
770,50,20.8887,4.35846,-0.0110368,0.00865348,0.00381792,0.00936785,-0.0117512,1.38583,0.0122189,0.010804,1994,974,20.8887,-4.35847
777,50,20.8336,4.43036,-0.0148047,0.0115971,0.00557566,0.0127263,-0.0159339,1.37098,0.0165815,0.0219152,2001,974,20.8337,-4.43038
784,50,20.5897,4.81403,-0.0196789,0.0151329,0.00804367,0.0169016,-0.0214476,1.35435,0.0221927,0.0390579,2008,974,20.5898,-4.81403
791,50,19.9949,5.28619,-0.0257664,0.0193299,0.0113443,0.0220228,-0.0284593,1.33773,0.0292247,0.0416101,2015,974,19.9948,-5.28617
798,50,20.6033,6.47778,-0.0330271,0.0242818,0.015522,0.0282159,-0.0369611,1.32257,0.0377427,0.04453,2022,974,20.6033,-6.47777
805,50,20.3491,7.0553,0,0,0,0,0,0,0,-1,2029,974,20.3492,-7.05533
812,50,0,0,0,0,0,0,0,0,0,-1,2036,974,0,0
-700,43,0,0,0,0,0,0,0,0,0,-1,524,981,0,0
-693,43,-14.6022,-2.95044,0.0817319,0.158169,0.00306129,0.158291,0.0816095,1.53083,0.0914041,0.0448466,531,981,-14.6022,2.95041
-686,43,-14.4393,-1.70825,0.0712774,0.130829,0.0023187,0.130919,0.0711873,1.53194,0.0756826,0.0425641,538,981,-14.4393,1.70824
-679,43,-14.0632,0.319946,0,0,0,0,0,0,0,-1,545,981,-14.0632,-0.319973
-672,43,-13.7004,1.39178,0,0,0,0,0,0,0,-1,552,981,-13.7004,-1.39176
-665,43,-14.8006,1.74866,0,0,0,0,0,0,0,-1,559,981,-14.8006,-1.74863
-658,43,-14.5822,1.7674,0,0,0,0,0,0,0,-1,566,981,-14.5821,-1.76742
-651,43,-14.1381,1.84784,0.0204121,0.0355734,0.00251302,0.035979,0.0200065,1.41074,0.020816,0.0383105,573,981,-14.1381,-1.84784
-644,43,-13.9655,1.91583,0.0139415,0.0249653,0.00224959,0.0254067,0.0135001,1.37705,0.0146782,0.0177369,580,981,-13.9655,-1.9158
-637,43,-13.9783,1.90167,0.00860663,0.0167582,0.00140968,0.0169951,0.00836973,1.4043,0.00981252,0.0115459,587,981,-13.9783,-1.90165
-630,43,-13.9599,1.8562,0.00443689,0.0088591,0.000866879,0.00902296,0.00427303,1.38398,0.00521183,0.0107478,594,981,-13.9599,-1.85621
-623,43,-13.9771,1.79108,0.000986001,0.00465423,0.000474187,0.00471453,0.000925695,1.4443,0.0028844,0.0106297,601,981,-13.9771,-1.79107
-616,43,-13.9731,1.72955,-0.00149713,0.0032015,-0.00061644,0.00328103,-0.00157666,-1.44249,0.00286155,0.00960101,608,981,-13.9731,-1.72957
-609,43,-13.9662,1.65112,-0.00238659,0.00241394,-0.00182012,0.003026,-0.00299865,-1.2464,0.00347835,0.0121379,615,981,-13.9663,-1.65113
-602,43,-13.971,1.56653,-0.00284438,0.00212603,-0.00242211,0.00311111,-0.00382946,-1.18453,0.00401428,0.0152249,622,981,-13.971,-1.56654
-595,43,-13.9766,1.50586,-0.00316874,0.00191348,-0.00279603,0.0031506,-0.00440586,-1.15423,0.00438274,0.0142503,629,981,-13.9766,-1.50585
-588,43,-13.9922,1.34656,-0.00343363,0.00189008,-0.0030831,0.00330143,-0.00484497,-1.1415,0.00473139,0.0140868,636,981,-13.9923,-1.34658
-581,43,-14.1408,1.03137,-0.00359897,0.00195178,-0.00324429,0.00344584,-0.00509303,-1.13923,0.00496041,0.0199407,643,981,-14.1408,-1.03136
-574,43,-14.2119,0.817139,-0.00362182,0.0020692,-0.00332762,0.00360204,-0.00515466,-1.13913,0.00508211,0.0275788,650,981,-14.2119,-0.817132
-567,43,-14.1927,0.728088,-0.00345313,0.00220699,-0.00317092,0.0036271,-0.00487324,-1.14973,0.00492522,0.0349773,657,981,-14.1927,-0.728097
-560,43,-14.1608,0.722351,-0.003096,0.0023336,-0.0029075,0.0035967,-0.0043591,-1.16097,0.0046003,0.038283,664,981,-14.1608,-0.72235
-553,43,-14.0954,0.777588,-0.0025718,0.00242512,-0.0026024,0.00353427,-0.00368095,-1.16791,0.00416599,0.0410011,671,981,-14.0954,-0.77756
-546,43,-14.0254,0.966736,-0.00194927,0.00245109,-0.00235007,0.00347017,-0.00296835,-1.16163,0.00372104,0.0427388,678,981,-14.0254,-0.966754
-539,43,-13.9525,1.04449,-0.00134823,0.00241208,-0.00232302,0.00352047,-0.00245662,-1.12561,0.00346905,0.0454219,685,981,-13.9525,-1.04448
-532,43,-14.1216,0.995361,-0.00129923,0.0024759,-0.00293928,0.00408151,-0.00290485,-1.07083,0.0040526,0.0450563,692,981,-14.1216,-0.99537
-525,43,-14.0991,0.952942,-0.00282352,0.00273302,-0.00448526,0.00523077,-0.00532127,-1.06269,0.0060923,0.0439631,699,981,-14.0991,-0.952957
-518,43,0,0,0,0,0,0,0,0,0,-1,706,981,0,0
-511,43,0,0,0,0,0,0,0,0,0,-1,713,981,0,0
-504,43,0,0,0,0,0,0,0,0,0,-1,720,981,0,0
-497,43,0,0,0,0,0,0,0,0,0,-1,727,981,0,0
-490,43,0,0,0,0,0,0,0,0,0,-1,734,981,0,0
-483,43,0,0,0,0,0,0,0,0,0,-1,741,981,0,0
-476,43,0,0,0,0,0,0,0,0,0,-1,748,981,0,0
-469,43,0,0,0,0,0,0,0,0,0,-1,755,981,0,0
-462,43,0,0,0,0,0,0,0,0,0,-1,762,981,0,0
-455,43,0,0,0,0,0,0,0,0,0,-1,769,981,0,0
-448,43,0,0,0,0,0,0,0,0,0,-1,776,981,0,0
-441,43,0,0,0,0,0,0,0,0,0,-1,783,981,0,0
-434,43,0,0,0,0,0,0,0,0,0,-1,790,981,0,0
-427,43,0,0,0,0,0,0,0,0,0,-1,797,981,0,0
-420,43,0,0,0,0,0,0,0,0,0,-1,804,981,0,0
-413,43,0,0,0,0,0,0,0,0,0,-1,811,981,0,0
-406,43,0,0,0,0,0,0,0,0,0,-1,818,981,0,0
-399,43,0,0,0,0,0,0,0,0,0,-1,825,981,0,0
-392,43,0,0,0,0,0,0,0,0,0,-1,832,981,0,0
-385,43,0,0,0,0,0,0,0,0,0,-1,839,981,0,0
-378,43,0,0,0,0,0,0,0,0,0,-1,846,981,0,0
-371,43,0,0,0,0,0,0,0,0,0,-1,853,981,0,0
-364,43,0,0,0,0,0,0,0,0,0,-1,860,981,0,0
-357,43,0,0,0,0,0,0,0,0,0,-1,867,981,0,0
-350,43,0,0,0,0,0,0,0,0,0,-1,874,981,0,0
-343,43,0,0,0,0,0,0,0,0,0,-1,881,981,0,0
-336,43,0,0,0,0,0,0,0,0,0,-1,888,981,0,0
-329,43,0,0,0,0,0,0,0,0,0,-1,895,981,0,0
-322,43,0,0,0,0,0,0,0,0,0,-1,902,981,0,0
-315,43,0,0,0,0,0,0,0,0,0,-1,909,981,0,0
-308,43,0,0,0,0,0,0,0,0,0,-1,916,981,0,0
-301,43,0,0,0,0,0,0,0,0,0,-1,923,981,0,0
-294,43,0,0,0,0,0,0,0,0,0,-1,930,981,0,0
-287,43,0,0,0,0,0,0,0,0,0,-1,937,981,0,0
-280,43,0,0,0,0,0,0,0,0,0,-1,944,981,0,0
-273,43,0,0,0,0,0,0,0,0,0,-1,951,981,0,0
-266,43,0,0,0,0,0,0,0,0,0,-1,958,981,0,0
-259,43,0,0,0,0,0,0,0,0,0,-1,965,981,0,0
-252,43,0,0,0,0,0,0,0,0,0,-1,972,981,0,0
-245,43,0,0,0,0,0,0,0,0,0,-1,979,981,0,0
-238,43,0,0,0,0,0,0,0,0,0,-1,986,981,0,0
-231,43,0,0,0,0,0,0,0,0,0,-1,993,981,0,0
-224,43,0,0,0,0,0,0,0,0,0,-1,1000,981,0,0
-217,43,0,0,0,0,0,0,0,0,0,-1,1007,981,0,0
-210,43,0,0,0,0,0,0,0,0,0,-1,1014,981,0,0
-203,43,0,0,0,0,0,0,0,0,0,-1,1021,981,0,0
-196,43,0,0,0,0,0,0,0,0,0,-1,1028,981,0,0
-189,43,0,0,0,0,0,0,0,0,0,-1,1035,981,0,0
-182,43,0,0,0,0,0,0,0,0,0,-1,1042,981,0,0
-175,43,0,0,0,0,0,0,0,0,0,-1,1049,981,0,0
-168,43,0,0,0,0,0,0,0,0,0,-1,1056,981,0,0
-161,43,0,0,0,0,0,0,0,0,0,-1,1063,981,0,0
-154,43,0,0,0,0,0,0,0,0,0,-1,1070,981,0,0
-147,43,0,0,0,0,0,0,0,0,0,-1,1077,981,0,0
-140,43,0,0,0,0,0,0,0,0,0,-1,1084,981,0,0
-133,43,0,0,0,0,0,0,0,0,0,-1,1091,981,0,0
-126,43,0,0,0,0,0,0,0,0,0,-1,1098,981,0,0
-119,43,0,0,0,0,0,0,0,0,0,-1,1105,981,0,0
-112,43,0,0,0,0,0,0,0,0,0,-1,1112,981,0,0
-105,43,0,0,0,0,0,0,0,0,0,-1,1119,981,0,0
-98,43,0,0,0,0,0,0,0,0,0,-1,1126,981,0,0
-91,43,0,0,0,0,0,0,0,0,0,-1,1133,981,0,0
-84,43,0,0,0,0,0,0,0,0,0,-1,1140,981,0,0
-77,43,0,0,0,0,0,0,0,0,0,-1,1147,981,0,0
-70,43,0,0,0,0,0,0,0,0,0,-1,1154,981,0,0
-63,43,0,0,0,0,0,0,0,0,0,-1,1161,981,0,0
-56,43,0,0,0,0,0,0,0,0,0,-1,1168,981,0,0
-49,43,0,0,0,0,0,0,0,0,0,-1,1175,981,0,0
-42,43,0,0,0,0,0,0,0,0,0,-1,1182,981,0,0
-35,43,0,0,0,0,0,0,0,0,0,-1,1189,981,0,0
-28,43,0,0,0,0,0,0,0,0,0,-1,1196,981,0,0
-21,43,0,0,0,0,0,0,0,0,0,-1,1203,981,0,0
-14,43,0,0,0,0,0,0,0,0,0,-1,1210,981,0,0
-7,43,0,0,0,0,0,0,0,0,0,-1,1217,981,0,0
0,43,0,0,0,0,0,0,0,0,0,-1,1224,981,0,0
7,43,0,0,0,0,0,0,0,0,0,-1,1231,981,0,0
14,43,0,0,0,0,0,0,0,0,0,-1,1238,981,0,0
21,43,0,0,0,0,0,0,0,0,0,-1,1245,981,0,0
28,43,0,0,0,0,0,0,0,0,0,-1,1252,981,0,0
35,43,0,0,0,0,0,0,0,0,0,-1,1259,981,0,0
42,43,0,0,0,0,0,0,0,0,0,-1,1266,981,0,0
49,43,0,0,0,0,0,0,0,0,0,-1,1273,981,0,0
56,43,0,0,0,0,0,0,0,0,0,-1,1280,981,0,0
63,43,0,0,0,0,0,0,0,0,0,-1,1287,981,0,0
70,43,0,0,0,0,0,0,0,0,0,-1,1294,981,0,0
77,43,0,0,0,0,0,0,0,0,0,-1,1301,981,0,0
84,43,0,0,0,0,0,0,0,0,0,-1,1308,981,0,0
91,43,0,0,0,0,0,0,0,0,0,-1,1315,981,0,0
98,43,0,0,0,0,0,0,0,0,0,-1,1322,981,0,0
105,43,0,0,0,0,0,0,0,0,0,-1,1329,981,0,0
112,43,0,0,0,0,0,0,0,0,0,-1,1336,981,0,0
119,43,0,0,0,0,0,0,0,0,0,-1,1343,981,0,0
126,43,0,0,0,0,0,0,0,0,0,-1,1350,981,0,0
133,43,0,0,0,0,0,0,0,0,0,-1,1357,981,0,0
140,43,0,0,0,0,0,0,0,0,0,-1,1364,981,0,0
147,43,0,0,0,0,0,0,0,0,0,-1,1371,981,0,0
154,43,0,0,0,0,0,0,0,0,0,-1,1378,981,0,0
161,43,0,0,0,0,0,0,0,0,0,-1,1385,981,0,0
168,43,0,0,0,0,0,0,0,0,0,-1,1392,981,0,0
175,43,0,0,0,0,0,0,0,0,0,-1,1399,981,0,0
182,43,0,0,0,0,0,0,0,0,0,-1,1406,981,0,0
189,43,0,0,0,0,0,0,0,0,0,-1,1413,981,0,0
196,43,0,0,0,0,0,0,0,0,0,-1,1420,981,0,0
203,43,0,0,0,0,0,0,0,0,0,-1,1427,981,0,0
210,43,0,0,0,0,0,0,0,0,0,-1,1434,981,0,0
217,43,0,0,0,0,0,0,0,0,0,-1,1441,981,0,0
224,43,0,0,0,0,0,0,0,0,0,-1,1448,981,0,0
231,43,0,0,0,0,0,0,0,0,0,-1,1455,981,0,0
238,43,0,0,0,0,0,0,0,0,0,-1,1462,981,0,0
245,43,0,0,0,0,0,0,0,0,0,-1,1469,981,0,0
252,43,0,0,0,0,0,0,0,0,0,-1,1476,981,0,0
259,43,0,0,0,0,0,0,0,0,0,-1,1483,981,0,0
266,43,0,0,0,0,0,0,0,0,0,-1,1490,981,0,0
273,43,0,0,0,0,0,0,0,0,0,-1,1497,981,0,0
280,43,0,0,0,0,0,0,0,0,0,-1,1504,981,0,0
287,43,0,0,0,0,0,0,0,0,0,-1,1511,981,0,0
294,43,0,0,0,0,0,0,0,0,0,-1,1518,981,0,0
301,43,0,0,0,0,0,0,0,0,0,-1,1525,981,0,0
308,43,0,0,0,0,0,0,0,0,0,-1,1532,981,0,0
315,43,0,0,0,0,0,0,0,0,0,-1,1539,981,0,0
322,43,0,0,0,0,0,0,0,0,0,-1,1546,981,0,0
329,43,0,0,0,0,0,0,0,0,0,-1,1553,981,0,0
336,43,0,0,0,0,0,0,0,0,0,-1,1560,981,0,0
343,43,0,0,0,0,0,0,0,0,0,-1,1567,981,0,0
350,43,0,0,0,0,0,0,0,0,0,-1,1574,981,0,0
357,43,0,0,0,0,0,0,0,0,0,-1,1581,981,0,0
364,43,0,0,0,0,0,0,0,0,0,-1,1588,981,0,0
371,43,0,0,0,0,0,0,0,0,0,-1,1595,981,0,0
378,43,0,0,0,0,0,0,0,0,0,-1,1602,981,0,0
385,43,0,0,0,0,0,0,0,0,0,-1,1609,981,0,0
392,43,0,0,0,0,0,0,0,0,0,-1,1616,981,0,0
399,43,0,0,0,0,0,0,0,0,0,-1,1623,981,0,0
406,43,0,0,0,0,0,0,0,0,0,-1,1630,981,0,0
413,43,0,0,0,0,0,0,0,0,0,-1,1637,981,0,0
420,43,0,0,0,0,0,0,0,0,0,-1,1644,981,0,0
427,43,0,0,0,0,0,0,0,0,0,-1,1651,981,0,0
434,43,0,0,0,0,0,0,0,0,0,-1,1658,981,0,0
441,43,0,0,0,0,0,0,0,0,0,-1,1665,981,0,0
448,43,0,0,0,0,0,0,0,0,0,-1,1672,981,0,0
455,43,0,0,0,0,0,0,0,0,0,-1,1679,981,0,0
462,43,0,0,0,0,0,0,0,0,0,-1,1686,981,0,0
469,43,0,0,0,0,0,0,0,0,0,-1,1693,981,0,0
476,43,0,0,0,0,0,0,0,0,0,-1,1700,981,0,0
483,43,0,0,0,0,0,0,0,0,0,-1,1707,981,0,0
490,43,0,0,0,0,0,0,0,0,0,-1,1714,981,0,0
497,43,0,0,0,0,0,0,0,0,0,-1,1721,981,0,0
504,43,0,0,0,0,0,0,0,0,0,-1,1728,981,0,0
511,43,0,0,0,0,0,0,0,0,0,-1,1735,981,0,0
518,43,0,0,0,0,0,0,0,0,0,-1,1742,981,0,0
525,43,0,0,0,0,0,0,0,0,0,-1,1749,981,0,0
532,43,0,0,0,0,0,0,0,0,0,-1,1756,981,0,0
539,43,0,0,0,0,0,0,0,0,0,-1,1763,981,0,0
546,43,0,0,0,0,0,0,0,0,0,-1,1770,981,0,0
553,43,0,0,0,0,0,0,0,0,0,-1,1777,981,0,0
560,43,0,0,0,0,0,0,0,0,0,-1,1784,981,0,0
567,43,0,0,0,0,0,0,0,0,0,-1,1791,981,0,0
574,43,0,0,0,0,0,0,0,0,0,-1,1798,981,0,0
581,43,0,0,0,0,0,0,0,0,0,-1,1805,981,0,0
588,43,0,0,0,0,0,0,0,0,0,-1,1812,981,0,0
595,43,0,0,0,0,0,0,0,0,0,-1,1819,981,0,0
602,43,0,0,0,0,0,0,0,0,0,-1,1826,981,0,0
609,43,0,0,0,0,0,0,0,0,0,-1,1833,981,0,0
616,43,0,0,0,0,0,0,0,0,0,-1,1840,981,0,0
623,43,0,0,0,0,0,0,0,0,0,-1,1847,981,0,0
630,43,0,0,0,0,0,0,0,0,0,-1,1854,981,0,0
637,43,0,0,0,0,0,0,0,0,0,-1,1861,981,0,0
644,43,21.8094,3.03271,-0.000857187,-0.000464902,-0.00216226,0.00151009,-0.00283218,-0.83063,0.00254545,0.0379165,1868,981,21.8094,-3.03273
651,43,21.8394,2.92084,-0.000556239,-0.000334929,-0.00182418,0.00138195,-0.00227311,-0.815691,0.00213105,0.0361458,1875,981,21.8394,-2.92082
658,43,21.9153,2.6734,-0.000427659,-0.000329026,-0.0012915,0.000914102,-0.00167079,-0.804482,0.00151355,0.039711,1882,981,21.9153,-2.67338
665,43,21.8149,2.54205,-0.000556166,-0.00022206,-0.000596025,0.00022988,-0.00100811,-0.922031,0.00076037,0.0389658,1889,981,21.8149,-2.54207
672,43,21.8053,2.59723,-0.000786586,1.27222e-05,0.000274971,9.81789e-05,-0.000872042,1.26948,0.000616698,0.039395,1896,981,21.8053,-2.59723
679,43,21.8104,2.71698,-0.00118415,0.000234969,0.00115943,0.000884735,-0.00183391,1.05999,0.00160118,0.0424006,1903,981,21.8104,-2.71695
686,43,21.6619,2.80792,-0.0015398,0.000405912,0.00187765,0.00154777,-0.00268166,1.02442,0.00247094,0.0422855,1910,981,21.6618,-2.80794
693,43,21.6974,2.77631,-0.0017209,0.000600193,0.00235647,0.0020664,-0.00318711,1.01421,0.00305603,0.03893,1917,981,21.6974,-2.77628
700,43,21.7407,2.74036,-0.00194156,0.000701611,0.00262288,0.00231705,-0.003557,1.01877,0.00341647,0.033081,1924,981,21.7407,-2.74034
707,43,21.7917,2.74786,-0.00216894,0.00081484,0.00272984,0.00243386,-0.00378797,1.03548,0.00362042,0.0266989,1931,981,21.7917,-2.74788
714,43,21.8257,2.85376,-0.00230141,0.00100163,0.00276286,0.00256895,-0.00386873,1.05478,0.00374196,0.0321673,1938,981,21.8257,-2.85374
721,43,21.5302,3.45563,0,0,0,0,0,0,0,-1,1945,981,21.5302,-3.45564
728,43,21.1384,3.82532,-0.00260884,0.00134234,0.00255834,0.0025991,-0.0038656,1.11418,0.00375619,0.0203527,1952,981,21.1385,-3.82531
735,43,21.0126,3.95984,-0.00313153,0.001669,0.00238103,0.00264965,-0.00411217,1.18011,0.00393426,0.014476,1959,981,21.0126,-3.95987
742,43,21.005,4.02142,-0.00378631,0.00238058,0.00212644,0.00304271,-0.00444845,1.26893,0.00435033,0.0165135,1966,981,21.005,-4.02141
749,43,21.0099,4.09393,-0.0047251,0.0034355,0.00189645,0.00385469,-0.00514428,1.35326,0.00521331,0.0169618,1973,981,21.0099,-4.09394
756,43,21.0173,4.18317,-0.00651251,0.0047294,0.00205888,0.00509461,-0.00687771,1.39524,0.00693773,0.0147461,1980,981,21.0173,-4.18315
763,43,21.011,4.26422,-0.00873591,0.00637812,0.00245419,0.00676664,-0.00912443,1.41379,0.00920831,0.0172789,1987,981,21.011,-4.2642
770,43,20.9706,4.35852,-0.0118706,0.00867094,0.00325261,0.00917367,-0.0123733,1.41745,0.0124858,0.0146635,1994,981,20.9706,-4.35851
777,43,20.9308,4.39429,-0.0158639,0.0116676,0.00468965,0.0124445,-0.0166408,1.40662,0.0168506,0.019292,2001,981,20.9308,-4.39431
784,43,20.5437,4.69006,-0.0209307,0.0151789,0.00676993,0.0164064,-0.0221582,1.39143,0.0223477,0.0395461,2008,981,20.5436,-4.69008
791,43,19.9993,4.88751,-0.0272529,0.0193254,0.00961254,0.0212312,-0.0291587,1.37507,0.0292124,0.0441414,2015,981,19.9993,-4.8875
798,43,19.4996,5.30066,-0.0347815,0.0241472,0.0132624,0.0269944,-0.0376287,1.35932,0.0374782,0.0419147,2022,981,19.4996,-5.30068
805,43,19.0815,5.77533,-0.043792,0.0296813,0.0180694,0.0338847,-0.0479954,1.34224,0.0475069,0.0439591,2029,981,19.0816,-5.77532
812,43,18.8206,6.32977,0,0,0,0,0,0,0,-1,2036,981,18.8206,-6.32977
-700,36,0,0,0,0,0,0,0,0,0,-1,524,988,0,0
-693,36,-14.2498,-3.28674,0,0,0,0,0,0,0,-1,531,988,-14.2498,3.28672
-686,36,-14.0176,-0.329468,0,0,0,0,0,0,0,-1,538,988,-14.0176,0.329449
-679,36,-13.8605,0.482666,0,0,0,0,0,0,0,-1,545,988,-13.8604,-0.482654
-672,36,-13.5502,1.49475,0.0400374,0.0763166,0.00522063,0.0770529,0.0393011,1.43068,0.0444895,0.0455288,552,988,-13.5502,-1.49474
-665,36,-13.1622,2.38446,0.0308796,0.0588857,0.00504909,0.0597682,0.0299971,1.39777,0.0345073,0.0443883,559,988,-13.1623,-2.38449
-658,36,-14.0024,1.96094,0,0,0,0,0,0,0,-1,566,988,-14.0024,-1.96096
-651,36,-14.0022,1.93079,0.016089,0.0320479,0.00425678,0.0331124,0.0150245,1.32577,0.0191447,0.0375006,573,988,-14.0022,-1.93077
-644,36,-14.0463,1.90051,0.0107189,0.0224678,0.0035599,0.0234622,0.0097244,1.29839,0.0136118,0.0182956,580,988,-14.0463,-1.90053
-637,36,-14.059,1.89771,0.00625674,0.0149388,0.00233586,0.0155274,0.00566818,1.32397,0.00907293,0.0127677,587,988,-14.059,-1.89772
-630,36,-14.0312,1.86353,0.00281888,0.00791626,0.00142558,0.00828786,0.00244728,1.3158,0.00491687,0.0115165,594,988,-14.0312,-1.8635
-623,36,-14.05,1.78247,0.000213664,0.00419339,0.00062214,0.00428838,0.000118674,1.41928,0.0028202,0.011578,601,988,-14.05,-1.78246
-616,36,-14.05,1.71564,-0.00167106,0.00299679,-0.000756875,0.00311645,-0.00179072,-1.414,0.00286741,0.00958166,608,988,-14.05,-1.71563
-609,36,-14.0322,1.6626,-0.00225061,0.00230172,-0.0021775,0.00317555,-0.00312444,-1.18917,0.00363734,0.0144539,615,988,-14.0321,-1.6626
-602,36,-14.0242,1.60181,-0.00238978,0.00209467,-0.00295868,0.00356477,-0.00385988,-1.10965,0.00428775,0.0190588,622,988,-14.0241,-1.60181
-595,36,-14.0171,1.53107,-0.00247785,0.00192503,-0.00339581,0.00377055,-0.00432337,-1.07298,0.00467666,0.0206165,629,988,-14.0171,-1.53105
-588,36,-14.064,1.29547,-0.00258472,0.00190694,-0.00369404,0.00398426,-0.00466205,-1.05852,0.00499706,0.02066,636,988,-14.0639,-1.29549
-581,36,-14.1569,0.989319,-0.00264967,0.00194004,-0.00381099,0.00409378,-0.00480341,-1.0564,0.00514224,0.0228671,643,988,-14.1569,-0.989336
-574,36,-14.191,0.839905,-0.00265032,0.00201597,-0.00380513,0.0041463,-0.00478064,-1.06042,0.00515831,0.0265701,650,988,-14.191,-0.839895
-567,36,-14.2115,0.803833,-0.00247736,0.00210094,-0.00350842,0.00400096,-0.00437738,-1.07445,0.00483887,0.0325343,657,988,-14.2115,-0.803812
-560,36,-14.2662,0.820984,-0.0021764,0.00216474,-0.00304792,0.00373599,-0.00374765,-1.09481,0.00432068,0.0350322,664,988,-14.2662,-0.820964
-553,36,-14.2507,0.820557,-0.00178495,0.00218498,-0.00249133,0.00338542,-0.00298539,-1.12178,0.00368061,0.0391611,671,988,-14.2507,-0.820581
-546,36,-14.0789,0.803711,-0.0013899,0.00213345,-0.00193785,0.0029907,-0.00224715,-1.1543,0.00303421,0.0442306,678,988,-14.0789,-0.803701
-539,36,-13.9499,0.991394,-0.00112998,0.00203017,-0.00159938,0.00269835,-0.00179816,-1.17506,0.00261334,0.0458029,685,988,-13.9499,-0.991412
-532,36,-14.033,1.04346,-0.00158944,0.00209512,-0.00198463,0.00296074,-0.00245507,-1.15951,0.00313136,0.0455966,692,988,-14.033,-1.04346
-525,36,-14.1666,1.04578,-0.00373483,0.0023939,-0.00334333,0.00386475,-0.00520568,-1.15634,0.00525586,0.0481984,699,988,-14.1665,-1.04581
-518,36,0,0,0,0,0,0,0,0,0,-1,706,988,0,0
-511,36,0,0,0,0,0,0,0,0,0,-1,713,988,0,0
-504,36,0,0,0,0,0,0,0,0,0,-1,720,988,0,0
-497,36,0,0,0,0,0,0,0,0,0,-1,727,988,0,0
-490,36,0,0,0,0,0,0,0,0,0,-1,734,988,0,0
-483,36,0,0,0,0,0,0,0,0,0,-1,741,988,0,0
-476,36,0,0,0,0,0,0,0,0,0,-1,748,988,0,0
-469,36,0,0,0,0,0,0,0,0,0,-1,755,988,0,0
-462,36,0,0,0,0,0,0,0,0,0,-1,762,988,0,0
-455,36,0,0,0,0,0,0,0,0,0,-1,769,988,0,0
-448,36,0,0,0,0,0,0,0,0,0,-1,776,988,0,0
-441,36,0,0,0,0,0,0,0,0,0,-1,783,988,0,0
-434,36,0,0,0,0,0,0,0,0,0,-1,790,988,0,0
-427,36,0,0,0,0,0,0,0,0,0,-1,797,988,0,0
-420,36,0,0,0,0,0,0,0,0,0,-1,804,988,0,0
-413,36,0,0,0,0,0,0,0,0,0,-1,811,988,0,0
-406,36,0,0,0,0,0,0,0,0,0,-1,818,988,0,0
-399,36,0,0,0,0,0,0,0,0,0,-1,825,988,0,0
-392,36,0,0,0,0,0,0,0,0,0,-1,832,988,0,0
-385,36,0,0,0,0,0,0,0,0,0,-1,839,988,0,0
-378,36,0,0,0,0,0,0,0,0,0,-1,846,988,0,0
-371,36,0,0,0,0,0,0,0,0,0,-1,853,988,0,0
-364,36,0,0,0,0,0,0,0,0,0,-1,860,988,0,0
-357,36,0,0,0,0,0,0,0,0,0,-1,867,988,0,0
-350,36,0,0,0,0,0,0,0,0,0,-1,874,988,0,0
-343,36,0,0,0,0,0,0,0,0,0,-1,881,988,0,0
-336,36,0,0,0,0,0,0,0,0,0,-1,888,988,0,0
-329,36,0,0,0,0,0,0,0,0,0,-1,895,988,0,0
-322,36,0,0,0,0,0,0,0,0,0,-1,902,988,0,0
-315,36,0,0,0,0,0,0,0,0,0,-1,909,988,0,0
-308,36,0,0,0,0,0,0,0,0,0,-1,916,988,0,0
-301,36,0,0,0,0,0,0,0,0,0,-1,923,988,0,0
-294,36,0,0,0,0,0,0,0,0,0,-1,930,988,0,0
-287,36,0,0,0,0,0,0,0,0,0,-1,937,988,0,0
-280,36,0,0,0,0,0,0,0,0,0,-1,944,988,0,0
-273,36,0,0,0,0,0,0,0,0,0,-1,951,988,0,0
-266,36,0,0,0,0,0,0,0,0,0,-1,958,988,0,0
-259,36,0,0,0,0,0,0,0,0,0,-1,965,988,0,0
-252,36,0,0,0,0,0,0,0,0,0,-1,972,988,0,0
-245,36,0,0,0,0,0,0,0,0,0,-1,979,988,0,0
-238,36,0,0,0,0,0,0,0,0,0,-1,986,988,0,0
-231,36,0,0,0,0,0,0,0,0,0,-1,993,988,0,0
-224,36,0,0,0,0,0,0,0,0,0,-1,1000,988,0,0
-217,36,0,0,0,0,0,0,0,0,0,-1,1007,988,0,0
-210,36,0,0,0,0,0,0,0,0,0,-1,1014,988,0,0
-203,36,0,0,0,0,0,0,0,0,0,-1,1021,988,0,0
-196,36,0,0,0,0,0,0,0,0,0,-1,1028,988,0,0
-189,36,0,0,0,0,0,0,0,0,0,-1,1035,988,0,0
-182,36,0,0,0,0,0,0,0,0,0,-1,1042,988,0,0
-175,36,0,0,0,0,0,0,0,0,0,-1,1049,988,0,0
-168,36,0,0,0,0,0,0,0,0,0,-1,1056,988,0,0
-161,36,0,0,0,0,0,0,0,0,0,-1,1063,988,0,0
-154,36,0,0,0,0,0,0,0,0,0,-1,1070,988,0,0
-147,36,0,0,0,0,0,0,0,0,0,-1,1077,988,0,0
-140,36,0,0,0,0,0,0,0,0,0,-1,1084,988,0,0
-133,36,0,0,0,0,0,0,0,0,0,-1,1091,988,0,0
-126,36,0,0,0,0,0,0,0,0,0,-1,1098,988,0,0
-119,36,0,0,0,0,0,0,0,0,0,-1,1105,988,0,0
-112,36,0,0,0,0,0,0,0,0,0,-1,1112,988,0,0
-105,36,0,0,0,0,0,0,0,0,0,-1,1119,988,0,0
-98,36,0,0,0,0,0,0,0,0,0,-1,1126,988,0,0
-91,36,0,0,0,0,0,0,0,0,0,-1,1133,988,0,0
-84,36,0,0,0,0,0,0,0,0,0,-1,1140,988,0,0
-77,36,0,0,0,0,0,0,0,0,0,-1,1147,988,0,0
-70,36,0,0,0,0,0,0,0,0,0,-1,1154,988,0,0
-63,36,0,0,0,0,0,0,0,0,0,-1,1161,988,0,0
-56,36,0,0,0,0,0,0,0,0,0,-1,1168,988,0,0
-49,36,0,0,0,0,0,0,0,0,0,-1,1175,988,0,0
-42,36,0,0,0,0,0,0,0,0,0,-1,1182,988,0,0
-35,36,0,0,0,0,0,0,0,0,0,-1,1189,988,0,0
-28,36,0,0,0,0,0,0,0,0,0,-1,1196,988,0,0
-21,36,0,0,0,0,0,0,0,0,0,-1,1203,988,0,0
-14,36,0,0,0,0,0,0,0,0,0,-1,1210,988,0,0
-7,36,0,0,0,0,0,0,0,0,0,-1,1217,988,0,0
0,36,0,0,0,0,0,0,0,0,0,-1,1224,988,0,0
7,36,0,0,0,0,0,0,0,0,0,-1,1231,988,0,0
14,36,0,0,0,0,0,0,0,0,0,-1,1238,988,0,0
21,36,0,0,0,0,0,0,0,0,0,-1,1245,988,0,0
28,36,0,0,0,0,0,0,0,0,0,-1,1252,988,0,0
35,36,0,0,0,0,0,0,0,0,0,-1,1259,988,0,0
42,36,0,0,0,0,0,0,0,0,0,-1,1266,988,0,0
49,36,0,0,0,0,0,0,0,0,0,-1,1273,988,0,0
56,36,0,0,0,0,0,0,0,0,0,-1,1280,988,0,0
63,36,0,0,0,0,0,0,0,0,0,-1,1287,988,0,0
70,36,0,0,0,0,0,0,0,0,0,-1,1294,988,0,0
77,36,0,0,0,0,0,0,0,0,0,-1,1301,988,0,0
84,36,0,0,0,0,0,0,0,0,0,-1,1308,988,0,0
91,36,0,0,0,0,0,0,0,0,0,-1,1315,988,0,0
98,36,0,0,0,0,0,0,0,0,0,-1,1322,988,0,0
105,36,0,0,0,0,0,0,0,0,0,-1,1329,988,0,0
112,36,0,0,0,0,0,0,0,0,0,-1,1336,988,0,0
119,36,0,0,0,0,0,0,0,0,0,-1,1343,988,0,0
126,36,0,0,0,0,0,0,0,0,0,-1,1350,988,0,0
133,36,0,0,0,0,0,0,0,0,0,-1,1357,988,0,0
140,36,0,0,0,0,0,0,0,0,0,-1,1364,988,0,0
147,36,0,0,0,0,0,0,0,0,0,-1,1371,988,0,0
154,36,0,0,0,0,0,0,0,0,0,-1,1378,988,0,0
161,36,0,0,0,0,0,0,0,0,0,-1,1385,988,0,0
168,36,0,0,0,0,0,0,0,0,0,-1,1392,988,0,0
175,36,0,0,0,0,0,0,0,0,0,-1,1399,988,0,0
182,36,0,0,0,0,0,0,0,0,0,-1,1406,988,0,0
189,36,0,0,0,0,0,0,0,0,0,-1,1413,988,0,0
196,36,0,0,0,0,0,0,0,0,0,-1,1420,988,0,0
203,36,0,0,0,0,0,0,0,0,0,-1,1427,988,0,0
210,36,0,0,0,0,0,0,0,0,0,-1,1434,988,0,0
217,36,0,0,0,0,0,0,0,0,0,-1,1441,988,0,0
224,36,0,0,0,0,0,0,0,0,0,-1,1448,988,0,0
231,36,0,0,0,0,0,0,0,0,0,-1,1455,988,0,0
238,36,0,0,0,0,0,0,0,0,0,-1,1462,988,0,0
245,36,0,0,0,0,0,0,0,0,0,-1,1469,988,0,0
252,36,0,0,0,0,0,0,0,0,0,-1,1476,988,0,0
259,36,0,0,0,0,0,0,0,0,0,-1,1483,988,0,0
266,36,0,0,0,0,0,0,0,0,0,-1,1490,988,0,0
273,36,0,0,0,0,0,0,0,0,0,-1,1497,988,0,0
280,36,0,0,0,0,0,0,0,0,0,-1,1504,988,0,0
287,36,0,0,0,0,0,0,0,0,0,-1,1511,988,0,0
294,36,0,0,0,0,0,0,0,0,0,-1,1518,988,0,0
301,36,0,0,0,0,0,0,0,0,0,-1,1525,988,0,0
308,36,0,0,0,0,0,0,0,0,0,-1,1532,988,0,0
315,36,0,0,0,0,0,0,0,0,0,-1,1539,988,0,0
322,36,0,0,0,0,0,0,0,0,0,-1,1546,988,0,0
329,36,0,0,0,0,0,0,0,0,0,-1,1553,988,0,0
336,36,0,0,0,0,0,0,0,0,0,-1,1560,988,0,0
343,36,0,0,0,0,0,0,0,0,0,-1,1567,988,0,0
350,36,0,0,0,0,0,0,0,0,0,-1,1574,988,0,0
357,36,0,0,0,0,0,0,0,0,0,-1,1581,988,0,0
364,36,0,0,0,0,0,0,0,0,0,-1,1588,988,0,0
371,36,0,0,0,0,0,0,0,0,0,-1,1595,988,0,0
378,36,0,0,0,0,0,0,0,0,0,-1,1602,988,0,0
385,36,0,0,0,0,0,0,0,0,0,-1,1609,988,0,0
392,36,0,0,0,0,0,0,0,0,0,-1,1616,988,0,0
399,36,0,0,0,0,0,0,0,0,0,-1,1623,988,0,0
406,36,0,0,0,0,0,0,0,0,0,-1,1630,988,0,0
413,36,0,0,0,0,0,0,0,0,0,-1,1637,988,0,0
420,36,0,0,0,0,0,0,0,0,0,-1,1644,988,0,0
427,36,0,0,0,0,0,0,0,0,0,-1,1651,988,0,0
434,36,0,0,0,0,0,0,0,0,0,-1,1658,988,0,0
441,36,0,0,0,0,0,0,0,0,0,-1,1665,988,0,0
448,36,0,0,0,0,0,0,0,0,0,-1,1672,988,0,0
455,36,0,0,0,0,0,0,0,0,0,-1,1679,988,0,0
462,36,0,0,0,0,0,0,0,0,0,-1,1686,988,0,0
469,36,0,0,0,0,0,0,0,0,0,-1,1693,988,0,0
476,36,0,0,0,0,0,0,0,0,0,-1,1700,988,0,0
483,36,0,0,0,0,0,0,0,0,0,-1,1707,988,0,0
490,36,0,0,0,0,0,0,0,0,0,-1,1714,988,0,0
497,36,0,0,0,0,0,0,0,0,0,-1,1721,988,0,0
504,36,0,0,0,0,0,0,0,0,0,-1,1728,988,0,0
511,36,0,0,0,0,0,0,0,0,0,-1,1735,988,0,0
518,36,0,0,0,0,0,0,0,0,0,-1,1742,988,0,0
525,36,0,0,0,0,0,0,0,0,0,-1,1749,988,0,0
532,36,0,0,0,0,0,0,0,0,0,-1,1756,988,0,0
539,36,0,0,0,0,0,0,0,0,0,-1,1763,988,0,0
546,36,0,0,0,0,0,0,0,0,0,-1,1770,988,0,0
553,36,0,0,0,0,0,0,0,0,0,-1,1777,988,0,0
560,36,0,0,0,0,0,0,0,0,0,-1,1784,988,0,0
567,36,0,0,0,0,0,0,0,0,0,-1,1791,988,0,0
574,36,0,0,0,0,0,0,0,0,0,-1,1798,988,0,0
581,36,0,0,0,0,0,0,0,0,0,-1,1805,988,0,0
588,36,0,0,0,0,0,0,0,0,0,-1,1812,988,0,0
595,36,0,0,0,0,0,0,0,0,0,-1,1819,988,0,0
602,36,0,0,0,0,0,0,0,0,0,-1,1826,988,0,0
609,36,0,0,0,0,0,0,0,0,0,-1,1833,988,0,0
616,36,0,0,0,0,0,0,0,0,0,-1,1840,988,0,0
623,36,0,0,0,0,0,0,0,0,0,-1,1847,988,0,0
630,36,0,0,0,0,0,0,0,0,0,-1,1854,988,0,0
637,36,0,0,0,0,0,0,0,0,0,-1,1861,988,0,0
644,36,21.8395,3.00415,-0.000540423,0.00135183,-0.0013277,0.00203602,-0.00122462,-1.09497,0.00190186,0.0407181,1868,988,21.8395,-3.00418
651,36,21.842,3.09802,-0.000460067,0.000865387,-0.00124003,0.00160868,-0.00120336,-1.03081,0.00162914,0.0395792,1875,988,21.842,-3.09804
658,36,21.9502,2.91339,-0.000435594,0.000462773,-0.000931967,0.00104816,-0.00102098,-1.00996,0.00119465,0.0386207,1882,988,21.9502,-2.91337
665,36,21.8962,2.67444,-0.000549645,0.000269393,-0.000424687,0.000449845,-0.000730096,-1.16901,0.000687615,0.0384427,1889,988,21.8962,-2.67443
672,36,21.8635,2.61517,-0.000713213,0.000276152,0.000323111,0.000372326,-0.000809387,1.2815,0.000697643,0.0382523,1896,988,21.8635,-2.61517
679,36,21.8986,2.74268,-0.00104632,0.000346622,0.00117265,0.00101404,-0.00171374,1.05337,0.00159206,0.0398722,1903,988,21.8985,-2.74269
686,36,21.7141,2.89087,-0.00136011,0.000421585,0.00191149,0.00163962,-0.00257815,1.00346,0.00245514,0.0375377,1910,988,21.7142,-2.89087
693,36,21.692,2.84009,-0.00154161,0.000531969,0.00244113,0.00214736,-0.003157,0.986214,0.00308091,0.037492,1917,988,21.6921,-2.8401
700,36,21.7361,2.82745,-0.0017504,0.000573067,0.00274981,0.00239647,-0.00357381,0.985265,0.00346921,0.0348852,1924,988,21.736,-2.82748
707,36,21.7723,2.763,-0.00195845,0.000683674,0.00289607,0.00254576,-0.00382054,0.999379,0.00370006,0.0236607,1931,988,21.7723,-2.76301
714,36,21.8278,2.85583,-0.00210334,0.0008609,0.002993,0.00271865,-0.00396109,1.0153,0.00387872,0.0271865,1938,988,21.8278,-2.85583
721,36,21.493,3.70978,0,0,0,0,0,0,0,-1,1945,988,21.493,-3.70977
728,36,21.2911,3.85339,-0.00261519,0.00123299,0.00285255,0.00274971,-0.00413191,1.08211,0.00399973,0.0224282,1952,988,21.2911,-3.85339
735,36,21.0791,3.99164,-0.00324751,0.00159763,0.00263788,0.00275657,-0.00440645,1.15684,0.00417198,0.018397,1959,988,21.0791,-3.99161
742,36,21.0829,4.04456,-0.00401655,0.00230613,0.00232662,0.00306999,-0.00478042,1.25357,0.00456816,0.0144972,1966,988,21.0829,-4.04454
749,36,21.1068,4.10504,-0.00505037,0.00335302,0.00198749,0.00379937,-0.00549673,1.34988,0.00539684,0.0154516,1973,988,21.1068,-4.10504
756,36,21.0859,4.16479,-0.00698411,0.00461938,0.00201219,0.00495842,-0.00732314,1.40387,0.00713444,0.0129418,1980,988,21.086,-4.1648
763,36,21.0814,4.23499,-0.00937615,0.00623762,0.00216954,0.00653347,-0.009672,1.43527,0.00941454,0.0148634,1987,988,21.0814,-4.23499
770,36,21.0613,4.30603,-0.0126121,0.00842651,0.00259743,0.00874244,-0.0129281,1.44976,0.012589,0.0127319,1994,988,21.0613,-4.30606
777,36,21.0261,4.37823,-0.0167948,0.0113294,0.00364698,0.0117946,-0.01726,1.44392,0.0168733,0.0206096,2001,988,21.0261,-4.37821
784,36,20.7777,4.43176,-0.0219918,0.0146441,0.00525302,0.0153824,-0.0227301,1.43116,0.0221402,0.0422945,2008,988,20.7778,-4.43173
791,36,20.5917,4.47357,-0.0284781,0.0185148,0.00755116,0.0196984,-0.0296616,1.41532,0.0286909,0.0448061,2015,988,20.5916,-4.47355
798,36,20.2958,4.73071,-0.0362097,0.022941,0.0105719,0.0247737,-0.0380424,1.39915,0.0365356,0.0417221,2022,988,20.2957,-4.73074
805,36,19.2668,5.37659,-0.045424,0.0279276,0.0146236,0.0307355,-0.0482319,1.38109,0.0459634,0.0473715,2029,988,19.2669,-5.37657
812,36,18.9243,5.85529,0,0,0,0,0,0,0,-1,2036,988,18.9244,-5.85529
-700,29,0,0,0,0,0,0,0,0,0,-1,524,995,0,0
-693,29,-13.5194,-3.742,0.0564091,0.12715,0.00561722,0.127593,0.0559658,1.49205,0.0738509,0.0455271,531,995,-13.5194,3.74202
-686,29,-13.0023,-3.23462,0.0480225,0.104691,0.00586195,0.105291,0.0474225,1.46879,0.0608895,0.0457561,538,995,-13.0023,3.23462
-679,29,-13.4625,1.58838,0,0,0,0,0,0,0,-1,545,995,-13.4625,-1.58835
-672,29,-13.3134,1.80194,0.0308297,0.0666108,0.00610282,0.0676231,0.0298174,1.40643,0.0391329,0.0448566,552,995,-13.3134,-1.80194
-665,29,-13.1739,2.021,0.0232599,0.051214,0.0059208,0.0524163,0.0220576,1.37045,0.0303888,0.0427128,559,995,-13.1739,-2.02099
-658,29,-13.0452,2.2511,0,0,0,0,0,0,0,-1,566,995,-13.0452,-2.25108
-651,29,-13.9626,1.8537,0.0114178,0.0276674,0.00490347,0.0290324,0.0100528,1.29929,0.0170239,0.040538,573,995,-13.9626,-1.8537
-644,29,-14.0568,1.82379,0.00729315,0.0193449,0.00402005,0.0205628,0.00607527,1.27663,0.0121986,0.0187563,580,995,-14.0567,-1.82376
-637,29,-14.0975,1.83612,0.00380656,0.0126856,0.00262033,0.0134012,0.00309094,1.30419,0.00810279,0.0122759,587,995,-14.0975,-1.83611
-630,29,-14.0923,1.82288,0.00123663,0.00686943,0.00153866,0.00726233,0.000843735,1.32079,0.00458625,0.011033,594,995,-14.0923,-1.82285
-623,29,-14.0994,1.77161,-0.000427298,0.00368433,0.000492606,0.00374253,-0.000485492,1.45321,0.00267159,0.0102946,601,995,-14.0994,-1.7716
-616,29,-14.0951,1.71808,-0.00172484,0.00272565,-0.00105179,0.0029617,-0.00196089,-1.35003,0.00286157,0.0118181,608,995,-14.0951,-1.71808
-609,29,-14.0829,1.68512,-0.00206921,0.00211627,-0.00261059,0.00336938,-0.00332233,-1.12327,0.00386349,0.0187913,615,995,-14.083,-1.68509
-602,29,-14.0814,1.64575,-0.00198809,0.00195794,-0.00350245,0.00400487,-0.00403502,-1.04191,0.00464184,0.0214428,622,995,-14.0814,-1.64573
-595,29,-14.0443,1.55756,-0.0019208,0.00180505,-0.00394317,0.00430322,-0.00441896,-1.00608,0.0050359,0.020332,629,995,-14.0442,-1.55757
-588,29,-14.0909,1.26807,-0.00194239,0.00174525,-0.00421119,0.00449859,-0.00469572,-0.991745,0.00530874,0.0251858,636,995,-14.0909,-1.26805
-581,29,-14.1682,0.959778,-0.00194995,0.0017121,-0.00425445,0.00451281,-0.00475066,-0.988608,0.00534886,0.0339136,643,995,-14.1682,-0.959754
-574,29,-14.199,0.941711,-0.00193994,0.00170388,-0.00412141,0.00438812,-0.00462418,-0.993513,0.00520385,0.0299732,650,995,-14.199,-0.941693
-567,29,-14.2115,0.906799,-0.00177158,0.00169075,-0.00364592,0.00399563,-0.00407646,-1.00705,0.0046605,0.0315684,657,995,-14.2115,-0.90677
-560,29,-14.3501,0.75116,-0.00151219,0.00163836,-0.00294256,0.00340078,-0.00327461,-1.03116,0.00385426,0.0349169,664,995,-14.3501,-0.751179
-553,29,-14.3785,0.642578,-0.00120653,0.00152697,-0.0020826,0.00265125,-0.00233081,-1.07578,0.00287838,0.0400886,671,995,-14.3785,-0.642563
-546,29,-14.1777,0.578674,-0.000945733,0.00132725,-0.00116697,0.0018197,-0.00143818,-1.17148,0.00188523,0.0451738,678,995,-14.1778,-0.578668
-539,29,-13.983,0.707703,-0.000875549,0.0010762,-0.000453467,0.00117641,-0.000975762,-1.3533,0.00124436,0.0429262,685,995,-13.983,-0.70773
-532,29,-13.9435,1.02612,-0.00159599,0.00102366,-0.00053439,0.00112848,-0.0017008,-1.37711,0.00164459,0.0446374,692,995,-13.9435,-1.02615
-525,29,-14.3177,0.88208,-0.00397178,0.00119852,-0.00157474,0.00164038,-0.00441364,-1.29724,0.00361547,0.0458774,699,995,-14.3177,-0.882076
-518,29,0,0,0,0,0,0,0,0,0,-1,706,995,0,0
-511,29,0,0,0,0,0,0,0,0,0,-1,713,995,0,0
-504,29,0,0,0,0,0,0,0,0,0,-1,720,995,0,0
-497,29,0,0,0,0,0,0,0,0,0,-1,727,995,0,0
-490,29,0,0,0,0,0,0,0,0,0,-1,734,995,0,0
-483,29,0,0,0,0,0,0,0,0,0,-1,741,995,0,0
-476,29,0,0,0,0,0,0,0,0,0,-1,748,995,0,0
-469,29,0,0,0,0,0,0,0,0,0,-1,755,995,0,0
-462,29,0,0,0,0,0,0,0,0,0,-1,762,995,0,0
-455,29,0,0,0,0,0,0,0,0,0,-1,769,995,0,0
-448,29,0,0,0,0,0,0,0,0,0,-1,776,995,0,0
-441,29,0,0,0,0,0,0,0,0,0,-1,783,995,0,0
-434,29,0,0,0,0,0,0,0,0,0,-1,790,995,0,0
-427,29,0,0,0,0,0,0,0,0,0,-1,797,995,0,0
-420,29,0,0,0,0,0,0,0,0,0,-1,804,995,0,0
-413,29,0,0,0,0,0,0,0,0,0,-1,811,995,0,0
-406,29,0,0,0,0,0,0,0,0,0,-1,818,995,0,0
-399,29,0,0,0,0,0,0,0,0,0,-1,825,995,0,0
-392,29,0,0,0,0,0,0,0,0,0,-1,832,995,0,0
-385,29,0,0,0,0,0,0,0,0,0,-1,839,995,0,0
-378,29,0,0,0,0,0,0,0,0,0,-1,846,995,0,0
-371,29,0,0,0,0,0,0,0,0,0,-1,853,995,0,0
-364,29,0,0,0,0,0,0,0,0,0,-1,860,995,0,0
-357,29,0,0,0,0,0,0,0,0,0,-1,867,995,0,0
-350,29,0,0,0,0,0,0,0,0,0,-1,874,995,0,0
-343,29,0,0,0,0,0,0,0,0,0,-1,881,995,0,0
-336,29,0,0,0,0,0,0,0,0,0,-1,888,995,0,0
-329,29,0,0,0,0,0,0,0,0,0,-1,895,995,0,0
-322,29,0,0,0,0,0,0,0,0,0,-1,902,995,0,0
-315,29,0,0,0,0,0,0,0,0,0,-1,909,995,0,0
-308,29,0,0,0,0,0,0,0,0,0,-1,916,995,0,0
-301,29,0,0,0,0,0,0,0,0,0,-1,923,995,0,0
-294,29,0,0,0,0,0,0,0,0,0,-1,930,995,0,0
-287,29,0,0,0,0,0,0,0,0,0,-1,937,995,0,0
-280,29,0,0,0,0,0,0,0,0,0,-1,944,995,0,0
-273,29,0,0,0,0,0,0,0,0,0,-1,951,995,0,0
-266,29,0,0,0,0,0,0,0,0,0,-1,958,995,0,0
-259,29,0,0,0,0,0,0,0,0,0,-1,965,995,0,0
-252,29,0,0,0,0,0,0,0,0,0,-1,972,995,0,0
-245,29,0,0,0,0,0,0,0,0,0,-1,979,995,0,0
-238,29,0,0,0,0,0,0,0,0,0,-1,986,995,0,0
-231,29,0,0,0,0,0,0,0,0,0,-1,993,995,0,0
-224,29,0,0,0,0,0,0,0,0,0,-1,1000,995,0,0
-217,29,0,0,0,0,0,0,0,0,0,-1,1007,995,0,0
-210,29,0,0,0,0,0,0,0,0,0,-1,1014,995,0,0
-203,29,0,0,0,0,0,0,0,0,0,-1,1021,995,0,0
-196,29,0,0,0,0,0,0,0,0,0,-1,1028,995,0,0
-189,29,0,0,0,0,0,0,0,0,0,-1,1035,995,0,0
-182,29,0,0,0,0,0,0,0,0,0,-1,1042,995,0,0
-175,29,0,0,0,0,0,0,0,0,0,-1,1049,995,0,0
-168,29,0,0,0,0,0,0,0,0,0,-1,1056,995,0,0
-161,29,0,0,0,0,0,0,0,0,0,-1,1063,995,0,0
-154,29,0,0,0,0,0,0,0,0,0,-1,1070,995,0,0
-147,29,0,0,0,0,0,0,0,0,0,-1,1077,995,0,0
-140,29,0,0,0,0,0,0,0,0,0,-1,1084,995,0,0
-133,29,0,0,0,0,0,0,0,0,0,-1,1091,995,0,0
-126,29,0,0,0,0,0,0,0,0,0,-1,1098,995,0,0
-119,29,0,0,0,0,0,0,0,0,0,-1,1105,995,0,0
-112,29,0,0,0,0,0,0,0,0,0,-1,1112,995,0,0
-105,29,0,0,0,0,0,0,0,0,0,-1,1119,995,0,0
-98,29,0,0,0,0,0,0,0,0,0,-1,1126,995,0,0
-91,29,0,0,0,0,0,0,0,0,0,-1,1133,995,0,0
-84,29,0,0,0,0,0,0,0,0,0,-1,1140,995,0,0
-77,29,0,0,0,0,0,0,0,0,0,-1,1147,995,0,0
-70,29,0,0,0,0,0,0,0,0,0,-1,1154,995,0,0
-63,29,0,0,0,0,0,0,0,0,0,-1,1161,995,0,0
-56,29,0,0,0,0,0,0,0,0,0,-1,1168,995,0,0
-49,29,0,0,0,0,0,0,0,0,0,-1,1175,995,0,0
-42,29,0,0,0,0,0,0,0,0,0,-1,1182,995,0,0
-35,29,0,0,0,0,0,0,0,0,0,-1,1189,995,0,0
-28,29,0,0,0,0,0,0,0,0,0,-1,1196,995,0,0
-21,29,0,0,0,0,0,0,0,0,0,-1,1203,995,0,0
-14,29,0,0,0,0,0,0,0,0,0,-1,1210,995,0,0
-7,29,0,0,0,0,0,0,0,0,0,-1,1217,995,0,0
0,29,0,0,0,0,0,0,0,0,0,-1,1224,995,0,0
7,29,0,0,0,0,0,0,0,0,0,-1,1231,995,0,0
14,29,0,0,0,0,0,0,0,0,0,-1,1238,995,0,0
21,29,0,0,0,0,0,0,0,0,0,-1,1245,995,0,0
28,29,0,0,0,0,0,0,0,0,0,-1,1252,995,0,0
35,29,0,0,0,0,0,0,0,0,0,-1,1259,995,0,0
42,29,0,0,0,0,0,0,0,0,0,-1,1266,995,0,0
49,29,0,0,0,0,0,0,0,0,0,-1,1273,995,0,0
56,29,0,0,0,0,0,0,0,0,0,-1,1280,995,0,0
63,29,0,0,0,0,0,0,0,0,0,-1,1287,995,0,0
70,29,0,0,0,0,0,0,0,0,0,-1,1294,995,0,0
77,29,0,0,0,0,0,0,0,0,0,-1,1301,995,0,0
84,29,0,0,0,0,0,0,0,0,0,-1,1308,995,0,0
91,29,0,0,0,0,0,0,0,0,0,-1,1315,995,0,0
98,29,0,0,0,0,0,0,0,0,0,-1,1322,995,0,0
105,29,0,0,0,0,0,0,0,0,0,-1,1329,995,0,0
112,29,0,0,0,0,0,0,0,0,0,-1,1336,995,0,0
119,29,0,0,0,0,0,0,0,0,0,-1,1343,995,0,0
126,29,0,0,0,0,0,0,0,0,0,-1,1350,995,0,0
133,29,0,0,0,0,0,0,0,0,0,-1,1357,995,0,0
140,29,0,0,0,0,0,0,0,0,0,-1,1364,995,0,0
147,29,0,0,0,0,0,0,0,0,0,-1,1371,995,0,0
154,29,0,0,0,0,0,0,0,0,0,-1,1378,995,0,0
161,29,0,0,0,0,0,0,0,0,0,-1,1385,995,0,0
168,29,0,0,0,0,0,0,0,0,0,-1,1392,995,0,0
175,29,0,0,0,0,0,0,0,0,0,-1,1399,995,0,0
182,29,0,0,0,0,0,0,0,0,0,-1,1406,995,0,0
189,29,0,0,0,0,0,0,0,0,0,-1,1413,995,0,0
196,29,0,0,0,0,0,0,0,0,0,-1,1420,995,0,0
203,29,0,0,0,0,0,0,0,0,0,-1,1427,995,0,0
210,29,0,0,0,0,0,0,0,0,0,-1,1434,995,0,0
217,29,0,0,0,0,0,0,0,0,0,-1,1441,995,0,0
224,29,0,0,0,0,0,0,0,0,0,-1,1448,995,0,0
231,29,0,0,0,0,0,0,0,0,0,-1,1455,995,0,0
238,29,0,0,0,0,0,0,0,0,0,-1,1462,995,0,0
245,29,0,0,0,0,0,0,0,0,0,-1,1469,995,0,0
252,29,0,0,0,0,0,0,0,0,0,-1,1476,995,0,0
259,29,0,0,0,0,0,0,0,0,0,-1,1483,995,0,0
266,29,0,0,0,0,0,0,0,0,0,-1,1490,995,0,0
273,29,0,0,0,0,0,0,0,0,0,-1,1497,995,0,0
280,29,0,0,0,0,0,0,0,0,0,-1,1504,995,0,0
287,29,0,0,0,0,0,0,0,0,0,-1,1511,995,0,0
294,29,0,0,0,0,0,0,0,0,0,-1,1518,995,0,0
301,29,0,0,0,0,0,0,0,0,0,-1,1525,995,0,0
308,29,0,0,0,0,0,0,0,0,0,-1,1532,995,0,0
315,29,0,0,0,0,0,0,0,0,0,-1,1539,995,0,0
322,29,0,0,0,0,0,0,0,0,0,-1,1546,995,0,0
329,29,0,0,0,0,0,0,0,0,0,-1,1553,995,0,0
336,29,0,0,0,0,0,0,0,0,0,-1,1560,995,0,0
343,29,0,0,0,0,0,0,0,0,0,-1,1567,995,0,0
350,29,0,0,0,0,0,0,0,0,0,-1,1574,995,0,0
357,29,0,0,0,0,0,0,0,0,0,-1,1581,995,0,0
364,29,0,0,0,0,0,0,0,0,0,-1,1588,995,0,0
371,29,0,0,0,0,0,0,0,0,0,-1,1595,995,0,0
378,29,0,0,0,0,0,0,0,0,0,-1,1602,995,0,0
385,29,0,0,0,0,0,0,0,0,0,-1,1609,995,0,0
392,29,0,0,0,0,0,0,0,0,0,-1,1616,995,0,0
399,29,0,0,0,0,0,0,0,0,0,-1,1623,995,0,0
406,29,0,0,0,0,0,0,0,0,0,-1,1630,995,0,0
413,29,0,0,0,0,0,0,0,0,0,-1,1637,995,0,0
420,29,0,0,0,0,0,0,0,0,0,-1,1644,995,0,0
427,29,0,0,0,0,0,0,0,0,0,-1,1651,995,0,0
434,29,0,0,0,0,0,0,0,0,0,-1,1658,995,0,0
441,29,0,0,0,0,0,0,0,0,0,-1,1665,995,0,0
448,29,0,0,0,0,0,0,0,0,0,-1,1672,995,0,0
455,29,0,0,0,0,0,0,0,0,0,-1,1679,995,0,0
462,29,0,0,0,0,0,0,0,0,0,-1,1686,995,0,0
469,29,0,0,0,0,0,0,0,0,0,-1,1693,995,0,0
476,29,0,0,0,0,0,0,0,0,0,-1,1700,995,0,0
483,29,0,0,0,0,0,0,0,0,0,-1,1707,995,0,0
490,29,0,0,0,0,0,0,0,0,0,-1,1714,995,0,0
497,29,0,0,0,0,0,0,0,0,0,-1,1721,995,0,0
504,29,0,0,0,0,0,0,0,0,0,-1,1728,995,0,0
511,29,0,0,0,0,0,0,0,0,0,-1,1735,995,0,0
518,29,0,0,0,0,0,0,0,0,0,-1,1742,995,0,0
525,29,0,0,0,0,0,0,0,0,0,-1,1749,995,0,0
532,29,0,0,0,0,0,0,0,0,0,-1,1756,995,0,0
539,29,0,0,0,0,0,0,0,0,0,-1,1763,995,0,0
546,29,0,0,0,0,0,0,0,0,0,-1,1770,995,0,0
553,29,0,0,0,0,0,0,0,0,0,-1,1777,995,0,0
560,29,0,0,0,0,0,0,0,0,0,-1,1784,995,0,0
567,29,0,0,0,0,0,0,0,0,0,-1,1791,995,0,0
574,29,0,0,0,0,0,0,0,0,0,-1,1798,995,0,0
581,29,0,0,0,0,0,0,0,0,0,-1,1805,995,0,0
588,29,0,0,0,0,0,0,0,0,0,-1,1812,995,0,0
595,29,0,0,0,0,0,0,0,0,0,-1,1819,995,0,0
602,29,0,0,0,0,0,0,0,0,0,-1,1826,995,0,0
609,29,0,0,0,0,0,0,0,0,0,-1,1833,995,0,0
616,29,0,0,0,0,0,0,0,0,0,-1,1840,995,0,0
623,29,0,0,0,0,0,0,0,0,0,-1,1847,995,0,0
630,29,0,0,0,0,0,0,0,0,0,-1,1854,995,0,0
637,29,0,0,0,0,0,0,0,0,0,-1,1861,995,0,0
644,29,21.8105,2.98364,-0.000522257,0.00339091,-0.00015117,0.00339674,-0.000528088,-1.53224,0.0024595,0.0417677,1868,995,21.8106,-2.98364
651,29,21.7136,3.12799,-0.000597268,0.00227854,-0.000347888,0.00232003,-0.000638753,-1.45211,0.00179783,0.040169,1875,995,21.7136,-3.12798
658,29,21.7443,3.27002,-0.000626913,0.0014489,-0.000320504,0.00149726,-0.000675272,-1.42104,0.00128389,0.041184,1882,995,21.7442,-3.26999
665,29,21.8514,3.04773,-0.000636889,0.00093628,-4.97546e-05,0.000937852,-0.000638461,-1.53921,0.00091554,0.0404218,1889,995,21.8514,-3.04771
672,29,21.8574,2.81445,-0.000650515,0.000701766,0.000518301,0.000877566,-0.000826315,1.24379,0.000983884,0.0380295,1896,995,21.8575,-2.81443
679,29,21.8767,2.69348,-0.000868717,0.00059116,0.00128338,0.00133766,-0.00161522,1.04397,0.00170735,0.0384554,1903,995,21.8767,-2.69349
686,29,21.7631,2.81006,-0.00110845,0.000548513,0.00200661,0.00189095,-0.00245088,0.981176,0.0025137,0.0376234,1910,995,21.763,-2.81008
693,29,21.6708,2.86487,-0.00125843,0.000558929,0.00255349,0.00236061,-0.0030601,0.956339,0.00313832,0.0370483,1917,995,21.6708,-2.86484
700,29,21.6943,2.83795,-0.00144828,0.000526174,0.00288681,0.0025899,-0.003512,0.950153,0.00353632,0.0336826,1924,995,21.6943,-2.83794
707,29,21.7209,2.78656,-0.00164438,0.00059409,0.00306628,0.00273901,-0.00378931,0.960392,0.00378535,0.0221342,1931,995,21.7209,-2.78657
714,29,21.7761,2.979,-0.00180936,0.000748316,0.00321997,0.0029341,-0.00399515,0.974425,0.00401621,0.0254058,1938,995,21.7761,-2.97901
721,29,21.5627,3.6521,0,0,0,0,0,0,0,-1,1945,995,21.5628,-3.65208
728,29,21.3065,3.85132,-0.00241018,0.00113691,0.00312011,0.00295231,-0.00422558,1.04384,0.00416583,0.0220635,1952,995,21.3065,-3.85129
735,29,21.1599,4.01569,-0.00308879,0.00152763,0.00287024,0.00290264,-0.0044638,1.12404,0.00428474,0.0155766,1959,995,21.1599,-4.01566
742,29,21.1742,4.04626,-0.00386622,0.00221965,0.00250208,0.00311624,-0.00476281,1.22671,0.00458196,0.0126653,1966,995,21.1742,-4.04629
749,29,21.1831,4.09491,-0.00482239,0.00323529,0.0020513,0.00372744,-0.00531454,1.33532,0.00524713,0.0133523,1973,995,21.1831,-4.09489
756,29,21.1641,4.16968,-0.00664507,0.00444621,0.00193996,0.00477574,-0.0069746,1.40254,0.00682354,0.0121085,1980,995,21.1641,-4.16968
763,29,21.1758,4.21344,-0.00884625,0.00600641,0.00188316,0.00624145,-0.00908129,1.44662,0.00889709,0.0119182,1987,995,21.1757,-4.21346
770,29,21.1338,4.25732,-0.0116923,0.00804863,0.00197999,0.00824526,-0.0118889,1.47181,0.0116878,0.0128633,1994,995,21.1338,-4.25733
777,29,21.1008,4.34863,-0.0154257,0.0107797,0.00265767,0.0110465,-0.0156925,1.47074,0.0155153,0.0205339,2001,995,21.1009,-4.34862
784,29,21.0719,4.40118,-0.0200479,0.013817,0.00386199,0.0142518,-0.0204827,1.45867,0.0201612,0.0394056,2008,995,21.0719,-4.40119
791,29,20.7183,4.34821,-0.0258608,0.0173097,0.00574068,0.01806,-0.0266111,1.44083,0.0259479,0.0433212,2015,995,20.7183,-4.34818
798,29,20.5111,4.01251,-0.032809,0.0212288,0.00830551,0.0224765,-0.0340568,1.42168,0.032867,0.0413831,2022,995,20.5111,-4.01252
805,29,19.4365,4.95941,0,0,0,0,0,0,0,-1,2029,995,19.4364,-4.9594
812,29,21.2925,3.29822,0,0,0,0,0,0,0,-1,2036,995,21.2925,-3.29824
-700,22,0,0,0,0,0,0,0,0,0,-1,524,1002,0,0
-693,22,-12.7836,-4.30615,0.0414984,0.109549,0.00667272,0.110197,0.0408503,1.47397,0.0643274,0.0437601,531,1002,-12.7836,4.30618
-686,22,-12.1208,-4.13855,0.0343576,0.0894432,0.00702628,0.0903253,0.0334755,1.44591,0.0527282,0.0428119,538,1002,-12.1208,4.13852
-679,22,-13.669,1.43231,0,0,0,0,0,0,0,-1,545,1002,-13.669,-1.43232
-672,22,-13.4976,1.59424,0.0208419,0.0563891,0.00701395,0.057723,0.019508,1.38286,0.0339047,0.0461256,552,1002,-13.4976,-1.59427
-665,22,-13.3702,1.78033,0.0152119,0.0432957,0.00661266,0.0447748,0.0137328,1.35074,0.0264868,0.0421026,559,1002,-13.3702,-1.78032
-658,22,-14.032,1.54028,0,0,0,0,0,0,0,-1,566,1002,-14.0321,-1.54031
-651,22,-14.0245,1.67725,0.00681735,0.0234878,0.00517022,0.0249611,0.00534405,1.2932,0.0151763,0.0387962,573,1002,-14.0245,-1.67723
-644,22,-14.0607,1.79486,0.00404678,0.016508,0.00409235,0.0177318,0.00282301,1.28022,0.0110016,0.0181341,580,1002,-14.0607,-1.79486
-637,22,-14.1113,1.80206,0.00163182,0.0107717,0.00253475,0.0114276,0.000975928,1.31759,0.00731483,0.0127675,587,1002,-14.1113,-1.80209
-630,22,-14.1232,1.78442,-6.251e-05,0.00610097,0.00129718,0.00636285,-0.000324391,1.37159,0.00435406,0.0110157,594,1002,-14.1232,-1.7844
-623,22,-14.1395,1.75562,-0.000885836,0.00341656,8.14166e-05,0.0034181,-0.000887377,1.55188,0.00262501,0.00934129,601,1002,-14.1395,-1.7556
-616,22,-14.1461,1.72296,-0.00161451,0.00261967,-0.00151452,0.00310563,-0.00210047,-1.26031,0.00302435,0.0144461,608,1002,-14.1461,-1.72294
-609,22,-14.1646,1.69049,-0.0017728,0.00205388,-0.00311311,0.00379463,-0.00351354,-1.06094,0.00422042,0.0246462,615,1002,-14.1646,-1.69051
-602,22,-14.1909,1.65002,-0.00157664,0.0018576,-0.00406129,0.00454985,-0.00426889,-0.985402,0.00509236,0.0262485,622,1002,-14.1909,-1.65002
-595,22,-14.1191,1.55865,-0.00142788,0.00169132,-0.00448883,0.00488377,-0.00462032,-0.952594,0.00548789,0.0227364,629,1002,-14.1191,-1.55864
-588,22,-14.121,1.24658,-0.00139281,0.00158967,-0.00472803,0.00505606,-0.0048592,-0.938162,0.00572495,0.028602,636,1002,-14.121,-1.24658
-581,22,-14.1917,0.935242,-0.00136173,0.00149122,-0.00470856,0.00498464,-0.00485516,-0.93248,0.00568117,0.0381091,643,1002,-14.1917,-0.935242
-574,22,-14.1834,0.943359,-0.00136561,0.00140397,-0.00446263,0.00469172,-0.00465336,-0.935842,0.0053954,0.0337479,650,1002,-14.1834,-0.943383
-567,22,-14.1789,0.959045,-0.00123426,0.00129451,-0.00382797,0.00406151,-0.00400126,-0.944908,0.00465508,0.0320679,657,1002,-14.1789,-0.959041
-560,22,-14.3392,0.809082,-0.00104097,0.00112426,-0.00289925,0.00313643,-0.00305314,-0.964088,0.00357366,0.0366078,664,1002,-14.3393,-0.80907
-553,22,-14.3592,0.818665,-0.000833608,0.000871829,-0.00174828,0.00196426,-0.00192604,-1.0123,0.00224611,0.0410263,671,1002,-14.3592,-0.81866
-546,22,-14.1676,0.875,-0.000699034,0.000508075,-0.000473656,0.000671741,-0.0008627,-1.2381,0.000888194,0.0429802,678,1002,-14.1676,-0.875006
-539,22,-14.073,0.695129,-0.000777898,0.000100334,0.000615265,0.000417111,-0.00109467,1.09533,0.000901578,0.0416546,685,1002,-14.073,-0.695106
-532,22,-14.0089,0.826721,-0.00166293,-6.8132e-05,0.000826622,0.000283012,-0.00201407,1.1691,0.00144631,0.0433398,692,1002,-14.0089,-0.826734
-525,22,0,0,0,0,0,0,0,0,0,-1,699,1002,0,0
-518,22,0,0,0,0,0,0,0,0,0,-1,706,1002,0,0
-511,22,0,0,0,0,0,0,0,0,0,-1,713,1002,0,0
-504,22,0,0,0,0,0,0,0,0,0,-1,720,1002,0,0
-497,22,0,0,0,0,0,0,0,0,0,-1,727,1002,0,0
-490,22,0,0,0,0,0,0,0,0,0,-1,734,1002,0,0
-483,22,0,0,0,0,0,0,0,0,0,-1,741,1002,0,0
-476,22,0,0,0,0,0,0,0,0,0,-1,748,1002,0,0
-469,22,0,0,0,0,0,0,0,0,0,-1,755,1002,0,0
-462,22,0,0,0,0,0,0,0,0,0,-1,762,1002,0,0
-455,22,0,0,0,0,0,0,0,0,0,-1,769,1002,0,0
-448,22,0,0,0,0,0,0,0,0,0,-1,776,1002,0,0
-441,22,0,0,0,0,0,0,0,0,0,-1,783,1002,0,0
-434,22,0,0,0,0,0,0,0,0,0,-1,790,1002,0,0
-427,22,0,0,0,0,0,0,0,0,0,-1,797,1002,0,0
-420,22,0,0,0,0,0,0,0,0,0,-1,804,1002,0,0
-413,22,0,0,0,0,0,0,0,0,0,-1,811,1002,0,0
-406,22,0,0,0,0,0,0,0,0,0,-1,818,1002,0,0
-399,22,0,0,0,0,0,0,0,0,0,-1,825,1002,0,0
-392,22,0,0,0,0,0,0,0,0,0,-1,832,1002,0,0
-385,22,0,0,0,0,0,0,0,0,0,-1,839,1002,0,0
-378,22,0,0,0,0,0,0,0,0,0,-1,846,1002,0,0
-371,22,0,0,0,0,0,0,0,0,0,-1,853,1002,0,0
-364,22,0,0,0,0,0,0,0,0,0,-1,860,1002,0,0
-357,22,0,0,0,0,0,0,0,0,0,-1,867,1002,0,0
-350,22,0,0,0,0,0,0,0,0,0,-1,874,1002,0,0
-343,22,0,0,0,0,0,0,0,0,0,-1,881,1002,0,0
-336,22,0,0,0,0,0,0,0,0,0,-1,888,1002,0,0
-329,22,0,0,0,0,0,0,0,0,0,-1,895,1002,0,0
-322,22,0,0,0,0,0,0,0,0,0,-1,902,1002,0,0
-315,22,0,0,0,0,0,0,0,0,0,-1,909,1002,0,0
-308,22,0,0,0,0,0,0,0,0,0,-1,916,1002,0,0
-301,22,0,0,0,0,0,0,0,0,0,-1,923,1002,0,0
-294,22,0,0,0,0,0,0,0,0,0,-1,930,1002,0,0
-287,22,0,0,0,0,0,0,0,0,0,-1,937,1002,0,0
-280,22,0,0,0,0,0,0,0,0,0,-1,944,1002,0,0
-273,22,0,0,0,0,0,0,0,0,0,-1,951,1002,0,0
-266,22,0,0,0,0,0,0,0,0,0,-1,958,1002,0,0
-259,22,0,0,0,0,0,0,0,0,0,-1,965,1002,0,0
-252,22,0,0,0,0,0,0,0,0,0,-1,972,1002,0,0
-245,22,0,0,0,0,0,0,0,0,0,-1,979,1002,0,0
-238,22,0,0,0,0,0,0,0,0,0,-1,986,1002,0,0
-231,22,0,0,0,0,0,0,0,0,0,-1,993,1002,0,0
-224,22,0,0,0,0,0,0,0,0,0,-1,1000,1002,0,0
-217,22,0,0,0,0,0,0,0,0,0,-1,1007,1002,0,0
-210,22,0,0,0,0,0,0,0,0,0,-1,1014,1002,0,0
-203,22,0,0,0,0,0,0,0,0,0,-1,1021,1002,0,0
-196,22,0,0,0,0,0,0,0,0,0,-1,1028,1002,0,0
-189,22,0,0,0,0,0,0,0,0,0,-1,1035,1002,0,0
-182,22,0,0,0,0,0,0,0,0,0,-1,1042,1002,0,0
-175,22,0,0,0,0,0,0,0,0,0,-1,1049,1002,0,0
-168,22,0,0,0,0,0,0,0,0,0,-1,1056,1002,0,0
-161,22,0,0,0,0,0,0,0,0,0,-1,1063,1002,0,0
-154,22,0,0,0,0,0,0,0,0,0,-1,1070,1002,0,0
-147,22,0,0,0,0,0,0,0,0,0,-1,1077,1002,0,0
-140,22,0,0,0,0,0,0,0,0,0,-1,1084,1002,0,0
-133,22,0,0,0,0,0,0,0,0,0,-1,1091,1002,0,0
-126,22,0,0,0,0,0,0,0,0,0,-1,1098,1002,0,0
-119,22,0,0,0,0,0,0,0,0,0,-1,1105,1002,0,0
-112,22,0,0,0,0,0,0,0,0,0,-1,1112,1002,0,0
-105,22,0,0,0,0,0,0,0,0,0,-1,1119,1002,0,0
-98,22,0,0,0,0,0,0,0,0,0,-1,1126,1002,0,0
-91,22,0,0,0,0,0,0,0,0,0,-1,1133,1002,0,0
-84,22,0,0,0,0,0,0,0,0,0,-1,1140,1002,0,0
-77,22,0,0,0,0,0,0,0,0,0,-1,1147,1002,0,0
-70,22,0,0,0,0,0,0,0,0,0,-1,1154,1002,0,0
-63,22,0,0,0,0,0,0,0,0,0,-1,1161,1002,0,0
-56,22,0,0,0,0,0,0,0,0,0,-1,1168,1002,0,0
-49,22,0,0,0,0,0,0,0,0,0,-1,1175,1002,0,0
-42,22,0,0,0,0,0,0,0,0,0,-1,1182,1002,0,0
-35,22,0,0,0,0,0,0,0,0,0,-1,1189,1002,0,0
-28,22,0,0,0,0,0,0,0,0,0,-1,1196,1002,0,0
-21,22,0,0,0,0,0,0,0,0,0,-1,1203,1002,0,0
-14,22,0,0,0,0,0,0,0,0,0,-1,1210,1002,0,0
-7,22,0,0,0,0,0,0,0,0,0,-1,1217,1002,0,0
0,22,0,0,0,0,0,0,0,0,0,-1,1224,1002,0,0
7,22,0,0,0,0,0,0,0,0,0,-1,1231,1002,0,0
14,22,0,0,0,0,0,0,0,0,0,-1,1238,1002,0,0
21,22,0,0,0,0,0,0,0,0,0,-1,1245,1002,0,0
28,22,0,0,0,0,0,0,0,0,0,-1,1252,1002,0,0
35,22,0,0,0,0,0,0,0,0,0,-1,1259,1002,0,0
42,22,0,0,0,0,0,0,0,0,0,-1,1266,1002,0,0
49,22,0,0,0,0,0,0,0,0,0,-1,1273,1002,0,0
56,22,0,0,0,0,0,0,0,0,0,-1,1280,1002,0,0
63,22,0,0,0,0,0,0,0,0,0,-1,1287,1002,0,0
70,22,0,0,0,0,0,0,0,0,0,-1,1294,1002,0,0
77,22,0,0,0,0,0,0,0,0,0,-1,1301,1002,0,0
84,22,0,0,0,0,0,0,0,0,0,-1,1308,1002,0,0
91,22,0,0,0,0,0,0,0,0,0,-1,1315,1002,0,0
98,22,0,0,0,0,0,0,0,0,0,-1,1322,1002,0,0
105,22,0,0,0,0,0,0,0,0,0,-1,1329,1002,0,0
112,22,0,0,0,0,0,0,0,0,0,-1,1336,1002,0,0
119,22,0,0,0,0,0,0,0,0,0,-1,1343,1002,0,0
126,22,0,0,0,0,0,0,0,0,0,-1,1350,1002,0,0
133,22,0,0,0,0,0,0,0,0,0,-1,1357,1002,0,0
140,22,0,0,0,0,0,0,0,0,0,-1,1364,1002,0,0
147,22,0,0,0,0,0,0,0,0,0,-1,1371,1002,0,0
154,22,0,0,0,0,0,0,0,0,0,-1,1378,1002,0,0
161,22,0,0,0,0,0,0,0,0,0,-1,1385,1002,0,0
168,22,0,0,0,0,0,0,0,0,0,-1,1392,1002,0,0
175,22,0,0,0,0,0,0,0,0,0,-1,1399,1002,0,0
182,22,0,0,0,0,0,0,0,0,0,-1,1406,1002,0,0
189,22,0,0,0,0,0,0,0,0,0,-1,1413,1002,0,0
196,22,0,0,0,0,0,0,0,0,0,-1,1420,1002,0,0
203,22,0,0,0,0,0,0,0,0,0,-1,1427,1002,0,0
210,22,0,0,0,0,0,0,0,0,0,-1,1434,1002,0,0
217,22,0,0,0,0,0,0,0,0,0,-1,1441,1002,0,0
224,22,0,0,0,0,0,0,0,0,0,-1,1448,1002,0,0
231,22,0,0,0,0,0,0,0,0,0,-1,1455,1002,0,0
238,22,0,0,0,0,0,0,0,0,0,-1,1462,1002,0,0
245,22,0,0,0,0,0,0,0,0,0,-1,1469,1002,0,0
252,22,0,0,0,0,0,0,0,0,0,-1,1476,1002,0,0
259,22,0,0,0,0,0,0,0,0,0,-1,1483,1002,0,0
266,22,0,0,0,0,0,0,0,0,0,-1,1490,1002,0,0
273,22,0,0,0,0,0,0,0,0,0,-1,1497,1002,0,0
280,22,0,0,0,0,0,0,0,0,0,-1,1504,1002,0,0
287,22,0,0,0,0,0,0,0,0,0,-1,1511,1002,0,0
294,22,0,0,0,0,0,0,0,0,0,-1,1518,1002,0,0
301,22,0,0,0,0,0,0,0,0,0,-1,1525,1002,0,0
308,22,0,0,0,0,0,0,0,0,0,-1,1532,1002,0,0
315,22,0,0,0,0,0,0,0,0,0,-1,1539,1002,0,0
322,22,0,0,0,0,0,0,0,0,0,-1,1546,1002,0,0
329,22,0,0,0,0,0,0,0,0,0,-1,1553,1002,0,0
336,22,0,0,0,0,0,0,0,0,0,-1,1560,1002,0,0
343,22,0,0,0,0,0,0,0,0,0,-1,1567,1002,0,0
350,22,0,0,0,0,0,0,0,0,0,-1,1574,1002,0,0
357,22,0,0,0,0,0,0,0,0,0,-1,1581,1002,0,0
364,22,0,0,0,0,0,0,0,0,0,-1,1588,1002,0,0
371,22,0,0,0,0,0,0,0,0,0,-1,1595,1002,0,0
378,22,0,0,0,0,0,0,0,0,0,-1,1602,1002,0,0
385,22,0,0,0,0,0,0,0,0,0,-1,1609,1002,0,0
392,22,0,0,0,0,0,0,0,0,0,-1,1616,1002,0,0
399,22,0,0,0,0,0,0,0,0,0,-1,1623,1002,0,0
406,22,0,0,0,0,0,0,0,0,0,-1,1630,1002,0,0
413,22,0,0,0,0,0,0,0,0,0,-1,1637,1002,0,0
420,22,0,0,0,0,0,0,0,0,0,-1,1644,1002,0,0
427,22,0,0,0,0,0,0,0,0,0,-1,1651,1002,0,0
434,22,0,0,0,0,0,0,0,0,0,-1,1658,1002,0,0
441,22,0,0,0,0,0,0,0,0,0,-1,1665,1002,0,0
448,22,0,0,0,0,0,0,0,0,0,-1,1672,1002,0,0
455,22,0,0,0,0,0,0,0,0,0,-1,1679,1002,0,0
462,22,0,0,0,0,0,0,0,0,0,-1,1686,1002,0,0
469,22,0,0,0,0,0,0,0,0,0,-1,1693,1002,0,0
476,22,0,0,0,0,0,0,0,0,0,-1,1700,1002,0,0
483,22,0,0,0,0,0,0,0,0,0,-1,1707,1002,0,0
490,22,0,0,0,0,0,0,0,0,0,-1,1714,1002,0,0
497,22,0,0,0,0,0,0,0,0,0,-1,1721,1002,0,0
504,22,0,0,0,0,0,0,0,0,0,-1,1728,1002,0,0
511,22,0,0,0,0,0,0,0,0,0,-1,1735,1002,0,0
518,22,0,0,0,0,0,0,0,0,0,-1,1742,1002,0,0
525,22,0,0,0,0,0,0,0,0,0,-1,1749,1002,0,0
532,22,0,0,0,0,0,0,0,0,0,-1,1756,1002,0,0
539,22,0,0,0,0,0,0,0,0,0,-1,1763,1002,0,0
546,22,0,0,0,0,0,0,0,0,0,-1,1770,1002,0,0
553,22,0,0,0,0,0,0,0,0,0,-1,1777,1002,0,0
560,22,0,0,0,0,0,0,0,0,0,-1,1784,1002,0,0
567,22,0,0,0,0,0,0,0,0,0,-1,1791,1002,0,0
574,22,0,0,0,0,0,0,0,0,0,-1,1798,1002,0,0
581,22,0,0,0,0,0,0,0,0,0,-1,1805,1002,0,0
588,22,0,0,0,0,0,0,0,0,0,-1,1812,1002,0,0
595,22,0,0,0,0,0,0,0,0,0,-1,1819,1002,0,0
602,22,0,0,0,0,0,0,0,0,0,-1,1826,1002,0,0
609,22,0,0,0,0,0,0,0,0,0,-1,1833,1002,0,0
616,22,0,0,0,0,0,0,0,0,0,-1,1840,1002,0,0
623,22,0,0,0,0,0,0,0,0,0,-1,1847,1002,0,0
630,22,0,0,0,0,0,0,0,0,0,-1,1854,1002,0,0
637,22,0,0,0,0,0,0,0,0,0,-1,1861,1002,0,0
644,22,21.778,2.79816,-0.00107295,0.00504569,0.00160106,0.00543931,-0.00146658,1.32973,0.00420128,0.0398327,1868,1002,21.778,-2.79814
651,22,21.6833,2.9317,-0.00105891,0.00339102,0.000964897,0.00359124,-0.00125913,1.3662,0.00290626,0.043147,1875,1002,21.6834,-2.93168
658,22,21.694,3.34082,-0.00100899,0.00220916,0.00060242,0.00231823,-0.00111807,1.39168,0.00202388,0.0444334,1882,1002,21.694,-3.34085
665,22,21.7687,2.90552,-0.000898431,0.00143187,0.000553676,0.00155673,-0.00102329,1.34899,0.00150016,0.0387994,1889,1002,21.7686,-2.90554
672,22,21.8125,2.85889,-0.000789267,0.00098702,0.000892298,0.00135784,-0.00116009,1.17693,0.00145522,0.0387592,1896,1002,21.8125,-2.85886
679,22,21.8555,2.6756,-0.000931141,0.000698757,0.00155437,0.00163886,-0.00187124,1.02685,0.00202804,0.0392495,1903,1002,21.8555,-2.67559
686,22,21.7781,2.72534,-0.00113399,0.000531855,0.00225165,0.0020997,-0.00270184,0.962551,0.00277943,0.0374878,1910,1002,21.778,-2.72532
693,22,21.7111,2.94885,-0.00128097,0.000435906,0.00281276,0.0025183,-0.00336336,0.933506,0.00340745,0.0375067,1917,1002,21.711,-2.94883
700,22,21.7356,2.90088,-0.00147435,0.000315923,0.00318076,0.0027251,-0.00388353,0.922562,0.00383498,0.0328102,1924,1002,21.7356,-2.90091
707,22,21.6829,2.73083,-0.00166118,0.000328121,0.00339685,0.00287295,-0.00420601,0.927825,0.00411112,0.0293426,1931,1002,21.6829,-2.73084
714,22,21.7422,2.87134,-0.00182137,0.000444841,0.00360802,0.0030935,-0.00447003,0.937547,0.00439085,0.0270575,1938,1002,21.7422,-2.87133
721,22,21.6678,3.30212,0,0,0,0,0,0,0,-1,1945,1002,21.6678,-3.3021
728,22,21.2876,3.75879,-0.00244344,0.000833486,0.00357533,0.0031279,-0.00473786,1.00025,0.00457289,0.0260556,1952,1002,21.2876,-3.75881
735,22,21.2407,4.03845,-0.00311232,0.00124009,0.00328595,0.00300511,-0.00487735,1.07788,0.00459353,0.015394,1959,1002,21.2407,-4.03846
742,22,21.26,4.06946,-0.00385656,0.00191931,0.00285848,0.00309476,-0.00503201,1.18066,0.00473622,0.0164664,1966,1002,21.26,-4.06947
749,22,21.2567,4.09021,-0.00463921,0.00290142,0.00230287,0.00354908,-0.00528687,1.29664,0.00513422,0.0126366,1973,1002,21.2567,-4.09021
756,22,21.2356,4.14636,-0.00620986,0.00406066,0.00205426,0.0044563,-0.0066055,1.38053,0.00642659,0.0163459,1980,1002,21.2356,-4.14635
763,22,21.1987,4.20935,-0.00807876,0.00559057,0.00182527,0.0058301,-0.00831829,1.44031,0.00821057,0.0185048,1987,1002,21.1988,-4.20933
770,22,21.1926,4.23621,-0.0104524,0.007519,0.00165272,0.00766973,-0.0106031,1.47985,0.010595,0.0124787,1994,1002,21.1926,-4.23622
777,22,21.1611,4.26343,-0.0135781,0.0100905,0.00202512,0.0102625,-0.0137501,1.48606,0.0139124,0.0203939,2001,1002,21.1611,-4.26345
784,22,21.118,4.3045,-0.0174614,0.0128851,0.00295214,0.0131697,-0.0177459,1.47472,0.0179142,0.0407383,2008,1002,21.118,-4.30448
791,22,21.1992,4.43158,-0.0223498,0.0160393,0.00455281,0.0165718,-0.0228823,1.45435,0.0228758,0.0467741,2015,1002,21.1992,-4.43157
798,22,21.354,4.41968,-0.028185,0.0195284,0.00683193,0.0204874,-0.029144,1.43134,0.0287996,0.0476118,2022,1002,21.3541,-4.4197
805,22,21.2656,2.92963,0,0,0,0,0,0,0,-1,2029,1002,21.2656,-2.92964
812,22,20.9321,3.2536,0,0,0,0,0,0,0,-1,2036,1002,20.932,-3.25358
-700,15,0,0,0,0,0,0,0,0,0,-1,524,1009,0,0
-693,15,-11.9451,-4.65778,0,0,0,0,0,0,0,-1,531,1009,-11.9451,4.65778
-686,15,-11.3843,-4.47833,0,0,0,0,0,0,0,-1,538,1009,-11.3843,4.47835
-679,15,-13.4951,1.53485,0,0,0,0,0,0,0,-1,545,1009,-13.4951,-1.53487
-672,15,-13.4479,1.59686,0.010626,0.0468419,0.00775197,0.0484314,0.00903646,1.36855,0.0297367,0.0455112,552,1009,-13.4479,-1.59687
-665,15,-13.4917,1.5871,0.00703467,0.0358457,0.00720025,0.0375449,0.00533544,1.33904,0.0234546,0.0415293,559,1009,-13.4917,-1.58712
-658,15,-13.6483,1.64075,0.00421559,0.0267792,0.00641179,0.0284739,0.00252088,1.31239,0.0182006,0.0426175,566,1009,-13.6483,-1.64073
-651,15,-13.9974,1.65363,0.00216497,0.019463,0.00544299,0.0210332,0.000594807,1.28995,0.0138281,0.0366429,573,1009,-13.9974,-1.6536
-644,15,-14.1111,1.77637,0.000762553,0.0137272,0.00420695,0.0149727,-0.00048293,1.28296,0.0101466,0.0194222,580,1009,-14.1111,-1.77638
-637,15,-14.1198,1.82764,-0.000543191,0.00886848,0.00249957,0.00949113,-0.00116584,1.32666,0.00674968,0.0148224,587,1009,-14.1197,-1.82763
-630,15,-14.1441,1.77722,-0.00129916,0.0052654,0.00112895,0.00545413,-0.00148788,1.40516,0.0042204,0.0105512,594,1009,-14.1441,-1.7772
-623,15,-14.1589,1.75134,-0.00132956,0.00306797,-0.000259656,0.00308325,-0.00134484,-1.51202,0.0026214,0.00844634,601,1009,-14.1589,-1.75134
-616,15,-14.1855,1.72321,-0.00151338,0.002444,-0.00191607,0.00321967,-0.00228906,-1.18614,0.00319556,0.0128535,608,1009,-14.1855,-1.72319
-609,15,-14.2027,1.69232,-0.00148496,0.00195615,-0.00354483,0.00417591,-0.00370472,-1.01134,0.0045526,0.0198658,615,1009,-14.2027,-1.69234
-602,15,-14.1893,1.64783,-0.00117891,0.00171392,-0.00454442,0.00503656,-0.00450155,-0.939471,0.00550972,0.0205885,622,1009,-14.1893,-1.64784
-595,15,-14.1318,1.37531,-0.000945713,0.00154034,-0.00494727,0.00539835,-0.00480372,-0.908478,0.0058935,0.0245208,629,1009,-14.1318,-1.3753
-588,15,-14.1105,1.09985,-0.000845347,0.00142312,-0.00513556,0.00554821,-0.00497044,-0.894083,0.00607599,0.0294458,636,1009,-14.1105,-1.09988
-581,15,-14.1708,0.891357,-0.000770556,0.00129642,-0.00504118,0.00540896,-0.0048831,-0.886502,0.00594471,0.0345353,643,1009,-14.1708,-0.891374
-574,15,-14.1539,0.929871,-0.000766525,0.00116338,-0.0046764,0.00497335,-0.00457649,-0.887143,0.00551519,0.0315578,650,1009,-14.1539,-0.929893
-567,15,-14.1639,0.904663,-0.000653878,0.00100564,-0.00387148,0.00413528,-0.00378352,-0.890964,0.00457342,0.0333418,657,1009,-14.1639,-0.904688
-560,15,-14.2066,0.907349,-0.000498801,0.000783532,-0.00271028,0.00292745,-0.00264272,-0.901547,0.00321734,0.0394244,664,1009,-14.2066,-0.907331
-553,15,-14.1464,0.992126,-0.000349749,0.000476502,-0.001265,0.00139412,-0.00126737,-0.943229,0.0015372,0.0422565,671,1009,-14.1464,-0.992132
-546,15,-14.0598,0.963562,-0.000286478,6.03564e-05,0.000362698,0.000288963,-0.000515084,1.0084,0.000470296,0.042876,678,1009,-14.0597,-0.963588
-539,15,-14.1769,0.656799,-0.000436027,-0.000350102,0.00179596,0.00140341,-0.00218954,0.797357,0.00209088,0.042413,685,1009,-14.1769,-0.656774
-532,15,-14.1362,0.670471,-0.00136286,-0.000438167,0.00222658,0.00137356,-0.00317459,0.887768,0.00269363,0.042958,692,1009,-14.1362,-0.670465
-525,15,0,0,0,0,0,0,0,0,0,-1,699,1009,0,0
-518,15,0,0,0,0,0,0,0,0,0,-1,706,1009,0,0
-511,15,0,0,0,0,0,0,0,0,0,-1,713,1009,0,0
-504,15,0,0,0,0,0,0,0,0,0,-1,720,1009,0,0
-497,15,0,0,0,0,0,0,0,0,0,-1,727,1009,0,0
-490,15,0,0,0,0,0,0,0,0,0,-1,734,1009,0,0
-483,15,0,0,0,0,0,0,0,0,0,-1,741,1009,0,0
-476,15,0,0,0,0,0,0,0,0,0,-1,748,1009,0,0
-469,15,0,0,0,0,0,0,0,0,0,-1,755,1009,0,0
-462,15,0,0,0,0,0,0,0,0,0,-1,762,1009,0,0
-455,15,0,0,0,0,0,0,0,0,0,-1,769,1009,0,0
-448,15,0,0,0,0,0,0,0,0,0,-1,776,1009,0,0
-441,15,0,0,0,0,0,0,0,0,0,-1,783,1009,0,0
-434,15,0,0,0,0,0,0,0,0,0,-1,790,1009,0,0
-427,15,0,0,0,0,0,0,0,0,0,-1,797,1009,0,0
-420,15,0,0,0,0,0,0,0,0,0,-1,804,1009,0,0
-413,15,0,0,0,0,0,0,0,0,0,-1,811,1009,0,0
-406,15,0,0,0,0,0,0,0,0,0,-1,818,1009,0,0
-399,15,0,0,0,0,0,0,0,0,0,-1,825,1009,0,0
-392,15,0,0,0,0,0,0,0,0,0,-1,832,1009,0,0
-385,15,0,0,0,0,0,0,0,0,0,-1,839,1009,0,0
-378,15,0,0,0,0,0,0,0,0,0,-1,846,1009,0,0
-371,15,0,0,0,0,0,0,0,0,0,-1,853,1009,0,0
-364,15,0,0,0,0,0,0,0,0,0,-1,860,1009,0,0
-357,15,0,0,0,0,0,0,0,0,0,-1,867,1009,0,0
-350,15,0,0,0,0,0,0,0,0,0,-1,874,1009,0,0
-343,15,0,0,0,0,0,0,0,0,0,-1,881,1009,0,0
-336,15,0,0,0,0,0,0,0,0,0,-1,888,1009,0,0
-329,15,0,0,0,0,0,0,0,0,0,-1,895,1009,0,0
-322,15,0,0,0,0,0,0,0,0,0,-1,902,1009,0,0
-315,15,0,0,0,0,0,0,0,0,0,-1,909,1009,0,0
-308,15,0,0,0,0,0,0,0,0,0,-1,916,1009,0,0
-301,15,0,0,0,0,0,0,0,0,0,-1,923,1009,0,0
-294,15,0,0,0,0,0,0,0,0,0,-1,930,1009,0,0
-287,15,0,0,0,0,0,0,0,0,0,-1,937,1009,0,0
-280,15,0,0,0,0,0,0,0,0,0,-1,944,1009,0,0
-273,15,0,0,0,0,0,0,0,0,0,-1,951,1009,0,0
-266,15,0,0,0,0,0,0,0,0,0,-1,958,1009,0,0
-259,15,0,0,0,0,0,0,0,0,0,-1,965,1009,0,0
-252,15,0,0,0,0,0,0,0,0,0,-1,972,1009,0,0
-245,15,0,0,0,0,0,0,0,0,0,-1,979,1009,0,0
-238,15,0,0,0,0,0,0,0,0,0,-1,986,1009,0,0
-231,15,0,0,0,0,0,0,0,0,0,-1,993,1009,0,0
-224,15,0,0,0,0,0,0,0,0,0,-1,1000,1009,0,0
-217,15,0,0,0,0,0,0,0,0,0,-1,1007,1009,0,0
-210,15,0,0,0,0,0,0,0,0,0,-1,1014,1009,0,0
-203,15,0,0,0,0,0,0,0,0,0,-1,1021,1009,0,0
-196,15,0,0,0,0,0,0,0,0,0,-1,1028,1009,0,0
-189,15,0,0,0,0,0,0,0,0,0,-1,1035,1009,0,0
-182,15,0,0,0,0,0,0,0,0,0,-1,1042,1009,0,0
-175,15,0,0,0,0,0,0,0,0,0,-1,1049,1009,0,0
-168,15,0,0,0,0,0,0,0,0,0,-1,1056,1009,0,0
-161,15,0,0,0,0,0,0,0,0,0,-1,1063,1009,0,0
-154,15,0,0,0,0,0,0,0,0,0,-1,1070,1009,0,0
-147,15,0,0,0,0,0,0,0,0,0,-1,1077,1009,0,0
-140,15,0,0,0,0,0,0,0,0,0,-1,1084,1009,0,0
-133,15,0,0,0,0,0,0,0,0,0,-1,1091,1009,0,0
-126,15,0,0,0,0,0,0,0,0,0,-1,1098,1009,0,0
-119,15,0,0,0,0,0,0,0,0,0,-1,1105,1009,0,0
-112,15,0,0,0,0,0,0,0,0,0,-1,1112,1009,0,0
-105,15,0,0,0,0,0,0,0,0,0,-1,1119,1009,0,0
-98,15,0,0,0,0,0,0,0,0,0,-1,1126,1009,0,0
-91,15,0,0,0,0,0,0,0,0,0,-1,1133,1009,0,0
-84,15,0,0,0,0,0,0,0,0,0,-1,1140,1009,0,0
-77,15,0,0,0,0,0,0,0,0,0,-1,1147,1009,0,0
-70,15,0,0,0,0,0,0,0,0,0,-1,1154,1009,0,0
-63,15,0,0,0,0,0,0,0,0,0,-1,1161,1009,0,0
-56,15,0,0,0,0,0,0,0,0,0,-1,1168,1009,0,0
-49,15,0,0,0,0,0,0,0,0,0,-1,1175,1009,0,0
-42,15,0,0,0,0,0,0,0,0,0,-1,1182,1009,0,0
-35,15,0,0,0,0,0,0,0,0,0,-1,1189,1009,0,0
-28,15,0,0,0,0,0,0,0,0,0,-1,1196,1009,0,0
-21,15,0,0,0,0,0,0,0,0,0,-1,1203,1009,0,0
-14,15,0,0,0,0,0,0,0,0,0,-1,1210,1009,0,0
-7,15,0,0,0,0,0,0,0,0,0,-1,1217,1009,0,0
0,15,0,0,0,0,0,0,0,0,0,-1,1224,1009,0,0
7,15,0,0,0,0,0,0,0,0,0,-1,1231,1009,0,0
14,15,0,0,0,0,0,0,0,0,0,-1,1238,1009,0,0
21,15,0,0,0,0,0,0,0,0,0,-1,1245,1009,0,0
28,15,0,0,0,0,0,0,0,0,0,-1,1252,1009,0,0
35,15,0,0,0,0,0,0,0,0,0,-1,1259,1009,0,0
42,15,0,0,0,0,0,0,0,0,0,-1,1266,1009,0,0
49,15,0,0,0,0,0,0,0,0,0,-1,1273,1009,0,0
56,15,0,0,0,0,0,0,0,0,0,-1,1280,1009,0,0
63,15,0,0,0,0,0,0,0,0,0,-1,1287,1009,0,0
70,15,0,0,0,0,0,0,0,0,0,-1,1294,1009,0,0
77,15,0,0,0,0,0,0,0,0,0,-1,1301,1009,0,0
84,15,0,0,0,0,0,0,0,0,0,-1,1308,1009,0,0
91,15,0,0,0,0,0,0,0,0,0,-1,1315,1009,0,0
98,15,0,0,0,0,0,0,0,0,0,-1,1322,1009,0,0
105,15,0,0,0,0,0,0,0,0,0,-1,1329,1009,0,0
112,15,0,0,0,0,0,0,0,0,0,-1,1336,1009,0,0
119,15,0,0,0,0,0,0,0,0,0,-1,1343,1009,0,0
126,15,0,0,0,0,0,0,0,0,0,-1,1350,1009,0,0
133,15,0,0,0,0,0,0,0,0,0,-1,1357,1009,0,0
140,15,0,0,0,0,0,0,0,0,0,-1,1364,1009,0,0
147,15,0,0,0,0,0,0,0,0,0,-1,1371,1009,0,0
154,15,0,0,0,0,0,0,0,0,0,-1,1378,1009,0,0
161,15,0,0,0,0,0,0,0,0,0,-1,1385,1009,0,0
168,15,0,0,0,0,0,0,0,0,0,-1,1392,1009,0,0
175,15,0,0,0,0,0,0,0,0,0,-1,1399,1009,0,0
182,15,0,0,0,0,0,0,0,0,0,-1,1406,1009,0,0
189,15,0,0,0,0,0,0,0,0,0,-1,1413,1009,0,0
196,15,0,0,0,0,0,0,0,0,0,-1,1420,1009,0,0
203,15,0,0,0,0,0,0,0,0,0,-1,1427,1009,0,0
210,15,0,0,0,0,0,0,0,0,0,-1,1434,1009,0,0
217,15,0,0,0,0,0,0,0,0,0,-1,1441,1009,0,0
224,15,0,0,0,0,0,0,0,0,0,-1,1448,1009,0,0
231,15,0,0,0,0,0,0,0,0,0,-1,1455,1009,0,0
238,15,0,0,0,0,0,0,0,0,0,-1,1462,1009,0,0
245,15,0,0,0,0,0,0,0,0,0,-1,1469,1009,0,0
252,15,0,0,0,0,0,0,0,0,0,-1,1476,1009,0,0
259,15,0,0,0,0,0,0,0,0,0,-1,1483,1009,0,0
266,15,0,0,0,0,0,0,0,0,0,-1,1490,1009,0,0
273,15,0,0,0,0,0,0,0,0,0,-1,1497,1009,0,0
280,15,0,0,0,0,0,0,0,0,0,-1,1504,1009,0,0
287,15,0,0,0,0,0,0,0,0,0,-1,1511,1009,0,0
294,15,0,0,0,0,0,0,0,0,0,-1,1518,1009,0,0
301,15,0,0,0,0,0,0,0,0,0,-1,1525,1009,0,0
308,15,0,0,0,0,0,0,0,0,0,-1,1532,1009,0,0
315,15,0,0,0,0,0,0,0,0,0,-1,1539,1009,0,0
322,15,0,0,0,0,0,0,0,0,0,-1,1546,1009,0,0
329,15,0,0,0,0,0,0,0,0,0,-1,1553,1009,0,0
336,15,0,0,0,0,0,0,0,0,0,-1,1560,1009,0,0
343,15,0,0,0,0,0,0,0,0,0,-1,1567,1009,0,0
350,15,0,0,0,0,0,0,0,0,0,-1,1574,1009,0,0
357,15,0,0,0,0,0,0,0,0,0,-1,1581,1009,0,0
364,15,0,0,0,0,0,0,0,0,0,-1,1588,1009,0,0
371,15,0,0,0,0,0,0,0,0,0,-1,1595,1009,0,0
378,15,0,0,0,0,0,0,0,0,0,-1,1602,1009,0,0
385,15,0,0,0,0,0,0,0,0,0,-1,1609,1009,0,0
392,15,0,0,0,0,0,0,0,0,0,-1,1616,1009,0,0
399,15,0,0,0,0,0,0,0,0,0,-1,1623,1009,0,0
406,15,0,0,0,0,0,0,0,0,0,-1,1630,1009,0,0
413,15,0,0,0,0,0,0,0,0,0,-1,1637,1009,0,0
420,15,0,0,0,0,0,0,0,0,0,-1,1644,1009,0,0
427,15,0,0,0,0,0,0,0,0,0,-1,1651,1009,0,0
434,15,0,0,0,0,0,0,0,0,0,-1,1658,1009,0,0
441,15,0,0,0,0,0,0,0,0,0,-1,1665,1009,0,0
448,15,0,0,0,0,0,0,0,0,0,-1,1672,1009,0,0
455,15,0,0,0,0,0,0,0,0,0,-1,1679,1009,0,0
462,15,0,0,0,0,0,0,0,0,0,-1,1686,1009,0,0
469,15,0,0,0,0,0,0,0,0,0,-1,1693,1009,0,0
476,15,0,0,0,0,0,0,0,0,0,-1,1700,1009,0,0
483,15,0,0,0,0,0,0,0,0,0,-1,1707,1009,0,0
490,15,0,0,0,0,0,0,0,0,0,-1,1714,1009,0,0
497,15,0,0,0,0,0,0,0,0,0,-1,1721,1009,0,0
504,15,0,0,0,0,0,0,0,0,0,-1,1728,1009,0,0
511,15,0,0,0,0,0,0,0,0,0,-1,1735,1009,0,0
518,15,0,0,0,0,0,0,0,0,0,-1,1742,1009,0,0
525,15,0,0,0,0,0,0,0,0,0,-1,1749,1009,0,0
532,15,0,0,0,0,0,0,0,0,0,-1,1756,1009,0,0
539,15,0,0,0,0,0,0,0,0,0,-1,1763,1009,0,0
546,15,0,0,0,0,0,0,0,0,0,-1,1770,1009,0,0
553,15,0,0,0,0,0,0,0,0,0,-1,1777,1009,0,0
560,15,0,0,0,0,0,0,0,0,0,-1,1784,1009,0,0
567,15,0,0,0,0,0,0,0,0,0,-1,1791,1009,0,0
574,15,0,0,0,0,0,0,0,0,0,-1,1798,1009,0,0
581,15,0,0,0,0,0,0,0,0,0,-1,1805,1009,0,0
588,15,0,0,0,0,0,0,0,0,0,-1,1812,1009,0,0
595,15,0,0,0,0,0,0,0,0,0,-1,1819,1009,0,0
602,15,0,0,0,0,0,0,0,0,0,-1,1826,1009,0,0
609,15,0,0,0,0,0,0,0,0,0,-1,1833,1009,0,0
616,15,0,0,0,0,0,0,0,0,0,-1,1840,1009,0,0
623,15,0,0,0,0,0,0,0,0,0,-1,1847,1009,0,0
630,15,0,0,0,0,0,0,0,0,0,-1,1854,1009,0,0
637,15,0,0,0,0,0,0,0,0,0,-1,1861,1009,0,0
644,15,21.7119,2.59076,-0.00217405,0.00639221,0.00344428,0.00760528,-0.00338713,1.23216,0.00650036,0.0394099,1868,1009,21.7119,-2.59077
651,15,21.7322,2.68292,-0.00182655,0.00426425,0.00231664,0.00504524,-0.00260755,1.24564,0.00449244,0.0397391,1875,1009,21.7321,-2.68294
658,15,21.7716,2.57709,-0.00155745,0.00276177,0.00155711,0.00326459,-0.00206027,1.25845,0.00310041,0.0388047,1882,1009,21.7716,-2.57709
665,15,21.7206,2.52661,-0.00126948,0.00174457,0.00118241,0.00215307,-0.00167797,1.23816,0.00221752,0.0370172,1889,1009,21.7206,-2.5266
672,15,21.7075,2.57642,-0.00101183,0.00110405,0.00129273,0.00171656,-0.00162433,1.12832,0.00192911,0.036284,1896,1009,21.7076,-2.57639
679,15,21.7963,2.6626,-0.0010694,0.000631324,0.00185001,0.00181705,-0.00225513,1.00082,0.0023556,0.0370779,1903,1009,21.7963,-2.66259
686,15,21.7814,2.66052,-0.00124918,0.00033228,0.00252594,0.00218836,-0.00310526,0.937088,0.00307152,0.0391965,1910,1009,21.7814,-2.66054
693,15,21.7542,2.8053,-0.00140612,0.000133415,0.00311414,0.00257151,-0.00384422,0.906562,0.00372834,0.0407251,1917,1009,21.7542,-2.80528
700,15,21.7828,2.84406,-0.00161433,-6.99686e-05,0.00352913,0.00277047,-0.00445477,0.893102,0.00420911,0.0318165,1924,1009,21.7828,-2.84405
707,15,21.724,2.75653,-0.00179616,-0.000110656,0.00378464,0.00292393,-0.00483075,0.894949,0.00452206,0.0268964,1931,1009,21.7241,-2.7565
714,15,21.7454,2.7923,-0.00195479,-3.47152e-05,0.00405243,0.00316985,-0.00515935,0.901706,0.00485438,0.0275097,1938,1009,21.7454,-2.79227
721,15,21.6575,3.19843,0,0,0,0,0,0,0,-1,1945,1009,21.6575,-3.19841
728,15,21.2003,3.79266,-0.00260133,0.000390708,0.00408254,0.0032427,-0.00545332,0.961022,0.00507444,0.0303118,1952,1009,21.2003,-3.79267
735,15,21.285,4.02478,-0.00324047,0.000831961,0.00374471,0.00305826,-0.00546677,1.03442,0.00498698,0.0166566,1959,1009,21.2851,-4.0248
742,15,21.2831,4.08881,-0.00392992,0.00150882,0.00324374,0.00302228,-0.00544338,1.13424,0.00495383,0.0176673,1966,1009,21.283,-4.0888
749,15,21.2939,4.10333,-0.00452505,0.00248338,0.00256606,0.00332246,-0.00536413,1.25477,0.00506117,0.0108966,1973,1009,21.2939,-4.10332
756,15,21.2831,4.14532,-0.00579157,0.0036249,0.00215889,0.00409627,-0.00626294,1.35583,0.00602434,0.0120296,1980,1009,21.283,-4.14532
763,15,21.2654,4.19006,-0.00728297,0.00516932,0.00178417,0.00541991,-0.00753357,1.43126,0.00751181,0.0118902,1987,1009,21.2654,-4.19004
770,15,21.2502,4.20758,-0.00916,0.00703372,0.00137406,0.00714948,-0.00927576,1.48675,0.00950957,0.0111746,1994,1009,21.2502,-4.20758
777,15,21.187,4.2182,-0.0115931,0.00948601,0.00147095,0.00958816,-0.0116953,1.50146,0.0123081,0.020379,2001,1009,21.187,-4.21819
784,15,21.0468,4.3457,-0.014646,0.012104,0.00217285,0.0122794,-0.0148213,1.49027,0.0156695,0.0411098,2008,1009,21.0468,-4.34572
791,15,20.9907,4.43671,-0.0185114,0.0150187,0.00358508,0.0153977,-0.0188904,1.46546,0.0198305,0.0496654,2015,1009,20.9907,-4.43669
798,15,20.8795,4.47827,0,0,0,0,0,0,0,-1,2022,1009,20.8795,-4.47829
805,15,20.9949,2.90973,-0.0285929,0.0216814,0.00869563,0.0231429,-0.0300544,1.40428,0.0307998,0.0459395,2029,1009,20.9949,-2.90973
812,15,20.5815,3.17877,-0.035294,0.025332,0.0129662,0.0279887,-0.0379507,1.3687,0.0382147,0.0430253,2036,1009,20.5816,-3.1788
-700,8,0,0,0,0,0,0,0,0,0,-1,524,1016,0,0
-693,8,-12.8221,0.771667,0,0,0,0,0,0,0,-1,531,1016,-12.8221,-0.77167
-686,8,-13.0577,1.58954,0,0,0,0,0,0,0,-1,538,1016,-13.0577,-1.58951
-679,8,-13.2476,1.48193,0.00285187,0.0495375,0.00886343,0.0511636,0.00122576,1.38935,0.0337079,0.0445368,545,1016,-13.2475,-1.48191
-672,8,-13.4368,1.34161,0.000555797,0.0382795,0.0084392,0.0400813,-0.00124608,1.36044,0.0271458,0.042835,552,1016,-13.4367,-1.34162
-665,8,-13.7514,1.41473,-0.00101083,0.0290839,0.00769244,0.0309361,-0.00286308,1.33451,0.0216417,0.0456428,559,1016,-13.7514,-1.41474
-658,8,-14.0228,1.61737,-0.00196287,0.0216608,0.00671498,0.0234361,-0.00373818,1.31233,0.0170076,0.0367019,566,1016,-14.0228,-1.61735
-651,8,-14.0439,1.65155,-0.00238449,0.015754,0.0055835,0.017335,-0.00396544,1.29487,0.0130804,0.0208379,573,1016,-14.044,-1.65154
-644,8,-14.04,1.71094,-0.00242908,0.0111483,0.00419925,0.0123421,-0.00362287,1.29382,0.00966475,0.0197412,580,1016,-14.04,-1.71092
-637,8,-14.0865,1.76642,-0.00262728,0.00709227,0.00234402,0.00762803,-0.00316305,1.34609,0.00640554,0.0164987,587,1016,-14.0866,-1.76643
-630,8,-14.1631,1.73859,-0.0024358,0.00444324,0.000872723,0.00455223,-0.00254479,1.44655,0.00415175,0.0122977,594,1016,-14.1631,-1.73857
-623,8,-14.1711,1.73071,-0.00172637,0.00269553,-0.000650482,0.00278923,-0.00182007,-1.42773,0.00268072,0.0124611,601,1016,-14.1712,-1.73072
-616,8,-14.1779,1.71716,-0.00144718,0.00220801,-0.00236499,0.00336927,-0.00260844,-1.11436,0.00346054,0.0123914,608,1016,-14.1779,-1.71717
-609,8,-14.1702,1.6897,-0.0012669,0.001735,-0.0039598,0.00446877,-0.00400066,-0.966555,0.00489232,0.0155912,615,1016,-14.1702,-1.68969
-602,8,-14.1491,1.67181,-0.000915059,0.00140922,-0.0049714,0.0053525,-0.00485834,-0.900219,0.00589754,0.0224503,622,1016,-14.1491,-1.67184
-595,8,-14.1221,1.26508,0,0,0,0,0,0,0,-1,629,1016,-14.1221,-1.26509
-588,8,-14.1291,0.898621,0,0,0,0,0,0,0,-1,636,1016,-14.1291,-0.898594
-581,8,-14.1529,0.910583,-0.000349078,0.000928205,-0.00525522,0.00558345,-0.00500432,-0.845864,0.0061159,0.0268451,643,1016,-14.1529,-0.910553
-574,8,-14.1256,0.95575,-0.00034814,0.000768127,-0.00474811,0.00499079,-0.0045708,-0.843904,0.00552216,0.0333407,650,1016,-14.1256,-0.95577
-567,8,-14.0595,0.849426,-0.000256743,0.00061048,-0.00376005,0.00396184,-0.0036081,-0.842805,0.0043721,0.0376503,657,1016,-14.0595,-0.849442
-560,8,-14.0631,0.838318,-0.000131012,0.000420131,-0.00235218,0.00251283,-0.00222371,-0.84371,0.00273634,0.0403093,664,1016,-14.0631,-0.838342
-553,8,-14.0532,0.861328,0,0,0,0,0,0,0,-1,671,1016,-14.0533,-0.861314
-546,8,-14.0594,0.75708,1.73763e-05,-0.000106895,0.00140464,0.00136125,-0.00145077,0.763295,0.0016238,0.0413798,678,1016,-14.0595,-0.757063
-539,8,-14.2333,1.04279,-0.000138298,-0.000307809,0.00319146,0.00296953,-0.00341564,0.772123,0.00368948,0.0413835,685,1016,-14.2333,-1.04276
-532,8,-14.1772,0.841064,-0.00100356,-9.05319e-05,0.00382797,0.00330805,-0.00440214,0.844746,0.0044664,0.0413355,692,1016,-14.1772,-0.841048
-525,8,0,0,0,0,0,0,0,0,0,-1,699,1016,0,0
-518,8,0,0,0,0,0,0,0,0,0,-1,706,1016,0,0
-511,8,0,0,0,0,0,0,0,0,0,-1,713,1016,0,0
-504,8,0,0,0,0,0,0,0,0,0,-1,720,1016,0,0
-497,8,0,0,0,0,0,0,0,0,0,-1,727,1016,0,0
-490,8,0,0,0,0,0,0,0,0,0,-1,734,1016,0,0
-483,8,0,0,0,0,0,0,0,0,0,-1,741,1016,0,0
-476,8,0,0,0,0,0,0,0,0,0,-1,748,1016,0,0
-469,8,0,0,0,0,0,0,0,0,0,-1,755,1016,0,0
-462,8,0,0,0,0,0,0,0,0,0,-1,762,1016,0,0
-455,8,0,0,0,0,0,0,0,0,0,-1,769,1016,0,0
-448,8,0,0,0,0,0,0,0,0,0,-1,776,1016,0,0
-441,8,0,0,0,0,0,0,0,0,0,-1,783,1016,0,0
-434,8,0,0,0,0,0,0,0,0,0,-1,790,1016,0,0
-427,8,0,0,0,0,0,0,0,0,0,-1,797,1016,0,0
-420,8,0,0,0,0,0,0,0,0,0,-1,804,1016,0,0
-413,8,0,0,0,0,0,0,0,0,0,-1,811,1016,0,0
-406,8,0,0,0,0,0,0,0,0,0,-1,818,1016,0,0
-399,8,0,0,0,0,0,0,0,0,0,-1,825,1016,0,0
-392,8,0,0,0,0,0,0,0,0,0,-1,832,1016,0,0
-385,8,0,0,0,0,0,0,0,0,0,-1,839,1016,0,0
-378,8,0,0,0,0,0,0,0,0,0,-1,846,1016,0,0
-371,8,0,0,0,0,0,0,0,0,0,-1,853,1016,0,0
-364,8,0,0,0,0,0,0,0,0,0,-1,860,1016,0,0
-357,8,0,0,0,0,0,0,0,0,0,-1,867,1016,0,0
-350,8,0,0,0,0,0,0,0,0,0,-1,874,1016,0,0
-343,8,0,0,0,0,0,0,0,0,0,-1,881,1016,0,0
-336,8,0,0,0,0,0,0,0,0,0,-1,888,1016,0,0
-329,8,0,0,0,0,0,0,0,0,0,-1,895,1016,0,0
-322,8,0,0,0,0,0,0,0,0,0,-1,902,1016,0,0
-315,8,0,0,0,0,0,0,0,0,0,-1,909,1016,0,0
-308,8,0,0,0,0,0,0,0,0,0,-1,916,1016,0,0
-301,8,0,0,0,0,0,0,0,0,0,-1,923,1016,0,0
-294,8,0,0,0,0,0,0,0,0,0,-1,930,1016,0,0
-287,8,0,0,0,0,0,0,0,0,0,-1,937,1016,0,0
-280,8,0,0,0,0,0,0,0,0,0,-1,944,1016,0,0
-273,8,0,0,0,0,0,0,0,0,0,-1,951,1016,0,0
-266,8,0,0,0,0,0,0,0,0,0,-1,958,1016,0,0
-259,8,0,0,0,0,0,0,0,0,0,-1,965,1016,0,0
-252,8,0,0,0,0,0,0,0,0,0,-1,972,1016,0,0
-245,8,0,0,0,0,0,0,0,0,0,-1,979,1016,0,0
-238,8,0,0,0,0,0,0,0,0,0,-1,986,1016,0,0
-231,8,0,0,0,0,0,0,0,0,0,-1,993,1016,0,0
-224,8,0,0,0,0,0,0,0,0,0,-1,1000,1016,0,0
-217,8,0,0,0,0,0,0,0,0,0,-1,1007,1016,0,0
-210,8,0,0,0,0,0,0,0,0,0,-1,1014,1016,0,0
-203,8,0,0,0,0,0,0,0,0,0,-1,1021,1016,0,0
-196,8,0,0,0,0,0,0,0,0,0,-1,1028,1016,0,0
-189,8,0,0,0,0,0,0,0,0,0,-1,1035,1016,0,0
-182,8,0,0,0,0,0,0,0,0,0,-1,1042,1016,0,0
-175,8,0,0,0,0,0,0,0,0,0,-1,1049,1016,0,0
-168,8,0,0,0,0,0,0,0,0,0,-1,1056,1016,0,0
-161,8,0,0,0,0,0,0,0,0,0,-1,1063,1016,0,0
-154,8,0,0,0,0,0,0,0,0,0,-1,1070,1016,0,0
-147,8,0,0,0,0,0,0,0,0,0,-1,1077,1016,0,0
-140,8,0,0,0,0,0,0,0,0,0,-1,1084,1016,0,0
-133,8,0,0,0,0,0,0,0,0,0,-1,1091,1016,0,0
-126,8,0,0,0,0,0,0,0,0,0,-1,1098,1016,0,0
-119,8,0,0,0,0,0,0,0,0,0,-1,1105,1016,0,0
-112,8,0,0,0,0,0,0,0,0,0,-1,1112,1016,0,0
-105,8,0,0,0,0,0,0,0,0,0,-1,1119,1016,0,0
-98,8,0,0,0,0,0,0,0,0,0,-1,1126,1016,0,0
-91,8,0,0,0,0,0,0,0,0,0,-1,1133,1016,0,0
-84,8,0,0,0,0,0,0,0,0,0,-1,1140,1016,0,0
-77,8,0,0,0,0,0,0,0,0,0,-1,1147,1016,0,0
-70,8,0,0,0,0,0,0,0,0,0,-1,1154,1016,0,0
-63,8,0,0,0,0,0,0,0,0,0,-1,1161,1016,0,0
-56,8,0,0,0,0,0,0,0,0,0,-1,1168,1016,0,0
-49,8,0,0,0,0,0,0,0,0,0,-1,1175,1016,0,0
-42,8,0,0,0,0,0,0,0,0,0,-1,1182,1016,0,0
-35,8,0,0,0,0,0,0,0,0,0,-1,1189,1016,0,0
-28,8,0,0,0,0,0,0,0,0,0,-1,1196,1016,0,0
-21,8,0,0,0,0,0,0,0,0,0,-1,1203,1016,0,0
-14,8,0,0,0,0,0,0,0,0,0,-1,1210,1016,0,0
-7,8,0,0,0,0,0,0,0,0,0,-1,1217,1016,0,0
0,8,0,0,0,0,0,0,0,0,0,-1,1224,1016,0,0
7,8,0,0,0,0,0,0,0,0,0,-1,1231,1016,0,0
14,8,0,0,0,0,0,0,0,0,0,-1,1238,1016,0,0
21,8,0,0,0,0,0,0,0,0,0,-1,1245,1016,0,0
28,8,0,0,0,0,0,0,0,0,0,-1,1252,1016,0,0
35,8,0,0,0,0,0,0,0,0,0,-1,1259,1016,0,0
42,8,0,0,0,0,0,0,0,0,0,-1,1266,1016,0,0
49,8,0,0,0,0,0,0,0,0,0,-1,1273,1016,0,0
56,8,0,0,0,0,0,0,0,0,0,-1,1280,1016,0,0
63,8,0,0,0,0,0,0,0,0,0,-1,1287,1016,0,0
70,8,0,0,0,0,0,0,0,0,0,-1,1294,1016,0,0
77,8,0,0,0,0,0,0,0,0,0,-1,1301,1016,0,0
84,8,0,0,0,0,0,0,0,0,0,-1,1308,1016,0,0
91,8,0,0,0,0,0,0,0,0,0,-1,1315,1016,0,0
98,8,0,0,0,0,0,0,0,0,0,-1,1322,1016,0,0
105,8,0,0,0,0,0,0,0,0,0,-1,1329,1016,0,0
112,8,0,0,0,0,0,0,0,0,0,-1,1336,1016,0,0
119,8,0,0,0,0,0,0,0,0,0,-1,1343,1016,0,0
126,8,0,0,0,0,0,0,0,0,0,-1,1350,1016,0,0
133,8,0,0,0,0,0,0,0,0,0,-1,1357,1016,0,0
140,8,0,0,0,0,0,0,0,0,0,-1,1364,1016,0,0
147,8,0,0,0,0,0,0,0,0,0,-1,1371,1016,0,0
154,8,0,0,0,0,0,0,0,0,0,-1,1378,1016,0,0
161,8,0,0,0,0,0,0,0,0,0,-1,1385,1016,0,0
168,8,0,0,0,0,0,0,0,0,0,-1,1392,1016,0,0
175,8,0,0,0,0,0,0,0,0,0,-1,1399,1016,0,0
182,8,0,0,0,0,0,0,0,0,0,-1,1406,1016,0,0
189,8,0,0,0,0,0,0,0,0,0,-1,1413,1016,0,0
196,8,0,0,0,0,0,0,0,0,0,-1,1420,1016,0,0
203,8,0,0,0,0,0,0,0,0,0,-1,1427,1016,0,0
210,8,0,0,0,0,0,0,0,0,0,-1,1434,1016,0,0
217,8,0,0,0,0,0,0,0,0,0,-1,1441,1016,0,0
224,8,0,0,0,0,0,0,0,0,0,-1,1448,1016,0,0
231,8,0,0,0,0,0,0,0,0,0,-1,1455,1016,0,0
238,8,0,0,0,0,0,0,0,0,0,-1,1462,1016,0,0
245,8,0,0,0,0,0,0,0,0,0,-1,1469,1016,0,0
252,8,0,0,0,0,0,0,0,0,0,-1,1476,1016,0,0
259,8,0,0,0,0,0,0,0,0,0,-1,1483,1016,0,0
266,8,0,0,0,0,0,0,0,0,0,-1,1490,1016,0,0
273,8,0,0,0,0,0,0,0,0,0,-1,1497,1016,0,0
280,8,0,0,0,0,0,0,0,0,0,-1,1504,1016,0,0
287,8,0,0,0,0,0,0,0,0,0,-1,1511,1016,0,0
294,8,0,0,0,0,0,0,0,0,0,-1,1518,1016,0,0
301,8,0,0,0,0,0,0,0,0,0,-1,1525,1016,0,0
308,8,0,0,0,0,0,0,0,0,0,-1,1532,1016,0,0
315,8,0,0,0,0,0,0,0,0,0,-1,1539,1016,0,0
322,8,0,0,0,0,0,0,0,0,0,-1,1546,1016,0,0
329,8,0,0,0,0,0,0,0,0,0,-1,1553,1016,0,0
336,8,0,0,0,0,0,0,0,0,0,-1,1560,1016,0,0
343,8,0,0,0,0,0,0,0,0,0,-1,1567,1016,0,0
350,8,0,0,0,0,0,0,0,0,0,-1,1574,1016,0,0
357,8,0,0,0,0,0,0,0,0,0,-1,1581,1016,0,0
364,8,0,0,0,0,0,0,0,0,0,-1,1588,1016,0,0
371,8,0,0,0,0,0,0,0,0,0,-1,1595,1016,0,0
378,8,0,0,0,0,0,0,0,0,0,-1,1602,1016,0,0
385,8,0,0,0,0,0,0,0,0,0,-1,1609,1016,0,0
392,8,0,0,0,0,0,0,0,0,0,-1,1616,1016,0,0
399,8,0,0,0,0,0,0,0,0,0,-1,1623,1016,0,0
406,8,0,0,0,0,0,0,0,0,0,-1,1630,1016,0,0
413,8,0,0,0,0,0,0,0,0,0,-1,1637,1016,0,0
420,8,0,0,0,0,0,0,0,0,0,-1,1644,1016,0,0
427,8,0,0,0,0,0,0,0,0,0,-1,1651,1016,0,0
434,8,0,0,0,0,0,0,0,0,0,-1,1658,1016,0,0
441,8,0,0,0,0,0,0,0,0,0,-1,1665,1016,0,0
448,8,0,0,0,0,0,0,0,0,0,-1,1672,1016,0,0
455,8,0,0,0,0,0,0,0,0,0,-1,1679,1016,0,0
462,8,0,0,0,0,0,0,0,0,0,-1,1686,1016,0,0
469,8,0,0,0,0,0,0,0,0,0,-1,1693,1016,0,0
476,8,0,0,0,0,0,0,0,0,0,-1,1700,1016,0,0
483,8,0,0,0,0,0,0,0,0,0,-1,1707,1016,0,0
490,8,0,0,0,0,0,0,0,0,0,-1,1714,1016,0,0
497,8,0,0,0,0,0,0,0,0,0,-1,1721,1016,0,0
504,8,0,0,0,0,0,0,0,0,0,-1,1728,1016,0,0
511,8,0,0,0,0,0,0,0,0,0,-1,1735,1016,0,0
518,8,0,0,0,0,0,0,0,0,0,-1,1742,1016,0,0
525,8,0,0,0,0,0,0,0,0,0,-1,1749,1016,0,0
532,8,0,0,0,0,0,0,0,0,0,-1,1756,1016,0,0
539,8,0,0,0,0,0,0,0,0,0,-1,1763,1016,0,0
546,8,0,0,0,0,0,0,0,0,0,-1,1770,1016,0,0
553,8,0,0,0,0,0,0,0,0,0,-1,1777,1016,0,0
560,8,0,0,0,0,0,0,0,0,0,-1,1784,1016,0,0
567,8,0,0,0,0,0,0,0,0,0,-1,1791,1016,0,0
574,8,0,0,0,0,0,0,0,0,0,-1,1798,1016,0,0
581,8,0,0,0,0,0,0,0,0,0,-1,1805,1016,0,0
588,8,0,0,0,0,0,0,0,0,0,-1,1812,1016,0,0
595,8,0,0,0,0,0,0,0,0,0,-1,1819,1016,0,0
602,8,0,0,0,0,0,0,0,0,0,-1,1826,1016,0,0
609,8,0,0,0,0,0,0,0,0,0,-1,1833,1016,0,0
616,8,0,0,0,0,0,0,0,0,0,-1,1840,1016,0,0
623,8,0,0,0,0,0,0,0,0,0,-1,1847,1016,0,0
630,8,0,0,0,0,0,0,0,0,0,-1,1854,1016,0,0
637,8,0,0,0,0,0,0,0,0,0,-1,1861,1016,0,0
644,8,21.6613,2.49713,-0.00386812,0.0067568,0.00486014,0.00864456,-0.00575588,1.20031,0.00836968,0.0421786,1868,1016,21.6612,-2.49712
651,8,21.788,2.56604,-0.0029102,0.00450113,0.00346579,0.00586929,-0.00427836,1.19482,0.0058827,0.0392563,1875,1016,21.788,-2.56604
658,8,21.8295,2.70148,-0.0022787,0.0029256,0.00245916,0.00390376,-0.00325686,1.19222,0.00413981,0.0387786,1882,1016,21.8295,-2.7015
665,8,21.6976,2.56238,-0.00172624,0.00183257,0.00183616,0.00261007,-0.00250374,1.17025,0.00295267,0.0394618,1889,1016,21.6976,-2.56235
672,8,21.673,2.56274,-0.00127948,0.0011064,0.00177464,0.00205179,-0.00222487,1.08132,0.0024698,0.0377249,1896,1016,21.673,-2.56275
679,8,21.7788,2.60876,-0.00124459,0.000507831,0.00226227,0.00205764,-0.00279441,0.97016,0.00281208,0.0370992,1903,1016,21.7788,-2.60874
686,8,21.8427,2.77557,-0.00140624,9.73252e-05,0.00292752,0.00236805,-0.00367697,0.911082,0.00351725,0.0426622,1910,1016,21.8426,-2.77556
693,8,21.79,2.74567,-0.00157938,-0.000202165,0.00354927,0.00272468,-0.00450623,0.881214,0.00421679,0.0403598,1917,1016,21.79,-2.74566
700,8,21.7849,2.81342,-0.00180872,-0.000484482,0.00401182,0.00291949,-0.0052127,0.867182,0.00475694,0.0295638,1924,1016,21.7849,-2.81341
707,8,21.7582,2.78217,-0.0019991,-0.000586359,0.00430383,0.00306868,-0.00565414,0.866736,0.00510933,0.0233416,1931,1016,21.7581,-2.78219
714,8,21.7614,2.7608,-0.00217704,-0.000567405,0.00461875,0.00331612,-0.00606057,0.871657,0.00549038,0.0241257,1938,1016,21.7613,-2.76081
721,8,21.771,3.22693,0,0,0,0,0,0,0,-1,1945,1016,21.771,-3.22694
728,8,21.3834,3.77979,-0.00282173,-0.000141966,0.00467134,0.00337785,-0.00634155,0.925064,0.0056978,0.0265903,1952,1016,21.3834,-3.77977
735,8,21.2919,4.00739,-0.00337653,0.000301704,0.00427779,0.00311896,-0.00619379,0.988414,0.00547354,0.0170743,1959,1016,21.2918,-4.00736
742,8,21.3005,4.02502,-0.00394865,0.000971493,0.00370141,0.00295579,-0.00593295,1.07869,0.00522699,0.0148787,1966,1016,21.3005,-4.025
749,8,21.2935,4.08545,-0.00428123,0.00194066,0.00291361,0.00309201,-0.00543258,1.19447,0.00498313,0.0109103,1973,1016,21.2935,-4.08546
756,8,21.2887,4.10217,-0.00515605,0.00307357,0.00236219,0.0037034,-0.00578587,1.31023,0.00552244,0.012391,1980,1016,21.2887,-4.10217
763,8,21.3118,4.14209,-0.00619497,0.00462814,0.00186338,0.00493997,-0.0065068,1.40499,0.0066294,0.0121342,1987,1016,21.3118,-4.14211
770,8,21.3132,4.18024,-0.00749235,0.00643986,0.00125987,0.00655287,-0.00760536,1.48133,0.00818179,0.0132386,1994,1016,21.3132,-4.18024
777,8,21.2574,4.21356,-0.0091368,0.00877735,0.00113708,0.00884924,-0.00920868,1.50766,0.0104264,0.0181727,2001,1016,21.2574,-4.21355
784,8,21.1769,4.25378,-0.0112876,0.0112299,0.00168775,0.0113557,-0.0114134,1.4964,0.0131458,0.0372304,2008,1016,21.1769,-4.2538
791,8,21.0784,4.26862,-0.0140786,0.0139262,0.00299191,0.0142423,-0.0143947,1.46554,0.0165337,0.0493273,2015,1016,21.0784,-4.26861
798,8,20.9552,4.29822,0,0,0,0,0,0,0,-1,2022,1016,20.9552,-4.29822
805,8,20.72,3.1839,-0.0212996,0.0200846,0.00785529,0.0215255,-0.0227405,1.38939,0.0255602,0.0463907,2029,1016,20.7199,-3.1839
812,8,20.4187,3.22046,-0.02619,0.0234736,0.0119126,0.0261832,-0.0288996,1.34715,0.031815,0.0458392,2036,1016,20.4187,-3.22047
-700,1,0,0,0,0,0,0,0,0,0,-1,524,1023,0,0
-693,1,-12.8046,0.17804,0,0,0,0,0,0,0,-1,531,1023,-12.8046,-0.178043
-686,1,-13.1021,0.985107,0,0,0,0,0,0,0,-1,538,1023,-13.1021,-0.985127
-679,1,-13.3477,0.901489,-0.0122157,0.0353081,0.0113437,0.037877,-0.0147845,1.3481,0.0313634,0.0448553,545,1023,-13.3477,-0.901512
-672,1,-13.5938,0.801331,-0.0115905,0.0272303,0.0103366,0.029811,-0.0141712,1.32613,0.0259228,0.0426331,552,1023,-13.5937,-0.801347
-665,1,-13.8967,1.43726,-0.0104273,0.0208177,0.00907446,0.0232619,-0.0128715,1.30768,0.0211472,0.0444628,559,1023,-13.8968,-1.43726
-658,1,-14.1247,1.68158,-0.00897709,0.0157162,0.00766634,0.0179027,-0.0111636,1.29297,0.0169311,0.0340928,566,1023,-14.1247,-1.68159
-651,1,-14.1016,1.69135,-0.00739948,0.0116551,0.00619577,0.0134925,-0.00923691,1.2825,0.0131993,0.0158166,573,1023,-14.1015,-1.69134
-644,1,-14.047,1.77618,-0.00581875,0.00844658,0.00453625,0.00976687,-0.00713904,1.28757,0.00979986,0.0186744,580,1023,-14.047,-1.77619
-637,1,-14.116,1.73798,-0.00477206,0.00532109,0.0024442,0.00588184,-0.00533281,1.34528,0.00647737,0.0156428,587,1023,-14.116,-1.73799
-630,1,-14.1975,1.7168,-0.00357823,0.00378916,0.000748016,0.00386434,-0.0036534,1.47063,0.00434094,0.0156068,594,1023,-14.1975,-1.71682
-623,1,-14.1909,1.71863,-0.00209022,0.00246156,-0.000947495,0.00265091,-0.00227958,-1.37355,0.00284931,0.0130068,601,1023,-14.1909,-1.71865
-616,1,-14.1989,1.70056,-0.00133341,0.0020092,-0.00267838,0.00349495,-0.00281916,-1.06434,0.00365241,0.0150729,608,1023,-14.1989,-1.70057
-609,1,-14.18,1.69348,-0.00107588,0.00148454,-0.00423475,0.00462836,-0.0042197,-0.932185,0.00511024,0.0159943,615,1023,-14.18,-1.69348
-602,1,-14.1543,1.68958,-0.000751432,0.0010192,-0.00526843,0.00547618,-0.00520841,-0.868641,0.0061694,0.0138874,622,1023,-14.1543,-1.68956
-595,1,-14.1317,1.66669,-0.00043971,0.000708873,-0.00560697,0.00577089,-0.00550172,-0.836432,0.00650886,0.0179624,629,1023,-14.1317,-1.66668
-588,1,-14.1411,1.29413,-0.000247581,0.000524281,-0.00567262,0.00582409,-0.00554739,-0.819363,0.00656597,0.0248652,636,1023,-14.1411,-1.2941
-581,1,-14.1523,0.951721,-0.00012168,0.000329873,-0.00539461,0.00550343,-0.00529524,-0.806312,0.006235,0.0257183,643,1023,-14.1523,-0.951743
-574,1,-14.1454,0.897339,-0.000111233,0.000133762,-0.00475292,0.00476576,-0.00474323,-0.798282,0.00549002,0.0348126,650,1023,-14.1454,-0.897355
-567,1,-14.0416,0.68103,-1.81352e-05,-3.59736e-05,-0.0035945,0.00356745,-0.00362156,-0.784158,0.00415062,0.0390706,657,1023,-14.0416,-0.681049
-560,1,-14.0429,0.720764,0.000123897,-0.000197873,-0.00194933,0.00191897,-0.00199295,-0.744225,0.00225868,0.0394006,664,1023,-14.0429,-0.720762
-553,1,-14.1606,0.55957,0.000280332,-0.000349809,0.000120059,0.000302432,-0.000371908,0.182035,0.000390019,0.0398401,671,1023,-14.1606,-0.559542
-546,1,-14.0792,0.838806,0.000394678,-0.000497479,0.00251628,0.00250412,-0.00260692,0.697671,0.00295106,0.0415146,678,1023,-14.0792,-0.838799
-539,1,-14.2395,1.06628,0.000387632,-0.000472983,0.00470296,0.00467993,-0.00476528,0.739777,0.00545326,0.042574,685,1023,-14.2395,-1.06629
-532,1,-14.3251,1.11316,-0.000197702,3.24186e-05,0.00562287,0.00554141,-0.00570669,0.795628,0.00649433,0.0427412,692,1023,-14.3251,-1.11315
-525,1,0,0,0,0,0,0,0,0,0,-1,699,1023,0,0
-518,1,0,0,0,0,0,0,0,0,0,-1,706,1023,0,0
-511,1,0,0,0,0,0,0,0,0,0,-1,713,1023,0,0
-504,1,0,0,0,0,0,0,0,0,0,-1,720,1023,0,0
-497,1,0,0,0,0,0,0,0,0,0,-1,727,1023,0,0
-490,1,0,0,0,0,0,0,0,0,0,-1,734,1023,0,0
-483,1,0,0,0,0,0,0,0,0,0,-1,741,1023,0,0
-476,1,0,0,0,0,0,0,0,0,0,-1,748,1023,0,0
-469,1,0,0,0,0,0,0,0,0,0,-1,755,1023,0,0
-462,1,0,0,0,0,0,0,0,0,0,-1,762,1023,0,0
-455,1,0,0,0,0,0,0,0,0,0,-1,769,1023,0,0
-448,1,0,0,0,0,0,0,0,0,0,-1,776,1023,0,0
-441,1,0,0,0,0,0,0,0,0,0,-1,783,1023,0,0
-434,1,0,0,0,0,0,0,0,0,0,-1,790,1023,0,0
-427,1,0,0,0,0,0,0,0,0,0,-1,797,1023,0,0
-420,1,0,0,0,0,0,0,0,0,0,-1,804,1023,0,0
-413,1,0,0,0,0,0,0,0,0,0,-1,811,1023,0,0
-406,1,0,0,0,0,0,0,0,0,0,-1,818,1023,0,0
-399,1,0,0,0,0,0,0,0,0,0,-1,825,1023,0,0
-392,1,0,0,0,0,0,0,0,0,0,-1,832,1023,0,0
-385,1,0,0,0,0,0,0,0,0,0,-1,839,1023,0,0
-378,1,0,0,0,0,0,0,0,0,0,-1,846,1023,0,0
-371,1,0,0,0,0,0,0,0,0,0,-1,853,1023,0,0
-364,1,0,0,0,0,0,0,0,0,0,-1,860,1023,0,0
-357,1,0,0,0,0,0,0,0,0,0,-1,867,1023,0,0
-350,1,0,0,0,0,0,0,0,0,0,-1,874,1023,0,0
-343,1,0,0,0,0,0,0,0,0,0,-1,881,1023,0,0
-336,1,0,0,0,0,0,0,0,0,0,-1,888,1023,0,0
-329,1,0,0,0,0,0,0,0,0,0,-1,895,1023,0,0
-322,1,0,0,0,0,0,0,0,0,0,-1,902,1023,0,0
-315,1,0,0,0,0,0,0,0,0,0,-1,909,1023,0,0
-308,1,0,0,0,0,0,0,0,0,0,-1,916,1023,0,0
-301,1,0,0,0,0,0,0,0,0,0,-1,923,1023,0,0
-294,1,0,0,0,0,0,0,0,0,0,-1,930,1023,0,0
-287,1,0,0,0,0,0,0,0,0,0,-1,937,1023,0,0
-280,1,0,0,0,0,0,0,0,0,0,-1,944,1023,0,0
-273,1,0,0,0,0,0,0,0,0,0,-1,951,1023,0,0
-266,1,0,0,0,0,0,0,0,0,0,-1,958,1023,0,0
-259,1,0,0,0,0,0,0,0,0,0,-1,965,1023,0,0
-252,1,0,0,0,0,0,0,0,0,0,-1,972,1023,0,0
-245,1,0,0,0,0,0,0,0,0,0,-1,979,1023,0,0
-238,1,0,0,0,0,0,0,0,0,0,-1,986,1023,0,0
-231,1,0,0,0,0,0,0,0,0,0,-1,993,1023,0,0
-224,1,0,0,0,0,0,0,0,0,0,-1,1000,1023,0,0
-217,1,0,0,0,0,0,0,0,0,0,-1,1007,1023,0,0
-210,1,0,0,0,0,0,0,0,0,0,-1,1014,1023,0,0
-203,1,0,0,0,0,0,0,0,0,0,-1,1021,1023,0,0
-196,1,0,0,0,0,0,0,0,0,0,-1,1028,1023,0,0
-189,1,0,0,0,0,0,0,0,0,0,-1,1035,1023,0,0
-182,1,0,0,0,0,0,0,0,0,0,-1,1042,1023,0,0
-175,1,0,0,0,0,0,0,0,0,0,-1,1049,1023,0,0
-168,1,0,0,0,0,0,0,0,0,0,-1,1056,1023,0,0
-161,1,0,0,0,0,0,0,0,0,0,-1,1063,1023,0,0
-154,1,0,0,0,0,0,0,0,0,0,-1,1070,1023,0,0
-147,1,0,0,0,0,0,0,0,0,0,-1,1077,1023,0,0
-140,1,0,0,0,0,0,0,0,0,0,-1,1084,1023,0,0
-133,1,0,0,0,0,0,0,0,0,0,-1,1091,1023,0,0
-126,1,0,0,0,0,0,0,0,0,0,-1,1098,1023,0,0
-119,1,0,0,0,0,0,0,0,0,0,-1,1105,1023,0,0
-112,1,0,0,0,0,0,0,0,0,0,-1,1112,1023,0,0
-105,1,0,0,0,0,0,0,0,0,0,-1,1119,1023,0,0
-98,1,0,0,0,0,0,0,0,0,0,-1,1126,1023,0,0
-91,1,0,0,0,0,0,0,0,0,0,-1,1133,1023,0,0
-84,1,0,0,0,0,0,0,0,0,0,-1,1140,1023,0,0
-77,1,0,0,0,0,0,0,0,0,0,-1,1147,1023,0,0
-70,1,0,0,0,0,0,0,0,0,0,-1,1154,1023,0,0
-63,1,0,0,0,0,0,0,0,0,0,-1,1161,1023,0,0
-56,1,0,0,0,0,0,0,0,0,0,-1,1168,1023,0,0
-49,1,0,0,0,0,0,0,0,0,0,-1,1175,1023,0,0
-42,1,0,0,0,0,0,0,0,0,0,-1,1182,1023,0,0
-35,1,0,0,0,0,0,0,0,0,0,-1,1189,1023,0,0
-28,1,0,0,0,0,0,0,0,0,0,-1,1196,1023,0,0
-21,1,0,0,0,0,0,0,0,0,0,-1,1203,1023,0,0
-14,1,0,0,0,0,0,0,0,0,0,-1,1210,1023,0,0
-7,1,0,0,0,0,0,0,0,0,0,-1,1217,1023,0,0
0,1,0,0,0,0,0,0,0,0,0,-1,1224,1023,0,0
7,1,0,0,0,0,0,0,0,0,0,-1,1231,1023,0,0
14,1,0,0,0,0,0,0,0,0,0,-1,1238,1023,0,0
21,1,0,0,0,0,0,0,0,0,0,-1,1245,1023,0,0
28,1,0,0,0,0,0,0,0,0,0,-1,1252,1023,0,0
35,1,0,0,0,0,0,0,0,0,0,-1,1259,1023,0,0
42,1,0,0,0,0,0,0,0,0,0,-1,1266,1023,0,0
49,1,0,0,0,0,0,0,0,0,0,-1,1273,1023,0,0
56,1,0,0,0,0,0,0,0,0,0,-1,1280,1023,0,0
63,1,0,0,0,0,0,0,0,0,0,-1,1287,1023,0,0
70,1,0,0,0,0,0,0,0,0,0,-1,1294,1023,0,0
77,1,0,0,0,0,0,0,0,0,0,-1,1301,1023,0,0
84,1,0,0,0,0,0,0,0,0,0,-1,1308,1023,0,0
91,1,0,0,0,0,0,0,0,0,0,-1,1315,1023,0,0
98,1,0,0,0,0,0,0,0,0,0,-1,1322,1023,0,0
105,1,0,0,0,0,0,0,0,0,0,-1,1329,1023,0,0
112,1,0,0,0,0,0,0,0,0,0,-1,1336,1023,0,0
119,1,0,0,0,0,0,0,0,0,0,-1,1343,1023,0,0
126,1,0,0,0,0,0,0,0,0,0,-1,1350,1023,0,0
133,1,0,0,0,0,0,0,0,0,0,-1,1357,1023,0,0
140,1,0,0,0,0,0,0,0,0,0,-1,1364,1023,0,0
147,1,0,0,0,0,0,0,0,0,0,-1,1371,1023,0,0
154,1,0,0,0,0,0,0,0,0,0,-1,1378,1023,0,0
161,1,0,0,0,0,0,0,0,0,0,-1,1385,1023,0,0
168,1,0,0,0,0,0,0,0,0,0,-1,1392,1023,0,0
175,1,0,0,0,0,0,0,0,0,0,-1,1399,1023,0,0
182,1,0,0,0,0,0,0,0,0,0,-1,1406,1023,0,0
189,1,0,0,0,0,0,0,0,0,0,-1,1413,1023,0,0
196,1,0,0,0,0,0,0,0,0,0,-1,1420,1023,0,0
203,1,0,0,0,0,0,0,0,0,0,-1,1427,1023,0,0
210,1,0,0,0,0,0,0,0,0,0,-1,1434,1023,0,0
217,1,0,0,0,0,0,0,0,0,0,-1,1441,1023,0,0
224,1,0,0,0,0,0,0,0,0,0,-1,1448,1023,0,0
231,1,0,0,0,0,0,0,0,0,0,-1,1455,1023,0,0
238,1,0,0,0,0,0,0,0,0,0,-1,1462,1023,0,0
245,1,0,0,0,0,0,0,0,0,0,-1,1469,1023,0,0
252,1,0,0,0,0,0,0,0,0,0,-1,1476,1023,0,0
259,1,0,0,0,0,0,0,0,0,0,-1,1483,1023,0,0
266,1,0,0,0,0,0,0,0,0,0,-1,1490,1023,0,0
273,1,0,0,0,0,0,0,0,0,0,-1,1497,1023,0,0
280,1,0,0,0,0,0,0,0,0,0,-1,1504,1023,0,0
287,1,0,0,0,0,0,0,0,0,0,-1,1511,1023,0,0
294,1,0,0,0,0,0,0,0,0,0,-1,1518,1023,0,0
301,1,0,0,0,0,0,0,0,0,0,-1,1525,1023,0,0
308,1,0,0,0,0,0,0,0,0,0,-1,1532,1023,0,0
315,1,0,0,0,0,0,0,0,0,0,-1,1539,1023,0,0
322,1,0,0,0,0,0,0,0,0,0,-1,1546,1023,0,0
329,1,0,0,0,0,0,0,0,0,0,-1,1553,1023,0,0
336,1,0,0,0,0,0,0,0,0,0,-1,1560,1023,0,0
343,1,0,0,0,0,0,0,0,0,0,-1,1567,1023,0,0
350,1,0,0,0,0,0,0,0,0,0,-1,1574,1023,0,0
357,1,0,0,0,0,0,0,0,0,0,-1,1581,1023,0,0
364,1,0,0,0,0,0,0,0,0,0,-1,1588,1023,0,0
371,1,0,0,0,0,0,0,0,0,0,-1,1595,1023,0,0
378,1,0,0,0,0,0,0,0,0,0,-1,1602,1023,0,0
385,1,0,0,0,0,0,0,0,0,0,-1,1609,1023,0,0
392,1,0,0,0,0,0,0,0,0,0,-1,1616,1023,0,0
399,1,0,0,0,0,0,0,0,0,0,-1,1623,1023,0,0
406,1,0,0,0,0,0,0,0,0,0,-1,1630,1023,0,0
413,1,0,0,0,0,0,0,0,0,0,-1,1637,1023,0,0
420,1,0,0,0,0,0,0,0,0,0,-1,1644,1023,0,0
427,1,0,0,0,0,0,0,0,0,0,-1,1651,1023,0,0
434,1,0,0,0,0,0,0,0,0,0,-1,1658,1023,0,0
441,1,0,0,0,0,0,0,0,0,0,-1,1665,1023,0,0
448,1,0,0,0,0,0,0,0,0,0,-1,1672,1023,0,0
455,1,0,0,0,0,0,0,0,0,0,-1,1679,1023,0,0
462,1,0,0,0,0,0,0,0,0,0,-1,1686,1023,0,0
469,1,0,0,0,0,0,0,0,0,0,-1,1693,1023,0,0
476,1,0,0,0,0,0,0,0,0,0,-1,1700,1023,0,0
483,1,0,0,0,0,0,0,0,0,0,-1,1707,1023,0,0
490,1,0,0,0,0,0,0,0,0,0,-1,1714,1023,0,0
497,1,0,0,0,0,0,0,0,0,0,-1,1721,1023,0,0
504,1,0,0,0,0,0,0,0,0,0,-1,1728,1023,0,0
511,1,0,0,0,0,0,0,0,0,0,-1,1735,1023,0,0
518,1,0,0,0,0,0,0,0,0,0,-1,1742,1023,0,0
525,1,0,0,0,0,0,0,0,0,0,-1,1749,1023,0,0
532,1,0,0,0,0,0,0,0,0,0,-1,1756,1023,0,0
539,1,0,0,0,0,0,0,0,0,0,-1,1763,1023,0,0
546,1,0,0,0,0,0,0,0,0,0,-1,1770,1023,0,0
553,1,0,0,0,0,0,0,0,0,0,-1,1777,1023,0,0
560,1,0,0,0,0,0,0,0,0,0,-1,1784,1023,0,0
567,1,0,0,0,0,0,0,0,0,0,-1,1791,1023,0,0
574,1,0,0,0,0,0,0,0,0,0,-1,1798,1023,0,0
581,1,0,0,0,0,0,0,0,0,0,-1,1805,1023,0,0
588,1,0,0,0,0,0,0,0,0,0,-1,1812,1023,0,0
595,1,0,0,0,0,0,0,0,0,0,-1,1819,1023,0,0
602,1,0,0,0,0,0,0,0,0,0,-1,1826,1023,0,0
609,1,0,0,0,0,0,0,0,0,0,-1,1833,1023,0,0
616,1,0,0,0,0,0,0,0,0,0,-1,1840,1023,0,0
623,1,0,0,0,0,0,0,0,0,0,-1,1847,1023,0,0
630,1,0,0,0,0,0,0,0,0,0,-1,1854,1023,0,0
637,1,0,0,0,0,0,0,0,0,0,-1,1861,1023,0,0
644,1,0,0,0,0,0,0,0,0,0,-1,1868,1023,0,0
651,1,21.975,2.4201,-0.0038822,0.00404545,0.00420208,0.00585825,-0.00569499,1.16351,0.00667049,0.040537,1875,1023,21.975,-2.4201
658,1,21.8977,2.86945,-0.00290678,0.002686,0.00306799,0.0040408,-0.00426158,1.15496,0.00479394,0.0429992,1882,1023,21.8978,-2.86944
665,1,21.7551,2.73853,-0.00210576,0.00174069,0.00229566,0.00281227,-0.00317734,1.13407,0.00346024,0.0440703,1889,1023,21.7552,-2.73854
672,1,21.6775,2.64575,-0.0014884,0.00108425,0.00215539,0.00230797,-0.00271212,1.05443,0.00290148,0.0403983,1896,1023,21.6774,-2.64572
679,1,21.677,2.61139,-0.00137474,0.000465168,0.00265213,0.00235237,-0.00326194,0.952341,0.00325557,0.0376928,1903,1023,21.677,-2.61136
686,1,21.7722,2.77472,-0.00152621,-5.13948e-06,0.00336521,0.00268441,-0.00421576,0.896531,0.00401638,0.0408009,1910,1023,21.7722,-2.7747
693,1,21.8115,2.82861,-0.00172748,-0.000387691,0.00406029,0.0030576,-0.00517277,0.867155,0.00480383,0.0362713,1917,1023,21.8115,-2.82862
700,1,21.7809,2.79517,-0.00199188,-0.000746334,0.00459956,0.00327243,-0.00601064,0.852688,0.00543674,0.0284494,1924,1023,21.7809,-2.79517
707,1,21.7611,2.75653,-0.00220629,-0.000915731,0.00495279,0.00343364,-0.00655565,0.850176,0.00586046,0.0260326,1931,1023,21.7612,-2.75654
714,1,21.7395,2.68512,-0.00240904,-0.000971513,0.00531564,0.00367374,-0.00705429,0.852599,0.0062955,0.0276224,1938,1023,21.7395,-2.68514
721,1,21.8784,2.59503,0,0,0,0,0,0,0,-1,1945,1023,21.8784,-2.59504
728,1,21.4147,3.83105,-0.00304609,-0.00062453,0.00537393,0.00367333,-0.00734395,0.896201,0.00647744,0.0269387,1952,1023,21.4147,-3.83106
735,1,21.307,4.01776,-0.00352276,-0.000213123,0.00492073,0.00332359,-0.00705947,0.947605,0.00612264,0.014633,1959,1023,21.3071,-4.01779
742,1,21.3143,4.03619,-0.00397174,0.000423972,0.00423627,0.0029986,-0.00654636,1.02469,0.00563625,0.0136446,1966,1023,21.3143,-4.03618
749,1,21.2841,4.07916,-0.00403924,0.00140838,0.00334209,0.00299603,-0.00562689,1.12731,0.00505509,0.0121542,1973,1023,21.2841,-4.07914
756,1,21.2758,4.08923,-0.00450324,0.00255452,0.00265146,0.00343962,-0.00538834,1.24861,0.00513805,0.0118107,1980,1023,21.2757,-4.08924
763,1,21.3032,4.1153,-0.00505169,0.00415794,0.00204858,0.00459307,-0.00548681,1.3615,0.00582724,0.0129104,1987,1023,21.3032,-4.1153
770,1,21.3224,4.13855,-0.00574284,0.00600118,0.00129413,0.0061421,-0.00588375,1.46234,0.00694366,0.0129085,1994,1023,21.3224,-4.13858
777,1,21.2815,4.14264,-0.00656757,0.00833838,0.00103316,0.00840965,-0.00663883,1.50192,0.00870827,0.0157004,2001,1023,21.2815,-4.14264
784,1,21.1907,4.1416,-0.00776628,0.0107788,0.00154354,0.0109064,-0.00789387,1.48832,0.0109007,0.0366787,2008,1023,21.1906,-4.14159
791,1,21.0869,4.08453,-0.00939116,0.0134641,0.00286678,0.0138182,-0.00974526,1.4479,0.0136719,0.0483531,2015,1023,21.0869,-4.08454
798,1,20.98,4.06384,0,0,0,0,0,0,0,-1,2022,1023,20.9799,-4.06386
805,1,20.4451,3.25824,-0.0133496,0.0197142,0.00781588,0.0214687,-0.0151041,1.34998,0.0212216,0.0469198,2029,1023,20.4451,-3.25826
812,1,20.0029,3.18469,-0.0160406,0.0232451,0.0118981,0.0265676,-0.0193631,1.29849,0.0266266,0.0456127,2036,1023,20.003,-3.18468
-700,-6,0,0,0,0,0,0,0,0,0,-1,524,1030,0,0
-693,-6,-12.89,-0.475586,-0.0219849,0.0427093,0.00731328,0.0435257,-0.0228014,1.45962,0.0389121,0.041771,531,1030,-12.89,0.475544
-686,-6,-13.1881,-0.0578613,-0.0220086,0.0312443,0.00839314,0.0325358,-0.0233001,1.41812,0.0323836,0.0437569,538,1030,-13.1881,0.0578981
-679,-6,-13.4755,0.363403,-0.0205065,0.0233779,0.00857411,0.0249936,-0.0221222,1.38454,0.0272192,0.0450358,545,1030,-13.4755,-0.363447
-672,-6,-13.8271,0.629395,-0.0181514,0.0177434,0.00819333,0.0195252,-0.0199331,1.35666,0.0227816,0.0459478,552,1030,-13.8271,-0.629398
-665,-6,-14.1199,1.77576,0,0,0,0,0,0,0,-1,559,1030,-14.1199,-1.77578
-658,-6,-14.1251,1.73853,-0.0125725,0.0104211,0.00642452,0.0120944,-0.0142458,1.31601,0.0152244,0.0412238,566,1030,-14.1251,-1.73855
-651,-6,-14.1568,1.68823,-0.00988919,0.0079432,0.00527775,0.00938814,-0.0113341,1.30356,0.0119816,0.0339235,573,1030,-14.1568,-1.68826
-644,-6,-14.094,1.72314,-0.00743394,0.00590111,0.00392944,0.00697286,-0.00850569,1.30452,0.00895114,0.0331299,580,1030,-14.094,-1.7232
-637,-6,-14.1526,1.76831,-0.00566779,0.00366167,0.0019997,0.00407222,-0.00607834,1.3683,0.00589846,0.0195644,587,1030,-14.1526,-1.76827
-630,-6,-14.1866,1.72229,-0.00392751,0.00304992,0.000358621,0.00306831,-0.00394589,1.51958,0.0040602,0.0142813,594,1030,-14.1866,-1.72233
-623,-6,-14.1832,1.71436,-0.00217482,0.00218717,-0.00129846,0.00254443,-0.00253208,-1.3023,0.00293092,0.0132622,601,1030,-14.1831,-1.71439
-616,-6,-14.172,1.70593,-0.00127048,0.0017423,-0.00291919,0.00352086,-0.00304903,-1.02359,0.00379639,0.0136456,608,1030,-14.172,-1.70592
-609,-6,-14.1483,1.70679,-0.000993708,0.00117685,-0.0044245,0.00464723,-0.00446409,-0.905668,0.00526078,0.0152485,615,1030,-14.1483,-1.70683
-602,-6,-14.1423,1.72449,-0.000739154,0.000589968,-0.00548443,0.00544995,-0.00559914,-0.84569,0.00637939,0.0126564,622,1030,-14.1423,-1.72449
-595,-6,-14.0943,1.73242,-0.000456355,0.000180366,-0.00582829,0.00569898,-0.00597497,-0.812683,0.00674059,0.0146143,629,1030,-14.0943,-1.73247
-588,-6,-14.1125,1.24329,-0.000257064,-8.57384e-05,-0.00585287,0.0056821,-0.0060249,-0.792716,0.00676,0.0170968,636,1030,-14.1125,-1.24323
-581,-6,-14.1765,0.922485,-0.000115754,-0.000351987,-0.00550297,0.00527037,-0.00573811,-0.774668,0.00635766,0.0227631,643,1030,-14.1765,-0.922442
-574,-6,-14.1882,0.844849,-8.00613e-05,-0.000583183,-0.00477122,0.00444622,-0.00510947,-0.75906,0.00552141,0.0304646,650,1030,-14.1881,-0.844858
-567,-6,-14.165,0.595459,4.10011e-05,-0.000779469,-0.00348373,0.00313857,-0.00387704,-0.726789,0.00405793,0.0373297,657,1030,-14.1649,-0.59551
-560,-6,-14.2637,0.378052,0.000244639,-0.000935856,-0.00164549,0.00140254,-0.00209376,-0.613193,0.00203169,0.0381031,664,1030,-14.2637,-0.377996
-553,-6,-14.2266,0.459473,0.000508381,-0.00104094,0.000695167,0.000774564,-0.00130713,0.365683,0.0012149,0.0403142,671,1030,-14.2266,-0.459413
-546,-6,-14.0677,0.703735,0.000787237,-0.0010865,0.00345945,0.00343444,-0.0037337,0.653163,0.00413973,0.0441177,678,1030,-14.0677,-0.703771
-539,-6,-14.1163,0.88562,0.00102354,-0.000900876,0.0060371,0.00617463,-0.00605196,0.706371,0.00705914,0.0438711,685,1030,-14.1163,-0.885575
-532,-6,-14.263,0.902832,0.0008017,-0.00020886,0.00726899,0.00758295,-0.00699011,0.750698,0.00841608,0.0424717,692,1030,-14.263,-0.90284
-525,-6,0,0,0,0,0,0,0,0,0,-1,699,1030,0,0
-518,-6,0,0,0,0,0,0,0,0,0,-1,706,1030,0,0
-511,-6,0,0,0,0,0,0,0,0,0,-1,713,1030,0,0
-504,-6,0,0,0,0,0,0,0,0,0,-1,720,1030,0,0
-497,-6,0,0,0,0,0,0,0,0,0,-1,727,1030,0,0
-490,-6,0,0,0,0,0,0,0,0,0,-1,734,1030,0,0
-483,-6,0,0,0,0,0,0,0,0,0,-1,741,1030,0,0
-476,-6,0,0,0,0,0,0,0,0,0,-1,748,1030,0,0
-469,-6,0,0,0,0,0,0,0,0,0,-1,755,1030,0,0
-462,-6,0,0,0,0,0,0,0,0,0,-1,762,1030,0,0
-455,-6,0,0,0,0,0,0,0,0,0,-1,769,1030,0,0
-448,-6,0,0,0,0,0,0,0,0,0,-1,776,1030,0,0
-441,-6,0,0,0,0,0,0,0,0,0,-1,783,1030,0,0
-434,-6,0,0,0,0,0,0,0,0,0,-1,790,1030,0,0
-427,-6,0,0,0,0,0,0,0,0,0,-1,797,1030,0,0
-420,-6,0,0,0,0,0,0,0,0,0,-1,804,1030,0,0
-413,-6,0,0,0,0,0,0,0,0,0,-1,811,1030,0,0
-406,-6,0,0,0,0,0,0,0,0,0,-1,818,1030,0,0
-399,-6,0,0,0,0,0,0,0,0,0,-1,825,1030,0,0
-392,-6,0,0,0,0,0,0,0,0,0,-1,832,1030,0,0
-385,-6,0,0,0,0,0,0,0,0,0,-1,839,1030,0,0
-378,-6,0,0,0,0,0,0,0,0,0,-1,846,1030,0,0
-371,-6,0,0,0,0,0,0,0,0,0,-1,853,1030,0,0
-364,-6,0,0,0,0,0,0,0,0,0,-1,860,1030,0,0
-357,-6,0,0,0,0,0,0,0,0,0,-1,867,1030,0,0
-350,-6,0,0,0,0,0,0,0,0,0,-1,874,1030,0,0
-343,-6,0,0,0,0,0,0,0,0,0,-1,881,1030,0,0
-336,-6,0,0,0,0,0,0,0,0,0,-1,888,1030,0,0
-329,-6,0,0,0,0,0,0,0,0,0,-1,895,1030,0,0
-322,-6,0,0,0,0,0,0,0,0,0,-1,902,1030,0,0
-315,-6,0,0,0,0,0,0,0,0,0,-1,909,1030,0,0
-308,-6,0,0,0,0,0,0,0,0,0,-1,916,1030,0,0
-301,-6,0,0,0,0,0,0,0,0,0,-1,923,1030,0,0
-294,-6,0,0,0,0,0,0,0,0,0,-1,930,1030,0,0
-287,-6,0,0,0,0,0,0,0,0,0,-1,937,1030,0,0
-280,-6,0,0,0,0,0,0,0,0,0,-1,944,1030,0,0
-273,-6,0,0,0,0,0,0,0,0,0,-1,951,1030,0,0
-266,-6,0,0,0,0,0,0,0,0,0,-1,958,1030,0,0
-259,-6,0,0,0,0,0,0,0,0,0,-1,965,1030,0,0
-252,-6,0,0,0,0,0,0,0,0,0,-1,972,1030,0,0
-245,-6,0,0,0,0,0,0,0,0,0,-1,979,1030,0,0
-238,-6,0,0,0,0,0,0,0,0,0,-1,986,1030,0,0
-231,-6,0,0,0,0,0,0,0,0,0,-1,993,1030,0,0
-224,-6,0,0,0,0,0,0,0,0,0,-1,1000,1030,0,0
-217,-6,0,0,0,0,0,0,0,0,0,-1,1007,1030,0,0
-210,-6,0,0,0,0,0,0,0,0,0,-1,1014,1030,0,0
-203,-6,0,0,0,0,0,0,0,0,0,-1,1021,1030,0,0
-196,-6,0,0,0,0,0,0,0,0,0,-1,1028,1030,0,0
-189,-6,0,0,0,0,0,0,0,0,0,-1,1035,1030,0,0
-182,-6,0,0,0,0,0,0,0,0,0,-1,1042,1030,0,0
-175,-6,0,0,0,0,0,0,0,0,0,-1,1049,1030,0,0
-168,-6,0,0,0,0,0,0,0,0,0,-1,1056,1030,0,0
-161,-6,0,0,0,0,0,0,0,0,0,-1,1063,1030,0,0
-154,-6,0,0,0,0,0,0,0,0,0,-1,1070,1030,0,0
-147,-6,0,0,0,0,0,0,0,0,0,-1,1077,1030,0,0
-140,-6,0,0,0,0,0,0,0,0,0,-1,1084,1030,0,0
-133,-6,0,0,0,0,0,0,0,0,0,-1,1091,1030,0,0
-126,-6,0,0,0,0,0,0,0,0,0,-1,1098,1030,0,0
-119,-6,0,0,0,0,0,0,0,0,0,-1,1105,1030,0,0
-112,-6,0,0,0,0,0,0,0,0,0,-1,1112,1030,0,0
-105,-6,0,0,0,0,0,0,0,0,0,-1,1119,1030,0,0
-98,-6,0,0,0,0,0,0,0,0,0,-1,1126,1030,0,0
-91,-6,0,0,0,0,0,0,0,0,0,-1,1133,1030,0,0
-84,-6,0,0,0,0,0,0,0,0,0,-1,1140,1030,0,0
-77,-6,0,0,0,0,0,0,0,0,0,-1,1147,1030,0,0
-70,-6,0,0,0,0,0,0,0,0,0,-1,1154,1030,0,0
-63,-6,0,0,0,0,0,0,0,0,0,-1,1161,1030,0,0
-56,-6,0,0,0,0,0,0,0,0,0,-1,1168,1030,0,0
-49,-6,0,0,0,0,0,0,0,0,0,-1,1175,1030,0,0
-42,-6,0,0,0,0,0,0,0,0,0,-1,1182,1030,0,0
-35,-6,0,0,0,0,0,0,0,0,0,-1,1189,1030,0,0
-28,-6,0,0,0,0,0,0,0,0,0,-1,1196,1030,0,0
-21,-6,0,0,0,0,0,0,0,0,0,-1,1203,1030,0,0
-14,-6,0,0,0,0,0,0,0,0,0,-1,1210,1030,0,0
-7,-6,0,0,0,0,0,0,0,0,0,-1,1217,1030,0,0
0,-6,0,0,0,0,0,0,0,0,0,-1,1224,1030,0,0
7,-6,0,0,0,0,0,0,0,0,0,-1,1231,1030,0,0
14,-6,0,0,0,0,0,0,0,0,0,-1,1238,1030,0,0
21,-6,0,0,0,0,0,0,0,0,0,-1,1245,1030,0,0
28,-6,0,0,0,0,0,0,0,0,0,-1,1252,1030,0,0
35,-6,0,0,0,0,0,0,0,0,0,-1,1259,1030,0,0
42,-6,0,0,0,0,0,0,0,0,0,-1,1266,1030,0,0
49,-6,0,0,0,0,0,0,0,0,0,-1,1273,1030,0,0
56,-6,0,0,0,0,0,0,0,0,0,-1,1280,1030,0,0
63,-6,0,0,0,0,0,0,0,0,0,-1,1287,1030,0,0
70,-6,0,0,0,0,0,0,0,0,0,-1,1294,1030,0,0
77,-6,0,0,0,0,0,0,0,0,0,-1,1301,1030,0,0
84,-6,0,0,0,0,0,0,0,0,0,-1,1308,1030,0,0
91,-6,0,0,0,0,0,0,0,0,0,-1,1315,1030,0,0
98,-6,0,0,0,0,0,0,0,0,0,-1,1322,1030,0,0
105,-6,0,0,0,0,0,0,0,0,0,-1,1329,1030,0,0
112,-6,0,0,0,0,0,0,0,0,0,-1,1336,1030,0,0
119,-6,0,0,0,0,0,0,0,0,0,-1,1343,1030,0,0
126,-6,0,0,0,0,0,0,0,0,0,-1,1350,1030,0,0
133,-6,0,0,0,0,0,0,0,0,0,-1,1357,1030,0,0
140,-6,0,0,0,0,0,0,0,0,0,-1,1364,1030,0,0
147,-6,0,0,0,0,0,0,0,0,0,-1,1371,1030,0,0
154,-6,0,0,0,0,0,0,0,0,0,-1,1378,1030,0,0
161,-6,0,0,0,0,0,0,0,0,0,-1,1385,1030,0,0
168,-6,0,0,0,0,0,0,0,0,0,-1,1392,1030,0,0
175,-6,0,0,0,0,0,0,0,0,0,-1,1399,1030,0,0
182,-6,0,0,0,0,0,0,0,0,0,-1,1406,1030,0,0
189,-6,0,0,0,0,0,0,0,0,0,-1,1413,1030,0,0
196,-6,0,0,0,0,0,0,0,0,0,-1,1420,1030,0,0
203,-6,0,0,0,0,0,0,0,0,0,-1,1427,1030,0,0
210,-6,0,0,0,0,0,0,0,0,0,-1,1434,1030,0,0
217,-6,0,0,0,0,0,0,0,0,0,-1,1441,1030,0,0
224,-6,0,0,0,0,0,0,0,0,0,-1,1448,1030,0,0
231,-6,0,0,0,0,0,0,0,0,0,-1,1455,1030,0,0
238,-6,0,0,0,0,0,0,0,0,0,-1,1462,1030,0,0
245,-6,0,0,0,0,0,0,0,0,0,-1,1469,1030,0,0
252,-6,0,0,0,0,0,0,0,0,0,-1,1476,1030,0,0
259,-6,0,0,0,0,0,0,0,0,0,-1,1483,1030,0,0
266,-6,0,0,0,0,0,0,0,0,0,-1,1490,1030,0,0
273,-6,0,0,0,0,0,0,0,0,0,-1,1497,1030,0,0
280,-6,0,0,0,0,0,0,0,0,0,-1,1504,1030,0,0
287,-6,0,0,0,0,0,0,0,0,0,-1,1511,1030,0,0
294,-6,0,0,0,0,0,0,0,0,0,-1,1518,1030,0,0
301,-6,0,0,0,0,0,0,0,0,0,-1,1525,1030,0,0
308,-6,0,0,0,0,0,0,0,0,0,-1,1532,1030,0,0
315,-6,0,0,0,0,0,0,0,0,0,-1,1539,1030,0,0
322,-6,0,0,0,0,0,0,0,0,0,-1,1546,1030,0,0
329,-6,0,0,0,0,0,0,0,0,0,-1,1553,1030,0,0
336,-6,0,0,0,0,0,0,0,0,0,-1,1560,1030,0,0
343,-6,0,0,0,0,0,0,0,0,0,-1,1567,1030,0,0
350,-6,0,0,0,0,0,0,0,0,0,-1,1574,1030,0,0
357,-6,0,0,0,0,0,0,0,0,0,-1,1581,1030,0,0
364,-6,0,0,0,0,0,0,0,0,0,-1,1588,1030,0,0
371,-6,0,0,0,0,0,0,0,0,0,-1,1595,1030,0,0
378,-6,0,0,0,0,0,0,0,0,0,-1,1602,1030,0,0
385,-6,0,0,0,0,0,0,0,0,0,-1,1609,1030,0,0
392,-6,0,0,0,0,0,0,0,0,0,-1,1616,1030,0,0
399,-6,0,0,0,0,0,0,0,0,0,-1,1623,1030,0,0
406,-6,0,0,0,0,0,0,0,0,0,-1,1630,1030,0,0
413,-6,0,0,0,0,0,0,0,0,0,-1,1637,1030,0,0
420,-6,0,0,0,0,0,0,0,0,0,-1,1644,1030,0,0
427,-6,0,0,0,0,0,0,0,0,0,-1,1651,1030,0,0
434,-6,0,0,0,0,0,0,0,0,0,-1,1658,1030,0,0
441,-6,0,0,0,0,0,0,0,0,0,-1,1665,1030,0,0
448,-6,0,0,0,0,0,0,0,0,0,-1,1672,1030,0,0
455,-6,0,0,0,0,0,0,0,0,0,-1,1679,1030,0,0
462,-6,0,0,0,0,0,0,0,0,0,-1,1686,1030,0,0
469,-6,0,0,0,0,0,0,0,0,0,-1,1693,1030,0,0
476,-6,0,0,0,0,0,0,0,0,0,-1,1700,1030,0,0
483,-6,0,0,0,0,0,0,0,0,0,-1,1707,1030,0,0
490,-6,0,0,0,0,0,0,0,0,0,-1,1714,1030,0,0
497,-6,0,0,0,0,0,0,0,0,0,-1,1721,1030,0,0
504,-6,0,0,0,0,0,0,0,0,0,-1,1728,1030,0,0
511,-6,0,0,0,0,0,0,0,0,0,-1,1735,1030,0,0
518,-6,0,0,0,0,0,0,0,0,0,-1,1742,1030,0,0
525,-6,0,0,0,0,0,0,0,0,0,-1,1749,1030,0,0
532,-6,0,0,0,0,0,0,0,0,0,-1,1756,1030,0,0
539,-6,0,0,0,0,0,0,0,0,0,-1,1763,1030,0,0
546,-6,0,0,0,0,0,0,0,0,0,-1,1770,1030,0,0
553,-6,0,0,0,0,0,0,0,0,0,-1,1777,1030,0,0
560,-6,0,0,0,0,0,0,0,0,0,-1,1784,1030,0,0
567,-6,0,0,0,0,0,0,0,0,0,-1,1791,1030,0,0
574,-6,0,0,0,0,0,0,0,0,0,-1,1798,1030,0,0
581,-6,0,0,0,0,0,0,0,0,0,-1,1805,1030,0,0
588,-6,0,0,0,0,0,0,0,0,0,-1,1812,1030,0,0
595,-6,0,0,0,0,0,0,0,0,0,-1,1819,1030,0,0
602,-6,0,0,0,0,0,0,0,0,0,-1,1826,1030,0,0
609,-6,0,0,0,0,0,0,0,0,0,-1,1833,1030,0,0
616,-6,0,0,0,0,0,0,0,0,0,-1,1840,1030,0,0
623,-6,0,0,0,0,0,0,0,0,0,-1,1847,1030,0,0
630,-6,0,0,0,0,0,0,0,0,0,-1,1854,1030,0,0
637,-6,0,0,0,0,0,0,0,0,0,-1,1861,1030,0,0
644,-6,0,0,0,0,0,0,0,0,0,-1,1868,1030,0,0
651,-6,22.0186,2.52161,-0.00499491,0.00329908,0.0046599,0.00539006,-0.00708588,1.14901,0.00722514,0.0392349,1875,1030,22.0185,-2.52158
658,-6,21.8447,2.77173,-0.00364473,0.00224907,0.00343788,0.00383022,-0.00522588,1.13972,0.0052492,0.0425242,1882,1030,21.8447,-2.77173
665,-6,21.7528,2.77185,-0.00257402,0.00153101,0.00255768,0.00275791,-0.00380092,1.12353,0.00380267,0.0463683,1889,1030,21.7528,-2.77183
672,-6,21.7374,2.75952,-0.00176118,0.000978925,0.00237129,0.0023475,-0.00312975,1.04735,0.00317302,0.0423286,1896,1030,21.7374,-2.75958
679,-6,21.6437,2.83899,-0.00155488,0.000366328,0.00291271,0.00247275,-0.00366131,0.944681,0.00356359,0.0400154,1903,1030,21.6437,-2.83898
686,-6,21.5656,2.91455,-0.00168302,-0.000148192,0.00370322,0.00286629,-0.00469751,0.887567,0.00440942,0.0377347,1910,1030,21.5656,-2.91455
693,-6,21.6842,2.9375,-0.00190536,-0.000604311,0.00449298,0.00328499,-0.00579466,0.857292,0.00530847,0.03522,1917,1030,21.6842,-2.93754
700,-6,21.7235,2.79065,-0.00221047,-0.00103273,0.00512847,0.00354056,-0.00678376,0.84256,0.00605799,0.0296529,1924,1030,21.7235,-2.79067
707,-6,21.7201,2.77563,-0.00244846,-0.0012568,0.00555361,0.00373286,-0.00743811,0.838837,0.00656676,0.0273695,1931,1030,21.7201,-2.77567
714,-6,21.7617,2.63647,-0.0026654,-0.00137556,0.00596542,0.0039797,-0.00802066,0.839244,0.00705813,0.0354326,1938,1030,21.7618,-2.63646
721,-6,21.6685,3.21057,-0.00292543,-0.00131077,0.00619419,0.00412848,-0.00836468,0.850201,0.00734985,0.0415312,1945,1030,21.6684,-3.21054
728,-6,21.3826,3.96729,-0.00329047,-0.00109963,0.00605006,0.00395337,-0.00834348,0.874958,0.00724883,0.0332854,1952,1030,21.3825,-3.9673
735,-6,21.3341,4.026,-0.00368724,-0.000705759,0.00554398,0.00354441,-0.0079374,0.916738,0.00678883,0.0159758,1959,1030,21.3341,-4.02595
742,-6,21.3513,4.05872,-0.00405217,-0.000102929,0.00476146,0.00307713,-0.00723223,0.981959,0.00611113,0.0132765,1966,1030,21.3514,-4.0587
749,-6,21.3365,4.10522,-0.00394433,0.000822654,0.00370525,0.00284483,-0.0059665,1.07121,0.00519255,0.0120992,1973,1030,21.3365,-4.10527
756,-6,21.3427,4.09143,-0.00403481,0.00195335,0.00284372,0.00308859,-0.00517005,1.19097,0.00481834,0.0127579,1980,1030,21.3427,-4.09142
763,-6,21.3149,4.08582,-0.00413471,0.00355517,0.00210022,0.00409139,-0.00467092,1.32082,0.00506261,0.0123397,1987,1030,21.3149,-4.0858
770,-6,21.317,4.10474,-0.00429655,0.00536229,0.0011501,0.00549735,-0.00443161,1.4539,0.00574348,0.0109759,1994,1030,21.3171,-4.1047
777,-6,21.275,4.13,-0.00439995,0.00759811,0.000702023,0.00763905,-0.00444088,1.51255,0.00705536,0.0140756,2001,1030,21.275,-4.13004
784,-6,21.2251,4.10193,-0.00473433,0.00992509,0.00111739,0.0100098,-0.00481901,1.49516,0.00873449,0.0343149,2008,1030,21.225,-4.10199
791,-6,21.0872,3.68713,-0.00525153,0.0125067,0.00239691,0.0128246,-0.00556936,1.43896,0.0108916,0.0428464,2015,1030,21.0872,-3.68719
798,-6,20.8953,3.40344,0,0,0,0,0,0,0,-1,2022,1030,20.8953,-3.40344
805,-6,20.436,2.99695,-0.00583504,0.018705,0.00736076,0.0207435,-0.00787355,1.30062,0.01707,0.0431641,2029,1030,20.4361,-2.997
812,-6,19.981,2.79431,-0.00604459,0.022359,0.0115217,0.0264449,-0.0101305,1.23,0.0218058,0.0423862,2036,1030,19.9809,-2.79431
-700,-13,0,0,0,0,0,0,0,0,0,-1,524,1037,0,0
-693,-13,-13.1409,-1.30054,-0.0304796,0.0364231,0.00194105,0.0364794,-0.0305359,1.54182,0.038742,0.0475348,531,1037,-13.1409,1.30053
-686,-13,-13.4187,-0.810059,-0.0294019,0.025526,0.00416819,0.0258405,-0.0297164,1.49549,0.0321018,0.0436404,538,1037,-13.4187,0.810038
-679,-13,-13.61,-0.298828,-0.0265737,0.0185279,0.00528308,0.0191385,-0.0271843,1.45573,0.0268786,0.0456912,545,1037,-13.61,0.298888
-672,-13,-13.6343,0.949951,-0.0229044,0.013835,0.00567785,0.0146925,-0.0237619,1.42091,0.0224065,0.0476472,552,1037,-13.6343,-0.950009
-665,-13,-14.2371,0.48999,0,0,0,0,0,0,0,-1,559,1037,-14.2371,-0.490036
-658,-13,-14.0514,1.54065,0,0,0,0,0,0,0,-1,566,1037,-14.0514,-1.54061
-651,-13,-14.0806,1.58582,-0.0116255,0.0063748,0.00430829,0.00735283,-0.0126036,1.34757,0.011654,0.0416927,573,1037,-14.0806,-1.58583
-644,-13,-14.1019,1.65576,-0.00856054,0.00475331,0.0033313,0.00554032,-0.00934755,1.3388,0.0086887,0.0285312,580,1037,-14.1019,-1.65578
-637,-13,-14.1426,1.69775,-0.00628336,0.0029257,0.00159621,0.00319453,-0.00655219,1.40395,0.00573749,0.0213569,587,1037,-14.1426,-1.69776
-630,-13,-14.1702,1.68604,-0.00414769,0.00263523,4.41897e-05,0.00263552,-0.00414798,1.56428,0.00394877,0.0136687,594,1037,-14.1702,-1.68602
-623,-13,-14.1476,1.71509,-0.00222367,0.00190906,-0.00153431,0.0024164,-0.00273101,-1.25145,0.00297371,0.0113685,601,1037,-14.1476,-1.71508
-616,-13,-14.1266,1.7207,-0.00123763,0.00147521,-0.00309896,0.00350161,-0.00326402,-0.991688,0.00390694,0.0111778,608,1037,-14.1266,-1.72071
-609,-13,-14.0869,1.70801,-0.000972055,0.000878293,-0.00456698,0.00461287,-0.00470663,-0.885335,0.00538071,0.0162133,615,1037,-14.0869,-1.70797
-602,-13,-14.1114,1.74011,-0.000815045,0.000190895,-0.00567249,0.00538267,-0.00600682,-0.829617,0.00657902,0.0114944,622,1037,-14.1114,-1.74007
-595,-13,-14.098,1.72961,-0.000589088,-0.000310112,-0.00605917,0.00561118,-0.00651038,-0.796907,0.0070048,0.0157697,629,1037,-14.0979,-1.72964
-588,-13,-14.0333,1.18213,-0.000400604,-0.00063453,-0.0060784,0.00556196,-0.00659709,-0.775778,0.00702851,0.020027,636,1037,-14.0333,-1.18215
-581,-13,-14.1348,0.861816,-0.000252986,-0.000935893,-0.00570444,0.00512021,-0.00630908,-0.755505,0.00661059,0.0193668,643,1037,-14.1348,-0.861834
-574,-13,-14.1426,0.87207,-0.000202583,-0.00117907,-0.00495692,0.00429009,-0.00567173,-0.736308,0.00576987,0.0333108,650,1037,-14.1427,-0.872067
-567,-13,-14.1818,0.688843,-6.11666e-05,-0.0013677,-0.00361907,0.00296312,-0.00439199,-0.696106,0.0042731,0.0406142,657,1037,-14.1818,-0.6889
-560,-13,-14.2668,0.504395,0.000198233,-0.00148392,-0.00168545,0.00124081,-0.00252649,-0.553966,0.00221687,0.043229,664,1037,-14.2668,-0.504428
-553,-13,-14.3269,0.639404,0.000563442,-0.00151249,0.000807224,0.000840385,-0.00178943,0.330497,0.00155093,0.0427251,671,1037,-14.3269,-0.639439
-546,-13,-14.096,0.798218,0.000999735,-0.00143364,0.00379692,0.00377014,-0.00420404,0.630347,0.00460617,0.0417677,678,1037,-14.096,-0.798263
-539,-13,-13.8326,0.939209,0,0,0,0,0,0,0,-1,685,1037,-13.8326,-0.939193
-532,-13,-14.1268,0.752808,0,0,0,0,0,0,0,-1,692,1037,-14.1268,-0.752853
-525,-13,0,0,0,0,0,0,0,0,0,-1,699,1037,0,0
-518,-13,0,0,0,0,0,0,0,0,0,-1,706,1037,0,0
-511,-13,0,0,0,0,0,0,0,0,0,-1,713,1037,0,0
-504,-13,0,0,0,0,0,0,0,0,0,-1,720,1037,0,0
-497,-13,0,0,0,0,0,0,0,0,0,-1,727,1037,0,0
-490,-13,0,0,0,0,0,0,0,0,0,-1,734,1037,0,0
-483,-13,0,0,0,0,0,0,0,0,0,-1,741,1037,0,0
-476,-13,0,0,0,0,0,0,0,0,0,-1,748,1037,0,0
-469,-13,0,0,0,0,0,0,0,0,0,-1,755,1037,0,0
-462,-13,0,0,0,0,0,0,0,0,0,-1,762,1037,0,0
-455,-13,0,0,0,0,0,0,0,0,0,-1,769,1037,0,0
-448,-13,0,0,0,0,0,0,0,0,0,-1,776,1037,0,0
-441,-13,0,0,0,0,0,0,0,0,0,-1,783,1037,0,0
-434,-13,0,0,0,0,0,0,0,0,0,-1,790,1037,0,0
-427,-13,0,0,0,0,0,0,0,0,0,-1,797,1037,0,0
-420,-13,0,0,0,0,0,0,0,0,0,-1,804,1037,0,0
-413,-13,0,0,0,0,0,0,0,0,0,-1,811,1037,0,0
-406,-13,0,0,0,0,0,0,0,0,0,-1,818,1037,0,0
-399,-13,0,0,0,0,0,0,0,0,0,-1,825,1037,0,0
-392,-13,0,0,0,0,0,0,0,0,0,-1,832,1037,0,0
-385,-13,0,0,0,0,0,0,0,0,0,-1,839,1037,0,0
-378,-13,0,0,0,0,0,0,0,0,0,-1,846,1037,0,0
-371,-13,0,0,0,0,0,0,0,0,0,-1,853,1037,0,0
-364,-13,0,0,0,0,0,0,0,0,0,-1,860,1037,0,0
-357,-13,0,0,0,0,0,0,0,0,0,-1,867,1037,0,0
-350,-13,0,0,0,0,0,0,0,0,0,-1,874,1037,0,0
-343,-13,0,0,0,0,0,0,0,0,0,-1,881,1037,0,0
-336,-13,0,0,0,0,0,0,0,0,0,-1,888,1037,0,0
-329,-13,0,0,0,0,0,0,0,0,0,-1,895,1037,0,0
-322,-13,0,0,0,0,0,0,0,0,0,-1,902,1037,0,0
-315,-13,0,0,0,0,0,0,0,0,0,-1,909,1037,0,0
-308,-13,0,0,0,0,0,0,0,0,0,-1,916,1037,0,0
-301,-13,0,0,0,0,0,0,0,0,0,-1,923,1037,0,0
-294,-13,0,0,0,0,0,0,0,0,0,-1,930,1037,0,0
-287,-13,0,0,0,0,0,0,0,0,0,-1,937,1037,0,0
-280,-13,0,0,0,0,0,0,0,0,0,-1,944,1037,0,0
-273,-13,0,0,0,0,0,0,0,0,0,-1,951,1037,0,0
-266,-13,0,0,0,0,0,0,0,0,0,-1,958,1037,0,0
-259,-13,0,0,0,0,0,0,0,0,0,-1,965,1037,0,0
-252,-13,0,0,0,0,0,0,0,0,0,-1,972,1037,0,0
-245,-13,0,0,0,0,0,0,0,0,0,-1,979,1037,0,0
-238,-13,0,0,0,0,0,0,0,0,0,-1,986,1037,0,0
-231,-13,0,0,0,0,0,0,0,0,0,-1,993,1037,0,0
-224,-13,0,0,0,0,0,0,0,0,0,-1,1000,1037,0,0
-217,-13,0,0,0,0,0,0,0,0,0,-1,1007,1037,0,0
-210,-13,0,0,0,0,0,0,0,0,0,-1,1014,1037,0,0
-203,-13,0,0,0,0,0,0,0,0,0,-1,1021,1037,0,0
-196,-13,0,0,0,0,0,0,0,0,0,-1,1028,1037,0,0
-189,-13,0,0,0,0,0,0,0,0,0,-1,1035,1037,0,0
-182,-13,0,0,0,0,0,0,0,0,0,-1,1042,1037,0,0
-175,-13,0,0,0,0,0,0,0,0,0,-1,1049,1037,0,0
-168,-13,0,0,0,0,0,0,0,0,0,-1,1056,1037,0,0
-161,-13,0,0,0,0,0,0,0,0,0,-1,1063,1037,0,0
-154,-13,0,0,0,0,0,0,0,0,0,-1,1070,1037,0,0
-147,-13,0,0,0,0,0,0,0,0,0,-1,1077,1037,0,0
-140,-13,0,0,0,0,0,0,0,0,0,-1,1084,1037,0,0
-133,-13,0,0,0,0,0,0,0,0,0,-1,1091,1037,0,0
-126,-13,0,0,0,0,0,0,0,0,0,-1,1098,1037,0,0
-119,-13,0,0,0,0,0,0,0,0,0,-1,1105,1037,0,0
-112,-13,0,0,0,0,0,0,0,0,0,-1,1112,1037,0,0
-105,-13,0,0,0,0,0,0,0,0,0,-1,1119,1037,0,0
-98,-13,0,0,0,0,0,0,0,0,0,-1,1126,1037,0,0
-91,-13,0,0,0,0,0,0,0,0,0,-1,1133,1037,0,0
-84,-13,0,0,0,0,0,0,0,0,0,-1,1140,1037,0,0
-77,-13,0,0,0,0,0,0,0,0,0,-1,1147,1037,0,0
-70,-13,0,0,0,0,0,0,0,0,0,-1,1154,1037,0,0
-63,-13,0,0,0,0,0,0,0,0,0,-1,1161,1037,0,0
-56,-13,0,0,0,0,0,0,0,0,0,-1,1168,1037,0,0
-49,-13,0,0,0,0,0,0,0,0,0,-1,1175,1037,0,0
-42,-13,0,0,0,0,0,0,0,0,0,-1,1182,1037,0,0
-35,-13,0,0,0,0,0,0,0,0,0,-1,1189,1037,0,0
-28,-13,0,0,0,0,0,0,0,0,0,-1,1196,1037,0,0
-21,-13,0,0,0,0,0,0,0,0,0,-1,1203,1037,0,0
-14,-13,0,0,0,0,0,0,0,0,0,-1,1210,1037,0,0
-7,-13,0,0,0,0,0,0,0,0,0,-1,1217,1037,0,0
0,-13,0,0,0,0,0,0,0,0,0,-1,1224,1037,0,0
7,-13,0,0,0,0,0,0,0,0,0,-1,1231,1037,0,0
14,-13,0,0,0,0,0,0,0,0,0,-1,1238,1037,0,0
21,-13,0,0,0,0,0,0,0,0,0,-1,1245,1037,0,0
28,-13,0,0,0,0,0,0,0,0,0,-1,1252,1037,0,0
35,-13,0,0,0,0,0,0,0,0,0,-1,1259,1037,0,0
42,-13,0,0,0,0,0,0,0,0,0,-1,1266,1037,0,0
49,-13,0,0,0,0,0,0,0,0,0,-1,1273,1037,0,0
56,-13,0,0,0,0,0,0,0,0,0,-1,1280,1037,0,0
63,-13,0,0,0,0,0,0,0,0,0,-1,1287,1037,0,0
70,-13,0,0,0,0,0,0,0,0,0,-1,1294,1037,0,0
77,-13,0,0,0,0,0,0,0,0,0,-1,1301,1037,0,0
84,-13,0,0,0,0,0,0,0,0,0,-1,1308,1037,0,0
91,-13,0,0,0,0,0,0,0,0,0,-1,1315,1037,0,0
98,-13,0,0,0,0,0,0,0,0,0,-1,1322,1037,0,0
105,-13,0,0,0,0,0,0,0,0,0,-1,1329,1037,0,0
112,-13,0,0,0,0,0,0,0,0,0,-1,1336,1037,0,0
119,-13,0,0,0,0,0,0,0,0,0,-1,1343,1037,0,0
126,-13,0,0,0,0,0,0,0,0,0,-1,1350,1037,0,0
133,-13,0,0,0,0,0,0,0,0,0,-1,1357,1037,0,0
140,-13,0,0,0,0,0,0,0,0,0,-1,1364,1037,0,0
147,-13,0,0,0,0,0,0,0,0,0,-1,1371,1037,0,0
154,-13,0,0,0,0,0,0,0,0,0,-1,1378,1037,0,0
161,-13,0,0,0,0,0,0,0,0,0,-1,1385,1037,0,0
168,-13,0,0,0,0,0,0,0,0,0,-1,1392,1037,0,0
175,-13,0,0,0,0,0,0,0,0,0,-1,1399,1037,0,0
182,-13,0,0,0,0,0,0,0,0,0,-1,1406,1037,0,0
189,-13,0,0,0,0,0,0,0,0,0,-1,1413,1037,0,0
196,-13,0,0,0,0,0,0,0,0,0,-1,1420,1037,0,0
203,-13,0,0,0,0,0,0,0,0,0,-1,1427,1037,0,0
210,-13,0,0,0,0,0,0,0,0,0,-1,1434,1037,0,0
217,-13,0,0,0,0,0,0,0,0,0,-1,1441,1037,0,0
224,-13,0,0,0,0,0,0,0,0,0,-1,1448,1037,0,0
231,-13,0,0,0,0,0,0,0,0,0,-1,1455,1037,0,0
238,-13,0,0,0,0,0,0,0,0,0,-1,1462,1037,0,0
245,-13,0,0,0,0,0,0,0,0,0,-1,1469,1037,0,0
252,-13,0,0,0,0,0,0,0,0,0,-1,1476,1037,0,0
259,-13,0,0,0,0,0,0,0,0,0,-1,1483,1037,0,0
266,-13,0,0,0,0,0,0,0,0,0,-1,1490,1037,0,0
273,-13,0,0,0,0,0,0,0,0,0,-1,1497,1037,0,0
280,-13,0,0,0,0,0,0,0,0,0,-1,1504,1037,0,0
287,-13,0,0,0,0,0,0,0,0,0,-1,1511,1037,0,0
294,-13,0,0,0,0,0,0,0,0,0,-1,1518,1037,0,0
301,-13,0,0,0,0,0,0,0,0,0,-1,1525,1037,0,0
308,-13,0,0,0,0,0,0,0,0,0,-1,1532,1037,0,0
315,-13,0,0,0,0,0,0,0,0,0,-1,1539,1037,0,0
322,-13,0,0,0,0,0,0,0,0,0,-1,1546,1037,0,0
329,-13,0,0,0,0,0,0,0,0,0,-1,1553,1037,0,0
336,-13,0,0,0,0,0,0,0,0,0,-1,1560,1037,0,0
343,-13,0,0,0,0,0,0,0,0,0,-1,1567,1037,0,0
350,-13,0,0,0,0,0,0,0,0,0,-1,1574,1037,0,0
357,-13,0,0,0,0,0,0,0,0,0,-1,1581,1037,0,0
364,-13,0,0,0,0,0,0,0,0,0,-1,1588,1037,0,0
371,-13,0,0,0,0,0,0,0,0,0,-1,1595,1037,0,0
378,-13,0,0,0,0,0,0,0,0,0,-1,1602,1037,0,0
385,-13,0,0,0,0,0,0,0,0,0,-1,1609,1037,0,0
392,-13,0,0,0,0,0,0,0,0,0,-1,1616,1037,0,0
399,-13,0,0,0,0,0,0,0,0,0,-1,1623,1037,0,0
406,-13,0,0,0,0,0,0,0,0,0,-1,1630,1037,0,0
413,-13,0,0,0,0,0,0,0,0,0,-1,1637,1037,0,0
420,-13,0,0,0,0,0,0,0,0,0,-1,1644,1037,0,0
427,-13,0,0,0,0,0,0,0,0,0,-1,1651,1037,0,0
434,-13,0,0,0,0,0,0,0,0,0,-1,1658,1037,0,0
441,-13,0,0,0,0,0,0,0,0,0,-1,1665,1037,0,0
448,-13,0,0,0,0,0,0,0,0,0,-1,1672,1037,0,0
455,-13,0,0,0,0,0,0,0,0,0,-1,1679,1037,0,0
462,-13,0,0,0,0,0,0,0,0,0,-1,1686,1037,0,0
469,-13,0,0,0,0,0,0,0,0,0,-1,1693,1037,0,0
476,-13,0,0,0,0,0,0,0,0,0,-1,1700,1037,0,0
483,-13,0,0,0,0,0,0,0,0,0,-1,1707,1037,0,0
490,-13,0,0,0,0,0,0,0,0,0,-1,1714,1037,0,0
497,-13,0,0,0,0,0,0,0,0,0,-1,1721,1037,0,0
504,-13,0,0,0,0,0,0,0,0,0,-1,1728,1037,0,0
511,-13,0,0,0,0,0,0,0,0,0,-1,1735,1037,0,0
518,-13,0,0,0,0,0,0,0,0,0,-1,1742,1037,0,0
525,-13,0,0,0,0,0,0,0,0,0,-1,1749,1037,0,0
532,-13,0,0,0,0,0,0,0,0,0,-1,1756,1037,0,0
539,-13,0,0,0,0,0,0,0,0,0,-1,1763,1037,0,0
546,-13,0,0,0,0,0,0,0,0,0,-1,1770,1037,0,0
553,-13,0,0,0,0,0,0,0,0,0,-1,1777,1037,0,0
560,-13,0,0,0,0,0,0,0,0,0,-1,1784,1037,0,0
567,-13,0,0,0,0,0,0,0,0,0,-1,1791,1037,0,0
574,-13,0,0,0,0,0,0,0,0,0,-1,1798,1037,0,0
581,-13,0,0,0,0,0,0,0,0,0,-1,1805,1037,0,0
588,-13,0,0,0,0,0,0,0,0,0,-1,1812,1037,0,0
595,-13,0,0,0,0,0,0,0,0,0,-1,1819,1037,0,0
602,-13,0,0,0,0,0,0,0,0,0,-1,1826,1037,0,0
609,-13,0,0,0,0,0,0,0,0,0,-1,1833,1037,0,0
616,-13,0,0,0,0,0,0,0,0,0,-1,1840,1037,0,0
623,-13,0,0,0,0,0,0,0,0,0,-1,1847,1037,0,0
630,-13,0,0,0,0,0,0,0,0,0,-1,1854,1037,0,0
637,-13,0,0,0,0,0,0,0,0,0,-1,1861,1037,0,0
644,-13,0,0,0,0,0,0,0,0,0,-1,1868,1037,0,0
651,-13,21.9009,2.70581,-0.00607381,0.00296038,0.00507107,0.00523445,-0.00834787,1.14924,0.00791013,0.0401853,1875,1037,21.9009,-2.7058
658,-13,21.7578,2.82886,-0.00429889,0.00215888,0.00376935,0.00389323,-0.00603324,1.13956,0.00577527,0.0451519,1882,1037,21.7578,-2.82891
665,-13,21.6191,2.59973,-0.0029486,0.00160162,0.0028058,0.00293879,-0.00428578,1.12606,0.00419521,0.0455803,1889,1037,21.6192,-2.5997
672,-13,21.7284,2.7489,-0.0019271,0.00111981,0.0025777,0.00259059,-0.00339788,1.05229,0.0034679,0.0377956,1896,1037,21.7284,-2.74895
679,-13,21.7371,2.77881,-0.00160539,0.000491549,0.00314918,0.00276221,-0.00387605,0.946094,0.00385054,0.0380143,1903,1037,21.737,-2.77877
686,-13,21.8333,2.71265,-0.00169095,-8.26542e-05,0.00399633,0.00318963,-0.00496323,0.884683,0.00474404,0.0399784,1910,1037,21.8333,-2.71259
693,-13,21.8662,2.58447,-0.00191935,-0.000619544,0.00485414,0.00362801,-0.0061669,0.851945,0.00571807,0.0390301,1917,1037,21.8662,-2.58448
700,-13,21.7068,2.72363,-0.00225098,-0.00111678,0.00556953,0.00391445,-0.00728221,0.836134,0.00656114,0.035461,1924,1037,21.7067,-2.7236
707,-13,21.7413,2.78918,-0.00250635,-0.00139947,0.00604005,0.00411244,-0.00801826,0.831085,0.00712365,0.0293072,1931,1037,21.7414,-2.78921
714,-13,21.7574,2.90405,-0.00273869,-0.00159439,0.00647406,0.00433275,-0.00866583,0.829472,0.00764246,0.028471,1938,1037,21.7575,-2.90402
721,-13,21.6821,3.36792,-0.0030182,-0.0015858,0.00671202,0.00444812,-0.00905212,0.838549,0.00794401,0.036229,1945,1037,21.6822,-3.36786
728,-13,21.3049,4.06384,0,0,0,0,0,0,0,-1,1952,1037,21.3049,-4.0639
735,-13,21.3439,4.07886,-0.00369468,-0.00104407,0.00601679,0.00379164,-0.00853039,0.893801,0.00728738,0.0190676,1959,1037,21.3439,-4.07889
742,-13,21.3497,4.10327,-0.0039474,-0.000494822,0.00519746,0.00325553,-0.00769776,0.945737,0.00649493,0.0110013,1966,1037,21.3497,-4.10326
749,-13,21.3678,4.09338,-0.0035777,0.000346849,0.00407219,0.00290489,-0.00613574,1.00992,0.00532955,0.0154705,1973,1037,21.3678,-4.09343
756,-13,21.3734,4.08167,-0.00323298,0.00139973,0.00310048,0.00295358,-0.00478683,1.10622,0.00451051,0.0124785,1980,1037,21.3734,-4.08166
763,-13,21.3456,4.08447,-0.00282523,0.00294693,0.00229664,0.00374922,-0.00362751,1.23472,0.00425915,0.0121507,1987,1037,21.3455,-4.08447
770,-13,21.3146,4.09863,-0.00237856,0.00463969,0.00127354,0.00486364,-0.00260252,1.39673,0.00437599,0.0112307,1994,1037,21.3146,-4.09863
777,-13,21.2843,4.08899,-0.0016816,0.00671191,0.000766363,0.00678131,-0.001751,1.48049,0.00520368,0.0110421,2001,1037,21.2843,-4.08903
784,-13,21.3185,4.07019,-0.00105316,0.00884771,0.00118351,0.00898721,-0.00119267,1.45346,0.00642603,0.0242127,2008,1037,21.3185,-4.07021
791,-13,21.2581,3.93774,-0.000394727,0.011252,0.00246865,0.0117536,-0.000896379,1.37032,0.00815099,0.0414097,2015,1037,21.258,-3.9378
798,-13,21.2061,3.93994,0,0,0,0,0,0,0,-1,2022,1037,21.2061,-3.93995
805,-13,22.1223,4.67102,0,0,0,0,0,0,0,-1,2029,1037,22.1224,-4.67105
812,-13,22.6826,4.7373,0,0,0,0,0,0,0,-1,2036,1037,22.6827,-4.73734
-700,-20,-11.2477,3.57874,0,0,0,0,0,0,0,-1,524,1044,-11.2477,-3.57875
-693,-20,-12.3301,1.95471,0,0,0,0,0,0,0,-1,531,1044,-12.3302,-1.95476
-686,-20,-12.726,1.80591,-0.0320372,0.0215958,0.00211988,0.0216795,-0.0321209,1.53135,0.031256,0.0469353,538,1044,-12.7259,-1.80596
-679,-20,-13.0906,1.64172,-0.0288087,0.0151991,0.00358736,0.0154897,-0.0290992,1.48999,0.02614,0.0466816,545,1044,-13.0906,-1.64169
-672,-20,-13.4952,1.43433,-0.0247471,0.0110649,0.0043083,0.011576,-0.0252581,1.45274,0.0217497,0.0464511,552,1044,-13.4953,-1.43429
-665,-20,-14.063,1.97095,0,0,0,0,0,0,0,-1,559,1044,-14.063,-1.97098
-658,-20,-14.0547,1.8678,0,0,0,0,0,0,0,-1,566,1044,-14.0547,-1.86786
-651,-20,-14.0617,1.68494,-0.0123984,0.00503604,0.00370459,0.00579056,-0.013153,1.36987,0.011209,0.0398147,573,1044,-14.0617,-1.6849
-644,-20,-14.069,1.5896,-0.00909314,0.00369204,0.00297841,0.00435183,-0.00975293,1.35279,0.00834003,0.0258505,580,1044,-14.069,-1.58955
-637,-20,-14.1125,1.59119,-0.00659804,0.0021856,0.00135333,0.00238939,-0.00680183,1.42134,0.00550661,0.0178108,587,1044,-14.1125,-1.59123
-630,-20,-14.1143,1.67639,-0.00426577,0.00212199,-0.000193321,0.00212784,-0.00427162,-1.54057,0.0037632,0.014405,594,1044,-14.1143,-1.67638
-623,-20,-14.1016,1.70117,-0.00227116,0.00155624,-0.0017401,0.00222908,-0.002944,-1.20184,0.00299618,0.0129519,601,1044,-14.1016,-1.70116
-616,-20,-14.1095,1.70557,-0.00124962,0.00116312,-0.00324613,0.00341979,-0.00350629,-0.963306,0.00399888,0.0128634,608,1044,-14.1095,-1.70555
-609,-20,-14.1208,1.70801,-0.000985055,0.000599869,-0.00466394,0.00453819,-0.00492338,-0.869551,0.00546415,0.0147737,615,1044,-14.1208,-1.70798
-602,-20,-14.1167,1.74475,-0.000933989,-0.00012783,-0.00582399,0.00530701,-0.00636883,-0.819948,0.00675034,0.0112938,622,1044,-14.1167,-1.74478
-595,-20,-14.1213,1.72791,-0.000790446,-0.000675471,-0.00627818,0.00554548,-0.0070114,-0.789976,0.00726617,0.013181,629,1044,-14.1213,-1.72788
-588,-20,-14.1194,1.24304,-0.000623291,-0.00101181,-0.00631226,0.0054977,-0.0071328,-0.770016,0.00731256,0.0166014,636,1044,-14.1194,-1.24304
-581,-20,-14.1364,0.890625,-0.000460913,-0.00129853,-0.00592896,0.00506401,-0.00682345,-0.750138,0.00688825,0.0247004,643,1044,-14.1363,-0.890681
-574,-20,-14.1996,0.942017,-0.000372667,-0.00153085,-0.00519128,0.00427173,-0.00617524,-0.729853,0.00606484,0.0392649,650,1044,-14.1997,-0.942063
-567,-20,-14.207,0.812988,-0.00018444,-0.00167845,-0.00383585,0.00297647,-0.00483936,-0.689231,0.00455499,0.0463588,657,1044,-14.207,-0.812934
-560,-20,-14.2074,0.704834,0.000165777,-0.00172825,-0.00185028,0.00129732,-0.00285979,-0.548868,0.00245596,0.0450644,664,1044,-14.2074,-0.704848
-553,-20,-14.3248,0.787476,0.000677145,-0.0016673,0.000738266,0.000890254,-0.00188041,0.281022,0.00163334,0.0397885,671,1044,-14.3248,-0.787527
-546,-20,-14.325,0.894653,0.00132743,-0.00147611,0.00388368,0.00405457,-0.00420326,0.612205,0.00476792,0.0398157,678,1044,-14.3249,-0.894678
-539,-20,-14.0046,1.12073,0.00206054,-0.00102291,0.00685655,0.00754656,-0.00650893,0.67481,0.00812231,0.0431668,685,1044,-14.0046,-1.12076
-532,-20,-14.01,1.15076,0.00252566,-0.000199654,0.00830099,0.00957509,-0.00724909,0.704046,0.00974434,0.0443537,692,1044,-14.01,-1.15071
-525,-20,0,0,0,0,0,0,0,0,0,-1,699,1044,0,0
-518,-20,0,0,0,0,0,0,0,0,0,-1,706,1044,0,0
-511,-20,0,0,0,0,0,0,0,0,0,-1,713,1044,0,0
-504,-20,0,0,0,0,0,0,0,0,0,-1,720,1044,0,0
-497,-20,0,0,0,0,0,0,0,0,0,-1,727,1044,0,0
-490,-20,0,0,0,0,0,0,0,0,0,-1,734,1044,0,0
-483,-20,0,0,0,0,0,0,0,0,0,-1,741,1044,0,0
-476,-20,0,0,0,0,0,0,0,0,0,-1,748,1044,0,0
-469,-20,0,0,0,0,0,0,0,0,0,-1,755,1044,0,0
-462,-20,0,0,0,0,0,0,0,0,0,-1,762,1044,0,0
-455,-20,0,0,0,0,0,0,0,0,0,-1,769,1044,0,0
-448,-20,0,0,0,0,0,0,0,0,0,-1,776,1044,0,0
-441,-20,0,0,0,0,0,0,0,0,0,-1,783,1044,0,0
-434,-20,0,0,0,0,0,0,0,0,0,-1,790,1044,0,0
-427,-20,0,0,0,0,0,0,0,0,0,-1,797,1044,0,0
-420,-20,0,0,0,0,0,0,0,0,0,-1,804,1044,0,0
-413,-20,0,0,0,0,0,0,0,0,0,-1,811,1044,0,0
-406,-20,0,0,0,0,0,0,0,0,0,-1,818,1044,0,0
-399,-20,0,0,0,0,0,0,0,0,0,-1,825,1044,0,0
-392,-20,0,0,0,0,0,0,0,0,0,-1,832,1044,0,0
-385,-20,0,0,0,0,0,0,0,0,0,-1,839,1044,0,0
-378,-20,0,0,0,0,0,0,0,0,0,-1,846,1044,0,0
-371,-20,0,0,0,0,0,0,0,0,0,-1,853,1044,0,0
-364,-20,0,0,0,0,0,0,0,0,0,-1,860,1044,0,0
-357,-20,0,0,0,0,0,0,0,0,0,-1,867,1044,0,0
-350,-20,0,0,0,0,0,0,0,0,0,-1,874,1044,0,0
-343,-20,0,0,0,0,0,0,0,0,0,-1,881,1044,0,0
-336,-20,0,0,0,0,0,0,0,0,0,-1,888,1044,0,0
-329,-20,0,0,0,0,0,0,0,0,0,-1,895,1044,0,0
-322,-20,0,0,0,0,0,0,0,0,0,-1,902,1044,0,0
-315,-20,0,0,0,0,0,0,0,0,0,-1,909,1044,0,0
-308,-20,0,0,0,0,0,0,0,0,0,-1,916,1044,0,0
-301,-20,0,0,0,0,0,0,0,0,0,-1,923,1044,0,0
-294,-20,0,0,0,0,0,0,0,0,0,-1,930,1044,0,0
-287,-20,0,0,0,0,0,0,0,0,0,-1,937,1044,0,0
-280,-20,0,0,0,0,0,0,0,0,0,-1,944,1044,0,0
-273,-20,0,0,0,0,0,0,0,0,0,-1,951,1044,0,0
-266,-20,0,0,0,0,0,0,0,0,0,-1,958,1044,0,0
-259,-20,0,0,0,0,0,0,0,0,0,-1,965,1044,0,0
-252,-20,0,0,0,0,0,0,0,0,0,-1,972,1044,0,0
-245,-20,0,0,0,0,0,0,0,0,0,-1,979,1044,0,0
-238,-20,0,0,0,0,0,0,0,0,0,-1,986,1044,0,0
-231,-20,0,0,0,0,0,0,0,0,0,-1,993,1044,0,0
-224,-20,0,0,0,0,0,0,0,0,0,-1,1000,1044,0,0
-217,-20,0,0,0,0,0,0,0,0,0,-1,1007,1044,0,0
-210,-20,0,0,0,0,0,0,0,0,0,-1,1014,1044,0,0
-203,-20,0,0,0,0,0,0,0,0,0,-1,1021,1044,0,0
-196,-20,0,0,0,0,0,0,0,0,0,-1,1028,1044,0,0
-189,-20,0,0,0,0,0,0,0,0,0,-1,1035,1044,0,0
-182,-20,0,0,0,0,0,0,0,0,0,-1,1042,1044,0,0
-175,-20,0,0,0,0,0,0,0,0,0,-1,1049,1044,0,0
-168,-20,0,0,0,0,0,0,0,0,0,-1,1056,1044,0,0
-161,-20,0,0,0,0,0,0,0,0,0,-1,1063,1044,0,0
-154,-20,0,0,0,0,0,0,0,0,0,-1,1070,1044,0,0
-147,-20,0,0,0,0,0,0,0,0,0,-1,1077,1044,0,0
-140,-20,0,0,0,0,0,0,0,0,0,-1,1084,1044,0,0
-133,-20,0,0,0,0,0,0,0,0,0,-1,1091,1044,0,0
-126,-20,0,0,0,0,0,0,0,0,0,-1,1098,1044,0,0
-119,-20,0,0,0,0,0,0,0,0,0,-1,1105,1044,0,0
-112,-20,0,0,0,0,0,0,0,0,0,-1,1112,1044,0,0
-105,-20,0,0,0,0,0,0,0,0,0,-1,1119,1044,0,0
-98,-20,0,0,0,0,0,0,0,0,0,-1,1126,1044,0,0
-91,-20,0,0,0,0,0,0,0,0,0,-1,1133,1044,0,0
-84,-20,0,0,0,0,0,0,0,0,0,-1,1140,1044,0,0
-77,-20,0,0,0,0,0,0,0,0,0,-1,1147,1044,0,0
-70,-20,0,0,0,0,0,0,0,0,0,-1,1154,1044,0,0
-63,-20,0,0,0,0,0,0,0,0,0,-1,1161,1044,0,0
-56,-20,0,0,0,0,0,0,0,0,0,-1,1168,1044,0,0
-49,-20,0,0,0,0,0,0,0,0,0,-1,1175,1044,0,0
-42,-20,0,0,0,0,0,0,0,0,0,-1,1182,1044,0,0
-35,-20,0,0,0,0,0,0,0,0,0,-1,1189,1044,0,0
-28,-20,0,0,0,0,0,0,0,0,0,-1,1196,1044,0,0
-21,-20,0,0,0,0,0,0,0,0,0,-1,1203,1044,0,0
-14,-20,0,0,0,0,0,0,0,0,0,-1,1210,1044,0,0
-7,-20,0,0,0,0,0,0,0,0,0,-1,1217,1044,0,0
0,-20,0,0,0,0,0,0,0,0,0,-1,1224,1044,0,0
7,-20,0,0,0,0,0,0,0,0,0,-1,1231,1044,0,0
14,-20,0,0,0,0,0,0,0,0,0,-1,1238,1044,0,0
21,-20,0,0,0,0,0,0,0,0,0,-1,1245,1044,0,0
28,-20,0,0,0,0,0,0,0,0,0,-1,1252,1044,0,0
35,-20,0,0,0,0,0,0,0,0,0,-1,1259,1044,0,0
42,-20,0,0,0,0,0,0,0,0,0,-1,1266,1044,0,0
49,-20,0,0,0,0,0,0,0,0,0,-1,1273,1044,0,0
56,-20,0,0,0,0,0,0,0,0,0,-1,1280,1044,0,0
63,-20,0,0,0,0,0,0,0,0,0,-1,1287,1044,0,0
70,-20,0,0,0,0,0,0,0,0,0,-1,1294,1044,0,0
77,-20,0,0,0,0,0,0,0,0,0,-1,1301,1044,0,0
84,-20,0,0,0,0,0,0,0,0,0,-1,1308,1044,0,0
91,-20,0,0,0,0,0,0,0,0,0,-1,1315,1044,0,0
98,-20,0,0,0,0,0,0,0,0,0,-1,1322,1044,0,0
105,-20,0,0,0,0,0,0,0,0,0,-1,1329,1044,0,0
112,-20,0,0,0,0,0,0,0,0,0,-1,1336,1044,0,0
119,-20,0,0,0,0,0,0,0,0,0,-1,1343,1044,0,0
126,-20,0,0,0,0,0,0,0,0,0,-1,1350,1044,0,0
133,-20,0,0,0,0,0,0,0,0,0,-1,1357,1044,0,0
140,-20,0,0,0,0,0,0,0,0,0,-1,1364,1044,0,0
147,-20,0,0,0,0,0,0,0,0,0,-1,1371,1044,0,0
154,-20,0,0,0,0,0,0,0,0,0,-1,1378,1044,0,0
161,-20,0,0,0,0,0,0,0,0,0,-1,1385,1044,0,0
168,-20,0,0,0,0,0,0,0,0,0,-1,1392,1044,0,0
175,-20,0,0,0,0,0,0,0,0,0,-1,1399,1044,0,0
182,-20,0,0,0,0,0,0,0,0,0,-1,1406,1044,0,0
189,-20,0,0,0,0,0,0,0,0,0,-1,1413,1044,0,0
196,-20,0,0,0,0,0,0,0,0,0,-1,1420,1044,0,0
203,-20,0,0,0,0,0,0,0,0,0,-1,1427,1044,0,0
210,-20,0,0,0,0,0,0,0,0,0,-1,1434,1044,0,0
217,-20,0,0,0,0,0,0,0,0,0,-1,1441,1044,0,0
224,-20,0,0,0,0,0,0,0,0,0,-1,1448,1044,0,0
231,-20,0,0,0,0,0,0,0,0,0,-1,1455,1044,0,0
238,-20,0,0,0,0,0,0,0,0,0,-1,1462,1044,0,0
245,-20,0,0,0,0,0,0,0,0,0,-1,1469,1044,0,0
252,-20,0,0,0,0,0,0,0,0,0,-1,1476,1044,0,0
259,-20,0,0,0,0,0,0,0,0,0,-1,1483,1044,0,0
266,-20,0,0,0,0,0,0,0,0,0,-1,1490,1044,0,0
273,-20,0,0,0,0,0,0,0,0,0,-1,1497,1044,0,0
280,-20,0,0,0,0,0,0,0,0,0,-1,1504,1044,0,0
287,-20,0,0,0,0,0,0,0,0,0,-1,1511,1044,0,0
294,-20,0,0,0,0,0,0,0,0,0,-1,1518,1044,0,0
301,-20,0,0,0,0,0,0,0,0,0,-1,1525,1044,0,0
308,-20,0,0,0,0,0,0,0,0,0,-1,1532,1044,0,0
315,-20,0,0,0,0,0,0,0,0,0,-1,1539,1044,0,0
322,-20,0,0,0,0,0,0,0,0,0,-1,1546,1044,0,0
329,-20,0,0,0,0,0,0,0,0,0,-1,1553,1044,0,0
336,-20,0,0,0,0,0,0,0,0,0,-1,1560,1044,0,0
343,-20,0,0,0,0,0,0,0,0,0,-1,1567,1044,0,0
350,-20,0,0,0,0,0,0,0,0,0,-1,1574,1044,0,0
357,-20,0,0,0,0,0,0,0,0,0,-1,1581,1044,0,0
364,-20,0,0,0,0,0,0,0,0,0,-1,1588,1044,0,0
371,-20,0,0,0,0,0,0,0,0,0,-1,1595,1044,0,0
378,-20,0,0,0,0,0,0,0,0,0,-1,1602,1044,0,0
385,-20,0,0,0,0,0,0,0,0,0,-1,1609,1044,0,0
392,-20,0,0,0,0,0,0,0,0,0,-1,1616,1044,0,0
399,-20,0,0,0,0,0,0,0,0,0,-1,1623,1044,0,0
406,-20,0,0,0,0,0,0,0,0,0,-1,1630,1044,0,0
413,-20,0,0,0,0,0,0,0,0,0,-1,1637,1044,0,0
420,-20,0,0,0,0,0,0,0,0,0,-1,1644,1044,0,0
427,-20,0,0,0,0,0,0,0,0,0,-1,1651,1044,0,0
434,-20,0,0,0,0,0,0,0,0,0,-1,1658,1044,0,0
441,-20,0,0,0,0,0,0,0,0,0,-1,1665,1044,0,0
448,-20,0,0,0,0,0,0,0,0,0,-1,1672,1044,0,0
455,-20,0,0,0,0,0,0,0,0,0,-1,1679,1044,0,0
462,-20,0,0,0,0,0,0,0,0,0,-1,1686,1044,0,0
469,-20,0,0,0,0,0,0,0,0,0,-1,1693,1044,0,0
476,-20,0,0,0,0,0,0,0,0,0,-1,1700,1044,0,0
483,-20,0,0,0,0,0,0,0,0,0,-1,1707,1044,0,0
490,-20,0,0,0,0,0,0,0,0,0,-1,1714,1044,0,0
497,-20,0,0,0,0,0,0,0,0,0,-1,1721,1044,0,0
504,-20,0,0,0,0,0,0,0,0,0,-1,1728,1044,0,0
511,-20,0,0,0,0,0,0,0,0,0,-1,1735,1044,0,0
518,-20,0,0,0,0,0,0,0,0,0,-1,1742,1044,0,0
525,-20,0,0,0,0,0,0,0,0,0,-1,1749,1044,0,0
532,-20,0,0,0,0,0,0,0,0,0,-1,1756,1044,0,0
539,-20,0,0,0,0,0,0,0,0,0,-1,1763,1044,0,0
546,-20,0,0,0,0,0,0,0,0,0,-1,1770,1044,0,0
553,-20,0,0,0,0,0,0,0,0,0,-1,1777,1044,0,0
560,-20,0,0,0,0,0,0,0,0,0,-1,1784,1044,0,0
567,-20,0,0,0,0,0,0,0,0,0,-1,1791,1044,0,0
574,-20,0,0,0,0,0,0,0,0,0,-1,1798,1044,0,0
581,-20,0,0,0,0,0,0,0,0,0,-1,1805,1044,0,0
588,-20,0,0,0,0,0,0,0,0,0,-1,1812,1044,0,0
595,-20,0,0,0,0,0,0,0,0,0,-1,1819,1044,0,0
602,-20,0,0,0,0,0,0,0,0,0,-1,1826,1044,0,0
609,-20,0,0,0,0,0,0,0,0,0,-1,1833,1044,0,0
616,-20,0,0,0,0,0,0,0,0,0,-1,1840,1044,0,0
623,-20,0,0,0,0,0,0,0,0,0,-1,1847,1044,0,0
630,-20,0,0,0,0,0,0,0,0,0,-1,1854,1044,0,0
637,-20,0,0,0,0,0,0,0,0,0,-1,1861,1044,0,0
644,-20,0,0,0,0,0,0,0,0,0,-1,1868,1044,0,0
651,-20,21.7837,2.72144,-0.0064957,0.00270197,0.00457637,0.004591,-0.00838473,1.17932,0.00759752,0.04036,1875,1044,21.7837,-2.72147
658,-20,21.6887,2.74988,-0.0044456,0.00210395,0.00343656,0.00357619,-0.00591783,1.16605,0.00553667,0.0417524,1882,1044,21.6887,-2.74988
665,-20,21.7192,2.68152,-0.00292686,0.00166711,0.00257279,0.00281909,-0.00407884,1.14981,0.0040046,0.0397339,1889,1044,21.7192,-2.68149
672,-20,21.8088,2.71729,-0.00179558,0.00124316,0.00244837,0.00260528,-0.0031577,1.0631,0.00333235,0.0261805,1896,1044,21.8088,-2.7173
679,-20,21.7847,2.80371,-0.00144541,0.00060155,0.00315595,0.00289583,-0.00373969,0.942199,0.00384133,0.0283864,1903,1044,21.7847,-2.80372
686,-20,21.902,2.66675,-0.00155871,-2.28227e-05,0.00413496,0.0034149,-0.00499643,0.877212,0.00488482,0.0374722,1910,1044,21.9019,-2.66671
693,-20,21.8711,2.47778,-0.0018498,-0.000623206,0.00510701,0.0039072,-0.0063802,0.845156,0.00599636,0.0417692,1917,1044,21.8711,-2.47774
700,-20,21.7411,2.6416,-0.00225114,-0.00117076,0.00593759,0.00425116,-0.00767306,0.830763,0.0069783,0.0386908,1924,1044,21.741,-2.64155
707,-20,21.7452,2.72742,-0.00255909,-0.00149823,0.00648397,0.00447698,-0.00853429,0.82621,0.00763283,0.0306487,1931,1044,21.7453,-2.72738
714,-20,21.7754,2.85681,-0.00284081,-0.00175715,0.00695319,0.0046753,-0.00927325,0.824282,0.00819774,0.0244045,1938,1044,21.7754,-2.85681
721,-20,21.7874,2.97229,0,0,0,0,0,0,0,-1,1945,1044,21.7873,-2.9723
728,-20,21.5609,3.72766,-0.00350366,-0.00164375,0.00702154,0.00450915,-0.00965656,0.851237,0.00835662,0.0215534,1952,1044,21.5609,-3.72762
735,-20,21.2875,4.02966,-0.00380368,-0.00130882,0.00646154,0.00402459,-0.0091371,0.880752,0.00778765,0.0162707,1959,1044,21.2874,-4.02967
742,-20,21.3413,4.06409,-0.00397618,-0.000774871,0.00561998,0.00346796,-0.00821901,0.924132,0.00693084,0.0136996,1966,1044,21.3413,-4.06414
749,-20,21.3721,4.05688,-0.00339512,8.46034e-05,0.00447276,0.00314398,-0.00645449,0.970888,0.00565048,0.0157274,1973,1044,21.3721,-4.05692
756,-20,21.3708,4.05798,-0.00264903,0.00116289,0.003449,0.00319752,-0.00468366,1.03782,0.00457709,0.0115284,1980,1044,21.3708,-4.05795
763,-20,21.3414,4.06958,-0.00181205,0.0028659,0.00264337,0.00405655,-0.0030027,1.14759,0.00409077,0.0130466,1987,1044,21.3414,-4.06961
770,-20,21.3181,4.09741,-0.000839956,0.00469332,0.00162613,0.00513583,-0.00128246,1.30511,0.0039219,0.013006,1994,1044,21.3181,-4.09747
777,-20,21.2949,4.07751,0.000529988,0.00697371,0.00116113,0.00717655,0.000327142,1.39785,0.00467913,0.0122234,2001,1044,21.295,-4.07746
784,-20,21.3362,4.07202,0.00195784,0.00940739,0.00167415,0.00976633,0.0015989,1.35959,0.00604877,0.0168897,2008,1044,21.3362,-4.07197
791,-20,21.3962,4.06958,0.00355411,0.0122612,0.00305579,0.0132266,0.0025887,1.26479,0.00809401,0.0352417,2015,1044,21.3963,-4.06958
798,-20,21.627,4.15576,0.00572547,0.0156971,0.00516908,0.017893,0.00352952,1.16907,0.0109436,0.0420274,2022,1044,21.627,-4.15571
805,-20,22.166,4.24353,0.00856938,0.0198557,0.00821097,0.0241758,0.00424935,1.08647,0.014904,0.0423689,2029,1044,22.166,-4.24352
812,-20,22.7505,4.30322,0.0120317,0.0248974,0.0124689,0.032495,0.00443408,1.02355,0.020347,0.0449187,2036,1044,22.7505,-4.30328
-700,-27,-13.4056,3.76086,0,0,0,0,0,0,0,-1,524,1051,-13.4056,-3.76091
-693,-27,-12.0732,3.29968,0,0,0,0,0,0,0,-1,531,1051,-12.0732,-3.29968
-686,-27,-12.3647,1.55957,0,0,0,0,0,0,0,-1,538,1051,-12.3647,-1.55962
-679,-27,-12.8291,1.47998,-0.0317785,0.0110641,0.00229765,0.011187,-0.0319014,1.51737,0.0258176,0.044874,545,1051,-12.8291,-1.47994
-672,-27,-13.3228,1.37195,-0.0268394,0.00764727,0.00332732,0.00796536,-0.0271575,1.47549,0.0212634,0.0438346,552,1051,-13.3228,-1.37199
-665,-27,-13.4975,1.10413,-0.0218155,0.00556707,0.00373981,0.00606865,-0.0223171,1.43747,0.0172603,0.0457608,559,1051,-13.4975,-1.10418
-658,-27,-14.0654,1.92822,0,0,0,0,0,0,0,-1,566,1051,-14.0655,-1.92826
-651,-27,-14.0179,1.71094,-0.0128819,0.00341367,0.00331922,0.00406382,-0.013532,1.37737,0.0106379,0.0348472,573,1051,-14.0179,-1.71094
-644,-27,-14.0468,1.56262,-0.0093312,0.00243422,0.00277582,0.00305623,-0.00995322,1.35035,0.00785498,0.0158257,580,1051,-14.0468,-1.56257
-637,-27,-14.074,1.55908,-0.00662866,0.00135621,0.0012265,0.00154036,-0.00681281,1.42177,0.00513295,0.0137372,587,1051,-14.074,-1.55912
-630,-27,-14.1047,1.6731,-0.00415515,0.00155029,-0.000356316,0.00157246,-0.00417732,-1.50867,0.00343131,0.0183337,594,1051,-14.1046,-1.67304
-623,-27,-14.0817,1.70874,-0.00218741,0.0011634,-0.00186482,0.00199489,-0.0030189,-1.15137,0.00291477,0.0154049,601,1051,-14.0817,-1.70874
-616,-27,-14.053,1.71729,-0.00122595,0.000850816,-0.00331627,0.00328747,-0.0036626,-0.937122,0.00401458,0.013368,608,1051,-14.053,-1.71728
-609,-27,-14.0855,1.7417,-0.000998986,0.000342421,-0.00467682,0.00439639,-0.00505295,-0.856618,0.00545997,0.0140767,615,1051,-14.0855,-1.74165
-602,-27,-14.073,1.80249,-0.00103646,-0.000392146,-0.00584498,0.00513955,-0.00656816,-0.812929,0.0067762,0.0117639,622,1051,-14.073,-1.80249
-595,-27,-14.0963,1.98547,0,0,0,0,0,0,0,-1,629,1051,-14.0963,-1.98552
-588,-27,-14.1011,1.32227,-0.000824546,-0.00124238,-0.00636592,0.00533589,-0.00740282,-0.768995,0.00738689,0.0145414,636,1051,-14.1011,-1.32233
-581,-27,-14.0949,0.862305,-0.000645662,-0.00147622,-0.00596858,0.00492207,-0.00704395,-0.750665,0.0069447,0.0199799,643,1051,-14.0949,-0.862352
-574,-27,-14.2222,0.836426,-0.000502303,-0.00165867,-0.00523867,0.00418999,-0.00635096,-0.730437,0.00612831,0.0348732,650,1051,-14.2222,-0.836409
-567,-27,-14.2477,0.675781,-0.000257543,-0.00172477,-0.00388532,0.00296281,-0.00494512,-0.692088,0.00461322,0.0450553,657,1051,-14.2477,-0.675838
-560,-27,-14.1594,1.24634,0.000187623,-0.00167269,-0.00188744,0.00136166,-0.00284672,-0.556457,0.00247962,0.045338,664,1051,-14.1594,-1.24635
-553,-27,-14.2187,1.03467,0.000843634,-0.00149832,0.00073842,0.00105702,-0.0017117,0.281309,0.00161335,0.0413556,671,1051,-14.2187,-1.03471
-546,-27,-14.1757,0.799316,0,0,0,0,0,0,0,-1,678,1051,-14.1757,-0.799351
-539,-27,-13.9555,1.31726,0.00269283,-0.000690278,0.00702628,0.00822831,-0.00622576,0.667273,0.00837171,0.0431274,685,1051,-13.9555,-1.3172
-532,-27,-13.8995,1.37463,0.00350046,8.34626e-06,0.00848937,0.0104215,-0.00691267,0.683975,0.010076,0.0448988,692,1051,-13.8995,-1.37462
-525,-27,0,0,0,0,0,0,0,0,0,-1,699,1051,0,0
-518,-27,0,0,0,0,0,0,0,0,0,-1,706,1051,0,0
-511,-27,0,0,0,0,0,0,0,0,0,-1,713,1051,0,0
-504,-27,0,0,0,0,0,0,0,0,0,-1,720,1051,0,0
-497,-27,0,0,0,0,0,0,0,0,0,-1,727,1051,0,0
-490,-27,0,0,0,0,0,0,0,0,0,-1,734,1051,0,0
-483,-27,0,0,0,0,0,0,0,0,0,-1,741,1051,0,0
-476,-27,0,0,0,0,0,0,0,0,0,-1,748,1051,0,0
-469,-27,0,0,0,0,0,0,0,0,0,-1,755,1051,0,0
-462,-27,0,0,0,0,0,0,0,0,0,-1,762,1051,0,0
-455,-27,0,0,0,0,0,0,0,0,0,-1,769,1051,0,0
-448,-27,0,0,0,0,0,0,0,0,0,-1,776,1051,0,0
-441,-27,0,0,0,0,0,0,0,0,0,-1,783,1051,0,0
-434,-27,0,0,0,0,0,0,0,0,0,-1,790,1051,0,0
-427,-27,0,0,0,0,0,0,0,0,0,-1,797,1051,0,0
-420,-27,0,0,0,0,0,0,0,0,0,-1,804,1051,0,0
-413,-27,0,0,0,0,0,0,0,0,0,-1,811,1051,0,0
-406,-27,0,0,0,0,0,0,0,0,0,-1,818,1051,0,0
-399,-27,0,0,0,0,0,0,0,0,0,-1,825,1051,0,0
-392,-27,0,0,0,0,0,0,0,0,0,-1,832,1051,0,0
-385,-27,0,0,0,0,0,0,0,0,0,-1,839,1051,0,0
-378,-27,0,0,0,0,0,0,0,0,0,-1,846,1051,0,0
-371,-27,0,0,0,0,0,0,0,0,0,-1,853,1051,0,0
-364,-27,0,0,0,0,0,0,0,0,0,-1,860,1051,0,0
-357,-27,0,0,0,0,0,0,0,0,0,-1,867,1051,0,0
-350,-27,0,0,0,0,0,0,0,0,0,-1,874,1051,0,0
-343,-27,0,0,0,0,0,0,0,0,0,-1,881,1051,0,0
-336,-27,0,0,0,0,0,0,0,0,0,-1,888,1051,0,0
-329,-27,0,0,0,0,0,0,0,0,0,-1,895,1051,0,0
-322,-27,0,0,0,0,0,0,0,0,0,-1,902,1051,0,0
-315,-27,0,0,0,0,0,0,0,0,0,-1,909,1051,0,0
-308,-27,0,0,0,0,0,0,0,0,0,-1,916,1051,0,0
-301,-27,0,0,0,0,0,0,0,0,0,-1,923,1051,0,0
-294,-27,0,0,0,0,0,0,0,0,0,-1,930,1051,0,0
-287,-27,0,0,0,0,0,0,0,0,0,-1,937,1051,0,0
-280,-27,0,0,0,0,0,0,0,0,0,-1,944,1051,0,0
-273,-27,0,0,0,0,0,0,0,0,0,-1,951,1051,0,0
-266,-27,0,0,0,0,0,0,0,0,0,-1,958,1051,0,0
-259,-27,0,0,0,0,0,0,0,0,0,-1,965,1051,0,0
-252,-27,0,0,0,0,0,0,0,0,0,-1,972,1051,0,0
-245,-27,0,0,0,0,0,0,0,0,0,-1,979,1051,0,0
-238,-27,0,0,0,0,0,0,0,0,0,-1,986,1051,0,0
-231,-27,0,0,0,0,0,0,0,0,0,-1,993,1051,0,0
-224,-27,0,0,0,0,0,0,0,0,0,-1,1000,1051,0,0
-217,-27,0,0,0,0,0,0,0,0,0,-1,1007,1051,0,0
-210,-27,0,0,0,0,0,0,0,0,0,-1,1014,1051,0,0
-203,-27,0,0,0,0,0,0,0,0,0,-1,1021,1051,0,0
-196,-27,0,0,0,0,0,0,0,0,0,-1,1028,1051,0,0
-189,-27,0,0,0,0,0,0,0,0,0,-1,1035,1051,0,0
-182,-27,0,0,0,0,0,0,0,0,0,-1,1042,1051,0,0
-175,-27,0,0,0,0,0,0,0,0,0,-1,1049,1051,0,0
-168,-27,0,0,0,0,0,0,0,0,0,-1,1056,1051,0,0
-161,-27,0,0,0,0,0,0,0,0,0,-1,1063,1051,0,0
-154,-27,0,0,0,0,0,0,0,0,0,-1,1070,1051,0,0
-147,-27,0,0,0,0,0,0,0,0,0,-1,1077,1051,0,0
-140,-27,0,0,0,0,0,0,0,0,0,-1,1084,1051,0,0
-133,-27,0,0,0,0,0,0,0,0,0,-1,1091,1051,0,0
-126,-27,0,0,0,0,0,0,0,0,0,-1,1098,1051,0,0
-119,-27,0,0,0,0,0,0,0,0,0,-1,1105,1051,0,0
-112,-27,0,0,0,0,0,0,0,0,0,-1,1112,1051,0,0
-105,-27,0,0,0,0,0,0,0,0,0,-1,1119,1051,0,0
-98,-27,0,0,0,0,0,0,0,0,0,-1,1126,1051,0,0
-91,-27,0,0,0,0,0,0,0,0,0,-1,1133,1051,0,0
-84,-27,0,0,0,0,0,0,0,0,0,-1,1140,1051,0,0
-77,-27,0,0,0,0,0,0,0,0,0,-1,1147,1051,0,0
-70,-27,0,0,0,0,0,0,0,0,0,-1,1154,1051,0,0
-63,-27,0,0,0,0,0,0,0,0,0,-1,1161,1051,0,0
-56,-27,0,0,0,0,0,0,0,0,0,-1,1168,1051,0,0
-49,-27,0,0,0,0,0,0,0,0,0,-1,1175,1051,0,0
-42,-27,0,0,0,0,0,0,0,0,0,-1,1182,1051,0,0
-35,-27,0,0,0,0,0,0,0,0,0,-1,1189,1051,0,0
-28,-27,0,0,0,0,0,0,0,0,0,-1,1196,1051,0,0
-21,-27,0,0,0,0,0,0,0,0,0,-1,1203,1051,0,0
-14,-27,0,0,0,0,0,0,0,0,0,-1,1210,1051,0,0
-7,-27,0,0,0,0,0,0,0,0,0,-1,1217,1051,0,0
0,-27,0,0,0,0,0,0,0,0,0,-1,1224,1051,0,0
7,-27,0,0,0,0,0,0,0,0,0,-1,1231,1051,0,0
14,-27,0,0,0,0,0,0,0,0,0,-1,1238,1051,0,0
21,-27,0,0,0,0,0,0,0,0,0,-1,1245,1051,0,0
28,-27,0,0,0,0,0,0,0,0,0,-1,1252,1051,0,0
35,-27,0,0,0,0,0,0,0,0,0,-1,1259,1051,0,0
42,-27,0,0,0,0,0,0,0,0,0,-1,1266,1051,0,0
49,-27,0,0,0,0,0,0,0,0,0,-1,1273,1051,0,0
56,-27,0,0,0,0,0,0,0,0,0,-1,1280,1051,0,0
63,-27,0,0,0,0,0,0,0,0,0,-1,1287,1051,0,0
70,-27,0,0,0,0,0,0,0,0,0,-1,1294,1051,0,0
77,-27,0,0,0,0,0,0,0,0,0,-1,1301,1051,0,0
84,-27,0,0,0,0,0,0,0,0,0,-1,1308,1051,0,0
91,-27,0,0,0,0,0,0,0,0,0,-1,1315,1051,0,0
98,-27,0,0,0,0,0,0,0,0,0,-1,1322,1051,0,0
105,-27,0,0,0,0,0,0,0,0,0,-1,1329,1051,0,0
112,-27,0,0,0,0,0,0,0,0,0,-1,1336,1051,0,0
119,-27,0,0,0,0,0,0,0,0,0,-1,1343,1051,0,0
126,-27,0,0,0,0,0,0,0,0,0,-1,1350,1051,0,0
133,-27,0,0,0,0,0,0,0,0,0,-1,1357,1051,0,0
140,-27,0,0,0,0,0,0,0,0,0,-1,1364,1051,0,0
147,-27,0,0,0,0,0,0,0,0,0,-1,1371,1051,0,0
154,-27,0,0,0,0,0,0,0,0,0,-1,1378,1051,0,0
161,-27,0,0,0,0,0,0,0,0,0,-1,1385,1051,0,0
168,-27,0,0,0,0,0,0,0,0,0,-1,1392,1051,0,0
175,-27,0,0,0,0,0,0,0,0,0,-1,1399,1051,0,0
182,-27,0,0,0,0,0,0,0,0,0,-1,1406,1051,0,0
189,-27,0,0,0,0,0,0,0,0,0,-1,1413,1051,0,0
196,-27,0,0,0,0,0,0,0,0,0,-1,1420,1051,0,0
203,-27,0,0,0,0,0,0,0,0,0,-1,1427,1051,0,0
210,-27,0,0,0,0,0,0,0,0,0,-1,1434,1051,0,0
217,-27,0,0,0,0,0,0,0,0,0,-1,1441,1051,0,0
224,-27,0,0,0,0,0,0,0,0,0,-1,1448,1051,0,0
231,-27,0,0,0,0,0,0,0,0,0,-1,1455,1051,0,0
238,-27,0,0,0,0,0,0,0,0,0,-1,1462,1051,0,0
245,-27,0,0,0,0,0,0,0,0,0,-1,1469,1051,0,0
252,-27,0,0,0,0,0,0,0,0,0,-1,1476,1051,0,0
259,-27,0,0,0,0,0,0,0,0,0,-1,1483,1051,0,0
266,-27,0,0,0,0,0,0,0,0,0,-1,1490,1051,0,0
273,-27,0,0,0,0,0,0,0,0,0,-1,1497,1051,0,0
280,-27,0,0,0,0,0,0,0,0,0,-1,1504,1051,0,0
287,-27,0,0,0,0,0,0,0,0,0,-1,1511,1051,0,0
294,-27,0,0,0,0,0,0,0,0,0,-1,1518,1051,0,0
301,-27,0,0,0,0,0,0,0,0,0,-1,1525,1051,0,0
308,-27,0,0,0,0,0,0,0,0,0,-1,1532,1051,0,0
315,-27,0,0,0,0,0,0,0,0,0,-1,1539,1051,0,0
322,-27,0,0,0,0,0,0,0,0,0,-1,1546,1051,0,0
329,-27,0,0,0,0,0,0,0,0,0,-1,1553,1051,0,0
336,-27,0,0,0,0,0,0,0,0,0,-1,1560,1051,0,0
343,-27,0,0,0,0,0,0,0,0,0,-1,1567,1051,0,0
350,-27,0,0,0,0,0,0,0,0,0,-1,1574,1051,0,0
357,-27,0,0,0,0,0,0,0,0,0,-1,1581,1051,0,0
364,-27,0,0,0,0,0,0,0,0,0,-1,1588,1051,0,0
371,-27,0,0,0,0,0,0,0,0,0,-1,1595,1051,0,0
378,-27,0,0,0,0,0,0,0,0,0,-1,1602,1051,0,0
385,-27,0,0,0,0,0,0,0,0,0,-1,1609,1051,0,0
392,-27,0,0,0,0,0,0,0,0,0,-1,1616,1051,0,0
399,-27,0,0,0,0,0,0,0,0,0,-1,1623,1051,0,0
406,-27,0,0,0,0,0,0,0,0,0,-1,1630,1051,0,0
413,-27,0,0,0,0,0,0,0,0,0,-1,1637,1051,0,0
420,-27,0,0,0,0,0,0,0,0,0,-1,1644,1051,0,0
427,-27,0,0,0,0,0,0,0,0,0,-1,1651,1051,0,0
434,-27,0,0,0,0,0,0,0,0,0,-1,1658,1051,0,0
441,-27,0,0,0,0,0,0,0,0,0,-1,1665,1051,0,0
448,-27,0,0,0,0,0,0,0,0,0,-1,1672,1051,0,0
455,-27,0,0,0,0,0,0,0,0,0,-1,1679,1051,0,0
462,-27,0,0,0,0,0,0,0,0,0,-1,1686,1051,0,0
469,-27,0,0,0,0,0,0,0,0,0,-1,1693,1051,0,0
476,-27,0,0,0,0,0,0,0,0,0,-1,1700,1051,0,0
483,-27,0,0,0,0,0,0,0,0,0,-1,1707,1051,0,0
490,-27,0,0,0,0,0,0,0,0,0,-1,1714,1051,0,0
497,-27,0,0,0,0,0,0,0,0,0,-1,1721,1051,0,0
504,-27,0,0,0,0,0,0,0,0,0,-1,1728,1051,0,0
511,-27,0,0,0,0,0,0,0,0,0,-1,1735,1051,0,0
518,-27,0,0,0,0,0,0,0,0,0,-1,1742,1051,0,0
525,-27,0,0,0,0,0,0,0,0,0,-1,1749,1051,0,0
532,-27,0,0,0,0,0,0,0,0,0,-1,1756,1051,0,0
539,-27,0,0,0,0,0,0,0,0,0,-1,1763,1051,0,0
546,-27,0,0,0,0,0,0,0,0,0,-1,1770,1051,0,0
553,-27,0,0,0,0,0,0,0,0,0,-1,1777,1051,0,0
560,-27,0,0,0,0,0,0,0,0,0,-1,1784,1051,0,0
567,-27,0,0,0,0,0,0,0,0,0,-1,1791,1051,0,0
574,-27,0,0,0,0,0,0,0,0,0,-1,1798,1051,0,0
581,-27,0,0,0,0,0,0,0,0,0,-1,1805,1051,0,0
588,-27,0,0,0,0,0,0,0,0,0,-1,1812,1051,0,0
595,-27,0,0,0,0,0,0,0,0,0,-1,1819,1051,0,0
602,-27,0,0,0,0,0,0,0,0,0,-1,1826,1051,0,0
609,-27,0,0,0,0,0,0,0,0,0,-1,1833,1051,0,0
616,-27,0,0,0,0,0,0,0,0,0,-1,1840,1051,0,0
623,-27,0,0,0,0,0,0,0,0,0,-1,1847,1051,0,0
630,-27,0,0,0,0,0,0,0,0,0,-1,1854,1051,0,0
637,-27,0,0,0,0,0,0,0,0,0,-1,1861,1051,0,0
644,-27,0,0,0,0,0,0,0,0,0,-1,1868,1051,0,0
651,-27,21.8041,2.68518,-0.00658303,0.0012891,0.00357088,0.00266753,-0.00796146,1.2024,0.00638533,0.0384292,1875,1051,21.8041,-2.68513
658,-27,21.7952,2.81824,-0.00438891,0.00099423,0.0027137,0.0021248,-0.00551947,1.17605,0.00455617,0.0369577,1882,1051,21.7951,-2.81821
665,-27,21.7451,2.77686,-0.00278363,0.000796081,0.0020465,0.001725,-0.00371255,1.1447,0.00320852,0.0374798,1889,1051,21.7451,-2.77683
672,-27,21.7312,2.79016,-0.00160485,0.000544253,0.0021132,0.00184042,-0.00290102,1.02061,0.0027602,0.0303514,1896,1051,21.7312,-2.79017
679,-27,21.662,2.81128,-0.00127192,1.14963e-05,0.00301296,0.00245032,-0.00371075,0.890322,0.00358182,0.0277217,1903,1051,21.6619,-2.81133
686,-27,21.9147,2.6615,-0.00144396,-0.000540734,0.00415771,0.00318982,-0.00517451,0.839496,0.00487426,0.0376274,1910,1051,21.9147,-2.66148
693,-27,22.0481,2.37146,-0.0018111,-0.00109167,0.00526209,0.00382298,-0.00672576,0.819525,0.00616671,0.0409862,1917,1051,22.0481,-2.37147
700,-27,21.8518,2.59338,-0.00229431,-0.0015901,0.00621088,0.00427865,-0.00816305,0.813714,0.00729898,0.0388868,1924,1051,21.8518,-2.59333
707,-27,21.7271,2.70532,-0.00266969,-0.00188131,0.00684251,0.00457835,-0.00912936,0.814171,0.00805823,0.024948,1931,1051,21.7271,-2.70536
714,-27,21.7649,2.82715,-0.00299791,-0.00211725,0.00734828,0.00480388,-0.00991904,0.815324,0.0086696,0.0199365,1938,1051,21.7649,-2.82715
721,-27,21.8096,3.08777,-0.0033393,-0.0021337,0.00758162,0.00486905,-0.010342,0.825069,0.00896961,0.0230785,1945,1051,21.8096,-3.08774
728,-27,21.605,3.74109,-0.00369466,-0.00196244,0.00738928,0.00461132,-0.0102684,0.843738,0.00879534,0.0265678,1952,1051,21.605,-3.74111
735,-27,21.4124,4.40503,0,0,0,0,0,0,0,-1,1959,1051,21.4123,-4.40505
742,-27,21.3165,4.07556,-0.00407072,-0.00103502,0.00594784,0.00358559,-0.00869133,0.910329,0.00728954,0.0153177,1966,1051,21.3165,-4.07554
749,-27,21.3533,4.06567,-0.00337129,-0.000127482,0.00487801,0.00339119,-0.00688996,0.945895,0.00604931,0.012005,1973,1051,21.3533,-4.06567
756,-27,21.354,4.07349,-0.00240105,0.000993409,0.00395244,0.00359762,-0.00500526,0.9882,0.00498899,0.0112804,1980,1051,21.354,-4.07354
763,-27,21.3358,4.05176,-0.00128081,0.00290038,0.00324515,0.00467005,-0.00305047,1.07155,0.00449002,0.0125344,1987,1051,21.3358,-4.05176
770,-27,21.3024,4.03589,2.88227e-06,0.00489491,0.0024102,0.00588285,-0.000985061,1.18178,0.00428814,0.0148951,1994,1051,21.3024,-4.03594
777,-27,21.2854,4.05298,0.00174401,0.00740759,0.00223684,0.00818447,0.00096713,1.23652,0.00516421,0.0152905,2001,1051,21.2854,-4.05299
784,-27,21.3059,4.05542,0.00359878,0.0101756,0.00312777,0.0114255,0.00234884,1.19061,0.00696731,0.0239066,2008,1051,21.3059,-4.05539
791,-27,22.0103,4.50269,0,0,0,0,0,0,0,-1,2015,1051,22.0103,-4.50274
798,-27,21.6008,3.95349,0.00841099,0.0176258,0.00749409,0.0218155,0.00422125,1.06101,0.0133607,0.0453678,2022,1051,21.6008,-3.95352
805,-27,21.9387,4.09241,0.0119012,0.0227303,0.0109734,0.0295523,0.00507919,1.01458,0.0182457,0.0453459,2029,1051,21.9387,-4.09239
812,-27,22.4963,4.22339,0.0160855,0.0290803,0.0156072,0.0394885,0.00567729,0.982641,0.0246521,0.045097,2036,1051,22.4962,-4.22333
-700,-34,-13.4261,3.29529,0,0,0,0,0,0,0,-1,524,1058,-13.4261,-3.29533
-693,-34,-11.0684,0.192871,0,0,0,0,0,0,0,-1,531,1058,-11.0684,-0.192924
-686,-34,-11.6431,0.650146,-0.0379037,0.0136636,-0.00148497,0.0137063,-0.0379464,-1.54203,0.030897,0.0461249,538,1058,-11.6431,-0.65017
-679,-34,-12.271,1.18164,-0.0329777,0.00841083,0.000683988,0.00842213,-0.032989,1.55428,0.0252723,0.042147,545,1058,-12.271,-1.18162
-672,-34,-13.6978,1.10168,0,0,0,0,0,0,0,-1,552,1058,-13.6978,-1.10165
-665,-34,-13.7507,1.23413,-0.0222784,0.00366461,0.00269744,0.00394212,-0.0225559,1.46828,0.0165089,0.048078,559,1058,-13.7507,-1.2341
-658,-34,-13.8173,1.4187,-0.0172947,0.00276434,0.00288058,0.00316981,-0.0177002,1.43096,0.0129863,0.0432804,566,1058,-13.8172,-1.41865
-651,-34,-13.9267,1.48816,-0.0129056,0.00226472,0.00270293,0.00273192,-0.0133728,1.39964,0.00995162,0.0268728,573,1058,-13.9267,-1.48816
-644,-34,-14.0299,1.51111,-0.00928879,0.00150283,0.00238807,0.00200767,-0.00979363,1.36246,0.00729104,0.0108899,580,1058,-14.0299,-1.51116
-637,-34,-14.0546,1.53711,-0.00651395,0.000750505,0.000972344,0.000878401,-0.00664185,1.44001,0.00474786,0.0127405,587,1058,-14.0546,-1.53715
-630,-34,-14.0712,1.63403,-0.00400213,0.00106354,-0.000609036,0.00113574,-0.00407432,-1.45281,0.0031635,0.0162628,594,1058,-14.0713,-1.63407
-623,-34,-14.0309,1.68481,-0.00212059,0.000794559,-0.00204726,0.00185011,-0.00317614,-1.09475,0.00293538,0.0128713,601,1058,-14.0309,-1.68481
-616,-34,-14.0052,1.74951,-0.00125852,0.000504538,-0.00341529,0.00315023,-0.00390422,-0.911698,0.00408064,0.0197652,608,1058,-14.0052,-1.74955
-609,-34,-14.003,1.7865,-0.00109207,2.40118e-05,-0.00467218,0.00417136,-0.00523942,-0.844836,0.00544497,0.0194318,615,1058,-14.003,-1.78645
-602,-34,-14.0153,1.81348,-0.00119502,-0.000755714,-0.00582585,0.00485463,-0.00680536,-0.804241,0.00676323,0.0145931,622,1058,-14.0153,-1.81343
-595,-34,-14.0624,1.96594,0,0,0,0,0,0,0,-1,629,1058,-14.0624,-1.96589
-588,-34,-14.0873,1.33655,-0.00105848,-0.00161545,-0.00637233,0.00504145,-0.00771538,-0.763561,0.00741889,0.0195779,636,1058,-14.0873,-1.3366
-581,-34,-14.0889,0.870483,-0.000878396,-0.00180512,-0.00597664,0.00465281,-0.00733633,-0.746711,0.00697949,0.0212697,643,1058,-14.0889,-0.870444
-574,-34,-14.1268,0.690063,-0.000724053,-0.00191867,-0.00526918,0.00398157,-0.00662428,-0.72896,0.00618633,0.0339133,650,1058,-14.1268,-0.690034
-567,-34,-14.0544,0.457275,-0.00045767,-0.00187563,-0.00394476,0.00284132,-0.00517462,-0.696484,0.0046929,0.0418726,657,1058,-14.0544,-0.457232
-560,-34,-14.0145,0.789429,1.88503e-05,-0.00167072,-0.00197794,0.00132485,-0.00297673,-0.583572,0.00254383,0.0444403,664,1058,-14.0145,-0.789484
-553,-34,-14.044,1.34631,0.000709338,-0.00130331,0.000622629,0.00088638,-0.00148035,0.277034,0.0013807,0.0486632,671,1058,-14.044,-1.34632
-546,-34,-14.1866,0.846191,0.00159657,-0.000780884,0.00383965,0.00442729,-0.00361161,0.635281,0.00464922,0.0467102,678,1058,-14.1866,-0.846177
-539,-34,-14.0541,1.17639,0.00256965,-9.84778e-05,0.00691675,0.00827981,-0.00580864,0.690131,0.00817557,0.0425818,685,1058,-14.0541,-1.1764
-532,-34,-13.9835,1.20081,0.0032527,0.000646468,0.00833581,0.0103866,-0.00648747,0.707862,0.00982859,0.0413678,692,1058,-13.9835,-1.2008
-525,-34,0,0,0,0,0,0,0,0,0,-1,699,1058,0,0
-518,-34,0,0,0,0,0,0,0,0,0,-1,706,1058,0,0
-511,-34,0,0,0,0,0,0,0,0,0,-1,713,1058,0,0
-504,-34,0,0,0,0,0,0,0,0,0,-1,720,1058,0,0
-497,-34,0,0,0,0,0,0,0,0,0,-1,727,1058,0,0
-490,-34,0,0,0,0,0,0,0,0,0,-1,734,1058,0,0
-483,-34,0,0,0,0,0,0,0,0,0,-1,741,1058,0,0
-476,-34,0,0,0,0,0,0,0,0,0,-1,748,1058,0,0
-469,-34,0,0,0,0,0,0,0,0,0,-1,755,1058,0,0
-462,-34,0,0,0,0,0,0,0,0,0,-1,762,1058,0,0
-455,-34,0,0,0,0,0,0,0,0,0,-1,769,1058,0,0
-448,-34,0,0,0,0,0,0,0,0,0,-1,776,1058,0,0
-441,-34,0,0,0,0,0,0,0,0,0,-1,783,1058,0,0
-434,-34,0,0,0,0,0,0,0,0,0,-1,790,1058,0,0
-427,-34,0,0,0,0,0,0,0,0,0,-1,797,1058,0,0
-420,-34,0,0,0,0,0,0,0,0,0,-1,804,1058,0,0
-413,-34,0,0,0,0,0,0,0,0,0,-1,811,1058,0,0
-406,-34,0,0,0,0,0,0,0,0,0,-1,818,1058,0,0
-399,-34,0,0,0,0,0,0,0,0,0,-1,825,1058,0,0
-392,-34,0,0,0,0,0,0,0,0,0,-1,832,1058,0,0
-385,-34,0,0,0,0,0,0,0,0,0,-1,839,1058,0,0
-378,-34,0,0,0,0,0,0,0,0,0,-1,846,1058,0,0
-371,-34,0,0,0,0,0,0,0,0,0,-1,853,1058,0,0
-364,-34,0,0,0,0,0,0,0,0,0,-1,860,1058,0,0
-357,-34,0,0,0,0,0,0,0,0,0,-1,867,1058,0,0
-350,-34,0,0,0,0,0,0,0,0,0,-1,874,1058,0,0
-343,-34,0,0,0,0,0,0,0,0,0,-1,881,1058,0,0
-336,-34,0,0,0,0,0,0,0,0,0,-1,888,1058,0,0
-329,-34,0,0,0,0,0,0,0,0,0,-1,895,1058,0,0
-322,-34,0,0,0,0,0,0,0,0,0,-1,902,1058,0,0
-315,-34,0,0,0,0,0,0,0,0,0,-1,909,1058,0,0
-308,-34,0,0,0,0,0,0,0,0,0,-1,916,1058,0,0
-301,-34,0,0,0,0,0,0,0,0,0,-1,923,1058,0,0
-294,-34,0,0,0,0,0,0,0,0,0,-1,930,1058,0,0
-287,-34,0,0,0,0,0,0,0,0,0,-1,937,1058,0,0
-280,-34,0,0,0,0,0,0,0,0,0,-1,944,1058,0,0
-273,-34,0,0,0,0,0,0,0,0,0,-1,951,1058,0,0
-266,-34,0,0,0,0,0,0,0,0,0,-1,958,1058,0,0
-259,-34,0,0,0,0,0,0,0,0,0,-1,965,1058,0,0
-252,-34,0,0,0,0,0,0,0,0,0,-1,972,1058,0,0
-245,-34,0,0,0,0,0,0,0,0,0,-1,979,1058,0,0
-238,-34,0,0,0,0,0,0,0,0,0,-1,986,1058,0,0
-231,-34,0,0,0,0,0,0,0,0,0,-1,993,1058,0,0
-224,-34,0,0,0,0,0,0,0,0,0,-1,1000,1058,0,0
-217,-34,0,0,0,0,0,0,0,0,0,-1,1007,1058,0,0
-210,-34,0,0,0,0,0,0,0,0,0,-1,1014,1058,0,0
-203,-34,0,0,0,0,0,0,0,0,0,-1,1021,1058,0,0
-196,-34,0,0,0,0,0,0,0,0,0,-1,1028,1058,0,0
-189,-34,0,0,0,0,0,0,0,0,0,-1,1035,1058,0,0
-182,-34,0,0,0,0,0,0,0,0,0,-1,1042,1058,0,0
-175,-34,0,0,0,0,0,0,0,0,0,-1,1049,1058,0,0
-168,-34,0,0,0,0,0,0,0,0,0,-1,1056,1058,0,0
-161,-34,0,0,0,0,0,0,0,0,0,-1,1063,1058,0,0
-154,-34,0,0,0,0,0,0,0,0,0,-1,1070,1058,0,0
-147,-34,0,0,0,0,0,0,0,0,0,-1,1077,1058,0,0
-140,-34,0,0,0,0,0,0,0,0,0,-1,1084,1058,0,0
-133,-34,0,0,0,0,0,0,0,0,0,-1,1091,1058,0,0
-126,-34,0,0,0,0,0,0,0,0,0,-1,1098,1058,0,0
-119,-34,0,0,0,0,0,0,0,0,0,-1,1105,1058,0,0
-112,-34,0,0,0,0,0,0,0,0,0,-1,1112,1058,0,0
-105,-34,0,0,0,0,0,0,0,0,0,-1,1119,1058,0,0
-98,-34,0,0,0,0,0,0,0,0,0,-1,1126,1058,0,0
-91,-34,0,0,0,0,0,0,0,0,0,-1,1133,1058,0,0
-84,-34,0,0,0,0,0,0,0,0,0,-1,1140,1058,0,0
-77,-34,0,0,0,0,0,0,0,0,0,-1,1147,1058,0,0
-70,-34,0,0,0,0,0,0,0,0,0,-1,1154,1058,0,0
-63,-34,0,0,0,0,0,0,0,0,0,-1,1161,1058,0,0
-56,-34,0,0,0,0,0,0,0,0,0,-1,1168,1058,0,0
-49,-34,0,0,0,0,0,0,0,0,0,-1,1175,1058,0,0
-42,-34,0,0,0,0,0,0,0,0,0,-1,1182,1058,0,0
-35,-34,0,0,0,0,0,0,0,0,0,-1,1189,1058,0,0
-28,-34,0,0,0,0,0,0,0,0,0,-1,1196,1058,0,0
-21,-34,0,0,0,0,0,0,0,0,0,-1,1203,1058,0,0
-14,-34,0,0,0,0,0,0,0,0,0,-1,1210,1058,0,0
-7,-34,0,0,0,0,0,0,0,0,0,-1,1217,1058,0,0
0,-34,0,0,0,0,0,0,0,0,0,-1,1224,1058,0,0
7,-34,0,0,0,0,0,0,0,0,0,-1,1231,1058,0,0
14,-34,0,0,0,0,0,0,0,0,0,-1,1238,1058,0,0
21,-34,0,0,0,0,0,0,0,0,0,-1,1245,1058,0,0
28,-34,0,0,0,0,0,0,0,0,0,-1,1252,1058,0,0
35,-34,0,0,0,0,0,0,0,0,0,-1,1259,1058,0,0
42,-34,0,0,0,0,0,0,0,0,0,-1,1266,1058,0,0
49,-34,0,0,0,0,0,0,0,0,0,-1,1273,1058,0,0
56,-34,0,0,0,0,0,0,0,0,0,-1,1280,1058,0,0
63,-34,0,0,0,0,0,0,0,0,0,-1,1287,1058,0,0
70,-34,0,0,0,0,0,0,0,0,0,-1,1294,1058,0,0
77,-34,0,0,0,0,0,0,0,0,0,-1,1301,1058,0,0
84,-34,0,0,0,0,0,0,0,0,0,-1,1308,1058,0,0
91,-34,0,0,0,0,0,0,0,0,0,-1,1315,1058,0,0
98,-34,0,0,0,0,0,0,0,0,0,-1,1322,1058,0,0
105,-34,0,0,0,0,0,0,0,0,0,-1,1329,1058,0,0
112,-34,0,0,0,0,0,0,0,0,0,-1,1336,1058,0,0
119,-34,0,0,0,0,0,0,0,0,0,-1,1343,1058,0,0
126,-34,0,0,0,0,0,0,0,0,0,-1,1350,1058,0,0
133,-34,0,0,0,0,0,0,0,0,0,-1,1357,1058,0,0
140,-34,0,0,0,0,0,0,0,0,0,-1,1364,1058,0,0
147,-34,0,0,0,0,0,0,0,0,0,-1,1371,1058,0,0
154,-34,0,0,0,0,0,0,0,0,0,-1,1378,1058,0,0
161,-34,0,0,0,0,0,0,0,0,0,-1,1385,1058,0,0
168,-34,0,0,0,0,0,0,0,0,0,-1,1392,1058,0,0
175,-34,0,0,0,0,0,0,0,0,0,-1,1399,1058,0,0
182,-34,0,0,0,0,0,0,0,0,0,-1,1406,1058,0,0
189,-34,0,0,0,0,0,0,0,0,0,-1,1413,1058,0,0
196,-34,0,0,0,0,0,0,0,0,0,-1,1420,1058,0,0
203,-34,0,0,0,0,0,0,0,0,0,-1,1427,1058,0,0
210,-34,0,0,0,0,0,0,0,0,0,-1,1434,1058,0,0
217,-34,0,0,0,0,0,0,0,0,0,-1,1441,1058,0,0
224,-34,0,0,0,0,0,0,0,0,0,-1,1448,1058,0,0
231,-34,0,0,0,0,0,0,0,0,0,-1,1455,1058,0,0
238,-34,0,0,0,0,0,0,0,0,0,-1,1462,1058,0,0
245,-34,0,0,0,0,0,0,0,0,0,-1,1469,1058,0,0
252,-34,0,0,0,0,0,0,0,0,0,-1,1476,1058,0,0
259,-34,0,0,0,0,0,0,0,0,0,-1,1483,1058,0,0
266,-34,0,0,0,0,0,0,0,0,0,-1,1490,1058,0,0
273,-34,0,0,0,0,0,0,0,0,0,-1,1497,1058,0,0
280,-34,0,0,0,0,0,0,0,0,0,-1,1504,1058,0,0
287,-34,0,0,0,0,0,0,0,0,0,-1,1511,1058,0,0
294,-34,0,0,0,0,0,0,0,0,0,-1,1518,1058,0,0
301,-34,0,0,0,0,0,0,0,0,0,-1,1525,1058,0,0
308,-34,0,0,0,0,0,0,0,0,0,-1,1532,1058,0,0
315,-34,0,0,0,0,0,0,0,0,0,-1,1539,1058,0,0
322,-34,0,0,0,0,0,0,0,0,0,-1,1546,1058,0,0
329,-34,0,0,0,0,0,0,0,0,0,-1,1553,1058,0,0
336,-34,0,0,0,0,0,0,0,0,0,-1,1560,1058,0,0
343,-34,0,0,0,0,0,0,0,0,0,-1,1567,1058,0,0
350,-34,0,0,0,0,0,0,0,0,0,-1,1574,1058,0,0
357,-34,0,0,0,0,0,0,0,0,0,-1,1581,1058,0,0
364,-34,0,0,0,0,0,0,0,0,0,-1,1588,1058,0,0
371,-34,0,0,0,0,0,0,0,0,0,-1,1595,1058,0,0
378,-34,0,0,0,0,0,0,0,0,0,-1,1602,1058,0,0
385,-34,0,0,0,0,0,0,0,0,0,-1,1609,1058,0,0
392,-34,0,0,0,0,0,0,0,0,0,-1,1616,1058,0,0
399,-34,0,0,0,0,0,0,0,0,0,-1,1623,1058,0,0
406,-34,0,0,0,0,0,0,0,0,0,-1,1630,1058,0,0
413,-34,0,0,0,0,0,0,0,0,0,-1,1637,1058,0,0
420,-34,0,0,0,0,0,0,0,0,0,-1,1644,1058,0,0
427,-34,0,0,0,0,0,0,0,0,0,-1,1651,1058,0,0
434,-34,0,0,0,0,0,0,0,0,0,-1,1658,1058,0,0
441,-34,0,0,0,0,0,0,0,0,0,-1,1665,1058,0,0
448,-34,0,0,0,0,0,0,0,0,0,-1,1672,1058,0,0
455,-34,0,0,0,0,0,0,0,0,0,-1,1679,1058,0,0
462,-34,0,0,0,0,0,0,0,0,0,-1,1686,1058,0,0
469,-34,0,0,0,0,0,0,0,0,0,-1,1693,1058,0,0
476,-34,0,0,0,0,0,0,0,0,0,-1,1700,1058,0,0
483,-34,0,0,0,0,0,0,0,0,0,-1,1707,1058,0,0
490,-34,0,0,0,0,0,0,0,0,0,-1,1714,1058,0,0
497,-34,0,0,0,0,0,0,0,0,0,-1,1721,1058,0,0
504,-34,0,0,0,0,0,0,0,0,0,-1,1728,1058,0,0
511,-34,0,0,0,0,0,0,0,0,0,-1,1735,1058,0,0
518,-34,0,0,0,0,0,0,0,0,0,-1,1742,1058,0,0
525,-34,0,0,0,0,0,0,0,0,0,-1,1749,1058,0,0
532,-34,0,0,0,0,0,0,0,0,0,-1,1756,1058,0,0
539,-34,0,0,0,0,0,0,0,0,0,-1,1763,1058,0,0
546,-34,0,0,0,0,0,0,0,0,0,-1,1770,1058,0,0
553,-34,0,0,0,0,0,0,0,0,0,-1,1777,1058,0,0
560,-34,0,0,0,0,0,0,0,0,0,-1,1784,1058,0,0
567,-34,0,0,0,0,0,0,0,0,0,-1,1791,1058,0,0
574,-34,0,0,0,0,0,0,0,0,0,-1,1798,1058,0,0
581,-34,0,0,0,0,0,0,0,0,0,-1,1805,1058,0,0
588,-34,0,0,0,0,0,0,0,0,0,-1,1812,1058,0,0
595,-34,0,0,0,0,0,0,0,0,0,-1,1819,1058,0,0
602,-34,0,0,0,0,0,0,0,0,0,-1,1826,1058,0,0
609,-34,0,0,0,0,0,0,0,0,0,-1,1833,1058,0,0
616,-34,0,0,0,0,0,0,0,0,0,-1,1840,1058,0,0
623,-34,0,0,0,0,0,0,0,0,0,-1,1847,1058,0,0
630,-34,0,0,0,0,0,0,0,0,0,-1,1854,1058,0,0
637,-34,0,0,0,0,0,0,0,0,0,-1,1861,1058,0,0
644,-34,0,0,0,0,0,0,0,0,0,-1,1868,1058,0,0
651,-34,21.8584,2.66443,-0.00640633,-0.00106275,0.00290598,0.000213009,-0.00768209,1.15712,0.00519385,0.0385682,1875,1058,21.8584,-2.66441
658,-34,21.8746,2.69421,-0.00417732,-0.000851466,0.00218864,0.000234331,-0.00526311,1.11027,0.0035894,0.0399164,1882,1058,21.8746,-2.69421
665,-34,21.7008,2.71033,-0.00255264,-0.000638357,0.00164488,0.000307589,-0.00349859,1.0489,0.00244139,0.0392208,1889,1058,21.7008,-2.71037
672,-34,21.6511,2.73083,-0.00136511,-0.000595675,0.00186033,0.000919304,-0.00288008,0.887361,0.00228888,0.0355275,1896,1058,21.6511,-2.73085
679,-34,21.5931,2.90186,-0.00105735,-0.0009083,0.00289553,0.00191367,-0.00387932,0.798264,0.00340816,0.0363245,1903,1058,21.5932,-2.90183
686,-34,21.7838,2.82788,-0.00127423,-0.00129575,0.00414502,0.00286004,-0.00543002,0.7841,0.00486233,0.0421938,1910,1058,21.7838,-2.82782
693,-34,21.9846,2.54797,-0.00169422,-0.00172044,0.00533037,0.00362306,-0.00703772,0.784168,0.00625936,0.0424698,1917,1058,21.9847,-2.54792
700,-34,21.8351,2.62378,-0.00223358,-0.00209381,0.00634256,0.00417925,-0.00850664,0.790907,0.0074649,0.0382972,1924,1058,21.835,-2.62384
707,-34,21.6908,2.76196,-0.00265722,-0.0023105,0.00702593,0.0045442,-0.00951193,0.797733,0.00828253,0.0244413,1931,1058,21.6908,-2.76198
714,-34,21.7341,2.85291,-0.00302096,-0.00246745,0.00753924,0.00480012,-0.0102885,0.803744,0.00890146,0.0177048,1938,1058,21.7342,-2.85296
721,-34,21.8223,3.18201,-0.00338169,-0.00242695,0.00775931,0.00486966,-0.0106783,0.816121,0.00918306,0.0265999,1945,1058,21.8222,-3.18206
728,-34,21.582,3.83362,-0.00374885,-0.00221752,0.00755355,0.00460908,-0.0105754,0.835908,0.00898954,0.0270081,1952,1058,21.582,-3.83359
735,-34,21.3324,4.12415,-0.00405655,-0.00184223,0.00694258,0.00408091,-0.00997969,0.864469,0.00835263,0.0136583,1959,1058,21.3324,-4.12411
742,-34,21.3022,4.09998,-0.00418977,-0.00120814,0.00609145,0.00357228,-0.00897018,0.905409,0.00746158,0.0134724,1966,1058,21.3023,-4.09999
749,-34,21.321,4.09802,-0.00357374,-0.000313818,0.00517581,0.00348262,-0.00737018,0.937942,0.00639846,0.0127837,1973,1058,21.321,-4.09801
756,-34,21.3431,4.09143,-0.00262261,0.000705495,0.004472,0.00381301,-0.00573012,0.963513,0.00554666,0.0105921,1980,1058,21.3432,-4.09141
763,-34,21.3313,4.05652,-0.00149479,0.00262119,0.00394473,0.00501249,-0.00388609,1.02583,0.0051513,0.0110645,1987,1058,21.3313,-4.05654
770,-34,21.2928,4.02673,-0.000270262,0.00453758,0.00343556,0.00632674,-0.00205942,1.09067,0.00504637,0.015738,1994,1058,21.2929,-4.02672
777,-34,21.2603,4.02722,0.00139316,0.00690886,0.00373933,0.00879733,-0.000495313,1.10313,0.00603677,0.0165979,2001,1058,21.2602,-4.02716
784,-34,21.4652,4.04846,0,0,0,0,0,0,0,-1,2008,1058,21.4652,-4.04845
791,-34,21.8794,4.21106,0,0,0,0,0,0,0,-1,2015,1058,21.8794,-4.21106
798,-34,22.2937,4.37366,0,0,0,0,0,0,0,-1,2022,1058,22.2937,-4.37367
805,-34,21.7732,3.91821,0.0115249,0.0215858,0.0154388,0.0327929,0.000317693,0.94289,0.0217568,0.0460784,2029,1058,21.7733,-3.91827
812,-34,22.1001,3.91602,0.0160174,0.0279305,0.0210208,0.0438224,0.000125524,0.923461,0.0291732,0.0479314,2036,1058,22.1,-3.91607
-700,-41,-13.6574,2.66833,0,0,0,0,0,0,0,-1,524,1065,-13.6574,-2.66838
-693,-41,-10.4805,-0.134521,0,0,0,0,0,0,0,-1,531,1065,-10.4805,0.134484
-686,-41,-10.8702,0.216431,-0.032832,0.0131241,-0.00391415,0.0134551,-0.033163,-1.48643,0.0277051,0.0441582,538,1065,-10.8702,-0.216414
-679,-41,-11.7865,1.03662,-0.0288598,0.00756714,-0.00112715,0.00760199,-0.0288946,-1.53989,0.0222346,0.0431309,545,1065,-11.7865,-1.03663
-672,-41,-12.4152,1.66956,0,0,0,0,0,0,0,-1,552,1065,-12.4152,-1.66955
-665,-41,-13.7927,1.1134,0,0,0,0,0,0,0,-1,559,1065,-13.7927,-1.11339
-658,-41,-14.069,1.11084,-0.0153397,0.00184409,0.00219682,0.00212049,-0.0156161,1.44564,0.0111848,0.039177,566,1065,-14.069,-1.11078
-651,-41,-13.8535,1.41528,-0.0114383,0.00148547,0.00224603,0.00186468,-0.0118175,1.40354,0.0085678,0.0252687,573,1065,-13.8535,-1.41522
-644,-41,-13.9911,1.48596,-0.00826602,0.000789827,0.00216438,0.00128053,-0.00875672,1.34785,0.00630813,0.010753,580,1065,-13.9912,-1.48596
-637,-41,-14.0164,1.5293,-0.00586344,0.000176476,0.000921434,0.00031392,-0.00600088,1.42272,0.00410923,0.0121655,587,1065,-14.0164,-1.52935
-630,-41,-14.0004,1.6051,-0.00360232,0.000521534,-0.000635845,0.000617347,-0.00369813,-1.42124,0.00269488,0.0126184,594,1065,-14.0004,-1.60514
-623,-41,-13.9761,1.66602,-0.00195621,0.000388489,-0.00202006,0.00155174,-0.00311947,-1.04832,0.00274708,0.0110404,601,1065,-13.9761,-1.66598
-616,-41,-13.9637,1.74316,-0.00128272,0.000141234,-0.00332663,0.00283123,-0.00397271,-0.890819,0.00394664,0.0147944,608,1065,-13.9637,-1.74317
-609,-41,-13.9439,1.80872,-0.00118756,-0.000350913,-0.00452135,0.00377143,-0.0053099,-0.831528,0.00526812,0.0214881,615,1065,-13.9439,-1.80873
-602,-41,-13.957,1.82776,-0.00134363,-0.00118145,-0.00566051,0.00439856,-0.00692363,-0.792561,0.00659083,0.012538,622,1065,-13.957,-1.82776
-595,-41,-13.9899,1.89832,0,0,0,0,0,0,0,-1,629,1065,-13.9898,-1.89837
-588,-41,-14.0538,1.35388,-0.00126717,-0.0021185,-0.00625662,0.00457825,-0.00796392,-0.751433,0.00732864,0.0232672,636,1065,-14.0538,-1.3539
-581,-41,-14.0949,0.888184,-0.00108079,-0.00228711,-0.00587496,0.0042219,-0.00758979,-0.734244,0.00691127,0.0333113,643,1065,-14.0949,-0.888157
-574,-41,-14.0836,0.722168,-0.000908337,-0.0023723,-0.0052117,0.00362253,-0.00690317,-0.71563,0.00617462,0.0369987,650,1065,-14.0836,-0.722172
-567,-41,-14.0156,0.628418,-0.000613092,-0.0022615,-0.00395092,0.00259868,-0.00547327,-0.682568,0.00475783,0.0406453,657,1065,-14.0155,-0.628387
-560,-41,-14.0195,0.912354,-9.88362e-05,-0.00194332,-0.00206006,0.001236,-0.00327815,-0.574938,0.00269367,0.0426011,664,1065,-14.0195,-0.91236
-553,-41,-14.0699,0.992432,0.000634386,-0.00141299,0.000464805,0.000734967,-0.00151357,0.213109,0.00132388,0.047191,671,1065,-14.0699,-0.992483
-546,-41,-14.1952,0.925659,0.00156255,-0.000671231,0.00362828,0.00424196,-0.00335064,0.636086,0.00439364,0.0447745,678,1065,-14.1952,-0.925669
-539,-41,-14.1909,0.859253,0.00254812,0.000219039,0.00671323,0.00819707,-0.00542991,0.699518,0.00792143,0.0395469,685,1065,-14.1909,-0.859222
-532,-41,-14.0966,0.932129,0.00313433,0.00108999,0.00812895,0.0103051,-0.00608081,0.722854,0.00956464,0.0375502,692,1065,-14.0966,-0.932134
-525,-41,0,0,0,0,0,0,0,0,0,-1,699,1065,0,0
-518,-41,0,0,0,0,0,0,0,0,0,-1,706,1065,0,0
-511,-41,0,0,0,0,0,0,0,0,0,-1,713,1065,0,0
-504,-41,0,0,0,0,0,0,0,0,0,-1,720,1065,0,0
-497,-41,0,0,0,0,0,0,0,0,0,-1,727,1065,0,0
-490,-41,0,0,0,0,0,0,0,0,0,-1,734,1065,0,0
-483,-41,0,0,0,0,0,0,0,0,0,-1,741,1065,0,0
-476,-41,0,0,0,0,0,0,0,0,0,-1,748,1065,0,0
-469,-41,0,0,0,0,0,0,0,0,0,-1,755,1065,0,0
-462,-41,0,0,0,0,0,0,0,0,0,-1,762,1065,0,0
-455,-41,0,0,0,0,0,0,0,0,0,-1,769,1065,0,0
-448,-41,0,0,0,0,0,0,0,0,0,-1,776,1065,0,0
-441,-41,0,0,0,0,0,0,0,0,0,-1,783,1065,0,0
-434,-41,0,0,0,0,0,0,0,0,0,-1,790,1065,0,0
-427,-41,0,0,0,0,0,0,0,0,0,-1,797,1065,0,0
-420,-41,0,0,0,0,0,0,0,0,0,-1,804,1065,0,0
-413,-41,0,0,0,0,0,0,0,0,0,-1,811,1065,0,0
-406,-41,0,0,0,0,0,0,0,0,0,-1,818,1065,0,0
-399,-41,0,0,0,0,0,0,0,0,0,-1,825,1065,0,0
-392,-41,0,0,0,0,0,0,0,0,0,-1,832,1065,0,0
-385,-41,0,0,0,0,0,0,0,0,0,-1,839,1065,0,0
-378,-41,0,0,0,0,0,0,0,0,0,-1,846,1065,0,0
-371,-41,0,0,0,0,0,0,0,0,0,-1,853,1065,0,0
-364,-41,0,0,0,0,0,0,0,0,0,-1,860,1065,0,0
-357,-41,0,0,0,0,0,0,0,0,0,-1,867,1065,0,0
-350,-41,0,0,0,0,0,0,0,0,0,-1,874,1065,0,0
-343,-41,0,0,0,0,0,0,0,0,0,-1,881,1065,0,0
-336,-41,0,0,0,0,0,0,0,0,0,-1,888,1065,0,0
-329,-41,0,0,0,0,0,0,0,0,0,-1,895,1065,0,0
-322,-41,0,0,0,0,0,0,0,0,0,-1,902,1065,0,0
-315,-41,0,0,0,0,0,0,0,0,0,-1,909,1065,0,0
-308,-41,0,0,0,0,0,0,0,0,0,-1,916,1065,0,0
-301,-41,0,0,0,0,0,0,0,0,0,-1,923,1065,0,0
-294,-41,0,0,0,0,0,0,0,0,0,-1,930,1065,0,0
-287,-41,0,0,0,0,0,0,0,0,0,-1,937,1065,0,0
-280,-41,0,0,0,0,0,0,0,0,0,-1,944,1065,0,0
-273,-41,0,0,0,0,0,0,0,0,0,-1,951,1065,0,0
-266,-41,0,0,0,0,0,0,0,0,0,-1,958,1065,0,0
-259,-41,0,0,0,0,0,0,0,0,0,-1,965,1065,0,0
-252,-41,0,0,0,0,0,0,0,0,0,-1,972,1065,0,0
-245,-41,0,0,0,0,0,0,0,0,0,-1,979,1065,0,0
-238,-41,0,0,0,0,0,0,0,0,0,-1,986,1065,0,0
-231,-41,0,0,0,0,0,0,0,0,0,-1,993,1065,0,0
-224,-41,0,0,0,0,0,0,0,0,0,-1,1000,1065,0,0
-217,-41,0,0,0,0,0,0,0,0,0,-1,1007,1065,0,0
-210,-41,0,0,0,0,0,0,0,0,0,-1,1014,1065,0,0
-203,-41,0,0,0,0,0,0,0,0,0,-1,1021,1065,0,0
-196,-41,0,0,0,0,0,0,0,0,0,-1,1028,1065,0,0
-189,-41,0,0,0,0,0,0,0,0,0,-1,1035,1065,0,0
-182,-41,0,0,0,0,0,0,0,0,0,-1,1042,1065,0,0
-175,-41,0,0,0,0,0,0,0,0,0,-1,1049,1065,0,0
-168,-41,0,0,0,0,0,0,0,0,0,-1,1056,1065,0,0
-161,-41,0,0,0,0,0,0,0,0,0,-1,1063,1065,0,0
-154,-41,0,0,0,0,0,0,0,0,0,-1,1070,1065,0,0
-147,-41,0,0,0,0,0,0,0,0,0,-1,1077,1065,0,0
-140,-41,0,0,0,0,0,0,0,0,0,-1,1084,1065,0,0
-133,-41,0,0,0,0,0,0,0,0,0,-1,1091,1065,0,0
-126,-41,0,0,0,0,0,0,0,0,0,-1,1098,1065,0,0
-119,-41,0,0,0,0,0,0,0,0,0,-1,1105,1065,0,0
-112,-41,0,0,0,0,0,0,0,0,0,-1,1112,1065,0,0
-105,-41,0,0,0,0,0,0,0,0,0,-1,1119,1065,0,0
-98,-41,0,0,0,0,0,0,0,0,0,-1,1126,1065,0,0
-91,-41,0,0,0,0,0,0,0,0,0,-1,1133,1065,0,0
-84,-41,0,0,0,0,0,0,0,0,0,-1,1140,1065,0,0
-77,-41,0,0,0,0,0,0,0,0,0,-1,1147,1065,0,0
-70,-41,0,0,0,0,0,0,0,0,0,-1,1154,1065,0,0
-63,-41,0,0,0,0,0,0,0,0,0,-1,1161,1065,0,0
-56,-41,0,0,0,0,0,0,0,0,0,-1,1168,1065,0,0
-49,-41,0,0,0,0,0,0,0,0,0,-1,1175,1065,0,0
-42,-41,0,0,0,0,0,0,0,0,0,-1,1182,1065,0,0
-35,-41,0,0,0,0,0,0,0,0,0,-1,1189,1065,0,0
-28,-41,0,0,0,0,0,0,0,0,0,-1,1196,1065,0,0
-21,-41,0,0,0,0,0,0,0,0,0,-1,1203,1065,0,0
-14,-41,0,0,0,0,0,0,0,0,0,-1,1210,1065,0,0
-7,-41,0,0,0,0,0,0,0,0,0,-1,1217,1065,0,0
0,-41,0,0,0,0,0,0,0,0,0,-1,1224,1065,0,0
7,-41,0,0,0,0,0,0,0,0,0,-1,1231,1065,0,0
14,-41,0,0,0,0,0,0,0,0,0,-1,1238,1065,0,0
21,-41,0,0,0,0,0,0,0,0,0,-1,1245,1065,0,0
28,-41,0,0,0,0,0,0,0,0,0,-1,1252,1065,0,0
35,-41,0,0,0,0,0,0,0,0,0,-1,1259,1065,0,0
42,-41,0,0,0,0,0,0,0,0,0,-1,1266,1065,0,0
49,-41,0,0,0,0,0,0,0,0,0,-1,1273,1065,0,0
56,-41,0,0,0,0,0,0,0,0,0,-1,1280,1065,0,0
63,-41,0,0,0,0,0,0,0,0,0,-1,1287,1065,0,0
70,-41,0,0,0,0,0,0,0,0,0,-1,1294,1065,0,0
77,-41,0,0,0,0,0,0,0,0,0,-1,1301,1065,0,0
84,-41,0,0,0,0,0,0,0,0,0,-1,1308,1065,0,0
91,-41,0,0,0,0,0,0,0,0,0,-1,1315,1065,0,0
98,-41,0,0,0,0,0,0,0,0,0,-1,1322,1065,0,0
105,-41,0,0,0,0,0,0,0,0,0,-1,1329,1065,0,0
112,-41,0,0,0,0,0,0,0,0,0,-1,1336,1065,0,0
119,-41,0,0,0,0,0,0,0,0,0,-1,1343,1065,0,0
126,-41,0,0,0,0,0,0,0,0,0,-1,1350,1065,0,0
133,-41,0,0,0,0,0,0,0,0,0,-1,1357,1065,0,0
140,-41,0,0,0,0,0,0,0,0,0,-1,1364,1065,0,0
147,-41,0,0,0,0,0,0,0,0,0,-1,1371,1065,0,0
154,-41,0,0,0,0,0,0,0,0,0,-1,1378,1065,0,0
161,-41,0,0,0,0,0,0,0,0,0,-1,1385,1065,0,0
168,-41,0,0,0,0,0,0,0,0,0,-1,1392,1065,0,0
175,-41,0,0,0,0,0,0,0,0,0,-1,1399,1065,0,0
182,-41,0,0,0,0,0,0,0,0,0,-1,1406,1065,0,0
189,-41,0,0,0,0,0,0,0,0,0,-1,1413,1065,0,0
196,-41,0,0,0,0,0,0,0,0,0,-1,1420,1065,0,0
203,-41,0,0,0,0,0,0,0,0,0,-1,1427,1065,0,0
210,-41,0,0,0,0,0,0,0,0,0,-1,1434,1065,0,0
217,-41,0,0,0,0,0,0,0,0,0,-1,1441,1065,0,0
224,-41,0,0,0,0,0,0,0,0,0,-1,1448,1065,0,0
231,-41,0,0,0,0,0,0,0,0,0,-1,1455,1065,0,0
238,-41,0,0,0,0,0,0,0,0,0,-1,1462,1065,0,0
245,-41,0,0,0,0,0,0,0,0,0,-1,1469,1065,0,0
252,-41,0,0,0,0,0,0,0,0,0,-1,1476,1065,0,0
259,-41,0,0,0,0,0,0,0,0,0,-1,1483,1065,0,0
266,-41,0,0,0,0,0,0,0,0,0,-1,1490,1065,0,0
273,-41,0,0,0,0,0,0,0,0,0,-1,1497,1065,0,0
280,-41,0,0,0,0,0,0,0,0,0,-1,1504,1065,0,0
287,-41,0,0,0,0,0,0,0,0,0,-1,1511,1065,0,0
294,-41,0,0,0,0,0,0,0,0,0,-1,1518,1065,0,0
301,-41,0,0,0,0,0,0,0,0,0,-1,1525,1065,0,0
308,-41,0,0,0,0,0,0,0,0,0,-1,1532,1065,0,0
315,-41,0,0,0,0,0,0,0,0,0,-1,1539,1065,0,0
322,-41,0,0,0,0,0,0,0,0,0,-1,1546,1065,0,0
329,-41,0,0,0,0,0,0,0,0,0,-1,1553,1065,0,0
336,-41,0,0,0,0,0,0,0,0,0,-1,1560,1065,0,0
343,-41,0,0,0,0,0,0,0,0,0,-1,1567,1065,0,0
350,-41,0,0,0,0,0,0,0,0,0,-1,1574,1065,0,0
357,-41,0,0,0,0,0,0,0,0,0,-1,1581,1065,0,0
364,-41,0,0,0,0,0,0,0,0,0,-1,1588,1065,0,0
371,-41,0,0,0,0,0,0,0,0,0,-1,1595,1065,0,0
378,-41,0,0,0,0,0,0,0,0,0,-1,1602,1065,0,0
385,-41,0,0,0,0,0,0,0,0,0,-1,1609,1065,0,0
392,-41,0,0,0,0,0,0,0,0,0,-1,1616,1065,0,0
399,-41,0,0,0,0,0,0,0,0,0,-1,1623,1065,0,0
406,-41,0,0,0,0,0,0,0,0,0,-1,1630,1065,0,0
413,-41,0,0,0,0,0,0,0,0,0,-1,1637,1065,0,0
420,-41,0,0,0,0,0,0,0,0,0,-1,1644,1065,0,0
427,-41,0,0,0,0,0,0,0,0,0,-1,1651,1065,0,0
434,-41,0,0,0,0,0,0,0,0,0,-1,1658,1065,0,0
441,-41,0,0,0,0,0,0,0,0,0,-1,1665,1065,0,0
448,-41,0,0,0,0,0,0,0,0,0,-1,1672,1065,0,0
455,-41,0,0,0,0,0,0,0,0,0,-1,1679,1065,0,0
462,-41,0,0,0,0,0,0,0,0,0,-1,1686,1065,0,0
469,-41,0,0,0,0,0,0,0,0,0,-1,1693,1065,0,0
476,-41,0,0,0,0,0,0,0,0,0,-1,1700,1065,0,0
483,-41,0,0,0,0,0,0,0,0,0,-1,1707,1065,0,0
490,-41,0,0,0,0,0,0,0,0,0,-1,1714,1065,0,0
497,-41,0,0,0,0,0,0,0,0,0,-1,1721,1065,0,0
504,-41,0,0,0,0,0,0,0,0,0,-1,1728,1065,0,0
511,-41,0,0,0,0,0,0,0,0,0,-1,1735,1065,0,0
518,-41,0,0,0,0,0,0,0,0,0,-1,1742,1065,0,0
525,-41,0,0,0,0,0,0,0,0,0,-1,1749,1065,0,0
532,-41,0,0,0,0,0,0,0,0,0,-1,1756,1065,0,0
539,-41,0,0,0,0,0,0,0,0,0,-1,1763,1065,0,0
546,-41,0,0,0,0,0,0,0,0,0,-1,1770,1065,0,0
553,-41,0,0,0,0,0,0,0,0,0,-1,1777,1065,0,0
560,-41,0,0,0,0,0,0,0,0,0,-1,1784,1065,0,0
567,-41,0,0,0,0,0,0,0,0,0,-1,1791,1065,0,0
574,-41,0,0,0,0,0,0,0,0,0,-1,1798,1065,0,0
581,-41,0,0,0,0,0,0,0,0,0,-1,1805,1065,0,0
588,-41,0,0,0,0,0,0,0,0,0,-1,1812,1065,0,0
595,-41,0,0,0,0,0,0,0,0,0,-1,1819,1065,0,0
602,-41,0,0,0,0,0,0,0,0,0,-1,1826,1065,0,0
609,-41,0,0,0,0,0,0,0,0,0,-1,1833,1065,0,0
616,-41,0,0,0,0,0,0,0,0,0,-1,1840,1065,0,0
623,-41,0,0,0,0,0,0,0,0,0,-1,1847,1065,0,0
630,-41,0,0,0,0,0,0,0,0,0,-1,1854,1065,0,0
637,-41,0,0,0,0,0,0,0,0,0,-1,1861,1065,0,0
644,-41,0,0,0,0,0,0,0,0,0,-1,1868,1065,0,0
651,-41,21.7499,2.69824,-0.00591497,-0.00244646,0.00211956,-0.00144207,-0.00691935,1.12827,0.00421525,0.035946,1875,1065,21.7498,-2.69824
658,-41,21.7382,2.57263,-0.00375996,-0.00186616,0.00155846,-0.00098949,-0.00463663,1.05839,0.00281973,0.0394865,1882,1065,21.7381,-2.57259
665,-41,21.6473,2.65869,-0.00218118,-0.00138362,0.00114817,-0.000566949,-0.00299785,0.95254,0.00183895,0.0399023,1889,1065,21.6474,-2.65866
672,-41,21.6044,2.73047,-0.00103385,-0.0011683,0.00151216,0.000412576,-0.00261473,0.763185,0.0018957,0.0388421,1896,1065,21.6044,-2.73052
679,-41,21.5603,2.74182,-0.000783721,-0.00135333,0.00266113,0.0016078,-0.00374485,0.732089,0.00317139,0.0396095,1903,1065,21.5603,-2.7418
686,-41,21.671,2.9707,-0.00105998,-0.00165151,0.00398024,0.00263547,-0.00534696,0.748312,0.00469645,0.0439082,1910,1065,21.671,-2.97069
693,-41,21.8593,3.13696,-0.00153274,-0.00200969,0.00520631,0.00344056,-0.00698298,0.762512,0.00613278,0.0440002,1917,1065,21.8593,-3.13698
700,-41,21.7721,2.85181,-0.00211551,-0.00230391,0.00624264,0.00403364,-0.00845307,0.777854,0.00735818,0.0394282,1924,1065,21.7722,-2.85184
707,-41,21.7151,2.78528,-0.00258408,-0.0024808,0.00694629,0.00441404,-0.00947892,0.789115,0.00819686,0.0268857,1931,1065,21.7151,-2.7853
714,-41,21.7155,2.78857,-0.00298496,-0.00259927,0.00745308,0.00466346,-0.0102477,0.798332,0.00880789,0.0157323,1938,1065,21.7155,-2.78854
721,-41,21.8069,3.26538,-0.00336604,-0.00254401,0.0076704,0.00472638,-0.0106364,0.812165,0.00908586,0.0319094,1945,1065,21.8069,-3.26542
728,-41,21.4838,4.03088,-0.00374444,-0.00231361,0.00747176,0.0044769,-0.010535,0.833127,0.00889924,0.031105,1952,1065,21.4837,-4.03092
735,-41,21.3129,4.13342,-0.00409019,-0.00192939,0.00687148,0.00394611,-0.00996569,0.863375,0.00827882,0.0149117,1959,1065,21.3129,-4.13346
742,-41,21.2758,4.10913,-0.00428255,-0.0012618,0.0060353,0.00344925,-0.0089936,0.908008,0.0074178,0.0127076,1966,1065,21.2758,-4.10914
749,-41,21.291,4.10522,-0.00375625,-0.00038325,0.00521179,0.00340812,-0.00754762,0.941878,0.00647405,0.0128426,1973,1065,21.291,-4.10521
756,-41,21.3247,4.08618,-0.00282476,0.000607482,0.00461944,0.00381927,-0.00603655,0.963247,0.00573806,0.0132342,1980,1065,21.3247,-4.08615
763,-41,21.3004,4.0509,-0.0016756,0.00261843,0.00413542,0.00513096,-0.00418813,1.02483,0.00538955,0.0112151,1987,1065,21.3004,-4.05087
770,-41,21.2725,4.01489,-0.000463356,0.00458963,0.0037633,0.00659586,-0.00246958,1.08102,0.00541164,0.0123111,1994,1065,21.2724,-4.01488
777,-41,21.2429,3.97876,0.00118824,0.00702677,0.00428017,0.00928842,-0.00107341,1.08468,0.00657934,0.0137725,2001,1065,21.2429,-3.97872
784,-41,21.278,3.90405,0.00295608,0.00975641,0.00601716,0.0132676,-0.000555147,1.04257,0.00903583,0.0257421,2008,1065,21.278,-3.90402
791,-41,21.5074,3.87537,0.00504594,0.0131359,0.00878511,0.0187625,-0.000580692,1.00115,0.0127063,0.042954,2015,1065,21.5074,-3.87541
798,-41,21.1582,3.77405,0,0,0,0,0,0,0,-1,2022,1065,21.1582,-3.7741
805,-41,21.5667,3.7019,0,0,0,0,0,0,0,-1,2029,1065,21.5665,-3.70189
812,-41,21.7498,3.64587,0,0,0,0,0,0,0,-1,2036,1065,21.7497,-3.64591
-700,-48,-13.8209,2.08618,0,0,0,0,0,0,0,-1,524,1072,-13.8209,-2.08613
-693,-48,-14.585,1.04529,0,0,0,0,0,0,0,-1,531,1072,-14.585,-1.04529
-686,-48,-10.0751,-0.196777,0,0,0,0,0,0,0,-1,538,1072,-10.0752,0.196774
-679,-48,-11.5751,0.977661,0,0,0,0,0,0,0,-1,545,1072,-11.5751,-0.977613
-672,-48,-13.5247,-0.110107,0,0,0,0,0,0,0,-1,552,1072,-13.5247,0.110164
-665,-48,-13.3137,0.952271,0,0,0,0,0,0,0,-1,559,1072,-13.3137,-0.952225
-658,-48,-14.0195,0.922119,-0.0127612,0.0008098,0.00151124,0.000976052,-0.0129275,1.46123,0.00896139,0.0432024,566,1072,-14.0195,-0.922065
-651,-48,-13.8718,1.26929,-0.00949318,0.000648114,0.00175465,0.000943124,-0.00978819,1.40422,0.00686147,0.030007,573,1072,-13.8718,-1.26928
-644,-48,-13.903,1.47412,-0.00689672,7.66072e-05,0.00186651,0.000544774,-0.00736489,1.32504,0.00510122,0.014405,580,1072,-13.903,-1.47413
-637,-48,-13.9195,1.51563,-0.00498905,-0.000333561,0.000783461,-0.000205251,-0.00511736,1.40846,0.00334526,0.0143338,587,1072,-13.9195,-1.51567
-630,-48,-13.9135,1.58875,-0.00315047,5.72074e-05,-0.00077443,0.000234391,-0.00332765,-1.34587,0.00230055,0.0159774,594,1072,-13.9135,-1.58871
-623,-48,-13.9165,1.65796,-0.00187418,8.20762e-05,-0.00213671,0.0014539,-0.003246,-1.00005,0.00277847,0.00997729,601,1072,-13.9165,-1.65796
-616,-48,-13.9089,1.724,-0.00145441,-8.22979e-05,-0.00339379,0.00269408,-0.00423079,-0.88513,0.00403076,0.00900128,608,1072,-13.9089,-1.72396
-609,-48,-13.8977,1.78662,-0.00147932,-0.000578616,-0.00453488,0.00352822,-0.00558616,-0.83489,0.00530671,0.0113764,615,1072,-13.8977,-1.78659
-602,-48,-13.928,1.83679,-0.00168489,-0.00143081,-0.0056641,0.00410768,-0.00722338,-0.796611,0.00662391,0.0116063,622,1072,-13.928,-1.83678
-595,-48,-13.981,1.91199,0,0,0,0,0,0,0,-1,629,1072,-13.981,-1.91198
-588,-48,-14.0107,1.33447,-0.00166544,-0.00241218,-0.00638736,0.00435945,-0.00843707,-0.756204,0.00751206,0.0283743,636,1072,-14.0108,-1.33451
-581,-48,-14.0641,0.830444,-0.00148224,-0.00254169,-0.00602793,0.0040392,-0.00806313,-0.741571,0.00711486,0.0384828,643,1072,-14.0641,-0.830481
-574,-48,-14.0558,0.822021,-0.00128113,-0.00259402,-0.00541431,0.00351638,-0.00739153,-0.725071,0.00642879,0.0400991,650,1072,-14.0558,-0.822035
-567,-48,-14.0933,1.01978,-0.000932779,-0.00242228,-0.00421889,0.00260659,-0.00596165,-0.698034,0.00507172,0.0391821,657,1072,-14.0932,-1.01983
-560,-48,-14.1934,1.19141,-0.000350786,-0.00201075,-0.00240612,0.00136448,-0.00372601,-0.619315,0.00304259,0.0404735,664,1072,-14.1934,-1.19137
-553,-48,-14.1568,1.00745,0.00045267,-0.00135103,3.51988e-05,0.000453357,-0.00135171,0.0195049,0.00108433,0.0440886,671,1072,-14.1568,-1.00748
-546,-48,-14.2216,0.766968,0.00144257,-0.000430406,0.00312181,0.00376533,-0.00275316,0.639678,0.00377855,0.0416049,678,1072,-14.2216,-0.767002
-539,-48,-14.1736,0.645142,0.00245805,0.000667981,0.00619993,0.00782722,-0.00470119,0.713712,0.00730795,0.0391234,685,1072,-14.1736,-0.645179
-532,-48,-14.08,0.936646,0.00287996,0.00171835,0.00760871,0.00993,-0.00533169,0.747305,0.00894366,0.0373961,692,1072,-14.08,-0.936621
-525,-48,0,0,0,0,0,0,0,0,0,-1,699,1072,0,0
-518,-48,0,0,0,0,0,0,0,0,0,-1,706,1072,0,0
-511,-48,0,0,0,0,0,0,0,0,0,-1,713,1072,0,0
-504,-48,0,0,0,0,0,0,0,0,0,-1,720,1072,0,0
-497,-48,0,0,0,0,0,0,0,0,0,-1,727,1072,0,0
-490,-48,0,0,0,0,0,0,0,0,0,-1,734,1072,0,0
-483,-48,0,0,0,0,0,0,0,0,0,-1,741,1072,0,0
-476,-48,0,0,0,0,0,0,0,0,0,-1,748,1072,0,0
-469,-48,0,0,0,0,0,0,0,0,0,-1,755,1072,0,0
-462,-48,0,0,0,0,0,0,0,0,0,-1,762,1072,0,0
-455,-48,0,0,0,0,0,0,0,0,0,-1,769,1072,0,0
-448,-48,0,0,0,0,0,0,0,0,0,-1,776,1072,0,0
-441,-48,0,0,0,0,0,0,0,0,0,-1,783,1072,0,0
-434,-48,0,0,0,0,0,0,0,0,0,-1,790,1072,0,0
-427,-48,0,0,0,0,0,0,0,0,0,-1,797,1072,0,0
-420,-48,0,0,0,0,0,0,0,0,0,-1,804,1072,0,0
-413,-48,0,0,0,0,0,0,0,0,0,-1,811,1072,0,0
-406,-48,0,0,0,0,0,0,0,0,0,-1,818,1072,0,0
-399,-48,0,0,0,0,0,0,0,0,0,-1,825,1072,0,0
-392,-48,0,0,0,0,0,0,0,0,0,-1,832,1072,0,0
-385,-48,0,0,0,0,0,0,0,0,0,-1,839,1072,0,0
-378,-48,0,0,0,0,0,0,0,0,0,-1,846,1072,0,0
-371,-48,0,0,0,0,0,0,0,0,0,-1,853,1072,0,0
-364,-48,0,0,0,0,0,0,0,0,0,-1,860,1072,0,0
-357,-48,0,0,0,0,0,0,0,0,0,-1,867,1072,0,0
-350,-48,0,0,0,0,0,0,0,0,0,-1,874,1072,0,0
-343,-48,0,0,0,0,0,0,0,0,0,-1,881,1072,0,0
-336,-48,0,0,0,0,0,0,0,0,0,-1,888,1072,0,0
-329,-48,0,0,0,0,0,0,0,0,0,-1,895,1072,0,0
-322,-48,0,0,0,0,0,0,0,0,0,-1,902,1072,0,0
-315,-48,0,0,0,0,0,0,0,0,0,-1,909,1072,0,0
-308,-48,0,0,0,0,0,0,0,0,0,-1,916,1072,0,0
-301,-48,0,0,0,0,0,0,0,0,0,-1,923,1072,0,0
-294,-48,0,0,0,0,0,0,0,0,0,-1,930,1072,0,0
-287,-48,0,0,0,0,0,0,0,0,0,-1,937,1072,0,0
-280,-48,0,0,0,0,0,0,0,0,0,-1,944,1072,0,0
-273,-48,0,0,0,0,0,0,0,0,0,-1,951,1072,0,0
-266,-48,0,0,0,0,0,0,0,0,0,-1,958,1072,0,0
-259,-48,0,0,0,0,0,0,0,0,0,-1,965,1072,0,0
-252,-48,0,0,0,0,0,0,0,0,0,-1,972,1072,0,0
-245,-48,0,0,0,0,0,0,0,0,0,-1,979,1072,0,0
-238,-48,0,0,0,0,0,0,0,0,0,-1,986,1072,0,0
-231,-48,0,0,0,0,0,0,0,0,0,-1,993,1072,0,0
-224,-48,0,0,0,0,0,0,0,0,0,-1,1000,1072,0,0
-217,-48,0,0,0,0,0,0,0,0,0,-1,1007,1072,0,0
-210,-48,0,0,0,0,0,0,0,0,0,-1,1014,1072,0,0
-203,-48,0,0,0,0,0,0,0,0,0,-1,1021,1072,0,0
-196,-48,0,0,0,0,0,0,0,0,0,-1,1028,1072,0,0
-189,-48,0,0,0,0,0,0,0,0,0,-1,1035,1072,0,0
-182,-48,0,0,0,0,0,0,0,0,0,-1,1042,1072,0,0
-175,-48,0,0,0,0,0,0,0,0,0,-1,1049,1072,0,0
-168,-48,0,0,0,0,0,0,0,0,0,-1,1056,1072,0,0
-161,-48,0,0,0,0,0,0,0,0,0,-1,1063,1072,0,0
-154,-48,0,0,0,0,0,0,0,0,0,-1,1070,1072,0,0
-147,-48,0,0,0,0,0,0,0,0,0,-1,1077,1072,0,0
-140,-48,0,0,0,0,0,0,0,0,0,-1,1084,1072,0,0
-133,-48,0,0,0,0,0,0,0,0,0,-1,1091,1072,0,0
-126,-48,0,0,0,0,0,0,0,0,0,-1,1098,1072,0,0
-119,-48,0,0,0,0,0,0,0,0,0,-1,1105,1072,0,0
-112,-48,0,0,0,0,0,0,0,0,0,-1,1112,1072,0,0
-105,-48,0,0,0,0,0,0,0,0,0,-1,1119,1072,0,0
-98,-48,0,0,0,0,0,0,0,0,0,-1,1126,1072,0,0
-91,-48,0,0,0,0,0,0,0,0,0,-1,1133,1072,0,0
-84,-48,0,0,0,0,0,0,0,0,0,-1,1140,1072,0,0
-77,-48,0,0,0,0,0,0,0,0,0,-1,1147,1072,0,0
-70,-48,0,0,0,0,0,0,0,0,0,-1,1154,1072,0,0
-63,-48,0,0,0,0,0,0,0,0,0,-1,1161,1072,0,0
-56,-48,0,0,0,0,0,0,0,0,0,-1,1168,1072,0,0
-49,-48,0,0,0,0,0,0,0,0,0,-1,1175,1072,0,0
-42,-48,0,0,0,0,0,0,0,0,0,-1,1182,1072,0,0
-35,-48,0,0,0,0,0,0,0,0,0,-1,1189,1072,0,0
-28,-48,0,0,0,0,0,0,0,0,0,-1,1196,1072,0,0
-21,-48,0,0,0,0,0,0,0,0,0,-1,1203,1072,0,0
-14,-48,0,0,0,0,0,0,0,0,0,-1,1210,1072,0,0
-7,-48,0,0,0,0,0,0,0,0,0,-1,1217,1072,0,0
0,-48,0,0,0,0,0,0,0,0,0,-1,1224,1072,0,0
7,-48,0,0,0,0,0,0,0,0,0,-1,1231,1072,0,0
14,-48,0,0,0,0,0,0,0,0,0,-1,1238,1072,0,0
21,-48,0,0,0,0,0,0,0,0,0,-1,1245,1072,0,0
28,-48,0,0,0,0,0,0,0,0,0,-1,1252,1072,0,0
35,-48,0,0,0,0,0,0,0,0,0,-1,1259,1072,0,0
42,-48,0,0,0,0,0,0,0,0,0,-1,1266,1072,0,0
49,-48,0,0,0,0,0,0,0,0,0,-1,1273,1072,0,0
56,-48,0,0,0,0,0,0,0,0,0,-1,1280,1072,0,0
63,-48,0,0,0,0,0,0,0,0,0,-1,1287,1072,0,0
70,-48,0,0,0,0,0,0,0,0,0,-1,1294,1072,0,0
77,-48,0,0,0,0,0,0,0,0,0,-1,1301,1072,0,0
84,-48,0,0,0,0,0,0,0,0,0,-1,1308,1072,0,0
91,-48,0,0,0,0,0,0,0,0,0,-1,1315,1072,0,0
98,-48,0,0,0,0,0,0,0,0,0,-1,1322,1072,0,0
105,-48,0,0,0,0,0,0,0,0,0,-1,1329,1072,0,0
112,-48,0,0,0,0,0,0,0,0,0,-1,1336,1072,0,0
119,-48,0,0,0,0,0,0,0,0,0,-1,1343,1072,0,0
126,-48,0,0,0,0,0,0,0,0,0,-1,1350,1072,0,0
133,-48,0,0,0,0,0,0,0,0,0,-1,1357,1072,0,0
140,-48,0,0,0,0,0,0,0,0,0,-1,1364,1072,0,0
147,-48,0,0,0,0,0,0,0,0,0,-1,1371,1072,0,0
154,-48,0,0,0,0,0,0,0,0,0,-1,1378,1072,0,0
161,-48,0,0,0,0,0,0,0,0,0,-1,1385,1072,0,0
168,-48,0,0,0,0,0,0,0,0,0,-1,1392,1072,0,0
175,-48,0,0,0,0,0,0,0,0,0,-1,1399,1072,0,0
182,-48,0,0,0,0,0,0,0,0,0,-1,1406,1072,0,0
189,-48,0,0,0,0,0,0,0,0,0,-1,1413,1072,0,0
196,-48,0,0,0,0,0,0,0,0,0,-1,1420,1072,0,0
203,-48,0,0,0,0,0,0,0,0,0,-1,1427,1072,0,0
210,-48,0,0,0,0,0,0,0,0,0,-1,1434,1072,0,0
217,-48,0,0,0,0,0,0,0,0,0,-1,1441,1072,0,0
224,-48,0,0,0,0,0,0,0,0,0,-1,1448,1072,0,0
231,-48,0,0,0,0,0,0,0,0,0,-1,1455,1072,0,0
238,-48,0,0,0,0,0,0,0,0,0,-1,1462,1072,0,0
245,-48,0,0,0,0,0,0,0,0,0,-1,1469,1072,0,0
252,-48,0,0,0,0,0,0,0,0,0,-1,1476,1072,0,0
259,-48,0,0,0,0,0,0,0,0,0,-1,1483,1072,0,0
266,-48,0,0,0,0,0,0,0,0,0,-1,1490,1072,0,0
273,-48,0,0,0,0,0,0,0,0,0,-1,1497,1072,0,0
280,-48,0,0,0,0,0,0,0,0,0,-1,1504,1072,0,0
287,-48,0,0,0,0,0,0,0,0,0,-1,1511,1072,0,0
294,-48,0,0,0,0,0,0,0,0,0,-1,1518,1072,0,0
301,-48,0,0,0,0,0,0,0,0,0,-1,1525,1072,0,0
308,-48,0,0,0,0,0,0,0,0,0,-1,1532,1072,0,0
315,-48,0,0,0,0,0,0,0,0,0,-1,1539,1072,0,0
322,-48,0,0,0,0,0,0,0,0,0,-1,1546,1072,0,0
329,-48,0,0,0,0,0,0,0,0,0,-1,1553,1072,0,0
336,-48,0,0,0,0,0,0,0,0,0,-1,1560,1072,0,0
343,-48,0,0,0,0,0,0,0,0,0,-1,1567,1072,0,0
350,-48,0,0,0,0,0,0,0,0,0,-1,1574,1072,0,0
357,-48,0,0,0,0,0,0,0,0,0,-1,1581,1072,0,0
364,-48,0,0,0,0,0,0,0,0,0,-1,1588,1072,0,0
371,-48,0,0,0,0,0,0,0,0,0,-1,1595,1072,0,0
378,-48,0,0,0,0,0,0,0,0,0,-1,1602,1072,0,0
385,-48,0,0,0,0,0,0,0,0,0,-1,1609,1072,0,0
392,-48,0,0,0,0,0,0,0,0,0,-1,1616,1072,0,0
399,-48,0,0,0,0,0,0,0,0,0,-1,1623,1072,0,0
406,-48,0,0,0,0,0,0,0,0,0,-1,1630,1072,0,0
413,-48,0,0,0,0,0,0,0,0,0,-1,1637,1072,0,0
420,-48,0,0,0,0,0,0,0,0,0,-1,1644,1072,0,0
427,-48,0,0,0,0,0,0,0,0,0,-1,1651,1072,0,0
434,-48,0,0,0,0,0,0,0,0,0,-1,1658,1072,0,0
441,-48,0,0,0,0,0,0,0,0,0,-1,1665,1072,0,0
448,-48,0,0,0,0,0,0,0,0,0,-1,1672,1072,0,0
455,-48,0,0,0,0,0,0,0,0,0,-1,1679,1072,0,0
462,-48,0,0,0,0,0,0,0,0,0,-1,1686,1072,0,0
469,-48,0,0,0,0,0,0,0,0,0,-1,1693,1072,0,0
476,-48,0,0,0,0,0,0,0,0,0,-1,1700,1072,0,0
483,-48,0,0,0,0,0,0,0,0,0,-1,1707,1072,0,0
490,-48,0,0,0,0,0,0,0,0,0,-1,1714,1072,0,0
497,-48,0,0,0,0,0,0,0,0,0,-1,1721,1072,0,0
504,-48,0,0,0,0,0,0,0,0,0,-1,1728,1072,0,0
511,-48,0,0,0,0,0,0,0,0,0,-1,1735,1072,0,0
518,-48,0,0,0,0,0,0,0,0,0,-1,1742,1072,0,0
525,-48,0,0,0,0,0,0,0,0,0,-1,1749,1072,0,0
532,-48,0,0,0,0,0,0,0,0,0,-1,1756,1072,0,0
539,-48,0,0,0,0,0,0,0,0,0,-1,1763,1072,0,0
546,-48,0,0,0,0,0,0,0,0,0,-1,1770,1072,0,0
553,-48,0,0,0,0,0,0,0,0,0,-1,1777,1072,0,0
560,-48,0,0,0,0,0,0,0,0,0,-1,1784,1072,0,0
567,-48,0,0,0,0,0,0,0,0,0,-1,1791,1072,0,0
574,-48,0,0,0,0,0,0,0,0,0,-1,1798,1072,0,0
581,-48,0,0,0,0,0,0,0,0,0,-1,1805,1072,0,0
588,-48,0,0,0,0,0,0,0,0,0,-1,1812,1072,0,0
595,-48,0,0,0,0,0,0,0,0,0,-1,1819,1072,0,0
602,-48,0,0,0,0,0,0,0,0,0,-1,1826,1072,0,0
609,-48,0,0,0,0,0,0,0,0,0,-1,1833,1072,0,0
616,-48,0,0,0,0,0,0,0,0,0,-1,1840,1072,0,0
623,-48,0,0,0,0,0,0,0,0,0,-1,1847,1072,0,0
630,-48,0,0,0,0,0,0,0,0,0,-1,1854,1072,0,0
637,-48,0,0,0,0,0,0,0,0,0,-1,1861,1072,0,0
644,-48,0,0,0,0,0,0,0,0,0,-1,1868,1072,0,0
651,-48,21.652,2.78357,-0.0054253,-0.00266807,0.00124591,-0.0021885,-0.00590487,1.20336,0.00344701,0.0340111,1875,1072,21.652,-2.78353
658,-48,21.6759,2.75122,-0.00332918,-0.00196559,0.000834406,-0.00156985,-0.00372491,1.12794,0.00215941,0.037816,1882,1072,21.6759,-2.75125
665,-48,21.5403,2.85876,-0.0018072,-0.00142362,0.000578942,-0.00100553,-0.0022253,0.945349,0.00128676,0.041436,1889,1072,21.5403,-2.85878
672,-48,21.4272,2.77002,-0.000733602,-0.00122006,0.00114605,0.000194746,-0.0021484,0.680834,0.0015014,0.0403896,1896,1072,21.4272,-2.77
679,-48,21.4581,2.69238,-0.000542447,-0.00141023,0.00242682,0.00148897,-0.00344164,0.696938,0.00292015,0.0383843,1903,1072,21.4581,-2.69236
686,-48,21.5531,2.97546,-0.000856566,-0.00171222,0.00382018,0.00255967,-0.00512845,0.729635,0.00452057,0.0387729,1910,1072,21.5531,-2.9755
693,-48,21.73,3.14368,-0.00135547,-0.00206895,0.00508487,0.00338515,-0.00680958,0.750377,0.00599559,0.0401438,1917,1072,21.7299,-3.14367
700,-48,21.7885,2.88586,-0.00194602,-0.00233905,0.00613107,0.00399169,-0.00827675,0.769378,0.00722577,0.0355888,1924,1072,21.7884,-2.88581
707,-48,21.7754,2.72632,-0.0024326,-0.00250236,0.00684816,0.00438076,-0.00931573,0.782852,0.00807696,0.0278171,1931,1072,21.7754,-2.72629
714,-48,21.7206,2.85767,-0.00285122,-0.00261753,0.00734127,0.00460783,-0.0100766,0.793355,0.00867181,0.0251266,1938,1072,21.7206,-2.8577
721,-48,21.6188,3.63464,-0.00323668,-0.00256177,0.00753382,0.00464215,-0.0104406,0.807779,0.00891995,0.0401666,1945,1072,21.6187,-3.63464
728,-48,21.2201,4.24219,-0.00361921,-0.00231278,0.00732727,0.00439033,-0.0103223,0.829855,0.00872146,0.0350735,1952,1072,21.2201,-4.24216
735,-48,21.2755,4.18372,-0.0039953,-0.00192075,0.00674424,0.00386551,-0.00978157,0.861701,0.00812218,0.016847,1959,1072,21.2755,-4.18371
742,-48,21.2175,4.14221,-0.00423247,-0.0012385,0.00592526,0.00337595,-0.00884692,0.909131,0.00728871,0.0134512,1966,1072,21.2175,-4.14225
749,-48,21.2637,4.08081,-0.0038139,-0.00042566,0.00521405,0.00336259,-0.00760215,0.942475,0.00648632,0.0125328,1973,1072,21.2636,-4.08075
756,-48,21.2832,4.04065,-0.00297605,0.000514994,0.00477975,0.00385797,-0.00631903,0.96047,0.00593269,0.0119514,1980,1072,21.2832,-4.04067
763,-48,21.2662,4.02515,-0.00192114,0.00261968,0.00433417,0.0052421,-0.00454356,1.02667,0.00565455,0.0118856,1987,1072,21.2662,-4.02515
770,-48,21.2682,3.98206,-0.00082314,0.00462854,0.00409093,0.00681859,-0.00301318,1.07928,0.00581638,0.0126284,1994,1072,21.2681,-3.98211
777,-48,21.2253,3.92908,0.0006907,0.00713183,0.00479363,0.00968629,-0.00186376,1.08119,0.0071601,0.0111116,2001,1072,21.2254,-3.92907
784,-48,21.2083,3.83984,0.00231692,0.0100182,0.00667348,0.0138723,-0.00153717,1.04707,0.00980082,0.0227192,2008,1072,21.2083,-3.83985
791,-48,21.1741,3.75366,0.00429322,0.0136823,0.00954153,0.0196217,-0.00164612,1.01402,0.0136629,0.0404085,2015,1072,21.1741,-3.75363
798,-48,21.1329,3.69775,0,0,0,0,0,0,0,-1,2022,1072,21.1329,-3.69771
805,-48,21.0413,3.62695,0,0,0,0,0,0,0,-1,2029,1072,21.0412,-3.62697
812,-48,21.5913,3.44189,0,0,0,0,0,0,0,-1,2036,1072,21.5913,-3.44186
-700,-55,-13.9258,1.35681,-0.015906,0.0383866,-0.0157771,0.0426384,-0.0201577,-1.30756,0.0370216,0.0450538,524,1079,-13.9258,-1.35676
-693,-55,-14.049,0.811401,-0.0180215,0.0222033,-0.0094322,0.0243052,-0.0201234,-1.35154,0.0256887,0.0480656,531,1079,-14.049,-0.8114
-686,-55,-13.9919,0.59314,0,0,0,0,0,0,0,-1,538,1079,-13.9919,-0.593084
-679,-55,-13.4431,-0.0526123,-0.0164478,0.00644235,-0.00221708,0.00665511,-0.0166606,-1.47512,0.0138683,0.0496632,545,1079,-13.4431,0.0525698
-672,-55,-13.462,0.131958,-0.0143227,0.00305403,-0.000307593,0.00305947,-0.0143282,-1.5531,0.0107185,0.0465025,552,1079,-13.462,-0.131949
-665,-55,-13.3831,0.851563,0,0,0,0,0,0,0,-1,559,1079,-13.3831,-0.851611
-658,-55,-13.854,1.0105,-0.00931465,0.000631802,0.00147194,0.000845057,-0.0095279,1.42692,0.00665154,0.0490539,566,1079,-13.854,-1.01045
-651,-55,-13.8775,1.13721,-0.00699162,0.000477268,0.00167291,0.000834852,-0.0073492,1.36022,0.00520014,0.0350799,573,1079,-13.8775,-1.13726
-644,-55,-13.8306,1.44275,-0.00518689,-0.000100066,0.00180777,0.000476937,-0.00576389,1.26184,0.00401104,0.0165261,580,1079,-13.8305,-1.44272
-637,-55,-13.8461,1.49011,-0.0039782,-0.000469781,0.000747849,-0.000317022,-0.00413096,1.3693,0.00265461,0.0135386,587,1079,-13.8461,-1.49008
-630,-55,-13.8416,1.58582,-0.00273413,-0.000151941,-0.000867161,0.000112244,-0.00299831,-1.27507,0.00203732,0.0155083,594,1079,-13.8416,-1.58579
-623,-55,-13.8599,1.67151,-0.00190406,-6.83358e-05,-0.0022232,0.00141902,-0.00339142,-0.981169,0.00285407,0.0143807,601,1079,-13.8599,-1.67153
-616,-55,-13.8365,1.72461,-0.00170222,-0.000208713,-0.00341924,0.00254437,-0.0044553,-0.892909,0.00409115,0.0132776,608,1079,-13.8366,-1.72459
-609,-55,-13.8388,1.80139,-0.00184627,-0.000727922,-0.00450185,0.00324935,-0.00582355,-0.847187,0.00530805,0.0136509,615,1079,-13.8388,-1.80134
-602,-55,-13.8601,1.85461,-0.00210483,-0.00158395,-0.00563376,0.00379539,-0.00748416,-0.808496,0.00662732,0.012974,622,1079,-13.8601,-1.85458
-595,-55,-13.7571,1.96265,0,0,0,0,0,0,0,-1,629,1079,-13.7571,-1.96259
-588,-55,-13.8727,1.36646,-0.00214707,-0.00258854,-0.00646979,0.00410575,-0.00884136,-0.768346,0.00763987,0.0291515,636,1079,-13.8728,-1.36642
-581,-55,-14.0682,0.843506,-0.00196455,-0.00269585,-0.00615765,0.0038383,-0.00849869,-0.755742,0.0072902,0.0382112,643,1079,-14.0682,-0.843527
-574,-55,-14.1056,0.887451,-0.00173082,-0.00272847,-0.00561134,0.00340382,-0.00786312,-0.741066,0.00667264,0.0400486,650,1079,-14.1056,-0.887469
-567,-55,-14.1484,1.14478,-0.00132743,-0.00252305,-0.00450959,0.0026238,-0.00647427,-0.7195,0.00540731,0.040322,657,1079,-14.1485,-1.14472
-560,-55,-14.1547,1.32312,-0.000665911,-0.00207351,-0.0028123,0.00152932,-0.00426874,-0.662788,0.00346982,0.0415524,664,1079,-14.1547,-1.32307
-553,-55,-14.1108,0.94043,0.000237352,-0.00138036,-0.000510201,0.000384819,-0.00152782,-0.281369,0.00116815,0.0420503,671,1079,-14.1108,-0.940488
-546,-55,-14.1399,0.711304,0.00135448,-0.000440147,0.00241798,0.00303627,-0.00212194,0.607724,0.00299365,0.0403446,678,1079,-14.1399,-0.711295
-539,-55,-14.118,0.78833,0.0025075,0.000638089,0.0054016,0.00705467,-0.00390908,0.699726,0.00641618,0.0399433,685,1079,-14.118,-0.788357
-532,-55,-14.1364,1.21082,0.00293213,0.00150967,0.00674387,0.00900218,-0.00456037,0.732861,0.00796909,0.038348,692,1079,-14.1364,-1.21077
-525,-55,0,0,0,0,0,0,0,0,0,-1,699,1079,0,0
-518,-55,0,0,0,0,0,0,0,0,0,-1,706,1079,0,0
-511,-55,0,0,0,0,0,0,0,0,0,-1,713,1079,0,0
-504,-55,0,0,0,0,0,0,0,0,0,-1,720,1079,0,0
-497,-55,0,0,0,0,0,0,0,0,0,-1,727,1079,0,0
-490,-55,0,0,0,0,0,0,0,0,0,-1,734,1079,0,0
-483,-55,0,0,0,0,0,0,0,0,0,-1,741,1079,0,0
-476,-55,0,0,0,0,0,0,0,0,0,-1,748,1079,0,0
-469,-55,0,0,0,0,0,0,0,0,0,-1,755,1079,0,0
-462,-55,0,0,0,0,0,0,0,0,0,-1,762,1079,0,0
-455,-55,0,0,0,0,0,0,0,0,0,-1,769,1079,0,0
-448,-55,0,0,0,0,0,0,0,0,0,-1,776,1079,0,0
-441,-55,0,0,0,0,0,0,0,0,0,-1,783,1079,0,0
-434,-55,0,0,0,0,0,0,0,0,0,-1,790,1079,0,0
-427,-55,0,0,0,0,0,0,0,0,0,-1,797,1079,0,0
-420,-55,0,0,0,0,0,0,0,0,0,-1,804,1079,0,0
-413,-55,0,0,0,0,0,0,0,0,0,-1,811,1079,0,0
-406,-55,0,0,0,0,0,0,0,0,0,-1,818,1079,0,0
-399,-55,0,0,0,0,0,0,0,0,0,-1,825,1079,0,0
-392,-55,0,0,0,0,0,0,0,0,0,-1,832,1079,0,0
-385,-55,0,0,0,0,0,0,0,0,0,-1,839,1079,0,0
-378,-55,0,0,0,0,0,0,0,0,0,-1,846,1079,0,0
-371,-55,0,0,0,0,0,0,0,0,0,-1,853,1079,0,0
-364,-55,0,0,0,0,0,0,0,0,0,-1,860,1079,0,0
-357,-55,0,0,0,0,0,0,0,0,0,-1,867,1079,0,0
-350,-55,0,0,0,0,0,0,0,0,0,-1,874,1079,0,0
-343,-55,0,0,0,0,0,0,0,0,0,-1,881,1079,0,0
-336,-55,0,0,0,0,0,0,0,0,0,-1,888,1079,0,0
-329,-55,0,0,0,0,0,0,0,0,0,-1,895,1079,0,0
-322,-55,0,0,0,0,0,0,0,0,0,-1,902,1079,0,0
-315,-55,0,0,0,0,0,0,0,0,0,-1,909,1079,0,0
-308,-55,0,0,0,0,0,0,0,0,0,-1,916,1079,0,0
-301,-55,0,0,0,0,0,0,0,0,0,-1,923,1079,0,0
-294,-55,0,0,0,0,0,0,0,0,0,-1,930,1079,0,0
-287,-55,0,0,0,0,0,0,0,0,0,-1,937,1079,0,0
-280,-55,0,0,0,0,0,0,0,0,0,-1,944,1079,0,0
-273,-55,0,0,0,0,0,0,0,0,0,-1,951,1079,0,0
-266,-55,0,0,0,0,0,0,0,0,0,-1,958,1079,0,0
-259,-55,0,0,0,0,0,0,0,0,0,-1,965,1079,0,0
-252,-55,0,0,0,0,0,0,0,0,0,-1,972,1079,0,0
-245,-55,0,0,0,0,0,0,0,0,0,-1,979,1079,0,0
-238,-55,0,0,0,0,0,0,0,0,0,-1,986,1079,0,0
-231,-55,0,0,0,0,0,0,0,0,0,-1,993,1079,0,0
-224,-55,0,0,0,0,0,0,0,0,0,-1,1000,1079,0,0
-217,-55,0,0,0,0,0,0,0,0,0,-1,1007,1079,0,0
-210,-55,0,0,0,0,0,0,0,0,0,-1,1014,1079,0,0
-203,-55,0,0,0,0,0,0,0,0,0,-1,1021,1079,0,0
-196,-55,0,0,0,0,0,0,0,0,0,-1,1028,1079,0,0
-189,-55,0,0,0,0,0,0,0,0,0,-1,1035,1079,0,0
-182,-55,0,0,0,0,0,0,0,0,0,-1,1042,1079,0,0
-175,-55,0,0,0,0,0,0,0,0,0,-1,1049,1079,0,0
-168,-55,0,0,0,0,0,0,0,0,0,-1,1056,1079,0,0
-161,-55,0,0,0,0,0,0,0,0,0,-1,1063,1079,0,0
-154,-55,0,0,0,0,0,0,0,0,0,-1,1070,1079,0,0
-147,-55,0,0,0,0,0,0,0,0,0,-1,1077,1079,0,0
-140,-55,0,0,0,0,0,0,0,0,0,-1,1084,1079,0,0
-133,-55,0,0,0,0,0,0,0,0,0,-1,1091,1079,0,0
-126,-55,0,0,0,0,0,0,0,0,0,-1,1098,1079,0,0
-119,-55,0,0,0,0,0,0,0,0,0,-1,1105,1079,0,0
-112,-55,0,0,0,0,0,0,0,0,0,-1,1112,1079,0,0
-105,-55,0,0,0,0,0,0,0,0,0,-1,1119,1079,0,0
-98,-55,0,0,0,0,0,0,0,0,0,-1,1126,1079,0,0
-91,-55,0,0,0,0,0,0,0,0,0,-1,1133,1079,0,0
-84,-55,0,0,0,0,0,0,0,0,0,-1,1140,1079,0,0
-77,-55,0,0,0,0,0,0,0,0,0,-1,1147,1079,0,0
-70,-55,0,0,0,0,0,0,0,0,0,-1,1154,1079,0,0
-63,-55,0,0,0,0,0,0,0,0,0,-1,1161,1079,0,0
-56,-55,0,0,0,0,0,0,0,0,0,-1,1168,1079,0,0
-49,-55,0,0,0,0,0,0,0,0,0,-1,1175,1079,0,0
-42,-55,0,0,0,0,0,0,0,0,0,-1,1182,1079,0,0
-35,-55,0,0,0,0,0,0,0,0,0,-1,1189,1079,0,0
-28,-55,0,0,0,0,0,0,0,0,0,-1,1196,1079,0,0
-21,-55,0,0,0,0,0,0,0,0,0,-1,1203,1079,0,0
-14,-55,0,0,0,0,0,0,0,0,0,-1,1210,1079,0,0
-7,-55,0,0,0,0,0,0,0,0,0,-1,1217,1079,0,0
0,-55,0,0,0,0,0,0,0,0,0,-1,1224,1079,0,0
7,-55,0,0,0,0,0,0,0,0,0,-1,1231,1079,0,0
14,-55,0,0,0,0,0,0,0,0,0,-1,1238,1079,0,0
21,-55,0,0,0,0,0,0,0,0,0,-1,1245,1079,0,0
28,-55,0,0,0,0,0,0,0,0,0,-1,1252,1079,0,0
35,-55,0,0,0,0,0,0,0,0,0,-1,1259,1079,0,0
42,-55,0,0,0,0,0,0,0,0,0,-1,1266,1079,0,0
49,-55,0,0,0,0,0,0,0,0,0,-1,1273,1079,0,0
56,-55,0,0,0,0,0,0,0,0,0,-1,1280,1079,0,0
63,-55,0,0,0,0,0,0,0,0,0,-1,1287,1079,0,0
70,-55,0,0,0,0,0,0,0,0,0,-1,1294,1079,0,0
77,-55,0,0,0,0,0,0,0,0,0,-1,1301,1079,0,0
84,-55,0,0,0,0,0,0,0,0,0,-1,1308,1079,0,0
91,-55,0,0,0,0,0,0,0,0,0,-1,1315,1079,0,0
98,-55,0,0,0,0,0,0,0,0,0,-1,1322,1079,0,0
105,-55,0,0,0,0,0,0,0,0,0,-1,1329,1079,0,0
112,-55,0,0,0,0,0,0,0,0,0,-1,1336,1079,0,0
119,-55,0,0,0,0,0,0,0,0,0,-1,1343,1079,0,0
126,-55,0,0,0,0,0,0,0,0,0,-1,1350,1079,0,0
133,-55,0,0,0,0,0,0,0,0,0,-1,1357,1079,0,0
140,-55,0,0,0,0,0,0,0,0,0,-1,1364,1079,0,0
147,-55,0,0,0,0,0,0,0,0,0,-1,1371,1079,0,0
154,-55,0,0,0,0,0,0,0,0,0,-1,1378,1079,0,0
161,-55,0,0,0,0,0,0,0,0,0,-1,1385,1079,0,0
168,-55,0,0,0,0,0,0,0,0,0,-1,1392,1079,0,0
175,-55,0,0,0,0,0,0,0,0,0,-1,1399,1079,0,0
182,-55,0,0,0,0,0,0,0,0,0,-1,1406,1079,0,0
189,-55,0,0,0,0,0,0,0,0,0,-1,1413,1079,0,0
196,-55,0,0,0,0,0,0,0,0,0,-1,1420,1079,0,0
203,-55,0,0,0,0,0,0,0,0,0,-1,1427,1079,0,0
210,-55,0,0,0,0,0,0,0,0,0,-1,1434,1079,0,0
217,-55,0,0,0,0,0,0,0,0,0,-1,1441,1079,0,0
224,-55,0,0,0,0,0,0,0,0,0,-1,1448,1079,0,0
231,-55,0,0,0,0,0,0,0,0,0,-1,1455,1079,0,0
238,-55,0,0,0,0,0,0,0,0,0,-1,1462,1079,0,0
245,-55,0,0,0,0,0,0,0,0,0,-1,1469,1079,0,0
252,-55,0,0,0,0,0,0,0,0,0,-1,1476,1079,0,0
259,-55,0,0,0,0,0,0,0,0,0,-1,1483,1079,0,0
266,-55,0,0,0,0,0,0,0,0,0,-1,1490,1079,0,0
273,-55,0,0,0,0,0,0,0,0,0,-1,1497,1079,0,0
280,-55,0,0,0,0,0,0,0,0,0,-1,1504,1079,0,0
287,-55,0,0,0,0,0,0,0,0,0,-1,1511,1079,0,0
294,-55,0,0,0,0,0,0,0,0,0,-1,1518,1079,0,0
301,-55,0,0,0,0,0,0,0,0,0,-1,1525,1079,0,0
308,-55,0,0,0,0,0,0,0,0,0,-1,1532,1079,0,0
315,-55,0,0,0,0,0,0,0,0,0,-1,1539,1079,0,0
322,-55,0,0,0,0,0,0,0,0,0,-1,1546,1079,0,0
329,-55,0,0,0,0,0,0,0,0,0,-1,1553,1079,0,0
336,-55,0,0,0,0,0,0,0,0,0,-1,1560,1079,0,0
343,-55,0,0,0,0,0,0,0,0,0,-1,1567,1079,0,0
350,-55,0,0,0,0,0,0,0,0,0,-1,1574,1079,0,0
357,-55,0,0,0,0,0,0,0,0,0,-1,1581,1079,0,0
364,-55,0,0,0,0,0,0,0,0,0,-1,1588,1079,0,0
371,-55,0,0,0,0,0,0,0,0,0,-1,1595,1079,0,0
378,-55,0,0,0,0,0,0,0,0,0,-1,1602,1079,0,0
385,-55,0,0,0,0,0,0,0,0,0,-1,1609,1079,0,0
392,-55,0,0,0,0,0,0,0,0,0,-1,1616,1079,0,0
399,-55,0,0,0,0,0,0,0,0,0,-1,1623,1079,0,0
406,-55,0,0,0,0,0,0,0,0,0,-1,1630,1079,0,0
413,-55,0,0,0,0,0,0,0,0,0,-1,1637,1079,0,0
420,-55,0,0,0,0,0,0,0,0,0,-1,1644,1079,0,0
427,-55,0,0,0,0,0,0,0,0,0,-1,1651,1079,0,0
434,-55,0,0,0,0,0,0,0,0,0,-1,1658,1079,0,0
441,-55,0,0,0,0,0,0,0,0,0,-1,1665,1079,0,0
448,-55,0,0,0,0,0,0,0,0,0,-1,1672,1079,0,0
455,-55,0,0,0,0,0,0,0,0,0,-1,1679,1079,0,0
462,-55,0,0,0,0,0,0,0,0,0,-1,1686,1079,0,0
469,-55,0,0,0,0,0,0,0,0,0,-1,1693,1079,0,0
476,-55,0,0,0,0,0,0,0,0,0,-1,1700,1079,0,0
483,-55,0,0,0,0,0,0,0,0,0,-1,1707,1079,0,0
490,-55,0,0,0,0,0,0,0,0,0,-1,1714,1079,0,0
497,-55,0,0,0,0,0,0,0,0,0,-1,1721,1079,0,0
504,-55,0,0,0,0,0,0,0,0,0,-1,1728,1079,0,0
511,-55,0,0,0,0,0,0,0,0,0,-1,1735,1079,0,0
518,-55,0,0,0,0,0,0,0,0,0,-1,1742,1079,0,0
525,-55,0,0,0,0,0,0,0,0,0,-1,1749,1079,0,0
532,-55,0,0,0,0,0,0,0,0,0,-1,1756,1079,0,0
539,-55,0,0,0,0,0,0,0,0,0,-1,1763,1079,0,0
546,-55,0,0,0,0,0,0,0,0,0,-1,1770,1079,0,0
553,-55,0,0,0,0,0,0,0,0,0,-1,1777,1079,0,0
560,-55,0,0,0,0,0,0,0,0,0,-1,1784,1079,0,0
567,-55,0,0,0,0,0,0,0,0,0,-1,1791,1079,0,0
574,-55,0,0,0,0,0,0,0,0,0,-1,1798,1079,0,0
581,-55,0,0,0,0,0,0,0,0,0,-1,1805,1079,0,0
588,-55,0,0,0,0,0,0,0,0,0,-1,1812,1079,0,0
595,-55,0,0,0,0,0,0,0,0,0,-1,1819,1079,0,0
602,-55,0,0,0,0,0,0,0,0,0,-1,1826,1079,0,0
609,-55,0,0,0,0,0,0,0,0,0,-1,1833,1079,0,0
616,-55,0,0,0,0,0,0,0,0,0,-1,1840,1079,0,0
623,-55,0,0,0,0,0,0,0,0,0,-1,1847,1079,0,0
630,-55,0,0,0,0,0,0,0,0,0,-1,1854,1079,0,0
637,-55,0,0,0,0,0,0,0,0,0,-1,1861,1079,0,0
644,-55,0,0,0,0,0,0,0,0,0,-1,1868,1079,0,0
651,-55,21.8986,2.85376,-0.00416154,-0.00259785,0.000276511,-0.00255039,-0.00420899,1.40083,0.00244818,0.03782,1875,1079,21.8986,-2.8538
658,-55,21.832,2.875,-0.0023585,-0.0018204,-1.36011e-05,-0.00182006,-0.00235885,-1.54554,0.00142728,0.0357419,1882,1079,21.832,-2.87502
665,-55,21.557,2.82751,-0.00107403,-0.00124747,-0.00010302,-0.00102609,-0.00129541,-0.435547,0.000789302,0.0382873,1889,1079,21.5569,-2.82751
672,-55,21.5016,2.71985,-0.000264805,-0.00107839,0.0006937,0.000132579,-0.00147577,0.520215,0.00103089,0.0406958,1896,1079,21.5015,-2.7199
679,-55,21.5514,2.76514,-0.000290999,-0.00127918,0.00212076,0.00139246,-0.00296264,0.670951,0.00256832,0.0397539,1903,1079,21.5514,-2.76514
686,-55,21.6323,2.92615,-0.000753624,-0.00158848,0.00360239,0.00245544,-0.00479755,0.727718,0.00425967,0.0386122,1910,1079,21.6323,-2.92609
693,-55,21.7198,2.88586,-0.00135438,-0.00194658,0.00492289,0.00328131,-0.00658227,0.755361,0.00580007,0.0372526,1917,1079,21.7198,-2.88587
700,-55,21.7709,2.70764,-0.00200141,-0.00220672,0.00598659,0.0038834,-0.00809153,0.776826,0.00705459,0.0322247,1924,1079,21.7709,-2.70763
707,-55,21.7454,2.66772,-0.00252983,-0.00236825,0.00673666,0.00428811,-0.00918618,0.791394,0.00794887,0.0266,1931,1079,21.7454,-2.66767
714,-55,21.7294,2.89587,-0.00297181,-0.00247472,0.00723285,0.00451386,-0.00996038,0.802573,0.00855164,0.0298509,1938,1079,21.7294,-2.89588
721,-55,21.6248,3.6825,-0.00335854,-0.00242057,0.00740807,0.00453335,-0.0103125,0.81701,0.00878504,0.037944,1945,1079,21.6247,-3.68252
728,-55,21.1055,4.26721,-0.00373044,-0.00218364,0.00719706,0.00428145,-0.0101955,0.838923,0.00858763,0.031831,1952,1079,21.1054,-4.26718
735,-55,21.212,4.17871,-0.00410412,-0.00180018,0.00663807,0.00378514,-0.00968944,0.871312,0.00802464,0.0166057,1959,1079,21.2121,-4.17872
742,-55,21.2015,4.14026,-0.00435513,-0.0011236,0.00584837,0.0033281,-0.00880683,0.920174,0.00724022,0.0149642,1966,1079,21.2016,-4.14031
749,-55,21.2368,4.0719,-0.00401758,-0.000405249,0.00523968,0.00333083,-0.00775366,0.951375,0.00656726,0.0121009,1973,1079,21.2368,-4.07184
756,-55,21.2286,4.0249,-0.00325062,0.000445617,0.00495375,0.00388476,-0.00668977,0.963939,0.00617639,0.0111777,1980,1079,21.2286,-4.02487
763,-55,21.2057,4.01868,-0.00223036,0.00255739,0.00455357,0.005308,-0.00498096,1.0274,0.00594133,0.0137616,1987,1079,21.2056,-4.01868
770,-55,21.2156,3.96179,-0.00119775,0.00450779,0.00443839,0.00693116,-0.00362112,1.07103,0.00619146,0.0148825,1994,1079,21.2156,-3.96183
777,-55,21.2068,3.89966,0.000239517,0.00693626,0.00532529,0.00987838,-0.0027026,1.06605,0.00764733,0.0126921,2001,1079,21.2068,-3.8997
784,-55,21.1633,3.83459,0.00184806,0.00980134,0.00732761,0.0141618,-0.00251242,1.03401,0.0103805,0.0281434,2008,1079,21.1633,-3.83457
791,-55,21.1277,3.74768,0.00391708,0.0135173,0.0102732,0.0200565,-0.00262215,1.00395,0.0143253,0.0431191,2015,1079,21.1277,-3.74766
798,-55,21.1162,3.68628,0,0,0,0,0,0,0,-1,2022,1079,21.1163,-3.6863
805,-55,21.1599,3.78503,0,0,0,0,0,0,0,-1,2029,1079,21.1598,-3.78505
812,-55,21.2681,3.14148,0,0,0,0,0,0,0,-1,2036,1079,21.2681,-3.1415
-700,-62,-13.6945,0.640381,-0.00269047,0.0356879,-0.0137725,0.0401188,-0.00712136,-1.25954,0.0294085,0.048421,524,1086,-13.6945,-0.640365
-693,-62,-13.5763,0.526611,-0.0052767,0.0201096,-0.00845005,0.022665,-0.00783214,-1.27712,0.0182886,0.0482962,531,1086,-13.5763,-0.526615
-686,-62,-13.1913,0.109131,0,0,0,0,0,0,0,-1,538,1086,-13.1914,-0.109138
-679,-62,-12.8113,0.444946,-0.00650519,0.00507445,-0.00224527,0.00549456,-0.0069253,-1.38583,0.00718645,0.0452897,545,1086,-12.8113,-0.444929
-672,-62,-13.4466,0.414429,-0.00608226,0.00194438,-0.000560624,0.00198335,-0.00612122,-1.5014,0.00487823,0.0459378,552,1086,-13.4466,-0.414405
-665,-62,-13.615,0.880005,0,0,0,0,0,0,0,-1,559,1086,-13.615,-0.880057
-658,-62,-13.7926,1.01978,-0.0043567,-5.55894e-05,0.00109231,0.000205913,-0.0046182,1.33582,0.00314968,0.049144,566,1086,-13.7926,-1.01976
-651,-62,-13.798,1.27515,-0.0034146,-3.7839e-05,0.0013261,0.000420677,-0.00387312,1.2379,0.00273312,0.0360408,573,1086,-13.798,-1.2752
-644,-62,-13.7706,1.40002,-0.00275559,-0.000499009,0.00153249,0.000275739,-0.00353033,1.10272,0.00245065,0.0119656,580,1086,-13.7706,-1.40002
-637,-62,-13.7769,1.47314,-0.00253485,-0.000707408,0.000548464,-0.000555438,-0.00268682,1.30049,0.00163777,0.0107811,587,1086,-13.7769,-1.47311
-630,-62,-13.7982,1.56775,-0.00215483,-0.000384281,-0.00107895,0.000126094,-0.0026652,-1.12896,0.00182029,0.0121661,594,1086,-13.7982,-1.56773
-623,-62,-13.8073,1.65723,-0.00191784,-0.000249111,-0.00235142,0.00141158,-0.00357854,-0.955886,0.00297022,0.0135531,601,1086,-13.8073,-1.65723
-616,-62,-13.7717,1.73096,-0.0020125,-0.000364614,-0.00343743,0.00234624,-0.00472335,-0.903028,0.00415783,0.0135516,608,1086,-13.7717,-1.73096
-609,-62,-13.7556,1.82336,-0.00220532,-0.000851089,-0.00450424,0.00302665,-0.00608306,-0.860004,0.00535726,0.0133155,615,1086,-13.7556,-1.82335
-602,-62,-13.7464,1.89307,-0.00248216,-0.00167014,-0.00564548,0.00358391,-0.00773621,-0.821295,0.00668063,0.0130626,622,1086,-13.7464,-1.8931
-595,-62,-13.659,2.04883,0,0,0,0,0,0,0,-1,629,1086,-13.659,-2.04888
-588,-62,-13.8234,1.55823,-0.002583,-0.0026281,-0.00657754,0.00397203,-0.00918312,-0.783684,0.00779123,0.0282543,636,1086,-13.8234,-1.55819
-581,-62,-14.0472,1.03027,-0.00240503,-0.00271158,-0.00631564,0.0037592,-0.00887581,-0.773266,0.00749155,0.0357222,643,1086,-14.0472,-1.03021
-574,-62,-14.131,0.907837,-0.00216276,-0.00272997,-0.00583684,0.00339736,-0.00829009,-0.761123,0.00694205,0.0367597,650,1086,-14.1311,-0.907853
-567,-62,-14.0938,1.20374,-0.00174299,-0.00250589,-0.00482969,0.00272028,-0.00696917,-0.74599,0.00577071,0.0397869,657,1086,-14.0937,-1.20375
-560,-62,-13.9666,1.12805,-0.00106109,-0.0020563,-0.00325105,0.00173021,-0.00484761,-0.709458,0.00393731,0.0410746,664,1086,-13.9666,-1.12806
-553,-62,-13.9456,0.97998,-0.000143437,-0.00140053,-0.00109713,0.000492443,-0.00203641,-0.525272,0.00154809,0.037818,671,1086,-13.9456,-0.980041
-546,-62,-14.042,0.885742,0.000988789,-0.000564334,0.00165605,0.00204132,-0.00161686,0.566159,0.00211678,0.0338926,678,1086,-14.042,-0.885726
-539,-62,-14.1688,1.052,0.00216805,0.000318816,0.00453729,0.00587398,-0.00338711,0.684883,0.00541077,0.0394059,685,1086,-14.1687,-1.05206
-532,-62,-14.1981,1.354,0.00247166,0.000757088,0.00579938,0.00747677,-0.00424802,0.712018,0.00685434,0.0393595,692,1086,-14.198,-1.35397
-525,-62,0,0,0,0,0,0,0,0,0,-1,699,1086,0,0
-518,-62,0,0,0,0,0,0,0,0,0,-1,706,1086,0,0
-511,-62,0,0,0,0,0,0,0,0,0,-1,713,1086,0,0
-504,-62,0,0,0,0,0,0,0,0,0,-1,720,1086,0,0
-497,-62,0,0,0,0,0,0,0,0,0,-1,727,1086,0,0
-490,-62,0,0,0,0,0,0,0,0,0,-1,734,1086,0,0
-483,-62,0,0,0,0,0,0,0,0,0,-1,741,1086,0,0
-476,-62,0,0,0,0,0,0,0,0,0,-1,748,1086,0,0
-469,-62,0,0,0,0,0,0,0,0,0,-1,755,1086,0,0
-462,-62,0,0,0,0,0,0,0,0,0,-1,762,1086,0,0
-455,-62,0,0,0,0,0,0,0,0,0,-1,769,1086,0,0
-448,-62,0,0,0,0,0,0,0,0,0,-1,776,1086,0,0
-441,-62,0,0,0,0,0,0,0,0,0,-1,783,1086,0,0
-434,-62,0,0,0,0,0,0,0,0,0,-1,790,1086,0,0
-427,-62,0,0,0,0,0,0,0,0,0,-1,797,1086,0,0
-420,-62,0,0,0,0,0,0,0,0,0,-1,804,1086,0,0
-413,-62,0,0,0,0,0,0,0,0,0,-1,811,1086,0,0
-406,-62,0,0,0,0,0,0,0,0,0,-1,818,1086,0,0
-399,-62,0,0,0,0,0,0,0,0,0,-1,825,1086,0,0
-392,-62,0,0,0,0,0,0,0,0,0,-1,832,1086,0,0
-385,-62,0,0,0,0,0,0,0,0,0,-1,839,1086,0,0
-378,-62,0,0,0,0,0,0,0,0,0,-1,846,1086,0,0
-371,-62,0,0,0,0,0,0,0,0,0,-1,853,1086,0,0
-364,-62,0,0,0,0,0,0,0,0,0,-1,860,1086,0,0
-357,-62,0,0,0,0,0,0,0,0,0,-1,867,1086,0,0
-350,-62,0,0,0,0,0,0,0,0,0,-1,874,1086,0,0
-343,-62,0,0,0,0,0,0,0,0,0,-1,881,1086,0,0
-336,-62,0,0,0,0,0,0,0,0,0,-1,888,1086,0,0
-329,-62,0,0,0,0,0,0,0,0,0,-1,895,1086,0,0
-322,-62,0,0,0,0,0,0,0,0,0,-1,902,1086,0,0
-315,-62,0,0,0,0,0,0,0,0,0,-1,909,1086,0,0
-308,-62,0,0,0,0,0,0,0,0,0,-1,916,1086,0,0
-301,-62,0,0,0,0,0,0,0,0,0,-1,923,1086,0,0
-294,-62,0,0,0,0,0,0,0,0,0,-1,930,1086,0,0
-287,-62,0,0,0,0,0,0,0,0,0,-1,937,1086,0,0
-280,-62,0,0,0,0,0,0,0,0,0,-1,944,1086,0,0
-273,-62,0,0,0,0,0,0,0,0,0,-1,951,1086,0,0
-266,-62,0,0,0,0,0,0,0,0,0,-1,958,1086,0,0
-259,-62,0,0,0,0,0,0,0,0,0,-1,965,1086,0,0
-252,-62,0,0,0,0,0,0,0,0,0,-1,972,1086,0,0
-245,-62,0,0,0,0,0,0,0,0,0,-1,979,1086,0,0
-238,-62,0,0,0,0,0,0,0,0,0,-1,986,1086,0,0
-231,-62,0,0,0,0,0,0,0,0,0,-1,993,1086,0,0
-224,-62,0,0,0,0,0,0,0,0,0,-1,1000,1086,0,0
-217,-62,0,0,0,0,0,0,0,0,0,-1,1007,1086,0,0
-210,-62,0,0,0,0,0,0,0,0,0,-1,1014,1086,0,0
-203,-62,0,0,0,0,0,0,0,0,0,-1,1021,1086,0,0
-196,-62,0,0,0,0,0,0,0,0,0,-1,1028,1086,0,0
-189,-62,0,0,0,0,0,0,0,0,0,-1,1035,1086,0,0
-182,-62,0,0,0,0,0,0,0,0,0,-1,1042,1086,0,0
-175,-62,0,0,0,0,0,0,0,0,0,-1,1049,1086,0,0
-168,-62,0,0,0,0,0,0,0,0,0,-1,1056,1086,0,0
-161,-62,0,0,0,0,0,0,0,0,0,-1,1063,1086,0,0
-154,-62,0,0,0,0,0,0,0,0,0,-1,1070,1086,0,0
-147,-62,0,0,0,0,0,0,0,0,0,-1,1077,1086,0,0
-140,-62,0,0,0,0,0,0,0,0,0,-1,1084,1086,0,0
-133,-62,0,0,0,0,0,0,0,0,0,-1,1091,1086,0,0
-126,-62,0,0,0,0,0,0,0,0,0,-1,1098,1086,0,0
-119,-62,0,0,0,0,0,0,0,0,0,-1,1105,1086,0,0
-112,-62,0,0,0,0,0,0,0,0,0,-1,1112,1086,0,0
-105,-62,0,0,0,0,0,0,0,0,0,-1,1119,1086,0,0
-98,-62,0,0,0,0,0,0,0,0,0,-1,1126,1086,0,0
-91,-62,0,0,0,0,0,0,0,0,0,-1,1133,1086,0,0
-84,-62,0,0,0,0,0,0,0,0,0,-1,1140,1086,0,0
-77,-62,0,0,0,0,0,0,0,0,0,-1,1147,1086,0,0
-70,-62,0,0,0,0,0,0,0,0,0,-1,1154,1086,0,0
-63,-62,0,0,0,0,0,0,0,0,0,-1,1161,1086,0,0
-56,-62,0,0,0,0,0,0,0,0,0,-1,1168,1086,0,0
-49,-62,0,0,0,0,0,0,0,0,0,-1,1175,1086,0,0
-42,-62,0,0,0,0,0,0,0,0,0,-1,1182,1086,0,0
-35,-62,0,0,0,0,0,0,0,0,0,-1,1189,1086,0,0
-28,-62,0,0,0,0,0,0,0,0,0,-1,1196,1086,0,0
-21,-62,0,0,0,0,0,0,0,0,0,-1,1203,1086,0,0
-14,-62,0,0,0,0,0,0,0,0,0,-1,1210,1086,0,0
-7,-62,0,0,0,0,0,0,0,0,0,-1,1217,1086,0,0
0,-62,0,0,0,0,0,0,0,0,0,-1,1224,1086,0,0
7,-62,0,0,0,0,0,0,0,0,0,-1,1231,1086,0,0
14,-62,0,0,0,0,0,0,0,0,0,-1,1238,1086,0,0
21,-62,0,0,0,0,0,0,0,0,0,-1,1245,1086,0,0
28,-62,0,0,0,0,0,0,0,0,0,-1,1252,1086,0,0
35,-62,0,0,0,0,0,0,0,0,0,-1,1259,1086,0,0
42,-62,0,0,0,0,0,0,0,0,0,-1,1266,1086,0,0
49,-62,0,0,0,0,0,0,0,0,0,-1,1273,1086,0,0
56,-62,0,0,0,0,0,0,0,0,0,-1,1280,1086,0,0
63,-62,0,0,0,0,0,0,0,0,0,-1,1287,1086,0,0
70,-62,0,0,0,0,0,0,0,0,0,-1,1294,1086,0,0
77,-62,0,0,0,0,0,0,0,0,0,-1,1301,1086,0,0
84,-62,0,0,0,0,0,0,0,0,0,-1,1308,1086,0,0
91,-62,0,0,0,0,0,0,0,0,0,-1,1315,1086,0,0
98,-62,0,0,0,0,0,0,0,0,0,-1,1322,1086,0,0
105,-62,0,0,0,0,0,0,0,0,0,-1,1329,1086,0,0
112,-62,0,0,0,0,0,0,0,0,0,-1,1336,1086,0,0
119,-62,0,0,0,0,0,0,0,0,0,-1,1343,1086,0,0
126,-62,0,0,0,0,0,0,0,0,0,-1,1350,1086,0,0
133,-62,0,0,0,0,0,0,0,0,0,-1,1357,1086,0,0
140,-62,0,0,0,0,0,0,0,0,0,-1,1364,1086,0,0
147,-62,0,0,0,0,0,0,0,0,0,-1,1371,1086,0,0
154,-62,0,0,0,0,0,0,0,0,0,-1,1378,1086,0,0
161,-62,0,0,0,0,0,0,0,0,0,-1,1385,1086,0,0
168,-62,0,0,0,0,0,0,0,0,0,-1,1392,1086,0,0
175,-62,0,0,0,0,0,0,0,0,0,-1,1399,1086,0,0
182,-62,0,0,0,0,0,0,0,0,0,-1,1406,1086,0,0
189,-62,0,0,0,0,0,0,0,0,0,-1,1413,1086,0,0
196,-62,0,0,0,0,0,0,0,0,0,-1,1420,1086,0,0
203,-62,0,0,0,0,0,0,0,0,0,-1,1427,1086,0,0
210,-62,0,0,0,0,0,0,0,0,0,-1,1434,1086,0,0
217,-62,0,0,0,0,0,0,0,0,0,-1,1441,1086,0,0
224,-62,0,0,0,0,0,0,0,0,0,-1,1448,1086,0,0
231,-62,0,0,0,0,0,0,0,0,0,-1,1455,1086,0,0
238,-62,0,0,0,0,0,0,0,0,0,-1,1462,1086,0,0
245,-62,0,0,0,0,0,0,0,0,0,-1,1469,1086,0,0
252,-62,0,0,0,0,0,0,0,0,0,-1,1476,1086,0,0
259,-62,0,0,0,0,0,0,0,0,0,-1,1483,1086,0,0
266,-62,0,0,0,0,0,0,0,0,0,-1,1490,1086,0,0
273,-62,0,0,0,0,0,0,0,0,0,-1,1497,1086,0,0
280,-62,0,0,0,0,0,0,0,0,0,-1,1504,1086,0,0
287,-62,0,0,0,0,0,0,0,0,0,-1,1511,1086,0,0
294,-62,0,0,0,0,0,0,0,0,0,-1,1518,1086,0,0
301,-62,0,0,0,0,0,0,0,0,0,-1,1525,1086,0,0
308,-62,0,0,0,0,0,0,0,0,0,-1,1532,1086,0,0
315,-62,0,0,0,0,0,0,0,0,0,-1,1539,1086,0,0
322,-62,0,0,0,0,0,0,0,0,0,-1,1546,1086,0,0
329,-62,0,0,0,0,0,0,0,0,0,-1,1553,1086,0,0
336,-62,0,0,0,0,0,0,0,0,0,-1,1560,1086,0,0
343,-62,0,0,0,0,0,0,0,0,0,-1,1567,1086,0,0
350,-62,0,0,0,0,0,0,0,0,0,-1,1574,1086,0,0
357,-62,0,0,0,0,0,0,0,0,0,-1,1581,1086,0,0
364,-62,0,0,0,0,0,0,0,0,0,-1,1588,1086,0,0
371,-62,0,0,0,0,0,0,0,0,0,-1,1595,1086,0,0
378,-62,0,0,0,0,0,0,0,0,0,-1,1602,1086,0,0
385,-62,0,0,0,0,0,0,0,0,0,-1,1609,1086,0,0
392,-62,0,0,0,0,0,0,0,0,0,-1,1616,1086,0,0
399,-62,0,0,0,0,0,0,0,0,0,-1,1623,1086,0,0
406,-62,0,0,0,0,0,0,0,0,0,-1,1630,1086,0,0
413,-62,0,0,0,0,0,0,0,0,0,-1,1637,1086,0,0
420,-62,0,0,0,0,0,0,0,0,0,-1,1644,1086,0,0
427,-62,0,0,0,0,0,0,0,0,0,-1,1651,1086,0,0
434,-62,0,0,0,0,0,0,0,0,0,-1,1658,1086,0,0
441,-62,0,0,0,0,0,0,0,0,0,-1,1665,1086,0,0
448,-62,0,0,0,0,0,0,0,0,0,-1,1672,1086,0,0
455,-62,0,0,0,0,0,0,0,0,0,-1,1679,1086,0,0
462,-62,0,0,0,0,0,0,0,0,0,-1,1686,1086,0,0
469,-62,0,0,0,0,0,0,0,0,0,-1,1693,1086,0,0
476,-62,0,0,0,0,0,0,0,0,0,-1,1700,1086,0,0
483,-62,0,0,0,0,0,0,0,0,0,-1,1707,1086,0,0
490,-62,0,0,0,0,0,0,0,0,0,-1,1714,1086,0,0
497,-62,0,0,0,0,0,0,0,0,0,-1,1721,1086,0,0
504,-62,0,0,0,0,0,0,0,0,0,-1,1728,1086,0,0
511,-62,0,0,0,0,0,0,0,0,0,-1,1735,1086,0,0
518,-62,0,0,0,0,0,0,0,0,0,-1,1742,1086,0,0
525,-62,0,0,0,0,0,0,0,0,0,-1,1749,1086,0,0
532,-62,0,0,0,0,0,0,0,0,0,-1,1756,1086,0,0
539,-62,0,0,0,0,0,0,0,0,0,-1,1763,1086,0,0
546,-62,0,0,0,0,0,0,0,0,0,-1,1770,1086,0,0
553,-62,0,0,0,0,0,0,0,0,0,-1,1777,1086,0,0
560,-62,0,0,0,0,0,0,0,0,0,-1,1784,1086,0,0
567,-62,0,0,0,0,0,0,0,0,0,-1,1791,1086,0,0
574,-62,0,0,0,0,0,0,0,0,0,-1,1798,1086,0,0
581,-62,0,0,0,0,0,0,0,0,0,-1,1805,1086,0,0
588,-62,0,0,0,0,0,0,0,0,0,-1,1812,1086,0,0
595,-62,0,0,0,0,0,0,0,0,0,-1,1819,1086,0,0
602,-62,0,0,0,0,0,0,0,0,0,-1,1826,1086,0,0
609,-62,0,0,0,0,0,0,0,0,0,-1,1833,1086,0,0
616,-62,0,0,0,0,0,0,0,0,0,-1,1840,1086,0,0
623,-62,0,0,0,0,0,0,0,0,0,-1,1847,1086,0,0
630,-62,0,0,0,0,0,0,0,0,0,-1,1854,1086,0,0
637,-62,0,0,0,0,0,0,0,0,0,-1,1861,1086,0,0
644,-62,0,0,0,0,0,0,0,0,0,-1,1868,1086,0,0
651,-62,21.8284,2.95386,-0.00254712,-0.00279529,-0.000465643,-0.00218931,-0.0031531,-0.655182,0.00186571,0.0420048,1875,1086,21.8283,-2.95381
658,-62,21.7327,2.92859,-0.00116207,-0.00194932,-0.000634801,-0.000808759,-0.00230263,-0.507872,0.0013489,0.041132,1882,1086,21.7327,-2.92855
665,-62,21.5859,2.73181,-0.000186942,-0.00132821,-0.000577202,5.40808e-05,-0.00156923,-0.395561,0.00106464,0.0395829,1889,1086,21.5859,-2.73183
672,-62,21.6598,2.62695,0.000279913,-0.00115581,0.000414033,0.000390754,-0.00126665,0.261577,0.00100045,0.0390083,1896,1086,21.6598,-2.62692
679,-62,21.749,2.59973,-1.84668e-05,-0.00131942,0.00193292,0.00137049,-0.00270838,0.623088,0.00239679,0.0410995,1903,1086,21.749,-2.59971
686,-62,21.7203,2.77588,-0.000663395,-0.00159009,0.0034484,0.00235265,-0.00460613,0.718615,0.00408727,0.0390443,1910,1086,21.7203,-2.77588
693,-62,21.7358,2.84216,-0.00138057,-0.00190599,0.00476839,0.00313234,-0.0064189,0.757879,0.00562218,0.0370995,1917,1086,21.7359,-2.8422
700,-62,21.7078,2.74878,-0.00208856,-0.0021113,0.00579365,0.00369373,-0.00789359,0.784417,0.00683485,0.0309253,1924,1086,21.7077,-2.74879
707,-62,21.7018,2.73206,-0.00265527,-0.00225341,0.00653041,0.00407916,-0.00898784,0.800777,0.00771964,0.0233101,1931,1086,21.7018,-2.73201
714,-62,21.7589,2.79333,-0.00311601,-0.00232416,0.00700106,0.00429216,-0.00973233,0.813644,0.00829762,0.0247203,1938,1086,21.7589,-2.7933
721,-62,21.6495,4.13672,0,0,0,0,0,0,0,-1,1945,1086,21.6496,-4.13671
728,-62,21.2102,4.23438,-0.0038481,-0.00201738,0.00692684,0.00405431,-0.0099198,0.851091,0.00830148,0.030852,1952,1086,21.2103,-4.23438
735,-62,21.1819,4.17993,-0.00422281,-0.00163024,0.00638413,0.00358788,-0.00944093,0.88556,0.00777109,0.0171603,1959,1086,21.1819,-4.17991
742,-62,21.1633,4.15088,-0.00449615,-0.000935573,0.00564297,0.00320128,-0.008633,0.9382,0.00706835,0.0140918,1966,1086,21.1634,-4.15092
749,-62,21.1597,4.06201,-0.00425532,-0.000293,0.00515172,0.00324537,-0.0077937,0.968962,0.00655125,0.0127172,1973,1086,21.1597,-4.06206
756,-62,21.1327,4.04504,-0.0036045,0.000481449,0.005056,0.00389163,-0.00701468,0.977403,0.00638223,0.0130674,1980,1086,21.1326,-4.04509
763,-62,21.1357,4.01428,-0.00268975,0.00259034,0.00480366,0.00543163,-0.00553104,1.03666,0.00632939,0.0133071,1987,1086,21.1358,-4.01434
770,-62,21.1556,3.94299,-0.00180684,0.00448087,0.00491925,0.00717506,-0.00450104,1.06973,0.00679988,0.0107674,1994,1086,21.1556,-3.94305
777,-62,21.1318,3.85059,-0.0005778,0.00682187,0.00613304,0.0102846,-0.00404057,1.05681,0.00852854,0.0124967,2001,1086,21.1318,-3.85057
784,-62,21.1133,3.77307,0.000869375,0.00963383,0.00840804,0.0147331,-0.00422991,1.02563,0.0114945,0.0258437,2008,1086,21.1133,-3.77303
791,-62,21.074,3.70178,0.00285431,0.01333,0.0116238,0.0208416,-0.00465725,0.997081,0.0156791,0.0434422,2015,1086,21.074,-3.70175
798,-62,21.0656,3.65161,0.00597973,0.0183203,0.0156345,0.028958,-0.00465802,0.973345,0.0210307,0.0469556,2022,1086,21.0655,-3.65166
805,-62,21.0762,3.62756,0.0106349,0.0251354,0.0204599,0.0395917,-0.00382138,0.955677,0.0277561,0.0472289,2029,1086,21.0761,-3.62755
812,-62,20.49,5.04565,0,0,0,0,0,0,0,-1,2036,1086,20.4901,-5.04564
-700,-69,-13.494,0.320679,0.00943359,0.0362313,-0.0103181,0.0397438,0.00592115,-1.24269,0.0247593,0.0492595,524,1093,-13.494,-0.320635
-693,-69,-13.3199,0.287964,0.00600582,0.0213687,-0.00610311,0.0234981,0.00387642,-1.2351,0.0145464,0.0433311,531,1093,-13.3199,-0.287981
-686,-69,-13.2366,0.287842,0.00365882,0.0121662,-0.00312909,0.0131931,0.00263187,-1.25368,0.00806259,0.0437152,538,1093,-13.2366,-0.287902
-679,-69,-13.3365,0.476196,0.0020145,0.00648351,-0.00115276,0.00676334,0.00173467,-1.33266,0.00405626,0.0478166,545,1093,-13.3366,-0.476173
-672,-69,-13.3915,0.622437,0.000893576,0.00318748,0.000132052,0.00319505,0.000885999,1.51348,0.00190468,0.046263,552,1093,-13.3915,-0.622414
-665,-69,-13.4084,0.745117,0.000176337,0.00147795,0.000903157,0.00194035,-0.00028607,1.0976,0.00139871,0.0453166,559,1093,-13.4085,-0.74514
-658,-69,-13.6201,0.979858,-0.000282542,0.000763222,0.001283,0.0016258,-0.00114512,0.978895,0.00160779,0.0458271,566,1093,-13.62,-0.9798
-651,-69,-13.7158,1.28564,-0.000532456,0.000584234,0.00138404,0.00151831,-0.00146653,0.977122,0.00172338,0.032123,573,1093,-13.7158,-1.28563
-644,-69,-13.6888,1.38428,-0.000829749,-1.79724e-05,0.00150283,0.00113281,-0.00198054,0.917293,0.00181957,0.00973691,580,1093,-13.6888,-1.38423
-637,-69,-13.6855,1.47314,-0.00144717,-0.000329019,0.000459488,-0.000164427,-0.00161176,1.22683,0.00102411,0.0121194,587,1093,-13.6855,-1.47313
-630,-69,-13.716,1.5415,-0.00182969,-0.000322718,-0.00121282,0.00035162,-0.00250403,-1.06335,0.00179806,0.0136523,594,1093,-13.716,-1.5415
-623,-69,-13.7064,1.64551,-0.00206245,-0.00029888,-0.00247725,0.00144884,-0.00381017,-0.956383,0.00313665,0.012721,601,1093,-13.7064,-1.64555
-616,-69,-13.67,1.72986,-0.00234679,-0.000421193,-0.00353875,0.0022834,-0.00505138,-0.91822,0.00433408,0.0129023,608,1093,-13.67,-1.72981
-609,-69,-13.6679,1.80334,-0.00257609,-0.000873463,-0.00459314,0.00294659,-0.00639615,-0.877031,0.00551523,0.0117586,615,1093,-13.6679,-1.80339
-602,-69,-13.6722,1.91907,-0.00285267,-0.00166281,-0.0057209,0.00349401,-0.00800949,-0.837208,0.00680997,0.0145891,622,1093,-13.6722,-1.91911
-595,-69,-13.6547,1.97437,-0.00301768,-0.00229517,-0.00650831,0.0038619,-0.00917475,-0.813123,0.00773225,0.0179651,629,1093,-13.6547,-1.97441
-588,-69,-13.7913,1.71191,-0.00300733,-0.00255019,-0.00672423,0.00394936,-0.00950687,-0.802387,0.00798677,0.0255909,636,1093,-13.7913,-1.7119
-581,-69,-13.9904,1.17151,-0.00285502,-0.00255123,-0.00650839,0.00380703,-0.00921329,-0.797065,0.00773027,0.0324738,643,1093,-13.9903,-1.17147
-574,-69,-14.1152,0.967773,-0.00262205,-0.00249649,-0.00607103,0.00351208,-0.00863062,-0.790569,0.00721522,0.0333074,650,1093,-14.1152,-0.967718
-567,-69,-13.9841,1.1145,-0.00221453,-0.00218637,-0.0051383,0.00293787,-0.00733877,-0.786768,0.00611188,0.0376311,657,1093,-13.9842,-1.11453
-560,-69,-13.8539,1.06836,-0.0015617,-0.00165659,-0.00365921,0.00205037,-0.00526866,-0.778916,0.00435969,0.0403658,664,1093,-13.8539,-1.06834
-553,-69,-13.9278,1.00183,-0.000712482,-0.000943499,-0.00164234,0.00081841,-0.00247439,-0.75029,0.00197962,0.0394827,671,1093,-13.9278,-1.00183
-546,-69,-13.9999,0.923706,0.000299858,-9.40973e-05,0.000928047,0.0010516,-0.00084584,0.680825,0.00109763,0.0367046,678,1093,-13.9999,-0.923723
-539,-69,-14.0388,1.04968,0.00132423,0.000743039,0.00367186,0.00471697,-0.00264971,0.74591,0.00430862,0.0407622,685,1093,-14.0387,-1.04963
-532,-69,-14.0151,1.22888,0.0012914,0.000983435,0.00483124,0.00597111,-0.00369627,0.769467,0.00563274,0.0409861,692,1093,-14.0151,-1.22885
-525,-69,0,0,0,0,0,0,0,0,0,-1,699,1093,0,0
-518,-69,0,0,0,0,0,0,0,0,0,-1,706,1093,0,0
-511,-69,0,0,0,0,0,0,0,0,0,-1,713,1093,0,0
-504,-69,0,0,0,0,0,0,0,0,0,-1,720,1093,0,0
-497,-69,0,0,0,0,0,0,0,0,0,-1,727,1093,0,0
-490,-69,0,0,0,0,0,0,0,0,0,-1,734,1093,0,0
-483,-69,0,0,0,0,0,0,0,0,0,-1,741,1093,0,0
-476,-69,0,0,0,0,0,0,0,0,0,-1,748,1093,0,0
-469,-69,0,0,0,0,0,0,0,0,0,-1,755,1093,0,0
-462,-69,0,0,0,0,0,0,0,0,0,-1,762,1093,0,0
-455,-69,0,0,0,0,0,0,0,0,0,-1,769,1093,0,0
-448,-69,0,0,0,0,0,0,0,0,0,-1,776,1093,0,0
-441,-69,0,0,0,0,0,0,0,0,0,-1,783,1093,0,0
-434,-69,0,0,0,0,0,0,0,0,0,-1,790,1093,0,0
-427,-69,0,0,0,0,0,0,0,0,0,-1,797,1093,0,0
-420,-69,0,0,0,0,0,0,0,0,0,-1,804,1093,0,0
-413,-69,0,0,0,0,0,0,0,0,0,-1,811,1093,0,0
-406,-69,0,0,0,0,0,0,0,0,0,-1,818,1093,0,0
-399,-69,0,0,0,0,0,0,0,0,0,-1,825,1093,0,0
-392,-69,0,0,0,0,0,0,0,0,0,-1,832,1093,0,0
-385,-69,0,0,0,0,0,0,0,0,0,-1,839,1093,0,0
-378,-69,0,0,0,0,0,0,0,0,0,-1,846,1093,0,0
-371,-69,0,0,0,0,0,0,0,0,0,-1,853,1093,0,0
-364,-69,0,0,0,0,0,0,0,0,0,-1,860,1093,0,0
-357,-69,0,0,0,0,0,0,0,0,0,-1,867,1093,0,0
-350,-69,0,0,0,0,0,0,0,0,0,-1,874,1093,0,0
-343,-69,0,0,0,0,0,0,0,0,0,-1,881,1093,0,0
-336,-69,0,0,0,0,0,0,0,0,0,-1,888,1093,0,0
-329,-69,0,0,0,0,0,0,0,0,0,-1,895,1093,0,0
-322,-69,0,0,0,0,0,0,0,0,0,-1,902,1093,0,0
-315,-69,0,0,0,0,0,0,0,0,0,-1,909,1093,0,0
-308,-69,0,0,0,0,0,0,0,0,0,-1,916,1093,0,0
-301,-69,0,0,0,0,0,0,0,0,0,-1,923,1093,0,0
-294,-69,0,0,0,0,0,0,0,0,0,-1,930,1093,0,0
-287,-69,0,0,0,0,0,0,0,0,0,-1,937,1093,0,0
-280,-69,0,0,0,0,0,0,0,0,0,-1,944,1093,0,0
-273,-69,0,0,0,0,0,0,0,0,0,-1,951,1093,0,0
-266,-69,0,0,0,0,0,0,0,0,0,-1,958,1093,0,0
-259,-69,0,0,0,0,0,0,0,0,0,-1,965,1093,0,0
-252,-69,0,0,0,0,0,0,0,0,0,-1,972,1093,0,0
-245,-69,0,0,0,0,0,0,0,0,0,-1,979,1093,0,0
-238,-69,0,0,0,0,0,0,0,0,0,-1,986,1093,0,0
-231,-69,0,0,0,0,0,0,0,0,0,-1,993,1093,0,0
-224,-69,0,0,0,0,0,0,0,0,0,-1,1000,1093,0,0
-217,-69,0,0,0,0,0,0,0,0,0,-1,1007,1093,0,0
-210,-69,0,0,0,0,0,0,0,0,0,-1,1014,1093,0,0
-203,-69,0,0,0,0,0,0,0,0,0,-1,1021,1093,0,0
-196,-69,0,0,0,0,0,0,0,0,0,-1,1028,1093,0,0
-189,-69,0,0,0,0,0,0,0,0,0,-1,1035,1093,0,0
-182,-69,0,0,0,0,0,0,0,0,0,-1,1042,1093,0,0
-175,-69,0,0,0,0,0,0,0,0,0,-1,1049,1093,0,0
-168,-69,0,0,0,0,0,0,0,0,0,-1,1056,1093,0,0
-161,-69,0,0,0,0,0,0,0,0,0,-1,1063,1093,0,0
-154,-69,0,0,0,0,0,0,0,0,0,-1,1070,1093,0,0
-147,-69,0,0,0,0,0,0,0,0,0,-1,1077,1093,0,0
-140,-69,0,0,0,0,0,0,0,0,0,-1,1084,1093,0,0
-133,-69,0,0,0,0,0,0,0,0,0,-1,1091,1093,0,0
-126,-69,0,0,0,0,0,0,0,0,0,-1,1098,1093,0,0
-119,-69,0,0,0,0,0,0,0,0,0,-1,1105,1093,0,0
-112,-69,0,0,0,0,0,0,0,0,0,-1,1112,1093,0,0
-105,-69,0,0,0,0,0,0,0,0,0,-1,1119,1093,0,0
-98,-69,0,0,0,0,0,0,0,0,0,-1,1126,1093,0,0
-91,-69,0,0,0,0,0,0,0,0,0,-1,1133,1093,0,0
-84,-69,0,0,0,0,0,0,0,0,0,-1,1140,1093,0,0
-77,-69,0,0,0,0,0,0,0,0,0,-1,1147,1093,0,0
-70,-69,0,0,0,0,0,0,0,0,0,-1,1154,1093,0,0
-63,-69,0,0,0,0,0,0,0,0,0,-1,1161,1093,0,0
-56,-69,0,0,0,0,0,0,0,0,0,-1,1168,1093,0,0
-49,-69,0,0,0,0,0,0,0,0,0,-1,1175,1093,0,0
-42,-69,0,0,0,0,0,0,0,0,0,-1,1182,1093,0,0
-35,-69,0,0,0,0,0,0,0,0,0,-1,1189,1093,0,0
-28,-69,0,0,0,0,0,0,0,0,0,-1,1196,1093,0,0
-21,-69,0,0,0,0,0,0,0,0,0,-1,1203,1093,0,0
-14,-69,0,0,0,0,0,0,0,0,0,-1,1210,1093,0,0
-7,-69,0,0,0,0,0,0,0,0,0,-1,1217,1093,0,0
0,-69,0,0,0,0,0,0,0,0,0,-1,1224,1093,0,0
7,-69,0,0,0,0,0,0,0,0,0,-1,1231,1093,0,0
14,-69,0,0,0,0,0,0,0,0,0,-1,1238,1093,0,0
21,-69,0,0,0,0,0,0,0,0,0,-1,1245,1093,0,0
28,-69,0,0,0,0,0,0,0,0,0,-1,1252,1093,0,0
35,-69,0,0,0,0,0,0,0,0,0,-1,1259,1093,0,0
42,-69,0,0,0,0,0,0,0,0,0,-1,1266,1093,0,0
49,-69,0,0,0,0,0,0,0,0,0,-1,1273,1093,0,0
56,-69,0,0,0,0,0,0,0,0,0,-1,1280,1093,0,0
63,-69,0,0,0,0,0,0,0,0,0,-1,1287,1093,0,0
70,-69,0,0,0,0,0,0,0,0,0,-1,1294,1093,0,0
77,-69,0,0,0,0,0,0,0,0,0,-1,1301,1093,0,0
84,-69,0,0,0,0,0,0,0,0,0,-1,1308,1093,0,0
91,-69,0,0,0,0,0,0,0,0,0,-1,1315,1093,0,0
98,-69,0,0,0,0,0,0,0,0,0,-1,1322,1093,0,0
105,-69,0,0,0,0,0,0,0,0,0,-1,1329,1093,0,0
112,-69,0,0,0,0,0,0,0,0,0,-1,1336,1093,0,0
119,-69,0,0,0,0,0,0,0,0,0,-1,1343,1093,0,0
126,-69,0,0,0,0,0,0,0,0,0,-1,1350,1093,0,0
133,-69,0,0,0,0,0,0,0,0,0,-1,1357,1093,0,0
140,-69,0,0,0,0,0,0,0,0,0,-1,1364,1093,0,0
147,-69,0,0,0,0,0,0,0,0,0,-1,1371,1093,0,0
154,-69,0,0,0,0,0,0,0,0,0,-1,1378,1093,0,0
161,-69,0,0,0,0,0,0,0,0,0,-1,1385,1093,0,0
168,-69,0,0,0,0,0,0,0,0,0,-1,1392,1093,0,0
175,-69,0,0,0,0,0,0,0,0,0,-1,1399,1093,0,0
182,-69,0,0,0,0,0,0,0,0,0,-1,1406,1093,0,0
189,-69,0,0,0,0,0,0,0,0,0,-1,1413,1093,0,0
196,-69,0,0,0,0,0,0,0,0,0,-1,1420,1093,0,0
203,-69,0,0,0,0,0,0,0,0,0,-1,1427,1093,0,0
210,-69,0,0,0,0,0,0,0,0,0,-1,1434,1093,0,0
217,-69,0,0,0,0,0,0,0,0,0,-1,1441,1093,0,0
224,-69,0,0,0,0,0,0,0,0,0,-1,1448,1093,0,0
231,-69,0,0,0,0,0,0,0,0,0,-1,1455,1093,0,0
238,-69,0,0,0,0,0,0,0,0,0,-1,1462,1093,0,0
245,-69,0,0,0,0,0,0,0,0,0,-1,1469,1093,0,0
252,-69,0,0,0,0,0,0,0,0,0,-1,1476,1093,0,0
259,-69,0,0,0,0,0,0,0,0,0,-1,1483,1093,0,0
266,-69,0,0,0,0,0,0,0,0,0,-1,1490,1093,0,0
273,-69,0,0,0,0,0,0,0,0,0,-1,1497,1093,0,0
280,-69,0,0,0,0,0,0,0,0,0,-1,1504,1093,0,0
287,-69,0,0,0,0,0,0,0,0,0,-1,1511,1093,0,0
294,-69,0,0,0,0,0,0,0,0,0,-1,1518,1093,0,0
301,-69,0,0,0,0,0,0,0,0,0,-1,1525,1093,0,0
308,-69,0,0,0,0,0,0,0,0,0,-1,1532,1093,0,0
315,-69,0,0,0,0,0,0,0,0,0,-1,1539,1093,0,0
322,-69,0,0,0,0,0,0,0,0,0,-1,1546,1093,0,0
329,-69,0,0,0,0,0,0,0,0,0,-1,1553,1093,0,0
336,-69,0,0,0,0,0,0,0,0,0,-1,1560,1093,0,0
343,-69,0,0,0,0,0,0,0,0,0,-1,1567,1093,0,0
350,-69,0,0,0,0,0,0,0,0,0,-1,1574,1093,0,0
357,-69,0,0,0,0,0,0,0,0,0,-1,1581,1093,0,0
364,-69,0,0,0,0,0,0,0,0,0,-1,1588,1093,0,0
371,-69,0,0,0,0,0,0,0,0,0,-1,1595,1093,0,0
378,-69,0,0,0,0,0,0,0,0,0,-1,1602,1093,0,0
385,-69,0,0,0,0,0,0,0,0,0,-1,1609,1093,0,0
392,-69,0,0,0,0,0,0,0,0,0,-1,1616,1093,0,0
399,-69,0,0,0,0,0,0,0,0,0,-1,1623,1093,0,0
406,-69,0,0,0,0,0,0,0,0,0,-1,1630,1093,0,0
413,-69,0,0,0,0,0,0,0,0,0,-1,1637,1093,0,0
420,-69,0,0,0,0,0,0,0,0,0,-1,1644,1093,0,0
427,-69,0,0,0,0,0,0,0,0,0,-1,1651,1093,0,0
434,-69,0,0,0,0,0,0,0,0,0,-1,1658,1093,0,0
441,-69,0,0,0,0,0,0,0,0,0,-1,1665,1093,0,0
448,-69,0,0,0,0,0,0,0,0,0,-1,1672,1093,0,0
455,-69,0,0,0,0,0,0,0,0,0,-1,1679,1093,0,0
462,-69,0,0,0,0,0,0,0,0,0,-1,1686,1093,0,0
469,-69,0,0,0,0,0,0,0,0,0,-1,1693,1093,0,0
476,-69,0,0,0,0,0,0,0,0,0,-1,1700,1093,0,0
483,-69,0,0,0,0,0,0,0,0,0,-1,1707,1093,0,0
490,-69,0,0,0,0,0,0,0,0,0,-1,1714,1093,0,0
497,-69,0,0,0,0,0,0,0,0,0,-1,1721,1093,0,0
504,-69,0,0,0,0,0,0,0,0,0,-1,1728,1093,0,0
511,-69,0,0,0,0,0,0,0,0,0,-1,1735,1093,0,0
518,-69,0,0,0,0,0,0,0,0,0,-1,1742,1093,0,0
525,-69,0,0,0,0,0,0,0,0,0,-1,1749,1093,0,0
532,-69,0,0,0,0,0,0,0,0,0,-1,1756,1093,0,0
539,-69,0,0,0,0,0,0,0,0,0,-1,1763,1093,0,0
546,-69,0,0,0,0,0,0,0,0,0,-1,1770,1093,0,0
553,-69,0,0,0,0,0,0,0,0,0,-1,1777,1093,0,0
560,-69,0,0,0,0,0,0,0,0,0,-1,1784,1093,0,0
567,-69,0,0,0,0,0,0,0,0,0,-1,1791,1093,0,0
574,-69,0,0,0,0,0,0,0,0,0,-1,1798,1093,0,0
581,-69,0,0,0,0,0,0,0,0,0,-1,1805,1093,0,0
588,-69,0,0,0,0,0,0,0,0,0,-1,1812,1093,0,0
595,-69,0,0,0,0,0,0,0,0,0,-1,1819,1093,0,0
602,-69,0,0,0,0,0,0,0,0,0,-1,1826,1093,0,0
609,-69,0,0,0,0,0,0,0,0,0,-1,1833,1093,0,0
616,-69,0,0,0,0,0,0,0,0,0,-1,1840,1093,0,0
623,-69,0,0,0,0,0,0,0,0,0,-1,1847,1093,0,0
630,-69,0,0,0,0,0,0,0,0,0,-1,1854,1093,0,0
637,-69,0,0,0,0,0,0,0,0,0,-1,1861,1093,0,0
644,-69,0,0,0,0,0,0,0,0,0,-1,1868,1093,0,0
651,-69,21.4137,2.79907,-0.00110861,-0.00311244,-0.000908102,-0.000758312,-0.00346274,-0.368161,0.00210182,0.0417156,1875,1093,21.4136,-2.79904
658,-69,21.4435,2.62769,-0.000121026,-0.00229551,-0.000947411,0.000233843,-0.00265038,-0.358391,0.0018498,0.0438263,1882,1093,21.4435,-2.62767
665,-69,21.632,2.48279,0.000569457,-0.00168483,-0.00075517,0.00079905,-0.00191443,-0.295148,0.00161014,0.0415889,1889,1093,21.632,-2.48278
672,-69,21.6525,2.54895,0.000682507,-0.00154117,0.000399559,0.000752122,-0.00161078,0.172498,0.00139393,0.0388004,1896,1093,21.6525,-2.549
679,-69,21.7123,2.46899,9.79501e-05,-0.00168617,0.00197882,0.00137649,-0.00296471,0.573637,0.00256169,0.0397683,1903,1093,21.7123,-2.46902
686,-69,21.7478,2.53247,-0.000738827,-0.00192049,0.00349975,0.00221961,-0.00487893,0.701776,0.00419311,0.0378505,1910,1093,21.7478,-2.53242
693,-69,21.7029,2.68201,-0.00157978,-0.0021849,0.00479667,0.00292386,-0.00668854,0.753901,0.00568983,0.0355366,1917,1093,21.7029,-2.68198
700,-69,21.7151,2.74304,-0.00235923,-0.00232177,0.00577308,0.00343261,-0.00811361,0.787021,0.00684638,0.0285079,1924,1093,21.7151,-2.74307
707,-69,21.7188,2.71973,-0.00296815,-0.00242194,0.00647622,0.00378693,-0.00917702,0.806471,0.00769737,0.0211025,1931,1093,21.7188,-2.71971
714,-69,21.7936,2.76465,-0.00345227,-0.00243827,0.00690186,0.00397518,-0.00986573,0.822061,0.00822875,0.0233915,1938,1093,21.7936,-2.76469
721,-69,21.748,4.11145,0,0,0,0,0,0,0,-1,1945,1093,21.7481,-4.11141
728,-69,21.2964,4.18127,-0.00414094,-0.00204433,0.00676076,0.00374892,-0.00993419,0.862314,0.00816456,0.029015,1952,1093,21.2964,-4.18125
735,-69,21.1112,4.23303,-0.00448832,-0.00160661,0.00619725,0.00331507,-0.00941001,0.899619,0.00762256,0.0185836,1959,1093,21.1112,-4.233
742,-69,21.109,4.15979,-0.00476588,-0.000853435,0.00545092,0.00298166,-0.00860098,0.95768,0.00694462,0.0146271,1966,1093,21.109,-4.15982
749,-69,21.0483,4.07861,-0.0045081,-0.000208838,0.00500874,0.00309208,-0.00780901,0.988099,0.00648717,0.0155454,1973,1093,21.0483,-4.0786
756,-69,21.0754,4.0459,-0.00391764,0.00060554,0.00500039,0.003832,-0.0071441,0.997774,0.00643251,0.0137302,1980,1093,21.0754,-4.04584
763,-69,21.0757,3.99902,-0.0031052,0.00284773,0.0047904,0.00551105,-0.00576853,1.06338,0.00651284,0.0131207,1987,1093,21.0757,-3.99903
770,-69,21.0627,3.92908,-0.00232429,0.00484309,0.00497088,0.0073874,-0.00486861,1.09772,0.00712565,0.0120463,1994,1093,21.0628,-3.92912
777,-69,21.0475,3.84363,-0.00131666,0.00729012,0.00629734,0.010614,-0.00464057,1.08514,0.00902952,0.017379,2001,1093,21.0474,-3.84368
784,-69,21.0096,3.67834,-0.000118946,0.0102699,0.00858217,0.0151072,-0.00495626,1.05754,0.0120677,0.0313033,2008,1093,21.0097,-3.67829
791,-69,20.9845,3.55164,0.00155542,0.0141897,0.0117413,0.0212054,-0.00546029,1.0322,0.0162654,0.0449426,2015,1093,20.9845,-3.55167
798,-69,21.2386,3.46631,0.00427731,0.0194685,0.0156234,0.0292448,-0.00549906,1.01166,0.0215646,0.0450408,2022,1093,21.2386,-3.46627
805,-69,21.1162,3.80713,0.00841765,0.0266565,0.0202065,0.0397061,-0.00463193,0.997371,0.0281421,0.0450011,2029,1093,21.1163,-3.80717
812,-69,20.9126,4.49561,0.0143618,0.0365814,0.0254646,0.0532542,-0.00231105,0.991093,0.0362977,0.0469206,2036,1093,20.9126,-4.49563
-700,-76,0,0,0,0,0,0,0,0,0,-1,524,1100,0,0
-693,-76,-13.3154,0.23999,0,0,0,0,0,0,0,-1,531,1100,-13.3154,-0.240028
-686,-76,-13.2725,0.437378,0,0,0,0,0,0,0,-1,538,1100,-13.2724,-0.437353
-679,-76,-13.3429,0.681519,0,0,0,0,0,0,0,-1,545,1100,-13.3429,-0.681514
-672,-76,-13.3137,0.835327,0.0122594,0.00401291,0.0021248,0.0127746,0.00349762,0.237916,0.00762288,0.0446581,552,1100,-13.3136,-0.835374
-665,-76,-13.3283,0.983643,0.00881961,0.00199732,0.00235609,0.0095542,0.00126273,0.30223,0.00599306,0.0452225,559,1100,-13.3283,-0.983588
-658,-76,-13.6033,1.24744,0.00602289,0.00106171,0.00230721,0.00693,0.000154591,0.3746,0.00456934,0.0435297,566,1100,-13.6033,-1.24738
-651,-76,-13.5796,1.29187,0.00386389,0.000739261,0.0020865,0.00490816,-0.000305013,0.464041,0.00337837,0.0278128,573,1100,-13.5796,-1.29186
-644,-76,-13.5514,1.3811,0.00211985,0.000131194,0.0019494,0.00331387,-0.00106283,0.549564,0.00263594,0.0103639,580,1100,-13.5514,-1.38115
-637,-76,-13.571,1.45752,7.1194e-05,-0.0002858,0.0006918,0.000607154,-0.00082176,0.659143,0.000828079,0.013433,587,1100,-13.571,-1.45749
-630,-76,-13.6113,1.53455,-0.00134698,-0.000561781,-0.00104531,0.000162219,-0.00207099,-0.96504,0.00143778,0.0143412,594,1100,-13.6113,-1.53455
-623,-76,-13.5906,1.63464,-0.00213218,-0.000398544,-0.00251866,0.00139829,-0.00392901,-0.951129,0.0031893,0.0130663,601,1100,-13.5906,-1.63468
-616,-76,-13.5769,1.72986,-0.00268045,-0.000484628,-0.00359428,0.00217569,-0.00534077,-0.933627,0.00446603,0.0118399,608,1100,-13.5769,-1.72985
-609,-76,-13.5895,1.8042,-0.00300741,-0.000900062,-0.00466714,0.00283087,-0.00673834,-0.896419,0.00567625,0.0117725,615,1100,-13.5895,-1.80423
-602,-76,-13.5828,1.91956,-0.0033094,-0.00166734,-0.00579046,0.00336001,-0.00833675,-0.855824,0.0069539,0.0162524,622,1100,-13.5828,-1.91954
-595,-76,-13.5664,1.99316,-0.00350081,-0.00227886,-0.00663174,0.00376998,-0.00954966,-0.831333,0.00792775,0.01995,629,1100,-13.5664,-1.99319
-588,-76,-13.692,1.75513,-0.00352758,-0.00247114,-0.00690135,0.00392218,-0.0099209,-0.823593,0.00823864,0.027208,636,1100,-13.692,-1.75517
-581,-76,-13.9876,0.668091,0,0,0,0,0,0,0,-1,643,1100,-13.9876,-0.668032
-574,-76,-14.0886,0.768311,-0.00315078,-0.00223518,-0.00629511,0.00361875,-0.00900471,-0.821696,0.00750603,0.0351787,650,1100,-14.0886,-0.768328
-567,-76,-14.0151,0.953003,-0.00271759,-0.00181602,-0.00539766,0.00314965,-0.00768326,-0.827059,0.00643436,0.0389446,657,1100,-14.0151,-0.952977
-560,-76,-13.9373,0.906494,-0.00202571,-0.00116467,-0.00396617,0.00239428,-0.00558466,-0.83946,0.0047278,0.0407833,664,1100,-13.9372,-0.906487
-553,-76,-13.9553,0.772949,-0.00113794,-0.00032009,-0.00202341,0.0013353,-0.00279333,-0.885104,0.00243271,0.043529,671,1100,-13.9553,-0.772919
-546,-76,-13.9316,0.807861,-9.84197e-05,0.000670434,0.000436117,0.000867369,-0.000295355,1.14664,0.000697852,0.0421672,678,1100,-13.9316,-0.807801
-539,-76,-13.9436,0.963013,0.000960127,0.00166051,0.00310487,0.00443487,-0.00181424,0.841555,0.00371217,0.0410728,685,1100,-13.9436,-0.963012
-532,-76,-13.9776,1.00562,0.000800501,0.00202626,0.00423884,0.0056963,-0.00286954,0.857194,0.00503445,0.0410315,692,1100,-13.9776,-1.00562
-525,-76,0,0,0,0,0,0,0,0,0,-1,699,1100,0,0
-518,-76,0,0,0,0,0,0,0,0,0,-1,706,1100,0,0
-511,-76,0,0,0,0,0,0,0,0,0,-1,713,1100,0,0
-504,-76,0,0,0,0,0,0,0,0,0,-1,720,1100,0,0
-497,-76,0,0,0,0,0,0,0,0,0,-1,727,1100,0,0
-490,-76,0,0,0,0,0,0,0,0,0,-1,734,1100,0,0
-483,-76,0,0,0,0,0,0,0,0,0,-1,741,1100,0,0
-476,-76,0,0,0,0,0,0,0,0,0,-1,748,1100,0,0
-469,-76,0,0,0,0,0,0,0,0,0,-1,755,1100,0,0
-462,-76,0,0,0,0,0,0,0,0,0,-1,762,1100,0,0
-455,-76,0,0,0,0,0,0,0,0,0,-1,769,1100,0,0
-448,-76,0,0,0,0,0,0,0,0,0,-1,776,1100,0,0
-441,-76,0,0,0,0,0,0,0,0,0,-1,783,1100,0,0
-434,-76,0,0,0,0,0,0,0,0,0,-1,790,1100,0,0
-427,-76,0,0,0,0,0,0,0,0,0,-1,797,1100,0,0
-420,-76,0,0,0,0,0,0,0,0,0,-1,804,1100,0,0
-413,-76,0,0,0,0,0,0,0,0,0,-1,811,1100,0,0
-406,-76,0,0,0,0,0,0,0,0,0,-1,818,1100,0,0
-399,-76,0,0,0,0,0,0,0,0,0,-1,825,1100,0,0
-392,-76,0,0,0,0,0,0,0,0,0,-1,832,1100,0,0
-385,-76,0,0,0,0,0,0,0,0,0,-1,839,1100,0,0
-378,-76,0,0,0,0,0,0,0,0,0,-1,846,1100,0,0
-371,-76,0,0,0,0,0,0,0,0,0,-1,853,1100,0,0
-364,-76,0,0,0,0,0,0,0,0,0,-1,860,1100,0,0
-357,-76,0,0,0,0,0,0,0,0,0,-1,867,1100,0,0
-350,-76,0,0,0,0,0,0,0,0,0,-1,874,1100,0,0
-343,-76,0,0,0,0,0,0,0,0,0,-1,881,1100,0,0
-336,-76,0,0,0,0,0,0,0,0,0,-1,888,1100,0,0
-329,-76,0,0,0,0,0,0,0,0,0,-1,895,1100,0,0
-322,-76,0,0,0,0,0,0,0,0,0,-1,902,1100,0,0
-315,-76,0,0,0,0,0,0,0,0,0,-1,909,1100,0,0
-308,-76,0,0,0,0,0,0,0,0,0,-1,916,1100,0,0
-301,-76,0,0,0,0,0,0,0,0,0,-1,923,1100,0,0
-294,-76,0,0,0,0,0,0,0,0,0,-1,930,1100,0,0
-287,-76,0,0,0,0,0,0,0,0,0,-1,937,1100,0,0
-280,-76,0,0,0,0,0,0,0,0,0,-1,944,1100,0,0
-273,-76,0,0,0,0,0,0,0,0,0,-1,951,1100,0,0
-266,-76,0,0,0,0,0,0,0,0,0,-1,958,1100,0,0
-259,-76,0,0,0,0,0,0,0,0,0,-1,965,1100,0,0
-252,-76,0,0,0,0,0,0,0,0,0,-1,972,1100,0,0
-245,-76,0,0,0,0,0,0,0,0,0,-1,979,1100,0,0
-238,-76,0,0,0,0,0,0,0,0,0,-1,986,1100,0,0
-231,-76,0,0,0,0,0,0,0,0,0,-1,993,1100,0,0
-224,-76,0,0,0,0,0,0,0,0,0,-1,1000,1100,0,0
-217,-76,0,0,0,0,0,0,0,0,0,-1,1007,1100,0,0
-210,-76,0,0,0,0,0,0,0,0,0,-1,1014,1100,0,0
-203,-76,0,0,0,0,0,0,0,0,0,-1,1021,1100,0,0
-196,-76,0,0,0,0,0,0,0,0,0,-1,1028,1100,0,0
-189,-76,0,0,0,0,0,0,0,0,0,-1,1035,1100,0,0
-182,-76,0,0,0,0,0,0,0,0,0,-1,1042,1100,0,0
-175,-76,0,0,0,0,0,0,0,0,0,-1,1049,1100,0,0
-168,-76,0,0,0,0,0,0,0,0,0,-1,1056,1100,0,0
-161,-76,0,0,0,0,0,0,0,0,0,-1,1063,1100,0,0
-154,-76,0,0,0,0,0,0,0,0,0,-1,1070,1100,0,0
-147,-76,0,0,0,0,0,0,0,0,0,-1,1077,1100,0,0
-140,-76,0,0,0,0,0,0,0,0,0,-1,1084,1100,0,0
-133,-76,0,0,0,0,0,0,0,0,0,-1,1091,1100,0,0
-126,-76,0,0,0,0,0,0,0,0,0,-1,1098,1100,0,0
-119,-76,0,0,0,0,0,0,0,0,0,-1,1105,1100,0,0
-112,-76,0,0,0,0,0,0,0,0,0,-1,1112,1100,0,0
-105,-76,0,0,0,0,0,0,0,0,0,-1,1119,1100,0,0
-98,-76,0,0,0,0,0,0,0,0,0,-1,1126,1100,0,0
-91,-76,0,0,0,0,0,0,0,0,0,-1,1133,1100,0,0
-84,-76,0,0,0,0,0,0,0,0,0,-1,1140,1100,0,0
-77,-76,0,0,0,0,0,0,0,0,0,-1,1147,1100,0,0
-70,-76,0,0,0,0,0,0,0,0,0,-1,1154,1100,0,0
-63,-76,0,0,0,0,0,0,0,0,0,-1,1161,1100,0,0
-56,-76,0,0,0,0,0,0,0,0,0,-1,1168,1100,0,0
-49,-76,0,0,0,0,0,0,0,0,0,-1,1175,1100,0,0
-42,-76,0,0,0,0,0,0,0,0,0,-1,1182,1100,0,0
-35,-76,0,0,0,0,0,0,0,0,0,-1,1189,1100,0,0
-28,-76,0,0,0,0,0,0,0,0,0,-1,1196,1100,0,0
-21,-76,0,0,0,0,0,0,0,0,0,-1,1203,1100,0,0
-14,-76,0,0,0,0,0,0,0,0,0,-1,1210,1100,0,0
-7,-76,0,0,0,0,0,0,0,0,0,-1,1217,1100,0,0
0,-76,0,0,0,0,0,0,0,0,0,-1,1224,1100,0,0
7,-76,0,0,0,0,0,0,0,0,0,-1,1231,1100,0,0
14,-76,0,0,0,0,0,0,0,0,0,-1,1238,1100,0,0
21,-76,0,0,0,0,0,0,0,0,0,-1,1245,1100,0,0
28,-76,0,0,0,0,0,0,0,0,0,-1,1252,1100,0,0
35,-76,0,0,0,0,0,0,0,0,0,-1,1259,1100,0,0
42,-76,0,0,0,0,0,0,0,0,0,-1,1266,1100,0,0
49,-76,0,0,0,0,0,0,0,0,0,-1,1273,1100,0,0
56,-76,0,0,0,0,0,0,0,0,0,-1,1280,1100,0,0
63,-76,0,0,0,0,0,0,0,0,0,-1,1287,1100,0,0
70,-76,0,0,0,0,0,0,0,0,0,-1,1294,1100,0,0
77,-76,0,0,0,0,0,0,0,0,0,-1,1301,1100,0,0
84,-76,0,0,0,0,0,0,0,0,0,-1,1308,1100,0,0
91,-76,0,0,0,0,0,0,0,0,0,-1,1315,1100,0,0
98,-76,0,0,0,0,0,0,0,0,0,-1,1322,1100,0,0
105,-76,0,0,0,0,0,0,0,0,0,-1,1329,1100,0,0
112,-76,0,0,0,0,0,0,0,0,0,-1,1336,1100,0,0
119,-76,0,0,0,0,0,0,0,0,0,-1,1343,1100,0,0
126,-76,0,0,0,0,0,0,0,0,0,-1,1350,1100,0,0
133,-76,0,0,0,0,0,0,0,0,0,-1,1357,1100,0,0
140,-76,0,0,0,0,0,0,0,0,0,-1,1364,1100,0,0
147,-76,0,0,0,0,0,0,0,0,0,-1,1371,1100,0,0
154,-76,0,0,0,0,0,0,0,0,0,-1,1378,1100,0,0
161,-76,0,0,0,0,0,0,0,0,0,-1,1385,1100,0,0
168,-76,0,0,0,0,0,0,0,0,0,-1,1392,1100,0,0
175,-76,0,0,0,0,0,0,0,0,0,-1,1399,1100,0,0
182,-76,0,0,0,0,0,0,0,0,0,-1,1406,1100,0,0
189,-76,0,0,0,0,0,0,0,0,0,-1,1413,1100,0,0
196,-76,0,0,0,0,0,0,0,0,0,-1,1420,1100,0,0
203,-76,0,0,0,0,0,0,0,0,0,-1,1427,1100,0,0
210,-76,0,0,0,0,0,0,0,0,0,-1,1434,1100,0,0
217,-76,0,0,0,0,0,0,0,0,0,-1,1441,1100,0,0
224,-76,0,0,0,0,0,0,0,0,0,-1,1448,1100,0,0
231,-76,0,0,0,0,0,0,0,0,0,-1,1455,1100,0,0
238,-76,0,0,0,0,0,0,0,0,0,-1,1462,1100,0,0
245,-76,0,0,0,0,0,0,0,0,0,-1,1469,1100,0,0
252,-76,0,0,0,0,0,0,0,0,0,-1,1476,1100,0,0
259,-76,0,0,0,0,0,0,0,0,0,-1,1483,1100,0,0
266,-76,0,0,0,0,0,0,0,0,0,-1,1490,1100,0,0
273,-76,0,0,0,0,0,0,0,0,0,-1,1497,1100,0,0
280,-76,0,0,0,0,0,0,0,0,0,-1,1504,1100,0,0
287,-76,0,0,0,0,0,0,0,0,0,-1,1511,1100,0,0
294,-76,0,0,0,0,0,0,0,0,0,-1,1518,1100,0,0
301,-76,0,0,0,0,0,0,0,0,0,-1,1525,1100,0,0
308,-76,0,0,0,0,0,0,0,0,0,-1,1532,1100,0,0
315,-76,0,0,0,0,0,0,0,0,0,-1,1539,1100,0,0
322,-76,0,0,0,0,0,0,0,0,0,-1,1546,1100,0,0
329,-76,0,0,0,0,0,0,0,0,0,-1,1553,1100,0,0
336,-76,0,0,0,0,0,0,0,0,0,-1,1560,1100,0,0
343,-76,0,0,0,0,0,0,0,0,0,-1,1567,1100,0,0
350,-76,0,0,0,0,0,0,0,0,0,-1,1574,1100,0,0
357,-76,0,0,0,0,0,0,0,0,0,-1,1581,1100,0,0
364,-76,0,0,0,0,0,0,0,0,0,-1,1588,1100,0,0
371,-76,0,0,0,0,0,0,0,0,0,-1,1595,1100,0,0
378,-76,0,0,0,0,0,0,0,0,0,-1,1602,1100,0,0
385,-76,0,0,0,0,0,0,0,0,0,-1,1609,1100,0,0
392,-76,0,0,0,0,0,0,0,0,0,-1,1616,1100,0,0
399,-76,0,0,0,0,0,0,0,0,0,-1,1623,1100,0,0
406,-76,0,0,0,0,0,0,0,0,0,-1,1630,1100,0,0
413,-76,0,0,0,0,0,0,0,0,0,-1,1637,1100,0,0
420,-76,0,0,0,0,0,0,0,0,0,-1,1644,1100,0,0
427,-76,0,0,0,0,0,0,0,0,0,-1,1651,1100,0,0
434,-76,0,0,0,0,0,0,0,0,0,-1,1658,1100,0,0
441,-76,0,0,0,0,0,0,0,0,0,-1,1665,1100,0,0
448,-76,0,0,0,0,0,0,0,0,0,-1,1672,1100,0,0
455,-76,0,0,0,0,0,0,0,0,0,-1,1679,1100,0,0
462,-76,0,0,0,0,0,0,0,0,0,-1,1686,1100,0,0
469,-76,0,0,0,0,0,0,0,0,0,-1,1693,1100,0,0
476,-76,0,0,0,0,0,0,0,0,0,-1,1700,1100,0,0
483,-76,0,0,0,0,0,0,0,0,0,-1,1707,1100,0,0
490,-76,0,0,0,0,0,0,0,0,0,-1,1714,1100,0,0
497,-76,0,0,0,0,0,0,0,0,0,-1,1721,1100,0,0
504,-76,0,0,0,0,0,0,0,0,0,-1,1728,1100,0,0
511,-76,0,0,0,0,0,0,0,0,0,-1,1735,1100,0,0
518,-76,0,0,0,0,0,0,0,0,0,-1,1742,1100,0,0
525,-76,0,0,0,0,0,0,0,0,0,-1,1749,1100,0,0
532,-76,0,0,0,0,0,0,0,0,0,-1,1756,1100,0,0
539,-76,0,0,0,0,0,0,0,0,0,-1,1763,1100,0,0
546,-76,0,0,0,0,0,0,0,0,0,-1,1770,1100,0,0
553,-76,0,0,0,0,0,0,0,0,0,-1,1777,1100,0,0
560,-76,0,0,0,0,0,0,0,0,0,-1,1784,1100,0,0
567,-76,0,0,0,0,0,0,0,0,0,-1,1791,1100,0,0
574,-76,0,0,0,0,0,0,0,0,0,-1,1798,1100,0,0
581,-76,0,0,0,0,0,0,0,0,0,-1,1805,1100,0,0
588,-76,0,0,0,0,0,0,0,0,0,-1,1812,1100,0,0
595,-76,0,0,0,0,0,0,0,0,0,-1,1819,1100,0,0
602,-76,0,0,0,0,0,0,0,0,0,-1,1826,1100,0,0
609,-76,0,0,0,0,0,0,0,0,0,-1,1833,1100,0,0
616,-76,0,0,0,0,0,0,0,0,0,-1,1840,1100,0,0
623,-76,0,0,0,0,0,0,0,0,0,-1,1847,1100,0,0
630,-76,0,0,0,0,0,0,0,0,0,-1,1854,1100,0,0
637,-76,0,0,0,0,0,0,0,0,0,-1,1861,1100,0,0
644,-76,0,0,0,0,0,0,0,0,0,-1,1868,1100,0,0
651,-76,21.6071,2.77026,-0.000269828,-0.00297961,-0.00107349,0.000103899,-0.00335333,-0.335018,0.00227098,0.0403645,1875,1100,21.607,-2.77022
658,-76,21.6752,2.78223,0.000531872,-0.00227763,-0.00107284,0.000894693,-0.00264045,-0.326113,0.00212235,0.0432316,1882,1100,21.6751,-2.78224
665,-76,21.6747,2.71484,0.00105662,-0.00175992,-0.000800503,0.00126824,-0.00197154,-0.258441,0.00188512,0.0403467,1889,1100,21.6746,-2.71482
672,-76,21.6427,2.65588,0.000933617,-0.00170521,0.000454508,0.00100971,-0.0017813,0.165873,0.00163178,0.0371446,1896,1100,21.6427,-2.65587
679,-76,21.7856,2.59631,0.000179254,-0.00188897,0.00204485,0.0014366,-0.00314632,0.551293,0.00270663,0.0370076,1903,1100,21.7856,-2.59629
686,-76,21.8849,2.68237,-0.000757238,-0.00213844,0.00353665,0.00215561,-0.00505129,0.688977,0.00427139,0.0353829,1910,1100,21.8849,-2.68231
693,-76,21.7782,2.69385,-0.0016554,-0.00239061,0.00478951,0.00278059,-0.0068266,0.747098,0.00570833,0.0366626,1917,1100,21.7782,-2.69382
700,-76,21.7561,2.71008,-0.00244015,-0.002506,0.00570337,0.0032304,-0.00817654,0.782512,0.00678904,0.0315223,1924,1100,21.7561,-2.71007
707,-76,21.7306,2.75439,-0.00305124,-0.00256647,0.00635171,0.00354748,-0.00916518,0.804469,0.00757477,0.0228956,1931,1100,21.7306,-2.75434
714,-76,21.8207,2.94226,-0.0035446,-0.00254872,0.00673005,0.00370179,-0.00979511,0.822324,0.00805279,0.0327708,1938,1100,21.8206,-2.94228
721,-76,21.4969,3.76331,0,0,0,0,0,0,0,-1,1945,1100,21.497,-3.76334
728,-76,21.1604,4.23108,-0.00419672,-0.00209117,0.00652731,0.00346772,-0.00975562,0.865353,0.00791698,0.0234035,1952,1100,21.1604,-4.23105
735,-76,20.9243,4.2406,-0.00452156,-0.00160587,0.00594973,0.00306202,-0.00918944,0.905545,0.00736237,0.0205725,1959,1100,20.9243,-4.24056
742,-76,21.0408,4.16663,-0.00482646,-0.000818063,0.00520235,0.00275279,-0.00839731,0.969261,0.00670684,0.0145317,1966,1100,21.0407,-4.16659
749,-76,21.0005,4.09045,-0.00456084,-0.000161317,0.00475953,0.00288221,-0.00760437,1.00187,0.0062557,0.0148085,1973,1100,21.0005,-4.09049
756,-76,21.0256,4.05115,-0.00400923,0.000739449,0.00474562,0.00367156,-0.00694135,1.01735,0.00622355,0.0141279,1980,1100,21.0256,-4.05118
763,-76,21.0321,3.97961,-0.00331625,0.003085,0.00449759,0.00540455,-0.0056358,1.09464,0.00637462,0.0133649,1987,1100,21.0321,-3.97961
770,-76,21.0103,3.90491,-0.00263099,0.00519914,0.00465931,0.00736987,-0.00480172,1.13481,0.00707922,0.0122668,1994,1100,21.0102,-3.90491
777,-76,20.9995,3.84497,-0.00182641,0.00775643,0.00599145,0.0106367,-0.0047067,1.12268,0.00907639,0.0162531,2001,1100,20.9995,-3.84503
784,-76,20.9716,3.70007,-0.000858341,0.0109031,0.00819611,0.0151099,-0.00506519,1.09659,0.0121198,0.0318397,2008,1100,20.9715,-3.7001
791,-76,20.9248,3.38086,0,0,0,0,0,0,0,-1,2015,1100,20.9248,-3.38091
798,-76,21.5066,2.73035,0.00289904,0.020617,0.0148778,0.0290737,-0.00555764,1.05393,0.0214761,0.042772,2022,1100,21.5066,-2.73037
805,-76,21.4397,3.08154,0.00651564,0.0281814,0.0192005,0.0393942,-0.00469709,1.04224,0.0279603,0.0453397,2029,1100,21.4397,-3.0815
812,-76,21.408,3.56335,0.0117727,0.0386143,0.024129,0.0528037,-0.00241677,1.0392,0.0360351,0.0492208,2036,1100,21.408,-3.56331
-700,-83,0,0,0,0,0,0,0,0,0,-1,524,1107,0,0
-693,-83,-13.0217,0.0897217,0,0,0,0,0,0,0,-1,531,1107,-13.0217,-0.0897737
-686,-83,-13.02,0.775024,0,0,0,0,0,0,0,-1,538,1107,-13.02,-0.775037
-679,-83,-13.0182,1.46033,0,0,0,0,0,0,0,-1,545,1107,-13.0182,-1.4603
-672,-83,-13.2491,1.02917,0,0,0,0,0,0,0,-1,552,1107,-13.2491,-1.02923
-665,-83,-13.2833,1.51794,0.0193897,6.26012e-05,0.0029453,0.0198286,-0.000376275,0.14792,0.0133462,0.0405767,559,1107,-13.2833,-1.51793
-658,-83,-13.2051,0.820068,0.014021,-0.000424054,0.00259084,0.0144716,-0.000874685,0.17221,0.00995211,0.0418341,566,1107,-13.205,-0.820063
-651,-83,-13.4871,1.25537,0.00965911,-0.00036251,0.00219018,0.0101169,-0.000820256,0.206034,0.00703395,0.0294857,573,1107,-13.4871,-1.25537
-644,-83,-13.4374,1.33264,0.00618011,-0.000584537,0.00192509,0.00668958,-0.00109401,0.258718,0.00486556,0.0147967,580,1107,-13.4374,-1.33266
-637,-83,-13.4539,1.45605,0.00264187,-0.000812823,0.000570688,0.0027337,-0.000904655,0.159547,0.0021873,0.0116815,587,1107,-13.4539,-1.45602
-630,-83,-13.4966,1.55762,-6.73777e-05,-0.00095746,-0.00112802,0.000700215,-0.00172505,-0.597505,0.0014413,0.0164708,594,1107,-13.4966,-1.55761
-623,-83,-13.4736,1.63391,-0.00196674,-0.000583335,-0.0026245,0.00143908,-0.00398916,-0.914246,0.00324722,0.0154439,601,1107,-13.4736,-1.63394
-616,-83,-13.4759,1.71777,-0.00300076,-0.000560743,-0.00368806,0.00210386,-0.00566536,-0.945132,0.00464,0.0121891,608,1107,-13.4759,-1.71778
-609,-83,-13.4981,1.80237,-0.00347785,-0.000989483,-0.00477881,0.00270445,-0.00717178,-0.912748,0.00589328,0.0117143,615,1107,-13.4981,-1.80235
-602,-83,-13.4943,1.93335,-0.00385304,-0.00174879,-0.00588564,0.00317803,-0.00877986,-0.873844,0.00715195,0.0139564,622,1107,-13.4943,-1.93339
-595,-83,-13.438,2.06226,-0.00407608,-0.00233736,-0.00674063,0.00358974,-0.0100032,-0.849531,0.00813384,0.017428,629,1107,-13.438,-2.06225
-588,-83,-13.5708,1.76025,-0.0041252,-0.00250536,-0.00705343,0.00378449,-0.0104151,-0.842561,0.00849082,0.0321091,636,1107,-13.5708,-1.7603
-581,-83,-14.0168,0.725342,0,0,0,0,0,0,0,-1,643,1107,-14.0169,-0.725396
-574,-83,-14.0549,0.728149,-0.00373452,-0.0022116,-0.00649533,0.00356675,-0.00951287,-0.843748,0.0078073,0.037225,650,1107,-14.0549,-0.728108
-567,-83,-13.999,0.883545,-0.0032392,-0.00175253,-0.005632,0.00318498,-0.00817671,-0.851011,0.00676742,0.0426975,657,1107,-13.999,-0.883544
-560,-83,-14.0298,0.845703,-0.00244898,-0.00105614,-0.00424834,0.00255248,-0.0060576,-0.866639,0.00510649,0.0426476,664,1107,-14.0298,-0.845736
-553,-83,-13.9099,0.759888,-0.00143324,-0.000158417,-0.00238161,0.0016696,-0.00326126,-0.916153,0.00289585,0.0430217,671,1107,-13.9099,-0.759872
-546,-83,-13.9029,0.876587,-0.000248233,0.000890226,-3.89278e-05,0.000891555,-0.000249562,-1.53666,0.000692708,0.0418008,678,1107,-13.9029,-0.87662
-539,-83,-13.9275,0.93042,0.0009991,0.00194479,0.00254555,0.00406104,-0.00111715,0.877229,0.00314656,0.0425915,685,1107,-13.9275,-0.930481
-532,-83,-13.9337,0.78064,0.000952018,0.00237513,0.00367437,0.00540621,-0.00207905,0.881042,0.00446166,0.0463138,692,1107,-13.9337,-0.780633
-525,-83,0,0,0,0,0,0,0,0,0,-1,699,1107,0,0
-518,-83,0,0,0,0,0,0,0,0,0,-1,706,1107,0,0
-511,-83,0,0,0,0,0,0,0,0,0,-1,713,1107,0,0
-504,-83,0,0,0,0,0,0,0,0,0,-1,720,1107,0,0
-497,-83,0,0,0,0,0,0,0,0,0,-1,727,1107,0,0
-490,-83,0,0,0,0,0,0,0,0,0,-1,734,1107,0,0
-483,-83,0,0,0,0,0,0,0,0,0,-1,741,1107,0,0
-476,-83,0,0,0,0,0,0,0,0,0,-1,748,1107,0,0
-469,-83,0,0,0,0,0,0,0,0,0,-1,755,1107,0,0
-462,-83,0,0,0,0,0,0,0,0,0,-1,762,1107,0,0
-455,-83,0,0,0,0,0,0,0,0,0,-1,769,1107,0,0
-448,-83,0,0,0,0,0,0,0,0,0,-1,776,1107,0,0
-441,-83,0,0,0,0,0,0,0,0,0,-1,783,1107,0,0
-434,-83,0,0,0,0,0,0,0,0,0,-1,790,1107,0,0
-427,-83,0,0,0,0,0,0,0,0,0,-1,797,1107,0,0
-420,-83,0,0,0,0,0,0,0,0,0,-1,804,1107,0,0
-413,-83,0,0,0,0,0,0,0,0,0,-1,811,1107,0,0
-406,-83,0,0,0,0,0,0,0,0,0,-1,818,1107,0,0
-399,-83,0,0,0,0,0,0,0,0,0,-1,825,1107,0,0
-392,-83,0,0,0,0,0,0,0,0,0,-1,832,1107,0,0
-385,-83,0,0,0,0,0,0,0,0,0,-1,839,1107,0,0
-378,-83,0,0,0,0,0,0,0,0,0,-1,846,1107,0,0
-371,-83,0,0,0,0,0,0,0,0,0,-1,853,1107,0,0
-364,-83,0,0,0,0,0,0,0,0,0,-1,860,1107,0,0
-357,-83,0,0,0,0,0,0,0,0,0,-1,867,1107,0,0
-350,-83,0,0,0,0,0,0,0,0,0,-1,874,1107,0,0
-343,-83,0,0,0,0,0,0,0,0,0,-1,881,1107,0,0
-336,-83,0,0,0,0,0,0,0,0,0,-1,888,1107,0,0
-329,-83,0,0,0,0,0,0,0,0,0,-1,895,1107,0,0
-322,-83,0,0,0,0,0,0,0,0,0,-1,902,1107,0,0
-315,-83,0,0,0,0,0,0,0,0,0,-1,909,1107,0,0
-308,-83,0,0,0,0,0,0,0,0,0,-1,916,1107,0,0
-301,-83,0,0,0,0,0,0,0,0,0,-1,923,1107,0,0
-294,-83,0,0,0,0,0,0,0,0,0,-1,930,1107,0,0
-287,-83,0,0,0,0,0,0,0,0,0,-1,937,1107,0,0
-280,-83,0,0,0,0,0,0,0,0,0,-1,944,1107,0,0
-273,-83,0,0,0,0,0,0,0,0,0,-1,951,1107,0,0
-266,-83,0,0,0,0,0,0,0,0,0,-1,958,1107,0,0
-259,-83,0,0,0,0,0,0,0,0,0,-1,965,1107,0,0
-252,-83,0,0,0,0,0,0,0,0,0,-1,972,1107,0,0
-245,-83,0,0,0,0,0,0,0,0,0,-1,979,1107,0,0
-238,-83,0,0,0,0,0,0,0,0,0,-1,986,1107,0,0
-231,-83,0,0,0,0,0,0,0,0,0,-1,993,1107,0,0
-224,-83,0,0,0,0,0,0,0,0,0,-1,1000,1107,0,0
-217,-83,0,0,0,0,0,0,0,0,0,-1,1007,1107,0,0
-210,-83,0,0,0,0,0,0,0,0,0,-1,1014,1107,0,0
-203,-83,0,0,0,0,0,0,0,0,0,-1,1021,1107,0,0
-196,-83,0,0,0,0,0,0,0,0,0,-1,1028,1107,0,0
-189,-83,0,0,0,0,0,0,0,0,0,-1,1035,1107,0,0
-182,-83,0,0,0,0,0,0,0,0,0,-1,1042,1107,0,0
-175,-83,0,0,0,0,0,0,0,0,0,-1,1049,1107,0,0
-168,-83,0,0,0,0,0,0,0,0,0,-1,1056,1107,0,0
-161,-83,0,0,0,0,0,0,0,0,0,-1,1063,1107,0,0
-154,-83,0,0,0,0,0,0,0,0,0,-1,1070,1107,0,0
-147,-83,0,0,0,0,0,0,0,0,0,-1,1077,1107,0,0
-140,-83,0,0,0,0,0,0,0,0,0,-1,1084,1107,0,0
-133,-83,0,0,0,0,0,0,0,0,0,-1,1091,1107,0,0
-126,-83,0,0,0,0,0,0,0,0,0,-1,1098,1107,0,0
-119,-83,0,0,0,0,0,0,0,0,0,-1,1105,1107,0,0
-112,-83,0,0,0,0,0,0,0,0,0,-1,1112,1107,0,0
-105,-83,0,0,0,0,0,0,0,0,0,-1,1119,1107,0,0
-98,-83,0,0,0,0,0,0,0,0,0,-1,1126,1107,0,0
-91,-83,0,0,0,0,0,0,0,0,0,-1,1133,1107,0,0
-84,-83,0,0,0,0,0,0,0,0,0,-1,1140,1107,0,0
-77,-83,0,0,0,0,0,0,0,0,0,-1,1147,1107,0,0
-70,-83,0,0,0,0,0,0,0,0,0,-1,1154,1107,0,0
-63,-83,0,0,0,0,0,0,0,0,0,-1,1161,1107,0,0
-56,-83,0,0,0,0,0,0,0,0,0,-1,1168,1107,0,0
-49,-83,0,0,0,0,0,0,0,0,0,-1,1175,1107,0,0
-42,-83,0,0,0,0,0,0,0,0,0,-1,1182,1107,0,0
-35,-83,0,0,0,0,0,0,0,0,0,-1,1189,1107,0,0
-28,-83,0,0,0,0,0,0,0,0,0,-1,1196,1107,0,0
-21,-83,0,0,0,0,0,0,0,0,0,-1,1203,1107,0,0
-14,-83,0,0,0,0,0,0,0,0,0,-1,1210,1107,0,0
-7,-83,0,0,0,0,0,0,0,0,0,-1,1217,1107,0,0
0,-83,0,0,0,0,0,0,0,0,0,-1,1224,1107,0,0
7,-83,0,0,0,0,0,0,0,0,0,-1,1231,1107,0,0
14,-83,0,0,0,0,0,0,0,0,0,-1,1238,1107,0,0
21,-83,0,0,0,0,0,0,0,0,0,-1,1245,1107,0,0
28,-83,0,0,0,0,0,0,0,0,0,-1,1252,1107,0,0
35,-83,0,0,0,0,0,0,0,0,0,-1,1259,1107,0,0
42,-83,0,0,0,0,0,0,0,0,0,-1,1266,1107,0,0
49,-83,0,0,0,0,0,0,0,0,0,-1,1273,1107,0,0
56,-83,0,0,0,0,0,0,0,0,0,-1,1280,1107,0,0
63,-83,0,0,0,0,0,0,0,0,0,-1,1287,1107,0,0
70,-83,0,0,0,0,0,0,0,0,0,-1,1294,1107,0,0
77,-83,0,0,0,0,0,0,0,0,0,-1,1301,1107,0,0
84,-83,0,0,0,0,0,0,0,0,0,-1,1308,1107,0,0
91,-83,0,0,0,0,0,0,0,0,0,-1,1315,1107,0,0
98,-83,0,0,0,0,0,0,0,0,0,-1,1322,1107,0,0
105,-83,0,0,0,0,0,0,0,0,0,-1,1329,1107,0,0
112,-83,0,0,0,0,0,0,0,0,0,-1,1336,1107,0,0
119,-83,0,0,0,0,0,0,0,0,0,-1,1343,1107,0,0
126,-83,0,0,0,0,0,0,0,0,0,-1,1350,1107,0,0
133,-83,0,0,0,0,0,0,0,0,0,-1,1357,1107,0,0
140,-83,0,0,0,0,0,0,0,0,0,-1,1364,1107,0,0
147,-83,0,0,0,0,0,0,0,0,0,-1,1371,1107,0,0
154,-83,0,0,0,0,0,0,0,0,0,-1,1378,1107,0,0
161,-83,0,0,0,0,0,0,0,0,0,-1,1385,1107,0,0
168,-83,0,0,0,0,0,0,0,0,0,-1,1392,1107,0,0
175,-83,0,0,0,0,0,0,0,0,0,-1,1399,1107,0,0
182,-83,0,0,0,0,0,0,0,0,0,-1,1406,1107,0,0
189,-83,0,0,0,0,0,0,0,0,0,-1,1413,1107,0,0
196,-83,0,0,0,0,0,0,0,0,0,-1,1420,1107,0,0
203,-83,0,0,0,0,0,0,0,0,0,-1,1427,1107,0,0
210,-83,0,0,0,0,0,0,0,0,0,-1,1434,1107,0,0
217,-83,0,0,0,0,0,0,0,0,0,-1,1441,1107,0,0
224,-83,0,0,0,0,0,0,0,0,0,-1,1448,1107,0,0
231,-83,0,0,0,0,0,0,0,0,0,-1,1455,1107,0,0
238,-83,0,0,0,0,0,0,0,0,0,-1,1462,1107,0,0
245,-83,0,0,0,0,0,0,0,0,0,-1,1469,1107,0,0
252,-83,0,0,0,0,0,0,0,0,0,-1,1476,1107,0,0
259,-83,0,0,0,0,0,0,0,0,0,-1,1483,1107,0,0
266,-83,0,0,0,0,0,0,0,0,0,-1,1490,1107,0,0
273,-83,0,0,0,0,0,0,0,0,0,-1,1497,1107,0,0
280,-83,0,0,0,0,0,0,0,0,0,-1,1504,1107,0,0
287,-83,0,0,0,0,0,0,0,0,0,-1,1511,1107,0,0
294,-83,0,0,0,0,0,0,0,0,0,-1,1518,1107,0,0
301,-83,0,0,0,0,0,0,0,0,0,-1,1525,1107,0,0
308,-83,0,0,0,0,0,0,0,0,0,-1,1532,1107,0,0
315,-83,0,0,0,0,0,0,0,0,0,-1,1539,1107,0,0
322,-83,0,0,0,0,0,0,0,0,0,-1,1546,1107,0,0
329,-83,0,0,0,0,0,0,0,0,0,-1,1553,1107,0,0
336,-83,0,0,0,0,0,0,0,0,0,-1,1560,1107,0,0
343,-83,0,0,0,0,0,0,0,0,0,-1,1567,1107,0,0
350,-83,0,0,0,0,0,0,0,0,0,-1,1574,1107,0,0
357,-83,0,0,0,0,0,0,0,0,0,-1,1581,1107,0,0
364,-83,0,0,0,0,0,0,0,0,0,-1,1588,1107,0,0
371,-83,0,0,0,0,0,0,0,0,0,-1,1595,1107,0,0
378,-83,0,0,0,0,0,0,0,0,0,-1,1602,1107,0,0
385,-83,0,0,0,0,0,0,0,0,0,-1,1609,1107,0,0
392,-83,0,0,0,0,0,0,0,0,0,-1,1616,1107,0,0
399,-83,0,0,0,0,0,0,0,0,0,-1,1623,1107,0,0
406,-83,0,0,0,0,0,0,0,0,0,-1,1630,1107,0,0
413,-83,0,0,0,0,0,0,0,0,0,-1,1637,1107,0,0
420,-83,0,0,0,0,0,0,0,0,0,-1,1644,1107,0,0
427,-83,0,0,0,0,0,0,0,0,0,-1,1651,1107,0,0
434,-83,0,0,0,0,0,0,0,0,0,-1,1658,1107,0,0
441,-83,0,0,0,0,0,0,0,0,0,-1,1665,1107,0,0
448,-83,0,0,0,0,0,0,0,0,0,-1,1672,1107,0,0
455,-83,0,0,0,0,0,0,0,0,0,-1,1679,1107,0,0
462,-83,0,0,0,0,0,0,0,0,0,-1,1686,1107,0,0
469,-83,0,0,0,0,0,0,0,0,0,-1,1693,1107,0,0
476,-83,0,0,0,0,0,0,0,0,0,-1,1700,1107,0,0
483,-83,0,0,0,0,0,0,0,0,0,-1,1707,1107,0,0
490,-83,0,0,0,0,0,0,0,0,0,-1,1714,1107,0,0
497,-83,0,0,0,0,0,0,0,0,0,-1,1721,1107,0,0
504,-83,0,0,0,0,0,0,0,0,0,-1,1728,1107,0,0
511,-83,0,0,0,0,0,0,0,0,0,-1,1735,1107,0,0
518,-83,0,0,0,0,0,0,0,0,0,-1,1742,1107,0,0
525,-83,0,0,0,0,0,0,0,0,0,-1,1749,1107,0,0
532,-83,0,0,0,0,0,0,0,0,0,-1,1756,1107,0,0
539,-83,0,0,0,0,0,0,0,0,0,-1,1763,1107,0,0
546,-83,0,0,0,0,0,0,0,0,0,-1,1770,1107,0,0
553,-83,0,0,0,0,0,0,0,0,0,-1,1777,1107,0,0
560,-83,0,0,0,0,0,0,0,0,0,-1,1784,1107,0,0
567,-83,0,0,0,0,0,0,0,0,0,-1,1791,1107,0,0
574,-83,0,0,0,0,0,0,0,0,0,-1,1798,1107,0,0
581,-83,0,0,0,0,0,0,0,0,0,-1,1805,1107,0,0
588,-83,0,0,0,0,0,0,0,0,0,-1,1812,1107,0,0
595,-83,0,0,0,0,0,0,0,0,0,-1,1819,1107,0,0
602,-83,0,0,0,0,0,0,0,0,0,-1,1826,1107,0,0
609,-83,0,0,0,0,0,0,0,0,0,-1,1833,1107,0,0
616,-83,0,0,0,0,0,0,0,0,0,-1,1840,1107,0,0
623,-83,0,0,0,0,0,0,0,0,0,-1,1847,1107,0,0
630,-83,0,0,0,0,0,0,0,0,0,-1,1854,1107,0,0
637,-83,0,0,0,0,0,0,0,0,0,-1,1861,1107,0,0
644,-83,21.6689,2.73987,-8.71638e-05,-0.00411398,-0.00152556,0.000425518,-0.00462666,-0.324205,0.00323562,0.0353416,1868,1107,21.669,-2.73986
651,-83,21.7028,2.8595,0.000717242,-0.00306654,-0.00124017,0.00108749,-0.00343679,-0.290122,0.00272695,0.0410646,1875,1107,21.7027,-2.85955
658,-83,21.6685,2.97607,0.00130943,-0.00233898,-0.00122958,0.00168512,-0.00271468,-0.296543,0.00256331,0.0451631,1882,1107,21.6684,-2.9761
665,-83,21.6537,2.98035,0.0016373,-0.00180336,-0.000902516,0.00185967,-0.00202573,-0.241574,0.00224392,0.0417597,1889,1107,21.6537,-2.98031
672,-83,21.6694,2.9209,0.00122994,-0.00176364,0.000433052,0.00129133,-0.00182503,0.140815,0.001808,0.0363207,1896,1107,21.6694,-2.92088
679,-83,21.7371,2.85681,0.000266803,-0.0019443,0.0020206,0.00146453,-0.00314202,0.535075,0.00271774,0.0363195,1903,1107,21.737,-2.85679
686,-83,21.8007,2.86169,-0.000814875,-0.00219,0.00349182,0.00205644,-0.00506131,0.688189,0.00422974,0.0342084,1910,1107,21.8007,-2.8617
693,-83,21.7964,2.78711,-0.00180983,-0.00242658,0.00471619,0.00260806,-0.00684447,0.752751,0.00563716,0.0351535,1917,1107,21.7964,-2.78716
700,-83,21.7838,2.76941,-0.00263383,-0.00252207,0.00558807,0.0030104,-0.0081663,0.790398,0.00667781,0.0321978,1924,1107,21.7838,-2.76946
707,-83,21.7303,2.74976,-0.00326721,-0.00255673,0.00620241,0.0033006,-0.00912455,0.814004,0.0074317,0.0227344,1931,1107,21.7303,-2.74973
714,-83,21.7552,3.05054,-0.00379307,-0.00251896,0.00655442,0.00342929,-0.00974133,0.833843,0.00788978,0.037246,1938,1107,21.7553,-3.05058
721,-83,20.9333,4.35547,0,0,0,0,0,0,0,-1,1945,1107,20.9333,-4.35543
728,-83,20.9244,4.2478,-0.00442319,-0.00202723,0.00630834,0.00319588,-0.0096463,0.879233,0.0077199,0.0201935,1952,1107,20.9244,-4.24783
735,-83,20.8688,4.18762,-0.00466756,-0.00151834,0.00570678,0.00282708,-0.00901298,0.920009,0.00714008,0.0213402,1959,1107,20.8688,-4.1876
742,-83,20.9561,4.16931,-0.00489394,-0.000641253,0.00490089,0.00257469,-0.00810988,0.990078,0.00643876,0.0129089,1966,1107,20.956,-4.16937
749,-83,20.968,4.10779,-0.00456547,5.80177e-05,0.00439601,0.00271307,-0.00722052,1.02746,0.00592871,0.0105137,1973,1107,20.968,-4.1078
756,-83,20.9908,4.0481,-0.00398278,0.00107928,0.00429145,0.00353049,-0.00643399,1.05184,0.00583383,0.0135027,1980,1107,20.9909,-4.04811
763,-83,20.9779,3.95728,-0.00325816,0.00352577,0.00392725,0.0053231,-0.00505548,1.1416,0.00599274,0.0115861,1987,1107,20.9779,-3.95722
770,-83,20.9487,3.88489,-0.00248716,0.00579169,0.00394393,0.00736973,-0.00406521,1.19019,0.00669322,0.0130445,1994,1107,20.9487,-3.88483
777,-83,20.9244,3.81079,-0.00169124,0.00846727,0.00514698,0.0106192,-0.00384318,1.17479,0.00864996,0.013485,2001,1107,20.9244,-3.81085
784,-83,20.8809,3.7533,-0.000745669,0.0117714,0.007133,0.0150023,-0.00397655,1.14549,0.0115574,0.0231731,2008,1107,20.8808,-3.75324
791,-83,20.3302,4.00537,0.000646776,0.0160924,0.00982581,0.0208671,-0.00412794,1.11846,0.0154721,0.0423312,2015,1107,20.3301,-4.00541
798,-83,19.7598,4.27319,0.00291928,0.0218372,0.0131644,0.0285886,-0.00383207,1.09692,0.0204564,0.0451017,2022,1107,19.7598,-4.27321
805,-83,19.4756,4.35657,0.00633902,0.0295426,0.0171274,0.0386278,-0.00274616,1.08309,0.0267143,0.0455266,2029,1107,19.4757,-4.35661
812,-83,21.3787,2.46729,0,0,0,0,0,0,0,-1,2036,1107,21.3787,-2.46727
-700,-90,0,0,0,0,0,0,0,0,0,-1,524,1114,0,0
-693,-90,-12.612,0.484009,0.0710828,0.0170727,0.00621581,0.0717889,0.0163666,0.113116,0.0434438,0.0442763,531,1114,-12.612,-0.484061
-686,-90,-12.7033,1.09473,0,0,0,0,0,0,0,-1,538,1114,-12.7033,-1.09471
-679,-90,-14.3572,0.201172,0.0475088,0.00367271,0.00486061,0.0480413,0.00314023,0.109116,0.0310338,0.0429557,545,1114,-14.3572,-0.201214
-672,-90,-13.8864,0.445923,0.0373753,0.0010113,0.00414419,0.0378416,0.000544991,0.11205,0.025048,0.0431745,552,1114,-13.8864,-0.445922
-665,-90,-13.001,0.461182,0,0,0,0,0,0,0,-1,559,1114,-13.001,-0.461217
-658,-90,-13.1326,0.739868,0.020889,-0.000447136,0.00282917,0.0212578,-0.000815908,0.129616,0.0144515,0.0449586,566,1114,-13.1327,-0.739868
-651,-90,-13.2784,1.0094,0.0146631,-0.00028045,0.00226322,0.0149983,-0.000615697,0.147059,0.0102103,0.03098,573,1114,-13.2784,-1.00936
-644,-90,-13.3653,1.26636,0.00975413,-0.000392229,0.00186954,0.0100876,-0.000725742,0.176536,0.0069796,0.0143543,580,1114,-13.3653,-1.26632
-637,-90,-13.3566,1.4386,0.0049449,-0.00063388,0.000431568,0.00497809,-0.000667068,0.0767504,0.00356196,0.0120257,587,1114,-13.3566,-1.43862
-630,-90,-13.3596,1.53577,0.00110373,-0.000874143,-0.00122009,0.00168534,-0.00145575,-0.444828,0.00181512,0.0114517,594,1114,-13.3596,-1.53574
-623,-90,-13.3589,1.63074,-0.00172554,-0.000569491,-0.00275227,0.00166479,-0.00395983,-0.888903,0.00333627,0.00921857,601,1114,-13.359,-1.63072
-616,-90,-13.365,1.74255,-0.00322173,-0.000545744,-0.00384572,0.00218809,-0.00595557,-0.952807,0.00486657,0.00827221,608,1114,-13.365,-1.74252
-609,-90,-13.3866,1.82788,-0.00392693,-0.00106412,-0.00498284,0.00268884,-0.00767989,-0.925266,0.00621327,0.0119888,615,1114,-13.3866,-1.82794
-602,-90,-13.4105,1.93762,-0.00449461,-0.00187848,-0.0061265,0.00307804,-0.00945112,-0.890574,0.0075392,0.0121066,622,1114,-13.4105,-1.93765
-595,-90,-13.3327,2.07568,-0.00481239,-0.00246759,-0.00704515,0.00350205,-0.010782,-0.867849,0.00859653,0.0140556,629,1114,-13.3327,-2.07567
-588,-90,-13.4011,1.96423,-0.00490663,-0.00262778,-0.00744043,0.00375997,-0.0112944,-0.861378,0.0090472,0.0283833,636,1114,-13.401,-1.96429
-581,-90,-14.054,0.843994,0,0,0,0,0,0,0,-1,643,1114,-14.054,-0.844003
-574,-90,-14.0207,0.844482,-0.0045374,-0.00233569,-0.0069587,0.0036087,-0.0104818,-0.863847,0.00845159,0.0361973,650,1114,-14.0207,-0.844433
-567,-90,-13.9437,0.868896,-0.00398624,-0.00186974,-0.00613447,0.00329709,-0.00915307,-0.870812,0.00744843,0.0384939,657,1114,-13.9436,-0.868893
-560,-90,-13.9506,0.977661,-0.00309133,-0.00117363,-0.00477341,0.00273629,-0.00700125,-0.884516,0.00579893,0.0412829,664,1114,-13.9506,-0.977665
-553,-90,-13.8647,1.03894,-0.00192582,-0.000289407,-0.00291281,0.00191793,-0.00413316,-0.922319,0.00357078,0.0403738,671,1114,-13.8647,-1.03894
-546,-90,-13.9411,0.988647,-0.000562432,0.000716541,-0.000555807,0.000924323,-0.000770215,-1.21304,0.00097969,0.0421238,678,1114,-13.9411,-0.988675
-539,-90,-13.9668,0.972778,0.00092136,0.00169079,0.00214181,0.00348216,-0.000870015,0.874261,0.00265932,0.0426064,685,1114,-13.9668,-0.972743
-532,-90,-13.9438,0.818481,0.00112636,0.0020134,0.00360115,0.00519824,-0.00205848,0.84667,0.00431841,0.0449813,692,1114,-13.9439,-0.818494
-525,-90,0,0,0,0,0,0,0,0,0,-1,699,1114,0,0
-518,-90,0,0,0,0,0,0,0,0,0,-1,706,1114,0,0
-511,-90,0,0,0,0,0,0,0,0,0,-1,713,1114,0,0
-504,-90,0,0,0,0,0,0,0,0,0,-1,720,1114,0,0
-497,-90,0,0,0,0,0,0,0,0,0,-1,727,1114,0,0
-490,-90,0,0,0,0,0,0,0,0,0,-1,734,1114,0,0
-483,-90,0,0,0,0,0,0,0,0,0,-1,741,1114,0,0
-476,-90,0,0,0,0,0,0,0,0,0,-1,748,1114,0,0
-469,-90,0,0,0,0,0,0,0,0,0,-1,755,1114,0,0
-462,-90,0,0,0,0,0,0,0,0,0,-1,762,1114,0,0
-455,-90,0,0,0,0,0,0,0,0,0,-1,769,1114,0,0
-448,-90,0,0,0,0,0,0,0,0,0,-1,776,1114,0,0
-441,-90,0,0,0,0,0,0,0,0,0,-1,783,1114,0,0
-434,-90,0,0,0,0,0,0,0,0,0,-1,790,1114,0,0
-427,-90,0,0,0,0,0,0,0,0,0,-1,797,1114,0,0
-420,-90,0,0,0,0,0,0,0,0,0,-1,804,1114,0,0
-413,-90,0,0,0,0,0,0,0,0,0,-1,811,1114,0,0
-406,-90,0,0,0,0,0,0,0,0,0,-1,818,1114,0,0
-399,-90,0,0,0,0,0,0,0,0,0,-1,825,1114,0,0
-392,-90,0,0,0,0,0,0,0,0,0,-1,832,1114,0,0
-385,-90,0,0,0,0,0,0,0,0,0,-1,839,1114,0,0
-378,-90,0,0,0,0,0,0,0,0,0,-1,846,1114,0,0
-371,-90,0,0,0,0,0,0,0,0,0,-1,853,1114,0,0
-364,-90,0,0,0,0,0,0,0,0,0,-1,860,1114,0,0
-357,-90,0,0,0,0,0,0,0,0,0,-1,867,1114,0,0
-350,-90,0,0,0,0,0,0,0,0,0,-1,874,1114,0,0
-343,-90,0,0,0,0,0,0,0,0,0,-1,881,1114,0,0
-336,-90,0,0,0,0,0,0,0,0,0,-1,888,1114,0,0
-329,-90,0,0,0,0,0,0,0,0,0,-1,895,1114,0,0
-322,-90,0,0,0,0,0,0,0,0,0,-1,902,1114,0,0
-315,-90,0,0,0,0,0,0,0,0,0,-1,909,1114,0,0
-308,-90,0,0,0,0,0,0,0,0,0,-1,916,1114,0,0
-301,-90,0,0,0,0,0,0,0,0,0,-1,923,1114,0,0
-294,-90,0,0,0,0,0,0,0,0,0,-1,930,1114,0,0
-287,-90,0,0,0,0,0,0,0,0,0,-1,937,1114,0,0
-280,-90,0,0,0,0,0,0,0,0,0,-1,944,1114,0,0
-273,-90,0,0,0,0,0,0,0,0,0,-1,951,1114,0,0
-266,-90,0,0,0,0,0,0,0,0,0,-1,958,1114,0,0
-259,-90,0,0,0,0,0,0,0,0,0,-1,965,1114,0,0
-252,-90,0,0,0,0,0,0,0,0,0,-1,972,1114,0,0
-245,-90,0,0,0,0,0,0,0,0,0,-1,979,1114,0,0
-238,-90,0,0,0,0,0,0,0,0,0,-1,986,1114,0,0
-231,-90,0,0,0,0,0,0,0,0,0,-1,993,1114,0,0
-224,-90,0,0,0,0,0,0,0,0,0,-1,1000,1114,0,0
-217,-90,0,0,0,0,0,0,0,0,0,-1,1007,1114,0,0
-210,-90,0,0,0,0,0,0,0,0,0,-1,1014,1114,0,0
-203,-90,0,0,0,0,0,0,0,0,0,-1,1021,1114,0,0
-196,-90,0,0,0,0,0,0,0,0,0,-1,1028,1114,0,0
-189,-90,0,0,0,0,0,0,0,0,0,-1,1035,1114,0,0
-182,-90,0,0,0,0,0,0,0,0,0,-1,1042,1114,0,0
-175,-90,0,0,0,0,0,0,0,0,0,-1,1049,1114,0,0
-168,-90,0,0,0,0,0,0,0,0,0,-1,1056,1114,0,0
-161,-90,0,0,0,0,0,0,0,0,0,-1,1063,1114,0,0
-154,-90,0,0,0,0,0,0,0,0,0,-1,1070,1114,0,0
-147,-90,0,0,0,0,0,0,0,0,0,-1,1077,1114,0,0
-140,-90,0,0,0,0,0,0,0,0,0,-1,1084,1114,0,0
-133,-90,0,0,0,0,0,0,0,0,0,-1,1091,1114,0,0
-126,-90,0,0,0,0,0,0,0,0,0,-1,1098,1114,0,0
-119,-90,0,0,0,0,0,0,0,0,0,-1,1105,1114,0,0
-112,-90,0,0,0,0,0,0,0,0,0,-1,1112,1114,0,0
-105,-90,0,0,0,0,0,0,0,0,0,-1,1119,1114,0,0
-98,-90,0,0,0,0,0,0,0,0,0,-1,1126,1114,0,0
-91,-90,0,0,0,0,0,0,0,0,0,-1,1133,1114,0,0
-84,-90,0,0,0,0,0,0,0,0,0,-1,1140,1114,0,0
-77,-90,0,0,0,0,0,0,0,0,0,-1,1147,1114,0,0
-70,-90,0,0,0,0,0,0,0,0,0,-1,1154,1114,0,0
-63,-90,0,0,0,0,0,0,0,0,0,-1,1161,1114,0,0
-56,-90,0,0,0,0,0,0,0,0,0,-1,1168,1114,0,0
-49,-90,0,0,0,0,0,0,0,0,0,-1,1175,1114,0,0
-42,-90,0,0,0,0,0,0,0,0,0,-1,1182,1114,0,0
-35,-90,0,0,0,0,0,0,0,0,0,-1,1189,1114,0,0
-28,-90,0,0,0,0,0,0,0,0,0,-1,1196,1114,0,0
-21,-90,0,0,0,0,0,0,0,0,0,-1,1203,1114,0,0
-14,-90,0,0,0,0,0,0,0,0,0,-1,1210,1114,0,0
-7,-90,0,0,0,0,0,0,0,0,0,-1,1217,1114,0,0
0,-90,0,0,0,0,0,0,0,0,0,-1,1224,1114,0,0
7,-90,0,0,0,0,0,0,0,0,0,-1,1231,1114,0,0
14,-90,0,0,0,0,0,0,0,0,0,-1,1238,1114,0,0
21,-90,0,0,0,0,0,0,0,0,0,-1,1245,1114,0,0
28,-90,0,0,0,0,0,0,0,0,0,-1,1252,1114,0,0
35,-90,0,0,0,0,0,0,0,0,0,-1,1259,1114,0,0
42,-90,0,0,0,0,0,0,0,0,0,-1,1266,1114,0,0
49,-90,0,0,0,0,0,0,0,0,0,-1,1273,1114,0,0
56,-90,0,0,0,0,0,0,0,0,0,-1,1280,1114,0,0
63,-90,0,0,0,0,0,0,0,0,0,-1,1287,1114,0,0
70,-90,0,0,0,0,0,0,0,0,0,-1,1294,1114,0,0
77,-90,0,0,0,0,0,0,0,0,0,-1,1301,1114,0,0
84,-90,0,0,0,0,0,0,0,0,0,-1,1308,1114,0,0
91,-90,0,0,0,0,0,0,0,0,0,-1,1315,1114,0,0
98,-90,0,0,0,0,0,0,0,0,0,-1,1322,1114,0,0
105,-90,0,0,0,0,0,0,0,0,0,-1,1329,1114,0,0
112,-90,0,0,0,0,0,0,0,0,0,-1,1336,1114,0,0
119,-90,0,0,0,0,0,0,0,0,0,-1,1343,1114,0,0
126,-90,0,0,0,0,0,0,0,0,0,-1,1350,1114,0,0
133,-90,0,0,0,0,0,0,0,0,0,-1,1357,1114,0,0
140,-90,0,0,0,0,0,0,0,0,0,-1,1364,1114,0,0
147,-90,0,0,0,0,0,0,0,0,0,-1,1371,1114,0,0
154,-90,0,0,0,0,0,0,0,0,0,-1,1378,1114,0,0
161,-90,0,0,0,0,0,0,0,0,0,-1,1385,1114,0,0
168,-90,0,0,0,0,0,0,0,0,0,-1,1392,1114,0,0
175,-90,0,0,0,0,0,0,0,0,0,-1,1399,1114,0,0
182,-90,0,0,0,0,0,0,0,0,0,-1,1406,1114,0,0
189,-90,0,0,0,0,0,0,0,0,0,-1,1413,1114,0,0
196,-90,0,0,0,0,0,0,0,0,0,-1,1420,1114,0,0
203,-90,0,0,0,0,0,0,0,0,0,-1,1427,1114,0,0
210,-90,0,0,0,0,0,0,0,0,0,-1,1434,1114,0,0
217,-90,0,0,0,0,0,0,0,0,0,-1,1441,1114,0,0
224,-90,0,0,0,0,0,0,0,0,0,-1,1448,1114,0,0
231,-90,0,0,0,0,0,0,0,0,0,-1,1455,1114,0,0
238,-90,0,0,0,0,0,0,0,0,0,-1,1462,1114,0,0
245,-90,0,0,0,0,0,0,0,0,0,-1,1469,1114,0,0
252,-90,0,0,0,0,0,0,0,0,0,-1,1476,1114,0,0
259,-90,0,0,0,0,0,0,0,0,0,-1,1483,1114,0,0
266,-90,0,0,0,0,0,0,0,0,0,-1,1490,1114,0,0
273,-90,0,0,0,0,0,0,0,0,0,-1,1497,1114,0,0
280,-90,0,0,0,0,0,0,0,0,0,-1,1504,1114,0,0
287,-90,0,0,0,0,0,0,0,0,0,-1,1511,1114,0,0
294,-90,0,0,0,0,0,0,0,0,0,-1,1518,1114,0,0
301,-90,0,0,0,0,0,0,0,0,0,-1,1525,1114,0,0
308,-90,0,0,0,0,0,0,0,0,0,-1,1532,1114,0,0
315,-90,0,0,0,0,0,0,0,0,0,-1,1539,1114,0,0
322,-90,0,0,0,0,0,0,0,0,0,-1,1546,1114,0,0
329,-90,0,0,0,0,0,0,0,0,0,-1,1553,1114,0,0
336,-90,0,0,0,0,0,0,0,0,0,-1,1560,1114,0,0
343,-90,0,0,0,0,0,0,0,0,0,-1,1567,1114,0,0
350,-90,0,0,0,0,0,0,0,0,0,-1,1574,1114,0,0
357,-90,0,0,0,0,0,0,0,0,0,-1,1581,1114,0,0
364,-90,0,0,0,0,0,0,0,0,0,-1,1588,1114,0,0
371,-90,0,0,0,0,0,0,0,0,0,-1,1595,1114,0,0
378,-90,0,0,0,0,0,0,0,0,0,-1,1602,1114,0,0
385,-90,0,0,0,0,0,0,0,0,0,-1,1609,1114,0,0
392,-90,0,0,0,0,0,0,0,0,0,-1,1616,1114,0,0
399,-90,0,0,0,0,0,0,0,0,0,-1,1623,1114,0,0
406,-90,0,0,0,0,0,0,0,0,0,-1,1630,1114,0,0
413,-90,0,0,0,0,0,0,0,0,0,-1,1637,1114,0,0
420,-90,0,0,0,0,0,0,0,0,0,-1,1644,1114,0,0
427,-90,0,0,0,0,0,0,0,0,0,-1,1651,1114,0,0
434,-90,0,0,0,0,0,0,0,0,0,-1,1658,1114,0,0
441,-90,0,0,0,0,0,0,0,0,0,-1,1665,1114,0,0
448,-90,0,0,0,0,0,0,0,0,0,-1,1672,1114,0,0
455,-90,0,0,0,0,0,0,0,0,0,-1,1679,1114,0,0
462,-90,0,0,0,0,0,0,0,0,0,-1,1686,1114,0,0
469,-90,0,0,0,0,0,0,0,0,0,-1,1693,1114,0,0
476,-90,0,0,0,0,0,0,0,0,0,-1,1700,1114,0,0
483,-90,0,0,0,0,0,0,0,0,0,-1,1707,1114,0,0
490,-90,0,0,0,0,0,0,0,0,0,-1,1714,1114,0,0
497,-90,0,0,0,0,0,0,0,0,0,-1,1721,1114,0,0
504,-90,0,0,0,0,0,0,0,0,0,-1,1728,1114,0,0
511,-90,0,0,0,0,0,0,0,0,0,-1,1735,1114,0,0
518,-90,0,0,0,0,0,0,0,0,0,-1,1742,1114,0,0
525,-90,0,0,0,0,0,0,0,0,0,-1,1749,1114,0,0
532,-90,0,0,0,0,0,0,0,0,0,-1,1756,1114,0,0
539,-90,0,0,0,0,0,0,0,0,0,-1,1763,1114,0,0
546,-90,0,0,0,0,0,0,0,0,0,-1,1770,1114,0,0
553,-90,0,0,0,0,0,0,0,0,0,-1,1777,1114,0,0
560,-90,0,0,0,0,0,0,0,0,0,-1,1784,1114,0,0
567,-90,0,0,0,0,0,0,0,0,0,-1,1791,1114,0,0
574,-90,0,0,0,0,0,0,0,0,0,-1,1798,1114,0,0
581,-90,0,0,0,0,0,0,0,0,0,-1,1805,1114,0,0
588,-90,0,0,0,0,0,0,0,0,0,-1,1812,1114,0,0
595,-90,0,0,0,0,0,0,0,0,0,-1,1819,1114,0,0
602,-90,0,0,0,0,0,0,0,0,0,-1,1826,1114,0,0
609,-90,0,0,0,0,0,0,0,0,0,-1,1833,1114,0,0
616,-90,0,0,0,0,0,0,0,0,0,-1,1840,1114,0,0
623,-90,0,0,0,0,0,0,0,0,0,-1,1847,1114,0,0
630,-90,0,0,0,0,0,0,0,0,0,-1,1854,1114,0,0
637,-90,0,0,0,0,0,0,0,0,0,-1,1861,1114,0,0
644,-90,21.6147,2.95313,0.00124265,-0.00463783,-0.00140024,0.00155904,-0.00495422,-0.222227,0.00392704,0.0358053,1868,1114,21.6147,-2.95318
651,-90,21.6964,2.84839,0.00163398,-0.00345166,-0.00123941,0.00191995,-0.00373763,-0.226765,0.00332213,0.0395255,1875,1114,21.6965,-2.84833
658,-90,21.7109,2.83704,0.00204893,-0.00258308,-0.00131578,0.0023966,-0.00293075,-0.258327,0.0030809,0.041714,1882,1114,21.711,-2.83699
665,-90,21.7057,2.85474,0.00205456,-0.00194871,-0.000918547,0.00225526,-0.00214941,-0.215114,0.00254328,0.0415032,1889,1114,21.7057,-2.85472
672,-90,21.7169,2.82373,0.00124153,-0.00184321,0.000507478,0.00132287,-0.00192455,0.158934,0.0018856,0.0403229,1896,1114,21.717,-2.8237
679,-90,21.6471,2.83008,-1.53275e-05,-0.00195918,0.00211406,0.00133953,-0.00331403,0.569935,0.00276617,0.0393588,1903,1114,21.6471,-2.8301
686,-90,21.7041,2.87488,-0.00129298,-0.00216502,0.00359101,0.00188838,-0.00534638,0.724985,0.00433312,0.0361231,1910,1114,21.7041,-2.87482
693,-90,21.7526,2.82813,-0.00240455,-0.00236906,0.00480584,0.00241907,-0.00719268,0.787244,0.00577297,0.0343191,1917,1114,21.7526,-2.82816
700,-90,21.7661,2.75098,-0.00327773,-0.00243862,0.00565124,0.00280862,-0.00852497,0.822451,0.00681524,0.0300028,1924,1114,21.7662,-2.75099
707,-90,21.7651,2.52075,0,0,0,0,0,0,0,-1,1931,1114,21.7652,-2.52081
714,-90,21.6862,3.24829,0,0,0,0,0,0,0,-1,1938,1114,21.6862,-3.24835
721,-90,20.8961,4.35632,0,0,0,0,0,0,0,-1,1945,1114,20.8961,-4.35634
728,-90,20.8798,4.3075,-0.00492029,-0.00190627,0.00626078,0.00302633,-0.00985288,0.903504,0.0077762,0.0175784,1952,1114,20.8798,-4.3075
735,-90,20.8585,4.22986,-0.00495421,-0.00139634,0.00559832,0.00269888,-0.00904944,0.939234,0.00710554,0.020272,1959,1114,20.8586,-4.2298
742,-90,20.8627,4.16138,-0.00498884,-0.000429889,0.00466856,0.00248597,-0.00790469,1.0125,0.00626507,0.0167975,1966,1114,20.8627,-4.16133
749,-90,20.9122,4.07581,-0.00451982,0.000305407,0.00404187,0.00259996,-0.00681437,1.05447,0.00561397,0.0112539,1973,1114,20.9122,-4.07585
756,-90,20.9351,4.01477,-0.00386076,0.00147262,0.00372355,0.00338589,-0.00577403,1.09615,0.00534806,0.0132741,1980,1114,20.9351,-4.01477
763,-90,20.8986,3.94165,-0.00295426,0.00401126,0.00311136,0.00519863,-0.00414164,1.20623,0.00540411,0.012577,1987,1114,20.8986,-3.94161
770,-90,20.8708,3.85583,-0.00202433,0.00644915,0.00283289,0.007309,-0.00288418,1.27611,0.00606705,0.0138929,1994,1114,20.8709,-3.85579
777,-90,20.8362,3.79883,-0.00117306,0.00926553,0.00371638,0.0104535,-0.00236099,1.26141,0.00787484,0.012333,2001,1114,20.8362,-3.79885
784,-90,20.7927,3.73706,-0.000182368,0.0127299,0.0052913,0.0146211,-0.00207367,1.22751,0.0105071,0.0245977,2008,1114,20.7927,-3.73712
791,-90,20.2721,3.85193,0.0012886,0.0172049,0.00747765,0.0201668,-0.00167329,1.19366,0.0140356,0.0409815,2015,1114,20.272,-3.85194
798,-90,19.7905,3.96277,0,0,0,0,0,0,0,-1,2022,1114,19.7905,-3.96278
805,-90,19.1833,4.84778,0,0,0,0,0,0,0,-1,2029,1114,19.1832,-4.84775
812,-90,21.4663,3.20532,0,0,0,0,0,0,0,-1,2036,1114,21.4664,-3.20534
-700,-97,0,0,0,0,0,0,0,0,0,-1,524,1121,0,0
-693,-97,-12.2072,0.0938721,0,0,0,0,0,0,0,-1,531,1121,-12.2072,-0.0938122
-686,-97,-14.6187,0.303589,0,0,0,0,0,0,0,-1,538,1121,-14.6187,-0.303592
-679,-97,-14.0919,0.547241,0.0630712,0.00392962,0.00591905,0.0636578,0.00334304,0.0987773,0.0413692,0.0439196,545,1121,-14.0919,-0.547214
-672,-97,-13.6713,0.856689,0.0496167,0.00183973,0.00468489,0.0500717,0.00138468,0.0968285,0.0329293,0.0430716,552,1121,-13.6713,-0.856696
-665,-97,-13.4457,0.934326,0.0378878,0.000964522,0.003693,0.0382535,0.000598779,0.0987153,0.0253051,0.0424328,559,1121,-13.4457,-0.934338
-658,-97,-13.0377,0.760132,0.0279152,0.000771189,0.00287702,0.0282168,0.000469602,0.104445,0.0186566,0.0424072,566,1121,-13.0376,-0.760188
-651,-97,-13.1536,0.992188,0.0197585,0.000870289,0.00222397,0.0200168,0.000611964,0.115637,0.0131453,0.0299686,573,1121,-13.1536,-0.992154
-644,-97,-13.2576,1.27039,0.0133885,0.0006795,0.00176191,0.0136282,0.00043976,0.135238,0.0089425,0.0111082,580,1121,-13.2576,-1.2704
-637,-97,-13.2464,1.41199,0.00732865,0.000275614,0.000290395,0.00734059,0.000263678,0.0410803,0.00480824,0.0117283,587,1121,-13.2464,-1.41197
-630,-97,-13.2446,1.51135,0.00239893,-0.000268725,-0.00126492,0.00290334,-0.000773132,-0.379443,0.00223823,0.00992653,594,1121,-13.2446,-1.51131
-623,-97,-13.2493,1.65149,-0.00138821,-0.000134791,-0.00286005,0.0021664,-0.00368941,-0.893256,0.00341876,0.0108607,601,1121,-13.2493,-1.65148
-616,-97,-13.2584,1.77771,-0.00339643,-0.000314642,-0.00398949,0.00242119,-0.00613226,-0.969692,0.00509091,0.0117441,608,1121,-13.2584,-1.7777
-609,-97,-13.2897,1.86182,-0.00437704,-0.00099535,-0.00520629,0.00278778,-0.00816016,-0.94241,0.00656958,0.0148945,615,1121,-13.2897,-1.86178
-602,-97,-13.3065,1.93738,-0.00515965,-0.00188132,-0.0064323,0.00311739,-0.0101584,-0.910159,0.00801604,0.0140976,622,1121,-13.3065,-1.93737
-595,-97,-13.2512,2.05945,-0.00558348,-0.00246882,-0.00744149,0.00357655,-0.0116288,-0.888548,0.00918,0.017841,629,1121,-13.2512,-2.05944
-588,-97,-13.2602,2.09998,-0.00574225,-0.00259957,-0.00791767,0.00390117,-0.012243,-0.883355,0.00972676,0.0277964,636,1121,-13.2602,-2.09998
-581,-97,-13.817,1.34998,-0.00569714,-0.00248859,-0.00789034,0.00395891,-0.0121446,-0.885692,0.00968951,0.0384326,643,1121,-13.817,-1.34992
-574,-97,-14.0286,0.871582,-0.00543293,-0.00227243,-0.00748864,0.00380088,-0.0115062,-0.889382,0.00920323,0.0389968,650,1121,-14.0286,-0.871554
-567,-97,-14.0073,0.890015,-0.00484534,-0.00178577,-0.00667947,0.00353686,-0.010168,-0.897971,0.00821542,0.0363145,657,1121,-14.0072,-0.890066
-560,-97,-13.8759,1.04187,-0.00386738,-0.00108227,-0.00529537,0.00300059,-0.00795024,-0.913975,0.00653419,0.0406283,664,1121,-13.8758,-1.04187
-553,-97,-13.7981,1.44617,-0.00257191,-0.0002155,-0.00336791,0.00217434,-0.00496175,-0.953661,0.0042235,0.0435588,671,1121,-13.7981,-1.44613
-546,-97,-13.8569,1.20679,-0.00104869,0.000732498,-0.000892476,0.00110273,-0.00141892,-1.17757,0.00145968,0.0438538,678,1121,-13.8568,-1.20675
-539,-97,-13.9493,1.01392,0.000647841,0.00160333,0.00204575,0.00322638,-0.000975206,0.900108,0.0025392,0.0415014,685,1121,-13.9493,-1.0139
-532,-97,-13.9786,0.958252,0.00117841,0.00179964,0.00404365,0.00554459,-0.00256654,0.823731,0.00478702,0.0393039,692,1121,-13.9786,-0.958208
-525,-97,0,0,0,0,0,0,0,0,0,-1,699,1121,0,0
-518,-97,0,0,0,0,0,0,0,0,0,-1,706,1121,0,0
-511,-97,0,0,0,0,0,0,0,0,0,-1,713,1121,0,0
-504,-97,0,0,0,0,0,0,0,0,0,-1,720,1121,0,0
-497,-97,0,0,0,0,0,0,0,0,0,-1,727,1121,0,0
-490,-97,0,0,0,0,0,0,0,0,0,-1,734,1121,0,0
-483,-97,0,0,0,0,0,0,0,0,0,-1,741,1121,0,0
-476,-97,0,0,0,0,0,0,0,0,0,-1,748,1121,0,0
-469,-97,0,0,0,0,0,0,0,0,0,-1,755,1121,0,0
-462,-97,0,0,0,0,0,0,0,0,0,-1,762,1121,0,0
-455,-97,0,0,0,0,0,0,0,0,0,-1,769,1121,0,0
-448,-97,0,0,0,0,0,0,0,0,0,-1,776,1121,0,0
-441,-97,0,0,0,0,0,0,0,0,0,-1,783,1121,0,0
-434,-97,0,0,0,0,0,0,0,0,0,-1,790,1121,0,0
-427,-97,0,0,0,0,0,0,0,0,0,-1,797,1121,0,0
-420,-97,0,0,0,0,0,0,0,0,0,-1,804,1121,0,0
-413,-97,0,0,0,0,0,0,0,0,0,-1,811,1121,0,0
-406,-97,0,0,0,0,0,0,0,0,0,-1,818,1121,0,0
-399,-97,0,0,0,0,0,0,0,0,0,-1,825,1121,0,0
-392,-97,0,0,0,0,0,0,0,0,0,-1,832,1121,0,0
-385,-97,0,0,0,0,0,0,0,0,0,-1,839,1121,0,0
-378,-97,0,0,0,0,0,0,0,0,0,-1,846,1121,0,0
-371,-97,0,0,0,0,0,0,0,0,0,-1,853,1121,0,0
-364,-97,0,0,0,0,0,0,0,0,0,-1,860,1121,0,0
-357,-97,0,0,0,0,0,0,0,0,0,-1,867,1121,0,0
-350,-97,0,0,0,0,0,0,0,0,0,-1,874,1121,0,0
-343,-97,0,0,0,0,0,0,0,0,0,-1,881,1121,0,0
-336,-97,0,0,0,0,0,0,0,0,0,-1,888,1121,0,0
-329,-97,0,0,0,0,0,0,0,0,0,-1,895,1121,0,0
-322,-97,0,0,0,0,0,0,0,0,0,-1,902,1121,0,0
-315,-97,0,0,0,0,0,0,0,0,0,-1,909,1121,0,0
-308,-97,0,0,0,0,0,0,0,0,0,-1,916,1121,0,0
-301,-97,0,0,0,0,0,0,0,0,0,-1,923,1121,0,0
-294,-97,0,0,0,0,0,0,0,0,0,-1,930,1121,0,0
-287,-97,0,0,0,0,0,0,0,0,0,-1,937,1121,0,0
-280,-97,0,0,0,0,0,0,0,0,0,-1,944,1121,0,0
-273,-97,0,0,0,0,0,0,0,0,0,-1,951,1121,0,0
-266,-97,0,0,0,0,0,0,0,0,0,-1,958,1121,0,0
-259,-97,0,0,0,0,0,0,0,0,0,-1,965,1121,0,0
-252,-97,0,0,0,0,0,0,0,0,0,-1,972,1121,0,0
-245,-97,0,0,0,0,0,0,0,0,0,-1,979,1121,0,0
-238,-97,0,0,0,0,0,0,0,0,0,-1,986,1121,0,0
-231,-97,0,0,0,0,0,0,0,0,0,-1,993,1121,0,0
-224,-97,0,0,0,0,0,0,0,0,0,-1,1000,1121,0,0
-217,-97,0,0,0,0,0,0,0,0,0,-1,1007,1121,0,0
-210,-97,0,0,0,0,0,0,0,0,0,-1,1014,1121,0,0
-203,-97,0,0,0,0,0,0,0,0,0,-1,1021,1121,0,0
-196,-97,0,0,0,0,0,0,0,0,0,-1,1028,1121,0,0
-189,-97,0,0,0,0,0,0,0,0,0,-1,1035,1121,0,0
-182,-97,0,0,0,0,0,0,0,0,0,-1,1042,1121,0,0
-175,-97,0,0,0,0,0,0,0,0,0,-1,1049,1121,0,0
-168,-97,0,0,0,0,0,0,0,0,0,-1,1056,1121,0,0
-161,-97,0,0,0,0,0,0,0,0,0,-1,1063,1121,0,0
-154,-97,0,0,0,0,0,0,0,0,0,-1,1070,1121,0,0
-147,-97,0,0,0,0,0,0,0,0,0,-1,1077,1121,0,0
-140,-97,0,0,0,0,0,0,0,0,0,-1,1084,1121,0,0
-133,-97,0,0,0,0,0,0,0,0,0,-1,1091,1121,0,0
-126,-97,0,0,0,0,0,0,0,0,0,-1,1098,1121,0,0
-119,-97,0,0,0,0,0,0,0,0,0,-1,1105,1121,0,0
-112,-97,0,0,0,0,0,0,0,0,0,-1,1112,1121,0,0
-105,-97,0,0,0,0,0,0,0,0,0,-1,1119,1121,0,0
-98,-97,0,0,0,0,0,0,0,0,0,-1,1126,1121,0,0
-91,-97,0,0,0,0,0,0,0,0,0,-1,1133,1121,0,0
-84,-97,0,0,0,0,0,0,0,0,0,-1,1140,1121,0,0
-77,-97,0,0,0,0,0,0,0,0,0,-1,1147,1121,0,0
-70,-97,0,0,0,0,0,0,0,0,0,-1,1154,1121,0,0
-63,-97,0,0,0,0,0,0,0,0,0,-1,1161,1121,0,0
-56,-97,0,0,0,0,0,0,0,0,0,-1,1168,1121,0,0
-49,-97,0,0,0,0,0,0,0,0,0,-1,1175,1121,0,0
-42,-97,0,0,0,0,0,0,0,0,0,-1,1182,1121,0,0
-35,-97,0,0,0,0,0,0,0,0,0,-1,1189,1121,0,0
-28,-97,0,0,0,0,0,0,0,0,0,-1,1196,1121,0,0
-21,-97,0,0,0,0,0,0,0,0,0,-1,1203,1121,0,0
-14,-97,0,0,0,0,0,0,0,0,0,-1,1210,1121,0,0
-7,-97,0,0,0,0,0,0,0,0,0,-1,1217,1121,0,0
0,-97,0,0,0,0,0,0,0,0,0,-1,1224,1121,0,0
7,-97,0,0,0,0,0,0,0,0,0,-1,1231,1121,0,0
14,-97,0,0,0,0,0,0,0,0,0,-1,1238,1121,0,0
21,-97,0,0,0,0,0,0,0,0,0,-1,1245,1121,0,0
28,-97,0,0,0,0,0,0,0,0,0,-1,1252,1121,0,0
35,-97,0,0,0,0,0,0,0,0,0,-1,1259,1121,0,0
42,-97,0,0,0,0,0,0,0,0,0,-1,1266,1121,0,0
49,-97,0,0,0,0,0,0,0,0,0,-1,1273,1121,0,0
56,-97,0,0,0,0,0,0,0,0,0,-1,1280,1121,0,0
63,-97,0,0,0,0,0,0,0,0,0,-1,1287,1121,0,0
70,-97,0,0,0,0,0,0,0,0,0,-1,1294,1121,0,0
77,-97,0,0,0,0,0,0,0,0,0,-1,1301,1121,0,0
84,-97,0,0,0,0,0,0,0,0,0,-1,1308,1121,0,0
91,-97,0,0,0,0,0,0,0,0,0,-1,1315,1121,0,0
98,-97,0,0,0,0,0,0,0,0,0,-1,1322,1121,0,0
105,-97,0,0,0,0,0,0,0,0,0,-1,1329,1121,0,0
112,-97,0,0,0,0,0,0,0,0,0,-1,1336,1121,0,0
119,-97,0,0,0,0,0,0,0,0,0,-1,1343,1121,0,0
126,-97,0,0,0,0,0,0,0,0,0,-1,1350,1121,0,0
133,-97,0,0,0,0,0,0,0,0,0,-1,1357,1121,0,0
140,-97,0,0,0,0,0,0,0,0,0,-1,1364,1121,0,0
147,-97,0,0,0,0,0,0,0,0,0,-1,1371,1121,0,0
154,-97,0,0,0,0,0,0,0,0,0,-1,1378,1121,0,0
161,-97,0,0,0,0,0,0,0,0,0,-1,1385,1121,0,0
168,-97,0,0,0,0,0,0,0,0,0,-1,1392,1121,0,0
175,-97,0,0,0,0,0,0,0,0,0,-1,1399,1121,0,0
182,-97,0,0,0,0,0,0,0,0,0,-1,1406,1121,0,0
189,-97,0,0,0,0,0,0,0,0,0,-1,1413,1121,0,0
196,-97,0,0,0,0,0,0,0,0,0,-1,1420,1121,0,0
203,-97,0,0,0,0,0,0,0,0,0,-1,1427,1121,0,0
210,-97,0,0,0,0,0,0,0,0,0,-1,1434,1121,0,0
217,-97,0,0,0,0,0,0,0,0,0,-1,1441,1121,0,0
224,-97,0,0,0,0,0,0,0,0,0,-1,1448,1121,0,0
231,-97,0,0,0,0,0,0,0,0,0,-1,1455,1121,0,0
238,-97,0,0,0,0,0,0,0,0,0,-1,1462,1121,0,0
245,-97,0,0,0,0,0,0,0,0,0,-1,1469,1121,0,0
252,-97,0,0,0,0,0,0,0,0,0,-1,1476,1121,0,0
259,-97,0,0,0,0,0,0,0,0,0,-1,1483,1121,0,0
266,-97,0,0,0,0,0,0,0,0,0,-1,1490,1121,0,0
273,-97,0,0,0,0,0,0,0,0,0,-1,1497,1121,0,0
280,-97,0,0,0,0,0,0,0,0,0,-1,1504,1121,0,0
287,-97,0,0,0,0,0,0,0,0,0,-1,1511,1121,0,0
294,-97,0,0,0,0,0,0,0,0,0,-1,1518,1121,0,0
301,-97,0,0,0,0,0,0,0,0,0,-1,1525,1121,0,0
308,-97,0,0,0,0,0,0,0,0,0,-1,1532,1121,0,0
315,-97,0,0,0,0,0,0,0,0,0,-1,1539,1121,0,0
322,-97,0,0,0,0,0,0,0,0,0,-1,1546,1121,0,0
329,-97,0,0,0,0,0,0,0,0,0,-1,1553,1121,0,0
336,-97,0,0,0,0,0,0,0,0,0,-1,1560,1121,0,0
343,-97,0,0,0,0,0,0,0,0,0,-1,1567,1121,0,0
350,-97,0,0,0,0,0,0,0,0,0,-1,1574,1121,0,0
357,-97,0,0,0,0,0,0,0,0,0,-1,1581,1121,0,0
364,-97,0,0,0,0,0,0,0,0,0,-1,1588,1121,0,0
371,-97,0,0,0,0,0,0,0,0,0,-1,1595,1121,0,0
378,-97,0,0,0,0,0,0,0,0,0,-1,1602,1121,0,0
385,-97,0,0,0,0,0,0,0,0,0,-1,1609,1121,0,0
392,-97,0,0,0,0,0,0,0,0,0,-1,1616,1121,0,0
399,-97,0,0,0,0,0,0,0,0,0,-1,1623,1121,0,0
406,-97,0,0,0,0,0,0,0,0,0,-1,1630,1121,0,0
413,-97,0,0,0,0,0,0,0,0,0,-1,1637,1121,0,0
420,-97,0,0,0,0,0,0,0,0,0,-1,1644,1121,0,0
427,-97,0,0,0,0,0,0,0,0,0,-1,1651,1121,0,0
434,-97,0,0,0,0,0,0,0,0,0,-1,1658,1121,0,0
441,-97,0,0,0,0,0,0,0,0,0,-1,1665,1121,0,0
448,-97,0,0,0,0,0,0,0,0,0,-1,1672,1121,0,0
455,-97,0,0,0,0,0,0,0,0,0,-1,1679,1121,0,0
462,-97,0,0,0,0,0,0,0,0,0,-1,1686,1121,0,0
469,-97,0,0,0,0,0,0,0,0,0,-1,1693,1121,0,0
476,-97,0,0,0,0,0,0,0,0,0,-1,1700,1121,0,0
483,-97,0,0,0,0,0,0,0,0,0,-1,1707,1121,0,0
490,-97,0,0,0,0,0,0,0,0,0,-1,1714,1121,0,0
497,-97,0,0,0,0,0,0,0,0,0,-1,1721,1121,0,0
504,-97,0,0,0,0,0,0,0,0,0,-1,1728,1121,0,0
511,-97,0,0,0,0,0,0,0,0,0,-1,1735,1121,0,0
518,-97,0,0,0,0,0,0,0,0,0,-1,1742,1121,0,0
525,-97,0,0,0,0,0,0,0,0,0,-1,1749,1121,0,0
532,-97,0,0,0,0,0,0,0,0,0,-1,1756,1121,0,0
539,-97,0,0,0,0,0,0,0,0,0,-1,1763,1121,0,0
546,-97,0,0,0,0,0,0,0,0,0,-1,1770,1121,0,0
553,-97,0,0,0,0,0,0,0,0,0,-1,1777,1121,0,0
560,-97,0,0,0,0,0,0,0,0,0,-1,1784,1121,0,0
567,-97,0,0,0,0,0,0,0,0,0,-1,1791,1121,0,0
574,-97,0,0,0,0,0,0,0,0,0,-1,1798,1121,0,0
581,-97,0,0,0,0,0,0,0,0,0,-1,1805,1121,0,0
588,-97,0,0,0,0,0,0,0,0,0,-1,1812,1121,0,0
595,-97,0,0,0,0,0,0,0,0,0,-1,1819,1121,0,0
602,-97,0,0,0,0,0,0,0,0,0,-1,1826,1121,0,0
609,-97,0,0,0,0,0,0,0,0,0,-1,1833,1121,0,0
616,-97,0,0,0,0,0,0,0,0,0,-1,1840,1121,0,0
623,-97,0,0,0,0,0,0,0,0,0,-1,1847,1121,0,0
630,-97,0,0,0,0,0,0,0,0,0,-1,1854,1121,0,0
637,-97,0,0,0,0,0,0,0,0,0,-1,1861,1121,0,0
644,-97,21.6838,2.99573,0.00217324,-0.00478288,-0.000808213,0.00226591,-0.00487555,-0.114161,0.00421389,0.0387997,1868,1121,21.6839,-2.99571
651,-97,21.7048,2.91162,0.00227024,-0.00353422,-0.000896931,0.00240568,-0.00366966,-0.149869,0.00353281,0.0371609,1875,1121,21.7048,-2.9116
658,-97,21.6688,2.72876,0.0025677,-0.00259524,-0.00112453,0.002802,-0.00282954,-0.205414,0.00325138,0.0361513,1882,1121,21.6688,-2.72876
665,-97,21.6946,2.65735,0.00227818,-0.00196393,-0.000694179,0.00238889,-0.00207464,-0.158146,0.00257915,0.039555,1889,1121,21.6946,-2.65734
672,-97,21.6851,2.88416,0.00110333,-0.00185095,0.000757669,0.00128632,-0.00203393,0.236969,0.00193308,0.0420773,1896,1121,21.685,-2.88413
679,-97,21.6599,2.99475,-0.00040341,-0.00194318,0.00232932,0.00127996,-0.00362655,0.62579,0.00293878,0.0414326,1903,1121,21.6599,-2.99476
686,-97,21.6576,2.95923,-0.0018539,-0.00213185,0.00377599,0.00178567,-0.00577142,0.767005,0.00456088,0.0375396,1910,1121,21.6576,-2.95925
693,-97,21.7058,2.87415,-0.00306494,-0.00231147,0.00494542,0.00227154,-0.00764796,0.823414,0.00600088,0.0336595,1917,1121,21.7058,-2.87409
700,-97,21.7347,2.71118,-0.0039771,-0.00236377,0.00574808,0.00263397,-0.00897485,0.855111,0.00702773,0.0266597,1924,1121,21.7347,-2.71114
707,-97,21.709,2.75903,-0.00461494,-0.00234908,0.00628254,0.00290186,-0.00986588,0.874604,0.00772833,0.020665,1931,1121,21.709,-2.75909
714,-97,21.58,3.4917,-0.00511093,-0.0023073,0.00658567,0.0030241,-0.0104423,0.890262,0.00815859,0.0418523,1938,1121,21.58,-3.49168
721,-97,20.8351,4.36755,0,0,0,0,0,0,0,-1,1945,1121,20.8351,-4.36757
728,-97,20.8408,4.33911,-0.00548434,-0.00181459,0.0062168,0.00283245,-0.0101314,0.928898,0.00787019,0.0174479,1952,1121,20.8408,-4.33914
735,-97,20.8137,4.24573,-0.00535309,-0.00130785,0.00550362,0.00253305,-0.00919399,0.961491,0.00712537,0.0179786,1959,1121,20.8137,-4.24578
742,-97,20.7958,4.17334,-0.00522548,-0.000302455,0.00448919,0.00235578,-0.00788372,1.03617,0.00619229,0.0146466,1966,1121,20.7958,-4.17334
749,-97,20.8087,4.07813,-0.00460123,0.000460129,0.00374168,0.00244658,-0.00658768,1.08274,0.0053955,0.0153262,1973,1121,20.8088,-4.07813
756,-97,20.8082,3.97046,-0.00378533,0.00177061,0.00318614,0.00321976,-0.00523448,1.14393,0.00492705,0.0140941,1980,1121,20.8082,-3.97043
763,-97,20.7949,3.896,-0.00259961,0.0044042,0.00233513,0.00511135,-0.00330676,1.27674,0.00489728,0.011841,1987,1121,20.7949,-3.896
770,-97,20.7878,3.82776,-0.00140714,0.00698807,0.00177108,0.00734641,-0.00176548,1.37116,0.00557999,0.0091712,1994,1121,20.7879,-3.82772
777,-97,20.7871,3.74402,-0.000327006,0.00995614,0.00229353,0.0104445,-0.000815358,1.361,0.00725008,0.0119753,2001,1121,20.7871,-3.74397
784,-97,20.7336,3.67627,0.000961278,0.0136266,0.0033766,0.0144706,0.00011731,1.32587,0.0096082,0.0306392,2008,1121,20.7337,-3.67624
791,-97,20.6563,3.61414,0.00286778,0.0183346,0.00491263,0.0197631,0.00143934,1.28783,0.0127228,0.0433919,2015,1121,20.6563,-3.61411
798,-97,20.6753,3.50024,0.00577041,0.0243987,0.00692227,0.0266894,0.00347977,1.25123,0.0167539,0.0435176,2022,1121,20.6753,-3.50021
805,-97,20.9167,3.47668,0.00993003,0.0322492,0.00943901,0.0357058,0.00647349,1.21977,0.0219663,0.0439581,2029,1121,20.9168,-3.47667
812,-97,20.8794,3.34912,0.0156964,0.0425337,0.0125753,0.0475053,0.0107249,1.19431,0.0287695,0.0483789,2036,1121,20.8795,-3.34913
-700,-104,0,0,0,0,0,0,0,0,0,-1,524,1128,0,0
-693,-104,-15.0424,-1.27173,0.113597,0.0166289,0.0113253,0.114903,0.0153237,0.114737,0.0720392,0.0498361,531,1128,-15.0423,1.27179
-686,-104,-14.5669,-0.566406,0.0933903,0.0104434,0.0086119,0.0942749,0.00955871,0.10237,0.0599184,0.0446104,538,1128,-14.5669,0.566378
-679,-104,-13.976,0.27478,0.0750907,0.00688035,0.0065686,0.0757175,0.00625356,0.0951342,0.0485283,0.0433764,545,1128,-13.976,-0.274815
-672,-104,-13.3242,0.88623,0,0,0,0,0,0,0,-1,552,1128,-13.3242,-0.88624
-665,-104,-13.3017,0.728149,0.0449975,0.00387176,0.00385357,0.0453555,0.00351379,0.0926276,0.0291364,0.0442103,559,1128,-13.3017,-0.728206
-658,-104,-13.0135,0.588013,0.0332312,0.00333724,0.00294057,0.0335177,0.00305073,0.0971265,0.0214008,0.0439948,566,1128,-13.0135,-0.587952
-651,-104,-12.9214,0.88147,0.0236248,0.00300363,0.00224029,0.0238654,0.00276305,0.106977,0.0150739,0.0359726,573,1128,-12.9214,-0.88144
-644,-104,-13.1247,1.21985,0.0161505,0.00244807,0.00173031,0.0163656,0.00223295,0.123691,0.0102475,0.0141578,580,1128,-13.1247,-1.21987
-637,-104,-13.1231,1.37976,0.00912284,0.00170235,0.000250617,0.0091313,0.0016939,0.0337224,0.00560882,0.0101938,587,1128,-13.1231,-1.37971
-630,-104,-13.1355,1.48718,0.00341709,0.000649585,-0.00121121,0.0038723,0.000194367,-0.359503,0.00251925,0.0120676,594,1128,-13.1355,-1.48713
-623,-104,-13.1472,1.65051,-0.0011909,0.000452762,-0.00289681,0.00264207,-0.00338021,-0.923617,0.00348566,0.0148297,601,1128,-13.1471,-1.65057
-616,-104,-13.1876,1.80823,-0.0036742,-1.10767e-05,-0.00409996,0.00264783,-0.00633311,-0.995463,0.00532867,0.0156313,608,1128,-13.1876,-1.80818
-609,-104,-13.2183,1.82141,-0.00490725,-0.000904169,-0.00541233,0.00286486,-0.00867628,-0.962505,0.00693915,0.0179796,615,1128,-13.2183,-1.82143
-602,-104,-13.1589,1.94165,-0.00589747,-0.00185955,-0.00674101,0.00315835,-0.0109154,-0.930899,0.00852696,0.0152762,622,1128,-13.1589,-1.94162
-595,-104,-13.1137,2.11304,-0.00642747,-0.00246281,-0.0078325,0.00363432,-0.0125246,-0.909341,0.00978871,0.0161827,629,1128,-13.1137,-2.1131
-588,-104,-13.1759,2.13843,-0.00666909,-0.00255576,-0.00838522,0.00402133,-0.0132462,-0.90566,0.0104328,0.0303166,636,1128,-13.1759,-2.13842
-581,-104,-13.645,1.45483,-0.00668919,-0.00241484,-0.00841945,0.00413445,-0.0132385,-0.909692,0.0104793,0.0409315,643,1128,-13.645,-1.45484
-574,-104,-14.0145,0.890137,-0.00645468,-0.00215693,-0.00802506,0.00400198,-0.0126136,-0.916215,0.0100133,0.0392614,650,1128,-14.0144,-0.890185
-567,-104,-13.8937,0.891602,-0.00584835,-0.00162074,-0.0072274,0.00379563,-0.0112647,-0.927666,0.00904452,0.0336746,657,1128,-13.8937,-0.89158
-560,-104,-13.7932,0.949219,-0.00479628,-0.000854106,-0.00581532,0.0033151,-0.00896548,-0.948795,0.0073361,0.0412333,664,1128,-13.7932,-0.949213
-553,-104,-14.0335,1.10986,-0.00336389,9.31784e-05,-0.00381431,0.00255234,-0.00582305,-0.998142,0.00495691,0.0492151,671,1128,-14.0335,-1.10991
-546,-104,-14.0317,1.10181,-0.0016496,0.00113525,-0.00121449,0.00159048,-0.00210483,-1.21217,0.00214037,0.0457013,678,1128,-14.0317,-1.10185
-539,-104,-14.0171,1.01611,0.000297273,0.00212028,0.00194778,0.00335928,-0.000941728,1.00425,0.00261068,0.0394892,685,1128,-14.0171,-1.01607
-532,-104,-14.0325,0.934326,0.00124653,0.0025077,0.00444691,0.00636851,-0.00261428,0.85583,0.00533506,0.0396303,692,1128,-14.0325,-0.934327
-525,-104,-13.9482,0.903564,-0.00175246,0.00118198,0.00349574,0.00350592,-0.0040764,0.984092,0.00438179,0.0392037,699,1128,-13.9482,-0.903592
-518,-104,0,0,0,0,0,0,0,0,0,-1,706,1128,0,0
-511,-104,0,0,0,0,0,0,0,0,0,-1,713,1128,0,0
-504,-104,0,0,0,0,0,0,0,0,0,-1,720,1128,0,0
-497,-104,0,0,0,0,0,0,0,0,0,-1,727,1128,0,0
-490,-104,0,0,0,0,0,0,0,0,0,-1,734,1128,0,0
-483,-104,0,0,0,0,0,0,0,0,0,-1,741,1128,0,0
-476,-104,0,0,0,0,0,0,0,0,0,-1,748,1128,0,0
-469,-104,0,0,0,0,0,0,0,0,0,-1,755,1128,0,0
-462,-104,0,0,0,0,0,0,0,0,0,-1,762,1128,0,0
-455,-104,0,0,0,0,0,0,0,0,0,-1,769,1128,0,0
-448,-104,0,0,0,0,0,0,0,0,0,-1,776,1128,0,0
-441,-104,0,0,0,0,0,0,0,0,0,-1,783,1128,0,0
-434,-104,0,0,0,0,0,0,0,0,0,-1,790,1128,0,0
-427,-104,0,0,0,0,0,0,0,0,0,-1,797,1128,0,0
-420,-104,0,0,0,0,0,0,0,0,0,-1,804,1128,0,0
-413,-104,0,0,0,0,0,0,0,0,0,-1,811,1128,0,0
-406,-104,0,0,0,0,0,0,0,0,0,-1,818,1128,0,0
-399,-104,0,0,0,0,0,0,0,0,0,-1,825,1128,0,0
-392,-104,0,0,0,0,0,0,0,0,0,-1,832,1128,0,0
-385,-104,0,0,0,0,0,0,0,0,0,-1,839,1128,0,0
-378,-104,0,0,0,0,0,0,0,0,0,-1,846,1128,0,0
-371,-104,0,0,0,0,0,0,0,0,0,-1,853,1128,0,0
-364,-104,0,0,0,0,0,0,0,0,0,-1,860,1128,0,0
-357,-104,0,0,0,0,0,0,0,0,0,-1,867,1128,0,0
-350,-104,0,0,0,0,0,0,0,0,0,-1,874,1128,0,0
-343,-104,0,0,0,0,0,0,0,0,0,-1,881,1128,0,0
-336,-104,0,0,0,0,0,0,0,0,0,-1,888,1128,0,0
-329,-104,0,0,0,0,0,0,0,0,0,-1,895,1128,0,0
-322,-104,0,0,0,0,0,0,0,0,0,-1,902,1128,0,0
-315,-104,0,0,0,0,0,0,0,0,0,-1,909,1128,0,0
-308,-104,0,0,0,0,0,0,0,0,0,-1,916,1128,0,0
-301,-104,0,0,0,0,0,0,0,0,0,-1,923,1128,0,0
-294,-104,0,0,0,0,0,0,0,0,0,-1,930,1128,0,0
-287,-104,0,0,0,0,0,0,0,0,0,-1,937,1128,0,0
-280,-104,0,0,0,0,0,0,0,0,0,-1,944,1128,0,0
-273,-104,0,0,0,0,0,0,0,0,0,-1,951,1128,0,0
-266,-104,0,0,0,0,0,0,0,0,0,-1,958,1128,0,0
-259,-104,0,0,0,0,0,0,0,0,0,-1,965,1128,0,0
-252,-104,0,0,0,0,0,0,0,0,0,-1,972,1128,0,0
-245,-104,0,0,0,0,0,0,0,0,0,-1,979,1128,0,0
-238,-104,0,0,0,0,0,0,0,0,0,-1,986,1128,0,0
-231,-104,0,0,0,0,0,0,0,0,0,-1,993,1128,0,0
-224,-104,0,0,0,0,0,0,0,0,0,-1,1000,1128,0,0
-217,-104,0,0,0,0,0,0,0,0,0,-1,1007,1128,0,0
-210,-104,0,0,0,0,0,0,0,0,0,-1,1014,1128,0,0
-203,-104,0,0,0,0,0,0,0,0,0,-1,1021,1128,0,0
-196,-104,0,0,0,0,0,0,0,0,0,-1,1028,1128,0,0
-189,-104,0,0,0,0,0,0,0,0,0,-1,1035,1128,0,0
-182,-104,0,0,0,0,0,0,0,0,0,-1,1042,1128,0,0
-175,-104,0,0,0,0,0,0,0,0,0,-1,1049,1128,0,0
-168,-104,0,0,0,0,0,0,0,0,0,-1,1056,1128,0,0
-161,-104,0,0,0,0,0,0,0,0,0,-1,1063,1128,0,0
-154,-104,0,0,0,0,0,0,0,0,0,-1,1070,1128,0,0
-147,-104,0,0,0,0,0,0,0,0,0,-1,1077,1128,0,0
-140,-104,0,0,0,0,0,0,0,0,0,-1,1084,1128,0,0
-133,-104,0,0,0,0,0,0,0,0,0,-1,1091,1128,0,0
-126,-104,0,0,0,0,0,0,0,0,0,-1,1098,1128,0,0
-119,-104,0,0,0,0,0,0,0,0,0,-1,1105,1128,0,0
-112,-104,0,0,0,0,0,0,0,0,0,-1,1112,1128,0,0
-105,-104,0,0,0,0,0,0,0,0,0,-1,1119,1128,0,0
-98,-104,0,0,0,0,0,0,0,0,0,-1,1126,1128,0,0
-91,-104,0,0,0,0,0,0,0,0,0,-1,1133,1128,0,0
-84,-104,0,0,0,0,0,0,0,0,0,-1,1140,1128,0,0
-77,-104,0,0,0,0,0,0,0,0,0,-1,1147,1128,0,0
-70,-104,0,0,0,0,0,0,0,0,0,-1,1154,1128,0,0
-63,-104,0,0,0,0,0,0,0,0,0,-1,1161,1128,0,0
-56,-104,0,0,0,0,0,0,0,0,0,-1,1168,1128,0,0
-49,-104,0,0,0,0,0,0,0,0,0,-1,1175,1128,0,0
-42,-104,0,0,0,0,0,0,0,0,0,-1,1182,1128,0,0
-35,-104,0,0,0,0,0,0,0,0,0,-1,1189,1128,0,0
-28,-104,0,0,0,0,0,0,0,0,0,-1,1196,1128,0,0
-21,-104,0,0,0,0,0,0,0,0,0,-1,1203,1128,0,0
-14,-104,0,0,0,0,0,0,0,0,0,-1,1210,1128,0,0
-7,-104,0,0,0,0,0,0,0,0,0,-1,1217,1128,0,0
0,-104,0,0,0,0,0,0,0,0,0,-1,1224,1128,0,0
7,-104,0,0,0,0,0,0,0,0,0,-1,1231,1128,0,0
14,-104,0,0,0,0,0,0,0,0,0,-1,1238,1128,0,0
21,-104,0,0,0,0,0,0,0,0,0,-1,1245,1128,0,0
28,-104,0,0,0,0,0,0,0,0,0,-1,1252,1128,0,0
35,-104,0,0,0,0,0,0,0,0,0,-1,1259,1128,0,0
42,-104,0,0,0,0,0,0,0,0,0,-1,1266,1128,0,0
49,-104,0,0,0,0,0,0,0,0,0,-1,1273,1128,0,0
56,-104,0,0,0,0,0,0,0,0,0,-1,1280,1128,0,0
63,-104,0,0,0,0,0,0,0,0,0,-1,1287,1128,0,0
70,-104,0,0,0,0,0,0,0,0,0,-1,1294,1128,0,0
77,-104,0,0,0,0,0,0,0,0,0,-1,1301,1128,0,0
84,-104,0,0,0,0,0,0,0,0,0,-1,1308,1128,0,0
91,-104,0,0,0,0,0,0,0,0,0,-1,1315,1128,0,0
98,-104,0,0,0,0,0,0,0,0,0,-1,1322,1128,0,0
105,-104,0,0,0,0,0,0,0,0,0,-1,1329,1128,0,0
112,-104,0,0,0,0,0,0,0,0,0,-1,1336,1128,0,0
119,-104,0,0,0,0,0,0,0,0,0,-1,1343,1128,0,0
126,-104,0,0,0,0,0,0,0,0,0,-1,1350,1128,0,0
133,-104,0,0,0,0,0,0,0,0,0,-1,1357,1128,0,0
140,-104,0,0,0,0,0,0,0,0,0,-1,1364,1128,0,0
147,-104,0,0,0,0,0,0,0,0,0,-1,1371,1128,0,0
154,-104,0,0,0,0,0,0,0,0,0,-1,1378,1128,0,0
161,-104,0,0,0,0,0,0,0,0,0,-1,1385,1128,0,0
168,-104,0,0,0,0,0,0,0,0,0,-1,1392,1128,0,0
175,-104,0,0,0,0,0,0,0,0,0,-1,1399,1128,0,0
182,-104,0,0,0,0,0,0,0,0,0,-1,1406,1128,0,0
189,-104,0,0,0,0,0,0,0,0,0,-1,1413,1128,0,0
196,-104,0,0,0,0,0,0,0,0,0,-1,1420,1128,0,0
203,-104,0,0,0,0,0,0,0,0,0,-1,1427,1128,0,0
210,-104,0,0,0,0,0,0,0,0,0,-1,1434,1128,0,0
217,-104,0,0,0,0,0,0,0,0,0,-1,1441,1128,0,0
224,-104,0,0,0,0,0,0,0,0,0,-1,1448,1128,0,0
231,-104,0,0,0,0,0,0,0,0,0,-1,1455,1128,0,0
238,-104,0,0,0,0,0,0,0,0,0,-1,1462,1128,0,0
245,-104,0,0,0,0,0,0,0,0,0,-1,1469,1128,0,0
252,-104,0,0,0,0,0,0,0,0,0,-1,1476,1128,0,0
259,-104,0,0,0,0,0,0,0,0,0,-1,1483,1128,0,0
266,-104,0,0,0,0,0,0,0,0,0,-1,1490,1128,0,0
273,-104,0,0,0,0,0,0,0,0,0,-1,1497,1128,0,0
280,-104,0,0,0,0,0,0,0,0,0,-1,1504,1128,0,0
287,-104,0,0,0,0,0,0,0,0,0,-1,1511,1128,0,0
294,-104,0,0,0,0,0,0,0,0,0,-1,1518,1128,0,0
301,-104,0,0,0,0,0,0,0,0,0,-1,1525,1128,0,0
308,-104,0,0,0,0,0,0,0,0,0,-1,1532,1128,0,0
315,-104,0,0,0,0,0,0,0,0,0,-1,1539,1128,0,0
322,-104,0,0,0,0,0,0,0,0,0,-1,1546,1128,0,0
329,-104,0,0,0,0,0,0,0,0,0,-1,1553,1128,0,0
336,-104,0,0,0,0,0,0,0,0,0,-1,1560,1128,0,0
343,-104,0,0,0,0,0,0,0,0,0,-1,1567,1128,0,0
350,-104,0,0,0,0,0,0,0,0,0,-1,1574,1128,0,0
357,-104,0,0,0,0,0,0,0,0,0,-1,1581,1128,0,0
364,-104,0,0,0,0,0,0,0,0,0,-1,1588,1128,0,0
371,-104,0,0,0,0,0,0,0,0,0,-1,1595,1128,0,0
378,-104,0,0,0,0,0,0,0,0,0,-1,1602,1128,0,0
385,-104,0,0,0,0,0,0,0,0,0,-1,1609,1128,0,0
392,-104,0,0,0,0,0,0,0,0,0,-1,1616,1128,0,0
399,-104,0,0,0,0,0,0,0,0,0,-1,1623,1128,0,0
406,-104,0,0,0,0,0,0,0,0,0,-1,1630,1128,0,0
413,-104,0,0,0,0,0,0,0,0,0,-1,1637,1128,0,0
420,-104,0,0,0,0,0,0,0,0,0,-1,1644,1128,0,0
427,-104,0,0,0,0,0,0,0,0,0,-1,1651,1128,0,0
434,-104,0,0,0,0,0,0,0,0,0,-1,1658,1128,0,0
441,-104,0,0,0,0,0,0,0,0,0,-1,1665,1128,0,0
448,-104,0,0,0,0,0,0,0,0,0,-1,1672,1128,0,0
455,-104,0,0,0,0,0,0,0,0,0,-1,1679,1128,0,0
462,-104,0,0,0,0,0,0,0,0,0,-1,1686,1128,0,0
469,-104,0,0,0,0,0,0,0,0,0,-1,1693,1128,0,0
476,-104,0,0,0,0,0,0,0,0,0,-1,1700,1128,0,0
483,-104,0,0,0,0,0,0,0,0,0,-1,1707,1128,0,0
490,-104,0,0,0,0,0,0,0,0,0,-1,1714,1128,0,0
497,-104,0,0,0,0,0,0,0,0,0,-1,1721,1128,0,0
504,-104,0,0,0,0,0,0,0,0,0,-1,1728,1128,0,0
511,-104,0,0,0,0,0,0,0,0,0,-1,1735,1128,0,0
518,-104,0,0,0,0,0,0,0,0,0,-1,1742,1128,0,0
525,-104,0,0,0,0,0,0,0,0,0,-1,1749,1128,0,0
532,-104,0,0,0,0,0,0,0,0,0,-1,1756,1128,0,0
539,-104,0,0,0,0,0,0,0,0,0,-1,1763,1128,0,0
546,-104,0,0,0,0,0,0,0,0,0,-1,1770,1128,0,0
553,-104,0,0,0,0,0,0,0,0,0,-1,1777,1128,0,0
560,-104,0,0,0,0,0,0,0,0,0,-1,1784,1128,0,0
567,-104,0,0,0,0,0,0,0,0,0,-1,1791,1128,0,0
574,-104,0,0,0,0,0,0,0,0,0,-1,1798,1128,0,0
581,-104,0,0,0,0,0,0,0,0,0,-1,1805,1128,0,0
588,-104,0,0,0,0,0,0,0,0,0,-1,1812,1128,0,0
595,-104,0,0,0,0,0,0,0,0,0,-1,1819,1128,0,0
602,-104,0,0,0,0,0,0,0,0,0,-1,1826,1128,0,0
609,-104,0,0,0,0,0,0,0,0,0,-1,1833,1128,0,0
616,-104,0,0,0,0,0,0,0,0,0,-1,1840,1128,0,0
623,-104,0,0,0,0,0,0,0,0,0,-1,1847,1128,0,0
630,-104,0,0,0,0,0,0,0,0,0,-1,1854,1128,0,0
637,-104,0,0,0,0,0,0,0,0,0,-1,1861,1128,0,0
644,-104,21.7375,2.91797,0.0029591,-0.00507566,4.22951e-05,0.00295932,-0.00507589,0.00526381,0.00469247,0.0399237,1868,1128,21.7375,-2.91793
651,-104,21.6609,2.92664,0.00281432,-0.00368223,-0.000278004,0.00282619,-0.0036941,-0.0426886,0.00377559,0.0383167,1875,1128,21.6609,-2.92662
658,-104,21.6306,2.74182,0.00301393,-0.00265603,-0.000649147,0.0030873,-0.0027294,-0.112549,0.00336039,0.0397944,1882,1128,21.6306,-2.74185
665,-104,21.6848,2.71252,0.00240906,-0.00205837,-0.000227838,0.00242065,-0.00206996,-0.0508241,0.00259529,0.0436125,1889,1128,21.6848,-2.71256
672,-104,21.8486,2.97656,0.000888118,-0.00197471,0.00116932,0.00130502,-0.00239161,0.342481,0.00216477,0.0443215,1896,1128,21.8486,-2.97652
679,-104,21.8007,3.01697,-0.000859817,-0.00208955,0.00264751,0.00124329,-0.00419266,0.6713,0.00328883,0.0404546,1903,1128,21.8006,-3.01695
686,-104,21.7174,2.92395,-0.00248914,-0.00229442,0.00401471,0.00162412,-0.00640767,0.797521,0.00490364,0.0378697,1910,1128,21.7174,-2.92391
693,-104,21.7084,2.81958,-0.00380543,-0.00246145,0.00510083,0.00201147,-0.00827835,0.850892,0.0062974,0.0344934,1917,1128,21.7083,-2.81953
700,-104,21.7538,2.74365,-0.00476655,-0.00250359,0.00584158,0.00231508,-0.00958522,0.881061,0.0072855,0.026715,1924,1128,21.7538,-2.7436
707,-104,21.7191,2.80688,-0.00541799,-0.00247012,0.0063188,0.00254437,-0.0104325,0.89998,0.00794018,0.0266498,1931,1128,21.7191,-2.80685
714,-104,21.36,3.62634,-0.00590689,-0.00242793,0.0065846,0.00264308,-0.0109779,0.914535,0.00834042,0.040145,1938,1128,21.36,-3.6264
721,-104,20.7944,4.41602,-0.00620247,-0.00222726,0.00656346,0.00264295,-0.0110727,0.932423,0.00840248,0.0235112,1945,1128,20.7944,-4.41607
728,-104,20.7905,4.32214,-0.00614577,-0.00189993,0.00614719,0.00248058,-0.0105263,0.951661,0.00797405,0.022168,1952,1128,20.7905,-4.32219
735,-104,20.7627,4.21216,-0.00582759,-0.0013737,0.00537011,0.00221291,-0.0094142,0.981952,0.00712918,0.0197878,1959,1128,20.7627,-4.2122
742,-104,20.7159,4.16309,-0.00548864,-0.000275634,0.00423974,0.00209474,-0.00785901,1.06101,0.00605951,0.0135015,1966,1128,20.7159,-4.16315
749,-104,20.7075,4.06738,-0.00462933,0.00059029,0.00332168,0.00220477,-0.00624381,1.11838,0.00506019,0.0160248,1973,1128,20.7075,-4.06737
756,-104,20.6873,3.96387,-0.0035343,0.0020812,0.00244607,0.00299725,-0.00445035,1.21246,0.00432707,0.0156236,1980,1128,20.6873,-3.96385
763,-104,20.6779,3.88062,-0.00195306,0.00480681,0.00127194,0.00503822,-0.00218447,1.39083,0.00427714,0.0140639,1987,1128,20.6779,-3.88055
770,-104,20.6937,3.81226,-0.000392662,0.00751588,0.000309553,0.00752798,-0.00040476,1.53173,0.00515887,0.0111258,1994,1128,20.6937,-3.81227
777,-104,20.6924,3.74292,0.00104038,0.0106068,0.00030571,0.0106165,0.00103062,1.53888,0.00676038,0.0174545,2001,1128,20.6924,-3.74296
784,-104,20.5692,3.69641,0.00275833,0.0144409,0.000731951,0.0144866,0.00271265,1.50847,0.00889252,0.0364934,2008,1128,20.5692,-3.69637
791,-104,20.5044,3.64648,0.00520208,0.0193147,0.00146293,0.0194647,0.00505203,1.46858,0.0116631,0.0454539,2015,1128,20.5043,-3.64646
798,-104,20.4568,3.43323,0.00873479,0.0255119,0.00254078,0.0258883,0.00835845,1.42375,0.015256,0.0457311,2022,1128,20.4568,-3.43322
805,-104,20.7966,3.04297,0.013611,0.0334141,0.00402083,0.0341993,0.0128257,1.37793,0.0199495,0.0443097,2029,1128,20.7967,-3.04298
812,-104,21.3123,2.85083,0.0201952,0.0435831,0.00605408,0.0450573,0.018721,1.33194,0.0261374,0.0456301,2036,1128,21.3121,-2.8508
-700,-111,0,0,0,0,0,0,0,0,0,-1,524,1135,0,0
-693,-111,-15.3265,-1.49365,0.132116,0.0169836,0.0131747,0.133604,0.0154953,0.112493,0.0843801,0.0479334,531,1135,-15.3265,1.49366
-686,-111,-14.8129,-0.853516,0.108192,0.0126038,0.00949719,0.109127,0.0116694,0.0980776,0.0691901,0.0471309,538,1135,-14.8129,0.853552
-679,-111,-13.8785,0.199829,0.0868274,0.00995759,0.00691975,0.0874453,0.00933965,0.089065,0.0554465,0.0455619,545,1135,-13.8785,-0.199822
-672,-111,-12.8839,-1.39526,0.0681662,0.00829775,0.00509052,0.068596,0.007868,0.0842227,0.0433467,0.0473171,552,1135,-12.8839,1.39524
-665,-111,-13.0113,0.0474854,0,0,0,0,0,0,0,-1,559,1135,-13.0113,-0.0475387
-658,-111,-12.975,0.358276,0,0,0,0,0,0,0,-1,566,1135,-12.975,-0.358228
-651,-111,-12.7057,0.740845,0,0,0,0,0,0,0,-1,573,1135,-12.7058,-0.740892
-644,-111,-12.9517,1.26343,0.0190918,0.00454067,0.00159998,0.0192657,0.00436683,0.108233,0.0116639,0.0229812,580,1135,-12.9517,-1.26349
-637,-111,-13.0213,1.37451,0.0111139,0.00340606,0.000157992,0.0111172,0.00340283,0.020486,0.00657743,0.00852485,587,1135,-13.0213,-1.37449
-630,-111,-13.0378,1.46924,0.00466723,0.00181242,-0.00112874,0.00505958,0.00142007,-0.334542,0.00301338,0.0137103,594,1135,-13.0378,-1.46929
-623,-111,-13.0408,1.63672,-0.000782181,0.0011747,-0.00289147,0.00324879,-0.00285627,-0.948545,0.00352719,0.0133903,601,1135,-13.0408,-1.63676
-616,-111,-13.058,1.74512,-0.00377785,0.000309913,-0.00415204,0.00289387,-0.0063618,-1.01412,0.00546737,0.0140853,608,1135,-13.058,-1.7451
-609,-111,-13.0955,1.83374,-0.00531117,-0.000862054,-0.00553333,0.00287714,-0.00905037,-0.976525,0.00718722,0.0168384,615,1135,-13.0955,-1.83371
-602,-111,-13.0403,1.95984,-0.00655928,-0.00191407,-0.00697323,0.00311318,-0.0115865,-0.946157,0.00894453,0.0157798,622,1135,-13.0403,-1.9599
-595,-111,-13.0197,2.12134,-0.00722511,-0.0025521,-0.00815265,0.00359225,-0.0133695,-0.924955,0.0103209,0.012971,629,1135,-13.0196,-2.12131
-588,-111,-12.978,2.2439,-0.00753714,-0.00263825,-0.00877531,0.00402306,-0.0141985,-0.921499,0.0110535,0.0307338,636,1135,-12.978,-2.24394
-581,-111,-13.4052,1.4303,-0.00760165,-0.00253203,-0.00884278,0.00413207,-0.0142657,-0.924982,0.0111462,0.0430397,643,1135,-13.4051,-1.43028
-574,-111,-13.895,0.632813,0,0,0,0,0,0,0,-1,650,1135,-13.8949,-0.632848
-567,-111,-13.908,0.964355,-0.00670757,-0.00173878,-0.00765727,0.00382704,-0.0122734,-0.942265,0.00971261,0.0357691,657,1135,-13.908,-0.964317
-560,-111,-13.8007,0.974731,-0.00554379,-0.000956301,-0.0062251,0.00338419,-0.00988428,-0.961914,0.00796108,0.0392697,664,1135,-13.8007,-0.974704
-553,-111,-13.8906,0.829468,-0.00390926,4.15881e-05,-0.00416743,0.00267808,-0.00654576,-1.00672,0.00547922,0.0452362,671,1135,-13.8906,-0.829524
-546,-111,-13.9658,0.984619,-0.00189613,0.00117734,-0.00147147,0.00176823,-0.00248702,-1.18894,0.00246842,0.0425645,678,1135,-13.9657,-0.984634
-539,-111,-13.9811,1.05188,0.000460487,0.00232745,0.00186236,0.00347718,-0.000689244,1.01772,0.00257875,0.0396569,685,1135,-13.9811,-1.05183
-532,-111,-13.9858,1.00916,0.00213603,0.00306149,0.00480478,0.00742577,-0.00222824,0.833403,0.0058368,0.0414391,692,1135,-13.9858,-1.00912
-525,-111,-14.0151,0.958862,-0.000176772,0.00219661,0.00426202,0.00543406,-0.00341422,0.921176,0.00515273,0.0412682,699,1135,-14.0151,-0.958888
-518,-111,0,0,0,0,0,0,0,0,0,-1,706,1135,0,0
-511,-111,0,0,0,0,0,0,0,0,0,-1,713,1135,0,0
-504,-111,0,0,0,0,0,0,0,0,0,-1,720,1135,0,0
-497,-111,0,0,0,0,0,0,0,0,0,-1,727,1135,0,0
-490,-111,0,0,0,0,0,0,0,0,0,-1,734,1135,0,0
-483,-111,0,0,0,0,0,0,0,0,0,-1,741,1135,0,0
-476,-111,0,0,0,0,0,0,0,0,0,-1,748,1135,0,0
-469,-111,0,0,0,0,0,0,0,0,0,-1,755,1135,0,0
-462,-111,0,0,0,0,0,0,0,0,0,-1,762,1135,0,0
-455,-111,0,0,0,0,0,0,0,0,0,-1,769,1135,0,0
-448,-111,0,0,0,0,0,0,0,0,0,-1,776,1135,0,0
-441,-111,0,0,0,0,0,0,0,0,0,-1,783,1135,0,0
-434,-111,0,0,0,0,0,0,0,0,0,-1,790,1135,0,0
-427,-111,0,0,0,0,0,0,0,0,0,-1,797,1135,0,0
-420,-111,0,0,0,0,0,0,0,0,0,-1,804,1135,0,0
-413,-111,0,0,0,0,0,0,0,0,0,-1,811,1135,0,0
-406,-111,0,0,0,0,0,0,0,0,0,-1,818,1135,0,0
-399,-111,0,0,0,0,0,0,0,0,0,-1,825,1135,0,0
-392,-111,0,0,0,0,0,0,0,0,0,-1,832,1135,0,0
-385,-111,0,0,0,0,0,0,0,0,0,-1,839,1135,0,0
-378,-111,0,0,0,0,0,0,0,0,0,-1,846,1135,0,0
-371,-111,0,0,0,0,0,0,0,0,0,-1,853,1135,0,0
-364,-111,0,0,0,0,0,0,0,0,0,-1,860,1135,0,0
-357,-111,0,0,0,0,0,0,0,0,0,-1,867,1135,0,0
-350,-111,0,0,0,0,0,0,0,0,0,-1,874,1135,0,0
-343,-111,0,0,0,0,0,0,0,0,0,-1,881,1135,0,0
-336,-111,0,0,0,0,0,0,0,0,0,-1,888,1135,0,0
-329,-111,0,0,0,0,0,0,0,0,0,-1,895,1135,0,0
-322,-111,0,0,0,0,0,0,0,0,0,-1,902,1135,0,0
-315,-111,0,0,0,0,0,0,0,0,0,-1,909,1135,0,0
-308,-111,0,0,0,0,0,0,0,0,0,-1,916,1135,0,0
-301,-111,0,0,0,0,0,0,0,0,0,-1,923,1135,0,0
-294,-111,0,0,0,0,0,0,0,0,0,-1,930,1135,0,0
-287,-111,0,0,0,0,0,0,0,0,0,-1,937,1135,0,0
-280,-111,0,0,0,0,0,0,0,0,0,-1,944,1135,0,0
-273,-111,0,0,0,0,0,0,0,0,0,-1,951,1135,0,0
-266,-111,0,0,0,0,0,0,0,0,0,-1,958,1135,0,0
-259,-111,0,0,0,0,0,0,0,0,0,-1,965,1135,0,0
-252,-111,0,0,0,0,0,0,0,0,0,-1,972,1135,0,0
-245,-111,0,0,0,0,0,0,0,0,0,-1,979,1135,0,0
-238,-111,0,0,0,0,0,0,0,0,0,-1,986,1135,0,0
-231,-111,0,0,0,0,0,0,0,0,0,-1,993,1135,0,0
-224,-111,0,0,0,0,0,0,0,0,0,-1,1000,1135,0,0
-217,-111,0,0,0,0,0,0,0,0,0,-1,1007,1135,0,0
-210,-111,0,0,0,0,0,0,0,0,0,-1,1014,1135,0,0
-203,-111,0,0,0,0,0,0,0,0,0,-1,1021,1135,0,0
-196,-111,0,0,0,0,0,0,0,0,0,-1,1028,1135,0,0
-189,-111,0,0,0,0,0,0,0,0,0,-1,1035,1135,0,0
-182,-111,0,0,0,0,0,0,0,0,0,-1,1042,1135,0,0
-175,-111,0,0,0,0,0,0,0,0,0,-1,1049,1135,0,0
-168,-111,0,0,0,0,0,0,0,0,0,-1,1056,1135,0,0
-161,-111,0,0,0,0,0,0,0,0,0,-1,1063,1135,0,0
-154,-111,0,0,0,0,0,0,0,0,0,-1,1070,1135,0,0
-147,-111,0,0,0,0,0,0,0,0,0,-1,1077,1135,0,0
-140,-111,0,0,0,0,0,0,0,0,0,-1,1084,1135,0,0
-133,-111,0,0,0,0,0,0,0,0,0,-1,1091,1135,0,0
-126,-111,0,0,0,0,0,0,0,0,0,-1,1098,1135,0,0
-119,-111,0,0,0,0,0,0,0,0,0,-1,1105,1135,0,0
-112,-111,0,0,0,0,0,0,0,0,0,-1,1112,1135,0,0
-105,-111,0,0,0,0,0,0,0,0,0,-1,1119,1135,0,0
-98,-111,0,0,0,0,0,0,0,0,0,-1,1126,1135,0,0
-91,-111,0,0,0,0,0,0,0,0,0,-1,1133,1135,0,0
-84,-111,0,0,0,0,0,0,0,0,0,-1,1140,1135,0,0
-77,-111,0,0,0,0,0,0,0,0,0,-1,1147,1135,0,0
-70,-111,0,0,0,0,0,0,0,0,0,-1,1154,1135,0,0
-63,-111,0,0,0,0,0,0,0,0,0,-1,1161,1135,0,0
-56,-111,0,0,0,0,0,0,0,0,0,-1,1168,1135,0,0
-49,-111,0,0,0,0,0,0,0,0,0,-1,1175,1135,0,0
-42,-111,0,0,0,0,0,0,0,0,0,-1,1182,1135,0,0
-35,-111,0,0,0,0,0,0,0,0,0,-1,1189,1135,0,0
-28,-111,0,0,0,0,0,0,0,0,0,-1,1196,1135,0,0
-21,-111,0,0,0,0,0,0,0,0,0,-1,1203,1135,0,0
-14,-111,0,0,0,0,0,0,0,0,0,-1,1210,1135,0,0
-7,-111,0,0,0,0,0,0,0,0,0,-1,1217,1135,0,0
0,-111,0,0,0,0,0,0,0,0,0,-1,1224,1135,0,0
7,-111,0,0,0,0,0,0,0,0,0,-1,1231,1135,0,0
14,-111,0,0,0,0,0,0,0,0,0,-1,1238,1135,0,0
21,-111,0,0,0,0,0,0,0,0,0,-1,1245,1135,0,0
28,-111,0,0,0,0,0,0,0,0,0,-1,1252,1135,0,0
35,-111,0,0,0,0,0,0,0,0,0,-1,1259,1135,0,0
42,-111,0,0,0,0,0,0,0,0,0,-1,1266,1135,0,0
49,-111,0,0,0,0,0,0,0,0,0,-1,1273,1135,0,0
56,-111,0,0,0,0,0,0,0,0,0,-1,1280,1135,0,0
63,-111,0,0,0,0,0,0,0,0,0,-1,1287,1135,0,0
70,-111,0,0,0,0,0,0,0,0,0,-1,1294,1135,0,0
77,-111,0,0,0,0,0,0,0,0,0,-1,1301,1135,0,0
84,-111,0,0,0,0,0,0,0,0,0,-1,1308,1135,0,0
91,-111,0,0,0,0,0,0,0,0,0,-1,1315,1135,0,0
98,-111,0,0,0,0,0,0,0,0,0,-1,1322,1135,0,0
105,-111,0,0,0,0,0,0,0,0,0,-1,1329,1135,0,0
112,-111,0,0,0,0,0,0,0,0,0,-1,1336,1135,0,0
119,-111,0,0,0,0,0,0,0,0,0,-1,1343,1135,0,0
126,-111,0,0,0,0,0,0,0,0,0,-1,1350,1135,0,0
133,-111,0,0,0,0,0,0,0,0,0,-1,1357,1135,0,0
140,-111,0,0,0,0,0,0,0,0,0,-1,1364,1135,0,0
147,-111,0,0,0,0,0,0,0,0,0,-1,1371,1135,0,0
154,-111,0,0,0,0,0,0,0,0,0,-1,1378,1135,0,0
161,-111,0,0,0,0,0,0,0,0,0,-1,1385,1135,0,0
168,-111,0,0,0,0,0,0,0,0,0,-1,1392,1135,0,0
175,-111,0,0,0,0,0,0,0,0,0,-1,1399,1135,0,0
182,-111,0,0,0,0,0,0,0,0,0,-1,1406,1135,0,0
189,-111,0,0,0,0,0,0,0,0,0,-1,1413,1135,0,0
196,-111,0,0,0,0,0,0,0,0,0,-1,1420,1135,0,0
203,-111,0,0,0,0,0,0,0,0,0,-1,1427,1135,0,0
210,-111,0,0,0,0,0,0,0,0,0,-1,1434,1135,0,0
217,-111,0,0,0,0,0,0,0,0,0,-1,1441,1135,0,0
224,-111,0,0,0,0,0,0,0,0,0,-1,1448,1135,0,0
231,-111,0,0,0,0,0,0,0,0,0,-1,1455,1135,0,0
238,-111,0,0,0,0,0,0,0,0,0,-1,1462,1135,0,0
245,-111,0,0,0,0,0,0,0,0,0,-1,1469,1135,0,0
252,-111,0,0,0,0,0,0,0,0,0,-1,1476,1135,0,0
259,-111,0,0,0,0,0,0,0,0,0,-1,1483,1135,0,0
266,-111,0,0,0,0,0,0,0,0,0,-1,1490,1135,0,0
273,-111,0,0,0,0,0,0,0,0,0,-1,1497,1135,0,0
280,-111,0,0,0,0,0,0,0,0,0,-1,1504,1135,0,0
287,-111,0,0,0,0,0,0,0,0,0,-1,1511,1135,0,0
294,-111,0,0,0,0,0,0,0,0,0,-1,1518,1135,0,0
301,-111,0,0,0,0,0,0,0,0,0,-1,1525,1135,0,0
308,-111,0,0,0,0,0,0,0,0,0,-1,1532,1135,0,0
315,-111,0,0,0,0,0,0,0,0,0,-1,1539,1135,0,0
322,-111,0,0,0,0,0,0,0,0,0,-1,1546,1135,0,0
329,-111,0,0,0,0,0,0,0,0,0,-1,1553,1135,0,0
336,-111,0,0,0,0,0,0,0,0,0,-1,1560,1135,0,0
343,-111,0,0,0,0,0,0,0,0,0,-1,1567,1135,0,0
350,-111,0,0,0,0,0,0,0,0,0,-1,1574,1135,0,0
357,-111,0,0,0,0,0,0,0,0,0,-1,1581,1135,0,0
364,-111,0,0,0,0,0,0,0,0,0,-1,1588,1135,0,0
371,-111,0,0,0,0,0,0,0,0,0,-1,1595,1135,0,0
378,-111,0,0,0,0,0,0,0,0,0,-1,1602,1135,0,0
385,-111,0,0,0,0,0,0,0,0,0,-1,1609,1135,0,0
392,-111,0,0,0,0,0,0,0,0,0,-1,1616,1135,0,0
399,-111,0,0,0,0,0,0,0,0,0,-1,1623,1135,0,0
406,-111,0,0,0,0,0,0,0,0,0,-1,1630,1135,0,0
413,-111,0,0,0,0,0,0,0,0,0,-1,1637,1135,0,0
420,-111,0,0,0,0,0,0,0,0,0,-1,1644,1135,0,0
427,-111,0,0,0,0,0,0,0,0,0,-1,1651,1135,0,0
434,-111,0,0,0,0,0,0,0,0,0,-1,1658,1135,0,0
441,-111,0,0,0,0,0,0,0,0,0,-1,1665,1135,0,0
448,-111,0,0,0,0,0,0,0,0,0,-1,1672,1135,0,0
455,-111,0,0,0,0,0,0,0,0,0,-1,1679,1135,0,0
462,-111,0,0,0,0,0,0,0,0,0,-1,1686,1135,0,0
469,-111,0,0,0,0,0,0,0,0,0,-1,1693,1135,0,0
476,-111,0,0,0,0,0,0,0,0,0,-1,1700,1135,0,0
483,-111,0,0,0,0,0,0,0,0,0,-1,1707,1135,0,0
490,-111,0,0,0,0,0,0,0,0,0,-1,1714,1135,0,0
497,-111,0,0,0,0,0,0,0,0,0,-1,1721,1135,0,0
504,-111,0,0,0,0,0,0,0,0,0,-1,1728,1135,0,0
511,-111,0,0,0,0,0,0,0,0,0,-1,1735,1135,0,0
518,-111,0,0,0,0,0,0,0,0,0,-1,1742,1135,0,0
525,-111,0,0,0,0,0,0,0,0,0,-1,1749,1135,0,0
532,-111,0,0,0,0,0,0,0,0,0,-1,1756,1135,0,0
539,-111,0,0,0,0,0,0,0,0,0,-1,1763,1135,0,0
546,-111,0,0,0,0,0,0,0,0,0,-1,1770,1135,0,0
553,-111,0,0,0,0,0,0,0,0,0,-1,1777,1135,0,0
560,-111,0,0,0,0,0,0,0,0,0,-1,1784,1135,0,0
567,-111,0,0,0,0,0,0,0,0,0,-1,1791,1135,0,0
574,-111,0,0,0,0,0,0,0,0,0,-1,1798,1135,0,0
581,-111,0,0,0,0,0,0,0,0,0,-1,1805,1135,0,0
588,-111,0,0,0,0,0,0,0,0,0,-1,1812,1135,0,0
595,-111,0,0,0,0,0,0,0,0,0,-1,1819,1135,0,0
602,-111,0,0,0,0,0,0,0,0,0,-1,1826,1135,0,0
609,-111,0,0,0,0,0,0,0,0,0,-1,1833,1135,0,0
616,-111,0,0,0,0,0,0,0,0,0,-1,1840,1135,0,0
623,-111,0,0,0,0,0,0,0,0,0,-1,1847,1135,0,0
630,-111,0,0,0,0,0,0,0,0,0,-1,1854,1135,0,0
637,-111,0,0,0,0,0,0,0,0,0,-1,1861,1135,0,0
644,-111,21.6659,2.88269,0.00388305,-0.00526488,0.000401255,0.00390062,-0.00528244,0.0437509,0.00532181,0.0417963,1868,1135,21.6659,-2.88272
651,-111,21.6373,2.93884,0.00347285,-0.00385628,5.18489e-05,0.00347322,-0.00385665,0.00707388,0.00423383,0.042312,1875,1135,21.6373,-2.93884
658,-111,21.6536,2.77197,0.00350662,-0.002813,-0.000330942,0.0035239,-0.00283028,-0.0521773,0.00367587,0.045447,1882,1135,21.6536,-2.77203
665,-111,21.8848,2.79089,0.0025911,-0.0022498,0.000142453,0.00259528,-0.00225398,0.029393,0.00280204,0.0476072,1889,1135,21.8848,-2.79092
672,-111,21.9633,2.61548,0.000785171,-0.00218566,0.00149142,0.0014047,-0.00280519,0.393708,0.00247501,0.0449755,1896,1135,21.9633,-2.61549
679,-111,21.9318,2.79199,-0.00114321,-0.00231613,0.0028795,0.00120894,-0.00466828,0.684939,0.00358379,0.0409642,1903,1135,21.9317,-2.79199
686,-111,21.7839,2.81079,-0.00290354,-0.00252935,0.00415645,0.00144421,-0.0068771,0.807889,0.0051343,0.0394563,1910,1135,21.7839,-2.81076
693,-111,21.686,2.79333,-0.00429518,-0.00267967,0.00515001,0.00172554,-0.00870039,0.863187,0.00645281,0.0359628,1917,1135,21.686,-2.79332
700,-111,21.745,2.78137,-0.00529472,-0.00272183,0.00582842,0.00196043,-0.00997697,0.894017,0.00739196,0.0267346,1924,1135,21.745,-2.78143
707,-111,21.6377,3.04163,0,0,0,0,0,0,0,-1,1931,1135,21.6377,-3.04163
714,-111,21.1006,3.78162,-0.00645849,-0.00261888,0.00648234,0.00222197,-0.0112993,0.929363,0.00837241,0.0275522,1938,1135,21.1006,-3.7816
721,-111,20.675,4.42908,-0.00673899,-0.00239992,0.00643763,0.00222393,-0.0113628,0.947925,0.00841506,0.0140028,1945,1135,20.675,-4.42913
728,-111,20.6526,4.33203,-0.00659607,-0.00205581,0.00598532,0.00207543,-0.0107273,0.966659,0.00793435,0.0177984,1952,1135,20.6526,-4.332
735,-111,20.6382,4.22083,-0.00611112,-0.00150692,0.00513884,0.00182191,-0.00943995,0.995985,0.00698031,0.0171121,1959,1135,20.6381,-4.22084
742,-111,20.6271,4.16345,-0.00558546,-0.000312001,0.00387589,0.00173901,-0.00763647,1.08409,0.00575885,0.0115551,1966,1135,20.6271,-4.16341
749,-111,20.6161,4.07788,-0.00454468,0.000677455,0.00277569,0.00187718,-0.0057444,1.16282,0.00458525,0.0143001,1973,1135,20.616,-4.07794
756,-111,20.5923,3.97571,-0.00323878,0.00235684,0.00157565,0.00277001,-0.00365196,1.31435,0.00371936,0.0151518,1980,1135,20.5923,-3.9757
763,-111,20.5906,3.88708,-0.00135963,0.00516915,6.76547e-05,0.00516985,-0.00136033,1.56044,0.00397831,0.013203,1987,1135,20.5906,-3.8871
770,-111,20.5986,3.83093,0.000445491,0.00801261,-0.00129552,0.00822826,0.000229839,-1.40585,0.00541052,0.0107293,1994,1135,20.5987,-3.83093
777,-111,20.5706,3.72644,0.00209202,0.0112367,-0.00186112,0.011601,0.00172775,-1.37752,0.00722722,0.0217725,2001,1135,20.5705,-3.7264
784,-111,20.4336,3.53796,0.00407654,0.0152398,-0.00213184,0.0156331,0.00368328,-1.38838,0.00943701,0.0377351,2008,1135,20.4336,-3.53799
791,-111,20.2789,3.58557,0.00683563,0.0202799,-0.00223126,0.0206406,0.00647499,-1.41055,0.0121895,0.043498,2015,1135,20.2789,-3.58561
798,-111,20.1639,3.63831,0,0,0,0,0,0,0,-1,2022,1135,20.164,-3.63827
805,-111,20.8091,2.74463,0.0159423,0.0345589,-0.00165851,0.0347055,0.0157957,-1.48263,0.0200641,0.0432141,2029,1135,20.8091,-2.74468
812,-111,21.1338,2.66846,0.0228888,0.0445993,-0.000697293,0.0446217,0.0228664,-1.53872,0.025765,0.0414874,2036,1135,21.1337,-2.6685
-700,-118,0,0,0,0,0,0,0,0,0,-1,524,1142,0,0
-693,-118,-15.7162,-1.3999,0.147845,0.015279,0.0120689,0.148935,0.0141892,0.0900538,0.0949143,0.045817,531,1142,-15.7162,1.39987
-686,-118,-15.2497,-0.832642,0.120963,0.0126902,0.00827735,0.121592,0.012061,0.0758618,0.0773548,0.0468637,538,1142,-15.2497,0.83269
-679,-118,-12.882,-2.16406,0,0,0,0,0,0,0,-1,545,1142,-12.882,2.1641
-672,-118,-12.9881,-1.51099,0.0764787,0.00990229,0.00416447,0.0767382,0.00964281,0.0622284,0.0482667,0.0474441,552,1142,-12.9881,1.51103
-665,-118,-13.1835,-0.901489,0.0588079,0.0089377,0.00306624,0.0589957,0.00874988,0.0611774,0.0367626,0.0485676,559,1142,-13.1835,0.901446
-658,-118,-12.8127,0.910889,0,0,0,0,0,0,0,-1,566,1142,-12.8127,-0.910853
-651,-118,-12.8024,1.09473,0.031707,0.00698602,0.00175923,0.0318316,0.00686145,0.0706885,0.0193439,0.0409355,573,1142,-12.8024,-1.09469
-644,-118,-12.8068,1.27185,0.0220517,0.0058597,0.00133856,0.0221616,0.00574979,0.0819269,0.0132794,0.0258426,580,1142,-12.8068,-1.27186
-637,-118,-12.8793,1.3844,0.0132293,0.00453508,4.25691e-05,0.0132295,0.00453487,0.00489608,0.00776291,0.0142363,587,1142,-12.8793,-1.38444
-630,-118,-12.8979,1.46899,0.00614055,0.00263436,-0.00102931,0.00642039,0.00235452,-0.265456,0.00375045,0.0176723,594,1142,-12.8979,-1.46897
-623,-118,-12.894,1.5885,-0.000200221,0.00177664,-0.00279016,0.00374828,-0.00217186,-0.955629,0.00345815,0.0152897,601,1142,-12.8941,-1.58845
-616,-118,-12.8921,1.71826,-0.00381313,0.000642185,-0.00411512,0.00309391,-0.00626486,-1.03348,0.0055057,0.0135974,608,1142,-12.8921,-1.71828
-609,-118,-12.9186,1.81665,-0.00567198,-0.000856059,-0.00554203,0.00277853,-0.00930657,-0.990339,0.00730878,0.0160709,615,1142,-12.9186,-1.81662
-602,-118,-12.9193,1.9762,-0.00716488,-0.00200978,-0.00708537,0.00295231,-0.012127,-0.959849,0.00922755,0.0159859,622,1142,-12.9193,-1.9762
-595,-118,-12.9597,2.0896,-0.00796185,-0.00270116,-0.00835111,0.00342405,-0.0140871,-0.937965,0.0107166,0.0132287,629,1142,-12.9597,-2.08958
-588,-118,-12.8079,2.24414,-0.00834148,-0.00283178,-0.00903195,0.00385611,-0.0150294,-0.933422,0.0115221,0.0216328,636,1142,-12.8079,-2.2441
-581,-118,-13.2291,1.49841,-0.00843331,-0.00283284,-0.00911401,0.00390141,-0.0151676,-0.934444,0.0116323,0.0477364,643,1142,-13.2291,-1.49846
-574,-118,-13.7817,0.693848,0,0,0,0,0,0,0,-1,650,1142,-13.7817,-0.693864
-567,-118,-13.9733,1.03809,-0.0074547,-0.00216352,-0.00794208,0.00356202,-0.0131802,-0.946173,0.010184,0.0413404,657,1142,-13.9733,-1.03806
-560,-118,-13.894,1.03345,-0.00617175,-0.00144628,-0.00650465,0.00311146,-0.0107295,-0.959608,0.00838484,0.0377731,664,1142,-13.894,-1.03348
-553,-118,-13.8652,0.797119,-0.00433241,-0.000485173,-0.00440573,0.00239858,-0.00721616,-0.991232,0.00577868,0.0395443,671,1142,-13.8651,-0.797077
-546,-118,-13.806,0.806274,-0.00202448,0.00065812,-0.00162183,0.00142144,-0.0027878,-1.1309,0.00247251,0.0396203,678,1142,-13.806,-0.806286
-539,-118,-13.7443,0.945435,0.000722442,0.00189912,0.00188282,0.00328338,-0.000661818,0.936831,0.00243964,0.0406898,685,1142,-13.7443,-0.945494
-532,-118,-13.907,1.02124,0.00310085,0.00293012,0.00528867,0.00830484,-0.00227387,0.777328,0.00642997,0.0404531,692,1142,-13.907,-1.02124
-525,-118,-13.9935,1.21521,0.0016455,0.00259898,0.00546574,0.00760873,-0.00336425,0.8289,0.00649132,0.0421935,699,1142,-13.9935,-1.21525
-518,-118,0,0,0,0,0,0,0,0,0,-1,706,1142,0,0
-511,-118,0,0,0,0,0,0,0,0,0,-1,713,1142,0,0
-504,-118,0,0,0,0,0,0,0,0,0,-1,720,1142,0,0
-497,-118,0,0,0,0,0,0,0,0,0,-1,727,1142,0,0
-490,-118,0,0,0,0,0,0,0,0,0,-1,734,1142,0,0
-483,-118,0,0,0,0,0,0,0,0,0,-1,741,1142,0,0
-476,-118,0,0,0,0,0,0,0,0,0,-1,748,1142,0,0
-469,-118,0,0,0,0,0,0,0,0,0,-1,755,1142,0,0
-462,-118,0,0,0,0,0,0,0,0,0,-1,762,1142,0,0
-455,-118,0,0,0,0,0,0,0,0,0,-1,769,1142,0,0
-448,-118,0,0,0,0,0,0,0,0,0,-1,776,1142,0,0
-441,-118,0,0,0,0,0,0,0,0,0,-1,783,1142,0,0
-434,-118,0,0,0,0,0,0,0,0,0,-1,790,1142,0,0
-427,-118,0,0,0,0,0,0,0,0,0,-1,797,1142,0,0
-420,-118,0,0,0,0,0,0,0,0,0,-1,804,1142,0,0
-413,-118,0,0,0,0,0,0,0,0,0,-1,811,1142,0,0
-406,-118,0,0,0,0,0,0,0,0,0,-1,818,1142,0,0
-399,-118,0,0,0,0,0,0,0,0,0,-1,825,1142,0,0
-392,-118,0,0,0,0,0,0,0,0,0,-1,832,1142,0,0
-385,-118,0,0,0,0,0,0,0,0,0,-1,839,1142,0,0
-378,-118,0,0,0,0,0,0,0,0,0,-1,846,1142,0,0
-371,-118,0,0,0,0,0,0,0,0,0,-1,853,1142,0,0
-364,-118,0,0,0,0,0,0,0,0,0,-1,860,1142,0,0
-357,-118,0,0,0,0,0,0,0,0,0,-1,867,1142,0,0
-350,-118,0,0,0,0,0,0,0,0,0,-1,874,1142,0,0
-343,-118,0,0,0,0,0,0,0,0,0,-1,881,1142,0,0
-336,-118,0,0,0,0,0,0,0,0,0,-1,888,1142,0,0
-329,-118,0,0,0,0,0,0,0,0,0,-1,895,1142,0,0
-322,-118,0,0,0,0,0,0,0,0,0,-1,902,1142,0,0
-315,-118,0,0,0,0,0,0,0,0,0,-1,909,1142,0,0
-308,-118,0,0,0,0,0,0,0,0,0,-1,916,1142,0,0
-301,-118,0,0,0,0,0,0,0,0,0,-1,923,1142,0,0
-294,-118,0,0,0,0,0,0,0,0,0,-1,930,1142,0,0
-287,-118,0,0,0,0,0,0,0,0,0,-1,937,1142,0,0
-280,-118,0,0,0,0,0,0,0,0,0,-1,944,1142,0,0
-273,-118,0,0,0,0,0,0,0,0,0,-1,951,1142,0,0
-266,-118,0,0,0,0,0,0,0,0,0,-1,958,1142,0,0
-259,-118,0,0,0,0,0,0,0,0,0,-1,965,1142,0,0
-252,-118,0,0,0,0,0,0,0,0,0,-1,972,1142,0,0
-245,-118,0,0,0,0,0,0,0,0,0,-1,979,1142,0,0
-238,-118,0,0,0,0,0,0,0,0,0,-1,986,1142,0,0
-231,-118,0,0,0,0,0,0,0,0,0,-1,993,1142,0,0
-224,-118,0,0,0,0,0,0,0,0,0,-1,1000,1142,0,0
-217,-118,0,0,0,0,0,0,0,0,0,-1,1007,1142,0,0
-210,-118,0,0,0,0,0,0,0,0,0,-1,1014,1142,0,0
-203,-118,0,0,0,0,0,0,0,0,0,-1,1021,1142,0,0
-196,-118,0,0,0,0,0,0,0,0,0,-1,1028,1142,0,0
-189,-118,0,0,0,0,0,0,0,0,0,-1,1035,1142,0,0
-182,-118,0,0,0,0,0,0,0,0,0,-1,1042,1142,0,0
-175,-118,0,0,0,0,0,0,0,0,0,-1,1049,1142,0,0
-168,-118,0,0,0,0,0,0,0,0,0,-1,1056,1142,0,0
-161,-118,0,0,0,0,0,0,0,0,0,-1,1063,1142,0,0
-154,-118,0,0,0,0,0,0,0,0,0,-1,1070,1142,0,0
-147,-118,0,0,0,0,0,0,0,0,0,-1,1077,1142,0,0
-140,-118,0,0,0,0,0,0,0,0,0,-1,1084,1142,0,0
-133,-118,0,0,0,0,0,0,0,0,0,-1,1091,1142,0,0
-126,-118,0,0,0,0,0,0,0,0,0,-1,1098,1142,0,0
-119,-118,0,0,0,0,0,0,0,0,0,-1,1105,1142,0,0
-112,-118,0,0,0,0,0,0,0,0,0,-1,1112,1142,0,0
-105,-118,0,0,0,0,0,0,0,0,0,-1,1119,1142,0,0
-98,-118,0,0,0,0,0,0,0,0,0,-1,1126,1142,0,0
-91,-118,0,0,0,0,0,0,0,0,0,-1,1133,1142,0,0
-84,-118,0,0,0,0,0,0,0,0,0,-1,1140,1142,0,0
-77,-118,0,0,0,0,0,0,0,0,0,-1,1147,1142,0,0
-70,-118,0,0,0,0,0,0,0,0,0,-1,1154,1142,0,0
-63,-118,0,0,0,0,0,0,0,0,0,-1,1161,1142,0,0
-56,-118,0,0,0,0,0,0,0,0,0,-1,1168,1142,0,0
-49,-118,0,0,0,0,0,0,0,0,0,-1,1175,1142,0,0
-42,-118,0,0,0,0,0,0,0,0,0,-1,1182,1142,0,0
-35,-118,0,0,0,0,0,0,0,0,0,-1,1189,1142,0,0
-28,-118,0,0,0,0,0,0,0,0,0,-1,1196,1142,0,0
-21,-118,0,0,0,0,0,0,0,0,0,-1,1203,1142,0,0
-14,-118,0,0,0,0,0,0,0,0,0,-1,1210,1142,0,0
-7,-118,0,0,0,0,0,0,0,0,0,-1,1217,1142,0,0
0,-118,0,0,0,0,0,0,0,0,0,-1,1224,1142,0,0
7,-118,0,0,0,0,0,0,0,0,0,-1,1231,1142,0,0
14,-118,0,0,0,0,0,0,0,0,0,-1,1238,1142,0,0
21,-118,0,0,0,0,0,0,0,0,0,-1,1245,1142,0,0
28,-118,0,0,0,0,0,0,0,0,0,-1,1252,1142,0,0
35,-118,0,0,0,0,0,0,0,0,0,-1,1259,1142,0,0
42,-118,0,0,0,0,0,0,0,0,0,-1,1266,1142,0,0
49,-118,0,0,0,0,0,0,0,0,0,-1,1273,1142,0,0
56,-118,0,0,0,0,0,0,0,0,0,-1,1280,1142,0,0
63,-118,0,0,0,0,0,0,0,0,0,-1,1287,1142,0,0
70,-118,0,0,0,0,0,0,0,0,0,-1,1294,1142,0,0
77,-118,0,0,0,0,0,0,0,0,0,-1,1301,1142,0,0
84,-118,0,0,0,0,0,0,0,0,0,-1,1308,1142,0,0
91,-118,0,0,0,0,0,0,0,0,0,-1,1315,1142,0,0
98,-118,0,0,0,0,0,0,0,0,0,-1,1322,1142,0,0
105,-118,0,0,0,0,0,0,0,0,0,-1,1329,1142,0,0
112,-118,0,0,0,0,0,0,0,0,0,-1,1336,1142,0,0
119,-118,0,0,0,0,0,0,0,0,0,-1,1343,1142,0,0
126,-118,0,0,0,0,0,0,0,0,0,-1,1350,1142,0,0
133,-118,0,0,0,0,0,0,0,0,0,-1,1357,1142,0,0
140,-118,0,0,0,0,0,0,0,0,0,-1,1364,1142,0,0
147,-118,0,0,0,0,0,0,0,0,0,-1,1371,1142,0,0
154,-118,0,0,0,0,0,0,0,0,0,-1,1378,1142,0,0
161,-118,0,0,0,0,0,0,0,0,0,-1,1385,1142,0,0
168,-118,0,0,0,0,0,0,0,0,0,-1,1392,1142,0,0
175,-118,0,0,0,0,0,0,0,0,0,-1,1399,1142,0,0
182,-118,0,0,0,0,0,0,0,0,0,-1,1406,1142,0,0
189,-118,0,0,0,0,0,0,0,0,0,-1,1413,1142,0,0
196,-118,0,0,0,0,0,0,0,0,0,-1,1420,1142,0,0
203,-118,0,0,0,0,0,0,0,0,0,-1,1427,1142,0,0
210,-118,0,0,0,0,0,0,0,0,0,-1,1434,1142,0,0
217,-118,0,0,0,0,0,0,0,0,0,-1,1441,1142,0,0
224,-118,0,0,0,0,0,0,0,0,0,-1,1448,1142,0,0
231,-118,0,0,0,0,0,0,0,0,0,-1,1455,1142,0,0
238,-118,0,0,0,0,0,0,0,0,0,-1,1462,1142,0,0
245,-118,0,0,0,0,0,0,0,0,0,-1,1469,1142,0,0
252,-118,0,0,0,0,0,0,0,0,0,-1,1476,1142,0,0
259,-118,0,0,0,0,0,0,0,0,0,-1,1483,1142,0,0
266,-118,0,0,0,0,0,0,0,0,0,-1,1490,1142,0,0
273,-118,0,0,0,0,0,0,0,0,0,-1,1497,1142,0,0
280,-118,0,0,0,0,0,0,0,0,0,-1,1504,1142,0,0
287,-118,0,0,0,0,0,0,0,0,0,-1,1511,1142,0,0
294,-118,0,0,0,0,0,0,0,0,0,-1,1518,1142,0,0
301,-118,0,0,0,0,0,0,0,0,0,-1,1525,1142,0,0
308,-118,0,0,0,0,0,0,0,0,0,-1,1532,1142,0,0
315,-118,0,0,0,0,0,0,0,0,0,-1,1539,1142,0,0
322,-118,0,0,0,0,0,0,0,0,0,-1,1546,1142,0,0
329,-118,0,0,0,0,0,0,0,0,0,-1,1553,1142,0,0
336,-118,0,0,0,0,0,0,0,0,0,-1,1560,1142,0,0
343,-118,0,0,0,0,0,0,0,0,0,-1,1567,1142,0,0
350,-118,0,0,0,0,0,0,0,0,0,-1,1574,1142,0,0
357,-118,0,0,0,0,0,0,0,0,0,-1,1581,1142,0,0
364,-118,0,0,0,0,0,0,0,0,0,-1,1588,1142,0,0
371,-118,0,0,0,0,0,0,0,0,0,-1,1595,1142,0,0
378,-118,0,0,0,0,0,0,0,0,0,-1,1602,1142,0,0
385,-118,0,0,0,0,0,0,0,0,0,-1,1609,1142,0,0
392,-118,0,0,0,0,0,0,0,0,0,-1,1616,1142,0,0
399,-118,0,0,0,0,0,0,0,0,0,-1,1623,1142,0,0
406,-118,0,0,0,0,0,0,0,0,0,-1,1630,1142,0,0
413,-118,0,0,0,0,0,0,0,0,0,-1,1637,1142,0,0
420,-118,0,0,0,0,0,0,0,0,0,-1,1644,1142,0,0
427,-118,0,0,0,0,0,0,0,0,0,-1,1651,1142,0,0
434,-118,0,0,0,0,0,0,0,0,0,-1,1658,1142,0,0
441,-118,0,0,0,0,0,0,0,0,0,-1,1665,1142,0,0
448,-118,0,0,0,0,0,0,0,0,0,-1,1672,1142,0,0
455,-118,0,0,0,0,0,0,0,0,0,-1,1679,1142,0,0
462,-118,0,0,0,0,0,0,0,0,0,-1,1686,1142,0,0
469,-118,0,0,0,0,0,0,0,0,0,-1,1693,1142,0,0
476,-118,0,0,0,0,0,0,0,0,0,-1,1700,1142,0,0
483,-118,0,0,0,0,0,0,0,0,0,-1,1707,1142,0,0
490,-118,0,0,0,0,0,0,0,0,0,-1,1714,1142,0,0
497,-118,0,0,0,0,0,0,0,0,0,-1,1721,1142,0,0
504,-118,0,0,0,0,0,0,0,0,0,-1,1728,1142,0,0
511,-118,0,0,0,0,0,0,0,0,0,-1,1735,1142,0,0
518,-118,0,0,0,0,0,0,0,0,0,-1,1742,1142,0,0
525,-118,0,0,0,0,0,0,0,0,0,-1,1749,1142,0,0
532,-118,0,0,0,0,0,0,0,0,0,-1,1756,1142,0,0
539,-118,0,0,0,0,0,0,0,0,0,-1,1763,1142,0,0
546,-118,0,0,0,0,0,0,0,0,0,-1,1770,1142,0,0
553,-118,0,0,0,0,0,0,0,0,0,-1,1777,1142,0,0
560,-118,0,0,0,0,0,0,0,0,0,-1,1784,1142,0,0
567,-118,0,0,0,0,0,0,0,0,0,-1,1791,1142,0,0
574,-118,0,0,0,0,0,0,0,0,0,-1,1798,1142,0,0
581,-118,0,0,0,0,0,0,0,0,0,-1,1805,1142,0,0
588,-118,0,0,0,0,0,0,0,0,0,-1,1812,1142,0,0
595,-118,0,0,0,0,0,0,0,0,0,-1,1819,1142,0,0
602,-118,0,0,0,0,0,0,0,0,0,-1,1826,1142,0,0
609,-118,0,0,0,0,0,0,0,0,0,-1,1833,1142,0,0
616,-118,0,0,0,0,0,0,0,0,0,-1,1840,1142,0,0
623,-118,0,0,0,0,0,0,0,0,0,-1,1847,1142,0,0
630,-118,0,0,0,0,0,0,0,0,0,-1,1854,1142,0,0
637,-118,0,0,0,0,0,0,0,0,0,-1,1861,1142,0,0
644,-118,21.4819,3.09497,0.00474627,-0.00531689,0.000317157,0.00475626,-0.00532687,0.0314751,0.0058246,0.0410039,1868,1142,21.4819,-3.09494
651,-118,21.5232,2.97131,0.00402344,-0.00403486,3.85716e-05,0.00402363,-0.00403505,0.00478641,0.00465268,0.0428208,1875,1142,21.5232,-2.97127
658,-118,21.5566,2.89966,0.00384521,-0.00301658,-0.000280762,0.00385668,-0.00302805,-0.0408258,0.00398449,0.044578,1882,1142,21.5566,-2.89964
665,-118,21.7311,2.87756,0.00263957,-0.00250302,0.000292323,0.00265613,-0.00251958,0.0566005,0.00298855,0.0442725,1889,1142,21.7311,-2.87762
672,-118,21.8158,2.63257,0.000626058,-0.0024415,0.00162514,0.00132691,-0.00314234,0.407156,0.00265033,0.0450084,1896,1142,21.8158,-2.63254
679,-118,21.7135,2.76965,-0.00142321,-0.0025641,0.00296865,0.0010293,-0.00501661,0.690477,0.00373509,0.040387,1903,1142,21.7135,-2.76961
686,-118,21.6414,2.7207,-0.00325972,-0.00275978,0.00419238,0.00119008,-0.00720957,0.815175,0.00524824,0.0368981,1910,1142,21.6413,-2.72069
693,-118,21.6305,2.70703,-0.00469924,-0.00288535,0.00513495,0.00142213,-0.00900672,0.872807,0.00653035,0.0341898,1917,1142,21.6305,-2.70706
700,-118,21.7247,2.80212,-0.00573105,-0.00292694,0.00578859,0.00162697,-0.010285,0.904215,0.00745836,0.0209151,1924,1142,21.7247,-2.80209
707,-118,21.6979,3.33557,0,0,0,0,0,0,0,-1,1931,1142,21.6979,-3.33555
714,-118,21.0896,3.93591,-0.00692136,-0.00276476,0.00642646,0.00191111,-0.0115972,0.941789,0.00844095,0.0390867,1938,1142,21.0896,-3.93596
721,-118,20.5557,4.45081,-0.00717304,-0.00253378,0.00638335,0.00193834,-0.0116452,0.959674,0.00848368,0.010916,1945,1142,20.5556,-4.45075
728,-118,20.5293,4.36462,-0.00692965,-0.00218317,0.00591428,0.00181627,-0.0109291,0.9762,0.00796084,0.0140892,1952,1142,20.5293,-4.36465
735,-118,20.5242,4.27258,-0.00628268,-0.00161932,0.0049889,0.00155589,-0.00945789,1.004,0.00688276,0.0141827,1959,1142,20.5242,-4.27259
742,-118,20.5612,4.18469,-0.00557645,-0.000355379,0.00358258,0.00146689,-0.00739872,1.10025,0.00548719,0.0205769,1966,1142,20.5612,-4.18467
749,-118,20.5554,4.05212,-0.00435373,0.000662837,0.00226669,0.00153529,-0.00522618,1.20337,0.00409302,0.0193138,1973,1142,20.5554,-4.05207
756,-118,20.5319,3.96887,-0.00282538,0.00233746,0.000709207,0.00243311,-0.00292104,1.43674,0.00309549,0.0173382,1980,1142,20.5318,-3.96885
763,-118,20.533,3.88354,-0.000702575,0.00502448,-0.00115791,0.00524973,-0.000927827,-1.37866,0.00384658,0.0103425,1987,1142,20.533,-3.88355
770,-118,20.5212,3.8208,0.00127655,0.00769892,-0.00293338,0.00883704,0.00013843,-1.20069,0.00584576,0.0120065,1994,1142,20.5213,-3.82081
777,-118,20.4956,3.71643,0.00305667,0.0106574,-0.00405538,0.0124148,0.00129926,-1.16187,0.00787922,0.0241543,2001,1142,20.4956,-3.71641
784,-118,20.3916,3.5166,0.00517511,0.014308,-0.00498508,0.016502,0.00298113,-1.1562,0.0101546,0.0385801,2008,1142,20.3916,-3.51662
791,-118,20.2839,3.3114,0,0,0,0,0,0,0,-1,2015,1142,20.284,-3.31141
798,-118,19.6576,3.11389,0.0119484,0.0243999,-0.00649928,0.0271741,0.00917408,-1.16735,0.0159625,0.0474243,2022,1142,19.6575,-3.11394
805,-118,20.5505,2.51086,0.017124,0.0312734,-0.00688547,0.0340709,0.0143265,-1.18487,0.0197536,0.0454632,2029,1142,20.5505,-2.51087
812,-118,20.491,2.1908,0.023881,0.0397909,-0.00670679,0.0422408,0.021431,-1.22056,0.0243886,0.0467329,2036,1142,20.4909,-2.1908
-700,-125,0,0,0,0,0,0,0,0,0,-1,524,1149,0,0
-693,-125,-15.6927,-1.46191,0.159688,0.013858,0.00974862,0.160336,0.0132092,0.0664553,0.102771,0.0491273,531,1149,-15.6927,1.46186
-686,-125,-12.7813,-1.11865,0.129761,0.0127969,0.00631772,0.130101,0.0124566,0.0538056,0.0828943,0.0454207,538,1149,-12.7813,1.11871
-679,-125,-12.8716,-1.26172,0.103886,0.0119985,0.00426923,0.104084,0.0118005,0.0463284,0.0658095,0.0420545,545,1149,-12.8717,1.2617
-672,-125,-12.7594,-1.12341,0.081748,0.0112364,0.00301558,0.0818768,0.0111076,0.0426632,0.0512845,0.0469323,552,1149,-12.7594,1.12337
-665,-125,-12.842,-0.728638,0.0629885,0.0103921,0.00224462,0.0630841,0.0102965,0.0425731,0.0390787,0.043735,559,1149,-12.842,0.728589
-658,-125,-12.7906,-0.252319,0,0,0,0,0,0,0,-1,566,1149,-12.7906,0.25232
-651,-125,-12.7358,0.535522,0.0343013,0.00822242,0.00138637,0.0343748,0.00814892,0.0529615,0.0207409,0.0370973,573,1149,-12.7358,-0.535544
-644,-125,-12.6833,1.2345,0.0239877,0.00691745,0.00110016,0.0240583,0.00684684,0.0640956,0.0143133,0.0240975,580,1149,-12.6833,-1.23444
-637,-125,-12.7208,1.35046,0.014654,0.00544295,-1.3722e-05,0.014654,0.00544293,-0.00148973,0.00855323,0.0128644,587,1149,-12.7208,-1.35041
-630,-125,-12.735,1.47241,0.00718304,0.00329994,-0.000878023,0.00737235,0.00311064,-0.212352,0.00427369,0.0138649,594,1149,-12.7351,-1.4724
-623,-125,-12.7461,1.60266,0.000280344,0.00228354,-0.00258443,0.00405367,-0.00148979,-0.970262,0.00331266,0.0126377,601,1149,-12.7461,-1.60263
-616,-125,-12.7254,1.72046,-0.00378956,0.000925161,-0.00397959,0.00319319,-0.00605759,-1.05279,0.00542562,0.0126682,608,1149,-12.7254,-1.72048
-609,-125,-12.7567,1.81567,-0.00596652,-0.000932795,-0.00545077,0.00255413,-0.00945345,-1.00169,0.00730408,0.0160886,615,1149,-12.7567,-1.81566
-602,-125,-12.8035,1.98865,-0.0077001,-0.00223155,-0.00708785,0.00263114,-0.0125628,-0.969488,0.00937612,0.0150814,622,1149,-12.8035,-1.98869
-595,-125,-12.8112,2.14221,-0.00863556,-0.00300741,-0.0084294,0.00306523,-0.0147082,-0.946502,0.0109709,0.0134831,629,1149,-12.8112,-2.1422
-588,-125,-12.6667,2.31189,-0.00911602,-0.00323687,-0.00914972,0.00343389,-0.0157868,-0.940827,0.0118364,0.0189252,636,1149,-12.6667,-2.31192
-581,-125,-13.2179,2.01233,-0.00925543,-0.00338437,-0.00923776,0.00337307,-0.0160129,-0.93924,0.0119592,0.0460824,643,1149,-13.2179,-2.01228
-574,-125,-13.6542,0.686401,0,0,0,0,0,0,0,-1,650,1149,-13.6543,-0.686361
-567,-125,-13.9569,0.853516,-0.00820194,-0.00288072,-0.00814011,0.00302256,-0.0141052,-0.943351,0.0105562,0.0395493,657,1149,-13.9569,-0.853477
-560,-125,-14.05,0.958374,-0.00682589,-0.00224688,-0.00674174,0.00258351,-0.0116563,-0.949089,0.00875995,0.0384931,664,1149,-14.05,-0.958408
-553,-125,-14.084,0.884033,-0.00481711,-0.00132354,-0.00465767,0.00190412,-0.00804477,-0.964798,0.00609781,0.0393488,671,1149,-14.084,-0.884014
-546,-125,-13.9945,0.753174,-0.0022596,-0.000146776,-0.00185621,0.000932583,-0.00333896,-1.0441,0.00259334,0.0401412,678,1149,-13.9945,-0.753169
-539,-125,-13.8151,0.882324,0.000811781,0.00124593,0.00171762,0.00276014,-0.000702428,0.848255,0.00211351,0.0411731,685,1149,-13.815,-0.882272
-532,-125,-13.77,0.879272,0.00379583,0.00267471,0.00543802,0.00870211,-0.00223157,0.734038,0.00667086,0.0384808,692,1149,-13.77,-0.879241
-525,-125,-13.8305,1.10767,0.00321308,0.00306451,0.00630991,0.00944915,-0.00317155,0.779512,0.00758108,0.042094,699,1149,-13.8305,-1.10767
-518,-125,0,0,0,0,0,0,0,0,0,-1,706,1149,0,0
-511,-125,0,0,0,0,0,0,0,0,0,-1,713,1149,0,0
-504,-125,0,0,0,0,0,0,0,0,0,-1,720,1149,0,0
-497,-125,0,0,0,0,0,0,0,0,0,-1,727,1149,0,0
-490,-125,0,0,0,0,0,0,0,0,0,-1,734,1149,0,0
-483,-125,0,0,0,0,0,0,0,0,0,-1,741,1149,0,0
-476,-125,0,0,0,0,0,0,0,0,0,-1,748,1149,0,0
-469,-125,0,0,0,0,0,0,0,0,0,-1,755,1149,0,0
-462,-125,0,0,0,0,0,0,0,0,0,-1,762,1149,0,0
-455,-125,0,0,0,0,0,0,0,0,0,-1,769,1149,0,0
-448,-125,0,0,0,0,0,0,0,0,0,-1,776,1149,0,0
-441,-125,0,0,0,0,0,0,0,0,0,-1,783,1149,0,0
-434,-125,0,0,0,0,0,0,0,0,0,-1,790,1149,0,0
-427,-125,0,0,0,0,0,0,0,0,0,-1,797,1149,0,0
-420,-125,0,0,0,0,0,0,0,0,0,-1,804,1149,0,0
-413,-125,0,0,0,0,0,0,0,0,0,-1,811,1149,0,0
-406,-125,0,0,0,0,0,0,0,0,0,-1,818,1149,0,0
-399,-125,0,0,0,0,0,0,0,0,0,-1,825,1149,0,0
-392,-125,0,0,0,0,0,0,0,0,0,-1,832,1149,0,0
-385,-125,0,0,0,0,0,0,0,0,0,-1,839,1149,0,0
-378,-125,0,0,0,0,0,0,0,0,0,-1,846,1149,0,0
-371,-125,0,0,0,0,0,0,0,0,0,-1,853,1149,0,0
-364,-125,0,0,0,0,0,0,0,0,0,-1,860,1149,0,0
-357,-125,0,0,0,0,0,0,0,0,0,-1,867,1149,0,0
-350,-125,0,0,0,0,0,0,0,0,0,-1,874,1149,0,0
-343,-125,0,0,0,0,0,0,0,0,0,-1,881,1149,0,0
-336,-125,0,0,0,0,0,0,0,0,0,-1,888,1149,0,0
-329,-125,0,0,0,0,0,0,0,0,0,-1,895,1149,0,0
-322,-125,0,0,0,0,0,0,0,0,0,-1,902,1149,0,0
-315,-125,0,0,0,0,0,0,0,0,0,-1,909,1149,0,0
-308,-125,0,0,0,0,0,0,0,0,0,-1,916,1149,0,0
-301,-125,0,0,0,0,0,0,0,0,0,-1,923,1149,0,0
-294,-125,0,0,0,0,0,0,0,0,0,-1,930,1149,0,0
-287,-125,0,0,0,0,0,0,0,0,0,-1,937,1149,0,0
-280,-125,0,0,0,0,0,0,0,0,0,-1,944,1149,0,0
-273,-125,0,0,0,0,0,0,0,0,0,-1,951,1149,0,0
-266,-125,0,0,0,0,0,0,0,0,0,-1,958,1149,0,0
-259,-125,0,0,0,0,0,0,0,0,0,-1,965,1149,0,0
-252,-125,0,0,0,0,0,0,0,0,0,-1,972,1149,0,0
-245,-125,0,0,0,0,0,0,0,0,0,-1,979,1149,0,0
-238,-125,0,0,0,0,0,0,0,0,0,-1,986,1149,0,0
-231,-125,0,0,0,0,0,0,0,0,0,-1,993,1149,0,0
-224,-125,0,0,0,0,0,0,0,0,0,-1,1000,1149,0,0
-217,-125,0,0,0,0,0,0,0,0,0,-1,1007,1149,0,0
-210,-125,0,0,0,0,0,0,0,0,0,-1,1014,1149,0,0
-203,-125,0,0,0,0,0,0,0,0,0,-1,1021,1149,0,0
-196,-125,0,0,0,0,0,0,0,0,0,-1,1028,1149,0,0
-189,-125,0,0,0,0,0,0,0,0,0,-1,1035,1149,0,0
-182,-125,0,0,0,0,0,0,0,0,0,-1,1042,1149,0,0
-175,-125,0,0,0,0,0,0,0,0,0,-1,1049,1149,0,0
-168,-125,0,0,0,0,0,0,0,0,0,-1,1056,1149,0,0
-161,-125,0,0,0,0,0,0,0,0,0,-1,1063,1149,0,0
-154,-125,0,0,0,0,0,0,0,0,0,-1,1070,1149,0,0
-147,-125,0,0,0,0,0,0,0,0,0,-1,1077,1149,0,0
-140,-125,0,0,0,0,0,0,0,0,0,-1,1084,1149,0,0
-133,-125,0,0,0,0,0,0,0,0,0,-1,1091,1149,0,0
-126,-125,0,0,0,0,0,0,0,0,0,-1,1098,1149,0,0
-119,-125,0,0,0,0,0,0,0,0,0,-1,1105,1149,0,0
-112,-125,0,0,0,0,0,0,0,0,0,-1,1112,1149,0,0
-105,-125,0,0,0,0,0,0,0,0,0,-1,1119,1149,0,0
-98,-125,0,0,0,0,0,0,0,0,0,-1,1126,1149,0,0
-91,-125,0,0,0,0,0,0,0,0,0,-1,1133,1149,0,0
-84,-125,0,0,0,0,0,0,0,0,0,-1,1140,1149,0,0
-77,-125,0,0,0,0,0,0,0,0,0,-1,1147,1149,0,0
-70,-125,0,0,0,0,0,0,0,0,0,-1,1154,1149,0,0
-63,-125,0,0,0,0,0,0,0,0,0,-1,1161,1149,0,0
-56,-125,0,0,0,0,0,0,0,0,0,-1,1168,1149,0,0
-49,-125,0,0,0,0,0,0,0,0,0,-1,1175,1149,0,0
-42,-125,0,0,0,0,0,0,0,0,0,-1,1182,1149,0,0
-35,-125,0,0,0,0,0,0,0,0,0,-1,1189,1149,0,0
-28,-125,0,0,0,0,0,0,0,0,0,-1,1196,1149,0,0
-21,-125,0,0,0,0,0,0,0,0,0,-1,1203,1149,0,0
-14,-125,0,0,0,0,0,0,0,0,0,-1,1210,1149,0,0
-7,-125,0,0,0,0,0,0,0,0,0,-1,1217,1149,0,0
0,-125,0,0,0,0,0,0,0,0,0,-1,1224,1149,0,0
7,-125,0,0,0,0,0,0,0,0,0,-1,1231,1149,0,0
14,-125,0,0,0,0,0,0,0,0,0,-1,1238,1149,0,0
21,-125,0,0,0,0,0,0,0,0,0,-1,1245,1149,0,0
28,-125,0,0,0,0,0,0,0,0,0,-1,1252,1149,0,0
35,-125,0,0,0,0,0,0,0,0,0,-1,1259,1149,0,0
42,-125,0,0,0,0,0,0,0,0,0,-1,1266,1149,0,0
49,-125,0,0,0,0,0,0,0,0,0,-1,1273,1149,0,0
56,-125,0,0,0,0,0,0,0,0,0,-1,1280,1149,0,0
63,-125,0,0,0,0,0,0,0,0,0,-1,1287,1149,0,0
70,-125,0,0,0,0,0,0,0,0,0,-1,1294,1149,0,0
77,-125,0,0,0,0,0,0,0,0,0,-1,1301,1149,0,0
84,-125,0,0,0,0,0,0,0,0,0,-1,1308,1149,0,0
91,-125,0,0,0,0,0,0,0,0,0,-1,1315,1149,0,0
98,-125,0,0,0,0,0,0,0,0,0,-1,1322,1149,0,0
105,-125,0,0,0,0,0,0,0,0,0,-1,1329,1149,0,0
112,-125,0,0,0,0,0,0,0,0,0,-1,1336,1149,0,0
119,-125,0,0,0,0,0,0,0,0,0,-1,1343,1149,0,0
126,-125,0,0,0,0,0,0,0,0,0,-1,1350,1149,0,0
133,-125,0,0,0,0,0,0,0,0,0,-1,1357,1149,0,0
140,-125,0,0,0,0,0,0,0,0,0,-1,1364,1149,0,0
147,-125,0,0,0,0,0,0,0,0,0,-1,1371,1149,0,0
154,-125,0,0,0,0,0,0,0,0,0,-1,1378,1149,0,0
161,-125,0,0,0,0,0,0,0,0,0,-1,1385,1149,0,0
168,-125,0,0,0,0,0,0,0,0,0,-1,1392,1149,0,0
175,-125,0,0,0,0,0,0,0,0,0,-1,1399,1149,0,0
182,-125,0,0,0,0,0,0,0,0,0,-1,1406,1149,0,0
189,-125,0,0,0,0,0,0,0,0,0,-1,1413,1149,0,0
196,-125,0,0,0,0,0,0,0,0,0,-1,1420,1149,0,0
203,-125,0,0,0,0,0,0,0,0,0,-1,1427,1149,0,0
210,-125,0,0,0,0,0,0,0,0,0,-1,1434,1149,0,0
217,-125,0,0,0,0,0,0,0,0,0,-1,1441,1149,0,0
224,-125,0,0,0,0,0,0,0,0,0,-1,1448,1149,0,0
231,-125,0,0,0,0,0,0,0,0,0,-1,1455,1149,0,0
238,-125,0,0,0,0,0,0,0,0,0,-1,1462,1149,0,0
245,-125,0,0,0,0,0,0,0,0,0,-1,1469,1149,0,0
252,-125,0,0,0,0,0,0,0,0,0,-1,1476,1149,0,0
259,-125,0,0,0,0,0,0,0,0,0,-1,1483,1149,0,0
266,-125,0,0,0,0,0,0,0,0,0,-1,1490,1149,0,0
273,-125,0,0,0,0,0,0,0,0,0,-1,1497,1149,0,0
280,-125,0,0,0,0,0,0,0,0,0,-1,1504,1149,0,0
287,-125,0,0,0,0,0,0,0,0,0,-1,1511,1149,0,0
294,-125,0,0,0,0,0,0,0,0,0,-1,1518,1149,0,0
301,-125,0,0,0,0,0,0,0,0,0,-1,1525,1149,0,0
308,-125,0,0,0,0,0,0,0,0,0,-1,1532,1149,0,0
315,-125,0,0,0,0,0,0,0,0,0,-1,1539,1149,0,0
322,-125,0,0,0,0,0,0,0,0,0,-1,1546,1149,0,0
329,-125,0,0,0,0,0,0,0,0,0,-1,1553,1149,0,0
336,-125,0,0,0,0,0,0,0,0,0,-1,1560,1149,0,0
343,-125,0,0,0,0,0,0,0,0,0,-1,1567,1149,0,0
350,-125,0,0,0,0,0,0,0,0,0,-1,1574,1149,0,0
357,-125,0,0,0,0,0,0,0,0,0,-1,1581,1149,0,0
364,-125,0,0,0,0,0,0,0,0,0,-1,1588,1149,0,0
371,-125,0,0,0,0,0,0,0,0,0,-1,1595,1149,0,0
378,-125,0,0,0,0,0,0,0,0,0,-1,1602,1149,0,0
385,-125,0,0,0,0,0,0,0,0,0,-1,1609,1149,0,0
392,-125,0,0,0,0,0,0,0,0,0,-1,1616,1149,0,0
399,-125,0,0,0,0,0,0,0,0,0,-1,1623,1149,0,0
406,-125,0,0,0,0,0,0,0,0,0,-1,1630,1149,0,0
413,-125,0,0,0,0,0,0,0,0,0,-1,1637,1149,0,0
420,-125,0,0,0,0,0,0,0,0,0,-1,1644,1149,0,0
427,-125,0,0,0,0,0,0,0,0,0,-1,1651,1149,0,0
434,-125,0,0,0,0,0,0,0,0,0,-1,1658,1149,0,0
441,-125,0,0,0,0,0,0,0,0,0,-1,1665,1149,0,0
448,-125,0,0,0,0,0,0,0,0,0,-1,1672,1149,0,0
455,-125,0,0,0,0,0,0,0,0,0,-1,1679,1149,0,0
462,-125,0,0,0,0,0,0,0,0,0,-1,1686,1149,0,0
469,-125,0,0,0,0,0,0,0,0,0,-1,1693,1149,0,0
476,-125,0,0,0,0,0,0,0,0,0,-1,1700,1149,0,0
483,-125,0,0,0,0,0,0,0,0,0,-1,1707,1149,0,0
490,-125,0,0,0,0,0,0,0,0,0,-1,1714,1149,0,0
497,-125,0,0,0,0,0,0,0,0,0,-1,1721,1149,0,0
504,-125,0,0,0,0,0,0,0,0,0,-1,1728,1149,0,0
511,-125,0,0,0,0,0,0,0,0,0,-1,1735,1149,0,0
518,-125,0,0,0,0,0,0,0,0,0,-1,1742,1149,0,0
525,-125,0,0,0,0,0,0,0,0,0,-1,1749,1149,0,0
532,-125,0,0,0,0,0,0,0,0,0,-1,1756,1149,0,0
539,-125,0,0,0,0,0,0,0,0,0,-1,1763,1149,0,0
546,-125,0,0,0,0,0,0,0,0,0,-1,1770,1149,0,0
553,-125,0,0,0,0,0,0,0,0,0,-1,1777,1149,0,0
560,-125,0,0,0,0,0,0,0,0,0,-1,1784,1149,0,0
567,-125,0,0,0,0,0,0,0,0,0,-1,1791,1149,0,0
574,-125,0,0,0,0,0,0,0,0,0,-1,1798,1149,0,0
581,-125,0,0,0,0,0,0,0,0,0,-1,1805,1149,0,0
588,-125,0,0,0,0,0,0,0,0,0,-1,1812,1149,0,0
595,-125,0,0,0,0,0,0,0,0,0,-1,1819,1149,0,0
602,-125,0,0,0,0,0,0,0,0,0,-1,1826,1149,0,0
609,-125,0,0,0,0,0,0,0,0,0,-1,1833,1149,0,0
616,-125,0,0,0,0,0,0,0,0,0,-1,1840,1149,0,0
623,-125,0,0,0,0,0,0,0,0,0,-1,1847,1149,0,0
630,-125,0,0,0,0,0,0,0,0,0,-1,1854,1149,0,0
637,-125,0,0,0,0,0,0,0,0,0,-1,1861,1149,0,0
644,-125,21.4919,3.02332,0.00532235,-0.00512448,0.000463526,0.00534287,-0.005145,0.0442541,0.00605554,0.0408167,1868,1149,21.4919,-3.02332
651,-125,21.3417,3.00647,0.00427524,-0.0038747,0.000180675,0.00427925,-0.0038787,0.0221544,0.00471189,0.0428769,1875,1149,21.3417,-3.00646
658,-125,21.373,2.92041,0.00385942,-0.002845,-0.000134149,0.0038621,-0.00284769,-0.0199984,0.00388863,0.0425739,1882,1149,21.373,-2.92036
665,-125,21.6116,2.9032,0.00238296,-0.00237475,0.000471626,0.00242926,-0.00242105,0.09786,0.00280033,0.0406614,1889,1149,21.6116,-2.90315
672,-125,21.689,2.74365,0.000236255,-0.00231586,0.00170938,0.00109335,-0.00317295,0.464769,0.00255883,0.0409084,1896,1149,21.689,-2.7436
679,-125,21.6675,2.94348,-0.0018475,-0.00244161,0.00293691,0.000807341,-0.00509644,0.734997,0.00369625,0.0375558,1903,1149,21.6674,-2.94352
686,-125,21.6447,2.80383,-0.00367655,-0.00263825,0.00404689,0.000922653,-0.00723745,0.849192,0.00516009,0.0358847,1910,1149,21.6447,-2.80382
693,-125,21.6073,2.7262,-0.00509811,-0.00276521,0.00489527,0.00110067,-0.00896398,0.902358,0.00637463,0.0326981,1917,1149,21.6073,-2.72615
700,-125,21.7142,2.85339,-0.00612698,-0.00282362,0.00549639,0.00126389,-0.0102145,0.931357,0.00726768,0.0156082,1924,1149,21.7143,-2.85344
707,-125,21.5654,3.75427,0,0,0,0,0,0,0,-1,1931,1149,21.5655,-3.75424
714,-125,20.9164,4.16565,0,0,0,0,0,0,0,-1,1938,1149,20.9164,-4.16561
721,-125,20.2673,4.57703,0,0,0,0,0,0,0,-1,1945,1149,20.2673,-4.57698
728,-125,20.4103,4.38196,-0.0071214,-0.00213187,0.00562557,0.0015273,-0.0107806,0.994103,0.00774649,0.0125234,1952,1149,20.4103,-4.38198
735,-125,20.4117,4.29419,-0.00633455,-0.00158563,0.00466752,0.00127669,-0.00919686,1.0207,0.00659811,0.0153034,1959,1149,20.4117,-4.29419
742,-125,20.4374,4.19653,-0.0054388,-0.000306285,0.00318308,0.00121619,-0.00696127,1.12466,0.00509486,0.0223841,1966,1149,20.4374,-4.19651
749,-125,20.4152,4.06555,-0.00405847,0.000677827,0.00173384,0.0012447,-0.00462533,1.25481,0.0035715,0.0247082,1973,1149,20.4152,-4.0655
756,-125,20.4061,3.95776,-0.00233598,0.00217321,-8.34998e-05,0.00217476,-0.00233752,-1.55229,0.00260573,0.0209352,1980,1149,20.4061,-3.95773
763,-125,20.42,3.88318,-1.62561e-05,0.00448488,-0.0022012,0.00538238,-0.000913756,-1.18364,0.00392842,0.0116751,1987,1149,20.4201,-3.88313
770,-125,20.4198,3.77344,0.00209131,0.00671188,-0.0042599,0.00924765,-0.000444451,-1.03387,0.00631846,0.0137864,1994,1149,20.4198,-3.7734
777,-125,20.4148,3.65833,0.00398997,0.00905781,-0.0058175,0.0128693,0.000178495,-0.990792,0.00852065,0.0251486,2001,1149,20.4148,-3.65832
784,-125,20.3872,3.40515,0.00623499,0.0118803,-0.00729342,0.0168782,0.00123707,-0.970029,0.0108633,0.0412344,2008,1149,20.3872,-3.40516
791,-125,20.3708,3.12341,0,0,0,0,0,0,0,-1,2015,1149,20.3709,-3.12347
798,-125,19.3721,2.67883,0.0131346,0.0192527,-0.0100625,0.0267108,0.00567652,-0.932962,0.016249,0.0462959,2022,1149,19.3721,-2.67883
805,-125,20.1653,2.05859,0.0182406,0.0240142,-0.0110569,0.032555,0.00969983,-0.913089,0.0193004,0.0472433,2029,1149,20.1652,-2.05858
812,-125,21.0161,1.427,0,0,0,0,0,0,0,-1,2036,1149,21.0161,-1.42703
-700,-132,0,0,0,0,0,0,0,0,0,-1,524,1156,0,0
-693,-132,-15.7075,-1.51892,0,0,0,0,0,0,0,-1,531,1156,-15.7075,1.51892
-686,-132,-15.8611,2.09448,0,0,0,0,0,0,0,-1,538,1156,-15.8611,-2.09451
-679,-132,-15.2339,1.8999,0.103878,0.0152893,0.00191237,0.103919,0.015248,0.0215737,0.0647977,0.0481008,545,1156,-15.2339,-1.89992
-672,-132,-12.3764,-0.740112,0.0821534,0.0144172,0.0013977,0.0821822,0.0143884,0.0206228,0.0506775,0.0461329,552,1156,-12.3764,0.740073
-665,-132,-12.5168,-0.487305,0.0637282,0.0132539,0.00115487,0.0637546,0.0132275,0.0228645,0.0388519,0.0443701,559,1156,-12.5168,0.487264
-658,-132,-12.7962,0.970093,0,0,0,0,0,0,0,-1,566,1156,-12.7962,-0.970037
-651,-132,-12.7002,1.09924,0.0352975,0.0102003,0.000927785,0.0353318,0.0101661,0.0369006,0.0210026,0.0395296,573,1156,-12.7002,-1.09923
-644,-132,-12.5953,1.22961,0.0249053,0.00845252,0.000824649,0.0249465,0.00841129,0.0499554,0.0146552,0.0201724,580,1156,-12.5953,-1.22959
-637,-132,-12.5831,1.34851,0.0154831,0.00664982,-4.91108e-05,0.0154834,0.00664954,-0.00555953,0.00896892,0.0110463,587,1156,-12.5831,-1.34851
-630,-132,-12.5958,1.47876,0.00791493,0.00420253,-0.000713783,0.00804744,0.00407002,-0.183554,0.00464629,0.00964508,594,1156,-12.5958,-1.4788
-623,-132,-12.593,1.61511,0.000686599,0.00290298,-0.00236515,0.0044067,-0.000817113,-1.00448,0.00324465,0.0149078,601,1156,-12.5929,-1.61516
-616,-132,-12.5583,1.72803,-0.00375663,0.00119814,-0.00381498,0.00326955,-0.00582804,-1.07337,0.00532128,0.0198136,608,1156,-12.5583,-1.72809
-609,-132,-12.5543,1.83191,-0.00624284,-0.00101609,-0.00534203,0.00231755,-0.00957648,-1.01289,0.00728085,0.0146619,615,1156,-12.5543,-1.8319
-602,-132,-12.6423,1.96301,-0.00816637,-0.00240817,-0.00711143,0.00238486,-0.0129594,-0.977741,0.0095345,0.0127532,622,1156,-12.6423,-1.96295
-595,-132,-12.6672,2.15015,-0.00922568,-0.00324778,-0.00855455,0.00282496,-0.0152984,-0.953468,0.0112594,0.0147143,629,1156,-12.6672,-2.15015
-588,-132,-12.5695,2.36792,-0.00979907,-0.00355991,-0.00932979,0.00315803,-0.016517,-0.946739,0.012201,0.0167118,636,1156,-12.5695,-2.36793
-581,-132,-12.9993,2.06287,-0.00996564,-0.00381146,-0.00945156,0.0030513,-0.0168284,-0.942769,0.0123622,0.0440601,643,1156,-12.9993,-2.06281
-574,-132,-13.6184,1.64233,0,0,0,0,0,0,0,-1,650,1156,-13.6184,-1.64233
-567,-132,-13.9233,0.888672,-0.00877638,-0.00338487,-0.00850632,0.00284263,-0.0150039,-0.938848,0.0110724,0.0400588,657,1156,-13.9233,-0.888681
-560,-132,-14.0624,0.947876,-0.0072976,-0.00279327,-0.00719627,0.00249502,-0.0125859,-0.937051,0.00933409,0.0356184,664,1156,-14.0624,-0.947925
-553,-132,-14.194,0.926147,-0.00511045,-0.00187772,-0.00518855,0.0019404,-0.00892857,-0.936396,0.0066936,0.036826,671,1156,-14.194,-0.926106
-546,-132,-14.101,0.787109,-0.00228529,-0.000657224,-0.00244461,0.00110532,-0.00404784,-0.94612,0.00313268,0.0417675,678,1156,-14.101,-0.78716
-539,-132,-13.8455,0.79834,0.00113952,0.00086051,0.00109889,0.00210772,-0.000107697,0.722262,0.00144239,0.0411085,685,1156,-13.8455,-0.798321
-532,-132,-13.6965,0.817993,0.00477498,0.00258212,0.00499677,0.0087942,-0.0014371,0.677396,0.00639588,0.0387272,692,1156,-13.6965,-0.81795
-525,-132,-13.7219,0.839478,0.00530036,0.00352497,0.00650458,0.0109775,-0.00215221,0.717581,0.00813127,0.041097,699,1156,-13.7219,-0.839477
-518,-132,0,0,0,0,0,0,0,0,0,-1,706,1156,0,0
-511,-132,0,0,0,0,0,0,0,0,0,-1,713,1156,0,0
-504,-132,0,0,0,0,0,0,0,0,0,-1,720,1156,0,0
-497,-132,0,0,0,0,0,0,0,0,0,-1,727,1156,0,0
-490,-132,0,0,0,0,0,0,0,0,0,-1,734,1156,0,0
-483,-132,0,0,0,0,0,0,0,0,0,-1,741,1156,0,0
-476,-132,0,0,0,0,0,0,0,0,0,-1,748,1156,0,0
-469,-132,0,0,0,0,0,0,0,0,0,-1,755,1156,0,0
-462,-132,0,0,0,0,0,0,0,0,0,-1,762,1156,0,0
-455,-132,0,0,0,0,0,0,0,0,0,-1,769,1156,0,0
-448,-132,0,0,0,0,0,0,0,0,0,-1,776,1156,0,0
-441,-132,0,0,0,0,0,0,0,0,0,-1,783,1156,0,0
-434,-132,0,0,0,0,0,0,0,0,0,-1,790,1156,0,0
-427,-132,0,0,0,0,0,0,0,0,0,-1,797,1156,0,0
-420,-132,0,0,0,0,0,0,0,0,0,-1,804,1156,0,0
-413,-132,0,0,0,0,0,0,0,0,0,-1,811,1156,0,0
-406,-132,0,0,0,0,0,0,0,0,0,-1,818,1156,0,0
-399,-132,0,0,0,0,0,0,0,0,0,-1,825,1156,0,0
-392,-132,0,0,0,0,0,0,0,0,0,-1,832,1156,0,0
-385,-132,0,0,0,0,0,0,0,0,0,-1,839,1156,0,0
-378,-132,0,0,0,0,0,0,0,0,0,-1,846,1156,0,0
-371,-132,0,0,0,0,0,0,0,0,0,-1,853,1156,0,0
-364,-132,0,0,0,0,0,0,0,0,0,-1,860,1156,0,0
-357,-132,0,0,0,0,0,0,0,0,0,-1,867,1156,0,0
-350,-132,0,0,0,0,0,0,0,0,0,-1,874,1156,0,0
-343,-132,0,0,0,0,0,0,0,0,0,-1,881,1156,0,0
-336,-132,0,0,0,0,0,0,0,0,0,-1,888,1156,0,0
-329,-132,0,0,0,0,0,0,0,0,0,-1,895,1156,0,0
-322,-132,0,0,0,0,0,0,0,0,0,-1,902,1156,0,0
-315,-132,0,0,0,0,0,0,0,0,0,-1,909,1156,0,0
-308,-132,0,0,0,0,0,0,0,0,0,-1,916,1156,0,0
-301,-132,0,0,0,0,0,0,0,0,0,-1,923,1156,0,0
-294,-132,0,0,0,0,0,0,0,0,0,-1,930,1156,0,0
-287,-132,0,0,0,0,0,0,0,0,0,-1,937,1156,0,0
-280,-132,0,0,0,0,0,0,0,0,0,-1,944,1156,0,0
-273,-132,0,0,0,0,0,0,0,0,0,-1,951,1156,0,0
-266,-132,0,0,0,0,0,0,0,0,0,-1,958,1156,0,0
-259,-132,0,0,0,0,0,0,0,0,0,-1,965,1156,0,0
-252,-132,0,0,0,0,0,0,0,0,0,-1,972,1156,0,0
-245,-132,0,0,0,0,0,0,0,0,0,-1,979,1156,0,0
-238,-132,0,0,0,0,0,0,0,0,0,-1,986,1156,0,0
-231,-132,0,0,0,0,0,0,0,0,0,-1,993,1156,0,0
-224,-132,0,0,0,0,0,0,0,0,0,-1,1000,1156,0,0
-217,-132,0,0,0,0,0,0,0,0,0,-1,1007,1156,0,0
-210,-132,0,0,0,0,0,0,0,0,0,-1,1014,1156,0,0
-203,-132,0,0,0,0,0,0,0,0,0,-1,1021,1156,0,0
-196,-132,0,0,0,0,0,0,0,0,0,-1,1028,1156,0,0
-189,-132,0,0,0,0,0,0,0,0,0,-1,1035,1156,0,0
-182,-132,0,0,0,0,0,0,0,0,0,-1,1042,1156,0,0
-175,-132,0,0,0,0,0,0,0,0,0,-1,1049,1156,0,0
-168,-132,0,0,0,0,0,0,0,0,0,-1,1056,1156,0,0
-161,-132,0,0,0,0,0,0,0,0,0,-1,1063,1156,0,0
-154,-132,0,0,0,0,0,0,0,0,0,-1,1070,1156,0,0
-147,-132,0,0,0,0,0,0,0,0,0,-1,1077,1156,0,0
-140,-132,0,0,0,0,0,0,0,0,0,-1,1084,1156,0,0
-133,-132,0,0,0,0,0,0,0,0,0,-1,1091,1156,0,0
-126,-132,0,0,0,0,0,0,0,0,0,-1,1098,1156,0,0
-119,-132,0,0,0,0,0,0,0,0,0,-1,1105,1156,0,0
-112,-132,0,0,0,0,0,0,0,0,0,-1,1112,1156,0,0
-105,-132,0,0,0,0,0,0,0,0,0,-1,1119,1156,0,0
-98,-132,0,0,0,0,0,0,0,0,0,-1,1126,1156,0,0
-91,-132,0,0,0,0,0,0,0,0,0,-1,1133,1156,0,0
-84,-132,0,0,0,0,0,0,0,0,0,-1,1140,1156,0,0
-77,-132,0,0,0,0,0,0,0,0,0,-1,1147,1156,0,0
-70,-132,0,0,0,0,0,0,0,0,0,-1,1154,1156,0,0
-63,-132,0,0,0,0,0,0,0,0,0,-1,1161,1156,0,0
-56,-132,0,0,0,0,0,0,0,0,0,-1,1168,1156,0,0
-49,-132,0,0,0,0,0,0,0,0,0,-1,1175,1156,0,0
-42,-132,0,0,0,0,0,0,0,0,0,-1,1182,1156,0,0
-35,-132,0,0,0,0,0,0,0,0,0,-1,1189,1156,0,0
-28,-132,0,0,0,0,0,0,0,0,0,-1,1196,1156,0,0
-21,-132,0,0,0,0,0,0,0,0,0,-1,1203,1156,0,0
-14,-132,0,0,0,0,0,0,0,0,0,-1,1210,1156,0,0
-7,-132,0,0,0,0,0,0,0,0,0,-1,1217,1156,0,0
0,-132,0,0,0,0,0,0,0,0,0,-1,1224,1156,0,0
7,-132,0,0,0,0,0,0,0,0,0,-1,1231,1156,0,0
14,-132,0,0,0,0,0,0,0,0,0,-1,1238,1156,0,0
21,-132,0,0,0,0,0,0,0,0,0,-1,1245,1156,0,0
28,-132,0,0,0,0,0,0,0,0,0,-1,1252,1156,0,0
35,-132,0,0,0,0,0,0,0,0,0,-1,1259,1156,0,0
42,-132,0,0,0,0,0,0,0,0,0,-1,1266,1156,0,0
49,-132,0,0,0,0,0,0,0,0,0,-1,1273,1156,0,0
56,-132,0,0,0,0,0,0,0,0,0,-1,1280,1156,0,0
63,-132,0,0,0,0,0,0,0,0,0,-1,1287,1156,0,0
70,-132,0,0,0,0,0,0,0,0,0,-1,1294,1156,0,0
77,-132,0,0,0,0,0,0,0,0,0,-1,1301,1156,0,0
84,-132,0,0,0,0,0,0,0,0,0,-1,1308,1156,0,0
91,-132,0,0,0,0,0,0,0,0,0,-1,1315,1156,0,0
98,-132,0,0,0,0,0,0,0,0,0,-1,1322,1156,0,0
105,-132,0,0,0,0,0,0,0,0,0,-1,1329,1156,0,0
112,-132,0,0,0,0,0,0,0,0,0,-1,1336,1156,0,0
119,-132,0,0,0,0,0,0,0,0,0,-1,1343,1156,0,0
126,-132,0,0,0,0,0,0,0,0,0,-1,1350,1156,0,0
133,-132,0,0,0,0,0,0,0,0,0,-1,1357,1156,0,0
140,-132,0,0,0,0,0,0,0,0,0,-1,1364,1156,0,0
147,-132,0,0,0,0,0,0,0,0,0,-1,1371,1156,0,0
154,-132,0,0,0,0,0,0,0,0,0,-1,1378,1156,0,0
161,-132,0,0,0,0,0,0,0,0,0,-1,1385,1156,0,0
168,-132,0,0,0,0,0,0,0,0,0,-1,1392,1156,0,0
175,-132,0,0,0,0,0,0,0,0,0,-1,1399,1156,0,0
182,-132,0,0,0,0,0,0,0,0,0,-1,1406,1156,0,0
189,-132,0,0,0,0,0,0,0,0,0,-1,1413,1156,0,0
196,-132,0,0,0,0,0,0,0,0,0,-1,1420,1156,0,0
203,-132,0,0,0,0,0,0,0,0,0,-1,1427,1156,0,0
210,-132,0,0,0,0,0,0,0,0,0,-1,1434,1156,0,0
217,-132,0,0,0,0,0,0,0,0,0,-1,1441,1156,0,0
224,-132,0,0,0,0,0,0,0,0,0,-1,1448,1156,0,0
231,-132,0,0,0,0,0,0,0,0,0,-1,1455,1156,0,0
238,-132,0,0,0,0,0,0,0,0,0,-1,1462,1156,0,0
245,-132,0,0,0,0,0,0,0,0,0,-1,1469,1156,0,0
252,-132,0,0,0,0,0,0,0,0,0,-1,1476,1156,0,0
259,-132,0,0,0,0,0,0,0,0,0,-1,1483,1156,0,0
266,-132,0,0,0,0,0,0,0,0,0,-1,1490,1156,0,0
273,-132,0,0,0,0,0,0,0,0,0,-1,1497,1156,0,0
280,-132,0,0,0,0,0,0,0,0,0,-1,1504,1156,0,0
287,-132,0,0,0,0,0,0,0,0,0,-1,1511,1156,0,0
294,-132,0,0,0,0,0,0,0,0,0,-1,1518,1156,0,0
301,-132,0,0,0,0,0,0,0,0,0,-1,1525,1156,0,0
308,-132,0,0,0,0,0,0,0,0,0,-1,1532,1156,0,0
315,-132,0,0,0,0,0,0,0,0,0,-1,1539,1156,0,0
322,-132,0,0,0,0,0,0,0,0,0,-1,1546,1156,0,0
329,-132,0,0,0,0,0,0,0,0,0,-1,1553,1156,0,0
336,-132,0,0,0,0,0,0,0,0,0,-1,1560,1156,0,0
343,-132,0,0,0,0,0,0,0,0,0,-1,1567,1156,0,0
350,-132,0,0,0,0,0,0,0,0,0,-1,1574,1156,0,0
357,-132,0,0,0,0,0,0,0,0,0,-1,1581,1156,0,0
364,-132,0,0,0,0,0,0,0,0,0,-1,1588,1156,0,0
371,-132,0,0,0,0,0,0,0,0,0,-1,1595,1156,0,0
378,-132,0,0,0,0,0,0,0,0,0,-1,1602,1156,0,0
385,-132,0,0,0,0,0,0,0,0,0,-1,1609,1156,0,0
392,-132,0,0,0,0,0,0,0,0,0,-1,1616,1156,0,0
399,-132,0,0,0,0,0,0,0,0,0,-1,1623,1156,0,0
406,-132,0,0,0,0,0,0,0,0,0,-1,1630,1156,0,0
413,-132,0,0,0,0,0,0,0,0,0,-1,1637,1156,0,0
420,-132,0,0,0,0,0,0,0,0,0,-1,1644,1156,0,0
427,-132,0,0,0,0,0,0,0,0,0,-1,1651,1156,0,0
434,-132,0,0,0,0,0,0,0,0,0,-1,1658,1156,0,0
441,-132,0,0,0,0,0,0,0,0,0,-1,1665,1156,0,0
448,-132,0,0,0,0,0,0,0,0,0,-1,1672,1156,0,0
455,-132,0,0,0,0,0,0,0,0,0,-1,1679,1156,0,0
462,-132,0,0,0,0,0,0,0,0,0,-1,1686,1156,0,0
469,-132,0,0,0,0,0,0,0,0,0,-1,1693,1156,0,0
476,-132,0,0,0,0,0,0,0,0,0,-1,1700,1156,0,0
483,-132,0,0,0,0,0,0,0,0,0,-1,1707,1156,0,0
490,-132,0,0,0,0,0,0,0,0,0,-1,1714,1156,0,0
497,-132,0,0,0,0,0,0,0,0,0,-1,1721,1156,0,0
504,-132,0,0,0,0,0,0,0,0,0,-1,1728,1156,0,0
511,-132,0,0,0,0,0,0,0,0,0,-1,1735,1156,0,0
518,-132,0,0,0,0,0,0,0,0,0,-1,1742,1156,0,0
525,-132,0,0,0,0,0,0,0,0,0,-1,1749,1156,0,0
532,-132,0,0,0,0,0,0,0,0,0,-1,1756,1156,0,0
539,-132,0,0,0,0,0,0,0,0,0,-1,1763,1156,0,0
546,-132,0,0,0,0,0,0,0,0,0,-1,1770,1156,0,0
553,-132,0,0,0,0,0,0,0,0,0,-1,1777,1156,0,0
560,-132,0,0,0,0,0,0,0,0,0,-1,1784,1156,0,0
567,-132,0,0,0,0,0,0,0,0,0,-1,1791,1156,0,0
574,-132,0,0,0,0,0,0,0,0,0,-1,1798,1156,0,0
581,-132,0,0,0,0,0,0,0,0,0,-1,1805,1156,0,0
588,-132,0,0,0,0,0,0,0,0,0,-1,1812,1156,0,0
595,-132,0,0,0,0,0,0,0,0,0,-1,1819,1156,0,0
602,-132,0,0,0,0,0,0,0,0,0,-1,1826,1156,0,0
609,-132,0,0,0,0,0,0,0,0,0,-1,1833,1156,0,0
616,-132,0,0,0,0,0,0,0,0,0,-1,1840,1156,0,0
623,-132,0,0,0,0,0,0,0,0,0,-1,1847,1156,0,0
630,-132,0,0,0,0,0,0,0,0,0,-1,1854,1156,0,0
637,-132,0,0,0,0,0,0,0,0,0,-1,1861,1156,0,0
644,-132,21.6222,2.69397,0,0,0,0,0,0,0,-1,1868,1156,21.6222,-2.69399
651,-132,21.1836,3.02307,0,0,0,0,0,0,0,-1,1875,1156,21.1836,-3.02303
658,-132,21.4204,2.82019,0.00378663,-0.0019048,1.54231e-05,0.00378667,-0.00190484,0.00270985,0.00334533,0.0424167,1882,1156,21.4204,-2.82025
665,-132,21.554,2.97034,0.0020888,-0.00159308,0.000668057,0.00220626,-0.00171054,0.174056,0.0022674,0.0393899,1889,1156,21.5539,-2.97037
672,-132,21.6908,2.81433,-0.000105169,-0.00162556,0.00177508,0.00106565,-0.00279638,0.583084,0.00230317,0.0371397,1896,1156,21.6909,-2.81437
679,-132,21.7262,2.89587,-0.00215557,-0.00182757,0.00284218,0.000855334,-0.00483848,0.814217,0.00354532,0.0358484,1903,1156,21.7261,-2.8959
686,-132,21.6611,2.83459,-0.00392357,-0.00210768,0.00380116,0.000892465,-0.00692371,0.902632,0.00494024,0.0344799,1910,1156,21.6612,-2.83455
693,-132,21.6089,2.77441,-0.00529565,-0.00228552,0.00452434,0.000977526,-0.0085587,0.94597,0.00605799,0.0289915,1917,1156,21.6089,-2.77446
700,-132,21.7631,2.87939,-0.00631802,-0.0023973,0.00504266,0.00105265,-0.00976797,0.970786,0.00688972,0.0312942,1924,1156,21.763,-2.8794
707,-132,21.1345,3.94189,0,0,0,0,0,0,0,-1,1931,1156,21.1345,-3.94185
714,-132,20.5527,4.38049,-0.00738416,-0.0023574,0.00555347,0.00122497,-0.0109665,0.997896,0.00775167,0.033359,1938,1156,20.5527,-4.38048
721,-132,20.2788,4.51416,-0.00754762,-0.00223245,0.00556042,0.00127284,-0.0110529,1.00832,0.00782746,0.0228345,1945,1156,20.2788,-4.51418
728,-132,20.2997,4.38574,-0.00713159,-0.00193266,0.00511874,0.00120885,-0.0102731,1.02035,0.00728519,0.013212,1952,1156,20.2997,-4.38578
735,-132,20.2964,4.28833,-0.00619188,-0.0014493,0.00411842,0.000931717,-0.0085729,1.04661,0.0060498,0.0150643,1959,1156,20.2964,-4.28837
742,-132,20.2833,4.16357,-0.00510883,-0.000190609,0.00256068,0.000900537,-0.00619998,1.16798,0.00446388,0.0186895,1966,1156,20.2833,-4.16354
749,-132,20.2697,4.04907,-0.00357018,0.000788593,0.000940289,0.000982783,-0.00376437,1.36714,0.00289336,0.0230222,1973,1156,20.2697,-4.04904
756,-132,20.297,3.94385,-0.00166961,0.0021649,-0.00119395,0.00250626,-0.00201097,-1.29231,0.00261325,0.0213989,1980,1156,20.2969,-3.94382
763,-132,20.3033,3.88757,0.00080503,0.00416769,-0.00361124,0.00646982,-0.0014971,-1.00327,0.00488925,0.0131459,1987,1156,20.3033,-3.88755
770,-132,20.3071,3.79956,0.00299947,0.00604738,-0.00604497,0.0107575,-0.00171069,-0.908877,0.00780466,0.0132843,1994,1156,20.3071,-3.7996
777,-132,20.3174,3.62585,0.0049735,0.00793204,-0.00819391,0.0147791,-0.0018736,-0.874703,0.010533,0.0214894,2001,1156,20.3173,-3.62581
784,-132,20.4113,3.32739,0.00725191,0.0100939,-0.0104173,0.0191867,-0.00184085,-0.853185,0.0134468,0.0418402,2008,1156,20.4113,-3.32743
791,-132,20.5957,2.95898,0.0101217,0.0125023,-0.0127154,0.024083,-0.00145895,-0.832067,0.0165631,0.0489836,2015,1156,20.5958,-2.95894
798,-132,19.1484,2.24475,0,0,0,0,0,0,0,-1,2022,1156,19.1484,-2.24477
805,-132,19.8279,1.61157,0,0,0,0,0,0,0,-1,2029,1156,19.8279,-1.61156
812,-132,16.9998,4.42639,0,0,0,0,0,0,0,-1,2036,1156,16.9998,-4.42641
-700,-139,0,0,0,0,0,0,0,0,0,-1,524,1163,0,0
-693,-139,-7.74957,4.67273,0,0,0,0,0,0,0,-1,531,1163,-7.74958,-4.67273
-686,-139,-15.0508,0.638794,0,0,0,0,0,0,0,-1,538,1163,-15.0509,-0.638803
-679,-139,-14.5229,0.676147,0.0993776,0.0175238,-0.00102529,0.0993905,0.0175109,-0.0125232,0.0612633,0.0494434,545,1163,-14.5229,-0.676116
-672,-139,-14.1768,0.900879,0.0789147,0.0167024,-0.000711128,0.0789229,0.0166943,-0.0114287,0.0480276,0.045358,552,1163,-14.1768,-0.900894
-665,-139,-12.2608,-0.269653,0,0,0,0,0,0,0,-1,559,1163,-12.2608,0.269624
-658,-139,-13.04,0.744141,0.0469021,0.0136584,-2.42533e-05,0.0469021,0.0136584,-0.00072956,0.0278548,0.0440638,566,1163,-13.04,-0.744145
-651,-139,-12.557,1.10107,0.0346004,0.0117036,0.000211711,0.0346023,0.0117016,0.00924525,0.0203235,0.0397456,573,1163,-12.557,-1.10104
-644,-139,-12.4454,1.20679,0.0245836,0.0096292,0.000350175,0.0245918,0.00962101,0.0233991,0.0143096,0.0206654,580,1163,-12.4454,-1.20677
-637,-139,-12.4244,1.33203,0.0154891,0.00757978,-0.000213101,0.0154948,0.00757405,-0.0269171,0.00894667,0.0120608,587,1163,-12.4244,-1.33207
-630,-139,-12.4455,1.46899,0.00812936,0.00494829,-0.00064482,0.0082551,0.00482255,-0.192581,0.00478855,0.0105025,594,1163,-12.4455,-1.46895
-623,-139,-12.4586,1.61194,0.000937329,0.00347812,-0.00213225,0.00468974,-0.000274294,-1.05406,0.00322182,0.0159469,601,1163,-12.4586,-1.61199
-616,-139,-12.4509,1.7085,-0.00366277,0.00152389,-0.00356158,0.00333627,-0.00547514,-1.10008,0.00513698,0.0171191,608,1163,-12.4509,-1.70847
-609,-139,-12.4308,1.85828,-0.00635924,-0.000981479,-0.00512451,0.00211675,-0.00945747,-1.02701,0.00711629,0.0219473,615,1163,-12.4308,-1.85822
-602,-139,-12.5331,2.01501,-0.00839708,-0.00233626,-0.00697882,0.0022417,-0.012975,-0.990229,0.00948597,0.0148819,622,1163,-12.5331,-2.015
-595,-139,-12.5389,2.16443,-0.00955079,-0.00320578,-0.00845803,0.00265516,-0.0154117,-0.964822,0.0112643,0.0139599,629,1163,-12.5389,-2.16445
-588,-139,-12.4466,2.33923,-0.010192,-0.00357144,-0.00924792,0.00294079,-0.0167043,-0.957268,0.0122348,0.0159322,636,1163,-12.4466,-2.33922
-581,-139,-12.5558,2.19446,-0.0103748,-0.00388633,-0.00939208,0.00280605,-0.0170672,-0.951694,0.0124196,0.0396419,643,1163,-12.5559,-2.19452
-574,-139,-13.2114,1.50647,-0.0100703,-0.00381922,-0.00911517,0.00269138,-0.0165809,-0.950564,0.0120517,0.0468887,650,1163,-13.2114,-1.50645
-567,-139,-13.9828,0.796143,0,0,0,0,0,0,0,-1,657,1163,-13.9828,-0.796193
-560,-139,-14.0115,0.990845,-0.00759351,-0.00305329,-0.00738001,0.00239786,-0.0130447,-0.934607,0.00959612,0.0356412,664,1163,-14.0115,-0.990785
-553,-139,-14.0673,0.907471,-0.00534063,-0.00224131,-0.00549062,0.00191415,-0.00949608,-0.922939,0.00705586,0.0383687,671,1163,-14.0673,-0.907478
-546,-139,-13.9765,0.741943,-0.00239626,-0.00114012,-0.00287044,0.00117016,-0.00470654,-0.893104,0.00359185,0.0419178,678,1163,-13.9765,-0.741907
-539,-139,-13.8303,0.630005,0.00119086,0.00024099,0.00054419,0.00143822,-6.36751e-06,0.426625,0.00096094,0.0423767,685,1163,-13.8303,-0.630012
-532,-139,-13.7277,0.739746,0.00522329,0.00184114,0.00447816,0.00831903,-0.0012546,0.604862,0.00600805,0.0392255,692,1163,-13.7277,-0.739694
-525,-139,-13.8627,0.890869,0.00676544,0.00279558,0.00658286,0.0116561,-0.00209509,0.638968,0.00855506,0.0400896,699,1163,-13.8626,-0.890846
-518,-139,0,0,0,0,0,0,0,0,0,-1,706,1163,0,0
-511,-139,0,0,0,0,0,0,0,0,0,-1,713,1163,0,0
-504,-139,0,0,0,0,0,0,0,0,0,-1,720,1163,0,0
-497,-139,0,0,0,0,0,0,0,0,0,-1,727,1163,0,0
-490,-139,0,0,0,0,0,0,0,0,0,-1,734,1163,0,0
-483,-139,0,0,0,0,0,0,0,0,0,-1,741,1163,0,0
-476,-139,0,0,0,0,0,0,0,0,0,-1,748,1163,0,0
-469,-139,0,0,0,0,0,0,0,0,0,-1,755,1163,0,0
-462,-139,0,0,0,0,0,0,0,0,0,-1,762,1163,0,0
-455,-139,0,0,0,0,0,0,0,0,0,-1,769,1163,0,0
-448,-139,0,0,0,0,0,0,0,0,0,-1,776,1163,0,0
-441,-139,0,0,0,0,0,0,0,0,0,-1,783,1163,0,0
-434,-139,0,0,0,0,0,0,0,0,0,-1,790,1163,0,0
-427,-139,0,0,0,0,0,0,0,0,0,-1,797,1163,0,0
-420,-139,0,0,0,0,0,0,0,0,0,-1,804,1163,0,0
-413,-139,0,0,0,0,0,0,0,0,0,-1,811,1163,0,0
-406,-139,0,0,0,0,0,0,0,0,0,-1,818,1163,0,0
-399,-139,0,0,0,0,0,0,0,0,0,-1,825,1163,0,0
-392,-139,0,0,0,0,0,0,0,0,0,-1,832,1163,0,0
-385,-139,0,0,0,0,0,0,0,0,0,-1,839,1163,0,0
-378,-139,0,0,0,0,0,0,0,0,0,-1,846,1163,0,0
-371,-139,0,0,0,0,0,0,0,0,0,-1,853,1163,0,0
-364,-139,0,0,0,0,0,0,0,0,0,-1,860,1163,0,0
-357,-139,0,0,0,0,0,0,0,0,0,-1,867,1163,0,0
-350,-139,0,0,0,0,0,0,0,0,0,-1,874,1163,0,0
-343,-139,0,0,0,0,0,0,0,0,0,-1,881,1163,0,0
-336,-139,0,0,0,0,0,0,0,0,0,-1,888,1163,0,0
-329,-139,0,0,0,0,0,0,0,0,0,-1,895,1163,0,0
-322,-139,0,0,0,0,0,0,0,0,0,-1,902,1163,0,0
-315,-139,0,0,0,0,0,0,0,0,0,-1,909,1163,0,0
-308,-139,0,0,0,0,0,0,0,0,0,-1,916,1163,0,0
-301,-139,0,0,0,0,0,0,0,0,0,-1,923,1163,0,0
-294,-139,0,0,0,0,0,0,0,0,0,-1,930,1163,0,0
-287,-139,0,0,0,0,0,0,0,0,0,-1,937,1163,0,0
-280,-139,0,0,0,0,0,0,0,0,0,-1,944,1163,0,0
-273,-139,0,0,0,0,0,0,0,0,0,-1,951,1163,0,0
-266,-139,0,0,0,0,0,0,0,0,0,-1,958,1163,0,0
-259,-139,0,0,0,0,0,0,0,0,0,-1,965,1163,0,0
-252,-139,0,0,0,0,0,0,0,0,0,-1,972,1163,0,0
-245,-139,0,0,0,0,0,0,0,0,0,-1,979,1163,0,0
-238,-139,0,0,0,0,0,0,0,0,0,-1,986,1163,0,0
-231,-139,0,0,0,0,0,0,0,0,0,-1,993,1163,0,0
-224,-139,0,0,0,0,0,0,0,0,0,-1,1000,1163,0,0
-217,-139,0,0,0,0,0,0,0,0,0,-1,1007,1163,0,0
-210,-139,0,0,0,0,0,0,0,0,0,-1,1014,1163,0,0
-203,-139,0,0,0,0,0,0,0,0,0,-1,1021,1163,0,0
-196,-139,0,0,0,0,0,0,0,0,0,-1,1028,1163,0,0
-189,-139,0,0,0,0,0,0,0,0,0,-1,1035,1163,0,0
-182,-139,0,0,0,0,0,0,0,0,0,-1,1042,1163,0,0
-175,-139,0,0,0,0,0,0,0,0,0,-1,1049,1163,0,0
-168,-139,0,0,0,0,0,0,0,0,0,-1,1056,1163,0,0
-161,-139,0,0,0,0,0,0,0,0,0,-1,1063,1163,0,0
-154,-139,0,0,0,0,0,0,0,0,0,-1,1070,1163,0,0
-147,-139,0,0,0,0,0,0,0,0,0,-1,1077,1163,0,0
-140,-139,0,0,0,0,0,0,0,0,0,-1,1084,1163,0,0
-133,-139,0,0,0,0,0,0,0,0,0,-1,1091,1163,0,0
-126,-139,0,0,0,0,0,0,0,0,0,-1,1098,1163,0,0
-119,-139,0,0,0,0,0,0,0,0,0,-1,1105,1163,0,0
-112,-139,0,0,0,0,0,0,0,0,0,-1,1112,1163,0,0
-105,-139,0,0,0,0,0,0,0,0,0,-1,1119,1163,0,0
-98,-139,0,0,0,0,0,0,0,0,0,-1,1126,1163,0,0
-91,-139,0,0,0,0,0,0,0,0,0,-1,1133,1163,0,0
-84,-139,0,0,0,0,0,0,0,0,0,-1,1140,1163,0,0
-77,-139,0,0,0,0,0,0,0,0,0,-1,1147,1163,0,0
-70,-139,0,0,0,0,0,0,0,0,0,-1,1154,1163,0,0
-63,-139,0,0,0,0,0,0,0,0,0,-1,1161,1163,0,0
-56,-139,0,0,0,0,0,0,0,0,0,-1,1168,1163,0,0
-49,-139,0,0,0,0,0,0,0,0,0,-1,1175,1163,0,0
-42,-139,0,0,0,0,0,0,0,0,0,-1,1182,1163,0,0
-35,-139,0,0,0,0,0,0,0,0,0,-1,1189,1163,0,0
-28,-139,0,0,0,0,0,0,0,0,0,-1,1196,1163,0,0
-21,-139,0,0,0,0,0,0,0,0,0,-1,1203,1163,0,0
-14,-139,0,0,0,0,0,0,0,0,0,-1,1210,1163,0,0
-7,-139,0,0,0,0,0,0,0,0,0,-1,1217,1163,0,0
0,-139,0,0,0,0,0,0,0,0,0,-1,1224,1163,0,0
7,-139,0,0,0,0,0,0,0,0,0,-1,1231,1163,0,0
14,-139,0,0,0,0,0,0,0,0,0,-1,1238,1163,0,0
21,-139,0,0,0,0,0,0,0,0,0,-1,1245,1163,0,0
28,-139,0,0,0,0,0,0,0,0,0,-1,1252,1163,0,0
35,-139,0,0,0,0,0,0,0,0,0,-1,1259,1163,0,0
42,-139,0,0,0,0,0,0,0,0,0,-1,1266,1163,0,0
49,-139,0,0,0,0,0,0,0,0,0,-1,1273,1163,0,0
56,-139,0,0,0,0,0,0,0,0,0,-1,1280,1163,0,0
63,-139,0,0,0,0,0,0,0,0,0,-1,1287,1163,0,0
70,-139,0,0,0,0,0,0,0,0,0,-1,1294,1163,0,0
77,-139,0,0,0,0,0,0,0,0,0,-1,1301,1163,0,0
84,-139,0,0,0,0,0,0,0,0,0,-1,1308,1163,0,0
91,-139,0,0,0,0,0,0,0,0,0,-1,1315,1163,0,0
98,-139,0,0,0,0,0,0,0,0,0,-1,1322,1163,0,0
105,-139,0,0,0,0,0,0,0,0,0,-1,1329,1163,0,0
112,-139,0,0,0,0,0,0,0,0,0,-1,1336,1163,0,0
119,-139,0,0,0,0,0,0,0,0,0,-1,1343,1163,0,0
126,-139,0,0,0,0,0,0,0,0,0,-1,1350,1163,0,0
133,-139,0,0,0,0,0,0,0,0,0,-1,1357,1163,0,0
140,-139,0,0,0,0,0,0,0,0,0,-1,1364,1163,0,0
147,-139,0,0,0,0,0,0,0,0,0,-1,1371,1163,0,0
154,-139,0,0,0,0,0,0,0,0,0,-1,1378,1163,0,0
161,-139,0,0,0,0,0,0,0,0,0,-1,1385,1163,0,0
168,-139,0,0,0,0,0,0,0,0,0,-1,1392,1163,0,0
175,-139,0,0,0,0,0,0,0,0,0,-1,1399,1163,0,0
182,-139,0,0,0,0,0,0,0,0,0,-1,1406,1163,0,0
189,-139,0,0,0,0,0,0,0,0,0,-1,1413,1163,0,0
196,-139,0,0,0,0,0,0,0,0,0,-1,1420,1163,0,0
203,-139,0,0,0,0,0,0,0,0,0,-1,1427,1163,0,0
210,-139,0,0,0,0,0,0,0,0,0,-1,1434,1163,0,0
217,-139,0,0,0,0,0,0,0,0,0,-1,1441,1163,0,0
224,-139,0,0,0,0,0,0,0,0,0,-1,1448,1163,0,0
231,-139,0,0,0,0,0,0,0,0,0,-1,1455,1163,0,0
238,-139,0,0,0,0,0,0,0,0,0,-1,1462,1163,0,0
245,-139,0,0,0,0,0,0,0,0,0,-1,1469,1163,0,0
252,-139,0,0,0,0,0,0,0,0,0,-1,1476,1163,0,0
259,-139,0,0,0,0,0,0,0,0,0,-1,1483,1163,0,0
266,-139,0,0,0,0,0,0,0,0,0,-1,1490,1163,0,0
273,-139,0,0,0,0,0,0,0,0,0,-1,1497,1163,0,0
280,-139,0,0,0,0,0,0,0,0,0,-1,1504,1163,0,0
287,-139,0,0,0,0,0,0,0,0,0,-1,1511,1163,0,0
294,-139,0,0,0,0,0,0,0,0,0,-1,1518,1163,0,0
301,-139,0,0,0,0,0,0,0,0,0,-1,1525,1163,0,0
308,-139,0,0,0,0,0,0,0,0,0,-1,1532,1163,0,0
315,-139,0,0,0,0,0,0,0,0,0,-1,1539,1163,0,0
322,-139,0,0,0,0,0,0,0,0,0,-1,1546,1163,0,0
329,-139,0,0,0,0,0,0,0,0,0,-1,1553,1163,0,0
336,-139,0,0,0,0,0,0,0,0,0,-1,1560,1163,0,0
343,-139,0,0,0,0,0,0,0,0,0,-1,1567,1163,0,0
350,-139,0,0,0,0,0,0,0,0,0,-1,1574,1163,0,0
357,-139,0,0,0,0,0,0,0,0,0,-1,1581,1163,0,0
364,-139,0,0,0,0,0,0,0,0,0,-1,1588,1163,0,0
371,-139,0,0,0,0,0,0,0,0,0,-1,1595,1163,0,0
378,-139,0,0,0,0,0,0,0,0,0,-1,1602,1163,0,0
385,-139,0,0,0,0,0,0,0,0,0,-1,1609,1163,0,0
392,-139,0,0,0,0,0,0,0,0,0,-1,1616,1163,0,0
399,-139,0,0,0,0,0,0,0,0,0,-1,1623,1163,0,0
406,-139,0,0,0,0,0,0,0,0,0,-1,1630,1163,0,0
413,-139,0,0,0,0,0,0,0,0,0,-1,1637,1163,0,0
420,-139,0,0,0,0,0,0,0,0,0,-1,1644,1163,0,0
427,-139,0,0,0,0,0,0,0,0,0,-1,1651,1163,0,0
434,-139,0,0,0,0,0,0,0,0,0,-1,1658,1163,0,0
441,-139,0,0,0,0,0,0,0,0,0,-1,1665,1163,0,0
448,-139,0,0,0,0,0,0,0,0,0,-1,1672,1163,0,0
455,-139,0,0,0,0,0,0,0,0,0,-1,1679,1163,0,0
462,-139,0,0,0,0,0,0,0,0,0,-1,1686,1163,0,0
469,-139,0,0,0,0,0,0,0,0,0,-1,1693,1163,0,0
476,-139,0,0,0,0,0,0,0,0,0,-1,1700,1163,0,0
483,-139,0,0,0,0,0,0,0,0,0,-1,1707,1163,0,0
490,-139,0,0,0,0,0,0,0,0,0,-1,1714,1163,0,0
497,-139,0,0,0,0,0,0,0,0,0,-1,1721,1163,0,0
504,-139,0,0,0,0,0,0,0,0,0,-1,1728,1163,0,0
511,-139,0,0,0,0,0,0,0,0,0,-1,1735,1163,0,0
518,-139,0,0,0,0,0,0,0,0,0,-1,1742,1163,0,0
525,-139,0,0,0,0,0,0,0,0,0,-1,1749,1163,0,0
532,-139,0,0,0,0,0,0,0,0,0,-1,1756,1163,0,0
539,-139,0,0,0,0,0,0,0,0,0,-1,1763,1163,0,0
546,-139,0,0,0,0,0,0,0,0,0,-1,1770,1163,0,0
553,-139,0,0,0,0,0,0,0,0,0,-1,1777,1163,0,0
560,-139,0,0,0,0,0,0,0,0,0,-1,1784,1163,0,0
567,-139,0,0,0,0,0,0,0,0,0,-1,1791,1163,0,0
574,-139,0,0,0,0,0,0,0,0,0,-1,1798,1163,0,0
581,-139,0,0,0,0,0,0,0,0,0,-1,1805,1163,0,0
588,-139,0,0,0,0,0,0,0,0,0,-1,1812,1163,0,0
595,-139,0,0,0,0,0,0,0,0,0,-1,1819,1163,0,0
602,-139,0,0,0,0,0,0,0,0,0,-1,1826,1163,0,0
609,-139,0,0,0,0,0,0,0,0,0,-1,1833,1163,0,0
616,-139,0,0,0,0,0,0,0,0,0,-1,1840,1163,0,0
623,-139,0,0,0,0,0,0,0,0,0,-1,1847,1163,0,0
630,-139,0,0,0,0,0,0,0,0,0,-1,1854,1163,0,0
637,-139,0,0,0,0,0,0,0,0,0,-1,1861,1163,0,0
644,-139,21.7734,2.59192,0.00580396,-0.00279425,0.000197617,0.0058085,-0.00279879,0.0229674,0.00506968,0.0399397,1868,1163,21.7734,-2.59194
651,-139,21.9248,2.57996,0.00449981,-0.00196068,8.4865e-05,0.00450092,-0.0019618,0.013133,0.00382604,0.0428785,1875,1163,21.9248,-2.57999
658,-139,21.7629,2.87183,0.00363074,-0.00126198,-2.21855e-05,0.00363084,-0.00126208,-0.00453427,0.0029332,0.0445314,1882,1163,21.7629,-2.87185
665,-139,21.6992,2.87354,0.00175814,-0.00113256,0.000690541,0.00191463,-0.00128905,0.222852,0.00186136,0.04018,1889,1163,21.6993,-2.87359
672,-139,21.7914,2.76575,-0.000428288,-0.00126589,0.00169617,0.000900019,-0.00259419,0.664365,0.00209494,0.0372157,1896,1163,21.7914,-2.76574
679,-139,21.8036,2.77539,-0.00242804,-0.0015364,0.00264866,0.000703699,-0.00466813,0.868776,0.00337122,0.0331521,1903,1163,21.8036,-2.77534
686,-139,21.6909,2.82959,-0.00412007,-0.00188093,0.00349688,0.000671229,-0.00667223,0.940323,0.00468794,0.0313373,1910,1163,21.691,-2.82956
693,-139,21.6567,2.78296,-0.00543329,-0.00208339,0.00413581,0.000703761,-0.00822045,0.977798,0.00572931,0.0216373,1917,1163,21.6567,-2.78292
700,-139,21.6556,3.29492,0,0,0,0,0,0,0,-1,1924,1163,21.6557,-3.29488
707,-139,20.9314,3.92798,-0.00707949,-0.00220895,0.00484073,0.000774561,-0.010063,1.01845,0.00698119,0.0316956,1931,1163,20.9314,-3.92797
714,-139,20.1846,4.64001,-0.00747889,-0.00224389,0.00505557,0.000831594,-0.0105544,1.02427,0.00732919,0.0309758,1938,1163,20.1846,-4.64005
721,-139,20.1907,4.46509,-0.00759315,-0.00214836,0.00507558,0.000888836,-0.0106303,1.03156,0.00740099,0.0218827,1945,1163,20.1907,-4.46503
728,-139,20.1658,4.38916,-0.00708958,-0.00187746,0.00462479,0.000824983,-0.00979202,1.04197,0.00681966,0.0206689,1952,1163,20.1658,-4.38919
735,-139,20.1624,4.29932,-0.00601172,-0.00144756,0.00359981,0.000532577,-0.00799186,1.0679,0.00551401,0.0169651,1959,1163,20.1623,-4.29931
742,-139,20.1871,4.13025,-0.00468056,-0.000262356,0.00195609,0.000479204,-0.00542212,1.20843,0.0037846,0.0211045,1966,1163,20.1871,-4.13021
749,-139,20.1824,4.01709,-0.00290361,0.000690003,0.000163655,0.00069744,-0.00291105,1.52538,0.00221017,0.017324,1973,1163,20.1824,-4.01714
756,-139,20.1803,3.94604,-0.000735407,0.00190263,-0.00227459,0.00321298,-0.00204576,-1.04815,0.00306096,0.0100678,1980,1163,20.1802,-3.94604
763,-139,20.1816,3.86133,0.00195226,0.00360931,-0.00494208,0.00779183,-0.00223026,-0.86845,0.00607599,0.0103897,1987,1163,20.1816,-3.86131
770,-139,20.1902,3.76208,0.004343,0.00513372,-0.00769906,0.0124476,-0.00297085,-0.811052,0.0094457,0.0113922,1994,1163,20.1902,-3.76206
777,-139,20.1821,3.59082,0.0065234,0.00658181,-0.01035,0.0169026,-0.00379742,-0.786809,0.0127245,0.0202071,2001,1163,20.1821,-3.5908
784,-139,20.3311,3.30835,0.00894888,0.00814302,-0.0131916,0.0217437,-0.00465185,-0.770131,0.0162697,0.0386911,2008,1163,20.3311,-3.30831
791,-139,21.2732,2.11096,0.0118098,0.00970705,-0.0161629,0.0269555,-0.00543865,-0.75292,0.0200308,0.0496438,2015,1163,21.2732,-2.11091
798,-139,20.333,1.77979,0.0152662,0.0111649,-0.0190696,0.0323951,-0.00596394,-0.731836,0.0238347,0.0490111,2022,1163,20.333,-1.7798
805,-139,19.2644,1.85974,0.0192848,0.0123132,-0.021524,0.0376034,-0.00600547,-0.70512,0.0272919,0.0464027,2029,1163,19.2643,-1.85971
812,-139,0,0,0,0,0,0,0,0,0,-1,2036,1163,0,0
-700,-146,0,0,0,0,0,0,0,0,0,-1,524,1170,0,0
-693,-146,-14.66,-1.47876,0,0,0,0,0,0,0,-1,531,1170,-14.6601,1.47871
-686,-146,-14.2527,-1.26233,0,0,0,0,0,0,0,-1,538,1170,-14.2527,1.26229
-679,-146,-14.0667,-0.500122,0,0,0,0,0,0,0,-1,545,1170,-14.0666,0.500109
-672,-146,-13.7536,-0.122437,0.0736298,0.0175975,-0.00394697,0.0739065,0.0173209,-0.0699804,0.0446321,0.0436942,552,1170,-13.7536,0.12245
-665,-146,-13.3453,0.147583,0.0573927,0.0163028,-0.00303763,0.057616,0.0160794,-0.0733947,0.0343299,0.0430826,559,1170,-13.3453,-0.14761
-658,-146,-12.7613,0.30835,0.0437249,0.0145285,-0.00223293,0.0438947,0.0143587,-0.0758912,0.0258427,0.043176,566,1170,-12.7613,-0.308336
-651,-146,-12.3712,0.786621,0.0322705,0.0124579,-0.00155947,0.0323925,0.0123359,-0.0780705,0.0188781,0.0367723,573,1170,-12.3712,-0.786563
-644,-146,-12.2782,1.12646,0.0229195,0.0102477,-0.00102938,0.0230026,0.0101646,-0.0805301,0.0133104,0.0193496,580,1170,-12.2782,-1.1265
-637,-146,-12.2712,1.3053,0.0144535,0.00811205,-0.00112931,0.0146486,0.00791694,-0.171081,0.00846658,0.0104182,587,1170,-12.2712,-1.30531
-630,-146,-12.2955,1.4646,0.00758741,0.00543845,-0.00121664,0.00813611,0.00488975,-0.423683,0.00472922,0.00985736,594,1170,-12.2954,-1.46456
-623,-146,-12.3159,1.61218,0.000796165,0.00388701,-0.0023602,0.00516274,-0.000479558,-1.07526,0.0036123,0.012191,601,1170,-12.3159,-1.61223
-616,-146,-12.3652,1.76196,-0.00371546,0.00177264,-0.00359009,0.00354728,-0.00549009,-1.11171,0.00525777,0.0190809,608,1170,-12.3652,-1.76202
-609,-146,-12.3018,1.90027,-0.00649324,-0.000895928,-0.0049986,0.00203416,-0.00942332,-1.0406,0.00705865,0.0187485,615,1170,-12.3018,-1.90025
-602,-146,-12.3412,2.11694,-0.00857767,-0.00211568,-0.00672578,0.00211492,-0.0128083,-1.00932,0.00932412,0.0241353,622,1170,-12.3412,-2.11691
-595,-146,-12.4379,2.17847,-0.00978054,-0.00300436,-0.00812329,0.00240909,-0.015194,-0.982971,0.0110205,0.014451,629,1170,-12.4379,-2.17849
-588,-146,-12.3441,2.33813,-0.0104561,-0.0034144,-0.0088767,0.00261422,-0.0164847,-0.974201,0.0119569,0.0159648,636,1170,-12.3441,-2.3381
-581,-146,-12.2286,2.46216,-0.0106479,-0.00377256,-0.0090022,0.002426,-0.0168465,-0.967789,0.0121209,0.0295119,643,1170,-12.2286,-2.4621
-574,-146,-13.077,1.6134,-0.0103175,-0.0037241,-0.00873833,0.00231871,-0.0163603,-0.965778,0.0117563,0.0449245,650,1170,-13.077,-1.61334
-567,-146,-14.0255,0.955811,0,0,0,0,0,0,0,-1,657,1170,-14.0254,-0.955835
-560,-146,-13.9786,0.999146,-0.00784905,-0.00316846,-0.00713284,0.0019982,-0.0130157,-0.943915,0.00941416,0.036384,664,1170,-13.9786,-0.999159
-553,-146,-13.9205,0.824341,-0.00559916,-0.00249995,-0.00538058,0.00154972,-0.00964883,-0.925604,0.00700649,0.0373789,671,1170,-13.9205,-0.824328
-546,-146,-13.7894,0.615479,-0.00261162,-0.0015769,-0.00294664,0.000897452,-0.00508597,-0.872301,0.003726,0.0411191,678,1170,-13.7894,-0.615467
-539,-146,-13.8466,0.616089,0.00106406,-0.000415009,0.000220878,0.00109634,-0.000447289,0.145119,0.000917102,0.0424453,685,1170,-13.8465,-0.616065
-532,-146,-14.0908,0.865601,0.00538484,0.000937802,0.00396358,0.00770599,-0.00138335,0.529778,0.00565513,0.0393661,692,1170,-14.0908,-0.865588
-525,-146,-14.2119,0.913696,0.007897,0.00176047,0.00636366,0.0118935,-0.00223599,0.560763,0.00876985,0.041385,699,1170,-14.2118,-0.913725
-518,-146,0,0,0,0,0,0,0,0,0,-1,706,1170,0,0
-511,-146,0,0,0,0,0,0,0,0,0,-1,713,1170,0,0
-504,-146,0,0,0,0,0,0,0,0,0,-1,720,1170,0,0
-497,-146,0,0,0,0,0,0,0,0,0,-1,727,1170,0,0
-490,-146,0,0,0,0,0,0,0,0,0,-1,734,1170,0,0
-483,-146,0,0,0,0,0,0,0,0,0,-1,741,1170,0,0
-476,-146,0,0,0,0,0,0,0,0,0,-1,748,1170,0,0
-469,-146,0,0,0,0,0,0,0,0,0,-1,755,1170,0,0
-462,-146,0,0,0,0,0,0,0,0,0,-1,762,1170,0,0
-455,-146,0,0,0,0,0,0,0,0,0,-1,769,1170,0,0
-448,-146,0,0,0,0,0,0,0,0,0,-1,776,1170,0,0
-441,-146,0,0,0,0,0,0,0,0,0,-1,783,1170,0,0
-434,-146,0,0,0,0,0,0,0,0,0,-1,790,1170,0,0
-427,-146,0,0,0,0,0,0,0,0,0,-1,797,1170,0,0
-420,-146,0,0,0,0,0,0,0,0,0,-1,804,1170,0,0
-413,-146,0,0,0,0,0,0,0,0,0,-1,811,1170,0,0
-406,-146,0,0,0,0,0,0,0,0,0,-1,818,1170,0,0
-399,-146,0,0,0,0,0,0,0,0,0,-1,825,1170,0,0
-392,-146,0,0,0,0,0,0,0,0,0,-1,832,1170,0,0
-385,-146,0,0,0,0,0,0,0,0,0,-1,839,1170,0,0
-378,-146,0,0,0,0,0,0,0,0,0,-1,846,1170,0,0
-371,-146,0,0,0,0,0,0,0,0,0,-1,853,1170,0,0
-364,-146,0,0,0,0,0,0,0,0,0,-1,860,1170,0,0
-357,-146,0,0,0,0,0,0,0,0,0,-1,867,1170,0,0
-350,-146,0,0,0,0,0,0,0,0,0,-1,874,1170,0,0
-343,-146,0,0,0,0,0,0,0,0,0,-1,881,1170,0,0
-336,-146,0,0,0,0,0,0,0,0,0,-1,888,1170,0,0
-329,-146,0,0,0,0,0,0,0,0,0,-1,895,1170,0,0
-322,-146,0,0,0,0,0,0,0,0,0,-1,902,1170,0,0
-315,-146,0,0,0,0,0,0,0,0,0,-1,909,1170,0,0
-308,-146,0,0,0,0,0,0,0,0,0,-1,916,1170,0,0
-301,-146,0,0,0,0,0,0,0,0,0,-1,923,1170,0,0
-294,-146,0,0,0,0,0,0,0,0,0,-1,930,1170,0,0
-287,-146,0,0,0,0,0,0,0,0,0,-1,937,1170,0,0
-280,-146,0,0,0,0,0,0,0,0,0,-1,944,1170,0,0
-273,-146,0,0,0,0,0,0,0,0,0,-1,951,1170,0,0
-266,-146,0,0,0,0,0,0,0,0,0,-1,958,1170,0,0
-259,-146,0,0,0,0,0,0,0,0,0,-1,965,1170,0,0
-252,-146,0,0,0,0,0,0,0,0,0,-1,972,1170,0,0
-245,-146,0,0,0,0,0,0,0,0,0,-1,979,1170,0,0
-238,-146,0,0,0,0,0,0,0,0,0,-1,986,1170,0,0
-231,-146,0,0,0,0,0,0,0,0,0,-1,993,1170,0,0
-224,-146,0,0,0,0,0,0,0,0,0,-1,1000,1170,0,0
-217,-146,0,0,0,0,0,0,0,0,0,-1,1007,1170,0,0
-210,-146,0,0,0,0,0,0,0,0,0,-1,1014,1170,0,0
-203,-146,0,0,0,0,0,0,0,0,0,-1,1021,1170,0,0
-196,-146,0,0,0,0,0,0,0,0,0,-1,1028,1170,0,0
-189,-146,0,0,0,0,0,0,0,0,0,-1,1035,1170,0,0
-182,-146,0,0,0,0,0,0,0,0,0,-1,1042,1170,0,0
-175,-146,0,0,0,0,0,0,0,0,0,-1,1049,1170,0,0
-168,-146,0,0,0,0,0,0,0,0,0,-1,1056,1170,0,0
-161,-146,0,0,0,0,0,0,0,0,0,-1,1063,1170,0,0
-154,-146,0,0,0,0,0,0,0,0,0,-1,1070,1170,0,0
-147,-146,0,0,0,0,0,0,0,0,0,-1,1077,1170,0,0
-140,-146,0,0,0,0,0,0,0,0,0,-1,1084,1170,0,0
-133,-146,0,0,0,0,0,0,0,0,0,-1,1091,1170,0,0
-126,-146,0,0,0,0,0,0,0,0,0,-1,1098,1170,0,0
-119,-146,0,0,0,0,0,0,0,0,0,-1,1105,1170,0,0
-112,-146,0,0,0,0,0,0,0,0,0,-1,1112,1170,0,0
-105,-146,0,0,0,0,0,0,0,0,0,-1,1119,1170,0,0
-98,-146,0,0,0,0,0,0,0,0,0,-1,1126,1170,0,0
-91,-146,0,0,0,0,0,0,0,0,0,-1,1133,1170,0,0
-84,-146,0,0,0,0,0,0,0,0,0,-1,1140,1170,0,0
-77,-146,0,0,0,0,0,0,0,0,0,-1,1147,1170,0,0
-70,-146,0,0,0,0,0,0,0,0,0,-1,1154,1170,0,0
-63,-146,0,0,0,0,0,0,0,0,0,-1,1161,1170,0,0
-56,-146,0,0,0,0,0,0,0,0,0,-1,1168,1170,0,0
-49,-146,0,0,0,0,0,0,0,0,0,-1,1175,1170,0,0
-42,-146,0,0,0,0,0,0,0,0,0,-1,1182,1170,0,0
-35,-146,0,0,0,0,0,0,0,0,0,-1,1189,1170,0,0
-28,-146,0,0,0,0,0,0,0,0,0,-1,1196,1170,0,0
-21,-146,0,0,0,0,0,0,0,0,0,-1,1203,1170,0,0
-14,-146,0,0,0,0,0,0,0,0,0,-1,1210,1170,0,0
-7,-146,0,0,0,0,0,0,0,0,0,-1,1217,1170,0,0
0,-146,0,0,0,0,0,0,0,0,0,-1,1224,1170,0,0
7,-146,0,0,0,0,0,0,0,0,0,-1,1231,1170,0,0
14,-146,0,0,0,0,0,0,0,0,0,-1,1238,1170,0,0
21,-146,0,0,0,0,0,0,0,0,0,-1,1245,1170,0,0
28,-146,0,0,0,0,0,0,0,0,0,-1,1252,1170,0,0
35,-146,0,0,0,0,0,0,0,0,0,-1,1259,1170,0,0
42,-146,0,0,0,0,0,0,0,0,0,-1,1266,1170,0,0
49,-146,0,0,0,0,0,0,0,0,0,-1,1273,1170,0,0
56,-146,0,0,0,0,0,0,0,0,0,-1,1280,1170,0,0
63,-146,0,0,0,0,0,0,0,0,0,-1,1287,1170,0,0
70,-146,0,0,0,0,0,0,0,0,0,-1,1294,1170,0,0
77,-146,0,0,0,0,0,0,0,0,0,-1,1301,1170,0,0
84,-146,0,0,0,0,0,0,0,0,0,-1,1308,1170,0,0
91,-146,0,0,0,0,0,0,0,0,0,-1,1315,1170,0,0
98,-146,0,0,0,0,0,0,0,0,0,-1,1322,1170,0,0
105,-146,0,0,0,0,0,0,0,0,0,-1,1329,1170,0,0
112,-146,0,0,0,0,0,0,0,0,0,-1,1336,1170,0,0
119,-146,0,0,0,0,0,0,0,0,0,-1,1343,1170,0,0
126,-146,0,0,0,0,0,0,0,0,0,-1,1350,1170,0,0
133,-146,0,0,0,0,0,0,0,0,0,-1,1357,1170,0,0
140,-146,0,0,0,0,0,0,0,0,0,-1,1364,1170,0,0
147,-146,0,0,0,0,0,0,0,0,0,-1,1371,1170,0,0
154,-146,0,0,0,0,0,0,0,0,0,-1,1378,1170,0,0
161,-146,0,0,0,0,0,0,0,0,0,-1,1385,1170,0,0
168,-146,0,0,0,0,0,0,0,0,0,-1,1392,1170,0,0
175,-146,0,0,0,0,0,0,0,0,0,-1,1399,1170,0,0
182,-146,0,0,0,0,0,0,0,0,0,-1,1406,1170,0,0
189,-146,0,0,0,0,0,0,0,0,0,-1,1413,1170,0,0
196,-146,0,0,0,0,0,0,0,0,0,-1,1420,1170,0,0
203,-146,0,0,0,0,0,0,0,0,0,-1,1427,1170,0,0
210,-146,0,0,0,0,0,0,0,0,0,-1,1434,1170,0,0
217,-146,0,0,0,0,0,0,0,0,0,-1,1441,1170,0,0
224,-146,0,0,0,0,0,0,0,0,0,-1,1448,1170,0,0
231,-146,0,0,0,0,0,0,0,0,0,-1,1455,1170,0,0
238,-146,0,0,0,0,0,0,0,0,0,-1,1462,1170,0,0
245,-146,0,0,0,0,0,0,0,0,0,-1,1469,1170,0,0
252,-146,0,0,0,0,0,0,0,0,0,-1,1476,1170,0,0
259,-146,0,0,0,0,0,0,0,0,0,-1,1483,1170,0,0
266,-146,0,0,0,0,0,0,0,0,0,-1,1490,1170,0,0
273,-146,0,0,0,0,0,0,0,0,0,-1,1497,1170,0,0
280,-146,0,0,0,0,0,0,0,0,0,-1,1504,1170,0,0
287,-146,0,0,0,0,0,0,0,0,0,-1,1511,1170,0,0
294,-146,0,0,0,0,0,0,0,0,0,-1,1518,1170,0,0
301,-146,0,0,0,0,0,0,0,0,0,-1,1525,1170,0,0
308,-146,0,0,0,0,0,0,0,0,0,-1,1532,1170,0,0
315,-146,0,0,0,0,0,0,0,0,0,-1,1539,1170,0,0
322,-146,0,0,0,0,0,0,0,0,0,-1,1546,1170,0,0
329,-146,0,0,0,0,0,0,0,0,0,-1,1553,1170,0,0
336,-146,0,0,0,0,0,0,0,0,0,-1,1560,1170,0,0
343,-146,0,0,0,0,0,0,0,0,0,-1,1567,1170,0,0
350,-146,0,0,0,0,0,0,0,0,0,-1,1574,1170,0,0
357,-146,0,0,0,0,0,0,0,0,0,-1,1581,1170,0,0
364,-146,0,0,0,0,0,0,0,0,0,-1,1588,1170,0,0
371,-146,0,0,0,0,0,0,0,0,0,-1,1595,1170,0,0
378,-146,0,0,0,0,0,0,0,0,0,-1,1602,1170,0,0
385,-146,0,0,0,0,0,0,0,0,0,-1,1609,1170,0,0
392,-146,0,0,0,0,0,0,0,0,0,-1,1616,1170,0,0
399,-146,0,0,0,0,0,0,0,0,0,-1,1623,1170,0,0
406,-146,0,0,0,0,0,0,0,0,0,-1,1630,1170,0,0
413,-146,0,0,0,0,0,0,0,0,0,-1,1637,1170,0,0
420,-146,0,0,0,0,0,0,0,0,0,-1,1644,1170,0,0
427,-146,0,0,0,0,0,0,0,0,0,-1,1651,1170,0,0
434,-146,0,0,0,0,0,0,0,0,0,-1,1658,1170,0,0
441,-146,0,0,0,0,0,0,0,0,0,-1,1665,1170,0,0
448,-146,0,0,0,0,0,0,0,0,0,-1,1672,1170,0,0
455,-146,0,0,0,0,0,0,0,0,0,-1,1679,1170,0,0
462,-146,0,0,0,0,0,0,0,0,0,-1,1686,1170,0,0
469,-146,0,0,0,0,0,0,0,0,0,-1,1693,1170,0,0
476,-146,0,0,0,0,0,0,0,0,0,-1,1700,1170,0,0
483,-146,0,0,0,0,0,0,0,0,0,-1,1707,1170,0,0
490,-146,0,0,0,0,0,0,0,0,0,-1,1714,1170,0,0
497,-146,0,0,0,0,0,0,0,0,0,-1,1721,1170,0,0
504,-146,0,0,0,0,0,0,0,0,0,-1,1728,1170,0,0
511,-146,0,0,0,0,0,0,0,0,0,-1,1735,1170,0,0
518,-146,0,0,0,0,0,0,0,0,0,-1,1742,1170,0,0
525,-146,0,0,0,0,0,0,0,0,0,-1,1749,1170,0,0
532,-146,0,0,0,0,0,0,0,0,0,-1,1756,1170,0,0
539,-146,0,0,0,0,0,0,0,0,0,-1,1763,1170,0,0
546,-146,0,0,0,0,0,0,0,0,0,-1,1770,1170,0,0
553,-146,0,0,0,0,0,0,0,0,0,-1,1777,1170,0,0
560,-146,0,0,0,0,0,0,0,0,0,-1,1784,1170,0,0
567,-146,0,0,0,0,0,0,0,0,0,-1,1791,1170,0,0
574,-146,0,0,0,0,0,0,0,0,0,-1,1798,1170,0,0
581,-146,0,0,0,0,0,0,0,0,0,-1,1805,1170,0,0
588,-146,0,0,0,0,0,0,0,0,0,-1,1812,1170,0,0
595,-146,0,0,0,0,0,0,0,0,0,-1,1819,1170,0,0
602,-146,0,0,0,0,0,0,0,0,0,-1,1826,1170,0,0
609,-146,0,0,0,0,0,0,0,0,0,-1,1833,1170,0,0
616,-146,0,0,0,0,0,0,0,0,0,-1,1840,1170,0,0
623,-146,0,0,0,0,0,0,0,0,0,-1,1847,1170,0,0
630,-146,0,0,0,0,0,0,0,0,0,-1,1854,1170,0,0
637,-146,21.7479,2.73328,0.00725053,-0.00270773,0.000157933,0.00725304,-0.00271024,0.0158541,0.00594827,0.0383214,1861,1170,21.7479,-2.73323
644,-146,21.7667,2.73718,0.00560556,-0.00223233,0.000306788,0.00561755,-0.00224432,0.0390621,0.00467625,0.036286,1868,1170,21.7667,-2.73724
651,-146,21.8837,2.75415,0.00433511,-0.00155399,8.92632e-05,0.00433647,-0.00155534,0.0151527,0.0035257,0.0363972,1875,1170,21.8837,-2.75418
658,-146,21.8154,2.76624,0.00328817,-0.00103518,7.98973e-06,0.00328819,-0.00103519,0.00184803,0.00260663,0.0396179,1882,1170,21.8154,-2.76625
665,-146,21.7628,2.85132,0.00136851,-0.00104761,0.000691056,0.0015522,-0.0012313,0.259802,0.00161061,0.0388803,1889,1170,21.7628,-2.8513
672,-146,21.7612,2.83582,-0.000691855,-0.00124665,0.00155341,0.00060873,-0.00254724,0.697043,0.00193328,0.0373093,1896,1170,21.7612,-2.83578
679,-146,21.7384,2.79907,-0.00255913,-0.00154934,0.00238491,0.000383533,-0.004492,0.88971,0.00313035,0.0299312,1903,1170,21.7383,-2.79912
686,-146,21.6827,2.79565,-0.00410557,-0.0019146,0.00311583,0.000292717,-0.00631288,0.954441,0.00430948,0.0231328,1910,1170,21.6827,-2.7957
693,-146,21.718,2.75293,-0.00531787,-0.00211163,0.00368513,0.000303981,-0.00773348,0.990563,0.00525991,0.0160246,1917,1170,21.718,-2.7529
700,-146,21.4907,3.25696,0,0,0,0,0,0,0,-1,1924,1170,21.4907,-3.25698
707,-146,20.72,4.00623,-0.00688914,-0.00224257,0.00429831,0.000320164,-0.00945187,1.03316,0.00641063,0.0357149,1931,1170,20.7199,-4.00617
714,-146,20.165,4.62769,-0.00725214,-0.00226745,0.00451292,0.000395618,-0.00991521,1.03769,0.00674588,0.0277723,1938,1170,20.165,-4.62772
721,-146,20.1254,4.51697,-0.00728971,-0.00216454,0.00456587,0.000508715,-0.00996297,1.04112,0.00681788,0.0346634,1945,1170,20.1253,-4.51703
728,-146,20.1476,4.36902,-0.00666321,-0.00193756,0.00413233,0.000459777,-0.00906054,1.04511,0.00619931,0.0255472,1952,1170,20.1476,-4.36905
735,-146,20.0359,4.32153,-0.00547392,-0.0015426,0.00310446,0.000166177,-0.00718269,1.06763,0.0048448,0.0181555,1959,1170,20.0359,-4.32154
742,-146,20.0607,4.16284,-0.00391244,-0.000481966,0.00142353,3.18019e-05,-0.00442621,1.22443,0.00296146,0.0168869,1966,1170,20.0606,-4.16278
749,-146,20.0703,4.04834,-0.00194201,0.000263454,-0.000412764,0.000338174,-0.00201673,-1.39171,0.00147024,0.0142933,1973,1170,20.0703,-4.04836
756,-146,20.0546,3.93945,0.000420612,0.00101641,-0.00291049,0.00364421,-0.00220718,-0.836398,0.00341209,0.0108465,1980,1170,20.0545,-3.9395
763,-146,20.0579,3.83496,0.00322889,0.00213165,-0.00559678,0.00830387,-0.00294333,-0.736542,0.00673494,0.0100985,1987,1170,20.0579,-3.83494
770,-146,20.0717,3.71924,0.00572483,0.00292088,-0.00839561,0.0128347,-0.00418901,-0.702667,0.0102424,0.0106151,1994,1170,20.0717,-3.71921
777,-146,20.0553,3.56848,0.00801099,0.00343103,-0.0111978,0.0171506,-0.00570858,-0.684538,0.0137378,0.0186435,2001,1170,20.0553,-3.56843
784,-146,19.9889,3.38171,0.0104373,0.00375611,-0.0142348,0.0217182,-0.00752485,-0.670146,0.0175338,0.037263,2008,1170,19.9889,-3.38176
791,-146,19.9302,3.20618,0,0,0,0,0,0,0,-1,2015,1170,19.9301,-3.20612
798,-146,19.9899,2.05481,0.0160903,0.00312638,-0.0204767,0.0310865,-0.0118698,-0.632111,0.0256147,0.0432307,2022,1170,19.9898,-2.05486
805,-146,19.7261,1.92297,0.0192725,0.00165916,-0.0230392,0.0351308,-0.0141991,-0.602844,0.0293228,0.0448049,2029,1170,19.7261,-1.92299
812,-146,0,0,0,0,0,0,0,0,0,-1,2036,1170,0,0
-700,-153,0,0,0,0,0,0,0,0,0,-1,524,1177,0,0
-693,-153,0,0,0,0,0,0,0,0,0,-1,531,1177,0,0
-686,-153,-14.0042,-1.62402,0.103931,0.0163372,-0.0108497,0.105255,0.0150133,-0.121419,0.0657395,0.0471918,538,1177,-14.0042,1.62403
-679,-153,-13.5607,-1.43408,0.0832587,0.0175988,-0.00909785,0.084496,0.0163615,-0.135168,0.0517463,0.0486316,545,1177,-13.5607,1.43412
-672,-153,-13.2723,-1.09705,0.0658743,0.0173442,-0.00743895,0.066989,0.0162296,-0.148737,0.0403525,0.0451537,552,1177,-13.2723,1.09705
-665,-153,-12.9837,-0.779785,0.0512351,0.0162112,-0.00591984,0.0522087,0.0152377,-0.162993,0.031001,0.0448489,559,1177,-12.9837,0.779797
-658,-153,-11.8339,0.238159,0,0,0,0,0,0,0,-1,566,1177,-11.8339,-0.238191
-651,-153,-11.8642,0.571655,0.028553,0.0125009,-0.00343658,0.0292578,0.0117961,-0.202279,0.0169973,0.0460525,573,1177,-11.8642,-0.571712
-644,-153,-12.0868,1.05481,0.0200973,0.0103166,-0.0024908,0.0206951,0.00971881,-0.235541,0.0119557,0.0277693,580,1177,-12.0868,-1.05487
-637,-153,-12.1144,1.28406,0.0125429,0.00819584,-0.00212262,0.0134074,0.00733132,-0.386773,0.00775208,0.0114229,587,1177,-12.1144,-1.28406
-630,-153,-12.136,1.45178,0.00634942,0.00560761,-0.001848,0.00786337,0.00409366,-0.686361,0.0045412,0.00995188,594,1177,-12.136,-1.45177
-623,-153,-12.1533,1.60132,0.000200805,0.0041102,-0.00256368,0.00537937,-0.00106836,-1.11111,0.00399033,0.00985386,601,1177,-12.1533,-1.60129
-616,-153,-12.1732,1.7489,-0.00398305,0.00193068,-0.00351574,0.00356767,-0.00562004,-1.13503,0.00534846,0.0132969,608,1177,-12.1732,-1.74887
-609,-153,-12.1439,1.88062,-0.00663482,-0.000838607,-0.00474283,0.00182147,-0.0092949,-1.05965,0.00688455,0.0179462,615,1177,-12.1438,-1.88063
-602,-153,-12.1421,2.02856,-0.00855747,-0.00198437,-0.00634936,0.00187862,-0.0124205,-1.02422,0.0089723,0.0257859,622,1177,-12.1421,-2.02858
-595,-153,-12.2618,2.19604,-0.00964513,-0.00290673,-0.00767836,0.0021091,-0.014661,-0.992145,0.0105475,0.0215293,629,1177,-12.2618,-2.19609
-588,-153,-12.2521,2.35522,-0.0102492,-0.00338347,-0.00843071,0.00228648,-0.0159192,-0.978742,0.0114513,0.0144688,636,1177,-12.2521,-2.35528
-581,-153,-12.1561,2.45947,-0.0103773,-0.00381386,-0.00859545,0.00210503,-0.0162962,-0.967757,0.0116295,0.0225831,643,1177,-12.1561,-2.45945
-574,-153,-12.9349,1.81311,-0.00998556,-0.00382221,-0.00840367,0.002047,-0.0158548,-0.961138,0.0113141,0.0475668,650,1177,-12.9349,-1.81313
-567,-153,-13.8111,1.22192,0,0,0,0,0,0,0,-1,657,1177,-13.8111,-1.22194
-560,-153,-13.9498,0.897339,-0.00755745,-0.00352048,-0.00708103,0.00182413,-0.0129021,-0.924243,0.00926945,0.0392269,664,1177,-13.9498,-0.897341
-553,-153,-13.889,0.826782,-0.00538197,-0.00300935,-0.00556508,0.00149446,-0.00988578,-0.890411,0.00714099,0.0379271,671,1177,-13.889,-0.826823
-546,-153,-13.7423,0.59375,-0.00246821,-0.00226077,-0.00340225,0.00103934,-0.00576832,-0.800637,0.00423472,0.040963,678,1177,-13.7423,-0.593748
-539,-153,-14.0045,0.60083,0.00113978,-0.00127787,-0.000521059,0.0012473,-0.00138539,-0.203489,0.00152068,0.0431486,685,1177,-14.0045,-0.600785
-532,-153,-14.3899,0.938354,0,0,0,0,0,0,0,-1,692,1177,-14.3899,-0.938365
-525,-153,-14.1407,1.03979,0,0,0,0,0,0,0,-1,699,1177,-14.1407,-1.03982
-518,-153,0,0,0,0,0,0,0,0,0,-1,706,1177,0,0
-511,-153,0,0,0,0,0,0,0,0,0,-1,713,1177,0,0
-504,-153,0,0,0,0,0,0,0,0,0,-1,720,1177,0,0
-497,-153,0,0,0,0,0,0,0,0,0,-1,727,1177,0,0
-490,-153,0,0,0,0,0,0,0,0,0,-1,734,1177,0,0
-483,-153,0,0,0,0,0,0,0,0,0,-1,741,1177,0,0
-476,-153,0,0,0,0,0,0,0,0,0,-1,748,1177,0,0
-469,-153,0,0,0,0,0,0,0,0,0,-1,755,1177,0,0
-462,-153,0,0,0,0,0,0,0,0,0,-1,762,1177,0,0
-455,-153,0,0,0,0,0,0,0,0,0,-1,769,1177,0,0
-448,-153,0,0,0,0,0,0,0,0,0,-1,776,1177,0,0
-441,-153,0,0,0,0,0,0,0,0,0,-1,783,1177,0,0
-434,-153,0,0,0,0,0,0,0,0,0,-1,790,1177,0,0
-427,-153,0,0,0,0,0,0,0,0,0,-1,797,1177,0,0
-420,-153,0,0,0,0,0,0,0,0,0,-1,804,1177,0,0
-413,-153,0,0,0,0,0,0,0,0,0,-1,811,1177,0,0
-406,-153,0,0,0,0,0,0,0,0,0,-1,818,1177,0,0
-399,-153,0,0,0,0,0,0,0,0,0,-1,825,1177,0,0
-392,-153,0,0,0,0,0,0,0,0,0,-1,832,1177,0,0
-385,-153,0,0,0,0,0,0,0,0,0,-1,839,1177,0,0
-378,-153,0,0,0,0,0,0,0,0,0,-1,846,1177,0,0
-371,-153,0,0,0,0,0,0,0,0,0,-1,853,1177,0,0
-364,-153,0,0,0,0,0,0,0,0,0,-1,860,1177,0,0
-357,-153,0,0,0,0,0,0,0,0,0,-1,867,1177,0,0
-350,-153,0,0,0,0,0,0,0,0,0,-1,874,1177,0,0
-343,-153,0,0,0,0,0,0,0,0,0,-1,881,1177,0,0
-336,-153,0,0,0,0,0,0,0,0,0,-1,888,1177,0,0
-329,-153,0,0,0,0,0,0,0,0,0,-1,895,1177,0,0
-322,-153,0,0,0,0,0,0,0,0,0,-1,902,1177,0,0
-315,-153,0,0,0,0,0,0,0,0,0,-1,909,1177,0,0
-308,-153,0,0,0,0,0,0,0,0,0,-1,916,1177,0,0
-301,-153,0,0,0,0,0,0,0,0,0,-1,923,1177,0,0
-294,-153,0,0,0,0,0,0,0,0,0,-1,930,1177,0,0
-287,-153,0,0,0,0,0,0,0,0,0,-1,937,1177,0,0
-280,-153,0,0,0,0,0,0,0,0,0,-1,944,1177,0,0
-273,-153,0,0,0,0,0,0,0,0,0,-1,951,1177,0,0
-266,-153,0,0,0,0,0,0,0,0,0,-1,958,1177,0,0
-259,-153,0,0,0,0,0,0,0,0,0,-1,965,1177,0,0
-252,-153,0,0,0,0,0,0,0,0,0,-1,972,1177,0,0
-245,-153,0,0,0,0,0,0,0,0,0,-1,979,1177,0,0
-238,-153,0,0,0,0,0,0,0,0,0,-1,986,1177,0,0
-231,-153,0,0,0,0,0,0,0,0,0,-1,993,1177,0,0
-224,-153,0,0,0,0,0,0,0,0,0,-1,1000,1177,0,0
-217,-153,0,0,0,0,0,0,0,0,0,-1,1007,1177,0,0
-210,-153,0,0,0,0,0,0,0,0,0,-1,1014,1177,0,0
-203,-153,0,0,0,0,0,0,0,0,0,-1,1021,1177,0,0
-196,-153,0,0,0,0,0,0,0,0,0,-1,1028,1177,0,0
-189,-153,0,0,0,0,0,0,0,0,0,-1,1035,1177,0,0
-182,-153,0,0,0,0,0,0,0,0,0,-1,1042,1177,0,0
-175,-153,0,0,0,0,0,0,0,0,0,-1,1049,1177,0,0
-168,-153,0,0,0,0,0,0,0,0,0,-1,1056,1177,0,0
-161,-153,0,0,0,0,0,0,0,0,0,-1,1063,1177,0,0
-154,-153,0,0,0,0,0,0,0,0,0,-1,1070,1177,0,0
-147,-153,0,0,0,0,0,0,0,0,0,-1,1077,1177,0,0
-140,-153,0,0,0,0,0,0,0,0,0,-1,1084,1177,0,0
-133,-153,0,0,0,0,0,0,0,0,0,-1,1091,1177,0,0
-126,-153,0,0,0,0,0,0,0,0,0,-1,1098,1177,0,0
-119,-153,0,0,0,0,0,0,0,0,0,-1,1105,1177,0,0
-112,-153,0,0,0,0,0,0,0,0,0,-1,1112,1177,0,0
-105,-153,0,0,0,0,0,0,0,0,0,-1,1119,1177,0,0
-98,-153,0,0,0,0,0,0,0,0,0,-1,1126,1177,0,0
-91,-153,0,0,0,0,0,0,0,0,0,-1,1133,1177,0,0
-84,-153,0,0,0,0,0,0,0,0,0,-1,1140,1177,0,0
-77,-153,0,0,0,0,0,0,0,0,0,-1,1147,1177,0,0
-70,-153,0,0,0,0,0,0,0,0,0,-1,1154,1177,0,0
-63,-153,0,0,0,0,0,0,0,0,0,-1,1161,1177,0,0
-56,-153,0,0,0,0,0,0,0,0,0,-1,1168,1177,0,0
-49,-153,0,0,0,0,0,0,0,0,0,-1,1175,1177,0,0
-42,-153,0,0,0,0,0,0,0,0,0,-1,1182,1177,0,0
-35,-153,0,0,0,0,0,0,0,0,0,-1,1189,1177,0,0
-28,-153,0,0,0,0,0,0,0,0,0,-1,1196,1177,0,0
-21,-153,0,0,0,0,0,0,0,0,0,-1,1203,1177,0,0
-14,-153,0,0,0,0,0,0,0,0,0,-1,1210,1177,0,0
-7,-153,0,0,0,0,0,0,0,0,0,-1,1217,1177,0,0
0,-153,0,0,0,0,0,0,0,0,0,-1,1224,1177,0,0
7,-153,0,0,0,0,0,0,0,0,0,-1,1231,1177,0,0
14,-153,0,0,0,0,0,0,0,0,0,-1,1238,1177,0,0
21,-153,0,0,0,0,0,0,0,0,0,-1,1245,1177,0,0
28,-153,0,0,0,0,0,0,0,0,0,-1,1252,1177,0,0
35,-153,0,0,0,0,0,0,0,0,0,-1,1259,1177,0,0
42,-153,0,0,0,0,0,0,0,0,0,-1,1266,1177,0,0
49,-153,0,0,0,0,0,0,0,0,0,-1,1273,1177,0,0
56,-153,0,0,0,0,0,0,0,0,0,-1,1280,1177,0,0
63,-153,0,0,0,0,0,0,0,0,0,-1,1287,1177,0,0
70,-153,0,0,0,0,0,0,0,0,0,-1,1294,1177,0,0
77,-153,0,0,0,0,0,0,0,0,0,-1,1301,1177,0,0
84,-153,0,0,0,0,0,0,0,0,0,-1,1308,1177,0,0
91,-153,0,0,0,0,0,0,0,0,0,-1,1315,1177,0,0
98,-153,0,0,0,0,0,0,0,0,0,-1,1322,1177,0,0
105,-153,0,0,0,0,0,0,0,0,0,-1,1329,1177,0,0
112,-153,0,0,0,0,0,0,0,0,0,-1,1336,1177,0,0
119,-153,0,0,0,0,0,0,0,0,0,-1,1343,1177,0,0
126,-153,0,0,0,0,0,0,0,0,0,-1,1350,1177,0,0
133,-153,0,0,0,0,0,0,0,0,0,-1,1357,1177,0,0
140,-153,0,0,0,0,0,0,0,0,0,-1,1364,1177,0,0
147,-153,0,0,0,0,0,0,0,0,0,-1,1371,1177,0,0
154,-153,0,0,0,0,0,0,0,0,0,-1,1378,1177,0,0
161,-153,0,0,0,0,0,0,0,0,0,-1,1385,1177,0,0
168,-153,0,0,0,0,0,0,0,0,0,-1,1392,1177,0,0
175,-153,0,0,0,0,0,0,0,0,0,-1,1399,1177,0,0
182,-153,0,0,0,0,0,0,0,0,0,-1,1406,1177,0,0
189,-153,0,0,0,0,0,0,0,0,0,-1,1413,1177,0,0
196,-153,0,0,0,0,0,0,0,0,0,-1,1420,1177,0,0
203,-153,0,0,0,0,0,0,0,0,0,-1,1427,1177,0,0
210,-153,0,0,0,0,0,0,0,0,0,-1,1434,1177,0,0
217,-153,0,0,0,0,0,0,0,0,0,-1,1441,1177,0,0
224,-153,0,0,0,0,0,0,0,0,0,-1,1448,1177,0,0
231,-153,0,0,0,0,0,0,0,0,0,-1,1455,1177,0,0
238,-153,0,0,0,0,0,0,0,0,0,-1,1462,1177,0,0
245,-153,0,0,0,0,0,0,0,0,0,-1,1469,1177,0,0
252,-153,0,0,0,0,0,0,0,0,0,-1,1476,1177,0,0
259,-153,0,0,0,0,0,0,0,0,0,-1,1483,1177,0,0
266,-153,0,0,0,0,0,0,0,0,0,-1,1490,1177,0,0
273,-153,0,0,0,0,0,0,0,0,0,-1,1497,1177,0,0
280,-153,0,0,0,0,0,0,0,0,0,-1,1504,1177,0,0
287,-153,0,0,0,0,0,0,0,0,0,-1,1511,1177,0,0
294,-153,0,0,0,0,0,0,0,0,0,-1,1518,1177,0,0
301,-153,0,0,0,0,0,0,0,0,0,-1,1525,1177,0,0
308,-153,0,0,0,0,0,0,0,0,0,-1,1532,1177,0,0
315,-153,0,0,0,0,0,0,0,0,0,-1,1539,1177,0,0
322,-153,0,0,0,0,0,0,0,0,0,-1,1546,1177,0,0
329,-153,0,0,0,0,0,0,0,0,0,-1,1553,1177,0,0
336,-153,0,0,0,0,0,0,0,0,0,-1,1560,1177,0,0
343,-153,0,0,0,0,0,0,0,0,0,-1,1567,1177,0,0
350,-153,0,0,0,0,0,0,0,0,0,-1,1574,1177,0,0
357,-153,0,0,0,0,0,0,0,0,0,-1,1581,1177,0,0
364,-153,0,0,0,0,0,0,0,0,0,-1,1588,1177,0,0
371,-153,0,0,0,0,0,0,0,0,0,-1,1595,1177,0,0
378,-153,0,0,0,0,0,0,0,0,0,-1,1602,1177,0,0
385,-153,0,0,0,0,0,0,0,0,0,-1,1609,1177,0,0
392,-153,0,0,0,0,0,0,0,0,0,-1,1616,1177,0,0
399,-153,0,0,0,0,0,0,0,0,0,-1,1623,1177,0,0
406,-153,0,0,0,0,0,0,0,0,0,-1,1630,1177,0,0
413,-153,0,0,0,0,0,0,0,0,0,-1,1637,1177,0,0
420,-153,0,0,0,0,0,0,0,0,0,-1,1644,1177,0,0
427,-153,0,0,0,0,0,0,0,0,0,-1,1651,1177,0,0
434,-153,0,0,0,0,0,0,0,0,0,-1,1658,1177,0,0
441,-153,0,0,0,0,0,0,0,0,0,-1,1665,1177,0,0
448,-153,0,0,0,0,0,0,0,0,0,-1,1672,1177,0,0
455,-153,0,0,0,0,0,0,0,0,0,-1,1679,1177,0,0
462,-153,0,0,0,0,0,0,0,0,0,-1,1686,1177,0,0
469,-153,0,0,0,0,0,0,0,0,0,-1,1693,1177,0,0
476,-153,0,0,0,0,0,0,0,0,0,-1,1700,1177,0,0
483,-153,0,0,0,0,0,0,0,0,0,-1,1707,1177,0,0
490,-153,0,0,0,0,0,0,0,0,0,-1,1714,1177,0,0
497,-153,0,0,0,0,0,0,0,0,0,-1,1721,1177,0,0
504,-153,0,0,0,0,0,0,0,0,0,-1,1728,1177,0,0
511,-153,0,0,0,0,0,0,0,0,0,-1,1735,1177,0,0
518,-153,0,0,0,0,0,0,0,0,0,-1,1742,1177,0,0
525,-153,0,0,0,0,0,0,0,0,0,-1,1749,1177,0,0
532,-153,0,0,0,0,0,0,0,0,0,-1,1756,1177,0,0
539,-153,0,0,0,0,0,0,0,0,0,-1,1763,1177,0,0
546,-153,0,0,0,0,0,0,0,0,0,-1,1770,1177,0,0
553,-153,0,0,0,0,0,0,0,0,0,-1,1777,1177,0,0
560,-153,0,0,0,0,0,0,0,0,0,-1,1784,1177,0,0
567,-153,0,0,0,0,0,0,0,0,0,-1,1791,1177,0,0
574,-153,0,0,0,0,0,0,0,0,0,-1,1798,1177,0,0
581,-153,0,0,0,0,0,0,0,0,0,-1,1805,1177,0,0
588,-153,0,0,0,0,0,0,0,0,0,-1,1812,1177,0,0
595,-153,0,0,0,0,0,0,0,0,0,-1,1819,1177,0,0
602,-153,0,0,0,0,0,0,0,0,0,-1,1826,1177,0,0
609,-153,0,0,0,0,0,0,0,0,0,-1,1833,1177,0,0
616,-153,0,0,0,0,0,0,0,0,0,-1,1840,1177,0,0
623,-153,0,0,0,0,0,0,0,0,0,-1,1847,1177,0,0
630,-153,0,0,0,0,0,0,0,0,0,-1,1854,1177,0,0
637,-153,21.5995,2.81042,0.00716998,-0.00160197,0.000410582,0.00718915,-0.00162115,0.0466702,0.00541466,0.0384293,1861,1177,21.5995,-2.81037
644,-153,21.642,2.83533,0.0055031,-0.00138107,0.000426109,0.00552938,-0.00140734,0.0615836,0.00423406,0.0355879,1868,1177,21.6419,-2.83533
651,-153,21.752,2.80872,0.00421719,-0.000882118,0.000105273,0.00421936,-0.00088429,0.0206328,0.00314933,0.0299768,1875,1177,21.752,-2.80867
658,-153,21.7346,2.78455,0.00300533,-0.000611848,3.25589e-05,0.00300562,-0.000612141,0.00900021,0.0022359,0.033839,1882,1177,21.7347,-2.78458
665,-153,21.7275,2.82935,0.00112651,-0.000794627,0.000606182,0.00130179,-0.000969905,0.281475,0.00131622,0.0364336,1889,1177,21.7276,-2.8293
672,-153,21.6755,2.86414,-0.000748996,-0.00108826,0.00128548,0.000377996,-0.00221525,0.719797,0.00161762,0.0357903,1896,1177,21.6755,-2.86409
679,-153,21.5986,2.76465,-0.00244154,-0.00144499,0.00196884,8.76454e-05,-0.00397418,0.909336,0.00267915,0.0277928,1903,1177,21.5986,-2.7647
686,-153,21.6957,2.79248,-0.00381122,-0.00184345,0.00255793,-8.67059e-05,-0.00556796,0.968996,0.00368341,0.0194061,1910,1177,21.6957,-2.79253
693,-153,21.7457,2.70605,-0.00490283,-0.00205422,0.0030477,-0.000114434,-0.00684262,1.00399,0.00452409,0.0313699,1917,1177,21.7457,-2.70611
700,-153,21.4585,3.90295,0,0,0,0,0,0,0,-1,1924,1177,21.4586,-3.90301
707,-153,20.6787,4.24048,-0.00637711,-0.00219744,0.00355093,-0.000167013,-0.00840753,1.05137,0.00555019,0.0478113,1931,1177,20.6787,-4.24043
714,-153,20.1095,4.56323,-0.00670821,-0.00222575,0.00375925,-9.03299e-05,-0.00884363,1.05421,0.00586587,0.0284174,1938,1177,20.1095,-4.56327
721,-153,20.1233,4.4502,-0.00671408,-0.00212996,0.0038424,5.20828e-05,-0.00889612,1.05433,0.00594818,0.0234003,1945,1177,20.1233,-4.45018
728,-153,20.093,4.37048,-0.00604877,-0.00191831,0.00344957,3.69945e-05,-0.00800407,1.05513,0.00534842,0.0294582,1952,1177,20.093,-4.37048
735,-153,19.9172,4.32104,-0.00485742,-0.00153662,0.00248266,-0.000210293,-0.00618374,1.08014,0.00405422,0.0165544,1959,1177,19.9172,-4.321
742,-153,19.9563,4.18713,-0.00323601,-0.000621095,0.000860988,-0.000363066,-0.00349403,1.27963,0.00221826,0.0138933,1966,1177,19.9563,-4.18713
749,-153,19.9631,4.06628,-0.00121207,-7.57378e-05,-0.000944519,0.000458335,-0.00174614,-1.05617,0.0013432,0.0149284,1973,1177,19.9632,-4.0663
756,-153,19.9487,3.94653,0.00118456,0.000176752,-0.00338436,0.00410233,-0.00274101,-0.711495,0.00397698,0.0106279,1980,1177,19.9487,-3.94648
763,-153,19.9459,3.81555,0.00393035,0.000652431,-0.00595853,0.00847122,-0.00388844,-0.651187,0.00729753,0.0104461,1987,1177,19.946,-3.81559
770,-153,19.9574,3.70093,0.00636289,0.000659676,-0.00867933,0.0126471,-0.0056245,-0.626678,0.0108057,0.00968534,1994,1177,19.9574,-3.7009
777,-153,19.9646,3.57959,0.00861563,0.000166547,-0.0115144,0.016656,-0.00787383,-0.609576,0.0144617,0.0202314,2001,1177,19.9646,-3.57963
784,-153,19.9172,3.38782,0.0109441,-0.000856948,-0.014606,0.0207964,-0.0107093,-0.593432,0.0184979,0.0421797,2008,1177,19.9173,-3.38776
791,-153,19.6627,2.77612,0.0133922,-0.00265758,-0.0178105,0.0249022,-0.0141676,-0.573734,0.022839,0.0458842,2015,1177,19.6627,-2.77607
798,-153,19.7678,2.1781,0.0160518,-0.00552921,-0.020906,0.0287878,-0.0182652,-0.547159,0.0273916,0.0452554,2022,1177,19.7678,-2.17812
805,-153,20.1492,1.65173,0.0187352,-0.00992855,-0.0234087,0.0318509,-0.0230442,-0.51071,0.0318294,0.0437683,2029,1177,20.1492,-1.65174
812,-153,0,0,0,0,0,0,0,0,0,-1,2036,1177,0,0
-700,-160,0,0,0,0,0,0,0,0,0,-1,524,1184,0,0
-693,-160,0,0,0,0,0,0,0,0,0,-1,531,1184,0,0
-686,-160,-13.8199,-1.9375,0.0916376,0.0135624,-0.0167432,0.0950767,0.0101233,-0.202585,0.060294,0.0465235,538,1184,-13.8199,1.93747
-679,-160,-13.1885,-2.06433,0.0729602,0.0155998,-0.0137422,0.0760826,0.0124774,-0.223416,0.0471166,0.0485635,545,1184,-13.1885,2.06428
-672,-160,-12.8621,-1.90588,0.057342,0.0158378,-0.0111321,0.0601393,0.0130405,-0.246184,0.0365303,0.0459959,552,1184,-12.8621,1.90588
-665,-160,-12.507,-1.61133,0.0442453,0.0150447,-0.00885938,0.046723,0.012567,-0.2727,0.0279189,0.0487552,559,1184,-12.507,1.6113
-658,-160,-12.411,-1.12122,0,0,0,0,0,0,0,-1,566,1184,-12.411,1.12127
-651,-160,-11.8538,0.83667,0,0,0,0,0,0,0,-1,573,1184,-11.8538,-0.836722
-644,-160,-11.8876,1.0658,0.0165796,0.00976895,-0.00387571,0.0183335,0.00801507,-0.424957,0.0106126,0.0390712,580,1184,-11.8876,-1.06584
-637,-160,-11.9412,1.29858,0.0100399,0.00778551,-0.00302656,0.0121424,0.00568306,-0.607137,0.00701517,0.0147103,587,1184,-11.9413,-1.29859
-630,-160,-11.9839,1.42517,0.00466108,0.00540135,-0.00239597,0.0074556,0.00260683,-0.862033,0.00436888,0.00900355,594,1184,-11.9839,-1.42522
-623,-160,-12.0139,1.55261,-0.000686999,0.00404823,-0.00272647,0.0052916,-0.00193037,-1.14293,0.00431752,0.0107509,601,1184,-12.0139,-1.55263
-616,-160,-12.0206,1.69995,-0.00439974,0.0019408,-0.00340512,0.003423,-0.00588194,-1.16025,0.00543438,0.00997637,608,1184,-12.0207,-1.69995
-609,-160,-12.0089,1.88184,-0.00677635,-0.000834008,-0.00441798,0.00151895,-0.00912931,-1.08142,0.0066506,0.0122106,615,1184,-12.0089,-1.88181
-602,-160,-11.9808,2.07068,-0.00845977,-0.00190428,-0.00585646,0.00152929,-0.0118933,-1.04052,0.00848472,0.01911,622,1184,-11.9807,-2.07065
-595,-160,-12.001,2.26965,-0.00938448,-0.0028377,-0.00707573,0.00168513,-0.0139073,-1.00205,0.00988126,0.022998,629,1184,-12.001,-2.26965
-588,-160,-12.0836,2.36621,-0.00987975,-0.003359,-0.0078181,0.00185133,-0.0150901,-0.982948,0.0107305,0.0224447,636,1184,-12.0836,-2.36626
-581,-160,-12.0026,2.50525,-0.00996962,-0.00384228,-0.00801398,0.00167367,-0.0154856,-0.967972,0.0109244,0.0183467,643,1184,-12.0026,-2.50522
-574,-160,-12.5415,2.03442,-0.00955637,-0.00389926,-0.00790385,0.00166692,-0.0151225,-0.957233,0.0106808,0.0462923,650,1184,-12.5415,-2.03444
-567,-160,-13.1728,1.52087,0,0,0,0,0,0,0,-1,657,1184,-13.1728,-1.52084
-560,-160,-13.9343,0.811401,-0.00726683,-0.00383734,-0.00689267,0.00155068,-0.0126548,-0.907313,0.00899811,0.0394795,664,1184,-13.9343,-0.811448
-553,-160,-13.9653,0.940186,-0.00524419,-0.00348303,-0.00565186,0.00135643,-0.0100837,-0.862679,0.0072172,0.0407266,671,1184,-13.9654,-0.940141
-546,-160,-13.9959,0.684937,-0.00251018,-0.00292708,-0.0038321,0.00111914,-0.0065564,-0.758227,0.00478778,0.0412014,678,1184,-13.9959,-0.684898
-539,-160,-13.9786,0.671387,0.000904388,-0.00216954,-0.00135897,0.00141902,-0.00268418,-0.362006,0.00240623,0.04511,685,1184,-13.9786,-0.671435
-532,-160,-13.893,0.785645,0.00514739,-0.0012332,0.00180386,0.00562205,-0.00170786,0.257303,0.00442849,0.0451448,692,1184,-13.893,-0.785688
-525,-160,-13.8259,1.13147,0.00873637,-0.000543211,0.00464895,0.0106647,-0.00247156,0.393192,0.00806097,0.0435327,699,1184,-13.8258,-1.13145
-518,-160,-13.6381,1.03528,0.00741486,-0.00145982,0.00478059,0.0095001,-0.00354506,0.411309,0.00778882,0.0435958,706,1184,-13.6381,-1.03529
-511,-160,0,0,0,0,0,0,0,0,0,-1,713,1184,0,0
-504,-160,0,0,0,0,0,0,0,0,0,-1,720,1184,0,0
-497,-160,0,0,0,0,0,0,0,0,0,-1,727,1184,0,0
-490,-160,0,0,0,0,0,0,0,0,0,-1,734,1184,0,0
-483,-160,0,0,0,0,0,0,0,0,0,-1,741,1184,0,0
-476,-160,0,0,0,0,0,0,0,0,0,-1,748,1184,0,0
-469,-160,0,0,0,0,0,0,0,0,0,-1,755,1184,0,0
-462,-160,0,0,0,0,0,0,0,0,0,-1,762,1184,0,0
-455,-160,0,0,0,0,0,0,0,0,0,-1,769,1184,0,0
-448,-160,0,0,0,0,0,0,0,0,0,-1,776,1184,0,0
-441,-160,0,0,0,0,0,0,0,0,0,-1,783,1184,0,0
-434,-160,0,0,0,0,0,0,0,0,0,-1,790,1184,0,0
-427,-160,0,0,0,0,0,0,0,0,0,-1,797,1184,0,0
-420,-160,0,0,0,0,0,0,0,0,0,-1,804,1184,0,0
-413,-160,0,0,0,0,0,0,0,0,0,-1,811,1184,0,0
-406,-160,0,0,0,0,0,0,0,0,0,-1,818,1184,0,0
-399,-160,0,0,0,0,0,0,0,0,0,-1,825,1184,0,0
-392,-160,0,0,0,0,0,0,0,0,0,-1,832,1184,0,0
-385,-160,0,0,0,0,0,0,0,0,0,-1,839,1184,0,0
-378,-160,0,0,0,0,0,0,0,0,0,-1,846,1184,0,0
-371,-160,0,0,0,0,0,0,0,0,0,-1,853,1184,0,0
-364,-160,0,0,0,0,0,0,0,0,0,-1,860,1184,0,0
-357,-160,0,0,0,0,0,0,0,0,0,-1,867,1184,0,0
-350,-160,0,0,0,0,0,0,0,0,0,-1,874,1184,0,0
-343,-160,0,0,0,0,0,0,0,0,0,-1,881,1184,0,0
-336,-160,0,0,0,0,0,0,0,0,0,-1,888,1184,0,0
-329,-160,0,0,0,0,0,0,0,0,0,-1,895,1184,0,0
-322,-160,0,0,0,0,0,0,0,0,0,-1,902,1184,0,0
-315,-160,0,0,0,0,0,0,0,0,0,-1,909,1184,0,0
-308,-160,0,0,0,0,0,0,0,0,0,-1,916,1184,0,0
-301,-160,0,0,0,0,0,0,0,0,0,-1,923,1184,0,0
-294,-160,0,0,0,0,0,0,0,0,0,-1,930,1184,0,0
-287,-160,0,0,0,0,0,0,0,0,0,-1,937,1184,0,0
-280,-160,0,0,0,0,0,0,0,0,0,-1,944,1184,0,0
-273,-160,0,0,0,0,0,0,0,0,0,-1,951,1184,0,0
-266,-160,0,0,0,0,0,0,0,0,0,-1,958,1184,0,0
-259,-160,0,0,0,0,0,0,0,0,0,-1,965,1184,0,0
-252,-160,0,0,0,0,0,0,0,0,0,-1,972,1184,0,0
-245,-160,0,0,0,0,0,0,0,0,0,-1,979,1184,0,0
-238,-160,0,0,0,0,0,0,0,0,0,-1,986,1184,0,0
-231,-160,0,0,0,0,0,0,0,0,0,-1,993,1184,0,0
-224,-160,0,0,0,0,0,0,0,0,0,-1,1000,1184,0,0
-217,-160,0,0,0,0,0,0,0,0,0,-1,1007,1184,0,0
-210,-160,0,0,0,0,0,0,0,0,0,-1,1014,1184,0,0
-203,-160,0,0,0,0,0,0,0,0,0,-1,1021,1184,0,0
-196,-160,0,0,0,0,0,0,0,0,0,-1,1028,1184,0,0
-189,-160,0,0,0,0,0,0,0,0,0,-1,1035,1184,0,0
-182,-160,0,0,0,0,0,0,0,0,0,-1,1042,1184,0,0
-175,-160,0,0,0,0,0,0,0,0,0,-1,1049,1184,0,0
-168,-160,0,0,0,0,0,0,0,0,0,-1,1056,1184,0,0
-161,-160,0,0,0,0,0,0,0,0,0,-1,1063,1184,0,0
-154,-160,0,0,0,0,0,0,0,0,0,-1,1070,1184,0,0
-147,-160,0,0,0,0,0,0,0,0,0,-1,1077,1184,0,0
-140,-160,0,0,0,0,0,0,0,0,0,-1,1084,1184,0,0
-133,-160,0,0,0,0,0,0,0,0,0,-1,1091,1184,0,0
-126,-160,0,0,0,0,0,0,0,0,0,-1,1098,1184,0,0
-119,-160,0,0,0,0,0,0,0,0,0,-1,1105,1184,0,0
-112,-160,0,0,0,0,0,0,0,0,0,-1,1112,1184,0,0
-105,-160,0,0,0,0,0,0,0,0,0,-1,1119,1184,0,0
-98,-160,0,0,0,0,0,0,0,0,0,-1,1126,1184,0,0
-91,-160,0,0,0,0,0,0,0,0,0,-1,1133,1184,0,0
-84,-160,0,0,0,0,0,0,0,0,0,-1,1140,1184,0,0
-77,-160,0,0,0,0,0,0,0,0,0,-1,1147,1184,0,0
-70,-160,0,0,0,0,0,0,0,0,0,-1,1154,1184,0,0
-63,-160,0,0,0,0,0,0,0,0,0,-1,1161,1184,0,0
-56,-160,0,0,0,0,0,0,0,0,0,-1,1168,1184,0,0
-49,-160,0,0,0,0,0,0,0,0,0,-1,1175,1184,0,0
-42,-160,0,0,0,0,0,0,0,0,0,-1,1182,1184,0,0
-35,-160,0,0,0,0,0,0,0,0,0,-1,1189,1184,0,0
-28,-160,0,0,0,0,0,0,0,0,0,-1,1196,1184,0,0
-21,-160,0,0,0,0,0,0,0,0,0,-1,1203,1184,0,0
-14,-160,0,0,0,0,0,0,0,0,0,-1,1210,1184,0,0
-7,-160,0,0,0,0,0,0,0,0,0,-1,1217,1184,0,0
0,-160,0,0,0,0,0,0,0,0,0,-1,1224,1184,0,0
7,-160,0,0,0,0,0,0,0,0,0,-1,1231,1184,0,0
14,-160,0,0,0,0,0,0,0,0,0,-1,1238,1184,0,0
21,-160,0,0,0,0,0,0,0,0,0,-1,1245,1184,0,0
28,-160,0,0,0,0,0,0,0,0,0,-1,1252,1184,0,0
35,-160,0,0,0,0,0,0,0,0,0,-1,1259,1184,0,0
42,-160,0,0,0,0,0,0,0,0,0,-1,1266,1184,0,0
49,-160,0,0,0,0,0,0,0,0,0,-1,1273,1184,0,0
56,-160,0,0,0,0,0,0,0,0,0,-1,1280,1184,0,0
63,-160,0,0,0,0,0,0,0,0,0,-1,1287,1184,0,0
70,-160,0,0,0,0,0,0,0,0,0,-1,1294,1184,0,0
77,-160,0,0,0,0,0,0,0,0,0,-1,1301,1184,0,0
84,-160,0,0,0,0,0,0,0,0,0,-1,1308,1184,0,0
91,-160,0,0,0,0,0,0,0,0,0,-1,1315,1184,0,0
98,-160,0,0,0,0,0,0,0,0,0,-1,1322,1184,0,0
105,-160,0,0,0,0,0,0,0,0,0,-1,1329,1184,0,0
112,-160,0,0,0,0,0,0,0,0,0,-1,1336,1184,0,0
119,-160,0,0,0,0,0,0,0,0,0,-1,1343,1184,0,0
126,-160,0,0,0,0,0,0,0,0,0,-1,1350,1184,0,0
133,-160,0,0,0,0,0,0,0,0,0,-1,1357,1184,0,0
140,-160,0,0,0,0,0,0,0,0,0,-1,1364,1184,0,0
147,-160,0,0,0,0,0,0,0,0,0,-1,1371,1184,0,0
154,-160,0,0,0,0,0,0,0,0,0,-1,1378,1184,0,0
161,-160,0,0,0,0,0,0,0,0,0,-1,1385,1184,0,0
168,-160,0,0,0,0,0,0,0,0,0,-1,1392,1184,0,0
175,-160,0,0,0,0,0,0,0,0,0,-1,1399,1184,0,0
182,-160,0,0,0,0,0,0,0,0,0,-1,1406,1184,0,0
189,-160,0,0,0,0,0,0,0,0,0,-1,1413,1184,0,0
196,-160,0,0,0,0,0,0,0,0,0,-1,1420,1184,0,0
203,-160,0,0,0,0,0,0,0,0,0,-1,1427,1184,0,0
210,-160,0,0,0,0,0,0,0,0,0,-1,1434,1184,0,0
217,-160,0,0,0,0,0,0,0,0,0,-1,1441,1184,0,0
224,-160,0,0,0,0,0,0,0,0,0,-1,1448,1184,0,0
231,-160,0,0,0,0,0,0,0,0,0,-1,1455,1184,0,0
238,-160,0,0,0,0,0,0,0,0,0,-1,1462,1184,0,0
245,-160,0,0,0,0,0,0,0,0,0,-1,1469,1184,0,0
252,-160,0,0,0,0,0,0,0,0,0,-1,1476,1184,0,0
259,-160,0,0,0,0,0,0,0,0,0,-1,1483,1184,0,0
266,-160,0,0,0,0,0,0,0,0,0,-1,1490,1184,0,0
273,-160,0,0,0,0,0,0,0,0,0,-1,1497,1184,0,0
280,-160,0,0,0,0,0,0,0,0,0,-1,1504,1184,0,0
287,-160,0,0,0,0,0,0,0,0,0,-1,1511,1184,0,0
294,-160,0,0,0,0,0,0,0,0,0,-1,1518,1184,0,0
301,-160,0,0,0,0,0,0,0,0,0,-1,1525,1184,0,0
308,-160,0,0,0,0,0,0,0,0,0,-1,1532,1184,0,0
315,-160,0,0,0,0,0,0,0,0,0,-1,1539,1184,0,0
322,-160,0,0,0,0,0,0,0,0,0,-1,1546,1184,0,0
329,-160,0,0,0,0,0,0,0,0,0,-1,1553,1184,0,0
336,-160,0,0,0,0,0,0,0,0,0,-1,1560,1184,0,0
343,-160,0,0,0,0,0,0,0,0,0,-1,1567,1184,0,0
350,-160,0,0,0,0,0,0,0,0,0,-1,1574,1184,0,0
357,-160,0,0,0,0,0,0,0,0,0,-1,1581,1184,0,0
364,-160,0,0,0,0,0,0,0,0,0,-1,1588,1184,0,0
371,-160,0,0,0,0,0,0,0,0,0,-1,1595,1184,0,0
378,-160,0,0,0,0,0,0,0,0,0,-1,1602,1184,0,0
385,-160,0,0,0,0,0,0,0,0,0,-1,1609,1184,0,0
392,-160,0,0,0,0,0,0,0,0,0,-1,1616,1184,0,0
399,-160,0,0,0,0,0,0,0,0,0,-1,1623,1184,0,0
406,-160,0,0,0,0,0,0,0,0,0,-1,1630,1184,0,0
413,-160,0,0,0,0,0,0,0,0,0,-1,1637,1184,0,0
420,-160,0,0,0,0,0,0,0,0,0,-1,1644,1184,0,0
427,-160,0,0,0,0,0,0,0,0,0,-1,1651,1184,0,0
434,-160,0,0,0,0,0,0,0,0,0,-1,1658,1184,0,0
441,-160,0,0,0,0,0,0,0,0,0,-1,1665,1184,0,0
448,-160,0,0,0,0,0,0,0,0,0,-1,1672,1184,0,0
455,-160,0,0,0,0,0,0,0,0,0,-1,1679,1184,0,0
462,-160,0,0,0,0,0,0,0,0,0,-1,1686,1184,0,0
469,-160,0,0,0,0,0,0,0,0,0,-1,1693,1184,0,0
476,-160,0,0,0,0,0,0,0,0,0,-1,1700,1184,0,0
483,-160,0,0,0,0,0,0,0,0,0,-1,1707,1184,0,0
490,-160,0,0,0,0,0,0,0,0,0,-1,1714,1184,0,0
497,-160,0,0,0,0,0,0,0,0,0,-1,1721,1184,0,0
504,-160,0,0,0,0,0,0,0,0,0,-1,1728,1184,0,0
511,-160,0,0,0,0,0,0,0,0,0,-1,1735,1184,0,0
518,-160,0,0,0,0,0,0,0,0,0,-1,1742,1184,0,0
525,-160,0,0,0,0,0,0,0,0,0,-1,1749,1184,0,0
532,-160,0,0,0,0,0,0,0,0,0,-1,1756,1184,0,0
539,-160,0,0,0,0,0,0,0,0,0,-1,1763,1184,0,0
546,-160,0,0,0,0,0,0,0,0,0,-1,1770,1184,0,0
553,-160,0,0,0,0,0,0,0,0,0,-1,1777,1184,0,0
560,-160,0,0,0,0,0,0,0,0,0,-1,1784,1184,0,0
567,-160,0,0,0,0,0,0,0,0,0,-1,1791,1184,0,0
574,-160,0,0,0,0,0,0,0,0,0,-1,1798,1184,0,0
581,-160,0,0,0,0,0,0,0,0,0,-1,1805,1184,0,0
588,-160,0,0,0,0,0,0,0,0,0,-1,1812,1184,0,0
595,-160,0,0,0,0,0,0,0,0,0,-1,1819,1184,0,0
602,-160,0,0,0,0,0,0,0,0,0,-1,1826,1184,0,0
609,-160,0,0,0,0,0,0,0,0,0,-1,1833,1184,0,0
616,-160,0,0,0,0,0,0,0,0,0,-1,1840,1184,0,0
623,-160,0,0,0,0,0,0,0,0,0,-1,1847,1184,0,0
630,-160,0,0,0,0,0,0,0,0,0,-1,1854,1184,0,0
637,-160,21.5194,3.08765,0.00685746,-0.000369756,0.000444847,0.00688473,-0.000397034,0.0612435,0.00472773,0.0408766,1861,1184,21.5194,-3.08762
644,-160,21.5879,2.97302,0.00523787,-0.000435456,0.000407329,0.00526697,-0.000464552,0.0713096,0.00367596,0.0409673,1868,1184,21.5879,-2.97301
651,-160,21.7101,2.88977,0.00396237,-0.000185451,6.50604e-05,0.00396339,-0.000186471,0.0156803,0.00270656,0.0382081,1875,1184,21.71,-2.88971
658,-160,21.6877,2.81714,0.00265866,-0.000213474,4.05577e-05,0.00265923,-0.000214046,0.0141174,0.00184831,0.0376656,1882,1184,21.6877,-2.81711
665,-160,21.6984,2.77844,0.000940611,-0.000573923,0.000505284,0.00109371,-0.000727021,0.294202,0.00105828,0.0367476,1889,1184,21.6983,-2.77848
672,-160,21.6429,2.78503,-0.000663333,-0.000969158,0.00100669,0.000201996,-0.00183449,0.710027,0.00129558,0.0338284,1896,1184,21.6429,-2.78498
679,-160,21.6418,2.78931,-0.00210881,-0.0013754,0.00153784,-0.000161143,-0.00332306,0.90244,0.00216366,0.0266743,1903,1184,21.6418,-2.78928
686,-160,21.7205,2.77319,-0.003255,-0.00180364,0.00198685,-0.000414092,-0.00464454,0.960492,0.00296797,0.0181035,1910,1184,21.7204,-2.77323
693,-160,21.7189,2.73328,-0.00420018,-0.00202819,0.00239753,-0.000482167,-0.00574621,0.998056,0.00368063,0.0491261,1917,1184,21.7189,-2.73323
700,-160,21.7173,2.68152,0,0,0,0,0,0,0,-1,1924,1184,21.7173,-2.68157
707,-160,20.0229,5.07446,0,0,0,0,0,0,0,-1,1931,1184,20.023,-5.07451
714,-160,20.0262,4.70264,-0.00583261,-0.00220653,0.00298202,-0.000529651,-0.00750949,1.05854,0.00483945,0.0350611,1938,1184,20.0262,-4.70264
721,-160,20.0009,4.42615,-0.00579797,-0.00211843,0.00308972,-0.000362213,-0.00755418,1.05393,0.00491983,0.016961,1945,1184,20.0008,-4.42609
728,-160,19.9528,4.35547,-0.00509798,-0.00189766,0.00272592,-0.00033694,-0.0066587,1.05081,0.00433119,0.0152437,1952,1184,19.9528,-4.35548
735,-160,19.8457,4.27637,-0.00392971,-0.00151394,0.00185574,-0.000507613,-0.00493604,1.0739,0.00313522,0.0130909,1959,1184,19.8456,-4.27634
742,-160,19.8713,4.15222,-0.00227935,-0.0007515,0.000367356,-0.000667763,-0.00236309,1.34668,0.00140667,0.0148146,1966,1184,19.8713,-4.15217
749,-160,19.8578,4.02209,-0.000218818,-0.000414502,-0.00131334,0.00100032,-0.00163364,-0.748217,0.0015353,0.0164517,1973,1184,19.8578,-4.02206
756,-160,19.8456,3.9397,0.00217861,-0.000648317,-0.00353973,0.00457665,-0.00304636,-0.595441,0.00443061,0.010793,1980,1184,19.8456,-3.93967
763,-160,19.84,3.82874,0.00480147,-0.000767377,-0.0058639,0.00850845,-0.00447435,-0.563738,0.00761529,0.0114407,1987,1184,19.84,-3.82869
770,-160,19.816,3.67529,0.00716728,-0.00150075,-0.00834887,0.01224,-0.00657351,-0.545987,0.011025,0.0172051,1994,1184,19.816,-3.67534
777,-160,19.847,3.53625,0.00937925,-0.00294895,-0.0110141,0.0158368,-0.00940651,-0.530285,0.014731,0.0310748,2001,1184,19.8471,-3.53631
784,-160,19.9198,3.33838,0.0115633,-0.00525325,-0.0139268,0.0194232,-0.0131132,-0.513813,0.0189023,0.0439072,2008,1184,19.9198,-3.33843
791,-160,19.7389,2.76355,0.0136959,-0.00872791,-0.0169315,0.0227912,-0.0178232,-0.492949,0.0235072,0.0460395,2015,1184,19.7388,-2.76349
798,-160,19.8451,2.31311,0,0,0,0,0,0,0,-1,2022,1184,19.8451,-2.31307
805,-160,20.1917,1.67798,0,0,0,0,0,0,0,-1,2029,1184,20.1915,-1.67793
812,-160,0,0,0,0,0,0,0,0,0,-1,2036,1184,0,0
-700,-167,0,0,0,0,0,0,0,0,0,-1,524,1191,0,0
-693,-167,0,0,0,0,0,0,0,0,0,-1,531,1191,0,0
-686,-167,-13.4345,-2.10449,0.0762249,0.0105493,-0.0217593,0.0827799,0.00399436,-0.292602,0.0539045,0.0463836,538,1191,-13.4345,2.10444
-679,-167,-13.2439,-1.95227,0.0599629,0.0130897,-0.0177322,0.0659151,0.00713746,-0.323857,0.041768,0.0454619,545,1191,-13.2439,1.95223
-672,-167,-12.2359,-2.7312,0.0466077,0.0137302,-0.0143425,0.051985,0.00835293,-0.3587,0.0322351,0.0440891,552,1191,-12.2359,2.73123
-665,-167,-11.6966,-2.11584,0.0355384,0.0132757,-0.011433,0.0403638,0.00845023,-0.399382,0.0245815,0.0478439,559,1191,-11.6966,2.11587
-658,-167,-11.4861,-1.38953,0,0,0,0,0,0,0,-1,566,1191,-11.4861,1.38951
-651,-167,-11.7476,1.00647,0,0,0,0,0,0,0,-1,573,1191,-11.7476,-1.00643
-644,-167,-11.7686,1.15771,0.012463,0.00880236,-0.00508618,0.0160382,0.0052272,-0.612682,0.00944486,0.0415605,580,1191,-11.7686,-1.15769
-637,-167,-11.8057,1.30872,0.00716189,0.00701613,-0.00381023,0.0108999,0.00327808,-0.775836,0.00645751,0.0172204,587,1191,-11.8057,-1.3087
-630,-167,-11.8265,1.43005,0.00277875,0.00490461,-0.00285023,0.00688365,0.000799704,-0.963875,0.00434712,0.00878614,594,1191,-11.8265,-1.43006
-623,-167,-11.8327,1.54688,-0.001597,0.00377064,-0.00284381,0.00499709,-0.00282344,-1.16363,0.00457295,0.0100936,601,1191,-11.8327,-1.54684
-616,-167,-11.838,1.70129,-0.00465632,0.00183046,-0.00327525,0.0031965,-0.00602236,-1.17565,0.00540522,0.0142931,608,1191,-11.838,-1.70124
-609,-167,-11.8661,1.88489,-0.00673821,-0.000836624,-0.00403805,0.00121388,-0.00878872,-1.10093,0.00630286,0.0150453,615,1191,-11.8661,-1.88487
-602,-167,-11.885,2.01416,-0.00817361,-0.00173915,-0.00526097,0.00121033,-0.0111231,-1.05982,0.00785,0.0150975,622,1191,-11.885,-2.01419
-595,-167,-11.8768,2.17249,-0.00894044,-0.00264973,-0.00634638,0.00128798,-0.0128781,-1.01546,0.00904537,0.0199772,629,1191,-11.8768,-2.17254
-588,-167,-11.8776,2.38062,-0.00932056,-0.00316556,-0.00703971,0.00143994,-0.0139261,-0.991462,0.00979935,0.0189548,636,1191,-11.8776,-2.38057
-581,-167,-11.8548,2.46179,-0.00934464,-0.00365263,-0.0072545,0.00129416,-0.0142914,-0.972327,0.00998699,0.0201245,643,1191,-11.8548,-2.46182
-574,-167,-12.0864,2.62671,-0.00888822,-0.00371826,-0.00721337,0.00135932,-0.0139658,-0.95745,0.00979513,0.041952,650,1191,-12.0864,-2.62677
-567,-167,-13.067,1.31226,0,0,0,0,0,0,0,-1,657,1191,-13.067,-1.3122
-560,-167,-14.0146,0.940918,-0.00672951,-0.00386235,-0.00647004,0.00133103,-0.0119229,-0.894423,0.00842737,0.0405452,664,1191,-14.0147,-0.940941
-553,-167,-13.8842,0.873657,-0.00485937,-0.00368627,-0.00551654,0.00127482,-0.00982046,-0.838362,0.00701065,0.0375469,671,1191,-13.8841,-0.873714
-546,-167,-13.9422,0.850098,-0.00233573,-0.00335115,-0.00406564,0.00125378,-0.00694065,-0.72328,0.00509669,0.0349356,678,1191,-13.9422,-0.850057
-539,-167,-13.9763,0.957886,0.000848317,-0.00287508,-0.00205711,0.00176107,-0.00378784,-0.41761,0.00327413,0.0411496,685,1191,-13.9763,-0.957833
-532,-167,-13.9463,1.04504,0.00488431,-0.00229493,0.000588332,0.0049322,-0.00234282,0.0812269,0.00428801,0.0451549,692,1191,-13.9463,-1.04501
-525,-167,-13.7308,1.08618,0.00881892,-0.0019297,0.00327376,0.00973752,-0.0028483,0.27356,0.00762066,0.0453581,699,1191,-13.7308,-1.08617
-518,-167,-13.6249,0.969238,0.00887189,-0.00315221,0.00374136,0.00994098,-0.0042213,0.278331,0.00839593,0.0465316,706,1191,-13.625,-0.969224
-511,-167,0,0,0,0,0,0,0,0,0,-1,713,1191,0,0
-504,-167,0,0,0,0,0,0,0,0,0,-1,720,1191,0,0
-497,-167,0,0,0,0,0,0,0,0,0,-1,727,1191,0,0
-490,-167,0,0,0,0,0,0,0,0,0,-1,734,1191,0,0
-483,-167,0,0,0,0,0,0,0,0,0,-1,741,1191,0,0
-476,-167,0,0,0,0,0,0,0,0,0,-1,748,1191,0,0
-469,-167,0,0,0,0,0,0,0,0,0,-1,755,1191,0,0
-462,-167,0,0,0,0,0,0,0,0,0,-1,762,1191,0,0
-455,-167,0,0,0,0,0,0,0,0,0,-1,769,1191,0,0
-448,-167,0,0,0,0,0,0,0,0,0,-1,776,1191,0,0
-441,-167,0,0,0,0,0,0,0,0,0,-1,783,1191,0,0
-434,-167,0,0,0,0,0,0,0,0,0,-1,790,1191,0,0
-427,-167,0,0,0,0,0,0,0,0,0,-1,797,1191,0,0
-420,-167,0,0,0,0,0,0,0,0,0,-1,804,1191,0,0
-413,-167,0,0,0,0,0,0,0,0,0,-1,811,1191,0,0
-406,-167,0,0,0,0,0,0,0,0,0,-1,818,1191,0,0
-399,-167,0,0,0,0,0,0,0,0,0,-1,825,1191,0,0
-392,-167,0,0,0,0,0,0,0,0,0,-1,832,1191,0,0
-385,-167,0,0,0,0,0,0,0,0,0,-1,839,1191,0,0
-378,-167,0,0,0,0,0,0,0,0,0,-1,846,1191,0,0
-371,-167,0,0,0,0,0,0,0,0,0,-1,853,1191,0,0
-364,-167,0,0,0,0,0,0,0,0,0,-1,860,1191,0,0
-357,-167,0,0,0,0,0,0,0,0,0,-1,867,1191,0,0
-350,-167,0,0,0,0,0,0,0,0,0,-1,874,1191,0,0
-343,-167,0,0,0,0,0,0,0,0,0,-1,881,1191,0,0
-336,-167,0,0,0,0,0,0,0,0,0,-1,888,1191,0,0
-329,-167,0,0,0,0,0,0,0,0,0,-1,895,1191,0,0
-322,-167,0,0,0,0,0,0,0,0,0,-1,902,1191,0,0
-315,-167,0,0,0,0,0,0,0,0,0,-1,909,1191,0,0
-308,-167,0,0,0,0,0,0,0,0,0,-1,916,1191,0,0
-301,-167,0,0,0,0,0,0,0,0,0,-1,923,1191,0,0
-294,-167,0,0,0,0,0,0,0,0,0,-1,930,1191,0,0
-287,-167,0,0,0,0,0,0,0,0,0,-1,937,1191,0,0
-280,-167,0,0,0,0,0,0,0,0,0,-1,944,1191,0,0
-273,-167,0,0,0,0,0,0,0,0,0,-1,951,1191,0,0
-266,-167,0,0,0,0,0,0,0,0,0,-1,958,1191,0,0
-259,-167,0,0,0,0,0,0,0,0,0,-1,965,1191,0,0
-252,-167,0,0,0,0,0,0,0,0,0,-1,972,1191,0,0
-245,-167,0,0,0,0,0,0,0,0,0,-1,979,1191,0,0
-238,-167,0,0,0,0,0,0,0,0,0,-1,986,1191,0,0
-231,-167,0,0,0,0,0,0,0,0,0,-1,993,1191,0,0
-224,-167,0,0,0,0,0,0,0,0,0,-1,1000,1191,0,0
-217,-167,0,0,0,0,0,0,0,0,0,-1,1007,1191,0,0
-210,-167,0,0,0,0,0,0,0,0,0,-1,1014,1191,0,0
-203,-167,0,0,0,0,0,0,0,0,0,-1,1021,1191,0,0
-196,-167,0,0,0,0,0,0,0,0,0,-1,1028,1191,0,0
-189,-167,0,0,0,0,0,0,0,0,0,-1,1035,1191,0,0
-182,-167,0,0,0,0,0,0,0,0,0,-1,1042,1191,0,0
-175,-167,0,0,0,0,0,0,0,0,0,-1,1049,1191,0,0
-168,-167,0,0,0,0,0,0,0,0,0,-1,1056,1191,0,0
-161,-167,0,0,0,0,0,0,0,0,0,-1,1063,1191,0,0
-154,-167,0,0,0,0,0,0,0,0,0,-1,1070,1191,0,0
-147,-167,0,0,0,0,0,0,0,0,0,-1,1077,1191,0,0
-140,-167,0,0,0,0,0,0,0,0,0,-1,1084,1191,0,0
-133,-167,0,0,0,0,0,0,0,0,0,-1,1091,1191,0,0
-126,-167,0,0,0,0,0,0,0,0,0,-1,1098,1191,0,0
-119,-167,0,0,0,0,0,0,0,0,0,-1,1105,1191,0,0
-112,-167,0,0,0,0,0,0,0,0,0,-1,1112,1191,0,0
-105,-167,0,0,0,0,0,0,0,0,0,-1,1119,1191,0,0
-98,-167,0,0,0,0,0,0,0,0,0,-1,1126,1191,0,0
-91,-167,0,0,0,0,0,0,0,0,0,-1,1133,1191,0,0
-84,-167,0,0,0,0,0,0,0,0,0,-1,1140,1191,0,0
-77,-167,0,0,0,0,0,0,0,0,0,-1,1147,1191,0,0
-70,-167,0,0,0,0,0,0,0,0,0,-1,1154,1191,0,0
-63,-167,0,0,0,0,0,0,0,0,0,-1,1161,1191,0,0
-56,-167,0,0,0,0,0,0,0,0,0,-1,1168,1191,0,0
-49,-167,0,0,0,0,0,0,0,0,0,-1,1175,1191,0,0
-42,-167,0,0,0,0,0,0,0,0,0,-1,1182,1191,0,0
-35,-167,0,0,0,0,0,0,0,0,0,-1,1189,1191,0,0
-28,-167,0,0,0,0,0,0,0,0,0,-1,1196,1191,0,0
-21,-167,0,0,0,0,0,0,0,0,0,-1,1203,1191,0,0
-14,-167,0,0,0,0,0,0,0,0,0,-1,1210,1191,0,0
-7,-167,0,0,0,0,0,0,0,0,0,-1,1217,1191,0,0
0,-167,0,0,0,0,0,0,0,0,0,-1,1224,1191,0,0
7,-167,0,0,0,0,0,0,0,0,0,-1,1231,1191,0,0
14,-167,0,0,0,0,0,0,0,0,0,-1,1238,1191,0,0
21,-167,0,0,0,0,0,0,0,0,0,-1,1245,1191,0,0
28,-167,0,0,0,0,0,0,0,0,0,-1,1252,1191,0,0
35,-167,0,0,0,0,0,0,0,0,0,-1,1259,1191,0,0
42,-167,0,0,0,0,0,0,0,0,0,-1,1266,1191,0,0
49,-167,0,0,0,0,0,0,0,0,0,-1,1273,1191,0,0
56,-167,0,0,0,0,0,0,0,0,0,-1,1280,1191,0,0
63,-167,0,0,0,0,0,0,0,0,0,-1,1287,1191,0,0
70,-167,0,0,0,0,0,0,0,0,0,-1,1294,1191,0,0
77,-167,0,0,0,0,0,0,0,0,0,-1,1301,1191,0,0
84,-167,0,0,0,0,0,0,0,0,0,-1,1308,1191,0,0
91,-167,0,0,0,0,0,0,0,0,0,-1,1315,1191,0,0
98,-167,0,0,0,0,0,0,0,0,0,-1,1322,1191,0,0
105,-167,0,0,0,0,0,0,0,0,0,-1,1329,1191,0,0
112,-167,0,0,0,0,0,0,0,0,0,-1,1336,1191,0,0
119,-167,0,0,0,0,0,0,0,0,0,-1,1343,1191,0,0
126,-167,0,0,0,0,0,0,0,0,0,-1,1350,1191,0,0
133,-167,0,0,0,0,0,0,0,0,0,-1,1357,1191,0,0
140,-167,0,0,0,0,0,0,0,0,0,-1,1364,1191,0,0
147,-167,0,0,0,0,0,0,0,0,0,-1,1371,1191,0,0
154,-167,0,0,0,0,0,0,0,0,0,-1,1378,1191,0,0
161,-167,0,0,0,0,0,0,0,0,0,-1,1385,1191,0,0
168,-167,0,0,0,0,0,0,0,0,0,-1,1392,1191,0,0
175,-167,0,0,0,0,0,0,0,0,0,-1,1399,1191,0,0
182,-167,0,0,0,0,0,0,0,0,0,-1,1406,1191,0,0
189,-167,0,0,0,0,0,0,0,0,0,-1,1413,1191,0,0
196,-167,0,0,0,0,0,0,0,0,0,-1,1420,1191,0,0
203,-167,0,0,0,0,0,0,0,0,0,-1,1427,1191,0,0
210,-167,0,0,0,0,0,0,0,0,0,-1,1434,1191,0,0
217,-167,0,0,0,0,0,0,0,0,0,-1,1441,1191,0,0
224,-167,0,0,0,0,0,0,0,0,0,-1,1448,1191,0,0
231,-167,0,0,0,0,0,0,0,0,0,-1,1455,1191,0,0
238,-167,0,0,0,0,0,0,0,0,0,-1,1462,1191,0,0
245,-167,0,0,0,0,0,0,0,0,0,-1,1469,1191,0,0
252,-167,0,0,0,0,0,0,0,0,0,-1,1476,1191,0,0
259,-167,0,0,0,0,0,0,0,0,0,-1,1483,1191,0,0
266,-167,0,0,0,0,0,0,0,0,0,-1,1490,1191,0,0
273,-167,0,0,0,0,0,0,0,0,0,-1,1497,1191,0,0
280,-167,0,0,0,0,0,0,0,0,0,-1,1504,1191,0,0
287,-167,0,0,0,0,0,0,0,0,0,-1,1511,1191,0,0
294,-167,0,0,0,0,0,0,0,0,0,-1,1518,1191,0,0
301,-167,0,0,0,0,0,0,0,0,0,-1,1525,1191,0,0
308,-167,0,0,0,0,0,0,0,0,0,-1,1532,1191,0,0
315,-167,0,0,0,0,0,0,0,0,0,-1,1539,1191,0,0
322,-167,0,0,0,0,0,0,0,0,0,-1,1546,1191,0,0
329,-167,0,0,0,0,0,0,0,0,0,-1,1553,1191,0,0
336,-167,0,0,0,0,0,0,0,0,0,-1,1560,1191,0,0
343,-167,0,0,0,0,0,0,0,0,0,-1,1567,1191,0,0
350,-167,0,0,0,0,0,0,0,0,0,-1,1574,1191,0,0
357,-167,0,0,0,0,0,0,0,0,0,-1,1581,1191,0,0
364,-167,0,0,0,0,0,0,0,0,0,-1,1588,1191,0,0
371,-167,0,0,0,0,0,0,0,0,0,-1,1595,1191,0,0
378,-167,0,0,0,0,0,0,0,0,0,-1,1602,1191,0,0
385,-167,0,0,0,0,0,0,0,0,0,-1,1609,1191,0,0
392,-167,0,0,0,0,0,0,0,0,0,-1,1616,1191,0,0
399,-167,0,0,0,0,0,0,0,0,0,-1,1623,1191,0,0
406,-167,0,0,0,0,0,0,0,0,0,-1,1630,1191,0,0
413,-167,0,0,0,0,0,0,0,0,0,-1,1637,1191,0,0
420,-167,0,0,0,0,0,0,0,0,0,-1,1644,1191,0,0
427,-167,0,0,0,0,0,0,0,0,0,-1,1651,1191,0,0
434,-167,0,0,0,0,0,0,0,0,0,-1,1658,1191,0,0
441,-167,0,0,0,0,0,0,0,0,0,-1,1665,1191,0,0
448,-167,0,0,0,0,0,0,0,0,0,-1,1672,1191,0,0
455,-167,0,0,0,0,0,0,0,0,0,-1,1679,1191,0,0
462,-167,0,0,0,0,0,0,0,0,0,-1,1686,1191,0,0
469,-167,0,0,0,0,0,0,0,0,0,-1,1693,1191,0,0
476,-167,0,0,0,0,0,0,0,0,0,-1,1700,1191,0,0
483,-167,0,0,0,0,0,0,0,0,0,-1,1707,1191,0,0
490,-167,0,0,0,0,0,0,0,0,0,-1,1714,1191,0,0
497,-167,0,0,0,0,0,0,0,0,0,-1,1721,1191,0,0
504,-167,0,0,0,0,0,0,0,0,0,-1,1728,1191,0,0
511,-167,0,0,0,0,0,0,0,0,0,-1,1735,1191,0,0
518,-167,0,0,0,0,0,0,0,0,0,-1,1742,1191,0,0
525,-167,0,0,0,0,0,0,0,0,0,-1,1749,1191,0,0
532,-167,0,0,0,0,0,0,0,0,0,-1,1756,1191,0,0
539,-167,0,0,0,0,0,0,0,0,0,-1,1763,1191,0,0
546,-167,0,0,0,0,0,0,0,0,0,-1,1770,1191,0,0
553,-167,0,0,0,0,0,0,0,0,0,-1,1777,1191,0,0
560,-167,0,0,0,0,0,0,0,0,0,-1,1784,1191,0,0
567,-167,0,0,0,0,0,0,0,0,0,-1,1791,1191,0,0
574,-167,0,0,0,0,0,0,0,0,0,-1,1798,1191,0,0
581,-167,0,0,0,0,0,0,0,0,0,-1,1805,1191,0,0
588,-167,0,0,0,0,0,0,0,0,0,-1,1812,1191,0,0
595,-167,0,0,0,0,0,0,0,0,0,-1,1819,1191,0,0
602,-167,0,0,0,0,0,0,0,0,0,-1,1826,1191,0,0
609,-167,0,0,0,0,0,0,0,0,0,-1,1833,1191,0,0
616,-167,0,0,0,0,0,0,0,0,0,-1,1840,1191,0,0
623,-167,0,0,0,0,0,0,0,0,0,-1,1847,1191,0,0
630,-167,0,0,0,0,0,0,0,0,0,-1,1854,1191,0,0
637,-167,21.5369,2.96838,0.00612042,0.000736383,0.000330648,0.00614065,0.000716153,0.0611065,0.00387716,0.039731,1861,1191,21.5368,-2.96839
644,-167,21.7159,2.72266,0.00467505,0.000449941,0.000229866,0.00468752,0.000437472,0.0541916,0.00298988,0.0424608,1868,1191,21.716,-2.72267
651,-167,21.7676,2.89771,0.00355197,0.000415565,-0.000113477,0.00355607,0.000411465,-0.0361177,0.00224616,0.0416219,1875,1191,21.7676,-2.8977
658,-167,21.6925,2.91223,0.00231579,0.000103084,-9.24736e-05,0.00231965,9.9226e-05,-0.0416952,0.00151444,0.0420624,1882,1191,21.6926,-2.91219
665,-167,21.7319,2.85376,0.000854609,-0.00039596,0.000280841,0.000914782,-0.000456133,0.21107,0.000806129,0.0381729,1889,1191,21.7319,-2.8537
672,-167,21.6812,2.79724,-0.000470181,-0.000866408,0.000662338,2.30382e-05,-0.00135963,0.640077,0.000914194,0.0288507,1896,1191,21.6812,-2.79729
679,-167,21.6819,2.80359,-0.00167976,-0.00128866,0.0010987,-0.00036824,-0.00260018,0.873467,0.00162467,0.0229545,1903,1191,21.6819,-2.80355
686,-167,21.7177,2.78931,-0.00263324,-0.00172598,0.00145889,-0.000651824,-0.0037074,0.93613,0.00228552,0.0319922,1910,1191,21.7176,-2.78928
693,-167,21.7281,2.81506,0,0,0,0,0,0,0,-1,1917,1191,21.7282,-2.81507
700,-167,20.5759,4.15552,0,0,0,0,0,0,0,-1,1924,1191,20.576,-4.1555
707,-167,19.7272,4.85132,-0.00469413,-0.00211252,0.00215549,-0.000890894,-0.00591575,1.05518,0.00368297,0.0384624,1931,1191,19.7271,-4.85136
714,-167,19.8965,4.73413,-0.00495393,-0.0021349,0.00235952,-0.00079595,-0.00629288,1.05464,0.00395671,0.0269585,1938,1191,19.8965,-4.73413
721,-167,19.897,4.45227,-0.00489243,-0.00203444,0.00249883,-0.000584857,-0.00634201,1.04514,0.00404716,0.0219021,1945,1191,19.897,-4.45222
728,-167,19.8068,4.38916,-0.00416503,-0.00179467,0.00216508,-0.000511602,-0.00544809,1.03582,0.00347411,0.0148361,1952,1191,19.8068,-4.38921
735,-167,19.7185,4.30359,-0.00301078,-0.00139913,0.00141672,-0.000575094,-0.00383482,1.04398,0.00238804,0.0134916,1959,1191,19.7186,-4.3036
742,-167,19.7134,4.17493,-0.00132748,-0.00079056,0.000112181,-0.000768064,-0.00134997,1.37289,0.000781874,0.0154889,1966,1191,19.7134,-4.17493
749,-167,19.7208,4.05493,0.000786578,-0.000651761,-0.00138595,0.00162884,-0.00149403,-0.546072,0.00180355,0.0142017,1973,1191,19.7208,-4.05489
756,-167,19.7324,3.94739,0.00322984,-0.00129094,-0.00332049,0.00498629,-0.00304739,-0.486557,0.00468306,0.0105906,1980,1191,19.7325,-3.94741
763,-167,19.7047,3.81287,0.00581759,-0.00190624,-0.00533301,0.00854015,-0.00462881,-0.472022,0.00771408,0.0115546,1987,1191,19.7048,-3.81292
770,-167,19.6563,3.67175,0.00823706,-0.00326213,-0.00747695,0.0119195,-0.00694454,-0.45763,0.0110167,0.021429,1994,1191,19.6563,-3.67177
777,-167,19.9565,3.57544,0.0105634,-0.00551951,-0.0098231,0.0152167,-0.0101729,-0.442401,0.0147548,0.0381703,2001,1191,19.9565,-3.57542
784,-167,20.1683,3.21448,0.012809,-0.00891938,-0.0123896,0.0184231,-0.0145334,-0.42545,0.0190716,0.045012,2008,1191,20.1683,-3.21448
791,-167,19.9659,2.823,0.0149009,-0.0138391,-0.0150448,0.0213358,-0.020274,-0.404168,0.024026,0.0449991,2015,1191,19.9659,-2.82296
798,-167,19.6899,2.27893,0.0168299,-0.0207921,-0.017605,0.0237831,-0.0277452,-0.376147,0.0297791,0.0468901,2022,1191,19.6899,-2.27893
805,-167,20.033,1.84558,0.0182056,-0.030534,-0.0196232,0.0251241,-0.0374525,-0.33896,0.0363616,0.0491611,2029,1191,20.0329,-1.8456
812,-167,0,0,0,0,0,0,0,0,0,-1,2036,1191,0,0
-700,-174,0,0,0,0,0,0,0,0,0,-1,524,1198,0,0
-693,-174,0,0,0,0,0,0,0,0,0,-1,531,1198,0,0
-686,-174,-13.1791,-2.39185,0,0,0,0,0,0,0,-1,538,1198,-13.1791,2.39183
-679,-174,-12.7285,0.390869,0.0480246,0.0097557,-0.0217678,0.0578723,-9.20277e-05,-0.424846,0.0386122,0.0402399,545,1198,-12.7285,-0.390878
-672,-174,-12.9204,1.23682,0.0371776,0.0108693,-0.0179123,0.0462469,0.00179998,-0.468688,0.0302491,0.043717,552,1198,-12.9204,-1.23676
-665,-174,-10.8763,-2.66064,0,0,0,0,0,0,0,-1,559,1198,-10.8763,2.66065
-658,-174,-12.5928,2.45203,0,0,0,0,0,0,0,-1,566,1198,-12.5928,-2.45208
-651,-174,-11.8936,1.09265,0,0,0,0,0,0,0,-1,573,1198,-11.8936,-1.09261
-644,-174,-11.7512,1.17615,0.00909671,0.0073699,-0.00677469,0.0150628,0.00140381,-0.722017,0.00960817,0.0454955,580,1198,-11.7512,-1.17609
-637,-174,-11.6076,1.28284,0.00480612,0.00584283,-0.00503824,0.0103893,0.000259647,-0.83666,0.0068413,0.0237035,587,1198,-11.6076,-1.28287
-630,-174,-11.6344,1.41577,0.00123706,0.00408594,-0.00374804,0.00667109,-0.00134809,-0.966993,0.00495822,0.0125336,594,1198,-11.6344,-1.41582
-623,-174,-11.6509,1.55359,-0.00232259,0.00323766,-0.00328745,0.00476293,-0.00384787,-1.13639,0.00498079,0.0130797,601,1198,-11.6509,-1.55355
-616,-174,-11.6415,1.74097,-0.0048012,0.00153347,-0.00329694,0.00293799,-0.00620572,-1.16807,0.00539032,0.0198563,608,1198,-11.6414,-1.74092
-609,-174,-11.6903,1.89587,-0.00646262,-0.000874349,-0.003728,0.000990398,-0.00832737,-1.10699,0.00590944,0.0230308,615,1198,-11.6903,-1.89591
-602,-174,-11.7419,2.01318,-0.00757715,-0.00150531,-0.00467018,0.00102899,-0.0101114,-1.07361,0.00710883,0.0151275,622,1198,-11.742,-2.01315
-595,-174,-11.7018,2.18982,-0.00812622,-0.00227255,-0.00557406,0.00109637,-0.0114951,-1.02715,0.00805379,0.0128034,629,1198,-11.7018,-2.18983
-588,-174,-11.7545,2.36108,-0.00834866,-0.00271983,-0.00621018,0.00128391,-0.0123524,-0.998152,0.00869456,0.015324,636,1198,-11.7544,-2.36105
-581,-174,-11.7494,2.50049,-0.0083026,-0.00311594,-0.0064522,0.00124459,-0.0126631,-0.976483,0.00888605,0.0191236,643,1198,-11.7494,-2.50054
-574,-174,-12.2208,2.56445,-0.00782847,-0.00312429,-0.00649342,0.00142991,-0.0123827,-0.959161,0.00877069,0.0447586,650,1198,-12.2208,-2.56442
-567,-174,-13.0582,2.27002,0,0,0,0,0,0,0,-1,657,1198,-13.0582,-2.27006
-560,-174,-14.1132,1.40454,-0.0058283,-0.00337314,-0.00604403,0.00156672,-0.0107682,-0.885588,0.00775395,0.0469189,664,1198,-14.1132,-1.40452
-553,-174,-13.986,1.06445,-0.00415687,-0.00335635,-0.00541155,0.00166973,-0.00918294,-0.822313,0.00674775,0.0354798,671,1198,-13.986,-1.06449
-546,-174,-13.8742,0.873657,-0.00193669,-0.00324836,-0.00438936,0.00184556,-0.00703061,-0.71124,0.00540826,0.0286046,678,1198,-13.8742,-0.873688
-539,-174,-13.9791,1.06079,0.000889798,-0.00311819,-0.00293462,0.00243939,-0.00466778,-0.485826,0.00417002,0.0351568,685,1198,-13.9791,-1.06082
-532,-174,-14.0706,1.3114,0.00453656,-0.00304493,-0.000945567,0.00465271,-0.00316108,-0.122226,0.00453861,0.0454011,692,1198,-14.0706,-1.3114
-525,-174,-14.019,1.14343,0.00852026,-0.00330342,0.00128995,0.00865936,-0.00344252,0.107415,0.00720017,0.0449943,699,1198,-14.0191,-1.14343
-518,-174,-13.8695,0.854858,0.00991135,-0.0052024,0.00193814,0.0101559,-0.00544698,0.125531,0.00914408,0.0444719,706,1198,-13.8695,-0.854852
-511,-174,0,0,0,0,0,0,0,0,0,-1,713,1198,0,0
-504,-174,0,0,0,0,0,0,0,0,0,-1,720,1198,0,0
-497,-174,0,0,0,0,0,0,0,0,0,-1,727,1198,0,0
-490,-174,0,0,0,0,0,0,0,0,0,-1,734,1198,0,0
-483,-174,0,0,0,0,0,0,0,0,0,-1,741,1198,0,0
-476,-174,0,0,0,0,0,0,0,0,0,-1,748,1198,0,0
-469,-174,0,0,0,0,0,0,0,0,0,-1,755,1198,0,0
-462,-174,0,0,0,0,0,0,0,0,0,-1,762,1198,0,0
-455,-174,0,0,0,0,0,0,0,0,0,-1,769,1198,0,0
-448,-174,0,0,0,0,0,0,0,0,0,-1,776,1198,0,0
-441,-174,0,0,0,0,0,0,0,0,0,-1,783,1198,0,0
-434,-174,0,0,0,0,0,0,0,0,0,-1,790,1198,0,0
-427,-174,0,0,0,0,0,0,0,0,0,-1,797,1198,0,0
-420,-174,0,0,0,0,0,0,0,0,0,-1,804,1198,0,0
-413,-174,0,0,0,0,0,0,0,0,0,-1,811,1198,0,0
-406,-174,0,0,0,0,0,0,0,0,0,-1,818,1198,0,0
-399,-174,0,0,0,0,0,0,0,0,0,-1,825,1198,0,0
-392,-174,0,0,0,0,0,0,0,0,0,-1,832,1198,0,0
-385,-174,0,0,0,0,0,0,0,0,0,-1,839,1198,0,0
-378,-174,0,0,0,0,0,0,0,0,0,-1,846,1198,0,0
-371,-174,0,0,0,0,0,0,0,0,0,-1,853,1198,0,0
-364,-174,0,0,0,0,0,0,0,0,0,-1,860,1198,0,0
-357,-174,0,0,0,0,0,0,0,0,0,-1,867,1198,0,0
-350,-174,0,0,0,0,0,0,0,0,0,-1,874,1198,0,0
-343,-174,0,0,0,0,0,0,0,0,0,-1,881,1198,0,0
-336,-174,0,0,0,0,0,0,0,0,0,-1,888,1198,0,0
-329,-174,0,0,0,0,0,0,0,0,0,-1,895,1198,0,0
-322,-174,0,0,0,0,0,0,0,0,0,-1,902,1198,0,0
-315,-174,0,0,0,0,0,0,0,0,0,-1,909,1198,0,0
-308,-174,0,0,0,0,0,0,0,0,0,-1,916,1198,0,0
-301,-174,0,0,0,0,0,0,0,0,0,-1,923,1198,0,0
-294,-174,0,0,0,0,0,0,0,0,0,-1,930,1198,0,0
-287,-174,0,0,0,0,0,0,0,0,0,-1,937,1198,0,0
-280,-174,0,0,0,0,0,0,0,0,0,-1,944,1198,0,0
-273,-174,0,0,0,0,0,0,0,0,0,-1,951,1198,0,0
-266,-174,0,0,0,0,0,0,0,0,0,-1,958,1198,0,0
-259,-174,0,0,0,0,0,0,0,0,0,-1,965,1198,0,0
-252,-174,0,0,0,0,0,0,0,0,0,-1,972,1198,0,0
-245,-174,0,0,0,0,0,0,0,0,0,-1,979,1198,0,0
-238,-174,0,0,0,0,0,0,0,0,0,-1,986,1198,0,0
-231,-174,0,0,0,0,0,0,0,0,0,-1,993,1198,0,0
-224,-174,0,0,0,0,0,0,0,0,0,-1,1000,1198,0,0
-217,-174,0,0,0,0,0,0,0,0,0,-1,1007,1198,0,0
-210,-174,0,0,0,0,0,0,0,0,0,-1,1014,1198,0,0
-203,-174,0,0,0,0,0,0,0,0,0,-1,1021,1198,0,0
-196,-174,0,0,0,0,0,0,0,0,0,-1,1028,1198,0,0
-189,-174,0,0,0,0,0,0,0,0,0,-1,1035,1198,0,0
-182,-174,0,0,0,0,0,0,0,0,0,-1,1042,1198,0,0
-175,-174,0,0,0,0,0,0,0,0,0,-1,1049,1198,0,0
-168,-174,0,0,0,0,0,0,0,0,0,-1,1056,1198,0,0
-161,-174,0,0,0,0,0,0,0,0,0,-1,1063,1198,0,0
-154,-174,0,0,0,0,0,0,0,0,0,-1,1070,1198,0,0
-147,-174,0,0,0,0,0,0,0,0,0,-1,1077,1198,0,0
-140,-174,0,0,0,0,0,0,0,0,0,-1,1084,1198,0,0
-133,-174,0,0,0,0,0,0,0,0,0,-1,1091,1198,0,0
-126,-174,0,0,0,0,0,0,0,0,0,-1,1098,1198,0,0
-119,-174,0,0,0,0,0,0,0,0,0,-1,1105,1198,0,0
-112,-174,0,0,0,0,0,0,0,0,0,-1,1112,1198,0,0
-105,-174,0,0,0,0,0,0,0,0,0,-1,1119,1198,0,0
-98,-174,0,0,0,0,0,0,0,0,0,-1,1126,1198,0,0
-91,-174,0,0,0,0,0,0,0,0,0,-1,1133,1198,0,0
-84,-174,0,0,0,0,0,0,0,0,0,-1,1140,1198,0,0
-77,-174,0,0,0,0,0,0,0,0,0,-1,1147,1198,0,0
-70,-174,0,0,0,0,0,0,0,0,0,-1,1154,1198,0,0
-63,-174,0,0,0,0,0,0,0,0,0,-1,1161,1198,0,0
-56,-174,0,0,0,0,0,0,0,0,0,-1,1168,1198,0,0
-49,-174,0,0,0,0,0,0,0,0,0,-1,1175,1198,0,0
-42,-174,0,0,0,0,0,0,0,0,0,-1,1182,1198,0,0
-35,-174,0,0,0,0,0,0,0,0,0,-1,1189,1198,0,0
-28,-174,0,0,0,0,0,0,0,0,0,-1,1196,1198,0,0
-21,-174,0,0,0,0,0,0,0,0,0,-1,1203,1198,0,0
-14,-174,0,0,0,0,0,0,0,0,0,-1,1210,1198,0,0
-7,-174,0,0,0,0,0,0,0,0,0,-1,1217,1198,0,0
0,-174,0,0,0,0,0,0,0,0,0,-1,1224,1198,0,0
7,-174,0,0,0,0,0,0,0,0,0,-1,1231,1198,0,0
14,-174,0,0,0,0,0,0,0,0,0,-1,1238,1198,0,0
21,-174,0,0,0,0,0,0,0,0,0,-1,1245,1198,0,0
28,-174,0,0,0,0,0,0,0,0,0,-1,1252,1198,0,0
35,-174,0,0,0,0,0,0,0,0,0,-1,1259,1198,0,0
42,-174,0,0,0,0,0,0,0,0,0,-1,1266,1198,0,0
49,-174,0,0,0,0,0,0,0,0,0,-1,1273,1198,0,0
56,-174,0,0,0,0,0,0,0,0,0,-1,1280,1198,0,0
63,-174,0,0,0,0,0,0,0,0,0,-1,1287,1198,0,0
70,-174,0,0,0,0,0,0,0,0,0,-1,1294,1198,0,0
77,-174,0,0,0,0,0,0,0,0,0,-1,1301,1198,0,0
84,-174,0,0,0,0,0,0,0,0,0,-1,1308,1198,0,0
91,-174,0,0,0,0,0,0,0,0,0,-1,1315,1198,0,0
98,-174,0,0,0,0,0,0,0,0,0,-1,1322,1198,0,0
105,-174,0,0,0,0,0,0,0,0,0,-1,1329,1198,0,0
112,-174,0,0,0,0,0,0,0,0,0,-1,1336,1198,0,0
119,-174,0,0,0,0,0,0,0,0,0,-1,1343,1198,0,0
126,-174,0,0,0,0,0,0,0,0,0,-1,1350,1198,0,0
133,-174,0,0,0,0,0,0,0,0,0,-1,1357,1198,0,0
140,-174,0,0,0,0,0,0,0,0,0,-1,1364,1198,0,0
147,-174,0,0,0,0,0,0,0,0,0,-1,1371,1198,0,0
154,-174,0,0,0,0,0,0,0,0,0,-1,1378,1198,0,0
161,-174,0,0,0,0,0,0,0,0,0,-1,1385,1198,0,0
168,-174,0,0,0,0,0,0,0,0,0,-1,1392,1198,0,0
175,-174,0,0,0,0,0,0,0,0,0,-1,1399,1198,0,0
182,-174,0,0,0,0,0,0,0,0,0,-1,1406,1198,0,0
189,-174,0,0,0,0,0,0,0,0,0,-1,1413,1198,0,0
196,-174,0,0,0,0,0,0,0,0,0,-1,1420,1198,0,0
203,-174,0,0,0,0,0,0,0,0,0,-1,1427,1198,0,0
210,-174,0,0,0,0,0,0,0,0,0,-1,1434,1198,0,0
217,-174,0,0,0,0,0,0,0,0,0,-1,1441,1198,0,0
224,-174,0,0,0,0,0,0,0,0,0,-1,1448,1198,0,0
231,-174,0,0,0,0,0,0,0,0,0,-1,1455,1198,0,0
238,-174,0,0,0,0,0,0,0,0,0,-1,1462,1198,0,0
245,-174,0,0,0,0,0,0,0,0,0,-1,1469,1198,0,0
252,-174,0,0,0,0,0,0,0,0,0,-1,1476,1198,0,0
259,-174,0,0,0,0,0,0,0,0,0,-1,1483,1198,0,0
266,-174,0,0,0,0,0,0,0,0,0,-1,1490,1198,0,0
273,-174,0,0,0,0,0,0,0,0,0,-1,1497,1198,0,0
280,-174,0,0,0,0,0,0,0,0,0,-1,1504,1198,0,0
287,-174,0,0,0,0,0,0,0,0,0,-1,1511,1198,0,0
294,-174,0,0,0,0,0,0,0,0,0,-1,1518,1198,0,0
301,-174,0,0,0,0,0,0,0,0,0,-1,1525,1198,0,0
308,-174,0,0,0,0,0,0,0,0,0,-1,1532,1198,0,0
315,-174,0,0,0,0,0,0,0,0,0,-1,1539,1198,0,0
322,-174,0,0,0,0,0,0,0,0,0,-1,1546,1198,0,0
329,-174,0,0,0,0,0,0,0,0,0,-1,1553,1198,0,0
336,-174,0,0,0,0,0,0,0,0,0,-1,1560,1198,0,0
343,-174,0,0,0,0,0,0,0,0,0,-1,1567,1198,0,0
350,-174,0,0,0,0,0,0,0,0,0,-1,1574,1198,0,0
357,-174,0,0,0,0,0,0,0,0,0,-1,1581,1198,0,0
364,-174,0,0,0,0,0,0,0,0,0,-1,1588,1198,0,0
371,-174,0,0,0,0,0,0,0,0,0,-1,1595,1198,0,0
378,-174,0,0,0,0,0,0,0,0,0,-1,1602,1198,0,0
385,-174,0,0,0,0,0,0,0,0,0,-1,1609,1198,0,0
392,-174,0,0,0,0,0,0,0,0,0,-1,1616,1198,0,0
399,-174,0,0,0,0,0,0,0,0,0,-1,1623,1198,0,0
406,-174,0,0,0,0,0,0,0,0,0,-1,1630,1198,0,0
413,-174,0,0,0,0,0,0,0,0,0,-1,1637,1198,0,0
420,-174,0,0,0,0,0,0,0,0,0,-1,1644,1198,0,0
427,-174,0,0,0,0,0,0,0,0,0,-1,1651,1198,0,0
434,-174,0,0,0,0,0,0,0,0,0,-1,1658,1198,0,0
441,-174,0,0,0,0,0,0,0,0,0,-1,1665,1198,0,0
448,-174,0,0,0,0,0,0,0,0,0,-1,1672,1198,0,0
455,-174,0,0,0,0,0,0,0,0,0,-1,1679,1198,0,0
462,-174,0,0,0,0,0,0,0,0,0,-1,1686,1198,0,0
469,-174,0,0,0,0,0,0,0,0,0,-1,1693,1198,0,0
476,-174,0,0,0,0,0,0,0,0,0,-1,1700,1198,0,0
483,-174,0,0,0,0,0,0,0,0,0,-1,1707,1198,0,0
490,-174,0,0,0,0,0,0,0,0,0,-1,1714,1198,0,0
497,-174,0,0,0,0,0,0,0,0,0,-1,1721,1198,0,0
504,-174,0,0,0,0,0,0,0,0,0,-1,1728,1198,0,0
511,-174,0,0,0,0,0,0,0,0,0,-1,1735,1198,0,0
518,-174,0,0,0,0,0,0,0,0,0,-1,1742,1198,0,0
525,-174,0,0,0,0,0,0,0,0,0,-1,1749,1198,0,0
532,-174,0,0,0,0,0,0,0,0,0,-1,1756,1198,0,0
539,-174,0,0,0,0,0,0,0,0,0,-1,1763,1198,0,0
546,-174,0,0,0,0,0,0,0,0,0,-1,1770,1198,0,0
553,-174,0,0,0,0,0,0,0,0,0,-1,1777,1198,0,0
560,-174,0,0,0,0,0,0,0,0,0,-1,1784,1198,0,0
567,-174,0,0,0,0,0,0,0,0,0,-1,1791,1198,0,0
574,-174,0,0,0,0,0,0,0,0,0,-1,1798,1198,0,0
581,-174,0,0,0,0,0,0,0,0,0,-1,1805,1198,0,0
588,-174,0,0,0,0,0,0,0,0,0,-1,1812,1198,0,0
595,-174,0,0,0,0,0,0,0,0,0,-1,1819,1198,0,0
602,-174,0,0,0,0,0,0,0,0,0,-1,1826,1198,0,0
609,-174,0,0,0,0,0,0,0,0,0,-1,1833,1198,0,0
616,-174,0,0,0,0,0,0,0,0,0,-1,1840,1198,0,0
623,-174,0,0,0,0,0,0,0,0,0,-1,1847,1198,0,0
630,-174,0,0,0,0,0,0,0,0,0,-1,1854,1198,0,0
637,-174,21.5847,2.81799,0.00506405,0.00140443,0.000184045,0.00507328,0.00139519,0.050122,0.0030263,0.0375242,1861,1198,21.5847,-2.81796
644,-174,21.7889,2.66565,0.00388784,0.00106203,6.62361e-05,0.00388939,0.00106048,0.0234225,0.00232163,0.0408412,1868,1198,21.7889,-2.66564
651,-174,21.8906,2.9259,0.00299693,0.000857375,-0.000240269,0.00302358,0.000830725,-0.110465,0.00180375,0.0424103,1875,1198,21.8907,-2.92591
658,-174,21.7632,3.05762,0.00194264,0.000391438,-0.00018599,0.00196463,0.000369449,-0.117679,0.00120562,0.0407147,1882,1198,21.7632,-3.05762
665,-174,21.7305,2.82617,0.00080116,-0.000157923,0.000100885,0.000811657,-0.00016842,0.103677,0.000605109,0.0349327,1889,1198,21.7304,-2.82615
672,-174,21.6348,2.7439,-0.000233929,-0.00065691,0.000386267,-5.04445e-06,-0.000885795,0.534928,0.000588855,0.0265543,1896,1198,21.6348,-2.74387
679,-174,21.6511,2.76819,-0.00120047,-0.00106706,0.000750039,-0.000380765,-0.00188676,0.829747,0.00115209,0.023627,1903,1198,21.6512,-2.76824
686,-174,21.7217,2.80249,0,0,0,0,0,0,0,-1,1910,1198,21.7216,-2.80252
693,-174,21.2057,2.90552,0,0,0,0,0,0,0,-1,1917,1198,21.2056,-2.90551
700,-174,19.6211,5.04175,0,0,0,0,0,0,0,-1,1924,1198,19.6211,-5.04174
707,-174,19.7134,4.88916,-0.00379423,-0.00193066,0.00163244,-0.000982794,-0.00474209,1.04473,0.00289005,0.0379918,1931,1198,19.7134,-4.8892
714,-174,19.7877,4.71655,-0.00402978,-0.0019533,0.00183848,-0.000880154,-0.00510293,1.04244,0.00314983,0.0238625,1938,1198,19.7878,-4.71655
721,-174,19.7194,4.55151,-0.0039472,-0.00184712,0.0020033,-0.000635347,-0.00515897,1.02679,0.00324831,0.017734,1945,1198,19.7193,-4.55153
728,-174,19.6129,4.4436,-0.00320699,-0.00162221,0.00170081,-0.000538269,-0.00429093,1.00339,0.00269915,0.0120797,1952,1198,19.6129,-4.44363
735,-174,19.5936,4.31592,-0.00211361,-0.00123473,0.00108339,-0.000505054,-0.00284329,0.978069,0.00175162,0.0119706,1959,1198,19.5937,-4.31589
742,-174,19.575,4.18201,-0.000506906,-0.000774297,3.15215e-05,-0.00050324,-0.000777963,0.115771,0.00045557,0.0205721,1966,1198,19.5749,-4.18204
749,-174,19.5929,4.06262,0.00148217,-0.000818877,-0.00121141,0.00200234,-0.00133905,-0.405586,0.00194178,0.0173835,1973,1198,19.5928,-4.06265
756,-174,19.5822,3.92822,0.0037733,-0.00176077,-0.00275047,0.00490775,-0.00289522,-0.391198,0.00455472,0.0103223,1980,1198,19.5821,-3.92819
763,-174,19.5498,3.79346,0.00614348,-0.00278462,-0.00432039,0.00789179,-0.00453293,-0.384523,0.00726027,0.0122132,1987,1198,19.5498,-3.79342
770,-174,19.5302,3.68335,0.00837229,-0.00463713,-0.00595011,0.0106832,-0.00694804,-0.370449,0.0102553,0.0229002,1994,1198,19.5302,-3.68338
777,-174,19.5914,3.57751,0.0105195,-0.00754778,-0.00772566,0.0133725,-0.0104008,-0.353756,0.0137612,0.0424803,2001,1198,19.5915,-3.57755
784,-174,19.6624,3.48853,0,0,0,0,0,0,0,-1,2008,1198,19.6623,-3.48847
791,-174,19.467,3.0105,0.0142369,-0.0179605,-0.0115538,0.0179538,-0.0216775,-0.311249,0.0229148,0.0461981,2015,1198,19.4671,-3.01052
798,-174,19.7123,2.82568,0.0156932,-0.0265481,-0.0133755,0.0195723,-0.0304272,-0.282268,0.0290931,0.0466575,2022,1198,19.7123,-2.82572
805,-174,19.9719,3.073,0.0164655,-0.0385559,-0.0147461,0.0201683,-0.0422588,-0.246021,0.0367868,0.0456601,2029,1198,19.9719,-3.07294
812,-174,0,0,0,0,0,0,0,0,0,-1,2036,1198,0,0
-700,-181,0,0,0,0,0,0,0,0,0,-1,524,1205,0,0
-693,-181,0,0,0,0,0,0,0,0,0,-1,531,1205,0,0
-686,-181,-11.9578,-0.724243,0,0,0,0,0,0,0,-1,538,1205,-11.9578,0.724259
-679,-181,-12.0795,0.126953,0.0311486,0.00708448,-0.0253886,0.0472119,-0.00897887,-0.564117,0.0348552,0.0428055,545,1205,-12.0795,-0.126896
-672,-181,-12.2195,0.956421,0.0243783,0.00871225,-0.0213717,0.0393072,-0.00621667,-0.609743,0.0285039,0.0425325,552,1205,-12.2195,-0.956456
-665,-181,-12.236,1.70288,0,0,0,0,0,0,0,-1,559,1205,-12.236,-1.70293
-658,-181,-12.1555,2.43628,0,0,0,0,0,0,0,-1,566,1205,-12.1554,-2.43626
-651,-181,-12.4075,3.4325,0,0,0,0,0,0,0,-1,573,1205,-12.4074,-3.43252
-644,-181,-11.5182,1.10852,0,0,0,0,0,0,0,-1,580,1205,-11.5182,-1.10852
-637,-181,-11.3752,1.25269,0.00203957,0.00492023,-0.00659974,0.010235,-0.00327518,-0.892834,0.00813778,0.0245725,587,1205,-11.3752,-1.25265
-630,-181,-11.4572,1.39282,-0.000531895,0.00344715,-0.0050317,0.00686837,-0.00395312,-0.973665,0.00632291,0.012977,594,1205,-11.4572,-1.39281
-623,-181,-11.4886,1.54211,-0.00322792,0.00265635,-0.00399709,0.00467737,-0.00524894,-1.10266,0.00573412,0.0144228,601,1205,-11.4886,-1.54211
-616,-181,-11.4876,1.73218,-0.00500317,0.00119158,-0.00358463,0.00283164,-0.00664323,-1.1417,0.00561593,0.0145469,608,1205,-11.4876,-1.73214
-609,-181,-11.5044,1.89905,-0.00610349,-0.000896905,-0.00363628,0.000971903,-0.00797229,-1.09606,0.00566668,0.0140817,615,1205,-11.5044,-1.89899
-602,-181,-11.5074,2.05066,-0.00681863,-0.00127496,-0.00423338,0.0010133,-0.00910689,-1.07525,0.00643567,0.0122702,622,1205,-11.5074,-2.05061
-595,-181,-11.515,2.19604,-0.00708261,-0.00189519,-0.00490517,0.00105979,-0.0100376,-1.0286,0.00707151,0.0113739,629,1205,-11.515,-2.19606
-588,-181,-11.5474,2.38464,-0.00711689,-0.00223533,-0.00546212,0.00130654,-0.0106588,-0.995516,0.00757899,0.0121927,636,1205,-11.5474,-2.38462
-581,-181,-11.5476,2.61877,-0.0070319,-0.00245337,-0.00572639,0.00142439,-0.0109097,-0.975554,0.00779143,0.0152958,643,1205,-11.5476,-2.61882
-574,-181,-11.8569,2.63953,-0.0065772,-0.00237767,-0.00583791,0.00172661,-0.0106815,-0.958033,0.00776081,0.0379673,650,1205,-11.8569,-2.63953
-567,-181,-12.363,2.58057,0,0,0,0,0,0,0,-1,657,1205,-12.363,-2.58053
-560,-181,-14.2253,1.78931,0,0,0,0,0,0,0,-1,664,1205,-14.2253,-1.78929
-553,-181,-14.0417,1.16541,-0.00356186,-0.00262229,-0.00529097,0.00221971,-0.00840386,-0.829677,0.00647065,0.0412201,671,1205,-14.0418,-1.16542
-546,-181,-13.8173,0.824829,-0.00181905,-0.00262603,-0.00464599,0.00244094,-0.00688602,-0.742083,0.00558505,0.0358165,678,1205,-13.8172,-0.824769
-539,-181,-13.9637,1.0752,0.00040555,-0.00272288,-0.00366959,0.0028304,-0.00514774,-0.583928,0.0046705,0.0389199,685,1205,-13.9637,-1.07516
-532,-181,-14.0233,1.08923,0.00332133,-0.00304513,-0.00223596,0.00402815,-0.00375195,-0.306174,0.00449278,0.0444935,692,1205,-14.0232,-1.08926
-525,-181,-13.9996,0.857544,0.00680377,-0.00389507,-0.000396172,0.00681842,-0.00390972,-0.0369619,0.00626932,0.0416702,699,1205,-13.9996,-0.857484
-518,-181,-13.6924,0.614868,0.00878045,-0.00654211,0.00055557,0.00880057,-0.00656223,0.036195,0.00890104,0.0410562,706,1205,-13.6924,-0.614875
-511,-181,0,0,0,0,0,0,0,0,0,-1,713,1205,0,0
-504,-181,0,0,0,0,0,0,0,0,0,-1,720,1205,0,0
-497,-181,0,0,0,0,0,0,0,0,0,-1,727,1205,0,0
-490,-181,0,0,0,0,0,0,0,0,0,-1,734,1205,0,0
-483,-181,0,0,0,0,0,0,0,0,0,-1,741,1205,0,0
-476,-181,0,0,0,0,0,0,0,0,0,-1,748,1205,0,0
-469,-181,0,0,0,0,0,0,0,0,0,-1,755,1205,0,0
-462,-181,0,0,0,0,0,0,0,0,0,-1,762,1205,0,0
-455,-181,0,0,0,0,0,0,0,0,0,-1,769,1205,0,0
-448,-181,0,0,0,0,0,0,0,0,0,-1,776,1205,0,0
-441,-181,0,0,0,0,0,0,0,0,0,-1,783,1205,0,0
-434,-181,0,0,0,0,0,0,0,0,0,-1,790,1205,0,0
-427,-181,0,0,0,0,0,0,0,0,0,-1,797,1205,0,0
-420,-181,0,0,0,0,0,0,0,0,0,-1,804,1205,0,0
-413,-181,0,0,0,0,0,0,0,0,0,-1,811,1205,0,0
-406,-181,0,0,0,0,0,0,0,0,0,-1,818,1205,0,0
-399,-181,0,0,0,0,0,0,0,0,0,-1,825,1205,0,0
-392,-181,0,0,0,0,0,0,0,0,0,-1,832,1205,0,0
-385,-181,0,0,0,0,0,0,0,0,0,-1,839,1205,0,0
-378,-181,0,0,0,0,0,0,0,0,0,-1,846,1205,0,0
-371,-181,0,0,0,0,0,0,0,0,0,-1,853,1205,0,0
-364,-181,0,0,0,0,0,0,0,0,0,-1,860,1205,0,0
-357,-181,0,0,0,0,0,0,0,0,0,-1,867,1205,0,0
-350,-181,0,0,0,0,0,0,0,0,0,-1,874,1205,0,0
-343,-181,0,0,0,0,0,0,0,0,0,-1,881,1205,0,0
-336,-181,0,0,0,0,0,0,0,0,0,-1,888,1205,0,0
-329,-181,0,0,0,0,0,0,0,0,0,-1,895,1205,0,0
-322,-181,0,0,0,0,0,0,0,0,0,-1,902,1205,0,0
-315,-181,0,0,0,0,0,0,0,0,0,-1,909,1205,0,0
-308,-181,0,0,0,0,0,0,0,0,0,-1,916,1205,0,0
-301,-181,0,0,0,0,0,0,0,0,0,-1,923,1205,0,0
-294,-181,0,0,0,0,0,0,0,0,0,-1,930,1205,0,0
-287,-181,0,0,0,0,0,0,0,0,0,-1,937,1205,0,0
-280,-181,0,0,0,0,0,0,0,0,0,-1,944,1205,0,0
-273,-181,0,0,0,0,0,0,0,0,0,-1,951,1205,0,0
-266,-181,0,0,0,0,0,0,0,0,0,-1,958,1205,0,0
-259,-181,0,0,0,0,0,0,0,0,0,-1,965,1205,0,0
-252,-181,0,0,0,0,0,0,0,0,0,-1,972,1205,0,0
-245,-181,0,0,0,0,0,0,0,0,0,-1,979,1205,0,0
-238,-181,0,0,0,0,0,0,0,0,0,-1,986,1205,0,0
-231,-181,0,0,0,0,0,0,0,0,0,-1,993,1205,0,0
-224,-181,0,0,0,0,0,0,0,0,0,-1,1000,1205,0,0
-217,-181,0,0,0,0,0,0,0,0,0,-1,1007,1205,0,0
-210,-181,0,0,0,0,0,0,0,0,0,-1,1014,1205,0,0
-203,-181,0,0,0,0,0,0,0,0,0,-1,1021,1205,0,0
-196,-181,0,0,0,0,0,0,0,0,0,-1,1028,1205,0,0
-189,-181,0,0,0,0,0,0,0,0,0,-1,1035,1205,0,0
-182,-181,0,0,0,0,0,0,0,0,0,-1,1042,1205,0,0
-175,-181,0,0,0,0,0,0,0,0,0,-1,1049,1205,0,0
-168,-181,0,0,0,0,0,0,0,0,0,-1,1056,1205,0,0
-161,-181,0,0,0,0,0,0,0,0,0,-1,1063,1205,0,0
-154,-181,0,0,0,0,0,0,0,0,0,-1,1070,1205,0,0
-147,-181,0,0,0,0,0,0,0,0,0,-1,1077,1205,0,0
-140,-181,0,0,0,0,0,0,0,0,0,-1,1084,1205,0,0
-133,-181,0,0,0,0,0,0,0,0,0,-1,1091,1205,0,0
-126,-181,0,0,0,0,0,0,0,0,0,-1,1098,1205,0,0
-119,-181,0,0,0,0,0,0,0,0,0,-1,1105,1205,0,0
-112,-181,0,0,0,0,0,0,0,0,0,-1,1112,1205,0,0
-105,-181,0,0,0,0,0,0,0,0,0,-1,1119,1205,0,0
-98,-181,0,0,0,0,0,0,0,0,0,-1,1126,1205,0,0
-91,-181,0,0,0,0,0,0,0,0,0,-1,1133,1205,0,0
-84,-181,0,0,0,0,0,0,0,0,0,-1,1140,1205,0,0
-77,-181,0,0,0,0,0,0,0,0,0,-1,1147,1205,0,0
-70,-181,0,0,0,0,0,0,0,0,0,-1,1154,1205,0,0
-63,-181,0,0,0,0,0,0,0,0,0,-1,1161,1205,0,0
-56,-181,0,0,0,0,0,0,0,0,0,-1,1168,1205,0,0
-49,-181,0,0,0,0,0,0,0,0,0,-1,1175,1205,0,0
-42,-181,0,0,0,0,0,0,0,0,0,-1,1182,1205,0,0
-35,-181,0,0,0,0,0,0,0,0,0,-1,1189,1205,0,0
-28,-181,0,0,0,0,0,0,0,0,0,-1,1196,1205,0,0
-21,-181,0,0,0,0,0,0,0,0,0,-1,1203,1205,0,0
-14,-181,0,0,0,0,0,0,0,0,0,-1,1210,1205,0,0
-7,-181,0,0,0,0,0,0,0,0,0,-1,1217,1205,0,0
0,-181,0,0,0,0,0,0,0,0,0,-1,1224,1205,0,0
7,-181,0,0,0,0,0,0,0,0,0,-1,1231,1205,0,0
14,-181,0,0,0,0,0,0,0,0,0,-1,1238,1205,0,0
21,-181,0,0,0,0,0,0,0,0,0,-1,1245,1205,0,0
28,-181,0,0,0,0,0,0,0,0,0,-1,1252,1205,0,0
35,-181,0,0,0,0,0,0,0,0,0,-1,1259,1205,0,0
42,-181,0,0,0,0,0,0,0,0,0,-1,1266,1205,0,0
49,-181,0,0,0,0,0,0,0,0,0,-1,1273,1205,0,0
56,-181,0,0,0,0,0,0,0,0,0,-1,1280,1205,0,0
63,-181,0,0,0,0,0,0,0,0,0,-1,1287,1205,0,0
70,-181,0,0,0,0,0,0,0,0,0,-1,1294,1205,0,0
77,-181,0,0,0,0,0,0,0,0,0,-1,1301,1205,0,0
84,-181,0,0,0,0,0,0,0,0,0,-1,1308,1205,0,0
91,-181,0,0,0,0,0,0,0,0,0,-1,1315,1205,0,0
98,-181,0,0,0,0,0,0,0,0,0,-1,1322,1205,0,0
105,-181,0,0,0,0,0,0,0,0,0,-1,1329,1205,0,0
112,-181,0,0,0,0,0,0,0,0,0,-1,1336,1205,0,0
119,-181,0,0,0,0,0,0,0,0,0,-1,1343,1205,0,0
126,-181,0,0,0,0,0,0,0,0,0,-1,1350,1205,0,0
133,-181,0,0,0,0,0,0,0,0,0,-1,1357,1205,0,0
140,-181,0,0,0,0,0,0,0,0,0,-1,1364,1205,0,0
147,-181,0,0,0,0,0,0,0,0,0,-1,1371,1205,0,0
154,-181,0,0,0,0,0,0,0,0,0,-1,1378,1205,0,0
161,-181,0,0,0,0,0,0,0,0,0,-1,1385,1205,0,0
168,-181,0,0,0,0,0,0,0,0,0,-1,1392,1205,0,0
175,-181,0,0,0,0,0,0,0,0,0,-1,1399,1205,0,0
182,-181,0,0,0,0,0,0,0,0,0,-1,1406,1205,0,0
189,-181,0,0,0,0,0,0,0,0,0,-1,1413,1205,0,0
196,-181,0,0,0,0,0,0,0,0,0,-1,1420,1205,0,0
203,-181,0,0,0,0,0,0,0,0,0,-1,1427,1205,0,0
210,-181,0,0,0,0,0,0,0,0,0,-1,1434,1205,0,0
217,-181,0,0,0,0,0,0,0,0,0,-1,1441,1205,0,0
224,-181,0,0,0,0,0,0,0,0,0,-1,1448,1205,0,0
231,-181,0,0,0,0,0,0,0,0,0,-1,1455,1205,0,0
238,-181,0,0,0,0,0,0,0,0,0,-1,1462,1205,0,0
245,-181,0,0,0,0,0,0,0,0,0,-1,1469,1205,0,0
252,-181,0,0,0,0,0,0,0,0,0,-1,1476,1205,0,0
259,-181,0,0,0,0,0,0,0,0,0,-1,1483,1205,0,0
266,-181,0,0,0,0,0,0,0,0,0,-1,1490,1205,0,0
273,-181,0,0,0,0,0,0,0,0,0,-1,1497,1205,0,0
280,-181,0,0,0,0,0,0,0,0,0,-1,1504,1205,0,0
287,-181,0,0,0,0,0,0,0,0,0,-1,1511,1205,0,0
294,-181,0,0,0,0,0,0,0,0,0,-1,1518,1205,0,0
301,-181,0,0,0,0,0,0,0,0,0,-1,1525,1205,0,0
308,-181,0,0,0,0,0,0,0,0,0,-1,1532,1205,0,0
315,-181,0,0,0,0,0,0,0,0,0,-1,1539,1205,0,0
322,-181,0,0,0,0,0,0,0,0,0,-1,1546,1205,0,0
329,-181,0,0,0,0,0,0,0,0,0,-1,1553,1205,0,0
336,-181,0,0,0,0,0,0,0,0,0,-1,1560,1205,0,0
343,-181,0,0,0,0,0,0,0,0,0,-1,1567,1205,0,0
350,-181,0,0,0,0,0,0,0,0,0,-1,1574,1205,0,0
357,-181,0,0,0,0,0,0,0,0,0,-1,1581,1205,0,0
364,-181,0,0,0,0,0,0,0,0,0,-1,1588,1205,0,0
371,-181,0,0,0,0,0,0,0,0,0,-1,1595,1205,0,0
378,-181,0,0,0,0,0,0,0,0,0,-1,1602,1205,0,0
385,-181,0,0,0,0,0,0,0,0,0,-1,1609,1205,0,0
392,-181,0,0,0,0,0,0,0,0,0,-1,1616,1205,0,0
399,-181,0,0,0,0,0,0,0,0,0,-1,1623,1205,0,0
406,-181,0,0,0,0,0,0,0,0,0,-1,1630,1205,0,0
413,-181,0,0,0,0,0,0,0,0,0,-1,1637,1205,0,0
420,-181,0,0,0,0,0,0,0,0,0,-1,1644,1205,0,0
427,-181,0,0,0,0,0,0,0,0,0,-1,1651,1205,0,0
434,-181,0,0,0,0,0,0,0,0,0,-1,1658,1205,0,0
441,-181,0,0,0,0,0,0,0,0,0,-1,1665,1205,0,0
448,-181,0,0,0,0,0,0,0,0,0,-1,1672,1205,0,0
455,-181,0,0,0,0,0,0,0,0,0,-1,1679,1205,0,0
462,-181,0,0,0,0,0,0,0,0,0,-1,1686,1205,0,0
469,-181,0,0,0,0,0,0,0,0,0,-1,1693,1205,0,0
476,-181,0,0,0,0,0,0,0,0,0,-1,1700,1205,0,0
483,-181,0,0,0,0,0,0,0,0,0,-1,1707,1205,0,0
490,-181,0,0,0,0,0,0,0,0,0,-1,1714,1205,0,0
497,-181,0,0,0,0,0,0,0,0,0,-1,1721,1205,0,0
504,-181,0,0,0,0,0,0,0,0,0,-1,1728,1205,0,0
511,-181,0,0,0,0,0,0,0,0,0,-1,1735,1205,0,0
518,-181,0,0,0,0,0,0,0,0,0,-1,1742,1205,0,0
525,-181,0,0,0,0,0,0,0,0,0,-1,1749,1205,0,0
532,-181,0,0,0,0,0,0,0,0,0,-1,1756,1205,0,0
539,-181,0,0,0,0,0,0,0,0,0,-1,1763,1205,0,0
546,-181,0,0,0,0,0,0,0,0,0,-1,1770,1205,0,0
553,-181,0,0,0,0,0,0,0,0,0,-1,1777,1205,0,0
560,-181,0,0,0,0,0,0,0,0,0,-1,1784,1205,0,0
567,-181,0,0,0,0,0,0,0,0,0,-1,1791,1205,0,0
574,-181,0,0,0,0,0,0,0,0,0,-1,1798,1205,0,0
581,-181,0,0,0,0,0,0,0,0,0,-1,1805,1205,0,0
588,-181,0,0,0,0,0,0,0,0,0,-1,1812,1205,0,0
595,-181,0,0,0,0,0,0,0,0,0,-1,1819,1205,0,0
602,-181,0,0,0,0,0,0,0,0,0,-1,1826,1205,0,0
609,-181,0,0,0,0,0,0,0,0,0,-1,1833,1205,0,0
616,-181,0,0,0,0,0,0,0,0,0,-1,1840,1205,0,0
623,-181,0,0,0,0,0,0,0,0,0,-1,1847,1205,0,0
630,-181,21.708,2.94141,0.00456502,0.00288946,5.92959e-05,0.00456711,0.00288737,0.0353299,0.00266737,0.0360331,1854,1205,21.708,-2.94139
637,-181,21.7375,2.74316,0.00389355,0.00206092,0.000236615,0.00392361,0.00203087,0.126352,0.00226576,0.0369735,1861,1205,21.7375,-2.74315
644,-181,21.754,2.61426,0.00320615,0.00137701,0.000105375,0.0032122,0.00137096,0.057356,0.00186118,0.0412093,1868,1205,21.7541,-2.61423
651,-181,21.9159,2.79993,0.00264502,0.000798689,-0.00016307,0.00265932,0.000784397,-0.0874192,0.0015778,0.0419535,1875,1205,21.9159,-2.79992
658,-181,21.7716,2.92542,0.00183159,0.000116251,-0.000115381,0.00183932,0.000108525,-0.0668627,0.00119169,0.0364016,1882,1205,21.7716,-2.92543
665,-181,21.7084,2.73096,0.000932588,-0.000499416,9.26483e-05,0.000938558,-0.000505386,0.0643408,0.000846073,0.0306806,1889,1205,21.7084,-2.73094
672,-181,21.6395,2.75513,7.91315e-05,-0.00100592,0.000304701,0.000158841,-0.00108563,0.255866,0.000782093,0.0231375,1896,1205,21.6395,-2.75514
679,-181,21.7114,2.80859,-0.00074081,-0.00136248,0.000606176,-0.00037042,-0.00173287,0.54849,0.0010537,0.0301534,1903,1205,21.7114,-2.80859
686,-181,21.8345,2.85706,0,0,0,0,0,0,0,-1,1910,1205,21.8345,-2.85704
693,-181,21.1495,2.82324,0,0,0,0,0,0,0,-1,1917,1205,21.1496,-2.82328
700,-181,19.8149,5.0083,0,0,0,0,0,0,0,-1,1924,1205,19.8149,-5.00825
707,-181,19.6792,4.84375,-0.00313696,-0.00205303,0.00132851,-0.00116018,-0.0040298,0.979069,0.00239537,0.0292763,1931,1205,19.6793,-4.84378
714,-181,19.6467,4.67969,-0.00339076,-0.00199879,0.00150844,-0.00103351,-0.00435603,1.00154,0.00262815,0.0212144,1938,1205,19.6467,-4.67963
721,-181,19.537,4.57568,-0.0033398,-0.00176115,0.0017143,-0.00066318,-0.00443776,1.00115,0.0027641,0.0134744,1945,1205,19.537,-4.57571
728,-181,19.4523,4.45972,-0.00254753,-0.00152867,0.00142026,-0.000529235,-0.00354696,0.957596,0.00220946,0.0100212,1952,1205,19.4522,-4.45967
735,-181,19.475,4.3125,-0.00143741,-0.00112758,0.000897032,-0.000372183,-0.0021928,0.870902,0.00135495,0.0114273,1959,1205,19.475,-4.31248
742,-181,19.4639,4.19104,0.000170653,-0.000801169,7.69352e-05,0.000176706,-0.000807222,0.0785142,0.000605704,0.0177189,1966,1205,19.4639,-4.19107
749,-181,19.438,4.05115,0.00211431,-0.000975841,-0.000931558,0.00237341,-0.00123494,-0.271282,0.00211757,0.0156778,1973,1205,19.438,-4.05115
756,-181,19.427,3.89832,0.00428848,-0.00212196,-0.0020982,0.00491417,-0.00274765,-0.289808,0.00448212,0.0111815,1980,1205,19.427,-3.8983
763,-181,19.399,3.75549,0.00650663,-0.00340108,-0.00320153,0.00745113,-0.00434557,-0.286874,0.00688905,0.0112755,1987,1205,19.399,-3.75554
770,-181,19.3722,3.59143,0.00863059,-0.00558692,-0.00427319,0.00981608,-0.00677241,-0.27062,0.00963096,0.0227755,1994,1205,19.3722,-3.59145
777,-181,19.4436,3.49365,0.0106659,-0.00893942,-0.00535036,0.0120309,-0.0103045,-0.24981,0.0129082,0.0428457,2001,1205,19.4436,-3.49361
784,-181,19.9934,2.50562,0.0124631,-0.0138183,-0.00636336,0.0139228,-0.015278,-0.225483,0.0168651,0.0488191,2008,1205,19.9934,-2.50558
791,-181,20.0154,2.58545,0,0,0,0,0,0,0,-1,2015,1205,20.0154,-2.58542
798,-181,20.1484,2.90002,0,0,0,0,0,0,0,-1,2022,1205,20.1484,-2.90002
805,-181,0,0,0,0,0,0,0,0,0,-1,2029,1205,0,0
812,-181,0,0,0,0,0,0,0,0,0,-1,2036,1205,0,0
-700,-188,0,0,0,0,0,0,0,0,0,-1,524,1212,0,0
-693,-188,0,0,0,0,0,0,0,0,0,-1,531,1212,0,0
-686,-188,0,0,0,0,0,0,0,0,0,-1,538,1212,0,0
-679,-188,-11.2309,0.37439,0.0182496,0.00370632,-0.0299861,0.0418332,-0.0198773,-0.666445,0.0363725,0.0440293,545,1212,-11.2309,-0.374382
-672,-188,-11.3861,0.645508,0.0134588,0.00655423,-0.0252581,0.0354994,-0.0154864,-0.717479,0.0301831,0.0420944,552,1212,-11.3861,-0.645562
-665,-188,-11.2759,0.732666,0,0,0,0,0,0,0,-1,559,1212,-11.276,-0.732634
-658,-188,-10.9263,0.155762,0,0,0,0,0,0,0,-1,566,1212,-10.9264,-0.155749
-651,-188,-10.9888,0.812744,0,0,0,0,0,0,0,-1,573,1212,-10.9889,-0.812793
-644,-188,-11.1106,1.02734,0.00019609,0.00590901,-0.0105924,0.0140233,-0.00791824,-0.917101,0.0128304,0.0414563,580,1212,-11.1106,-1.0273
-637,-188,-11.2463,1.23059,-0.0014533,0.00466616,-0.00805697,0.0102248,-0.00701196,-0.966868,0.0100091,0.0218637,587,1212,-11.2463,-1.23053
-630,-188,-11.3146,1.38965,-0.00297225,0.00330946,-0.00610669,0.00703568,-0.00669847,-1.02292,0.00793021,0.0102683,594,1212,-11.3146,-1.38966
-623,-188,-11.3162,1.55896,-0.00436875,0.00262305,-0.00472461,0.0050045,-0.0067502,-1.10391,0.00681148,0.0106957,601,1212,-11.3161,-1.559
-616,-188,-11.3105,1.73047,-0.00526692,0.00120806,-0.00390518,0.00304322,-0.00710208,-1.13149,0.00601162,0.0106304,608,1212,-11.3105,-1.73053
-609,-188,-11.3026,1.89551,-0.00577053,-0.000659855,-0.00357586,0.00117986,-0.00761025,-1.09563,0.00550906,0.0125256,615,1212,-11.3026,-1.89549
-602,-188,-11.3022,2.07788,-0.00604567,-0.000926047,-0.00380572,0.00110066,-0.00807237,-1.08146,0.00578349,0.0152495,622,1212,-11.3023,-2.0779
-595,-188,-11.3079,2.23889,-0.0059836,-0.00150566,-0.00420725,0.00102128,-0.00851054,-1.02992,0.00604296,0.0119385,629,1212,-11.3079,-2.23885
-588,-188,-11.3293,2.40869,-0.00580296,-0.00176816,-0.00463895,0.00127306,-0.00884419,-0.990504,0.00636308,0.0102193,636,1212,-11.3293,-2.40864
-581,-188,-11.3563,2.61047,-0.00572654,-0.00177148,-0.00493605,0.00156843,-0.00906646,-0.975923,0.00662925,0.0110872,643,1212,-11.3562,-2.61047
-574,-188,-11.4119,2.6532,-0.00534653,-0.00157166,-0.00510046,0.00197939,-0.00889757,-0.962611,0.00668984,0.0280459,650,1212,-11.4119,-2.65326
-567,-188,-11.4511,2.60742,0,0,0,0,0,0,0,-1,657,1212,-11.4511,-2.60746
-560,-188,-14.0818,1.22058,0,0,0,0,0,0,0,-1,664,1212,-14.0819,-1.22064
-553,-188,-13.7939,0.793091,-0.00316273,-0.0015832,-0.00494416,0.00263388,-0.00737981,-0.864597,0.00599394,0.0483415,671,1212,-13.7939,-0.793138
-546,-188,-13.8126,0.779297,-0.00199219,-0.00156758,-0.00458194,0.00280697,-0.00636674,-0.808549,0.00542774,0.0444608,678,1212,-13.8126,-0.779279
-539,-188,-13.8871,1.03821,-0.00046357,-0.00171281,-0.00398948,0.00294989,-0.00512627,-0.707745,0.00471887,0.037564,685,1212,-13.8872,-1.03821
-532,-188,-13.8961,0.927979,0.0016148,-0.00220054,-0.00301568,0.00327553,-0.00386127,-0.503381,0.00412506,0.041147,692,1212,-13.8961,-0.927959
-525,-188,-13.8608,0.731323,0.00439478,-0.00337554,-0.00154929,0.00469229,-0.00367305,-0.189723,0.00484167,0.0410375,699,1212,-13.8608,-0.731312
-518,-188,-13.8042,0.81665,0.00664087,-0.00641981,-0.000333845,0.0066494,-0.00642834,-0.0255388,0.00755079,0.0429618,706,1212,-13.8042,-0.816602
-511,-188,-13.7185,0.848633,0.0109179,-0.0107919,0.00182917,0.011071,-0.0109449,0.0834711,0.012711,0.0420473,713,1212,-13.7185,-0.848643
-504,-188,0,0,0,0,0,0,0,0,0,-1,720,1212,0,0
-497,-188,0,0,0,0,0,0,0,0,0,-1,727,1212,0,0
-490,-188,0,0,0,0,0,0,0,0,0,-1,734,1212,0,0
-483,-188,0,0,0,0,0,0,0,0,0,-1,741,1212,0,0
-476,-188,0,0,0,0,0,0,0,0,0,-1,748,1212,0,0
-469,-188,0,0,0,0,0,0,0,0,0,-1,755,1212,0,0
-462,-188,0,0,0,0,0,0,0,0,0,-1,762,1212,0,0
-455,-188,0,0,0,0,0,0,0,0,0,-1,769,1212,0,0
-448,-188,0,0,0,0,0,0,0,0,0,-1,776,1212,0,0
-441,-188,0,0,0,0,0,0,0,0,0,-1,783,1212,0,0
-434,-188,0,0,0,0,0,0,0,0,0,-1,790,1212,0,0
-427,-188,0,0,0,0,0,0,0,0,0,-1,797,1212,0,0
-420,-188,0,0,0,0,0,0,0,0,0,-1,804,1212,0,0
-413,-188,0,0,0,0,0,0,0,0,0,-1,811,1212,0,0
-406,-188,0,0,0,0,0,0,0,0,0,-1,818,1212,0,0
-399,-188,0,0,0,0,0,0,0,0,0,-1,825,1212,0,0
-392,-188,0,0,0,0,0,0,0,0,0,-1,832,1212,0,0
-385,-188,0,0,0,0,0,0,0,0,0,-1,839,1212,0,0
-378,-188,0,0,0,0,0,0,0,0,0,-1,846,1212,0,0
-371,-188,0,0,0,0,0,0,0,0,0,-1,853,1212,0,0
-364,-188,0,0,0,0,0,0,0,0,0,-1,860,1212,0,0
-357,-188,0,0,0,0,0,0,0,0,0,-1,867,1212,0,0
-350,-188,0,0,0,0,0,0,0,0,0,-1,874,1212,0,0
-343,-188,0,0,0,0,0,0,0,0,0,-1,881,1212,0,0
-336,-188,0,0,0,0,0,0,0,0,0,-1,888,1212,0,0
-329,-188,0,0,0,0,0,0,0,0,0,-1,895,1212,0,0
-322,-188,0,0,0,0,0,0,0,0,0,-1,902,1212,0,0
-315,-188,0,0,0,0,0,0,0,0,0,-1,909,1212,0,0
-308,-188,0,0,0,0,0,0,0,0,0,-1,916,1212,0,0
-301,-188,0,0,0,0,0,0,0,0,0,-1,923,1212,0,0
-294,-188,0,0,0,0,0,0,0,0,0,-1,930,1212,0,0
-287,-188,0,0,0,0,0,0,0,0,0,-1,937,1212,0,0
-280,-188,0,0,0,0,0,0,0,0,0,-1,944,1212,0,0
-273,-188,0,0,0,0,0,0,0,0,0,-1,951,1212,0,0
-266,-188,0,0,0,0,0,0,0,0,0,-1,958,1212,0,0
-259,-188,0,0,0,0,0,0,0,0,0,-1,965,1212,0,0
-252,-188,0,0,0,0,0,0,0,0,0,-1,972,1212,0,0
-245,-188,0,0,0,0,0,0,0,0,0,-1,979,1212,0,0
-238,-188,0,0,0,0,0,0,0,0,0,-1,986,1212,0,0
-231,-188,0,0,0,0,0,0,0,0,0,-1,993,1212,0,0
-224,-188,0,0,0,0,0,0,0,0,0,-1,1000,1212,0,0
-217,-188,0,0,0,0,0,0,0,0,0,-1,1007,1212,0,0
-210,-188,0,0,0,0,0,0,0,0,0,-1,1014,1212,0,0
-203,-188,0,0,0,0,0,0,0,0,0,-1,1021,1212,0,0
-196,-188,0,0,0,0,0,0,0,0,0,-1,1028,1212,0,0
-189,-188,0,0,0,0,0,0,0,0,0,-1,1035,1212,0,0
-182,-188,0,0,0,0,0,0,0,0,0,-1,1042,1212,0,0
-175,-188,0,0,0,0,0,0,0,0,0,-1,1049,1212,0,0
-168,-188,0,0,0,0,0,0,0,0,0,-1,1056,1212,0,0
-161,-188,0,0,0,0,0,0,0,0,0,-1,1063,1212,0,0
-154,-188,0,0,0,0,0,0,0,0,0,-1,1070,1212,0,0
-147,-188,0,0,0,0,0,0,0,0,0,-1,1077,1212,0,0
-140,-188,0,0,0,0,0,0,0,0,0,-1,1084,1212,0,0
-133,-188,0,0,0,0,0,0,0,0,0,-1,1091,1212,0,0
-126,-188,0,0,0,0,0,0,0,0,0,-1,1098,1212,0,0
-119,-188,0,0,0,0,0,0,0,0,0,-1,1105,1212,0,0
-112,-188,0,0,0,0,0,0,0,0,0,-1,1112,1212,0,0
-105,-188,0,0,0,0,0,0,0,0,0,-1,1119,1212,0,0
-98,-188,0,0,0,0,0,0,0,0,0,-1,1126,1212,0,0
-91,-188,0,0,0,0,0,0,0,0,0,-1,1133,1212,0,0
-84,-188,0,0,0,0,0,0,0,0,0,-1,1140,1212,0,0
-77,-188,0,0,0,0,0,0,0,0,0,-1,1147,1212,0,0
-70,-188,0,0,0,0,0,0,0,0,0,-1,1154,1212,0,0
-63,-188,0,0,0,0,0,0,0,0,0,-1,1161,1212,0,0
-56,-188,0,0,0,0,0,0,0,0,0,-1,1168,1212,0,0
-49,-188,0,0,0,0,0,0,0,0,0,-1,1175,1212,0,0
-42,-188,0,0,0,0,0,0,0,0,0,-1,1182,1212,0,0
-35,-188,0,0,0,0,0,0,0,0,0,-1,1189,1212,0,0
-28,-188,0,0,0,0,0,0,0,0,0,-1,1196,1212,0,0
-21,-188,0,0,0,0,0,0,0,0,0,-1,1203,1212,0,0
-14,-188,0,0,0,0,0,0,0,0,0,-1,1210,1212,0,0
-7,-188,0,0,0,0,0,0,0,0,0,-1,1217,1212,0,0
0,-188,0,0,0,0,0,0,0,0,0,-1,1224,1212,0,0
7,-188,0,0,0,0,0,0,0,0,0,-1,1231,1212,0,0
14,-188,0,0,0,0,0,0,0,0,0,-1,1238,1212,0,0
21,-188,0,0,0,0,0,0,0,0,0,-1,1245,1212,0,0
28,-188,0,0,0,0,0,0,0,0,0,-1,1252,1212,0,0
35,-188,0,0,0,0,0,0,0,0,0,-1,1259,1212,0,0
42,-188,0,0,0,0,0,0,0,0,0,-1,1266,1212,0,0
49,-188,0,0,0,0,0,0,0,0,0,-1,1273,1212,0,0
56,-188,0,0,0,0,0,0,0,0,0,-1,1280,1212,0,0
63,-188,0,0,0,0,0,0,0,0,0,-1,1287,1212,0,0
70,-188,0,0,0,0,0,0,0,0,0,-1,1294,1212,0,0
77,-188,0,0,0,0,0,0,0,0,0,-1,1301,1212,0,0
84,-188,0,0,0,0,0,0,0,0,0,-1,1308,1212,0,0
91,-188,0,0,0,0,0,0,0,0,0,-1,1315,1212,0,0
98,-188,0,0,0,0,0,0,0,0,0,-1,1322,1212,0,0
105,-188,0,0,0,0,0,0,0,0,0,-1,1329,1212,0,0
112,-188,0,0,0,0,0,0,0,0,0,-1,1336,1212,0,0
119,-188,0,0,0,0,0,0,0,0,0,-1,1343,1212,0,0
126,-188,0,0,0,0,0,0,0,0,0,-1,1350,1212,0,0
133,-188,0,0,0,0,0,0,0,0,0,-1,1357,1212,0,0
140,-188,0,0,0,0,0,0,0,0,0,-1,1364,1212,0,0
147,-188,0,0,0,0,0,0,0,0,0,-1,1371,1212,0,0
154,-188,0,0,0,0,0,0,0,0,0,-1,1378,1212,0,0
161,-188,0,0,0,0,0,0,0,0,0,-1,1385,1212,0,0
168,-188,0,0,0,0,0,0,0,0,0,-1,1392,1212,0,0
175,-188,0,0,0,0,0,0,0,0,0,-1,1399,1212,0,0
182,-188,0,0,0,0,0,0,0,0,0,-1,1406,1212,0,0
189,-188,0,0,0,0,0,0,0,0,0,-1,1413,1212,0,0
196,-188,0,0,0,0,0,0,0,0,0,-1,1420,1212,0,0
203,-188,0,0,0,0,0,0,0,0,0,-1,1427,1212,0,0
210,-188,0,0,0,0,0,0,0,0,0,-1,1434,1212,0,0
217,-188,0,0,0,0,0,0,0,0,0,-1,1441,1212,0,0
224,-188,0,0,0,0,0,0,0,0,0,-1,1448,1212,0,0
231,-188,0,0,0,0,0,0,0,0,0,-1,1455,1212,0,0
238,-188,0,0,0,0,0,0,0,0,0,-1,1462,1212,0,0
245,-188,0,0,0,0,0,0,0,0,0,-1,1469,1212,0,0
252,-188,0,0,0,0,0,0,0,0,0,-1,1476,1212,0,0
259,-188,0,0,0,0,0,0,0,0,0,-1,1483,1212,0,0
266,-188,0,0,0,0,0,0,0,0,0,-1,1490,1212,0,0
273,-188,0,0,0,0,0,0,0,0,0,-1,1497,1212,0,0
280,-188,0,0,0,0,0,0,0,0,0,-1,1504,1212,0,0
287,-188,0,0,0,0,0,0,0,0,0,-1,1511,1212,0,0
294,-188,0,0,0,0,0,0,0,0,0,-1,1518,1212,0,0
301,-188,0,0,0,0,0,0,0,0,0,-1,1525,1212,0,0
308,-188,0,0,0,0,0,0,0,0,0,-1,1532,1212,0,0
315,-188,0,0,0,0,0,0,0,0,0,-1,1539,1212,0,0
322,-188,0,0,0,0,0,0,0,0,0,-1,1546,1212,0,0
329,-188,0,0,0,0,0,0,0,0,0,-1,1553,1212,0,0
336,-188,0,0,0,0,0,0,0,0,0,-1,1560,1212,0,0
343,-188,0,0,0,0,0,0,0,0,0,-1,1567,1212,0,0
350,-188,0,0,0,0,0,0,0,0,0,-1,1574,1212,0,0
357,-188,0,0,0,0,0,0,0,0,0,-1,1581,1212,0,0
364,-188,0,0,0,0,0,0,0,0,0,-1,1588,1212,0,0
371,-188,0,0,0,0,0,0,0,0,0,-1,1595,1212,0,0
378,-188,0,0,0,0,0,0,0,0,0,-1,1602,1212,0,0
385,-188,0,0,0,0,0,0,0,0,0,-1,1609,1212,0,0
392,-188,0,0,0,0,0,0,0,0,0,-1,1616,1212,0,0
399,-188,0,0,0,0,0,0,0,0,0,-1,1623,1212,0,0
406,-188,0,0,0,0,0,0,0,0,0,-1,1630,1212,0,0
413,-188,0,0,0,0,0,0,0,0,0,-1,1637,1212,0,0
420,-188,0,0,0,0,0,0,0,0,0,-1,1644,1212,0,0
427,-188,0,0,0,0,0,0,0,0,0,-1,1651,1212,0,0
434,-188,0,0,0,0,0,0,0,0,0,-1,1658,1212,0,0
441,-188,0,0,0,0,0,0,0,0,0,-1,1665,1212,0,0
448,-188,0,0,0,0,0,0,0,0,0,-1,1672,1212,0,0
455,-188,0,0,0,0,0,0,0,0,0,-1,1679,1212,0,0
462,-188,0,0,0,0,0,0,0,0,0,-1,1686,1212,0,0
469,-188,0,0,0,0,0,0,0,0,0,-1,1693,1212,0,0
476,-188,0,0,0,0,0,0,0,0,0,-1,1700,1212,0,0
483,-188,0,0,0,0,0,0,0,0,0,-1,1707,1212,0,0
490,-188,0,0,0,0,0,0,0,0,0,-1,1714,1212,0,0
497,-188,0,0,0,0,0,0,0,0,0,-1,1721,1212,0,0
504,-188,0,0,0,0,0,0,0,0,0,-1,1728,1212,0,0
511,-188,0,0,0,0,0,0,0,0,0,-1,1735,1212,0,0
518,-188,0,0,0,0,0,0,0,0,0,-1,1742,1212,0,0
525,-188,0,0,0,0,0,0,0,0,0,-1,1749,1212,0,0
532,-188,0,0,0,0,0,0,0,0,0,-1,1756,1212,0,0
539,-188,0,0,0,0,0,0,0,0,0,-1,1763,1212,0,0
546,-188,0,0,0,0,0,0,0,0,0,-1,1770,1212,0,0
553,-188,0,0,0,0,0,0,0,0,0,-1,1777,1212,0,0
560,-188,0,0,0,0,0,0,0,0,0,-1,1784,1212,0,0
567,-188,0,0,0,0,0,0,0,0,0,-1,1791,1212,0,0
574,-188,0,0,0,0,0,0,0,0,0,-1,1798,1212,0,0
581,-188,0,0,0,0,0,0,0,0,0,-1,1805,1212,0,0
588,-188,0,0,0,0,0,0,0,0,0,-1,1812,1212,0,0
595,-188,0,0,0,0,0,0,0,0,0,-1,1819,1212,0,0
602,-188,0,0,0,0,0,0,0,0,0,-1,1826,1212,0,0
609,-188,0,0,0,0,0,0,0,0,0,-1,1833,1212,0,0
616,-188,0,0,0,0,0,0,0,0,0,-1,1840,1212,0,0
623,-188,0,0,0,0,0,0,0,0,0,-1,1847,1212,0,0
630,-188,21.7427,2.71155,0.00285265,0.00357926,0.000252302,0.00365828,0.00277363,1.2673,0.00220397,0.0387354,1854,1212,21.7426,-2.71151
637,-188,21.7217,2.71606,0.00271399,0.00248452,0.00039267,0.00300835,0.00219017,0.643256,0.00179607,0.0390614,1861,1212,21.7217,-2.71602
644,-188,21.6023,2.62097,0.00239392,0.00151208,0.000223825,0.00244748,0.00145852,0.234866,0.0014217,0.0375612,1868,1212,21.6023,-2.62098
651,-188,21.5996,2.75586,0.00204959,0.000648338,-1.46913e-05,0.00204974,0.000648184,-0.0104829,0.00120977,0.0340559,1875,1212,21.5996,-2.75588
658,-188,21.661,2.77771,0.00144751,-0.000152203,2.89034e-06,0.00144751,-0.000152208,0.00180678,0.00101954,0.0311638,1882,1212,21.661,-2.77775
665,-188,21.6346,2.75452,0.000790591,-0.000765646,0.000113607,0.000798841,-0.000773896,0.0724887,0.000908058,0.0279939,1889,1212,21.6346,-2.75452
672,-188,21.631,2.74329,0.000130736,-0.00126889,0.000251309,0.000174492,-0.00131264,0.172384,0.00093868,0.0238937,1896,1212,21.631,-2.74332
679,-188,21.642,2.67188,-0.000521232,-0.00156474,0.00048672,-0.000329457,-0.00175652,0.375335,0.00107811,0.0457404,1903,1212,21.642,-2.67189
686,-188,21.7474,2.29297,0,0,0,0,0,0,0,-1,1910,1212,21.7475,-2.29294
693,-188,19.7142,4.79382,0,0,0,0,0,0,0,-1,1917,1212,19.7142,-4.79384
700,-188,19.6074,4.80115,-0.00216489,-0.00211522,0.00102583,-0.00111392,-0.00316619,0.797501,0.00185457,0.0474336,1924,1212,19.6075,-4.80119
707,-188,19.4039,4.8429,-0.00257045,-0.00211837,0.00103958,-0.00128054,-0.00340828,0.89245,0.00198793,0.0156653,1931,1212,19.404,-4.84296
714,-188,19.3916,4.73657,-0.002798,-0.00200142,0.00119022,-0.00114461,-0.00365481,0.946859,0.00215864,0.0124682,1938,1212,19.3916,-4.73654
721,-188,19.3258,4.61609,-0.00272671,-0.00166149,0.00140035,-0.000695881,-0.00369232,0.967121,0.0022655,0.0109205,1945,1212,19.3259,-4.61609
728,-188,19.2958,4.4751,-0.00187494,-0.00139348,0.00110218,-0.000506043,-0.00276238,0.892917,0.00169822,0.00878129,1952,1212,19.2958,-4.47514
735,-188,19.2991,4.33264,-0.000808683,-0.000976279,0.000669778,-0.000217482,-0.00156748,0.723165,0.000980565,0.0124322,1959,1212,19.299,-4.33264
742,-188,19.2886,4.18335,0.000706917,-0.000817153,0.000137918,0.000719297,-0.000829533,0.0895244,0.000894972,0.0149673,1966,1212,19.2886,-4.18332
749,-188,19.2762,4.04468,0.00254688,-0.0010704,-0.000601318,0.00264422,-0.00116774,-0.160487,0.00225519,0.014073,1973,1212,19.2763,-4.0447
756,-188,19.2874,3.89429,0.00456304,-0.00227644,-0.0013741,0.00482878,-0.00254218,-0.191035,0.00432334,0.0124424,1980,1212,19.2874,-3.89431
763,-188,19.2622,3.74463,0.00658402,-0.00368318,-0.00198039,0.00695276,-0.00405193,-0.184089,0.00642672,0.0139925,1987,1212,19.2622,-3.74463
770,-188,19.2518,3.53394,0.00855707,-0.00599257,-0.00243758,0.00895458,-0.00639009,-0.161657,0.0089004,0.0212954,1994,1212,19.2519,-3.534
777,-188,19.5225,3.09314,0.0104494,-0.00945469,-0.00273697,0.0108189,-0.00982419,-0.134191,0.0119229,0.0425981,2001,1212,19.5225,-3.09314
784,-188,19.8376,2.67786,0.0120766,-0.014414,-0.00275538,0.0123602,-0.0146976,-0.102551,0.0156412,0.0491154,2008,1212,19.8376,-2.67781
791,-188,20.2726,2.5105,0.0133499,-0.0213033,-0.00239182,0.0135142,-0.0214676,-0.068588,0.02037,0.0496598,2015,1212,20.2726,-2.5105
798,-188,20.4855,2.70129,0.0142097,-0.0308073,-0.00148712,0.0142588,-0.0308564,-0.0329866,0.0266283,0.0483053,2022,1212,20.4855,-2.70129
805,-188,0,0,0,0,0,0,0,0,0,-1,2029,1212,0,0
812,-188,0,0,0,0,0,0,0,0,0,-1,2036,1212,0,0
-700,-195,0,0,0,0,0,0,0,0,0,-1,524,1219,0,0
-693,-195,0,0,0,0,0,0,0,0,0,-1,531,1219,0,0
-686,-195,0,0,0,0,0,0,0,0,0,-1,538,1219,0,0
-679,-195,-10.5098,0.342407,0.0130644,0.00176764,-0.0353945,0.0432584,-0.0284263,-0.706273,0.0416815,0.0434017,545,1219,-10.5098,-0.34235
-672,-195,-10.5333,0.445435,0.0088914,0.00489951,-0.029779,0.0367413,-0.0229504,-0.751936,0.0347682,0.0436437,552,1219,-10.5334,-0.445428
-665,-195,-10.5289,0.507324,0.00518756,0.0062233,-0.0246904,0.0304013,-0.0189904,-0.795884,0.0287689,0.0456065,559,1219,-10.5289,-0.50728
-658,-195,-10.4208,0.430908,0.00205422,0.00642321,-0.0201424,0.0244992,-0.0160218,-0.839413,0.0235649,0.0421577,566,1219,-10.4209,-0.43091
-651,-195,-10.4857,0.573242,-0.000480615,0.00592462,-0.0161269,0.0191638,-0.0137198,-0.883417,0.0190719,0.0403155,573,1219,-10.4856,-0.573256
-644,-195,-10.7712,0.87854,-0.0023489,0.00503946,-0.0126336,0.0145079,-0.0118173,-0.927638,0.0152253,0.038007,580,1219,-10.7712,-0.878562
-637,-195,-11.039,1.22144,-0.00350414,0.0039917,-0.00966627,0.0106112,-0.0101237,-0.970341,0.0119724,0.0212553,587,1219,-11.039,-1.22138
-630,-195,-11.1214,1.38269,-0.00444389,0.00283281,-0.00731095,0.00736071,-0.00897179,-1.01628,0.00944485,0.00819147,594,1219,-11.1214,-1.38265
-623,-195,-11.1357,1.55127,-0.00520471,0.00240989,-0.00552113,0.00530918,-0.00810401,-1.08725,0.00779994,0.00787752,601,1219,-11.1358,-1.55122
-616,-195,-11.1371,1.72546,-0.0054868,0.00114508,-0.00426083,0.00322822,-0.00756995,-1.11606,0.0064001,0.0092388,608,1219,-11.1371,-1.72543
-609,-195,-11.1368,1.90002,-0.00540236,-0.000425311,-0.00353457,0.00140889,-0.00723656,-1.09212,0.00535613,0.017003,615,1219,-11.1368,-1.90005
-602,-195,-11.1605,2.07495,-0.00519677,-0.000542194,-0.00334115,0.00120232,-0.00694128,-1.0896,0.00507598,0.0208799,622,1219,-11.1606,-2.07491
-595,-195,-11.1738,2.25989,-0.00479924,-0.00105506,-0.00341613,0.000968314,-0.00682261,-1.03606,0.00490316,0.0159598,629,1219,-11.1737,-2.25991
-588,-195,-11.1567,2.42627,-0.00437737,-0.00121254,-0.00367698,0.00120807,-0.00679798,-0.988598,0.00498372,0.00856987,636,1219,-11.1567,-2.42629
-581,-195,-11.1763,2.56396,-0.00424581,-0.00102199,-0.00397239,0.00165307,-0.00692087,-0.978137,0.00525238,0.0101754,643,1219,-11.1763,-2.56396
-574,-195,-11.2242,2.54834,-0.00392502,-0.000679708,-0.00419803,0.00219836,-0.00680309,-0.969818,0.00541891,0.023422,650,1219,-11.2242,-2.54833
-567,-195,-11.2425,2.50232,0,0,0,0,0,0,0,-1,657,1219,-11.2425,-2.50232
-560,-195,-13.6769,0.898438,0,0,0,0,0,0,0,-1,664,1219,-13.6769,-0.898463
-553,-195,-13.4719,0.263306,-0.00248706,-0.000319498,-0.0044055,0.00313357,-0.00594013,-0.906006,0.00532158,0.0475663,671,1219,-13.4719,-0.26325
-546,-195,-14.1147,1.44312,-0.00184599,-0.000161135,-0.00429802,0.00337623,-0.00538336,-0.882173,0.00510142,0.0454767,678,1219,-14.1147,-1.44312
-539,-195,-13.8547,0.968384,-0.000981447,-0.000186475,-0.00407707,0.00351243,-0.00468036,-0.833991,0.0047461,0.0368234,685,1219,-13.8547,-0.968359
-532,-195,-13.8259,0.918091,0.000244988,-0.000570841,-0.00357692,0.00343718,-0.00376303,-0.728623,0.00415846,0.0364446,692,1219,-13.8258,-0.918121
-525,-195,-13.7975,0.745361,0.00210906,-0.00165268,-0.00261081,0.00344595,-0.00298957,-0.47325,0.00371866,0.0411024,699,1219,-13.7976,-0.745309
-518,-195,-13.7825,0.997559,0.00402434,-0.00442482,-0.00146977,0.00427271,-0.00467319,-0.167405,0.00516664,0.0432923,706,1219,-13.7824,-0.997525
-511,-195,-13.7805,1.2135,0.0080703,-0.00907432,0.000706594,0.00809937,-0.0091034,0.0411207,0.00993766,0.0440247,713,1219,-13.7805,-1.21349
-504,-195,0,0,0,0,0,0,0,0,0,-1,720,1219,0,0
-497,-195,0,0,0,0,0,0,0,0,0,-1,727,1219,0,0
-490,-195,0,0,0,0,0,0,0,0,0,-1,734,1219,0,0
-483,-195,0,0,0,0,0,0,0,0,0,-1,741,1219,0,0
-476,-195,0,0,0,0,0,0,0,0,0,-1,748,1219,0,0
-469,-195,0,0,0,0,0,0,0,0,0,-1,755,1219,0,0
-462,-195,0,0,0,0,0,0,0,0,0,-1,762,1219,0,0
-455,-195,0,0,0,0,0,0,0,0,0,-1,769,1219,0,0
-448,-195,0,0,0,0,0,0,0,0,0,-1,776,1219,0,0
-441,-195,0,0,0,0,0,0,0,0,0,-1,783,1219,0,0
-434,-195,0,0,0,0,0,0,0,0,0,-1,790,1219,0,0
-427,-195,0,0,0,0,0,0,0,0,0,-1,797,1219,0,0
-420,-195,0,0,0,0,0,0,0,0,0,-1,804,1219,0,0
-413,-195,0,0,0,0,0,0,0,0,0,-1,811,1219,0,0
-406,-195,0,0,0,0,0,0,0,0,0,-1,818,1219,0,0
-399,-195,0,0,0,0,0,0,0,0,0,-1,825,1219,0,0
-392,-195,0,0,0,0,0,0,0,0,0,-1,832,1219,0,0
-385,-195,0,0,0,0,0,0,0,0,0,-1,839,1219,0,0
-378,-195,0,0,0,0,0,0,0,0,0,-1,846,1219,0,0
-371,-195,0,0,0,0,0,0,0,0,0,-1,853,1219,0,0
-364,-195,0,0,0,0,0,0,0,0,0,-1,860,1219,0,0
-357,-195,0,0,0,0,0,0,0,0,0,-1,867,1219,0,0
-350,-195,0,0,0,0,0,0,0,0,0,-1,874,1219,0,0
-343,-195,0,0,0,0,0,0,0,0,0,-1,881,1219,0,0
-336,-195,0,0,0,0,0,0,0,0,0,-1,888,1219,0,0
-329,-195,0,0,0,0,0,0,0,0,0,-1,895,1219,0,0
-322,-195,0,0,0,0,0,0,0,0,0,-1,902,1219,0,0
-315,-195,0,0,0,0,0,0,0,0,0,-1,909,1219,0,0
-308,-195,0,0,0,0,0,0,0,0,0,-1,916,1219,0,0
-301,-195,0,0,0,0,0,0,0,0,0,-1,923,1219,0,0
-294,-195,0,0,0,0,0,0,0,0,0,-1,930,1219,0,0
-287,-195,0,0,0,0,0,0,0,0,0,-1,937,1219,0,0
-280,-195,0,0,0,0,0,0,0,0,0,-1,944,1219,0,0
-273,-195,0,0,0,0,0,0,0,0,0,-1,951,1219,0,0
-266,-195,0,0,0,0,0,0,0,0,0,-1,958,1219,0,0
-259,-195,0,0,0,0,0,0,0,0,0,-1,965,1219,0,0
-252,-195,0,0,0,0,0,0,0,0,0,-1,972,1219,0,0
-245,-195,0,0,0,0,0,0,0,0,0,-1,979,1219,0,0
-238,-195,0,0,0,0,0,0,0,0,0,-1,986,1219,0,0
-231,-195,0,0,0,0,0,0,0,0,0,-1,993,1219,0,0
-224,-195,0,0,0,0,0,0,0,0,0,-1,1000,1219,0,0
-217,-195,0,0,0,0,0,0,0,0,0,-1,1007,1219,0,0
-210,-195,0,0,0,0,0,0,0,0,0,-1,1014,1219,0,0
-203,-195,0,0,0,0,0,0,0,0,0,-1,1021,1219,0,0
-196,-195,0,0,0,0,0,0,0,0,0,-1,1028,1219,0,0
-189,-195,0,0,0,0,0,0,0,0,0,-1,1035,1219,0,0
-182,-195,0,0,0,0,0,0,0,0,0,-1,1042,1219,0,0
-175,-195,0,0,0,0,0,0,0,0,0,-1,1049,1219,0,0
-168,-195,0,0,0,0,0,0,0,0,0,-1,1056,1219,0,0
-161,-195,0,0,0,0,0,0,0,0,0,-1,1063,1219,0,0
-154,-195,0,0,0,0,0,0,0,0,0,-1,1070,1219,0,0
-147,-195,0,0,0,0,0,0,0,0,0,-1,1077,1219,0,0
-140,-195,0,0,0,0,0,0,0,0,0,-1,1084,1219,0,0
-133,-195,0,0,0,0,0,0,0,0,0,-1,1091,1219,0,0
-126,-195,0,0,0,0,0,0,0,0,0,-1,1098,1219,0,0
-119,-195,0,0,0,0,0,0,0,0,0,-1,1105,1219,0,0
-112,-195,0,0,0,0,0,0,0,0,0,-1,1112,1219,0,0
-105,-195,0,0,0,0,0,0,0,0,0,-1,1119,1219,0,0
-98,-195,0,0,0,0,0,0,0,0,0,-1,1126,1219,0,0
-91,-195,0,0,0,0,0,0,0,0,0,-1,1133,1219,0,0
-84,-195,0,0,0,0,0,0,0,0,0,-1,1140,1219,0,0
-77,-195,0,0,0,0,0,0,0,0,0,-1,1147,1219,0,0
-70,-195,0,0,0,0,0,0,0,0,0,-1,1154,1219,0,0
-63,-195,0,0,0,0,0,0,0,0,0,-1,1161,1219,0,0
-56,-195,0,0,0,0,0,0,0,0,0,-1,1168,1219,0,0
-49,-195,0,0,0,0,0,0,0,0,0,-1,1175,1219,0,0
-42,-195,0,0,0,0,0,0,0,0,0,-1,1182,1219,0,0
-35,-195,0,0,0,0,0,0,0,0,0,-1,1189,1219,0,0
-28,-195,0,0,0,0,0,0,0,0,0,-1,1196,1219,0,0
-21,-195,0,0,0,0,0,0,0,0,0,-1,1203,1219,0,0
-14,-195,0,0,0,0,0,0,0,0,0,-1,1210,1219,0,0
-7,-195,0,0,0,0,0,0,0,0,0,-1,1217,1219,0,0
0,-195,0,0,0,0,0,0,0,0,0,-1,1224,1219,0,0
7,-195,0,0,0,0,0,0,0,0,0,-1,1231,1219,0,0
14,-195,0,0,0,0,0,0,0,0,0,-1,1238,1219,0,0
21,-195,0,0,0,0,0,0,0,0,0,-1,1245,1219,0,0
28,-195,0,0,0,0,0,0,0,0,0,-1,1252,1219,0,0
35,-195,0,0,0,0,0,0,0,0,0,-1,1259,1219,0,0
42,-195,0,0,0,0,0,0,0,0,0,-1,1266,1219,0,0
49,-195,0,0,0,0,0,0,0,0,0,-1,1273,1219,0,0
56,-195,0,0,0,0,0,0,0,0,0,-1,1280,1219,0,0
63,-195,0,0,0,0,0,0,0,0,0,-1,1287,1219,0,0
70,-195,0,0,0,0,0,0,0,0,0,-1,1294,1219,0,0
77,-195,0,0,0,0,0,0,0,0,0,-1,1301,1219,0,0
84,-195,0,0,0,0,0,0,0,0,0,-1,1308,1219,0,0
91,-195,0,0,0,0,0,0,0,0,0,-1,1315,1219,0,0
98,-195,0,0,0,0,0,0,0,0,0,-1,1322,1219,0,0
105,-195,0,0,0,0,0,0,0,0,0,-1,1329,1219,0,0
112,-195,0,0,0,0,0,0,0,0,0,-1,1336,1219,0,0
119,-195,0,0,0,0,0,0,0,0,0,-1,1343,1219,0,0
126,-195,0,0,0,0,0,0,0,0,0,-1,1350,1219,0,0
133,-195,0,0,0,0,0,0,0,0,0,-1,1357,1219,0,0
140,-195,0,0,0,0,0,0,0,0,0,-1,1364,1219,0,0
147,-195,0,0,0,0,0,0,0,0,0,-1,1371,1219,0,0
154,-195,0,0,0,0,0,0,0,0,0,-1,1378,1219,0,0
161,-195,0,0,0,0,0,0,0,0,0,-1,1385,1219,0,0
168,-195,0,0,0,0,0,0,0,0,0,-1,1392,1219,0,0
175,-195,0,0,0,0,0,0,0,0,0,-1,1399,1219,0,0
182,-195,0,0,0,0,0,0,0,0,0,-1,1406,1219,0,0
189,-195,0,0,0,0,0,0,0,0,0,-1,1413,1219,0,0
196,-195,0,0,0,0,0,0,0,0,0,-1,1420,1219,0,0
203,-195,0,0,0,0,0,0,0,0,0,-1,1427,1219,0,0
210,-195,0,0,0,0,0,0,0,0,0,-1,1434,1219,0,0
217,-195,0,0,0,0,0,0,0,0,0,-1,1441,1219,0,0
224,-195,0,0,0,0,0,0,0,0,0,-1,1448,1219,0,0
231,-195,0,0,0,0,0,0,0,0,0,-1,1455,1219,0,0
238,-195,0,0,0,0,0,0,0,0,0,-1,1462,1219,0,0
245,-195,0,0,0,0,0,0,0,0,0,-1,1469,1219,0,0
252,-195,0,0,0,0,0,0,0,0,0,-1,1476,1219,0,0
259,-195,0,0,0,0,0,0,0,0,0,-1,1483,1219,0,0
266,-195,0,0,0,0,0,0,0,0,0,-1,1490,1219,0,0
273,-195,0,0,0,0,0,0,0,0,0,-1,1497,1219,0,0
280,-195,0,0,0,0,0,0,0,0,0,-1,1504,1219,0,0
287,-195,0,0,0,0,0,0,0,0,0,-1,1511,1219,0,0
294,-195,0,0,0,0,0,0,0,0,0,-1,1518,1219,0,0
301,-195,0,0,0,0,0,0,0,0,0,-1,1525,1219,0,0
308,-195,0,0,0,0,0,0,0,0,0,-1,1532,1219,0,0
315,-195,0,0,0,0,0,0,0,0,0,-1,1539,1219,0,0
322,-195,0,0,0,0,0,0,0,0,0,-1,1546,1219,0,0
329,-195,0,0,0,0,0,0,0,0,0,-1,1553,1219,0,0
336,-195,0,0,0,0,0,0,0,0,0,-1,1560,1219,0,0
343,-195,0,0,0,0,0,0,0,0,0,-1,1567,1219,0,0
350,-195,0,0,0,0,0,0,0,0,0,-1,1574,1219,0,0
357,-195,0,0,0,0,0,0,0,0,0,-1,1581,1219,0,0
364,-195,0,0,0,0,0,0,0,0,0,-1,1588,1219,0,0
371,-195,0,0,0,0,0,0,0,0,0,-1,1595,1219,0,0
378,-195,0,0,0,0,0,0,0,0,0,-1,1602,1219,0,0
385,-195,0,0,0,0,0,0,0,0,0,-1,1609,1219,0,0
392,-195,0,0,0,0,0,0,0,0,0,-1,1616,1219,0,0
399,-195,0,0,0,0,0,0,0,0,0,-1,1623,1219,0,0
406,-195,0,0,0,0,0,0,0,0,0,-1,1630,1219,0,0
413,-195,0,0,0,0,0,0,0,0,0,-1,1637,1219,0,0
420,-195,0,0,0,0,0,0,0,0,0,-1,1644,1219,0,0
427,-195,0,0,0,0,0,0,0,0,0,-1,1651,1219,0,0
434,-195,0,0,0,0,0,0,0,0,0,-1,1658,1219,0,0
441,-195,0,0,0,0,0,0,0,0,0,-1,1665,1219,0,0
448,-195,0,0,0,0,0,0,0,0,0,-1,1672,1219,0,0
455,-195,0,0,0,0,0,0,0,0,0,-1,1679,1219,0,0
462,-195,0,0,0,0,0,0,0,0,0,-1,1686,1219,0,0
469,-195,0,0,0,0,0,0,0,0,0,-1,1693,1219,0,0
476,-195,0,0,0,0,0,0,0,0,0,-1,1700,1219,0,0
483,-195,0,0,0,0,0,0,0,0,0,-1,1707,1219,0,0
490,-195,0,0,0,0,0,0,0,0,0,-1,1714,1219,0,0
497,-195,0,0,0,0,0,0,0,0,0,-1,1721,1219,0,0
504,-195,0,0,0,0,0,0,0,0,0,-1,1728,1219,0,0
511,-195,0,0,0,0,0,0,0,0,0,-1,1735,1219,0,0
518,-195,0,0,0,0,0,0,0,0,0,-1,1742,1219,0,0
525,-195,0,0,0,0,0,0,0,0,0,-1,1749,1219,0,0
532,-195,0,0,0,0,0,0,0,0,0,-1,1756,1219,0,0
539,-195,0,0,0,0,0,0,0,0,0,-1,1763,1219,0,0
546,-195,0,0,0,0,0,0,0,0,0,-1,1770,1219,0,0
553,-195,0,0,0,0,0,0,0,0,0,-1,1777,1219,0,0
560,-195,0,0,0,0,0,0,0,0,0,-1,1784,1219,0,0
567,-195,0,0,0,0,0,0,0,0,0,-1,1791,1219,0,0
574,-195,0,0,0,0,0,0,0,0,0,-1,1798,1219,0,0
581,-195,0,0,0,0,0,0,0,0,0,-1,1805,1219,0,0
588,-195,0,0,0,0,0,0,0,0,0,-1,1812,1219,0,0
595,-195,0,0,0,0,0,0,0,0,0,-1,1819,1219,0,0
602,-195,0,0,0,0,0,0,0,0,0,-1,1826,1219,0,0
609,-195,0,0,0,0,0,0,0,0,0,-1,1833,1219,0,0
616,-195,0,0,0,0,0,0,0,0,0,-1,1840,1219,0,0
623,-195,0,0,0,0,0,0,0,0,0,-1,1847,1219,0,0
630,-195,21.7682,2.58789,0.00171708,0.00400918,0.000426718,0.00408604,0.00164021,1.39258,0.00237431,0.0375728,1854,1219,21.7682,-2.58785
637,-195,21.7192,2.77234,0.00178284,0.00257779,0.000620354,0.00291708,0.00144355,1.07031,0.00168421,0.0369396,1861,1219,21.7193,-2.77235
644,-195,21.6798,2.74695,0.00162522,0.00129773,0.000506687,0.00199397,0.000928989,0.629111,0.00115211,0.0351776,1868,1219,21.6798,-2.74699
651,-195,21.6219,2.77039,0.00142972,0.000215865,0.000337867,0.00151742,0.00012816,0.253981,0.000971717,0.0286488,1875,1219,21.6219,-2.77035
658,-195,21.6068,2.80884,0.00109776,-0.000617269,0.000283329,0.00114336,-0.000662863,0.159557,0.00105505,0.0238308,1882,1219,21.6068,-2.80884
665,-195,21.6281,2.78015,0.000724435,-0.00118345,0.000275698,0.000763476,-0.00122249,0.140671,0.00115676,0.0220656,1889,1219,21.628,-2.78014
672,-195,21.6693,2.68079,0.000291526,-0.00163744,0.000312903,0.000341013,-0.00168693,0.156856,0.00125384,0.0348053,1896,1219,21.6693,-2.68077
679,-195,21.72,2.65906,-0.000152705,-0.00184002,0.000454439,-3.80976e-05,-0.00195463,0.247045,0.00129057,0.0486058,1903,1219,21.72,-2.65909
686,-195,21.8785,2.70435,0,0,0,0,0,0,0,-1,1910,1219,21.8785,-2.70438
693,-195,19.426,4.95093,0,0,0,0,0,0,0,-1,1917,1219,19.426,-4.95088
700,-195,19.2876,4.96082,-0.00132338,-0.00222122,0.000744121,-0.000903252,-0.00264135,0.513981,0.00155017,0.0361467,1924,1219,19.2876,-4.96088
707,-195,19.15,4.94763,-0.00162883,-0.00220185,0.000699102,-0.00115981,-0.00267088,0.590925,0.00154647,0.0168652,1931,1219,19.15,-4.94766
714,-195,19.1449,4.79663,-0.00187888,-0.00203811,0.000811897,-0.0011427,-0.00277428,0.736524,0.00161,0.0162323,1938,1219,19.1448,-4.79659
721,-195,19.1448,4.65454,-0.00183732,-0.00163256,0.00102551,-0.000704337,-0.00276554,0.835151,0.00165951,0.0115892,1945,1219,19.1448,-4.65454
728,-195,19.1382,4.50525,-0.000998577,-0.00138306,0.000741068,-0.000425223,-0.00195642,0.658489,0.00118818,0.01023,1952,1219,19.1382,-4.50522
735,-195,19.1198,4.34534,-6.93126e-05,-0.00102116,0.000442795,0.000104819,-0.00119529,0.374678,0.000833996,0.0124782,1959,1219,19.1198,-4.34528
742,-195,19.118,4.19531,0.00123896,-0.00107126,0.000247095,0.0012651,-0.00109739,0.105369,0.00136513,0.014154,1966,1219,19.118,-4.19533
749,-195,19.1356,4.04578,0.00294444,-0.00143663,-0.00019117,0.00295276,-0.00144495,-0.0435253,0.00258829,0.0133222,1973,1219,19.1356,-4.04577
756,-195,19.1505,3.89551,0.00485241,-0.00272323,-0.00053286,0.00488971,-0.00276052,-0.0698801,0.00447352,0.0126434,1980,1219,19.1505,-3.89547
763,-195,19.1406,3.72998,0.00674542,-0.00425004,-0.00059773,0.00677782,-0.00428244,-0.0541489,0.00643959,0.0151748,1987,1219,19.1406,-3.72995
770,-195,19.2014,3.52856,0.00868233,-0.00661985,-0.000389439,0.00869223,-0.00662976,-0.0254279,0.00887283,0.028355,1994,1219,19.2014,-3.52861
777,-195,19.9072,3.7594,0.0105694,-0.0100638,0.000172784,0.0105709,-0.0100652,0.00837329,0.0119154,0.0423042,2001,1219,19.9072,-3.75945
784,-195,19.8246,2.95459,0,0,0,0,0,0,0,-1,2008,1219,19.8246,-2.95457
791,-195,20.4561,2.80042,0.0135691,-0.0214417,0.00296132,0.0138178,-0.0216904,0.0837899,0.0206679,0.0450997,2015,1219,20.456,-2.80047
798,-195,20.6459,2.72766,0.0145626,-0.0303743,0.00548638,0.0152227,-0.0310345,0.119748,0.0272217,0.0471858,2022,1219,20.6458,-2.7276
805,-195,0,0,0,0,0,0,0,0,0,-1,2029,1219,0,0
812,-195,0,0,0,0,0,0,0,0,0,-1,2036,1219,0,0
-700,-202,0,0,0,0,0,0,0,0,0,-1,524,1226,0,0
-693,-202,0,0,0,0,0,0,0,0,0,-1,531,1226,0,0
-686,-202,0,0,0,0,0,0,0,0,0,-1,538,1226,0,0
-679,-202,-9.8385,0.531006,0.00973343,0.0047798,-0.0410117,0.048343,-0.0338298,-0.755238,0.0476885,0.0466737,545,1226,-9.8385,-0.531065
-672,-202,-9.72668,0.383545,0.00542689,0.00616081,-0.0342778,0.0400736,-0.0284859,-0.790751,0.0397708,0.0459607,552,1226,-9.72668,-0.38351
-665,-202,-9.81836,0.284912,0.00178992,0.00640086,-0.0283389,0.0325279,-0.0243372,-0.825985,0.0329444,0.0459322,559,1226,-9.81835,-0.284906
-658,-202,-9.50616,0.731812,-0.00111446,0.00598743,-0.0231094,0.0258171,-0.0209441,-0.861631,0.0270464,0.0425361,566,1226,-9.50614,-0.731785
-651,-202,-9.76318,0.687744,-0.00330961,0.00520751,-0.0185408,0.0199725,-0.0180746,-0.898283,0.0219756,0.044464,573,1226,-9.76318,-0.687762
-644,-202,-10.3228,0.850708,-0.00474566,0.00426343,-0.0145802,0.0150191,-0.0155013,-0.935222,0.0176217,0.0434721,580,1226,-10.3227,-0.850653
-637,-202,-10.8075,1.12927,-0.00542441,0.0032939,-0.011209,0.0109616,-0.0130921,-0.970847,0.0139055,0.0312548,587,1226,-10.8075,-1.12933
-630,-202,-10.9031,1.34277,-0.0057888,0.0022878,-0.00848007,0.00764201,-0.011143,-1.00762,0.0109081,0.0136452,594,1226,-10.9032,-1.34279
-623,-202,-10.9393,1.52698,-0.00596075,0.00196374,-0.00629252,0.00543757,-0.00943458,-1.06638,0.00868919,0.00798908,601,1226,-10.9392,-1.527
-616,-202,-10.953,1.71362,-0.00564539,0.000976035,-0.00468684,0.00340355,-0.00807291,-1.0929,0.00680629,0.00805309,608,1226,-10.953,-1.71368
-609,-202,-10.9442,1.87305,-0.00498529,-0.000229447,-0.00359023,0.00169893,-0.00691367,-1.0779,0.00526756,0.0200883,615,1226,-10.9442,-1.87304
-602,-202,-10.9767,2.06287,-0.00435388,-0.000247025,-0.00300411,0.0013384,-0.0059393,-1.08519,0.00447292,0.020648,622,1226,-10.9767,-2.06286
-595,-202,-11.0099,2.25476,-0.00362522,-0.000667843,-0.00276939,0.000992906,-0.00528597,-1.03061,0.00389734,0.0161026,629,1226,-11.01,-2.25475
-588,-202,-10.9628,2.44263,-0.00293096,-0.000717577,-0.00286362,0.00124576,-0.0048943,-0.969791,0.00374778,0.00797515,636,1226,-10.9628,-2.44257
-581,-202,-10.9582,2.55505,-0.00273922,-0.000329961,-0.0031753,0.00186153,-0.00493071,-0.966698,0.00405276,0.0119238,643,1226,-10.9582,-2.55499
-574,-202,-11.0329,2.57349,-0.0024927,0.000152722,-0.00346602,0.00253985,-0.00487983,-0.96768,0.00435418,0.0192395,650,1226,-11.0329,-2.57346
-567,-202,-11.0695,2.58057,0,0,0,0,0,0,0,-1,657,1226,-11.0695,-2.58055
-560,-202,-10.929,2.73096,0,0,0,0,0,0,0,-1,664,1226,-10.929,-2.73092
-553,-202,-13.2086,-0.515381,0,0,0,0,0,0,0,-1,671,1226,-13.2086,0.515424
-546,-202,-13.9344,1.59265,-0.00163611,0.00150514,-0.00411897,0.00434278,-0.00447375,-0.967546,0.00509042,0.0454462,678,1226,-13.9345,-1.59268
-539,-202,-13.8307,0.967407,-0.00139244,0.00177434,-0.00419283,0.0046728,-0.0042909,-0.965941,0.00517676,0.0401513,685,1226,-13.8307,-0.967447
-532,-202,-13.8386,0.926147,-0.000967266,0.00175006,-0.00406111,0.00467376,-0.00389096,-0.946823,0.00495173,0.0304972,692,1226,-13.8386,-0.926105
-525,-202,-13.7853,0.856201,-5.54501e-05,0.00113231,-0.00351171,0.0041,-0.00302314,-0.869163,0.00412818,0.0370354,699,1226,-13.7854,-0.856209
-518,-202,-13.8691,1.12622,0.00117253,-0.000869112,-0.00252801,0.00287804,-0.00257463,-0.593508,0.00314973,0.0424354,706,1226,-13.8691,-1.12617
-511,-202,-13.9389,1.3573,0,0,0,0,0,0,0,-1,713,1226,-13.9389,-1.35731
-504,-202,0,0,0,0,0,0,0,0,0,-1,720,1226,0,0
-497,-202,0,0,0,0,0,0,0,0,0,-1,727,1226,0,0
-490,-202,0,0,0,0,0,0,0,0,0,-1,734,1226,0,0
-483,-202,0,0,0,0,0,0,0,0,0,-1,741,1226,0,0
-476,-202,0,0,0,0,0,0,0,0,0,-1,748,1226,0,0
-469,-202,0,0,0,0,0,0,0,0,0,-1,755,1226,0,0
-462,-202,0,0,0,0,0,0,0,0,0,-1,762,1226,0,0
-455,-202,0,0,0,0,0,0,0,0,0,-1,769,1226,0,0
-448,-202,0,0,0,0,0,0,0,0,0,-1,776,1226,0,0
-441,-202,0,0,0,0,0,0,0,0,0,-1,783,1226,0,0
-434,-202,0,0,0,0,0,0,0,0,0,-1,790,1226,0,0
-427,-202,0,0,0,0,0,0,0,0,0,-1,797,1226,0,0
-420,-202,0,0,0,0,0,0,0,0,0,-1,804,1226,0,0
-413,-202,0,0,0,0,0,0,0,0,0,-1,811,1226,0,0
-406,-202,0,0,0,0,0,0,0,0,0,-1,818,1226,0,0
-399,-202,0,0,0,0,0,0,0,0,0,-1,825,1226,0,0
-392,-202,0,0,0,0,0,0,0,0,0,-1,832,1226,0,0
-385,-202,0,0,0,0,0,0,0,0,0,-1,839,1226,0,0
-378,-202,0,0,0,0,0,0,0,0,0,-1,846,1226,0,0
-371,-202,0,0,0,0,0,0,0,0,0,-1,853,1226,0,0
-364,-202,0,0,0,0,0,0,0,0,0,-1,860,1226,0,0
-357,-202,0,0,0,0,0,0,0,0,0,-1,867,1226,0,0
-350,-202,0,0,0,0,0,0,0,0,0,-1,874,1226,0,0
-343,-202,0,0,0,0,0,0,0,0,0,-1,881,1226,0,0
-336,-202,0,0,0,0,0,0,0,0,0,-1,888,1226,0,0
-329,-202,0,0,0,0,0,0,0,0,0,-1,895,1226,0,0
-322,-202,0,0,0,0,0,0,0,0,0,-1,902,1226,0,0
-315,-202,0,0,0,0,0,0,0,0,0,-1,909,1226,0,0
-308,-202,0,0,0,0,0,0,0,0,0,-1,916,1226,0,0
-301,-202,0,0,0,0,0,0,0,0,0,-1,923,1226,0,0
-294,-202,0,0,0,0,0,0,0,0,0,-1,930,1226,0,0
-287,-202,0,0,0,0,0,0,0,0,0,-1,937,1226,0,0
-280,-202,0,0,0,0,0,0,0,0,0,-1,944,1226,0,0
-273,-202,0,0,0,0,0,0,0,0,0,-1,951,1226,0,0
-266,-202,0,0,0,0,0,0,0,0,0,-1,958,1226,0,0
-259,-202,0,0,0,0,0,0,0,0,0,-1,965,1226,0,0
-252,-202,0,0,0,0,0,0,0,0,0,-1,972,1226,0,0
-245,-202,0,0,0,0,0,0,0,0,0,-1,979,1226,0,0
-238,-202,0,0,0,0,0,0,0,0,0,-1,986,1226,0,0
-231,-202,0,0,0,0,0,0,0,0,0,-1,993,1226,0,0
-224,-202,0,0,0,0,0,0,0,0,0,-1,1000,1226,0,0
-217,-202,0,0,0,0,0,0,0,0,0,-1,1007,1226,0,0
-210,-202,0,0,0,0,0,0,0,0,0,-1,1014,1226,0,0
-203,-202,0,0,0,0,0,0,0,0,0,-1,1021,1226,0,0
-196,-202,0,0,0,0,0,0,0,0,0,-1,1028,1226,0,0
-189,-202,0,0,0,0,0,0,0,0,0,-1,1035,1226,0,0
-182,-202,0,0,0,0,0,0,0,0,0,-1,1042,1226,0,0
-175,-202,0,0,0,0,0,0,0,0,0,-1,1049,1226,0,0
-168,-202,0,0,0,0,0,0,0,0,0,-1,1056,1226,0,0
-161,-202,0,0,0,0,0,0,0,0,0,-1,1063,1226,0,0
-154,-202,0,0,0,0,0,0,0,0,0,-1,1070,1226,0,0
-147,-202,0,0,0,0,0,0,0,0,0,-1,1077,1226,0,0
-140,-202,0,0,0,0,0,0,0,0,0,-1,1084,1226,0,0
-133,-202,0,0,0,0,0,0,0,0,0,-1,1091,1226,0,0
-126,-202,0,0,0,0,0,0,0,0,0,-1,1098,1226,0,0
-119,-202,0,0,0,0,0,0,0,0,0,-1,1105,1226,0,0
-112,-202,0,0,0,0,0,0,0,0,0,-1,1112,1226,0,0
-105,-202,0,0,0,0,0,0,0,0,0,-1,1119,1226,0,0
-98,-202,0,0,0,0,0,0,0,0,0,-1,1126,1226,0,0
-91,-202,0,0,0,0,0,0,0,0,0,-1,1133,1226,0,0
-84,-202,0,0,0,0,0,0,0,0,0,-1,1140,1226,0,0
-77,-202,0,0,0,0,0,0,0,0,0,-1,1147,1226,0,0
-70,-202,0,0,0,0,0,0,0,0,0,-1,1154,1226,0,0
-63,-202,0,0,0,0,0,0,0,0,0,-1,1161,1226,0,0
-56,-202,0,0,0,0,0,0,0,0,0,-1,1168,1226,0,0
-49,-202,0,0,0,0,0,0,0,0,0,-1,1175,1226,0,0
-42,-202,0,0,0,0,0,0,0,0,0,-1,1182,1226,0,0
-35,-202,0,0,0,0,0,0,0,0,0,-1,1189,1226,0,0
-28,-202,0,0,0,0,0,0,0,0,0,-1,1196,1226,0,0
-21,-202,0,0,0,0,0,0,0,0,0,-1,1203,1226,0,0
-14,-202,0,0,0,0,0,0,0,0,0,-1,1210,1226,0,0
-7,-202,0,0,0,0,0,0,0,0,0,-1,1217,1226,0,0
0,-202,0,0,0,0,0,0,0,0,0,-1,1224,1226,0,0
7,-202,0,0,0,0,0,0,0,0,0,-1,1231,1226,0,0
14,-202,0,0,0,0,0,0,0,0,0,-1,1238,1226,0,0
21,-202,0,0,0,0,0,0,0,0,0,-1,1245,1226,0,0
28,-202,0,0,0,0,0,0,0,0,0,-1,1252,1226,0,0
35,-202,0,0,0,0,0,0,0,0,0,-1,1259,1226,0,0
42,-202,0,0,0,0,0,0,0,0,0,-1,1266,1226,0,0
49,-202,0,0,0,0,0,0,0,0,0,-1,1273,1226,0,0
56,-202,0,0,0,0,0,0,0,0,0,-1,1280,1226,0,0
63,-202,0,0,0,0,0,0,0,0,0,-1,1287,1226,0,0
70,-202,0,0,0,0,0,0,0,0,0,-1,1294,1226,0,0
77,-202,0,0,0,0,0,0,0,0,0,-1,1301,1226,0,0
84,-202,0,0,0,0,0,0,0,0,0,-1,1308,1226,0,0
91,-202,0,0,0,0,0,0,0,0,0,-1,1315,1226,0,0
98,-202,0,0,0,0,0,0,0,0,0,-1,1322,1226,0,0
105,-202,0,0,0,0,0,0,0,0,0,-1,1329,1226,0,0
112,-202,0,0,0,0,0,0,0,0,0,-1,1336,1226,0,0
119,-202,0,0,0,0,0,0,0,0,0,-1,1343,1226,0,0
126,-202,0,0,0,0,0,0,0,0,0,-1,1350,1226,0,0
133,-202,0,0,0,0,0,0,0,0,0,-1,1357,1226,0,0
140,-202,0,0,0,0,0,0,0,0,0,-1,1364,1226,0,0
147,-202,0,0,0,0,0,0,0,0,0,-1,1371,1226,0,0
154,-202,0,0,0,0,0,0,0,0,0,-1,1378,1226,0,0
161,-202,0,0,0,0,0,0,0,0,0,-1,1385,1226,0,0
168,-202,0,0,0,0,0,0,0,0,0,-1,1392,1226,0,0
175,-202,0,0,0,0,0,0,0,0,0,-1,1399,1226,0,0
182,-202,0,0,0,0,0,0,0,0,0,-1,1406,1226,0,0
189,-202,0,0,0,0,0,0,0,0,0,-1,1413,1226,0,0
196,-202,0,0,0,0,0,0,0,0,0,-1,1420,1226,0,0
203,-202,0,0,0,0,0,0,0,0,0,-1,1427,1226,0,0
210,-202,0,0,0,0,0,0,0,0,0,-1,1434,1226,0,0
217,-202,0,0,0,0,0,0,0,0,0,-1,1441,1226,0,0
224,-202,0,0,0,0,0,0,0,0,0,-1,1448,1226,0,0
231,-202,0,0,0,0,0,0,0,0,0,-1,1455,1226,0,0
238,-202,0,0,0,0,0,0,0,0,0,-1,1462,1226,0,0
245,-202,0,0,0,0,0,0,0,0,0,-1,1469,1226,0,0
252,-202,0,0,0,0,0,0,0,0,0,-1,1476,1226,0,0
259,-202,0,0,0,0,0,0,0,0,0,-1,1483,1226,0,0
266,-202,0,0,0,0,0,0,0,0,0,-1,1490,1226,0,0
273,-202,0,0,0,0,0,0,0,0,0,-1,1497,1226,0,0
280,-202,0,0,0,0,0,0,0,0,0,-1,1504,1226,0,0
287,-202,0,0,0,0,0,0,0,0,0,-1,1511,1226,0,0
294,-202,0,0,0,0,0,0,0,0,0,-1,1518,1226,0,0
301,-202,0,0,0,0,0,0,0,0,0,-1,1525,1226,0,0
308,-202,0,0,0,0,0,0,0,0,0,-1,1532,1226,0,0
315,-202,0,0,0,0,0,0,0,0,0,-1,1539,1226,0,0
322,-202,0,0,0,0,0,0,0,0,0,-1,1546,1226,0,0
329,-202,0,0,0,0,0,0,0,0,0,-1,1553,1226,0,0
336,-202,0,0,0,0,0,0,0,0,0,-1,1560,1226,0,0
343,-202,0,0,0,0,0,0,0,0,0,-1,1567,1226,0,0
350,-202,0,0,0,0,0,0,0,0,0,-1,1574,1226,0,0
357,-202,0,0,0,0,0,0,0,0,0,-1,1581,1226,0,0
364,-202,0,0,0,0,0,0,0,0,0,-1,1588,1226,0,0
371,-202,0,0,0,0,0,0,0,0,0,-1,1595,1226,0,0
378,-202,0,0,0,0,0,0,0,0,0,-1,1602,1226,0,0
385,-202,0,0,0,0,0,0,0,0,0,-1,1609,1226,0,0
392,-202,0,0,0,0,0,0,0,0,0,-1,1616,1226,0,0
399,-202,0,0,0,0,0,0,0,0,0,-1,1623,1226,0,0
406,-202,0,0,0,0,0,0,0,0,0,-1,1630,1226,0,0
413,-202,0,0,0,0,0,0,0,0,0,-1,1637,1226,0,0
420,-202,0,0,0,0,0,0,0,0,0,-1,1644,1226,0,0
427,-202,0,0,0,0,0,0,0,0,0,-1,1651,1226,0,0
434,-202,0,0,0,0,0,0,0,0,0,-1,1658,1226,0,0
441,-202,0,0,0,0,0,0,0,0,0,-1,1665,1226,0,0
448,-202,0,0,0,0,0,0,0,0,0,-1,1672,1226,0,0
455,-202,0,0,0,0,0,0,0,0,0,-1,1679,1226,0,0
462,-202,0,0,0,0,0,0,0,0,0,-1,1686,1226,0,0
469,-202,0,0,0,0,0,0,0,0,0,-1,1693,1226,0,0
476,-202,0,0,0,0,0,0,0,0,0,-1,1700,1226,0,0
483,-202,0,0,0,0,0,0,0,0,0,-1,1707,1226,0,0
490,-202,0,0,0,0,0,0,0,0,0,-1,1714,1226,0,0
497,-202,0,0,0,0,0,0,0,0,0,-1,1721,1226,0,0
504,-202,0,0,0,0,0,0,0,0,0,-1,1728,1226,0,0
511,-202,0,0,0,0,0,0,0,0,0,-1,1735,1226,0,0
518,-202,0,0,0,0,0,0,0,0,0,-1,1742,1226,0,0
525,-202,0,0,0,0,0,0,0,0,0,-1,1749,1226,0,0
532,-202,0,0,0,0,0,0,0,0,0,-1,1756,1226,0,0
539,-202,0,0,0,0,0,0,0,0,0,-1,1763,1226,0,0
546,-202,0,0,0,0,0,0,0,0,0,-1,1770,1226,0,0
553,-202,0,0,0,0,0,0,0,0,0,-1,1777,1226,0,0
560,-202,0,0,0,0,0,0,0,0,0,-1,1784,1226,0,0
567,-202,0,0,0,0,0,0,0,0,0,-1,1791,1226,0,0
574,-202,0,0,0,0,0,0,0,0,0,-1,1798,1226,0,0
581,-202,0,0,0,0,0,0,0,0,0,-1,1805,1226,0,0
588,-202,0,0,0,0,0,0,0,0,0,-1,1812,1226,0,0
595,-202,0,0,0,0,0,0,0,0,0,-1,1819,1226,0,0
602,-202,0,0,0,0,0,0,0,0,0,-1,1826,1226,0,0
609,-202,0,0,0,0,0,0,0,0,0,-1,1833,1226,0,0
616,-202,0,0,0,0,0,0,0,0,0,-1,1840,1226,0,0
623,-202,0,0,0,0,0,0,0,0,0,-1,1847,1226,0,0
630,-202,21.6852,2.64258,0.00108808,0.00365936,0.000317966,0.0036981,0.00104935,1.44957,0.00220065,0.0363839,1854,1226,21.6852,-2.64254
637,-202,21.705,2.78333,0.00111518,0.00220351,0.000796882,0.0026243,0.000694389,1.08497,0.00157011,0.0336082,1861,1226,21.705,-2.78328
644,-202,21.7245,2.79565,0.00094225,0.000899237,0.000880073,0.00180108,4.04072e-05,0.773182,0.00118748,0.033049,1868,1226,21.7245,-2.79565
651,-202,21.6855,2.77429,0.000796373,-0.000178189,0.000811768,0.00125588,-0.000637698,0.515089,0.00111251,0.0273439,1875,1226,21.6855,-2.77431
658,-202,21.6443,2.77698,0.000641588,-0.000934457,0.000690404,0.000901247,-0.00119412,0.359732,0.00121369,0.0228293,1882,1226,21.6443,-2.77698
665,-202,21.6678,2.74109,0.000466197,-0.00143309,0.000575914,0.000627183,-0.00159408,0.272575,0.00132233,0.0215503,1889,1226,21.6678,-2.74109
672,-202,21.8304,2.7583,0.00020787,-0.00183912,0.000506143,0.000326182,-0.00195743,0.229628,0.00142617,0.0430446,1896,1226,21.8305,-2.75831
679,-202,21.834,2.75476,-6.86133e-05,-0.00197078,0.000548831,7.83814e-05,-0.00211777,0.26169,0.00143869,0.0489437,1903,1226,21.834,-2.75475
686,-202,22.0061,2.8335,0,0,0,0,0,0,0,-1,1910,1226,22.0061,-2.83346
693,-202,18.954,5.2926,0,0,0,0,0,0,0,-1,1917,1226,18.954,-5.29263
700,-202,18.9315,5.12708,-0.000772327,-0.00229372,0.000554579,-0.000591632,-0.00247441,0.314977,0.00149202,0.0272876,1924,1226,18.9315,-5.12705
707,-202,18.9534,4.94397,-0.000959755,-0.00228812,0.000446891,-0.000823406,-0.00242447,0.296134,0.00142357,0.0225196,1931,1226,18.9533,-4.94391
714,-202,18.99,4.80945,-0.00123062,-0.00207612,0.000552189,-0.000957934,-0.00234881,0.458696,0.00136374,0.013831,1938,1226,18.99,-4.80947
721,-202,19.0016,4.64563,-0.00121929,-0.00163204,0.000799631,-0.000599829,-0.0022515,0.659109,0.00134636,0.0113167,1945,1226,19.0016,-4.64567
728,-202,18.9841,4.49414,-0.000391927,-0.00144922,0.000557111,-0.000152564,-0.00168859,0.405804,0.00107847,0.00991103,1952,1226,18.9841,-4.49409
735,-202,18.972,4.34033,0.000435474,-0.00120194,0.000399691,0.000527829,-0.00129429,0.22708,0.00108258,0.0103593,1959,1226,18.9721,-4.34039
742,-202,18.9797,4.18372,0.00153325,-0.00140435,0.000473022,0.00160754,-0.00147864,0.155779,0.00178232,0.00986222,1966,1226,18.9797,-4.18367
749,-202,18.9991,4.02686,0.00299386,-0.00188085,0.000301985,0.0030125,-0.00189949,0.0616351,0.0028601,0.00883572,1973,1226,18.9991,-4.02686
756,-202,18.9924,3.87366,0.00460473,-0.00321431,0.000346897,0.00462009,-0.00322967,0.0442498,0.0045557,0.00954879,1980,1226,18.9924,-3.87369
763,-202,18.9833,3.74768,0.00618332,-0.00478432,0.000749967,0.00623436,-0.00483537,0.0679583,0.0064081,0.0151155,1987,1226,18.9833,-3.74763
770,-202,19.069,3.52551,0.00776825,-0.00709988,0.00156625,0.00793145,-0.00726308,0.103825,0.0087754,0.0399899,1994,1226,19.069,-3.52547
777,-202,19.1812,3.26538,0,0,0,0,0,0,0,-1,2001,1226,19.1811,-3.26539
784,-202,20.6903,2.85767,0.0102094,-0.0148021,0.0051358,0.0112229,-0.0158156,0.194837,0.0156856,0.0475531,2008,1226,20.6903,-2.85769
791,-202,20.4323,3.15564,0.0107334,-0.0207352,0.00828189,0.0127799,-0.0227818,0.242256,0.0208005,0.0457825,2015,1226,20.4323,-3.1556
798,-202,20.7648,2.61609,0,0,0,0,0,0,0,-1,2022,1226,20.7648,-2.61605
805,-202,0,0,0,0,0,0,0,0,0,-1,2029,1226,0,0
812,-202,0,0,0,0,0,0,0,0,0,-1,2036,1226,0,0
-700,-209,0,0,0,0,0,0,0,0,0,-1,524,1233,0,0
-693,-209,0,0,0,0,0,0,0,0,0,-1,531,1233,0,0
-686,-209,0,0,0,0,0,0,0,0,0,-1,538,1233,0,0
-679,-209,-8.69196,0.633301,0,0,0,0,0,0,0,-1,545,1233,-8.69194,-0.633305
-672,-209,-9.15021,0.467773,0,0,0,0,0,0,0,-1,552,1233,-9.15023,-0.467786
-665,-209,-9.42633,0.273804,-0.00154636,0.00895869,-0.0321829,0.0363149,-0.0289025,-0.866289,0.0377343,0.0470551,559,1233,-9.42635,-0.273744
-658,-209,-9.51752,0.490479,-0.00425756,0.00756769,-0.0263222,0.0286332,-0.0253231,-0.895877,0.0311712,0.0486717,566,1233,-9.51749,-0.490424
-651,-209,-8.84937,0.629395,-0.0060997,0.00621737,-0.0211894,0.022125,-0.0220073,-0.926823,0.0254799,0.0481173,573,1233,-8.84938,-0.629433
-644,-209,-10.5366,1.0387,-0.00709248,0.00493909,-0.0167329,0.0167047,-0.0188581,-0.957963,0.0205447,0.0498303,580,1233,-10.5366,-1.03875
-637,-209,-10.6168,1.1167,-0.00728904,0.0037797,-0.0129241,0.0123045,-0.0158139,-0.987696,0.0162763,0.0410377,587,1233,-10.6168,-1.11669
-630,-209,-10.7015,1.26929,-0.00705022,0.00270195,-0.00978684,0.00876014,-0.0131084,-1.01651,0.0127087,0.0215399,594,1233,-10.7015,-1.26929
-623,-209,-10.7529,1.5249,-0.00666004,0.00226886,-0.00721688,0.00629056,-0.0106817,-1.06239,0.00990768,0.0113643,601,1233,-10.7529,-1.52494
-616,-209,-10.7609,1.71863,-0.00583909,0.00128443,-0.00526851,0.00408218,-0.00863684,-1.08263,0.00749863,0.0126541,608,1233,-10.7609,-1.71864
-609,-209,-10.7764,1.90015,-0.0046986,0.000220865,-0.0038113,0.00229724,-0.00677498,-1.07196,0.00544636,0.0139482,615,1233,-10.7764,-1.90013
-602,-209,-10.7903,2.06458,-0.00368638,0.000111699,-0.00285851,0.00164448,-0.00521916,-1.0786,0.004138,0.0147269,622,1233,-10.7904,-2.06456
-595,-209,-10.7797,2.23279,-0.00260139,-0.000309811,-0.0022985,0.00111266,-0.00402386,-1.01662,0.0031203,0.0114792,629,1233,-10.7797,-2.23278
-588,-209,-10.7522,2.41907,-0.00158776,-0.000295091,-0.00220083,0.00135234,-0.0032352,-0.928222,0.00272196,0.0127648,636,1233,-10.7522,-2.41911
-581,-209,-10.7214,2.62036,-0.00130976,0.000251975,-0.00248507,0.00207597,-0.00313376,-0.937625,0.00302844,0.0136984,643,1233,-10.7215,-2.62034
-574,-209,-10.8412,2.72913,-0.00111737,0.000843931,-0.00280698,0.00283663,-0.00311007,-0.953451,0.00343454,0.0185382,650,1233,-10.8412,-2.72911
-567,-209,-10.9995,2.96191,-0.0010207,0.0014561,-0.00298424,0.0034487,-0.00301329,-0.982075,0.00373365,0.0410311,657,1233,-10.9995,-2.96188
-560,-209,-11.1817,3.3396,0,0,0,0,0,0,0,-1,664,1233,-11.1817,-3.33957
-553,-209,-13.5651,1.5343,0,0,0,0,0,0,0,-1,671,1233,-13.5651,-1.53424
-546,-209,-13.7641,1.27673,-0.00173325,0.00326913,-0.00375794,0.00528215,-0.00374627,-1.07902,0.00523764,0.0460809,678,1233,-13.7641,-1.2767
-539,-209,-13.8531,0.987793,-0.00222171,0.00397406,-0.00398127,0.00592072,-0.00416836,-1.11602,0.00585415,0.0384874,685,1233,-13.8531,-0.987845
-532,-209,-13.8228,0.971191,-0.00275321,0.0045094,-0.00403035,0.00630305,-0.00454685,-1.15208,0.00629149,0.0304041,692,1233,-13.8228,-0.971224
-525,-209,-13.8832,1.02307,-0.00305933,0.00462614,-0.00368487,0.0061074,-0.00454059,-1.18858,0.00616976,0.0335528,699,1233,-13.8832,-1.02302
-518,-209,-13.9348,1.07629,-0.00312008,0.00370722,-0.00274782,0.00467575,-0.00408861,-1.23192,0.00506389,0.0417147,706,1233,-13.9348,-1.07634
-511,-209,-13.9536,0.904297,-0.0013587,0.000656574,-0.000576953,0.00081006,-0.00151219,-1.31079,0.00136102,0.0411106,713,1233,-13.9536,-0.904249
-504,-209,0,0,0,0,0,0,0,0,0,-1,720,1233,0,0
-497,-209,0,0,0,0,0,0,0,0,0,-1,727,1233,0,0
-490,-209,0,0,0,0,0,0,0,0,0,-1,734,1233,0,0
-483,-209,0,0,0,0,0,0,0,0,0,-1,741,1233,0,0
-476,-209,0,0,0,0,0,0,0,0,0,-1,748,1233,0,0
-469,-209,0,0,0,0,0,0,0,0,0,-1,755,1233,0,0
-462,-209,0,0,0,0,0,0,0,0,0,-1,762,1233,0,0
-455,-209,0,0,0,0,0,0,0,0,0,-1,769,1233,0,0
-448,-209,0,0,0,0,0,0,0,0,0,-1,776,1233,0,0
-441,-209,0,0,0,0,0,0,0,0,0,-1,783,1233,0,0
-434,-209,0,0,0,0,0,0,0,0,0,-1,790,1233,0,0
-427,-209,0,0,0,0,0,0,0,0,0,-1,797,1233,0,0
-420,-209,0,0,0,0,0,0,0,0,0,-1,804,1233,0,0
-413,-209,0,0,0,0,0,0,0,0,0,-1,811,1233,0,0
-406,-209,0,0,0,0,0,0,0,0,0,-1,818,1233,0,0
-399,-209,0,0,0,0,0,0,0,0,0,-1,825,1233,0,0
-392,-209,0,0,0,0,0,0,0,0,0,-1,832,1233,0,0
-385,-209,0,0,0,0,0,0,0,0,0,-1,839,1233,0,0
-378,-209,0,0,0,0,0,0,0,0,0,-1,846,1233,0,0
-371,-209,0,0,0,0,0,0,0,0,0,-1,853,1233,0,0
-364,-209,0,0,0,0,0,0,0,0,0,-1,860,1233,0,0
-357,-209,0,0,0,0,0,0,0,0,0,-1,867,1233,0,0
-350,-209,0,0,0,0,0,0,0,0,0,-1,874,1233,0,0
-343,-209,0,0,0,0,0,0,0,0,0,-1,881,1233,0,0
-336,-209,0,0,0,0,0,0,0,0,0,-1,888,1233,0,0
-329,-209,0,0,0,0,0,0,0,0,0,-1,895,1233,0,0
-322,-209,0,0,0,0,0,0,0,0,0,-1,902,1233,0,0
-315,-209,0,0,0,0,0,0,0,0,0,-1,909,1233,0,0
-308,-209,0,0,0,0,0,0,0,0,0,-1,916,1233,0,0
-301,-209,0,0,0,0,0,0,0,0,0,-1,923,1233,0,0
-294,-209,0,0,0,0,0,0,0,0,0,-1,930,1233,0,0
-287,-209,0,0,0,0,0,0,0,0,0,-1,937,1233,0,0
-280,-209,0,0,0,0,0,0,0,0,0,-1,944,1233,0,0
-273,-209,0,0,0,0,0,0,0,0,0,-1,951,1233,0,0
-266,-209,0,0,0,0,0,0,0,0,0,-1,958,1233,0,0
-259,-209,0,0,0,0,0,0,0,0,0,-1,965,1233,0,0
-252,-209,0,0,0,0,0,0,0,0,0,-1,972,1233,0,0
-245,-209,0,0,0,0,0,0,0,0,0,-1,979,1233,0,0
-238,-209,0,0,0,0,0,0,0,0,0,-1,986,1233,0,0
-231,-209,0,0,0,0,0,0,0,0,0,-1,993,1233,0,0
-224,-209,0,0,0,0,0,0,0,0,0,-1,1000,1233,0,0
-217,-209,0,0,0,0,0,0,0,0,0,-1,1007,1233,0,0
-210,-209,0,0,0,0,0,0,0,0,0,-1,1014,1233,0,0
-203,-209,0,0,0,0,0,0,0,0,0,-1,1021,1233,0,0
-196,-209,0,0,0,0,0,0,0,0,0,-1,1028,1233,0,0
-189,-209,0,0,0,0,0,0,0,0,0,-1,1035,1233,0,0
-182,-209,0,0,0,0,0,0,0,0,0,-1,1042,1233,0,0
-175,-209,0,0,0,0,0,0,0,0,0,-1,1049,1233,0,0
-168,-209,0,0,0,0,0,0,0,0,0,-1,1056,1233,0,0
-161,-209,0,0,0,0,0,0,0,0,0,-1,1063,1233,0,0
-154,-209,0,0,0,0,0,0,0,0,0,-1,1070,1233,0,0
-147,-209,0,0,0,0,0,0,0,0,0,-1,1077,1233,0,0
-140,-209,0,0,0,0,0,0,0,0,0,-1,1084,1233,0,0
-133,-209,0,0,0,0,0,0,0,0,0,-1,1091,1233,0,0
-126,-209,0,0,0,0,0,0,0,0,0,-1,1098,1233,0,0
-119,-209,0,0,0,0,0,0,0,0,0,-1,1105,1233,0,0
-112,-209,0,0,0,0,0,0,0,0,0,-1,1112,1233,0,0
-105,-209,0,0,0,0,0,0,0,0,0,-1,1119,1233,0,0
-98,-209,0,0,0,0,0,0,0,0,0,-1,1126,1233,0,0
-91,-209,0,0,0,0,0,0,0,0,0,-1,1133,1233,0,0
-84,-209,0,0,0,0,0,0,0,0,0,-1,1140,1233,0,0
-77,-209,0,0,0,0,0,0,0,0,0,-1,1147,1233,0,0
-70,-209,0,0,0,0,0,0,0,0,0,-1,1154,1233,0,0
-63,-209,0,0,0,0,0,0,0,0,0,-1,1161,1233,0,0
-56,-209,0,0,0,0,0,0,0,0,0,-1,1168,1233,0,0
-49,-209,0,0,0,0,0,0,0,0,0,-1,1175,1233,0,0
-42,-209,0,0,0,0,0,0,0,0,0,-1,1182,1233,0,0
-35,-209,0,0,0,0,0,0,0,0,0,-1,1189,1233,0,0
-28,-209,0,0,0,0,0,0,0,0,0,-1,1196,1233,0,0
-21,-209,0,0,0,0,0,0,0,0,0,-1,1203,1233,0,0
-14,-209,0,0,0,0,0,0,0,0,0,-1,1210,1233,0,0
-7,-209,0,0,0,0,0,0,0,0,0,-1,1217,1233,0,0
0,-209,0,0,0,0,0,0,0,0,0,-1,1224,1233,0,0
7,-209,0,0,0,0,0,0,0,0,0,-1,1231,1233,0,0
14,-209,0,0,0,0,0,0,0,0,0,-1,1238,1233,0,0
21,-209,0,0,0,0,0,0,0,0,0,-1,1245,1233,0,0
28,-209,0,0,0,0,0,0,0,0,0,-1,1252,1233,0,0
35,-209,0,0,0,0,0,0,0,0,0,-1,1259,1233,0,0
42,-209,0,0,0,0,0,0,0,0,0,-1,1266,1233,0,0
49,-209,0,0,0,0,0,0,0,0,0,-1,1273,1233,0,0
56,-209,0,0,0,0,0,0,0,0,0,-1,1280,1233,0,0
63,-209,0,0,0,0,0,0,0,0,0,-1,1287,1233,0,0
70,-209,0,0,0,0,0,0,0,0,0,-1,1294,1233,0,0
77,-209,0,0,0,0,0,0,0,0,0,-1,1301,1233,0,0
84,-209,0,0,0,0,0,0,0,0,0,-1,1308,1233,0,0
91,-209,0,0,0,0,0,0,0,0,0,-1,1315,1233,0,0
98,-209,0,0,0,0,0,0,0,0,0,-1,1322,1233,0,0
105,-209,0,0,0,0,0,0,0,0,0,-1,1329,1233,0,0
112,-209,0,0,0,0,0,0,0,0,0,-1,1336,1233,0,0
119,-209,0,0,0,0,0,0,0,0,0,-1,1343,1233,0,0
126,-209,0,0,0,0,0,0,0,0,0,-1,1350,1233,0,0
133,-209,0,0,0,0,0,0,0,0,0,-1,1357,1233,0,0
140,-209,0,0,0,0,0,0,0,0,0,-1,1364,1233,0,0
147,-209,0,0,0,0,0,0,0,0,0,-1,1371,1233,0,0
154,-209,0,0,0,0,0,0,0,0,0,-1,1378,1233,0,0
161,-209,0,0,0,0,0,0,0,0,0,-1,1385,1233,0,0
168,-209,0,0,0,0,0,0,0,0,0,-1,1392,1233,0,0
175,-209,0,0,0,0,0,0,0,0,0,-1,1399,1233,0,0
182,-209,0,0,0,0,0,0,0,0,0,-1,1406,1233,0,0
189,-209,0,0,0,0,0,0,0,0,0,-1,1413,1233,0,0
196,-209,0,0,0,0,0,0,0,0,0,-1,1420,1233,0,0
203,-209,0,0,0,0,0,0,0,0,0,-1,1427,1233,0,0
210,-209,0,0,0,0,0,0,0,0,0,-1,1434,1233,0,0
217,-209,0,0,0,0,0,0,0,0,0,-1,1441,1233,0,0
224,-209,0,0,0,0,0,0,0,0,0,-1,1448,1233,0,0
231,-209,0,0,0,0,0,0,0,0,0,-1,1455,1233,0,0
238,-209,0,0,0,0,0,0,0,0,0,-1,1462,1233,0,0
245,-209,0,0,0,0,0,0,0,0,0,-1,1469,1233,0,0
252,-209,0,0,0,0,0,0,0,0,0,-1,1476,1233,0,0
259,-209,0,0,0,0,0,0,0,0,0,-1,1483,1233,0,0
266,-209,0,0,0,0,0,0,0,0,0,-1,1490,1233,0,0
273,-209,0,0,0,0,0,0,0,0,0,-1,1497,1233,0,0
280,-209,0,0,0,0,0,0,0,0,0,-1,1504,1233,0,0
287,-209,0,0,0,0,0,0,0,0,0,-1,1511,1233,0,0
294,-209,0,0,0,0,0,0,0,0,0,-1,1518,1233,0,0
301,-209,0,0,0,0,0,0,0,0,0,-1,1525,1233,0,0
308,-209,0,0,0,0,0,0,0,0,0,-1,1532,1233,0,0
315,-209,0,0,0,0,0,0,0,0,0,-1,1539,1233,0,0
322,-209,0,0,0,0,0,0,0,0,0,-1,1546,1233,0,0
329,-209,0,0,0,0,0,0,0,0,0,-1,1553,1233,0,0
336,-209,0,0,0,0,0,0,0,0,0,-1,1560,1233,0,0
343,-209,0,0,0,0,0,0,0,0,0,-1,1567,1233,0,0
350,-209,0,0,0,0,0,0,0,0,0,-1,1574,1233,0,0
357,-209,0,0,0,0,0,0,0,0,0,-1,1581,1233,0,0
364,-209,0,0,0,0,0,0,0,0,0,-1,1588,1233,0,0
371,-209,0,0,0,0,0,0,0,0,0,-1,1595,1233,0,0
378,-209,0,0,0,0,0,0,0,0,0,-1,1602,1233,0,0
385,-209,0,0,0,0,0,0,0,0,0,-1,1609,1233,0,0
392,-209,0,0,0,0,0,0,0,0,0,-1,1616,1233,0,0
399,-209,0,0,0,0,0,0,0,0,0,-1,1623,1233,0,0
406,-209,0,0,0,0,0,0,0,0,0,-1,1630,1233,0,0
413,-209,0,0,0,0,0,0,0,0,0,-1,1637,1233,0,0
420,-209,0,0,0,0,0,0,0,0,0,-1,1644,1233,0,0
427,-209,0,0,0,0,0,0,0,0,0,-1,1651,1233,0,0
434,-209,0,0,0,0,0,0,0,0,0,-1,1658,1233,0,0
441,-209,0,0,0,0,0,0,0,0,0,-1,1665,1233,0,0
448,-209,0,0,0,0,0,0,0,0,0,-1,1672,1233,0,0
455,-209,0,0,0,0,0,0,0,0,0,-1,1679,1233,0,0
462,-209,0,0,0,0,0,0,0,0,0,-1,1686,1233,0,0
469,-209,0,0,0,0,0,0,0,0,0,-1,1693,1233,0,0
476,-209,0,0,0,0,0,0,0,0,0,-1,1700,1233,0,0
483,-209,0,0,0,0,0,0,0,0,0,-1,1707,1233,0,0
490,-209,0,0,0,0,0,0,0,0,0,-1,1714,1233,0,0
497,-209,0,0,0,0,0,0,0,0,0,-1,1721,1233,0,0
504,-209,0,0,0,0,0,0,0,0,0,-1,1728,1233,0,0
511,-209,0,0,0,0,0,0,0,0,0,-1,1735,1233,0,0
518,-209,0,0,0,0,0,0,0,0,0,-1,1742,1233,0,0
525,-209,0,0,0,0,0,0,0,0,0,-1,1749,1233,0,0
532,-209,0,0,0,0,0,0,0,0,0,-1,1756,1233,0,0
539,-209,0,0,0,0,0,0,0,0,0,-1,1763,1233,0,0
546,-209,0,0,0,0,0,0,0,0,0,-1,1770,1233,0,0
553,-209,0,0,0,0,0,0,0,0,0,-1,1777,1233,0,0
560,-209,0,0,0,0,0,0,0,0,0,-1,1784,1233,0,0
567,-209,0,0,0,0,0,0,0,0,0,-1,1791,1233,0,0
574,-209,0,0,0,0,0,0,0,0,0,-1,1798,1233,0,0
581,-209,0,0,0,0,0,0,0,0,0,-1,1805,1233,0,0
588,-209,0,0,0,0,0,0,0,0,0,-1,1812,1233,0,0
595,-209,0,0,0,0,0,0,0,0,0,-1,1819,1233,0,0
602,-209,0,0,0,0,0,0,0,0,0,-1,1826,1233,0,0
609,-209,0,0,0,0,0,0,0,0,0,-1,1833,1233,0,0
616,-209,0,0,0,0,0,0,0,0,0,-1,1840,1233,0,0
623,-209,21.6118,2.65137,0.00223427,0.00366915,-0.00140782,0.0045318,0.00137163,-1.02105,0.0026835,0.0357487,1847,1233,21.6119,-2.65133
630,-209,21.6003,2.63379,0.000847537,0.00272143,0.000188137,0.00274013,0.000828835,1.47171,0.00162264,0.0359193,1854,1233,21.6003,-2.63379
637,-209,21.6453,2.66333,0.000113889,0.00175937,0.00102124,0.00224805,-0.000374794,1.12448,0.00163799,0.0348913,1861,1233,21.6453,-2.66338
644,-209,21.662,2.71704,-0.000539546,0.000818413,0.00133982,0.00164148,-0.00136261,1.01992,0.0017369,0.0306169,1868,1233,21.662,-2.71704
651,-209,21.6495,2.75916,-0.000820754,-6.04209e-05,0.00137787,0.000988767,-0.00186994,0.920004,0.00167641,0.0242294,1875,1233,21.6496,-2.75921
658,-209,21.6532,2.7627,-0.000838847,-0.000700737,0.00122755,0.000459698,-0.00199928,0.813496,0.0015096,0.0219411,1882,1233,21.6532,-2.76268
665,-209,21.7144,2.72302,-0.00078522,-0.00115869,0.00103944,8.41259e-05,-0.00202804,0.696522,0.00138092,0.0376181,1889,1233,21.7144,-2.72302
672,-209,21.8203,2.66028,0,0,0,0,0,0,0,-1,1896,1233,21.8203,-2.66034
679,-209,21.9219,2.80994,0,0,0,0,0,0,0,-1,1903,1233,21.9218,-2.80994
686,-209,22.1779,3.19214,0,0,0,0,0,0,0,-1,1910,1233,22.1778,-3.19215
693,-209,18.8219,5.24329,0,0,0,0,0,0,0,-1,1917,1233,18.8218,-5.24334
700,-209,18.772,5.18433,-0.00069621,-0.00218639,0.000567383,-0.000504773,-0.00237783,0.325409,0.00144662,0.0234711,1924,1233,18.7719,-5.18427
707,-209,18.8341,4.96545,-0.000606445,-0.00224794,0.000366528,-0.000528322,-0.00232606,0.210002,0.00140804,0.0182475,1931,1233,18.8341,-4.9654
714,-209,18.8425,4.80518,-0.000730234,-0.0020172,0.000434792,-0.000597113,-0.00215033,0.297109,0.00128174,0.011965,1938,1233,18.8425,-4.8052
721,-209,18.8298,4.63074,-0.000708346,-0.00152031,0.000693039,-0.000311133,-0.00191753,0.520441,0.0011883,0.0109987,1945,1233,18.8298,-4.63077
728,-209,18.8491,4.47888,0.000125189,-0.00139551,0.000471365,0.000259443,-0.00152977,0.277473,0.00111642,0.0105564,1952,1233,18.8492,-4.47885
735,-209,18.8376,4.33496,0.000862308,-0.00125699,0.000432666,0.000947236,-0.00134192,0.193825,0.00132818,0.0118126,1959,1233,18.8377,-4.33496
742,-209,18.8401,4.18787,0.0017593,-0.00155929,0.000754478,0.00192278,-0.00172276,0.213377,0.00210581,0.010311,1966,1233,18.8401,-4.18781
749,-209,18.8455,4.0354,0.00291542,-0.00210088,0.000841756,0.00305291,-0.00223836,0.161898,0.00306696,0.00877315,1973,1233,18.8455,-4.03543
756,-209,18.8308,3.88879,0.00411534,-0.00341378,0.00125727,0.00431974,-0.00361818,0.161164,0.00458892,0.00945495,1980,1233,18.8308,-3.88883
763,-209,18.8082,3.77673,0.00524883,-0.00496272,0.0021198,0.00567139,-0.00538528,0.196761,0.00638428,0.0159355,1987,1233,18.8082,-3.77674
770,-209,18.9629,3.55835,0.00625639,-0.00716527,0.00356218,0.00714321,-0.00805209,0.243996,0.00877824,0.043273,1994,1233,18.9628,-3.55836
777,-209,19.1381,3.33789,0,0,0,0,0,0,0,-1,2001,1233,19.138,-3.33786
784,-209,20.582,2.74207,0.00678287,-0.0142014,0.00914205,0.010207,-0.0176256,0.358372,0.0162583,0.0449104,2008,1233,20.582,-2.74202
791,-209,20.4834,3.49829,0.00579202,-0.0194361,0.013827,0.0118943,-0.0255384,0.415619,0.0220851,0.0434518,2015,1233,20.4833,-3.49825
798,-209,20.2488,3.8667,0,0,0,0,0,0,0,-1,2022,1233,20.2487,-3.86673
805,-209,0,0,0,0,0,0,0,0,0,-1,2029,1233,0,0
812,-209,0,0,0,0,0,0,0,0,0,-1,2036,1233,0,0
-700,-216,0,0,0,0,0,0,0,0,0,-1,524,1240,0,0
-693,-216,0,0,0,0,0,0,0,0,0,-1,531,1240,0,0
-686,-216,0,0,0,0,0,0,0,0,0,-1,538,1240,0,0
-679,-216,-7.8598,0.781006,0,0,0,0,0,0,0,-1,545,1240,-7.85982,-0.78106
-672,-216,-11.7461,2.2511,0,0,0,0,0,0,0,-1,552,1240,-11.7461,-2.25106
-665,-216,-9.07855,0.256714,0,0,0,0,0,0,0,-1,559,1240,-9.07857,-0.256765
-658,-216,-9.25787,0.4729,0,0,0,0,0,0,0,-1,566,1240,-9.2579,-0.472854
-651,-216,-8.03839,0.54248,0,0,0,0,0,0,0,-1,573,1240,-8.03837,-0.542484
-644,-216,-10.4473,1.24426,-0.0106437,0.00734279,-0.0184263,0.0188534,-0.0221543,-1.01242,0.0237013,0.0464693,580,1240,-10.4473,-1.24428
-637,-216,-10.4404,1.31384,-0.0100475,0.0056164,-0.0143491,0.0141318,-0.0185629,-1.03521,0.018934,0.0411917,587,1240,-10.4404,-1.31381
-630,-216,-10.5443,1.21729,-0.00896375,0.00411524,-0.0109545,0.0103337,-0.0151822,-1.05449,0.01482,0.027009,594,1240,-10.5442,-1.21733
-623,-216,-10.5534,1.50037,-0.00787416,0.00325087,-0.00810305,0.00751693,-0.0121402,-1.08619,0.0114532,0.0128154,601,1240,-10.5534,-1.50032
-616,-216,-10.5623,1.71143,-0.00645632,0.00204059,-0.00589165,0.0050558,-0.00947154,-1.09777,0.00851554,0.0149159,608,1240,-10.5623,-1.71145
-609,-216,-10.5713,1.90466,-0.00478177,0.000916612,-0.0041467,0.00309862,-0.00696379,-1.08641,0.00595069,0.0135222,615,1240,-10.5713,-1.90463
-602,-216,-10.5919,2.05005,-0.0033279,0.000592407,-0.00286857,0.00210657,-0.00484206,-1.08512,0.00411411,0.0118743,622,1240,-10.5918,-2.05005
-595,-216,-10.5746,2.18066,-0.00183513,5.69483e-05,-0.00199023,0.00131454,-0.00309273,-1.00726,0.00261266,0.0167158,629,1240,-10.5746,-2.1807
-588,-216,-10.5599,2.37354,-0.000504271,0.000115789,-0.00166198,0.00149641,-0.00188489,-0.877609,0.00195649,0.0195447,636,1240,-10.5599,-2.37352
-581,-216,-10.5736,2.61938,-0.00014217,0.000838692,-0.00190983,0.00232005,-0.00162353,-0.911079,0.00228864,0.0173538,643,1240,-10.5736,-2.61939
-574,-216,-10.5977,2.88501,-4.18592e-05,0.00154109,-0.00225633,0.00314073,-0.0016415,-0.954083,0.00280589,0.0176379,650,1240,-10.5976,-2.88502
-567,-216,-10.6504,3.12952,-0.000202492,0.00230918,-0.00250181,0.00385266,-0.00174597,-1.01801,0.00330777,0.0302562,657,1240,-10.6504,-3.12949
-560,-216,-10.7546,3.45361,0,0,0,0,0,0,0,-1,664,1240,-10.7546,-3.45363
-553,-216,-12.2567,-0.189087,0,0,0,0,0,0,0,-1,671,1240,-12.2567,0.189105
-546,-216,-13.967,0.906494,0,0,0,0,0,0,0,-1,678,1240,-13.967,-0.90653
-539,-216,-13.8203,0.980469,-0.00313287,0.00612823,-0.00382706,0.00750504,-0.00450968,-1.22546,0.00700819,0.0397637,685,1240,-13.8203,-0.980521
-532,-216,-13.7601,1.0824,-0.00442934,0.00719373,-0.00401424,0.00844535,-0.00568095,-1.26856,0.00820771,0.0379904,692,1240,-13.7601,-1.08235
-525,-216,-13.8171,1.02368,-0.00569753,0.00799602,-0.00384908,0.00900378,-0.00670529,-1.31473,0.00910194,0.0385618,699,1240,-13.8171,-1.02374
-518,-216,-13.8624,1.03992,-0.00683338,0.00803226,-0.00306404,0.00863904,-0.00744016,-1.37529,0.00929193,0.0409467,706,1240,-13.8624,-1.03995
-511,-216,-13.9063,1.05347,-0.00646953,0.00610918,-0.00101377,0.00619036,-0.00655071,-1.49089,0.00735704,0.0404448,713,1240,-13.9063,-1.0535
-504,-216,-13.6873,0.82373,-0.00120041,0.00162259,0.00400845,0.00446079,-0.00403861,0.954684,0.00490915,0.0403419,720,1240,-13.6873,-0.823695
-497,-216,0,0,0,0,0,0,0,0,0,-1,727,1240,0,0
-490,-216,0,0,0,0,0,0,0,0,0,-1,734,1240,0,0
-483,-216,0,0,0,0,0,0,0,0,0,-1,741,1240,0,0
-476,-216,0,0,0,0,0,0,0,0,0,-1,748,1240,0,0
-469,-216,0,0,0,0,0,0,0,0,0,-1,755,1240,0,0
-462,-216,0,0,0,0,0,0,0,0,0,-1,762,1240,0,0
-455,-216,0,0,0,0,0,0,0,0,0,-1,769,1240,0,0
-448,-216,0,0,0,0,0,0,0,0,0,-1,776,1240,0,0
-441,-216,0,0,0,0,0,0,0,0,0,-1,783,1240,0,0
-434,-216,0,0,0,0,0,0,0,0,0,-1,790,1240,0,0
-427,-216,0,0,0,0,0,0,0,0,0,-1,797,1240,0,0
-420,-216,0,0,0,0,0,0,0,0,0,-1,804,1240,0,0
-413,-216,0,0,0,0,0,0,0,0,0,-1,811,1240,0,0
-406,-216,0,0,0,0,0,0,0,0,0,-1,818,1240,0,0
-399,-216,0,0,0,0,0,0,0,0,0,-1,825,1240,0,0
-392,-216,0,0,0,0,0,0,0,0,0,-1,832,1240,0,0
-385,-216,0,0,0,0,0,0,0,0,0,-1,839,1240,0,0
-378,-216,0,0,0,0,0,0,0,0,0,-1,846,1240,0,0
-371,-216,0,0,0,0,0,0,0,0,0,-1,853,1240,0,0
-364,-216,0,0,0,0,0,0,0,0,0,-1,860,1240,0,0
-357,-216,0,0,0,0,0,0,0,0,0,-1,867,1240,0,0
-350,-216,0,0,0,0,0,0,0,0,0,-1,874,1240,0,0
-343,-216,0,0,0,0,0,0,0,0,0,-1,881,1240,0,0
-336,-216,0,0,0,0,0,0,0,0,0,-1,888,1240,0,0
-329,-216,0,0,0,0,0,0,0,0,0,-1,895,1240,0,0
-322,-216,0,0,0,0,0,0,0,0,0,-1,902,1240,0,0
-315,-216,0,0,0,0,0,0,0,0,0,-1,909,1240,0,0
-308,-216,0,0,0,0,0,0,0,0,0,-1,916,1240,0,0
-301,-216,0,0,0,0,0,0,0,0,0,-1,923,1240,0,0
-294,-216,0,0,0,0,0,0,0,0,0,-1,930,1240,0,0
-287,-216,0,0,0,0,0,0,0,0,0,-1,937,1240,0,0
-280,-216,0,0,0,0,0,0,0,0,0,-1,944,1240,0,0
-273,-216,0,0,0,0,0,0,0,0,0,-1,951,1240,0,0
-266,-216,0,0,0,0,0,0,0,0,0,-1,958,1240,0,0
-259,-216,0,0,0,0,0,0,0,0,0,-1,965,1240,0,0
-252,-216,0,0,0,0,0,0,0,0,0,-1,972,1240,0,0
-245,-216,0,0,0,0,0,0,0,0,0,-1,979,1240,0,0
-238,-216,0,0,0,0,0,0,0,0,0,-1,986,1240,0,0
-231,-216,0,0,0,0,0,0,0,0,0,-1,993,1240,0,0
-224,-216,0,0,0,0,0,0,0,0,0,-1,1000,1240,0,0
-217,-216,0,0,0,0,0,0,0,0,0,-1,1007,1240,0,0
-210,-216,0,0,0,0,0,0,0,0,0,-1,1014,1240,0,0
-203,-216,0,0,0,0,0,0,0,0,0,-1,1021,1240,0,0
-196,-216,0,0,0,0,0,0,0,0,0,-1,1028,1240,0,0
-189,-216,0,0,0,0,0,0,0,0,0,-1,1035,1240,0,0
-182,-216,0,0,0,0,0,0,0,0,0,-1,1042,1240,0,0
-175,-216,0,0,0,0,0,0,0,0,0,-1,1049,1240,0,0
-168,-216,0,0,0,0,0,0,0,0,0,-1,1056,1240,0,0
-161,-216,0,0,0,0,0,0,0,0,0,-1,1063,1240,0,0
-154,-216,0,0,0,0,0,0,0,0,0,-1,1070,1240,0,0
-147,-216,0,0,0,0,0,0,0,0,0,-1,1077,1240,0,0
-140,-216,0,0,0,0,0,0,0,0,0,-1,1084,1240,0,0
-133,-216,0,0,0,0,0,0,0,0,0,-1,1091,1240,0,0
-126,-216,0,0,0,0,0,0,0,0,0,-1,1098,1240,0,0
-119,-216,0,0,0,0,0,0,0,0,0,-1,1105,1240,0,0
-112,-216,0,0,0,0,0,0,0,0,0,-1,1112,1240,0,0
-105,-216,0,0,0,0,0,0,0,0,0,-1,1119,1240,0,0
-98,-216,0,0,0,0,0,0,0,0,0,-1,1126,1240,0,0
-91,-216,0,0,0,0,0,0,0,0,0,-1,1133,1240,0,0
-84,-216,0,0,0,0,0,0,0,0,0,-1,1140,1240,0,0
-77,-216,0,0,0,0,0,0,0,0,0,-1,1147,1240,0,0
-70,-216,0,0,0,0,0,0,0,0,0,-1,1154,1240,0,0
-63,-216,0,0,0,0,0,0,0,0,0,-1,1161,1240,0,0
-56,-216,0,0,0,0,0,0,0,0,0,-1,1168,1240,0,0
-49,-216,0,0,0,0,0,0,0,0,0,-1,1175,1240,0,0
-42,-216,0,0,0,0,0,0,0,0,0,-1,1182,1240,0,0
-35,-216,0,0,0,0,0,0,0,0,0,-1,1189,1240,0,0
-28,-216,0,0,0,0,0,0,0,0,0,-1,1196,1240,0,0
-21,-216,0,0,0,0,0,0,0,0,0,-1,1203,1240,0,0
-14,-216,0,0,0,0,0,0,0,0,0,-1,1210,1240,0,0
-7,-216,0,0,0,0,0,0,0,0,0,-1,1217,1240,0,0
0,-216,0,0,0,0,0,0,0,0,0,-1,1224,1240,0,0
7,-216,0,0,0,0,0,0,0,0,0,-1,1231,1240,0,0
14,-216,0,0,0,0,0,0,0,0,0,-1,1238,1240,0,0
21,-216,0,0,0,0,0,0,0,0,0,-1,1245,1240,0,0
28,-216,0,0,0,0,0,0,0,0,0,-1,1252,1240,0,0
35,-216,0,0,0,0,0,0,0,0,0,-1,1259,1240,0,0
42,-216,0,0,0,0,0,0,0,0,0,-1,1266,1240,0,0
49,-216,0,0,0,0,0,0,0,0,0,-1,1273,1240,0,0
56,-216,0,0,0,0,0,0,0,0,0,-1,1280,1240,0,0
63,-216,0,0,0,0,0,0,0,0,0,-1,1287,1240,0,0
70,-216,0,0,0,0,0,0,0,0,0,-1,1294,1240,0,0
77,-216,0,0,0,0,0,0,0,0,0,-1,1301,1240,0,0
84,-216,0,0,0,0,0,0,0,0,0,-1,1308,1240,0,0
91,-216,0,0,0,0,0,0,0,0,0,-1,1315,1240,0,0
98,-216,0,0,0,0,0,0,0,0,0,-1,1322,1240,0,0
105,-216,0,0,0,0,0,0,0,0,0,-1,1329,1240,0,0
112,-216,0,0,0,0,0,0,0,0,0,-1,1336,1240,0,0
119,-216,0,0,0,0,0,0,0,0,0,-1,1343,1240,0,0
126,-216,0,0,0,0,0,0,0,0,0,-1,1350,1240,0,0
133,-216,0,0,0,0,0,0,0,0,0,-1,1357,1240,0,0
140,-216,0,0,0,0,0,0,0,0,0,-1,1364,1240,0,0
147,-216,0,0,0,0,0,0,0,0,0,-1,1371,1240,0,0
154,-216,0,0,0,0,0,0,0,0,0,-1,1378,1240,0,0
161,-216,0,0,0,0,0,0,0,0,0,-1,1385,1240,0,0
168,-216,0,0,0,0,0,0,0,0,0,-1,1392,1240,0,0
175,-216,0,0,0,0,0,0,0,0,0,-1,1399,1240,0,0
182,-216,0,0,0,0,0,0,0,0,0,-1,1406,1240,0,0
189,-216,0,0,0,0,0,0,0,0,0,-1,1413,1240,0,0
196,-216,0,0,0,0,0,0,0,0,0,-1,1420,1240,0,0
203,-216,0,0,0,0,0,0,0,0,0,-1,1427,1240,0,0
210,-216,0,0,0,0,0,0,0,0,0,-1,1434,1240,0,0
217,-216,0,0,0,0,0,0,0,0,0,-1,1441,1240,0,0
224,-216,0,0,0,0,0,0,0,0,0,-1,1448,1240,0,0
231,-216,0,0,0,0,0,0,0,0,0,-1,1455,1240,0,0
238,-216,0,0,0,0,0,0,0,0,0,-1,1462,1240,0,0
245,-216,0,0,0,0,0,0,0,0,0,-1,1469,1240,0,0
252,-216,0,0,0,0,0,0,0,0,0,-1,1476,1240,0,0
259,-216,0,0,0,0,0,0,0,0,0,-1,1483,1240,0,0
266,-216,0,0,0,0,0,0,0,0,0,-1,1490,1240,0,0
273,-216,0,0,0,0,0,0,0,0,0,-1,1497,1240,0,0
280,-216,0,0,0,0,0,0,0,0,0,-1,1504,1240,0,0
287,-216,0,0,0,0,0,0,0,0,0,-1,1511,1240,0,0
294,-216,0,0,0,0,0,0,0,0,0,-1,1518,1240,0,0
301,-216,0,0,0,0,0,0,0,0,0,-1,1525,1240,0,0
308,-216,0,0,0,0,0,0,0,0,0,-1,1532,1240,0,0
315,-216,0,0,0,0,0,0,0,0,0,-1,1539,1240,0,0
322,-216,0,0,0,0,0,0,0,0,0,-1,1546,1240,0,0
329,-216,0,0,0,0,0,0,0,0,0,-1,1553,1240,0,0
336,-216,0,0,0,0,0,0,0,0,0,-1,1560,1240,0,0
343,-216,0,0,0,0,0,0,0,0,0,-1,1567,1240,0,0
350,-216,0,0,0,0,0,0,0,0,0,-1,1574,1240,0,0
357,-216,0,0,0,0,0,0,0,0,0,-1,1581,1240,0,0
364,-216,0,0,0,0,0,0,0,0,0,-1,1588,1240,0,0
371,-216,0,0,0,0,0,0,0,0,0,-1,1595,1240,0,0
378,-216,0,0,0,0,0,0,0,0,0,-1,1602,1240,0,0
385,-216,0,0,0,0,0,0,0,0,0,-1,1609,1240,0,0
392,-216,0,0,0,0,0,0,0,0,0,-1,1616,1240,0,0
399,-216,0,0,0,0,0,0,0,0,0,-1,1623,1240,0,0
406,-216,0,0,0,0,0,0,0,0,0,-1,1630,1240,0,0
413,-216,0,0,0,0,0,0,0,0,0,-1,1637,1240,0,0
420,-216,0,0,0,0,0,0,0,0,0,-1,1644,1240,0,0
427,-216,0,0,0,0,0,0,0,0,0,-1,1651,1240,0,0
434,-216,0,0,0,0,0,0,0,0,0,-1,1658,1240,0,0
441,-216,0,0,0,0,0,0,0,0,0,-1,1665,1240,0,0
448,-216,0,0,0,0,0,0,0,0,0,-1,1672,1240,0,0
455,-216,0,0,0,0,0,0,0,0,0,-1,1679,1240,0,0
462,-216,0,0,0,0,0,0,0,0,0,-1,1686,1240,0,0
469,-216,0,0,0,0,0,0,0,0,0,-1,1693,1240,0,0
476,-216,0,0,0,0,0,0,0,0,0,-1,1700,1240,0,0
483,-216,0,0,0,0,0,0,0,0,0,-1,1707,1240,0,0
490,-216,0,0,0,0,0,0,0,0,0,-1,1714,1240,0,0
497,-216,0,0,0,0,0,0,0,0,0,-1,1721,1240,0,0
504,-216,0,0,0,0,0,0,0,0,0,-1,1728,1240,0,0
511,-216,0,0,0,0,0,0,0,0,0,-1,1735,1240,0,0
518,-216,0,0,0,0,0,0,0,0,0,-1,1742,1240,0,0
525,-216,0,0,0,0,0,0,0,0,0,-1,1749,1240,0,0
532,-216,0,0,0,0,0,0,0,0,0,-1,1756,1240,0,0
539,-216,0,0,0,0,0,0,0,0,0,-1,1763,1240,0,0
546,-216,0,0,0,0,0,0,0,0,0,-1,1770,1240,0,0
553,-216,0,0,0,0,0,0,0,0,0,-1,1777,1240,0,0
560,-216,0,0,0,0,0,0,0,0,0,-1,1784,1240,0,0
567,-216,0,0,0,0,0,0,0,0,0,-1,1791,1240,0,0
574,-216,0,0,0,0,0,0,0,0,0,-1,1798,1240,0,0
581,-216,0,0,0,0,0,0,0,0,0,-1,1805,1240,0,0
588,-216,0,0,0,0,0,0,0,0,0,-1,1812,1240,0,0
595,-216,0,0,0,0,0,0,0,0,0,-1,1819,1240,0,0
602,-216,0,0,0,0,0,0,0,0,0,-1,1826,1240,0,0
609,-216,0,0,0,0,0,0,0,0,0,-1,1833,1240,0,0
616,-216,0,0,0,0,0,0,0,0,0,-1,1840,1240,0,0
623,-216,21.5275,2.63867,0.00289818,0.00182884,-0.00156657,0.0040188,0.000708208,-0.620947,0.00247711,0.0388105,1847,1240,21.5275,-2.63871
630,-216,21.5527,2.57849,0.000790758,0.0016128,0.000469805,0.001826,0.000577555,1.14478,0.0010777,0.0364241,1854,1240,21.5528,-2.57846
637,-216,21.6423,2.66748,-0.000629696,0.00129363,0.0017403,0.00232029,-0.00165636,1.03781,0.00230656,0.0328728,1861,1240,21.6423,-2.6675
644,-216,21.6595,2.76978,-0.00164395,0.000811901,0.00230267,0.00219359,-0.00302564,1.03035,0.00302606,0.0263141,1868,1240,21.6596,-2.76978
651,-216,21.6447,2.79248,-0.00201685,0.000185644,0.00241054,0.00173457,-0.00356578,0.999665,0.00312044,0.0226447,1875,1240,21.6446,-2.79252
658,-216,21.7118,2.8512,-0.00200801,-0.000346849,0.00222306,0.00119572,-0.00355058,0.964179,0.00285049,0.0329047,1882,1240,21.7119,-2.85122
665,-216,21.8081,2.73621,-0.00186404,-0.000766329,0.00194711,0.000707803,-0.00333817,0.922775,0.00249507,0.0461186,1889,1240,21.8081,-2.73625
672,-216,21.949,2.65979,0,0,0,0,0,0,0,-1,1896,1240,21.949,-2.65977
679,-216,21.1897,2.78662,0,0,0,0,0,0,0,-1,1903,1240,21.1897,-2.7866
686,-216,18.655,5.30469,0,0,0,0,0,0,0,-1,1910,1240,18.655,-5.30469
693,-216,18.6649,5.2428,-0.00134962,-0.00175293,0.00113242,-0.000401036,-0.00270151,0.697284,0.00168333,0.0425337,1917,1240,18.6649,-5.24275
700,-216,18.6683,5.16382,-0.000906912,-0.00196012,0.000856478,-0.000428096,-0.00243893,0.509766,0.00150371,0.0186502,1924,1240,18.6683,-5.16377
707,-216,18.6815,4.9751,-0.000574966,-0.00212856,0.000474853,-0.000441323,-0.0022622,0.274342,0.00138467,0.0161033,1931,1240,18.6815,-4.97506
714,-216,18.6803,4.79224,-0.000575959,-0.00190238,0.000467406,-0.000427802,-0.00205053,0.306958,0.00124908,0.0139179,1938,1240,18.6803,-4.79221
721,-216,18.6804,4.62292,-0.000504049,-0.00137095,0.000708024,-0.000107333,-0.00176767,0.510727,0.00114435,0.0115465,1945,1240,18.6804,-4.62297
728,-216,18.7129,4.46582,0.000378571,-0.00130079,0.000495499,0.000513868,-0.00143609,0.266555,0.00116702,0.0100124,1952,1240,18.7129,-4.46578
735,-216,18.7152,4.32349,0.00105033,-0.00127052,0.000549822,0.001174,-0.00139419,0.221239,0.00148456,0.0102721,1959,1240,18.7152,-4.32351
742,-216,18.7046,4.19995,0.0018009,-0.00164181,0.00107431,0.00210864,-0.00194954,0.278979,0.00234359,0.0110627,1966,1240,18.7046,-4.19999
749,-216,18.7023,4.03711,0.00272254,-0.00224956,0.00136616,0.00307318,-0.00260021,0.251241,0.00327932,0.00889509,1973,1240,18.7023,-4.03708
756,-216,18.6738,3.88599,0.00358788,-0.00352156,0.0020551,0.00413919,-0.00407287,0.262093,0.00474129,0.0094018,1980,1240,18.6738,-3.88595
763,-216,18.6501,3.73877,0.00429061,-0.00503989,0.00328993,0.00533397,-0.00608325,0.307103,0.00659646,0.0144905,1987,1240,18.6502,-3.73873
770,-216,18.7463,3.53723,0.00468397,-0.00710325,0.0052555,0.00668687,-0.00910615,0.364113,0.0091537,0.039123,1994,1240,18.7464,-3.53727
777,-216,18.8624,3.33228,0,0,0,0,0,0,0,-1,2001,1240,18.8624,-3.33221
784,-216,20.405,2.7511,0.00314445,-0.0132341,0.0124891,0.00988977,-0.0199794,0.495208,0.0175699,0.0432831,2008,1240,20.4051,-2.7511
791,-216,20.3802,3.48706,0.000488239,-0.017455,0.0184412,0.0120244,-0.0289911,0.559004,0.0243463,0.0426141,2015,1240,20.3802,-3.48707
798,-216,0,0,0,0,0,0,0,0,0,-1,2022,1240,0,0
805,-216,0,0,0,0,0,0,0,0,0,-1,2029,1240,0,0
812,-216,0,0,0,0,0,0,0,0,0,-1,2036,1240,0,0
-700,-223,0,0,0,0,0,0,0,0,0,-1,524,1247,0,0
-693,-223,0,0,0,0,0,0,0,0,0,-1,531,1247,0,0
-686,-223,0,0,0,0,0,0,0,0,0,-1,538,1247,0,0
-679,-223,0,0,0,0,0,0,0,0,0,-1,545,1247,0,0
-672,-223,-11.4481,1.61975,0,0,0,0,0,0,0,-1,552,1247,-11.448,-1.61969
-665,-223,-11.5594,1.4281,0,0,0,0,0,0,0,-1,559,1247,-11.5594,-1.42804
-658,-223,-11.665,4.15491,0,0,0,0,0,0,0,-1,566,1247,-11.665,-4.15487
-651,-223,-11.468,3.70142,0,0,0,0,0,0,0,-1,573,1247,-11.468,-3.70142
-644,-223,-10.5655,1.55322,0,0,0,0,0,0,0,-1,580,1247,-10.5655,-1.55326
-637,-223,-10.4573,1.48413,-0.0113128,0.00876547,-0.0161937,0.0177794,-0.0203267,-1.06287,0.022017,0.0433725,587,1247,-10.4573,-1.4841
-630,-223,-10.3948,1.29712,-0.00972207,0.00638163,-0.0124292,0.0131392,-0.0164796,-1.07282,0.0171366,0.0345609,594,1247,-10.3948,-1.29714
-623,-223,-10.3689,1.49536,-0.00818618,0.00469425,-0.00925786,0.00953164,-0.0130236,-1.0893,0.0130742,0.0201605,601,1247,-10.3689,-1.49541
-616,-223,-10.3794,1.72021,-0.00643458,0.00297553,-0.00672855,0.00648089,-0.00993994,-1.09052,0.00955043,0.0161744,608,1247,-10.3794,-1.72024
-609,-223,-10.3668,1.88818,-0.00453386,0.00170608,-0.00467898,0.00420991,-0.00703769,-1.07945,0.00656186,0.0121151,615,1247,-10.3668,-1.88824
-602,-223,-10.3904,2.03882,-0.00288531,0.00112467,-0.00309228,0.00280508,-0.00456572,-1.07302,0.00429581,0.013747,622,1247,-10.3905,-2.03885
-595,-223,-10.3957,2.20056,-0.00118249,0.000420061,-0.00189864,0.00167958,-0.00244201,-0.985073,0.00239314,0.018872,629,1247,-10.3957,-2.20058
-588,-223,-10.3936,2.38843,0.000372146,0.000437031,-0.00133963,0.00174462,-0.000935439,-0.797504,0.00157066,0.0217001,636,1247,-10.3936,-2.38842
-581,-223,-10.4069,2.61182,0.000796945,0.00126275,-0.0014982,0.00254604,-0.000486345,-0.862509,0.00188056,0.0205683,643,1247,-10.4068,-2.61177
-574,-223,-10.3932,2.81799,0.00081798,0.00203399,-0.00185014,0.00337347,-0.000521503,-0.944152,0.00244145,0.0167686,650,1247,-10.3932,-2.81794
-567,-223,-10.1771,3.12134,0.000451499,0.00292341,-0.00217971,0.00419319,-0.000818284,-1.04331,0.00310438,0.0255871,657,1247,-10.177,-3.12136
-560,-223,-9.9328,3.62219,-1.16049e-05,0.00351082,-0.00268805,0.00496325,-0.00146404,-1.07541,0.00388979,0.0450826,664,1247,-9.93277,-3.6222
-553,-223,-9.39056,4.27856,0,0,0,0,0,0,0,-1,671,1247,-9.39055,-4.27851
-546,-223,-12.8041,-0.0777588,0,0,0,0,0,0,0,-1,678,1247,-12.8041,0.0777346
-539,-223,-13.4522,1.37024,0,0,0,0,0,0,0,-1,685,1247,-13.4522,-1.37026
-532,-223,-13.5359,1.15881,-0.00586832,0.00957675,-0.00393944,0.0105235,-0.00681508,-1.33494,0.0100865,0.043057,692,1247,-13.536,-1.15877
-525,-223,-13.6945,0.937012,-0.00800958,0.0112076,-0.00384379,0.0119479,-0.00874989,-1.38053,0.0119973,0.047673,699,1247,-13.6945,-0.936963
-518,-223,-13.7527,0.900391,0,0,0,0,0,0,0,-1,706,1247,-13.7527,-0.900367
-511,-223,-14.004,1.1709,-0.0116369,0.0125301,-0.00128324,0.012598,-0.0117049,-1.5179,0.0140344,0.0402024,713,1247,-14.004,-1.17096
-504,-223,-13.7641,0.966187,-0.008885,0.0103511,0.00340872,0.0109373,-0.00947118,1.4005,0.011793,0.0387914,720,1247,-13.7641,-0.966233
-497,-223,0,0,0,0,0,0,0,0,0,-1,727,1247,0,0
-490,-223,0,0,0,0,0,0,0,0,0,-1,734,1247,0,0
-483,-223,0,0,0,0,0,0,0,0,0,-1,741,1247,0,0
-476,-223,0,0,0,0,0,0,0,0,0,-1,748,1247,0,0
-469,-223,0,0,0,0,0,0,0,0,0,-1,755,1247,0,0
-462,-223,0,0,0,0,0,0,0,0,0,-1,762,1247,0,0
-455,-223,0,0,0,0,0,0,0,0,0,-1,769,1247,0,0
-448,-223,0,0,0,0,0,0,0,0,0,-1,776,1247,0,0
-441,-223,0,0,0,0,0,0,0,0,0,-1,783,1247,0,0
-434,-223,0,0,0,0,0,0,0,0,0,-1,790,1247,0,0
-427,-223,0,0,0,0,0,0,0,0,0,-1,797,1247,0,0
-420,-223,0,0,0,0,0,0,0,0,0,-1,804,1247,0,0
-413,-223,0,0,0,0,0,0,0,0,0,-1,811,1247,0,0
-406,-223,0,0,0,0,0,0,0,0,0,-1,818,1247,0,0
-399,-223,0,0,0,0,0,0,0,0,0,-1,825,1247,0,0
-392,-223,0,0,0,0,0,0,0,0,0,-1,832,1247,0,0
-385,-223,0,0,0,0,0,0,0,0,0,-1,839,1247,0,0
-378,-223,0,0,0,0,0,0,0,0,0,-1,846,1247,0,0
-371,-223,0,0,0,0,0,0,0,0,0,-1,853,1247,0,0
-364,-223,0,0,0,0,0,0,0,0,0,-1,860,1247,0,0
-357,-223,0,0,0,0,0,0,0,0,0,-1,867,1247,0,0
-350,-223,0,0,0,0,0,0,0,0,0,-1,874,1247,0,0
-343,-223,0,0,0,0,0,0,0,0,0,-1,881,1247,0,0
-336,-223,0,0,0,0,0,0,0,0,0,-1,888,1247,0,0
-329,-223,0,0,0,0,0,0,0,0,0,-1,895,1247,0,0
-322,-223,0,0,0,0,0,0,0,0,0,-1,902,1247,0,0
-315,-223,0,0,0,0,0,0,0,0,0,-1,909,1247,0,0
-308,-223,0,0,0,0,0,0,0,0,0,-1,916,1247,0,0
-301,-223,0,0,0,0,0,0,0,0,0,-1,923,1247,0,0
-294,-223,0,0,0,0,0,0,0,0,0,-1,930,1247,0,0
-287,-223,0,0,0,0,0,0,0,0,0,-1,937,1247,0,0
-280,-223,0,0,0,0,0,0,0,0,0,-1,944,1247,0,0
-273,-223,0,0,0,0,0,0,0,0,0,-1,951,1247,0,0
-266,-223,0,0,0,0,0,0,0,0,0,-1,958,1247,0,0
-259,-223,0,0,0,0,0,0,0,0,0,-1,965,1247,0,0
-252,-223,0,0,0,0,0,0,0,0,0,-1,972,1247,0,0
-245,-223,0,0,0,0,0,0,0,0,0,-1,979,1247,0,0
-238,-223,0,0,0,0,0,0,0,0,0,-1,986,1247,0,0
-231,-223,0,0,0,0,0,0,0,0,0,-1,993,1247,0,0
-224,-223,0,0,0,0,0,0,0,0,0,-1,1000,1247,0,0
-217,-223,0,0,0,0,0,0,0,0,0,-1,1007,1247,0,0
-210,-223,0,0,0,0,0,0,0,0,0,-1,1014,1247,0,0
-203,-223,0,0,0,0,0,0,0,0,0,-1,1021,1247,0,0
-196,-223,0,0,0,0,0,0,0,0,0,-1,1028,1247,0,0
-189,-223,0,0,0,0,0,0,0,0,0,-1,1035,1247,0,0
-182,-223,0,0,0,0,0,0,0,0,0,-1,1042,1247,0,0
-175,-223,0,0,0,0,0,0,0,0,0,-1,1049,1247,0,0
-168,-223,0,0,0,0,0,0,0,0,0,-1,1056,1247,0,0
-161,-223,0,0,0,0,0,0,0,0,0,-1,1063,1247,0,0
-154,-223,0,0,0,0,0,0,0,0,0,-1,1070,1247,0,0
-147,-223,0,0,0,0,0,0,0,0,0,-1,1077,1247,0,0
-140,-223,0,0,0,0,0,0,0,0,0,-1,1084,1247,0,0
-133,-223,0,0,0,0,0,0,0,0,0,-1,1091,1247,0,0
-126,-223,0,0,0,0,0,0,0,0,0,-1,1098,1247,0,0
-119,-223,0,0,0,0,0,0,0,0,0,-1,1105,1247,0,0
-112,-223,0,0,0,0,0,0,0,0,0,-1,1112,1247,0,0
-105,-223,0,0,0,0,0,0,0,0,0,-1,1119,1247,0,0
-98,-223,0,0,0,0,0,0,0,0,0,-1,1126,1247,0,0
-91,-223,0,0,0,0,0,0,0,0,0,-1,1133,1247,0,0
-84,-223,0,0,0,0,0,0,0,0,0,-1,1140,1247,0,0
-77,-223,0,0,0,0,0,0,0,0,0,-1,1147,1247,0,0
-70,-223,0,0,0,0,0,0,0,0,0,-1,1154,1247,0,0
-63,-223,0,0,0,0,0,0,0,0,0,-1,1161,1247,0,0
-56,-223,0,0,0,0,0,0,0,0,0,-1,1168,1247,0,0
-49,-223,0,0,0,0,0,0,0,0,0,-1,1175,1247,0,0
-42,-223,0,0,0,0,0,0,0,0,0,-1,1182,1247,0,0
-35,-223,0,0,0,0,0,0,0,0,0,-1,1189,1247,0,0
-28,-223,0,0,0,0,0,0,0,0,0,-1,1196,1247,0,0
-21,-223,0,0,0,0,0,0,0,0,0,-1,1203,1247,0,0
-14,-223,0,0,0,0,0,0,0,0,0,-1,1210,1247,0,0
-7,-223,0,0,0,0,0,0,0,0,0,-1,1217,1247,0,0
0,-223,0,0,0,0,0,0,0,0,0,-1,1224,1247,0,0
7,-223,0,0,0,0,0,0,0,0,0,-1,1231,1247,0,0
14,-223,0,0,0,0,0,0,0,0,0,-1,1238,1247,0,0
21,-223,0,0,0,0,0,0,0,0,0,-1,1245,1247,0,0
28,-223,0,0,0,0,0,0,0,0,0,-1,1252,1247,0,0
35,-223,0,0,0,0,0,0,0,0,0,-1,1259,1247,0,0
42,-223,0,0,0,0,0,0,0,0,0,-1,1266,1247,0,0
49,-223,0,0,0,0,0,0,0,0,0,-1,1273,1247,0,0
56,-223,0,0,0,0,0,0,0,0,0,-1,1280,1247,0,0
63,-223,0,0,0,0,0,0,0,0,0,-1,1287,1247,0,0
70,-223,0,0,0,0,0,0,0,0,0,-1,1294,1247,0,0
77,-223,0,0,0,0,0,0,0,0,0,-1,1301,1247,0,0
84,-223,0,0,0,0,0,0,0,0,0,-1,1308,1247,0,0
91,-223,0,0,0,0,0,0,0,0,0,-1,1315,1247,0,0
98,-223,0,0,0,0,0,0,0,0,0,-1,1322,1247,0,0
105,-223,0,0,0,0,0,0,0,0,0,-1,1329,1247,0,0
112,-223,0,0,0,0,0,0,0,0,0,-1,1336,1247,0,0
119,-223,0,0,0,0,0,0,0,0,0,-1,1343,1247,0,0
126,-223,0,0,0,0,0,0,0,0,0,-1,1350,1247,0,0
133,-223,0,0,0,0,0,0,0,0,0,-1,1357,1247,0,0
140,-223,0,0,0,0,0,0,0,0,0,-1,1364,1247,0,0
147,-223,0,0,0,0,0,0,0,0,0,-1,1371,1247,0,0
154,-223,0,0,0,0,0,0,0,0,0,-1,1378,1247,0,0
161,-223,0,0,0,0,0,0,0,0,0,-1,1385,1247,0,0
168,-223,0,0,0,0,0,0,0,0,0,-1,1392,1247,0,0
175,-223,0,0,0,0,0,0,0,0,0,-1,1399,1247,0,0
182,-223,0,0,0,0,0,0,0,0,0,-1,1406,1247,0,0
189,-223,0,0,0,0,0,0,0,0,0,-1,1413,1247,0,0
196,-223,0,0,0,0,0,0,0,0,0,-1,1420,1247,0,0
203,-223,0,0,0,0,0,0,0,0,0,-1,1427,1247,0,0
210,-223,0,0,0,0,0,0,0,0,0,-1,1434,1247,0,0
217,-223,0,0,0,0,0,0,0,0,0,-1,1441,1247,0,0
224,-223,0,0,0,0,0,0,0,0,0,-1,1448,1247,0,0
231,-223,0,0,0,0,0,0,0,0,0,-1,1455,1247,0,0
238,-223,0,0,0,0,0,0,0,0,0,-1,1462,1247,0,0
245,-223,0,0,0,0,0,0,0,0,0,-1,1469,1247,0,0
252,-223,0,0,0,0,0,0,0,0,0,-1,1476,1247,0,0
259,-223,0,0,0,0,0,0,0,0,0,-1,1483,1247,0,0
266,-223,0,0,0,0,0,0,0,0,0,-1,1490,1247,0,0
273,-223,0,0,0,0,0,0,0,0,0,-1,1497,1247,0,0
280,-223,0,0,0,0,0,0,0,0,0,-1,1504,1247,0,0
287,-223,0,0,0,0,0,0,0,0,0,-1,1511,1247,0,0
294,-223,0,0,0,0,0,0,0,0,0,-1,1518,1247,0,0
301,-223,0,0,0,0,0,0,0,0,0,-1,1525,1247,0,0
308,-223,0,0,0,0,0,0,0,0,0,-1,1532,1247,0,0
315,-223,0,0,0,0,0,0,0,0,0,-1,1539,1247,0,0
322,-223,0,0,0,0,0,0,0,0,0,-1,1546,1247,0,0
329,-223,0,0,0,0,0,0,0,0,0,-1,1553,1247,0,0
336,-223,0,0,0,0,0,0,0,0,0,-1,1560,1247,0,0
343,-223,0,0,0,0,0,0,0,0,0,-1,1567,1247,0,0
350,-223,0,0,0,0,0,0,0,0,0,-1,1574,1247,0,0
357,-223,0,0,0,0,0,0,0,0,0,-1,1581,1247,0,0
364,-223,0,0,0,0,0,0,0,0,0,-1,1588,1247,0,0
371,-223,0,0,0,0,0,0,0,0,0,-1,1595,1247,0,0
378,-223,0,0,0,0,0,0,0,0,0,-1,1602,1247,0,0
385,-223,0,0,0,0,0,0,0,0,0,-1,1609,1247,0,0
392,-223,0,0,0,0,0,0,0,0,0,-1,1616,1247,0,0
399,-223,0,0,0,0,0,0,0,0,0,-1,1623,1247,0,0
406,-223,0,0,0,0,0,0,0,0,0,-1,1630,1247,0,0
413,-223,0,0,0,0,0,0,0,0,0,-1,1637,1247,0,0
420,-223,0,0,0,0,0,0,0,0,0,-1,1644,1247,0,0
427,-223,0,0,0,0,0,0,0,0,0,-1,1651,1247,0,0
434,-223,0,0,0,0,0,0,0,0,0,-1,1658,1247,0,0
441,-223,0,0,0,0,0,0,0,0,0,-1,1665,1247,0,0
448,-223,0,0,0,0,0,0,0,0,0,-1,1672,1247,0,0
455,-223,0,0,0,0,0,0,0,0,0,-1,1679,1247,0,0
462,-223,0,0,0,0,0,0,0,0,0,-1,1686,1247,0,0
469,-223,0,0,0,0,0,0,0,0,0,-1,1693,1247,0,0
476,-223,0,0,0,0,0,0,0,0,0,-1,1700,1247,0,0
483,-223,0,0,0,0,0,0,0,0,0,-1,1707,1247,0,0
490,-223,0,0,0,0,0,0,0,0,0,-1,1714,1247,0,0
497,-223,0,0,0,0,0,0,0,0,0,-1,1721,1247,0,0
504,-223,0,0,0,0,0,0,0,0,0,-1,1728,1247,0,0
511,-223,0,0,0,0,0,0,0,0,0,-1,1735,1247,0,0
518,-223,0,0,0,0,0,0,0,0,0,-1,1742,1247,0,0
525,-223,0,0,0,0,0,0,0,0,0,-1,1749,1247,0,0
532,-223,0,0,0,0,0,0,0,0,0,-1,1756,1247,0,0
539,-223,0,0,0,0,0,0,0,0,0,-1,1763,1247,0,0
546,-223,0,0,0,0,0,0,0,0,0,-1,1770,1247,0,0
553,-223,0,0,0,0,0,0,0,0,0,-1,1777,1247,0,0
560,-223,0,0,0,0,0,0,0,0,0,-1,1784,1247,0,0
567,-223,0,0,0,0,0,0,0,0,0,-1,1791,1247,0,0
574,-223,0,0,0,0,0,0,0,0,0,-1,1798,1247,0,0
581,-223,0,0,0,0,0,0,0,0,0,-1,1805,1247,0,0
588,-223,0,0,0,0,0,0,0,0,0,-1,1812,1247,0,0
595,-223,0,0,0,0,0,0,0,0,0,-1,1819,1247,0,0
602,-223,0,0,0,0,0,0,0,0,0,-1,1826,1247,0,0
609,-223,0,0,0,0,0,0,0,0,0,-1,1833,1247,0,0
616,-223,0,0,0,0,0,0,0,0,0,-1,1840,1247,0,0
623,-223,21.6355,2.84326,0.00364837,0.000781018,-0.000936405,0.00392709,0.000502304,-0.289293,0.00246772,0.0391173,1847,1247,21.6355,-2.8433
630,-223,21.613,2.71057,-0.00016395,0.000989698,0.00116851,0.001716,-0.000890249,1.01467,0.00152968,0.0346915,1854,1247,21.613,-2.71063
637,-223,21.6326,2.76038,-0.00279071,0.00102718,0.00251973,0.00227942,-0.00404295,1.10957,0.00369725,0.0293134,1861,1247,21.6325,-2.76034
644,-223,21.6366,2.78467,-0.00422819,0.000781954,0.00309218,0.00225645,-0.00570268,1.12584,0.00473662,0.0225572,1868,1247,21.6366,-2.78473
651,-223,21.6365,2.78564,-0.00455898,0.000305981,0.00317163,0.00187053,-0.00612353,1.11253,0.00482819,0.0268984,1875,1247,21.6365,-2.78565
658,-223,21.6783,2.82813,-0.0043537,-0.000153835,0.00294818,0.00136583,-0.00587337,1.09486,0.00444142,0.0463123,1882,1247,21.6783,-2.82809
665,-223,21.7189,2.8844,0,0,0,0,0,0,0,-1,1889,1247,21.7189,-2.88444
672,-223,21.798,3.04553,0,0,0,0,0,0,0,-1,1896,1247,21.798,-3.04552
679,-223,21.9976,3.66748,0,0,0,0,0,0,0,-1,1903,1247,21.9975,-3.66749
686,-223,18.4121,5.35156,0,0,0,0,0,0,0,-1,1910,1247,18.4121,-5.35162
693,-223,18.4839,5.25793,-0.00219731,-0.00147633,0.00145158,-0.000341151,-0.00333249,0.907107,0.00211713,0.0253163,1917,1247,18.4839,-5.25791
700,-223,18.5338,5.12537,-0.00133558,-0.0016837,0.00107131,-0.000424287,-0.002595,0.704864,0.00160734,0.0114822,1924,1247,18.5338,-5.12537
707,-223,18.5226,4.96753,-0.000674315,-0.00195478,0.000539931,-0.000477037,-0.00215206,0.350306,0.00130508,0.0126197,1931,1247,18.5226,-4.96748
714,-223,18.5292,4.78564,-0.000541629,-0.00167544,0.000498052,-0.000353923,-0.00186315,0.360417,0.00114254,0.0115205,1938,1247,18.5291,-4.78562
721,-223,18.5454,4.60791,-0.000390115,-0.00105385,0.000758541,0.00010598,-0.00154994,0.57919,0.00107037,0.0132755,1945,1247,18.5454,-4.60793
728,-223,18.5386,4.45361,0.000521663,-0.000922349,0.000646937,0.0007691,-0.00116979,0.365308,0.00112736,0.0143813,1952,1247,18.5386,-4.45364
735,-223,18.5336,4.31372,0.00112348,-0.000850175,0.000880835,0.00145941,-0.00118611,0.364354,0.00153011,0.0136295,1959,1247,18.5336,-4.3137
742,-223,18.525,4.18323,0.00175998,-0.00108705,0.0016557,0.00251999,-0.00184706,0.43033,0.00253127,0.0114735,1966,1247,18.525,-4.18325
749,-223,18.538,4.01379,0.00248946,-0.00148573,0.0022714,0.00352011,-0.00251638,0.425968,0.00350119,0.00929071,1973,1247,18.5379,-4.0138
756,-223,18.5187,3.85315,0.00304998,-0.0023114,0.0033666,0.00467278,-0.0039342,0.44917,0.00497534,0.0105067,1980,1247,18.5187,-3.85321
763,-223,18.4911,3.70667,0.00337323,-0.0033642,0.00510492,0.00612076,-0.00611173,0.493748,0.00706243,0.0140338,1987,1247,18.4911,-3.70668
770,-223,18.5881,3.37988,0.00323061,-0.00475417,0.00772678,0.00793549,-0.00945904,0.546941,0.0100556,0.0375919,1994,1247,18.5881,-3.37983
777,-223,18.6913,3.04858,0,0,0,0,0,0,0,-1,2001,1247,18.6913,-3.04856
784,-223,20.5039,2.59436,-6.37106e-05,-0.00854615,0.0168919,0.0131113,-0.0217212,0.662401,0.0203143,0.0449822,2008,1247,20.5039,-2.59441
791,-223,19.9468,3.23669,-0.00416426,-0.0108556,0.0242698,0.0169894,-0.0320093,0.716903,0.028729,0.0473919,2015,1247,19.9468,-3.23673
798,-223,0,0,0,0,0,0,0,0,0,-1,2022,1247,0,0
805,-223,0,0,0,0,0,0,0,0,0,-1,2029,1247,0,0
812,-223,0,0,0,0,0,0,0,0,0,-1,2036,1247,0,0
-700,-230,0,0,0,0,0,0,0,0,0,-1,524,1254,0,0
-693,-230,0,0,0,0,0,0,0,0,0,-1,531,1254,0,0
-686,-230,0,0,0,0,0,0,0,0,0,-1,538,1254,0,0
-679,-230,0,0,0,0,0,0,0,0,0,-1,545,1254,0,0
-672,-230,-11.2745,1.67883,0,0,0,0,0,0,0,-1,552,1254,-11.2745,-1.67878
-665,-230,-11.0909,1.72717,0,0,0,0,0,0,0,-1,559,1254,-11.0909,-1.72717
-658,-230,-10.9323,3.82031,0,0,0,0,0,0,0,-1,566,1254,-10.9323,-3.8203
-651,-230,-10.7572,3.37195,0,0,0,0,0,0,0,-1,573,1254,-10.7572,-3.37193
-644,-230,-10.5333,1.97827,0,0,0,0,0,0,0,-1,580,1254,-10.5333,-1.97823
-637,-230,-10.0552,1.82031,-0.0124461,0.0129204,-0.0179526,0.022218,-0.0217437,-1.09293,0.0253818,0.0439995,587,1254,-10.0553,-1.82031
-630,-230,-9.86688,1.57056,-0.0106064,0.00947219,-0.0137788,0.0164812,-0.0176153,-1.10023,0.0196893,0.0379334,594,1254,-9.86685,-1.57059
-623,-230,-10.1611,1.55212,-0.00879287,0.00689287,-0.0102405,0.0119487,-0.0138487,-1.11219,0.0149076,0.0251745,601,1254,-10.1611,-1.5521
-616,-230,-10.1969,1.70679,-0.00680093,0.00456764,-0.00740639,0.00821961,-0.0104529,-1.1127,0.0108063,0.0163057,608,1254,-10.1969,-1.70685
-609,-230,-10.1689,1.87476,-0.0046797,0.00297485,-0.00512473,0.00554373,-0.00724858,-1.10613,0.00740748,0.0125355,615,1254,-10.1689,-1.87477
-602,-230,-10.1807,2.05774,-0.00276447,0.00203365,-0.00331258,0.00372466,-0.00445548,-1.0988,0.00472908,0.0116758,622,1254,-10.1807,-2.05774
-595,-230,-10.2098,2.23816,-0.000822524,0.00101641,-0.00185797,0.00216998,-0.00197609,-1.01517,0.00239461,0.0174787,629,1254,-10.2098,-2.23818
-588,-230,-10.2033,2.44629,0.0009925,0.000838801,-0.00108703,0.00200539,-0.000174088,-0.750108,0.00139857,0.0247411,636,1254,-10.2033,-2.44633
-581,-230,-10.2067,2.63171,0.00158199,0.00160377,-0.00112796,0.00272089,0.000464861,-0.790225,0.00168054,0.0237296,643,1254,-10.2066,-2.63166
-574,-230,-10.1874,2.83313,0.00160144,0.00234093,-0.00146111,0.00347835,0.00046401,-0.909325,0.00218075,0.0166654,650,1254,-10.1874,-2.83318
-567,-230,-10.0388,3.07068,0.00105813,0.00326801,-0.00183503,0.00430508,2.10586e-05,-1.05639,0.00286306,0.0224328,657,1254,-10.0388,-3.07063
-560,-230,-9.79498,3.35498,0.000413073,0.00392347,-0.00240971,0.00514945,-0.000812908,-1.10016,0.00373355,0.0394479,664,1254,-9.79496,-3.355
-553,-230,-9.35852,3.60059,0,0,0,0,0,0,0,-1,671,1254,-9.3585,-3.60055
-546,-230,-10.7707,1.62012,0,0,0,0,0,0,0,-1,678,1254,-10.7707,-1.62008
-539,-230,-13.1752,1.25269,0,0,0,0,0,0,0,-1,685,1254,-13.1752,-1.25275
-532,-230,-13.2501,0.917847,-0.00721808,0.0114738,-0.00360047,0.0121434,-0.00788762,-1.38694,0.0116516,0.0453327,692,1254,-13.25,-0.91787
-525,-230,-13.4737,0.758057,-0.0101403,0.0139675,-0.00348288,0.0144606,-0.0106334,-1.43016,0.0145441,0.0496186,699,1254,-13.4737,-0.758069
-518,-230,-13.6425,0.748169,-0.0134444,0.0165889,-0.00281287,0.0168501,-0.0137055,-1.47821,0.0176724,0.0454973,706,1254,-13.6425,-0.748167
-511,-230,-13.8874,0.961182,-0.0164155,0.0187028,-0.00108023,0.018736,-0.0164487,-1.54008,0.0203282,0.0405027,713,1254,-13.8874,-0.961221
-504,-230,-13.9303,1.11694,-0.016482,0.0195297,0.0031419,0.0198018,-0.0167541,1.48442,0.02113,0.0384101,720,1254,-13.9303,-1.11691
-497,-230,0,0,0,0,0,0,0,0,0,-1,727,1254,0,0
-490,-230,0,0,0,0,0,0,0,0,0,-1,734,1254,0,0
-483,-230,0,0,0,0,0,0,0,0,0,-1,741,1254,0,0
-476,-230,0,0,0,0,0,0,0,0,0,-1,748,1254,0,0
-469,-230,0,0,0,0,0,0,0,0,0,-1,755,1254,0,0
-462,-230,0,0,0,0,0,0,0,0,0,-1,762,1254,0,0
-455,-230,0,0,0,0,0,0,0,0,0,-1,769,1254,0,0
-448,-230,0,0,0,0,0,0,0,0,0,-1,776,1254,0,0
-441,-230,0,0,0,0,0,0,0,0,0,-1,783,1254,0,0
-434,-230,0,0,0,0,0,0,0,0,0,-1,790,1254,0,0
-427,-230,0,0,0,0,0,0,0,0,0,-1,797,1254,0,0
-420,-230,0,0,0,0,0,0,0,0,0,-1,804,1254,0,0
-413,-230,0,0,0,0,0,0,0,0,0,-1,811,1254,0,0
-406,-230,0,0,0,0,0,0,0,0,0,-1,818,1254,0,0
-399,-230,0,0,0,0,0,0,0,0,0,-1,825,1254,0,0
-392,-230,0,0,0,0,0,0,0,0,0,-1,832,1254,0,0
-385,-230,0,0,0,0,0,0,0,0,0,-1,839,1254,0,0
-378,-230,0,0,0,0,0,0,0,0,0,-1,846,1254,0,0
-371,-230,0,0,0,0,0,0,0,0,0,-1,853,1254,0,0
-364,-230,0,0,0,0,0,0,0,0,0,-1,860,1254,0,0
-357,-230,0,0,0,0,0,0,0,0,0,-1,867,1254,0,0
-350,-230,0,0,0,0,0,0,0,0,0,-1,874,1254,0,0
-343,-230,0,0,0,0,0,0,0,0,0,-1,881,1254,0,0
-336,-230,0,0,0,0,0,0,0,0,0,-1,888,1254,0,0
-329,-230,0,0,0,0,0,0,0,0,0,-1,895,1254,0,0
-322,-230,0,0,0,0,0,0,0,0,0,-1,902,1254,0,0
-315,-230,0,0,0,0,0,0,0,0,0,-1,909,1254,0,0
-308,-230,0,0,0,0,0,0,0,0,0,-1,916,1254,0,0
-301,-230,0,0,0,0,0,0,0,0,0,-1,923,1254,0,0
-294,-230,0,0,0,0,0,0,0,0,0,-1,930,1254,0,0
-287,-230,0,0,0,0,0,0,0,0,0,-1,937,1254,0,0
-280,-230,0,0,0,0,0,0,0,0,0,-1,944,1254,0,0
-273,-230,0,0,0,0,0,0,0,0,0,-1,951,1254,0,0
-266,-230,0,0,0,0,0,0,0,0,0,-1,958,1254,0,0
-259,-230,0,0,0,0,0,0,0,0,0,-1,965,1254,0,0
-252,-230,0,0,0,0,0,0,0,0,0,-1,972,1254,0,0
-245,-230,0,0,0,0,0,0,0,0,0,-1,979,1254,0,0
-238,-230,0,0,0,0,0,0,0,0,0,-1,986,1254,0,0
-231,-230,0,0,0,0,0,0,0,0,0,-1,993,1254,0,0
-224,-230,0,0,0,0,0,0,0,0,0,-1,1000,1254,0,0
-217,-230,0,0,0,0,0,0,0,0,0,-1,1007,1254,0,0
-210,-230,0,0,0,0,0,0,0,0,0,-1,1014,1254,0,0
-203,-230,0,0,0,0,0,0,0,0,0,-1,1021,1254,0,0
-196,-230,0,0,0,0,0,0,0,0,0,-1,1028,1254,0,0
-189,-230,0,0,0,0,0,0,0,0,0,-1,1035,1254,0,0
-182,-230,0,0,0,0,0,0,0,0,0,-1,1042,1254,0,0
-175,-230,0,0,0,0,0,0,0,0,0,-1,1049,1254,0,0
-168,-230,0,0,0,0,0,0,0,0,0,-1,1056,1254,0,0
-161,-230,0,0,0,0,0,0,0,0,0,-1,1063,1254,0,0
-154,-230,0,0,0,0,0,0,0,0,0,-1,1070,1254,0,0
-147,-230,0,0,0,0,0,0,0,0,0,-1,1077,1254,0,0
-140,-230,0,0,0,0,0,0,0,0,0,-1,1084,1254,0,0
-133,-230,0,0,0,0,0,0,0,0,0,-1,1091,1254,0,0
-126,-230,0,0,0,0,0,0,0,0,0,-1,1098,1254,0,0
-119,-230,0,0,0,0,0,0,0,0,0,-1,1105,1254,0,0
-112,-230,0,0,0,0,0,0,0,0,0,-1,1112,1254,0,0
-105,-230,0,0,0,0,0,0,0,0,0,-1,1119,1254,0,0
-98,-230,0,0,0,0,0,0,0,0,0,-1,1126,1254,0,0
-91,-230,0,0,0,0,0,0,0,0,0,-1,1133,1254,0,0
-84,-230,0,0,0,0,0,0,0,0,0,-1,1140,1254,0,0
-77,-230,0,0,0,0,0,0,0,0,0,-1,1147,1254,0,0
-70,-230,0,0,0,0,0,0,0,0,0,-1,1154,1254,0,0
-63,-230,0,0,0,0,0,0,0,0,0,-1,1161,1254,0,0
-56,-230,0,0,0,0,0,0,0,0,0,-1,1168,1254,0,0
-49,-230,0,0,0,0,0,0,0,0,0,-1,1175,1254,0,0
-42,-230,0,0,0,0,0,0,0,0,0,-1,1182,1254,0,0
-35,-230,0,0,0,0,0,0,0,0,0,-1,1189,1254,0,0
-28,-230,0,0,0,0,0,0,0,0,0,-1,1196,1254,0,0
-21,-230,0,0,0,0,0,0,0,0,0,-1,1203,1254,0,0
-14,-230,0,0,0,0,0,0,0,0,0,-1,1210,1254,0,0
-7,-230,0,0,0,0,0,0,0,0,0,-1,1217,1254,0,0
0,-230,0,0,0,0,0,0,0,0,0,-1,1224,1254,0,0
7,-230,0,0,0,0,0,0,0,0,0,-1,1231,1254,0,0
14,-230,0,0,0,0,0,0,0,0,0,-1,1238,1254,0,0
21,-230,0,0,0,0,0,0,0,0,0,-1,1245,1254,0,0
28,-230,0,0,0,0,0,0,0,0,0,-1,1252,1254,0,0
35,-230,0,0,0,0,0,0,0,0,0,-1,1259,1254,0,0
42,-230,0,0,0,0,0,0,0,0,0,-1,1266,1254,0,0
49,-230,0,0,0,0,0,0,0,0,0,-1,1273,1254,0,0
56,-230,0,0,0,0,0,0,0,0,0,-1,1280,1254,0,0
63,-230,0,0,0,0,0,0,0,0,0,-1,1287,1254,0,0
70,-230,0,0,0,0,0,0,0,0,0,-1,1294,1254,0,0
77,-230,0,0,0,0,0,0,0,0,0,-1,1301,1254,0,0
84,-230,0,0,0,0,0,0,0,0,0,-1,1308,1254,0,0
91,-230,0,0,0,0,0,0,0,0,0,-1,1315,1254,0,0
98,-230,0,0,0,0,0,0,0,0,0,-1,1322,1254,0,0
105,-230,0,0,0,0,0,0,0,0,0,-1,1329,1254,0,0
112,-230,0,0,0,0,0,0,0,0,0,-1,1336,1254,0,0
119,-230,0,0,0,0,0,0,0,0,0,-1,1343,1254,0,0
126,-230,0,0,0,0,0,0,0,0,0,-1,1350,1254,0,0
133,-230,0,0,0,0,0,0,0,0,0,-1,1357,1254,0,0
140,-230,0,0,0,0,0,0,0,0,0,-1,1364,1254,0,0
147,-230,0,0,0,0,0,0,0,0,0,-1,1371,1254,0,0
154,-230,0,0,0,0,0,0,0,0,0,-1,1378,1254,0,0
161,-230,0,0,0,0,0,0,0,0,0,-1,1385,1254,0,0
168,-230,0,0,0,0,0,0,0,0,0,-1,1392,1254,0,0
175,-230,0,0,0,0,0,0,0,0,0,-1,1399,1254,0,0
182,-230,0,0,0,0,0,0,0,0,0,-1,1406,1254,0,0
189,-230,0,0,0,0,0,0,0,0,0,-1,1413,1254,0,0
196,-230,0,0,0,0,0,0,0,0,0,-1,1420,1254,0,0
203,-230,0,0,0,0,0,0,0,0,0,-1,1427,1254,0,0
210,-230,0,0,0,0,0,0,0,0,0,-1,1434,1254,0,0
217,-230,0,0,0,0,0,0,0,0,0,-1,1441,1254,0,0
224,-230,0,0,0,0,0,0,0,0,0,-1,1448,1254,0,0
231,-230,0,0,0,0,0,0,0,0,0,-1,1455,1254,0,0
238,-230,0,0,0,0,0,0,0,0,0,-1,1462,1254,0,0
245,-230,0,0,0,0,0,0,0,0,0,-1,1469,1254,0,0
252,-230,0,0,0,0,0,0,0,0,0,-1,1476,1254,0,0
259,-230,0,0,0,0,0,0,0,0,0,-1,1483,1254,0,0
266,-230,0,0,0,0,0,0,0,0,0,-1,1490,1254,0,0
273,-230,0,0,0,0,0,0,0,0,0,-1,1497,1254,0,0
280,-230,0,0,0,0,0,0,0,0,0,-1,1504,1254,0,0
287,-230,0,0,0,0,0,0,0,0,0,-1,1511,1254,0,0
294,-230,0,0,0,0,0,0,0,0,0,-1,1518,1254,0,0
301,-230,0,0,0,0,0,0,0,0,0,-1,1525,1254,0,0
308,-230,0,0,0,0,0,0,0,0,0,-1,1532,1254,0,0
315,-230,0,0,0,0,0,0,0,0,0,-1,1539,1254,0,0
322,-230,0,0,0,0,0,0,0,0,0,-1,1546,1254,0,0
329,-230,0,0,0,0,0,0,0,0,0,-1,1553,1254,0,0
336,-230,0,0,0,0,0,0,0,0,0,-1,1560,1254,0,0
343,-230,0,0,0,0,0,0,0,0,0,-1,1567,1254,0,0
350,-230,0,0,0,0,0,0,0,0,0,-1,1574,1254,0,0
357,-230,0,0,0,0,0,0,0,0,0,-1,1581,1254,0,0
364,-230,0,0,0,0,0,0,0,0,0,-1,1588,1254,0,0
371,-230,0,0,0,0,0,0,0,0,0,-1,1595,1254,0,0
378,-230,0,0,0,0,0,0,0,0,0,-1,1602,1254,0,0
385,-230,0,0,0,0,0,0,0,0,0,-1,1609,1254,0,0
392,-230,0,0,0,0,0,0,0,0,0,-1,1616,1254,0,0
399,-230,0,0,0,0,0,0,0,0,0,-1,1623,1254,0,0
406,-230,0,0,0,0,0,0,0,0,0,-1,1630,1254,0,0
413,-230,0,0,0,0,0,0,0,0,0,-1,1637,1254,0,0
420,-230,0,0,0,0,0,0,0,0,0,-1,1644,1254,0,0
427,-230,0,0,0,0,0,0,0,0,0,-1,1651,1254,0,0
434,-230,0,0,0,0,0,0,0,0,0,-1,1658,1254,0,0
441,-230,0,0,0,0,0,0,0,0,0,-1,1665,1254,0,0
448,-230,0,0,0,0,0,0,0,0,0,-1,1672,1254,0,0
455,-230,0,0,0,0,0,0,0,0,0,-1,1679,1254,0,0
462,-230,0,0,0,0,0,0,0,0,0,-1,1686,1254,0,0
469,-230,0,0,0,0,0,0,0,0,0,-1,1693,1254,0,0
476,-230,0,0,0,0,0,0,0,0,0,-1,1700,1254,0,0
483,-230,0,0,0,0,0,0,0,0,0,-1,1707,1254,0,0
490,-230,0,0,0,0,0,0,0,0,0,-1,1714,1254,0,0
497,-230,0,0,0,0,0,0,0,0,0,-1,1721,1254,0,0
504,-230,0,0,0,0,0,0,0,0,0,-1,1728,1254,0,0
511,-230,0,0,0,0,0,0,0,0,0,-1,1735,1254,0,0
518,-230,0,0,0,0,0,0,0,0,0,-1,1742,1254,0,0
525,-230,0,0,0,0,0,0,0,0,0,-1,1749,1254,0,0
532,-230,0,0,0,0,0,0,0,0,0,-1,1756,1254,0,0
539,-230,0,0,0,0,0,0,0,0,0,-1,1763,1254,0,0
546,-230,0,0,0,0,0,0,0,0,0,-1,1770,1254,0,0
553,-230,0,0,0,0,0,0,0,0,0,-1,1777,1254,0,0
560,-230,0,0,0,0,0,0,0,0,0,-1,1784,1254,0,0
567,-230,0,0,0,0,0,0,0,0,0,-1,1791,1254,0,0
574,-230,0,0,0,0,0,0,0,0,0,-1,1798,1254,0,0
581,-230,0,0,0,0,0,0,0,0,0,-1,1805,1254,0,0
588,-230,0,0,0,0,0,0,0,0,0,-1,1812,1254,0,0
595,-230,0,0,0,0,0,0,0,0,0,-1,1819,1254,0,0
602,-230,0,0,0,0,0,0,0,0,0,-1,1826,1254,0,0
609,-230,0,0,0,0,0,0,0,0,0,-1,1833,1254,0,0
616,-230,21.8053,3.07874,0.00864907,0.000493966,-0.00284712,0.0095447,-0.000401665,-0.304773,0.00650116,0.0384717,1840,1254,21.8053,-3.07879
623,-230,21.7507,2.89771,0.00272805,0.00051668,-0.000638147,0.00289899,0.000345741,-0.261724,0.00182834,0.0352584,1847,1254,21.7508,-2.89775
630,-230,21.6637,2.83691,-0.00289486,0.000677142,0.00149597,0.00122089,-0.00343861,1.22217,0.00278988,0.0303029,1854,1254,21.6637,-2.83694
637,-230,21.6323,2.79834,-0.00656075,0.000720751,0.00291303,0.0017427,-0.0075827,1.23339,0.00572514,0.0266809,1861,1254,21.6324,-2.79837
644,-230,21.5605,2.70447,-0.00817883,0.000528307,0.00353525,0.00178291,-0.00943343,1.22978,0.0069598,0.0218181,1868,1254,21.5605,-2.70448
651,-230,21.5463,2.73474,-0.00829356,0.000143753,0.00364995,0.00150355,-0.00965336,1.21417,0.00699087,0.0408458,1875,1254,21.5462,-2.73479
658,-230,21.5338,2.94788,-0.00775174,-0.00026257,0.00347727,0.00110297,-0.00911728,1.1966,0.00647722,0.0449341,1882,1254,21.5338,-2.94782
665,-230,21.9211,3.33411,-0.00700653,-0.000646228,0.00315859,0.000655815,-0.00830857,1.1798,0.00577009,0.0443482,1889,1254,21.9211,-3.33406
672,-230,22.3438,3.9281,0,0,0,0,0,0,0,-1,1896,1254,22.3438,-3.92804
679,-230,18.7825,5.6344,0,0,0,0,0,0,0,-1,1903,1254,18.7825,-5.6344
686,-230,18.5547,5.46399,-0.00462085,-0.00114749,0.00223321,-5.51653e-05,-0.00571318,1.11588,0.00379053,0.0466432,1910,1254,18.5547,-5.46399
693,-230,18.296,5.29443,-0.00343131,-0.00134537,0.00178848,-0.000317967,-0.00445871,1.04937,0.00287236,0.0200378,1917,1254,18.296,-5.29448
700,-230,18.3668,5.15308,-0.00198333,-0.00154503,0.00131904,-0.000427063,-0.0031013,0.867718,0.0019409,0.0102727,1924,1254,18.3669,-5.15305
707,-230,18.3674,4.98975,-0.000811577,-0.00186826,0.000647272,-0.000504391,-0.00217544,0.44311,0.00131482,0.00890658,1931,1254,18.3675,-4.98978
714,-230,18.361,4.81165,-0.000465623,-0.00149039,0.000533063,-0.000238619,-0.00171739,0.402589,0.00107426,0.0121294,1938,1254,18.361,-4.8117
721,-230,18.3768,4.62415,-0.000161703,-0.000727602,0.000779729,0.000384828,-0.00127413,0.611346,0.00100263,0.0125405,1945,1254,18.3769,-4.62419
728,-230,18.3578,4.46643,0.000840808,-0.000414484,0.000732628,0.00117788,-0.000751557,0.431211,0.00112299,0.0132442,1952,1254,18.3578,-4.46638
735,-230,18.3566,4.32166,0.00143985,-0.00017605,0.00107604,0.0019775,-0.000713699,0.463373,0.00160986,0.01373,1959,1254,18.3566,-4.32167
742,-230,18.3578,4.17261,0.00200541,-0.000125327,0.00199072,0.00319791,-0.00131782,0.539705,0.00268142,0.0109004,1966,1254,18.3578,-4.17262
749,-230,18.3699,4.00098,0.00260667,-0.000174442,0.00283338,0.00437233,-0.0019401,0.557277,0.00373357,0.00980931,1973,1254,18.3699,-4.00101
756,-230,18.3625,3.8269,0.00296885,-0.000389822,0.00419261,0.00580594,-0.00322691,0.594909,0.0052855,0.0120425,1980,1254,18.3625,-3.82686
763,-230,18.34,3.60352,0.00301311,-0.000743967,0.00628429,0.00769363,-0.00542449,0.640163,0.00761143,0.0240291,1987,1254,18.34,-3.60348
770,-230,18.3728,3.32642,0.00244072,-0.00118494,0.00937422,0.0101758,-0.00892001,0.689885,0.0110329,0.042642,1994,1254,18.3727,-3.32648
777,-230,18.3994,3.0658,0,0,0,0,0,0,0,-1,2001,1254,18.3994,-3.0658
784,-230,20.6539,2.62354,0,0,0,0,0,0,0,-1,2008,1254,20.6539,-2.62351
791,-230,19.5087,3.01855,0,0,0,0,0,0,0,-1,2015,1254,19.5086,-3.01853
798,-230,0,0,0,0,0,0,0,0,0,-1,2022,1254,0,0
805,-230,0,0,0,0,0,0,0,0,0,-1,2029,1254,0,0
812,-230,0,0,0,0,0,0,0,0,0,-1,2036,1254,0,0
-700,-237,0,0,0,0,0,0,0,0,0,-1,524,1261,0,0
-693,-237,0,0,0,0,0,0,0,0,0,-1,531,1261,0,0
-686,-237,0,0,0,0,0,0,0,0,0,-1,538,1261,0,0
-679,-237,0,0,0,0,0,0,0,0,0,-1,545,1261,0,0
-672,-237,-11.8849,1.61633,0,0,0,0,0,0,0,-1,552,1261,-11.885,-1.61638
-665,-237,-10.144,3.58496,0,0,0,0,0,0,0,-1,559,1261,-10.144,-3.58498
-658,-237,-9.99554,3.05286,0,0,0,0,0,0,0,-1,566,1261,-9.99554,-3.05287
-651,-237,-9.8764,2.65906,-0.0174553,0.0305157,-0.0300141,0.0449509,-0.0318904,-1.12251,0.0445775,0.0468858,573,1261,-9.8764,-2.65902
-644,-237,-9.77228,2.30151,-0.0163562,0.0241714,-0.0239767,0.0353004,-0.0274851,-1.13623,0.0363427,0.0499359,580,1261,-9.77229,-2.30154
-637,-237,-9.3891,1.36646,0,0,0,0,0,0,0,-1,587,1261,-9.38908,-1.36645
-630,-237,-9.6593,1.50293,-0.0122859,0.0144028,-0.0143667,0.0206664,-0.0185495,-1.15966,0.0226524,0.0432817,594,1261,-9.65933,-1.50298
-623,-237,-9.92944,1.57837,-0.0100864,0.0109243,-0.0106221,0.0153585,-0.0145207,-1.17533,0.017253,0.0282863,601,1261,-9.92946,-1.57837
-616,-237,-10.0122,1.6853,-0.00778018,0.00788732,-0.00762895,0.0109883,-0.0108812,-1.18472,0.0126264,0.0143578,608,1261,-10.0122,-1.68529
-609,-237,-9.98926,1.8551,-0.00539879,0.00557339,-0.00522791,0.00766544,-0.00749084,-1.19014,0.00875068,0.0171604,615,1261,-9.98927,-1.8551
-602,-237,-9.98126,2.06555,-0.00318964,0.00388093,-0.00329651,0.00517941,-0.00448811,-1.19557,0.0055863,0.0123571,622,1261,-9.98126,-2.06552
-595,-237,-10.0195,2.26038,-0.000997248,0.00218404,-0.00167371,0.0029024,-0.0017156,-1.16538,0.00269539,0.0150442,629,1261,-10.0195,-2.26039
-588,-237,-10.0141,2.44849,0.00108187,0.00143933,-0.000734512,0.00201655,0.000504658,-0.904743,0.0012117,0.0256074,636,1261,-10.0141,-2.44844
-581,-237,-10.002,2.64661,0.00193359,0.00176609,-0.000620385,0.00247585,0.00122383,-0.718308,0.00142946,0.0238204,643,1261,-10.002,-2.64665
-574,-237,-9.99402,2.85168,0.00206963,0.00222969,-0.000886567,0.00303983,0.00125949,-0.830412,0.00176362,0.0143097,650,1261,-9.99402,-2.85164
-567,-237,-9.94647,3.07629,0.0014216,0.00311006,-0.00129107,0.00380842,0.000723243,-1.07495,0.0023355,0.0153518,657,1261,-9.94649,-3.07635
-560,-237,-9.72101,3.33936,0.000643469,0.00379872,-0.00192922,0.00471324,-0.000271054,-1.12813,0.0032363,0.0282975,664,1261,-9.72101,-3.33932
-553,-237,-9.46075,3.55762,0,0,0,0,0,0,0,-1,671,1261,-9.46075,-3.55762
-546,-237,-11.192,1.14014,0,0,0,0,0,0,0,-1,678,1261,-11.192,-1.14011
-539,-237,-12.7396,0.761353,0,0,0,0,0,0,0,-1,685,1261,-12.7395,-0.761375
-532,-237,-12.7935,0.497803,-0.00861648,0.0129181,-0.00305522,0.0133432,-0.00904154,-1.43256,0.0130031,0.0463394,692,1261,-12.7935,-0.497786
-525,-237,-13.2729,0.578857,-0.0122149,0.0163343,-0.00288044,0.016622,-0.0125026,-1.47124,0.0168711,0.0484383,699,1261,-13.273,-0.57891
-518,-237,-13.4438,0.616943,-0.0164299,0.0203392,-0.00216658,0.0204664,-0.0165571,-1.51214,0.0214152,0.0451601,706,1261,-13.4438,-0.616923
-511,-237,-13.7122,0.807495,-0.0208043,0.0245932,-0.000496143,0.0245987,-0.0208097,-1.55987,0.0262469,0.0432359,713,1261,-13.7122,-0.807466
-504,-237,-13.8183,1.05127,-0.0235092,0.0286782,0.00327965,0.0288835,-0.0237145,1.50828,0.0304163,0.0426433,720,1261,-13.8183,-1.05133
-497,-237,-13.8661,1.34241,-0.0229316,0.030932,0.00999534,0.032727,-0.0247266,1.39311,0.0332779,0.0483139,727,1261,-13.8661,-1.34244
-490,-237,0,0,0,0,0,0,0,0,0,-1,734,1261,0,0
-483,-237,0,0,0,0,0,0,0,0,0,-1,741,1261,0,0
-476,-237,0,0,0,0,0,0,0,0,0,-1,748,1261,0,0
-469,-237,0,0,0,0,0,0,0,0,0,-1,755,1261,0,0
-462,-237,0,0,0,0,0,0,0,0,0,-1,762,1261,0,0
-455,-237,0,0,0,0,0,0,0,0,0,-1,769,1261,0,0
-448,-237,0,0,0,0,0,0,0,0,0,-1,776,1261,0,0
-441,-237,0,0,0,0,0,0,0,0,0,-1,783,1261,0,0
-434,-237,0,0,0,0,0,0,0,0,0,-1,790,1261,0,0
-427,-237,0,0,0,0,0,0,0,0,0,-1,797,1261,0,0
-420,-237,0,0,0,0,0,0,0,0,0,-1,804,1261,0,0
-413,-237,0,0,0,0,0,0,0,0,0,-1,811,1261,0,0
-406,-237,0,0,0,0,0,0,0,0,0,-1,818,1261,0,0
-399,-237,0,0,0,0,0,0,0,0,0,-1,825,1261,0,0
-392,-237,0,0,0,0,0,0,0,0,0,-1,832,1261,0,0
-385,-237,0,0,0,0,0,0,0,0,0,-1,839,1261,0,0
-378,-237,0,0,0,0,0,0,0,0,0,-1,846,1261,0,0
-371,-237,0,0,0,0,0,0,0,0,0,-1,853,1261,0,0
-364,-237,0,0,0,0,0,0,0,0,0,-1,860,1261,0,0
-357,-237,0,0,0,0,0,0,0,0,0,-1,867,1261,0,0
-350,-237,0,0,0,0,0,0,0,0,0,-1,874,1261,0,0
-343,-237,0,0,0,0,0,0,0,0,0,-1,881,1261,0,0
-336,-237,0,0,0,0,0,0,0,0,0,-1,888,1261,0,0
-329,-237,0,0,0,0,0,0,0,0,0,-1,895,1261,0,0
-322,-237,0,0,0,0,0,0,0,0,0,-1,902,1261,0,0
-315,-237,0,0,0,0,0,0,0,0,0,-1,909,1261,0,0
-308,-237,0,0,0,0,0,0,0,0,0,-1,916,1261,0,0
-301,-237,0,0,0,0,0,0,0,0,0,-1,923,1261,0,0
-294,-237,0,0,0,0,0,0,0,0,0,-1,930,1261,0,0
-287,-237,0,0,0,0,0,0,0,0,0,-1,937,1261,0,0
-280,-237,0,0,0,0,0,0,0,0,0,-1,944,1261,0,0
-273,-237,0,0,0,0,0,0,0,0,0,-1,951,1261,0,0
-266,-237,0,0,0,0,0,0,0,0,0,-1,958,1261,0,0
-259,-237,0,0,0,0,0,0,0,0,0,-1,965,1261,0,0
-252,-237,0,0,0,0,0,0,0,0,0,-1,972,1261,0,0
-245,-237,0,0,0,0,0,0,0,0,0,-1,979,1261,0,0
-238,-237,0,0,0,0,0,0,0,0,0,-1,986,1261,0,0
-231,-237,0,0,0,0,0,0,0,0,0,-1,993,1261,0,0
-224,-237,0,0,0,0,0,0,0,0,0,-1,1000,1261,0,0
-217,-237,0,0,0,0,0,0,0,0,0,-1,1007,1261,0,0
-210,-237,0,0,0,0,0,0,0,0,0,-1,1014,1261,0,0
-203,-237,0,0,0,0,0,0,0,0,0,-1,1021,1261,0,0
-196,-237,0,0,0,0,0,0,0,0,0,-1,1028,1261,0,0
-189,-237,0,0,0,0,0,0,0,0,0,-1,1035,1261,0,0
-182,-237,0,0,0,0,0,0,0,0,0,-1,1042,1261,0,0
-175,-237,0,0,0,0,0,0,0,0,0,-1,1049,1261,0,0
-168,-237,0,0,0,0,0,0,0,0,0,-1,1056,1261,0,0
-161,-237,0,0,0,0,0,0,0,0,0,-1,1063,1261,0,0
-154,-237,0,0,0,0,0,0,0,0,0,-1,1070,1261,0,0
-147,-237,0,0,0,0,0,0,0,0,0,-1,1077,1261,0,0
-140,-237,0,0,0,0,0,0,0,0,0,-1,1084,1261,0,0
-133,-237,0,0,0,0,0,0,0,0,0,-1,1091,1261,0,0
-126,-237,0,0,0,0,0,0,0,0,0,-1,1098,1261,0,0
-119,-237,0,0,0,0,0,0,0,0,0,-1,1105,1261,0,0
-112,-237,0,0,0,0,0,0,0,0,0,-1,1112,1261,0,0
-105,-237,0,0,0,0,0,0,0,0,0,-1,1119,1261,0,0
-98,-237,0,0,0,0,0,0,0,0,0,-1,1126,1261,0,0
-91,-237,0,0,0,0,0,0,0,0,0,-1,1133,1261,0,0
-84,-237,0,0,0,0,0,0,0,0,0,-1,1140,1261,0,0
-77,-237,0,0,0,0,0,0,0,0,0,-1,1147,1261,0,0
-70,-237,0,0,0,0,0,0,0,0,0,-1,1154,1261,0,0
-63,-237,0,0,0,0,0,0,0,0,0,-1,1161,1261,0,0
-56,-237,0,0,0,0,0,0,0,0,0,-1,1168,1261,0,0
-49,-237,0,0,0,0,0,0,0,0,0,-1,1175,1261,0,0
-42,-237,0,0,0,0,0,0,0,0,0,-1,1182,1261,0,0
-35,-237,0,0,0,0,0,0,0,0,0,-1,1189,1261,0,0
-28,-237,0,0,0,0,0,0,0,0,0,-1,1196,1261,0,0
-21,-237,0,0,0,0,0,0,0,0,0,-1,1203,1261,0,0
-14,-237,0,0,0,0,0,0,0,0,0,-1,1210,1261,0,0
-7,-237,0,0,0,0,0,0,0,0,0,-1,1217,1261,0,0
0,-237,0,0,0,0,0,0,0,0,0,-1,1224,1261,0,0
7,-237,0,0,0,0,0,0,0,0,0,-1,1231,1261,0,0
14,-237,0,0,0,0,0,0,0,0,0,-1,1238,1261,0,0
21,-237,0,0,0,0,0,0,0,0,0,-1,1245,1261,0,0
28,-237,0,0,0,0,0,0,0,0,0,-1,1252,1261,0,0
35,-237,0,0,0,0,0,0,0,0,0,-1,1259,1261,0,0
42,-237,0,0,0,0,0,0,0,0,0,-1,1266,1261,0,0
49,-237,0,0,0,0,0,0,0,0,0,-1,1273,1261,0,0
56,-237,0,0,0,0,0,0,0,0,0,-1,1280,1261,0,0
63,-237,0,0,0,0,0,0,0,0,0,-1,1287,1261,0,0
70,-237,0,0,0,0,0,0,0,0,0,-1,1294,1261,0,0
77,-237,0,0,0,0,0,0,0,0,0,-1,1301,1261,0,0
84,-237,0,0,0,0,0,0,0,0,0,-1,1308,1261,0,0
91,-237,0,0,0,0,0,0,0,0,0,-1,1315,1261,0,0
98,-237,0,0,0,0,0,0,0,0,0,-1,1322,1261,0,0
105,-237,0,0,0,0,0,0,0,0,0,-1,1329,1261,0,0
112,-237,0,0,0,0,0,0,0,0,0,-1,1336,1261,0,0
119,-237,0,0,0,0,0,0,0,0,0,-1,1343,1261,0,0
126,-237,0,0,0,0,0,0,0,0,0,-1,1350,1261,0,0
133,-237,0,0,0,0,0,0,0,0,0,-1,1357,1261,0,0
140,-237,0,0,0,0,0,0,0,0,0,-1,1364,1261,0,0
147,-237,0,0,0,0,0,0,0,0,0,-1,1371,1261,0,0
154,-237,0,0,0,0,0,0,0,0,0,-1,1378,1261,0,0
161,-237,0,0,0,0,0,0,0,0,0,-1,1385,1261,0,0
168,-237,0,0,0,0,0,0,0,0,0,-1,1392,1261,0,0
175,-237,0,0,0,0,0,0,0,0,0,-1,1399,1261,0,0
182,-237,0,0,0,0,0,0,0,0,0,-1,1406,1261,0,0
189,-237,0,0,0,0,0,0,0,0,0,-1,1413,1261,0,0
196,-237,0,0,0,0,0,0,0,0,0,-1,1420,1261,0,0
203,-237,0,0,0,0,0,0,0,0,0,-1,1427,1261,0,0
210,-237,0,0,0,0,0,0,0,0,0,-1,1434,1261,0,0
217,-237,0,0,0,0,0,0,0,0,0,-1,1441,1261,0,0
224,-237,0,0,0,0,0,0,0,0,0,-1,1448,1261,0,0
231,-237,0,0,0,0,0,0,0,0,0,-1,1455,1261,0,0
238,-237,0,0,0,0,0,0,0,0,0,-1,1462,1261,0,0
245,-237,0,0,0,0,0,0,0,0,0,-1,1469,1261,0,0
252,-237,0,0,0,0,0,0,0,0,0,-1,1476,1261,0,0
259,-237,0,0,0,0,0,0,0,0,0,-1,1483,1261,0,0
266,-237,0,0,0,0,0,0,0,0,0,-1,1490,1261,0,0
273,-237,0,0,0,0,0,0,0,0,0,-1,1497,1261,0,0
280,-237,0,0,0,0,0,0,0,0,0,-1,1504,1261,0,0
287,-237,0,0,0,0,0,0,0,0,0,-1,1511,1261,0,0
294,-237,0,0,0,0,0,0,0,0,0,-1,1518,1261,0,0
301,-237,0,0,0,0,0,0,0,0,0,-1,1525,1261,0,0
308,-237,0,0,0,0,0,0,0,0,0,-1,1532,1261,0,0
315,-237,0,0,0,0,0,0,0,0,0,-1,1539,1261,0,0
322,-237,0,0,0,0,0,0,0,0,0,-1,1546,1261,0,0
329,-237,0,0,0,0,0,0,0,0,0,-1,1553,1261,0,0
336,-237,0,0,0,0,0,0,0,0,0,-1,1560,1261,0,0
343,-237,0,0,0,0,0,0,0,0,0,-1,1567,1261,0,0
350,-237,0,0,0,0,0,0,0,0,0,-1,1574,1261,0,0
357,-237,0,0,0,0,0,0,0,0,0,-1,1581,1261,0,0
364,-237,0,0,0,0,0,0,0,0,0,-1,1588,1261,0,0
371,-237,0,0,0,0,0,0,0,0,0,-1,1595,1261,0,0
378,-237,0,0,0,0,0,0,0,0,0,-1,1602,1261,0,0
385,-237,0,0,0,0,0,0,0,0,0,-1,1609,1261,0,0
392,-237,0,0,0,0,0,0,0,0,0,-1,1616,1261,0,0
399,-237,0,0,0,0,0,0,0,0,0,-1,1623,1261,0,0
406,-237,0,0,0,0,0,0,0,0,0,-1,1630,1261,0,0
413,-237,0,0,0,0,0,0,0,0,0,-1,1637,1261,0,0
420,-237,0,0,0,0,0,0,0,0,0,-1,1644,1261,0,0
427,-237,0,0,0,0,0,0,0,0,0,-1,1651,1261,0,0
434,-237,0,0,0,0,0,0,0,0,0,-1,1658,1261,0,0
441,-237,0,0,0,0,0,0,0,0,0,-1,1665,1261,0,0
448,-237,0,0,0,0,0,0,0,0,0,-1,1672,1261,0,0
455,-237,0,0,0,0,0,0,0,0,0,-1,1679,1261,0,0
462,-237,0,0,0,0,0,0,0,0,0,-1,1686,1261,0,0
469,-237,0,0,0,0,0,0,0,0,0,-1,1693,1261,0,0
476,-237,0,0,0,0,0,0,0,0,0,-1,1700,1261,0,0
483,-237,0,0,0,0,0,0,0,0,0,-1,1707,1261,0,0
490,-237,0,0,0,0,0,0,0,0,0,-1,1714,1261,0,0
497,-237,0,0,0,0,0,0,0,0,0,-1,1721,1261,0,0
504,-237,0,0,0,0,0,0,0,0,0,-1,1728,1261,0,0
511,-237,0,0,0,0,0,0,0,0,0,-1,1735,1261,0,0
518,-237,0,0,0,0,0,0,0,0,0,-1,1742,1261,0,0
525,-237,0,0,0,0,0,0,0,0,0,-1,1749,1261,0,0
532,-237,0,0,0,0,0,0,0,0,0,-1,1756,1261,0,0
539,-237,0,0,0,0,0,0,0,0,0,-1,1763,1261,0,0
546,-237,0,0,0,0,0,0,0,0,0,-1,1770,1261,0,0
553,-237,0,0,0,0,0,0,0,0,0,-1,1777,1261,0,0
560,-237,0,0,0,0,0,0,0,0,0,-1,1784,1261,0,0
567,-237,0,0,0,0,0,0,0,0,0,-1,1791,1261,0,0
574,-237,0,0,0,0,0,0,0,0,0,-1,1798,1261,0,0
581,-237,0,0,0,0,0,0,0,0,0,-1,1805,1261,0,0
588,-237,0,0,0,0,0,0,0,0,0,-1,1812,1261,0,0
595,-237,0,0,0,0,0,0,0,0,0,-1,1819,1261,0,0
602,-237,0,0,0,0,0,0,0,0,0,-1,1826,1261,0,0
609,-237,0,0,0,0,0,0,0,0,0,-1,1833,1261,0,0
616,-237,21.6139,2.9458,0.00834748,0.000539044,-0.00346268,0.00966179,-0.00077527,-0.362767,0.00671455,0.0371183,1840,1261,21.6139,-2.94582
623,-237,21.6,2.80493,0.000523332,0.000407127,-0.000965367,0.00143234,-0.000501885,-0.755341,0.001159,0.0318151,1847,1261,21.6,-2.80498
630,-237,21.6108,2.79004,-0.00646067,0.000481156,0.00146229,0.000776611,-0.00675612,1.37143,0.00478401,0.0253172,1854,1261,21.6108,-2.7901
637,-237,21.5559,2.7467,-0.010557,0.00052375,0.00307857,0.00132162,-0.0113549,1.31721,0.00804672,0.0222384,1861,1261,21.5559,-2.7467
644,-237,21.4355,2.6228,-0.0120124,0.000389937,0.00381655,0.00147029,-0.0130927,1.29494,0.00925758,0.0439193,1868,1261,21.4356,-2.62278
651,-237,21.4338,2.69336,0,0,0,0,0,0,0,-1,1875,1261,21.4338,-2.69335
658,-237,21.4562,3.11096,0,0,0,0,0,0,0,-1,1882,1261,21.4562,-3.11094
665,-237,22.6578,4.06836,0,0,0,0,0,0,0,-1,1889,1261,22.6578,-4.06842
672,-237,22.9266,4.46301,0,0,0,0,0,0,0,-1,1896,1261,22.9266,-4.46306
679,-237,18.7262,5.81909,0,0,0,0,0,0,0,-1,1903,1261,18.7262,-5.81912
686,-237,18.4424,5.5592,-0.00626123,-0.000879489,0.00262265,0.000187175,-0.00732789,1.18452,0.00494883,0.0318079,1910,1261,18.4424,-5.55919
693,-237,18.1467,5.33911,-0.00453534,-0.00111046,0.00202637,-0.00016986,-0.00547594,1.13621,0.00359534,0.0176416,1917,1261,18.1468,-5.33917
700,-237,18.176,5.16711,-0.00255842,-0.00133712,0.0014377,-0.000385763,-0.00350978,0.986225,0.00222245,0.0100678,1924,1261,18.176,-5.16706
707,-237,18.1898,4.99683,-0.000934349,-0.00171994,0.00062,-0.00059319,-0.0020611,0.50304,0.00122518,0.00907946,1931,1261,18.1899,-4.99683
714,-237,18.191,4.83911,-0.000339893,-0.00125736,0.000441637,-0.000161854,-0.0014354,0.383206,0.000907803,0.0123592,1938,1261,18.191,-4.83916
721,-237,18.2017,4.64673,0.000130026,-0.000411376,0.000666796,0.000578975,-0.000860325,0.592576,0.000836256,0.0146808,1945,1261,18.2016,-4.64678
728,-237,18.1896,4.47302,0.0011845,3.58279e-05,0.000686648,0.00150534,-0.000285017,0.437116,0.00111082,0.0136911,1952,1261,18.1896,-4.47306
735,-237,18.1786,4.32544,0.00172877,0.000404229,0.00112593,0.00237277,-0.000239764,0.51955,0.00166752,0.0178957,1959,1261,18.1786,-4.32546
742,-237,18.1886,4.16919,0.00221816,0.000658198,0.00214972,0.00372502,-0.000848667,0.61137,0.0028093,0.0144216,1966,1261,18.1886,-4.16921
749,-237,18.1752,4.01538,0.00269639,0.000834053,0.00318995,0.00508831,-0.00155786,0.64339,0.00401357,0.00925789,1973,1261,18.1752,-4.01537
756,-237,18.1572,3.83044,0.0028979,0.000909804,0.00482166,0.00682691,-0.00301921,0.683741,0.00582463,0.0127607,1980,1261,18.1572,-3.83044
763,-237,18.1926,3.55115,0.00271331,0.000956043,0.00725842,0.00914609,-0.00547673,0.725166,0.00853063,0.0277039,1987,1261,18.1927,-3.55112
770,-237,18.2465,3.18311,0.00182393,0.00105058,0.0107791,0.0122233,-0.00934875,0.76747,0.0124914,0.0434503,1994,1261,18.2465,-3.18315
777,-237,18.283,2.89941,0,0,0,0,0,0,0,-1,2001,1261,18.283,-2.8994
784,-237,20.797,2.92993,-0.0041036,0.00200798,0.0226512,0.0218086,-0.0239042,0.852446,0.0264016,0.04517,2008,1261,20.797,-2.92999
791,-237,20.4677,2.75208,0,0,0,0,0,0,0,-1,2015,1261,20.4677,-2.75212
798,-237,0,0,0,0,0,0,0,0,0,-1,2022,1261,0,0
805,-237,0,0,0,0,0,0,0,0,0,-1,2029,1261,0,0
812,-237,0,0,0,0,0,0,0,0,0,-1,2036,1261,0,0
-700,-244,0,0,0,0,0,0,0,0,0,-1,524,1268,0,0
-693,-244,0,0,0,0,0,0,0,0,0,-1,531,1268,0,0
-686,-244,0,0,0,0,0,0,0,0,0,-1,538,1268,0,0
-679,-244,0,0,0,0,0,0,0,0,0,-1,545,1268,0,0
-672,-244,-10.7446,2.24573,0,0,0,0,0,0,0,-1,552,1268,-10.7446,-2.24576
-665,-244,-10.4308,1.94592,0,0,0,0,0,0,0,-1,559,1268,-10.4308,-1.94597
-658,-244,-10.0107,1.57776,0,0,0,0,0,0,0,-1,566,1268,-10.0107,-1.5778
-651,-244,-9.56097,1.87891,-0.0213792,0.0409338,-0.0278694,0.0515796,-0.032025,-1.20591,0.0487072,0.0455619,573,1268,-9.56095,-1.87888
-644,-244,-9.24481,1.90381,-0.0196103,0.0332043,-0.0225027,0.0414916,-0.0278976,-1.21793,0.0403173,0.0496885,580,1268,-9.24478,-1.90378
-637,-244,-9.44287,1.73779,-0.0171666,0.0265056,-0.0177963,0.0328391,-0.0235001,-1.22889,0.032676,0.0487648,587,1268,-9.44286,-1.73777
-630,-244,-9.66748,1.5791,-0.0143888,0.0207924,-0.0137392,0.0255221,-0.0191185,-1.23925,0.0258615,0.043553,594,1268,-9.66749,-1.57915
-623,-244,-9.81622,1.51917,-0.0117054,0.0160561,-0.0102502,0.0194305,-0.0150799,-1.25276,0.0199773,0.0343808,601,1268,-9.81623,-1.51912
-616,-244,-9.80298,1.69153,-0.00902652,0.0119706,-0.00741054,0.0143225,-0.0113785,-1.26347,0.0148709,0.017207,608,1268,-9.80297,-1.69155
-609,-244,-9.7785,1.85803,-0.0063573,0.00867228,-0.00509281,0.0102354,-0.00792044,-1.27299,0.0105107,0.014314,615,1268,-9.77848,-1.85805
-602,-244,-9.7674,2.07336,-0.0038553,0.00602517,-0.00321283,0.006978,-0.00480812,-1.28249,0.00684305,0.0150562,622,1268,-9.76742,-2.07331
-595,-244,-9.8056,2.276,-0.00141954,0.00347148,-0.00158327,0.00393926,-0.00188732,-1.28352,0.00343281,0.0159381,629,1268,-9.80558,-2.276
-588,-244,-9.7948,2.46838,0.000897402,0.00201278,-0.000589458,0.00226656,0.000643624,-1.16425,0.0013487,0.0196749,636,1268,-9.7948,-2.46839
-581,-244,-9.77789,2.6571,0.002054,0.00173656,-0.00035425,0.00228346,0.0015071,-0.574784,0.00134067,0.0168969,643,1268,-9.77788,-2.65711
-574,-244,-9.8006,2.88977,0.00244055,0.0018533,-0.000561102,0.00278021,0.00151364,-0.544343,0.00160727,0.0120473,650,1268,-9.80062,-2.88982
-567,-244,-9.80756,3.08997,0.00187285,0.00266512,-0.00102406,0.00336699,0.00117098,-0.969948,0.00197373,0.00988773,657,1268,-9.80758,-3.08994
-560,-244,-9.73077,3.30579,0.0010251,0.00346597,-0.00174478,0.00437479,0.000116284,-1.09059,0.00287855,0.0161628,664,1268,-9.73074,-3.30575
-553,-244,-9.55054,3.58386,-0.000629348,0.00548971,-0.00236937,0.00629988,-0.00143953,-1.24132,0.00475299,0.0425745,671,1268,-9.55052,-3.58389
-546,-244,-9.30518,3.83179,0,0,0,0,0,0,0,-1,678,1268,-9.30515,-3.83178
-539,-244,-10.9448,0.29541,0,0,0,0,0,0,0,-1,685,1268,-10.9447,-0.295358
-532,-244,-13.1046,0.541504,0,0,0,0,0,0,0,-1,692,1268,-13.1046,-0.541455
-525,-244,-13.1462,0.460938,-0.0135981,0.017993,-0.0025155,0.0181921,-0.0137972,-1.49183,0.018527,0.0494263,699,1268,-13.1463,-0.460953
-518,-244,-13.2747,0.439941,-0.0186112,0.023078,-0.0016166,0.0231406,-0.0186738,-1.5321,0.0241874,0.0442769,706,1268,-13.2746,-0.439987
-511,-244,-13.479,0.588745,-0.0242455,0.0291716,0.000255367,0.0291728,-0.0242468,1.56602,0.0308855,0.044452,713,1268,-13.479,-0.58871
-504,-244,-13.6948,0.908813,-0.0292473,0.0364104,0.00404674,0.0366589,-0.0294958,1.50947,0.038269,0.0450212,720,1268,-13.6948,-0.908779
-497,-244,-13.8804,1.323,-0.032696,0.043204,0.010176,0.0445447,-0.0340366,1.43981,0.0455039,0.0473357,727,1268,-13.8803,-1.32297
-490,-244,0,0,0,0,0,0,0,0,0,-1,734,1268,0,0
-483,-244,0,0,0,0,0,0,0,0,0,-1,741,1268,0,0
-476,-244,0,0,0,0,0,0,0,0,0,-1,748,1268,0,0
-469,-244,0,0,0,0,0,0,0,0,0,-1,755,1268,0,0
-462,-244,0,0,0,0,0,0,0,0,0,-1,762,1268,0,0
-455,-244,0,0,0,0,0,0,0,0,0,-1,769,1268,0,0
-448,-244,0,0,0,0,0,0,0,0,0,-1,776,1268,0,0
-441,-244,0,0,0,0,0,0,0,0,0,-1,783,1268,0,0
-434,-244,0,0,0,0,0,0,0,0,0,-1,790,1268,0,0
-427,-244,0,0,0,0,0,0,0,0,0,-1,797,1268,0,0
-420,-244,0,0,0,0,0,0,0,0,0,-1,804,1268,0,0
-413,-244,0,0,0,0,0,0,0,0,0,-1,811,1268,0,0
-406,-244,0,0,0,0,0,0,0,0,0,-1,818,1268,0,0
-399,-244,0,0,0,0,0,0,0,0,0,-1,825,1268,0,0
-392,-244,0,0,0,0,0,0,0,0,0,-1,832,1268,0,0
-385,-244,0,0,0,0,0,0,0,0,0,-1,839,1268,0,0
-378,-244,0,0,0,0,0,0,0,0,0,-1,846,1268,0,0
-371,-244,0,0,0,0,0,0,0,0,0,-1,853,1268,0,0
-364,-244,0,0,0,0,0,0,0,0,0,-1,860,1268,0,0
-357,-244,0,0,0,0,0,0,0,0,0,-1,867,1268,0,0
-350,-244,0,0,0,0,0,0,0,0,0,-1,874,1268,0,0
-343,-244,0,0,0,0,0,0,0,0,0,-1,881,1268,0,0
-336,-244,0,0,0,0,0,0,0,0,0,-1,888,1268,0,0
-329,-244,0,0,0,0,0,0,0,0,0,-1,895,1268,0,0
-322,-244,0,0,0,0,0,0,0,0,0,-1,902,1268,0,0
-315,-244,0,0,0,0,0,0,0,0,0,-1,909,1268,0,0
-308,-244,0,0,0,0,0,0,0,0,0,-1,916,1268,0,0
-301,-244,0,0,0,0,0,0,0,0,0,-1,923,1268,0,0
-294,-244,0,0,0,0,0,0,0,0,0,-1,930,1268,0,0
-287,-244,0,0,0,0,0,0,0,0,0,-1,937,1268,0,0
-280,-244,0,0,0,0,0,0,0,0,0,-1,944,1268,0,0
-273,-244,0,0,0,0,0,0,0,0,0,-1,951,1268,0,0
-266,-244,0,0,0,0,0,0,0,0,0,-1,958,1268,0,0
-259,-244,0,0,0,0,0,0,0,0,0,-1,965,1268,0,0
-252,-244,0,0,0,0,0,0,0,0,0,-1,972,1268,0,0
-245,-244,0,0,0,0,0,0,0,0,0,-1,979,1268,0,0
-238,-244,0,0,0,0,0,0,0,0,0,-1,986,1268,0,0
-231,-244,0,0,0,0,0,0,0,0,0,-1,993,1268,0,0
-224,-244,0,0,0,0,0,0,0,0,0,-1,1000,1268,0,0
-217,-244,0,0,0,0,0,0,0,0,0,-1,1007,1268,0,0
-210,-244,0,0,0,0,0,0,0,0,0,-1,1014,1268,0,0
-203,-244,0,0,0,0,0,0,0,0,0,-1,1021,1268,0,0
-196,-244,0,0,0,0,0,0,0,0,0,-1,1028,1268,0,0
-189,-244,0,0,0,0,0,0,0,0,0,-1,1035,1268,0,0
-182,-244,0,0,0,0,0,0,0,0,0,-1,1042,1268,0,0
-175,-244,0,0,0,0,0,0,0,0,0,-1,1049,1268,0,0
-168,-244,0,0,0,0,0,0,0,0,0,-1,1056,1268,0,0
-161,-244,0,0,0,0,0,0,0,0,0,-1,1063,1268,0,0
-154,-244,0,0,0,0,0,0,0,0,0,-1,1070,1268,0,0
-147,-244,0,0,0,0,0,0,0,0,0,-1,1077,1268,0,0
-140,-244,0,0,0,0,0,0,0,0,0,-1,1084,1268,0,0
-133,-244,0,0,0,0,0,0,0,0,0,-1,1091,1268,0,0
-126,-244,0,0,0,0,0,0,0,0,0,-1,1098,1268,0,0
-119,-244,0,0,0,0,0,0,0,0,0,-1,1105,1268,0,0
-112,-244,0,0,0,0,0,0,0,0,0,-1,1112,1268,0,0
-105,-244,0,0,0,0,0,0,0,0,0,-1,1119,1268,0,0
-98,-244,0,0,0,0,0,0,0,0,0,-1,1126,1268,0,0
-91,-244,0,0,0,0,0,0,0,0,0,-1,1133,1268,0,0
-84,-244,0,0,0,0,0,0,0,0,0,-1,1140,1268,0,0
-77,-244,0,0,0,0,0,0,0,0,0,-1,1147,1268,0,0
-70,-244,0,0,0,0,0,0,0,0,0,-1,1154,1268,0,0
-63,-244,0,0,0,0,0,0,0,0,0,-1,1161,1268,0,0
-56,-244,0,0,0,0,0,0,0,0,0,-1,1168,1268,0,0
-49,-244,0,0,0,0,0,0,0,0,0,-1,1175,1268,0,0
-42,-244,0,0,0,0,0,0,0,0,0,-1,1182,1268,0,0
-35,-244,0,0,0,0,0,0,0,0,0,-1,1189,1268,0,0
-28,-244,0,0,0,0,0,0,0,0,0,-1,1196,1268,0,0
-21,-244,0,0,0,0,0,0,0,0,0,-1,1203,1268,0,0
-14,-244,0,0,0,0,0,0,0,0,0,-1,1210,1268,0,0
-7,-244,0,0,0,0,0,0,0,0,0,-1,1217,1268,0,0
0,-244,0,0,0,0,0,0,0,0,0,-1,1224,1268,0,0
7,-244,0,0,0,0,0,0,0,0,0,-1,1231,1268,0,0
14,-244,0,0,0,0,0,0,0,0,0,-1,1238,1268,0,0
21,-244,0,0,0,0,0,0,0,0,0,-1,1245,1268,0,0
28,-244,0,0,0,0,0,0,0,0,0,-1,1252,1268,0,0
35,-244,0,0,0,0,0,0,0,0,0,-1,1259,1268,0,0
42,-244,0,0,0,0,0,0,0,0,0,-1,1266,1268,0,0
49,-244,0,0,0,0,0,0,0,0,0,-1,1273,1268,0,0
56,-244,0,0,0,0,0,0,0,0,0,-1,1280,1268,0,0
63,-244,0,0,0,0,0,0,0,0,0,-1,1287,1268,0,0
70,-244,0,0,0,0,0,0,0,0,0,-1,1294,1268,0,0
77,-244,0,0,0,0,0,0,0,0,0,-1,1301,1268,0,0
84,-244,0,0,0,0,0,0,0,0,0,-1,1308,1268,0,0
91,-244,0,0,0,0,0,0,0,0,0,-1,1315,1268,0,0
98,-244,0,0,0,0,0,0,0,0,0,-1,1322,1268,0,0
105,-244,0,0,0,0,0,0,0,0,0,-1,1329,1268,0,0
112,-244,0,0,0,0,0,0,0,0,0,-1,1336,1268,0,0
119,-244,0,0,0,0,0,0,0,0,0,-1,1343,1268,0,0
126,-244,0,0,0,0,0,0,0,0,0,-1,1350,1268,0,0
133,-244,0,0,0,0,0,0,0,0,0,-1,1357,1268,0,0
140,-244,0,0,0,0,0,0,0,0,0,-1,1364,1268,0,0
147,-244,0,0,0,0,0,0,0,0,0,-1,1371,1268,0,0
154,-244,0,0,0,0,0,0,0,0,0,-1,1378,1268,0,0
161,-244,0,0,0,0,0,0,0,0,0,-1,1385,1268,0,0
168,-244,0,0,0,0,0,0,0,0,0,-1,1392,1268,0,0
175,-244,0,0,0,0,0,0,0,0,0,-1,1399,1268,0,0
182,-244,0,0,0,0,0,0,0,0,0,-1,1406,1268,0,0
189,-244,0,0,0,0,0,0,0,0,0,-1,1413,1268,0,0
196,-244,0,0,0,0,0,0,0,0,0,-1,1420,1268,0,0
203,-244,0,0,0,0,0,0,0,0,0,-1,1427,1268,0,0
210,-244,0,0,0,0,0,0,0,0,0,-1,1434,1268,0,0
217,-244,0,0,0,0,0,0,0,0,0,-1,1441,1268,0,0
224,-244,0,0,0,0,0,0,0,0,0,-1,1448,1268,0,0
231,-244,0,0,0,0,0,0,0,0,0,-1,1455,1268,0,0
238,-244,0,0,0,0,0,0,0,0,0,-1,1462,1268,0,0
245,-244,0,0,0,0,0,0,0,0,0,-1,1469,1268,0,0
252,-244,0,0,0,0,0,0,0,0,0,-1,1476,1268,0,0
259,-244,0,0,0,0,0,0,0,0,0,-1,1483,1268,0,0
266,-244,0,0,0,0,0,0,0,0,0,-1,1490,1268,0,0
273,-244,0,0,0,0,0,0,0,0,0,-1,1497,1268,0,0
280,-244,0,0,0,0,0,0,0,0,0,-1,1504,1268,0,0
287,-244,0,0,0,0,0,0,0,0,0,-1,1511,1268,0,0
294,-244,0,0,0,0,0,0,0,0,0,-1,1518,1268,0,0
301,-244,0,0,0,0,0,0,0,0,0,-1,1525,1268,0,0
308,-244,0,0,0,0,0,0,0,0,0,-1,1532,1268,0,0
315,-244,0,0,0,0,0,0,0,0,0,-1,1539,1268,0,0
322,-244,0,0,0,0,0,0,0,0,0,-1,1546,1268,0,0
329,-244,0,0,0,0,0,0,0,0,0,-1,1553,1268,0,0
336,-244,0,0,0,0,0,0,0,0,0,-1,1560,1268,0,0
343,-244,0,0,0,0,0,0,0,0,0,-1,1567,1268,0,0
350,-244,0,0,0,0,0,0,0,0,0,-1,1574,1268,0,0
357,-244,0,0,0,0,0,0,0,0,0,-1,1581,1268,0,0
364,-244,0,0,0,0,0,0,0,0,0,-1,1588,1268,0,0
371,-244,0,0,0,0,0,0,0,0,0,-1,1595,1268,0,0
378,-244,0,0,0,0,0,0,0,0,0,-1,1602,1268,0,0
385,-244,0,0,0,0,0,0,0,0,0,-1,1609,1268,0,0
392,-244,0,0,0,0,0,0,0,0,0,-1,1616,1268,0,0
399,-244,0,0,0,0,0,0,0,0,0,-1,1623,1268,0,0
406,-244,0,0,0,0,0,0,0,0,0,-1,1630,1268,0,0
413,-244,0,0,0,0,0,0,0,0,0,-1,1637,1268,0,0
420,-244,0,0,0,0,0,0,0,0,0,-1,1644,1268,0,0
427,-244,0,0,0,0,0,0,0,0,0,-1,1651,1268,0,0
434,-244,0,0,0,0,0,0,0,0,0,-1,1658,1268,0,0
441,-244,0,0,0,0,0,0,0,0,0,-1,1665,1268,0,0
448,-244,0,0,0,0,0,0,0,0,0,-1,1672,1268,0,0
455,-244,0,0,0,0,0,0,0,0,0,-1,1679,1268,0,0
462,-244,0,0,0,0,0,0,0,0,0,-1,1686,1268,0,0
469,-244,0,0,0,0,0,0,0,0,0,-1,1693,1268,0,0
476,-244,0,0,0,0,0,0,0,0,0,-1,1700,1268,0,0
483,-244,0,0,0,0,0,0,0,0,0,-1,1707,1268,0,0
490,-244,0,0,0,0,0,0,0,0,0,-1,1714,1268,0,0
497,-244,0,0,0,0,0,0,0,0,0,-1,1721,1268,0,0
504,-244,0,0,0,0,0,0,0,0,0,-1,1728,1268,0,0
511,-244,0,0,0,0,0,0,0,0,0,-1,1735,1268,0,0
518,-244,0,0,0,0,0,0,0,0,0,-1,1742,1268,0,0
525,-244,0,0,0,0,0,0,0,0,0,-1,1749,1268,0,0
532,-244,0,0,0,0,0,0,0,0,0,-1,1756,1268,0,0
539,-244,0,0,0,0,0,0,0,0,0,-1,1763,1268,0,0
546,-244,0,0,0,0,0,0,0,0,0,-1,1770,1268,0,0
553,-244,0,0,0,0,0,0,0,0,0,-1,1777,1268,0,0
560,-244,0,0,0,0,0,0,0,0,0,-1,1784,1268,0,0
567,-244,0,0,0,0,0,0,0,0,0,-1,1791,1268,0,0
574,-244,0,0,0,0,0,0,0,0,0,-1,1798,1268,0,0
581,-244,0,0,0,0,0,0,0,0,0,-1,1805,1268,0,0
588,-244,0,0,0,0,0,0,0,0,0,-1,1812,1268,0,0
595,-244,0,0,0,0,0,0,0,0,0,-1,1819,1268,0,0
602,-244,0,0,0,0,0,0,0,0,0,-1,1826,1268,0,0
609,-244,0,0,0,0,0,0,0,0,0,-1,1833,1268,0,0
616,-244,21.5615,2.74524,0.00608255,0.000784807,-0.0036128,0.00791351,-0.00104614,-0.46907,0.00565672,0.0341013,1840,1268,21.5616,-2.74519
623,-244,21.5958,2.77356,-0.00324165,0.000615063,-0.000903436,0.000816203,-0.00344279,-1.35173,0.00261015,0.0264626,1847,1268,21.5959,-2.77359
630,-244,21.6371,2.86682,-0.0108206,0.000680446,0.00168314,0.000921709,-0.0110619,1.42843,0.00770022,0.0242996,1854,1268,21.6371,-2.86684
637,-244,21.6193,2.84924,0,0,0,0,0,0,0,-1,1861,1268,21.6192,-2.84928
644,-244,21.3444,2.65991,-0.0159379,0.000660442,0.0041812,0.00165421,-0.0169317,1.33745,0.0118777,0.0474992,1868,1268,21.3444,-2.65987
651,-244,20.9799,2.68542,-0.0153489,0.000450112,0.00440982,0.00159763,-0.0164964,1.31622,0.011567,0.0447507,1875,1268,20.9798,-2.68537
658,-244,20.6,2.82629,0,0,0,0,0,0,0,-1,1882,1268,20.5999,-2.8263
665,-244,23.3558,4.61633,0,0,0,0,0,0,0,-1,1889,1268,23.3558,-4.61631
672,-244,17.7415,5.33276,0,0,0,0,0,0,0,-1,1896,1268,17.7415,-5.33278
679,-244,18.0364,5.60632,0,0,0,0,0,0,0,-1,1903,1268,18.0364,-5.60628
686,-244,18.0394,5.55981,-0.00800417,-0.000378778,0.00301231,0.000667605,-0.00905055,1.23647,0.0062681,0.0283843,1910,1268,18.0394,-5.55977
693,-244,17.9811,5.38452,-0.00568331,-0.000652171,0.00227058,0.000221007,-0.00655649,1.20367,0.00444649,0.0115117,1917,1268,17.981,-5.38448
700,-244,17.9816,5.17944,-0.0031732,-0.000912011,0.0015626,-0.000113888,-0.00397132,1.09857,0.00261041,0.00858793,1924,1268,17.9816,-5.17941
707,-244,18.0062,4.99927,-0.00108683,-0.00136548,0.000600842,-0.000609372,-0.00184294,0.671471,0.00108417,0.0096068,1931,1268,18.0062,-4.99922
714,-244,18.0337,4.82996,-0.000215647,-0.00084332,0.000377045,-3.89163e-05,-0.00102005,0.438317,0.00066744,0.0108188,1938,1268,18.0337,-4.82992
721,-244,18.012,4.67114,0.000448593,0.000100172,0.000612053,0.000910746,-0.000361981,0.646748,0.000757235,0.0139269,1945,1268,18.012,-4.67112
728,-244,17.9957,4.48499,0.00154233,0.000757677,0.000760012,0.00200531,0.000294704,0.547131,0.00125027,0.0172543,1952,1268,17.9957,-4.48493
735,-244,17.9977,4.31372,0.0020926,0.00134064,0.0013167,0.00308595,0.000347293,0.646324,0.00195186,0.0211153,1959,1268,17.9976,-4.31373
742,-244,18.0316,4.1665,0.00255115,0.00193387,0.00250439,0.00476585,-0.000280831,0.724087,0.00327486,0.0156402,1966,1268,18.0317,-4.16644
749,-244,18.0005,4.01526,0.00297703,0.00252007,0.00381402,0.0065694,-0.00107231,0.755481,0.00477732,0.0177615,1973,1268,18.0005,-4.01523
756,-244,17.9244,3.86072,0.00314723,0.00314891,0.0057742,0.00892227,-0.00262613,0.785471,0.00698998,0.0235957,1980,1268,17.9244,-3.86074
763,-244,17.957,3.55786,0.00288337,0.00390993,0.00860733,0.0120193,-0.00522597,0.815179,0.0102108,0.0382622,1987,1268,17.957,-3.55788
770,-244,18.1306,3.08496,0.00181444,0.00490269,0.0126215,0.0160742,-0.00935703,0.846266,0.0148524,0.0471379,1994,1268,18.1306,-3.08502
777,-244,18.1711,2.77673,0,0,0,0,0,0,0,-1,2001,1268,18.1712,-2.77675
784,-244,20.9817,3.09277,0,0,0,0,0,0,0,-1,2008,1268,20.9817,-3.09277
791,-244,0,0,0,0,0,0,0,0,0,-1,2015,1268,0,0
798,-244,0,0,0,0,0,0,0,0,0,-1,2022,1268,0,0
805,-244,0,0,0,0,0,0,0,0,0,-1,2029,1268,0,0
812,-244,0,0,0,0,0,0,0,0,0,-1,2036,1268,0,0
-700,-251,0,0,0,0,0,0,0,0,0,-1,524,1275,0,0
-693,-251,0,0,0,0,0,0,0,0,0,-1,531,1275,0,0
-686,-251,0,0,0,0,0,0,0,0,0,-1,538,1275,0,0
-679,-251,0,0,0,0,0,0,0,0,0,-1,545,1275,0,0
-672,-251,0,0,0,0,0,0,0,0,0,-1,552,1275,0,0
-665,-251,-10.0898,2.03882,0,0,0,0,0,0,0,-1,559,1275,-10.0898,-2.0388
-658,-251,-10.0618,1.90991,0,0,0,0,0,0,0,-1,566,1275,-10.0618,-1.90988
-651,-251,-8.97552,1.87061,0,0,0,0,0,0,0,-1,573,1275,-8.97551,-1.87057
-644,-251,-9.11182,1.79236,-0.0237384,0.0441493,-0.0202101,0.0497103,-0.0292994,-1.30228,0.0461209,0.048115,580,1275,-9.11183,-1.79235
-637,-251,-9.30878,1.64954,-0.0205005,0.0361638,-0.0161034,0.0404204,-0.0247572,-1.31237,0.0379908,0.0448373,587,1275,-9.30876,-1.64958
-630,-251,-9.66565,1.33167,0,0,0,0,0,0,0,-1,594,1275,-9.66566,-1.33163
-623,-251,-9.61877,1.50122,-0.0137653,0.022829,-0.00939551,0.0251003,-0.0160366,-1.3336,0.0239418,0.0403103,601,1275,-9.61877,-1.50122
-616,-251,-9.57538,1.67737,-0.010628,0.0173907,-0.00681993,0.0189625,-0.0121998,-1.34427,0.0181322,0.0206811,608,1275,-9.57538,-1.67741
-609,-251,-9.57483,1.87903,-0.00761427,0.012844,-0.00469623,0.0138705,-0.00864079,-1.3556,0.0131133,0.0187716,615,1275,-9.57484,-1.87903
-602,-251,-9.56757,2.0614,-0.0047838,0.0089988,-0.00300284,0.00962462,-0.00540962,-1.36533,0.008793,0.0140671,622,1275,-9.56758,-2.06143
-595,-251,-9.58813,2.25903,-0.00207229,0.00538801,-0.00150223,0.00567915,-0.00236342,-1.37937,0.00477311,0.0127358,629,1275,-9.58816,-2.25905
-588,-251,-9.58038,2.43726,0.000464252,0.00300074,-0.000558431,0.00311824,0.000346752,-1.36341,0.00197342,0.0143986,636,1275,-9.58037,-2.43729
-581,-251,-9.56213,2.67383,0.00192968,0.00190856,-0.000300156,0.00221946,0.00161878,-0.767812,0.00132558,0.0132687,643,1275,-9.56211,-2.67379
-574,-251,-9.56195,2.92554,0.00264219,0.00152876,-0.000501581,0.00283482,0.00133613,-0.366675,0.00163758,0.0124041,650,1275,-9.56193,-2.92559
-567,-251,-9.58252,3.10693,0.00225606,0.00216073,-0.00105607,0.00326553,0.00115125,-0.762847,0.00191249,0.0109638,657,1275,-9.5825,-3.10691
-560,-251,-9.55164,3.32642,0.00140103,0.00299752,-0.00186417,0.00422716,0.000171387,-0.987689,0.00276275,0.0150108,664,1275,-9.55166,-3.32644
-553,-251,-9.42438,3.40002,-0.000486429,0.00508778,-0.00247245,0.0060264,-0.00142504,-1.20797,0.00456733,0.0365108,671,1275,-9.42441,-3.39999
-546,-251,-8.98712,2.89282,0,0,0,0,0,0,0,-1,678,1275,-8.9871,-2.89277
-539,-251,-10.7916,0.366333,0,0,0,0,0,0,0,-1,685,1275,-10.7916,-0.366282
-532,-251,-10.7391,-0.00769043,0,0,0,0,0,0,0,-1,692,1275,-10.7391,0.00773227
-525,-251,-13.0049,0.421997,0,0,0,0,0,0,0,-1,699,1275,-13.0049,-0.42194
-518,-251,-13.0524,0.249146,-0.0197734,0.0208746,-0.000309031,0.0208769,-0.0197757,-1.56319,0.0234737,0.0455106,706,1275,-13.0524,-0.249186
-511,-251,-13.175,0.497437,-0.0257974,0.0260844,0.00218767,0.0261765,-0.0258895,1.52873,0.0300605,0.0442147,713,1275,-13.1751,-0.497413
-504,-251,-13.1411,0.272705,-0.0316404,0.0327852,0.0066275,0.0334599,-0.0323151,1.46934,0.0379771,0.0458399,720,1275,-13.1411,-0.272682
-497,-251,-13.5936,0.799438,-0.0365733,0.040054,0.0125343,0.0420522,-0.0385715,1.41271,0.0465626,0.0471211,727,1275,-13.5936,-0.799471
-490,-251,0,0,0,0,0,0,0,0,0,-1,734,1275,0,0
-483,-251,0,0,0,0,0,0,0,0,0,-1,741,1275,0,0
-476,-251,0,0,0,0,0,0,0,0,0,-1,748,1275,0,0
-469,-251,0,0,0,0,0,0,0,0,0,-1,755,1275,0,0
-462,-251,0,0,0,0,0,0,0,0,0,-1,762,1275,0,0
-455,-251,0,0,0,0,0,0,0,0,0,-1,769,1275,0,0
-448,-251,0,0,0,0,0,0,0,0,0,-1,776,1275,0,0
-441,-251,0,0,0,0,0,0,0,0,0,-1,783,1275,0,0
-434,-251,0,0,0,0,0,0,0,0,0,-1,790,1275,0,0
-427,-251,0,0,0,0,0,0,0,0,0,-1,797,1275,0,0
-420,-251,0,0,0,0,0,0,0,0,0,-1,804,1275,0,0
-413,-251,0,0,0,0,0,0,0,0,0,-1,811,1275,0,0
-406,-251,0,0,0,0,0,0,0,0,0,-1,818,1275,0,0
-399,-251,0,0,0,0,0,0,0,0,0,-1,825,1275,0,0
-392,-251,0,0,0,0,0,0,0,0,0,-1,832,1275,0,0
-385,-251,0,0,0,0,0,0,0,0,0,-1,839,1275,0,0
-378,-251,0,0,0,0,0,0,0,0,0,-1,846,1275,0,0
-371,-251,0,0,0,0,0,0,0,0,0,-1,853,1275,0,0
-364,-251,0,0,0,0,0,0,0,0,0,-1,860,1275,0,0
-357,-251,0,0,0,0,0,0,0,0,0,-1,867,1275,0,0
-350,-251,0,0,0,0,0,0,0,0,0,-1,874,1275,0,0
-343,-251,0,0,0,0,0,0,0,0,0,-1,881,1275,0,0
-336,-251,0,0,0,0,0,0,0,0,0,-1,888,1275,0,0
-329,-251,0,0,0,0,0,0,0,0,0,-1,895,1275,0,0
-322,-251,0,0,0,0,0,0,0,0,0,-1,902,1275,0,0
-315,-251,0,0,0,0,0,0,0,0,0,-1,909,1275,0,0
-308,-251,0,0,0,0,0,0,0,0,0,-1,916,1275,0,0
-301,-251,0,0,0,0,0,0,0,0,0,-1,923,1275,0,0
-294,-251,0,0,0,0,0,0,0,0,0,-1,930,1275,0,0
-287,-251,0,0,0,0,0,0,0,0,0,-1,937,1275,0,0
-280,-251,0,0,0,0,0,0,0,0,0,-1,944,1275,0,0
-273,-251,0,0,0,0,0,0,0,0,0,-1,951,1275,0,0
-266,-251,0,0,0,0,0,0,0,0,0,-1,958,1275,0,0
-259,-251,0,0,0,0,0,0,0,0,0,-1,965,1275,0,0
-252,-251,0,0,0,0,0,0,0,0,0,-1,972,1275,0,0
-245,-251,0,0,0,0,0,0,0,0,0,-1,979,1275,0,0
-238,-251,0,0,0,0,0,0,0,0,0,-1,986,1275,0,0
-231,-251,0,0,0,0,0,0,0,0,0,-1,993,1275,0,0
-224,-251,0,0,0,0,0,0,0,0,0,-1,1000,1275,0,0
-217,-251,0,0,0,0,0,0,0,0,0,-1,1007,1275,0,0
-210,-251,0,0,0,0,0,0,0,0,0,-1,1014,1275,0,0
-203,-251,0,0,0,0,0,0,0,0,0,-1,1021,1275,0,0
-196,-251,0,0,0,0,0,0,0,0,0,-1,1028,1275,0,0
-189,-251,0,0,0,0,0,0,0,0,0,-1,1035,1275,0,0
-182,-251,0,0,0,0,0,0,0,0,0,-1,1042,1275,0,0
-175,-251,0,0,0,0,0,0,0,0,0,-1,1049,1275,0,0
-168,-251,0,0,0,0,0,0,0,0,0,-1,1056,1275,0,0
-161,-251,0,0,0,0,0,0,0,0,0,-1,1063,1275,0,0
-154,-251,0,0,0,0,0,0,0,0,0,-1,1070,1275,0,0
-147,-251,0,0,0,0,0,0,0,0,0,-1,1077,1275,0,0
-140,-251,0,0,0,0,0,0,0,0,0,-1,1084,1275,0,0
-133,-251,0,0,0,0,0,0,0,0,0,-1,1091,1275,0,0
-126,-251,0,0,0,0,0,0,0,0,0,-1,1098,1275,0,0
-119,-251,0,0,0,0,0,0,0,0,0,-1,1105,1275,0,0
-112,-251,0,0,0,0,0,0,0,0,0,-1,1112,1275,0,0
-105,-251,0,0,0,0,0,0,0,0,0,-1,1119,1275,0,0
-98,-251,0,0,0,0,0,0,0,0,0,-1,1126,1275,0,0
-91,-251,0,0,0,0,0,0,0,0,0,-1,1133,1275,0,0
-84,-251,0,0,0,0,0,0,0,0,0,-1,1140,1275,0,0
-77,-251,0,0,0,0,0,0,0,0,0,-1,1147,1275,0,0
-70,-251,0,0,0,0,0,0,0,0,0,-1,1154,1275,0,0
-63,-251,0,0,0,0,0,0,0,0,0,-1,1161,1275,0,0
-56,-251,0,0,0,0,0,0,0,0,0,-1,1168,1275,0,0
-49,-251,0,0,0,0,0,0,0,0,0,-1,1175,1275,0,0
-42,-251,0,0,0,0,0,0,0,0,0,-1,1182,1275,0,0
-35,-251,0,0,0,0,0,0,0,0,0,-1,1189,1275,0,0
-28,-251,0,0,0,0,0,0,0,0,0,-1,1196,1275,0,0
-21,-251,0,0,0,0,0,0,0,0,0,-1,1203,1275,0,0
-14,-251,0,0,0,0,0,0,0,0,0,-1,1210,1275,0,0
-7,-251,0,0,0,0,0,0,0,0,0,-1,1217,1275,0,0
0,-251,0,0,0,0,0,0,0,0,0,-1,1224,1275,0,0
7,-251,0,0,0,0,0,0,0,0,0,-1,1231,1275,0,0
14,-251,0,0,0,0,0,0,0,0,0,-1,1238,1275,0,0
21,-251,0,0,0,0,0,0,0,0,0,-1,1245,1275,0,0
28,-251,0,0,0,0,0,0,0,0,0,-1,1252,1275,0,0
35,-251,0,0,0,0,0,0,0,0,0,-1,1259,1275,0,0
42,-251,0,0,0,0,0,0,0,0,0,-1,1266,1275,0,0
49,-251,0,0,0,0,0,0,0,0,0,-1,1273,1275,0,0
56,-251,0,0,0,0,0,0,0,0,0,-1,1280,1275,0,0
63,-251,0,0,0,0,0,0,0,0,0,-1,1287,1275,0,0
70,-251,0,0,0,0,0,0,0,0,0,-1,1294,1275,0,0
77,-251,0,0,0,0,0,0,0,0,0,-1,1301,1275,0,0
84,-251,0,0,0,0,0,0,0,0,0,-1,1308,1275,0,0
91,-251,0,0,0,0,0,0,0,0,0,-1,1315,1275,0,0
98,-251,0,0,0,0,0,0,0,0,0,-1,1322,1275,0,0
105,-251,0,0,0,0,0,0,0,0,0,-1,1329,1275,0,0
112,-251,0,0,0,0,0,0,0,0,0,-1,1336,1275,0,0
119,-251,0,0,0,0,0,0,0,0,0,-1,1343,1275,0,0
126,-251,0,0,0,0,0,0,0,0,0,-1,1350,1275,0,0
133,-251,0,0,0,0,0,0,0,0,0,-1,1357,1275,0,0
140,-251,0,0,0,0,0,0,0,0,0,-1,1364,1275,0,0
147,-251,0,0,0,0,0,0,0,0,0,-1,1371,1275,0,0
154,-251,0,0,0,0,0,0,0,0,0,-1,1378,1275,0,0
161,-251,0,0,0,0,0,0,0,0,0,-1,1385,1275,0,0
168,-251,0,0,0,0,0,0,0,0,0,-1,1392,1275,0,0
175,-251,0,0,0,0,0,0,0,0,0,-1,1399,1275,0,0
182,-251,0,0,0,0,0,0,0,0,0,-1,1406,1275,0,0
189,-251,0,0,0,0,0,0,0,0,0,-1,1413,1275,0,0
196,-251,0,0,0,0,0,0,0,0,0,-1,1420,1275,0,0
203,-251,0,0,0,0,0,0,0,0,0,-1,1427,1275,0,0
210,-251,0,0,0,0,0,0,0,0,0,-1,1434,1275,0,0
217,-251,0,0,0,0,0,0,0,0,0,-1,1441,1275,0,0
224,-251,0,0,0,0,0,0,0,0,0,-1,1448,1275,0,0
231,-251,0,0,0,0,0,0,0,0,0,-1,1455,1275,0,0
238,-251,0,0,0,0,0,0,0,0,0,-1,1462,1275,0,0
245,-251,0,0,0,0,0,0,0,0,0,-1,1469,1275,0,0
252,-251,0,0,0,0,0,0,0,0,0,-1,1476,1275,0,0
259,-251,0,0,0,0,0,0,0,0,0,-1,1483,1275,0,0
266,-251,0,0,0,0,0,0,0,0,0,-1,1490,1275,0,0
273,-251,0,0,0,0,0,0,0,0,0,-1,1497,1275,0,0
280,-251,0,0,0,0,0,0,0,0,0,-1,1504,1275,0,0
287,-251,0,0,0,0,0,0,0,0,0,-1,1511,1275,0,0
294,-251,0,0,0,0,0,0,0,0,0,-1,1518,1275,0,0
301,-251,0,0,0,0,0,0,0,0,0,-1,1525,1275,0,0
308,-251,0,0,0,0,0,0,0,0,0,-1,1532,1275,0,0
315,-251,0,0,0,0,0,0,0,0,0,-1,1539,1275,0,0
322,-251,0,0,0,0,0,0,0,0,0,-1,1546,1275,0,0
329,-251,0,0,0,0,0,0,0,0,0,-1,1553,1275,0,0
336,-251,0,0,0,0,0,0,0,0,0,-1,1560,1275,0,0
343,-251,0,0,0,0,0,0,0,0,0,-1,1567,1275,0,0
350,-251,0,0,0,0,0,0,0,0,0,-1,1574,1275,0,0
357,-251,0,0,0,0,0,0,0,0,0,-1,1581,1275,0,0
364,-251,0,0,0,0,0,0,0,0,0,-1,1588,1275,0,0
371,-251,0,0,0,0,0,0,0,0,0,-1,1595,1275,0,0
378,-251,0,0,0,0,0,0,0,0,0,-1,1602,1275,0,0
385,-251,0,0,0,0,0,0,0,0,0,-1,1609,1275,0,0
392,-251,0,0,0,0,0,0,0,0,0,-1,1616,1275,0,0
399,-251,0,0,0,0,0,0,0,0,0,-1,1623,1275,0,0
406,-251,0,0,0,0,0,0,0,0,0,-1,1630,1275,0,0
413,-251,0,0,0,0,0,0,0,0,0,-1,1637,1275,0,0
420,-251,0,0,0,0,0,0,0,0,0,-1,1644,1275,0,0
427,-251,0,0,0,0,0,0,0,0,0,-1,1651,1275,0,0
434,-251,0,0,0,0,0,0,0,0,0,-1,1658,1275,0,0
441,-251,0,0,0,0,0,0,0,0,0,-1,1665,1275,0,0
448,-251,0,0,0,0,0,0,0,0,0,-1,1672,1275,0,0
455,-251,0,0,0,0,0,0,0,0,0,-1,1679,1275,0,0
462,-251,0,0,0,0,0,0,0,0,0,-1,1686,1275,0,0
469,-251,0,0,0,0,0,0,0,0,0,-1,1693,1275,0,0
476,-251,0,0,0,0,0,0,0,0,0,-1,1700,1275,0,0
483,-251,0,0,0,0,0,0,0,0,0,-1,1707,1275,0,0
490,-251,0,0,0,0,0,0,0,0,0,-1,1714,1275,0,0
497,-251,0,0,0,0,0,0,0,0,0,-1,1721,1275,0,0
504,-251,0,0,0,0,0,0,0,0,0,-1,1728,1275,0,0
511,-251,0,0,0,0,0,0,0,0,0,-1,1735,1275,0,0
518,-251,0,0,0,0,0,0,0,0,0,-1,1742,1275,0,0
525,-251,0,0,0,0,0,0,0,0,0,-1,1749,1275,0,0
532,-251,0,0,0,0,0,0,0,0,0,-1,1756,1275,0,0
539,-251,0,0,0,0,0,0,0,0,0,-1,1763,1275,0,0
546,-251,0,0,0,0,0,0,0,0,0,-1,1770,1275,0,0
553,-251,0,0,0,0,0,0,0,0,0,-1,1777,1275,0,0
560,-251,0,0,0,0,0,0,0,0,0,-1,1784,1275,0,0
567,-251,0,0,0,0,0,0,0,0,0,-1,1791,1275,0,0
574,-251,0,0,0,0,0,0,0,0,0,-1,1798,1275,0,0
581,-251,0,0,0,0,0,0,0,0,0,-1,1805,1275,0,0
588,-251,0,0,0,0,0,0,0,0,0,-1,1812,1275,0,0
595,-251,0,0,0,0,0,0,0,0,0,-1,1819,1275,0,0
602,-251,0,0,0,0,0,0,0,0,0,-1,1826,1275,0,0
609,-251,21.5477,2.74622,0.0138437,0.0021492,-0.00714779,0.0172313,-0.00123833,-0.442573,0.0119217,0.0324259,1833,1275,21.5477,-2.74617
616,-251,21.5623,2.76599,0.00174679,0.00133594,-0.00396434,0.00551102,-0.00242829,-0.759512,0.00469753,0.0274407,1840,1275,21.5622,-2.76594
623,-251,21.5848,2.83777,-0.00858413,0.000956783,-0.00102548,0.00106576,-0.0086931,-1.46492,0.00618136,0.0240884,1847,1275,21.5849,-2.83782
630,-251,21.714,2.93433,-0.0159577,0.000922152,0.00164822,0.00108159,-0.0161172,1.47437,0.0111229,0.0371355,1854,1275,21.714,-2.93435
637,-251,21.548,2.75745,0,0,0,0,0,0,0,-1,1861,1275,21.5479,-2.7574
644,-251,20.9829,2.67371,-0.0199679,0.000958687,0.00428518,0.00180217,-0.0208114,1.37644,0.0145123,0.0431264,1868,1275,20.9829,-2.67374
651,-251,20.6677,2.83008,-0.0189292,0.000833908,0.00461155,0.00185701,-0.0199523,1.35248,0.0139618,0.0472172,1875,1275,20.6677,-2.83014
658,-251,19.7859,2.44812,0,0,0,0,0,0,0,-1,1882,1275,19.7859,-2.44808
665,-251,20.2781,3.79688,0,0,0,0,0,0,0,-1,1889,1275,20.2781,-3.79692
672,-251,18.051,5.72412,0,0,0,0,0,0,0,-1,1896,1275,18.0511,-5.72413
679,-251,17.832,5.68323,-0.0122488,0.000252808,0.00403693,0.00144306,-0.0134391,1.28408,0.00947709,0.0486162,1903,1275,17.8321,-5.68326
686,-251,17.7961,5.56787,-0.00967416,0.000190168,0.00341119,0.00125488,-0.0107389,1.26826,0.00761209,0.0251491,1910,1275,17.7961,-5.56782
693,-251,17.834,5.38123,-0.00673861,-0.000129536,0.00255226,0.000741331,-0.00760948,1.24197,0.00533729,0.00970688,1917,1275,17.834,-5.38123
700,-251,17.8353,5.18872,-0.00373076,-0.000418374,0.0017431,0.000329883,-0.00447902,1.16532,0.00310183,0.00875717,1924,1275,17.8353,-5.18873
707,-251,17.8511,5.00427,-0.00126199,-0.000926189,0.000667358,-0.000405935,-0.00178225,0.908636,0.00107862,0.0106296,1931,1275,17.8511,-5.00422
714,-251,17.863,4.83057,-0.000163048,-0.000324319,0.000424889,0.00018879,-0.000676156,0.691624,0.000525137,0.0111696,1938,1275,17.863,-4.83059
721,-251,17.8315,4.65137,0.000656338,0.000788293,0.000678064,0.00140358,4.10488e-05,0.833897,0.000922343,0.0131252,1945,1275,17.8315,-4.65142
728,-251,17.8097,4.47229,0.00174663,0.00179442,0.000927077,0.00269791,0.000843143,0.798283,0.00159372,0.014075,1952,1275,17.8097,-4.47232
735,-251,17.8358,4.3075,0.00235661,0.00273518,0.00157618,0.0041334,0.000958387,0.845156,0.00249819,0.0137423,1959,1275,17.8358,-4.30752
742,-251,17.8723,4.15698,0.00286839,0.00385855,0.00288528,0.00629092,0.000436031,0.870365,0.00405642,0.0156206,1966,1275,17.8723,-4.15695
749,-251,17.8361,4.01416,0.00336796,0.00512677,0.00445381,0.00878717,-0.000292438,0.88287,0.00595799,0.0235251,1973,1275,17.8361,-4.0141
756,-251,17.7817,4.26746,0.00370168,0.00666002,0.00673041,0.0120719,-0.00171018,0.893566,0.00867436,0.038241,1980,1275,17.7818,-4.26751
763,-251,17.6829,4.42761,0.0036376,0.00855335,0.00998728,0.0163808,-0.00418981,0.906051,0.0125524,0.0454643,1987,1275,17.6829,-4.42756
770,-251,17.656,4.39709,0.00276891,0.0109275,0.0145833,0.0219913,-0.00829492,0.921774,0.0180719,0.049047,1994,1275,17.656,-4.39714
777,-251,17.4781,4.51782,0,0,0,0,0,0,0,-1,2001,1275,17.4782,-4.51783
784,-251,21.0864,3.24976,0,0,0,0,0,0,0,-1,2008,1275,21.0864,-3.2497
791,-251,0,0,0,0,0,0,0,0,0,-1,2015,1275,0,0
798,-251,0,0,0,0,0,0,0,0,0,-1,2022,1275,0,0
805,-251,0,0,0,0,0,0,0,0,0,-1,2029,1275,0,0
812,-251,0,0,0,0,0,0,0,0,0,-1,2036,1275,0,0
-700,-258,0,0,0,0,0,0,0,0,0,-1,524,1282,0,0
-693,-258,0,0,0,0,0,0,0,0,0,-1,531,1282,0,0
-686,-258,0,0,0,0,0,0,0,0,0,-1,538,1282,0,0
-679,-258,0,0,0,0,0,0,0,0,0,-1,545,1282,0,0
-672,-258,0,0,0,0,0,0,0,0,0,-1,552,1282,0,0
-665,-258,-5.81927,3.58179,0,0,0,0,0,0,0,-1,559,1282,-5.81929,-3.58175
-658,-258,-8.46124,1.85352,0,0,0,0,0,0,0,-1,566,1282,-8.46123,-1.85349
-651,-258,-8.60297,1.81067,-0.0310882,0.0650669,-0.0230594,0.070311,-0.0363322,-1.34719,0.0626035,0.0491483,573,1282,-8.60297,-1.81068
-644,-258,-8.87958,1.61499,-0.0276638,0.0558323,-0.0184745,0.0597374,-0.0315688,-1.36249,0.0535454,0.0484736,580,1282,-8.87958,-1.61497
-637,-258,-9.13763,1.45569,-0.0237748,0.046806,-0.0144632,0.0496548,-0.0266236,-1.37632,0.0447035,0.046548,587,1282,-9.13766,-1.45571
-630,-258,-9.64856,1.3009,-0.0197551,0.038317,-0.0110527,0.0403495,-0.0217875,-1.38894,0.0364045,0.049125,594,1282,-9.64854,-1.30092
-623,-258,-9.30225,1.40015,0,0,0,0,0,0,0,-1,601,1282,-9.30222,-1.40018
-616,-258,-9.35809,1.62573,-0.0123625,0.0235976,-0.00582641,0.024518,-0.0132829,-1.41411,0.0221434,0.0314966,608,1282,-9.35808,-1.62567
-609,-258,-9.35876,1.84644,-0.00901443,0.0176388,-0.00389772,0.0181971,-0.00957273,-1.42853,0.0162886,0.0160339,615,1282,-9.35878,-1.8464
-602,-258,-9.34161,2.06396,-0.00592227,0.012556,-0.00239421,0.0128611,-0.00622744,-1.44402,0.0112404,0.0125768,622,1282,-9.34159,-2.06397
-595,-258,-9.36218,2.25916,-0.00301323,0.00781816,-0.00103832,0.0079168,-0.00311187,-1.47608,0.00656575,0.0104147,629,1282,-9.36217,-2.25917
-588,-258,-9.3667,2.45862,-0.000333037,0.00439646,-0.000167763,0.0044024,-0.00033898,-1.53538,0.0030542,0.0113397,636,1282,-9.36668,-2.45862
-581,-258,-9.36188,2.67822,0.00137408,0.0024076,9.99441e-05,0.00241718,0.0013645,1.47527,0.00139943,0.0136295,643,1282,-9.36187,-2.6782
-574,-258,-9.34534,2.90784,0.0024163,0.00137175,-5.90015e-05,0.00241962,0.00136843,-0.0562468,0.00140096,0.0147609,650,1282,-9.34535,-2.90785
-567,-258,-9.35535,3.11633,0.00228918,0.00168592,-0.000620551,0.00267753,0.00129758,-0.559179,0.00154611,0.0145271,657,1282,-9.35532,-3.11635
-560,-258,-9.35419,3.30774,0.00156372,0.00234097,-0.00144123,0.00344505,0.000459641,-0.91709,0.00215985,0.0217689,664,1282,-9.35418,-3.3078
-553,-258,-9.30316,3.4967,-0.000413835,0.00424991,-0.00203181,0.00501091,-0.00117484,-1.21243,0.00379336,0.0318967,671,1282,-9.30315,-3.49676
-546,-258,-9.04083,3.4115,0,0,0,0,0,0,0,-1,678,1282,-9.04086,-3.41154
-539,-258,-8.68835,3.32092,0,0,0,0,0,0,0,-1,685,1282,-8.68836,-3.32086
-532,-258,-10.2173,-0.353882,0,0,0,0,0,0,0,-1,692,1282,-10.2173,0.353836
-525,-258,-12.6155,-0.417725,0,0,0,0,0,0,0,-1,699,1282,-12.6154,0.417683
-518,-258,-12.9835,0.134033,0,0,0,0,0,0,0,-1,706,1282,-12.9835,-0.13407
-511,-258,-13.3516,0.685791,0,0,0,0,0,0,0,-1,713,1282,-13.3516,-0.685824
-504,-258,-12.4021,-0.409668,-0.0289394,0.0176408,0.00400796,0.0179832,-0.0292818,1.48559,0.0275471,0.0449443,720,1282,-12.4021,0.409638
-497,-258,-13.1992,0.325806,-0.0319495,0.0193917,0.00730324,0.0204104,-0.0329681,1.43221,0.0311011,0.047829,727,1282,-13.1991,-0.325846
-490,-258,-13.8257,1.05151,0,0,0,0,0,0,0,-1,734,1282,-13.8257,-1.05146
-483,-258,0,0,0,0,0,0,0,0,0,-1,741,1282,0,0
-476,-258,0,0,0,0,0,0,0,0,0,-1,748,1282,0,0
-469,-258,0,0,0,0,0,0,0,0,0,-1,755,1282,0,0
-462,-258,0,0,0,0,0,0,0,0,0,-1,762,1282,0,0
-455,-258,0,0,0,0,0,0,0,0,0,-1,769,1282,0,0
-448,-258,0,0,0,0,0,0,0,0,0,-1,776,1282,0,0
-441,-258,0,0,0,0,0,0,0,0,0,-1,783,1282,0,0
-434,-258,0,0,0,0,0,0,0,0,0,-1,790,1282,0,0
-427,-258,0,0,0,0,0,0,0,0,0,-1,797,1282,0,0
-420,-258,0,0,0,0,0,0,0,0,0,-1,804,1282,0,0
-413,-258,0,0,0,0,0,0,0,0,0,-1,811,1282,0,0
-406,-258,0,0,0,0,0,0,0,0,0,-1,818,1282,0,0
-399,-258,0,0,0,0,0,0,0,0,0,-1,825,1282,0,0
-392,-258,0,0,0,0,0,0,0,0,0,-1,832,1282,0,0
-385,-258,0,0,0,0,0,0,0,0,0,-1,839,1282,0,0
-378,-258,0,0,0,0,0,0,0,0,0,-1,846,1282,0,0
-371,-258,0,0,0,0,0,0,0,0,0,-1,853,1282,0,0
-364,-258,0,0,0,0,0,0,0,0,0,-1,860,1282,0,0
-357,-258,0,0,0,0,0,0,0,0,0,-1,867,1282,0,0
-350,-258,0,0,0,0,0,0,0,0,0,-1,874,1282,0,0
-343,-258,0,0,0,0,0,0,0,0,0,-1,881,1282,0,0
-336,-258,0,0,0,0,0,0,0,0,0,-1,888,1282,0,0
-329,-258,0,0,0,0,0,0,0,0,0,-1,895,1282,0,0
-322,-258,0,0,0,0,0,0,0,0,0,-1,902,1282,0,0
-315,-258,0,0,0,0,0,0,0,0,0,-1,909,1282,0,0
-308,-258,0,0,0,0,0,0,0,0,0,-1,916,1282,0,0
-301,-258,0,0,0,0,0,0,0,0,0,-1,923,1282,0,0
-294,-258,0,0,0,0,0,0,0,0,0,-1,930,1282,0,0
-287,-258,0,0,0,0,0,0,0,0,0,-1,937,1282,0,0
-280,-258,0,0,0,0,0,0,0,0,0,-1,944,1282,0,0
-273,-258,0,0,0,0,0,0,0,0,0,-1,951,1282,0,0
-266,-258,0,0,0,0,0,0,0,0,0,-1,958,1282,0,0
-259,-258,0,0,0,0,0,0,0,0,0,-1,965,1282,0,0
-252,-258,0,0,0,0,0,0,0,0,0,-1,972,1282,0,0
-245,-258,0,0,0,0,0,0,0,0,0,-1,979,1282,0,0
-238,-258,0,0,0,0,0,0,0,0,0,-1,986,1282,0,0
-231,-258,0,0,0,0,0,0,0,0,0,-1,993,1282,0,0
-224,-258,0,0,0,0,0,0,0,0,0,-1,1000,1282,0,0
-217,-258,0,0,0,0,0,0,0,0,0,-1,1007,1282,0,0
-210,-258,0,0,0,0,0,0,0,0,0,-1,1014,1282,0,0
-203,-258,0,0,0,0,0,0,0,0,0,-1,1021,1282,0,0
-196,-258,0,0,0,0,0,0,0,0,0,-1,1028,1282,0,0
-189,-258,0,0,0,0,0,0,0,0,0,-1,1035,1282,0,0
-182,-258,0,0,0,0,0,0,0,0,0,-1,1042,1282,0,0
-175,-258,0,0,0,0,0,0,0,0,0,-1,1049,1282,0,0
-168,-258,0,0,0,0,0,0,0,0,0,-1,1056,1282,0,0
-161,-258,0,0,0,0,0,0,0,0,0,-1,1063,1282,0,0
-154,-258,0,0,0,0,0,0,0,0,0,-1,1070,1282,0,0
-147,-258,0,0,0,0,0,0,0,0,0,-1,1077,1282,0,0
-140,-258,0,0,0,0,0,0,0,0,0,-1,1084,1282,0,0
-133,-258,0,0,0,0,0,0,0,0,0,-1,1091,1282,0,0
-126,-258,0,0,0,0,0,0,0,0,0,-1,1098,1282,0,0
-119,-258,0,0,0,0,0,0,0,0,0,-1,1105,1282,0,0
-112,-258,0,0,0,0,0,0,0,0,0,-1,1112,1282,0,0
-105,-258,0,0,0,0,0,0,0,0,0,-1,1119,1282,0,0
-98,-258,0,0,0,0,0,0,0,0,0,-1,1126,1282,0,0
-91,-258,0,0,0,0,0,0,0,0,0,-1,1133,1282,0,0
-84,-258,0,0,0,0,0,0,0,0,0,-1,1140,1282,0,0
-77,-258,0,0,0,0,0,0,0,0,0,-1,1147,1282,0,0
-70,-258,0,0,0,0,0,0,0,0,0,-1,1154,1282,0,0
-63,-258,0,0,0,0,0,0,0,0,0,-1,1161,1282,0,0
-56,-258,0,0,0,0,0,0,0,0,0,-1,1168,1282,0,0
-49,-258,0,0,0,0,0,0,0,0,0,-1,1175,1282,0,0
-42,-258,0,0,0,0,0,0,0,0,0,-1,1182,1282,0,0
-35,-258,0,0,0,0,0,0,0,0,0,-1,1189,1282,0,0
-28,-258,0,0,0,0,0,0,0,0,0,-1,1196,1282,0,0
-21,-258,0,0,0,0,0,0,0,0,0,-1,1203,1282,0,0
-14,-258,0,0,0,0,0,0,0,0,0,-1,1210,1282,0,0
-7,-258,0,0,0,0,0,0,0,0,0,-1,1217,1282,0,0
0,-258,0,0,0,0,0,0,0,0,0,-1,1224,1282,0,0
7,-258,0,0,0,0,0,0,0,0,0,-1,1231,1282,0,0
14,-258,0,0,0,0,0,0,0,0,0,-1,1238,1282,0,0
21,-258,0,0,0,0,0,0,0,0,0,-1,1245,1282,0,0
28,-258,0,0,0,0,0,0,0,0,0,-1,1252,1282,0,0
35,-258,0,0,0,0,0,0,0,0,0,-1,1259,1282,0,0
42,-258,0,0,0,0,0,0,0,0,0,-1,1266,1282,0,0
49,-258,0,0,0,0,0,0,0,0,0,-1,1273,1282,0,0
56,-258,0,0,0,0,0,0,0,0,0,-1,1280,1282,0,0
63,-258,0,0,0,0,0,0,0,0,0,-1,1287,1282,0,0
70,-258,0,0,0,0,0,0,0,0,0,-1,1294,1282,0,0
77,-258,0,0,0,0,0,0,0,0,0,-1,1301,1282,0,0
84,-258,0,0,0,0,0,0,0,0,0,-1,1308,1282,0,0
91,-258,0,0,0,0,0,0,0,0,0,-1,1315,1282,0,0
98,-258,0,0,0,0,0,0,0,0,0,-1,1322,1282,0,0
105,-258,0,0,0,0,0,0,0,0,0,-1,1329,1282,0,0
112,-258,0,0,0,0,0,0,0,0,0,-1,1336,1282,0,0
119,-258,0,0,0,0,0,0,0,0,0,-1,1343,1282,0,0
126,-258,0,0,0,0,0,0,0,0,0,-1,1350,1282,0,0
133,-258,0,0,0,0,0,0,0,0,0,-1,1357,1282,0,0
140,-258,0,0,0,0,0,0,0,0,0,-1,1364,1282,0,0
147,-258,0,0,0,0,0,0,0,0,0,-1,1371,1282,0,0
154,-258,0,0,0,0,0,0,0,0,0,-1,1378,1282,0,0
161,-258,0,0,0,0,0,0,0,0,0,-1,1385,1282,0,0
168,-258,0,0,0,0,0,0,0,0,0,-1,1392,1282,0,0
175,-258,0,0,0,0,0,0,0,0,0,-1,1399,1282,0,0
182,-258,0,0,0,0,0,0,0,0,0,-1,1406,1282,0,0
189,-258,0,0,0,0,0,0,0,0,0,-1,1413,1282,0,0
196,-258,0,0,0,0,0,0,0,0,0,-1,1420,1282,0,0
203,-258,0,0,0,0,0,0,0,0,0,-1,1427,1282,0,0
210,-258,0,0,0,0,0,0,0,0,0,-1,1434,1282,0,0
217,-258,0,0,0,0,0,0,0,0,0,-1,1441,1282,0,0
224,-258,0,0,0,0,0,0,0,0,0,-1,1448,1282,0,0
231,-258,0,0,0,0,0,0,0,0,0,-1,1455,1282,0,0
238,-258,0,0,0,0,0,0,0,0,0,-1,1462,1282,0,0
245,-258,0,0,0,0,0,0,0,0,0,-1,1469,1282,0,0
252,-258,0,0,0,0,0,0,0,0,0,-1,1476,1282,0,0
259,-258,0,0,0,0,0,0,0,0,0,-1,1483,1282,0,0
266,-258,0,0,0,0,0,0,0,0,0,-1,1490,1282,0,0
273,-258,0,0,0,0,0,0,0,0,0,-1,1497,1282,0,0
280,-258,0,0,0,0,0,0,0,0,0,-1,1504,1282,0,0
287,-258,0,0,0,0,0,0,0,0,0,-1,1511,1282,0,0
294,-258,0,0,0,0,0,0,0,0,0,-1,1518,1282,0,0
301,-258,0,0,0,0,0,0,0,0,0,-1,1525,1282,0,0
308,-258,0,0,0,0,0,0,0,0,0,-1,1532,1282,0,0
315,-258,0,0,0,0,0,0,0,0,0,-1,1539,1282,0,0
322,-258,0,0,0,0,0,0,0,0,0,-1,1546,1282,0,0
329,-258,0,0,0,0,0,0,0,0,0,-1,1553,1282,0,0
336,-258,0,0,0,0,0,0,0,0,0,-1,1560,1282,0,0
343,-258,0,0,0,0,0,0,0,0,0,-1,1567,1282,0,0
350,-258,0,0,0,0,0,0,0,0,0,-1,1574,1282,0,0
357,-258,0,0,0,0,0,0,0,0,0,-1,1581,1282,0,0
364,-258,0,0,0,0,0,0,0,0,0,-1,1588,1282,0,0
371,-258,0,0,0,0,0,0,0,0,0,-1,1595,1282,0,0
378,-258,0,0,0,0,0,0,0,0,0,-1,1602,1282,0,0
385,-258,0,0,0,0,0,0,0,0,0,-1,1609,1282,0,0
392,-258,0,0,0,0,0,0,0,0,0,-1,1616,1282,0,0
399,-258,0,0,0,0,0,0,0,0,0,-1,1623,1282,0,0
406,-258,0,0,0,0,0,0,0,0,0,-1,1630,1282,0,0
413,-258,0,0,0,0,0,0,0,0,0,-1,1637,1282,0,0
420,-258,0,0,0,0,0,0,0,0,0,-1,1644,1282,0,0
427,-258,0,0,0,0,0,0,0,0,0,-1,1651,1282,0,0
434,-258,0,0,0,0,0,0,0,0,0,-1,1658,1282,0,0
441,-258,0,0,0,0,0,0,0,0,0,-1,1665,1282,0,0
448,-258,0,0,0,0,0,0,0,0,0,-1,1672,1282,0,0
455,-258,0,0,0,0,0,0,0,0,0,-1,1679,1282,0,0
462,-258,0,0,0,0,0,0,0,0,0,-1,1686,1282,0,0
469,-258,0,0,0,0,0,0,0,0,0,-1,1693,1282,0,0
476,-258,0,0,0,0,0,0,0,0,0,-1,1700,1282,0,0
483,-258,0,0,0,0,0,0,0,0,0,-1,1707,1282,0,0
490,-258,0,0,0,0,0,0,0,0,0,-1,1714,1282,0,0
497,-258,0,0,0,0,0,0,0,0,0,-1,1721,1282,0,0
504,-258,0,0,0,0,0,0,0,0,0,-1,1728,1282,0,0
511,-258,0,0,0,0,0,0,0,0,0,-1,1735,1282,0,0
518,-258,0,0,0,0,0,0,0,0,0,-1,1742,1282,0,0
525,-258,0,0,0,0,0,0,0,0,0,-1,1749,1282,0,0
532,-258,0,0,0,0,0,0,0,0,0,-1,1756,1282,0,0
539,-258,0,0,0,0,0,0,0,0,0,-1,1763,1282,0,0
546,-258,0,0,0,0,0,0,0,0,0,-1,1770,1282,0,0
553,-258,0,0,0,0,0,0,0,0,0,-1,1777,1282,0,0
560,-258,0,0,0,0,0,0,0,0,0,-1,1784,1282,0,0
567,-258,0,0,0,0,0,0,0,0,0,-1,1791,1282,0,0
574,-258,0,0,0,0,0,0,0,0,0,-1,1798,1282,0,0
581,-258,0,0,0,0,0,0,0,0,0,-1,1805,1282,0,0
588,-258,0,0,0,0,0,0,0,0,0,-1,1812,1282,0,0
595,-258,0,0,0,0,0,0,0,0,0,-1,1819,1282,0,0
602,-258,0,0,0,0,0,0,0,0,0,-1,1826,1282,0,0
609,-258,21.6367,2.79956,0.0098896,0.00280314,-0.00592522,0.0132502,-0.000557442,-0.515927,0.00902501,0.0248303,1833,1282,21.6367,-2.79961
616,-258,21.6085,2.87598,-0.00266026,0.0013029,-0.00235884,0.00240203,-0.00375939,-1.13475,0.00358596,0.0242127,1840,1282,21.6085,-2.87595
623,-258,21.6359,2.94495,-0.0130406,0.000559747,0.000731498,0.000598978,-0.0130798,1.51722,0.00892624,0.0363768,1847,1282,21.6359,-2.94491
630,-258,21.6962,2.86877,-0.0197876,0.000402116,0.00312406,0.000874465,-0.02026,1.42074,0.0138074,0.0482554,1854,1282,21.6962,-2.86876
637,-258,21.1588,2.42712,0,0,0,0,0,0,0,-1,1861,1282,21.1589,-2.42707
644,-258,20.6595,2.38306,-0.0230104,0.000612431,0.00517565,0.00169663,-0.0240946,1.3643,0.0166574,0.0475386,1868,1282,20.6596,-2.38308
651,-258,20.1571,2.33667,-0.0217933,0.000649784,0.00536196,0.00186503,-0.0230085,1.34792,0.015997,0.0491693,1875,1282,20.1571,-2.33672
658,-258,19.4177,2.2251,-0.0201917,0.000436889,0.00547117,0.00179814,-0.021553,1.32694,0.015004,0.0493003,1882,1282,19.4177,-2.22515
665,-258,18.5518,2.34216,0,0,0,0,0,0,0,-1,1889,1282,18.5518,-2.34213
672,-258,18.0306,5.66028,0,0,0,0,0,0,0,-1,1896,1282,18.0306,-5.66029
679,-258,17.7264,5.7019,-0.0145112,0.000566157,0.00451395,0.00181425,-0.0157593,1.30104,0.0111602,0.0422008,1903,1282,17.7265,-5.70194
686,-258,17.6207,5.59399,-0.0113002,0.000532341,0.00382822,0.00166288,-0.0124308,1.28364,0.00889345,0.0243944,1910,1282,17.6207,-5.59397
693,-258,17.6832,5.37854,-0.00774431,0.000213131,0.00286138,0.0011352,-0.00866637,1.25906,0.00619077,0.00988283,1917,1282,17.6833,-5.3785
700,-258,17.6858,5.17126,-0.00428622,-1.41687e-05,0.00196891,0.000754836,-0.00505523,1.19844,0.00364789,0.00896882,1924,1282,17.6858,-5.17123
707,-258,17.6826,5.0033,-0.00149845,-0.00046844,0.000799119,-3.2748e-05,-0.00193414,1.07163,0.00127865,0.0103605,1931,1282,17.6827,-5.00325
714,-258,17.6785,4.82813,-0.00014832,0.000337186,0.000484679,0.000636506,-0.00044764,1.01756,0.00062909,0.00992809,1938,1282,17.6785,-4.82815
721,-258,17.6677,4.64539,0.000896791,0.00176626,0.000717432,0.0021704,0.000492656,1.05779,0.00131387,0.0109285,1945,1282,17.6678,-4.64541
728,-258,17.6494,4.48767,0.00213065,0.00322672,0.000992117,0.0038121,0.00154526,1.03774,0.00221402,0.0104634,1952,1282,17.6495,-4.48766
735,-258,17.6613,4.32373,0.00297934,0.0046977,0.00165844,0.0057063,0.00197074,1.0244,0.00334664,0.0137009,1959,1282,17.6612,-4.32369
742,-258,17.6858,4.18945,0.00381784,0.00655741,0.00299762,0.00848339,0.00189187,0.999711,0.00514231,0.0162917,1966,1282,17.6858,-4.18943
749,-258,17.7145,4.13647,0.00476373,0.00877174,0.00471679,0.0118926,0.00164287,0.986277,0.00744147,0.0281587,1973,1282,17.7144,-4.13648
756,-258,17.7876,4.28955,0.00571846,0.0115254,0.00722356,0.0164071,0.000836678,0.976488,0.0106701,0.0400969,1980,1282,17.7876,-4.28954
763,-258,17.8843,4.38171,0.00644741,0.0149231,0.0108182,0.0223039,-0.00093339,0.972077,0.0151899,0.0426048,1987,1282,17.8843,-4.38171
770,-258,17.8855,4.47546,0.00654237,0.0191296,0.0158814,0.0299189,-0.00424699,0.974049,0.0215019,0.0463633,1994,1282,17.8854,-4.47549
777,-258,17.6371,4.67358,0,0,0,0,0,0,0,-1,2001,1282,17.6371,-4.67353
784,-258,16.9154,2.36511,0,0,0,0,0,0,0,-1,2008,1282,16.9154,-2.36516
791,-258,0,0,0,0,0,0,0,0,0,-1,2015,1282,0,0
798,-258,0,0,0,0,0,0,0,0,0,-1,2022,1282,0,0
805,-258,0,0,0,0,0,0,0,0,0,-1,2029,1282,0,0
812,-258,0,0,0,0,0,0,0,0,0,-1,2036,1282,0,0
-700,-265,0,0,0,0,0,0,0,0,0,-1,524,1289,0,0
-693,-265,0,0,0,0,0,0,0,0,0,-1,531,1289,0,0
-686,-265,0,0,0,0,0,0,0,0,0,-1,538,1289,0,0
-679,-265,0,0,0,0,0,0,0,0,0,-1,545,1289,0,0
-672,-265,0,0,0,0,0,0,0,0,0,-1,552,1289,0,0
-665,-265,-6.01843,3.03638,0,0,0,0,0,0,0,-1,559,1289,-6.01842,-3.03637
-658,-265,-7.29919,1.92493,0,0,0,0,0,0,0,-1,566,1289,-7.29922,-1.92495
-651,-265,-8.02893,1.65479,-0.0348841,0.0764802,-0.0225096,0.0808579,-0.0392617,-1.37871,0.0707236,0.0473584,573,1289,-8.02893,-1.65473
-644,-265,-8.80902,1.41052,-0.0312441,0.0674657,-0.0171051,0.0703458,-0.0341242,-1.40399,0.0615123,0.0469725,580,1289,-8.809,-1.41047
-637,-265,-9.23639,1.37073,-0.0270113,0.0575478,-0.0129143,0.0594761,-0.0289396,-1.42257,0.0520518,0.047382,587,1289,-9.23636,-1.37068
-630,-265,-9.6004,1.00378,-0.0225914,0.0476665,-0.0096173,0.0489592,-0.0238841,-1.43718,0.0428787,0.0459753,594,1289,-9.60038,-1.00378
-623,-265,-9.10492,1.13196,0,0,0,0,0,0,0,-1,601,1289,-9.10489,-1.1319
-616,-265,-9.11682,1.47876,-0.0143899,0.0297411,-0.00487417,0.0302731,-0.0149218,-1.46209,0.0265903,0.0368584,608,1289,-9.11682,-1.47871
-609,-265,-9.12537,1.8385,-0.0107041,0.0222694,-0.00319429,0.022576,-0.0110107,-1.47511,0.0197707,0.0162531,615,1289,-9.12535,-1.83853
-602,-265,-9.12115,2.06152,-0.00730874,0.0159502,-0.00189751,0.016104,-0.00746252,-1.48993,0.0139077,0.0137015,622,1289,-9.12114,-2.06154
-595,-265,-9.13721,2.28491,-0.0041576,0.010173,-0.000741092,0.0102112,-0.00419582,-1.51927,0.00855618,0.0114777,629,1289,-9.13719,-2.28487
-588,-265,-9.13916,2.48621,-0.00129164,0.00580472,9.61988e-06,0.00580474,-0.00129165,1.56944,0.00436456,0.0103388,636,1289,-9.13917,-2.48624
-581,-265,-9.14398,2.6936,0.000707274,0.00292397,0.000243545,0.00295041,0.000680832,1.46265,0.00178384,0.0125572,643,1289,-9.14397,-2.69355
-574,-265,-9.16559,2.93335,0.00211558,0.00118889,0.000100772,0.00212641,0.00117806,0.107077,0.00123007,0.0142286,650,1289,-9.16557,-2.93334
-567,-265,-9.18176,3.15662,0.00233556,0.00108779,-0.000442063,0.0024763,0.000947053,-0.308227,0.0014428,0.0197578,657,1289,-9.18175,-3.15659
-560,-265,-9.17377,3.34216,0.00185989,0.00146204,-0.00123483,0.00291171,0.000410215,-0.705536,0.00181988,0.0206708,664,1289,-9.17378,-3.34221
-553,-265,-9.10895,3.58167,-0.000160604,0.00294663,-0.00179211,0.00376481,-0.00097878,-1.14252,0.00289188,0.0239157,671,1289,-9.10893,-3.58162
-546,-265,-9.0946,3.9303,0,0,0,0,0,0,0,-1,678,1289,-9.09461,-3.93031
-539,-265,-8.82867,3.64648,0,0,0,0,0,0,0,-1,685,1289,-8.8287,-3.64651
-532,-265,-8.53998,3.41467,0,0,0,0,0,0,0,-1,692,1289,-8.53996,-3.41473
-525,-265,-12.1317,0.514648,0,0,0,0,0,0,0,-1,699,1289,-12.1317,-0.514634
-518,-265,-12.6472,0.0332031,0,0,0,0,0,0,0,-1,706,1289,-12.6472,-0.0331908
-511,-265,-12.8752,1.18274,0,0,0,0,0,0,0,-1,713,1289,-12.8752,-1.18274
-504,-265,-11.7606,-1.13245,0,0,0,0,0,0,0,-1,720,1289,-11.7606,1.13242
-497,-265,-12.8578,-0.0235596,0,0,0,0,0,0,0,-1,727,1289,-12.8578,0.0235755
-490,-265,-13.4464,1.36987,0,0,0,0,0,0,0,-1,734,1289,-13.4464,-1.36982
-483,-265,0,0,0,0,0,0,0,0,0,-1,741,1289,0,0
-476,-265,0,0,0,0,0,0,0,0,0,-1,748,1289,0,0
-469,-265,0,0,0,0,0,0,0,0,0,-1,755,1289,0,0
-462,-265,0,0,0,0,0,0,0,0,0,-1,762,1289,0,0
-455,-265,0,0,0,0,0,0,0,0,0,-1,769,1289,0,0
-448,-265,0,0,0,0,0,0,0,0,0,-1,776,1289,0,0
-441,-265,0,0,0,0,0,0,0,0,0,-1,783,1289,0,0
-434,-265,0,0,0,0,0,0,0,0,0,-1,790,1289,0,0
-427,-265,0,0,0,0,0,0,0,0,0,-1,797,1289,0,0
-420,-265,0,0,0,0,0,0,0,0,0,-1,804,1289,0,0
-413,-265,0,0,0,0,0,0,0,0,0,-1,811,1289,0,0
-406,-265,0,0,0,0,0,0,0,0,0,-1,818,1289,0,0
-399,-265,0,0,0,0,0,0,0,0,0,-1,825,1289,0,0
-392,-265,0,0,0,0,0,0,0,0,0,-1,832,1289,0,0
-385,-265,0,0,0,0,0,0,0,0,0,-1,839,1289,0,0
-378,-265,0,0,0,0,0,0,0,0,0,-1,846,1289,0,0
-371,-265,0,0,0,0,0,0,0,0,0,-1,853,1289,0,0
-364,-265,0,0,0,0,0,0,0,0,0,-1,860,1289,0,0
-357,-265,0,0,0,0,0,0,0,0,0,-1,867,1289,0,0
-350,-265,0,0,0,0,0,0,0,0,0,-1,874,1289,0,0
-343,-265,0,0,0,0,0,0,0,0,0,-1,881,1289,0,0
-336,-265,0,0,0,0,0,0,0,0,0,-1,888,1289,0,0
-329,-265,0,0,0,0,0,0,0,0,0,-1,895,1289,0,0
-322,-265,0,0,0,0,0,0,0,0,0,-1,902,1289,0,0
-315,-265,0,0,0,0,0,0,0,0,0,-1,909,1289,0,0
-308,-265,0,0,0,0,0,0,0,0,0,-1,916,1289,0,0
-301,-265,0,0,0,0,0,0,0,0,0,-1,923,1289,0,0
-294,-265,0,0,0,0,0,0,0,0,0,-1,930,1289,0,0
-287,-265,0,0,0,0,0,0,0,0,0,-1,937,1289,0,0
-280,-265,0,0,0,0,0,0,0,0,0,-1,944,1289,0,0
-273,-265,0,0,0,0,0,0,0,0,0,-1,951,1289,0,0
-266,-265,0,0,0,0,0,0,0,0,0,-1,958,1289,0,0
-259,-265,0,0,0,0,0,0,0,0,0,-1,965,1289,0,0
-252,-265,0,0,0,0,0,0,0,0,0,-1,972,1289,0,0
-245,-265,0,0,0,0,0,0,0,0,0,-1,979,1289,0,0
-238,-265,0,0,0,0,0,0,0,0,0,-1,986,1289,0,0
-231,-265,0,0,0,0,0,0,0,0,0,-1,993,1289,0,0
-224,-265,0,0,0,0,0,0,0,0,0,-1,1000,1289,0,0
-217,-265,0,0,0,0,0,0,0,0,0,-1,1007,1289,0,0
-210,-265,0,0,0,0,0,0,0,0,0,-1,1014,1289,0,0
-203,-265,0,0,0,0,0,0,0,0,0,-1,1021,1289,0,0
-196,-265,0,0,0,0,0,0,0,0,0,-1,1028,1289,0,0
-189,-265,0,0,0,0,0,0,0,0,0,-1,1035,1289,0,0
-182,-265,0,0,0,0,0,0,0,0,0,-1,1042,1289,0,0
-175,-265,0,0,0,0,0,0,0,0,0,-1,1049,1289,0,0
-168,-265,0,0,0,0,0,0,0,0,0,-1,1056,1289,0,0
-161,-265,0,0,0,0,0,0,0,0,0,-1,1063,1289,0,0
-154,-265,0,0,0,0,0,0,0,0,0,-1,1070,1289,0,0
-147,-265,0,0,0,0,0,0,0,0,0,-1,1077,1289,0,0
-140,-265,0,0,0,0,0,0,0,0,0,-1,1084,1289,0,0
-133,-265,0,0,0,0,0,0,0,0,0,-1,1091,1289,0,0
-126,-265,0,0,0,0,0,0,0,0,0,-1,1098,1289,0,0
-119,-265,0,0,0,0,0,0,0,0,0,-1,1105,1289,0,0
-112,-265,0,0,0,0,0,0,0,0,0,-1,1112,1289,0,0
-105,-265,0,0,0,0,0,0,0,0,0,-1,1119,1289,0,0
-98,-265,0,0,0,0,0,0,0,0,0,-1,1126,1289,0,0
-91,-265,0,0,0,0,0,0,0,0,0,-1,1133,1289,0,0
-84,-265,0,0,0,0,0,0,0,0,0,-1,1140,1289,0,0
-77,-265,0,0,0,0,0,0,0,0,0,-1,1147,1289,0,0
-70,-265,0,0,0,0,0,0,0,0,0,-1,1154,1289,0,0
-63,-265,0,0,0,0,0,0,0,0,0,-1,1161,1289,0,0
-56,-265,0,0,0,0,0,0,0,0,0,-1,1168,1289,0,0
-49,-265,0,0,0,0,0,0,0,0,0,-1,1175,1289,0,0
-42,-265,0,0,0,0,0,0,0,0,0,-1,1182,1289,0,0
-35,-265,0,0,0,0,0,0,0,0,0,-1,1189,1289,0,0
-28,-265,0,0,0,0,0,0,0,0,0,-1,1196,1289,0,0
-21,-265,0,0,0,0,0,0,0,0,0,-1,1203,1289,0,0
-14,-265,0,0,0,0,0,0,0,0,0,-1,1210,1289,0,0
-7,-265,0,0,0,0,0,0,0,0,0,-1,1217,1289,0,0
0,-265,0,0,0,0,0,0,0,0,0,-1,1224,1289,0,0
7,-265,0,0,0,0,0,0,0,0,0,-1,1231,1289,0,0
14,-265,0,0,0,0,0,0,0,0,0,-1,1238,1289,0,0
21,-265,0,0,0,0,0,0,0,0,0,-1,1245,1289,0,0
28,-265,0,0,0,0,0,0,0,0,0,-1,1252,1289,0,0
35,-265,0,0,0,0,0,0,0,0,0,-1,1259,1289,0,0
42,-265,0,0,0,0,0,0,0,0,0,-1,1266,1289,0,0
49,-265,0,0,0,0,0,0,0,0,0,-1,1273,1289,0,0
56,-265,0,0,0,0,0,0,0,0,0,-1,1280,1289,0,0
63,-265,0,0,0,0,0,0,0,0,0,-1,1287,1289,0,0
70,-265,0,0,0,0,0,0,0,0,0,-1,1294,1289,0,0
77,-265,0,0,0,0,0,0,0,0,0,-1,1301,1289,0,0
84,-265,0,0,0,0,0,0,0,0,0,-1,1308,1289,0,0
91,-265,0,0,0,0,0,0,0,0,0,-1,1315,1289,0,0
98,-265,0,0,0,0,0,0,0,0,0,-1,1322,1289,0,0
105,-265,0,0,0,0,0,0,0,0,0,-1,1329,1289,0,0
112,-265,0,0,0,0,0,0,0,0,0,-1,1336,1289,0,0
119,-265,0,0,0,0,0,0,0,0,0,-1,1343,1289,0,0
126,-265,0,0,0,0,0,0,0,0,0,-1,1350,1289,0,0
133,-265,0,0,0,0,0,0,0,0,0,-1,1357,1289,0,0
140,-265,0,0,0,0,0,0,0,0,0,-1,1364,1289,0,0
147,-265,0,0,0,0,0,0,0,0,0,-1,1371,1289,0,0
154,-265,0,0,0,0,0,0,0,0,0,-1,1378,1289,0,0
161,-265,0,0,0,0,0,0,0,0,0,-1,1385,1289,0,0
168,-265,0,0,0,0,0,0,0,0,0,-1,1392,1289,0,0
175,-265,0,0,0,0,0,0,0,0,0,-1,1399,1289,0,0
182,-265,0,0,0,0,0,0,0,0,0,-1,1406,1289,0,0
189,-265,0,0,0,0,0,0,0,0,0,-1,1413,1289,0,0
196,-265,0,0,0,0,0,0,0,0,0,-1,1420,1289,0,0
203,-265,0,0,0,0,0,0,0,0,0,-1,1427,1289,0,0
210,-265,0,0,0,0,0,0,0,0,0,-1,1434,1289,0,0
217,-265,0,0,0,0,0,0,0,0,0,-1,1441,1289,0,0
224,-265,0,0,0,0,0,0,0,0,0,-1,1448,1289,0,0
231,-265,0,0,0,0,0,0,0,0,0,-1,1455,1289,0,0
238,-265,0,0,0,0,0,0,0,0,0,-1,1462,1289,0,0
245,-265,0,0,0,0,0,0,0,0,0,-1,1469,1289,0,0
252,-265,0,0,0,0,0,0,0,0,0,-1,1476,1289,0,0
259,-265,0,0,0,0,0,0,0,0,0,-1,1483,1289,0,0
266,-265,0,0,0,0,0,0,0,0,0,-1,1490,1289,0,0
273,-265,0,0,0,0,0,0,0,0,0,-1,1497,1289,0,0
280,-265,0,0,0,0,0,0,0,0,0,-1,1504,1289,0,0
287,-265,0,0,0,0,0,0,0,0,0,-1,1511,1289,0,0
294,-265,0,0,0,0,0,0,0,0,0,-1,1518,1289,0,0
301,-265,0,0,0,0,0,0,0,0,0,-1,1525,1289,0,0
308,-265,0,0,0,0,0,0,0,0,0,-1,1532,1289,0,0
315,-265,0,0,0,0,0,0,0,0,0,-1,1539,1289,0,0
322,-265,0,0,0,0,0,0,0,0,0,-1,1546,1289,0,0
329,-265,0,0,0,0,0,0,0,0,0,-1,1553,1289,0,0
336,-265,0,0,0,0,0,0,0,0,0,-1,1560,1289,0,0
343,-265,0,0,0,0,0,0,0,0,0,-1,1567,1289,0,0
350,-265,0,0,0,0,0,0,0,0,0,-1,1574,1289,0,0
357,-265,0,0,0,0,0,0,0,0,0,-1,1581,1289,0,0
364,-265,0,0,0,0,0,0,0,0,0,-1,1588,1289,0,0
371,-265,0,0,0,0,0,0,0,0,0,-1,1595,1289,0,0
378,-265,0,0,0,0,0,0,0,0,0,-1,1602,1289,0,0
385,-265,0,0,0,0,0,0,0,0,0,-1,1609,1289,0,0
392,-265,0,0,0,0,0,0,0,0,0,-1,1616,1289,0,0
399,-265,0,0,0,0,0,0,0,0,0,-1,1623,1289,0,0
406,-265,0,0,0,0,0,0,0,0,0,-1,1630,1289,0,0
413,-265,0,0,0,0,0,0,0,0,0,-1,1637,1289,0,0
420,-265,0,0,0,0,0,0,0,0,0,-1,1644,1289,0,0
427,-265,0,0,0,0,0,0,0,0,0,-1,1651,1289,0,0
434,-265,0,0,0,0,0,0,0,0,0,-1,1658,1289,0,0
441,-265,0,0,0,0,0,0,0,0,0,-1,1665,1289,0,0
448,-265,0,0,0,0,0,0,0,0,0,-1,1672,1289,0,0
455,-265,0,0,0,0,0,0,0,0,0,-1,1679,1289,0,0
462,-265,0,0,0,0,0,0,0,0,0,-1,1686,1289,0,0
469,-265,0,0,0,0,0,0,0,0,0,-1,1693,1289,0,0
476,-265,0,0,0,0,0,0,0,0,0,-1,1700,1289,0,0
483,-265,0,0,0,0,0,0,0,0,0,-1,1707,1289,0,0
490,-265,0,0,0,0,0,0,0,0,0,-1,1714,1289,0,0
497,-265,0,0,0,0,0,0,0,0,0,-1,1721,1289,0,0
504,-265,0,0,0,0,0,0,0,0,0,-1,1728,1289,0,0
511,-265,0,0,0,0,0,0,0,0,0,-1,1735,1289,0,0
518,-265,0,0,0,0,0,0,0,0,0,-1,1742,1289,0,0
525,-265,0,0,0,0,0,0,0,0,0,-1,1749,1289,0,0
532,-265,0,0,0,0,0,0,0,0,0,-1,1756,1289,0,0
539,-265,0,0,0,0,0,0,0,0,0,-1,1763,1289,0,0
546,-265,0,0,0,0,0,0,0,0,0,-1,1770,1289,0,0
553,-265,0,0,0,0,0,0,0,0,0,-1,1777,1289,0,0
560,-265,0,0,0,0,0,0,0,0,0,-1,1784,1289,0,0
567,-265,0,0,0,0,0,0,0,0,0,-1,1791,1289,0,0
574,-265,0,0,0,0,0,0,0,0,0,-1,1798,1289,0,0
581,-265,0,0,0,0,0,0,0,0,0,-1,1805,1289,0,0
588,-265,0,0,0,0,0,0,0,0,0,-1,1812,1289,0,0
595,-265,0,0,0,0,0,0,0,0,0,-1,1819,1289,0,0
602,-265,21.6293,2.86108,0.0202415,0.00816207,-0.00688812,0.0233628,0.00504076,-0.425465,0.0141965,0.0257367,1826,1289,21.6293,-2.86103
609,-265,21.6022,2.82666,0.00696865,0.00283831,-0.00289452,0.0084592,0.00134775,-0.475541,0.00524822,0.0275108,1833,1289,21.6022,-2.82665
616,-265,21.691,2.93726,-0.00573778,0.000666677,0.000941032,0.000802084,-0.00587318,1.42789,0.00420837,0.0331613,1840,1289,21.691,-2.93723
623,-265,22.1157,3.16187,-0.0158326,-0.000412858,0.00377696,0.000462583,-0.016708,1.34303,0.011296,0.0457791,1847,1289,22.1157,-3.16185
630,-265,21.8379,2.98633,0,0,0,0,0,0,0,-1,1854,1289,21.8379,-2.98631
637,-265,20.0829,2.06738,0,0,0,0,0,0,0,-1,1861,1289,20.0829,-2.06743
644,-265,20.3839,2.13403,0,0,0,0,0,0,0,-1,1868,1289,20.3839,-2.13406
651,-265,19.3141,1.90588,-0.0238164,-1.17645e-05,0.00630629,0.00155568,-0.0253838,1.32718,0.0174642,0.0464822,1875,1289,19.3141,-1.90586
658,-265,19.0532,1.97144,-0.022303,-9.74525e-05,0.00630915,0.00156994,-0.0239704,1.31242,0.0165284,0.0463032,1882,1289,19.0532,-1.97148
665,-265,18.2394,2.09839,0,0,0,0,0,0,0,-1,1889,1289,18.2394,-2.09836
672,-265,17.4669,5.73694,0,0,0,0,0,0,0,-1,1896,1289,17.4669,-5.73691
679,-265,17.4655,5.69678,-0.0163246,0.000571727,0.00478186,0.00183117,-0.0175841,1.31327,0.0123783,0.0381076,1903,1289,17.4654,-5.6968
686,-265,17.4606,5.57397,-0.0124051,0.000604133,0.00401881,0.00174548,-0.0135465,1.29408,0.00966549,0.0150716,1910,1289,17.4606,-5.57393
693,-265,17.4852,5.37622,-0.00830765,0.000337433,0.00297331,0.00126131,-0.00923152,1.26953,0.00661499,0.0099733,1917,1289,17.4852,-5.37621
700,-265,17.4921,5.18848,-0.00452834,0.000290984,0.00203309,0.00103408,-0.00527144,1.22038,0.0039049,0.010451,1924,1289,17.4921,-5.18846
707,-265,17.5085,5.00012,-0.00153136,9.34756e-05,0.000840296,0.000449869,-0.00188775,1.16966,0.00143221,0.0100728,1931,1289,17.5086,-5.00017
714,-265,17.495,4.82849,5.6618e-05,0.00127655,0.000477339,0.00144113,-0.000107955,1.23879,0.000998682,0.00955606,1938,1289,17.495,-4.82849
721,-265,17.4692,4.65771,0.00136535,0.00321302,0.000691765,0.00344332,0.00113506,1.24943,0.0020261,0.00923927,1945,1289,17.4693,-4.65771
728,-265,17.4611,4.495,0.00283771,0.00533581,0.0009798,0.00567425,0.00249927,1.23821,0.00328377,0.0119691,1952,1289,17.461,-4.49503
735,-265,17.4579,4.31995,0.00406762,0.00762311,0.00163498,0.00826063,0.00343009,1.199,0.00479207,0.0156485,1959,1289,17.4578,-4.32
742,-265,17.498,4.17786,0.00542921,0.0105544,0.00294774,0.0118977,0.00408591,1.14321,0.00698054,0.0193569,1966,1289,17.498,-4.17785
749,-265,17.5784,4.05347,0.00708519,0.0141629,0.00475729,0.0165532,0.00469485,1.10518,0.0098508,0.0383693,1973,1289,17.5783,-4.0535
756,-265,17.7371,4.03015,0.00895935,0.0186485,0.00742831,0.0226724,0.00493546,1.07435,0.0137679,0.044208,1980,1289,17.7371,-4.03019
763,-265,18.1138,3.9563,0,0,0,0,0,0,0,-1,1987,1289,18.1138,-3.95625
770,-265,18.1356,4.77075,0,0,0,0,0,0,0,-1,1994,1289,18.1356,-4.7708
777,-265,17.8115,5.31384,0,0,0,0,0,0,0,-1,2001,1289,17.8115,-5.31389
784,-265,0,0,0,0,0,0,0,0,0,-1,2008,1289,0,0
791,-265,0,0,0,0,0,0,0,0,0,-1,2015,1289,0,0
798,-265,0,0,0,0,0,0,0,0,0,-1,2022,1289,0,0
805,-265,0,0,0,0,0,0,0,0,0,-1,2029,1289,0,0
812,-265,0,0,0,0,0,0,0,0,0,-1,2036,1289,0,0
-700,-272,0,0,0,0,0,0,0,0,0,-1,524,1296,0,0
-693,-272,0,0,0,0,0,0,0,0,0,-1,531,1296,0,0
-686,-272,0,0,0,0,0,0,0,0,0,-1,538,1296,0,0
-679,-272,0,0,0,0,0,0,0,0,0,-1,545,1296,0,0
-672,-272,0,0,0,0,0,0,0,0,0,-1,552,1296,0,0
-665,-272,0,0,0,0,0,0,0,0,0,-1,559,1296,0,0
-658,-272,-8.21265,1.17627,0,0,0,0,0,0,0,-1,566,1296,-8.21267,-1.17628
-651,-272,-8.90027,0.859619,0,0,0,0,0,0,0,-1,573,1296,-8.90029,-0.859647
-644,-272,-9.42505,1.77161,0,0,0,0,0,0,0,-1,580,1296,-9.42506,-1.77158
-637,-272,-9.27722,1.354,-0.0309469,0.0697429,-0.0097736,0.0706828,-0.0318868,-1.47492,0.0606142,0.0495273,587,1296,-9.27723,-1.35403
-630,-272,-8.7226,0.771362,-0.0260034,0.058388,-0.00700368,0.0589653,-0.0265807,-1.48856,0.0505559,0.0464417,594,1296,-8.72259,-0.771408
-623,-272,-8.62152,1.17029,0,0,0,0,0,0,0,-1,601,1296,-8.62154,-1.17028
-616,-272,-8.72052,1.55591,-0.0167877,0.0369965,-0.00327551,0.0371952,-0.0169865,-1.51019,0.0319989,0.0375181,608,1296,-8.72054,-1.5559
-609,-272,-8.8855,1.88,-0.0126752,0.0278228,-0.00203098,0.0279244,-0.0127768,-1.52081,0.0240352,0.0205821,615,1296,-8.88547,-1.88007
-602,-272,-8.91388,2.05566,-0.00893911,0.0200341,-0.00108874,0.020075,-0.00897996,-1.53329,0.0171777,0.0135175,622,1296,-8.91391,-2.05567
-595,-272,-8.93298,2.2915,-0.00548451,0.0131069,-0.000218951,0.0131095,-0.00548708,-1.55902,0.0110333,0.0113063,629,1296,-8.93297,-2.29148
-588,-272,-8.91705,2.50305,-0.00238884,0.00763809,0.000297942,0.00764693,-0.00239768,1.54112,0.00605748,0.0101946,636,1296,-8.91702,-2.50301
-581,-272,-8.92267,2.70618,-0.000166633,0.00373798,0.000395818,0.0037777,-0.000206354,1.47078,0.00258999,0.00957311,643,1296,-8.92269,-2.70615
-574,-272,-8.95947,2.93286,0.0015323,0.0011762,0.000182413,0.00160915,0.00109934,0.398748,0.000949601,0.0142739,650,1296,-8.95948,-2.93281
-567,-272,-8.97278,3.15112,0.00202509,0.000614255,-0.000404363,0.00213277,0.000506578,-0.26025,0.00128667,0.0196786,657,1296,-8.97279,-3.15116
-560,-272,-8.95239,3.36243,0.00183314,0.00059396,-0.00119267,0.00255755,-0.000130453,-0.545835,0.00175014,0.0190936,664,1296,-8.95237,-3.3624
-553,-272,-8.89581,3.57202,-0.00011443,0.0016152,-0.00171023,0.00266684,-0.00116607,-1.01948,0.00226877,0.0141517,671,1296,-8.89581,-3.57204
-546,-272,-8.84851,3.78625,-0.00372469,0.00246193,-0.00152615,0.00281793,-0.00408069,-1.34163,0.0040051,0.0207977,678,1296,-8.8485,-3.78629
-539,-272,-8.74817,3.69177,-0.007252,0.00326664,-0.00174264,0.00354783,-0.00753319,-1.41082,0.0065341,0.04657,685,1296,-8.74815,-3.69176
-532,-272,-8.68652,3.61316,0,0,0,0,0,0,0,-1,692,1296,-8.68652,-3.61314
-525,-272,-12.1011,0.747559,0,0,0,0,0,0,0,-1,699,1296,-12.1011,-0.747606
-518,-272,-12.5389,1.29321,0,0,0,0,0,0,0,-1,706,1296,-12.5389,-1.29317
-511,-272,-13.0881,1.57275,0,0,0,0,0,0,0,-1,713,1296,-13.0881,-1.5727
-504,-272,-13.4604,1.83984,0,0,0,0,0,0,0,-1,720,1296,-13.4605,-1.83982
-497,-272,-13.7442,2.02698,0,0,0,0,0,0,0,-1,727,1296,-13.7442,-2.02702
-490,-272,-13.9825,2.19568,0,0,0,0,0,0,0,-1,734,1296,-13.9826,-2.19563
-483,-272,-13.7029,1.57068,0,0,0,0,0,0,0,-1,741,1296,-13.7029,-1.57068
-476,-272,0,0,0,0,0,0,0,0,0,-1,748,1296,0,0
-469,-272,0,0,0,0,0,0,0,0,0,-1,755,1296,0,0
-462,-272,0,0,0,0,0,0,0,0,0,-1,762,1296,0,0
-455,-272,0,0,0,0,0,0,0,0,0,-1,769,1296,0,0
-448,-272,0,0,0,0,0,0,0,0,0,-1,776,1296,0,0
-441,-272,0,0,0,0,0,0,0,0,0,-1,783,1296,0,0
-434,-272,0,0,0,0,0,0,0,0,0,-1,790,1296,0,0
-427,-272,0,0,0,0,0,0,0,0,0,-1,797,1296,0,0
-420,-272,0,0,0,0,0,0,0,0,0,-1,804,1296,0,0
-413,-272,0,0,0,0,0,0,0,0,0,-1,811,1296,0,0
-406,-272,0,0,0,0,0,0,0,0,0,-1,818,1296,0,0
-399,-272,0,0,0,0,0,0,0,0,0,-1,825,1296,0,0
-392,-272,0,0,0,0,0,0,0,0,0,-1,832,1296,0,0
-385,-272,0,0,0,0,0,0,0,0,0,-1,839,1296,0,0
-378,-272,0,0,0,0,0,0,0,0,0,-1,846,1296,0,0
-371,-272,0,0,0,0,0,0,0,0,0,-1,853,1296,0,0
-364,-272,0,0,0,0,0,0,0,0,0,-1,860,1296,0,0
-357,-272,0,0,0,0,0,0,0,0,0,-1,867,1296,0,0
-350,-272,0,0,0,0,0,0,0,0,0,-1,874,1296,0,0
-343,-272,0,0,0,0,0,0,0,0,0,-1,881,1296,0,0
-336,-272,0,0,0,0,0,0,0,0,0,-1,888,1296,0,0
-329,-272,0,0,0,0,0,0,0,0,0,-1,895,1296,0,0
-322,-272,0,0,0,0,0,0,0,0,0,-1,902,1296,0,0
-315,-272,0,0,0,0,0,0,0,0,0,-1,909,1296,0,0
-308,-272,0,0,0,0,0,0,0,0,0,-1,916,1296,0,0
-301,-272,0,0,0,0,0,0,0,0,0,-1,923,1296,0,0
-294,-272,0,0,0,0,0,0,0,0,0,-1,930,1296,0,0
-287,-272,0,0,0,0,0,0,0,0,0,-1,937,1296,0,0
-280,-272,0,0,0,0,0,0,0,0,0,-1,944,1296,0,0
-273,-272,0,0,0,0,0,0,0,0,0,-1,951,1296,0,0
-266,-272,0,0,0,0,0,0,0,0,0,-1,958,1296,0,0
-259,-272,0,0,0,0,0,0,0,0,0,-1,965,1296,0,0
-252,-272,0,0,0,0,0,0,0,0,0,-1,972,1296,0,0
-245,-272,0,0,0,0,0,0,0,0,0,-1,979,1296,0,0
-238,-272,0,0,0,0,0,0,0,0,0,-1,986,1296,0,0
-231,-272,0,0,0,0,0,0,0,0,0,-1,993,1296,0,0
-224,-272,0,0,0,0,0,0,0,0,0,-1,1000,1296,0,0
-217,-272,0,0,0,0,0,0,0,0,0,-1,1007,1296,0,0
-210,-272,0,0,0,0,0,0,0,0,0,-1,1014,1296,0,0
-203,-272,0,0,0,0,0,0,0,0,0,-1,1021,1296,0,0
-196,-272,0,0,0,0,0,0,0,0,0,-1,1028,1296,0,0
-189,-272,0,0,0,0,0,0,0,0,0,-1,1035,1296,0,0
-182,-272,0,0,0,0,0,0,0,0,0,-1,1042,1296,0,0
-175,-272,0,0,0,0,0,0,0,0,0,-1,1049,1296,0,0
-168,-272,0,0,0,0,0,0,0,0,0,-1,1056,1296,0,0
-161,-272,0,0,0,0,0,0,0,0,0,-1,1063,1296,0,0
-154,-272,0,0,0,0,0,0,0,0,0,-1,1070,1296,0,0
-147,-272,0,0,0,0,0,0,0,0,0,-1,1077,1296,0,0
-140,-272,0,0,0,0,0,0,0,0,0,-1,1084,1296,0,0
-133,-272,0,0,0,0,0,0,0,0,0,-1,1091,1296,0,0
-126,-272,0,0,0,0,0,0,0,0,0,-1,1098,1296,0,0
-119,-272,0,0,0,0,0,0,0,0,0,-1,1105,1296,0,0
-112,-272,0,0,0,0,0,0,0,0,0,-1,1112,1296,0,0
-105,-272,0,0,0,0,0,0,0,0,0,-1,1119,1296,0,0
-98,-272,0,0,0,0,0,0,0,0,0,-1,1126,1296,0,0
-91,-272,0,0,0,0,0,0,0,0,0,-1,1133,1296,0,0
-84,-272,0,0,0,0,0,0,0,0,0,-1,1140,1296,0,0
-77,-272,0,0,0,0,0,0,0,0,0,-1,1147,1296,0,0
-70,-272,0,0,0,0,0,0,0,0,0,-1,1154,1296,0,0
-63,-272,0,0,0,0,0,0,0,0,0,-1,1161,1296,0,0
-56,-272,0,0,0,0,0,0,0,0,0,-1,1168,1296,0,0
-49,-272,0,0,0,0,0,0,0,0,0,-1,1175,1296,0,0
-42,-272,0,0,0,0,0,0,0,0,0,-1,1182,1296,0,0
-35,-272,0,0,0,0,0,0,0,0,0,-1,1189,1296,0,0
-28,-272,0,0,0,0,0,0,0,0,0,-1,1196,1296,0,0
-21,-272,0,0,0,0,0,0,0,0,0,-1,1203,1296,0,0
-14,-272,0,0,0,0,0,0,0,0,0,-1,1210,1296,0,0
-7,-272,0,0,0,0,0,0,0,0,0,-1,1217,1296,0,0
0,-272,0,0,0,0,0,0,0,0,0,-1,1224,1296,0,0
7,-272,0,0,0,0,0,0,0,0,0,-1,1231,1296,0,0
14,-272,0,0,0,0,0,0,0,0,0,-1,1238,1296,0,0
21,-272,0,0,0,0,0,0,0,0,0,-1,1245,1296,0,0
28,-272,0,0,0,0,0,0,0,0,0,-1,1252,1296,0,0
35,-272,0,0,0,0,0,0,0,0,0,-1,1259,1296,0,0
42,-272,0,0,0,0,0,0,0,0,0,-1,1266,1296,0,0
49,-272,0,0,0,0,0,0,0,0,0,-1,1273,1296,0,0
56,-272,0,0,0,0,0,0,0,0,0,-1,1280,1296,0,0
63,-272,0,0,0,0,0,0,0,0,0,-1,1287,1296,0,0
70,-272,0,0,0,0,0,0,0,0,0,-1,1294,1296,0,0
77,-272,0,0,0,0,0,0,0,0,0,-1,1301,1296,0,0
84,-272,0,0,0,0,0,0,0,0,0,-1,1308,1296,0,0
91,-272,0,0,0,0,0,0,0,0,0,-1,1315,1296,0,0
98,-272,0,0,0,0,0,0,0,0,0,-1,1322,1296,0,0
105,-272,0,0,0,0,0,0,0,0,0,-1,1329,1296,0,0
112,-272,0,0,0,0,0,0,0,0,0,-1,1336,1296,0,0
119,-272,0,0,0,0,0,0,0,0,0,-1,1343,1296,0,0
126,-272,0,0,0,0,0,0,0,0,0,-1,1350,1296,0,0
133,-272,0,0,0,0,0,0,0,0,0,-1,1357,1296,0,0
140,-272,0,0,0,0,0,0,0,0,0,-1,1364,1296,0,0
147,-272,0,0,0,0,0,0,0,0,0,-1,1371,1296,0,0
154,-272,0,0,0,0,0,0,0,0,0,-1,1378,1296,0,0
161,-272,0,0,0,0,0,0,0,0,0,-1,1385,1296,0,0
168,-272,0,0,0,0,0,0,0,0,0,-1,1392,1296,0,0
175,-272,0,0,0,0,0,0,0,0,0,-1,1399,1296,0,0
182,-272,0,0,0,0,0,0,0,0,0,-1,1406,1296,0,0
189,-272,0,0,0,0,0,0,0,0,0,-1,1413,1296,0,0
196,-272,0,0,0,0,0,0,0,0,0,-1,1420,1296,0,0
203,-272,0,0,0,0,0,0,0,0,0,-1,1427,1296,0,0
210,-272,0,0,0,0,0,0,0,0,0,-1,1434,1296,0,0
217,-272,0,0,0,0,0,0,0,0,0,-1,1441,1296,0,0
224,-272,0,0,0,0,0,0,0,0,0,-1,1448,1296,0,0
231,-272,0,0,0,0,0,0,0,0,0,-1,1455,1296,0,0
238,-272,0,0,0,0,0,0,0,0,0,-1,1462,1296,0,0
245,-272,0,0,0,0,0,0,0,0,0,-1,1469,1296,0,0
252,-272,0,0,0,0,0,0,0,0,0,-1,1476,1296,0,0
259,-272,0,0,0,0,0,0,0,0,0,-1,1483,1296,0,0
266,-272,0,0,0,0,0,0,0,0,0,-1,1490,1296,0,0
273,-272,0,0,0,0,0,0,0,0,0,-1,1497,1296,0,0
280,-272,0,0,0,0,0,0,0,0,0,-1,1504,1296,0,0
287,-272,0,0,0,0,0,0,0,0,0,-1,1511,1296,0,0
294,-272,0,0,0,0,0,0,0,0,0,-1,1518,1296,0,0
301,-272,0,0,0,0,0,0,0,0,0,-1,1525,1296,0,0
308,-272,0,0,0,0,0,0,0,0,0,-1,1532,1296,0,0
315,-272,0,0,0,0,0,0,0,0,0,-1,1539,1296,0,0
322,-272,0,0,0,0,0,0,0,0,0,-1,1546,1296,0,0
329,-272,0,0,0,0,0,0,0,0,0,-1,1553,1296,0,0
336,-272,0,0,0,0,0,0,0,0,0,-1,1560,1296,0,0
343,-272,0,0,0,0,0,0,0,0,0,-1,1567,1296,0,0
350,-272,0,0,0,0,0,0,0,0,0,-1,1574,1296,0,0
357,-272,0,0,0,0,0,0,0,0,0,-1,1581,1296,0,0
364,-272,0,0,0,0,0,0,0,0,0,-1,1588,1296,0,0
371,-272,0,0,0,0,0,0,0,0,0,-1,1595,1296,0,0
378,-272,0,0,0,0,0,0,0,0,0,-1,1602,1296,0,0
385,-272,0,0,0,0,0,0,0,0,0,-1,1609,1296,0,0
392,-272,0,0,0,0,0,0,0,0,0,-1,1616,1296,0,0
399,-272,0,0,0,0,0,0,0,0,0,-1,1623,1296,0,0
406,-272,0,0,0,0,0,0,0,0,0,-1,1630,1296,0,0
413,-272,0,0,0,0,0,0,0,0,0,-1,1637,1296,0,0
420,-272,0,0,0,0,0,0,0,0,0,-1,1644,1296,0,0
427,-272,0,0,0,0,0,0,0,0,0,-1,1651,1296,0,0
434,-272,0,0,0,0,0,0,0,0,0,-1,1658,1296,0,0
441,-272,0,0,0,0,0,0,0,0,0,-1,1665,1296,0,0
448,-272,0,0,0,0,0,0,0,0,0,-1,1672,1296,0,0
455,-272,0,0,0,0,0,0,0,0,0,-1,1679,1296,0,0
462,-272,0,0,0,0,0,0,0,0,0,-1,1686,1296,0,0
469,-272,0,0,0,0,0,0,0,0,0,-1,1693,1296,0,0
476,-272,0,0,0,0,0,0,0,0,0,-1,1700,1296,0,0
483,-272,0,0,0,0,0,0,0,0,0,-1,1707,1296,0,0
490,-272,0,0,0,0,0,0,0,0,0,-1,1714,1296,0,0
497,-272,0,0,0,0,0,0,0,0,0,-1,1721,1296,0,0
504,-272,0,0,0,0,0,0,0,0,0,-1,1728,1296,0,0
511,-272,0,0,0,0,0,0,0,0,0,-1,1735,1296,0,0
518,-272,0,0,0,0,0,0,0,0,0,-1,1742,1296,0,0
525,-272,0,0,0,0,0,0,0,0,0,-1,1749,1296,0,0
532,-272,0,0,0,0,0,0,0,0,0,-1,1756,1296,0,0
539,-272,0,0,0,0,0,0,0,0,0,-1,1763,1296,0,0
546,-272,0,0,0,0,0,0,0,0,0,-1,1770,1296,0,0
553,-272,0,0,0,0,0,0,0,0,0,-1,1777,1296,0,0
560,-272,0,0,0,0,0,0,0,0,0,-1,1784,1296,0,0
567,-272,0,0,0,0,0,0,0,0,0,-1,1791,1296,0,0
574,-272,0,0,0,0,0,0,0,0,0,-1,1798,1296,0,0
581,-272,0,0,0,0,0,0,0,0,0,-1,1805,1296,0,0
588,-272,0,0,0,0,0,0,0,0,0,-1,1812,1296,0,0
595,-272,0,0,0,0,0,0,0,0,0,-1,1819,1296,0,0
602,-272,21.5659,2.79053,0.0177745,0.00846675,-0.00343231,0.0189033,0.00733795,-0.317731,0.0110044,0.0305833,1826,1296,21.5659,-2.79053
609,-272,21.5049,2.68579,0.00372414,0.00244539,0.000849787,0.00414822,0.00202131,0.462883,0.00239523,0.0394952,1833,1296,21.5048,-2.68579
616,-272,21.8478,2.91565,-0.0088329,-0.000274158,0.00435643,0.00155315,-0.0106602,1.17364,0.00767707,0.0470658,1840,1296,21.8478,-2.91563
623,-272,22.0967,3.0282,0,0,0,0,0,0,0,-1,1847,1296,22.0967,-3.02815
630,-272,20.3411,2.35779,-0.0236039,-0.00189874,0.00733282,0.000346341,-0.025849,1.27369,0.0173493,0.0432725,1854,1296,20.3411,-2.35774
637,-272,19.774,2.20691,-0.0259667,-0.00164997,0.00750142,0.000477922,-0.0280946,1.29439,0.0188911,0.043652,1861,1296,19.774,-2.20697
644,-272,19.0209,1.93945,-0.0263109,-0.00122998,0.007298,0.000738995,-0.0282799,1.30727,0.0191044,0.0446543,1868,1296,19.0209,-1.93943
651,-272,18.3567,1.43445,-0.0252824,-0.000802616,0.00692728,0.00102171,-0.0271067,1.31329,0.0184211,0.0456588,1875,1296,18.3567,-1.43446
658,-272,17.7793,1.00098,0,0,0,0,0,0,0,-1,1882,1296,17.7793,-1.00092
665,-272,17.4078,3.08142,0,0,0,0,0,0,0,-1,1889,1296,17.4079,-3.08142
672,-272,17.1588,5.67981,0,0,0,0,0,0,0,-1,1896,1296,17.1588,-5.67981
679,-272,17.2982,5.68994,-0.0174818,0.000425519,0.00484521,0.00165243,-0.0187087,1.32279,0.0130582,0.0288827,1903,1296,17.2982,-5.68996
686,-272,17.2983,5.57166,-0.0129222,0.000539616,0.00399039,0.00163356,-0.0140161,1.30322,0.00993348,0.0135839,1910,1296,17.2984,-5.57168
693,-272,17.2987,5.37903,-0.00846676,0.000413555,0.0028583,0.00125401,-0.00930722,1.28482,0.00666227,0.0112614,1917,1296,17.2987,-5.37905
700,-272,17.3016,5.21045,-0.00453391,0.000679709,0.00184172,0.00126467,-0.00511887,1.26326,0.00390304,0.0112531,1924,1296,17.3016,-5.21043
707,-272,17.3206,5.01819,-0.00144505,0.000961073,0.00058958,0.00109777,-0.00158175,1.34296,0.00155541,0.010754,1931,1296,17.3206,-5.01822
714,-272,17.3182,4.82056,0.000308898,0.00274641,9.34182e-05,0.00274998,0.000305323,1.53255,0.0017405,0.0103165,1938,1296,17.3183,-4.82054
721,-272,17.2886,4.64856,0.00184371,0.00542649,0.000182612,0.00543578,0.00183443,1.52,0.00319314,0.0115882,1945,1296,17.2885,-4.64859
728,-272,17.2826,4.47656,0.00354857,0.0084745,0.000361182,0.00850084,0.00352223,1.49799,0.00493191,0.0144938,1952,1296,17.2826,-4.47656
735,-272,17.2979,4.29626,0.00518214,0.0119014,0.000909742,0.0120224,0.00506114,1.43857,0.00696996,0.0136397,1959,1296,17.2979,-4.29629
742,-272,17.3024,4.11438,0.00713078,0.0162399,0.00208554,0.0166947,0.006676,1.35609,0.00970289,0.0225056,1966,1296,17.3024,-4.11437
749,-272,17.3593,3.9845,0.00957936,0.0215935,0.0038799,0.0227376,0.00843532,1.28406,0.0132724,0.0439001,1973,1296,17.3593,-3.98452
756,-272,17.5402,3.92114,0,0,0,0,0,0,0,-1,1980,1296,17.5402,-3.92112
763,-272,18.233,3.63025,0.0156568,0.0359897,0.0106945,0.0405789,0.0110676,1.16544,0.0242215,0.0445255,1987,1296,18.233,-3.63027
770,-272,18.3295,4.57861,0.0186474,0.0452707,0.016465,0.0531321,0.0107861,1.12534,0.0324295,0.0466218,1994,1296,18.3295,-4.57866
777,-272,18.1996,5.61682,0,0,0,0,0,0,0,-1,2001,1296,18.1995,-5.61679
784,-272,0,0,0,0,0,0,0,0,0,-1,2008,1296,0,0
791,-272,0,0,0,0,0,0,0,0,0,-1,2015,1296,0,0
798,-272,0,0,0,0,0,0,0,0,0,-1,2022,1296,0,0
805,-272,0,0,0,0,0,0,0,0,0,-1,2029,1296,0,0
812,-272,0,0,0,0,0,0,0,0,0,-1,2036,1296,0,0
-700,-279,0,0,0,0,0,0,0,0,0,-1,524,1303,0,0
-693,-279,0,0,0,0,0,0,0,0,0,-1,531,1303,0,0
-686,-279,0,0,0,0,0,0,0,0,0,-1,538,1303,0,0
-679,-279,0,0,0,0,0,0,0,0,0,-1,545,1303,0,0
-672,-279,0,0,0,0,0,0,0,0,0,-1,552,1303,0,0
-665,-279,0,0,0,0,0,0,0,0,0,-1,559,1303,0,0
-658,-279,-5.32288,-0.600464,0,0,0,0,0,0,0,-1,566,1303,-5.32287,0.600442
-651,-279,-9.73877,0.120972,0,0,0,0,0,0,0,-1,573,1303,-9.7388,-0.12092
-644,-279,-7.85162,0.356934,0,0,0,0,0,0,0,-1,580,1303,-7.8516,-0.356903
-637,-279,-6.79266,0.916504,0,0,0,0,0,0,0,-1,587,1303,-6.79268,-0.916446
-630,-279,-7.13068,1.13049,0,0,0,0,0,0,0,-1,594,1303,-7.1307,-1.13054
-623,-279,-8.37622,1.31836,0,0,0,0,0,0,0,-1,601,1303,-8.3762,-1.31835
-616,-279,-8.57465,1.43872,-0.0192831,0.0445274,-0.00126627,0.0445525,-0.0193082,-1.55096,0.037818,0.0434926,608,1303,-8.57462,-1.43872
-609,-279,-8.79102,1.75232,-0.0147581,0.0335574,-0.000563708,0.0335639,-0.0147647,-1.55913,0.0285976,0.0321329,615,1303,-8.791,-1.75227
-602,-279,-8.70203,2.04883,-0.0106919,0.0241829,-6.71775e-05,0.0241831,-0.0106921,-1.56887,0.0206312,0.0125409,622,1303,-8.70203,-2.04877
-595,-279,-8.71783,2.2843,-0.00695241,0.016054,0.000461809,0.0160633,-0.00696167,1.55073,0.0136353,0.0100206,629,1303,-8.71784,-2.28433
-588,-279,-8.69037,2.49963,-0.00365793,0.00945274,0.000698596,0.00948986,-0.00369505,1.51771,0.00785356,0.0105578,636,1303,-8.6904,-2.4996
-581,-279,-8.70056,2.71887,-0.00126013,0.00451691,0.000582842,0.00457513,-0.00131835,1.47124,0.00357158,0.0119668,643,1303,-8.70056,-2.71891
-574,-279,-8.7428,2.93701,0.000674287,0.0010992,0.000237771,0.00120561,0.000567882,1.15002,0.000696447,0.0117115,650,1303,-8.74279,-2.93706
-567,-279,-8.74115,3.13306,0.00135806,8.80699e-05,-0.000380049,0.0014631,-1.6973e-05,-0.269661,0.000981106,0.0157825,657,1303,-8.74114,-3.13307
-560,-279,-8.72272,3.3623,0.00137976,-0.000463804,-0.00114523,0.00192809,-0.00101213,-0.44654,0.00172478,0.0160075,664,1303,-8.72271,-3.3623
-553,-279,-8.69733,3.59082,-0.000341844,-0.000178556,-0.00160004,0.00134192,-0.00186232,-0.810889,0.00185809,0.0117803,671,1303,-8.69731,-3.59085
-546,-279,-8.70135,3.79968,-0.00391424,-0.000270287,-0.00150448,0.000270586,-0.00445512,-1.22568,0.00306426,0.014358,678,1303,-8.70133,-3.79964
-539,-279,-8.62665,3.90796,-0.00751229,-0.00040467,-0.0017911,2.11694e-05,-0.00793813,-1.33738,0.00529916,0.0436858,685,1303,-8.62666,-3.90798
-532,-279,-8.52319,3.99707,0,0,0,0,0,0,0,-1,692,1303,-8.52318,-3.99709
-525,-279,-11.4238,0.625,0,0,0,0,0,0,0,-1,699,1303,-11.4238,-0.624982
-518,-279,-12.4736,1.16479,0,0,0,0,0,0,0,-1,706,1303,-12.4736,-1.16477
-511,-279,-13.4602,1.75049,0,0,0,0,0,0,0,-1,713,1303,-13.4602,-1.75044
-504,-279,-13.828,2.30627,0,0,0,0,0,0,0,-1,720,1303,-13.828,-2.30629
-497,-279,-13.6542,2.63672,0,0,0,0,0,0,0,-1,727,1303,-13.6542,-2.63672
-490,-279,-13.5294,2.58154,0,0,0,0,0,0,0,-1,734,1303,-13.5294,-2.5815
-483,-279,-13.6173,2.46045,0,0,0,0,0,0,0,-1,741,1303,-13.6173,-2.4605
-476,-279,0,0,0,0,0,0,0,0,0,-1,748,1303,0,0
-469,-279,0,0,0,0,0,0,0,0,0,-1,755,1303,0,0
-462,-279,0,0,0,0,0,0,0,0,0,-1,762,1303,0,0
-455,-279,0,0,0,0,0,0,0,0,0,-1,769,1303,0,0
-448,-279,0,0,0,0,0,0,0,0,0,-1,776,1303,0,0
-441,-279,0,0,0,0,0,0,0,0,0,-1,783,1303,0,0
-434,-279,0,0,0,0,0,0,0,0,0,-1,790,1303,0,0
-427,-279,0,0,0,0,0,0,0,0,0,-1,797,1303,0,0
-420,-279,0,0,0,0,0,0,0,0,0,-1,804,1303,0,0
-413,-279,0,0,0,0,0,0,0,0,0,-1,811,1303,0,0
-406,-279,0,0,0,0,0,0,0,0,0,-1,818,1303,0,0
-399,-279,0,0,0,0,0,0,0,0,0,-1,825,1303,0,0
-392,-279,0,0,0,0,0,0,0,0,0,-1,832,1303,0,0
-385,-279,0,0,0,0,0,0,0,0,0,-1,839,1303,0,0
-378,-279,0,0,0,0,0,0,0,0,0,-1,846,1303,0,0
-371,-279,0,0,0,0,0,0,0,0,0,-1,853,1303,0,0
-364,-279,0,0,0,0,0,0,0,0,0,-1,860,1303,0,0
-357,-279,0,0,0,0,0,0,0,0,0,-1,867,1303,0,0
-350,-279,0,0,0,0,0,0,0,0,0,-1,874,1303,0,0
-343,-279,0,0,0,0,0,0,0,0,0,-1,881,1303,0,0
-336,-279,0,0,0,0,0,0,0,0,0,-1,888,1303,0,0
-329,-279,0,0,0,0,0,0,0,0,0,-1,895,1303,0,0
-322,-279,0,0,0,0,0,0,0,0,0,-1,902,1303,0,0
-315,-279,0,0,0,0,0,0,0,0,0,-1,909,1303,0,0
-308,-279,0,0,0,0,0,0,0,0,0,-1,916,1303,0,0
-301,-279,0,0,0,0,0,0,0,0,0,-1,923,1303,0,0
-294,-279,0,0,0,0,0,0,0,0,0,-1,930,1303,0,0
-287,-279,0,0,0,0,0,0,0,0,0,-1,937,1303,0,0
-280,-279,0,0,0,0,0,0,0,0,0,-1,944,1303,0,0
-273,-279,0,0,0,0,0,0,0,0,0,-1,951,1303,0,0
-266,-279,0,0,0,0,0,0,0,0,0,-1,958,1303,0,0
-259,-279,0,0,0,0,0,0,0,0,0,-1,965,1303,0,0
-252,-279,0,0,0,0,0,0,0,0,0,-1,972,1303,0,0
-245,-279,0,0,0,0,0,0,0,0,0,-1,979,1303,0,0
-238,-279,0,0,0,0,0,0,0,0,0,-1,986,1303,0,0
-231,-279,0,0,0,0,0,0,0,0,0,-1,993,1303,0,0
-224,-279,0,0,0,0,0,0,0,0,0,-1,1000,1303,0,0
-217,-279,0,0,0,0,0,0,0,0,0,-1,1007,1303,0,0
-210,-279,0,0,0,0,0,0,0,0,0,-1,1014,1303,0,0
-203,-279,0,0,0,0,0,0,0,0,0,-1,1021,1303,0,0
-196,-279,0,0,0,0,0,0,0,0,0,-1,1028,1303,0,0
-189,-279,0,0,0,0,0,0,0,0,0,-1,1035,1303,0,0
-182,-279,0,0,0,0,0,0,0,0,0,-1,1042,1303,0,0
-175,-279,0,0,0,0,0,0,0,0,0,-1,1049,1303,0,0
-168,-279,0,0,0,0,0,0,0,0,0,-1,1056,1303,0,0
-161,-279,0,0,0,0,0,0,0,0,0,-1,1063,1303,0,0
-154,-279,0,0,0,0,0,0,0,0,0,-1,1070,1303,0,0
-147,-279,0,0,0,0,0,0,0,0,0,-1,1077,1303,0,0
-140,-279,0,0,0,0,0,0,0,0,0,-1,1084,1303,0,0
-133,-279,0,0,0,0,0,0,0,0,0,-1,1091,1303,0,0
-126,-279,0,0,0,0,0,0,0,0,0,-1,1098,1303,0,0
-119,-279,0,0,0,0,0,0,0,0,0,-1,1105,1303,0,0
-112,-279,0,0,0,0,0,0,0,0,0,-1,1112,1303,0,0
-105,-279,0,0,0,0,0,0,0,0,0,-1,1119,1303,0,0
-98,-279,0,0,0,0,0,0,0,0,0,-1,1126,1303,0,0
-91,-279,0,0,0,0,0,0,0,0,0,-1,1133,1303,0,0
-84,-279,0,0,0,0,0,0,0,0,0,-1,1140,1303,0,0
-77,-279,0,0,0,0,0,0,0,0,0,-1,1147,1303,0,0
-70,-279,0,0,0,0,0,0,0,0,0,-1,1154,1303,0,0
-63,-279,0,0,0,0,0,0,0,0,0,-1,1161,1303,0,0
-56,-279,0,0,0,0,0,0,0,0,0,-1,1168,1303,0,0
-49,-279,0,0,0,0,0,0,0,0,0,-1,1175,1303,0,0
-42,-279,0,0,0,0,0,0,0,0,0,-1,1182,1303,0,0
-35,-279,0,0,0,0,0,0,0,0,0,-1,1189,1303,0,0
-28,-279,0,0,0,0,0,0,0,0,0,-1,1196,1303,0,0
-21,-279,0,0,0,0,0,0,0,0,0,-1,1203,1303,0,0
-14,-279,0,0,0,0,0,0,0,0,0,-1,1210,1303,0,0
-7,-279,0,0,0,0,0,0,0,0,0,-1,1217,1303,0,0
0,-279,0,0,0,0,0,0,0,0,0,-1,1224,1303,0,0
7,-279,0,0,0,0,0,0,0,0,0,-1,1231,1303,0,0
14,-279,0,0,0,0,0,0,0,0,0,-1,1238,1303,0,0
21,-279,0,0,0,0,0,0,0,0,0,-1,1245,1303,0,0
28,-279,0,0,0,0,0,0,0,0,0,-1,1252,1303,0,0
35,-279,0,0,0,0,0,0,0,0,0,-1,1259,1303,0,0
42,-279,0,0,0,0,0,0,0,0,0,-1,1266,1303,0,0
49,-279,0,0,0,0,0,0,0,0,0,-1,1273,1303,0,0
56,-279,0,0,0,0,0,0,0,0,0,-1,1280,1303,0,0
63,-279,0,0,0,0,0,0,0,0,0,-1,1287,1303,0,0
70,-279,0,0,0,0,0,0,0,0,0,-1,1294,1303,0,0
77,-279,0,0,0,0,0,0,0,0,0,-1,1301,1303,0,0
84,-279,0,0,0,0,0,0,0,0,0,-1,1308,1303,0,0
91,-279,0,0,0,0,0,0,0,0,0,-1,1315,1303,0,0
98,-279,0,0,0,0,0,0,0,0,0,-1,1322,1303,0,0
105,-279,0,0,0,0,0,0,0,0,0,-1,1329,1303,0,0
112,-279,0,0,0,0,0,0,0,0,0,-1,1336,1303,0,0
119,-279,0,0,0,0,0,0,0,0,0,-1,1343,1303,0,0
126,-279,0,0,0,0,0,0,0,0,0,-1,1350,1303,0,0
133,-279,0,0,0,0,0,0,0,0,0,-1,1357,1303,0,0
140,-279,0,0,0,0,0,0,0,0,0,-1,1364,1303,0,0
147,-279,0,0,0,0,0,0,0,0,0,-1,1371,1303,0,0
154,-279,0,0,0,0,0,0,0,0,0,-1,1378,1303,0,0
161,-279,0,0,0,0,0,0,0,0,0,-1,1385,1303,0,0
168,-279,0,0,0,0,0,0,0,0,0,-1,1392,1303,0,0
175,-279,0,0,0,0,0,0,0,0,0,-1,1399,1303,0,0
182,-279,0,0,0,0,0,0,0,0,0,-1,1406,1303,0,0
189,-279,0,0,0,0,0,0,0,0,0,-1,1413,1303,0,0
196,-279,0,0,0,0,0,0,0,0,0,-1,1420,1303,0,0
203,-279,0,0,0,0,0,0,0,0,0,-1,1427,1303,0,0
210,-279,0,0,0,0,0,0,0,0,0,-1,1434,1303,0,0
217,-279,0,0,0,0,0,0,0,0,0,-1,1441,1303,0,0
224,-279,0,0,0,0,0,0,0,0,0,-1,1448,1303,0,0
231,-279,0,0,0,0,0,0,0,0,0,-1,1455,1303,0,0
238,-279,0,0,0,0,0,0,0,0,0,-1,1462,1303,0,0
245,-279,0,0,0,0,0,0,0,0,0,-1,1469,1303,0,0
252,-279,0,0,0,0,0,0,0,0,0,-1,1476,1303,0,0
259,-279,0,0,0,0,0,0,0,0,0,-1,1483,1303,0,0
266,-279,0,0,0,0,0,0,0,0,0,-1,1490,1303,0,0
273,-279,0,0,0,0,0,0,0,0,0,-1,1497,1303,0,0
280,-279,0,0,0,0,0,0,0,0,0,-1,1504,1303,0,0
287,-279,0,0,0,0,0,0,0,0,0,-1,1511,1303,0,0
294,-279,0,0,0,0,0,0,0,0,0,-1,1518,1303,0,0
301,-279,0,0,0,0,0,0,0,0,0,-1,1525,1303,0,0
308,-279,0,0,0,0,0,0,0,0,0,-1,1532,1303,0,0
315,-279,0,0,0,0,0,0,0,0,0,-1,1539,1303,0,0
322,-279,0,0,0,0,0,0,0,0,0,-1,1546,1303,0,0
329,-279,0,0,0,0,0,0,0,0,0,-1,1553,1303,0,0
336,-279,0,0,0,0,0,0,0,0,0,-1,1560,1303,0,0
343,-279,0,0,0,0,0,0,0,0,0,-1,1567,1303,0,0
350,-279,0,0,0,0,0,0,0,0,0,-1,1574,1303,0,0
357,-279,0,0,0,0,0,0,0,0,0,-1,1581,1303,0,0
364,-279,0,0,0,0,0,0,0,0,0,-1,1588,1303,0,0
371,-279,0,0,0,0,0,0,0,0,0,-1,1595,1303,0,0
378,-279,0,0,0,0,0,0,0,0,0,-1,1602,1303,0,0
385,-279,0,0,0,0,0,0,0,0,0,-1,1609,1303,0,0
392,-279,0,0,0,0,0,0,0,0,0,-1,1616,1303,0,0
399,-279,0,0,0,0,0,0,0,0,0,-1,1623,1303,0,0
406,-279,0,0,0,0,0,0,0,0,0,-1,1630,1303,0,0
413,-279,0,0,0,0,0,0,0,0,0,-1,1637,1303,0,0
420,-279,0,0,0,0,0,0,0,0,0,-1,1644,1303,0,0
427,-279,0,0,0,0,0,0,0,0,0,-1,1651,1303,0,0
434,-279,0,0,0,0,0,0,0,0,0,-1,1658,1303,0,0
441,-279,0,0,0,0,0,0,0,0,0,-1,1665,1303,0,0
448,-279,0,0,0,0,0,0,0,0,0,-1,1672,1303,0,0
455,-279,0,0,0,0,0,0,0,0,0,-1,1679,1303,0,0
462,-279,0,0,0,0,0,0,0,0,0,-1,1686,1303,0,0
469,-279,0,0,0,0,0,0,0,0,0,-1,1693,1303,0,0
476,-279,0,0,0,0,0,0,0,0,0,-1,1700,1303,0,0
483,-279,0,0,0,0,0,0,0,0,0,-1,1707,1303,0,0
490,-279,0,0,0,0,0,0,0,0,0,-1,1714,1303,0,0
497,-279,0,0,0,0,0,0,0,0,0,-1,1721,1303,0,0
504,-279,0,0,0,0,0,0,0,0,0,-1,1728,1303,0,0
511,-279,0,0,0,0,0,0,0,0,0,-1,1735,1303,0,0
518,-279,0,0,0,0,0,0,0,0,0,-1,1742,1303,0,0
525,-279,0,0,0,0,0,0,0,0,0,-1,1749,1303,0,0
532,-279,0,0,0,0,0,0,0,0,0,-1,1756,1303,0,0
539,-279,0,0,0,0,0,0,0,0,0,-1,1763,1303,0,0
546,-279,0,0,0,0,0,0,0,0,0,-1,1770,1303,0,0
553,-279,0,0,0,0,0,0,0,0,0,-1,1777,1303,0,0
560,-279,0,0,0,0,0,0,0,0,0,-1,1784,1303,0,0
567,-279,0,0,0,0,0,0,0,0,0,-1,1791,1303,0,0
574,-279,0,0,0,0,0,0,0,0,0,-1,1798,1303,0,0
581,-279,0,0,0,0,0,0,0,0,0,-1,1805,1303,0,0
588,-279,0,0,0,0,0,0,0,0,0,-1,1812,1303,0,0
595,-279,0,0,0,0,0,0,0,0,0,-1,1819,1303,0,0
602,-279,21.473,2.65356,0.0168596,0.00798817,0.00241857,0.0174762,0.00737165,0.249593,0.0101309,0.0425997,1826,1303,21.473,-2.65356
609,-279,21.3192,2.39246,0.00238806,0.00120804,0.00677274,0.00859644,-0.00500034,0.74195,0.00794109,0.0480872,1833,1303,21.3192,-2.39249
616,-279,21.9247,2.9165,0,0,0,0,0,0,0,-1,1840,1303,21.9247,-2.91649
623,-279,20.6366,2.43738,-0.0179022,-0.00324308,0.0102521,0.00203005,-0.0231753,1.09574,0.0161694,0.0439585,1847,1303,20.6367,-2.43732
630,-279,20.0516,2.47375,-0.0229175,-0.00349582,0.0100181,0.0007455,-0.0271589,1.17031,0.0183595,0.0440992,1854,1303,20.0516,-2.4737
637,-279,19.5323,2.33606,-0.0253495,-0.00311506,0.00933072,0.00028167,-0.0287462,1.22167,0.0192587,0.043423,1861,1303,19.5324,-2.33606
644,-279,18.9938,2.15161,-0.0260184,-0.00249409,0.00852436,0.000270042,-0.0287825,1.25723,0.019279,0.0447991,1868,1303,18.9938,-2.15162
651,-279,17.864,1.4137,-0.0253563,-0.00183915,0.00772956,0.000473885,-0.0276694,1.28003,0.0186062,0.0465495,1875,1303,17.864,-1.41372
658,-279,18.4926,6.76965,0,0,0,0,0,0,0,-1,1882,1303,18.4925,-6.7697
665,-279,17.6333,5.61475,0,0,0,0,0,0,0,-1,1889,1303,17.6333,-5.61469
672,-279,17.412,5.71021,-0.0213746,-0.00117496,0.00554572,0.000247434,-0.022797,1.31972,0.0152812,0.0427218,1896,1303,17.412,-5.7102
679,-279,17.1588,5.80188,-0.0176669,0.000120053,0.00466281,0.00126828,-0.0188151,1.32935,0.0129868,0.0283287,1903,1303,17.1588,-5.80186
686,-279,17.1083,5.57971,-0.0126454,0.000340723,0.00374002,0.00134083,-0.0136455,1.3095,0.0095753,0.0197062,1910,1303,17.1083,-5.57974
693,-279,17.0973,5.38599,-0.00811383,0.000418226,0.00258283,0.00113918,-0.00883478,1.29859,0.00630398,0.0154167,1917,1303,17.0973,-5.38597
700,-279,17.106,5.21338,-0.00424484,0.00105944,0.00153109,0.00146966,-0.00465506,1.30901,0.00369209,0.0108492,1924,1303,17.106,-5.21333
707,-279,17.1107,5.02698,-0.00122805,0.00184993,0.000293461,0.00187766,-0.00125578,1.47659,0.00182093,0.00883786,1931,1303,17.1107,-5.02701
714,-279,17.1196,4.82153,0.000597314,0.00413793,-0.000263917,0.00415749,0.00057775,-1.4968,0.00260056,0.00984735,1938,1303,17.1196,-4.82158
721,-279,17.1346,4.62561,0.00229926,0.0074305,-0.000239526,0.00744165,0.00228811,-1.52425,0.00440133,0.0127232,1945,1303,17.1346,-4.62562
728,-279,17.1179,4.45557,0.00420698,0.0112642,-0.000127096,0.0112664,0.0042047,-1.55279,0.00657403,0.0138139,1952,1303,17.1179,-4.45553
735,-279,17.1216,4.29822,0.00631385,0.0157869,0.000377335,0.0158019,0.00629885,1.53105,0.00918553,0.012266,1959,1303,17.1216,-4.29825
742,-279,17.072,4.05237,0.00904621,0.0215638,0.00147896,0.0217361,0.00887384,1.45477,0.0126196,0.0235977,1966,1303,17.0721,-4.05239
749,-279,17.1594,3.30518,0.0125467,0.028769,0.00333717,0.0294287,0.011887,1.37564,0.0170949,0.0456142,1973,1303,17.1595,-3.30517
756,-279,17.356,2.59387,0,0,0,0,0,0,0,-1,1980,1303,17.356,-2.59385
763,-279,18.1859,3.08301,0.0222108,0.048151,0.0107612,0.052034,0.0183278,1.2245,0.0304761,0.0454029,1987,1303,18.1859,-3.08303
770,-279,18.4252,3.7168,0.0280663,0.0605281,0.0171982,0.067945,0.0206494,1.16363,0.0402211,0.044888,1994,1303,18.4251,-3.71675
777,-279,18.6055,4.89465,0,0,0,0,0,0,0,-1,2001,1303,18.6054,-4.89461
784,-279,0,0,0,0,0,0,0,0,0,-1,2008,1303,0,0
791,-279,0,0,0,0,0,0,0,0,0,-1,2015,1303,0,0
798,-279,0,0,0,0,0,0,0,0,0,-1,2022,1303,0,0
805,-279,0,0,0,0,0,0,0,0,0,-1,2029,1303,0,0
812,-279,0,0,0,0,0,0,0,0,0,-1,2036,1303,0,0
-700,-286,0,0,0,0,0,0,0,0,0,-1,524,1310,0,0
-693,-286,0,0,0,0,0,0,0,0,0,-1,531,1310,0,0
-686,-286,0,0,0,0,0,0,0,0,0,-1,538,1310,0,0
-679,-286,0,0,0,0,0,0,0,0,0,-1,545,1310,0,0
-672,-286,0,0,0,0,0,0,0,0,0,-1,552,1310,0,0
-665,-286,0,0,0,0,0,0,0,0,0,-1,559,1310,0,0
-658,-286,-5.61487,-0.955811,0,0,0,0,0,0,0,-1,566,1310,-5.61486,0.955829
-651,-286,-5.48895,-1.53699,0,0,0,0,0,0,0,-1,573,1310,-5.48894,1.53696
-644,-286,-6.31921,-0.39978,0,0,0,0,0,0,0,-1,580,1310,-6.31923,0.399748
-637,-286,-6.62268,-0.0794678,-0.0276017,0.0921854,-0.00207601,0.0922213,-0.0276377,-1.55347,0.0724719,0.0442861,587,1310,-6.62266,0.0794152
-630,-286,-6.94934,0.180664,-0.023246,0.0780864,-0.000616238,0.0780901,-0.0232497,-1.56472,0.0612978,0.0444694,594,1310,-6.94934,-0.180712
-623,-286,-7.54401,0.407104,0,0,0,0,0,0,0,-1,601,1310,-7.54399,-0.407164
-616,-286,-7.92041,0.753662,-0.0157841,0.0506137,0.000673856,0.0506205,-0.0157909,1.56065,0.0400618,0.0462713,608,1310,-7.92043,-0.753705
-609,-286,-8.54755,1.08105,-0.0125004,0.0384033,0.000880747,0.0384186,-0.0125157,1.5535,0.0306483,0.0353647,615,1310,-8.54755,-1.0811
-602,-286,-8.50751,2.01257,-0.00948463,0.0278173,0.00095433,0.0278417,-0.00950903,1.54523,0.0224136,0.0151989,622,1310,-8.50748,-2.01263
-595,-286,-8.4978,2.25769,-0.00641997,0.0187318,0.00116914,0.0187861,-0.0064742,1.52445,0.0151504,0.0108286,629,1310,-8.49778,-2.25774
-588,-286,-8.45557,2.47766,-0.00367515,0.0111374,0.00115047,0.0112262,-0.00376397,1.49374,0.00900493,0.0119096,636,1310,-8.45554,-2.47771
-581,-286,-8.45447,2.69763,-0.00191996,0.00533415,0.000817054,0.00542504,-0.00201085,1.46001,0.0044414,0.0140063,643,1310,-8.45448,-2.69761
-574,-286,-8.49292,2.92346,-0.000174636,0.0011818,0.00029711,0.00124403,-0.00023686,1.36435,0.00091854,0.0138117,650,1310,-8.49289,-2.92342
-567,-286,-8.49329,3.14014,0.000701916,-0.000180169,-0.000326828,0.000809814,-0.000288066,-0.31887,0.000657287,0.0136834,657,1310,-8.49327,-3.14009
-560,-286,-8.50488,3.36377,0.00101953,-0.00125643,-0.00107891,0.00144968,-0.00168659,-0.37938,0.00181245,0.0136579,664,1310,-8.50487,-3.3638
-553,-286,-8.50531,3.59167,-0.000282424,-0.00186692,-0.00152242,0.000641551,-0.00279089,-0.545486,0.00210726,0.00991513,671,1310,-8.5053,-3.59163
-546,-286,-8.49286,3.8407,-0.00360106,-0.00300751,-0.00153087,-0.00174492,-0.00486365,-0.881142,0.00284513,0.0119602,678,1310,-8.49289,-3.84074
-539,-286,-8.4527,4.0625,-0.00698091,-0.00432621,-0.00188695,-0.00334652,-0.0079606,-1.09191,0.00461544,0.0281949,685,1310,-8.45268,-4.06253
-532,-286,-8.36493,4.27368,0,0,0,0,0,0,0,-1,692,1310,-8.36493,-4.27367
-525,-286,-11.1047,1.33667,0,0,0,0,0,0,0,-1,699,1310,-11.1047,-1.33665
-518,-286,-12.2775,1.7124,0,0,0,0,0,0,0,-1,706,1310,-12.2775,-1.71238
-511,-286,-14.275,2.4104,0,0,0,0,0,0,0,-1,713,1310,-14.275,-2.4104
-504,-286,-13.9832,2.85962,0,0,0,0,0,0,0,-1,720,1310,-13.9832,-2.85964
-497,-286,-13.6913,3.30884,0,0,0,0,0,0,0,-1,727,1310,-13.6914,-3.30889
-490,-286,-13.5369,3.21143,0,0,0,0,0,0,0,-1,734,1310,-13.5369,-3.21137
-483,-286,-12.438,1.09753,0,0,0,0,0,0,0,-1,741,1310,-12.4381,-1.09753
-476,-286,-13.0179,1.65625,0,0,0,0,0,0,0,-1,748,1310,-13.0179,-1.65628
-469,-286,0,0,0,0,0,0,0,0,0,-1,755,1310,0,0
-462,-286,0,0,0,0,0,0,0,0,0,-1,762,1310,0,0
-455,-286,0,0,0,0,0,0,0,0,0,-1,769,1310,0,0
-448,-286,0,0,0,0,0,0,0,0,0,-1,776,1310,0,0
-441,-286,0,0,0,0,0,0,0,0,0,-1,783,1310,0,0
-434,-286,0,0,0,0,0,0,0,0,0,-1,790,1310,0,0
-427,-286,0,0,0,0,0,0,0,0,0,-1,797,1310,0,0
-420,-286,0,0,0,0,0,0,0,0,0,-1,804,1310,0,0
-413,-286,0,0,0,0,0,0,0,0,0,-1,811,1310,0,0
-406,-286,0,0,0,0,0,0,0,0,0,-1,818,1310,0,0
-399,-286,0,0,0,0,0,0,0,0,0,-1,825,1310,0,0
-392,-286,0,0,0,0,0,0,0,0,0,-1,832,1310,0,0
-385,-286,0,0,0,0,0,0,0,0,0,-1,839,1310,0,0
-378,-286,0,0,0,0,0,0,0,0,0,-1,846,1310,0,0
-371,-286,0,0,0,0,0,0,0,0,0,-1,853,1310,0,0
-364,-286,0,0,0,0,0,0,0,0,0,-1,860,1310,0,0
-357,-286,0,0,0,0,0,0,0,0,0,-1,867,1310,0,0
-350,-286,0,0,0,0,0,0,0,0,0,-1,874,1310,0,0
-343,-286,0,0,0,0,0,0,0,0,0,-1,881,1310,0,0
-336,-286,0,0,0,0,0,0,0,0,0,-1,888,1310,0,0
-329,-286,0,0,0,0,0,0,0,0,0,-1,895,1310,0,0
-322,-286,0,0,0,0,0,0,0,0,0,-1,902,1310,0,0
-315,-286,0,0,0,0,0,0,0,0,0,-1,909,1310,0,0
-308,-286,0,0,0,0,0,0,0,0,0,-1,916,1310,0,0
-301,-286,0,0,0,0,0,0,0,0,0,-1,923,1310,0,0
-294,-286,0,0,0,0,0,0,0,0,0,-1,930,1310,0,0
-287,-286,0,0,0,0,0,0,0,0,0,-1,937,1310,0,0
-280,-286,0,0,0,0,0,0,0,0,0,-1,944,1310,0,0
-273,-286,0,0,0,0,0,0,0,0,0,-1,951,1310,0,0
-266,-286,0,0,0,0,0,0,0,0,0,-1,958,1310,0,0
-259,-286,0,0,0,0,0,0,0,0,0,-1,965,1310,0,0
-252,-286,0,0,0,0,0,0,0,0,0,-1,972,1310,0,0
-245,-286,0,0,0,0,0,0,0,0,0,-1,979,1310,0,0
-238,-286,0,0,0,0,0,0,0,0,0,-1,986,1310,0,0
-231,-286,0,0,0,0,0,0,0,0,0,-1,993,1310,0,0
-224,-286,0,0,0,0,0,0,0,0,0,-1,1000,1310,0,0
-217,-286,0,0,0,0,0,0,0,0,0,-1,1007,1310,0,0
-210,-286,0,0,0,0,0,0,0,0,0,-1,1014,1310,0,0
-203,-286,0,0,0,0,0,0,0,0,0,-1,1021,1310,0,0
-196,-286,0,0,0,0,0,0,0,0,0,-1,1028,1310,0,0
-189,-286,0,0,0,0,0,0,0,0,0,-1,1035,1310,0,0
-182,-286,0,0,0,0,0,0,0,0,0,-1,1042,1310,0,0
-175,-286,0,0,0,0,0,0,0,0,0,-1,1049,1310,0,0
-168,-286,0,0,0,0,0,0,0,0,0,-1,1056,1310,0,0
-161,-286,0,0,0,0,0,0,0,0,0,-1,1063,1310,0,0
-154,-286,0,0,0,0,0,0,0,0,0,-1,1070,1310,0,0
-147,-286,0,0,0,0,0,0,0,0,0,-1,1077,1310,0,0
-140,-286,0,0,0,0,0,0,0,0,0,-1,1084,1310,0,0
-133,-286,0,0,0,0,0,0,0,0,0,-1,1091,1310,0,0
-126,-286,0,0,0,0,0,0,0,0,0,-1,1098,1310,0,0
-119,-286,0,0,0,0,0,0,0,0,0,-1,1105,1310,0,0
-112,-286,0,0,0,0,0,0,0,0,0,-1,1112,1310,0,0
-105,-286,0,0,0,0,0,0,0,0,0,-1,1119,1310,0,0
-98,-286,0,0,0,0,0,0,0,0,0,-1,1126,1310,0,0
-91,-286,0,0,0,0,0,0,0,0,0,-1,1133,1310,0,0
-84,-286,0,0,0,0,0,0,0,0,0,-1,1140,1310,0,0
-77,-286,0,0,0,0,0,0,0,0,0,-1,1147,1310,0,0
-70,-286,0,0,0,0,0,0,0,0,0,-1,1154,1310,0,0
-63,-286,0,0,0,0,0,0,0,0,0,-1,1161,1310,0,0
-56,-286,0,0,0,0,0,0,0,0,0,-1,1168,1310,0,0
-49,-286,0,0,0,0,0,0,0,0,0,-1,1175,1310,0,0
-42,-286,0,0,0,0,0,0,0,0,0,-1,1182,1310,0,0
-35,-286,0,0,0,0,0,0,0,0,0,-1,1189,1310,0,0
-28,-286,0,0,0,0,0,0,0,0,0,-1,1196,1310,0,0
-21,-286,0,0,0,0,0,0,0,0,0,-1,1203,1310,0,0
-14,-286,0,0,0,0,0,0,0,0,0,-1,1210,1310,0,0
-7,-286,0,0,0,0,0,0,0,0,0,-1,1217,1310,0,0
0,-286,0,0,0,0,0,0,0,0,0,-1,1224,1310,0,0
7,-286,0,0,0,0,0,0,0,0,0,-1,1231,1310,0,0
14,-286,0,0,0,0,0,0,0,0,0,-1,1238,1310,0,0
21,-286,0,0,0,0,0,0,0,0,0,-1,1245,1310,0,0
28,-286,0,0,0,0,0,0,0,0,0,-1,1252,1310,0,0
35,-286,0,0,0,0,0,0,0,0,0,-1,1259,1310,0,0
42,-286,0,0,0,0,0,0,0,0,0,-1,1266,1310,0,0
49,-286,0,0,0,0,0,0,0,0,0,-1,1273,1310,0,0
56,-286,0,0,0,0,0,0,0,0,0,-1,1280,1310,0,0
63,-286,0,0,0,0,0,0,0,0,0,-1,1287,1310,0,0
70,-286,0,0,0,0,0,0,0,0,0,-1,1294,1310,0,0
77,-286,0,0,0,0,0,0,0,0,0,-1,1301,1310,0,0
84,-286,0,0,0,0,0,0,0,0,0,-1,1308,1310,0,0
91,-286,0,0,0,0,0,0,0,0,0,-1,1315,1310,0,0
98,-286,0,0,0,0,0,0,0,0,0,-1,1322,1310,0,0
105,-286,0,0,0,0,0,0,0,0,0,-1,1329,1310,0,0
112,-286,0,0,0,0,0,0,0,0,0,-1,1336,1310,0,0
119,-286,0,0,0,0,0,0,0,0,0,-1,1343,1310,0,0
126,-286,0,0,0,0,0,0,0,0,0,-1,1350,1310,0,0
133,-286,0,0,0,0,0,0,0,0,0,-1,1357,1310,0,0
140,-286,0,0,0,0,0,0,0,0,0,-1,1364,1310,0,0
147,-286,0,0,0,0,0,0,0,0,0,-1,1371,1310,0,0
154,-286,0,0,0,0,0,0,0,0,0,-1,1378,1310,0,0
161,-286,0,0,0,0,0,0,0,0,0,-1,1385,1310,0,0
168,-286,0,0,0,0,0,0,0,0,0,-1,1392,1310,0,0
175,-286,0,0,0,0,0,0,0,0,0,-1,1399,1310,0,0
182,-286,0,0,0,0,0,0,0,0,0,-1,1406,1310,0,0
189,-286,0,0,0,0,0,0,0,0,0,-1,1413,1310,0,0
196,-286,0,0,0,0,0,0,0,0,0,-1,1420,1310,0,0
203,-286,0,0,0,0,0,0,0,0,0,-1,1427,1310,0,0
210,-286,0,0,0,0,0,0,0,0,0,-1,1434,1310,0,0
217,-286,0,0,0,0,0,0,0,0,0,-1,1441,1310,0,0
224,-286,0,0,0,0,0,0,0,0,0,-1,1448,1310,0,0
231,-286,0,0,0,0,0,0,0,0,0,-1,1455,1310,0,0
238,-286,0,0,0,0,0,0,0,0,0,-1,1462,1310,0,0
245,-286,0,0,0,0,0,0,0,0,0,-1,1469,1310,0,0
252,-286,0,0,0,0,0,0,0,0,0,-1,1476,1310,0,0
259,-286,0,0,0,0,0,0,0,0,0,-1,1483,1310,0,0
266,-286,0,0,0,0,0,0,0,0,0,-1,1490,1310,0,0
273,-286,0,0,0,0,0,0,0,0,0,-1,1497,1310,0,0
280,-286,0,0,0,0,0,0,0,0,0,-1,1504,1310,0,0
287,-286,0,0,0,0,0,0,0,0,0,-1,1511,1310,0,0
294,-286,0,0,0,0,0,0,0,0,0,-1,1518,1310,0,0
301,-286,0,0,0,0,0,0,0,0,0,-1,1525,1310,0,0
308,-286,0,0,0,0,0,0,0,0,0,-1,1532,1310,0,0
315,-286,0,0,0,0,0,0,0,0,0,-1,1539,1310,0,0
322,-286,0,0,0,0,0,0,0,0,0,-1,1546,1310,0,0
329,-286,0,0,0,0,0,0,0,0,0,-1,1553,1310,0,0
336,-286,0,0,0,0,0,0,0,0,0,-1,1560,1310,0,0
343,-286,0,0,0,0,0,0,0,0,0,-1,1567,1310,0,0
350,-286,0,0,0,0,0,0,0,0,0,-1,1574,1310,0,0
357,-286,0,0,0,0,0,0,0,0,0,-1,1581,1310,0,0
364,-286,0,0,0,0,0,0,0,0,0,-1,1588,1310,0,0
371,-286,0,0,0,0,0,0,0,0,0,-1,1595,1310,0,0
378,-286,0,0,0,0,0,0,0,0,0,-1,1602,1310,0,0
385,-286,0,0,0,0,0,0,0,0,0,-1,1609,1310,0,0
392,-286,0,0,0,0,0,0,0,0,0,-1,1616,1310,0,0
399,-286,0,0,0,0,0,0,0,0,0,-1,1623,1310,0,0
406,-286,0,0,0,0,0,0,0,0,0,-1,1630,1310,0,0
413,-286,0,0,0,0,0,0,0,0,0,-1,1637,1310,0,0
420,-286,0,0,0,0,0,0,0,0,0,-1,1644,1310,0,0
427,-286,0,0,0,0,0,0,0,0,0,-1,1651,1310,0,0
434,-286,0,0,0,0,0,0,0,0,0,-1,1658,1310,0,0
441,-286,0,0,0,0,0,0,0,0,0,-1,1665,1310,0,0
448,-286,0,0,0,0,0,0,0,0,0,-1,1672,1310,0,0
455,-286,0,0,0,0,0,0,0,0,0,-1,1679,1310,0,0
462,-286,0,0,0,0,0,0,0,0,0,-1,1686,1310,0,0
469,-286,0,0,0,0,0,0,0,0,0,-1,1693,1310,0,0
476,-286,0,0,0,0,0,0,0,0,0,-1,1700,1310,0,0
483,-286,0,0,0,0,0,0,0,0,0,-1,1707,1310,0,0
490,-286,0,0,0,0,0,0,0,0,0,-1,1714,1310,0,0
497,-286,0,0,0,0,0,0,0,0,0,-1,1721,1310,0,0
504,-286,0,0,0,0,0,0,0,0,0,-1,1728,1310,0,0
511,-286,0,0,0,0,0,0,0,0,0,-1,1735,1310,0,0
518,-286,0,0,0,0,0,0,0,0,0,-1,1742,1310,0,0
525,-286,0,0,0,0,0,0,0,0,0,-1,1749,1310,0,0
532,-286,0,0,0,0,0,0,0,0,0,-1,1756,1310,0,0
539,-286,0,0,0,0,0,0,0,0,0,-1,1763,1310,0,0
546,-286,0,0,0,0,0,0,0,0,0,-1,1770,1310,0,0
553,-286,0,0,0,0,0,0,0,0,0,-1,1777,1310,0,0
560,-286,0,0,0,0,0,0,0,0,0,-1,1784,1310,0,0
567,-286,0,0,0,0,0,0,0,0,0,-1,1791,1310,0,0
574,-286,0,0,0,0,0,0,0,0,0,-1,1798,1310,0,0
581,-286,0,0,0,0,0,0,0,0,0,-1,1805,1310,0,0
588,-286,0,0,0,0,0,0,0,0,0,-1,1812,1310,0,0
595,-286,21.8285,2.89099,0,0,0,0,0,0,0,-1,1819,1310,21.8285,-2.89097
602,-286,21.5251,2.52173,0.0180562,0.00673671,0.0112683,0.0250063,-0.000213404,0.552668,0.0167425,0.0469791,1826,1310,21.5252,-2.52179
609,-286,21.5293,1.89502,0.00403265,-0.000635246,0.0149904,0.0168697,-0.0134723,0.70817,0.0175545,0.0427869,1833,1310,21.5293,-1.89502
616,-286,21.3925,1.66492,0,0,0,0,0,0,0,-1,1840,1310,21.3924,-1.66491
623,-286,20.7354,2.95129,-0.0145303,-0.00520835,0.015066,0.00590122,-0.0256398,0.935413,0.0193624,0.046555,1847,1310,20.7353,-2.95127
630,-286,19.8752,2.78589,-0.0198346,-0.00530893,0.0133956,0.00266602,-0.0278096,1.03381,0.0194893,0.0441056,1854,1310,19.8753,-2.78593
637,-286,19.4021,2.48657,0,0,0,0,0,0,0,-1,1861,1310,19.4021,-2.48658
644,-286,19.051,2.16736,0,0,0,0,0,0,0,-1,1868,1310,19.051,-2.1673
651,-286,18.1475,6.72192,0,0,0,0,0,0,0,-1,1875,1310,18.1474,-6.72191
658,-286,18.0909,6.53735,0,0,0,0,0,0,0,-1,1882,1310,18.091,-6.53731
665,-286,17.3005,6.11316,0,0,0,0,0,0,0,-1,1889,1310,17.3006,-6.11312
672,-286,17.1045,6.00537,-0.0213184,-0.00151198,0.00555657,-5.96223e-05,-0.0227708,1.31514,0.0151607,0.0307777,1896,1310,17.1045,-6.00539
679,-286,16.903,5.81677,-0.0172876,6.26755e-06,0.00442284,0.00107174,-0.0183531,1.3344,0.0126079,0.0213105,1903,1310,16.9029,-5.8168
686,-286,16.9141,5.61389,-0.0120054,0.000353494,0.00346119,0.0012568,-0.0129087,1.31551,0.00905386,0.0198322,1910,1310,16.9141,-5.61394
693,-286,16.8978,5.40918,-0.00757729,0.00063086,0.00228556,0.00122436,-0.00817079,1.31673,0.00589783,0.0154213,1917,1310,16.8979,-5.40918
700,-286,16.8995,5.20911,-0.00388472,0.00163824,0.00118796,0.00188292,-0.00412941,1.36767,0.00355107,0.0108886,1924,1310,16.8995,-5.20908
707,-286,16.9106,5.04004,-0.00100646,0.00297031,-4.3453e-05,0.00297078,-0.00100693,-1.55987,0.00238801,0.00868279,1931,1310,16.9106,-5.04
714,-286,16.9177,4.849,0.000857353,0.00576329,-0.000688852,0.00585818,0.000762465,-1.43391,0.00367774,0.00873844,1938,1310,16.9177,-4.849
721,-286,16.9365,4.6377,0.00270756,0.0097048,-0.00077825,0.00979031,0.00262205,-1.46136,0.00585205,0.0117326,1945,1310,16.9366,-4.63774
728,-286,16.9049,4.4541,0.00481736,0.0144198,-0.000774819,0.0144819,0.00475524,-1.4908,0.00852379,0.0133755,1952,1310,16.9049,-4.4541
735,-286,16.9213,4.28833,0.00735238,0.0202075,-0.00034616,0.0202168,0.00734306,-1.54389,0.0118169,0.013735,1959,1310,16.9213,-4.28838
742,-286,16.943,4.03821,0.0107689,0.0276601,0.000727455,0.0276913,0.0107376,1.52784,0.0161213,0.0281581,1966,1310,16.943,-4.03823
749,-286,17.0271,3.16077,0.0152401,0.0369746,0.00267013,0.0372978,0.0149169,1.45033,0.0216772,0.0451834,1973,1310,17.0271,-3.16074
756,-286,17.2124,2.30798,0,0,0,0,0,0,0,-1,1980,1310,17.2124,-2.30801
763,-286,18.1797,2.47522,0,0,0,0,0,0,0,-1,1987,1310,18.1797,-2.47524
770,-286,18.5909,2.68787,0,0,0,0,0,0,0,-1,1994,1310,18.5909,-2.68783
777,-286,0,0,0,0,0,0,0,0,0,-1,2001,1310,0,0
784,-286,0,0,0,0,0,0,0,0,0,-1,2008,1310,0,0
791,-286,0,0,0,0,0,0,0,0,0,-1,2015,1310,0,0
798,-286,0,0,0,0,0,0,0,0,0,-1,2022,1310,0,0
805,-286,0,0,0,0,0,0,0,0,0,-1,2029,1310,0,0
812,-286,0,0,0,0,0,0,0,0,0,-1,2036,1310,0,0
-700,-293,0,0,0,0,0,0,0,0,0,-1,524,1317,0,0
-693,-293,0,0,0,0,0,0,0,0,0,-1,531,1317,0,0
-686,-293,0,0,0,0,0,0,0,0,0,-1,538,1317,0,0
-679,-293,0,0,0,0,0,0,0,0,0,-1,545,1317,0,0
-672,-293,0,0,0,0,0,0,0,0,0,-1,552,1317,0,0
-665,-293,0,0,0,0,0,0,0,0,0,-1,559,1317,0,0
-658,-293,0,0,0,0,0,0,0,0,0,-1,566,1317,0,0
-651,-293,-5.72198,-2.12341,-0.0267686,0.12116,-0.00494197,0.121325,-0.0269335,-1.53744,0.0911965,0.0482016,573,1317,-5.722,2.12342
-644,-293,-5.97998,-1.71765,-0.0188564,0.111299,-0.000848838,0.111304,-0.0188619,-1.56427,0.0812236,0.0449959,580,1317,-5.98,1.71761
-637,-293,-6.4682,-1.17163,-0.0142814,0.097762,0.00127548,0.0977765,-0.0142959,1.55941,0.0704349,0.0409045,587,1317,-6.46818,1.17168
-630,-293,-6.77893,-0.793701,-0.0116266,0.083081,0.00219481,0.0831319,-0.0116775,1.54764,0.0596957,0.0407323,594,1317,-6.7789,0.793684
-623,-293,-7.25922,-0.162842,0,0,0,0,0,0,0,-1,601,1317,-7.25923,0.162869
-616,-293,-7.68481,0.204346,0,0,0,0,0,0,0,-1,608,1317,-7.68484,-0.204367
-609,-293,-8.38715,1.69092,0,0,0,0,0,0,0,-1,615,1317,-8.38713,-1.69091
-602,-293,-8.28333,1.9812,-0.00640221,0.0302903,0.00193607,0.0303922,-0.00650409,1.51823,0.0227417,0.0285926,622,1317,-8.28332,-1.98125
-595,-293,-8.2901,2.25159,-0.00455372,0.0205739,0.00184033,0.0207079,-0.00468779,1.49807,0.0156044,0.0145393,629,1317,-8.29009,-2.25157
-588,-293,-8.25946,2.45715,-0.00280444,0.0122174,0.00156258,0.0123783,-0.00296526,1.46824,0.00939784,0.0146922,636,1317,-8.25947,-2.45714
-581,-293,-8.26227,2.67688,-0.00224812,0.0058575,0.00105194,0.00599179,-0.00238241,1.44382,0.0049823,0.0167178,643,1317,-8.26226,-2.67693
-574,-293,-8.25702,2.91284,-0.00100654,0.00120949,0.000328584,0.00125719,-0.00105424,1.42665,0.00133622,0.0155829,650,1317,-8.25701,-2.91282
-567,-293,-8.26959,3.16162,7.11671e-05,-0.000289375,-0.000311036,0.000250397,-0.000468605,-0.522763,0.000421441,0.0154272,657,1317,-8.2696,-3.16161
-560,-293,-8.29248,3.39172,0.000707948,-0.00171163,-0.0010886,0.00112562,-0.0021293,-0.36636,0.00190878,0.0157713,664,1317,-8.29246,-3.3917
-553,-293,-8.27673,3.60657,-9.14347e-05,-0.00315404,-0.00157165,0.000571569,-0.00381704,-0.399201,0.00275505,0.0107491,671,1317,-8.27672,-3.60657
-546,-293,-8.26697,3.85693,-0.00299182,-0.0053884,-0.00180194,-0.00202611,-0.0063541,-0.491974,0.00374793,0.00965036,678,1317,-8.26694,-3.85688
-539,-293,-8.23114,4.08533,-0.00602421,-0.00800709,-0.00233323,-0.00448051,-0.00955079,-0.584496,0.00551765,0.0227582,685,1317,-8.23116,-4.08536
-532,-293,-8.12671,3.94739,-0.00883419,-0.0123426,-0.00378194,-0.00641942,-0.0147574,-0.568248,0.00854413,0.0478461,692,1317,-8.12672,-3.94739
-525,-293,-7.92993,3.77283,0,0,0,0,0,0,0,-1,699,1317,-7.92991,-3.77282
-518,-293,-12.2349,2.0022,0,0,0,0,0,0,0,-1,706,1317,-12.2349,-2.00224
-511,-293,-10.0718,1.38525,0,0,0,0,0,0,0,-1,713,1317,-10.0718,-1.3853
-504,-293,-10.1674,1.36621,0,0,0,0,0,0,0,-1,720,1317,-10.1674,-1.36619
-497,-293,-10.2943,1.21912,0,0,0,0,0,0,0,-1,727,1317,-10.2943,-1.21914
-490,-293,-11.7103,0.624146,0,0,0,0,0,0,0,-1,734,1317,-11.7103,-0.624093
-483,-293,-12.3591,1.34912,0,0,0,0,0,0,0,-1,741,1317,-12.3591,-1.34914
-476,-293,-11.3431,0.133301,0,0,0,0,0,0,0,-1,748,1317,-11.3431,-0.133249
-469,-293,0,0,0,0,0,0,0,0,0,-1,755,1317,0,0
-462,-293,0,0,0,0,0,0,0,0,0,-1,762,1317,0,0
-455,-293,0,0,0,0,0,0,0,0,0,-1,769,1317,0,0
-448,-293,0,0,0,0,0,0,0,0,0,-1,776,1317,0,0
-441,-293,0,0,0,0,0,0,0,0,0,-1,783,1317,0,0
-434,-293,0,0,0,0,0,0,0,0,0,-1,790,1317,0,0
-427,-293,0,0,0,0,0,0,0,0,0,-1,797,1317,0,0
-420,-293,0,0,0,0,0,0,0,0,0,-1,804,1317,0,0
-413,-293,0,0,0,0,0,0,0,0,0,-1,811,1317,0,0
-406,-293,0,0,0,0,0,0,0,0,0,-1,818,1317,0,0
-399,-293,0,0,0,0,0,0,0,0,0,-1,825,1317,0,0
-392,-293,0,0,0,0,0,0,0,0,0,-1,832,1317,0,0
-385,-293,0,0,0,0,0,0,0,0,0,-1,839,1317,0,0
-378,-293,0,0,0,0,0,0,0,0,0,-1,846,1317,0,0
-371,-293,0,0,0,0,0,0,0,0,0,-1,853,1317,0,0
-364,-293,0,0,0,0,0,0,0,0,0,-1,860,1317,0,0
-357,-293,0,0,0,0,0,0,0,0,0,-1,867,1317,0,0
-350,-293,0,0,0,0,0,0,0,0,0,-1,874,1317,0,0
-343,-293,0,0,0,0,0,0,0,0,0,-1,881,1317,0,0
-336,-293,0,0,0,0,0,0,0,0,0,-1,888,1317,0,0
-329,-293,0,0,0,0,0,0,0,0,0,-1,895,1317,0,0
-322,-293,0,0,0,0,0,0,0,0,0,-1,902,1317,0,0
-315,-293,0,0,0,0,0,0,0,0,0,-1,909,1317,0,0
-308,-293,0,0,0,0,0,0,0,0,0,-1,916,1317,0,0
-301,-293,0,0,0,0,0,0,0,0,0,-1,923,1317,0,0
-294,-293,0,0,0,0,0,0,0,0,0,-1,930,1317,0,0
-287,-293,0,0,0,0,0,0,0,0,0,-1,937,1317,0,0
-280,-293,0,0,0,0,0,0,0,0,0,-1,944,1317,0,0
-273,-293,0,0,0,0,0,0,0,0,0,-1,951,1317,0,0
-266,-293,0,0,0,0,0,0,0,0,0,-1,958,1317,0,0
-259,-293,0,0,0,0,0,0,0,0,0,-1,965,1317,0,0
-252,-293,0,0,0,0,0,0,0,0,0,-1,972,1317,0,0
-245,-293,0,0,0,0,0,0,0,0,0,-1,979,1317,0,0
-238,-293,0,0,0,0,0,0,0,0,0,-1,986,1317,0,0
-231,-293,0,0,0,0,0,0,0,0,0,-1,993,1317,0,0
-224,-293,0,0,0,0,0,0,0,0,0,-1,1000,1317,0,0
-217,-293,0,0,0,0,0,0,0,0,0,-1,1007,1317,0,0
-210,-293,0,0,0,0,0,0,0,0,0,-1,1014,1317,0,0
-203,-293,0,0,0,0,0,0,0,0,0,-1,1021,1317,0,0
-196,-293,0,0,0,0,0,0,0,0,0,-1,1028,1317,0,0
-189,-293,0,0,0,0,0,0,0,0,0,-1,1035,1317,0,0
-182,-293,0,0,0,0,0,0,0,0,0,-1,1042,1317,0,0
-175,-293,0,0,0,0,0,0,0,0,0,-1,1049,1317,0,0
-168,-293,0,0,0,0,0,0,0,0,0,-1,1056,1317,0,0
-161,-293,0,0,0,0,0,0,0,0,0,-1,1063,1317,0,0
-154,-293,0,0,0,0,0,0,0,0,0,-1,1070,1317,0,0
-147,-293,0,0,0,0,0,0,0,0,0,-1,1077,1317,0,0
-140,-293,0,0,0,0,0,0,0,0,0,-1,1084,1317,0,0
-133,-293,0,0,0,0,0,0,0,0,0,-1,1091,1317,0,0
-126,-293,0,0,0,0,0,0,0,0,0,-1,1098,1317,0,0
-119,-293,0,0,0,0,0,0,0,0,0,-1,1105,1317,0,0
-112,-293,0,0,0,0,0,0,0,0,0,-1,1112,1317,0,0
-105,-293,0,0,0,0,0,0,0,0,0,-1,1119,1317,0,0
-98,-293,0,0,0,0,0,0,0,0,0,-1,1126,1317,0,0
-91,-293,0,0,0,0,0,0,0,0,0,-1,1133,1317,0,0
-84,-293,0,0,0,0,0,0,0,0,0,-1,1140,1317,0,0
-77,-293,0,0,0,0,0,0,0,0,0,-1,1147,1317,0,0
-70,-293,0,0,0,0,0,0,0,0,0,-1,1154,1317,0,0
-63,-293,0,0,0,0,0,0,0,0,0,-1,1161,1317,0,0
-56,-293,0,0,0,0,0,0,0,0,0,-1,1168,1317,0,0
-49,-293,0,0,0,0,0,0,0,0,0,-1,1175,1317,0,0
-42,-293,0,0,0,0,0,0,0,0,0,-1,1182,1317,0,0
-35,-293,0,0,0,0,0,0,0,0,0,-1,1189,1317,0,0
-28,-293,0,0,0,0,0,0,0,0,0,-1,1196,1317,0,0
-21,-293,0,0,0,0,0,0,0,0,0,-1,1203,1317,0,0
-14,-293,0,0,0,0,0,0,0,0,0,-1,1210,1317,0,0
-7,-293,0,0,0,0,0,0,0,0,0,-1,1217,1317,0,0
0,-293,0,0,0,0,0,0,0,0,0,-1,1224,1317,0,0
7,-293,0,0,0,0,0,0,0,0,0,-1,1231,1317,0,0
14,-293,0,0,0,0,0,0,0,0,0,-1,1238,1317,0,0
21,-293,0,0,0,0,0,0,0,0,0,-1,1245,1317,0,0
28,-293,0,0,0,0,0,0,0,0,0,-1,1252,1317,0,0
35,-293,0,0,0,0,0,0,0,0,0,-1,1259,1317,0,0
42,-293,0,0,0,0,0,0,0,0,0,-1,1266,1317,0,0
49,-293,0,0,0,0,0,0,0,0,0,-1,1273,1317,0,0
56,-293,0,0,0,0,0,0,0,0,0,-1,1280,1317,0,0
63,-293,0,0,0,0,0,0,0,0,0,-1,1287,1317,0,0
70,-293,0,0,0,0,0,0,0,0,0,-1,1294,1317,0,0
77,-293,0,0,0,0,0,0,0,0,0,-1,1301,1317,0,0
84,-293,0,0,0,0,0,0,0,0,0,-1,1308,1317,0,0
91,-293,0,0,0,0,0,0,0,0,0,-1,1315,1317,0,0
98,-293,0,0,0,0,0,0,0,0,0,-1,1322,1317,0,0
105,-293,0,0,0,0,0,0,0,0,0,-1,1329,1317,0,0
112,-293,0,0,0,0,0,0,0,0,0,-1,1336,1317,0,0
119,-293,0,0,0,0,0,0,0,0,0,-1,1343,1317,0,0
126,-293,0,0,0,0,0,0,0,0,0,-1,1350,1317,0,0
133,-293,0,0,0,0,0,0,0,0,0,-1,1357,1317,0,0
140,-293,0,0,0,0,0,0,0,0,0,-1,1364,1317,0,0
147,-293,0,0,0,0,0,0,0,0,0,-1,1371,1317,0,0
154,-293,0,0,0,0,0,0,0,0,0,-1,1378,1317,0,0
161,-293,0,0,0,0,0,0,0,0,0,-1,1385,1317,0,0
168,-293,0,0,0,0,0,0,0,0,0,-1,1392,1317,0,0
175,-293,0,0,0,0,0,0,0,0,0,-1,1399,1317,0,0
182,-293,0,0,0,0,0,0,0,0,0,-1,1406,1317,0,0
189,-293,0,0,0,0,0,0,0,0,0,-1,1413,1317,0,0
196,-293,0,0,0,0,0,0,0,0,0,-1,1420,1317,0,0
203,-293,0,0,0,0,0,0,0,0,0,-1,1427,1317,0,0
210,-293,0,0,0,0,0,0,0,0,0,-1,1434,1317,0,0
217,-293,0,0,0,0,0,0,0,0,0,-1,1441,1317,0,0
224,-293,0,0,0,0,0,0,0,0,0,-1,1448,1317,0,0
231,-293,0,0,0,0,0,0,0,0,0,-1,1455,1317,0,0
238,-293,0,0,0,0,0,0,0,0,0,-1,1462,1317,0,0
245,-293,0,0,0,0,0,0,0,0,0,-1,1469,1317,0,0
252,-293,0,0,0,0,0,0,0,0,0,-1,1476,1317,0,0
259,-293,0,0,0,0,0,0,0,0,0,-1,1483,1317,0,0
266,-293,0,0,0,0,0,0,0,0,0,-1,1490,1317,0,0
273,-293,0,0,0,0,0,0,0,0,0,-1,1497,1317,0,0
280,-293,0,0,0,0,0,0,0,0,0,-1,1504,1317,0,0
287,-293,0,0,0,0,0,0,0,0,0,-1,1511,1317,0,0
294,-293,0,0,0,0,0,0,0,0,0,-1,1518,1317,0,0
301,-293,0,0,0,0,0,0,0,0,0,-1,1525,1317,0,0
308,-293,0,0,0,0,0,0,0,0,0,-1,1532,1317,0,0
315,-293,0,0,0,0,0,0,0,0,0,-1,1539,1317,0,0
322,-293,0,0,0,0,0,0,0,0,0,-1,1546,1317,0,0
329,-293,0,0,0,0,0,0,0,0,0,-1,1553,1317,0,0
336,-293,0,0,0,0,0,0,0,0,0,-1,1560,1317,0,0
343,-293,0,0,0,0,0,0,0,0,0,-1,1567,1317,0,0
350,-293,0,0,0,0,0,0,0,0,0,-1,1574,1317,0,0
357,-293,0,0,0,0,0,0,0,0,0,-1,1581,1317,0,0
364,-293,0,0,0,0,0,0,0,0,0,-1,1588,1317,0,0
371,-293,0,0,0,0,0,0,0,0,0,-1,1595,1317,0,0
378,-293,0,0,0,0,0,0,0,0,0,-1,1602,1317,0,0
385,-293,0,0,0,0,0,0,0,0,0,-1,1609,1317,0,0
392,-293,0,0,0,0,0,0,0,0,0,-1,1616,1317,0,0
399,-293,0,0,0,0,0,0,0,0,0,-1,1623,1317,0,0
406,-293,0,0,0,0,0,0,0,0,0,-1,1630,1317,0,0
413,-293,0,0,0,0,0,0,0,0,0,-1,1637,1317,0,0
420,-293,0,0,0,0,0,0,0,0,0,-1,1644,1317,0,0
427,-293,0,0,0,0,0,0,0,0,0,-1,1651,1317,0,0
434,-293,0,0,0,0,0,0,0,0,0,-1,1658,1317,0,0
441,-293,0,0,0,0,0,0,0,0,0,-1,1665,1317,0,0
448,-293,0,0,0,0,0,0,0,0,0,-1,1672,1317,0,0
455,-293,0,0,0,0,0,0,0,0,0,-1,1679,1317,0,0
462,-293,0,0,0,0,0,0,0,0,0,-1,1686,1317,0,0
469,-293,0,0,0,0,0,0,0,0,0,-1,1693,1317,0,0
476,-293,0,0,0,0,0,0,0,0,0,-1,1700,1317,0,0
483,-293,0,0,0,0,0,0,0,0,0,-1,1707,1317,0,0
490,-293,0,0,0,0,0,0,0,0,0,-1,1714,1317,0,0
497,-293,0,0,0,0,0,0,0,0,0,-1,1721,1317,0,0
504,-293,0,0,0,0,0,0,0,0,0,-1,1728,1317,0,0
511,-293,0,0,0,0,0,0,0,0,0,-1,1735,1317,0,0
518,-293,0,0,0,0,0,0,0,0,0,-1,1742,1317,0,0
525,-293,0,0,0,0,0,0,0,0,0,-1,1749,1317,0,0
532,-293,0,0,0,0,0,0,0,0,0,-1,1756,1317,0,0
539,-293,0,0,0,0,0,0,0,0,0,-1,1763,1317,0,0
546,-293,0,0,0,0,0,0,0,0,0,-1,1770,1317,0,0
553,-293,0,0,0,0,0,0,0,0,0,-1,1777,1317,0,0
560,-293,0,0,0,0,0,0,0,0,0,-1,1784,1317,0,0
567,-293,0,0,0,0,0,0,0,0,0,-1,1791,1317,0,0
574,-293,0,0,0,0,0,0,0,0,0,-1,1798,1317,0,0
581,-293,0,0,0,0,0,0,0,0,0,-1,1805,1317,0,0
588,-293,0,0,0,0,0,0,0,0,0,-1,1812,1317,0,0
595,-293,21.288,3.09021,0,0,0,0,0,0,0,-1,1819,1317,21.288,-3.09026
602,-293,21.6479,2.45862,0,0,0,0,0,0,0,-1,1826,1317,21.6479,-2.45865
609,-293,21.6176,1.31848,0,0,0,0,0,0,0,-1,1833,1317,21.6175,-1.31847
616,-293,20.3806,2.40735,0,0,0,0,0,0,0,-1,1840,1317,20.3806,-2.40732
623,-293,20.4144,3.42151,0,0,0,0,0,0,0,-1,1847,1317,20.4145,-3.42146
630,-293,19.3578,3.00073,0,0,0,0,0,0,0,-1,1854,1317,19.3578,-3.00077
637,-293,18.6764,2.03015,0,0,0,0,0,0,0,-1,1861,1317,18.6764,-2.0302
644,-293,18.5667,1.84424,0,0,0,0,0,0,0,-1,1868,1317,18.5667,-1.84425
651,-293,17.8425,6.45276,0,0,0,0,0,0,0,-1,1875,1317,17.8426,-6.45273
658,-293,17.4849,6.40479,0,0,0,0,0,0,0,-1,1882,1317,17.4849,-6.40482
665,-293,17.0685,6.15198,-0.0221394,-0.00327257,0.00706805,-0.000918422,-0.0244936,1.24928,0.0160317,0.0353512,1889,1317,17.0684,-6.15197
672,-293,16.7379,6.02869,-0.019775,-0.00215335,0.0052624,-0.000701455,-0.0212269,1.30159,0.0139234,0.0163057,1896,1317,16.738,-6.02867
679,-293,16.7262,5.80847,-0.0154991,-0.000626276,0.00395268,0.000358944,-0.0164843,1.32652,0.0111111,0.0120875,1903,1317,16.7262,-5.80848
686,-293,16.7531,5.61157,-0.010344,-6.67703e-05,0.00303748,0.00076384,-0.0111746,1.30387,0.00771694,0.0146514,1910,1317,16.7531,-5.61162
693,-293,16.736,5.41821,-0.00645611,0.000559388,0.00185984,0.00102194,-0.00691866,1.32704,0.00498811,0.0118294,1917,1317,16.736,-5.41816
700,-293,16.7102,5.20923,-0.00321125,0.00204907,0.00071398,0.00214425,-0.00330643,1.43826,0.00317071,0.0108387,1924,1317,16.7102,-5.20918
707,-293,16.7206,5.03638,-0.000632714,0.00402641,-0.000494973,0.00407841,-0.000684718,-1.46612,0.00297358,0.0120278,1931,1317,16.7206,-5.03633
714,-293,16.7275,4.85999,0.00117178,0.00737732,-0.00124056,0.00761613,0.000932968,-1.38062,0.00479677,0.00856422,1938,1317,16.7275,-4.85997
721,-293,16.7463,4.64746,0.00311438,0.0120254,-0.00145659,0.0122575,0.00288233,-1.41281,0.00740042,0.00998024,1945,1317,16.7463,-4.64741
728,-293,16.7379,4.43555,0.00544505,0.0176942,-0.00160296,0.0179005,0.00523875,-1.4428,0.0106269,0.0117076,1952,1317,16.7379,-4.4356
735,-293,16.744,4.23108,0.00854929,0.0249648,-0.00128199,0.0250643,0.00844977,-1.49333,0.0147246,0.0154726,1959,1317,16.7441,-4.23105
742,-293,16.6943,4.1261,0,0,0,0,0,0,0,-1,1966,1317,16.6944,-4.12609
749,-293,16.8612,2.95056,0,0,0,0,0,0,0,-1,1973,1317,16.8612,-2.95052
756,-293,17.0281,1.7749,0,0,0,0,0,0,0,-1,1980,1317,17.0281,-1.77496
763,-293,16.7382,2.78931,0,0,0,0,0,0,0,-1,1987,1317,16.7381,-2.78933
770,-293,18.6544,1.7428,0,0,0,0,0,0,0,-1,1994,1317,18.6544,-1.74274
777,-293,0,0,0,0,0,0,0,0,0,-1,2001,1317,0,0
784,-293,0,0,0,0,0,0,0,0,0,-1,2008,1317,0,0
791,-293,0,0,0,0,0,0,0,0,0,-1,2015,1317,0,0
798,-293,0,0,0,0,0,0,0,0,0,-1,2022,1317,0,0
805,-293,0,0,0,0,0,0,0,0,0,-1,2029,1317,0,0
812,-293,0,0,0,0,0,0,0,0,0,-1,2036,1317,0,0
-700,-300,0,0,0,0,0,0,0,0,0,-1,524,1324,0,0
-693,-300,0,0,0,0,0,0,0,0,0,-1,531,1324,0,0
-686,-300,0,0,0,0,0,0,0,0,0,-1,538,1324,0,0
-679,-300,0,0,0,0,0,0,0,0,0,-1,545,1324,0,0
-672,-300,0,0,0,0,0,0,0,0,0,-1,552,1324,0,0
-665,-300,0,0,0,0,0,0,0,0,0,-1,559,1324,0,0
-658,-300,0,0,0,0,0,0,0,0,0,-1,566,1324,0,0
-651,-300,-5.48572,-2.77991,-0.014133,0.12852,-0.00186973,0.128544,-0.0141575,-1.55769,0.0907842,0.0487485,573,1324,-5.48573,2.77996
-644,-300,-5.89404,-2.39197,-0.00405658,0.117924,0.00226547,0.117966,-0.00409863,1.55223,0.0800454,0.0476288,580,1324,-5.89407,2.39193
-637,-300,-6.24988,-2.25439,-0.000434923,0.103208,0.00397786,0.103361,-0.000587367,1.53249,0.0691037,0.0440477,587,1324,-6.24986,2.25436
-630,-300,-6.58173,-1.68506,-2.3677e-05,0.0876357,0.00438968,0.087855,-0.000242949,1.52089,0.0586512,0.0436568,594,1324,-6.58172,1.6851
-623,-300,-7.21381,-0.324707,0,0,0,0,0,0,0,-1,601,1324,-7.21378,0.324765
-616,-300,-7.62103,-0.0308838,0,0,0,0,0,0,0,-1,608,1324,-7.62105,0.030899
-609,-300,-8.12225,1.89233,0,0,0,0,0,0,0,-1,615,1324,-8.12225,-1.89237
-602,-300,-7.97839,1.94934,-0.00350235,0.0321312,0.00264215,0.0323261,-0.00369719,1.49718,0.0228829,0.0359851,622,1324,-7.97842,-1.9493
-595,-300,-8.07599,2.24902,-0.00276547,0.0217529,0.00232751,0.0219719,-0.00298447,1.47698,0.0157374,0.019353,629,1324,-8.07597,-2.24897
-588,-300,-8.04291,2.48804,-0.00194395,0.0126339,0.00186102,0.0128677,-0.00217778,1.44581,0.00938897,0.0195338,636,1324,-8.04293,-2.48804
-581,-300,-8.04169,2.71265,-0.00251457,0.00586913,0.00117499,0.00603069,-0.00267613,1.43415,0.00514975,0.0186537,643,1324,-8.04169,-2.71267
-574,-300,-8.0368,2.93506,-0.00182016,0.000968082,0.000259719,0.000992068,-0.00184414,1.4787,0.00166194,0.0150527,650,1324,-8.03681,-2.93507
-567,-300,-8.05939,3.16406,-0.000681408,-0.000403656,-0.000358383,-0.000158182,-0.000926882,-0.970243,0.000572525,0.0151991,657,1324,-8.05939,-3.16403
-560,-300,-8.07147,3.40601,6.00285e-05,-0.00186491,-0.00112232,0.000576057,-0.00238094,-0.430962,0.00181013,0.0134731,664,1324,-8.0715,-3.40595
-553,-300,-8.0462,3.62646,-0.0004249,-0.00381913,-0.00162991,0.000231028,-0.00447506,-0.382601,0.00306329,0.00968806,671,1324,-8.0462,-3.62641
-546,-300,-8.0412,3.84753,-0.00291949,-0.00691838,-0.00206717,-0.00204301,-0.00779486,-0.401025,0.00466709,0.00792513,678,1324,-8.04117,-3.84755
-539,-300,-8.02277,4.08044,-0.00563621,-0.0107258,-0.00277628,-0.00441489,-0.0119472,-0.414435,0.00697553,0.0138582,685,1324,-8.02277,-4.08048
-532,-300,-8.18488,4.16614,-0.00811569,-0.0167173,-0.00453927,-0.00616334,-0.0186697,-0.406183,0.0109843,0.0349448,692,1324,-8.18486,-4.16612
-525,-300,-8.35541,4.13916,0,0,0,0,0,0,0,-1,699,1324,-8.3554,-4.13922
-518,-300,-10.7194,1.948,0,0,0,0,0,0,0,-1,706,1324,-10.7194,-1.94801
-511,-300,-10.7047,1.87549,0,0,0,0,0,0,0,-1,713,1324,-10.7046,-1.87548
-504,-300,-10.8234,1.79138,-0.0207764,-0.0461295,-0.0118824,-0.016078,-0.0508278,-0.376537,0.0299982,0.0447719,720,1324,-10.8234,-1.79143
-497,-300,-10.8891,1.70959,-0.0236956,-0.0540626,-0.0141033,-0.0181561,-0.0596021,-0.374266,0.0352761,0.0433322,727,1324,-10.8891,-1.70964
-490,-300,-13.5217,1.43018,0,0,0,0,0,0,0,-1,734,1324,-13.5217,-1.4302
-483,-300,-12.8365,1.04858,0,0,0,0,0,0,0,-1,741,1324,-12.8365,-1.04862
-476,-300,-12.5635,1.01038,0,0,0,0,0,0,0,-1,748,1324,-12.5635,-1.01043
-469,-300,0,0,0,0,0,0,0,0,0,-1,755,1324,0,0
-462,-300,0,0,0,0,0,0,0,0,0,-1,762,1324,0,0
-455,-300,0,0,0,0,0,0,0,0,0,-1,769,1324,0,0
-448,-300,0,0,0,0,0,0,0,0,0,-1,776,1324,0,0
-441,-300,0,0,0,0,0,0,0,0,0,-1,783,1324,0,0
-434,-300,0,0,0,0,0,0,0,0,0,-1,790,1324,0,0
-427,-300,0,0,0,0,0,0,0,0,0,-1,797,1324,0,0
-420,-300,0,0,0,0,0,0,0,0,0,-1,804,1324,0,0
-413,-300,0,0,0,0,0,0,0,0,0,-1,811,1324,0,0
-406,-300,0,0,0,0,0,0,0,0,0,-1,818,1324,0,0
-399,-300,0,0,0,0,0,0,0,0,0,-1,825,1324,0,0
-392,-300,0,0,0,0,0,0,0,0,0,-1,832,1324,0,0
-385,-300,0,0,0,0,0,0,0,0,0,-1,839,1324,0,0
-378,-300,0,0,0,0,0,0,0,0,0,-1,846,1324,0,0
-371,-300,0,0,0,0,0,0,0,0,0,-1,853,1324,0,0
-364,-300,0,0,0,0,0,0,0,0,0,-1,860,1324,0,0
-357,-300,0,0,0,0,0,0,0,0,0,-1,867,1324,0,0
-350,-300,0,0,0,0,0,0,0,0,0,-1,874,1324,0,0
-343,-300,0,0,0,0,0,0,0,0,0,-1,881,1324,0,0
-336,-300,0,0,0,0,0,0,0,0,0,-1,888,1324,0,0
-329,-300,0,0,0,0,0,0,0,0,0,-1,895,1324,0,0
-322,-300,0,0,0,0,0,0,0,0,0,-1,902,1324,0,0
-315,-300,0,0,0,0,0,0,0,0,0,-1,909,1324,0,0
-308,-300,0,0,0,0,0,0,0,0,0,-1,916,1324,0,0
-301,-300,0,0,0,0,0,0,0,0,0,-1,923,1324,0,0
-294,-300,0,0,0,0,0,0,0,0,0,-1,930,1324,0,0
-287,-300,0,0,0,0,0,0,0,0,0,-1,937,1324,0,0
-280,-300,0,0,0,0,0,0,0,0,0,-1,944,1324,0,0
-273,-300,0,0,0,0,0,0,0,0,0,-1,951,1324,0,0
-266,-300,0,0,0,0,0,0,0,0,0,-1,958,1324,0,0
-259,-300,0,0,0,0,0,0,0,0,0,-1,965,1324,0,0
-252,-300,0,0,0,0,0,0,0,0,0,-1,972,1324,0,0
-245,-300,0,0,0,0,0,0,0,0,0,-1,979,1324,0,0
-238,-300,0,0,0,0,0,0,0,0,0,-1,986,1324,0,0
-231,-300,0,0,0,0,0,0,0,0,0,-1,993,1324,0,0
-224,-300,0,0,0,0,0,0,0,0,0,-1,1000,1324,0,0
-217,-300,0,0,0,0,0,0,0,0,0,-1,1007,1324,0,0
-210,-300,0,0,0,0,0,0,0,0,0,-1,1014,1324,0,0
-203,-300,0,0,0,0,0,0,0,0,0,-1,1021,1324,0,0
-196,-300,0,0,0,0,0,0,0,0,0,-1,1028,1324,0,0
-189,-300,0,0,0,0,0,0,0,0,0,-1,1035,1324,0,0
-182,-300,0,0,0,0,0,0,0,0,0,-1,1042,1324,0,0
-175,-300,0,0,0,0,0,0,0,0,0,-1,1049,1324,0,0
-168,-300,0,0,0,0,0,0,0,0,0,-1,1056,1324,0,0
-161,-300,0,0,0,0,0,0,0,0,0,-1,1063,1324,0,0
-154,-300,0,0,0,0,0,0,0,0,0,-1,1070,1324,0,0
-147,-300,0,0,0,0,0,0,0,0,0,-1,1077,1324,0,0
-140,-300,0,0,0,0,0,0,0,0,0,-1,1084,1324,0,0
-133,-300,0,0,0,0,0,0,0,0,0,-1,1091,1324,0,0
-126,-300,0,0,0,0,0,0,0,0,0,-1,1098,1324,0,0
-119,-300,0,0,0,0,0,0,0,0,0,-1,1105,1324,0,0
-112,-300,0,0,0,0,0,0,0,0,0,-1,1112,1324,0,0
-105,-300,0,0,0,0,0,0,0,0,0,-1,1119,1324,0,0
-98,-300,0,0,0,0,0,0,0,0,0,-1,1126,1324,0,0
-91,-300,0,0,0,0,0,0,0,0,0,-1,1133,1324,0,0
-84,-300,0,0,0,0,0,0,0,0,0,-1,1140,1324,0,0
-77,-300,0,0,0,0,0,0,0,0,0,-1,1147,1324,0,0
-70,-300,0,0,0,0,0,0,0,0,0,-1,1154,1324,0,0
-63,-300,0,0,0,0,0,0,0,0,0,-1,1161,1324,0,0
-56,-300,0,0,0,0,0,0,0,0,0,-1,1168,1324,0,0
-49,-300,0,0,0,0,0,0,0,0,0,-1,1175,1324,0,0
-42,-300,0,0,0,0,0,0,0,0,0,-1,1182,1324,0,0
-35,-300,0,0,0,0,0,0,0,0,0,-1,1189,1324,0,0
-28,-300,0,0,0,0,0,0,0,0,0,-1,1196,1324,0,0
-21,-300,0,0,0,0,0,0,0,0,0,-1,1203,1324,0,0
-14,-300,0,0,0,0,0,0,0,0,0,-1,1210,1324,0,0
-7,-300,0,0,0,0,0,0,0,0,0,-1,1217,1324,0,0
0,-300,0,0,0,0,0,0,0,0,0,-1,1224,1324,0,0
7,-300,0,0,0,0,0,0,0,0,0,-1,1231,1324,0,0
14,-300,0,0,0,0,0,0,0,0,0,-1,1238,1324,0,0
21,-300,0,0,0,0,0,0,0,0,0,-1,1245,1324,0,0
28,-300,0,0,0,0,0,0,0,0,0,-1,1252,1324,0,0
35,-300,0,0,0,0,0,0,0,0,0,-1,1259,1324,0,0
42,-300,0,0,0,0,0,0,0,0,0,-1,1266,1324,0,0
49,-300,0,0,0,0,0,0,0,0,0,-1,1273,1324,0,0
56,-300,0,0,0,0,0,0,0,0,0,-1,1280,1324,0,0
63,-300,0,0,0,0,0,0,0,0,0,-1,1287,1324,0,0
70,-300,0,0,0,0,0,0,0,0,0,-1,1294,1324,0,0
77,-300,0,0,0,0,0,0,0,0,0,-1,1301,1324,0,0
84,-300,0,0,0,0,0,0,0,0,0,-1,1308,1324,0,0
91,-300,0,0,0,0,0,0,0,0,0,-1,1315,1324,0,0
98,-300,0,0,0,0,0,0,0,0,0,-1,1322,1324,0,0
105,-300,0,0,0,0,0,0,0,0,0,-1,1329,1324,0,0
112,-300,0,0,0,0,0,0,0,0,0,-1,1336,1324,0,0
119,-300,0,0,0,0,0,0,0,0,0,-1,1343,1324,0,0
126,-300,0,0,0,0,0,0,0,0,0,-1,1350,1324,0,0
133,-300,0,0,0,0,0,0,0,0,0,-1,1357,1324,0,0
140,-300,0,0,0,0,0,0,0,0,0,-1,1364,1324,0,0
147,-300,0,0,0,0,0,0,0,0,0,-1,1371,1324,0,0
154,-300,0,0,0,0,0,0,0,0,0,-1,1378,1324,0,0
161,-300,0,0,0,0,0,0,0,0,0,-1,1385,1324,0,0
168,-300,0,0,0,0,0,0,0,0,0,-1,1392,1324,0,0
175,-300,0,0,0,0,0,0,0,0,0,-1,1399,1324,0,0
182,-300,0,0,0,0,0,0,0,0,0,-1,1406,1324,0,0
189,-300,0,0,0,0,0,0,0,0,0,-1,1413,1324,0,0
196,-300,0,0,0,0,0,0,0,0,0,-1,1420,1324,0,0
203,-300,0,0,0,0,0,0,0,0,0,-1,1427,1324,0,0
210,-300,0,0,0,0,0,0,0,0,0,-1,1434,1324,0,0
217,-300,0,0,0,0,0,0,0,0,0,-1,1441,1324,0,0
224,-300,0,0,0,0,0,0,0,0,0,-1,1448,1324,0,0
231,-300,0,0,0,0,0,0,0,0,0,-1,1455,1324,0,0
238,-300,0,0,0,0,0,0,0,0,0,-1,1462,1324,0,0
245,-300,0,0,0,0,0,0,0,0,0,-1,1469,1324,0,0
252,-300,0,0,0,0,0,0,0,0,0,-1,1476,1324,0,0
259,-300,0,0,0,0,0,0,0,0,0,-1,1483,1324,0,0
266,-300,0,0,0,0,0,0,0,0,0,-1,1490,1324,0,0
273,-300,0,0,0,0,0,0,0,0,0,-1,1497,1324,0,0
280,-300,0,0,0,0,0,0,0,0,0,-1,1504,1324,0,0
287,-300,0,0,0,0,0,0,0,0,0,-1,1511,1324,0,0
294,-300,0,0,0,0,0,0,0,0,0,-1,1518,1324,0,0
301,-300,0,0,0,0,0,0,0,0,0,-1,1525,1324,0,0
308,-300,0,0,0,0,0,0,0,0,0,-1,1532,1324,0,0
315,-300,0,0,0,0,0,0,0,0,0,-1,1539,1324,0,0
322,-300,0,0,0,0,0,0,0,0,0,-1,1546,1324,0,0
329,-300,0,0,0,0,0,0,0,0,0,-1,1553,1324,0,0
336,-300,0,0,0,0,0,0,0,0,0,-1,1560,1324,0,0
343,-300,0,0,0,0,0,0,0,0,0,-1,1567,1324,0,0
350,-300,0,0,0,0,0,0,0,0,0,-1,1574,1324,0,0
357,-300,0,0,0,0,0,0,0,0,0,-1,1581,1324,0,0
364,-300,0,0,0,0,0,0,0,0,0,-1,1588,1324,0,0
371,-300,0,0,0,0,0,0,0,0,0,-1,1595,1324,0,0
378,-300,0,0,0,0,0,0,0,0,0,-1,1602,1324,0,0
385,-300,0,0,0,0,0,0,0,0,0,-1,1609,1324,0,0
392,-300,0,0,0,0,0,0,0,0,0,-1,1616,1324,0,0
399,-300,0,0,0,0,0,0,0,0,0,-1,1623,1324,0,0
406,-300,0,0,0,0,0,0,0,0,0,-1,1630,1324,0,0
413,-300,0,0,0,0,0,0,0,0,0,-1,1637,1324,0,0
420,-300,0,0,0,0,0,0,0,0,0,-1,1644,1324,0,0
427,-300,0,0,0,0,0,0,0,0,0,-1,1651,1324,0,0
434,-300,0,0,0,0,0,0,0,0,0,-1,1658,1324,0,0
441,-300,0,0,0,0,0,0,0,0,0,-1,1665,1324,0,0
448,-300,0,0,0,0,0,0,0,0,0,-1,1672,1324,0,0
455,-300,0,0,0,0,0,0,0,0,0,-1,1679,1324,0,0
462,-300,0,0,0,0,0,0,0,0,0,-1,1686,1324,0,0
469,-300,0,0,0,0,0,0,0,0,0,-1,1693,1324,0,0
476,-300,0,0,0,0,0,0,0,0,0,-1,1700,1324,0,0
483,-300,0,0,0,0,0,0,0,0,0,-1,1707,1324,0,0
490,-300,0,0,0,0,0,0,0,0,0,-1,1714,1324,0,0
497,-300,0,0,0,0,0,0,0,0,0,-1,1721,1324,0,0
504,-300,0,0,0,0,0,0,0,0,0,-1,1728,1324,0,0
511,-300,0,0,0,0,0,0,0,0,0,-1,1735,1324,0,0
518,-300,0,0,0,0,0,0,0,0,0,-1,1742,1324,0,0
525,-300,0,0,0,0,0,0,0,0,0,-1,1749,1324,0,0
532,-300,0,0,0,0,0,0,0,0,0,-1,1756,1324,0,0
539,-300,0,0,0,0,0,0,0,0,0,-1,1763,1324,0,0
546,-300,0,0,0,0,0,0,0,0,0,-1,1770,1324,0,0
553,-300,0,0,0,0,0,0,0,0,0,-1,1777,1324,0,0
560,-300,0,0,0,0,0,0,0,0,0,-1,1784,1324,0,0
567,-300,0,0,0,0,0,0,0,0,0,-1,1791,1324,0,0
574,-300,0,0,0,0,0,0,0,0,0,-1,1798,1324,0,0
581,-300,0,0,0,0,0,0,0,0,0,-1,1805,1324,0,0
588,-300,21.0886,2.99512,0,0,0,0,0,0,0,-1,1812,1324,21.0886,-2.99509
595,-300,21.3047,3.0918,0,0,0,0,0,0,0,-1,1819,1324,21.3047,-3.09181
602,-300,22.0521,2.84546,0,0,0,0,0,0,0,-1,1826,1324,22.0521,-2.84545
609,-300,19.9344,1.71851,0,0,0,0,0,0,0,-1,1833,1324,19.9345,-1.71849
616,-300,20.0914,2.61145,0,0,0,0,0,0,0,-1,1840,1324,20.0914,-2.61146
623,-300,20.1372,3.6322,0,0,0,0,0,0,0,-1,1847,1324,20.1372,-3.63221
630,-300,20.183,4.65295,0,0,0,0,0,0,0,-1,1854,1324,20.183,-4.65296
637,-300,20.7032,3.1377,0,0,0,0,0,0,0,-1,1861,1324,20.7032,-3.1377
644,-300,17.8668,1.66101,0,0,0,0,0,0,0,-1,1868,1324,17.8668,-1.66097
651,-300,16.8491,5.55066,0,0,0,0,0,0,0,-1,1875,1324,16.8491,-5.55067
658,-300,16.8884,6.31555,0,0,0,0,0,0,0,-1,1882,1324,16.8884,-6.31558
665,-300,16.5947,6.22913,-0.0200183,-0.00359976,0.00713971,-0.000929342,-0.0226887,1.21288,0.0148257,0.0285454,1889,1324,16.5948,-6.22908
672,-300,16.5044,6.0321,-0.017431,-0.00247242,0.00500891,-0.000950105,-0.0189533,1.27575,0.012331,0.0106441,1896,1324,16.5044,-6.03214
679,-300,16.5341,5.79834,-0.0132494,-0.00110866,0.003485,-0.000179416,-0.0141786,1.31022,0.0093932,0.0114099,1903,1324,16.534,-5.79837
686,-300,16.5565,5.60913,-0.00858928,-0.000368818,0.00258727,0.000377694,-0.00933579,1.28989,0.0063535,0.0119461,1910,1324,16.5565,-5.60914
693,-300,16.5394,5.42529,-0.00537564,0.000591657,0.00139463,0.000901509,-0.00568549,1.35217,0.00412381,0.0106046,1917,1324,16.5394,-5.42523
700,-300,16.5238,5.22351,-0.00263119,0.00253868,0.000217775,0.00254784,-0.00264035,1.52877,0.00299556,0.0123287,1924,1324,16.5238,-5.22346
707,-300,16.5416,5.01001,-0.000344637,0.00518299,-0.000964309,0.00534639,-0.000508033,-1.40295,0.00374511,0.0097166,1931,1324,16.5416,-5.01002
714,-300,16.5374,4.82703,0.00142796,0.00914291,-0.00181693,0.0095494,0.00102147,-1.3507,0.00605456,0.0116921,1938,1324,16.5373,-4.82703
721,-300,16.5533,4.64368,0.00347564,0.0146311,-0.00219817,0.0150486,0.00305812,-1.38309,0.00918436,0.0125357,1945,1324,16.5533,-4.64373
728,-300,16.5745,4.42578,0.00606979,0.0214416,-0.00254648,0.0218525,0.00565893,-1.41083,0.0130961,0.0106911,1952,1324,16.5745,-4.42581
735,-300,16.4777,4.29297,0.00971008,0.0303886,-0.00248606,0.0306833,0.0094154,-1.45281,0.0181502,0.0172437,1959,1324,16.4777,-4.293
742,-300,16.4279,4.11145,0.0148429,0.0419244,-0.00177788,0.0420406,0.0147267,-1.50552,0.0246321,0.031468,1966,1324,16.4279,-4.11149
749,-300,16.7355,2.95496,0,0,0,0,0,0,0,-1,1973,1324,16.7354,-2.955
756,-300,16.8783,2.18323,0,0,0,0,0,0,0,-1,1980,1324,16.8782,-2.18318
763,-300,16.283,3.80542,0,0,0,0,0,0,0,-1,1987,1324,16.283,-3.80545
770,-300,16.4082,5.24438,0,0,0,0,0,0,0,-1,1994,1324,16.4082,-5.24439
777,-300,0,0,0,0,0,0,0,0,0,-1,2001,1324,0,0
784,-300,0,0,0,0,0,0,0,0,0,-1,2008,1324,0,0
791,-300,0,0,0,0,0,0,0,0,0,-1,2015,1324,0,0
798,-300,0,0,0,0,0,0,0,0,0,-1,2022,1324,0,0
805,-300,0,0,0,0,0,0,0,0,0,-1,2029,1324,0,0
812,-300,0,0,0,0,0,0,0,0,0,-1,2036,1324,0,0
-700,-307,0,0,0,0,0,0,0,0,0,-1,524,1331,0,0
-693,-307,0,0,0,0,0,0,0,0,0,-1,531,1331,0,0
-686,-307,0,0,0,0,0,0,0,0,0,-1,538,1331,0,0
-679,-307,0,0,0,0,0,0,0,0,0,-1,545,1331,0,0
-672,-307,0,0,0,0,0,0,0,0,0,-1,552,1331,0,0
-665,-307,0,0,0,0,0,0,0,0,0,-1,559,1331,0,0
-658,-307,0,0,0,0,0,0,0,0,0,-1,566,1331,0,0
-651,-307,-5.08685,-3.48474,0.0113852,0.132557,0.000389204,0.132559,0.011384,1.56758,0.0848327,0.0498497,573,1331,-5.08688,3.48473
-644,-307,-5.3916,-3.59741,0.0220399,0.120482,0.00457396,0.120694,0.0218278,1.52447,0.074264,0.0464137,580,1331,-5.39161,3.59736
-637,-307,-5.64215,-4.00146,0,0,0,0,0,0,0,-1,587,1331,-5.64213,4.00144
-630,-307,-5.95123,-2.84717,0.0184089,0.0885912,0.00567363,0.0890469,0.0179532,1.49065,0.0543773,0.0438595,594,1331,-5.9512,2.8472
-623,-307,-6.63507,-1.27234,0,0,0,0,0,0,0,-1,601,1331,-6.63507,1.27238
-616,-307,-7.27435,0.14856,0,0,0,0,0,0,0,-1,608,1331,-7.27435,-0.148526
-609,-307,-7.5896,1.33325,0,0,0,0,0,0,0,-1,615,1331,-7.58958,-1.3333
-602,-307,-7.76129,1.6344,0.0016978,0.0324741,0.0028117,0.0327289,0.00144304,1.48043,0.0213545,0.0359307,622,1331,-7.76129,-1.63435
-595,-307,-7.85718,2.25159,0.000670773,0.0216598,0.00236963,0.021924,0.000406571,1.45976,0.0144824,0.0193477,629,1331,-7.85718,-2.25161
-588,-307,-7.80646,2.49792,4.30836e-05,0.0120428,0.00178582,0.012303,-0.000217046,1.42615,0.00827527,0.0180448,636,1331,-7.80648,-2.49798
-581,-307,-7.7829,2.72534,-0.00210995,0.00515226,0.00100796,0.00528956,-0.00224725,1.43541,0.00446799,0.0155602,643,1331,-7.78291,-2.72532
-574,-307,-7.81433,2.94287,-0.0022491,0.000306777,6.81169e-07,0.000306777,-0.0022491,1.57053,0.00161142,0.0127868,650,1331,-7.81434,-2.94286
-567,-307,-7.82208,3.1687,-0.00115298,-0.00070168,-0.000483837,-0.00039346,-0.0014612,-1.00359,0.000873049,0.0122575,657,1331,-7.82208,-3.16871
-560,-307,-7.80548,3.4071,-0.000472349,-0.00190898,-0.00112299,0.000142411,-0.00252374,-0.500868,0.00173192,0.0125321,664,1331,-7.80549,-3.40707
-553,-307,-7.81311,3.62817,-0.000815904,-0.00395441,-0.00155281,-0.000177493,-0.00459282,-0.390066,0.00300447,0.0105797,671,1331,-7.81311,-3.62822
-546,-307,-7.82416,3.8446,-0.00292549,-0.00744737,-0.00209749,-0.00210239,-0.00827048,-0.373957,0.00496356,0.00941633,678,1331,-7.82414,-3.84459
-539,-307,-7.8114,4.08862,-0.00536518,-0.0119769,-0.00290087,-0.00427289,-0.0130692,-0.360122,0.00769466,0.01136,685,1331,-7.81138,-4.08858
-532,-307,-7.77899,4.26062,-0.00755635,-0.0191262,-0.00485224,-0.00579081,-0.0208917,-0.348971,0.0124547,0.0296503,692,1331,-7.77897,-4.26057
-525,-307,-7.88013,4.43115,0,0,0,0,0,0,0,-1,699,1331,-7.88011,-4.43121
-518,-307,-8.04352,4.42493,0,0,0,0,0,0,0,-1,706,1331,-8.04352,-4.42488
-511,-307,-11.0256,2.38391,0,0,0,0,0,0,0,-1,713,1331,-11.0255,-2.38387
-504,-307,-11.2647,2.33118,-0.0190583,-0.0571086,-0.0136175,-0.014687,-0.0614798,-0.310613,0.0370736,0.0439047,720,1331,-11.2647,-2.33115
-497,-307,-11.4005,2.43311,-0.0216048,-0.0676795,-0.0161991,-0.0164796,-0.0728047,-0.306424,0.0440823,0.0479359,727,1331,-11.4004,-2.43307
-490,-307,-13.4395,2.09045,0,0,0,0,0,0,0,-1,734,1331,-13.4395,-2.09039
-483,-307,-12.6616,1.67786,-0.0241248,-0.0899604,-0.0227686,-0.0170177,-0.0970675,-0.302561,0.0598511,0.044222,741,1331,-12.6616,-1.6779
-476,-307,-12.2773,1.3584,-0.0213187,-0.102168,-0.0283098,-0.0123915,-0.111095,-0.305467,0.0702978,0.0461876,748,1331,-12.2773,-1.35835
-469,-307,-12.7632,1.31787,0,0,0,0,0,0,0,-1,755,1331,-12.7632,-1.31793
-462,-307,0,0,0,0,0,0,0,0,0,-1,762,1331,0,0
-455,-307,0,0,0,0,0,0,0,0,0,-1,769,1331,0,0
-448,-307,0,0,0,0,0,0,0,0,0,-1,776,1331,0,0
-441,-307,0,0,0,0,0,0,0,0,0,-1,783,1331,0,0
-434,-307,0,0,0,0,0,0,0,0,0,-1,790,1331,0,0
-427,-307,0,0,0,0,0,0,0,0,0,-1,797,1331,0,0
-420,-307,0,0,0,0,0,0,0,0,0,-1,804,1331,0,0
-413,-307,0,0,0,0,0,0,0,0,0,-1,811,1331,0,0
-406,-307,0,0,0,0,0,0,0,0,0,-1,818,1331,0,0
-399,-307,0,0,0,0,0,0,0,0,0,-1,825,1331,0,0
-392,-307,0,0,0,0,0,0,0,0,0,-1,832,1331,0,0
-385,-307,0,0,0,0,0,0,0,0,0,-1,839,1331,0,0
-378,-307,0,0,0,0,0,0,0,0,0,-1,846,1331,0,0
-371,-307,0,0,0,0,0,0,0,0,0,-1,853,1331,0,0
-364,-307,0,0,0,0,0,0,0,0,0,-1,860,1331,0,0
-357,-307,0,0,0,0,0,0,0,0,0,-1,867,1331,0,0
-350,-307,0,0,0,0,0,0,0,0,0,-1,874,1331,0,0
-343,-307,0,0,0,0,0,0,0,0,0,-1,881,1331,0,0
-336,-307,0,0,0,0,0,0,0,0,0,-1,888,1331,0,0
-329,-307,0,0,0,0,0,0,0,0,0,-1,895,1331,0,0
-322,-307,0,0,0,0,0,0,0,0,0,-1,902,1331,0,0
-315,-307,0,0,0,0,0,0,0,0,0,-1,909,1331,0,0
-308,-307,0,0,0,0,0,0,0,0,0,-1,916,1331,0,0
-301,-307,0,0,0,0,0,0,0,0,0,-1,923,1331,0,0
-294,-307,0,0,0,0,0,0,0,0,0,-1,930,1331,0,0
-287,-307,0,0,0,0,0,0,0,0,0,-1,937,1331,0,0
-280,-307,0,0,0,0,0,0,0,0,0,-1,944,1331,0,0
-273,-307,0,0,0,0,0,0,0,0,0,-1,951,1331,0,0
-266,-307,0,0,0,0,0,0,0,0,0,-1,958,1331,0,0
-259,-307,0,0,0,0,0,0,0,0,0,-1,965,1331,0,0
-252,-307,0,0,0,0,0,0,0,0,0,-1,972,1331,0,0
-245,-307,0,0,0,0,0,0,0,0,0,-1,979,1331,0,0
-238,-307,0,0,0,0,0,0,0,0,0,-1,986,1331,0,0
-231,-307,0,0,0,0,0,0,0,0,0,-1,993,1331,0,0
-224,-307,0,0,0,0,0,0,0,0,0,-1,1000,1331,0,0
-217,-307,0,0,0,0,0,0,0,0,0,-1,1007,1331,0,0
-210,-307,0,0,0,0,0,0,0,0,0,-1,1014,1331,0,0
-203,-307,0,0,0,0,0,0,0,0,0,-1,1021,1331,0,0
-196,-307,0,0,0,0,0,0,0,0,0,-1,1028,1331,0,0
-189,-307,0,0,0,0,0,0,0,0,0,-1,1035,1331,0,0
-182,-307,0,0,0,0,0,0,0,0,0,-1,1042,1331,0,0
-175,-307,0,0,0,0,0,0,0,0,0,-1,1049,1331,0,0
-168,-307,0,0,0,0,0,0,0,0,0,-1,1056,1331,0,0
-161,-307,0,0,0,0,0,0,0,0,0,-1,1063,1331,0,0
-154,-307,0,0,0,0,0,0,0,0,0,-1,1070,1331,0,0
-147,-307,0,0,0,0,0,0,0,0,0,-1,1077,1331,0,0
-140,-307,0,0,0,0,0,0,0,0,0,-1,1084,1331,0,0
-133,-307,0,0,0,0,0,0,0,0,0,-1,1091,1331,0,0
-126,-307,0,0,0,0,0,0,0,0,0,-1,1098,1331,0,0
-119,-307,0,0,0,0,0,0,0,0,0,-1,1105,1331,0,0
-112,-307,0,0,0,0,0,0,0,0,0,-1,1112,1331,0,0
-105,-307,0,0,0,0,0,0,0,0,0,-1,1119,1331,0,0
-98,-307,0,0,0,0,0,0,0,0,0,-1,1126,1331,0,0
-91,-307,0,0,0,0,0,0,0,0,0,-1,1133,1331,0,0
-84,-307,0,0,0,0,0,0,0,0,0,-1,1140,1331,0,0
-77,-307,0,0,0,0,0,0,0,0,0,-1,1147,1331,0,0
-70,-307,0,0,0,0,0,0,0,0,0,-1,1154,1331,0,0
-63,-307,0,0,0,0,0,0,0,0,0,-1,1161,1331,0,0
-56,-307,0,0,0,0,0,0,0,0,0,-1,1168,1331,0,0
-49,-307,0,0,0,0,0,0,0,0,0,-1,1175,1331,0,0
-42,-307,0,0,0,0,0,0,0,0,0,-1,1182,1331,0,0
-35,-307,0,0,0,0,0,0,0,0,0,-1,1189,1331,0,0
-28,-307,0,0,0,0,0,0,0,0,0,-1,1196,1331,0,0
-21,-307,0,0,0,0,0,0,0,0,0,-1,1203,1331,0,0
-14,-307,0,0,0,0,0,0,0,0,0,-1,1210,1331,0,0
-7,-307,0,0,0,0,0,0,0,0,0,-1,1217,1331,0,0
0,-307,0,0,0,0,0,0,0,0,0,-1,1224,1331,0,0
7,-307,0,0,0,0,0,0,0,0,0,-1,1231,1331,0,0
14,-307,0,0,0,0,0,0,0,0,0,-1,1238,1331,0,0
21,-307,0,0,0,0,0,0,0,0,0,-1,1245,1331,0,0
28,-307,0,0,0,0,0,0,0,0,0,-1,1252,1331,0,0
35,-307,0,0,0,0,0,0,0,0,0,-1,1259,1331,0,0
42,-307,0,0,0,0,0,0,0,0,0,-1,1266,1331,0,0
49,-307,0,0,0,0,0,0,0,0,0,-1,1273,1331,0,0
56,-307,0,0,0,0,0,0,0,0,0,-1,1280,1331,0,0
63,-307,0,0,0,0,0,0,0,0,0,-1,1287,1331,0,0
70,-307,0,0,0,0,0,0,0,0,0,-1,1294,1331,0,0
77,-307,0,0,0,0,0,0,0,0,0,-1,1301,1331,0,0
84,-307,0,0,0,0,0,0,0,0,0,-1,1308,1331,0,0
91,-307,0,0,0,0,0,0,0,0,0,-1,1315,1331,0,0
98,-307,0,0,0,0,0,0,0,0,0,-1,1322,1331,0,0
105,-307,0,0,0,0,0,0,0,0,0,-1,1329,1331,0,0
112,-307,0,0,0,0,0,0,0,0,0,-1,1336,1331,0,0
119,-307,0,0,0,0,0,0,0,0,0,-1,1343,1331,0,0
126,-307,0,0,0,0,0,0,0,0,0,-1,1350,1331,0,0
133,-307,0,0,0,0,0,0,0,0,0,-1,1357,1331,0,0
140,-307,0,0,0,0,0,0,0,0,0,-1,1364,1331,0,0
147,-307,0,0,0,0,0,0,0,0,0,-1,1371,1331,0,0
154,-307,0,0,0,0,0,0,0,0,0,-1,1378,1331,0,0
161,-307,0,0,0,0,0,0,0,0,0,-1,1385,1331,0,0
168,-307,0,0,0,0,0,0,0,0,0,-1,1392,1331,0,0
175,-307,0,0,0,0,0,0,0,0,0,-1,1399,1331,0,0
182,-307,0,0,0,0,0,0,0,0,0,-1,1406,1331,0,0
189,-307,0,0,0,0,0,0,0,0,0,-1,1413,1331,0,0
196,-307,0,0,0,0,0,0,0,0,0,-1,1420,1331,0,0
203,-307,0,0,0,0,0,0,0,0,0,-1,1427,1331,0,0
210,-307,0,0,0,0,0,0,0,0,0,-1,1434,1331,0,0
217,-307,0,0,0,0,0,0,0,0,0,-1,1441,1331,0,0
224,-307,0,0,0,0,0,0,0,0,0,-1,1448,1331,0,0
231,-307,0,0,0,0,0,0,0,0,0,-1,1455,1331,0,0
238,-307,0,0,0,0,0,0,0,0,0,-1,1462,1331,0,0
245,-307,0,0,0,0,0,0,0,0,0,-1,1469,1331,0,0
252,-307,0,0,0,0,0,0,0,0,0,-1,1476,1331,0,0
259,-307,0,0,0,0,0,0,0,0,0,-1,1483,1331,0,0
266,-307,0,0,0,0,0,0,0,0,0,-1,1490,1331,0,0
273,-307,0,0,0,0,0,0,0,0,0,-1,1497,1331,0,0
280,-307,0,0,0,0,0,0,0,0,0,-1,1504,1331,0,0
287,-307,0,0,0,0,0,0,0,0,0,-1,1511,1331,0,0
294,-307,0,0,0,0,0,0,0,0,0,-1,1518,1331,0,0
301,-307,0,0,0,0,0,0,0,0,0,-1,1525,1331,0,0
308,-307,0,0,0,0,0,0,0,0,0,-1,1532,1331,0,0
315,-307,0,0,0,0,0,0,0,0,0,-1,1539,1331,0,0
322,-307,0,0,0,0,0,0,0,0,0,-1,1546,1331,0,0
329,-307,0,0,0,0,0,0,0,0,0,-1,1553,1331,0,0
336,-307,0,0,0,0,0,0,0,0,0,-1,1560,1331,0,0
343,-307,0,0,0,0,0,0,0,0,0,-1,1567,1331,0,0
350,-307,0,0,0,0,0,0,0,0,0,-1,1574,1331,0,0
357,-307,0,0,0,0,0,0,0,0,0,-1,1581,1331,0,0
364,-307,0,0,0,0,0,0,0,0,0,-1,1588,1331,0,0
371,-307,0,0,0,0,0,0,0,0,0,-1,1595,1331,0,0
378,-307,0,0,0,0,0,0,0,0,0,-1,1602,1331,0,0
385,-307,0,0,0,0,0,0,0,0,0,-1,1609,1331,0,0
392,-307,0,0,0,0,0,0,0,0,0,-1,1616,1331,0,0
399,-307,0,0,0,0,0,0,0,0,0,-1,1623,1331,0,0
406,-307,0,0,0,0,0,0,0,0,0,-1,1630,1331,0,0
413,-307,0,0,0,0,0,0,0,0,0,-1,1637,1331,0,0
420,-307,0,0,0,0,0,0,0,0,0,-1,1644,1331,0,0
427,-307,0,0,0,0,0,0,0,0,0,-1,1651,1331,0,0
434,-307,0,0,0,0,0,0,0,0,0,-1,1658,1331,0,0
441,-307,0,0,0,0,0,0,0,0,0,-1,1665,1331,0,0
448,-307,0,0,0,0,0,0,0,0,0,-1,1672,1331,0,0
455,-307,0,0,0,0,0,0,0,0,0,-1,1679,1331,0,0
462,-307,0,0,0,0,0,0,0,0,0,-1,1686,1331,0,0
469,-307,0,0,0,0,0,0,0,0,0,-1,1693,1331,0,0
476,-307,0,0,0,0,0,0,0,0,0,-1,1700,1331,0,0
483,-307,0,0,0,0,0,0,0,0,0,-1,1707,1331,0,0
490,-307,0,0,0,0,0,0,0,0,0,-1,1714,1331,0,0
497,-307,0,0,0,0,0,0,0,0,0,-1,1721,1331,0,0
504,-307,0,0,0,0,0,0,0,0,0,-1,1728,1331,0,0
511,-307,0,0,0,0,0,0,0,0,0,-1,1735,1331,0,0
518,-307,0,0,0,0,0,0,0,0,0,-1,1742,1331,0,0
525,-307,0,0,0,0,0,0,0,0,0,-1,1749,1331,0,0
532,-307,0,0,0,0,0,0,0,0,0,-1,1756,1331,0,0
539,-307,0,0,0,0,0,0,0,0,0,-1,1763,1331,0,0
546,-307,0,0,0,0,0,0,0,0,0,-1,1770,1331,0,0
553,-307,0,0,0,0,0,0,0,0,0,-1,1777,1331,0,0
560,-307,0,0,0,0,0,0,0,0,0,-1,1784,1331,0,0
567,-307,0,0,0,0,0,0,0,0,0,-1,1791,1331,0,0
574,-307,0,0,0,0,0,0,0,0,0,-1,1798,1331,0,0
581,-307,0,0,0,0,0,0,0,0,0,-1,1805,1331,0,0
588,-307,23.7361,-1.1394,0,0,0,0,0,0,0,-1,1812,1331,23.736,1.13945
595,-307,21.3293,3.14148,0,0,0,0,0,0,0,-1,1819,1331,21.3293,-3.14151
602,-307,19.6929,0.828735,0,0,0,0,0,0,0,-1,1826,1331,19.6929,-0.828719
609,-307,19.7013,1.7312,0.0102939,0.00200266,0.0348796,0.0412734,-0.0289769,0.726248,0.0407656,0.0484845,1833,1331,19.7013,-1.73126
616,-307,19.6786,2.80847,-0.00167376,-0.00210472,0.0296534,0.0277649,-0.0315434,0.781765,0.0342649,0.0465736,1840,1331,19.6786,-2.80849
623,-307,19.8459,3.84155,-0.0097835,-0.00400406,0.0246362,0.0179113,-0.0316989,0.843779,0.0290088,0.0464866,1847,1331,19.846,-3.84158
630,-307,19.9042,4.87402,0,0,0,0,0,0,0,-1,1854,1331,19.9042,-4.874
637,-307,16.6766,1.98096,0,0,0,0,0,0,0,-1,1861,1331,16.6766,-1.98096
644,-307,16.6293,5.94641,0,0,0,0,0,0,0,-1,1868,1331,16.6293,-5.94645
651,-307,16.8956,5.86609,0,0,0,0,0,0,0,-1,1875,1331,16.8957,-5.86615
658,-307,16.6118,6.00757,-0.0186461,-0.00425911,0.00956488,0.000515402,-0.0234206,1.10781,0.0157883,0.0493922,1882,1331,16.6118,-6.00752
665,-307,16.3604,6.17334,-0.0176328,-0.00416531,0.00710169,-0.00111247,-0.0206857,1.1648,0.013435,0.0182853,1889,1331,16.3604,-6.17336
672,-307,16.3484,6.00073,-0.0149124,-0.00296962,0.00470054,-0.00134151,-0.0165405,1.23736,0.0106082,0.00934637,1896,1331,16.3484,-6.00068
679,-307,16.3512,5.81531,-0.0109539,-0.00166367,0.00303309,-0.000761106,-0.0118565,1.28157,0.00766321,0.0100975,1903,1331,16.3512,-5.81537
686,-307,16.344,5.62146,-0.0068914,-0.000665006,0.00213889,-1.05216e-06,-0.00755535,1.26981,0.00503655,0.00968557,1910,1331,16.344,-5.6215
693,-307,16.339,5.42407,-0.00433007,0.000689248,0.000889668,0.000842276,-0.0044831,1.40046,0.00330546,0.011047,1917,1331,16.339,-5.4241
700,-307,16.345,5.21985,-0.00203565,0.00310492,-0.000333396,0.00312646,-0.00205718,-1.5063,0.00301393,0.0120993,1924,1331,16.345,-5.21983
707,-307,16.3387,5.01477,1.68375e-05,0.00640983,-0.00153083,0.00675749,-0.000330822,-1.34748,0.00461922,0.0138318,1931,1331,16.3387,-5.01476
714,-307,16.3469,4.83093,0.0017758,0.0109544,-0.00253557,0.0116082,0.00112193,-1.31842,0.00739328,0.0125443,1938,1331,16.3469,-4.83099
721,-307,16.3743,4.65881,0.0039655,0.0172926,-0.00315876,0.0180034,0.00325472,-1.34947,0.0110779,0.0135499,1945,1331,16.3743,-4.6588
728,-307,16.3516,4.50476,0.00689061,0.0253058,-0.00379988,0.0260591,0.00613734,-1.3751,0.0157312,0.019785,1952,1331,16.3516,-4.50478
735,-307,16.1815,4.26086,0.0111792,0.0359726,-0.00412931,0.0366422,0.0105095,-1.41003,0.021787,0.030552,1959,1331,16.1816,-4.26086
742,-307,16.0164,3.75757,0.0173227,0.0497362,-0.00387667,0.0501934,0.0168655,-1.4534,0.0294941,0.0391333,1966,1331,16.0163,-3.75757
749,-307,16.3334,3.30579,0.0256765,0.0669365,-0.00255869,0.0670945,0.0255185,-1.5091,0.0391051,0.0449062,1973,1331,16.3333,-3.30584
756,-307,16.6776,3.20789,0,0,0,0,0,0,0,-1,1980,1331,16.6776,-3.20788
763,-307,17.4347,2.33398,0,0,0,0,0,0,0,-1,1987,1331,17.4347,-2.33399
770,-307,0,0,0,0,0,0,0,0,0,-1,1994,1331,0,0
777,-307,0,0,0,0,0,0,0,0,0,-1,2001,1331,0,0
784,-307,0,0,0,0,0,0,0,0,0,-1,2008,1331,0,0
791,-307,0,0,0,0,0,0,0,0,0,-1,2015,1331,0,0
798,-307,0,0,0,0,0,0,0,0,0,-1,2022,1331,0,0
805,-307,0,0,0,0,0,0,0,0,0,-1,2029,1331,0,0
812,-307,0,0,0,0,0,0,0,0,0,-1,2036,1331,0,0
-700,-314,0,0,0,0,0,0,0,0,0,-1,524,1338,0,0
-693,-314,0,0,0,0,0,0,0,0,0,-1,531,1338,0,0
-686,-314,0,0,0,0,0,0,0,0,0,-1,538,1338,0,0
-679,-314,0,0,0,0,0,0,0,0,0,-1,545,1338,0,0
-672,-314,0,0,0,0,0,0,0,0,0,-1,552,1338,0,0
-665,-314,0,0,0,0,0,0,0,0,0,-1,559,1338,0,0
-658,-314,0,0,0,0,0,0,0,0,0,-1,566,1338,0,0
-651,-314,0,0,0,0,0,0,0,0,0,-1,573,1338,0,0
-644,-314,-5.00189,-4.58435,0,0,0,0,0,0,0,-1,580,1338,-5.00189,4.58436
-637,-314,-5.25214,-4.9502,0,0,0,0,0,0,0,-1,587,1338,-5.25214,4.95024
-630,-314,-5.57098,-3.78333,0,0,0,0,0,0,0,-1,594,1338,-5.57097,3.78333
-623,-314,-5.88977,-2.61646,0,0,0,0,0,0,0,-1,601,1338,-5.88979,2.61642
-616,-314,-6.90912,-0.458984,0,0,0,0,0,0,0,-1,608,1338,-6.9091,0.458945
-609,-314,-6.99286,0.425293,0,0,0,0,0,0,0,-1,615,1338,-6.99286,-0.425328
-602,-314,-7.27533,2.11792,0.00930667,0.031296,0.00251455,0.0315799,0.00902278,1.45838,0.0187825,0.0445842,622,1338,-7.27533,-2.1179
-595,-314,-7.49744,2.2804,0.00589193,0.0201957,0.00189945,0.0204436,0.00564399,1.441,0.0121913,0.0355648,629,1338,-7.49742,-2.28045
-588,-314,-7.60333,2.45813,0.00323855,0.0103878,0.00122983,0.0105935,0.00303291,1.40512,0.00629959,0.0160962,636,1338,-7.60335,-2.45814
-581,-314,-7.56097,2.70215,-0.00101644,0.00363135,0.000415826,0.00366826,-0.00105335,1.48227,0.00286198,0.0124323,643,1338,-7.56099,-2.70215
-574,-314,-7.58698,2.91821,-0.0023264,-0.000860305,-0.000619327,-0.000633704,-0.002553,-1.22004,0.001535,0.0120734,650,1338,-7.58698,-2.91819
-567,-314,-7.59937,3.15759,-0.00136048,-0.00132959,-0.000865807,-0.000479087,-0.00221098,-0.794317,0.00134308,0.0134542,657,1338,-7.59939,-3.15763
-560,-314,-7.5675,3.40686,-0.000821071,-0.00207391,-0.00130049,-3.99293e-06,-0.00289099,-0.560957,0.001926,0.014579,664,1338,-7.56753,-3.40691
-553,-314,-7.59082,3.62231,-0.00103128,-0.00378243,-0.00163034,-0.000273734,-0.00453998,-0.434975,0.00293966,0.0175172,671,1338,-7.59079,-3.62229
-546,-314,-7.61029,3.85864,-0.00268573,-0.00704393,-0.00223313,-0.00174467,-0.00798498,-0.398822,0.00484757,0.0176346,678,1338,-7.6103,-3.85862
-539,-314,-7.58624,4.099,-0.00471429,-0.0115234,-0.00312022,-0.00350076,-0.0127369,-0.370923,0.00759813,0.0159077,685,1338,-7.58627,-4.09897
-532,-314,-7.45245,4.34387,-0.00650147,-0.0187175,-0.00518064,-0.00460031,-0.0206187,-0.351715,0.0124978,0.0269355,692,1338,-7.45246,-4.34393
-525,-314,-7.71735,4.44128,-0.00842518,-0.0278114,-0.00755314,-0.00582983,-0.0304068,-0.330973,0.0186344,0.0450577,699,1338,-7.71738,-4.44132
-518,-314,-7.74835,4.44446,-0.0113687,-0.0377306,-0.0100771,-0.00795794,-0.0411413,-0.326364,0.0251973,0.044338,706,1338,-7.74832,-4.44448
-511,-314,-7.86182,4.36694,0,0,0,0,0,0,0,-1,713,1338,-7.8618,-4.36692
-504,-314,-11.2832,3.00952,-0.0163005,-0.0601547,-0.0158042,-0.0111986,-0.0652567,-0.312262,0.0402937,0.0447751,720,1338,-11.2832,-3.00952
-497,-314,-11.6288,2.9679,-0.0182905,-0.072392,-0.0191895,-0.0121753,-0.0785072,-0.3085,0.0487887,0.0468397,727,1338,-11.6288,-2.96789
-490,-314,-11.6192,2.64307,0,0,0,0,0,0,0,-1,734,1338,-11.6192,-2.64308
-483,-314,-12.2106,2.35986,-0.0203333,-0.0976859,-0.0273602,-0.0116341,-0.106385,-0.307842,0.067381,0.0426253,741,1338,-12.2106,-2.35988
-476,-314,-11.9917,2.04443,-0.0188442,-0.109786,-0.0330023,-0.00813003,-0.1205,-0.313914,0.0777649,0.0445521,748,1338,-11.9917,-2.04444
-469,-314,-12.4243,1.89099,-0.0156549,-0.120583,-0.0398656,-0.00222699,-0.134011,-0.324893,0.0886075,0.0433151,755,1338,-12.4243,-1.89101
-462,-314,0,0,0,0,0,0,0,0,0,-1,762,1338,0,0
-455,-314,0,0,0,0,0,0,0,0,0,-1,769,1338,0,0
-448,-314,0,0,0,0,0,0,0,0,0,-1,776,1338,0,0
-441,-314,0,0,0,0,0,0,0,0,0,-1,783,1338,0,0
-434,-314,0,0,0,0,0,0,0,0,0,-1,790,1338,0,0
-427,-314,0,0,0,0,0,0,0,0,0,-1,797,1338,0,0
-420,-314,0,0,0,0,0,0,0,0,0,-1,804,1338,0,0
-413,-314,0,0,0,0,0,0,0,0,0,-1,811,1338,0,0
-406,-314,0,0,0,0,0,0,0,0,0,-1,818,1338,0,0
-399,-314,0,0,0,0,0,0,0,0,0,-1,825,1338,0,0
-392,-314,0,0,0,0,0,0,0,0,0,-1,832,1338,0,0
-385,-314,0,0,0,0,0,0,0,0,0,-1,839,1338,0,0
-378,-314,0,0,0,0,0,0,0,0,0,-1,846,1338,0,0
-371,-314,0,0,0,0,0,0,0,0,0,-1,853,1338,0,0
-364,-314,0,0,0,0,0,0,0,0,0,-1,860,1338,0,0
-357,-314,0,0,0,0,0,0,0,0,0,-1,867,1338,0,0
-350,-314,0,0,0,0,0,0,0,0,0,-1,874,1338,0,0
-343,-314,0,0,0,0,0,0,0,0,0,-1,881,1338,0,0
-336,-314,0,0,0,0,0,0,0,0,0,-1,888,1338,0,0
-329,-314,0,0,0,0,0,0,0,0,0,-1,895,1338,0,0
-322,-314,0,0,0,0,0,0,0,0,0,-1,902,1338,0,0
-315,-314,0,0,0,0,0,0,0,0,0,-1,909,1338,0,0
-308,-314,0,0,0,0,0,0,0,0,0,-1,916,1338,0,0
-301,-314,0,0,0,0,0,0,0,0,0,-1,923,1338,0,0
-294,-314,0,0,0,0,0,0,0,0,0,-1,930,1338,0,0
-287,-314,0,0,0,0,0,0,0,0,0,-1,937,1338,0,0
-280,-314,0,0,0,0,0,0,0,0,0,-1,944,1338,0,0
-273,-314,0,0,0,0,0,0,0,0,0,-1,951,1338,0,0
-266,-314,0,0,0,0,0,0,0,0,0,-1,958,1338,0,0
-259,-314,0,0,0,0,0,0,0,0,0,-1,965,1338,0,0
-252,-314,0,0,0,0,0,0,0,0,0,-1,972,1338,0,0
-245,-314,0,0,0,0,0,0,0,0,0,-1,979,1338,0,0
-238,-314,0,0,0,0,0,0,0,0,0,-1,986,1338,0,0
-231,-314,0,0,0,0,0,0,0,0,0,-1,993,1338,0,0
-224,-314,0,0,0,0,0,0,0,0,0,-1,1000,1338,0,0
-217,-314,0,0,0,0,0,0,0,0,0,-1,1007,1338,0,0
-210,-314,0,0,0,0,0,0,0,0,0,-1,1014,1338,0,0
-203,-314,0,0,0,0,0,0,0,0,0,-1,1021,1338,0,0
-196,-314,0,0,0,0,0,0,0,0,0,-1,1028,1338,0,0
-189,-314,0,0,0,0,0,0,0,0,0,-1,1035,1338,0,0
-182,-314,0,0,0,0,0,0,0,0,0,-1,1042,1338,0,0
-175,-314,0,0,0,0,0,0,0,0,0,-1,1049,1338,0,0
-168,-314,0,0,0,0,0,0,0,0,0,-1,1056,1338,0,0
-161,-314,0,0,0,0,0,0,0,0,0,-1,1063,1338,0,0
-154,-314,0,0,0,0,0,0,0,0,0,-1,1070,1338,0,0
-147,-314,0,0,0,0,0,0,0,0,0,-1,1077,1338,0,0
-140,-314,0,0,0,0,0,0,0,0,0,-1,1084,1338,0,0
-133,-314,0,0,0,0,0,0,0,0,0,-1,1091,1338,0,0
-126,-314,0,0,0,0,0,0,0,0,0,-1,1098,1338,0,0
-119,-314,0,0,0,0,0,0,0,0,0,-1,1105,1338,0,0
-112,-314,0,0,0,0,0,0,0,0,0,-1,1112,1338,0,0
-105,-314,0,0,0,0,0,0,0,0,0,-1,1119,1338,0,0
-98,-314,0,0,0,0,0,0,0,0,0,-1,1126,1338,0,0
-91,-314,0,0,0,0,0,0,0,0,0,-1,1133,1338,0,0
-84,-314,0,0,0,0,0,0,0,0,0,-1,1140,1338,0,0
-77,-314,0,0,0,0,0,0,0,0,0,-1,1147,1338,0,0
-70,-314,0,0,0,0,0,0,0,0,0,-1,1154,1338,0,0
-63,-314,0,0,0,0,0,0,0,0,0,-1,1161,1338,0,0
-56,-314,0,0,0,0,0,0,0,0,0,-1,1168,1338,0,0
-49,-314,0,0,0,0,0,0,0,0,0,-1,1175,1338,0,0
-42,-314,0,0,0,0,0,0,0,0,0,-1,1182,1338,0,0
-35,-314,0,0,0,0,0,0,0,0,0,-1,1189,1338,0,0
-28,-314,0,0,0,0,0,0,0,0,0,-1,1196,1338,0,0
-21,-314,0,0,0,0,0,0,0,0,0,-1,1203,1338,0,0
-14,-314,0,0,0,0,0,0,0,0,0,-1,1210,1338,0,0
-7,-314,0,0,0,0,0,0,0,0,0,-1,1217,1338,0,0
0,-314,0,0,0,0,0,0,0,0,0,-1,1224,1338,0,0
7,-314,0,0,0,0,0,0,0,0,0,-1,1231,1338,0,0
14,-314,0,0,0,0,0,0,0,0,0,-1,1238,1338,0,0
21,-314,0,0,0,0,0,0,0,0,0,-1,1245,1338,0,0
28,-314,0,0,0,0,0,0,0,0,0,-1,1252,1338,0,0
35,-314,0,0,0,0,0,0,0,0,0,-1,1259,1338,0,0
42,-314,0,0,0,0,0,0,0,0,0,-1,1266,1338,0,0
49,-314,0,0,0,0,0,0,0,0,0,-1,1273,1338,0,0
56,-314,0,0,0,0,0,0,0,0,0,-1,1280,1338,0,0
63,-314,0,0,0,0,0,0,0,0,0,-1,1287,1338,0,0
70,-314,0,0,0,0,0,0,0,0,0,-1,1294,1338,0,0
77,-314,0,0,0,0,0,0,0,0,0,-1,1301,1338,0,0
84,-314,0,0,0,0,0,0,0,0,0,-1,1308,1338,0,0
91,-314,0,0,0,0,0,0,0,0,0,-1,1315,1338,0,0
98,-314,0,0,0,0,0,0,0,0,0,-1,1322,1338,0,0
105,-314,0,0,0,0,0,0,0,0,0,-1,1329,1338,0,0
112,-314,0,0,0,0,0,0,0,0,0,-1,1336,1338,0,0
119,-314,0,0,0,0,0,0,0,0,0,-1,1343,1338,0,0
126,-314,0,0,0,0,0,0,0,0,0,-1,1350,1338,0,0
133,-314,0,0,0,0,0,0,0,0,0,-1,1357,1338,0,0
140,-314,0,0,0,0,0,0,0,0,0,-1,1364,1338,0,0
147,-314,0,0,0,0,0,0,0,0,0,-1,1371,1338,0,0
154,-314,0,0,0,0,0,0,0,0,0,-1,1378,1338,0,0
161,-314,0,0,0,0,0,0,0,0,0,-1,1385,1338,0,0
168,-314,0,0,0,0,0,0,0,0,0,-1,1392,1338,0,0
175,-314,0,0,0,0,0,0,0,0,0,-1,1399,1338,0,0
182,-314,0,0,0,0,0,0,0,0,0,-1,1406,1338,0,0
189,-314,0,0,0,0,0,0,0,0,0,-1,1413,1338,0,0
196,-314,0,0,0,0,0,0,0,0,0,-1,1420,1338,0,0
203,-314,0,0,0,0,0,0,0,0,0,-1,1427,1338,0,0
210,-314,0,0,0,0,0,0,0,0,0,-1,1434,1338,0,0
217,-314,0,0,0,0,0,0,0,0,0,-1,1441,1338,0,0
224,-314,0,0,0,0,0,0,0,0,0,-1,1448,1338,0,0
231,-314,0,0,0,0,0,0,0,0,0,-1,1455,1338,0,0
238,-314,0,0,0,0,0,0,0,0,0,-1,1462,1338,0,0
245,-314,0,0,0,0,0,0,0,0,0,-1,1469,1338,0,0
252,-314,0,0,0,0,0,0,0,0,0,-1,1476,1338,0,0
259,-314,0,0,0,0,0,0,0,0,0,-1,1483,1338,0,0
266,-314,0,0,0,0,0,0,0,0,0,-1,1490,1338,0,0
273,-314,0,0,0,0,0,0,0,0,0,-1,1497,1338,0,0
280,-314,0,0,0,0,0,0,0,0,0,-1,1504,1338,0,0
287,-314,0,0,0,0,0,0,0,0,0,-1,1511,1338,0,0
294,-314,0,0,0,0,0,0,0,0,0,-1,1518,1338,0,0
301,-314,0,0,0,0,0,0,0,0,0,-1,1525,1338,0,0
308,-314,0,0,0,0,0,0,0,0,0,-1,1532,1338,0,0
315,-314,0,0,0,0,0,0,0,0,0,-1,1539,1338,0,0
322,-314,0,0,0,0,0,0,0,0,0,-1,1546,1338,0,0
329,-314,0,0,0,0,0,0,0,0,0,-1,1553,1338,0,0
336,-314,0,0,0,0,0,0,0,0,0,-1,1560,1338,0,0
343,-314,0,0,0,0,0,0,0,0,0,-1,1567,1338,0,0
350,-314,0,0,0,0,0,0,0,0,0,-1,1574,1338,0,0
357,-314,0,0,0,0,0,0,0,0,0,-1,1581,1338,0,0
364,-314,0,0,0,0,0,0,0,0,0,-1,1588,1338,0,0
371,-314,0,0,0,0,0,0,0,0,0,-1,1595,1338,0,0
378,-314,0,0,0,0,0,0,0,0,0,-1,1602,1338,0,0
385,-314,0,0,0,0,0,0,0,0,0,-1,1609,1338,0,0
392,-314,0,0,0,0,0,0,0,0,0,-1,1616,1338,0,0
399,-314,0,0,0,0,0,0,0,0,0,-1,1623,1338,0,0
406,-314,0,0,0,0,0,0,0,0,0,-1,1630,1338,0,0
413,-314,0,0,0,0,0,0,0,0,0,-1,1637,1338,0,0
420,-314,0,0,0,0,0,0,0,0,0,-1,1644,1338,0,0
427,-314,0,0,0,0,0,0,0,0,0,-1,1651,1338,0,0
434,-314,0,0,0,0,0,0,0,0,0,-1,1658,1338,0,0
441,-314,0,0,0,0,0,0,0,0,0,-1,1665,1338,0,0
448,-314,0,0,0,0,0,0,0,0,0,-1,1672,1338,0,0
455,-314,0,0,0,0,0,0,0,0,0,-1,1679,1338,0,0
462,-314,0,0,0,0,0,0,0,0,0,-1,1686,1338,0,0
469,-314,0,0,0,0,0,0,0,0,0,-1,1693,1338,0,0
476,-314,0,0,0,0,0,0,0,0,0,-1,1700,1338,0,0
483,-314,0,0,0,0,0,0,0,0,0,-1,1707,1338,0,0
490,-314,0,0,0,0,0,0,0,0,0,-1,1714,1338,0,0
497,-314,0,0,0,0,0,0,0,0,0,-1,1721,1338,0,0
504,-314,0,0,0,0,0,0,0,0,0,-1,1728,1338,0,0
511,-314,0,0,0,0,0,0,0,0,0,-1,1735,1338,0,0
518,-314,0,0,0,0,0,0,0,0,0,-1,1742,1338,0,0
525,-314,0,0,0,0,0,0,0,0,0,-1,1749,1338,0,0
532,-314,0,0,0,0,0,0,0,0,0,-1,1756,1338,0,0
539,-314,0,0,0,0,0,0,0,0,0,-1,1763,1338,0,0
546,-314,0,0,0,0,0,0,0,0,0,-1,1770,1338,0,0
553,-314,0,0,0,0,0,0,0,0,0,-1,1777,1338,0,0
560,-314,0,0,0,0,0,0,0,0,0,-1,1784,1338,0,0
567,-314,0,0,0,0,0,0,0,0,0,-1,1791,1338,0,0
574,-314,0,0,0,0,0,0,0,0,0,-1,1798,1338,0,0
581,-314,23.7174,3.40051,0,0,0,0,0,0,0,-1,1805,1338,23.7175,-3.40046
588,-314,24.1453,3.35498,0,0,0,0,0,0,0,-1,1812,1338,24.1453,-3.35503
595,-314,23.1349,3.28357,0,0,0,0,0,0,0,-1,1819,1338,23.1349,-3.28358
602,-314,19.2491,0.835815,0,0,0,0,0,0,0,-1,1826,1338,19.2491,-0.835801
609,-314,19.4108,1.84583,0.0113967,0.00469159,0.0412414,0.0494216,-0.0333333,0.744842,0.0480786,0.0440477,1833,1338,19.4107,-1.84583
616,-314,19.578,2.91504,-0.00107297,-0.00079016,0.033609,0.0326777,-0.0345409,0.787502,0.0388136,0.0450689,1840,1338,19.578,-2.91503
623,-314,19.6785,4.01453,-0.00892238,-0.00352452,0.0274356,0.0213446,-0.0337915,0.834427,0.0321021,0.046425,1847,1338,19.6785,-4.01454
630,-314,19.7841,5.08118,0,0,0,0,0,0,0,-1,1854,1338,19.784,-5.08116
637,-314,20.4666,6.4209,0,0,0,0,0,0,0,-1,1861,1338,20.4666,-6.42087
644,-314,17.0294,5.60413,0,0,0,0,0,0,0,-1,1868,1338,17.0295,-5.60408
651,-314,16.5426,6.01855,0,0,0,0,0,0,0,-1,1875,1338,16.5427,-6.01851
658,-314,16.3616,6.14893,-0.0155657,-0.00517795,0.009855,0.00076808,-0.0215117,1.02792,0.0146039,0.0386548,1882,1338,16.3615,-6.14891
665,-314,16.1421,6.21216,-0.0142619,-0.00490122,0.0069411,-0.00120991,-0.0179532,1.08203,0.0115866,0.0160335,1889,1338,16.1421,-6.2122
672,-314,16.1704,6.03589,-0.0116558,-0.00356739,0.00434012,-0.00167929,-0.0135439,1.16046,0.00852482,0.0121577,1896,1338,16.1704,-6.03585
679,-314,16.1709,5.83472,-0.00820237,-0.00226572,0.00255809,-0.00131552,-0.00915256,1.21515,0.0057139,0.0102108,1903,1338,16.1709,-5.83467
686,-314,16.1515,5.60889,-0.00498713,-0.000938195,0.00164863,-0.000351832,-0.00557349,1.22908,0.00360411,0.0117008,1910,1338,16.1515,-5.60884
693,-314,16.149,5.4104,-0.00319764,0.00082623,0.000342978,0.000855254,-0.00322666,1.48637,0.00248573,0.0114518,1917,1338,16.149,-5.41041
700,-314,16.1492,5.21899,-0.00143031,0.00365378,-0.000929361,0.00381834,-0.00159487,-1.39555,0.003212,0.0121179,1924,1338,16.1491,-5.21895
707,-314,16.1494,5.02283,0.000338405,0.00749464,-0.00214036,0.00808595,-0.000252897,-1.30126,0.00547688,0.0128037,1931,1338,16.1494,-5.02281
714,-314,16.1376,4.83496,0.00201041,0.012481,-0.00326513,0.0134157,0.00107566,-1.29197,0.00860768,0.0111817,1938,1338,16.1376,-4.83497
721,-314,16.168,4.65332,0.00427634,0.0195014,-0.00410252,0.0205365,0.00324125,-1.32365,0.0127487,0.0156698,1945,1338,16.168,-4.65334
728,-314,16.0621,4.48926,0.00749304,0.0285791,-0.00501923,0.0297129,0.00635925,-1.34864,0.0180659,0.0287732,1952,1338,16.0622,-4.48931
735,-314,15.9427,4.12439,0.0124088,0.0407547,-0.0057254,0.0418675,0.0112961,-1.37884,0.0250115,0.0408848,1959,1338,15.9428,-4.12444
742,-314,15.8488,3.7262,0,0,0,0,0,0,0,-1,1966,1338,15.8488,-3.7262
749,-314,16.0552,2.71448,0.0293561,0.0760423,-0.00504794,0.0765819,0.0288165,-1.46431,0.0446634,0.0442262,1973,1338,16.0552,-2.71454
756,-314,16.6305,2.27112,0.0423595,0.0997245,-0.00240532,0.0998252,0.0422588,-1.52896,0.0578596,0.0441681,1980,1338,16.6305,-2.27113
763,-314,17.2004,1.85486,0,0,0,0,0,0,0,-1,1987,1338,17.2005,-1.85481
770,-314,0,0,0,0,0,0,0,0,0,-1,1994,1338,0,0
777,-314,0,0,0,0,0,0,0,0,0,-1,2001,1338,0,0
784,-314,0,0,0,0,0,0,0,0,0,-1,2008,1338,0,0
791,-314,0,0,0,0,0,0,0,0,0,-1,2015,1338,0,0
798,-314,0,0,0,0,0,0,0,0,0,-1,2022,1338,0,0
805,-314,0,0,0,0,0,0,0,0,0,-1,2029,1338,0,0
812,-314,0,0,0,0,0,0,0,0,0,-1,2036,1338,0,0
-700,-321,0,0,0,0,0,0,0,0,0,-1,524,1345,0,0
-693,-321,0,0,0,0,0,0,0,0,0,-1,531,1345,0,0
-686,-321,0,0,0,0,0,0,0,0,0,-1,538,1345,0,0
-679,-321,0,0,0,0,0,0,0,0,0,-1,545,1345,0,0
-672,-321,0,0,0,0,0,0,0,0,0,-1,552,1345,0,0
-665,-321,0,0,0,0,0,0,0,0,0,-1,559,1345,0,0
-658,-321,0,0,0,0,0,0,0,0,0,-1,566,1345,0,0
-651,-321,0,0,0,0,0,0,0,0,0,-1,573,1345,0,0
-644,-321,-4.64539,-8.12524,0,0,0,0,0,0,0,-1,580,1345,-4.64538,8.12521
-637,-321,-5.08917,-6.552,0,0,0,0,0,0,0,-1,587,1345,-5.08915,6.55201
-630,-321,-5.20471,-4.84082,0,0,0,0,0,0,0,-1,594,1345,-5.20469,4.84077
-623,-321,-5.49597,-3.64758,0,0,0,0,0,0,0,-1,601,1345,-5.49597,3.64757
-616,-321,-6.50079,-1.27612,0,0,0,0,0,0,0,-1,608,1345,-6.50079,1.27612
-609,-321,-7.2146,0.772339,0,0,0,0,0,0,0,-1,615,1345,-7.21457,-0.772307
-602,-321,-6.80267,1.76978,0,0,0,0,0,0,0,-1,622,1345,-6.8027,-1.76981
-595,-321,-7.50122,2.16443,0,0,0,0,0,0,0,-1,629,1345,-7.5012,-2.16442
-588,-321,-7.36981,2.41418,0.00679729,0.00877783,0.000295055,0.00882085,0.00675426,1.42601,0.00532704,0.0200415,636,1345,-7.3698,-2.41421
-581,-321,-7.34546,2.68054,5.54702e-05,0.00222837,-0.000542133,0.00235612,-7.22802e-05,-1.33937,0.00159538,0.0118156,643,1345,-7.34545,-2.68051
-574,-321,-7.36328,2.93188,-0.00253838,-0.00183867,-0.00158805,-0.000562392,-0.00381466,-0.893819,0.00237791,0.0142669,650,1345,-7.36328,-2.93194
-567,-321,-7.38568,3.20142,-0.00159234,-0.00185241,-0.00153218,-0.000184686,-0.00326006,-0.743065,0.0021145,0.0203857,657,1345,-7.38569,-3.20146
-560,-321,-7.35364,3.41638,-0.00108451,-0.00221725,-0.00170202,0.000142897,-0.00344466,-0.624779,0.00234552,0.0234624,664,1345,-7.35367,-3.41636
-553,-321,-7.36188,3.57141,-0.00122399,-0.00343473,-0.00184278,-0.000180474,-0.00447824,-0.515248,0.00292719,0.0238248,671,1345,-7.36186,-3.57147
-546,-321,-7.37317,3.80713,-0.00261115,-0.0060927,-0.00233493,-0.00143951,-0.00726434,-0.465079,0.00444151,0.0244172,678,1345,-7.37315,-3.80718
-539,-321,-7.3656,4.08459,-0.00440966,-0.0100158,-0.00313392,-0.00300813,-0.0114173,-0.420535,0.00683322,0.0235305,685,1345,-7.36557,-4.0846
-532,-321,-7.29535,4.33533,-0.00607626,-0.0164023,-0.00503588,-0.00402701,-0.0184516,-0.386465,0.0112026,0.0187692,692,1345,-7.29534,-4.33528
-525,-321,-7.31055,4.66895,-0.00796921,-0.0247428,-0.0073394,-0.00521127,-0.0275008,-0.359446,0.0168673,0.0334012,699,1345,-7.31055,-4.66898
-518,-321,-7.53082,4.57336,-0.0107953,-0.0340098,-0.00989047,-0.00715294,-0.0376521,-0.352854,0.0230894,0.049311,706,1345,-7.53084,-4.57342
-511,-321,-7.72272,4.58093,0,0,0,0,0,0,0,-1,713,1345,-7.72269,-4.58089
-504,-321,-10.8569,3.68396,0,0,0,0,0,0,0,-1,720,1345,-10.8569,-3.6839
-497,-321,-11.2621,3.44556,-0.0177417,-0.0674531,-0.0196399,-0.0109189,-0.074276,-0.334356,0.0463088,0.044289,727,1345,-11.2621,-3.4455
-490,-321,-11.342,3.23376,-0.0192225,-0.0798996,-0.0238288,-0.0109833,-0.0881387,-0.332896,0.0554618,0.0433939,734,1345,-11.342,-3.23375
-483,-321,-11.5651,3.07239,-0.0196666,-0.092508,-0.0287207,-0.00970469,-0.10247,-0.333869,0.0653191,0.0449244,741,1345,-11.5651,-3.07241
-476,-321,-11.7875,2.90894,-0.0186084,-0.104982,-0.034574,-0.00647375,-0.117116,-0.337545,0.0760116,0.0440497,748,1345,-11.7875,-2.90897
-469,-321,-12.0922,2.69458,-0.0169944,-0.116635,-0.0413741,-0.00205452,-0.131574,-0.346523,0.0870395,0.0438248,755,1345,-12.0922,-2.69461
-462,-321,-12.5012,2.43164,0,0,0,0,0,0,0,-1,762,1345,-12.5012,-2.43164
-455,-321,0,0,0,0,0,0,0,0,0,-1,769,1345,0,0
-448,-321,0,0,0,0,0,0,0,0,0,-1,776,1345,0,0
-441,-321,0,0,0,0,0,0,0,0,0,-1,783,1345,0,0
-434,-321,0,0,0,0,0,0,0,0,0,-1,790,1345,0,0
-427,-321,0,0,0,0,0,0,0,0,0,-1,797,1345,0,0
-420,-321,0,0,0,0,0,0,0,0,0,-1,804,1345,0,0
-413,-321,0,0,0,0,0,0,0,0,0,-1,811,1345,0,0
-406,-321,0,0,0,0,0,0,0,0,0,-1,818,1345,0,0
-399,-321,0,0,0,0,0,0,0,0,0,-1,825,1345,0,0
-392,-321,0,0,0,0,0,0,0,0,0,-1,832,1345,0,0
-385,-321,0,0,0,0,0,0,0,0,0,-1,839,1345,0,0
-378,-321,0,0,0,0,0,0,0,0,0,-1,846,1345,0,0
-371,-321,0,0,0,0,0,0,0,0,0,-1,853,1345,0,0
-364,-321,0,0,0,0,0,0,0,0,0,-1,860,1345,0,0
-357,-321,0,0,0,0,0,0,0,0,0,-1,867,1345,0,0
-350,-321,0,0,0,0,0,0,0,0,0,-1,874,1345,0,0
-343,-321,0,0,0,0,0,0,0,0,0,-1,881,1345,0,0
-336,-321,0,0,0,0,0,0,0,0,0,-1,888,1345,0,0
-329,-321,0,0,0,0,0,0,0,0,0,-1,895,1345,0,0
-322,-321,0,0,0,0,0,0,0,0,0,-1,902,1345,0,0
-315,-321,0,0,0,0,0,0,0,0,0,-1,909,1345,0,0
-308,-321,0,0,0,0,0,0,0,0,0,-1,916,1345,0,0
-301,-321,0,0,0,0,0,0,0,0,0,-1,923,1345,0,0
-294,-321,0,0,0,0,0,0,0,0,0,-1,930,1345,0,0
-287,-321,0,0,0,0,0,0,0,0,0,-1,937,1345,0,0
-280,-321,0,0,0,0,0,0,0,0,0,-1,944,1345,0,0
-273,-321,0,0,0,0,0,0,0,0,0,-1,951,1345,0,0
-266,-321,0,0,0,0,0,0,0,0,0,-1,958,1345,0,0
-259,-321,0,0,0,0,0,0,0,0,0,-1,965,1345,0,0
-252,-321,0,0,0,0,0,0,0,0,0,-1,972,1345,0,0
-245,-321,0,0,0,0,0,0,0,0,0,-1,979,1345,0,0
-238,-321,0,0,0,0,0,0,0,0,0,-1,986,1345,0,0
-231,-321,0,0,0,0,0,0,0,0,0,-1,993,1345,0,0
-224,-321,0,0,0,0,0,0,0,0,0,-1,1000,1345,0,0
-217,-321,0,0,0,0,0,0,0,0,0,-1,1007,1345,0,0
-210,-321,0,0,0,0,0,0,0,0,0,-1,1014,1345,0,0
-203,-321,0,0,0,0,0,0,0,0,0,-1,1021,1345,0,0
-196,-321,0,0,0,0,0,0,0,0,0,-1,1028,1345,0,0
-189,-321,0,0,0,0,0,0,0,0,0,-1,1035,1345,0,0
-182,-321,0,0,0,0,0,0,0,0,0,-1,1042,1345,0,0
-175,-321,0,0,0,0,0,0,0,0,0,-1,1049,1345,0,0
-168,-321,0,0,0,0,0,0,0,0,0,-1,1056,1345,0,0
-161,-321,0,0,0,0,0,0,0,0,0,-1,1063,1345,0,0
-154,-321,0,0,0,0,0,0,0,0,0,-1,1070,1345,0,0
-147,-321,0,0,0,0,0,0,0,0,0,-1,1077,1345,0,0
-140,-321,0,0,0,0,0,0,0,0,0,-1,1084,1345,0,0
-133,-321,0,0,0,0,0,0,0,0,0,-1,1091,1345,0,0
-126,-321,0,0,0,0,0,0,0,0,0,-1,1098,1345,0,0
-119,-321,0,0,0,0,0,0,0,0,0,-1,1105,1345,0,0
-112,-321,0,0,0,0,0,0,0,0,0,-1,1112,1345,0,0
-105,-321,0,0,0,0,0,0,0,0,0,-1,1119,1345,0,0
-98,-321,0,0,0,0,0,0,0,0,0,-1,1126,1345,0,0
-91,-321,0,0,0,0,0,0,0,0,0,-1,1133,1345,0,0
-84,-321,0,0,0,0,0,0,0,0,0,-1,1140,1345,0,0
-77,-321,0,0,0,0,0,0,0,0,0,-1,1147,1345,0,0
-70,-321,0,0,0,0,0,0,0,0,0,-1,1154,1345,0,0
-63,-321,0,0,0,0,0,0,0,0,0,-1,1161,1345,0,0
-56,-321,0,0,0,0,0,0,0,0,0,-1,1168,1345,0,0
-49,-321,0,0,0,0,0,0,0,0,0,-1,1175,1345,0,0
-42,-321,0,0,0,0,0,0,0,0,0,-1,1182,1345,0,0
-35,-321,0,0,0,0,0,0,0,0,0,-1,1189,1345,0,0
-28,-321,0,0,0,0,0,0,0,0,0,-1,1196,1345,0,0
-21,-321,0,0,0,0,0,0,0,0,0,-1,1203,1345,0,0
-14,-321,0,0,0,0,0,0,0,0,0,-1,1210,1345,0,0
-7,-321,0,0,0,0,0,0,0,0,0,-1,1217,1345,0,0
0,-321,0,0,0,0,0,0,0,0,0,-1,1224,1345,0,0
7,-321,0,0,0,0,0,0,0,0,0,-1,1231,1345,0,0
14,-321,0,0,0,0,0,0,0,0,0,-1,1238,1345,0,0
21,-321,0,0,0,0,0,0,0,0,0,-1,1245,1345,0,0
28,-321,0,0,0,0,0,0,0,0,0,-1,1252,1345,0,0
35,-321,0,0,0,0,0,0,0,0,0,-1,1259,1345,0,0
42,-321,0,0,0,0,0,0,0,0,0,-1,1266,1345,0,0
49,-321,0,0,0,0,0,0,0,0,0,-1,1273,1345,0,0
56,-321,0,0,0,0,0,0,0,0,0,-1,1280,1345,0,0
63,-321,0,0,0,0,0,0,0,0,0,-1,1287,1345,0,0
70,-321,0,0,0,0,0,0,0,0,0,-1,1294,1345,0,0
77,-321,0,0,0,0,0,0,0,0,0,-1,1301,1345,0,0
84,-321,0,0,0,0,0,0,0,0,0,-1,1308,1345,0,0
91,-321,0,0,0,0,0,0,0,0,0,-1,1315,1345,0,0
98,-321,0,0,0,0,0,0,0,0,0,-1,1322,1345,0,0
105,-321,0,0,0,0,0,0,0,0,0,-1,1329,1345,0,0
112,-321,0,0,0,0,0,0,0,0,0,-1,1336,1345,0,0
119,-321,0,0,0,0,0,0,0,0,0,-1,1343,1345,0,0
126,-321,0,0,0,0,0,0,0,0,0,-1,1350,1345,0,0
133,-321,0,0,0,0,0,0,0,0,0,-1,1357,1345,0,0
140,-321,0,0,0,0,0,0,0,0,0,-1,1364,1345,0,0
147,-321,0,0,0,0,0,0,0,0,0,-1,1371,1345,0,0
154,-321,0,0,0,0,0,0,0,0,0,-1,1378,1345,0,0
161,-321,0,0,0,0,0,0,0,0,0,-1,1385,1345,0,0
168,-321,0,0,0,0,0,0,0,0,0,-1,1392,1345,0,0
175,-321,0,0,0,0,0,0,0,0,0,-1,1399,1345,0,0
182,-321,0,0,0,0,0,0,0,0,0,-1,1406,1345,0,0
189,-321,0,0,0,0,0,0,0,0,0,-1,1413,1345,0,0
196,-321,0,0,0,0,0,0,0,0,0,-1,1420,1345,0,0
203,-321,0,0,0,0,0,0,0,0,0,-1,1427,1345,0,0
210,-321,0,0,0,0,0,0,0,0,0,-1,1434,1345,0,0
217,-321,0,0,0,0,0,0,0,0,0,-1,1441,1345,0,0
224,-321,0,0,0,0,0,0,0,0,0,-1,1448,1345,0,0
231,-321,0,0,0,0,0,0,0,0,0,-1,1455,1345,0,0
238,-321,0,0,0,0,0,0,0,0,0,-1,1462,1345,0,0
245,-321,0,0,0,0,0,0,0,0,0,-1,1469,1345,0,0
252,-321,0,0,0,0,0,0,0,0,0,-1,1476,1345,0,0
259,-321,0,0,0,0,0,0,0,0,0,-1,1483,1345,0,0
266,-321,0,0,0,0,0,0,0,0,0,-1,1490,1345,0,0
273,-321,0,0,0,0,0,0,0,0,0,-1,1497,1345,0,0
280,-321,0,0,0,0,0,0,0,0,0,-1,1504,1345,0,0
287,-321,0,0,0,0,0,0,0,0,0,-1,1511,1345,0,0
294,-321,0,0,0,0,0,0,0,0,0,-1,1518,1345,0,0
301,-321,0,0,0,0,0,0,0,0,0,-1,1525,1345,0,0
308,-321,0,0,0,0,0,0,0,0,0,-1,1532,1345,0,0
315,-321,0,0,0,0,0,0,0,0,0,-1,1539,1345,0,0
322,-321,0,0,0,0,0,0,0,0,0,-1,1546,1345,0,0
329,-321,0,0,0,0,0,0,0,0,0,-1,1553,1345,0,0
336,-321,0,0,0,0,0,0,0,0,0,-1,1560,1345,0,0
343,-321,0,0,0,0,0,0,0,0,0,-1,1567,1345,0,0
350,-321,0,0,0,0,0,0,0,0,0,-1,1574,1345,0,0
357,-321,0,0,0,0,0,0,0,0,0,-1,1581,1345,0,0
364,-321,0,0,0,0,0,0,0,0,0,-1,1588,1345,0,0
371,-321,0,0,0,0,0,0,0,0,0,-1,1595,1345,0,0
378,-321,0,0,0,0,0,0,0,0,0,-1,1602,1345,0,0
385,-321,0,0,0,0,0,0,0,0,0,-1,1609,1345,0,0
392,-321,0,0,0,0,0,0,0,0,0,-1,1616,1345,0,0
399,-321,0,0,0,0,0,0,0,0,0,-1,1623,1345,0,0
406,-321,0,0,0,0,0,0,0,0,0,-1,1630,1345,0,0
413,-321,0,0,0,0,0,0,0,0,0,-1,1637,1345,0,0
420,-321,0,0,0,0,0,0,0,0,0,-1,1644,1345,0,0
427,-321,0,0,0,0,0,0,0,0,0,-1,1651,1345,0,0
434,-321,0,0,0,0,0,0,0,0,0,-1,1658,1345,0,0
441,-321,0,0,0,0,0,0,0,0,0,-1,1665,1345,0,0
448,-321,0,0,0,0,0,0,0,0,0,-1,1672,1345,0,0
455,-321,0,0,0,0,0,0,0,0,0,-1,1679,1345,0,0
462,-321,0,0,0,0,0,0,0,0,0,-1,1686,1345,0,0
469,-321,0,0,0,0,0,0,0,0,0,-1,1693,1345,0,0
476,-321,0,0,0,0,0,0,0,0,0,-1,1700,1345,0,0
483,-321,0,0,0,0,0,0,0,0,0,-1,1707,1345,0,0
490,-321,0,0,0,0,0,0,0,0,0,-1,1714,1345,0,0
497,-321,0,0,0,0,0,0,0,0,0,-1,1721,1345,0,0
504,-321,0,0,0,0,0,0,0,0,0,-1,1728,1345,0,0
511,-321,0,0,0,0,0,0,0,0,0,-1,1735,1345,0,0
518,-321,0,0,0,0,0,0,0,0,0,-1,1742,1345,0,0
525,-321,0,0,0,0,0,0,0,0,0,-1,1749,1345,0,0
532,-321,0,0,0,0,0,0,0,0,0,-1,1756,1345,0,0
539,-321,0,0,0,0,0,0,0,0,0,-1,1763,1345,0,0
546,-321,0,0,0,0,0,0,0,0,0,-1,1770,1345,0,0
553,-321,0,0,0,0,0,0,0,0,0,-1,1777,1345,0,0
560,-321,0,0,0,0,0,0,0,0,0,-1,1784,1345,0,0
567,-321,0,0,0,0,0,0,0,0,0,-1,1791,1345,0,0
574,-321,0,0,0,0,0,0,0,0,0,-1,1798,1345,0,0
581,-321,25.6232,2.73877,0,0,0,0,0,0,0,-1,1805,1345,25.6232,-2.73882
588,-321,24.8979,2.93567,0,0,0,0,0,0,0,-1,1812,1345,24.8979,-2.93561
595,-321,23.988,3.04395,0,0,0,0,0,0,0,-1,1819,1345,23.9881,-3.0439
602,-321,23.1796,2.98987,0,0,0,0,0,0,0,-1,1826,1345,23.1796,-2.98987
609,-321,19.3715,1.99194,0,0,0,0,0,0,0,-1,1833,1345,19.3715,-1.992
616,-321,19.4783,3.11108,0,0,0,0,0,0,0,-1,1840,1345,19.4782,-3.11105
623,-321,19.5387,4.22168,0,0,0,0,0,0,0,-1,1847,1345,19.5386,-4.22173
630,-321,21.0529,6.62036,0,0,0,0,0,0,0,-1,1854,1345,21.0529,-6.62038
637,-321,17.0188,7.375,0,0,0,0,0,0,0,-1,1861,1345,17.0188,-7.37504
644,-321,16.8844,6.71973,0,0,0,0,0,0,0,-1,1868,1345,16.8844,-6.71971
651,-321,16.2477,6.32861,0,0,0,0,0,0,0,-1,1875,1345,16.2477,-6.32861
658,-321,16.0131,6.37952,-0.0134542,-0.00548763,0.00946244,0.000795752,-0.0197376,0.984619,0.0134315,0.031213,1882,1345,16.0131,-6.37953
665,-321,15.9454,6.24695,-0.0117697,-0.00494647,0.0062848,-0.00120701,-0.0155092,1.03406,0.00996151,0.0163661,1889,1345,15.9454,-6.24694
672,-321,15.9695,6.04236,-0.0091869,-0.00356031,0.00371135,-0.00171649,-0.0110307,1.10971,0.00685368,0.0124881,1896,1345,15.9695,-6.04234
679,-321,15.9769,5.82898,-0.00611679,-0.00236395,0.00196525,-0.00152317,-0.00695756,1.16654,0.00422323,0.0106378,1903,1345,15.9769,-5.82898
686,-321,15.9486,5.61975,-0.00354666,-0.000818527,0.00107335,-0.000446862,-0.00391833,1.23745,0.00247674,0.0107642,1910,1345,15.9486,-5.61978
693,-321,15.9508,5.42505,-0.00218168,0.00120516,-0.000239457,0.00122201,-0.00219852,-1.50056,0.00200149,0.0109436,1917,1345,15.9509,-5.42499
700,-321,15.962,5.22168,-0.000655673,0.00425811,-0.00150943,0.00468474,-0.0010823,-1.29534,0.00353952,0.0112869,1924,1345,15.9621,-5.22165
707,-321,15.9579,5.01868,0.00103839,0.0084326,-0.00271419,0.00932193,0.00014906,-1.25416,0.00616553,0.0130753,1931,1345,15.9579,-5.01873
714,-321,15.9602,4.82251,0.00274475,0.0136989,-0.003932,0.0149642,0.0014795,-1.25948,0.00952133,0.0122618,1938,1345,15.9602,-4.82252
721,-321,15.9445,4.58435,0.00514238,0.0211969,-0.00496866,0.0226102,0.00372906,-1.29367,0.013997,0.02037,1945,1345,15.9444,-4.58434
728,-321,15.8292,4.42188,0.00869485,0.0311247,-0.0061545,0.0327025,0.00711711,-1.31984,0.019859,0.0318016,1952,1345,15.8292,-4.42187
735,-321,15.6957,3.58789,0.014195,0.0444652,-0.00724299,0.046109,0.0125512,-1.34762,0.0275265,0.0454664,1959,1345,15.6957,-3.58786
742,-321,15.3694,2.26855,0.0222044,0.0616285,-0.00790868,0.0631559,0.020677,-1.38002,0.0371802,0.0485834,1966,1345,15.3694,-2.2685
749,-321,15.6646,1.99927,0.0332132,0.082899,-0.00767108,0.0840564,0.0320558,-1.42105,0.0489832,0.0469937,1973,1345,15.6645,-1.99931
756,-321,16.1371,1.54419,0.0478667,0.108391,-0.00587951,0.108957,0.0473008,-1.47485,0.0630879,0.047138,1980,1345,16.1371,-1.54422
763,-321,16.5902,1.14172,0,0,0,0,0,0,0,-1,1987,1345,16.5902,-1.14172
770,-321,0,0,0,0,0,0,0,0,0,-1,1994,1345,0,0
777,-321,0,0,0,0,0,0,0,0,0,-1,2001,1345,0,0
784,-321,0,0,0,0,0,0,0,0,0,-1,2008,1345,0,0
791,-321,0,0,0,0,0,0,0,0,0,-1,2015,1345,0,0
798,-321,0,0,0,0,0,0,0,0,0,-1,2022,1345,0,0
805,-321,0,0,0,0,0,0,0,0,0,-1,2029,1345,0,0
812,-321,0,0,0,0,0,0,0,0,0,-1,2036,1345,0,0
-700,-328,0,0,0,0,0,0,0,0,0,-1,524,1352,0,0
-693,-328,0,0,0,0,0,0,0,0,0,-1,531,1352,0,0
-686,-328,0,0,0,0,0,0,0,0,0,-1,538,1352,0,0
-679,-328,0,0,0,0,0,0,0,0,0,-1,545,1352,0,0
-672,-328,0,0,0,0,0,0,0,0,0,-1,552,1352,0,0
-665,-328,0,0,0,0,0,0,0,0,0,-1,559,1352,0,0
-658,-328,0,0,0,0,0,0,0,0,0,-1,566,1352,0,0
-651,-328,0,0,0,0,0,0,0,0,0,-1,573,1352,0,0
-644,-328,0,0,0,0,0,0,0,0,0,-1,580,1352,0,0
-637,-328,-5.44012,-7.92297,0,0,0,0,0,0,0,-1,587,1352,-5.4401,7.92297
-630,-328,-4.86914,-5.88904,0,0,0,0,0,0,0,-1,594,1352,-4.86916,5.88901
-623,-328,-5.25623,-3.05176,0,0,0,0,0,0,0,-1,601,1352,-5.25621,3.05172
-616,-328,-3.60748,-3.00574,0,0,0,0,0,0,0,-1,608,1352,-3.60747,3.00572
-609,-328,-7.87439,0.192871,0,0,0,0,0,0,0,-1,615,1352,-7.87441,-0.192822
-602,-328,-7.1377,0.20752,0,0,0,0,0,0,0,-1,622,1352,-7.13771,-0.207557
-595,-328,-7.21796,2.01282,0,0,0,0,0,0,0,-1,629,1352,-7.21795,-2.01277
-588,-328,-7.04987,2.32214,0.0107982,0.00704876,-0.000456369,0.0108529,0.00699401,-0.119395,0.00635248,0.0385707,636,1352,-7.04984,-2.3222
-581,-328,-7.13055,2.66553,0.00139449,0.00083253,-0.00134832,0.0024908,-0.000263779,-0.682673,0.00175508,0.0144511,643,1352,-7.13057,-2.66555
-574,-328,-7.13165,2.92639,-0.00257608,-0.00266887,-0.00237437,-0.000247651,-0.0049973,-0.77563,0.00325213,0.0136088,650,1352,-7.13165,-2.92637
-567,-328,-7.15784,3.17932,-0.00170271,-0.00222422,-0.00202815,8.13734e-05,-0.00400831,-0.721464,0.00269974,0.0188005,657,1352,-7.15782,-3.17927
-560,-328,-7.09332,3.43848,-0.0012568,-0.00223272,-0.0019575,0.000272644,-0.00376216,-0.66325,0.00260375,0.0251743,664,1352,-7.09331,-3.43846
-553,-328,-7.1051,3.63171,-0.00132789,-0.00299823,-0.00192766,-6.22564e-05,-0.00426386,-0.580977,0.00282205,0.0251979,671,1352,-7.10511,-3.63176
-546,-328,-7.1402,3.83337,-0.00241016,-0.00509285,-0.00228332,-0.00110334,-0.00639966,-0.519827,0.00395036,0.0253592,678,1352,-7.1402,-3.83332
-539,-328,-7.14313,4.07959,-0.0039194,-0.00846808,-0.00296799,-0.00245455,-0.00993294,-0.458476,0.00597428,0.023368,685,1352,-7.14315,-4.07954
-532,-328,-7.12476,4.33276,-0.0053798,-0.0140396,-0.00465774,-0.00335025,-0.0160691,-0.41093,0.00978902,0.0164598,692,1352,-7.12478,-4.33272
-525,-328,-7.08344,4.59644,-0.00710589,-0.0215816,-0.00679492,-0.00441614,-0.0242714,-0.376922,0.0149282,0.0127247,699,1352,-7.08346,-4.59644
-518,-328,-7.02563,4.8501,-0.0096485,-0.0301553,-0.00924982,-0.00609279,-0.033711,-0.366994,0.0207435,0.0373316,706,1352,-7.02566,-4.85013
-511,-328,-7.53729,4.74084,-0.0119938,-0.039831,-0.0120619,-0.00749459,-0.0443302,-0.357027,0.0273991,0.0443165,713,1352,-7.5373,-4.7408
-504,-328,-8.14557,4.77026,0,0,0,0,0,0,0,-1,720,1352,-8.14556,-4.77021
-497,-328,-10.8277,4.08301,-0.0159481,-0.0622414,-0.0190259,-0.00913223,-0.0690573,-0.343998,0.0433162,0.0441442,727,1352,-10.8277,-4.08303
-490,-328,-11.0875,3.83716,-0.0171783,-0.0744909,-0.0232241,-0.00894909,-0.0827202,-0.340536,0.052419,0.0474968,734,1352,-11.0875,-3.83713
-483,-328,-11.3681,3.75415,-0.017316,-0.0870228,-0.028015,-0.0074525,-0.0968863,-0.338526,0.0622555,0.0495008,741,1352,-11.3681,-3.75413
-476,-328,-11.5327,3.73169,-0.0161466,-0.0996422,-0.0335269,-0.0043507,-0.111438,-0.338308,0.0728851,0.0454473,748,1352,-11.5327,-3.73173
-469,-328,-11.8047,3.55981,0,0,0,0,0,0,0,-1,755,1352,-11.8047,-3.55978
-462,-328,-12.7908,2.91858,0,0,0,0,0,0,0,-1,762,1352,-12.7908,-2.91857
-455,-328,0,0,0,0,0,0,0,0,0,-1,769,1352,0,0
-448,-328,0,0,0,0,0,0,0,0,0,-1,776,1352,0,0
-441,-328,0,0,0,0,0,0,0,0,0,-1,783,1352,0,0
-434,-328,0,0,0,0,0,0,0,0,0,-1,790,1352,0,0
-427,-328,0,0,0,0,0,0,0,0,0,-1,797,1352,0,0
-420,-328,0,0,0,0,0,0,0,0,0,-1,804,1352,0,0
-413,-328,0,0,0,0,0,0,0,0,0,-1,811,1352,0,0
-406,-328,0,0,0,0,0,0,0,0,0,-1,818,1352,0,0
-399,-328,0,0,0,0,0,0,0,0,0,-1,825,1352,0,0
-392,-328,0,0,0,0,0,0,0,0,0,-1,832,1352,0,0
-385,-328,0,0,0,0,0,0,0,0,0,-1,839,1352,0,0
-378,-328,0,0,0,0,0,0,0,0,0,-1,846,1352,0,0
-371,-328,0,0,0,0,0,0,0,0,0,-1,853,1352,0,0
-364,-328,0,0,0,0,0,0,0,0,0,-1,860,1352,0,0
-357,-328,0,0,0,0,0,0,0,0,0,-1,867,1352,0,0
-350,-328,0,0,0,0,0,0,0,0,0,-1,874,1352,0,0
-343,-328,0,0,0,0,0,0,0,0,0,-1,881,1352,0,0
-336,-328,0,0,0,0,0,0,0,0,0,-1,888,1352,0,0
-329,-328,0,0,0,0,0,0,0,0,0,-1,895,1352,0,0
-322,-328,0,0,0,0,0,0,0,0,0,-1,902,1352,0,0
-315,-328,0,0,0,0,0,0,0,0,0,-1,909,1352,0,0
-308,-328,0,0,0,0,0,0,0,0,0,-1,916,1352,0,0
-301,-328,0,0,0,0,0,0,0,0,0,-1,923,1352,0,0
-294,-328,0,0,0,0,0,0,0,0,0,-1,930,1352,0,0
-287,-328,0,0,0,0,0,0,0,0,0,-1,937,1352,0,0
-280,-328,0,0,0,0,0,0,0,0,0,-1,944,1352,0,0
-273,-328,0,0,0,0,0,0,0,0,0,-1,951,1352,0,0
-266,-328,0,0,0,0,0,0,0,0,0,-1,958,1352,0,0
-259,-328,0,0,0,0,0,0,0,0,0,-1,965,1352,0,0
-252,-328,0,0,0,0,0,0,0,0,0,-1,972,1352,0,0
-245,-328,0,0,0,0,0,0,0,0,0,-1,979,1352,0,0
-238,-328,0,0,0,0,0,0,0,0,0,-1,986,1352,0,0
-231,-328,0,0,0,0,0,0,0,0,0,-1,993,1352,0,0
-224,-328,0,0,0,0,0,0,0,0,0,-1,1000,1352,0,0
-217,-328,0,0,0,0,0,0,0,0,0,-1,1007,1352,0,0
-210,-328,0,0,0,0,0,0,0,0,0,-1,1014,1352,0,0
-203,-328,0,0,0,0,0,0,0,0,0,-1,1021,1352,0,0
-196,-328,0,0,0,0,0,0,0,0,0,-1,1028,1352,0,0
-189,-328,0,0,0,0,0,0,0,0,0,-1,1035,1352,0,0
-182,-328,0,0,0,0,0,0,0,0,0,-1,1042,1352,0,0
-175,-328,0,0,0,0,0,0,0,0,0,-1,1049,1352,0,0
-168,-328,0,0,0,0,0,0,0,0,0,-1,1056,1352,0,0
-161,-328,0,0,0,0,0,0,0,0,0,-1,1063,1352,0,0
-154,-328,0,0,0,0,0,0,0,0,0,-1,1070,1352,0,0
-147,-328,0,0,0,0,0,0,0,0,0,-1,1077,1352,0,0
-140,-328,0,0,0,0,0,0,0,0,0,-1,1084,1352,0,0
-133,-328,0,0,0,0,0,0,0,0,0,-1,1091,1352,0,0
-126,-328,0,0,0,0,0,0,0,0,0,-1,1098,1352,0,0
-119,-328,0,0,0,0,0,0,0,0,0,-1,1105,1352,0,0
-112,-328,0,0,0,0,0,0,0,0,0,-1,1112,1352,0,0
-105,-328,0,0,0,0,0,0,0,0,0,-1,1119,1352,0,0
-98,-328,0,0,0,0,0,0,0,0,0,-1,1126,1352,0,0
-91,-328,0,0,0,0,0,0,0,0,0,-1,1133,1352,0,0
-84,-328,0,0,0,0,0,0,0,0,0,-1,1140,1352,0,0
-77,-328,0,0,0,0,0,0,0,0,0,-1,1147,1352,0,0
-70,-328,0,0,0,0,0,0,0,0,0,-1,1154,1352,0,0
-63,-328,0,0,0,0,0,0,0,0,0,-1,1161,1352,0,0
-56,-328,0,0,0,0,0,0,0,0,0,-1,1168,1352,0,0
-49,-328,0,0,0,0,0,0,0,0,0,-1,1175,1352,0,0
-42,-328,0,0,0,0,0,0,0,0,0,-1,1182,1352,0,0
-35,-328,0,0,0,0,0,0,0,0,0,-1,1189,1352,0,0
-28,-328,0,0,0,0,0,0,0,0,0,-1,1196,1352,0,0
-21,-328,0,0,0,0,0,0,0,0,0,-1,1203,1352,0,0
-14,-328,0,0,0,0,0,0,0,0,0,-1,1210,1352,0,0
-7,-328,0,0,0,0,0,0,0,0,0,-1,1217,1352,0,0
0,-328,0,0,0,0,0,0,0,0,0,-1,1224,1352,0,0
7,-328,0,0,0,0,0,0,0,0,0,-1,1231,1352,0,0
14,-328,0,0,0,0,0,0,0,0,0,-1,1238,1352,0,0
21,-328,0,0,0,0,0,0,0,0,0,-1,1245,1352,0,0
28,-328,0,0,0,0,0,0,0,0,0,-1,1252,1352,0,0
35,-328,0,0,0,0,0,0,0,0,0,-1,1259,1352,0,0
42,-328,0,0,0,0,0,0,0,0,0,-1,1266,1352,0,0
49,-328,0,0,0,0,0,0,0,0,0,-1,1273,1352,0,0
56,-328,0,0,0,0,0,0,0,0,0,-1,1280,1352,0,0
63,-328,0,0,0,0,0,0,0,0,0,-1,1287,1352,0,0
70,-328,0,0,0,0,0,0,0,0,0,-1,1294,1352,0,0
77,-328,0,0,0,0,0,0,0,0,0,-1,1301,1352,0,0
84,-328,0,0,0,0,0,0,0,0,0,-1,1308,1352,0,0
91,-328,0,0,0,0,0,0,0,0,0,-1,1315,1352,0,0
98,-328,0,0,0,0,0,0,0,0,0,-1,1322,1352,0,0
105,-328,0,0,0,0,0,0,0,0,0,-1,1329,1352,0,0
112,-328,0,0,0,0,0,0,0,0,0,-1,1336,1352,0,0
119,-328,0,0,0,0,0,0,0,0,0,-1,1343,1352,0,0
126,-328,0,0,0,0,0,0,0,0,0,-1,1350,1352,0,0
133,-328,0,0,0,0,0,0,0,0,0,-1,1357,1352,0,0
140,-328,0,0,0,0,0,0,0,0,0,-1,1364,1352,0,0
147,-328,0,0,0,0,0,0,0,0,0,-1,1371,1352,0,0
154,-328,0,0,0,0,0,0,0,0,0,-1,1378,1352,0,0
161,-328,0,0,0,0,0,0,0,0,0,-1,1385,1352,0,0
168,-328,0,0,0,0,0,0,0,0,0,-1,1392,1352,0,0
175,-328,0,0,0,0,0,0,0,0,0,-1,1399,1352,0,0
182,-328,0,0,0,0,0,0,0,0,0,-1,1406,1352,0,0
189,-328,0,0,0,0,0,0,0,0,0,-1,1413,1352,0,0
196,-328,0,0,0,0,0,0,0,0,0,-1,1420,1352,0,0
203,-328,0,0,0,0,0,0,0,0,0,-1,1427,1352,0,0
210,-328,0,0,0,0,0,0,0,0,0,-1,1434,1352,0,0
217,-328,0,0,0,0,0,0,0,0,0,-1,1441,1352,0,0
224,-328,0,0,0,0,0,0,0,0,0,-1,1448,1352,0,0
231,-328,0,0,0,0,0,0,0,0,0,-1,1455,1352,0,0
238,-328,0,0,0,0,0,0,0,0,0,-1,1462,1352,0,0
245,-328,0,0,0,0,0,0,0,0,0,-1,1469,1352,0,0
252,-328,0,0,0,0,0,0,0,0,0,-1,1476,1352,0,0
259,-328,0,0,0,0,0,0,0,0,0,-1,1483,1352,0,0
266,-328,0,0,0,0,0,0,0,0,0,-1,1490,1352,0,0
273,-328,0,0,0,0,0,0,0,0,0,-1,1497,1352,0,0
280,-328,0,0,0,0,0,0,0,0,0,-1,1504,1352,0,0
287,-328,0,0,0,0,0,0,0,0,0,-1,1511,1352,0,0
294,-328,0,0,0,0,0,0,0,0,0,-1,1518,1352,0,0
301,-328,0,0,0,0,0,0,0,0,0,-1,1525,1352,0,0
308,-328,0,0,0,0,0,0,0,0,0,-1,1532,1352,0,0
315,-328,0,0,0,0,0,0,0,0,0,-1,1539,1352,0,0
322,-328,0,0,0,0,0,0,0,0,0,-1,1546,1352,0,0
329,-328,0,0,0,0,0,0,0,0,0,-1,1553,1352,0,0
336,-328,0,0,0,0,0,0,0,0,0,-1,1560,1352,0,0
343,-328,0,0,0,0,0,0,0,0,0,-1,1567,1352,0,0
350,-328,0,0,0,0,0,0,0,0,0,-1,1574,1352,0,0
357,-328,0,0,0,0,0,0,0,0,0,-1,1581,1352,0,0
364,-328,0,0,0,0,0,0,0,0,0,-1,1588,1352,0,0
371,-328,0,0,0,0,0,0,0,0,0,-1,1595,1352,0,0
378,-328,0,0,0,0,0,0,0,0,0,-1,1602,1352,0,0
385,-328,0,0,0,0,0,0,0,0,0,-1,1609,1352,0,0
392,-328,0,0,0,0,0,0,0,0,0,-1,1616,1352,0,0
399,-328,0,0,0,0,0,0,0,0,0,-1,1623,1352,0,0
406,-328,0,0,0,0,0,0,0,0,0,-1,1630,1352,0,0
413,-328,0,0,0,0,0,0,0,0,0,-1,1637,1352,0,0
420,-328,0,0,0,0,0,0,0,0,0,-1,1644,1352,0,0
427,-328,0,0,0,0,0,0,0,0,0,-1,1651,1352,0,0
434,-328,0,0,0,0,0,0,0,0,0,-1,1658,1352,0,0
441,-328,0,0,0,0,0,0,0,0,0,-1,1665,1352,0,0
448,-328,0,0,0,0,0,0,0,0,0,-1,1672,1352,0,0
455,-328,0,0,0,0,0,0,0,0,0,-1,1679,1352,0,0
462,-328,0,0,0,0,0,0,0,0,0,-1,1686,1352,0,0
469,-328,0,0,0,0,0,0,0,0,0,-1,1693,1352,0,0
476,-328,0,0,0,0,0,0,0,0,0,-1,1700,1352,0,0
483,-328,0,0,0,0,0,0,0,0,0,-1,1707,1352,0,0
490,-328,0,0,0,0,0,0,0,0,0,-1,1714,1352,0,0
497,-328,0,0,0,0,0,0,0,0,0,-1,1721,1352,0,0
504,-328,0,0,0,0,0,0,0,0,0,-1,1728,1352,0,0
511,-328,0,0,0,0,0,0,0,0,0,-1,1735,1352,0,0
518,-328,0,0,0,0,0,0,0,0,0,-1,1742,1352,0,0
525,-328,0,0,0,0,0,0,0,0,0,-1,1749,1352,0,0
532,-328,0,0,0,0,0,0,0,0,0,-1,1756,1352,0,0
539,-328,0,0,0,0,0,0,0,0,0,-1,1763,1352,0,0
546,-328,0,0,0,0,0,0,0,0,0,-1,1770,1352,0,0
553,-328,0,0,0,0,0,0,0,0,0,-1,1777,1352,0,0
560,-328,0,0,0,0,0,0,0,0,0,-1,1784,1352,0,0
567,-328,0,0,0,0,0,0,0,0,0,-1,1791,1352,0,0
574,-328,28.2292,2.03394,0,0,0,0,0,0,0,-1,1798,1352,28.2293,-2.03394
581,-328,27.3054,2.1604,0,0,0,0,0,0,0,-1,1805,1352,27.3054,-2.16042
588,-328,26.1967,2.43884,0,0,0,0,0,0,0,-1,1812,1352,26.1966,-2.43889
595,-328,24.9884,2.73401,0,0,0,0,0,0,0,-1,1819,1352,24.9884,-2.73406
602,-328,23.8795,3.07117,0,0,0,0,0,0,0,-1,1826,1352,23.8795,-3.0712
609,-328,22.8627,2.73193,0,0,0,0,0,0,0,-1,1833,1352,22.8626,-2.73196
616,-328,21.9314,4.14661,0,0,0,0,0,0,0,-1,1840,1352,21.9314,-4.14659
623,-328,21.533,5.73865,0,0,0,0,0,0,0,-1,1847,1352,21.533,-5.73863
630,-328,17.3185,7.62988,0,0,0,0,0,0,0,-1,1854,1352,17.3184,-7.62987
637,-328,16.8966,7.19812,0,0,0,0,0,0,0,-1,1861,1352,16.8966,-7.19806
644,-328,16.4474,6.76929,0,0,0,0,0,0,0,-1,1868,1352,16.4474,-6.76928
651,-328,15.8638,6.61938,0,0,0,0,0,0,0,-1,1875,1352,15.8638,-6.61933
658,-328,15.7385,6.44226,-0.0100327,-0.005027,0.00920074,0.00200524,-0.0170649,0.918198,0.0121005,0.0218498,1882,1352,15.7385,-6.44222
665,-328,15.7484,6.23694,-0.00839338,-0.00426316,0.00589954,-7.77324e-05,-0.0125788,0.953756,0.00836009,0.0134996,1889,1352,15.7484,-6.23695
672,-328,15.745,6.0437,-0.00628465,-0.00296384,0.00337944,-0.000858934,-0.00838955,1.01374,0.00532985,0.0110503,1896,1352,15.745,-6.04369
679,-328,15.7625,5.83167,-0.0039529,-0.00196798,0.00166858,-0.00101902,-0.00490187,1.05369,0.00298676,0.0124337,1903,1352,15.7624,-5.83172
686,-328,15.7577,5.61609,-0.0021315,-0.000398423,0.000690878,-0.00015672,-0.00237321,1.23425,0.00153257,0.0118191,1910,1352,15.7577,-5.61608
693,-328,15.7566,5.42749,-0.0012092,0.00168822,-0.000698956,0.00184802,-0.001369,-1.34603,0.00186419,0.00833693,1917,1352,15.7566,-5.42746
700,-328,15.7583,5.23328,0.000106485,0.00476338,-0.00200349,0.00550668,-0.000636814,-1.21553,0.00390076,0.0123207,1924,1352,15.7583,-5.23328
707,-328,15.7627,5.03259,0.00180508,0.00907039,-0.00322617,0.0102962,0.000579303,-1.20769,0.00667939,0.0147343,1931,1352,15.7627,-5.03263
714,-328,15.7848,4.83875,0.00357398,0.0144547,-0.00460917,0.0161447,0.00188398,-1.21936,0.0101933,0.0131625,1938,1352,15.7848,-4.83875
721,-328,15.691,4.62146,0.00615783,0.0222094,-0.00599705,0.0242025,0.00416474,-1.24994,0.0149415,0.027071,1945,1352,15.691,-4.62141
728,-328,15.7084,4.30249,0.0101638,0.0328013,-0.00761505,0.0351245,0.00784056,-1.27468,0.0212896,0.041784,1952,1352,15.7084,-4.3025
735,-328,14.5126,1.72046,0,0,0,0,0,0,0,-1,1959,1352,14.5126,-1.72049
742,-328,15.2047,1.27271,0,0,0,0,0,0,0,-1,1966,1352,15.2048,-1.27274
749,-328,15.0228,1.38635,0,0,0,0,0,0,0,-1,1973,1352,15.0228,-1.38635
756,-328,15.5142,0.953613,0,0,0,0,0,0,0,-1,1980,1352,15.5141,-0.953577
763,-328,0,0,0,0,0,0,0,0,0,-1,1987,1352,0,0
770,-328,0,0,0,0,0,0,0,0,0,-1,1994,1352,0,0
777,-328,0,0,0,0,0,0,0,0,0,-1,2001,1352,0,0
784,-328,0,0,0,0,0,0,0,0,0,-1,2008,1352,0,0
791,-328,0,0,0,0,0,0,0,0,0,-1,2015,1352,0,0
798,-328,0,0,0,0,0,0,0,0,0,-1,2022,1352,0,0
805,-328,0,0,0,0,0,0,0,0,0,-1,2029,1352,0,0
812,-328,0,0,0,0,0,0,0,0,0,-1,2036,1352,0,0
-700,-335,0,0,0,0,0,0,0,0,0,-1,524,1359,0,0
-693,-335,0,0,0,0,0,0,0,0,0,-1,531,1359,0,0
-686,-335,0,0,0,0,0,0,0,0,0,-1,538,1359,0,0
-679,-335,0,0,0,0,0,0,0,0,0,-1,545,1359,0,0
-672,-335,0,0,0,0,0,0,0,0,0,-1,552,1359,0,0
-665,-335,0,0,0,0,0,0,0,0,0,-1,559,1359,0,0
-658,-335,0,0,0,0,0,0,0,0,0,-1,566,1359,0,0
-651,-335,0,0,0,0,0,0,0,0,0,-1,573,1359,0,0
-644,-335,0,0,0,0,0,0,0,0,0,-1,580,1359,0,0
-637,-335,-8.26929,-4.24609,0.187465,0.0709243,0.00431481,0.187625,0.0707648,0.0369565,0.10941,0.0475675,587,1359,-8.26929,4.24605
-630,-335,-6.40076,-4.81458,0.145098,0.0656905,0.00373683,0.145274,0.065515,0.0469205,0.0840081,0.0478412,594,1359,-6.40077,4.81453
-623,-335,-4.28967,-5.229,0,0,0,0,0,0,0,-1,601,1359,-4.28968,5.22903
-616,-335,-2.34357,0.0516357,0,0,0,0,0,0,0,-1,608,1359,-2.3436,-0.051622
-609,-335,-7.664,-2.79272,0,0,0,0,0,0,0,-1,615,1359,-7.66403,2.79271
-602,-335,-6.47595,2.70374,0,0,0,0,0,0,0,-1,622,1359,-6.47594,-2.70373
-595,-335,-6.53351,2.63611,0,0,0,0,0,0,0,-1,629,1359,-6.5335,-2.6361
-588,-335,-6.66095,2.53381,0.014846,0.00832151,-0.000743312,0.0149296,0.0082379,-0.112015,0.00863498,0.0376608,636,1359,-6.66097,-2.53376
-581,-335,-6.87311,2.71899,0.00284371,0.00224128,-0.00161184,0.00418224,0.000902751,-0.693025,0.00254126,0.0201757,643,1359,-6.87308,-2.71903
-574,-335,-6.89032,2.93384,-0.00245584,-0.00114427,-0.00257625,0.000858348,-0.00445846,-0.910026,0.00329589,0.0119626,650,1359,-6.89033,-2.93386
-567,-335,-6.88953,3.15112,-0.00169164,-0.000944196,-0.00214459,0.000858991,-0.00349482,-0.871663,0.0026628,0.0162924,657,1359,-6.88953,-3.15111
-560,-335,-6.83594,3.36707,-0.00130469,-0.00113652,-0.00199407,0.000775242,-0.00321645,-0.80647,0.00244405,0.0243701,664,1359,-6.83596,-3.36701
-553,-335,-6.87555,3.62122,-0.00129251,-0.0019112,-0.00189933,0.000322498,-0.00352621,-0.704671,0.00246535,0.0260179,671,1359,-6.87553,-3.62116
-546,-335,-6.90955,3.8866,-0.00205597,-0.00376266,-0.00216227,-0.000584753,-0.00523388,-0.597455,0.00331159,0.0242035,678,1359,-6.90953,-3.88661
-539,-335,-6.9187,4.10986,-0.00320253,-0.00675462,-0.00273063,-0.00172118,-0.00823598,-0.497065,0.00501634,0.020764,685,1359,-6.91872,-4.10988
-532,-335,-6.91357,4.35132,-0.0043897,-0.0115657,-0.0041624,-0.00248231,-0.0134731,-0.429689,0.00827958,0.0156377,692,1359,-6.91357,-4.35134
-525,-335,-6.84924,4.60718,-0.0058508,-0.0182731,-0.00604443,-0.00339515,-0.0207287,-0.385898,0.012838,0.0102987,699,1359,-6.84922,-4.60717
-518,-335,-6.82373,4.82593,-0.00799978,-0.0260759,-0.00828782,-0.00477511,-0.0293006,-0.371062,0.0181526,0.0193777,706,1359,-6.82373,-4.82595
-511,-335,-7.12714,4.84827,-0.010006,-0.0350529,-0.0109117,-0.00591915,-0.0391397,-0.358364,0.024361,0.0448953,713,1359,-7.12714,-4.84828
-504,-335,-7.565,5.17273,0,0,0,0,0,0,0,-1,720,1359,-7.56498,-5.17269
-497,-335,-7.96796,5.69189,0,0,0,0,0,0,0,-1,727,1359,-7.96797,-5.69186
-490,-335,-10.8923,4.43506,-0.0143513,-0.0684677,-0.0213646,-0.00693351,-0.0758854,-0.334177,0.0484448,0.0480929,734,1359,-10.8923,-4.43506
-483,-335,-10.9349,4.52917,-0.0143074,-0.0808282,-0.0256727,-0.00555185,-0.0895838,-0.328675,0.0579606,0.0475899,741,1359,-10.9349,-4.52922
-476,-335,-11.0251,4.48193,-0.0129727,-0.0933667,-0.0304169,-0.00276153,-0.103578,-0.323886,0.0681501,0.0435134,748,1359,-11.0251,-4.48189
-469,-335,-11.5682,4.16162,0,0,0,0,0,0,0,-1,755,1359,-11.5682,-4.16167
-462,-335,-10.4181,4.06299,0,0,0,0,0,0,0,-1,762,1359,-10.4181,-4.06293
-455,-335,-10.342,3.89612,0,0,0,0,0,0,0,-1,769,1359,-10.342,-3.89611
-448,-335,0,0,0,0,0,0,0,0,0,-1,776,1359,0,0
-441,-335,0,0,0,0,0,0,0,0,0,-1,783,1359,0,0
-434,-335,0,0,0,0,0,0,0,0,0,-1,790,1359,0,0
-427,-335,0,0,0,0,0,0,0,0,0,-1,797,1359,0,0
-420,-335,0,0,0,0,0,0,0,0,0,-1,804,1359,0,0
-413,-335,0,0,0,0,0,0,0,0,0,-1,811,1359,0,0
-406,-335,0,0,0,0,0,0,0,0,0,-1,818,1359,0,0
-399,-335,0,0,0,0,0,0,0,0,0,-1,825,1359,0,0
-392,-335,0,0,0,0,0,0,0,0,0,-1,832,1359,0,0
-385,-335,0,0,0,0,0,0,0,0,0,-1,839,1359,0,0
-378,-335,0,0,0,0,0,0,0,0,0,-1,846,1359,0,0
-371,-335,0,0,0,0,0,0,0,0,0,-1,853,1359,0,0
-364,-335,0,0,0,0,0,0,0,0,0,-1,860,1359,0,0
-357,-335,0,0,0,0,0,0,0,0,0,-1,867,1359,0,0
-350,-335,0,0,0,0,0,0,0,0,0,-1,874,1359,0,0
-343,-335,0,0,0,0,0,0,0,0,0,-1,881,1359,0,0
-336,-335,0,0,0,0,0,0,0,0,0,-1,888,1359,0,0
-329,-335,0,0,0,0,0,0,0,0,0,-1,895,1359,0,0
-322,-335,0,0,0,0,0,0,0,0,0,-1,902,1359,0,0
-315,-335,0,0,0,0,0,0,0,0,0,-1,909,1359,0,0
-308,-335,0,0,0,0,0,0,0,0,0,-1,916,1359,0,0
-301,-335,0,0,0,0,0,0,0,0,0,-1,923,1359,0,0
-294,-335,0,0,0,0,0,0,0,0,0,-1,930,1359,0,0
-287,-335,0,0,0,0,0,0,0,0,0,-1,937,1359,0,0
-280,-335,0,0,0,0,0,0,0,0,0,-1,944,1359,0,0
-273,-335,0,0,0,0,0,0,0,0,0,-1,951,1359,0,0
-266,-335,0,0,0,0,0,0,0,0,0,-1,958,1359,0,0
-259,-335,0,0,0,0,0,0,0,0,0,-1,965,1359,0,0
-252,-335,0,0,0,0,0,0,0,0,0,-1,972,1359,0,0
-245,-335,0,0,0,0,0,0,0,0,0,-1,979,1359,0,0
-238,-335,0,0,0,0,0,0,0,0,0,-1,986,1359,0,0
-231,-335,0,0,0,0,0,0,0,0,0,-1,993,1359,0,0
-224,-335,0,0,0,0,0,0,0,0,0,-1,1000,1359,0,0
-217,-335,0,0,0,0,0,0,0,0,0,-1,1007,1359,0,0
-210,-335,0,0,0,0,0,0,0,0,0,-1,1014,1359,0,0
-203,-335,0,0,0,0,0,0,0,0,0,-1,1021,1359,0,0
-196,-335,0,0,0,0,0,0,0,0,0,-1,1028,1359,0,0
-189,-335,0,0,0,0,0,0,0,0,0,-1,1035,1359,0,0
-182,-335,0,0,0,0,0,0,0,0,0,-1,1042,1359,0,0
-175,-335,0,0,0,0,0,0,0,0,0,-1,1049,1359,0,0
-168,-335,0,0,0,0,0,0,0,0,0,-1,1056,1359,0,0
-161,-335,0,0,0,0,0,0,0,0,0,-1,1063,1359,0,0
-154,-335,0,0,0,0,0,0,0,0,0,-1,1070,1359,0,0
-147,-335,0,0,0,0,0,0,0,0,0,-1,1077,1359,0,0
-140,-335,0,0,0,0,0,0,0,0,0,-1,1084,1359,0,0
-133,-335,0,0,0,0,0,0,0,0,0,-1,1091,1359,0,0
-126,-335,0,0,0,0,0,0,0,0,0,-1,1098,1359,0,0
-119,-335,0,0,0,0,0,0,0,0,0,-1,1105,1359,0,0
-112,-335,0,0,0,0,0,0,0,0,0,-1,1112,1359,0,0
-105,-335,0,0,0,0,0,0,0,0,0,-1,1119,1359,0,0
-98,-335,0,0,0,0,0,0,0,0,0,-1,1126,1359,0,0
-91,-335,0,0,0,0,0,0,0,0,0,-1,1133,1359,0,0
-84,-335,0,0,0,0,0,0,0,0,0,-1,1140,1359,0,0
-77,-335,0,0,0,0,0,0,0,0,0,-1,1147,1359,0,0
-70,-335,0,0,0,0,0,0,0,0,0,-1,1154,1359,0,0
-63,-335,0,0,0,0,0,0,0,0,0,-1,1161,1359,0,0
-56,-335,0,0,0,0,0,0,0,0,0,-1,1168,1359,0,0
-49,-335,0,0,0,0,0,0,0,0,0,-1,1175,1359,0,0
-42,-335,0,0,0,0,0,0,0,0,0,-1,1182,1359,0,0
-35,-335,0,0,0,0,0,0,0,0,0,-1,1189,1359,0,0
-28,-335,0,0,0,0,0,0,0,0,0,-1,1196,1359,0,0
-21,-335,0,0,0,0,0,0,0,0,0,-1,1203,1359,0,0
-14,-335,0,0,0,0,0,0,0,0,0,-1,1210,1359,0,0
-7,-335,0,0,0,0,0,0,0,0,0,-1,1217,1359,0,0
0,-335,0,0,0,0,0,0,0,0,0,-1,1224,1359,0,0
7,-335,0,0,0,0,0,0,0,0,0,-1,1231,1359,0,0
14,-335,0,0,0,0,0,0,0,0,0,-1,1238,1359,0,0
21,-335,0,0,0,0,0,0,0,0,0,-1,1245,1359,0,0
28,-335,0,0,0,0,0,0,0,0,0,-1,1252,1359,0,0
35,-335,0,0,0,0,0,0,0,0,0,-1,1259,1359,0,0
42,-335,0,0,0,0,0,0,0,0,0,-1,1266,1359,0,0
49,-335,0,0,0,0,0,0,0,0,0,-1,1273,1359,0,0
56,-335,0,0,0,0,0,0,0,0,0,-1,1280,1359,0,0
63,-335,0,0,0,0,0,0,0,0,0,-1,1287,1359,0,0
70,-335,0,0,0,0,0,0,0,0,0,-1,1294,1359,0,0
77,-335,0,0,0,0,0,0,0,0,0,-1,1301,1359,0,0
84,-335,0,0,0,0,0,0,0,0,0,-1,1308,1359,0,0
91,-335,0,0,0,0,0,0,0,0,0,-1,1315,1359,0,0
98,-335,0,0,0,0,0,0,0,0,0,-1,1322,1359,0,0
105,-335,0,0,0,0,0,0,0,0,0,-1,1329,1359,0,0
112,-335,0,0,0,0,0,0,0,0,0,-1,1336,1359,0,0
119,-335,0,0,0,0,0,0,0,0,0,-1,1343,1359,0,0
126,-335,0,0,0,0,0,0,0,0,0,-1,1350,1359,0,0
133,-335,0,0,0,0,0,0,0,0,0,-1,1357,1359,0,0
140,-335,0,0,0,0,0,0,0,0,0,-1,1364,1359,0,0
147,-335,0,0,0,0,0,0,0,0,0,-1,1371,1359,0,0
154,-335,0,0,0,0,0,0,0,0,0,-1,1378,1359,0,0
161,-335,0,0,0,0,0,0,0,0,0,-1,1385,1359,0,0
168,-335,0,0,0,0,0,0,0,0,0,-1,1392,1359,0,0
175,-335,0,0,0,0,0,0,0,0,0,-1,1399,1359,0,0
182,-335,0,0,0,0,0,0,0,0,0,-1,1406,1359,0,0
189,-335,0,0,0,0,0,0,0,0,0,-1,1413,1359,0,0
196,-335,0,0,0,0,0,0,0,0,0,-1,1420,1359,0,0
203,-335,0,0,0,0,0,0,0,0,0,-1,1427,1359,0,0
210,-335,0,0,0,0,0,0,0,0,0,-1,1434,1359,0,0
217,-335,0,0,0,0,0,0,0,0,0,-1,1441,1359,0,0
224,-335,0,0,0,0,0,0,0,0,0,-1,1448,1359,0,0
231,-335,0,0,0,0,0,0,0,0,0,-1,1455,1359,0,0
238,-335,0,0,0,0,0,0,0,0,0,-1,1462,1359,0,0
245,-335,0,0,0,0,0,0,0,0,0,-1,1469,1359,0,0
252,-335,0,0,0,0,0,0,0,0,0,-1,1476,1359,0,0
259,-335,0,0,0,0,0,0,0,0,0,-1,1483,1359,0,0
266,-335,0,0,0,0,0,0,0,0,0,-1,1490,1359,0,0
273,-335,0,0,0,0,0,0,0,0,0,-1,1497,1359,0,0
280,-335,0,0,0,0,0,0,0,0,0,-1,1504,1359,0,0
287,-335,0,0,0,0,0,0,0,0,0,-1,1511,1359,0,0
294,-335,0,0,0,0,0,0,0,0,0,-1,1518,1359,0,0
301,-335,0,0,0,0,0,0,0,0,0,-1,1525,1359,0,0
308,-335,0,0,0,0,0,0,0,0,0,-1,1532,1359,0,0
315,-335,0,0,0,0,0,0,0,0,0,-1,1539,1359,0,0
322,-335,0,0,0,0,0,0,0,0,0,-1,1546,1359,0,0
329,-335,0,0,0,0,0,0,0,0,0,-1,1553,1359,0,0
336,-335,0,0,0,0,0,0,0,0,0,-1,1560,1359,0,0
343,-335,0,0,0,0,0,0,0,0,0,-1,1567,1359,0,0
350,-335,0,0,0,0,0,0,0,0,0,-1,1574,1359,0,0
357,-335,0,0,0,0,0,0,0,0,0,-1,1581,1359,0,0
364,-335,0,0,0,0,0,0,0,0,0,-1,1588,1359,0,0
371,-335,0,0,0,0,0,0,0,0,0,-1,1595,1359,0,0
378,-335,0,0,0,0,0,0,0,0,0,-1,1602,1359,0,0
385,-335,0,0,0,0,0,0,0,0,0,-1,1609,1359,0,0
392,-335,0,0,0,0,0,0,0,0,0,-1,1616,1359,0,0
399,-335,0,0,0,0,0,0,0,0,0,-1,1623,1359,0,0
406,-335,0,0,0,0,0,0,0,0,0,-1,1630,1359,0,0
413,-335,0,0,0,0,0,0,0,0,0,-1,1637,1359,0,0
420,-335,0,0,0,0,0,0,0,0,0,-1,1644,1359,0,0
427,-335,0,0,0,0,0,0,0,0,0,-1,1651,1359,0,0
434,-335,0,0,0,0,0,0,0,0,0,-1,1658,1359,0,0
441,-335,0,0,0,0,0,0,0,0,0,-1,1665,1359,0,0
448,-335,0,0,0,0,0,0,0,0,0,-1,1672,1359,0,0
455,-335,0,0,0,0,0,0,0,0,0,-1,1679,1359,0,0
462,-335,0,0,0,0,0,0,0,0,0,-1,1686,1359,0,0
469,-335,0,0,0,0,0,0,0,0,0,-1,1693,1359,0,0
476,-335,0,0,0,0,0,0,0,0,0,-1,1700,1359,0,0
483,-335,0,0,0,0,0,0,0,0,0,-1,1707,1359,0,0
490,-335,0,0,0,0,0,0,0,0,0,-1,1714,1359,0,0
497,-335,0,0,0,0,0,0,0,0,0,-1,1721,1359,0,0
504,-335,0,0,0,0,0,0,0,0,0,-1,1728,1359,0,0
511,-335,0,0,0,0,0,0,0,0,0,-1,1735,1359,0,0
518,-335,0,0,0,0,0,0,0,0,0,-1,1742,1359,0,0
525,-335,0,0,0,0,0,0,0,0,0,-1,1749,1359,0,0
532,-335,0,0,0,0,0,0,0,0,0,-1,1756,1359,0,0
539,-335,0,0,0,0,0,0,0,0,0,-1,1763,1359,0,0
546,-335,0,0,0,0,0,0,0,0,0,-1,1770,1359,0,0
553,-335,0,0,0,0,0,0,0,0,0,-1,1777,1359,0,0
560,-335,0,0,0,0,0,0,0,0,0,-1,1784,1359,0,0
567,-335,0,0,0,0,0,0,0,0,0,-1,1791,1359,0,0
574,-335,18.209,6.4624,0,0,0,0,0,0,0,-1,1798,1359,18.209,-6.46235
581,-335,27.9615,1.13257,0,0,0,0,0,0,0,-1,1805,1359,27.9616,-1.1326
588,-335,27.0668,1.55286,0,0,0,0,0,0,0,-1,1812,1359,27.0668,-1.55285
595,-335,25.9718,2.11279,0,0,0,0,0,0,0,-1,1819,1359,25.9718,-2.11281
602,-335,24.5096,3.34387,0,0,0,0,0,0,0,-1,1826,1359,24.5097,-3.34382
609,-335,19.8302,5.17273,0,0,0,0,0,0,0,-1,1833,1359,19.8302,-5.17272
616,-335,18.9532,4.63953,0,0,0,0,0,0,0,-1,1840,1359,18.9532,-4.63955
623,-335,16.3636,7.41724,0,0,0,0,0,0,0,-1,1847,1359,16.3637,-7.4172
630,-335,15.4825,6.28235,0,0,0,0,0,0,0,-1,1854,1359,15.4826,-6.28231
637,-335,16.4896,6.57104,0,0,0,0,0,0,0,-1,1861,1359,16.4897,-6.57107
644,-335,16.015,6.60913,0,0,0,0,0,0,0,-1,1868,1359,16.015,-6.60917
651,-335,15.582,6.63135,-0.00767177,-0.00460915,0.0121357,0.00609148,-0.0183724,0.848158,0.0147055,0.0228936,1875,1359,15.582,-6.63139
658,-335,15.5159,6.48279,-0.00621235,-0.00392924,0.00870597,0.0037097,-0.0138513,0.850588,0.0106876,0.0141511,1882,1359,15.5159,-6.48285
665,-335,15.5352,6.25452,-0.00503466,-0.00313553,0.00535844,0.00135683,-0.00952702,0.873093,0.00684857,0.0142074,1889,1359,15.5351,-6.25448
672,-335,15.5563,6.02942,-0.00365208,-0.0021201,0.00299208,0.000202485,-0.00597467,0.910709,0.00405229,0.0162198,1896,1359,15.5563,-6.02942
679,-335,15.5602,5.84595,-0.00207135,-0.00143876,0.00135222,-0.000366337,-0.00314378,0.900286,0.00198504,0.0135663,1903,1359,15.5601,-5.84593
686,-335,15.5563,5.6261,-0.000922416,9.1387e-06,0.000335794,0.000117562,-0.00103084,1.25848,0.000729578,0.0107459,1910,1359,15.5562,-5.62604
693,-335,15.5516,5.3999,-0.000399958,0.00201082,-0.00103811,0.00239623,-0.000785369,-1.21531,0.00191377,0.00915066,1917,1359,15.5516,-5.39991
700,-335,15.5439,5.22205,0.000676062,0.00496258,-0.00226645,0.00593867,-0.000300028,-1.16413,0.00406282,0.00980211,1924,1359,15.544,-5.22201
707,-335,15.5393,5.03223,0.00235536,0.00925865,-0.00343494,0.0106766,0.000937442,-1.17931,0.00682672,0.0130294,1931,1359,15.5394,-5.03223
714,-335,15.5663,4.7865,0.00411013,0.0146762,-0.00486364,0.0165741,0.00221226,-1.19875,0.0103908,0.0203154,1938,1359,15.5663,-4.78649
721,-335,15.394,4.52576,0.0068097,0.0226075,-0.0064941,0.0249343,0.00448284,-1.22674,0.0153484,0.0381722,1945,1359,15.3941,-4.52581
728,-335,15.3806,4.28113,0,0,0,0,0,0,0,-1,1952,1359,15.3807,-4.2811
735,-335,14.1342,3.71106,0,0,0,0,0,0,0,-1,1959,1359,14.1342,-3.7111
742,-335,14.9547,0.514893,0,0,0,0,0,0,0,-1,1966,1359,14.9547,-0.514872
749,-335,14.5739,1.41492,0,0,0,0,0,0,0,-1,1973,1359,14.5739,-1.41491
756,-335,14.8652,1.00085,0,0,0,0,0,0,0,-1,1980,1359,14.8652,-1.00091
763,-335,0,0,0,0,0,0,0,0,0,-1,1987,1359,0,0
770,-335,0,0,0,0,0,0,0,0,0,-1,1994,1359,0,0
777,-335,0,0,0,0,0,0,0,0,0,-1,2001,1359,0,0
784,-335,0,0,0,0,0,0,0,0,0,-1,2008,1359,0,0
791,-335,0,0,0,0,0,0,0,0,0,-1,2015,1359,0,0
798,-335,0,0,0,0,0,0,0,0,0,-1,2022,1359,0,0
805,-335,0,0,0,0,0,0,0,0,0,-1,2029,1359,0,0
812,-335,0,0,0,0,0,0,0,0,0,-1,2036,1359,0,0
-700,-342,0,0,0,0,0,0,0,0,0,-1,524,1366,0,0
-693,-342,0,0,0,0,0,0,0,0,0,-1,531,1366,0,0
-686,-342,0,0,0,0,0,0,0,0,0,-1,538,1366,0,0
-679,-342,0,0,0,0,0,0,0,0,0,-1,545,1366,0,0
-672,-342,0,0,0,0,0,0,0,0,0,-1,552,1366,0,0
-665,-342,0,0,0,0,0,0,0,0,0,-1,559,1366,0,0
-658,-342,0,0,0,0,0,0,0,0,0,-1,566,1366,0,0
-651,-342,0,0,0,0,0,0,0,0,0,-1,573,1366,0,0
-644,-342,0,0,0,0,0,0,0,0,0,-1,580,1366,0,0
-637,-342,-8.67786,-4.58557,0.234424,0.0663883,0.00468472,0.234554,0.0662578,0.0278505,0.139626,0.0422208,587,1366,-8.67788,4.5856
-630,-342,-7.00763,-5.05237,0.17832,0.0667953,0.00412923,0.178473,0.0666426,0.0369578,0.104136,0.0440151,594,1366,-7.00763,5.05242
-623,-342,-4.90741,-5.52271,0,0,0,0,0,0,0,-1,601,1366,-4.90742,5.52265
-616,-342,-1.0625,0.0172119,0,0,0,0,0,0,0,-1,608,1366,-1.06251,-0.0172578
-609,-342,-5.72308,-0.100586,0,0,0,0,0,0,0,-1,615,1366,-5.72307,0.100632
-602,-342,-5.88855,1.85352,0,0,0,0,0,0,0,-1,622,1366,-5.88854,-1.85349
-595,-342,-6.31299,2.65222,0,0,0,0,0,0,0,-1,629,1366,-6.31301,-2.65221
-588,-342,-6.35944,2.43445,0.020089,0.0102643,-0.00122267,0.0202389,0.0101144,-0.121969,0.0116849,0.0440802,636,1366,-6.35944,-2.43445
-581,-342,-6.61188,2.65613,0.005145,0.00463818,-0.00202784,0.0069352,0.00284798,-0.723238,0.00402529,0.0346883,643,1366,-6.61189,-2.65616
-574,-342,-6.67249,2.94836,-0.00163682,0.00145317,-0.00283542,0.0031372,-0.00332085,-1.03485,0.00372906,0.0112014,650,1366,-6.67246,-2.94833
-567,-342,-6.6322,3.17957,-0.00121618,0.00110378,-0.00227607,0.00249841,-0.00261081,-1.02106,0.00295005,0.0163616,657,1366,-6.6322,-3.17953
-560,-342,-6.65057,3.36255,-0.00105361,0.000513807,-0.00201133,0.00188872,-0.00242852,-0.971173,0.00249905,0.0249747,664,1366,-6.6506,-3.36251
-553,-342,-6.70148,3.57068,-0.00105556,-0.000475826,-0.00182339,0.00108059,-0.00261198,-0.864225,0.00219217,0.0266754,671,1366,-6.70148,-3.57064
-546,-342,-6.68335,3.8551,-0.00156721,-0.00225992,-0.00196391,8.06599e-05,-0.00390778,-0.698116,0.00263249,0.0252679,678,1366,-6.68336,-3.85514
-539,-342,-6.67084,4.1344,-0.00238936,-0.00495965,-0.00239233,-0.000958846,-0.00639017,-0.538919,0.00397919,0.0219765,685,1366,-6.67083,-4.13442
-532,-342,-6.66174,4.37598,-0.00330008,-0.00910032,-0.00354887,-0.00161706,-0.0107833,-0.442829,0.0067151,0.0178181,692,1366,-6.66171,-4.37599
-525,-342,-6.61591,4.62109,-0.00445871,-0.0149627,-0.00512828,-0.00237022,-0.0170512,-0.38674,0.0106655,0.0118372,699,1366,-6.61588,-4.62107
-518,-342,-6.58655,4.86682,-0.00618094,-0.0218884,-0.00710187,-0.00344611,-0.0246233,-0.367583,0.0153959,0.0141765,706,1366,-6.58655,-4.86684
-511,-342,-6.63885,4.95007,-0.00783754,-0.0300159,-0.00946452,-0.00434773,-0.0335057,-0.353258,0.0210382,0.0384388,713,1366,-6.63885,-4.95005
-504,-342,-6.61133,5.00671,0,0,0,0,0,0,0,-1,720,1366,-6.61131,-5.00676
-497,-342,-6.69183,5.16785,0,0,0,0,0,0,0,-1,727,1366,-6.69185,-5.16783
-490,-342,-10.7191,5.06116,0,0,0,0,0,0,0,-1,734,1366,-10.719,-5.06113
-483,-342,-10.5609,5.42004,0,0,0,0,0,0,0,-1,741,1366,-10.5609,-5.42006
-476,-342,-10.4836,5.12231,0,0,0,0,0,0,0,-1,748,1366,-10.4836,-5.12236
-469,-342,-10.3543,5.60779,0,0,0,0,0,0,0,-1,755,1366,-10.3543,-5.60774
-462,-342,-9.56256,5.11755,0,0,0,0,0,0,0,-1,762,1366,-9.56255,-5.11756
-455,-342,-9.48853,5.49353,0,0,0,0,0,0,0,-1,769,1366,-9.48854,-5.49352
-448,-342,-9.64563,6.00867,0,0,0,0,0,0,0,-1,776,1366,-9.64564,-6.00867
-441,-342,0,0,0,0,0,0,0,0,0,-1,783,1366,0,0
-434,-342,0,0,0,0,0,0,0,0,0,-1,790,1366,0,0
-427,-342,0,0,0,0,0,0,0,0,0,-1,797,1366,0,0
-420,-342,0,0,0,0,0,0,0,0,0,-1,804,1366,0,0
-413,-342,0,0,0,0,0,0,0,0,0,-1,811,1366,0,0
-406,-342,0,0,0,0,0,0,0,0,0,-1,818,1366,0,0
-399,-342,0,0,0,0,0,0,0,0,0,-1,825,1366,0,0
-392,-342,0,0,0,0,0,0,0,0,0,-1,832,1366,0,0
-385,-342,0,0,0,0,0,0,0,0,0,-1,839,1366,0,0
-378,-342,0,0,0,0,0,0,0,0,0,-1,846,1366,0,0
-371,-342,0,0,0,0,0,0,0,0,0,-1,853,1366,0,0
-364,-342,0,0,0,0,0,0,0,0,0,-1,860,1366,0,0
-357,-342,0,0,0,0,0,0,0,0,0,-1,867,1366,0,0
-350,-342,0,0,0,0,0,0,0,0,0,-1,874,1366,0,0
-343,-342,0,0,0,0,0,0,0,0,0,-1,881,1366,0,0
-336,-342,0,0,0,0,0,0,0,0,0,-1,888,1366,0,0
-329,-342,0,0,0,0,0,0,0,0,0,-1,895,1366,0,0
-322,-342,0,0,0,0,0,0,0,0,0,-1,902,1366,0,0
-315,-342,0,0,0,0,0,0,0,0,0,-1,909,1366,0,0
-308,-342,0,0,0,0,0,0,0,0,0,-1,916,1366,0,0
-301,-342,0,0,0,0,0,0,0,0,0,-1,923,1366,0,0
-294,-342,0,0,0,0,0,0,0,0,0,-1,930,1366,0,0
-287,-342,0,0,0,0,0,0,0,0,0,-1,937,1366,0,0
-280,-342,0,0,0,0,0,0,0,0,0,-1,944,1366,0,0
-273,-342,0,0,0,0,0,0,0,0,0,-1,951,1366,0,0
-266,-342,0,0,0,0,0,0,0,0,0,-1,958,1366,0,0
-259,-342,0,0,0,0,0,0,0,0,0,-1,965,1366,0,0
-252,-342,0,0,0,0,0,0,0,0,0,-1,972,1366,0,0
-245,-342,0,0,0,0,0,0,0,0,0,-1,979,1366,0,0
-238,-342,0,0,0,0,0,0,0,0,0,-1,986,1366,0,0
-231,-342,0,0,0,0,0,0,0,0,0,-1,993,1366,0,0
-224,-342,0,0,0,0,0,0,0,0,0,-1,1000,1366,0,0
-217,-342,0,0,0,0,0,0,0,0,0,-1,1007,1366,0,0
-210,-342,0,0,0,0,0,0,0,0,0,-1,1014,1366,0,0
-203,-342,0,0,0,0,0,0,0,0,0,-1,1021,1366,0,0
-196,-342,0,0,0,0,0,0,0,0,0,-1,1028,1366,0,0
-189,-342,0,0,0,0,0,0,0,0,0,-1,1035,1366,0,0
-182,-342,0,0,0,0,0,0,0,0,0,-1,1042,1366,0,0
-175,-342,0,0,0,0,0,0,0,0,0,-1,1049,1366,0,0
-168,-342,0,0,0,0,0,0,0,0,0,-1,1056,1366,0,0
-161,-342,0,0,0,0,0,0,0,0,0,-1,1063,1366,0,0
-154,-342,0,0,0,0,0,0,0,0,0,-1,1070,1366,0,0
-147,-342,0,0,0,0,0,0,0,0,0,-1,1077,1366,0,0
-140,-342,0,0,0,0,0,0,0,0,0,-1,1084,1366,0,0
-133,-342,0,0,0,0,0,0,0,0,0,-1,1091,1366,0,0
-126,-342,0,0,0,0,0,0,0,0,0,-1,1098,1366,0,0
-119,-342,0,0,0,0,0,0,0,0,0,-1,1105,1366,0,0
-112,-342,0,0,0,0,0,0,0,0,0,-1,1112,1366,0,0
-105,-342,0,0,0,0,0,0,0,0,0,-1,1119,1366,0,0
-98,-342,0,0,0,0,0,0,0,0,0,-1,1126,1366,0,0
-91,-342,0,0,0,0,0,0,0,0,0,-1,1133,1366,0,0
-84,-342,0,0,0,0,0,0,0,0,0,-1,1140,1366,0,0
-77,-342,0,0,0,0,0,0,0,0,0,-1,1147,1366,0,0
-70,-342,0,0,0,0,0,0,0,0,0,-1,1154,1366,0,0
-63,-342,0,0,0,0,0,0,0,0,0,-1,1161,1366,0,0
-56,-342,0,0,0,0,0,0,0,0,0,-1,1168,1366,0,0
-49,-342,0,0,0,0,0,0,0,0,0,-1,1175,1366,0,0
-42,-342,0,0,0,0,0,0,0,0,0,-1,1182,1366,0,0
-35,-342,0,0,0,0,0,0,0,0,0,-1,1189,1366,0,0
-28,-342,0,0,0,0,0,0,0,0,0,-1,1196,1366,0,0
-21,-342,0,0,0,0,0,0,0,0,0,-1,1203,1366,0,0
-14,-342,0,0,0,0,0,0,0,0,0,-1,1210,1366,0,0
-7,-342,0,0,0,0,0,0,0,0,0,-1,1217,1366,0,0
0,-342,0,0,0,0,0,0,0,0,0,-1,1224,1366,0,0
7,-342,0,0,0,0,0,0,0,0,0,-1,1231,1366,0,0
14,-342,0,0,0,0,0,0,0,0,0,-1,1238,1366,0,0
21,-342,0,0,0,0,0,0,0,0,0,-1,1245,1366,0,0
28,-342,0,0,0,0,0,0,0,0,0,-1,1252,1366,0,0
35,-342,0,0,0,0,0,0,0,0,0,-1,1259,1366,0,0
42,-342,0,0,0,0,0,0,0,0,0,-1,1266,1366,0,0
49,-342,0,0,0,0,0,0,0,0,0,-1,1273,1366,0,0
56,-342,0,0,0,0,0,0,0,0,0,-1,1280,1366,0,0
63,-342,0,0,0,0,0,0,0,0,0,-1,1287,1366,0,0
70,-342,0,0,0,0,0,0,0,0,0,-1,1294,1366,0,0
77,-342,0,0,0,0,0,0,0,0,0,-1,1301,1366,0,0
84,-342,0,0,0,0,0,0,0,0,0,-1,1308,1366,0,0
91,-342,0,0,0,0,0,0,0,0,0,-1,1315,1366,0,0
98,-342,0,0,0,0,0,0,0,0,0,-1,1322,1366,0,0
105,-342,0,0,0,0,0,0,0,0,0,-1,1329,1366,0,0
112,-342,0,0,0,0,0,0,0,0,0,-1,1336,1366,0,0
119,-342,0,0,0,0,0,0,0,0,0,-1,1343,1366,0,0
126,-342,0,0,0,0,0,0,0,0,0,-1,1350,1366,0,0
133,-342,0,0,0,0,0,0,0,0,0,-1,1357,1366,0,0
140,-342,0,0,0,0,0,0,0,0,0,-1,1364,1366,0,0
147,-342,0,0,0,0,0,0,0,0,0,-1,1371,1366,0,0
154,-342,0,0,0,0,0,0,0,0,0,-1,1378,1366,0,0
161,-342,0,0,0,0,0,0,0,0,0,-1,1385,1366,0,0
168,-342,0,0,0,0,0,0,0,0,0,-1,1392,1366,0,0
175,-342,0,0,0,0,0,0,0,0,0,-1,1399,1366,0,0
182,-342,0,0,0,0,0,0,0,0,0,-1,1406,1366,0,0
189,-342,0,0,0,0,0,0,0,0,0,-1,1413,1366,0,0
196,-342,0,0,0,0,0,0,0,0,0,-1,1420,1366,0,0
203,-342,0,0,0,0,0,0,0,0,0,-1,1427,1366,0,0
210,-342,0,0,0,0,0,0,0,0,0,-1,1434,1366,0,0
217,-342,0,0,0,0,0,0,0,0,0,-1,1441,1366,0,0
224,-342,0,0,0,0,0,0,0,0,0,-1,1448,1366,0,0
231,-342,0,0,0,0,0,0,0,0,0,-1,1455,1366,0,0
238,-342,0,0,0,0,0,0,0,0,0,-1,1462,1366,0,0
245,-342,0,0,0,0,0,0,0,0,0,-1,1469,1366,0,0
252,-342,0,0,0,0,0,0,0,0,0,-1,1476,1366,0,0
259,-342,0,0,0,0,0,0,0,0,0,-1,1483,1366,0,0
266,-342,0,0,0,0,0,0,0,0,0,-1,1490,1366,0,0
273,-342,0,0,0,0,0,0,0,0,0,-1,1497,1366,0,0
280,-342,0,0,0,0,0,0,0,0,0,-1,1504,1366,0,0
287,-342,0,0,0,0,0,0,0,0,0,-1,1511,1366,0,0
294,-342,0,0,0,0,0,0,0,0,0,-1,1518,1366,0,0
301,-342,0,0,0,0,0,0,0,0,0,-1,1525,1366,0,0
308,-342,0,0,0,0,0,0,0,0,0,-1,1532,1366,0,0
315,-342,0,0,0,0,0,0,0,0,0,-1,1539,1366,0,0
322,-342,0,0,0,0,0,0,0,0,0,-1,1546,1366,0,0
329,-342,0,0,0,0,0,0,0,0,0,-1,1553,1366,0,0
336,-342,0,0,0,0,0,0,0,0,0,-1,1560,1366,0,0
343,-342,0,0,0,0,0,0,0,0,0,-1,1567,1366,0,0
350,-342,0,0,0,0,0,0,0,0,0,-1,1574,1366,0,0
357,-342,0,0,0,0,0,0,0,0,0,-1,1581,1366,0,0
364,-342,0,0,0,0,0,0,0,0,0,-1,1588,1366,0,0
371,-342,0,0,0,0,0,0,0,0,0,-1,1595,1366,0,0
378,-342,0,0,0,0,0,0,0,0,0,-1,1602,1366,0,0
385,-342,0,0,0,0,0,0,0,0,0,-1,1609,1366,0,0
392,-342,0,0,0,0,0,0,0,0,0,-1,1616,1366,0,0
399,-342,0,0,0,0,0,0,0,0,0,-1,1623,1366,0,0
406,-342,0,0,0,0,0,0,0,0,0,-1,1630,1366,0,0
413,-342,0,0,0,0,0,0,0,0,0,-1,1637,1366,0,0
420,-342,0,0,0,0,0,0,0,0,0,-1,1644,1366,0,0
427,-342,0,0,0,0,0,0,0,0,0,-1,1651,1366,0,0
434,-342,0,0,0,0,0,0,0,0,0,-1,1658,1366,0,0
441,-342,0,0,0,0,0,0,0,0,0,-1,1665,1366,0,0
448,-342,0,0,0,0,0,0,0,0,0,-1,1672,1366,0,0
455,-342,0,0,0,0,0,0,0,0,0,-1,1679,1366,0,0
462,-342,0,0,0,0,0,0,0,0,0,-1,1686,1366,0,0
469,-342,0,0,0,0,0,0,0,0,0,-1,1693,1366,0,0
476,-342,0,0,0,0,0,0,0,0,0,-1,1700,1366,0,0
483,-342,0,0,0,0,0,0,0,0,0,-1,1707,1366,0,0
490,-342,0,0,0,0,0,0,0,0,0,-1,1714,1366,0,0
497,-342,0,0,0,0,0,0,0,0,0,-1,1721,1366,0,0
504,-342,0,0,0,0,0,0,0,0,0,-1,1728,1366,0,0
511,-342,0,0,0,0,0,0,0,0,0,-1,1735,1366,0,0
518,-342,0,0,0,0,0,0,0,0,0,-1,1742,1366,0,0
525,-342,0,0,0,0,0,0,0,0,0,-1,1749,1366,0,0
532,-342,0,0,0,0,0,0,0,0,0,-1,1756,1366,0,0
539,-342,0,0,0,0,0,0,0,0,0,-1,1763,1366,0,0
546,-342,0,0,0,0,0,0,0,0,0,-1,1770,1366,0,0
553,-342,0,0,0,0,0,0,0,0,0,-1,1777,1366,0,0
560,-342,0,0,0,0,0,0,0,0,0,-1,1784,1366,0,0
567,-342,19.0521,6.35071,0,0,0,0,0,0,0,-1,1791,1366,19.0521,-6.35065
574,-342,16.8334,6.3042,0,0,0,0,0,0,0,-1,1798,1366,16.8333,-6.30423
581,-342,17.3655,6.37537,0,0,0,0,0,0,0,-1,1805,1366,17.3654,-6.37543
588,-342,18.308,5.646,0,0,0,0,0,0,0,-1,1812,1366,18.308,-5.64597
595,-342,18.9955,5.03552,0,0,0,0,0,0,0,-1,1819,1366,18.9955,-5.03548
602,-342,14.4944,0.827515,0,0,0,0,0,0,0,-1,1826,1366,14.4944,-0.8275
609,-342,19.4332,5.3396,0,0,0,0,0,0,0,-1,1833,1366,19.4333,-5.3396
616,-342,15.8682,7.54395,0,0,0,0,0,0,0,-1,1840,1366,15.8682,-7.54395
623,-342,16.1492,6.93579,-0.00960809,-0.00467232,0.036108,0.029052,-0.0433324,0.819519,0.0420614,0.0476852,1847,1366,16.1491,-6.93579
630,-342,15.5282,6.36682,-0.00922198,-0.00499746,0.0283016,0.0212706,-0.03549,0.822646,0.0331118,0.0498272,1854,1366,15.5281,-6.36686
637,-342,15.584,6.40881,0,0,0,0,0,0,0,-1,1861,1366,15.5839,-6.40887
644,-342,15.2439,6.92114,0,0,0,0,0,0,0,-1,1868,1366,15.2439,-6.92109
651,-342,15.3628,6.71777,-0.00591675,-0.00387523,0.0109616,0.00611307,-0.015905,0.831825,0.0131245,0.0206492,1875,1366,15.3628,-6.71782
658,-342,15.3485,6.45203,-0.00455732,-0.00318151,0.00745326,0.00361552,-0.0113543,0.831416,0.00901961,0.0170416,1882,1366,15.3485,-6.45199
665,-342,15.3231,6.23047,-0.00348058,-0.00237624,0.00441522,0.0015212,-0.00737802,0.847605,0.00549637,0.0152153,1889,1366,15.3231,-6.23043
672,-342,15.351,6.04724,-0.00235074,-0.00153705,0.00240712,0.000497365,-0.00438515,0.869116,0.00310254,0.0125916,1896,1366,15.351,-6.04721
679,-342,15.3486,5.85278,-0.00110538,-0.00102837,0.000975565,-9.05502e-05,-0.0020432,0.805122,0.00133298,0.0125059,1903,1366,15.3486,-5.85274
686,-342,15.3447,5.65735,-0.000207352,0.000320714,-1.71693e-05,0.000321271,-0.00020791,-1.53833,0.000307851,0.0105194,1910,1366,15.3447,-5.6573
693,-342,15.3444,5.42175,0.000270569,0.00222608,-0.00129969,0.00287473,-0.000378082,-1.10788,0.00205414,0.0110172,1917,1366,15.3444,-5.42179
700,-342,15.3357,5.21301,0.00132001,0.00505306,-0.00242378,0.00624572,0.000127346,-1.11352,0.00412202,0.0127563,1924,1366,15.3357,-5.21302
707,-342,15.3409,5.00488,0.00306147,0.00930455,-0.00355941,0.0109173,0.00144873,-1.14537,0.00684657,0.01237,1931,1366,15.3409,-5.00483
714,-342,15.3339,4.80273,0.0049279,0.0147908,-0.00494412,0.0168424,0.00287626,-1.17746,0.0104029,0.0308848,1938,1366,15.3339,-4.80267
721,-342,15.2899,4.5387,0.00792091,0.0230592,-0.00656416,0.025509,0.00547105,-1.21359,0.0155074,0.0433515,1945,1366,15.29,-4.53866
728,-342,15.5729,4.18213,0,0,0,0,0,0,0,-1,1952,1366,15.5729,-4.18217
735,-342,14.2197,2.97791,0,0,0,0,0,0,0,-1,1959,1366,14.2197,-2.97792
742,-342,14.7968,3.97961,0,0,0,0,0,0,0,-1,1966,1366,14.7967,-3.97958
749,-342,13.9889,1.24524,0,0,0,0,0,0,0,-1,1973,1366,13.9889,-1.2452
756,-342,0,0,0,0,0,0,0,0,0,-1,1980,1366,0,0
763,-342,0,0,0,0,0,0,0,0,0,-1,1987,1366,0,0
770,-342,0,0,0,0,0,0,0,0,0,-1,1994,1366,0,0
777,-342,0,0,0,0,0,0,0,0,0,-1,2001,1366,0,0
784,-342,0,0,0,0,0,0,0,0,0,-1,2008,1366,0,0
791,-342,0,0,0,0,0,0,0,0,0,-1,2015,1366,0,0
798,-342,0,0,0,0,0,0,0,0,0,-1,2022,1366,0,0
805,-342,0,0,0,0,0,0,0,0,0,-1,2029,1366,0,0
812,-342,0,0,0,0,0,0,0,0,0,-1,2036,1366,0,0
-700,-349,0,0,0,0,0,0,0,0,0,-1,524,1373,0,0
-693,-349,0,0,0,0,0,0,0,0,0,-1,531,1373,0,0
-686,-349,0,0,0,0,0,0,0,0,0,-1,538,1373,0,0
-679,-349,0,0,0,0,0,0,0,0,0,-1,545,1373,0,0
-672,-349,0,0,0,0,0,0,0,0,0,-1,552,1373,0,0
-665,-349,0,0,0,0,0,0,0,0,0,-1,559,1373,0,0
-658,-349,0,0,0,0,0,0,0,0,0,-1,566,1373,0,0
-651,-349,0,0,0,0,0,0,0,0,0,-1,573,1373,0,0
-644,-349,0,0,0,0,0,0,0,0,0,-1,580,1373,0,0
-637,-349,0,0,0,0,0,0,0,0,0,-1,587,1373,0,0
-630,-349,-7.64117,-5.06177,0,0,0,0,0,0,0,-1,594,1373,-7.64118,5.0618
-623,-349,-5.31732,-5.55432,0,0,0,0,0,0,0,-1,601,1373,-5.3173,5.55429
-616,-349,-5.2066,-0.188232,0,0,0,0,0,0,0,-1,608,1373,-5.20659,0.188211
-609,-349,-6.83978,0.513672,0,0,0,0,0,0,0,-1,615,1373,-6.83978,-0.513629
-602,-349,-6.48523,1.08875,0,0,0,0,0,0,0,-1,622,1373,-6.48521,-1.08877
-595,-349,-6.32532,1.953,0,0,0,0,0,0,0,-1,629,1373,-6.32529,-1.95297
-588,-349,-6.20105,2.78601,0.0256767,0.0126379,-0.0019334,0.0259573,0.0123573,-0.144149,0.0149922,0.0470692,636,1373,-6.20105,-2.786
-581,-349,-6.22339,2.86096,0.00830284,0.00738931,-0.00257528,0.0104615,0.0052306,-0.697628,0.00603997,0.0401525,643,1373,-6.22338,-2.86095
-574,-349,-6.40619,2.90918,0.000312678,0.00423134,-0.00313751,0.00597106,-0.00142704,-1.06451,0.00453191,0.0206071,650,1373,-6.40617,-2.90912
-567,-349,-6.42041,3.20459,0.000232994,0.00320661,-0.00245762,0.00459218,-0.00115257,-1.05743,0.00350931,0.0158515,657,1373,-6.42041,-3.20459
-560,-349,-6.41583,3.43982,3.67002e-05,0.00213966,-0.00205705,0.00339838,-0.00122203,-1.02167,0.00276448,0.0204193,664,1373,-6.41586,-3.43985
-553,-349,-6.40582,3.61584,-0.000205903,0.000903911,-0.00176227,0.00219657,-0.00149857,-0.937925,0.00214604,0.0256222,671,1373,-6.40584,-3.61588
-546,-349,-6.40405,3.85913,-0.000716777,-0.000817201,-0.0017463,0.000980037,-0.00251401,-0.771026,0.00208109,0.0266233,678,1373,-6.40408,-3.85916
-539,-349,-6.44391,4.14185,-0.00140824,-0.00322621,-0.00198681,-0.000132344,-0.0045021,-0.570858,0.00295827,0.0209745,685,1373,-6.44391,-4.14179
-532,-349,-6.41852,4.39575,-0.00215109,-0.00674974,-0.00285885,-0.000781645,-0.00811919,-0.446725,0.00517197,0.0164137,692,1373,-6.41854,-4.39577
-525,-349,-6.39252,4.63403,-0.00304219,-0.0117976,-0.00413982,-0.00139474,-0.013445,-0.378739,0.00853649,0.0131546,699,1373,-6.39254,-4.63405
-518,-349,-6.38214,4.89734,-0.00436543,-0.0177819,-0.00582279,-0.0021908,-0.0199565,-0.357428,0.0126375,0.0128464,706,1373,-6.38215,-4.89737
-511,-349,-6.28839,5.13818,-0.00564535,-0.0249487,-0.00792143,-0.00281087,-0.0277832,-0.343627,0.0176599,0.031557,713,1373,-6.28841,-5.13818
-504,-349,-6.21118,5.29773,0,0,0,0,0,0,0,-1,720,1373,-6.21117,-5.29777
-497,-349,-7.9339,5.58789,0,0,0,0,0,0,0,-1,727,1373,-7.93388,-5.58785
-490,-349,-6.74347,4.78418,0,0,0,0,0,0,0,-1,734,1373,-6.74346,-4.78422
-483,-349,-5.66974,3.7395,0,0,0,0,0,0,0,-1,741,1373,-5.66975,-3.73949
-476,-349,-10.0748,5.01782,0,0,0,0,0,0,0,-1,748,1373,-10.0748,-5.01778
-469,-349,-9.67529,5.65527,0,0,0,0,0,0,0,-1,755,1373,-9.67526,-5.65532
-462,-349,-8.99353,6.39392,0,0,0,0,0,0,0,-1,762,1373,-8.99356,-6.39394
-455,-349,-8.48639,6.92773,0,0,0,0,0,0,0,-1,769,1373,-8.48637,-6.9277
-448,-349,-12.627,2.69104,0,0,0,0,0,0,0,-1,776,1373,-12.627,-2.69107
-441,-349,0,0,0,0,0,0,0,0,0,-1,783,1373,0,0
-434,-349,0,0,0,0,0,0,0,0,0,-1,790,1373,0,0
-427,-349,0,0,0,0,0,0,0,0,0,-1,797,1373,0,0
-420,-349,0,0,0,0,0,0,0,0,0,-1,804,1373,0,0
-413,-349,0,0,0,0,0,0,0,0,0,-1,811,1373,0,0
-406,-349,0,0,0,0,0,0,0,0,0,-1,818,1373,0,0
-399,-349,0,0,0,0,0,0,0,0,0,-1,825,1373,0,0
-392,-349,0,0,0,0,0,0,0,0,0,-1,832,1373,0,0
-385,-349,0,0,0,0,0,0,0,0,0,-1,839,1373,0,0
-378,-349,0,0,0,0,0,0,0,0,0,-1,846,1373,0,0
-371,-349,0,0,0,0,0,0,0,0,0,-1,853,1373,0,0
-364,-349,0,0,0,0,0,0,0,0,0,-1,860,1373,0,0
-357,-349,0,0,0,0,0,0,0,0,0,-1,867,1373,0,0
-350,-349,0,0,0,0,0,0,0,0,0,-1,874,1373,0,0
-343,-349,0,0,0,0,0,0,0,0,0,-1,881,1373,0,0
-336,-349,0,0,0,0,0,0,0,0,0,-1,888,1373,0,0
-329,-349,0,0,0,0,0,0,0,0,0,-1,895,1373,0,0
-322,-349,0,0,0,0,0,0,0,0,0,-1,902,1373,0,0
-315,-349,0,0,0,0,0,0,0,0,0,-1,909,1373,0,0
-308,-349,0,0,0,0,0,0,0,0,0,-1,916,1373,0,0
-301,-349,0,0,0,0,0,0,0,0,0,-1,923,1373,0,0
-294,-349,0,0,0,0,0,0,0,0,0,-1,930,1373,0,0
-287,-349,0,0,0,0,0,0,0,0,0,-1,937,1373,0,0
-280,-349,0,0,0,0,0,0,0,0,0,-1,944,1373,0,0
-273,-349,0,0,0,0,0,0,0,0,0,-1,951,1373,0,0
-266,-349,0,0,0,0,0,0,0,0,0,-1,958,1373,0,0
-259,-349,0,0,0,0,0,0,0,0,0,-1,965,1373,0,0
-252,-349,0,0,0,0,0,0,0,0,0,-1,972,1373,0,0
-245,-349,0,0,0,0,0,0,0,0,0,-1,979,1373,0,0
-238,-349,0,0,0,0,0,0,0,0,0,-1,986,1373,0,0
-231,-349,0,0,0,0,0,0,0,0,0,-1,993,1373,0,0
-224,-349,0,0,0,0,0,0,0,0,0,-1,1000,1373,0,0
-217,-349,0,0,0,0,0,0,0,0,0,-1,1007,1373,0,0
-210,-349,0,0,0,0,0,0,0,0,0,-1,1014,1373,0,0
-203,-349,0,0,0,0,0,0,0,0,0,-1,1021,1373,0,0
-196,-349,0,0,0,0,0,0,0,0,0,-1,1028,1373,0,0
-189,-349,0,0,0,0,0,0,0,0,0,-1,1035,1373,0,0
-182,-349,0,0,0,0,0,0,0,0,0,-1,1042,1373,0,0
-175,-349,0,0,0,0,0,0,0,0,0,-1,1049,1373,0,0
-168,-349,0,0,0,0,0,0,0,0,0,-1,1056,1373,0,0
-161,-349,0,0,0,0,0,0,0,0,0,-1,1063,1373,0,0
-154,-349,0,0,0,0,0,0,0,0,0,-1,1070,1373,0,0
-147,-349,0,0,0,0,0,0,0,0,0,-1,1077,1373,0,0
-140,-349,0,0,0,0,0,0,0,0,0,-1,1084,1373,0,0
-133,-349,0,0,0,0,0,0,0,0,0,-1,1091,1373,0,0
-126,-349,0,0,0,0,0,0,0,0,0,-1,1098,1373,0,0
-119,-349,0,0,0,0,0,0,0,0,0,-1,1105,1373,0,0
-112,-349,0,0,0,0,0,0,0,0,0,-1,1112,1373,0,0
-105,-349,0,0,0,0,0,0,0,0,0,-1,1119,1373,0,0
-98,-349,0,0,0,0,0,0,0,0,0,-1,1126,1373,0,0
-91,-349,0,0,0,0,0,0,0,0,0,-1,1133,1373,0,0
-84,-349,0,0,0,0,0,0,0,0,0,-1,1140,1373,0,0
-77,-349,0,0,0,0,0,0,0,0,0,-1,1147,1373,0,0
-70,-349,0,0,0,0,0,0,0,0,0,-1,1154,1373,0,0
-63,-349,0,0,0,0,0,0,0,0,0,-1,1161,1373,0,0
-56,-349,0,0,0,0,0,0,0,0,0,-1,1168,1373,0,0
-49,-349,0,0,0,0,0,0,0,0,0,-1,1175,1373,0,0
-42,-349,0,0,0,0,0,0,0,0,0,-1,1182,1373,0,0
-35,-349,0,0,0,0,0,0,0,0,0,-1,1189,1373,0,0
-28,-349,0,0,0,0,0,0,0,0,0,-1,1196,1373,0,0
-21,-349,0,0,0,0,0,0,0,0,0,-1,1203,1373,0,0
-14,-349,0,0,0,0,0,0,0,0,0,-1,1210,1373,0,0
-7,-349,0,0,0,0,0,0,0,0,0,-1,1217,1373,0,0
0,-349,0,0,0,0,0,0,0,0,0,-1,1224,1373,0,0
7,-349,0,0,0,0,0,0,0,0,0,-1,1231,1373,0,0
14,-349,0,0,0,0,0,0,0,0,0,-1,1238,1373,0,0
21,-349,0,0,0,0,0,0,0,0,0,-1,1245,1373,0,0
28,-349,0,0,0,0,0,0,0,0,0,-1,1252,1373,0,0
35,-349,0,0,0,0,0,0,0,0,0,-1,1259,1373,0,0
42,-349,0,0,0,0,0,0,0,0,0,-1,1266,1373,0,0
49,-349,0,0,0,0,0,0,0,0,0,-1,1273,1373,0,0
56,-349,0,0,0,0,0,0,0,0,0,-1,1280,1373,0,0
63,-349,0,0,0,0,0,0,0,0,0,-1,1287,1373,0,0
70,-349,0,0,0,0,0,0,0,0,0,-1,1294,1373,0,0
77,-349,0,0,0,0,0,0,0,0,0,-1,1301,1373,0,0
84,-349,0,0,0,0,0,0,0,0,0,-1,1308,1373,0,0
91,-349,0,0,0,0,0,0,0,0,0,-1,1315,1373,0,0
98,-349,0,0,0,0,0,0,0,0,0,-1,1322,1373,0,0
105,-349,0,0,0,0,0,0,0,0,0,-1,1329,1373,0,0
112,-349,0,0,0,0,0,0,0,0,0,-1,1336,1373,0,0
119,-349,0,0,0,0,0,0,0,0,0,-1,1343,1373,0,0
126,-349,0,0,0,0,0,0,0,0,0,-1,1350,1373,0,0
133,-349,0,0,0,0,0,0,0,0,0,-1,1357,1373,0,0
140,-349,0,0,0,0,0,0,0,0,0,-1,1364,1373,0,0
147,-349,0,0,0,0,0,0,0,0,0,-1,1371,1373,0,0
154,-349,0,0,0,0,0,0,0,0,0,-1,1378,1373,0,0
161,-349,0,0,0,0,0,0,0,0,0,-1,1385,1373,0,0
168,-349,0,0,0,0,0,0,0,0,0,-1,1392,1373,0,0
175,-349,0,0,0,0,0,0,0,0,0,-1,1399,1373,0,0
182,-349,0,0,0,0,0,0,0,0,0,-1,1406,1373,0,0
189,-349,0,0,0,0,0,0,0,0,0,-1,1413,1373,0,0
196,-349,0,0,0,0,0,0,0,0,0,-1,1420,1373,0,0
203,-349,0,0,0,0,0,0,0,0,0,-1,1427,1373,0,0
210,-349,0,0,0,0,0,0,0,0,0,-1,1434,1373,0,0
217,-349,0,0,0,0,0,0,0,0,0,-1,1441,1373,0,0
224,-349,0,0,0,0,0,0,0,0,0,-1,1448,1373,0,0
231,-349,0,0,0,0,0,0,0,0,0,-1,1455,1373,0,0
238,-349,0,0,0,0,0,0,0,0,0,-1,1462,1373,0,0
245,-349,0,0,0,0,0,0,0,0,0,-1,1469,1373,0,0
252,-349,0,0,0,0,0,0,0,0,0,-1,1476,1373,0,0
259,-349,0,0,0,0,0,0,0,0,0,-1,1483,1373,0,0
266,-349,0,0,0,0,0,0,0,0,0,-1,1490,1373,0,0
273,-349,0,0,0,0,0,0,0,0,0,-1,1497,1373,0,0
280,-349,0,0,0,0,0,0,0,0,0,-1,1504,1373,0,0
287,-349,0,0,0,0,0,0,0,0,0,-1,1511,1373,0,0
294,-349,0,0,0,0,0,0,0,0,0,-1,1518,1373,0,0
301,-349,0,0,0,0,0,0,0,0,0,-1,1525,1373,0,0
308,-349,0,0,0,0,0,0,0,0,0,-1,1532,1373,0,0
315,-349,0,0,0,0,0,0,0,0,0,-1,1539,1373,0,0
322,-349,0,0,0,0,0,0,0,0,0,-1,1546,1373,0,0
329,-349,0,0,0,0,0,0,0,0,0,-1,1553,1373,0,0
336,-349,0,0,0,0,0,0,0,0,0,-1,1560,1373,0,0
343,-349,0,0,0,0,0,0,0,0,0,-1,1567,1373,0,0
350,-349,0,0,0,0,0,0,0,0,0,-1,1574,1373,0,0
357,-349,0,0,0,0,0,0,0,0,0,-1,1581,1373,0,0
364,-349,0,0,0,0,0,0,0,0,0,-1,1588,1373,0,0
371,-349,0,0,0,0,0,0,0,0,0,-1,1595,1373,0,0
378,-349,0,0,0,0,0,0,0,0,0,-1,1602,1373,0,0
385,-349,0,0,0,0,0,0,0,0,0,-1,1609,1373,0,0
392,-349,0,0,0,0,0,0,0,0,0,-1,1616,1373,0,0
399,-349,0,0,0,0,0,0,0,0,0,-1,1623,1373,0,0
406,-349,0,0,0,0,0,0,0,0,0,-1,1630,1373,0,0
413,-349,0,0,0,0,0,0,0,0,0,-1,1637,1373,0,0
420,-349,0,0,0,0,0,0,0,0,0,-1,1644,1373,0,0
427,-349,0,0,0,0,0,0,0,0,0,-1,1651,1373,0,0
434,-349,0,0,0,0,0,0,0,0,0,-1,1658,1373,0,0
441,-349,0,0,0,0,0,0,0,0,0,-1,1665,1373,0,0
448,-349,0,0,0,0,0,0,0,0,0,-1,1672,1373,0,0
455,-349,0,0,0,0,0,0,0,0,0,-1,1679,1373,0,0
462,-349,0,0,0,0,0,0,0,0,0,-1,1686,1373,0,0
469,-349,0,0,0,0,0,0,0,0,0,-1,1693,1373,0,0
476,-349,0,0,0,0,0,0,0,0,0,-1,1700,1373,0,0
483,-349,0,0,0,0,0,0,0,0,0,-1,1707,1373,0,0
490,-349,0,0,0,0,0,0,0,0,0,-1,1714,1373,0,0
497,-349,0,0,0,0,0,0,0,0,0,-1,1721,1373,0,0
504,-349,0,0,0,0,0,0,0,0,0,-1,1728,1373,0,0
511,-349,0,0,0,0,0,0,0,0,0,-1,1735,1373,0,0
518,-349,0,0,0,0,0,0,0,0,0,-1,1742,1373,0,0
525,-349,0,0,0,0,0,0,0,0,0,-1,1749,1373,0,0
532,-349,0,0,0,0,0,0,0,0,0,-1,1756,1373,0,0
539,-349,0,0,0,0,0,0,0,0,0,-1,1763,1373,0,0
546,-349,0,0,0,0,0,0,0,0,0,-1,1770,1373,0,0
553,-349,0,0,0,0,0,0,0,0,0,-1,1777,1373,0,0
560,-349,20.231,3.6106,0,0,0,0,0,0,0,-1,1784,1373,20.231,-3.61055
567,-349,20.3247,3.48193,0,0,0,0,0,0,0,-1,1791,1373,20.3247,-3.48192
574,-349,18.3553,5.01379,0,0,0,0,0,0,0,-1,1798,1373,18.3553,-5.01381
581,-349,16.1492,6.32056,0,0,0,0,0,0,0,-1,1805,1373,16.1492,-6.32053
588,-349,17.5219,4.98438,0,0,0,0,0,0,0,-1,1812,1373,17.5219,-4.98443
595,-349,18.5311,4.06519,0,0,0,0,0,0,0,-1,1819,1373,18.5312,-4.06521
602,-349,13.3639,7.17029,0,0,0,0,0,0,0,-1,1826,1373,13.3639,-7.17028
609,-349,15.8199,7.15698,0,0,0,0,0,0,0,-1,1833,1373,15.8199,-7.15703
616,-349,15.8711,6.80737,0,0,0,0,0,0,0,-1,1840,1373,15.8711,-6.80739
623,-349,15.7223,6.51917,-0.0126484,-0.00588745,0.0304303,0.0213495,-0.0398854,0.840716,0.0358899,0.044509,1847,1373,15.7222,-6.51914
630,-349,15.4948,6.47644,-0.0109311,-0.0055535,0.0232337,0.0151465,-0.0316311,0.843006,0.0275604,0.0494618,1854,1373,15.4947,-6.4765
637,-349,15.3774,6.48328,-0.00907762,-0.00508759,0.0172381,0.0102706,-0.0244358,0.843008,0.0205865,0.049658,1861,1373,15.3775,-6.48327
644,-349,14.9963,6.89368,-0.00714331,-0.00444465,0.012379,0.00665835,-0.0182463,0.839684,0.0148885,0.0455875,1868,1373,14.9963,-6.89366
651,-349,15.2192,6.66663,-0.00535975,-0.00368393,0.00865893,0.00417753,-0.0132212,0.833632,0.0104878,0.0224934,1875,1373,15.2193,-6.66663
658,-349,15.1667,6.43433,-0.00383553,-0.00292102,0.00587507,0.00251456,-0.00927111,0.824235,0.0071675,0.0244325,1882,1373,15.1667,-6.43433
665,-349,15.1097,6.24622,-0.00262024,-0.0020555,0.00346878,0.00114239,-0.00581813,0.82601,0.00431031,0.0197959,1889,1373,15.1097,-6.24617
672,-349,15.1141,6.03979,-0.0015387,-0.001224,0.00185214,0.000477462,-0.00324016,0.827775,0.00233559,0.0152161,1896,1373,15.1141,-6.03974
679,-349,15.1071,5.85645,-0.000431743,-0.000696973,0.000676921,0.000125431,-0.00125415,0.688669,0.00088089,0.0139112,1903,1373,15.107,-5.85644
686,-349,15.1465,5.67859,0.000314231,0.000589587,-0.000237303,0.00072626,0.000177559,-1.04826,0.000437176,0.0116967,1910,1373,15.1465,-5.67864
693,-349,15.1395,5.44336,0.00074991,0.00235363,-0.00138618,0.00315317,-4.96277e-05,-1.04762,0.00211885,0.0143246,1917,1373,15.1395,-5.44334
700,-349,15.1372,5.22717,0.0017859,0.00500228,-0.00243039,0.00630837,0.0004798,-1.07768,0.00405512,0.0162546,1924,1373,15.1373,-5.2272
707,-349,15.1792,5.01868,0.00359409,0.00910337,-0.00356121,0.010851,0.00184648,-1.11459,0.0067038,0.0219776,1931,1373,15.1792,-5.01871
714,-349,15.1373,4.84778,0.00562352,0.0145213,-0.00495341,0.0167304,0.00341442,-1.15129,0.0102076,0.0322494,1938,1373,15.1374,-4.84776
721,-349,15.29,4.64136,0,0,0,0,0,0,0,-1,1945,1373,15.2901,-4.64131
728,-349,15.5386,4.16943,0,0,0,0,0,0,0,-1,1952,1373,15.5386,-4.16939
735,-349,15.3109,-0.321899,0,0,0,0,0,0,0,-1,1959,1373,15.3109,0.32184
742,-349,15.9106,1.26624,0,0,0,0,0,0,0,-1,1966,1373,15.9106,-1.26625
749,-349,14.7747,4.70361,0,0,0,0,0,0,0,-1,1973,1373,14.7747,-4.70356
756,-349,0,0,0,0,0,0,0,0,0,-1,1980,1373,0,0
763,-349,0,0,0,0,0,0,0,0,0,-1,1987,1373,0,0
770,-349,0,0,0,0,0,0,0,0,0,-1,1994,1373,0,0
777,-349,0,0,0,0,0,0,0,0,0,-1,2001,1373,0,0
784,-349,0,0,0,0,0,0,0,0,0,-1,2008,1373,0,0
791,-349,0,0,0,0,0,0,0,0,0,-1,2015,1373,0,0
798,-349,0,0,0,0,0,0,0,0,0,-1,2022,1373,0,0
805,-349,0,0,0,0,0,0,0,0,0,-1,2029,1373,0,0
812,-349,0,0,0,0,0,0,0,0,0,-1,2036,1373,0,0
-700,-356,0,0,0,0,0,0,0,0,0,-1,524,1380,0,0
-693,-356,0,0,0,0,0,0,0,0,0,-1,531,1380,0,0
-686,-356,0,0,0,0,0,0,0,0,0,-1,538,1380,0,0
-679,-356,0,0,0,0,0,0,0,0,0,-1,545,1380,0,0
-672,-356,0,0,0,0,0,0,0,0,0,-1,552,1380,0,0
-665,-356,0,0,0,0,0,0,0,0,0,-1,559,1380,0,0
-658,-356,0,0,0,0,0,0,0,0,0,-1,566,1380,0,0
-651,-356,0,0,0,0,0,0,0,0,0,-1,573,1380,0,0
-644,-356,0,0,0,0,0,0,0,0,0,-1,580,1380,0,0
-637,-356,0,0,0,0,0,0,0,0,0,-1,587,1380,0,0
-630,-356,-8.23126,-5.01917,0,0,0,0,0,0,0,-1,594,1380,-8.23124,5.0192
-623,-356,-0.263855,-0.675781,0,0,0,0,0,0,0,-1,601,1380,-0.263835,0.675841
-616,-356,-8.26532,-3.43945,0,0,0,0,0,0,0,-1,608,1380,-8.2653,3.43948
-609,-356,-4.88483,0.734497,0,0,0,0,0,0,0,-1,615,1380,-4.88485,-0.734532
-602,-356,-6.19312,1.37061,0,0,0,0,0,0,0,-1,622,1380,-6.19313,-1.37056
-595,-356,-6.27466,2.26489,0,0,0,0,0,0,0,-1,629,1380,-6.27465,-2.26493
-588,-356,-6.35883,3.10071,0.029907,0.0172642,-0.00214208,0.0302601,0.0169111,-0.163358,0.017511,0.0438442,636,1380,-6.35881,-3.10071
-581,-356,-6.11359,2.83997,0.0105776,0.0120218,-0.00270858,0.0141029,0.00849651,-0.915666,0.00819909,0.0403608,643,1380,-6.11357,-2.84001
-574,-356,-6.05206,2.99353,0.00172392,0.00840767,-0.0031021,0.00962552,0.000506069,-1.19669,0.00625515,0.0276193,650,1380,-6.05204,-2.99352
-567,-356,-6.19189,3.16736,0.00118879,0.00627269,-0.00239274,0.00722169,0.000239787,-1.19321,0.00473656,0.0152091,657,1380,-6.19188,-3.16733
-560,-356,-6.15155,3.42627,0.000732231,0.00441239,-0.00192754,0.00523713,-9.25141e-05,-1.16649,0.00352266,0.017483,664,1380,-6.15154,-3.42629
-553,-356,-6.11829,3.62732,0.000366576,0.00268675,-0.0015952,0.00349909,-0.000445762,-1.09978,0.00249463,0.020844,671,1380,-6.11829,-3.62738
-546,-356,-6.15015,3.8512,-5.81119e-05,0.000858169,-0.00149299,0.00196173,-0.00116167,-0.934268,0.00182291,0.0221607,678,1380,-6.15016,-3.85125
-539,-356,-6.15692,4.14209,-0.000545592,-0.0013839,-0.00161442,0.000703197,-0.00263269,-0.658387,0.00203053,0.014594,685,1380,-6.15693,-4.14204
-532,-356,-6.15051,4.38647,-0.00108133,-0.00439805,-0.00227496,7.55594e-05,-0.00555493,-0.470448,0.00372873,0.0137665,692,1380,-6.1505,-4.38648
-525,-356,-6.16229,4.62524,-0.00169165,-0.00866329,-0.00330686,-0.000372653,-0.00998228,-0.379529,0.00653418,0.0123759,699,1380,-6.16226,-4.6253
-518,-356,-6.1521,4.88501,-0.00264045,-0.013658,-0.0047613,-0.000867974,-0.0154305,-0.356372,0.0100102,0.0120078,706,1380,-6.15209,-4.88502
-511,-356,-6.0304,5.16907,-0.00360254,-0.0197603,-0.00662677,-0.00123239,-0.0221305,-0.343486,0.0143605,0.0235459,713,1380,-6.03039,-5.16905
-504,-356,-5.91309,5.50415,0,0,0,0,0,0,0,-1,720,1380,-5.91309,-5.5042
-497,-356,-5.68604,4.96387,0,0,0,0,0,0,0,-1,727,1380,-5.68605,-4.96385
-490,-356,-7.95288,5.5625,0,0,0,0,0,0,0,-1,734,1380,-7.95285,-5.56246
-483,-356,-7.2627,4.07446,0,0,0,0,0,0,0,-1,741,1380,-7.2627,-4.07441
-476,-356,-5.1936,4.16016,0,0,0,0,0,0,0,-1,748,1380,-5.1936,-4.16012
-469,-356,-9.87476,6.46399,0,0,0,0,0,0,0,-1,755,1380,-9.87473,-6.46401
-462,-356,-8.45734,7.80469,0,0,0,0,0,0,0,-1,762,1380,-8.45736,-7.80465
-455,-356,-11.2014,2.23572,0,0,0,0,0,0,0,-1,769,1380,-11.2014,-2.23576
-448,-356,-11.7062,2.1864,0,0,0,0,0,0,0,-1,776,1380,-11.7062,-2.18639
-441,-356,-12.4677,2.37158,0,0,0,0,0,0,0,-1,783,1380,-12.4677,-2.37161
-434,-356,0,0,0,0,0,0,0,0,0,-1,790,1380,0,0
-427,-356,0,0,0,0,0,0,0,0,0,-1,797,1380,0,0
-420,-356,0,0,0,0,0,0,0,0,0,-1,804,1380,0,0
-413,-356,0,0,0,0,0,0,0,0,0,-1,811,1380,0,0
-406,-356,0,0,0,0,0,0,0,0,0,-1,818,1380,0,0
-399,-356,0,0,0,0,0,0,0,0,0,-1,825,1380,0,0
-392,-356,0,0,0,0,0,0,0,0,0,-1,832,1380,0,0
-385,-356,0,0,0,0,0,0,0,0,0,-1,839,1380,0,0
-378,-356,0,0,0,0,0,0,0,0,0,-1,846,1380,0,0
-371,-356,0,0,0,0,0,0,0,0,0,-1,853,1380,0,0
-364,-356,0,0,0,0,0,0,0,0,0,-1,860,1380,0,0
-357,-356,0,0,0,0,0,0,0,0,0,-1,867,1380,0,0
-350,-356,0,0,0,0,0,0,0,0,0,-1,874,1380,0,0
-343,-356,0,0,0,0,0,0,0,0,0,-1,881,1380,0,0
-336,-356,0,0,0,0,0,0,0,0,0,-1,888,1380,0,0
-329,-356,0,0,0,0,0,0,0,0,0,-1,895,1380,0,0
-322,-356,0,0,0,0,0,0,0,0,0,-1,902,1380,0,0
-315,-356,0,0,0,0,0,0,0,0,0,-1,909,1380,0,0
-308,-356,0,0,0,0,0,0,0,0,0,-1,916,1380,0,0
-301,-356,0,0,0,0,0,0,0,0,0,-1,923,1380,0,0
-294,-356,0,0,0,0,0,0,0,0,0,-1,930,1380,0,0
-287,-356,0,0,0,0,0,0,0,0,0,-1,937,1380,0,0
-280,-356,0,0,0,0,0,0,0,0,0,-1,944,1380,0,0
-273,-356,0,0,0,0,0,0,0,0,0,-1,951,1380,0,0
-266,-356,0,0,0,0,0,0,0,0,0,-1,958,1380,0,0
-259,-356,0,0,0,0,0,0,0,0,0,-1,965,1380,0,0
-252,-356,0,0,0,0,0,0,0,0,0,-1,972,1380,0,0
-245,-356,0,0,0,0,0,0,0,0,0,-1,979,1380,0,0
-238,-356,0,0,0,0,0,0,0,0,0,-1,986,1380,0,0
-231,-356,0,0,0,0,0,0,0,0,0,-1,993,1380,0,0
-224,-356,0,0,0,0,0,0,0,0,0,-1,1000,1380,0,0
-217,-356,0,0,0,0,0,0,0,0,0,-1,1007,1380,0,0
-210,-356,0,0,0,0,0,0,0,0,0,-1,1014,1380,0,0
-203,-356,0,0,0,0,0,0,0,0,0,-1,1021,1380,0,0
-196,-356,0,0,0,0,0,0,0,0,0,-1,1028,1380,0,0
-189,-356,0,0,0,0,0,0,0,0,0,-1,1035,1380,0,0
-182,-356,0,0,0,0,0,0,0,0,0,-1,1042,1380,0,0
-175,-356,0,0,0,0,0,0,0,0,0,-1,1049,1380,0,0
-168,-356,0,0,0,0,0,0,0,0,0,-1,1056,1380,0,0
-161,-356,0,0,0,0,0,0,0,0,0,-1,1063,1380,0,0
-154,-356,0,0,0,0,0,0,0,0,0,-1,1070,1380,0,0
-147,-356,0,0,0,0,0,0,0,0,0,-1,1077,1380,0,0
-140,-356,0,0,0,0,0,0,0,0,0,-1,1084,1380,0,0
-133,-356,0,0,0,0,0,0,0,0,0,-1,1091,1380,0,0
-126,-356,0,0,0,0,0,0,0,0,0,-1,1098,1380,0,0
-119,-356,0,0,0,0,0,0,0,0,0,-1,1105,1380,0,0
-112,-356,0,0,0,0,0,0,0,0,0,-1,1112,1380,0,0
-105,-356,0,0,0,0,0,0,0,0,0,-1,1119,1380,0,0
-98,-356,0,0,0,0,0,0,0,0,0,-1,1126,1380,0,0
-91,-356,0,0,0,0,0,0,0,0,0,-1,1133,1380,0,0
-84,-356,0,0,0,0,0,0,0,0,0,-1,1140,1380,0,0
-77,-356,0,0,0,0,0,0,0,0,0,-1,1147,1380,0,0
-70,-356,0,0,0,0,0,0,0,0,0,-1,1154,1380,0,0
-63,-356,0,0,0,0,0,0,0,0,0,-1,1161,1380,0,0
-56,-356,0,0,0,0,0,0,0,0,0,-1,1168,1380,0,0
-49,-356,0,0,0,0,0,0,0,0,0,-1,1175,1380,0,0
-42,-356,0,0,0,0,0,0,0,0,0,-1,1182,1380,0,0
-35,-356,0,0,0,0,0,0,0,0,0,-1,1189,1380,0,0
-28,-356,0,0,0,0,0,0,0,0,0,-1,1196,1380,0,0
-21,-356,0,0,0,0,0,0,0,0,0,-1,1203,1380,0,0
-14,-356,0,0,0,0,0,0,0,0,0,-1,1210,1380,0,0
-7,-356,0,0,0,0,0,0,0,0,0,-1,1217,1380,0,0
0,-356,0,0,0,0,0,0,0,0,0,-1,1224,1380,0,0
7,-356,0,0,0,0,0,0,0,0,0,-1,1231,1380,0,0
14,-356,0,0,0,0,0,0,0,0,0,-1,1238,1380,0,0
21,-356,0,0,0,0,0,0,0,0,0,-1,1245,1380,0,0
28,-356,0,0,0,0,0,0,0,0,0,-1,1252,1380,0,0
35,-356,0,0,0,0,0,0,0,0,0,-1,1259,1380,0,0
42,-356,0,0,0,0,0,0,0,0,0,-1,1266,1380,0,0
49,-356,0,0,0,0,0,0,0,0,0,-1,1273,1380,0,0
56,-356,0,0,0,0,0,0,0,0,0,-1,1280,1380,0,0
63,-356,0,0,0,0,0,0,0,0,0,-1,1287,1380,0,0
70,-356,0,0,0,0,0,0,0,0,0,-1,1294,1380,0,0
77,-356,0,0,0,0,0,0,0,0,0,-1,1301,1380,0,0
84,-356,0,0,0,0,0,0,0,0,0,-1,1308,1380,0,0
91,-356,0,0,0,0,0,0,0,0,0,-1,1315,1380,0,0
98,-356,0,0,0,0,0,0,0,0,0,-1,1322,1380,0,0
105,-356,0,0,0,0,0,0,0,0,0,-1,1329,1380,0,0
112,-356,0,0,0,0,0,0,0,0,0,-1,1336,1380,0,0
119,-356,0,0,0,0,0,0,0,0,0,-1,1343,1380,0,0
126,-356,0,0,0,0,0,0,0,0,0,-1,1350,1380,0,0
133,-356,0,0,0,0,0,0,0,0,0,-1,1357,1380,0,0
140,-356,0,0,0,0,0,0,0,0,0,-1,1364,1380,0,0
147,-356,0,0,0,0,0,0,0,0,0,-1,1371,1380,0,0
154,-356,0,0,0,0,0,0,0,0,0,-1,1378,1380,0,0
161,-356,0,0,0,0,0,0,0,0,0,-1,1385,1380,0,0
168,-356,0,0,0,0,0,0,0,0,0,-1,1392,1380,0,0
175,-356,0,0,0,0,0,0,0,0,0,-1,1399,1380,0,0
182,-356,0,0,0,0,0,0,0,0,0,-1,1406,1380,0,0
189,-356,0,0,0,0,0,0,0,0,0,-1,1413,1380,0,0
196,-356,0,0,0,0,0,0,0,0,0,-1,1420,1380,0,0
203,-356,0,0,0,0,0,0,0,0,0,-1,1427,1380,0,0
210,-356,0,0,0,0,0,0,0,0,0,-1,1434,1380,0,0
217,-356,0,0,0,0,0,0,0,0,0,-1,1441,1380,0,0
224,-356,0,0,0,0,0,0,0,0,0,-1,1448,1380,0,0
231,-356,0,0,0,0,0,0,0,0,0,-1,1455,1380,0,0
238,-356,0,0,0,0,0,0,0,0,0,-1,1462,1380,0,0
245,-356,0,0,0,0,0,0,0,0,0,-1,1469,1380,0,0
252,-356,0,0,0,0,0,0,0,0,0,-1,1476,1380,0,0
259,-356,0,0,0,0,0,0,0,0,0,-1,1483,1380,0,0
266,-356,0,0,0,0,0,0,0,0,0,-1,1490,1380,0,0
273,-356,0,0,0,0,0,0,0,0,0,-1,1497,1380,0,0
280,-356,0,0,0,0,0,0,0,0,0,-1,1504,1380,0,0
287,-356,0,0,0,0,0,0,0,0,0,-1,1511,1380,0,0
294,-356,0,0,0,0,0,0,0,0,0,-1,1518,1380,0,0
301,-356,0,0,0,0,0,0,0,0,0,-1,1525,1380,0,0
308,-356,0,0,0,0,0,0,0,0,0,-1,1532,1380,0,0
315,-356,0,0,0,0,0,0,0,0,0,-1,1539,1380,0,0
322,-356,0,0,0,0,0,0,0,0,0,-1,1546,1380,0,0
329,-356,0,0,0,0,0,0,0,0,0,-1,1553,1380,0,0
336,-356,0,0,0,0,0,0,0,0,0,-1,1560,1380,0,0
343,-356,0,0,0,0,0,0,0,0,0,-1,1567,1380,0,0
350,-356,0,0,0,0,0,0,0,0,0,-1,1574,1380,0,0
357,-356,0,0,0,0,0,0,0,0,0,-1,1581,1380,0,0
364,-356,0,0,0,0,0,0,0,0,0,-1,1588,1380,0,0
371,-356,0,0,0,0,0,0,0,0,0,-1,1595,1380,0,0
378,-356,0,0,0,0,0,0,0,0,0,-1,1602,1380,0,0
385,-356,0,0,0,0,0,0,0,0,0,-1,1609,1380,0,0
392,-356,0,0,0,0,0,0,0,0,0,-1,1616,1380,0,0
399,-356,0,0,0,0,0,0,0,0,0,-1,1623,1380,0,0
406,-356,0,0,0,0,0,0,0,0,0,-1,1630,1380,0,0
413,-356,0,0,0,0,0,0,0,0,0,-1,1637,1380,0,0
420,-356,0,0,0,0,0,0,0,0,0,-1,1644,1380,0,0
427,-356,0,0,0,0,0,0,0,0,0,-1,1651,1380,0,0
434,-356,0,0,0,0,0,0,0,0,0,-1,1658,1380,0,0
441,-356,0,0,0,0,0,0,0,0,0,-1,1665,1380,0,0
448,-356,0,0,0,0,0,0,0,0,0,-1,1672,1380,0,0
455,-356,0,0,0,0,0,0,0,0,0,-1,1679,1380,0,0
462,-356,0,0,0,0,0,0,0,0,0,-1,1686,1380,0,0
469,-356,0,0,0,0,0,0,0,0,0,-1,1693,1380,0,0
476,-356,0,0,0,0,0,0,0,0,0,-1,1700,1380,0,0
483,-356,0,0,0,0,0,0,0,0,0,-1,1707,1380,0,0
490,-356,0,0,0,0,0,0,0,0,0,-1,1714,1380,0,0
497,-356,0,0,0,0,0,0,0,0,0,-1,1721,1380,0,0
504,-356,0,0,0,0,0,0,0,0,0,-1,1728,1380,0,0
511,-356,0,0,0,0,0,0,0,0,0,-1,1735,1380,0,0
518,-356,0,0,0,0,0,0,0,0,0,-1,1742,1380,0,0
525,-356,0,0,0,0,0,0,0,0,0,-1,1749,1380,0,0
532,-356,0,0,0,0,0,0,0,0,0,-1,1756,1380,0,0
539,-356,0,0,0,0,0,0,0,0,0,-1,1763,1380,0,0
546,-356,0,0,0,0,0,0,0,0,0,-1,1770,1380,0,0
553,-356,0,0,0,0,0,0,0,0,0,-1,1777,1380,0,0
560,-356,20.2863,3.19324,0,0,0,0,0,0,0,-1,1784,1380,20.2863,-3.19324
567,-356,20.293,3.20374,0,0,0,0,0,0,0,-1,1791,1380,20.293,-3.20372
574,-356,14.5682,6.27368,0,0,0,0,0,0,0,-1,1798,1380,14.5682,-6.27365
581,-356,15.6521,5.05688,0,0,0,0,0,0,0,-1,1805,1380,15.6521,-5.05694
588,-356,16.7401,3.95667,0,0,0,0,0,0,0,-1,1812,1380,16.7401,-3.9566
595,-356,12.9683,6.802,0,0,0,0,0,0,0,-1,1819,1380,12.9682,-6.80198
602,-356,15.1255,7.78821,0,0,0,0,0,0,0,-1,1826,1380,15.1255,-7.78821
609,-356,15.0029,7.23645,0,0,0,0,0,0,0,-1,1833,1380,15.0029,-7.23641
616,-356,15.8739,6.0708,0,0,0,0,0,0,0,-1,1840,1380,15.8739,-6.07083
623,-356,15.7161,6.14539,0,0,0,0,0,0,0,-1,1847,1380,15.7161,-6.14535
630,-356,15.1941,6.44202,0,0,0,0,0,0,0,-1,1854,1380,15.1941,-6.44205
637,-356,14.9442,6.65051,-0.0109344,-0.00564532,0.0142323,0.00618608,-0.0227658,0.877257,0.0176053,0.0421247,1861,1380,14.9442,-6.65052
644,-356,14.8904,6.95056,-0.00779089,-0.00459949,0.0100759,0.00400633,-0.0163967,0.86393,0.0124828,0.0273825,1868,1380,14.8903,-6.95059
651,-356,14.9537,6.67517,-0.00516865,-0.00355859,0.00690893,0.00259205,-0.0113193,0.843397,0.00854232,0.0158816,1875,1380,14.9537,-6.67518
658,-356,14.9259,6.43298,-0.00333939,-0.00266099,0.00462046,0.0016327,-0.00763308,0.822038,0.00571128,0.0145843,1882,1380,14.9259,-6.43293
665,-356,14.9138,6.27344,-0.00201356,-0.00172654,0.00271578,0.000849521,-0.00458962,0.811795,0.00337871,0.0142507,1889,1380,14.9139,-6.27349
672,-356,14.8934,6.08167,-0.00098608,-0.000889763,0.00139947,0.000462381,-0.00233822,0.802597,0.00173362,0.0147299,1896,1380,14.8935,-6.08171
679,-356,14.8754,5.87048,1.9004e-05,-0.000307452,0.000415258,0.000301963,-0.000590411,0.598137,0.000524107,0.0160098,1903,1380,14.8754,-5.87045
686,-356,14.9078,5.6731,0.000705301,0.000900729,-0.000447723,0.00126128,0.000344753,-0.892836,0.000752727,0.0145669,1910,1380,14.9078,-5.67309
693,-356,14.9377,5.45215,0.00121499,0.00245114,-0.00148356,0.00344022,0.0002259,-0.982772,0.00222201,0.0132749,1917,1380,14.9378,-5.45209
700,-356,14.9362,5.20349,0.0023578,0.00486818,-0.00247726,0.0063901,0.000835885,-1.01989,0.00401058,0.0180224,1924,1380,14.9362,-5.20354
707,-356,15.0001,4.82886,0.00436067,0.0087308,-0.00364372,0.0107944,0.00229706,-1.05549,0.00656592,0.0395189,1931,1380,15.0001,-4.8289
714,-356,15.1423,4.51086,0,0,0,0,0,0,0,-1,1938,1380,15.1423,-4.51081
721,-356,15.1661,4.30249,0,0,0,0,0,0,0,-1,1945,1380,15.1661,-4.3025
728,-356,13.2661,3.90723,0,0,0,0,0,0,0,-1,1952,1380,13.2661,-3.90722
735,-356,16.1771,-0.659912,0,0,0,0,0,0,0,-1,1959,1380,16.1771,0.659892
742,-356,15.4358,0.389893,0,0,0,0,0,0,0,-1,1966,1380,15.4358,-0.389855
749,-356,16.13,2.48547,0,0,0,0,0,0,0,-1,1973,1380,16.13,-2.48541
756,-356,0,0,0,0,0,0,0,0,0,-1,1980,1380,0,0
763,-356,0,0,0,0,0,0,0,0,0,-1,1987,1380,0,0
770,-356,0,0,0,0,0,0,0,0,0,-1,1994,1380,0,0
777,-356,0,0,0,0,0,0,0,0,0,-1,2001,1380,0,0
784,-356,0,0,0,0,0,0,0,0,0,-1,2008,1380,0,0
791,-356,0,0,0,0,0,0,0,0,0,-1,2015,1380,0,0
798,-356,0,0,0,0,0,0,0,0,0,-1,2022,1380,0,0
805,-356,0,0,0,0,0,0,0,0,0,-1,2029,1380,0,0
812,-356,0,0,0,0,0,0,0,0,0,-1,2036,1380,0,0
-700,-363,0,0,0,0,0,0,0,0,0,-1,524,1387,0,0
-693,-363,0,0,0,0,0,0,0,0,0,-1,531,1387,0,0
-686,-363,0,0,0,0,0,0,0,0,0,-1,538,1387,0,0
-679,-363,0,0,0,0,0,0,0,0,0,-1,545,1387,0,0
-672,-363,0,0,0,0,0,0,0,0,0,-1,552,1387,0,0
-665,-363,0,0,0,0,0,0,0,0,0,-1,559,1387,0,0
-658,-363,0,0,0,0,0,0,0,0,0,-1,566,1387,0,0
-651,-363,0,0,0,0,0,0,0,0,0,-1,573,1387,0,0
-644,-363,0,0,0,0,0,0,0,0,0,-1,580,1387,0,0
-637,-363,0,0,0,0,0,0,0,0,0,-1,587,1387,0,0
-630,-363,0,0,0,0,0,0,0,0,0,-1,594,1387,0,0
-623,-363,-9.67566,-5.91846,0,0,0,0,0,0,0,-1,601,1387,-9.67563,5.91847
-616,-363,-9.02985,-2.98083,0,0,0,0,0,0,0,-1,608,1387,-9.02987,2.98079
-609,-363,-4.90265,0.195679,0,0,0,0,0,0,0,-1,615,1387,-4.90263,-0.195721
-602,-363,-6.45087,2.20178,0,0,0,0,0,0,0,-1,622,1387,-6.45085,-2.2018
-595,-363,-6.22992,2.92102,0,0,0,0,0,0,0,-1,629,1387,-6.22993,-2.92097
-588,-363,-6.16876,3.47461,0.0332413,0.0254962,-0.00230686,0.0338763,0.0248611,-0.268624,0.0202592,0.0478296,636,1387,-6.16879,-3.47465
-581,-363,-5.80664,3.43372,0.0130735,0.0188436,-0.00273147,0.0199315,0.0119856,-1.19176,0.011586,0.040106,643,1387,-5.80666,-3.43373
-574,-363,-5.79852,3.09497,0.00353356,0.0139455,-0.00277717,0.0146399,0.00283912,-1.32577,0.00896469,0.032102,650,1387,-5.79851,-3.095
-567,-363,-5.93915,3.18542,0.00237168,0.0101154,-0.00212436,0.0106599,0.00182718,-1.31989,0.00658259,0.0203886,657,1387,-5.93915,-3.18546
-560,-363,-5.91724,3.40649,0.00151087,0.0070776,-0.00166614,0.00753818,0.00105029,-1.3011,0.00471452,0.0130979,664,1387,-5.91725,-3.40647
-553,-363,-5.91925,3.66174,0.000900474,0.00458765,-0.00134442,0.00502578,0.000462336,-1.25576,0.00320754,0.0132102,671,1387,-5.91925,-3.66173
-546,-363,-5.92926,3.8905,0.000490048,0.0023994,-0.00117675,0.00296003,-7.0583e-05,-1.12619,0.0019973,0.0129706,678,1387,-5.92928,-3.89051
-539,-363,-5.88806,4.12903,0.000166271,0.000174896,-0.00119683,0.00136742,-0.00102626,-0.7872,0.00138666,0.0146747,685,1387,-5.88807,-4.12903
-532,-363,-5.89648,4.37695,-0.000188316,-0.00243657,-0.00163182,0.000669096,-0.00329399,-0.483786,0.00244967,0.0127833,692,1387,-5.8965,-4.37693
-525,-363,-5.91211,4.61731,-0.000529213,-0.00589133,-0.00235302,0.000356908,-0.00677745,-0.360163,0.00464184,0.0108205,699,1387,-5.91208,-4.61735
-518,-363,-5.91162,4.86646,-0.00107111,-0.00981672,-0.00349597,0.000154589,-0.0110424,-0.337212,0.00741368,0.009672,706,1387,-5.91162,-4.86649
-511,-363,-5.87488,5.14172,-0.00166657,-0.0146964,-0.00501666,4.11086e-05,-0.0164041,-0.328097,0.0109498,0.0160586,713,1387,-5.87489,-5.14175
-504,-363,-5.75983,5.37878,-0.00425551,-0.0218735,-0.00741014,-0.00155326,-0.0245757,-0.349683,0.0158914,0.0395071,720,1387,-5.75982,-5.37876
-497,-363,-5.47192,5.49646,0,0,0,0,0,0,0,-1,727,1387,-5.47191,-5.49641
-490,-363,-5.42413,4.6958,0,0,0,0,0,0,0,-1,734,1387,-5.42412,-4.69583
-483,-363,-6.28375,4.1394,0,0,0,0,0,0,0,-1,741,1387,-6.28374,-4.13944
-476,-363,-5.83807,4.31018,0,0,0,0,0,0,0,-1,748,1387,-5.8381,-4.31013
-469,-363,-4.31604,1.66943,0,0,0,0,0,0,0,-1,755,1387,-4.31606,-1.66944
-462,-363,-9.94159,2.40771,0,0,0,0,0,0,0,-1,762,1387,-9.94157,-2.4077
-455,-363,-10.5774,1.9292,0,0,0,0,0,0,0,-1,769,1387,-10.5774,-1.92915
-448,-363,-11.0799,1.61865,0,0,0,0,0,0,0,-1,776,1387,-11.0799,-1.61866
-441,-363,-11.8578,1.90332,0,0,0,0,0,0,0,-1,783,1387,-11.8578,-1.90326
-434,-363,-12.5151,2.19995,0,0,0,0,0,0,0,-1,790,1387,-12.5151,-2.19996
-427,-363,0,0,0,0,0,0,0,0,0,-1,797,1387,0,0
-420,-363,0,0,0,0,0,0,0,0,0,-1,804,1387,0,0
-413,-363,0,0,0,0,0,0,0,0,0,-1,811,1387,0,0
-406,-363,0,0,0,0,0,0,0,0,0,-1,818,1387,0,0
-399,-363,0,0,0,0,0,0,0,0,0,-1,825,1387,0,0
-392,-363,0,0,0,0,0,0,0,0,0,-1,832,1387,0,0
-385,-363,0,0,0,0,0,0,0,0,0,-1,839,1387,0,0
-378,-363,0,0,0,0,0,0,0,0,0,-1,846,1387,0,0
-371,-363,0,0,0,0,0,0,0,0,0,-1,853,1387,0,0
-364,-363,0,0,0,0,0,0,0,0,0,-1,860,1387,0,0
-357,-363,0,0,0,0,0,0,0,0,0,-1,867,1387,0,0
-350,-363,0,0,0,0,0,0,0,0,0,-1,874,1387,0,0
-343,-363,0,0,0,0,0,0,0,0,0,-1,881,1387,0,0
-336,-363,0,0,0,0,0,0,0,0,0,-1,888,1387,0,0
-329,-363,0,0,0,0,0,0,0,0,0,-1,895,1387,0,0
-322,-363,0,0,0,0,0,0,0,0,0,-1,902,1387,0,0
-315,-363,0,0,0,0,0,0,0,0,0,-1,909,1387,0,0
-308,-363,0,0,0,0,0,0,0,0,0,-1,916,1387,0,0
-301,-363,0,0,0,0,0,0,0,0,0,-1,923,1387,0,0
-294,-363,0,0,0,0,0,0,0,0,0,-1,930,1387,0,0
-287,-363,0,0,0,0,0,0,0,0,0,-1,937,1387,0,0
-280,-363,0,0,0,0,0,0,0,0,0,-1,944,1387,0,0
-273,-363,0,0,0,0,0,0,0,0,0,-1,951,1387,0,0
-266,-363,0,0,0,0,0,0,0,0,0,-1,958,1387,0,0
-259,-363,0,0,0,0,0,0,0,0,0,-1,965,1387,0,0
-252,-363,0,0,0,0,0,0,0,0,0,-1,972,1387,0,0
-245,-363,0,0,0,0,0,0,0,0,0,-1,979,1387,0,0
-238,-363,0,0,0,0,0,0,0,0,0,-1,986,1387,0,0
-231,-363,0,0,0,0,0,0,0,0,0,-1,993,1387,0,0
-224,-363,0,0,0,0,0,0,0,0,0,-1,1000,1387,0,0
-217,-363,0,0,0,0,0,0,0,0,0,-1,1007,1387,0,0
-210,-363,0,0,0,0,0,0,0,0,0,-1,1014,1387,0,0
-203,-363,0,0,0,0,0,0,0,0,0,-1,1021,1387,0,0
-196,-363,0,0,0,0,0,0,0,0,0,-1,1028,1387,0,0
-189,-363,0,0,0,0,0,0,0,0,0,-1,1035,1387,0,0
-182,-363,0,0,0,0,0,0,0,0,0,-1,1042,1387,0,0
-175,-363,0,0,0,0,0,0,0,0,0,-1,1049,1387,0,0
-168,-363,0,0,0,0,0,0,0,0,0,-1,1056,1387,0,0
-161,-363,0,0,0,0,0,0,0,0,0,-1,1063,1387,0,0
-154,-363,0,0,0,0,0,0,0,0,0,-1,1070,1387,0,0
-147,-363,0,0,0,0,0,0,0,0,0,-1,1077,1387,0,0
-140,-363,0,0,0,0,0,0,0,0,0,-1,1084,1387,0,0
-133,-363,0,0,0,0,0,0,0,0,0,-1,1091,1387,0,0
-126,-363,0,0,0,0,0,0,0,0,0,-1,1098,1387,0,0
-119,-363,0,0,0,0,0,0,0,0,0,-1,1105,1387,0,0
-112,-363,0,0,0,0,0,0,0,0,0,-1,1112,1387,0,0
-105,-363,0,0,0,0,0,0,0,0,0,-1,1119,1387,0,0
-98,-363,0,0,0,0,0,0,0,0,0,-1,1126,1387,0,0
-91,-363,0,0,0,0,0,0,0,0,0,-1,1133,1387,0,0
-84,-363,0,0,0,0,0,0,0,0,0,-1,1140,1387,0,0
-77,-363,0,0,0,0,0,0,0,0,0,-1,1147,1387,0,0
-70,-363,0,0,0,0,0,0,0,0,0,-1,1154,1387,0,0
-63,-363,0,0,0,0,0,0,0,0,0,-1,1161,1387,0,0
-56,-363,0,0,0,0,0,0,0,0,0,-1,1168,1387,0,0
-49,-363,0,0,0,0,0,0,0,0,0,-1,1175,1387,0,0
-42,-363,0,0,0,0,0,0,0,0,0,-1,1182,1387,0,0
-35,-363,0,0,0,0,0,0,0,0,0,-1,1189,1387,0,0
-28,-363,0,0,0,0,0,0,0,0,0,-1,1196,1387,0,0
-21,-363,0,0,0,0,0,0,0,0,0,-1,1203,1387,0,0
-14,-363,0,0,0,0,0,0,0,0,0,-1,1210,1387,0,0
-7,-363,0,0,0,0,0,0,0,0,0,-1,1217,1387,0,0
0,-363,0,0,0,0,0,0,0,0,0,-1,1224,1387,0,0
7,-363,0,0,0,0,0,0,0,0,0,-1,1231,1387,0,0
14,-363,0,0,0,0,0,0,0,0,0,-1,1238,1387,0,0
21,-363,0,0,0,0,0,0,0,0,0,-1,1245,1387,0,0
28,-363,0,0,0,0,0,0,0,0,0,-1,1252,1387,0,0
35,-363,0,0,0,0,0,0,0,0,0,-1,1259,1387,0,0
42,-363,0,0,0,0,0,0,0,0,0,-1,1266,1387,0,0
49,-363,0,0,0,0,0,0,0,0,0,-1,1273,1387,0,0
56,-363,0,0,0,0,0,0,0,0,0,-1,1280,1387,0,0
63,-363,0,0,0,0,0,0,0,0,0,-1,1287,1387,0,0
70,-363,0,0,0,0,0,0,0,0,0,-1,1294,1387,0,0
77,-363,0,0,0,0,0,0,0,0,0,-1,1301,1387,0,0
84,-363,0,0,0,0,0,0,0,0,0,-1,1308,1387,0,0
91,-363,0,0,0,0,0,0,0,0,0,-1,1315,1387,0,0
98,-363,0,0,0,0,0,0,0,0,0,-1,1322,1387,0,0
105,-363,0,0,0,0,0,0,0,0,0,-1,1329,1387,0,0
112,-363,0,0,0,0,0,0,0,0,0,-1,1336,1387,0,0
119,-363,0,0,0,0,0,0,0,0,0,-1,1343,1387,0,0
126,-363,0,0,0,0,0,0,0,0,0,-1,1350,1387,0,0
133,-363,0,0,0,0,0,0,0,0,0,-1,1357,1387,0,0
140,-363,0,0,0,0,0,0,0,0,0,-1,1364,1387,0,0
147,-363,0,0,0,0,0,0,0,0,0,-1,1371,1387,0,0
154,-363,0,0,0,0,0,0,0,0,0,-1,1378,1387,0,0
161,-363,0,0,0,0,0,0,0,0,0,-1,1385,1387,0,0
168,-363,0,0,0,0,0,0,0,0,0,-1,1392,1387,0,0
175,-363,0,0,0,0,0,0,0,0,0,-1,1399,1387,0,0
182,-363,0,0,0,0,0,0,0,0,0,-1,1406,1387,0,0
189,-363,0,0,0,0,0,0,0,0,0,-1,1413,1387,0,0
196,-363,0,0,0,0,0,0,0,0,0,-1,1420,1387,0,0
203,-363,0,0,0,0,0,0,0,0,0,-1,1427,1387,0,0
210,-363,0,0,0,0,0,0,0,0,0,-1,1434,1387,0,0
217,-363,0,0,0,0,0,0,0,0,0,-1,1441,1387,0,0
224,-363,0,0,0,0,0,0,0,0,0,-1,1448,1387,0,0
231,-363,0,0,0,0,0,0,0,0,0,-1,1455,1387,0,0
238,-363,0,0,0,0,0,0,0,0,0,-1,1462,1387,0,0
245,-363,0,0,0,0,0,0,0,0,0,-1,1469,1387,0,0
252,-363,0,0,0,0,0,0,0,0,0,-1,1476,1387,0,0
259,-363,0,0,0,0,0,0,0,0,0,-1,1483,1387,0,0
266,-363,0,0,0,0,0,0,0,0,0,-1,1490,1387,0,0
273,-363,0,0,0,0,0,0,0,0,0,-1,1497,1387,0,0
280,-363,0,0,0,0,0,0,0,0,0,-1,1504,1387,0,0
287,-363,0,0,0,0,0,0,0,0,0,-1,1511,1387,0,0
294,-363,0,0,0,0,0,0,0,0,0,-1,1518,1387,0,0
301,-363,0,0,0,0,0,0,0,0,0,-1,1525,1387,0,0
308,-363,0,0,0,0,0,0,0,0,0,-1,1532,1387,0,0
315,-363,0,0,0,0,0,0,0,0,0,-1,1539,1387,0,0
322,-363,0,0,0,0,0,0,0,0,0,-1,1546,1387,0,0
329,-363,0,0,0,0,0,0,0,0,0,-1,1553,1387,0,0
336,-363,0,0,0,0,0,0,0,0,0,-1,1560,1387,0,0
343,-363,0,0,0,0,0,0,0,0,0,-1,1567,1387,0,0
350,-363,0,0,0,0,0,0,0,0,0,-1,1574,1387,0,0
357,-363,0,0,0,0,0,0,0,0,0,-1,1581,1387,0,0
364,-363,0,0,0,0,0,0,0,0,0,-1,1588,1387,0,0
371,-363,0,0,0,0,0,0,0,0,0,-1,1595,1387,0,0
378,-363,0,0,0,0,0,0,0,0,0,-1,1602,1387,0,0
385,-363,0,0,0,0,0,0,0,0,0,-1,1609,1387,0,0
392,-363,0,0,0,0,0,0,0,0,0,-1,1616,1387,0,0
399,-363,0,0,0,0,0,0,0,0,0,-1,1623,1387,0,0
406,-363,0,0,0,0,0,0,0,0,0,-1,1630,1387,0,0
413,-363,0,0,0,0,0,0,0,0,0,-1,1637,1387,0,0
420,-363,0,0,0,0,0,0,0,0,0,-1,1644,1387,0,0
427,-363,0,0,0,0,0,0,0,0,0,-1,1651,1387,0,0
434,-363,0,0,0,0,0,0,0,0,0,-1,1658,1387,0,0
441,-363,0,0,0,0,0,0,0,0,0,-1,1665,1387,0,0
448,-363,0,0,0,0,0,0,0,0,0,-1,1672,1387,0,0
455,-363,0,0,0,0,0,0,0,0,0,-1,1679,1387,0,0
462,-363,0,0,0,0,0,0,0,0,0,-1,1686,1387,0,0
469,-363,0,0,0,0,0,0,0,0,0,-1,1693,1387,0,0
476,-363,0,0,0,0,0,0,0,0,0,-1,1700,1387,0,0
483,-363,0,0,0,0,0,0,0,0,0,-1,1707,1387,0,0
490,-363,0,0,0,0,0,0,0,0,0,-1,1714,1387,0,0
497,-363,0,0,0,0,0,0,0,0,0,-1,1721,1387,0,0
504,-363,0,0,0,0,0,0,0,0,0,-1,1728,1387,0,0
511,-363,0,0,0,0,0,0,0,0,0,-1,1735,1387,0,0
518,-363,0,0,0,0,0,0,0,0,0,-1,1742,1387,0,0
525,-363,0,0,0,0,0,0,0,0,0,-1,1749,1387,0,0
532,-363,0,0,0,0,0,0,0,0,0,-1,1756,1387,0,0
539,-363,0,0,0,0,0,0,0,0,0,-1,1763,1387,0,0
546,-363,0,0,0,0,0,0,0,0,0,-1,1770,1387,0,0
553,-363,20.5176,1.28699,0,0,0,0,0,0,0,-1,1777,1387,20.5176,-1.28699
560,-363,20.1282,2.86011,0,0,0,0,0,0,0,-1,1784,1387,20.1282,-2.86016
567,-363,20.1196,3.49683,0,0,0,0,0,0,0,-1,1791,1387,20.1196,-3.49686
574,-363,13.896,5.84314,0,0,0,0,0,0,0,-1,1798,1387,13.896,-5.84314
581,-363,15.1686,4.47595,0,0,0,0,0,0,0,-1,1805,1387,15.1686,-4.47596
588,-363,16.2867,3.32141,0,0,0,0,0,0,0,-1,1812,1387,16.2868,-3.32145
595,-363,13.1581,5.6853,0,0,0,0,0,0,0,-1,1819,1387,13.1581,-5.68524
602,-363,14.0654,6.11243,0,0,0,0,0,0,0,-1,1826,1387,14.0654,-6.11239
609,-363,14.3435,6.41492,0,0,0,0,0,0,0,-1,1833,1387,14.3435,-6.41488
616,-363,14.6672,6.73828,0,0,0,0,0,0,0,-1,1840,1387,14.6672,-6.73829
623,-363,14.6434,6.75745,0,0,0,0,0,0,0,-1,1847,1387,14.6434,-6.75746
630,-363,14.4698,7.08337,0,0,0,0,0,0,0,-1,1854,1387,14.4699,-7.08341
637,-363,14.5446,7.00232,-0.0128102,-0.00575077,0.0104579,0.00175702,-0.020318,0.948154,0.0141674,0.0345952,1861,1387,14.5445,-7.00226
644,-363,14.7047,6.93958,-0.00843262,-0.00446076,0.00730309,0.0011216,-0.014015,0.918153,0.00973874,0.0118248,1868,1387,14.7047,-6.93961
651,-363,14.713,6.70911,-0.00495452,-0.00324206,0.00485489,0.000831526,-0.00902811,0.872683,0.00631419,0.0109237,1875,1387,14.713,-6.70914
658,-363,14.718,6.47327,-0.00281246,-0.00229243,0.00319594,0.000654053,-0.00575894,0.825987,0.00407484,0.0116414,1882,1387,14.718,-6.47331
665,-363,14.7018,6.29663,-0.00136861,-0.00135358,0.00189981,0.000538731,-0.00326092,0.787376,0.00237399,0.0110744,1889,1387,14.7018,-6.29666
672,-363,14.6884,6.10413,-0.000368325,-0.000555624,0.000948701,0.000491338,-0.00141529,0.736201,0.00114306,0.0114176,1896,1387,14.6884,-6.10407
679,-363,14.6648,5.88098,0.000537228,4.58268e-05,0.000199973,0.000608321,-2.52661e-05,0.341577,0.000414226,0.0130343,1903,1387,14.6648,-5.88101
686,-363,14.6907,5.66846,0.00116994,0.00110759,-0.000546031,0.00168568,0.000591844,-0.756883,0.000987511,0.0141229,1910,1387,14.6907,-5.66847
693,-363,14.7234,5.43713,0.00174978,0.00237698,-0.00136953,0.00346836,0.000658402,-0.897949,0.00212701,0.0134274,1917,1387,14.7234,-5.43717
700,-363,14.7814,5.1792,0.0029506,0.0043762,-0.00222404,0.00599888,0.00132792,-0.940475,0.00363831,0.0184243,1924,1387,14.7814,-5.17918
707,-363,14.7134,4.84216,0.00513628,0.00780747,-0.00333444,0.0100639,0.0028799,-0.975886,0.00598487,0.0394185,1931,1387,14.7134,-4.84213
714,-363,14.7109,4.76941,0,0,0,0,0,0,0,-1,1938,1387,14.7109,-4.76935
721,-363,14.4045,4.51685,0,0,0,0,0,0,0,-1,1945,1387,14.4045,-4.51685
728,-363,13.8644,4.52063,0,0,0,0,0,0,0,-1,1952,1387,13.8644,-4.52064
735,-363,14.8151,4.4552,0,0,0,0,0,0,0,-1,1959,1387,14.8151,-4.45516
742,-363,16.3715,0.114868,0,0,0,0,0,0,0,-1,1966,1387,16.3715,-0.114861
749,-363,0,0,0,0,0,0,0,0,0,-1,1973,1387,0,0
756,-363,0,0,0,0,0,0,0,0,0,-1,1980,1387,0,0
763,-363,0,0,0,0,0,0,0,0,0,-1,1987,1387,0,0
770,-363,0,0,0,0,0,0,0,0,0,-1,1994,1387,0,0
777,-363,0,0,0,0,0,0,0,0,0,-1,2001,1387,0,0
784,-363,0,0,0,0,0,0,0,0,0,-1,2008,1387,0,0
791,-363,0,0,0,0,0,0,0,0,0,-1,2015,1387,0,0
798,-363,0,0,0,0,0,0,0,0,0,-1,2022,1387,0,0
805,-363,0,0,0,0,0,0,0,0,0,-1,2029,1387,0,0
812,-363,0,0,0,0,0,0,0,0,0,-1,2036,1387,0,0
-700,-370,0,0,0,0,0,0,0,0,0,-1,524,1394,0,0
-693,-370,0,0,0,0,0,0,0,0,0,-1,531,1394,0,0
-686,-370,0,0,0,0,0,0,0,0,0,-1,538,1394,0,0
-679,-370,0,0,0,0,0,0,0,0,0,-1,545,1394,0,0
-672,-370,0,0,0,0,0,0,0,0,0,-1,552,1394,0,0
-665,-370,0,0,0,0,0,0,0,0,0,-1,559,1394,0,0
-658,-370,0,0,0,0,0,0,0,0,0,-1,566,1394,0,0
-651,-370,0,0,0,0,0,0,0,0,0,-1,573,1394,0,0
-644,-370,0,0,0,0,0,0,0,0,0,-1,580,1394,0,0
-637,-370,0,0,0,0,0,0,0,0,0,-1,587,1394,0,0
-630,-370,0,0,0,0,0,0,0,0,0,-1,594,1394,0,0
-623,-370,-10.1758,-7.10486,0,0,0,0,0,0,0,-1,601,1394,-10.1758,7.10483
-616,-370,-8.85925,-1.61475,0,0,0,0,0,0,0,-1,608,1394,-8.85925,1.61476
-609,-370,-5.39325,0.0421143,0,0,0,0,0,0,0,-1,615,1394,-5.39328,-0.0421372
-602,-370,-5.4397,0.881836,0,0,0,0,0,0,0,-1,622,1394,-5.43972,-0.881813
-595,-370,-5.32452,1.03552,0,0,0,0,0,0,0,-1,629,1394,-5.32452,-1.03558
-588,-370,-5.93701,3.89331,0,0,0,0,0,0,0,-1,636,1394,-5.93701,-3.89335
-581,-370,-5.51117,3.54395,0.0156582,0.028381,-0.00153468,0.0285636,0.0154757,-1.45243,0.0165104,0.0456336,643,1394,-5.51114,-3.54391
-574,-370,-5.58386,3.21814,0.00584509,0.0206832,-0.00196975,0.0209403,0.00558806,-1.44104,0.0125203,0.0366127,650,1394,-5.58388,-3.21812
-567,-370,-5.61688,3.21582,0.00381522,0.0145237,-0.00164614,0.014771,0.00356789,-1.42166,0.00889971,0.025617,657,1394,-5.61689,-3.21587
-560,-370,-5.7085,3.39172,0.00237256,0.00990493,-0.00136228,0.0101437,0.00213375,-1.39726,0.00617537,0.0161118,664,1394,-5.70848,-3.39177
-553,-370,-5.69543,3.65698,0.0014002,0.00641468,-0.0011395,0.00666148,0.00115341,-1.35751,0.00411081,0.0108909,671,1394,-5.69544,-3.65698
-546,-370,-5.67853,3.89795,0.000844332,0.00368437,-0.000963095,0.00398017,0.000548541,-1.27281,0.00249081,0.0134923,678,1394,-5.67855,-3.89799
-539,-370,-5.64282,4.16589,0.00056987,0.00138374,-0.000883516,0.00194953,4.07931e-06,-1.00121,0.00129833,0.0177625,685,1394,-5.6428,-4.16595
-532,-370,-5.67053,4.40173,0.000353654,-0.000961296,-0.00109321,0.000971866,-0.00157951,-0.514668,0.0014869,0.0218843,692,1394,-5.67054,-4.40171
-525,-370,-5.68042,4.6322,0.000330796,-0.00368551,-0.00147364,0.000813484,-0.00416819,-0.316535,0.00308591,0.0148398,699,1394,-5.68042,-4.63215
-518,-370,-5.69568,4.85437,0.00030177,-0.00645794,-0.00219241,0.00095057,-0.00710674,-0.287719,0.00508439,0.0106507,706,1394,-5.69566,-4.85442
-511,-370,-5.66272,5.10254,0.000272114,-0.00996337,-0.00323887,0.0012109,-0.0109022,-0.28212,0.00770353,0.0143175,713,1394,-5.66273,-5.10249
-504,-370,-5.59296,5.37976,-0.00216208,-0.0158759,-0.00524392,-0.00038673,-0.0176512,-0.326442,0.0116407,0.0253281,720,1394,-5.59293,-5.37981
-497,-370,-5.22803,5.62842,0,0,0,0,0,0,0,-1,727,1394,-5.22802,-5.62837
-490,-370,-5.30695,4.5271,0,0,0,0,0,0,0,-1,734,1394,-5.30698,-4.52704
-483,-370,-6.02997,4.59253,0,0,0,0,0,0,0,-1,741,1394,-6.02994,-4.5925
-476,-370,-6.75293,4.65796,0,0,0,0,0,0,0,-1,748,1394,-6.7529,-4.65795
-469,-370,-6.71899,4.70483,0,0,0,0,0,0,0,-1,755,1394,-6.71897,-4.70487
-462,-370,-9.86481,2.61072,0,0,0,0,0,0,0,-1,762,1394,-9.86479,-2.61068
-455,-370,-8.96338,1.39319,0,0,0,0,0,0,0,-1,769,1394,-8.96335,-1.39315
-448,-370,-9.96106,1.12341,0,0,0,0,0,0,0,-1,776,1394,-9.96106,-1.12339
-441,-370,-11.2067,1.4259,0,0,0,0,0,0,0,-1,783,1394,-11.2067,-1.42593
-434,-370,-11.8126,1.54004,0,0,0,0,0,0,0,-1,790,1394,-11.8126,-1.5401
-427,-370,0,0,0,0,0,0,0,0,0,-1,797,1394,0,0
-420,-370,0,0,0,0,0,0,0,0,0,-1,804,1394,0,0
-413,-370,0,0,0,0,0,0,0,0,0,-1,811,1394,0,0
-406,-370,0,0,0,0,0,0,0,0,0,-1,818,1394,0,0
-399,-370,0,0,0,0,0,0,0,0,0,-1,825,1394,0,0
-392,-370,0,0,0,0,0,0,0,0,0,-1,832,1394,0,0
-385,-370,0,0,0,0,0,0,0,0,0,-1,839,1394,0,0
-378,-370,0,0,0,0,0,0,0,0,0,-1,846,1394,0,0
-371,-370,0,0,0,0,0,0,0,0,0,-1,853,1394,0,0
-364,-370,0,0,0,0,0,0,0,0,0,-1,860,1394,0,0
-357,-370,0,0,0,0,0,0,0,0,0,-1,867,1394,0,0
-350,-370,0,0,0,0,0,0,0,0,0,-1,874,1394,0,0
-343,-370,0,0,0,0,0,0,0,0,0,-1,881,1394,0,0
-336,-370,0,0,0,0,0,0,0,0,0,-1,888,1394,0,0
-329,-370,0,0,0,0,0,0,0,0,0,-1,895,1394,0,0
-322,-370,0,0,0,0,0,0,0,0,0,-1,902,1394,0,0
-315,-370,0,0,0,0,0,0,0,0,0,-1,909,1394,0,0
-308,-370,0,0,0,0,0,0,0,0,0,-1,916,1394,0,0
-301,-370,0,0,0,0,0,0,0,0,0,-1,923,1394,0,0
-294,-370,0,0,0,0,0,0,0,0,0,-1,930,1394,0,0
-287,-370,0,0,0,0,0,0,0,0,0,-1,937,1394,0,0
-280,-370,0,0,0,0,0,0,0,0,0,-1,944,1394,0,0
-273,-370,0,0,0,0,0,0,0,0,0,-1,951,1394,0,0
-266,-370,0,0,0,0,0,0,0,0,0,-1,958,1394,0,0
-259,-370,0,0,0,0,0,0,0,0,0,-1,965,1394,0,0
-252,-370,0,0,0,0,0,0,0,0,0,-1,972,1394,0,0
-245,-370,0,0,0,0,0,0,0,0,0,-1,979,1394,0,0
-238,-370,0,0,0,0,0,0,0,0,0,-1,986,1394,0,0
-231,-370,0,0,0,0,0,0,0,0,0,-1,993,1394,0,0
-224,-370,0,0,0,0,0,0,0,0,0,-1,1000,1394,0,0
-217,-370,0,0,0,0,0,0,0,0,0,-1,1007,1394,0,0
-210,-370,0,0,0,0,0,0,0,0,0,-1,1014,1394,0,0
-203,-370,0,0,0,0,0,0,0,0,0,-1,1021,1394,0,0
-196,-370,0,0,0,0,0,0,0,0,0,-1,1028,1394,0,0
-189,-370,0,0,0,0,0,0,0,0,0,-1,1035,1394,0,0
-182,-370,0,0,0,0,0,0,0,0,0,-1,1042,1394,0,0
-175,-370,0,0,0,0,0,0,0,0,0,-1,1049,1394,0,0
-168,-370,0,0,0,0,0,0,0,0,0,-1,1056,1394,0,0
-161,-370,0,0,0,0,0,0,0,0,0,-1,1063,1394,0,0
-154,-370,0,0,0,0,0,0,0,0,0,-1,1070,1394,0,0
-147,-370,0,0,0,0,0,0,0,0,0,-1,1077,1394,0,0
-140,-370,0,0,0,0,0,0,0,0,0,-1,1084,1394,0,0
-133,-370,0,0,0,0,0,0,0,0,0,-1,1091,1394,0,0
-126,-370,0,0,0,0,0,0,0,0,0,-1,1098,1394,0,0
-119,-370,0,0,0,0,0,0,0,0,0,-1,1105,1394,0,0
-112,-370,0,0,0,0,0,0,0,0,0,-1,1112,1394,0,0
-105,-370,0,0,0,0,0,0,0,0,0,-1,1119,1394,0,0
-98,-370,0,0,0,0,0,0,0,0,0,-1,1126,1394,0,0
-91,-370,0,0,0,0,0,0,0,0,0,-1,1133,1394,0,0
-84,-370,0,0,0,0,0,0,0,0,0,-1,1140,1394,0,0
-77,-370,0,0,0,0,0,0,0,0,0,-1,1147,1394,0,0
-70,-370,0,0,0,0,0,0,0,0,0,-1,1154,1394,0,0
-63,-370,0,0,0,0,0,0,0,0,0,-1,1161,1394,0,0
-56,-370,0,0,0,0,0,0,0,0,0,-1,1168,1394,0,0
-49,-370,0,0,0,0,0,0,0,0,0,-1,1175,1394,0,0
-42,-370,0,0,0,0,0,0,0,0,0,-1,1182,1394,0,0
-35,-370,0,0,0,0,0,0,0,0,0,-1,1189,1394,0,0
-28,-370,0,0,0,0,0,0,0,0,0,-1,1196,1394,0,0
-21,-370,0,0,0,0,0,0,0,0,0,-1,1203,1394,0,0
-14,-370,0,0,0,0,0,0,0,0,0,-1,1210,1394,0,0
-7,-370,0,0,0,0,0,0,0,0,0,-1,1217,1394,0,0
0,-370,0,0,0,0,0,0,0,0,0,-1,1224,1394,0,0
7,-370,0,0,0,0,0,0,0,0,0,-1,1231,1394,0,0
14,-370,0,0,0,0,0,0,0,0,0,-1,1238,1394,0,0
21,-370,0,0,0,0,0,0,0,0,0,-1,1245,1394,0,0
28,-370,0,0,0,0,0,0,0,0,0,-1,1252,1394,0,0
35,-370,0,0,0,0,0,0,0,0,0,-1,1259,1394,0,0
42,-370,0,0,0,0,0,0,0,0,0,-1,1266,1394,0,0
49,-370,0,0,0,0,0,0,0,0,0,-1,1273,1394,0,0
56,-370,0,0,0,0,0,0,0,0,0,-1,1280,1394,0,0
63,-370,0,0,0,0,0,0,0,0,0,-1,1287,1394,0,0
70,-370,0,0,0,0,0,0,0,0,0,-1,1294,1394,0,0
77,-370,0,0,0,0,0,0,0,0,0,-1,1301,1394,0,0
84,-370,0,0,0,0,0,0,0,0,0,-1,1308,1394,0,0
91,-370,0,0,0,0,0,0,0,0,0,-1,1315,1394,0,0
98,-370,0,0,0,0,0,0,0,0,0,-1,1322,1394,0,0
105,-370,0,0,0,0,0,0,0,0,0,-1,1329,1394,0,0
112,-370,0,0,0,0,0,0,0,0,0,-1,1336,1394,0,0
119,-370,0,0,0,0,0,0,0,0,0,-1,1343,1394,0,0
126,-370,0,0,0,0,0,0,0,0,0,-1,1350,1394,0,0
133,-370,0,0,0,0,0,0,0,0,0,-1,1357,1394,0,0
140,-370,0,0,0,0,0,0,0,0,0,-1,1364,1394,0,0
147,-370,0,0,0,0,0,0,0,0,0,-1,1371,1394,0,0
154,-370,0,0,0,0,0,0,0,0,0,-1,1378,1394,0,0
161,-370,0,0,0,0,0,0,0,0,0,-1,1385,1394,0,0
168,-370,0,0,0,0,0,0,0,0,0,-1,1392,1394,0,0
175,-370,0,0,0,0,0,0,0,0,0,-1,1399,1394,0,0
182,-370,0,0,0,0,0,0,0,0,0,-1,1406,1394,0,0
189,-370,0,0,0,0,0,0,0,0,0,-1,1413,1394,0,0
196,-370,0,0,0,0,0,0,0,0,0,-1,1420,1394,0,0
203,-370,0,0,0,0,0,0,0,0,0,-1,1427,1394,0,0
210,-370,0,0,0,0,0,0,0,0,0,-1,1434,1394,0,0
217,-370,0,0,0,0,0,0,0,0,0,-1,1441,1394,0,0
224,-370,0,0,0,0,0,0,0,0,0,-1,1448,1394,0,0
231,-370,0,0,0,0,0,0,0,0,0,-1,1455,1394,0,0
238,-370,0,0,0,0,0,0,0,0,0,-1,1462,1394,0,0
245,-370,0,0,0,0,0,0,0,0,0,-1,1469,1394,0,0
252,-370,0,0,0,0,0,0,0,0,0,-1,1476,1394,0,0
259,-370,0,0,0,0,0,0,0,0,0,-1,1483,1394,0,0
266,-370,0,0,0,0,0,0,0,0,0,-1,1490,1394,0,0
273,-370,0,0,0,0,0,0,0,0,0,-1,1497,1394,0,0
280,-370,0,0,0,0,0,0,0,0,0,-1,1504,1394,0,0
287,-370,0,0,0,0,0,0,0,0,0,-1,1511,1394,0,0
294,-370,0,0,0,0,0,0,0,0,0,-1,1518,1394,0,0
301,-370,0,0,0,0,0,0,0,0,0,-1,1525,1394,0,0
308,-370,0,0,0,0,0,0,0,0,0,-1,1532,1394,0,0
315,-370,0,0,0,0,0,0,0,0,0,-1,1539,1394,0,0
322,-370,0,0,0,0,0,0,0,0,0,-1,1546,1394,0,0
329,-370,0,0,0,0,0,0,0,0,0,-1,1553,1394,0,0
336,-370,0,0,0,0,0,0,0,0,0,-1,1560,1394,0,0
343,-370,0,0,0,0,0,0,0,0,0,-1,1567,1394,0,0
350,-370,0,0,0,0,0,0,0,0,0,-1,1574,1394,0,0
357,-370,0,0,0,0,0,0,0,0,0,-1,1581,1394,0,0
364,-370,0,0,0,0,0,0,0,0,0,-1,1588,1394,0,0
371,-370,0,0,0,0,0,0,0,0,0,-1,1595,1394,0,0
378,-370,0,0,0,0,0,0,0,0,0,-1,1602,1394,0,0
385,-370,0,0,0,0,0,0,0,0,0,-1,1609,1394,0,0
392,-370,0,0,0,0,0,0,0,0,0,-1,1616,1394,0,0
399,-370,0,0,0,0,0,0,0,0,0,-1,1623,1394,0,0
406,-370,0,0,0,0,0,0,0,0,0,-1,1630,1394,0,0
413,-370,0,0,0,0,0,0,0,0,0,-1,1637,1394,0,0
420,-370,0,0,0,0,0,0,0,0,0,-1,1644,1394,0,0
427,-370,0,0,0,0,0,0,0,0,0,-1,1651,1394,0,0
434,-370,0,0,0,0,0,0,0,0,0,-1,1658,1394,0,0
441,-370,0,0,0,0,0,0,0,0,0,-1,1665,1394,0,0
448,-370,0,0,0,0,0,0,0,0,0,-1,1672,1394,0,0
455,-370,0,0,0,0,0,0,0,0,0,-1,1679,1394,0,0
462,-370,0,0,0,0,0,0,0,0,0,-1,1686,1394,0,0
469,-370,0,0,0,0,0,0,0,0,0,-1,1693,1394,0,0
476,-370,0,0,0,0,0,0,0,0,0,-1,1700,1394,0,0
483,-370,0,0,0,0,0,0,0,0,0,-1,1707,1394,0,0
490,-370,0,0,0,0,0,0,0,0,0,-1,1714,1394,0,0
497,-370,0,0,0,0,0,0,0,0,0,-1,1721,1394,0,0
504,-370,0,0,0,0,0,0,0,0,0,-1,1728,1394,0,0
511,-370,0,0,0,0,0,0,0,0,0,-1,1735,1394,0,0
518,-370,0,0,0,0,0,0,0,0,0,-1,1742,1394,0,0
525,-370,0,0,0,0,0,0,0,0,0,-1,1749,1394,0,0
532,-370,0,0,0,0,0,0,0,0,0,-1,1756,1394,0,0
539,-370,0,0,0,0,0,0,0,0,0,-1,1763,1394,0,0
546,-370,21.7084,0.258667,0,0,0,0,0,0,0,-1,1770,1394,21.7084,-0.258678
553,-370,20.9537,1.46118,0,0,0,0,0,0,0,-1,1777,1394,20.9537,-1.46115
560,-370,20.2441,2.65051,0,0,0,0,0,0,0,-1,1784,1394,20.2442,-2.65048
567,-370,19.6786,3.53052,0,0,0,0,0,0,0,-1,1791,1394,19.6786,-3.53051
574,-370,13.203,4.47705,0,0,0,0,0,0,0,-1,1798,1394,13.203,-4.47703
581,-370,14.5411,3.60901,0,0,0,0,0,0,0,-1,1805,1394,14.5411,-3.60901
588,-370,15.6494,2.86951,0,0,0,0,0,0,0,-1,1812,1394,15.6494,-2.86946
595,-370,14.8816,2.97034,0,0,0,0,0,0,0,-1,1819,1394,14.8816,-2.97028
602,-370,13.8323,4.88599,0,0,0,0,0,0,0,-1,1826,1394,13.8323,-4.88596
609,-370,14.3762,6.26929,0,0,0,0,0,0,0,-1,1833,1394,14.3763,-6.26928
616,-370,14.4376,6.76196,0,0,0,0,0,0,0,-1,1840,1394,14.4377,-6.76201
623,-370,14.7465,6.93518,0,0,0,0,0,0,0,-1,1847,1394,14.7465,-6.93519
630,-370,14.5741,7.15552,-0.020811,-0.00746068,0.0107908,-0.0014473,-0.0268244,1.06239,0.0174205,0.0396662,1854,1394,14.5741,-7.15554
637,-370,14.3833,7.19385,-0.0134955,-0.00575965,0.00763972,-0.00106449,-0.0181906,1.01973,0.0117883,0.0274019,1861,1394,14.3833,-7.19379
644,-370,14.4919,6.93164,-0.00846695,-0.00426607,0.00534017,-0.000628109,-0.0121049,0.972769,0.00786893,0.0115792,1868,1394,14.4919,-6.9317
651,-370,14.5106,6.69666,-0.00456159,-0.00291939,0.00343941,-0.000204429,-0.00727655,0.902571,0.00478435,0.0116952,1875,1394,14.5106,-6.69666
658,-370,14.5322,6.47754,-0.00230517,-0.00193043,0.00225867,0.000148635,-0.00438423,0.826781,0.0029736,0.0115088,1882,1394,14.5323,-6.47759
665,-370,14.5067,6.26855,-0.00084613,-0.000985915,0.00140392,0.000489634,-0.00232168,0.760527,0.00173419,0.0122004,1889,1394,14.5067,-6.26853
672,-370,14.4832,6.06689,5.59555e-05,-0.000237877,0.000736567,0.000660115,-0.000842037,0.68696,0.000869385,0.0135228,1896,1394,14.4832,-6.0669
679,-370,14.4852,5.85242,0.000814282,0.000363905,0.000190708,0.000884186,0.000294001,0.351341,0.000519945,0.0127686,1903,1394,14.4852,-5.85238
686,-370,14.4938,5.64441,0.00137858,0.00121213,-0.00040943,0.00171316,0.00087755,-0.685127,0.000989191,0.0128515,1910,1394,14.4938,-5.64447
693,-370,14.5065,5.41455,0.0020466,0.00219241,-0.000987308,0.0031095,0.00112951,-0.822251,0.00181752,0.01189,1917,1394,14.5065,-5.41455
700,-370,14.551,5.14746,0.00327089,0.0036951,-0.00167904,0.00517537,0.00179062,-0.848228,0.00303489,0.0189732,1924,1394,14.551,-5.14748
707,-370,14.5161,4.91431,0.00538671,0.00623306,-0.00274168,0.00858403,0.00303574,-0.861969,0.00502626,0.0293059,1931,1394,14.5161,-4.91431
714,-370,14.9111,4.33398,0.00820649,0.0100318,-0.00426654,0.0134822,0.00475609,-0.890766,0.00789565,0.0463049,1938,1394,14.9111,-4.334
721,-370,15.3917,3.70557,0,0,0,0,0,0,0,-1,1945,1394,15.3917,-3.70555
728,-370,14.614,4.88318,0,0,0,0,0,0,0,-1,1952,1394,14.6141,-4.88324
735,-370,15.9586,5.35278,0,0,0,0,0,0,0,-1,1959,1394,15.9586,-5.35274
742,-370,12.6914,4.10376,0,0,0,0,0,0,0,-1,1966,1394,12.6914,-4.10374
749,-370,0,0,0,0,0,0,0,0,0,-1,1973,1394,0,0
756,-370,0,0,0,0,0,0,0,0,0,-1,1980,1394,0,0
763,-370,0,0,0,0,0,0,0,0,0,-1,1987,1394,0,0
770,-370,0,0,0,0,0,0,0,0,0,-1,1994,1394,0,0
777,-370,0,0,0,0,0,0,0,0,0,-1,2001,1394,0,0
784,-370,0,0,0,0,0,0,0,0,0,-1,2008,1394,0,0
791,-370,0,0,0,0,0,0,0,0,0,-1,2015,1394,0,0
798,-370,0,0,0,0,0,0,0,0,0,-1,2022,1394,0,0
805,-370,0,0,0,0,0,0,0,0,0,-1,2029,1394,0,0
812,-370,0,0,0,0,0,0,0,0,0,-1,2036,1394,0,0
-700,-377,0,0,0,0,0,0,0,0,0,-1,524,1401,0,0
-693,-377,0,0,0,0,0,0,0,0,0,-1,531,1401,0,0
-686,-377,0,0,0,0,0,0,0,0,0,-1,538,1401,0,0
-679,-377,0,0,0,0,0,0,0,0,0,-1,545,1401,0,0
-672,-377,0,0,0,0,0,0,0,0,0,-1,552,1401,0,0
-665,-377,0,0,0,0,0,0,0,0,0,-1,559,1401,0,0
-658,-377,0,0,0,0,0,0,0,0,0,-1,566,1401,0,0
-651,-377,0,0,0,0,0,0,0,0,0,-1,573,1401,0,0
-644,-377,0,0,0,0,0,0,0,0,0,-1,580,1401,0,0
-637,-377,0,0,0,0,0,0,0,0,0,-1,587,1401,0,0
-630,-377,0,0,0,0,0,0,0,0,0,-1,594,1401,0,0
-623,-377,0,0,0,0,0,0,0,0,0,-1,601,1401,0,0
-616,-377,-9.43915,-2.4906,0,0,0,0,0,0,0,-1,608,1401,-9.43915,2.49062
-609,-377,-7.2821,-1.35278,0,0,0,0,0,0,0,-1,615,1401,-7.28208,1.35279
-602,-377,-5.72253,0.430298,0,0,0,0,0,0,0,-1,622,1401,-5.72251,-0.430334
-595,-377,-5.17291,0.74292,0,0,0,0,0,0,0,-1,629,1401,-5.17289,-0.74293
-588,-377,-5.33911,1.99048,0,0,0,0,0,0,0,-1,636,1401,-5.33909,-1.99045
-581,-377,-5.20197,2.25391,0,0,0,0,0,0,0,-1,643,1401,-5.20199,-2.25397
-574,-377,-5.27338,2.69409,0.00826483,0.0282119,-0.000804197,0.0282443,0.00823246,-1.53057,0.0167729,0.0450182,650,1401,-5.27335,-2.6941
-567,-377,-5.34119,3.14404,0.00531538,0.0194066,-0.000915379,0.0194658,0.00525617,-1.5062,0.0116281,0.0299254,657,1401,-5.34121,-3.14406
-560,-377,-5.492,3.41943,0.00324068,0.0129786,-0.000884106,0.0130582,0.00316107,-1.48098,0.00786639,0.0216457,664,1401,-5.49203,-3.41949
-553,-377,-5.4408,3.62915,0.00185121,0.00833353,-0.000827073,0.00843739,0.00174734,-1.44587,0.0051424,0.0126889,671,1401,-5.44082,-3.62916
-546,-377,-5.44708,3.90796,0.00107144,0.00494075,-0.00070333,0.00506463,0.000947562,-1.39645,0.00310908,0.0158094,678,1401,-5.44708,-3.9079
-539,-377,-5.41241,4.15161,0.000747355,0.00241313,-0.000571824,0.00259053,0.000569953,-1.26997,0.00157187,0.0204172,685,1401,-5.4124,-4.15167
-532,-377,-5.44775,4.36768,0.00061362,0.000120738,-0.000633794,0.0010472,-0.000312841,-0.599976,0.00082249,0.0211035,692,1401,-5.44775,-4.36771
-525,-377,-5.42053,4.62964,0.000852914,-0.00207291,-0.000718683,0.00101991,-0.00223991,-0.228319,0.00192549,0.0189342,699,1401,-5.42051,-4.62965
-518,-377,-5.44366,4.86328,0.00126593,-0.00383166,-0.00101393,0.0014602,-0.00402594,-0.189308,0.00328086,0.0122952,706,1401,-5.44369,-4.86327
-511,-377,-5.42743,5.10522,0.00183693,-0.00597104,-0.00155354,0.00213468,-0.0062688,-0.189363,0.00504366,0.0120492,713,1401,-5.42743,-5.10524
-504,-377,-5.4162,5.36865,-0.000247779,-0.0104729,-0.00309617,0.000616661,-0.0113373,-0.272264,0.00777194,0.0125701,720,1401,-5.41622,-5.36871
-497,-377,-5.23175,5.62,-0.00572811,-0.0177872,-0.00597036,-0.00327234,-0.020243,-0.390233,0.0125476,0.023644,727,1401,-5.23176,-5.62003
-490,-377,-4.96948,5.95422,0,0,0,0,0,0,0,-1,734,1401,-4.96945,-5.95417
-483,-377,-5.6524,5.07324,0,0,0,0,0,0,0,-1,741,1401,-5.6524,-5.07325
-476,-377,-6.11682,5.10535,0,0,0,0,0,0,0,-1,748,1401,-6.11681,-5.10537
-469,-377,-7.84436,5.07422,0,0,0,0,0,0,0,-1,755,1401,-7.84437,-5.07423
-462,-377,-9.59265,6.021,0,0,0,0,0,0,0,-1,762,1401,-9.59264,-6.02104
-455,-377,-10.957,7.35364,0,0,0,0,0,0,0,-1,769,1401,-10.957,-7.35362
-448,-377,-9.05334,0.877319,0,0,0,0,0,0,0,-1,776,1401,-9.05332,-0.877324
-441,-377,-10.5236,0.856934,0,0,0,0,0,0,0,-1,783,1401,-10.5236,-0.856874
-434,-377,-11.0984,0.996216,0,0,0,0,0,0,0,-1,790,1401,-11.0984,-0.996265
-427,-377,-11.1733,1.25732,0,0,0,0,0,0,0,-1,797,1401,-11.1733,-1.25732
-420,-377,0,0,0,0,0,0,0,0,0,-1,804,1401,0,0
-413,-377,0,0,0,0,0,0,0,0,0,-1,811,1401,0,0
-406,-377,0,0,0,0,0,0,0,0,0,-1,818,1401,0,0
-399,-377,0,0,0,0,0,0,0,0,0,-1,825,1401,0,0
-392,-377,0,0,0,0,0,0,0,0,0,-1,832,1401,0,0
-385,-377,0,0,0,0,0,0,0,0,0,-1,839,1401,0,0
-378,-377,0,0,0,0,0,0,0,0,0,-1,846,1401,0,0
-371,-377,0,0,0,0,0,0,0,0,0,-1,853,1401,0,0
-364,-377,0,0,0,0,0,0,0,0,0,-1,860,1401,0,0
-357,-377,0,0,0,0,0,0,0,0,0,-1,867,1401,0,0
-350,-377,0,0,0,0,0,0,0,0,0,-1,874,1401,0,0
-343,-377,0,0,0,0,0,0,0,0,0,-1,881,1401,0,0
-336,-377,0,0,0,0,0,0,0,0,0,-1,888,1401,0,0
-329,-377,0,0,0,0,0,0,0,0,0,-1,895,1401,0,0
-322,-377,0,0,0,0,0,0,0,0,0,-1,902,1401,0,0
-315,-377,0,0,0,0,0,0,0,0,0,-1,909,1401,0,0
-308,-377,0,0,0,0,0,0,0,0,0,-1,916,1401,0,0
-301,-377,0,0,0,0,0,0,0,0,0,-1,923,1401,0,0
-294,-377,0,0,0,0,0,0,0,0,0,-1,930,1401,0,0
-287,-377,0,0,0,0,0,0,0,0,0,-1,937,1401,0,0
-280,-377,0,0,0,0,0,0,0,0,0,-1,944,1401,0,0
-273,-377,0,0,0,0,0,0,0,0,0,-1,951,1401,0,0
-266,-377,0,0,0,0,0,0,0,0,0,-1,958,1401,0,0
-259,-377,0,0,0,0,0,0,0,0,0,-1,965,1401,0,0
-252,-377,0,0,0,0,0,0,0,0,0,-1,972,1401,0,0
-245,-377,0,0,0,0,0,0,0,0,0,-1,979,1401,0,0
-238,-377,0,0,0,0,0,0,0,0,0,-1,986,1401,0,0
-231,-377,0,0,0,0,0,0,0,0,0,-1,993,1401,0,0
-224,-377,0,0,0,0,0,0,0,0,0,-1,1000,1401,0,0
-217,-377,0,0,0,0,0,0,0,0,0,-1,1007,1401,0,0
-210,-377,0,0,0,0,0,0,0,0,0,-1,1014,1401,0,0
-203,-377,0,0,0,0,0,0,0,0,0,-1,1021,1401,0,0
-196,-377,0,0,0,0,0,0,0,0,0,-1,1028,1401,0,0
-189,-377,0,0,0,0,0,0,0,0,0,-1,1035,1401,0,0
-182,-377,0,0,0,0,0,0,0,0,0,-1,1042,1401,0,0
-175,-377,0,0,0,0,0,0,0,0,0,-1,1049,1401,0,0
-168,-377,0,0,0,0,0,0,0,0,0,-1,1056,1401,0,0
-161,-377,0,0,0,0,0,0,0,0,0,-1,1063,1401,0,0
-154,-377,0,0,0,0,0,0,0,0,0,-1,1070,1401,0,0
-147,-377,0,0,0,0,0,0,0,0,0,-1,1077,1401,0,0
-140,-377,0,0,0,0,0,0,0,0,0,-1,1084,1401,0,0
-133,-377,0,0,0,0,0,0,0,0,0,-1,1091,1401,0,0
-126,-377,0,0,0,0,0,0,0,0,0,-1,1098,1401,0,0
-119,-377,0,0,0,0,0,0,0,0,0,-1,1105,1401,0,0
-112,-377,0,0,0,0,0,0,0,0,0,-1,1112,1401,0,0
-105,-377,0,0,0,0,0,0,0,0,0,-1,1119,1401,0,0
-98,-377,0,0,0,0,0,0,0,0,0,-1,1126,1401,0,0
-91,-377,0,0,0,0,0,0,0,0,0,-1,1133,1401,0,0
-84,-377,0,0,0,0,0,0,0,0,0,-1,1140,1401,0,0
-77,-377,0,0,0,0,0,0,0,0,0,-1,1147,1401,0,0
-70,-377,0,0,0,0,0,0,0,0,0,-1,1154,1401,0,0
-63,-377,0,0,0,0,0,0,0,0,0,-1,1161,1401,0,0
-56,-377,0,0,0,0,0,0,0,0,0,-1,1168,1401,0,0
-49,-377,0,0,0,0,0,0,0,0,0,-1,1175,1401,0,0
-42,-377,0,0,0,0,0,0,0,0,0,-1,1182,1401,0,0
-35,-377,0,0,0,0,0,0,0,0,0,-1,1189,1401,0,0
-28,-377,0,0,0,0,0,0,0,0,0,-1,1196,1401,0,0
-21,-377,0,0,0,0,0,0,0,0,0,-1,1203,1401,0,0
-14,-377,0,0,0,0,0,0,0,0,0,-1,1210,1401,0,0
-7,-377,0,0,0,0,0,0,0,0,0,-1,1217,1401,0,0
0,-377,0,0,0,0,0,0,0,0,0,-1,1224,1401,0,0
7,-377,0,0,0,0,0,0,0,0,0,-1,1231,1401,0,0
14,-377,0,0,0,0,0,0,0,0,0,-1,1238,1401,0,0
21,-377,0,0,0,0,0,0,0,0,0,-1,1245,1401,0,0
28,-377,0,0,0,0,0,0,0,0,0,-1,1252,1401,0,0
35,-377,0,0,0,0,0,0,0,0,0,-1,1259,1401,0,0
42,-377,0,0,0,0,0,0,0,0,0,-1,1266,1401,0,0
49,-377,0,0,0,0,0,0,0,0,0,-1,1273,1401,0,0
56,-377,0,0,0,0,0,0,0,0,0,-1,1280,1401,0,0
63,-377,0,0,0,0,0,0,0,0,0,-1,1287,1401,0,0
70,-377,0,0,0,0,0,0,0,0,0,-1,1294,1401,0,0
77,-377,0,0,0,0,0,0,0,0,0,-1,1301,1401,0,0
84,-377,0,0,0,0,0,0,0,0,0,-1,1308,1401,0,0
91,-377,0,0,0,0,0,0,0,0,0,-1,1315,1401,0,0
98,-377,0,0,0,0,0,0,0,0,0,-1,1322,1401,0,0
105,-377,0,0,0,0,0,0,0,0,0,-1,1329,1401,0,0
112,-377,0,0,0,0,0,0,0,0,0,-1,1336,1401,0,0
119,-377,0,0,0,0,0,0,0,0,0,-1,1343,1401,0,0
126,-377,0,0,0,0,0,0,0,0,0,-1,1350,1401,0,0
133,-377,0,0,0,0,0,0,0,0,0,-1,1357,1401,0,0
140,-377,0,0,0,0,0,0,0,0,0,-1,1364,1401,0,0
147,-377,0,0,0,0,0,0,0,0,0,-1,1371,1401,0,0
154,-377,0,0,0,0,0,0,0,0,0,-1,1378,1401,0,0
161,-377,0,0,0,0,0,0,0,0,0,-1,1385,1401,0,0
168,-377,0,0,0,0,0,0,0,0,0,-1,1392,1401,0,0
175,-377,0,0,0,0,0,0,0,0,0,-1,1399,1401,0,0
182,-377,0,0,0,0,0,0,0,0,0,-1,1406,1401,0,0
189,-377,0,0,0,0,0,0,0,0,0,-1,1413,1401,0,0
196,-377,0,0,0,0,0,0,0,0,0,-1,1420,1401,0,0
203,-377,0,0,0,0,0,0,0,0,0,-1,1427,1401,0,0
210,-377,0,0,0,0,0,0,0,0,0,-1,1434,1401,0,0
217,-377,0,0,0,0,0,0,0,0,0,-1,1441,1401,0,0
224,-377,0,0,0,0,0,0,0,0,0,-1,1448,1401,0,0
231,-377,0,0,0,0,0,0,0,0,0,-1,1455,1401,0,0
238,-377,0,0,0,0,0,0,0,0,0,-1,1462,1401,0,0
245,-377,0,0,0,0,0,0,0,0,0,-1,1469,1401,0,0
252,-377,0,0,0,0,0,0,0,0,0,-1,1476,1401,0,0
259,-377,0,0,0,0,0,0,0,0,0,-1,1483,1401,0,0
266,-377,0,0,0,0,0,0,0,0,0,-1,1490,1401,0,0
273,-377,0,0,0,0,0,0,0,0,0,-1,1497,1401,0,0
280,-377,0,0,0,0,0,0,0,0,0,-1,1504,1401,0,0
287,-377,0,0,0,0,0,0,0,0,0,-1,1511,1401,0,0
294,-377,0,0,0,0,0,0,0,0,0,-1,1518,1401,0,0
301,-377,0,0,0,0,0,0,0,0,0,-1,1525,1401,0,0
308,-377,0,0,0,0,0,0,0,0,0,-1,1532,1401,0,0
315,-377,0,0,0,0,0,0,0,0,0,-1,1539,1401,0,0
322,-377,0,0,0,0,0,0,0,0,0,-1,1546,1401,0,0
329,-377,0,0,0,0,0,0,0,0,0,-1,1553,1401,0,0
336,-377,0,0,0,0,0,0,0,0,0,-1,1560,1401,0,0
343,-377,0,0,0,0,0,0,0,0,0,-1,1567,1401,0,0
350,-377,0,0,0,0,0,0,0,0,0,-1,1574,1401,0,0
357,-377,0,0,0,0,0,0,0,0,0,-1,1581,1401,0,0
364,-377,0,0,0,0,0,0,0,0,0,-1,1588,1401,0,0
371,-377,0,0,0,0,0,0,0,0,0,-1,1595,1401,0,0
378,-377,0,0,0,0,0,0,0,0,0,-1,1602,1401,0,0
385,-377,0,0,0,0,0,0,0,0,0,-1,1609,1401,0,0
392,-377,0,0,0,0,0,0,0,0,0,-1,1616,1401,0,0
399,-377,0,0,0,0,0,0,0,0,0,-1,1623,1401,0,0
406,-377,0,0,0,0,0,0,0,0,0,-1,1630,1401,0,0
413,-377,0,0,0,0,0,0,0,0,0,-1,1637,1401,0,0
420,-377,0,0,0,0,0,0,0,0,0,-1,1644,1401,0,0
427,-377,0,0,0,0,0,0,0,0,0,-1,1651,1401,0,0
434,-377,0,0,0,0,0,0,0,0,0,-1,1658,1401,0,0
441,-377,0,0,0,0,0,0,0,0,0,-1,1665,1401,0,0
448,-377,0,0,0,0,0,0,0,0,0,-1,1672,1401,0,0
455,-377,0,0,0,0,0,0,0,0,0,-1,1679,1401,0,0
462,-377,0,0,0,0,0,0,0,0,0,-1,1686,1401,0,0
469,-377,0,0,0,0,0,0,0,0,0,-1,1693,1401,0,0
476,-377,0,0,0,0,0,0,0,0,0,-1,1700,1401,0,0
483,-377,0,0,0,0,0,0,0,0,0,-1,1707,1401,0,0
490,-377,0,0,0,0,0,0,0,0,0,-1,1714,1401,0,0
497,-377,0,0,0,0,0,0,0,0,0,-1,1721,1401,0,0
504,-377,0,0,0,0,0,0,0,0,0,-1,1728,1401,0,0
511,-377,0,0,0,0,0,0,0,0,0,-1,1735,1401,0,0
518,-377,0,0,0,0,0,0,0,0,0,-1,1742,1401,0,0
525,-377,0,0,0,0,0,0,0,0,0,-1,1749,1401,0,0
532,-377,0,0,0,0,0,0,0,0,0,-1,1756,1401,0,0
539,-377,0,0,0,0,0,0,0,0,0,-1,1763,1401,0,0
546,-377,22.3663,0.877319,0,0,0,0,0,0,0,-1,1770,1401,22.3663,-0.877268
553,-377,21.2521,1.89001,0,0,0,0,0,0,0,-1,1777,1401,21.252,-1.89003
560,-377,20.1377,2.90283,0,0,0,0,0,0,0,-1,1784,1401,20.1378,-2.90279
567,-377,15.1582,2.81689,0,0,0,0,0,0,0,-1,1791,1401,15.1583,-2.81688
574,-377,12.252,3.49695,0,0,0,0,0,0,0,-1,1798,1401,12.2519,-3.49692
581,-377,13.7461,2.83679,0,0,0,0,0,0,0,-1,1805,1401,13.7461,-2.8368
588,-377,15.2402,2.17664,0,0,0,0,0,0,0,-1,1812,1401,15.2402,-2.17669
595,-377,13.0044,2.7074,0,0,0,0,0,0,0,-1,1819,1401,13.0044,-2.70745
602,-377,13.0537,3.23193,0,0,0,0,0,0,0,-1,1826,1401,13.0537,-3.23191
609,-377,15.0223,4.76135,0,0,0,0,0,0,0,-1,1833,1401,15.0224,-4.76129
616,-377,14.1842,5.78992,0,0,0,0,0,0,0,-1,1840,1401,14.1842,-5.78987
623,-377,14.4259,7.82849,0,0,0,0,0,0,0,-1,1847,1401,14.4259,-7.82855
630,-377,14.2595,7.45264,-0.0188125,-0.00779794,0.0104926,-0.00145514,-0.0251553,1.02707,0.0163068,0.0385989,1854,1401,14.2595,-7.45258
637,-377,14.2236,7.16492,-0.012098,-0.00578586,0.00731017,-0.000979572,-0.0169043,0.989181,0.0109576,0.0143936,1861,1401,14.2237,-7.16493
644,-377,14.2771,6.92517,-0.00749115,-0.00411962,0.00501915,-0.0005107,-0.0111001,0.947413,0.00723583,0.011751,1868,1401,14.2771,-6.92514
651,-377,14.2969,6.6886,-0.0038011,-0.00268915,0.00308864,-0.000106842,-0.00638341,0.874448,0.00422044,0.0134774,1875,1401,14.2969,-6.68861
658,-377,14.3287,6.4801,-0.00172182,-0.00165638,0.00194914,0.000260314,-0.00363852,0.79379,0.00251694,0.013869,1882,1401,14.3287,-6.48006
665,-377,14.3176,6.24365,-0.000415418,-0.000700742,0.00117862,0.000629145,-0.0017453,0.72517,0.00142048,0.0163118,1889,1401,14.3176,-6.24362
672,-377,14.2896,6.04041,0.000332481,-2.43382e-07,0.000620212,0.000808255,-0.000476018,0.654365,0.0007497,0.0175645,1896,1401,14.2896,-6.04038
679,-377,14.2786,5.86694,0.000940474,0.00059665,0.000224277,0.00105115,0.000485977,0.458404,0.000607454,0.017417,1903,1401,14.2785,-5.86691
686,-377,14.2723,5.63928,0.0014503,0.00120391,-0.000155157,0.00152523,0.00112899,-0.449855,0.000913836,0.0144903,1910,1401,14.2723,-5.63928
693,-377,14.3103,5.39465,0.00221471,0.0016355,-0.000327099,0.00236199,0.00148822,-0.423058,0.00137899,0.0126023,1917,1401,14.3103,-5.39469
700,-377,14.2407,5.13464,0.00358562,0.00232194,-0.000645547,0.00385708,0.00205048,-0.398065,0.00222837,0.0235429,1924,1401,14.2408,-5.13467
707,-377,14.1627,4.80994,0.00585549,0.00325116,-0.00127946,0.00637888,0.00272777,-0.388301,0.00369569,0.040497,1931,1401,14.1627,-4.80998
714,-377,14.4357,4.21936,0.00908284,0.00456013,-0.00222716,0.00999544,0.00364753,-0.38889,0.00584065,0.0487532,1938,1401,14.4357,-4.2194
721,-377,14.6788,3.75391,0,0,0,0,0,0,0,-1,1945,1401,14.6788,-3.75395
728,-377,14.5396,2.79724,0,0,0,0,0,0,0,-1,1952,1401,14.5396,-2.7972
735,-377,16.2814,5.49353,0,0,0,0,0,0,0,-1,1959,1401,16.2814,-5.49358
742,-377,0,0,0,0,0,0,0,0,0,-1,1966,1401,0,0
749,-377,0,0,0,0,0,0,0,0,0,-1,1973,1401,0,0
756,-377,0,0,0,0,0,0,0,0,0,-1,1980,1401,0,0
763,-377,0,0,0,0,0,0,0,0,0,-1,1987,1401,0,0
770,-377,0,0,0,0,0,0,0,0,0,-1,1994,1401,0,0
777,-377,0,0,0,0,0,0,0,0,0,-1,2001,1401,0,0
784,-377,0,0,0,0,0,0,0,0,0,-1,2008,1401,0,0
791,-377,0,0,0,0,0,0,0,0,0,-1,2015,1401,0,0
798,-377,0,0,0,0,0,0,0,0,0,-1,2022,1401,0,0
805,-377,0,0,0,0,0,0,0,0,0,-1,2029,1401,0,0
812,-377,0,0,0,0,0,0,0,0,0,-1,2036,1401,0,0
-700,-384,0,0,0,0,0,0,0,0,0,-1,524,1408,0,0
-693,-384,0,0,0,0,0,0,0,0,0,-1,531,1408,0,0
-686,-384,0,0,0,0,0,0,0,0,0,-1,538,1408,0,0
-679,-384,0,0,0,0,0,0,0,0,0,-1,545,1408,0,0
-672,-384,0,0,0,0,0,0,0,0,0,-1,552,1408,0,0
-665,-384,0,0,0,0,0,0,0,0,0,-1,559,1408,0,0
-658,-384,0,0,0,0,0,0,0,0,0,-1,566,1408,0,0
-651,-384,0,0,0,0,0,0,0,0,0,-1,573,1408,0,0
-644,-384,0,0,0,0,0,0,0,0,0,-1,580,1408,0,0
-637,-384,0,0,0,0,0,0,0,0,0,-1,587,1408,0,0
-630,-384,0,0,0,0,0,0,0,0,0,-1,594,1408,0,0
-623,-384,0,0,0,0,0,0,0,0,0,-1,601,1408,0,0
-616,-384,-10.019,-3.36646,0,0,0,0,0,0,0,-1,608,1408,-10.019,3.36648
-609,-384,-7.72357,-2.3418,0,0,0,0,0,0,0,-1,615,1408,-7.72358,2.34182
-602,-384,-5.59833,-1.04639,0,0,0,0,0,0,0,-1,622,1408,-5.59835,1.04638
-595,-384,-4.96649,-0.175171,0,0,0,0,0,0,0,-1,629,1408,-4.96649,0.175129
-588,-384,-4.84338,0.629761,0.0391853,0.0689512,0.00405803,0.0694945,0.038642,1.4377,0.0402066,0.0493431,636,1408,-4.84336,-0.629786
-581,-384,-4.83069,1.54089,0.0211413,0.05109,0.00205501,0.0512304,0.021001,1.5026,0.0297374,0.0480295,643,1408,-4.83069,-1.54089
-574,-384,-4.99304,2.35754,0.0112816,0.0361898,0.000608141,0.0362046,0.0112668,1.5464,0.0213937,0.047039,650,1408,-4.99304,-2.35757
-567,-384,-5.03455,2.92712,0.00725197,0.0244212,-4.45508e-05,0.0244213,0.00725186,-1.5682,0.014482,0.0382859,657,1408,-5.03452,-2.92709
-560,-384,-5.13239,3.38904,0.00436857,0.0159906,-0.000375324,0.0160027,0.00435647,-1.53855,0.00955336,0.0274795,664,1408,-5.13238,-3.38904
-553,-384,-5.19714,3.63879,0.00247549,0.0100886,-0.000536761,0.0101263,0.00243783,-1.50075,0.00610278,0.0187695,671,1408,-5.19714,-3.63879
-546,-384,-5.19598,3.91235,0.0014001,0.00597749,-0.000526301,0.00603722,0.00134036,-1.45778,0.00366076,0.0142215,678,1408,-5.19601,-3.91236
-539,-384,-5.18665,4.15784,0.000969038,0.00316915,-0.000397784,0.00323886,0.000899327,-1.39731,0.0019306,0.015414,685,1408,-5.18667,-4.15785
-532,-384,-5.18494,4.36426,0.000863303,0.000816986,-0.000383768,0.00122461,0.000455679,-0.755262,0.000714698,0.0214304,692,1408,-5.18494,-4.36429
-525,-384,-5.1759,4.63367,0.00129929,-0.00100665,-0.000252894,0.0013267,-0.00103406,-0.107961,0.00136647,0.0212069,699,1408,-5.17588,-4.63361
-518,-384,-5.1842,4.87585,0.00198671,-0.00205642,-0.000253467,0.00200254,-0.00207224,-0.0623654,0.00235269,0.0129181,706,1408,-5.18419,-4.87586
-511,-384,-5.17889,5.13721,0.00302613,-0.00312913,-0.000416394,0.00305417,-0.00315717,-0.0672402,0.00358628,0.0103449,713,1408,-5.17888,-5.13723
-504,-384,-5.18066,5.39636,0.00139324,-0.00645227,-0.00156669,0.00169453,-0.00675356,-0.189988,0.0051608,0.0117518,720,1408,-5.18064,-5.39642
-497,-384,-5.16571,5.65198,-0.0036334,-0.0124055,-0.00414117,-0.0019873,-0.0140516,-0.378345,0.00878056,0.0155809,727,1408,-5.16571,-5.65193
-490,-384,-5.03284,5.88037,-0.0148045,-0.0208485,-0.0090966,-0.00824109,-0.027412,-0.625028,0.0162402,0.0381255,734,1408,-5.03285,-5.88041
-483,-384,-4.82434,6.14099,0,0,0,0,0,0,0,-1,741,1408,-4.82433,-6.14096
-476,-384,-6.02734,5.67761,0,0,0,0,0,0,0,-1,748,1408,-6.02736,-5.6776
-469,-384,-6.84015,5.88599,0,0,0,0,0,0,0,-1,755,1408,-6.84013,-5.88601
-462,-384,-7.52692,6.00439,0,0,0,0,0,0,0,-1,762,1408,-7.52693,-6.00435
-455,-384,-8.48425,6.66223,0,0,0,0,0,0,0,-1,769,1408,-8.48426,-6.66229
-448,-384,-9.35529,7.19226,0,0,0,0,0,0,0,-1,776,1408,-9.35531,-7.19226
-441,-384,-10.4697,1.79004,0,0,0,0,0,0,0,-1,783,1408,-10.4697,-1.79003
-434,-384,-10.6449,0.552246,0,0,0,0,0,0,0,-1,790,1408,-10.6449,-0.552216
-427,-384,-10.968,1.10583,0,0,0,0,0,0,0,-1,797,1408,-10.968,-1.10588
-420,-384,-12.5607,4.54858,0,0,0,0,0,0,0,-1,804,1408,-12.5607,-4.54859
-413,-384,0,0,0,0,0,0,0,0,0,-1,811,1408,0,0
-406,-384,0,0,0,0,0,0,0,0,0,-1,818,1408,0,0
-399,-384,0,0,0,0,0,0,0,0,0,-1,825,1408,0,0
-392,-384,0,0,0,0,0,0,0,0,0,-1,832,1408,0,0
-385,-384,0,0,0,0,0,0,0,0,0,-1,839,1408,0,0
-378,-384,0,0,0,0,0,0,0,0,0,-1,846,1408,0,0
-371,-384,0,0,0,0,0,0,0,0,0,-1,853,1408,0,0
-364,-384,0,0,0,0,0,0,0,0,0,-1,860,1408,0,0
-357,-384,0,0,0,0,0,0,0,0,0,-1,867,1408,0,0
-350,-384,0,0,0,0,0,0,0,0,0,-1,874,1408,0,0
-343,-384,0,0,0,0,0,0,0,0,0,-1,881,1408,0,0
-336,-384,0,0,0,0,0,0,0,0,0,-1,888,1408,0,0
-329,-384,0,0,0,0,0,0,0,0,0,-1,895,1408,0,0
-322,-384,0,0,0,0,0,0,0,0,0,-1,902,1408,0,0
-315,-384,0,0,0,0,0,0,0,0,0,-1,909,1408,0,0
-308,-384,0,0,0,0,0,0,0,0,0,-1,916,1408,0,0
-301,-384,0,0,0,0,0,0,0,0,0,-1,923,1408,0,0
-294,-384,0,0,0,0,0,0,0,0,0,-1,930,1408,0,0
-287,-384,0,0,0,0,0,0,0,0,0,-1,937,1408,0,0
-280,-384,0,0,0,0,0,0,0,0,0,-1,944,1408,0,0
-273,-384,0,0,0,0,0,0,0,0,0,-1,951,1408,0,0
-266,-384,0,0,0,0,0,0,0,0,0,-1,958,1408,0,0
-259,-384,0,0,0,0,0,0,0,0,0,-1,965,1408,0,0
-252,-384,0,0,0,0,0,0,0,0,0,-1,972,1408,0,0
-245,-384,0,0,0,0,0,0,0,0,0,-1,979,1408,0,0
-238,-384,0,0,0,0,0,0,0,0,0,-1,986,1408,0,0
-231,-384,0,0,0,0,0,0,0,0,0,-1,993,1408,0,0
-224,-384,0,0,0,0,0,0,0,0,0,-1,1000,1408,0,0
-217,-384,0,0,0,0,0,0,0,0,0,-1,1007,1408,0,0
-210,-384,0,0,0,0,0,0,0,0,0,-1,1014,1408,0,0
-203,-384,0,0,0,0,0,0,0,0,0,-1,1021,1408,0,0
-196,-384,0,0,0,0,0,0,0,0,0,-1,1028,1408,0,0
-189,-384,0,0,0,0,0,0,0,0,0,-1,1035,1408,0,0
-182,-384,0,0,0,0,0,0,0,0,0,-1,1042,1408,0,0
-175,-384,0,0,0,0,0,0,0,0,0,-1,1049,1408,0,0
-168,-384,0,0,0,0,0,0,0,0,0,-1,1056,1408,0,0
-161,-384,0,0,0,0,0,0,0,0,0,-1,1063,1408,0,0
-154,-384,0,0,0,0,0,0,0,0,0,-1,1070,1408,0,0
-147,-384,0,0,0,0,0,0,0,0,0,-1,1077,1408,0,0
-140,-384,0,0,0,0,0,0,0,0,0,-1,1084,1408,0,0
-133,-384,0,0,0,0,0,0,0,0,0,-1,1091,1408,0,0
-126,-384,0,0,0,0,0,0,0,0,0,-1,1098,1408,0,0
-119,-384,0,0,0,0,0,0,0,0,0,-1,1105,1408,0,0
-112,-384,0,0,0,0,0,0,0,0,0,-1,1112,1408,0,0
-105,-384,0,0,0,0,0,0,0,0,0,-1,1119,1408,0,0
-98,-384,0,0,0,0,0,0,0,0,0,-1,1126,1408,0,0
-91,-384,0,0,0,0,0,0,0,0,0,-1,1133,1408,0,0
-84,-384,0,0,0,0,0,0,0,0,0,-1,1140,1408,0,0
-77,-384,0,0,0,0,0,0,0,0,0,-1,1147,1408,0,0
-70,-384,0,0,0,0,0,0,0,0,0,-1,1154,1408,0,0
-63,-384,0,0,0,0,0,0,0,0,0,-1,1161,1408,0,0
-56,-384,0,0,0,0,0,0,0,0,0,-1,1168,1408,0,0
-49,-384,0,0,0,0,0,0,0,0,0,-1,1175,1408,0,0
-42,-384,0,0,0,0,0,0,0,0,0,-1,1182,1408,0,0
-35,-384,0,0,0,0,0,0,0,0,0,-1,1189,1408,0,0
-28,-384,0,0,0,0,0,0,0,0,0,-1,1196,1408,0,0
-21,-384,0,0,0,0,0,0,0,0,0,-1,1203,1408,0,0
-14,-384,0,0,0,0,0,0,0,0,0,-1,1210,1408,0,0
-7,-384,0,0,0,0,0,0,0,0,0,-1,1217,1408,0,0
0,-384,0,0,0,0,0,0,0,0,0,-1,1224,1408,0,0
7,-384,0,0,0,0,0,0,0,0,0,-1,1231,1408,0,0
14,-384,0,0,0,0,0,0,0,0,0,-1,1238,1408,0,0
21,-384,0,0,0,0,0,0,0,0,0,-1,1245,1408,0,0
28,-384,0,0,0,0,0,0,0,0,0,-1,1252,1408,0,0
35,-384,0,0,0,0,0,0,0,0,0,-1,1259,1408,0,0
42,-384,0,0,0,0,0,0,0,0,0,-1,1266,1408,0,0
49,-384,0,0,0,0,0,0,0,0,0,-1,1273,1408,0,0
56,-384,0,0,0,0,0,0,0,0,0,-1,1280,1408,0,0
63,-384,0,0,0,0,0,0,0,0,0,-1,1287,1408,0,0
70,-384,0,0,0,0,0,0,0,0,0,-1,1294,1408,0,0
77,-384,0,0,0,0,0,0,0,0,0,-1,1301,1408,0,0
84,-384,0,0,0,0,0,0,0,0,0,-1,1308,1408,0,0
91,-384,0,0,0,0,0,0,0,0,0,-1,1315,1408,0,0
98,-384,0,0,0,0,0,0,0,0,0,-1,1322,1408,0,0
105,-384,0,0,0,0,0,0,0,0,0,-1,1329,1408,0,0
112,-384,0,0,0,0,0,0,0,0,0,-1,1336,1408,0,0
119,-384,0,0,0,0,0,0,0,0,0,-1,1343,1408,0,0
126,-384,0,0,0,0,0,0,0,0,0,-1,1350,1408,0,0
133,-384,0,0,0,0,0,0,0,0,0,-1,1357,1408,0,0
140,-384,0,0,0,0,0,0,0,0,0,-1,1364,1408,0,0
147,-384,0,0,0,0,0,0,0,0,0,-1,1371,1408,0,0
154,-384,0,0,0,0,0,0,0,0,0,-1,1378,1408,0,0
161,-384,0,0,0,0,0,0,0,0,0,-1,1385,1408,0,0
168,-384,0,0,0,0,0,0,0,0,0,-1,1392,1408,0,0
175,-384,0,0,0,0,0,0,0,0,0,-1,1399,1408,0,0
182,-384,0,0,0,0,0,0,0,0,0,-1,1406,1408,0,0
189,-384,0,0,0,0,0,0,0,0,0,-1,1413,1408,0,0
196,-384,0,0,0,0,0,0,0,0,0,-1,1420,1408,0,0
203,-384,0,0,0,0,0,0,0,0,0,-1,1427,1408,0,0
210,-384,0,0,0,0,0,0,0,0,0,-1,1434,1408,0,0
217,-384,0,0,0,0,0,0,0,0,0,-1,1441,1408,0,0
224,-384,0,0,0,0,0,0,0,0,0,-1,1448,1408,0,0
231,-384,0,0,0,0,0,0,0,0,0,-1,1455,1408,0,0
238,-384,0,0,0,0,0,0,0,0,0,-1,1462,1408,0,0
245,-384,0,0,0,0,0,0,0,0,0,-1,1469,1408,0,0
252,-384,0,0,0,0,0,0,0,0,0,-1,1476,1408,0,0
259,-384,0,0,0,0,0,0,0,0,0,-1,1483,1408,0,0
266,-384,0,0,0,0,0,0,0,0,0,-1,1490,1408,0,0
273,-384,0,0,0,0,0,0,0,0,0,-1,1497,1408,0,0
280,-384,0,0,0,0,0,0,0,0,0,-1,1504,1408,0,0
287,-384,0,0,0,0,0,0,0,0,0,-1,1511,1408,0,0
294,-384,0,0,0,0,0,0,0,0,0,-1,1518,1408,0,0
301,-384,0,0,0,0,0,0,0,0,0,-1,1525,1408,0,0
308,-384,0,0,0,0,0,0,0,0,0,-1,1532,1408,0,0
315,-384,0,0,0,0,0,0,0,0,0,-1,1539,1408,0,0
322,-384,0,0,0,0,0,0,0,0,0,-1,1546,1408,0,0
329,-384,0,0,0,0,0,0,0,0,0,-1,1553,1408,0,0
336,-384,0,0,0,0,0,0,0,0,0,-1,1560,1408,0,0
343,-384,0,0,0,0,0,0,0,0,0,-1,1567,1408,0,0
350,-384,0,0,0,0,0,0,0,0,0,-1,1574,1408,0,0
357,-384,0,0,0,0,0,0,0,0,0,-1,1581,1408,0,0
364,-384,0,0,0,0,0,0,0,0,0,-1,1588,1408,0,0
371,-384,0,0,0,0,0,0,0,0,0,-1,1595,1408,0,0
378,-384,0,0,0,0,0,0,0,0,0,-1,1602,1408,0,0
385,-384,0,0,0,0,0,0,0,0,0,-1,1609,1408,0,0
392,-384,0,0,0,0,0,0,0,0,0,-1,1616,1408,0,0
399,-384,0,0,0,0,0,0,0,0,0,-1,1623,1408,0,0
406,-384,0,0,0,0,0,0,0,0,0,-1,1630,1408,0,0
413,-384,0,0,0,0,0,0,0,0,0,-1,1637,1408,0,0
420,-384,0,0,0,0,0,0,0,0,0,-1,1644,1408,0,0
427,-384,0,0,0,0,0,0,0,0,0,-1,1651,1408,0,0
434,-384,0,0,0,0,0,0,0,0,0,-1,1658,1408,0,0
441,-384,0,0,0,0,0,0,0,0,0,-1,1665,1408,0,0
448,-384,0,0,0,0,0,0,0,0,0,-1,1672,1408,0,0
455,-384,0,0,0,0,0,0,0,0,0,-1,1679,1408,0,0
462,-384,0,0,0,0,0,0,0,0,0,-1,1686,1408,0,0
469,-384,0,0,0,0,0,0,0,0,0,-1,1693,1408,0,0
476,-384,0,0,0,0,0,0,0,0,0,-1,1700,1408,0,0
483,-384,0,0,0,0,0,0,0,0,0,-1,1707,1408,0,0
490,-384,0,0,0,0,0,0,0,0,0,-1,1714,1408,0,0
497,-384,0,0,0,0,0,0,0,0,0,-1,1721,1408,0,0
504,-384,0,0,0,0,0,0,0,0,0,-1,1728,1408,0,0
511,-384,0,0,0,0,0,0,0,0,0,-1,1735,1408,0,0
518,-384,0,0,0,0,0,0,0,0,0,-1,1742,1408,0,0
525,-384,0,0,0,0,0,0,0,0,0,-1,1749,1408,0,0
532,-384,0,0,0,0,0,0,0,0,0,-1,1756,1408,0,0
539,-384,23.4208,1.19556,0,0,0,0,0,0,0,-1,1763,1408,23.4207,-1.19561
546,-384,22.3715,1.52161,0,0,0,0,0,0,0,-1,1770,1408,22.3715,-1.52159
553,-384,21.0801,2.1532,0,0,0,0,0,0,0,-1,1777,1408,21.0801,-2.15317
560,-384,19.7887,2.78479,0,0,0,0,0,0,0,-1,1784,1408,19.7887,-2.78475
567,-384,19.0348,2.75549,0,0,0,0,0,0,0,-1,1791,1408,19.0348,-2.75544
574,-384,11.5477,2.34216,0,0,0,0,0,0,0,-1,1798,1408,11.5477,-2.34214
581,-384,13.024,2.0072,0,0,0,0,0,0,0,-1,1805,1408,13.024,-2.00726
588,-384,14.5002,1.67236,0,0,0,0,0,0,0,-1,1812,1408,14.5002,-1.67238
595,-384,17.2017,4.63574,0,0,0,0,0,0,0,-1,1819,1408,17.2016,-4.63576
602,-384,14.5807,4.99976,0,0,0,0,0,0,0,-1,1826,1408,14.5806,-4.99972
609,-384,14.158,5.49475,0,0,0,0,0,0,0,-1,1833,1408,14.158,-5.49474
616,-384,14.2944,7.28955,0,0,0,0,0,0,0,-1,1840,1408,14.2944,-7.2896
623,-384,14.0089,7.73706,0,0,0,0,0,0,0,-1,1847,1408,14.009,-7.73704
630,-384,14.0984,7.34888,-0.0170238,-0.00769472,0.00986094,-0.00145073,-0.0232678,1.00632,0.0150516,0.0235862,1854,1408,14.0984,-7.34882
637,-384,14.0537,7.14917,-0.0109271,-0.00559895,0.00682348,-0.000937921,-0.0155881,0.971512,0.010094,0.0152508,1861,1408,14.0537,-7.14923
644,-384,14.0493,6.93933,-0.00670316,-0.0038854,0.00463781,-0.000447198,-0.0101414,0.932859,0.00661688,0.0160175,1868,1408,14.0494,-6.93929
651,-384,14.0785,6.70044,-0.00320744,-0.00247484,0.00275524,-6.16547e-05,-0.00562062,0.851484,0.0037267,0.0157288,1875,1408,14.0784,-6.7004
658,-384,14.1007,6.49133,-0.00129618,-0.0014785,0.00170021,0.000315309,-0.00308999,0.758615,0.00217273,0.0154445,1882,1408,14.1007,-6.49136
665,-384,14.0985,6.28662,-0.000139121,-0.000585067,0.00104219,0.000703678,-0.00142787,0.680013,0.0012541,0.016248,1889,1408,14.0985,-6.28664
672,-384,14.0906,6.06213,0.000457458,1.28088e-05,0.000617904,0.000891818,-0.000421551,0.612707,0.000774307,0.0148439,1896,1408,14.0906,-6.0621
679,-384,14.061,5.84253,0.000908172,0.000544631,0.000372583,0.00114096,0.000311843,0.558452,0.000680926,0.0153418,1903,1408,14.0611,-5.84259
686,-384,14.0472,5.63049,0.00130421,0.000994803,0.00013608,0.00135554,0.00094347,0.360721,0.000802417,0.0125767,1910,1408,14.0472,-5.63054
693,-384,14.0902,5.38672,0.00206874,0.00126696,0.000177174,0.00210615,0.00122955,0.208069,0.00122166,0.0183213,1917,1408,14.0902,-5.38671
700,-384,13.9374,5.35461,0.00359167,0.00189038,3.82788e-05,0.00359254,0.00188952,0.0224847,0.00207508,0.0408485,1924,1408,13.9374,-5.3546
707,-384,13.9304,5.34229,0,0,0,0,0,0,0,-1,1931,1408,13.9304,-5.34233
714,-384,14.1833,3.7821,0,0,0,0,0,0,0,-1,1938,1408,14.1833,-3.78215
721,-384,13.8843,2.8717,0,0,0,0,0,0,0,-1,1945,1408,13.8843,-2.87171
728,-384,15.4409,6.25745,0,0,0,0,0,0,0,-1,1952,1408,15.4409,-6.2574
735,-384,16.7598,6.71289,0,0,0,0,0,0,0,-1,1959,1408,16.7598,-6.71287
742,-384,0,0,0,0,0,0,0,0,0,-1,1966,1408,0,0
749,-384,0,0,0,0,0,0,0,0,0,-1,1973,1408,0,0
756,-384,0,0,0,0,0,0,0,0,0,-1,1980,1408,0,0
763,-384,0,0,0,0,0,0,0,0,0,-1,1987,1408,0,0
770,-384,0,0,0,0,0,0,0,0,0,-1,1994,1408,0,0
777,-384,0,0,0,0,0,0,0,0,0,-1,2001,1408,0,0
784,-384,0,0,0,0,0,0,0,0,0,-1,2008,1408,0,0
791,-384,0,0,0,0,0,0,0,0,0,-1,2015,1408,0,0
798,-384,0,0,0,0,0,0,0,0,0,-1,2022,1408,0,0
805,-384,0,0,0,0,0,0,0,0,0,-1,2029,1408,0,0
812,-384,0,0,0,0,0,0,0,0,0,-1,2036,1408,0,0
-700,-391,0,0,0,0,0,0,0,0,0,-1,524,1415,0,0
-693,-391,0,0,0,0,0,0,0,0,0,-1,531,1415,0,0
-686,-391,0,0,0,0,0,0,0,0,0,-1,538,1415,0,0
-679,-391,0,0,0,0,0,0,0,0,0,-1,545,1415,0,0
-672,-391,0,0,0,0,0,0,0,0,0,-1,552,1415,0,0
-665,-391,0,0,0,0,0,0,0,0,0,-1,559,1415,0,0
-658,-391,0,0,0,0,0,0,0,0,0,-1,566,1415,0,0
-651,-391,0,0,0,0,0,0,0,0,0,-1,573,1415,0,0
-644,-391,0,0,0,0,0,0,0,0,0,-1,580,1415,0,0
-637,-391,0,0,0,0,0,0,0,0,0,-1,587,1415,0,0
-630,-391,0,0,0,0,0,0,0,0,0,-1,594,1415,0,0
-623,-391,0,0,0,0,0,0,0,0,0,-1,601,1415,0,0
-616,-391,0,0,0,0,0,0,0,0,0,-1,608,1415,0,0
-609,-391,-7.71753,-3.69763,0,0,0,0,0,0,0,-1,615,1415,-7.71751,3.69759
-602,-391,-3.36749,-2.07458,0,0,0,0,0,0,0,-1,622,1415,-3.36751,2.07453
-595,-391,-4.64984,-1.29736,0,0,0,0,0,0,0,-1,629,1415,-4.64985,1.29742
-588,-391,-4.32947,-0.476685,0.037703,0.0879393,0.0071586,0.0889395,0.0367028,1.43198,0.0516097,0.0467494,636,1415,-4.32944,0.476715
-581,-391,-4.16132,0.253296,0.0235631,0.0634342,0.00428263,0.063889,0.0231083,1.46499,0.0373537,0.0484391,643,1415,-4.16131,-0.253341
-574,-391,-4.70367,2.15979,0,0,0,0,0,0,0,-1,650,1415,-4.70368,-2.15976
-567,-391,-4.72894,2.70459,0.00938518,0.0291037,0.00093221,0.0291477,0.00934121,1.52366,0.0171862,0.0454822,657,1415,-4.72892,-2.70456
-560,-391,-4.68011,3.42151,0.00555037,0.0186473,0.00017861,0.0186497,0.00554794,1.55716,0.0110579,0.0357877,664,1415,-4.68013,-3.42155
-553,-391,-4.89288,3.61609,0.00304989,0.0115042,-0.000250988,0.0115116,0.00304245,-1.54114,0.006888,0.0253087,671,1415,-4.89287,-3.61608
-546,-391,-4.9361,3.89685,0.00158867,0.00670599,-0.00041022,0.00673867,0.00155599,-1.49131,0.00407406,0.0121584,678,1415,-4.93609,-3.89681
-539,-391,-4.9248,4.16003,0.000936186,0.00358481,-0.000370384,0.00363563,0.000885367,-1.43444,0.00218914,0.0145122,685,1415,-4.92482,-4.16001
-532,-391,-4.89941,4.40967,0.000708378,0.00105615,-0.000390181,0.00130944,0.00045509,-0.995016,0.000767629,0.0245865,692,1415,-4.8994,-4.40968
-525,-391,-4.88068,4.64551,0.00113362,-0.000609679,-0.000189166,0.00115391,-0.000629969,-0.106854,0.00104463,0.0232168,699,1415,-4.88065,-4.64546
-518,-391,-4.91827,4.88855,0.00180572,-0.00123388,-5.9728e-05,0.00180689,-0.00123505,-0.0196398,0.00176658,0.0144857,706,1415,-4.91828,-4.8886
-511,-391,-4.92572,5.14648,0.00292946,-0.00164021,-6.78487e-05,0.00293047,-0.00164122,-0.0148432,0.00267422,0.0120239,713,1415,-4.9257,-5.14651
-504,-391,-4.93964,5.40332,0.00154724,-0.0041219,-0.000962568,0.00170622,-0.00428088,-0.163682,0.0035616,0.0108692,720,1415,-4.93963,-5.40333
-497,-391,-4.94574,5.63989,-0.00302066,-0.00894408,-0.00323086,-0.00159943,-0.0103653,-0.414417,0.00644358,0.00951512,727,1415,-4.94574,-5.63991
-490,-391,-4.90906,5.90894,-0.0135491,-0.016141,-0.00781337,-0.00692494,-0.0227652,-0.703215,0.0134753,0.0174298,734,1415,-4.90907,-5.90898
-483,-391,-4.87628,6.03198,-0.02953,-0.0274003,-0.0144899,-0.0139361,-0.0429942,-0.822076,0.0253293,0.043184,741,1415,-4.87629,-6.03197
-476,-391,-4.85651,5.8396,0,0,0,0,0,0,0,-1,748,1415,-4.8565,-5.83961
-469,-391,-3.88953,5.0979,0,0,0,0,0,0,0,-1,755,1415,-3.88955,-5.09794
-462,-391,-5.32281,5.88391,0,0,0,0,0,0,0,-1,762,1415,-5.32282,-5.88388
-455,-391,-6.25281,3.52515,0,0,0,0,0,0,0,-1,769,1415,-6.25278,-3.52511
-448,-391,-7.63867,2.89478,0,0,0,0,0,0,0,-1,776,1415,-7.63864,-2.89483
-441,-391,-9.77704,2.5946,0,0,0,0,0,0,0,-1,783,1415,-9.77702,-2.5946
-434,-391,-11.5403,2.12878,0,0,0,0,0,0,0,-1,790,1415,-11.5403,-2.12881
-427,-391,-10.5311,2.50403,0,0,0,0,0,0,0,-1,797,1415,-10.5311,-2.504
-420,-391,-14.7087,1.24365,0,0,0,0,0,0,0,-1,804,1415,-14.7088,-1.24365
-413,-391,0,0,0,0,0,0,0,0,0,-1,811,1415,0,0
-406,-391,0,0,0,0,0,0,0,0,0,-1,818,1415,0,0
-399,-391,0,0,0,0,0,0,0,0,0,-1,825,1415,0,0
-392,-391,0,0,0,0,0,0,0,0,0,-1,832,1415,0,0
-385,-391,0,0,0,0,0,0,0,0,0,-1,839,1415,0,0
-378,-391,0,0,0,0,0,0,0,0,0,-1,846,1415,0,0
-371,-391,0,0,0,0,0,0,0,0,0,-1,853,1415,0,0
-364,-391,0,0,0,0,0,0,0,0,0,-1,860,1415,0,0
-357,-391,0,0,0,0,0,0,0,0,0,-1,867,1415,0,0
-350,-391,0,0,0,0,0,0,0,0,0,-1,874,1415,0,0
-343,-391,0,0,0,0,0,0,0,0,0,-1,881,1415,0,0
-336,-391,0,0,0,0,0,0,0,0,0,-1,888,1415,0,0
-329,-391,0,0,0,0,0,0,0,0,0,-1,895,1415,0,0
-322,-391,0,0,0,0,0,0,0,0,0,-1,902,1415,0,0
-315,-391,0,0,0,0,0,0,0,0,0,-1,909,1415,0,0
-308,-391,0,0,0,0,0,0,0,0,0,-1,916,1415,0,0
-301,-391,0,0,0,0,0,0,0,0,0,-1,923,1415,0,0
-294,-391,0,0,0,0,0,0,0,0,0,-1,930,1415,0,0
-287,-391,0,0,0,0,0,0,0,0,0,-1,937,1415,0,0
-280,-391,0,0,0,0,0,0,0,0,0,-1,944,1415,0,0
-273,-391,0,0,0,0,0,0,0,0,0,-1,951,1415,0,0
-266,-391,0,0,0,0,0,0,0,0,0,-1,958,1415,0,0
-259,-391,0,0,0,0,0,0,0,0,0,-1,965,1415,0,0
-252,-391,0,0,0,0,0,0,0,0,0,-1,972,1415,0,0
-245,-391,0,0,0,0,0,0,0,0,0,-1,979,1415,0,0
-238,-391,0,0,0,0,0,0,0,0,0,-1,986,1415,0,0
-231,-391,0,0,0,0,0,0,0,0,0,-1,993,1415,0,0
-224,-391,0,0,0,0,0,0,0,0,0,-1,1000,1415,0,0
-217,-391,0,0,0,0,0,0,0,0,0,-1,1007,1415,0,0
-210,-391,0,0,0,0,0,0,0,0,0,-1,1014,1415,0,0
-203,-391,0,0,0,0,0,0,0,0,0,-1,1021,1415,0,0
-196,-391,0,0,0,0,0,0,0,0,0,-1,1028,1415,0,0
-189,-391,0,0,0,0,0,0,0,0,0,-1,1035,1415,0,0
-182,-391,0,0,0,0,0,0,0,0,0,-1,1042,1415,0,0
-175,-391,0,0,0,0,0,0,0,0,0,-1,1049,1415,0,0
-168,-391,0,0,0,0,0,0,0,0,0,-1,1056,1415,0,0
-161,-391,0,0,0,0,0,0,0,0,0,-1,1063,1415,0,0
-154,-391,0,0,0,0,0,0,0,0,0,-1,1070,1415,0,0
-147,-391,0,0,0,0,0,0,0,0,0,-1,1077,1415,0,0
-140,-391,0,0,0,0,0,0,0,0,0,-1,1084,1415,0,0
-133,-391,0,0,0,0,0,0,0,0,0,-1,1091,1415,0,0
-126,-391,0,0,0,0,0,0,0,0,0,-1,1098,1415,0,0
-119,-391,0,0,0,0,0,0,0,0,0,-1,1105,1415,0,0
-112,-391,0,0,0,0,0,0,0,0,0,-1,1112,1415,0,0
-105,-391,0,0,0,0,0,0,0,0,0,-1,1119,1415,0,0
-98,-391,0,0,0,0,0,0,0,0,0,-1,1126,1415,0,0
-91,-391,0,0,0,0,0,0,0,0,0,-1,1133,1415,0,0
-84,-391,0,0,0,0,0,0,0,0,0,-1,1140,1415,0,0
-77,-391,0,0,0,0,0,0,0,0,0,-1,1147,1415,0,0
-70,-391,0,0,0,0,0,0,0,0,0,-1,1154,1415,0,0
-63,-391,0,0,0,0,0,0,0,0,0,-1,1161,1415,0,0
-56,-391,0,0,0,0,0,0,0,0,0,-1,1168,1415,0,0
-49,-391,0,0,0,0,0,0,0,0,0,-1,1175,1415,0,0
-42,-391,0,0,0,0,0,0,0,0,0,-1,1182,1415,0,0
-35,-391,0,0,0,0,0,0,0,0,0,-1,1189,1415,0,0
-28,-391,0,0,0,0,0,0,0,0,0,-1,1196,1415,0,0
-21,-391,0,0,0,0,0,0,0,0,0,-1,1203,1415,0,0
-14,-391,0,0,0,0,0,0,0,0,0,-1,1210,1415,0,0
-7,-391,0,0,0,0,0,0,0,0,0,-1,1217,1415,0,0
0,-391,0,0,0,0,0,0,0,0,0,-1,1224,1415,0,0
7,-391,0,0,0,0,0,0,0,0,0,-1,1231,1415,0,0
14,-391,0,0,0,0,0,0,0,0,0,-1,1238,1415,0,0
21,-391,0,0,0,0,0,0,0,0,0,-1,1245,1415,0,0
28,-391,0,0,0,0,0,0,0,0,0,-1,1252,1415,0,0
35,-391,0,0,0,0,0,0,0,0,0,-1,1259,1415,0,0
42,-391,0,0,0,0,0,0,0,0,0,-1,1266,1415,0,0
49,-391,0,0,0,0,0,0,0,0,0,-1,1273,1415,0,0
56,-391,0,0,0,0,0,0,0,0,0,-1,1280,1415,0,0
63,-391,0,0,0,0,0,0,0,0,0,-1,1287,1415,0,0
70,-391,0,0,0,0,0,0,0,0,0,-1,1294,1415,0,0
77,-391,0,0,0,0,0,0,0,0,0,-1,1301,1415,0,0
84,-391,0,0,0,0,0,0,0,0,0,-1,1308,1415,0,0
91,-391,0,0,0,0,0,0,0,0,0,-1,1315,1415,0,0
98,-391,0,0,0,0,0,0,0,0,0,-1,1322,1415,0,0
105,-391,0,0,0,0,0,0,0,0,0,-1,1329,1415,0,0
112,-391,0,0,0,0,0,0,0,0,0,-1,1336,1415,0,0
119,-391,0,0,0,0,0,0,0,0,0,-1,1343,1415,0,0
126,-391,0,0,0,0,0,0,0,0,0,-1,1350,1415,0,0
133,-391,0,0,0,0,0,0,0,0,0,-1,1357,1415,0,0
140,-391,0,0,0,0,0,0,0,0,0,-1,1364,1415,0,0
147,-391,0,0,0,0,0,0,0,0,0,-1,1371,1415,0,0
154,-391,0,0,0,0,0,0,0,0,0,-1,1378,1415,0,0
161,-391,0,0,0,0,0,0,0,0,0,-1,1385,1415,0,0
168,-391,0,0,0,0,0,0,0,0,0,-1,1392,1415,0,0
175,-391,0,0,0,0,0,0,0,0,0,-1,1399,1415,0,0
182,-391,0,0,0,0,0,0,0,0,0,-1,1406,1415,0,0
189,-391,0,0,0,0,0,0,0,0,0,-1,1413,1415,0,0
196,-391,0,0,0,0,0,0,0,0,0,-1,1420,1415,0,0
203,-391,0,0,0,0,0,0,0,0,0,-1,1427,1415,0,0
210,-391,0,0,0,0,0,0,0,0,0,-1,1434,1415,0,0
217,-391,0,0,0,0,0,0,0,0,0,-1,1441,1415,0,0
224,-391,0,0,0,0,0,0,0,0,0,-1,1448,1415,0,0
231,-391,0,0,0,0,0,0,0,0,0,-1,1455,1415,0,0
238,-391,0,0,0,0,0,0,0,0,0,-1,1462,1415,0,0
245,-391,0,0,0,0,0,0,0,0,0,-1,1469,1415,0,0
252,-391,0,0,0,0,0,0,0,0,0,-1,1476,1415,0,0
259,-391,0,0,0,0,0,0,0,0,0,-1,1483,1415,0,0
266,-391,0,0,0,0,0,0,0,0,0,-1,1490,1415,0,0
273,-391,0,0,0,0,0,0,0,0,0,-1,1497,1415,0,0
280,-391,0,0,0,0,0,0,0,0,0,-1,1504,1415,0,0
287,-391,0,0,0,0,0,0,0,0,0,-1,1511,1415,0,0
294,-391,0,0,0,0,0,0,0,0,0,-1,1518,1415,0,0
301,-391,0,0,0,0,0,0,0,0,0,-1,1525,1415,0,0
308,-391,0,0,0,0,0,0,0,0,0,-1,1532,1415,0,0
315,-391,0,0,0,0,0,0,0,0,0,-1,1539,1415,0,0
322,-391,0,0,0,0,0,0,0,0,0,-1,1546,1415,0,0
329,-391,0,0,0,0,0,0,0,0,0,-1,1553,1415,0,0
336,-391,0,0,0,0,0,0,0,0,0,-1,1560,1415,0,0
343,-391,0,0,0,0,0,0,0,0,0,-1,1567,1415,0,0
350,-391,0,0,0,0,0,0,0,0,0,-1,1574,1415,0,0
357,-391,0,0,0,0,0,0,0,0,0,-1,1581,1415,0,0
364,-391,0,0,0,0,0,0,0,0,0,-1,1588,1415,0,0
371,-391,0,0,0,0,0,0,0,0,0,-1,1595,1415,0,0
378,-391,0,0,0,0,0,0,0,0,0,-1,1602,1415,0,0
385,-391,0,0,0,0,0,0,0,0,0,-1,1609,1415,0,0
392,-391,0,0,0,0,0,0,0,0,0,-1,1616,1415,0,0
399,-391,0,0,0,0,0,0,0,0,0,-1,1623,1415,0,0
406,-391,0,0,0,0,0,0,0,0,0,-1,1630,1415,0,0
413,-391,0,0,0,0,0,0,0,0,0,-1,1637,1415,0,0
420,-391,0,0,0,0,0,0,0,0,0,-1,1644,1415,0,0
427,-391,0,0,0,0,0,0,0,0,0,-1,1651,1415,0,0
434,-391,0,0,0,0,0,0,0,0,0,-1,1658,1415,0,0
441,-391,0,0,0,0,0,0,0,0,0,-1,1665,1415,0,0
448,-391,0,0,0,0,0,0,0,0,0,-1,1672,1415,0,0
455,-391,0,0,0,0,0,0,0,0,0,-1,1679,1415,0,0
462,-391,0,0,0,0,0,0,0,0,0,-1,1686,1415,0,0
469,-391,0,0,0,0,0,0,0,0,0,-1,1693,1415,0,0
476,-391,0,0,0,0,0,0,0,0,0,-1,1700,1415,0,0
483,-391,0,0,0,0,0,0,0,0,0,-1,1707,1415,0,0
490,-391,0,0,0,0,0,0,0,0,0,-1,1714,1415,0,0
497,-391,0,0,0,0,0,0,0,0,0,-1,1721,1415,0,0
504,-391,0,0,0,0,0,0,0,0,0,-1,1728,1415,0,0
511,-391,0,0,0,0,0,0,0,0,0,-1,1735,1415,0,0
518,-391,0,0,0,0,0,0,0,0,0,-1,1742,1415,0,0
525,-391,0,0,0,0,0,0,0,0,0,-1,1749,1415,0,0
532,-391,23.3541,1.15771,0,0,0,0,0,0,0,-1,1756,1415,23.3541,-1.15771
539,-391,22.6211,1.52905,0,0,0,0,0,0,0,-1,1763,1415,22.6211,-1.529
546,-391,21.671,2.0199,0,0,0,0,0,0,0,-1,1770,1415,21.671,-2.01994
553,-391,20.5422,2.27222,0,0,0,0,0,0,0,-1,1777,1415,20.5423,-2.27224
560,-391,19.1654,2.27197,0,0,0,0,0,0,0,-1,1784,1415,19.1654,-2.27193
567,-391,18.4855,3.01099,0,0,0,0,0,0,0,-1,1791,1415,18.4854,-3.01096
574,-391,17.8459,3.70581,0,0,0,0,0,0,0,-1,1798,1415,17.8459,-3.70584
581,-391,12.551,1.32678,0,0,0,0,0,0,0,-1,1805,1415,12.5511,-1.32684
588,-391,16.6328,4.5874,0,0,0,0,0,0,0,-1,1812,1415,16.6328,-4.5874
595,-391,18.2269,5.96387,0,0,0,0,0,0,0,-1,1819,1415,18.2269,-5.96392
602,-391,15.1635,5.69849,0,0,0,0,0,0,0,-1,1826,1415,15.1635,-5.69847
609,-391,14.3951,7.55603,0,0,0,0,0,0,0,-1,1833,1415,14.3952,-7.55603
616,-391,14.0457,7.47937,-0.0334009,-0.0138275,0.0183692,-0.00280058,-0.0444278,1.03016,0.0287306,0.0449247,1840,1415,14.0457,-7.47943
623,-391,13.8666,7.53516,-0.022961,-0.0100715,0.0130152,-0.00199278,-0.0310397,1.01529,0.0200619,0.023483,1847,1415,13.8666,-7.53515
630,-391,13.8738,7.33057,-0.015285,-0.00719994,0.00903365,-0.00134557,-0.0211394,0.995784,0.0136665,0.0177057,1854,1415,13.8738,-7.33062
637,-391,13.8524,7.14929,-0.00977918,-0.00516216,0.00618419,-0.000869653,-0.0140717,0.964034,0.0091051,0.0158399,1861,1415,13.8525,-7.14924
644,-391,13.8225,6.93835,-0.0059094,-0.00352092,0.0041732,-0.000374446,-0.00905588,0.924758,0.00591639,0.0153802,1868,1415,13.8226,-6.9384
651,-391,13.8425,6.72534,-0.00260595,-0.0022005,0.00241048,1.57619e-05,-0.00482221,0.82735,0.00322007,0.0158945,1875,1415,13.8426,-6.72533
658,-391,13.8745,6.5116,-0.000840734,-0.00129305,0.00148749,0.000437688,-0.00257147,0.709955,0.0018773,0.0155439,1882,1415,13.8745,-6.51165
665,-391,13.8618,6.31165,0.000181931,-0.00051074,0.000980277,0.000875255,-0.00120406,0.615591,0.00120549,0.0124039,1889,1415,13.8618,-6.31162
672,-391,13.8601,6.0675,0.000659133,-4.89676e-05,0.000735513,0.00112137,-0.000511208,0.561084,0.000964266,0.0115105,1896,1415,13.8601,-6.06755
679,-391,13.8506,5.84705,0.000986185,0.000389954,0.000665853,0.00141761,-4.14738e-05,0.57492,0.000959199,0.0109472,1903,1415,13.8505,-5.8471
686,-391,13.8539,5.64185,0.00128333,0.000679531,0.000617115,0.00166843,0.000294425,0.55791,0.00102829,0.012831,1910,1415,13.8539,-5.64182
693,-391,13.8335,5.46729,0.0020177,0.000794172,0.000894011,0.00248922,0.000322649,0.485346,0.00156307,0.0289069,1917,1415,13.8335,-5.46724
700,-391,13.8612,5.27148,0,0,0,0,0,0,0,-1,1924,1415,13.8612,-5.27148
707,-391,12.9524,5.96851,0,0,0,0,0,0,0,-1,1931,1415,12.9524,-5.96849
714,-391,12.5084,7.60242,0,0,0,0,0,0,0,-1,1938,1415,12.5084,-7.60241
721,-391,14.1808,8.08435,0,0,0,0,0,0,0,-1,1945,1415,14.1808,-8.08439
728,-391,13.8102,7.28174,0,0,0,0,0,0,0,-1,1952,1415,13.8102,-7.28174
735,-391,0,0,0,0,0,0,0,0,0,-1,1959,1415,0,0
742,-391,0,0,0,0,0,0,0,0,0,-1,1966,1415,0,0
749,-391,0,0,0,0,0,0,0,0,0,-1,1973,1415,0,0
756,-391,0,0,0,0,0,0,0,0,0,-1,1980,1415,0,0
763,-391,0,0,0,0,0,0,0,0,0,-1,1987,1415,0,0
770,-391,0,0,0,0,0,0,0,0,0,-1,1994,1415,0,0
777,-391,0,0,0,0,0,0,0,0,0,-1,2001,1415,0,0
784,-391,0,0,0,0,0,0,0,0,0,-1,2008,1415,0,0
791,-391,0,0,0,0,0,0,0,0,0,-1,2015,1415,0,0
798,-391,0,0,0,0,0,0,0,0,0,-1,2022,1415,0,0
805,-391,0,0,0,0,0,0,0,0,0,-1,2029,1415,0,0
812,-391,0,0,0,0,0,0,0,0,0,-1,2036,1415,0,0
-700,-398,0,0,0,0,0,0,0,0,0,-1,524,1422,0,0
-693,-398,0,0,0,0,0,0,0,0,0,-1,531,1422,0,0
-686,-398,0,0,0,0,0,0,0,0,0,-1,538,1422,0,0
-679,-398,0,0,0,0,0,0,0,0,0,-1,545,1422,0,0
-672,-398,0,0,0,0,0,0,0,0,0,-1,552,1422,0,0
-665,-398,0,0,0,0,0,0,0,0,0,-1,559,1422,0,0
-658,-398,0,0,0,0,0,0,0,0,0,-1,566,1422,0,0
-651,-398,0,0,0,0,0,0,0,0,0,-1,573,1422,0,0
-644,-398,0,0,0,0,0,0,0,0,0,-1,580,1422,0,0
-637,-398,0,0,0,0,0,0,0,0,0,-1,587,1422,0,0
-630,-398,0,0,0,0,0,0,0,0,0,-1,594,1422,0,0
-623,-398,0,0,0,0,0,0,0,0,0,-1,601,1422,0,0
-616,-398,0,0,0,0,0,0,0,0,0,-1,608,1422,0,0
-609,-398,-7.47125,-4.05322,0,0,0,0,0,0,0,-1,615,1422,-7.47128,4.05317
-602,-398,-4.58868,-2.77026,0,0,0,0,0,0,0,-1,622,1422,-4.58869,2.77023
-595,-398,-10.0841,3.23071,0,0,0,0,0,0,0,-1,629,1422,-10.0841,-3.23069
-588,-398,-3.43518,-1.57776,0,0,0,0,0,0,0,-1,636,1422,-3.43518,1.57773
-581,-398,-3.36664,-0.752686,0,0,0,0,0,0,0,-1,643,1422,-3.36666,0.752688
-574,-398,-5.6427,2.66809,0.0187631,0.0506848,0.0039876,0.0511754,0.0182725,1.44838,0.0299459,0.0444104,650,1422,-5.64267,-2.66806
-567,-398,-4.63007,2.89697,0.0122347,0.0329573,0.00219316,0.0331869,0.0120052,1.4665,0.0194031,0.0449877,657,1422,-4.63007,-2.89692
-560,-398,-4.25482,3.32751,0.00743315,0.0206162,0.00105201,0.0206997,0.00734973,1.49166,0.0121172,0.0405983,664,1422,-4.2548,-3.32753
-553,-398,-4.60736,3.66541,0.00424546,0.0123606,0.000392505,0.0123796,0.00422652,1.52258,0.00726621,0.0317727,671,1422,-4.60738,-3.66538
-546,-398,-4.6958,3.88281,0.00230768,0.00699671,7.43081e-05,0.00699788,0.0023065,1.55495,0.0041177,0.0155439,678,1422,-4.69579,-3.88277
-539,-398,-4.68048,4.16736,0.0013174,0.00363167,1.67045e-06,0.00363167,0.0013174,1.57007,0.00212291,0.0130932,685,1422,-4.68049,-4.16737
-532,-398,-4.6839,4.41479,0.000820135,0.000900909,-0.000111939,0.000979524,0.00074152,-0.958528,0.000589909,0.0209914,692,1422,-4.68389,-4.41476
-525,-398,-4.64551,4.63586,0.00101203,-0.000789944,7.39362e-06,0.00101206,-0.000789974,0.00410297,0.00104304,0.0200335,699,1422,-4.64549,-4.63585
-518,-398,-4.66241,4.89465,0.00138336,-0.00130083,8.06663e-05,0.00138578,-0.00130325,0.0300164,0.00155275,0.0179191,706,1422,-4.66241,-4.8947
-511,-398,-4.67993,5.13159,0.00221935,-0.00155968,-3.27328e-05,0.00221963,-0.00155997,-0.00866082,0.0021932,0.0128313,713,1422,-4.6799,-5.13154
-504,-398,-4.68146,5.39868,0.000954561,-0.00370309,-0.000899991,0.00112242,-0.00387095,-0.184389,0.003025,0.0125039,720,1422,-4.68146,-5.39869
-497,-398,-4.69092,5.6394,-0.00290957,-0.00775815,-0.00298494,-0.00148847,-0.00917925,-0.444337,0.00568863,0.00957584,727,1422,-4.69093,-5.63945
-490,-398,-4.68555,5.88623,-0.0118024,-0.0138571,-0.00709764,-0.00565816,-0.0200014,-0.713527,0.0119052,0.010104,734,1422,-4.68556,-5.88621
-483,-398,-4.59845,6.19373,-0.0251597,-0.023746,-0.0130532,-0.0113805,-0.0375252,-0.812448,0.0222171,0.0220769,741,1422,-4.59844,-6.1937
-476,-398,-4.55109,5.97058,-0.0402312,-0.0349507,-0.0194637,-0.0179489,-0.0572329,-0.852811,0.0338001,0.0453855,748,1422,-4.55107,-5.97054
-469,-398,-4.37585,6.30334,0,0,0,0,0,0,0,-1,755,1422,-4.37584,-6.30333
-462,-398,-4.44244,5.17358,0,0,0,0,0,0,0,-1,762,1422,-4.44245,-5.17353
-455,-398,-5.57098,4.53125,-0.108602,-0.0820357,-0.0466763,-0.0467892,-0.143848,-0.924023,0.0847245,0.0428591,769,1422,-5.57101,-4.53125
-448,-398,-7.00696,4.01135,-0.135779,-0.0989456,-0.0566328,-0.0578103,-0.176915,-0.942603,0.104165,0.0422312,776,1422,-7.00693,-4.01141
-441,-398,-8.95007,3.48877,-0.161883,-0.115353,-0.0665865,-0.0680842,-0.209152,-0.953467,0.12318,0.0470413,783,1422,-8.95005,-3.48871
-434,-398,-10.7618,3.297,-0.185197,-0.131141,-0.0760478,-0.0774608,-0.238877,-0.956141,0.140726,0.0464117,790,1422,-10.7618,-3.29704
-427,-398,-11.9061,2.24939,0,0,0,0,0,0,0,-1,797,1422,-11.9061,-2.24941
-420,-398,-13.467,2.32788,-0.211539,-0.15737,-0.0899396,-0.0905248,-0.278383,-0.93165,0.163967,0.0451137,804,1422,-13.467,-2.32787
-413,-398,-14.7983,2.15515,-0.210612,-0.167034,-0.0925458,-0.0937468,-0.283899,-0.901012,0.16703,0.0432859,811,1422,-14.7983,-2.15516
-406,-398,0,0,0,0,0,0,0,0,0,-1,818,1422,0,0
-399,-398,0,0,0,0,0,0,0,0,0,-1,825,1422,0,0
-392,-398,0,0,0,0,0,0,0,0,0,-1,832,1422,0,0
-385,-398,0,0,0,0,0,0,0,0,0,-1,839,1422,0,0
-378,-398,0,0,0,0,0,0,0,0,0,-1,846,1422,0,0
-371,-398,0,0,0,0,0,0,0,0,0,-1,853,1422,0,0
-364,-398,0,0,0,0,0,0,0,0,0,-1,860,1422,0,0
-357,-398,0,0,0,0,0,0,0,0,0,-1,867,1422,0,0
-350,-398,0,0,0,0,0,0,0,0,0,-1,874,1422,0,0
-343,-398,0,0,0,0,0,0,0,0,0,-1,881,1422,0,0
-336,-398,0,0,0,0,0,0,0,0,0,-1,888,1422,0,0
-329,-398,0,0,0,0,0,0,0,0,0,-1,895,1422,0,0
-322,-398,0,0,0,0,0,0,0,0,0,-1,902,1422,0,0
-315,-398,0,0,0,0,0,0,0,0,0,-1,909,1422,0,0
-308,-398,0,0,0,0,0,0,0,0,0,-1,916,1422,0,0
-301,-398,0,0,0,0,0,0,0,0,0,-1,923,1422,0,0
-294,-398,0,0,0,0,0,0,0,0,0,-1,930,1422,0,0
-287,-398,0,0,0,0,0,0,0,0,0,-1,937,1422,0,0
-280,-398,0,0,0,0,0,0,0,0,0,-1,944,1422,0,0
-273,-398,0,0,0,0,0,0,0,0,0,-1,951,1422,0,0
-266,-398,0,0,0,0,0,0,0,0,0,-1,958,1422,0,0
-259,-398,0,0,0,0,0,0,0,0,0,-1,965,1422,0,0
-252,-398,0,0,0,0,0,0,0,0,0,-1,972,1422,0,0
-245,-398,0,0,0,0,0,0,0,0,0,-1,979,1422,0,0
-238,-398,0,0,0,0,0,0,0,0,0,-1,986,1422,0,0
-231,-398,0,0,0,0,0,0,0,0,0,-1,993,1422,0,0
-224,-398,0,0,0,0,0,0,0,0,0,-1,1000,1422,0,0
-217,-398,0,0,0,0,0,0,0,0,0,-1,1007,1422,0,0
-210,-398,0,0,0,0,0,0,0,0,0,-1,1014,1422,0,0
-203,-398,0,0,0,0,0,0,0,0,0,-1,1021,1422,0,0
-196,-398,0,0,0,0,0,0,0,0,0,-1,1028,1422,0,0
-189,-398,0,0,0,0,0,0,0,0,0,-1,1035,1422,0,0
-182,-398,0,0,0,0,0,0,0,0,0,-1,1042,1422,0,0
-175,-398,0,0,0,0,0,0,0,0,0,-1,1049,1422,0,0
-168,-398,0,0,0,0,0,0,0,0,0,-1,1056,1422,0,0
-161,-398,0,0,0,0,0,0,0,0,0,-1,1063,1422,0,0
-154,-398,0,0,0,0,0,0,0,0,0,-1,1070,1422,0,0
-147,-398,0,0,0,0,0,0,0,0,0,-1,1077,1422,0,0
-140,-398,0,0,0,0,0,0,0,0,0,-1,1084,1422,0,0
-133,-398,0,0,0,0,0,0,0,0,0,-1,1091,1422,0,0
-126,-398,0,0,0,0,0,0,0,0,0,-1,1098,1422,0,0
-119,-398,0,0,0,0,0,0,0,0,0,-1,1105,1422,0,0
-112,-398,0,0,0,0,0,0,0,0,0,-1,1112,1422,0,0
-105,-398,0,0,0,0,0,0,0,0,0,-1,1119,1422,0,0
-98,-398,0,0,0,0,0,0,0,0,0,-1,1126,1422,0,0
-91,-398,0,0,0,0,0,0,0,0,0,-1,1133,1422,0,0
-84,-398,0,0,0,0,0,0,0,0,0,-1,1140,1422,0,0
-77,-398,0,0,0,0,0,0,0,0,0,-1,1147,1422,0,0
-70,-398,0,0,0,0,0,0,0,0,0,-1,1154,1422,0,0
-63,-398,0,0,0,0,0,0,0,0,0,-1,1161,1422,0,0
-56,-398,0,0,0,0,0,0,0,0,0,-1,1168,1422,0,0
-49,-398,0,0,0,0,0,0,0,0,0,-1,1175,1422,0,0
-42,-398,0,0,0,0,0,0,0,0,0,-1,1182,1422,0,0
-35,-398,0,0,0,0,0,0,0,0,0,-1,1189,1422,0,0
-28,-398,0,0,0,0,0,0,0,0,0,-1,1196,1422,0,0
-21,-398,0,0,0,0,0,0,0,0,0,-1,1203,1422,0,0
-14,-398,0,0,0,0,0,0,0,0,0,-1,1210,1422,0,0
-7,-398,0,0,0,0,0,0,0,0,0,-1,1217,1422,0,0
0,-398,0,0,0,0,0,0,0,0,0,-1,1224,1422,0,0
7,-398,0,0,0,0,0,0,0,0,0,-1,1231,1422,0,0
14,-398,0,0,0,0,0,0,0,0,0,-1,1238,1422,0,0
21,-398,0,0,0,0,0,0,0,0,0,-1,1245,1422,0,0
28,-398,0,0,0,0,0,0,0,0,0,-1,1252,1422,0,0
35,-398,0,0,0,0,0,0,0,0,0,-1,1259,1422,0,0
42,-398,0,0,0,0,0,0,0,0,0,-1,1266,1422,0,0
49,-398,0,0,0,0,0,0,0,0,0,-1,1273,1422,0,0
56,-398,0,0,0,0,0,0,0,0,0,-1,1280,1422,0,0
63,-398,0,0,0,0,0,0,0,0,0,-1,1287,1422,0,0
70,-398,0,0,0,0,0,0,0,0,0,-1,1294,1422,0,0
77,-398,0,0,0,0,0,0,0,0,0,-1,1301,1422,0,0
84,-398,0,0,0,0,0,0,0,0,0,-1,1308,1422,0,0
91,-398,0,0,0,0,0,0,0,0,0,-1,1315,1422,0,0
98,-398,0,0,0,0,0,0,0,0,0,-1,1322,1422,0,0
105,-398,0,0,0,0,0,0,0,0,0,-1,1329,1422,0,0
112,-398,0,0,0,0,0,0,0,0,0,-1,1336,1422,0,0
119,-398,0,0,0,0,0,0,0,0,0,-1,1343,1422,0,0
126,-398,0,0,0,0,0,0,0,0,0,-1,1350,1422,0,0
133,-398,0,0,0,0,0,0,0,0,0,-1,1357,1422,0,0
140,-398,0,0,0,0,0,0,0,0,0,-1,1364,1422,0,0
147,-398,0,0,0,0,0,0,0,0,0,-1,1371,1422,0,0
154,-398,0,0,0,0,0,0,0,0,0,-1,1378,1422,0,0
161,-398,0,0,0,0,0,0,0,0,0,-1,1385,1422,0,0
168,-398,0,0,0,0,0,0,0,0,0,-1,1392,1422,0,0
175,-398,0,0,0,0,0,0,0,0,0,-1,1399,1422,0,0
182,-398,0,0,0,0,0,0,0,0,0,-1,1406,1422,0,0
189,-398,0,0,0,0,0,0,0,0,0,-1,1413,1422,0,0
196,-398,0,0,0,0,0,0,0,0,0,-1,1420,1422,0,0
203,-398,0,0,0,0,0,0,0,0,0,-1,1427,1422,0,0
210,-398,0,0,0,0,0,0,0,0,0,-1,1434,1422,0,0
217,-398,0,0,0,0,0,0,0,0,0,-1,1441,1422,0,0
224,-398,0,0,0,0,0,0,0,0,0,-1,1448,1422,0,0
231,-398,0,0,0,0,0,0,0,0,0,-1,1455,1422,0,0
238,-398,0,0,0,0,0,0,0,0,0,-1,1462,1422,0,0
245,-398,0,0,0,0,0,0,0,0,0,-1,1469,1422,0,0
252,-398,0,0,0,0,0,0,0,0,0,-1,1476,1422,0,0
259,-398,0,0,0,0,0,0,0,0,0,-1,1483,1422,0,0
266,-398,0,0,0,0,0,0,0,0,0,-1,1490,1422,0,0
273,-398,0,0,0,0,0,0,0,0,0,-1,1497,1422,0,0
280,-398,0,0,0,0,0,0,0,0,0,-1,1504,1422,0,0
287,-398,0,0,0,0,0,0,0,0,0,-1,1511,1422,0,0
294,-398,0,0,0,0,0,0,0,0,0,-1,1518,1422,0,0
301,-398,0,0,0,0,0,0,0,0,0,-1,1525,1422,0,0
308,-398,0,0,0,0,0,0,0,0,0,-1,1532,1422,0,0
315,-398,0,0,0,0,0,0,0,0,0,-1,1539,1422,0,0
322,-398,0,0,0,0,0,0,0,0,0,-1,1546,1422,0,0
329,-398,0,0,0,0,0,0,0,0,0,-1,1553,1422,0,0
336,-398,0,0,0,0,0,0,0,0,0,-1,1560,1422,0,0
343,-398,0,0,0,0,0,0,0,0,0,-1,1567,1422,0,0
350,-398,0,0,0,0,0,0,0,0,0,-1,1574,1422,0,0
357,-398,0,0,0,0,0,0,0,0,0,-1,1581,1422,0,0
364,-398,0,0,0,0,0,0,0,0,0,-1,1588,1422,0,0
371,-398,0,0,0,0,0,0,0,0,0,-1,1595,1422,0,0
378,-398,0,0,0,0,0,0,0,0,0,-1,1602,1422,0,0
385,-398,0,0,0,0,0,0,0,0,0,-1,1609,1422,0,0
392,-398,0,0,0,0,0,0,0,0,0,-1,1616,1422,0,0
399,-398,0,0,0,0,0,0,0,0,0,-1,1623,1422,0,0
406,-398,0,0,0,0,0,0,0,0,0,-1,1630,1422,0,0
413,-398,0,0,0,0,0,0,0,0,0,-1,1637,1422,0,0
420,-398,0,0,0,0,0,0,0,0,0,-1,1644,1422,0,0
427,-398,0,0,0,0,0,0,0,0,0,-1,1651,1422,0,0
434,-398,0,0,0,0,0,0,0,0,0,-1,1658,1422,0,0
441,-398,0,0,0,0,0,0,0,0,0,-1,1665,1422,0,0
448,-398,0,0,0,0,0,0,0,0,0,-1,1672,1422,0,0
455,-398,0,0,0,0,0,0,0,0,0,-1,1679,1422,0,0
462,-398,0,0,0,0,0,0,0,0,0,-1,1686,1422,0,0
469,-398,0,0,0,0,0,0,0,0,0,-1,1693,1422,0,0
476,-398,0,0,0,0,0,0,0,0,0,-1,1700,1422,0,0
483,-398,0,0,0,0,0,0,0,0,0,-1,1707,1422,0,0
490,-398,0,0,0,0,0,0,0,0,0,-1,1714,1422,0,0
497,-398,0,0,0,0,0,0,0,0,0,-1,1721,1422,0,0
504,-398,0,0,0,0,0,0,0,0,0,-1,1728,1422,0,0
511,-398,0,0,0,0,0,0,0,0,0,-1,1735,1422,0,0
518,-398,0,0,0,0,0,0,0,0,0,-1,1742,1422,0,0
525,-398,0,0,0,0,0,0,0,0,0,-1,1749,1422,0,0
532,-398,23.488,1.61963,0,0,0,0,0,0,0,-1,1756,1422,23.4881,-1.61959
539,-398,21.8323,1.8689,0,0,0,0,0,0,0,-1,1763,1422,21.8322,-1.86887
546,-398,20.865,2.10522,0,0,0,0,0,0,0,-1,1770,1422,20.865,-2.10518
553,-398,19.873,2.31494,0,0,0,0,0,0,0,-1,1777,1422,19.873,-2.31496
560,-398,18.7664,2.58093,0,0,0,0,0,0,0,-1,1784,1422,18.7664,-2.58089
567,-398,17.8256,3.19897,0,0,0,0,0,0,0,-1,1791,1422,17.8255,-3.199
574,-398,17.1724,3.84631,0,0,0,0,0,0,0,-1,1798,1422,17.1723,-3.84628
581,-398,16.6462,4.40747,0,0,0,0,0,0,0,-1,1805,1422,16.6463,-4.40747
588,-398,18.2119,6.75757,0,0,0,0,0,0,0,-1,1812,1422,18.2119,-6.75756
595,-398,17.0194,6.8916,0,0,0,0,0,0,0,-1,1819,1422,17.0194,-6.89162
602,-398,14.3646,7.22302,0,0,0,0,0,0,0,-1,1826,1422,14.3646,-7.22308
609,-398,13.9369,7.53101,-0.0402431,-0.0181434,0.0233883,-0.00332602,-0.0550605,1.00608,0.0356501,0.0482959,1833,1422,13.9369,-7.53098
616,-398,13.681,7.75635,-0.0286395,-0.0134174,0.0171806,-0.0022375,-0.0398194,0.993907,0.0258328,0.0186585,1840,1422,13.6811,-7.75636
623,-398,13.6333,7.57007,-0.019685,-0.00967722,0.0122428,-0.00145524,-0.027907,0.9794,0.0181391,0.0104739,1847,1422,13.6333,-7.57008
630,-398,13.6301,7.36011,-0.013019,-0.00685364,0.00850745,-0.000887597,-0.0189851,0.959216,0.0123715,0.0120595,1854,1422,13.6301,-7.3601
637,-398,13.6279,7.14563,-0.00816093,-0.00484688,0.00578627,-0.000485045,-0.0125228,0.924852,0.00819162,0.0138283,1861,1422,13.6279,-7.14569
644,-398,13.5586,6.92688,-0.00470952,-0.00324587,0.00386707,-4.19868e-05,-0.0079134,0.878915,0.00526166,0.0188298,1868,1422,13.5585,-6.92684
651,-398,13.5662,6.73889,-0.00168239,-0.0019753,0.00216148,0.000337592,-0.00399529,0.751572,0.00278289,0.025586,1875,1422,13.5662,-6.73893
658,-398,13.6251,6.54883,-0.000130644,-0.00111642,0.0013017,0.000768364,-0.00201543,0.604416,0.00166011,0.0196754,1882,1422,13.6251,-6.54882
665,-398,13.6169,6.3031,0.000705953,-0.000415048,0.000875762,0.00118522,-0.000894317,0.500736,0.00120453,0.0132416,1889,1422,13.6169,-6.3031
672,-398,13.6222,6.0791,0.00102582,-4.68191e-05,0.00075091,0.00141227,-0.00043327,0.475293,0.00111438,0.0127122,1896,1422,13.6222,-6.07914
679,-398,13.6261,5.84741,0.0012654,0.000290916,0.000805182,0.00171928,-0.000162971,0.513306,0.00120419,0.0119551,1903,1422,13.6261,-5.84741
686,-398,13.6559,5.62585,0.00154158,0.000480769,0.000950026,0.00209923,-7.68888e-05,0.5308,0.00142581,0.0188519,1910,1422,13.6559,-5.62588
693,-398,13.4255,5.48999,0.00219741,0.00049813,0.00142965,0.00301083,-0.000315291,0.517288,0.00212015,0.0488626,1917,1422,13.4256,-5.48997
700,-398,13.2251,5.34277,0,0,0,0,0,0,0,-1,1924,1422,13.2252,-5.34275
707,-398,10.9731,5.479,0,0,0,0,0,0,0,-1,1931,1422,10.9732,-5.47896
714,-398,11.7313,6.17346,0,0,0,0,0,0,0,-1,1938,1422,11.7313,-6.17348
721,-398,13.9371,8.05103,0,0,0,0,0,0,0,-1,1945,1422,13.9372,-8.05102
728,-398,14.786,7.0282,0,0,0,0,0,0,0,-1,1952,1422,14.786,-7.0282
735,-398,0,0,0,0,0,0,0,0,0,-1,1959,1422,0,0
742,-398,0,0,0,0,0,0,0,0,0,-1,1966,1422,0,0
749,-398,0,0,0,0,0,0,0,0,0,-1,1973,1422,0,0
756,-398,0,0,0,0,0,0,0,0,0,-1,1980,1422,0,0
763,-398,0,0,0,0,0,0,0,0,0,-1,1987,1422,0,0
770,-398,0,0,0,0,0,0,0,0,0,-1,1994,1422,0,0
777,-398,0,0,0,0,0,0,0,0,0,-1,2001,1422,0,0
784,-398,0,0,0,0,0,0,0,0,0,-1,2008,1422,0,0
791,-398,0,0,0,0,0,0,0,0,0,-1,2015,1422,0,0
798,-398,0,0,0,0,0,0,0,0,0,-1,2022,1422,0,0
805,-398,0,0,0,0,0,0,0,0,0,-1,2029,1422,0,0
812,-398,0,0,0,0,0,0,0,0,0,-1,2036,1422,0,0
-700,-405,0,0,0,0,0,0,0,0,0,-1,524,1429,0,0
-693,-405,0,0,0,0,0,0,0,0,0,-1,531,1429,0,0
-686,-405,0,0,0,0,0,0,0,0,0,-1,538,1429,0,0
-679,-405,0,0,0,0,0,0,0,0,0,-1,545,1429,0,0
-672,-405,0,0,0,0,0,0,0,0,0,-1,552,1429,0,0
-665,-405,0,0,0,0,0,0,0,0,0,-1,559,1429,0,0
-658,-405,0,0,0,0,0,0,0,0,0,-1,566,1429,0,0
-651,-405,0,0,0,0,0,0,0,0,0,-1,573,1429,0,0
-644,-405,0,0,0,0,0,0,0,0,0,-1,580,1429,0,0
-637,-405,0,0,0,0,0,0,0,0,0,-1,587,1429,0,0
-630,-405,0,0,0,0,0,0,0,0,0,-1,594,1429,0,0
-623,-405,0,0,0,0,0,0,0,0,0,-1,601,1429,0,0
-616,-405,0,0,0,0,0,0,0,0,0,-1,608,1429,0,0
-609,-405,0,0,0,0,0,0,0,0,0,-1,615,1429,0,0
-602,-405,-5.80988,-3.46594,0,0,0,0,0,0,0,-1,622,1429,-5.80987,3.46592
-595,-405,-7.80023,0.702637,0,0,0,0,0,0,0,-1,629,1429,-7.80026,-0.702685
-588,-405,-7.63116,2.34253,0,0,0,0,0,0,0,-1,636,1429,-7.63117,-2.34248
-581,-405,-5.90985,2.13806,0,0,0,0,0,0,0,-1,643,1429,-5.90987,-2.13808
-574,-405,-5.02307,2.49268,0,0,0,0,0,0,0,-1,650,1429,-5.02306,-2.49265
-567,-405,-3.83862,2.97461,0,0,0,0,0,0,0,-1,657,1429,-3.83861,-2.97456
-560,-405,-3.77106,3.07068,0,0,0,0,0,0,0,-1,664,1429,-3.77108,-3.0707
-553,-405,-4.21545,3.56226,0.00833283,0.0129915,0.00204565,0.0137622,0.00756209,1.21047,0.00795859,0.0438257,671,1429,-4.21546,-3.5623
-546,-405,-4.45038,3.87903,0.00566736,0.00718621,0.00149047,0.00809958,0.00475399,1.02102,0.0046998,0.0225897,678,1429,-4.45037,-3.879
-539,-405,-4.44763,4.12524,0.00403133,0.00364806,0.0011876,0.00504266,0.00263673,0.705407,0.0029124,0.0118976,685,1429,-4.44762,-4.12528
-532,-405,-4.44672,4.38538,0.00294069,0.000784434,0.000856513,0.00323951,0.000485619,0.335672,0.00201738,0.01603,692,1429,-4.44673,-4.38535
-525,-405,-4.44409,4.65442,0.00250763,-0.000873512,0.000735457,0.00266067,-0.00102656,0.20517,0.00219741,0.0149358,699,1429,-4.44408,-4.65437
-518,-405,-4.42285,4.89709,0.00217982,-0.00130248,0.000587968,0.00227642,-0.00139908,0.162833,0.00214211,0.0149839,706,1429,-4.42283,-4.89711
-511,-405,-4.4389,5.1449,0.00232141,-0.00147344,0.000233194,0.00233569,-0.00148771,0.0611436,0.00222546,0.0142746,713,1429,-4.43892,-5.14485
-504,-405,-4.44067,5.39075,0.000864715,-0.00328451,-0.000716402,0.000984926,-0.00340472,-0.166249,0.00265962,0.015725,720,1429,-4.44064,-5.39071
-497,-405,-4.42688,5.63989,-0.00254448,-0.00658551,-0.00269306,-0.00119823,-0.00793175,-0.463562,0.00493713,0.0136393,727,1429,-4.42687,-5.63988
-490,-405,-4.43402,5.88489,-0.00997565,-0.0116089,-0.00636844,-0.0043717,-0.0172129,-0.721631,0.0103311,0.0111532,734,1429,-4.43401,-5.88493
-483,-405,-4.41949,6.16284,-0.0208859,-0.0201237,-0.0116359,-0.0088626,-0.032147,-0.801768,0.0191725,0.0107928,741,1429,-4.4195,-6.1629
-476,-405,-4.3631,6.34534,-0.0329336,-0.0297563,-0.0172789,-0.0139931,-0.0486967,-0.831241,0.0289502,0.02878,748,1429,-4.36312,-6.34536
-469,-405,-4.39014,6.43542,-0.0494537,-0.0426508,-0.02498,-0.0208417,-0.0712628,-0.853066,0.0423085,0.0433456,755,1429,-4.39011,-6.43541
-462,-405,-4.4071,6.70325,0,0,0,0,0,0,0,-1,762,1429,-4.40708,-6.70327
-455,-405,-5.11804,5.56934,-0.0896502,-0.0717957,-0.0422768,-0.0375139,-0.123932,-0.88945,0.0733856,0.0443373,769,1429,-5.11807,-5.56939
-448,-405,-6.49774,5.11682,-0.111919,-0.0873289,-0.0516095,-0.0465702,-0.152678,-0.902336,0.0903551,0.0437912,776,1429,-6.49773,-5.11682
-441,-405,-8.04755,4.44971,-0.133305,-0.102796,-0.0609346,-0.0552357,-0.180866,-0.908047,0.107027,0.0489036,783,1429,-8.04752,-4.44977
-434,-405,-9.62549,3.94189,-0.152274,-0.117948,-0.0697853,-0.0632466,-0.206976,-0.905975,0.122472,0.0494372,790,1429,-9.62546,-3.94191
-427,-405,-10.9764,3.73926,0,0,0,0,0,0,0,-1,797,1429,-10.9764,-3.73923
-420,-405,-12.1187,3.68506,-0.173941,-0.144674,-0.0829862,-0.075041,-0.243574,-0.872667,0.144039,0.0469203,804,1429,-12.1187,-3.68512
-413,-405,-13.5353,3.75659,-0.173191,-0.155026,-0.0853296,-0.0782968,-0.24992,-0.838419,0.147607,0.0466827,811,1429,-13.5353,-3.75655
-406,-405,-14.7374,3.99817,0,0,0,0,0,0,0,-1,818,1429,-14.7374,-3.99814
-399,-405,0,0,0,0,0,0,0,0,0,-1,825,1429,0,0
-392,-405,0,0,0,0,0,0,0,0,0,-1,832,1429,0,0
-385,-405,0,0,0,0,0,0,0,0,0,-1,839,1429,0,0
-378,-405,0,0,0,0,0,0,0,0,0,-1,846,1429,0,0
-371,-405,0,0,0,0,0,0,0,0,0,-1,853,1429,0,0
-364,-405,0,0,0,0,0,0,0,0,0,-1,860,1429,0,0
-357,-405,0,0,0,0,0,0,0,0,0,-1,867,1429,0,0
-350,-405,0,0,0,0,0,0,0,0,0,-1,874,1429,0,0
-343,-405,0,0,0,0,0,0,0,0,0,-1,881,1429,0,0
-336,-405,0,0,0,0,0,0,0,0,0,-1,888,1429,0,0
-329,-405,0,0,0,0,0,0,0,0,0,-1,895,1429,0,0
-322,-405,0,0,0,0,0,0,0,0,0,-1,902,1429,0,0
-315,-405,0,0,0,0,0,0,0,0,0,-1,909,1429,0,0
-308,-405,0,0,0,0,0,0,0,0,0,-1,916,1429,0,0
-301,-405,0,0,0,0,0,0,0,0,0,-1,923,1429,0,0
-294,-405,0,0,0,0,0,0,0,0,0,-1,930,1429,0,0
-287,-405,0,0,0,0,0,0,0,0,0,-1,937,1429,0,0
-280,-405,0,0,0,0,0,0,0,0,0,-1,944,1429,0,0
-273,-405,0,0,0,0,0,0,0,0,0,-1,951,1429,0,0
-266,-405,0,0,0,0,0,0,0,0,0,-1,958,1429,0,0
-259,-405,0,0,0,0,0,0,0,0,0,-1,965,1429,0,0
-252,-405,0,0,0,0,0,0,0,0,0,-1,972,1429,0,0
-245,-405,0,0,0,0,0,0,0,0,0,-1,979,1429,0,0
-238,-405,0,0,0,0,0,0,0,0,0,-1,986,1429,0,0
-231,-405,0,0,0,0,0,0,0,0,0,-1,993,1429,0,0
-224,-405,0,0,0,0,0,0,0,0,0,-1,1000,1429,0,0
-217,-405,0,0,0,0,0,0,0,0,0,-1,1007,1429,0,0
-210,-405,0,0,0,0,0,0,0,0,0,-1,1014,1429,0,0
-203,-405,0,0,0,0,0,0,0,0,0,-1,1021,1429,0,0
-196,-405,0,0,0,0,0,0,0,0,0,-1,1028,1429,0,0
-189,-405,0,0,0,0,0,0,0,0,0,-1,1035,1429,0,0
-182,-405,0,0,0,0,0,0,0,0,0,-1,1042,1429,0,0
-175,-405,0,0,0,0,0,0,0,0,0,-1,1049,1429,0,0
-168,-405,0,0,0,0,0,0,0,0,0,-1,1056,1429,0,0
-161,-405,0,0,0,0,0,0,0,0,0,-1,1063,1429,0,0
-154,-405,0,0,0,0,0,0,0,0,0,-1,1070,1429,0,0
-147,-405,0,0,0,0,0,0,0,0,0,-1,1077,1429,0,0
-140,-405,0,0,0,0,0,0,0,0,0,-1,1084,1429,0,0
-133,-405,0,0,0,0,0,0,0,0,0,-1,1091,1429,0,0
-126,-405,0,0,0,0,0,0,0,0,0,-1,1098,1429,0,0
-119,-405,0,0,0,0,0,0,0,0,0,-1,1105,1429,0,0
-112,-405,0,0,0,0,0,0,0,0,0,-1,1112,1429,0,0
-105,-405,0,0,0,0,0,0,0,0,0,-1,1119,1429,0,0
-98,-405,0,0,0,0,0,0,0,0,0,-1,1126,1429,0,0
-91,-405,0,0,0,0,0,0,0,0,0,-1,1133,1429,0,0
-84,-405,0,0,0,0,0,0,0,0,0,-1,1140,1429,0,0
-77,-405,0,0,0,0,0,0,0,0,0,-1,1147,1429,0,0
-70,-405,0,0,0,0,0,0,0,0,0,-1,1154,1429,0,0
-63,-405,0,0,0,0,0,0,0,0,0,-1,1161,1429,0,0
-56,-405,0,0,0,0,0,0,0,0,0,-1,1168,1429,0,0
-49,-405,0,0,0,0,0,0,0,0,0,-1,1175,1429,0,0
-42,-405,0,0,0,0,0,0,0,0,0,-1,1182,1429,0,0
-35,-405,0,0,0,0,0,0,0,0,0,-1,1189,1429,0,0
-28,-405,0,0,0,0,0,0,0,0,0,-1,1196,1429,0,0
-21,-405,0,0,0,0,0,0,0,0,0,-1,1203,1429,0,0
-14,-405,0,0,0,0,0,0,0,0,0,-1,1210,1429,0,0
-7,-405,0,0,0,0,0,0,0,0,0,-1,1217,1429,0,0
0,-405,0,0,0,0,0,0,0,0,0,-1,1224,1429,0,0
7,-405,0,0,0,0,0,0,0,0,0,-1,1231,1429,0,0
14,-405,0,0,0,0,0,0,0,0,0,-1,1238,1429,0,0
21,-405,0,0,0,0,0,0,0,0,0,-1,1245,1429,0,0
28,-405,0,0,0,0,0,0,0,0,0,-1,1252,1429,0,0
35,-405,0,0,0,0,0,0,0,0,0,-1,1259,1429,0,0
42,-405,0,0,0,0,0,0,0,0,0,-1,1266,1429,0,0
49,-405,0,0,0,0,0,0,0,0,0,-1,1273,1429,0,0
56,-405,0,0,0,0,0,0,0,0,0,-1,1280,1429,0,0
63,-405,0,0,0,0,0,0,0,0,0,-1,1287,1429,0,0
70,-405,0,0,0,0,0,0,0,0,0,-1,1294,1429,0,0
77,-405,0,0,0,0,0,0,0,0,0,-1,1301,1429,0,0
84,-405,0,0,0,0,0,0,0,0,0,-1,1308,1429,0,0
91,-405,0,0,0,0,0,0,0,0,0,-1,1315,1429,0,0
98,-405,0,0,0,0,0,0,0,0,0,-1,1322,1429,0,0
105,-405,0,0,0,0,0,0,0,0,0,-1,1329,1429,0,0
112,-405,0,0,0,0,0,0,0,0,0,-1,1336,1429,0,0
119,-405,0,0,0,0,0,0,0,0,0,-1,1343,1429,0,0
126,-405,0,0,0,0,0,0,0,0,0,-1,1350,1429,0,0
133,-405,0,0,0,0,0,0,0,0,0,-1,1357,1429,0,0
140,-405,0,0,0,0,0,0,0,0,0,-1,1364,1429,0,0
147,-405,0,0,0,0,0,0,0,0,0,-1,1371,1429,0,0
154,-405,0,0,0,0,0,0,0,0,0,-1,1378,1429,0,0
161,-405,0,0,0,0,0,0,0,0,0,-1,1385,1429,0,0
168,-405,0,0,0,0,0,0,0,0,0,-1,1392,1429,0,0
175,-405,0,0,0,0,0,0,0,0,0,-1,1399,1429,0,0
182,-405,0,0,0,0,0,0,0,0,0,-1,1406,1429,0,0
189,-405,0,0,0,0,0,0,0,0,0,-1,1413,1429,0,0
196,-405,0,0,0,0,0,0,0,0,0,-1,1420,1429,0,0
203,-405,0,0,0,0,0,0,0,0,0,-1,1427,1429,0,0
210,-405,0,0,0,0,0,0,0,0,0,-1,1434,1429,0,0
217,-405,0,0,0,0,0,0,0,0,0,-1,1441,1429,0,0
224,-405,0,0,0,0,0,0,0,0,0,-1,1448,1429,0,0
231,-405,0,0,0,0,0,0,0,0,0,-1,1455,1429,0,0
238,-405,0,0,0,0,0,0,0,0,0,-1,1462,1429,0,0
245,-405,0,0,0,0,0,0,0,0,0,-1,1469,1429,0,0
252,-405,0,0,0,0,0,0,0,0,0,-1,1476,1429,0,0
259,-405,0,0,0,0,0,0,0,0,0,-1,1483,1429,0,0
266,-405,0,0,0,0,0,0,0,0,0,-1,1490,1429,0,0
273,-405,0,0,0,0,0,0,0,0,0,-1,1497,1429,0,0
280,-405,0,0,0,0,0,0,0,0,0,-1,1504,1429,0,0
287,-405,0,0,0,0,0,0,0,0,0,-1,1511,1429,0,0
294,-405,0,0,0,0,0,0,0,0,0,-1,1518,1429,0,0
301,-405,0,0,0,0,0,0,0,0,0,-1,1525,1429,0,0
308,-405,0,0,0,0,0,0,0,0,0,-1,1532,1429,0,0
315,-405,0,0,0,0,0,0,0,0,0,-1,1539,1429,0,0
322,-405,0,0,0,0,0,0,0,0,0,-1,1546,1429,0,0
329,-405,0,0,0,0,0,0,0,0,0,-1,1553,1429,0,0
336,-405,0,0,0,0,0,0,0,0,0,-1,1560,1429,0,0
343,-405,0,0,0,0,0,0,0,0,0,-1,1567,1429,0,0
350,-405,0,0,0,0,0,0,0,0,0,-1,1574,1429,0,0
357,-405,0,0,0,0,0,0,0,0,0,-1,1581,1429,0,0
364,-405,0,0,0,0,0,0,0,0,0,-1,1588,1429,0,0
371,-405,0,0,0,0,0,0,0,0,0,-1,1595,1429,0,0
378,-405,0,0,0,0,0,0,0,0,0,-1,1602,1429,0,0
385,-405,0,0,0,0,0,0,0,0,0,-1,1609,1429,0,0
392,-405,0,0,0,0,0,0,0,0,0,-1,1616,1429,0,0
399,-405,0,0,0,0,0,0,0,0,0,-1,1623,1429,0,0
406,-405,0,0,0,0,0,0,0,0,0,-1,1630,1429,0,0
413,-405,0,0,0,0,0,0,0,0,0,-1,1637,1429,0,0
420,-405,0,0,0,0,0,0,0,0,0,-1,1644,1429,0,0
427,-405,0,0,0,0,0,0,0,0,0,-1,1651,1429,0,0
434,-405,0,0,0,0,0,0,0,0,0,-1,1658,1429,0,0
441,-405,0,0,0,0,0,0,0,0,0,-1,1665,1429,0,0
448,-405,0,0,0,0,0,0,0,0,0,-1,1672,1429,0,0
455,-405,0,0,0,0,0,0,0,0,0,-1,1679,1429,0,0
462,-405,0,0,0,0,0,0,0,0,0,-1,1686,1429,0,0
469,-405,0,0,0,0,0,0,0,0,0,-1,1693,1429,0,0
476,-405,0,0,0,0,0,0,0,0,0,-1,1700,1429,0,0
483,-405,0,0,0,0,0,0,0,0,0,-1,1707,1429,0,0
490,-405,0,0,0,0,0,0,0,0,0,-1,1714,1429,0,0
497,-405,0,0,0,0,0,0,0,0,0,-1,1721,1429,0,0
504,-405,0,0,0,0,0,0,0,0,0,-1,1728,1429,0,0
511,-405,0,0,0,0,0,0,0,0,0,-1,1735,1429,0,0
518,-405,0,0,0,0,0,0,0,0,0,-1,1742,1429,0,0
525,-405,14.6423,1.7583,0,0,0,0,0,0,0,-1,1749,1429,14.6424,-1.75824
532,-405,22.7542,1.85034,0,0,0,0,0,0,0,-1,1756,1429,22.7541,-1.85038
539,-405,21.1149,1.93384,0,0,0,0,0,0,0,-1,1763,1429,21.1149,-1.93381
546,-405,20.1537,2.11157,0,0,0,0,0,0,0,-1,1770,1429,20.1537,-2.11163
553,-405,19.1523,2.2356,0,0,0,0,0,0,0,-1,1777,1429,19.1523,-2.23566
560,-405,17.9702,2.44043,0,0,0,0,0,0,0,-1,1784,1429,17.9703,-2.44041
567,-405,16.8976,3.23425,0,0,0,0,0,0,0,-1,1791,1429,16.8976,-3.2343
574,-405,16.168,4.06287,0,0,0,0,0,0,0,-1,1798,1429,16.168,-4.06291
581,-405,15.5306,4.74963,0,0,0,0,0,0,0,-1,1805,1429,15.5306,-4.74958
588,-405,17.1189,7.43933,0,0,0,0,0,0,0,-1,1812,1429,17.1189,-7.43928
595,-405,15.8911,7.60559,-0.0632465,-0.0283991,0.0346314,-0.00705525,-0.0845903,1.01847,0.0541951,0.0446815,1819,1429,15.8911,-7.60561
602,-405,14.3286,7.92969,-0.0474911,-0.0216714,0.0264655,-0.00513491,-0.0640276,1.01232,0.0410806,0.0425134,1826,1429,14.3286,-7.92973
609,-405,13.4672,8.01782,-0.0349346,-0.0163534,0.019771,-0.00379893,-0.0474891,1.00504,0.0304721,0.0199998,1833,1429,13.4671,-8.01778
616,-405,13.4188,7.84949,-0.025073,-0.0120674,0.0145292,-0.00265211,-0.0344882,0.995813,0.0221611,0.00981897,1840,1429,13.4188,-7.84944
623,-405,13.4033,7.61975,-0.0173192,-0.0086645,0.0103377,-0.00178497,-0.0241988,0.983616,0.0155717,0.00973045,1847,1429,13.4033,-7.61973
630,-405,13.4039,7.3877,-0.0113964,-0.0060897,0.0071142,-0.00115014,-0.0163359,0.96389,0.0105282,0.0102993,1854,1429,13.4039,-7.38767
637,-405,13.4032,7.15442,-0.00693955,-0.00422976,0.00472899,-0.00066539,-0.0105039,0.924915,0.00679169,0.010935,1861,1429,13.4032,-7.15444
644,-405,13.353,6.93042,-0.0036772,-0.00274485,0.00307173,-0.000104117,-0.00631793,0.860705,0.00417768,0.0275515,1868,1429,13.3531,-6.93042
651,-405,13.2874,6.74695,-0.000775643,-0.00158648,0.0015949,0.000464562,-0.00282669,0.660936,0.00205687,0.0304666,1875,1429,13.2873,-6.74689
658,-405,13.3684,6.57141,0.000716374,-0.000833795,0.000938645,0.00115859,-0.00127601,0.440276,0.00140616,0.0220552,1882,1429,13.3685,-6.57136
665,-405,13.3795,6.2981,0.00150976,-0.000269251,0.000708941,0.00175772,-0.000517206,0.336456,0.00137698,0.0182479,1889,1429,13.3796,-6.29812
672,-405,13.4016,6.05127,0.00179579,-4.7462e-05,0.000793063,0.00209003,-0.000341708,0.355281,0.00152011,0.0229978,1896,1429,13.4016,-6.05129
679,-405,13.4409,5.79382,0.0020183,0.00011129,0.00101576,0.00245797,-0.00032838,0.4085,0.00175836,0.0212912,1903,1429,13.4409,-5.79379
686,-405,13.3176,5.49915,0.00224706,0.000148497,0.00137237,0.00292532,-0.000529764,0.459017,0.00214868,0.0357325,1910,1429,13.3176,-5.4991
693,-405,13.1102,5.55566,0,0,0,0,0,0,0,-1,1917,1429,13.1102,-5.55562
700,-405,9.1958,4.02026,0,0,0,0,0,0,0,-1,1924,1429,9.19579,-4.02025
707,-405,7.40308,3.83191,0,0,0,0,0,0,0,-1,1931,1429,7.40311,-3.83194
714,-405,7.33252,3.47388,0,0,0,0,0,0,0,-1,1938,1429,7.33255,-3.47383
721,-405,9.23523,0.993896,0,0,0,0,0,0,0,-1,1945,1429,9.23523,-0.993884
728,-405,0,0,0,0,0,0,0,0,0,-1,1952,1429,0,0
735,-405,0,0,0,0,0,0,0,0,0,-1,1959,1429,0,0
742,-405,0,0,0,0,0,0,0,0,0,-1,1966,1429,0,0
749,-405,0,0,0,0,0,0,0,0,0,-1,1973,1429,0,0
756,-405,0,0,0,0,0,0,0,0,0,-1,1980,1429,0,0
763,-405,0,0,0,0,0,0,0,0,0,-1,1987,1429,0,0
770,-405,0,0,0,0,0,0,0,0,0,-1,1994,1429,0,0
777,-405,0,0,0,0,0,0,0,0,0,-1,2001,1429,0,0
784,-405,0,0,0,0,0,0,0,0,0,-1,2008,1429,0,0
791,-405,0,0,0,0,0,0,0,0,0,-1,2015,1429,0,0
798,-405,0,0,0,0,0,0,0,0,0,-1,2022,1429,0,0
805,-405,0,0,0,0,0,0,0,0,0,-1,2029,1429,0,0
812,-405,0,0,0,0,0,0,0,0,0,-1,2036,1429,0,0
-700,-412,0,0,0,0,0,0,0,0,0,-1,524,1436,0,0
-693,-412,0,0,0,0,0,0,0,0,0,-1,531,1436,0,0
-686,-412,0,0,0,0,0,0,0,0,0,-1,538,1436,0,0
-679,-412,0,0,0,0,0,0,0,0,0,-1,545,1436,0,0
-672,-412,0,0,0,0,0,0,0,0,0,-1,552,1436,0,0
-665,-412,0,0,0,0,0,0,0,0,0,-1,559,1436,0,0
-658,-412,0,0,0,0,0,0,0,0,0,-1,566,1436,0,0
-651,-412,0,0,0,0,0,0,0,0,0,-1,573,1436,0,0
-644,-412,0,0,0,0,0,0,0,0,0,-1,580,1436,0,0
-637,-412,0,0,0,0,0,0,0,0,0,-1,587,1436,0,0
-630,-412,0,0,0,0,0,0,0,0,0,-1,594,1436,0,0
-623,-412,0,0,0,0,0,0,0,0,0,-1,601,1436,0,0
-616,-412,0,0,0,0,0,0,0,0,0,-1,608,1436,0,0
-609,-412,0,0,0,0,0,0,0,0,0,-1,615,1436,0,0
-602,-412,-3.72766,-3.50012,0,0,0,0,0,0,0,-1,622,1436,-3.72764,3.50017
-595,-412,-3.48932,-2.58386,0,0,0,0,0,0,0,-1,629,1436,-3.48931,2.58391
-588,-412,-7.80664,1.078,0,0,0,0,0,0,0,-1,636,1436,-7.80666,-1.07806
-581,-412,-6.63086,2.52368,0,0,0,0,0,0,0,-1,643,1436,-6.63083,-2.52367
-574,-412,-4.40698,2.23816,0,0,0,0,0,0,0,-1,650,1436,-4.40698,-2.23814
-567,-412,-4.06519,2.4209,0,0,0,0,0,0,0,-1,657,1436,-4.06521,-2.42089
-560,-412,-3.96759,2.98669,0,0,0,0,0,0,0,-1,664,1436,-3.96757,-2.98675
-553,-412,-3.92719,3.54871,0.0147743,0.0137674,0.00411383,0.0184154,0.0101264,0.724511,0.0106498,0.0425844,671,1436,-3.92718,-3.54875
-546,-412,-4.02551,3.98022,0.0111288,0.00752165,0.00323774,0.0130314,0.00561903,0.53128,0.0075474,0.0347875,678,1436,-4.0255,-3.98026
-539,-412,-4.16797,4.08264,0.0086233,0.0037962,0.00263862,0.00978571,0.00263378,0.414959,0.00584707,0.0162909,685,1436,-4.16794,-4.0827
-532,-412,-4.18756,4.38733,0.00675544,0.000829585,0.00204434,0.00739227,0.000192751,0.301983,0.0048652,0.0138423,692,1436,-4.18756,-4.38736
-525,-412,-4.20477,4.65894,0.00551098,-0.000786021,0.00166945,0.0059262,-0.00120124,0.243771,0.00440614,0.0155783,699,1436,-4.20476,-4.65897
-518,-412,-4.18658,4.90955,0.00432769,-0.00117295,0.00130174,0.00462019,-0.00146546,0.221032,0.00366754,0.0156927,706,1436,-4.18656,-4.90957
-511,-412,-4.19983,5.14819,0.00361641,-0.0013114,0.000731144,0.00372261,-0.00141759,0.144232,0.00306554,0.0176358,713,1436,-4.19983,-5.14821
-504,-412,-4.2312,5.38965,0.00182416,-0.00280519,-0.000273755,0.00184029,-0.00282132,-0.0588614,0.00271117,0.0173304,720,1436,-4.2312,-5.38961
-497,-412,-4.2005,5.66089,-0.00131703,-0.00541852,-0.0021224,-0.000416485,-0.00631907,-0.401283,0.00408098,0.0136735,727,1436,-4.20048,-5.66088
-490,-412,-4.19366,5.90674,-0.00753557,-0.00948515,-0.00537338,-0.00304927,-0.0139714,-0.695668,0.00848257,0.0114672,734,1436,-4.19368,-5.90674
-483,-412,-4.19214,6.13257,-0.0163742,-0.0166972,-0.00998985,-0.00654453,-0.0265268,-0.777316,0.0159569,0.0080553,741,1436,-4.19213,-6.13259
-476,-412,-4.11255,6.42419,-0.0258837,-0.0248646,-0.0149419,-0.0104235,-0.0403247,-0.802442,0.0241698,0.0162212,748,1436,-4.11253,-6.42414
-469,-412,-4.08582,6.57568,-0.0390555,-0.035918,-0.0217166,-0.0157136,-0.0592599,-0.821455,0.0354493,0.0281758,755,1436,-4.08581,-6.57565
-462,-412,-3.95355,6.52234,0,0,0,0,0,0,0,-1,762,1436,-3.95353,-6.52233
-455,-412,-4.71173,6.5105,0,0,0,0,0,0,0,-1,769,1436,-4.71172,-6.51044
-448,-412,-5.46991,6.49854,0,0,0,0,0,0,0,-1,776,1436,-5.4699,-6.49855
-441,-412,-7.19946,5.18103,-0.107603,-0.0906061,-0.054785,-0.0436642,-0.154545,-0.862346,0.0919965,0.0485657,783,1436,-7.19949,-5.18107
-434,-412,-8.68597,5.14258,-0.123336,-0.105158,-0.0630594,-0.0505359,-0.177958,-0.856971,0.105892,0.049641,790,1436,-8.68596,-5.14261
-427,-412,-10.0004,5.15271,0,0,0,0,0,0,0,-1,797,1436,-10.0004,-5.15266
-420,-412,-10.4468,4.9043,-0.142401,-0.132034,-0.0754956,-0.0615439,-0.212891,-0.819675,0.126505,0.0465585,804,1436,-10.4468,-4.90429
-413,-412,-11.5704,4.97766,-0.142782,-0.142802,-0.0775552,-0.065237,-0.220347,-0.785334,0.130697,0.0474019,811,1436,-11.5704,-4.97771
-406,-412,-13.1968,5.70093,0,0,0,0,0,0,0,-1,818,1436,-13.1968,-5.70096
-399,-412,-10.5506,0.771973,0,0,0,0,0,0,0,-1,825,1436,-10.5506,-0.771954
-392,-412,0,0,0,0,0,0,0,0,0,-1,832,1436,0,0
-385,-412,0,0,0,0,0,0,0,0,0,-1,839,1436,0,0
-378,-412,0,0,0,0,0,0,0,0,0,-1,846,1436,0,0
-371,-412,0,0,0,0,0,0,0,0,0,-1,853,1436,0,0
-364,-412,0,0,0,0,0,0,0,0,0,-1,860,1436,0,0
-357,-412,0,0,0,0,0,0,0,0,0,-1,867,1436,0,0
-350,-412,0,0,0,0,0,0,0,0,0,-1,874,1436,0,0
-343,-412,0,0,0,0,0,0,0,0,0,-1,881,1436,0,0
-336,-412,0,0,0,0,0,0,0,0,0,-1,888,1436,0,0
-329,-412,0,0,0,0,0,0,0,0,0,-1,895,1436,0,0
-322,-412,0,0,0,0,0,0,0,0,0,-1,902,1436,0,0
-315,-412,0,0,0,0,0,0,0,0,0,-1,909,1436,0,0
-308,-412,0,0,0,0,0,0,0,0,0,-1,916,1436,0,0
-301,-412,0,0,0,0,0,0,0,0,0,-1,923,1436,0,0
-294,-412,0,0,0,0,0,0,0,0,0,-1,930,1436,0,0
-287,-412,0,0,0,0,0,0,0,0,0,-1,937,1436,0,0
-280,-412,0,0,0,0,0,0,0,0,0,-1,944,1436,0,0
-273,-412,0,0,0,0,0,0,0,0,0,-1,951,1436,0,0
-266,-412,0,0,0,0,0,0,0,0,0,-1,958,1436,0,0
-259,-412,0,0,0,0,0,0,0,0,0,-1,965,1436,0,0
-252,-412,0,0,0,0,0,0,0,0,0,-1,972,1436,0,0
-245,-412,0,0,0,0,0,0,0,0,0,-1,979,1436,0,0
-238,-412,0,0,0,0,0,0,0,0,0,-1,986,1436,0,0
-231,-412,0,0,0,0,0,0,0,0,0,-1,993,1436,0,0
-224,-412,0,0,0,0,0,0,0,0,0,-1,1000,1436,0,0
-217,-412,0,0,0,0,0,0,0,0,0,-1,1007,1436,0,0
-210,-412,0,0,0,0,0,0,0,0,0,-1,1014,1436,0,0
-203,-412,0,0,0,0,0,0,0,0,0,-1,1021,1436,0,0
-196,-412,0,0,0,0,0,0,0,0,0,-1,1028,1436,0,0
-189,-412,0,0,0,0,0,0,0,0,0,-1,1035,1436,0,0
-182,-412,0,0,0,0,0,0,0,0,0,-1,1042,1436,0,0
-175,-412,0,0,0,0,0,0,0,0,0,-1,1049,1436,0,0
-168,-412,0,0,0,0,0,0,0,0,0,-1,1056,1436,0,0
-161,-412,0,0,0,0,0,0,0,0,0,-1,1063,1436,0,0
-154,-412,0,0,0,0,0,0,0,0,0,-1,1070,1436,0,0
-147,-412,0,0,0,0,0,0,0,0,0,-1,1077,1436,0,0
-140,-412,0,0,0,0,0,0,0,0,0,-1,1084,1436,0,0
-133,-412,0,0,0,0,0,0,0,0,0,-1,1091,1436,0,0
-126,-412,0,0,0,0,0,0,0,0,0,-1,1098,1436,0,0
-119,-412,0,0,0,0,0,0,0,0,0,-1,1105,1436,0,0
-112,-412,0,0,0,0,0,0,0,0,0,-1,1112,1436,0,0
-105,-412,0,0,0,0,0,0,0,0,0,-1,1119,1436,0,0
-98,-412,0,0,0,0,0,0,0,0,0,-1,1126,1436,0,0
-91,-412,0,0,0,0,0,0,0,0,0,-1,1133,1436,0,0
-84,-412,0,0,0,0,0,0,0,0,0,-1,1140,1436,0,0
-77,-412,0,0,0,0,0,0,0,0,0,-1,1147,1436,0,0
-70,-412,0,0,0,0,0,0,0,0,0,-1,1154,1436,0,0
-63,-412,0,0,0,0,0,0,0,0,0,-1,1161,1436,0,0
-56,-412,0,0,0,0,0,0,0,0,0,-1,1168,1436,0,0
-49,-412,0,0,0,0,0,0,0,0,0,-1,1175,1436,0,0
-42,-412,0,0,0,0,0,0,0,0,0,-1,1182,1436,0,0
-35,-412,0,0,0,0,0,0,0,0,0,-1,1189,1436,0,0
-28,-412,0,0,0,0,0,0,0,0,0,-1,1196,1436,0,0
-21,-412,0,0,0,0,0,0,0,0,0,-1,1203,1436,0,0
-14,-412,0,0,0,0,0,0,0,0,0,-1,1210,1436,0,0
-7,-412,0,0,0,0,0,0,0,0,0,-1,1217,1436,0,0
0,-412,0,0,0,0,0,0,0,0,0,-1,1224,1436,0,0
7,-412,0,0,0,0,0,0,0,0,0,-1,1231,1436,0,0
14,-412,0,0,0,0,0,0,0,0,0,-1,1238,1436,0,0
21,-412,0,0,0,0,0,0,0,0,0,-1,1245,1436,0,0
28,-412,0,0,0,0,0,0,0,0,0,-1,1252,1436,0,0
35,-412,0,0,0,0,0,0,0,0,0,-1,1259,1436,0,0
42,-412,0,0,0,0,0,0,0,0,0,-1,1266,1436,0,0
49,-412,0,0,0,0,0,0,0,0,0,-1,1273,1436,0,0
56,-412,0,0,0,0,0,0,0,0,0,-1,1280,1436,0,0
63,-412,0,0,0,0,0,0,0,0,0,-1,1287,1436,0,0
70,-412,0,0,0,0,0,0,0,0,0,-1,1294,1436,0,0
77,-412,0,0,0,0,0,0,0,0,0,-1,1301,1436,0,0
84,-412,0,0,0,0,0,0,0,0,0,-1,1308,1436,0,0
91,-412,0,0,0,0,0,0,0,0,0,-1,1315,1436,0,0
98,-412,0,0,0,0,0,0,0,0,0,-1,1322,1436,0,0
105,-412,0,0,0,0,0,0,0,0,0,-1,1329,1436,0,0
112,-412,0,0,0,0,0,0,0,0,0,-1,1336,1436,0,0
119,-412,0,0,0,0,0,0,0,0,0,-1,1343,1436,0,0
126,-412,0,0,0,0,0,0,0,0,0,-1,1350,1436,0,0
133,-412,0,0,0,0,0,0,0,0,0,-1,1357,1436,0,0
140,-412,0,0,0,0,0,0,0,0,0,-1,1364,1436,0,0
147,-412,0,0,0,0,0,0,0,0,0,-1,1371,1436,0,0
154,-412,0,0,0,0,0,0,0,0,0,-1,1378,1436,0,0
161,-412,0,0,0,0,0,0,0,0,0,-1,1385,1436,0,0
168,-412,0,0,0,0,0,0,0,0,0,-1,1392,1436,0,0
175,-412,0,0,0,0,0,0,0,0,0,-1,1399,1436,0,0
182,-412,0,0,0,0,0,0,0,0,0,-1,1406,1436,0,0
189,-412,0,0,0,0,0,0,0,0,0,-1,1413,1436,0,0
196,-412,0,0,0,0,0,0,0,0,0,-1,1420,1436,0,0
203,-412,0,0,0,0,0,0,0,0,0,-1,1427,1436,0,0
210,-412,0,0,0,0,0,0,0,0,0,-1,1434,1436,0,0
217,-412,0,0,0,0,0,0,0,0,0,-1,1441,1436,0,0
224,-412,0,0,0,0,0,0,0,0,0,-1,1448,1436,0,0
231,-412,0,0,0,0,0,0,0,0,0,-1,1455,1436,0,0
238,-412,0,0,0,0,0,0,0,0,0,-1,1462,1436,0,0
245,-412,0,0,0,0,0,0,0,0,0,-1,1469,1436,0,0
252,-412,0,0,0,0,0,0,0,0,0,-1,1476,1436,0,0
259,-412,0,0,0,0,0,0,0,0,0,-1,1483,1436,0,0
266,-412,0,0,0,0,0,0,0,0,0,-1,1490,1436,0,0
273,-412,0,0,0,0,0,0,0,0,0,-1,1497,1436,0,0
280,-412,0,0,0,0,0,0,0,0,0,-1,1504,1436,0,0
287,-412,0,0,0,0,0,0,0,0,0,-1,1511,1436,0,0
294,-412,0,0,0,0,0,0,0,0,0,-1,1518,1436,0,0
301,-412,0,0,0,0,0,0,0,0,0,-1,1525,1436,0,0
308,-412,0,0,0,0,0,0,0,0,0,-1,1532,1436,0,0
315,-412,0,0,0,0,0,0,0,0,0,-1,1539,1436,0,0
322,-412,0,0,0,0,0,0,0,0,0,-1,1546,1436,0,0
329,-412,0,0,0,0,0,0,0,0,0,-1,1553,1436,0,0
336,-412,0,0,0,0,0,0,0,0,0,-1,1560,1436,0,0
343,-412,0,0,0,0,0,0,0,0,0,-1,1567,1436,0,0
350,-412,0,0,0,0,0,0,0,0,0,-1,1574,1436,0,0
357,-412,0,0,0,0,0,0,0,0,0,-1,1581,1436,0,0
364,-412,0,0,0,0,0,0,0,0,0,-1,1588,1436,0,0
371,-412,0,0,0,0,0,0,0,0,0,-1,1595,1436,0,0
378,-412,0,0,0,0,0,0,0,0,0,-1,1602,1436,0,0
385,-412,0,0,0,0,0,0,0,0,0,-1,1609,1436,0,0
392,-412,0,0,0,0,0,0,0,0,0,-1,1616,1436,0,0
399,-412,0,0,0,0,0,0,0,0,0,-1,1623,1436,0,0
406,-412,0,0,0,0,0,0,0,0,0,-1,1630,1436,0,0
413,-412,0,0,0,0,0,0,0,0,0,-1,1637,1436,0,0
420,-412,0,0,0,0,0,0,0,0,0,-1,1644,1436,0,0
427,-412,0,0,0,0,0,0,0,0,0,-1,1651,1436,0,0
434,-412,0,0,0,0,0,0,0,0,0,-1,1658,1436,0,0
441,-412,0,0,0,0,0,0,0,0,0,-1,1665,1436,0,0
448,-412,0,0,0,0,0,0,0,0,0,-1,1672,1436,0,0
455,-412,0,0,0,0,0,0,0,0,0,-1,1679,1436,0,0
462,-412,0,0,0,0,0,0,0,0,0,-1,1686,1436,0,0
469,-412,0,0,0,0,0,0,0,0,0,-1,1693,1436,0,0
476,-412,0,0,0,0,0,0,0,0,0,-1,1700,1436,0,0
483,-412,0,0,0,0,0,0,0,0,0,-1,1707,1436,0,0
490,-412,0,0,0,0,0,0,0,0,0,-1,1714,1436,0,0
497,-412,0,0,0,0,0,0,0,0,0,-1,1721,1436,0,0
504,-412,0,0,0,0,0,0,0,0,0,-1,1728,1436,0,0
511,-412,0,0,0,0,0,0,0,0,0,-1,1735,1436,0,0
518,-412,13.5378,1.3866,0,0,0,0,0,0,0,-1,1742,1436,13.5379,-1.38663
525,-412,22.8384,2.03333,0,0,0,0,0,0,0,-1,1749,1436,22.8384,-2.03331
532,-412,21.8945,2.29199,0,0,0,0,0,0,0,-1,1756,1436,21.8946,-2.29203
539,-412,20.7961,2.47241,0,0,0,0,0,0,0,-1,1763,1436,20.7962,-2.47239
546,-412,19.4315,2.4071,0,0,0,0,0,0,0,-1,1770,1436,19.4315,-2.40706
553,-412,18.1896,2.19727,0,0,0,0,0,0,0,-1,1777,1436,18.1896,-2.19725
560,-412,16.8402,2.41418,0,0,0,0,0,0,0,-1,1784,1436,16.8402,-2.41425
567,-412,15.9099,3.43774,0,0,0,0,0,0,0,-1,1791,1436,15.9099,-3.43772
574,-412,15.1012,4.30872,0,0,0,0,0,0,0,-1,1798,1436,15.1012,-4.30869
581,-412,13.5082,7.22974,0,0,0,0,0,0,0,-1,1805,1436,13.5082,-7.22971
588,-412,15.7892,7.99109,0,0,0,0,0,0,0,-1,1812,1436,15.7892,-7.99109
595,-412,14.6888,8.0946,-0.0510571,-0.0230206,0.0277809,-0.00592148,-0.0681562,1.01906,0.0435979,0.0425683,1819,1436,14.6888,-8.09462
602,-412,13.4841,8.24854,-0.0389017,-0.0175667,0.0214117,-0.00431231,-0.0521562,1.0165,0.0334262,0.0247757,1826,1436,13.4842,-8.24849
609,-412,13.2256,8.05481,-0.0290606,-0.0132392,0.0161146,-0.00319831,-0.0391015,1.01357,0.0250696,0.00872654,1833,1436,13.2255,-8.05486
616,-412,13.178,7.85229,-0.0211103,-0.00970607,0.0118929,-0.00221894,-0.0285974,1.00894,0.01837,0.00797727,1840,1436,13.178,-7.85232
623,-412,13.1737,7.63074,-0.0146843,-0.0068896,0.00845362,-0.00147819,-0.0200957,1.00139,0.0129326,0.00992739,1847,1436,13.1737,-7.63074
630,-412,13.1892,7.38599,-0.00962901,-0.00476264,0.00575347,-0.000949,-0.0134426,0.985447,0.00866278,0.0112321,1854,1436,13.1892,-7.38604
637,-412,13.1833,7.14514,-0.00567103,-0.00321221,0.00370377,-0.000539137,-0.0083441,0.945644,0.00539201,0.0129493,1861,1436,13.1833,-7.14517
644,-412,13.1932,6.92419,-0.0026739,-0.00197957,0.00229811,-2.55881e-06,-0.00465092,0.860364,0.00309976,0.0140938,1868,1436,13.1932,-6.92414
651,-412,13.1591,6.6958,-1.33448e-05,-0.00105206,0.00107838,0.000664222,-0.00172963,0.560984,0.00142699,0.0242693,1875,1436,13.1591,-6.69579
658,-412,13.1675,6.50867,0.00136873,-0.000498749,0.000622923,0.00155744,-0.000687463,0.294161,0.00132814,0.0161589,1882,1436,13.1675,-6.50872
665,-412,13.1472,6.27637,0.00212365,-0.000162218,0.000576732,0.00226092,-0.000299486,0.233663,0.00161638,0.0221345,1889,1436,13.1472,-6.27641
672,-412,13.2037,6.05273,0.00241851,-0.000157238,0.000862348,0.00268056,-0.000419288,0.295012,0.00194195,0.0280321,1896,1436,13.2038,-6.05269
679,-412,13.3077,5.85889,0.00263389,-0.000198643,0.00128627,0.00313082,-0.000695569,0.368667,0.00235358,0.0355893,1903,1436,13.3078,-5.85885
686,-412,13.0017,5.29456,0,0,0,0,0,0,0,-1,1910,1436,13.0018,-5.29452
693,-412,11.9346,6.02344,0,0,0,0,0,0,0,-1,1917,1436,11.9346,-6.02343
700,-412,8.82764,5.8844,0,0,0,0,0,0,0,-1,1924,1436,8.82761,-5.88444
707,-412,6.59998,1.68994,0,0,0,0,0,0,0,-1,1931,1436,6.60002,-1.68995
714,-412,4.77283,-2.39832,0,0,0,0,0,0,0,-1,1938,1436,4.77288,2.39835
721,-412,0,0,0,0,0,0,0,0,0,-1,1945,1436,0,0
728,-412,0,0,0,0,0,0,0,0,0,-1,1952,1436,0,0
735,-412,0,0,0,0,0,0,0,0,0,-1,1959,1436,0,0
742,-412,0,0,0,0,0,0,0,0,0,-1,1966,1436,0,0
749,-412,0,0,0,0,0,0,0,0,0,-1,1973,1436,0,0
756,-412,0,0,0,0,0,0,0,0,0,-1,1980,1436,0,0
763,-412,0,0,0,0,0,0,0,0,0,-1,1987,1436,0,0
770,-412,0,0,0,0,0,0,0,0,0,-1,1994,1436,0,0
777,-412,0,0,0,0,0,0,0,0,0,-1,2001,1436,0,0
784,-412,0,0,0,0,0,0,0,0,0,-1,2008,1436,0,0
791,-412,0,0,0,0,0,0,0,0,0,-1,2015,1436,0,0
798,-412,0,0,0,0,0,0,0,0,0,-1,2022,1436,0,0
805,-412,0,0,0,0,0,0,0,0,0,-1,2029,1436,0,0
812,-412,0,0,0,0,0,0,0,0,0,-1,2036,1436,0,0
-700,-419,0,0,0,0,0,0,0,0,0,-1,524,1443,0,0
-693,-419,0,0,0,0,0,0,0,0,0,-1,531,1443,0,0
-686,-419,0,0,0,0,0,0,0,0,0,-1,538,1443,0,0
-679,-419,0,0,0,0,0,0,0,0,0,-1,545,1443,0,0
-672,-419,0,0,0,0,0,0,0,0,0,-1,552,1443,0,0
-665,-419,0,0,0,0,0,0,0,0,0,-1,559,1443,0,0
-658,-419,0,0,0,0,0,0,0,0,0,-1,566,1443,0,0
-651,-419,0,0,0,0,0,0,0,0,0,-1,573,1443,0,0
-644,-419,0,0,0,0,0,0,0,0,0,-1,580,1443,0,0
-637,-419,0,0,0,0,0,0,0,0,0,-1,587,1443,0,0
-630,-419,0,0,0,0,0,0,0,0,0,-1,594,1443,0,0
-623,-419,0,0,0,0,0,0,0,0,0,-1,601,1443,0,0
-616,-419,0,0,0,0,0,0,0,0,0,-1,608,1443,0,0
-609,-419,0,0,0,0,0,0,0,0,0,-1,615,1443,0,0
-602,-419,0,0,0,0,0,0,0,0,0,-1,622,1443,0,0
-595,-419,-4.27423,-0.479492,0,0,0,0,0,0,0,-1,629,1443,-4.27421,0.479525
-588,-419,-3.75415,0.426147,0,0,0,0,0,0,0,-1,636,1443,-3.75414,-0.426145
-581,-419,-3.37775,1.73169,0,0,0,0,0,0,0,-1,643,1443,-3.37775,-1.73163
-574,-419,-2.68231,0.384277,0,0,0,0,0,0,0,-1,650,1443,-2.68231,-0.384297
-567,-419,-6.14038,3.22498,0,0,0,0,0,0,0,-1,657,1443,-6.14037,-3.22497
-560,-419,-3.53247,4.00464,0,0,0,0,0,0,0,-1,664,1443,-3.53245,-4.00467
-553,-419,-3.53925,4.10901,0.0217902,0.013851,0.00664985,0.0255651,0.010076,0.516313,0.0148699,0.0444593,671,1443,-3.53924,-4.10906
-546,-419,-3.6134,4.14587,0.0169636,0.00720326,0.00532675,0.0193077,0.00485913,0.414563,0.0115965,0.0429338,678,1443,-3.61342,-4.14592
-539,-419,-3.80035,4.12939,0.0134905,0.00337878,0.00433779,0.0150963,0.00177294,0.354553,0.00952837,0.0318505,685,1443,-3.80035,-4.1294
-532,-419,-3.94208,4.38196,0.0108234,0.00044464,0.00342528,0.0118519,-0.000583876,0.291706,0.0081029,0.0149618,692,1443,-3.94209,-4.38191
-525,-419,-3.95398,4.67297,0.00878915,-0.000990506,0.00275654,0.0095126,-0.00171396,0.256661,0.00698352,0.013639,699,1443,-3.95399,-4.67292
-518,-419,-3.93573,4.91577,0.00684511,-0.00124221,0.00215184,0.00738202,-0.00177912,0.244518,0.00560923,0.0173813,706,1443,-3.93574,-4.91573
-511,-419,-3.9361,5.15979,0.00541096,-0.00127591,0.00138314,0.00568576,-0.00155071,0.196125,0.00439947,0.0192096,713,1443,-3.93608,-5.15976
-504,-419,-3.97327,5.41479,0.00335812,-0.00238946,0.000334446,0.00337752,-0.00240886,0.0579284,0.00335633,0.0185549,720,1443,-3.97324,-5.41482
-497,-419,-3.96533,5.66077,0.00044649,-0.00434628,-0.00138784,0.000819357,-0.00471915,-0.262469,0.00345179,0.0128142,727,1443,-3.96534,-5.66072
-490,-419,-3.94147,5.90503,-0.00475363,-0.00756268,-0.00425626,-0.00167614,-0.0106402,-0.626028,0.006606,0.0106034,734,1443,-3.94149,-5.90507
-483,-419,-3.93195,6.15283,-0.0119065,-0.0135867,-0.00828021,-0.00442387,-0.0210693,-0.73484,0.0128284,0.00901355,741,1443,-3.93194,-6.15278
-476,-419,-3.93048,6.39832,-0.0193666,-0.02041,-0.0126062,-0.00727133,-0.0325053,-0.764717,0.0196989,0.00960811,748,1443,-3.93051,-6.39828
-469,-419,-3.87878,6.6781,-0.0296806,-0.029732,-0.018461,-0.0112453,-0.0481673,-0.784703,0.0290967,0.0145146,755,1443,-3.8788,-6.67804
-462,-419,-3.84131,6.83984,0,0,0,0,0,0,0,-1,762,1443,-3.84134,-6.83983
-455,-419,-4.08661,6.94141,0,0,0,0,0,0,0,-1,769,1443,-4.08659,-6.94146
-448,-419,-4.52051,6.86414,0,0,0,0,0,0,0,-1,776,1443,-4.52054,-6.86412
-441,-419,-6.53619,5.72668,0,0,0,0,0,0,0,-1,783,1443,-6.53617,-5.72673
-434,-419,-4.32245,3.92834,0,0,0,0,0,0,0,-1,790,1443,-4.32247,-3.92833
-427,-419,-7.5979,6.1925,0,0,0,0,0,0,0,-1,797,1443,-7.59788,-6.19245
-420,-419,-8.74091,6.36597,0,0,0,0,0,0,0,-1,804,1443,-8.74089,-6.366
-413,-419,-9.88391,6.53955,0,0,0,0,0,0,0,-1,811,1443,-9.8839,-6.53955
-406,-419,-10.3372,2.75195,-0.119467,-0.13985,-0.0691887,-0.0597233,-0.199594,-0.712272,0.118292,0.0439691,818,1443,-10.3372,-2.75201
-399,-419,-11.5999,1.40002,0,0,0,0,0,0,0,-1,825,1443,-11.5999,-1.39998
-392,-419,0,0,0,0,0,0,0,0,0,-1,832,1443,0,0
-385,-419,0,0,0,0,0,0,0,0,0,-1,839,1443,0,0
-378,-419,0,0,0,0,0,0,0,0,0,-1,846,1443,0,0
-371,-419,0,0,0,0,0,0,0,0,0,-1,853,1443,0,0
-364,-419,0,0,0,0,0,0,0,0,0,-1,860,1443,0,0
-357,-419,0,0,0,0,0,0,0,0,0,-1,867,1443,0,0
-350,-419,0,0,0,0,0,0,0,0,0,-1,874,1443,0,0
-343,-419,0,0,0,0,0,0,0,0,0,-1,881,1443,0,0
-336,-419,0,0,0,0,0,0,0,0,0,-1,888,1443,0,0
-329,-419,0,0,0,0,0,0,0,0,0,-1,895,1443,0,0
-322,-419,0,0,0,0,0,0,0,0,0,-1,902,1443,0,0
-315,-419,0,0,0,0,0,0,0,0,0,-1,909,1443,0,0
-308,-419,0,0,0,0,0,0,0,0,0,-1,916,1443,0,0
-301,-419,0,0,0,0,0,0,0,0,0,-1,923,1443,0,0
-294,-419,0,0,0,0,0,0,0,0,0,-1,930,1443,0,0
-287,-419,0,0,0,0,0,0,0,0,0,-1,937,1443,0,0
-280,-419,0,0,0,0,0,0,0,0,0,-1,944,1443,0,0
-273,-419,0,0,0,0,0,0,0,0,0,-1,951,1443,0,0
-266,-419,0,0,0,0,0,0,0,0,0,-1,958,1443,0,0
-259,-419,0,0,0,0,0,0,0,0,0,-1,965,1443,0,0
-252,-419,0,0,0,0,0,0,0,0,0,-1,972,1443,0,0
-245,-419,0,0,0,0,0,0,0,0,0,-1,979,1443,0,0
-238,-419,0,0,0,0,0,0,0,0,0,-1,986,1443,0,0
-231,-419,0,0,0,0,0,0,0,0,0,-1,993,1443,0,0
-224,-419,0,0,0,0,0,0,0,0,0,-1,1000,1443,0,0
-217,-419,0,0,0,0,0,0,0,0,0,-1,1007,1443,0,0
-210,-419,0,0,0,0,0,0,0,0,0,-1,1014,1443,0,0
-203,-419,0,0,0,0,0,0,0,0,0,-1,1021,1443,0,0
-196,-419,0,0,0,0,0,0,0,0,0,-1,1028,1443,0,0
-189,-419,0,0,0,0,0,0,0,0,0,-1,1035,1443,0,0
-182,-419,0,0,0,0,0,0,0,0,0,-1,1042,1443,0,0
-175,-419,0,0,0,0,0,0,0,0,0,-1,1049,1443,0,0
-168,-419,0,0,0,0,0,0,0,0,0,-1,1056,1443,0,0
-161,-419,0,0,0,0,0,0,0,0,0,-1,1063,1443,0,0
-154,-419,0,0,0,0,0,0,0,0,0,-1,1070,1443,0,0
-147,-419,0,0,0,0,0,0,0,0,0,-1,1077,1443,0,0
-140,-419,0,0,0,0,0,0,0,0,0,-1,1084,1443,0,0
-133,-419,0,0,0,0,0,0,0,0,0,-1,1091,1443,0,0
-126,-419,0,0,0,0,0,0,0,0,0,-1,1098,1443,0,0
-119,-419,0,0,0,0,0,0,0,0,0,-1,1105,1443,0,0
-112,-419,0,0,0,0,0,0,0,0,0,-1,1112,1443,0,0
-105,-419,0,0,0,0,0,0,0,0,0,-1,1119,1443,0,0
-98,-419,0,0,0,0,0,0,0,0,0,-1,1126,1443,0,0
-91,-419,0,0,0,0,0,0,0,0,0,-1,1133,1443,0,0
-84,-419,0,0,0,0,0,0,0,0,0,-1,1140,1443,0,0
-77,-419,0,0,0,0,0,0,0,0,0,-1,1147,1443,0,0
-70,-419,0,0,0,0,0,0,0,0,0,-1,1154,1443,0,0
-63,-419,0,0,0,0,0,0,0,0,0,-1,1161,1443,0,0
-56,-419,0,0,0,0,0,0,0,0,0,-1,1168,1443,0,0
-49,-419,0,0,0,0,0,0,0,0,0,-1,1175,1443,0,0
-42,-419,0,0,0,0,0,0,0,0,0,-1,1182,1443,0,0
-35,-419,0,0,0,0,0,0,0,0,0,-1,1189,1443,0,0
-28,-419,0,0,0,0,0,0,0,0,0,-1,1196,1443,0,0
-21,-419,0,0,0,0,0,0,0,0,0,-1,1203,1443,0,0
-14,-419,0,0,0,0,0,0,0,0,0,-1,1210,1443,0,0
-7,-419,0,0,0,0,0,0,0,0,0,-1,1217,1443,0,0
0,-419,0,0,0,0,0,0,0,0,0,-1,1224,1443,0,0
7,-419,0,0,0,0,0,0,0,0,0,-1,1231,1443,0,0
14,-419,0,0,0,0,0,0,0,0,0,-1,1238,1443,0,0
21,-419,0,0,0,0,0,0,0,0,0,-1,1245,1443,0,0
28,-419,0,0,0,0,0,0,0,0,0,-1,1252,1443,0,0
35,-419,0,0,0,0,0,0,0,0,0,-1,1259,1443,0,0
42,-419,0,0,0,0,0,0,0,0,0,-1,1266,1443,0,0
49,-419,0,0,0,0,0,0,0,0,0,-1,1273,1443,0,0
56,-419,0,0,0,0,0,0,0,0,0,-1,1280,1443,0,0
63,-419,0,0,0,0,0,0,0,0,0,-1,1287,1443,0,0
70,-419,0,0,0,0,0,0,0,0,0,-1,1294,1443,0,0
77,-419,0,0,0,0,0,0,0,0,0,-1,1301,1443,0,0
84,-419,0,0,0,0,0,0,0,0,0,-1,1308,1443,0,0
91,-419,0,0,0,0,0,0,0,0,0,-1,1315,1443,0,0
98,-419,0,0,0,0,0,0,0,0,0,-1,1322,1443,0,0
105,-419,0,0,0,0,0,0,0,0,0,-1,1329,1443,0,0
112,-419,0,0,0,0,0,0,0,0,0,-1,1336,1443,0,0
119,-419,0,0,0,0,0,0,0,0,0,-1,1343,1443,0,0
126,-419,0,0,0,0,0,0,0,0,0,-1,1350,1443,0,0
133,-419,0,0,0,0,0,0,0,0,0,-1,1357,1443,0,0
140,-419,0,0,0,0,0,0,0,0,0,-1,1364,1443,0,0
147,-419,0,0,0,0,0,0,0,0,0,-1,1371,1443,0,0
154,-419,0,0,0,0,0,0,0,0,0,-1,1378,1443,0,0
161,-419,0,0,0,0,0,0,0,0,0,-1,1385,1443,0,0
168,-419,0,0,0,0,0,0,0,0,0,-1,1392,1443,0,0
175,-419,0,0,0,0,0,0,0,0,0,-1,1399,1443,0,0
182,-419,0,0,0,0,0,0,0,0,0,-1,1406,1443,0,0
189,-419,0,0,0,0,0,0,0,0,0,-1,1413,1443,0,0
196,-419,0,0,0,0,0,0,0,0,0,-1,1420,1443,0,0
203,-419,0,0,0,0,0,0,0,0,0,-1,1427,1443,0,0
210,-419,0,0,0,0,0,0,0,0,0,-1,1434,1443,0,0
217,-419,0,0,0,0,0,0,0,0,0,-1,1441,1443,0,0
224,-419,0,0,0,0,0,0,0,0,0,-1,1448,1443,0,0
231,-419,0,0,0,0,0,0,0,0,0,-1,1455,1443,0,0
238,-419,0,0,0,0,0,0,0,0,0,-1,1462,1443,0,0
245,-419,0,0,0,0,0,0,0,0,0,-1,1469,1443,0,0
252,-419,0,0,0,0,0,0,0,0,0,-1,1476,1443,0,0
259,-419,0,0,0,0,0,0,0,0,0,-1,1483,1443,0,0
266,-419,0,0,0,0,0,0,0,0,0,-1,1490,1443,0,0
273,-419,0,0,0,0,0,0,0,0,0,-1,1497,1443,0,0
280,-419,0,0,0,0,0,0,0,0,0,-1,1504,1443,0,0
287,-419,0,0,0,0,0,0,0,0,0,-1,1511,1443,0,0
294,-419,0,0,0,0,0,0,0,0,0,-1,1518,1443,0,0
301,-419,0,0,0,0,0,0,0,0,0,-1,1525,1443,0,0
308,-419,0,0,0,0,0,0,0,0,0,-1,1532,1443,0,0
315,-419,0,0,0,0,0,0,0,0,0,-1,1539,1443,0,0
322,-419,0,0,0,0,0,0,0,0,0,-1,1546,1443,0,0
329,-419,0,0,0,0,0,0,0,0,0,-1,1553,1443,0,0
336,-419,0,0,0,0,0,0,0,0,0,-1,1560,1443,0,0
343,-419,0,0,0,0,0,0,0,0,0,-1,1567,1443,0,0
350,-419,0,0,0,0,0,0,0,0,0,-1,1574,1443,0,0
357,-419,0,0,0,0,0,0,0,0,0,-1,1581,1443,0,0
364,-419,0,0,0,0,0,0,0,0,0,-1,1588,1443,0,0
371,-419,0,0,0,0,0,0,0,0,0,-1,1595,1443,0,0
378,-419,0,0,0,0,0,0,0,0,0,-1,1602,1443,0,0
385,-419,0,0,0,0,0,0,0,0,0,-1,1609,1443,0,0
392,-419,0,0,0,0,0,0,0,0,0,-1,1616,1443,0,0
399,-419,0,0,0,0,0,0,0,0,0,-1,1623,1443,0,0
406,-419,0,0,0,0,0,0,0,0,0,-1,1630,1443,0,0
413,-419,0,0,0,0,0,0,0,0,0,-1,1637,1443,0,0
420,-419,0,0,0,0,0,0,0,0,0,-1,1644,1443,0,0
427,-419,0,0,0,0,0,0,0,0,0,-1,1651,1443,0,0
434,-419,0,0,0,0,0,0,0,0,0,-1,1658,1443,0,0
441,-419,0,0,0,0,0,0,0,0,0,-1,1665,1443,0,0
448,-419,0,0,0,0,0,0,0,0,0,-1,1672,1443,0,0
455,-419,0,0,0,0,0,0,0,0,0,-1,1679,1443,0,0
462,-419,0,0,0,0,0,0,0,0,0,-1,1686,1443,0,0
469,-419,0,0,0,0,0,0,0,0,0,-1,1693,1443,0,0
476,-419,0,0,0,0,0,0,0,0,0,-1,1700,1443,0,0
483,-419,0,0,0,0,0,0,0,0,0,-1,1707,1443,0,0
490,-419,0,0,0,0,0,0,0,0,0,-1,1714,1443,0,0
497,-419,0,0,0,0,0,0,0,0,0,-1,1721,1443,0,0
504,-419,0,0,0,0,0,0,0,0,0,-1,1728,1443,0,0
511,-419,20.3005,3.7959,0,0,0,0,0,0,0,-1,1735,1443,20.3005,-3.79584
518,-419,21.3154,2.03027,0,0,0,0,0,0,0,-1,1742,1443,21.3155,-2.03029
525,-419,20.1991,2.2738,0,0,0,0,0,0,0,-1,1749,1443,20.1991,-2.2738
532,-419,21.035,2.73364,0,0,0,0,0,0,0,-1,1756,1443,21.035,-2.73368
539,-419,20.0294,2.92896,0,0,0,0,0,0,0,-1,1763,1443,20.0294,-2.929
546,-419,18.7786,2.69104,0,0,0,0,0,0,0,-1,1770,1443,18.7785,-2.69107
553,-419,17.1881,2.40491,0,0,0,0,0,0,0,-1,1777,1443,17.1881,-2.40488
560,-419,11.8199,8.26343,0,0,0,0,0,0,0,-1,1784,1443,11.82,-8.26341
567,-419,15.7008,5.70764,0,0,0,0,0,0,0,-1,1791,1443,15.7009,-5.70764
574,-419,13.748,7.5249,0,0,0,0,0,0,0,-1,1798,1443,13.7481,-7.5249
581,-419,13.1829,7.57349,0,0,0,0,0,0,0,-1,1805,1443,13.1829,-7.57347
588,-419,13.9265,8.66797,0,0,0,0,0,0,0,-1,1812,1443,13.9266,-8.66796
595,-419,13.4852,8.4906,-0.0402474,-0.0185381,0.0220469,-0.00481857,-0.0539669,1.01415,0.0344842,0.0396853,1819,1443,13.4852,-8.49058
602,-419,13.0354,8.30957,-0.0311746,-0.0140998,0.0171687,-0.00346295,-0.0418114,1.01613,0.0267947,0.0153746,1826,1443,13.0355,-8.30961
609,-419,12.9784,8.06726,-0.023606,-0.0105509,0.0130147,-0.00251855,-0.0316384,1.01784,0.0203049,0.0103939,1833,1443,12.9784,-8.06729
616,-419,12.9576,7.88293,-0.017227,-0.00763328,0.0096184,-0.00168194,-0.0231783,1.01671,0.0149232,0.0118307,1840,1443,12.9576,-7.88294
623,-419,12.9586,7.63843,-0.0119545,-0.00531603,0.0068228,-0.00104792,-0.0162226,1.01179,0.0104832,0.010207,1847,1443,12.9586,-7.63844
630,-419,12.9836,7.38721,-0.00769917,-0.00358984,0.00459112,-0.00061459,-0.0106744,0.995797,0.00692052,0.0120736,1854,1443,12.9837,-7.3872
637,-419,12.9607,7.17126,-0.00422005,-0.00233827,0.00285153,-0.000276407,-0.00628191,0.944754,0.00409891,0.0127832,1861,1443,12.9607,-7.17123
644,-419,12.9558,6.95654,-0.00148124,-0.00135458,0.00167184,0.000255136,-0.00309095,0.804329,0.00215073,0.0118736,1868,1443,12.9558,-6.95658
651,-419,12.9568,6.73669,0.000919424,-0.000665338,0.000707318,0.00118919,-0.000935109,0.364369,0.00122939,0.011458,1875,1443,12.9568,-6.73667
658,-419,12.9399,6.50586,0.00223694,-0.000297684,0.00041703,0.0023038,-0.000364536,0.158953,0.00167069,0.0122871,1882,1443,12.9399,-6.5059
665,-419,12.9348,6.27014,0.00304592,-0.000179197,0.000501433,0.00312208,-0.00025536,0.150738,0.00217152,0.0197551,1889,1443,12.9348,-6.27012
672,-419,13.0216,6.03235,0.00348948,-0.000365032,0.000921249,0.00369834,-0.000573898,0.222951,0.00267744,0.025901,1896,1443,13.0216,-6.0323
679,-419,12.9673,5.953,0.00385773,-0.000575317,0.00147674,0.00430461,-0.0010222,0.293855,0.00326427,0.0471682,1903,1443,12.9673,-5.95304
686,-419,12.7725,5.98584,0,0,0,0,0,0,0,-1,1910,1443,12.7724,-5.98582
693,-419,8.76086,5.60535,0,0,0,0,0,0,0,-1,1917,1443,8.76091,-5.6054
700,-419,11.0498,4.85156,0,0,0,0,0,0,0,-1,1924,1443,11.0498,-4.85153
707,-419,9.5752,1.80042,0,0,0,0,0,0,0,-1,1931,1443,9.57523,-1.80037
714,-419,5.77576,-1.25061,0,0,0,0,0,0,0,-1,1938,1443,5.7757,1.25056
721,-419,0,0,0,0,0,0,0,0,0,-1,1945,1443,0,0
728,-419,0,0,0,0,0,0,0,0,0,-1,1952,1443,0,0
735,-419,0,0,0,0,0,0,0,0,0,-1,1959,1443,0,0
742,-419,0,0,0,0,0,0,0,0,0,-1,1966,1443,0,0
749,-419,0,0,0,0,0,0,0,0,0,-1,1973,1443,0,0
756,-419,0,0,0,0,0,0,0,0,0,-1,1980,1443,0,0
763,-419,0,0,0,0,0,0,0,0,0,-1,1987,1443,0,0
770,-419,0,0,0,0,0,0,0,0,0,-1,1994,1443,0,0
777,-419,0,0,0,0,0,0,0,0,0,-1,2001,1443,0,0
784,-419,0,0,0,0,0,0,0,0,0,-1,2008,1443,0,0
791,-419,0,0,0,0,0,0,0,0,0,-1,2015,1443,0,0
798,-419,0,0,0,0,0,0,0,0,0,-1,2022,1443,0,0
805,-419,0,0,0,0,0,0,0,0,0,-1,2029,1443,0,0
812,-419,0,0,0,0,0,0,0,0,0,-1,2036,1443,0,0
-700,-426,0,0,0,0,0,0,0,0,0,-1,524,1450,0,0
-693,-426,0,0,0,0,0,0,0,0,0,-1,531,1450,0,0
-686,-426,0,0,0,0,0,0,0,0,0,-1,538,1450,0,0
-679,-426,0,0,0,0,0,0,0,0,0,-1,545,1450,0,0
-672,-426,0,0,0,0,0,0,0,0,0,-1,552,1450,0,0
-665,-426,0,0,0,0,0,0,0,0,0,-1,559,1450,0,0
-658,-426,0,0,0,0,0,0,0,0,0,-1,566,1450,0,0
-651,-426,0,0,0,0,0,0,0,0,0,-1,573,1450,0,0
-644,-426,0,0,0,0,0,0,0,0,0,-1,580,1450,0,0
-637,-426,0,0,0,0,0,0,0,0,0,-1,587,1450,0,0
-630,-426,0,0,0,0,0,0,0,0,0,-1,594,1450,0,0
-623,-426,0,0,0,0,0,0,0,0,0,-1,601,1450,0,0
-616,-426,0,0,0,0,0,0,0,0,0,-1,608,1450,0,0
-609,-426,0,0,0,0,0,0,0,0,0,-1,615,1450,0,0
-602,-426,0,0,0,0,0,0,0,0,0,-1,622,1450,0,0
-595,-426,0,0,0,0,0,0,0,0,0,-1,629,1450,0,0
-588,-426,-4.39026,0.156494,0,0,0,0,0,0,0,-1,636,1450,-4.39027,-0.156543
-581,-426,-4.30518,-1.34998,0,0,0,0,0,0,0,-1,643,1450,-4.30517,1.34996
-574,-426,-3.67657,0.188232,0,0,0,0,0,0,0,-1,650,1450,-3.67657,-0.188214
-567,-426,-3.04797,1.72644,0,0,0,0,0,0,0,-1,657,1450,-3.04797,-1.72639
-560,-426,-4.54633,3.86047,0,0,0,0,0,0,0,-1,664,1450,-4.54633,-3.86043
-553,-426,-3.49445,3.85266,0,0,0,0,0,0,0,-1,671,1450,-3.49443,-3.85269
-546,-426,-3.51532,4.15015,0.0246397,0.00598809,0.00810616,0.0276703,0.00295751,0.357773,0.0175443,0.0486046,678,1450,-3.51535,-4.15019
-539,-426,-3.547,4.31311,0.019801,0.0023748,0.00659478,0.0220154,0.00016045,0.323945,0.0146237,0.0404121,685,1450,-3.54697,-4.31315
-532,-426,-3.61945,4.41809,0.0159796,-0.000229644,0.00526826,0.0175414,-0.00179143,0.288199,0.0123348,0.0258813,692,1450,-3.61945,-4.41811
-525,-426,-3.69446,4.6427,0.0129088,-0.00133133,0.004201,0.0140558,-0.00247829,0.266525,0.0102965,0.0141879,699,1450,-3.69447,-4.64267
-518,-426,-3.67725,4.92188,0.0100702,-0.00137115,0.00328011,0.0109438,-0.00224481,0.260308,0.00814789,0.0161406,706,1450,-3.67727,-4.92192
-511,-426,-3.67511,5.17957,0.00782157,-0.00127616,0.00226834,0.00835577,-0.00181035,0.231287,0.00626181,0.0152005,713,1450,-3.67511,-5.17954
-504,-426,-3.70514,5.42993,0.00538469,-0.00200754,0.00113067,0.00555377,-0.00217661,0.148433,0.00460292,0.0141369,720,1450,-3.70517,-5.4299
-497,-426,-3.70648,5.65723,0.00254023,-0.0033752,-0.000505732,0.00258315,-0.00341813,-0.0846749,0.003476,0.0116723,727,1450,-3.70649,-5.65722
-490,-426,-3.69293,5.91174,-0.00187578,-0.0058486,-0.00304425,-0.000227185,-0.0074972,-0.496329,0.00492415,0.0119026,734,1450,-3.69295,-5.91172
-483,-426,-3.69128,6.17407,-0.00769125,-0.0107897,-0.00653879,-0.00252066,-0.0159603,-0.669079,0.00990743,0.0112034,741,1450,-3.69127,-6.1741
-476,-426,-3.70026,6.42334,-0.0135578,-0.0164349,-0.0103182,-0.00457831,-0.0254143,-0.716136,0.0156418,0.00893832,748,1450,-3.70028,-6.42339
-469,-426,-3.70465,6.65967,-0.0214707,-0.0241389,-0.0152858,-0.00746087,-0.0381487,-0.741869,0.0233464,0.00747507,755,1450,-3.70463,-6.65968
-462,-426,-3.60699,6.93652,-0.031172,-0.0334509,-0.0212452,-0.0110357,-0.0535872,-0.758608,0.0326735,0.0158852,762,1450,-3.60701,-6.93651
-455,-426,-3.64307,6.96899,-0.0417917,-0.0436935,-0.0273936,-0.0153325,-0.0701527,-0.768049,0.0425878,0.0333803,769,1450,-3.64306,-6.96899
-448,-426,-3.94189,6.90601,-0.0531946,-0.0551952,-0.0343071,-0.0198732,-0.0885166,-0.770823,0.0536285,0.0427356,776,1450,-3.94188,-6.90601
-441,-426,-3.80774,6.77002,-0.064922,-0.0676867,-0.0414996,-0.0247817,-0.107827,-0.768749,0.065213,0.0442808,783,1450,-3.80773,-6.77007
-434,-426,-4.03625,5.04883,-0.07605,-0.0807815,-0.0485049,-0.0298532,-0.126978,-0.761031,0.0766637,0.04669,790,1450,-4.03628,-5.04878
-427,-426,-3.79413,5.15857,0,0,0,0,0,0,0,-1,797,1450,-3.79412,-5.15854
-420,-426,-3.79675,5.41992,0,0,0,0,0,0,0,-1,804,1450,-3.79676,-5.41996
-413,-426,-10.1148,5.0415,0,0,0,0,0,0,0,-1,811,1450,-10.1148,-5.04152
-406,-426,-11.4199,3.6438,0,0,0,0,0,0,0,-1,818,1450,-11.4198,-3.64382
-399,-426,-12.7595,2.29004,0,0,0,0,0,0,0,-1,825,1450,-12.7595,-2.29003
-392,-426,-12.4147,0.537354,0,0,0,0,0,0,0,-1,832,1450,-12.4147,-0.53731
-385,-426,0,0,0,0,0,0,0,0,0,-1,839,1450,0,0
-378,-426,0,0,0,0,0,0,0,0,0,-1,846,1450,0,0
-371,-426,0,0,0,0,0,0,0,0,0,-1,853,1450,0,0
-364,-426,0,0,0,0,0,0,0,0,0,-1,860,1450,0,0
-357,-426,0,0,0,0,0,0,0,0,0,-1,867,1450,0,0
-350,-426,0,0,0,0,0,0,0,0,0,-1,874,1450,0,0
-343,-426,0,0,0,0,0,0,0,0,0,-1,881,1450,0,0
-336,-426,0,0,0,0,0,0,0,0,0,-1,888,1450,0,0
-329,-426,0,0,0,0,0,0,0,0,0,-1,895,1450,0,0
-322,-426,0,0,0,0,0,0,0,0,0,-1,902,1450,0,0
-315,-426,0,0,0,0,0,0,0,0,0,-1,909,1450,0,0
-308,-426,0,0,0,0,0,0,0,0,0,-1,916,1450,0,0
-301,-426,0,0,0,0,0,0,0,0,0,-1,923,1450,0,0
-294,-426,0,0,0,0,0,0,0,0,0,-1,930,1450,0,0
-287,-426,0,0,0,0,0,0,0,0,0,-1,937,1450,0,0
-280,-426,0,0,0,0,0,0,0,0,0,-1,944,1450,0,0
-273,-426,0,0,0,0,0,0,0,0,0,-1,951,1450,0,0
-266,-426,0,0,0,0,0,0,0,0,0,-1,958,1450,0,0
-259,-426,0,0,0,0,0,0,0,0,0,-1,965,1450,0,0
-252,-426,0,0,0,0,0,0,0,0,0,-1,972,1450,0,0
-245,-426,0,0,0,0,0,0,0,0,0,-1,979,1450,0,0
-238,-426,0,0,0,0,0,0,0,0,0,-1,986,1450,0,0
-231,-426,0,0,0,0,0,0,0,0,0,-1,993,1450,0,0
-224,-426,0,0,0,0,0,0,0,0,0,-1,1000,1450,0,0
-217,-426,0,0,0,0,0,0,0,0,0,-1,1007,1450,0,0
-210,-426,0,0,0,0,0,0,0,0,0,-1,1014,1450,0,0
-203,-426,0,0,0,0,0,0,0,0,0,-1,1021,1450,0,0
-196,-426,0,0,0,0,0,0,0,0,0,-1,1028,1450,0,0
-189,-426,0,0,0,0,0,0,0,0,0,-1,1035,1450,0,0
-182,-426,0,0,0,0,0,0,0,0,0,-1,1042,1450,0,0
-175,-426,0,0,0,0,0,0,0,0,0,-1,1049,1450,0,0
-168,-426,0,0,0,0,0,0,0,0,0,-1,1056,1450,0,0
-161,-426,0,0,0,0,0,0,0,0,0,-1,1063,1450,0,0
-154,-426,0,0,0,0,0,0,0,0,0,-1,1070,1450,0,0
-147,-426,0,0,0,0,0,0,0,0,0,-1,1077,1450,0,0
-140,-426,0,0,0,0,0,0,0,0,0,-1,1084,1450,0,0
-133,-426,0,0,0,0,0,0,0,0,0,-1,1091,1450,0,0
-126,-426,0,0,0,0,0,0,0,0,0,-1,1098,1450,0,0
-119,-426,0,0,0,0,0,0,0,0,0,-1,1105,1450,0,0
-112,-426,0,0,0,0,0,0,0,0,0,-1,1112,1450,0,0
-105,-426,0,0,0,0,0,0,0,0,0,-1,1119,1450,0,0
-98,-426,0,0,0,0,0,0,0,0,0,-1,1126,1450,0,0
-91,-426,0,0,0,0,0,0,0,0,0,-1,1133,1450,0,0
-84,-426,0,0,0,0,0,0,0,0,0,-1,1140,1450,0,0
-77,-426,0,0,0,0,0,0,0,0,0,-1,1147,1450,0,0
-70,-426,0,0,0,0,0,0,0,0,0,-1,1154,1450,0,0
-63,-426,0,0,0,0,0,0,0,0,0,-1,1161,1450,0,0
-56,-426,0,0,0,0,0,0,0,0,0,-1,1168,1450,0,0
-49,-426,0,0,0,0,0,0,0,0,0,-1,1175,1450,0,0
-42,-426,0,0,0,0,0,0,0,0,0,-1,1182,1450,0,0
-35,-426,0,0,0,0,0,0,0,0,0,-1,1189,1450,0,0
-28,-426,0,0,0,0,0,0,0,0,0,-1,1196,1450,0,0
-21,-426,0,0,0,0,0,0,0,0,0,-1,1203,1450,0,0
-14,-426,0,0,0,0,0,0,0,0,0,-1,1210,1450,0,0
-7,-426,0,0,0,0,0,0,0,0,0,-1,1217,1450,0,0
0,-426,0,0,0,0,0,0,0,0,0,-1,1224,1450,0,0
7,-426,0,0,0,0,0,0,0,0,0,-1,1231,1450,0,0
14,-426,0,0,0,0,0,0,0,0,0,-1,1238,1450,0,0
21,-426,0,0,0,0,0,0,0,0,0,-1,1245,1450,0,0
28,-426,0,0,0,0,0,0,0,0,0,-1,1252,1450,0,0
35,-426,0,0,0,0,0,0,0,0,0,-1,1259,1450,0,0
42,-426,0,0,0,0,0,0,0,0,0,-1,1266,1450,0,0
49,-426,0,0,0,0,0,0,0,0,0,-1,1273,1450,0,0
56,-426,0,0,0,0,0,0,0,0,0,-1,1280,1450,0,0
63,-426,0,0,0,0,0,0,0,0,0,-1,1287,1450,0,0
70,-426,0,0,0,0,0,0,0,0,0,-1,1294,1450,0,0
77,-426,0,0,0,0,0,0,0,0,0,-1,1301,1450,0,0
84,-426,0,0,0,0,0,0,0,0,0,-1,1308,1450,0,0
91,-426,0,0,0,0,0,0,0,0,0,-1,1315,1450,0,0
98,-426,0,0,0,0,0,0,0,0,0,-1,1322,1450,0,0
105,-426,0,0,0,0,0,0,0,0,0,-1,1329,1450,0,0
112,-426,0,0,0,0,0,0,0,0,0,-1,1336,1450,0,0
119,-426,0,0,0,0,0,0,0,0,0,-1,1343,1450,0,0
126,-426,0,0,0,0,0,0,0,0,0,-1,1350,1450,0,0
133,-426,0,0,0,0,0,0,0,0,0,-1,1357,1450,0,0
140,-426,0,0,0,0,0,0,0,0,0,-1,1364,1450,0,0
147,-426,0,0,0,0,0,0,0,0,0,-1,1371,1450,0,0
154,-426,0,0,0,0,0,0,0,0,0,-1,1378,1450,0,0
161,-426,0,0,0,0,0,0,0,0,0,-1,1385,1450,0,0
168,-426,0,0,0,0,0,0,0,0,0,-1,1392,1450,0,0
175,-426,0,0,0,0,0,0,0,0,0,-1,1399,1450,0,0
182,-426,0,0,0,0,0,0,0,0,0,-1,1406,1450,0,0
189,-426,0,0,0,0,0,0,0,0,0,-1,1413,1450,0,0
196,-426,0,0,0,0,0,0,0,0,0,-1,1420,1450,0,0
203,-426,0,0,0,0,0,0,0,0,0,-1,1427,1450,0,0
210,-426,0,0,0,0,0,0,0,0,0,-1,1434,1450,0,0
217,-426,0,0,0,0,0,0,0,0,0,-1,1441,1450,0,0
224,-426,0,0,0,0,0,0,0,0,0,-1,1448,1450,0,0
231,-426,0,0,0,0,0,0,0,0,0,-1,1455,1450,0,0
238,-426,0,0,0,0,0,0,0,0,0,-1,1462,1450,0,0
245,-426,0,0,0,0,0,0,0,0,0,-1,1469,1450,0,0
252,-426,0,0,0,0,0,0,0,0,0,-1,1476,1450,0,0
259,-426,0,0,0,0,0,0,0,0,0,-1,1483,1450,0,0
266,-426,0,0,0,0,0,0,0,0,0,-1,1490,1450,0,0
273,-426,0,0,0,0,0,0,0,0,0,-1,1497,1450,0,0
280,-426,0,0,0,0,0,0,0,0,0,-1,1504,1450,0,0
287,-426,0,0,0,0,0,0,0,0,0,-1,1511,1450,0,0
294,-426,0,0,0,0,0,0,0,0,0,-1,1518,1450,0,0
301,-426,0,0,0,0,0,0,0,0,0,-1,1525,1450,0,0
308,-426,0,0,0,0,0,0,0,0,0,-1,1532,1450,0,0
315,-426,0,0,0,0,0,0,0,0,0,-1,1539,1450,0,0
322,-426,0,0,0,0,0,0,0,0,0,-1,1546,1450,0,0
329,-426,0,0,0,0,0,0,0,0,0,-1,1553,1450,0,0
336,-426,0,0,0,0,0,0,0,0,0,-1,1560,1450,0,0
343,-426,0,0,0,0,0,0,0,0,0,-1,1567,1450,0,0
350,-426,0,0,0,0,0,0,0,0,0,-1,1574,1450,0,0
357,-426,0,0,0,0,0,0,0,0,0,-1,1581,1450,0,0
364,-426,0,0,0,0,0,0,0,0,0,-1,1588,1450,0,0
371,-426,0,0,0,0,0,0,0,0,0,-1,1595,1450,0,0
378,-426,0,0,0,0,0,0,0,0,0,-1,1602,1450,0,0
385,-426,0,0,0,0,0,0,0,0,0,-1,1609,1450,0,0
392,-426,0,0,0,0,0,0,0,0,0,-1,1616,1450,0,0
399,-426,0,0,0,0,0,0,0,0,0,-1,1623,1450,0,0
406,-426,0,0,0,0,0,0,0,0,0,-1,1630,1450,0,0
413,-426,0,0,0,0,0,0,0,0,0,-1,1637,1450,0,0
420,-426,0,0,0,0,0,0,0,0,0,-1,1644,1450,0,0
427,-426,0,0,0,0,0,0,0,0,0,-1,1651,1450,0,0
434,-426,0,0,0,0,0,0,0,0,0,-1,1658,1450,0,0
441,-426,0,0,0,0,0,0,0,0,0,-1,1665,1450,0,0
448,-426,0,0,0,0,0,0,0,0,0,-1,1672,1450,0,0
455,-426,0,0,0,0,0,0,0,0,0,-1,1679,1450,0,0
462,-426,0,0,0,0,0,0,0,0,0,-1,1686,1450,0,0
469,-426,0,0,0,0,0,0,0,0,0,-1,1693,1450,0,0
476,-426,0,0,0,0,0,0,0,0,0,-1,1700,1450,0,0
483,-426,0,0,0,0,0,0,0,0,0,-1,1707,1450,0,0
490,-426,0,0,0,0,0,0,0,0,0,-1,1714,1450,0,0
497,-426,0,0,0,0,0,0,0,0,0,-1,1721,1450,0,0
504,-426,20.6873,3.38367,0,0,0,0,0,0,0,-1,1728,1450,20.6873,-3.38361
511,-426,19.6676,3.53748,0,0,0,0,0,0,0,-1,1735,1450,19.6676,-3.53749
518,-426,18.6853,3.32288,0,0,0,0,0,0,0,-1,1742,1450,18.6853,-3.3229
525,-426,18.9552,2.71033,0,0,0,0,0,0,0,-1,1749,1450,18.9552,-2.71034
532,-426,17.764,2.81616,0,0,0,0,0,0,0,-1,1756,1450,17.764,-2.81611
539,-426,16.9565,3.07593,0,0,0,0,0,0,0,-1,1763,1450,16.9566,-3.07593
546,-426,16.1915,3.49744,0,0,0,0,0,0,0,-1,1770,1450,16.1916,-3.4975
553,-426,11.6804,8.90308,0,0,0,0,0,0,0,-1,1777,1450,11.6805,-8.90309
560,-426,11.7726,8.02771,0,0,0,0,0,0,0,-1,1784,1450,11.7725,-8.02773
567,-426,11.1727,8.76721,0,0,0,0,0,0,0,-1,1791,1450,11.1727,-8.76724
574,-426,12.8683,8.1709,0,0,0,0,0,0,0,-1,1798,1450,12.8683,-8.17084
581,-426,13.2457,8.4762,0,0,0,0,0,0,0,-1,1805,1450,13.2457,-8.47619
588,-426,12.7927,8.78613,0,0,0,0,0,0,0,-1,1812,1450,12.7927,-8.78609
595,-426,12.7764,8.52917,-0.0310664,-0.0147609,0.0172674,-0.00381838,-0.0420089,1.00596,0.0268239,0.0272834,1819,1450,12.7763,-8.52916
602,-426,12.7719,8.28259,-0.0242693,-0.0111217,0.0134994,-0.00268055,-0.0327104,1.01198,0.0209706,0.0148718,1826,1450,12.7718,-8.28258
609,-426,12.7599,8.04419,-0.0184476,-0.00821551,0.0102448,-0.00188035,-0.0247828,1.01697,0.0159321,0.0114081,1833,1450,12.7599,-8.04425
616,-426,12.7574,7.85596,-0.0133156,-0.00583749,0.00752483,-0.00117396,-0.0179792,1.01598,0.0116146,0.0131869,1840,1450,12.7575,-7.85595
623,-426,12.7505,7.61853,-0.0090114,-0.00397166,0.00527719,-0.00064358,-0.0123395,1.00814,0.0080204,0.0112207,1847,1450,12.7505,-7.61856
630,-426,12.7565,7.39111,-0.00546124,-0.00261869,0.00346367,-0.000296032,-0.0077839,0.980092,0.00509346,0.0118069,1854,1450,12.7565,-7.39116
637,-426,12.7604,7.16553,-0.00243442,-0.00166241,0.00201684,5.03287e-06,-0.00410186,0.87995,0.00273625,0.0126049,1861,1450,12.7603,-7.16551
644,-426,12.733,6.96545,4.31895e-05,-0.000924959,0.00104946,0.000714835,-0.0015966,0.569309,0.0013665,0.0124774,1868,1450,12.7331,-6.9655
651,-426,12.7236,6.75708,0.00215273,-0.0004697,0.000336395,0.00219519,-0.000512164,0.125568,0.00166072,0.0121457,1875,1450,12.7236,-6.75702
658,-426,12.7333,6.49915,0.00335827,-0.000281902,0.000191168,0.00336828,-0.000291914,0.0523245,0.00234888,0.0116214,1882,1450,12.7333,-6.49919
665,-426,12.7743,6.20264,0.00412893,-0.000387205,0.000383975,0.00416134,-0.000419619,0.0842175,0.00292415,0.018315,1889,1450,12.7742,-6.20262
672,-426,12.7661,5.94519,0.00462579,-0.000764255,0.000907393,0.00477444,-0.000912911,0.162385,0.00352687,0.0319649,1896,1450,12.7661,-5.94523
679,-426,12.5564,5.91382,0,0,0,0,0,0,0,-1,1903,1450,12.5565,-5.91386
686,-426,12.552,5.96545,0,0,0,0,0,0,0,-1,1910,1450,12.5521,-5.96547
693,-426,11.8607,6.45215,0,0,0,0,0,0,0,-1,1917,1450,11.8607,-6.45215
700,-426,9.24304,2.95447,0,0,0,0,0,0,0,-1,1924,1450,9.24305,-2.95442
707,-426,8.44519,-1.21448,0,0,0,0,0,0,0,-1,1931,1450,8.44514,1.21454
714,-426,0,0,0,0,0,0,0,0,0,-1,1938,1450,0,0
721,-426,0,0,0,0,0,0,0,0,0,-1,1945,1450,0,0
728,-426,0,0,0,0,0,0,0,0,0,-1,1952,1450,0,0
735,-426,0,0,0,0,0,0,0,0,0,-1,1959,1450,0,0
742,-426,0,0,0,0,0,0,0,0,0,-1,1966,1450,0,0
749,-426,0,0,0,0,0,0,0,0,0,-1,1973,1450,0,0
756,-426,0,0,0,0,0,0,0,0,0,-1,1980,1450,0,0
763,-426,0,0,0,0,0,0,0,0,0,-1,1987,1450,0,0
770,-426,0,0,0,0,0,0,0,0,0,-1,1994,1450,0,0
777,-426,0,0,0,0,0,0,0,0,0,-1,2001,1450,0,0
784,-426,0,0,0,0,0,0,0,0,0,-1,2008,1450,0,0
791,-426,0,0,0,0,0,0,0,0,0,-1,2015,1450,0,0
798,-426,0,0,0,0,0,0,0,0,0,-1,2022,1450,0,0
805,-426,0,0,0,0,0,0,0,0,0,-1,2029,1450,0,0
812,-426,0,0,0,0,0,0,0,0,0,-1,2036,1450,0,0
-700,-433,0,0,0,0,0,0,0,0,0,-1,524,1457,0,0
-693,-433,0,0,0,0,0,0,0,0,0,-1,531,1457,0,0
-686,-433,0,0,0,0,0,0,0,0,0,-1,538,1457,0,0
-679,-433,0,0,0,0,0,0,0,0,0,-1,545,1457,0,0
-672,-433,0,0,0,0,0,0,0,0,0,-1,552,1457,0,0
-665,-433,0,0,0,0,0,0,0,0,0,-1,559,1457,0,0
-658,-433,0,0,0,0,0,0,0,0,0,-1,566,1457,0,0
-651,-433,0,0,0,0,0,0,0,0,0,-1,573,1457,0,0
-644,-433,0,0,0,0,0,0,0,0,0,-1,580,1457,0,0
-637,-433,0,0,0,0,0,0,0,0,0,-1,587,1457,0,0
-630,-433,0,0,0,0,0,0,0,0,0,-1,594,1457,0,0
-623,-433,0,0,0,0,0,0,0,0,0,-1,601,1457,0,0
-616,-433,0,0,0,0,0,0,0,0,0,-1,608,1457,0,0
-609,-433,0,0,0,0,0,0,0,0,0,-1,615,1457,0,0
-602,-433,0,0,0,0,0,0,0,0,0,-1,622,1457,0,0
-595,-433,0,0,0,0,0,0,0,0,0,-1,629,1457,0,0
-588,-433,-4.99121,-0.205688,0,0,0,0,0,0,0,-1,636,1457,-4.99119,0.205667
-581,-433,-4.98511,-1.28406,0,0,0,0,0,0,0,-1,643,1457,-4.9851,1.28405
-574,-433,-4.46533,0.146606,0,0,0,0,0,0,0,-1,650,1457,-4.46531,-0.146606
-567,-433,-5.42255,1.16833,0,0,0,0,0,0,0,-1,657,1457,-5.42254,-1.1683
-560,-433,-4.78809,2.01306,0,0,0,0,0,0,0,-1,664,1457,-4.78806,-2.01303
-553,-433,-4.32501,2.20544,0,0,0,0,0,0,0,-1,671,1457,-4.32499,-2.20549
-546,-433,-3.36407,4.46887,0,0,0,0,0,0,0,-1,678,1457,-3.36406,-4.46882
-539,-433,-3.56171,4.4259,0.0282824,0.00164068,0.00927662,0.0311942,-0.00127117,0.304152,0.0212326,0.0469336,685,1457,-3.56174,-4.42595
-532,-433,-3.35327,4.51221,0.0228055,-0.000511121,0.0074788,0.0249981,-0.00270376,0.285188,0.0176359,0.0307238,692,1457,-3.35326,-4.51218
-525,-433,-3.40015,4.67078,0.0182595,-0.00124726,0.00596882,0.019941,-0.0029287,0.274588,0.01437,0.0185592,699,1457,-3.40013,-4.67075
-518,-433,-3.42688,4.91846,0.0141699,-0.0011077,0.00465817,0.0154781,-0.00241596,0.273799,0.0112112,0.0159775,706,1457,-3.42686,-4.91843
-511,-433,-3.43744,5.19177,0.0108439,-0.000956449,0.00333333,0.0117204,-0.00183294,0.257126,0.00849076,0.0153801,713,1457,-3.43746,-5.19171
-504,-433,-3.44708,5.42566,0.00777043,-0.0014125,0.00203025,0.00819927,-0.00184134,0.208166,0.0061722,0.0118779,720,1457,-3.4471,-5.42571
-497,-433,-3.43567,5.65222,0.00473462,-0.00235233,0.000420489,0.00475948,-0.00237719,0.0590567,0.00419618,0.0132444,727,1457,-3.43568,-5.65223
-490,-433,-3.4516,5.91309,0.000794752,-0.00425867,-0.00185254,0.00140112,-0.00486503,-0.316326,0.00379756,0.0153942,734,1457,-3.45158,-5.91313
-483,-433,-3.45544,6.18005,-0.00406994,-0.00827921,-0.00488583,-0.000854722,-0.0114944,-0.582027,0.00739453,0.0154734,741,1457,-3.45542,-6.18006
-476,-433,-3.43982,6.43811,-0.00880171,-0.0129488,-0.00819334,-0.00242363,-0.0193269,-0.661461,0.0121575,0.0104848,748,1457,-3.43985,-6.4381
-469,-433,-3.42603,6.67737,-0.0148165,-0.0192103,-0.0123311,-0.00448813,-0.0295387,-0.697245,0.01838,0.0105113,755,1457,-3.42603,-6.67735
-462,-433,-3.44055,6.92578,-0.0220619,-0.0269416,-0.0173017,-0.00702886,-0.0419746,-0.71535,0.0259593,0.010153,762,1457,-3.44056,-6.92576
-455,-433,-3.28296,7.18494,-0.0300692,-0.0357554,-0.0225443,-0.0101894,-0.0556352,-0.722673,0.0342034,0.0243119,769,1457,-3.28295,-7.1849
-448,-433,-3.23456,6.83667,-0.0387478,-0.0458389,-0.0284948,-0.0135788,-0.0710078,-0.723502,0.0435242,0.0346786,776,1457,-3.23456,-6.83673
-441,-433,-3.32507,6.28186,-0.0479692,-0.0570664,-0.0348015,-0.0174204,-0.0876152,-0.720416,0.0535562,0.0411415,783,1457,-3.32508,-6.28188
-434,-433,-3.62872,6.22253,-0.0572149,-0.0691747,-0.0411074,-0.0216548,-0.104735,-0.71317,0.0638412,0.0425782,790,1457,-3.62874,-6.2225
-427,-433,-3.70599,6.07581,-0.0658107,-0.081736,-0.0468985,-0.0262037,-0.121343,-0.701308,0.0737296,0.0433348,797,1457,-3.706,-6.07584
-420,-433,-3.58173,5.97034,-0.0730583,-0.0943546,-0.0515561,-0.0310622,-0.136351,-0.683562,0.0825187,0.0495833,804,1457,-3.58175,-5.97034
-413,-433,-3.63074,5.5813,0,0,0,0,0,0,0,-1,811,1457,-3.63072,-5.58129
-406,-433,-12.3472,4.69373,0,0,0,0,0,0,0,-1,818,1457,-12.3472,-4.69374
-399,-433,-12.055,2.83594,0,0,0,0,0,0,0,-1,825,1457,-12.055,-2.83594
-392,-433,-12.9772,1.6228,0,0,0,0,0,0,0,-1,832,1457,-12.9772,-1.62282
-385,-433,-13.7999,0.514771,0,0,0,0,0,0,0,-1,839,1457,-13.7999,-0.514788
-378,-433,0,0,0,0,0,0,0,0,0,-1,846,1457,0,0
-371,-433,0,0,0,0,0,0,0,0,0,-1,853,1457,0,0
-364,-433,0,0,0,0,0,0,0,0,0,-1,860,1457,0,0
-357,-433,0,0,0,0,0,0,0,0,0,-1,867,1457,0,0
-350,-433,0,0,0,0,0,0,0,0,0,-1,874,1457,0,0
-343,-433,0,0,0,0,0,0,0,0,0,-1,881,1457,0,0
-336,-433,0,0,0,0,0,0,0,0,0,-1,888,1457,0,0
-329,-433,0,0,0,0,0,0,0,0,0,-1,895,1457,0,0
-322,-433,0,0,0,0,0,0,0,0,0,-1,902,1457,0,0
-315,-433,0,0,0,0,0,0,0,0,0,-1,909,1457,0,0
-308,-433,0,0,0,0,0,0,0,0,0,-1,916,1457,0,0
-301,-433,0,0,0,0,0,0,0,0,0,-1,923,1457,0,0
-294,-433,0,0,0,0,0,0,0,0,0,-1,930,1457,0,0
-287,-433,0,0,0,0,0,0,0,0,0,-1,937,1457,0,0
-280,-433,0,0,0,0,0,0,0,0,0,-1,944,1457,0,0
-273,-433,0,0,0,0,0,0,0,0,0,-1,951,1457,0,0
-266,-433,0,0,0,0,0,0,0,0,0,-1,958,1457,0,0
-259,-433,0,0,0,0,0,0,0,0,0,-1,965,1457,0,0
-252,-433,0,0,0,0,0,0,0,0,0,-1,972,1457,0,0
-245,-433,0,0,0,0,0,0,0,0,0,-1,979,1457,0,0
-238,-433,0,0,0,0,0,0,0,0,0,-1,986,1457,0,0
-231,-433,0,0,0,0,0,0,0,0,0,-1,993,1457,0,0
-224,-433,0,0,0,0,0,0,0,0,0,-1,1000,1457,0,0
-217,-433,0,0,0,0,0,0,0,0,0,-1,1007,1457,0,0
-210,-433,0,0,0,0,0,0,0,0,0,-1,1014,1457,0,0
-203,-433,0,0,0,0,0,0,0,0,0,-1,1021,1457,0,0
-196,-433,0,0,0,0,0,0,0,0,0,-1,1028,1457,0,0
-189,-433,0,0,0,0,0,0,0,0,0,-1,1035,1457,0,0
-182,-433,0,0,0,0,0,0,0,0,0,-1,1042,1457,0,0
-175,-433,0,0,0,0,0,0,0,0,0,-1,1049,1457,0,0
-168,-433,0,0,0,0,0,0,0,0,0,-1,1056,1457,0,0
-161,-433,0,0,0,0,0,0,0,0,0,-1,1063,1457,0,0
-154,-433,0,0,0,0,0,0,0,0,0,-1,1070,1457,0,0
-147,-433,0,0,0,0,0,0,0,0,0,-1,1077,1457,0,0
-140,-433,0,0,0,0,0,0,0,0,0,-1,1084,1457,0,0
-133,-433,0,0,0,0,0,0,0,0,0,-1,1091,1457,0,0
-126,-433,0,0,0,0,0,0,0,0,0,-1,1098,1457,0,0
-119,-433,0,0,0,0,0,0,0,0,0,-1,1105,1457,0,0
-112,-433,0,0,0,0,0,0,0,0,0,-1,1112,1457,0,0
-105,-433,0,0,0,0,0,0,0,0,0,-1,1119,1457,0,0
-98,-433,0,0,0,0,0,0,0,0,0,-1,1126,1457,0,0
-91,-433,0,0,0,0,0,0,0,0,0,-1,1133,1457,0,0
-84,-433,0,0,0,0,0,0,0,0,0,-1,1140,1457,0,0
-77,-433,0,0,0,0,0,0,0,0,0,-1,1147,1457,0,0
-70,-433,0,0,0,0,0,0,0,0,0,-1,1154,1457,0,0
-63,-433,0,0,0,0,0,0,0,0,0,-1,1161,1457,0,0
-56,-433,0,0,0,0,0,0,0,0,0,-1,1168,1457,0,0
-49,-433,0,0,0,0,0,0,0,0,0,-1,1175,1457,0,0
-42,-433,0,0,0,0,0,0,0,0,0,-1,1182,1457,0,0
-35,-433,0,0,0,0,0,0,0,0,0,-1,1189,1457,0,0
-28,-433,0,0,0,0,0,0,0,0,0,-1,1196,1457,0,0
-21,-433,0,0,0,0,0,0,0,0,0,-1,1203,1457,0,0
-14,-433,0,0,0,0,0,0,0,0,0,-1,1210,1457,0,0
-7,-433,0,0,0,0,0,0,0,0,0,-1,1217,1457,0,0
0,-433,0,0,0,0,0,0,0,0,0,-1,1224,1457,0,0
7,-433,0,0,0,0,0,0,0,0,0,-1,1231,1457,0,0
14,-433,0,0,0,0,0,0,0,0,0,-1,1238,1457,0,0
21,-433,0,0,0,0,0,0,0,0,0,-1,1245,1457,0,0
28,-433,0,0,0,0,0,0,0,0,0,-1,1252,1457,0,0
35,-433,0,0,0,0,0,0,0,0,0,-1,1259,1457,0,0
42,-433,0,0,0,0,0,0,0,0,0,-1,1266,1457,0,0
49,-433,0,0,0,0,0,0,0,0,0,-1,1273,1457,0,0
56,-433,0,0,0,0,0,0,0,0,0,-1,1280,1457,0,0
63,-433,0,0,0,0,0,0,0,0,0,-1,1287,1457,0,0
70,-433,0,0,0,0,0,0,0,0,0,-1,1294,1457,0,0
77,-433,0,0,0,0,0,0,0,0,0,-1,1301,1457,0,0
84,-433,0,0,0,0,0,0,0,0,0,-1,1308,1457,0,0
91,-433,0,0,0,0,0,0,0,0,0,-1,1315,1457,0,0
98,-433,0,0,0,0,0,0,0,0,0,-1,1322,1457,0,0
105,-433,0,0,0,0,0,0,0,0,0,-1,1329,1457,0,0
112,-433,0,0,0,0,0,0,0,0,0,-1,1336,1457,0,0
119,-433,0,0,0,0,0,0,0,0,0,-1,1343,1457,0,0
126,-433,0,0,0,0,0,0,0,0,0,-1,1350,1457,0,0
133,-433,0,0,0,0,0,0,0,0,0,-1,1357,1457,0,0
140,-433,0,0,0,0,0,0,0,0,0,-1,1364,1457,0,0
147,-433,0,0,0,0,0,0,0,0,0,-1,1371,1457,0,0
154,-433,0,0,0,0,0,0,0,0,0,-1,1378,1457,0,0
161,-433,0,0,0,0,0,0,0,0,0,-1,1385,1457,0,0
168,-433,0,0,0,0,0,0,0,0,0,-1,1392,1457,0,0
175,-433,0,0,0,0,0,0,0,0,0,-1,1399,1457,0,0
182,-433,0,0,0,0,0,0,0,0,0,-1,1406,1457,0,0
189,-433,0,0,0,0,0,0,0,0,0,-1,1413,1457,0,0
196,-433,0,0,0,0,0,0,0,0,0,-1,1420,1457,0,0
203,-433,0,0,0,0,0,0,0,0,0,-1,1427,1457,0,0
210,-433,0,0,0,0,0,0,0,0,0,-1,1434,1457,0,0
217,-433,0,0,0,0,0,0,0,0,0,-1,1441,1457,0,0
224,-433,0,0,0,0,0,0,0,0,0,-1,1448,1457,0,0
231,-433,0,0,0,0,0,0,0,0,0,-1,1455,1457,0,0
238,-433,0,0,0,0,0,0,0,0,0,-1,1462,1457,0,0
245,-433,0,0,0,0,0,0,0,0,0,-1,1469,1457,0,0
252,-433,0,0,0,0,0,0,0,0,0,-1,1476,1457,0,0
259,-433,0,0,0,0,0,0,0,0,0,-1,1483,1457,0,0
266,-433,0,0,0,0,0,0,0,0,0,-1,1490,1457,0,0
273,-433,0,0,0,0,0,0,0,0,0,-1,1497,1457,0,0
280,-433,0,0,0,0,0,0,0,0,0,-1,1504,1457,0,0
287,-433,0,0,0,0,0,0,0,0,0,-1,1511,1457,0,0
294,-433,0,0,0,0,0,0,0,0,0,-1,1518,1457,0,0
301,-433,0,0,0,0,0,0,0,0,0,-1,1525,1457,0,0
308,-433,0,0,0,0,0,0,0,0,0,-1,1532,1457,0,0
315,-433,0,0,0,0,0,0,0,0,0,-1,1539,1457,0,0
322,-433,0,0,0,0,0,0,0,0,0,-1,1546,1457,0,0
329,-433,0,0,0,0,0,0,0,0,0,-1,1553,1457,0,0
336,-433,0,0,0,0,0,0,0,0,0,-1,1560,1457,0,0
343,-433,0,0,0,0,0,0,0,0,0,-1,1567,1457,0,0
350,-433,0,0,0,0,0,0,0,0,0,-1,1574,1457,0,0
357,-433,0,0,0,0,0,0,0,0,0,-1,1581,1457,0,0
364,-433,0,0,0,0,0,0,0,0,0,-1,1588,1457,0,0
371,-433,0,0,0,0,0,0,0,0,0,-1,1595,1457,0,0
378,-433,0,0,0,0,0,0,0,0,0,-1,1602,1457,0,0
385,-433,0,0,0,0,0,0,0,0,0,-1,1609,1457,0,0
392,-433,0,0,0,0,0,0,0,0,0,-1,1616,1457,0,0
399,-433,0,0,0,0,0,0,0,0,0,-1,1623,1457,0,0
406,-433,0,0,0,0,0,0,0,0,0,-1,1630,1457,0,0
413,-433,0,0,0,0,0,0,0,0,0,-1,1637,1457,0,0
420,-433,0,0,0,0,0,0,0,0,0,-1,1644,1457,0,0
427,-433,0,0,0,0,0,0,0,0,0,-1,1651,1457,0,0
434,-433,0,0,0,0,0,0,0,0,0,-1,1658,1457,0,0
441,-433,0,0,0,0,0,0,0,0,0,-1,1665,1457,0,0
448,-433,0,0,0,0,0,0,0,0,0,-1,1672,1457,0,0
455,-433,0,0,0,0,0,0,0,0,0,-1,1679,1457,0,0
462,-433,0,0,0,0,0,0,0,0,0,-1,1686,1457,0,0
469,-433,0,0,0,0,0,0,0,0,0,-1,1693,1457,0,0
476,-433,0,0,0,0,0,0,0,0,0,-1,1700,1457,0,0
483,-433,0,0,0,0,0,0,0,0,0,-1,1707,1457,0,0
490,-433,0,0,0,0,0,0,0,0,0,-1,1714,1457,0,0
497,-433,0,0,0,0,0,0,0,0,0,-1,1721,1457,0,0
504,-433,19.9058,3.03662,0,0,0,0,0,0,0,-1,1728,1457,19.9058,-3.03656
511,-433,19.0145,3.07837,0,0,0,0,0,0,0,-1,1735,1457,19.0146,-3.07834
518,-433,18.071,3.06433,0,0,0,0,0,0,0,-1,1742,1457,18.071,-3.06432
525,-433,17.2048,3.37085,0,0,0,0,0,0,0,-1,1749,1457,17.2049,-3.37083
532,-433,16.5637,3.36646,0,0,0,0,0,0,0,-1,1756,1457,16.5637,-3.36643
539,-433,15.9193,3.30396,0,0,0,0,0,0,0,-1,1763,1457,15.9193,-3.30394
546,-433,11.3518,8.02502,0,0,0,0,0,0,0,-1,1770,1457,11.3518,-8.025
553,-433,11.7994,8.73254,0,0,0,0,0,0,0,-1,1777,1457,11.7995,-8.73248
560,-433,13.3429,8.78528,0,0,0,0,0,0,0,-1,1784,1457,13.3429,-8.78532
567,-433,13.1272,8.38501,0,0,0,0,0,0,0,-1,1791,1457,13.1272,-8.38502
574,-433,12.9515,9.16248,0,0,0,0,0,0,0,-1,1798,1457,12.9515,-9.16243
581,-433,12.9252,8.8468,-0.0357608,-0.0202363,0.0204105,-0.00616186,-0.0498352,0.967106,0.0313719,0.0402229,1805,1457,12.9252,-8.84674
588,-433,12.6969,8.59741,-0.0290881,-0.0154027,0.0164989,-0.00438377,-0.040107,0.981971,0.0254031,0.0358125,1812,1457,12.6969,-8.59739
595,-433,12.4827,8.51538,-0.0233348,-0.0117248,0.0132283,-0.00308382,-0.0319758,0.992162,0.0203673,0.0226641,1819,1457,12.4827,-8.51536
602,-433,12.531,8.28333,-0.0183006,-0.00876626,0.0103818,-0.00210938,-0.0249574,1.00063,0.0159816,0.019797,1826,1457,12.531,-8.28328
609,-433,12.5455,8.03662,-0.0138815,-0.0064143,0.00791593,-0.00139566,-0.0189001,1.00576,0.0121616,0.0151218,1833,1457,12.5455,-8.03663
616,-433,12.5337,7.82642,-0.00978311,-0.00450797,0.00581771,-0.000757854,-0.0135332,0.998224,0.00878044,0.0124612,1840,1457,12.5337,-7.8264
623,-433,12.5148,7.60571,-0.00630455,-0.00303519,0.00408753,-0.000267586,-0.00907215,0.975616,0.00596091,0.0098443,1847,1457,12.5148,-7.6057
630,-433,12.5042,7.39087,-0.00336763,-0.00200805,0.00268452,8.14113e-05,-0.00545709,0.909404,0.0036655,0.012547,1854,1457,12.5042,-7.39085
637,-433,12.5195,7.16455,-0.000743388,-0.00130555,0.00153846,0.000539458,-0.0025884,0.695043,0.0019307,0.0138071,1861,1457,12.5195,-7.16453
644,-433,12.527,6.96191,0.00151973,-0.000769683,0.000771413,0.0017554,-0.00100535,0.296495,0.00161341,0.014633,1868,1457,12.5269,-6.96197
651,-433,12.528,6.75562,0.00339753,-0.0004802,0.000285297,0.00341841,-0.000501078,0.0730489,0.00246301,0.0113554,1875,1457,12.5279,-6.75558
658,-433,12.5275,6.49304,0.00460782,-0.000403908,0.000214319,0.00461696,-0.000413056,0.0426597,0.00322449,0.0139183,1882,1457,12.5275,-6.49307
665,-433,12.4849,6.198,0.00555171,-0.000637859,0.000414189,0.0055793,-0.000665453,0.066522,0.00396003,0.0207633,1889,1457,12.4848,-6.19804
672,-433,12.5647,6.25513,0.00636653,-0.00110299,0.000912871,0.00647647,-0.00121294,0.119863,0.00477361,0.0384866,1896,1457,12.5647,-6.25508
679,-433,12.5553,6.33545,0.00693989,-0.00165905,0.00157311,0.00721865,-0.0019378,0.175378,0.00557184,0.0398418,1903,1457,12.5553,-6.33548
686,-433,12.4858,5.99524,0,0,0,0,0,0,0,-1,1910,1457,12.4858,-5.99528
693,-433,12.4923,5.4408,0,0,0,0,0,0,0,-1,1917,1457,12.4923,-5.44083
700,-433,7.16809,-1.5166,0,0,0,0,0,0,0,-1,1924,1457,7.16806,1.51656
707,-433,8.68359,-2.82202,0,0,0,0,0,0,0,-1,1931,1457,8.68359,2.82197
714,-433,0,0,0,0,0,0,0,0,0,-1,1938,1457,0,0
721,-433,0,0,0,0,0,0,0,0,0,-1,1945,1457,0,0
728,-433,0,0,0,0,0,0,0,0,0,-1,1952,1457,0,0
735,-433,0,0,0,0,0,0,0,0,0,-1,1959,1457,0,0
742,-433,0,0,0,0,0,0,0,0,0,-1,1966,1457,0,0
749,-433,0,0,0,0,0,0,0,0,0,-1,1973,1457,0,0
756,-433,0,0,0,0,0,0,0,0,0,-1,1980,1457,0,0
763,-433,0,0,0,0,0,0,0,0,0,-1,1987,1457,0,0
770,-433,0,0,0,0,0,0,0,0,0,-1,1994,1457,0,0
777,-433,0,0,0,0,0,0,0,0,0,-1,2001,1457,0,0
784,-433,0,0,0,0,0,0,0,0,0,-1,2008,1457,0,0
791,-433,0,0,0,0,0,0,0,0,0,-1,2015,1457,0,0
798,-433,0,0,0,0,0,0,0,0,0,-1,2022,1457,0,0
805,-433,0,0,0,0,0,0,0,0,0,-1,2029,1457,0,0
812,-433,0,0,0,0,0,0,0,0,0,-1,2036,1457,0,0
-700,-440,0,0,0,0,0,0,0,0,0,-1,524,1464,0,0
-693,-440,0,0,0,0,0,0,0,0,0,-1,531,1464,0,0
-686,-440,0,0,0,0,0,0,0,0,0,-1,538,1464,0,0
-679,-440,0,0,0,0,0,0,0,0,0,-1,545,1464,0,0
-672,-440,0,0,0,0,0,0,0,0,0,-1,552,1464,0,0
-665,-440,0,0,0,0,0,0,0,0,0,-1,559,1464,0,0
-658,-440,0,0,0,0,0,0,0,0,0,-1,566,1464,0,0
-651,-440,0,0,0,0,0,0,0,0,0,-1,573,1464,0,0
-644,-440,0,0,0,0,0,0,0,0,0,-1,580,1464,0,0
-637,-440,0,0,0,0,0,0,0,0,0,-1,587,1464,0,0
-630,-440,0,0,0,0,0,0,0,0,0,-1,594,1464,0,0
-623,-440,0,0,0,0,0,0,0,0,0,-1,601,1464,0,0
-616,-440,0,0,0,0,0,0,0,0,0,-1,608,1464,0,0
-609,-440,0,0,0,0,0,0,0,0,0,-1,615,1464,0,0
-602,-440,0,0,0,0,0,0,0,0,0,-1,622,1464,0,0
-595,-440,0,0,0,0,0,0,0,0,0,-1,629,1464,0,0
-588,-440,0,0,0,0,0,0,0,0,0,-1,636,1464,0,0
-581,-440,-5.65979,-1.33923,0,0,0,0,0,0,0,-1,643,1464,-5.65977,1.33928
-574,-440,-7.00818,-0.918579,0,0,0,0,0,0,0,-1,650,1464,-7.00817,0.918538
-567,-440,-6.12152,-0.0766602,0,0,0,0,0,0,0,-1,657,1464,-6.12151,0.0767097
-560,-440,-5.46747,0.82251,0,0,0,0,0,0,0,-1,664,1464,-5.46748,-0.822551
-553,-440,-4.9046,1.32935,0,0,0,0,0,0,0,-1,671,1464,-4.90458,-1.32932
-546,-440,-4.28607,2.17822,0,0,0,0,0,0,0,-1,678,1464,-4.28608,-2.17822
-539,-440,-3.56744,4.64417,0,0,0,0,0,0,0,-1,685,1464,-3.56743,-4.64413
-532,-440,-3.2337,4.49402,0.0308827,-0.000950834,0.00999034,0.0337583,-0.00382636,0.280255,0.0238834,0.0379301,692,1464,-3.23372,-4.49396
-525,-440,-3.18726,4.68079,0.0243371,-0.00098142,0.00794416,0.0266233,-0.00326762,0.280211,0.0189323,0.0190513,699,1464,-3.18726,-4.68082
-518,-440,-3.19818,4.88,0.0186332,-0.000728976,0.00614922,0.0204211,-0.00251681,0.282942,0.0145259,0.0136162,706,1464,-3.19816,-4.87998
-511,-440,-3.17377,5.14246,0.0140135,-0.000557827,0.00445172,0.0152659,-0.00181024,0.274243,0.0108312,0.0153368,713,1464,-3.17377,-5.14248
-504,-440,-3.15326,5.39868,0.0101013,-0.000812524,0.0029307,0.0108385,-0.00154971,0.246428,0.00779376,0.0178433,720,1464,-3.15326,-5.39866
-497,-440,-3.14398,5.6217,0.00668378,-0.00143825,0.00130691,0.00688889,-0.00164337,0.155676,0.00522721,0.0213619,727,1464,-3.14401,-5.62165
-490,-440,-3.17786,5.86182,0.0029863,-0.00289891,-0.000751402,0.00308072,-0.00299334,-0.125005,0.00350698,0.0212985,734,1464,-3.17784,-5.86179
-483,-440,-3.20514,6.13855,-0.00122623,-0.00612519,-0.00338256,0.000500611,-0.00785203,-0.472022,0.00540928,0.0178921,741,1464,-3.20514,-6.13859
-476,-440,-3.18964,6.41541,-0.00515624,-0.00996143,-0.00627875,-0.000836098,-0.0142816,-0.602666,0.00925495,0.0122853,748,1464,-3.18961,-6.41544
-469,-440,-3.18927,6.68176,-0.00971554,-0.014956,-0.0096718,-0.00231533,-0.0223562,-0.653116,0.0141955,0.0120945,755,1464,-3.18929,-6.68176
-462,-440,-3.19641,6.94421,-0.0149106,-0.0212407,-0.013705,-0.00400994,-0.0321413,-0.671916,0.0202238,0.0134775,762,1464,-3.19644,-6.94421
-455,-440,-3.12866,7.21106,-0.0206788,-0.028662,-0.0180473,-0.00618687,-0.0431539,-0.676564,0.0269448,0.017184,769,1464,-3.12866,-7.21109
-448,-440,-2.92328,7.29065,-0.0268754,-0.0373118,-0.0229801,-0.00852854,-0.0556587,-0.673754,0.034615,0.0284724,776,1464,-2.92329,-7.29063
-441,-440,-3.20563,7.02942,-0.0337504,-0.0471401,-0.0283406,-0.0113246,-0.0695659,-0.669411,0.0431012,0.036965,783,1464,-3.20561,-7.02946
-434,-440,-3.40656,7.0813,-0.0409832,-0.0580584,-0.0338459,-0.0146147,-0.084427,-0.661851,0.0521009,0.043758,790,1464,-3.40654,-7.08135
-427,-440,-3.39435,7.02454,-0.0481711,-0.0697789,-0.0391064,-0.0184037,-0.0995464,-0.650625,0.0611597,0.0428198,797,1464,-3.39435,-7.0245
-420,-440,-3.36182,6.51855,-0.0548294,-0.0819902,-0.0436138,-0.0227306,-0.114089,-0.634467,0.0697286,0.0466074,804,1464,-3.3618,-6.51852
-413,-440,-3.46796,5.72278,0,0,0,0,0,0,0,-1,811,1464,-3.46797,-5.72276
-406,-440,-5.2887,5.20264,0,0,0,0,0,0,0,-1,818,1464,-5.2887,-5.20261
-399,-440,-12.7318,3.94421,0,0,0,0,0,0,0,-1,825,1464,-12.7318,-3.94419
-392,-440,-13.5565,2.51855,0,0,0,0,0,0,0,-1,832,1464,-13.5565,-2.51861
-385,-440,-14.6741,1.39795,0,0,0,0,0,0,0,-1,839,1464,-14.6741,-1.39801
-378,-440,-15.8063,0.293457,0,0,0,0,0,0,0,-1,846,1464,-15.8063,-0.293412
-371,-440,0,0,0,0,0,0,0,0,0,-1,853,1464,0,0
-364,-440,0,0,0,0,0,0,0,0,0,-1,860,1464,0,0
-357,-440,0,0,0,0,0,0,0,0,0,-1,867,1464,0,0
-350,-440,0,0,0,0,0,0,0,0,0,-1,874,1464,0,0
-343,-440,0,0,0,0,0,0,0,0,0,-1,881,1464,0,0
-336,-440,0,0,0,0,0,0,0,0,0,-1,888,1464,0,0
-329,-440,0,0,0,0,0,0,0,0,0,-1,895,1464,0,0
-322,-440,0,0,0,0,0,0,0,0,0,-1,902,1464,0,0
-315,-440,0,0,0,0,0,0,0,0,0,-1,909,1464,0,0
-308,-440,0,0,0,0,0,0,0,0,0,-1,916,1464,0,0
-301,-440,0,0,0,0,0,0,0,0,0,-1,923,1464,0,0
-294,-440,0,0,0,0,0,0,0,0,0,-1,930,1464,0,0
-287,-440,0,0,0,0,0,0,0,0,0,-1,937,1464,0,0
-280,-440,0,0,0,0,0,0,0,0,0,-1,944,1464,0,0
-273,-440,0,0,0,0,0,0,0,0,0,-1,951,1464,0,0
-266,-440,0,0,0,0,0,0,0,0,0,-1,958,1464,0,0
-259,-440,0,0,0,0,0,0,0,0,0,-1,965,1464,0,0
-252,-440,0,0,0,0,0,0,0,0,0,-1,972,1464,0,0
-245,-440,0,0,0,0,0,0,0,0,0,-1,979,1464,0,0
-238,-440,0,0,0,0,0,0,0,0,0,-1,986,1464,0,0
-231,-440,0,0,0,0,0,0,0,0,0,-1,993,1464,0,0
-224,-440,0,0,0,0,0,0,0,0,0,-1,1000,1464,0,0
-217,-440,0,0,0,0,0,0,0,0,0,-1,1007,1464,0,0
-210,-440,0,0,0,0,0,0,0,0,0,-1,1014,1464,0,0
-203,-440,0,0,0,0,0,0,0,0,0,-1,1021,1464,0,0
-196,-440,0,0,0,0,0,0,0,0,0,-1,1028,1464,0,0
-189,-440,0,0,0,0,0,0,0,0,0,-1,1035,1464,0,0
-182,-440,0,0,0,0,0,0,0,0,0,-1,1042,1464,0,0
-175,-440,0,0,0,0,0,0,0,0,0,-1,1049,1464,0,0
-168,-440,0,0,0,0,0,0,0,0,0,-1,1056,1464,0,0
-161,-440,0,0,0,0,0,0,0,0,0,-1,1063,1464,0,0
-154,-440,0,0,0,0,0,0,0,0,0,-1,1070,1464,0,0
-147,-440,0,0,0,0,0,0,0,0,0,-1,1077,1464,0,0
-140,-440,0,0,0,0,0,0,0,0,0,-1,1084,1464,0,0
-133,-440,0,0,0,0,0,0,0,0,0,-1,1091,1464,0,0
-126,-440,0,0,0,0,0,0,0,0,0,-1,1098,1464,0,0
-119,-440,0,0,0,0,0,0,0,0,0,-1,1105,1464,0,0
-112,-440,0,0,0,0,0,0,0,0,0,-1,1112,1464,0,0
-105,-440,0,0,0,0,0,0,0,0,0,-1,1119,1464,0,0
-98,-440,0,0,0,0,0,0,0,0,0,-1,1126,1464,0,0
-91,-440,0,0,0,0,0,0,0,0,0,-1,1133,1464,0,0
-84,-440,0,0,0,0,0,0,0,0,0,-1,1140,1464,0,0
-77,-440,0,0,0,0,0,0,0,0,0,-1,1147,1464,0,0
-70,-440,0,0,0,0,0,0,0,0,0,-1,1154,1464,0,0
-63,-440,0,0,0,0,0,0,0,0,0,-1,1161,1464,0,0
-56,-440,0,0,0,0,0,0,0,0,0,-1,1168,1464,0,0
-49,-440,0,0,0,0,0,0,0,0,0,-1,1175,1464,0,0
-42,-440,0,0,0,0,0,0,0,0,0,-1,1182,1464,0,0
-35,-440,0,0,0,0,0,0,0,0,0,-1,1189,1464,0,0
-28,-440,0,0,0,0,0,0,0,0,0,-1,1196,1464,0,0
-21,-440,0,0,0,0,0,0,0,0,0,-1,1203,1464,0,0
-14,-440,0,0,0,0,0,0,0,0,0,-1,1210,1464,0,0
-7,-440,0,0,0,0,0,0,0,0,0,-1,1217,1464,0,0
0,-440,0,0,0,0,0,0,0,0,0,-1,1224,1464,0,0
7,-440,0,0,0,0,0,0,0,0,0,-1,1231,1464,0,0
14,-440,0,0,0,0,0,0,0,0,0,-1,1238,1464,0,0
21,-440,0,0,0,0,0,0,0,0,0,-1,1245,1464,0,0
28,-440,0,0,0,0,0,0,0,0,0,-1,1252,1464,0,0
35,-440,0,0,0,0,0,0,0,0,0,-1,1259,1464,0,0
42,-440,0,0,0,0,0,0,0,0,0,-1,1266,1464,0,0
49,-440,0,0,0,0,0,0,0,0,0,-1,1273,1464,0,0
56,-440,0,0,0,0,0,0,0,0,0,-1,1280,1464,0,0
63,-440,0,0,0,0,0,0,0,0,0,-1,1287,1464,0,0
70,-440,0,0,0,0,0,0,0,0,0,-1,1294,1464,0,0
77,-440,0,0,0,0,0,0,0,0,0,-1,1301,1464,0,0
84,-440,0,0,0,0,0,0,0,0,0,-1,1308,1464,0,0
91,-440,0,0,0,0,0,0,0,0,0,-1,1315,1464,0,0
98,-440,0,0,0,0,0,0,0,0,0,-1,1322,1464,0,0
105,-440,0,0,0,0,0,0,0,0,0,-1,1329,1464,0,0
112,-440,0,0,0,0,0,0,0,0,0,-1,1336,1464,0,0
119,-440,0,0,0,0,0,0,0,0,0,-1,1343,1464,0,0
126,-440,0,0,0,0,0,0,0,0,0,-1,1350,1464,0,0
133,-440,0,0,0,0,0,0,0,0,0,-1,1357,1464,0,0
140,-440,0,0,0,0,0,0,0,0,0,-1,1364,1464,0,0
147,-440,0,0,0,0,0,0,0,0,0,-1,1371,1464,0,0
154,-440,0,0,0,0,0,0,0,0,0,-1,1378,1464,0,0
161,-440,0,0,0,0,0,0,0,0,0,-1,1385,1464,0,0
168,-440,0,0,0,0,0,0,0,0,0,-1,1392,1464,0,0
175,-440,0,0,0,0,0,0,0,0,0,-1,1399,1464,0,0
182,-440,0,0,0,0,0,0,0,0,0,-1,1406,1464,0,0
189,-440,0,0,0,0,0,0,0,0,0,-1,1413,1464,0,0
196,-440,0,0,0,0,0,0,0,0,0,-1,1420,1464,0,0
203,-440,0,0,0,0,0,0,0,0,0,-1,1427,1464,0,0
210,-440,0,0,0,0,0,0,0,0,0,-1,1434,1464,0,0
217,-440,0,0,0,0,0,0,0,0,0,-1,1441,1464,0,0
224,-440,0,0,0,0,0,0,0,0,0,-1,1448,1464,0,0
231,-440,0,0,0,0,0,0,0,0,0,-1,1455,1464,0,0
238,-440,0,0,0,0,0,0,0,0,0,-1,1462,1464,0,0
245,-440,0,0,0,0,0,0,0,0,0,-1,1469,1464,0,0
252,-440,0,0,0,0,0,0,0,0,0,-1,1476,1464,0,0
259,-440,0,0,0,0,0,0,0,0,0,-1,1483,1464,0,0
266,-440,0,0,0,0,0,0,0,0,0,-1,1490,1464,0,0
273,-440,0,0,0,0,0,0,0,0,0,-1,1497,1464,0,0
280,-440,0,0,0,0,0,0,0,0,0,-1,1504,1464,0,0
287,-440,0,0,0,0,0,0,0,0,0,-1,1511,1464,0,0
294,-440,0,0,0,0,0,0,0,0,0,-1,1518,1464,0,0
301,-440,0,0,0,0,0,0,0,0,0,-1,1525,1464,0,0
308,-440,0,0,0,0,0,0,0,0,0,-1,1532,1464,0,0
315,-440,0,0,0,0,0,0,0,0,0,-1,1539,1464,0,0
322,-440,0,0,0,0,0,0,0,0,0,-1,1546,1464,0,0
329,-440,0,0,0,0,0,0,0,0,0,-1,1553,1464,0,0
336,-440,0,0,0,0,0,0,0,0,0,-1,1560,1464,0,0
343,-440,0,0,0,0,0,0,0,0,0,-1,1567,1464,0,0
350,-440,0,0,0,0,0,0,0,0,0,-1,1574,1464,0,0
357,-440,0,0,0,0,0,0,0,0,0,-1,1581,1464,0,0
364,-440,0,0,0,0,0,0,0,0,0,-1,1588,1464,0,0
371,-440,0,0,0,0,0,0,0,0,0,-1,1595,1464,0,0
378,-440,0,0,0,0,0,0,0,0,0,-1,1602,1464,0,0
385,-440,0,0,0,0,0,0,0,0,0,-1,1609,1464,0,0
392,-440,0,0,0,0,0,0,0,0,0,-1,1616,1464,0,0
399,-440,0,0,0,0,0,0,0,0,0,-1,1623,1464,0,0
406,-440,0,0,0,0,0,0,0,0,0,-1,1630,1464,0,0
413,-440,0,0,0,0,0,0,0,0,0,-1,1637,1464,0,0
420,-440,0,0,0,0,0,0,0,0,0,-1,1644,1464,0,0
427,-440,0,0,0,0,0,0,0,0,0,-1,1651,1464,0,0
434,-440,0,0,0,0,0,0,0,0,0,-1,1658,1464,0,0
441,-440,0,0,0,0,0,0,0,0,0,-1,1665,1464,0,0
448,-440,0,0,0,0,0,0,0,0,0,-1,1672,1464,0,0
455,-440,0,0,0,0,0,0,0,0,0,-1,1679,1464,0,0
462,-440,0,0,0,0,0,0,0,0,0,-1,1686,1464,0,0
469,-440,0,0,0,0,0,0,0,0,0,-1,1693,1464,0,0
476,-440,0,0,0,0,0,0,0,0,0,-1,1700,1464,0,0
483,-440,0,0,0,0,0,0,0,0,0,-1,1707,1464,0,0
490,-440,0,0,0,0,0,0,0,0,0,-1,1714,1464,0,0
497,-440,16.965,-0.528442,0,0,0,0,0,0,0,-1,1721,1464,16.965,0.528492
504,-440,15.8052,0.670166,0,0,0,0,0,0,0,-1,1728,1464,15.8052,-0.670145
511,-440,17.5754,2.77832,0,0,0,0,0,0,0,-1,1735,1464,17.5754,-2.77826
518,-440,16.9017,3.07861,0,0,0,0,0,0,0,-1,1742,1464,16.9018,-3.07859
525,-440,18.4495,12.0867,0,0,0,0,0,0,0,-1,1749,1464,18.4495,-12.0867
532,-440,15.4319,3.64392,0,0,0,0,0,0,0,-1,1756,1464,15.4318,-3.64391
539,-440,14.8214,3.41321,0,0,0,0,0,0,0,-1,1763,1464,14.8214,-3.4132
546,-440,11.4041,8.26465,0,0,0,0,0,0,0,-1,1770,1464,11.4041,-8.26463
553,-440,13.6676,9.2583,0,0,0,0,0,0,0,-1,1777,1464,13.6676,-9.2583
560,-440,13.3076,9.00659,-0.0462845,-0.0325961,0.0268825,-0.0117002,-0.0671804,0.910049,0.0414412,0.0405464,1784,1464,13.3076,-9.00655
567,-440,12.8113,8.74292,-0.0386934,-0.0264462,0.0228067,-0.00895527,-0.0561844,0.916555,0.0348567,0.0450996,1791,1464,12.8112,-8.74296
574,-440,12.5559,8.60559,-0.0321146,-0.0209596,0.019045,-0.00669214,-0.046382,0.927844,0.0289496,0.0492631,1798,1464,12.5559,-8.60565
581,-440,12.4662,8.87537,-0.0262941,-0.0163047,0.0155552,-0.00496194,-0.0376368,0.940746,0.0236117,0.0387289,1805,1464,12.4662,-8.87532
588,-440,12.2911,8.81274,-0.0211611,-0.0122827,0.0123903,-0.00356039,-0.0298834,0.957413,0.0188479,0.0280201,1812,1464,12.2911,-8.81279
595,-440,12.2909,8.55505,-0.0169624,-0.00931207,0.00994617,-0.00248085,-0.0237936,0.968972,0.0151035,0.0194922,1819,1464,12.2909,-8.55506
602,-440,12.3088,8.26904,-0.0133418,-0.00694769,0.00786078,-0.0016587,-0.0186308,0.978537,0.0119062,0.0185807,1826,1464,12.3088,-8.26906
609,-440,12.307,8.04675,-0.0101062,-0.0050836,0.00607948,-0.00101715,-0.0141726,0.981261,0.00912827,0.0161669,1833,1464,12.307,-8.04672
616,-440,12.2931,7.87146,-0.00694176,-0.00360409,0.00455392,-0.000422853,-0.010123,0.96103,0.00661222,0.0164172,1840,1464,12.2931,-7.87142
623,-440,12.3126,7.62195,-0.00424737,-0.00249463,0.00332783,7.02951e-05,-0.00681229,0.914148,0.00456514,0.0123284,1847,1464,12.3126,-7.62192
630,-440,12.2892,7.37769,-0.00192183,-0.00177369,0.00235697,0.000510374,-0.0042059,0.801106,0.00298862,0.0108912,1854,1464,12.2892,-7.3777
637,-440,12.2968,7.18152,0.00026795,-0.00130079,0.00155755,0.00122749,-0.00226032,0.55214,0.00204291,0.0151045,1861,1464,12.2967,-7.18155
644,-440,12.3225,6.97876,0.00229462,-0.000937308,0.00101938,0.00258927,-0.00123196,0.281385,0.00225211,0.0144124,1868,1464,12.3224,-6.9787
651,-440,12.3394,6.73022,0.00397627,-0.000755872,0.000754436,0.00409364,-0.000873239,0.154333,0.00306196,0.0121388,1875,1464,12.3394,-6.73019
658,-440,12.3081,6.51465,0.00529266,-0.00069363,0.000712521,0.0053763,-0.000777269,0.116851,0.0038694,0.0171031,1882,1464,12.3081,-6.5147
665,-440,12.4048,6.32361,0.00668424,-0.000879562,0.000799257,0.00676777,-0.000963096,0.104136,0.00486476,0.0294096,1889,1464,12.4047,-6.32355
672,-440,12.4832,6.26233,0.0082383,-0.00118268,0.00105364,0.0083547,-0.00129908,0.110029,0.0060495,0.0426745,1896,1464,12.4831,-6.26233
679,-440,12.5056,6.40137,0.00981837,-0.00147337,0.00130939,0.00996822,-0.00162322,0.113946,0.0072474,0.0421938,1903,1464,12.5056,-6.40134
686,-440,12.5767,6.46265,0,0,0,0,0,0,0,-1,1910,1464,12.5767,-6.46266
693,-440,9.88635,2.89795,0,0,0,0,0,0,0,-1,1917,1464,9.88638,-2.89798
700,-440,7.07825,-2.62061,0,0,0,0,0,0,0,-1,1924,1464,7.07829,2.62057
707,-440,0,0,0,0,0,0,0,0,0,-1,1931,1464,0,0
714,-440,0,0,0,0,0,0,0,0,0,-1,1938,1464,0,0
721,-440,0,0,0,0,0,0,0,0,0,-1,1945,1464,0,0
728,-440,0,0,0,0,0,0,0,0,0,-1,1952,1464,0,0
735,-440,0,0,0,0,0,0,0,0,0,-1,1959,1464,0,0
742,-440,0,0,0,0,0,0,0,0,0,-1,1966,1464,0,0
749,-440,0,0,0,0,0,0,0,0,0,-1,1973,1464,0,0
756,-440,0,0,0,0,0,0,0,0,0,-1,1980,1464,0,0
763,-440,0,0,0,0,0,0,0,0,0,-1,1987,1464,0,0
770,-440,0,0,0,0,0,0,0,0,0,-1,1994,1464,0,0
777,-440,0,0,0,0,0,0,0,0,0,-1,2001,1464,0,0
784,-440,0,0,0,0,0,0,0,0,0,-1,2008,1464,0,0
791,-440,0,0,0,0,0,0,0,0,0,-1,2015,1464,0,0
798,-440,0,0,0,0,0,0,0,0,0,-1,2022,1464,0,0
805,-440,0,0,0,0,0,0,0,0,0,-1,2029,1464,0,0
812,-440,0,0,0,0,0,0,0,0,0,-1,2036,1464,0,0
-700,-447,0,0,0,0,0,0,0,0,0,-1,524,1471,0,0
-693,-447,0,0,0,0,0,0,0,0,0,-1,531,1471,0,0
-686,-447,0,0,0,0,0,0,0,0,0,-1,538,1471,0,0
-679,-447,0,0,0,0,0,0,0,0,0,-1,545,1471,0,0
-672,-447,0,0,0,0,0,0,0,0,0,-1,552,1471,0,0
-665,-447,0,0,0,0,0,0,0,0,0,-1,559,1471,0,0
-658,-447,0,0,0,0,0,0,0,0,0,-1,566,1471,0,0
-651,-447,0,0,0,0,0,0,0,0,0,-1,573,1471,0,0
-644,-447,0,0,0,0,0,0,0,0,0,-1,580,1471,0,0
-637,-447,0,0,0,0,0,0,0,0,0,-1,587,1471,0,0
-630,-447,0,0,0,0,0,0,0,0,0,-1,594,1471,0,0
-623,-447,0,0,0,0,0,0,0,0,0,-1,601,1471,0,0
-616,-447,0,0,0,0,0,0,0,0,0,-1,608,1471,0,0
-609,-447,0,0,0,0,0,0,0,0,0,-1,615,1471,0,0
-602,-447,0,0,0,0,0,0,0,0,0,-1,622,1471,0,0
-595,-447,0,0,0,0,0,0,0,0,0,-1,629,1471,0,0
-588,-447,0,0,0,0,0,0,0,0,0,-1,636,1471,0,0
-581,-447,-7.06482,-1.50476,0,0,0,0,0,0,0,-1,643,1471,-7.0648,1.50474
-574,-447,-6.88092,-0.00585938,0,0,0,0,0,0,0,-1,650,1471,-6.88095,0.00589852
-567,-447,-6.8205,-1.32178,0,0,0,0,0,0,0,-1,657,1471,-6.82047,1.32172
-560,-447,-6.14691,-0.36792,0,0,0,0,0,0,0,-1,664,1471,-6.14689,0.367932
-553,-447,-5.48419,0.453125,0,0,0,0,0,0,0,-1,671,1471,-5.48418,-0.453149
-546,-447,-4.48792,1.69177,0,0,0,0,0,0,0,-1,678,1471,-4.48791,-1.69179
-539,-447,-4.91791,4.1001,0,0,0,0,0,0,0,-1,685,1471,-4.91792,-4.1001
-532,-447,-3.40924,4.39978,0.0402606,-0.00102401,0.0131171,0.0440757,-0.00483911,0.283039,0.0311225,0.0472201,692,1471,-3.40922,-4.39974
-525,-447,-2.88623,4.76758,0.0312156,-0.000532362,0.01034,0.0342863,-0.00360301,0.288673,0.0241483,0.030307,699,1471,-2.88626,-4.7676
-518,-447,-2.92493,4.87036,0.0235492,-0.000332986,0.00794286,0.0259496,-0.00273339,0.293482,0.0182791,0.0226664,706,1471,-2.9249,-4.87031
-511,-447,-2.91162,5.12122,0.0173965,-0.000207863,0.00583458,0.0191547,-0.00196602,0.292679,0.013473,0.016602,713,1471,-2.91165,-5.12121
-504,-447,-2.89221,5.41565,0.0124369,-0.000314695,0.00404612,0.0136124,-0.00149018,0.282738,0.00961027,0.0205537,720,1471,-2.8922,-5.41564
-497,-447,-2.90186,5.6814,0.00844468,-0.000707279,0.00235119,0.00901338,-0.00127598,0.237318,0.00647628,0.0246271,727,1471,-2.90188,-5.68137
-490,-447,-2.90674,5.8833,0.00476465,-0.00180643,0.000433947,0.00479319,-0.00183497,0.0656589,0.00395177,0.0227642,734,1471,-2.90673,-5.88329
-483,-447,-2.95508,6.1377,0.000934682,-0.0043389,-0.00188314,0.00153809,-0.00494231,-0.310089,0.00390975,0.0191258,741,1471,-2.95507,-6.13771
-476,-447,-2.94135,6.40149,-0.00247846,-0.00744839,-0.00445934,0.000141548,-0.0100684,-0.531202,0.00675994,0.0135033,748,1471,-2.94136,-6.40149
-469,-447,-2.94403,6.68298,-0.00599095,-0.0113524,-0.00724171,-0.000949701,-0.0163936,-0.608131,0.0106267,0.0130327,755,1471,-2.94403,-6.68304
-462,-447,-2.95422,6.95288,-0.00959426,-0.0163581,-0.0104683,-0.00197512,-0.0239772,-0.629159,0.0153688,0.0124011,762,1471,-2.95425,-6.95293
-455,-447,-2.97406,7.19788,-0.0135442,-0.0224665,-0.0139947,-0.00331679,-0.0326938,-0.631103,0.0207787,0.0125856,769,1471,-2.97406,-7.19786
-448,-447,-2.88348,7.42932,-0.0176929,-0.029677,-0.0179812,-0.00473165,-0.0426383,-0.624566,0.0269869,0.0180311,776,1471,-2.88346,-7.42936
-441,-447,-2.8457,7.62927,-0.0225048,-0.0379785,-0.0224018,-0.00654144,-0.0539418,-0.619128,0.0339912,0.0287895,783,1471,-2.84569,-7.62927
-434,-447,-2.96454,7.69446,-0.0276466,-0.0472222,-0.0270201,-0.00869616,-0.0661726,-0.611629,0.041521,0.0416711,790,1471,-2.96454,-7.69443
-427,-447,-3.00293,7.77344,0,0,0,0,0,0,0,-1,797,1471,-3.00293,-7.77346
-420,-447,-2.99927,7.31848,0,0,0,0,0,0,0,-1,804,1471,-2.99927,-7.31845
-413,-447,-2.57367,6.3988,0,0,0,0,0,0,0,-1,811,1471,-2.57369,-6.39884
-406,-447,-1.04279,6.18591,0,0,0,0,0,0,0,-1,818,1471,-1.04276,-6.18586
-399,-447,0.0134888,0.687622,0,0,0,0,0,0,0,-1,825,1471,0.0134841,-0.68767
-392,-447,-14.0646,3.76147,0,0,0,0,0,0,0,-1,832,1471,-14.0646,-3.7615
-385,-447,-15.1695,2.61865,0,0,0,0,0,0,0,-1,839,1471,-15.1695,-2.61871
-378,-447,-15.9424,1.49316,0,0,0,0,0,0,0,-1,846,1471,-15.9424,-1.49313
-371,-447,-17.3655,0.73291,0,0,0,0,0,0,0,-1,853,1471,-17.3655,-0.732946
-364,-447,0,0,0,0,0,0,0,0,0,-1,860,1471,0,0
-357,-447,0,0,0,0,0,0,0,0,0,-1,867,1471,0,0
-350,-447,0,0,0,0,0,0,0,0,0,-1,874,1471,0,0
-343,-447,0,0,0,0,0,0,0,0,0,-1,881,1471,0,0
-336,-447,0,0,0,0,0,0,0,0,0,-1,888,1471,0,0
-329,-447,0,0,0,0,0,0,0,0,0,-1,895,1471,0,0
-322,-447,0,0,0,0,0,0,0,0,0,-1,902,1471,0,0
-315,-447,0,0,0,0,0,0,0,0,0,-1,909,1471,0,0
-308,-447,0,0,0,0,0,0,0,0,0,-1,916,1471,0,0
-301,-447,0,0,0,0,0,0,0,0,0,-1,923,1471,0,0
-294,-447,0,0,0,0,0,0,0,0,0,-1,930,1471,0,0
-287,-447,0,0,0,0,0,0,0,0,0,-1,937,1471,0,0
-280,-447,0,0,0,0,0,0,0,0,0,-1,944,1471,0,0
-273,-447,0,0,0,0,0,0,0,0,0,-1,951,1471,0,0
-266,-447,0,0,0,0,0,0,0,0,0,-1,958,1471,0,0
-259,-447,0,0,0,0,0,0,0,0,0,-1,965,1471,0,0
-252,-447,0,0,0,0,0,0,0,0,0,-1,972,1471,0,0
-245,-447,0,0,0,0,0,0,0,0,0,-1,979,1471,0,0
-238,-447,0,0,0,0,0,0,0,0,0,-1,986,1471,0,0
-231,-447,0,0,0,0,0,0,0,0,0,-1,993,1471,0,0
-224,-447,0,0,0,0,0,0,0,0,0,-1,1000,1471,0,0
-217,-447,0,0,0,0,0,0,0,0,0,-1,1007,1471,0,0
-210,-447,0,0,0,0,0,0,0,0,0,-1,1014,1471,0,0
-203,-447,0,0,0,0,0,0,0,0,0,-1,1021,1471,0,0
-196,-447,0,0,0,0,0,0,0,0,0,-1,1028,1471,0,0
-189,-447,0,0,0,0,0,0,0,0,0,-1,1035,1471,0,0
-182,-447,0,0,0,0,0,0,0,0,0,-1,1042,1471,0,0
-175,-447,0,0,0,0,0,0,0,0,0,-1,1049,1471,0,0
-168,-447,0,0,0,0,0,0,0,0,0,-1,1056,1471,0,0
-161,-447,0,0,0,0,0,0,0,0,0,-1,1063,1471,0,0
-154,-447,0,0,0,0,0,0,0,0,0,-1,1070,1471,0,0
-147,-447,0,0,0,0,0,0,0,0,0,-1,1077,1471,0,0
-140,-447,0,0,0,0,0,0,0,0,0,-1,1084,1471,0,0
-133,-447,0,0,0,0,0,0,0,0,0,-1,1091,1471,0,0
-126,-447,0,0,0,0,0,0,0,0,0,-1,1098,1471,0,0
-119,-447,0,0,0,0,0,0,0,0,0,-1,1105,1471,0,0
-112,-447,0,0,0,0,0,0,0,0,0,-1,1112,1471,0,0
-105,-447,0,0,0,0,0,0,0,0,0,-1,1119,1471,0,0
-98,-447,0,0,0,0,0,0,0,0,0,-1,1126,1471,0,0
-91,-447,0,0,0,0,0,0,0,0,0,-1,1133,1471,0,0
-84,-447,0,0,0,0,0,0,0,0,0,-1,1140,1471,0,0
-77,-447,0,0,0,0,0,0,0,0,0,-1,1147,1471,0,0
-70,-447,0,0,0,0,0,0,0,0,0,-1,1154,1471,0,0
-63,-447,0,0,0,0,0,0,0,0,0,-1,1161,1471,0,0
-56,-447,0,0,0,0,0,0,0,0,0,-1,1168,1471,0,0
-49,-447,0,0,0,0,0,0,0,0,0,-1,1175,1471,0,0
-42,-447,0,0,0,0,0,0,0,0,0,-1,1182,1471,0,0
-35,-447,0,0,0,0,0,0,0,0,0,-1,1189,1471,0,0
-28,-447,0,0,0,0,0,0,0,0,0,-1,1196,1471,0,0
-21,-447,0,0,0,0,0,0,0,0,0,-1,1203,1471,0,0
-14,-447,0,0,0,0,0,0,0,0,0,-1,1210,1471,0,0
-7,-447,0,0,0,0,0,0,0,0,0,-1,1217,1471,0,0
0,-447,0,0,0,0,0,0,0,0,0,-1,1224,1471,0,0
7,-447,0,0,0,0,0,0,0,0,0,-1,1231,1471,0,0
14,-447,0,0,0,0,0,0,0,0,0,-1,1238,1471,0,0
21,-447,0,0,0,0,0,0,0,0,0,-1,1245,1471,0,0
28,-447,0,0,0,0,0,0,0,0,0,-1,1252,1471,0,0
35,-447,0,0,0,0,0,0,0,0,0,-1,1259,1471,0,0
42,-447,0,0,0,0,0,0,0,0,0,-1,1266,1471,0,0
49,-447,0,0,0,0,0,0,0,0,0,-1,1273,1471,0,0
56,-447,0,0,0,0,0,0,0,0,0,-1,1280,1471,0,0
63,-447,0,0,0,0,0,0,0,0,0,-1,1287,1471,0,0
70,-447,0,0,0,0,0,0,0,0,0,-1,1294,1471,0,0
77,-447,0,0,0,0,0,0,0,0,0,-1,1301,1471,0,0
84,-447,0,0,0,0,0,0,0,0,0,-1,1308,1471,0,0
91,-447,0,0,0,0,0,0,0,0,0,-1,1315,1471,0,0
98,-447,0,0,0,0,0,0,0,0,0,-1,1322,1471,0,0
105,-447,0,0,0,0,0,0,0,0,0,-1,1329,1471,0,0
112,-447,0,0,0,0,0,0,0,0,0,-1,1336,1471,0,0
119,-447,0,0,0,0,0,0,0,0,0,-1,1343,1471,0,0
126,-447,0,0,0,0,0,0,0,0,0,-1,1350,1471,0,0
133,-447,0,0,0,0,0,0,0,0,0,-1,1357,1471,0,0
140,-447,0,0,0,0,0,0,0,0,0,-1,1364,1471,0,0
147,-447,0,0,0,0,0,0,0,0,0,-1,1371,1471,0,0
154,-447,0,0,0,0,0,0,0,0,0,-1,1378,1471,0,0
161,-447,0,0,0,0,0,0,0,0,0,-1,1385,1471,0,0
168,-447,0,0,0,0,0,0,0,0,0,-1,1392,1471,0,0
175,-447,0,0,0,0,0,0,0,0,0,-1,1399,1471,0,0
182,-447,0,0,0,0,0,0,0,0,0,-1,1406,1471,0,0
189,-447,0,0,0,0,0,0,0,0,0,-1,1413,1471,0,0
196,-447,0,0,0,0,0,0,0,0,0,-1,1420,1471,0,0
203,-447,0,0,0,0,0,0,0,0,0,-1,1427,1471,0,0
210,-447,0,0,0,0,0,0,0,0,0,-1,1434,1471,0,0
217,-447,0,0,0,0,0,0,0,0,0,-1,1441,1471,0,0
224,-447,0,0,0,0,0,0,0,0,0,-1,1448,1471,0,0
231,-447,0,0,0,0,0,0,0,0,0,-1,1455,1471,0,0
238,-447,0,0,0,0,0,0,0,0,0,-1,1462,1471,0,0
245,-447,0,0,0,0,0,0,0,0,0,-1,1469,1471,0,0
252,-447,0,0,0,0,0,0,0,0,0,-1,1476,1471,0,0
259,-447,0,0,0,0,0,0,0,0,0,-1,1483,1471,0,0
266,-447,0,0,0,0,0,0,0,0,0,-1,1490,1471,0,0
273,-447,0,0,0,0,0,0,0,0,0,-1,1497,1471,0,0
280,-447,0,0,0,0,0,0,0,0,0,-1,1504,1471,0,0
287,-447,0,0,0,0,0,0,0,0,0,-1,1511,1471,0,0
294,-447,0,0,0,0,0,0,0,0,0,-1,1518,1471,0,0
301,-447,0,0,0,0,0,0,0,0,0,-1,1525,1471,0,0
308,-447,0,0,0,0,0,0,0,0,0,-1,1532,1471,0,0
315,-447,0,0,0,0,0,0,0,0,0,-1,1539,1471,0,0
322,-447,0,0,0,0,0,0,0,0,0,-1,1546,1471,0,0
329,-447,0,0,0,0,0,0,0,0,0,-1,1553,1471,0,0
336,-447,0,0,0,0,0,0,0,0,0,-1,1560,1471,0,0
343,-447,0,0,0,0,0,0,0,0,0,-1,1567,1471,0,0
350,-447,0,0,0,0,0,0,0,0,0,-1,1574,1471,0,0
357,-447,0,0,0,0,0,0,0,0,0,-1,1581,1471,0,0
364,-447,0,0,0,0,0,0,0,0,0,-1,1588,1471,0,0
371,-447,0,0,0,0,0,0,0,0,0,-1,1595,1471,0,0
378,-447,0,0,0,0,0,0,0,0,0,-1,1602,1471,0,0
385,-447,0,0,0,0,0,0,0,0,0,-1,1609,1471,0,0
392,-447,0,0,0,0,0,0,0,0,0,-1,1616,1471,0,0
399,-447,0,0,0,0,0,0,0,0,0,-1,1623,1471,0,0
406,-447,0,0,0,0,0,0,0,0,0,-1,1630,1471,0,0
413,-447,0,0,0,0,0,0,0,0,0,-1,1637,1471,0,0
420,-447,0,0,0,0,0,0,0,0,0,-1,1644,1471,0,0
427,-447,0,0,0,0,0,0,0,0,0,-1,1651,1471,0,0
434,-447,0,0,0,0,0,0,0,0,0,-1,1658,1471,0,0
441,-447,0,0,0,0,0,0,0,0,0,-1,1665,1471,0,0
448,-447,0,0,0,0,0,0,0,0,0,-1,1672,1471,0,0
455,-447,0,0,0,0,0,0,0,0,0,-1,1679,1471,0,0
462,-447,0,0,0,0,0,0,0,0,0,-1,1686,1471,0,0
469,-447,0,0,0,0,0,0,0,0,0,-1,1693,1471,0,0
476,-447,0,0,0,0,0,0,0,0,0,-1,1700,1471,0,0
483,-447,0,0,0,0,0,0,0,0,0,-1,1707,1471,0,0
490,-447,18.2214,-0.810303,0,0,0,0,0,0,0,-1,1714,1471,18.2215,0.810307
497,-447,17.0237,0.352417,0,0,0,0,0,0,0,-1,1721,1471,17.0237,-0.352442
504,-447,15.8998,1.53479,0,0,0,0,0,0,0,-1,1728,1471,15.8997,-1.53478
511,-447,14.7201,2.76111,0,0,0,0,0,0,0,-1,1735,1471,14.7201,-2.76107
518,-447,17.7618,13.2864,0,0,0,0,0,0,0,-1,1742,1471,17.7619,-13.2863
525,-447,17.1191,11.9014,0,0,0,0,0,0,0,-1,1749,1471,17.1191,-11.9013
532,-447,16.3959,10.0455,0,0,0,0,0,0,0,-1,1756,1471,16.3959,-10.0456
539,-447,15.5768,8.48901,0,0,0,0,0,0,0,-1,1763,1471,15.5767,-8.48897
546,-447,13.6736,9.4696,0,0,0,0,0,0,0,-1,1770,1471,13.6735,-9.46955
553,-447,13.1157,9.35327,0,0,0,0,0,0,0,-1,1777,1471,13.1157,-9.35325
560,-447,12.8022,9.26099,-0.0348874,-0.0267095,0.0217022,-0.00871441,-0.0528825,0.878512,0.0327391,0.0447374,1784,1471,12.8023,-9.26098
567,-447,12.448,9.08435,-0.0288633,-0.021469,0.0180277,-0.00676323,-0.0435691,0.886535,0.0270747,0.0428518,1791,1471,12.4481,-9.08439
574,-447,12.1783,9.04785,-0.0236989,-0.0168883,0.0147725,-0.00513369,-0.0354535,0.898679,0.0221239,0.0298839,1798,1471,12.1784,-9.04787
581,-447,12.0593,9.00049,-0.0191857,-0.0130639,0.0118385,-0.00389697,-0.0283526,0.911906,0.017746,0.0158716,1805,1471,12.0593,-9.00051
588,-447,12.084,8.75488,-0.015312,-0.00980251,0.00934925,-0.00281061,-0.0223039,0.928668,0.0140266,0.0131398,1812,1471,12.084,-8.75489
595,-447,12.0884,8.51306,-0.0122067,-0.00738261,0.00749129,-0.00192462,-0.0176647,0.941147,0.0111902,0.0122689,1819,1471,12.0884,-8.51301
602,-447,12.0885,8.25818,-0.00959421,-0.00547974,0.00595277,-0.00123875,-0.0138352,0.95177,0.00883953,0.0112888,1826,1471,12.0885,-8.2582
609,-447,12.088,8.0426,-0.00720925,-0.00399589,0.00467009,-0.000663835,-0.0105413,0.951074,0.00681704,0.0120398,1833,1471,12.0881,-8.04264
616,-447,12.1036,7.84351,-0.00474214,-0.00286984,0.00357899,-0.000106588,-0.00750539,0.913316,0.00496844,0.0129932,1840,1471,12.1037,-7.84352
623,-447,12.114,7.63477,-0.00264598,-0.00207586,0.00275122,0.000405026,-0.00512687,0.83702,0.00356061,0.0150216,1847,1471,12.114,-7.63477
630,-447,12.0865,7.38818,-0.000795157,-0.00163676,0.00214638,0.00097128,-0.0034032,0.6886,0.00265251,0.0095426,1854,1471,12.0865,-7.38815
637,-447,12.0925,7.16504,0.00105167,-0.0013776,0.00166418,0.00189734,-0.00222326,0.470153,0.00238151,0.010194,1861,1471,12.0925,-7.16498
644,-447,12.109,6.95447,0.00289533,-0.00118888,0.00134622,0.00329914,-0.00159269,0.291419,0.00288101,0.0101758,1868,1471,12.109,-6.95448
651,-447,12.1587,6.73376,0.00440429,-0.00116129,0.00133866,0.00470953,-0.00146653,0.224186,0.00372601,0.0197693,1875,1471,12.1586,-6.73377
658,-447,12.057,6.60217,0.00584318,-0.00115748,0.00137763,0.00610452,-0.00141883,0.187476,0.00461589,0.0278947,1882,1471,12.0569,-6.6022
665,-447,12.286,6.3916,0.00769597,-0.00135147,0.00142241,0.00791432,-0.00156983,0.152323,0.00586989,0.0430037,1889,1471,12.286,-6.39161
672,-447,12.4711,6.18933,0.0100768,-0.00144049,0.00140454,0.0102456,-0.00160931,0.119615,0.0074252,0.048559,1896,1471,12.471,-6.18931
679,-447,12.6666,5.94861,0,0,0,0,0,0,0,-1,1903,1471,12.6666,-5.94859
686,-447,9.81079,4.30859,0,0,0,0,0,0,0,-1,1910,1471,9.8108,-4.30864
693,-447,10.48,2.08643,0,0,0,0,0,0,0,-1,1917,1471,10.48,-2.08642
700,-447,0,0,0,0,0,0,0,0,0,-1,1924,1471,0,0
707,-447,0,0,0,0,0,0,0,0,0,-1,1931,1471,0,0
714,-447,0,0,0,0,0,0,0,0,0,-1,1938,1471,0,0
721,-447,0,0,0,0,0,0,0,0,0,-1,1945,1471,0,0
728,-447,0,0,0,0,0,0,0,0,0,-1,1952,1471,0,0
735,-447,0,0,0,0,0,0,0,0,0,-1,1959,1471,0,0
742,-447,0,0,0,0,0,0,0,0,0,-1,1966,1471,0,0
749,-447,0,0,0,0,0,0,0,0,0,-1,1973,1471,0,0
756,-447,0,0,0,0,0,0,0,0,0,-1,1980,1471,0,0
763,-447,0,0,0,0,0,0,0,0,0,-1,1987,1471,0,0
770,-447,0,0,0,0,0,0,0,0,0,-1,1994,1471,0,0
777,-447,0,0,0,0,0,0,0,0,0,-1,2001,1471,0,0
784,-447,0,0,0,0,0,0,0,0,0,-1,2008,1471,0,0
791,-447,0,0,0,0,0,0,0,0,0,-1,2015,1471,0,0
798,-447,0,0,0,0,0,0,0,0,0,-1,2022,1471,0,0
805,-447,0,0,0,0,0,0,0,0,0,-1,2029,1471,0,0
812,-447,0,0,0,0,0,0,0,0,0,-1,2036,1471,0,0
-700,-454,0,0,0,0,0,0,0,0,0,-1,524,1478,0,0
-693,-454,0,0,0,0,0,0,0,0,0,-1,531,1478,0,0
-686,-454,0,0,0,0,0,0,0,0,0,-1,538,1478,0,0
-679,-454,0,0,0,0,0,0,0,0,0,-1,545,1478,0,0
-672,-454,0,0,0,0,0,0,0,0,0,-1,552,1478,0,0
-665,-454,0,0,0,0,0,0,0,0,0,-1,559,1478,0,0
-658,-454,0,0,0,0,0,0,0,0,0,-1,566,1478,0,0
-651,-454,0,0,0,0,0,0,0,0,0,-1,573,1478,0,0
-644,-454,0,0,0,0,0,0,0,0,0,-1,580,1478,0,0
-637,-454,0,0,0,0,0,0,0,0,0,-1,587,1478,0,0
-630,-454,0,0,0,0,0,0,0,0,0,-1,594,1478,0,0
-623,-454,0,0,0,0,0,0,0,0,0,-1,601,1478,0,0
-616,-454,0,0,0,0,0,0,0,0,0,-1,608,1478,0,0
-609,-454,0,0,0,0,0,0,0,0,0,-1,615,1478,0,0
-602,-454,0,0,0,0,0,0,0,0,0,-1,622,1478,0,0
-595,-454,0,0,0,0,0,0,0,0,0,-1,629,1478,0,0
-588,-454,0,0,0,0,0,0,0,0,0,-1,636,1478,0,0
-581,-454,0,0,0,0,0,0,0,0,0,-1,643,1478,0,0
-574,-454,-8.4881,-0.465942,0,0,0,0,0,0,0,-1,650,1478,-8.4881,0.465885
-567,-454,-8.10046,0.922974,0,0,0,0,0,0,0,-1,657,1478,-8.10047,-0.923034
-560,-454,-6.84265,1.96936,0,0,0,0,0,0,0,-1,664,1478,-6.84264,-1.96934
-553,-454,-6.5509,-1.11816,0,0,0,0,0,0,0,-1,671,1478,-6.55093,1.11819
-546,-454,-6.21692,3.35474,0,0,0,0,0,0,0,-1,678,1478,-6.21693,-3.35473
-539,-454,-5.28107,3.84192,0.0630441,-0.000754195,0.0211286,0.0694069,-0.00711695,0.292506,0.0488168,0.0495148,685,1478,-5.28106,-3.84194
-532,-454,-4.52496,4.2677,0.0498829,-0.000529052,0.0167034,0.054915,-0.00556119,0.292617,0.0385975,0.0435458,692,1478,-4.52494,-4.26765
-525,-454,-3.32251,4.79456,0.0383026,-0.000280548,0.0128287,0.0421787,-0.00415664,0.293421,0.0296021,0.0415782,699,1478,-3.32251,-4.79453
-518,-454,-2.68347,5.07813,0.0285846,-0.000104174,0.0095957,0.0314982,-0.0030178,0.294791,0.0220736,0.0290565,706,1478,-2.6835,-5.07809
-511,-454,-2.70953,5.1377,0.0207849,-4.14214e-05,0.00698882,0.0229128,-0.00216929,0.29555,0.0160473,0.0180493,713,1478,-2.70952,-5.13765
-504,-454,-2.68298,5.40552,0.0146138,-1.72525e-05,0.00490321,0.016105,-0.00150845,0.295238,0.0112732,0.015418,720,1478,-2.68295,-5.40554
-497,-454,-2.68713,5.6897,0.00997053,-0.000145161,0.00314972,0.0108711,-0.00104571,0.278486,0.00761992,0.018936,727,1478,-2.68714,-5.68964
-490,-454,-2.70117,5.93518,0.00630305,-0.000805078,0.00140112,0.00656926,-0.00107129,0.187761,0.00477682,0.0170263,734,1478,-2.70116,-5.93514
-483,-454,-2.70105,6.18213,0.00290929,-0.0025901,-0.000571459,0.00296805,-0.00264886,-0.102455,0.00324467,0.0150578,741,1478,-2.70107,-6.1821
-476,-454,-2.70618,6.41052,0.000107997,-0.00492141,-0.00278359,0.00134458,-0.00615799,-0.418052,0.00461921,0.0131701,748,1478,-2.70619,-6.41056
-469,-454,-2.69751,6.66626,-0.00229472,-0.00774955,-0.00495939,0.000637752,-0.010682,-0.533996,0.00734317,0.00994147,755,1478,-2.69754,-6.66622
-462,-454,-2.72827,6.91931,-0.00424924,-0.011477,-0.00741296,0.000383837,-0.0161101,-0.558597,0.0108702,0.00982189,762,1478,-2.72826,-6.91929
-455,-454,-2.7392,7.1814,-0.00634723,-0.016253,-0.0101311,-2.31247e-05,-0.0225771,-0.558043,0.0150437,0.0106076,769,1478,-2.73923,-7.18144
-448,-454,-2.71771,7.42078,-0.00842991,-0.0219875,-0.0131907,-0.000378143,-0.0300393,-0.548042,0.0199013,0.0121255,776,1478,-2.71772,-7.42076
-441,-454,-2.56384,7.66235,-0.0110998,-0.02863,-0.0166622,-0.00103792,-0.0386919,-0.543265,0.0254557,0.0225023,783,1478,-2.56382,-7.6624
-434,-454,-2.42023,7.81494,-0.0140533,-0.0360962,-0.0203918,-0.00189506,-0.0482544,-0.537643,0.0315569,0.0335709,790,1478,-2.42024,-7.81492
-427,-454,-2.60925,7.64844,-0.0170293,-0.0440363,-0.0241124,-0.00289673,-0.0581689,-0.530146,0.0378507,0.0431998,797,1478,-2.60927,-7.64845
-420,-454,-2.82178,7.74402,0,0,0,0,0,0,0,-1,804,1478,-2.82177,-7.74401
-413,-454,-2.54333,6.67371,0,0,0,0,0,0,0,-1,811,1478,-2.54334,-6.67371
-406,-454,-2.78772,6.05835,0,0,0,0,0,0,0,-1,818,1478,-2.7877,-6.05833
-399,-454,-1.21033,6.95447,0,0,0,0,0,0,0,-1,825,1478,-1.21035,-6.95452
-392,-454,0.0967407,0.985474,0,0,0,0,0,0,0,-1,832,1478,0.0967364,-0.985529
-385,-454,2.38629,3.297,0,0,0,0,0,0,0,-1,839,1478,2.38629,-3.29702
-378,-454,-15.9756,2.83997,0,0,0,0,0,0,0,-1,846,1478,-15.9756,-2.83994
-371,-454,-17.2753,2.01453,0,0,0,0,0,0,0,-1,853,1478,-17.2753,-2.01455
-364,-454,1.08124,0.819458,0,0,0,0,0,0,0,-1,860,1478,1.08124,-0.819513
-357,-454,0,0,0,0,0,0,0,0,0,-1,867,1478,0,0
-350,-454,0,0,0,0,0,0,0,0,0,-1,874,1478,0,0
-343,-454,0,0,0,0,0,0,0,0,0,-1,881,1478,0,0
-336,-454,0,0,0,0,0,0,0,0,0,-1,888,1478,0,0
-329,-454,0,0,0,0,0,0,0,0,0,-1,895,1478,0,0
-322,-454,0,0,0,0,0,0,0,0,0,-1,902,1478,0,0
-315,-454,0,0,0,0,0,0,0,0,0,-1,909,1478,0,0
-308,-454,0,0,0,0,0,0,0,0,0,-1,916,1478,0,0
-301,-454,0,0,0,0,0,0,0,0,0,-1,923,1478,0,0
-294,-454,0,0,0,0,0,0,0,0,0,-1,930,1478,0,0
-287,-454,0,0,0,0,0,0,0,0,0,-1,937,1478,0,0
-280,-454,0,0,0,0,0,0,0,0,0,-1,944,1478,0,0
-273,-454,0,0,0,0,0,0,0,0,0,-1,951,1478,0,0
-266,-454,0,0,0,0,0,0,0,0,0,-1,958,1478,0,0
-259,-454,0,0,0,0,0,0,0,0,0,-1,965,1478,0,0
-252,-454,0,0,0,0,0,0,0,0,0,-1,972,1478,0,0
-245,-454,0,0,0,0,0,0,0,0,0,-1,979,1478,0,0
-238,-454,0,0,0,0,0,0,0,0,0,-1,986,1478,0,0
-231,-454,0,0,0,0,0,0,0,0,0,-1,993,1478,0,0
-224,-454,0,0,0,0,0,0,0,0,0,-1,1000,1478,0,0
-217,-454,0,0,0,0,0,0,0,0,0,-1,1007,1478,0,0
-210,-454,0,0,0,0,0,0,0,0,0,-1,1014,1478,0,0
-203,-454,0,0,0,0,0,0,0,0,0,-1,1021,1478,0,0
-196,-454,0,0,0,0,0,0,0,0,0,-1,1028,1478,0,0
-189,-454,0,0,0,0,0,0,0,0,0,-1,1035,1478,0,0
-182,-454,0,0,0,0,0,0,0,0,0,-1,1042,1478,0,0
-175,-454,0,0,0,0,0,0,0,0,0,-1,1049,1478,0,0
-168,-454,0,0,0,0,0,0,0,0,0,-1,1056,1478,0,0
-161,-454,0,0,0,0,0,0,0,0,0,-1,1063,1478,0,0
-154,-454,0,0,0,0,0,0,0,0,0,-1,1070,1478,0,0
-147,-454,0,0,0,0,0,0,0,0,0,-1,1077,1478,0,0
-140,-454,0,0,0,0,0,0,0,0,0,-1,1084,1478,0,0
-133,-454,0,0,0,0,0,0,0,0,0,-1,1091,1478,0,0
-126,-454,0,0,0,0,0,0,0,0,0,-1,1098,1478,0,0
-119,-454,0,0,0,0,0,0,0,0,0,-1,1105,1478,0,0
-112,-454,0,0,0,0,0,0,0,0,0,-1,1112,1478,0,0
-105,-454,0,0,0,0,0,0,0,0,0,-1,1119,1478,0,0
-98,-454,0,0,0,0,0,0,0,0,0,-1,1126,1478,0,0
-91,-454,0,0,0,0,0,0,0,0,0,-1,1133,1478,0,0
-84,-454,0,0,0,0,0,0,0,0,0,-1,1140,1478,0,0
-77,-454,0,0,0,0,0,0,0,0,0,-1,1147,1478,0,0
-70,-454,0,0,0,0,0,0,0,0,0,-1,1154,1478,0,0
-63,-454,0,0,0,0,0,0,0,0,0,-1,1161,1478,0,0
-56,-454,0,0,0,0,0,0,0,0,0,-1,1168,1478,0,0
-49,-454,0,0,0,0,0,0,0,0,0,-1,1175,1478,0,0
-42,-454,0,0,0,0,0,0,0,0,0,-1,1182,1478,0,0
-35,-454,0,0,0,0,0,0,0,0,0,-1,1189,1478,0,0
-28,-454,0,0,0,0,0,0,0,0,0,-1,1196,1478,0,0
-21,-454,0,0,0,0,0,0,0,0,0,-1,1203,1478,0,0
-14,-454,0,0,0,0,0,0,0,0,0,-1,1210,1478,0,0
-7,-454,0,0,0,0,0,0,0,0,0,-1,1217,1478,0,0
0,-454,0,0,0,0,0,0,0,0,0,-1,1224,1478,0,0
7,-454,0,0,0,0,0,0,0,0,0,-1,1231,1478,0,0
14,-454,0,0,0,0,0,0,0,0,0,-1,1238,1478,0,0
21,-454,0,0,0,0,0,0,0,0,0,-1,1245,1478,0,0
28,-454,0,0,0,0,0,0,0,0,0,-1,1252,1478,0,0
35,-454,0,0,0,0,0,0,0,0,0,-1,1259,1478,0,0
42,-454,0,0,0,0,0,0,0,0,0,-1,1266,1478,0,0
49,-454,0,0,0,0,0,0,0,0,0,-1,1273,1478,0,0
56,-454,0,0,0,0,0,0,0,0,0,-1,1280,1478,0,0
63,-454,0,0,0,0,0,0,0,0,0,-1,1287,1478,0,0
70,-454,0,0,0,0,0,0,0,0,0,-1,1294,1478,0,0
77,-454,0,0,0,0,0,0,0,0,0,-1,1301,1478,0,0
84,-454,0,0,0,0,0,0,0,0,0,-1,1308,1478,0,0
91,-454,0,0,0,0,0,0,0,0,0,-1,1315,1478,0,0
98,-454,0,0,0,0,0,0,0,0,0,-1,1322,1478,0,0
105,-454,0,0,0,0,0,0,0,0,0,-1,1329,1478,0,0
112,-454,0,0,0,0,0,0,0,0,0,-1,1336,1478,0,0
119,-454,0,0,0,0,0,0,0,0,0,-1,1343,1478,0,0
126,-454,0,0,0,0,0,0,0,0,0,-1,1350,1478,0,0
133,-454,0,0,0,0,0,0,0,0,0,-1,1357,1478,0,0
140,-454,0,0,0,0,0,0,0,0,0,-1,1364,1478,0,0
147,-454,0,0,0,0,0,0,0,0,0,-1,1371,1478,0,0
154,-454,0,0,0,0,0,0,0,0,0,-1,1378,1478,0,0
161,-454,0,0,0,0,0,0,0,0,0,-1,1385,1478,0,0
168,-454,0,0,0,0,0,0,0,0,0,-1,1392,1478,0,0
175,-454,0,0,0,0,0,0,0,0,0,-1,1399,1478,0,0
182,-454,0,0,0,0,0,0,0,0,0,-1,1406,1478,0,0
189,-454,0,0,0,0,0,0,0,0,0,-1,1413,1478,0,0
196,-454,0,0,0,0,0,0,0,0,0,-1,1420,1478,0,0
203,-454,0,0,0,0,0,0,0,0,0,-1,1427,1478,0,0
210,-454,0,0,0,0,0,0,0,0,0,-1,1434,1478,0,0
217,-454,0,0,0,0,0,0,0,0,0,-1,1441,1478,0,0
224,-454,0,0,0,0,0,0,0,0,0,-1,1448,1478,0,0
231,-454,0,0,0,0,0,0,0,0,0,-1,1455,1478,0,0
238,-454,0,0,0,0,0,0,0,0,0,-1,1462,1478,0,0
245,-454,0,0,0,0,0,0,0,0,0,-1,1469,1478,0,0
252,-454,0,0,0,0,0,0,0,0,0,-1,1476,1478,0,0
259,-454,0,0,0,0,0,0,0,0,0,-1,1483,1478,0,0
266,-454,0,0,0,0,0,0,0,0,0,-1,1490,1478,0,0
273,-454,0,0,0,0,0,0,0,0,0,-1,1497,1478,0,0
280,-454,0,0,0,0,0,0,0,0,0,-1,1504,1478,0,0
287,-454,0,0,0,0,0,0,0,0,0,-1,1511,1478,0,0
294,-454,0,0,0,0,0,0,0,0,0,-1,1518,1478,0,0
301,-454,0,0,0,0,0,0,0,0,0,-1,1525,1478,0,0
308,-454,0,0,0,0,0,0,0,0,0,-1,1532,1478,0,0
315,-454,0,0,0,0,0,0,0,0,0,-1,1539,1478,0,0
322,-454,0,0,0,0,0,0,0,0,0,-1,1546,1478,0,0
329,-454,0,0,0,0,0,0,0,0,0,-1,1553,1478,0,0
336,-454,0,0,0,0,0,0,0,0,0,-1,1560,1478,0,0
343,-454,0,0,0,0,0,0,0,0,0,-1,1567,1478,0,0
350,-454,0,0,0,0,0,0,0,0,0,-1,1574,1478,0,0
357,-454,0,0,0,0,0,0,0,0,0,-1,1581,1478,0,0
364,-454,0,0,0,0,0,0,0,0,0,-1,1588,1478,0,0
371,-454,0,0,0,0,0,0,0,0,0,-1,1595,1478,0,0
378,-454,0,0,0,0,0,0,0,0,0,-1,1602,1478,0,0
385,-454,0,0,0,0,0,0,0,0,0,-1,1609,1478,0,0
392,-454,0,0,0,0,0,0,0,0,0,-1,1616,1478,0,0
399,-454,0,0,0,0,0,0,0,0,0,-1,1623,1478,0,0
406,-454,0,0,0,0,0,0,0,0,0,-1,1630,1478,0,0
413,-454,0,0,0,0,0,0,0,0,0,-1,1637,1478,0,0
420,-454,0,0,0,0,0,0,0,0,0,-1,1644,1478,0,0
427,-454,0,0,0,0,0,0,0,0,0,-1,1651,1478,0,0
434,-454,0,0,0,0,0,0,0,0,0,-1,1658,1478,0,0
441,-454,0,0,0,0,0,0,0,0,0,-1,1665,1478,0,0
448,-454,0,0,0,0,0,0,0,0,0,-1,1672,1478,0,0
455,-454,0,0,0,0,0,0,0,0,0,-1,1679,1478,0,0
462,-454,0,0,0,0,0,0,0,0,0,-1,1686,1478,0,0
469,-454,0,0,0,0,0,0,0,0,0,-1,1693,1478,0,0
476,-454,0,0,0,0,0,0,0,0,0,-1,1700,1478,0,0
483,-454,14.2399,3.97498,0,0,0,0,0,0,0,-1,1707,1478,14.2399,-3.97502
490,-454,18.1821,-0.175781,0,0,0,0,0,0,0,-1,1714,1478,18.1821,0.175822
497,-454,16.8854,1.01208,0,0,0,0,0,0,0,-1,1721,1478,16.8854,-1.01209
504,-454,15.587,2.05994,0,0,0,0,0,0,0,-1,1728,1478,15.5871,-2.05998
511,-454,17.0273,14.5258,0,0,0,0,0,0,0,-1,1735,1478,17.0273,-14.5258
518,-454,16.4158,13.1039,0,0,0,0,0,0,0,-1,1742,1478,16.4157,-13.1038
525,-454,15.7842,11.6628,0,0,0,0,0,0,0,-1,1749,1478,15.7841,-11.6629
532,-454,15.1094,10.2476,0,0,0,0,0,0,0,-1,1756,1478,15.1094,-10.2475
539,-454,14.4884,9.00598,0,0,0,0,0,0,0,-1,1763,1478,14.4884,-9.00602
546,-454,11.8816,9.5752,0,0,0,0,0,0,0,-1,1770,1478,11.8815,-9.57524
553,-454,11.8831,9.17053,0,0,0,0,0,0,0,-1,1777,1478,11.883,-9.17056
560,-454,11.6471,9.43396,0,0,0,0,0,0,0,-1,1784,1478,11.6471,-9.43394
567,-454,11.9119,9.36096,-0.021545,-0.0173197,0.014216,-0.00506023,-0.0338045,0.859163,0.0210533,0.0290972,1791,1478,11.9118,-9.361
574,-454,11.8645,9.14832,-0.0174308,-0.0134636,0.0114092,-0.00386683,-0.0270275,0.871468,0.0168777,0.014285,1798,1478,11.8645,-9.14826
581,-454,11.8751,8.95129,-0.0139135,-0.0103339,0.00897562,-0.00297137,-0.021276,0.88381,0.0133046,0.0114009,1805,1478,11.8752,-8.95131
588,-454,11.8801,8.7395,-0.0109275,-0.007712,0.00702314,-0.00211494,-0.0165246,0.897921,0.0103835,0.0130706,1812,1478,11.8801,-8.73951
595,-454,11.8638,8.5083,-0.00858754,-0.00574648,0.0056082,-0.0013817,-0.0129523,0.909437,0.00821315,0.0124122,1819,1478,11.8637,-8.50832
602,-454,11.8599,8.27771,-0.00669434,-0.004236,0.00449278,-0.000807283,-0.0101231,0.918924,0.00649635,0.00912461,1826,1478,11.8599,-8.27768
609,-454,11.8658,8.07153,-0.00493017,-0.00308811,0.00361069,-0.000282826,-0.00773545,0.910277,0.00506532,0.00964721,1833,1478,11.8658,-8.07148
616,-454,11.8829,7.84839,-0.00300649,-0.00229448,0.00289328,0.000264608,-0.00556558,0.846614,0.00380166,0.0118158,1840,1478,11.883,-7.84838
623,-454,11.8849,7.6178,-0.00138522,-0.00181328,0.00242353,0.000833712,-0.00403222,0.741355,0.00300485,0.0104612,1847,1478,11.8849,-7.61776
630,-454,11.8563,7.39819,8.12356e-05,-0.00167072,0.00216891,0.00154439,-0.00313387,0.593476,0.00275247,0.00975137,1854,1478,11.8563,-7.39814
637,-454,11.8473,7.18896,0.00164411,-0.00164845,0.00201218,0.00259766,-0.00260199,0.44254,0.00300202,0.00963011,1861,1478,11.8473,-7.18897
644,-454,11.9083,6.95178,0.00335609,-0.00166972,0.00193084,0.00401223,-0.00232586,0.327578,0.00370222,0.0148459,1868,1478,11.9083,-6.95176
651,-454,11.7954,6.81885,0.00475882,-0.0018301,0.00219717,0.00542428,-0.00249557,0.294092,0.00467558,0.027212,1875,1478,11.7954,-6.81881
658,-454,11.8131,6.54553,0.00638252,-0.00192412,0.00235178,0.00700214,-0.00254374,0.257614,0.00570817,0.0347251,1882,1478,11.8132,-6.5455
665,-454,12.2803,6.28906,0.00886116,-0.00195762,0.00224586,0.00930885,-0.00240531,0.196761,0.00714394,0.0487251,1889,1478,12.2803,-6.28906
672,-454,12.4471,6.1366,0,0,0,0,0,0,0,-1,1896,1478,12.4472,-6.13663
679,-454,12.3354,3.91602,0,0,0,0,0,0,0,-1,1903,1478,12.3354,-3.91597
686,-454,10.3767,2.12842,0,0,0,0,0,0,0,-1,1910,1478,10.3767,-2.12839
693,-454,11.1857,1.48486,0,0,0,0,0,0,0,-1,1917,1478,11.1857,-1.48487
700,-454,0,0,0,0,0,0,0,0,0,-1,1924,1478,0,0
707,-454,0,0,0,0,0,0,0,0,0,-1,1931,1478,0,0
714,-454,0,0,0,0,0,0,0,0,0,-1,1938,1478,0,0
721,-454,0,0,0,0,0,0,0,0,0,-1,1945,1478,0,0
728,-454,0,0,0,0,0,0,0,0,0,-1,1952,1478,0,0
735,-454,0,0,0,0,0,0,0,0,0,-1,1959,1478,0,0
742,-454,0,0,0,0,0,0,0,0,0,-1,1966,1478,0,0
749,-454,0,0,0,0,0,0,0,0,0,-1,1973,1478,0,0
756,-454,0,0,0,0,0,0,0,0,0,-1,1980,1478,0,0
763,-454,0,0,0,0,0,0,0,0,0,-1,1987,1478,0,0
770,-454,0,0,0,0,0,0,0,0,0,-1,1994,1478,0,0
777,-454,0,0,0,0,0,0,0,0,0,-1,2001,1478,0,0
784,-454,0,0,0,0,0,0,0,0,0,-1,2008,1478,0,0
791,-454,0,0,0,0,0,0,0,0,0,-1,2015,1478,0,0
798,-454,0,0,0,0,0,0,0,0,0,-1,2022,1478,0,0
805,-454,0,0,0,0,0,0,0,0,0,-1,2029,1478,0,0
812,-454,0,0,0,0,0,0,0,0,0,-1,2036,1478,0,0
-700,-461,0,0,0,0,0,0,0,0,0,-1,524,1485,0,0
-693,-461,0,0,0,0,0,0,0,0,0,-1,531,1485,0,0
-686,-461,0,0,0,0,0,0,0,0,0,-1,538,1485,0,0
-679,-461,0,0,0,0,0,0,0,0,0,-1,545,1485,0,0
-672,-461,0,0,0,0,0,0,0,0,0,-1,552,1485,0,0
-665,-461,0,0,0,0,0,0,0,0,0,-1,559,1485,0,0
-658,-461,0,0,0,0,0,0,0,0,0,-1,566,1485,0,0
-651,-461,0,0,0,0,0,0,0,0,0,-1,573,1485,0,0
-644,-461,0,0,0,0,0,0,0,0,0,-1,580,1485,0,0
-637,-461,0,0,0,0,0,0,0,0,0,-1,587,1485,0,0
-630,-461,0,0,0,0,0,0,0,0,0,-1,594,1485,0,0
-623,-461,0,0,0,0,0,0,0,0,0,-1,601,1485,0,0
-616,-461,0,0,0,0,0,0,0,0,0,-1,608,1485,0,0
-609,-461,0,0,0,0,0,0,0,0,0,-1,615,1485,0,0
-602,-461,0,0,0,0,0,0,0,0,0,-1,622,1485,0,0
-595,-461,0,0,0,0,0,0,0,0,0,-1,629,1485,0,0
-588,-461,0,0,0,0,0,0,0,0,0,-1,636,1485,0,0
-581,-461,0,0,0,0,0,0,0,0,0,-1,643,1485,0,0
-574,-461,0,0,0,0,0,0,0,0,0,-1,650,1485,0,0
-567,-461,-9.69031,0.513306,0,0,0,0,0,0,0,-1,657,1485,-9.69032,-0.513305
-560,-461,-7.28815,1.54004,0,0,0,0,0,0,0,-1,664,1485,-7.28817,-1.54005
-553,-461,-7.60046,2.28638,0,0,0,0,0,0,0,-1,671,1485,-7.60047,-2.28638
-546,-461,-6.27081,2.92163,0,0,0,0,0,0,0,-1,678,1485,-6.27081,-2.92158
-539,-461,-5.29407,3.6593,0.0776216,0.000281551,0.0253554,0.085193,-0.00728982,0.290181,0.0593746,0.0432273,685,1485,-5.29406,-3.65927
-532,-461,-4.67267,4.24426,0.060371,0.000145641,0.0195476,0.0661593,-0.0056427,0.287889,0.0461024,0.0418023,692,1485,-4.67267,-4.24422
-525,-461,-3.72144,4.44739,0.0455603,0.000104991,0.0146126,0.0498525,-0.00418723,0.285699,0.034715,0.0418346,699,1485,-3.72143,-4.4474
-518,-461,-2.67749,4.99255,0.0333951,0.000179497,0.0105921,0.0364853,-0.0029107,0.283867,0.0253495,0.0366873,706,1485,-2.6775,-4.9926
-511,-461,-2.42798,5.22241,0.023832,0.000228159,0.00745533,0.0259896,-0.0019294,0.281703,0.018004,0.0197292,713,1485,-2.42796,-5.22238
-504,-461,-2.45032,5.41858,0.0164239,0.000288005,0.00506473,0.0178818,-0.00116997,0.280291,0.0123297,0.0110536,720,1485,-2.45032,-5.41863
-497,-461,-2.44293,5.6958,0.0110319,0.000310912,0.0032429,0.0119364,-0.000593683,0.272031,0.00816273,0.00991451,727,1485,-2.44293,-5.69576
-490,-461,-2.4563,5.94421,0.00717973,-4.51894e-05,0.00165323,0.00754006,-0.000405516,0.214597,0.00516718,0.0114856,734,1485,-2.45631,-5.94418
-483,-461,-2.44989,6.19116,0.00396852,-0.00122396,1.98522e-05,0.0039686,-0.00122404,0.00382318,0.00313445,0.0115592,741,1485,-2.44987,-6.1912
-476,-461,-2.45642,6.44312,0.00153685,-0.00291053,-0.0018001,0.00217413,-0.00354781,-0.340256,0.00333515,0.0100185,748,1485,-2.45642,-6.44317
-469,-461,-2.45746,6.68884,-0.000132148,-0.00487614,-0.00339156,0.00163458,-0.00664287,-0.480243,0.00506219,0.0115121,755,1485,-2.45746,-6.68882
-462,-461,-2.45569,6.93616,-0.000932072,-0.00756786,-0.00509359,0.00182894,-0.0103289,-0.496723,0.00756957,0.0167807,762,1485,-2.45568,-6.93617
-455,-461,-2.46283,7.20471,-0.00165302,-0.0111596,-0.00698241,0.00204045,-0.0148531,-0.486553,0.0106476,0.0210954,769,1485,-2.4628,-7.20469
-448,-461,-2.46979,7.46167,-0.00213608,-0.0155465,-0.0090852,0.00245035,-0.0201329,-0.467499,0.0143088,0.0177826,776,1485,-2.46976,-7.4617
-441,-461,-2.43262,7.66821,-0.00298807,-0.020579,-0.0115227,0.00271246,-0.0262795,-0.459414,0.0184903,0.0141513,783,1485,-2.43263,-7.66825
-434,-461,-2.25189,7.85876,-0.00384179,-0.0262844,-0.0142767,0.00309574,-0.0332219,-0.45233,0.0232486,0.0186063,790,1485,-2.2519,-7.85871
-427,-461,-2.22284,7.98462,-0.00443104,-0.0323459,-0.0170784,0.00366783,-0.0404448,-0.44281,0.0282652,0.0266666,797,1485,-2.22281,-7.98458
-420,-461,-2.5993,8.13,-0.00517147,-0.0390261,-0.0199895,0.00409497,-0.0482925,-0.434078,0.0336432,0.0445194,804,1485,-2.59933,-8.12997
-413,-461,-2.95428,8.27148,0,0,0,0,0,0,0,-1,811,1485,-2.95426,-8.27147
-406,-461,-2.92688,7.66516,0,0,0,0,0,0,0,-1,818,1485,-2.92685,-7.66511
-399,-461,-0.411499,9.14136,0,0,0,0,0,0,0,-1,825,1485,-0.411481,-9.14138
-392,-461,-0.357544,5.55225,0,0,0,0,0,0,0,-1,832,1485,-0.357536,-5.55228
-385,-461,1.71509,3.35254,0,0,0,0,0,0,0,-1,839,1485,1.71511,-3.35255
-378,-461,1.95996,3.01111,0,0,0,0,0,0,0,-1,846,1485,1.95993,-3.01111
-371,-461,0.702881,2.33459,0,0,0,0,0,0,0,-1,853,1485,0.702859,-2.33459
-364,-461,-1.93097,2.56458,0,0,0,0,0,0,0,-1,860,1485,-1.93095,-2.56456
-357,-461,-2.41516,3.49487,0,0,0,0,0,0,0,-1,867,1485,-2.41517,-3.49487
-350,-461,0,0,0,0,0,0,0,0,0,-1,874,1485,0,0
-343,-461,0,0,0,0,0,0,0,0,0,-1,881,1485,0,0
-336,-461,0,0,0,0,0,0,0,0,0,-1,888,1485,0,0
-329,-461,0,0,0,0,0,0,0,0,0,-1,895,1485,0,0
-322,-461,0,0,0,0,0,0,0,0,0,-1,902,1485,0,0
-315,-461,0,0,0,0,0,0,0,0,0,-1,909,1485,0,0
-308,-461,0,0,0,0,0,0,0,0,0,-1,916,1485,0,0
-301,-461,0,0,0,0,0,0,0,0,0,-1,923,1485,0,0
-294,-461,0,0,0,0,0,0,0,0,0,-1,930,1485,0,0
-287,-461,0,0,0,0,0,0,0,0,0,-1,937,1485,0,0
-280,-461,0,0,0,0,0,0,0,0,0,-1,944,1485,0,0
-273,-461,0,0,0,0,0,0,0,0,0,-1,951,1485,0,0
-266,-461,0,0,0,0,0,0,0,0,0,-1,958,1485,0,0
-259,-461,0,0,0,0,0,0,0,0,0,-1,965,1485,0,0
-252,-461,0,0,0,0,0,0,0,0,0,-1,972,1485,0,0
-245,-461,0,0,0,0,0,0,0,0,0,-1,979,1485,0,0
-238,-461,0,0,0,0,0,0,0,0,0,-1,986,1485,0,0
-231,-461,0,0,0,0,0,0,0,0,0,-1,993,1485,0,0
-224,-461,0,0,0,0,0,0,0,0,0,-1,1000,1485,0,0
-217,-461,0,0,0,0,0,0,0,0,0,-1,1007,1485,0,0
-210,-461,0,0,0,0,0,0,0,0,0,-1,1014,1485,0,0
-203,-461,0,0,0,0,0,0,0,0,0,-1,1021,1485,0,0
-196,-461,0,0,0,0,0,0,0,0,0,-1,1028,1485,0,0
-189,-461,0,0,0,0,0,0,0,0,0,-1,1035,1485,0,0
-182,-461,0,0,0,0,0,0,0,0,0,-1,1042,1485,0,0
-175,-461,0,0,0,0,0,0,0,0,0,-1,1049,1485,0,0
-168,-461,0,0,0,0,0,0,0,0,0,-1,1056,1485,0,0
-161,-461,0,0,0,0,0,0,0,0,0,-1,1063,1485,0,0
-154,-461,0,0,0,0,0,0,0,0,0,-1,1070,1485,0,0
-147,-461,0,0,0,0,0,0,0,0,0,-1,1077,1485,0,0
-140,-461,0,0,0,0,0,0,0,0,0,-1,1084,1485,0,0
-133,-461,0,0,0,0,0,0,0,0,0,-1,1091,1485,0,0
-126,-461,0,0,0,0,0,0,0,0,0,-1,1098,1485,0,0
-119,-461,0,0,0,0,0,0,0,0,0,-1,1105,1485,0,0
-112,-461,0,0,0,0,0,0,0,0,0,-1,1112,1485,0,0
-105,-461,0,0,0,0,0,0,0,0,0,-1,1119,1485,0,0
-98,-461,0,0,0,0,0,0,0,0,0,-1,1126,1485,0,0
-91,-461,0,0,0,0,0,0,0,0,0,-1,1133,1485,0,0
-84,-461,0,0,0,0,0,0,0,0,0,-1,1140,1485,0,0
-77,-461,0,0,0,0,0,0,0,0,0,-1,1147,1485,0,0
-70,-461,0,0,0,0,0,0,0,0,0,-1,1154,1485,0,0
-63,-461,0,0,0,0,0,0,0,0,0,-1,1161,1485,0,0
-56,-461,0,0,0,0,0,0,0,0,0,-1,1168,1485,0,0
-49,-461,0,0,0,0,0,0,0,0,0,-1,1175,1485,0,0
-42,-461,0,0,0,0,0,0,0,0,0,-1,1182,1485,0,0
-35,-461,0,0,0,0,0,0,0,0,0,-1,1189,1485,0,0
-28,-461,0,0,0,0,0,0,0,0,0,-1,1196,1485,0,0
-21,-461,0,0,0,0,0,0,0,0,0,-1,1203,1485,0,0
-14,-461,0,0,0,0,0,0,0,0,0,-1,1210,1485,0,0
-7,-461,0,0,0,0,0,0,0,0,0,-1,1217,1485,0,0
0,-461,0,0,0,0,0,0,0,0,0,-1,1224,1485,0,0
7,-461,0,0,0,0,0,0,0,0,0,-1,1231,1485,0,0
14,-461,0,0,0,0,0,0,0,0,0,-1,1238,1485,0,0
21,-461,0,0,0,0,0,0,0,0,0,-1,1245,1485,0,0
28,-461,0,0,0,0,0,0,0,0,0,-1,1252,1485,0,0
35,-461,0,0,0,0,0,0,0,0,0,-1,1259,1485,0,0
42,-461,0,0,0,0,0,0,0,0,0,-1,1266,1485,0,0
49,-461,0,0,0,0,0,0,0,0,0,-1,1273,1485,0,0
56,-461,0,0,0,0,0,0,0,0,0,-1,1280,1485,0,0
63,-461,0,0,0,0,0,0,0,0,0,-1,1287,1485,0,0
70,-461,0,0,0,0,0,0,0,0,0,-1,1294,1485,0,0
77,-461,0,0,0,0,0,0,0,0,0,-1,1301,1485,0,0
84,-461,0,0,0,0,0,0,0,0,0,-1,1308,1485,0,0
91,-461,0,0,0,0,0,0,0,0,0,-1,1315,1485,0,0
98,-461,0,0,0,0,0,0,0,0,0,-1,1322,1485,0,0
105,-461,0,0,0,0,0,0,0,0,0,-1,1329,1485,0,0
112,-461,0,0,0,0,0,0,0,0,0,-1,1336,1485,0,0
119,-461,0,0,0,0,0,0,0,0,0,-1,1343,1485,0,0
126,-461,0,0,0,0,0,0,0,0,0,-1,1350,1485,0,0
133,-461,0,0,0,0,0,0,0,0,0,-1,1357,1485,0,0
140,-461,0,0,0,0,0,0,0,0,0,-1,1364,1485,0,0
147,-461,0,0,0,0,0,0,0,0,0,-1,1371,1485,0,0
154,-461,0,0,0,0,0,0,0,0,0,-1,1378,1485,0,0
161,-461,0,0,0,0,0,0,0,0,0,-1,1385,1485,0,0
168,-461,0,0,0,0,0,0,0,0,0,-1,1392,1485,0,0
175,-461,0,0,0,0,0,0,0,0,0,-1,1399,1485,0,0
182,-461,0,0,0,0,0,0,0,0,0,-1,1406,1485,0,0
189,-461,0,0,0,0,0,0,0,0,0,-1,1413,1485,0,0
196,-461,0,0,0,0,0,0,0,0,0,-1,1420,1485,0,0
203,-461,0,0,0,0,0,0,0,0,0,-1,1427,1485,0,0
210,-461,0,0,0,0,0,0,0,0,0,-1,1434,1485,0,0
217,-461,0,0,0,0,0,0,0,0,0,-1,1441,1485,0,0
224,-461,0,0,0,0,0,0,0,0,0,-1,1448,1485,0,0
231,-461,0,0,0,0,0,0,0,0,0,-1,1455,1485,0,0
238,-461,0,0,0,0,0,0,0,0,0,-1,1462,1485,0,0
245,-461,0,0,0,0,0,0,0,0,0,-1,1469,1485,0,0
252,-461,0,0,0,0,0,0,0,0,0,-1,1476,1485,0,0
259,-461,0,0,0,0,0,0,0,0,0,-1,1483,1485,0,0
266,-461,0,0,0,0,0,0,0,0,0,-1,1490,1485,0,0
273,-461,0,0,0,0,0,0,0,0,0,-1,1497,1485,0,0
280,-461,0,0,0,0,0,0,0,0,0,-1,1504,1485,0,0
287,-461,0,0,0,0,0,0,0,0,0,-1,1511,1485,0,0
294,-461,0,0,0,0,0,0,0,0,0,-1,1518,1485,0,0
301,-461,0,0,0,0,0,0,0,0,0,-1,1525,1485,0,0
308,-461,0,0,0,0,0,0,0,0,0,-1,1532,1485,0,0
315,-461,0,0,0,0,0,0,0,0,0,-1,1539,1485,0,0
322,-461,0,0,0,0,0,0,0,0,0,-1,1546,1485,0,0
329,-461,0,0,0,0,0,0,0,0,0,-1,1553,1485,0,0
336,-461,0,0,0,0,0,0,0,0,0,-1,1560,1485,0,0
343,-461,0,0,0,0,0,0,0,0,0,-1,1567,1485,0,0
350,-461,0,0,0,0,0,0,0,0,0,-1,1574,1485,0,0
357,-461,0,0,0,0,0,0,0,0,0,-1,1581,1485,0,0
364,-461,0,0,0,0,0,0,0,0,0,-1,1588,1485,0,0
371,-461,0,0,0,0,0,0,0,0,0,-1,1595,1485,0,0
378,-461,0,0,0,0,0,0,0,0,0,-1,1602,1485,0,0
385,-461,0,0,0,0,0,0,0,0,0,-1,1609,1485,0,0
392,-461,0,0,0,0,0,0,0,0,0,-1,1616,1485,0,0
399,-461,0,0,0,0,0,0,0,0,0,-1,1623,1485,0,0
406,-461,0,0,0,0,0,0,0,0,0,-1,1630,1485,0,0
413,-461,0,0,0,0,0,0,0,0,0,-1,1637,1485,0,0
420,-461,0,0,0,0,0,0,0,0,0,-1,1644,1485,0,0
427,-461,0,0,0,0,0,0,0,0,0,-1,1651,1485,0,0
434,-461,0,0,0,0,0,0,0,0,0,-1,1658,1485,0,0
441,-461,0,0,0,0,0,0,0,0,0,-1,1665,1485,0,0
448,-461,0,0,0,0,0,0,0,0,0,-1,1672,1485,0,0
455,-461,0,0,0,0,0,0,0,0,0,-1,1679,1485,0,0
462,-461,0,0,0,0,0,0,0,0,0,-1,1686,1485,0,0
469,-461,0,0,0,0,0,0,0,0,0,-1,1693,1485,0,0
476,-461,14.1906,0.690552,0,0,0,0,0,0,0,-1,1700,1485,14.1906,-0.690525
483,-461,10.6361,3.09106,0,0,0,0,0,0,0,-1,1707,1485,10.6361,-3.091
490,-461,17.9972,0.665894,0,0,0,0,0,0,0,-1,1714,1485,17.9972,-0.665876
497,-461,16.6829,1.87732,0,0,0,0,0,0,0,-1,1721,1485,16.6828,-1.87736
504,-461,15.3884,3.09216,0,0,0,0,0,0,0,-1,1728,1485,15.3885,-3.09212
511,-461,15.4292,14.3512,0,0,0,0,0,0,0,-1,1735,1485,15.4292,-14.3512
518,-461,14.9636,12.8644,0,0,0,0,0,0,0,-1,1742,1485,14.9636,-12.8644
525,-461,14.0022,10.8033,0,0,0,0,0,0,0,-1,1749,1485,14.0022,-10.8033
532,-461,13.5415,9.85535,0,0,0,0,0,0,0,-1,1756,1485,13.5416,-9.85535
539,-461,13.4374,9.53577,0,0,0,0,0,0,0,-1,1763,1485,13.4373,-9.53581
546,-461,11.7588,9.33435,0,0,0,0,0,0,0,-1,1770,1485,11.7588,-9.33439
553,-461,11.7233,9.34082,-0.0243495,-0.0221194,0.0176133,-0.00558586,-0.040883,0.81701,0.0255974,0.0417812,1777,1485,11.7233,-9.34084
560,-461,11.5601,9.44897,-0.0193136,-0.0177065,0.0139954,-0.00449161,-0.0325285,0.814075,0.0203544,0.0303449,1784,1485,11.5601,-9.44897
567,-461,11.6664,9.34338,-0.0151996,-0.0137971,0.0109968,-0.00347917,-0.0255175,0.817239,0.0159787,0.0141061,1791,1485,11.6664,-9.34334
574,-461,11.6803,9.16223,-0.011825,-0.0105973,0.00855322,-0.00263593,-0.0197864,0.821219,0.012406,0.0140217,1798,1485,11.6803,-9.16219
581,-461,11.6886,8.96582,-0.00903256,-0.00804772,0.00652167,-0.00199991,-0.0150804,0.823079,0.0094577,0.0132081,1805,1485,11.6886,-8.96584
588,-461,11.6622,8.76819,-0.00673119,-0.005966,0.00502309,-0.00131095,-0.0113862,0.823408,0.00719377,0.0110441,1812,1485,11.6622,-8.76823
595,-461,11.637,8.53284,-0.00502805,-0.00438934,0.00399305,-0.000702895,-0.0087145,0.825302,0.00559012,0.00905623,1819,1485,11.6369,-8.53287
602,-461,11.6403,8.28259,-0.00379784,-0.00323524,0.00327621,-0.000228274,-0.0068048,0.828223,0.00446239,0.00926281,1826,1485,11.6403,-8.28255
609,-461,11.6445,8.05505,-0.00269158,-0.00241662,0.00280336,0.000252628,-0.00536083,0.8099,0.003661,0.0102673,1833,1485,11.6445,-8.05503
616,-461,11.6497,7.84204,-0.00143887,-0.00196585,0.00250787,0.000819314,-0.00422403,0.733058,0.00312513,0.0122798,1840,1485,11.6497,-7.842
623,-461,11.6359,7.6261,-0.00047064,-0.00182725,0.00247066,0.00141314,-0.00371103,0.651427,0.00305599,0.0116793,1847,1485,11.6358,-7.62604
630,-461,11.6333,7.40955,0.000406239,-0.00202178,0.00266354,0.00211939,-0.00373493,0.57157,0.00342262,0.0104028,1854,1485,11.6333,-7.40956
637,-461,11.6539,7.19519,0.00145444,-0.00228513,0.00295225,0.0030792,-0.00390989,0.50311,0.00404464,0.0119934,1861,1485,11.6539,-7.19516
644,-461,11.6863,6.99109,0.00275958,-0.00256632,0.003247,0.00429595,-0.00410269,0.441952,0.00484939,0.0221998,1868,1485,11.6863,-6.9911
651,-461,11.5571,6.76587,0.00411236,-0.0028627,0.00376574,0.00575744,-0.00450778,0.411868,0.00594125,0.0277691,1875,1485,11.5572,-6.76588
658,-461,11.5714,6.38464,0.00612026,-0.00295601,0.00396154,0.00760612,-0.00444187,0.358832,0.00703542,0.0396319,1882,1485,11.5714,-6.38469
665,-461,12.2698,6.2229,0,0,0,0,0,0,0,-1,1889,1485,12.2698,-6.22293
672,-461,11.9205,5.45056,0,0,0,0,0,0,0,-1,1896,1485,11.9206,-5.45057
679,-461,10.0535,2.16321,0,0,0,0,0,0,0,-1,1903,1485,10.0535,-2.16317
686,-461,10.8195,1.84192,0,0,0,0,0,0,0,-1,1910,1485,10.8194,-1.84195
693,-461,0,0,0,0,0,0,0,0,0,-1,1917,1485,0,0
700,-461,0,0,0,0,0,0,0,0,0,-1,1924,1485,0,0
707,-461,0,0,0,0,0,0,0,0,0,-1,1931,1485,0,0
714,-461,0,0,0,0,0,0,0,0,0,-1,1938,1485,0,0
721,-461,0,0,0,0,0,0,0,0,0,-1,1945,1485,0,0
728,-461,0,0,0,0,0,0,0,0,0,-1,1952,1485,0,0
735,-461,0,0,0,0,0,0,0,0,0,-1,1959,1485,0,0
742,-461,0,0,0,0,0,0,0,0,0,-1,1966,1485,0,0
749,-461,0,0,0,0,0,0,0,0,0,-1,1973,1485,0,0
756,-461,0,0,0,0,0,0,0,0,0,-1,1980,1485,0,0
763,-461,0,0,0,0,0,0,0,0,0,-1,1987,1485,0,0
770,-461,0,0,0,0,0,0,0,0,0,-1,1994,1485,0,0
777,-461,0,0,0,0,0,0,0,0,0,-1,2001,1485,0,0
784,-461,0,0,0,0,0,0,0,0,0,-1,2008,1485,0,0
791,-461,0,0,0,0,0,0,0,0,0,-1,2015,1485,0,0
798,-461,0,0,0,0,0,0,0,0,0,-1,2022,1485,0,0
805,-461,0,0,0,0,0,0,0,0,0,-1,2029,1485,0,0
812,-461,0,0,0,0,0,0,0,0,0,-1,2036,1485,0,0
-700,-468,0,0,0,0,0,0,0,0,0,-1,524,1492,0,0
-693,-468,0,0,0,0,0,0,0,0,0,-1,531,1492,0,0
-686,-468,0,0,0,0,0,0,0,0,0,-1,538,1492,0,0
-679,-468,0,0,0,0,0,0,0,0,0,-1,545,1492,0,0
-672,-468,0,0,0,0,0,0,0,0,0,-1,552,1492,0,0
-665,-468,0,0,0,0,0,0,0,0,0,-1,559,1492,0,0
-658,-468,0,0,0,0,0,0,0,0,0,-1,566,1492,0,0
-651,-468,0,0,0,0,0,0,0,0,0,-1,573,1492,0,0
-644,-468,0,0,0,0,0,0,0,0,0,-1,580,1492,0,0
-637,-468,0,0,0,0,0,0,0,0,0,-1,587,1492,0,0
-630,-468,0,0,0,0,0,0,0,0,0,-1,594,1492,0,0
-623,-468,0,0,0,0,0,0,0,0,0,-1,601,1492,0,0
-616,-468,0,0,0,0,0,0,0,0,0,-1,608,1492,0,0
-609,-468,0,0,0,0,0,0,0,0,0,-1,615,1492,0,0
-602,-468,0,0,0,0,0,0,0,0,0,-1,622,1492,0,0
-595,-468,0,0,0,0,0,0,0,0,0,-1,629,1492,0,0
-588,-468,0,0,0,0,0,0,0,0,0,-1,636,1492,0,0
-581,-468,0,0,0,0,0,0,0,0,0,-1,643,1492,0,0
-574,-468,0,0,0,0,0,0,0,0,0,-1,650,1492,0,0
-567,-468,-11.2603,1.8042,0,0,0,0,0,0,0,-1,657,1492,-11.2603,-1.80424
-560,-468,-8.77441,2.23694,0,0,0,0,0,0,0,-1,664,1492,-8.77443,-2.23692
-553,-468,-5.94061,9.26318,0,0,0,0,0,0,0,-1,671,1492,-5.94062,-9.26322
-546,-468,-5.39441,2.6051,0,0,0,0,0,0,0,-1,678,1492,-5.39442,-2.60511
-539,-468,-4.66248,3.20984,0,0,0,0,0,0,0,-1,685,1492,-4.66247,-3.20982
-532,-468,-3.19403,4.27893,0,0,0,0,0,0,0,-1,692,1492,-3.19406,-4.27895
-525,-468,-2.95099,4.64001,0.0516864,0.000653082,0.0161993,0.0563942,-0.0040547,0.282826,0.039018,0.0462273,699,1492,-2.951,-4.63999
-518,-468,-2.7334,4.97559,0.0372034,0.000559091,0.0115302,0.0405295,-0.00276701,0.280844,0.0279876,0.0417657,706,1492,-2.73339,-4.97555
-511,-468,-2.32153,5.25818,0.0259769,0.00053987,0.00795179,0.0282581,-0.00174133,0.279376,0.0194452,0.0334578,713,1492,-2.32156,-5.25821
-504,-468,-2.14856,5.43127,0.0174661,0.00059207,0.00531975,0.0190032,-0.000945028,0.281281,0.0129953,0.01595,720,1492,-2.14855,-5.43133
-497,-468,-2.19897,5.69287,0.011338,0.000610076,0.00342223,0.0123367,-0.000388647,0.283948,0.00835703,0.00902603,727,1492,-2.19896,-5.69285
-490,-468,-2.18365,5.96484,0.00711962,0.000352622,0.00189907,0.00761614,-0.000143894,0.255728,0.00512606,0.00734798,734,1492,-2.18364,-5.96488
-483,-468,-2.19037,6.21228,0.0038544,-0.000451483,0.000474666,0.00390611,-0.000503188,0.108501,0.00278698,0.00788214,741,1492,-2.19039,-6.21232
-476,-468,-2.19641,6.45386,0.00156511,-0.00168366,-0.00108088,0.00189186,-0.00201041,-0.293566,0.00225332,0.00821522,748,1492,-2.19639,-6.4539
-469,-468,-2.19196,6.7063,0.000262381,-0.0030353,-0.00226628,0.00141617,-0.00418909,-0.470908,0.0033656,0.0116339,755,1492,-2.19196,-6.70625
-462,-468,-2.14838,6.97571,0.000104153,-0.00499183,-0.00343774,0.00183521,-0.00672289,-0.466481,0.0052027,0.0215773,762,1492,-2.14836,-6.97575
-455,-468,-2.1709,7.20142,0.000256256,-0.00764167,-0.00470032,0.0024463,-0.00983171,-0.436025,0.00750402,0.0221399,769,1492,-2.17088,-7.20138
-448,-468,-2.20514,7.42993,0.000826121,-0.010918,-0.00604975,0.00338498,-0.0134769,-0.40015,0.0103,0.0139904,776,1492,-2.20513,-7.4299
-441,-468,-2.21344,7.69043,0.00126151,-0.0145392,-0.00762027,0.00433768,-0.0176154,-0.383677,0.0134251,0.0122526,783,1492,-2.21342,-7.69037
-434,-468,-2.15002,7.93335,0.00198198,-0.0185384,-0.00941488,0.00564701,-0.0222034,-0.371231,0.0170002,0.0112605,790,1492,-2.15002,-7.93329
-427,-468,-2.09918,8.14624,0.00329319,-0.022789,-0.0112069,0.00744698,-0.0269428,-0.354949,0.0208914,0.015874,797,1492,-2.09918,-8.1463
-420,-468,-2.0545,8.36389,0.00474828,-0.0275938,-0.0130965,0.00938637,-0.0322319,-0.340366,0.0252061,0.0302493,804,1492,-2.05452,-8.36384
-413,-468,-1.90344,8.59766,0,0,0,0,0,0,0,-1,811,1492,-1.90343,-8.5976
-406,-468,-1.0929,7.68115,0,0,0,0,0,0,0,-1,818,1492,-1.0929,-7.68116
-399,-468,-0.555359,7.56531,0,0,0,0,0,0,0,-1,825,1492,-0.555343,-7.56527
-392,-468,-0.674316,6.88867,0,0,0,0,0,0,0,-1,832,1492,-0.67434,-6.88868
-385,-468,0.465759,5.35864,0,0,0,0,0,0,0,-1,839,1492,0.465732,-5.35864
-378,-468,1.99835,3.25391,0,0,0,0,0,0,0,-1,846,1492,1.99837,-3.2539
-371,-468,-0.31842,3.1532,0,0,0,0,0,0,0,-1,853,1492,-0.318441,-3.15324
-364,-468,-0.966736,2.14563,0,0,0,0,0,0,0,-1,860,1492,-0.966735,-2.14557
-357,-468,-3.06787,3.22742,0,0,0,0,0,0,0,-1,867,1492,-3.06784,-3.2274
-350,-468,-3.18658,4.12659,0,0,0,0,0,0,0,-1,874,1492,-3.18659,-4.12658
-343,-468,0,0,0,0,0,0,0,0,0,-1,881,1492,0,0
-336,-468,0,0,0,0,0,0,0,0,0,-1,888,1492,0,0
-329,-468,0,0,0,0,0,0,0,0,0,-1,895,1492,0,0
-322,-468,0,0,0,0,0,0,0,0,0,-1,902,1492,0,0
-315,-468,0,0,0,0,0,0,0,0,0,-1,909,1492,0,0
-308,-468,0,0,0,0,0,0,0,0,0,-1,916,1492,0,0
-301,-468,0,0,0,0,0,0,0,0,0,-1,923,1492,0,0
-294,-468,0,0,0,0,0,0,0,0,0,-1,930,1492,0,0
-287,-468,0,0,0,0,0,0,0,0,0,-1,937,1492,0,0
-280,-468,0,0,0,0,0,0,0,0,0,-1,944,1492,0,0
-273,-468,0,0,0,0,0,0,0,0,0,-1,951,1492,0,0
-266,-468,0,0,0,0,0,0,0,0,0,-1,958,1492,0,0
-259,-468,0,0,0,0,0,0,0,0,0,-1,965,1492,0,0
-252,-468,0,0,0,0,0,0,0,0,0,-1,972,1492,0,0
-245,-468,0,0,0,0,0,0,0,0,0,-1,979,1492,0,0
-238,-468,0,0,0,0,0,0,0,0,0,-1,986,1492,0,0
-231,-468,0,0,0,0,0,0,0,0,0,-1,993,1492,0,0
-224,-468,0,0,0,0,0,0,0,0,0,-1,1000,1492,0,0
-217,-468,0,0,0,0,0,0,0,0,0,-1,1007,1492,0,0
-210,-468,0,0,0,0,0,0,0,0,0,-1,1014,1492,0,0
-203,-468,0,0,0,0,0,0,0,0,0,-1,1021,1492,0,0
-196,-468,0,0,0,0,0,0,0,0,0,-1,1028,1492,0,0
-189,-468,0,0,0,0,0,0,0,0,0,-1,1035,1492,0,0
-182,-468,0,0,0,0,0,0,0,0,0,-1,1042,1492,0,0
-175,-468,0,0,0,0,0,0,0,0,0,-1,1049,1492,0,0
-168,-468,0,0,0,0,0,0,0,0,0,-1,1056,1492,0,0
-161,-468,0,0,0,0,0,0,0,0,0,-1,1063,1492,0,0
-154,-468,0,0,0,0,0,0,0,0,0,-1,1070,1492,0,0
-147,-468,0,0,0,0,0,0,0,0,0,-1,1077,1492,0,0
-140,-468,0,0,0,0,0,0,0,0,0,-1,1084,1492,0,0
-133,-468,0,0,0,0,0,0,0,0,0,-1,1091,1492,0,0
-126,-468,0,0,0,0,0,0,0,0,0,-1,1098,1492,0,0
-119,-468,0,0,0,0,0,0,0,0,0,-1,1105,1492,0,0
-112,-468,0,0,0,0,0,0,0,0,0,-1,1112,1492,0,0
-105,-468,0,0,0,0,0,0,0,0,0,-1,1119,1492,0,0
-98,-468,0,0,0,0,0,0,0,0,0,-1,1126,1492,0,0
-91,-468,0,0,0,0,0,0,0,0,0,-1,1133,1492,0,0
-84,-468,0,0,0,0,0,0,0,0,0,-1,1140,1492,0,0
-77,-468,0,0,0,0,0,0,0,0,0,-1,1147,1492,0,0
-70,-468,0,0,0,0,0,0,0,0,0,-1,1154,1492,0,0
-63,-468,0,0,0,0,0,0,0,0,0,-1,1161,1492,0,0
-56,-468,0,0,0,0,0,0,0,0,0,-1,1168,1492,0,0
-49,-468,0,0,0,0,0,0,0,0,0,-1,1175,1492,0,0
-42,-468,0,0,0,0,0,0,0,0,0,-1,1182,1492,0,0
-35,-468,0,0,0,0,0,0,0,0,0,-1,1189,1492,0,0
-28,-468,0,0,0,0,0,0,0,0,0,-1,1196,1492,0,0
-21,-468,0,0,0,0,0,0,0,0,0,-1,1203,1492,0,0
-14,-468,0,0,0,0,0,0,0,0,0,-1,1210,1492,0,0
-7,-468,0,0,0,0,0,0,0,0,0,-1,1217,1492,0,0
0,-468,0,0,0,0,0,0,0,0,0,-1,1224,1492,0,0
7,-468,0,0,0,0,0,0,0,0,0,-1,1231,1492,0,0
14,-468,0,0,0,0,0,0,0,0,0,-1,1238,1492,0,0
21,-468,0,0,0,0,0,0,0,0,0,-1,1245,1492,0,0
28,-468,0,0,0,0,0,0,0,0,0,-1,1252,1492,0,0
35,-468,0,0,0,0,0,0,0,0,0,-1,1259,1492,0,0
42,-468,0,0,0,0,0,0,0,0,0,-1,1266,1492,0,0
49,-468,0,0,0,0,0,0,0,0,0,-1,1273,1492,0,0
56,-468,0,0,0,0,0,0,0,0,0,-1,1280,1492,0,0
63,-468,0,0,0,0,0,0,0,0,0,-1,1287,1492,0,0
70,-468,0,0,0,0,0,0,0,0,0,-1,1294,1492,0,0
77,-468,0,0,0,0,0,0,0,0,0,-1,1301,1492,0,0
84,-468,0,0,0,0,0,0,0,0,0,-1,1308,1492,0,0
91,-468,0,0,0,0,0,0,0,0,0,-1,1315,1492,0,0
98,-468,0,0,0,0,0,0,0,0,0,-1,1322,1492,0,0
105,-468,0,0,0,0,0,0,0,0,0,-1,1329,1492,0,0
112,-468,0,0,0,0,0,0,0,0,0,-1,1336,1492,0,0
119,-468,0,0,0,0,0,0,0,0,0,-1,1343,1492,0,0
126,-468,0,0,0,0,0,0,0,0,0,-1,1350,1492,0,0
133,-468,0,0,0,0,0,0,0,0,0,-1,1357,1492,0,0
140,-468,0,0,0,0,0,0,0,0,0,-1,1364,1492,0,0
147,-468,0,0,0,0,0,0,0,0,0,-1,1371,1492,0,0
154,-468,0,0,0,0,0,0,0,0,0,-1,1378,1492,0,0
161,-468,0,0,0,0,0,0,0,0,0,-1,1385,1492,0,0
168,-468,0,0,0,0,0,0,0,0,0,-1,1392,1492,0,0
175,-468,0,0,0,0,0,0,0,0,0,-1,1399,1492,0,0
182,-468,0,0,0,0,0,0,0,0,0,-1,1406,1492,0,0
189,-468,0,0,0,0,0,0,0,0,0,-1,1413,1492,0,0
196,-468,0,0,0,0,0,0,0,0,0,-1,1420,1492,0,0
203,-468,0,0,0,0,0,0,0,0,0,-1,1427,1492,0,0
210,-468,0,0,0,0,0,0,0,0,0,-1,1434,1492,0,0
217,-468,0,0,0,0,0,0,0,0,0,-1,1441,1492,0,0
224,-468,0,0,0,0,0,0,0,0,0,-1,1448,1492,0,0
231,-468,0,0,0,0,0,0,0,0,0,-1,1455,1492,0,0
238,-468,0,0,0,0,0,0,0,0,0,-1,1462,1492,0,0
245,-468,0,0,0,0,0,0,0,0,0,-1,1469,1492,0,0
252,-468,0,0,0,0,0,0,0,0,0,-1,1476,1492,0,0
259,-468,0,0,0,0,0,0,0,0,0,-1,1483,1492,0,0
266,-468,0,0,0,0,0,0,0,0,0,-1,1490,1492,0,0
273,-468,0,0,0,0,0,0,0,0,0,-1,1497,1492,0,0
280,-468,0,0,0,0,0,0,0,0,0,-1,1504,1492,0,0
287,-468,0,0,0,0,0,0,0,0,0,-1,1511,1492,0,0
294,-468,0,0,0,0,0,0,0,0,0,-1,1518,1492,0,0
301,-468,0,0,0,0,0,0,0,0,0,-1,1525,1492,0,0
308,-468,0,0,0,0,0,0,0,0,0,-1,1532,1492,0,0
315,-468,0,0,0,0,0,0,0,0,0,-1,1539,1492,0,0
322,-468,0,0,0,0,0,0,0,0,0,-1,1546,1492,0,0
329,-468,0,0,0,0,0,0,0,0,0,-1,1553,1492,0,0
336,-468,0,0,0,0,0,0,0,0,0,-1,1560,1492,0,0
343,-468,0,0,0,0,0,0,0,0,0,-1,1567,1492,0,0
350,-468,0,0,0,0,0,0,0,0,0,-1,1574,1492,0,0
357,-468,0,0,0,0,0,0,0,0,0,-1,1581,1492,0,0
364,-468,0,0,0,0,0,0,0,0,0,-1,1588,1492,0,0
371,-468,0,0,0,0,0,0,0,0,0,-1,1595,1492,0,0
378,-468,0,0,0,0,0,0,0,0,0,-1,1602,1492,0,0
385,-468,0,0,0,0,0,0,0,0,0,-1,1609,1492,0,0
392,-468,0,0,0,0,0,0,0,0,0,-1,1616,1492,0,0
399,-468,0,0,0,0,0,0,0,0,0,-1,1623,1492,0,0
406,-468,0,0,0,0,0,0,0,0,0,-1,1630,1492,0,0
413,-468,0,0,0,0,0,0,0,0,0,-1,1637,1492,0,0
420,-468,0,0,0,0,0,0,0,0,0,-1,1644,1492,0,0
427,-468,0,0,0,0,0,0,0,0,0,-1,1651,1492,0,0
434,-468,0,0,0,0,0,0,0,0,0,-1,1658,1492,0,0
441,-468,0,0,0,0,0,0,0,0,0,-1,1665,1492,0,0
448,-468,0,0,0,0,0,0,0,0,0,-1,1672,1492,0,0
455,-468,0,0,0,0,0,0,0,0,0,-1,1679,1492,0,0
462,-468,0,0,0,0,0,0,0,0,0,-1,1686,1492,0,0
469,-468,15.6879,1.2677,0,0,0,0,0,0,0,-1,1693,1492,15.6879,-1.26772
476,-468,14.9318,1.61865,0,0,0,0,0,0,0,-1,1700,1492,14.9318,-1.61869
483,-468,11.265,4.64795,0,0,0,0,0,0,0,-1,1707,1492,11.265,-4.64798
490,-468,12.1316,3.51624,0,0,0,0,0,0,0,-1,1714,1492,12.1316,-3.51628
497,-468,16.5355,3.14587,0,0,0,0,0,0,0,-1,1721,1492,16.5356,-3.14583
504,-468,15.0642,4.10437,0,0,0,0,0,0,0,-1,1728,1492,15.0643,-4.10431
511,-468,13.931,13.3701,0,0,0,0,0,0,0,-1,1735,1492,13.931,-13.3701
518,-468,13.9979,10.8964,0,0,0,0,0,0,0,-1,1742,1492,13.998,-10.8963
525,-468,13.4364,10.5575,0,0,0,0,0,0,0,-1,1749,1492,13.4363,-10.5575
532,-468,12.8365,9.90881,0,0,0,0,0,0,0,-1,1756,1492,12.8366,-9.90885
539,-468,11.9562,9.75012,0,0,0,0,0,0,0,-1,1763,1492,11.9561,-9.75017
546,-468,11.6724,9.58081,-0.02267,-0.0237511,0.0197236,-0.00347955,-0.0429415,0.771698,0.0275412,0.0478837,1770,1492,11.6724,-9.58085
553,-468,11.5093,9.52466,-0.0188625,-0.0179691,0.0146954,-0.00371361,-0.033118,0.800591,0.0209508,0.0326499,1777,1492,11.5093,-9.52465
560,-468,11.454,9.56873,-0.0146242,-0.0142829,0.0113686,-0.00308366,-0.0258235,0.792902,0.0162854,0.019234,1784,1492,11.454,-9.56871
567,-468,11.4429,9.40857,-0.011156,-0.0109724,0.00869021,-0.00237354,-0.0197549,0.79068,0.0124544,0.0140272,1791,1492,11.4429,-9.40859
574,-468,11.463,9.18457,-0.00831093,-0.00834182,0.00656167,-0.00176468,-0.0148881,0.784221,0.00939257,0.0139369,1798,1492,11.463,-9.18462
581,-468,11.4744,8.98657,-0.00601448,-0.00626925,0.00483439,-0.00130579,-0.0109779,0.772226,0.00692452,0.0136494,1805,1492,11.4744,-8.98654
588,-468,11.4384,8.78076,-0.00416862,-0.0046301,0.00368436,-0.000707782,-0.00809094,0.754125,0.00517419,0.0118206,1812,1492,11.4384,-8.7808
595,-468,11.4324,8.53699,-0.0028542,-0.00335139,0.00292627,-0.00016599,-0.0060396,0.743023,0.00397223,0.0101816,1819,1492,11.4324,-8.53694
602,-468,11.4329,8.28345,-0.00202029,-0.00246282,0.00249974,0.000267952,-0.00475107,0.741255,0.00326037,0.00853683,1826,1492,11.4329,-8.28351
609,-468,11.4164,8.0531,-0.00132482,-0.00188962,0.00233874,0.000748504,-0.00396294,0.725315,0.00292358,0.00914442,1833,1492,11.4163,-8.05312
616,-468,11.4143,7.83484,-0.000540474,-0.00169936,0.00239069,0.00133999,-0.00357982,0.666503,0.00293694,0.00976694,1840,1492,11.4143,-7.83478
623,-468,11.4165,7.62634,-4.26052e-05,-0.00182986,0.0027302,0.0019365,-0.00380897,0.627237,0.00337535,0.010472,1847,1492,11.4165,-7.62631
630,-468,11.4382,7.40613,0.000375037,-0.00229492,0.00332956,0.00262728,-0.00454716,0.594737,0.00419131,0.0101993,1854,1492,11.4383,-7.40612
637,-468,11.4646,7.1582,0.000961087,-0.00277922,0.0040669,0.00356722,-0.00538535,0.569892,0.00520418,0.0147747,1861,1492,11.4646,-7.15815
644,-468,11.4193,6.96838,0.00185451,-0.00328518,0.00476797,0.00470109,-0.00613176,0.538226,0.0062725,0.0334251,1868,1492,11.4194,-6.96837
651,-468,11.4407,6.65088,0,0,0,0,0,0,0,-1,1875,1492,11.4406,-6.65087
658,-468,11.4136,6.31689,0,0,0,0,0,0,0,-1,1882,1492,11.4136,-6.31687
665,-468,11.5388,5.87891,0,0,0,0,0,0,0,-1,1889,1492,11.5388,-5.87896
672,-468,9.96814,3.61133,0,0,0,0,0,0,0,-1,1896,1492,9.96817,-3.61139
679,-468,11.2191,1.91968,0,0,0,0,0,0,0,-1,1903,1492,11.2191,-1.91965
686,-468,11.9252,1.42285,0,0,0,0,0,0,0,-1,1910,1492,11.9252,-1.42291
693,-468,0,0,0,0,0,0,0,0,0,-1,1917,1492,0,0
700,-468,0,0,0,0,0,0,0,0,0,-1,1924,1492,0,0
707,-468,0,0,0,0,0,0,0,0,0,-1,1931,1492,0,0
714,-468,0,0,0,0,0,0,0,0,0,-1,1938,1492,0,0
721,-468,0,0,0,0,0,0,0,0,0,-1,1945,1492,0,0
728,-468,0,0,0,0,0,0,0,0,0,-1,1952,1492,0,0
735,-468,0,0,0,0,0,0,0,0,0,-1,1959,1492,0,0
742,-468,0,0,0,0,0,0,0,0,0,-1,1966,1492,0,0
749,-468,0,0,0,0,0,0,0,0,0,-1,1973,1492,0,0
756,-468,0,0,0,0,0,0,0,0,0,-1,1980,1492,0,0
763,-468,0,0,0,0,0,0,0,0,0,-1,1987,1492,0,0
770,-468,0,0,0,0,0,0,0,0,0,-1,1994,1492,0,0
777,-468,0,0,0,0,0,0,0,0,0,-1,2001,1492,0,0
784,-468,0,0,0,0,0,0,0,0,0,-1,2008,1492,0,0
791,-468,0,0,0,0,0,0,0,0,0,-1,2015,1492,0,0
798,-468,0,0,0,0,0,0,0,0,0,-1,2022,1492,0,0
805,-468,0,0,0,0,0,0,0,0,0,-1,2029,1492,0,0
812,-468,0,0,0,0,0,0,0,0,0,-1,2036,1492,0,0
-700,-475,0,0,0,0,0,0,0,0,0,-1,524,1499,0,0
-693,-475,0,0,0,0,0,0,0,0,0,-1,531,1499,0,0
-686,-475,0,0,0,0,0,0,0,0,0,-1,538,1499,0,0
-679,-475,0,0,0,0,0,0,0,0,0,-1,545,1499,0,0
-672,-475,0,0,0,0,0,0,0,0,0,-1,552,1499,0,0
-665,-475,0,0,0,0,0,0,0,0,0,-1,559,1499,0,0
-658,-475,0,0,0,0,0,0,0,0,0,-1,566,1499,0,0
-651,-475,0,0,0,0,0,0,0,0,0,-1,573,1499,0,0
-644,-475,0,0,0,0,0,0,0,0,0,-1,580,1499,0,0
-637,-475,0,0,0,0,0,0,0,0,0,-1,587,1499,0,0
-630,-475,0,0,0,0,0,0,0,0,0,-1,594,1499,0,0
-623,-475,0,0,0,0,0,0,0,0,0,-1,601,1499,0,0
-616,-475,0,0,0,0,0,0,0,0,0,-1,608,1499,0,0
-609,-475,0,0,0,0,0,0,0,0,0,-1,615,1499,0,0
-602,-475,0,0,0,0,0,0,0,0,0,-1,622,1499,0,0
-595,-475,0,0,0,0,0,0,0,0,0,-1,629,1499,0,0
-588,-475,0,0,0,0,0,0,0,0,0,-1,636,1499,0,0
-581,-475,0,0,0,0,0,0,0,0,0,-1,643,1499,0,0
-574,-475,0,0,0,0,0,0,0,0,0,-1,650,1499,0,0
-567,-475,0,0,0,0,0,0,0,0,0,-1,657,1499,0,0
-560,-475,-9.42731,9.29517,0,0,0,0,0,0,0,-1,664,1499,-9.42731,-9.29519
-553,-475,-8.15131,8.78369,0,0,0,0,0,0,0,-1,671,1499,-8.15131,-8.78367
-546,-475,-8.41254,8.20654,0,0,0,0,0,0,0,-1,678,1499,-8.41251,-8.20655
-539,-475,-4.14594,2.76343,0,0,0,0,0,0,0,-1,685,1499,-4.14595,-2.76344
-532,-475,-3.1698,4.78674,0,0,0,0,0,0,0,-1,692,1499,-3.1698,-4.78677
-525,-475,-2.80627,5.047,0.0554584,0.00173255,0.0176656,0.0607465,-0.00355558,0.290857,0.0417334,0.0430114,699,1499,-2.80625,-5.04704
-518,-475,-2.6759,5.20044,0.0391289,0.00162936,0.0124775,0.0429012,-0.00214291,0.293589,0.0293412,0.0469401,706,1499,-2.67591,-5.2005
-511,-475,-2.65955,5.28296,0,0,0,0,0,0,0,-1,713,1499,-2.65955,-5.28297
-504,-475,-1.88098,5.4436,0.0173127,0.00159104,0.00564497,0.0191296,-0.000225848,0.311389,0.012829,0.0281196,720,1499,-1.88099,-5.44365
-497,-475,-1.93689,5.73132,0.0107272,0.00152494,0.00362385,0.0119829,0.000269216,0.333567,0.00790041,0.0141926,727,1499,-1.93688,-5.73127
-490,-475,-1.93433,5.97766,0.00632514,0.00128837,0.00210979,0.00709209,0.000521416,0.348671,0.00456419,0.00847634,734,1499,-1.93434,-5.97763
-483,-475,-1.93927,6.23926,0.00304814,0.000632856,0.000798068,0.00328802,0.000392979,0.291982,0.00207347,0.00817246,741,1499,-1.93929,-6.23927
-476,-475,-1.94836,6.46545,0.000885809,-0.000361713,-0.000573506,0.00110939,-0.000585293,-0.371724,0.000993899,0.00940932,748,1499,-1.94837,-6.4654
-469,-475,-1.9314,6.70532,-0.000261259,-0.00142553,-0.00151723,0.00078168,-0.00246847,-0.602217,0.0019589,0.0110094,755,1499,-1.93139,-6.70535
-462,-475,-1.89557,6.9552,-0.000257349,-0.00304787,-0.00241025,0.00113236,-0.00443758,-0.523023,0.0033993,0.0158924,762,1499,-1.89559,-6.95522
-455,-475,-1.91003,7.19666,0.000238713,-0.00515018,-0.0033014,0.00180564,-0.0067171,-0.443142,0.00518582,0.0147362,769,1499,-1.91005,-7.19664
-448,-475,-1.95569,7.44775,0.00114996,-0.00777167,-0.00420635,0.0028204,-0.0094421,-0.378023,0.00741585,0.0130887,776,1499,-1.95568,-7.44775
-441,-475,-1.96826,7.71533,0.00201354,-0.0105182,-0.00528731,0.00394625,-0.0124509,-0.35045,0.00988225,0.0158564,783,1499,-1.96828,-7.71534
-434,-475,-1.9386,7.9259,0.00325548,-0.0133522,-0.00652801,0.00551425,-0.015611,-0.333117,0.0126525,0.0100085,790,1499,-1.93859,-7.92593
-427,-475,-1.89337,8.18652,0.00520961,-0.016343,-0.0077421,0.0077024,-0.0188358,-0.311497,0.0157649,0.0134698,797,1499,-1.89338,-8.18647
-420,-475,-1.80609,8.41138,0.00752005,-0.0197517,-0.00907638,0.0102646,-0.0224962,-0.29364,0.0193489,0.0231142,804,1499,-1.80608,-8.41134
-413,-475,-1.55414,8.34656,0.0107098,-0.0232968,-0.0104257,0.0136516,-0.0262386,-0.275021,0.0234097,0.0418359,811,1499,-1.55415,-8.34662
-406,-475,-1.06122,8.36365,0,0,0,0,0,0,0,-1,818,1499,-1.06124,-8.36369
-399,-475,-1.67731,5.84595,0,0,0,0,0,0,0,-1,825,1499,-1.67733,-5.84596
-392,-475,0.217163,8.61389,0,0,0,0,0,0,0,-1,832,1499,0.217167,-8.6139
-385,-475,1.18372,2.73999,0,0,0,0,0,0,0,-1,839,1499,1.18372,-2.73995
-378,-475,1.31409,2.90149,0,0,0,0,0,0,0,-1,846,1499,1.31411,-2.90151
-371,-475,2.3476,3.31116,0,0,0,0,0,0,0,-1,853,1499,2.34761,-3.31121
-364,-475,1.04462,9.05823,0,0,0,0,0,0,0,-1,860,1499,1.04461,-9.05825
-357,-475,-0.262756,7.97205,0,0,0,0,0,0,0,-1,867,1499,-0.262784,-7.97205
-350,-475,-2.77173,4.35486,0,0,0,0,0,0,0,-1,874,1499,-2.77175,-4.35491
-343,-475,-6.81641,-1.95203,0,0,0,0,0,0,0,-1,881,1499,-6.81643,1.95198
-336,-475,0,0,0,0,0,0,0,0,0,-1,888,1499,0,0
-329,-475,0,0,0,0,0,0,0,0,0,-1,895,1499,0,0
-322,-475,0,0,0,0,0,0,0,0,0,-1,902,1499,0,0
-315,-475,0,0,0,0,0,0,0,0,0,-1,909,1499,0,0
-308,-475,0,0,0,0,0,0,0,0,0,-1,916,1499,0,0
-301,-475,0,0,0,0,0,0,0,0,0,-1,923,1499,0,0
-294,-475,0,0,0,0,0,0,0,0,0,-1,930,1499,0,0
-287,-475,0,0,0,0,0,0,0,0,0,-1,937,1499,0,0
-280,-475,0,0,0,0,0,0,0,0,0,-1,944,1499,0,0
-273,-475,0,0,0,0,0,0,0,0,0,-1,951,1499,0,0
-266,-475,0,0,0,0,0,0,0,0,0,-1,958,1499,0,0
-259,-475,0,0,0,0,0,0,0,0,0,-1,965,1499,0,0
-252,-475,0,0,0,0,0,0,0,0,0,-1,972,1499,0,0
-245,-475,0,0,0,0,0,0,0,0,0,-1,979,1499,0,0
-238,-475,0,0,0,0,0,0,0,0,0,-1,986,1499,0,0
-231,-475,0,0,0,0,0,0,0,0,0,-1,993,1499,0,0
-224,-475,0,0,0,0,0,0,0,0,0,-1,1000,1499,0,0
-217,-475,0,0,0,0,0,0,0,0,0,-1,1007,1499,0,0
-210,-475,0,0,0,0,0,0,0,0,0,-1,1014,1499,0,0
-203,-475,0,0,0,0,0,0,0,0,0,-1,1021,1499,0,0
-196,-475,0,0,0,0,0,0,0,0,0,-1,1028,1499,0,0
-189,-475,0,0,0,0,0,0,0,0,0,-1,1035,1499,0,0
-182,-475,0,0,0,0,0,0,0,0,0,-1,1042,1499,0,0
-175,-475,0,0,0,0,0,0,0,0,0,-1,1049,1499,0,0
-168,-475,0,0,0,0,0,0,0,0,0,-1,1056,1499,0,0
-161,-475,0,0,0,0,0,0,0,0,0,-1,1063,1499,0,0
-154,-475,0,0,0,0,0,0,0,0,0,-1,1070,1499,0,0
-147,-475,0,0,0,0,0,0,0,0,0,-1,1077,1499,0,0
-140,-475,0,0,0,0,0,0,0,0,0,-1,1084,1499,0,0
-133,-475,0,0,0,0,0,0,0,0,0,-1,1091,1499,0,0
-126,-475,0,0,0,0,0,0,0,0,0,-1,1098,1499,0,0
-119,-475,0,0,0,0,0,0,0,0,0,-1,1105,1499,0,0
-112,-475,0,0,0,0,0,0,0,0,0,-1,1112,1499,0,0
-105,-475,0,0,0,0,0,0,0,0,0,-1,1119,1499,0,0
-98,-475,0,0,0,0,0,0,0,0,0,-1,1126,1499,0,0
-91,-475,0,0,0,0,0,0,0,0,0,-1,1133,1499,0,0
-84,-475,0,0,0,0,0,0,0,0,0,-1,1140,1499,0,0
-77,-475,0,0,0,0,0,0,0,0,0,-1,1147,1499,0,0
-70,-475,0,0,0,0,0,0,0,0,0,-1,1154,1499,0,0
-63,-475,0,0,0,0,0,0,0,0,0,-1,1161,1499,0,0
-56,-475,0,0,0,0,0,0,0,0,0,-1,1168,1499,0,0
-49,-475,0,0,0,0,0,0,0,0,0,-1,1175,1499,0,0
-42,-475,0,0,0,0,0,0,0,0,0,-1,1182,1499,0,0
-35,-475,0,0,0,0,0,0,0,0,0,-1,1189,1499,0,0
-28,-475,0,0,0,0,0,0,0,0,0,-1,1196,1499,0,0
-21,-475,0,0,0,0,0,0,0,0,0,-1,1203,1499,0,0
-14,-475,0,0,0,0,0,0,0,0,0,-1,1210,1499,0,0
-7,-475,0,0,0,0,0,0,0,0,0,-1,1217,1499,0,0
0,-475,0,0,0,0,0,0,0,0,0,-1,1224,1499,0,0
7,-475,0,0,0,0,0,0,0,0,0,-1,1231,1499,0,0
14,-475,0,0,0,0,0,0,0,0,0,-1,1238,1499,0,0
21,-475,0,0,0,0,0,0,0,0,0,-1,1245,1499,0,0
28,-475,0,0,0,0,0,0,0,0,0,-1,1252,1499,0,0
35,-475,0,0,0,0,0,0,0,0,0,-1,1259,1499,0,0
42,-475,0,0,0,0,0,0,0,0,0,-1,1266,1499,0,0
49,-475,0,0,0,0,0,0,0,0,0,-1,1273,1499,0,0
56,-475,0,0,0,0,0,0,0,0,0,-1,1280,1499,0,0
63,-475,0,0,0,0,0,0,0,0,0,-1,1287,1499,0,0
70,-475,0,0,0,0,0,0,0,0,0,-1,1294,1499,0,0
77,-475,0,0,0,0,0,0,0,0,0,-1,1301,1499,0,0
84,-475,0,0,0,0,0,0,0,0,0,-1,1308,1499,0,0
91,-475,0,0,0,0,0,0,0,0,0,-1,1315,1499,0,0
98,-475,0,0,0,0,0,0,0,0,0,-1,1322,1499,0,0
105,-475,0,0,0,0,0,0,0,0,0,-1,1329,1499,0,0
112,-475,0,0,0,0,0,0,0,0,0,-1,1336,1499,0,0
119,-475,0,0,0,0,0,0,0,0,0,-1,1343,1499,0,0
126,-475,0,0,0,0,0,0,0,0,0,-1,1350,1499,0,0
133,-475,0,0,0,0,0,0,0,0,0,-1,1357,1499,0,0
140,-475,0,0,0,0,0,0,0,0,0,-1,1364,1499,0,0
147,-475,0,0,0,0,0,0,0,0,0,-1,1371,1499,0,0
154,-475,0,0,0,0,0,0,0,0,0,-1,1378,1499,0,0
161,-475,0,0,0,0,0,0,0,0,0,-1,1385,1499,0,0
168,-475,0,0,0,0,0,0,0,0,0,-1,1392,1499,0,0
175,-475,0,0,0,0,0,0,0,0,0,-1,1399,1499,0,0
182,-475,0,0,0,0,0,0,0,0,0,-1,1406,1499,0,0
189,-475,0,0,0,0,0,0,0,0,0,-1,1413,1499,0,0
196,-475,0,0,0,0,0,0,0,0,0,-1,1420,1499,0,0
203,-475,0,0,0,0,0,0,0,0,0,-1,1427,1499,0,0
210,-475,0,0,0,0,0,0,0,0,0,-1,1434,1499,0,0
217,-475,0,0,0,0,0,0,0,0,0,-1,1441,1499,0,0
224,-475,0,0,0,0,0,0,0,0,0,-1,1448,1499,0,0
231,-475,0,0,0,0,0,0,0,0,0,-1,1455,1499,0,0
238,-475,0,0,0,0,0,0,0,0,0,-1,1462,1499,0,0
245,-475,0,0,0,0,0,0,0,0,0,-1,1469,1499,0,0
252,-475,0,0,0,0,0,0,0,0,0,-1,1476,1499,0,0
259,-475,0,0,0,0,0,0,0,0,0,-1,1483,1499,0,0
266,-475,0,0,0,0,0,0,0,0,0,-1,1490,1499,0,0
273,-475,0,0,0,0,0,0,0,0,0,-1,1497,1499,0,0
280,-475,0,0,0,0,0,0,0,0,0,-1,1504,1499,0,0
287,-475,0,0,0,0,0,0,0,0,0,-1,1511,1499,0,0
294,-475,0,0,0,0,0,0,0,0,0,-1,1518,1499,0,0
301,-475,0,0,0,0,0,0,0,0,0,-1,1525,1499,0,0
308,-475,0,0,0,0,0,0,0,0,0,-1,1532,1499,0,0
315,-475,0,0,0,0,0,0,0,0,0,-1,1539,1499,0,0
322,-475,0,0,0,0,0,0,0,0,0,-1,1546,1499,0,0
329,-475,0,0,0,0,0,0,0,0,0,-1,1553,1499,0,0
336,-475,0,0,0,0,0,0,0,0,0,-1,1560,1499,0,0
343,-475,0,0,0,0,0,0,0,0,0,-1,1567,1499,0,0
350,-475,0,0,0,0,0,0,0,0,0,-1,1574,1499,0,0
357,-475,0,0,0,0,0,0,0,0,0,-1,1581,1499,0,0
364,-475,0,0,0,0,0,0,0,0,0,-1,1588,1499,0,0
371,-475,0,0,0,0,0,0,0,0,0,-1,1595,1499,0,0
378,-475,0,0,0,0,0,0,0,0,0,-1,1602,1499,0,0
385,-475,0,0,0,0,0,0,0,0,0,-1,1609,1499,0,0
392,-475,0,0,0,0,0,0,0,0,0,-1,1616,1499,0,0
399,-475,0,0,0,0,0,0,0,0,0,-1,1623,1499,0,0
406,-475,0,0,0,0,0,0,0,0,0,-1,1630,1499,0,0
413,-475,0,0,0,0,0,0,0,0,0,-1,1637,1499,0,0
420,-475,0,0,0,0,0,0,0,0,0,-1,1644,1499,0,0
427,-475,0,0,0,0,0,0,0,0,0,-1,1651,1499,0,0
434,-475,0,0,0,0,0,0,0,0,0,-1,1658,1499,0,0
441,-475,0,0,0,0,0,0,0,0,0,-1,1665,1499,0,0
448,-475,0,0,0,0,0,0,0,0,0,-1,1672,1499,0,0
455,-475,0,0,0,0,0,0,0,0,0,-1,1679,1499,0,0
462,-475,12.6372,0.275391,0,0,0,0,0,0,0,-1,1686,1499,12.6372,-0.27536
469,-475,15.6437,2.28296,0,0,0,0,0,0,0,-1,1693,1499,15.6437,-2.28293
476,-475,15.3302,2.71436,0,0,0,0,0,0,0,-1,1700,1499,15.3303,-2.7143
483,-475,10.7461,5.91479,0,0,0,0,0,0,0,-1,1707,1499,10.7461,-5.91476
490,-475,11.9305,4.4364,0,0,0,0,0,0,0,-1,1714,1499,11.9305,-4.43644
497,-475,15.3451,4.3479,0,0,0,0,0,0,0,-1,1721,1499,15.3451,-4.34789
504,-475,14.204,5.17224,0,0,0,0,0,0,0,-1,1728,1499,14.204,-5.17219
511,-475,12.9702,6.20056,0,0,0,0,0,0,0,-1,1735,1499,12.9703,-6.20053
518,-475,12.1044,11.4055,0,0,0,0,0,0,0,-1,1742,1499,12.1044,-11.4055
525,-475,12.1836,9.98242,0,0,0,0,0,0,0,-1,1749,1499,12.1836,-9.98248
532,-475,11.9209,9.84973,-0.0172445,-0.035111,0.0317289,0.00678476,-0.0591403,0.648176,0.0418721,0.045326,1756,1499,11.9209,-9.84973
539,-475,11.5435,9.82983,-0.0192462,-0.0266418,0.0235851,0.000929205,-0.0468172,0.707638,0.0315258,0.044384,1763,1499,11.5435,-9.82989
546,-475,11.3499,9.82019,-0.0178668,-0.0196964,0.0170579,-0.00169918,-0.0358641,0.758608,0.0233636,0.0375452,1770,1499,11.3499,-9.82017
553,-475,11.3044,9.76685,-0.0149056,-0.0144759,0.0123445,-0.00234434,-0.0270371,0.794101,0.0172964,0.0195676,1777,1499,11.3044,-9.76686
560,-475,11.1782,9.65247,-0.0113974,-0.0114336,0.00936188,-0.00205361,-0.0207774,0.784434,0.0132203,0.0146988,1784,1499,11.1782,-9.65246
567,-475,11.2357,9.41687,-0.00847536,-0.00864116,0.00695986,-0.00159791,-0.0155186,0.779443,0.00985638,0.0139479,1791,1499,11.2357,-9.4169
574,-475,11.2362,9.18591,-0.00605284,-0.00647215,0.00508612,-0.00117206,-0.0113529,0.764799,0.00720976,0.0140132,1798,1499,11.2362,-9.18589
581,-475,11.2294,8.97241,-0.0041292,-0.00477,0.00358605,-0.000849261,-0.00804993,0.740843,0.00510713,0.0112577,1805,1499,11.2293,-8.97241
588,-475,11.2106,8.76221,-0.00262376,-0.00348616,0.00270323,-0.000317555,-0.00579236,0.706308,0.00376019,0.00939379,1812,1499,11.2105,-8.76226
595,-475,11.2146,8.52539,-0.0015677,-0.00244185,0.00213418,0.000173702,-0.00418325,0.684397,0.0028485,0.0108069,1819,1499,11.2146,-8.52534
602,-475,11.2227,8.29089,-0.000981235,-0.00176159,0.00191554,0.000583462,-0.00332629,0.684928,0.00243542,0.0125299,1826,1499,11.2227,-8.29094
609,-475,11.2106,8.08545,-0.000550495,-0.00138439,0.00199793,0.00107353,-0.00300841,0.68253,0.00244337,0.0110832,1833,1499,11.2106,-8.0854
616,-475,11.2046,7.8623,-9.81419e-05,-0.00140573,0.00234769,0.00168509,-0.00318896,0.649597,0.00285833,0.0107331,1840,1499,11.2046,-7.86235
623,-475,11.1982,7.64075,6.95958e-05,-0.00177006,0.00302882,0.00231518,-0.00401564,0.637978,0.00369879,0.0108074,1847,1499,11.1982,-7.64078
630,-475,11.2301,7.43616,0.00016025,-0.00247971,0.00401472,0.00306642,-0.00538588,0.626572,0.0049408,0.0129422,1854,1499,11.2302,-7.43622
637,-475,11.2849,7.22156,0.000376318,-0.00318213,0.00522041,0.00411238,-0.00691819,0.621161,0.00643681,0.0276259,1861,1499,11.2849,-7.22157
644,-475,11.3723,6.94067,0,0,0,0,0,0,0,-1,1868,1499,11.3724,-6.94072
651,-475,11.7965,7.57593,0,0,0,0,0,0,0,-1,1875,1499,11.7965,-7.5759
658,-475,11.2361,6.42981,0,0,0,0,0,0,0,-1,1882,1499,11.2361,-6.4298
665,-475,9.33435,5.43335,0,0,0,0,0,0,0,-1,1889,1499,9.33439,-5.43332
672,-475,9.38635,1.10474,0,0,0,0,0,0,0,-1,1896,1499,9.38629,-1.10475
679,-475,12.2594,1.31079,0,0,0,0,0,0,0,-1,1903,1499,12.2594,-1.31077
686,-475,0,0,0,0,0,0,0,0,0,-1,1910,1499,0,0
693,-475,0,0,0,0,0,0,0,0,0,-1,1917,1499,0,0
700,-475,0,0,0,0,0,0,0,0,0,-1,1924,1499,0,0
707,-475,0,0,0,0,0,0,0,0,0,-1,1931,1499,0,0
714,-475,0,0,0,0,0,0,0,0,0,-1,1938,1499,0,0
721,-475,0,0,0,0,0,0,0,0,0,-1,1945,1499,0,0
728,-475,0,0,0,0,0,0,0,0,0,-1,1952,1499,0,0
735,-475,0,0,0,0,0,0,0,0,0,-1,1959,1499,0,0
742,-475,0,0,0,0,0,0,0,0,0,-1,1966,1499,0,0
749,-475,0,0,0,0,0,0,0,0,0,-1,1973,1499,0,0
756,-475,0,0,0,0,0,0,0,0,0,-1,1980,1499,0,0
763,-475,0,0,0,0,0,0,0,0,0,-1,1987,1499,0,0
770,-475,0,0,0,0,0,0,0,0,0,-1,1994,1499,0,0
777,-475,0,0,0,0,0,0,0,0,0,-1,2001,1499,0,0
784,-475,0,0,0,0,0,0,0,0,0,-1,2008,1499,0,0
791,-475,0,0,0,0,0,0,0,0,0,-1,2015,1499,0,0
798,-475,0,0,0,0,0,0,0,0,0,-1,2022,1499,0,0
805,-475,0,0,0,0,0,0,0,0,0,-1,2029,1499,0,0
812,-475,0,0,0,0,0,0,0,0,0,-1,2036,1499,0,0
-700,-482,0,0,0,0,0,0,0,0,0,-1,524,1506,0,0
-693,-482,0,0,0,0,0,0,0,0,0,-1,531,1506,0,0
-686,-482,0,0,0,0,0,0,0,0,0,-1,538,1506,0,0
-679,-482,0,0,0,0,0,0,0,0,0,-1,545,1506,0,0
-672,-482,0,0,0,0,0,0,0,0,0,-1,552,1506,0,0
-665,-482,0,0,0,0,0,0,0,0,0,-1,559,1506,0,0
-658,-482,0,0,0,0,0,0,0,0,0,-1,566,1506,0,0
-651,-482,0,0,0,0,0,0,0,0,0,-1,573,1506,0,0
-644,-482,0,0,0,0,0,0,0,0,0,-1,580,1506,0,0
-637,-482,0,0,0,0,0,0,0,0,0,-1,587,1506,0,0
-630,-482,0,0,0,0,0,0,0,0,0,-1,594,1506,0,0
-623,-482,0,0,0,0,0,0,0,0,0,-1,601,1506,0,0
-616,-482,0,0,0,0,0,0,0,0,0,-1,608,1506,0,0
-609,-482,0,0,0,0,0,0,0,0,0,-1,615,1506,0,0
-602,-482,0,0,0,0,0,0,0,0,0,-1,622,1506,0,0
-595,-482,0,0,0,0,0,0,0,0,0,-1,629,1506,0,0
-588,-482,0,0,0,0,0,0,0,0,0,-1,636,1506,0,0
-581,-482,0,0,0,0,0,0,0,0,0,-1,643,1506,0,0
-574,-482,0,0,0,0,0,0,0,0,0,-1,650,1506,0,0
-567,-482,0,0,0,0,0,0,0,0,0,-1,657,1506,0,0
-560,-482,0,0,0,0,0,0,0,0,0,-1,664,1506,0,0
-553,-482,-9.06055,9.34314,0,0,0,0,0,0,0,-1,671,1506,-9.06056,-9.34312
-546,-482,-4.08624,8.34241,0,0,0,0,0,0,0,-1,678,1506,-4.08624,-8.3424
-539,-482,-5.94067,7.21851,0,0,0,0,0,0,0,-1,685,1506,-5.94069,-7.21847
-532,-482,-3.02106,5.43359,0,0,0,0,0,0,0,-1,692,1506,-3.02104,-5.43355
-525,-482,-2.7757,5.43115,0,0,0,0,0,0,0,-1,699,1506,-2.77572,-5.43119
-518,-482,-2.79016,5.30786,0,0,0,0,0,0,0,-1,706,1506,-2.79018,-5.30785
-511,-482,-1.61127,4.70679,0,0,0,0,0,0,0,-1,713,1506,-1.61126,-4.70678
-504,-482,-1.57043,5.20361,0.0163283,0.00340035,0.00605211,0.0187193,0.00100932,0.376251,0.0121571,0.0409361,720,1506,-1.57042,-5.20359
-497,-482,-1.59821,5.66882,0.00955097,0.00333167,0.0039398,0.0114605,0.00142216,0.45131,0.00721315,0.0239944,727,1506,-1.59818,-5.66876
-490,-482,-1.67767,5.93347,0.00511131,0.00308912,0.00242476,0.00672734,0.00147309,0.587866,0.00408342,0.0141559,734,1506,-1.67765,-5.9335
-483,-482,-1.68518,6.21277,0.00195307,0.0024022,0.00124484,0.00344257,0.000912702,0.874635,0.00205937,0.00847347,741,1506,-1.68515,-6.21278
-476,-482,-1.69,6.46021,2.34986e-05,0.0014982,0.000126758,0.00150902,1.26826e-05,1.48567,0.00100181,0.00962834,748,1506,-1.69001,-6.4602
-469,-482,-1.69769,6.71973,-0.000896822,0.000552138,-0.000527631,0.000723909,-0.00106859,-1.25607,0.00104126,0.0104443,755,1506,-1.69767,-6.71972
-462,-482,-1.68262,6.96375,-0.000711454,-0.000918016,-0.0011082,0.000298269,-0.00192774,-0.738934,0.00139525,0.0115752,762,1506,-1.68261,-6.96376
-455,-482,-1.68512,7.20227,-4.14811e-05,-0.00276019,-0.00162,0.000713937,-0.0035156,-0.436331,0.00261441,0.0123815,769,1506,-1.68512,-7.20232
-448,-482,-1.69745,7.46606,0.00103685,-0.00502429,-0.00211268,0.00170057,-0.00568801,-0.304397,0.00446807,0.0128895,776,1506,-1.69746,-7.46611
-441,-482,-1.7088,7.71216,0.00206601,-0.00728369,-0.00276091,0.00282042,-0.0080381,-0.266735,0.00650595,0.0122184,783,1506,-1.70882,-7.7121
-434,-482,-1.71466,7.94202,0.00342949,-0.00942274,-0.00352351,0.00433209,-0.0103253,-0.250773,0.00869508,0.0147565,790,1506,-1.71463,-7.94198
-427,-482,-1.7229,8.21985,0.0054405,-0.0116639,-0.00422367,0.00642662,-0.01265,-0.229365,0.0112076,0.0166229,797,1506,-1.72289,-8.21986
-420,-482,-1.64301,8.57202,0.00773159,-0.0141361,-0.00502281,0.0088301,-0.0152346,-0.215314,0.0140568,0.0259418,804,1506,-1.64299,-8.57204
-413,-482,-1.47614,8.61133,0.0106829,-0.0165544,-0.00584467,0.0118841,-0.0177556,-0.202697,0.017224,0.0375457,811,1506,-1.47614,-8.61135
-406,-482,-1.44781,8.62109,0,0,0,0,0,0,0,-1,818,1506,-1.44783,-8.62111
-399,-482,-1.16846,8.88196,0,0,0,0,0,0,0,-1,825,1506,-1.16847,-8.88191
-392,-482,-0.604797,8.51086,0,0,0,0,0,0,0,-1,832,1506,-0.604787,-8.51088
-385,-482,0.0647583,8.90649,0,0,0,0,0,0,0,-1,839,1506,0.0647778,-8.90644
-378,-482,0.215698,5.96948,0,0,0,0,0,0,0,-1,846,1506,0.215681,-5.9695
-371,-482,-0.10907,8.10437,0,0,0,0,0,0,0,-1,853,1506,-0.109063,-8.10433
-364,-482,-0.154968,10.5032,0,0,0,0,0,0,0,-1,860,1506,-0.154976,-10.5032
-357,-482,2.14807,4.60144,0,0,0,0,0,0,0,-1,867,1506,2.14807,-4.60144
-350,-482,-7.5813,-1.45935,0,0,0,0,0,0,0,-1,874,1506,-7.58133,1.45937
-343,-482,-7.19983,-1.26416,0,0,0,0,0,0,0,-1,881,1506,-7.19981,1.26414
-336,-482,-6.78491,-1.18127,0,0,0,0,0,0,0,-1,888,1506,-6.78488,1.18125
-329,-482,0,0,0,0,0,0,0,0,0,-1,895,1506,0,0
-322,-482,0,0,0,0,0,0,0,0,0,-1,902,1506,0,0
-315,-482,0,0,0,0,0,0,0,0,0,-1,909,1506,0,0
-308,-482,0,0,0,0,0,0,0,0,0,-1,916,1506,0,0
-301,-482,0,0,0,0,0,0,0,0,0,-1,923,1506,0,0
-294,-482,0,0,0,0,0,0,0,0,0,-1,930,1506,0,0
-287,-482,0,0,0,0,0,0,0,0,0,-1,937,1506,0,0
-280,-482,0,0,0,0,0,0,0,0,0,-1,944,1506,0,0
-273,-482,0,0,0,0,0,0,0,0,0,-1,951,1506,0,0
-266,-482,0,0,0,0,0,0,0,0,0,-1,958,1506,0,0
-259,-482,0,0,0,0,0,0,0,0,0,-1,965,1506,0,0
-252,-482,0,0,0,0,0,0,0,0,0,-1,972,1506,0,0
-245,-482,0,0,0,0,0,0,0,0,0,-1,979,1506,0,0
-238,-482,0,0,0,0,0,0,0,0,0,-1,986,1506,0,0
-231,-482,0,0,0,0,0,0,0,0,0,-1,993,1506,0,0
-224,-482,0,0,0,0,0,0,0,0,0,-1,1000,1506,0,0
-217,-482,0,0,0,0,0,0,0,0,0,-1,1007,1506,0,0
-210,-482,0,0,0,0,0,0,0,0,0,-1,1014,1506,0,0
-203,-482,0,0,0,0,0,0,0,0,0,-1,1021,1506,0,0
-196,-482,0,0,0,0,0,0,0,0,0,-1,1028,1506,0,0
-189,-482,0,0,0,0,0,0,0,0,0,-1,1035,1506,0,0
-182,-482,0,0,0,0,0,0,0,0,0,-1,1042,1506,0,0
-175,-482,0,0,0,0,0,0,0,0,0,-1,1049,1506,0,0
-168,-482,0,0,0,0,0,0,0,0,0,-1,1056,1506,0,0
-161,-482,0,0,0,0,0,0,0,0,0,-1,1063,1506,0,0
-154,-482,0,0,0,0,0,0,0,0,0,-1,1070,1506,0,0
-147,-482,0,0,0,0,0,0,0,0,0,-1,1077,1506,0,0
-140,-482,0,0,0,0,0,0,0,0,0,-1,1084,1506,0,0
-133,-482,0,0,0,0,0,0,0,0,0,-1,1091,1506,0,0
-126,-482,0,0,0,0,0,0,0,0,0,-1,1098,1506,0,0
-119,-482,0,0,0,0,0,0,0,0,0,-1,1105,1506,0,0
-112,-482,0,0,0,0,0,0,0,0,0,-1,1112,1506,0,0
-105,-482,0,0,0,0,0,0,0,0,0,-1,1119,1506,0,0
-98,-482,0,0,0,0,0,0,0,0,0,-1,1126,1506,0,0
-91,-482,0,0,0,0,0,0,0,0,0,-1,1133,1506,0,0
-84,-482,0,0,0,0,0,0,0,0,0,-1,1140,1506,0,0
-77,-482,0,0,0,0,0,0,0,0,0,-1,1147,1506,0,0
-70,-482,0,0,0,0,0,0,0,0,0,-1,1154,1506,0,0
-63,-482,0,0,0,0,0,0,0,0,0,-1,1161,1506,0,0
-56,-482,0,0,0,0,0,0,0,0,0,-1,1168,1506,0,0
-49,-482,0,0,0,0,0,0,0,0,0,-1,1175,1506,0,0
-42,-482,0,0,0,0,0,0,0,0,0,-1,1182,1506,0,0
-35,-482,0,0,0,0,0,0,0,0,0,-1,1189,1506,0,0
-28,-482,0,0,0,0,0,0,0,0,0,-1,1196,1506,0,0
-21,-482,0,0,0,0,0,0,0,0,0,-1,1203,1506,0,0
-14,-482,0,0,0,0,0,0,0,0,0,-1,1210,1506,0,0
-7,-482,0,0,0,0,0,0,0,0,0,-1,1217,1506,0,0
0,-482,0,0,0,0,0,0,0,0,0,-1,1224,1506,0,0
7,-482,0,0,0,0,0,0,0,0,0,-1,1231,1506,0,0
14,-482,0,0,0,0,0,0,0,0,0,-1,1238,1506,0,0
21,-482,0,0,0,0,0,0,0,0,0,-1,1245,1506,0,0
28,-482,0,0,0,0,0,0,0,0,0,-1,1252,1506,0,0
35,-482,0,0,0,0,0,0,0,0,0,-1,1259,1506,0,0
42,-482,0,0,0,0,0,0,0,0,0,-1,1266,1506,0,0
49,-482,0,0,0,0,0,0,0,0,0,-1,1273,1506,0,0
56,-482,0,0,0,0,0,0,0,0,0,-1,1280,1506,0,0
63,-482,0,0,0,0,0,0,0,0,0,-1,1287,1506,0,0
70,-482,0,0,0,0,0,0,0,0,0,-1,1294,1506,0,0
77,-482,0,0,0,0,0,0,0,0,0,-1,1301,1506,0,0
84,-482,0,0,0,0,0,0,0,0,0,-1,1308,1506,0,0
91,-482,0,0,0,0,0,0,0,0,0,-1,1315,1506,0,0
98,-482,0,0,0,0,0,0,0,0,0,-1,1322,1506,0,0
105,-482,0,0,0,0,0,0,0,0,0,-1,1329,1506,0,0
112,-482,0,0,0,0,0,0,0,0,0,-1,1336,1506,0,0
119,-482,0,0,0,0,0,0,0,0,0,-1,1343,1506,0,0
126,-482,0,0,0,0,0,0,0,0,0,-1,1350,1506,0,0
133,-482,0,0,0,0,0,0,0,0,0,-1,1357,1506,0,0
140,-482,0,0,0,0,0,0,0,0,0,-1,1364,1506,0,0
147,-482,0,0,0,0,0,0,0,0,0,-1,1371,1506,0,0
154,-482,0,0,0,0,0,0,0,0,0,-1,1378,1506,0,0
161,-482,0,0,0,0,0,0,0,0,0,-1,1385,1506,0,0
168,-482,0,0,0,0,0,0,0,0,0,-1,1392,1506,0,0
175,-482,0,0,0,0,0,0,0,0,0,-1,1399,1506,0,0
182,-482,0,0,0,0,0,0,0,0,0,-1,1406,1506,0,0
189,-482,0,0,0,0,0,0,0,0,0,-1,1413,1506,0,0
196,-482,0,0,0,0,0,0,0,0,0,-1,1420,1506,0,0
203,-482,0,0,0,0,0,0,0,0,0,-1,1427,1506,0,0
210,-482,0,0,0,0,0,0,0,0,0,-1,1434,1506,0,0
217,-482,0,0,0,0,0,0,0,0,0,-1,1441,1506,0,0
224,-482,0,0,0,0,0,0,0,0,0,-1,1448,1506,0,0
231,-482,0,0,0,0,0,0,0,0,0,-1,1455,1506,0,0
238,-482,0,0,0,0,0,0,0,0,0,-1,1462,1506,0,0
245,-482,0,0,0,0,0,0,0,0,0,-1,1469,1506,0,0
252,-482,0,0,0,0,0,0,0,0,0,-1,1476,1506,0,0
259,-482,0,0,0,0,0,0,0,0,0,-1,1483,1506,0,0
266,-482,0,0,0,0,0,0,0,0,0,-1,1490,1506,0,0
273,-482,0,0,0,0,0,0,0,0,0,-1,1497,1506,0,0
280,-482,0,0,0,0,0,0,0,0,0,-1,1504,1506,0,0
287,-482,0,0,0,0,0,0,0,0,0,-1,1511,1506,0,0
294,-482,0,0,0,0,0,0,0,0,0,-1,1518,1506,0,0
301,-482,0,0,0,0,0,0,0,0,0,-1,1525,1506,0,0
308,-482,0,0,0,0,0,0,0,0,0,-1,1532,1506,0,0
315,-482,0,0,0,0,0,0,0,0,0,-1,1539,1506,0,0
322,-482,0,0,0,0,0,0,0,0,0,-1,1546,1506,0,0
329,-482,0,0,0,0,0,0,0,0,0,-1,1553,1506,0,0
336,-482,0,0,0,0,0,0,0,0,0,-1,1560,1506,0,0
343,-482,0,0,0,0,0,0,0,0,0,-1,1567,1506,0,0
350,-482,0,0,0,0,0,0,0,0,0,-1,1574,1506,0,0
357,-482,0,0,0,0,0,0,0,0,0,-1,1581,1506,0,0
364,-482,0,0,0,0,0,0,0,0,0,-1,1588,1506,0,0
371,-482,0,0,0,0,0,0,0,0,0,-1,1595,1506,0,0
378,-482,0,0,0,0,0,0,0,0,0,-1,1602,1506,0,0
385,-482,0,0,0,0,0,0,0,0,0,-1,1609,1506,0,0
392,-482,0,0,0,0,0,0,0,0,0,-1,1616,1506,0,0
399,-482,0,0,0,0,0,0,0,0,0,-1,1623,1506,0,0
406,-482,0,0,0,0,0,0,0,0,0,-1,1630,1506,0,0
413,-482,0,0,0,0,0,0,0,0,0,-1,1637,1506,0,0
420,-482,0,0,0,0,0,0,0,0,0,-1,1644,1506,0,0
427,-482,0,0,0,0,0,0,0,0,0,-1,1651,1506,0,0
434,-482,0,0,0,0,0,0,0,0,0,-1,1658,1506,0,0
441,-482,0,0,0,0,0,0,0,0,0,-1,1665,1506,0,0
448,-482,4.24146,1.55383,0,0,0,0,0,0,0,-1,1672,1506,4.24149,-1.55381
455,-482,12.4122,1.09729,0,0,0,0,0,0,0,-1,1679,1506,12.4122,-1.09734
462,-482,15.0673,3.13135,0,0,0,0,0,0,0,-1,1686,1506,15.0672,-3.13134
469,-482,15.3793,3.46301,0,0,0,0,0,0,0,-1,1693,1506,15.3793,-3.46307
476,-482,8.69751,9.18738,0,0,0,0,0,0,0,-1,1700,1506,8.69753,-9.18739
483,-482,10.0902,7.17432,0,0,0,0,0,0,0,-1,1707,1506,10.0902,-7.1743
490,-482,11.6289,5.4928,0,0,0,0,0,0,0,-1,1714,1506,11.6289,-5.49283
497,-482,12.8986,6.93079,0,0,0,0,0,0,0,-1,1721,1506,12.8986,-6.93082
504,-482,13.5994,6.01233,0,0,0,0,0,0,0,-1,1728,1506,13.5994,-6.01228
511,-482,12.528,7.25598,0,0,0,0,0,0,0,-1,1735,1506,12.528,-7.25593
518,-482,10.4655,9.84277,0,0,0,0,0,0,0,-1,1742,1506,10.4654,-9.84283
525,-482,11.6177,10.0962,0,0,0,0,0,0,0,-1,1749,1506,11.6176,-10.0962
532,-482,11.4148,10.0552,-0.0130456,-0.0307859,0.028301,0.00774273,-0.0515743,0.633536,0.0372331,0.0432709,1756,1506,11.4147,-10.0551
539,-482,11.1794,10.0375,-0.0149075,-0.022647,0.0206983,0.00227968,-0.0398341,0.692986,0.0273477,0.0310478,1763,1506,11.1795,-10.0374
546,-482,11.0518,10.009,-0.0140837,-0.0162506,0.0146336,-0.000493526,-0.0298408,0.748445,0.0197314,0.0170577,1770,1506,11.0518,-10.009
553,-482,11.0062,9.85938,-0.0118482,-0.0115508,0.0103192,-0.00137922,-0.0220197,0.792603,0.0142424,0.0149976,1777,1506,11.0062,-9.85933
560,-482,10.9795,9.64111,-0.00891974,-0.00900001,0.00766069,-0.00129908,-0.0166207,0.782779,0.0106738,0.0125976,1784,1506,10.9795,-9.64106
567,-482,11.0023,9.42749,-0.00640402,-0.00661,0.00549661,-0.00100944,-0.0120046,0.776031,0.00768869,0.014424,1791,1506,11.0024,-9.4275
574,-482,11.0001,9.2074,-0.00428062,-0.0048116,0.00383027,-0.000706651,-0.00838557,0.750796,0.00537035,0.0129684,1798,1506,11.0001,-9.20739
581,-482,10.9979,8.98206,-0.00261293,-0.00340095,0.00250834,-0.000467845,-0.00554604,0.707495,0.00355169,0.00914406,1805,1506,10.998,-8.982
588,-482,10.9939,8.76257,-0.00134264,-0.00240748,0.00183479,3.54205e-05,-0.00378554,0.644186,0.00253558,0.0101663,1812,1506,10.994,-8.76263
595,-482,10.994,8.4967,-0.000432413,-0.00156245,0.00140533,0.000517227,-0.00251209,0.594259,0.00187112,0.0171178,1819,1506,10.994,-8.49671
602,-482,11.0175,8.24194,2.40426e-05,-0.00106377,0.00134514,0.000931076,-0.00197081,0.593272,0.00171087,0.0216208,1826,1506,11.0174,-8.24192
609,-482,11.0033,8.08337,0.000294518,-0.000862117,0.0016294,0.00144519,-0.00201279,0.61487,0.00200541,0.0163772,1833,1506,11.0033,-8.08333
616,-482,10.9758,7.86414,0.000522479,-0.00106237,0.00224382,0.00210969,-0.00264957,0.615655,0.00275365,0.0115816,1840,1506,10.9759,-7.86413
623,-482,10.9734,7.64502,0.000453113,-0.00160817,0.00326376,0.0028451,-0.00400016,0.632461,0.00397082,0.0114796,1847,1506,10.9734,-7.64498
630,-482,11.0334,7.46484,0.000256782,-0.00252852,0.00467363,0.00374084,-0.00601258,0.640597,0.00568183,0.021974,1854,1506,11.0335,-7.4648
637,-482,10.9775,7.63489,0.000108592,-0.00342074,0.00642306,0.00500499,-0.00831714,0.651336,0.00777037,0.0478918,1861,1506,10.9775,-7.63488
644,-482,10.8596,7.62085,0,0,0,0,0,0,0,-1,1868,1506,10.8596,-7.62084
651,-482,4.03845,7.05273,0,0,0,0,0,0,0,-1,1875,1506,4.03843,-7.05279
658,-482,10.0278,5.87903,0,0,0,0,0,0,0,-1,1882,1506,10.0279,-5.87902
665,-482,8.15198,3.22229,0,0,0,0,0,0,0,-1,1889,1506,8.15199,-3.22232
672,-482,9.87415,1.3147,0,0,0,0,0,0,0,-1,1896,1506,9.87416,-1.31473
679,-482,0,0,0,0,0,0,0,0,0,-1,1903,1506,0,0
686,-482,0,0,0,0,0,0,0,0,0,-1,1910,1506,0,0
693,-482,0,0,0,0,0,0,0,0,0,-1,1917,1506,0,0
700,-482,0,0,0,0,0,0,0,0,0,-1,1924,1506,0,0
707,-482,0,0,0,0,0,0,0,0,0,-1,1931,1506,0,0
714,-482,0,0,0,0,0,0,0,0,0,-1,1938,1506,0,0
721,-482,0,0,0,0,0,0,0,0,0,-1,1945,1506,0,0
728,-482,0,0,0,0,0,0,0,0,0,-1,1952,1506,0,0
735,-482,0,0,0,0,0,0,0,0,0,-1,1959,1506,0,0
742,-482,0,0,0,0,0,0,0,0,0,-1,1966,1506,0,0
749,-482,0,0,0,0,0,0,0,0,0,-1,1973,1506,0,0
756,-482,0,0,0,0,0,0,0,0,0,-1,1980,1506,0,0
763,-482,0,0,0,0,0,0,0,0,0,-1,1987,1506,0,0
770,-482,0,0,0,0,0,0,0,0,0,-1,1994,1506,0,0
777,-482,0,0,0,0,0,0,0,0,0,-1,2001,1506,0,0
784,-482,0,0,0,0,0,0,0,0,0,-1,2008,1506,0,0
791,-482,0,0,0,0,0,0,0,0,0,-1,2015,1506,0,0
798,-482,0,0,0,0,0,0,0,0,0,-1,2022,1506,0,0
805,-482,0,0,0,0,0,0,0,0,0,-1,2029,1506,0,0
812,-482,0,0,0,0,0,0,0,0,0,-1,2036,1506,0,0
-700,-489,0,0,0,0,0,0,0,0,0,-1,524,1513,0,0
-693,-489,0,0,0,0,0,0,0,0,0,-1,531,1513,0,0
-686,-489,0,0,0,0,0,0,0,0,0,-1,538,1513,0,0
-679,-489,0,0,0,0,0,0,0,0,0,-1,545,1513,0,0
-672,-489,0,0,0,0,0,0,0,0,0,-1,552,1513,0,0
-665,-489,0,0,0,0,0,0,0,0,0,-1,559,1513,0,0
-658,-489,0,0,0,0,0,0,0,0,0,-1,566,1513,0,0
-651,-489,0,0,0,0,0,0,0,0,0,-1,573,1513,0,0
-644,-489,0,0,0,0,0,0,0,0,0,-1,580,1513,0,0
-637,-489,0,0,0,0,0,0,0,0,0,-1,587,1513,0,0
-630,-489,0,0,0,0,0,0,0,0,0,-1,594,1513,0,0
-623,-489,0,0,0,0,0,0,0,0,0,-1,601,1513,0,0
-616,-489,0,0,0,0,0,0,0,0,0,-1,608,1513,0,0
-609,-489,0,0,0,0,0,0,0,0,0,-1,615,1513,0,0
-602,-489,0,0,0,0,0,0,0,0,0,-1,622,1513,0,0
-595,-489,0,0,0,0,0,0,0,0,0,-1,629,1513,0,0
-588,-489,0,0,0,0,0,0,0,0,0,-1,636,1513,0,0
-581,-489,0,0,0,0,0,0,0,0,0,-1,643,1513,0,0
-574,-489,0,0,0,0,0,0,0,0,0,-1,650,1513,0,0
-567,-489,0,0,0,0,0,0,0,0,0,-1,657,1513,0,0
-560,-489,0,0,0,0,0,0,0,0,0,-1,664,1513,0,0
-553,-489,-9.42206,8.5116,0,0,0,0,0,0,0,-1,671,1513,-9.42205,-8.51158
-546,-489,-7.80951,8.18506,0,0,0,0,0,0,0,-1,678,1513,-7.8095,-8.18503
-539,-489,-3.61237,7.19727,0,0,0,0,0,0,0,-1,685,1513,-3.61238,-7.19723
-532,-489,-2.58179,1.57959,0,0,0,0,0,0,0,-1,692,1513,-2.58177,-1.57956
-525,-489,-2.88507,5.70422,0,0,0,0,0,0,0,-1,699,1513,-2.88509,-5.70417
-518,-489,-1.58936,3.12598,0,0,0,0,0,0,0,-1,706,1513,-1.58938,-3.12603
-511,-489,-0.614685,4.68372,0,0,0,0,0,0,0,-1,713,1513,-0.614671,-4.68368
-504,-489,-0.828735,5.08923,0.0144218,0.00601714,0.00648029,0.0179431,0.00249589,0.497746,0.011223,0.0445351,720,1513,-0.828751,-5.08922
-497,-489,-1.08978,5.52002,0.0077253,0.00586642,0.00431431,0.0112091,0.00238257,0.679304,0.00681876,0.0379585,727,1513,-1.08979,-5.52005
-490,-489,-1.35516,5.9397,0.00342747,0.00555453,0.00285834,0.00754078,0.00144122,0.963503,0.0046223,0.0223245,734,1513,-1.35515,-5.93975
-483,-489,-1.44043,6.19067,0.000515638,0.00477795,0.00179966,0.00543617,-0.000142576,1.22016,0.00367256,0.0110347,741,1513,-1.44043,-6.19065
-476,-489,-1.4353,6.45325,-0.00108997,0.00392696,0.000862828,0.00407121,-0.00123421,1.40515,0.00320574,0.00935494,748,1513,-1.43529,-6.45321
-469,-489,-1.44763,6.71436,-0.00174055,0.00308358,0.000388488,0.00311466,-0.00177163,1.49095,0.0028564,0.00984618,755,1513,-1.44765,-6.71432
-462,-489,-1.45251,6.96667,-0.00136459,0.00176339,-3.49278e-05,0.00176378,-0.00136498,-1.55963,0.00181128,0.0150436,762,1513,-1.45249,-6.96673
-455,-489,-1.45392,7.21948,-0.000518263,0.000152981,-0.000380303,0.000324579,-0.000689861,-1.14693,0.00059821,0.0187106,769,1513,-1.45392,-7.21954
-448,-489,-1.46124,7.47021,0.000708183,-0.00180691,-0.000700678,0.00089021,-0.00198894,-0.254169,0.00170215,0.0163815,776,1513,-1.46124,-7.47027
-441,-489,-1.46313,7.70605,0.00188355,-0.00368721,-0.00117813,0.00212246,-0.00392612,-0.200074,0.00354352,0.014024,783,1513,-1.46311,-7.706
-434,-489,-1.50452,7.94775,0.00333226,-0.00530272,-0.00173783,0.00366888,-0.00563935,-0.191334,0.0054141,0.0174478,790,1513,-1.50454,-7.94777
-427,-489,-1.51202,8.22754,0.00535859,-0.00701185,-0.00220942,0.00574136,-0.00739462,-0.171541,0.00760406,0.0189984,797,1513,-1.51202,-8.2275
-420,-489,-1.4798,8.54883,0.00760519,-0.00879653,-0.00276045,0.00805731,-0.00924865,-0.162346,0.00999949,0.0180238,804,1513,-1.47982,-8.54881
-413,-489,-1.23907,8.71863,0.0103771,-0.0104063,-0.00327407,0.0108806,-0.0109099,-0.152611,0.0125807,0.0289469,811,1513,-1.23905,-8.71863
-406,-489,-1.07147,9.05469,0,0,0,0,0,0,0,-1,818,1513,-1.0715,-9.05467
-399,-489,-1.17249,8.68628,0.017836,-0.0133531,-0.0044425,0.0184565,-0.0139736,-0.138762,0.018783,0.0429111,825,1513,-1.17247,-8.68626
-392,-489,-0.78363,8.82837,0,0,0,0,0,0,0,-1,832,1513,-0.783617,-8.82834
-385,-489,-1.22406,9.62952,0,0,0,0,0,0,0,-1,839,1513,-1.22409,-9.62952
-378,-489,-0.401428,9.87048,0,0,0,0,0,0,0,-1,846,1513,-0.401415,-9.87047
-371,-489,-1.11633,10.6606,0,0,0,0,0,0,0,-1,853,1513,-1.11633,-10.6606
-364,-489,-0.503113,8.98486,0,0,0,0,0,0,0,-1,860,1513,-0.503097,-8.98482
-357,-489,-0.609924,10.9606,0,0,0,0,0,0,0,-1,867,1513,-0.609947,-10.9605
-350,-489,-7.94659,-0.358887,0,0,0,0,0,0,0,-1,874,1513,-7.94657,0.358912
-343,-489,-7.49323,-0.437866,0,0,0,0,0,0,0,-1,881,1513,-7.49322,0.437823
-336,-489,-7.02332,-0.53125,0,0,0,0,0,0,0,-1,888,1513,-7.0233,0.531295
-329,-489,-6.70221,-0.242432,0,0,0,0,0,0,0,-1,895,1513,-6.70221,0.2424
-322,-489,0,0,0,0,0,0,0,0,0,-1,902,1513,0,0
-315,-489,0,0,0,0,0,0,0,0,0,-1,909,1513,0,0
-308,-489,0,0,0,0,0,0,0,0,0,-1,916,1513,0,0
-301,-489,0,0,0,0,0,0,0,0,0,-1,923,1513,0,0
-294,-489,0,0,0,0,0,0,0,0,0,-1,930,1513,0,0
-287,-489,0,0,0,0,0,0,0,0,0,-1,937,1513,0,0
-280,-489,0,0,0,0,0,0,0,0,0,-1,944,1513,0,0
-273,-489,0,0,0,0,0,0,0,0,0,-1,951,1513,0,0
-266,-489,0,0,0,0,0,0,0,0,0,-1,958,1513,0,0
-259,-489,0,0,0,0,0,0,0,0,0,-1,965,1513,0,0
-252,-489,0,0,0,0,0,0,0,0,0,-1,972,1513,0,0
-245,-489,0,0,0,0,0,0,0,0,0,-1,979,1513,0,0
-238,-489,0,0,0,0,0,0,0,0,0,-1,986,1513,0,0
-231,-489,0,0,0,0,0,0,0,0,0,-1,993,1513,0,0
-224,-489,0,0,0,0,0,0,0,0,0,-1,1000,1513,0,0
-217,-489,0,0,0,0,0,0,0,0,0,-1,1007,1513,0,0
-210,-489,0,0,0,0,0,0,0,0,0,-1,1014,1513,0,0
-203,-489,0,0,0,0,0,0,0,0,0,-1,1021,1513,0,0
-196,-489,0,0,0,0,0,0,0,0,0,-1,1028,1513,0,0
-189,-489,0,0,0,0,0,0,0,0,0,-1,1035,1513,0,0
-182,-489,0,0,0,0,0,0,0,0,0,-1,1042,1513,0,0
-175,-489,0,0,0,0,0,0,0,0,0,-1,1049,1513,0,0
-168,-489,0,0,0,0,0,0,0,0,0,-1,1056,1513,0,0
-161,-489,0,0,0,0,0,0,0,0,0,-1,1063,1513,0,0
-154,-489,0,0,0,0,0,0,0,0,0,-1,1070,1513,0,0
-147,-489,0,0,0,0,0,0,0,0,0,-1,1077,1513,0,0
-140,-489,0,0,0,0,0,0,0,0,0,-1,1084,1513,0,0
-133,-489,0,0,0,0,0,0,0,0,0,-1,1091,1513,0,0
-126,-489,0,0,0,0,0,0,0,0,0,-1,1098,1513,0,0
-119,-489,0,0,0,0,0,0,0,0,0,-1,1105,1513,0,0
-112,-489,0,0,0,0,0,0,0,0,0,-1,1112,1513,0,0
-105,-489,0,0,0,0,0,0,0,0,0,-1,1119,1513,0,0
-98,-489,0,0,0,0,0,0,0,0,0,-1,1126,1513,0,0
-91,-489,0,0,0,0,0,0,0,0,0,-1,1133,1513,0,0
-84,-489,0,0,0,0,0,0,0,0,0,-1,1140,1513,0,0
-77,-489,0,0,0,0,0,0,0,0,0,-1,1147,1513,0,0
-70,-489,0,0,0,0,0,0,0,0,0,-1,1154,1513,0,0
-63,-489,0,0,0,0,0,0,0,0,0,-1,1161,1513,0,0
-56,-489,0,0,0,0,0,0,0,0,0,-1,1168,1513,0,0
-49,-489,0,0,0,0,0,0,0,0,0,-1,1175,1513,0,0
-42,-489,0,0,0,0,0,0,0,0,0,-1,1182,1513,0,0
-35,-489,0,0,0,0,0,0,0,0,0,-1,1189,1513,0,0
-28,-489,0,0,0,0,0,0,0,0,0,-1,1196,1513,0,0
-21,-489,0,0,0,0,0,0,0,0,0,-1,1203,1513,0,0
-14,-489,0,0,0,0,0,0,0,0,0,-1,1210,1513,0,0
-7,-489,0,0,0,0,0,0,0,0,0,-1,1217,1513,0,0
0,-489,0,0,0,0,0,0,0,0,0,-1,1224,1513,0,0
7,-489,0,0,0,0,0,0,0,0,0,-1,1231,1513,0,0
14,-489,0,0,0,0,0,0,0,0,0,-1,1238,1513,0,0
21,-489,0,0,0,0,0,0,0,0,0,-1,1245,1513,0,0
28,-489,0,0,0,0,0,0,0,0,0,-1,1252,1513,0,0
35,-489,0,0,0,0,0,0,0,0,0,-1,1259,1513,0,0
42,-489,0,0,0,0,0,0,0,0,0,-1,1266,1513,0,0
49,-489,0,0,0,0,0,0,0,0,0,-1,1273,1513,0,0
56,-489,0,0,0,0,0,0,0,0,0,-1,1280,1513,0,0
63,-489,0,0,0,0,0,0,0,0,0,-1,1287,1513,0,0
70,-489,0,0,0,0,0,0,0,0,0,-1,1294,1513,0,0
77,-489,0,0,0,0,0,0,0,0,0,-1,1301,1513,0,0
84,-489,0,0,0,0,0,0,0,0,0,-1,1308,1513,0,0
91,-489,0,0,0,0,0,0,0,0,0,-1,1315,1513,0,0
98,-489,0,0,0,0,0,0,0,0,0,-1,1322,1513,0,0
105,-489,0,0,0,0,0,0,0,0,0,-1,1329,1513,0,0
112,-489,0,0,0,0,0,0,0,0,0,-1,1336,1513,0,0
119,-489,0,0,0,0,0,0,0,0,0,-1,1343,1513,0,0
126,-489,0,0,0,0,0,0,0,0,0,-1,1350,1513,0,0
133,-489,0,0,0,0,0,0,0,0,0,-1,1357,1513,0,0
140,-489,0,0,0,0,0,0,0,0,0,-1,1364,1513,0,0
147,-489,0,0,0,0,0,0,0,0,0,-1,1371,1513,0,0
154,-489,0,0,0,0,0,0,0,0,0,-1,1378,1513,0,0
161,-489,0,0,0,0,0,0,0,0,0,-1,1385,1513,0,0
168,-489,0,0,0,0,0,0,0,0,0,-1,1392,1513,0,0
175,-489,0,0,0,0,0,0,0,0,0,-1,1399,1513,0,0
182,-489,0,0,0,0,0,0,0,0,0,-1,1406,1513,0,0
189,-489,0,0,0,0,0,0,0,0,0,-1,1413,1513,0,0
196,-489,0,0,0,0,0,0,0,0,0,-1,1420,1513,0,0
203,-489,0,0,0,0,0,0,0,0,0,-1,1427,1513,0,0
210,-489,0,0,0,0,0,0,0,0,0,-1,1434,1513,0,0
217,-489,0,0,0,0,0,0,0,0,0,-1,1441,1513,0,0
224,-489,0,0,0,0,0,0,0,0,0,-1,1448,1513,0,0
231,-489,0,0,0,0,0,0,0,0,0,-1,1455,1513,0,0
238,-489,0,0,0,0,0,0,0,0,0,-1,1462,1513,0,0
245,-489,0,0,0,0,0,0,0,0,0,-1,1469,1513,0,0
252,-489,0,0,0,0,0,0,0,0,0,-1,1476,1513,0,0
259,-489,0,0,0,0,0,0,0,0,0,-1,1483,1513,0,0
266,-489,0,0,0,0,0,0,0,0,0,-1,1490,1513,0,0
273,-489,0,0,0,0,0,0,0,0,0,-1,1497,1513,0,0
280,-489,0,0,0,0,0,0,0,0,0,-1,1504,1513,0,0
287,-489,0,0,0,0,0,0,0,0,0,-1,1511,1513,0,0
294,-489,0,0,0,0,0,0,0,0,0,-1,1518,1513,0,0
301,-489,0,0,0,0,0,0,0,0,0,-1,1525,1513,0,0
308,-489,0,0,0,0,0,0,0,0,0,-1,1532,1513,0,0
315,-489,0,0,0,0,0,0,0,0,0,-1,1539,1513,0,0
322,-489,0,0,0,0,0,0,0,0,0,-1,1546,1513,0,0
329,-489,0,0,0,0,0,0,0,0,0,-1,1553,1513,0,0
336,-489,0,0,0,0,0,0,0,0,0,-1,1560,1513,0,0
343,-489,0,0,0,0,0,0,0,0,0,-1,1567,1513,0,0
350,-489,0,0,0,0,0,0,0,0,0,-1,1574,1513,0,0
357,-489,0,0,0,0,0,0,0,0,0,-1,1581,1513,0,0
364,-489,0,0,0,0,0,0,0,0,0,-1,1588,1513,0,0
371,-489,0,0,0,0,0,0,0,0,0,-1,1595,1513,0,0
378,-489,0,0,0,0,0,0,0,0,0,-1,1602,1513,0,0
385,-489,0,0,0,0,0,0,0,0,0,-1,1609,1513,0,0
392,-489,0,0,0,0,0,0,0,0,0,-1,1616,1513,0,0
399,-489,0,0,0,0,0,0,0,0,0,-1,1623,1513,0,0
406,-489,0,0,0,0,0,0,0,0,0,-1,1630,1513,0,0
413,-489,0,0,0,0,0,0,0,0,0,-1,1637,1513,0,0
420,-489,0,0,0,0,0,0,0,0,0,-1,1644,1513,0,0
427,-489,0,0,0,0,0,0,0,0,0,-1,1651,1513,0,0
434,-489,0,0,0,0,0,0,0,0,0,-1,1658,1513,0,0
441,-489,11.4602,2.56787,0,0,0,0,0,0,0,-1,1665,1513,11.4602,-2.56786
448,-489,12.4425,1.72351,0,0,0,0,0,0,0,-1,1672,1513,12.4425,-1.72349
455,-489,12.5575,1.37463,0,0,0,0,0,0,0,-1,1679,1513,12.5575,-1.37469
462,-489,14.9784,3.84888,0,0,0,0,0,0,0,-1,1686,1513,14.9784,-3.84892
469,-489,15.1367,4.53101,0,0,0,0,0,0,0,-1,1693,1513,15.1368,-4.531
476,-489,15.5536,5.09338,0,0,0,0,0,0,0,-1,1700,1513,15.5536,-5.09339
483,-489,8.96912,8.37805,0,0,0,0,0,0,0,-1,1707,1513,8.96909,-8.37809
490,-489,10.5366,7.49561,0,0,0,0,0,0,0,-1,1714,1513,10.5367,-7.49558
497,-489,12.3383,7.61121,0,0,0,0,0,0,0,-1,1721,1513,12.3383,-7.61126
504,-489,14.1399,7.72693,0,0,0,0,0,0,0,-1,1728,1513,14.1399,-7.72694
511,-489,11.7837,9.77551,0,0,0,0,0,0,0,-1,1735,1513,11.7837,-9.77553
518,-489,11.6428,10.1283,0,0,0,0,0,0,0,-1,1742,1513,11.6428,-10.1283
525,-489,11.4064,10.39,-0.00761957,-0.0359954,0.0332531,0.0143458,-0.0579608,0.583758,0.0442053,0.0492825,1749,1513,11.4063,-10.3901
532,-489,11.1429,10.3293,-0.00983628,-0.0267223,0.0248341,0.00795077,-0.0445093,0.621539,0.0326475,0.0374841,1756,1513,11.143,-10.3293
539,-489,10.8662,10.2339,-0.011419,-0.0190825,0.0178724,0.00302783,-0.0335293,0.6798,0.0234275,0.0168095,1763,1513,10.8662,-10.2339
546,-489,10.765,10.0714,-0.010912,-0.013279,0.0123889,0.000349825,-0.0245408,0.737777,0.0164784,0.0106773,1770,1513,10.765,-10.0714
553,-489,10.7518,9.88013,-0.00917375,-0.00904119,0.00846846,-0.000638745,-0.0175762,0.789311,0.0115105,0.0139173,1777,1513,10.7518,-9.88011
560,-489,10.7568,9.64185,-0.0066885,-0.00684859,0.00610329,-0.00066473,-0.0128724,0.778841,0.0083688,0.0126998,1784,1513,10.7568,-9.6418
567,-489,10.7758,9.44568,-0.0044793,-0.00475372,0.00415072,-0.000463527,-0.0087695,0.768876,0.00569811,0.0139714,1791,1513,10.7758,-9.44565
574,-489,10.7468,9.24756,-0.00258695,-0.00323361,0.0026657,-0.000225045,-0.00559552,0.725046,0.00365764,0.0137207,1798,1513,10.7468,-9.24759
581,-489,10.778,8.99634,-0.00112303,-0.00203316,0.00149616,-1.42617e-05,-0.00314193,0.637766,0.00208988,0.00980811,1805,1513,10.778,-8.99633
588,-489,10.7823,8.76685,-5.47705e-05,-0.00125749,0.000991859,0.000503791,-0.00181605,0.51288,0.00140898,0.0131381,1812,1513,10.7824,-8.76686
595,-489,10.7705,8.53369,0.000730056,-0.000565646,0.00067126,0.0010151,-0.000850694,0.401571,0.00107861,0.0204643,1819,1513,10.7705,-8.53364
602,-489,10.7832,8.29138,0.00107631,-0.000211631,0.000737982,0.00141178,-0.000547108,0.426662,0.00116711,0.0254265,1826,1513,10.7832,-8.29133
609,-489,10.7805,8.07532,0.00119803,-0.000159915,0.00119601,0.00189436,-0.000856244,0.527234,0.00162532,0.0174439,1833,1513,10.7806,-8.07527
616,-489,10.7533,7.85181,0.0011933,-0.000509077,0.0020528,0.00256439,-0.00188016,0.588863,0.00257617,0.0102755,1840,1513,10.7533,-7.85179
623,-489,10.76,7.66748,0.000836828,-0.00122059,0.00340585,0.00336594,-0.0037497,0.638734,0.00411021,0.0148933,1847,1513,10.76,-7.66751
630,-489,10.7107,7.56555,0.000269062,-0.0023538,0.00530476,0.00442209,-0.00650683,0.664219,0.00634797,0.0344815,1854,1513,10.7107,-7.5656
637,-489,10.075,8.02747,-0.000277236,-0.00344783,0.00764296,0.0059431,-0.00966817,0.683139,0.0090983,0.0490354,1861,1513,10.0749,-8.0274
644,-489,9.67578,8.45874,0,0,0,0,0,0,0,-1,1868,1513,9.67576,-8.45879
651,-489,6.13818,6.85095,0,0,0,0,0,0,0,-1,1875,1513,6.13823,-6.85097
658,-489,5.43848,7.75513,0,0,0,0,0,0,0,-1,1882,1513,5.43844,-7.75509
665,-489,5.48438,8.59912,0,0,0,0,0,0,0,-1,1889,1513,5.48434,-8.59907
672,-489,0,0,0,0,0,0,0,0,0,-1,1896,1513,0,0
679,-489,0,0,0,0,0,0,0,0,0,-1,1903,1513,0,0
686,-489,0,0,0,0,0,0,0,0,0,-1,1910,1513,0,0
693,-489,0,0,0,0,0,0,0,0,0,-1,1917,1513,0,0
700,-489,0,0,0,0,0,0,0,0,0,-1,1924,1513,0,0
707,-489,0,0,0,0,0,0,0,0,0,-1,1931,1513,0,0
714,-489,0,0,0,0,0,0,0,0,0,-1,1938,1513,0,0
721,-489,0,0,0,0,0,0,0,0,0,-1,1945,1513,0,0
728,-489,0,0,0,0,0,0,0,0,0,-1,1952,1513,0,0
735,-489,0,0,0,0,0,0,0,0,0,-1,1959,1513,0,0
742,-489,0,0,0,0,0,0,0,0,0,-1,1966,1513,0,0
749,-489,0,0,0,0,0,0,0,0,0,-1,1973,1513,0,0
756,-489,0,0,0,0,0,0,0,0,0,-1,1980,1513,0,0
763,-489,0,0,0,0,0,0,0,0,0,-1,1987,1513,0,0
770,-489,0,0,0,0,0,0,0,0,0,-1,1994,1513,0,0
777,-489,0,0,0,0,0,0,0,0,0,-1,2001,1513,0,0
784,-489,0,0,0,0,0,0,0,0,0,-1,2008,1513,0,0
791,-489,0,0,0,0,0,0,0,0,0,-1,2015,1513,0,0
798,-489,0,0,0,0,0,0,0,0,0,-1,2022,1513,0,0
805,-489,0,0,0,0,0,0,0,0,0,-1,2029,1513,0,0
812,-489,0,0,0,0,0,0,0,0,0,-1,2036,1513,0,0
-700,-496,0,0,0,0,0,0,0,0,0,-1,524,1520,0,0
-693,-496,0,0,0,0,0,0,0,0,0,-1,531,1520,0,0
-686,-496,0,0,0,0,0,0,0,0,0,-1,538,1520,0,0
-679,-496,0,0,0,0,0,0,0,0,0,-1,545,1520,0,0
-672,-496,0,0,0,0,0,0,0,0,0,-1,552,1520,0,0
-665,-496,0,0,0,0,0,0,0,0,0,-1,559,1520,0,0
-658,-496,0,0,0,0,0,0,0,0,0,-1,566,1520,0,0
-651,-496,0,0,0,0,0,0,0,0,0,-1,573,1520,0,0
-644,-496,0,0,0,0,0,0,0,0,0,-1,580,1520,0,0
-637,-496,0,0,0,0,0,0,0,0,0,-1,587,1520,0,0
-630,-496,0,0,0,0,0,0,0,0,0,-1,594,1520,0,0
-623,-496,0,0,0,0,0,0,0,0,0,-1,601,1520,0,0
-616,-496,0,0,0,0,0,0,0,0,0,-1,608,1520,0,0
-609,-496,0,0,0,0,0,0,0,0,0,-1,615,1520,0,0
-602,-496,0,0,0,0,0,0,0,0,0,-1,622,1520,0,0
-595,-496,0,0,0,0,0,0,0,0,0,-1,629,1520,0,0
-588,-496,0,0,0,0,0,0,0,0,0,-1,636,1520,0,0
-581,-496,0,0,0,0,0,0,0,0,0,-1,643,1520,0,0
-574,-496,0,0,0,0,0,0,0,0,0,-1,650,1520,0,0
-567,-496,0,0,0,0,0,0,0,0,0,-1,657,1520,0,0
-560,-496,0,0,0,0,0,0,0,0,0,-1,664,1520,0,0
-553,-496,0,0,0,0,0,0,0,0,0,-1,671,1520,0,0
-546,-496,-8.09711,7.94836,0,0,0,0,0,0,0,-1,678,1520,-8.09712,-7.94842
-539,-496,-3.05109,6.33447,0,0,0,0,0,0,0,-1,685,1520,-3.05107,-6.33446
-532,-496,-2.79407,0.97229,0,0,0,0,0,0,0,-1,692,1520,-2.79406,-0.972274
-525,-496,-2.24603,2.19458,0,0,0,0,0,0,0,-1,699,1520,-2.24602,-2.19461
-518,-496,-1.698,3.41699,0,0,0,0,0,0,0,-1,706,1520,-1.69797,-3.41694
-511,-496,-1.40308,3.87305,0,0,0,0,0,0,0,-1,713,1520,-1.40309,-3.87307
-504,-496,-0.480957,5.03284,0,0,0,0,0,0,0,-1,720,1520,-0.480957,-5.03287
-497,-496,-0.743286,5.25623,0.00524514,0.00915005,0.00496797,0.0125355,0.00185973,0.972631,0.00781121,0.0489918,727,1520,-0.743291,-5.25621
-490,-496,-1.04846,6.07739,0.00123119,0.00862489,0.00354161,0.0100476,-0.0001915,1.18882,0.00676313,0.0389618,734,1520,-1.04843,-6.0774
-483,-496,-1.15906,6.26172,-0.00130661,0.00769923,0.00253149,0.00836203,-0.00196941,1.31472,0.00633405,0.0196434,741,1520,-1.15904,-6.26168
-476,-496,-1.19879,6.44946,-0.00249912,0.00679919,0.00169618,0.00709893,-0.00279887,1.39588,0.00589152,0.0100457,748,1520,-1.19877,-6.44944
-469,-496,-1.20996,6.72107,-0.00282017,0.00593929,0.00129686,0.00612726,-0.00300814,1.42686,0.00537583,0.0095111,755,1520,-1.20997,-6.72103
-462,-496,-1.2207,6.98291,-0.0022388,0.00466408,0.000936315,0.00478883,-0.00236355,1.43834,0.00420782,0.0153365,762,1520,-1.22072,-6.98297
-455,-496,-1.23077,7.23096,-0.00121889,0.0031398,0.000652512,0.00323539,-0.00131448,1.42534,0.00270378,0.0206339,769,1520,-1.23075,-7.23096
-448,-496,-1.22375,7.47852,0.000129175,0.00132336,0.000402568,0.00144639,6.1419e-06,1.27419,0.000962219,0.018682,776,1520,-1.22377,-7.4785
-441,-496,-1.20819,7.71411,0.0014262,-0.000391069,2.2313e-06,0.0014262,-0.000391072,0.00122783,0.00110448,0.0141424,783,1520,-1.20818,-7.71411
-434,-496,-1.22284,7.94824,0.00291284,-0.00174552,-0.000437334,0.00295354,-0.00178623,-0.0928011,0.00276403,0.013504,790,1520,-1.22282,-7.9482
-427,-496,-1.22815,8.2168,0.00489161,-0.00322665,-0.00076917,0.00496384,-0.00329888,-0.0936355,0.00480266,0.0168181,797,1520,-1.22813,-8.21675
-420,-496,-1.20532,8.45691,0.00704134,-0.0046602,-0.00116517,0.00715623,-0.00477509,-0.0982884,0.00693413,0.0174201,804,1520,-1.20531,-8.45695
-413,-496,-1.16388,8.72461,0.00957158,-0.00596187,-0.00150267,0.00971561,-0.0061059,-0.0955568,0.00921346,0.0174552,811,1520,-1.16386,-8.72455
-406,-496,-1.08795,9.0592,0,0,0,0,0,0,0,-1,818,1520,-1.08797,-9.05926
-399,-496,-1.00763,9.26904,0,0,0,0,0,0,0,-1,825,1520,-1.00765,-9.26907
-392,-496,-1.28192,9.21582,0,0,0,0,0,0,0,-1,832,1520,-1.28189,-9.21581
-385,-496,-0.940613,9.54529,0.0251889,-0.0105334,-0.00292066,0.0254262,-0.0107706,-0.0810428,0.0214616,0.0478098,839,1520,-0.940626,-9.54535
-378,-496,-0.441772,9.57959,0.0305994,-0.0122928,-0.00310524,0.030823,-0.0125165,-0.0718966,0.0257554,0.0454974,846,1520,-0.441757,-9.5796
-371,-496,0.279358,10.1842,0,0,0,0,0,0,0,-1,853,1520,0.27935,-10.1842
-364,-496,0.0881348,10.6422,0,0,0,0,0,0,0,-1,860,1520,0.0881368,-10.6423
-357,-496,0.323792,7.56812,0,0,0,0,0,0,0,-1,867,1520,0.323782,-7.56806
-350,-496,2.1535,7.18945,0,0,0,0,0,0,0,-1,874,1520,2.15348,-7.1894
-343,-496,-7.56244,0.335327,0,0,0,0,0,0,0,-1,881,1520,-7.56242,-0.335322
-336,-496,-3.99249,6.02222,0,0,0,0,0,0,0,-1,888,1520,-3.99246,-6.0222
-329,-496,-6.93689,-0.100342,0,0,0,0,0,0,0,-1,895,1520,-6.93686,0.1003
-322,-496,-6.17505,0.494385,0,0,0,0,0,0,0,-1,902,1520,-6.17507,-0.49437
-315,-496,-5.46338,1.0459,0,0,0,0,0,0,0,-1,909,1520,-5.46338,-1.04587
-308,-496,0,0,0,0,0,0,0,0,0,-1,916,1520,0,0
-301,-496,0,0,0,0,0,0,0,0,0,-1,923,1520,0,0
-294,-496,0,0,0,0,0,0,0,0,0,-1,930,1520,0,0
-287,-496,0,0,0,0,0,0,0,0,0,-1,937,1520,0,0
-280,-496,0,0,0,0,0,0,0,0,0,-1,944,1520,0,0
-273,-496,0,0,0,0,0,0,0,0,0,-1,951,1520,0,0
-266,-496,0,0,0,0,0,0,0,0,0,-1,958,1520,0,0
-259,-496,0,0,0,0,0,0,0,0,0,-1,965,1520,0,0
-252,-496,0,0,0,0,0,0,0,0,0,-1,972,1520,0,0
-245,-496,0,0,0,0,0,0,0,0,0,-1,979,1520,0,0
-238,-496,0,0,0,0,0,0,0,0,0,-1,986,1520,0,0
-231,-496,0,0,0,0,0,0,0,0,0,-1,993,1520,0,0
-224,-496,0,0,0,0,0,0,0,0,0,-1,1000,1520,0,0
-217,-496,0,0,0,0,0,0,0,0,0,-1,1007,1520,0,0
-210,-496,0,0,0,0,0,0,0,0,0,-1,1014,1520,0,0
-203,-496,0,0,0,0,0,0,0,0,0,-1,1021,1520,0,0
-196,-496,0,0,0,0,0,0,0,0,0,-1,1028,1520,0,0
-189,-496,0,0,0,0,0,0,0,0,0,-1,1035,1520,0,0
-182,-496,0,0,0,0,0,0,0,0,0,-1,1042,1520,0,0
-175,-496,0,0,0,0,0,0,0,0,0,-1,1049,1520,0,0
-168,-496,0,0,0,0,0,0,0,0,0,-1,1056,1520,0,0
-161,-496,0,0,0,0,0,0,0,0,0,-1,1063,1520,0,0
-154,-496,0,0,0,0,0,0,0,0,0,-1,1070,1520,0,0
-147,-496,0,0,0,0,0,0,0,0,0,-1,1077,1520,0,0
-140,-496,0,0,0,0,0,0,0,0,0,-1,1084,1520,0,0
-133,-496,0,0,0,0,0,0,0,0,0,-1,1091,1520,0,0
-126,-496,0,0,0,0,0,0,0,0,0,-1,1098,1520,0,0
-119,-496,0,0,0,0,0,0,0,0,0,-1,1105,1520,0,0
-112,-496,0,0,0,0,0,0,0,0,0,-1,1112,1520,0,0
-105,-496,0,0,0,0,0,0,0,0,0,-1,1119,1520,0,0
-98,-496,0,0,0,0,0,0,0,0,0,-1,1126,1520,0,0
-91,-496,0,0,0,0,0,0,0,0,0,-1,1133,1520,0,0
-84,-496,0,0,0,0,0,0,0,0,0,-1,1140,1520,0,0
-77,-496,0,0,0,0,0,0,0,0,0,-1,1147,1520,0,0
-70,-496,0,0,0,0,0,0,0,0,0,-1,1154,1520,0,0
-63,-496,0,0,0,0,0,0,0,0,0,-1,1161,1520,0,0
-56,-496,0,0,0,0,0,0,0,0,0,-1,1168,1520,0,0
-49,-496,0,0,0,0,0,0,0,0,0,-1,1175,1520,0,0
-42,-496,0,0,0,0,0,0,0,0,0,-1,1182,1520,0,0
-35,-496,0,0,0,0,0,0,0,0,0,-1,1189,1520,0,0
-28,-496,0,0,0,0,0,0,0,0,0,-1,1196,1520,0,0
-21,-496,0,0,0,0,0,0,0,0,0,-1,1203,1520,0,0
-14,-496,0,0,0,0,0,0,0,0,0,-1,1210,1520,0,0
-7,-496,0,0,0,0,0,0,0,0,0,-1,1217,1520,0,0
0,-496,0,0,0,0,0,0,0,0,0,-1,1224,1520,0,0
7,-496,0,0,0,0,0,0,0,0,0,-1,1231,1520,0,0
14,-496,0,0,0,0,0,0,0,0,0,-1,1238,1520,0,0
21,-496,0,0,0,0,0,0,0,0,0,-1,1245,1520,0,0
28,-496,0,0,0,0,0,0,0,0,0,-1,1252,1520,0,0
35,-496,0,0,0,0,0,0,0,0,0,-1,1259,1520,0,0
42,-496,0,0,0,0,0,0,0,0,0,-1,1266,1520,0,0
49,-496,0,0,0,0,0,0,0,0,0,-1,1273,1520,0,0
56,-496,0,0,0,0,0,0,0,0,0,-1,1280,1520,0,0
63,-496,0,0,0,0,0,0,0,0,0,-1,1287,1520,0,0
70,-496,0,0,0,0,0,0,0,0,0,-1,1294,1520,0,0
77,-496,0,0,0,0,0,0,0,0,0,-1,1301,1520,0,0
84,-496,0,0,0,0,0,0,0,0,0,-1,1308,1520,0,0
91,-496,0,0,0,0,0,0,0,0,0,-1,1315,1520,0,0
98,-496,0,0,0,0,0,0,0,0,0,-1,1322,1520,0,0
105,-496,0,0,0,0,0,0,0,0,0,-1,1329,1520,0,0
112,-496,0,0,0,0,0,0,0,0,0,-1,1336,1520,0,0
119,-496,0,0,0,0,0,0,0,0,0,-1,1343,1520,0,0
126,-496,0,0,0,0,0,0,0,0,0,-1,1350,1520,0,0
133,-496,0,0,0,0,0,0,0,0,0,-1,1357,1520,0,0
140,-496,0,0,0,0,0,0,0,0,0,-1,1364,1520,0,0
147,-496,0,0,0,0,0,0,0,0,0,-1,1371,1520,0,0
154,-496,0,0,0,0,0,0,0,0,0,-1,1378,1520,0,0
161,-496,0,0,0,0,0,0,0,0,0,-1,1385,1520,0,0
168,-496,0,0,0,0,0,0,0,0,0,-1,1392,1520,0,0
175,-496,0,0,0,0,0,0,0,0,0,-1,1399,1520,0,0
182,-496,0,0,0,0,0,0,0,0,0,-1,1406,1520,0,0
189,-496,0,0,0,0,0,0,0,0,0,-1,1413,1520,0,0
196,-496,0,0,0,0,0,0,0,0,0,-1,1420,1520,0,0
203,-496,0,0,0,0,0,0,0,0,0,-1,1427,1520,0,0
210,-496,0,0,0,0,0,0,0,0,0,-1,1434,1520,0,0
217,-496,0,0,0,0,0,0,0,0,0,-1,1441,1520,0,0
224,-496,0,0,0,0,0,0,0,0,0,-1,1448,1520,0,0
231,-496,0,0,0,0,0,0,0,0,0,-1,1455,1520,0,0
238,-496,0,0,0,0,0,0,0,0,0,-1,1462,1520,0,0
245,-496,0,0,0,0,0,0,0,0,0,-1,1469,1520,0,0
252,-496,0,0,0,0,0,0,0,0,0,-1,1476,1520,0,0
259,-496,0,0,0,0,0,0,0,0,0,-1,1483,1520,0,0
266,-496,0,0,0,0,0,0,0,0,0,-1,1490,1520,0,0
273,-496,0,0,0,0,0,0,0,0,0,-1,1497,1520,0,0
280,-496,0,0,0,0,0,0,0,0,0,-1,1504,1520,0,0
287,-496,0,0,0,0,0,0,0,0,0,-1,1511,1520,0,0
294,-496,0,0,0,0,0,0,0,0,0,-1,1518,1520,0,0
301,-496,0,0,0,0,0,0,0,0,0,-1,1525,1520,0,0
308,-496,0,0,0,0,0,0,0,0,0,-1,1532,1520,0,0
315,-496,0,0,0,0,0,0,0,0,0,-1,1539,1520,0,0
322,-496,0,0,0,0,0,0,0,0,0,-1,1546,1520,0,0
329,-496,0,0,0,0,0,0,0,0,0,-1,1553,1520,0,0
336,-496,0,0,0,0,0,0,0,0,0,-1,1560,1520,0,0
343,-496,0,0,0,0,0,0,0,0,0,-1,1567,1520,0,0
350,-496,0,0,0,0,0,0,0,0,0,-1,1574,1520,0,0
357,-496,0,0,0,0,0,0,0,0,0,-1,1581,1520,0,0
364,-496,0,0,0,0,0,0,0,0,0,-1,1588,1520,0,0
371,-496,0,0,0,0,0,0,0,0,0,-1,1595,1520,0,0
378,-496,0,0,0,0,0,0,0,0,0,-1,1602,1520,0,0
385,-496,0,0,0,0,0,0,0,0,0,-1,1609,1520,0,0
392,-496,0,0,0,0,0,0,0,0,0,-1,1616,1520,0,0
399,-496,0,0,0,0,0,0,0,0,0,-1,1623,1520,0,0
406,-496,0,0,0,0,0,0,0,0,0,-1,1630,1520,0,0
413,-496,0,0,0,0,0,0,0,0,0,-1,1637,1520,0,0
420,-496,0,0,0,0,0,0,0,0,0,-1,1644,1520,0,0
427,-496,0,0,0,0,0,0,0,0,0,-1,1651,1520,0,0
434,-496,11.0457,3.37732,0,0,0,0,0,0,0,-1,1658,1520,11.0456,-3.37736
441,-496,11.788,2.75488,0,0,0,0,0,0,0,-1,1665,1520,11.7879,-2.75485
448,-496,12.2146,2.18494,0,0,0,0,0,0,0,-1,1672,1520,12.2146,-2.18489
455,-496,12.3489,1.65173,0,0,0,0,0,0,0,-1,1679,1520,12.3489,-1.65178
462,-496,12.1912,1.32361,0,0,0,0,0,0,0,-1,1686,1520,12.1911,-1.32357
469,-496,14.8138,5.77954,0,0,0,0,0,0,0,-1,1693,1520,14.8138,-5.77958
476,-496,15.2449,6.27942,0,0,0,0,0,0,0,-1,1700,1520,15.2449,-6.27936
483,-496,9.19812,6.88367,0,0,0,0,0,0,0,-1,1707,1520,9.19812,-6.88361
490,-496,10.2123,7.97144,0,0,0,0,0,0,0,-1,1714,1520,10.2122,-7.97145
497,-496,11.736,8.17651,0,0,0,0,0,0,0,-1,1721,1520,11.736,-8.1765
504,-496,13.2598,8.38159,0,0,0,0,0,0,0,-1,1728,1520,13.2597,-8.38154
511,-496,11.4562,10.5664,0,0,0,0,0,0,0,-1,1735,1520,11.4562,-10.5664
518,-496,10.8276,10.4138,0,0,0,0,0,0,0,-1,1742,1520,10.8276,-10.4139
525,-496,10.8026,10.3308,-0.00546606,-0.0311728,0.0290485,0.0134458,-0.0500846,0.577107,0.0386591,0.0457275,1749,1520,10.8026,-10.3309
532,-496,10.6505,10.4503,-0.00715156,-0.0227158,0.0214483,0.00788277,-0.0377502,0.611368,0.0281645,0.0258384,1756,1520,10.6505,-10.4503
539,-496,10.5691,10.2839,-0.00843214,-0.0157251,0.0151916,0.00354446,-0.0277017,0.66761,0.0197556,0.0124241,1763,1520,10.5691,-10.284
546,-496,10.5182,10.0764,-0.0080905,-0.010478,0.0102729,0.00105776,-0.0196262,0.727556,0.0134506,0.00920912,1770,1520,10.5182,-10.0765
553,-496,10.5309,9.86401,-0.00669643,-0.00665221,0.00671956,4.52781e-05,-0.0133939,0.787043,0.00894441,0.0146746,1777,1520,10.5308,-9.86405
560,-496,10.5507,9.65869,-0.00456068,-0.00473339,0.00460449,-4.17391e-05,-0.00925233,0.776022,0.00615436,0.0142495,1784,1520,10.5507,-9.65865
567,-496,10.5447,9.44336,-0.00259383,-0.00288055,0.00283309,9.95249e-05,-0.00557391,0.760118,0.00374955,0.0116929,1791,1520,10.5447,-9.44336
574,-496,10.5422,9.22827,-0.000888945,-0.00159551,0.00150299,0.000301719,-0.00278618,0.669966,0.00196576,0.0120955,1798,1520,10.5423,-9.22828
581,-496,10.5579,8.99756,0.000418258,-0.000570117,0.000460112,0.000599293,-0.000751152,0.374853,0.000781321,0.0133635,1805,1520,10.5579,-8.99757
588,-496,10.5635,8.77332,0.00133558,2.20868e-05,8.05074e-05,0.0013405,1.71708e-05,0.0609882,0.000887997,0.0157596,1812,1520,10.5635,-8.77326
595,-496,10.5439,8.56238,0.00204477,0.000575115,-0.000166929,0.00206349,0.000556393,-0.111689,0.00123279,0.0167627,1819,1520,10.5439,-8.56239
602,-496,10.5408,8.31873,0.00234725,0.000806467,-1.65046e-05,0.00234743,0.000806291,-0.0107102,0.00137725,0.0169032,1826,1520,10.5408,-8.31867
609,-496,10.5453,8.08386,0.0023887,0.000740781,0.00056445,0.0025635,0.000565985,0.300309,0.00155506,0.0138337,1833,1520,10.5453,-8.0839
616,-496,10.5459,7.84216,0.0022675,0.000309194,0.00161266,0.00317499,-0.000598298,0.512563,0.00234171,0.0117436,1840,1520,10.5459,-7.84222
623,-496,10.5747,7.71423,0.00174422,-0.000494151,0.00326862,0.00407995,-0.00282989,0.620453,0.0040111,0.025865,1847,1520,10.5748,-7.71428
630,-496,10.3467,7.83801,0.000804462,-0.00168547,0.00556117,0.00525832,-0.00613932,0.67528,0.00658698,0.0442415,1854,1520,10.3467,-7.838
637,-496,10.0872,7.92419,0,0,0,0,0,0,0,-1,1861,1520,10.0872,-7.92417
644,-496,8.71948,6.6842,0,0,0,0,0,0,0,-1,1868,1520,8.71952,-6.68425
651,-496,8.18506,5.47803,0,0,0,0,0,0,0,-1,1875,1520,8.18505,-5.47806
658,-496,7.79993,4.02563,0,0,0,0,0,0,0,-1,1882,1520,7.79997,-4.02568
665,-496,5.47583,7.90625,0,0,0,0,0,0,0,-1,1889,1520,5.47581,-7.90628
672,-496,0,0,0,0,0,0,0,0,0,-1,1896,1520,0,0
679,-496,0,0,0,0,0,0,0,0,0,-1,1903,1520,0,0
686,-496,0,0,0,0,0,0,0,0,0,-1,1910,1520,0,0
693,-496,0,0,0,0,0,0,0,0,0,-1,1917,1520,0,0
700,-496,0,0,0,0,0,0,0,0,0,-1,1924,1520,0,0
707,-496,0,0,0,0,0,0,0,0,0,-1,1931,1520,0,0
714,-496,0,0,0,0,0,0,0,0,0,-1,1938,1520,0,0
721,-496,0,0,0,0,0,0,0,0,0,-1,1945,1520,0,0
728,-496,0,0,0,0,0,0,0,0,0,-1,1952,1520,0,0
735,-496,0,0,0,0,0,0,0,0,0,-1,1959,1520,0,0
742,-496,0,0,0,0,0,0,0,0,0,-1,1966,1520,0,0
749,-496,0,0,0,0,0,0,0,0,0,-1,1973,1520,0,0
756,-496,0,0,0,0,0,0,0,0,0,-1,1980,1520,0,0
763,-496,0,0,0,0,0,0,0,0,0,-1,1987,1520,0,0
770,-496,0,0,0,0,0,0,0,0,0,-1,1994,1520,0,0
777,-496,0,0,0,0,0,0,0,0,0,-1,2001,1520,0,0
784,-496,0,0,0,0,0,0,0,0,0,-1,2008,1520,0,0
791,-496,0,0,0,0,0,0,0,0,0,-1,2015,1520,0,0
798,-496,0,0,0,0,0,0,0,0,0,-1,2022,1520,0,0
805,-496,0,0,0,0,0,0,0,0,0,-1,2029,1520,0,0
812,-496,0,0,0,0,0,0,0,0,0,-1,2036,1520,0,0
-700,-503,0,0,0,0,0,0,0,0,0,-1,524,1527,0,0
-693,-503,0,0,0,0,0,0,0,0,0,-1,531,1527,0,0
-686,-503,0,0,0,0,0,0,0,0,0,-1,538,1527,0,0
-679,-503,0,0,0,0,0,0,0,0,0,-1,545,1527,0,0
-672,-503,0,0,0,0,0,0,0,0,0,-1,552,1527,0,0
-665,-503,0,0,0,0,0,0,0,0,0,-1,559,1527,0,0
-658,-503,0,0,0,0,0,0,0,0,0,-1,566,1527,0,0
-651,-503,0,0,0,0,0,0,0,0,0,-1,573,1527,0,0
-644,-503,0,0,0,0,0,0,0,0,0,-1,580,1527,0,0
-637,-503,0,0,0,0,0,0,0,0,0,-1,587,1527,0,0
-630,-503,0,0,0,0,0,0,0,0,0,-1,594,1527,0,0
-623,-503,0,0,0,0,0,0,0,0,0,-1,601,1527,0,0
-616,-503,0,0,0,0,0,0,0,0,0,-1,608,1527,0,0
-609,-503,0,0,0,0,0,0,0,0,0,-1,615,1527,0,0
-602,-503,0,0,0,0,0,0,0,0,0,-1,622,1527,0,0
-595,-503,0,0,0,0,0,0,0,0,0,-1,629,1527,0,0
-588,-503,0,0,0,0,0,0,0,0,0,-1,636,1527,0,0
-581,-503,0,0,0,0,0,0,0,0,0,-1,643,1527,0,0
-574,-503,0,0,0,0,0,0,0,0,0,-1,650,1527,0,0
-567,-503,0,0,0,0,0,0,0,0,0,-1,657,1527,0,0
-560,-503,0,0,0,0,0,0,0,0,0,-1,664,1527,0,0
-553,-503,0,0,0,0,0,0,0,0,0,-1,671,1527,0,0
-546,-503,0,0,0,0,0,0,0,0,0,-1,678,1527,0,0
-539,-503,3.50177,4.26428,0,0,0,0,0,0,0,-1,685,1527,3.50177,-4.26424
-532,-503,2.67603,4.51135,0,0,0,0,0,0,0,-1,692,1527,2.67603,-4.5114
-525,-503,-2.39966,1.69104,0,0,0,0,0,0,0,-1,699,1527,-2.39966,-1.69099
-518,-503,-1.59241,2.92151,0,0,0,0,0,0,0,-1,706,1527,-1.5924,-2.92157
-511,-503,-1.76495,3.49622,0,0,0,0,0,0,0,-1,713,1527,-1.76493,-3.49623
-504,-503,-1.90576,3.94165,0,0,0,0,0,0,0,-1,720,1527,-1.90578,-3.94164
-497,-503,-0.773071,5.91907,0,0,0,0,0,0,0,-1,727,1527,-0.773086,-5.9191
-490,-503,-0.829163,6.23267,-0.00264698,0.0161904,0.00590875,0.0178903,-0.00434697,1.29065,0.0136093,0.0487398,734,1527,-0.829149,-6.23262
-483,-503,-0.860352,6.40833,-0.00430383,0.0140214,0.00460705,0.0151144,-0.00539687,1.33785,0.0122772,0.0378848,741,1527,-0.86033,-6.40828
-476,-503,-0.890991,6.48987,-0.00467537,0.0121245,0.0036325,0.0128762,-0.00542716,1.36672,0.0108553,0.017734,748,1527,-0.890997,-6.48984
-469,-503,-0.959778,6.72473,-0.0044411,0.0103992,0.00303054,0.0109942,-0.00503611,1.37692,0.00946581,0.00940746,755,1527,-0.959759,-6.72472
-462,-503,-0.980286,7.00024,-0.00353812,0.00843991,0.00246617,0.00892779,-0.00402601,1.37549,0.00765529,0.0113666,762,1527,-0.980268,-7.00029
-455,-503,-0.972717,7.2561,-0.0022832,0.00635019,0.00198985,0.00678674,-0.00271975,1.35483,0.00565352,0.0175012,769,1527,-0.972722,-7.25614
-448,-503,-0.953796,7.48462,-0.000803612,0.00413704,0.00157465,0.00459623,-0.00126279,1.28705,0.00356053,0.0168671,776,1527,-0.953766,-7.48459
-441,-503,-0.949768,7.71106,0.000606091,0.00209512,0.00102818,0.00262003,8.11763e-05,1.09876,0.00172027,0.0131298,783,1527,-0.949749,-7.71106
-434,-503,-0.946655,7.94702,0.00210385,0.00050487,0.000488504,0.00224128,0.000367439,0.274242,0.00138801,0.010714,790,1527,-0.946631,-7.94708
-427,-503,-0.965576,8.18433,0.00394819,-0.00109461,0.000104731,0.00395037,-0.00109678,0.0207565,0.00306529,0.0164012,797,1527,-0.965581,-8.18433
-420,-503,-0.956848,8.43689,0.00592156,-0.00251518,-0.000336205,0.00593494,-0.00252855,-0.039766,0.00501659,0.0174017,804,1527,-0.956872,-8.43691
-413,-503,-0.943359,8.69116,0.0081237,-0.00388331,-0.000708859,0.0081654,-0.00392502,-0.058765,0.00712207,0.0148558,811,1527,-0.943332,-8.69114
-406,-503,-0.946289,8.93176,0.0103968,-0.00495786,-0.00116271,0.0104843,-0.0050454,-0.0751528,0.00914754,0.0147336,818,1527,-0.946312,-8.93175
-399,-503,-0.857239,9.23035,0.0132187,-0.00583846,-0.00144134,0.0133271,-0.00594685,-0.0750631,0.0113965,0.0211309,825,1527,-0.857233,-9.2304
-392,-503,-0.712219,9.46753,0.0165824,-0.00681315,-0.00167016,0.016701,-0.00693178,-0.0709087,0.0140276,0.0380001,832,1527,-0.712218,-9.46749
-385,-503,-0.832703,9.3092,0.0201498,-0.0081645,-0.00192413,0.02028,-0.00829466,-0.0675422,0.0169744,0.0407669,839,1527,-0.832698,-9.30917
-378,-503,-0.485901,9.40601,0.0237346,-0.0101756,-0.00222925,0.0238806,-0.0103215,-0.0653649,0.0202572,0.0424271,846,1527,-0.485879,-9.40595
-371,-503,-0.405701,9.4104,0,0,0,0,0,0,0,-1,853,1527,-0.405707,-9.41034
-364,-503,0.085022,8.9812,0,0,0,0,0,0,0,-1,860,1527,0.0850418,-8.98121
-357,-503,0.558533,9.25452,0,0,0,0,0,0,0,-1,867,1527,0.558542,-9.25446
-350,-503,0.219971,6.84827,0,0,0,0,0,0,0,-1,874,1527,0.21996,-6.84831
-343,-503,-3.5802,4.43274,0,0,0,0,0,0,0,-1,881,1527,-3.58018,-4.43276
-336,-503,-3.2384,6.40637,0,0,0,0,0,0,0,-1,888,1527,-3.2384,-6.40643
-329,-503,-2.89661,8.38013,0,0,0,0,0,0,0,-1,895,1527,-2.89662,-8.3801
-322,-503,-3.31317,8.81519,0,0,0,0,0,0,0,-1,902,1527,-3.31315,-8.81524
-315,-503,-3.90265,7.73853,0,0,0,0,0,0,0,-1,909,1527,-3.90264,-7.73854
-308,-503,-4.07867,7.25977,0,0,0,0,0,0,0,-1,916,1527,-4.07868,-7.25973
-301,-503,0,0,0,0,0,0,0,0,0,-1,923,1527,0,0
-294,-503,0,0,0,0,0,0,0,0,0,-1,930,1527,0,0
-287,-503,0,0,0,0,0,0,0,0,0,-1,937,1527,0,0
-280,-503,0,0,0,0,0,0,0,0,0,-1,944,1527,0,0
-273,-503,0,0,0,0,0,0,0,0,0,-1,951,1527,0,0
-266,-503,0,0,0,0,0,0,0,0,0,-1,958,1527,0,0
-259,-503,0,0,0,0,0,0,0,0,0,-1,965,1527,0,0
-252,-503,0,0,0,0,0,0,0,0,0,-1,972,1527,0,0
-245,-503,0,0,0,0,0,0,0,0,0,-1,979,1527,0,0
-238,-503,0,0,0,0,0,0,0,0,0,-1,986,1527,0,0
-231,-503,0,0,0,0,0,0,0,0,0,-1,993,1527,0,0
-224,-503,0,0,0,0,0,0,0,0,0,-1,1000,1527,0,0
-217,-503,0,0,0,0,0,0,0,0,0,-1,1007,1527,0,0
-210,-503,0,0,0,0,0,0,0,0,0,-1,1014,1527,0,0
-203,-503,0,0,0,0,0,0,0,0,0,-1,1021,1527,0,0
-196,-503,0,0,0,0,0,0,0,0,0,-1,1028,1527,0,0
-189,-503,0,0,0,0,0,0,0,0,0,-1,1035,1527,0,0
-182,-503,0,0,0,0,0,0,0,0,0,-1,1042,1527,0,0
-175,-503,0,0,0,0,0,0,0,0,0,-1,1049,1527,0,0
-168,-503,0,0,0,0,0,0,0,0,0,-1,1056,1527,0,0
-161,-503,0,0,0,0,0,0,0,0,0,-1,1063,1527,0,0
-154,-503,0,0,0,0,0,0,0,0,0,-1,1070,1527,0,0
-147,-503,0,0,0,0,0,0,0,0,0,-1,1077,1527,0,0
-140,-503,0,0,0,0,0,0,0,0,0,-1,1084,1527,0,0
-133,-503,0,0,0,0,0,0,0,0,0,-1,1091,1527,0,0
-126,-503,0,0,0,0,0,0,0,0,0,-1,1098,1527,0,0
-119,-503,0,0,0,0,0,0,0,0,0,-1,1105,1527,0,0
-112,-503,0,0,0,0,0,0,0,0,0,-1,1112,1527,0,0
-105,-503,0,0,0,0,0,0,0,0,0,-1,1119,1527,0,0
-98,-503,0,0,0,0,0,0,0,0,0,-1,1126,1527,0,0
-91,-503,0,0,0,0,0,0,0,0,0,-1,1133,1527,0,0
-84,-503,0,0,0,0,0,0,0,0,0,-1,1140,1527,0,0
-77,-503,0,0,0,0,0,0,0,0,0,-1,1147,1527,0,0
-70,-503,0,0,0,0,0,0,0,0,0,-1,1154,1527,0,0
-63,-503,0,0,0,0,0,0,0,0,0,-1,1161,1527,0,0
-56,-503,0,0,0,0,0,0,0,0,0,-1,1168,1527,0,0
-49,-503,0,0,0,0,0,0,0,0,0,-1,1175,1527,0,0
-42,-503,0,0,0,0,0,0,0,0,0,-1,1182,1527,0,0
-35,-503,0,0,0,0,0,0,0,0,0,-1,1189,1527,0,0
-28,-503,0,0,0,0,0,0,0,0,0,-1,1196,1527,0,0
-21,-503,0,0,0,0,0,0,0,0,0,-1,1203,1527,0,0
-14,-503,0,0,0,0,0,0,0,0,0,-1,1210,1527,0,0
-7,-503,0,0,0,0,0,0,0,0,0,-1,1217,1527,0,0
0,-503,0,0,0,0,0,0,0,0,0,-1,1224,1527,0,0
7,-503,0,0,0,0,0,0,0,0,0,-1,1231,1527,0,0
14,-503,0,0,0,0,0,0,0,0,0,-1,1238,1527,0,0
21,-503,0,0,0,0,0,0,0,0,0,-1,1245,1527,0,0
28,-503,0,0,0,0,0,0,0,0,0,-1,1252,1527,0,0
35,-503,0,0,0,0,0,0,0,0,0,-1,1259,1527,0,0
42,-503,0,0,0,0,0,0,0,0,0,-1,1266,1527,0,0
49,-503,0,0,0,0,0,0,0,0,0,-1,1273,1527,0,0
56,-503,0,0,0,0,0,0,0,0,0,-1,1280,1527,0,0
63,-503,0,0,0,0,0,0,0,0,0,-1,1287,1527,0,0
70,-503,0,0,0,0,0,0,0,0,0,-1,1294,1527,0,0
77,-503,0,0,0,0,0,0,0,0,0,-1,1301,1527,0,0
84,-503,0,0,0,0,0,0,0,0,0,-1,1308,1527,0,0
91,-503,0,0,0,0,0,0,0,0,0,-1,1315,1527,0,0
98,-503,0,0,0,0,0,0,0,0,0,-1,1322,1527,0,0
105,-503,0,0,0,0,0,0,0,0,0,-1,1329,1527,0,0
112,-503,0,0,0,0,0,0,0,0,0,-1,1336,1527,0,0
119,-503,0,0,0,0,0,0,0,0,0,-1,1343,1527,0,0
126,-503,0,0,0,0,0,0,0,0,0,-1,1350,1527,0,0
133,-503,0,0,0,0,0,0,0,0,0,-1,1357,1527,0,0
140,-503,0,0,0,0,0,0,0,0,0,-1,1364,1527,0,0
147,-503,0,0,0,0,0,0,0,0,0,-1,1371,1527,0,0
154,-503,0,0,0,0,0,0,0,0,0,-1,1378,1527,0,0
161,-503,0,0,0,0,0,0,0,0,0,-1,1385,1527,0,0
168,-503,0,0,0,0,0,0,0,0,0,-1,1392,1527,0,0
175,-503,0,0,0,0,0,0,0,0,0,-1,1399,1527,0,0
182,-503,0,0,0,0,0,0,0,0,0,-1,1406,1527,0,0
189,-503,0,0,0,0,0,0,0,0,0,-1,1413,1527,0,0
196,-503,0,0,0,0,0,0,0,0,0,-1,1420,1527,0,0
203,-503,0,0,0,0,0,0,0,0,0,-1,1427,1527,0,0
210,-503,0,0,0,0,0,0,0,0,0,-1,1434,1527,0,0
217,-503,0,0,0,0,0,0,0,0,0,-1,1441,1527,0,0
224,-503,0,0,0,0,0,0,0,0,0,-1,1448,1527,0,0
231,-503,0,0,0,0,0,0,0,0,0,-1,1455,1527,0,0
238,-503,0,0,0,0,0,0,0,0,0,-1,1462,1527,0,0
245,-503,0,0,0,0,0,0,0,0,0,-1,1469,1527,0,0
252,-503,0,0,0,0,0,0,0,0,0,-1,1476,1527,0,0
259,-503,0,0,0,0,0,0,0,0,0,-1,1483,1527,0,0
266,-503,0,0,0,0,0,0,0,0,0,-1,1490,1527,0,0
273,-503,0,0,0,0,0,0,0,0,0,-1,1497,1527,0,0
280,-503,0,0,0,0,0,0,0,0,0,-1,1504,1527,0,0
287,-503,0,0,0,0,0,0,0,0,0,-1,1511,1527,0,0
294,-503,0,0,0,0,0,0,0,0,0,-1,1518,1527,0,0
301,-503,0,0,0,0,0,0,0,0,0,-1,1525,1527,0,0
308,-503,0,0,0,0,0,0,0,0,0,-1,1532,1527,0,0
315,-503,0,0,0,0,0,0,0,0,0,-1,1539,1527,0,0
322,-503,0,0,0,0,0,0,0,0,0,-1,1546,1527,0,0
329,-503,0,0,0,0,0,0,0,0,0,-1,1553,1527,0,0
336,-503,0,0,0,0,0,0,0,0,0,-1,1560,1527,0,0
343,-503,0,0,0,0,0,0,0,0,0,-1,1567,1527,0,0
350,-503,0,0,0,0,0,0,0,0,0,-1,1574,1527,0,0
357,-503,0,0,0,0,0,0,0,0,0,-1,1581,1527,0,0
364,-503,0,0,0,0,0,0,0,0,0,-1,1588,1527,0,0
371,-503,0,0,0,0,0,0,0,0,0,-1,1595,1527,0,0
378,-503,0,0,0,0,0,0,0,0,0,-1,1602,1527,0,0
385,-503,0,0,0,0,0,0,0,0,0,-1,1609,1527,0,0
392,-503,0,0,0,0,0,0,0,0,0,-1,1616,1527,0,0
399,-503,0,0,0,0,0,0,0,0,0,-1,1623,1527,0,0
406,-503,0,0,0,0,0,0,0,0,0,-1,1630,1527,0,0
413,-503,0,0,0,0,0,0,0,0,0,-1,1637,1527,0,0
420,-503,0,0,0,0,0,0,0,0,0,-1,1644,1527,0,0
427,-503,10.5968,4.9856,0,0,0,0,0,0,0,-1,1651,1527,10.5969,-4.98563
434,-503,11.4329,3.97217,0,0,0,0,0,0,0,-1,1658,1527,11.4328,-3.97222
441,-503,12.0957,2.96509,0,0,0,0,0,0,0,-1,1665,1527,12.0957,-2.96512
448,-503,12.3259,2.53894,0,0,0,0,0,0,0,-1,1672,1527,12.326,-2.53895
455,-503,12.1669,2.18762,0,0,0,0,0,0,0,-1,1679,1527,12.1668,-2.18767
462,-503,11.59,2.60791,0,0,0,0,0,0,0,-1,1686,1527,11.5899,-2.60794
469,-503,11.1625,1.61853,0,0,0,0,0,0,0,-1,1693,1527,11.1625,-1.61856
476,-503,9.07703,5.81042,0,0,0,0,0,0,0,-1,1700,1527,9.07699,-5.81047
483,-503,9.74414,6.92432,0.0498357,-0.107696,0.095645,0.0949731,-0.152833,0.440938,0.144365,0.0479022,1707,1527,9.74417,-6.9243
490,-503,10.6667,7.9469,0.0340599,-0.0916692,0.0815105,0.0741318,-0.131741,0.456918,0.120402,0.0489938,1714,1527,10.6668,-7.94685
497,-503,11.3463,8.86157,0.0208278,-0.0757632,0.0675714,0.0555886,-0.110524,0.475125,0.0976377,0.04255,1721,1527,11.3463,-8.86163
504,-503,11.3348,9.30017,0,0,0,0,0,0,0,-1,1728,1527,11.3349,-9.30022
511,-503,10.7979,10.8564,0,0,0,0,0,0,0,-1,1735,1527,10.7979,-10.8564
518,-503,10.6392,10.6486,-0.00125107,-0.0363812,0.0333726,0.0188968,-0.0565291,0.543153,0.0453178,0.0410142,1742,1527,10.6391,-10.6486
525,-503,10.442,10.6025,-0.00413256,-0.0268031,0.0250131,0.0119938,-0.0429295,0.572653,0.0333446,0.0316606,1749,1527,10.442,-10.6026
532,-503,10.3378,10.4957,-0.0052805,-0.0192114,0.0182793,0.00731549,-0.0318074,0.603363,0.0240177,0.0127286,1756,1527,10.3377,-10.4958
539,-503,10.3215,10.2874,-0.00620624,-0.0128563,0.0126882,0.00358537,-0.022648,0.657251,0.0164247,0.0113616,1763,1527,10.3216,-10.2873
546,-503,10.3015,10.0791,-0.00588358,-0.00815724,0.00831218,0.00136916,-0.01541,0.717436,0.0107588,0.0104799,1770,1527,10.3015,-10.0791
553,-503,10.3229,9.87122,-0.00468377,-0.00474634,0.00512066,0.000405704,-0.00983581,0.782343,0.00669654,0.0137627,1777,1527,10.3229,-9.87123
560,-503,10.3354,9.65381,-0.00280081,-0.00303905,0.00323016,0.00031242,-0.00615229,0.766968,0.00420953,0.0136203,1784,1527,10.3354,-9.65377
567,-503,10.3285,9.43921,-0.000999129,-0.001378,0.00162094,0.000443404,-0.00282054,0.727228,0.00204425,0.012086,1791,1527,10.3286,-9.43917
574,-503,10.3246,9.21729,0.000589672,-0.000259925,0.000416331,0.000759672,-0.000429925,0.387666,0.000695554,0.0123162,1798,1527,10.3245,-9.21734
581,-503,10.3101,8.99792,0.00182441,0.000675139,-0.000540304,0.00203853,0.000461019,-0.377308,0.00123439,0.0144407,1805,1527,10.3101,-8.99789
588,-503,10.3085,8.79187,0.00269821,0.00119223,-0.000874242,0.00309904,0.000791402,-0.429887,0.00185924,0.0168471,1812,1527,10.3084,-8.79182
595,-503,10.3186,8.55554,0.00345975,0.00172423,-0.00114276,0.00402688,0.0011571,-0.460668,0.00239399,0.01225,1819,1527,10.3186,-8.5555
602,-503,10.3331,8.30054,0.00387641,0.0019823,-0.00103844,0.00433479,0.00152391,-0.415696,0.00253919,0.0129,1826,1527,10.3331,-8.30054
609,-503,10.3595,8.06262,0.00401196,0.00195809,-0.000486018,0.00412116,0.00184889,-0.221018,0.00238354,0.0186079,1833,1527,10.3595,-8.06262
616,-503,10.288,7.92664,0.00393518,0.00161661,0.000592601,0.00407787,0.00147393,0.236275,0.0023843,0.0207189,1840,1527,10.2879,-7.92664
623,-503,10.3762,7.76501,0.00332508,0.000885532,0.00243972,0.00483295,-0.000622344,0.553589,0.00344819,0.0378983,1847,1527,10.3762,-7.765
630,-503,10.5319,7.65942,0.00204642,-0.000278288,0.00510628,0.00612097,-0.00435284,0.673489,0.00607571,0.0467286,1854,1527,10.5318,-7.6594
637,-503,10.7428,7.50574,0,0,0,0,0,0,0,-1,1861,1527,10.7428,-7.5057
644,-503,9.26575,6.1228,0,0,0,0,0,0,0,-1,1868,1527,9.2657,-6.12277
651,-503,8.65137,4.57263,0,0,0,0,0,0,0,-1,1875,1527,8.65131,-4.5726
658,-503,8.25635,3.10498,0,0,0,0,0,0,0,-1,1882,1527,8.2563,-3.10493
665,-503,0,0,0,0,0,0,0,0,0,-1,1889,1527,0,0
672,-503,0,0,0,0,0,0,0,0,0,-1,1896,1527,0,0
679,-503,0,0,0,0,0,0,0,0,0,-1,1903,1527,0,0
686,-503,0,0,0,0,0,0,0,0,0,-1,1910,1527,0,0
693,-503,0,0,0,0,0,0,0,0,0,-1,1917,1527,0,0
700,-503,0,0,0,0,0,0,0,0,0,-1,1924,1527,0,0
707,-503,0,0,0,0,0,0,0,0,0,-1,1931,1527,0,0
714,-503,0,0,0,0,0,0,0,0,0,-1,1938,1527,0,0
721,-503,0,0,0,0,0,0,0,0,0,-1,1945,1527,0,0
728,-503,0,0,0,0,0,0,0,0,0,-1,1952,1527,0,0
735,-503,0,0,0,0,0,0,0,0,0,-1,1959,1527,0,0
742,-503,0,0,0,0,0,0,0,0,0,-1,1966,1527,0,0
749,-503,0,0,0,0,0,0,0,0,0,-1,1973,1527,0,0
756,-503,0,0,0,0,0,0,0,0,0,-1,1980,1527,0,0
763,-503,0,0,0,0,0,0,0,0,0,-1,1987,1527,0,0
770,-503,0,0,0,0,0,0,0,0,0,-1,1994,1527,0,0
777,-503,0,0,0,0,0,0,0,0,0,-1,2001,1527,0,0
784,-503,0,0,0,0,0,0,0,0,0,-1,2008,1527,0,0
791,-503,0,0,0,0,0,0,0,0,0,-1,2015,1527,0,0
798,-503,0,0,0,0,0,0,0,0,0,-1,2022,1527,0,0
805,-503,0,0,0,0,0,0,0,0,0,-1,2029,1527,0,0
812,-503,0,0,0,0,0,0,0,0,0,-1,2036,1527,0,0
-700,-510,0,0,0,0,0,0,0,0,0,-1,524,1534,0,0
-693,-510,0,0,0,0,0,0,0,0,0,-1,531,1534,0,0
-686,-510,0,0,0,0,0,0,0,0,0,-1,538,1534,0,0
-679,-510,0,0,0,0,0,0,0,0,0,-1,545,1534,0,0
-672,-510,0,0,0,0,0,0,0,0,0,-1,552,1534,0,0
-665,-510,0,0,0,0,0,0,0,0,0,-1,559,1534,0,0
-658,-510,0,0,0,0,0,0,0,0,0,-1,566,1534,0,0
-651,-510,0,0,0,0,0,0,0,0,0,-1,573,1534,0,0
-644,-510,0,0,0,0,0,0,0,0,0,-1,580,1534,0,0
-637,-510,0,0,0,0,0,0,0,0,0,-1,587,1534,0,0
-630,-510,0,0,0,0,0,0,0,0,0,-1,594,1534,0,0
-623,-510,0,0,0,0,0,0,0,0,0,-1,601,1534,0,0
-616,-510,0,0,0,0,0,0,0,0,0,-1,608,1534,0,0
-609,-510,0,0,0,0,0,0,0,0,0,-1,615,1534,0,0
-602,-510,0,0,0,0,0,0,0,0,0,-1,622,1534,0,0
-595,-510,0,0,0,0,0,0,0,0,0,-1,629,1534,0,0
-588,-510,0,0,0,0,0,0,0,0,0,-1,636,1534,0,0
-581,-510,0,0,0,0,0,0,0,0,0,-1,643,1534,0,0
-574,-510,0,0,0,0,0,0,0,0,0,-1,650,1534,0,0
-567,-510,0,0,0,0,0,0,0,0,0,-1,657,1534,0,0
-560,-510,0,0,0,0,0,0,0,0,0,-1,664,1534,0,0
-553,-510,0,0,0,0,0,0,0,0,0,-1,671,1534,0,0
-546,-510,0,0,0,0,0,0,0,0,0,-1,678,1534,0,0
-539,-510,0,0,0,0,0,0,0,0,0,-1,685,1534,0,0
-532,-510,2.29291,4.35352,0,0,0,0,0,0,0,-1,692,1534,2.29289,-4.35348
-525,-510,1.41785,4.60266,0,0,0,0,0,0,0,-1,699,1534,1.41786,-4.60265
-518,-510,-2.1676,2.37988,0,0,0,0,0,0,0,-1,706,1534,-2.16759,-2.37993
-511,-510,-2.21582,2.9585,0,0,0,0,0,0,0,-1,713,1534,-2.2158,-2.95853
-504,-510,-2.26398,3.53711,0,0,0,0,0,0,0,-1,720,1534,-2.26401,-3.53713
-497,-510,-0.602051,6.25256,0,0,0,0,0,0,0,-1,727,1534,-0.602059,-6.25252
-490,-510,-0.770203,6.62622,-0.00757887,0.0238808,0.00813545,0.0258601,-0.00955816,1.33214,0.0211584,0.0486063,734,1534,-0.770185,-6.62627
-483,-510,-0.522217,6.11804,-0.00770691,0.0207161,0.00675675,0.0222406,-0.00923137,1.34889,0.0186806,0.0447473,741,1534,-0.522195,-6.11805
-476,-510,-0.566345,6.41699,-0.00703238,0.0177794,0.00566728,0.0190126,-0.00826556,1.35654,0.0161513,0.0272913,748,1534,-0.566354,-6.41704
-469,-510,-0.693909,6.71619,-0.00612199,0.0151063,0.00486941,0.0161699,-0.00718566,1.35574,0.0138129,0.0108841,755,1534,-0.693894,-6.71615
-462,-510,-0.719421,6.98401,-0.00489154,0.0123492,0.00406747,0.0132606,-0.00580297,1.35036,0.0112836,0.0108002,762,1534,-0.719392,-6.98405
-455,-510,-0.724548,7.24463,-0.00344554,0.00958546,0.00336022,0.0104009,-0.00426099,1.33272,0.00870895,0.013513,769,1534,-0.724529,-7.24459
-448,-510,-0.703308,7.48572,-0.00187818,0.0068796,0.00274744,0.00767015,-0.00266873,1.29062,0.00619759,0.0131302,776,1534,-0.703296,-7.48573
-441,-510,-0.705566,7.71252,-0.000391544,0.00443296,0.00204487,0.00518306,-0.00114164,1.21922,0.00389214,0.0137764,783,1534,-0.705588,-7.71256
-434,-510,-0.724609,7.93274,0.00110049,0.00250406,0.00139551,0.00336431,0.000240244,1.01838,0.00216724,0.0145449,790,1534,-0.724627,-7.93278
-427,-510,-0.742188,8.15125,0.00280548,0.000718721,0.000948003,0.00317184,0.000352366,0.36877,0.00200744,0.0214158,797,1534,-0.742217,-8.15119
-420,-510,-0.736145,8.41406,0.00461299,-0.000741575,0.000462066,0.00465257,-0.000781156,0.085452,0.00339222,0.0205198,804,1534,-0.736154,-8.41406
-413,-510,-0.70929,8.69629,0.00652909,-0.00222027,5.0822e-05,0.00652939,-0.00222056,0.00580839,0.00525199,0.0108009,811,1534,-0.709294,-8.6963
-406,-510,-0.720703,8.94019,0.00838475,-0.00332066,-0.000448722,0.00840193,-0.00333783,-0.0382597,0.00698499,0.0104973,818,1534,-0.720728,-8.94021
-399,-510,-0.719543,9.1731,0.0106001,-0.00417752,-0.000779065,0.0106411,-0.00421848,-0.0525251,0.00884226,0.011665,825,1534,-0.71953,-9.17305
-392,-510,-0.615051,9.48303,0.0131292,-0.00506179,-0.00101967,0.0131862,-0.00511876,-0.0558204,0.0109051,0.0219725,832,1534,-0.615062,-9.48309
-385,-510,-0.611877,9.60718,0.0156732,-0.00630582,-0.00125122,0.0157442,-0.00637682,-0.0566841,0.0131477,0.0355622,839,1534,-0.611859,-9.60714
-378,-510,-0.588013,9.37671,0.0179795,-0.0082349,-0.00159682,0.0180764,-0.00833181,-0.060615,0.015589,0.0370205,846,1534,-0.587994,-9.37669
-371,-510,-0.376099,9.54773,0.0207321,-0.0102557,-0.00199472,0.02086,-0.0103836,-0.0640188,0.0183734,0.0403083,853,1534,-0.376083,-9.5477
-364,-510,-0.408569,9.24451,0,0,0,0,0,0,0,-1,860,1534,-0.408574,-9.24452
-357,-510,-0.254395,8.89575,0,0,0,0,0,0,0,-1,867,1534,-0.254397,-8.89569
-350,-510,0.471191,6.06458,0,0,0,0,0,0,0,-1,874,1534,0.47118,-6.06453
-343,-510,-2.94617,5.00989,0,0,0,0,0,0,0,-1,881,1534,-2.94615,-5.00992
-336,-510,-2.50793,6.76257,0,0,0,0,0,0,0,-1,888,1534,-2.50794,-6.76253
-329,-510,-2.10583,8.51733,0,0,0,0,0,0,0,-1,895,1534,-2.10582,-8.51739
-322,-510,-1.45605,10.2574,0,0,0,0,0,0,0,-1,902,1534,-1.45608,-10.2574
-315,-510,-1.73047,10.9796,0,0,0,0,0,0,0,-1,909,1534,-1.73049,-10.9796
-308,-510,-2.05328,9.72034,0,0,0,0,0,0,0,-1,916,1534,-2.05327,-9.72036
-301,-510,-2.11639,10.0634,0,0,0,0,0,0,0,-1,923,1534,-2.11637,-10.0633
-294,-510,0,0,0,0,0,0,0,0,0,-1,930,1534,0,0
-287,-510,0,0,0,0,0,0,0,0,0,-1,937,1534,0,0
-280,-510,0,0,0,0,0,0,0,0,0,-1,944,1534,0,0
-273,-510,0,0,0,0,0,0,0,0,0,-1,951,1534,0,0
-266,-510,0,0,0,0,0,0,0,0,0,-1,958,1534,0,0
-259,-510,0,0,0,0,0,0,0,0,0,-1,965,1534,0,0
-252,-510,0,0,0,0,0,0,0,0,0,-1,972,1534,0,0
-245,-510,0,0,0,0,0,0,0,0,0,-1,979,1534,0,0
-238,-510,0,0,0,0,0,0,0,0,0,-1,986,1534,0,0
-231,-510,0,0,0,0,0,0,0,0,0,-1,993,1534,0,0
-224,-510,0,0,0,0,0,0,0,0,0,-1,1000,1534,0,0
-217,-510,0,0,0,0,0,0,0,0,0,-1,1007,1534,0,0
-210,-510,0,0,0,0,0,0,0,0,0,-1,1014,1534,0,0
-203,-510,0,0,0,0,0,0,0,0,0,-1,1021,1534,0,0
-196,-510,0,0,0,0,0,0,0,0,0,-1,1028,1534,0,0
-189,-510,0,0,0,0,0,0,0,0,0,-1,1035,1534,0,0
-182,-510,0,0,0,0,0,0,0,0,0,-1,1042,1534,0,0
-175,-510,0,0,0,0,0,0,0,0,0,-1,1049,1534,0,0
-168,-510,0,0,0,0,0,0,0,0,0,-1,1056,1534,0,0
-161,-510,0,0,0,0,0,0,0,0,0,-1,1063,1534,0,0
-154,-510,0,0,0,0,0,0,0,0,0,-1,1070,1534,0,0
-147,-510,0,0,0,0,0,0,0,0,0,-1,1077,1534,0,0
-140,-510,0,0,0,0,0,0,0,0,0,-1,1084,1534,0,0
-133,-510,0,0,0,0,0,0,0,0,0,-1,1091,1534,0,0
-126,-510,0,0,0,0,0,0,0,0,0,-1,1098,1534,0,0
-119,-510,0,0,0,0,0,0,0,0,0,-1,1105,1534,0,0
-112,-510,0,0,0,0,0,0,0,0,0,-1,1112,1534,0,0
-105,-510,0,0,0,0,0,0,0,0,0,-1,1119,1534,0,0
-98,-510,0,0,0,0,0,0,0,0,0,-1,1126,1534,0,0
-91,-510,0,0,0,0,0,0,0,0,0,-1,1133,1534,0,0
-84,-510,0,0,0,0,0,0,0,0,0,-1,1140,1534,0,0
-77,-510,0,0,0,0,0,0,0,0,0,-1,1147,1534,0,0
-70,-510,0,0,0,0,0,0,0,0,0,-1,1154,1534,0,0
-63,-510,0,0,0,0,0,0,0,0,0,-1,1161,1534,0,0
-56,-510,0,0,0,0,0,0,0,0,0,-1,1168,1534,0,0
-49,-510,0,0,0,0,0,0,0,0,0,-1,1175,1534,0,0
-42,-510,0,0,0,0,0,0,0,0,0,-1,1182,1534,0,0
-35,-510,0,0,0,0,0,0,0,0,0,-1,1189,1534,0,0
-28,-510,0,0,0,0,0,0,0,0,0,-1,1196,1534,0,0
-21,-510,0,0,0,0,0,0,0,0,0,-1,1203,1534,0,0
-14,-510,0,0,0,0,0,0,0,0,0,-1,1210,1534,0,0
-7,-510,0,0,0,0,0,0,0,0,0,-1,1217,1534,0,0
0,-510,0,0,0,0,0,0,0,0,0,-1,1224,1534,0,0
7,-510,0,0,0,0,0,0,0,0,0,-1,1231,1534,0,0
14,-510,0,0,0,0,0,0,0,0,0,-1,1238,1534,0,0
21,-510,0,0,0,0,0,0,0,0,0,-1,1245,1534,0,0
28,-510,0,0,0,0,0,0,0,0,0,-1,1252,1534,0,0
35,-510,0,0,0,0,0,0,0,0,0,-1,1259,1534,0,0
42,-510,0,0,0,0,0,0,0,0,0,-1,1266,1534,0,0
49,-510,0,0,0,0,0,0,0,0,0,-1,1273,1534,0,0
56,-510,0,0,0,0,0,0,0,0,0,-1,1280,1534,0,0
63,-510,0,0,0,0,0,0,0,0,0,-1,1287,1534,0,0
70,-510,0,0,0,0,0,0,0,0,0,-1,1294,1534,0,0
77,-510,0,0,0,0,0,0,0,0,0,-1,1301,1534,0,0
84,-510,0,0,0,0,0,0,0,0,0,-1,1308,1534,0,0
91,-510,0,0,0,0,0,0,0,0,0,-1,1315,1534,0,0
98,-510,0,0,0,0,0,0,0,0,0,-1,1322,1534,0,0
105,-510,0,0,0,0,0,0,0,0,0,-1,1329,1534,0,0
112,-510,0,0,0,0,0,0,0,0,0,-1,1336,1534,0,0
119,-510,0,0,0,0,0,0,0,0,0,-1,1343,1534,0,0
126,-510,0,0,0,0,0,0,0,0,0,-1,1350,1534,0,0
133,-510,0,0,0,0,0,0,0,0,0,-1,1357,1534,0,0
140,-510,0,0,0,0,0,0,0,0,0,-1,1364,1534,0,0
147,-510,0,0,0,0,0,0,0,0,0,-1,1371,1534,0,0
154,-510,0,0,0,0,0,0,0,0,0,-1,1378,1534,0,0
161,-510,0,0,0,0,0,0,0,0,0,-1,1385,1534,0,0
168,-510,0,0,0,0,0,0,0,0,0,-1,1392,1534,0,0
175,-510,0,0,0,0,0,0,0,0,0,-1,1399,1534,0,0
182,-510,0,0,0,0,0,0,0,0,0,-1,1406,1534,0,0
189,-510,0,0,0,0,0,0,0,0,0,-1,1413,1534,0,0
196,-510,0,0,0,0,0,0,0,0,0,-1,1420,1534,0,0
203,-510,0,0,0,0,0,0,0,0,0,-1,1427,1534,0,0
210,-510,0,0,0,0,0,0,0,0,0,-1,1434,1534,0,0
217,-510,0,0,0,0,0,0,0,0,0,-1,1441,1534,0,0
224,-510,0,0,0,0,0,0,0,0,0,-1,1448,1534,0,0
231,-510,0,0,0,0,0,0,0,0,0,-1,1455,1534,0,0
238,-510,0,0,0,0,0,0,0,0,0,-1,1462,1534,0,0
245,-510,0,0,0,0,0,0,0,0,0,-1,1469,1534,0,0
252,-510,0,0,0,0,0,0,0,0,0,-1,1476,1534,0,0
259,-510,0,0,0,0,0,0,0,0,0,-1,1483,1534,0,0
266,-510,0,0,0,0,0,0,0,0,0,-1,1490,1534,0,0
273,-510,0,0,0,0,0,0,0,0,0,-1,1497,1534,0,0
280,-510,0,0,0,0,0,0,0,0,0,-1,1504,1534,0,0
287,-510,0,0,0,0,0,0,0,0,0,-1,1511,1534,0,0
294,-510,0,0,0,0,0,0,0,0,0,-1,1518,1534,0,0
301,-510,0,0,0,0,0,0,0,0,0,-1,1525,1534,0,0
308,-510,0,0,0,0,0,0,0,0,0,-1,1532,1534,0,0
315,-510,0,0,0,0,0,0,0,0,0,-1,1539,1534,0,0
322,-510,0,0,0,0,0,0,0,0,0,-1,1546,1534,0,0
329,-510,0,0,0,0,0,0,0,0,0,-1,1553,1534,0,0
336,-510,0,0,0,0,0,0,0,0,0,-1,1560,1534,0,0
343,-510,0,0,0,0,0,0,0,0,0,-1,1567,1534,0,0
350,-510,0,0,0,0,0,0,0,0,0,-1,1574,1534,0,0
357,-510,0,0,0,0,0,0,0,0,0,-1,1581,1534,0,0
364,-510,0,0,0,0,0,0,0,0,0,-1,1588,1534,0,0
371,-510,0,0,0,0,0,0,0,0,0,-1,1595,1534,0,0
378,-510,0,0,0,0,0,0,0,0,0,-1,1602,1534,0,0
385,-510,0,0,0,0,0,0,0,0,0,-1,1609,1534,0,0
392,-510,0,0,0,0,0,0,0,0,0,-1,1616,1534,0,0
399,-510,0,0,0,0,0,0,0,0,0,-1,1623,1534,0,0
406,-510,0,0,0,0,0,0,0,0,0,-1,1630,1534,0,0
413,-510,0,0,0,0,0,0,0,0,0,-1,1637,1534,0,0
420,-510,13.1918,5.99402,0,0,0,0,0,0,0,-1,1644,1534,13.1917,-5.994
427,-510,10.9799,5.12341,0,0,0,0,0,0,0,-1,1651,1534,10.9798,-5.12337
434,-510,11.8219,4.07898,0,0,0,0,0,0,0,-1,1658,1534,11.8219,-4.07895
441,-510,12.6812,3.02991,0,0,0,0,0,0,0,-1,1665,1534,12.6811,-3.0299
448,-510,13.2379,2.2804,0,0,0,0,0,0,0,-1,1672,1534,13.2379,-2.28037
455,-510,9.76892,2.20642,0,0,0,0,0,0,0,-1,1679,1534,9.76894,-2.20647
462,-510,9.84692,2.49182,0,0,0,0,0,0,0,-1,1686,1534,9.84695,-2.49185
469,-510,9.99475,2.57556,0,0,0,0,0,0,0,-1,1693,1534,9.99477,-2.57556
476,-510,9.53821,5.95508,0,0,0,0,0,0,0,-1,1700,1534,9.53819,-5.95504
483,-510,9.9469,7.28748,0.0310526,-0.0940494,0.0825188,0.0720486,-0.135045,0.461091,0.121396,0.0483669,1707,1534,9.94686,-7.28747
490,-510,10.3279,8.67078,0.0212387,-0.0798654,0.0699291,0.0569745,-0.115601,0.472432,0.101535,0.0487816,1714,1534,10.3278,-8.67075
497,-510,10.7382,9.8949,0.0127909,-0.0657104,0.0577237,0.0433446,-0.096264,0.486818,0.0825107,0.0410117,1721,1534,10.7381,-9.89488
504,-510,10.8143,10.8901,0,0,0,0,0,0,0,-1,1728,1534,10.8143,-10.8902
511,-510,10.5022,10.4248,0.00168012,-0.0414832,0.0367309,0.0227004,-0.0625035,0.519786,0.0509503,0.0410586,1735,1534,10.5022,-10.4248
518,-510,10.3323,10.8571,-0.00150113,-0.0311201,0.0282467,0.0155829,-0.0482041,0.543953,0.0383992,0.0328404,1742,1534,10.3323,-10.857
525,-510,10.1511,10.7389,-0.00339587,-0.0226764,0.0210473,0.0101139,-0.0361861,0.570643,0.0281086,0.0174771,1749,1534,10.1511,-10.7389
532,-510,10.1241,10.5048,-0.00402981,-0.0159998,0.0152122,0.00633238,-0.026362,0.597981,0.0200221,0.0116374,1756,1534,10.1241,-10.5047
539,-510,10.1194,10.2924,-0.00456472,-0.0103287,0.0103161,0.00326439,-0.0181578,0.649187,0.0133273,0.0119359,1763,1534,10.1194,-10.2923
546,-510,10.0995,10.0898,-0.00417226,-0.0062115,0.00650993,0.00139741,-0.0117812,0.707717,0.00835895,0.0112116,1770,1534,10.0995,-10.0899
553,-510,10.1173,9.85852,-0.00305928,-0.0032459,0.00369625,0.000544838,-0.00685001,0.772778,0.00475869,0.0130032,1777,1534,10.1173,-9.85855
560,-510,10.1167,9.62439,-0.00134539,-0.00170186,0.00200308,0.000487363,-0.00353462,0.741025,0.00253454,0.0131649,1784,1534,10.1167,-9.62445
567,-510,10.1096,9.41589,0.000374626,-0.000188601,0.00052676,0.000690325,-0.0005043,0.539921,0.000692499,0.0128122,1791,1534,10.1096,-9.4159
574,-510,10.0981,9.19116,0.00194203,0.0008434,-0.000602223,0.00220783,0.000577596,-0.415656,0.0013221,0.0138479,1798,1534,10.0982,-9.19119
581,-510,10.0778,8.98792,0.00322542,0.00178347,-0.00153703,0.00420217,0.000806722,-0.566098,0.00257501,0.0124986,1805,1534,10.0778,-8.98786
588,-510,10.0729,8.80273,0.00420984,0.00235254,-0.00193321,0.00542587,0.0011365,-0.561489,0.00330422,0.013219,1812,1534,10.0729,-8.80276
595,-510,10.1309,8.51624,0.00520612,0.00300578,-0.00234792,0.00669885,0.00151305,-0.566303,0.00405672,0.012955,1819,1534,10.1309,-8.51618
602,-510,10.1349,8.24854,0.0059555,0.00345918,-0.00244608,0.00745347,0.00196121,-0.549483,0.00446133,0.0217112,1826,1534,10.1349,-8.24855
609,-510,10.0994,8.13086,0.00641336,0.00367084,-0.00211266,0.00756077,0.00252343,-0.497538,0.00444491,0.0303874,1833,1534,10.0993,-8.13082
616,-510,10.2253,7.98242,0.00650681,0.00356257,-0.00117065,0.00691553,0.00315385,-0.335908,0.00399782,0.0425296,1840,1534,10.2253,-7.98242
623,-510,10.1388,7.75024,0,0,0,0,0,0,0,-1,1847,1534,10.1388,-7.75022
630,-510,10.2537,7.67932,0,0,0,0,0,0,0,-1,1854,1534,10.2537,-7.67935
637,-510,10.5243,6.59131,0,0,0,0,0,0,0,-1,1861,1534,10.5243,-6.59127
644,-510,10.335,5.77954,0,0,0,0,0,0,0,-1,1868,1534,10.3349,-5.77952
651,-510,8.70471,3.5061,0,0,0,0,0,0,0,-1,1875,1534,8.70475,-3.50611
658,-510,0,0,0,0,0,0,0,0,0,-1,1882,1534,0,0
665,-510,0,0,0,0,0,0,0,0,0,-1,1889,1534,0,0
672,-510,0,0,0,0,0,0,0,0,0,-1,1896,1534,0,0
679,-510,0,0,0,0,0,0,0,0,0,-1,1903,1534,0,0
686,-510,0,0,0,0,0,0,0,0,0,-1,1910,1534,0,0
693,-510,0,0,0,0,0,0,0,0,0,-1,1917,1534,0,0
700,-510,0,0,0,0,0,0,0,0,0,-1,1924,1534,0,0
707,-510,0,0,0,0,0,0,0,0,0,-1,1931,1534,0,0
714,-510,0,0,0,0,0,0,0,0,0,-1,1938,1534,0,0
721,-510,0,0,0,0,0,0,0,0,0,-1,1945,1534,0,0
728,-510,0,0,0,0,0,0,0,0,0,-1,1952,1534,0,0
735,-510,0,0,0,0,0,0,0,0,0,-1,1959,1534,0,0
742,-510,0,0,0,0,0,0,0,0,0,-1,1966,1534,0,0
749,-510,0,0,0,0,0,0,0,0,0,-1,1973,1534,0,0
756,-510,0,0,0,0,0,0,0,0,0,-1,1980,1534,0,0
763,-510,0,0,0,0,0,0,0,0,0,-1,1987,1534,0,0
770,-510,0,0,0,0,0,0,0,0,0,-1,1994,1534,0,0
777,-510,0,0,0,0,0,0,0,0,0,-1,2001,1534,0,0
784,-510,0,0,0,0,0,0,0,0,0,-1,2008,1534,0,0
791,-510,0,0,0,0,0,0,0,0,0,-1,2015,1534,0,0
798,-510,0,0,0,0,0,0,0,0,0,-1,2022,1534,0,0
805,-510,0,0,0,0,0,0,0,0,0,-1,2029,1534,0,0
812,-510,0,0,0,0,0,0,0,0,0,-1,2036,1534,0,0
-700,-517,0,0,0,0,0,0,0,0,0,-1,524,1541,0,0
-693,-517,0,0,0,0,0,0,0,0,0,-1,531,1541,0,0
-686,-517,0,0,0,0,0,0,0,0,0,-1,538,1541,0,0
-679,-517,0,0,0,0,0,0,0,0,0,-1,545,1541,0,0
-672,-517,0,0,0,0,0,0,0,0,0,-1,552,1541,0,0
-665,-517,0,0,0,0,0,0,0,0,0,-1,559,1541,0,0
-658,-517,0,0,0,0,0,0,0,0,0,-1,566,1541,0,0
-651,-517,0,0,0,0,0,0,0,0,0,-1,573,1541,0,0
-644,-517,0,0,0,0,0,0,0,0,0,-1,580,1541,0,0
-637,-517,0,0,0,0,0,0,0,0,0,-1,587,1541,0,0
-630,-517,0,0,0,0,0,0,0,0,0,-1,594,1541,0,0
-623,-517,0,0,0,0,0,0,0,0,0,-1,601,1541,0,0
-616,-517,0,0,0,0,0,0,0,0,0,-1,608,1541,0,0
-609,-517,0,0,0,0,0,0,0,0,0,-1,615,1541,0,0
-602,-517,0,0,0,0,0,0,0,0,0,-1,622,1541,0,0
-595,-517,0,0,0,0,0,0,0,0,0,-1,629,1541,0,0
-588,-517,0,0,0,0,0,0,0,0,0,-1,636,1541,0,0
-581,-517,0,0,0,0,0,0,0,0,0,-1,643,1541,0,0
-574,-517,0,0,0,0,0,0,0,0,0,-1,650,1541,0,0
-567,-517,0,0,0,0,0,0,0,0,0,-1,657,1541,0,0
-560,-517,0,0,0,0,0,0,0,0,0,-1,664,1541,0,0
-553,-517,0,0,0,0,0,0,0,0,0,-1,671,1541,0,0
-546,-517,0,0,0,0,0,0,0,0,0,-1,678,1541,0,0
-539,-517,0,0,0,0,0,0,0,0,0,-1,685,1541,0,0
-532,-517,0,0,0,0,0,0,0,0,0,-1,692,1541,0,0
-525,-517,0.467896,4.35828,0,0,0,0,0,0,0,-1,699,1541,0.467905,-4.35823
-518,-517,-0.0923462,4.67297,0,0,0,0,0,0,0,-1,706,1541,-0.0923617,-4.67292
-511,-517,-2.72321,2.45251,0,0,0,0,0,0,0,-1,713,1541,-2.72323,-2.45249
-504,-517,-0.883362,4.79858,0,0,0,0,0,0,0,-1,720,1541,-0.88337,-4.79854
-497,-517,0.569519,6.08252,0,0,0,0,0,0,0,-1,727,1541,0.569506,-6.0825
-490,-517,0.317993,6.67688,0,0,0,0,0,0,0,-1,734,1541,0.317975,-6.6769
-483,-517,-0.287903,6.02039,0,0,0,0,0,0,0,-1,741,1541,-0.287889,-6.02035
-476,-517,-0.318237,6.3844,-0.00611131,0.0329622,0.0104527,0.0355827,-0.00873182,1.32516,0.0271054,0.0346584,748,1541,-0.318265,-6.38445
-469,-517,-0.428528,6.70959,-0.00511807,0.0276344,0.00895891,0.0299248,-0.00740846,1.3205,0.0228237,0.0144983,755,1541,-0.428536,-6.70959
-462,-517,-0.481018,6.96826,-0.0040481,0.02248,0.00750652,0.0244568,-0.00602488,1.3133,0.0186402,0.0146947,762,1541,-0.481048,-6.96826
-455,-517,-0.474731,7.23328,-0.00290225,0.0175794,0.00615793,0.0192883,-0.00461109,1.3001,0.01464,0.0125237,769,1541,-0.474738,-7.23324
-448,-517,-0.467346,7.47998,-0.00168553,0.0130726,0.00495236,0.0145804,-0.00319334,1.27525,0.0109412,0.0126837,776,1541,-0.467323,-7.47997
-441,-517,-0.494446,7.71558,-0.000490412,0.0091156,0.0037543,0.0104088,-0.00178361,1.23907,0.00760379,0.011942,783,1541,-0.494439,-7.71559
-434,-517,-0.466248,7.9519,0.00075909,0.00597402,0.00271098,0.00712798,-0.000394868,1.16837,0.00488893,0.0142799,790,1541,-0.466266,-7.95186
-427,-517,-0.467896,8.19287,0.00212276,0.00335237,0.0019695,0.0048008,0.000674336,0.936687,0.00300111,0.0135837,797,1541,-0.467919,-8.19283
-420,-517,-0.494507,8.46802,0.00357622,0.00124453,0.00123984,0.00411225,0.000708494,0.408073,0.00253851,0.0210107,804,1541,-0.494494,-8.46808
-413,-517,-0.488892,8.68921,0.00513513,-0.000687783,0.00064834,0.00520645,-0.000759097,0.109555,0.0037497,0.0111212,811,1541,-0.488891,-8.68915
-406,-517,-0.488586,8.93774,0.00661277,-0.00198006,2.57218e-05,0.00661284,-0.00198014,0.00299337,0.00519594,0.0102847,818,1541,-0.488593,-8.93772
-399,-517,-0.471863,9.18726,0.00831878,-0.00290833,-0.000407709,0.00833357,-0.00292311,-0.036251,0.00674464,0.00975308,825,1541,-0.471886,-9.18723
-392,-517,-0.456116,9.42346,0.0101475,-0.00376819,-0.000704402,0.0101831,-0.00380376,-0.0504473,0.00835059,0.0112264,832,1541,-0.45614,-9.42345
-385,-517,-0.398376,9.7583,0.011881,-0.00493345,-0.000938205,0.0119332,-0.00498564,-0.0555677,0.0100388,0.0182451,839,1541,-0.398386,-9.75826
-378,-517,-0.470093,9.80774,0.0132762,-0.00671325,-0.00124758,0.0133537,-0.00679081,-0.062091,0.0118344,0.0373323,846,1541,-0.470093,-9.8078
-371,-517,-0.310059,9.62329,0.0149148,-0.0086275,-0.00161504,0.0150251,-0.00873778,-0.0681761,0.0138786,0.0428728,853,1541,-0.310036,-9.62333
-364,-517,-0.143921,9.67261,0.0164412,-0.0110904,-0.00173497,0.0165501,-0.0111993,-0.0626868,0.0161201,0.0477394,860,1541,-0.143924,-9.67266
-357,-517,0.236755,9.76489,0,0,0,0,0,0,0,-1,867,1541,0.236731,-9.76486
-350,-517,0.722412,10.0829,0,0,0,0,0,0,0,-1,874,1541,0.722399,-10.0828
-343,-517,-2.56708,6.12415,0,0,0,0,0,0,0,-1,881,1541,-2.56708,-6.12418
-336,-517,-1.81256,7.39868,0,0,0,0,0,0,0,-1,888,1541,-1.81255,-7.39862
-329,-517,-0.370361,8.6095,0,0,0,0,0,0,0,-1,895,1541,-0.370333,-8.60947
-322,-517,-0.924377,9.64771,0,0,0,0,0,0,0,-1,902,1541,-0.924405,-9.64767
-315,-517,-0.987976,7.29749,0,0,0,0,0,0,0,-1,909,1541,-0.987993,-7.29743
-308,-517,-1.37579,8.10229,0,0,0,0,0,0,0,-1,916,1541,-1.37577,-8.1023
-301,-517,-1.69141,8.87488,0,0,0,0,0,0,0,-1,923,1541,-1.69141,-8.87485
-294,-517,-1.72583,9.92566,0,0,0,0,0,0,0,-1,930,1541,-1.72584,-9.92571
-287,-517,-1.64142,10.9014,0,0,0,0,0,0,0,-1,937,1541,-1.64143,-10.9014
-280,-517,0,0,0,0,0,0,0,0,0,-1,944,1541,0,0
-273,-517,0,0,0,0,0,0,0,0,0,-1,951,1541,0,0
-266,-517,0,0,0,0,0,0,0,0,0,-1,958,1541,0,0
-259,-517,0,0,0,0,0,0,0,0,0,-1,965,1541,0,0
-252,-517,0,0,0,0,0,0,0,0,0,-1,972,1541,0,0
-245,-517,0,0,0,0,0,0,0,0,0,-1,979,1541,0,0
-238,-517,0,0,0,0,0,0,0,0,0,-1,986,1541,0,0
-231,-517,0,0,0,0,0,0,0,0,0,-1,993,1541,0,0
-224,-517,0,0,0,0,0,0,0,0,0,-1,1000,1541,0,0
-217,-517,0,0,0,0,0,0,0,0,0,-1,1007,1541,0,0
-210,-517,0,0,0,0,0,0,0,0,0,-1,1014,1541,0,0
-203,-517,0,0,0,0,0,0,0,0,0,-1,1021,1541,0,0
-196,-517,0,0,0,0,0,0,0,0,0,-1,1028,1541,0,0
-189,-517,0,0,0,0,0,0,0,0,0,-1,1035,1541,0,0
-182,-517,0,0,0,0,0,0,0,0,0,-1,1042,1541,0,0
-175,-517,0,0,0,0,0,0,0,0,0,-1,1049,1541,0,0
-168,-517,0,0,0,0,0,0,0,0,0,-1,1056,1541,0,0
-161,-517,0,0,0,0,0,0,0,0,0,-1,1063,1541,0,0
-154,-517,0,0,0,0,0,0,0,0,0,-1,1070,1541,0,0
-147,-517,0,0,0,0,0,0,0,0,0,-1,1077,1541,0,0
-140,-517,0,0,0,0,0,0,0,0,0,-1,1084,1541,0,0
-133,-517,0,0,0,0,0,0,0,0,0,-1,1091,1541,0,0
-126,-517,0,0,0,0,0,0,0,0,0,-1,1098,1541,0,0
-119,-517,0,0,0,0,0,0,0,0,0,-1,1105,1541,0,0
-112,-517,0,0,0,0,0,0,0,0,0,-1,1112,1541,0,0
-105,-517,0,0,0,0,0,0,0,0,0,-1,1119,1541,0,0
-98,-517,0,0,0,0,0,0,0,0,0,-1,1126,1541,0,0
-91,-517,0,0,0,0,0,0,0,0,0,-1,1133,1541,0,0
-84,-517,0,0,0,0,0,0,0,0,0,-1,1140,1541,0,0
-77,-517,0,0,0,0,0,0,0,0,0,-1,1147,1541,0,0
-70,-517,0,0,0,0,0,0,0,0,0,-1,1154,1541,0,0
-63,-517,0,0,0,0,0,0,0,0,0,-1,1161,1541,0,0
-56,-517,0,0,0,0,0,0,0,0,0,-1,1168,1541,0,0
-49,-517,0,0,0,0,0,0,0,0,0,-1,1175,1541,0,0
-42,-517,0,0,0,0,0,0,0,0,0,-1,1182,1541,0,0
-35,-517,0,0,0,0,0,0,0,0,0,-1,1189,1541,0,0
-28,-517,0,0,0,0,0,0,0,0,0,-1,1196,1541,0,0
-21,-517,0,0,0,0,0,0,0,0,0,-1,1203,1541,0,0
-14,-517,0,0,0,0,0,0,0,0,0,-1,1210,1541,0,0
-7,-517,0,0,0,0,0,0,0,0,0,-1,1217,1541,0,0
0,-517,0,0,0,0,0,0,0,0,0,-1,1224,1541,0,0
7,-517,0,0,0,0,0,0,0,0,0,-1,1231,1541,0,0
14,-517,0,0,0,0,0,0,0,0,0,-1,1238,1541,0,0
21,-517,0,0,0,0,0,0,0,0,0,-1,1245,1541,0,0
28,-517,0,0,0,0,0,0,0,0,0,-1,1252,1541,0,0
35,-517,0,0,0,0,0,0,0,0,0,-1,1259,1541,0,0
42,-517,0,0,0,0,0,0,0,0,0,-1,1266,1541,0,0
49,-517,0,0,0,0,0,0,0,0,0,-1,1273,1541,0,0
56,-517,0,0,0,0,0,0,0,0,0,-1,1280,1541,0,0
63,-517,0,0,0,0,0,0,0,0,0,-1,1287,1541,0,0
70,-517,0,0,0,0,0,0,0,0,0,-1,1294,1541,0,0
77,-517,0,0,0,0,0,0,0,0,0,-1,1301,1541,0,0
84,-517,0,0,0,0,0,0,0,0,0,-1,1308,1541,0,0
91,-517,0,0,0,0,0,0,0,0,0,-1,1315,1541,0,0
98,-517,0,0,0,0,0,0,0,0,0,-1,1322,1541,0,0
105,-517,0,0,0,0,0,0,0,0,0,-1,1329,1541,0,0
112,-517,0,0,0,0,0,0,0,0,0,-1,1336,1541,0,0
119,-517,0,0,0,0,0,0,0,0,0,-1,1343,1541,0,0
126,-517,0,0,0,0,0,0,0,0,0,-1,1350,1541,0,0
133,-517,0,0,0,0,0,0,0,0,0,-1,1357,1541,0,0
140,-517,0,0,0,0,0,0,0,0,0,-1,1364,1541,0,0
147,-517,0,0,0,0,0,0,0,0,0,-1,1371,1541,0,0
154,-517,0,0,0,0,0,0,0,0,0,-1,1378,1541,0,0
161,-517,0,0,0,0,0,0,0,0,0,-1,1385,1541,0,0
168,-517,0,0,0,0,0,0,0,0,0,-1,1392,1541,0,0
175,-517,0,0,0,0,0,0,0,0,0,-1,1399,1541,0,0
182,-517,0,0,0,0,0,0,0,0,0,-1,1406,1541,0,0
189,-517,0,0,0,0,0,0,0,0,0,-1,1413,1541,0,0
196,-517,0,0,0,0,0,0,0,0,0,-1,1420,1541,0,0
203,-517,0,0,0,0,0,0,0,0,0,-1,1427,1541,0,0
210,-517,0,0,0,0,0,0,0,0,0,-1,1434,1541,0,0
217,-517,0,0,0,0,0,0,0,0,0,-1,1441,1541,0,0
224,-517,0,0,0,0,0,0,0,0,0,-1,1448,1541,0,0
231,-517,0,0,0,0,0,0,0,0,0,-1,1455,1541,0,0
238,-517,0,0,0,0,0,0,0,0,0,-1,1462,1541,0,0
245,-517,0,0,0,0,0,0,0,0,0,-1,1469,1541,0,0
252,-517,0,0,0,0,0,0,0,0,0,-1,1476,1541,0,0
259,-517,0,0,0,0,0,0,0,0,0,-1,1483,1541,0,0
266,-517,0,0,0,0,0,0,0,0,0,-1,1490,1541,0,0
273,-517,0,0,0,0,0,0,0,0,0,-1,1497,1541,0,0
280,-517,0,0,0,0,0,0,0,0,0,-1,1504,1541,0,0
287,-517,0,0,0,0,0,0,0,0,0,-1,1511,1541,0,0
294,-517,0,0,0,0,0,0,0,0,0,-1,1518,1541,0,0
301,-517,0,0,0,0,0,0,0,0,0,-1,1525,1541,0,0
308,-517,0,0,0,0,0,0,0,0,0,-1,1532,1541,0,0
315,-517,0,0,0,0,0,0,0,0,0,-1,1539,1541,0,0
322,-517,0,0,0,0,0,0,0,0,0,-1,1546,1541,0,0
329,-517,0,0,0,0,0,0,0,0,0,-1,1553,1541,0,0
336,-517,0,0,0,0,0,0,0,0,0,-1,1560,1541,0,0
343,-517,0,0,0,0,0,0,0,0,0,-1,1567,1541,0,0
350,-517,0,0,0,0,0,0,0,0,0,-1,1574,1541,0,0
357,-517,0,0,0,0,0,0,0,0,0,-1,1581,1541,0,0
364,-517,0,0,0,0,0,0,0,0,0,-1,1588,1541,0,0
371,-517,0,0,0,0,0,0,0,0,0,-1,1595,1541,0,0
378,-517,0,0,0,0,0,0,0,0,0,-1,1602,1541,0,0
385,-517,0,0,0,0,0,0,0,0,0,-1,1609,1541,0,0
392,-517,0,0,0,0,0,0,0,0,0,-1,1616,1541,0,0
399,-517,0,0,0,0,0,0,0,0,0,-1,1623,1541,0,0
406,-517,12.1469,6.22412,0,0,0,0,0,0,0,-1,1630,1541,12.1468,-6.22408
413,-517,12.2695,6.3324,0,0,0,0,0,0,0,-1,1637,1541,12.2696,-6.33243
420,-517,12.4789,6.20337,0,0,0,0,0,0,0,-1,1644,1541,12.4789,-6.20333
427,-517,11.647,4.66516,0,0,0,0,0,0,0,-1,1651,1541,11.647,-4.66519
434,-517,12.3719,3.92773,0,0,0,0,0,0,0,-1,1658,1541,12.3719,-3.92776
441,-517,13.146,3.14124,0,0,0,0,0,0,0,-1,1665,1541,13.146,-3.14121
448,-517,13.8861,2.36682,0,0,0,0,0,0,0,-1,1672,1541,13.8861,-2.36684
455,-517,13.6012,4.06335,0,0,0,0,0,0,0,-1,1679,1541,13.6012,-4.06335
462,-517,12.257,3.64075,0,0,0,0,0,0,0,-1,1686,1541,12.2569,-3.64076
469,-517,11.5145,4.91016,0,0,0,0,0,0,0,-1,1693,1541,11.5145,-4.91013
476,-517,12.3854,7.17847,0,0,0,0,0,0,0,-1,1700,1541,12.3853,-7.17841
483,-517,11.1787,7.91895,0,0,0,0,0,0,0,-1,1707,1541,11.1787,-7.91897
490,-517,10.3624,10.4713,0,0,0,0,0,0,0,-1,1714,1541,10.3624,-10.4713
497,-517,10.33,10.6892,0.00656517,-0.0557446,0.0480545,0.0326804,-0.0818598,0.4978,0.0681314,0.0413339,1721,1541,10.3299,-10.6892
504,-517,10.2892,11.0654,0.00290854,-0.045062,0.038591,0.0243606,-0.0665141,0.50735,0.0543155,0.037519,1728,1541,10.2892,-11.0654
511,-517,10.0529,11.2305,0.000222794,-0.0350033,0.0304117,0.0177536,-0.0525342,0.522923,0.0422043,0.0378486,1735,1541,10.0529,-11.2305
518,-517,9.88196,10.9844,-0.00170545,-0.0259911,0.0232922,0.0124191,-0.0401156,0.545117,0.0317048,0.0247578,1742,1541,9.88196,-10.9844
525,-517,9.88867,10.7159,-0.00280109,-0.0186711,0.0172134,0.00821825,-0.0296904,0.569426,0.0230272,0.0112929,1749,1541,9.88864,-10.716
532,-517,9.92395,10.4929,-0.0029964,-0.0128805,0.0122467,0.00526784,-0.0211447,0.593621,0.0161416,0.0101818,1756,1541,9.9239,-10.4929
539,-517,9.92358,10.2773,-0.00317348,-0.00790702,0.00804724,0.00284782,-0.0139283,0.642376,0.010366,0.0113642,1763,1541,9.92352,-10.2774
546,-517,9.90381,10.0685,-0.00267824,-0.00436746,0.00481696,0.00136759,-0.0084133,0.69861,0.00611591,0.0117873,1770,1541,9.90386,-10.0684
553,-517,9.90247,9.84314,-0.00158459,-0.00185405,0.00239209,0.000676559,-0.0041152,0.757267,0.00299457,0.0159768,1777,1541,9.90251,-9.84319
560,-517,9.90637,9.63135,1.57202e-05,-0.000448191,0.000880529,0.000694333,-0.0011268,0.65661,0.00106127,0.0155379,1784,1541,9.90638,-9.6314
567,-517,9.89624,9.43445,0.00170334,0.00092101,-0.000477956,0.00192979,0.000694557,-0.442464,0.00112865,0.0128977,1791,1541,9.89627,-9.43445
574,-517,9.88525,9.20325,0.00330461,0.00189704,-0.00156181,0.00431389,0.000887766,-0.573714,0.00263042,0.0138577,1798,1541,9.88531,-9.20325
581,-517,9.87378,8.99707,0.00471656,0.00287797,-0.00251747,0.00647733,0.00111719,-0.610337,0.0039982,0.014481,1805,1541,9.87378,-8.99703
588,-517,9.87866,8.77832,0.00593523,0.00356193,-0.00306225,0.0080327,0.00146445,-0.600552,0.00493988,0.0150181,1812,1541,9.87861,-8.77832
595,-517,9.9115,8.5354,0.00731287,0.00441663,-0.00373546,0.00987109,0.00185842,-0.600483,0.00605704,0.0181011,1819,1541,9.91144,-8.53544
602,-517,9.87573,8.29456,0.00860246,0.00518664,-0.00418899,0.0114183,0.00237077,-0.591829,0.00695793,0.022842,1826,1541,9.87574,-8.2946
609,-517,10.0543,7.9928,0.00976052,0.00585249,-0.00432476,0.0125522,0.0030608,-0.573215,0.00755739,0.0411216,1833,1541,10.0544,-7.9928
616,-517,10.3291,7.74463,0.010526,0.00626452,-0.0038137,0.0127638,0.0040267,-0.530645,0.00753462,0.0495017,1840,1541,10.3291,-7.74463
623,-517,10.6652,7.28613,0,0,0,0,0,0,0,-1,1847,1541,10.6652,-7.28608
630,-517,9.21375,7.09631,0,0,0,0,0,0,0,-1,1854,1541,9.21373,-7.09628
637,-517,11.5172,5.79822,0,0,0,0,0,0,0,-1,1861,1541,11.5173,-5.79825
644,-517,11.4232,3.30579,0,0,0,0,0,0,0,-1,1868,1541,11.4232,-3.30574
651,-517,0,0,0,0,0,0,0,0,0,-1,1875,1541,0,0
658,-517,0,0,0,0,0,0,0,0,0,-1,1882,1541,0,0
665,-517,0,0,0,0,0,0,0,0,0,-1,1889,1541,0,0
672,-517,0,0,0,0,0,0,0,0,0,-1,1896,1541,0,0
679,-517,0,0,0,0,0,0,0,0,0,-1,1903,1541,0,0
686,-517,0,0,0,0,0,0,0,0,0,-1,1910,1541,0,0
693,-517,0,0,0,0,0,0,0,0,0,-1,1917,1541,0,0
700,-517,0,0,0,0,0,0,0,0,0,-1,1924,1541,0,0
707,-517,0,0,0,0,0,0,0,0,0,-1,1931,1541,0,0
714,-517,0,0,0,0,0,0,0,0,0,-1,1938,1541,0,0
721,-517,0,0,0,0,0,0,0,0,0,-1,1945,1541,0,0
728,-517,0,0,0,0,0,0,0,0,0,-1,1952,1541,0,0
735,-517,0,0,0,0,0,0,0,0,0,-1,1959,1541,0,0
742,-517,0,0,0,0,0,0,0,0,0,-1,1966,1541,0,0
749,-517,0,0,0,0,0,0,0,0,0,-1,1973,1541,0,0
756,-517,0,0,0,0,0,0,0,0,0,-1,1980,1541,0,0
763,-517,0,0,0,0,0,0,0,0,0,-1,1987,1541,0,0
770,-517,0,0,0,0,0,0,0,0,0,-1,1994,1541,0,0
777,-517,0,0,0,0,0,0,0,0,0,-1,2001,1541,0,0
784,-517,0,0,0,0,0,0,0,0,0,-1,2008,1541,0,0
791,-517,0,0,0,0,0,0,0,0,0,-1,2015,1541,0,0
798,-517,0,0,0,0,0,0,0,0,0,-1,2022,1541,0,0
805,-517,0,0,0,0,0,0,0,0,0,-1,2029,1541,0,0
812,-517,0,0,0,0,0,0,0,0,0,-1,2036,1541,0,0
-700,-524,0,0,0,0,0,0,0,0,0,-1,524,1548,0,0
-693,-524,0,0,0,0,0,0,0,0,0,-1,531,1548,0,0
-686,-524,0,0,0,0,0,0,0,0,0,-1,538,1548,0,0
-679,-524,0,0,0,0,0,0,0,0,0,-1,545,1548,0,0
-672,-524,0,0,0,0,0,0,0,0,0,-1,552,1548,0,0
-665,-524,0,0,0,0,0,0,0,0,0,-1,559,1548,0,0
-658,-524,0,0,0,0,0,0,0,0,0,-1,566,1548,0,0
-651,-524,0,0,0,0,0,0,0,0,0,-1,573,1548,0,0
-644,-524,0,0,0,0,0,0,0,0,0,-1,580,1548,0,0
-637,-524,0,0,0,0,0,0,0,0,0,-1,587,1548,0,0
-630,-524,0,0,0,0,0,0,0,0,0,-1,594,1548,0,0
-623,-524,0,0,0,0,0,0,0,0,0,-1,601,1548,0,0
-616,-524,0,0,0,0,0,0,0,0,0,-1,608,1548,0,0
-609,-524,0,0,0,0,0,0,0,0,0,-1,615,1548,0,0
-602,-524,0,0,0,0,0,0,0,0,0,-1,622,1548,0,0
-595,-524,0,0,0,0,0,0,0,0,0,-1,629,1548,0,0
-588,-524,0,0,0,0,0,0,0,0,0,-1,636,1548,0,0
-581,-524,0,0,0,0,0,0,0,0,0,-1,643,1548,0,0
-574,-524,0,0,0,0,0,0,0,0,0,-1,650,1548,0,0
-567,-524,0,0,0,0,0,0,0,0,0,-1,657,1548,0,0
-560,-524,0,0,0,0,0,0,0,0,0,-1,664,1548,0,0
-553,-524,0,0,0,0,0,0,0,0,0,-1,671,1548,0,0
-546,-524,0,0,0,0,0,0,0,0,0,-1,678,1548,0,0
-539,-524,0,0,0,0,0,0,0,0,0,-1,685,1548,0,0
-532,-524,0,0,0,0,0,0,0,0,0,-1,692,1548,0,0
-525,-524,-0.215515,3.97131,0,0,0,0,0,0,0,-1,699,1548,-0.215501,-3.97136
-518,-524,-0.806274,4.35632,0,0,0,0,0,0,0,-1,706,1548,-0.806259,-4.35633
-511,-524,-1.08301,4.29004,0,0,0,0,0,0,0,-1,713,1548,-1.08301,-4.29006
-504,-524,-1.28821,3.98145,0,0,0,0,0,0,0,-1,720,1548,-1.28822,-3.98151
-497,-524,0.190063,5.8429,0,0,0,0,0,0,0,-1,727,1548,0.19007,-5.84288
-490,-524,0.0757446,6.14404,-0.00562,0.0726973,0.0224439,0.0786732,-0.0115959,1.31057,0.0567107,0.0459724,734,1548,0.075721,-6.14404
-483,-524,-0.161255,6.24646,-0.00409497,0.0639332,0.0199967,0.0693757,-0.00953755,1.30506,0.0497354,0.047123,741,1548,-0.161229,-6.24651
-476,-524,-0.274292,6.46875,-0.00306042,0.054772,0.017462,0.0596355,-0.00792392,1.29916,0.0426444,0.0450168,748,1548,-0.274318,-6.46876
-469,-524,-0.274414,6.76147,-0.00236235,0.0457524,0.0149806,0.0500353,-0.00664533,1.29232,0.0357783,0.0327966,755,1548,-0.274431,-6.76149
-462,-524,-0.195496,7.0304,-0.00174744,0.0371434,0.0125486,0.0408408,-0.00544488,1.28426,0.0292118,0.0243101,762,1548,-0.195487,-7.03036
-455,-524,-0.239746,7.24854,-0.00113081,0.0291733,0.0102593,0.0323199,-0.00427734,1.2732,0.0231047,0.0166674,769,1548,-0.239774,-7.24859
-448,-524,-0.221924,7.4812,-0.000501784,0.0219776,0.00816226,0.0246287,-0.00315285,1.25675,0.0175646,0.0123536,776,1548,-0.221915,-7.4812
-441,-524,-0.246887,7.72522,0.000177158,0.0157554,0.00620869,0.0179272,-0.00199455,1.23431,0.0126687,0.0103717,783,1548,-0.246883,-7.72518
-434,-524,-0.226074,7.95471,0.00103502,0.0107697,0.00454421,0.0125613,-0.00075653,1.19526,0.0086374,0.0126053,790,1548,-0.226104,-7.95477
-427,-524,-0.219421,8.21582,0.00189855,0.00683469,0.0033229,0.00850582,0.000227415,1.10482,0.00559628,0.0135599,797,1548,-0.219407,-8.21588
-420,-524,-0.245483,8.45972,0.0028129,0.00354226,0.00217669,0.0053846,0.000970552,0.868397,0.00331394,0.0117787,804,1548,-0.245498,-8.45977
-413,-524,-0.233459,8.69482,0.00387886,0.000806459,0.00126806,0.00433462,0.000350703,0.345035,0.00278023,0.0109955,811,1548,-0.233433,-8.69484
-406,-524,-0.233154,8.94885,0.00490117,-0.000931214,0.000426879,0.00493225,-0.000962292,0.0726749,0.00365144,0.0109127,818,1548,-0.233146,-8.94881
-399,-524,-0.230896,9.19885,0.00614491,-0.00198982,-0.000138782,0.00614728,-0.00199219,-0.0170537,0.00489918,0.0085734,825,1548,-0.230905,-9.19887
-392,-524,-0.23114,9.4137,0.00737378,-0.00286082,-0.000512287,0.00739935,-0.0028864,-0.0498882,0.00612606,0.0093435,832,1548,-0.231152,-9.41368
-385,-524,-0.235596,9.66956,0.00846064,-0.00394535,-0.000763512,0.00850745,-0.00399216,-0.0612358,0.00737193,0.0114046,839,1548,-0.235583,-9.66952
-378,-524,-0.216492,10.0265,0.00921563,-0.00554216,-0.00104164,0.00928879,-0.00561532,-0.070119,0.00869158,0.0216131,846,1548,-0.216462,-10.0265
-371,-524,-0.0426025,9.98511,0,0,0,0,0,0,0,-1,853,1548,-0.0426174,-9.98513
-364,-524,-0.125488,9.96875,0,0,0,0,0,0,0,-1,860,1548,-0.125516,-9.96877
-357,-524,-0.208435,9.95239,0,0,0,0,0,0,0,-1,867,1548,-0.208416,-9.95241
-350,-524,-0.889221,10.2228,0,0,0,0,0,0,0,-1,874,1548,-0.889197,-10.2227
-343,-524,-1.2887,6.94836,0,0,0,0,0,0,0,-1,881,1548,-1.28868,-6.94831
-336,-524,0.0162354,8.78796,0,0,0,0,0,0,0,-1,888,1548,0.0162217,-8.78799
-329,-524,0.128906,10.2474,0,0,0,0,0,0,0,-1,895,1548,0.128901,-10.2475
-322,-524,-0.502136,11.0057,0,0,0,0,0,0,0,-1,902,1548,-0.502128,-11.0057
-315,-524,-0.988525,9.54456,0,0,0,0,0,0,0,-1,909,1548,-0.988536,-9.54449
-308,-524,-1.32727,7.03796,0,0,0,0,0,0,0,-1,916,1548,-1.3273,-7.038
-301,-524,-1.45227,7.98669,0,0,0,0,0,0,0,-1,923,1548,-1.45227,-7.98669
-294,-524,-1.52515,9.05408,0,0,0,0,0,0,0,-1,930,1548,-1.52512,-9.05411
-287,-524,-1.52618,9.99182,0,0,0,0,0,0,0,-1,937,1548,-1.52619,-9.99178
-280,-524,-1.6156,10.4597,0,0,0,0,0,0,0,-1,944,1548,-1.6156,-10.4597
-273,-524,0,0,0,0,0,0,0,0,0,-1,951,1548,0,0
-266,-524,0,0,0,0,0,0,0,0,0,-1,958,1548,0,0
-259,-524,0,0,0,0,0,0,0,0,0,-1,965,1548,0,0
-252,-524,0,0,0,0,0,0,0,0,0,-1,972,1548,0,0
-245,-524,0,0,0,0,0,0,0,0,0,-1,979,1548,0,0
-238,-524,0,0,0,0,0,0,0,0,0,-1,986,1548,0,0
-231,-524,0,0,0,0,0,0,0,0,0,-1,993,1548,0,0
-224,-524,0,0,0,0,0,0,0,0,0,-1,1000,1548,0,0
-217,-524,0,0,0,0,0,0,0,0,0,-1,1007,1548,0,0
-210,-524,0,0,0,0,0,0,0,0,0,-1,1014,1548,0,0
-203,-524,0,0,0,0,0,0,0,0,0,-1,1021,1548,0,0
-196,-524,0,0,0,0,0,0,0,0,0,-1,1028,1548,0,0
-189,-524,0,0,0,0,0,0,0,0,0,-1,1035,1548,0,0
-182,-524,0,0,0,0,0,0,0,0,0,-1,1042,1548,0,0
-175,-524,0,0,0,0,0,0,0,0,0,-1,1049,1548,0,0
-168,-524,0,0,0,0,0,0,0,0,0,-1,1056,1548,0,0
-161,-524,0,0,0,0,0,0,0,0,0,-1,1063,1548,0,0
-154,-524,0,0,0,0,0,0,0,0,0,-1,1070,1548,0,0
-147,-524,0,0,0,0,0,0,0,0,0,-1,1077,1548,0,0
-140,-524,0,0,0,0,0,0,0,0,0,-1,1084,1548,0,0
-133,-524,0,0,0,0,0,0,0,0,0,-1,1091,1548,0,0
-126,-524,0,0,0,0,0,0,0,0,0,-1,1098,1548,0,0
-119,-524,0,0,0,0,0,0,0,0,0,-1,1105,1548,0,0
-112,-524,0,0,0,0,0,0,0,0,0,-1,1112,1548,0,0
-105,-524,0,0,0,0,0,0,0,0,0,-1,1119,1548,0,0
-98,-524,0,0,0,0,0,0,0,0,0,-1,1126,1548,0,0
-91,-524,0,0,0,0,0,0,0,0,0,-1,1133,1548,0,0
-84,-524,0,0,0,0,0,0,0,0,0,-1,1140,1548,0,0
-77,-524,0,0,0,0,0,0,0,0,0,-1,1147,1548,0,0
-70,-524,0,0,0,0,0,0,0,0,0,-1,1154,1548,0,0
-63,-524,0,0,0,0,0,0,0,0,0,-1,1161,1548,0,0
-56,-524,0,0,0,0,0,0,0,0,0,-1,1168,1548,0,0
-49,-524,0,0,0,0,0,0,0,0,0,-1,1175,1548,0,0
-42,-524,0,0,0,0,0,0,0,0,0,-1,1182,1548,0,0
-35,-524,0,0,0,0,0,0,0,0,0,-1,1189,1548,0,0
-28,-524,0,0,0,0,0,0,0,0,0,-1,1196,1548,0,0
-21,-524,0,0,0,0,0,0,0,0,0,-1,1203,1548,0,0
-14,-524,0,0,0,0,0,0,0,0,0,-1,1210,1548,0,0
-7,-524,0,0,0,0,0,0,0,0,0,-1,1217,1548,0,0
0,-524,0,0,0,0,0,0,0,0,0,-1,1224,1548,0,0
7,-524,0,0,0,0,0,0,0,0,0,-1,1231,1548,0,0
14,-524,0,0,0,0,0,0,0,0,0,-1,1238,1548,0,0
21,-524,0,0,0,0,0,0,0,0,0,-1,1245,1548,0,0
28,-524,0,0,0,0,0,0,0,0,0,-1,1252,1548,0,0
35,-524,0,0,0,0,0,0,0,0,0,-1,1259,1548,0,0
42,-524,0,0,0,0,0,0,0,0,0,-1,1266,1548,0,0
49,-524,0,0,0,0,0,0,0,0,0,-1,1273,1548,0,0
56,-524,0,0,0,0,0,0,0,0,0,-1,1280,1548,0,0
63,-524,0,0,0,0,0,0,0,0,0,-1,1287,1548,0,0
70,-524,0,0,0,0,0,0,0,0,0,-1,1294,1548,0,0
77,-524,0,0,0,0,0,0,0,0,0,-1,1301,1548,0,0
84,-524,0,0,0,0,0,0,0,0,0,-1,1308,1548,0,0
91,-524,0,0,0,0,0,0,0,0,0,-1,1315,1548,0,0
98,-524,0,0,0,0,0,0,0,0,0,-1,1322,1548,0,0
105,-524,0,0,0,0,0,0,0,0,0,-1,1329,1548,0,0
112,-524,0,0,0,0,0,0,0,0,0,-1,1336,1548,0,0
119,-524,0,0,0,0,0,0,0,0,0,-1,1343,1548,0,0
126,-524,0,0,0,0,0,0,0,0,0,-1,1350,1548,0,0
133,-524,0,0,0,0,0,0,0,0,0,-1,1357,1548,0,0
140,-524,0,0,0,0,0,0,0,0,0,-1,1364,1548,0,0
147,-524,0,0,0,0,0,0,0,0,0,-1,1371,1548,0,0
154,-524,0,0,0,0,0,0,0,0,0,-1,1378,1548,0,0
161,-524,0,0,0,0,0,0,0,0,0,-1,1385,1548,0,0
168,-524,0,0,0,0,0,0,0,0,0,-1,1392,1548,0,0
175,-524,0,0,0,0,0,0,0,0,0,-1,1399,1548,0,0
182,-524,0,0,0,0,0,0,0,0,0,-1,1406,1548,0,0
189,-524,0,0,0,0,0,0,0,0,0,-1,1413,1548,0,0
196,-524,0,0,0,0,0,0,0,0,0,-1,1420,1548,0,0
203,-524,0,0,0,0,0,0,0,0,0,-1,1427,1548,0,0
210,-524,0,0,0,0,0,0,0,0,0,-1,1434,1548,0,0
217,-524,0,0,0,0,0,0,0,0,0,-1,1441,1548,0,0
224,-524,0,0,0,0,0,0,0,0,0,-1,1448,1548,0,0
231,-524,0,0,0,0,0,0,0,0,0,-1,1455,1548,0,0
238,-524,0,0,0,0,0,0,0,0,0,-1,1462,1548,0,0
245,-524,0,0,0,0,0,0,0,0,0,-1,1469,1548,0,0
252,-524,0,0,0,0,0,0,0,0,0,-1,1476,1548,0,0
259,-524,0,0,0,0,0,0,0,0,0,-1,1483,1548,0,0
266,-524,0,0,0,0,0,0,0,0,0,-1,1490,1548,0,0
273,-524,0,0,0,0,0,0,0,0,0,-1,1497,1548,0,0
280,-524,0,0,0,0,0,0,0,0,0,-1,1504,1548,0,0
287,-524,0,0,0,0,0,0,0,0,0,-1,1511,1548,0,0
294,-524,0,0,0,0,0,0,0,0,0,-1,1518,1548,0,0
301,-524,0,0,0,0,0,0,0,0,0,-1,1525,1548,0,0
308,-524,0,0,0,0,0,0,0,0,0,-1,1532,1548,0,0
315,-524,0,0,0,0,0,0,0,0,0,-1,1539,1548,0,0
322,-524,0,0,0,0,0,0,0,0,0,-1,1546,1548,0,0
329,-524,0,0,0,0,0,0,0,0,0,-1,1553,1548,0,0
336,-524,0,0,0,0,0,0,0,0,0,-1,1560,1548,0,0
343,-524,0,0,0,0,0,0,0,0,0,-1,1567,1548,0,0
350,-524,0,0,0,0,0,0,0,0,0,-1,1574,1548,0,0
357,-524,0,0,0,0,0,0,0,0,0,-1,1581,1548,0,0
364,-524,0,0,0,0,0,0,0,0,0,-1,1588,1548,0,0
371,-524,0,0,0,0,0,0,0,0,0,-1,1595,1548,0,0
378,-524,0,0,0,0,0,0,0,0,0,-1,1602,1548,0,0
385,-524,0,0,0,0,0,0,0,0,0,-1,1609,1548,0,0
392,-524,0,0,0,0,0,0,0,0,0,-1,1616,1548,0,0
399,-524,8.81848,5.05774,0,0,0,0,0,0,0,-1,1623,1548,8.81843,-5.05769
406,-524,8.64294,6.06799,0,0,0,0,0,0,0,-1,1630,1548,8.6429,-6.06805
413,-524,11.677,6.41858,0,0,0,0,0,0,0,-1,1637,1548,11.677,-6.41864
420,-524,11.4913,6.36401,0,0,0,0,0,0,0,-1,1644,1548,11.4913,-6.36402
427,-524,7.68335,6.17249,0,0,0,0,0,0,0,-1,1651,1548,7.68341,-6.17245
434,-524,10.432,11.6801,0,0,0,0,0,0,0,-1,1658,1548,10.432,-11.68
441,-524,8.78552,4.12305,0,0,0,0,0,0,0,-1,1665,1548,8.78553,-4.12301
448,-524,14.1854,4.78674,0,0,0,0,0,0,0,-1,1672,1548,14.1854,-4.78674
455,-524,12.4784,3.65576,0,0,0,0,0,0,0,-1,1679,1548,12.4784,-3.65572
462,-524,11.9464,4.95581,0,0,0,0,0,0,0,-1,1686,1548,11.9464,-4.95586
469,-524,11.334,6.57605,0,0,0,0,0,0,0,-1,1693,1548,11.3339,-6.57601
476,-524,11.3315,8.35083,0,0,0,0,0,0,0,-1,1700,1548,11.3316,-8.35084
483,-524,10.5966,9.4718,0.00729299,-0.0664773,0.0564846,0.0378691,-0.0970534,0.496153,0.0803569,0.0463959,1707,1548,10.5966,-9.47182
490,-524,10.1053,10.4716,0.00452927,-0.0561313,0.0475256,0.0305781,-0.0821802,0.501385,0.0673351,0.0428358,1714,1548,10.1054,-10.4716
497,-524,9.74512,11.2054,0.00217167,-0.0459978,0.0390481,0.0239654,-0.0677915,0.509059,0.0549532,0.0328559,1721,1548,9.74508,-11.2055
504,-524,9.69214,11.2651,0.000520068,-0.0372496,0.0312725,0.0181675,-0.0548971,0.513765,0.0439247,0.018542,1728,1548,9.69215,-11.2651
511,-524,9.66321,11.173,-0.000794463,-0.0287837,0.024563,0.0134809,-0.0430591,0.526461,0.0340998,0.0174377,1735,1548,9.66324,-11.1729
518,-524,9.6991,10.9274,-0.00179936,-0.021078,0.0186903,0.00959092,-0.0324682,0.547319,0.0254521,0.0163585,1742,1548,9.69915,-10.9274
525,-524,9.70557,10.7115,-0.00230064,-0.0148308,0.0136366,0.00644122,-0.0235727,0.570063,0.0182452,0.0142668,1749,1548,9.70556,-10.7115
532,-524,9.70935,10.4849,-0.00216951,-0.00988586,0.00946694,0.00419525,-0.0162506,0.591903,0.0124697,0.00981395,1756,1548,9.70935,-10.4849
539,-524,9.70374,10.2594,-0.00206425,-0.00562004,0.00593162,0.0023502,-0.0100345,0.639793,0.00759524,0.0105196,1763,1548,9.7038,-10.2594
546,-524,9.68945,10.0518,-0.00147424,-0.00265512,0.00325412,0.00124257,-0.00537193,0.695653,0.00405937,0.0137941,1770,1548,9.68945,-10.0518
553,-524,9.6936,9.86304,-0.000362532,-0.00060302,0.00121378,0.000736944,-0.0017025,0.736026,0.00144472,0.0220749,1777,1548,9.69361,-9.86308
560,-524,9.67566,9.64246,0.00115962,0.000677201,-0.000132708,0.00119371,0.000643104,-0.251492,0.00068988,0.0280668,1784,1548,9.67564,-9.64245
567,-524,9.6366,9.45557,0.00284501,0.00189624,-0.00138482,0.00383444,0.000906811,-0.620382,0.00231403,0.0163238,1791,1548,9.63664,-9.45555
574,-524,9.66431,9.22046,0.00452254,0.00283773,-0.00244856,0.00626956,0.00109071,-0.619719,0.00386774,0.0122125,1798,1548,9.66426,-9.22047
581,-524,9.6687,9.00647,0.00613912,0.00388897,-0.00346327,0.00865548,0.00137261,-0.628346,0.00537156,0.013219,1805,1548,9.66865,-9.00645
588,-524,9.69067,8.77039,0.00772829,0.00475193,-0.00423564,0.0107296,0.00175064,-0.616461,0.0066468,0.0149824,1812,1548,9.69069,-8.77042
595,-524,9.68152,8.52002,0.00965735,0.00590764,-0.00529128,0.0133961,0.00216888,-0.615135,0.00830275,0.016986,1819,1548,9.68157,-8.51999
602,-524,9.78882,8.18872,0.0117688,0.00721263,-0.00630209,0.0161919,0.00278954,-0.611964,0.00999539,0.0314257,1826,1548,9.78888,-8.18877
609,-524,9.95386,7.71948,0.0140677,0.00863337,-0.00730279,0.0191424,0.00355862,-0.607299,0.0117563,0.0462399,1833,1548,9.9538,-7.71954
616,-524,10.0931,7.26746,0,0,0,0,0,0,0,-1,1840,1548,10.0931,-7.26749
623,-524,9.38452,5.15356,0,0,0,0,0,0,0,-1,1847,1548,9.38456,-5.15359
630,-524,11.0541,3.57434,0,0,0,0,0,0,0,-1,1854,1548,11.0541,-3.57438
637,-524,11.6067,3.20728,0,0,0,0,0,0,0,-1,1861,1548,11.6067,-3.20724
644,-524,12.2134,0.727173,0,0,0,0,0,0,0,-1,1868,1548,12.2134,-0.727222
651,-524,0,0,0,0,0,0,0,0,0,-1,1875,1548,0,0
658,-524,0,0,0,0,0,0,0,0,0,-1,1882,1548,0,0
665,-524,0,0,0,0,0,0,0,0,0,-1,1889,1548,0,0
672,-524,0,0,0,0,0,0,0,0,0,-1,1896,1548,0,0
679,-524,0,0,0,0,0,0,0,0,0,-1,1903,1548,0,0
686,-524,0,0,0,0,0,0,0,0,0,-1,1910,1548,0,0
693,-524,0,0,0,0,0,0,0,0,0,-1,1917,1548,0,0
700,-524,0,0,0,0,0,0,0,0,0,-1,1924,1548,0,0
707,-524,0,0,0,0,0,0,0,0,0,-1,1931,1548,0,0
714,-524,0,0,0,0,0,0,0,0,0,-1,1938,1548,0,0
721,-524,0,0,0,0,0,0,0,0,0,-1,1945,1548,0,0
728,-524,0,0,0,0,0,0,0,0,0,-1,1952,1548,0,0
735,-524,0,0,0,0,0,0,0,0,0,-1,1959,1548,0,0
742,-524,0,0,0,0,0,0,0,0,0,-1,1966,1548,0,0
749,-524,0,0,0,0,0,0,0,0,0,-1,1973,1548,0,0
756,-524,0,0,0,0,0,0,0,0,0,-1,1980,1548,0,0
763,-524,0,0,0,0,0,0,0,0,0,-1,1987,1548,0,0
770,-524,0,0,0,0,0,0,0,0,0,-1,1994,1548,0,0
777,-524,0,0,0,0,0,0,0,0,0,-1,2001,1548,0,0
784,-524,0,0,0,0,0,0,0,0,0,-1,2008,1548,0,0
791,-524,0,0,0,0,0,0,0,0,0,-1,2015,1548,0,0
798,-524,0,0,0,0,0,0,0,0,0,-1,2022,1548,0,0
805,-524,0,0,0,0,0,0,0,0,0,-1,2029,1548,0,0
812,-524,0,0,0,0,0,0,0,0,0,-1,2036,1548,0,0
-700,-531,0,0,0,0,0,0,0,0,0,-1,524,1555,0,0
-693,-531,0,0,0,0,0,0,0,0,0,-1,531,1555,0,0
-686,-531,0,0,0,0,0,0,0,0,0,-1,538,1555,0,0
-679,-531,0,0,0,0,0,0,0,0,0,-1,545,1555,0,0
-672,-531,0,0,0,0,0,0,0,0,0,-1,552,1555,0,0
-665,-531,0,0,0,0,0,0,0,0,0,-1,559,1555,0,0
-658,-531,0,0,0,0,0,0,0,0,0,-1,566,1555,0,0
-651,-531,0,0,0,0,0,0,0,0,0,-1,573,1555,0,0
-644,-531,0,0,0,0,0,0,0,0,0,-1,580,1555,0,0
-637,-531,0,0,0,0,0,0,0,0,0,-1,587,1555,0,0
-630,-531,0,0,0,0,0,0,0,0,0,-1,594,1555,0,0
-623,-531,0,0,0,0,0,0,0,0,0,-1,601,1555,0,0
-616,-531,0,0,0,0,0,0,0,0,0,-1,608,1555,0,0
-609,-531,0,0,0,0,0,0,0,0,0,-1,615,1555,0,0
-602,-531,0,0,0,0,0,0,0,0,0,-1,622,1555,0,0
-595,-531,0,0,0,0,0,0,0,0,0,-1,629,1555,0,0
-588,-531,0,0,0,0,0,0,0,0,0,-1,636,1555,0,0
-581,-531,0,0,0,0,0,0,0,0,0,-1,643,1555,0,0
-574,-531,0,0,0,0,0,0,0,0,0,-1,650,1555,0,0
-567,-531,0,0,0,0,0,0,0,0,0,-1,657,1555,0,0
-560,-531,0,0,0,0,0,0,0,0,0,-1,664,1555,0,0
-553,-531,0,0,0,0,0,0,0,0,0,-1,671,1555,0,0
-546,-531,0,0,0,0,0,0,0,0,0,-1,678,1555,0,0
-539,-531,0,0,0,0,0,0,0,0,0,-1,685,1555,0,0
-532,-531,0,0,0,0,0,0,0,0,0,-1,692,1555,0,0
-525,-531,0,0,0,0,0,0,0,0,0,-1,699,1555,0,0
-518,-531,-1.63983,4.03821,0,0,0,0,0,0,0,-1,706,1555,-1.63982,-4.03821
-511,-531,-2.9682,8.07483,0,0,0,0,0,0,0,-1,713,1555,-2.9682,-8.07479
-504,-531,-2.95978,0.557861,0,0,0,0,0,0,0,-1,720,1555,-2.95978,-0.557917
-497,-531,-0.323975,5.64099,0,0,0,0,0,0,0,-1,727,1555,-0.323996,-5.64105
-490,-531,-0.225281,5.8949,-0.00276334,0.102831,0.0316233,0.111577,-0.0115095,1.30097,0.0785028,0.048351,734,1555,-0.225272,-5.89488
-483,-531,-0.25769,6.04785,-0.000779115,0.091079,0.0286287,0.0992709,-0.00897101,1.2921,0.0693646,0.0469117,741,1555,-0.257711,-6.04784
-476,-531,-0.240906,6.51196,0,0,0,0,0,0,0,-1,748,1555,-0.240891,-6.51199
-469,-531,0.37384,6.04834,0.00055804,0.0656211,0.0217418,0.0722177,-0.00603849,1.27622,0.050279,0.0417812,755,1555,0.373846,-6.04836
-462,-531,0.233215,6.65527,0.000709294,0.0532715,0.018223,0.0589713,-0.00499044,1.26766,0.0410788,0.0380544,762,1555,0.233196,-6.65524
-455,-531,-0.00372314,7.33765,0.000766156,0.0419464,0.0148905,0.0467666,-0.00405398,1.25774,0.0326131,0.027813,769,1555,-0.0037017,-7.33766
-448,-531,0.0487671,7.50537,0.000802343,0.031775,0.0118011,0.035759,-0.00318165,1.24522,0.0249676,0.0129312,776,1555,0.048793,-7.50543
-441,-531,0.00500488,7.73694,0.000977356,0.0230559,0.00900873,0.0262652,-0.00223198,1.22857,0.0182996,0.0108973,783,1555,0.00498675,-7.73689
-434,-531,0.0010376,7.98755,0.00147855,0.0159734,0.00663112,0.0185493,-0.00109731,1.20029,0.0127477,0.0117411,790,1555,0.00100916,-7.98753
-427,-531,0.003479,8.23132,0.00185584,0.0105966,0.00487367,0.0127724,-0.00031999,1.1509,0.00862359,0.0134475,797,1555,0.00347248,-8.23135
-420,-531,0.00750732,8.4696,0.0022541,0.00598597,0.00327517,0.00788944,0.000350623,1.04433,0.00514674,0.0116592,804,1555,0.00749289,-8.46962
-413,-531,0.0115356,8.70068,0.00287836,0.00235591,0.00200756,0.00464162,0.00059265,0.720702,0.002917,0.0101828,811,1555,0.011511,-8.70072
-406,-531,0.00878906,8.94653,0.00353059,7.62751e-05,0.000915654,0.0037583,-0.000151432,0.243738,0.00255751,0.011434,818,1555,0.00881167,-8.94649
-399,-531,0.0153809,9.19482,0.00446461,-0.00112686,0.000213203,0.00447273,-0.00113498,0.0380564,0.00342344,0.0129095,825,1555,0.0153538,-9.1948
-392,-531,0.0181885,9.42761,0.00528168,-0.0020212,-0.000247142,0.00529003,-0.00202955,-0.0337902,0.00436348,0.0163935,832,1555,0.0182067,-9.42763
-385,-531,0.0151367,9.65649,0.00594196,-0.00302166,-0.000526774,0.00597282,-0.00305251,-0.0584996,0.00530092,0.0139351,839,1555,0.0151279,-9.65654
-378,-531,0.00714111,9.87292,0.00631471,-0.00442022,-0.000783784,0.00637164,-0.00447715,-0.0725001,0.0062953,0.010999,846,1555,0.00716992,-9.87287
-371,-531,0.0293579,10.1599,0.00685782,-0.00582022,-0.00109191,0.00695117,-0.00591358,-0.0852893,0.00743552,0.0169045,853,1555,0.0293681,-10.1599
-364,-531,0.0932007,10.3782,0.00755994,-0.00762902,-0.00121848,0.00765707,-0.00772615,-0.0795432,0.00888153,0.0366417,860,1555,0.093213,-10.3782
-357,-531,-0.238647,10.3767,0.00816077,-0.00975718,-0.00136561,0.00826425,-0.00986067,-0.0756326,0.0104779,0.0420913,867,1555,-0.238655,-10.3767
-350,-531,-0.436401,10.4097,0,0,0,0,0,0,0,-1,874,1555,-0.436374,-10.4097
-343,-531,0.442566,10.7882,0,0,0,0,0,0,0,-1,881,1555,0.442581,-10.7882
-336,-531,0.630554,10.6873,0,0,0,0,0,0,0,-1,888,1555,0.630576,-10.6873
-329,-531,0.415466,10.6831,0,0,0,0,0,0,0,-1,895,1555,0.415467,-10.6832
-322,-531,0.00634766,10.6627,0,0,0,0,0,0,0,-1,902,1555,0.00636581,-10.6628
-315,-531,-0.598206,11.3984,0,0,0,0,0,0,0,-1,909,1555,-0.598178,-11.3985
-308,-531,-1.40149,9.85437,0,0,0,0,0,0,0,-1,916,1555,-1.40151,-9.85436
-301,-531,-1.27863,7.11975,0,0,0,0,0,0,0,-1,923,1555,-1.27864,-7.11973
-294,-531,-1.3244,8.1825,0,0,0,0,0,0,0,-1,930,1555,-1.3244,-8.18251
-287,-531,-1.41095,9.08215,0,0,0,0,0,0,0,-1,937,1555,-1.41095,-9.08216
-280,-531,-1.77509,9.93176,0,0,0,0,0,0,0,-1,944,1555,-1.77506,-9.93171
-273,-531,-5.5531,14.6454,0,0,0,0,0,0,0,-1,951,1555,-5.5531,-14.6454
-266,-531,-6.7038,16.0303,0,0,0,0,0,0,0,-1,958,1555,-6.7038,-16.0303
-259,-531,0,0,0,0,0,0,0,0,0,-1,965,1555,0,0
-252,-531,0,0,0,0,0,0,0,0,0,-1,972,1555,0,0
-245,-531,0,0,0,0,0,0,0,0,0,-1,979,1555,0,0
-238,-531,0,0,0,0,0,0,0,0,0,-1,986,1555,0,0
-231,-531,0,0,0,0,0,0,0,0,0,-1,993,1555,0,0
-224,-531,0,0,0,0,0,0,0,0,0,-1,1000,1555,0,0
-217,-531,0,0,0,0,0,0,0,0,0,-1,1007,1555,0,0
-210,-531,0,0,0,0,0,0,0,0,0,-1,1014,1555,0,0
-203,-531,0,0,0,0,0,0,0,0,0,-1,1021,1555,0,0
-196,-531,0,0,0,0,0,0,0,0,0,-1,1028,1555,0,0
-189,-531,0,0,0,0,0,0,0,0,0,-1,1035,1555,0,0
-182,-531,0,0,0,0,0,0,0,0,0,-1,1042,1555,0,0
-175,-531,0,0,0,0,0,0,0,0,0,-1,1049,1555,0,0
-168,-531,0,0,0,0,0,0,0,0,0,-1,1056,1555,0,0
-161,-531,0,0,0,0,0,0,0,0,0,-1,1063,1555,0,0
-154,-531,0,0,0,0,0,0,0,0,0,-1,1070,1555,0,0
-147,-531,0,0,0,0,0,0,0,0,0,-1,1077,1555,0,0
-140,-531,0,0,0,0,0,0,0,0,0,-1,1084,1555,0,0
-133,-531,0,0,0,0,0,0,0,0,0,-1,1091,1555,0,0
-126,-531,0,0,0,0,0,0,0,0,0,-1,1098,1555,0,0
-119,-531,0,0,0,0,0,0,0,0,0,-1,1105,1555,0,0
-112,-531,0,0,0,0,0,0,0,0,0,-1,1112,1555,0,0
-105,-531,0,0,0,0,0,0,0,0,0,-1,1119,1555,0,0
-98,-531,0,0,0,0,0,0,0,0,0,-1,1126,1555,0,0
-91,-531,0,0,0,0,0,0,0,0,0,-1,1133,1555,0,0
-84,-531,0,0,0,0,0,0,0,0,0,-1,1140,1555,0,0
-77,-531,0,0,0,0,0,0,0,0,0,-1,1147,1555,0,0
-70,-531,0,0,0,0,0,0,0,0,0,-1,1154,1555,0,0
-63,-531,0,0,0,0,0,0,0,0,0,-1,1161,1555,0,0
-56,-531,0,0,0,0,0,0,0,0,0,-1,1168,1555,0,0
-49,-531,0,0,0,0,0,0,0,0,0,-1,1175,1555,0,0
-42,-531,0,0,0,0,0,0,0,0,0,-1,1182,1555,0,0
-35,-531,0,0,0,0,0,0,0,0,0,-1,1189,1555,0,0
-28,-531,0,0,0,0,0,0,0,0,0,-1,1196,1555,0,0
-21,-531,0,0,0,0,0,0,0,0,0,-1,1203,1555,0,0
-14,-531,0,0,0,0,0,0,0,0,0,-1,1210,1555,0,0
-7,-531,0,0,0,0,0,0,0,0,0,-1,1217,1555,0,0
0,-531,0,0,0,0,0,0,0,0,0,-1,1224,1555,0,0
7,-531,0,0,0,0,0,0,0,0,0,-1,1231,1555,0,0
14,-531,0,0,0,0,0,0,0,0,0,-1,1238,1555,0,0
21,-531,0,0,0,0,0,0,0,0,0,-1,1245,1555,0,0
28,-531,0,0,0,0,0,0,0,0,0,-1,1252,1555,0,0
35,-531,0,0,0,0,0,0,0,0,0,-1,1259,1555,0,0
42,-531,0,0,0,0,0,0,0,0,0,-1,1266,1555,0,0
49,-531,0,0,0,0,0,0,0,0,0,-1,1273,1555,0,0
56,-531,0,0,0,0,0,0,0,0,0,-1,1280,1555,0,0
63,-531,0,0,0,0,0,0,0,0,0,-1,1287,1555,0,0
70,-531,0,0,0,0,0,0,0,0,0,-1,1294,1555,0,0
77,-531,0,0,0,0,0,0,0,0,0,-1,1301,1555,0,0
84,-531,0,0,0,0,0,0,0,0,0,-1,1308,1555,0,0
91,-531,0,0,0,0,0,0,0,0,0,-1,1315,1555,0,0
98,-531,0,0,0,0,0,0,0,0,0,-1,1322,1555,0,0
105,-531,0,0,0,0,0,0,0,0,0,-1,1329,1555,0,0
112,-531,0,0,0,0,0,0,0,0,0,-1,1336,1555,0,0
119,-531,0,0,0,0,0,0,0,0,0,-1,1343,1555,0,0
126,-531,0,0,0,0,0,0,0,0,0,-1,1350,1555,0,0
133,-531,0,0,0,0,0,0,0,0,0,-1,1357,1555,0,0
140,-531,0,0,0,0,0,0,0,0,0,-1,1364,1555,0,0
147,-531,0,0,0,0,0,0,0,0,0,-1,1371,1555,0,0
154,-531,0,0,0,0,0,0,0,0,0,-1,1378,1555,0,0
161,-531,0,0,0,0,0,0,0,0,0,-1,1385,1555,0,0
168,-531,0,0,0,0,0,0,0,0,0,-1,1392,1555,0,0
175,-531,0,0,0,0,0,0,0,0,0,-1,1399,1555,0,0
182,-531,0,0,0,0,0,0,0,0,0,-1,1406,1555,0,0
189,-531,0,0,0,0,0,0,0,0,0,-1,1413,1555,0,0
196,-531,0,0,0,0,0,0,0,0,0,-1,1420,1555,0,0
203,-531,0,0,0,0,0,0,0,0,0,-1,1427,1555,0,0
210,-531,0,0,0,0,0,0,0,0,0,-1,1434,1555,0,0
217,-531,0,0,0,0,0,0,0,0,0,-1,1441,1555,0,0
224,-531,0,0,0,0,0,0,0,0,0,-1,1448,1555,0,0
231,-531,0,0,0,0,0,0,0,0,0,-1,1455,1555,0,0
238,-531,0,0,0,0,0,0,0,0,0,-1,1462,1555,0,0
245,-531,0,0,0,0,0,0,0,0,0,-1,1469,1555,0,0
252,-531,0,0,0,0,0,0,0,0,0,-1,1476,1555,0,0
259,-531,0,0,0,0,0,0,0,0,0,-1,1483,1555,0,0
266,-531,0,0,0,0,0,0,0,0,0,-1,1490,1555,0,0
273,-531,0,0,0,0,0,0,0,0,0,-1,1497,1555,0,0
280,-531,0,0,0,0,0,0,0,0,0,-1,1504,1555,0,0
287,-531,0,0,0,0,0,0,0,0,0,-1,1511,1555,0,0
294,-531,0,0,0,0,0,0,0,0,0,-1,1518,1555,0,0
301,-531,0,0,0,0,0,0,0,0,0,-1,1525,1555,0,0
308,-531,0,0,0,0,0,0,0,0,0,-1,1532,1555,0,0
315,-531,0,0,0,0,0,0,0,0,0,-1,1539,1555,0,0
322,-531,0,0,0,0,0,0,0,0,0,-1,1546,1555,0,0
329,-531,0,0,0,0,0,0,0,0,0,-1,1553,1555,0,0
336,-531,0,0,0,0,0,0,0,0,0,-1,1560,1555,0,0
343,-531,0,0,0,0,0,0,0,0,0,-1,1567,1555,0,0
350,-531,0,0,0,0,0,0,0,0,0,-1,1574,1555,0,0
357,-531,0,0,0,0,0,0,0,0,0,-1,1581,1555,0,0
364,-531,0,0,0,0,0,0,0,0,0,-1,1588,1555,0,0
371,-531,0,0,0,0,0,0,0,0,0,-1,1595,1555,0,0
378,-531,0,0,0,0,0,0,0,0,0,-1,1602,1555,0,0
385,-531,3.13403,1.88721,0,0,0,0,0,0,0,-1,1609,1555,3.13401,-1.88726
392,-531,9.34375,8.05029,0,0,0,0,0,0,0,-1,1616,1555,9.34381,-8.05025
399,-531,8.26306,5.29602,0,0,0,0,0,0,0,-1,1623,1555,8.26302,-5.29607
406,-531,8.26147,5.42712,0,0,0,0,0,0,0,-1,1630,1555,8.26145,-5.42716
413,-531,8.20618,5.75012,0,0,0,0,0,0,0,-1,1637,1555,8.20619,-5.75017
420,-531,7.64868,7.09558,0,0,0,0,0,0,0,-1,1644,1555,7.64867,-7.09564
427,-531,9.93054,11.8412,0,0,0,0,0,0,0,-1,1651,1555,9.93059,-11.8412
434,-531,10.244,11.7072,0,0,0,0,0,0,0,-1,1658,1555,10.244,-11.7071
441,-531,9.03882,11.1136,0,0,0,0,0,0,0,-1,1665,1555,9.03881,-11.1137
448,-531,13.5089,5.90344,0,0,0,0,0,0,0,-1,1672,1555,13.5089,-5.90346
455,-531,12.5403,6.53625,0,0,0,0,0,0,0,-1,1679,1555,12.5403,-6.53629
462,-531,11.6357,6.271,0,0,0,0,0,0,0,-1,1686,1555,11.6358,-6.27095
469,-531,11.1533,8.24194,0,0,0,0,0,0,0,-1,1693,1555,11.1534,-8.24189
476,-531,10.3447,10.7009,0,0,0,0,0,0,0,-1,1700,1555,10.3447,-10.7009
483,-531,9.96191,10.8271,0.0010009,-0.0535472,0.0449984,0.0263456,-0.0788919,0.512948,0.0632332,0.048692,1707,1555,9.9619,-10.8272
490,-531,9.64697,11.3713,0.000207086,-0.045183,0.0378421,0.0216379,-0.0666138,0.515288,0.0531119,0.0341792,1714,1555,9.64701,-11.3714
497,-531,9.45557,11.5045,-0.00054469,-0.0370588,0.0310518,0.0172196,-0.054823,0.519641,0.0434414,0.0171727,1721,1555,9.45551,-11.5045
504,-531,9.44019,11.3595,-0.000878232,-0.0301335,0.0247966,0.0132837,-0.0442954,0.518917,0.0348135,0.0111235,1728,1555,9.44023,-11.3595
511,-531,9.44287,11.1666,-0.00122681,-0.0231266,0.0193398,0.0100478,-0.0344012,0.527806,0.026916,0.0125057,1735,1555,9.44291,-11.1666
518,-531,9.45874,10.9547,-0.00154408,-0.016618,0.0145233,0.00728151,-0.0254436,0.54605,0.0198401,0.0141807,1742,1555,9.45872,-10.9547
525,-531,9.47009,10.7166,-0.0015745,-0.011345,0.0103396,0.00497589,-0.0178954,0.564704,0.0138892,0.0133916,1749,1555,9.47009,-10.7165
532,-531,9.49121,10.4819,-0.00116744,-0.00716908,0.00685011,0.00331031,-0.0116468,0.578954,0.0090716,0.0101297,1756,1555,9.49118,-10.4819
539,-531,9.48438,10.2715,-0.000814812,-0.00359628,0.00390997,0.00194439,-0.00635548,0.614531,0.00501245,0.0119286,1763,1555,9.48436,-10.2715
546,-531,9.45886,10.0636,-0.000113823,-0.00119262,0.00173683,0.00116543,-0.00247188,0.634837,0.00214468,0.0152619,1770,1555,9.45884,-10.0636
553,-531,9.49292,9.8949,0.00105744,0.000393569,6.74961e-05,0.00106423,0.000386776,0.100303,0.000622028,0.0278899,1777,1555,9.49293,-9.89492
560,-531,9.50488,9.69885,0.00253562,0.00155147,-0.00112208,0.00326879,0.000818307,-0.578757,0.00196409,0.0301993,1784,1555,9.50484,-9.69882
567,-531,9.37952,9.48035,0.0042328,0.00261455,-0.00226921,0.00583283,0.00101452,-0.614142,0.00359837,0.0178174,1791,1555,9.37951,-9.48035
574,-531,9.44531,9.2323,0.00600658,0.00354885,-0.00332577,0.00832325,0.00123218,-0.608429,0.00518713,0.012117,1798,1555,9.44527,-9.23234
581,-531,9.47571,8.99512,0.00787986,0.00471153,-0.00442872,0.0109992,0.00159217,-0.613638,0.00686392,0.011661,1805,1555,9.47567,-8.99513
588,-531,9.49121,8.73083,0.00998206,0.00587642,-0.00553007,0.013828,0.00203045,-0.607676,0.00862194,0.0165149,1812,1555,9.49127,-8.73085
595,-531,9.5116,8.44836,0.0125909,0.00750649,-0.00710013,0.0175902,0.00250716,-0.613484,0.0109869,0.033494,1819,1555,9.51154,-8.44831
602,-531,9.86389,8.10193,0.0156279,0.00960928,-0.00881599,0.0219341,0.00330314,-0.620925,0.0136555,0.0484549,1826,1555,9.86389,-8.1019
609,-531,9.75562,7.46021,0,0,0,0,0,0,0,-1,1833,1555,9.75558,-7.46023
616,-531,10.5723,7.17859,0,0,0,0,0,0,0,-1,1840,1555,10.5723,-7.17855
623,-531,10.0674,5.08984,0,0,0,0,0,0,0,-1,1847,1555,10.0674,-5.08981
630,-531,11.672,3.18909,0,0,0,0,0,0,0,-1,1854,1555,11.672,-3.18904
637,-531,13.2546,1.38965,0,0,0,0,0,0,0,-1,1861,1555,13.2547,-1.3896
644,-531,0,0,0,0,0,0,0,0,0,-1,1868,1555,0,0
651,-531,0,0,0,0,0,0,0,0,0,-1,1875,1555,0,0
658,-531,0,0,0,0,0,0,0,0,0,-1,1882,1555,0,0
665,-531,0,0,0,0,0,0,0,0,0,-1,1889,1555,0,0
672,-531,0,0,0,0,0,0,0,0,0,-1,1896,1555,0,0
679,-531,0,0,0,0,0,0,0,0,0,-1,1903,1555,0,0
686,-531,0,0,0,0,0,0,0,0,0,-1,1910,1555,0,0
693,-531,0,0,0,0,0,0,0,0,0,-1,1917,1555,0,0
700,-531,0,0,0,0,0,0,0,0,0,-1,1924,1555,0,0
707,-531,0,0,0,0,0,0,0,0,0,-1,1931,1555,0,0
714,-531,0,0,0,0,0,0,0,0,0,-1,1938,1555,0,0
721,-531,0,0,0,0,0,0,0,0,0,-1,1945,1555,0,0
728,-531,0,0,0,0,0,0,0,0,0,-1,1952,1555,0,0
735,-531,0,0,0,0,0,0,0,0,0,-1,1959,1555,0,0
742,-531,0,0,0,0,0,0,0,0,0,-1,1966,1555,0,0
749,-531,0,0,0,0,0,0,0,0,0,-1,1973,1555,0,0
756,-531,0,0,0,0,0,0,0,0,0,-1,1980,1555,0,0
763,-531,0,0,0,0,0,0,0,0,0,-1,1987,1555,0,0
770,-531,0,0,0,0,0,0,0,0,0,-1,1994,1555,0,0
777,-531,0,0,0,0,0,0,0,0,0,-1,2001,1555,0,0
784,-531,0,0,0,0,0,0,0,0,0,-1,2008,1555,0,0
791,-531,0,0,0,0,0,0,0,0,0,-1,2015,1555,0,0
798,-531,0,0,0,0,0,0,0,0,0,-1,2022,1555,0,0
805,-531,0,0,0,0,0,0,0,0,0,-1,2029,1555,0,0
812,-531,0,0,0,0,0,0,0,0,0,-1,2036,1555,0,0
-700,-538,0,0,0,0,0,0,0,0,0,-1,524,1562,0,0
-693,-538,0,0,0,0,0,0,0,0,0,-1,531,1562,0,0
-686,-538,0,0,0,0,0,0,0,0,0,-1,538,1562,0,0
-679,-538,0,0,0,0,0,0,0,0,0,-1,545,1562,0,0
-672,-538,0,0,0,0,0,0,0,0,0,-1,552,1562,0,0
-665,-538,0,0,0,0,0,0,0,0,0,-1,559,1562,0,0
-658,-538,0,0,0,0,0,0,0,0,0,-1,566,1562,0,0
-651,-538,0,0,0,0,0,0,0,0,0,-1,573,1562,0,0
-644,-538,0,0,0,0,0,0,0,0,0,-1,580,1562,0,0
-637,-538,0,0,0,0,0,0,0,0,0,-1,587,1562,0,0
-630,-538,0,0,0,0,0,0,0,0,0,-1,594,1562,0,0
-623,-538,0,0,0,0,0,0,0,0,0,-1,601,1562,0,0
-616,-538,0,0,0,0,0,0,0,0,0,-1,608,1562,0,0
-609,-538,0,0,0,0,0,0,0,0,0,-1,615,1562,0,0
-602,-538,0,0,0,0,0,0,0,0,0,-1,622,1562,0,0
-595,-538,0,0,0,0,0,0,0,0,0,-1,629,1562,0,0
-588,-538,0,0,0,0,0,0,0,0,0,-1,636,1562,0,0
-581,-538,0,0,0,0,0,0,0,0,0,-1,643,1562,0,0
-574,-538,0,0,0,0,0,0,0,0,0,-1,650,1562,0,0
-567,-538,0,0,0,0,0,0,0,0,0,-1,657,1562,0,0
-560,-538,0,0,0,0,0,0,0,0,0,-1,664,1562,0,0
-553,-538,0,0,0,0,0,0,0,0,0,-1,671,1562,0,0
-546,-538,0,0,0,0,0,0,0,0,0,-1,678,1562,0,0
-539,-538,0,0,0,0,0,0,0,0,0,-1,685,1562,0,0
-532,-538,0,0,0,0,0,0,0,0,0,-1,692,1562,0,0
-525,-538,0,0,0,0,0,0,0,0,0,-1,699,1562,0,0
-518,-538,0,0,0,0,0,0,0,0,0,-1,706,1562,0,0
-511,-538,-2.6582,-1.54321,0,0,0,0,0,0,0,-1,713,1562,-2.65821,1.54327
-504,-538,-2.66455,-0.71167,0,0,0,0,0,0,0,-1,720,1562,-2.66456,0.711667
-497,-538,-0.763855,6.77747,0,0,0,0,0,0,0,-1,727,1562,-0.76385,-6.77743
-490,-538,-0.510742,6.1095,0,0,0,0,0,0,0,-1,734,1562,-0.51073,-6.10948
-483,-538,-0.483521,5.9342,0,0,0,0,0,0,0,-1,741,1562,-0.483543,-5.93422
-476,-538,0.837585,4.57141,0,0,0,0,0,0,0,-1,748,1562,0.837604,-4.57146
-469,-538,0.722839,5.35376,0.00561814,0.0911686,0.0302406,0.100779,-0.00399189,1.2631,0.0685552,0.044515,755,1562,0.722812,-5.35382
-462,-538,0.604004,6.22485,0.00500711,0.074432,0.0254467,0.0827601,-0.00332101,1.25451,0.0563131,0.0419859,762,1562,0.604012,-6.22485
-455,-538,0.268433,7.1377,0.00423954,0.0588833,0.0208481,0.065929,-0.00280614,1.24489,0.0449173,0.0370056,769,1562,0.268456,-7.13765
-448,-538,0.291687,7.5426,0.00337202,0.0448153,0.0164554,0.0505543,-0.00236701,1.23522,0.0345189,0.0153835,776,1562,0.291712,-7.54259
-441,-538,0.264648,7.79285,0.002753,0.0327634,0.0125309,0.0373076,-0.00179124,1.2229,0.0254898,0.0145823,783,1562,0.26465,-7.79285
-434,-538,0.245789,7.99426,0.00269867,0.0228265,0.00917406,0.0263804,-0.000855265,1.20121,0.0178789,0.011706,790,1562,0.24578,-7.99422
-427,-538,0.241516,8.24951,0.00241076,0.0154341,0.00666957,0.0182437,-0.000398781,1.17211,0.0122975,0.0133218,797,1562,0.241494,-8.24954
-420,-538,0.228455,8.4679,0.00213668,0.00894778,0.00444648,0.011143,-5.85695e-05,1.1122,0.00744829,0.0171007,804,1562,0.228459,-8.46786
-413,-538,0.218323,8.70605,0.00224778,0.00411047,0.00269248,0.00602813,0.000330113,0.951909,0.00391336,0.0172232,811,1562,0.218335,-8.70609
-406,-538,0.237427,8.93835,0.00253983,0.00110837,0.00129076,0.00330002,0.000348186,0.532251,0.00209362,0.0138229,818,1562,0.237426,-8.93835
-399,-538,0.256958,9.18054,0.00326953,-0.000257911,0.000465237,0.00332986,-0.00031824,0.128953,0.00233323,0.0130633,825,1562,0.256985,-9.18052
-392,-538,0.262146,9.42395,0.00380782,-0.00120027,-5.70821e-05,0.00380847,-0.00120092,-0.011396,0.00301995,0.0147943,832,1562,0.262142,-9.42393
-385,-538,0.255737,9.66992,0.00420129,-0.00214603,-0.000333097,0.00421873,-0.00216346,-0.052287,0.00374791,0.0124533,839,1562,0.255711,-9.66994
-378,-538,0.253601,9.8949,0.00437753,-0.00338531,-0.000535167,0.00441425,-0.00342203,-0.0685076,0.00453635,0.00977026,846,1562,0.253604,-9.89495
-371,-538,0.237549,10.1223,0.00471862,-0.00458021,-0.000781517,0.00478384,-0.00464544,-0.0832663,0.00544419,0.0108255,853,1562,0.237572,-10.1223
-364,-538,0.266541,10.3748,0.00523093,-0.00611323,-0.000875243,0.00529806,-0.00618036,-0.0765499,0.00663359,0.0115364,860,1562,0.266534,-10.3748
-357,-538,0.279541,10.5768,0.00572033,-0.007902,-0.00100448,0.005794,-0.00797567,-0.0732102,0.00798312,0.0210382,867,1562,0.279553,-10.5768
-350,-538,0.266174,10.6483,0.00528094,-0.0101223,-0.000303314,0.00528691,-0.0101282,-0.0196814,0.00904506,0.0334426,874,1562,0.266199,-10.6483
-343,-538,0.502563,10.8344,0.00405604,-0.012695,0.00034192,0.00406302,-0.012702,0.0204005,0.0100986,0.0439898,881,1562,0.502551,-10.8344
-336,-538,0.63031,10.9109,0.00237017,-0.0148543,0.0010023,0.00242829,-0.0149124,0.0579297,0.0108421,0.0452032,888,1562,0.630292,-10.9109
-329,-538,0.361633,11.0304,-0.000294119,-0.0181579,0.00238062,1.76905e-05,-0.0184697,0.130237,0.0123191,0.0440612,895,1562,0.361657,-11.0303
-322,-538,0.119324,11.2899,0,0,0,0,0,0,0,-1,902,1562,0.119295,-11.2899
-315,-538,-0.19165,11.5438,0,0,0,0,0,0,0,-1,909,1562,-0.19165,-11.5438
-308,-538,-0.747375,14.4913,0,0,0,0,0,0,0,-1,916,1562,-0.747373,-14.4914
-301,-538,0.511047,11.7498,0,0,0,0,0,0,0,-1,923,1562,0.511036,-11.7498
-294,-538,0.380737,12.6885,0,0,0,0,0,0,0,-1,930,1562,0.380768,-12.6885
-287,-538,0.768677,11.1807,0,0,0,0,0,0,0,-1,937,1562,0.768704,-11.1807
-280,-538,-4.0293,11.8911,0,0,0,0,0,0,0,-1,944,1562,-4.02932,-11.8911
-273,-538,-4.85803,13.4651,0,0,0,0,0,0,0,-1,951,1562,-4.85802,-13.4651
-266,-538,-5.69073,14.9116,0,0,0,0,0,0,0,-1,958,1562,-5.69073,-14.9116
-259,-538,-6.21277,16.2444,0,0,0,0,0,0,0,-1,965,1562,-6.21275,-16.2444
-252,-538,0,0,0,0,0,0,0,0,0,-1,972,1562,0,0
-245,-538,0,0,0,0,0,0,0,0,0,-1,979,1562,0,0
-238,-538,0,0,0,0,0,0,0,0,0,-1,986,1562,0,0
-231,-538,0,0,0,0,0,0,0,0,0,-1,993,1562,0,0
-224,-538,0,0,0,0,0,0,0,0,0,-1,1000,1562,0,0
-217,-538,0,0,0,0,0,0,0,0,0,-1,1007,1562,0,0
-210,-538,0,0,0,0,0,0,0,0,0,-1,1014,1562,0,0
-203,-538,0,0,0,0,0,0,0,0,0,-1,1021,1562,0,0
-196,-538,0,0,0,0,0,0,0,0,0,-1,1028,1562,0,0
-189,-538,0,0,0,0,0,0,0,0,0,-1,1035,1562,0,0
-182,-538,0,0,0,0,0,0,0,0,0,-1,1042,1562,0,0
-175,-538,0,0,0,0,0,0,0,0,0,-1,1049,1562,0,0
-168,-538,0,0,0,0,0,0,0,0,0,-1,1056,1562,0,0
-161,-538,0,0,0,0,0,0,0,0,0,-1,1063,1562,0,0
-154,-538,0,0,0,0,0,0,0,0,0,-1,1070,1562,0,0
-147,-538,0,0,0,0,0,0,0,0,0,-1,1077,1562,0,0
-140,-538,0,0,0,0,0,0,0,0,0,-1,1084,1562,0,0
-133,-538,0,0,0,0,0,0,0,0,0,-1,1091,1562,0,0
-126,-538,0,0,0,0,0,0,0,0,0,-1,1098,1562,0,0
-119,-538,0,0,0,0,0,0,0,0,0,-1,1105,1562,0,0
-112,-538,0,0,0,0,0,0,0,0,0,-1,1112,1562,0,0
-105,-538,0,0,0,0,0,0,0,0,0,-1,1119,1562,0,0
-98,-538,0,0,0,0,0,0,0,0,0,-1,1126,1562,0,0
-91,-538,0,0,0,0,0,0,0,0,0,-1,1133,1562,0,0
-84,-538,0,0,0,0,0,0,0,0,0,-1,1140,1562,0,0
-77,-538,0,0,0,0,0,0,0,0,0,-1,1147,1562,0,0
-70,-538,0,0,0,0,0,0,0,0,0,-1,1154,1562,0,0
-63,-538,0,0,0,0,0,0,0,0,0,-1,1161,1562,0,0
-56,-538,0,0,0,0,0,0,0,0,0,-1,1168,1562,0,0
-49,-538,0,0,0,0,0,0,0,0,0,-1,1175,1562,0,0
-42,-538,0,0,0,0,0,0,0,0,0,-1,1182,1562,0,0
-35,-538,0,0,0,0,0,0,0,0,0,-1,1189,1562,0,0
-28,-538,0,0,0,0,0,0,0,0,0,-1,1196,1562,0,0
-21,-538,0,0,0,0,0,0,0,0,0,-1,1203,1562,0,0
-14,-538,0,0,0,0,0,0,0,0,0,-1,1210,1562,0,0
-7,-538,0,0,0,0,0,0,0,0,0,-1,1217,1562,0,0
0,-538,0,0,0,0,0,0,0,0,0,-1,1224,1562,0,0
7,-538,0,0,0,0,0,0,0,0,0,-1,1231,1562,0,0
14,-538,0,0,0,0,0,0,0,0,0,-1,1238,1562,0,0
21,-538,0,0,0,0,0,0,0,0,0,-1,1245,1562,0,0
28,-538,0,0,0,0,0,0,0,0,0,-1,1252,1562,0,0
35,-538,0,0,0,0,0,0,0,0,0,-1,1259,1562,0,0
42,-538,0,0,0,0,0,0,0,0,0,-1,1266,1562,0,0
49,-538,0,0,0,0,0,0,0,0,0,-1,1273,1562,0,0
56,-538,0,0,0,0,0,0,0,0,0,-1,1280,1562,0,0
63,-538,0,0,0,0,0,0,0,0,0,-1,1287,1562,0,0
70,-538,0,0,0,0,0,0,0,0,0,-1,1294,1562,0,0
77,-538,0,0,0,0,0,0,0,0,0,-1,1301,1562,0,0
84,-538,0,0,0,0,0,0,0,0,0,-1,1308,1562,0,0
91,-538,0,0,0,0,0,0,0,0,0,-1,1315,1562,0,0
98,-538,0,0,0,0,0,0,0,0,0,-1,1322,1562,0,0
105,-538,0,0,0,0,0,0,0,0,0,-1,1329,1562,0,0
112,-538,0,0,0,0,0,0,0,0,0,-1,1336,1562,0,0
119,-538,0,0,0,0,0,0,0,0,0,-1,1343,1562,0,0
126,-538,0,0,0,0,0,0,0,0,0,-1,1350,1562,0,0
133,-538,0,0,0,0,0,0,0,0,0,-1,1357,1562,0,0
140,-538,0,0,0,0,0,0,0,0,0,-1,1364,1562,0,0
147,-538,0,0,0,0,0,0,0,0,0,-1,1371,1562,0,0
154,-538,0,0,0,0,0,0,0,0,0,-1,1378,1562,0,0
161,-538,0,0,0,0,0,0,0,0,0,-1,1385,1562,0,0
168,-538,0,0,0,0,0,0,0,0,0,-1,1392,1562,0,0
175,-538,0,0,0,0,0,0,0,0,0,-1,1399,1562,0,0
182,-538,0,0,0,0,0,0,0,0,0,-1,1406,1562,0,0
189,-538,0,0,0,0,0,0,0,0,0,-1,1413,1562,0,0
196,-538,0,0,0,0,0,0,0,0,0,-1,1420,1562,0,0
203,-538,0,0,0,0,0,0,0,0,0,-1,1427,1562,0,0
210,-538,0,0,0,0,0,0,0,0,0,-1,1434,1562,0,0
217,-538,0,0,0,0,0,0,0,0,0,-1,1441,1562,0,0
224,-538,0,0,0,0,0,0,0,0,0,-1,1448,1562,0,0
231,-538,0,0,0,0,0,0,0,0,0,-1,1455,1562,0,0
238,-538,0,0,0,0,0,0,0,0,0,-1,1462,1562,0,0
245,-538,0,0,0,0,0,0,0,0,0,-1,1469,1562,0,0
252,-538,0,0,0,0,0,0,0,0,0,-1,1476,1562,0,0
259,-538,0,0,0,0,0,0,0,0,0,-1,1483,1562,0,0
266,-538,0,0,0,0,0,0,0,0,0,-1,1490,1562,0,0
273,-538,0,0,0,0,0,0,0,0,0,-1,1497,1562,0,0
280,-538,0,0,0,0,0,0,0,0,0,-1,1504,1562,0,0
287,-538,0,0,0,0,0,0,0,0,0,-1,1511,1562,0,0
294,-538,0,0,0,0,0,0,0,0,0,-1,1518,1562,0,0
301,-538,0,0,0,0,0,0,0,0,0,-1,1525,1562,0,0
308,-538,0,0,0,0,0,0,0,0,0,-1,1532,1562,0,0
315,-538,0,0,0,0,0,0,0,0,0,-1,1539,1562,0,0
322,-538,0,0,0,0,0,0,0,0,0,-1,1546,1562,0,0
329,-538,0,0,0,0,0,0,0,0,0,-1,1553,1562,0,0
336,-538,0,0,0,0,0,0,0,0,0,-1,1560,1562,0,0
343,-538,0,0,0,0,0,0,0,0,0,-1,1567,1562,0,0
350,-538,0,0,0,0,0,0,0,0,0,-1,1574,1562,0,0
357,-538,0,0,0,0,0,0,0,0,0,-1,1581,1562,0,0
364,-538,0,0,0,0,0,0,0,0,0,-1,1588,1562,0,0
371,-538,0,0,0,0,0,0,0,0,0,-1,1595,1562,0,0
378,-538,8.66895,4.93665,0,0,0,0,0,0,0,-1,1602,1562,8.66896,-4.93661
385,-538,8.69836,7.6283,0,0,0,0,0,0,0,-1,1609,1562,8.69835,-7.62829
392,-538,8.20361,7.07214,0,0,0,0,0,0,0,-1,1616,1562,8.20362,-7.07211
399,-538,7.85425,4.70508,0,0,0,0,0,0,0,-1,1623,1562,7.85425,-4.70512
406,-538,7.77734,4.96094,0,0,0,0,0,0,0,-1,1630,1562,7.77729,-4.96097
413,-538,13.0446,13.1765,0,0,0,0,0,0,0,-1,1637,1562,13.0446,-13.1765
420,-538,9.96216,12.7653,0,0,0,0,0,0,0,-1,1644,1562,9.96221,-12.7653
427,-538,10.1732,14.5863,0,0,0,0,0,0,0,-1,1651,1562,10.1732,-14.5863
434,-538,9.70264,14.6555,0,0,0,0,0,0,0,-1,1658,1562,9.70265,-14.6555
441,-538,9.15991,11.1003,0,0,0,0,0,0,0,-1,1665,1562,9.15995,-11.1003
448,-538,10.1685,11.2015,0,0,0,0,0,0,0,-1,1672,1562,10.1685,-11.2015
455,-538,10.5647,11.1179,0,0,0,0,0,0,0,-1,1679,1562,10.5646,-11.1179
462,-538,9.80005,10.778,0,0,0,0,0,0,0,-1,1686,1562,9.80004,-10.778
469,-538,10.2939,10.9335,0,0,0,0,0,0,0,-1,1693,1562,10.2939,-10.9335
476,-538,9.84814,11.2717,-0.00321178,-0.0479923,0.0410773,0.0211812,-0.0723852,0.535871,0.0566528,0.0474067,1700,1562,9.8482,-11.2718
483,-538,9.36536,11.7286,-0.0025833,-0.0419617,0.0350371,0.0179178,-0.0624629,0.529411,0.0487253,0.0314998,1707,1562,9.36532,-11.7286
490,-538,9.25732,11.6926,-0.00230971,-0.0353665,0.0294134,0.0149012,-0.0525774,0.529418,0.0409329,0.0142141,1714,1562,9.2573,-11.6926
497,-538,9.24084,11.5399,-0.00210646,-0.0290516,0.0240753,0.0120095,-0.0431676,0.530305,0.0335068,0.00951382,1721,1562,9.24082,-11.5399
504,-538,9.23938,11.3475,-0.00168761,-0.0236735,0.0190976,0.00935492,-0.034716,0.524248,0.0268119,0.00883035,1728,1562,9.23943,-11.3475
511,-538,9.23145,11.1354,-0.00144469,-0.0179612,0.0147143,0.00717036,-0.0265763,0.529682,0.0205294,0.00966384,1735,1562,9.23144,-11.1353
518,-538,9.22522,10.9287,-0.00132198,-0.0125373,0.0108115,0.00524963,-0.019109,0.54616,0.0148028,0.0104476,1742,1562,9.22517,-10.9287
525,-538,9.21692,10.7036,-0.00104654,-0.00814435,0.00739446,0.00360656,-0.0127974,0.561662,0.00995404,0.0109897,1749,1562,9.21688,-10.7036
532,-538,9.25159,10.4922,-0.000464687,-0.00466617,0.00451822,0.00241729,-0.00754814,0.567791,0.00600236,0.0124675,1756,1562,9.2516,-10.4922
539,-538,9.26526,10.2915,6.01736e-05,-0.00177118,0.0021436,0.00147548,-0.00318648,0.583545,0.00275135,0.015253,1763,1562,9.26523,-10.2915
546,-538,9.23608,10.072,0.000856929,0.000101874,0.000447591,0.00106495,-0.000106145,0.435054,0.000747863,0.0162686,1770,1562,9.23606,-10.072
553,-538,9.27246,9.85828,0.00211996,0.00125319,-0.000868453,0.00265716,0.000715989,-0.553962,0.00158754,0.0255303,1777,1562,9.27251,-9.85822
560,-538,9.22778,9.69104,0.00361452,0.002316,-0.00192294,0.00499486,0.000935666,-0.622587,0.00306598,0.0276055,1784,1562,9.22774,-9.6911
567,-538,9.16895,9.45459,0.00538569,0.00323654,-0.00298778,0.00748626,0.00113597,-0.612773,0.00465858,0.0190756,1791,1562,9.16891,-9.45456
574,-538,9.24182,9.21008,0.00734056,0.00419159,-0.00407502,0.0101347,0.00139746,-0.601045,0.00634217,0.0123651,1798,1562,9.24177,-9.21006
581,-538,9.30493,8.96643,0.0096076,0.00549159,-0.00532943,0.0132626,0.00183661,-0.60114,0.00829755,0.0145138,1805,1562,9.30494,-8.96641
588,-538,9.33337,8.75671,0.0124244,0.00703904,-0.00690609,0.0171442,0.00231925,-0.599514,0.0107402,0.0321412,1812,1562,9.33336,-8.75666
595,-538,9.36951,8.44592,0,0,0,0,0,0,0,-1,1819,1562,9.36954,-8.44587
602,-538,9.83374,7.86865,0,0,0,0,0,0,0,-1,1826,1562,9.83373,-7.86869
609,-538,10.1046,7.05713,0,0,0,0,0,0,0,-1,1833,1562,10.1046,-7.05719
616,-538,9.92249,5.43506,0,0,0,0,0,0,0,-1,1840,1562,9.92254,-5.43507
623,-538,11.1711,4.31604,0,0,0,0,0,0,0,-1,1847,1562,11.1711,-4.316
630,-538,12.6112,2.61633,0,0,0,0,0,0,0,-1,1854,1562,12.6112,-2.61637
637,-538,0,0,0,0,0,0,0,0,0,-1,1861,1562,0,0
644,-538,0,0,0,0,0,0,0,0,0,-1,1868,1562,0,0
651,-538,0,0,0,0,0,0,0,0,0,-1,1875,1562,0,0
658,-538,0,0,0,0,0,0,0,0,0,-1,1882,1562,0,0
665,-538,0,0,0,0,0,0,0,0,0,-1,1889,1562,0,0
672,-538,0,0,0,0,0,0,0,0,0,-1,1896,1562,0,0
679,-538,0,0,0,0,0,0,0,0,0,-1,1903,1562,0,0
686,-538,0,0,0,0,0,0,0,0,0,-1,1910,1562,0,0
693,-538,0,0,0,0,0,0,0,0,0,-1,1917,1562,0,0
700,-538,0,0,0,0,0,0,0,0,0,-1,1924,1562,0,0
707,-538,0,0,0,0,0,0,0,0,0,-1,1931,1562,0,0
714,-538,0,0,0,0,0,0,0,0,0,-1,1938,1562,0,0
721,-538,0,0,0,0,0,0,0,0,0,-1,1945,1562,0,0
728,-538,0,0,0,0,0,0,0,0,0,-1,1952,1562,0,0
735,-538,0,0,0,0,0,0,0,0,0,-1,1959,1562,0,0
742,-538,0,0,0,0,0,0,0,0,0,-1,1966,1562,0,0
749,-538,0,0,0,0,0,0,0,0,0,-1,1973,1562,0,0
756,-538,0,0,0,0,0,0,0,0,0,-1,1980,1562,0,0
763,-538,0,0,0,0,0,0,0,0,0,-1,1987,1562,0,0
770,-538,0,0,0,0,0,0,0,0,0,-1,1994,1562,0,0
777,-538,0,0,0,0,0,0,0,0,0,-1,2001,1562,0,0
784,-538,0,0,0,0,0,0,0,0,0,-1,2008,1562,0,0
791,-538,0,0,0,0,0,0,0,0,0,-1,2015,1562,0,0
798,-538,0,0,0,0,0,0,0,0,0,-1,2022,1562,0,0
805,-538,0,0,0,0,0,0,0,0,0,-1,2029,1562,0,0
812,-538,0,0,0,0,0,0,0,0,0,-1,2036,1562,0,0
-700,-545,0,0,0,0,0,0,0,0,0,-1,524,1569,0,0
-693,-545,0,0,0,0,0,0,0,0,0,-1,531,1569,0,0
-686,-545,0,0,0,0,0,0,0,0,0,-1,538,1569,0,0
-679,-545,0,0,0,0,0,0,0,0,0,-1,545,1569,0,0
-672,-545,0,0,0,0,0,0,0,0,0,-1,552,1569,0,0
-665,-545,0,0,0,0,0,0,0,0,0,-1,559,1569,0,0
-658,-545,0,0,0,0,0,0,0,0,0,-1,566,1569,0,0
-651,-545,0,0,0,0,0,0,0,0,0,-1,573,1569,0,0
-644,-545,0,0,0,0,0,0,0,0,0,-1,580,1569,0,0
-637,-545,0,0,0,0,0,0,0,0,0,-1,587,1569,0,0
-630,-545,0,0,0,0,0,0,0,0,0,-1,594,1569,0,0
-623,-545,0,0,0,0,0,0,0,0,0,-1,601,1569,0,0
-616,-545,0,0,0,0,0,0,0,0,0,-1,608,1569,0,0
-609,-545,0,0,0,0,0,0,0,0,0,-1,615,1569,0,0
-602,-545,0,0,0,0,0,0,0,0,0,-1,622,1569,0,0
-595,-545,0,0,0,0,0,0,0,0,0,-1,629,1569,0,0
-588,-545,0,0,0,0,0,0,0,0,0,-1,636,1569,0,0
-581,-545,0,0,0,0,0,0,0,0,0,-1,643,1569,0,0
-574,-545,0,0,0,0,0,0,0,0,0,-1,650,1569,0,0
-567,-545,0,0,0,0,0,0,0,0,0,-1,657,1569,0,0
-560,-545,0,0,0,0,0,0,0,0,0,-1,664,1569,0,0
-553,-545,0,0,0,0,0,0,0,0,0,-1,671,1569,0,0
-546,-545,0,0,0,0,0,0,0,0,0,-1,678,1569,0,0
-539,-545,0,0,0,0,0,0,0,0,0,-1,685,1569,0,0
-532,-545,0,0,0,0,0,0,0,0,0,-1,692,1569,0,0
-525,-545,0,0,0,0,0,0,0,0,0,-1,699,1569,0,0
-518,-545,0,0,0,0,0,0,0,0,0,-1,706,1569,0,0
-511,-545,0,0,0,0,0,0,0,0,0,-1,713,1569,0,0
-504,-545,-3.55237,-2.5354,0,0,0,0,0,0,0,-1,720,1569,-3.55236,2.53545
-497,-545,2.26575,5.69214,0,0,0,0,0,0,0,-1,727,1569,2.26573,-5.6922
-490,-545,1.79315,6.35181,0,0,0,0,0,0,0,-1,734,1569,1.79317,-6.35185
-483,-545,-0.719238,5.77625,0,0,0,0,0,0,0,-1,741,1569,-0.719225,-5.77629
-476,-545,0.238403,6.73743,0,0,0,0,0,0,0,-1,748,1569,0.238388,-6.73738
-469,-545,1.13007,4.95154,0,0,0,0,0,0,0,-1,755,1569,1.13005,-4.95157
-462,-545,0.974182,5.76331,0.0118326,0.101101,0.0342048,0.112701,0.000233594,1.24386,0.0750559,0.0457001,762,1569,0.974173,-5.7633
-455,-545,0.727234,6.39185,0.00989516,0.0804631,0.0281705,0.0903293,2.89902e-05,1.23392,0.0602099,0.0421411,769,1569,0.727238,-6.39183
-448,-545,0.536072,7.41113,0.00768118,0.0615928,0.0222082,0.0695629,-0.000288915,1.22623,0.0464719,0.0267732,776,1569,0.536052,-7.4111
-441,-545,0.535156,7.78259,0.00576373,0.045287,0.0168689,0.0515077,-0.000456985,1.2175,0.0344918,0.0178598,783,1569,0.535155,-7.78256
-434,-545,0.4552,8.01404,0.00475249,0.0316433,0.0122856,0.036411,-1.51657e-05,1.20062,0.024279,0.014943,790,1569,0.455195,-8.01406
-427,-545,0.456543,8.25854,0.00345866,0.0215651,0.00882024,0.0251514,-0.000127636,1.18461,0.0168103,0.016658,797,1569,0.456544,-8.25851
-420,-545,0.491882,8.45374,0.00223017,0.0126072,0.00580088,0.0152014,-0.000364048,1.15026,0.0102578,0.0228667,804,1569,0.491893,-8.45375
-413,-545,0.487,8.68506,0.00164682,0.00625598,0.00343536,0.00808815,-0.000185355,1.08084,0.00545494,0.0220253,811,1569,0.486981,-8.68505
-406,-545,0.47821,8.9375,0.00148948,0.00238623,0.0016646,0.00366179,0.000213927,0.916955,0.0023731,0.0162333,818,1569,0.478208,-8.93753
-399,-545,0.50531,9.18286,0.00203693,0.00087165,0.000714429,0.00237618,0.000532401,0.443328,0.00143984,0.0114723,825,1569,0.505326,-9.1829
-392,-545,0.490662,9.42859,0.00236958,-0.000129679,0.000122946,0.00237562,-0.000135713,0.0490353,0.00163087,0.0116427,832,1569,0.490684,-9.42865
-385,-545,0.49408,9.66956,0.00261482,-0.00104868,-0.000165371,0.00262227,-0.00105613,-0.0450181,0.00218695,0.00991052,839,1569,0.494107,-9.66953
-378,-545,0.483521,9.90796,0.00274728,-0.00216915,-0.000333609,0.00276981,-0.00219168,-0.067444,0.00287099,0.0114743,846,1569,0.483535,-9.90792
-371,-545,0.462769,10.1484,0.00305641,-0.00322268,-0.000542224,0.00310289,-0.00326916,-0.0855105,0.00367932,0.0151399,853,1569,0.462783,-10.1485
-364,-545,0.476807,10.3546,0.00353713,-0.00454155,-0.000627122,0.00358552,-0.00458994,-0.0770119,0.00473196,0.0102955,860,1569,0.476801,-10.3546
-357,-545,0.517212,10.5948,0.00408047,-0.00605558,-0.00074228,0.00413453,-0.00610965,-0.0727147,0.00595101,0.0113702,867,1569,0.517201,-10.5949
-350,-545,0.530823,10.8062,0.00386694,-0.00800384,-0.000193122,0.00387008,-0.00800698,-0.016263,0.0069945,0.016012,874,1569,0.530849,-10.8061
-343,-545,0.545105,10.9471,0.00307311,-0.0102045,0.000281185,0.00307907,-0.0102105,0.0211647,0.00803252,0.0249056,881,1569,0.545084,-10.9471
-336,-545,0.600647,11.1096,0.00176873,-0.011898,0.000683137,0.00180279,-0.011932,0.0498199,0.00861871,0.032181,888,1569,0.600651,-11.1096
-329,-545,0.543518,11.3712,-0.000140935,-0.0147824,0.00150504,1.2171e-05,-0.0149355,0.10138,0.00996107,0.0393775,895,1569,0.543542,-11.3712
-322,-545,0.523865,11.8032,0,0,0,0,0,0,0,-1,902,1569,0.523855,-11.8033
-315,-545,0.137268,13.2985,0,0,0,0,0,0,0,-1,909,1569,0.137282,-13.2984
-308,-545,0.784912,10.6808,0,0,0,0,0,0,0,-1,916,1569,0.784927,-10.6808
-301,-545,0.681702,11.4623,-0.014167,-0.0237121,0.00767058,-0.00990544,-0.0279737,0.507109,0.0163782,0.0492112,923,1569,0.681688,-11.4623
-294,-545,0.525391,12.1765,0,0,0,0,0,0,0,-1,930,1569,0.525415,-12.1765
-287,-545,0.260376,13.0709,0,0,0,0,0,0,0,-1,937,1569,0.260354,-13.071
-280,-545,0.226746,10.4198,0,0,0,0,0,0,0,-1,944,1569,0.226742,-10.4198
-273,-545,-4.10596,12.3789,0,0,0,0,0,0,0,-1,951,1569,-4.10598,-12.3789
-266,-545,-5.10779,14.1372,0,0,0,0,0,0,0,-1,958,1569,-5.10778,-14.1372
-259,-545,-3.98706,7.8916,0,0,0,0,0,0,0,-1,965,1569,-3.98704,-7.89159
-252,-545,0.369263,7.54053,0,0,0,0,0,0,0,-1,972,1569,0.369276,-7.54056
-245,-545,-0.236633,6.65564,0,0,0,0,0,0,0,-1,979,1569,-0.236605,-6.65566
-238,-545,0,0,0,0,0,0,0,0,0,-1,986,1569,0,0
-231,-545,0,0,0,0,0,0,0,0,0,-1,993,1569,0,0
-224,-545,0,0,0,0,0,0,0,0,0,-1,1000,1569,0,0
-217,-545,0,0,0,0,0,0,0,0,0,-1,1007,1569,0,0
-210,-545,0,0,0,0,0,0,0,0,0,-1,1014,1569,0,0
-203,-545,0,0,0,0,0,0,0,0,0,-1,1021,1569,0,0
-196,-545,0,0,0,0,0,0,0,0,0,-1,1028,1569,0,0
-189,-545,0,0,0,0,0,0,0,0,0,-1,1035,1569,0,0
-182,-545,0,0,0,0,0,0,0,0,0,-1,1042,1569,0,0
-175,-545,0,0,0,0,0,0,0,0,0,-1,1049,1569,0,0
-168,-545,0,0,0,0,0,0,0,0,0,-1,1056,1569,0,0
-161,-545,0,0,0,0,0,0,0,0,0,-1,1063,1569,0,0
-154,-545,0,0,0,0,0,0,0,0,0,-1,1070,1569,0,0
-147,-545,0,0,0,0,0,0,0,0,0,-1,1077,1569,0,0
-140,-545,0,0,0,0,0,0,0,0,0,-1,1084,1569,0,0
-133,-545,0,0,0,0,0,0,0,0,0,-1,1091,1569,0,0
-126,-545,0,0,0,0,0,0,0,0,0,-1,1098,1569,0,0
-119,-545,0,0,0,0,0,0,0,0,0,-1,1105,1569,0,0
-112,-545,0,0,0,0,0,0,0,0,0,-1,1112,1569,0,0
-105,-545,0,0,0,0,0,0,0,0,0,-1,1119,1569,0,0
-98,-545,0,0,0,0,0,0,0,0,0,-1,1126,1569,0,0
-91,-545,0,0,0,0,0,0,0,0,0,-1,1133,1569,0,0
-84,-545,0,0,0,0,0,0,0,0,0,-1,1140,1569,0,0
-77,-545,0,0,0,0,0,0,0,0,0,-1,1147,1569,0,0
-70,-545,0,0,0,0,0,0,0,0,0,-1,1154,1569,0,0
-63,-545,0,0,0,0,0,0,0,0,0,-1,1161,1569,0,0
-56,-545,0,0,0,0,0,0,0,0,0,-1,1168,1569,0,0
-49,-545,0,0,0,0,0,0,0,0,0,-1,1175,1569,0,0
-42,-545,0,0,0,0,0,0,0,0,0,-1,1182,1569,0,0
-35,-545,0,0,0,0,0,0,0,0,0,-1,1189,1569,0,0
-28,-545,0,0,0,0,0,0,0,0,0,-1,1196,1569,0,0
-21,-545,0,0,0,0,0,0,0,0,0,-1,1203,1569,0,0
-14,-545,0,0,0,0,0,0,0,0,0,-1,1210,1569,0,0
-7,-545,0,0,0,0,0,0,0,0,0,-1,1217,1569,0,0
0,-545,0,0,0,0,0,0,0,0,0,-1,1224,1569,0,0
7,-545,0,0,0,0,0,0,0,0,0,-1,1231,1569,0,0
14,-545,0,0,0,0,0,0,0,0,0,-1,1238,1569,0,0
21,-545,0,0,0,0,0,0,0,0,0,-1,1245,1569,0,0
28,-545,0,0,0,0,0,0,0,0,0,-1,1252,1569,0,0
35,-545,0,0,0,0,0,0,0,0,0,-1,1259,1569,0,0
42,-545,0,0,0,0,0,0,0,0,0,-1,1266,1569,0,0
49,-545,0,0,0,0,0,0,0,0,0,-1,1273,1569,0,0
56,-545,0,0,0,0,0,0,0,0,0,-1,1280,1569,0,0
63,-545,0,0,0,0,0,0,0,0,0,-1,1287,1569,0,0
70,-545,0,0,0,0,0,0,0,0,0,-1,1294,1569,0,0
77,-545,0,0,0,0,0,0,0,0,0,-1,1301,1569,0,0
84,-545,0,0,0,0,0,0,0,0,0,-1,1308,1569,0,0
91,-545,0,0,0,0,0,0,0,0,0,-1,1315,1569,0,0
98,-545,0,0,0,0,0,0,0,0,0,-1,1322,1569,0,0
105,-545,0,0,0,0,0,0,0,0,0,-1,1329,1569,0,0
112,-545,0,0,0,0,0,0,0,0,0,-1,1336,1569,0,0
119,-545,0,0,0,0,0,0,0,0,0,-1,1343,1569,0,0
126,-545,0,0,0,0,0,0,0,0,0,-1,1350,1569,0,0
133,-545,0,0,0,0,0,0,0,0,0,-1,1357,1569,0,0
140,-545,0,0,0,0,0,0,0,0,0,-1,1364,1569,0,0
147,-545,0,0,0,0,0,0,0,0,0,-1,1371,1569,0,0
154,-545,0,0,0,0,0,0,0,0,0,-1,1378,1569,0,0
161,-545,0,0,0,0,0,0,0,0,0,-1,1385,1569,0,0
168,-545,0,0,0,0,0,0,0,0,0,-1,1392,1569,0,0
175,-545,0,0,0,0,0,0,0,0,0,-1,1399,1569,0,0
182,-545,0,0,0,0,0,0,0,0,0,-1,1406,1569,0,0
189,-545,0,0,0,0,0,0,0,0,0,-1,1413,1569,0,0
196,-545,0,0,0,0,0,0,0,0,0,-1,1420,1569,0,0
203,-545,0,0,0,0,0,0,0,0,0,-1,1427,1569,0,0
210,-545,0,0,0,0,0,0,0,0,0,-1,1434,1569,0,0
217,-545,0,0,0,0,0,0,0,0,0,-1,1441,1569,0,0
224,-545,0,0,0,0,0,0,0,0,0,-1,1448,1569,0,0
231,-545,0,0,0,0,0,0,0,0,0,-1,1455,1569,0,0
238,-545,0,0,0,0,0,0,0,0,0,-1,1462,1569,0,0
245,-545,0,0,0,0,0,0,0,0,0,-1,1469,1569,0,0
252,-545,0,0,0,0,0,0,0,0,0,-1,1476,1569,0,0
259,-545,0,0,0,0,0,0,0,0,0,-1,1483,1569,0,0
266,-545,0,0,0,0,0,0,0,0,0,-1,1490,1569,0,0
273,-545,0,0,0,0,0,0,0,0,0,-1,1497,1569,0,0
280,-545,0,0,0,0,0,0,0,0,0,-1,1504,1569,0,0
287,-545,0,0,0,0,0,0,0,0,0,-1,1511,1569,0,0
294,-545,0,0,0,0,0,0,0,0,0,-1,1518,1569,0,0
301,-545,0,0,0,0,0,0,0,0,0,-1,1525,1569,0,0
308,-545,0,0,0,0,0,0,0,0,0,-1,1532,1569,0,0
315,-545,0,0,0,0,0,0,0,0,0,-1,1539,1569,0,0
322,-545,0,0,0,0,0,0,0,0,0,-1,1546,1569,0,0
329,-545,0,0,0,0,0,0,0,0,0,-1,1553,1569,0,0
336,-545,0,0,0,0,0,0,0,0,0,-1,1560,1569,0,0
343,-545,0,0,0,0,0,0,0,0,0,-1,1567,1569,0,0
350,-545,0,0,0,0,0,0,0,0,0,-1,1574,1569,0,0
357,-545,0,0,0,0,0,0,0,0,0,-1,1581,1569,0,0
364,-545,7.19495,4.88098,0,0,0,0,0,0,0,-1,1588,1569,7.19497,-4.88095
371,-545,7.82324,3.84302,0,0,0,0,0,0,0,-1,1595,1569,7.82324,-3.84307
378,-545,7.24146,4.54224,0,0,0,0,0,0,0,-1,1602,1569,7.24145,-4.54226
385,-545,8.58447,1.16125,0,0,0,0,0,0,0,-1,1609,1569,8.5845,-1.1612
392,-545,12.5654,3.89526,0,0,0,0,0,0,0,-1,1616,1569,12.5655,-3.89532
399,-545,11.5869,5.6333,0,0,0,0,0,0,0,-1,1623,1569,11.5869,-5.63326
406,-545,11.234,6.36414,0,0,0,0,0,0,0,-1,1630,1569,11.234,-6.3641
413,-545,12.1521,13.4817,0,0,0,0,0,0,0,-1,1637,1569,12.1521,-13.4817
420,-545,11.1954,13.6047,0,0,0,0,0,0,0,-1,1644,1569,11.1954,-13.6047
427,-545,10.8182,13.7325,0,0,0,0,0,0,0,-1,1651,1569,10.8182,-13.7326
434,-545,10.1743,13.8772,0,0,0,0,0,0,0,-1,1658,1569,10.1744,-13.8771
441,-545,10.2919,12.9507,0,0,0,0,0,0,0,-1,1665,1569,10.2918,-12.9507
448,-545,9.86646,12.5338,0,0,0,0,0,0,0,-1,1672,1569,9.86648,-12.5338
455,-545,9.21497,12.1874,0,0,0,0,0,0,0,-1,1679,1569,9.21502,-12.1873
462,-545,9.25977,11.3317,-0.00769849,-0.0438192,0.0416678,0.0196547,-0.0711723,0.580901,0.0551792,0.0478166,1686,1569,9.25981,-11.3316
469,-545,9.33911,11.5409,-0.00638871,-0.040694,0.0364518,0.0167444,-0.0638272,0.56549,0.0490942,0.0447737,1693,1569,9.33917,-11.5409
476,-545,9.13989,11.96,-0.00523626,-0.0367181,0.0314783,0.0142174,-0.0561718,0.553552,0.0429782,0.0331615,1700,1569,9.13986,-11.9599
483,-545,9.05969,11.9337,-0.00407866,-0.032123,0.0266964,0.0120541,-0.0482558,0.543579,0.0368517,0.0138131,1707,1569,9.05974,-11.9337
490,-545,9.03638,11.7579,-0.00330135,-0.027041,0.0223597,0.0101438,-0.0404861,0.541384,0.0309315,0.0113462,1714,1569,9.03639,-11.7579
497,-545,9.0498,11.5708,-0.00263078,-0.0222158,0.0181754,0.00822227,-0.0330689,0.538305,0.0252372,0.0160263,1721,1569,9.04976,-11.5708
504,-545,9.08069,11.3562,-0.00185357,-0.0180792,0.0142258,0.00641015,-0.0263429,0.526254,0.0200433,0.0153623,1728,1569,9.08069,-11.3561
511,-545,9.05322,11.1166,-0.00129942,-0.0134687,0.0107239,0.00494578,-0.0197139,0.52735,0.0150643,0.0119998,1735,1569,9.05325,-11.1166
518,-545,9.026,10.92,-0.000936676,-0.00899589,0.00758061,0.00361879,-0.0135514,0.541107,0.0104515,0.0131302,1742,1569,9.02606,-10.92
525,-545,9.02393,10.6921,-0.00050312,-0.00536603,0.00481558,0.00246003,-0.00832919,0.551612,0.00652915,0.0126561,1749,1569,9.02388,-10.6922
532,-545,9.04297,10.4836,0.000141773,-0.00248685,0.0024767,0.00163129,-0.00397636,0.541457,0.00333061,0.0136198,1756,1569,9.04303,-10.4837
539,-545,9.03516,10.2805,0.00073163,-0.000203625,0.000617838,0.00103886,-0.000510852,0.461454,0.000911871,0.0163127,1763,1569,9.03512,-10.2805
546,-545,9.00745,10.0625,0.00155955,0.00122034,-0.000645716,0.00205756,0.000722322,-0.656968,0.00120537,0.0174648,1770,1569,9.00742,-10.0625
553,-545,9.05627,9.84668,0.0028861,0.00202034,-0.00163399,0.00414357,0.000762866,-0.655911,0.00254647,0.0247111,1777,1569,9.05628,-9.84663
560,-545,9.05493,9.59314,0.00440534,0.0030354,-0.00256343,0.00637374,0.001067,-0.654844,0.00394193,0.0258322,1784,1569,9.05494,-9.59317
567,-545,8.9458,9.42163,0.006272,0.00385605,-0.00356316,0.00882638,0.00130167,-0.621969,0.00550193,0.0385982,1791,1569,8.94576,-9.42159
574,-545,8.92004,9.18359,0.00846902,0.00487072,-0.00471936,0.0117205,0.0016192,-0.603289,0.00733379,0.0333006,1798,1569,8.92004,-9.18354
581,-545,9.14709,8.94153,0.0113658,0.00629826,-0.00625976,0.0155851,0.00207891,-0.593093,0.00977112,0.0444834,1805,1569,9.14709,-8.94152
588,-545,9.26929,8.72144,0,0,0,0,0,0,0,-1,1812,1569,9.26927,-8.72142
595,-545,9.36633,7.98376,0,0,0,0,0,0,0,-1,1819,1569,9.36639,-7.98375
602,-545,8.82117,6.32214,0,0,0,0,0,0,0,-1,1826,1569,8.82121,-6.32217
609,-545,10.2406,5.22351,0,0,0,0,0,0,0,-1,1833,1569,10.2406,-5.22353
616,-545,11.701,3.93188,0,0,0,0,0,0,0,-1,1840,1569,11.701,-3.93191
623,-545,13.2139,2.32043,0,0,0,0,0,0,0,-1,1847,1569,13.2139,-2.32042
630,-545,0,0,0,0,0,0,0,0,0,-1,1854,1569,0,0
637,-545,0,0,0,0,0,0,0,0,0,-1,1861,1569,0,0
644,-545,0,0,0,0,0,0,0,0,0,-1,1868,1569,0,0
651,-545,0,0,0,0,0,0,0,0,0,-1,1875,1569,0,0
658,-545,0,0,0,0,0,0,0,0,0,-1,1882,1569,0,0
665,-545,0,0,0,0,0,0,0,0,0,-1,1889,1569,0,0
672,-545,0,0,0,0,0,0,0,0,0,-1,1896,1569,0,0
679,-545,0,0,0,0,0,0,0,0,0,-1,1903,1569,0,0
686,-545,0,0,0,0,0,0,0,0,0,-1,1910,1569,0,0
693,-545,0,0,0,0,0,0,0,0,0,-1,1917,1569,0,0
700,-545,0,0,0,0,0,0,0,0,0,-1,1924,1569,0,0
707,-545,0,0,0,0,0,0,0,0,0,-1,1931,1569,0,0
714,-545,0,0,0,0,0,0,0,0,0,-1,1938,1569,0,0
721,-545,0,0,0,0,0,0,0,0,0,-1,1945,1569,0,0
728,-545,0,0,0,0,0,0,0,0,0,-1,1952,1569,0,0
735,-545,0,0,0,0,0,0,0,0,0,-1,1959,1569,0,0
742,-545,0,0,0,0,0,0,0,0,0,-1,1966,1569,0,0
749,-545,0,0,0,0,0,0,0,0,0,-1,1973,1569,0,0
756,-545,0,0,0,0,0,0,0,0,0,-1,1980,1569,0,0
763,-545,0,0,0,0,0,0,0,0,0,-1,1987,1569,0,0
770,-545,0,0,0,0,0,0,0,0,0,-1,1994,1569,0,0
777,-545,0,0,0,0,0,0,0,0,0,-1,2001,1569,0,0
784,-545,0,0,0,0,0,0,0,0,0,-1,2008,1569,0,0
791,-545,0,0,0,0,0,0,0,0,0,-1,2015,1569,0,0
798,-545,0,0,0,0,0,0,0,0,0,-1,2022,1569,0,0
805,-545,0,0,0,0,0,0,0,0,0,-1,2029,1569,0,0
812,-545,0,0,0,0,0,0,0,0,0,-1,2036,1569,0,0
-700,-552,0,0,0,0,0,0,0,0,0,-1,524,1576,0,0
-693,-552,0,0,0,0,0,0,0,0,0,-1,531,1576,0,0
-686,-552,0,0,0,0,0,0,0,0,0,-1,538,1576,0,0
-679,-552,0,0,0,0,0,0,0,0,0,-1,545,1576,0,0
-672,-552,0,0,0,0,0,0,0,0,0,-1,552,1576,0,0
-665,-552,0,0,0,0,0,0,0,0,0,-1,559,1576,0,0
-658,-552,0,0,0,0,0,0,0,0,0,-1,566,1576,0,0
-651,-552,0,0,0,0,0,0,0,0,0,-1,573,1576,0,0
-644,-552,0,0,0,0,0,0,0,0,0,-1,580,1576,0,0
-637,-552,0,0,0,0,0,0,0,0,0,-1,587,1576,0,0
-630,-552,0,0,0,0,0,0,0,0,0,-1,594,1576,0,0
-623,-552,0,0,0,0,0,0,0,0,0,-1,601,1576,0,0
-616,-552,0,0,0,0,0,0,0,0,0,-1,608,1576,0,0
-609,-552,0,0,0,0,0,0,0,0,0,-1,615,1576,0,0
-602,-552,0,0,0,0,0,0,0,0,0,-1,622,1576,0,0
-595,-552,0,0,0,0,0,0,0,0,0,-1,629,1576,0,0
-588,-552,0,0,0,0,0,0,0,0,0,-1,636,1576,0,0
-581,-552,0,0,0,0,0,0,0,0,0,-1,643,1576,0,0
-574,-552,0,0,0,0,0,0,0,0,0,-1,650,1576,0,0
-567,-552,0,0,0,0,0,0,0,0,0,-1,657,1576,0,0
-560,-552,0,0,0,0,0,0,0,0,0,-1,664,1576,0,0
-553,-552,0,0,0,0,0,0,0,0,0,-1,671,1576,0,0
-546,-552,0,0,0,0,0,0,0,0,0,-1,678,1576,0,0
-539,-552,0,0,0,0,0,0,0,0,0,-1,685,1576,0,0
-532,-552,0,0,0,0,0,0,0,0,0,-1,692,1576,0,0
-525,-552,0,0,0,0,0,0,0,0,0,-1,699,1576,0,0
-518,-552,0,0,0,0,0,0,0,0,0,-1,706,1576,0,0
-511,-552,0,0,0,0,0,0,0,0,0,-1,713,1576,0,0
-504,-552,0,0,0,0,0,0,0,0,0,-1,720,1576,0,0
-497,-552,1.51282,3.96924,0,0,0,0,0,0,0,-1,727,1576,1.5128,-3.96924
-490,-552,1.07428,4.69812,0.0235962,0.225902,0.0674738,0.246341,0.00315712,1.27666,0.163185,0.0486381,734,1576,1.07429,-4.69816
-483,-552,0.41156,5.25769,0,0,0,0,0,0,0,-1,741,1576,0.411537,-5.25764
-476,-552,-0.19696,5.93909,0,0,0,0,0,0,0,-1,748,1576,-0.196953,-5.93912
-469,-552,-0.618469,6.41931,0,0,0,0,0,0,0,-1,755,1576,-0.618484,-6.41934
-462,-552,1.2121,5.10242,0,0,0,0,0,0,0,-1,762,1576,1.21213,-5.10247
-455,-552,1.08051,5.99707,0.0179902,0.10676,0.0366988,0.119967,0.00478323,1.22535,0.0784322,0.0469663,769,1576,1.08049,-5.99706
-448,-552,0.758972,6.95532,0.014013,0.0823088,0.0290293,0.0929804,0.00334149,1.21852,0.0609036,0.0419493,776,1576,0.758981,-6.95528
-441,-552,0.725281,7.62134,0.0104355,0.0608953,0.0221085,0.0692114,0.00211946,1.21102,0.0454509,0.0370884,783,1576,0.725261,-7.62128
-434,-552,0.745911,8.05005,0.00817859,0.0427002,0.0160961,0.0490407,0.0018381,1.19555,0.0320986,0.0209836,790,1576,0.745928,-8.05009
-427,-552,0.694031,8.21851,0.00562427,0.0290917,0.0114594,0.0337591,0.000956794,1.18401,0.022194,0.0155624,797,1576,0.69402,-8.21856
-420,-552,0.738403,8.47192,0.00319071,0.0167879,0.00743779,0.0200661,-8.74754e-05,1.15566,0.0134067,0.0181022,804,1576,0.738381,-8.47195
-413,-552,0.75293,8.68604,0.00173179,0.00835247,0.00429002,0.0104609,-0.000376604,1.114,0.00710277,0.0167348,811,1576,0.752947,-8.68607
-406,-552,0.736877,8.92383,0.00100098,0.00327349,0.00205038,0.0044814,-0.000206936,1.03842,0.00305891,0.013156,818,1576,0.736902,-8.92379
-399,-552,0.730652,9.18787,0.00131089,0.00153109,0.000955367,0.00238268,0.000459304,0.842767,0.00145965,0.0130701,825,1576,0.730635,-9.18782
-392,-552,0.691101,9.42358,0.001367,0.000417927,0.000273134,0.00143999,0.000344936,0.261134,0.000868168,0.0147637,832,1576,0.691126,-9.42352
-385,-552,0.716003,9.66016,0.00139176,-0.000492436,-5.1939e-05,0.00139319,-0.000493867,-0.0275377,0.00112998,0.0133573,839,1576,0.716026,-9.66011
-378,-552,0.713745,9.89148,0.00141289,-0.00148813,-0.000208131,0.00142774,-0.00150299,-0.0712579,0.00169224,0.0146488,846,1576,0.713758,-9.89143
-371,-552,0.699951,10.1393,0.00162015,-0.00238388,-0.000393403,0.00165844,-0.00242217,-0.0970156,0.00236966,0.0195743,853,1576,0.699932,-10.1393
-364,-552,0.710632,10.3715,0.00199377,-0.00347065,-0.000477102,0.00203511,-0.003512,-0.086439,0.00324024,0.0155364,860,1576,0.710603,-10.3715
-357,-552,0.724121,10.5792,0.00251109,-0.00469529,-0.000571154,0.00255607,-0.00474027,-0.0786027,0.004275,0.0105024,867,1576,0.724115,-10.5792
-350,-552,0.728882,10.8138,0.00249182,-0.00635608,-0.000132738,0.00249381,-0.00635807,-0.0149977,0.00527046,0.00995977,874,1576,0.728887,-10.8139
-343,-552,0.716919,11.0239,0.00204822,-0.00818203,0.00024867,0.00205427,-0.00818807,0.0242882,0.0062569,0.0102174,881,1576,0.716897,-11.0239
-336,-552,0.76239,11.191,0.00120699,-0.00955369,0.000477059,0.0012281,-0.0095748,0.0442179,0.00682948,0.0149512,888,1576,0.762388,-11.191
-329,-552,0.785156,11.4895,5.56835e-05,-0.0120157,0.00086557,0.000117433,-0.0120774,0.0712189,0.00809104,0.0308967,895,1576,0.785129,-11.4894
-322,-552,0.900269,11.8922,0,0,0,0,0,0,0,-1,902,1576,0.900258,-11.8922
-315,-552,1.58075,11.8081,0,0,0,0,0,0,0,-1,909,1576,1.58073,-11.8081
-308,-552,0.929565,10.385,0,0,0,0,0,0,0,-1,916,1576,0.929571,-10.385
-301,-552,0.805664,11.1713,0,0,0,0,0,0,0,-1,923,1576,0.80565,-11.1712
-294,-552,0.296692,11.8057,0,0,0,0,0,0,0,-1,930,1576,0.296692,-11.8057
-287,-552,0.048584,12.5209,0,0,0,0,0,0,0,-1,937,1576,0.0486095,-12.5209
-280,-552,1.70819,8.4104,0,0,0,0,0,0,0,-1,944,1576,1.70818,-8.4104
-273,-552,1.64587,10.6685,0,0,0,0,0,0,0,-1,951,1576,1.6459,-10.6685
-266,-552,-1.32678,8.05688,0,0,0,0,0,0,0,-1,958,1576,-1.32677,-8.05683
-259,-552,-5.54321,8.31213,0,0,0,0,0,0,0,-1,965,1576,-5.54324,-8.31214
-252,-552,-1.93445,7.81543,0,0,0,0,0,0,0,-1,972,1576,-1.93445,-7.81546
-245,-552,-2.53613,6.92212,0,0,0,0,0,0,0,-1,979,1576,-2.53614,-6.92216
-238,-552,-4.7373,3.97888,0,0,0,0,0,0,0,-1,986,1576,-4.73733,-3.97894
-231,-552,-2.33112,4.83984,0,0,0,0,0,0,0,-1,993,1576,-2.33111,-4.83982
-224,-552,0,0,0,0,0,0,0,0,0,-1,1000,1576,0,0
-217,-552,0,0,0,0,0,0,0,0,0,-1,1007,1576,0,0
-210,-552,0,0,0,0,0,0,0,0,0,-1,1014,1576,0,0
-203,-552,0,0,0,0,0,0,0,0,0,-1,1021,1576,0,0
-196,-552,0,0,0,0,0,0,0,0,0,-1,1028,1576,0,0
-189,-552,0,0,0,0,0,0,0,0,0,-1,1035,1576,0,0
-182,-552,0,0,0,0,0,0,0,0,0,-1,1042,1576,0,0
-175,-552,0,0,0,0,0,0,0,0,0,-1,1049,1576,0,0
-168,-552,0,0,0,0,0,0,0,0,0,-1,1056,1576,0,0
-161,-552,0,0,0,0,0,0,0,0,0,-1,1063,1576,0,0
-154,-552,0,0,0,0,0,0,0,0,0,-1,1070,1576,0,0
-147,-552,0,0,0,0,0,0,0,0,0,-1,1077,1576,0,0
-140,-552,0,0,0,0,0,0,0,0,0,-1,1084,1576,0,0
-133,-552,0,0,0,0,0,0,0,0,0,-1,1091,1576,0,0
-126,-552,0,0,0,0,0,0,0,0,0,-1,1098,1576,0,0
-119,-552,0,0,0,0,0,0,0,0,0,-1,1105,1576,0,0
-112,-552,0,0,0,0,0,0,0,0,0,-1,1112,1576,0,0
-105,-552,0,0,0,0,0,0,0,0,0,-1,1119,1576,0,0
-98,-552,0,0,0,0,0,0,0,0,0,-1,1126,1576,0,0
-91,-552,0,0,0,0,0,0,0,0,0,-1,1133,1576,0,0
-84,-552,0,0,0,0,0,0,0,0,0,-1,1140,1576,0,0
-77,-552,0,0,0,0,0,0,0,0,0,-1,1147,1576,0,0
-70,-552,0,0,0,0,0,0,0,0,0,-1,1154,1576,0,0
-63,-552,0,0,0,0,0,0,0,0,0,-1,1161,1576,0,0
-56,-552,0,0,0,0,0,0,0,0,0,-1,1168,1576,0,0
-49,-552,0,0,0,0,0,0,0,0,0,-1,1175,1576,0,0
-42,-552,0,0,0,0,0,0,0,0,0,-1,1182,1576,0,0
-35,-552,0,0,0,0,0,0,0,0,0,-1,1189,1576,0,0
-28,-552,0,0,0,0,0,0,0,0,0,-1,1196,1576,0,0
-21,-552,0,0,0,0,0,0,0,0,0,-1,1203,1576,0,0
-14,-552,0,0,0,0,0,0,0,0,0,-1,1210,1576,0,0
-7,-552,0,0,0,0,0,0,0,0,0,-1,1217,1576,0,0
0,-552,0,0,0,0,0,0,0,0,0,-1,1224,1576,0,0
7,-552,0,0,0,0,0,0,0,0,0,-1,1231,1576,0,0
14,-552,0,0,0,0,0,0,0,0,0,-1,1238,1576,0,0
21,-552,0,0,0,0,0,0,0,0,0,-1,1245,1576,0,0
28,-552,0,0,0,0,0,0,0,0,0,-1,1252,1576,0,0
35,-552,0,0,0,0,0,0,0,0,0,-1,1259,1576,0,0
42,-552,0,0,0,0,0,0,0,0,0,-1,1266,1576,0,0
49,-552,0,0,0,0,0,0,0,0,0,-1,1273,1576,0,0
56,-552,0,0,0,0,0,0,0,0,0,-1,1280,1576,0,0
63,-552,0,0,0,0,0,0,0,0,0,-1,1287,1576,0,0
70,-552,0,0,0,0,0,0,0,0,0,-1,1294,1576,0,0
77,-552,0,0,0,0,0,0,0,0,0,-1,1301,1576,0,0
84,-552,0,0,0,0,0,0,0,0,0,-1,1308,1576,0,0
91,-552,0,0,0,0,0,0,0,0,0,-1,1315,1576,0,0
98,-552,0,0,0,0,0,0,0,0,0,-1,1322,1576,0,0
105,-552,0,0,0,0,0,0,0,0,0,-1,1329,1576,0,0
112,-552,0,0,0,0,0,0,0,0,0,-1,1336,1576,0,0
119,-552,0,0,0,0,0,0,0,0,0,-1,1343,1576,0,0
126,-552,0,0,0,0,0,0,0,0,0,-1,1350,1576,0,0
133,-552,0,0,0,0,0,0,0,0,0,-1,1357,1576,0,0
140,-552,0,0,0,0,0,0,0,0,0,-1,1364,1576,0,0
147,-552,0,0,0,0,0,0,0,0,0,-1,1371,1576,0,0
154,-552,0,0,0,0,0,0,0,0,0,-1,1378,1576,0,0
161,-552,0,0,0,0,0,0,0,0,0,-1,1385,1576,0,0
168,-552,0,0,0,0,0,0,0,0,0,-1,1392,1576,0,0
175,-552,0,0,0,0,0,0,0,0,0,-1,1399,1576,0,0
182,-552,0,0,0,0,0,0,0,0,0,-1,1406,1576,0,0
189,-552,0,0,0,0,0,0,0,0,0,-1,1413,1576,0,0
196,-552,0,0,0,0,0,0,0,0,0,-1,1420,1576,0,0
203,-552,0,0,0,0,0,0,0,0,0,-1,1427,1576,0,0
210,-552,0,0,0,0,0,0,0,0,0,-1,1434,1576,0,0
217,-552,0,0,0,0,0,0,0,0,0,-1,1441,1576,0,0
224,-552,0,0,0,0,0,0,0,0,0,-1,1448,1576,0,0
231,-552,0,0,0,0,0,0,0,0,0,-1,1455,1576,0,0
238,-552,0,0,0,0,0,0,0,0,0,-1,1462,1576,0,0
245,-552,0,0,0,0,0,0,0,0,0,-1,1469,1576,0,0
252,-552,0,0,0,0,0,0,0,0,0,-1,1476,1576,0,0
259,-552,0,0,0,0,0,0,0,0,0,-1,1483,1576,0,0
266,-552,0,0,0,0,0,0,0,0,0,-1,1490,1576,0,0
273,-552,0,0,0,0,0,0,0,0,0,-1,1497,1576,0,0
280,-552,0,0,0,0,0,0,0,0,0,-1,1504,1576,0,0
287,-552,0,0,0,0,0,0,0,0,0,-1,1511,1576,0,0
294,-552,0,0,0,0,0,0,0,0,0,-1,1518,1576,0,0
301,-552,0,0,0,0,0,0,0,0,0,-1,1525,1576,0,0
308,-552,0,0,0,0,0,0,0,0,0,-1,1532,1576,0,0
315,-552,0,0,0,0,0,0,0,0,0,-1,1539,1576,0,0
322,-552,0,0,0,0,0,0,0,0,0,-1,1546,1576,0,0
329,-552,0,0,0,0,0,0,0,0,0,-1,1553,1576,0,0
336,-552,0,0,0,0,0,0,0,0,0,-1,1560,1576,0,0
343,-552,0,0,0,0,0,0,0,0,0,-1,1567,1576,0,0
350,-552,4.97876,4.09888,0,0,0,0,0,0,0,-1,1574,1576,4.97875,-4.09883
357,-552,5.18469,4.10706,0,0,0,0,0,0,0,-1,1581,1576,5.1847,-4.10702
364,-552,5.80872,5.07031,0,0,0,0,0,0,0,-1,1588,1576,5.80874,-5.07037
371,-552,7.10657,5.64783,0,0,0,0,0,0,0,-1,1595,1576,7.10651,-5.64786
378,-552,6.44446,4.91492,0,0,0,0,0,0,0,-1,1602,1576,6.44448,-4.91496
385,-552,12.8276,3.16504,0,0,0,0,0,0,0,-1,1609,1576,12.8276,-3.16503
392,-552,12.1301,4.3363,0,0,0,0,0,0,0,-1,1616,1576,12.1302,-4.33631
399,-552,11.3486,5.6012,0,0,0,0,0,0,0,-1,1623,1576,11.3486,-5.60115
406,-552,10.7863,6.42542,0,0,0,0,0,0,0,-1,1630,1576,10.7863,-6.42536
413,-552,8.39307,10.365,0,0,0,0,0,0,0,-1,1637,1576,8.3931,-10.365
420,-552,10.2306,12.7225,0,0,0,0,0,0,0,-1,1644,1576,10.2305,-12.7226
427,-552,11.3856,13.2433,0,0,0,0,0,0,0,-1,1651,1576,11.3856,-13.2433
434,-552,10.83,13.265,0,0,0,0,0,0,0,-1,1658,1576,10.83,-13.2651
441,-552,10.3859,13.1224,0,0,0,0,0,0,0,-1,1665,1576,10.3859,-13.1225
448,-552,9.92444,12.729,-0.0109232,-0.0363738,0.0407428,0.0190353,-0.0663323,0.634032,0.0517471,0.0444182,1672,1576,9.92444,-12.729
455,-552,9.31567,12.3594,-0.00944665,-0.0349508,0.0361437,0.0161286,-0.0605261,0.615807,0.0466654,0.0406863,1679,1576,9.31571,-12.3594
462,-552,8.95776,12.1151,-0.00805785,-0.0329173,0.03183,0.0136833,-0.0546584,0.599252,0.0417542,0.0425367,1686,1576,8.95773,-12.1151
469,-552,8.87329,12.17,-0.00677706,-0.0303392,0.0275737,0.0114269,-0.0485431,0.583508,0.0367678,0.03551,1693,1576,8.87332,-12.1701
476,-552,8.82202,12.1204,-0.0056026,-0.0273233,0.0236028,0.00951858,-0.0424444,0.569776,0.0319454,0.015993,1700,1576,8.82207,-12.1204
483,-552,8.83911,11.9462,-0.00437278,-0.0239008,0.0198655,0.00799858,-0.0362721,0.556984,0.0272419,0.0137378,1707,1576,8.83914,-11.9462
490,-552,8.84009,11.7687,-0.0034552,-0.0200057,0.0165323,0.00675728,-0.0302182,0.553354,0.0227351,0.0150082,1714,1576,8.84005,-11.7686
497,-552,8.89392,11.5775,-0.00262024,-0.0163612,0.0132431,0.00542852,-0.0244099,0.546113,0.0183524,0.0223016,1721,1576,8.89389,-11.5775
504,-552,8.89661,11.3599,-0.00173412,-0.0131888,0.0101099,0.00415803,-0.019081,0.527684,0.0143095,0.0227607,1728,1576,8.89657,-11.3598
511,-552,8.85254,11.1226,-0.00104483,-0.00951012,0.0073231,0.00318084,-0.0137358,0.523361,0.0103812,0.0169471,1735,1576,8.85256,-11.1225
518,-552,8.8429,10.9165,-0.000557657,-0.00588272,0.00480802,0.00227583,-0.0087162,0.532532,0.00669952,0.0141595,1742,1576,8.84284,-10.9165
525,-552,8.83789,10.7068,-3.49296e-05,-0.0029339,0.00259684,0.00148957,-0.0044584,0.530851,0.00357381,0.0129054,1749,1576,8.83787,-10.7068
532,-552,8.85181,10.4908,0.000643877,-0.000591801,0.000730555,0.000982822,-0.000930746,0.434398,0.00110494,0.0141033,1756,1576,8.85179,-10.4908
539,-552,8.8147,10.2905,0.00127834,0.00112708,-0.000663029,0.00187004,0.000535383,-0.728612,0.00111205,0.017753,1763,1576,8.81475,-10.2905
546,-552,8.80127,10.0719,0.00215522,0.00216106,-0.00154246,0.0037006,0.000615672,-0.786345,0.00228961,0.0209378,1770,1576,8.80121,-10.0719
553,-552,8.87195,9.83752,0.00358837,0.002683,-0.00223507,0.00541614,0.000855234,-0.685481,0.00336214,0.0238245,1777,1576,8.87196,-9.83747
560,-552,8.92517,9.43872,0,0,0,0,0,0,0,-1,1784,1576,8.92522,-9.43878
567,-552,8.86377,9.23206,0,0,0,0,0,0,0,-1,1791,1576,8.86372,-9.23201
574,-552,8.8606,9.06384,0,0,0,0,0,0,0,-1,1798,1576,8.86064,-9.06378
581,-552,9.14392,8.82471,0,0,0,0,0,0,0,-1,1805,1576,9.14394,-8.82475
588,-552,9.17993,8.56409,0,0,0,0,0,0,0,-1,1812,1576,9.17995,-8.56405
595,-552,5.36194,6.62744,0,0,0,0,0,0,0,-1,1819,1576,5.36193,-6.62742
602,-552,10.6863,4.31616,0,0,0,0,0,0,0,-1,1826,1576,10.6862,-4.31619
609,-552,12.146,3.18286,0,0,0,0,0,0,0,-1,1833,1576,12.1459,-3.18281
616,-552,13.8762,2.08167,0,0,0,0,0,0,0,-1,1840,1576,13.8763,-2.08167
623,-552,0,0,0,0,0,0,0,0,0,-1,1847,1576,0,0
630,-552,0,0,0,0,0,0,0,0,0,-1,1854,1576,0,0
637,-552,0,0,0,0,0,0,0,0,0,-1,1861,1576,0,0
644,-552,0,0,0,0,0,0,0,0,0,-1,1868,1576,0,0
651,-552,0,0,0,0,0,0,0,0,0,-1,1875,1576,0,0
658,-552,0,0,0,0,0,0,0,0,0,-1,1882,1576,0,0
665,-552,0,0,0,0,0,0,0,0,0,-1,1889,1576,0,0
672,-552,0,0,0,0,0,0,0,0,0,-1,1896,1576,0,0
679,-552,0,0,0,0,0,0,0,0,0,-1,1903,1576,0,0
686,-552,0,0,0,0,0,0,0,0,0,-1,1910,1576,0,0
693,-552,0,0,0,0,0,0,0,0,0,-1,1917,1576,0,0
700,-552,0,0,0,0,0,0,0,0,0,-1,1924,1576,0,0
707,-552,0,0,0,0,0,0,0,0,0,-1,1931,1576,0,0
714,-552,0,0,0,0,0,0,0,0,0,-1,1938,1576,0,0
721,-552,0,0,0,0,0,0,0,0,0,-1,1945,1576,0,0
728,-552,0,0,0,0,0,0,0,0,0,-1,1952,1576,0,0
735,-552,0,0,0,0,0,0,0,0,0,-1,1959,1576,0,0
742,-552,0,0,0,0,0,0,0,0,0,-1,1966,1576,0,0
749,-552,0,0,0,0,0,0,0,0,0,-1,1973,1576,0,0
756,-552,0,0,0,0,0,0,0,0,0,-1,1980,1576,0,0
763,-552,0,0,0,0,0,0,0,0,0,-1,1987,1576,0,0
770,-552,0,0,0,0,0,0,0,0,0,-1,1994,1576,0,0
777,-552,0,0,0,0,0,0,0,0,0,-1,2001,1576,0,0
784,-552,0,0,0,0,0,0,0,0,0,-1,2008,1576,0,0
791,-552,0,0,0,0,0,0,0,0,0,-1,2015,1576,0,0
798,-552,0,0,0,0,0,0,0,0,0,-1,2022,1576,0,0
805,-552,0,0,0,0,0,0,0,0,0,-1,2029,1576,0,0
812,-552,0,0,0,0,0,0,0,0,0,-1,2036,1576,0,0
-700,-559,0,0,0,0,0,0,0,0,0,-1,524,1583,0,0
-693,-559,0,0,0,0,0,0,0,0,0,-1,531,1583,0,0
-686,-559,0,0,0,0,0,0,0,0,0,-1,538,1583,0,0
-679,-559,0,0,0,0,0,0,0,0,0,-1,545,1583,0,0
-672,-559,0,0,0,0,0,0,0,0,0,-1,552,1583,0,0
-665,-559,0,0,0,0,0,0,0,0,0,-1,559,1583,0,0
-658,-559,0,0,0,0,0,0,0,0,0,-1,566,1583,0,0
-651,-559,0,0,0,0,0,0,0,0,0,-1,573,1583,0,0
-644,-559,0,0,0,0,0,0,0,0,0,-1,580,1583,0,0
-637,-559,0,0,0,0,0,0,0,0,0,-1,587,1583,0,0
-630,-559,0,0,0,0,0,0,0,0,0,-1,594,1583,0,0
-623,-559,0,0,0,0,0,0,0,0,0,-1,601,1583,0,0
-616,-559,0,0,0,0,0,0,0,0,0,-1,608,1583,0,0
-609,-559,0,0,0,0,0,0,0,0,0,-1,615,1583,0,0
-602,-559,0,0,0,0,0,0,0,0,0,-1,622,1583,0,0
-595,-559,0,0,0,0,0,0,0,0,0,-1,629,1583,0,0
-588,-559,0,0,0,0,0,0,0,0,0,-1,636,1583,0,0
-581,-559,0,0,0,0,0,0,0,0,0,-1,643,1583,0,0
-574,-559,0,0,0,0,0,0,0,0,0,-1,650,1583,0,0
-567,-559,0,0,0,0,0,0,0,0,0,-1,657,1583,0,0
-560,-559,0,0,0,0,0,0,0,0,0,-1,664,1583,0,0
-553,-559,0,0,0,0,0,0,0,0,0,-1,671,1583,0,0
-546,-559,0,0,0,0,0,0,0,0,0,-1,678,1583,0,0
-539,-559,0,0,0,0,0,0,0,0,0,-1,685,1583,0,0
-532,-559,0,0,0,0,0,0,0,0,0,-1,692,1583,0,0
-525,-559,0,0,0,0,0,0,0,0,0,-1,699,1583,0,0
-518,-559,0,0,0,0,0,0,0,0,0,-1,706,1583,0,0
-511,-559,0,0,0,0,0,0,0,0,0,-1,713,1583,0,0
-504,-559,0,0,0,0,0,0,0,0,0,-1,720,1583,0,0
-497,-559,0,0,0,0,0,0,0,0,0,-1,727,1583,0,0
-490,-559,0.365601,3.07288,0,0,0,0,0,0,0,-1,734,1583,0.36563,-3.07291
-483,-559,-0.112427,4.25476,0,0,0,0,0,0,0,-1,741,1583,-0.112397,-4.25473
-476,-559,-0.671204,4.94214,0,0,0,0,0,0,0,-1,748,1583,-0.671186,-4.9422
-469,-559,-1.06,4.95776,0,0,0,0,0,0,0,-1,755,1583,-1.05997,-4.95782
-462,-559,-1.28772,5.69495,0,0,0,0,0,0,0,-1,762,1583,-1.28774,-5.69495
-455,-559,1.41064,5.53101,0,0,0,0,0,0,0,-1,769,1583,1.41063,-5.53103
-448,-559,1.01788,6.50598,0,0,0,0,0,0,0,-1,776,1583,1.0179,-6.50601
-441,-559,0.922424,7.44482,0,0,0,0,0,0,0,-1,783,1583,0.922422,-7.4448
-434,-559,1.03699,8.08728,0.0130111,0.0568359,0.0206617,0.0650409,0.00480605,1.19278,0.0418507,0.0333221,790,1583,1.03696,-8.08734
-427,-559,0.974976,8.29651,0.00873199,0.0386802,0.0145407,0.0445785,0.00283371,1.18544,0.0288209,0.0219279,797,1583,0.974953,-8.29652
-420,-559,0.951477,8.47522,0.00471173,0.0220478,0.00922863,0.0260409,0.000718715,1.16244,0.017126,0.0222802,804,1583,0.951505,-8.4752
-413,-559,0.973938,8.70911,0.00213434,0.0109193,0.00507312,0.0132373,-0.00018366,1.1422,0.00888669,0.0127345,811,1583,0.973965,-8.70907
-406,-559,0.967651,8.95776,0.000724129,0.00432848,0.0022439,0.00540431,-0.000351701,1.12373,0.00372565,0.00970126,818,1583,0.967634,-8.95771
-399,-559,0.958191,9.21228,0.000844038,0.00235283,0.000992682,0.00284524,0.000351625,1.11032,0.00179116,0.0119627,825,1583,0.958216,-9.21228
-392,-559,0.925476,9.42175,0.000700621,0.00111753,0.000216631,0.00120971,0.000608439,1.16848,0.000698431,0.0155227,832,1583,0.925477,-9.42179
-385,-559,0.93866,9.64905,0.000591852,0.000198756,-0.000145505,0.00063985,0.000150758,-0.318633,0.000386249,0.0159991,839,1583,0.938668,-9.64906
-378,-559,0.96405,9.91101,0.00057692,-0.000700144,-0.00028375,0.000637128,-0.000760352,-0.209084,0.00080788,0.0147785,846,1583,0.964049,-9.91099
-371,-559,0.949036,10.1642,0.000752124,-0.00148104,-0.000426019,0.000830635,-0.00155955,-0.182245,0.0014012,0.0229489,853,1583,0.949062,-10.1641
-364,-559,0.955872,10.3606,0.00106642,-0.00239115,-0.000482048,0.00113237,-0.0024571,-0.135965,0.0021189,0.020833,860,1583,0.955846,-10.3606
-357,-559,0.968018,10.5706,0.00158135,-0.00339377,-0.000524401,0.00163602,-0.00344845,-0.103884,0.00299704,0.0123493,867,1583,0.967998,-10.5705
-350,-559,0.96344,10.8083,0.00174898,-0.00479571,-0.000136049,0.0017518,-0.00479854,-0.0207758,0.00391583,0.0101032,874,1583,0.963448,-10.8083
-343,-559,0.951477,11.0433,0.00161999,-0.0063207,0.000219802,0.00162607,-0.00632678,0.0276522,0.00485158,0.010581,881,1583,0.951483,-11.0433
-336,-559,0.942383,11.2354,0.00114233,-0.00744413,0.000344602,0.00115613,-0.00745794,0.0400473,0.00539876,0.0121697,888,1583,0.942384,-11.2354
-329,-559,0.996094,11.5052,0.000431157,-0.00958827,0.000440834,0.000450516,-0.00960763,0.0438849,0.00656042,0.0161083,895,1583,0.996122,-11.5053
-322,-559,1.04724,11.8228,-0.000640757,-0.0116344,0.000687446,-0.000597937,-0.0116773,0.062208,0.00759338,0.0382349,902,1583,1.04725,-11.8228
-315,-559,1.37415,11.7457,-0.00226928,-0.0141026,0.000833889,-0.00221081,-0.0141611,0.0700083,0.0087969,0.0418328,909,1583,1.37417,-11.7457
-308,-559,1.16156,10.1769,0,0,0,0,0,0,0,-1,916,1583,1.16158,-10.1769
-301,-559,0.972229,11.1254,-0.00654491,-0.0198765,0.000992274,-0.00647146,-0.0199499,0.0738879,0.0117525,0.0434939,923,1583,0.972225,-11.1254
-294,-559,0.659607,11.9205,-0.00962004,-0.0233775,0.000559751,-0.00959731,-0.0234003,0.0405975,0.0135827,0.0445985,930,1583,0.659591,-11.9205
-287,-559,0.407288,12.6401,-0.0129741,-0.0274749,-0.000211212,-0.0129711,-0.0274779,-0.0145615,0.0158726,0.0457724,937,1583,0.407261,-12.6402
-280,-559,0.333679,13.5884,0,0,0,0,0,0,0,-1,944,1583,0.333685,-13.5883
-273,-559,2.12836,10.3059,0,0,0,0,0,0,0,-1,951,1583,2.12839,-10.3059
-266,-559,-0.597046,6.68933,0,0,0,0,0,0,0,-1,958,1583,-0.597031,-6.68937
-259,-559,-7.00311,8.62756,0,0,0,0,0,0,0,-1,965,1583,-7.00312,-8.6275
-252,-559,-9.4483,2.87805,0,0,0,0,0,0,0,-1,972,1583,-9.44829,-2.87805
-245,-559,-4.80804,7.1803,0,0,0,0,0,0,0,-1,979,1583,-4.80804,-7.18027
-238,-559,-6.77856,3.04285,0,0,0,0,0,0,0,-1,986,1583,-6.77856,-3.04289
-231,-559,-4.61151,5.07129,0,0,0,0,0,0,0,-1,993,1583,-4.61149,-5.07123
-224,-559,-3.29431,6.39868,0,0,0,0,0,0,0,-1,1000,1583,-3.29433,-6.39868
-217,-559,0,0,0,0,0,0,0,0,0,-1,1007,1583,0,0
-210,-559,0,0,0,0,0,0,0,0,0,-1,1014,1583,0,0
-203,-559,0,0,0,0,0,0,0,0,0,-1,1021,1583,0,0
-196,-559,0,0,0,0,0,0,0,0,0,-1,1028,1583,0,0
-189,-559,0,0,0,0,0,0,0,0,0,-1,1035,1583,0,0
-182,-559,0,0,0,0,0,0,0,0,0,-1,1042,1583,0,0
-175,-559,0,0,0,0,0,0,0,0,0,-1,1049,1583,0,0
-168,-559,0,0,0,0,0,0,0,0,0,-1,1056,1583,0,0
-161,-559,0,0,0,0,0,0,0,0,0,-1,1063,1583,0,0
-154,-559,0,0,0,0,0,0,0,0,0,-1,1070,1583,0,0
-147,-559,0,0,0,0,0,0,0,0,0,-1,1077,1583,0,0
-140,-559,0,0,0,0,0,0,0,0,0,-1,1084,1583,0,0
-133,-559,0,0,0,0,0,0,0,0,0,-1,1091,1583,0,0
-126,-559,0,0,0,0,0,0,0,0,0,-1,1098,1583,0,0
-119,-559,0,0,0,0,0,0,0,0,0,-1,1105,1583,0,0
-112,-559,0,0,0,0,0,0,0,0,0,-1,1112,1583,0,0
-105,-559,0,0,0,0,0,0,0,0,0,-1,1119,1583,0,0
-98,-559,0,0,0,0,0,0,0,0,0,-1,1126,1583,0,0
-91,-559,0,0,0,0,0,0,0,0,0,-1,1133,1583,0,0
-84,-559,0,0,0,0,0,0,0,0,0,-1,1140,1583,0,0
-77,-559,0,0,0,0,0,0,0,0,0,-1,1147,1583,0,0
-70,-559,0,0,0,0,0,0,0,0,0,-1,1154,1583,0,0
-63,-559,0,0,0,0,0,0,0,0,0,-1,1161,1583,0,0
-56,-559,0,0,0,0,0,0,0,0,0,-1,1168,1583,0,0
-49,-559,0,0,0,0,0,0,0,0,0,-1,1175,1583,0,0
-42,-559,0,0,0,0,0,0,0,0,0,-1,1182,1583,0,0
-35,-559,0,0,0,0,0,0,0,0,0,-1,1189,1583,0,0
-28,-559,0,0,0,0,0,0,0,0,0,-1,1196,1583,0,0
-21,-559,0,0,0,0,0,0,0,0,0,-1,1203,1583,0,0
-14,-559,0,0,0,0,0,0,0,0,0,-1,1210,1583,0,0
-7,-559,0,0,0,0,0,0,0,0,0,-1,1217,1583,0,0
0,-559,0,0,0,0,0,0,0,0,0,-1,1224,1583,0,0
7,-559,0,0,0,0,0,0,0,0,0,-1,1231,1583,0,0
14,-559,0,0,0,0,0,0,0,0,0,-1,1238,1583,0,0
21,-559,0,0,0,0,0,0,0,0,0,-1,1245,1583,0,0
28,-559,0,0,0,0,0,0,0,0,0,-1,1252,1583,0,0
35,-559,0,0,0,0,0,0,0,0,0,-1,1259,1583,0,0
42,-559,0,0,0,0,0,0,0,0,0,-1,1266,1583,0,0
49,-559,0,0,0,0,0,0,0,0,0,-1,1273,1583,0,0
56,-559,0,0,0,0,0,0,0,0,0,-1,1280,1583,0,0
63,-559,0,0,0,0,0,0,0,0,0,-1,1287,1583,0,0
70,-559,0,0,0,0,0,0,0,0,0,-1,1294,1583,0,0
77,-559,0,0,0,0,0,0,0,0,0,-1,1301,1583,0,0
84,-559,0,0,0,0,0,0,0,0,0,-1,1308,1583,0,0
91,-559,0,0,0,0,0,0,0,0,0,-1,1315,1583,0,0
98,-559,0,0,0,0,0,0,0,0,0,-1,1322,1583,0,0
105,-559,0,0,0,0,0,0,0,0,0,-1,1329,1583,0,0
112,-559,0,0,0,0,0,0,0,0,0,-1,1336,1583,0,0
119,-559,0,0,0,0,0,0,0,0,0,-1,1343,1583,0,0
126,-559,0,0,0,0,0,0,0,0,0,-1,1350,1583,0,0
133,-559,0,0,0,0,0,0,0,0,0,-1,1357,1583,0,0
140,-559,0,0,0,0,0,0,0,0,0,-1,1364,1583,0,0
147,-559,0,0,0,0,0,0,0,0,0,-1,1371,1583,0,0
154,-559,0,0,0,0,0,0,0,0,0,-1,1378,1583,0,0
161,-559,0,0,0,0,0,0,0,0,0,-1,1385,1583,0,0
168,-559,0,0,0,0,0,0,0,0,0,-1,1392,1583,0,0
175,-559,0,0,0,0,0,0,0,0,0,-1,1399,1583,0,0
182,-559,0,0,0,0,0,0,0,0,0,-1,1406,1583,0,0
189,-559,0,0,0,0,0,0,0,0,0,-1,1413,1583,0,0
196,-559,0,0,0,0,0,0,0,0,0,-1,1420,1583,0,0
203,-559,0,0,0,0,0,0,0,0,0,-1,1427,1583,0,0
210,-559,0,0,0,0,0,0,0,0,0,-1,1434,1583,0,0
217,-559,0,0,0,0,0,0,0,0,0,-1,1441,1583,0,0
224,-559,0,0,0,0,0,0,0,0,0,-1,1448,1583,0,0
231,-559,0,0,0,0,0,0,0,0,0,-1,1455,1583,0,0
238,-559,0,0,0,0,0,0,0,0,0,-1,1462,1583,0,0
245,-559,0,0,0,0,0,0,0,0,0,-1,1469,1583,0,0
252,-559,0,0,0,0,0,0,0,0,0,-1,1476,1583,0,0
259,-559,0,0,0,0,0,0,0,0,0,-1,1483,1583,0,0
266,-559,0,0,0,0,0,0,0,0,0,-1,1490,1583,0,0
273,-559,0,0,0,0,0,0,0,0,0,-1,1497,1583,0,0
280,-559,0,0,0,0,0,0,0,0,0,-1,1504,1583,0,0
287,-559,0,0,0,0,0,0,0,0,0,-1,1511,1583,0,0
294,-559,0,0,0,0,0,0,0,0,0,-1,1518,1583,0,0
301,-559,0,0,0,0,0,0,0,0,0,-1,1525,1583,0,0
308,-559,0,0,0,0,0,0,0,0,0,-1,1532,1583,0,0
315,-559,0,0,0,0,0,0,0,0,0,-1,1539,1583,0,0
322,-559,0,0,0,0,0,0,0,0,0,-1,1546,1583,0,0
329,-559,0,0,0,0,0,0,0,0,0,-1,1553,1583,0,0
336,-559,5.97668,3.09827,0,0,0,0,0,0,0,-1,1560,1583,5.97667,-3.09824
343,-559,5.44824,2.88696,0,0,0,0,0,0,0,-1,1567,1583,5.44819,-2.88693
350,-559,4.69775,3.27051,0,0,0,0,0,0,0,-1,1574,1583,4.69771,-3.27048
357,-559,3.88025,3.60999,0,0,0,0,0,0,0,-1,1581,1583,3.88027,-3.60998
364,-559,5.00928,5.32605,0,0,0,0,0,0,0,-1,1588,1583,5.00928,-5.32607
371,-559,1.84436,2.52441,0,0,0,0,0,0,0,-1,1595,1583,1.84441,-2.52447
378,-559,6.34753,1.53137,0,0,0,0,0,0,0,-1,1602,1583,6.34752,-1.53139
385,-559,6.95911,1.48181,0,0,0,0,0,0,0,-1,1609,1583,6.95916,-1.48175
392,-559,11.6949,4.77734,0,0,0,0,0,0,0,-1,1616,1583,11.6949,-4.77731
399,-559,11.1104,5.56909,0,0,0,0,0,0,0,-1,1623,1583,11.1103,-5.56905
406,-559,10.3385,6.48657,0,0,0,0,0,0,0,-1,1630,1583,10.3385,-6.48661
413,-559,9.76147,6.97571,0,0,0,0,0,0,0,-1,1637,1583,9.76143,-6.97574
420,-559,7.77124,10.5851,0,0,0,0,0,0,0,-1,1644,1583,7.77128,-10.585
427,-559,10.1022,12.5565,0,0,0,0,0,0,0,-1,1651,1583,10.1021,-12.5565
434,-559,11.1411,13.3612,0,0,0,0,0,0,0,-1,1658,1583,11.1411,-13.3612
441,-559,8.40063,11.5221,0,0,0,0,0,0,0,-1,1665,1583,8.40059,-11.5221
448,-559,8.79065,11.9583,-0.0112461,-0.0274128,0.0310426,0.0127484,-0.0514072,0.658029,0.0392178,0.0496691,1672,1583,8.79064,-11.9582
455,-559,8.87952,12.2506,-0.0100897,-0.0258514,0.0272334,0.0103802,-0.0463213,0.644554,0.0348599,0.0445301,1679,1583,8.87949,-12.2507
462,-559,8.72888,12.3965,-0.00889861,-0.0239212,0.0236907,0.00844306,-0.0412629,0.631883,0.0307122,0.0357328,1686,1583,8.72886,-12.3964
469,-559,8.60913,12.3647,-0.00766374,-0.0218672,0.02028,0.00672207,-0.036253,0.616979,0.026693,0.0182825,1693,1583,8.60915,-12.3648
476,-559,8.59473,12.1527,-0.0064677,-0.0195691,0.0171237,0.00531552,-0.0313523,0.602711,0.0228801,0.0103654,1700,1583,8.59469,-12.1528
483,-559,8.62048,11.9442,-0.00514468,-0.0169956,0.0141758,0.00429428,-0.0264345,0.587436,0.0192151,0.0121882,1707,1583,8.62047,-11.9442
490,-559,8.61487,11.7484,-0.00403096,-0.0139838,0.0116008,0.00361576,-0.0216305,0.582783,0.0157644,0.0155275,1714,1583,8.61485,-11.7484
497,-559,8.65222,11.5714,-0.00295394,-0.0112471,0.00900713,0.00281524,-0.0170163,0.569677,0.0123897,0.0186102,1721,1583,8.65218,-11.5714
504,-559,8.66101,11.3644,-0.00188026,-0.00882578,0.00654248,0.00205402,-0.0127601,0.541406,0.00926756,0.0222029,1728,1583,8.66096,-11.3644
511,-559,8.64697,11.1439,-0.000949505,-0.0059631,0.00437357,0.00158475,-0.00849735,0.52517,0.00626037,0.0190047,1735,1583,8.64697,-11.1439
518,-559,8.65991,10.928,-0.000224798,-0.00313819,0.00242679,0.00114892,-0.00451191,0.515094,0.00345519,0.0121513,1742,1583,8.6599,-10.928
525,-559,8.64648,10.7217,0.000493426,-0.000869653,0.000733967,0.000813487,-0.00118971,0.41121,0.00116333,0.0108391,1749,1583,8.64653,-10.7217
532,-559,8.62488,10.5308,0.00128856,0.000910179,-0.000677522,0.00180281,0.000395928,-0.649247,0.00109404,0.0130274,1756,1583,8.62487,-10.5308
539,-559,8.62231,10.3368,0.00195009,0.00204082,-0.00164115,0.00363723,0.000353674,-0.799217,0.00231595,0.01823,1763,1583,8.62237,-10.3368
546,-559,8.5957,10.1118,0.00278425,0.00271964,-0.0022303,0.00498248,0.000521412,-0.778156,0.00316221,0.0164342,1770,1583,8.59575,-10.1118
553,-559,8.724,9.79724,0.00423469,0.00312419,-0.00277639,0.00651081,0.000848076,-0.686706,0.00408728,0.0252119,1777,1583,8.72395,-9.79722
560,-559,8.72949,9.46106,0,0,0,0,0,0,0,-1,1784,1583,8.72944,-9.46101
567,-559,8.57544,9.39636,0,0,0,0,0,0,0,-1,1791,1583,8.57549,-9.39642
574,-559,8.79309,8.98853,0,0,0,0,0,0,0,-1,1798,1583,8.79305,-8.98848
581,-559,5.97095,5.96179,0,0,0,0,0,0,0,-1,1805,1583,5.97093,-5.96181
588,-559,5.79102,5.89954,0,0,0,0,0,0,0,-1,1812,1583,5.79098,-5.89949
595,-559,5.79089,6.24231,0,0,0,0,0,0,0,-1,1819,1583,5.7909,-6.24227
602,-559,12.478,2.35669,0,0,0,0,0,0,0,-1,1826,1583,12.4781,-2.35675
609,-559,14.0479,1.22681,0,0,0,0,0,0,0,-1,1833,1583,14.0479,-1.22681
616,-559,0,0,0,0,0,0,0,0,0,-1,1840,1583,0,0
623,-559,0,0,0,0,0,0,0,0,0,-1,1847,1583,0,0
630,-559,0,0,0,0,0,0,0,0,0,-1,1854,1583,0,0
637,-559,0,0,0,0,0,0,0,0,0,-1,1861,1583,0,0
644,-559,0,0,0,0,0,0,0,0,0,-1,1868,1583,0,0
651,-559,0,0,0,0,0,0,0,0,0,-1,1875,1583,0,0
658,-559,0,0,0,0,0,0,0,0,0,-1,1882,1583,0,0
665,-559,0,0,0,0,0,0,0,0,0,-1,1889,1583,0,0
672,-559,0,0,0,0,0,0,0,0,0,-1,1896,1583,0,0
679,-559,0,0,0,0,0,0,0,0,0,-1,1903,1583,0,0
686,-559,0,0,0,0,0,0,0,0,0,-1,1910,1583,0,0
693,-559,0,0,0,0,0,0,0,0,0,-1,1917,1583,0,0
700,-559,0,0,0,0,0,0,0,0,0,-1,1924,1583,0,0
707,-559,0,0,0,0,0,0,0,0,0,-1,1931,1583,0,0
714,-559,0,0,0,0,0,0,0,0,0,-1,1938,1583,0,0
721,-559,0,0,0,0,0,0,0,0,0,-1,1945,1583,0,0
728,-559,0,0,0,0,0,0,0,0,0,-1,1952,1583,0,0
735,-559,0,0,0,0,0,0,0,0,0,-1,1959,1583,0,0
742,-559,0,0,0,0,0,0,0,0,0,-1,1966,1583,0,0
749,-559,0,0,0,0,0,0,0,0,0,-1,1973,1583,0,0
756,-559,0,0,0,0,0,0,0,0,0,-1,1980,1583,0,0
763,-559,0,0,0,0,0,0,0,0,0,-1,1987,1583,0,0
770,-559,0,0,0,0,0,0,0,0,0,-1,1994,1583,0,0
777,-559,0,0,0,0,0,0,0,0,0,-1,2001,1583,0,0
784,-559,0,0,0,0,0,0,0,0,0,-1,2008,1583,0,0
791,-559,0,0,0,0,0,0,0,0,0,-1,2015,1583,0,0
798,-559,0,0,0,0,0,0,0,0,0,-1,2022,1583,0,0
805,-559,0,0,0,0,0,0,0,0,0,-1,2029,1583,0,0
812,-559,0,0,0,0,0,0,0,0,0,-1,2036,1583,0,0
-700,-566,0,0,0,0,0,0,0,0,0,-1,524,1590,0,0
-693,-566,0,0,0,0,0,0,0,0,0,-1,531,1590,0,0
-686,-566,0,0,0,0,0,0,0,0,0,-1,538,1590,0,0
-679,-566,0,0,0,0,0,0,0,0,0,-1,545,1590,0,0
-672,-566,0,0,0,0,0,0,0,0,0,-1,552,1590,0,0
-665,-566,0,0,0,0,0,0,0,0,0,-1,559,1590,0,0
-658,-566,0,0,0,0,0,0,0,0,0,-1,566,1590,0,0
-651,-566,0,0,0,0,0,0,0,0,0,-1,573,1590,0,0
-644,-566,0,0,0,0,0,0,0,0,0,-1,580,1590,0,0
-637,-566,0,0,0,0,0,0,0,0,0,-1,587,1590,0,0
-630,-566,0,0,0,0,0,0,0,0,0,-1,594,1590,0,0
-623,-566,0,0,0,0,0,0,0,0,0,-1,601,1590,0,0
-616,-566,0,0,0,0,0,0,0,0,0,-1,608,1590,0,0
-609,-566,0,0,0,0,0,0,0,0,0,-1,615,1590,0,0
-602,-566,0,0,0,0,0,0,0,0,0,-1,622,1590,0,0
-595,-566,0,0,0,0,0,0,0,0,0,-1,629,1590,0,0
-588,-566,0,0,0,0,0,0,0,0,0,-1,636,1590,0,0
-581,-566,0,0,0,0,0,0,0,0,0,-1,643,1590,0,0
-574,-566,0,0,0,0,0,0,0,0,0,-1,650,1590,0,0
-567,-566,0,0,0,0,0,0,0,0,0,-1,657,1590,0,0
-560,-566,0,0,0,0,0,0,0,0,0,-1,664,1590,0,0
-553,-566,0,0,0,0,0,0,0,0,0,-1,671,1590,0,0
-546,-566,0,0,0,0,0,0,0,0,0,-1,678,1590,0,0
-539,-566,0,0,0,0,0,0,0,0,0,-1,685,1590,0,0
-532,-566,0,0,0,0,0,0,0,0,0,-1,692,1590,0,0
-525,-566,0,0,0,0,0,0,0,0,0,-1,699,1590,0,0
-518,-566,0,0,0,0,0,0,0,0,0,-1,706,1590,0,0
-511,-566,0,0,0,0,0,0,0,0,0,-1,713,1590,0,0
-504,-566,0,0,0,0,0,0,0,0,0,-1,720,1590,0,0
-497,-566,0,0,0,0,0,0,0,0,0,-1,727,1590,0,0
-490,-566,0,0,0,0,0,0,0,0,0,-1,734,1590,0,0
-483,-566,-2.4743,2.07825,0,0,0,0,0,0,0,-1,741,1590,-2.47428,-2.07829
-476,-566,-1.80646,2.39294,0.0587017,0.283309,0.0854424,0.312117,0.0298936,1.2456,0.198864,0.045157,748,1590,-1.80644,-2.39298
-469,-566,-1.15375,3.03284,0.0557955,0.24847,0.076794,0.275332,0.028933,1.2343,0.174711,0.0444556,755,1590,-1.15378,-3.03283
-462,-566,-0.459106,3.89343,0.0504687,0.210787,0.0671257,0.235181,0.0260748,1.22223,0.148859,0.0429854,762,1590,-0.459095,-3.89341
-455,-566,0.280212,4.74023,0,0,0,0,0,0,0,-1,769,1590,0.280207,-4.74023
-448,-566,0.917358,5.58521,0,0,0,0,0,0,0,-1,776,1590,0.91735,-5.58524
-441,-566,1.11426,6.73889,0,0,0,0,0,0,0,-1,783,1590,1.11424,-6.73885
-434,-566,1.30457,8.12646,0,0,0,0,0,0,0,-1,790,1590,1.30459,-8.12642
-427,-566,1.02704,8.31067,0.0127312,0.0505738,0.0180824,0.0578248,0.00548023,1.18943,0.0368592,0.0416256,797,1590,1.02704,-8.31066
-420,-566,1.08032,8.54431,0.00675762,0.0286164,0.0112647,0.0333825,0.0019916,1.17054,0.0216217,0.0315993,804,1590,1.0803,-8.54432
-413,-566,1.18286,8.72998,0.00273458,0.0139877,0.00587104,0.016493,0.000229268,1.16747,0.0109197,0.0158465,811,1590,1.18288,-8.73004
-406,-566,1.18915,8.98267,0.000457895,0.00546174,0.00234785,0.00639085,-0.000471218,1.19398,0.00442601,0.00949829,818,1590,1.18916,-8.98264
-399,-566,1.18201,9.21631,0.000376267,0.00322301,0.000961288,0.00351721,8.20643e-05,1.2738,0.00231794,0.0094234,825,1590,1.182,-9.21637
-392,-566,1.16962,9.41943,5.33595e-05,0.00182896,0.000113828,0.00183623,4.60921e-05,1.50704,0.00120908,0.0120516,832,1590,1.16964,-9.4194
-385,-566,1.20422,9.67542,-0.000158549,0.000853101,-0.00027424,0.00092266,-0.000228108,-1.32239,0.000703578,0.0154797,839,1590,1.20421,-9.67537
-378,-566,1.21906,9.95398,-0.000185713,-1.36745e-05,-0.000395015,0.000304579,-0.000503966,-0.892605,0.000471521,0.0159954,846,1590,1.21907,-9.95402
-371,-566,1.15771,10.1908,-1.90911e-05,-0.000753284,-0.000497977,0.000232473,-0.00100485,-0.467777,0.000759345,0.0222006,853,1590,1.15769,-10.1908
-364,-566,1.16071,10.3761,0.000252371,-0.00155283,-0.000535736,0.00039939,-0.00169985,-0.267831,0.00128719,0.0224001,860,1590,1.16073,-10.3761
-357,-566,1.20355,10.5771,0.000768724,-0.00239421,-0.000542427,0.000859162,-0.00248464,-0.165208,0.00200514,0.0176069,867,1590,1.20354,-10.5772
-350,-566,1.19989,10.8325,0.00110262,-0.0035533,-0.000205796,0.00111169,-0.00356238,-0.0440864,0.00281951,0.0205512,874,1590,1.19987,-10.8325
-343,-566,1.19214,11.0039,0.00123685,-0.00482586,0.000121666,0.00123929,-0.0048283,0.0200571,0.00370177,0.024253,881,1590,1.19215,-11.004
-336,-566,1.12885,11.2404,0.00106129,-0.00572103,0.000183366,0.00106625,-0.00572599,0.0270095,0.00421791,0.0233815,888,1590,1.12884,-11.2404
-329,-566,1.1972,11.4207,0.000668279,-0.00754049,8.85688e-05,0.000669234,-0.00754144,0.0107879,0.0052649,0.0136843,895,1590,1.19721,-11.4207
-322,-566,1.22699,11.6876,2.7428e-05,-0.00926837,0.00011209,2.87797e-05,-0.00926972,0.0120558,0.00618943,0.015647,902,1590,1.227,-11.6876
-315,-566,1.1933,11.776,-0.00100814,-0.0114714,-1.71059e-05,-0.00100811,-0.0114714,-0.00163485,0.00733471,0.0293972,909,1590,1.19331,-11.776
-308,-566,1.27765,11.8646,-0.00237528,-0.0142248,-0.000284758,-0.00236844,-0.0142317,-0.0240127,0.00880512,0.037357,916,1590,1.27764,-11.8647
-301,-566,1.55676,11.7161,-0.00403076,-0.0171893,-0.00059977,-0.00400348,-0.0172166,-0.0454546,0.0104033,0.0406512,923,1590,1.55675,-11.7161
-294,-566,1.08563,12.2664,-0.00615133,-0.0207713,-0.0013165,-0.00603373,-0.0208889,-0.0890928,0.0124135,0.0449779,930,1590,1.08563,-12.2664
-287,-566,1.03607,12.6353,-0.00831171,-0.0249543,-0.00222717,-0.00801882,-0.0252472,-0.130759,0.0148962,0.0469252,937,1590,1.03604,-12.6353
-280,-566,1.07538,12.9973,0,0,0,0,0,0,0,-1,944,1590,1.07538,-12.9973
-273,-566,0.49762,11.2427,0,0,0,0,0,0,0,-1,951,1590,0.497591,-11.2426
-266,-566,0.392151,6.90295,0,0,0,0,0,0,0,-1,958,1590,0.392151,-6.90294
-259,-566,0.343628,6.47437,0,0,0,0,0,0,0,-1,965,1590,0.34363,-6.47438
-252,-566,-7.68311,1.01343,0,0,0,0,0,0,0,-1,972,1590,-7.68308,-1.01348
-245,-566,-11.1835,1.97522,0,0,0,0,0,0,0,-1,979,1590,-11.1835,-1.97527
-238,-566,-8.96832,3.56189,0,0,0,0,0,0,0,-1,986,1590,-8.9683,-3.56188
-231,-566,-6.91888,5.29956,0.381955,-0.0661466,0.26409,0.504231,-0.188423,0.43362,0.413527,0.047404,993,1590,-6.91891,-5.29955
-224,-566,-4.99377,6.96436,0.41785,-0.0664598,0.289059,0.552781,-0.201391,0.436733,0.450901,0.0468724,1000,1590,-4.99378,-6.96431
-217,-566,-2.82867,7.52527,0,0,0,0,0,0,0,-1,1007,1590,-2.82869,-7.52531
-210,-566,-1.03436,8.67737,0,0,0,0,0,0,0,-1,1014,1590,-1.03439,-8.67733
-203,-566,0,0,0,0,0,0,0,0,0,-1,1021,1590,0,0
-196,-566,0,0,0,0,0,0,0,0,0,-1,1028,1590,0,0
-189,-566,0,0,0,0,0,0,0,0,0,-1,1035,1590,0,0
-182,-566,0,0,0,0,0,0,0,0,0,-1,1042,1590,0,0
-175,-566,0,0,0,0,0,0,0,0,0,-1,1049,1590,0,0
-168,-566,0,0,0,0,0,0,0,0,0,-1,1056,1590,0,0
-161,-566,0,0,0,0,0,0,0,0,0,-1,1063,1590,0,0
-154,-566,0,0,0,0,0,0,0,0,0,-1,1070,1590,0,0
-147,-566,0,0,0,0,0,0,0,0,0,-1,1077,1590,0,0
-140,-566,0,0,0,0,0,0,0,0,0,-1,1084,1590,0,0
-133,-566,0,0,0,0,0,0,0,0,0,-1,1091,1590,0,0
-126,-566,0,0,0,0,0,0,0,0,0,-1,1098,1590,0,0
-119,-566,0,0,0,0,0,0,0,0,0,-1,1105,1590,0,0
-112,-566,0,0,0,0,0,0,0,0,0,-1,1112,1590,0,0
-105,-566,0,0,0,0,0,0,0,0,0,-1,1119,1590,0,0
-98,-566,0,0,0,0,0,0,0,0,0,-1,1126,1590,0,0
-91,-566,0,0,0,0,0,0,0,0,0,-1,1133,1590,0,0
-84,-566,0,0,0,0,0,0,0,0,0,-1,1140,1590,0,0
-77,-566,0,0,0,0,0,0,0,0,0,-1,1147,1590,0,0
-70,-566,0,0,0,0,0,0,0,0,0,-1,1154,1590,0,0
-63,-566,0,0,0,0,0,0,0,0,0,-1,1161,1590,0,0
-56,-566,0,0,0,0,0,0,0,0,0,-1,1168,1590,0,0
-49,-566,0,0,0,0,0,0,0,0,0,-1,1175,1590,0,0
-42,-566,0,0,0,0,0,0,0,0,0,-1,1182,1590,0,0
-35,-566,0,0,0,0,0,0,0,0,0,-1,1189,1590,0,0
-28,-566,0,0,0,0,0,0,0,0,0,-1,1196,1590,0,0
-21,-566,0,0,0,0,0,0,0,0,0,-1,1203,1590,0,0
-14,-566,0,0,0,0,0,0,0,0,0,-1,1210,1590,0,0
-7,-566,0,0,0,0,0,0,0,0,0,-1,1217,1590,0,0
0,-566,0,0,0,0,0,0,0,0,0,-1,1224,1590,0,0
7,-566,0,0,0,0,0,0,0,0,0,-1,1231,1590,0,0
14,-566,0,0,0,0,0,0,0,0,0,-1,1238,1590,0,0
21,-566,0,0,0,0,0,0,0,0,0,-1,1245,1590,0,0
28,-566,0,0,0,0,0,0,0,0,0,-1,1252,1590,0,0
35,-566,0,0,0,0,0,0,0,0,0,-1,1259,1590,0,0
42,-566,0,0,0,0,0,0,0,0,0,-1,1266,1590,0,0
49,-566,0,0,0,0,0,0,0,0,0,-1,1273,1590,0,0
56,-566,0,0,0,0,0,0,0,0,0,-1,1280,1590,0,0
63,-566,0,0,0,0,0,0,0,0,0,-1,1287,1590,0,0
70,-566,0,0,0,0,0,0,0,0,0,-1,1294,1590,0,0
77,-566,0,0,0,0,0,0,0,0,0,-1,1301,1590,0,0
84,-566,0,0,0,0,0,0,0,0,0,-1,1308,1590,0,0
91,-566,0,0,0,0,0,0,0,0,0,-1,1315,1590,0,0
98,-566,0,0,0,0,0,0,0,0,0,-1,1322,1590,0,0
105,-566,0,0,0,0,0,0,0,0,0,-1,1329,1590,0,0
112,-566,0,0,0,0,0,0,0,0,0,-1,1336,1590,0,0
119,-566,0,0,0,0,0,0,0,0,0,-1,1343,1590,0,0
126,-566,0,0,0,0,0,0,0,0,0,-1,1350,1590,0,0
133,-566,0,0,0,0,0,0,0,0,0,-1,1357,1590,0,0
140,-566,0,0,0,0,0,0,0,0,0,-1,1364,1590,0,0
147,-566,0,0,0,0,0,0,0,0,0,-1,1371,1590,0,0
154,-566,0,0,0,0,0,0,0,0,0,-1,1378,1590,0,0
161,-566,0,0,0,0,0,0,0,0,0,-1,1385,1590,0,0
168,-566,0,0,0,0,0,0,0,0,0,-1,1392,1590,0,0
175,-566,0,0,0,0,0,0,0,0,0,-1,1399,1590,0,0
182,-566,0,0,0,0,0,0,0,0,0,-1,1406,1590,0,0
189,-566,0,0,0,0,0,0,0,0,0,-1,1413,1590,0,0
196,-566,0,0,0,0,0,0,0,0,0,-1,1420,1590,0,0
203,-566,0,0,0,0,0,0,0,0,0,-1,1427,1590,0,0
210,-566,0,0,0,0,0,0,0,0,0,-1,1434,1590,0,0
217,-566,0,0,0,0,0,0,0,0,0,-1,1441,1590,0,0
224,-566,0,0,0,0,0,0,0,0,0,-1,1448,1590,0,0
231,-566,0,0,0,0,0,0,0,0,0,-1,1455,1590,0,0
238,-566,0,0,0,0,0,0,0,0,0,-1,1462,1590,0,0
245,-566,0,0,0,0,0,0,0,0,0,-1,1469,1590,0,0
252,-566,0,0,0,0,0,0,0,0,0,-1,1476,1590,0,0
259,-566,0,0,0,0,0,0,0,0,0,-1,1483,1590,0,0
266,-566,0,0,0,0,0,0,0,0,0,-1,1490,1590,0,0
273,-566,0,0,0,0,0,0,0,0,0,-1,1497,1590,0,0
280,-566,0,0,0,0,0,0,0,0,0,-1,1504,1590,0,0
287,-566,0,0,0,0,0,0,0,0,0,-1,1511,1590,0,0
294,-566,0,0,0,0,0,0,0,0,0,-1,1518,1590,0,0
301,-566,0,0,0,0,0,0,0,0,0,-1,1525,1590,0,0
308,-566,0,0,0,0,0,0,0,0,0,-1,1532,1590,0,0
315,-566,0,0,0,0,0,0,0,0,0,-1,1539,1590,0,0
322,-566,6.07983,4.44873,0,0,0,0,0,0,0,-1,1546,1590,6.07983,-4.44873
329,-566,5.77026,3.47534,0,0,0,0,0,0,0,-1,1553,1590,5.77026,-3.47535
336,-566,5.41138,2.62915,0,0,0,0,0,0,0,-1,1560,1590,5.41138,-2.62909
343,-566,4.81873,1.79089,0,0,0,0,0,0,0,-1,1567,1590,4.81878,-1.79095
350,-566,4.41663,2.44214,0,0,0,0,0,0,0,-1,1574,1590,4.41666,-2.44214
357,-566,6.34058,5.18579,0,0,0,0,0,0,0,-1,1581,1590,6.34059,-5.1858
364,-566,6.06262,4.20251,0,0,0,0,0,0,0,-1,1588,1590,6.06259,-4.20246
371,-566,5.78455,3.21912,0,0,0,0,0,0,0,-1,1595,1590,5.7846,-3.21912
378,-566,5.7439,0.695557,0,0,0,0,0,0,0,-1,1602,1590,5.74392,-0.695531
385,-566,5.67615,-0.573975,0,0,0,0,0,0,0,-1,1609,1590,5.67612,0.573956
392,-566,5.78638,1.82434,0,0,0,0,0,0,0,-1,1616,1590,5.78637,-1.82439
399,-566,5.36621,1.7373,0,0,0,0,0,0,0,-1,1623,1590,5.36627,-1.7373
406,-566,4.30359,5.26868,0,0,0,0,0,0,0,-1,1630,1590,4.30364,-5.26867
413,-566,4.27124,5.79492,0,0,0,0,0,0,0,-1,1637,1590,4.27123,-5.7949
420,-566,7.19812,8.25146,0,0,0,0,0,0,0,-1,1644,1590,7.19817,-8.25149
427,-566,10.455,10.6842,0,0,0,0,0,0,0,-1,1651,1590,10.455,-10.6842
434,-566,7.92542,12.3649,0,0,0,0,0,0,0,-1,1658,1590,7.92538,-12.3648
441,-566,8.45959,13.0645,0,0,0,0,0,0,0,-1,1665,1590,8.45957,-13.0644
448,-566,8.40942,12.5203,-0.00904188,-0.0202732,0.0229587,0.00897795,-0.038293,0.665454,0.0289885,0.0356056,1672,1590,8.40937,-12.5202
455,-566,8.43042,12.6809,-0.0083331,-0.0187074,0.0198532,0.00699946,-0.0340399,0.657618,0.0253506,0.0272866,1679,1590,8.43045,-12.6809
462,-566,8.40344,12.5624,-0.0074667,-0.0169253,0.0169826,0.00543282,-0.0298248,0.649599,0.0219197,0.0164065,1686,1590,8.40338,-12.5624
469,-566,8.39368,12.3458,-0.0064854,-0.0152482,0.0142175,0.00401044,-0.0257441,0.63593,0.0186439,0.0135686,1693,1590,8.39366,-12.3459
476,-566,8.40601,12.142,-0.00550078,-0.0134814,0.0117039,0.00287438,-0.0218566,0.621109,0.0156176,0.0109527,1700,1590,8.406,-12.142
483,-566,8.41138,11.9434,-0.00433517,-0.0115339,0.00938292,0.00211508,-0.0179841,0.60225,0.0127531,0.0102707,1707,1590,8.41137,-11.9433
490,-566,8.40588,11.7389,-0.00326335,-0.00919744,0.00740924,0.00175085,-0.0142116,0.59495,0.0101087,0.0104008,1714,1590,8.40592,-11.7389
497,-566,8.43164,11.5502,-0.00217673,-0.00716215,0.00538543,0.00126491,-0.0106038,0.568649,0.00752635,0.014046,1721,1590,8.43164,-11.5501
504,-566,8.45142,11.3527,-0.00113024,-0.00530777,0.0035022,0.000858784,-0.00729679,0.516508,0.0051746,0.0188483,1728,1590,8.45141,-11.3527
511,-566,8.44434,11.149,-0.00016918,-0.00312738,0.00188272,0.000745958,-0.00404251,0.452443,0.002975,0.0177231,1735,1590,8.44439,-11.149
518,-566,8.43848,10.9491,0.000613756,-0.00102361,0.000466223,0.000737201,-0.00114706,0.258837,0.00109642,0.0107288,1742,1590,8.4385,-10.9491
525,-566,8.42651,10.7301,0.00138014,0.000625635,-0.000719078,0.00181492,0.000190857,-0.543819,0.00115161,0.010178,1749,1590,8.42648,-10.7301
532,-566,8.41431,10.5193,0.00217777,0.00187879,-0.00166037,0.00369537,0.000361195,-0.740502,0.00235245,0.0129196,1756,1590,8.41433,-10.5193
539,-566,8.42322,10.2982,0.00275926,0.00246819,-0.00220999,0.0048285,0.000398948,-0.752519,0.0030946,0.0185996,1763,1590,8.4232,-10.2982
546,-566,8.4574,10.0422,0.00349221,0.00287293,-0.00256518,0.00576637,0.000598775,-0.725334,0.00366101,0.0210183,1770,1590,8.45739,-10.0422
553,-566,8.49072,9.89502,0.00484155,0.00328189,-0.00308235,0.00724118,0.000882254,-0.661498,0.0045619,0.0369811,1777,1590,8.49072,-9.89504
560,-566,8.33643,9.66077,0,0,0,0,0,0,0,-1,1784,1590,8.33639,-9.66077
567,-566,8.38525,9.3042,0,0,0,0,0,0,0,-1,1791,1590,8.3852,-9.30417
574,-566,7.99548,3.14514,0,0,0,0,0,0,0,-1,1798,1590,7.99543,-3.14511
581,-566,2.54102,5.1311,0,0,0,0,0,0,0,-1,1805,1590,2.54099,-5.13111
588,-566,-1.91321,8.39197,0,0,0,0,0,0,0,-1,1812,1590,-1.91316,-8.39199
595,-566,9.0271,4.66467,0,0,0,0,0,0,0,-1,1819,1590,9.02705,-4.66468
602,-566,9.953,3.54895,0,0,0,0,0,0,0,-1,1826,1590,9.953,-3.54898
609,-566,0,0,0,0,0,0,0,0,0,-1,1833,1590,0,0
616,-566,0,0,0,0,0,0,0,0,0,-1,1840,1590,0,0
623,-566,0,0,0,0,0,0,0,0,0,-1,1847,1590,0,0
630,-566,0,0,0,0,0,0,0,0,0,-1,1854,1590,0,0
637,-566,0,0,0,0,0,0,0,0,0,-1,1861,1590,0,0
644,-566,0,0,0,0,0,0,0,0,0,-1,1868,1590,0,0
651,-566,0,0,0,0,0,0,0,0,0,-1,1875,1590,0,0
658,-566,0,0,0,0,0,0,0,0,0,-1,1882,1590,0,0
665,-566,0,0,0,0,0,0,0,0,0,-1,1889,1590,0,0
672,-566,0,0,0,0,0,0,0,0,0,-1,1896,1590,0,0
679,-566,0,0,0,0,0,0,0,0,0,-1,1903,1590,0,0
686,-566,0,0,0,0,0,0,0,0,0,-1,1910,1590,0,0
693,-566,0,0,0,0,0,0,0,0,0,-1,1917,1590,0,0
700,-566,0,0,0,0,0,0,0,0,0,-1,1924,1590,0,0
707,-566,0,0,0,0,0,0,0,0,0,-1,1931,1590,0,0
714,-566,0,0,0,0,0,0,0,0,0,-1,1938,1590,0,0
721,-566,0,0,0,0,0,0,0,0,0,-1,1945,1590,0,0
728,-566,0,0,0,0,0,0,0,0,0,-1,1952,1590,0,0
735,-566,0,0,0,0,0,0,0,0,0,-1,1959,1590,0,0
742,-566,0,0,0,0,0,0,0,0,0,-1,1966,1590,0,0
749,-566,0,0,0,0,0,0,0,0,0,-1,1973,1590,0,0
756,-566,0,0,0,0,0,0,0,0,0,-1,1980,1590,0,0
763,-566,0,0,0,0,0,0,0,0,0,-1,1987,1590,0,0
770,-566,0,0,0,0,0,0,0,0,0,-1,1994,1590,0,0
777,-566,0,0,0,0,0,0,0,0,0,-1,2001,1590,0,0
784,-566,0,0,0,0,0,0,0,0,0,-1,2008,1590,0,0
791,-566,0,0,0,0,0,0,0,0,0,-1,2015,1590,0,0
798,-566,0,0,0,0,0,0,0,0,0,-1,2022,1590,0,0
805,-566,0,0,0,0,0,0,0,0,0,-1,2029,1590,0,0
812,-566,0,0,0,0,0,0,0,0,0,-1,2036,1590,0,0
-700,-573,0,0,0,0,0,0,0,0,0,-1,524,1597,0,0
-693,-573,0,0,0,0,0,0,0,0,0,-1,531,1597,0,0
-686,-573,0,0,0,0,0,0,0,0,0,-1,538,1597,0,0
-679,-573,0,0,0,0,0,0,0,0,0,-1,545,1597,0,0
-672,-573,0,0,0,0,0,0,0,0,0,-1,552,1597,0,0
-665,-573,0,0,0,0,0,0,0,0,0,-1,559,1597,0,0
-658,-573,0,0,0,0,0,0,0,0,0,-1,566,1597,0,0
-651,-573,0,0,0,0,0,0,0,0,0,-1,573,1597,0,0
-644,-573,0,0,0,0,0,0,0,0,0,-1,580,1597,0,0
-637,-573,0,0,0,0,0,0,0,0,0,-1,587,1597,0,0
-630,-573,0,0,0,0,0,0,0,0,0,-1,594,1597,0,0
-623,-573,0,0,0,0,0,0,0,0,0,-1,601,1597,0,0
-616,-573,0,0,0,0,0,0,0,0,0,-1,608,1597,0,0
-609,-573,0,0,0,0,0,0,0,0,0,-1,615,1597,0,0
-602,-573,0,0,0,0,0,0,0,0,0,-1,622,1597,0,0
-595,-573,0,0,0,0,0,0,0,0,0,-1,629,1597,0,0
-588,-573,0,0,0,0,0,0,0,0,0,-1,636,1597,0,0
-581,-573,0,0,0,0,0,0,0,0,0,-1,643,1597,0,0
-574,-573,0,0,0,0,0,0,0,0,0,-1,650,1597,0,0
-567,-573,0,0,0,0,0,0,0,0,0,-1,657,1597,0,0
-560,-573,0,0,0,0,0,0,0,0,0,-1,664,1597,0,0
-553,-573,0,0,0,0,0,0,0,0,0,-1,671,1597,0,0
-546,-573,0,0,0,0,0,0,0,0,0,-1,678,1597,0,0
-539,-573,0,0,0,0,0,0,0,0,0,-1,685,1597,0,0
-532,-573,0,0,0,0,0,0,0,0,0,-1,692,1597,0,0
-525,-573,0,0,0,0,0,0,0,0,0,-1,699,1597,0,0
-518,-573,0,0,0,0,0,0,0,0,0,-1,706,1597,0,0
-511,-573,0,0,0,0,0,0,0,0,0,-1,713,1597,0,0
-504,-573,0,0,0,0,0,0,0,0,0,-1,720,1597,0,0
-497,-573,0,0,0,0,0,0,0,0,0,-1,727,1597,0,0
-490,-573,0,0,0,0,0,0,0,0,0,-1,734,1597,0,0
-483,-573,0,0,0,0,0,0,0,0,0,-1,741,1597,0,0
-476,-573,-1.86273,0.293091,0.0819196,0.336299,0.0986011,0.370043,0.0481764,1.24107,0.232307,0.0455819,748,1597,-1.86276,-0.29314
-469,-573,-1.41681,1.13379,0.0781322,0.297107,0.0895538,0.329067,0.0461721,1.228,0.205722,0.0421042,755,1597,-1.41681,-1.13382
-462,-573,-0.748535,2.02588,0.0710316,0.254415,0.0791545,0.283855,0.0415919,1.21472,0.177009,0.0480288,762,1597,-0.748533,-2.02584
-455,-573,-0.112976,2.70703,0,0,0,0,0,0,0,-1,769,1597,-0.112988,-2.70697
-448,-573,-1.26172,3.33252,0,0,0,0,0,0,0,-1,776,1597,-1.26173,-3.33248
-441,-573,0.108582,5.06726,0,0,0,0,0,0,0,-1,783,1597,0.108584,-5.06721
-434,-573,1.61768,7.05444,0,0,0,0,0,0,0,-1,790,1597,1.61767,-7.05446
-427,-573,0.47406,8.32727,0,0,0,0,0,0,0,-1,797,1597,0.474057,-8.32728
-420,-573,0.905884,8.46606,0.00916624,0.0366747,0.0133949,0.0421195,0.00372144,1.18471,0.026925,0.0405543,804,1597,0.905882,-8.46602
-413,-573,1.42834,8.66699,0.00334202,0.0174608,0.00662468,0.0200824,0.000720431,1.19398,0.0131547,0.0354832,811,1597,1.42834,-8.66702
-406,-573,1.41711,8.94568,-5.31666e-05,0.00636542,0.00232061,0.00711653,-0.000804274,1.25777,0.00503391,0.0177463,818,1597,1.4171,-8.9457
-399,-573,1.40039,9.22241,-0.00034881,0.0037171,0.00084845,0.00388705,-0.000518755,1.37311,0.00278046,0.01064,825,1597,1.40039,-9.22246
-392,-573,1.41718,9.44153,-0.000823085,0.00205696,-2.66414e-05,0.0020572,-0.000823332,-1.56155,0.00171318,0.0113656,832,1597,1.41718,-9.44149
-385,-573,1.43164,9.67542,-0.0010961,0.000942998,-0.000404863,0.00102044,-0.00117354,-1.38179,0.00126773,0.0139182,839,1597,1.43163,-9.6754
-378,-573,1.42273,9.92468,-0.00110089,4.41453e-05,-0.000486785,0.000223117,-0.00127986,-1.21848,0.000936516,0.0154336,846,1597,1.42271,-9.92466
-371,-573,1.40027,10.1724,-0.000910492,-0.000697104,-0.000538354,-0.000254973,-0.00135262,-0.883223,0.000829918,0.0158337,853,1597,1.40029,-10.1724
-364,-573,1.3736,10.3774,-0.00064737,-0.00140069,-0.000554563,-0.000353648,-0.00169441,-0.487082,0.00103212,0.0182074,860,1597,1.37361,-10.3775
-357,-573,1.40015,10.5746,-0.000102703,-0.00207927,-0.000530911,3.08739e-05,-0.00221284,-0.246484,0.00148563,0.021196,867,1597,1.40012,-10.5746
-350,-573,1.42505,10.8223,0.00040222,-0.00295967,-0.000239939,0.000419258,-0.00297671,-0.0708912,0.00213797,0.0171227,874,1597,1.42506,-10.8223
-343,-573,1.4223,11.0277,0.000774115,-0.00396871,6.15415e-05,0.000774914,-0.00396951,0.0129728,0.0029389,0.0199639,881,1597,1.42228,-11.0277
-336,-573,1.39819,11.2703,0.000852712,-0.00461012,8.45353e-05,0.00085402,-0.00461142,0.0154697,0.00339495,0.0159638,888,1597,1.39817,-11.2703
-329,-573,1.41479,11.457,0.000710842,-0.0060183,-0.000111579,0.000712692,-0.00602015,-0.0165753,0.00427087,0.0168905,895,1597,1.41479,-11.457
-322,-573,1.43555,11.6887,0.000371244,-0.00735136,-0.000220109,0.000377513,-0.00735762,-0.0284711,0.00503564,0.0126028,902,1597,1.43553,-11.6887
-315,-573,1.52161,11.9132,-0.000241479,-0.00916579,-0.000483425,-0.000215368,-0.0091919,-0.053959,0.00605742,0.0195272,909,1597,1.52159,-11.9132
-308,-573,1.56482,11.9535,-0.00109949,-0.0116655,-0.000875002,-0.00102751,-0.0117375,-0.0820675,0.00750599,0.0284871,916,1597,1.56484,-11.9535
-301,-573,1.55945,12.1265,-0.00225785,-0.0143833,-0.00138102,-0.00210255,-0.0145386,-0.111984,0.0090731,0.0307794,923,1597,1.55946,-12.1264
-294,-573,1.5141,12.4272,-0.00363435,-0.0177707,-0.00218894,-0.00330316,-0.0181019,-0.150161,0.0111315,0.0371446,930,1597,1.51408,-12.4272
-287,-573,1.44806,12.5507,-0.00489228,-0.0217242,-0.00310264,-0.00433858,-0.0222779,-0.176601,0.0136378,0.0476681,937,1597,1.44803,-12.5506
-280,-573,1.44525,12.6306,0,0,0,0,0,0,0,-1,944,1597,1.44526,-12.6306
-273,-573,-0.225037,10.6533,0,0,0,0,0,0,0,-1,951,1597,-0.225018,-10.6533
-266,-573,1.31116,7.1814,0,0,0,0,0,0,0,-1,958,1597,1.31118,-7.18142
-259,-573,1.2514,6.70959,0,0,0,0,0,0,0,-1,965,1597,1.25137,-6.70965
-252,-573,2.07874,5.27161,0,0,0,0,0,0,0,-1,972,1597,2.07875,-5.27157
-245,-573,-10.2592,1.09827,0,0,0,0,0,0,0,-1,979,1597,-10.2592,-1.09823
-238,-573,-11.5463,4.44141,0,0,0,0,0,0,0,-1,986,1597,-11.5463,-4.44146
-231,-573,-9.13165,5.99487,0.340883,-0.0770663,0.221881,0.436706,-0.172889,0.407672,0.36277,0.0484339,993,1597,-9.13168,-5.99481
-224,-573,-6.70044,7.40857,0.374159,-0.0839684,0.241542,0.477981,-0.18779,0.405954,0.396367,0.0469559,1000,1597,-6.70045,-7.40851
-217,-573,-4.25824,8.59119,0.401881,-0.0975165,0.253228,0.507814,-0.20345,0.396208,0.422996,0.0482801,1007,1597,-4.25824,-8.59122
-210,-573,-2.39661,9.73914,0.427939,-0.11401,0.261389,0.533464,-0.219534,0.383697,0.44716,0.0446138,1014,1597,-2.39658,-9.73915
-203,-573,-0.557373,10.9005,0,0,0,0,0,0,0,-1,1021,1597,-0.557387,-10.9006
-196,-573,-1.65344,9.02246,0,0,0,0,0,0,0,-1,1028,1597,-1.65349,-9.02241
-189,-573,-6.12915,6.66882,0,0,0,0,0,0,0,-1,1035,1597,-6.12913,-6.66884
-182,-573,0,0,0,0,0,0,0,0,0,-1,1042,1597,0,0
-175,-573,0,0,0,0,0,0,0,0,0,-1,1049,1597,0,0
-168,-573,0,0,0,0,0,0,0,0,0,-1,1056,1597,0,0
-161,-573,0,0,0,0,0,0,0,0,0,-1,1063,1597,0,0
-154,-573,0,0,0,0,0,0,0,0,0,-1,1070,1597,0,0
-147,-573,0,0,0,0,0,0,0,0,0,-1,1077,1597,0,0
-140,-573,0,0,0,0,0,0,0,0,0,-1,1084,1597,0,0
-133,-573,0,0,0,0,0,0,0,0,0,-1,1091,1597,0,0
-126,-573,0,0,0,0,0,0,0,0,0,-1,1098,1597,0,0
-119,-573,0,0,0,0,0,0,0,0,0,-1,1105,1597,0,0
-112,-573,0,0,0,0,0,0,0,0,0,-1,1112,1597,0,0
-105,-573,0,0,0,0,0,0,0,0,0,-1,1119,1597,0,0
-98,-573,0,0,0,0,0,0,0,0,0,-1,1126,1597,0,0
-91,-573,0,0,0,0,0,0,0,0,0,-1,1133,1597,0,0
-84,-573,0,0,0,0,0,0,0,0,0,-1,1140,1597,0,0
-77,-573,0,0,0,0,0,0,0,0,0,-1,1147,1597,0,0
-70,-573,0,0,0,0,0,0,0,0,0,-1,1154,1597,0,0
-63,-573,0,0,0,0,0,0,0,0,0,-1,1161,1597,0,0
-56,-573,0,0,0,0,0,0,0,0,0,-1,1168,1597,0,0
-49,-573,0,0,0,0,0,0,0,0,0,-1,1175,1597,0,0
-42,-573,0,0,0,0,0,0,0,0,0,-1,1182,1597,0,0
-35,-573,0,0,0,0,0,0,0,0,0,-1,1189,1597,0,0
-28,-573,0,0,0,0,0,0,0,0,0,-1,1196,1597,0,0
-21,-573,0,0,0,0,0,0,0,0,0,-1,1203,1597,0,0
-14,-573,0,0,0,0,0,0,0,0,0,-1,1210,1597,0,0
-7,-573,0,0,0,0,0,0,0,0,0,-1,1217,1597,0,0
0,-573,0,0,0,0,0,0,0,0,0,-1,1224,1597,0,0
7,-573,0,0,0,0,0,0,0,0,0,-1,1231,1597,0,0
14,-573,0,0,0,0,0,0,0,0,0,-1,1238,1597,0,0
21,-573,0,0,0,0,0,0,0,0,0,-1,1245,1597,0,0
28,-573,0,0,0,0,0,0,0,0,0,-1,1252,1597,0,0
35,-573,0,0,0,0,0,0,0,0,0,-1,1259,1597,0,0
42,-573,0,0,0,0,0,0,0,0,0,-1,1266,1597,0,0
49,-573,0,0,0,0,0,0,0,0,0,-1,1273,1597,0,0
56,-573,0,0,0,0,0,0,0,0,0,-1,1280,1597,0,0
63,-573,0,0,0,0,0,0,0,0,0,-1,1287,1597,0,0
70,-573,0,0,0,0,0,0,0,0,0,-1,1294,1597,0,0
77,-573,0,0,0,0,0,0,0,0,0,-1,1301,1597,0,0
84,-573,0,0,0,0,0,0,0,0,0,-1,1308,1597,0,0
91,-573,0,0,0,0,0,0,0,0,0,-1,1315,1597,0,0
98,-573,0,0,0,0,0,0,0,0,0,-1,1322,1597,0,0
105,-573,0,0,0,0,0,0,0,0,0,-1,1329,1597,0,0
112,-573,0,0,0,0,0,0,0,0,0,-1,1336,1597,0,0
119,-573,0,0,0,0,0,0,0,0,0,-1,1343,1597,0,0
126,-573,0,0,0,0,0,0,0,0,0,-1,1350,1597,0,0
133,-573,0,0,0,0,0,0,0,0,0,-1,1357,1597,0,0
140,-573,0,0,0,0,0,0,0,0,0,-1,1364,1597,0,0
147,-573,0,0,0,0,0,0,0,0,0,-1,1371,1597,0,0
154,-573,0,0,0,0,0,0,0,0,0,-1,1378,1597,0,0
161,-573,0,0,0,0,0,0,0,0,0,-1,1385,1597,0,0
168,-573,0,0,0,0,0,0,0,0,0,-1,1392,1597,0,0
175,-573,0,0,0,0,0,0,0,0,0,-1,1399,1597,0,0
182,-573,0,0,0,0,0,0,0,0,0,-1,1406,1597,0,0
189,-573,0,0,0,0,0,0,0,0,0,-1,1413,1597,0,0
196,-573,0,0,0,0,0,0,0,0,0,-1,1420,1597,0,0
203,-573,0,0,0,0,0,0,0,0,0,-1,1427,1597,0,0
210,-573,0,0,0,0,0,0,0,0,0,-1,1434,1597,0,0
217,-573,0,0,0,0,0,0,0,0,0,-1,1441,1597,0,0
224,-573,0,0,0,0,0,0,0,0,0,-1,1448,1597,0,0
231,-573,0,0,0,0,0,0,0,0,0,-1,1455,1597,0,0
238,-573,0,0,0,0,0,0,0,0,0,-1,1462,1597,0,0
245,-573,0,0,0,0,0,0,0,0,0,-1,1469,1597,0,0
252,-573,0,0,0,0,0,0,0,0,0,-1,1476,1597,0,0
259,-573,0,0,0,0,0,0,0,0,0,-1,1483,1597,0,0
266,-573,0,0,0,0,0,0,0,0,0,-1,1490,1597,0,0
273,-573,0,0,0,0,0,0,0,0,0,-1,1497,1597,0,0
280,-573,0,0,0,0,0,0,0,0,0,-1,1504,1597,0,0
287,-573,0,0,0,0,0,0,0,0,0,-1,1511,1597,0,0
294,-573,0,0,0,0,0,0,0,0,0,-1,1518,1597,0,0
301,-573,0,0,0,0,0,0,0,0,0,-1,1525,1597,0,0
308,-573,5.93042,9.71143,0,0,0,0,0,0,0,-1,1532,1597,5.93046,-9.71144
315,-573,4.34204,11.719,0,0,0,0,0,0,0,-1,1539,1597,4.34205,-11.719
322,-573,10.3269,7.77563,0,0,0,0,0,0,0,-1,1546,1597,10.327,-7.77565
329,-573,4.99573,3.80273,0,0,0,0,0,0,0,-1,1553,1597,4.9957,-3.80273
336,-573,4.85693,2.53455,0,0,0,0,0,0,0,-1,1560,1597,4.8569,-2.53459
343,-573,4.11877,0.735596,0,0,0,0,0,0,0,-1,1567,1597,4.11878,-0.735585
350,-573,2.53748,1.56433,0,0,0,0,0,0,0,-1,1574,1597,2.53753,-1.5643
357,-573,7.40247,4.03613,0,0,0,0,0,0,0,-1,1581,1597,7.40244,-4.03614
364,-573,7.14551,3.02087,0,0,0,0,0,0,0,-1,1588,1597,7.14556,-3.02084
371,-573,6.88867,2.00549,0,0,0,0,0,0,0,-1,1595,1597,6.88868,-2.00553
378,-573,8.62012,6.09106,0,0,0,0,0,0,0,-1,1602,1597,8.62012,-6.09103
385,-573,6.54346,-0.951904,0,0,0,0,0,0,0,-1,1609,1597,6.54349,0.951901
392,-573,6.41833,-2.18225,0,0,0,0,0,0,0,-1,1616,1597,6.41831,2.18228
399,-573,4.26282,4.73657,0,0,0,0,0,0,0,-1,1623,1597,4.26285,-4.73652
406,-573,6.82715,10.823,0,0,0,0,0,0,0,-1,1630,1597,6.82719,-10.823
413,-573,8.90552,13.1737,0,0,0,0,0,0,0,-1,1637,1597,8.90553,-13.1737
420,-573,9.05786,13.2947,0,0,0,0,0,0,0,-1,1644,1597,9.0579,-13.2947
427,-573,7.84448,12.2317,0,0,0,0,0,0,0,-1,1651,1597,7.84444,-12.2317
434,-573,7.93726,12.5884,-0.00660621,-0.0185978,0.022868,0.0110389,-0.036243,0.657188,0.0285618,0.0442138,1658,1597,7.93724,-12.5883
441,-573,8.2489,13.0194,-0.00649732,-0.0169316,0.0199737,0.00892936,-0.0323583,0.657652,0.0250841,0.0308136,1665,1597,8.24885,-13.0194
448,-573,8.22009,12.9541,-0.00610803,-0.015082,0.0171753,0.00715676,-0.0283468,0.657631,0.0216808,0.0189649,1672,1597,8.22008,-12.9541
455,-573,8.20361,12.749,-0.00562744,-0.0136539,0.0146634,0.00556196,-0.0248433,0.651823,0.0186941,0.0157792,1679,1597,8.20356,-12.7491
462,-573,8.17432,12.5344,-0.00498484,-0.012073,0.0123502,0.00431969,-0.0213776,0.645669,0.0158886,0.01911,1686,1597,8.17432,-12.5345
469,-573,8.19958,12.334,-0.00423359,-0.010681,0.0101103,0.0031545,-0.018069,0.631068,0.0132236,0.0161722,1693,1597,8.19954,-12.334
476,-573,8.23511,12.1178,-0.00349552,-0.00929355,0.00808158,0.00219128,-0.0149803,0.613188,0.0107917,0.0143632,1700,1597,8.23508,-12.1178
483,-573,8.23059,11.9269,-0.00258261,-0.00778573,0.00621278,0.00155132,-0.0119197,0.587119,0.0085108,0.0113455,1707,1597,8.23061,-11.9268
490,-573,8.22107,11.7458,-0.00168494,-0.00594198,0.00464474,0.00129577,-0.00892269,0.570545,0.00642409,0.00947685,1714,1597,8.22103,-11.7459
497,-573,8.2312,11.553,-0.000752054,-0.00439382,0.00299355,0.000930913,-0.00607679,0.51216,0.00439449,0.0142045,1721,1597,8.23114,-11.5529
504,-573,8.23291,11.3479,9.51002e-05,-0.00289941,0.00151053,0.000724689,-0.003529,0.394905,0.00262775,0.0172307,1728,1597,8.23296,-11.3479
511,-573,8.22839,11.1366,0.000889826,-0.00119455,0.000234388,0.000915858,-0.00122058,0.11061,0.00123765,0.0179741,1735,1597,8.22839,-11.1366
518,-573,8.22424,10.927,0.00154437,0.000385032,-0.000859811,0.00200166,-7.22624e-05,-0.488805,0.00135917,0.0132748,1742,1597,8.22422,-10.927
525,-573,8.23804,10.7234,0.0021973,0.00162345,-0.00173954,0.00367342,0.000147331,-0.703663,0.00240134,0.0159215,1749,1597,8.23809,-10.7234
532,-573,8.22083,10.4985,0.0028709,0.00255587,-0.00238863,0.0051072,0.000319567,-0.752474,0.00330343,0.0155674,1756,1597,8.22082,-10.4985
539,-573,8.18774,10.2791,0.00333728,0.00281227,-0.00266336,0.00575104,0.000398517,-0.736276,0.00370833,0.0211811,1763,1597,8.18779,-10.2791
546,-573,8.25439,10.061,0.00402952,0.00303625,-0.00282136,0.00639762,0.00066815,-0.698277,0.00406073,0.0332505,1770,1597,8.25438,-10.0611
553,-573,8.06567,9.80896,0.00540326,0.00363732,-0.00333865,0.00797373,0.00106686,-0.656123,0.0049983,0.0478278,1777,1597,8.06571,-9.80896
560,-573,8.04126,9.53345,0,0,0,0,0,0,0,-1,1784,1597,8.04128,-9.53339
567,-573,4.99597,2.77759,0,0,0,0,0,0,0,-1,1791,1597,4.99596,-2.7776
574,-573,0.83374,5.7041,0,0,0,0,0,0,0,-1,1798,1597,0.833718,-5.70405
581,-573,-0.224854,7.41602,0,0,0,0,0,0,0,-1,1805,1597,-0.224904,-7.41596
588,-573,-0.134033,7.67065,0,0,0,0,0,0,0,-1,1812,1597,-0.134037,-7.67063
595,-573,-0.0825195,8.35083,0,0,0,0,0,0,0,-1,1819,1597,-0.0824684,-8.35088
602,-573,0,0,0,0,0,0,0,0,0,-1,1826,1597,0,0
609,-573,0,0,0,0,0,0,0,0,0,-1,1833,1597,0,0
616,-573,0,0,0,0,0,0,0,0,0,-1,1840,1597,0,0
623,-573,0,0,0,0,0,0,0,0,0,-1,1847,1597,0,0
630,-573,0,0,0,0,0,0,0,0,0,-1,1854,1597,0,0
637,-573,0,0,0,0,0,0,0,0,0,-1,1861,1597,0,0
644,-573,0,0,0,0,0,0,0,0,0,-1,1868,1597,0,0
651,-573,0,0,0,0,0,0,0,0,0,-1,1875,1597,0,0
658,-573,0,0,0,0,0,0,0,0,0,-1,1882,1597,0,0
665,-573,0,0,0,0,0,0,0,0,0,-1,1889,1597,0,0
672,-573,0,0,0,0,0,0,0,0,0,-1,1896,1597,0,0
679,-573,0,0,0,0,0,0,0,0,0,-1,1903,1597,0,0
686,-573,0,0,0,0,0,0,0,0,0,-1,1910,1597,0,0
693,-573,0,0,0,0,0,0,0,0,0,-1,1917,1597,0,0
700,-573,0,0,0,0,0,0,0,0,0,-1,1924,1597,0,0
707,-573,0,0,0,0,0,0,0,0,0,-1,1931,1597,0,0
714,-573,0,0,0,0,0,0,0,0,0,-1,1938,1597,0,0
721,-573,0,0,0,0,0,0,0,0,0,-1,1945,1597,0,0
728,-573,0,0,0,0,0,0,0,0,0,-1,1952,1597,0,0
735,-573,0,0,0,0,0,0,0,0,0,-1,1959,1597,0,0
742,-573,0,0,0,0,0,0,0,0,0,-1,1966,1597,0,0
749,-573,0,0,0,0,0,0,0,0,0,-1,1973,1597,0,0
756,-573,0,0,0,0,0,0,0,0,0,-1,1980,1597,0,0
763,-573,0,0,0,0,0,0,0,0,0,-1,1987,1597,0,0
770,-573,0,0,0,0,0,0,0,0,0,-1,1994,1597,0,0
777,-573,0,0,0,0,0,0,0,0,0,-1,2001,1597,0,0
784,-573,0,0,0,0,0,0,0,0,0,-1,2008,1597,0,0
791,-573,0,0,0,0,0,0,0,0,0,-1,2015,1597,0,0
798,-573,0,0,0,0,0,0,0,0,0,-1,2022,1597,0,0
805,-573,0,0,0,0,0,0,0,0,0,-1,2029,1597,0,0
812,-573,0,0,0,0,0,0,0,0,0,-1,2036,1597,0,0
-700,-580,0,0,0,0,0,0,0,0,0,-1,524,1604,0,0
-693,-580,0,0,0,0,0,0,0,0,0,-1,531,1604,0,0
-686,-580,0,0,0,0,0,0,0,0,0,-1,538,1604,0,0
-679,-580,0,0,0,0,0,0,0,0,0,-1,545,1604,0,0
-672,-580,0,0,0,0,0,0,0,0,0,-1,552,1604,0,0
-665,-580,0,0,0,0,0,0,0,0,0,-1,559,1604,0,0
-658,-580,0,0,0,0,0,0,0,0,0,-1,566,1604,0,0
-651,-580,0,0,0,0,0,0,0,0,0,-1,573,1604,0,0
-644,-580,0,0,0,0,0,0,0,0,0,-1,580,1604,0,0
-637,-580,0,0,0,0,0,0,0,0,0,-1,587,1604,0,0
-630,-580,0,0,0,0,0,0,0,0,0,-1,594,1604,0,0
-623,-580,0,0,0,0,0,0,0,0,0,-1,601,1604,0,0
-616,-580,0,0,0,0,0,0,0,0,0,-1,608,1604,0,0
-609,-580,0,0,0,0,0,0,0,0,0,-1,615,1604,0,0
-602,-580,0,0,0,0,0,0,0,0,0,-1,622,1604,0,0
-595,-580,0,0,0,0,0,0,0,0,0,-1,629,1604,0,0
-588,-580,0,0,0,0,0,0,0,0,0,-1,636,1604,0,0
-581,-580,0,0,0,0,0,0,0,0,0,-1,643,1604,0,0
-574,-580,0,0,0,0,0,0,0,0,0,-1,650,1604,0,0
-567,-580,0,0,0,0,0,0,0,0,0,-1,657,1604,0,0
-560,-580,0,0,0,0,0,0,0,0,0,-1,664,1604,0,0
-553,-580,0,0,0,0,0,0,0,0,0,-1,671,1604,0,0
-546,-580,0,0,0,0,0,0,0,0,0,-1,678,1604,0,0
-539,-580,0,0,0,0,0,0,0,0,0,-1,685,1604,0,0
-532,-580,0,0,0,0,0,0,0,0,0,-1,692,1604,0,0
-525,-580,0,0,0,0,0,0,0,0,0,-1,699,1604,0,0
-518,-580,0,0,0,0,0,0,0,0,0,-1,706,1604,0,0
-511,-580,0,0,0,0,0,0,0,0,0,-1,713,1604,0,0
-504,-580,0,0,0,0,0,0,0,0,0,-1,720,1604,0,0
-497,-580,0,0,0,0,0,0,0,0,0,-1,727,1604,0,0
-490,-580,0,0,0,0,0,0,0,0,0,-1,734,1604,0,0
-483,-580,0,0,0,0,0,0,0,0,0,-1,741,1604,0,0
-476,-580,0,0,0,0,0,0,0,0,0,-1,748,1604,0,0
-469,-580,-1.69189,-0.38916,0,0,0,0,0,0,0,-1,755,1604,-1.69192,0.389188
-462,-580,-0.859863,0.675293,0,0,0,0,0,0,0,-1,762,1604,-0.859834,-0.675245
-455,-580,-0.730164,0.651978,0,0,0,0,0,0,0,-1,769,1604,-0.730153,-0.651957
-448,-580,-3.31891,2.07544,0,0,0,0,0,0,0,-1,776,1604,-3.3189,-2.07539
-441,-580,-1.63843,3.9469,0,0,0,0,0,0,0,-1,783,1604,-1.63842,-3.94695
-434,-580,0.23291,5.97876,0,0,0,0,0,0,0,-1,790,1604,0.232901,-5.97878
-427,-580,1.62756,8.05493,0,0,0,0,0,0,0,-1,797,1604,1.62758,-8.05488
-420,-580,0.920349,8.27612,0,0,0,0,0,0,0,-1,804,1604,0.920357,-8.27618
-413,-580,1.47705,8.50366,0.0035792,0.0216214,0.00717913,0.0241294,0.0010712,1.2347,0.0157413,0.0488829,811,1604,1.47708,-8.50361
-406,-580,1.70428,8.95459,-0.0010566,0.00756067,0.00199116,0.00799851,-0.00149445,1.35435,0.00589399,0.0375298,818,1604,1.70429,-8.95461
-399,-580,1.64307,9.22937,-0.00139682,0.00425703,0.000425034,0.00428881,-0.00142859,1.49618,0.00343587,0.0163649,825,1604,1.6431,-9.22933
-392,-580,1.63837,9.46582,-0.00183969,0.00214451,-0.000503233,0.00220709,-0.00190226,-1.44708,0.00237471,0.011736,832,1604,1.63837,-9.46585
-385,-580,1.6554,9.68591,-0.00201563,0.000729071,-0.000884645,0.000989493,-0.00227605,-1.2845,0.00193352,0.0118037,839,1604,1.65538,-9.68591
-378,-580,1.63336,9.92798,-0.00186955,-0.000340306,-0.000935238,0.000103094,-0.00231295,-1.12808,0.00157745,0.0150807,846,1604,1.63335,-9.92801
-371,-580,1.62366,10.1908,-0.00155539,-0.00119585,-0.000929115,-0.000429275,-0.00232197,-0.880961,0.00142658,0.0139478,853,1604,1.62367,-10.1908
-364,-580,1.59186,10.3831,-0.00122669,-0.00188432,-0.000899083,-0.000598184,-0.00251283,-0.610092,0.0015157,0.0185087,860,1604,1.59184,-10.383
-357,-580,1.61566,10.5905,-0.000618559,-0.0024599,-0.000803928,-0.000316964,-0.0027615,-0.358904,0.00174496,0.0131709,867,1604,1.61567,-10.5904
-350,-580,1.6535,10.8342,4.45299e-05,-0.00306989,-0.000499149,0.000122573,-0.00314793,-0.155097,0.00214065,0.0109335,874,1604,1.65348,-10.8342
-343,-580,1.64813,11.0437,0.000598814,-0.00382685,-0.000160654,0.000604638,-0.00383268,-0.0362369,0.00277868,0.0109924,881,1604,1.64815,-11.0438
-336,-580,1.64532,11.2321,0.000842538,-0.00421087,-0.000103704,0.000844665,-0.004213,-0.02051,0.00312846,0.0178963,888,1604,1.64531,-11.2321
-329,-580,1.64282,11.4595,0.00084372,-0.00518041,-0.000293809,0.000858016,-0.00519471,-0.0486182,0.00378173,0.0165611,895,1604,1.6428,-11.4595
-322,-580,1.63861,11.6951,0.000658712,-0.00605852,-0.000398292,0.000682246,-0.00608205,-0.0590184,0.0043002,0.0183388,902,1604,1.63863,-11.6951
-315,-580,1.67615,11.8876,0.000272484,-0.00744691,-0.000663706,0.000329133,-0.00750356,-0.0851462,0.00511562,0.015059,909,1604,1.67617,-11.8876
-308,-580,1.69696,12.1387,-0.000265425,-0.00948398,-0.00107476,-0.000141781,-0.00960762,-0.11454,0.00635835,0.017303,916,1604,1.69694,-12.1387
-301,-580,1.73944,12.3086,-0.00103732,-0.011728,-0.00163423,-0.000793086,-0.0119722,-0.148353,0.00773068,0.0155726,923,1604,1.73943,-12.3086
-294,-580,1.74994,12.4724,-0.00185357,-0.0147039,-0.00242509,-0.00141114,-0.0151464,-0.180452,0.00966161,0.0201259,930,1604,1.74994,-12.4724
-287,-580,1.8114,12.4856,-0.00247679,-0.0182152,-0.00326821,-0.0018251,-0.0188669,-0.19682,0.0120158,0.0407287,937,1604,1.81138,-12.4855
-280,-580,1.56519,12.0109,0.011201,-0.0218419,0.00709529,0.0126601,-0.023301,0.202821,0.021063,0.0496655,944,1604,1.56519,-12.0109
-273,-580,1.47845,11.7954,0,0,0,0,0,0,0,-1,951,1604,1.47845,-11.7954
-266,-580,0.494202,8.78955,0,0,0,0,0,0,0,-1,958,1604,0.494174,-8.78958
-259,-580,1.31091,9.11536,0,0,0,0,0,0,0,-1,965,1604,1.31092,-9.11539
-252,-580,1.07629,7.74097,0,0,0,0,0,0,0,-1,972,1604,1.07627,-7.74101
-245,-580,3.80304,9.16028,0,0,0,0,0,0,0,-1,979,1604,3.80306,-9.16034
-238,-580,-10.3588,1.57556,0,0,0,0,0,0,0,-1,986,1604,-10.3588,-1.5755
-231,-580,-10.576,6.43787,0,0,0,0,0,0,0,-1,993,1604,-10.576,-6.43783
-224,-580,-8.27435,7.58972,0.32094,-0.0793316,0.201606,0.40488,-0.163272,0.394528,0.337765,0.0480789,1000,1604,-8.27435,-7.5897
-217,-580,-5.85632,9.51221,0.345486,-0.0885798,0.213716,0.433047,-0.176141,0.388849,0.36199,0.0452983,1007,1604,-5.85632,-9.5122
-210,-580,-3.6684,11.1569,0.365221,-0.0981538,0.222299,0.454619,-0.187552,0.38236,0.381295,0.0439374,1014,1604,-3.66839,-11.1569
-203,-580,-1.92474,12.7845,0,0,0,0,0,0,0,-1,1021,1604,-1.92477,-12.7845
-196,-580,-2.28552,10.3289,0,0,0,0,0,0,0,-1,1028,1604,-2.28552,-10.3288
-189,-580,-4.58252,7.59058,0,0,0,0,0,0,0,-1,1035,1604,-4.58256,-7.59057
-182,-580,-5.45874,7.65942,0,0,0,0,0,0,0,-1,1042,1604,-5.45876,-7.65939
-175,-580,-6.38977,7.55005,0,0,0,0,0,0,0,-1,1049,1604,-6.38981,-7.5501
-168,-580,0,0,0,0,0,0,0,0,0,-1,1056,1604,0,0
-161,-580,0,0,0,0,0,0,0,0,0,-1,1063,1604,0,0
-154,-580,0,0,0,0,0,0,0,0,0,-1,1070,1604,0,0
-147,-580,0,0,0,0,0,0,0,0,0,-1,1077,1604,0,0
-140,-580,0,0,0,0,0,0,0,0,0,-1,1084,1604,0,0
-133,-580,0,0,0,0,0,0,0,0,0,-1,1091,1604,0,0
-126,-580,0,0,0,0,0,0,0,0,0,-1,1098,1604,0,0
-119,-580,0,0,0,0,0,0,0,0,0,-1,1105,1604,0,0
-112,-580,0,0,0,0,0,0,0,0,0,-1,1112,1604,0,0
-105,-580,0,0,0,0,0,0,0,0,0,-1,1119,1604,0,0
-98,-580,0,0,0,0,0,0,0,0,0,-1,1126,1604,0,0
-91,-580,0,0,0,0,0,0,0,0,0,-1,1133,1604,0,0
-84,-580,0,0,0,0,0,0,0,0,0,-1,1140,1604,0,0
-77,-580,0,0,0,0,0,0,0,0,0,-1,1147,1604,0,0
-70,-580,0,0,0,0,0,0,0,0,0,-1,1154,1604,0,0
-63,-580,0,0,0,0,0,0,0,0,0,-1,1161,1604,0,0
-56,-580,0,0,0,0,0,0,0,0,0,-1,1168,1604,0,0
-49,-580,0,0,0,0,0,0,0,0,0,-1,1175,1604,0,0
-42,-580,0,0,0,0,0,0,0,0,0,-1,1182,1604,0,0
-35,-580,0,0,0,0,0,0,0,0,0,-1,1189,1604,0,0
-28,-580,0,0,0,0,0,0,0,0,0,-1,1196,1604,0,0
-21,-580,0,0,0,0,0,0,0,0,0,-1,1203,1604,0,0
-14,-580,0,0,0,0,0,0,0,0,0,-1,1210,1604,0,0
-7,-580,0,0,0,0,0,0,0,0,0,-1,1217,1604,0,0
0,-580,0,0,0,0,0,0,0,0,0,-1,1224,1604,0,0
7,-580,0,0,0,0,0,0,0,0,0,-1,1231,1604,0,0
14,-580,0,0,0,0,0,0,0,0,0,-1,1238,1604,0,0
21,-580,0,0,0,0,0,0,0,0,0,-1,1245,1604,0,0
28,-580,0,0,0,0,0,0,0,0,0,-1,1252,1604,0,0
35,-580,0,0,0,0,0,0,0,0,0,-1,1259,1604,0,0
42,-580,0,0,0,0,0,0,0,0,0,-1,1266,1604,0,0
49,-580,0,0,0,0,0,0,0,0,0,-1,1273,1604,0,0
56,-580,0,0,0,0,0,0,0,0,0,-1,1280,1604,0,0
63,-580,0,0,0,0,0,0,0,0,0,-1,1287,1604,0,0
70,-580,0,0,0,0,0,0,0,0,0,-1,1294,1604,0,0
77,-580,0,0,0,0,0,0,0,0,0,-1,1301,1604,0,0
84,-580,0,0,0,0,0,0,0,0,0,-1,1308,1604,0,0
91,-580,0,0,0,0,0,0,0,0,0,-1,1315,1604,0,0
98,-580,0,0,0,0,0,0,0,0,0,-1,1322,1604,0,0
105,-580,0,0,0,0,0,0,0,0,0,-1,1329,1604,0,0
112,-580,0,0,0,0,0,0,0,0,0,-1,1336,1604,0,0
119,-580,0,0,0,0,0,0,0,0,0,-1,1343,1604,0,0
126,-580,0,0,0,0,0,0,0,0,0,-1,1350,1604,0,0
133,-580,0,0,0,0,0,0,0,0,0,-1,1357,1604,0,0
140,-580,0,0,0,0,0,0,0,0,0,-1,1364,1604,0,0
147,-580,0,0,0,0,0,0,0,0,0,-1,1371,1604,0,0
154,-580,0,0,0,0,0,0,0,0,0,-1,1378,1604,0,0
161,-580,0,0,0,0,0,0,0,0,0,-1,1385,1604,0,0
168,-580,0,0,0,0,0,0,0,0,0,-1,1392,1604,0,0
175,-580,0,0,0,0,0,0,0,0,0,-1,1399,1604,0,0
182,-580,0,0,0,0,0,0,0,0,0,-1,1406,1604,0,0
189,-580,0,0,0,0,0,0,0,0,0,-1,1413,1604,0,0
196,-580,0,0,0,0,0,0,0,0,0,-1,1420,1604,0,0
203,-580,0,0,0,0,0,0,0,0,0,-1,1427,1604,0,0
210,-580,0,0,0,0,0,0,0,0,0,-1,1434,1604,0,0
217,-580,0,0,0,0,0,0,0,0,0,-1,1441,1604,0,0
224,-580,0,0,0,0,0,0,0,0,0,-1,1448,1604,0,0
231,-580,0,0,0,0,0,0,0,0,0,-1,1455,1604,0,0
238,-580,0,0,0,0,0,0,0,0,0,-1,1462,1604,0,0
245,-580,0,0,0,0,0,0,0,0,0,-1,1469,1604,0,0
252,-580,0,0,0,0,0,0,0,0,0,-1,1476,1604,0,0
259,-580,0,0,0,0,0,0,0,0,0,-1,1483,1604,0,0
266,-580,0,0,0,0,0,0,0,0,0,-1,1490,1604,0,0
273,-580,0,0,0,0,0,0,0,0,0,-1,1497,1604,0,0
280,-580,0,0,0,0,0,0,0,0,0,-1,1504,1604,0,0
287,-580,0,0,0,0,0,0,0,0,0,-1,1511,1604,0,0
294,-580,4.0437,0.177368,0,0,0,0,0,0,0,-1,1518,1604,4.04369,-0.177371
301,-580,7.55164,8.05798,0,0,0,0,0,0,0,-1,1525,1604,7.55158,-8.05802
308,-580,5.9126,9.99341,0,0,0,0,0,0,0,-1,1532,1604,5.91255,-9.99337
315,-580,4.27356,11.9287,0,0,0,0,0,0,0,-1,1539,1604,4.27352,-11.9287
322,-580,10.2366,7.50281,0,0,0,0,0,0,0,-1,1546,1604,10.2366,-7.50282
329,-580,10.5962,8.69641,0,0,0,0,0,0,0,-1,1553,1604,10.5962,-8.69642
336,-580,3.66431,1.58862,0,0,0,0,0,0,0,-1,1560,1604,3.6643,-1.58864
343,-580,3.32227,1.39636,0,0,0,0,0,0,0,-1,1567,1604,3.32222,-1.39633
350,-580,8.71277,4.0564,0,0,0,0,0,0,0,-1,1574,1604,8.71271,-4.05638
357,-580,8.52332,3.08154,0,0,0,0,0,0,0,-1,1581,1604,8.52332,-3.08157
364,-580,8.25818,2.07605,0,0,0,0,0,0,0,-1,1588,1604,8.25812,-2.07608
371,-580,7.42114,7.14282,0,0,0,0,0,0,0,-1,1595,1604,7.42119,-7.14281
378,-580,7.9718,6.6731,0,0,0,0,0,0,0,-1,1602,1604,7.9718,-6.67307
385,-580,8.52246,6.20337,0,0,0,0,0,0,0,-1,1609,1604,8.52241,-6.20334
392,-580,6.5498,-2.15625,0,0,0,0,0,0,0,-1,1616,1604,6.54984,2.15626
399,-580,6.52625,10.7247,0,0,0,0,0,0,0,-1,1623,1604,6.52628,-10.7248
406,-580,8.26489,13.027,0,0,0,0,0,0,0,-1,1630,1604,8.26495,-13.027
413,-580,8.40552,13.3062,-0.00368697,-0.021899,0.0247217,0.0135525,-0.0391385,0.608939,0.031594,0.0476192,1637,1604,8.40547,-13.3062
420,-580,8.40906,13.4292,-0.00391832,-0.0189458,0.022042,0.0118554,-0.0347195,0.621133,0.0279492,0.042027,1644,1604,8.40901,-13.4291
427,-580,8.74536,13.3699,-0.00420947,-0.0164064,0.0195898,0.0102092,-0.030825,0.634499,0.0246677,0.037765,1651,1604,8.74535,-13.3698
434,-580,8.08069,13.1042,-0.00434541,-0.0143771,0.0171608,0.00851759,-0.0272401,0.643216,0.0215674,0.0261176,1658,1604,8.08067,-13.1043
441,-580,7.99866,13.0553,-0.00418765,-0.0125494,0.0147431,0.0069559,-0.0236929,0.647235,0.0185538,0.0115858,1665,1604,7.99863,-13.0553
448,-580,8.00525,12.8988,-0.00384132,-0.0107297,0.0124452,0.00562746,-0.0201985,0.650402,0.0156818,0.0109792,1672,1604,8.00529,-12.8988
455,-580,8.02332,12.7114,-0.00344493,-0.00941577,0.0103752,0.00436587,-0.0172266,0.64531,0.0131829,0.0182402,1679,1604,8.02326,-12.7114
462,-580,7.95422,12.5349,-0.00292147,-0.00803029,0.00846281,0.00336403,-0.0143158,0.638826,0.0108406,0.0234387,1686,1604,7.95427,-12.5349
469,-580,7.97937,12.3376,-0.00230438,-0.00685256,0.00660895,0.00241079,-0.0115677,0.619697,0.00862842,0.0195434,1693,1604,7.97937,-12.3377
476,-580,8.04846,12.1226,-0.00172104,-0.00575624,0.00494653,0.00160354,-0.00908082,0.591756,0.00665312,0.0142308,1700,1604,8.04848,-12.1226
483,-580,8.02161,11.9333,-0.00100095,-0.00461232,0.00344296,0.0010811,-0.00669437,0.543888,0.0048635,0.0129503,1707,1604,8.0216,-11.9333
490,-580,7.99487,11.7605,-0.000245757,-0.00322319,0.00221487,0.00093422,-0.00440317,0.489505,0.00329135,0.0137603,1714,1604,7.99488,-11.7605
497,-580,7.99768,11.5568,0.000549303,-0.00213295,0.00090836,0.000827973,-0.00241162,0.297668,0.00194344,0.0107452,1721,1604,7.99768,-11.5567
504,-580,7.99536,11.3369,0.00120602,-0.00101004,-0.000177805,0.0012202,-0.00102421,-0.0795564,0.00129746,0.016323,1728,1604,7.99541,-11.3369
511,-580,7.99573,11.146,0.00182755,0.000206547,-0.00109857,0.00238225,-0.000348152,-0.467581,0.00171603,0.016715,1735,1604,7.99575,-11.146
518,-580,8.03467,10.9308,0.0023421,0.00123931,-0.00185591,0.00372679,-0.000145387,-0.641,0.00253438,0.0152865,1742,1604,8.03465,-10.9308
525,-580,8.02197,10.7212,0.00288068,0.00205874,-0.00241794,0.00492232,1.70933e-05,-0.701219,0.00327586,0.0174902,1749,1604,8.02196,-10.7212
532,-580,7.99451,10.4962,0.00343577,0.00269742,-0.00277023,0.00586131,0.000271876,-0.719156,0.00382014,0.0207575,1756,1604,7.99454,-10.4962
539,-580,7.98914,10.3373,0.00389792,0.0029621,-0.00292994,0.00639708,0.000462949,-0.706217,0.00411909,0.0269903,1763,1604,7.98908,-10.3373
546,-580,8.30225,10.0853,0.00469842,0.00337711,-0.00310875,0.00721594,0.00085959,-0.680698,0.00455124,0.0423628,1770,1604,8.3022,-10.0854
553,-580,8.70752,9.75183,0,0,0,0,0,0,0,-1,1777,1604,8.70753,-9.75181
560,-580,7.09021,6.49438,0,0,0,0,0,0,0,-1,1784,1604,7.09016,-6.4944
567,-580,3.87708,4.0647,0,0,0,0,0,0,0,-1,1791,1604,3.87711,-4.06471
574,-580,2.31653,5.62952,0,0,0,0,0,0,0,-1,1798,1604,2.31654,-5.62947
581,-580,1.60876,6.67664,0,0,0,0,0,0,0,-1,1805,1604,1.60873,-6.67667
588,-580,1.38684,7.14441,0,0,0,0,0,0,0,-1,1812,1604,1.38689,-7.14443
595,-580,0,0,0,0,0,0,0,0,0,-1,1819,1604,0,0
602,-580,0,0,0,0,0,0,0,0,0,-1,1826,1604,0,0
609,-580,0,0,0,0,0,0,0,0,0,-1,1833,1604,0,0
616,-580,0,0,0,0,0,0,0,0,0,-1,1840,1604,0,0
623,-580,0,0,0,0,0,0,0,0,0,-1,1847,1604,0,0
630,-580,0,0,0,0,0,0,0,0,0,-1,1854,1604,0,0
637,-580,0,0,0,0,0,0,0,0,0,-1,1861,1604,0,0
644,-580,0,0,0,0,0,0,0,0,0,-1,1868,1604,0,0
651,-580,0,0,0,0,0,0,0,0,0,-1,1875,1604,0,0
658,-580,0,0,0,0,0,0,0,0,0,-1,1882,1604,0,0
665,-580,0,0,0,0,0,0,0,0,0,-1,1889,1604,0,0
672,-580,0,0,0,0,0,0,0,0,0,-1,1896,1604,0,0
679,-580,0,0,0,0,0,0,0,0,0,-1,1903,1604,0,0
686,-580,0,0,0,0,0,0,0,0,0,-1,1910,1604,0,0
693,-580,0,0,0,0,0,0,0,0,0,-1,1917,1604,0,0
700,-580,0,0,0,0,0,0,0,0,0,-1,1924,1604,0,0
707,-580,0,0,0,0,0,0,0,0,0,-1,1931,1604,0,0
714,-580,0,0,0,0,0,0,0,0,0,-1,1938,1604,0,0
721,-580,0,0,0,0,0,0,0,0,0,-1,1945,1604,0,0
728,-580,0,0,0,0,0,0,0,0,0,-1,1952,1604,0,0
735,-580,0,0,0,0,0,0,0,0,0,-1,1959,1604,0,0
742,-580,0,0,0,0,0,0,0,0,0,-1,1966,1604,0,0
749,-580,0,0,0,0,0,0,0,0,0,-1,1973,1604,0,0
756,-580,0,0,0,0,0,0,0,0,0,-1,1980,1604,0,0
763,-580,0,0,0,0,0,0,0,0,0,-1,1987,1604,0,0
770,-580,0,0,0,0,0,0,0,0,0,-1,1994,1604,0,0
777,-580,0,0,0,0,0,0,0,0,0,-1,2001,1604,0,0
784,-580,0,0,0,0,0,0,0,0,0,-1,2008,1604,0,0
791,-580,0,0,0,0,0,0,0,0,0,-1,2015,1604,0,0
798,-580,0,0,0,0,0,0,0,0,0,-1,2022,1604,0,0
805,-580,0,0,0,0,0,0,0,0,0,-1,2029,1604,0,0
812,-580,0,0,0,0,0,0,0,0,0,-1,2036,1604,0,0
-700,-587,0,0,0,0,0,0,0,0,0,-1,524,1611,0,0
-693,-587,0,0,0,0,0,0,0,0,0,-1,531,1611,0,0
-686,-587,0,0,0,0,0,0,0,0,0,-1,538,1611,0,0
-679,-587,0,0,0,0,0,0,0,0,0,-1,545,1611,0,0
-672,-587,0,0,0,0,0,0,0,0,0,-1,552,1611,0,0
-665,-587,0,0,0,0,0,0,0,0,0,-1,559,1611,0,0
-658,-587,0,0,0,0,0,0,0,0,0,-1,566,1611,0,0
-651,-587,0,0,0,0,0,0,0,0,0,-1,573,1611,0,0
-644,-587,0,0,0,0,0,0,0,0,0,-1,580,1611,0,0
-637,-587,0,0,0,0,0,0,0,0,0,-1,587,1611,0,0
-630,-587,0,0,0,0,0,0,0,0,0,-1,594,1611,0,0
-623,-587,0,0,0,0,0,0,0,0,0,-1,601,1611,0,0
-616,-587,0,0,0,0,0,0,0,0,0,-1,608,1611,0,0
-609,-587,0,0,0,0,0,0,0,0,0,-1,615,1611,0,0
-602,-587,0,0,0,0,0,0,0,0,0,-1,622,1611,0,0
-595,-587,0,0,0,0,0,0,0,0,0,-1,629,1611,0,0
-588,-587,0,0,0,0,0,0,0,0,0,-1,636,1611,0,0
-581,-587,0,0,0,0,0,0,0,0,0,-1,643,1611,0,0
-574,-587,0,0,0,0,0,0,0,0,0,-1,650,1611,0,0
-567,-587,0,0,0,0,0,0,0,0,0,-1,657,1611,0,0
-560,-587,0,0,0,0,0,0,0,0,0,-1,664,1611,0,0
-553,-587,0,0,0,0,0,0,0,0,0,-1,671,1611,0,0
-546,-587,0,0,0,0,0,0,0,0,0,-1,678,1611,0,0
-539,-587,0,0,0,0,0,0,0,0,0,-1,685,1611,0,0
-532,-587,0,0,0,0,0,0,0,0,0,-1,692,1611,0,0
-525,-587,0,0,0,0,0,0,0,0,0,-1,699,1611,0,0
-518,-587,0,0,0,0,0,0,0,0,0,-1,706,1611,0,0
-511,-587,0,0,0,0,0,0,0,0,0,-1,713,1611,0,0
-504,-587,0,0,0,0,0,0,0,0,0,-1,720,1611,0,0
-497,-587,0,0,0,0,0,0,0,0,0,-1,727,1611,0,0
-490,-587,0,0,0,0,0,0,0,0,0,-1,734,1611,0,0
-483,-587,0,0,0,0,0,0,0,0,0,-1,741,1611,0,0
-476,-587,0,0,0,0,0,0,0,0,0,-1,748,1611,0,0
-469,-587,0,0,0,0,0,0,0,0,0,-1,755,1611,0,0
-462,-587,-0.714355,-0.418457,0,0,0,0,0,0,0,-1,762,1611,-0.714359,0.418483
-455,-587,-0.619812,-0.522461,0,0,0,0,0,0,0,-1,769,1611,-0.619802,0.522515
-448,-587,-0.461731,-0.686523,0,0,0,0,0,0,0,-1,776,1611,-0.461739,0.686559
-441,-587,-3.56555,2.72253,0,0,0,0,0,0,0,-1,783,1611,-3.56555,-2.72259
-434,-587,-1.77319,4.76318,0,0,0,0,0,0,0,-1,790,1611,-1.77318,-4.76323
-427,-587,0.0346069,6.92944,0,0,0,0,0,0,0,-1,797,1611,0.034587,-6.92941
-420,-587,-0.647156,10.1157,0,0,0,0,0,0,0,-1,804,1611,-0.647128,-10.1158
-413,-587,1.8028,8.20178,0,0,0,0,0,0,0,-1,811,1611,1.80282,-8.20173
-406,-587,1.98688,8.91003,0,0,0,0,0,0,0,-1,818,1611,1.9869,-8.90998
-399,-587,2.07684,9.12427,-0.00329422,0.00461352,-0.000471188,0.0046415,-0.0033222,-1.51149,0.00461883,0.03502,825,1611,2.07683,-9.12429
-392,-587,1.91956,9.41174,-0.00356798,0.0019184,-0.001331,0.00222425,-0.00387383,-1.34493,0.00356341,0.0250626,832,1611,1.91957,-9.41168
-385,-587,1.84711,9.67078,-0.00346121,0.000127599,-0.00158758,0.000729088,-0.00406269,-1.20864,0.00298136,0.0151252,839,1611,1.84709,-9.67076
-378,-587,1.83063,9.93799,-0.00301037,-0.00114235,-0.00150597,-0.000304268,-0.00384845,-1.06297,0.00247047,0.0138115,846,1611,1.83061,-9.93797
-371,-587,1.83246,10.1963,-0.00244624,-0.00210218,-0.00135816,-0.000905203,-0.00364322,-0.848394,0.00219034,0.0148176,853,1611,1.83248,-10.1963
-364,-587,1.82935,10.4288,-0.00193832,-0.00274755,-0.00121316,-0.00106408,-0.00362179,-0.624439,0.0021495,0.0178613,860,1611,1.82937,-10.4288
-357,-587,1.8446,10.5924,-0.00118423,-0.00319099,-0.00100451,-0.000767817,-0.0036074,-0.39298,0.00219424,0.0167335,867,1611,1.84462,-10.5924
-350,-587,1.8396,10.8336,-0.000321239,-0.00350066,-0.000656024,-0.000191197,-0.0036307,-0.19569,0.00235932,0.00985757,874,1611,1.8396,-10.8336
-343,-587,1.83539,11.0577,0.00043468,-0.00400041,-0.000269231,0.000450964,-0.0040167,-0.060409,0.00284008,0.0122837,881,1611,1.83539,-11.0578
-336,-587,1.83344,11.2454,0.000847988,-0.00412501,-0.000168486,0.00085369,-0.00413071,-0.0338285,0.00307809,0.0115442,888,1611,1.83345,-11.2453
-329,-587,1.83527,11.4592,0.000983756,-0.00466226,-0.000336425,0.00100373,-0.00468224,-0.0593066,0.00350432,0.0134199,895,1611,1.83528,-11.4592
-322,-587,1.84247,11.6674,0.000919866,-0.00510985,-0.000421462,0.000949182,-0.00513916,-0.0694475,0.00378241,0.0167447,902,1611,1.8425,-11.6673
-315,-587,1.85809,11.8729,0.000699092,-0.00608651,-0.000659146,0.000762527,-0.00614995,-0.0959437,0.00437634,0.0135585,909,1611,1.85807,-11.8729
-308,-587,1.86383,12.101,0.000380332,-0.00765147,-0.00105915,0.000517653,-0.0077888,-0.128934,0.0053734,0.0137112,916,1611,1.86386,-12.1009
-301,-587,1.89532,12.3091,-0.000142468,-0.00941775,-0.00162965,0.000135528,-0.00969574,-0.168959,0.00650948,0.0122809,923,1611,1.8953,-12.309
-294,-587,1.94006,12.5164,-0.000615374,-0.011848,-0.00232894,-0.000151643,-0.0123117,-0.196546,0.00815774,0.0132439,930,1611,1.94006,-12.5164
-287,-587,1.97034,12.7068,-0.000865034,-0.0147835,-0.00301893,-0.000238434,-0.0154101,-0.204651,0.0101949,0.023995,937,1611,1.97036,-12.7068
-280,-587,2.0011,12.8633,0.00832189,-0.0179482,0.00364646,0.00881865,-0.0184449,0.135397,0.0160644,0.0368764,944,1611,2.0011,-12.8633
-273,-587,2.02197,13.0189,0,0,0,0,0,0,0,-1,951,1611,2.02198,-13.0189
-266,-587,2.09546,12.7069,0,0,0,0,0,0,0,-1,958,1611,2.09547,-12.7069
-259,-587,2.35907,12.3151,0,0,0,0,0,0,0,-1,965,1611,2.35906,-12.315
-252,-587,1.30188,10.3103,0,0,0,0,0,0,0,-1,972,1611,1.30188,-10.3104
-245,-587,2.97797,12.0387,0,0,0,0,0,0,0,-1,979,1611,2.97798,-12.0387
-238,-587,2.87799,9.53821,0,0,0,0,0,0,0,-1,986,1611,2.87797,-9.53823
-231,-587,2.49548,9.14465,0,0,0,0,0,0,0,-1,993,1611,2.49551,-9.14468
-224,-587,-9.72528,9.21069,0,0,0,0,0,0,0,-1,1000,1611,-9.72529,-9.21072
-217,-587,-7.07495,10.7847,0.289714,-0.0772305,0.177019,0.361189,-0.148705,0.383749,0.302788,0.0468756,1007,1611,-7.07495,-10.7847
-210,-587,-4.72308,12.5889,0.306201,-0.083909,0.185641,0.380421,-0.158129,0.380338,0.319639,0.0432834,1014,1611,-4.72307,-12.5888
-203,-587,-3.2583,13.7289,0,0,0,0,0,0,0,-1,1021,1611,-3.25828,-13.7289
-196,-587,-1.953,14.8145,0,0,0,0,0,0,0,-1,1028,1611,-1.95302,-14.8144
-189,-587,-3.04138,8.66638,0,0,0,0,0,0,0,-1,1035,1611,-3.04136,-8.66635
-182,-587,-3.97095,9.7146,0,0,0,0,0,0,0,-1,1042,1611,-3.97093,-9.71461
-175,-587,-4.80969,8.37878,0,0,0,0,0,0,0,-1,1049,1611,-4.80964,-8.37883
-168,-587,-5.91394,8.72546,0,0,0,0,0,0,0,-1,1056,1611,-5.91398,-8.72542
-161,-587,-7.06946,8.88501,0,0,0,0,0,0,0,-1,1063,1611,-7.06947,-8.885
-154,-587,-2.24731,6.56519,0,0,0,0,0,0,0,-1,1070,1611,-2.24728,-6.56517
-147,-587,0,0,0,0,0,0,0,0,0,-1,1077,1611,0,0
-140,-587,0,0,0,0,0,0,0,0,0,-1,1084,1611,0,0
-133,-587,0,0,0,0,0,0,0,0,0,-1,1091,1611,0,0
-126,-587,0,0,0,0,0,0,0,0,0,-1,1098,1611,0,0
-119,-587,0,0,0,0,0,0,0,0,0,-1,1105,1611,0,0
-112,-587,0,0,0,0,0,0,0,0,0,-1,1112,1611,0,0
-105,-587,0,0,0,0,0,0,0,0,0,-1,1119,1611,0,0
-98,-587,0,0,0,0,0,0,0,0,0,-1,1126,1611,0,0
-91,-587,0,0,0,0,0,0,0,0,0,-1,1133,1611,0,0
-84,-587,0,0,0,0,0,0,0,0,0,-1,1140,1611,0,0
-77,-587,0,0,0,0,0,0,0,0,0,-1,1147,1611,0,0
-70,-587,0,0,0,0,0,0,0,0,0,-1,1154,1611,0,0
-63,-587,0,0,0,0,0,0,0,0,0,-1,1161,1611,0,0
-56,-587,0,0,0,0,0,0,0,0,0,-1,1168,1611,0,0
-49,-587,0,0,0,0,0,0,0,0,0,-1,1175,1611,0,0
-42,-587,0,0,0,0,0,0,0,0,0,-1,1182,1611,0,0
-35,-587,0,0,0,0,0,0,0,0,0,-1,1189,1611,0,0
-28,-587,0,0,0,0,0,0,0,0,0,-1,1196,1611,0,0
-21,-587,0,0,0,0,0,0,0,0,0,-1,1203,1611,0,0
-14,-587,0,0,0,0,0,0,0,0,0,-1,1210,1611,0,0
-7,-587,0,0,0,0,0,0,0,0,0,-1,1217,1611,0,0
0,-587,0,0,0,0,0,0,0,0,0,-1,1224,1611,0,0
7,-587,0,0,0,0,0,0,0,0,0,-1,1231,1611,0,0
14,-587,0,0,0,0,0,0,0,0,0,-1,1238,1611,0,0
21,-587,0,0,0,0,0,0,0,0,0,-1,1245,1611,0,0
28,-587,0,0,0,0,0,0,0,0,0,-1,1252,1611,0,0
35,-587,0,0,0,0,0,0,0,0,0,-1,1259,1611,0,0
42,-587,0,0,0,0,0,0,0,0,0,-1,1266,1611,0,0
49,-587,0,0,0,0,0,0,0,0,0,-1,1273,1611,0,0
56,-587,0,0,0,0,0,0,0,0,0,-1,1280,1611,0,0
63,-587,0,0,0,0,0,0,0,0,0,-1,1287,1611,0,0
70,-587,0,0,0,0,0,0,0,0,0,-1,1294,1611,0,0
77,-587,0,0,0,0,0,0,0,0,0,-1,1301,1611,0,0
84,-587,0,0,0,0,0,0,0,0,0,-1,1308,1611,0,0
91,-587,0,0,0,0,0,0,0,0,0,-1,1315,1611,0,0
98,-587,0,0,0,0,0,0,0,0,0,-1,1322,1611,0,0
105,-587,0,0,0,0,0,0,0,0,0,-1,1329,1611,0,0
112,-587,0,0,0,0,0,0,0,0,0,-1,1336,1611,0,0
119,-587,0,0,0,0,0,0,0,0,0,-1,1343,1611,0,0
126,-587,0,0,0,0,0,0,0,0,0,-1,1350,1611,0,0
133,-587,0,0,0,0,0,0,0,0,0,-1,1357,1611,0,0
140,-587,0,0,0,0,0,0,0,0,0,-1,1364,1611,0,0
147,-587,0,0,0,0,0,0,0,0,0,-1,1371,1611,0,0
154,-587,0,0,0,0,0,0,0,0,0,-1,1378,1611,0,0
161,-587,0,0,0,0,0,0,0,0,0,-1,1385,1611,0,0
168,-587,0,0,0,0,0,0,0,0,0,-1,1392,1611,0,0
175,-587,0,0,0,0,0,0,0,0,0,-1,1399,1611,0,0
182,-587,0,0,0,0,0,0,0,0,0,-1,1406,1611,0,0
189,-587,0,0,0,0,0,0,0,0,0,-1,1413,1611,0,0
196,-587,0,0,0,0,0,0,0,0,0,-1,1420,1611,0,0
203,-587,0,0,0,0,0,0,0,0,0,-1,1427,1611,0,0
210,-587,0,0,0,0,0,0,0,0,0,-1,1434,1611,0,0
217,-587,0,0,0,0,0,0,0,0,0,-1,1441,1611,0,0
224,-587,0,0,0,0,0,0,0,0,0,-1,1448,1611,0,0
231,-587,0,0,0,0,0,0,0,0,0,-1,1455,1611,0,0
238,-587,0,0,0,0,0,0,0,0,0,-1,1462,1611,0,0
245,-587,0,0,0,0,0,0,0,0,0,-1,1469,1611,0,0
252,-587,0,0,0,0,0,0,0,0,0,-1,1476,1611,0,0
259,-587,0,0,0,0,0,0,0,0,0,-1,1483,1611,0,0
266,-587,0,0,0,0,0,0,0,0,0,-1,1490,1611,0,0
273,-587,10.2936,6.35083,0,0,0,0,0,0,0,-1,1497,1611,10.2936,-6.35087
280,-587,2.09204,1.1217,0,0,0,0,0,0,0,-1,1504,1611,2.092,-1.12176
287,-587,3.2865,0.671509,0,0,0,0,0,0,0,-1,1511,1611,3.28656,-0.671538
294,-587,4.24646,1.58765,0,0,0,0,0,0,0,-1,1518,1611,4.24648,-1.58761
301,-587,7.60474,8.37085,0,0,0,0,0,0,0,-1,1525,1611,7.60478,-8.37084
308,-587,5.99316,10.2291,0,0,0,0,0,0,0,-1,1532,1611,5.99315,-10.2291
315,-587,4.34558,12.3289,0,0,0,0,0,0,0,-1,1539,1611,4.34556,-12.3288
322,-587,10.4526,6.38245,0,0,0,0,0,0,0,-1,1546,1611,10.4526,-6.38245
329,-587,10.7738,8.42444,0,0,0,0,0,0,0,-1,1553,1611,10.7738,-8.42438
336,-587,7.5531,5.96619,0,0,0,0,0,0,0,-1,1560,1611,7.55311,-5.96617
343,-587,9.57495,4.38391,0,0,0,0,0,0,0,-1,1567,1611,9.57494,-4.38397
350,-587,9.50378,3.45093,0,0,0,0,0,0,0,-1,1574,1611,9.50376,-3.4509
357,-587,9.40027,2.50806,0,0,0,0,0,0,0,-1,1581,1611,9.40022,-2.50803
364,-587,9.26477,1.34131,0,0,0,0,0,0,0,-1,1588,1611,9.26479,-1.34126
371,-587,6.98926,7.87561,0,0,0,0,0,0,0,-1,1595,1611,6.98928,-7.87564
378,-587,9.25146,13.8358,0,0,0,0,0,0,0,-1,1602,1611,9.2515,-13.8359
385,-587,7.17224,7.03772,0,0,0,0,0,0,0,-1,1609,1611,7.1722,-7.03778
392,-587,5.3916,8.21436,0,0,0,0,0,0,0,-1,1616,1611,5.39157,-8.21437
399,-587,7.99304,13.4463,0,0,0,0,0,0,0,-1,1623,1611,7.99307,-13.4463
406,-587,8.00159,13.4133,-0.00215111,-0.0203504,0.0208359,0.0114856,-0.033987,0.579517,0.027304,0.0416799,1630,1611,8.00161,-13.4133
413,-587,7.95972,13.5104,-0.00250595,-0.017821,0.0187827,0.0101202,-0.0304472,0.591839,0.024382,0.0316722,1637,1611,7.95967,-13.5103
420,-587,7.91699,13.6066,-0.00263317,-0.0152319,0.0166739,0.00889163,-0.0267567,0.604788,0.0214257,0.0329908,1644,1611,7.91702,-13.6065
427,-587,7.95605,13.4717,-0.0027622,-0.0129828,0.0146862,0.00767745,-0.0234224,0.617968,0.0187068,0.0266992,1651,1611,7.95606,-13.4717
434,-587,7.81873,13.2964,-0.00281585,-0.0110145,0.0127152,0.00644449,-0.0202749,0.629461,0.0161006,0.0145036,1658,1611,7.81875,-13.2964
441,-587,7.78796,13.1195,-0.0026576,-0.00932429,0.0107698,0.0052829,-0.0172648,0.635319,0.0136168,0.016153,1665,1611,7.78799,-13.1195
448,-587,7.81409,12.8962,-0.0023477,-0.00770154,0.00893134,0.00429927,-0.0143485,0.639797,0.0112754,0.01489,1672,1611,7.81408,-12.8963
455,-587,7.81799,12.7164,-0.00199779,-0.00659024,0.00725792,0.00331848,-0.0119065,0.632192,0.00924455,0.0142045,1679,1611,7.81803,-12.7164
462,-587,7.78821,12.5391,-0.00154977,-0.00543898,0.00570211,0.00253021,-0.00951895,0.621066,0.00733628,0.0185611,1686,1611,7.78827,-12.539
469,-587,7.80029,12.3602,-0.0010161,-0.00447453,0.00419178,0.00178914,-0.00727977,0.589769,0.00554659,0.0158794,1693,1611,7.80025,-12.3602
476,-587,7.83154,12.176,-0.000519555,-0.00361755,0.00284177,0.00116796,-0.00530507,0.535868,0.00398352,0.0103955,1700,1611,7.83158,-12.176
483,-587,7.79456,11.9612,7.57797e-05,-0.00274645,0.00163365,0.000823383,-0.00349406,0.429178,0.00264687,0.0137522,1707,1611,7.7946,-11.9612
490,-587,7.76465,11.7552,0.000758443,-0.00171253,0.000648681,0.000918382,-0.00187247,0.241739,0.00164239,0.0154757,1714,1611,7.7647,-11.7553
497,-587,7.76819,11.5564,0.0014985,-0.000938906,-0.000419401,0.00156865,-0.00100905,-0.165721,0.00149988,0.0116441,1721,1611,7.76822,-11.5564
504,-587,7.76245,11.3645,0.00205221,-7.01634e-05,-0.00122579,0.00261235,-0.000630298,-0.428624,0.0019853,0.011675,1728,1611,7.76247,-11.3645
511,-587,7.77869,11.1709,0.00259227,0.000812242,-0.00193163,0.00382907,-0.000424557,-0.569516,0.00270536,0.0132231,1735,1611,7.77867,-11.1709
518,-587,7.82861,10.9519,0.00305517,0.00145676,-0.00250879,0.00488897,-0.000377043,-0.6312,0.00339199,0.013107,1742,1611,7.82865,-10.9519
525,-587,7.82849,10.7263,0.00357188,0.00200835,-0.00292331,0.00581615,-0.000235917,-0.654744,0.00395841,0.0162072,1749,1611,7.82854,-10.7263
532,-587,7.80396,10.4912,0.00410284,0.00251125,-0.00315449,0.00656036,5.3725e-05,-0.661839,0.00435578,0.0314651,1756,1611,7.80398,-10.4912
539,-587,7.8501,10.2639,0.0046194,0.00304816,-0.00336172,0.00728608,0.000381484,-0.67061,0.00473535,0.0458531,1763,1611,7.85015,-10.264
546,-587,8.32202,10.022,0,0,0,0,0,0,0,-1,1770,1611,8.32197,-10.022
553,-587,7.5813,8.45068,0,0,0,0,0,0,0,-1,1777,1611,7.58125,-8.45068
560,-587,4.21179,5.23547,0,0,0,0,0,0,0,-1,1784,1611,4.21185,-5.23553
567,-587,4.03711,5.46387,0,0,0,0,0,0,0,-1,1791,1611,4.03715,-5.46382
574,-587,3.83142,5.68884,0,0,0,0,0,0,0,-1,1798,1611,3.83141,-5.68881
581,-587,3.47168,6.00977,0,0,0,0,0,0,0,-1,1805,1611,3.47167,-6.00983
588,-587,0,0,0,0,0,0,0,0,0,-1,1812,1611,0,0
595,-587,0,0,0,0,0,0,0,0,0,-1,1819,1611,0,0
602,-587,0,0,0,0,0,0,0,0,0,-1,1826,1611,0,0
609,-587,0,0,0,0,0,0,0,0,0,-1,1833,1611,0,0
616,-587,0,0,0,0,0,0,0,0,0,-1,1840,1611,0,0
623,-587,0,0,0,0,0,0,0,0,0,-1,1847,1611,0,0
630,-587,0,0,0,0,0,0,0,0,0,-1,1854,1611,0,0
637,-587,0,0,0,0,0,0,0,0,0,-1,1861,1611,0,0
644,-587,0,0,0,0,0,0,0,0,0,-1,1868,1611,0,0
651,-587,0,0,0,0,0,0,0,0,0,-1,1875,1611,0,0
658,-587,0,0,0,0,0,0,0,0,0,-1,1882,1611,0,0
665,-587,0,0,0,0,0,0,0,0,0,-1,1889,1611,0,0
672,-587,0,0,0,0,0,0,0,0,0,-1,1896,1611,0,0
679,-587,0,0,0,0,0,0,0,0,0,-1,1903,1611,0,0
686,-587,0,0,0,0,0,0,0,0,0,-1,1910,1611,0,0
693,-587,0,0,0,0,0,0,0,0,0,-1,1917,1611,0,0
700,-587,0,0,0,0,0,0,0,0,0,-1,1924,1611,0,0
707,-587,0,0,0,0,0,0,0,0,0,-1,1931,1611,0,0
714,-587,0,0,0,0,0,0,0,0,0,-1,1938,1611,0,0
721,-587,0,0,0,0,0,0,0,0,0,-1,1945,1611,0,0
728,-587,0,0,0,0,0,0,0,0,0,-1,1952,1611,0,0
735,-587,0,0,0,0,0,0,0,0,0,-1,1959,1611,0,0
742,-587,0,0,0,0,0,0,0,0,0,-1,1966,1611,0,0
749,-587,0,0,0,0,0,0,0,0,0,-1,1973,1611,0,0
756,-587,0,0,0,0,0,0,0,0,0,-1,1980,1611,0,0
763,-587,0,0,0,0,0,0,0,0,0,-1,1987,1611,0,0
770,-587,0,0,0,0,0,0,0,0,0,-1,1994,1611,0,0
777,-587,0,0,0,0,0,0,0,0,0,-1,2001,1611,0,0
784,-587,0,0,0,0,0,0,0,0,0,-1,2008,1611,0,0
791,-587,0,0,0,0,0,0,0,0,0,-1,2015,1611,0,0
798,-587,0,0,0,0,0,0,0,0,0,-1,2022,1611,0,0
805,-587,0,0,0,0,0,0,0,0,0,-1,2029,1611,0,0
812,-587,0,0,0,0,0,0,0,0,0,-1,2036,1611,0,0
-700,-594,0,0,0,0,0,0,0,0,0,-1,524,1618,0,0
-693,-594,0,0,0,0,0,0,0,0,0,-1,531,1618,0,0
-686,-594,0,0,0,0,0,0,0,0,0,-1,538,1618,0,0
-679,-594,0,0,0,0,0,0,0,0,0,-1,545,1618,0,0
-672,-594,0,0,0,0,0,0,0,0,0,-1,552,1618,0,0
-665,-594,0,0,0,0,0,0,0,0,0,-1,559,1618,0,0
-658,-594,0,0,0,0,0,0,0,0,0,-1,566,1618,0,0
-651,-594,0,0,0,0,0,0,0,0,0,-1,573,1618,0,0
-644,-594,0,0,0,0,0,0,0,0,0,-1,580,1618,0,0
-637,-594,0,0,0,0,0,0,0,0,0,-1,587,1618,0,0
-630,-594,0,0,0,0,0,0,0,0,0,-1,594,1618,0,0
-623,-594,0,0,0,0,0,0,0,0,0,-1,601,1618,0,0
-616,-594,0,0,0,0,0,0,0,0,0,-1,608,1618,0,0
-609,-594,0,0,0,0,0,0,0,0,0,-1,615,1618,0,0
-602,-594,0,0,0,0,0,0,0,0,0,-1,622,1618,0,0
-595,-594,0,0,0,0,0,0,0,0,0,-1,629,1618,0,0
-588,-594,0,0,0,0,0,0,0,0,0,-1,636,1618,0,0
-581,-594,0,0,0,0,0,0,0,0,0,-1,643,1618,0,0
-574,-594,0,0,0,0,0,0,0,0,0,-1,650,1618,0,0
-567,-594,0,0,0,0,0,0,0,0,0,-1,657,1618,0,0
-560,-594,0,0,0,0,0,0,0,0,0,-1,664,1618,0,0
-553,-594,0,0,0,0,0,0,0,0,0,-1,671,1618,0,0
-546,-594,0,0,0,0,0,0,0,0,0,-1,678,1618,0,0
-539,-594,0,0,0,0,0,0,0,0,0,-1,685,1618,0,0
-532,-594,0,0,0,0,0,0,0,0,0,-1,692,1618,0,0
-525,-594,0,0,0,0,0,0,0,0,0,-1,699,1618,0,0
-518,-594,0,0,0,0,0,0,0,0,0,-1,706,1618,0,0
-511,-594,0,0,0,0,0,0,0,0,0,-1,713,1618,0,0
-504,-594,0,0,0,0,0,0,0,0,0,-1,720,1618,0,0
-497,-594,0,0,0,0,0,0,0,0,0,-1,727,1618,0,0
-490,-594,0,0,0,0,0,0,0,0,0,-1,734,1618,0,0
-483,-594,0,0,0,0,0,0,0,0,0,-1,741,1618,0,0
-476,-594,0,0,0,0,0,0,0,0,0,-1,748,1618,0,0
-469,-594,0,0,0,0,0,0,0,0,0,-1,755,1618,0,0
-462,-594,0,0,0,0,0,0,0,0,0,-1,762,1618,0,0
-455,-594,-0.509216,-1.58411,0,0,0,0,0,0,0,-1,769,1618,-0.509245,1.58415
-448,-594,-7.71887,-0.0559082,0,0,0,0,0,0,0,-1,776,1618,-7.71885,0.055939
-441,-594,-5.78473,1.18298,0,0,0,0,0,0,0,-1,783,1618,-5.78474,-1.18295
-434,-594,-3.93628,3.06213,0,0,0,0,0,0,0,-1,790,1618,-3.93631,-3.06208
-427,-594,-3.97693,6.77759,0,0,0,0,0,0,0,-1,797,1618,-3.97695,-6.77764
-420,-594,-2.53046,7.71606,0,0,0,0,0,0,0,-1,804,1618,-2.53047,-7.71609
-413,-594,-0.860413,8.00391,0,0,0,0,0,0,0,-1,811,1618,-0.860423,-8.00389
-406,-594,3.18323,8.29382,0,0,0,0,0,0,0,-1,818,1618,3.18325,-8.29386
-399,-594,2.91992,8.67773,-0.00568703,0.00431116,-0.00182751,0.00463473,-0.0060106,-1.39556,0.00616317,0.0480921,825,1618,2.91994,-8.67774
-392,-594,2.59955,9.17175,-0.00560875,0.000892414,-0.00251923,0.00175435,-0.00647069,-1.24114,0.0050022,0.0398108,832,1618,2.59952,-9.1717
-385,-594,2.12616,9.69617,-0.00517736,-0.0013485,-0.00257019,-5.81059e-05,-0.00646775,-1.1055,0.0042926,0.0271469,839,1618,2.12616,-9.69618
-378,-594,2.04523,9.94031,-0.00442321,-0.00283554,-0.00231655,-0.00118058,-0.00607817,-0.950468,0.00372154,0.0120091,846,1618,2.04522,-9.94031
-371,-594,2.06329,10.1719,-0.00357727,-0.0037962,-0.00198782,-0.00169591,-0.00567757,-0.757892,0.00336533,0.0118488,853,1618,2.06329,-10.1718
-364,-594,2.07977,10.3859,-0.00285531,-0.00426346,-0.00169524,-0.00172375,-0.00539502,-0.588574,0.00318174,0.0111967,860,1618,2.07977,-10.3859
-357,-594,2.07709,10.6061,-0.00192903,-0.00442616,-0.00135424,-0.00133562,-0.00501957,-0.412988,0.00300191,0.0113339,867,1618,2.07709,-10.6061
-350,-594,2.05243,10.8491,-0.000860284,-0.00429871,-0.000941469,-0.00061938,-0.00453961,-0.250506,0.00284253,0.0152041,874,1618,2.0524,-10.8491
-343,-594,2.04913,11.0854,9.35768e-05,-0.00443844,-0.000492076,0.00014639,-0.00449125,-0.106918,0.00304414,0.0159378,881,1618,2.04914,-11.0855
-336,-594,2.03949,11.2543,0.00067826,-0.0042245,-0.000324443,0.000699637,-0.00424588,-0.0657931,0.00309031,0.0128472,888,1618,2.03952,-11.2543
-329,-594,2.04688,11.4701,0.00095531,-0.00428997,-0.000431959,0.000990645,-0.00432531,-0.081619,0.00326425,0.0129486,895,1618,2.04686,-11.4701
-322,-594,2.06818,11.6938,0.00101111,-0.00431797,-0.000460124,0.00105055,-0.00435741,-0.0854988,0.00331115,0.0147324,902,1618,2.06818,-11.6938
-315,-594,2.06641,11.9111,0.000932654,-0.0049004,-0.000625822,0.000999042,-0.00496679,-0.105686,0.00368957,0.0145475,909,1618,2.0664,-11.9111
-308,-594,2.06567,12.1123,0.000804006,-0.00600647,-0.000963961,0.000937817,-0.00614028,-0.137932,0.00443927,0.0138181,916,1618,2.06564,-12.1123
-301,-594,2.07654,12.2906,0.000494512,-0.00731498,-0.00146863,0.000761568,-0.00758203,-0.179874,0.00532672,0.0115181,923,1618,2.07656,-12.2906
-294,-594,2.09979,12.4858,0.000236949,-0.00922933,-0.00204609,0.000660271,-0.00965265,-0.204014,0.0066661,0.0112056,930,1618,2.09982,-12.4859
-287,-594,2.09949,12.7091,0.000205237,-0.0116251,-0.00256384,0.000736966,-0.0121569,-0.204496,0.00836106,0.012458,937,1618,2.09946,-12.7091
-280,-594,2.10516,12.9111,0.00615918,-0.0142448,0.0015509,0.00627639,-0.0143621,0.075432,0.0122166,0.0153793,944,1618,2.10515,-12.9112
-273,-594,2.17621,13.0522,0.021098,-0.0164043,0.0113372,0.0242589,-0.0195652,0.271903,0.0253502,0.0258431,951,1618,2.17622,-13.0523
-266,-594,2.20831,12.9974,0.0440079,-0.0217061,0.0255941,0.0527999,-0.0304981,0.330888,0.0486633,0.036659,958,1618,2.20832,-12.9974
-259,-594,2.36481,12.8644,0.0709433,-0.029376,0.0420497,0.0862372,-0.0446698,0.348836,0.0768388,0.0415293,965,1618,2.3648,-12.8644
-252,-594,2.29462,13.3379,0,0,0,0,0,0,0,-1,972,1618,2.29463,-13.3379
-245,-594,2.64874,12.8141,0,0,0,0,0,0,0,-1,979,1618,2.64876,-12.8141
-238,-594,2.48499,13.0104,0,0,0,0,0,0,0,-1,986,1618,2.48501,-13.0104
-231,-594,1.93774,9.35388,0,0,0,0,0,0,0,-1,993,1618,1.93776,-9.35393
-224,-594,1.81824,8.62744,0,0,0,0,0,0,0,-1,1000,1618,1.81822,-8.62745
-217,-594,-8.24066,12.0752,0,0,0,0,0,0,0,-1,1007,1618,-8.24068,-12.0751
-210,-594,-5.61438,14.2119,0,0,0,0,0,0,0,-1,1014,1618,-5.6144,-14.212
-203,-594,-3.94507,15.5768,0,0,0,0,0,0,0,-1,1021,1618,-3.94506,-15.5768
-196,-594,2.78613,10.5815,0,0,0,0,0,0,0,-1,1028,1618,2.78612,-10.5815
-189,-594,2.60913,9.48865,0,0,0,0,0,0,0,-1,1035,1618,2.6091,-9.48871
-182,-594,1.2395,9.38806,0,0,0,0,0,0,0,-1,1042,1618,1.23951,-9.38804
-175,-594,0.234863,8.73792,0,0,0,0,0,0,0,-1,1049,1618,0.234812,-8.73786
-168,-594,-0.495483,8.46289,0,0,0,0,0,0,0,-1,1056,1618,-0.495513,-8.46285
-161,-594,-1.39734,8.28699,0,0,0,0,0,0,0,-1,1063,1618,-1.39729,-8.28699
-154,-594,-0.000854492,7.68445,0,0,0,0,0,0,0,-1,1070,1618,-0.000805755,-7.6845
-147,-594,0.348267,9.3385,0,0,0,0,0,0,0,-1,1077,1618,0.348237,-9.33849
-140,-594,0.675171,11.5884,0,0,0,0,0,0,0,-1,1084,1618,0.675204,-11.5884
-133,-594,0,0,0,0,0,0,0,0,0,-1,1091,1618,0,0
-126,-594,0,0,0,0,0,0,0,0,0,-1,1098,1618,0,0
-119,-594,0,0,0,0,0,0,0,0,0,-1,1105,1618,0,0
-112,-594,0,0,0,0,0,0,0,0,0,-1,1112,1618,0,0
-105,-594,0,0,0,0,0,0,0,0,0,-1,1119,1618,0,0
-98,-594,0,0,0,0,0,0,0,0,0,-1,1126,1618,0,0
-91,-594,0,0,0,0,0,0,0,0,0,-1,1133,1618,0,0
-84,-594,0,0,0,0,0,0,0,0,0,-1,1140,1618,0,0
-77,-594,0,0,0,0,0,0,0,0,0,-1,1147,1618,0,0
-70,-594,0,0,0,0,0,0,0,0,0,-1,1154,1618,0,0
-63,-594,0,0,0,0,0,0,0,0,0,-1,1161,1618,0,0
-56,-594,0,0,0,0,0,0,0,0,0,-1,1168,1618,0,0
-49,-594,0,0,0,0,0,0,0,0,0,-1,1175,1618,0,0
-42,-594,0,0,0,0,0,0,0,0,0,-1,1182,1618,0,0
-35,-594,0,0,0,0,0,0,0,0,0,-1,1189,1618,0,0
-28,-594,0,0,0,0,0,0,0,0,0,-1,1196,1618,0,0
-21,-594,0,0,0,0,0,0,0,0,0,-1,1203,1618,0,0
-14,-594,0,0,0,0,0,0,0,0,0,-1,1210,1618,0,0
-7,-594,0,0,0,0,0,0,0,0,0,-1,1217,1618,0,0
0,-594,0,0,0,0,0,0,0,0,0,-1,1224,1618,0,0
7,-594,0,0,0,0,0,0,0,0,0,-1,1231,1618,0,0
14,-594,0,0,0,0,0,0,0,0,0,-1,1238,1618,0,0
21,-594,0,0,0,0,0,0,0,0,0,-1,1245,1618,0,0
28,-594,0,0,0,0,0,0,0,0,0,-1,1252,1618,0,0
35,-594,0,0,0,0,0,0,0,0,0,-1,1259,1618,0,0
42,-594,0,0,0,0,0,0,0,0,0,-1,1266,1618,0,0
49,-594,0,0,0,0,0,0,0,0,0,-1,1273,1618,0,0
56,-594,0,0,0,0,0,0,0,0,0,-1,1280,1618,0,0
63,-594,0,0,0,0,0,0,0,0,0,-1,1287,1618,0,0
70,-594,0,0,0,0,0,0,0,0,0,-1,1294,1618,0,0
77,-594,0,0,0,0,0,0,0,0,0,-1,1301,1618,0,0
84,-594,0,0,0,0,0,0,0,0,0,-1,1308,1618,0,0
91,-594,0,0,0,0,0,0,0,0,0,-1,1315,1618,0,0
98,-594,0,0,0,0,0,0,0,0,0,-1,1322,1618,0,0
105,-594,0,0,0,0,0,0,0,0,0,-1,1329,1618,0,0
112,-594,0,0,0,0,0,0,0,0,0,-1,1336,1618,0,0
119,-594,0,0,0,0,0,0,0,0,0,-1,1343,1618,0,0
126,-594,0,0,0,0,0,0,0,0,0,-1,1350,1618,0,0
133,-594,0,0,0,0,0,0,0,0,0,-1,1357,1618,0,0
140,-594,0,0,0,0,0,0,0,0,0,-1,1364,1618,0,0
147,-594,0,0,0,0,0,0,0,0,0,-1,1371,1618,0,0
154,-594,0,0,0,0,0,0,0,0,0,-1,1378,1618,0,0
161,-594,0,0,0,0,0,0,0,0,0,-1,1385,1618,0,0
168,-594,0,0,0,0,0,0,0,0,0,-1,1392,1618,0,0
175,-594,0,0,0,0,0,0,0,0,0,-1,1399,1618,0,0
182,-594,0,0,0,0,0,0,0,0,0,-1,1406,1618,0,0
189,-594,0,0,0,0,0,0,0,0,0,-1,1413,1618,0,0
196,-594,0,0,0,0,0,0,0,0,0,-1,1420,1618,0,0
203,-594,0,0,0,0,0,0,0,0,0,-1,1427,1618,0,0
210,-594,0,0,0,0,0,0,0,0,0,-1,1434,1618,0,0
217,-594,0,0,0,0,0,0,0,0,0,-1,1441,1618,0,0
224,-594,0,0,0,0,0,0,0,0,0,-1,1448,1618,0,0
231,-594,0,0,0,0,0,0,0,0,0,-1,1455,1618,0,0
238,-594,0,0,0,0,0,0,0,0,0,-1,1462,1618,0,0
245,-594,0,0,0,0,0,0,0,0,0,-1,1469,1618,0,0
252,-594,3.03674,1.20996,0,0,0,0,0,0,0,-1,1476,1618,3.0368,-1.20999
259,-594,4.79834,1.53113,0,0,0,0,0,0,0,-1,1483,1618,4.79837,-1.53118
266,-594,3.71606,2.68152,0,0,0,0,0,0,0,-1,1490,1618,3.71609,-2.68149
273,-594,9.7655,6.33557,0,0,0,0,0,0,0,-1,1497,1618,9.76555,-6.33554
280,-594,3.13281,0.911255,0,0,0,0,0,0,0,-1,1504,1618,3.13277,-0.911207
287,-594,4.42749,1.51563,0,0,0,0,0,0,0,-1,1511,1618,4.42747,-1.51564
294,-594,5.36475,3.34937,0,0,0,0,0,0,0,-1,1518,1618,5.36475,-3.3494
301,-594,7.97144,9.04333,0,0,0,0,0,0,0,-1,1525,1618,7.9714,-9.04328
308,-594,6.30347,10.4633,0,0,0,0,0,0,0,-1,1532,1618,6.30351,-10.4633
315,-594,4.62012,11.934,0,0,0,0,0,0,0,-1,1539,1618,4.62006,-11.934
322,-594,2.91528,13.3134,0,0,0,0,0,0,0,-1,1546,1618,2.91523,-13.3133
329,-594,4.19861,9.77258,0,0,0,0,0,0,0,-1,1553,1618,4.19865,-9.77264
336,-594,10.1353,4.66528,0,0,0,0,0,0,0,-1,1560,1618,10.1353,-4.66533
343,-594,10.5729,3.71228,0,0,0,0,0,0,0,-1,1567,1618,10.5729,-3.71232
350,-594,10.219,2.98792,0,0,0,0,0,0,0,-1,1574,1618,10.219,-2.98797
357,-594,9.83154,1.96326,0,0,0,0,0,0,0,-1,1581,1618,9.8315,-1.96321
364,-594,9.74939,0.700562,0,0,0,0,0,0,0,-1,1588,1618,9.74939,-0.700615
371,-594,8.54297,14.3988,0,0,0,0,0,0,0,-1,1595,1618,8.54296,-14.3989
378,-594,8.58423,14.0331,0,0,0,0,0,0,0,-1,1602,1618,8.58428,-14.0331
385,-594,8.62561,13.6674,0,0,0,0,0,0,0,-1,1609,1618,8.6256,-13.6674
392,-594,7.60364,13.2784,0,0,0,0,0,0,0,-1,1616,1618,7.60367,-13.2785
399,-594,7.75745,13.9351,-0.00110085,-0.0189292,0.0168223,0.00902319,-0.0290532,0.541757,0.022975,0.0419807,1623,1618,7.7575,-13.9351
406,-594,7.72864,13.8108,-0.0014246,-0.0161486,0.0154822,0.00835688,-0.02593,0.563465,0.0206441,0.0265911,1630,1618,7.7287,-13.8108
413,-594,7.67871,13.7189,-0.00167896,-0.0140001,0.0139959,0.00745223,-0.0231313,0.578074,0.0184146,0.0219139,1637,1618,7.67873,-13.7188
420,-594,7.6637,13.554,-0.00174471,-0.0118631,0.0123933,0.00658228,-0.0201901,0.591612,0.0161089,0.018457,1644,1618,7.66364,-13.554
427,-594,7.6499,13.463,-0.0017378,-0.00999951,0.0108115,0.00570517,-0.0174425,0.602917,0.0139252,0.0126985,1651,1618,7.6499,-13.463
434,-594,7.60571,13.2762,-0.00172677,-0.00834991,0.00923655,0.00477391,-0.0148506,0.613272,0.0118176,0.0165559,1658,1618,7.60573,-13.2763
441,-594,7.60852,13.0852,-0.00156666,-0.00694563,0.0076812,0.00388229,-0.0123946,0.616999,0.00981648,0.0158866,1665,1618,7.60852,-13.0852
448,-594,7.63647,12.9065,-0.00126683,-0.00560519,0.0062008,0.00313325,-0.0100053,0.61714,0.00792386,0.016437,1672,1618,7.63653,-12.9064
455,-594,7.61914,12.7225,-0.000920416,-0.00474555,0.00482764,0.0023597,-0.00802567,0.596798,0.00628642,0.0121699,1679,1618,7.61914,-12.7226
462,-594,7.61255,12.5309,-0.000506998,-0.00386008,0.00354471,0.00173766,-0.00610473,0.564503,0.00475605,0.0130149,1686,1618,7.61257,-12.5309
469,-594,7.60986,12.3615,-1.89183e-05,-0.00312001,0.00230777,0.00121082,-0.00434975,0.489597,0.0033766,0.0117582,1693,1618,7.60983,-12.3614
476,-594,7.60315,12.1855,0.000434225,-0.00247949,0.00120797,0.000869883,-0.00291515,0.346135,0.00228917,0.0120271,1700,1618,7.60317,-12.1855
483,-594,7.61047,11.9629,0.000938499,-0.0018314,0.000239886,0.000959121,-0.00185202,0.0857539,0.00165008,0.0150587,1707,1618,7.61044,-11.9629
490,-594,7.60168,11.7448,0.00156936,-0.00109779,-0.000563565,0.00168355,-0.00121198,-0.199917,0.00167911,0.0125819,1714,1618,7.60172,-11.7447
497,-594,7.59314,11.5522,0.00228425,-0.00054782,-0.0014432,0.00289009,-0.00115366,-0.397449,0.00240534,0.00911929,1721,1618,7.59309,-11.5523
504,-594,7.59326,11.3562,0.00278255,0.000152793,-0.00203082,0.003887,-0.000951652,-0.498103,0.00295999,0.00967249,1728,1618,7.59331,-11.3562
511,-594,7.60107,11.1469,0.00328507,0.000822104,-0.00258134,0.00491364,-0.00080646,-0.56283,0.00357503,0.0119771,1735,1618,7.60113,-11.1468
518,-594,7.61108,10.9243,0.00374033,0.00123684,-0.00304118,0.0057773,-0.000800126,-0.590165,0.00414407,0.0149049,1742,1618,7.61114,-10.9243
525,-594,7.63562,10.7106,0.00429602,0.00168167,-0.00338171,0.0066144,-0.000636711,-0.600972,0.00463643,0.0259219,1749,1618,7.63568,-10.7106
532,-594,7.53015,10.4111,0.00499333,0.00241175,-0.00376885,0.00768631,-0.000281226,-0.620414,0.00522047,0.0450878,1756,1618,7.53017,-10.4111
539,-594,7.28271,9.99451,0,0,0,0,0,0,0,-1,1763,1618,7.28272,-9.99456
546,-594,7.48645,8.54785,0,0,0,0,0,0,0,-1,1770,1618,7.48639,-8.54789
553,-594,3.69714,5.68762,0,0,0,0,0,0,0,-1,1777,1618,3.69715,-5.68764
560,-594,6.06616,4.44482,0,0,0,0,0,0,0,-1,1784,1618,6.06621,-4.44477
567,-594,5.97266,4.73303,0,0,0,0,0,0,0,-1,1791,1618,5.97271,-4.73309
574,-594,5.9906,4.96326,0,0,0,0,0,0,0,-1,1798,1618,5.99065,-4.96326
581,-594,0,0,0,0,0,0,0,0,0,-1,1805,1618,0,0
588,-594,0,0,0,0,0,0,0,0,0,-1,1812,1618,0,0
595,-594,0,0,0,0,0,0,0,0,0,-1,1819,1618,0,0
602,-594,0,0,0,0,0,0,0,0,0,-1,1826,1618,0,0
609,-594,0,0,0,0,0,0,0,0,0,-1,1833,1618,0,0
616,-594,0,0,0,0,0,0,0,0,0,-1,1840,1618,0,0
623,-594,0,0,0,0,0,0,0,0,0,-1,1847,1618,0,0
630,-594,0,0,0,0,0,0,0,0,0,-1,1854,1618,0,0
637,-594,0,0,0,0,0,0,0,0,0,-1,1861,1618,0,0
644,-594,0,0,0,0,0,0,0,0,0,-1,1868,1618,0,0
651,-594,0,0,0,0,0,0,0,0,0,-1,1875,1618,0,0
658,-594,0,0,0,0,0,0,0,0,0,-1,1882,1618,0,0
665,-594,0,0,0,0,0,0,0,0,0,-1,1889,1618,0,0
672,-594,0,0,0,0,0,0,0,0,0,-1,1896,1618,0,0
679,-594,0,0,0,0,0,0,0,0,0,-1,1903,1618,0,0
686,-594,0,0,0,0,0,0,0,0,0,-1,1910,1618,0,0
693,-594,0,0,0,0,0,0,0,0,0,-1,1917,1618,0,0
700,-594,0,0,0,0,0,0,0,0,0,-1,1924,1618,0,0
707,-594,0,0,0,0,0,0,0,0,0,-1,1931,1618,0,0
714,-594,0,0,0,0,0,0,0,0,0,-1,1938,1618,0,0
721,-594,0,0,0,0,0,0,0,0,0,-1,1945,1618,0,0
728,-594,0,0,0,0,0,0,0,0,0,-1,1952,1618,0,0
735,-594,0,0,0,0,0,0,0,0,0,-1,1959,1618,0,0
742,-594,0,0,0,0,0,0,0,0,0,-1,1966,1618,0,0
749,-594,0,0,0,0,0,0,0,0,0,-1,1973,1618,0,0
756,-594,0,0,0,0,0,0,0,0,0,-1,1980,1618,0,0
763,-594,0,0,0,0,0,0,0,0,0,-1,1987,1618,0,0
770,-594,0,0,0,0,0,0,0,0,0,-1,1994,1618,0,0
777,-594,0,0,0,0,0,0,0,0,0,-1,2001,1618,0,0
784,-594,0,0,0,0,0,0,0,0,0,-1,2008,1618,0,0
791,-594,0,0,0,0,0,0,0,0,0,-1,2015,1618,0,0
798,-594,0,0,0,0,0,0,0,0,0,-1,2022,1618,0,0
805,-594,0,0,0,0,0,0,0,0,0,-1,2029,1618,0,0
812,-594,0,0,0,0,0,0,0,0,0,-1,2036,1618,0,0
-700,-601,0,0,0,0,0,0,0,0,0,-1,524,1625,0,0
-693,-601,0,0,0,0,0,0,0,0,0,-1,531,1625,0,0
-686,-601,0,0,0,0,0,0,0,0,0,-1,538,1625,0,0
-679,-601,0,0,0,0,0,0,0,0,0,-1,545,1625,0,0
-672,-601,0,0,0,0,0,0,0,0,0,-1,552,1625,0,0
-665,-601,0,0,0,0,0,0,0,0,0,-1,559,1625,0,0
-658,-601,0,0,0,0,0,0,0,0,0,-1,566,1625,0,0
-651,-601,0,0,0,0,0,0,0,0,0,-1,573,1625,0,0
-644,-601,0,0,0,0,0,0,0,0,0,-1,580,1625,0,0
-637,-601,0,0,0,0,0,0,0,0,0,-1,587,1625,0,0
-630,-601,0,0,0,0,0,0,0,0,0,-1,594,1625,0,0
-623,-601,0,0,0,0,0,0,0,0,0,-1,601,1625,0,0
-616,-601,0,0,0,0,0,0,0,0,0,-1,608,1625,0,0
-609,-601,0,0,0,0,0,0,0,0,0,-1,615,1625,0,0
-602,-601,0,0,0,0,0,0,0,0,0,-1,622,1625,0,0
-595,-601,0,0,0,0,0,0,0,0,0,-1,629,1625,0,0
-588,-601,0,0,0,0,0,0,0,0,0,-1,636,1625,0,0
-581,-601,0,0,0,0,0,0,0,0,0,-1,643,1625,0,0
-574,-601,0,0,0,0,0,0,0,0,0,-1,650,1625,0,0
-567,-601,0,0,0,0,0,0,0,0,0,-1,657,1625,0,0
-560,-601,0,0,0,0,0,0,0,0,0,-1,664,1625,0,0
-553,-601,0,0,0,0,0,0,0,0,0,-1,671,1625,0,0
-546,-601,0,0,0,0,0,0,0,0,0,-1,678,1625,0,0
-539,-601,0,0,0,0,0,0,0,0,0,-1,685,1625,0,0
-532,-601,0,0,0,0,0,0,0,0,0,-1,692,1625,0,0
-525,-601,0,0,0,0,0,0,0,0,0,-1,699,1625,0,0
-518,-601,0,0,0,0,0,0,0,0,0,-1,706,1625,0,0
-511,-601,0,0,0,0,0,0,0,0,0,-1,713,1625,0,0
-504,-601,0,0,0,0,0,0,0,0,0,-1,720,1625,0,0
-497,-601,0,0,0,0,0,0,0,0,0,-1,727,1625,0,0
-490,-601,0,0,0,0,0,0,0,0,0,-1,734,1625,0,0
-483,-601,0,0,0,0,0,0,0,0,0,-1,741,1625,0,0
-476,-601,0,0,0,0,0,0,0,0,0,-1,748,1625,0,0
-469,-601,0,0,0,0,0,0,0,0,0,-1,755,1625,0,0
-462,-601,0,0,0,0,0,0,0,0,0,-1,762,1625,0,0
-455,-601,0,0,0,0,0,0,0,0,0,-1,769,1625,0,0
-448,-601,-7.07623,2.7616,0,0,0,0,0,0,0,-1,776,1625,-7.07626,-2.76161
-441,-601,-6.06689,3.33447,0,0,0,0,0,0,0,-1,783,1625,-6.06691,-3.33448
-434,-601,-5.02655,3.8468,0,0,0,0,0,0,0,-1,790,1625,-5.02657,-3.84674
-427,-601,-5.78601,4.2406,0,0,0,0,0,0,0,-1,797,1625,-5.786,-4.24058
-420,-601,-4.26819,5.33447,0,0,0,0,0,0,0,-1,804,1625,-4.26817,-5.33442
-413,-601,-2.75446,6.1803,0,0,0,0,0,0,0,-1,811,1625,-2.75449,-6.18033
-406,-601,-1.67493,7.20422,0,0,0,0,0,0,0,-1,818,1625,-1.67493,-7.20428
-399,-601,3.60492,8.34326,0,0,0,0,0,0,0,-1,825,1625,3.60494,-8.34332
-392,-601,3.2641,8.93091,0,0,0,0,0,0,0,-1,832,1625,3.26409,-8.93097
-385,-601,2.38708,9.84082,-0.00728847,-0.00389719,-0.00378197,-0.00144813,-0.00973752,-0.996138,0.00606686,0.0424409,839,1625,2.38707,-9.84077
-378,-601,2.28723,10.0569,-0.00604741,-0.00560412,-0.00329707,-0.00252126,-0.00913027,-0.81896,0.00544462,0.0294324,846,1625,2.28725,-10.0569
-371,-601,2.28772,10.1951,-0.00478851,-0.00650774,-0.00274476,-0.0027719,-0.00852435,-0.633644,0.00502081,0.0147058,853,1625,2.28769,-10.195
-364,-601,2.28827,10.3856,-0.00374985,-0.00671694,-0.00227044,-0.00252124,-0.00794556,-0.496011,0.00468833,0.0110603,860,1625,2.28829,-10.3856
-357,-601,2.26648,10.6001,-0.00259253,-0.00651148,-0.00177536,-0.00190787,-0.00719614,-0.36807,0.00430478,0.0108899,867,1625,2.26647,-10.6001
-350,-601,2.28363,10.8684,-0.00131815,-0.00583169,-0.00128256,-0.000979159,-0.00617069,-0.258399,0.00382936,0.0216733,874,1625,2.28363,-10.8684
-343,-601,2.2594,11.1091,-0.000184064,-0.00551774,-0.000772994,-7.42958e-05,-0.00562751,-0.141061,0.00372716,0.0216027,881,1625,2.25939,-11.1091
-336,-601,2.24237,11.2791,0.000544149,-0.00488503,-0.000537405,0.000596832,-0.00493771,-0.097721,0.00350772,0.0175954,888,1625,2.24238,-11.279
-329,-601,2.26031,11.5001,0.000929737,-0.00442348,-0.000575699,0.00099095,-0.00448469,-0.105929,0.00336904,0.01422,895,1625,2.26029,-11.5001
-322,-601,2.26465,11.7179,0.00106257,-0.00401694,-0.000546976,0.0011208,-0.00407517,-0.106063,0.00315741,0.0118881,902,1625,2.26467,-11.7179
-315,-601,2.26263,11.9064,0.00107291,-0.00420186,-0.00064459,0.00115053,-0.00427949,-0.119853,0.00330397,0.011933,909,1625,2.26264,-11.9064
-308,-601,2.25464,12.1073,0.00107139,-0.00485166,-0.000930865,0.00121424,-0.00499451,-0.152271,0.00379966,0.0110524,916,1625,2.25465,-12.1074
-301,-601,2.28052,12.3103,0.000899932,-0.0057351,-0.00136446,0.00116957,-0.00600473,-0.1951,0.00444461,0.00964431,923,1625,2.28054,-12.3103
-294,-601,2.28699,12.4939,0.00074358,-0.00718191,-0.00182654,0.00114427,-0.0075826,-0.215952,0.00547649,0.0104204,930,1625,2.28697,-12.4939
-287,-601,2.27704,12.7081,0.000795157,-0.00911589,-0.00220501,0.00126359,-0.00958432,-0.209327,0.00684971,0.0103438,937,1625,2.27705,-12.7082
-280,-601,2.28577,12.8949,0.00458617,-0.0112269,0.00025342,0.00459023,-0.0112309,0.0160205,0.00939873,0.0093233,944,1625,2.28574,-12.8949
-273,-601,2.30188,13.0889,0.0143979,-0.0131321,0.00650765,0.0158587,-0.0145929,0.220813,0.0175863,0.00980175,951,1625,2.30189,-13.0889
-266,-601,2.33209,13.2806,0.030461,-0.0173339,0.0163656,0.0355277,-0.0224006,0.300235,0.0337299,0.0131803,958,1625,2.3321,-13.2806
-259,-601,2.3728,13.403,0.0504459,-0.0233885,0.0285096,0.0601729,-0.0331154,0.328798,0.05461,0.0242301,965,1625,2.37283,-13.403
-252,-601,2.3847,13.4253,0.0712617,-0.0282416,0.0415232,0.0863129,-0.0432928,0.347745,0.0761895,0.0432654,972,1625,2.38468,-13.4253
-245,-601,2.35632,13.3285,0.0949209,-0.032912,0.0559162,0.115928,-0.0539186,0.359367,0.100215,0.0443064,979,1625,2.35632,-13.3284
-238,-601,2.52002,13.472,0.119757,-0.0381494,0.0710341,0.147008,-0.065401,0.366325,0.125615,0.0494143,986,1625,2.52003,-13.472
-231,-601,2.66772,13.7051,0,0,0,0,0,0,0,-1,993,1625,2.6677,-13.7051
-224,-601,-0.0305176,9.13684,0,0,0,0,0,0,0,-1,1000,1625,-0.030498,-9.13681
-217,-601,3.39429,10.3898,0,0,0,0,0,0,0,-1,1007,1625,3.39431,-10.3898
-210,-601,-6.53699,15.7931,0,0,0,0,0,0,0,-1,1014,1625,-6.53697,-15.7931
-203,-601,4.2666,11.9674,0,0,0,0,0,0,0,-1,1021,1625,4.26666,-11.9674
-196,-601,5.02148,12.1974,0,0,0,0,0,0,0,-1,1028,1625,5.02146,-12.1974
-189,-601,3.75391,14.5645,0,0,0,0,0,0,0,-1,1035,1625,3.75387,-14.5644
-182,-601,1.82153,13.9752,0,0,0,0,0,0,0,-1,1042,1625,1.82155,-13.9752
-175,-601,0.544922,9.28687,0,0,0,0,0,0,0,-1,1049,1625,0.544879,-9.28685
-168,-601,-0.247559,8.97461,0,0,0,0,0,0,0,-1,1056,1625,-0.247598,-8.97466
-161,-601,-1.16833,8.80078,0,0,0,0,0,0,0,-1,1063,1625,-1.16837,-8.80081
-154,-601,1.12756,7.94861,0,0,0,0,0,0,0,-1,1070,1625,1.12762,-7.94855
-147,-601,1.35352,9.55432,0,0,0,0,0,0,0,-1,1077,1625,1.35351,-9.55429
-140,-601,1.72437,11.1498,0,0,0,0,0,0,0,-1,1084,1625,1.72432,-11.1498
-133,-601,2.13281,12.8347,0,0,0,0,0,0,0,-1,1091,1625,2.13287,-12.8348
-126,-601,3.09534,15.427,0,0,0,0,0,0,0,-1,1098,1625,3.0953,-15.4271
-119,-601,1.22485,9.43457,0,0,0,0,0,0,0,-1,1105,1625,1.22489,-9.43456
-112,-601,0,0,0,0,0,0,0,0,0,-1,1112,1625,0,0
-105,-601,0,0,0,0,0,0,0,0,0,-1,1119,1625,0,0
-98,-601,0,0,0,0,0,0,0,0,0,-1,1126,1625,0,0
-91,-601,0,0,0,0,0,0,0,0,0,-1,1133,1625,0,0
-84,-601,0,0,0,0,0,0,0,0,0,-1,1140,1625,0,0
-77,-601,0,0,0,0,0,0,0,0,0,-1,1147,1625,0,0
-70,-601,0,0,0,0,0,0,0,0,0,-1,1154,1625,0,0
-63,-601,0,0,0,0,0,0,0,0,0,-1,1161,1625,0,0
-56,-601,0,0,0,0,0,0,0,0,0,-1,1168,1625,0,0
-49,-601,0,0,0,0,0,0,0,0,0,-1,1175,1625,0,0
-42,-601,0,0,0,0,0,0,0,0,0,-1,1182,1625,0,0
-35,-601,0,0,0,0,0,0,0,0,0,-1,1189,1625,0,0
-28,-601,0,0,0,0,0,0,0,0,0,-1,1196,1625,0,0
-21,-601,0,0,0,0,0,0,0,0,0,-1,1203,1625,0,0
-14,-601,0,0,0,0,0,0,0,0,0,-1,1210,1625,0,0
-7,-601,0,0,0,0,0,0,0,0,0,-1,1217,1625,0,0
0,-601,0,0,0,0,0,0,0,0,0,-1,1224,1625,0,0
7,-601,0,0,0,0,0,0,0,0,0,-1,1231,1625,0,0
14,-601,0,0,0,0,0,0,0,0,0,-1,1238,1625,0,0
21,-601,0,0,0,0,0,0,0,0,0,-1,1245,1625,0,0
28,-601,0,0,0,0,0,0,0,0,0,-1,1252,1625,0,0
35,-601,0,0,0,0,0,0,0,0,0,-1,1259,1625,0,0
42,-601,0,0,0,0,0,0,0,0,0,-1,1266,1625,0,0
49,-601,0,0,0,0,0,0,0,0,0,-1,1273,1625,0,0
56,-601,0,0,0,0,0,0,0,0,0,-1,1280,1625,0,0
63,-601,0,0,0,0,0,0,0,0,0,-1,1287,1625,0,0
70,-601,0,0,0,0,0,0,0,0,0,-1,1294,1625,0,0
77,-601,0,0,0,0,0,0,0,0,0,-1,1301,1625,0,0
84,-601,0,0,0,0,0,0,0,0,0,-1,1308,1625,0,0
91,-601,0,0,0,0,0,0,0,0,0,-1,1315,1625,0,0
98,-601,0,0,0,0,0,0,0,0,0,-1,1322,1625,0,0
105,-601,0,0,0,0,0,0,0,0,0,-1,1329,1625,0,0
112,-601,0,0,0,0,0,0,0,0,0,-1,1336,1625,0,0
119,-601,0,0,0,0,0,0,0,0,0,-1,1343,1625,0,0
126,-601,0,0,0,0,0,0,0,0,0,-1,1350,1625,0,0
133,-601,0,0,0,0,0,0,0,0,0,-1,1357,1625,0,0
140,-601,0,0,0,0,0,0,0,0,0,-1,1364,1625,0,0
147,-601,0,0,0,0,0,0,0,0,0,-1,1371,1625,0,0
154,-601,0,0,0,0,0,0,0,0,0,-1,1378,1625,0,0
161,-601,0,0,0,0,0,0,0,0,0,-1,1385,1625,0,0
168,-601,0,0,0,0,0,0,0,0,0,-1,1392,1625,0,0
175,-601,0,0,0,0,0,0,0,0,0,-1,1399,1625,0,0
182,-601,0,0,0,0,0,0,0,0,0,-1,1406,1625,0,0
189,-601,0,0,0,0,0,0,0,0,0,-1,1413,1625,0,0
196,-601,0,0,0,0,0,0,0,0,0,-1,1420,1625,0,0
203,-601,0,0,0,0,0,0,0,0,0,-1,1427,1625,0,0
210,-601,0,0,0,0,0,0,0,0,0,-1,1434,1625,0,0
217,-601,0,0,0,0,0,0,0,0,0,-1,1441,1625,0,0
224,-601,0,0,0,0,0,0,0,0,0,-1,1448,1625,0,0
231,-601,-0.0371094,0.525879,0,0,0,0,0,0,0,-1,1455,1625,-0.0371518,-0.525824
238,-601,2.03369,-1.32861,0,0,0,0,0,0,0,-1,1462,1625,2.03364,1.32858
245,-601,2.71375,2.44983,0,0,0,0,0,0,0,-1,1469,1625,2.71371,-2.44979
252,-601,4.66943,2.28381,0,0,0,0,0,0,0,-1,1476,1625,4.66947,-2.28376
259,-601,6.42712,2.61987,0,0,0,0,0,0,0,-1,1483,1625,6.42711,-2.61985
266,-601,6.75317,1.68701,0,0,0,0,0,0,0,-1,1490,1625,6.75323,-1.687
273,-601,5.4314,2.92053,0,0,0,0,0,0,0,-1,1497,1625,5.43144,-2.92051
280,-601,4.64722,1.17786,0,0,0,0,0,0,0,-1,1504,1625,4.64722,-1.1779
287,-601,5.32532,2.6217,0,0,0,0,0,0,0,-1,1511,1625,5.32535,-2.62171
294,-601,5.97693,4.22693,0,0,0,0,0,0,0,-1,1518,1625,5.97697,-4.22694
301,-601,7.28162,9.50024,0,0,0,0,0,0,0,-1,1525,1625,7.28162,-9.50025
308,-601,6.53528,10.3927,0,0,0,0,0,0,0,-1,1532,1625,6.53529,-10.3927
315,-601,4.88013,11.7184,0,0,0,0,0,0,0,-1,1539,1625,4.88015,-11.7184
322,-601,3.38098,12.7864,0,0,0,0,0,0,0,-1,1546,1625,3.38104,-12.7864
329,-601,1.8772,13.8768,0,0,0,0,0,0,0,-1,1553,1625,1.87716,-13.8768
336,-601,4.67847,9.53308,0,0,0,0,0,0,0,-1,1560,1625,4.67848,-9.53309
343,-601,11.1404,3.14575,0,0,0,0,0,0,0,-1,1567,1625,11.1404,-3.1458
350,-601,10.9462,2.37769,0,0,0,0,0,0,0,-1,1574,1625,10.9461,-2.37764
357,-601,10.7518,1.6095,0,0,0,0,0,0,0,-1,1581,1625,10.7518,-1.60948
364,-601,5.33643,9.74426,0,0,0,0,0,0,0,-1,1588,1625,5.33637,-9.74429
371,-601,7.86035,14.604,0,0,0,0,0,0,0,-1,1595,1625,7.86032,-14.6041
378,-601,7.88208,14.2474,0,0,0,0,0,0,0,-1,1602,1625,7.88214,-14.2474
385,-601,7.5636,13.8055,0,0,0,0,0,0,0,-1,1609,1625,7.56361,-13.8055
392,-601,7.47656,13.775,-0.000389338,-0.0169137,0.0130432,0.00678835,-0.0240914,0.503074,0.0187382,0.0443062,1616,1625,7.47653,-13.7751
399,-601,7.40918,14.0117,-0.000659959,-0.0145999,0.0122539,0.00646756,-0.0217274,0.526819,0.0170546,0.0197887,1623,1625,7.40915,-14.0117
406,-601,7.46313,13.9188,-0.000862668,-0.0125688,0.0113229,0.00603048,-0.0194619,0.546851,0.0153839,0.0144137,1630,1625,7.46312,-13.9188
413,-601,7.44922,13.7655,-0.00109289,-0.0107123,0.0102388,0.00540967,-0.0172148,0.56582,0.0136421,0.0132622,1637,1625,7.4492,-13.7655
420,-601,7.42456,13.629,-0.00114718,-0.00891508,0.00899966,0.00477086,-0.0148331,0.581688,0.0118049,0.0102506,1644,1625,7.4245,-13.6291
427,-601,7.45276,13.4689,-0.00113449,-0.00743211,0.0077709,0.00410132,-0.0126679,0.592905,0.0100941,0.0135864,1651,1625,7.45276,-13.4689
434,-601,7.4541,13.2593,-0.00112854,-0.00612068,0.00652457,0.00336111,-0.0106103,0.602705,0.00842058,0.0150639,1658,1625,7.45411,-13.2592
441,-601,7.44714,13.0509,-0.000991698,-0.00500337,0.00527968,0.00265033,-0.0086454,0.603861,0.0068209,0.017487,1665,1625,7.44711,-13.0509
448,-601,7.4552,12.8862,-0.000713282,-0.00396378,0.00408932,0.00206193,-0.00673898,0.596251,0.005315,0.0152207,1672,1625,7.45516,-12.8863
455,-601,7.44226,12.7118,-0.000364841,-0.0033867,0.00296283,0.00145008,-0.00520162,0.549605,0.00403883,0.0124627,1679,1625,7.44224,-12.7118
462,-601,7.42017,12.5183,3.75286e-05,-0.0028177,0.00190991,0.000994414,-0.00377458,0.464456,0.00290515,0.0102036,1686,1625,7.42021,-12.5183
469,-601,7.43042,12.3536,0.000519991,-0.00236826,0.000910732,0.000783183,-0.00263145,0.281325,0.00206546,0.0106894,1693,1625,7.43039,-12.3536
476,-601,7.42932,12.168,0.000998631,-0.0020068,2.69866e-05,0.000998873,-0.00200704,0.00897831,0.0017677,0.0128895,1700,1625,7.42936,-12.168
483,-601,7.4281,11.9579,0.00150398,-0.00163353,-0.000737884,0.00166885,-0.00179841,-0.219829,0.00200229,0.0151594,1707,1625,7.42813,-11.9579
490,-601,7.4231,11.7501,0.00217623,-0.00124723,-0.00140957,0.00268191,-0.00175291,-0.344447,0.0025791,0.0116316,1714,1625,7.42312,-11.7501
497,-601,7.43335,11.5521,0.00298471,-0.000934423,-0.00215735,0.0039396,-0.00188932,-0.416702,0.00343402,0.00929636,1721,1625,7.43338,-11.5521
504,-601,7.4469,11.3386,0.00357424,-0.000388237,-0.00261358,0.00487265,-0.00168665,-0.46108,0.00393311,0.012115,1728,1625,7.44693,-11.3386
511,-601,7.42871,11.1387,0.00416101,0.000102828,-0.00306927,0.00581127,-0.00154743,-0.493329,0.00447997,0.0224054,1735,1625,7.42877,-11.1387
518,-601,7.37219,10.8777,0.00471329,0.000592114,-0.00355466,0.00676143,-0.00145603,-0.522724,0.00506323,0.0347505,1742,1625,7.37217,-10.8777
525,-601,7.41614,10.6448,0.00545422,0.00132899,-0.00407196,0.00795617,-0.00117296,-0.550965,0.00573522,0.04316,1749,1625,7.41614,-10.6448
532,-601,7.50928,10.4553,0,0,0,0,0,0,0,-1,1756,1625,7.50927,-10.4553
539,-601,7.34729,10.4633,0,0,0,0,0,0,0,-1,1763,1625,7.34731,-10.4632
546,-601,6.56873,3.62354,0,0,0,0,0,0,0,-1,1770,1625,6.56867,-3.62352
553,-601,7.03015,4.25049,0,0,0,0,0,0,0,-1,1777,1625,7.03011,-4.25048
560,-601,7.50745,4.83374,0,0,0,0,0,0,0,-1,1784,1625,7.50744,-4.83376
567,-601,7.82043,3.83301,0,0,0,0,0,0,0,-1,1791,1625,7.82041,-3.83303
574,-601,0,0,0,0,0,0,0,0,0,-1,1798,1625,0,0
581,-601,0,0,0,0,0,0,0,0,0,-1,1805,1625,0,0
588,-601,0,0,0,0,0,0,0,0,0,-1,1812,1625,0,0
595,-601,0,0,0,0,0,0,0,0,0,-1,1819,1625,0,0
602,-601,0,0,0,0,0,0,0,0,0,-1,1826,1625,0,0
609,-601,0,0,0,0,0,0,0,0,0,-1,1833,1625,0,0
616,-601,0,0,0,0,0,0,0,0,0,-1,1840,1625,0,0
623,-601,0,0,0,0,0,0,0,0,0,-1,1847,1625,0,0
630,-601,0,0,0,0,0,0,0,0,0,-1,1854,1625,0,0
637,-601,0,0,0,0,0,0,0,0,0,-1,1861,1625,0,0
644,-601,0,0,0,0,0,0,0,0,0,-1,1868,1625,0,0
651,-601,0,0,0,0,0,0,0,0,0,-1,1875,1625,0,0
658,-601,0,0,0,0,0,0,0,0,0,-1,1882,1625,0,0
665,-601,0,0,0,0,0,0,0,0,0,-1,1889,1625,0,0
672,-601,0,0,0,0,0,0,0,0,0,-1,1896,1625,0,0
679,-601,0,0,0,0,0,0,0,0,0,-1,1903,1625,0,0
686,-601,0,0,0,0,0,0,0,0,0,-1,1910,1625,0,0
693,-601,0,0,0,0,0,0,0,0,0,-1,1917,1625,0,0
700,-601,0,0,0,0,0,0,0,0,0,-1,1924,1625,0,0
707,-601,0,0,0,0,0,0,0,0,0,-1,1931,1625,0,0
714,-601,0,0,0,0,0,0,0,0,0,-1,1938,1625,0,0
721,-601,0,0,0,0,0,0,0,0,0,-1,1945,1625,0,0
728,-601,0,0,0,0,0,0,0,0,0,-1,1952,1625,0,0
735,-601,0,0,0,0,0,0,0,0,0,-1,1959,1625,0,0
742,-601,0,0,0,0,0,0,0,0,0,-1,1966,1625,0,0
749,-601,0,0,0,0,0,0,0,0,0,-1,1973,1625,0,0
756,-601,0,0,0,0,0,0,0,0,0,-1,1980,1625,0,0
763,-601,0,0,0,0,0,0,0,0,0,-1,1987,1625,0,0
770,-601,0,0,0,0,0,0,0,0,0,-1,1994,1625,0,0
777,-601,0,0,0,0,0,0,0,0,0,-1,2001,1625,0,0
784,-601,0,0,0,0,0,0,0,0,0,-1,2008,1625,0,0
791,-601,0,0,0,0,0,0,0,0,0,-1,2015,1625,0,0
798,-601,0,0,0,0,0,0,0,0,0,-1,2022,1625,0,0
805,-601,0,0,0,0,0,0,0,0,0,-1,2029,1625,0,0
812,-601,0,0,0,0,0,0,0,0,0,-1,2036,1625,0,0
-700,-608,0,0,0,0,0,0,0,0,0,-1,524,1632,0,0
-693,-608,0,0,0,0,0,0,0,0,0,-1,531,1632,0,0
-686,-608,0,0,0,0,0,0,0,0,0,-1,538,1632,0,0
-679,-608,0,0,0,0,0,0,0,0,0,-1,545,1632,0,0
-672,-608,0,0,0,0,0,0,0,0,0,-1,552,1632,0,0
-665,-608,0,0,0,0,0,0,0,0,0,-1,559,1632,0,0
-658,-608,0,0,0,0,0,0,0,0,0,-1,566,1632,0,0
-651,-608,0,0,0,0,0,0,0,0,0,-1,573,1632,0,0
-644,-608,0,0,0,0,0,0,0,0,0,-1,580,1632,0,0
-637,-608,0,0,0,0,0,0,0,0,0,-1,587,1632,0,0
-630,-608,0,0,0,0,0,0,0,0,0,-1,594,1632,0,0
-623,-608,0,0,0,0,0,0,0,0,0,-1,601,1632,0,0
-616,-608,0,0,0,0,0,0,0,0,0,-1,608,1632,0,0
-609,-608,0,0,0,0,0,0,0,0,0,-1,615,1632,0,0
-602,-608,0,0,0,0,0,0,0,0,0,-1,622,1632,0,0
-595,-608,0,0,0,0,0,0,0,0,0,-1,629,1632,0,0
-588,-608,0,0,0,0,0,0,0,0,0,-1,636,1632,0,0
-581,-608,0,0,0,0,0,0,0,0,0,-1,643,1632,0,0
-574,-608,0,0,0,0,0,0,0,0,0,-1,650,1632,0,0
-567,-608,0,0,0,0,0,0,0,0,0,-1,657,1632,0,0
-560,-608,0,0,0,0,0,0,0,0,0,-1,664,1632,0,0
-553,-608,0,0,0,0,0,0,0,0,0,-1,671,1632,0,0
-546,-608,0,0,0,0,0,0,0,0,0,-1,678,1632,0,0
-539,-608,0,0,0,0,0,0,0,0,0,-1,685,1632,0,0
-532,-608,0,0,0,0,0,0,0,0,0,-1,692,1632,0,0
-525,-608,0,0,0,0,0,0,0,0,0,-1,699,1632,0,0
-518,-608,0,0,0,0,0,0,0,0,0,-1,706,1632,0,0
-511,-608,0,0,0,0,0,0,0,0,0,-1,713,1632,0,0
-504,-608,0,0,0,0,0,0,0,0,0,-1,720,1632,0,0
-497,-608,0,0,0,0,0,0,0,0,0,-1,727,1632,0,0
-490,-608,0,0,0,0,0,0,0,0,0,-1,734,1632,0,0
-483,-608,0,0,0,0,0,0,0,0,0,-1,741,1632,0,0
-476,-608,0,0,0,0,0,0,0,0,0,-1,748,1632,0,0
-469,-608,0,0,0,0,0,0,0,0,0,-1,755,1632,0,0
-462,-608,0,0,0,0,0,0,0,0,0,-1,762,1632,0,0
-455,-608,0,0,0,0,0,0,0,0,0,-1,769,1632,0,0
-448,-608,0,0,0,0,0,0,0,0,0,-1,776,1632,0,0
-441,-608,-7.34601,2.78052,0,0,0,0,0,0,0,-1,783,1632,-7.346,-2.78056
-434,-608,-6.34558,3.27405,0,0,0,0,0,0,0,-1,790,1632,-6.34555,-3.27406
-427,-608,-5.05603,3.92859,0,0,0,0,0,0,0,-1,797,1632,-5.05602,-3.92857
-420,-608,-5.61499,3.51917,0,0,0,0,0,0,0,-1,804,1632,-5.61498,-3.51914
-413,-608,-4.63806,4.34399,0,0,0,0,0,0,0,-1,811,1632,-4.63808,-4.34396
-406,-608,-3.69275,5.26758,0,0,0,0,0,0,0,-1,818,1632,-3.69272,-5.26761
-399,-608,-2.60645,6.34167,0,0,0,0,0,0,0,-1,825,1632,-2.60643,-6.34169
-392,-608,3.2226,9.26343,0,0,0,0,0,0,0,-1,832,1632,3.22258,-9.26349
-385,-608,2.69543,10.3248,0,0,0,0,0,0,0,-1,839,1632,2.69541,-10.3248
-378,-608,2.65198,10.371,-0.00779384,-0.00962126,-0.00449918,-0.00411653,-0.0132986,-0.685219,0.00786141,0.047276,846,1632,2.652,-10.3709
-371,-608,2.55432,10.2526,-0.00598275,-0.0103029,-0.00364577,-0.0039052,-0.0123805,-0.517958,0.00730841,0.0396773,853,1632,2.5543,-10.2526
-364,-608,2.50659,10.3452,-0.00465574,-0.0101017,-0.00296039,-0.00335648,-0.011401,-0.413572,0.00676532,0.016462,860,1632,2.5066,-10.3453
-357,-608,2.48572,10.5649,-0.00334791,-0.0093798,-0.00233447,-0.00254998,-0.0101777,-0.329356,0.00611503,0.0127808,867,1632,2.48572,-10.565
-350,-608,2.49023,10.8175,-0.00198959,-0.00804451,-0.00178283,-0.00150365,-0.00853045,-0.266103,0.00525791,0.0184183,874,1632,2.49024,-10.8175
-343,-608,2.47894,11.0516,-0.000793651,-0.00718328,-0.00121234,-0.000571361,-0.00740557,-0.181342,0.00475804,0.023892,881,1632,2.47894,-11.0516
-336,-608,2.47754,11.2638,-2.51089e-05,-0.0060575,-0.000899295,0.000106102,-0.00618871,-0.144882,0.00416163,0.0157637,888,1632,2.47753,-11.2638
-329,-608,2.46753,11.4984,0.000383495,-0.00501786,-0.000840857,0.000511368,-0.00514574,-0.150918,0.00361303,0.0142341,895,1632,2.46752,-11.4984
-322,-608,2.4444,11.713,0.000526026,-0.0041494,-0.000726683,0.000636367,-0.00425974,-0.150691,0.00307399,0.0148322,902,1632,2.44438,-11.713
-315,-608,2.46838,11.9116,0.00057601,-0.00388975,-0.00071812,0.000688647,-0.00400239,-0.155582,0.00292496,0.0130094,909,1632,2.4684,-11.9116
-308,-608,2.47247,12.121,0.000674328,-0.00402183,-0.000905709,0.00084295,-0.00419045,-0.184069,0.0031129,0.0131115,916,1632,2.47249,-12.121
-301,-608,2.46021,12.3239,0.000648318,-0.00442616,-0.00120632,0.00092049,-0.00469833,-0.221906,0.00347987,0.0105716,923,1632,2.46019,-12.3239
-294,-608,2.47369,12.5076,0.000622384,-0.00533525,-0.00148891,0.000973763,-0.00568663,-0.231757,0.0041539,0.0106176,930,1632,2.47368,-12.5075
-287,-608,2.47809,12.7014,0.000799222,-0.00674503,-0.00168376,0.00115795,-0.00710376,-0.209915,0.00516527,0.0104895,937,1632,2.4781,-12.7014
-280,-608,2.4939,12.8849,0.00319058,-0.00830617,-0.000278944,0.00319735,-0.00831293,-0.0242438,0.00686075,0.00854798,944,1632,2.49389,-12.8849
-273,-608,2.4917,13.0834,0.00936332,-0.00983532,0.00348256,0.00997552,-0.0104475,0.174013,0.0117923,0.0083176,951,1632,2.49169,-13.0834
-266,-608,2.50806,13.2932,0.0199894,-0.013019,0.00985463,0.0227076,-0.0157372,0.269142,0.0223174,0.00844397,958,1632,2.50808,-13.2933
-259,-608,2.52234,13.447,0.0338595,-0.0175945,0.0181916,0.0396414,-0.0233764,0.307739,0.0367851,0.0121149,965,1632,2.52233,-13.447
-252,-608,2.53741,13.5634,0.0486338,-0.0214776,0.0272619,0.0579866,-0.0308304,0.330489,0.0520713,0.0269035,972,1632,2.53739,-13.5633
-245,-608,2.53711,13.701,0.0659336,-0.0252151,0.0376199,0.0794547,-0.0387362,0.345038,0.0695744,0.0362969,979,1632,2.53708,-13.701
-238,-608,2.5434,13.8032,0.0845899,-0.029322,0.0488626,0.102678,-0.0474096,0.354532,0.0885896,0.0412764,986,1632,2.54338,-13.8032
-231,-608,2.51721,14.0707,0,0,0,0,0,0,0,-1,993,1632,2.51721,-14.0707
-224,-608,2.3443,12.0583,0,0,0,0,0,0,0,-1,1000,1632,2.34432,-12.0584
-217,-608,1.04419,12.8451,0,0,0,0,0,0,0,-1,1007,1632,1.04418,-12.8451
-210,-608,3.21924,12.5037,0,0,0,0,0,0,0,-1,1014,1632,3.21925,-12.5036
-203,-608,3.93274,12.6932,0,0,0,0,0,0,0,-1,1021,1632,3.9327,-12.6932
-196,-608,3.42505,14.8745,0,0,0,0,0,0,0,-1,1028,1632,3.42504,-14.8745
-189,-608,3.65442,14.7294,0,0,0,0,0,0,0,-1,1035,1632,3.65443,-14.7294
-182,-608,3.88379,14.5842,0,0,0,0,0,0,0,-1,1042,1632,3.88383,-14.5842
-175,-608,0.219116,15.1643,0,0,0,0,0,0,0,-1,1049,1632,0.219173,-15.1644
-168,-608,0.000366211,9.48645,0,0,0,0,0,0,0,-1,1056,1632,0.000317105,-9.48648
-161,-608,-0.939453,9.31458,0,0,0,0,0,0,0,-1,1063,1632,-0.939447,-9.31463
-154,-608,0.503418,14.4747,0,0,0,0,0,0,0,-1,1070,1632,0.503374,-14.4748
-147,-608,2.4386,9.50317,0,0,0,0,0,0,0,-1,1077,1632,2.43858,-9.50313
-140,-608,2.60132,10.8401,0,0,0,0,0,0,0,-1,1084,1632,2.60134,-10.8401
-133,-608,3.2312,12.4738,0,0,0,0,0,0,0,-1,1091,1632,3.23116,-12.4738
-126,-608,3.76465,13.9644,0,0,0,0,0,0,0,-1,1098,1632,3.76466,-13.9644
-119,-608,4.28906,15.4196,0,0,0,0,0,0,0,-1,1105,1632,4.28911,-15.4195
-112,-608,0.745117,10.5587,0,0,0,0,0,0,0,-1,1112,1632,0.745145,-10.5587
-105,-608,-0.252319,1.42419,0,0,0,0,0,0,0,-1,1119,1632,-0.252331,-1.42418
-98,-608,-1.67896,0.994629,0,0,0,0,0,0,0,-1,1126,1632,-1.67895,-0.994599
-91,-608,-2.99451,0.744629,0,0,0,0,0,0,0,-1,1133,1632,-2.99453,-0.744605
-84,-608,0,0,0,0,0,0,0,0,0,-1,1140,1632,0,0
-77,-608,0,0,0,0,0,0,0,0,0,-1,1147,1632,0,0
-70,-608,0,0,0,0,0,0,0,0,0,-1,1154,1632,0,0
-63,-608,0,0,0,0,0,0,0,0,0,-1,1161,1632,0,0
-56,-608,0,0,0,0,0,0,0,0,0,-1,1168,1632,0,0
-49,-608,0,0,0,0,0,0,0,0,0,-1,1175,1632,0,0
-42,-608,0,0,0,0,0,0,0,0,0,-1,1182,1632,0,0
-35,-608,0,0,0,0,0,0,0,0,0,-1,1189,1632,0,0
-28,-608,0,0,0,0,0,0,0,0,0,-1,1196,1632,0,0
-21,-608,0,0,0,0,0,0,0,0,0,-1,1203,1632,0,0
-14,-608,0,0,0,0,0,0,0,0,0,-1,1210,1632,0,0
-7,-608,0,0,0,0,0,0,0,0,0,-1,1217,1632,0,0
0,-608,0,0,0,0,0,0,0,0,0,-1,1224,1632,0,0
7,-608,0,0,0,0,0,0,0,0,0,-1,1231,1632,0,0
14,-608,0,0,0,0,0,0,0,0,0,-1,1238,1632,0,0
21,-608,0,0,0,0,0,0,0,0,0,-1,1245,1632,0,0
28,-608,0,0,0,0,0,0,0,0,0,-1,1252,1632,0,0
35,-608,0,0,0,0,0,0,0,0,0,-1,1259,1632,0,0
42,-608,0,0,0,0,0,0,0,0,0,-1,1266,1632,0,0
49,-608,0,0,0,0,0,0,0,0,0,-1,1273,1632,0,0
56,-608,0,0,0,0,0,0,0,0,0,-1,1280,1632,0,0
63,-608,0,0,0,0,0,0,0,0,0,-1,1287,1632,0,0
70,-608,0,0,0,0,0,0,0,0,0,-1,1294,1632,0,0
77,-608,0,0,0,0,0,0,0,0,0,-1,1301,1632,0,0
84,-608,0,0,0,0,0,0,0,0,0,-1,1308,1632,0,0
91,-608,0,0,0,0,0,0,0,0,0,-1,1315,1632,0,0
98,-608,0,0,0,0,0,0,0,0,0,-1,1322,1632,0,0
105,-608,0,0,0,0,0,0,0,0,0,-1,1329,1632,0,0
112,-608,0,0,0,0,0,0,0,0,0,-1,1336,1632,0,0
119,-608,0,0,0,0,0,0,0,0,0,-1,1343,1632,0,0
126,-608,0,0,0,0,0,0,0,0,0,-1,1350,1632,0,0
133,-608,0,0,0,0,0,0,0,0,0,-1,1357,1632,0,0
140,-608,0,0,0,0,0,0,0,0,0,-1,1364,1632,0,0
147,-608,0,0,0,0,0,0,0,0,0,-1,1371,1632,0,0
154,-608,0,0,0,0,0,0,0,0,0,-1,1378,1632,0,0
161,-608,0,0,0,0,0,0,0,0,0,-1,1385,1632,0,0
168,-608,0,0,0,0,0,0,0,0,0,-1,1392,1632,0,0
175,-608,0,0,0,0,0,0,0,0,0,-1,1399,1632,0,0
182,-608,0,0,0,0,0,0,0,0,0,-1,1406,1632,0,0
189,-608,0,0,0,0,0,0,0,0,0,-1,1413,1632,0,0
196,-608,0,0,0,0,0,0,0,0,0,-1,1420,1632,0,0
203,-608,0,0,0,0,0,0,0,0,0,-1,1427,1632,0,0
210,-608,5.7157,-0.333008,0,0,0,0,0,0,0,-1,1434,1632,5.71566,0.333004
217,-608,4.49402,-0.831787,0,0,0,0,0,0,0,-1,1441,1632,4.49396,0.831738
224,-608,4.18018,-1.11792,0,0,0,0,0,0,0,-1,1448,1632,4.1802,1.11796
231,-608,0.361816,0.825195,0,0,0,0,0,0,0,-1,1455,1632,0.36185,-0.825226
238,-608,2.85388,-0.28833,0,0,0,0,0,0,0,-1,1462,1632,2.85391,0.288282
245,-608,3.87537,4.02173,0,0,0,0,0,0,0,-1,1469,1632,3.87538,-4.02168
252,-608,5.66956,3.5282,0,0,0,0,0,0,0,-1,1476,1632,5.6696,-3.52815
259,-608,7.47437,3.07178,0,0,0,0,0,0,0,-1,1483,1632,7.4744,-3.07172
266,-608,9.46936,2.34766,0,0,0,0,0,0,0,-1,1490,1632,9.46932,-2.34764
273,-608,6.03003,3.34241,0,0,0,0,0,0,0,-1,1497,1632,6.02997,-3.34245
280,-608,5.72461,2.0769,0,0,0,0,0,0,0,-1,1504,1632,5.72457,-2.07688
287,-608,6.20581,3.59338,0,0,0,0,0,0,0,-1,1511,1632,6.20585,-3.59341
294,-608,6.94922,5.17151,0,0,0,0,0,0,0,-1,1518,1632,6.94925,-5.17151
301,-608,7.60083,6.68018,0,0,0,0,0,0,0,-1,1525,1632,7.60086,-6.68013
308,-608,7.64746,9.93848,0,0,0,0,0,0,0,-1,1532,1632,7.64745,-9.93842
315,-608,5.30688,11.2054,0,0,0,0,0,0,0,-1,1539,1632,5.30694,-11.2054
322,-608,5.32617,13.7581,0,0,0,0,0,0,0,-1,1546,1632,5.32613,-13.758
329,-608,5.00195,13.7511,0,0,0,0,0,0,0,-1,1553,1632,5.00192,-13.7511
336,-608,5.48633,7.82446,0,0,0,0,0,0,0,-1,1560,1632,5.48634,-7.82446
343,-608,5.47192,5.61047,0,0,0,0,0,0,0,-1,1567,1632,5.47192,-5.61045
350,-608,11.6957,1.71387,0,0,0,0,0,0,0,-1,1574,1632,11.6957,-1.71388
357,-608,3.77002,5.10046,0,0,0,0,0,0,0,-1,1581,1632,3.77002,-5.10043
364,-608,5.6925,11.2163,0,0,0,0,0,0,0,-1,1588,1632,5.69255,-11.2163
371,-608,6.97437,14.8192,0,0,0,0,0,0,0,-1,1595,1632,6.97433,-14.8192
378,-608,7.27759,14.4333,0.000967466,-0.0140037,0.0105342,0.00640484,-0.0194411,0.476496,0.015542,0.0381957,1602,1632,7.27756,-14.4333
385,-608,7.37097,14.2859,0.000286093,-0.013388,0.0100058,0.00556767,-0.0186695,0.485681,0.014659,0.03476,1609,1632,7.37101,-14.2859
392,-608,7.28406,14.2119,-0.000208529,-0.0127123,0.00951006,0.0049206,-0.0178414,0.49462,0.0138294,0.0224041,1616,1632,7.28406,-14.2119
399,-608,7.25891,14.1232,-0.000266319,-0.0113487,0.00884219,0.00462748,-0.0162425,0.505496,0.012656,0.0106381,1623,1632,7.25889,-14.1232
406,-608,7.23816,13.9795,-0.000288348,-0.00988977,0.00815179,0.00437131,-0.0145494,0.519284,0.0114386,0.00899698,1630,1632,7.2382,-13.9795
413,-608,7.21936,13.806,-0.000395756,-0.00843106,0.00733493,0.00394977,-0.0127766,0.534844,0.0100952,0.00946927,1637,1632,7.21936,-13.8061
420,-608,7.21423,13.6323,-0.000385211,-0.00701484,0.00636321,0.00347482,-0.0108749,0.545271,0.00864421,0.0156915,1644,1632,7.21424,-13.6323
427,-608,7.24329,13.449,-0.000337145,-0.00587935,0.00540842,0.00296876,-0.00918526,0.548652,0.00731669,0.0166885,1651,1632,7.24332,-13.449
434,-608,7.26648,13.2605,-0.000307089,-0.00484708,0.00440398,0.0023775,-0.00753167,0.547436,0.00597347,0.0143561,1658,1632,7.26642,-13.2605
441,-608,7.2561,13.0784,-0.000184773,-0.00395077,0.00339711,0.0018163,-0.00595184,0.532331,0.00469201,0.0137538,1665,1632,7.25616,-13.0784
448,-608,7.27368,12.9113,5.37198e-05,-0.0031507,0.00244494,0.00137466,-0.00447164,0.495346,0.0035297,0.0160243,1672,1632,7.27369,-12.9112
455,-608,7.27588,12.7256,0.00036233,-0.00277989,0.00152808,0.000982887,-0.00340045,0.385757,0.00265592,0.0117748,1679,1632,7.27585,-12.7256
462,-608,7.24902,12.5315,0.000689494,-0.00244598,0.000676411,0.000829192,-0.00258568,0.203664,0.00205668,0.00977692,1686,1632,7.24908,-12.5314
469,-608,7.23853,12.3521,0.00108578,-0.00219879,-0.00011306,0.00108967,-0.00220268,-0.0343674,0.00193671,0.0078343,1693,1632,7.23855,-12.352
476,-608,7.24524,12.162,0.00151624,-0.00201399,-0.000818017,0.00169658,-0.00219432,-0.216985,0.00225253,0.00819984,1700,1632,7.24518,-12.162
483,-608,7.2428,11.962,0.00196142,-0.0018096,-0.00142912,0.00244182,-0.00229,-0.324284,0.00273238,0.00778682,1707,1632,7.24276,-11.962
490,-608,7.25635,11.7623,0.00261936,-0.00169623,-0.00203423,0.00342706,-0.00250393,-0.377966,0.00343806,0.00822624,1714,1632,7.25629,-11.7623
497,-608,7.27759,11.5547,0.00350097,-0.00155764,-0.00272731,0.00469129,-0.00274797,-0.411524,0.00434363,0.0126793,1721,1632,7.2776,-11.5547
504,-608,7.27295,11.3584,0.00430778,-0.00124937,-0.00319299,0.00576189,-0.00270348,-0.427342,0.00499268,0.0270258,1728,1632,7.27292,-11.3584
511,-608,7.40027,11.254,0.00514697,-0.000875185,-0.00365644,0.00687258,-0.00260079,-0.440945,0.00565177,0.0397046,1735,1632,7.40027,-11.254
518,-608,7.1543,10.8195,0,0,0,0,0,0,0,-1,1742,1632,7.1543,-10.8195
525,-608,7.16113,10.5829,0,0,0,0,0,0,0,-1,1749,1632,7.16111,-10.5829
532,-608,7.25708,10.1648,0,0,0,0,0,0,0,-1,1756,1632,7.25708,-10.1648
539,-608,9.40796,1.43457,0,0,0,0,0,0,0,-1,1763,1632,9.40801,-1.43463
546,-608,9.94031,2.1134,0,0,0,0,0,0,0,-1,1770,1632,9.94031,-2.11346
553,-608,10.363,2.81335,0,0,0,0,0,0,0,-1,1777,1632,10.3631,-2.81333
560,-608,9.23999,4.5636,0,0,0,0,0,0,0,-1,1784,1632,9.24,-4.56354
567,-608,0,0,0,0,0,0,0,0,0,-1,1791,1632,0,0
574,-608,0,0,0,0,0,0,0,0,0,-1,1798,1632,0,0
581,-608,0,0,0,0,0,0,0,0,0,-1,1805,1632,0,0
588,-608,0,0,0,0,0,0,0,0,0,-1,1812,1632,0,0
595,-608,0,0,0,0,0,0,0,0,0,-1,1819,1632,0,0
602,-608,0,0,0,0,0,0,0,0,0,-1,1826,1632,0,0
609,-608,0,0,0,0,0,0,0,0,0,-1,1833,1632,0,0
616,-608,0,0,0,0,0,0,0,0,0,-1,1840,1632,0,0
623,-608,0,0,0,0,0,0,0,0,0,-1,1847,1632,0,0
630,-608,0,0,0,0,0,0,0,0,0,-1,1854,1632,0,0
637,-608,0,0,0,0,0,0,0,0,0,-1,1861,1632,0,0
644,-608,0,0,0,0,0,0,0,0,0,-1,1868,1632,0,0
651,-608,0,0,0,0,0,0,0,0,0,-1,1875,1632,0,0
658,-608,0,0,0,0,0,0,0,0,0,-1,1882,1632,0,0
665,-608,0,0,0,0,0,0,0,0,0,-1,1889,1632,0,0
672,-608,0,0,0,0,0,0,0,0,0,-1,1896,1632,0,0
679,-608,0,0,0,0,0,0,0,0,0,-1,1903,1632,0,0
686,-608,0,0,0,0,0,0,0,0,0,-1,1910,1632,0,0
693,-608,0,0,0,0,0,0,0,0,0,-1,1917,1632,0,0
700,-608,0,0,0,0,0,0,0,0,0,-1,1924,1632,0,0
707,-608,0,0,0,0,0,0,0,0,0,-1,1931,1632,0,0
714,-608,0,0,0,0,0,0,0,0,0,-1,1938,1632,0,0
721,-608,0,0,0,0,0,0,0,0,0,-1,1945,1632,0,0
728,-608,0,0,0,0,0,0,0,0,0,-1,1952,1632,0,0
735,-608,0,0,0,0,0,0,0,0,0,-1,1959,1632,0,0
742,-608,0,0,0,0,0,0,0,0,0,-1,1966,1632,0,0
749,-608,0,0,0,0,0,0,0,0,0,-1,1973,1632,0,0
756,-608,0,0,0,0,0,0,0,0,0,-1,1980,1632,0,0
763,-608,0,0,0,0,0,0,0,0,0,-1,1987,1632,0,0
770,-608,0,0,0,0,0,0,0,0,0,-1,1994,1632,0,0
777,-608,0,0,0,0,0,0,0,0,0,-1,2001,1632,0,0
784,-608,0,0,0,0,0,0,0,0,0,-1,2008,1632,0,0
791,-608,0,0,0,0,0,0,0,0,0,-1,2015,1632,0,0
798,-608,0,0,0,0,0,0,0,0,0,-1,2022,1632,0,0
805,-608,0,0,0,0,0,0,0,0,0,-1,2029,1632,0,0
812,-608,0,0,0,0,0,0,0,0,0,-1,2036,1632,0,0
-700,-615,0,0,0,0,0,0,0,0,0,-1,524,1639,0,0
-693,-615,0,0,0,0,0,0,0,0,0,-1,531,1639,0,0
-686,-615,0,0,0,0,0,0,0,0,0,-1,538,1639,0,0
-679,-615,0,0,0,0,0,0,0,0,0,-1,545,1639,0,0
-672,-615,0,0,0,0,0,0,0,0,0,-1,552,1639,0,0
-665,-615,0,0,0,0,0,0,0,0,0,-1,559,1639,0,0
-658,-615,0,0,0,0,0,0,0,0,0,-1,566,1639,0,0
-651,-615,0,0,0,0,0,0,0,0,0,-1,573,1639,0,0
-644,-615,0,0,0,0,0,0,0,0,0,-1,580,1639,0,0
-637,-615,0,0,0,0,0,0,0,0,0,-1,587,1639,0,0
-630,-615,0,0,0,0,0,0,0,0,0,-1,594,1639,0,0
-623,-615,0,0,0,0,0,0,0,0,0,-1,601,1639,0,0
-616,-615,0,0,0,0,0,0,0,0,0,-1,608,1639,0,0
-609,-615,0,0,0,0,0,0,0,0,0,-1,615,1639,0,0
-602,-615,0,0,0,0,0,0,0,0,0,-1,622,1639,0,0
-595,-615,0,0,0,0,0,0,0,0,0,-1,629,1639,0,0
-588,-615,0,0,0,0,0,0,0,0,0,-1,636,1639,0,0
-581,-615,0,0,0,0,0,0,0,0,0,-1,643,1639,0,0
-574,-615,0,0,0,0,0,0,0,0,0,-1,650,1639,0,0
-567,-615,0,0,0,0,0,0,0,0,0,-1,657,1639,0,0
-560,-615,0,0,0,0,0,0,0,0,0,-1,664,1639,0,0
-553,-615,0,0,0,0,0,0,0,0,0,-1,671,1639,0,0
-546,-615,0,0,0,0,0,0,0,0,0,-1,678,1639,0,0
-539,-615,0,0,0,0,0,0,0,0,0,-1,685,1639,0,0
-532,-615,0,0,0,0,0,0,0,0,0,-1,692,1639,0,0
-525,-615,0,0,0,0,0,0,0,0,0,-1,699,1639,0,0
-518,-615,0,0,0,0,0,0,0,0,0,-1,706,1639,0,0
-511,-615,0,0,0,0,0,0,0,0,0,-1,713,1639,0,0
-504,-615,0,0,0,0,0,0,0,0,0,-1,720,1639,0,0
-497,-615,0,0,0,0,0,0,0,0,0,-1,727,1639,0,0
-490,-615,0,0,0,0,0,0,0,0,0,-1,734,1639,0,0
-483,-615,0,0,0,0,0,0,0,0,0,-1,741,1639,0,0
-476,-615,0,0,0,0,0,0,0,0,0,-1,748,1639,0,0
-469,-615,0,0,0,0,0,0,0,0,0,-1,755,1639,0,0
-462,-615,0,0,0,0,0,0,0,0,0,-1,762,1639,0,0
-455,-615,0,0,0,0,0,0,0,0,0,-1,769,1639,0,0
-448,-615,0,0,0,0,0,0,0,0,0,-1,776,1639,0,0
-441,-615,0,0,0,0,0,0,0,0,0,-1,783,1639,0,0
-434,-615,-7.64508,2.98596,0,0,0,0,0,0,0,-1,790,1639,-7.64505,-2.98594
-427,-615,-8.88153,0.496216,0,0,0,0,0,0,0,-1,797,1639,-8.88154,-0.49627
-420,-615,-7.74091,1.49768,0,0,0,0,0,0,0,-1,804,1639,-7.7409,-1.49771
-413,-615,-6.54474,2.53772,0,0,0,0,0,0,0,-1,811,1639,-6.54472,-2.53775
-406,-615,-5.43872,3.50488,0,0,0,0,0,0,0,-1,818,1639,-5.43874,-3.50493
-399,-615,-4.84875,3.91907,0,0,0,0,0,0,0,-1,825,1639,-4.84877,-3.91901
-392,-615,-3.4469,5.28418,0,0,0,0,0,0,0,-1,832,1639,-3.44689,-5.28422
-385,-615,2.35748,10.79,0,0,0,0,0,0,0,-1,839,1639,2.35748,-10.79
-378,-615,2.99469,10.2687,0,0,0,0,0,0,0,-1,846,1639,2.9947,-10.2686
-371,-615,2.89307,10.3361,-0.00700697,-0.0153906,-0.00473025,-0.00487846,-0.0175191,-0.422835,0.0104404,0.0498363,853,1639,2.89307,-10.336
-364,-615,2.82721,10.3905,-0.00537366,-0.0145148,-0.00383962,-0.00397491,-0.0159135,-0.349353,0.00956349,0.034679,860,1639,2.82718,-10.3905
-357,-615,2.76361,10.6572,-0.00403712,-0.0129872,-0.00312503,-0.00305398,-0.0139703,-0.304801,0.00848087,0.0295388,867,1639,2.76362,-10.6572
-350,-615,2.69684,10.8785,-0.00282122,-0.0109174,-0.0025087,-0.00210689,-0.0116318,-0.277398,0.00715634,0.0277842,874,1639,2.69681,-10.8785
-343,-615,2.66266,11.0183,-0.00172956,-0.0094051,-0.00187394,-0.00129648,-0.00983818,-0.227118,0.00617218,0.019498,881,1639,2.66266,-11.0183
-336,-615,2.68671,11.2559,-0.00102893,-0.00767968,-0.00149006,-0.000710355,-0.00799826,-0.210631,0.00511186,0.010191,888,1639,2.68671,-11.2559
-329,-615,2.67334,11.4816,-0.000658162,-0.00600701,-0.00134308,-0.00033986,-0.00632531,-0.232701,0.00410828,0.0106261,895,1639,2.67331,-11.4815
-322,-615,2.6604,11.7225,-0.00053118,-0.00465776,-0.00116241,-0.000226272,-0.00496267,-0.256527,0.00323566,0.0114418,902,1639,2.6604,-11.7226
-315,-615,2.68286,11.9366,-0.000445438,-0.0039461,-0.00107315,-0.000142645,-0.00424889,-0.275004,0.00278626,0.0131503,909,1639,2.68287,-11.9366
-308,-615,2.65167,12.1298,-0.000233799,-0.00357568,-0.00118308,0.000142629,-0.00395211,-0.308048,0.00268355,0.019486,916,1639,2.65166,-12.1298
-301,-615,2.64996,12.3116,-8.21212e-05,-0.00353735,-0.00137105,0.000395807,-0.00401528,-0.335415,0.00281807,0.0127327,923,1639,2.64994,-12.3116
-294,-615,2.66827,12.5078,6.24974e-05,-0.00396387,-0.00150265,0.000561456,-0.00446283,-0.320598,0.00317894,0.0103007,930,1639,2.66827,-12.5078
-287,-615,2.6745,12.7043,0.000407757,-0.00491557,-0.00154474,0.000823539,-0.00533136,-0.262929,0.00385816,0.00794703,937,1639,2.67448,-12.7044
-280,-615,2.69312,12.882,0.00206378,-0.00601092,-0.000706755,0.00212518,-0.00607231,-0.0866491,0.0049123,0.00863443,944,1639,2.69313,-12.882
-273,-615,2.68353,13.0853,0.00602724,-0.00715305,0.00155681,0.00620863,-0.00733444,0.11599,0.00782809,0.00936964,951,1639,2.68351,-13.0854
-266,-615,2.68268,13.2855,0.0129255,-0.00946096,0.00556704,0.0142335,-0.0107689,0.230766,0.0144813,0.00987292,958,1639,2.68269,-13.2856
-259,-615,2.71423,13.4542,0.022083,-0.0127324,0.0109997,0.0252671,-0.0159165,0.281768,0.0239808,0.0121354,965,1639,2.71425,-13.4542
-252,-615,2.73492,13.5967,0.031879,-0.0156417,0.0169024,0.0372776,-0.0210403,0.309158,0.0341021,0.0131649,972,1639,2.73491,-13.5967
-245,-615,2.71783,13.7598,0.043513,-0.0184333,0.0237757,0.0515863,-0.0265065,0.327343,0.0458554,0.0185818,979,1639,2.71784,-13.7597
-238,-615,2.69263,14.0063,0.0563331,-0.0214111,0.0314417,0.0674572,-0.0325353,0.340057,0.0588926,0.0261745,986,1639,2.69265,-14.0063
-231,-615,2.74054,14.1458,0.0698928,-0.0248741,0.0394754,0.0841818,-0.0391631,0.347302,0.0727771,0.0363693,993,1639,2.74051,-14.1458
-224,-615,2.93506,14.2152,0,0,0,0,0,0,0,-1,1000,1639,2.93508,-14.2152
-217,-615,3.22528,14.196,0,0,0,0,0,0,0,-1,1007,1639,3.22529,-14.1961
-210,-615,3.03198,14.6821,0,0,0,0,0,0,0,-1,1014,1639,3.03201,-14.6821
-203,-615,4.22534,12.771,0,0,0,0,0,0,0,-1,1021,1639,4.22531,-12.771
-196,-615,3.34863,15.0626,0,0,0,0,0,0,0,-1,1028,1639,3.34863,-15.0626
-189,-615,3.58887,14.9342,0,0,0,0,0,0,0,-1,1035,1639,3.58882,-14.9342
-182,-615,3.82898,14.8059,0,0,0,0,0,0,0,-1,1042,1639,3.829,-14.8059
-175,-615,-0.609985,13.8434,0,0,0,0,0,0,0,-1,1049,1639,-0.610016,-13.8434
-168,-615,2.02783,9.96631,0,0,0,0,0,0,0,-1,1056,1639,2.0278,-9.96637
-161,-615,0.378418,15.2075,0,0,0,0,0,0,0,-1,1063,1639,0.378426,-15.2076
-154,-615,2.46997,15.0148,0,0,0,0,0,0,0,-1,1070,1639,2.46995,-15.0147
-147,-615,1.44019,13.1343,0,0,0,0,0,0,0,-1,1077,1639,1.44018,-13.1343
-140,-615,3.73401,10.2349,0,0,0,0,0,0,0,-1,1084,1639,3.73402,-10.2348
-133,-615,3.88013,11.3654,0,0,0,0,0,0,0,-1,1091,1639,3.88015,-11.3654
-126,-615,4.43408,12.5017,0,0,0,0,0,0,0,-1,1098,1639,4.43403,-12.5018
-119,-615,4.82983,13.9279,0,0,0,0,0,0,0,-1,1105,1639,4.82986,-13.9278
-112,-615,3.65698,14.4874,0,0,0,0,0,0,0,-1,1112,1639,3.65695,-14.4875
-105,-615,0.958496,2.45398,0,0,0,0,0,0,0,-1,1119,1639,0.958452,-2.45398
-98,-615,-0.647705,2.12109,0,0,0,0,0,0,0,-1,1126,1639,-0.647756,-2.12105
-91,-615,-1.48572,0.604492,0,0,0,0,0,0,0,-1,1133,1639,-1.48576,-0.604443
-84,-615,-2.46509,0.703247,0,0,0,0,0,0,0,-1,1140,1639,-2.46505,-0.703273
-77,-615,-3.17859,1.23755,0,0,0,0,0,0,0,-1,1147,1639,-3.17865,-1.23752
-70,-615,-4.03943,1.43335,0,0,0,0,0,0,0,-1,1154,1639,-4.03942,-1.43339
-63,-615,-4.8877,1.45544,0,0,0,0,0,0,0,-1,1161,1639,-4.88766,-1.45549
-56,-615,0,0,0,0,0,0,0,0,0,-1,1168,1639,0,0
-49,-615,0,0,0,0,0,0,0,0,0,-1,1175,1639,0,0
-42,-615,0,0,0,0,0,0,0,0,0,-1,1182,1639,0,0
-35,-615,0,0,0,0,0,0,0,0,0,-1,1189,1639,0,0
-28,-615,0,0,0,0,0,0,0,0,0,-1,1196,1639,0,0
-21,-615,0,0,0,0,0,0,0,0,0,-1,1203,1639,0,0
-14,-615,0,0,0,0,0,0,0,0,0,-1,1210,1639,0,0
-7,-615,0,0,0,0,0,0,0,0,0,-1,1217,1639,0,0
0,-615,0,0,0,0,0,0,0,0,0,-1,1224,1639,0,0
7,-615,0,0,0,0,0,0,0,0,0,-1,1231,1639,0,0
14,-615,0,0,0,0,0,0,0,0,0,-1,1238,1639,0,0
21,-615,0,0,0,0,0,0,0,0,0,-1,1245,1639,0,0
28,-615,0,0,0,0,0,0,0,0,0,-1,1252,1639,0,0
35,-615,0,0,0,0,0,0,0,0,0,-1,1259,1639,0,0
42,-615,0,0,0,0,0,0,0,0,0,-1,1266,1639,0,0
49,-615,0,0,0,0,0,0,0,0,0,-1,1273,1639,0,0
56,-615,0,0,0,0,0,0,0,0,0,-1,1280,1639,0,0
63,-615,0,0,0,0,0,0,0,0,0,-1,1287,1639,0,0
70,-615,0,0,0,0,0,0,0,0,0,-1,1294,1639,0,0
77,-615,0,0,0,0,0,0,0,0,0,-1,1301,1639,0,0
84,-615,0,0,0,0,0,0,0,0,0,-1,1308,1639,0,0
91,-615,0,0,0,0,0,0,0,0,0,-1,1315,1639,0,0
98,-615,0,0,0,0,0,0,0,0,0,-1,1322,1639,0,0
105,-615,0,0,0,0,0,0,0,0,0,-1,1329,1639,0,0
112,-615,0,0,0,0,0,0,0,0,0,-1,1336,1639,0,0
119,-615,0,0,0,0,0,0,0,0,0,-1,1343,1639,0,0
126,-615,0,0,0,0,0,0,0,0,0,-1,1350,1639,0,0
133,-615,0,0,0,0,0,0,0,0,0,-1,1357,1639,0,0
140,-615,0,0,0,0,0,0,0,0,0,-1,1364,1639,0,0
147,-615,0,0,0,0,0,0,0,0,0,-1,1371,1639,0,0
154,-615,0,0,0,0,0,0,0,0,0,-1,1378,1639,0,0
161,-615,0,0,0,0,0,0,0,0,0,-1,1385,1639,0,0
168,-615,0,0,0,0,0,0,0,0,0,-1,1392,1639,0,0
175,-615,5.39648,-2.00879,0,0,0,0,0,0,0,-1,1399,1639,5.3965,2.00881
182,-615,5.65393,-1.51025,0,0,0,0,0,0,0,-1,1406,1639,5.65388,1.51028
189,-615,5.58972,-1.35608,0,0,0,0,0,0,0,-1,1413,1639,5.58967,1.35607
196,-615,5.49915,-0.693604,0,0,0,0,0,0,0,-1,1420,1639,5.4991,0.693602
203,-615,5.33411,-0.226685,0,0,0,0,0,0,0,-1,1427,1639,5.33414,0.226689
210,-615,5.60278,0.108276,0,0,0,0,0,0,0,-1,1434,1639,5.60284,-0.10831
217,-615,6.26331,-0.307373,0,0,0,0,0,0,0,-1,1441,1639,6.26331,0.307372
224,-615,5.45422,-0.333984,0,0,0,0,0,0,0,-1,1448,1639,5.45422,0.333992
231,-615,4.92542,1.80298,0,0,0,0,0,0,0,-1,1455,1639,4.92537,-1.80297
238,-615,4.76355,1.96729,0,0,0,0,0,0,0,-1,1462,1639,4.76357,-1.96734
245,-615,4.08643,3.15906,0,0,0,0,0,0,0,-1,1469,1639,4.08638,-3.159
252,-615,6.37805,3.73889,0,0,0,0,0,0,0,-1,1476,1639,6.37806,-3.73891
259,-615,8.35974,3.16443,0,0,0,0,0,0,0,-1,1483,1639,8.35975,-3.16444
266,-615,10.3414,2.58997,0,0,0,0,0,0,0,-1,1490,1639,10.3414,-2.58996
273,-615,6.57043,1.84766,0,0,0,0,0,0,0,-1,1497,1639,6.5704,-1.84771
280,-615,7.10449,3.23438,0,0,0,0,0,0,0,-1,1504,1639,7.10447,-3.23435
287,-615,7.35779,4.68542,0,0,0,0,0,0,0,-1,1511,1639,7.35776,-4.68546
294,-615,7.63733,6.29114,0,0,0,0,0,0,0,-1,1518,1639,7.63735,-6.29109
301,-615,8.47925,11.452,0,0,0,0,0,0,0,-1,1525,1639,8.47922,-11.452
308,-615,6.8114,10.9059,0,0,0,0,0,0,0,-1,1532,1639,6.81137,-10.9058
315,-615,5.1427,14.7251,0,0,0,0,0,0,0,-1,1539,1639,5.14269,-14.7251
322,-615,6.3783,14.6656,0,0,0,0,0,0,0,-1,1546,1639,6.37834,-14.6656
329,-615,6.43286,14.8693,0,0,0,0,0,0,0,-1,1553,1639,6.4329,-14.8693
336,-615,5.4082,13.5924,0,0,0,0,0,0,0,-1,1560,1639,5.4082,-13.5925
343,-615,2.40491,6.50134,0,0,0,0,0,0,0,-1,1567,1639,2.40489,-6.50137
350,-615,6.4458,15.4594,0,0,0,0,0,0,0,-1,1574,1639,6.44578,-15.4593
357,-615,6.92773,15.0042,0,0,0,0,0,0,0,-1,1581,1639,6.92774,-15.0042
364,-615,6.96802,14.7985,0,0,0,0,0,0,0,-1,1588,1639,6.96803,-14.7984
371,-615,6.95972,14.6953,0.00129788,-0.0121475,0.00767222,0.00477605,-0.0156256,0.425634,0.0123216,0.0407907,1595,1639,6.95976,-14.6954
378,-615,7.01147,14.5811,0.000904123,-0.0100539,0.00756441,0.00476534,-0.0139151,0.471969,0.0112081,0.0212636,1602,1639,7.01142,-14.581
385,-615,7.04016,14.4384,0.000370698,-0.00964648,0.00721589,0.0041459,-0.0134217,0.482019,0.0106035,0.0120283,1609,1639,7.04021,-14.4384
392,-615,7.06494,14.298,-3.69032e-06,-0.00927059,0.00679824,0.00358994,-0.0128642,0.486275,0.00999016,0.00978736,1616,1639,7.0649,-14.2979
399,-615,7.06506,14.162,-8.26518e-05,-0.00829429,0.00617446,0.0032265,-0.0116034,0.491985,0.00900589,0.0111454,1623,1639,7.06506,-14.162
406,-615,7.05627,13.9707,-0.000107446,-0.00713909,0.00556391,0.00295838,-0.0102049,0.503626,0.00797447,0.0110132,1630,1639,7.05627,-13.9707
413,-615,7.05725,13.8041,-0.000209325,-0.00598962,0.00487302,0.00256615,-0.0087651,0.517736,0.00686066,0.0112162,1637,1639,7.05724,-13.8041
420,-615,7.06079,13.639,-0.000230206,-0.00489115,0.00406522,0.00212517,-0.00724652,0.525132,0.00567366,0.0122544,1644,1639,7.06083,-13.639
427,-615,7.06848,13.4445,-0.000226536,-0.00403696,0.00329527,0.00167464,-0.00593814,0.523293,0.00461929,0.0133401,1651,1639,7.0685,-13.4445
434,-615,7.08801,13.2742,-0.0002242,-0.00325734,0.00246589,0.00115416,-0.0046357,0.509704,0.00353849,0.0128135,1658,1639,7.08803,-13.2742
441,-615,7.07739,13.1001,-0.000134383,-0.00259903,0.00165289,0.000695012,-0.00342842,0.465073,0.00254907,0.0135572,1665,1639,7.07738,-13.1001
448,-615,7.06335,12.9199,7.7716e-05,-0.00209961,0.000919209,0.00041388,-0.00243577,0.350601,0.00177794,0.0152302,1672,1639,7.06332,-12.9199
455,-615,7.06909,12.757,0.000393189,-0.00201614,0.000216529,0.000412494,-0.00203545,0.0889214,0.00151332,0.0146872,1679,1639,7.06911,-12.757
462,-615,7.07068,12.5757,0.000729254,-0.00202357,-0.000410896,0.000789277,-0.00208359,-0.145053,0.00171384,0.0138325,1686,1639,7.07067,-12.5757
469,-615,7.05164,12.3583,0.00115397,-0.00209332,-0.000955789,0.0014144,-0.00235376,-0.266023,0.00219797,0.0111603,1693,1639,7.05167,-12.3583
476,-615,7.05701,12.1586,0.00167767,-0.00218893,-0.00143975,0.00215488,-0.00266614,-0.320053,0.00278862,0.0101345,1700,1639,7.057,-12.1586
483,-615,7.06897,11.9446,0.00220897,-0.00225373,-0.00184704,0.00287425,-0.00291901,-0.345722,0.00334477,0.0134866,1707,1639,7.06899,-11.9445
490,-615,7.09753,11.7552,0.00300757,-0.00253333,-0.00233772,0.00386208,-0.00338783,-0.350443,0.00418872,0.0156483,1714,1639,7.0976,-11.7552
497,-615,7.08228,11.6008,0.00416307,-0.00270177,-0.00297104,0.00527032,-0.00380902,-0.356736,0.00526454,0.0233797,1721,1639,7.08227,-11.6009
504,-615,7.36279,11.521,0.0051978,-0.00250199,-0.00359812,0.00661746,-0.00392164,-0.375804,0.00615075,0.0419308,1728,1639,7.36274,-11.5211
511,-615,7.62231,11.4088,0,0,0,0,0,0,0,-1,1735,1639,7.62232,-11.4088
518,-615,7.35779,10.4647,0,0,0,0,0,0,0,-1,1742,1639,7.35773,-10.4647
525,-615,4.37524,3.90491,0,0,0,0,0,0,0,-1,1749,1639,4.37518,-3.90495
532,-615,7.3645,0.848145,0,0,0,0,0,0,0,-1,1756,1639,7.36451,-0.848093
539,-615,12.8112,-0.0476074,0,0,0,0,0,0,0,-1,1763,1639,12.8111,0.0475553
546,-615,8.33813,2.94556,0,0,0,0,0,0,0,-1,1770,1639,8.33813,-2.9455
553,-615,5.82532,-2.04199,0,0,0,0,0,0,0,-1,1777,1639,5.82534,2.04195
560,-615,0,0,0,0,0,0,0,0,0,-1,1784,1639,0,0
567,-615,0,0,0,0,0,0,0,0,0,-1,1791,1639,0,0
574,-615,0,0,0,0,0,0,0,0,0,-1,1798,1639,0,0
581,-615,0,0,0,0,0,0,0,0,0,-1,1805,1639,0,0
588,-615,0,0,0,0,0,0,0,0,0,-1,1812,1639,0,0
595,-615,0,0,0,0,0,0,0,0,0,-1,1819,1639,0,0
602,-615,0,0,0,0,0,0,0,0,0,-1,1826,1639,0,0
609,-615,0,0,0,0,0,0,0,0,0,-1,1833,1639,0,0
616,-615,0,0,0,0,0,0,0,0,0,-1,1840,1639,0,0
623,-615,0,0,0,0,0,0,0,0,0,-1,1847,1639,0,0
630,-615,0,0,0,0,0,0,0,0,0,-1,1854,1639,0,0
637,-615,0,0,0,0,0,0,0,0,0,-1,1861,1639,0,0
644,-615,0,0,0,0,0,0,0,0,0,-1,1868,1639,0,0
651,-615,0,0,0,0,0,0,0,0,0,-1,1875,1639,0,0
658,-615,0,0,0,0,0,0,0,0,0,-1,1882,1639,0,0
665,-615,0,0,0,0,0,0,0,0,0,-1,1889,1639,0,0
672,-615,0,0,0,0,0,0,0,0,0,-1,1896,1639,0,0
679,-615,0,0,0,0,0,0,0,0,0,-1,1903,1639,0,0
686,-615,0,0,0,0,0,0,0,0,0,-1,1910,1639,0,0
693,-615,0,0,0,0,0,0,0,0,0,-1,1917,1639,0,0
700,-615,0,0,0,0,0,0,0,0,0,-1,1924,1639,0,0
707,-615,0,0,0,0,0,0,0,0,0,-1,1931,1639,0,0
714,-615,0,0,0,0,0,0,0,0,0,-1,1938,1639,0,0
721,-615,0,0,0,0,0,0,0,0,0,-1,1945,1639,0,0
728,-615,0,0,0,0,0,0,0,0,0,-1,1952,1639,0,0
735,-615,0,0,0,0,0,0,0,0,0,-1,1959,1639,0,0
742,-615,0,0,0,0,0,0,0,0,0,-1,1966,1639,0,0
749,-615,0,0,0,0,0,0,0,0,0,-1,1973,1639,0,0
756,-615,0,0,0,0,0,0,0,0,0,-1,1980,1639,0,0
763,-615,0,0,0,0,0,0,0,0,0,-1,1987,1639,0,0
770,-615,0,0,0,0,0,0,0,0,0,-1,1994,1639,0,0
777,-615,0,0,0,0,0,0,0,0,0,-1,2001,1639,0,0
784,-615,0,0,0,0,0,0,0,0,0,-1,2008,1639,0,0
791,-615,0,0,0,0,0,0,0,0,0,-1,2015,1639,0,0
798,-615,0,0,0,0,0,0,0,0,0,-1,2022,1639,0,0
805,-615,0,0,0,0,0,0,0,0,0,-1,2029,1639,0,0
812,-615,0,0,0,0,0,0,0,0,0,-1,2036,1639,0,0
-700,-622,0,0,0,0,0,0,0,0,0,-1,524,1646,0,0
-693,-622,0,0,0,0,0,0,0,0,0,-1,531,1646,0,0
-686,-622,0,0,0,0,0,0,0,0,0,-1,538,1646,0,0
-679,-622,0,0,0,0,0,0,0,0,0,-1,545,1646,0,0
-672,-622,0,0,0,0,0,0,0,0,0,-1,552,1646,0,0
-665,-622,0,0,0,0,0,0,0,0,0,-1,559,1646,0,0
-658,-622,0,0,0,0,0,0,0,0,0,-1,566,1646,0,0
-651,-622,0,0,0,0,0,0,0,0,0,-1,573,1646,0,0
-644,-622,0,0,0,0,0,0,0,0,0,-1,580,1646,0,0
-637,-622,0,0,0,0,0,0,0,0,0,-1,587,1646,0,0
-630,-622,0,0,0,0,0,0,0,0,0,-1,594,1646,0,0
-623,-622,0,0,0,0,0,0,0,0,0,-1,601,1646,0,0
-616,-622,0,0,0,0,0,0,0,0,0,-1,608,1646,0,0
-609,-622,0,0,0,0,0,0,0,0,0,-1,615,1646,0,0
-602,-622,0,0,0,0,0,0,0,0,0,-1,622,1646,0,0
-595,-622,0,0,0,0,0,0,0,0,0,-1,629,1646,0,0
-588,-622,0,0,0,0,0,0,0,0,0,-1,636,1646,0,0
-581,-622,0,0,0,0,0,0,0,0,0,-1,643,1646,0,0
-574,-622,0,0,0,0,0,0,0,0,0,-1,650,1646,0,0
-567,-622,0,0,0,0,0,0,0,0,0,-1,657,1646,0,0
-560,-622,0,0,0,0,0,0,0,0,0,-1,664,1646,0,0
-553,-622,0,0,0,0,0,0,0,0,0,-1,671,1646,0,0
-546,-622,0,0,0,0,0,0,0,0,0,-1,678,1646,0,0
-539,-622,0,0,0,0,0,0,0,0,0,-1,685,1646,0,0
-532,-622,0,0,0,0,0,0,0,0,0,-1,692,1646,0,0
-525,-622,0,0,0,0,0,0,0,0,0,-1,699,1646,0,0
-518,-622,0,0,0,0,0,0,0,0,0,-1,706,1646,0,0
-511,-622,0,0,0,0,0,0,0,0,0,-1,713,1646,0,0
-504,-622,0,0,0,0,0,0,0,0,0,-1,720,1646,0,0
-497,-622,0,0,0,0,0,0,0,0,0,-1,727,1646,0,0
-490,-622,0,0,0,0,0,0,0,0,0,-1,734,1646,0,0
-483,-622,0,0,0,0,0,0,0,0,0,-1,741,1646,0,0
-476,-622,0,0,0,0,0,0,0,0,0,-1,748,1646,0,0
-469,-622,0,0,0,0,0,0,0,0,0,-1,755,1646,0,0
-462,-622,0,0,0,0,0,0,0,0,0,-1,762,1646,0,0
-455,-622,0,0,0,0,0,0,0,0,0,-1,769,1646,0,0
-448,-622,0,0,0,0,0,0,0,0,0,-1,776,1646,0,0
-441,-622,0,0,0,0,0,0,0,0,0,-1,783,1646,0,0
-434,-622,0,0,0,0,0,0,0,0,0,-1,790,1646,0,0
-427,-622,-7.62891,3.48096,0,0,0,0,0,0,0,-1,797,1646,-7.62892,-3.48092
-420,-622,-9.86938,0.0371094,0,0,0,0,0,0,0,-1,804,1646,-9.86937,-0.0371326
-413,-622,-8.5658,1.0321,0,0,0,0,0,0,0,-1,811,1646,-8.56579,-1.03216
-406,-622,-4.44318,2.16858,0,0,0,0,0,0,0,-1,818,1646,-4.44315,-2.16859
-399,-622,-7.06976,1.51001,0,0,0,0,0,0,0,-1,825,1646,-7.06976,-1.51005
-392,-622,3.89551,5.85376,0,0,0,0,0,0,0,-1,832,1646,3.8955,-5.85379
-385,-622,4.37762,7.35767,0,0,0,0,0,0,0,-1,839,1646,4.37765,-7.35761
-378,-622,2.55804,11.1315,0,0,0,0,0,0,0,-1,846,1646,2.55805,-11.1314
-371,-622,3.1297,10.3395,0,0,0,0,0,0,0,-1,853,1646,3.12967,-10.3394
-364,-622,2.97644,10.7333,-0.00614002,-0.0202599,-0.00492646,-0.00459108,-0.0218089,-0.304625,0.0132762,0.0440624,860,1646,2.97643,-10.7333
-357,-622,2.71753,11.0585,-0.00533406,-0.0175036,-0.00428952,-0.00397407,-0.0188636,-0.307023,0.0114826,0.0464545,867,1646,2.71753,-11.0585
-350,-622,2.70892,11.1194,-0.00453416,-0.0144073,-0.00356973,-0.00337871,-0.0155627,-0.313038,0.00945239,0.042081,874,1646,2.7089,-11.1194
-343,-622,2.75275,11.1346,-0.00363253,-0.0120631,-0.00281963,-0.00277643,-0.0129192,-0.294775,0.00785269,0.0275059,881,1646,2.75273,-11.1346
-336,-622,2.86877,11.2737,-0.00303148,-0.00960171,-0.00230021,-0.00230624,-0.010327,-0.305427,0.00625915,0.00947589,888,1646,2.86879,-11.2736
-329,-622,2.88147,11.4922,-0.00269588,-0.00722261,-0.00198018,-0.00195193,-0.00796656,-0.359383,0.00479471,0.00811023,895,1646,2.88144,-11.4922
-322,-622,2.87494,11.7189,-0.00255028,-0.00538308,-0.00165276,-0.00179003,-0.00614333,-0.431129,0.00364831,0.0101901,902,1646,2.87494,-11.7188
-315,-622,2.87531,11.9039,-0.00239387,-0.00423651,-0.0014197,-0.00162274,-0.00500764,-0.497578,0.00295023,0.0142016,909,1646,2.87532,-11.904
-308,-622,2.8703,12.0972,-0.00203632,-0.0034124,-0.00139681,-0.00116729,-0.00428143,-0.556551,0.00255565,0.0140302,916,1646,2.87033,-12.0972
-301,-622,2.87085,12.2994,-0.00166812,-0.00301112,-0.00143124,-0.000758687,-0.00392056,-0.566055,0.0024011,0.0134381,923,1646,2.87086,-12.2995
-294,-622,2.86652,12.5154,-0.00131464,-0.0030502,-0.0013991,-0.000536054,-0.00382878,-0.507812,0.00239393,0.0109183,930,1646,2.86651,-12.5153
-287,-622,2.87305,12.7065,-0.00075865,-0.00364433,-0.00129859,-0.000260326,-0.00414266,-0.366414,0.00267922,0.00825039,937,1646,2.87305,-12.7066
-280,-622,2.87646,12.8926,0.000333208,-0.00436412,-0.000984425,0.000531172,-0.00456208,-0.198449,0.00323302,0.00823896,944,1646,2.87644,-12.8926
-273,-622,2.86688,13.0594,0.00261256,-0.0051491,1.10094e-05,0.00261257,-0.00514912,0.00141843,0.00456028,0.0119199,951,1646,2.86687,-13.0594
-266,-622,2.84705,13.2535,0.00678546,-0.00674603,0.00216346,0.00712294,-0.00708351,0.154746,0.00820211,0.0125392,958,1646,2.84708,-13.2535
-259,-622,2.8996,13.4843,0.0123247,-0.00895251,0.00519852,0.0135269,-0.0101547,0.227262,0.0137187,0.012642,965,1646,2.89962,-13.4842
-252,-622,2.9162,13.6434,0.0181266,-0.010991,0.00834831,0.0203503,-0.0132147,0.260323,0.0195242,0.0125267,972,1646,2.91619,-13.6435
-245,-622,2.91473,13.8173,0.0251727,-0.0129379,0.0121688,0.0287268,-0.016492,0.28416,0.0264237,0.00874824,979,1646,2.91472,-13.8173
-238,-622,2.90759,14.0061,0.0331518,-0.014985,0.0166493,0.0383492,-0.0201824,0.302583,0.0343315,0.00928702,986,1646,2.90757,-14.0061
-231,-622,2.93359,14.1876,0.0418189,-0.0174259,0.0214415,0.0487645,-0.0243716,0.313269,0.0430009,0.013191,993,1646,2.9336,-14.1877
-224,-622,3.034,14.3008,0.0511257,-0.0195363,0.0267065,0.0600837,-0.0284943,0.323631,0.0522133,0.023786,1000,1646,3.03401,-14.3007
-217,-622,3.14618,14.3514,0.0588553,-0.0213154,0.031388,0.069682,-0.0321422,0.332154,0.0601052,0.0352551,1007,1646,3.14617,-14.3514
-210,-622,3.11584,14.5922,0.0636154,-0.022855,0.0347215,0.0758316,-0.0350712,0.338309,0.0654555,0.0472118,1014,1646,3.11585,-14.5921
-203,-622,2.76477,14.797,0,0,0,0,0,0,0,-1,1021,1646,2.7648,-14.797
-196,-622,3.15271,14.9984,0.0729474,-0.0201027,0.0379853,0.0864845,-0.0336398,0.342345,0.0715558,0.0461227,1028,1646,3.15269,-14.9984
-189,-622,3.50525,15.0903,0.0783205,-0.0160909,0.0378654,0.0916306,-0.029401,0.338021,0.0728915,0.0467166,1035,1646,3.50531,-15.0904
-182,-622,3.76794,14.9542,0,0,0,0,0,0,0,-1,1042,1646,3.76793,-14.9542
-175,-622,2.56091,11.0195,0,0,0,0,0,0,0,-1,1049,1646,2.56095,-11.0195
-168,-622,4.76489,10.7617,0,0,0,0,0,0,0,-1,1056,1646,4.76491,-10.7617
-161,-622,3.56604,15.2065,0,0,0,0,0,0,0,-1,1063,1646,3.56607,-15.2065
-154,-622,2.73608,15.1062,0,0,0,0,0,0,0,-1,1070,1646,2.73604,-15.1061
-147,-622,2.52979,15.4896,0,0,0,0,0,0,0,-1,1077,1646,2.5298,-15.4896
-140,-622,2.3468,16.1302,0,0,0,0,0,0,0,-1,1084,1646,2.34685,-16.1302
-133,-622,3.40173,10.0699,0,0,0,0,0,0,0,-1,1091,1646,3.40173,-10.0699
-126,-622,4.83423,11.7699,0,0,0,0,0,0,0,-1,1098,1646,4.83428,-11.7699
-119,-622,4.06384,13.1715,0,0,0,0,0,0,0,-1,1105,1646,4.06379,-13.1716
-112,-622,4.33276,14.6605,0,0,0,0,0,0,0,-1,1112,1646,4.33281,-14.6605
-105,-622,0.306519,4.38159,0,0,0,0,0,0,0,-1,1119,1646,0.306536,-4.38159
-98,-622,-0.510376,3.5033,0,0,0,0,0,0,0,-1,1126,1646,-0.510393,-3.50324
-91,-622,-1.146,0.975952,0,0,0,0,0,0,0,-1,1133,1646,-1.14599,-0.97597
-84,-622,-2.04895,1.31787,0,0,0,0,0,0,0,-1,1140,1646,-2.0489,-1.31781
-77,-622,-1.80627,0.332275,0,0,0,0,0,0,0,-1,1147,1646,-1.80622,-0.33223
-70,-622,-3.65588,2.28149,0,0,0,0,0,0,0,-1,1154,1646,-3.65589,-2.28155
-63,-622,-2.49683,1.27087,0,0,0,0,0,0,0,-1,1161,1646,-2.49679,-1.27093
-56,-622,-2.44238,-0.575562,0,0,0,0,0,0,0,-1,1168,1646,-2.44242,0.575508
-49,-622,-2.41089,1.38818,0,0,0,0,0,0,0,-1,1175,1646,-2.41088,-1.38815
-42,-622,-2.71497,2.85242,0,0,0,0,0,0,0,-1,1182,1646,-2.71491,-2.85247
-35,-622,-3.0177,4.25842,0,0,0,0,0,0,0,-1,1189,1646,-3.01773,-4.25838
-28,-622,-0.896606,0.678833,0,0,0,0,0,0,0,-1,1196,1646,-0.89661,-0.678835
-21,-622,6.63062,12.6195,0,0,0,0,0,0,0,-1,1203,1646,6.63065,-12.6195
-14,-622,11.2815,16.8484,0,0,0,0,0,0,0,-1,1210,1646,11.2815,-16.8484
-7,-622,3.27808,21.5393,0,0,0,0,0,0,0,-1,1217,1646,3.27808,-21.5393
0,-622,0,0,0,0,0,0,0,0,0,-1,1224,1646,0,0
7,-622,0,0,0,0,0,0,0,0,0,-1,1231,1646,0,0
14,-622,0,0,0,0,0,0,0,0,0,-1,1238,1646,0,0
21,-622,0,0,0,0,0,0,0,0,0,-1,1245,1646,0,0
28,-622,0,0,0,0,0,0,0,0,0,-1,1252,1646,0,0
35,-622,0,0,0,0,0,0,0,0,0,-1,1259,1646,0,0
42,-622,0,0,0,0,0,0,0,0,0,-1,1266,1646,0,0
49,-622,0,0,0,0,0,0,0,0,0,-1,1273,1646,0,0
56,-622,0,0,0,0,0,0,0,0,0,-1,1280,1646,0,0
63,-622,0,0,0,0,0,0,0,0,0,-1,1287,1646,0,0
70,-622,0,0,0,0,0,0,0,0,0,-1,1294,1646,0,0
77,-622,0,0,0,0,0,0,0,0,0,-1,1301,1646,0,0
84,-622,0,0,0,0,0,0,0,0,0,-1,1308,1646,0,0
91,-622,0,0,0,0,0,0,0,0,0,-1,1315,1646,0,0
98,-622,0,0,0,0,0,0,0,0,0,-1,1322,1646,0,0
105,-622,0,0,0,0,0,0,0,0,0,-1,1329,1646,0,0
112,-622,0,0,0,0,0,0,0,0,0,-1,1336,1646,0,0
119,-622,0,0,0,0,0,0,0,0,0,-1,1343,1646,0,0
126,-622,1.25476,27.7921,0,0,0,0,0,0,0,-1,1350,1646,1.25473,-27.7921
133,-622,0.277954,29.4952,0,0,0,0,0,0,0,-1,1357,1646,0.277987,-29.4953
140,-622,-0.790771,30.7471,0,0,0,0,0,0,0,-1,1364,1646,-0.790713,-30.747
147,-622,-1.81592,32.1678,0,0,0,0,0,0,0,-1,1371,1646,-1.81587,-32.1679
154,-622,17.1903,-3.24805,0,0,0,0,0,0,0,-1,1378,1646,17.1903,3.24802
161,-622,10.6884,6.46448,0,0,0,0,0,0,0,-1,1385,1646,10.6883,-6.46442
168,-622,12.2402,5.18091,0,0,0,0,0,0,0,-1,1392,1646,12.2403,-5.1809
175,-622,5.64355,-1.77075,0,0,0,0,0,0,0,-1,1399,1646,5.64351,1.77077
182,-622,5.88586,-1.32251,0,0,0,0,0,0,0,-1,1406,1646,5.88587,1.32256
189,-622,5.97986,-1.18005,0,0,0,0,0,0,0,-1,1413,1646,5.97986,1.18003
196,-622,5.85022,-0.244507,0,0,0,0,0,0,0,-1,1420,1646,5.85026,0.244478
203,-622,5.25159,0.138794,0,0,0,0,0,0,0,-1,1427,1646,5.25162,-0.138822
210,-622,6.66833,0.0397949,0,0,0,0,0,0,0,-1,1434,1646,6.6684,-0.0398278
217,-622,6.12061,0.0506592,0,0,0,0,0,0,0,-1,1441,1646,6.12058,-0.0507181
224,-622,5.57275,0.0616455,0,0,0,0,0,0,0,-1,1448,1646,5.57276,-0.0616084
231,-622,5.31348,1.3949,0,0,0,0,0,0,0,-1,1455,1646,5.31342,-1.39495
238,-622,3.76477,2.90686,0,0,0,0,0,0,0,-1,1462,1646,3.7648,-2.90686
245,-622,5.13794,2.67993,0,0,0,0,0,0,0,-1,1469,1646,5.13796,-2.67992
252,-622,6.66528,2.53992,0,0,0,0,0,0,0,-1,1476,1646,6.66522,-2.53991
259,-622,8.93787,3.31458,0,0,0,0,0,0,0,-1,1483,1646,8.93791,-3.31454
266,-622,5.72644,3.11926,0,0,0,0,0,0,0,-1,1490,1646,5.72647,-3.1192
273,-622,7.28076,3.61218,0,0,0,0,0,0,0,-1,1497,1646,7.28071,-3.61212
280,-622,8.43127,4.4447,0,0,0,0,0,0,0,-1,1504,1646,8.43123,-4.44467
287,-622,8.60315,5.94617,0,0,0,0,0,0,0,-1,1511,1646,8.60319,-5.94622
294,-622,7.62756,11.5143,0,0,0,0,0,0,0,-1,1518,1646,7.62762,-11.5143
301,-622,7.36548,11.6569,0,0,0,0,0,0,0,-1,1525,1646,7.36549,-11.6569
308,-622,7.10339,11.7994,0,0,0,0,0,0,0,-1,1532,1646,7.10335,-11.7995
315,-622,6.26563,14.4089,0,0,0,0,0,0,0,-1,1539,1646,6.26566,-14.4089
322,-622,6.44434,14.9484,0.00190538,-0.0229588,0.00945649,0.00509322,-0.0261466,0.325142,0.0193535,0.0458858,1546,1646,6.44434,-14.9484
329,-622,6.4126,15.4003,0.00236392,-0.0193123,0.00830761,0.00518161,-0.02213,0.326995,0.0167498,0.0443825,1553,1646,6.41261,-15.4002
336,-622,6.98499,15.8641,0,0,0,0,0,0,0,-1,1560,1646,6.98496,-15.8641
343,-622,7.44006,15.3381,0,0,0,0,0,0,0,-1,1567,1646,7.44012,-15.3381
350,-622,6.87708,15.1737,0,0,0,0,0,0,0,-1,1574,1646,6.87708,-15.1737
357,-622,6.81409,15.0199,0.0018107,-0.0107267,0.00580537,0.00408594,-0.0130019,0.373521,0.0103036,0.0410797,1581,1646,6.8141,-15.0199
364,-622,6.87256,14.8025,0.00143055,-0.00952775,0.0055927,0.00378079,-0.011878,0.397827,0.0094349,0.0327008,1588,1646,6.87253,-14.8025
371,-622,6.89404,14.7084,0.0011432,-0.00852622,0.00544122,0.00358732,-0.0109703,0.422176,0.00875776,0.0185401,1595,1646,6.8941,-14.7083
378,-622,6.8656,14.6163,0.000846888,-0.00700901,0.00529179,0.00350922,-0.00967135,0.46613,0.00788215,0.0102864,1602,1646,6.86566,-14.6163
385,-622,6.86462,14.4669,0.000434814,-0.00668935,0.00500201,0.00301346,-0.009268,0.475988,0.00739085,0.00914791,1609,1646,6.86459,-14.4669
392,-622,6.86169,14.314,0.000123846,-0.00642887,0.0046352,0.00252372,-0.00882874,0.477747,0.00688306,0.0104471,1616,1646,6.86166,-14.3139
399,-622,6.85632,14.155,5.95655e-05,-0.00563886,0.00410886,0.00221043,-0.00778972,0.482246,0.00606573,0.0107915,1623,1646,6.85634,-14.155
406,-622,6.87769,13.9695,5.07396e-05,-0.00468808,0.00359092,0.00198352,-0.00662085,0.49377,0.00520267,0.0133787,1630,1646,6.87774,-13.9694
413,-622,6.89417,13.7957,-3.47712e-05,-0.00379291,0.00301866,0.00164189,-0.00546957,0.507004,0.00429948,0.0147411,1637,1646,6.89422,-13.7956
420,-622,6.89063,13.6434,-7.06176e-05,-0.00297923,0.00236032,0.00124746,-0.00429731,0.509294,0.00335882,0.0149476,1644,1646,6.89066,-13.6435
427,-622,6.89075,13.4412,-9.56332e-05,-0.00239023,0.00175925,0.000857368,-0.00334323,0.496455,0.00256286,0.0119399,1651,1646,6.8907,-13.4412
434,-622,6.90247,13.266,-0.000111693,-0.00187884,0.00109251,0.000409821,-0.00240036,0.445368,0.00175289,0.0126805,1658,1646,6.90252,-13.266
441,-622,6.89758,13.095,-5.28784e-05,-0.00149246,0.000451725,7.7127e-05,-0.00162247,0.280225,0.00110825,0.0136882,1665,1646,6.89758,-13.0949
448,-622,6.87195,12.92,0.000123154,-0.00135016,-9.33749e-05,0.000129048,-0.00135605,-0.0630413,0.000949978,0.0121317,1672,1646,6.87192,-12.92
455,-622,6.86035,12.7448,0.000425272,-0.00161644,-0.000624822,0.000601307,-0.00179248,-0.274619,0.00143796,0.0147035,1679,1646,6.86041,-12.7448
462,-622,6.87268,12.5697,0.000753733,-0.00204417,-0.00108682,0.00112629,-0.00241672,-0.330242,0.0020903,0.0161228,1686,1646,6.87273,-12.5697
469,-622,6.8761,12.373,0.00119164,-0.00252973,-0.00146106,0.00169672,-0.00303481,-0.332833,0.00276792,0.0164739,1693,1646,6.87614,-12.3731
476,-622,6.89673,12.1632,0.0017983,-0.00298804,-0.00180131,0.00240046,-0.00359019,-0.322609,0.00348136,0.0169984,1700,1646,6.89668,-12.1632
483,-622,6.90796,11.9614,0.00244895,-0.00340169,-0.00208984,0.00311875,-0.00407149,-0.310162,0.00416342,0.0242093,1707,1646,6.90792,-11.9615
490,-622,6.92078,11.7628,0.00341394,-0.00413658,-0.00254913,0.00419397,-0.00491661,-0.29695,0.00526551,0.0297487,1714,1646,6.92082,-11.7628
497,-622,6.97595,11.6084,0.00489366,-0.00467538,-0.00320569,0.00586831,-0.00565003,-0.295158,0.00665052,0.0420278,1721,1646,6.97593,-11.6084
504,-622,7.04626,11.3999,0,0,0,0,0,0,0,-1,1728,1646,7.04622,-11.3999
511,-622,5.29004,4.14587,0,0,0,0,0,0,0,-1,1735,1646,5.29008,-4.14589
518,-622,5.6001,1.55359,0,0,0,0,0,0,0,-1,1742,1646,5.60015,-1.5536
525,-622,5.68213,1.32361,0,0,0,0,0,0,0,-1,1749,1646,5.68209,-1.32361
532,-622,5.44202,0.57373,0,0,0,0,0,0,0,-1,1756,1646,5.44196,-0.573705
539,-622,9.32129,1.06116,0,0,0,0,0,0,0,-1,1763,1646,9.32131,-1.0612
546,-622,6.50977,-3.45618,0,0,0,0,0,0,0,-1,1770,1646,6.50981,3.4562
553,-622,0,0,0,0,0,0,0,0,0,-1,1777,1646,0,0
560,-622,0,0,0,0,0,0,0,0,0,-1,1784,1646,0,0
567,-622,0,0,0,0,0,0,0,0,0,-1,1791,1646,0,0
574,-622,0,0,0,0,0,0,0,0,0,-1,1798,1646,0,0
581,-622,0,0,0,0,0,0,0,0,0,-1,1805,1646,0,0
588,-622,0,0,0,0,0,0,0,0,0,-1,1812,1646,0,0
595,-622,0,0,0,0,0,0,0,0,0,-1,1819,1646,0,0
602,-622,0,0,0,0,0,0,0,0,0,-1,1826,1646,0,0
609,-622,0,0,0,0,0,0,0,0,0,-1,1833,1646,0,0
616,-622,0,0,0,0,0,0,0,0,0,-1,1840,1646,0,0
623,-622,0,0,0,0,0,0,0,0,0,-1,1847,1646,0,0
630,-622,0,0,0,0,0,0,0,0,0,-1,1854,1646,0,0
637,-622,0,0,0,0,0,0,0,0,0,-1,1861,1646,0,0
644,-622,0,0,0,0,0,0,0,0,0,-1,1868,1646,0,0
651,-622,0,0,0,0,0,0,0,0,0,-1,1875,1646,0,0
658,-622,0,0,0,0,0,0,0,0,0,-1,1882,1646,0,0
665,-622,0,0,0,0,0,0,0,0,0,-1,1889,1646,0,0
672,-622,0,0,0,0,0,0,0,0,0,-1,1896,1646,0,0
679,-622,0,0,0,0,0,0,0,0,0,-1,1903,1646,0,0
686,-622,0,0,0,0,0,0,0,0,0,-1,1910,1646,0,0
693,-622,0,0,0,0,0,0,0,0,0,-1,1917,1646,0,0
700,-622,0,0,0,0,0,0,0,0,0,-1,1924,1646,0,0
707,-622,0,0,0,0,0,0,0,0,0,-1,1931,1646,0,0
714,-622,0,0,0,0,0,0,0,0,0,-1,1938,1646,0,0
721,-622,0,0,0,0,0,0,0,0,0,-1,1945,1646,0,0
728,-622,0,0,0,0,0,0,0,0,0,-1,1952,1646,0,0
735,-622,0,0,0,0,0,0,0,0,0,-1,1959,1646,0,0
742,-622,0,0,0,0,0,0,0,0,0,-1,1966,1646,0,0
749,-622,0,0,0,0,0,0,0,0,0,-1,1973,1646,0,0
756,-622,0,0,0,0,0,0,0,0,0,-1,1980,1646,0,0
763,-622,0,0,0,0,0,0,0,0,0,-1,1987,1646,0,0
770,-622,0,0,0,0,0,0,0,0,0,-1,1994,1646,0,0
777,-622,0,0,0,0,0,0,0,0,0,-1,2001,1646,0,0
784,-622,0,0,0,0,0,0,0,0,0,-1,2008,1646,0,0
791,-622,0,0,0,0,0,0,0,0,0,-1,2015,1646,0,0
798,-622,0,0,0,0,0,0,0,0,0,-1,2022,1646,0,0
805,-622,0,0,0,0,0,0,0,0,0,-1,2029,1646,0,0
812,-622,0,0,0,0,0,0,0,0,0,-1,2036,1646,0,0
-700,-629,0,0,0,0,0,0,0,0,0,-1,524,1653,0,0
-693,-629,0,0,0,0,0,0,0,0,0,-1,531,1653,0,0
-686,-629,0,0,0,0,0,0,0,0,0,-1,538,1653,0,0
-679,-629,0,0,0,0,0,0,0,0,0,-1,545,1653,0,0
-672,-629,0,0,0,0,0,0,0,0,0,-1,552,1653,0,0
-665,-629,0,0,0,0,0,0,0,0,0,-1,559,1653,0,0
-658,-629,0,0,0,0,0,0,0,0,0,-1,566,1653,0,0
-651,-629,0,0,0,0,0,0,0,0,0,-1,573,1653,0,0
-644,-629,0,0,0,0,0,0,0,0,0,-1,580,1653,0,0
-637,-629,0,0,0,0,0,0,0,0,0,-1,587,1653,0,0
-630,-629,0,0,0,0,0,0,0,0,0,-1,594,1653,0,0
-623,-629,0,0,0,0,0,0,0,0,0,-1,601,1653,0,0
-616,-629,0,0,0,0,0,0,0,0,0,-1,608,1653,0,0
-609,-629,0,0,0,0,0,0,0,0,0,-1,615,1653,0,0
-602,-629,0,0,0,0,0,0,0,0,0,-1,622,1653,0,0
-595,-629,0,0,0,0,0,0,0,0,0,-1,629,1653,0,0
-588,-629,0,0,0,0,0,0,0,0,0,-1,636,1653,0,0
-581,-629,0,0,0,0,0,0,0,0,0,-1,643,1653,0,0
-574,-629,0,0,0,0,0,0,0,0,0,-1,650,1653,0,0
-567,-629,0,0,0,0,0,0,0,0,0,-1,657,1653,0,0
-560,-629,0,0,0,0,0,0,0,0,0,-1,664,1653,0,0
-553,-629,0,0,0,0,0,0,0,0,0,-1,671,1653,0,0
-546,-629,0,0,0,0,0,0,0,0,0,-1,678,1653,0,0
-539,-629,0,0,0,0,0,0,0,0,0,-1,685,1653,0,0
-532,-629,0,0,0,0,0,0,0,0,0,-1,692,1653,0,0
-525,-629,0,0,0,0,0,0,0,0,0,-1,699,1653,0,0
-518,-629,0,0,0,0,0,0,0,0,0,-1,706,1653,0,0
-511,-629,0,0,0,0,0,0,0,0,0,-1,713,1653,0,0
-504,-629,0,0,0,0,0,0,0,0,0,-1,720,1653,0,0
-497,-629,0,0,0,0,0,0,0,0,0,-1,727,1653,0,0
-490,-629,0,0,0,0,0,0,0,0,0,-1,734,1653,0,0
-483,-629,0,0,0,0,0,0,0,0,0,-1,741,1653,0,0
-476,-629,0,0,0,0,0,0,0,0,0,-1,748,1653,0,0
-469,-629,0,0,0,0,0,0,0,0,0,-1,755,1653,0,0
-462,-629,0,0,0,0,0,0,0,0,0,-1,762,1653,0,0
-455,-629,0,0,0,0,0,0,0,0,0,-1,769,1653,0,0
-448,-629,0,0,0,0,0,0,0,0,0,-1,776,1653,0,0
-441,-629,0,0,0,0,0,0,0,0,0,-1,783,1653,0,0
-434,-629,0,0,0,0,0,0,0,0,0,-1,790,1653,0,0
-427,-629,0,0,0,0,0,0,0,0,0,-1,797,1653,0,0
-420,-629,-3.87103,3.37634,0,0,0,0,0,0,0,-1,804,1653,-3.87101,-3.37633
-413,-629,-5.69751,1.33582,0,0,0,0,0,0,0,-1,811,1653,-5.69754,-1.3358
-406,-629,2.85406,6.01501,0,0,0,0,0,0,0,-1,818,1653,2.85405,-6.01507
-399,-629,3.37085,6.61816,0,0,0,0,0,0,0,-1,825,1653,3.37087,-6.61822
-392,-629,3.80743,7.15393,0,0,0,0,0,0,0,-1,832,1653,3.80741,-7.15391
-385,-629,4.31525,7.66785,0,0,0,0,0,0,0,-1,839,1653,4.31525,-7.6679
-378,-629,4.29962,8.28577,0,0,0,0,0,0,0,-1,846,1653,4.29962,-8.28577
-371,-629,3.16766,10.0693,0,0,0,0,0,0,0,-1,853,1653,3.16764,-10.0693
-364,-629,2.91034,11.2424,0,0,0,0,0,0,0,-1,860,1653,2.91034,-11.2424
-357,-629,2.34613,11.6876,0,0,0,0,0,0,0,-1,867,1653,2.34613,-11.6876
-350,-629,2.68579,11.5348,-0.00664035,-0.0188109,-0.00501118,-0.00484256,-0.0206086,-0.344452,0.0124431,0.0499946,874,1653,2.68577,-11.5347
-343,-629,2.95575,11.3075,-0.00592964,-0.0154366,-0.00415163,-0.00437189,-0.0169943,-0.358959,0.0101898,0.0423252,881,1653,2.95574,-11.3075
-336,-629,3.03717,11.3008,-0.00542531,-0.0120948,-0.00350041,-0.00392545,-0.0135947,-0.404815,0.00807902,0.01831,888,1653,3.03717,-11.3008
-329,-629,3.08984,11.4967,-0.00506238,-0.00897634,-0.00296589,-0.00346601,-0.0105727,-0.493772,0.00622362,0.0109024,895,1653,3.08982,-11.4967
-322,-629,3.09802,11.6949,-0.00483826,-0.00664527,-0.00245389,-0.00312683,-0.0083567,-0.609003,0.0048754,0.0122487,902,1653,3.09805,-11.6949
-315,-629,3.0741,11.89,-0.00458291,-0.00505279,-0.00205398,-0.00275048,-0.00688522,-0.728454,0.00400187,0.0161703,909,1653,3.07409,-11.89
-308,-629,3.07605,12.097,-0.00404802,-0.00379335,-0.00188331,-0.00203308,-0.00580829,-0.819153,0.00340333,0.0122999,916,1653,3.07603,-12.0971
-301,-629,3.0957,12.3285,-0.00345318,-0.00306453,-0.00174937,-0.00149872,-0.00501899,-0.840713,0.00297503,0.0113747,923,1653,3.09569,-12.3284
-294,-629,3.08167,12.5341,-0.00289227,-0.00275091,-0.00154321,-0.00127676,-0.00436642,-0.808283,0.00259237,0.0130508,930,1653,3.08167,-12.534
-287,-629,3.06372,12.7139,-0.00213169,-0.00302126,-0.00129768,-0.00120469,-0.00394827,-0.620296,0.00233654,0.0101232,937,1653,3.06373,-12.7139
-280,-629,3.06921,12.9023,-0.00127455,-0.00341773,-0.00116707,-0.000761732,-0.00393055,-0.414011,0.00240697,0.00971148,944,1653,3.06919,-12.9023
-273,-629,3.06366,13.0571,5.04447e-05,-0.00388129,-0.000790485,0.000203422,-0.00403427,-0.19116,0.00275982,0.0127419,951,1653,3.06363,-13.0572
-266,-629,3.04364,13.2511,0.00224151,-0.00482956,0.000112439,0.0022433,-0.00483135,0.0158959,0.00417466,0.0136072,958,1653,3.04364,-13.2511
-259,-629,3.05359,13.4843,0.00500423,-0.00601059,0.00142992,0.00518684,-0.00619319,0.127014,0.00657882,0.0147803,965,1653,3.05361,-13.4842
-252,-629,3.06982,13.6559,0.00776111,-0.0071911,0.00268876,0.00822991,-0.0076599,0.172622,0.00917596,0.0112476,972,1653,3.0698,-13.6559
-245,-629,3.0946,13.8221,0.0111248,-0.00824758,0.00427195,0.012025,-0.00914779,0.207687,0.0122617,0.00792453,979,1653,3.09458,-13.8222
-238,-629,3.09674,14.0056,0.0149853,-0.00931485,0.00625077,0.0164989,-0.0108285,0.237576,0.0158903,0.00981055,986,1653,3.09676,-14.0056
-231,-629,3.09119,14.1813,0.0192242,-0.0106734,0.00835707,0.0214016,-0.0128508,0.254881,0.01998,0.0101245,993,1653,3.0912,-14.1812
-224,-629,3.13885,14.3586,0.0240733,-0.0118146,0.0109409,0.0271458,-0.0148871,0.27377,0.0246093,0.0102603,1000,1653,3.13886,-14.3586
-217,-629,3.13794,14.4978,0.0280874,-0.0126481,0.0134372,0.0321205,-0.0166813,0.291592,0.0286419,0.0152659,1007,1653,3.13793,-14.4978
-210,-629,3.14777,14.627,0.0301018,-0.01337,0.0151215,0.0348444,-0.0181126,0.303914,0.0310793,0.0320417,1014,1653,3.14778,-14.627
-203,-629,3.03235,14.7079,0.0320134,-0.0137015,0.0166443,0.0374312,-0.0191194,0.314694,0.0332152,0.0444076,1021,1653,3.03235,-14.7079
-196,-629,3.14136,14.8064,0.0356719,-0.00998947,0.0165933,0.0410649,-0.0153825,0.314244,0.0336956,0.0401934,1028,1653,3.14135,-14.8064
-189,-629,3.31079,14.9231,0.0401056,-0.00634357,0.0166283,0.0454447,-0.0116827,0.310685,0.0348496,0.0414769,1035,1653,3.31075,-14.9231
-182,-629,3.30664,14.9419,0.0437195,-0.00188512,0.0158306,0.048676,-0.00684163,0.303429,0.0349551,0.0498155,1042,1653,3.30664,-14.9419
-175,-629,3.29321,14.9275,0,0,0,0,0,0,0,-1,1049,1653,3.29324,-14.9275
-168,-629,4.52844,16.0778,0,0,0,0,0,0,0,-1,1056,1653,4.52849,-16.0778
-161,-629,3.729,15.5045,0.0530511,0.0213343,0.00521583,0.0538868,0.0204986,0.158878,0.0314068,0.0497674,1063,1653,3.72902,-15.5046
-154,-629,3.11267,15.182,0,0,0,0,0,0,0,-1,1070,1653,3.11271,-15.182
-147,-629,0.888428,15.7639,0.075796,0.0402307,0.00141557,0.0758522,0.0401744,0.0397181,0.043819,0.0475899,1077,1653,0.888399,-15.764
-140,-629,2.39087,15.8656,0.0919865,0.0463401,0.0016417,0.0920455,0.0462812,0.0359038,0.0531428,0.0456494,1084,1653,2.3909,-15.8657
-133,-629,3.00659,16.2145,0,0,0,0,0,0,0,-1,1091,1653,3.00657,-16.2145
-126,-629,2.69519,10.2487,0,0,0,0,0,0,0,-1,1098,1653,2.69515,-10.2486
-119,-629,4.94177,13.5525,0,0,0,0,0,0,0,-1,1105,1653,4.94172,-13.5525
-112,-629,5.63123,15.9187,0,0,0,0,0,0,0,-1,1112,1653,5.63118,-15.9187
-105,-629,2.15881,4.38342,0,0,0,0,0,0,0,-1,1119,1653,2.15878,-4.38347
-98,-629,0.825806,4.19385,0,0,0,0,0,0,0,-1,1126,1653,0.825779,-4.1939
-91,-629,-0.452271,3.64465,0,0,0,0,0,0,0,-1,1133,1653,-0.452278,-3.6446
-84,-629,-2.6084,0.466797,0,0,0,0,0,0,0,-1,1140,1653,-2.6084,-0.466786
-77,-629,-3.50903,2.10706,0,0,0,0,0,0,0,-1,1147,1653,-3.509,-2.10707
-70,-629,-1.20886,2.52502,0,0,0,0,0,0,0,-1,1154,1653,-1.20886,-2.525
-63,-629,-0.960693,4.30212,0,0,0,0,0,0,0,-1,1161,1653,-0.960691,-4.30215
-56,-629,-1.31934,5.64343,0,0,0,0,0,0,0,-1,1168,1653,-1.31928,-5.6434
-49,-629,-2.15662,2.57458,0,0,0,0,0,0,0,-1,1175,1653,-2.15656,-2.57459
-42,-629,-2.46326,3.91467,0,0,0,0,0,0,0,-1,1182,1653,-2.4633,-3.91466
-35,-629,-2.67261,5.24292,0,0,0,0,0,0,0,-1,1189,1653,-2.67257,-5.24298
-28,-629,-0.402954,-0.866577,0,0,0,0,0,0,0,-1,1196,1653,-0.402943,0.866612
-21,-629,10.063,9.59705,0,0,0,0,0,0,0,-1,1203,1653,10.063,-9.59708
-14,-629,3.80591,22.7656,0,0,0,0,0,0,0,-1,1210,1653,3.80596,-22.7657
-7,-629,3.74707,22.1599,0,0,0,0,0,0,0,-1,1217,1653,3.74701,-22.16
0,-629,5.25085,22.8085,0,0,0,0,0,0,0,-1,1224,1653,5.25082,-22.8085
7,-629,5.52051,22.9825,0.242778,0.140756,-0.107345,0.310616,0.0729175,-0.563591,0.187557,0.0437819,1231,1653,5.52056,-22.9825
14,-629,5.48218,22.9983,0.221071,0.120162,-0.0967227,0.279708,0.0615247,-0.544993,0.169722,0.0417208,1238,1653,5.48218,-22.9982
21,-629,9.67041,19.2806,0.190512,0.0959887,-0.0786072,0.234972,0.0515294,-0.514733,0.142609,0.0460708,1245,1653,9.67047,-19.2806
28,-629,9.25623,19.5375,0,0,0,0,0,0,0,-1,1252,1653,9.25621,-19.5375
35,-629,8.34814,19.6566,0,0,0,0,0,0,0,-1,1259,1653,8.34816,-19.6567
42,-629,8.53845,19.5637,0,0,0,0,0,0,0,-1,1266,1653,8.53841,-19.5637
49,-629,8.70496,16.9255,0,0,0,0,0,0,0,-1,1273,1653,8.70494,-16.9255
56,-629,8.58203,17.2253,0.0255095,0.00196236,0.0262516,0.0425069,-0.015035,0.5746,0.0344607,0.0470921,1280,1653,8.58206,-17.2254
63,-629,8.49792,17.4993,-0.00429584,-0.0076568,0.0422509,0.0363079,-0.0482606,0.765522,0.048988,0.0407149,1287,1653,8.49793,-17.4992
70,-629,8.17688,17.8981,-0.0394451,-0.0270196,0.0656589,0.0327198,-0.0991845,0.832569,0.0793122,0.0445327,1294,1653,8.17692,-17.8981
77,-629,7.70947,18.8646,-0.0571986,-0.0188226,0.0724535,0.0369406,-0.112962,0.914842,0.0901797,0.0477173,1301,1653,7.70944,-18.8647
84,-629,6.54688,20.1216,-0.0643945,-0.00773681,0.0748656,0.0439805,-0.116112,0.966271,0.0955054,0.0455696,1308,1653,6.54682,-20.1216
91,-629,5.97827,20.7711,-0.0717648,0.00365545,0.0764211,0.0511641,-0.119273,1.0146,0.100987,0.0413511,1315,1653,5.9783,-20.7712
98,-629,5.36206,21.892,-0.0788778,0.0198813,0.0782651,0.0630424,-0.122039,1.06682,0.108651,0.0427204,1322,1653,5.36202,-21.892
105,-629,4.56873,22.9849,-0.0853048,0.037321,0.0799069,0.0767275,-0.124711,1.11264,0.117395,0.0449909,1329,1653,4.56869,-22.9849
112,-629,3.92688,24.2731,-0.0922457,0.0561297,0.0813904,0.0920701,-0.128186,1.15497,0.127734,0.043831,1336,1653,3.9269,-24.273
119,-629,3.1001,25.5038,0,0,0,0,0,0,0,-1,1343,1653,3.1001,-25.5038
126,-629,2.13171,27.5353,-0.103378,0.102509,0.0853374,0.133281,-0.13415,1.22472,0.154401,0.0427207,1350,1653,2.13174,-27.5353
133,-629,1.04895,29.0732,-0.105676,0.133177,0.0886998,0.162513,-0.135012,1.25139,0.172021,0.047902,1357,1653,1.049,-29.0732
140,-629,0.0229492,30.3976,-0.108855,0.163523,0.0941284,0.192886,-0.138219,1.26841,0.19203,0.0493819,1364,1653,0.0230015,-30.3976
147,-629,-0.996582,31.7693,0,0,0,0,0,0,0,-1,1371,1653,-0.99662,-31.7692
154,-629,18.5643,-3.15576,0,0,0,0,0,0,0,-1,1378,1653,18.5643,3.15579
161,-629,10.5461,6.83752,0,0,0,0,0,0,0,-1,1385,1653,10.5461,-6.83758
168,-629,12.0059,5.56348,0,0,0,0,0,0,0,-1,1392,1653,12.0059,-5.56352
175,-629,5.84485,-1.78845,0,0,0,0,0,0,0,-1,1399,1653,5.84479,1.7884
182,-629,5.99036,-1.27783,0,0,0,0,0,0,0,-1,1406,1653,5.99041,1.27778
189,-629,5.97668,-0.748535,0,0,0,0,0,0,0,-1,1413,1653,5.97671,0.748544
196,-629,4.52869,9.24695,0,0,0,0,0,0,0,-1,1420,1653,4.52869,-9.2469
203,-629,3.75085,6.88037,0,0,0,0,0,0,0,-1,1427,1653,3.75087,-6.88032
210,-629,3.5907,6.52637,0,0,0,0,0,0,0,-1,1434,1653,3.59067,-6.52642
217,-629,2.4585,4.84448,0,0,0,0,0,0,0,-1,1441,1653,2.45855,-4.84448
224,-629,1.31982,3.68481,0,0,0,0,0,0,0,-1,1448,1653,1.31986,-3.68487
231,-629,3.63025,1.73499,0,0,0,0,0,0,0,-1,1455,1653,3.6303,-1.735
238,-629,4.26428,2.11255,0,0,0,0,0,0,0,-1,1462,1653,4.26429,-2.11253
245,-629,5.61816,1.95361,0,0,0,0,0,0,0,-1,1469,1653,5.61815,-1.95359
252,-629,7.27136,2.18982,0,0,0,0,0,0,0,-1,1476,1653,7.27131,-2.18985
259,-629,8.67334,2.18628,0,0,0,0,0,0,0,-1,1483,1653,8.6733,-2.18633
266,-629,6.86475,3.72058,0,0,0,0,0,0,0,-1,1490,1653,6.86479,-3.72063
273,-629,7.9021,3.8717,0,0,0,0,0,0,0,-1,1497,1653,7.90205,-3.87171
280,-629,9.70837,4.39087,0,0,0,0,0,0,0,-1,1504,1653,9.7084,-4.39082
287,-629,9.82947,7.19348,0,0,0,0,0,0,0,-1,1511,1653,9.8295,-7.19347
294,-629,6.56555,11.6359,0,0,0,0,0,0,0,-1,1518,1653,6.5656,-11.6358
301,-629,6.84692,16.5825,0,0,0,0,0,0,0,-1,1525,1653,6.84693,-16.5826
308,-629,6.08264,12.1423,0,0,0,0,0,0,0,-1,1532,1653,6.08263,-12.1423
315,-629,6.58972,15.3862,0,0,0,0,0,0,0,-1,1539,1653,6.58967,-15.3863
322,-629,6.62061,15.5732,0.00183689,-0.0160154,0.00730554,0.00444535,-0.0186238,0.342944,0.0141327,0.0472401,1546,1653,6.62057,-15.5732
329,-629,6.49255,15.7583,0.00206433,-0.0135001,0.00644665,0.00438766,-0.0158235,0.345904,0.0122758,0.040307,1553,1653,6.4925,-15.7583
336,-629,6.78613,15.6293,0.00209461,-0.0112265,0.00568639,0.00419179,-0.0133237,0.353331,0.0105608,0.0418639,1560,1653,6.78615,-15.6292
343,-629,6.974,15.3348,0.00188172,-0.00998007,0.00518081,0.00382587,-0.0119242,0.358998,0.00948554,0.0434676,1567,1653,6.97403,-15.3349
350,-629,6.72839,15.1749,0.00170814,-0.00838643,0.00469036,0.00355103,-0.0102293,0.37438,0.00826165,0.0270055,1574,1653,6.72841,-15.175
357,-629,6.6947,15.0199,0.00154456,-0.00742792,0.00427998,0.00325869,-0.00914204,0.380937,0.0074233,0.0155079,1581,1653,6.69468,-15.0199
364,-629,6.70313,14.8843,0.00125071,-0.00658443,0.00402151,0.0029474,-0.00828111,0.399245,0.00672216,0.0125442,1588,1653,6.70315,-14.8843
371,-629,6.71069,14.7517,0.000998207,-0.00590415,0.00382434,0.00269836,-0.00760431,0.418321,0.00616894,0.00987226,1595,1653,6.71074,-14.7518
378,-629,6.70447,14.6074,0.000781686,-0.00478312,0.00362246,0.00256699,-0.00656843,0.457906,0.00544038,0.0094886,1602,1653,6.70447,-14.6074
385,-629,6.7124,14.4556,0.000438597,-0.00443328,0.00332061,0.00212094,-0.00611562,0.468943,0.00493829,0.0116903,1609,1653,6.71246,-14.4555
392,-629,6.69666,14.3152,0.000161307,-0.00415319,0.00293709,0.00164826,-0.00564015,0.468649,0.00441333,0.0103019,1616,1653,6.6967,-14.3152
399,-629,6.68018,14.1534,0.000100356,-0.00348302,0.00246438,0.00135552,-0.00473818,0.471078,0.00369447,0.0101585,1623,1653,6.68018,-14.1535
406,-629,6.69885,13.9785,9.04856e-05,-0.00265807,0.00199222,0.00113645,-0.00370404,0.483467,0.00292278,0.0130708,1630,1653,6.69886,-13.9785
413,-629,6.69019,13.8167,1.05637e-05,-0.00193694,0.00148043,0.000808781,-0.00273516,0.494497,0.00214449,0.0218246,1637,1653,6.69016,-13.8167
420,-629,6.68445,13.6624,-4.09908e-05,-0.00134613,0.000915685,0.000430862,-0.00181798,0.475813,0.00137824,0.0205326,1644,1653,6.6845,-13.6623
427,-629,6.71277,13.4657,-8.92045e-05,-0.000974967,0.000439078,9.15592e-05,-0.00115573,0.390543,0.00080275,0.0129331,1651,1653,6.7128,-13.4658
434,-629,6.71106,13.2762,-0.000112006,-0.000705776,-9.91136e-05,-9.58983e-05,-0.000721883,-0.161106,0.000452688,0.0105386,1658,1653,6.71109,-13.2763
441,-629,6.7135,13.1025,-6.47201e-05,-0.000585565,-0.000596866,0.000326063,-0.000976348,-0.57969,0.000782567,0.0137278,1665,1653,6.71345,-13.1026
448,-629,6.69983,12.9111,9.88572e-05,-0.000818175,-0.000972646,0.000715644,-0.00143496,-0.56514,0.00126459,0.0129383,1672,1653,6.69986,-12.9111
455,-629,6.69104,12.7152,0.000401922,-0.00144183,-0.00134573,0.00111126,-0.00215116,-0.485093,0.00191519,0.0129986,1679,1653,6.691,-12.7152
462,-629,6.71851,12.5615,0.000734944,-0.00231874,-0.00164437,0.00145203,-0.00303582,-0.411221,0.0026443,0.0167089,1686,1653,6.71847,-12.5615
469,-629,6.72388,12.3606,0.00120589,-0.00329919,-0.00184661,0.00186607,-0.00395937,-0.343347,0.00343494,0.0201234,1693,1653,6.7239,-12.3606
476,-629,6.76636,12.204,0.00192254,-0.00418938,-0.00205498,0.00254922,-0.00481606,-0.295998,0.00431896,0.0267658,1700,1653,6.76639,-12.204
483,-629,6.77112,11.9493,0.00273309,-0.00502886,-0.00223449,0.00333039,-0.00562615,-0.261201,0.00522738,0.0405387,1707,1653,6.77116,-11.9493
490,-629,6.79492,11.6146,0.00377561,-0.0061207,-0.0027021,0.00446533,-0.00681042,-0.249915,0.00655682,0.0450787,1714,1653,6.79494,-11.6147
497,-629,6.8501,11.6279,0,0,0,0,0,0,0,-1,1721,1653,6.85006,-11.6279
504,-629,6.37402,11.9226,0,0,0,0,0,0,0,-1,1728,1653,6.37401,-11.9226
511,-629,6.29138,3.40295,0,0,0,0,0,0,0,-1,1735,1653,6.29137,-3.403
518,-629,5.84387,1.41858,0,0,0,0,0,0,0,-1,1742,1653,5.84391,-1.4186
525,-629,6.4729,1.02319,0,0,0,0,0,0,0,-1,1749,1653,6.47284,-1.02316
532,-629,6.86511,0.903687,0,0,0,0,0,0,0,-1,1756,1653,6.86514,-0.903691
539,-629,6.60803,0.746704,0,0,0,0,0,0,0,-1,1763,1653,6.60809,-0.746691
546,-629,0,0,0,0,0,0,0,0,0,-1,1770,1653,0,0
553,-629,0,0,0,0,0,0,0,0,0,-1,1777,1653,0,0
560,-629,0,0,0,0,0,0,0,0,0,-1,1784,1653,0,0
567,-629,0,0,0,0,0,0,0,0,0,-1,1791,1653,0,0
574,-629,0,0,0,0,0,0,0,0,0,-1,1798,1653,0,0
581,-629,0,0,0,0,0,0,0,0,0,-1,1805,1653,0,0
588,-629,0,0,0,0,0,0,0,0,0,-1,1812,1653,0,0
595,-629,0,0,0,0,0,0,0,0,0,-1,1819,1653,0,0
602,-629,0,0,0,0,0,0,0,0,0,-1,1826,1653,0,0
609,-629,0,0,0,0,0,0,0,0,0,-1,1833,1653,0,0
616,-629,0,0,0,0,0,0,0,0,0,-1,1840,1653,0,0
623,-629,0,0,0,0,0,0,0,0,0,-1,1847,1653,0,0
630,-629,0,0,0,0,0,0,0,0,0,-1,1854,1653,0,0
637,-629,0,0,0,0,0,0,0,0,0,-1,1861,1653,0,0
644,-629,0,0,0,0,0,0,0,0,0,-1,1868,1653,0,0
651,-629,0,0,0,0,0,0,0,0,0,-1,1875,1653,0,0
658,-629,0,0,0,0,0,0,0,0,0,-1,1882,1653,0,0
665,-629,0,0,0,0,0,0,0,0,0,-1,1889,1653,0,0
672,-629,0,0,0,0,0,0,0,0,0,-1,1896,1653,0,0
679,-629,0,0,0,0,0,0,0,0,0,-1,1903,1653,0,0
686,-629,0,0,0,0,0,0,0,0,0,-1,1910,1653,0,0
693,-629,0,0,0,0,0,0,0,0,0,-1,1917,1653,0,0
700,-629,0,0,0,0,0,0,0,0,0,-1,1924,1653,0,0
707,-629,0,0,0,0,0,0,0,0,0,-1,1931,1653,0,0
714,-629,0,0,0,0,0,0,0,0,0,-1,1938,1653,0,0
721,-629,0,0,0,0,0,0,0,0,0,-1,1945,1653,0,0
728,-629,0,0,0,0,0,0,0,0,0,-1,1952,1653,0,0
735,-629,0,0,0,0,0,0,0,0,0,-1,1959,1653,0,0
742,-629,0,0,0,0,0,0,0,0,0,-1,1966,1653,0,0
749,-629,0,0,0,0,0,0,0,0,0,-1,1973,1653,0,0
756,-629,0,0,0,0,0,0,0,0,0,-1,1980,1653,0,0
763,-629,0,0,0,0,0,0,0,0,0,-1,1987,1653,0,0
770,-629,0,0,0,0,0,0,0,0,0,-1,1994,1653,0,0
777,-629,0,0,0,0,0,0,0,0,0,-1,2001,1653,0,0
784,-629,0,0,0,0,0,0,0,0,0,-1,2008,1653,0,0
791,-629,0,0,0,0,0,0,0,0,0,-1,2015,1653,0,0
798,-629,0,0,0,0,0,0,0,0,0,-1,2022,1653,0,0
805,-629,0,0,0,0,0,0,0,0,0,-1,2029,1653,0,0
812,-629,0,0,0,0,0,0,0,0,0,-1,2036,1653,0,0
-700,-636,0,0,0,0,0,0,0,0,0,-1,524,1660,0,0
-693,-636,0,0,0,0,0,0,0,0,0,-1,531,1660,0,0
-686,-636,0,0,0,0,0,0,0,0,0,-1,538,1660,0,0
-679,-636,0,0,0,0,0,0,0,0,0,-1,545,1660,0,0
-672,-636,0,0,0,0,0,0,0,0,0,-1,552,1660,0,0
-665,-636,0,0,0,0,0,0,0,0,0,-1,559,1660,0,0
-658,-636,0,0,0,0,0,0,0,0,0,-1,566,1660,0,0
-651,-636,0,0,0,0,0,0,0,0,0,-1,573,1660,0,0
-644,-636,0,0,0,0,0,0,0,0,0,-1,580,1660,0,0
-637,-636,0,0,0,0,0,0,0,0,0,-1,587,1660,0,0
-630,-636,0,0,0,0,0,0,0,0,0,-1,594,1660,0,0
-623,-636,0,0,0,0,0,0,0,0,0,-1,601,1660,0,0
-616,-636,0,0,0,0,0,0,0,0,0,-1,608,1660,0,0
-609,-636,0,0,0,0,0,0,0,0,0,-1,615,1660,0,0
-602,-636,0,0,0,0,0,0,0,0,0,-1,622,1660,0,0
-595,-636,0,0,0,0,0,0,0,0,0,-1,629,1660,0,0
-588,-636,0,0,0,0,0,0,0,0,0,-1,636,1660,0,0
-581,-636,0,0,0,0,0,0,0,0,0,-1,643,1660,0,0
-574,-636,0,0,0,0,0,0,0,0,0,-1,650,1660,0,0
-567,-636,0,0,0,0,0,0,0,0,0,-1,657,1660,0,0
-560,-636,0,0,0,0,0,0,0,0,0,-1,664,1660,0,0
-553,-636,0,0,0,0,0,0,0,0,0,-1,671,1660,0,0
-546,-636,0,0,0,0,0,0,0,0,0,-1,678,1660,0,0
-539,-636,0,0,0,0,0,0,0,0,0,-1,685,1660,0,0
-532,-636,0,0,0,0,0,0,0,0,0,-1,692,1660,0,0
-525,-636,0,0,0,0,0,0,0,0,0,-1,699,1660,0,0
-518,-636,0,0,0,0,0,0,0,0,0,-1,706,1660,0,0
-511,-636,0,0,0,0,0,0,0,0,0,-1,713,1660,0,0
-504,-636,0,0,0,0,0,0,0,0,0,-1,720,1660,0,0
-497,-636,0,0,0,0,0,0,0,0,0,-1,727,1660,0,0
-490,-636,0,0,0,0,0,0,0,0,0,-1,734,1660,0,0
-483,-636,0,0,0,0,0,0,0,0,0,-1,741,1660,0,0
-476,-636,0,0,0,0,0,0,0,0,0,-1,748,1660,0,0
-469,-636,0,0,0,0,0,0,0,0,0,-1,755,1660,0,0
-462,-636,0,0,0,0,0,0,0,0,0,-1,762,1660,0,0
-455,-636,0,0,0,0,0,0,0,0,0,-1,769,1660,0,0
-448,-636,0,0,0,0,0,0,0,0,0,-1,776,1660,0,0
-441,-636,0,0,0,0,0,0,0,0,0,-1,783,1660,0,0
-434,-636,0,0,0,0,0,0,0,0,0,-1,790,1660,0,0
-427,-636,0,0,0,0,0,0,0,0,0,-1,797,1660,0,0
-420,-636,0,0,0,0,0,0,0,0,0,-1,804,1660,0,0
-413,-636,0,0,0,0,0,0,0,0,0,-1,811,1660,0,0
-406,-636,3.46503,5.84583,0,0,0,0,0,0,0,-1,818,1660,3.46501,-5.84583
-399,-636,3.95544,6.48499,0,0,0,0,0,0,0,-1,825,1660,3.95546,-6.48502
-392,-636,4.35114,7.07495,0,0,0,0,0,0,0,-1,832,1660,4.35115,-7.07492
-385,-636,4.50122,7.78625,0,0,0,0,0,0,0,-1,839,1660,4.50125,-7.78625
-378,-636,4.69141,9.34131,0,0,0,0,0,0,0,-1,846,1660,4.69143,-9.34136
-371,-636,5.07294,9.22888,0,0,0,0,0,0,0,-1,853,1660,5.07297,-9.2289
-364,-636,2.94617,11.7798,0,0,0,0,0,0,0,-1,860,1660,2.94618,-11.7798
-357,-636,1.55328,10.0951,0,0,0,0,0,0,0,-1,867,1660,1.55329,-10.0951
-350,-636,2.90198,11.7753,0,0,0,0,0,0,0,-1,874,1660,2.90199,-11.7752
-343,-636,3.24823,11.498,0,0,0,0,0,0,0,-1,881,1660,3.24824,-11.498
-336,-636,3.19769,11.3704,-0.00910522,-0.0151482,-0.00543866,-0.00590511,-0.0183484,-0.531847,0.0108153,0.0351442,888,1660,3.1977,-11.3704
-329,-636,3.28027,11.5237,-0.00860953,-0.0116321,-0.00484212,-0.00504833,-0.0151933,-0.634132,0.00893486,0.0176271,895,1660,3.28027,-11.5237
-322,-636,3.29242,11.6932,-0.00809676,-0.00885389,-0.00413078,-0.00432723,-0.0126234,-0.739703,0.00740724,0.0125029,902,1660,3.29239,-11.6932
-315,-636,3.25787,11.9005,-0.00752186,-0.00685058,-0.00357398,-0.00359651,-0.0107759,-0.832216,0.00633508,0.0135189,909,1660,3.25786,-11.9005
-308,-636,3.26099,12.1226,-0.00663155,-0.00517553,-0.00323726,-0.00258542,-0.00922165,-0.896,0.00549268,0.0124699,916,1660,3.26096,-12.1226
-301,-636,3.28253,12.3306,-0.0056599,-0.00411589,-0.00290041,-0.0018865,-0.00788929,-0.915467,0.00475706,0.0116519,923,1660,3.28255,-12.3306
-294,-636,3.27142,12.5179,-0.00475451,-0.00342104,-0.00247287,-0.0015266,-0.00664896,-0.917077,0.00402154,0.0145466,930,1660,3.27144,-12.5179
-287,-636,3.25317,12.7175,-0.00366971,-0.00332707,-0.00202913,-0.00146204,-0.00553474,-0.827514,0.00331186,0.0128438,937,1660,3.25318,-12.7175
-280,-636,3.26117,12.9089,-0.00254719,-0.00338156,-0.00171184,-0.00120244,-0.00472631,-0.665874,0.00283634,0.0120119,944,1660,3.26117,-12.9089
-273,-636,3.25848,13.077,-0.00141103,-0.0034861,-0.00141804,-0.000691492,-0.00420564,-0.469564,0.00260405,0.0121867,951,1660,3.25846,-13.077
-266,-636,3.24902,13.2593,-4.29684e-05,-0.00385739,-0.000953238,0.000181983,-0.00408234,-0.231747,0.0027842,0.0132528,958,1660,3.249,-13.2593
-259,-636,3.24658,13.4684,0.00136904,-0.00423291,-0.000359968,0.00139207,-0.00425594,-0.0639075,0.00339775,0.014681,965,1660,3.24656,-13.4684
-252,-636,3.24622,13.6456,0.00266728,-0.00470155,0.000121344,0.00266928,-0.00470355,0.0164612,0.00431037,0.0109055,972,1660,3.2462,-13.6456
-245,-636,3.27051,13.8358,0.00406757,-0.00505515,0.00063984,0.00411223,-0.00509981,0.0696823,0.00532875,0.00999258,979,1660,3.27052,-13.8358
-238,-636,3.27625,14.0144,0.00553796,-0.0053897,0.0013028,0.00569113,-0.00554287,0.117035,0.00648614,0.0115302,986,1660,3.27622,-14.0144
-231,-636,3.27277,14.1848,0.00704686,-0.0059494,0.00188971,0.00731605,-0.00621859,0.141501,0.00782279,0.0109422,993,1660,3.27279,-14.1848
-224,-636,3.28558,14.3588,0.00879264,-0.00638745,0.00270301,0.00925958,-0.0068544,0.171061,0.00933789,0.00915409,1000,1660,3.28558,-14.3588
-217,-636,3.28821,14.5426,0.010131,-0.00651286,0.00367095,0.0109047,-0.00728655,0.207721,0.0105718,0.0108489,1007,1660,3.2882,-14.5426
-210,-636,3.29877,14.6771,0.0103281,-0.00671366,0.0042244,0.0113178,-0.00770335,0.230129,0.0110477,0.0158585,1014,1660,3.29875,-14.6771
-203,-636,3.31958,14.8187,0.0106106,-0.00666312,0.00473962,0.0118256,-0.00787813,0.250948,0.0114518,0.0200633,1021,1660,3.31954,-14.8187
-196,-636,3.40564,14.892,0.013125,-0.00357863,0.00454708,0.0142826,-0.00473622,0.249283,0.0114323,0.0211911,1028,1660,3.40563,-14.892
-189,-636,3.38757,15.0175,0.0167756,-0.00077303,0.00482828,0.0180164,-0.00201374,0.251526,0.0127353,0.0231937,1035,1660,3.38757,-15.0175
-182,-636,3.41675,15.0021,0.0202483,0.00244345,0.00469991,0.0214128,0.00127898,0.242873,0.0138685,0.0380203,1042,1660,3.41673,-15.002
-175,-636,4.50513,15.7142,0,0,0,0,0,0,0,-1,1049,1660,4.50518,-15.7142
-168,-636,4.10291,15.7222,0.0293924,0.0110944,0.0034228,0.0300117,0.0104751,0.178997,0.0175886,0.044854,1056,1660,4.1029,-15.7222
-161,-636,3.74841,15.7247,0.0352254,0.0169525,0.00202198,0.0354465,0.0167314,0.108899,0.0204757,0.0470073,1063,1660,3.74836,-15.7247
-154,-636,3.45789,15.7153,0,0,0,0,0,0,0,-1,1070,1660,3.45789,-15.7154
-147,-636,1.69153,14.6741,0.0547794,0.0280283,0.00123476,0.0548363,0.0279714,0.0460271,0.0316619,0.047775,1077,1660,1.69152,-14.6741
-140,-636,2.41187,15.6355,0.0662957,0.0319174,0.00140645,0.0663531,0.0318599,0.0408201,0.038319,0.048069,1084,1660,2.41181,-15.6355
-133,-636,3.07141,16.1895,0.0784194,0.0351899,0.00158432,0.0784774,0.0351319,0.0365835,0.0453916,0.0486695,1091,1660,3.07138,-16.1895
-126,-636,3.74377,16.7397,0,0,0,0,0,0,0,-1,1098,1660,3.74374,-16.7397
-119,-636,1.8667,13.8916,0,0,0,0,0,0,0,-1,1105,1660,1.86668,-13.8916
-112,-636,-1.24963,9.7998,0,0,0,0,0,0,0,-1,1112,1660,-1.24968,-9.79978
-105,-636,3.51624,4.72791,0,0,0,0,0,0,0,-1,1119,1660,3.51618,-4.7279
-98,-636,1.54504,5.11914,0,0,0,0,0,0,0,-1,1126,1660,1.54503,-5.11912
-91,-636,-1.87964,-2.25012,0,0,0,0,0,0,0,-1,1133,1660,-1.87966,2.25016
-84,-636,-2.84143,0.133667,0,0,0,0,0,0,0,-1,1140,1660,-2.84144,-0.133701
-77,-636,-3.57349,2.45935,0,0,0,0,0,0,0,-1,1147,1660,-3.57345,-2.45939
-70,-636,-4.23682,4.82312,0,0,0,0,0,0,0,-1,1154,1660,-4.23681,-4.82307
-63,-636,-2.21033,6.97168,0,0,0,0,0,0,0,-1,1161,1660,-2.21034,-6.97165
-56,-636,-2.51917,8.80359,0,0,0,0,0,0,0,-1,1168,1660,-2.51916,-8.80361
-49,-636,-3.13,10.4113,0,0,0,0,0,0,0,-1,1175,1660,-3.12996,-10.4112
-42,-636,-2.27771,4.90173,0,0,0,0,0,0,0,-1,1182,1660,-2.27775,-4.90173
-35,-636,-2.27698,5.89685,0,0,0,0,0,0,0,-1,1189,1660,-2.27695,-5.89686
-28,-636,-1.70654,4.83936,0,0,0,0,0,0,0,-1,1196,1660,-1.70656,-4.8393
-21,-636,4.10999,24.0377,0,0,0,0,0,0,0,-1,1203,1660,4.11004,-24.0377
-14,-636,5.37073,20.2274,0,0,0,0,0,0,0,-1,1210,1660,5.37074,-20.2274
-7,-636,4.9895,22.2236,0,0,0,0,0,0,0,-1,1217,1660,4.98945,-22.2236
0,-636,5.23059,22.2893,0.202668,0.131236,-0.0721552,0.247463,0.0864407,-0.555582,0.145019,0.0479506,1224,1660,5.23064,-22.2893
7,-636,5.51794,22.3843,0.195829,0.121639,-0.0670306,0.235345,0.082124,-0.532671,0.137928,0.0441742,1231,1660,5.5179,-22.3843
14,-636,10.0298,19.9231,0.17728,0.104878,-0.0586524,0.210004,0.072154,-0.508906,0.123207,0.0430317,1238,1660,10.0298,-19.9231
21,-636,9.51367,19.6349,0.151584,0.0847123,-0.0455447,0.174648,0.0616479,-0.468765,0.102276,0.0423613,1245,1660,9.51366,-19.6349
28,-636,9.10046,19.9447,0,0,0,0,0,0,0,-1,1252,1660,9.10048,-19.9447
35,-636,8.51477,19.3899,0,0,0,0,0,0,0,-1,1259,1660,8.51476,-19.3899
42,-636,8.58411,19.0321,0,0,0,0,0,0,0,-1,1266,1660,8.58411,-19.0321
49,-636,8.70154,18.5558,0,0,0,0,0,0,0,-1,1273,1660,8.70157,-18.5558
56,-636,8.02625,17.3654,0.0122969,0.00696786,0.0291745,0.0389283,-0.0196635,0.739859,0.0344321,0.0443919,1280,1660,8.02621,-17.3653
63,-636,7.90125,17.647,-0.012532,-0.0003249,0.0407887,0.0348144,-0.0476713,0.859666,0.0478156,0.0405992,1287,1660,7.90123,-17.647
70,-636,7.6394,18.106,-0.0396284,-0.0124863,0.055982,0.0315461,-0.0836608,0.904314,0.0687457,0.0437519,1294,1660,7.63945,-18.106
77,-636,7.65759,19.2386,-0.0538576,-0.00574001,0.0608596,0.0356437,-0.0952413,0.973629,0.0781342,0.0437123,1301,1660,7.65762,-19.2386
84,-636,6.55273,20.3657,-0.061308,0.00368399,0.0633447,0.0423816,-0.100006,1.0224,0.0844215,0.0446741,1308,1660,6.5527,-20.3658
91,-636,5.9502,21.2327,-0.066952,0.0183619,0.0654779,0.053852,-0.102442,1.0741,0.0916786,0.0399495,1315,1660,5.95014,-21.2327
98,-636,5.45081,22.197,-0.0718851,0.0334565,0.0677579,0.0666073,-0.105036,1.11578,0.0999227,0.0429123,1322,1660,5.45077,-22.197
105,-636,4.85718,22.9479,-0.0766823,0.0503259,0.0698468,0.0812217,-0.107578,1.15433,0.109357,0.045613,1329,1660,4.8572,-22.9478
112,-636,4.17334,23.8727,-0.0816664,0.0694508,0.0720701,0.0983106,-0.110526,1.18991,0.120641,0.0443173,1336,1660,4.17331,-23.8727
119,-636,3.3667,24.9196,0,0,0,0,0,0,0,-1,1343,1660,3.3667,-24.9195
126,-636,2.61816,26.8121,-0.0888557,0.116508,0.0769306,0.14213,-0.114478,1.2493,0.148439,0.0450701,1350,1660,2.61822,-26.8121
133,-636,1.60828,28.4229,-0.0893878,0.147633,0.0806001,0.172444,-0.114199,1.27217,0.166629,0.047472,1357,1660,1.6083,-28.4229
140,-636,0.768677,30.0027,-0.0893881,0.180939,0.0859149,0.205933,-0.114382,1.28769,0.187435,0.0476157,1364,1660,0.76862,-30.0027
147,-636,0.079834,31.6005,-0.0877544,0.223471,0.0925019,0.248888,-0.113172,1.30264,0.213875,0.0472162,1371,1660,0.0797975,-31.6005
154,-636,-0.65625,33.0583,0,0,0,0,0,0,0,-1,1378,1660,-0.656309,-33.0583
161,-636,10.2961,7.13025,0,0,0,0,0,0,0,-1,1385,1660,10.2961,-7.13021
168,-636,11.7659,5.83899,0,0,0,0,0,0,0,-1,1392,1660,11.7658,-5.83899
175,-636,5.94592,-1.72888,0,0,0,0,0,0,0,-1,1399,1660,5.94598,1.72886
182,-636,5.93994,-1.11938,0,0,0,0,0,0,0,-1,1406,1660,5.93998,1.11936
189,-636,5.32544,11.9595,0,0,0,0,0,0,0,-1,1413,1660,5.32542,-11.9595
196,-636,5.3623,9.38025,0,0,0,0,0,0,0,-1,1420,1660,5.36225,-9.38027
203,-636,5.18542,9.02429,0,0,0,0,0,0,0,-1,1427,1660,5.18547,-9.0243
210,-636,4.09167,7.17041,0,0,0,0,0,0,0,-1,1434,1660,4.09173,-7.17041
217,-636,2.94897,5.28992,0,0,0,0,0,0,0,-1,1441,1660,2.94899,-5.28991
224,-636,1.49194,3.63916,0,0,0,0,0,0,0,-1,1448,1660,1.49197,-3.63918
231,-636,0.17749,2.24854,0,0,0,0,0,0,0,-1,1455,1660,0.177501,-2.24855
238,-636,-0.764648,1.00598,0,0,0,0,0,0,0,-1,1462,1660,-0.764704,-1.00595
245,-636,6.21204,1.18005,0,0,0,0,0,0,0,-1,1469,1660,6.21206,-1.18001
252,-636,7.70251,0.865723,0,0,0,0,0,0,0,-1,1476,1660,7.7025,-0.865692
259,-636,9.03601,0.787231,0,0,0,0,0,0,0,-1,1483,1660,9.03598,-0.787243
266,-636,10.1071,3.24109,0,0,0,0,0,0,0,-1,1490,1660,10.1071,-3.24103
273,-636,8.48535,5.02466,0,0,0,0,0,0,0,-1,1497,1660,8.48533,-5.02472
280,-636,8.81384,5.66992,0,0,0,0,0,0,0,-1,1504,1660,8.81381,-5.66998
287,-636,6.08606,11.49,0,0,0,0,0,0,0,-1,1511,1660,6.08606,-11.49
294,-636,6.5448,16.8258,0,0,0,0,0,0,0,-1,1518,1660,6.54478,-16.8258
301,-636,6.58728,16.3899,0,0,0,0,0,0,0,-1,1525,1660,6.58732,-16.3899
308,-636,6.59424,15.9094,0,0,0,0,0,0,0,-1,1532,1660,6.59424,-15.9094
315,-636,6.35168,15.9045,0,0,0,0,0,0,0,-1,1539,1660,6.35169,-15.9045
322,-636,6.43127,15.7261,0.00166856,-0.0111853,0.00561414,0.00377533,-0.0132921,0.358999,0.0103519,0.0381505,1546,1660,6.43124,-15.7261
329,-636,6.52661,15.5858,0.00176357,-0.0093861,0.00497113,0.00365807,-0.0112806,0.364108,0.00899132,0.0264002,1553,1660,6.52658,-15.5858
336,-636,6.54919,15.4272,0.00171402,-0.00778855,0.00438591,0.00342887,-0.0095034,0.372716,0.00773614,0.0223188,1560,1660,6.54915,-15.4272
343,-636,6.53455,15.3441,0.00150762,-0.00692299,0.00396076,0.00307647,-0.00849184,0.377138,0.0069186,0.0199697,1567,1660,6.5345,-15.3442
350,-636,6.51306,15.193,0.00137258,-0.00580937,0.0035308,0.00281764,-0.00725443,0.388474,0.00600023,0.0117373,1574,1660,6.51304,-15.1929
357,-636,6.5127,15.0586,0.00127091,-0.00509327,0.00314814,0.00256503,-0.00638739,0.390017,0.00532341,0.0104961,1581,1660,6.51265,-15.0586
364,-636,6.5249,14.9221,0.00105363,-0.00444965,0.00281313,0.00223712,-0.00563313,0.398224,0.00468278,0.0100781,1588,1660,6.52489,-14.9222
371,-636,6.54358,14.7745,0.000829445,-0.00394311,0.00252627,0.00191827,-0.00503193,0.406944,0.00414475,0.00863054,1595,1660,6.54363,-14.7745
378,-636,6.57092,14.608,0.00069396,-0.00307919,0.00221734,0.0017187,-0.00410393,0.432911,0.00345444,0.00928191,1602,1660,6.57091,-14.608
385,-636,6.58325,14.446,0.000502053,-0.00267731,0.00185162,0.00135278,-0.00352803,0.430684,0.00290972,0.0144215,1609,1660,6.58329,-14.446
392,-636,6.55896,14.308,0.000307787,-0.0022733,0.00142173,0.000937352,-0.00290287,0.416864,0.00231193,0.0151348,1616,1660,6.55897,-14.3079
399,-636,6.53113,14.1512,0.00028114,-0.00165397,0.000960612,0.000677014,-0.00204984,0.390899,0.00163951,0.0114519,1623,1660,6.5311,-14.1512
406,-636,6.53662,13.9956,0.000296811,-0.000881091,0.000499643,0.000480198,-0.00106448,0.351771,0.000912838,0.013054,1630,1660,6.53658,-13.9956
413,-636,6.52783,13.8163,0.000245291,-0.000270827,2.69647e-05,0.000246696,-0.000272232,0.0520563,0.000299724,0.0211025,1637,1660,6.5278,-13.8163
420,-636,6.51123,13.6509,0.000183596,0.000144378,-0.000454394,0.000618805,-0.00029083,-0.763834,0.000536436,0.0212782,1644,1660,6.51121,-13.6509
427,-636,6.52808,13.4791,9.68186e-05,0.000349474,-0.000809684,0.00104263,-0.000596333,-0.862785,0.000957876,0.0129602,1651,1660,6.52802,-13.4791
434,-636,6.52979,13.2892,2.68277e-05,0.000418567,-0.00121012,0.00144856,-0.00100317,-0.865632,0.00142327,0.0111486,1658,1660,6.52982,-13.2892
441,-636,6.55591,13.0854,-1.26598e-05,0.000274425,-0.00154683,0.00168436,-0.0014226,-0.831664,0.00179592,0.0109575,1665,1660,6.55595,-13.0855
448,-636,6.56677,12.8965,2.76562e-05,-0.000363394,-0.00173256,0.00157569,-0.00191143,-0.729209,0.0020164,0.0130664,1672,1660,6.56676,-12.8965
455,-636,6.57056,12.694,0.000205024,-0.00136947,-0.00193108,0.00150316,-0.00266761,-0.591847,0.00243908,0.0147339,1679,1660,6.57054,-12.694
462,-636,6.52917,12.4982,0.000411845,-0.00275184,-0.00205381,0.00142237,-0.00376237,-0.457246,0.00309337,0.0205935,1686,1660,6.52913,-12.4981
469,-636,6.56018,12.389,0.000775547,-0.00427415,-0.00212199,0.00154884,-0.00504744,-0.34946,0.00398292,0.0317528,1693,1660,6.56019,-12.3891
476,-636,6.46265,12.408,0.00142767,-0.00566056,-0.00224889,0.00208097,-0.00631386,-0.282715,0.00504795,0.0451194,1700,1660,6.46267,-12.408
483,-636,6.32971,12.2722,0,0,0,0,0,0,0,-1,1707,1660,6.3297,-12.2722
490,-636,6.61572,11.4348,0,0,0,0,0,0,0,-1,1714,1660,6.61575,-11.4348
497,-636,5.67529,11.4598,0,0,0,0,0,0,0,-1,1721,1660,5.67528,-11.4599
504,-636,5.95276,11.8416,0,0,0,0,0,0,0,-1,1728,1660,5.95275,-11.8416
511,-636,5.65466,9.23218,0,0,0,0,0,0,0,-1,1735,1660,5.65461,-9.23216
518,-636,6.72791,1.07605,0,0,0,0,0,0,0,-1,1742,1660,6.7279,-1.0761
525,-636,7.04309,0.93335,0,0,0,0,0,0,0,-1,1749,1660,7.04308,-0.933298
532,-636,0,0,0,0,0,0,0,0,0,-1,1756,1660,0,0
539,-636,0,0,0,0,0,0,0,0,0,-1,1763,1660,0,0
546,-636,0,0,0,0,0,0,0,0,0,-1,1770,1660,0,0
553,-636,0,0,0,0,0,0,0,0,0,-1,1777,1660,0,0
560,-636,0,0,0,0,0,0,0,0,0,-1,1784,1660,0,0
567,-636,0,0,0,0,0,0,0,0,0,-1,1791,1660,0,0
574,-636,0,0,0,0,0,0,0,0,0,-1,1798,1660,0,0
581,-636,0,0,0,0,0,0,0,0,0,-1,1805,1660,0,0
588,-636,0,0,0,0,0,0,0,0,0,-1,1812,1660,0,0
595,-636,0,0,0,0,0,0,0,0,0,-1,1819,1660,0,0
602,-636,0,0,0,0,0,0,0,0,0,-1,1826,1660,0,0
609,-636,0,0,0,0,0,0,0,0,0,-1,1833,1660,0,0
616,-636,0,0,0,0,0,0,0,0,0,-1,1840,1660,0,0
623,-636,0,0,0,0,0,0,0,0,0,-1,1847,1660,0,0
630,-636,0,0,0,0,0,0,0,0,0,-1,1854,1660,0,0
637,-636,0,0,0,0,0,0,0,0,0,-1,1861,1660,0,0
644,-636,0,0,0,0,0,0,0,0,0,-1,1868,1660,0,0
651,-636,0,0,0,0,0,0,0,0,0,-1,1875,1660,0,0
658,-636,0,0,0,0,0,0,0,0,0,-1,1882,1660,0,0
665,-636,0,0,0,0,0,0,0,0,0,-1,1889,1660,0,0
672,-636,0,0,0,0,0,0,0,0,0,-1,1896,1660,0,0
679,-636,0,0,0,0,0,0,0,0,0,-1,1903,1660,0,0
686,-636,0,0,0,0,0,0,0,0,0,-1,1910,1660,0,0
693,-636,0,0,0,0,0,0,0,0,0,-1,1917,1660,0,0
700,-636,0,0,0,0,0,0,0,0,0,-1,1924,1660,0,0
707,-636,0,0,0,0,0,0,0,0,0,-1,1931,1660,0,0
714,-636,0,0,0,0,0,0,0,0,0,-1,1938,1660,0,0
721,-636,0,0,0,0,0,0,0,0,0,-1,1945,1660,0,0
728,-636,0,0,0,0,0,0,0,0,0,-1,1952,1660,0,0
735,-636,0,0,0,0,0,0,0,0,0,-1,1959,1660,0,0
742,-636,0,0,0,0,0,0,0,0,0,-1,1966,1660,0,0
749,-636,0,0,0,0,0,0,0,0,0,-1,1973,1660,0,0
756,-636,0,0,0,0,0,0,0,0,0,-1,1980,1660,0,0
763,-636,0,0,0,0,0,0,0,0,0,-1,1987,1660,0,0
770,-636,0,0,0,0,0,0,0,0,0,-1,1994,1660,0,0
777,-636,0,0,0,0,0,0,0,0,0,-1,2001,1660,0,0
784,-636,0,0,0,0,0,0,0,0,0,-1,2008,1660,0,0
791,-636,0,0,0,0,0,0,0,0,0,-1,2015,1660,0,0
798,-636,0,0,0,0,0,0,0,0,0,-1,2022,1660,0,0
805,-636,0,0,0,0,0,0,0,0,0,-1,2029,1660,0,0
812,-636,0,0,0,0,0,0,0,0,0,-1,2036,1660,0,0
-700,-643,0,0,0,0,0,0,0,0,0,-1,524,1667,0,0
-693,-643,0,0,0,0,0,0,0,0,0,-1,531,1667,0,0
-686,-643,0,0,0,0,0,0,0,0,0,-1,538,1667,0,0
-679,-643,0,0,0,0,0,0,0,0,0,-1,545,1667,0,0
-672,-643,0,0,0,0,0,0,0,0,0,-1,552,1667,0,0
-665,-643,0,0,0,0,0,0,0,0,0,-1,559,1667,0,0
-658,-643,0,0,0,0,0,0,0,0,0,-1,566,1667,0,0
-651,-643,0,0,0,0,0,0,0,0,0,-1,573,1667,0,0
-644,-643,0,0,0,0,0,0,0,0,0,-1,580,1667,0,0
-637,-643,0,0,0,0,0,0,0,0,0,-1,587,1667,0,0
-630,-643,0,0,0,0,0,0,0,0,0,-1,594,1667,0,0
-623,-643,0,0,0,0,0,0,0,0,0,-1,601,1667,0,0
-616,-643,0,0,0,0,0,0,0,0,0,-1,608,1667,0,0
-609,-643,0,0,0,0,0,0,0,0,0,-1,615,1667,0,0
-602,-643,0,0,0,0,0,0,0,0,0,-1,622,1667,0,0
-595,-643,0,0,0,0,0,0,0,0,0,-1,629,1667,0,0
-588,-643,0,0,0,0,0,0,0,0,0,-1,636,1667,0,0
-581,-643,0,0,0,0,0,0,0,0,0,-1,643,1667,0,0
-574,-643,0,0,0,0,0,0,0,0,0,-1,650,1667,0,0
-567,-643,0,0,0,0,0,0,0,0,0,-1,657,1667,0,0
-560,-643,0,0,0,0,0,0,0,0,0,-1,664,1667,0,0
-553,-643,0,0,0,0,0,0,0,0,0,-1,671,1667,0,0
-546,-643,0,0,0,0,0,0,0,0,0,-1,678,1667,0,0
-539,-643,0,0,0,0,0,0,0,0,0,-1,685,1667,0,0
-532,-643,0,0,0,0,0,0,0,0,0,-1,692,1667,0,0
-525,-643,0,0,0,0,0,0,0,0,0,-1,699,1667,0,0
-518,-643,0,0,0,0,0,0,0,0,0,-1,706,1667,0,0
-511,-643,0,0,0,0,0,0,0,0,0,-1,713,1667,0,0
-504,-643,0,0,0,0,0,0,0,0,0,-1,720,1667,0,0
-497,-643,0,0,0,0,0,0,0,0,0,-1,727,1667,0,0
-490,-643,0,0,0,0,0,0,0,0,0,-1,734,1667,0,0
-483,-643,0,0,0,0,0,0,0,0,0,-1,741,1667,0,0
-476,-643,0,0,0,0,0,0,0,0,0,-1,748,1667,0,0
-469,-643,0,0,0,0,0,0,0,0,0,-1,755,1667,0,0
-462,-643,0,0,0,0,0,0,0,0,0,-1,762,1667,0,0
-455,-643,0,0,0,0,0,0,0,0,0,-1,769,1667,0,0
-448,-643,0,0,0,0,0,0,0,0,0,-1,776,1667,0,0
-441,-643,0,0,0,0,0,0,0,0,0,-1,783,1667,0,0
-434,-643,0,0,0,0,0,0,0,0,0,-1,790,1667,0,0
-427,-643,0,0,0,0,0,0,0,0,0,-1,797,1667,0,0
-420,-643,0,0,0,0,0,0,0,0,0,-1,804,1667,0,0
-413,-643,0,0,0,0,0,0,0,0,0,-1,811,1667,0,0
-406,-643,0,0,0,0,0,0,0,0,0,-1,818,1667,0,0
-399,-643,4.40393,6.401,0,0,0,0,0,0,0,-1,825,1667,4.40396,-6.40101
-392,-643,4.9093,7.02441,0,0,0,0,0,0,0,-1,832,1667,4.90932,-7.02443
-385,-643,4.9585,7.77661,0,0,0,0,0,0,0,-1,839,1667,4.95849,-7.77664
-378,-643,4.92444,8.92029,0,0,0,0,0,0,0,-1,846,1667,4.92446,-8.92025
-371,-643,0.5849,3.26428,0,0,0,0,0,0,0,-1,853,1667,0.584909,-3.26426
-364,-643,1.69513,9.922,0,0,0,0,0,0,0,-1,860,1667,1.69511,-9.92205
-357,-643,1.14227,10.8429,0,0,0,0,0,0,0,-1,867,1667,1.14228,-10.8429
-350,-643,2.50061,9.96948,0,0,0,0,0,0,0,-1,874,1667,2.50059,-9.96954
-343,-643,2.61505,6.17407,0,0,0,0,0,0,0,-1,881,1667,2.61504,-6.17412
-336,-643,3.48138,11.5177,0,0,0,0,0,0,0,-1,888,1667,3.48139,-11.5177
-329,-643,3.49097,11.6355,-0.0140065,-0.0150307,-0.00748406,-0.00701704,-0.0220202,-0.751241,0.0129891,0.0388596,895,1667,3.49098,-11.6355
-322,-643,3.47034,11.7235,-0.0128783,-0.0118338,-0.00655611,-0.00577919,-0.018933,-0.825145,0.0112039,0.0279347,902,1667,3.47033,-11.7235
-315,-643,3.45483,11.9285,-0.0116141,-0.00945983,-0.00587985,-0.00455925,-0.0165146,-0.875987,0.00984831,0.0180709,909,1667,3.45481,-11.9285
-308,-643,3.45953,12.1261,-0.0101936,-0.00742636,-0.00538386,-0.00325118,-0.0143688,-0.911175,0.00870038,0.0139893,916,1667,3.45951,-12.1261
-301,-643,3.47009,12.3285,-0.00867533,-0.0060956,-0.00485753,-0.0023596,-0.0124113,-0.915173,0.00761061,0.0148934,923,1667,3.4701,-12.3285
-294,-643,3.46002,12.5028,-0.00723228,-0.00505417,-0.00419878,-0.00180551,-0.0104809,-0.912289,0.00646999,0.0129887,930,1667,3.45999,-12.5028
-287,-643,3.44574,12.7006,-0.00563917,-0.00461767,-0.00353801,-0.00155373,-0.00870311,-0.857083,0.00535976,0.0107193,937,1667,3.44573,-12.7006
-280,-643,3.46063,12.9155,-0.00409814,-0.0043449,-0.00299697,-0.00122201,-0.00722102,-0.764825,0.0044628,0.0137672,944,1667,3.46066,-12.9155
-273,-643,3.45099,13.0962,-0.00263517,-0.00407941,-0.00247288,-0.000781133,-0.00593345,-0.64334,0.00372267,0.0119682,951,1667,3.45101,-13.0962
-266,-643,3.42938,13.2719,-0.00136252,-0.00392962,-0.00197533,-0.000290347,-0.0050018,-0.497285,0.00324209,0.0113015,958,1667,3.42939,-13.2718
-259,-643,3.4248,13.4575,-0.000285014,-0.00364643,-0.00145968,0.000260362,-0.00419181,-0.357566,0.00288525,0.0112648,965,1667,3.42482,-13.4575
-252,-643,3.4422,13.6499,0.000656219,-0.00351447,-0.00103505,0.000898962,-0.00375721,-0.23036,0.00285208,0.0127446,972,1667,3.44222,-13.6499
-245,-643,3.44678,13.8342,0.0013921,-0.00331741,-0.000731707,0.00150317,-0.00342847,-0.150639,0.00291871,0.0117837,979,1667,3.44676,-13.8342
-238,-643,3.45526,14.0122,0.0019382,-0.00311841,-0.00042143,0.00197308,-0.00315329,-0.082583,0.00298575,0.0141177,986,1667,3.45526,-14.0122
-231,-643,3.44537,14.1964,0.00238513,-0.00308946,-0.000229514,0.00239473,-0.00309906,-0.0418257,0.00318052,0.0107759,993,1667,3.44537,-14.1965
-224,-643,3.44928,14.3422,0.00288293,-0.00301184,9.72447e-06,0.00288295,-0.00301186,0.00164967,0.00340364,0.00983216,1000,1667,3.44926,-14.3421
-217,-643,3.45557,14.4814,0.00311464,-0.00274712,0.000381754,0.0031394,-0.00277187,0.0647615,0.00341507,0.00874441,1007,1667,3.45558,-14.4814
-210,-643,3.47028,14.6566,0.00270395,-0.00270088,0.000530019,0.00275543,-0.00275236,0.0968349,0.00317993,0.0105143,1014,1667,3.47026,-14.6566
-203,-643,3.48999,14.839,0.00245077,-0.00256117,0.000679615,0.00254129,-0.00265169,0.132414,0.0029984,0.0118145,1021,1667,3.49004,-14.839
-196,-643,3.48657,14.9832,0.00419218,-0.000309632,0.00051631,0.00425063,-0.000368089,0.112739,0.00296408,0.0125027,1028,1667,3.48654,-14.9832
-189,-643,3.52405,15.1228,0.00700201,0.001572,0.000866377,0.0071369,0.00143712,0.154446,0.00435859,0.0122359,1035,1667,3.52399,-15.1228
-182,-643,3.59058,15.2679,0.00997867,0.00361926,0.00100109,0.0101325,0.0034654,0.152507,0.00594658,0.0193823,1042,1667,3.59056,-15.268
-175,-643,3.80115,15.4121,0.0135714,0.0061643,0.000864147,0.0136709,0.00606482,0.114614,0.0079096,0.0315374,1049,1667,3.80112,-15.4121
-168,-643,3.77747,15.5195,0.0180486,0.00906577,0.000834904,0.0181256,0.00898883,0.0918953,0.0104649,0.0365369,1056,1667,3.77742,-15.5196
-161,-643,3.71399,15.658,0.0239415,0.0122907,0.000807882,0.0239972,0.0122349,0.0689019,0.0138557,0.0433762,1063,1667,3.71403,-15.658
-154,-643,3.60242,15.6704,0.0311492,0.0156855,0.000757714,0.0311862,0.0156485,0.0488437,0.0180054,0.0468076,1070,1667,3.60236,-15.6705
-147,-643,3.40247,15.6726,0,0,0,0,0,0,0,-1,1077,1667,3.4025,-15.6726
-140,-643,2.62109,15.6331,0,0,0,0,0,0,0,-1,1084,1667,2.62115,-15.633
-133,-643,3.15967,16.1217,0,0,0,0,0,0,0,-1,1091,1667,3.1597,-16.1217
-126,-643,3.69824,16.6104,0,0,0,0,0,0,0,-1,1098,1667,3.69825,-16.6103
-119,-643,3.76282,14.1458,0,0,0,0,0,0,0,-1,1105,1667,3.76283,-14.1458
-112,-643,3.81458,16.2069,0,0,0,0,0,0,0,-1,1112,1667,3.81463,-16.2069
-105,-643,-2.23413,10.0996,0,0,0,0,0,0,0,-1,1119,1667,-2.23415,-10.0996
-98,-643,3.11035,4.68066,0,0,0,0,0,0,0,-1,1126,1667,3.11041,-4.68071
-91,-643,-1.74146,-2.5885,0,0,0,0,0,0,0,-1,1133,1667,-1.74146,2.58856
-84,-643,-3.07446,-0.199341,0,0,0,0,0,0,0,-1,1140,1667,-3.07449,0.199383
-77,-643,-3.63794,2.81165,0,0,0,0,0,0,0,-1,1147,1667,-3.63791,-2.8117
-70,-643,-3.36938,4.45203,0,0,0,0,0,0,0,-1,1154,1667,-3.36941,-4.452
-63,-643,-3.67822,6.26855,0,0,0,0,0,0,0,-1,1161,1667,-3.67823,-6.26856
-56,-643,-3.95142,8.1073,0,0,0,0,0,0,0,-1,1168,1667,-3.95139,-8.10732
-49,-643,-4.23535,9.90552,0,0,0,0,0,0,0,-1,1175,1667,-4.23537,-9.90557
-42,-643,-4.25195,10.7059,0,0,0,0,0,0,0,-1,1182,1667,-4.25192,-10.706
-35,-643,-4.10986,11.6588,0,0,0,0,0,0,0,-1,1189,1667,-4.10982,-11.6589
-28,-643,-1.38513,5.604,0,0,0,0,0,0,0,-1,1196,1667,-1.3851,-5.60403
-21,-643,5.43616,20.3062,0,0,0,0,0,0,0,-1,1203,1667,5.43612,-20.3062
-14,-643,5.77222,20.4629,0,0,0,0,0,0,0,-1,1210,1667,5.77227,-20.4628
-7,-643,5.75623,21.0419,0,0,0,0,0,0,0,-1,1217,1667,5.75618,-21.0419
0,-643,5.3728,21.5389,0.16318,0.112278,-0.0455055,0.189868,0.0855892,-0.530423,0.109797,0.0468791,1224,1667,5.37279,-21.5389
7,-643,5.41699,21.7485,0.156685,0.106053,-0.0405592,0.17918,0.0835577,-0.506399,0.103528,0.0432945,1231,1667,5.41695,-21.7485
14,-643,9.67883,20.1099,0.141026,0.0927665,-0.0337893,0.158417,0.0753756,-0.475328,0.0914977,0.043065,1238,1667,9.67884,-20.1098
21,-643,9.31433,19.85,0.119752,0.0761696,-0.0241889,0.130518,0.0654038,-0.418747,0.0753547,0.0436551,1245,1667,9.31435,-19.8499
28,-643,9.04114,19.4471,0.0957306,0.0599673,-0.0131699,0.100057,0.0556408,-0.317405,0.057889,0.0449346,1252,1667,9.04109,-19.4471
35,-643,8.64453,19.2344,0.070217,0.0441771,-0.00198255,0.0703671,0.044027,-0.0755547,0.041052,0.0447371,1259,1667,8.64458,-19.2344
42,-643,8.29333,19.0613,0.0459912,0.0322888,0.00882345,0.0503111,0.0279689,0.455281,0.0291076,0.047599,1266,1667,8.29336,-19.0613
49,-643,8.14197,18.7089,0.0221629,0.019938,0.0195477,0.0406298,0.00147108,0.756974,0.0266097,0.0456756,1273,1667,8.14193,-18.7088
56,-643,7.66016,17.4822,0.00308261,0.00974204,0.0285696,0.0351753,-0.0223506,0.84341,0.0334866,0.0449048,1280,1667,7.6602,-17.4821
63,-643,7.40442,17.8317,-0.0177487,0.0034648,0.0368777,0.0312308,-0.0455147,0.925428,0.0445642,0.0448613,1287,1667,7.40444,-17.8317
70,-643,7.15747,18.371,-0.0386299,-0.0049221,0.0466317,0.027808,-0.07136,0.958807,0.0590665,0.0443189,1294,1667,7.15745,-18.3709
77,-643,6.96912,19.2695,-0.0501546,-0.000142697,0.0501364,0.0308777,-0.081175,1.01673,0.0668308,0.040899,1301,1667,6.96907,-19.2696
84,-643,6.62732,20.4058,-0.0572388,0.00727474,0.0524548,0.0365972,-0.0865613,1.06107,0.07303,0.0432798,1308,1667,6.62729,-20.4058
91,-643,6.23108,21.4377,-0.0614204,0.0225627,0.0546575,0.0494967,-0.0883544,1.11294,0.0806354,0.0436946,1315,1667,6.23113,-21.4378
98,-643,5.4292,22.4563,-0.0645909,0.0355499,0.0569546,0.061314,-0.090355,1.14598,0.0880996,0.0466915,1322,1667,5.42916,-22.4562
105,-643,4.94263,23.2128,-0.068077,0.0505029,0.0591052,0.074931,-0.0925052,1.17888,0.0968467,0.0465713,1329,1667,4.94261,-23.2128
112,-643,4.47693,23.4941,-0.0714634,0.0679505,0.0615138,0.0912113,-0.0947242,1.20928,0.107356,0.04619,1336,1667,4.47691,-23.4942
119,-643,3.62903,24.4399,-0.0739884,0.0878134,0.0638062,0.109947,-0.0961224,1.23689,0.119064,0.0445956,1343,1667,3.62901,-24.4399
126,-643,2.79102,25.3783,0,0,0,0,0,0,0,-1,1350,1667,2.79106,-25.3783
133,-643,2.15637,27.5803,-0.0743482,0.138438,0.0698666,0.159328,-0.0952375,1.28027,0.148518,0.0461126,1357,1667,2.15643,-27.5803
140,-643,1.32007,29.2574,-0.0722354,0.169676,0.0747279,0.190899,-0.0934575,1.29409,0.167355,0.0438291,1364,1667,1.32008,-29.2575
147,-643,0.530762,30.8,-0.0697123,0.204488,0.0804082,0.226328,-0.0915522,1.30558,0.188947,0.0433252,1371,1667,0.530724,-30.8
154,-643,-0.234619,32.2736,0,0,0,0,0,0,0,-1,1378,1667,-0.234632,-32.2735
161,-643,17.8325,-2.83704,0,0,0,0,0,0,0,-1,1385,1667,17.8325,2.83699
168,-643,10.5563,10.9818,0,0,0,0,0,0,0,-1,1392,1667,10.5562,-10.9819
175,-643,5.88525,-1.1698,0,0,0,0,0,0,0,-1,1399,1667,5.88526,1.16977
182,-643,5.80945,-0.418701,0,0,0,0,0,0,0,-1,1406,1667,5.80949,0.418712
189,-643,5.42297,12.9208,0,0,0,0,0,0,0,-1,1413,1667,5.42298,-12.9208
196,-643,5.51953,11.2415,0,0,0,0,0,0,0,-1,1420,1667,5.51948,-11.2414
203,-643,5.60828,9.82153,0,0,0,0,0,0,0,-1,1427,1667,5.60833,-9.82148
210,-643,4.73218,7.58728,0,0,0,0,0,0,0,-1,1434,1667,4.73222,-7.58728
217,-643,3.8031,5.28955,0,0,0,0,0,0,0,-1,1441,1667,3.80305,-5.28955
224,-643,2.96436,2.97095,0,0,0,0,0,0,0,-1,1448,1667,2.96432,-2.97095
231,-643,2.13403,1.08472,0,0,0,0,0,0,0,-1,1455,1667,2.13403,-1.08467
238,-643,1.18152,-0.261963,0,0,0,0,0,0,0,-1,1462,1667,1.18152,0.26192
245,-643,-0.157471,-1.79016,0,0,0,0,0,0,0,-1,1469,1667,-0.157517,1.7901
252,-643,8.08789,0.0202637,0,0,0,0,0,0,0,-1,1476,1667,8.08791,-0.0203056
259,-643,9.02979,-0.46936,0,0,0,0,0,0,0,-1,1483,1667,9.02974,0.46933
266,-643,4.55066,5.17554,0,0,0,0,0,0,0,-1,1490,1667,4.55063,-5.17556
273,-643,4.34363,6.56836,0,0,0,0,0,0,0,-1,1497,1667,4.34363,-6.5684
280,-643,5.75854,14.5217,0,0,0,0,0,0,0,-1,1504,1667,5.75854,-14.5218
287,-643,6.271,16.4717,0,0,0,0,0,0,0,-1,1511,1667,6.27095,-16.4717
294,-643,6.56824,16.1586,0,0,0,0,0,0,0,-1,1518,1667,6.5682,-16.1586
301,-643,6.41016,15.9646,0.00186292,-0.0116598,0.00582585,0.00402661,-0.0138235,0.355606,0.0108108,0.0394034,1525,1667,6.41018,-15.9646
308,-643,6.3479,15.8444,0.0016625,-0.0103302,0.00528707,0.00366048,-0.0123282,0.36131,0.00967264,0.0390042,1532,1667,6.34788,-15.8443
315,-643,6.31824,15.8292,0.00152835,-0.00904087,0.00481166,0.00339071,-0.0109032,0.369294,0.00862418,0.0285234,1539,1667,6.31827,-15.8292
322,-643,6.3252,15.7404,0.0014527,-0.0076406,0.0042914,0.0031581,-0.00934601,0.378263,0.00750813,0.0141103,1546,1667,6.32522,-15.7403
329,-643,6.33252,15.5806,0.00145923,-0.00635473,0.00380153,0.00300351,-0.007899,0.38586,0.00650265,0.0111487,1553,1667,6.33247,-15.5806
336,-643,6.31653,15.4915,0.00136404,-0.00524645,0.00334613,0.00276212,-0.00664452,0.395772,0.00558299,0.0111643,1560,1667,6.31651,-15.4914
343,-643,6.34216,15.3912,0.00117777,-0.00465195,0.00296261,0.00241905,-0.00589322,0.396761,0.00493684,0.0127629,1567,1667,6.34215,-15.3913
350,-643,6.3645,15.2175,0.00107841,-0.0038992,0.00256729,0.00216524,-0.00498603,0.40046,0.0042345,0.0122901,1574,1667,6.36453,-15.2175
357,-643,6.35046,15.0671,0.00103391,-0.00335723,0.00217289,0.00192735,-0.00425067,0.390103,0.00364999,0.0109018,1581,1667,6.35047,-15.0671
364,-643,6.36963,14.9374,0.000890787,-0.00287774,0.001789,0.00160479,-0.00359174,0.379736,0.00307245,0.00937605,1588,1667,6.36968,-14.9374
371,-643,6.38745,14.7948,0.000743815,-0.00252179,0.00143668,0.00128589,-0.00306386,0.360795,0.00258031,0.00756476,1595,1667,6.38745,-14.7948
378,-643,6.40869,14.6461,0.00067882,-0.00186172,0.00104912,0.00105604,-0.00223894,0.345168,0.00194279,0.00930438,1602,1667,6.40863,-14.6462
385,-643,6.44104,14.4746,0.000582669,-0.00142769,0.000594943,0.000745541,-0.00159056,0.267213,0.00137785,0.0147385,1609,1667,6.44098,-14.4746
392,-643,6.40564,14.2961,0.000447891,-0.000874067,0.000118233,0.000458382,-0.000884559,0.0885015,0.000788254,0.0160037,1616,1667,6.40568,-14.2962
399,-643,6.37341,14.1675,0.000437492,-0.000257183,-0.000336274,0.000573604,-0.000393295,-0.384608,0.000561466,0.0137844,1623,1667,6.37336,-14.1675
406,-643,6.36768,13.9926,0.000451979,0.000525933,-0.000797379,0.00128719,-0.00030928,-0.808568,0.000977666,0.0125728,1630,1667,6.36773,-13.9926
413,-643,6.37415,13.8223,0.000401224,0.00110386,-0.00124765,0.00204871,-0.000543629,-0.922637,0.00157854,0.0180109,1637,1667,6.37413,-13.8223
420,-643,6.35364,13.6606,0.000306222,0.00143071,-0.00166301,0.00262395,-0.000887016,-0.948411,0.00210812,0.0171003,1644,1667,6.35358,-13.6607
427,-643,6.35901,13.4727,0.000160653,0.00156952,-0.0019196,0.00290986,-0.00117968,-0.961254,0.00243051,0.0141445,1651,1667,6.35903,-13.4727
434,-643,6.36731,13.2792,1.99469e-05,0.00153077,-0.00220399,0.00310521,-0.00155449,-0.950498,0.00273949,0.0150867,1658,1667,6.36734,-13.2791
441,-643,6.40173,13.0883,-0.000135087,0.00116204,-0.00237922,0.00297951,-0.00195256,-0.918463,0.00286803,0.0149154,1665,1667,6.40171,-13.0883
448,-643,6.44556,12.9034,-0.000237721,0.000156883,-0.00240838,0.00237603,-0.00245687,-0.826268,0.00279041,0.0188819,1672,1667,6.44551,-12.9035
455,-643,6.43848,12.8107,-0.00021566,-0.00121993,-0.00245447,0.00178751,-0.0032231,-0.6845,0.00293219,0.0289567,1679,1667,6.43848,-12.8106
462,-643,6.3866,12.7089,-0.000156386,-0.00304692,-0.00244812,0.00124125,-0.00444456,-0.518749,0.00345199,0.0371239,1686,1667,6.38657,-12.7088
469,-643,6.34595,12.5409,7.18969e-05,-0.00518445,-0.00241073,0.00101008,-0.00612264,-0.371136,0.00445677,0.0417706,1693,1667,6.3459,-12.5409
476,-643,6.22742,12.3668,0,0,0,0,0,0,0,-1,1700,1667,6.2274,-12.3669
483,-643,4.21387,10.938,0,0,0,0,0,0,0,-1,1707,1667,4.21385,-10.938
490,-643,4.57397,10.8843,0,0,0,0,0,0,0,-1,1714,1667,4.574,-10.8843
497,-643,5.08691,11.1222,0,0,0,0,0,0,0,-1,1721,1667,5.08695,-11.1222
504,-643,5.39294,11.4795,0,0,0,0,0,0,0,-1,1728,1667,5.39295,-11.4795
511,-643,6.32056,9.37439,0,0,0,0,0,0,0,-1,1735,1667,6.32061,-9.37435
518,-643,7.40564,0.922607,0,0,0,0,0,0,0,-1,1742,1667,7.4057,-0.922598
525,-643,0,0,0,0,0,0,0,0,0,-1,1749,1667,0,0
532,-643,0,0,0,0,0,0,0,0,0,-1,1756,1667,0,0
539,-643,0,0,0,0,0,0,0,0,0,-1,1763,1667,0,0
546,-643,0,0,0,0,0,0,0,0,0,-1,1770,1667,0,0
553,-643,0,0,0,0,0,0,0,0,0,-1,1777,1667,0,0
560,-643,0,0,0,0,0,0,0,0,0,-1,1784,1667,0,0
567,-643,0,0,0,0,0,0,0,0,0,-1,1791,1667,0,0
574,-643,0,0,0,0,0,0,0,0,0,-1,1798,1667,0,0
581,-643,0,0,0,0,0,0,0,0,0,-1,1805,1667,0,0
588,-643,0,0,0,0,0,0,0,0,0,-1,1812,1667,0,0
595,-643,0,0,0,0,0,0,0,0,0,-1,1819,1667,0,0
602,-643,0,0,0,0,0,0,0,0,0,-1,1826,1667,0,0
609,-643,0,0,0,0,0,0,0,0,0,-1,1833,1667,0,0
616,-643,0,0,0,0,0,0,0,0,0,-1,1840,1667,0,0
623,-643,0,0,0,0,0,0,0,0,0,-1,1847,1667,0,0
630,-643,0,0,0,0,0,0,0,0,0,-1,1854,1667,0,0
637,-643,0,0,0,0,0,0,0,0,0,-1,1861,1667,0,0
644,-643,0,0,0,0,0,0,0,0,0,-1,1868,1667,0,0
651,-643,0,0,0,0,0,0,0,0,0,-1,1875,1667,0,0
658,-643,0,0,0,0,0,0,0,0,0,-1,1882,1667,0,0
665,-643,0,0,0,0,0,0,0,0,0,-1,1889,1667,0,0
672,-643,0,0,0,0,0,0,0,0,0,-1,1896,1667,0,0
679,-643,0,0,0,0,0,0,0,0,0,-1,1903,1667,0,0
686,-643,0,0,0,0,0,0,0,0,0,-1,1910,1667,0,0
693,-643,0,0,0,0,0,0,0,0,0,-1,1917,1667,0,0
700,-643,0,0,0,0,0,0,0,0,0,-1,1924,1667,0,0
707,-643,0,0,0,0,0,0,0,0,0,-1,1931,1667,0,0
714,-643,0,0,0,0,0,0,0,0,0,-1,1938,1667,0,0
721,-643,0,0,0,0,0,0,0,0,0,-1,1945,1667,0,0
728,-643,0,0,0,0,0,0,0,0,0,-1,1952,1667,0,0
735,-643,0,0,0,0,0,0,0,0,0,-1,1959,1667,0,0
742,-643,0,0,0,0,0,0,0,0,0,-1,1966,1667,0,0
749,-643,0,0,0,0,0,0,0,0,0,-1,1973,1667,0,0
756,-643,0,0,0,0,0,0,0,0,0,-1,1980,1667,0,0
763,-643,0,0,0,0,0,0,0,0,0,-1,1987,1667,0,0
770,-643,0,0,0,0,0,0,0,0,0,-1,1994,1667,0,0
777,-643,0,0,0,0,0,0,0,0,0,-1,2001,1667,0,0
784,-643,0,0,0,0,0,0,0,0,0,-1,2008,1667,0,0
791,-643,0,0,0,0,0,0,0,0,0,-1,2015,1667,0,0
798,-643,0,0,0,0,0,0,0,0,0,-1,2022,1667,0,0
805,-643,0,0,0,0,0,0,0,0,0,-1,2029,1667,0,0
812,-643,0,0,0,0,0,0,0,0,0,-1,2036,1667,0,0
-700,-650,0,0,0,0,0,0,0,0,0,-1,524,1674,0,0
-693,-650,0,0,0,0,0,0,0,0,0,-1,531,1674,0,0
-686,-650,0,0,0,0,0,0,0,0,0,-1,538,1674,0,0
-679,-650,0,0,0,0,0,0,0,0,0,-1,545,1674,0,0
-672,-650,0,0,0,0,0,0,0,0,0,-1,552,1674,0,0
-665,-650,0,0,0,0,0,0,0,0,0,-1,559,1674,0,0
-658,-650,0,0,0,0,0,0,0,0,0,-1,566,1674,0,0
-651,-650,0,0,0,0,0,0,0,0,0,-1,573,1674,0,0
-644,-650,0,0,0,0,0,0,0,0,0,-1,580,1674,0,0
-637,-650,0,0,0,0,0,0,0,0,0,-1,587,1674,0,0
-630,-650,0,0,0,0,0,0,0,0,0,-1,594,1674,0,0
-623,-650,0,0,0,0,0,0,0,0,0,-1,601,1674,0,0
-616,-650,0,0,0,0,0,0,0,0,0,-1,608,1674,0,0
-609,-650,0,0,0,0,0,0,0,0,0,-1,615,1674,0,0
-602,-650,0,0,0,0,0,0,0,0,0,-1,622,1674,0,0
-595,-650,0,0,0,0,0,0,0,0,0,-1,629,1674,0,0
-588,-650,0,0,0,0,0,0,0,0,0,-1,636,1674,0,0
-581,-650,0,0,0,0,0,0,0,0,0,-1,643,1674,0,0
-574,-650,0,0,0,0,0,0,0,0,0,-1,650,1674,0,0
-567,-650,0,0,0,0,0,0,0,0,0,-1,657,1674,0,0
-560,-650,0,0,0,0,0,0,0,0,0,-1,664,1674,0,0
-553,-650,0,0,0,0,0,0,0,0,0,-1,671,1674,0,0
-546,-650,0,0,0,0,0,0,0,0,0,-1,678,1674,0,0
-539,-650,0,0,0,0,0,0,0,0,0,-1,685,1674,0,0
-532,-650,0,0,0,0,0,0,0,0,0,-1,692,1674,0,0
-525,-650,0,0,0,0,0,0,0,0,0,-1,699,1674,0,0
-518,-650,0,0,0,0,0,0,0,0,0,-1,706,1674,0,0
-511,-650,0,0,0,0,0,0,0,0,0,-1,713,1674,0,0
-504,-650,0,0,0,0,0,0,0,0,0,-1,720,1674,0,0
-497,-650,0,0,0,0,0,0,0,0,0,-1,727,1674,0,0
-490,-650,0,0,0,0,0,0,0,0,0,-1,734,1674,0,0
-483,-650,0,0,0,0,0,0,0,0,0,-1,741,1674,0,0
-476,-650,0,0,0,0,0,0,0,0,0,-1,748,1674,0,0
-469,-650,0,0,0,0,0,0,0,0,0,-1,755,1674,0,0
-462,-650,0,0,0,0,0,0,0,0,0,-1,762,1674,0,0
-455,-650,0,0,0,0,0,0,0,0,0,-1,769,1674,0,0
-448,-650,0,0,0,0,0,0,0,0,0,-1,776,1674,0,0
-441,-650,0,0,0,0,0,0,0,0,0,-1,783,1674,0,0
-434,-650,0,0,0,0,0,0,0,0,0,-1,790,1674,0,0
-427,-650,0,0,0,0,0,0,0,0,0,-1,797,1674,0,0
-420,-650,0,0,0,0,0,0,0,0,0,-1,804,1674,0,0
-413,-650,0,0,0,0,0,0,0,0,0,-1,811,1674,0,0
-406,-650,0,0,0,0,0,0,0,0,0,-1,818,1674,0,0
-399,-650,0,0,0,0,0,0,0,0,0,-1,825,1674,0,0
-392,-650,5.44415,6.85669,0,0,0,0,0,0,0,-1,832,1674,5.44414,-6.85674
-385,-650,8.7821,8.6189,0,0,0,0,0,0,0,-1,839,1674,8.78213,-8.61893
-378,-650,0.997986,4.11108,0,0,0,0,0,0,0,-1,846,1674,0.998006,-4.11113
-371,-650,-1.80096,3.78625,0,0,0,0,0,0,0,-1,853,1674,-1.80094,-3.78625
-364,-650,-2.95679,2.57507,0,0,0,0,0,0,0,-1,860,1674,-2.95681,-2.57506
-357,-650,1.97833,10.8362,0,0,0,0,0,0,0,-1,867,1674,1.97835,-10.8362
-350,-650,-5.30243,0.159912,0,0,0,0,0,0,0,-1,874,1674,-5.30244,-0.159866
-343,-650,-6.21338,-1.4425,0,0,0,0,0,0,0,-1,881,1674,-6.21341,1.44248
-336,-650,3.39105,10.7294,0,0,0,0,0,0,0,-1,888,1674,3.39105,-10.7293
-329,-650,3.69971,11.7379,0,0,0,0,0,0,0,-1,895,1674,3.69969,-11.738
-322,-650,3.61493,11.6469,0,0,0,0,0,0,0,-1,902,1674,3.61495,-11.6469
-315,-650,4.20264,11.9161,0,0,0,0,0,0,0,-1,909,1674,4.20263,-11.9161
-308,-650,3.79364,12.0688,0,0,0,0,0,0,0,-1,916,1674,3.79367,-12.0688
-301,-650,3.65643,12.3242,-0.0129434,-0.00872043,-0.00739687,-0.00313958,-0.0185243,-0.92443,0.0114474,0.012793,923,1674,3.65643,-12.3243
-294,-650,3.64508,12.4927,-0.0107651,-0.00734855,-0.00644915,-0.00238524,-0.0157284,-0.914865,0.00978786,0.0102751,930,1674,3.64507,-12.4927
-287,-650,3.64227,12.6946,-0.00849798,-0.00655863,-0.00552228,-0.00192154,-0.0131351,-0.872309,0.00819167,0.0132002,937,1674,3.64227,-12.6946
-280,-650,3.64508,12.8945,-0.00640291,-0.00594329,-0.00470828,-0.00145921,-0.010887,-0.809784,0.00682379,0.0138038,944,1674,3.64509,-12.8945
-273,-650,3.64246,13.1036,-0.00449838,-0.0052983,-0.00391759,-0.000960391,-0.00883629,-0.734528,0.00559826,0.0130855,951,1674,3.64247,-13.1037
-266,-650,3.59735,13.2869,-0.00286092,-0.00476966,-0.00316212,-0.000512292,-0.00711829,-0.638839,0.00458431,0.0108944,958,1674,3.59734,-13.2869
-259,-650,3.60345,13.4536,-0.00146325,-0.00410786,-0.0024022,-4.34651e-05,-0.00552764,-0.533801,0.00367069,0.0138394,965,1674,3.60344,-13.4536
-252,-650,3.6134,13.6493,-0.000209609,-0.00363739,-0.00171379,0.000500235,-0.00434723,-0.392684,0.00307848,0.0129515,972,1674,3.61337,-13.6493
-245,-650,3.62982,13.8221,0.000664868,-0.00318725,-0.0012243,0.00102105,-0.00354343,-0.28311,0.00276618,0.012034,979,1674,3.62983,-13.8222
-238,-650,3.60211,14.0259,0.00120736,-0.00278347,-0.000779212,0.00135411,-0.00293021,-0.186146,0.00252873,0.0127323,986,1674,3.60208,-14.0259
-231,-650,3.58527,14.2067,0.00163027,-0.00250327,-0.000403681,0.00166932,-0.00254233,-0.0964456,0.00244895,0.017423,993,1674,3.58524,-14.2066
-224,-650,3.59735,14.3593,0.00207035,-0.00223871,-8.10672e-05,0.00207187,-0.00224024,-0.0188043,0.00249023,0.0151726,1000,1674,3.59733,-14.3593
-217,-650,3.63409,14.4918,0.00223318,-0.00194583,0.000260621,0.00224937,-0.00196202,0.0620439,0.00243333,0.00989019,1007,1674,3.63412,-14.4918
-210,-650,3.65057,14.6528,0.00190875,-0.00191372,0.000430111,0.00195655,-0.00196152,0.110678,0.0022621,0.00906678,1014,1674,3.65057,-14.6529
-203,-650,3.68152,14.821,0.00173379,-0.00188611,0.000546917,0.00181462,-0.00196694,0.146724,0.00218387,0.0138612,1021,1674,3.68155,-14.821
-196,-650,3.67725,14.974,0.00291391,-0.000341205,0.000442727,0.00297305,-0.000400346,0.132797,0.00212807,0.0132281,1028,1674,3.67724,-14.974
-189,-650,3.65869,15.1156,0.00481693,0.000901376,0.000676747,0.00493059,0.00078771,0.166407,0.00305849,0.0102523,1035,1674,3.65871,-15.1156
-182,-650,3.69104,15.3032,0.00694858,0.00226244,0.000738073,0.00706208,0.00214895,0.152581,0.00418011,0.00907644,1042,1674,3.691,-15.3032
-175,-650,3.70679,15.4408,0.00953696,0.00403256,0.000580299,0.00959747,0.00397205,0.103903,0.00556844,0.0139939,1049,1674,3.70679,-15.4408
-168,-650,3.68005,15.5428,0.0126843,0.00598212,0.000536912,0.012727,0.00593938,0.079435,0.00735339,0.0185807,1056,1674,3.68008,-15.5429
-161,-650,3.69202,15.6553,0.016844,0.00804829,0.000530685,0.0168759,0.00801638,0.0600441,0.00974737,0.0275915,1063,1674,3.692,-15.6553
-154,-650,3.69873,15.7472,0.021916,0.0102106,0.00049868,0.0219372,0.0101893,0.0424997,0.0126761,0.0317234,1070,1674,3.69868,-15.7473
-147,-650,3.65735,15.8094,0.0273588,0.0121087,0.000643553,0.027386,0.0120816,0.0421001,0.0158477,0.0425254,1077,1674,3.65733,-15.8094
-140,-650,3.28442,16.0117,0,0,0,0,0,0,0,-1,1084,1674,3.28439,-16.0118
-133,-650,3.38171,16.1915,0.0383393,0.0138769,0.000877148,0.0383707,0.0138454,0.0357957,0.0224375,0.0461447,1091,1674,3.38168,-16.1915
-126,-650,3.62146,16.4666,0.0435203,0.0138754,0.0014789,0.0435939,0.0138018,0.0497227,0.0257271,0.0491741,1098,1674,3.62146,-16.4665
-119,-650,4.47095,16.1725,0,0,0,0,0,0,0,-1,1105,1674,4.47095,-16.1725
-112,-650,3.86292,14.4513,0,0,0,0,0,0,0,-1,1112,1674,3.8629,-14.4513
-105,-650,4.9259,12.0626,0,0,0,0,0,0,0,-1,1119,1674,4.92591,-12.0626
-98,-650,3.3761,6.78003,0,0,0,0,0,0,0,-1,1126,1674,3.37611,-6.78009
-91,-650,3.66809,7.04443,0,0,0,0,0,0,0,-1,1133,1674,3.66806,-7.04439
-84,-650,-3.82666,-1.59521,0,0,0,0,0,0,0,-1,1140,1674,-3.82661,1.59517
-77,-650,-4.70557,1.90198,0,0,0,0,0,0,0,-1,1147,1674,-4.7056,-1.90194
-70,-650,-4.88171,3.81653,0,0,0,0,0,0,0,-1,1154,1674,-4.88176,-3.81651
-63,-650,-5.14612,5.56543,0,0,0,0,0,0,0,-1,1161,1674,-5.14612,-5.56547
-56,-650,-5.38367,7.41101,0,0,0,0,0,0,0,-1,1168,1674,-5.38361,-7.41102
-49,-650,-5.11316,8.23706,0,0,0,0,0,0,0,-1,1175,1674,-5.11317,-8.23708
-42,-650,-4.99487,9.6792,0,0,0,0,0,0,0,-1,1182,1674,-4.99484,-9.67921
-35,-650,-4.77771,11.3369,0,0,0,0,0,0,0,-1,1189,1674,-4.77769,-11.3369
-28,-650,-4.1936,13.1501,0,0,0,0,0,0,0,-1,1196,1674,-4.19358,-13.1501
-21,-650,5.56018,20.1913,0,0,0,0,0,0,0,-1,1203,1674,5.56022,-20.1912
-14,-650,5.89636,20.4459,0.12168,0.0842871,-0.0336527,0.141481,0.0644861,-0.53184,0.0817907,0.0466673,1210,1674,5.8964,-20.4459
-7,-650,6.1228,20.6411,0,0,0,0,0,0,0,-1,1217,1674,6.12286,-20.6411
0,-650,5.77686,20.8494,0.129785,0.0952453,-0.0271696,0.144709,0.0803215,-0.502295,0.0837163,0.0429445,1224,1674,5.77685,-20.8494
7,-650,5.56165,21.1779,0.123448,0.0914631,-0.0226446,0.135178,0.079733,-0.477952,0.0784637,0.0432348,1231,1674,5.5616,-21.1779
14,-650,5.42566,21.5026,0.110592,0.0813174,-0.0172757,0.118597,0.0733118,-0.433944,0.0691066,0.0430814,1238,1674,5.4257,-21.5025
21,-650,9.00793,19.9838,0.0934077,0.0679629,-0.0103347,0.0970763,0.0642943,-0.341106,0.0570228,0.0467332,1245,1674,9.00795,-19.9838
28,-650,8.69775,19.6678,0.0741076,0.0546886,-0.00265948,0.0744653,0.054331,-0.133674,0.044478,0.0462276,1252,1674,8.69781,-19.6678
35,-650,8.35583,19.334,0.053355,0.0412877,0.00508297,0.0552107,0.039432,0.350043,0.0328365,0.0463023,1259,1674,8.35587,-19.334
42,-650,7.97656,19.0247,0.0335019,0.0312023,0.012503,0.0449078,0.0197964,0.739545,0.025988,0.0453457,1266,1674,7.97658,-19.0246
49,-650,7.54944,18.8447,0.0138682,0.020458,0.0198368,0.0372717,-0.00294541,0.867697,0.0258855,0.0444034,1273,1674,7.54946,-18.8447
56,-650,7.17188,18.6768,-0.0020737,0.0110694,0.0260176,0.0313325,-0.0223369,0.909101,0.0311308,0.0444109,1280,1674,7.17193,-18.6768
63,-650,6.98523,18.3794,-0.01932,0.00526117,0.0318923,0.0271492,-0.041208,0.969317,0.0397433,0.0444034,1287,1674,6.98525,-18.3793
70,-650,6.73389,18.4941,-0.0357789,-0.00126606,0.0383227,0.0235062,-0.0605512,0.996947,0.0500769,0.0465066,1294,1674,6.73385,-18.4942
77,-650,6.41565,18.8824,-0.0453256,0.00182752,0.040921,0.0254779,-0.0689759,1.04675,0.0564276,0.0448618,1301,1674,6.41565,-18.8825
84,-650,6.03381,19.1438,0,0,0,0,0,0,0,-1,1308,1674,6.03379,-19.1438
91,-650,6.60522,17.4178,0,0,0,0,0,0,0,-1,1315,1674,6.60524,-17.4178
98,-650,5.79871,17.7181,0,0,0,0,0,0,0,-1,1322,1674,5.79865,-17.7182
105,-650,4.81958,23.7258,0,0,0,0,0,0,0,-1,1329,1674,4.81962,-23.7258
112,-650,4.84961,23.1606,0,0,0,0,0,0,0,-1,1336,1674,4.84966,-23.1607
119,-650,3.99329,23.9982,-0.0626223,0.0784864,0.0538158,0.096668,-0.0808039,1.24499,0.1026,0.0430312,1343,1674,3.99334,-23.9982
126,-650,3.36841,25.0316,-0.0627103,0.0978786,0.0562332,0.115612,-0.0804433,1.26532,0.113798,0.0457657,1350,1674,3.3684,-25.0316
133,-650,2.70776,26.5659,-0.0610929,0.120601,0.0592579,0.138219,-0.0787111,1.28181,0.126805,0.0473346,1357,1674,2.70772,-26.5659
140,-650,1.8595,27.9951,-0.0584902,0.145604,0.0631717,0.163574,-0.076461,1.29364,0.141594,0.0450763,1364,1674,1.85952,-27.9951
147,-650,1.3175,29.4015,-0.0571082,0.16941,0.0673594,0.187927,-0.0756251,1.30253,0.156699,0.0446238,1371,1674,1.31754,-29.4015
154,-650,0.823242,31.0803,0,0,0,0,0,0,0,-1,1378,1674,0.82323,-31.0803
161,-650,11.2434,8.83008,0,0,0,0,0,0,0,-1,1385,1674,11.2434,-8.83004
168,-650,11.2113,7.87231,0,0,0,0,0,0,0,-1,1392,1674,11.2113,-7.87236
175,-650,5.62537,-0.230713,0,0,0,0,0,0,0,-1,1399,1674,5.62538,0.230745
182,-650,5.56006,0.421631,0,0,0,0,0,0,0,-1,1406,1674,5.56,-0.421652
189,-650,4.81543,11.0654,0,0,0,0,0,0,0,-1,1413,1674,4.81542,-11.0654
196,-650,5.39575,11.9077,0,0,0,0,0,0,0,-1,1420,1674,5.39575,-11.9078
203,-650,3.93628,11.8215,0,0,0,0,0,0,0,-1,1427,1674,3.93624,-11.8216
210,-650,5.40955,8.08594,0,0,0,0,0,0,0,-1,1434,1674,5.40958,-8.086
217,-650,5.12451,4.69739,0,0,0,0,0,0,0,-1,1441,1674,5.12451,-4.69738
224,-650,4.79041,1.45813,0,0,0,0,0,0,0,-1,1448,1674,4.79046,-1.45816
231,-650,4.04102,-0.642212,0,0,0,0,0,0,0,-1,1455,1674,4.04101,0.642209
238,-650,3.23022,-1.43396,0,0,0,0,0,0,0,-1,1462,1674,3.23023,1.43394
245,-650,1.65894,-2.55042,0,0,0,0,0,0,0,-1,1469,1674,1.65889,2.55036
252,-650,8.75342,0.355103,0,0,0,0,0,0,0,-1,1476,1674,8.75337,-0.355147
259,-650,5.61255,3.17566,0,0,0,0,0,0,0,-1,1483,1674,5.61257,-3.17572
266,-650,4.00403,6.10229,0,0,0,0,0,0,0,-1,1490,1674,4.00401,-6.10225
273,-650,5.4093,14.3718,0,0,0,0,0,0,0,-1,1497,1674,5.40929,-14.3718
280,-650,6.07227,16.3936,0,0,0,0,0,0,0,-1,1504,1674,6.07232,-16.3936
287,-650,6.18213,16.3362,0.00264718,-0.0100681,0.00499255,0.00437318,-0.0117941,0.332852,0.00965636,0.0446221,1511,1674,6.18215,-16.3362
294,-650,6.26672,16.1353,0.00218241,-0.00922862,0.00480963,0.00393916,-0.0109854,0.350202,0.00893106,0.0373484,1518,1674,6.26677,-16.1352
301,-650,6.21802,15.9336,0.00175484,-0.00827547,0.0044328,0.00343308,-0.0099537,0.361919,0.00802867,0.0304286,1525,1674,6.21797,-15.9336
308,-650,6.16223,15.92,0.00149513,-0.00721254,0.00395526,0.00302347,-0.00874088,0.368733,0.00705446,0.0183706,1532,1674,6.1622,-15.92
315,-650,6.16992,15.8883,0.0012857,-0.00621468,0.00358568,0.00272406,-0.00765304,0.381489,0.00621242,0.0105389,1539,1674,6.16993,-15.8883
322,-650,6.18665,15.7489,0.0011548,-0.00520155,0.00320046,0.00248703,-0.00653378,0.394446,0.00538002,0.00977345,1546,1674,6.18667,-15.7489
329,-650,6.20459,15.5776,0.00113929,-0.00433413,0.00280367,0.0023205,-0.00551535,0.398742,0.00464769,0.0159576,1553,1674,6.20462,-15.5777
336,-650,6.19226,15.4962,0.00107048,-0.0035808,0.0024035,0.0020893,-0.00459963,0.400931,0.00395147,0.0142144,1560,1674,6.19222,-15.4963
343,-650,6.19312,15.3965,0.000949724,-0.00320158,0.00204109,0.00178515,-0.004037,0.388501,0.00344421,0.0130758,1567,1674,6.19311,-15.3965
350,-650,6.21753,15.2158,0.000933025,-0.00273228,0.00165929,0.00157259,-0.00337185,0.367896,0.00291699,0.0152437,1574,1674,6.21751,-15.2158
357,-650,6.21887,15.052,0.000974353,-0.00237929,0.00126975,0.00140086,-0.0028058,0.324058,0.00247346,0.0128876,1581,1674,6.21884,-15.052
364,-650,6.23132,14.9319,0.000928928,-0.00204958,0.000875117,0.00116701,-0.00228767,0.265634,0.00202924,0.00869517,1588,1674,6.23127,-14.9319
371,-650,6.22791,14.7891,0.000884671,-0.00181622,0.000495851,0.000972826,-0.00190437,0.175947,0.00168992,0.0101941,1595,1674,6.22797,-14.789
378,-650,6.23157,14.63,0.000900889,-0.0013105,7.19278e-05,0.000903226,-0.00131283,0.0324804,0.00128671,0.0116919,1602,1674,6.23154,-14.6301
385,-650,6.24011,14.4708,0.000881685,-0.00081911,-0.000446068,0.000991575,-0.000929,-0.241543,0.00110904,0.0128433,1609,1674,6.24014,-14.4708
392,-650,6.22351,14.2977,0.00077477,-7.00751e-05,-0.00095262,0.00139443,-0.00068973,-0.576709,0.001226,0.0170188,1616,1674,6.22353,-14.2978
399,-650,6.21545,14.1528,0.000750087,0.000614979,-0.00140154,0.0020857,-0.000720631,-0.761317,0.00168292,0.0158156,1623,1674,6.21549,-14.1529
406,-650,6.20789,13.9967,0.000727772,0.00151505,-0.00188584,0.00304789,-0.000805075,-0.888288,0.00234678,0.0139056,1630,1674,6.20785,-13.9968
413,-650,6.2063,13.8215,0.000621613,0.00219697,-0.00236176,0.00389894,-0.00108036,-0.946354,0.00302443,0.014723,1637,1674,6.20624,-13.8215
420,-650,6.20251,13.6428,0.000421057,0.0025953,-0.00275473,0.00446966,-0.0014533,-0.973336,0.00356438,0.0148073,1644,1674,6.20251,-13.6428
427,-650,6.19385,13.4709,0.00014872,0.0028449,-0.00295579,0.00474551,-0.00175189,-0.999349,0.00388173,0.013358,1651,1674,6.19391,-13.4709
434,-650,6.1825,13.288,-8.21667e-05,0.00282481,-0.00321074,0.00489573,-0.00215309,-0.997945,0.00417106,0.0171146,1658,1674,6.18253,-13.2879
441,-650,6.22144,13.0823,-0.000383822,0.00234772,-0.00331131,0.00456386,-0.00259996,-0.980998,0.00418752,0.0296923,1665,1674,6.2214,-13.0823
448,-650,6.16467,13.0907,-0.000681098,0.00105961,-0.00325589,0.00355947,-0.00318096,-0.916003,0.00389363,0.0433012,1672,1674,6.16462,-13.0907
455,-650,6.27112,13.0428,0,0,0,0,0,0,0,-1,1679,1674,6.2711,-13.0429
462,-650,6.30042,12.9121,-0.0010248,-0.00279554,-0.00314323,0.00135537,-0.00517571,-0.648117,0.00397995,0.0484374,1686,1674,6.30043,-12.9122
469,-650,6.30713,12.7703,-0.00102157,-0.00561175,-0.00298719,0.000450401,-0.00708372,-0.45784,0.00487955,0.0490372,1693,1674,6.30719,-12.7703
476,-650,6.19495,12.5869,0,0,0,0,0,0,0,-1,1700,1674,6.19501,-12.5869
483,-650,3.49097,10.5712,0,0,0,0,0,0,0,-1,1707,1674,3.491,-10.5712
490,-650,3.98425,10.6481,0,0,0,0,0,0,0,-1,1714,1674,3.98428,-10.648
497,-650,4.64648,10.8466,0,0,0,0,0,0,0,-1,1721,1674,4.64643,-10.8465
504,-650,4.71448,10.8973,0,0,0,0,0,0,0,-1,1728,1674,4.71444,-10.8974
511,-650,4.76782,10.7681,0,0,0,0,0,0,0,-1,1735,1674,4.76776,-10.7681
518,-650,0,0,0,0,0,0,0,0,0,-1,1742,1674,0,0
525,-650,0,0,0,0,0,0,0,0,0,-1,1749,1674,0,0
532,-650,0,0,0,0,0,0,0,0,0,-1,1756,1674,0,0
539,-650,0,0,0,0,0,0,0,0,0,-1,1763,1674,0,0
546,-650,0,0,0,0,0,0,0,0,0,-1,1770,1674,0,0
553,-650,0,0,0,0,0,0,0,0,0,-1,1777,1674,0,0
560,-650,0,0,0,0,0,0,0,0,0,-1,1784,1674,0,0
567,-650,0,0,0,0,0,0,0,0,0,-1,1791,1674,0,0
574,-650,0,0,0,0,0,0,0,0,0,-1,1798,1674,0,0
581,-650,0,0,0,0,0,0,0,0,0,-1,1805,1674,0,0
588,-650,0,0,0,0,0,0,0,0,0,-1,1812,1674,0,0
595,-650,0,0,0,0,0,0,0,0,0,-1,1819,1674,0,0
602,-650,0,0,0,0,0,0,0,0,0,-1,1826,1674,0,0
609,-650,0,0,0,0,0,0,0,0,0,-1,1833,1674,0,0
616,-650,0,0,0,0,0,0,0,0,0,-1,1840,1674,0,0
623,-650,0,0,0,0,0,0,0,0,0,-1,1847,1674,0,0
630,-650,0,0,0,0,0,0,0,0,0,-1,1854,1674,0,0
637,-650,0,0,0,0,0,0,0,0,0,-1,1861,1674,0,0
644,-650,0,0,0,0,0,0,0,0,0,-1,1868,1674,0,0
651,-650,0,0,0,0,0,0,0,0,0,-1,1875,1674,0,0
658,-650,0,0,0,0,0,0,0,0,0,-1,1882,1674,0,0
665,-650,0,0,0,0,0,0,0,0,0,-1,1889,1674,0,0
672,-650,0,0,0,0,0,0,0,0,0,-1,1896,1674,0,0
679,-650,0,0,0,0,0,0,0,0,0,-1,1903,1674,0,0
686,-650,0,0,0,0,0,0,0,0,0,-1,1910,1674,0,0
693,-650,0,0,0,0,0,0,0,0,0,-1,1917,1674,0,0
700,-650,0,0,0,0,0,0,0,0,0,-1,1924,1674,0,0
707,-650,0,0,0,0,0,0,0,0,0,-1,1931,1674,0,0
714,-650,0,0,0,0,0,0,0,0,0,-1,1938,1674,0,0
721,-650,0,0,0,0,0,0,0,0,0,-1,1945,1674,0,0
728,-650,0,0,0,0,0,0,0,0,0,-1,1952,1674,0,0
735,-650,0,0,0,0,0,0,0,0,0,-1,1959,1674,0,0
742,-650,0,0,0,0,0,0,0,0,0,-1,1966,1674,0,0
749,-650,0,0,0,0,0,0,0,0,0,-1,1973,1674,0,0
756,-650,0,0,0,0,0,0,0,0,0,-1,1980,1674,0,0
763,-650,0,0,0,0,0,0,0,0,0,-1,1987,1674,0,0
770,-650,0,0,0,0,0,0,0,0,0,-1,1994,1674,0,0
777,-650,0,0,0,0,0,0,0,0,0,-1,2001,1674,0,0
784,-650,0,0,0,0,0,0,0,0,0,-1,2008,1674,0,0
791,-650,0,0,0,0,0,0,0,0,0,-1,2015,1674,0,0
798,-650,0,0,0,0,0,0,0,0,0,-1,2022,1674,0,0
805,-650,0,0,0,0,0,0,0,0,0,-1,2029,1674,0,0
812,-650,0,0,0,0,0,0,0,0,0,-1,2036,1674,0,0
-700,-657,0,0,0,0,0,0,0,0,0,-1,524,1681,0,0
-693,-657,0,0,0,0,0,0,0,0,0,-1,531,1681,0,0
-686,-657,0,0,0,0,0,0,0,0,0,-1,538,1681,0,0
-679,-657,0,0,0,0,0,0,0,0,0,-1,545,1681,0,0
-672,-657,0,0,0,0,0,0,0,0,0,-1,552,1681,0,0
-665,-657,0,0,0,0,0,0,0,0,0,-1,559,1681,0,0
-658,-657,0,0,0,0,0,0,0,0,0,-1,566,1681,0,0
-651,-657,0,0,0,0,0,0,0,0,0,-1,573,1681,0,0
-644,-657,0,0,0,0,0,0,0,0,0,-1,580,1681,0,0
-637,-657,0,0,0,0,0,0,0,0,0,-1,587,1681,0,0
-630,-657,0,0,0,0,0,0,0,0,0,-1,594,1681,0,0
-623,-657,0,0,0,0,0,0,0,0,0,-1,601,1681,0,0
-616,-657,0,0,0,0,0,0,0,0,0,-1,608,1681,0,0
-609,-657,0,0,0,0,0,0,0,0,0,-1,615,1681,0,0
-602,-657,0,0,0,0,0,0,0,0,0,-1,622,1681,0,0
-595,-657,0,0,0,0,0,0,0,0,0,-1,629,1681,0,0
-588,-657,0,0,0,0,0,0,0,0,0,-1,636,1681,0,0
-581,-657,0,0,0,0,0,0,0,0,0,-1,643,1681,0,0
-574,-657,0,0,0,0,0,0,0,0,0,-1,650,1681,0,0
-567,-657,0,0,0,0,0,0,0,0,0,-1,657,1681,0,0
-560,-657,0,0,0,0,0,0,0,0,0,-1,664,1681,0,0
-553,-657,0,0,0,0,0,0,0,0,0,-1,671,1681,0,0
-546,-657,0,0,0,0,0,0,0,0,0,-1,678,1681,0,0
-539,-657,0,0,0,0,0,0,0,0,0,-1,685,1681,0,0
-532,-657,0,0,0,0,0,0,0,0,0,-1,692,1681,0,0
-525,-657,0,0,0,0,0,0,0,0,0,-1,699,1681,0,0
-518,-657,0,0,0,0,0,0,0,0,0,-1,706,1681,0,0
-511,-657,0,0,0,0,0,0,0,0,0,-1,713,1681,0,0
-504,-657,0,0,0,0,0,0,0,0,0,-1,720,1681,0,0
-497,-657,0,0,0,0,0,0,0,0,0,-1,727,1681,0,0
-490,-657,0,0,0,0,0,0,0,0,0,-1,734,1681,0,0
-483,-657,0,0,0,0,0,0,0,0,0,-1,741,1681,0,0
-476,-657,0,0,0,0,0,0,0,0,0,-1,748,1681,0,0
-469,-657,0,0,0,0,0,0,0,0,0,-1,755,1681,0,0
-462,-657,0,0,0,0,0,0,0,0,0,-1,762,1681,0,0
-455,-657,0,0,0,0,0,0,0,0,0,-1,769,1681,0,0
-448,-657,0,0,0,0,0,0,0,0,0,-1,776,1681,0,0
-441,-657,0,0,0,0,0,0,0,0,0,-1,783,1681,0,0
-434,-657,0,0,0,0,0,0,0,0,0,-1,790,1681,0,0
-427,-657,0,0,0,0,0,0,0,0,0,-1,797,1681,0,0
-420,-657,0,0,0,0,0,0,0,0,0,-1,804,1681,0,0
-413,-657,0,0,0,0,0,0,0,0,0,-1,811,1681,0,0
-406,-657,0,0,0,0,0,0,0,0,0,-1,818,1681,0,0
-399,-657,0,0,0,0,0,0,0,0,0,-1,825,1681,0,0
-392,-657,0,0,0,0,0,0,0,0,0,-1,832,1681,0,0
-385,-657,1.09814,6.18896,0,0,0,0,0,0,0,-1,839,1681,1.09814,-6.18894
-378,-657,0.31488,4.46753,0,0,0,0,0,0,0,-1,846,1681,0.31487,-4.46755
-371,-657,-0.519043,2.69421,0,0,0,0,0,0,0,-1,853,1681,-0.519064,-2.69422
-364,-657,-3.42017,4.18323,0,0,0,0,0,0,0,-1,860,1681,-3.42019,-4.18319
-357,-657,-4.41913,2.97168,0,0,0,0,0,0,0,-1,867,1681,-4.41913,-2.97165
-350,-657,-5.42291,1.70276,0,0,0,0,0,0,0,-1,874,1681,-5.42291,-1.70277
-343,-657,-6.51294,0.397339,0,0,0,0,0,0,0,-1,881,1681,-6.51295,-0.397335
-336,-657,3.52148,10.3204,0,0,0,0,0,0,0,-1,888,1681,3.52147,-10.3204
-329,-657,3.45038,10.5112,0,0,0,0,0,0,0,-1,895,1681,3.4504,-10.5113
-322,-657,5.13977,11.9126,0,0,0,0,0,0,0,-1,902,1681,5.13975,-11.9126
-315,-657,4.7818,12.0994,-0.0247212,-0.0165194,-0.0127993,-0.00718003,-0.0340606,-0.940432,0.0207323,0.0419754,909,1681,4.78178,-12.0994
-308,-657,4.39386,12.3048,-0.0213673,-0.0140266,-0.0117465,-0.00539044,-0.0300035,-0.936824,0.0184696,0.0378231,916,1681,4.39387,-12.3049
-301,-657,4.02722,12.3173,-0.0179345,-0.0122089,-0.0106134,-0.00407901,-0.0260644,-0.917132,0.0161888,0.0300303,923,1681,4.02722,-12.3173
-294,-657,3.83429,12.5168,-0.014674,-0.0105482,-0.00931266,-0.00307269,-0.0221495,-0.894396,0.0138561,0.0155248,930,1681,3.83426,-12.5168
-287,-657,3.81885,12.7119,-0.0114487,-0.0093849,-0.0080465,-0.00230439,-0.0185292,-0.84917,0.0116608,0.0109044,937,1681,3.81882,-12.7119
-280,-657,3.80566,12.9006,-0.00860594,-0.00835385,-0.00689037,-0.00158838,-0.0153714,-0.794544,0.00976133,0.0129119,944,1681,3.80565,-12.9006
-273,-657,3.8092,13.0959,-0.00617361,-0.00726083,-0.00573258,-0.000958919,-0.0124755,-0.738126,0.00801651,0.0098438,951,1681,3.8092,-13.096
-266,-657,3.76678,13.2653,-0.00414955,-0.00635054,-0.00463394,-0.000487225,-0.0100129,-0.668815,0.00651891,0.0141344,958,1681,3.76681,-13.2652
-259,-657,3.77667,13.4429,-0.00244643,-0.00532736,-0.00356434,-4.24902e-05,-0.0077313,-0.593366,0.00514009,0.0182536,965,1681,3.77664,-13.4429
-252,-657,3.77258,13.6532,-0.000911138,-0.00454101,-0.00255129,0.000404914,-0.00585706,-0.476237,0.00404644,0.0129047,972,1681,3.77259,-13.6531
-245,-657,3.79401,13.8457,6.38637e-05,-0.00383535,-0.00182354,0.000783763,-0.00455525,-0.376,0.00332898,0.0155118,979,1681,3.79399,-13.8457
-238,-657,3.8031,13.9779,0.000576224,-0.00321548,-0.00118682,0.000917067,-0.00355632,-0.279663,0.00272844,0.0202892,986,1681,3.80308,-13.978
-231,-657,3.7981,14.1876,0.000971555,-0.00267242,-0.000568599,0.00105822,-0.00275909,-0.151249,0.00227568,0.0217962,993,1681,3.79808,-14.1876
-224,-657,3.79364,14.37,0.00137649,-0.00219997,-0.000123953,0.00138078,-0.00220426,-0.0346027,0.00208794,0.0176807,1000,1681,3.79367,-14.37
-217,-657,3.81342,14.5334,0.00150036,-0.00183418,0.000228981,0.00151601,-0.00184983,0.0682426,0.00194645,0.0107408,1007,1681,3.81341,-14.5335
-210,-657,3.8277,14.6835,0.00123704,-0.00173505,0.000447882,0.00130307,-0.00180107,0.146367,0.00179985,0.0105609,1014,1681,3.82768,-14.6835
-203,-657,3.8363,14.8508,0.00114185,-0.00167561,0.000548351,0.00124481,-0.00177857,0.185604,0.00175459,0.0127819,1021,1681,3.83625,-14.8508
-196,-657,3.85205,14.9954,0.00194168,-0.000593963,0.000468974,0.00202563,-0.000677921,0.177149,0.00162426,0.0130609,1028,1681,3.8521,-14.9953
-189,-657,3.83667,15.1375,0.00322471,0.000235456,0.000586621,0.00333571,0.000124458,0.187006,0.0021835,0.00929207,1035,1681,3.83663,-15.1374
-182,-657,3.82141,15.2844,0.00475982,0.0011738,0.000577929,0.00485066,0.00108296,0.155905,0.00294004,0.0079168,1042,1681,3.82136,-15.2844
-175,-657,3.83093,15.4291,0.0066158,0.00246152,0.000395311,0.00665308,0.00242423,0.094033,0.00388797,0.0102825,1049,1681,3.83098,-15.4291
-168,-657,3.82568,15.5632,0.00879732,0.00378433,0.000327652,0.00881865,0.00376301,0.064992,0.00510965,0.011941,1056,1681,3.82571,-15.5632
-161,-657,3.83655,15.6783,0.0116836,0.00507573,0.000317657,0.0116989,0.0050605,0.047925,0.0067748,0.0115034,1063,1681,3.8365,-15.6784
-154,-657,3.84827,15.807,0.0151946,0.00636332,0.000285125,0.0152038,0.00635413,0.032241,0.00881725,0.0118103,1070,1681,3.84825,-15.807
-147,-657,3.85413,15.9164,0.018906,0.00737319,0.000388672,0.0189191,0.0073601,0.0336505,0.0110122,0.0177086,1077,1681,3.8541,-15.9163
-140,-657,3.76038,16.0616,0.0224981,0.00769983,0.000448413,0.0225117,0.00768626,0.0302647,0.0132132,0.0286523,1084,1681,3.76038,-16.0617
-133,-657,3.72803,16.1946,0.0261614,0.00771064,0.000579207,0.0261796,0.00769247,0.0313509,0.0155372,0.0348985,1091,1681,3.72804,-16.1946
-126,-657,4.29175,16.1917,0.0295079,0.00723604,0.0010647,0.0295587,0.00718525,0.0476599,0.0178009,0.0392204,1098,1681,4.29169,-16.1916
-119,-657,4.28906,16.3241,0.0319478,0.00588038,0.00169684,0.0320578,0.00577039,0.0647301,0.0197317,0.0486651,1105,1681,4.28905,-16.3241
-112,-657,4.6969,16.08,0,0,0,0,0,0,0,-1,1112,1681,4.69689,-16.08
-105,-657,3.82434,14.4906,0,0,0,0,0,0,0,-1,1119,1681,3.8244,-14.4906
-98,-657,3.78662,8.16785,0,0,0,0,0,0,0,-1,1126,1681,3.78663,-8.16786
-91,-657,4.71997,15.3668,0,0,0,0,0,0,0,-1,1133,1681,4.71998,-15.3669
-84,-657,4.08008,10.4579,0,0,0,0,0,0,0,-1,1140,1681,4.08006,-10.4579
-77,-657,-5.29846,0.396606,0,0,0,0,0,0,0,-1,1147,1681,-5.29842,-0.396573
-70,-657,-4.14893,2.14575,0,0,0,0,0,0,0,-1,1154,1681,-4.14893,-2.1458
-63,-657,-4.1239,3.177,0,0,0,0,0,0,0,-1,1161,1681,-4.12391,-3.17698
-56,-657,-6.40576,5.73987,0,0,0,0,0,0,0,-1,1168,1681,-6.40577,-5.7399
-49,-657,-5.98462,7.54053,0,0,0,0,0,0,0,-1,1175,1681,-5.98466,-7.5405
-42,-657,-5.71948,9.28955,0,0,0,0,0,0,0,-1,1182,1681,-5.71951,-9.2895
-35,-657,-5.44556,11.015,0,0,0,0,0,0,0,-1,1189,1681,-5.44555,-11.015
-28,-657,-1.3446,8.92847,0,0,0,0,0,0,0,-1,1196,1681,-1.34459,-8.92848
-21,-657,5.19971,19.4794,0,0,0,0,0,0,0,-1,1203,1681,5.1997,-19.4794
-14,-657,5.67407,20.6049,0,0,0,0,0,0,0,-1,1210,1681,5.67407,-20.6048
-7,-657,5.13037,21.4871,0,0,0,0,0,0,0,-1,1217,1681,5.13041,-21.4871
0,-657,5.37512,21.0526,0,0,0,0,0,0,0,-1,1224,1681,5.37507,-21.0527
7,-657,5.54199,20.6309,0.0954603,0.0783488,-0.0105474,0.100486,0.0733234,-0.444641,0.0600213,0.0447423,1231,1681,5.54194,-20.6309
14,-657,5.57129,20.8221,0.0852146,0.0706845,-0.00652003,0.0877113,0.0681878,-0.365703,0.0531748,0.0434808,1238,1681,5.57126,-20.8222
21,-657,5.81299,21.2117,0.0716838,0.060122,-0.00166325,0.0719183,0.0598875,-0.140074,0.044481,0.041696,1245,1681,5.81297,-21.2117
28,-657,8.34094,19.8262,0.0565393,0.0493687,0.00350647,0.0579689,0.047939,0.387141,0.0357744,0.0448622,1252,1681,8.34099,-19.8261
35,-657,8.01123,19.4452,0,0,0,0,0,0,0,-1,1259,1681,8.01121,-19.4452
42,-657,7.53748,18.9387,0,0,0,0,0,0,0,-1,1266,1681,7.53749,-18.9387
49,-657,7.104,18.8473,0.00835194,0.0202149,0.0184509,0.0336643,-0.00509745,0.940917,0.0243207,0.0443773,1273,1681,7.104,-18.8473
56,-657,6.64087,18.6694,-0.00477472,0.0115627,0.0225535,0.0273812,-0.0205932,0.959146,0.0277903,0.0440063,1280,1681,6.64084,-18.6695
63,-657,6.53674,18.4272,-0.0188966,0.00605672,0.0266464,0.0230028,-0.0358427,1.00435,0.034243,0.0494318,1287,1681,6.5368,-18.4273
70,-657,6.18835,18.4606,-0.0319974,0.000473572,0.0309453,0.0191838,-0.0507076,1.02699,0.0416975,0.0490911,1294,1681,6.18833,-18.4605
77,-657,5.75586,18.6879,-0.0399808,0.00212928,0.0329001,0.0201348,-0.0579864,1.07004,0.0468348,0.0465864,1301,1681,5.75587,-18.6878
84,-657,6.93872,16.812,0,0,0,0,0,0,0,-1,1308,1681,6.93873,-16.812
91,-657,5.95654,17.2279,0,0,0,0,0,0,0,-1,1315,1681,5.95657,-17.2279
98,-657,5.06592,17.6855,0,0,0,0,0,0,0,-1,1322,1681,5.06586,-17.6856
105,-657,4.39124,17.9037,0,0,0,0,0,0,0,-1,1329,1681,4.39125,-17.9037
112,-657,2.4624,17.6709,0,0,0,0,0,0,0,-1,1336,1681,2.46241,-17.6709
119,-657,4.36011,23.4695,0,0,0,0,0,0,0,-1,1343,1681,4.36006,-23.4695
126,-657,4.18994,24.3411,-0.051426,0.0828045,0.0468349,0.0975303,-0.0661519,1.26616,0.095079,0.045801,1350,1681,4.18994,-24.341
133,-657,3.49207,25.6519,-0.0495161,0.100923,0.0494352,0.115714,-0.0643067,1.28008,0.105338,0.0454189,1357,1681,3.49206,-25.6519
140,-657,2.61279,26.6261,-0.0467878,0.120625,0.0525284,0.135742,-0.0619044,1.29059,0.116735,0.0476627,1364,1681,2.61273,-26.6262
147,-657,1.88733,28.0195,0,0,0,0,0,0,0,-1,1371,1681,1.88727,-28.0195
154,-657,12.2501,7.70422,0,0,0,0,0,0,0,-1,1378,1681,12.2501,-7.70418
161,-657,12.8524,6.43372,0,0,0,0,0,0,0,-1,1385,1681,12.8524,-6.43366
168,-657,5.21643,0.70105,0,0,0,0,0,0,0,-1,1392,1681,5.21648,-0.7011
175,-657,5.52771,0.649048,0,0,0,0,0,0,0,-1,1399,1681,5.52774,-0.649019
182,-657,5.73999,1.02612,0,0,0,0,0,0,0,-1,1406,1681,5.73995,-1.02611
189,-657,5.92126,1.44116,0,0,0,0,0,0,0,-1,1413,1681,5.92126,-1.44115
196,-657,4.92834,9.59021,0,0,0,0,0,0,0,-1,1420,1681,4.9284,-9.59018
203,-657,6.26343,5.16492,0,0,0,0,0,0,0,-1,1427,1681,6.26345,-5.16488
210,-657,3.9856,5.28088,0,0,0,0,0,0,0,-1,1434,1681,3.98555,-5.28084
217,-657,3.95178,5.2843,0,0,0,0,0,0,0,-1,1441,1681,3.95174,-5.28431
224,-657,6.66736,-0.250244,0,0,0,0,0,0,0,-1,1448,1681,6.66737,0.250229
231,-657,6.85498,-1.70752,0,0,0,0,0,0,0,-1,1455,1681,6.855,1.70758
238,-657,5.34143,-2.89819,0,0,0,0,0,0,0,-1,1462,1681,5.34143,2.89813
245,-657,8.66003,-0.102783,0,0,0,0,0,0,0,-1,1469,1681,8.66,0.102824
252,-657,4.78955,0.623779,0,0,0,0,0,0,0,-1,1476,1681,4.7895,-0.623826
259,-657,2.61523,4.31909,0,0,0,0,0,0,0,-1,1483,1681,2.61523,-4.31908
266,-657,5.35437,11.4742,0,0,0,0,0,0,0,-1,1490,1681,5.35441,-11.4742
273,-657,5.84851,16.1183,0,0,0,0,0,0,0,-1,1497,1681,5.84851,-16.1183
280,-657,5.92786,16.2183,0.00254532,-0.00832784,0.00393739,0.00382138,-0.0096039,0.313405,0.00798715,0.0356673,1504,1681,5.9278,-16.2183
287,-657,6.04797,16.2562,0.0022689,-0.00737952,0.00376538,0.00356442,-0.00867504,0.331374,0.00726889,0.0299883,1511,1681,6.04801,-16.2563
294,-657,6.0448,16.2074,0.00190302,-0.00670532,0.00359553,0.00320721,-0.00800952,0.347967,0.00667089,0.0244181,1518,1681,6.04476,-16.2075
301,-657,6.00378,16.1331,0.00155202,-0.00590009,0.00324202,0.00276502,-0.00711309,0.358022,0.00588441,0.0153987,1525,1681,6.00383,-16.1331
308,-657,6.02039,16.0072,0.00130531,-0.00509534,0.00286788,0.00240229,-0.00619232,0.365334,0.0051204,0.0111907,1532,1681,6.02034,-16.0072
315,-657,6.04529,15.887,0.00112286,-0.00436824,0.00258016,0.00214497,-0.00539035,0.377177,0.004483,0.0101708,1539,1681,6.04535,-15.887
322,-657,6.05579,15.7214,0.00100737,-0.00366233,0.00227458,0.00193215,-0.00458711,0.386162,0.00386654,0.0133001,1546,1681,6.05579,-15.7214
329,-657,6.05774,15.5549,0.000979834,-0.00308286,0.00195576,0.0017683,-0.00387133,0.383221,0.00333065,0.0200029,1553,1681,6.05775,-15.555
336,-657,6.04956,15.4762,0.000932266,-0.00256385,0.00159896,0.00155325,-0.00318483,0.37044,0.00278908,0.0170825,1560,1681,6.04953,-15.4762
343,-657,6.06592,15.3706,0.000859071,-0.00228051,0.00123942,0.00128938,-0.00271082,0.334166,0.00235762,0.0128961,1567,1681,6.06594,-15.3707
350,-657,6.07275,15.2119,0.000883191,-0.00198639,0.000866192,0.00112438,-0.00222758,0.27157,0.00196988,0.0143849,1574,1681,6.07274,-15.2119
357,-657,6.06506,15.0635,0.000961321,-0.00176424,0.000474345,0.00104151,-0.00184444,0.167478,0.00168756,0.0130487,1581,1681,6.06511,-15.0635
364,-657,6.08215,14.9333,0.000967442,-0.00152432,6.05929e-05,0.000968914,-0.00152579,0.0242982,0.00145223,0.00961705,1588,1681,6.08214,-14.9333
371,-657,6.08179,14.7874,0.000990679,-0.00135891,-0.000352157,0.00104233,-0.00141056,-0.145619,0.00142148,0.0137734,1595,1681,6.08177,-14.7873
378,-657,6.06824,14.6248,0.00106799,-0.000961398,-0.00081989,0.00135784,-0.00125124,-0.339804,0.00150677,0.0148797,1602,1681,6.06829,-14.6247
385,-657,6.06042,14.4655,0.00110983,-0.000401458,-0.00140669,0.00195099,-0.00124262,-0.538925,0.00185889,0.0129343,1609,1681,6.06046,-14.4655
392,-657,6.05469,14.2952,0.00102144,0.000551982,-0.00194958,0.00275037,-0.00117695,-0.725487,0.00232731,0.0127821,1616,1681,6.05474,-14.2951
399,-657,6.07117,14.1335,0.000993965,0.00130705,-0.00240797,0.00356356,-0.00126255,-0.817857,0.00288999,0.0121373,1623,1681,6.07113,-14.1336
406,-657,6.07666,13.9795,0.000957687,0.00236797,-0.002948,0.00469399,-0.00136833,-0.902789,0.00367144,0.0128703,1630,1681,6.07671,-13.9795
413,-657,6.07739,13.7969,0.000811062,0.0032037,-0.00345983,0.0056682,-0.00165344,-0.951851,0.00443393,0.0129678,1637,1681,6.07739,-13.7969
420,-657,6.09326,13.5878,0.000520939,0.00374811,-0.00385426,0.00631292,-0.00204387,-0.983638,0.00503027,0.0147683,1644,1681,6.09325,-13.5877
427,-657,6.06604,13.3885,0.000126411,0.00422503,-0.00403778,0.00670378,-0.00235234,-1.02023,0.00542602,0.0185251,1651,1681,6.06599,-13.3886
434,-657,6.08118,13.1842,-0.000211806,0.00437345,-0.0043053,0.0069585,-0.00279686,-1.03006,0.00580058,0.0269415,1658,1681,6.08115,-13.1842
441,-657,6.13,12.9431,-0.000710495,0.00389433,-0.00436028,0.00652276,-0.00333892,-1.02831,0.00579171,0.0458812,1665,1681,6.13003,-12.9431
448,-657,6.17273,12.7732,0,0,0,0,0,0,0,-1,1672,1681,6.17278,-12.7732
455,-657,5.37439,13.6575,0,0,0,0,0,0,0,-1,1679,1681,5.37439,-13.6575
462,-657,6.20996,13.1002,0,0,0,0,0,0,0,-1,1686,1681,6.20992,-13.1002
469,-657,6.28027,12.8119,0,0,0,0,0,0,0,-1,1693,1681,6.28024,-12.8119
476,-657,8.37659,10.886,0,0,0,0,0,0,0,-1,1700,1681,8.37653,-10.886
483,-657,7.65344,7.35059,0,0,0,0,0,0,0,-1,1707,1681,7.65347,-7.3506
490,-657,3.58337,10.4789,0,0,0,0,0,0,0,-1,1714,1681,3.58338,-10.4789
497,-657,4.08655,10.1487,0,0,0,0,0,0,0,-1,1721,1681,4.08655,-10.1487
504,-657,0,0,0,0,0,0,0,0,0,-1,1728,1681,0,0
511,-657,0,0,0,0,0,0,0,0,0,-1,1735,1681,0,0
518,-657,0,0,0,0,0,0,0,0,0,-1,1742,1681,0,0
525,-657,0,0,0,0,0,0,0,0,0,-1,1749,1681,0,0
532,-657,0,0,0,0,0,0,0,0,0,-1,1756,1681,0,0
539,-657,0,0,0,0,0,0,0,0,0,-1,1763,1681,0,0
546,-657,0,0,0,0,0,0,0,0,0,-1,1770,1681,0,0
553,-657,0,0,0,0,0,0,0,0,0,-1,1777,1681,0,0
560,-657,0,0,0,0,0,0,0,0,0,-1,1784,1681,0,0
567,-657,0,0,0,0,0,0,0,0,0,-1,1791,1681,0,0
574,-657,0,0,0,0,0,0,0,0,0,-1,1798,1681,0,0
581,-657,0,0,0,0,0,0,0,0,0,-1,1805,1681,0,0
588,-657,0,0,0,0,0,0,0,0,0,-1,1812,1681,0,0
595,-657,0,0,0,0,0,0,0,0,0,-1,1819,1681,0,0
602,-657,0,0,0,0,0,0,0,0,0,-1,1826,1681,0,0
609,-657,0,0,0,0,0,0,0,0,0,-1,1833,1681,0,0
616,-657,0,0,0,0,0,0,0,0,0,-1,1840,1681,0,0
623,-657,0,0,0,0,0,0,0,0,0,-1,1847,1681,0,0
630,-657,0,0,0,0,0,0,0,0,0,-1,1854,1681,0,0
637,-657,0,0,0,0,0,0,0,0,0,-1,1861,1681,0,0
644,-657,0,0,0,0,0,0,0,0,0,-1,1868,1681,0,0
651,-657,0,0,0,0,0,0,0,0,0,-1,1875,1681,0,0
658,-657,0,0,0,0,0,0,0,0,0,-1,1882,1681,0,0
665,-657,0,0,0,0,0,0,0,0,0,-1,1889,1681,0,0
672,-657,0,0,0,0,0,0,0,0,0,-1,1896,1681,0,0
679,-657,0,0,0,0,0,0,0,0,0,-1,1903,1681,0,0
686,-657,0,0,0,0,0,0,0,0,0,-1,1910,1681,0,0
693,-657,0,0,0,0,0,0,0,0,0,-1,1917,1681,0,0
700,-657,0,0,0,0,0,0,0,0,0,-1,1924,1681,0,0
707,-657,0,0,0,0,0,0,0,0,0,-1,1931,1681,0,0
714,-657,0,0,0,0,0,0,0,0,0,-1,1938,1681,0,0
721,-657,0,0,0,0,0,0,0,0,0,-1,1945,1681,0,0
728,-657,0,0,0,0,0,0,0,0,0,-1,1952,1681,0,0
735,-657,0,0,0,0,0,0,0,0,0,-1,1959,1681,0,0
742,-657,0,0,0,0,0,0,0,0,0,-1,1966,1681,0,0
749,-657,0,0,0,0,0,0,0,0,0,-1,1973,1681,0,0
756,-657,0,0,0,0,0,0,0,0,0,-1,1980,1681,0,0
763,-657,0,0,0,0,0,0,0,0,0,-1,1987,1681,0,0
770,-657,0,0,0,0,0,0,0,0,0,-1,1994,1681,0,0
777,-657,0,0,0,0,0,0,0,0,0,-1,2001,1681,0,0
784,-657,0,0,0,0,0,0,0,0,0,-1,2008,1681,0,0
791,-657,0,0,0,0,0,0,0,0,0,-1,2015,1681,0,0
798,-657,0,0,0,0,0,0,0,0,0,-1,2022,1681,0,0
805,-657,0,0,0,0,0,0,0,0,0,-1,2029,1681,0,0
812,-657,0,0,0,0,0,0,0,0,0,-1,2036,1681,0,0
-700,-664,0,0,0,0,0,0,0,0,0,-1,524,1688,0,0
-693,-664,0,0,0,0,0,0,0,0,0,-1,531,1688,0,0
-686,-664,0,0,0,0,0,0,0,0,0,-1,538,1688,0,0
-679,-664,0,0,0,0,0,0,0,0,0,-1,545,1688,0,0
-672,-664,0,0,0,0,0,0,0,0,0,-1,552,1688,0,0
-665,-664,0,0,0,0,0,0,0,0,0,-1,559,1688,0,0
-658,-664,0,0,0,0,0,0,0,0,0,-1,566,1688,0,0
-651,-664,0,0,0,0,0,0,0,0,0,-1,573,1688,0,0
-644,-664,0,0,0,0,0,0,0,0,0,-1,580,1688,0,0
-637,-664,0,0,0,0,0,0,0,0,0,-1,587,1688,0,0
-630,-664,0,0,0,0,0,0,0,0,0,-1,594,1688,0,0
-623,-664,0,0,0,0,0,0,0,0,0,-1,601,1688,0,0
-616,-664,0,0,0,0,0,0,0,0,0,-1,608,1688,0,0
-609,-664,0,0,0,0,0,0,0,0,0,-1,615,1688,0,0
-602,-664,0,0,0,0,0,0,0,0,0,-1,622,1688,0,0
-595,-664,0,0,0,0,0,0,0,0,0,-1,629,1688,0,0
-588,-664,0,0,0,0,0,0,0,0,0,-1,636,1688,0,0
-581,-664,0,0,0,0,0,0,0,0,0,-1,643,1688,0,0
-574,-664,0,0,0,0,0,0,0,0,0,-1,650,1688,0,0
-567,-664,0,0,0,0,0,0,0,0,0,-1,657,1688,0,0
-560,-664,0,0,0,0,0,0,0,0,0,-1,664,1688,0,0
-553,-664,0,0,0,0,0,0,0,0,0,-1,671,1688,0,0
-546,-664,0,0,0,0,0,0,0,0,0,-1,678,1688,0,0
-539,-664,0,0,0,0,0,0,0,0,0,-1,685,1688,0,0
-532,-664,0,0,0,0,0,0,0,0,0,-1,692,1688,0,0
-525,-664,0,0,0,0,0,0,0,0,0,-1,699,1688,0,0
-518,-664,0,0,0,0,0,0,0,0,0,-1,706,1688,0,0
-511,-664,0,0,0,0,0,0,0,0,0,-1,713,1688,0,0
-504,-664,0,0,0,0,0,0,0,0,0,-1,720,1688,0,0
-497,-664,0,0,0,0,0,0,0,0,0,-1,727,1688,0,0
-490,-664,0,0,0,0,0,0,0,0,0,-1,734,1688,0,0
-483,-664,0,0,0,0,0,0,0,0,0,-1,741,1688,0,0
-476,-664,0,0,0,0,0,0,0,0,0,-1,748,1688,0,0
-469,-664,0,0,0,0,0,0,0,0,0,-1,755,1688,0,0
-462,-664,0,0,0,0,0,0,0,0,0,-1,762,1688,0,0
-455,-664,0,0,0,0,0,0,0,0,0,-1,769,1688,0,0
-448,-664,0,0,0,0,0,0,0,0,0,-1,776,1688,0,0
-441,-664,0,0,0,0,0,0,0,0,0,-1,783,1688,0,0
-434,-664,0,0,0,0,0,0,0,0,0,-1,790,1688,0,0
-427,-664,0,0,0,0,0,0,0,0,0,-1,797,1688,0,0
-420,-664,0,0,0,0,0,0,0,0,0,-1,804,1688,0,0
-413,-664,0,0,0,0,0,0,0,0,0,-1,811,1688,0,0
-406,-664,0,0,0,0,0,0,0,0,0,-1,818,1688,0,0
-399,-664,0,0,0,0,0,0,0,0,0,-1,825,1688,0,0
-392,-664,0,0,0,0,0,0,0,0,0,-1,832,1688,0,0
-385,-664,0,0,0,0,0,0,0,0,0,-1,839,1688,0,0
-378,-664,0,0,0,0,0,0,0,0,0,-1,846,1688,0,0
-371,-664,-1.61676,5.92737,0,0,0,0,0,0,0,-1,853,1688,-1.61675,-5.92735
-364,-664,-3.901,5.87024,0,0,0,0,0,0,0,-1,860,1688,-3.90097,-5.87027
-357,-664,-4.81012,4.53479,0,0,0,0,0,0,0,-1,867,1688,-4.81012,-4.5348
-350,-664,-5.7193,3.19934,0,0,0,0,0,0,0,-1,874,1688,-5.71927,-3.19932
-343,-664,-6.37476,1.54712,0,0,0,0,0,0,0,-1,881,1688,-6.37479,-1.54714
-336,-664,3.33313,10.5156,0,0,0,0,0,0,0,-1,888,1688,3.33311,-10.5156
-329,-664,3.43506,10.6934,0,0,0,0,0,0,0,-1,895,1688,3.43506,-10.6934
-322,-664,5.53381,12.2426,0,0,0,0,0,0,0,-1,902,1688,5.53384,-12.2425
-315,-664,5.2334,12.3362,-0.0311928,-0.0200536,-0.0191253,-0.00570336,-0.045543,-0.927088,0.0286507,0.0469552,909,1688,5.23341,-12.3361
-308,-664,4.92896,12.4133,-0.0264121,-0.0173323,-0.0176539,-0.00364393,-0.0401005,-0.911252,0.0256056,0.046735,916,1688,4.92897,-12.4134
-301,-664,4.49677,12.4803,-0.0216237,-0.0153925,-0.01608,-0.00212901,-0.0348871,-0.881091,0.0225819,0.0444638,923,1688,4.49676,-12.4804
-294,-664,4.07782,12.5551,-0.0171837,-0.0135767,-0.0143172,-0.000949788,-0.0298106,-0.848052,0.0195648,0.0386565,930,1688,4.07781,-12.555
-287,-664,4.03137,12.7522,-0.0129911,-0.012171,-0.0125844,1.00303e-05,-0.0251721,-0.801684,0.0167847,0.0282057,937,1688,4.0314,-12.7522
-280,-664,3.98053,12.9161,-0.00945885,-0.0108312,-0.0109136,0.000790143,-0.0210802,-0.754003,0.0143241,0.0187615,944,1688,3.98051,-12.9162
-273,-664,3.99231,13.0706,-0.00662184,-0.0094033,-0.00920182,0.00129375,-0.0173189,-0.710398,0.0120004,0.01449,951,1688,3.9923,-13.0705
-266,-664,3.97217,13.2426,-0.00439148,-0.00828123,-0.00757472,0.00148406,-0.0141568,-0.659734,0.00996943,0.0206629,958,1688,3.97218,-13.2426
-259,-664,3.96204,13.4396,-0.00258356,-0.00709713,-0.00600805,0.00157758,-0.0112583,-0.605738,0.00808286,0.0174285,965,1688,3.96201,-13.4396
-252,-664,3.97125,13.6669,-0.000939397,-0.00614953,-0.00449563,0.00165141,-0.00874034,-0.522806,0.00644824,0.0151864,972,1688,3.97124,-13.6668
-245,-664,3.95453,13.8496,9.93492e-06,-0.00526717,-0.00335583,0.00164029,-0.00689753,-0.452245,0.00523154,0.0203971,979,1688,3.95454,-13.8496
-238,-664,3.97784,13.969,0.000394465,-0.00446441,-0.00235415,0.00134795,-0.00541789,-0.384831,0.00413514,0.0241781,986,1688,3.97784,-13.969
-231,-664,3.98523,14.1288,0.000707623,-0.00367135,-0.00134486,0.00108767,-0.0040514,-0.275411,0.00312719,0.0209586,993,1688,3.98526,-14.1288
-224,-664,3.98944,14.3615,0.00100934,-0.00300874,-0.00060218,0.00109765,-0.00309705,-0.145607,0.00251184,0.0150655,1000,1688,3.98946,-14.3615
-217,-664,3.98029,14.5441,0.00104112,-0.00255206,-0.000112564,0.00104464,-0.00255558,-0.0312862,0.00213874,0.0109654,1007,1688,3.98029,-14.5441
-210,-664,3.96313,14.6853,0.000805606,-0.0022952,0.000203944,0.000818962,-0.00230856,0.065396,0.0018727,0.0106485,1014,1688,3.96315,-14.6853
-203,-664,3.96179,14.8561,0.000784699,-0.00208628,0.000344924,0.000825557,-0.00212714,0.117906,0.00175909,0.0128208,1021,1688,3.96176,-14.8561
-196,-664,3.97607,14.9951,0.0013209,-0.00123391,0.000337231,0.00136466,-0.00127767,0.129054,0.00152583,0.0135753,1028,1688,3.97605,-14.9951
-189,-664,3.98083,15.1377,0.00216417,-0.000576961,0.000409668,0.00222408,-0.000636878,0.145226,0.00173444,0.00918731,1035,1688,3.98081,-15.1377
-182,-664,3.96802,15.281,0.00324459,0.000184566,0.000381777,0.0032915,0.000137653,0.122266,0.00214992,0.00894927,1042,1688,3.96799,-15.281
-175,-664,3.97449,15.3965,0.00456631,0.00121004,0.000223094,0.00458108,0.00119528,0.0660835,0.00274382,0.0127893,1049,1688,3.97449,-15.3964
-168,-664,3.979,15.5242,0.00606093,0.00216738,0.000159563,0.00606746,0.00216086,0.0408899,0.00355105,0.0136344,1056,1688,3.97901,-15.5242
-161,-664,3.99304,15.6608,0.0080258,0.00303031,0.000166002,0.00803131,0.0030248,0.0331817,0.00468369,0.0096294,1063,1688,3.99303,-15.6608
-154,-664,4.00549,15.7965,0.010404,0.00377622,0.000147216,0.0104073,0.00377296,0.0221972,0.00608389,0.00920672,1070,1688,4.00547,-15.7966
-147,-664,4.00891,15.92,0.0128827,0.00421433,0.000217877,0.0128882,0.00420886,0.0251135,0.00758875,0.0108354,1077,1688,4.00886,-15.9201
-140,-664,4.01221,16.0604,0.0152289,0.00408106,0.0002532,0.0152347,0.00407531,0.0226973,0.00910719,0.0112214,1084,1688,4.01223,-16.0604
-133,-664,4.03748,16.1974,0.0176013,0.00373926,0.00036922,0.0176111,0.00372943,0.0266102,0.0107161,0.010989,1091,1688,4.03753,-16.1974
-126,-664,4.15698,16.2947,0.0197429,0.00306464,0.000758614,0.0197773,0.0030302,0.0453604,0.0122999,0.0199227,1098,1688,4.157,-16.2947
-119,-664,4.37878,16.2538,0.0213018,0.00183666,0.00128162,0.0213858,0.00175264,0.065465,0.0137104,0.0356301,1105,1688,4.37881,-16.2538
-112,-664,4.53369,16.282,0.0225658,-5.26232e-05,0.00171375,0.0226949,-0.000181735,0.0751959,0.0151909,0.0474661,1112,1688,4.53375,-16.282
-105,-664,4.43604,16.2373,0,0,0,0,0,0,0,-1,1119,1688,4.436,-16.2373
-98,-664,4.70508,15.6824,0,0,0,0,0,0,0,-1,1126,1688,4.7051,-15.6824
-91,-664,4.59192,15.8905,0,0,0,0,0,0,0,-1,1133,1688,4.59189,-15.8905
-84,-664,4.62073,15.5514,0,0,0,0,0,0,0,-1,1140,1688,4.6207,-15.5513
-77,-664,4.52014,11.2122,0,0,0,0,0,0,0,-1,1147,1688,4.5202,-11.2122
-70,-664,4.20374,8.24524,0,0,0,0,0,0,0,-1,1154,1688,4.20379,-8.24519
-63,-664,-4.677,2.40503,0,0,0,0,0,0,0,-1,1161,1688,-4.67702,-2.40498
-56,-664,-4.66504,3.32727,0,0,0,0,0,0,0,-1,1168,1688,-4.6651,-3.32724
-49,-664,-2.54297,3.31848,0,0,0,0,0,0,0,-1,1175,1688,-2.54297,-3.31852
-42,-664,-0.359253,4.38684,0,0,0,0,0,0,0,-1,1182,1688,-0.359261,-4.38685
-35,-664,-0.705566,3.55017,0,0,0,0,0,0,0,-1,1189,1688,-0.705567,-3.55023
-28,-664,-1.54236,10.2538,0,0,0,0,0,0,0,-1,1196,1688,-1.54236,-10.2538
-21,-664,4.25073,21.5817,0,0,0,0,0,0,0,-1,1203,1688,4.25078,-21.5816
-14,-664,4.79224,20.984,0,0,0,0,0,0,0,-1,1210,1688,4.79223,-20.984
-7,-664,4.97217,20.6991,0,0,0,0,0,0,0,-1,1217,1688,4.97221,-20.6991
0,-664,5.19604,20.3174,0.0771517,0.0682394,-0.00525815,0.0795879,0.0658031,-0.433884,0.0491128,0.0465815,1224,1688,5.19606,-20.3174
7,-664,5.31726,20.1058,0.0721874,0.0665194,-0.00266892,0.0732463,0.0654605,-0.377703,0.0464536,0.0444058,1231,1688,5.31724,-20.1059
14,-664,5.68628,20.6954,0,0,0,0,0,0,0,-1,1238,1688,5.68625,-20.6954
21,-664,5.3252,20.374,0.0539626,0.052517,0.00342879,0.0567439,0.0497356,0.68152,0.0357231,0.0422171,1245,1688,5.32521,-20.3741
28,-664,4.86865,20.2423,0.0423766,0.0438867,0.00674951,0.0499233,0.03634,0.841102,0.0298047,0.0433518,1252,1688,4.86869,-20.2423
35,-664,7.43884,20.0992,0,0,0,0,0,0,0,-1,1259,1688,7.43887,-20.0993
42,-664,6.8573,19.412,0.0171712,0.0272921,0.0132194,0.0363865,0.00807678,0.968197,0.0220638,0.0459788,1266,1688,6.85729,-19.412
49,-664,6.51196,18.8817,0.00471499,0.0192642,0.0162428,0.029787,-0.00580779,0.995938,0.0220504,0.0469844,1273,1688,6.51197,-18.8817
56,-664,6.09351,18.7681,-0.00593019,0.0113655,0.0188319,0.0234403,-0.0180049,1.00064,0.0239969,0.0491757,1280,1688,6.09356,-18.7681
63,-664,6.14978,18.7524,0,0,0,0,0,0,0,-1,1287,1688,6.14984,-18.7524
70,-664,5.74719,18.4883,-0.0277896,0.00113644,0.0244645,0.0150933,-0.0417465,1.05235,0.0339978,0.0495201,1294,1688,5.74719,-18.4882
77,-664,5.59863,17.9526,-0.0344736,0.00162597,0.025908,0.0151518,-0.0479994,1.08965,0.038069,0.0434747,1301,1688,5.59863,-17.9526
84,-664,5.08691,17.3167,0,0,0,0,0,0,0,-1,1308,1688,5.08697,-17.3167
91,-664,4.36487,17.4451,0,0,0,0,0,0,0,-1,1315,1688,4.36481,-17.4451
98,-664,4.2146,17.5558,0,0,0,0,0,0,0,-1,1322,1688,4.21456,-17.5558
105,-664,3.57935,17.73,0,0,0,0,0,0,0,-1,1329,1688,3.57931,-17.73
112,-664,2.28735,17.9844,0,0,0,0,0,0,0,-1,1336,1688,2.28737,-17.9843
119,-664,2.00427,18.9052,0,0,0,0,0,0,0,-1,1343,1688,2.00427,-18.9051
126,-664,5.04932,23.6713,0,0,0,0,0,0,0,-1,1350,1688,5.04929,-23.6713
133,-664,3.70361,17.0813,0,0,0,0,0,0,0,-1,1357,1688,3.70358,-17.0813
140,-664,4.69934,17.0754,0,0,0,0,0,0,0,-1,1364,1688,4.69935,-17.0754
147,-664,5.39221,17.2904,0,0,0,0,0,0,0,-1,1371,1688,5.39223,-17.2903
154,-664,13.5482,5.89453,0,0,0,0,0,0,0,-1,1378,1688,13.5482,-5.8945
161,-664,4.60132,1.56238,0,0,0,0,0,0,0,-1,1385,1688,4.60134,-1.56233
168,-664,5.172,1.25488,0,0,0,0,0,0,0,-1,1392,1688,5.17203,-1.25484
175,-664,5.58313,1.16467,0,0,0,0,0,0,0,-1,1399,1688,5.58317,-1.16466
182,-664,5.74268,1.41113,0,0,0,0,0,0,0,-1,1406,1688,5.74263,-1.41115
189,-664,5.87744,1.87061,0,0,0,0,0,0,0,-1,1413,1688,5.87745,-1.87065
196,-664,6.7594,5.97473,0,0,0,0,0,0,0,-1,1420,1688,6.75943,-5.97478
203,-664,5.38452,5.22034,0,0,0,0,0,0,0,-1,1427,1688,5.38453,-5.2203
210,-664,5.25549,6.45715,0,0,0,0,0,0,0,-1,1434,1688,5.25549,-6.45721
217,-664,5.72009,6.73975,0,0,0,0,0,0,0,-1,1441,1688,5.72014,-6.73972
224,-664,5.05725,7.42908,0,0,0,0,0,0,0,-1,1448,1688,5.05723,-7.42912
231,-664,5.13318,7.60864,0,0,0,0,0,0,0,-1,1455,1688,5.13313,-7.60862
238,-664,4.23193,6.45471,0,0,0,0,0,0,0,-1,1462,1688,4.23197,-6.45476
245,-664,4.42004,6.80896,0,0,0,0,0,0,0,-1,1469,1688,4.4201,-6.80901
252,-664,3.67346,6.85461,0,0,0,0,0,0,0,-1,1476,1688,3.6734,-6.85462
259,-664,4.55823,11.7435,0,0,0,0,0,0,0,-1,1483,1688,4.55826,-11.7435
266,-664,5.80908,16.4452,0,0,0,0,0,0,0,-1,1490,1688,5.80911,-16.4452
273,-664,5.81909,16.416,0.00239126,-0.00687192,0.00294172,0.0032465,-0.00772716,0.28293,0.00650931,0.0321699,1497,1688,5.81911,-16.4161
280,-664,5.83655,16.3833,0.0021963,-0.00631013,0.00287233,0.00307534,-0.00718918,0.296989,0.00608281,0.0211067,1504,1688,5.83656,-16.3833
287,-664,5.82715,16.3069,0.00198375,-0.00547424,0.00270812,0.00286337,-0.00635387,0.314058,0.00544728,0.0192515,1511,1688,5.82719,-16.3069
294,-664,5.88184,16.2207,0.00167409,-0.00486324,0.00257997,0.00256961,-0.00575876,0.334092,0.0049245,0.0140529,1518,1688,5.88188,-16.2207
301,-664,5.89771,16.1306,0.0013408,-0.00418923,0.00231317,0.00218079,-0.00502922,0.348327,0.00426961,0.0102245,1525,1688,5.89773,-16.1306
308,-664,5.90149,16.0051,0.00108454,-0.00355603,0.00204175,0.00185496,-0.00432645,0.360815,0.00366269,0.0101513,1532,1688,5.9015,-16.0051
315,-664,5.91626,15.8846,0.000912291,-0.00302868,0.00182946,0.00163062,-0.00374701,0.374151,0.00318392,0.01105,1539,1688,5.91629,-15.8847
322,-664,5.93262,15.7504,0.000808505,-0.0025629,0.00158383,0.00143584,-0.00319023,0.377125,0.00273413,0.0148966,1546,1688,5.9326,-15.7503
329,-664,5.92566,15.6079,0.000766147,-0.00221538,0.00132076,0.00126706,-0.0027163,0.362502,0.00234998,0.0171519,1553,1688,5.92563,-15.6079
336,-664,5.91931,15.4791,0.000748614,-0.00188461,0.000973994,0.00106972,-0.00220572,0.318462,0.00192862,0.0145302,1560,1688,5.91929,-15.4791
343,-664,5.93762,15.354,0.000725444,-0.00172378,0.000611874,0.000869797,-0.00186813,0.231683,0.00161539,0.0119856,1567,1688,5.93759,-15.354
350,-664,5.93262,15.2274,0.000804054,-0.00161126,0.000238012,0.000827285,-0.00163449,0.0972957,0.00144655,0.0127362,1574,1688,5.93259,-15.2274
357,-664,5.91003,15.0706,0.00094451,-0.00153712,-0.000176446,0.000956993,-0.0015496,-0.0706275,0.0014606,0.0113356,1581,1688,5.91006,-15.0705
364,-664,5.92542,14.9078,0.00102618,-0.00140335,-0.000632431,0.00118095,-0.00155812,-0.240003,0.00158639,0.00981543,1588,1688,5.92545,-14.9079
371,-664,5.93347,14.7793,0.00114585,-0.00132907,-0.00109863,0.00156317,-0.00174639,-0.36302,0.00191175,0.0128282,1595,1688,5.9335,-14.7793
378,-664,5.92297,14.6359,0.00131563,-0.00104825,-0.00163492,0.0021511,-0.00188372,-0.472422,0.00233121,0.0133046,1602,1688,5.923,-14.6358
385,-664,5.92017,14.4756,0.00144645,-0.000441759,-0.00231813,0.00300535,-0.00200066,-0.592019,0.00290956,0.0141763,1609,1688,5.92012,-14.4756
392,-664,5.89709,14.3137,0.00141255,0.000726382,-0.00294399,0.00403338,-0.00189445,-0.727391,0.00349591,0.0152486,1616,1688,5.89704,-14.3137
399,-664,5.90991,14.1305,0.00138757,0.00159154,-0.00344216,0.00493323,-0.00195412,-0.800208,0.00409853,0.0120635,1623,1688,5.90989,-14.1305
406,-664,5.92578,13.9712,0.00133386,0.00288269,-0.00408191,0.00626299,-0.00204644,-0.879143,0.0049991,0.0117434,1630,1688,5.92578,-13.9712
413,-664,5.94678,13.7792,0.00112875,0.00399779,-0.00469484,0.00747238,-0.00234584,-0.93367,0.00592053,0.0127206,1637,1688,5.94673,-13.7792
420,-664,5.97888,13.5665,0.000706945,0.00485433,-0.00514451,0.00832736,-0.00276609,-0.976981,0.00666768,0.0276387,1644,1688,5.97894,-13.5665
427,-664,5.99524,13.2911,0.000133024,0.00577557,-0.00536158,0.00901285,-0.00310426,-1.02759,0.00726777,0.0461669,1651,1688,5.9952,-13.2911
434,-664,6.10999,12.8646,-0.000376728,0.00633695,-0.00572854,0.00961973,-0.00365951,-1.05042,0.00792001,0.0439186,1658,1688,6.11002,-12.8646
441,-664,5.84363,12.5157,-0.00114776,0.0060542,-0.00581085,0.00928938,-0.00438293,-1.06279,0.00806136,0.048497,1665,1688,5.84364,-12.5157
448,-664,5.87866,12.2921,0,0,0,0,0,0,0,-1,1672,1688,5.87871,-12.2922
455,-664,4.625,14.0363,0,0,0,0,0,0,0,-1,1679,1688,4.62504,-14.0362
462,-664,4.3147,4.25439,0,0,0,0,0,0,0,-1,1686,1688,4.31467,-4.25435
469,-664,6.05469,7.49341,0,0,0,0,0,0,0,-1,1693,1688,6.05474,-7.49339
476,-664,9.76514,11.5648,0,0,0,0,0,0,0,-1,1700,1688,9.76511,-11.5648
483,-664,8.41895,10.9768,0,0,0,0,0,0,0,-1,1707,1688,8.41897,-10.9769
490,-664,6.82959,10.4489,0,0,0,0,0,0,0,-1,1714,1688,6.82961,-10.4488
497,-664,0,0,0,0,0,0,0,0,0,-1,1721,1688,0,0
504,-664,0,0,0,0,0,0,0,0,0,-1,1728,1688,0,0
511,-664,0,0,0,0,0,0,0,0,0,-1,1735,1688,0,0
518,-664,0,0,0,0,0,0,0,0,0,-1,1742,1688,0,0
525,-664,0,0,0,0,0,0,0,0,0,-1,1749,1688,0,0
532,-664,0,0,0,0,0,0,0,0,0,-1,1756,1688,0,0
539,-664,0,0,0,0,0,0,0,0,0,-1,1763,1688,0,0
546,-664,0,0,0,0,0,0,0,0,0,-1,1770,1688,0,0
553,-664,0,0,0,0,0,0,0,0,0,-1,1777,1688,0,0
560,-664,0,0,0,0,0,0,0,0,0,-1,1784,1688,0,0
567,-664,0,0,0,0,0,0,0,0,0,-1,1791,1688,0,0
574,-664,0,0,0,0,0,0,0,0,0,-1,1798,1688,0,0
581,-664,0,0,0,0,0,0,0,0,0,-1,1805,1688,0,0
588,-664,0,0,0,0,0,0,0,0,0,-1,1812,1688,0,0
595,-664,0,0,0,0,0,0,0,0,0,-1,1819,1688,0,0
602,-664,0,0,0,0,0,0,0,0,0,-1,1826,1688,0,0
609,-664,0,0,0,0,0,0,0,0,0,-1,1833,1688,0,0
616,-664,0,0,0,0,0,0,0,0,0,-1,1840,1688,0,0
623,-664,0,0,0,0,0,0,0,0,0,-1,1847,1688,0,0
630,-664,0,0,0,0,0,0,0,0,0,-1,1854,1688,0,0
637,-664,0,0,0,0,0,0,0,0,0,-1,1861,1688,0,0
644,-664,0,0,0,0,0,0,0,0,0,-1,1868,1688,0,0
651,-664,0,0,0,0,0,0,0,0,0,-1,1875,1688,0,0
658,-664,0,0,0,0,0,0,0,0,0,-1,1882,1688,0,0
665,-664,0,0,0,0,0,0,0,0,0,-1,1889,1688,0,0
672,-664,0,0,0,0,0,0,0,0,0,-1,1896,1688,0,0
679,-664,0,0,0,0,0,0,0,0,0,-1,1903,1688,0,0
686,-664,0,0,0,0,0,0,0,0,0,-1,1910,1688,0,0
693,-664,0,0,0,0,0,0,0,0,0,-1,1917,1688,0,0
700,-664,0,0,0,0,0,0,0,0,0,-1,1924,1688,0,0
707,-664,0,0,0,0,0,0,0,0,0,-1,1931,1688,0,0
714,-664,0,0,0,0,0,0,0,0,0,-1,1938,1688,0,0
721,-664,0,0,0,0,0,0,0,0,0,-1,1945,1688,0,0
728,-664,0,0,0,0,0,0,0,0,0,-1,1952,1688,0,0
735,-664,0,0,0,0,0,0,0,0,0,-1,1959,1688,0,0
742,-664,0,0,0,0,0,0,0,0,0,-1,1966,1688,0,0
749,-664,0,0,0,0,0,0,0,0,0,-1,1973,1688,0,0
756,-664,0,0,0,0,0,0,0,0,0,-1,1980,1688,0,0
763,-664,0,0,0,0,0,0,0,0,0,-1,1987,1688,0,0
770,-664,0,0,0,0,0,0,0,0,0,-1,1994,1688,0,0
777,-664,0,0,0,0,0,0,0,0,0,-1,2001,1688,0,0
784,-664,0,0,0,0,0,0,0,0,0,-1,2008,1688,0,0
791,-664,0,0,0,0,0,0,0,0,0,-1,2015,1688,0,0
798,-664,0,0,0,0,0,0,0,0,0,-1,2022,1688,0,0
805,-664,0,0,0,0,0,0,0,0,0,-1,2029,1688,0,0
812,-664,0,0,0,0,0,0,0,0,0,-1,2036,1688,0,0
-700,-671,0,0,0,0,0,0,0,0,0,-1,524,1695,0,0
-693,-671,0,0,0,0,0,0,0,0,0,-1,531,1695,0,0
-686,-671,0,0,0,0,0,0,0,0,0,-1,538,1695,0,0
-679,-671,0,0,0,0,0,0,0,0,0,-1,545,1695,0,0
-672,-671,0,0,0,0,0,0,0,0,0,-1,552,1695,0,0
-665,-671,0,0,0,0,0,0,0,0,0,-1,559,1695,0,0
-658,-671,0,0,0,0,0,0,0,0,0,-1,566,1695,0,0
-651,-671,0,0,0,0,0,0,0,0,0,-1,573,1695,0,0
-644,-671,0,0,0,0,0,0,0,0,0,-1,580,1695,0,0
-637,-671,0,0,0,0,0,0,0,0,0,-1,587,1695,0,0
-630,-671,0,0,0,0,0,0,0,0,0,-1,594,1695,0,0
-623,-671,0,0,0,0,0,0,0,0,0,-1,601,1695,0,0
-616,-671,0,0,0,0,0,0,0,0,0,-1,608,1695,0,0
-609,-671,0,0,0,0,0,0,0,0,0,-1,615,1695,0,0
-602,-671,0,0,0,0,0,0,0,0,0,-1,622,1695,0,0
-595,-671,0,0,0,0,0,0,0,0,0,-1,629,1695,0,0
-588,-671,0,0,0,0,0,0,0,0,0,-1,636,1695,0,0
-581,-671,0,0,0,0,0,0,0,0,0,-1,643,1695,0,0
-574,-671,0,0,0,0,0,0,0,0,0,-1,650,1695,0,0
-567,-671,0,0,0,0,0,0,0,0,0,-1,657,1695,0,0
-560,-671,0,0,0,0,0,0,0,0,0,-1,664,1695,0,0
-553,-671,0,0,0,0,0,0,0,0,0,-1,671,1695,0,0
-546,-671,0,0,0,0,0,0,0,0,0,-1,678,1695,0,0
-539,-671,0,0,0,0,0,0,0,0,0,-1,685,1695,0,0
-532,-671,0,0,0,0,0,0,0,0,0,-1,692,1695,0,0
-525,-671,0,0,0,0,0,0,0,0,0,-1,699,1695,0,0
-518,-671,0,0,0,0,0,0,0,0,0,-1,706,1695,0,0
-511,-671,0,0,0,0,0,0,0,0,0,-1,713,1695,0,0
-504,-671,0,0,0,0,0,0,0,0,0,-1,720,1695,0,0
-497,-671,0,0,0,0,0,0,0,0,0,-1,727,1695,0,0
-490,-671,0,0,0,0,0,0,0,0,0,-1,734,1695,0,0
-483,-671,0,0,0,0,0,0,0,0,0,-1,741,1695,0,0
-476,-671,0,0,0,0,0,0,0,0,0,-1,748,1695,0,0
-469,-671,0,0,0,0,0,0,0,0,0,-1,755,1695,0,0
-462,-671,0,0,0,0,0,0,0,0,0,-1,762,1695,0,0
-455,-671,0,0,0,0,0,0,0,0,0,-1,769,1695,0,0
-448,-671,0,0,0,0,0,0,0,0,0,-1,776,1695,0,0
-441,-671,0,0,0,0,0,0,0,0,0,-1,783,1695,0,0
-434,-671,0,0,0,0,0,0,0,0,0,-1,790,1695,0,0
-427,-671,0,0,0,0,0,0,0,0,0,-1,797,1695,0,0
-420,-671,0,0,0,0,0,0,0,0,0,-1,804,1695,0,0
-413,-671,0,0,0,0,0,0,0,0,0,-1,811,1695,0,0
-406,-671,0,0,0,0,0,0,0,0,0,-1,818,1695,0,0
-399,-671,0,0,0,0,0,0,0,0,0,-1,825,1695,0,0
-392,-671,0,0,0,0,0,0,0,0,0,-1,832,1695,0,0
-385,-671,0,0,0,0,0,0,0,0,0,-1,839,1695,0,0
-378,-671,0,0,0,0,0,0,0,0,0,-1,846,1695,0,0
-371,-671,0,0,0,0,0,0,0,0,0,-1,853,1695,0,0
-364,-671,-4.18738,7.51416,0,0,0,0,0,0,0,-1,860,1695,-4.18739,-7.51419
-357,-671,-5.02393,6.07129,0,0,0,0,0,0,0,-1,867,1695,-5.0239,-6.07135
-350,-671,-5.72333,4.58386,0,0,0,0,0,0,0,-1,874,1695,-5.72333,-4.58386
-343,-671,-6.4884,3.11353,0,0,0,0,0,0,0,-1,881,1695,-6.48839,-3.11349
-336,-671,-7.30127,1.64417,0,0,0,0,0,0,0,-1,888,1695,-7.30127,-1.64414
-329,-671,3.58337,10.6238,0,0,0,0,0,0,0,-1,895,1695,3.58338,-10.6238
-322,-671,3.75763,10.859,0,0,0,0,0,0,0,-1,902,1695,3.75766,-10.8591
-315,-671,5.67847,12.4489,0,0,0,0,0,0,0,-1,909,1695,5.67847,-12.4488
-308,-671,5.45953,12.4386,-0.030187,-0.019645,-0.0259191,0.00153358,-0.0513656,-0.885712,0.0347662,0.0480821,916,1695,5.45954,-12.4386
-301,-671,4.3689,12.5065,-0.0239356,-0.0178635,-0.0236991,0.00299324,-0.0447923,-0.849104,0.0309077,0.0472141,923,1695,4.36892,-12.5065
-294,-671,4.28284,12.6061,-0.018298,-0.016105,-0.021344,0.00417065,-0.0385737,-0.811062,0.0272128,0.0491767,930,1695,4.28284,-12.6061
-287,-671,4.22528,12.8331,-0.0131792,-0.0145889,-0.0190253,0.00515425,-0.0329224,-0.766882,0.0238527,0.0460159,937,1695,4.2253,-12.8331
-280,-671,4.11908,12.9758,-0.00906177,-0.0130593,-0.0167099,0.0057685,-0.0278896,-0.725873,0.0207845,0.0370712,944,1695,4.11909,-12.9758
-273,-671,4.17126,13.1035,-0.00600787,-0.0114279,-0.0142886,0.00582545,-0.0232612,-0.69168,0.0177705,0.0313968,951,1695,4.17124,-13.1036
-266,-671,4.2298,13.325,-0.00383014,-0.0102616,-0.0119555,0.00533458,-0.0194263,-0.65402,0.0150477,0.0225507,958,1695,4.22979,-13.3249
-259,-671,4.1319,13.4894,-0.00222219,-0.00914072,-0.00967579,0.00459412,-0.015957,-0.61372,0.0124551,0.0214498,965,1695,4.13192,-13.4894
-252,-671,4.12665,13.66,-0.000713795,-0.00818244,-0.00748783,0.00391925,-0.0128155,-0.554087,0.0101066,0.0160049,972,1695,4.12668,-13.66
-245,-671,4.11682,13.8263,1.50699e-05,-0.00725652,-0.00575167,0.00318374,-0.0104252,-0.503544,0.00821954,0.0198063,979,1695,4.11683,-13.8263
-238,-671,4.13605,13.9915,0.000149579,-0.00632038,-0.00418606,0.00220499,-0.00837579,-0.456432,0.00644582,0.0212167,986,1695,4.13602,-13.9915
-231,-671,4.1438,14.1642,0.000294252,-0.00532128,-0.00263689,0.00133834,-0.00636537,-0.377012,0.00475292,0.0159047,993,1695,4.14383,-14.1641
-224,-671,4.12683,14.3477,0.000411203,-0.00451919,-0.0014086,0.000785257,-0.00489324,-0.25956,0.00355296,0.012339,1000,1695,4.12684,-14.3476
-217,-671,4.13129,14.5323,0.000295723,-0.0039782,-0.00063917,0.000389264,-0.00407175,-0.145316,0.00285312,0.011503,1007,1695,4.1313,-14.5323
-210,-671,4.10938,14.6688,8.13608e-05,-0.00347847,-0.000175606,9.00024e-05,-0.00348711,-0.0491707,0.00235531,0.0105149,1014,1695,4.10937,-14.6689
-203,-671,4.09985,14.804,0.000180563,-0.00300732,4.98728e-05,0.000181343,-0.0030081,0.0156394,0.0020685,0.0174897,1021,1695,4.0999,-14.804
-196,-671,4.11499,14.9755,0.000602116,-0.00215837,0.00013959,0.000609156,-0.00216541,0.0503958,0.0016838,0.0158717,1028,1695,4.11493,-14.9754
-189,-671,4.13721,15.1492,0.00120648,-0.00146757,0.00021119,0.00122306,-0.00148415,0.0783304,0.00156543,0.0119074,1035,1695,4.13717,-15.1491
-182,-671,4.10681,15.287,0.00201105,-0.000678604,0.000195704,0.00202522,-0.000692769,0.0722545,0.00163087,0.00961331,1042,1695,4.1068,-15.2869
-175,-671,4.10547,15.4142,0.00299102,0.000267606,7.78175e-05,0.00299324,0.000265385,0.0285424,0.00191318,0.0124207,1049,1695,4.10548,-15.4142
-168,-671,4.11047,15.5272,0.00404637,0.00106956,4.09222e-05,0.00404694,0.001069,0.0137435,0.0024216,0.0136849,1056,1695,4.11047,-15.5273
-161,-671,4.125,15.6704,0.00540378,0.00176043,7.33941e-05,0.00540526,0.00175895,0.0201338,0.00318351,0.00945139,1063,1695,4.125,-15.6704
-154,-671,4.13147,15.7994,0.00702322,0.00222931,6.57833e-05,0.00702412,0.00222841,0.0137188,0.00414469,0.00858317,1070,1695,4.13144,-15.7994
-147,-671,4.12488,15.9308,0.00866056,0.0023188,0.000111721,0.00866253,0.00231683,0.0176094,0.00517848,0.0097958,1077,1695,4.12492,-15.9308
-140,-671,4.14551,16.0839,0.01017,0.00189789,0.000135129,0.0101722,0.00189568,0.0163296,0.00624623,0.0102743,1084,1695,4.14556,-16.0839
-133,-671,4.15723,16.2079,0.0117039,0.00134374,0.000236255,0.0117093,0.00133836,0.0227884,0.00740052,0.0109601,1091,1695,4.1572,-16.2079
-126,-671,4.20886,16.3159,0.0130717,0.000588844,0.000550729,0.0130959,0.000564594,0.044005,0.00854862,0.0138814,1098,1695,4.20882,-16.3159
-119,-671,4.25256,16.3969,0.0140826,-0.000477371,0.00100045,0.014151,-0.000545792,0.0682843,0.00962112,0.0269954,1105,1695,4.2526,-16.3969
-112,-671,4.2959,16.5236,0.0148575,-0.00203198,0.00135871,0.0149661,-0.00214059,0.0797634,0.0107621,0.0372571,1112,1695,4.29586,-16.5236
-105,-671,4.53967,16.4899,0.0154767,-0.00356423,0.00202759,0.0156902,-0.00377774,0.104918,0.0119206,0.0440078,1119,1695,4.53962,-16.4899
-98,-671,4.53894,16.4344,0.015108,-0.00515464,0.00274499,0.0154733,-0.00551992,0.132294,0.0125663,0.043361,1126,1695,4.53899,-16.4345
-91,-671,4.40649,16.3743,0.0129646,-0.00845112,0.00373608,0.0135976,-0.00908418,0.167852,0.0131815,0.0445385,1133,1695,4.40649,-16.3742
-84,-671,4.33435,16.2155,0,0,0,0,0,0,0,-1,1140,1695,4.33439,-16.2155
-77,-671,4.31763,16.489,0,0,0,0,0,0,0,-1,1147,1695,4.31757,-16.489
-70,-671,3.06067,10.7737,0,0,0,0,0,0,0,-1,1154,1695,3.0607,-10.7737
-63,-671,2.94592,6.90198,0,0,0,0,0,0,0,-1,1161,1695,2.94594,-6.90198
-56,-671,-3.07678,2.87976,0,0,0,0,0,0,0,-1,1168,1695,-3.07675,-2.87979
-49,-671,-1.05957,4.76917,0,0,0,0,0,0,0,-1,1175,1695,-1.05958,-4.76921
-42,-671,0.539307,3.7865,0,0,0,0,0,0,0,-1,1182,1695,0.539266,-3.78648
-35,-671,-0.272461,0.347534,0,0,0,0,0,0,0,-1,1189,1695,-0.272434,-0.347569
-28,-671,-10.4878,17.2009,0,0,0,0,0,0,0,-1,1196,1695,-10.4878,-17.2009
-21,-671,-0.825195,17.6527,0,0,0,0,0,0,0,-1,1203,1695,-0.825227,-17.6528
-14,-671,4.7605,17.1855,0,0,0,0,0,0,0,-1,1210,1695,4.76045,-17.1855
-7,-671,5.05579,19.538,0,0,0,0,0,0,0,-1,1217,1695,5.05579,-19.538
0,-671,5.24377,19.5945,0.0571304,0.0569949,0.000374559,0.0574433,0.056682,0.695926,0.0380443,0.0475847,1224,1695,5.24372,-19.5945
7,-671,5.20837,19.8698,0.0532074,0.0556932,0.00207739,0.0568711,0.0520295,1.05498,0.0364077,0.0462639,1231,1695,5.20842,-19.8697
14,-671,5.21936,19.9106,0.0474463,0.0513914,0.00398173,0.0538624,0.0449753,1.01538,0.0333431,0.043477,1238,1695,5.2194,-19.9106
21,-671,5.20642,19.6221,0.0397404,0.0450387,0.00603597,0.0489813,0.0357978,0.99219,0.0292668,0.042741,1245,1695,5.20642,-19.6221
28,-671,5.12463,19.4982,0.0311138,0.0381813,0.00803854,0.0434285,0.0258666,0.992485,0.0252258,0.0453234,1252,1695,5.12466,-19.4981
35,-671,4.9696,17.7108,0,0,0,0,0,0,0,-1,1259,1695,4.96955,-17.7108
42,-671,5.76221,18.9182,0.0119638,0.0244741,0.0119653,0.0317206,0.00471729,1.02625,0.0197632,0.0491933,1266,1695,5.76226,-18.9183
49,-671,5.76196,18.6896,0.00237411,0.0176841,0.0137229,0.0257427,-0.0056845,1.03981,0.0193372,0.0471648,1273,1695,5.76201,-18.6895
56,-671,6.57422,18.8202,-0.00611226,0.0105991,0.0152223,0.0196082,-0.0151213,1.0364,0.0201068,0.045014,1280,1695,6.57423,-18.8202
63,-671,5.82214,18.7147,0,0,0,0,0,0,0,-1,1287,1695,5.8222,-18.7147
70,-671,5.3634,18.4547,-0.0234494,0.00118661,0.0188496,0.0113862,-0.033649,1.07481,0.0270393,0.0457674,1294,1695,5.36336,-18.4547
77,-671,5.10999,17.9786,-0.0289993,0.000778695,0.0198541,0.0107063,-0.038927,1.10712,0.0301603,0.0450095,1301,1695,5.11001,-17.9787
84,-671,4.5304,17.5641,-0.0334685,0.00221591,0.0210906,0.011999,-0.0432516,1.13648,0.0335569,0.0473021,1308,1695,4.53043,-17.5641
91,-671,3.82275,17.4204,-0.0344383,0.0114266,0.0224393,0.0205787,-0.0435905,1.18353,0.0378338,0.0432255,1315,1695,3.82274,-17.4204
98,-671,3.297,17.5381,0,0,0,0,0,0,0,-1,1322,1695,3.29699,-17.5381
105,-671,2.86707,17.8436,-0.0347897,0.0239054,0.0252745,0.0332887,-0.044173,1.21531,0.0448695,0.0451619,1329,1695,2.86707,-17.8437
112,-671,2.32996,18.4556,0,0,0,0,0,0,0,-1,1336,1695,2.32995,-18.4556
119,-671,4.66321,16.2931,0,0,0,0,0,0,0,-1,1343,1695,4.66323,-16.2931
126,-671,4.78162,16.3036,0,0,0,0,0,0,0,-1,1350,1695,4.78165,-16.3036
133,-671,4.79883,16.5946,0,0,0,0,0,0,0,-1,1357,1695,4.79888,-16.5946
140,-671,4.57458,17.3497,-0.0274984,0.0749942,0.0339333,0.0852105,-0.0377148,1.27836,0.0727153,0.0475989,1364,1695,4.57456,-17.3498
147,-671,5.255,17.5386,-0.0261124,0.0844015,0.0355739,0.0948623,-0.0365732,1.2848,0.0783323,0.0473407,1371,1695,5.25501,-17.5386
154,-671,5.91492,17.7644,0,0,0,0,0,0,0,-1,1378,1695,5.91498,-17.7644
161,-671,4.49292,4.91272,0,0,0,0,0,0,0,-1,1385,1695,4.49297,-4.91273
168,-671,5.17639,6.1416,0,0,0,0,0,0,0,-1,1392,1695,5.1764,-6.14164
175,-671,5.6731,1.64685,0,0,0,0,0,0,0,-1,1399,1695,5.67313,-1.64691
182,-671,5.56812,1.71692,0,0,0,0,0,0,0,-1,1406,1695,5.56809,-1.71686
189,-671,6.98315,6.36169,0,0,0,0,0,0,0,-1,1413,1695,6.98312,-6.36175
196,-671,5.38123,5.69775,0,0,0,0,0,0,0,-1,1420,1695,5.38125,-5.69769
203,-671,5.95117,8.11658,0,0,0,0,0,0,0,-1,1427,1695,5.9512,-8.11662
210,-671,4.73596,8.39624,0,0,0,0,0,0,0,-1,1434,1695,4.736,-8.39618
217,-671,5.37097,11.863,0,0,0,0,0,0,0,-1,1441,1695,5.37094,-11.863
224,-671,5.08167,13.6694,0,0,0,0,0,0,0,-1,1448,1695,5.08165,-13.6695
231,-671,5.66663,15.3348,0,0,0,0,0,0,0,-1,1455,1695,5.66667,-15.3349
238,-671,6.32959,16.2036,0,0,0,0,0,0,0,-1,1462,1695,6.32961,-16.2037
245,-671,5.95264,15.9324,0,0,0,0,0,0,0,-1,1469,1695,5.95259,-15.9324
252,-671,5.72644,16.4963,0,0,0,0,0,0,0,-1,1476,1695,5.72643,-16.4963
259,-671,5.68286,16.4414,0,0,0,0,0,0,0,-1,1483,1695,5.68283,-16.4413
266,-671,5.72107,16.6016,0.00209889,-0.00535903,0.00209878,0.00264895,-0.00590909,0.256321,0.00505908,0.0219694,1490,1695,5.72106,-16.6016
273,-671,5.75171,16.5376,0.00200282,-0.00529877,0.00214849,0.00258809,-0.00588405,0.26596,0.00501326,0.00940964,1497,1695,5.75167,-16.5376
280,-671,5.74866,16.4468,0.00181662,-0.0047461,0.00207306,0.00241661,-0.00534609,0.281726,0.00458694,0.00897962,1504,1695,5.74861,-16.4468
287,-671,5.7478,16.3295,0.00160765,-0.00401813,0.00194424,0.00221418,-0.00462466,0.302394,0.00402933,0.0105596,1511,1695,5.74775,-16.3295
294,-671,5.75781,16.2134,0.00133411,-0.00341224,0.00183152,0.00195867,-0.0040368,0.328642,0.00353012,0.0107835,1518,1695,5.75779,-16.2133
301,-671,5.77344,16.1166,0.00101016,-0.00280506,0.00162494,0.00160842,-0.00340333,0.352775,0.00295474,0.0105529,1525,1695,5.77348,-16.1166
308,-671,5.78052,15.9982,0.00075304,-0.00227515,0.0014244,0.00131774,-0.00283985,0.377443,0.00245343,0.01093,1532,1695,5.78047,-15.9982
315,-671,5.80078,15.885,0.000608546,-0.00189447,0.0012549,0.00112934,-0.00241526,0.393375,0.00209088,0.0123688,1539,1695,5.80078,-15.885
322,-671,5.8064,15.7714,0.000542138,-0.00163112,0.00103621,0.000957009,-0.00204599,0.380826,0.00177138,0.0144625,1546,1695,5.80643,-15.7713
329,-671,5.78113,15.6383,0.00052533,-0.0015052,0.000805279,0.000805918,-0.00178579,0.335281,0.00153156,0.0129764,1553,1695,5.7811,-15.6383
336,-671,5.77417,15.4912,0.00057242,-0.00137561,0.000448445,0.000670696,-0.00147389,0.215738,0.00126679,0.0108675,1560,1695,5.77419,-15.4913
343,-671,5.78955,15.3468,0.000622758,-0.00138708,6.52819e-05,0.000624876,-0.0013892,0.0324356,0.00119041,0.0108522,1567,1695,5.7896,-15.3468
350,-671,5.80566,15.2076,0.000780092,-0.00150974,-0.000331232,0.000827043,-0.00155669,-0.140809,0.00139757,0.0104051,1574,1695,5.80572,-15.2076
357,-671,5.78235,15.0468,0.00101716,-0.00163713,-0.000790532,0.00123476,-0.00185473,-0.268613,0.00179565,0.00978739,1581,1695,5.78237,-15.0467
364,-671,5.7699,14.8971,0.0012082,-0.0016604,-0.0013145,0.00171944,-0.00217164,-0.370921,0.00225157,0.0120221,1588,1695,5.7699,-14.8972
371,-671,5.771,14.7775,0.00145791,-0.0017351,-0.001864,0.00231565,-0.00259284,-0.431272,0.00283543,0.0138912,1595,1695,5.77098,-14.7775
378,-671,5.7771,14.6377,0.00176514,-0.0015927,-0.0025087,0.00310489,-0.00293244,-0.490507,0.00348613,0.0117799,1602,1695,5.77708,-14.6377
385,-671,5.78125,14.4673,0.00200349,-0.000941826,-0.00332251,0.00416509,-0.00310342,-0.576791,0.00421137,0.0132722,1609,1695,5.78125,-14.4673
392,-671,5.74963,14.3295,0.002039,0.00045747,-0.00407005,0.00539439,-0.00289792,-0.689449,0.00485935,0.0186835,1616,1695,5.74968,-14.3294
399,-671,5.72778,14.1241,0.00204358,0.00150246,-0.00466325,0.00644411,-0.00289808,-0.756421,0.00552171,0.0146193,1623,1695,5.72784,-14.1241
406,-671,5.76306,13.9658,0.00199826,0.0031565,-0.00547659,0.00808451,-0.00292975,-0.838075,0.00658713,0.0200282,1630,1695,5.76304,-13.9658
413,-671,5.74841,13.8547,0.00172267,0.00473342,-0.00625736,0.00966393,-0.00320785,-0.903443,0.00773685,0.0308697,1637,1695,5.74846,-13.8547
420,-671,5.82813,13.6554,0.00111569,0.00614522,-0.00680076,0.0108813,-0.00362036,-0.96249,0.00871533,0.0496273,1644,1695,5.82816,-13.6554
427,-671,5.97717,13.2388,0,0,0,0,0,0,0,-1,1651,1695,5.97711,-13.2387
434,-671,6.22266,12.7115,0,0,0,0,0,0,0,-1,1658,1695,6.22265,-12.7115
441,-671,5.63269,12.2788,0,0,0,0,0,0,0,-1,1665,1695,5.63266,-12.2788
448,-671,5.27502,11.249,0,0,0,0,0,0,0,-1,1672,1695,5.27497,-11.249
455,-671,3.40137,9.28076,0,0,0,0,0,0,0,-1,1679,1695,3.40135,-9.28082
462,-671,5.86255,4.47961,0,0,0,0,0,0,0,-1,1686,1695,5.8625,-4.4796
469,-671,3.71301,3.76978,0,0,0,0,0,0,0,-1,1693,1695,3.71297,-3.76974
476,-671,3.75574,3.18848,0,0,0,0,0,0,0,-1,1700,1695,3.7558,-3.18847
483,-671,7.81824,12.1041,0,0,0,0,0,0,0,-1,1707,1695,7.81826,-12.1041
490,-671,0,0,0,0,0,0,0,0,0,-1,1714,1695,0,0
497,-671,0,0,0,0,0,0,0,0,0,-1,1721,1695,0,0
504,-671,0,0,0,0,0,0,0,0,0,-1,1728,1695,0,0
511,-671,0,0,0,0,0,0,0,0,0,-1,1735,1695,0,0
518,-671,0,0,0,0,0,0,0,0,0,-1,1742,1695,0,0
525,-671,0,0,0,0,0,0,0,0,0,-1,1749,1695,0,0
532,-671,0,0,0,0,0,0,0,0,0,-1,1756,1695,0,0
539,-671,0,0,0,0,0,0,0,0,0,-1,1763,1695,0,0
546,-671,0,0,0,0,0,0,0,0,0,-1,1770,1695,0,0
553,-671,0,0,0,0,0,0,0,0,0,-1,1777,1695,0,0
560,-671,0,0,0,0,0,0,0,0,0,-1,1784,1695,0,0
567,-671,0,0,0,0,0,0,0,0,0,-1,1791,1695,0,0
574,-671,0,0,0,0,0,0,0,0,0,-1,1798,1695,0,0
581,-671,0,0,0,0,0,0,0,0,0,-1,1805,1695,0,0
588,-671,0,0,0,0,0,0,0,0,0,-1,1812,1695,0,0
595,-671,0,0,0,0,0,0,0,0,0,-1,1819,1695,0,0
602,-671,0,0,0,0,0,0,0,0,0,-1,1826,1695,0,0
609,-671,0,0,0,0,0,0,0,0,0,-1,1833,1695,0,0
616,-671,0,0,0,0,0,0,0,0,0,-1,1840,1695,0,0
623,-671,0,0,0,0,0,0,0,0,0,-1,1847,1695,0,0
630,-671,0,0,0,0,0,0,0,0,0,-1,1854,1695,0,0
637,-671,0,0,0,0,0,0,0,0,0,-1,1861,1695,0,0
644,-671,0,0,0,0,0,0,0,0,0,-1,1868,1695,0,0
651,-671,0,0,0,0,0,0,0,0,0,-1,1875,1695,0,0
658,-671,0,0,0,0,0,0,0,0,0,-1,1882,1695,0,0
665,-671,0,0,0,0,0,0,0,0,0,-1,1889,1695,0,0
672,-671,0,0,0,0,0,0,0,0,0,-1,1896,1695,0,0
679,-671,0,0,0,0,0,0,0,0,0,-1,1903,1695,0,0
686,-671,0,0,0,0,0,0,0,0,0,-1,1910,1695,0,0
693,-671,0,0,0,0,0,0,0,0,0,-1,1917,1695,0,0
700,-671,0,0,0,0,0,0,0,0,0,-1,1924,1695,0,0
707,-671,0,0,0,0,0,0,0,0,0,-1,1931,1695,0,0
714,-671,0,0,0,0,0,0,0,0,0,-1,1938,1695,0,0
721,-671,0,0,0,0,0,0,0,0,0,-1,1945,1695,0,0
728,-671,0,0,0,0,0,0,0,0,0,-1,1952,1695,0,0
735,-671,0,0,0,0,0,0,0,0,0,-1,1959,1695,0,0
742,-671,0,0,0,0,0,0,0,0,0,-1,1966,1695,0,0
749,-671,0,0,0,0,0,0,0,0,0,-1,1973,1695,0,0
756,-671,0,0,0,0,0,0,0,0,0,-1,1980,1695,0,0
763,-671,0,0,0,0,0,0,0,0,0,-1,1987,1695,0,0
770,-671,0,0,0,0,0,0,0,0,0,-1,1994,1695,0,0
777,-671,0,0,0,0,0,0,0,0,0,-1,2001,1695,0,0
784,-671,0,0,0,0,0,0,0,0,0,-1,2008,1695,0,0
791,-671,0,0,0,0,0,0,0,0,0,-1,2015,1695,0,0
798,-671,0,0,0,0,0,0,0,0,0,-1,2022,1695,0,0
805,-671,0,0,0,0,0,0,0,0,0,-1,2029,1695,0,0
812,-671,0,0,0,0,0,0,0,0,0,-1,2036,1695,0,0
-700,-678,0,0,0,0,0,0,0,0,0,-1,524,1702,0,0
-693,-678,0,0,0,0,0,0,0,0,0,-1,531,1702,0,0
-686,-678,0,0,0,0,0,0,0,0,0,-1,538,1702,0,0
-679,-678,0,0,0,0,0,0,0,0,0,-1,545,1702,0,0
-672,-678,0,0,0,0,0,0,0,0,0,-1,552,1702,0,0
-665,-678,0,0,0,0,0,0,0,0,0,-1,559,1702,0,0
-658,-678,0,0,0,0,0,0,0,0,0,-1,566,1702,0,0
-651,-678,0,0,0,0,0,0,0,0,0,-1,573,1702,0,0
-644,-678,0,0,0,0,0,0,0,0,0,-1,580,1702,0,0
-637,-678,0,0,0,0,0,0,0,0,0,-1,587,1702,0,0
-630,-678,0,0,0,0,0,0,0,0,0,-1,594,1702,0,0
-623,-678,0,0,0,0,0,0,0,0,0,-1,601,1702,0,0
-616,-678,0,0,0,0,0,0,0,0,0,-1,608,1702,0,0
-609,-678,0,0,0,0,0,0,0,0,0,-1,615,1702,0,0
-602,-678,0,0,0,0,0,0,0,0,0,-1,622,1702,0,0
-595,-678,0,0,0,0,0,0,0,0,0,-1,629,1702,0,0
-588,-678,0,0,0,0,0,0,0,0,0,-1,636,1702,0,0
-581,-678,0,0,0,0,0,0,0,0,0,-1,643,1702,0,0
-574,-678,0,0,0,0,0,0,0,0,0,-1,650,1702,0,0
-567,-678,0,0,0,0,0,0,0,0,0,-1,657,1702,0,0
-560,-678,0,0,0,0,0,0,0,0,0,-1,664,1702,0,0
-553,-678,0,0,0,0,0,0,0,0,0,-1,671,1702,0,0
-546,-678,0,0,0,0,0,0,0,0,0,-1,678,1702,0,0
-539,-678,0,0,0,0,0,0,0,0,0,-1,685,1702,0,0
-532,-678,0,0,0,0,0,0,0,0,0,-1,692,1702,0,0
-525,-678,0,0,0,0,0,0,0,0,0,-1,699,1702,0,0
-518,-678,0,0,0,0,0,0,0,0,0,-1,706,1702,0,0
-511,-678,0,0,0,0,0,0,0,0,0,-1,713,1702,0,0
-504,-678,0,0,0,0,0,0,0,0,0,-1,720,1702,0,0
-497,-678,0,0,0,0,0,0,0,0,0,-1,727,1702,0,0
-490,-678,0,0,0,0,0,0,0,0,0,-1,734,1702,0,0
-483,-678,0,0,0,0,0,0,0,0,0,-1,741,1702,0,0
-476,-678,0,0,0,0,0,0,0,0,0,-1,748,1702,0,0
-469,-678,0,0,0,0,0,0,0,0,0,-1,755,1702,0,0
-462,-678,0,0,0,0,0,0,0,0,0,-1,762,1702,0,0
-455,-678,0,0,0,0,0,0,0,0,0,-1,769,1702,0,0
-448,-678,0,0,0,0,0,0,0,0,0,-1,776,1702,0,0
-441,-678,0,0,0,0,0,0,0,0,0,-1,783,1702,0,0
-434,-678,0,0,0,0,0,0,0,0,0,-1,790,1702,0,0
-427,-678,0,0,0,0,0,0,0,0,0,-1,797,1702,0,0
-420,-678,0,0,0,0,0,0,0,0,0,-1,804,1702,0,0
-413,-678,0,0,0,0,0,0,0,0,0,-1,811,1702,0,0
-406,-678,0,0,0,0,0,0,0,0,0,-1,818,1702,0,0
-399,-678,0,0,0,0,0,0,0,0,0,-1,825,1702,0,0
-392,-678,0,0,0,0,0,0,0,0,0,-1,832,1702,0,0
-385,-678,0,0,0,0,0,0,0,0,0,-1,839,1702,0,0
-378,-678,0,0,0,0,0,0,0,0,0,-1,846,1702,0,0
-371,-678,0,0,0,0,0,0,0,0,0,-1,853,1702,0,0
-364,-678,0,0,0,0,0,0,0,0,0,-1,860,1702,0,0
-357,-678,0,0,0,0,0,0,0,0,0,-1,867,1702,0,0
-350,-678,-5.79944,6.11865,0,0,0,0,0,0,0,-1,874,1702,-5.79942,-6.11864
-343,-678,-6.44891,4.52759,0,0,0,0,0,0,0,-1,881,1702,-6.4489,-4.52758
-336,-678,-6.91888,2.99438,0,0,0,0,0,0,0,-1,888,1702,-6.9189,-2.99435
-329,-678,-7.14575,1.29761,0,0,0,0,0,0,0,-1,895,1702,-7.14577,-1.29755
-322,-678,-7.38513,-0.420044,0,0,0,0,0,0,0,-1,902,1702,-7.38514,0.420091
-315,-678,5.38995,10.121,0,0,0,0,0,0,0,-1,909,1702,5.38998,-10.121
-308,-678,5.901,12.4708,0,0,0,0,0,0,0,-1,916,1702,5.90103,-12.4708
-301,-678,4.3858,12.2661,0,0,0,0,0,0,0,-1,923,1702,4.38581,-12.2661
-294,-678,4.48895,12.6553,0,0,0,0,0,0,0,-1,930,1702,4.48893,-12.6553
-287,-678,4.41412,12.8601,0,0,0,0,0,0,0,-1,937,1702,4.4141,-12.8601
-280,-678,4.22101,13.0247,-0.00835904,-0.0157996,-0.0236315,0.0118433,-0.0360019,-0.707325,0.0287733,0.0470552,944,1702,4.22103,-13.0246
-273,-678,4.22131,13.2688,-0.00509193,-0.013928,-0.0203699,0.0113336,-0.0303535,-0.678607,0.0248891,0.043126,951,1702,4.22134,-13.2688
-266,-678,4.07648,13.4492,0,0,0,0,0,0,0,-1,958,1702,4.07646,-13.4492
-259,-678,4.2265,13.5244,-0.00165047,-0.0118684,-0.0140255,0.00816758,-0.0216864,-0.610736,0.0178155,0.0225803,965,1702,4.22647,-13.5244
-252,-678,4.27173,13.6348,-0.000297957,-0.0110533,-0.0110893,0.00664878,-0.018,-0.559633,0.0147254,0.0193039,972,1702,4.27174,-13.6348
-245,-678,4.30334,13.8156,0.000220761,-0.0101267,-0.00865625,0.00513159,-0.0150375,-0.51604,0.0121037,0.019027,979,1702,4.30335,-13.8156
-238,-678,4.30347,13.9961,0.000125831,-0.00909569,-0.00645229,0.00344546,-0.0124153,-0.475172,0.009633,0.0152479,986,1702,4.30349,-13.9961
-231,-678,4.28467,14.1814,0.000135497,-0.00791252,-0.00431407,0.00201097,-0.009788,-0.410086,0.00728872,0.0119335,993,1702,4.28464,-14.1814
-224,-678,4.26367,14.3527,9.75052e-05,-0.00700685,-0.00258595,0.000939084,-0.00784843,-0.314632,0.00557176,0.0122103,1000,1702,4.26365,-14.3527
-217,-678,4.27179,14.533,-0.000184657,-0.00638906,-0.00153022,0.000172222,-0.00674593,-0.229125,0.00455578,0.0132623,1007,1702,4.27178,-14.5329
-210,-678,4.27332,14.6802,-0.000453791,-0.0056027,-0.000932889,-0.00028998,-0.00576651,-0.173823,0.00375142,0.0139807,1014,1702,4.27329,-14.6802
-203,-678,4.24548,14.8082,-0.000329287,-0.00475668,-0.000615276,-0.000245373,-0.0048406,-0.135549,0.00314846,0.0181747,1021,1702,4.24543,-14.8082
-196,-678,4.24719,14.9648,-3.50693e-05,-0.00369821,-0.000407582,9.73255e-06,-0.00374301,-0.109482,0.00249859,0.0175803,1028,1702,4.24715,-14.9648
-189,-678,4.26221,15.1346,0.000370266,-0.00277776,-0.000284039,0.000395689,-0.00280318,-0.0892671,0.00201369,0.0102736,1035,1702,4.26227,-15.1346
-182,-678,4.25684,15.2896,0.000932327,-0.00175277,-0.000216337,0.000949645,-0.00177009,-0.0798828,0.00159388,0.00959831,1042,1702,4.2568,-15.2896
-175,-678,4.24377,15.4312,0.00162417,-0.000664409,-0.000219412,0.00164501,-0.000685255,-0.0947227,0.0013829,0.0104099,1049,1702,4.24379,-15.4312
-168,-678,4.25452,15.563,0.00235641,0.000212113,-0.000162837,0.00236871,0.000199818,-0.0753636,0.00151693,0.0102369,1056,1702,4.25449,-15.563
-161,-678,4.25403,15.6885,0.00328211,0.000989372,-3.54376e-05,0.00328266,0.000988825,-0.0154515,0.00194453,0.0092832,1063,1702,4.25407,-15.6885
-154,-678,4.24902,15.8185,0.00437983,0.0014638,3.23082e-05,0.00438019,0.00146344,0.0110777,0.00257489,0.00871509,1070,1702,4.24903,-15.8184
-147,-678,4.25464,15.9437,0.00548597,0.00142732,9.66705e-05,0.00548828,0.00142502,0.0238004,0.00328843,0.010279,1077,1702,4.2547,-15.9437
-140,-678,4.2699,16.0859,0.00653416,0.000878959,0.000115965,0.00653654,0.000876582,0.0204944,0.00409688,0.0115004,1084,1702,4.26988,-16.0859
-133,-678,4.29565,16.1958,0.00760483,0.00020944,0.000191368,0.00760978,0.000204492,0.0258535,0.00500642,0.0112712,1091,1702,4.29561,-16.1957
-126,-678,4.30518,16.3154,0.00854339,-0.000559028,0.000430451,0.0085637,-0.000579339,0.0471494,0.00591172,0.00871787,1098,1702,4.30517,-16.3154
-119,-678,4.32117,16.4698,0.00925153,-0.00147385,0.000794987,0.00931013,-0.00153245,0.0735862,0.00677559,0.0184355,1105,1702,4.32118,-16.4698
-112,-678,4.32361,16.5856,0.00976481,-0.00271554,0.00108357,0.00985819,-0.00280892,0.085965,0.00768157,0.0275866,1112,1702,4.32364,-16.5856
-105,-678,4.36743,16.6761,0.0101061,-0.00392229,0.00156747,0.0102791,-0.0040953,0.109929,0.00855121,0.0298905,1119,1702,4.36738,-16.6761
-98,-678,4.3811,16.6453,0.00984767,-0.00497031,0.00211028,0.0101423,-0.00526499,0.13874,0.00904277,0.022086,1126,1702,4.38116,-16.6452
-91,-678,4.39551,16.7515,0.00866114,-0.0067641,0.00280042,0.00915382,-0.00725678,0.174147,0.00949574,0.0216315,1133,1702,4.39547,-16.7515
-84,-678,4.45447,16.7607,0.00730884,-0.00748464,0.00306925,0.00792035,-0.00809615,0.196662,0.00924732,0.0346272,1140,1702,4.45449,-16.7607
-77,-678,4.52063,17.1187,0,0,0,0,0,0,0,-1,1147,1702,4.52063,-17.1186
-70,-678,4.68506,17.4696,0,0,0,0,0,0,0,-1,1154,1702,4.68507,-17.4696
-63,-678,3.41687,11.0365,0,0,0,0,0,0,0,-1,1161,1702,3.41682,-11.0365
-56,-678,1.72388,6.13159,0,0,0,0,0,0,0,-1,1168,1702,1.72388,-6.13157
-49,-678,-0.241699,5.29895,0,0,0,0,0,0,0,-1,1175,1702,-0.241682,-5.29897
-42,-678,0.297119,3.90649,0,0,0,0,0,0,0,-1,1182,1702,0.297139,-3.90655
-35,-678,0.498413,3.64038,0,0,0,0,0,0,0,-1,1189,1702,0.498471,-3.64038
-28,-678,0.132446,3.55994,0,0,0,0,0,0,0,-1,1196,1702,0.132432,-3.55993
-21,-678,4.64734,17.3641,0,0,0,0,0,0,0,-1,1203,1702,4.64737,-17.3641
-14,-678,4.78418,17.3346,0.0426267,0.0424178,0.00129212,0.0438186,0.0412259,0.745073,0.0283877,0.0388964,1210,1702,4.78423,-17.3346
-7,-678,4.83203,17.3531,0.0424257,0.04518,0.00235384,0.0465299,0.0410757,1.05008,0.0293712,0.0455664,1217,1702,4.83205,-17.3532
0,-678,5.37134,18.4486,0.0409819,0.046671,0.00348577,0.0483255,0.0393273,1.12762,0.0296759,0.0458708,1224,1702,5.37133,-18.4486
7,-678,5.22058,19.2435,0.0381275,0.0456763,0.00452324,0.0477931,0.0360107,1.1331,0.0287509,0.0477611,1231,1702,5.22052,-19.2435
14,-678,5.5415,18.2839,0.034116,0.0425055,0.00574025,0.0454204,0.0312012,1.10094,0.0268275,0.0479432,1238,1702,5.5415,-18.2839
21,-678,5.41455,18.755,0.0285691,0.0376891,0.00695926,0.0414493,0.024809,1.07542,0.0240852,0.0422942,1245,1702,5.41459,-18.755
28,-678,5.61768,17.7065,0.0223252,0.0323132,0.00807052,0.0368099,0.0178285,1.06246,0.0212557,0.0439853,1252,1702,5.61771,-17.7065
35,-678,4.94507,17.6497,0.0153302,0.0262565,0.00919178,0.0314861,0.0101006,1.05352,0.0185636,0.0440131,1259,1702,4.94506,-17.6497
42,-678,4.95239,17.7855,0,0,0,0,0,0,0,-1,1266,1702,4.95235,-17.7856
49,-678,5.08105,17.8722,0,0,0,0,0,0,0,-1,1273,1702,5.08108,-17.8722
56,-678,5.74475,17.1051,0,0,0,0,0,0,0,-1,1280,1702,5.74481,-17.1051
63,-678,5.62366,17.3248,0,0,0,0,0,0,0,-1,1287,1702,5.62369,-17.3248
70,-678,5.22327,18.1541,-0.0191769,0.000862823,0.0140924,0.00813435,-0.0264484,1.09444,0.0208788,0.0451344,1294,1702,5.22321,-18.154
77,-678,4.80908,17.7108,-0.0236983,-0.000185839,0.0147107,0.00688912,-0.0307732,1.12251,0.023156,0.0465477,1301,1702,4.80909,-17.7108
84,-678,4.17981,17.619,-0.0274852,0.000280727,0.0156106,0.0072886,-0.034493,1.14884,0.0257708,0.0470573,1308,1702,4.17984,-17.619
91,-678,3.35535,17.3247,-0.0280542,0.00741163,0.0166552,0.0140067,-0.0346493,1.19376,0.028922,0.0460693,1315,1702,3.35534,-17.3247
98,-678,2.65112,17.095,0,0,0,0,0,0,0,-1,1322,1702,2.65114,-17.0949
105,-678,2.64929,18.1984,0,0,0,0,0,0,0,-1,1329,1702,2.64934,-18.1983
112,-678,4.755,16.6753,0,0,0,0,0,0,0,-1,1336,1702,4.75498,-16.6753
119,-678,4.87781,16.7163,-0.0259981,0.0309734,0.0215215,0.0381894,-0.0332141,1.24728,0.0412582,0.0466348,1343,1702,4.87781,-16.7163
126,-678,4.98157,16.7648,-0.0242403,0.0386519,0.0229829,0.0461554,-0.0317438,1.25523,0.045231,0.0473208,1350,1702,4.98159,-16.7648
133,-678,4.79321,16.9042,-0.0222015,0.0467184,0.0245584,0.054574,-0.0300571,1.26121,0.0495405,0.0486867,1357,1702,4.79326,-16.9042
140,-678,4.39648,17.3707,-0.0195039,0.0552726,0.0259065,0.063371,-0.0276023,1.26782,0.0538597,0.0483271,1364,1702,4.39654,-17.3707
147,-678,5.08362,17.7904,-0.0177901,0.0619547,0.0270039,0.0702385,-0.0260738,1.27315,0.0575217,0.0446982,1371,1702,5.08361,-17.7904
154,-678,5.67114,18.2122,0,0,0,0,0,0,0,-1,1378,1702,5.67111,-18.2121
161,-678,3.44202,4.53992,0,0,0,0,0,0,0,-1,1385,1702,3.442,-4.53996
168,-678,4.21863,5.25781,0,0,0,0,0,0,0,-1,1392,1702,4.21865,-5.25781
175,-678,5.21899,5.9635,0,0,0,0,0,0,0,-1,1399,1702,5.21894,-5.96346
182,-678,7.31262,6.75122,0,0,0,0,0,0,0,-1,1406,1702,7.3126,-6.75123
189,-678,5.96021,6.36853,0,0,0,0,0,0,0,-1,1413,1702,5.96018,-6.36851
196,-678,5.01599,8.15771,0,0,0,0,0,0,0,-1,1420,1702,5.01596,-8.15767
203,-678,4.64771,13.0559,0,0,0,0,0,0,0,-1,1427,1702,4.64766,-13.0559
210,-678,5.67554,18.0277,0,0,0,0,0,0,0,-1,1434,1702,5.67558,-18.0277
217,-678,5.65527,17.2875,0,0,0,0,0,0,0,-1,1441,1702,5.65528,-17.2874
224,-678,5.44495,17.0499,0,0,0,0,0,0,0,-1,1448,1702,5.44497,-17.0499
231,-678,5.4939,17.0029,0,0,0,0,0,0,0,-1,1455,1702,5.49395,-17.0029
238,-678,5.61572,16.9714,0,0,0,0,0,0,0,-1,1462,1702,5.61576,-16.9714
245,-678,5.61926,16.9429,0,0,0,0,0,0,0,-1,1469,1702,5.61931,-16.9429
252,-678,5.62451,16.833,0.00161947,-0.00320028,0.000957474,0.00180271,-0.00338352,0.189094,0.00304028,0.0282446,1476,1702,5.62448,-16.833
259,-678,5.61011,16.7795,0.00158434,-0.00349064,0.00121597,0.00186065,-0.00376695,0.223435,0.00331065,0.0161952,1483,1702,5.61005,-16.7796
266,-678,5.63489,16.6924,0.00156793,-0.00393984,0.00148702,0.00194376,-0.00431567,0.247556,0.00369936,0.0108301,1490,1702,5.6349,-16.6924
273,-678,5.66125,16.5894,0.0015391,-0.00367503,0.00148,0.0019299,-0.00406583,0.258161,0.0035341,0.011076,1497,1702,5.66124,-16.5893
280,-678,5.65002,16.4771,0.00140527,-0.00311275,0.00137397,0.0017903,-0.00349778,0.27322,0.00310567,0.0116202,1504,1702,5.64996,-16.4771
287,-678,5.64087,16.3502,0.00122632,-0.00247874,0.00126224,0.00161547,-0.00286789,0.299054,0.00262192,0.0110668,1511,1702,5.64092,-16.3502
294,-678,5.6394,16.2283,0.000992664,-0.00188652,0.001154,0.0013981,-0.00229196,0.337863,0.0021512,0.0115267,1518,1702,5.63936,-16.2282
301,-678,5.63757,16.1125,0.000678167,-0.00136179,0.00100105,0.00108733,-0.00177095,0.388016,0.00166589,0.0117389,1525,1702,5.63758,-16.1126
308,-678,5.65576,15.9919,0.00042223,-0.000955821,0.000873108,0.000845442,-0.00137903,0.451349,0.00129656,0.0125286,1532,1702,5.6558,-15.9919
315,-678,5.68359,15.8772,0.000308257,-0.000747055,0.000747774,0.000695799,-0.0011346,0.478149,0.00106685,0.0133909,1539,1702,5.68356,-15.8772
322,-678,5.67151,15.7651,0.000290216,-0.000722583,0.000548561,0.000530381,-0.000962749,0.412671,0.000874023,0.0162796,1546,1702,5.67149,-15.7652
329,-678,5.63965,15.6414,0.000305076,-0.000866467,0.000358493,0.000406069,-0.00096746,0.274599,0.000814787,0.0141503,1553,1702,5.63968,-15.6414
336,-678,5.63074,15.4905,0.000436663,-0.00100372,-5.31815e-06,0.000436682,-0.00100374,-0.00369212,0.000852836,0.0119154,1560,1702,5.63077,-15.4905
343,-678,5.63721,15.3547,0.000586778,-0.00126159,-0.000408443,0.00067301,-0.00134782,-0.20807,0.00118821,0.0116584,1567,1702,5.63722,-15.3548
350,-678,5.63574,15.2281,0.000852505,-0.00169494,-0.000836738,0.00110276,-0.00194519,-0.290613,0.001782,0.0113639,1574,1702,5.6357,-15.2282
357,-678,5.64368,15.0721,0.00121911,-0.00209915,-0.00136286,0.00170709,-0.00258713,-0.343835,0.00249657,0.00900579,1581,1702,5.64362,-15.0722
364,-678,5.62695,14.9277,0.00155644,-0.00234202,-0.0019914,0.00239381,-0.0031794,-0.39805,0.00322833,0.0114334,1588,1702,5.62698,-14.9277
371,-678,5.61304,14.7762,0.00197823,-0.00261238,-0.00267426,0.00320714,-0.00384129,-0.430753,0.0040749,0.0125438,1595,1702,5.61302,-14.7762
378,-678,5.6261,14.6071,0.00246855,-0.00259007,-0.00349667,0.0042548,-0.00437633,-0.472286,0.00498335,0.0138366,1602,1702,5.62616,-14.607
385,-678,5.63208,14.4705,0.00285709,-0.00188017,-0.00452312,0.00559425,-0.00461732,-0.544195,0.00590464,0.0185041,1609,1702,5.63205,-14.4704
392,-678,5.61963,14.3698,0.00300474,-0.000235824,-0.00547859,0.00709762,-0.0043287,-0.641623,0.00666124,0.0324674,1616,1702,5.61967,-14.3698
399,-678,5.5249,14.2126,0.00305992,0.00103746,-0.00623855,0.00836867,-0.00427129,-0.70505,0.00742439,0.041169,1623,1702,5.52496,-14.2127
406,-678,5.6377,14.0278,0.00304299,0.0031824,-0.00731971,0.0104327,-0.00420735,-0.790159,0.00870346,0.0418819,1630,1702,5.63775,-14.0278
413,-678,5.63696,13.7712,0.00262733,0.00538143,-0.00829828,0.0124161,-0.00440738,-0.867621,0.0100732,0.0467577,1637,1702,5.63699,-13.7712
420,-678,5.71252,13.6921,0,0,0,0,0,0,0,-1,1644,1702,5.7125,-13.6921
427,-678,4.57483,10.1555,0,0,0,0,0,0,0,-1,1651,1702,4.57485,-10.1555
434,-678,5.73999,11.7773,0,0,0,0,0,0,0,-1,1658,1702,5.73994,-11.7774
441,-678,4.47729,11.1503,0,0,0,0,0,0,0,-1,1665,1702,4.47728,-11.1503
448,-678,3.25525,9.74719,0,0,0,0,0,0,0,-1,1672,1702,3.25522,-9.7472
455,-678,5.44678,5.54297,0,0,0,0,0,0,0,-1,1679,1702,5.44676,-5.54294
462,-678,3.86792,2.87402,0,0,0,0,0,0,0,-1,1686,1702,3.86796,-2.87406
469,-678,2.26587,1.98755,0,0,0,0,0,0,0,-1,1693,1702,2.26592,-1.98755
476,-678,0,0,0,0,0,0,0,0,0,-1,1700,1702,0,0
483,-678,0,0,0,0,0,0,0,0,0,-1,1707,1702,0,0
490,-678,0,0,0,0,0,0,0,0,0,-1,1714,1702,0,0
497,-678,0,0,0,0,0,0,0,0,0,-1,1721,1702,0,0
504,-678,0,0,0,0,0,0,0,0,0,-1,1728,1702,0,0
511,-678,0,0,0,0,0,0,0,0,0,-1,1735,1702,0,0
518,-678,0,0,0,0,0,0,0,0,0,-1,1742,1702,0,0
525,-678,0,0,0,0,0,0,0,0,0,-1,1749,1702,0,0
532,-678,0,0,0,0,0,0,0,0,0,-1,1756,1702,0,0
539,-678,0,0,0,0,0,0,0,0,0,-1,1763,1702,0,0
546,-678,0,0,0,0,0,0,0,0,0,-1,1770,1702,0,0
553,-678,0,0,0,0,0,0,0,0,0,-1,1777,1702,0,0
560,-678,0,0,0,0,0,0,0,0,0,-1,1784,1702,0,0
567,-678,0,0,0,0,0,0,0,0,0,-1,1791,1702,0,0
574,-678,0,0,0,0,0,0,0,0,0,-1,1798,1702,0,0
581,-678,0,0,0,0,0,0,0,0,0,-1,1805,1702,0,0
588,-678,0,0,0,0,0,0,0,0,0,-1,1812,1702,0,0
595,-678,0,0,0,0,0,0,0,0,0,-1,1819,1702,0,0
602,-678,0,0,0,0,0,0,0,0,0,-1,1826,1702,0,0
609,-678,0,0,0,0,0,0,0,0,0,-1,1833,1702,0,0
616,-678,0,0,0,0,0,0,0,0,0,-1,1840,1702,0,0
623,-678,0,0,0,0,0,0,0,0,0,-1,1847,1702,0,0
630,-678,0,0,0,0,0,0,0,0,0,-1,1854,1702,0,0
637,-678,0,0,0,0,0,0,0,0,0,-1,1861,1702,0,0
644,-678,0,0,0,0,0,0,0,0,0,-1,1868,1702,0,0
651,-678,0,0,0,0,0,0,0,0,0,-1,1875,1702,0,0
658,-678,0,0,0,0,0,0,0,0,0,-1,1882,1702,0,0
665,-678,0,0,0,0,0,0,0,0,0,-1,1889,1702,0,0
672,-678,0,0,0,0,0,0,0,0,0,-1,1896,1702,0,0
679,-678,0,0,0,0,0,0,0,0,0,-1,1903,1702,0,0
686,-678,0,0,0,0,0,0,0,0,0,-1,1910,1702,0,0
693,-678,0,0,0,0,0,0,0,0,0,-1,1917,1702,0,0
700,-678,0,0,0,0,0,0,0,0,0,-1,1924,1702,0,0
707,-678,0,0,0,0,0,0,0,0,0,-1,1931,1702,0,0
714,-678,0,0,0,0,0,0,0,0,0,-1,1938,1702,0,0
721,-678,0,0,0,0,0,0,0,0,0,-1,1945,1702,0,0
728,-678,0,0,0,0,0,0,0,0,0,-1,1952,1702,0,0
735,-678,0,0,0,0,0,0,0,0,0,-1,1959,1702,0,0
742,-678,0,0,0,0,0,0,0,0,0,-1,1966,1702,0,0
749,-678,0,0,0,0,0,0,0,0,0,-1,1973,1702,0,0
756,-678,0,0,0,0,0,0,0,0,0,-1,1980,1702,0,0
763,-678,0,0,0,0,0,0,0,0,0,-1,1987,1702,0,0
770,-678,0,0,0,0,0,0,0,0,0,-1,1994,1702,0,0
777,-678,0,0,0,0,0,0,0,0,0,-1,2001,1702,0,0
784,-678,0,0,0,0,0,0,0,0,0,-1,2008,1702,0,0
791,-678,0,0,0,0,0,0,0,0,0,-1,2015,1702,0,0
798,-678,0,0,0,0,0,0,0,0,0,-1,2022,1702,0,0
805,-678,0,0,0,0,0,0,0,0,0,-1,2029,1702,0,0
812,-678,0,0,0,0,0,0,0,0,0,-1,2036,1702,0,0
-700,-685,0,0,0,0,0,0,0,0,0,-1,524,1709,0,0
-693,-685,0,0,0,0,0,0,0,0,0,-1,531,1709,0,0
-686,-685,0,0,0,0,0,0,0,0,0,-1,538,1709,0,0
-679,-685,0,0,0,0,0,0,0,0,0,-1,545,1709,0,0
-672,-685,0,0,0,0,0,0,0,0,0,-1,552,1709,0,0
-665,-685,0,0,0,0,0,0,0,0,0,-1,559,1709,0,0
-658,-685,0,0,0,0,0,0,0,0,0,-1,566,1709,0,0
-651,-685,0,0,0,0,0,0,0,0,0,-1,573,1709,0,0
-644,-685,0,0,0,0,0,0,0,0,0,-1,580,1709,0,0
-637,-685,0,0,0,0,0,0,0,0,0,-1,587,1709,0,0
-630,-685,0,0,0,0,0,0,0,0,0,-1,594,1709,0,0
-623,-685,0,0,0,0,0,0,0,0,0,-1,601,1709,0,0
-616,-685,0,0,0,0,0,0,0,0,0,-1,608,1709,0,0
-609,-685,0,0,0,0,0,0,0,0,0,-1,615,1709,0,0
-602,-685,0,0,0,0,0,0,0,0,0,-1,622,1709,0,0
-595,-685,0,0,0,0,0,0,0,0,0,-1,629,1709,0,0
-588,-685,0,0,0,0,0,0,0,0,0,-1,636,1709,0,0
-581,-685,0,0,0,0,0,0,0,0,0,-1,643,1709,0,0
-574,-685,0,0,0,0,0,0,0,0,0,-1,650,1709,0,0
-567,-685,0,0,0,0,0,0,0,0,0,-1,657,1709,0,0
-560,-685,0,0,0,0,0,0,0,0,0,-1,664,1709,0,0
-553,-685,0,0,0,0,0,0,0,0,0,-1,671,1709,0,0
-546,-685,0,0,0,0,0,0,0,0,0,-1,678,1709,0,0
-539,-685,0,0,0,0,0,0,0,0,0,-1,685,1709,0,0
-532,-685,0,0,0,0,0,0,0,0,0,-1,692,1709,0,0
-525,-685,0,0,0,0,0,0,0,0,0,-1,699,1709,0,0
-518,-685,0,0,0,0,0,0,0,0,0,-1,706,1709,0,0
-511,-685,0,0,0,0,0,0,0,0,0,-1,713,1709,0,0
-504,-685,0,0,0,0,0,0,0,0,0,-1,720,1709,0,0
-497,-685,0,0,0,0,0,0,0,0,0,-1,727,1709,0,0
-490,-685,0,0,0,0,0,0,0,0,0,-1,734,1709,0,0
-483,-685,0,0,0,0,0,0,0,0,0,-1,741,1709,0,0
-476,-685,0,0,0,0,0,0,0,0,0,-1,748,1709,0,0
-469,-685,0,0,0,0,0,0,0,0,0,-1,755,1709,0,0
-462,-685,0,0,0,0,0,0,0,0,0,-1,762,1709,0,0
-455,-685,0,0,0,0,0,0,0,0,0,-1,769,1709,0,0
-448,-685,0,0,0,0,0,0,0,0,0,-1,776,1709,0,0
-441,-685,0,0,0,0,0,0,0,0,0,-1,783,1709,0,0
-434,-685,0,0,0,0,0,0,0,0,0,-1,790,1709,0,0
-427,-685,0,0,0,0,0,0,0,0,0,-1,797,1709,0,0
-420,-685,0,0,0,0,0,0,0,0,0,-1,804,1709,0,0
-413,-685,0,0,0,0,0,0,0,0,0,-1,811,1709,0,0
-406,-685,0,0,0,0,0,0,0,0,0,-1,818,1709,0,0
-399,-685,0,0,0,0,0,0,0,0,0,-1,825,1709,0,0
-392,-685,0,0,0,0,0,0,0,0,0,-1,832,1709,0,0
-385,-685,0,0,0,0,0,0,0,0,0,-1,839,1709,0,0
-378,-685,0,0,0,0,0,0,0,0,0,-1,846,1709,0,0
-371,-685,0,0,0,0,0,0,0,0,0,-1,853,1709,0,0
-364,-685,0,0,0,0,0,0,0,0,0,-1,860,1709,0,0
-357,-685,0,0,0,0,0,0,0,0,0,-1,867,1709,0,0
-350,-685,0,0,0,0,0,0,0,0,0,-1,874,1709,0,0
-343,-685,-5.98505,6.56335,0,0,0,0,0,0,0,-1,881,1709,-5.98505,-6.56329
-336,-685,-6.51312,5.10571,0,0,0,0,0,0,0,-1,888,1709,-6.51311,-5.10575
-329,-685,-6.81384,3.34106,0,0,0,0,0,0,0,-1,895,1709,-6.81385,-3.341
-322,-685,3.48425,16.3307,0,0,0,0,0,0,0,-1,902,1709,3.48425,-16.3307
-315,-685,3.66089,14.3413,0,0,0,0,0,0,0,-1,909,1709,3.66091,-14.3413
-308,-685,3.3689,15.4967,0,0,0,0,0,0,0,-1,916,1709,3.36887,-15.4967
-301,-685,3.80707,14.8901,0,0,0,0,0,0,0,-1,923,1709,3.80708,-14.8901
-294,-685,4.2052,14.344,0,0,0,0,0,0,0,-1,930,1709,4.20521,-14.344
-287,-685,4.5304,13.756,-0.0112106,-0.0197057,-0.0363561,0.0211453,-0.0520616,-0.727246,0.0435042,0.0493058,937,1709,4.53042,-13.7559
-280,-685,4.56097,13.5265,-0.00579488,-0.0177734,-0.0325401,0.0213026,-0.0448709,-0.694388,0.0390046,0.0499913,944,1709,4.56097,-13.5264
-273,-685,4.4502,13.5514,-0.00262489,-0.0156164,-0.0284136,0.0200261,-0.0382673,-0.673023,0.0342006,0.0480486,951,1709,4.45018,-13.5515
-266,-685,4.68927,13.6304,-0.000993759,-0.0146822,-0.0242517,0.017361,-0.0330369,-0.647867,0.0295627,0.0446006,958,1709,4.68926,-13.6304
-259,-685,4.75793,13.671,-0.000202205,-0.0142584,-0.0200911,0.0140546,-0.0285152,-0.617145,0.0250459,0.0387832,965,1709,4.75791,-13.671
-252,-685,4.71783,13.7448,0.000734299,-0.0137513,-0.0162618,0.0112933,-0.0243104,-0.575893,0.0210088,0.0375079,972,1709,4.71783,-13.7448
-245,-685,4.56787,13.8213,0.00087491,-0.0129493,-0.0129707,0.00866034,-0.0207347,-0.540588,0.017442,0.0358473,979,1709,4.56784,-13.8213
-238,-685,4.49927,13.9886,0.000448393,-0.0118985,-0.00992601,0.00596414,-0.0174142,-0.507198,0.0140267,0.0246698,986,1709,4.4993,-13.9886
-231,-685,4.44946,14.1887,0.000262832,-0.0105911,-0.00701247,0.00370304,-0.0140313,-0.456087,0.0108022,0.0153444,993,1709,4.44948,-14.1887
-224,-685,4.43317,14.3507,2.03941e-06,-0.00965785,-0.00455498,0.00181109,-0.0114669,-0.378054,0.00831431,0.0138966,1000,1709,4.43319,-14.3507
-217,-685,4.42767,14.5132,-0.000489307,-0.0089973,-0.00299259,0.000457858,-0.00994446,-0.306528,0.00678741,0.0109789,1007,1709,4.42767,-14.5132
-210,-685,4.42004,14.696,-0.000792649,-0.00785858,-0.00210644,-0.000212349,-0.00843888,-0.26882,0.00555649,0.0150544,1014,1709,4.42001,-14.6961
-203,-685,4.40515,14.8497,-0.000583974,-0.00657392,-0.00155194,-0.00020576,-0.00695213,-0.239044,0.00456771,0.015701,1021,1709,4.40515,-14.8497
-196,-685,4.38989,14.9872,-0.000369422,-0.00522608,-0.00109752,-0.000132919,-0.00546258,-0.212243,0.00359823,0.0134718,1028,1709,4.3899,-14.9872
-189,-685,4.40991,15.1088,-0.000170623,-0.00401865,-0.000803886,-9.43616e-06,-0.00417984,-0.197886,0.00278342,0.008839,1035,1709,4.40991,-15.1087
-182,-685,4.40015,15.2703,0.000127546,-0.00272994,-0.000562584,0.000234319,-0.00283671,-0.187559,0.00197389,0.0130908,1042,1709,4.40019,-15.2703
-175,-685,4.39673,15.4224,0.000485727,-0.00148902,-0.000389504,0.000559777,-0.00156307,-0.187871,0.00127044,0.013484,1049,1709,4.39669,-15.4224
-168,-685,4.40125,15.5612,0.000840446,-0.000555158,-0.000143384,0.000855025,-0.000569737,-0.101329,0.000828066,0.0102403,1056,1709,4.4013,-15.5611
-161,-685,4.39844,15.6996,0.00131465,0.00036272,8.63709e-05,0.00132242,0.000354947,0.0897559,0.000790329,0.0119296,1063,1709,4.39844,-15.6995
-154,-685,4.40503,15.8416,0.00188695,0.000902886,0.000223914,0.0019355,0.000854332,0.213536,0.00112002,0.0113479,1070,1709,4.40505,-15.8415
-147,-685,4.40112,15.9641,0.0024526,0.000794667,0.000315634,0.00251065,0.000736611,0.181904,0.00149021,0.00985603,1077,1709,4.40109,-15.9641
-140,-685,4.40381,16.0753,0.00305155,0.000172837,0.000333533,0.00308969,0.000134699,0.113853,0.00201639,0.0118297,1084,1709,4.40378,-16.0753
-133,-685,4.41528,16.191,0.00373007,-0.000536197,0.000373276,0.00376248,-0.00056861,0.0866178,0.00271776,0.0106763,1091,1709,4.41523,-16.191
-126,-685,4.42725,16.3079,0.00437027,-0.00122823,0.000550281,0.00442385,-0.0012818,0.0970532,0.00345665,0.00921204,1098,1709,4.42723,-16.3079
-119,-685,4.43079,16.4242,0.0049251,-0.00193977,0.000837423,0.00502578,-0.00204044,0.119649,0.0041993,0.0128946,1105,1709,4.43073,-16.4242
-112,-685,4.42908,16.5431,0.00536771,-0.00285511,0.00106367,0.00550308,-0.00299047,0.126581,0.00497476,0.0129215,1112,1709,4.4291,-16.5431
-105,-685,4.42273,16.6461,0.00561971,-0.00374979,0.00138227,0.00581938,-0.00394946,0.143458,0.00567438,0.0114324,1119,1709,4.42277,-16.6461
-98,-685,4.47607,16.7162,0.00563445,-0.00443198,0.00176826,0.00593603,-0.00473356,0.168925,0.00617312,0.0146205,1126,1709,4.4761,-16.7162
-91,-685,4.48096,16.8109,0.00541467,-0.00514614,0.00214238,0.00583273,-0.00556419,0.192715,0.00658062,0.0166946,1133,1709,4.48099,-16.8109
-84,-685,4.48621,16.8958,0.00517709,-0.0053944,0.00238033,0.00568833,-0.00590564,0.211564,0.00669418,0.0150772,1140,1709,4.48627,-16.8957
-77,-685,4.53003,17.0613,0.00475186,-0.00529545,0.00244321,0.00531447,-0.00585806,0.22633,0.00645301,0.016185,1147,1709,4.52997,-17.0613
-70,-685,4.67737,17.3051,0.00460073,-0.00561132,0.00251852,0.00518808,-0.00619866,0.229115,0.00658276,0.0370877,1154,1709,4.67731,-17.305
-63,-685,4.67847,17.7458,0,0,0,0,0,0,0,-1,1161,1709,4.67843,-17.7458
-56,-685,3.93909,15.8704,0,0,0,0,0,0,0,-1,1168,1709,3.93905,-15.8704
-49,-685,3.07471,9.86011,0,0,0,0,0,0,0,-1,1175,1709,3.07467,-9.86009
-42,-685,2.70618,7.54504,0,0,0,0,0,0,0,-1,1182,1709,2.7062,-7.54504
-35,-685,2.95264,7.91516,0,0,0,0,0,0,0,-1,1189,1709,2.95262,-7.91517
-28,-685,4.70105,17.3877,0,0,0,0,0,0,0,-1,1196,1709,4.70103,-17.3876
-21,-685,4.69739,17.4672,0.0268517,0.0292821,0.00591707,0.0341075,0.0220264,0.886677,0.0199691,0.041502,1203,1709,4.69737,-17.4672
-14,-685,4.78064,17.4518,0.0274699,0.0314278,0.00616035,0.0359193,0.0229785,0.94081,0.0210062,0.0265507,1210,1709,4.7807,-17.4518
-7,-685,4.78284,17.4813,0.0273932,0.0338785,0.00691985,0.0382778,0.0229939,1.00451,0.0222486,0.0383467,1217,1709,4.78285,-17.4813
0,-685,4.75549,17.6125,0.0264373,0.0352356,0.00755816,0.0395817,0.0220913,1.04895,0.0229039,0.0427807,1224,1709,4.75552,-17.6125
7,-685,5.20667,18.0199,0.0245926,0.0347182,0.00795117,0.0390816,0.0202292,1.06889,0.0225684,0.0396707,1231,1709,5.20669,-18.0199
14,-685,5.23987,18.0015,0.0220558,0.0326631,0.00846162,0.0373458,0.0173731,1.06534,0.021579,0.0400084,1238,1709,5.23988,-18.0014
21,-685,5.21899,17.9987,0.0183764,0.0293555,0.00880252,0.0342399,0.013492,1.06421,0.0199158,0.0377095,1245,1709,5.21898,-17.9987
28,-685,5.19153,17.8578,0.0142389,0.025515,0.00897815,0.0304786,0.00927529,1.06577,0.0180404,0.0413199,1252,1709,5.19159,-17.8578
35,-685,4.97437,17.697,0.00952898,0.0210653,0.00917653,0.026136,0.0044583,1.06598,0.0161444,0.0402938,1259,1709,4.97432,-17.697
42,-685,4.9801,17.7838,0.00453599,0.0172918,0.00938858,0.0222639,-0.000436134,1.08376,0.0149901,0.0419973,1266,1709,4.98011,-17.7838
49,-685,5.05054,17.8499,-0.000473304,0.0130434,0.00938019,0.0178463,-0.00527624,1.09757,0.0139919,0.0479452,1273,1709,5.05052,-17.8499
56,-685,5.43311,17.4186,-0.00531829,0.0079274,0.00928557,0.01271,-0.0101009,1.09518,0.0131985,0.043944,1280,1709,5.43313,-17.4185
63,-685,5.38745,17.563,-0.0104868,0.00431888,0.00950805,0.00896614,-0.0151341,1.11617,0.0140654,0.0417389,1287,1709,5.3875,-17.563
70,-685,5.16736,17.8408,-0.0150935,0.00106272,0.0095818,0.00551725,-0.019548,1.13563,0.0152084,0.0462771,1294,1709,5.16735,-17.8408
77,-685,5.02515,17.7992,-0.0184248,-0.000433479,0.00969924,0.0037995,-0.0226578,1.15929,0.016518,0.047303,1301,1709,5.02518,-17.7992
84,-685,4.92407,17.8979,0,0,0,0,0,0,0,-1,1308,1709,4.92406,-17.898
91,-685,2.97156,17.0703,0,0,0,0,0,0,0,-1,1315,1709,2.97155,-17.0703
98,-685,5.20825,17.8241,-0.0209969,0.00780743,0.01188,0.0120749,-0.0252644,1.22593,0.0220016,0.0415437,1322,1709,5.20821,-17.8241
105,-685,4.76428,17.2491,-0.020788,0.0116985,0.0127585,0.0161101,-0.0251996,1.23789,0.0240418,0.0430426,1329,1709,4.7643,-17.2492
112,-685,4.97241,17.1686,0,0,0,0,0,0,0,-1,1336,1709,4.97236,-17.1686
119,-685,4.99768,17.2191,-0.0183036,0.0224279,0.0149024,0.0272979,-0.0231736,1.25494,0.0291722,0.0404116,1343,1709,4.99762,-17.2192
126,-685,5.00745,17.2863,-0.0162952,0.0280324,0.0161615,0.033299,-0.0215619,1.25577,0.0319147,0.0405202,1350,1709,5.0075,-17.2862
133,-685,4.86499,17.3679,-0.0141647,0.0337835,0.0175102,0.0394972,-0.0198784,1.25538,0.0348987,0.0443908,1357,1709,4.865,-17.3679
140,-685,4.90796,17.6072,-0.0114198,0.0398014,0.0185122,0.0457915,-0.01741,1.25785,0.0376959,0.0425283,1364,1709,4.908,-17.6072
147,-685,5.17944,17.8027,-0.00933777,0.0441687,0.0192092,0.0503507,-0.0155198,1.25944,0.0397631,0.0412728,1371,1709,5.17943,-17.8027
154,-685,5.36157,17.7938,0,0,0,0,0,0,0,-1,1378,1709,5.36161,-17.7938
161,-685,5.77173,17.6976,0,0,0,0,0,0,0,-1,1385,1709,5.77173,-17.6976
168,-685,4.37524,10.8778,0,0,0,0,0,0,0,-1,1392,1709,4.37525,-10.8778
175,-685,3.97522,8.94324,0,0,0,0,0,0,0,-1,1399,1709,3.97519,-8.94328
182,-685,3.98218,9.19739,0,0,0,0,0,0,0,-1,1406,1709,3.98221,-9.1974
189,-685,4.53479,15.2343,0,0,0,0,0,0,0,-1,1413,1709,4.53474,-15.2343
196,-685,5.45203,17.6636,0,0,0,0,0,0,0,-1,1420,1709,5.45204,-17.6636
203,-685,5.41846,17.5012,0,0,0,0,0,0,0,-1,1427,1709,5.41851,-17.5013
210,-685,5.4834,17.6382,0.00152147,0.00187897,-0.000945555,0.00266252,0.000737921,-0.878816,0.00158729,0.0455782,1434,1709,5.48345,-17.6382
217,-685,5.48987,17.2783,0.000845565,0.00104339,-0.00118696,0.00213555,-0.000246593,-0.826969,0.00151261,0.0268997,1441,1709,5.48985,-17.2783
224,-685,5.4032,17.1431,0.00079241,-2.87208e-05,-0.000870755,0.00134454,-0.000580849,-0.565102,0.0011404,0.0180191,1448,1709,5.40322,-17.1431
231,-685,5.43445,17.0876,0.000924704,-0.00112431,-0.000487333,0.0010347,-0.00123431,-0.222,0.0013117,0.0177075,1455,1709,5.43449,-17.0876
238,-685,5.43823,16.9845,0.00110936,-0.00161761,-0.000110684,0.00111384,-0.0016221,-0.0405,0.00158866,0.0189575,1462,1709,5.43826,-16.9845
245,-685,5.46826,16.9008,0.00116928,-0.00209851,0.000255637,0.00118915,-0.00211839,0.0776002,0.00193457,0.0195122,1469,1709,5.46821,-16.9008
252,-685,5.50708,16.8607,0.00115873,-0.00235087,0.000521259,0.00123451,-0.00242665,0.144373,0.0021508,0.0142357,1476,1709,5.50703,-16.8607
259,-685,5.51147,16.7856,0.0011812,-0.0024501,0.000725795,0.00132089,-0.0025898,0.190143,0.00229711,0.0104054,1483,1709,5.51152,-16.7857
266,-685,5.51904,16.7017,0.00118729,-0.00267947,0.000937116,0.00140243,-0.00289461,0.225668,0.00253027,0.0119976,1490,1709,5.51908,-16.7017
273,-685,5.547,16.5983,0.00116916,-0.00229099,0.000922937,0.00139994,-0.00252178,0.245031,0.00229488,0.015098,1497,1709,5.54701,-16.5982
280,-685,5.53406,16.4609,0.00103073,-0.00174808,0.000844844,0.00126743,-0.00198478,0.273163,0.00189283,0.0168388,1504,1709,5.534,-16.461
287,-685,5.53979,16.3553,0.000827232,-0.00123212,0.00077396,0.00108567,-0.00149056,0.322279,0.0014935,0.0118631,1511,1709,5.5398,-16.3553
294,-685,5.53772,16.2484,0.000599627,-0.000680882,0.00068104,0.000894114,-0.000975368,0.408128,0.00107969,0.0103663,1518,1709,5.53768,-16.2484
301,-685,5.50964,16.1157,0.000274246,-0.000288655,0.000590711,0.00064713,-0.000661539,0.563078,0.000755576,0.0127924,1525,1709,5.50968,-16.1158
308,-685,5.52246,15.9868,1.02045e-05,-6.53137e-05,0.000527041,0.000500838,-0.000555947,0.749638,0.000610411,0.0136324,1532,1709,5.52241,-15.9868
315,-685,5.57153,15.8837,-7.6289e-05,-1.93287e-05,0.00043989,0.000393002,-0.00048862,0.817725,0.000510002,0.0123196,1539,1709,5.57159,-15.8836
322,-685,5.53845,15.748,-3.03075e-05,-0.000224931,0.000251577,0.000142123,-0.000397361,0.600858,0.000322882,0.020174,1546,1709,5.5384,-15.748
329,-685,5.52197,15.6198,3.4647e-05,-0.00062071,9.19778e-05,4.73112e-05,-0.000633374,0.136827,0.000438871,0.0189057,1553,1709,5.52199,-15.6197
336,-685,5.52014,15.4845,0.000275633,-0.00100571,-0.000297948,0.000341526,-0.00107161,-0.217651,0.000851394,0.013221,1560,1709,5.52019,-15.4845
343,-685,5.50928,15.3561,0.000558609,-0.00149887,-0.000743215,0.000798992,-0.00173925,-0.312818,0.0014986,0.0122595,1567,1709,5.50931,-15.356
350,-685,5.50415,15.2098,0.000973556,-0.00224002,-0.00123591,0.00139389,-0.00266036,-0.327831,0.00237849,0.0127311,1574,1709,5.5042,-15.2099
357,-685,5.5155,15.0636,0.00152488,-0.00293448,-0.00187188,0.00220646,-0.00361605,-0.349192,0.00339431,0.0101471,1581,1709,5.51545,-15.0636
364,-685,5.49133,14.9021,0.00207086,-0.00342615,-0.00266161,0.00314838,-0.00450367,-0.384669,0.00444095,0.00962626,1588,1709,5.49132,-14.9021
371,-685,5.54333,14.7493,0.00273063,-0.00394156,-0.00354988,0.004266,-0.00547693,-0.408217,0.00563954,0.0152939,1595,1709,5.54332,-14.7493
378,-685,5.49561,14.6498,0.0034905,-0.00405063,-0.00464464,0.0057024,-0.00626253,-0.444448,0.00691048,0.0228363,1602,1709,5.49565,-14.6498
385,-685,5.49524,14.428,0.00406215,-0.00332439,-0.00595301,0.00737449,-0.00663673,-0.507754,0.00809311,0.0405524,1609,1709,5.4953,-14.428
392,-685,5.52283,14.165,0.00431236,-0.00149125,-0.0072277,0.00919901,-0.0063779,-0.594506,0.00904237,0.0445293,1616,1709,5.5228,-14.1651
399,-685,5.375,14.2697,0,0,0,0,0,0,0,-1,1623,1709,5.37497,-14.2696
406,-685,5.5127,14.0751,0,0,0,0,0,0,0,-1,1630,1709,5.51265,-14.0751
413,-685,5.52502,13.832,0,0,0,0,0,0,0,-1,1637,1709,5.52502,-13.832
420,-685,4.84631,10.3781,0,0,0,0,0,0,0,-1,1644,1709,4.84634,-10.378
427,-685,6.05151,9.21155,0,0,0,0,0,0,0,-1,1651,1709,6.05156,-9.21156
434,-685,4.87769,8.91418,0,0,0,0,0,0,0,-1,1658,1709,4.87768,-8.91413
441,-685,5.62,8.75549,0,0,0,0,0,0,0,-1,1665,1709,5.61996,-8.75545
448,-685,6.4043,8.58972,0,0,0,0,0,0,0,-1,1672,1709,6.40435,-8.58971
455,-685,2.31958,4.09802,0,0,0,0,0,0,0,-1,1679,1709,2.31957,-4.09803
462,-685,0,0,0,0,0,0,0,0,0,-1,1686,1709,0,0
469,-685,0,0,0,0,0,0,0,0,0,-1,1693,1709,0,0
476,-685,0,0,0,0,0,0,0,0,0,-1,1700,1709,0,0
483,-685,0,0,0,0,0,0,0,0,0,-1,1707,1709,0,0
490,-685,0,0,0,0,0,0,0,0,0,-1,1714,1709,0,0
497,-685,0,0,0,0,0,0,0,0,0,-1,1721,1709,0,0
504,-685,0,0,0,0,0,0,0,0,0,-1,1728,1709,0,0
511,-685,0,0,0,0,0,0,0,0,0,-1,1735,1709,0,0
518,-685,0,0,0,0,0,0,0,0,0,-1,1742,1709,0,0
525,-685,0,0,0,0,0,0,0,0,0,-1,1749,1709,0,0
532,-685,0,0,0,0,0,0,0,0,0,-1,1756,1709,0,0
539,-685,0,0,0,0,0,0,0,0,0,-1,1763,1709,0,0
546,-685,0,0,0,0,0,0,0,0,0,-1,1770,1709,0,0
553,-685,0,0,0,0,0,0,0,0,0,-1,1777,1709,0,0
560,-685,0,0,0,0,0,0,0,0,0,-1,1784,1709,0,0
567,-685,0,0,0,0,0,0,0,0,0,-1,1791,1709,0,0
574,-685,0,0,0,0,0,0,0,0,0,-1,1798,1709,0,0
581,-685,0,0,0,0,0,0,0,0,0,-1,1805,1709,0,0
588,-685,0,0,0,0,0,0,0,0,0,-1,1812,1709,0,0
595,-685,0,0,0,0,0,0,0,0,0,-1,1819,1709,0,0
602,-685,0,0,0,0,0,0,0,0,0,-1,1826,1709,0,0
609,-685,0,0,0,0,0,0,0,0,0,-1,1833,1709,0,0
616,-685,0,0,0,0,0,0,0,0,0,-1,1840,1709,0,0
623,-685,0,0,0,0,0,0,0,0,0,-1,1847,1709,0,0
630,-685,0,0,0,0,0,0,0,0,0,-1,1854,1709,0,0
637,-685,0,0,0,0,0,0,0,0,0,-1,1861,1709,0,0
644,-685,0,0,0,0,0,0,0,0,0,-1,1868,1709,0,0
651,-685,0,0,0,0,0,0,0,0,0,-1,1875,1709,0,0
658,-685,0,0,0,0,0,0,0,0,0,-1,1882,1709,0,0
665,-685,0,0,0,0,0,0,0,0,0,-1,1889,1709,0,0
672,-685,0,0,0,0,0,0,0,0,0,-1,1896,1709,0,0
679,-685,0,0,0,0,0,0,0,0,0,-1,1903,1709,0,0
686,-685,0,0,0,0,0,0,0,0,0,-1,1910,1709,0,0
693,-685,0,0,0,0,0,0,0,0,0,-1,1917,1709,0,0
700,-685,0,0,0,0,0,0,0,0,0,-1,1924,1709,0,0
707,-685,0,0,0,0,0,0,0,0,0,-1,1931,1709,0,0
714,-685,0,0,0,0,0,0,0,0,0,-1,1938,1709,0,0
721,-685,0,0,0,0,0,0,0,0,0,-1,1945,1709,0,0
728,-685,0,0,0,0,0,0,0,0,0,-1,1952,1709,0,0
735,-685,0,0,0,0,0,0,0,0,0,-1,1959,1709,0,0
742,-685,0,0,0,0,0,0,0,0,0,-1,1966,1709,0,0
749,-685,0,0,0,0,0,0,0,0,0,-1,1973,1709,0,0
756,-685,0,0,0,0,0,0,0,0,0,-1,1980,1709,0,0
763,-685,0,0,0,0,0,0,0,0,0,-1,1987,1709,0,0
770,-685,0,0,0,0,0,0,0,0,0,-1,1994,1709,0,0
777,-685,0,0,0,0,0,0,0,0,0,-1,2001,1709,0,0
784,-685,0,0,0,0,0,0,0,0,0,-1,2008,1709,0,0
791,-685,0,0,0,0,0,0,0,0,0,-1,2015,1709,0,0
798,-685,0,0,0,0,0,0,0,0,0,-1,2022,1709,0,0
805,-685,0,0,0,0,0,0,0,0,0,-1,2029,1709,0,0
812,-685,0,0,0,0,0,0,0,0,0,-1,2036,1709,0,0
-700,-692,0,0,0,0,0,0,0,0,0,-1,524,1716,0,0
-693,-692,0,0,0,0,0,0,0,0,0,-1,531,1716,0,0
-686,-692,0,0,0,0,0,0,0,0,0,-1,538,1716,0,0
-679,-692,0,0,0,0,0,0,0,0,0,-1,545,1716,0,0
-672,-692,0,0,0,0,0,0,0,0,0,-1,552,1716,0,0
-665,-692,0,0,0,0,0,0,0,0,0,-1,559,1716,0,0
-658,-692,0,0,0,0,0,0,0,0,0,-1,566,1716,0,0
-651,-692,0,0,0,0,0,0,0,0,0,-1,573,1716,0,0
-644,-692,0,0,0,0,0,0,0,0,0,-1,580,1716,0,0
-637,-692,0,0,0,0,0,0,0,0,0,-1,587,1716,0,0
-630,-692,0,0,0,0,0,0,0,0,0,-1,594,1716,0,0
-623,-692,0,0,0,0,0,0,0,0,0,-1,601,1716,0,0
-616,-692,0,0,0,0,0,0,0,0,0,-1,608,1716,0,0
-609,-692,0,0,0,0,0,0,0,0,0,-1,615,1716,0,0
-602,-692,0,0,0,0,0,0,0,0,0,-1,622,1716,0,0
-595,-692,0,0,0,0,0,0,0,0,0,-1,629,1716,0,0
-588,-692,0,0,0,0,0,0,0,0,0,-1,636,1716,0,0
-581,-692,0,0,0,0,0,0,0,0,0,-1,643,1716,0,0
-574,-692,0,0,0,0,0,0,0,0,0,-1,650,1716,0,0
-567,-692,0,0,0,0,0,0,0,0,0,-1,657,1716,0,0
-560,-692,0,0,0,0,0,0,0,0,0,-1,664,1716,0,0
-553,-692,0,0,0,0,0,0,0,0,0,-1,671,1716,0,0
-546,-692,0,0,0,0,0,0,0,0,0,-1,678,1716,0,0
-539,-692,0,0,0,0,0,0,0,0,0,-1,685,1716,0,0
-532,-692,0,0,0,0,0,0,0,0,0,-1,692,1716,0,0
-525,-692,0,0,0,0,0,0,0,0,0,-1,699,1716,0,0
-518,-692,0,0,0,0,0,0,0,0,0,-1,706,1716,0,0
-511,-692,0,0,0,0,0,0,0,0,0,-1,713,1716,0,0
-504,-692,0,0,0,0,0,0,0,0,0,-1,720,1716,0,0
-497,-692,0,0,0,0,0,0,0,0,0,-1,727,1716,0,0
-490,-692,0,0,0,0,0,0,0,0,0,-1,734,1716,0,0
-483,-692,0,0,0,0,0,0,0,0,0,-1,741,1716,0,0
-476,-692,0,0,0,0,0,0,0,0,0,-1,748,1716,0,0
-469,-692,0,0,0,0,0,0,0,0,0,-1,755,1716,0,0
-462,-692,0,0,0,0,0,0,0,0,0,-1,762,1716,0,0
-455,-692,0,0,0,0,0,0,0,0,0,-1,769,1716,0,0
-448,-692,0,0,0,0,0,0,0,0,0,-1,776,1716,0,0
-441,-692,0,0,0,0,0,0,0,0,0,-1,783,1716,0,0
-434,-692,0,0,0,0,0,0,0,0,0,-1,790,1716,0,0
-427,-692,0,0,0,0,0,0,0,0,0,-1,797,1716,0,0
-420,-692,0,0,0,0,0,0,0,0,0,-1,804,1716,0,0
-413,-692,0,0,0,0,0,0,0,0,0,-1,811,1716,0,0
-406,-692,0,0,0,0,0,0,0,0,0,-1,818,1716,0,0
-399,-692,0,0,0,0,0,0,0,0,0,-1,825,1716,0,0
-392,-692,0,0,0,0,0,0,0,0,0,-1,832,1716,0,0
-385,-692,0,0,0,0,0,0,0,0,0,-1,839,1716,0,0
-378,-692,0,0,0,0,0,0,0,0,0,-1,846,1716,0,0
-371,-692,0,0,0,0,0,0,0,0,0,-1,853,1716,0,0
-364,-692,0,0,0,0,0,0,0,0,0,-1,860,1716,0,0
-357,-692,0,0,0,0,0,0,0,0,0,-1,867,1716,0,0
-350,-692,0,0,0,0,0,0,0,0,0,-1,874,1716,0,0
-343,-692,0,0,0,0,0,0,0,0,0,-1,881,1716,0,0
-336,-692,0,0,0,0,0,0,0,0,0,-1,888,1716,0,0
-329,-692,3.12396,3.50745,0,0,0,0,0,0,0,-1,895,1716,3.12398,-3.50748
-322,-692,3.67346,17.0139,0,0,0,0,0,0,0,-1,902,1716,3.67349,-17.0139
-315,-692,3.98718,15.2626,0,0,0,0,0,0,0,-1,909,1716,3.98716,-15.2626
-308,-692,4.28339,13.5061,0,0,0,0,0,0,0,-1,916,1716,4.2834,-13.5061
-301,-692,4.96753,14.9366,0,0,0,0,0,0,0,-1,923,1716,4.96755,-14.9367
-294,-692,5.86267,14.4792,0,0,0,0,0,0,0,-1,930,1716,5.86269,-14.4793
-287,-692,5.39032,14.3434,-0.00665187,-0.0202298,-0.0481426,0.0351781,-0.0620597,-0.715351,0.0568509,0.0486822,937,1716,5.39032,-14.3434
-280,-692,4.92133,14.0029,-0.000686309,-0.0182052,-0.0435191,0.0349461,-0.0538377,-0.686086,0.0516447,0.0449229,944,1716,4.92131,-14.0029
-273,-692,4.59546,13.8074,0.00195519,-0.0160365,-0.0383795,0.032379,-0.0464604,-0.67028,0.0457593,0.0435657,951,1716,4.59548,-13.8074
-266,-692,5.25244,13.8501,0.00266006,-0.0157589,-0.0331237,0.0278307,-0.0409296,-0.649806,0.0399382,0.0484326,958,1716,5.25244,-13.85
-259,-692,5.33539,13.7809,0,0,0,0,0,0,0,-1,965,1716,5.33538,-13.7808
-252,-692,4.49524,13.4337,0,0,0,0,0,0,0,-1,972,1716,4.49526,-13.4337
-245,-692,4.69244,13.6066,0.0020436,-0.0163288,-0.018517,0.0135278,-0.027813,-0.555139,0.0243385,0.0493268,979,1716,4.69244,-13.6066
-238,-692,4.70038,13.9802,0.00109054,-0.0155117,-0.0144175,0.0094259,-0.0238471,-0.524192,0.0198025,0.0439953,986,1716,4.70036,-13.9803
-231,-692,4.67249,14.1908,0.000581612,-0.0142767,-0.0105533,0.0060584,-0.0197535,-0.478706,0.015586,0.0340432,993,1716,4.67251,-14.1908
-224,-692,4.59607,14.3638,-0.000248377,-0.0133537,-0.00716789,0.0029106,-0.0165127,-0.415103,0.012096,0.0178576,1000,1716,4.59604,-14.3638
-217,-692,4.5611,14.5107,-0.00130377,-0.0124774,-0.00494695,0.000571636,-0.0143529,-0.362363,0.00976469,0.0124934,1007,1716,4.56112,-14.5107
-210,-692,4.56921,14.6632,-0.00178159,-0.0107339,-0.00375008,-0.00041831,-0.0120972,-0.348681,0.00792904,0.0132398,1014,1716,4.56924,-14.6633
-203,-692,4.56299,14.8237,-0.00160414,-0.0087054,-0.00294252,-0.000543328,-0.00976622,-0.346009,0.00633747,0.0150017,1021,1716,4.56298,-14.8237
-196,-692,4.53394,15.0007,-0.00145911,-0.006682,-0.00226217,-0.00061555,-0.00752556,-0.356927,0.00482496,0.0178963,1028,1716,4.53399,-15.0008
-189,-692,4.53711,15.1117,-0.00135353,-0.00489063,-0.00180385,-0.000595888,-0.00564827,-0.397638,0.00358344,0.00943202,1035,1716,4.53716,-15.1116
-182,-692,4.53479,15.2727,-0.00125188,-0.00309395,-0.00139416,-0.000501991,-0.00384384,-0.49349,0.0024127,0.0138838,1042,1716,4.53483,-15.2727
-175,-692,4.52783,15.444,-0.00108051,-0.00153897,-0.00105397,-0.000231125,-0.00238835,-0.678318,0.00152106,0.0151047,1049,1716,4.5278,-15.444
-168,-692,4.55005,15.5763,-0.000869966,-0.000424684,-0.000641921,3.21097e-05,-0.00132676,-0.952324,0.000895402,0.0113813,1056,1716,4.55007,-15.5763
-161,-692,4.56067,15.728,-0.000535506,0.000710681,-0.000320159,0.000788121,-0.000612946,-1.33347,0.000811011,0.014335,1063,1716,4.56061,-15.728
-154,-692,4.55603,15.8652,-0.000125871,0.00137171,-0.000125734,0.0013822,-0.000136354,-1.48761,0.000970115,0.0155873,1070,1716,4.55602,-15.8652
-147,-692,4.54175,15.9724,0.00026397,0.00118992,-2.59007e-06,0.00118993,0.000263963,-1.568,0.000721576,0.0135355,1077,1716,4.54172,-15.9724
-140,-692,4.52222,16.083,0.000740462,0.000430011,1.34846e-05,0.000741047,0.000429427,0.0433269,0.000429642,0.0100885,1084,1716,4.52221,-16.083
-133,-692,4.52332,16.2031,0.00131441,-0.000380947,2.26526e-05,0.00131471,-0.00038125,0.0133584,0.00102741,0.00934421,1091,1716,4.52333,-16.2031
-126,-692,4.54041,16.3131,0.00189081,-0.0010473,0.000173786,0.00190106,-0.00105754,0.0588752,0.00173113,0.00779208,1098,1716,4.54035,-16.3131
-119,-692,4.54651,16.4252,0.00242961,-0.00163885,0.000439499,0.00247655,-0.00168578,0.106391,0.00241753,0.0117043,1105,1716,4.54652,-16.4252
-112,-692,4.54419,16.5356,0.0028338,-0.00229235,0.000668723,0.0029196,-0.00237815,0.127609,0.00306397,0.0114404,1112,1716,4.54424,-16.5357
-105,-692,4.55237,16.6323,0.00310452,-0.00291801,0.000924087,0.00324312,-0.00305661,0.148877,0.00363768,0.0159306,1119,1716,4.55243,-16.6323
-98,-692,4.60046,16.7228,0.00326997,-0.00336657,0.00123597,0.00349268,-0.00358928,0.178278,0.0040889,0.0176559,1126,1716,4.60045,-16.7228
-91,-692,4.59326,16.8042,0.00337605,-0.00356374,0.00154369,0.00370394,-0.00389163,0.209295,0.00438575,0.0196443,1133,1716,4.59324,-16.8042
-84,-692,4.59192,16.8529,0.00345469,-0.00360972,0.00181011,0.00389149,-0.00404651,0.236782,0.0045833,0.021579,1140,1716,4.59191,-16.8529
-77,-692,4.57556,17.0226,0.00340825,-0.00343165,0.00189853,0.00389989,-0.00392329,0.253388,0.00451672,0.0142361,1147,1716,4.57555,-17.0226
-70,-692,4.6051,17.1475,0.00338904,-0.00357178,0.00190289,0.00387527,-0.00405801,0.250169,0.00458068,0.0183343,1154,1716,4.60516,-17.1474
-63,-692,4.62915,17.2322,0.00381538,-0.00381991,0.00191766,0.00426995,-0.00427448,0.232748,0.00493313,0.028755,1161,1716,4.62919,-17.2322
-56,-692,4.60083,17.2424,0,0,0,0,0,0,0,-1,1168,1716,4.6008,-17.2425
-49,-692,4.60669,17.3652,0,0,0,0,0,0,0,-1,1175,1716,4.60669,-17.3652
-42,-692,4.66663,17.5916,0,0,0,0,0,0,0,-1,1182,1716,4.66667,-17.5915
-35,-692,4.70886,17.611,0,0,0,0,0,0,0,-1,1189,1716,4.70888,-17.6109
-28,-692,4.63953,17.5842,0.013077,0.0184644,0.00604375,0.0223876,0.00915383,0.995034,0.0129968,0.0414983,1196,1716,4.63952,-17.5842
-21,-692,4.74438,17.5363,0.0151907,0.0212201,0.0066212,0.0254806,0.0109302,0.99903,0.0147607,0.0272212,1203,1716,4.74433,-17.5362
-14,-692,4.77466,17.5569,0.0156475,0.0231633,0.00692984,0.0272886,0.0115222,1.03384,0.0158184,0.0152104,1210,1716,4.7747,-17.5568
-7,-692,4.77588,17.6355,0.0158479,0.0253843,0.00756572,0.029559,0.0116731,1.06658,0.0171911,0.0144055,1217,1716,4.77592,-17.6356
0,-692,4.76624,17.6948,0.015549,0.0266765,0.00798422,0.0308443,0.0113812,1.0897,0.0180106,0.0166981,1224,1716,4.76628,-17.6949
7,-692,4.80176,17.7449,0.0146894,0.0264941,0.00811483,0.0306261,0.0105574,1.09982,0.017964,0.0213718,1231,1716,4.80175,-17.7448
14,-692,4.9281,17.8007,0.0133765,0.0251732,0.00831795,0.0294719,0.00907783,1.09381,0.0174287,0.0234411,1238,1716,4.92814,-17.8006
21,-692,4.97229,17.8086,0.0111753,0.0228937,0.00825759,0.0271596,0.00690936,1.09395,0.016299,0.0261632,1245,1716,4.97224,-17.8086
28,-692,4.93689,17.8508,0.00863387,0.0201024,0.00800845,0.0242179,0.00451841,1.0961,0.0148697,0.0267003,1252,1716,4.93689,-17.8508
35,-692,4.96033,17.8903,0.00564647,0.0168089,0.00778566,0.0208072,0.00164821,1.09637,0.013356,0.0235115,1259,1716,4.96027,-17.8903
42,-692,4.9884,17.9023,0.00232922,0.0139414,0.00756676,0.0176729,-0.00140234,1.11264,0.0122761,0.0212235,1266,1716,4.98835,-17.9024
49,-692,4.99829,17.8721,-0.0010348,0.0107061,0.00711193,0.0140574,-0.00438617,1.13043,0.0111257,0.0262324,1273,1716,4.9983,-17.872
56,-692,4.98901,17.882,-0.00446419,0.00654075,0.00655111,0.00959364,-0.00751708,1.13471,0.0099031,0.0323698,1280,1716,4.98906,-17.8819
63,-692,5.05835,17.9132,-0.00792319,0.00353239,0.00623508,0.00627123,-0.010662,1.15691,0.00988537,0.0297765,1287,1716,5.05838,-17.9132
70,-692,5.07202,17.9395,-0.0111337,0.000818395,0.00578901,0.00316255,-0.0134779,1.18605,0.0102041,0.0262749,1294,1716,5.07201,-17.9394
77,-692,5.05713,18.0026,-0.0137122,-0.000945093,0.00553624,0.00112118,-0.0157785,1.21358,0.0109119,0.0306557,1301,1716,5.05715,-18.0026
84,-692,5.0415,17.9453,-0.0161769,-0.00182052,0.00566356,0.000144726,-0.0181421,1.2368,0.0121433,0.0355967,1308,1716,5.04155,-17.9453
91,-692,5.05847,17.9248,-0.0160466,0.00207866,0.00609417,0.00393712,-0.017905,1.2748,0.0134426,0.0334812,1315,1716,5.05845,-17.9248
98,-692,5.09949,17.8999,-0.0150957,0.00383021,0.00661391,0.00591243,-0.017178,1.26579,0.01385,0.028103,1322,1716,5.09954,-17.8999
105,-692,5.06946,17.9154,-0.0145797,0.00635249,0.00715287,0.00856325,-0.0167904,1.27104,0.0148926,0.0353167,1329,1716,5.06948,-17.9154
112,-692,5.07837,17.8966,-0.0133629,0.00989847,0.0080303,0.0124014,-0.0158658,1.26866,0.0163609,0.03598,1336,1716,5.07836,-17.8966
119,-692,5.12952,17.6683,0,0,0,0,0,0,0,-1,1343,1716,5.12948,-17.6683
126,-692,5.14966,17.7161,0,0,0,0,0,0,0,-1,1350,1716,5.1497,-17.7161
133,-692,5.14087,17.7661,0,0,0,0,0,0,0,-1,1357,1716,5.14081,-17.7661
140,-692,5.20422,17.8287,-0.00465083,0.0248594,0.0113284,0.0287066,-0.00849802,1.24341,0.0225116,0.0267519,1364,1716,5.20428,-17.8287
147,-692,5.19812,17.864,-0.00254583,0.0273482,0.0116492,0.0313516,-0.00654917,1.23978,0.0233917,0.0271321,1371,1716,5.19813,-17.8641
154,-692,5.24377,17.8182,-0.00121667,0.029446,0.0117959,0.0334587,-0.00522941,1.2429,0.0242377,0.0268678,1378,1716,5.24376,-17.8183
161,-692,5.47205,17.7604,1.94985e-05,0.0309327,0.0112523,0.0345947,-0.00364247,1.25616,0.0243682,0.0414644,1385,1716,5.47203,-17.7604
168,-692,5.2915,17.7708,0,0,0,0,0,0,0,-1,1392,1716,5.29145,-17.7707
175,-692,5.36658,17.6877,0,0,0,0,0,0,0,-1,1399,1716,5.36661,-17.6878
182,-692,5.33301,17.6071,0,0,0,0,0,0,0,-1,1406,1716,5.33307,-17.607
189,-692,5.32861,17.5797,0,0,0,0,0,0,0,-1,1413,1716,5.32861,-17.5797
196,-692,5.35059,17.5107,0.0044865,0.00446234,0.00223265,0.00670709,0.00224174,0.782693,0.00394264,0.0273774,1420,1716,5.35057,-17.5107
203,-692,5.35535,17.4446,0.00189684,0.00116903,-7.99882e-05,0.00190553,0.00116034,-0.108182,0.00110883,0.0180003,1427,1716,5.35539,-17.4446
210,-692,5.40295,17.3867,0.00130283,0.000760712,-0.000224954,0.00138402,0.000679525,-0.346355,0.000799107,0.0173773,1434,1716,5.40301,-17.3867
217,-692,5.36365,17.2848,0.000812613,0.000162479,-0.000420817,0.00101929,-4.42015e-05,-0.456536,0.000694732,0.017937,1441,1716,5.36363,-17.2848
224,-692,5.37048,17.2247,0.000757912,-0.000501593,-0.000284636,0.00081925,-0.000562931,-0.21225,0.000802563,0.0141348,1448,1716,5.37049,-17.2248
231,-692,5.37964,17.1464,0.00078982,-0.00110659,-0.000124402,0.000797946,-0.00111472,-0.065226,0.00110931,0.0110273,1455,1716,5.37964,-17.1464
238,-692,5.36182,16.9977,0.000867604,-0.00130127,3.10545e-05,0.000868049,-0.00130171,0.0143144,0.00126102,0.0161767,1462,1716,5.3618,-16.9977
245,-692,5.35059,16.8911,0.000884531,-0.00141368,0.000172332,0.000897382,-0.00142653,0.0744307,0.00135326,0.0192238,1469,1716,5.35063,-16.8911
252,-692,5.37769,16.8373,0.000854769,-0.00136968,0.00024333,0.000881076,-0.00139599,0.107692,0.00132582,0.0172126,1476,1716,5.37766,-16.8373
259,-692,5.40027,16.7877,0.000863617,-0.00121793,0.000295234,0.000904681,-0.001259,0.138203,0.00125477,0.00979477,1483,1716,5.40021,-16.7877
266,-692,5.38464,16.697,0.000842152,-0.00117599,0.000372282,0.000908635,-0.00124248,0.176721,0.00124692,0.0106598,1490,1716,5.38461,-16.697
273,-692,5.39746,16.5638,0.00075023,-0.000718356,0.000319453,0.000816709,-0.000784835,0.205176,0.000924713,0.0157298,1497,1716,5.39741,-16.5638
280,-692,5.43091,16.4528,0.000588538,-0.000231585,0.000257056,0.000662447,-0.000305495,0.279972,0.000571368,0.0154879,1504,1716,5.43093,-16.4528
287,-692,5.43127,16.3668,0.0003829,0.000151903,0.00024377,0.000537149,-2.34583e-06,0.564164,0.000358884,0.0116184,1511,1716,5.43127,-16.3669
294,-692,5.42151,16.2521,0.000166895,0.000650598,0.000207499,0.000727412,9.00809e-05,1.21625,0.000457878,0.0102146,1518,1716,5.42154,-16.2521
301,-692,5.41492,16.1262,-0.000178376,0.000862699,0.000234781,0.000913197,-0.000228874,1.35894,0.000697717,0.0133292,1525,1716,5.41495,-16.1262
308,-692,5.39063,16.0229,-0.000460598,0.00079676,0.000294465,0.000862305,-0.000526143,1.35178,0.000809415,0.0166769,1532,1716,5.39068,-16.023
315,-692,5.41956,15.9076,-0.000528328,0.000700979,0.000261136,0.000754151,-0.0005815,1.36992,0.000773283,0.0159118,1539,1716,5.41955,-15.9076
322,-692,5.37207,15.7301,-0.000421397,0.000276033,9.64433e-05,0.000289124,-0.000434488,1.43588,0.000420578,0.020866,1546,1716,5.37208,-15.7301
329,-692,5.37854,15.6042,-0.000303259,-0.00036648,-1.80599e-05,-0.000298464,-0.000371276,-0.259535,0.00022717,0.0176831,1553,1716,5.37854,-15.6043
336,-692,5.38965,15.4803,6.63541e-05,-0.00102617,-0.000430588,0.000215656,-0.00117547,-0.333767,0.000864543,0.012305,1560,1716,5.38959,-15.4803
343,-692,5.3916,15.3312,0.000514088,-0.00180751,-0.000921502,0.000835389,-0.00212881,-0.33549,0.00176486,0.0133437,1567,1716,5.39162,-15.3312
350,-692,5.39661,15.1755,0.00112619,-0.00293055,-0.00149865,0.00161978,-0.00342413,-0.318162,0.00297356,0.0134893,1574,1716,5.39666,-15.1756
357,-692,5.37952,15.0381,0.00193873,-0.00401139,-0.00228192,0.00271309,-0.00478574,-0.327151,0.00438423,0.0171074,1581,1716,5.37948,-15.038
364,-692,5.38159,14.8969,0.00279381,-0.00487048,-0.00329525,0.00401577,-0.00609244,-0.355105,0.00587689,0.0230499,1588,1716,5.3816,-14.8969
371,-692,5.42529,14.8348,0.00381009,-0.00577944,-0.00448225,0.00557889,-0.00754824,-0.375862,0.00760732,0.0332,1595,1716,5.42534,-14.8349
378,-692,5.3866,14.8081,0.00492703,-0.00617663,-0.00595958,0.0075201,-0.0087697,-0.410403,0.00941414,0.0415547,1602,1716,5.38659,-14.8081
385,-692,5.43616,14.297,0.00579287,-0.00558869,-0.00766823,0.00965127,-0.00944708,-0.466177,0.0110266,0.0468231,1609,1716,5.43611,-14.297
392,-692,5.30078,13.8054,0,0,0,0,0,0,0,-1,1616,1716,5.30074,-13.8055
399,-692,5.2627,10.4279,0,0,0,0,0,0,0,-1,1623,1716,5.26267,-10.4278
406,-692,4.73633,10.6808,0,0,0,0,0,0,0,-1,1630,1716,4.73637,-10.6808
413,-692,4.25085,10.5685,0,0,0,0,0,0,0,-1,1637,1716,4.2508,-10.5685
420,-692,5.48901,10.4845,0,0,0,0,0,0,0,-1,1644,1716,5.48906,-10.4845
427,-692,3.79578,8.60339,0,0,0,0,0,0,0,-1,1651,1716,3.79577,-8.6034
434,-692,4.78516,8.64636,0,0,0,0,0,0,0,-1,1658,1716,4.78512,-8.64634
441,-692,5.8208,8.74036,0,0,0,0,0,0,0,-1,1665,1716,5.82084,-8.7404
448,-692,6.73792,8.51013,0,0,0,0,0,0,0,-1,1672,1716,6.73793,-8.5101
455,-692,0,0,0,0,0,0,0,0,0,-1,1679,1716,0,0
462,-692,0,0,0,0,0,0,0,0,0,-1,1686,1716,0,0
469,-692,0,0,0,0,0,0,0,0,0,-1,1693,1716,0,0
476,-692,0,0,0,0,0,0,0,0,0,-1,1700,1716,0,0
483,-692,0,0,0,0,0,0,0,0,0,-1,1707,1716,0,0
490,-692,0,0,0,0,0,0,0,0,0,-1,1714,1716,0,0
497,-692,0,0,0,0,0,0,0,0,0,-1,1721,1716,0,0
504,-692,0,0,0,0,0,0,0,0,0,-1,1728,1716,0,0
511,-692,0,0,0,0,0,0,0,0,0,-1,1735,1716,0,0
518,-692,0,0,0,0,0,0,0,0,0,-1,1742,1716,0,0
525,-692,0,0,0,0,0,0,0,0,0,-1,1749,1716,0,0
532,-692,0,0,0,0,0,0,0,0,0,-1,1756,1716,0,0
539,-692,0,0,0,0,0,0,0,0,0,-1,1763,1716,0,0
546,-692,0,0,0,0,0,0,0,0,0,-1,1770,1716,0,0
553,-692,0,0,0,0,0,0,0,0,0,-1,1777,1716,0,0
560,-692,0,0,0,0,0,0,0,0,0,-1,1784,1716,0,0
567,-692,0,0,0,0,0,0,0,0,0,-1,1791,1716,0,0
574,-692,0,0,0,0,0,0,0,0,0,-1,1798,1716,0,0
581,-692,0,0,0,0,0,0,0,0,0,-1,1805,1716,0,0
588,-692,0,0,0,0,0,0,0,0,0,-1,1812,1716,0,0
595,-692,0,0,0,0,0,0,0,0,0,-1,1819,1716,0,0
602,-692,0,0,0,0,0,0,0,0,0,-1,1826,1716,0,0
609,-692,0,0,0,0,0,0,0,0,0,-1,1833,1716,0,0
616,-692,0,0,0,0,0,0,0,0,0,-1,1840,1716,0,0
623,-692,0,0,0,0,0,0,0,0,0,-1,1847,1716,0,0
630,-692,0,0,0,0,0,0,0,0,0,-1,1854,1716,0,0
637,-692,0,0,0,0,0,0,0,0,0,-1,1861,1716,0,0
644,-692,0,0,0,0,0,0,0,0,0,-1,1868,1716,0,0
651,-692,0,0,0,0,0,0,0,0,0,-1,1875,1716,0,0
658,-692,0,0,0,0,0,0,0,0,0,-1,1882,1716,0,0
665,-692,0,0,0,0,0,0,0,0,0,-1,1889,1716,0,0
672,-692,0,0,0,0,0,0,0,0,0,-1,1896,1716,0,0
679,-692,0,0,0,0,0,0,0,0,0,-1,1903,1716,0,0
686,-692,0,0,0,0,0,0,0,0,0,-1,1910,1716,0,0
693,-692,0,0,0,0,0,0,0,0,0,-1,1917,1716,0,0
700,-692,0,0,0,0,0,0,0,0,0,-1,1924,1716,0,0
707,-692,0,0,0,0,0,0,0,0,0,-1,1931,1716,0,0
714,-692,0,0,0,0,0,0,0,0,0,-1,1938,1716,0,0
721,-692,0,0,0,0,0,0,0,0,0,-1,1945,1716,0,0
728,-692,0,0,0,0,0,0,0,0,0,-1,1952,1716,0,0
735,-692,0,0,0,0,0,0,0,0,0,-1,1959,1716,0,0
742,-692,0,0,0,0,0,0,0,0,0,-1,1966,1716,0,0
749,-692,0,0,0,0,0,0,0,0,0,-1,1973,1716,0,0
756,-692,0,0,0,0,0,0,0,0,0,-1,1980,1716,0,0
763,-692,0,0,0,0,0,0,0,0,0,-1,1987,1716,0,0
770,-692,0,0,0,0,0,0,0,0,0,-1,1994,1716,0,0
777,-692,0,0,0,0,0,0,0,0,0,-1,2001,1716,0,0
784,-692,0,0,0,0,0,0,0,0,0,-1,2008,1716,0,0
791,-692,0,0,0,0,0,0,0,0,0,-1,2015,1716,0,0
798,-692,0,0,0,0,0,0,0,0,0,-1,2022,1716,0,0
805,-692,0,0,0,0,0,0,0,0,0,-1,2029,1716,0,0
812,-692,0,0,0,0,0,0,0,0,0,-1,2036,1716,0,0
-700,-699,0,0,0,0,0,0,0,0,0,-1,524,1723,0,0
-693,-699,0,0,0,0,0,0,0,0,0,-1,531,1723,0,0
-686,-699,0,0,0,0,0,0,0,0,0,-1,538,1723,0,0
-679,-699,0,0,0,0,0,0,0,0,0,-1,545,1723,0,0
-672,-699,0,0,0,0,0,0,0,0,0,-1,552,1723,0,0
-665,-699,0,0,0,0,0,0,0,0,0,-1,559,1723,0,0
-658,-699,0,0,0,0,0,0,0,0,0,-1,566,1723,0,0
-651,-699,0,0,0,0,0,0,0,0,0,-1,573,1723,0,0
-644,-699,0,0,0,0,0,0,0,0,0,-1,580,1723,0,0
-637,-699,0,0,0,0,0,0,0,0,0,-1,587,1723,0,0
-630,-699,0,0,0,0,0,0,0,0,0,-1,594,1723,0,0
-623,-699,0,0,0,0,0,0,0,0,0,-1,601,1723,0,0
-616,-699,0,0,0,0,0,0,0,0,0,-1,608,1723,0,0
-609,-699,0,0,0,0,0,0,0,0,0,-1,615,1723,0,0
-602,-699,0,0,0,0,0,0,0,0,0,-1,622,1723,0,0
-595,-699,0,0,0,0,0,0,0,0,0,-1,629,1723,0,0
-588,-699,0,0,0,0,0,0,0,0,0,-1,636,1723,0,0
-581,-699,0,0,0,0,0,0,0,0,0,-1,643,1723,0,0
-574,-699,0,0,0,0,0,0,0,0,0,-1,650,1723,0,0
-567,-699,0,0,0,0,0,0,0,0,0,-1,657,1723,0,0
-560,-699,0,0,0,0,0,0,0,0,0,-1,664,1723,0,0
-553,-699,0,0,0,0,0,0,0,0,0,-1,671,1723,0,0
-546,-699,0,0,0,0,0,0,0,0,0,-1,678,1723,0,0
-539,-699,0,0,0,0,0,0,0,0,0,-1,685,1723,0,0
-532,-699,0,0,0,0,0,0,0,0,0,-1,692,1723,0,0
-525,-699,0,0,0,0,0,0,0,0,0,-1,699,1723,0,0
-518,-699,0,0,0,0,0,0,0,0,0,-1,706,1723,0,0
-511,-699,0,0,0,0,0,0,0,0,0,-1,713,1723,0,0
-504,-699,0,0,0,0,0,0,0,0,0,-1,720,1723,0,0
-497,-699,0,0,0,0,0,0,0,0,0,-1,727,1723,0,0
-490,-699,0,0,0,0,0,0,0,0,0,-1,734,1723,0,0
-483,-699,0,0,0,0,0,0,0,0,0,-1,741,1723,0,0
-476,-699,0,0,0,0,0,0,0,0,0,-1,748,1723,0,0
-469,-699,0,0,0,0,0,0,0,0,0,-1,755,1723,0,0
-462,-699,0,0,0,0,0,0,0,0,0,-1,762,1723,0,0
-455,-699,0,0,0,0,0,0,0,0,0,-1,769,1723,0,0
-448,-699,0,0,0,0,0,0,0,0,0,-1,776,1723,0,0
-441,-699,0,0,0,0,0,0,0,0,0,-1,783,1723,0,0
-434,-699,0,0,0,0,0,0,0,0,0,-1,790,1723,0,0
-427,-699,0,0,0,0,0,0,0,0,0,-1,797,1723,0,0
-420,-699,0,0,0,0,0,0,0,0,0,-1,804,1723,0,0
-413,-699,0,0,0,0,0,0,0,0,0,-1,811,1723,0,0
-406,-699,0,0,0,0,0,0,0,0,0,-1,818,1723,0,0
-399,-699,0,0,0,0,0,0,0,0,0,-1,825,1723,0,0
-392,-699,0,0,0,0,0,0,0,0,0,-1,832,1723,0,0
-385,-699,0,0,0,0,0,0,0,0,0,-1,839,1723,0,0
-378,-699,0,0,0,0,0,0,0,0,0,-1,846,1723,0,0
-371,-699,0,0,0,0,0,0,0,0,0,-1,853,1723,0,0
-364,-699,0,0,0,0,0,0,0,0,0,-1,860,1723,0,0
-357,-699,0,0,0,0,0,0,0,0,0,-1,867,1723,0,0
-350,-699,0,0,0,0,0,0,0,0,0,-1,874,1723,0,0
-343,-699,0,0,0,0,0,0,0,0,0,-1,881,1723,0,0
-336,-699,0,0,0,0,0,0,0,0,0,-1,888,1723,0,0
-329,-699,0,0,0,0,0,0,0,0,0,-1,895,1723,0,0
-322,-699,0,0,0,0,0,0,0,0,0,-1,902,1723,0,0
-315,-699,4.27734,16.1066,0,0,0,0,0,0,0,-1,909,1723,4.27737,-16.1066
-308,-699,4.55981,14.3354,0,0,0,0,0,0,0,-1,916,1723,4.55981,-14.3355
-301,-699,4.72729,12.8752,0,0,0,0,0,0,0,-1,923,1723,4.72732,-12.8752
-294,-699,6.0799,10.2083,0,0,0,0,0,0,0,-1,930,1723,6.07988,-10.2082
-287,-699,5.81592,14.501,0,0,0,0,0,0,0,-1,937,1723,5.81595,-14.501
-280,-699,5.39294,14.4028,0.00763249,-0.0162155,-0.0564252,0.0533798,-0.0619629,-0.681268,0.0666546,0.0454858,944,1723,5.39291,-14.4028
-273,-699,4.83148,14.083,0.00916261,-0.0142746,-0.0502893,0.0490806,-0.0541926,-0.670929,0.0596492,0.0451472,951,1723,4.8315,-14.083
-266,-699,5.97253,13.8545,0,0,0,0,0,0,0,-1,958,1723,5.97256,-13.8545
-259,-699,5.67737,10.8545,0,0,0,0,0,0,0,-1,965,1723,5.67736,-10.8545
-252,-699,5.03058,13.7029,0,0,0,0,0,0,0,-1,972,1723,5.03059,-13.7029
-245,-699,4.85748,13.3865,0,0,0,0,0,0,0,-1,979,1723,4.85749,-13.3865
-238,-699,4.90698,13.9666,0,0,0,0,0,0,0,-1,986,1723,4.90696,-13.9666
-231,-699,4.68201,14.3884,0.00127126,-0.0185666,-0.015527,0.00977714,-0.0270724,-0.501162,0.0220424,0.0443294,993,1723,4.68198,-14.3884
-224,-699,4.66718,14.4117,-0.000597843,-0.0177743,-0.0110524,0.0048108,-0.0231829,-0.455104,0.0172835,0.0368911,1000,1723,4.66715,-14.4118
-217,-699,4.70831,14.5399,-0.00265164,-0.0165928,-0.00801096,0.000996836,-0.0202413,-0.427365,0.0138385,0.0259325,1007,1723,4.70834,-14.5399
-210,-699,4.73773,14.6356,-0.00346754,-0.0140256,-0.00643386,-0.000424143,-0.017069,-0.441838,0.0112406,0.018436,1014,1723,4.73771,-14.6357
-203,-699,4.74341,14.7778,-0.00351233,-0.0109895,-0.0053075,-0.000758875,-0.0137429,-0.478563,0.00891977,0.0209999,1021,1723,4.74336,-14.7778
-196,-699,4.70618,14.9381,-0.00358186,-0.00796142,-0.00432827,-0.000920959,-0.0106223,-0.55121,0.0067954,0.0187691,1028,1723,4.70618,-14.9381
-189,-699,4.6814,15.1313,-0.00363644,-0.00530037,-0.00360346,-0.000770153,-0.00816666,-0.671946,0.00520674,0.00988757,1035,1723,4.68145,-15.1314
-182,-699,4.6781,15.2916,-0.0036805,-0.00278015,-0.00291001,-0.0002857,-0.00617494,-0.862139,0.00402478,0.0123612,1042,1723,4.67807,-15.2916
-175,-699,4.68311,15.4471,-0.00359154,-0.000733905,-0.00228767,0.000534488,-0.00485994,-1.06454,0.00343202,0.01479,1049,1723,4.68315,-15.4472
-168,-699,4.71631,15.5806,-0.00337154,0.000696557,-0.00156507,0.00122899,-0.00390396,-1.24288,0.00309475,0.015559,1056,1723,4.71625,-15.5805
-161,-699,4.70496,15.7152,-0.00293066,0.00217686,-0.00101489,0.00237113,-0.00312494,-1.38166,0.00318309,0.0137701,1063,1723,4.70492,-15.7152
-154,-699,4.66516,15.8405,-0.00239562,0.00308897,-0.000618729,0.0031579,-0.00246456,-1.45984,0.00325435,0.0139927,1070,1723,4.66519,-15.8404
-147,-699,4.66052,15.9545,-0.00186542,0.00289613,-0.000301662,0.00291517,-0.00188445,-1.50778,0.00279228,0.0147661,1077,1723,4.66056,-15.9544
-140,-699,4.64856,16.0654,-0.00119449,0.00198568,-0.000154124,0.00199313,-0.00120194,-1.52248,0.00186343,0.00992013,1084,1723,4.6486,-16.0654
-133,-699,4.66064,16.1969,-0.000455564,0.00102185,-7.41565e-05,0.00102556,-0.000459276,-1.52077,0.000877807,0.00883987,1091,1723,4.66065,-16.1969
-126,-699,4.67419,16.3096,0.000266524,0.000298673,0.000130339,0.000413925,0.000151272,0.846753,0.000241847,0.0111865,1098,1723,4.67421,-16.3096
-119,-699,4.66187,16.4189,0.000983584,-0.000335173,0.000441796,0.00111791,-0.000469498,0.29516,0.00094163,0.0166335,1105,1723,4.66185,-16.419
-112,-699,4.65942,16.5391,0.00150404,-0.000963079,0.000678095,0.00167813,-0.00113717,0.251309,0.00163538,0.0115928,1112,1723,4.65936,-16.539
-105,-699,4.67322,16.6506,0.00178333,-0.00146297,0.000838058,0.00198692,-0.00166655,0.238307,0.00211203,0.0120821,1119,1723,4.67318,-16.6507
-98,-699,4.70239,16.7505,0.0019768,-0.00185096,0.00103755,0.00223995,-0.00211411,0.248387,0.00251416,0.0140027,1126,1723,4.70243,-16.7505
-91,-699,4.71484,16.8235,0.00211938,-0.00197982,0.00122428,0.00245719,-0.00231762,0.269226,0.00275713,0.0196153,1133,1723,4.71481,-16.8235
-84,-699,4.68884,16.8876,0.00222461,-0.00199085,0.00139275,0.0026432,-0.00240944,0.29196,0.00291818,0.0242711,1140,1723,4.68887,-16.8875
-77,-699,4.67297,17.0096,0.00228256,-0.00184988,0.00142014,0.00272354,-0.00229086,0.30108,0.00289866,0.0161082,1147,1723,4.67301,-17.0097
-70,-699,4.67834,17.1228,0.00236295,-0.00190717,0.00137189,0.00276572,-0.00230994,0.285562,0.00293437,0.0159075,1154,1723,4.67838,-17.1227
-63,-699,4.70264,17.207,0.00267646,-0.00205839,0.00132797,0.00302348,-0.00240541,0.2556,0.00314113,0.0137879,1161,1723,4.7026,-17.207
-56,-699,4.70227,17.2699,0.00312958,-0.00215249,0.0015367,0.00354412,-0.00256702,0.263485,0.00354327,0.0101129,1168,1723,4.70225,-17.2699
-49,-699,4.69128,17.3718,0.00359403,0.00149606,0.00241726,0.0051801,-9.00126e-05,0.580682,0.00348379,0.0223031,1175,1723,4.69123,-17.3718
-42,-699,4.73218,17.4904,0.00414347,0.00534176,0.00297855,0.00778082,0.0017044,0.88465,0.00472274,0.0252284,1182,1723,4.73215,-17.4903
-35,-699,4.76538,17.5166,0.00547819,0.00957054,0.00357503,0.0116435,0.00340518,1.04532,0.00691276,0.0234851,1189,1723,4.76537,-17.5166
-28,-699,4.78796,17.5452,0.00676652,0.0126223,0.00419677,0.0148116,0.00457724,1.08997,0.00875693,0.0177231,1196,1723,4.78793,-17.5452
-21,-699,4.77954,17.5565,0.00818218,0.0152023,0.00465559,0.0175227,0.00586171,1.10841,0.0102998,0.011992,1203,1723,4.77952,-17.5565
-14,-699,4.78809,17.6351,0.00847218,0.0170234,0.00493639,0.0192784,0.0062172,1.14229,0.0113618,0.010982,1210,1723,4.78808,-17.6352
-7,-699,4.81384,17.709,0.00875738,0.01909,0.00549821,0.0214683,0.00637909,1.16254,0.0127302,0.00819567,1217,1723,4.81383,-17.709
0,-699,4.82556,17.7466,0.00884569,0.0204553,0.00589906,0.0229266,0.00637434,1.17407,0.0136646,0.00986337,1224,1723,4.82558,-17.7465
7,-699,4.82288,17.7826,0.00859471,0.020647,0.00607735,0.0231794,0.00606232,1.17598,0.0138807,0.0156839,1231,1723,4.82294,-17.7826
14,-699,4.86792,17.8245,0.00805161,0.019946,0.00629538,0.0226591,0.00533849,1.16388,0.0136784,0.0167928,1238,1723,4.86791,-17.8244
21,-699,4.90295,17.8417,0.00684574,0.0184405,0.00624414,0.0211636,0.00412263,1.15956,0.0129554,0.0172172,1245,1723,4.90301,-17.8417
28,-699,4.91357,17.8657,0.00535654,0.0163883,0.00598576,0.0190121,0.00273274,1.15768,0.0118691,0.0166561,1252,1723,4.91353,-17.8657
35,-699,4.93347,17.9113,0.00350564,0.0139308,0.00573511,0.0164682,0.000968221,1.15425,0.0106707,0.0139225,1259,1723,4.93343,-17.9113
42,-699,4.94641,17.9294,0.00135691,0.011457,0.00544026,0.0138298,-0.00101595,1.15951,0.00957651,0.0124279,1266,1723,4.94646,-17.9295
49,-699,4.96423,17.9349,-0.000852197,0.00879601,0.00488716,0.010839,-0.00289514,1.17485,0.00835983,0.0150317,1273,1723,4.96429,-17.9349
56,-699,5.00098,17.955,-0.00325035,0.00520132,0.00416912,0.00691175,-0.00496078,1.18148,0.00688539,0.0163875,1280,1723,5.00097,-17.9549
63,-699,5.03601,17.9536,-0.0054616,0.00240055,0.00361627,0.0038109,-0.00687194,1.19894,0.00625157,0.0130575,1287,1723,5.03604,-17.9536
70,-699,5.02673,17.9775,-0.00755377,-0.000363697,0.00304807,0.000754548,-0.00867202,1.21917,0.00604857,0.0105489,1294,1723,5.02669,-17.9775
77,-699,5.01331,17.993,-0.00948881,-0.00239647,0.00254781,-0.0015761,-0.0103092,1.25929,0.00641231,0.0104884,1301,1723,5.01328,-17.993
84,-699,4.99963,17.9749,-0.0113047,-0.00389492,0.002285,-0.00324695,-0.0119527,1.29447,0.00713677,0.0127348,1308,1723,4.99965,-17.9749
91,-699,5.03088,17.9727,-0.0109657,-0.00168112,0.00234803,-0.00112109,-0.0115257,1.33666,0.00733871,0.0120362,1315,1723,5.0309,-17.9727
98,-699,5.08972,17.9825,-0.00989707,-0.00107014,0.00252387,-0.000399454,-0.0105678,1.31106,0.00691586,0.0112233,1322,1723,5.0897,-17.9825
105,-699,5.10059,17.9744,-0.00915301,0.00017541,0.00274363,0.000922516,-0.00990012,1.30494,0.00692809,0.0164946,1329,1723,5.10055,-17.9744
112,-699,5.08862,17.9545,-0.00779684,0.00224028,0.00330662,0.00323169,-0.00878825,1.2795,0.00718263,0.0213379,1336,1723,5.08859,-17.9544
119,-699,5.10278,17.9242,-0.00600985,0.00448122,0.00377592,0.00569891,-0.00722754,1.25884,0.00748046,0.0152943,1343,1723,5.1028,-17.9242
126,-699,5.12366,17.9138,-0.00387183,0.00658722,0.00450315,0.00825887,-0.00554348,1.21534,0.00802003,0.0167823,1350,1723,5.12364,-17.9138
133,-699,5.15356,17.9146,-0.00183207,0.00884007,0.0053212,0.0110398,-0.00403183,1.17879,0.00900974,0.0143922,1357,1723,5.15362,-17.9146
140,-699,5.20935,17.8763,0.000319126,0.0112235,0.00576305,0.0137047,-0.00216211,1.16424,0.00993589,0.0153337,1364,1723,5.2094,-17.8763
147,-699,5.19861,17.865,0.00201334,0.0129218,0.00594317,0.0155341,-0.000599027,1.15666,0.0105614,0.0128889,1371,1723,5.19856,-17.865
154,-699,5.18396,17.8297,0.00296225,0.0139949,0.00604545,0.0166626,0.000294609,1.15523,0.0110115,0.0133156,1378,1723,5.18393,-17.8297
161,-699,5.19763,17.7936,0.00379367,0.0150453,0.00569378,0.0174238,0.00141518,1.1751,0.0111741,0.0100856,1385,1723,5.19765,-17.7936
168,-699,5.22241,17.7458,0.00385938,0.0142598,0.00504911,0.0163077,0.00181143,1.18547,0.0103211,0.0113904,1392,1723,5.22239,-17.7459
175,-699,5.24243,17.6952,0.0038892,0.0134775,0.00428017,0.0151102,0.00225655,1.20639,0.00941187,0.0140571,1399,1723,5.24243,-17.6951
182,-699,5.2511,17.6307,0.004189,0.0118104,0.00320567,0.0129794,0.00301997,1.22111,0.00784258,0.0144956,1406,1723,5.25111,-17.6308
189,-699,5.24158,17.5603,0.00451688,0.00939637,0.00189437,0.0100455,0.00386777,1.24068,0.00585065,0.0159417,1413,1723,5.24161,-17.5603
196,-699,5.24438,17.5002,0.00367256,0.00189548,0.00082567,0.00399696,0.00157107,0.374369,0.00232517,0.0165165,1420,1723,5.2444,-17.5002
203,-699,5.26038,17.4438,0.00154692,0.000949694,-0.000175078,0.00159446,0.000902154,-0.265144,0.000923215,0.0135636,1427,1723,5.2604,-17.4439
210,-699,5.27612,17.3622,0.00111241,0.000749303,-0.000319395,0.00129825,0.000563468,-0.526955,0.000751716,0.0133217,1434,1723,5.27616,-17.3622
217,-699,5.28418,17.292,0.000714241,0.00047377,-0.000510297,0.00111828,6.97349e-05,-0.669699,0.000723394,0.0139339,1441,1723,5.28412,-17.292
224,-699,5.29248,17.2275,0.000611765,0.00017158,-0.000471068,0.000911621,-0.000128275,-0.566857,0.000654708,0.0147235,1448,1723,5.29249,-17.2275
231,-699,5.30542,17.1549,0.000538412,-7.61543e-05,-0.000399861,0.000735422,-0.000273164,-0.457788,0.000602349,0.010596,1455,1723,5.3054,-17.155
238,-699,5.29089,17.0321,0.000521076,-7.84866e-05,-0.000307022,0.0006504,-0.000207811,-0.398665,0.000516985,0.00966273,1462,1723,5.29091,-17.0321
245,-699,5.27795,16.9333,0.000497665,-1.86195e-06,-0.000222582,0.000582453,-8.66494e-05,-0.363957,0.000420174,0.0120058,1469,1723,5.2779,-16.9334
252,-699,5.28674,16.8698,0.000458902,0.000132468,-0.000191001,0.000546924,4.44458e-05,-0.431838,0.000350741,0.0106629,1476,1723,5.28678,-16.8697
259,-699,5.30347,16.7897,0.000470938,0.00033911,-0.000166198,0.000583815,0.000226233,-0.596612,0.000339898,0.0110998,1483,1723,5.30347,-16.7897
266,-699,5.27698,16.6873,0.000445919,0.000499033,-0.000135081,0.000610143,0.000334809,-0.882461,0.000352824,0.0136079,1490,1723,5.27697,-16.6873
273,-699,5.28174,16.5699,0.000318072,0.000922006,-0.000182188,0.000972709,0.000267368,-1.29936,0.00058026,0.0121758,1497,1723,5.28177,-16.5699
280,-699,5.31104,16.4575,0.000159386,0.00130377,-0.000214849,0.00134278,0.000120379,-1.3912,0.00085788,0.0123993,1504,1723,5.311,-16.4576
287,-699,5.29846,16.3331,-3.54884e-05,0.00153782,-0.000175615,0.00155718,-5.48524e-05,-1.46098,0.00105688,0.0108538,1511,1723,5.2985,-16.3331
294,-699,5.29858,16.2198,-0.000227014,0.00204336,-0.00019099,0.00205932,-0.000242968,-1.48745,0.00146062,0.0103293,1518,1723,5.29853,-16.2199
301,-699,5.30737,16.1188,-0.000625057,0.00210971,-3.9333e-05,0.00211028,-0.000625622,-1.55642,0.00165528,0.0122682,1525,1723,5.30738,-16.1187
308,-699,5.30798,16.0293,-0.000963627,0.00178392,0.000155079,0.00179264,-0.000972353,1.51459,0.00161962,0.0177344,1532,1723,5.30802,-16.0293
315,-699,5.33582,15.9171,-0.00105922,0.00158108,0.000202786,0.00159656,-0.00107471,1.49459,0.00155204,0.0202845,1539,1723,5.3358,-15.9171
322,-699,5.29309,15.7596,-0.00092432,0.000936402,9.37e-05,0.000941109,-0.000929027,1.52061,0.00107973,0.0202107,1546,1723,5.29305,-15.7597
329,-699,5.26062,15.6071,-0.000775416,2.1025e-05,6.00512e-05,2.55274e-05,-0.000779918,1.49596,0.00052866,0.0152928,1553,1723,5.26065,-15.6071
336,-699,5.276,15.4663,-0.000273325,-0.00099711,-0.000355238,-0.000128108,-0.00114233,-0.388059,0.000722644,0.0125753,1560,1723,5.27605,-15.4663
343,-699,5.29443,15.3282,0.000365862,-0.00219,-0.000886348,0.000643155,-0.00246729,-0.303203,0.00189596,0.0163566,1567,1723,5.29441,-15.3282
350,-699,5.27039,15.2402,0.00123292,-0.00384977,-0.00157028,0.00167891,-0.00429577,-0.276736,0.00355806,0.0265954,1574,1723,5.27037,-15.2402
357,-699,5.16687,15.2422,0.00241795,-0.0054815,-0.00255302,0.00317123,-0.00623477,-0.286912,0.00552574,0.0388497,1581,1723,5.16686,-15.2422
364,-699,5.50476,15.1975,0.00373029,-0.00685219,-0.00388223,0.00500174,-0.00812364,-0.316496,0.00764906,0.0406853,1588,1723,5.50471,-15.1975
371,-699,5.78711,15.0977,0.00526296,-0.00833548,-0.0054948,0.00720573,-0.0102782,-0.339846,0.0101462,0.0480529,1595,1723,5.78714,-15.0977
378,-699,5.28003,14.8907,0,0,0,0,0,0,0,-1,1602,1723,5.28006,-14.8908
385,-699,5.29968,14.2502,0,0,0,0,0,0,0,-1,1609,1723,5.29969,-14.2502
392,-699,4.98376,12.5409,0,0,0,0,0,0,0,-1,1616,1723,4.98372,-12.5409
399,-699,3.91516,9.81726,0,0,0,0,0,0,0,-1,1623,1723,3.9152,-9.81721
406,-699,5.50757,21.6672,0,0,0,0,0,0,0,-1,1630,1723,5.50755,-21.6672
413,-699,4.92773,3.5918,0,0,0,0,0,0,0,-1,1637,1723,4.92777,-3.59182
420,-699,2.15076,7.65527,0,0,0,0,0,0,0,-1,1644,1723,2.15079,-7.65522
427,-699,3.36328,8.2428,0,0,0,0,0,0,0,-1,1651,1723,3.36332,-8.24283
434,-699,4.66455,8.90222,0,0,0,0,0,0,0,-1,1658,1723,4.66456,-8.90223
441,-699,0,0,0,0,0,0,0,0,0,-1,1665,1723,0,0
448,-699,0,0,0,0,0,0,0,0,0,-1,1672,1723,0,0
455,-699,0,0,0,0,0,0,0,0,0,-1,1679,1723,0,0
462,-699,0,0,0,0,0,0,0,0,0,-1,1686,1723,0,0
469,-699,0,0,0,0,0,0,0,0,0,-1,1693,1723,0,0
476,-699,0,0,0,0,0,0,0,0,0,-1,1700,1723,0,0
483,-699,0,0,0,0,0,0,0,0,0,-1,1707,1723,0,0
490,-699,0,0,0,0,0,0,0,0,0,-1,1714,1723,0,0
497,-699,0,0,0,0,0,0,0,0,0,-1,1721,1723,0,0
504,-699,0,0,0,0,0,0,0,0,0,-1,1728,1723,0,0
511,-699,0,0,0,0,0,0,0,0,0,-1,1735,1723,0,0
518,-699,0,0,0,0,0,0,0,0,0,-1,1742,1723,0,0
525,-699,0,0,0,0,0,0,0,0,0,-1,1749,1723,0,0
532,-699,0,0,0,0,0,0,0,0,0,-1,1756,1723,0,0
539,-699,0,0,0,0,0,0,0,0,0,-1,1763,1723,0,0
546,-699,0,0,0,0,0,0,0,0,0,-1,1770,1723,0,0
553,-699,0,0,0,0,0,0,0,0,0,-1,1777,1723,0,0
560,-699,0,0,0,0,0,0,0,0,0,-1,1784,1723,0,0
567,-699,0,0,0,0,0,0,0,0,0,-1,1791,1723,0,0
574,-699,0,0,0,0,0,0,0,0,0,-1,1798,1723,0,0
581,-699,0,0,0,0,0,0,0,0,0,-1,1805,1723,0,0
588,-699,0,0,0,0,0,0,0,0,0,-1,1812,1723,0,0
595,-699,0,0,0,0,0,0,0,0,0,-1,1819,1723,0,0
602,-699,0,0,0,0,0,0,0,0,0,-1,1826,1723,0,0
609,-699,0,0,0,0,0,0,0,0,0,-1,1833,1723,0,0
616,-699,0,0,0,0,0,0,0,0,0,-1,1840,1723,0,0
623,-699,0,0,0,0,0,0,0,0,0,-1,1847,1723,0,0
630,-699,0,0,0,0,0,0,0,0,0,-1,1854,1723,0,0
637,-699,0,0,0,0,0,0,0,0,0,-1,1861,1723,0,0
644,-699,0,0,0,0,0,0,0,0,0,-1,1868,1723,0,0
651,-699,0,0,0,0,0,0,0,0,0,-1,1875,1723,0,0
658,-699,0,0,0,0,0,0,0,0,0,-1,1882,1723,0,0
665,-699,0,0,0,0,0,0,0,0,0,-1,1889,1723,0,0
672,-699,0,0,0,0,0,0,0,0,0,-1,1896,1723,0,0
679,-699,0,0,0,0,0,0,0,0,0,-1,1903,1723,0,0
686,-699,0,0,0,0,0,0,0,0,0,-1,1910,1723,0,0
693,-699,0,0,0,0,0,0,0,0,0,-1,1917,1723,0,0
700,-699,0,0,0,0,0,0,0,0,0,-1,1924,1723,0,0
707,-699,0,0,0,0,0,0,0,0,0,-1,1931,1723,0,0
714,-699,0,0,0,0,0,0,0,0,0,-1,1938,1723,0,0
721,-699,0,0,0,0,0,0,0,0,0,-1,1945,1723,0,0
728,-699,0,0,0,0,0,0,0,0,0,-1,1952,1723,0,0
735,-699,0,0,0,0,0,0,0,0,0,-1,1959,1723,0,0
742,-699,0,0,0,0,0,0,0,0,0,-1,1966,1723,0,0
749,-699,0,0,0,0,0,0,0,0,0,-1,1973,1723,0,0
756,-699,0,0,0,0,0,0,0,0,0,-1,1980,1723,0,0
763,-699,0,0,0,0,0,0,0,0,0,-1,1987,1723,0,0
770,-699,0,0,0,0,0,0,0,0,0,-1,1994,1723,0,0
777,-699,0,0,0,0,0,0,0,0,0,-1,2001,1723,0,0
784,-699,0,0,0,0,0,0,0,0,0,-1,2008,1723,0,0
791,-699,0,0,0,0,0,0,0,0,0,-1,2015,1723,0,0
798,-699,0,0,0,0,0,0,0,0,0,-1,2022,1723,0,0
805,-699,0,0,0,0,0,0,0,0,0,-1,2029,1723,0,0
812,-699,0,0,0,0,0,0,0,0,0,-1,2036,1723,0,0
-700,-706,0,0,0,0,0,0,0,0,0,-1,524,1730,0,0
-693,-706,0,0,0,0,0,0,0,0,0,-1,531,1730,0,0
-686,-706,0,0,0,0,0,0,0,0,0,-1,538,1730,0,0
-679,-706,0,0,0,0,0,0,0,0,0,-1,545,1730,0,0
-672,-706,0,0,0,0,0,0,0,0,0,-1,552,1730,0,0
-665,-706,0,0,0,0,0,0,0,0,0,-1,559,1730,0,0
-658,-706,0,0,0,0,0,0,0,0,0,-1,566,1730,0,0
-651,-706,0,0,0,0,0,0,0,0,0,-1,573,1730,0,0
-644,-706,0,0,0,0,0,0,0,0,0,-1,580,1730,0,0
-637,-706,0,0,0,0,0,0,0,0,0,-1,587,1730,0,0
-630,-706,0,0,0,0,0,0,0,0,0,-1,594,1730,0,0
-623,-706,0,0,0,0,0,0,0,0,0,-1,601,1730,0,0
-616,-706,0,0,0,0,0,0,0,0,0,-1,608,1730,0,0
-609,-706,0,0,0,0,0,0,0,0,0,-1,615,1730,0,0
-602,-706,0,0,0,0,0,0,0,0,0,-1,622,1730,0,0
-595,-706,0,0,0,0,0,0,0,0,0,-1,629,1730,0,0
-588,-706,0,0,0,0,0,0,0,0,0,-1,636,1730,0,0
-581,-706,0,0,0,0,0,0,0,0,0,-1,643,1730,0,0
-574,-706,0,0,0,0,0,0,0,0,0,-1,650,1730,0,0
-567,-706,0,0,0,0,0,0,0,0,0,-1,657,1730,0,0
-560,-706,0,0,0,0,0,0,0,0,0,-1,664,1730,0,0
-553,-706,0,0,0,0,0,0,0,0,0,-1,671,1730,0,0
-546,-706,0,0,0,0,0,0,0,0,0,-1,678,1730,0,0
-539,-706,0,0,0,0,0,0,0,0,0,-1,685,1730,0,0
-532,-706,0,0,0,0,0,0,0,0,0,-1,692,1730,0,0
-525,-706,0,0,0,0,0,0,0,0,0,-1,699,1730,0,0
-518,-706,0,0,0,0,0,0,0,0,0,-1,706,1730,0,0
-511,-706,0,0,0,0,0,0,0,0,0,-1,713,1730,0,0
-504,-706,0,0,0,0,0,0,0,0,0,-1,720,1730,0,0
-497,-706,0,0,0,0,0,0,0,0,0,-1,727,1730,0,0
-490,-706,0,0,0,0,0,0,0,0,0,-1,734,1730,0,0
-483,-706,0,0,0,0,0,0,0,0,0,-1,741,1730,0,0
-476,-706,0,0,0,0,0,0,0,0,0,-1,748,1730,0,0
-469,-706,0,0,0,0,0,0,0,0,0,-1,755,1730,0,0
-462,-706,0,0,0,0,0,0,0,0,0,-1,762,1730,0,0
-455,-706,0,0,0,0,0,0,0,0,0,-1,769,1730,0,0
-448,-706,0,0,0,0,0,0,0,0,0,-1,776,1730,0,0
-441,-706,0,0,0,0,0,0,0,0,0,-1,783,1730,0,0
-434,-706,0,0,0,0,0,0,0,0,0,-1,790,1730,0,0
-427,-706,0,0,0,0,0,0,0,0,0,-1,797,1730,0,0
-420,-706,0,0,0,0,0,0,0,0,0,-1,804,1730,0,0
-413,-706,0,0,0,0,0,0,0,0,0,-1,811,1730,0,0
-406,-706,0,0,0,0,0,0,0,0,0,-1,818,1730,0,0
-399,-706,0,0,0,0,0,0,0,0,0,-1,825,1730,0,0
-392,-706,0,0,0,0,0,0,0,0,0,-1,832,1730,0,0
-385,-706,0,0,0,0,0,0,0,0,0,-1,839,1730,0,0
-378,-706,0,0,0,0,0,0,0,0,0,-1,846,1730,0,0
-371,-706,0,0,0,0,0,0,0,0,0,-1,853,1730,0,0
-364,-706,0,0,0,0,0,0,0,0,0,-1,860,1730,0,0
-357,-706,0,0,0,0,0,0,0,0,0,-1,867,1730,0,0
-350,-706,0,0,0,0,0,0,0,0,0,-1,874,1730,0,0
-343,-706,0,0,0,0,0,0,0,0,0,-1,881,1730,0,0
-336,-706,0,0,0,0,0,0,0,0,0,-1,888,1730,0,0
-329,-706,0,0,0,0,0,0,0,0,0,-1,895,1730,0,0
-322,-706,0,0,0,0,0,0,0,0,0,-1,902,1730,0,0
-315,-706,0,0,0,0,0,0,0,0,0,-1,909,1730,0,0
-308,-706,5.08191,14.6245,0,0,0,0,0,0,0,-1,916,1730,5.08188,-14.6245
-301,-706,5.28516,13.4028,0,0,0,0,0,0,0,-1,923,1730,5.28516,-13.4029
-294,-706,7.08746,11.6641,0,0,0,0,0,0,0,-1,930,1730,7.08747,-11.664
-287,-706,1.66724,14.0443,0,0,0,0,0,0,0,-1,937,1730,1.66722,-14.0444
-280,-706,5.89709,14.7361,0,0,0,0,0,0,0,-1,944,1730,5.89707,-14.736
-273,-706,5.30731,14.1256,0,0,0,0,0,0,0,-1,951,1730,5.30729,-14.1256
-266,-706,5.75647,13.5884,0,0,0,0,0,0,0,-1,958,1730,5.75648,-13.5883
-259,-706,3.3598,9.72961,0,0,0,0,0,0,0,-1,965,1730,3.35979,-9.72962
-252,-706,3.05963,10.0499,0,0,0,0,0,0,0,-1,972,1730,3.05962,-10.05
-245,-706,2.28943,16.1493,0,0,0,0,0,0,0,-1,979,1730,2.28944,-16.1493
-238,-706,5.05334,13.2124,0,0,0,0,0,0,0,-1,986,1730,5.05333,-13.2124
-231,-706,4.92609,14.5796,0,0,0,0,0,0,0,-1,993,1730,4.92611,-14.5796
-224,-706,4.82855,14.5918,-0.00088338,-0.0228949,-0.0165107,0.00795351,-0.0317318,-0.491426,0.0242446,0.0472359,1000,1730,4.82854,-14.5918
-217,-706,4.64099,15.123,-0.0042066,-0.0216333,-0.0123601,0.00220272,-0.0280426,-0.478376,0.0194709,0.0419755,1007,1730,4.64101,-15.1231
-210,-706,4.66437,14.885,-0.00536708,-0.0181052,-0.0102089,0.000296578,-0.0237688,-0.506504,0.0159457,0.0399032,1014,1730,4.66434,-14.8851
-203,-706,4.7605,14.9092,-0.00569087,-0.0138539,-0.00856069,-0.000288513,-0.0192563,-0.56295,0.0127425,0.0308235,1021,1730,4.76055,-14.9092
-196,-706,4.83362,14.9584,-0.00604389,-0.00960496,-0.00708798,-0.000516233,-0.0151326,-0.662342,0.00992082,0.0232334,1028,1730,4.83364,-14.9583
-189,-706,4.8053,15.1256,-0.00629782,-0.00585671,-0.00589976,-0.000173382,-0.0119811,-0.804082,0.00793027,0.0190981,1035,1730,4.80527,-15.1255
-182,-706,4.81238,15.3097,-0.00650178,-0.00246098,-0.00475328,0.000683466,-0.00964623,-0.986356,0.00667032,0.0140161,1042,1730,4.81232,-15.3097
-175,-706,4.81189,15.4482,-0.00648704,0.000174619,-0.00371151,0.00183075,-0.00814317,-1.1511,0.00613083,0.0152466,1049,1730,4.81188,-15.4482
-168,-706,4.83276,15.5623,-0.00624806,0.00196071,-0.0025407,0.00268345,-0.0069708,-1.29365,0.00575418,0.0159871,1056,1730,4.83272,-15.5622
-161,-706,4.83081,15.6984,-0.00565523,0.00383127,-0.00169914,0.00412643,-0.00595039,-1.39881,0.00584953,0.0132888,1063,1730,4.83083,-15.6983
-154,-706,4.78894,15.8424,-0.00496635,0.0050522,-0.00107088,0.00516539,-0.00507953,-1.46549,0.00591498,0.0135379,1070,1730,4.78898,-15.8424
-147,-706,4.7749,15.9404,-0.00426674,0.00484271,-0.000536152,0.00487416,-0.00429818,-1.51221,0.00529913,0.0132386,1077,1730,4.77484,-15.9404
-140,-706,4.78198,16.0671,-0.00335636,0.00372677,-0.000262151,0.00373645,-0.00336605,-1.53385,0.00410249,0.0114356,1084,1730,4.78194,-16.0671
-133,-706,4.797,16.1904,-0.00240866,0.00255841,-0.00012105,0.00256136,-0.00241161,-1.54645,0.00287158,0.0081014,1091,1730,4.79706,-16.1904
-126,-706,4.78662,16.3068,-0.00150071,0.00173171,0.000129627,0.0017369,-0.0015059,1.53078,0.00187382,0.0129145,1098,1730,4.78658,-16.3067
-119,-706,4.7854,16.4429,-0.000521099,0.000983477,0.000485939,0.00112678,-0.000664397,1.28404,0.00104556,0.0181912,1105,1730,4.78536,-16.4429
-112,-706,4.77051,16.5453,0.000216784,0.000274486,0.000731887,0.000978091,-0.00048682,0.805098,0.000861474,0.012655,1112,1730,4.77051,-16.5453
-105,-706,4.78076,16.6609,0.000545387,-0.000152235,0.000800571,0.00106984,-0.000676684,0.579948,0.00101683,0.0093903,1119,1730,4.78074,-16.6608
-98,-706,4.80017,16.7581,0.000803273,-0.00052047,0.000903962,0.00126177,-0.000978965,0.469396,0.00129712,0.0111462,1126,1730,4.80018,-16.7581
-91,-706,4.80713,16.8483,0.000982472,-0.000613991,0.000979109,0.0014475,-0.00107902,0.443409,0.00146385,0.0143972,1133,1730,4.80718,-16.8483
-84,-706,4.76758,16.918,0.00111384,-0.000617569,0.00106405,0.00161987,-0.0011236,0.44391,0.00159255,0.0174705,1140,1730,4.76761,-16.918
-77,-706,4.76355,17.024,0.00127291,-0.00053381,0.00103999,0.0017471,-0.001008,0.427796,0.00160962,0.0161523,1147,1730,4.7635,-17.024
-70,-706,4.76465,17.1456,0.00143344,-0.000542497,0.000934687,0.00180552,-0.000914573,0.378846,0.00159828,0.0175575,1154,1730,4.76467,-17.1456
-63,-706,4.77209,17.2168,0.0016224,-0.000654302,0.000826733,0.00189093,-0.000922839,0.314066,0.00165627,0.0131479,1161,1730,4.77213,-17.2168
-56,-706,4.78345,17.2813,0.00192425,-0.00080204,0.000915405,0.0022031,-0.00108088,0.295684,0.00193256,0.0122108,1168,1730,4.7835,-17.2813
-49,-706,4.77161,17.3809,0.00233616,0.000962565,0.00144856,0.00325249,4.62353e-05,0.564031,0.00215308,0.0131319,1175,1730,4.77161,-17.3809
-42,-706,4.79932,17.4557,0.00284592,0.00311567,0.00180178,0.00478761,0.00117397,0.822757,0.00288127,0.0175907,1182,1730,4.79937,-17.4557
-35,-706,4.81104,17.4973,0.00335098,0.0057194,0.00202914,0.0068846,0.00218577,1.04954,0.00406214,0.0168464,1189,1730,4.81109,-17.4973
-28,-706,4.82776,17.5262,0.00379368,0.00796293,0.00231444,0.00899315,0.00276345,1.152,0.0053192,0.0102036,1196,1730,4.82775,-17.5263
-21,-706,4.82922,17.5775,0.00462044,0.0100122,0.00261375,0.0110712,0.00356139,1.18583,0.00652606,0.00993925,1203,1730,4.82928,-17.5775
-14,-706,4.84717,17.6445,0.00473563,0.0115153,0.00282566,0.0125385,0.00371237,1.22336,0.00743709,0.00997849,1210,1730,4.84718,-17.6445
-7,-706,4.8656,17.7115,0.00490752,0.0132534,0.00327212,0.0143833,0.00377761,1.2383,0.00861048,0.00857074,1217,1730,4.8656,-17.7115
0,-706,4.87976,17.7679,0.00502052,0.0145339,0.00360919,0.0157482,0.00380626,1.24626,0.00948805,0.0126295,1224,1730,4.87981,-17.768
7,-706,4.87646,17.8002,0.00493077,0.0149481,0.00380786,0.0162312,0.00364765,1.24578,0.00983311,0.0145633,1231,1730,4.87649,-17.8002
14,-706,4.8822,17.8356,0.00466312,0.0146703,0.00404376,0.0161001,0.00323336,1.23094,0.0098344,0.0138142,1238,1730,4.88222,-17.8355
21,-706,4.89526,17.8483,0.00398017,0.0137554,0.00405805,0.0152205,0.0025151,1.22433,0.00942118,0.0119063,1245,1730,4.89525,-17.8483
28,-706,4.9104,17.8751,0.00311813,0.012322,0.00389391,0.0137484,0.00169178,1.21967,0.00865695,0.0125973,1252,1730,4.91036,-17.8751
35,-706,4.92493,17.9172,0.00198782,0.010555,0.00374187,0.0119592,0.000583639,1.2118,0.00778555,0.0141451,1259,1730,4.92491,-17.9172
42,-706,4.94238,17.9537,0.000646292,0.0086823,0.00354871,0.0100251,-0.000696455,1.20907,0.0069272,0.0115409,1266,1730,4.94238,-17.9537
49,-706,4.96753,17.9725,-0.000751586,0.00667816,0.00312738,0.00781929,-0.00189272,1.22092,0.00594506,0.0135581,1273,1730,4.96758,-17.9725
56,-706,5.00635,17.9788,-0.00235705,0.00384504,0.00253286,0.00474798,-0.00325999,1.22835,0.00464993,0.0140767,1280,1730,5.00636,-17.9788
63,-706,5.00732,17.9716,-0.00381045,0.00161264,0.00209769,0.00232933,-0.00452714,1.24157,0.0040258,0.0120601,1287,1730,5.00728,-17.9715
70,-706,4.99561,17.9742,-0.00500716,-0.000665928,0.00167709,-9.35139e-05,-0.00557958,1.24188,0.00368894,0.0123181,1294,1730,4.99561,-17.9742
77,-706,5.00269,17.9868,-0.00615139,-0.00255961,0.00124819,-0.00216845,-0.00654255,1.26711,0.00384823,0.0107116,1301,1730,5.00273,-17.9868
84,-706,5.01648,17.9974,-0.00738943,-0.00412256,0.000878482,-0.00390131,-0.00761067,1.32408,0.00439449,0.00858955,1308,1730,5.01643,-17.9974
91,-706,5.04285,18.0155,-0.00706065,-0.00330354,0.000731728,-0.00316606,-0.00719813,1.38508,0.00416586,0.00966839,1315,1730,5.0428,-18.0155
98,-706,5.0542,18.0214,-0.00616872,-0.00358295,0.000677987,-0.00341597,-0.00633571,1.32931,0.00366166,0.0134224,1322,1730,5.05423,-18.0214
105,-706,5.06323,18.0087,-0.00544999,-0.00339539,0.000685785,-0.00318752,-0.00565786,1.27649,0.0032753,0.015562,1329,1730,5.06328,-18.0087
112,-706,5.05493,17.9967,-0.00420696,-0.00265721,0.000944102,-0.00221071,-0.00465346,1.12903,0.00268779,0.0144878,1336,1730,5.05495,-17.9967
119,-706,5.08179,17.9996,-0.00265616,-0.00173639,0.00114743,-0.00096012,-0.00343243,0.975994,0.00204482,0.0122716,1343,1730,5.08176,-17.9996
126,-706,5.09521,17.9646,-0.000831637,-0.000908691,0.00156967,0.000699977,-0.0024403,0.773128,0.00190359,0.0144119,1350,1730,5.09518,-17.9646
133,-706,5.10669,17.9197,0.000861949,0.000192094,0.00208475,0.00263851,-0.00158446,0.705751,0.00246332,0.0125421,1357,1730,5.10674,-17.9196
140,-706,5.14941,17.8727,0.00250253,0.00153947,0.00232851,0.00439878,-0.00035678,0.683437,0.00305839,0.0117389,1364,1730,5.14944,-17.8727
147,-706,5.15564,17.8196,0.00371651,0.00257802,0.00242316,0.00563639,0.000658146,0.670031,0.00355856,0.0195909,1371,1730,5.15561,-17.8196
154,-706,5.15869,17.8212,0.00428296,0.00340125,0.00252307,0.00640339,0.00128081,0.698907,0.00391251,0.0189748,1378,1730,5.15872,-17.8212
161,-706,5.1543,17.7825,0.00469057,0.00448715,0.00236512,0.00695617,0.00222155,0.763909,0.00410258,0.0105445,1385,1730,5.15425,-17.7825
168,-706,5.15845,17.7238,0.00443178,0.00447232,0.0020366,0.00648875,0.00241535,0.790375,0.00378683,0.0106239,1392,1730,5.1584,-17.7238
175,-706,5.18103,17.6803,0.00399273,0.00465019,0.00168006,0.00603338,0.00260954,0.88201,0.00349393,0.0105613,1399,1730,5.18108,-17.6803
182,-706,5.18347,17.6222,0.00366545,0.00443126,0.00116258,0.00527237,0.00282435,0.944484,0.00304659,0.0107443,1406,1730,5.18351,-17.6222
189,-706,5.17432,17.5389,0.0032993,0.0038659,0.000587466,0.00423481,0.00293039,1.01007,0.00250432,0.0135866,1413,1730,5.17437,-17.5389
196,-706,5.18884,17.4722,0.00233099,0.0010346,0.000155271,0.00234933,0.00101627,0.117557,0.00136049,0.012046,1420,1730,5.18885,-17.4721
203,-706,5.18884,17.4266,0.000893017,0.00130669,-0.00030431,0.0014678,0.000731904,-1.08388,0.000847434,0.0127154,1427,1730,5.18884,-17.4266
210,-706,5.1825,17.3468,0.000562166,0.00132485,-0.000444104,0.00152888,0.000358145,-1.14015,0.00092332,0.011963,1434,1730,5.18253,-17.3468
217,-706,5.19189,17.2762,0.000235957,0.00133338,-0.000629346,0.00161963,-5.02926e-05,-1.14393,0.0010969,0.0129597,1441,1730,5.19185,-17.2763
224,-706,5.20642,17.2209,0.00012235,0.00130635,-0.00066636,0.0016057,-0.000176998,-1.14858,0.00113408,0.0173024,1448,1730,5.20637,-17.2209
231,-706,5.21619,17.131,1.45395e-05,0.00132192,-0.000672315,0.00160595,-0.00026949,-1.17108,0.00117085,0.0125207,1455,1730,5.21617,-17.1309
238,-706,5.19922,17.0333,-1.90527e-05,0.00145741,-0.000642532,0.00169787,-0.000259511,-1.2127,0.00122759,0.0085444,1462,1730,5.19918,-17.0333
245,-706,5.19849,16.9431,-9.20486e-06,0.00167483,-0.000623255,0.0018804,-0.000214775,-1.2522,0.00133098,0.0112932,1469,1730,5.19847,-16.9431
252,-706,5.20374,16.8698,-1.21918e-05,0.00189306,-0.000643347,0.00208996,-0.000209083,-1.27381,0.00146797,0.0108514,1476,1730,5.20368,-16.8698
259,-706,5.21643,16.7859,3.37529e-05,0.00213624,-0.000652355,0.0023222,-0.00015221,-1.2931,0.00160129,0.0122924,1483,1730,5.21648,-16.7858
266,-706,5.20496,16.6926,2.78866e-05,0.00240523,-0.000663485,0.00257787,-0.000144747,-1.31625,0.0017688,0.0121278,1490,1730,5.20492,-16.6927
273,-706,5.19714,16.5765,-0.000126111,0.00280162,-0.00070264,0.00296152,-0.000286008,-1.34704,0.00207626,0.0112394,1497,1730,5.19717,-16.5765
280,-706,5.1958,16.4581,-0.000286382,0.003089,-0.00069563,0.00322674,-0.000424123,-1.37532,0.00230557,0.0100039,1504,1730,5.19586,-16.4582
287,-706,5.18274,16.3319,-0.000487797,0.00317179,-0.000582003,0.00326212,-0.000578126,-1.41682,0.00239087,0.0108285,1511,1730,5.18279,-16.3319
294,-706,5.19214,16.2329,-0.00066832,0.00369534,-0.000550684,0.00376376,-0.000736743,-1.44718,0.0027874,0.0103099,1518,1730,5.19213,-16.2329
301,-706,5.19543,16.124,-0.00113345,0.00359344,-0.000242711,0.00360587,-0.00114588,-1.51963,0.00286335,0.00969296,1525,1730,5.19549,-16.124
308,-706,5.20679,16.0118,-0.00156262,0.00290795,0.000128668,0.00291165,-0.00156632,1.54205,0.00262396,0.0124401,1532,1730,5.20679,-16.0118
315,-706,5.24365,15.8982,-0.00173281,0.00265067,0.000284096,0.002669,-0.00175114,1.50635,0.00257025,0.018477,1539,1730,5.24366,-15.8982
322,-706,5.22937,15.7526,-0.0015974,0.00179657,0.000264898,0.00181712,-0.00161796,1.49337,0.00198436,0.0188064,1546,1730,5.22941,-15.7526
329,-706,5.18079,15.593,-0.00142946,0.000598308,0.000352352,0.000657789,-0.00148894,1.40356,0.00127,0.0163363,1553,1730,5.18074,-15.593
336,-706,5.16565,15.4203,-0.000774895,-0.000853826,-4.32164e-05,-0.000755836,-0.000872886,-0.415367,0.000547097,0.0229236,1560,1730,5.1656,-15.4203
343,-706,5.24084,15.2076,7.38466e-05,-0.00257678,-0.000593524,0.000200679,-0.00270361,-0.210527,0.00187289,0.0325525,1567,1730,5.24081,-15.2076
350,-706,5.16235,15.3815,0.00125543,-0.00487028,-0.0013988,0.00155973,-0.00517458,-0.214205,0.00407049,0.0391964,1574,1730,5.16231,-15.3815
357,-706,4.93018,15.473,0,0,0,0,0,0,0,-1,1581,1730,4.93019,-15.473
364,-706,5.578,15.427,0,0,0,0,0,0,0,-1,1588,1730,5.578,-15.427
371,-706,5.85181,15.3018,0,0,0,0,0,0,0,-1,1595,1730,5.85181,-15.3018
378,-706,4.92493,15.8813,0,0,0,0,0,0,0,-1,1602,1730,4.92492,-15.8813
385,-706,4.94543,15.7039,0,0,0,0,0,0,0,-1,1609,1730,4.94547,-15.7039
392,-706,3.42236,11.9617,0,0,0,0,0,0,0,-1,1616,1730,3.42241,-11.9617
399,-706,3.21667,13.4043,0,0,0,0,0,0,0,-1,1623,1730,3.21671,-13.4043
406,-706,3.80188,18.3816,0,0,0,0,0,0,0,-1,1630,1730,3.80184,-18.3815
413,-706,4.23645,20.028,0,0,0,0,0,0,0,-1,1637,1730,4.23649,-20.0279
420,-706,5.7926,4.15125,0,0,0,0,0,0,0,-1,1644,1730,5.79255,-4.15128
427,-706,0,0,0,0,0,0,0,0,0,-1,1651,1730,0,0
434,-706,0,0,0,0,0,0,0,0,0,-1,1658,1730,0,0
441,-706,0,0,0,0,0,0,0,0,0,-1,1665,1730,0,0
448,-706,0,0,0,0,0,0,0,0,0,-1,1672,1730,0,0
455,-706,0,0,0,0,0,0,0,0,0,-1,1679,1730,0,0
462,-706,0,0,0,0,0,0,0,0,0,-1,1686,1730,0,0
469,-706,0,0,0,0,0,0,0,0,0,-1,1693,1730,0,0
476,-706,0,0,0,0,0,0,0,0,0,-1,1700,1730,0,0
483,-706,0,0,0,0,0,0,0,0,0,-1,1707,1730,0,0
490,-706,0,0,0,0,0,0,0,0,0,-1,1714,1730,0,0
497,-706,0,0,0,0,0,0,0,0,0,-1,1721,1730,0,0
504,-706,0,0,0,0,0,0,0,0,0,-1,1728,1730,0,0
511,-706,0,0,0,0,0,0,0,0,0,-1,1735,1730,0,0
518,-706,0,0,0,0,0,0,0,0,0,-1,1742,1730,0,0
525,-706,0,0,0,0,0,0,0,0,0,-1,1749,1730,0,0
532,-706,0,0,0,0,0,0,0,0,0,-1,1756,1730,0,0
539,-706,0,0,0,0,0,0,0,0,0,-1,1763,1730,0,0
546,-706,0,0,0,0,0,0,0,0,0,-1,1770,1730,0,0
553,-706,0,0,0,0,0,0,0,0,0,-1,1777,1730,0,0
560,-706,0,0,0,0,0,0,0,0,0,-1,1784,1730,0,0
567,-706,0,0,0,0,0,0,0,0,0,-1,1791,1730,0,0
574,-706,0,0,0,0,0,0,0,0,0,-1,1798,1730,0,0
581,-706,0,0,0,0,0,0,0,0,0,-1,1805,1730,0,0
588,-706,0,0,0,0,0,0,0,0,0,-1,1812,1730,0,0
595,-706,0,0,0,0,0,0,0,0,0,-1,1819,1730,0,0
602,-706,0,0,0,0,0,0,0,0,0,-1,1826,1730,0,0
609,-706,0,0,0,0,0,0,0,0,0,-1,1833,1730,0,0
616,-706,0,0,0,0,0,0,0,0,0,-1,1840,1730,0,0
623,-706,0,0,0,0,0,0,0,0,0,-1,1847,1730,0,0
630,-706,0,0,0,0,0,0,0,0,0,-1,1854,1730,0,0
637,-706,0,0,0,0,0,0,0,0,0,-1,1861,1730,0,0
644,-706,0,0,0,0,0,0,0,0,0,-1,1868,1730,0,0
651,-706,0,0,0,0,0,0,0,0,0,-1,1875,1730,0,0
658,-706,0,0,0,0,0,0,0,0,0,-1,1882,1730,0,0
665,-706,0,0,0,0,0,0,0,0,0,-1,1889,1730,0,0
672,-706,0,0,0,0,0,0,0,0,0,-1,1896,1730,0,0
679,-706,0,0,0,0,0,0,0,0,0,-1,1903,1730,0,0
686,-706,0,0,0,0,0,0,0,0,0,-1,1910,1730,0,0
693,-706,0,0,0,0,0,0,0,0,0,-1,1917,1730,0,0
700,-706,0,0,0,0,0,0,0,0,0,-1,1924,1730,0,0
707,-706,0,0,0,0,0,0,0,0,0,-1,1931,1730,0,0
714,-706,0,0,0,0,0,0,0,0,0,-1,1938,1730,0,0
721,-706,0,0,0,0,0,0,0,0,0,-1,1945,1730,0,0
728,-706,0,0,0,0,0,0,0,0,0,-1,1952,1730,0,0
735,-706,0,0,0,0,0,0,0,0,0,-1,1959,1730,0,0
742,-706,0,0,0,0,0,0,0,0,0,-1,1966,1730,0,0
749,-706,0,0,0,0,0,0,0,0,0,-1,1973,1730,0,0
756,-706,0,0,0,0,0,0,0,0,0,-1,1980,1730,0,0
763,-706,0,0,0,0,0,0,0,0,0,-1,1987,1730,0,0
770,-706,0,0,0,0,0,0,0,0,0,-1,1994,1730,0,0
777,-706,0,0,0,0,0,0,0,0,0,-1,2001,1730,0,0
784,-706,0,0,0,0,0,0,0,0,0,-1,2008,1730,0,0
791,-706,0,0,0,0,0,0,0,0,0,-1,2015,1730,0,0
798,-706,0,0,0,0,0,0,0,0,0,-1,2022,1730,0,0
805,-706,0,0,0,0,0,0,0,0,0,-1,2029,1730,0,0
812,-706,0,0,0,0,0,0,0,0,0,-1,2036,1730,0,0
-700,-713,0,0,0,0,0,0,0,0,0,-1,524,1737,0,0
-693,-713,0,0,0,0,0,0,0,0,0,-1,531,1737,0,0
-686,-713,0,0,0,0,0,0,0,0,0,-1,538,1737,0,0
-679,-713,0,0,0,0,0,0,0,0,0,-1,545,1737,0,0
-672,-713,0,0,0,0,0,0,0,0,0,-1,552,1737,0,0
-665,-713,0,0,0,0,0,0,0,0,0,-1,559,1737,0,0
-658,-713,0,0,0,0,0,0,0,0,0,-1,566,1737,0,0
-651,-713,0,0,0,0,0,0,0,0,0,-1,573,1737,0,0
-644,-713,0,0,0,0,0,0,0,0,0,-1,580,1737,0,0
-637,-713,0,0,0,0,0,0,0,0,0,-1,587,1737,0,0
-630,-713,0,0,0,0,0,0,0,0,0,-1,594,1737,0,0
-623,-713,0,0,0,0,0,0,0,0,0,-1,601,1737,0,0
-616,-713,0,0,0,0,0,0,0,0,0,-1,608,1737,0,0
-609,-713,0,0,0,0,0,0,0,0,0,-1,615,1737,0,0
-602,-713,0,0,0,0,0,0,0,0,0,-1,622,1737,0,0
-595,-713,0,0,0,0,0,0,0,0,0,-1,629,1737,0,0
-588,-713,0,0,0,0,0,0,0,0,0,-1,636,1737,0,0
-581,-713,0,0,0,0,0,0,0,0,0,-1,643,1737,0,0
-574,-713,0,0,0,0,0,0,0,0,0,-1,650,1737,0,0
-567,-713,0,0,0,0,0,0,0,0,0,-1,657,1737,0,0
-560,-713,0,0,0,0,0,0,0,0,0,-1,664,1737,0,0
-553,-713,0,0,0,0,0,0,0,0,0,-1,671,1737,0,0
-546,-713,0,0,0,0,0,0,0,0,0,-1,678,1737,0,0
-539,-713,0,0,0,0,0,0,0,0,0,-1,685,1737,0,0
-532,-713,0,0,0,0,0,0,0,0,0,-1,692,1737,0,0
-525,-713,0,0,0,0,0,0,0,0,0,-1,699,1737,0,0
-518,-713,0,0,0,0,0,0,0,0,0,-1,706,1737,0,0
-511,-713,0,0,0,0,0,0,0,0,0,-1,713,1737,0,0
-504,-713,0,0,0,0,0,0,0,0,0,-1,720,1737,0,0
-497,-713,0,0,0,0,0,0,0,0,0,-1,727,1737,0,0
-490,-713,0,0,0,0,0,0,0,0,0,-1,734,1737,0,0
-483,-713,0,0,0,0,0,0,0,0,0,-1,741,1737,0,0
-476,-713,0,0,0,0,0,0,0,0,0,-1,748,1737,0,0
-469,-713,0,0,0,0,0,0,0,0,0,-1,755,1737,0,0
-462,-713,0,0,0,0,0,0,0,0,0,-1,762,1737,0,0
-455,-713,0,0,0,0,0,0,0,0,0,-1,769,1737,0,0
-448,-713,0,0,0,0,0,0,0,0,0,-1,776,1737,0,0
-441,-713,0,0,0,0,0,0,0,0,0,-1,783,1737,0,0
-434,-713,0,0,0,0,0,0,0,0,0,-1,790,1737,0,0
-427,-713,0,0,0,0,0,0,0,0,0,-1,797,1737,0,0
-420,-713,0,0,0,0,0,0,0,0,0,-1,804,1737,0,0
-413,-713,0,0,0,0,0,0,0,0,0,-1,811,1737,0,0
-406,-713,0,0,0,0,0,0,0,0,0,-1,818,1737,0,0
-399,-713,0,0,0,0,0,0,0,0,0,-1,825,1737,0,0
-392,-713,0,0,0,0,0,0,0,0,0,-1,832,1737,0,0
-385,-713,0,0,0,0,0,0,0,0,0,-1,839,1737,0,0
-378,-713,0,0,0,0,0,0,0,0,0,-1,846,1737,0,0
-371,-713,0,0,0,0,0,0,0,0,0,-1,853,1737,0,0
-364,-713,0,0,0,0,0,0,0,0,0,-1,860,1737,0,0
-357,-713,0,0,0,0,0,0,0,0,0,-1,867,1737,0,0
-350,-713,0,0,0,0,0,0,0,0,0,-1,874,1737,0,0
-343,-713,0,0,0,0,0,0,0,0,0,-1,881,1737,0,0
-336,-713,0,0,0,0,0,0,0,0,0,-1,888,1737,0,0
-329,-713,0,0,0,0,0,0,0,0,0,-1,895,1737,0,0
-322,-713,0,0,0,0,0,0,0,0,0,-1,902,1737,0,0
-315,-713,0,0,0,0,0,0,0,0,0,-1,909,1737,0,0
-308,-713,0,0,0,0,0,0,0,0,0,-1,916,1737,0,0
-301,-713,0,0,0,0,0,0,0,0,0,-1,923,1737,0,0
-294,-713,6.3161,13.046,0,0,0,0,0,0,0,-1,930,1737,6.31612,-13.046
-287,-713,4.97375,15.095,0,0,0,0,0,0,0,-1,937,1737,4.97375,-15.095
-280,-713,5.48328,14.3436,0.0355426,-0.0013948,-0.086833,0.105849,-0.0717015,-0.680614,0.103139,0.0482276,944,1737,5.48328,-14.3436
-273,-713,6.02954,13.9056,0.0322162,-0.00120336,-0.0790744,0.0963271,-0.0653142,-0.681271,0.0938945,0.0470103,951,1737,6.02954,-13.9057
-266,-713,6.52106,13.4521,0,0,0,0,0,0,0,-1,958,1737,6.52105,-13.4522
-259,-713,2.67322,10.5743,0,0,0,0,0,0,0,-1,965,1737,2.67324,-10.5743
-252,-713,3.55267,8.86694,0,0,0,0,0,0,0,-1,972,1737,3.55265,-8.86693
-245,-713,5.05389,17.6932,0,0,0,0,0,0,0,-1,979,1737,5.05392,-17.6932
-238,-713,4.45013,14.9313,0,0,0,0,0,0,0,-1,986,1737,4.45013,-14.9313
-231,-713,4.63519,14.7144,0,0,0,0,0,0,0,-1,993,1737,4.63522,-14.7143
-224,-713,4.78992,16.5457,0,0,0,0,0,0,0,-1,1000,1737,4.78993,-16.5456
-217,-713,4.72186,16.0135,-0.0065458,-0.0268632,-0.0185454,0.00444097,-0.0378499,-0.534832,0.0268364,0.047196,1007,1737,4.72186,-16.0136
-210,-713,4.64301,15.6033,-0.00824667,-0.0221442,-0.0156506,0.00192844,-0.0323193,-0.576475,0.0222169,0.0479074,1014,1737,4.64301,-15.6032
-203,-713,4.61267,15.1716,-0.00910576,-0.016387,-0.0132979,0.00104082,-0.0265336,-0.651784,0.018046,0.0418476,1021,1737,4.61264,-15.1716
-196,-713,4.93176,14.8281,-0.00999001,-0.0106402,-0.0111616,0.000851195,-0.0214814,-0.770839,0.0146129,0.0413505,1028,1737,4.93179,-14.8281
-189,-713,4.8949,14.9855,-0.0106042,-0.00558467,-0.00934055,0.00157743,-0.0177663,-0.916645,0.0124035,0.0393824,1035,1737,4.89491,-14.9855
-182,-713,4.86621,15.3171,-0.0109938,-0.00121126,-0.00758225,0.00292051,-0.0151255,-1.07186,0.011185,0.0256965,1042,1737,4.86623,-15.3171
-175,-713,4.94702,15.4137,-0.010979,0.00203645,-0.00597299,0.00436202,-0.0133046,-1.19951,0.0106265,0.0213052,1049,1737,4.94705,-15.4137
-168,-713,5.00012,15.4999,-0.0106267,0.00413525,-0.0041803,0.00523683,-0.0117282,-1.31314,0.010031,0.0255489,1056,1737,5.00013,-15.4999
-161,-713,4.95728,15.6969,-0.00966567,0.00632953,-0.00293076,0.00684961,-0.0101858,-1.39517,0.00989804,0.0144505,1063,1737,4.95723,-15.6969
-154,-713,4.92749,15.8142,-0.00859972,0.00780764,-0.00197121,0.00804114,-0.00883322,-1.45289,0.00974599,0.0118646,1070,1737,4.92744,-15.8142
-147,-713,4.89673,15.9474,-0.00747728,0.00746869,-0.00111192,0.00755096,-0.00755955,-1.49694,0.00872406,0.0192736,1077,1737,4.89677,-15.9473
-140,-713,4.90649,16.0841,-0.00606519,0.00599502,-0.000636718,0.00602854,-0.00609871,-1.5182,0.00700171,0.0183029,1084,1737,4.90651,-16.0841
-133,-713,4.89868,16.1885,-0.00469094,0.00449902,-0.000377018,0.00451446,-0.00470638,-1.52986,0.00532404,0.0105635,1091,1737,4.89874,-16.1884
-126,-713,4.8916,16.2947,-0.00341922,0.00346109,-3.69461e-05,0.00346129,-0.00341942,-1.56543,0.0039726,0.0170176,1098,1737,4.89162,-16.2947
-119,-713,4.90051,16.4088,-0.00197625,0.00248854,0.000421316,0.00252795,-0.00201566,1.47753,0.0026288,0.0258239,1105,1737,4.90049,-16.4088
-112,-713,4.87488,16.5525,-0.000883809,0.00158021,0.000715419,0.00177286,-0.00107647,1.30775,0.00166136,0.0132696,1112,1737,4.87485,-16.5524
-105,-713,4.88684,16.6425,-0.000492421,0.00119114,0.00070358,0.00144645,-0.000747737,1.22269,0.00128805,0.0105519,1119,1737,4.88682,-16.6425
-98,-713,4.89648,16.7377,-0.000164953,0.000806792,0.000729333,0.00119728,-0.000555436,1.07923,0.0010343,0.0097607,1126,1737,4.89646,-16.7377
-91,-713,4.87463,16.8297,4.95637e-05,0.000714308,0.000720278,0.0011752,-0.000411331,1.00157,0.000950717,0.00975413,1133,1737,4.87461,-16.8298
-84,-713,4.85461,16.9142,0.000192803,0.000679692,0.000743396,0.00121849,-0.000345995,0.943633,0.000948922,0.00920307,1140,1737,4.8546,-16.9141
-77,-713,4.86621,17.0323,0.000416468,0.000656749,0.00069453,0.00124145,-0.000168235,0.871041,0.000889036,0.0123165,1147,1737,4.86625,-17.0323
-70,-713,4.85681,17.1387,0.0006062,0.000585026,0.000579953,0.00117566,1.5563e-05,0.776272,0.000778639,0.014411,1154,1737,4.85686,-17.1387
-63,-713,4.86096,17.2024,0.000739285,0.000446296,0.000494492,0.00110853,7.70556e-05,0.641391,0.000714718,0.0126469,1161,1737,4.86095,-17.2024
-56,-713,4.87646,17.2747,0.00093383,0.00021765,0.000527075,0.00121295,-6.147e-05,0.487018,0.000829883,0.0121837,1168,1737,4.87648,-17.2747
-49,-713,4.84985,17.3513,0.00119239,0.000798167,0.000769942,0.00179005,0.000200506,0.660085,0.00113246,0.0156775,1175,1737,4.8499,-17.3513
-42,-713,4.87207,17.4354,0.00154051,0.00165216,0.000953621,0.00255159,0.000641083,0.814636,0.00153273,0.0184112,1182,1737,4.87209,-17.4354
-35,-713,4.8772,17.4763,0.0019347,0.00284743,0.00112011,0.00360058,0.00118155,0.978847,0.00211932,0.0146901,1189,1737,4.87722,-17.4763
-28,-713,4.87646,17.5513,0.00213662,0.00409966,0.00123318,0.00469424,0.00154204,1.12152,0.00276286,0.012636,1196,1737,4.87643,-17.5513
-21,-713,4.87061,17.599,0.00233479,0.00538806,0.00137505,0.00591603,0.00180682,1.20419,0.00350078,0.00904222,1203,1737,4.87058,-17.599
-14,-713,4.87598,17.6412,0.00230231,0.00641612,0.00152274,0.00691843,0.0018,1.25216,0.00414469,0.010082,1210,1737,4.87597,-17.6412
-7,-713,4.9032,17.7037,0.00227238,0.00766504,0.00182348,0.00822375,0.00171367,1.27348,0.00500994,0.00924544,1217,1737,4.90319,-17.7037
0,-713,4.90613,17.774,0.00224327,0.00871324,0.00204831,0.00930719,0.00164933,1.28857,0.00573463,0.0148527,1224,1737,4.9061,-17.774
7,-713,4.91028,17.8008,0.00209009,0.00917184,0.00218708,0.00979283,0.00146911,1.29414,0.00609812,0.0179214,1231,1737,4.91023,-17.8008
14,-713,4.92542,17.8257,0.00182566,0.00911865,0.00234902,0.00980976,0.00113455,1.28466,0.00619637,0.0122638,1238,1737,4.92539,-17.8256
21,-713,4.93518,17.8524,0.00138524,0.00862527,0.00236082,0.00932705,0.00068345,1.28185,0.0060032,0.00984757,1245,1737,4.93523,-17.8525
28,-713,4.9303,17.8876,0.000816146,0.00769531,0.0022745,0.00837932,0.00013213,1.27867,0.0055427,0.0103988,1252,1737,4.93027,-17.8876
35,-713,4.93225,17.9266,0.000142652,0.0065297,0.00218067,0.0072032,-0.000530854,1.27124,0.00498851,0.0103956,1259,1737,4.93221,-17.9267
42,-713,4.95898,17.9666,-0.000630752,0.00527567,0.00206219,0.00592441,-0.0012795,1.26601,0.00443802,0.010762,1266,1737,4.95893,-17.9665
49,-713,4.97815,17.9684,-0.00142286,0.00393374,0.00176757,0.00446443,-0.00195355,1.27912,0.00379877,0.0105878,1273,1737,4.97811,-17.9683
56,-713,4.98621,17.989,-0.0023532,0.00190727,0.00134027,0.00229383,-0.00273975,1.29,0.00290994,0.0114703,1280,1737,4.98616,-17.9891
63,-713,4.97925,17.9906,-0.00315888,0.0003674,0.00104863,0.000655673,-0.00344715,1.30252,0.00254497,0.0133784,1287,1737,4.97921,-17.9906
70,-713,4.98865,17.994,-0.00382167,-0.00114472,0.000797988,-0.000924897,-0.0040415,1.30199,0.00244506,0.0131091,1294,1737,4.9887,-17.994
77,-713,5.0155,17.9966,-0.00433297,-0.00245078,0.00046004,-0.00234436,-0.00443939,1.34346,0.00256443,0.0119511,1301,1737,5.01554,-17.9966
84,-713,5.04883,18.0099,-0.00481836,-0.00362178,0.000162706,-0.00360005,-0.00484009,1.43803,0.00290304,0.0118864,1308,1737,5.04881,-18.0099
91,-713,5.052,18.0231,-0.00451743,-0.00418728,-4.21827e-05,-0.00418197,-0.00452274,-1.44571,0.00290823,0.0122573,1315,1737,5.05203,-18.0231
98,-713,5.02783,18.0204,-0.00385335,-0.00487156,-0.000145369,-0.00383301,-0.00489191,-0.139069,0.00297187,0.0115713,1322,1737,5.02782,-18.0204
105,-713,5.03406,18.0129,-0.00327424,-0.00544571,-0.000200419,-0.0032559,-0.00546405,-0.0912692,0.00317395,0.0127818,1329,1737,5.03404,-18.013
112,-713,5.05371,18.0227,-0.00228217,-0.00571172,-7.68021e-05,-0.00228045,-0.00571344,-0.0223793,0.00332095,0.0127859,1336,1737,5.05371,-18.0227
119,-713,5.06519,18.0126,-0.00107667,-0.0058789,1.68497e-05,-0.00107661,-0.00587896,0.00350867,0.00361429,0.0131004,1343,1737,5.06522,-18.0125
126,-713,5.07129,17.9956,0.000304441,-0.00610474,0.000301641,0.000318606,-0.00611891,0.0469256,0.00418952,0.0139551,1350,1737,5.07126,-17.9956
133,-713,5.06262,17.9399,0.00161193,-0.00591626,0.0006338,0.00166492,-0.00596924,0.0834079,0.00463523,0.0137609,1357,1737,5.06258,-17.9399
140,-713,5.09583,17.8877,0.00269738,-0.00532426,0.000844671,0.00278535,-0.00541224,0.103783,0.0048132,0.0142158,1364,1737,5.09578,-17.8877
147,-713,5.08423,17.8434,0.00339677,-0.00456858,0.000967248,0.00351254,-0.00468436,0.119125,0.00474857,0.0140987,1371,1737,5.0842,-17.8434
154,-713,5.05933,17.8307,0.00359567,-0.00361981,0.00108558,0.00375546,-0.0037796,0.146143,0.00435037,0.0132564,1378,1737,5.05933,-17.8307
161,-713,5.08752,17.7712,0.00361494,-0.00224891,0.00102475,0.00378886,-0.00242283,0.168121,0.00361511,0.00993588,1385,1737,5.08757,-17.7712
168,-713,5.09558,17.7062,0.00322387,-0.00140463,0.000840355,0.00337172,-0.00155248,0.174159,0.00290694,0.010429,1392,1737,5.09559,-17.7061
175,-713,5.12756,17.6682,0.00274751,-0.000421971,0.000584713,0.00285194,-0.0005264,0.176734,0.00209888,0.0129836,1399,1737,5.12751,-17.6682
182,-713,5.12769,17.6217,0.00223183,0.000418328,0.000355199,0.00229892,0.00035124,0.186677,0.00142999,0.0114583,1406,1737,5.12764,-17.6217
189,-713,5.12366,17.5398,0.00168582,0.000939632,7.07304e-05,0.00169247,0.000932986,0.0936768,0.000978858,0.0110713,1413,1737,5.1236,-17.5398
196,-713,5.14441,17.4841,0.000936554,0.00137134,-0.000200496,0.00144968,0.000858213,-1.1983,0.000841682,0.0119424,1420,1737,5.14446,-17.4841
203,-713,5.13953,17.4363,0.000170272,0.00193945,-0.000543182,0.00209291,1.68125e-05,-1.29545,0.0013897,0.0151829,1427,1737,5.13956,-17.4362
210,-713,5.11414,17.3354,-9.25267e-05,0.00221451,-0.000686491,0.00240333,-0.000281348,-1.30238,0.00170376,0.0128385,1434,1737,5.11415,-17.3355
217,-713,5.14087,17.2573,-0.00037255,0.00252844,-0.000871409,0.00277007,-0.000614181,-1.30031,0.00208186,0.0107228,1441,1737,5.14089,-17.2573
224,-713,5.14221,17.1964,-0.000503698,0.00278013,-0.000969039,0.00304476,-0.000768331,-1.30421,0.0023286,0.0113464,1448,1737,5.14223,-17.1964
231,-713,5.13489,17.1287,-0.000644327,0.00306183,-0.00103923,0.00333334,-0.00091584,-1.31524,0.00258222,0.0105677,1455,1737,5.1349,-17.1287
238,-713,5.11304,17.0396,-0.000672397,0.0033834,-0.00107524,0.00365083,-0.000939822,-1.32703,0.00280023,0.00817447,1462,1737,5.11299,-17.0395
245,-713,5.11267,16.9617,-0.00061257,0.00375485,-0.00111679,0.00402385,-0.000881575,-1.33443,0.00301963,0.0102854,1469,1737,5.11261,-16.9617
252,-713,5.10767,16.87,-0.000567743,0.00406319,-0.00117827,0.00434574,-0.000850294,-1.33544,0.00321826,0.00998181,1476,1737,5.10766,-16.87
259,-713,5.11597,16.775,-0.000473389,0.00433578,-0.00120386,0.0046203,-0.000757912,-1.33871,0.00336144,0.0110642,1483,1737,5.11599,-16.775
266,-713,5.1272,16.6896,-0.000435319,0.00470246,-0.00123544,0.0049841,-0.000716955,-1.34666,0.00358569,0.0104573,1490,1737,5.12724,-16.6896
273,-713,5.11279,16.5963,-0.00059292,0.00506466,-0.00124494,0.00532649,-0.000854749,-1.3635,0.00386752,0.00844659,1497,1737,5.11284,-16.5963
280,-713,5.09607,16.4796,-0.000733637,0.0052255,-0.00116302,0.00544444,-0.000952576,-1.38472,0.00398529,0.00960035,1504,1737,5.09611,-16.4797
287,-713,5.08228,16.3459,-0.000923709,0.00511242,-0.000945375,0.00525702,-0.00106831,-1.41902,0.00390974,0.0109459,1511,1737,5.08232,-16.3459
294,-713,5.09985,16.2413,-0.00106306,0.00568632,-0.000857863,0.00579365,-0.00117039,-1.44633,0.00430591,0.0145111,1518,1737,5.09988,-16.2414
301,-713,5.08398,16.1212,-0.00160958,0.00536871,-0.000337419,0.00538499,-0.00162586,-1.52259,0.00423723,0.0155961,1525,1737,5.08394,-16.1212
308,-713,5.04895,15.9924,-0.00218151,0.00413858,0.000280689,0.00415102,-0.00219395,1.5265,0.0037209,0.0181065,1532,1737,5.049,-15.9924
315,-713,5.06946,15.8779,-0.00250952,0.00392002,0.000578386,0.00397164,-0.00256114,1.48179,0.00380089,0.0243184,1539,1737,5.06944,-15.8779
322,-713,5.01294,15.7034,-0.00243827,0.00289472,0.000696507,0.00298419,-0.00252774,1.44305,0.00318595,0.0318362,1546,1737,5.01292,-15.7034
329,-713,5.03845,15.553,-0.00229989,0.00142614,0.000963764,0.00166066,-0.00253441,1.33209,0.00243948,0.0365033,1553,1737,5.0385,-15.553
336,-713,4.86438,15.5742,-0.00153918,-0.000477817,0.000607692,-0.000201708,-0.00181529,1.14432,0.00114888,0.0420312,1560,1737,4.86433,-15.5743
343,-713,4.69348,15.4143,0,0,0,0,0,0,0,-1,1567,1737,4.69353,-15.4143
350,-713,5.04712,15.5167,0,0,0,0,0,0,0,-1,1574,1737,5.04709,-15.5168
357,-713,5.78638,14.8418,0,0,0,0,0,0,0,-1,1581,1737,5.78636,-14.8418
364,-713,3.70093,13.8348,0,0,0,0,0,0,0,-1,1588,1737,3.70093,-13.8348
371,-713,4.76038,14.5554,0,0,0,0,0,0,0,-1,1595,1737,4.76039,-14.5554
378,-713,4.31567,16.7935,0,0,0,0,0,0,0,-1,1602,1737,4.31563,-16.7934
385,-713,5.3429,14.0168,0,0,0,0,0,0,0,-1,1609,1737,5.34292,-14.0169
392,-713,4.18201,13.3433,0,0,0,0,0,0,0,-1,1616,1737,4.18198,-13.3433
399,-713,1.93323,14.2748,0,0,0,0,0,0,0,-1,1623,1737,1.93325,-14.2748
406,-713,2.13525,15.2334,0,0,0,0,0,0,0,-1,1630,1737,2.13526,-15.2334
413,-713,2.59546,16.7579,0,0,0,0,0,0,0,-1,1637,1737,2.5955,-16.7579
420,-713,0,0,0,0,0,0,0,0,0,-1,1644,1737,0,0
427,-713,0,0,0,0,0,0,0,0,0,-1,1651,1737,0,0
434,-713,0,0,0,0,0,0,0,0,0,-1,1658,1737,0,0
441,-713,0,0,0,0,0,0,0,0,0,-1,1665,1737,0,0
448,-713,0,0,0,0,0,0,0,0,0,-1,1672,1737,0,0
455,-713,0,0,0,0,0,0,0,0,0,-1,1679,1737,0,0
462,-713,0,0,0,0,0,0,0,0,0,-1,1686,1737,0,0
469,-713,0,0,0,0,0,0,0,0,0,-1,1693,1737,0,0
476,-713,0,0,0,0,0,0,0,0,0,-1,1700,1737,0,0
483,-713,0,0,0,0,0,0,0,0,0,-1,1707,1737,0,0
490,-713,0,0,0,0,0,0,0,0,0,-1,1714,1737,0,0
497,-713,0,0,0,0,0,0,0,0,0,-1,1721,1737,0,0
504,-713,0,0,0,0,0,0,0,0,0,-1,1728,1737,0,0
511,-713,0,0,0,0,0,0,0,0,0,-1,1735,1737,0,0
518,-713,0,0,0,0,0,0,0,0,0,-1,1742,1737,0,0
525,-713,0,0,0,0,0,0,0,0,0,-1,1749,1737,0,0
532,-713,0,0,0,0,0,0,0,0,0,-1,1756,1737,0,0
539,-713,0,0,0,0,0,0,0,0,0,-1,1763,1737,0,0
546,-713,0,0,0,0,0,0,0,0,0,-1,1770,1737,0,0
553,-713,0,0,0,0,0,0,0,0,0,-1,1777,1737,0,0
560,-713,0,0,0,0,0,0,0,0,0,-1,1784,1737,0,0
567,-713,0,0,0,0,0,0,0,0,0,-1,1791,1737,0,0
574,-713,0,0,0,0,0,0,0,0,0,-1,1798,1737,0,0
581,-713,0,0,0,0,0,0,0,0,0,-1,1805,1737,0,0
588,-713,0,0,0,0,0,0,0,0,0,-1,1812,1737,0,0
595,-713,0,0,0,0,0,0,0,0,0,-1,1819,1737,0,0
602,-713,0,0,0,0,0,0,0,0,0,-1,1826,1737,0,0
609,-713,0,0,0,0,0,0,0,0,0,-1,1833,1737,0,0
616,-713,0,0,0,0,0,0,0,0,0,-1,1840,1737,0,0
623,-713,0,0,0,0,0,0,0,0,0,-1,1847,1737,0,0
630,-713,0,0,0,0,0,0,0,0,0,-1,1854,1737,0,0
637,-713,0,0,0,0,0,0,0,0,0,-1,1861,1737,0,0
644,-713,0,0,0,0,0,0,0,0,0,-1,1868,1737,0,0
651,-713,0,0,0,0,0,0,0,0,0,-1,1875,1737,0,0
658,-713,0,0,0,0,0,0,0,0,0,-1,1882,1737,0,0
665,-713,0,0,0,0,0,0,0,0,0,-1,1889,1737,0,0
672,-713,0,0,0,0,0,0,0,0,0,-1,1896,1737,0,0
679,-713,0,0,0,0,0,0,0,0,0,-1,1903,1737,0,0
686,-713,0,0,0,0,0,0,0,0,0,-1,1910,1737,0,0
693,-713,0,0,0,0,0,0,0,0,0,-1,1917,1737,0,0
700,-713,0,0,0,0,0,0,0,0,0,-1,1924,1737,0,0
707,-713,0,0,0,0,0,0,0,0,0,-1,1931,1737,0,0
714,-713,0,0,0,0,0,0,0,0,0,-1,1938,1737,0,0
721,-713,0,0,0,0,0,0,0,0,0,-1,1945,1737,0,0
728,-713,0,0,0,0,0,0,0,0,0,-1,1952,1737,0,0
735,-713,0,0,0,0,0,0,0,0,0,-1,1959,1737,0,0
742,-713,0,0,0,0,0,0,0,0,0,-1,1966,1737,0,0
749,-713,0,0,0,0,0,0,0,0,0,-1,1973,1737,0,0
756,-713,0,0,0,0,0,0,0,0,0,-1,1980,1737,0,0
763,-713,0,0,0,0,0,0,0,0,0,-1,1987,1737,0,0
770,-713,0,0,0,0,0,0,0,0,0,-1,1994,1737,0,0
777,-713,0,0,0,0,0,0,0,0,0,-1,2001,1737,0,0
784,-713,0,0,0,0,0,0,0,0,0,-1,2008,1737,0,0
791,-713,0,0,0,0,0,0,0,0,0,-1,2015,1737,0,0
798,-713,0,0,0,0,0,0,0,0,0,-1,2022,1737,0,0
805,-713,0,0,0,0,0,0,0,0,0,-1,2029,1737,0,0
812,-713,0,0,0,0,0,0,0,0,0,-1,2036,1737,0,0
-700,-720,0,0,0,0,0,0,0,0,0,-1,524,1744,0,0
-693,-720,0,0,0,0,0,0,0,0,0,-1,531,1744,0,0
-686,-720,0,0,0,0,0,0,0,0,0,-1,538,1744,0,0
-679,-720,0,0,0,0,0,0,0,0,0,-1,545,1744,0,0
-672,-720,0,0,0,0,0,0,0,0,0,-1,552,1744,0,0
-665,-720,0,0,0,0,0,0,0,0,0,-1,559,1744,0,0
-658,-720,0,0,0,0,0,0,0,0,0,-1,566,1744,0,0
-651,-720,0,0,0,0,0,0,0,0,0,-1,573,1744,0,0
-644,-720,0,0,0,0,0,0,0,0,0,-1,580,1744,0,0
-637,-720,0,0,0,0,0,0,0,0,0,-1,587,1744,0,0
-630,-720,0,0,0,0,0,0,0,0,0,-1,594,1744,0,0
-623,-720,0,0,0,0,0,0,0,0,0,-1,601,1744,0,0
-616,-720,0,0,0,0,0,0,0,0,0,-1,608,1744,0,0
-609,-720,0,0,0,0,0,0,0,0,0,-1,615,1744,0,0
-602,-720,0,0,0,0,0,0,0,0,0,-1,622,1744,0,0
-595,-720,0,0,0,0,0,0,0,0,0,-1,629,1744,0,0
-588,-720,0,0,0,0,0,0,0,0,0,-1,636,1744,0,0
-581,-720,0,0,0,0,0,0,0,0,0,-1,643,1744,0,0
-574,-720,0,0,0,0,0,0,0,0,0,-1,650,1744,0,0
-567,-720,0,0,0,0,0,0,0,0,0,-1,657,1744,0,0
-560,-720,0,0,0,0,0,0,0,0,0,-1,664,1744,0,0
-553,-720,0,0,0,0,0,0,0,0,0,-1,671,1744,0,0
-546,-720,0,0,0,0,0,0,0,0,0,-1,678,1744,0,0
-539,-720,0,0,0,0,0,0,0,0,0,-1,685,1744,0,0
-532,-720,0,0,0,0,0,0,0,0,0,-1,692,1744,0,0
-525,-720,0,0,0,0,0,0,0,0,0,-1,699,1744,0,0
-518,-720,0,0,0,0,0,0,0,0,0,-1,706,1744,0,0
-511,-720,0,0,0,0,0,0,0,0,0,-1,713,1744,0,0
-504,-720,0,0,0,0,0,0,0,0,0,-1,720,1744,0,0
-497,-720,0,0,0,0,0,0,0,0,0,-1,727,1744,0,0
-490,-720,0,0,0,0,0,0,0,0,0,-1,734,1744,0,0
-483,-720,0,0,0,0,0,0,0,0,0,-1,741,1744,0,0
-476,-720,0,0,0,0,0,0,0,0,0,-1,748,1744,0,0
-469,-720,0,0,0,0,0,0,0,0,0,-1,755,1744,0,0
-462,-720,0,0,0,0,0,0,0,0,0,-1,762,1744,0,0
-455,-720,0,0,0,0,0,0,0,0,0,-1,769,1744,0,0
-448,-720,0,0,0,0,0,0,0,0,0,-1,776,1744,0,0
-441,-720,0,0,0,0,0,0,0,0,0,-1,783,1744,0,0
-434,-720,0,0,0,0,0,0,0,0,0,-1,790,1744,0,0
-427,-720,0,0,0,0,0,0,0,0,0,-1,797,1744,0,0
-420,-720,0,0,0,0,0,0,0,0,0,-1,804,1744,0,0
-413,-720,0,0,0,0,0,0,0,0,0,-1,811,1744,0,0
-406,-720,0,0,0,0,0,0,0,0,0,-1,818,1744,0,0
-399,-720,0,0,0,0,0,0,0,0,0,-1,825,1744,0,0
-392,-720,0,0,0,0,0,0,0,0,0,-1,832,1744,0,0
-385,-720,0,0,0,0,0,0,0,0,0,-1,839,1744,0,0
-378,-720,0,0,0,0,0,0,0,0,0,-1,846,1744,0,0
-371,-720,0,0,0,0,0,0,0,0,0,-1,853,1744,0,0
-364,-720,0,0,0,0,0,0,0,0,0,-1,860,1744,0,0
-357,-720,0,0,0,0,0,0,0,0,0,-1,867,1744,0,0
-350,-720,0,0,0,0,0,0,0,0,0,-1,874,1744,0,0
-343,-720,0,0,0,0,0,0,0,0,0,-1,881,1744,0,0
-336,-720,0,0,0,0,0,0,0,0,0,-1,888,1744,0,0
-329,-720,0,0,0,0,0,0,0,0,0,-1,895,1744,0,0
-322,-720,0,0,0,0,0,0,0,0,0,-1,902,1744,0,0
-315,-720,0,0,0,0,0,0,0,0,0,-1,909,1744,0,0
-308,-720,0,0,0,0,0,0,0,0,0,-1,916,1744,0,0
-301,-720,0,0,0,0,0,0,0,0,0,-1,923,1744,0,0
-294,-720,0,0,0,0,0,0,0,0,0,-1,930,1744,0,0
-287,-720,0,0,0,0,0,0,0,0,0,-1,937,1744,0,0
-280,-720,6.35767,14.1785,0.0559599,0.0140219,-0.103458,0.140553,-0.0705711,-0.685412,0.124105,0.0461104,944,1744,6.35764,-14.1785
-273,-720,6.83356,13.7158,0.0478386,0.0116972,-0.0951389,0.126608,-0.067072,-0.691546,0.113568,0.0473004,951,1744,6.83354,-13.7158
-266,-720,7.28027,13.3165,0,0,0,0,0,0,0,-1,958,1744,7.28026,-13.3166
-259,-720,2.38904,5.20947,0,0,0,0,0,0,0,-1,965,1744,2.38906,-5.20952
-252,-720,3.71014,6.78967,0,0,0,0,0,0,0,-1,972,1744,3.71016,-6.78973
-245,-720,5.77435,17.4977,0,0,0,0,0,0,0,-1,979,1744,5.77436,-17.4977
-238,-720,3.93689,16.0585,0,0,0,0,0,0,0,-1,986,1744,3.93691,-16.0585
-231,-720,5.28387,17.4906,0,0,0,0,0,0,0,-1,993,1744,5.28387,-17.4907
-224,-720,5.20972,16.795,-0.00213141,-0.0328438,-0.0338587,0.0196906,-0.0546659,-0.572502,0.0444846,0.0499061,1000,1744,5.20975,-16.795
-217,-720,5.10822,16.3542,-0.0100105,-0.0314451,-0.0269389,0.0082647,-0.0497204,-0.596078,0.0362175,0.0467028,1007,1744,5.10819,-16.3542
-210,-720,4.71362,16.2373,-0.012587,-0.0253081,-0.0231147,0.00502632,-0.0429214,-0.651134,0.0304284,0.0457141,1014,1744,4.71365,-16.2373
-203,-720,4.62122,15.2361,0,0,0,0,0,0,0,-1,1021,1744,4.62128,-15.2361
-196,-720,5.05981,14.6847,0,0,0,0,0,0,0,-1,1028,1744,5.05975,-14.6847
-189,-720,5.17712,14.6868,-0.0173239,-0.00372744,-0.0142661,0.00527741,-0.0263288,-1.00775,0.0195505,0.0460277,1035,1744,5.17713,-14.6868
-182,-720,5.19348,15.2408,-0.017947,0.00164442,-0.0117182,0.00712192,-0.0234245,-1.13354,0.0184542,0.0424609,1042,1744,5.1935,-15.2409
-175,-720,5.0498,15.4232,-0.0178347,0.0054171,-0.00935876,0.00871594,-0.0211335,-1.23191,0.0177237,0.0457982,1049,1744,5.04984,-15.4232
-168,-720,5.22205,15.6136,-0.0172257,0.00768798,-0.00674188,0.00939539,-0.0189331,-1.32276,0.0166616,0.0409083,1056,1744,5.22205,-15.6137
-161,-720,5.00781,15.6392,-0.0155868,0.0100169,-0.00492652,0.0109321,-0.016502,-1.38712,0.0159476,0.0313329,1063,1744,5.00784,-15.6392
-154,-720,5.07227,15.8276,-0.0138244,0.011611,-0.00349206,0.0120817,-0.0142951,-1.43681,0.0152465,0.0226813,1070,1744,5.07224,-15.8276
-147,-720,5.02808,16.0193,-0.0119132,0.0109526,-0.00215455,0.0111539,-0.0121144,-1.47766,0.0134378,0.0219781,1077,1744,5.02807,-16.0193
-140,-720,5.03613,16.14,-0.00962569,0.00889882,-0.00136234,0.00899847,-0.00972534,-1.49778,0.0108129,0.0177971,1084,1744,5.03616,-16.14
-133,-720,5.00354,16.1942,-0.00751591,0.0068975,-0.000887052,0.00695189,-0.0075703,-1.50956,0.00838692,0.0124804,1091,1744,5.00352,-16.1943
-126,-720,4.98853,16.3107,-0.00563374,0.00549407,-0.000384725,0.00550736,-0.00564702,-1.53628,0.00644015,0.0122509,1098,1744,4.98856,-16.3106
-119,-720,4.97534,16.4342,-0.00345737,0.00414588,0.000270564,0.0041555,-0.00346699,1.53527,0.00440683,0.0139046,1105,1744,4.97536,-16.4342
-112,-720,4.96484,16.5369,-0.00183153,0.00288334,0.00067399,0.00297779,-0.00192598,1.43156,0.00285282,0.0126313,1112,1744,4.96479,-16.5369
-105,-720,4.96826,16.6327,-0.00136711,0.00250815,0.000594713,0.00259737,-0.00145632,1.4219,0.0023711,0.0129046,1119,1744,4.96831,-16.6327
-98,-720,4.97058,16.7278,-0.000969345,0.0020849,0.00055862,0.00218387,-0.00106831,1.39546,0.00191411,0.0102435,1126,1744,4.97064,-16.7278
-91,-720,4.95654,16.8167,-0.000722286,0.00196715,0.000485714,0.00205218,-0.000807318,1.39749,0.00170228,0.00881185,1133,1744,4.9565,-16.8166
-84,-720,4.95325,16.9308,-0.000567956,0.00187197,0.000468972,0.001959,-0.000654991,1.3873,0.00157054,0.00935026,1140,1744,4.9533,-16.9307
-77,-720,4.95947,17.0347,-0.000300081,0.00171535,0.000417803,0.00179852,-0.000383259,1.37428,0.00134509,0.0123409,1147,1744,4.95946,-17.0347
-70,-720,4.94482,17.12,-0.00011769,0.00155333,0.000296684,0.00160444,-0.000168802,1.40019,0.00113011,0.0110539,1154,1744,4.94484,-17.12
-63,-720,4.9292,17.1897,0.000219226,0.00138831,5.63831e-05,0.00139102,0.000216513,1.52272,0.000864265,0.0102057,1161,1744,4.92917,-17.1896
-56,-720,4.95544,17.2766,0.000629263,0.00120488,0.000408154,0.00141649,0.000417648,1.09248,0.000840446,0.0123657,1168,1744,4.95546,-17.2766
-49,-720,4.94507,17.3589,0.00088972,0.00102268,0.000505201,0.00146576,0.000446643,0.850817,0.000867502,0.0193421,1175,1744,4.9451,-17.3589
-42,-720,4.93164,17.4088,0.00122648,0.000999457,0.000678197,0.0018006,0.000425338,0.702481,0.00108673,0.0210312,1182,1744,4.93162,-17.4088
-35,-720,4.93958,17.4808,0.00164835,0.0012866,0.000842516,0.00232919,0.000605762,0.679663,0.00139541,0.0174646,1189,1744,4.93956,-17.4809
-28,-720,4.94067,17.5548,0.00198644,0.00178469,0.000944669,0.0028356,0.000935524,0.732208,0.00166841,0.0105937,1196,1744,4.9407,-17.5548
-21,-720,4.93665,17.6257,0.00218449,0.00245549,0.00105963,0.00338824,0.00125173,0.848991,0.00197831,0.00932945,1203,1744,4.93664,-17.6258
-14,-720,4.93579,17.6511,0.00224354,0.00308719,0.00122451,0.00396049,0.00137024,0.951274,0.00232248,0.0108681,1210,1744,4.93578,-17.6511
-7,-720,4.94653,17.712,0.002237,0.00386561,0.00145827,0.00472153,0.00138109,1.04004,0.00280312,0.0115055,1217,1744,4.94653,-17.7121
0,-720,4.96057,17.7645,0.00218311,0.00459021,0.00159562,0.00538529,0.00138803,1.10852,0.00322856,0.0126833,1224,1744,4.96052,-17.7645
7,-720,4.95874,17.8048,0.00197833,0.00491897,0.00165034,0.00565896,0.00123834,1.14929,0.00343509,0.0152542,1231,1744,4.95872,-17.8048
14,-720,4.96875,17.8394,0.00163446,0.00483708,0.00170235,0.0055729,0.000898638,1.16281,0.0034549,0.0141053,1238,1744,4.96873,-17.8394
21,-720,4.97498,17.8662,0.00123871,0.00449081,0.00167376,0.00519832,0.000531196,1.17087,0.00330275,0.010715,1245,1744,4.97498,-17.8662
28,-720,4.96497,17.8918,0.000788979,0.00383735,0.00159311,0.00451796,0.000108365,1.16704,0.00297651,0.00988702,1252,1744,4.96502,-17.8918
35,-720,4.96033,17.9358,0.000288582,0.00309049,0.00147061,0.00372063,-0.000341563,1.16597,0.00260176,0.010682,1259,1744,4.96037,-17.9358
42,-720,4.96033,17.9663,-0.000262025,0.00232265,0.00135602,0.00290353,-0.000842902,1.16608,0.00226944,0.0120863,1266,1744,4.96033,-17.9663
49,-720,4.97876,17.9736,-0.000760753,0.0015827,0.000970255,0.00193227,-0.00111032,1.22499,0.00177788,0.0114287,1273,1744,4.97873,-17.9737
56,-720,4.98999,18.0015,-0.00124098,0.000447257,0.000574604,0.000624269,-0.00141799,1.27196,0.00120842,0.00984243,1280,1744,4.99003,-18.0014
63,-720,4.99121,18.0096,-0.00161362,-0.000289142,0.000230429,-0.000250198,-0.00165256,1.40337,0.0010285,0.0121822,1287,1744,4.9912,-18.0096
70,-720,5.0188,18.017,-0.00196211,-0.00102005,-1.85428e-05,-0.00101968,-0.00196247,-1.55112,0.00113332,0.0134259,1294,1744,5.01883,-18.017
77,-720,5.03662,18.0192,-0.00222303,-0.00151359,-0.000406853,-0.00132853,-0.00240808,-1.14392,0.00139278,0.0143638,1301,1744,5.03659,-18.0191
84,-720,5.03345,17.9998,-0.00236858,-0.00196521,-0.000705864,-0.00143279,-0.00290101,-0.924554,0.00167494,0.0138659,1308,1744,5.03347,-17.9997
91,-720,5.02661,17.9985,-0.00216695,-0.00205999,-0.000996374,-0.00111566,-0.00311128,-0.81221,0.00182009,0.0131382,1315,1744,5.02663,-17.9985
98,-720,5.01221,18.0028,-0.00178864,-0.00219089,-0.0011608,-0.000811672,-0.00316786,-0.699617,0.00190004,0.0117726,1322,1744,5.01224,-18.0028
105,-720,5.02075,18.0055,-0.00149903,-0.00239987,-0.00124106,-0.000629181,-0.00326972,-0.611325,0.0020033,0.0118414,1329,1744,5.02081,-18.0055
112,-720,5.0343,18.0044,-0.000946911,-0.00244074,-0.00117241,-0.000303711,-0.00308394,-0.501779,0.00196257,0.0108881,1336,1744,5.03425,-18.0044
119,-720,5.04016,17.9901,-0.000284367,-0.00245789,-0.0010785,0.000159955,-0.00290221,-0.390792,0.00199027,0.010127,1343,1744,5.04012,-17.9901
126,-720,5.04895,17.9673,0.000422938,-0.00252559,-0.000812269,0.000631896,-0.00273455,-0.251792,0.00206613,0.0108136,1350,1744,5.04893,-17.9673
133,-720,5.04285,17.9319,0.00105314,-0.00233558,-0.000475249,0.00111853,-0.00240097,-0.136731,0.00207646,0.0131126,1357,1744,5.0428,-17.9319
140,-720,5.05005,17.8975,0.0015435,-0.00198639,-0.000159023,0.00155065,-0.00199354,-0.0449292,0.00205156,0.0199861,1364,1744,5.05003,-17.8975
147,-720,5.03638,17.8541,0.00176287,-0.0015263,7.58721e-05,0.00176462,-0.00152805,0.0230509,0.00190266,0.0207616,1371,1744,5.03641,-17.8541
154,-720,5.01453,17.8151,0.00169153,-0.000987495,0.000248566,0.0017144,-0.00101036,0.0917388,0.00159055,0.0130783,1378,1744,5.01458,-17.815
161,-720,5.05164,17.7629,0.00148856,-0.000199417,0.000262818,0.00152854,-0.000239391,0.150941,0.00110748,0.00886038,1385,1744,5.0516,-17.7629
168,-720,5.0542,17.7153,0.00116836,0.00022612,0.000194297,0.00120685,0.000187627,0.195581,0.000749892,0.00925579,1392,1744,5.05418,-17.7153
175,-720,5.05261,17.6486,0.000906044,0.000811873,-8.58394e-05,0.000956864,0.000761053,-0.53454,0.000583692,0.0143262,1399,1744,5.05264,-17.6485
182,-720,5.0647,17.6078,0.000558247,0.00127139,-0.000128102,0.0012937,0.000535934,-1.39834,0.000750568,0.0145546,1406,1744,5.06474,-17.6078
189,-720,5.08093,17.5612,0.000125602,0.00146835,-0.000276322,0.00152299,7.09619e-05,-1.37557,0.00099252,0.0125174,1413,1744,5.08095,-17.5612
196,-720,5.08459,17.4927,-0.000277745,0.00188077,-0.00054681,0.00201138,-0.000408363,-1.33632,0.00149574,0.0126471,1420,1744,5.08461,-17.4927
203,-720,5.04199,17.4067,-0.000643076,0.00286636,-0.000874709,0.00307229,-0.000849008,-1.33958,0.00238218,0.014316,1427,1744,5.04196,-17.4067
210,-720,5.02368,17.3468,-0.000875886,0.00343984,-0.00103191,0.00367388,-0.00110993,-1.34776,0.00289114,0.0131434,1434,1744,5.02374,-17.3468
217,-720,5.05591,17.2671,-0.00113962,0.00409034,-0.0012241,0.00436266,-0.00141195,-1.35189,0.00347603,0.0122526,1441,1744,5.05591,-17.2671
224,-720,5.07385,17.1866,-0.00130104,0.00464107,-0.00136979,0.00494164,-0.0016016,-1.3548,0.00393838,0.00914496,1448,1744,5.07384,-17.1866
231,-720,5.06262,17.115,-0.00146292,0.00519409,-0.00148718,0.00551122,-0.00178005,-1.3607,0.0043895,0.00959052,1455,1744,5.06262,-17.115
238,-720,5.03992,17.0281,-0.00147466,0.0057345,-0.00157043,0.00606175,-0.00180191,-1.36536,0.00475695,0.00838734,1462,1744,5.03987,-17.028
245,-720,5.03088,16.9537,-0.00135694,0.00628112,-0.00165694,0.00662508,-0.00170089,-1.36612,0.00507951,0.00998677,1469,1744,5.03089,-16.9537
252,-720,5.02808,16.8619,-0.00124821,0.00669191,-0.00175029,0.00706061,-0.00161692,-1.36318,0.00532846,0.00986998,1476,1744,5.02806,-16.862
259,-720,5.03491,16.7733,-0.0010886,0.00700154,-0.00179013,0.00737994,-0.00146701,-1.36248,0.00547487,0.0096392,1483,1744,5.03495,-16.7733
266,-720,5.03308,16.6935,-0.000985964,0.00747117,-0.00184116,0.00785462,-0.00136941,-1.36547,0.00574752,0.00849319,1490,1744,5.03313,-16.6935
273,-720,5.0199,16.5872,-0.00113327,0.00781378,-0.00182661,0.00817233,-0.00149181,-1.37697,0.00600755,0.0147128,1497,1744,5.01992,-16.5871
280,-720,4.96277,16.4691,-0.00123998,0.00783683,-0.00166367,0.00813215,-0.0015353,-1.39511,0.00599905,0.0214595,1504,1744,4.96275,-16.4691
287,-720,4.91553,16.2784,-0.00139449,0.00750191,-0.00134865,0.00770187,-0.00159444,-1.42361,0.00574035,0.033179,1511,1744,4.91552,-16.2784
294,-720,5.00281,16.1135,-0.0014374,0.00822536,-0.0012416,0.00838235,-0.00159439,-1.44502,0.00618854,0.0372342,1518,1744,5.00275,-16.1135
301,-720,5.02295,16.0696,-0.00207914,0.00764461,-0.000447893,0.00766519,-0.00209973,-1.52486,0.00593516,0.0354368,1525,1744,5.02295,-16.0696
308,-720,4.9071,15.9333,-0.0028676,0.00556189,0.000511541,0.00559282,-0.00289852,1.51041,0.00498406,0.0372264,1532,1744,4.90709,-15.9334
315,-720,4.90332,15.7683,-0.0034824,0.00555178,0.00099437,0.00565994,-0.00359055,1.46246,0.00538514,0.0421443,1539,1744,4.90329,-15.7684
322,-720,4.81213,15.5961,-0.00358481,0.00443944,0.00133119,0.00465451,-0.00379988,1.41061,0.00488946,0.0476401,1546,1744,4.81208,-15.5961
329,-720,4.87756,15.5153,0,0,0,0,0,0,0,-1,1553,1744,4.87759,-15.5152
336,-720,4.65808,15.7611,0,0,0,0,0,0,0,-1,1560,1744,4.65806,-15.7611
343,-720,5.19104,15.8707,0,0,0,0,0,0,0,-1,1567,1744,5.19098,-15.8707
350,-720,4.0741,11.1836,0,0,0,0,0,0,0,-1,1574,1744,4.07412,-11.1836
357,-720,3.94836,13.0232,0,0,0,0,0,0,0,-1,1581,1744,3.94832,-13.0232
364,-720,4.34363,15.1404,0,0,0,0,0,0,0,-1,1588,1744,4.34367,-15.1404
371,-720,4.60352,14.8754,0,0,0,0,0,0,0,-1,1595,1744,4.60355,-14.8753
378,-720,4.03125,13.9476,0,0,0,0,0,0,0,-1,1602,1744,4.03122,-13.9476
385,-720,4.19629,14.5133,0,0,0,0,0,0,0,-1,1609,1744,4.19627,-14.5133
392,-720,0.0194092,12.0704,0,0,0,0,0,0,0,-1,1616,1744,0.019362,-12.0704
399,-720,-0.525269,12.6698,0,0,0,0,0,0,0,-1,1623,1744,-0.525208,-12.6698
406,-720,0,0,0,0,0,0,0,0,0,-1,1630,1744,0,0
413,-720,0,0,0,0,0,0,0,0,0,-1,1637,1744,0,0
420,-720,0,0,0,0,0,0,0,0,0,-1,1644,1744,0,0
427,-720,0,0,0,0,0,0,0,0,0,-1,1651,1744,0,0
434,-720,0,0,0,0,0,0,0,0,0,-1,1658,1744,0,0
441,-720,0,0,0,0,0,0,0,0,0,-1,1665,1744,0,0
448,-720,0,0,0,0,0,0,0,0,0,-1,1672,1744,0,0
455,-720,0,0,0,0,0,0,0,0,0,-1,1679,1744,0,0
462,-720,0,0,0,0,0,0,0,0,0,-1,1686,1744,0,0
469,-720,0,0,0,0,0,0,0,0,0,-1,1693,1744,0,0
476,-720,0,0,0,0,0,0,0,0,0,-1,1700,1744,0,0
483,-720,0,0,0,0,0,0,0,0,0,-1,1707,1744,0,0
490,-720,0,0,0,0,0,0,0,0,0,-1,1714,1744,0,0
497,-720,0,0,0,0,0,0,0,0,0,-1,1721,1744,0,0
504,-720,0,0,0,0,0,0,0,0,0,-1,1728,1744,0,0
511,-720,0,0,0,0,0,0,0,0,0,-1,1735,1744,0,0
518,-720,0,0,0,0,0,0,0,0,0,-1,1742,1744,0,0
525,-720,0,0,0,0,0,0,0,0,0,-1,1749,1744,0,0
532,-720,0,0,0,0,0,0,0,0,0,-1,1756,1744,0,0
539,-720,0,0,0,0,0,0,0,0,0,-1,1763,1744,0,0
546,-720,0,0,0,0,0,0,0,0,0,-1,1770,1744,0,0
553,-720,0,0,0,0,0,0,0,0,0,-1,1777,1744,0,0
560,-720,0,0,0,0,0,0,0,0,0,-1,1784,1744,0,0
567,-720,0,0,0,0,0,0,0,0,0,-1,1791,1744,0,0
574,-720,0,0,0,0,0,0,0,0,0,-1,1798,1744,0,0
581,-720,0,0,0,0,0,0,0,0,0,-1,1805,1744,0,0
588,-720,0,0,0,0,0,0,0,0,0,-1,1812,1744,0,0
595,-720,0,0,0,0,0,0,0,0,0,-1,1819,1744,0,0
602,-720,0,0,0,0,0,0,0,0,0,-1,1826,1744,0,0
609,-720,0,0,0,0,0,0,0,0,0,-1,1833,1744,0,0
616,-720,0,0,0,0,0,0,0,0,0,-1,1840,1744,0,0
623,-720,0,0,0,0,0,0,0,0,0,-1,1847,1744,0,0
630,-720,0,0,0,0,0,0,0,0,0,-1,1854,1744,0,0
637,-720,0,0,0,0,0,0,0,0,0,-1,1861,1744,0,0
644,-720,0,0,0,0,0,0,0,0,0,-1,1868,1744,0,0
651,-720,0,0,0,0,0,0,0,0,0,-1,1875,1744,0,0
658,-720,0,0,0,0,0,0,0,0,0,-1,1882,1744,0,0
665,-720,0,0,0,0,0,0,0,0,0,-1,1889,1744,0,0
672,-720,0,0,0,0,0,0,0,0,0,-1,1896,1744,0,0
679,-720,0,0,0,0,0,0,0,0,0,-1,1903,1744,0,0
686,-720,0,0,0,0,0,0,0,0,0,-1,1910,1744,0,0
693,-720,0,0,0,0,0,0,0,0,0,-1,1917,1744,0,0
700,-720,0,0,0,0,0,0,0,0,0,-1,1924,1744,0,0
707,-720,0,0,0,0,0,0,0,0,0,-1,1931,1744,0,0
714,-720,0,0,0,0,0,0,0,0,0,-1,1938,1744,0,0
721,-720,0,0,0,0,0,0,0,0,0,-1,1945,1744,0,0
728,-720,0,0,0,0,0,0,0,0,0,-1,1952,1744,0,0
735,-720,0,0,0,0,0,0,0,0,0,-1,1959,1744,0,0
742,-720,0,0,0,0,0,0,0,0,0,-1,1966,1744,0,0
749,-720,0,0,0,0,0,0,0,0,0,-1,1973,1744,0,0
756,-720,0,0,0,0,0,0,0,0,0,-1,1980,1744,0,0
763,-720,0,0,0,0,0,0,0,0,0,-1,1987,1744,0,0
770,-720,0,0,0,0,0,0,0,0,0,-1,1994,1744,0,0
777,-720,0,0,0,0,0,0,0,0,0,-1,2001,1744,0,0
784,-720,0,0,0,0,0,0,0,0,0,-1,2008,1744,0,0
791,-720,0,0,0,0,0,0,0,0,0,-1,2015,1744,0,0
798,-720,0,0,0,0,0,0,0,0,0,-1,2022,1744,0,0
805,-720,0,0,0,0,0,0,0,0,0,-1,2029,1744,0,0
812,-720,0,0,0,0,0,0,0,0,0,-1,2036,1744,0,0
-700,-727,0,0,0,0,0,0,0,0,0,-1,524,1751,0,0
-693,-727,0,0,0,0,0,0,0,0,0,-1,531,1751,0,0
-686,-727,0,0,0,0,0,0,0,0,0,-1,538,1751,0,0
-679,-727,0,0,0,0,0,0,0,0,0,-1,545,1751,0,0
-672,-727,0,0,0,0,0,0,0,0,0,-1,552,1751,0,0
-665,-727,0,0,0,0,0,0,0,0,0,-1,559,1751,0,0
-658,-727,0,0,0,0,0,0,0,0,0,-1,566,1751,0,0
-651,-727,0,0,0,0,0,0,0,0,0,-1,573,1751,0,0
-644,-727,0,0,0,0,0,0,0,0,0,-1,580,1751,0,0
-637,-727,0,0,0,0,0,0,0,0,0,-1,587,1751,0,0
-630,-727,0,0,0,0,0,0,0,0,0,-1,594,1751,0,0
-623,-727,0,0,0,0,0,0,0,0,0,-1,601,1751,0,0
-616,-727,0,0,0,0,0,0,0,0,0,-1,608,1751,0,0
-609,-727,0,0,0,0,0,0,0,0,0,-1,615,1751,0,0
-602,-727,0,0,0,0,0,0,0,0,0,-1,622,1751,0,0
-595,-727,0,0,0,0,0,0,0,0,0,-1,629,1751,0,0
-588,-727,0,0,0,0,0,0,0,0,0,-1,636,1751,0,0
-581,-727,0,0,0,0,0,0,0,0,0,-1,643,1751,0,0
-574,-727,0,0,0,0,0,0,0,0,0,-1,650,1751,0,0
-567,-727,0,0,0,0,0,0,0,0,0,-1,657,1751,0,0
-560,-727,0,0,0,0,0,0,0,0,0,-1,664,1751,0,0
-553,-727,0,0,0,0,0,0,0,0,0,-1,671,1751,0,0
-546,-727,0,0,0,0,0,0,0,0,0,-1,678,1751,0,0
-539,-727,0,0,0,0,0,0,0,0,0,-1,685,1751,0,0
-532,-727,0,0,0,0,0,0,0,0,0,-1,692,1751,0,0
-525,-727,0,0,0,0,0,0,0,0,0,-1,699,1751,0,0
-518,-727,0,0,0,0,0,0,0,0,0,-1,706,1751,0,0
-511,-727,0,0,0,0,0,0,0,0,0,-1,713,1751,0,0
-504,-727,0,0,0,0,0,0,0,0,0,-1,720,1751,0,0
-497,-727,0,0,0,0,0,0,0,0,0,-1,727,1751,0,0
-490,-727,0,0,0,0,0,0,0,0,0,-1,734,1751,0,0
-483,-727,0,0,0,0,0,0,0,0,0,-1,741,1751,0,0
-476,-727,0,0,0,0,0,0,0,0,0,-1,748,1751,0,0
-469,-727,0,0,0,0,0,0,0,0,0,-1,755,1751,0,0
-462,-727,0,0,0,0,0,0,0,0,0,-1,762,1751,0,0
-455,-727,0,0,0,0,0,0,0,0,0,-1,769,1751,0,0
-448,-727,0,0,0,0,0,0,0,0,0,-1,776,1751,0,0
-441,-727,0,0,0,0,0,0,0,0,0,-1,783,1751,0,0
-434,-727,0,0,0,0,0,0,0,0,0,-1,790,1751,0,0
-427,-727,0,0,0,0,0,0,0,0,0,-1,797,1751,0,0
-420,-727,0,0,0,0,0,0,0,0,0,-1,804,1751,0,0
-413,-727,0,0,0,0,0,0,0,0,0,-1,811,1751,0,0
-406,-727,0,0,0,0,0,0,0,0,0,-1,818,1751,0,0
-399,-727,0,0,0,0,0,0,0,0,0,-1,825,1751,0,0
-392,-727,0,0,0,0,0,0,0,0,0,-1,832,1751,0,0
-385,-727,0,0,0,0,0,0,0,0,0,-1,839,1751,0,0
-378,-727,0,0,0,0,0,0,0,0,0,-1,846,1751,0,0
-371,-727,0,0,0,0,0,0,0,0,0,-1,853,1751,0,0
-364,-727,0,0,0,0,0,0,0,0,0,-1,860,1751,0,0
-357,-727,0,0,0,0,0,0,0,0,0,-1,867,1751,0,0
-350,-727,0,0,0,0,0,0,0,0,0,-1,874,1751,0,0
-343,-727,0,0,0,0,0,0,0,0,0,-1,881,1751,0,0
-336,-727,0,0,0,0,0,0,0,0,0,-1,888,1751,0,0
-329,-727,0,0,0,0,0,0,0,0,0,-1,895,1751,0,0
-322,-727,0,0,0,0,0,0,0,0,0,-1,902,1751,0,0
-315,-727,0,0,0,0,0,0,0,0,0,-1,909,1751,0,0
-308,-727,0,0,0,0,0,0,0,0,0,-1,916,1751,0,0
-301,-727,0,0,0,0,0,0,0,0,0,-1,923,1751,0,0
-294,-727,0,0,0,0,0,0,0,0,0,-1,930,1751,0,0
-287,-727,0,0,0,0,0,0,0,0,0,-1,937,1751,0,0
-280,-727,0,0,0,0,0,0,0,0,0,-1,944,1751,0,0
-273,-727,0,0,0,0,0,0,0,0,0,-1,951,1751,0,0
-266,-727,4.24805,7.61145,0,0,0,0,0,0,0,-1,958,1751,4.24802,-7.6115
-259,-727,3.65228,5.4082,0,0,0,0,0,0,0,-1,965,1751,3.65229,-5.40818
-252,-727,7.05829,12.9366,0,0,0,0,0,0,0,-1,972,1751,7.0583,-12.9366
-245,-727,5.67279,14.0586,0,0,0,0,0,0,0,-1,979,1751,5.67278,-14.0586
-238,-727,6.02545,16.3462,0,0,0,0,0,0,0,-1,986,1751,6.02544,-16.3462
-231,-727,5.58893,18.0552,0,0,0,0,0,0,0,-1,993,1751,5.5889,-18.0551
-224,-727,5.48376,17.0471,0,0,0,0,0,0,0,-1,1000,1751,5.48379,-17.0471
-217,-727,5.47406,16.6461,0,0,0,0,0,0,0,-1,1007,1751,5.47409,-16.6462
-210,-727,4.4837,16.8502,-0.0190505,-0.0265398,-0.0329639,0.0103808,-0.055971,-0.728841,0.0412124,0.0458615,1014,1751,4.48372,-16.8502
-203,-727,4.57642,16.1097,-0.0223512,-0.0169973,-0.0286185,0.00906919,-0.0484177,-0.832032,0.0356877,0.046342,1021,1751,4.57646,-16.1098
-196,-727,4.54309,15.3237,0,0,0,0,0,0,0,-1,1028,1751,4.54305,-15.3238
-189,-727,5.53918,14.6943,0,0,0,0,0,0,0,-1,1035,1751,5.53915,-14.6943
-182,-727,5.63538,15.3069,0,0,0,0,0,0,0,-1,1042,1751,5.63532,-15.3069
-175,-727,5.13721,15.4385,0,0,0,0,0,0,0,-1,1049,1751,5.13724,-15.4385
-168,-727,5.45837,15.7802,0,0,0,0,0,0,0,-1,1056,1751,5.45835,-15.7801
-161,-727,5.49182,15.0331,0,0,0,0,0,0,0,-1,1063,1751,5.49181,-15.0331
-154,-727,5.3938,15.4851,-0.0214099,0.016769,-0.00583805,0.0176418,-0.0222826,-1.4224,0.0231022,0.0448097,1070,1751,5.39384,-15.4851
-147,-727,5.11658,15.8395,-0.0182496,0.0154946,-0.00380138,0.0159175,-0.0186725,-1.45999,0.0199917,0.0392043,1077,1751,5.11655,-15.8395
-140,-727,5.07349,15.9606,-0.014603,0.0124996,-0.00250815,0.0127297,-0.0148332,-1.47929,0.0159289,0.0266922,1084,1751,5.07348,-15.9606
-133,-727,5.13867,16.1053,-0.0113045,0.00970587,-0.00164842,0.00983442,-0.0114331,-1.49297,0.0122904,0.0191158,1091,1751,5.13863,-16.1054
-126,-727,5.06738,16.2822,-0.00844093,0.00768508,-0.000856975,0.0077305,-0.00848634,-1.51785,0.00936619,0.0130331,1098,1751,5.06734,-16.2823
-119,-727,5.07385,16.4509,-0.00513872,0.00572073,0.000142888,0.00572261,-0.0051406,1.55764,0.00627488,0.0112252,1105,1751,5.07386,-16.4509
-112,-727,5.0824,16.5317,-0.00271665,0.00386672,0.000741084,0.00394911,-0.00279904,1.46007,0.00391486,0.0123944,1112,1751,5.08243,-16.5317
-105,-727,5.04163,16.6487,-0.00216034,0.00348481,0.000596119,0.00354707,-0.00222261,1.46673,0.00336025,0.0130545,1119,1751,5.04168,-16.6486
-98,-727,5.047,16.7488,-0.00169349,0.00300955,0.000497053,0.00306151,-0.00174545,1.46664,0.00280976,0.0110902,1126,1751,5.04694,-16.7488
-91,-727,5.05713,16.843,-0.00142602,0.00284501,0.000362623,0.00287558,-0.00145658,1.4867,0.00254551,0.00999775,1133,1751,5.05716,-16.843
-84,-727,5.04431,16.9303,-0.00126552,0.00267529,0.000304924,0.00269874,-0.00128897,1.49403,0.00234978,0.0103435,1140,1751,5.04432,-16.9303
-77,-727,5.03882,17.0277,-0.000942637,0.00237961,0.000245956,0.00239772,-0.000960748,1.4973,0.0019973,0.0117333,1147,1751,5.03881,-17.0277
-70,-727,5.03516,17.127,-0.000766077,0.00216502,9.4716e-05,0.00216808,-0.000769134,1.53853,0.00175875,0.0126766,1154,1751,5.03511,-17.127
-63,-727,5.02686,17.2048,-0.00132642,0.00236389,-0.000158057,0.00237064,-0.00133318,-1.52807,0.00216619,0.0103896,1161,1751,5.02691,-17.2048
-56,-727,5.01392,17.277,-0.00140583,0.00244024,0.000920664,0.00264927,-0.00161486,1.34754,0.00248592,0.0109326,1168,1751,5.01386,-17.2769
-49,-727,4.99243,17.3485,-0.00132414,0.00193506,0.00108558,0.00226354,-0.00165262,1.27697,0.00227015,0.0136161,1175,1751,4.99244,-17.3485
-42,-727,4.97803,17.4098,-0.000964908,0.00137569,0.00139173,0.00202378,-0.00161299,1.13499,0.00210415,0.0161629,1182,1751,4.97802,-17.4098
-35,-727,4.95325,17.4642,-0.000364498,0.00120989,0.00153916,0.00215148,-0.00130609,1.02178,0.00201602,0.0138141,1189,1751,4.95323,-17.4642
-28,-727,4.97717,17.5338,0.000155621,0.001207,0.00158292,0.00234924,-0.000986622,0.945718,0.0019788,0.00839023,1196,1751,4.97721,-17.5339
-21,-727,4.98718,17.6112,0.000491933,0.00136078,0.00168057,0.00266217,-0.000809455,0.911879,0.00209733,0.0104114,1203,1751,4.98716,-17.6112
-14,-727,4.99768,17.6511,0.000739795,0.00146768,0.00184777,0.00298701,-0.000779536,0.882635,0.00229574,0.0121312,1210,1751,4.99771,-17.6512
-7,-727,4.99426,17.7229,0.000912062,0.00161174,0.00203102,0.00332283,-0.000799032,0.870685,0.00252408,0.0157482,1217,1751,4.99429,-17.7228
0,-727,5.01196,17.7745,0.00105547,0.00187368,0.00201536,0.00352104,-0.000591891,0.885534,0.0025675,0.0148315,1224,1751,5.01201,-17.7746
7,-727,5.00281,17.798,0.00102473,0.00185084,0.00194077,0.00342202,-0.000546449,0.89025,0.00248362,0.0139559,1231,1751,5.00278,-17.798
14,-727,4.99109,17.8339,0.000790998,0.0015641,0.00185824,0.00307557,-0.000720471,0.887946,0.002328,0.0144836,1238,1751,4.99112,-17.8338
21,-727,4.99707,17.8754,0.000511476,0.00121384,0.00174097,0.0026387,-0.00091338,0.884921,0.00212991,0.0124027,1245,1751,4.99711,-17.8754
28,-727,4.99841,17.8949,0.000299512,0.000791607,0.00158491,0.00214945,-0.00105833,0.862405,0.00188739,0.0101916,1252,1751,4.99841,-17.8949
35,-727,5.01379,17.9247,0.000154711,0.000461967,0.00137486,0.00169176,-0.00107508,0.841038,0.00161061,0.0117035,1259,1751,5.01379,-17.9247
42,-727,4.99915,17.9548,0.000104338,0.000143145,0.00110841,0.00123232,-0.000984835,0.79415,0.00128273,0.0127142,1266,1751,4.9992,-17.9548
49,-727,4.98279,17.9669,-2.5794e-05,-6.21826e-06,0.000558727,0.000542807,-0.000574819,0.794156,0.00064535,0.0108733,1273,1751,4.9828,-17.967
56,-727,4.99011,18.0044,-1.38958e-05,-0.000208996,5.37303e-05,-7.73289e-08,-0.000222814,0.251728,0.000148517,0.00884349,1280,1751,4.99006,-18.0044
63,-727,5.00671,18.0173,0.000154334,-0.00011069,-0.000501537,0.000540569,-0.000496925,-0.656244,0.000599174,0.010388,1287,1751,5.00669,-18.0173
70,-727,5.03674,18.0179,0.000341496,1.6138e-05,-0.000960876,0.00115337,-0.000795733,-0.701542,0.00113161,0.0127349,1294,1751,5.03678,-18.018
77,-727,5.05872,18.0364,0.000634532,0.000289918,-0.00165759,0.00212874,-0.0012043,-0.733609,0.00194885,0.0151784,1301,1751,5.05867,-18.0363
84,-727,5.02234,18.0017,0.000961253,0.000521604,-0.00223664,0.00298884,-0.00150599,-0.736414,0.00264175,0.0151156,1308,1751,5.02232,-18.0017
91,-727,5.02112,17.9583,0.00132845,0.00088734,-0.00279289,0.00390948,-0.00169369,-0.745995,0.00331824,0.015777,1315,1751,5.0211,-17.9582
98,-727,5.01855,17.9761,0.00164048,0.00125056,-0.00318992,0.0046414,-0.00175035,-0.754877,0.00381403,0.0135396,1322,1751,5.01861,-17.976
105,-727,5.01575,17.9823,0.00176547,0.00129458,-0.00339576,0.00493394,-0.00187389,-0.750786,0.0040607,0.013516,1329,1751,5.0157,-17.9823
112,-727,5.02454,17.981,0.00195556,0.00144318,-0.00349845,0.00520719,-0.00180844,-0.748849,0.00420593,0.0114766,1336,1751,5.02451,-17.981
119,-727,5.03198,17.978,0.00211026,0.0015296,-0.00348953,0.00532152,-0.00168166,-0.743893,0.0042214,0.00834105,1343,1751,5.03199,-17.9781
126,-727,5.04419,17.9404,0.00214853,0.00150371,-0.0032498,0.00509187,-0.00143964,-0.735955,0.00396261,0.00967508,1350,1751,5.04422,-17.9404
133,-727,5.0354,17.8965,0.00199035,0.00153374,-0.0028312,0.00460243,-0.00107834,-0.745165,0.00348381,0.0144344,1357,1751,5.03544,-17.8965
140,-727,5.02551,17.8717,0.0017456,0.00157727,-0.0022991,0.00396207,-0.000639204,-0.767102,0.0028782,0.0220744,1364,1751,5.02553,-17.8717
147,-727,5.02014,17.8424,0.00145234,0.00170487,-0.00175213,0.00333528,-0.000178066,-0.821368,0.00228519,0.019206,1371,1751,5.02017,-17.8424
154,-727,5.01514,17.79,0.00109705,0.00180216,-0.00133327,0.0028287,7.05092e-05,-0.914654,0.00186274,0.0111585,1378,1751,5.01517,-17.7901
161,-727,5.01965,17.7574,0.000606999,0.00197165,-0.00101853,0.00251528,6.33649e-05,-1.08052,0.00165614,0.00823102,1385,1751,5.01964,-17.7575
168,-727,5.0072,17.7203,0.00015344,0.00187956,-0.000724,0.00214302,-0.000110021,-1.2218,0.00146673,0.0109737,1392,1751,5.00724,-17.7203
175,-727,5.01453,17.6526,-0.000152563,0.00207404,-0.000854037,0.00236388,-0.000442408,-1.24361,0.00174222,0.0162382,1399,1751,5.01458,-17.6526
182,-727,5.03259,17.6085,-0.000621715,0.00215005,-0.000460365,0.00222451,-0.000696177,-1.41044,0.00176154,0.0183732,1406,1751,5.03257,-17.6085
189,-727,5.01038,17.5603,-0.00107311,0.00212861,-0.000511049,0.0022082,-0.0011527,-1.41629,0.00197206,0.0116698,1413,1751,5.01039,-17.5603
196,-727,4.99988,17.4908,-0.00136235,0.00260064,-0.000867878,0.00278237,-0.00154408,-1.36439,0.00253175,0.0127708,1420,1751,4.99991,-17.4908
203,-727,4.9657,17.3984,-0.00157156,0.00410512,-0.00128068,0.00438067,-0.00184711,-1.35887,0.00369346,0.0150929,1427,1751,4.96576,-17.3985
210,-727,4.97095,17.3534,-0.00181647,0.00502518,-0.00146471,0.00532557,-0.00211685,-1.36852,0.004428,0.0155076,1434,1751,4.97097,-17.3534
217,-727,4.98962,17.2869,-0.00209848,0.00604686,-0.00167314,0.00637715,-0.00242877,-1.3759,0.00525169,0.0113386,1441,1751,4.9896,-17.2869
224,-727,4.99768,17.1873,-0.00231287,0.00692572,-0.00185637,0.00728477,-0.00267192,-1.37974,0.00595059,0.0114665,1448,1751,4.99771,-17.1872
231,-727,4.9812,17.1124,-0.00251109,0.00778472,-0.00201739,0.0081659,-0.00289227,-1.38405,0.00662202,0.00990046,1455,1751,4.9812,-17.1125
238,-727,4.97205,17.0175,-0.0025144,0.00858543,-0.00214714,0.00898629,-0.00291526,-1.38622,0.00716316,0.0101694,1462,1751,4.97204,-17.0174
245,-727,4.96606,16.9346,-0.0023364,0.00934928,-0.00227954,0.00977821,-0.00276533,-1.38481,0.00760995,0.009791,1469,1751,4.96601,-16.9346
252,-727,4.95129,16.8495,-0.00215022,0.00991035,-0.00241156,0.0103747,-0.00261455,-1.38058,0.0079329,0.0111606,1476,1751,4.95131,-16.8495
259,-727,4.96521,16.7529,-0.00190849,0.0103004,-0.00247962,0.0107848,-0.00239289,-1.37788,0.00810607,0.0152482,1483,1751,4.96519,-16.7529
266,-727,5.00659,16.6953,-0.0017151,0.0109125,-0.00256616,0.0114141,-0.00221666,-1.37778,0.0084458,0.0229259,1490,1751,5.00654,-16.6953
273,-727,5.09473,16.6674,-0.00183198,0.0112875,-0.00254813,0.011765,-0.00230951,-1.38554,0.00871577,0.0420038,1497,1751,5.09473,-16.6674
280,-727,4.93018,16.6147,0,0,0,0,0,0,0,-1,1504,1751,4.93016,-16.6148
287,-727,4.75281,16.2352,0,0,0,0,0,0,0,-1,1511,1751,4.75276,-16.2353
294,-727,4.84424,15.9526,0,0,0,0,0,0,0,-1,1518,1751,4.84426,-15.9526
301,-727,4.98401,16.0537,0,0,0,0,0,0,0,-1,1525,1751,4.984,-16.0537
308,-727,4.74744,15.5902,0,0,0,0,0,0,0,-1,1532,1751,4.74746,-15.5902
315,-727,4.74878,15.4822,0,0,0,0,0,0,0,-1,1539,1751,4.74883,-15.4821
322,-727,4.53638,15.2125,0,0,0,0,0,0,0,-1,1546,1751,4.53638,-15.2126
329,-727,6.61853,11.6267,0,0,0,0,0,0,0,-1,1553,1751,6.61859,-11.6267
336,-727,3.34875,7.61792,0,0,0,0,0,0,0,-1,1560,1751,3.34872,-7.61791
343,-727,2.41699,8.72095,0,0,0,0,0,0,0,-1,1567,1751,2.41702,-8.72098
350,-727,3.89783,7.50195,0,0,0,0,0,0,0,-1,1574,1751,3.89782,-7.50193
357,-727,4.48462,10.2948,0,0,0,0,0,0,0,-1,1581,1751,4.48464,-10.2948
364,-727,4.47852,11.4702,0,0,0,0,0,0,0,-1,1588,1751,4.47846,-11.4703
371,-727,3.57446,12.9564,0,0,0,0,0,0,0,-1,1595,1751,3.57443,-12.9564
378,-727,3.19482,14.0498,0,0,0,0,0,0,0,-1,1602,1751,3.19486,-14.0498
385,-727,3.19275,14.7679,0,0,0,0,0,0,0,-1,1609,1751,3.19274,-14.768
392,-727,0,0,0,0,0,0,0,0,0,-1,1616,1751,0,0
399,-727,0,0,0,0,0,0,0,0,0,-1,1623,1751,0,0
406,-727,0,0,0,0,0,0,0,0,0,-1,1630,1751,0,0
413,-727,0,0,0,0,0,0,0,0,0,-1,1637,1751,0,0
420,-727,0,0,0,0,0,0,0,0,0,-1,1644,1751,0,0
427,-727,0,0,0,0,0,0,0,0,0,-1,1651,1751,0,0
434,-727,0,0,0,0,0,0,0,0,0,-1,1658,1751,0,0
441,-727,0,0,0,0,0,0,0,0,0,-1,1665,1751,0,0
448,-727,0,0,0,0,0,0,0,0,0,-1,1672,1751,0,0
455,-727,0,0,0,0,0,0,0,0,0,-1,1679,1751,0,0
462,-727,0,0,0,0,0,0,0,0,0,-1,1686,1751,0,0
469,-727,0,0,0,0,0,0,0,0,0,-1,1693,1751,0,0
476,-727,0,0,0,0,0,0,0,0,0,-1,1700,1751,0,0
483,-727,0,0,0,0,0,0,0,0,0,-1,1707,1751,0,0
490,-727,0,0,0,0,0,0,0,0,0,-1,1714,1751,0,0
497,-727,0,0,0,0,0,0,0,0,0,-1,1721,1751,0,0
504,-727,0,0,0,0,0,0,0,0,0,-1,1728,1751,0,0
511,-727,0,0,0,0,0,0,0,0,0,-1,1735,1751,0,0
518,-727,0,0,0,0,0,0,0,0,0,-1,1742,1751,0,0
525,-727,0,0,0,0,0,0,0,0,0,-1,1749,1751,0,0
532,-727,0,0,0,0,0,0,0,0,0,-1,1756,1751,0,0
539,-727,0,0,0,0,0,0,0,0,0,-1,1763,1751,0,0
546,-727,0,0,0,0,0,0,0,0,0,-1,1770,1751,0,0
553,-727,0,0,0,0,0,0,0,0,0,-1,1777,1751,0,0
560,-727,0,0,0,0,0,0,0,0,0,-1,1784,1751,0,0
567,-727,0,0,0,0,0,0,0,0,0,-1,1791,1751,0,0
574,-727,0,0,0,0,0,0,0,0,0,-1,1798,1751,0,0
581,-727,0,0,0,0,0,0,0,0,0,-1,1805,1751,0,0
588,-727,0,0,0,0,0,0,0,0,0,-1,1812,1751,0,0
595,-727,0,0,0,0,0,0,0,0,0,-1,1819,1751,0,0
602,-727,0,0,0,0,0,0,0,0,0,-1,1826,1751,0,0
609,-727,0,0,0,0,0,0,0,0,0,-1,1833,1751,0,0
616,-727,0,0,0,0,0,0,0,0,0,-1,1840,1751,0,0
623,-727,0,0,0,0,0,0,0,0,0,-1,1847,1751,0,0
630,-727,0,0,0,0,0,0,0,0,0,-1,1854,1751,0,0
637,-727,0,0,0,0,0,0,0,0,0,-1,1861,1751,0,0
644,-727,0,0,0,0,0,0,0,0,0,-1,1868,1751,0,0
651,-727,0,0,0,0,0,0,0,0,0,-1,1875,1751,0,0
658,-727,0,0,0,0,0,0,0,0,0,-1,1882,1751,0,0
665,-727,0,0,0,0,0,0,0,0,0,-1,1889,1751,0,0
672,-727,0,0,0,0,0,0,0,0,0,-1,1896,1751,0,0
679,-727,0,0,0,0,0,0,0,0,0,-1,1903,1751,0,0
686,-727,0,0,0,0,0,0,0,0,0,-1,1910,1751,0,0
693,-727,0,0,0,0,0,0,0,0,0,-1,1917,1751,0,0
700,-727,0,0,0,0,0,0,0,0,0,-1,1924,1751,0,0
707,-727,0,0,0,0,0,0,0,0,0,-1,1931,1751,0,0
714,-727,0,0,0,0,0,0,0,0,0,-1,1938,1751,0,0
721,-727,0,0,0,0,0,0,0,0,0,-1,1945,1751,0,0
728,-727,0,0,0,0,0,0,0,0,0,-1,1952,1751,0,0
735,-727,0,0,0,0,0,0,0,0,0,-1,1959,1751,0,0
742,-727,0,0,0,0,0,0,0,0,0,-1,1966,1751,0,0
749,-727,0,0,0,0,0,0,0,0,0,-1,1973,1751,0,0
756,-727,0,0,0,0,0,0,0,0,0,-1,1980,1751,0,0
763,-727,0,0,0,0,0,0,0,0,0,-1,1987,1751,0,0
770,-727,0,0,0,0,0,0,0,0,0,-1,1994,1751,0,0
777,-727,0,0,0,0,0,0,0,0,0,-1,2001,1751,0,0
784,-727,0,0,0,0,0,0,0,0,0,-1,2008,1751,0,0
791,-727,0,0,0,0,0,0,0,0,0,-1,2015,1751,0,0
798,-727,0,0,0,0,0,0,0,0,0,-1,2022,1751,0,0
805,-727,0,0,0,0,0,0,0,0,0,-1,2029,1751,0,0
812,-727,0,0,0,0,0,0,0,0,0,-1,2036,1751,0,0
-700,-734,0,0,0,0,0,0,0,0,0,-1,524,1758,0,0
-693,-734,0,0,0,0,0,0,0,0,0,-1,531,1758,0,0
-686,-734,0,0,0,0,0,0,0,0,0,-1,538,1758,0,0
-679,-734,0,0,0,0,0,0,0,0,0,-1,545,1758,0,0
-672,-734,0,0,0,0,0,0,0,0,0,-1,552,1758,0,0
-665,-734,0,0,0,0,0,0,0,0,0,-1,559,1758,0,0
-658,-734,0,0,0,0,0,0,0,0,0,-1,566,1758,0,0
-651,-734,0,0,0,0,0,0,0,0,0,-1,573,1758,0,0
-644,-734,0,0,0,0,0,0,0,0,0,-1,580,1758,0,0
-637,-734,0,0,0,0,0,0,0,0,0,-1,587,1758,0,0
-630,-734,0,0,0,0,0,0,0,0,0,-1,594,1758,0,0
-623,-734,0,0,0,0,0,0,0,0,0,-1,601,1758,0,0
-616,-734,0,0,0,0,0,0,0,0,0,-1,608,1758,0,0
-609,-734,0,0,0,0,0,0,0,0,0,-1,615,1758,0,0
-602,-734,0,0,0,0,0,0,0,0,0,-1,622,1758,0,0
-595,-734,0,0,0,0,0,0,0,0,0,-1,629,1758,0,0
-588,-734,0,0,0,0,0,0,0,0,0,-1,636,1758,0,0
-581,-734,0,0,0,0,0,0,0,0,0,-1,643,1758,0,0
-574,-734,0,0,0,0,0,0,0,0,0,-1,650,1758,0,0
-567,-734,0,0,0,0,0,0,0,0,0,-1,657,1758,0,0
-560,-734,0,0,0,0,0,0,0,0,0,-1,664,1758,0,0
-553,-734,0,0,0,0,0,0,0,0,0,-1,671,1758,0,0
-546,-734,0,0,0,0,0,0,0,0,0,-1,678,1758,0,0
-539,-734,0,0,0,0,0,0,0,0,0,-1,685,1758,0,0
-532,-734,0,0,0,0,0,0,0,0,0,-1,692,1758,0,0
-525,-734,0,0,0,0,0,0,0,0,0,-1,699,1758,0,0
-518,-734,0,0,0,0,0,0,0,0,0,-1,706,1758,0,0
-511,-734,0,0,0,0,0,0,0,0,0,-1,713,1758,0,0
-504,-734,0,0,0,0,0,0,0,0,0,-1,720,1758,0,0
-497,-734,0,0,0,0,0,0,0,0,0,-1,727,1758,0,0
-490,-734,0,0,0,0,0,0,0,0,0,-1,734,1758,0,0
-483,-734,0,0,0,0,0,0,0,0,0,-1,741,1758,0,0
-476,-734,0,0,0,0,0,0,0,0,0,-1,748,1758,0,0
-469,-734,0,0,0,0,0,0,0,0,0,-1,755,1758,0,0
-462,-734,0,0,0,0,0,0,0,0,0,-1,762,1758,0,0
-455,-734,0,0,0,0,0,0,0,0,0,-1,769,1758,0,0
-448,-734,0,0,0,0,0,0,0,0,0,-1,776,1758,0,0
-441,-734,0,0,0,0,0,0,0,0,0,-1,783,1758,0,0
-434,-734,0,0,0,0,0,0,0,0,0,-1,790,1758,0,0
-427,-734,0,0,0,0,0,0,0,0,0,-1,797,1758,0,0
-420,-734,0,0,0,0,0,0,0,0,0,-1,804,1758,0,0
-413,-734,0,0,0,0,0,0,0,0,0,-1,811,1758,0,0
-406,-734,0,0,0,0,0,0,0,0,0,-1,818,1758,0,0
-399,-734,0,0,0,0,0,0,0,0,0,-1,825,1758,0,0
-392,-734,0,0,0,0,0,0,0,0,0,-1,832,1758,0,0
-385,-734,0,0,0,0,0,0,0,0,0,-1,839,1758,0,0
-378,-734,0,0,0,0,0,0,0,0,0,-1,846,1758,0,0
-371,-734,0,0,0,0,0,0,0,0,0,-1,853,1758,0,0
-364,-734,0,0,0,0,0,0,0,0,0,-1,860,1758,0,0
-357,-734,0,0,0,0,0,0,0,0,0,-1,867,1758,0,0
-350,-734,0,0,0,0,0,0,0,0,0,-1,874,1758,0,0
-343,-734,0,0,0,0,0,0,0,0,0,-1,881,1758,0,0
-336,-734,0,0,0,0,0,0,0,0,0,-1,888,1758,0,0
-329,-734,0,0,0,0,0,0,0,0,0,-1,895,1758,0,0
-322,-734,0,0,0,0,0,0,0,0,0,-1,902,1758,0,0
-315,-734,0,0,0,0,0,0,0,0,0,-1,909,1758,0,0
-308,-734,0,0,0,0,0,0,0,0,0,-1,916,1758,0,0
-301,-734,0,0,0,0,0,0,0,0,0,-1,923,1758,0,0
-294,-734,0,0,0,0,0,0,0,0,0,-1,930,1758,0,0
-287,-734,0,0,0,0,0,0,0,0,0,-1,937,1758,0,0
-280,-734,0,0,0,0,0,0,0,0,0,-1,944,1758,0,0
-273,-734,0,0,0,0,0,0,0,0,0,-1,951,1758,0,0
-266,-734,0,0,0,0,0,0,0,0,0,-1,958,1758,0,0
-259,-734,0,0,0,0,0,0,0,0,0,-1,965,1758,0,0
-252,-734,6.44257,12.0737,0,0,0,0,0,0,0,-1,972,1758,6.44255,-12.0737
-245,-734,5.9212,12.6437,0,0,0,0,0,0,0,-1,979,1758,5.9212,-12.6437
-238,-734,2.90552,15.4933,0,0,0,0,0,0,0,-1,986,1758,2.90554,-15.4933
-231,-734,5.51721,18.1925,0,0,0,0,0,0,0,-1,993,1758,5.51718,-18.1926
-224,-734,5.54639,17.1418,-0.00603677,-0.0358076,-0.0621906,0.043025,-0.0848694,-0.667932,0.0751457,0.0443305,1000,1758,5.54637,-17.1418
-217,-734,5.57123,16.0167,0,0,0,0,0,0,0,-1,1007,1758,5.57125,-16.0167
-210,-734,5.62616,15.0659,0,0,0,0,0,0,0,-1,1014,1758,5.62616,-15.0659
-203,-734,4.74097,16.73,0,0,0,0,0,0,0,-1,1021,1758,4.74094,-16.73
-196,-734,4.69519,15.9962,0,0,0,0,0,0,0,-1,1028,1758,4.69517,-15.9962
-189,-734,6.54004,15.5867,0,0,0,0,0,0,0,-1,1035,1758,6.54006,-15.5867
-182,-734,6.03882,15.5026,0,0,0,0,0,0,0,-1,1042,1758,6.0388,-15.5026
-175,-734,5.5376,15.4185,0,0,0,0,0,0,0,-1,1049,1758,5.53755,-15.4184
-168,-734,4.50208,15.4194,0,0,0,0,0,0,0,-1,1056,1758,4.50212,-15.4194
-161,-734,3.51257,9.94104,0,0,0,0,0,0,0,-1,1063,1758,3.51257,-9.94101
-154,-734,5.68188,15.2839,0,0,0,0,0,0,0,-1,1070,1758,5.68186,-15.2839
-147,-734,5.25049,15.8604,0,0,0,0,0,0,0,-1,1077,1758,5.25053,-15.8603
-140,-734,5.27234,15.9382,-0.0216105,0.0172631,-0.00437887,0.0177502,-0.0220977,-1.46,0.0230518,0.0420325,1084,1758,5.27238,-15.9382
-133,-734,5.21924,16.134,-0.0165636,0.0133186,-0.00290178,0.0135978,-0.0168428,-1.47488,0.0176081,0.0385188,1091,1758,5.21922,-16.1341
-126,-734,5.146,16.2552,-0.0122136,0.0103345,-0.00163093,0.0104518,-0.012331,-1.49896,0.0131686,0.0322955,1098,1758,5.14597,-16.2553
-119,-734,5.13367,16.4105,-0.00722953,0.00743252,-6.84083e-05,0.00743284,-0.00722985,-1.56613,0.00846578,0.0318214,1105,1758,5.13364,-16.4106
-112,-734,5.18091,16.4823,-0.00361713,0.00464955,0.000854097,0.00473687,-0.00370446,1.46891,0.00488574,0.0257061,1112,1758,5.18086,-16.4823
-105,-734,5.16016,16.6138,-0.00293198,0.00423427,0.000644507,0.00429178,-0.00298948,1.48181,0.00422619,0.0202271,1119,1758,5.16017,-16.6137
-98,-734,5.15979,16.717,-0.00237632,0.00370687,0.000478766,0.00374432,-0.00241377,1.49273,0.00358293,0.018402,1126,1758,5.15985,-16.7171
-91,-734,5.1665,16.7974,-0.00207513,0.00347669,0.000287167,0.00349151,-0.00208995,1.51925,0.00325615,0.0217203,1133,1758,5.16655,-16.7974
-84,-734,5.11975,16.8931,-0.00188206,0.00320285,0.000189439,0.0032099,-0.00188911,1.53361,0.00297666,0.0178612,1140,1758,5.11978,-16.893
-77,-734,5.10217,17.0228,-0.00145958,0.0027399,0.000121808,0.00274343,-0.00146311,1.54182,0.00246585,0.0148659,1147,1758,5.10211,-17.0228
-70,-734,5.08972,17.0699,-0.00127014,0.0024794,-7.55911e-05,0.00248093,-0.00127167,-1.55065,0.00220374,0.0124467,1154,1758,5.08978,-17.0699
-63,-734,5.09656,17.1718,-0.00201847,0.00344374,0.000522977,0.00349337,-0.00206809,1.4762,0.00324587,0.0122387,1161,1758,5.09659,-17.1718
-56,-734,5.08557,17.2753,-0.00176951,0.00366121,0.00300497,0.00499591,-0.00310422,1.15281,0.00471893,0.0123114,1168,1758,5.08558,-17.2752
-49,-734,5.06238,17.3505,-0.00134197,0.00290852,0.0035599,0.0049293,-0.00336275,1.0545,0.00481581,0.0121176,1175,1758,5.06234,-17.3505
-42,-734,5.03821,17.4083,-0.000738995,0.00212802,0.00408688,0.00502551,-0.00363649,0.954073,0.00502239,0.0135296,1182,1758,5.03826,-17.4083
-35,-734,5.03027,17.4353,0.000129074,0.00193874,0.00417825,0.00530901,-0.0032412,0.89203,0.00498436,0.0136239,1189,1758,5.0303,-17.4353
-28,-734,5.04199,17.516,0.000782449,0.00171229,0.00408539,0.00535913,-0.00286439,0.842055,0.00482012,0.00933306,1196,1758,5.04202,-17.516
-21,-734,5.07129,17.6,0.00108785,0.00156664,0.00400172,0.00533613,-0.00268163,0.815274,0.00471286,0.0150212,1203,1758,5.07134,-17.6
-14,-734,5.0675,17.671,0.00124686,0.00117451,0.00397792,0.00518877,-0.0027674,0.780851,0.00466387,0.0165511,1210,1758,5.0675,-17.671
-7,-734,5.05383,17.7019,0.0013764,0.000729364,0.00391747,0.00498369,-0.00287792,0.7442,0.00459286,0.0188267,1217,1758,5.05378,-17.7019
0,-734,5.05676,17.7491,0.00148433,0.000569154,0.0035942,0.00464995,-0.00259647,0.722083,0.00423934,0.0183936,1224,1758,5.05675,-17.7491
7,-734,5.04163,17.7889,0.00132134,0.000204969,0.00326577,0.00407629,-0.00254998,0.700756,0.00385936,0.0136915,1231,1758,5.0416,-17.789
14,-734,5.02991,17.829,0.000974538,-0.000274046,0.00296306,0.00337835,-0.00267786,0.681571,0.00350435,0.0139273,1238,1758,5.02995,-17.829
21,-734,5.02258,17.8756,0.00067991,-0.000674532,0.00263408,0.00272243,-0.00271705,0.659573,0.00314048,0.012037,1245,1758,5.02258,-17.8757
28,-734,5.0304,17.911,0.000552805,-0.000879433,0.00226726,0.00221435,-0.00254098,0.63243,0.00274765,0.0108847,1252,1758,5.03036,-17.911
35,-734,5.03589,17.9507,0.000757611,-0.000828098,0.00189961,0.00202318,-0.00209367,0.587699,0.00237698,0.0135759,1259,1758,5.03587,-17.9506
42,-734,5.02808,17.951,0.0012522,-0.000667343,0.00141864,0.00200523,-0.00142037,0.487993,0.00198736,0.0121612,1266,1758,5.02803,-17.951
49,-734,5.00916,17.963,0.00166269,-0.000150799,0.000548969,0.00181592,-0.000304032,0.272201,0.00132365,0.0101593,1273,1758,5.00916,-17.9631
56,-734,5.00928,17.9954,0.00237098,0.000601148,-0.000170379,0.00238723,0.000584895,-0.0951047,0.00143677,0.00889658,1280,1758,5.00928,-17.9953
63,-734,5.01489,18.0063,0.00331757,0.00161178,-0.00109806,0.00385506,0.00107429,-0.455203,0.00229726,0.0117506,1287,1758,5.01488,-18.0063
70,-734,5.00623,18.0176,0.00424914,0.00259217,-0.00192464,0.00551604,0.00132527,-0.582155,0.00332484,0.0125399,1294,1758,5.00617,-18.0176
77,-734,5.03455,18.0552,0.00528727,0.00372008,-0.00312055,0.00772111,0.00128625,-0.662387,0.00477673,0.0168864,1301,1758,5.0345,-18.0552
84,-734,5.00378,18.0306,0.00622809,0.00468833,-0.00414502,0.00967412,0.00124231,-0.693576,0.00607778,0.0161327,1308,1758,5.00376,-18.0306
91,-734,5.01965,18.0031,0.00695028,0.00564928,-0.00510925,0.0114503,0.00114929,-0.72208,0.00728072,0.0171549,1315,1758,5.01963,-18.003
98,-734,5.03125,17.9922,0.00731634,0.00649008,-0.00586052,0.0127783,0.00102814,-0.75021,0.00819766,0.0134686,1322,1758,5.03122,-17.9922
105,-734,5.03064,17.9821,0.00732145,0.00673869,-0.00630323,0.01334,0.000720106,-0.762301,0.0086633,0.0151581,1329,1758,5.03067,-17.9821
112,-734,5.02844,17.969,0.00728934,0.00701632,-0.00666006,0.0138143,0.000491371,-0.775151,0.00905018,0.0129891,1336,1758,5.02839,-17.9689
119,-734,5.01331,17.942,0.00698496,0.00706823,-0.00681499,0.0138417,0.000211473,-0.788453,0.00915813,0.0126376,1343,1758,5.01329,-17.9421
126,-734,5.02454,17.9233,0.00639184,0.00690574,-0.00664155,0.0132953,2.27895e-06,-0.804733,0.00886278,0.0150154,1350,1758,5.02454,-17.9233
133,-734,5.01074,17.8796,0.00551137,0.00651294,-0.00616655,0.012199,-0.000174693,-0.825914,0.00819152,0.0142644,1357,1758,5.01075,-17.8796
140,-734,5.00659,17.8514,0.00441212,0.00601372,-0.00550255,0.0107734,-0.000347595,-0.857657,0.00730092,0.0194631,1364,1758,5.00664,-17.8514
147,-734,5.00269,17.8334,0.00335469,0.00549609,-0.0046977,0.00924355,-0.000392782,-0.897444,0.00629738,0.0146096,1371,1758,5.00268,-17.8334
154,-734,4.98901,17.8115,0.00247971,0.0049348,-0.00377099,0.00767301,-0.000258502,-0.942751,0.00520365,0.0096924,1378,1758,4.98898,-17.8115
161,-734,4.98328,17.7758,0.00145725,0.00427796,-0.00293133,0.00612057,-0.000385359,-1.00962,0.00421471,0.00831271,1385,1758,4.98326,-17.7757
168,-734,4.94788,17.7124,0.000512009,0.00346578,-0.00201403,0.00448639,-0.000508606,-1.10176,0.00317407,0.013377,1392,1758,4.94789,-17.7123
175,-734,4.9646,17.6564,-0.000263176,0.0032949,-0.0017671,0.00402337,-0.000991654,-1.17978,0.00306672,0.0166592,1399,1758,4.96466,-17.6563
182,-734,4.99084,17.5894,-0.00135571,0.00306419,-0.000582508,0.00313967,-0.00143119,-1.44194,0.00269974,0.0149632,1406,1758,4.99091,-17.5894
189,-734,4.95251,17.5393,-0.00194906,0.0029818,-0.00058532,0.00305033,-0.00201759,-1.45425,0.00294615,0.0109213,1413,1758,4.95247,-17.5393
196,-734,4.94238,17.4928,-0.00232872,0.00358781,-0.00112645,0.00379502,-0.00253593,-1.38888,0.00367919,0.0112448,1420,1758,4.94243,-17.4928
203,-734,4.93872,17.4097,-0.00264788,0.00567019,-0.00173574,0.00601786,-0.00299555,-1.37311,0.00530052,0.0113266,1427,1758,4.93872,-17.4097
210,-734,4.95654,17.3424,-0.00295921,0.00699491,-0.00195816,0.00736627,-0.00333057,-1.38338,0.00632063,0.0130622,1434,1758,4.95659,-17.3424
217,-734,4.9397,17.2791,-0.00330682,0.00844018,-0.002193,0.00883623,-0.00370287,-1.39213,0.00743893,0.0103791,1441,1758,4.93967,-17.2791
224,-734,4.93091,17.1873,-0.00361353,0.00971198,-0.00240447,0.0101326,-0.00403412,-1.39763,0.00842797,0.0112754,1448,1758,4.93093,-17.1873
231,-734,4.89856,17.1191,-0.00387509,0.0109459,-0.0026097,0.011392,-0.00432118,-1.4015,0.00937317,0.012984,1455,1758,4.89852,-17.1191
238,-734,4.87231,17.019,-0.00389268,0.0120834,-0.00279223,0.0125573,-0.00436663,-1.40266,0.0101453,0.0166196,1462,1758,4.87234,-17.019
245,-734,4.87036,16.8801,-0.00367028,0.0131506,-0.00297887,0.0136626,-0.00418224,-1.4006,0.0107765,0.0227378,1469,1758,4.87031,-16.8801
252,-734,4.85742,16.7927,-0.00341005,0.0139733,-0.00316068,0.0145301,-0.0039669,-1.39641,0.0112447,0.0285834,1476,1758,4.85739,-16.7927
259,-734,4.927,16.8236,-0.00308613,0.0145665,-0.00327498,0.0151545,-0.00367414,-1.39315,0.0115246,0.039136,1483,1758,4.92698,-16.8236
266,-734,4.92029,16.884,0,0,0,0,0,0,0,-1,1490,1758,4.92026,-16.884
273,-734,5.18054,16.8625,0,0,0,0,0,0,0,-1,1497,1758,5.18059,-16.8626
280,-734,16.6191,7.38013,0,0,0,0,0,0,0,-1,1504,1758,16.6192,-7.38011
287,-734,14.1356,7.42139,0,0,0,0,0,0,0,-1,1511,1758,14.1356,-7.42135
294,-734,12.1967,6.48743,0,0,0,0,0,0,0,-1,1518,1758,12.1967,-6.48738
301,-734,10.1635,5.59741,0,0,0,0,0,0,0,-1,1525,1758,10.1634,-5.59746
308,-734,5.66711,14.3765,0,0,0,0,0,0,0,-1,1532,1758,5.66712,-14.3764
315,-734,4.61169,15.1423,0,0,0,0,0,0,0,-1,1539,1758,4.61171,-15.1423
322,-734,4.17163,11.5508,0,0,0,0,0,0,0,-1,1546,1758,4.17163,-11.5508
329,-734,5.45972,12.4125,0,0,0,0,0,0,0,-1,1553,1758,5.45969,-12.4125
336,-734,5.92188,13.8751,0,0,0,0,0,0,0,-1,1560,1758,5.92183,-13.8751
343,-734,5.54968,5.14221,0,0,0,0,0,0,0,-1,1567,1758,5.54973,-5.14225
350,-734,5.07397,6.73242,0,0,0,0,0,0,0,-1,1574,1758,5.07402,-6.73243
357,-734,5.05542,7.19189,0,0,0,0,0,0,0,-1,1581,1758,5.05541,-7.19184
364,-734,4.43896,10.4904,0,0,0,0,0,0,0,-1,1588,1758,4.43893,-10.4904
371,-734,4.22766,11.9165,0,0,0,0,0,0,0,-1,1595,1758,4.22769,-11.9165
378,-734,0,0,0,0,0,0,0,0,0,-1,1602,1758,0,0
385,-734,0,0,0,0,0,0,0,0,0,-1,1609,1758,0,0
392,-734,0,0,0,0,0,0,0,0,0,-1,1616,1758,0,0
399,-734,0,0,0,0,0,0,0,0,0,-1,1623,1758,0,0
406,-734,0,0,0,0,0,0,0,0,0,-1,1630,1758,0,0
413,-734,0,0,0,0,0,0,0,0,0,-1,1637,1758,0,0
420,-734,0,0,0,0,0,0,0,0,0,-1,1644,1758,0,0
427,-734,0,0,0,0,0,0,0,0,0,-1,1651,1758,0,0
434,-734,0,0,0,0,0,0,0,0,0,-1,1658,1758,0,0
441,-734,0,0,0,0,0,0,0,0,0,-1,1665,1758,0,0
448,-734,0,0,0,0,0,0,0,0,0,-1,1672,1758,0,0
455,-734,0,0,0,0,0,0,0,0,0,-1,1679,1758,0,0
462,-734,0,0,0,0,0,0,0,0,0,-1,1686,1758,0,0
469,-734,0,0,0,0,0,0,0,0,0,-1,1693,1758,0,0
476,-734,0,0,0,0,0,0,0,0,0,-1,1700,1758,0,0
483,-734,0,0,0,0,0,0,0,0,0,-1,1707,1758,0,0
490,-734,0,0,0,0,0,0,0,0,0,-1,1714,1758,0,0
497,-734,0,0,0,0,0,0,0,0,0,-1,1721,1758,0,0
504,-734,0,0,0,0,0,0,0,0,0,-1,1728,1758,0,0
511,-734,0,0,0,0,0,0,0,0,0,-1,1735,1758,0,0
518,-734,0,0,0,0,0,0,0,0,0,-1,1742,1758,0,0
525,-734,0,0,0,0,0,0,0,0,0,-1,1749,1758,0,0
532,-734,0,0,0,0,0,0,0,0,0,-1,1756,1758,0,0
539,-734,0,0,0,0,0,0,0,0,0,-1,1763,1758,0,0
546,-734,0,0,0,0,0,0,0,0,0,-1,1770,1758,0,0
553,-734,0,0,0,0,0,0,0,0,0,-1,1777,1758,0,0
560,-734,0,0,0,0,0,0,0,0,0,-1,1784,1758,0,0
567,-734,0,0,0,0,0,0,0,0,0,-1,1791,1758,0,0
574,-734,0,0,0,0,0,0,0,0,0,-1,1798,1758,0,0
581,-734,0,0,0,0,0,0,0,0,0,-1,1805,1758,0,0
588,-734,0,0,0,0,0,0,0,0,0,-1,1812,1758,0,0
595,-734,0,0,0,0,0,0,0,0,0,-1,1819,1758,0,0
602,-734,0,0,0,0,0,0,0,0,0,-1,1826,1758,0,0
609,-734,0,0,0,0,0,0,0,0,0,-1,1833,1758,0,0
616,-734,0,0,0,0,0,0,0,0,0,-1,1840,1758,0,0
623,-734,0,0,0,0,0,0,0,0,0,-1,1847,1758,0,0
630,-734,0,0,0,0,0,0,0,0,0,-1,1854,1758,0,0
637,-734,0,0,0,0,0,0,0,0,0,-1,1861,1758,0,0
644,-734,0,0,0,0,0,0,0,0,0,-1,1868,1758,0,0
651,-734,0,0,0,0,0,0,0,0,0,-1,1875,1758,0,0
658,-734,0,0,0,0,0,0,0,0,0,-1,1882,1758,0,0
665,-734,0,0,0,0,0,0,0,0,0,-1,1889,1758,0,0
672,-734,0,0,0,0,0,0,0,0,0,-1,1896,1758,0,0
679,-734,0,0,0,0,0,0,0,0,0,-1,1903,1758,0,0
686,-734,0,0,0,0,0,0,0,0,0,-1,1910,1758,0,0
693,-734,0,0,0,0,0,0,0,0,0,-1,1917,1758,0,0
700,-734,0,0,0,0,0,0,0,0,0,-1,1924,1758,0,0
707,-734,0,0,0,0,0,0,0,0,0,-1,1931,1758,0,0
714,-734,0,0,0,0,0,0,0,0,0,-1,1938,1758,0,0
721,-734,0,0,0,0,0,0,0,0,0,-1,1945,1758,0,0
728,-734,0,0,0,0,0,0,0,0,0,-1,1952,1758,0,0
735,-734,0,0,0,0,0,0,0,0,0,-1,1959,1758,0,0
742,-734,0,0,0,0,0,0,0,0,0,-1,1966,1758,0,0
749,-734,0,0,0,0,0,0,0,0,0,-1,1973,1758,0,0
756,-734,0,0,0,0,0,0,0,0,0,-1,1980,1758,0,0
763,-734,0,0,0,0,0,0,0,0,0,-1,1987,1758,0,0
770,-734,0,0,0,0,0,0,0,0,0,-1,1994,1758,0,0
777,-734,0,0,0,0,0,0,0,0,0,-1,2001,1758,0,0
784,-734,0,0,0,0,0,0,0,0,0,-1,2008,1758,0,0
791,-734,0,0,0,0,0,0,0,0,0,-1,2015,1758,0,0
798,-734,0,0,0,0,0,0,0,0,0,-1,2022,1758,0,0
805,-734,0,0,0,0,0,0,0,0,0,-1,2029,1758,0,0
812,-734,0,0,0,0,0,0,0,0,0,-1,2036,1758,0,0
-700,-741,0,0,0,0,0,0,0,0,0,-1,524,1765,0,0
-693,-741,0,0,0,0,0,0,0,0,0,-1,531,1765,0,0
-686,-741,0,0,0,0,0,0,0,0,0,-1,538,1765,0,0
-679,-741,0,0,0,0,0,0,0,0,0,-1,545,1765,0,0
-672,-741,0,0,0,0,0,0,0,0,0,-1,552,1765,0,0
-665,-741,0,0,0,0,0,0,0,0,0,-1,559,1765,0,0
-658,-741,0,0,0,0,0,0,0,0,0,-1,566,1765,0,0
-651,-741,0,0,0,0,0,0,0,0,0,-1,573,1765,0,0
-644,-741,0,0,0,0,0,0,0,0,0,-1,580,1765,0,0
-637,-741,0,0,0,0,0,0,0,0,0,-1,587,1765,0,0
-630,-741,0,0,0,0,0,0,0,0,0,-1,594,1765,0,0
-623,-741,0,0,0,0,0,0,0,0,0,-1,601,1765,0,0
-616,-741,0,0,0,0,0,0,0,0,0,-1,608,1765,0,0
-609,-741,0,0,0,0,0,0,0,0,0,-1,615,1765,0,0
-602,-741,0,0,0,0,0,0,0,0,0,-1,622,1765,0,0
-595,-741,0,0,0,0,0,0,0,0,0,-1,629,1765,0,0
-588,-741,0,0,0,0,0,0,0,0,0,-1,636,1765,0,0
-581,-741,0,0,0,0,0,0,0,0,0,-1,643,1765,0,0
-574,-741,0,0,0,0,0,0,0,0,0,-1,650,1765,0,0
-567,-741,0,0,0,0,0,0,0,0,0,-1,657,1765,0,0
-560,-741,0,0,0,0,0,0,0,0,0,-1,664,1765,0,0
-553,-741,0,0,0,0,0,0,0,0,0,-1,671,1765,0,0
-546,-741,0,0,0,0,0,0,0,0,0,-1,678,1765,0,0
-539,-741,0,0,0,0,0,0,0,0,0,-1,685,1765,0,0
-532,-741,0,0,0,0,0,0,0,0,0,-1,692,1765,0,0
-525,-741,0,0,0,0,0,0,0,0,0,-1,699,1765,0,0
-518,-741,0,0,0,0,0,0,0,0,0,-1,706,1765,0,0
-511,-741,0,0,0,0,0,0,0,0,0,-1,713,1765,0,0
-504,-741,0,0,0,0,0,0,0,0,0,-1,720,1765,0,0
-497,-741,0,0,0,0,0,0,0,0,0,-1,727,1765,0,0
-490,-741,0,0,0,0,0,0,0,0,0,-1,734,1765,0,0
-483,-741,0,0,0,0,0,0,0,0,0,-1,741,1765,0,0
-476,-741,0,0,0,0,0,0,0,0,0,-1,748,1765,0,0
-469,-741,0,0,0,0,0,0,0,0,0,-1,755,1765,0,0
-462,-741,0,0,0,0,0,0,0,0,0,-1,762,1765,0,0
-455,-741,0,0,0,0,0,0,0,0,0,-1,769,1765,0,0
-448,-741,0,0,0,0,0,0,0,0,0,-1,776,1765,0,0
-441,-741,0,0,0,0,0,0,0,0,0,-1,783,1765,0,0
-434,-741,0,0,0,0,0,0,0,0,0,-1,790,1765,0,0
-427,-741,0,0,0,0,0,0,0,0,0,-1,797,1765,0,0
-420,-741,0,0,0,0,0,0,0,0,0,-1,804,1765,0,0
-413,-741,0,0,0,0,0,0,0,0,0,-1,811,1765,0,0
-406,-741,0,0,0,0,0,0,0,0,0,-1,818,1765,0,0
-399,-741,0,0,0,0,0,0,0,0,0,-1,825,1765,0,0
-392,-741,0,0,0,0,0,0,0,0,0,-1,832,1765,0,0
-385,-741,0,0,0,0,0,0,0,0,0,-1,839,1765,0,0
-378,-741,0,0,0,0,0,0,0,0,0,-1,846,1765,0,0
-371,-741,0,0,0,0,0,0,0,0,0,-1,853,1765,0,0
-364,-741,0,0,0,0,0,0,0,0,0,-1,860,1765,0,0
-357,-741,0,0,0,0,0,0,0,0,0,-1,867,1765,0,0
-350,-741,0,0,0,0,0,0,0,0,0,-1,874,1765,0,0
-343,-741,0,0,0,0,0,0,0,0,0,-1,881,1765,0,0
-336,-741,0,0,0,0,0,0,0,0,0,-1,888,1765,0,0
-329,-741,0,0,0,0,0,0,0,0,0,-1,895,1765,0,0
-322,-741,0,0,0,0,0,0,0,0,0,-1,902,1765,0,0
-315,-741,0,0,0,0,0,0,0,0,0,-1,909,1765,0,0
-308,-741,0,0,0,0,0,0,0,0,0,-1,916,1765,0,0
-301,-741,0,0,0,0,0,0,0,0,0,-1,923,1765,0,0
-294,-741,0,0,0,0,0,0,0,0,0,-1,930,1765,0,0
-287,-741,0,0,0,0,0,0,0,0,0,-1,937,1765,0,0
-280,-741,0,0,0,0,0,0,0,0,0,-1,944,1765,0,0
-273,-741,0,0,0,0,0,0,0,0,0,-1,951,1765,0,0
-266,-741,0,0,0,0,0,0,0,0,0,-1,958,1765,0,0
-259,-741,0,0,0,0,0,0,0,0,0,-1,965,1765,0,0
-252,-741,0,0,0,0,0,0,0,0,0,-1,972,1765,0,0
-245,-741,0,0,0,0,0,0,0,0,0,-1,979,1765,0,0
-238,-741,1.66083,15.1331,0,0,0,0,0,0,0,-1,986,1765,1.66083,-15.1331
-231,-741,5.39471,17.6553,0,0,0,0,0,0,0,-1,993,1765,5.39473,-17.6553
-224,-741,5.67352,16.8585,0,0,0,0,0,0,0,-1,1000,1765,5.67352,-16.8586
-217,-741,5.95233,16.0619,0,0,0,0,0,0,0,-1,1007,1765,5.95232,-16.0619
-210,-741,5.8493,14.8081,0,0,0,0,0,0,0,-1,1014,1765,5.84933,-14.8081
-203,-741,4.84973,17.326,0,0,0,0,0,0,0,-1,1021,1765,4.84977,-17.326
-196,-741,7.78027,18.1128,0,0,0,0,0,0,0,-1,1028,1765,7.78025,-18.1128
-189,-741,7.00903,16.9978,0,0,0,0,0,0,0,-1,1035,1765,7.00904,-16.9978
-182,-741,6.32788,16.0284,0,0,0,0,0,0,0,-1,1042,1765,6.32791,-16.0284
-175,-741,5.36108,15.3015,-0.0622522,0.0317171,-0.0296513,0.040291,-0.0708261,-1.28931,0.0649559,0.0459823,1049,1765,5.3611,-15.3015
-168,-741,4.49768,14.7655,-0.0600221,0.0327973,-0.0233286,0.0383307,-0.0655555,-1.33791,0.0606614,0.0489245,1056,1765,4.49766,-14.7656
-161,-741,3.73047,14.4974,0,0,0,0,0,0,0,-1,1063,1765,3.73043,-14.4974
-154,-741,2.46143,9.75415,0,0,0,0,0,0,0,-1,1070,1765,2.46145,-9.75416
-147,-741,4.5166,13.2251,0,0,0,0,0,0,0,-1,1077,1765,4.51657,-13.2251
-140,-741,5.4071,16.0072,0,0,0,0,0,0,0,-1,1084,1765,5.40709,-16.0073
-133,-741,5.47681,16.0481,-0.0238707,0.0182268,-0.00501793,0.0188167,-0.0244606,-1.45378,0.0250569,0.0488056,1091,1765,5.47683,-16.0481
-126,-741,5.26636,16.3303,-0.0174014,0.0139658,-0.00300337,0.0142508,-0.0176864,-1.47619,0.0184745,0.046233,1098,1765,5.2663,-16.3303
-119,-741,5.22253,16.4711,-0.00994116,0.00988271,-0.000505148,0.00989557,-0.00995403,-1.54534,0.0114602,0.0412229,1105,1765,5.22257,-16.471
-112,-741,5.26111,16.4528,-0.00450092,0.00577114,0.000982551,0.00586428,-0.00459406,1.47629,0.00605295,0.0402443,1112,1765,5.26111,-16.4527
-105,-741,5.29443,16.5155,-0.00360395,0.00539562,0.000743597,0.00545664,-0.00366498,1.48891,0.00530013,0.0370684,1119,1765,5.29443,-16.5156
-98,-741,5.2832,16.6147,-0.0028932,0.00493418,0.000556613,0.00497356,-0.00293258,1.50016,0.00461504,0.042391,1126,1765,5.28321,-16.6147
-91,-741,5.1991,16.7238,0,0,0,0,0,0,0,-1,1133,1765,5.19905,-16.7237
-84,-741,5.13269,16.7211,0,0,0,0,0,0,0,-1,1140,1765,5.13267,-16.721
-77,-741,5.14941,16.7737,0,0,0,0,0,0,0,-1,1147,1765,5.14944,-16.7737
-70,-741,5.10852,16.9103,0,0,0,0,0,0,0,-1,1154,1765,5.10852,-16.9103
-63,-741,5.11292,17.1019,0,0,0,0,0,0,0,-1,1161,1765,5.11286,-17.102
-56,-741,5.16846,17.2605,0,0,0,0,0,0,0,-1,1168,1765,5.16852,-17.2605
-49,-741,5.14697,17.3993,0,0,0,0,0,0,0,-1,1175,1765,5.14701,-17.3993
-42,-741,5.08606,17.3643,0,0,0,0,0,0,0,-1,1182,1765,5.08605,-17.3643
-35,-741,5.12207,17.453,0.00225686,0.00122622,0.00744266,0.00920202,-0.00571894,0.750834,0.00869251,0.0205554,1189,1765,5.12203,-17.453
-28,-741,5.13208,17.5507,0.00298695,0.00105554,0.00724301,0.00932835,-0.00528585,0.719124,0.00854443,0.0136949,1196,1765,5.13213,-17.5507
-21,-741,5.14453,17.6053,0.00320392,0.000900985,0.0069718,0.0091187,-0.0050138,0.703557,0.00827334,0.0168483,1203,1765,5.14448,-17.6053
-14,-741,5.12756,17.6506,0.00317729,0.000384126,0.00666416,0.00858963,-0.00502821,0.68211,0.00795139,0.0173092,1210,1765,5.12754,-17.6506
-7,-741,5.11157,17.6595,0.00309276,-0.000225435,0.00624439,0.0078947,-0.00502738,0.655551,0.00752154,0.0151154,1217,1765,5.11158,-17.6595
0,-741,5.10876,17.7137,0.00292987,-0.000467357,0.00550867,0.00699587,-0.00453335,0.635847,0.00670682,0.0167299,1224,1765,5.10882,-17.7138
7,-741,5.08557,17.7751,0.00240745,-0.00083657,0.00480158,0.00585358,-0.0042827,0.622512,0.00587557,0.0188136,1231,1765,5.08551,-17.7751
14,-741,5.08167,17.8281,0.00169444,-0.00123816,0.00416948,0.00464794,-0.00419166,0.616315,0.00510581,0.0160069,1238,1765,5.08171,-17.8281
21,-741,5.0614,17.8535,0.00108301,-0.00153692,0.00349223,0.00350288,-0.00395679,0.605965,0.0043095,0.0127047,1245,1765,5.06141,-17.8535
28,-741,5.04932,17.9205,0.000742093,-0.0015303,0.00279806,0.00262585,-0.00341405,0.592536,0.00349702,0.0132072,1252,1765,5.0493,-17.9205
35,-741,5.04602,17.9557,0.000939148,-0.00123575,0.00215785,0.00226807,-0.00256468,0.551997,0.00279194,0.0143174,1259,1765,5.04598,-17.9557
42,-741,5.05701,17.9581,0.00191353,-0.000758473,0.00150197,0.00258771,-0.00143265,0.421907,0.00235287,0.0143825,1266,1765,5.057,-17.9581
49,-741,5.0481,17.97,0.0030768,0.00037974,0.000187492,0.00308977,0.000366768,0.0690744,0.00194913,0.00967979,1273,1765,5.04813,-17.9699
56,-741,5.03601,17.9902,0.00462297,0.00193979,-0.000830398,0.00485917,0.00170359,-0.277124,0.00284689,0.0094926,1280,1765,5.03605,-17.9903
63,-741,5.00342,18.0005,0.00659958,0.00375459,-0.00213516,0.0077427,0.00261146,-0.491551,0.00454848,0.0142768,1287,1765,5.00341,-18.0004
70,-741,4.9856,18.0081,0.00863244,0.00545768,-0.00333845,0.0107417,0.00334844,-0.563477,0.00634658,0.0167624,1294,1765,4.98561,-18.008
77,-741,5.00159,18.0343,0.0108543,0.00738312,-0.00507271,0.0144801,0.0037573,-0.62057,0.00867653,0.0135174,1301,1765,5.00153,-18.0343
84,-741,4.99585,18.0397,0.0129844,0.00919514,-0.00665453,0.0180088,0.0041708,-0.64671,0.0108853,0.0149566,1308,1765,4.99579,-18.0397
91,-741,4.99365,18.0406,0.014647,0.0109513,-0.00810042,0.0211077,0.00449065,-0.673258,0.0128394,0.0126689,1315,1765,4.99368,-18.0406
98,-741,5.00305,18.0116,0.0156164,0.0124643,-0.00930746,0.0234803,0.00460038,-0.701527,0.0143677,0.0102389,1322,1765,5.00302,-18.0116
105,-741,5.00171,17.9635,0.0159845,0.0131785,-0.0101589,0.0248368,0.00432623,-0.716781,0.0153208,0.010705,1329,1765,5.00173,-17.9635
112,-741,5.00745,17.9484,0.0160898,0.0137668,-0.0109263,0.0259161,0.00394047,-0.732444,0.0161252,0.0106512,1336,1765,5.00746,-17.9484
119,-741,4.99646,17.934,0.0155889,0.0139398,-0.0114274,0.0262214,0.00330726,-0.749384,0.0164895,0.0126309,1343,1765,4.99642,-17.934
126,-741,4.99353,17.9147,0.0145856,0.0137453,-0.0114753,0.0256484,0.00268251,-0.7671,0.0162786,0.018332,1350,1765,4.99347,-17.9147
133,-741,4.99158,17.8838,0.0131049,0.0130655,-0.0111209,0.0242061,0.00196432,-0.784512,0.0155241,0.0146042,1357,1765,4.99158,-17.8838
140,-741,4.95251,17.8547,0.0112159,0.0121357,-0.0105033,0.0221892,0.00116243,-0.807278,0.0144209,0.0115866,1364,1765,4.95252,-17.8548
147,-741,4.95422,17.8407,0.00888803,0.0109881,-0.00975891,0.0197533,0.000122806,-0.83899,0.0131281,0.0111351,1371,1765,4.95427,-17.8407
154,-741,4.96094,17.8235,0.00679169,0.00938254,-0.00824804,0.0164363,-0.000262036,-0.863291,0.0110459,0.00922073,1378,1765,4.96097,-17.8235
161,-741,4.95435,17.7701,0.00518169,0.00780515,-0.00674355,0.0133634,-0.000376525,-0.881457,0.00903703,0.0103055,1385,1765,4.95438,-17.7701
168,-741,4.9436,17.7173,0.0034409,0.00612311,-0.00507455,0.0100308,-0.000466767,-0.914585,0.00684807,0.0232346,1392,1765,4.94358,-17.7173
175,-741,4.89172,17.6515,0,0,0,0,0,0,0,-1,1399,1765,4.89177,-17.6515
182,-741,4.9187,17.5797,0,0,0,0,0,0,0,-1,1406,1765,4.91868,-17.5797
189,-741,4.88562,17.5171,0,0,0,0,0,0,0,-1,1413,1765,4.88557,-17.517
196,-741,4.89539,17.4902,0,0,0,0,0,0,0,-1,1420,1765,4.89538,-17.4902
203,-741,4.91663,17.4237,0,0,0,0,0,0,0,-1,1427,1765,4.91662,-17.4237
210,-741,4.90161,17.2626,0,0,0,0,0,0,0,-1,1434,1765,4.90163,-17.2626
217,-741,4.88037,17.2411,-0.00496899,0.0117101,-0.00305143,0.0122508,-0.00550972,-1.39541,0.0104974,0.023637,1441,1765,4.88033,-17.2411
224,-741,4.95032,17.1536,-0.00542996,0.013512,-0.00324879,0.0140537,-0.00597167,-1.40557,0.0118714,0.025327,1448,1765,4.95027,-17.1535
231,-741,4.89172,17.1157,-0.00579046,0.0152534,-0.00348155,0.0158144,-0.0063515,-1.41102,0.0131805,0.0332265,1455,1765,4.89169,-17.1157
238,-741,4.83496,17.1129,-0.00585219,0.0168865,-0.00372169,0.0174801,-0.00644582,-1.41262,0.0142949,0.0358265,1462,1765,4.83498,-17.1129
245,-741,4.6217,16.6768,-0.00560091,0.0184487,-0.00398192,0.0190909,-0.00624305,-1.41091,0.0152406,0.0443511,1469,1765,4.62171,-16.6768
252,-741,4.56555,15.9279,-0.00525569,0.0197707,-0.00423907,0.0204692,-0.00595422,-1.40748,0.0160044,0.0484543,1476,1765,4.56559,-15.9279
259,-741,4.84875,16.9602,0,0,0,0,0,0,0,-1,1483,1765,4.84877,-16.9602
266,-741,4.40173,15.2345,0,0,0,0,0,0,0,-1,1490,1765,4.40175,-15.2345
273,-741,17.0328,7.54468,0,0,0,0,0,0,0,-1,1497,1765,17.0328,-7.54474
280,-741,15.7959,7.14307,0,0,0,0,0,0,0,-1,1504,1765,15.7959,-7.14305
287,-741,13.988,6.99292,0,0,0,0,0,0,0,-1,1511,1765,13.988,-6.99287
294,-741,12.3752,7.18066,0,0,0,0,0,0,0,-1,1518,1765,12.3752,-7.18061
301,-741,10.2242,6.40942,0,0,0,0,0,0,0,-1,1525,1765,10.2242,-6.40947
308,-741,8.27747,6.42419,0,0,0,0,0,0,0,-1,1532,1765,8.27746,-6.42424
315,-741,7.94568,6.22974,0,0,0,0,0,0,0,-1,1539,1765,7.94567,-6.22972
322,-741,3.08521,12.3561,0,0,0,0,0,0,0,-1,1546,1765,3.08526,-12.3561
329,-741,4.46472,13.5316,0,0,0,0,0,0,0,-1,1553,1765,4.46467,-13.5316
336,-741,4.74475,14.6453,0,0,0,0,0,0,0,-1,1560,1765,4.7447,-14.6452
343,-741,5.42297,5.93701,0,0,0,0,0,0,0,-1,1567,1765,5.42296,-5.937
350,-741,4.90369,5.44666,0,0,0,0,0,0,0,-1,1574,1765,4.90368,-5.44664
357,-741,4.02063,5.16626,0,0,0,0,0,0,0,-1,1581,1765,4.02058,-5.1662
364,-741,0,0,0,0,0,0,0,0,0,-1,1588,1765,0,0
371,-741,0,0,0,0,0,0,0,0,0,-1,1595,1765,0,0
378,-741,0,0,0,0,0,0,0,0,0,-1,1602,1765,0,0
385,-741,0,0,0,0,0,0,0,0,0,-1,1609,1765,0,0
392,-741,0,0,0,0,0,0,0,0,0,-1,1616,1765,0,0
399,-741,0,0,0,0,0,0,0,0,0,-1,1623,1765,0,0
406,-741,0,0,0,0,0,0,0,0,0,-1,1630,1765,0,0
413,-741,0,0,0,0,0,0,0,0,0,-1,1637,1765,0,0
420,-741,0,0,0,0,0,0,0,0,0,-1,1644,1765,0,0
427,-741,0,0,0,0,0,0,0,0,0,-1,1651,1765,0,0
434,-741,0,0,0,0,0,0,0,0,0,-1,1658,1765,0,0
441,-741,0,0,0,0,0,0,0,0,0,-1,1665,1765,0,0
448,-741,0,0,0,0,0,0,0,0,0,-1,1672,1765,0,0
455,-741,0,0,0,0,0,0,0,0,0,-1,1679,1765,0,0
462,-741,0,0,0,0,0,0,0,0,0,-1,1686,1765,0,0
469,-741,0,0,0,0,0,0,0,0,0,-1,1693,1765,0,0
476,-741,0,0,0,0,0,0,0,0,0,-1,1700,1765,0,0
483,-741,0,0,0,0,0,0,0,0,0,-1,1707,1765,0,0
490,-741,0,0,0,0,0,0,0,0,0,-1,1714,1765,0,0
497,-741,0,0,0,0,0,0,0,0,0,-1,1721,1765,0,0
504,-741,0,0,0,0,0,0,0,0,0,-1,1728,1765,0,0
511,-741,0,0,0,0,0,0,0,0,0,-1,1735,1765,0,0
518,-741,0,0,0,0,0,0,0,0,0,-1,1742,1765,0,0
525,-741,0,0,0,0,0,0,0,0,0,-1,1749,1765,0,0
532,-741,0,0,0,0,0,0,0,0,0,-1,1756,1765,0,0
539,-741,0,0,0,0,0,0,0,0,0,-1,1763,1765,0,0
546,-741,0,0,0,0,0,0,0,0,0,-1,1770,1765,0,0
553,-741,0,0,0,0,0,0,0,0,0,-1,1777,1765,0,0
560,-741,0,0,0,0,0,0,0,0,0,-1,1784,1765,0,0
567,-741,0,0,0,0,0,0,0,0,0,-1,1791,1765,0,0
574,-741,0,0,0,0,0,0,0,0,0,-1,1798,1765,0,0
581,-741,0,0,0,0,0,0,0,0,0,-1,1805,1765,0,0
588,-741,0,0,0,0,0,0,0,0,0,-1,1812,1765,0,0
595,-741,0,0,0,0,0,0,0,0,0,-1,1819,1765,0,0
602,-741,0,0,0,0,0,0,0,0,0,-1,1826,1765,0,0
609,-741,0,0,0,0,0,0,0,0,0,-1,1833,1765,0,0
616,-741,0,0,0,0,0,0,0,0,0,-1,1840,1765,0,0
623,-741,0,0,0,0,0,0,0,0,0,-1,1847,1765,0,0
630,-741,0,0,0,0,0,0,0,0,0,-1,1854,1765,0,0
637,-741,0,0,0,0,0,0,0,0,0,-1,1861,1765,0,0
644,-741,0,0,0,0,0,0,0,0,0,-1,1868,1765,0,0
651,-741,0,0,0,0,0,0,0,0,0,-1,1875,1765,0,0
658,-741,0,0,0,0,0,0,0,0,0,-1,1882,1765,0,0
665,-741,0,0,0,0,0,0,0,0,0,-1,1889,1765,0,0
672,-741,0,0,0,0,0,0,0,0,0,-1,1896,1765,0,0
679,-741,0,0,0,0,0,0,0,0,0,-1,1903,1765,0,0
686,-741,0,0,0,0,0,0,0,0,0,-1,1910,1765,0,0
693,-741,0,0,0,0,0,0,0,0,0,-1,1917,1765,0,0
700,-741,0,0,0,0,0,0,0,0,0,-1,1924,1765,0,0
707,-741,0,0,0,0,0,0,0,0,0,-1,1931,1765,0,0
714,-741,0,0,0,0,0,0,0,0,0,-1,1938,1765,0,0
721,-741,0,0,0,0,0,0,0,0,0,-1,1945,1765,0,0
728,-741,0,0,0,0,0,0,0,0,0,-1,1952,1765,0,0
735,-741,0,0,0,0,0,0,0,0,0,-1,1959,1765,0,0
742,-741,0,0,0,0,0,0,0,0,0,-1,1966,1765,0,0
749,-741,0,0,0,0,0,0,0,0,0,-1,1973,1765,0,0
756,-741,0,0,0,0,0,0,0,0,0,-1,1980,1765,0,0
763,-741,0,0,0,0,0,0,0,0,0,-1,1987,1765,0,0
770,-741,0,0,0,0,0,0,0,0,0,-1,1994,1765,0,0
777,-741,0,0,0,0,0,0,0,0,0,-1,2001,1765,0,0
784,-741,0,0,0,0,0,0,0,0,0,-1,2008,1765,0,0
791,-741,0,0,0,0,0,0,0,0,0,-1,2015,1765,0,0
798,-741,0,0,0,0,0,0,0,0,0,-1,2022,1765,0,0
805,-741,0,0,0,0,0,0,0,0,0,-1,2029,1765,0,0
812,-741,0,0,0,0,0,0,0,0,0,-1,2036,1765,0,0
-700,-748,0,0,0,0,0,0,0,0,0,-1,524,1772,0,0
-693,-748,0,0,0,0,0,0,0,0,0,-1,531,1772,0,0
-686,-748,0,0,0,0,0,0,0,0,0,-1,538,1772,0,0
-679,-748,0,0,0,0,0,0,0,0,0,-1,545,1772,0,0
-672,-748,0,0,0,0,0,0,0,0,0,-1,552,1772,0,0
-665,-748,0,0,0,0,0,0,0,0,0,-1,559,1772,0,0
-658,-748,0,0,0,0,0,0,0,0,0,-1,566,1772,0,0
-651,-748,0,0,0,0,0,0,0,0,0,-1,573,1772,0,0
-644,-748,0,0,0,0,0,0,0,0,0,-1,580,1772,0,0
-637,-748,0,0,0,0,0,0,0,0,0,-1,587,1772,0,0
-630,-748,0,0,0,0,0,0,0,0,0,-1,594,1772,0,0
-623,-748,0,0,0,0,0,0,0,0,0,-1,601,1772,0,0
-616,-748,0,0,0,0,0,0,0,0,0,-1,608,1772,0,0
-609,-748,0,0,0,0,0,0,0,0,0,-1,615,1772,0,0
-602,-748,0,0,0,0,0,0,0,0,0,-1,622,1772,0,0
-595,-748,0,0,0,0,0,0,0,0,0,-1,629,1772,0,0
-588,-748,0,0,0,0,0,0,0,0,0,-1,636,1772,0,0
-581,-748,0,0,0,0,0,0,0,0,0,-1,643,1772,0,0
-574,-748,0,0,0,0,0,0,0,0,0,-1,650,1772,0,0
-567,-748,0,0,0,0,0,0,0,0,0,-1,657,1772,0,0
-560,-748,0,0,0,0,0,0,0,0,0,-1,664,1772,0,0
-553,-748,0,0,0,0,0,0,0,0,0,-1,671,1772,0,0
-546,-748,0,0,0,0,0,0,0,0,0,-1,678,1772,0,0
-539,-748,0,0,0,0,0,0,0,0,0,-1,685,1772,0,0
-532,-748,0,0,0,0,0,0,0,0,0,-1,692,1772,0,0
-525,-748,0,0,0,0,0,0,0,0,0,-1,699,1772,0,0
-518,-748,0,0,0,0,0,0,0,0,0,-1,706,1772,0,0
-511,-748,0,0,0,0,0,0,0,0,0,-1,713,1772,0,0
-504,-748,0,0,0,0,0,0,0,0,0,-1,720,1772,0,0
-497,-748,0,0,0,0,0,0,0,0,0,-1,727,1772,0,0
-490,-748,0,0,0,0,0,0,0,0,0,-1,734,1772,0,0
-483,-748,0,0,0,0,0,0,0,0,0,-1,741,1772,0,0
-476,-748,0,0,0,0,0,0,0,0,0,-1,748,1772,0,0
-469,-748,0,0,0,0,0,0,0,0,0,-1,755,1772,0,0
-462,-748,0,0,0,0,0,0,0,0,0,-1,762,1772,0,0
-455,-748,0,0,0,0,0,0,0,0,0,-1,769,1772,0,0
-448,-748,0,0,0,0,0,0,0,0,0,-1,776,1772,0,0
-441,-748,0,0,0,0,0,0,0,0,0,-1,783,1772,0,0
-434,-748,0,0,0,0,0,0,0,0,0,-1,790,1772,0,0
-427,-748,0,0,0,0,0,0,0,0,0,-1,797,1772,0,0
-420,-748,0,0,0,0,0,0,0,0,0,-1,804,1772,0,0
-413,-748,0,0,0,0,0,0,0,0,0,-1,811,1772,0,0
-406,-748,0,0,0,0,0,0,0,0,0,-1,818,1772,0,0
-399,-748,0,0,0,0,0,0,0,0,0,-1,825,1772,0,0
-392,-748,0,0,0,0,0,0,0,0,0,-1,832,1772,0,0
-385,-748,0,0,0,0,0,0,0,0,0,-1,839,1772,0,0
-378,-748,0,0,0,0,0,0,0,0,0,-1,846,1772,0,0
-371,-748,0,0,0,0,0,0,0,0,0,-1,853,1772,0,0
-364,-748,0,0,0,0,0,0,0,0,0,-1,860,1772,0,0
-357,-748,0,0,0,0,0,0,0,0,0,-1,867,1772,0,0
-350,-748,0,0,0,0,0,0,0,0,0,-1,874,1772,0,0
-343,-748,0,0,0,0,0,0,0,0,0,-1,881,1772,0,0
-336,-748,0,0,0,0,0,0,0,0,0,-1,888,1772,0,0
-329,-748,0,0,0,0,0,0,0,0,0,-1,895,1772,0,0
-322,-748,0,0,0,0,0,0,0,0,0,-1,902,1772,0,0
-315,-748,0,0,0,0,0,0,0,0,0,-1,909,1772,0,0
-308,-748,0,0,0,0,0,0,0,0,0,-1,916,1772,0,0
-301,-748,0,0,0,0,0,0,0,0,0,-1,923,1772,0,0
-294,-748,0,0,0,0,0,0,0,0,0,-1,930,1772,0,0
-287,-748,0,0,0,0,0,0,0,0,0,-1,937,1772,0,0
-280,-748,0,0,0,0,0,0,0,0,0,-1,944,1772,0,0
-273,-748,0,0,0,0,0,0,0,0,0,-1,951,1772,0,0
-266,-748,0,0,0,0,0,0,0,0,0,-1,958,1772,0,0
-259,-748,0,0,0,0,0,0,0,0,0,-1,965,1772,0,0
-252,-748,0,0,0,0,0,0,0,0,0,-1,972,1772,0,0
-245,-748,0,0,0,0,0,0,0,0,0,-1,979,1772,0,0
-238,-748,0,0,0,0,0,0,0,0,0,-1,986,1772,0,0
-231,-748,0,0,0,0,0,0,0,0,0,-1,993,1772,0,0
-224,-748,0,0,0,0,0,0,0,0,0,-1,1000,1772,0,0
-217,-748,6.0882,15.7745,0,0,0,0,0,0,0,-1,1007,1772,6.08817,-15.7745
-210,-748,6.56482,15.8542,0,0,0,0,0,0,0,-1,1014,1772,6.56483,-15.8542
-203,-748,7.08105,16.2065,0,0,0,0,0,0,0,-1,1021,1772,7.0811,-16.2065
-196,-748,-1.09497,13.6892,0,0,0,0,0,0,0,-1,1028,1772,-1.09499,-13.6892
-189,-748,7.35205,17.4255,0,0,0,0,0,0,0,-1,1035,1772,7.35202,-17.4255
-182,-748,6.62622,16.2686,0,0,0,0,0,0,0,-1,1042,1772,6.6262,-16.2685
-175,-748,5.27954,14.9248,-0.0883496,0.0488321,-0.0408673,0.0600839,-0.0996014,-1.30213,0.0931306,0.046071,1049,1772,5.27955,-14.9248
-168,-748,4.27917,14.0815,-0.0852556,0.0486112,-0.0331369,0.0563647,-0.0930091,-1.34095,0.0871017,0.0445918,1056,1772,4.27923,-14.0815
-161,-748,3.50562,13.2729,0,0,0,0,0,0,0,-1,1063,1772,3.5056,-13.2729
-154,-748,-3.38562,10.6989,0,0,0,0,0,0,0,-1,1070,1772,-3.38564,-10.6989
-147,-748,-4.87122,10.7748,0,0,0,0,0,0,0,-1,1077,1772,-4.87117,-10.7748
-140,-748,5.61768,19.319,0,0,0,0,0,0,0,-1,1084,1772,5.6177,-19.319
-133,-748,6.00488,15.8188,0,0,0,0,0,0,0,-1,1091,1772,6.00486,-15.8189
-126,-748,5.42944,16.4159,0,0,0,0,0,0,0,-1,1098,1772,5.4294,-16.4159
-119,-748,5.28369,16.5145,0,0,0,0,0,0,0,-1,1105,1772,5.28374,-16.5146
-112,-748,5.37537,16.4438,0,0,0,0,0,0,0,-1,1112,1772,5.37534,-16.4439
-105,-748,5.44678,16.4175,0,0,0,0,0,0,0,-1,1119,1772,5.44674,-16.4174
-98,-748,5.43982,16.3929,0,0,0,0,0,0,0,-1,1126,1772,5.43978,-16.3929
-91,-748,4.85352,15.3033,0,0,0,0,0,0,0,-1,1133,1772,4.85351,-15.3033
-84,-748,-0.192017,7.26196,0,0,0,0,0,0,0,-1,1140,1772,-0.192047,-7.26201
-77,-748,4.42615,13.5537,0,0,0,0,0,0,0,-1,1147,1772,4.4261,-13.5538
-70,-748,4.46191,13.7446,0,0,0,0,0,0,0,-1,1154,1772,4.4619,-13.7446
-63,-748,4.49768,13.9355,0,0,0,0,0,0,0,-1,1161,1772,4.49769,-13.9355
-56,-748,3.05762,7.87817,0,0,0,0,0,0,0,-1,1168,1772,3.05768,-7.87822
-49,-748,3.04102,7.82471,0,0,0,0,0,0,0,-1,1175,1772,3.04096,-7.82468
-42,-748,0.793457,14.9474,0,0,0,0,0,0,0,-1,1182,1772,0.793413,-14.9474
-35,-748,5.20593,17.441,0,0,0,0,0,0,0,-1,1189,1772,5.20589,-17.4411
-28,-748,5.20032,17.6465,0,0,0,0,0,0,0,-1,1196,1772,5.20031,-17.6464
-21,-748,5.20264,17.6235,0.00518524,0.00104162,0.0113,0.0146018,-0.00837493,0.694732,0.013427,0.022606,1203,1772,5.20265,-17.6235
-14,-748,5.17871,17.6219,0.00512242,0.000611143,0.0107029,0.0138048,-0.00807124,0.681543,0.0127739,0.0158429,1210,1772,5.1787,-17.622
-7,-748,5.1842,17.6584,0.00495705,-1.10906e-05,0.00987764,0.0126582,-0.00771222,0.662211,0.0118759,0.0149998,1217,1772,5.18423,-17.6584
0,-748,5.15295,17.7024,0.004647,-0.000225873,0.00866552,0.0112121,-0.00679096,0.648354,0.010498,0.0161863,1224,1772,5.15296,-17.7024
7,-748,5.14136,17.7466,0.00384313,-0.00057241,0.0075094,0.00946258,-0.00619186,0.642426,0.00910361,0.014951,1231,1772,5.14132,-17.7466
14,-748,5.12231,17.8136,0.00278916,-0.000992656,0.00649316,0.00766114,-0.00586464,0.643709,0.00783204,0.0144751,1238,1772,5.12229,-17.8136
21,-748,5.10645,17.8611,0.0018477,-0.00132588,0.00543047,0.00591846,-0.00539664,0.643255,0.00653509,0.0116688,1245,1772,5.1065,-17.861
28,-748,5.07178,17.9005,0.00126904,-0.00143049,0.0043379,0.00446232,-0.00462376,0.634568,0.00524613,0.0120145,1252,1772,5.07181,-17.9006
35,-748,5.06848,17.9421,0.0014465,-0.00122381,0.00336568,0.00373219,-0.00350949,0.596571,0.00418164,0.011953,1259,1772,5.06852,-17.9421
42,-748,5.05981,17.9551,0.00342641,-0.000954613,0.00235472,0.00445196,-0.00198017,0.410756,0.00380389,0.0126078,1266,1772,5.05976,-17.9551
49,-748,5.07019,17.9526,0.00598483,0.000701558,0.000242652,0.00599595,0.000690437,0.0457999,0.00378819,0.00943615,1273,1772,5.07014,-17.9526
56,-748,5.05005,17.9753,0.00871405,0.00278562,-0.00130943,0.00899039,0.00250929,-0.207984,0.00535679,0.00934956,1280,1772,5.05001,-17.9754
63,-748,5.01208,17.9938,0.0121239,0.00519163,-0.00325066,0.0134097,0.00390582,-0.376665,0.00796378,0.0115621,1287,1772,5.01204,-17.9938
70,-748,5.0083,18.0005,0.0156725,0.0074651,-0.00508239,0.0181011,0.0050365,-0.445768,0.0107879,0.0134842,1294,1772,5.00833,-18.0005
77,-748,5.02222,18.0071,0.0194914,0.0100957,-0.00760309,0.0237309,0.00585614,-0.508663,0.0142748,0.0124334,1301,1772,5.02216,-18.007
84,-748,5.01831,18.014,0.0232369,0.0127497,-0.00995759,0.0292471,0.00673944,-0.543051,0.017685,0.0134369,1308,1772,5.01826,-18.0141
91,-748,4.99304,18.0238,0.0262635,0.015427,-0.012137,0.0341367,0.00755375,-0.575459,0.0207044,0.0114216,1315,1772,4.99307,-18.0238
98,-748,4.97754,18.0063,0.0281333,0.0178374,-0.0139417,0.0378471,0.00812355,-0.608539,0.0230067,0.0107393,1322,1772,4.9775,-18.0064
105,-748,4.97046,17.9594,0.0289804,0.0192431,-0.0152873,0.0401557,0.00806789,-0.631239,0.0245275,0.0115532,1329,1772,4.97043,-17.9593
112,-748,4.98853,17.9629,0.0292736,0.0204277,-0.0165434,0.0419751,0.00772625,-0.654775,0.0257966,0.0141219,1336,1772,4.98849,-17.9629
119,-748,4.98291,17.9547,0.0284824,0.0210226,-0.0174062,0.0425538,0.00695119,-0.67985,0.0263595,0.0125696,1343,1772,4.98296,-17.9547
126,-748,4.97461,17.9425,0.026838,0.0210273,-0.0176318,0.0418022,0.00606314,-0.703742,0.0260831,0.0143409,1350,1772,4.97465,-17.9425
133,-748,4.93384,17.889,0.0244487,0.0204118,-0.0172752,0.039823,0.00503751,-0.727241,0.025039,0.00893827,1357,1772,4.93379,-17.8891
140,-748,4.91614,17.8656,0.0214622,0.0193353,-0.0165962,0.0370289,0.0037685,-0.753403,0.0235306,0.0122909,1364,1772,4.91619,-17.8655
147,-748,4.94434,17.8309,0.0167354,0.018062,-0.0156743,0.033087,0.00171038,-0.806545,0.0215106,0.0140742,1371,1772,4.94435,-17.8309
154,-748,4.92175,17.8046,0.0121261,0.01482,-0.0131249,0.0266669,0.000279164,-0.836533,0.0176856,0.0125526,1378,1772,4.92172,-17.8046
161,-748,4.88818,17.7788,0.0100156,0.0123252,-0.0112142,0.0224439,-0.000103126,-0.836705,0.0149971,0.0196602,1385,1772,4.88823,-17.7788
168,-748,4.93079,17.7415,0,0,0,0,0,0,0,-1,1392,1772,4.93078,-17.7415
175,-748,11.3344,16.3276,0,0,0,0,0,0,0,-1,1399,1772,11.3343,-16.3276
182,-748,7.62476,10.3058,0,0,0,0,0,0,0,-1,1406,1772,7.62476,-10.3058
189,-748,6.15857,6.95898,0,0,0,0,0,0,0,-1,1413,1772,6.15862,-6.95896
196,-748,3.9425,8.46021,0,0,0,0,0,0,0,-1,1420,1772,3.9425,-8.46026
203,-748,3.9668,12.9835,0,0,0,0,0,0,0,-1,1427,1772,3.96678,-12.9836
210,-748,4.71472,16.8318,0,0,0,0,0,0,0,-1,1434,1772,4.71471,-16.8317
217,-748,4.87402,17.0292,0,0,0,0,0,0,0,-1,1441,1772,4.87407,-17.0292
224,-748,5.10242,16.8792,-0.00801895,0.0185207,-0.00401884,0.0191159,-0.00861417,-1.42376,0.0163882,0.0441565,1448,1772,5.10237,-16.8792
231,-748,5.03223,16.8157,-0.00852661,0.0209301,-0.00429011,0.0215422,-0.00913871,-1.42908,0.0181898,0.0415451,1455,1772,5.03218,-16.8157
238,-748,4.76831,17.2284,-0.00868564,0.0232621,-0.00460205,0.0239118,-0.00933535,-1.43055,0.0198006,0.0489957,1462,1772,4.76826,-17.2284
245,-748,4.39905,16.4276,0,0,0,0,0,0,0,-1,1469,1772,4.39908,-16.4276
252,-748,4.38489,15.1183,0,0,0,0,0,0,0,-1,1476,1772,4.38484,-15.1183
259,-748,4.37708,14.7086,0,0,0,0,0,0,0,-1,1483,1772,4.37712,-14.7086
266,-748,17.9011,7.59448,0,0,0,0,0,0,0,-1,1490,1772,17.9011,-7.59452
273,-748,16.4131,7.57129,0,0,0,0,0,0,0,-1,1497,1772,16.413,-7.57125
280,-748,15.2177,7.24829,0,0,0,0,0,0,0,-1,1504,1772,15.2176,-7.24833
287,-748,13.697,6.93396,0,0,0,0,0,0,0,-1,1511,1772,13.697,-6.93401
294,-748,11.8735,6.83142,0,0,0,0,0,0,0,-1,1518,1772,11.8735,-6.83142
301,-748,10.1475,7.08789,0,0,0,0,0,0,0,-1,1525,1772,10.1474,-7.08787
308,-748,8.37451,7.6344,0,0,0,0,0,0,0,-1,1532,1772,8.37447,-7.63443
315,-748,6.65149,8.06299,0,0,0,0,0,0,0,-1,1539,1772,6.65144,-8.063
322,-748,2.9469,13.4518,0,0,0,0,0,0,0,-1,1546,1772,2.94694,-13.4518
329,-748,3.48315,14.6533,0,0,0,0,0,0,0,-1,1553,1772,3.48316,-14.6534
336,-748,3.76001,15.8163,0,0,0,0,0,0,0,-1,1560,1772,3.75995,-15.8163
343,-748,0,0,0,0,0,0,0,0,0,-1,1567,1772,0,0
350,-748,0,0,0,0,0,0,0,0,0,-1,1574,1772,0,0
357,-748,0,0,0,0,0,0,0,0,0,-1,1581,1772,0,0
364,-748,0,0,0,0,0,0,0,0,0,-1,1588,1772,0,0
371,-748,0,0,0,0,0,0,0,0,0,-1,1595,1772,0,0
378,-748,0,0,0,0,0,0,0,0,0,-1,1602,1772,0,0
385,-748,0,0,0,0,0,0,0,0,0,-1,1609,1772,0,0
392,-748,0,0,0,0,0,0,0,0,0,-1,1616,1772,0,0
399,-748,0,0,0,0,0,0,0,0,0,-1,1623,1772,0,0
406,-748,0,0,0,0,0,0,0,0,0,-1,1630,1772,0,0
413,-748,0,0,0,0,0,0,0,0,0,-1,1637,1772,0,0
420,-748,0,0,0,0,0,0,0,0,0,-1,1644,1772,0,0
427,-748,0,0,0,0,0,0,0,0,0,-1,1651,1772,0,0
434,-748,0,0,0,0,0,0,0,0,0,-1,1658,1772,0,0
441,-748,0,0,0,0,0,0,0,0,0,-1,1665,1772,0,0
448,-748,0,0,0,0,0,0,0,0,0,-1,1672,1772,0,0
455,-748,0,0,0,0,0,0,0,0,0,-1,1679,1772,0,0
462,-748,0,0,0,0,0,0,0,0,0,-1,1686,1772,0,0
469,-748,0,0,0,0,0,0,0,0,0,-1,1693,1772,0,0
476,-748,0,0,0,0,0,0,0,0,0,-1,1700,1772,0,0
483,-748,0,0,0,0,0,0,0,0,0,-1,1707,1772,0,0
490,-748,0,0,0,0,0,0,0,0,0,-1,1714,1772,0,0
497,-748,0,0,0,0,0,0,0,0,0,-1,1721,1772,0,0
504,-748,0,0,0,0,0,0,0,0,0,-1,1728,1772,0,0
511,-748,0,0,0,0,0,0,0,0,0,-1,1735,1772,0,0
518,-748,0,0,0,0,0,0,0,0,0,-1,1742,1772,0,0
525,-748,0,0,0,0,0,0,0,0,0,-1,1749,1772,0,0
532,-748,0,0,0,0,0,0,0,0,0,-1,1756,1772,0,0
539,-748,0,0,0,0,0,0,0,0,0,-1,1763,1772,0,0
546,-748,0,0,0,0,0,0,0,0,0,-1,1770,1772,0,0
553,-748,0,0,0,0,0,0,0,0,0,-1,1777,1772,0,0
560,-748,0,0,0,0,0,0,0,0,0,-1,1784,1772,0,0
567,-748,0,0,0,0,0,0,0,0,0,-1,1791,1772,0,0
574,-748,0,0,0,0,0,0,0,0,0,-1,1798,1772,0,0
581,-748,0,0,0,0,0,0,0,0,0,-1,1805,1772,0,0
588,-748,0,0,0,0,0,0,0,0,0,-1,1812,1772,0,0
595,-748,0,0,0,0,0,0,0,0,0,-1,1819,1772,0,0
602,-748,0,0,0,0,0,0,0,0,0,-1,1826,1772,0,0
609,-748,0,0,0,0,0,0,0,0,0,-1,1833,1772,0,0
616,-748,0,0,0,0,0,0,0,0,0,-1,1840,1772,0,0
623,-748,0,0,0,0,0,0,0,0,0,-1,1847,1772,0,0
630,-748,0,0,0,0,0,0,0,0,0,-1,1854,1772,0,0
637,-748,0,0,0,0,0,0,0,0,0,-1,1861,1772,0,0
644,-748,0,0,0,0,0,0,0,0,0,-1,1868,1772,0,0
651,-748,0,0,0,0,0,0,0,0,0,-1,1875,1772,0,0
658,-748,0,0,0,0,0,0,0,0,0,-1,1882,1772,0,0
665,-748,0,0,0,0,0,0,0,0,0,-1,1889,1772,0,0
672,-748,0,0,0,0,0,0,0,0,0,-1,1896,1772,0,0
679,-748,0,0,0,0,0,0,0,0,0,-1,1903,1772,0,0
686,-748,0,0,0,0,0,0,0,0,0,-1,1910,1772,0,0
693,-748,0,0,0,0,0,0,0,0,0,-1,1917,1772,0,0
700,-748,0,0,0,0,0,0,0,0,0,-1,1924,1772,0,0
707,-748,0,0,0,0,0,0,0,0,0,-1,1931,1772,0,0
714,-748,0,0,0,0,0,0,0,0,0,-1,1938,1772,0,0
721,-748,0,0,0,0,0,0,0,0,0,-1,1945,1772,0,0
728,-748,0,0,0,0,0,0,0,0,0,-1,1952,1772,0,0
735,-748,0,0,0,0,0,0,0,0,0,-1,1959,1772,0,0
742,-748,0,0,0,0,0,0,0,0,0,-1,1966,1772,0,0
749,-748,0,0,0,0,0,0,0,0,0,-1,1973,1772,0,0
756,-748,0,0,0,0,0,0,0,0,0,-1,1980,1772,0,0
763,-748,0,0,0,0,0,0,0,0,0,-1,1987,1772,0,0
770,-748,0,0,0,0,0,0,0,0,0,-1,1994,1772,0,0
777,-748,0,0,0,0,0,0,0,0,0,-1,2001,1772,0,0
784,-748,0,0,0,0,0,0,0,0,0,-1,2008,1772,0,0
791,-748,0,0,0,0,0,0,0,0,0,-1,2015,1772,0,0
798,-748,0,0,0,0,0,0,0,0,0,-1,2022,1772,0,0
805,-748,0,0,0,0,0,0,0,0,0,-1,2029,1772,0,0
812,-748,0,0,0,0,0,0,0,0,0,-1,2036,1772,0,0
-700,-755,0,0,0,0,0,0,0,0,0,-1,524,1779,0,0
-693,-755,0,0,0,0,0,0,0,0,0,-1,531,1779,0,0
-686,-755,0,0,0,0,0,0,0,0,0,-1,538,1779,0,0
-679,-755,0,0,0,0,0,0,0,0,0,-1,545,1779,0,0
-672,-755,0,0,0,0,0,0,0,0,0,-1,552,1779,0,0
-665,-755,0,0,0,0,0,0,0,0,0,-1,559,1779,0,0
-658,-755,0,0,0,0,0,0,0,0,0,-1,566,1779,0,0
-651,-755,0,0,0,0,0,0,0,0,0,-1,573,1779,0,0
-644,-755,0,0,0,0,0,0,0,0,0,-1,580,1779,0,0
-637,-755,0,0,0,0,0,0,0,0,0,-1,587,1779,0,0
-630,-755,0,0,0,0,0,0,0,0,0,-1,594,1779,0,0
-623,-755,0,0,0,0,0,0,0,0,0,-1,601,1779,0,0
-616,-755,0,0,0,0,0,0,0,0,0,-1,608,1779,0,0
-609,-755,0,0,0,0,0,0,0,0,0,-1,615,1779,0,0
-602,-755,0,0,0,0,0,0,0,0,0,-1,622,1779,0,0
-595,-755,0,0,0,0,0,0,0,0,0,-1,629,1779,0,0
-588,-755,0,0,0,0,0,0,0,0,0,-1,636,1779,0,0
-581,-755,0,0,0,0,0,0,0,0,0,-1,643,1779,0,0
-574,-755,0,0,0,0,0,0,0,0,0,-1,650,1779,0,0
-567,-755,0,0,0,0,0,0,0,0,0,-1,657,1779,0,0
-560,-755,0,0,0,0,0,0,0,0,0,-1,664,1779,0,0
-553,-755,0,0,0,0,0,0,0,0,0,-1,671,1779,0,0
-546,-755,0,0,0,0,0,0,0,0,0,-1,678,1779,0,0
-539,-755,0,0,0,0,0,0,0,0,0,-1,685,1779,0,0
-532,-755,0,0,0,0,0,0,0,0,0,-1,692,1779,0,0
-525,-755,0,0,0,0,0,0,0,0,0,-1,699,1779,0,0
-518,-755,0,0,0,0,0,0,0,0,0,-1,706,1779,0,0
-511,-755,0,0,0,0,0,0,0,0,0,-1,713,1779,0,0
-504,-755,0,0,0,0,0,0,0,0,0,-1,720,1779,0,0
-497,-755,0,0,0,0,0,0,0,0,0,-1,727,1779,0,0
-490,-755,0,0,0,0,0,0,0,0,0,-1,734,1779,0,0
-483,-755,0,0,0,0,0,0,0,0,0,-1,741,1779,0,0
-476,-755,0,0,0,0,0,0,0,0,0,-1,748,1779,0,0
-469,-755,0,0,0,0,0,0,0,0,0,-1,755,1779,0,0
-462,-755,0,0,0,0,0,0,0,0,0,-1,762,1779,0,0
-455,-755,0,0,0,0,0,0,0,0,0,-1,769,1779,0,0
-448,-755,0,0,0,0,0,0,0,0,0,-1,776,1779,0,0
-441,-755,0,0,0,0,0,0,0,0,0,-1,783,1779,0,0
-434,-755,0,0,0,0,0,0,0,0,0,-1,790,1779,0,0
-427,-755,0,0,0,0,0,0,0,0,0,-1,797,1779,0,0
-420,-755,0,0,0,0,0,0,0,0,0,-1,804,1779,0,0
-413,-755,0,0,0,0,0,0,0,0,0,-1,811,1779,0,0
-406,-755,0,0,0,0,0,0,0,0,0,-1,818,1779,0,0
-399,-755,0,0,0,0,0,0,0,0,0,-1,825,1779,0,0
-392,-755,0,0,0,0,0,0,0,0,0,-1,832,1779,0,0
-385,-755,0,0,0,0,0,0,0,0,0,-1,839,1779,0,0
-378,-755,0,0,0,0,0,0,0,0,0,-1,846,1779,0,0
-371,-755,0,0,0,0,0,0,0,0,0,-1,853,1779,0,0
-364,-755,0,0,0,0,0,0,0,0,0,-1,860,1779,0,0
-357,-755,0,0,0,0,0,0,0,0,0,-1,867,1779,0,0
-350,-755,0,0,0,0,0,0,0,0,0,-1,874,1779,0,0
-343,-755,0,0,0,0,0,0,0,0,0,-1,881,1779,0,0
-336,-755,0,0,0,0,0,0,0,0,0,-1,888,1779,0,0
-329,-755,0,0,0,0,0,0,0,0,0,-1,895,1779,0,0
-322,-755,0,0,0,0,0,0,0,0,0,-1,902,1779,0,0
-315,-755,0,0,0,0,0,0,0,0,0,-1,909,1779,0,0
-308,-755,0,0,0,0,0,0,0,0,0,-1,916,1779,0,0
-301,-755,0,0,0,0,0,0,0,0,0,-1,923,1779,0,0
-294,-755,0,0,0,0,0,0,0,0,0,-1,930,1779,0,0
-287,-755,0,0,0,0,0,0,0,0,0,-1,937,1779,0,0
-280,-755,0,0,0,0,0,0,0,0,0,-1,944,1779,0,0
-273,-755,0,0,0,0,0,0,0,0,0,-1,951,1779,0,0
-266,-755,0,0,0,0,0,0,0,0,0,-1,958,1779,0,0
-259,-755,0,0,0,0,0,0,0,0,0,-1,965,1779,0,0
-252,-755,0,0,0,0,0,0,0,0,0,-1,972,1779,0,0
-245,-755,0,0,0,0,0,0,0,0,0,-1,979,1779,0,0
-238,-755,0,0,0,0,0,0,0,0,0,-1,986,1779,0,0
-231,-755,0,0,0,0,0,0,0,0,0,-1,993,1779,0,0
-224,-755,0,0,0,0,0,0,0,0,0,-1,1000,1779,0,0
-217,-755,0,0,0,0,0,0,0,0,0,-1,1007,1779,0,0
-210,-755,0,0,0,0,0,0,0,0,0,-1,1014,1779,0,0
-203,-755,-3.07153,13.8969,0,0,0,0,0,0,0,-1,1021,1779,-3.07152,-13.8969
-196,-755,4.91333,14.9064,0,0,0,0,0,0,0,-1,1028,1779,4.91327,-14.9063
-189,-755,4.85864,12.9271,0,0,0,0,0,0,0,-1,1035,1779,4.85866,-12.9272
-182,-755,0.733154,13.2736,0,0,0,0,0,0,0,-1,1042,1779,0.733112,-13.2735
-175,-755,5.40198,14.8074,0,0,0,0,0,0,0,-1,1049,1779,5.40199,-14.8074
-168,-755,4.5177,13.7404,0,0,0,0,0,0,0,-1,1056,1779,4.5177,-13.7403
-161,-755,-2.85889,11.5868,0,0,0,0,0,0,0,-1,1063,1779,-2.85887,-11.5868
-154,-755,-3.83704,10.8331,0,0,0,0,0,0,0,-1,1070,1779,-3.83702,-10.8332
-147,-755,-5.40332,10.7094,0,0,0,0,0,0,0,-1,1077,1779,-5.40328,-10.7094
-140,-755,3.29346,10.2112,0,0,0,0,0,0,0,-1,1084,1779,3.2935,-10.2112
-133,-755,7.55225,16.4945,0,0,0,0,0,0,0,-1,1091,1779,7.55225,-16.4946
-126,-755,7.15491,16.7509,0,0,0,0,0,0,0,-1,1098,1779,7.15496,-16.7509
-119,-755,6.20374,16.9153,0,0,0,0,0,0,0,-1,1105,1779,6.20372,-16.9152
-112,-755,6.88074,16.948,0,0,0,0,0,0,0,-1,1112,1779,6.88078,-16.9481
-105,-755,4.62231,16.931,0,0,0,0,0,0,0,-1,1119,1779,4.6223,-16.9311
-98,-755,4.26819,14.9769,0,0,0,0,0,0,0,-1,1126,1779,4.26815,-14.9769
-91,-755,3.91394,13.0228,0,0,0,0,0,0,0,-1,1133,1779,3.91399,-13.0228
-84,-755,0.169312,8.66443,0,0,0,0,0,0,0,-1,1140,1779,0.16932,-8.66446
-77,-755,-0.0491943,6.87439,0,0,0,0,0,0,0,-1,1147,1779,-0.0491385,-6.87443
-70,-755,4.5686,13.2169,0,0,0,0,0,0,0,-1,1154,1779,4.56865,-13.2169
-63,-755,-1.36316,7.3147,0,0,0,0,0,0,0,-1,1161,1779,-1.36312,-7.31473
-56,-755,0.0483398,5.06079,0,0,0,0,0,0,0,-1,1168,1779,0.0483138,-5.06084
-49,-755,-1.32263,5.33716,0,0,0,0,0,0,0,-1,1175,1779,-1.32264,-5.33718
-42,-755,-2.03613,4.01672,0,0,0,0,0,0,0,-1,1182,1779,-2.0361,-4.01671
-35,-755,-2.72498,2.37476,0,0,0,0,0,0,0,-1,1189,1779,-2.72502,-2.37473
-28,-755,4.95166,17.5629,0,0,0,0,0,0,0,-1,1196,1779,4.95165,-17.5629
-21,-755,5.2345,17.5918,0,0,0,0,0,0,0,-1,1203,1779,5.23444,-17.5918
-14,-755,5.24536,17.6315,0.00780938,0.000500541,0.0158244,0.0203959,-0.012086,0.67192,0.0189569,0.0332835,1210,1779,5.24539,-17.6315
-7,-755,5.22339,17.6823,0.00756906,-1.30397e-05,0.0145121,0.0187771,-0.011221,0.657636,0.0175016,0.0235883,1217,1779,5.22335,-17.6822
0,-755,5.19458,17.7163,0.00707487,-0.000152443,0.0127893,0.0167512,-0.00982877,0.64771,0.0155185,0.013907,1224,1779,5.19458,-17.7164
7,-755,5.17346,17.7554,0.00587621,-0.000407028,0.0111794,0.014347,-0.00887781,0.648421,0.0135322,0.0111975,1231,1779,5.17346,-17.7553
14,-755,5.16626,17.8242,0.00434095,-0.000880334,0.00976572,0.011839,-0.00837834,0.654789,0.0117293,0.0100572,1238,1779,5.1663,-17.8242
21,-755,5.12244,17.8597,0.0029211,-0.00129354,0.00826188,0.00934018,-0.00771262,0.660528,0.00986037,0.0148415,1245,1779,5.12246,-17.8597
28,-755,5.0802,17.8793,0.00196363,-0.00149556,0.0067323,0.00718497,-0.00671689,0.659662,0.00802776,0.0175764,1252,1779,5.08022,-17.8793
35,-755,5.10974,17.9453,0.00203813,-0.00137066,0.00539045,0.00598722,-0.00531975,0.632278,0.00653188,0.0172622,1259,1779,5.10979,-17.9453
42,-755,5.08789,17.9419,0.00475495,-0.00122084,0.00402583,0.00678052,-0.00324641,0.466159,0.0059077,0.0135529,1266,1779,5.0879,-17.9419
49,-755,5.08081,17.9232,0.00836631,0.000876723,0.00116854,0.00854439,0.000698639,0.151235,0.00547825,0.00920343,1273,1779,5.08081,-17.9232
56,-755,5.0686,17.9615,0.0121162,0.00349912,-0.000961111,0.0122221,0.00339322,-0.109739,0.00728535,0.00854071,1280,1779,5.06861,-17.9615
63,-755,5.04565,17.9906,0.0168601,0.00655098,-0.00361058,0.0179989,0.00541223,-0.305518,0.0106633,0.00905342,1287,1779,5.04567,-17.9906
70,-755,5.04333,17.9937,0.0219125,0.00949946,-0.00619355,0.0244742,0.0069378,-0.392176,0.0145651,0.011086,1294,1779,5.04332,-17.9937
77,-755,5.03552,17.9797,0.0273906,0.012963,-0.00965863,0.032232,0.00812158,-0.464648,0.0193573,0.0107365,1301,1779,5.03551,-17.9798
84,-755,5.0481,17.9817,0.0328819,0.0166374,-0.0129912,0.0400809,0.00943835,-0.506021,0.0241961,0.0113871,1308,1779,5.04806,-17.9817
91,-755,5.01721,17.9812,0.0374844,0.0203951,-0.0161877,0.0472442,0.0106353,-0.54256,0.0286176,0.0112087,1315,1779,5.01723,-17.9813
98,-755,4.97681,17.9846,0.0404876,0.0238663,-0.018833,0.0527621,0.0115918,-0.577608,0.0320181,0.0127609,1322,1779,4.97677,-17.9846
105,-755,4.99927,17.9895,0.0421153,0.0261107,-0.0209353,0.0565256,0.0117004,-0.602847,0.0344523,0.016309,1329,1779,4.99922,-17.9895
112,-755,5.01587,17.9581,0.0430071,0.0280554,-0.0230054,0.0597209,0.0113416,-0.6283,0.0366235,0.0213516,1336,1779,5.01584,-17.9582
119,-755,4.99854,17.9351,0.0422531,0.0292468,-0.024503,0.0611012,0.0103987,-0.655687,0.0377484,0.0202894,1343,1779,4.99856,-17.935
126,-755,4.92871,17.9663,0.0402629,0.029546,-0.025105,0.0605749,0.00923399,-0.680255,0.0376843,0.0216632,1350,1779,4.92867,-17.9663
133,-755,4.84692,17.8999,0.0371356,0.0289071,-0.0248558,0.0582153,0.00782733,-0.703379,0.0364821,0.0231923,1357,1779,4.84698,-17.8999
140,-755,4.85327,17.9098,0.0332857,0.0277066,-0.0242233,0.0548795,0.00611283,-0.728071,0.0347285,0.0297805,1364,1779,4.85326,-17.9097
147,-755,4.86719,17.8777,0.0267864,0.0263815,-0.0233572,0.0499421,0.00322583,-0.781064,0.0322732,0.0309355,1371,1779,4.86717,-17.8776
154,-755,4.85547,17.817,0.0201827,0.0220106,-0.0200695,0.0411869,0.00100642,-0.808152,0.0271287,0.0361269,1378,1779,4.85543,-17.817
161,-755,4.7345,17.8035,0,0,0,0,0,0,0,-1,1385,1779,4.73455,-17.8035
168,-755,3.98181,7.35901,0,0,0,0,0,0,0,-1,1392,1779,3.98184,-7.35904
175,-755,8.17065,1.34363,0,0,0,0,0,0,0,-1,1399,1779,8.1706,-1.34368
182,-755,8.09216,2.96924,0,0,0,0,0,0,0,-1,1406,1779,8.09213,-2.9693
189,-755,8.04419,4.68042,0,0,0,0,0,0,0,-1,1413,1779,8.04419,-4.68046
196,-755,7.74841,7.4541,0,0,0,0,0,0,0,-1,1420,1779,7.74842,-7.45405
203,-755,4.80554,6.88696,0,0,0,0,0,0,0,-1,1427,1779,4.80554,-6.88697
210,-755,25.1694,7.35693,0,0,0,0,0,0,0,-1,1434,1779,25.1694,-7.35688
217,-755,5.01648,16.411,0,0,0,0,0,0,0,-1,1441,1779,5.01646,-16.411
224,-755,5.15308,16.7097,0,0,0,0,0,0,0,-1,1448,1779,5.15313,-16.7097
231,-755,5.24731,16.6639,0,0,0,0,0,0,0,-1,1455,1779,5.24725,-16.664
238,-755,4.81372,17.2296,0,0,0,0,0,0,0,-1,1462,1779,4.81367,-17.2296
245,-755,3.52185,15.5437,0,0,0,0,0,0,0,-1,1469,1779,3.52183,-15.5437
252,-755,3.99756,13.9052,0,0,0,0,0,0,0,-1,1476,1779,3.99754,-13.9051
259,-755,18.481,8.25134,0,0,0,0,0,0,0,-1,1483,1779,18.4809,-8.25139
266,-755,17.255,7.86096,0,0,0,0,0,0,0,-1,1490,1779,17.255,-7.86092
273,-755,15.7932,7.59778,0,0,0,0,0,0,0,-1,1497,1779,15.7932,-7.59777
280,-755,14.6255,7.34802,0,0,0,0,0,0,0,-1,1504,1779,14.6254,-7.34806
287,-755,13.1736,7.34705,0,0,0,0,0,0,0,-1,1511,1779,13.1736,-7.34709
294,-755,11.4563,7.27002,0,0,0,0,0,0,0,-1,1518,1779,11.4563,-7.26998
301,-755,9.98267,7.87927,0,0,0,0,0,0,0,-1,1525,1779,9.98265,-7.87925
308,-755,8.23889,8.34631,0,0,0,0,0,0,0,-1,1532,1779,8.23889,-8.34626
315,-755,6.46362,8.76587,0,0,0,0,0,0,0,-1,1539,1779,6.46364,-8.76592
322,-755,0,0,0,0,0,0,0,0,0,-1,1546,1779,0,0
329,-755,0,0,0,0,0,0,0,0,0,-1,1553,1779,0,0
336,-755,0,0,0,0,0,0,0,0,0,-1,1560,1779,0,0
343,-755,0,0,0,0,0,0,0,0,0,-1,1567,1779,0,0
350,-755,0,0,0,0,0,0,0,0,0,-1,1574,1779,0,0
357,-755,0,0,0,0,0,0,0,0,0,-1,1581,1779,0,0
364,-755,0,0,0,0,0,0,0,0,0,-1,1588,1779,0,0
371,-755,0,0,0,0,0,0,0,0,0,-1,1595,1779,0,0
378,-755,0,0,0,0,0,0,0,0,0,-1,1602,1779,0,0
385,-755,0,0,0,0,0,0,0,0,0,-1,1609,1779,0,0
392,-755,0,0,0,0,0,0,0,0,0,-1,1616,1779,0,0
399,-755,0,0,0,0,0,0,0,0,0,-1,1623,1779,0,0
406,-755,0,0,0,0,0,0,0,0,0,-1,1630,1779,0,0
413,-755,0,0,0,0,0,0,0,0,0,-1,1637,1779,0,0
420,-755,0,0,0,0,0,0,0,0,0,-1,1644,1779,0,0
427,-755,0,0,0,0,0,0,0,0,0,-1,1651,1779,0,0
434,-755,0,0,0,0,0,0,0,0,0,-1,1658,1779,0,0
441,-755,0,0,0,0,0,0,0,0,0,-1,1665,1779,0,0
448,-755,0,0,0,0,0,0,0,0,0,-1,1672,1779,0,0
455,-755,0,0,0,0,0,0,0,0,0,-1,1679,1779,0,0
462,-755,0,0,0,0,0,0,0,0,0,-1,1686,1779,0,0
469,-755,0,0,0,0,0,0,0,0,0,-1,1693,1779,0,0
476,-755,0,0,0,0,0,0,0,0,0,-1,1700,1779,0,0
483,-755,0,0,0,0,0,0,0,0,0,-1,1707,1779,0,0
490,-755,0,0,0,0,0,0,0,0,0,-1,1714,1779,0,0
497,-755,0,0,0,0,0,0,0,0,0,-1,1721,1779,0,0
504,-755,0,0,0,0,0,0,0,0,0,-1,1728,1779,0,0
511,-755,0,0,0,0,0,0,0,0,0,-1,1735,1779,0,0
518,-755,0,0,0,0,0,0,0,0,0,-1,1742,1779,0,0
525,-755,0,0,0,0,0,0,0,0,0,-1,1749,1779,0,0
532,-755,0,0,0,0,0,0,0,0,0,-1,1756,1779,0,0
539,-755,0,0,0,0,0,0,0,0,0,-1,1763,1779,0,0
546,-755,0,0,0,0,0,0,0,0,0,-1,1770,1779,0,0
553,-755,0,0,0,0,0,0,0,0,0,-1,1777,1779,0,0
560,-755,0,0,0,0,0,0,0,0,0,-1,1784,1779,0,0
567,-755,0,0,0,0,0,0,0,0,0,-1,1791,1779,0,0
574,-755,0,0,0,0,0,0,0,0,0,-1,1798,1779,0,0
581,-755,0,0,0,0,0,0,0,0,0,-1,1805,1779,0,0
588,-755,0,0,0,0,0,0,0,0,0,-1,1812,1779,0,0
595,-755,0,0,0,0,0,0,0,0,0,-1,1819,1779,0,0
602,-755,0,0,0,0,0,0,0,0,0,-1,1826,1779,0,0
609,-755,0,0,0,0,0,0,0,0,0,-1,1833,1779,0,0
616,-755,0,0,0,0,0,0,0,0,0,-1,1840,1779,0,0
623,-755,0,0,0,0,0,0,0,0,0,-1,1847,1779,0,0
630,-755,0,0,0,0,0,0,0,0,0,-1,1854,1779,0,0
637,-755,0,0,0,0,0,0,0,0,0,-1,1861,1779,0,0
644,-755,0,0,0,0,0,0,0,0,0,-1,1868,1779,0,0
651,-755,0,0,0,0,0,0,0,0,0,-1,1875,1779,0,0
658,-755,0,0,0,0,0,0,0,0,0,-1,1882,1779,0,0
665,-755,0,0,0,0,0,0,0,0,0,-1,1889,1779,0,0
672,-755,0,0,0,0,0,0,0,0,0,-1,1896,1779,0,0
679,-755,0,0,0,0,0,0,0,0,0,-1,1903,1779,0,0
686,-755,0,0,0,0,0,0,0,0,0,-1,1910,1779,0,0
693,-755,0,0,0,0,0,0,0,0,0,-1,1917,1779,0,0
700,-755,0,0,0,0,0,0,0,0,0,-1,1924,1779,0,0
707,-755,0,0,0,0,0,0,0,0,0,-1,1931,1779,0,0
714,-755,0,0,0,0,0,0,0,0,0,-1,1938,1779,0,0
721,-755,0,0,0,0,0,0,0,0,0,-1,1945,1779,0,0
728,-755,0,0,0,0,0,0,0,0,0,-1,1952,1779,0,0
735,-755,0,0,0,0,0,0,0,0,0,-1,1959,1779,0,0
742,-755,0,0,0,0,0,0,0,0,0,-1,1966,1779,0,0
749,-755,0,0,0,0,0,0,0,0,0,-1,1973,1779,0,0
756,-755,0,0,0,0,0,0,0,0,0,-1,1980,1779,0,0
763,-755,0,0,0,0,0,0,0,0,0,-1,1987,1779,0,0
770,-755,0,0,0,0,0,0,0,0,0,-1,1994,1779,0,0
777,-755,0,0,0,0,0,0,0,0,0,-1,2001,1779,0,0
784,-755,0,0,0,0,0,0,0,0,0,-1,2008,1779,0,0
791,-755,0,0,0,0,0,0,0,0,0,-1,2015,1779,0,0
798,-755,0,0,0,0,0,0,0,0,0,-1,2022,1779,0,0
805,-755,0,0,0,0,0,0,0,0,0,-1,2029,1779,0,0
812,-755,0,0,0,0,0,0,0,0,0,-1,2036,1779,0,0
-700,-762,0,0,0,0,0,0,0,0,0,-1,524,1786,0,0
-693,-762,0,0,0,0,0,0,0,0,0,-1,531,1786,0,0
-686,-762,0,0,0,0,0,0,0,0,0,-1,538,1786,0,0
-679,-762,0,0,0,0,0,0,0,0,0,-1,545,1786,0,0
-672,-762,0,0,0,0,0,0,0,0,0,-1,552,1786,0,0
-665,-762,0,0,0,0,0,0,0,0,0,-1,559,1786,0,0
-658,-762,0,0,0,0,0,0,0,0,0,-1,566,1786,0,0
-651,-762,0,0,0,0,0,0,0,0,0,-1,573,1786,0,0
-644,-762,0,0,0,0,0,0,0,0,0,-1,580,1786,0,0
-637,-762,0,0,0,0,0,0,0,0,0,-1,587,1786,0,0
-630,-762,0,0,0,0,0,0,0,0,0,-1,594,1786,0,0
-623,-762,0,0,0,0,0,0,0,0,0,-1,601,1786,0,0
-616,-762,0,0,0,0,0,0,0,0,0,-1,608,1786,0,0
-609,-762,0,0,0,0,0,0,0,0,0,-1,615,1786,0,0
-602,-762,0,0,0,0,0,0,0,0,0,-1,622,1786,0,0
-595,-762,0,0,0,0,0,0,0,0,0,-1,629,1786,0,0
-588,-762,0,0,0,0,0,0,0,0,0,-1,636,1786,0,0
-581,-762,0,0,0,0,0,0,0,0,0,-1,643,1786,0,0
-574,-762,0,0,0,0,0,0,0,0,0,-1,650,1786,0,0
-567,-762,0,0,0,0,0,0,0,0,0,-1,657,1786,0,0
-560,-762,0,0,0,0,0,0,0,0,0,-1,664,1786,0,0
-553,-762,0,0,0,0,0,0,0,0,0,-1,671,1786,0,0
-546,-762,0,0,0,0,0,0,0,0,0,-1,678,1786,0,0
-539,-762,0,0,0,0,0,0,0,0,0,-1,685,1786,0,0
-532,-762,0,0,0,0,0,0,0,0,0,-1,692,1786,0,0
-525,-762,0,0,0,0,0,0,0,0,0,-1,699,1786,0,0
-518,-762,0,0,0,0,0,0,0,0,0,-1,706,1786,0,0
-511,-762,0,0,0,0,0,0,0,0,0,-1,713,1786,0,0
-504,-762,0,0,0,0,0,0,0,0,0,-1,720,1786,0,0
-497,-762,0,0,0,0,0,0,0,0,0,-1,727,1786,0,0
-490,-762,0,0,0,0,0,0,0,0,0,-1,734,1786,0,0
-483,-762,0,0,0,0,0,0,0,0,0,-1,741,1786,0,0
-476,-762,0,0,0,0,0,0,0,0,0,-1,748,1786,0,0
-469,-762,0,0,0,0,0,0,0,0,0,-1,755,1786,0,0
-462,-762,0,0,0,0,0,0,0,0,0,-1,762,1786,0,0
-455,-762,0,0,0,0,0,0,0,0,0,-1,769,1786,0,0
-448,-762,0,0,0,0,0,0,0,0,0,-1,776,1786,0,0
-441,-762,0,0,0,0,0,0,0,0,0,-1,783,1786,0,0
-434,-762,0,0,0,0,0,0,0,0,0,-1,790,1786,0,0
-427,-762,0,0,0,0,0,0,0,0,0,-1,797,1786,0,0
-420,-762,0,0,0,0,0,0,0,0,0,-1,804,1786,0,0
-413,-762,0,0,0,0,0,0,0,0,0,-1,811,1786,0,0
-406,-762,0,0,0,0,0,0,0,0,0,-1,818,1786,0,0
-399,-762,0,0,0,0,0,0,0,0,0,-1,825,1786,0,0
-392,-762,0,0,0,0,0,0,0,0,0,-1,832,1786,0,0
-385,-762,0,0,0,0,0,0,0,0,0,-1,839,1786,0,0
-378,-762,0,0,0,0,0,0,0,0,0,-1,846,1786,0,0
-371,-762,0,0,0,0,0,0,0,0,0,-1,853,1786,0,0
-364,-762,0,0,0,0,0,0,0,0,0,-1,860,1786,0,0
-357,-762,0,0,0,0,0,0,0,0,0,-1,867,1786,0,0
-350,-762,0,0,0,0,0,0,0,0,0,-1,874,1786,0,0
-343,-762,0,0,0,0,0,0,0,0,0,-1,881,1786,0,0
-336,-762,0,0,0,0,0,0,0,0,0,-1,888,1786,0,0
-329,-762,0,0,0,0,0,0,0,0,0,-1,895,1786,0,0
-322,-762,0,0,0,0,0,0,0,0,0,-1,902,1786,0,0
-315,-762,0,0,0,0,0,0,0,0,0,-1,909,1786,0,0
-308,-762,0,0,0,0,0,0,0,0,0,-1,916,1786,0,0
-301,-762,0,0,0,0,0,0,0,0,0,-1,923,1786,0,0
-294,-762,0,0,0,0,0,0,0,0,0,-1,930,1786,0,0
-287,-762,0,0,0,0,0,0,0,0,0,-1,937,1786,0,0
-280,-762,0,0,0,0,0,0,0,0,0,-1,944,1786,0,0
-273,-762,0,0,0,0,0,0,0,0,0,-1,951,1786,0,0
-266,-762,0,0,0,0,0,0,0,0,0,-1,958,1786,0,0
-259,-762,0,0,0,0,0,0,0,0,0,-1,965,1786,0,0
-252,-762,0,0,0,0,0,0,0,0,0,-1,972,1786,0,0
-245,-762,0,0,0,0,0,0,0,0,0,-1,979,1786,0,0
-238,-762,0,0,0,0,0,0,0,0,0,-1,986,1786,0,0
-231,-762,0,0,0,0,0,0,0,0,0,-1,993,1786,0,0
-224,-762,0,0,0,0,0,0,0,0,0,-1,1000,1786,0,0
-217,-762,0,0,0,0,0,0,0,0,0,-1,1007,1786,0,0
-210,-762,0,0,0,0,0,0,0,0,0,-1,1014,1786,0,0
-203,-762,0,0,0,0,0,0,0,0,0,-1,1021,1786,0,0
-196,-762,0,0,0,0,0,0,0,0,0,-1,1028,1786,0,0
-189,-762,0,0,0,0,0,0,0,0,0,-1,1035,1786,0,0
-182,-762,4.44226,13.2462,0,0,0,0,0,0,0,-1,1042,1786,4.44227,-13.2462
-175,-762,-1.29956,14.1766,0,0,0,0,0,0,0,-1,1049,1786,-1.29956,-14.1767
-168,-762,-2.08618,13.0768,0,0,0,0,0,0,0,-1,1056,1786,-2.08623,-13.0768
-161,-762,-3.29077,11.9508,0,0,0,0,0,0,0,-1,1063,1786,-3.29076,-11.9508
-154,-762,-4.55823,11.1176,0,0,0,0,0,0,0,-1,1070,1786,-4.55828,-11.1175
-147,-762,-1.09119,4.58313,0,0,0,0,0,0,0,-1,1077,1786,-1.09124,-4.58313
-140,-762,4.99792,5.28589,0,0,0,0,0,0,0,-1,1084,1786,4.99793,-5.28587
-133,-762,3.5116,9.3252,0,0,0,0,0,0,0,-1,1091,1786,3.51165,-9.32522
-126,-762,6.12231,12.5032,0,0,0,0,0,0,0,-1,1098,1786,6.12238,-12.5032
-119,-762,7.31201,16.389,0,0,0,0,0,0,0,-1,1105,1786,7.31207,-16.3891
-112,-762,8.02356,17.0438,0,0,0,0,0,0,0,-1,1112,1786,8.0236,-17.0438
-105,-762,5.10974,17.5901,0,0,0,0,0,0,0,-1,1119,1786,5.10978,-17.5901
-98,-762,4.57495,16.0953,0,0,0,0,0,0,0,-1,1126,1786,4.57496,-16.0954
-91,-762,4.04016,14.6007,0,0,0,0,0,0,0,-1,1133,1786,4.04013,-14.6007
-84,-762,0.415161,10.0322,0,0,0,0,0,0,0,-1,1140,1786,0.415179,-10.0322
-77,-762,0.305054,8.49365,0,0,0,0,0,0,0,-1,1147,1786,0.305008,-8.49362
-70,-762,0.183716,6.74622,0,0,0,0,0,0,0,-1,1154,1786,0.183696,-6.74621
-63,-762,-0.883057,9.08813,0,0,0,0,0,0,0,-1,1161,1786,-0.88311,-9.08808
-56,-762,-0.578979,5.10254,0,0,0,0,0,0,0,-1,1168,1786,-0.578951,-5.10249
-49,-762,-2.04541,3.66321,0,0,0,0,0,0,0,-1,1175,1786,-2.0454,-3.66319
-42,-762,-2.23462,3.474,0,0,0,0,0,0,0,-1,1182,1786,-2.23459,-3.47399
-35,-762,-3.28992,1.68164,0,0,0,0,0,0,0,-1,1189,1786,-3.28998,-1.68164
-28,-762,-3.75378,1.37769,0,0,0,0,0,0,0,-1,1196,1786,-3.75373,-1.37767
-21,-762,5.50818,17.5216,0,0,0,0,0,0,0,-1,1203,1786,5.5082,-17.5216
-14,-762,5.46948,17.5273,0,0,0,0,0,0,0,-1,1210,1786,5.46944,-17.5273
-7,-762,5.18799,17.7101,0,0,0,0,0,0,0,-1,1217,1786,5.18799,-17.7101
0,-762,5.18591,17.7457,0.0103302,-0.000335377,0.0179184,0.0236925,-0.0136977,0.640765,0.0218429,0.0346689,1224,1786,5.18591,-17.7457
7,-762,5.18933,17.8097,0.00867996,-0.000418871,0.0157499,0.0205243,-0.0122632,0.644798,0.0191291,0.0186949,1231,1786,5.18935,-17.8097
14,-762,5.16785,18.0061,0.00656277,-0.000855914,0.0138369,0.0171789,-0.011472,0.654439,0.0166507,0.030781,1238,1786,5.16781,-18.0061
21,-762,5.17737,17.9772,0.00454005,-0.00130132,0.011773,0.0137493,-0.0105105,0.663811,0.0140479,0.0382545,1245,1786,5.17738,-17.9771
28,-762,5.12061,18.0181,0.0030902,-0.00161391,0.00966595,0.0106861,-0.00920986,0.666051,0.0114975,0.0378613,1252,1786,5.1206,-18.018
35,-762,5.1637,17.9937,0.00302256,-0.00160432,0.00782462,0.00886857,-0.00745033,0.641662,0.00943358,0.0409985,1259,1786,5.16365,-17.9936
42,-762,5.08569,18.0178,0.00681559,-0.00164279,0.00598313,0.00991333,-0.00474053,0.477743,0.00863433,0.0399727,1266,1786,5.08564,-18.0178
49,-762,5.02917,17.9966,0.0119705,0.00105479,0.0021363,0.0123737,0.000651593,0.186543,0.00804075,0.0318234,1273,1786,5.02915,-17.9966
56,-762,5.13,17.9608,0.0171188,0.00434244,-0.000742219,0.0171618,0.00429946,-0.0578339,0.0103113,0.0215919,1280,1786,5.12995,-17.9608
63,-762,5.10791,17.9878,0.0236475,0.00816302,-0.00427357,0.0247487,0.00706186,-0.252181,0.014721,0.0197191,1287,1786,5.10789,-17.9877
70,-762,5.06238,18.0129,0.030687,0.0119046,-0.00779226,0.0334988,0.00909274,-0.346307,0.0200028,0.0186463,1294,1786,5.06238,-18.013
77,-762,5.0603,17.9985,0.0383276,0.0163326,-0.0123844,0.0438927,0.0107675,-0.422323,0.0264146,0.0257586,1301,1786,5.0603,-17.9985
84,-762,5.05957,17.9543,0.0460897,0.0212601,-0.0168974,0.0546427,0.012707,-0.468574,0.0330182,0.0325609,1308,1786,5.05962,-17.9544
91,-762,5.0874,17.933,0.0527292,0.026368,-0.021283,0.0645824,0.0145148,-0.508152,0.0391247,0.0393466,1315,1786,5.0874,-17.933
98,-762,5.02527,18.0139,0.0571609,0.0311584,-0.0249511,0.0722949,0.0160245,-0.545217,0.0438424,0.042045,1322,1786,5.02523,-18.0139
105,-762,4.89929,18.1062,0,0,0,0,0,0,0,-1,1329,1786,4.8993,-18.1061
112,-762,5.30322,18.437,0,0,0,0,0,0,0,-1,1336,1786,5.30323,-18.437
119,-762,4.97351,17.8811,0.0602756,0.0392189,-0.0332454,0.0846199,0.0148746,-0.632051,0.0521668,0.0436109,1343,1786,4.97349,-17.8811
126,-762,4.58948,18.3665,0.0576377,0.0398336,-0.0342937,0.084166,0.0133054,-0.65841,0.0522434,0.0442712,1350,1786,4.58947,-18.3665
133,-762,4.74536,17.9103,0.05349,0.0392206,-0.0342058,0.0812973,0.0114133,-0.682582,0.0508227,0.0475535,1357,1786,4.74537,-17.9102
140,-762,4.64246,17.7533,0.0486274,0.0379491,-0.0336466,0.0773558,0.00922067,-0.706712,0.0487883,0.0443907,1364,1786,4.64249,-17.7532
147,-762,4.61316,17.6563,0.0402501,0.0367344,-0.03291,0.0714492,0.00553531,-0.758717,0.0458991,0.0428852,1371,1786,4.6132,-17.6563
154,-762,4.74573,17.8464,0,0,0,0,0,0,0,-1,1378,1786,4.74578,-17.8464
161,-762,7.93408,-0.126221,0,0,0,0,0,0,0,-1,1385,1786,7.93402,0.126232
168,-762,8.19287,0.880615,0,0,0,0,0,0,0,-1,1392,1786,8.19291,-0.880603
175,-762,8.33997,1.95947,0,0,0,0,0,0,0,-1,1399,1786,8.33997,-1.95942
182,-762,8.28418,3.56482,0,0,0,0,0,0,0,-1,1406,1786,8.28415,-3.56485
189,-762,8.21179,5.23389,0,0,0,0,0,0,0,-1,1413,1786,8.21183,-5.23383
196,-762,8.05969,6.95483,0,0,0,0,0,0,0,-1,1420,1786,8.05972,-6.9548
203,-762,24.0077,7.10425,0,0,0,0,0,0,0,-1,1427,1786,24.0077,-7.10426
210,-762,23.8073,7.6499,0,0,0,0,0,0,0,-1,1434,1786,23.8073,-7.64987
217,-762,23.3193,8.24426,0,0,0,0,0,0,0,-1,1441,1786,23.3194,-8.2442
224,-762,4.64465,18.4674,0,0,0,0,0,0,0,-1,1448,1786,4.64462,-18.4674
231,-762,4.95935,16.819,0,0,0,0,0,0,0,-1,1455,1786,4.95932,-16.8189
238,-762,6.01721,15.6074,0,0,0,0,0,0,0,-1,1462,1786,6.01719,-15.6075
245,-762,3.28296,15.0782,0,0,0,0,0,0,0,-1,1469,1786,3.28293,-15.0783
252,-762,18.4817,8.25159,0,0,0,0,0,0,0,-1,1476,1786,18.4816,-8.25162
259,-762,17.4619,7.89832,0,0,0,0,0,0,0,-1,1483,1786,17.462,-7.89836
266,-762,16.451,7.67773,0,0,0,0,0,0,0,-1,1490,1786,16.4511,-7.67773
273,-762,15.287,7.5304,0,0,0,0,0,0,0,-1,1497,1786,15.2869,-7.53044
280,-762,14.1501,7.38379,0,0,0,0,0,0,0,-1,1504,1786,14.1502,-7.38376
287,-762,12.6891,7.99133,0,0,0,0,0,0,0,-1,1511,1786,12.6891,-7.99135
294,-762,11.6133,8.5918,0,0,0,0,0,0,0,-1,1518,1786,11.6133,-8.59175
301,-762,9.90637,8.80591,0,0,0,0,0,0,0,-1,1525,1786,9.90636,-8.80596
308,-762,0,0,0,0,0,0,0,0,0,-1,1532,1786,0,0
315,-762,0,0,0,0,0,0,0,0,0,-1,1539,1786,0,0
322,-762,0,0,0,0,0,0,0,0,0,-1,1546,1786,0,0
329,-762,0,0,0,0,0,0,0,0,0,-1,1553,1786,0,0
336,-762,0,0,0,0,0,0,0,0,0,-1,1560,1786,0,0
343,-762,0,0,0,0,0,0,0,0,0,-1,1567,1786,0,0
350,-762,0,0,0,0,0,0,0,0,0,-1,1574,1786,0,0
357,-762,0,0,0,0,0,0,0,0,0,-1,1581,1786,0,0
364,-762,0,0,0,0,0,0,0,0,0,-1,1588,1786,0,0
371,-762,0,0,0,0,0,0,0,0,0,-1,1595,1786,0,0
378,-762,0,0,0,0,0,0,0,0,0,-1,1602,1786,0,0
385,-762,0,0,0,0,0,0,0,0,0,-1,1609,1786,0,0
392,-762,0,0,0,0,0,0,0,0,0,-1,1616,1786,0,0
399,-762,0,0,0,0,0,0,0,0,0,-1,1623,1786,0,0
406,-762,0,0,0,0,0,0,0,0,0,-1,1630,1786,0,0
413,-762,0,0,0,0,0,0,0,0,0,-1,1637,1786,0,0
420,-762,0,0,0,0,0,0,0,0,0,-1,1644,1786,0,0
427,-762,0,0,0,0,0,0,0,0,0,-1,1651,1786,0,0
434,-762,0,0,0,0,0,0,0,0,0,-1,1658,1786,0,0
441,-762,0,0,0,0,0,0,0,0,0,-1,1665,1786,0,0
448,-762,0,0,0,0,0,0,0,0,0,-1,1672,1786,0,0
455,-762,0,0,0,0,0,0,0,0,0,-1,1679,1786,0,0
462,-762,0,0,0,0,0,0,0,0,0,-1,1686,1786,0,0
469,-762,0,0,0,0,0,0,0,0,0,-1,1693,1786,0,0
476,-762,0,0,0,0,0,0,0,0,0,-1,1700,1786,0,0
483,-762,0,0,0,0,0,0,0,0,0,-1,1707,1786,0,0
490,-762,0,0,0,0,0,0,0,0,0,-1,1714,1786,0,0
497,-762,0,0,0,0,0,0,0,0,0,-1,1721,1786,0,0
504,-762,0,0,0,0,0,0,0,0,0,-1,1728,1786,0,0
511,-762,0,0,0,0,0,0,0,0,0,-1,1735,1786,0,0
518,-762,0,0,0,0,0,0,0,0,0,-1,1742,1786,0,0
525,-762,0,0,0,0,0,0,0,0,0,-1,1749,1786,0,0
532,-762,0,0,0,0,0,0,0,0,0,-1,1756,1786,0,0
539,-762,0,0,0,0,0,0,0,0,0,-1,1763,1786,0,0
546,-762,0,0,0,0,0,0,0,0,0,-1,1770,1786,0,0
553,-762,0,0,0,0,0,0,0,0,0,-1,1777,1786,0,0
560,-762,0,0,0,0,0,0,0,0,0,-1,1784,1786,0,0
567,-762,0,0,0,0,0,0,0,0,0,-1,1791,1786,0,0
574,-762,0,0,0,0,0,0,0,0,0,-1,1798,1786,0,0
581,-762,0,0,0,0,0,0,0,0,0,-1,1805,1786,0,0
588,-762,0,0,0,0,0,0,0,0,0,-1,1812,1786,0,0
595,-762,0,0,0,0,0,0,0,0,0,-1,1819,1786,0,0
602,-762,0,0,0,0,0,0,0,0,0,-1,1826,1786,0,0
609,-762,0,0,0,0,0,0,0,0,0,-1,1833,1786,0,0
616,-762,0,0,0,0,0,0,0,0,0,-1,1840,1786,0,0
623,-762,0,0,0,0,0,0,0,0,0,-1,1847,1786,0,0
630,-762,0,0,0,0,0,0,0,0,0,-1,1854,1786,0,0
637,-762,0,0,0,0,0,0,0,0,0,-1,1861,1786,0,0
644,-762,0,0,0,0,0,0,0,0,0,-1,1868,1786,0,0
651,-762,0,0,0,0,0,0,0,0,0,-1,1875,1786,0,0
658,-762,0,0,0,0,0,0,0,0,0,-1,1882,1786,0,0
665,-762,0,0,0,0,0,0,0,0,0,-1,1889,1786,0,0
672,-762,0,0,0,0,0,0,0,0,0,-1,1896,1786,0,0
679,-762,0,0,0,0,0,0,0,0,0,-1,1903,1786,0,0
686,-762,0,0,0,0,0,0,0,0,0,-1,1910,1786,0,0
693,-762,0,0,0,0,0,0,0,0,0,-1,1917,1786,0,0
700,-762,0,0,0,0,0,0,0,0,0,-1,1924,1786,0,0
707,-762,0,0,0,0,0,0,0,0,0,-1,1931,1786,0,0
714,-762,0,0,0,0,0,0,0,0,0,-1,1938,1786,0,0
721,-762,0,0,0,0,0,0,0,0,0,-1,1945,1786,0,0
728,-762,0,0,0,0,0,0,0,0,0,-1,1952,1786,0,0
735,-762,0,0,0,0,0,0,0,0,0,-1,1959,1786,0,0
742,-762,0,0,0,0,0,0,0,0,0,-1,1966,1786,0,0
749,-762,0,0,0,0,0,0,0,0,0,-1,1973,1786,0,0
756,-762,0,0,0,0,0,0,0,0,0,-1,1980,1786,0,0
763,-762,0,0,0,0,0,0,0,0,0,-1,1987,1786,0,0
770,-762,0,0,0,0,0,0,0,0,0,-1,1994,1786,0,0
777,-762,0,0,0,0,0,0,0,0,0,-1,2001,1786,0,0
784,-762,0,0,0,0,0,0,0,0,0,-1,2008,1786,0,0
791,-762,0,0,0,0,0,0,0,0,0,-1,2015,1786,0,0
798,-762,0,0,0,0,0,0,0,0,0,-1,2022,1786,0,0
805,-762,0,0,0,0,0,0,0,0,0,-1,2029,1786,0,0
812,-762,0,0,0,0,0,0,0,0,0,-1,2036,1786,0,0
-700,-769,0,0,0,0,0,0,0,0,0,-1,524,1793,0,0
-693,-769,0,0,0,0,0,0,0,0,0,-1,531,1793,0,0
-686,-769,0,0,0,0,0,0,0,0,0,-1,538,1793,0,0
-679,-769,0,0,0,0,0,0,0,0,0,-1,545,1793,0,0
-672,-769,0,0,0,0,0,0,0,0,0,-1,552,1793,0,0
-665,-769,0,0,0,0,0,0,0,0,0,-1,559,1793,0,0
-658,-769,0,0,0,0,0,0,0,0,0,-1,566,1793,0,0
-651,-769,0,0,0,0,0,0,0,0,0,-1,573,1793,0,0
-644,-769,0,0,0,0,0,0,0,0,0,-1,580,1793,0,0
-637,-769,0,0,0,0,0,0,0,0,0,-1,587,1793,0,0
-630,-769,0,0,0,0,0,0,0,0,0,-1,594,1793,0,0
-623,-769,0,0,0,0,0,0,0,0,0,-1,601,1793,0,0
-616,-769,0,0,0,0,0,0,0,0,0,-1,608,1793,0,0
-609,-769,0,0,0,0,0,0,0,0,0,-1,615,1793,0,0
-602,-769,0,0,0,0,0,0,0,0,0,-1,622,1793,0,0
-595,-769,0,0,0,0,0,0,0,0,0,-1,629,1793,0,0
-588,-769,0,0,0,0,0,0,0,0,0,-1,636,1793,0,0
-581,-769,0,0,0,0,0,0,0,0,0,-1,643,1793,0,0
-574,-769,0,0,0,0,0,0,0,0,0,-1,650,1793,0,0
-567,-769,0,0,0,0,0,0,0,0,0,-1,657,1793,0,0
-560,-769,0,0,0,0,0,0,0,0,0,-1,664,1793,0,0
-553,-769,0,0,0,0,0,0,0,0,0,-1,671,1793,0,0
-546,-769,0,0,0,0,0,0,0,0,0,-1,678,1793,0,0
-539,-769,0,0,0,0,0,0,0,0,0,-1,685,1793,0,0
-532,-769,0,0,0,0,0,0,0,0,0,-1,692,1793,0,0
-525,-769,0,0,0,0,0,0,0,0,0,-1,699,1793,0,0
-518,-769,0,0,0,0,0,0,0,0,0,-1,706,1793,0,0
-511,-769,0,0,0,0,0,0,0,0,0,-1,713,1793,0,0
-504,-769,0,0,0,0,0,0,0,0,0,-1,720,1793,0,0
-497,-769,0,0,0,0,0,0,0,0,0,-1,727,1793,0,0
-490,-769,0,0,0,0,0,0,0,0,0,-1,734,1793,0,0
-483,-769,0,0,0,0,0,0,0,0,0,-1,741,1793,0,0
-476,-769,0,0,0,0,0,0,0,0,0,-1,748,1793,0,0
-469,-769,0,0,0,0,0,0,0,0,0,-1,755,1793,0,0
-462,-769,0,0,0,0,0,0,0,0,0,-1,762,1793,0,0
-455,-769,0,0,0,0,0,0,0,0,0,-1,769,1793,0,0
-448,-769,0,0,0,0,0,0,0,0,0,-1,776,1793,0,0
-441,-769,0,0,0,0,0,0,0,0,0,-1,783,1793,0,0
-434,-769,0,0,0,0,0,0,0,0,0,-1,790,1793,0,0
-427,-769,0,0,0,0,0,0,0,0,0,-1,797,1793,0,0
-420,-769,0,0,0,0,0,0,0,0,0,-1,804,1793,0,0
-413,-769,0,0,0,0,0,0,0,0,0,-1,811,1793,0,0
-406,-769,0,0,0,0,0,0,0,0,0,-1,818,1793,0,0
-399,-769,0,0,0,0,0,0,0,0,0,-1,825,1793,0,0
-392,-769,0,0,0,0,0,0,0,0,0,-1,832,1793,0,0
-385,-769,0,0,0,0,0,0,0,0,0,-1,839,1793,0,0
-378,-769,0,0,0,0,0,0,0,0,0,-1,846,1793,0,0
-371,-769,0,0,0,0,0,0,0,0,0,-1,853,1793,0,0
-364,-769,0,0,0,0,0,0,0,0,0,-1,860,1793,0,0
-357,-769,0,0,0,0,0,0,0,0,0,-1,867,1793,0,0
-350,-769,0,0,0,0,0,0,0,0,0,-1,874,1793,0,0
-343,-769,0,0,0,0,0,0,0,0,0,-1,881,1793,0,0
-336,-769,0,0,0,0,0,0,0,0,0,-1,888,1793,0,0
-329,-769,0,0,0,0,0,0,0,0,0,-1,895,1793,0,0
-322,-769,0,0,0,0,0,0,0,0,0,-1,902,1793,0,0
-315,-769,0,0,0,0,0,0,0,0,0,-1,909,1793,0,0
-308,-769,0,0,0,0,0,0,0,0,0,-1,916,1793,0,0
-301,-769,0,0,0,0,0,0,0,0,0,-1,923,1793,0,0
-294,-769,0,0,0,0,0,0,0,0,0,-1,930,1793,0,0
-287,-769,0,0,0,0,0,0,0,0,0,-1,937,1793,0,0
-280,-769,0,0,0,0,0,0,0,0,0,-1,944,1793,0,0
-273,-769,0,0,0,0,0,0,0,0,0,-1,951,1793,0,0
-266,-769,0,0,0,0,0,0,0,0,0,-1,958,1793,0,0
-259,-769,0,0,0,0,0,0,0,0,0,-1,965,1793,0,0
-252,-769,0,0,0,0,0,0,0,0,0,-1,972,1793,0,0
-245,-769,0,0,0,0,0,0,0,0,0,-1,979,1793,0,0
-238,-769,0,0,0,0,0,0,0,0,0,-1,986,1793,0,0
-231,-769,0,0,0,0,0,0,0,0,0,-1,993,1793,0,0
-224,-769,0,0,0,0,0,0,0,0,0,-1,1000,1793,0,0
-217,-769,0,0,0,0,0,0,0,0,0,-1,1007,1793,0,0
-210,-769,0,0,0,0,0,0,0,0,0,-1,1014,1793,0,0
-203,-769,0,0,0,0,0,0,0,0,0,-1,1021,1793,0,0
-196,-769,0,0,0,0,0,0,0,0,0,-1,1028,1793,0,0
-189,-769,0,0,0,0,0,0,0,0,0,-1,1035,1793,0,0
-182,-769,0,0,0,0,0,0,0,0,0,-1,1042,1793,0,0
-175,-769,0,0,0,0,0,0,0,0,0,-1,1049,1793,0,0
-168,-769,0,0,0,0,0,0,0,0,0,-1,1056,1793,0,0
-161,-769,-3.61145,12.4761,0,0,0,0,0,0,0,-1,1063,1793,-3.6114,-12.476
-154,-769,-0.813232,5.32874,0,0,0,0,0,0,0,-1,1070,1793,-0.813269,-5.32872
-147,-769,4.26587,4.7002,0,0,0,0,0,0,0,-1,1077,1793,4.26593,-4.70022
-140,-769,4.10376,5.28589,0,0,0,0,0,0,0,-1,1084,1793,4.10371,-5.28584
-133,-769,6.422,8.21777,0,0,0,0,0,0,0,-1,1091,1793,6.42198,-8.21773
-126,-769,5.93201,12.4241,0,0,0,0,0,0,0,-1,1098,1793,5.93198,-12.424
-119,-769,7.8894,17.3041,0,0,0,0,0,0,0,-1,1105,1793,7.88941,-17.304
-112,-769,9.03577,17.1554,0,0,0,0,0,0,0,-1,1112,1793,9.03582,-17.1554
-105,-769,5.68054,18.3121,0,0,0,0,0,0,0,-1,1119,1793,5.6805,-18.3121
-98,-769,5.0437,17.0754,0,0,0,0,0,0,0,-1,1126,1793,5.04368,-17.0754
-91,-769,4.40686,15.8386,0,0,0,0,0,0,0,-1,1133,1793,4.40685,-15.8387
-84,-769,3.25684,11.7041,0,0,0,0,0,0,0,-1,1140,1793,3.25681,-11.7041
-77,-769,0.406616,9.9126,0,0,0,0,0,0,0,-1,1147,1793,0.406638,-9.91265
-70,-769,1.04944,11.9852,0,0,0,0,0,0,0,-1,1154,1793,1.04947,-11.9852
-63,-769,-2.39709,9.60339,0,0,0,0,0,0,0,-1,1161,1793,-2.39706,-9.6034
-56,-769,-5.84363,7.22156,0,0,0,0,0,0,0,-1,1168,1793,-5.84359,-7.22157
-49,-769,-2.41443,3.95471,0,0,0,0,0,0,0,-1,1175,1793,-2.41446,-3.95471
-42,-769,-3.1991,2.64941,0,0,0,0,0,0,0,-1,1182,1793,-3.19914,-2.64944
-35,-769,-3.50183,1.73389,0,0,0,0,0,0,0,-1,1189,1793,-3.50189,-1.7339
-28,-769,-3.96985,1.14075,0,0,0,0,0,0,0,-1,1196,1793,-3.96985,-1.14078
-21,-769,5.2948,17.8387,0,0,0,0,0,0,0,-1,1203,1793,5.29478,-17.8387
-14,-769,6.27686,17.6111,0.0160315,-0.00117224,0.0296014,0.0382555,-0.0233963,0.643998,0.0359377,0.0499487,1210,1793,6.27689,-17.6111
-7,-769,7.0752,17.4318,0.0156463,-0.000922202,0.0269897,0.0355945,-0.0208704,0.636492,0.0329674,0.0496617,1217,1793,7.07518,-17.4318
0,-769,5.17017,17.7792,0,0,0,0,0,0,0,-1,1224,1793,5.17011,-17.7791
7,-769,4.97949,18.0325,0.0124274,-0.00042557,0.0214258,0.0283697,-0.0163679,0.639696,0.0261373,0.0440362,1231,1793,4.97945,-18.0324
14,-769,5.17114,18.2179,0.00959823,-0.000730681,0.0190019,0.024125,-0.0152574,0.65271,0.0229288,0.0420849,1238,1793,5.1712,-18.2179
21,-769,5.54639,17.9781,0.00682007,-0.00117563,0.0163207,0.0196254,-0.013981,0.665285,0.0194937,0.0430919,1245,1793,5.54635,-17.9781
28,-769,5.51794,17.9685,0.00470895,-0.00166689,0.0135499,0.0154409,-0.0123988,0.669863,0.0161052,0.0423213,1252,1793,5.51795,-17.9685
35,-769,5.20935,18.0333,0.00435782,-0.0019063,0.01112,0.0127784,-0.0103269,0.648124,0.0133648,0.0460907,1259,1793,5.20938,-18.0333
42,-769,5.07642,18.4138,0.00944443,-0.002328,0.00871302,0.0140732,-0.00695674,0.488329,0.0123712,0.0470566,1266,1793,5.07645,-18.4138
49,-769,4.83008,18.5454,0,0,0,0,0,0,0,-1,1273,1793,4.83005,-18.5454
56,-769,5.2179,18.089,0.023359,0.00490235,-8.38499e-05,0.0233594,0.00490197,-0.00454293,0.0142234,0.0423783,1280,1793,5.21794,-18.089
63,-769,4.87708,18.1417,0.0320685,0.00947558,-0.00465766,0.032991,0.00855305,-0.195537,0.0197697,0.042701,1287,1793,4.87708,-18.1417
70,-769,4.78625,18.1086,0.041574,0.0140503,-0.00931903,0.0444324,0.0111919,-0.297618,0.0266851,0.0417462,1294,1793,4.78629,-18.1087
77,-769,5.51819,17.9579,0.0519039,0.0195183,-0.0152358,0.0579448,0.0134775,-0.377479,0.0350129,0.0448231,1301,1793,5.51815,-17.9579
84,-769,5.4436,17.7142,0.0625195,0.0259307,-0.0211725,0.0722065,0.0162436,-0.429097,0.0437404,0.0440914,1308,1793,5.44364,-17.7143
91,-769,5.6394,17.4512,0.0717838,0.0326858,-0.0270153,0.0855813,0.0188883,-0.472194,0.0519164,0.0413047,1315,1793,5.63938,-17.4512
98,-769,6.04443,17.3359,0.0780811,0.0391572,-0.0319469,0.0960273,0.021211,-0.511821,0.0582497,0.041816,1322,1793,6.04443,-17.3359
105,-769,6.4342,17.6393,0.0818852,0.0439515,-0.0361928,0.10378,0.0220569,-0.544047,0.0631319,0.0423409,1329,1793,6.43418,-17.6393
112,-769,6.83679,18.0179,0.0839694,0.0480552,-0.0403887,0.110213,0.0218116,-0.576218,0.0673919,0.047143,1336,1793,6.83675,-18.018
119,-769,7.24573,18.2744,0,0,0,0,0,0,0,-1,1343,1793,7.24572,-18.2744
126,-769,9.02368,17.5553,0,0,0,0,0,0,0,-1,1350,1793,9.02372,-17.5552
133,-769,4.60486,17.9243,0,0,0,0,0,0,0,-1,1357,1793,4.60485,-17.9244
140,-769,4.47302,17.6349,0,0,0,0,0,0,0,-1,1364,1793,4.47306,-17.6349
147,-769,4.39636,17.4557,0,0,0,0,0,0,0,-1,1371,1793,4.39632,-17.4557
154,-769,6.37561,1.00024,0,0,0,0,0,0,0,-1,1378,1793,6.37566,-1.00028
161,-769,6.57019,1.53223,0,0,0,0,0,0,0,-1,1385,1793,6.57019,-1.53226
168,-769,8.27637,0.756958,0,0,0,0,0,0,0,-1,1392,1793,8.27639,-0.756944
175,-769,8.47144,2.41174,0,0,0,0,0,0,0,-1,1399,1793,8.47147,-2.4118
182,-769,8.41479,4.05994,0,0,0,0,0,0,0,-1,1406,1793,8.41479,-4.05997
189,-769,8.25049,5.68433,0,0,0,0,0,0,0,-1,1413,1793,8.25054,-5.68428
196,-769,7.97729,7.42847,0,0,0,0,0,0,0,-1,1420,1793,7.9773,-7.42848
203,-769,22.0977,6.73889,0,0,0,0,0,0,0,-1,1427,1793,22.0977,-6.7389
210,-769,22.1115,7.77246,0,0,0,0,0,0,0,-1,1434,1793,22.1115,-7.77248
217,-769,22.4723,8.79102,0,0,0,0,0,0,0,-1,1441,1793,22.4723,-8.79099
224,-769,22.1348,9.35278,0,0,0,0,0,0,0,-1,1448,1793,22.1348,-9.35283
231,-769,5.99573,17.9962,0,0,0,0,0,0,0,-1,1455,1793,5.99578,-17.9962
238,-769,21.7686,9.32788,0,0,0,0,0,0,0,-1,1462,1793,21.7685,-9.3279
245,-769,18.8502,7.89856,0,0,0,0,0,0,0,-1,1469,1793,18.8502,-7.89854
252,-769,17.4956,7.51794,0,0,0,0,0,0,0,-1,1476,1793,17.4956,-7.51795
259,-769,16.4871,7.42102,0,0,0,0,0,0,0,-1,1483,1793,16.4871,-7.42104
266,-769,15.8488,7.3905,0,0,0,0,0,0,0,-1,1490,1793,15.8488,-7.39046
273,-769,14.8075,7.56152,0,0,0,0,0,0,0,-1,1497,1793,14.8075,-7.56152
280,-769,13.6519,7.43054,0,0,0,0,0,0,0,-1,1504,1793,13.6518,-7.43058
287,-769,0,0,0,0,0,0,0,0,0,-1,1511,1793,0,0
294,-769,0,0,0,0,0,0,0,0,0,-1,1518,1793,0,0
301,-769,0,0,0,0,0,0,0,0,0,-1,1525,1793,0,0
308,-769,0,0,0,0,0,0,0,0,0,-1,1532,1793,0,0
315,-769,0,0,0,0,0,0,0,0,0,-1,1539,1793,0,0
322,-769,0,0,0,0,0,0,0,0,0,-1,1546,1793,0,0
329,-769,0,0,0,0,0,0,0,0,0,-1,1553,1793,0,0
336,-769,0,0,0,0,0,0,0,0,0,-1,1560,1793,0,0
343,-769,0,0,0,0,0,0,0,0,0,-1,1567,1793,0,0
350,-769,0,0,0,0,0,0,0,0,0,-1,1574,1793,0,0
357,-769,0,0,0,0,0,0,0,0,0,-1,1581,1793,0,0
364,-769,0,0,0,0,0,0,0,0,0,-1,1588,1793,0,0
371,-769,0,0,0,0,0,0,0,0,0,-1,1595,1793,0,0
378,-769,0,0,0,0,0,0,0,0,0,-1,1602,1793,0,0
385,-769,0,0,0,0,0,0,0,0,0,-1,1609,1793,0,0
392,-769,0,0,0,0,0,0,0,0,0,-1,1616,1793,0,0
399,-769,0,0,0,0,0,0,0,0,0,-1,1623,1793,0,0
406,-769,0,0,0,0,0,0,0,0,0,-1,1630,1793,0,0
413,-769,0,0,0,0,0,0,0,0,0,-1,1637,1793,0,0
420,-769,0,0,0,0,0,0,0,0,0,-1,1644,1793,0,0
427,-769,0,0,0,0,0,0,0,0,0,-1,1651,1793,0,0
434,-769,0,0,0,0,0,0,0,0,0,-1,1658,1793,0,0
441,-769,0,0,0,0,0,0,0,0,0,-1,1665,1793,0,0
448,-769,0,0,0,0,0,0,0,0,0,-1,1672,1793,0,0
455,-769,0,0,0,0,0,0,0,0,0,-1,1679,1793,0,0
462,-769,0,0,0,0,0,0,0,0,0,-1,1686,1793,0,0
469,-769,0,0,0,0,0,0,0,0,0,-1,1693,1793,0,0
476,-769,0,0,0,0,0,0,0,0,0,-1,1700,1793,0,0
483,-769,0,0,0,0,0,0,0,0,0,-1,1707,1793,0,0
490,-769,0,0,0,0,0,0,0,0,0,-1,1714,1793,0,0
497,-769,0,0,0,0,0,0,0,0,0,-1,1721,1793,0,0
504,-769,0,0,0,0,0,0,0,0,0,-1,1728,1793,0,0
511,-769,0,0,0,0,0,0,0,0,0,-1,1735,1793,0,0
518,-769,0,0,0,0,0,0,0,0,0,-1,1742,1793,0,0
525,-769,0,0,0,0,0,0,0,0,0,-1,1749,1793,0,0
532,-769,0,0,0,0,0,0,0,0,0,-1,1756,1793,0,0
539,-769,0,0,0,0,0,0,0,0,0,-1,1763,1793,0,0
546,-769,0,0,0,0,0,0,0,0,0,-1,1770,1793,0,0
553,-769,0,0,0,0,0,0,0,0,0,-1,1777,1793,0,0
560,-769,0,0,0,0,0,0,0,0,0,-1,1784,1793,0,0
567,-769,0,0,0,0,0,0,0,0,0,-1,1791,1793,0,0
574,-769,0,0,0,0,0,0,0,0,0,-1,1798,1793,0,0
581,-769,0,0,0,0,0,0,0,0,0,-1,1805,1793,0,0
588,-769,0,0,0,0,0,0,0,0,0,-1,1812,1793,0,0
595,-769,0,0,0,0,0,0,0,0,0,-1,1819,1793,0,0
602,-769,0,0,0,0,0,0,0,0,0,-1,1826,1793,0,0
609,-769,0,0,0,0,0,0,0,0,0,-1,1833,1793,0,0
616,-769,0,0,0,0,0,0,0,0,0,-1,1840,1793,0,0
623,-769,0,0,0,0,0,0,0,0,0,-1,1847,1793,0,0
630,-769,0,0,0,0,0,0,0,0,0,-1,1854,1793,0,0
637,-769,0,0,0,0,0,0,0,0,0,-1,1861,1793,0,0
644,-769,0,0,0,0,0,0,0,0,0,-1,1868,1793,0,0
651,-769,0,0,0,0,0,0,0,0,0,-1,1875,1793,0,0
658,-769,0,0,0,0,0,0,0,0,0,-1,1882,1793,0,0
665,-769,0,0,0,0,0,0,0,0,0,-1,1889,1793,0,0
672,-769,0,0,0,0,0,0,0,0,0,-1,1896,1793,0,0
679,-769,0,0,0,0,0,0,0,0,0,-1,1903,1793,0,0
686,-769,0,0,0,0,0,0,0,0,0,-1,1910,1793,0,0
693,-769,0,0,0,0,0,0,0,0,0,-1,1917,1793,0,0
700,-769,0,0,0,0,0,0,0,0,0,-1,1924,1793,0,0
707,-769,0,0,0,0,0,0,0,0,0,-1,1931,1793,0,0
714,-769,0,0,0,0,0,0,0,0,0,-1,1938,1793,0,0
721,-769,0,0,0,0,0,0,0,0,0,-1,1945,1793,0,0
728,-769,0,0,0,0,0,0,0,0,0,-1,1952,1793,0,0
735,-769,0,0,0,0,0,0,0,0,0,-1,1959,1793,0,0
742,-769,0,0,0,0,0,0,0,0,0,-1,1966,1793,0,0
749,-769,0,0,0,0,0,0,0,0,0,-1,1973,1793,0,0
756,-769,0,0,0,0,0,0,0,0,0,-1,1980,1793,0,0
763,-769,0,0,0,0,0,0,0,0,0,-1,1987,1793,0,0
770,-769,0,0,0,0,0,0,0,0,0,-1,1994,1793,0,0
777,-769,0,0,0,0,0,0,0,0,0,-1,2001,1793,0,0
784,-769,0,0,0,0,0,0,0,0,0,-1,2008,1793,0,0
791,-769,0,0,0,0,0,0,0,0,0,-1,2015,1793,0,0
798,-769,0,0,0,0,0,0,0,0,0,-1,2022,1793,0,0
805,-769,0,0,0,0,0,0,0,0,0,-1,2029,1793,0,0
812,-769,0,0,0,0,0,0,0,0,0,-1,2036,1793,0,0
-700,-776,0,0,0,0,0,0,0,0,0,-1,524,1800,0,0
-693,-776,0,0,0,0,0,0,0,0,0,-1,531,1800,0,0
-686,-776,0,0,0,0,0,0,0,0,0,-1,538,1800,0,0
-679,-776,0,0,0,0,0,0,0,0,0,-1,545,1800,0,0
-672,-776,0,0,0,0,0,0,0,0,0,-1,552,1800,0,0
-665,-776,0,0,0,0,0,0,0,0,0,-1,559,1800,0,0
-658,-776,0,0,0,0,0,0,0,0,0,-1,566,1800,0,0
-651,-776,0,0,0,0,0,0,0,0,0,-1,573,1800,0,0
-644,-776,0,0,0,0,0,0,0,0,0,-1,580,1800,0,0
-637,-776,0,0,0,0,0,0,0,0,0,-1,587,1800,0,0
-630,-776,0,0,0,0,0,0,0,0,0,-1,594,1800,0,0
-623,-776,0,0,0,0,0,0,0,0,0,-1,601,1800,0,0
-616,-776,0,0,0,0,0,0,0,0,0,-1,608,1800,0,0
-609,-776,0,0,0,0,0,0,0,0,0,-1,615,1800,0,0
-602,-776,0,0,0,0,0,0,0,0,0,-1,622,1800,0,0
-595,-776,0,0,0,0,0,0,0,0,0,-1,629,1800,0,0
-588,-776,0,0,0,0,0,0,0,0,0,-1,636,1800,0,0
-581,-776,0,0,0,0,0,0,0,0,0,-1,643,1800,0,0
-574,-776,0,0,0,0,0,0,0,0,0,-1,650,1800,0,0
-567,-776,0,0,0,0,0,0,0,0,0,-1,657,1800,0,0
-560,-776,0,0,0,0,0,0,0,0,0,-1,664,1800,0,0
-553,-776,0,0,0,0,0,0,0,0,0,-1,671,1800,0,0
-546,-776,0,0,0,0,0,0,0,0,0,-1,678,1800,0,0
-539,-776,0,0,0,0,0,0,0,0,0,-1,685,1800,0,0
-532,-776,0,0,0,0,0,0,0,0,0,-1,692,1800,0,0
-525,-776,0,0,0,0,0,0,0,0,0,-1,699,1800,0,0
-518,-776,0,0,0,0,0,0,0,0,0,-1,706,1800,0,0
-511,-776,0,0,0,0,0,0,0,0,0,-1,713,1800,0,0
-504,-776,0,0,0,0,0,0,0,0,0,-1,720,1800,0,0
-497,-776,0,0,0,0,0,0,0,0,0,-1,727,1800,0,0
-490,-776,0,0,0,0,0,0,0,0,0,-1,734,1800,0,0
-483,-776,0,0,0,0,0,0,0,0,0,-1,741,1800,0,0
-476,-776,0,0,0,0,0,0,0,0,0,-1,748,1800,0,0
-469,-776,0,0,0,0,0,0,0,0,0,-1,755,1800,0,0
-462,-776,0,0,0,0,0,0,0,0,0,-1,762,1800,0,0
-455,-776,0,0,0,0,0,0,0,0,0,-1,769,1800,0,0
-448,-776,0,0,0,0,0,0,0,0,0,-1,776,1800,0,0
-441,-776,0,0,0,0,0,0,0,0,0,-1,783,1800,0,0
-434,-776,0,0,0,0,0,0,0,0,0,-1,790,1800,0,0
-427,-776,0,0,0,0,0,0,0,0,0,-1,797,1800,0,0
-420,-776,0,0,0,0,0,0,0,0,0,-1,804,1800,0,0
-413,-776,0,0,0,0,0,0,0,0,0,-1,811,1800,0,0
-406,-776,0,0,0,0,0,0,0,0,0,-1,818,1800,0,0
-399,-776,0,0,0,0,0,0,0,0,0,-1,825,1800,0,0
-392,-776,0,0,0,0,0,0,0,0,0,-1,832,1800,0,0
-385,-776,0,0,0,0,0,0,0,0,0,-1,839,1800,0,0
-378,-776,0,0,0,0,0,0,0,0,0,-1,846,1800,0,0
-371,-776,0,0,0,0,0,0,0,0,0,-1,853,1800,0,0
-364,-776,0,0,0,0,0,0,0,0,0,-1,860,1800,0,0
-357,-776,0,0,0,0,0,0,0,0,0,-1,867,1800,0,0
-350,-776,0,0,0,0,0,0,0,0,0,-1,874,1800,0,0
-343,-776,0,0,0,0,0,0,0,0,0,-1,881,1800,0,0
-336,-776,0,0,0,0,0,0,0,0,0,-1,888,1800,0,0
-329,-776,0,0,0,0,0,0,0,0,0,-1,895,1800,0,0
-322,-776,0,0,0,0,0,0,0,0,0,-1,902,1800,0,0
-315,-776,0,0,0,0,0,0,0,0,0,-1,909,1800,0,0
-308,-776,0,0,0,0,0,0,0,0,0,-1,916,1800,0,0
-301,-776,0,0,0,0,0,0,0,0,0,-1,923,1800,0,0
-294,-776,0,0,0,0,0,0,0,0,0,-1,930,1800,0,0
-287,-776,0,0,0,0,0,0,0,0,0,-1,937,1800,0,0
-280,-776,0,0,0,0,0,0,0,0,0,-1,944,1800,0,0
-273,-776,0,0,0,0,0,0,0,0,0,-1,951,1800,0,0
-266,-776,0,0,0,0,0,0,0,0,0,-1,958,1800,0,0
-259,-776,0,0,0,0,0,0,0,0,0,-1,965,1800,0,0
-252,-776,0,0,0,0,0,0,0,0,0,-1,972,1800,0,0
-245,-776,0,0,0,0,0,0,0,0,0,-1,979,1800,0,0
-238,-776,0,0,0,0,0,0,0,0,0,-1,986,1800,0,0
-231,-776,0,0,0,0,0,0,0,0,0,-1,993,1800,0,0
-224,-776,0,0,0,0,0,0,0,0,0,-1,1000,1800,0,0
-217,-776,0,0,0,0,0,0,0,0,0,-1,1007,1800,0,0
-210,-776,0,0,0,0,0,0,0,0,0,-1,1014,1800,0,0
-203,-776,0,0,0,0,0,0,0,0,0,-1,1021,1800,0,0
-196,-776,0,0,0,0,0,0,0,0,0,-1,1028,1800,0,0
-189,-776,0,0,0,0,0,0,0,0,0,-1,1035,1800,0,0
-182,-776,0,0,0,0,0,0,0,0,0,-1,1042,1800,0,0
-175,-776,0,0,0,0,0,0,0,0,0,-1,1049,1800,0,0
-168,-776,0,0,0,0,0,0,0,0,0,-1,1056,1800,0,0
-161,-776,0,0,0,0,0,0,0,0,0,-1,1063,1800,0,0
-154,-776,0,0,0,0,0,0,0,0,0,-1,1070,1800,0,0
-147,-776,0,0,0,0,0,0,0,0,0,-1,1077,1800,0,0
-140,-776,2.98499,5.20911,0,0,0,0,0,0,0,-1,1084,1800,2.98493,-5.2091
-133,-776,6.72363,9.35828,0,0,0,0,0,0,0,-1,1091,1800,6.72358,-9.35824
-126,-776,6.55029,13.7832,0,0,0,0,0,0,0,-1,1098,1800,6.55029,-13.7832
-119,-776,5.72107,13.7787,0,0,0,0,0,0,0,-1,1105,1800,5.72106,-13.7787
-112,-776,7.11792,18.3749,0,0,0,0,0,0,0,-1,1112,1800,7.11789,-18.3749
-105,-776,6.26868,18.3521,0,0,0,0,0,0,0,-1,1119,1800,6.26871,-18.352
-98,-776,5.43921,18.1306,0,0,0,0,0,0,0,-1,1126,1800,5.43927,-18.1306
-91,-776,3.00159,13.1172,0,0,0,0,0,0,0,-1,1133,1800,3.00159,-13.1171
-84,-776,2.27747,12.7086,0,0,0,0,0,0,0,-1,1140,1800,2.27747,-12.7087
-77,-776,0.580078,11.1272,0,0,0,0,0,0,0,-1,1147,1800,0.58002,-11.1272
-70,-776,-0.562866,12.3163,0,0,0,0,0,0,0,-1,1154,1800,-0.562897,-12.3163
-63,-776,-3.96106,9.97656,0,0,0,0,0,0,0,-1,1161,1800,-3.961,-9.97654
-56,-776,-7.35913,7.63672,0,0,0,0,0,0,0,-1,1168,1800,-7.3591,-7.63676
-49,-776,-7.62952,3.1908,0,0,0,0,0,0,0,-1,1175,1800,-7.62955,-3.19076
-42,-776,-3.41272,3.0249,0,0,0,0,0,0,0,-1,1182,1800,-3.41269,-3.02488
-35,-776,-3.71753,1.63635,0,0,0,0,0,0,0,-1,1189,1800,-3.71755,-1.63631
-28,-776,-4.03979,0.716064,0,0,0,0,0,0,0,-1,1196,1800,-4.03977,-0.716055
-21,-776,6.06384,17.7999,0,0,0,0,0,0,0,-1,1203,1800,6.06381,-17.8
-14,-776,7.07837,17.5153,0.0219036,-0.00317134,0.0380242,0.0494039,-0.0306717,0.626149,0.0466514,0.043568,1210,1800,7.07839,-17.5153
-7,-776,4.29382,17.4908,0.0214734,-0.00200661,0.034723,0.0463874,-0.0269206,0.622379,0.042819,0.0488297,1217,1800,4.29382,-17.4908
0,-776,4.40454,17.8209,0.0201262,-0.0012911,0.0314691,0.0426588,-0.0238237,0.621398,0.0388938,0.0448248,1224,1800,4.40456,-17.821
7,-776,4.78809,18.1865,0.0172673,-0.000395996,0.0282608,0.0380443,-0.021173,0.633953,0.0346485,0.0468194,1231,1800,4.78811,-18.1865
14,-776,5.43274,17.9104,0.013582,-0.000432908,0.0253754,0.0328998,-0.0197507,0.65068,0.0307121,0.0447375,1238,1800,5.43275,-17.9104
21,-776,6.12134,17.9377,0.00988415,-0.000827412,0.0220582,0.0272275,-0.0181707,0.666302,0.0263839,0.0433544,1245,1800,6.12135,-17.9377
28,-776,6.0802,17.6969,0.00690557,-0.00159801,0.0185637,0.0216982,-0.0163906,0.672821,0.0220616,0.0413326,1252,1800,6.08023,-17.6969
35,-776,5.32556,18.2661,0.00605143,-0.0022836,0.0154697,0.0179052,-0.0141373,0.653823,0.0185423,0.039506,1259,1800,5.3256,-18.2662
42,-776,5.02686,18.7197,0.0125919,-0.00336803,0.0124099,0.0193661,-0.0101423,0.499669,0.0173119,0.0423328,1266,1800,5.02681,-18.7198
49,-776,4.62854,18.8304,0.0219773,0.000503091,0.00603475,0.023557,-0.00107661,0.256023,0.0160755,0.0425693,1273,1800,4.6285,-18.8304
56,-776,5.16858,18.113,0.030751,0.00491528,0.00122577,0.0308091,0.00485725,0.0473031,0.019127,0.0432106,1280,1800,5.1686,-18.113
63,-776,4.55017,18.2878,0.0420551,0.0101388,-0.00454786,0.0426905,0.00950341,-0.138813,0.0258808,0.0435785,1287,1800,4.55014,-18.2879
70,-776,4.32971,18.1366,0.0545496,0.015541,-0.01057,0.0572296,0.012861,-0.248314,0.0346705,0.0466151,1294,1800,4.3297,-18.1366
77,-776,3.88953,18.1934,0.0681485,0.0220843,-0.0180013,0.0743487,0.0158841,-0.331702,0.045211,0.0484689,1301,1800,3.88955,-18.1934
84,-776,5.96313,17.3428,0.0822555,0.0302067,-0.0256045,0.0927395,0.0197228,-0.388633,0.0564132,0.0453555,1308,1800,5.96311,-17.3428
91,-776,6.56787,17.2804,0.0948163,0.0389184,-0.0331819,0.110251,0.0234832,-0.435396,0.0670581,0.0392236,1315,1800,6.56785,-17.2803
98,-776,6.83838,16.9718,0,0,0,0,0,0,0,-1,1322,1800,6.83842,-16.9718
105,-776,7.95886,17.2313,0.108823,0.0542361,-0.0453501,0.13446,0.0285998,-0.514512,0.0817905,0.0428451,1329,1800,7.95891,-17.2313
112,-776,8.5116,17.573,0.111537,0.059941,-0.0509736,0.142869,0.0286089,-0.551139,0.0872867,0.0438697,1336,1800,8.51155,-17.573
119,-776,9.58691,17.5607,0.109473,0.0638791,-0.0551819,0.146381,0.0269704,-0.589516,0.0899553,0.04474,1343,1800,9.58688,-17.5606
126,-776,10.3259,17.3025,0.103815,0.0653364,-0.0573915,0.145106,0.0240453,-0.62367,0.0898019,0.0472366,1350,1800,10.3259,-17.3025
133,-776,11.1439,17.2175,0,0,0,0,0,0,0,-1,1357,1800,11.144,-17.2175
140,-776,4.39331,10.0631,0,0,0,0,0,0,0,-1,1364,1800,4.39332,-10.0631
147,-776,6.46301,-0.617188,0,0,0,0,0,0,0,-1,1371,1800,6.46305,0.61724
154,-776,6.43774,0.344116,0,0,0,0,0,0,0,-1,1378,1800,6.43776,-0.344162
161,-776,6.50293,1.1731,0,0,0,0,0,0,0,-1,1385,1800,6.5029,-1.17313
168,-776,8.44971,1.22913,0,0,0,0,0,0,0,-1,1392,1800,8.44974,-1.22915
175,-776,8.61523,2.87061,0,0,0,0,0,0,0,-1,1399,1800,8.6152,-2.87063
182,-776,8.54065,4.60645,0,0,0,0,0,0,0,-1,1406,1800,8.5407,-4.60643
189,-776,8.35303,6.28223,0,0,0,0,0,0,0,-1,1413,1800,8.35297,-6.28225
196,-776,8.0387,8.21704,0,0,0,0,0,0,0,-1,1420,1800,8.03865,-8.217
203,-776,7.91736,9.79919,0,0,0,0,0,0,0,-1,1427,1800,7.91735,-9.79922
210,-776,20.2479,7.85718,0,0,0,0,0,0,0,-1,1434,1800,20.248,-7.85719
217,-776,21.5171,9.3418,0,0,0,0,0,0,0,-1,1441,1800,21.5171,-9.34182
224,-776,3.09253,14.9313,0,0,0,0,0,0,0,-1,1448,1800,3.09254,-14.9313
231,-776,20.8671,9.21057,0,0,0,0,0,0,0,-1,1455,1800,20.867,-9.21054
238,-776,20.7511,9.05847,0,0,0,0,0,0,0,-1,1462,1800,20.7511,-9.05848
245,-776,21.0875,9.85986,0,0,0,0,0,0,0,-1,1469,1800,21.0875,-9.8599
252,-776,16.6313,6.47168,0,0,0,0,0,0,0,-1,1476,1800,16.6313,-6.47165
259,-776,14.1882,7.69055,0,0,0,0,0,0,0,-1,1483,1800,14.1882,-7.69061
266,-776,0,0,0,0,0,0,0,0,0,-1,1490,1800,0,0
273,-776,0,0,0,0,0,0,0,0,0,-1,1497,1800,0,0
280,-776,0,0,0,0,0,0,0,0,0,-1,1504,1800,0,0
287,-776,0,0,0,0,0,0,0,0,0,-1,1511,1800,0,0
294,-776,0,0,0,0,0,0,0,0,0,-1,1518,1800,0,0
301,-776,0,0,0,0,0,0,0,0,0,-1,1525,1800,0,0
308,-776,0,0,0,0,0,0,0,0,0,-1,1532,1800,0,0
315,-776,0,0,0,0,0,0,0,0,0,-1,1539,1800,0,0
322,-776,0,0,0,0,0,0,0,0,0,-1,1546,1800,0,0
329,-776,0,0,0,0,0,0,0,0,0,-1,1553,1800,0,0
336,-776,0,0,0,0,0,0,0,0,0,-1,1560,1800,0,0
343,-776,0,0,0,0,0,0,0,0,0,-1,1567,1800,0,0
350,-776,0,0,0,0,0,0,0,0,0,-1,1574,1800,0,0
357,-776,0,0,0,0,0,0,0,0,0,-1,1581,1800,0,0
364,-776,0,0,0,0,0,0,0,0,0,-1,1588,1800,0,0
371,-776,0,0,0,0,0,0,0,0,0,-1,1595,1800,0,0
378,-776,0,0,0,0,0,0,0,0,0,-1,1602,1800,0,0
385,-776,0,0,0,0,0,0,0,0,0,-1,1609,1800,0,0
392,-776,0,0,0,0,0,0,0,0,0,-1,1616,1800,0,0
399,-776,0,0,0,0,0,0,0,0,0,-1,1623,1800,0,0
406,-776,0,0,0,0,0,0,0,0,0,-1,1630,1800,0,0
413,-776,0,0,0,0,0,0,0,0,0,-1,1637,1800,0,0
420,-776,0,0,0,0,0,0,0,0,0,-1,1644,1800,0,0
427,-776,0,0,0,0,0,0,0,0,0,-1,1651,1800,0,0
434,-776,0,0,0,0,0,0,0,0,0,-1,1658,1800,0,0
441,-776,0,0,0,0,0,0,0,0,0,-1,1665,1800,0,0
448,-776,0,0,0,0,0,0,0,0,0,-1,1672,1800,0,0
455,-776,0,0,0,0,0,0,0,0,0,-1,1679,1800,0,0
462,-776,0,0,0,0,0,0,0,0,0,-1,1686,1800,0,0
469,-776,0,0,0,0,0,0,0,0,0,-1,1693,1800,0,0
476,-776,0,0,0,0,0,0,0,0,0,-1,1700,1800,0,0
483,-776,0,0,0,0,0,0,0,0,0,-1,1707,1800,0,0
490,-776,0,0,0,0,0,0,0,0,0,-1,1714,1800,0,0
497,-776,0,0,0,0,0,0,0,0,0,-1,1721,1800,0,0
504,-776,0,0,0,0,0,0,0,0,0,-1,1728,1800,0,0
511,-776,0,0,0,0,0,0,0,0,0,-1,1735,1800,0,0
518,-776,0,0,0,0,0,0,0,0,0,-1,1742,1800,0,0
525,-776,0,0,0,0,0,0,0,0,0,-1,1749,1800,0,0
532,-776,0,0,0,0,0,0,0,0,0,-1,1756,1800,0,0
539,-776,0,0,0,0,0,0,0,0,0,-1,1763,1800,0,0
546,-776,0,0,0,0,0,0,0,0,0,-1,1770,1800,0,0
553,-776,0,0,0,0,0,0,0,0,0,-1,1777,1800,0,0
560,-776,0,0,0,0,0,0,0,0,0,-1,1784,1800,0,0
567,-776,0,0,0,0,0,0,0,0,0,-1,1791,1800,0,0
574,-776,0,0,0,0,0,0,0,0,0,-1,1798,1800,0,0
581,-776,0,0,0,0,0,0,0,0,0,-1,1805,1800,0,0
588,-776,0,0,0,0,0,0,0,0,0,-1,1812,1800,0,0
595,-776,0,0,0,0,0,0,0,0,0,-1,1819,1800,0,0
602,-776,0,0,0,0,0,0,0,0,0,-1,1826,1800,0,0
609,-776,0,0,0,0,0,0,0,0,0,-1,1833,1800,0,0
616,-776,0,0,0,0,0,0,0,0,0,-1,1840,1800,0,0
623,-776,0,0,0,0,0,0,0,0,0,-1,1847,1800,0,0
630,-776,0,0,0,0,0,0,0,0,0,-1,1854,1800,0,0
637,-776,0,0,0,0,0,0,0,0,0,-1,1861,1800,0,0
644,-776,0,0,0,0,0,0,0,0,0,-1,1868,1800,0,0
651,-776,0,0,0,0,0,0,0,0,0,-1,1875,1800,0,0
658,-776,0,0,0,0,0,0,0,0,0,-1,1882,1800,0,0
665,-776,0,0,0,0,0,0,0,0,0,-1,1889,1800,0,0
672,-776,0,0,0,0,0,0,0,0,0,-1,1896,1800,0,0
679,-776,0,0,0,0,0,0,0,0,0,-1,1903,1800,0,0
686,-776,0,0,0,0,0,0,0,0,0,-1,1910,1800,0,0
693,-776,0,0,0,0,0,0,0,0,0,-1,1917,1800,0,0
700,-776,0,0,0,0,0,0,0,0,0,-1,1924,1800,0,0
707,-776,0,0,0,0,0,0,0,0,0,-1,1931,1800,0,0
714,-776,0,0,0,0,0,0,0,0,0,-1,1938,1800,0,0
721,-776,0,0,0,0,0,0,0,0,0,-1,1945,1800,0,0
728,-776,0,0,0,0,0,0,0,0,0,-1,1952,1800,0,0
735,-776,0,0,0,0,0,0,0,0,0,-1,1959,1800,0,0
742,-776,0,0,0,0,0,0,0,0,0,-1,1966,1800,0,0
749,-776,0,0,0,0,0,0,0,0,0,-1,1973,1800,0,0
756,-776,0,0,0,0,0,0,0,0,0,-1,1980,1800,0,0
763,-776,0,0,0,0,0,0,0,0,0,-1,1987,1800,0,0
770,-776,0,0,0,0,0,0,0,0,0,-1,1994,1800,0,0
777,-776,0,0,0,0,0,0,0,0,0,-1,2001,1800,0,0
784,-776,0,0,0,0,0,0,0,0,0,-1,2008,1800,0,0
791,-776,0,0,0,0,0,0,0,0,0,-1,2015,1800,0,0
798,-776,0,0,0,0,0,0,0,0,0,-1,2022,1800,0,0
805,-776,0,0,0,0,0,0,0,0,0,-1,2029,1800,0,0
812,-776,0,0,0,0,0,0,0,0,0,-1,2036,1800,0,0
-700,-783,0,0,0,0,0,0,0,0,0,-1,524,1807,0,0
-693,-783,0,0,0,0,0,0,0,0,0,-1,531,1807,0,0
-686,-783,0,0,0,0,0,0,0,0,0,-1,538,1807,0,0
-679,-783,0,0,0,0,0,0,0,0,0,-1,545,1807,0,0
-672,-783,0,0,0,0,0,0,0,0,0,-1,552,1807,0,0
-665,-783,0,0,0,0,0,0,0,0,0,-1,559,1807,0,0
-658,-783,0,0,0,0,0,0,0,0,0,-1,566,1807,0,0
-651,-783,0,0,0,0,0,0,0,0,0,-1,573,1807,0,0
-644,-783,0,0,0,0,0,0,0,0,0,-1,580,1807,0,0
-637,-783,0,0,0,0,0,0,0,0,0,-1,587,1807,0,0
-630,-783,0,0,0,0,0,0,0,0,0,-1,594,1807,0,0
-623,-783,0,0,0,0,0,0,0,0,0,-1,601,1807,0,0
-616,-783,0,0,0,0,0,0,0,0,0,-1,608,1807,0,0
-609,-783,0,0,0,0,0,0,0,0,0,-1,615,1807,0,0
-602,-783,0,0,0,0,0,0,0,0,0,-1,622,1807,0,0
-595,-783,0,0,0,0,0,0,0,0,0,-1,629,1807,0,0
-588,-783,0,0,0,0,0,0,0,0,0,-1,636,1807,0,0
-581,-783,0,0,0,0,0,0,0,0,0,-1,643,1807,0,0
-574,-783,0,0,0,0,0,0,0,0,0,-1,650,1807,0,0
-567,-783,0,0,0,0,0,0,0,0,0,-1,657,1807,0,0
-560,-783,0,0,0,0,0,0,0,0,0,-1,664,1807,0,0
-553,-783,0,0,0,0,0,0,0,0,0,-1,671,1807,0,0
-546,-783,0,0,0,0,0,0,0,0,0,-1,678,1807,0,0
-539,-783,0,0,0,0,0,0,0,0,0,-1,685,1807,0,0
-532,-783,0,0,0,0,0,0,0,0,0,-1,692,1807,0,0
-525,-783,0,0,0,0,0,0,0,0,0,-1,699,1807,0,0
-518,-783,0,0,0,0,0,0,0,0,0,-1,706,1807,0,0
-511,-783,0,0,0,0,0,0,0,0,0,-1,713,1807,0,0
-504,-783,0,0,0,0,0,0,0,0,0,-1,720,1807,0,0
-497,-783,0,0,0,0,0,0,0,0,0,-1,727,1807,0,0
-490,-783,0,0,0,0,0,0,0,0,0,-1,734,1807,0,0
-483,-783,0,0,0,0,0,0,0,0,0,-1,741,1807,0,0
-476,-783,0,0,0,0,0,0,0,0,0,-1,748,1807,0,0
-469,-783,0,0,0,0,0,0,0,0,0,-1,755,1807,0,0
-462,-783,0,0,0,0,0,0,0,0,0,-1,762,1807,0,0
-455,-783,0,0,0,0,0,0,0,0,0,-1,769,1807,0,0
-448,-783,0,0,0,0,0,0,0,0,0,-1,776,1807,0,0
-441,-783,0,0,0,0,0,0,0,0,0,-1,783,1807,0,0
-434,-783,0,0,0,0,0,0,0,0,0,-1,790,1807,0,0
-427,-783,0,0,0,0,0,0,0,0,0,-1,797,1807,0,0
-420,-783,0,0,0,0,0,0,0,0,0,-1,804,1807,0,0
-413,-783,0,0,0,0,0,0,0,0,0,-1,811,1807,0,0
-406,-783,0,0,0,0,0,0,0,0,0,-1,818,1807,0,0
-399,-783,0,0,0,0,0,0,0,0,0,-1,825,1807,0,0
-392,-783,0,0,0,0,0,0,0,0,0,-1,832,1807,0,0
-385,-783,0,0,0,0,0,0,0,0,0,-1,839,1807,0,0
-378,-783,0,0,0,0,0,0,0,0,0,-1,846,1807,0,0
-371,-783,0,0,0,0,0,0,0,0,0,-1,853,1807,0,0
-364,-783,0,0,0,0,0,0,0,0,0,-1,860,1807,0,0
-357,-783,0,0,0,0,0,0,0,0,0,-1,867,1807,0,0
-350,-783,0,0,0,0,0,0,0,0,0,-1,874,1807,0,0
-343,-783,0,0,0,0,0,0,0,0,0,-1,881,1807,0,0
-336,-783,0,0,0,0,0,0,0,0,0,-1,888,1807,0,0
-329,-783,0,0,0,0,0,0,0,0,0,-1,895,1807,0,0
-322,-783,0,0,0,0,0,0,0,0,0,-1,902,1807,0,0
-315,-783,0,0,0,0,0,0,0,0,0,-1,909,1807,0,0
-308,-783,0,0,0,0,0,0,0,0,0,-1,916,1807,0,0
-301,-783,0,0,0,0,0,0,0,0,0,-1,923,1807,0,0
-294,-783,0,0,0,0,0,0,0,0,0,-1,930,1807,0,0
-287,-783,0,0,0,0,0,0,0,0,0,-1,937,1807,0,0
-280,-783,0,0,0,0,0,0,0,0,0,-1,944,1807,0,0
-273,-783,0,0,0,0,0,0,0,0,0,-1,951,1807,0,0
-266,-783,0,0,0,0,0,0,0,0,0,-1,958,1807,0,0
-259,-783,0,0,0,0,0,0,0,0,0,-1,965,1807,0,0
-252,-783,0,0,0,0,0,0,0,0,0,-1,972,1807,0,0
-245,-783,0,0,0,0,0,0,0,0,0,-1,979,1807,0,0
-238,-783,0,0,0,0,0,0,0,0,0,-1,986,1807,0,0
-231,-783,0,0,0,0,0,0,0,0,0,-1,993,1807,0,0
-224,-783,0,0,0,0,0,0,0,0,0,-1,1000,1807,0,0
-217,-783,0,0,0,0,0,0,0,0,0,-1,1007,1807,0,0
-210,-783,0,0,0,0,0,0,0,0,0,-1,1014,1807,0,0
-203,-783,0,0,0,0,0,0,0,0,0,-1,1021,1807,0,0
-196,-783,0,0,0,0,0,0,0,0,0,-1,1028,1807,0,0
-189,-783,0,0,0,0,0,0,0,0,0,-1,1035,1807,0,0
-182,-783,0,0,0,0,0,0,0,0,0,-1,1042,1807,0,0
-175,-783,0,0,0,0,0,0,0,0,0,-1,1049,1807,0,0
-168,-783,0,0,0,0,0,0,0,0,0,-1,1056,1807,0,0
-161,-783,0,0,0,0,0,0,0,0,0,-1,1063,1807,0,0
-154,-783,0,0,0,0,0,0,0,0,0,-1,1070,1807,0,0
-147,-783,0,0,0,0,0,0,0,0,0,-1,1077,1807,0,0
-140,-783,0,0,0,0,0,0,0,0,0,-1,1084,1807,0,0
-133,-783,0,0,0,0,0,0,0,0,0,-1,1091,1807,0,0
-126,-783,0,0,0,0,0,0,0,0,0,-1,1098,1807,0,0
-119,-783,0,0,0,0,0,0,0,0,0,-1,1105,1807,0,0
-112,-783,5.33936,14.7699,0,0,0,0,0,0,0,-1,1112,1807,5.33931,-14.7699
-105,-783,4.53088,14.7312,0,0,0,0,0,0,0,-1,1119,1807,4.53083,-14.7312
-98,-783,3.57434,14.3257,0,0,0,0,0,0,0,-1,1126,1807,3.57437,-14.3257
-91,-783,2.78186,14.2633,0,0,0,0,0,0,0,-1,1133,1807,2.78186,-14.2633
-84,-783,-0.0491943,14.5743,0,0,0,0,0,0,0,-1,1140,1807,-0.0491562,-14.5743
-77,-783,0.332764,12.7788,0,0,0,0,0,0,0,-1,1147,1807,0.332743,-12.7788
-70,-783,-1.93176,5.12817,0,0,0,0,0,0,0,-1,1154,1807,-1.93171,-5.12813
-63,-783,-5.31702,10.54,0,0,0,0,0,0,0,-1,1161,1807,-5.31703,-10.54
-56,-783,-6.26135,6.9679,0,0,0,0,0,0,0,-1,1168,1807,-6.26136,-6.96785
-49,-783,-3.17688,4.59705,0,0,0,0,0,0,0,-1,1175,1807,-3.17685,-4.5971
-42,-783,-3.72876,3.1405,0,0,0,0,0,0,0,-1,1182,1807,-3.72874,-3.14055
-35,-783,-3.97046,1.59399,0,0,0,0,0,0,0,-1,1189,1807,-3.97041,-1.59401
-28,-783,-4.12195,0.270386,0,0,0,0,0,0,0,-1,1196,1807,-4.12197,-0.270408
-21,-783,2.98779,16.8228,0,0,0,0,0,0,0,-1,1203,1807,2.98785,-16.8227
-14,-783,3.66199,17.2756,0.0293201,-0.00637497,0.0472413,0.0619728,-0.0390276,0.604789,0.0588121,0.0457439,1210,1807,3.66193,-17.2756
-7,-783,4.30664,17.7531,0.0288364,-0.00370943,0.0433067,0.0588266,-0.0336996,0.60568,0.0540727,0.0447467,1217,1807,4.3067,-17.7531
0,-783,4.59399,18.1035,0.0270964,-0.00212635,0.0398458,0.0549253,-0.0299553,0.609662,0.0497076,0.0428804,1224,1807,4.59397,-18.1035
7,-783,4.63501,18.3154,0,0,0,0,0,0,0,-1,1231,1807,4.63501,-18.3154
14,-783,5.14673,17.5612,0.018682,0.000164363,0.0331058,0.0437993,-0.024953,0.649045,0.0401882,0.0469843,1238,1807,5.14673,-17.5611
21,-783,5.26843,17.7316,0.0138832,-0.000127016,0.029181,0.0368881,-0.0231319,0.667599,0.0349546,0.0467588,1245,1807,5.26844,-17.7315
28,-783,5.34509,17.885,0.00977811,-0.00132928,0.0249429,0.0297782,-0.0213293,0.675857,0.029641,0.0463205,1252,1807,5.34514,-17.885
35,-783,5.12927,18.6096,0.00808832,-0.00274189,0.0211269,0.0244831,-0.0191366,0.659942,0.0252468,0.0441183,1259,1807,5.12933,-18.6096
42,-783,4.76782,19.2036,0.0161238,-0.00487764,0.0173256,0.0258824,-0.0146362,0.512958,0.0236919,0.0417354,1266,1807,4.76777,-19.2036
49,-783,5.67334,18.1492,0.0281099,-0.000614662,0.0094512,0.0309407,-0.00344541,0.291009,0.0218662,0.0447879,1273,1807,5.67329,-18.1492
56,-783,5.14319,18.1647,0.0390498,0.00401525,0.00347601,0.0393914,0.0036737,0.0979443,0.025126,0.0453696,1280,1807,5.14316,-18.1647
63,-783,4.82678,18.1636,0,0,0,0,0,0,0,-1,1287,1807,4.82674,-18.1636
70,-783,3.8916,17.7994,0.0694262,0.0158179,-0.0112641,0.0716968,0.0135473,-0.198915,0.0439832,0.044431,1294,1807,3.89165,-17.7994
77,-783,4.23596,17.1376,0.0869325,0.0234068,-0.0203887,0.0929132,0.0174261,-0.285331,0.057028,0.0490451,1301,1807,4.23599,-17.1376
84,-783,4.35486,16.696,0.105221,0.033433,-0.029889,0.116036,0.022618,-0.347182,0.0710289,0.0485502,1308,1807,4.35485,-16.696
91,-783,7.30481,17.1989,0.121842,0.0443888,-0.0394746,0.138414,0.0278162,-0.397483,0.0845435,0.0430172,1315,1807,7.30476,-17.1989
98,-783,8.38599,16.869,0.133545,0.055601,-0.0476947,0.156165,0.0329807,-0.442855,0.0950433,0.0416216,1322,1807,8.38604,-16.869
105,-783,9.36121,16.7699,0.140732,0.0648496,-0.0551732,0.16975,0.0358309,-0.484197,0.103316,0.0460719,1329,1807,9.36127,-16.7699
112,-783,10.0623,17.0955,0.144064,0.0726187,-0.0624802,0.180313,0.0363699,-0.525706,0.110106,0.046191,1336,1807,10.0623,-17.0954
119,-783,10.7672,17.1661,0.140696,0.078095,-0.0679173,0.184178,0.0346126,-0.569473,0.113029,0.0441529,1343,1807,10.7672,-17.1662
126,-783,11.5524,16.9771,0.131867,0.0800244,-0.0708153,0.181356,0.0305355,-0.60995,0.11212,0.0480535,1350,1807,11.5524,-16.9771
133,-783,12.1914,17.1528,0,0,0,0,0,0,0,-1,1357,1807,12.1914,-17.1529
140,-783,2.6543,15.261,0,0,0,0,0,0,0,-1,1364,1807,2.65435,-15.261
147,-783,6.45825,-1.2334,0,0,0,0,0,0,0,-1,1371,1807,6.45822,1.23339
154,-783,6.37024,-0.145874,0,0,0,0,0,0,0,-1,1378,1807,6.37018,0.145866
161,-783,6.57568,1.16174,0,0,0,0,0,0,0,-1,1385,1807,6.57562,-1.1617
168,-783,8.62561,1.79944,0,0,0,0,0,0,0,-1,1392,1807,8.62561,-1.79946
175,-783,8.78699,3.40857,0,0,0,0,0,0,0,-1,1399,1807,8.78697,-3.40854
182,-783,8.70984,5.14661,0,0,0,0,0,0,0,-1,1406,1807,8.70989,-5.14666
189,-783,8.55762,6.79871,0,0,0,0,0,0,0,-1,1413,1807,8.55766,-6.79872
196,-783,8.25488,8.66626,0,0,0,0,0,0,0,-1,1420,1807,8.25492,-8.66628
203,-783,7.86755,10.5735,0,0,0,0,0,0,0,-1,1427,1807,7.8676,-10.5734
210,-783,5.6969,8.99231,0,0,0,0,0,0,0,-1,1434,1807,5.69693,-8.99234
217,-783,5.28503,3.80872,0,0,0,0,0,0,0,-1,1441,1807,5.285,-3.80868
224,-783,3.22571,6.62903,0,0,0,0,0,0,0,-1,1448,1807,3.2257,-6.62907
231,-783,4.27942,4.56262,0,0,0,0,0,0,0,-1,1455,1807,4.27948,-4.56267
238,-783,0,0,0,0,0,0,0,0,0,-1,1462,1807,0,0
245,-783,0,0,0,0,0,0,0,0,0,-1,1469,1807,0,0
252,-783,0,0,0,0,0,0,0,0,0,-1,1476,1807,0,0
259,-783,0,0,0,0,0,0,0,0,0,-1,1483,1807,0,0
266,-783,0,0,0,0,0,0,0,0,0,-1,1490,1807,0,0
273,-783,0,0,0,0,0,0,0,0,0,-1,1497,1807,0,0
280,-783,0,0,0,0,0,0,0,0,0,-1,1504,1807,0,0
287,-783,0,0,0,0,0,0,0,0,0,-1,1511,1807,0,0
294,-783,0,0,0,0,0,0,0,0,0,-1,1518,1807,0,0
301,-783,0,0,0,0,0,0,0,0,0,-1,1525,1807,0,0
308,-783,0,0,0,0,0,0,0,0,0,-1,1532,1807,0,0
315,-783,0,0,0,0,0,0,0,0,0,-1,1539,1807,0,0
322,-783,0,0,0,0,0,0,0,0,0,-1,1546,1807,0,0
329,-783,0,0,0,0,0,0,0,0,0,-1,1553,1807,0,0
336,-783,0,0,0,0,0,0,0,0,0,-1,1560,1807,0,0
343,-783,0,0,0,0,0,0,0,0,0,-1,1567,1807,0,0
350,-783,0,0,0,0,0,0,0,0,0,-1,1574,1807,0,0
357,-783,0,0,0,0,0,0,0,0,0,-1,1581,1807,0,0
364,-783,0,0,0,0,0,0,0,0,0,-1,1588,1807,0,0
371,-783,0,0,0,0,0,0,0,0,0,-1,1595,1807,0,0
378,-783,0,0,0,0,0,0,0,0,0,-1,1602,1807,0,0
385,-783,0,0,0,0,0,0,0,0,0,-1,1609,1807,0,0
392,-783,0,0,0,0,0,0,0,0,0,-1,1616,1807,0,0
399,-783,0,0,0,0,0,0,0,0,0,-1,1623,1807,0,0
406,-783,0,0,0,0,0,0,0,0,0,-1,1630,1807,0,0
413,-783,0,0,0,0,0,0,0,0,0,-1,1637,1807,0,0
420,-783,0,0,0,0,0,0,0,0,0,-1,1644,1807,0,0
427,-783,0,0,0,0,0,0,0,0,0,-1,1651,1807,0,0
434,-783,0,0,0,0,0,0,0,0,0,-1,1658,1807,0,0
441,-783,0,0,0,0,0,0,0,0,0,-1,1665,1807,0,0
448,-783,0,0,0,0,0,0,0,0,0,-1,1672,1807,0,0
455,-783,0,0,0,0,0,0,0,0,0,-1,1679,1807,0,0
462,-783,0,0,0,0,0,0,0,0,0,-1,1686,1807,0,0
469,-783,0,0,0,0,0,0,0,0,0,-1,1693,1807,0,0
476,-783,0,0,0,0,0,0,0,0,0,-1,1700,1807,0,0
483,-783,0,0,0,0,0,0,0,0,0,-1,1707,1807,0,0
490,-783,0,0,0,0,0,0,0,0,0,-1,1714,1807,0,0
497,-783,0,0,0,0,0,0,0,0,0,-1,1721,1807,0,0
504,-783,0,0,0,0,0,0,0,0,0,-1,1728,1807,0,0
511,-783,0,0,0,0,0,0,0,0,0,-1,1735,1807,0,0
518,-783,0,0,0,0,0,0,0,0,0,-1,1742,1807,0,0
525,-783,0,0,0,0,0,0,0,0,0,-1,1749,1807,0,0
532,-783,0,0,0,0,0,0,0,0,0,-1,1756,1807,0,0
539,-783,0,0,0,0,0,0,0,0,0,-1,1763,1807,0,0
546,-783,0,0,0,0,0,0,0,0,0,-1,1770,1807,0,0
553,-783,0,0,0,0,0,0,0,0,0,-1,1777,1807,0,0
560,-783,0,0,0,0,0,0,0,0,0,-1,1784,1807,0,0
567,-783,0,0,0,0,0,0,0,0,0,-1,1791,1807,0,0
574,-783,0,0,0,0,0,0,0,0,0,-1,1798,1807,0,0
581,-783,0,0,0,0,0,0,0,0,0,-1,1805,1807,0,0
588,-783,0,0,0,0,0,0,0,0,0,-1,1812,1807,0,0
595,-783,0,0,0,0,0,0,0,0,0,-1,1819,1807,0,0
602,-783,0,0,0,0,0,0,0,0,0,-1,1826,1807,0,0
609,-783,0,0,0,0,0,0,0,0,0,-1,1833,1807,0,0
616,-783,0,0,0,0,0,0,0,0,0,-1,1840,1807,0,0
623,-783,0,0,0,0,0,0,0,0,0,-1,1847,1807,0,0
630,-783,0,0,0,0,0,0,0,0,0,-1,1854,1807,0,0
637,-783,0,0,0,0,0,0,0,0,0,-1,1861,1807,0,0
644,-783,0,0,0,0,0,0,0,0,0,-1,1868,1807,0,0
651,-783,0,0,0,0,0,0,0,0,0,-1,1875,1807,0,0
658,-783,0,0,0,0,0,0,0,0,0,-1,1882,1807,0,0
665,-783,0,0,0,0,0,0,0,0,0,-1,1889,1807,0,0
672,-783,0,0,0,0,0,0,0,0,0,-1,1896,1807,0,0
679,-783,0,0,0,0,0,0,0,0,0,-1,1903,1807,0,0
686,-783,0,0,0,0,0,0,0,0,0,-1,1910,1807,0,0
693,-783,0,0,0,0,0,0,0,0,0,-1,1917,1807,0,0
700,-783,0,0,0,0,0,0,0,0,0,-1,1924,1807,0,0
707,-783,0,0,0,0,0,0,0,0,0,-1,1931,1807,0,0
714,-783,0,0,0,0,0,0,0,0,0,-1,1938,1807,0,0
721,-783,0,0,0,0,0,0,0,0,0,-1,1945,1807,0,0
728,-783,0,0,0,0,0,0,0,0,0,-1,1952,1807,0,0
735,-783,0,0,0,0,0,0,0,0,0,-1,1959,1807,0,0
742,-783,0,0,0,0,0,0,0,0,0,-1,1966,1807,0,0
749,-783,0,0,0,0,0,0,0,0,0,-1,1973,1807,0,0
756,-783,0,0,0,0,0,0,0,0,0,-1,1980,1807,0,0
763,-783,0,0,0,0,0,0,0,0,0,-1,1987,1807,0,0
770,-783,0,0,0,0,0,0,0,0,0,-1,1994,1807,0,0
777,-783,0,0,0,0,0,0,0,0,0,-1,2001,1807,0,0
784,-783,0,0,0,0,0,0,0,0,0,-1,2008,1807,0,0
791,-783,0,0,0,0,0,0,0,0,0,-1,2015,1807,0,0
798,-783,0,0,0,0,0,0,0,0,0,-1,2022,1807,0,0
805,-783,0,0,0,0,0,0,0,0,0,-1,2029,1807,0,0
812,-783,0,0,0,0,0,0,0,0,0,-1,2036,1807,0,0
-700,-790,0,0,0,0,0,0,0,0,0,-1,524,1814,0,0
-693,-790,0,0,0,0,0,0,0,0,0,-1,531,1814,0,0
-686,-790,0,0,0,0,0,0,0,0,0,-1,538,1814,0,0
-679,-790,0,0,0,0,0,0,0,0,0,-1,545,1814,0,0
-672,-790,0,0,0,0,0,0,0,0,0,-1,552,1814,0,0
-665,-790,0,0,0,0,0,0,0,0,0,-1,559,1814,0,0
-658,-790,0,0,0,0,0,0,0,0,0,-1,566,1814,0,0
-651,-790,0,0,0,0,0,0,0,0,0,-1,573,1814,0,0
-644,-790,0,0,0,0,0,0,0,0,0,-1,580,1814,0,0
-637,-790,0,0,0,0,0,0,0,0,0,-1,587,1814,0,0
-630,-790,0,0,0,0,0,0,0,0,0,-1,594,1814,0,0
-623,-790,0,0,0,0,0,0,0,0,0,-1,601,1814,0,0
-616,-790,0,0,0,0,0,0,0,0,0,-1,608,1814,0,0
-609,-790,0,0,0,0,0,0,0,0,0,-1,615,1814,0,0
-602,-790,0,0,0,0,0,0,0,0,0,-1,622,1814,0,0
-595,-790,0,0,0,0,0,0,0,0,0,-1,629,1814,0,0
-588,-790,0,0,0,0,0,0,0,0,0,-1,636,1814,0,0
-581,-790,0,0,0,0,0,0,0,0,0,-1,643,1814,0,0
-574,-790,0,0,0,0,0,0,0,0,0,-1,650,1814,0,0
-567,-790,0,0,0,0,0,0,0,0,0,-1,657,1814,0,0
-560,-790,0,0,0,0,0,0,0,0,0,-1,664,1814,0,0
-553,-790,0,0,0,0,0,0,0,0,0,-1,671,1814,0,0
-546,-790,0,0,0,0,0,0,0,0,0,-1,678,1814,0,0
-539,-790,0,0,0,0,0,0,0,0,0,-1,685,1814,0,0
-532,-790,0,0,0,0,0,0,0,0,0,-1,692,1814,0,0
-525,-790,0,0,0,0,0,0,0,0,0,-1,699,1814,0,0
-518,-790,0,0,0,0,0,0,0,0,0,-1,706,1814,0,0
-511,-790,0,0,0,0,0,0,0,0,0,-1,713,1814,0,0
-504,-790,0,0,0,0,0,0,0,0,0,-1,720,1814,0,0
-497,-790,0,0,0,0,0,0,0,0,0,-1,727,1814,0,0
-490,-790,0,0,0,0,0,0,0,0,0,-1,734,1814,0,0
-483,-790,0,0,0,0,0,0,0,0,0,-1,741,1814,0,0
-476,-790,0,0,0,0,0,0,0,0,0,-1,748,1814,0,0
-469,-790,0,0,0,0,0,0,0,0,0,-1,755,1814,0,0
-462,-790,0,0,0,0,0,0,0,0,0,-1,762,1814,0,0
-455,-790,0,0,0,0,0,0,0,0,0,-1,769,1814,0,0
-448,-790,0,0,0,0,0,0,0,0,0,-1,776,1814,0,0
-441,-790,0,0,0,0,0,0,0,0,0,-1,783,1814,0,0
-434,-790,0,0,0,0,0,0,0,0,0,-1,790,1814,0,0
-427,-790,0,0,0,0,0,0,0,0,0,-1,797,1814,0,0
-420,-790,0,0,0,0,0,0,0,0,0,-1,804,1814,0,0
-413,-790,0,0,0,0,0,0,0,0,0,-1,811,1814,0,0
-406,-790,0,0,0,0,0,0,0,0,0,-1,818,1814,0,0
-399,-790,0,0,0,0,0,0,0,0,0,-1,825,1814,0,0
-392,-790,0,0,0,0,0,0,0,0,0,-1,832,1814,0,0
-385,-790,0,0,0,0,0,0,0,0,0,-1,839,1814,0,0
-378,-790,0,0,0,0,0,0,0,0,0,-1,846,1814,0,0
-371,-790,0,0,0,0,0,0,0,0,0,-1,853,1814,0,0
-364,-790,0,0,0,0,0,0,0,0,0,-1,860,1814,0,0
-357,-790,0,0,0,0,0,0,0,0,0,-1,867,1814,0,0
-350,-790,0,0,0,0,0,0,0,0,0,-1,874,1814,0,0
-343,-790,0,0,0,0,0,0,0,0,0,-1,881,1814,0,0
-336,-790,0,0,0,0,0,0,0,0,0,-1,888,1814,0,0
-329,-790,0,0,0,0,0,0,0,0,0,-1,895,1814,0,0
-322,-790,0,0,0,0,0,0,0,0,0,-1,902,1814,0,0
-315,-790,0,0,0,0,0,0,0,0,0,-1,909,1814,0,0
-308,-790,0,0,0,0,0,0,0,0,0,-1,916,1814,0,0
-301,-790,0,0,0,0,0,0,0,0,0,-1,923,1814,0,0
-294,-790,0,0,0,0,0,0,0,0,0,-1,930,1814,0,0
-287,-790,0,0,0,0,0,0,0,0,0,-1,937,1814,0,0
-280,-790,0,0,0,0,0,0,0,0,0,-1,944,1814,0,0
-273,-790,0,0,0,0,0,0,0,0,0,-1,951,1814,0,0
-266,-790,0,0,0,0,0,0,0,0,0,-1,958,1814,0,0
-259,-790,0,0,0,0,0,0,0,0,0,-1,965,1814,0,0
-252,-790,0,0,0,0,0,0,0,0,0,-1,972,1814,0,0
-245,-790,0,0,0,0,0,0,0,0,0,-1,979,1814,0,0
-238,-790,0,0,0,0,0,0,0,0,0,-1,986,1814,0,0
-231,-790,0,0,0,0,0,0,0,0,0,-1,993,1814,0,0
-224,-790,0,0,0,0,0,0,0,0,0,-1,1000,1814,0,0
-217,-790,0,0,0,0,0,0,0,0,0,-1,1007,1814,0,0
-210,-790,0,0,0,0,0,0,0,0,0,-1,1014,1814,0,0
-203,-790,0,0,0,0,0,0,0,0,0,-1,1021,1814,0,0
-196,-790,0,0,0,0,0,0,0,0,0,-1,1028,1814,0,0
-189,-790,0,0,0,0,0,0,0,0,0,-1,1035,1814,0,0
-182,-790,0,0,0,0,0,0,0,0,0,-1,1042,1814,0,0
-175,-790,0,0,0,0,0,0,0,0,0,-1,1049,1814,0,0
-168,-790,0,0,0,0,0,0,0,0,0,-1,1056,1814,0,0
-161,-790,0,0,0,0,0,0,0,0,0,-1,1063,1814,0,0
-154,-790,0,0,0,0,0,0,0,0,0,-1,1070,1814,0,0
-147,-790,0,0,0,0,0,0,0,0,0,-1,1077,1814,0,0
-140,-790,0,0,0,0,0,0,0,0,0,-1,1084,1814,0,0
-133,-790,0,0,0,0,0,0,0,0,0,-1,1091,1814,0,0
-126,-790,0,0,0,0,0,0,0,0,0,-1,1098,1814,0,0
-119,-790,0,0,0,0,0,0,0,0,0,-1,1105,1814,0,0
-112,-790,0,0,0,0,0,0,0,0,0,-1,1112,1814,0,0
-105,-790,0,0,0,0,0,0,0,0,0,-1,1119,1814,0,0
-98,-790,0,0,0,0,0,0,0,0,0,-1,1126,1814,0,0
-91,-790,0,0,0,0,0,0,0,0,0,-1,1133,1814,0,0
-84,-790,0,0,0,0,0,0,0,0,0,-1,1140,1814,0,0
-77,-790,-0.969238,5.30847,0,0,0,0,0,0,0,-1,1147,1814,-0.969277,-5.3085
-70,-790,-1.23169,4.98914,0,0,0,0,0,0,0,-1,1154,1814,-1.23163,-4.98916
-63,-790,-1.69128,4.32263,0,0,0,0,0,0,0,-1,1161,1814,-1.69128,-4.32258
-56,-790,-2.24756,3.75305,0,0,0,0,0,0,0,-1,1168,1814,-2.24758,-3.75302
-49,-790,-3.11011,3.35779,0,0,0,0,0,0,0,-1,1175,1814,-3.11006,-3.35781
-42,-790,0.593262,1.19165,0,0,0,0,0,0,0,-1,1182,1814,0.593225,-1.19165
-35,-790,0.307129,-0.20105,0,0,0,0,0,0,0,-1,1189,1814,0.307178,0.201006
-28,-790,-2.78467,0.785156,0,0,0,0,0,0,0,-1,1196,1814,-2.78471,-0.785183
-21,-790,2.9093,17.2449,0,0,0,0,0,0,0,-1,1203,1814,2.90935,-17.2448
-14,-790,3.65833,17.6661,0.0386904,-0.0110694,0.0570782,0.0760755,-0.0484545,0.579868,0.0724846,0.0442637,1210,1814,3.65837,-17.6661
-7,-790,4.39758,18.1656,0.0381842,-0.00602471,0.0526337,0.0731667,-0.0410071,0.586598,0.0667842,0.0481654,1217,1814,4.39756,-18.1656
0,-790,4.94128,18.6936,0.0359412,-0.00301798,0.049281,0.0694529,-0.0365297,0.597185,0.0621654,0.0477565,1224,1814,4.94126,-18.6936
7,-790,4.80945,19.2455,0.0310648,0.000365546,0.0457654,0.0639861,-0.0325557,0.623594,0.0567145,0.0421681,1231,1814,4.80944,-19.2454
14,-790,4.7334,17.3179,0,0,0,0,0,0,0,-1,1238,1814,4.73345,-17.3179
21,-790,4.40051,17.585,0.0190013,0.00112096,0.037951,0.049051,-0.0289287,0.669721,0.0455185,0.0444273,1245,1814,4.40049,-17.585
28,-790,4.68005,17.5626,0.0134375,-0.000741473,0.0330103,0.040111,-0.027415,0.679622,0.0392152,0.0439762,1252,1814,4.68008,-17.5626
35,-790,4.94373,18.9246,0,0,0,0,0,0,0,-1,1259,1814,4.94373,-18.9246
42,-790,5.86304,18.7112,0,0,0,0,0,0,0,-1,1266,1814,5.86308,-18.7112
49,-790,5.29016,18.4342,0.0345368,-0.0026885,0.0143382,0.0394191,-0.00757083,0.328198,0.0291328,0.0468023,1273,1814,5.29015,-18.4342
56,-790,4.98596,18.2872,0.0478006,0.00168,0.00708462,0.0488644,0.000616258,0.149034,0.0323728,0.0475268,1280,1814,4.98591,-18.2872
63,-790,4.69873,18.2266,0.06557,0.00735682,-0.00153946,0.0656106,0.00731613,-0.0264206,0.0415172,0.0462647,1287,1814,4.69869,-18.2265
70,-790,4.67737,18.0548,0.0858025,0.0140674,-0.010981,0.0874458,0.0124241,-0.148547,0.0546288,0.0421752,1294,1814,4.67742,-18.0548
77,-790,4.22034,16.4529,0.107922,0.0225633,-0.0219553,0.113238,0.0172472,-0.237561,0.0704503,0.0439004,1301,1814,4.22028,-16.4529
84,-790,4.2373,16.0332,0.131132,0.0346046,-0.0335542,0.14165,0.0240868,-0.303756,0.0875164,0.0461813,1308,1814,4.2373,-16.0332
91,-790,4.64319,15.5734,0.152666,0.0479958,-0.0453946,0.169611,0.0310515,-0.357249,0.104276,0.0454505,1315,1814,4.64323,-15.5734
98,-790,9.97607,16.3882,0.168188,0.0624102,-0.0556209,0.192051,0.0385467,-0.405285,0.117316,0.0449503,1322,1814,9.97613,-16.3882
105,-790,10.8549,15.7811,0.177665,0.0748733,-0.0651227,0.20923,0.0433083,-0.451334,0.127526,0.04302,1329,1814,10.8548,-15.7812
112,-790,11.23,16.4819,0.181693,0.0852975,-0.0743558,0.222106,0.0448848,-0.497842,0.135608,0.0480111,1336,1814,11.2299,-16.482
119,-790,11.8538,16.7303,0.17642,0.0928536,-0.0811701,0.22593,0.0433439,-0.547704,0.138452,0.0471002,1343,1814,11.8537,-16.7303
126,-790,12.4631,16.9355,0.162676,0.0953797,-0.084834,0.220291,0.0377645,-0.596597,0.136031,0.0480316,1350,1814,12.4632,-16.9355
133,-790,13.4103,16.7009,0.141092,0.0929527,-0.0849228,0.20529,0.0287544,-0.647305,0.128354,0.0471439,1357,1814,13.4103,-16.7009
140,-790,14.5533,16.6292,0,0,0,0,0,0,0,-1,1364,1814,14.5533,-16.6291
147,-790,3.4906,13.9751,0,0,0,0,0,0,0,-1,1371,1814,3.49064,-13.9751
154,-790,6.34485,-0.540405,0,0,0,0,0,0,0,-1,1378,1814,6.34482,0.540409
161,-790,6.62683,1.1134,0,0,0,0,0,0,0,-1,1385,1814,6.62682,-1.11344
168,-790,7.04077,2.23279,0,0,0,0,0,0,0,-1,1392,1814,7.04082,-2.23275
175,-790,9.03918,3.98535,0,0,0,0,0,0,0,-1,1399,1814,9.0392,-3.98535
182,-790,8.96997,5.67896,0,0,0,0,0,0,0,-1,1406,1814,8.97001,-5.6789
189,-790,8.59729,6.86975,0,0,0,0,0,0,0,-1,1413,1814,8.59728,-6.86972
196,-790,8.21924,9.29053,0,0,0,0,0,0,0,-1,1420,1814,8.21924,-9.29048
203,-790,0,0,0,0,0,0,0,0,0,-1,1427,1814,0,0
210,-790,0,0,0,0,0,0,0,0,0,-1,1434,1814,0,0
217,-790,0,0,0,0,0,0,0,0,0,-1,1441,1814,0,0
224,-790,0,0,0,0,0,0,0,0,0,-1,1448,1814,0,0
231,-790,0,0,0,0,0,0,0,0,0,-1,1455,1814,0,0
238,-790,0,0,0,0,0,0,0,0,0,-1,1462,1814,0,0
245,-790,0,0,0,0,0,0,0,0,0,-1,1469,1814,0,0
252,-790,0,0,0,0,0,0,0,0,0,-1,1476,1814,0,0
259,-790,0,0,0,0,0,0,0,0,0,-1,1483,1814,0,0
266,-790,0,0,0,0,0,0,0,0,0,-1,1490,1814,0,0
273,-790,0,0,0,0,0,0,0,0,0,-1,1497,1814,0,0
280,-790,0,0,0,0,0,0,0,0,0,-1,1504,1814,0,0
287,-790,0,0,0,0,0,0,0,0,0,-1,1511,1814,0,0
294,-790,0,0,0,0,0,0,0,0,0,-1,1518,1814,0,0
301,-790,0,0,0,0,0,0,0,0,0,-1,1525,1814,0,0
308,-790,0,0,0,0,0,0,0,0,0,-1,1532,1814,0,0
315,-790,0,0,0,0,0,0,0,0,0,-1,1539,1814,0,0
322,-790,0,0,0,0,0,0,0,0,0,-1,1546,1814,0,0
329,-790,0,0,0,0,0,0,0,0,0,-1,1553,1814,0,0
336,-790,0,0,0,0,0,0,0,0,0,-1,1560,1814,0,0
343,-790,0,0,0,0,0,0,0,0,0,-1,1567,1814,0,0
350,-790,0,0,0,0,0,0,0,0,0,-1,1574,1814,0,0
357,-790,0,0,0,0,0,0,0,0,0,-1,1581,1814,0,0
364,-790,0,0,0,0,0,0,0,0,0,-1,1588,1814,0,0
371,-790,0,0,0,0,0,0,0,0,0,-1,1595,1814,0,0
378,-790,0,0,0,0,0,0,0,0,0,-1,1602,1814,0,0
385,-790,0,0,0,0,0,0,0,0,0,-1,1609,1814,0,0
392,-790,0,0,0,0,0,0,0,0,0,-1,1616,1814,0,0
399,-790,0,0,0,0,0,0,0,0,0,-1,1623,1814,0,0
406,-790,0,0,0,0,0,0,0,0,0,-1,1630,1814,0,0
413,-790,0,0,0,0,0,0,0,0,0,-1,1637,1814,0,0
420,-790,0,0,0,0,0,0,0,0,0,-1,1644,1814,0,0
427,-790,0,0,0,0,0,0,0,0,0,-1,1651,1814,0,0
434,-790,0,0,0,0,0,0,0,0,0,-1,1658,1814,0,0
441,-790,0,0,0,0,0,0,0,0,0,-1,1665,1814,0,0
448,-790,0,0,0,0,0,0,0,0,0,-1,1672,1814,0,0
455,-790,0,0,0,0,0,0,0,0,0,-1,1679,1814,0,0
462,-790,0,0,0,0,0,0,0,0,0,-1,1686,1814,0,0
469,-790,0,0,0,0,0,0,0,0,0,-1,1693,1814,0,0
476,-790,0,0,0,0,0,0,0,0,0,-1,1700,1814,0,0
483,-790,0,0,0,0,0,0,0,0,0,-1,1707,1814,0,0
490,-790,0,0,0,0,0,0,0,0,0,-1,1714,1814,0,0
497,-790,0,0,0,0,0,0,0,0,0,-1,1721,1814,0,0
504,-790,0,0,0,0,0,0,0,0,0,-1,1728,1814,0,0
511,-790,0,0,0,0,0,0,0,0,0,-1,1735,1814,0,0
518,-790,0,0,0,0,0,0,0,0,0,-1,1742,1814,0,0
525,-790,0,0,0,0,0,0,0,0,0,-1,1749,1814,0,0
532,-790,0,0,0,0,0,0,0,0,0,-1,1756,1814,0,0
539,-790,0,0,0,0,0,0,0,0,0,-1,1763,1814,0,0
546,-790,0,0,0,0,0,0,0,0,0,-1,1770,1814,0,0
553,-790,0,0,0,0,0,0,0,0,0,-1,1777,1814,0,0
560,-790,0,0,0,0,0,0,0,0,0,-1,1784,1814,0,0
567,-790,0,0,0,0,0,0,0,0,0,-1,1791,1814,0,0
574,-790,0,0,0,0,0,0,0,0,0,-1,1798,1814,0,0
581,-790,0,0,0,0,0,0,0,0,0,-1,1805,1814,0,0
588,-790,0,0,0,0,0,0,0,0,0,-1,1812,1814,0,0
595,-790,0,0,0,0,0,0,0,0,0,-1,1819,1814,0,0
602,-790,0,0,0,0,0,0,0,0,0,-1,1826,1814,0,0
609,-790,0,0,0,0,0,0,0,0,0,-1,1833,1814,0,0
616,-790,0,0,0,0,0,0,0,0,0,-1,1840,1814,0,0
623,-790,0,0,0,0,0,0,0,0,0,-1,1847,1814,0,0
630,-790,0,0,0,0,0,0,0,0,0,-1,1854,1814,0,0
637,-790,0,0,0,0,0,0,0,0,0,-1,1861,1814,0,0
644,-790,0,0,0,0,0,0,0,0,0,-1,1868,1814,0,0
651,-790,0,0,0,0,0,0,0,0,0,-1,1875,1814,0,0
658,-790,0,0,0,0,0,0,0,0,0,-1,1882,1814,0,0
665,-790,0,0,0,0,0,0,0,0,0,-1,1889,1814,0,0
672,-790,0,0,0,0,0,0,0,0,0,-1,1896,1814,0,0
679,-790,0,0,0,0,0,0,0,0,0,-1,1903,1814,0,0
686,-790,0,0,0,0,0,0,0,0,0,-1,1910,1814,0,0
693,-790,0,0,0,0,0,0,0,0,0,-1,1917,1814,0,0
700,-790,0,0,0,0,0,0,0,0,0,-1,1924,1814,0,0
707,-790,0,0,0,0,0,0,0,0,0,-1,1931,1814,0,0
714,-790,0,0,0,0,0,0,0,0,0,-1,1938,1814,0,0
721,-790,0,0,0,0,0,0,0,0,0,-1,1945,1814,0,0
728,-790,0,0,0,0,0,0,0,0,0,-1,1952,1814,0,0
735,-790,0,0,0,0,0,0,0,0,0,-1,1959,1814,0,0
742,-790,0,0,0,0,0,0,0,0,0,-1,1966,1814,0,0
749,-790,0,0,0,0,0,0,0,0,0,-1,1973,1814,0,0
756,-790,0,0,0,0,0,0,0,0,0,-1,1980,1814,0,0
763,-790,0,0,0,0,0,0,0,0,0,-1,1987,1814,0,0
770,-790,0,0,0,0,0,0,0,0,0,-1,1994,1814,0,0
777,-790,0,0,0,0,0,0,0,0,0,-1,2001,1814,0,0
784,-790,0,0,0,0,0,0,0,0,0,-1,2008,1814,0,0
791,-790,0,0,0,0,0,0,0,0,0,-1,2015,1814,0,0
798,-790,0,0,0,0,0,0,0,0,0,-1,2022,1814,0,0
805,-790,0,0,0,0,0,0,0,0,0,-1,2029,1814,0,0
812,-790,0,0,0,0,0,0,0,0,0,-1,2036,1814,0,0
-700,-797,0,0,0,0,0,0,0,0,0,-1,524,1821,0,0
-693,-797,0,0,0,0,0,0,0,0,0,-1,531,1821,0,0
-686,-797,0,0,0,0,0,0,0,0,0,-1,538,1821,0,0
-679,-797,0,0,0,0,0,0,0,0,0,-1,545,1821,0,0
-672,-797,0,0,0,0,0,0,0,0,0,-1,552,1821,0,0
-665,-797,0,0,0,0,0,0,0,0,0,-1,559,1821,0,0
-658,-797,0,0,0,0,0,0,0,0,0,-1,566,1821,0,0
-651,-797,0,0,0,0,0,0,0,0,0,-1,573,1821,0,0
-644,-797,0,0,0,0,0,0,0,0,0,-1,580,1821,0,0
-637,-797,0,0,0,0,0,0,0,0,0,-1,587,1821,0,0
-630,-797,0,0,0,0,0,0,0,0,0,-1,594,1821,0,0
-623,-797,0,0,0,0,0,0,0,0,0,-1,601,1821,0,0
-616,-797,0,0,0,0,0,0,0,0,0,-1,608,1821,0,0
-609,-797,0,0,0,0,0,0,0,0,0,-1,615,1821,0,0
-602,-797,0,0,0,0,0,0,0,0,0,-1,622,1821,0,0
-595,-797,0,0,0,0,0,0,0,0,0,-1,629,1821,0,0
-588,-797,0,0,0,0,0,0,0,0,0,-1,636,1821,0,0
-581,-797,0,0,0,0,0,0,0,0,0,-1,643,1821,0,0
-574,-797,0,0,0,0,0,0,0,0,0,-1,650,1821,0,0
-567,-797,0,0,0,0,0,0,0,0,0,-1,657,1821,0,0
-560,-797,0,0,0,0,0,0,0,0,0,-1,664,1821,0,0
-553,-797,0,0,0,0,0,0,0,0,0,-1,671,1821,0,0
-546,-797,0,0,0,0,0,0,0,0,0,-1,678,1821,0,0
-539,-797,0,0,0,0,0,0,0,0,0,-1,685,1821,0,0
-532,-797,0,0,0,0,0,0,0,0,0,-1,692,1821,0,0
-525,-797,0,0,0,0,0,0,0,0,0,-1,699,1821,0,0
-518,-797,0,0,0,0,0,0,0,0,0,-1,706,1821,0,0
-511,-797,0,0,0,0,0,0,0,0,0,-1,713,1821,0,0
-504,-797,0,0,0,0,0,0,0,0,0,-1,720,1821,0,0
-497,-797,0,0,0,0,0,0,0,0,0,-1,727,1821,0,0
-490,-797,0,0,0,0,0,0,0,0,0,-1,734,1821,0,0
-483,-797,0,0,0,0,0,0,0,0,0,-1,741,1821,0,0
-476,-797,0,0,0,0,0,0,0,0,0,-1,748,1821,0,0
-469,-797,0,0,0,0,0,0,0,0,0,-1,755,1821,0,0
-462,-797,0,0,0,0,0,0,0,0,0,-1,762,1821,0,0
-455,-797,0,0,0,0,0,0,0,0,0,-1,769,1821,0,0
-448,-797,0,0,0,0,0,0,0,0,0,-1,776,1821,0,0
-441,-797,0,0,0,0,0,0,0,0,0,-1,783,1821,0,0
-434,-797,0,0,0,0,0,0,0,0,0,-1,790,1821,0,0
-427,-797,0,0,0,0,0,0,0,0,0,-1,797,1821,0,0
-420,-797,0,0,0,0,0,0,0,0,0,-1,804,1821,0,0
-413,-797,0,0,0,0,0,0,0,0,0,-1,811,1821,0,0
-406,-797,0,0,0,0,0,0,0,0,0,-1,818,1821,0,0
-399,-797,0,0,0,0,0,0,0,0,0,-1,825,1821,0,0
-392,-797,0,0,0,0,0,0,0,0,0,-1,832,1821,0,0
-385,-797,0,0,0,0,0,0,0,0,0,-1,839,1821,0,0
-378,-797,0,0,0,0,0,0,0,0,0,-1,846,1821,0,0
-371,-797,0,0,0,0,0,0,0,0,0,-1,853,1821,0,0
-364,-797,0,0,0,0,0,0,0,0,0,-1,860,1821,0,0
-357,-797,0,0,0,0,0,0,0,0,0,-1,867,1821,0,0
-350,-797,0,0,0,0,0,0,0,0,0,-1,874,1821,0,0
-343,-797,0,0,0,0,0,0,0,0,0,-1,881,1821,0,0
-336,-797,0,0,0,0,0,0,0,0,0,-1,888,1821,0,0
-329,-797,0,0,0,0,0,0,0,0,0,-1,895,1821,0,0
-322,-797,0,0,0,0,0,0,0,0,0,-1,902,1821,0,0
-315,-797,0,0,0,0,0,0,0,0,0,-1,909,1821,0,0
-308,-797,0,0,0,0,0,0,0,0,0,-1,916,1821,0,0
-301,-797,0,0,0,0,0,0,0,0,0,-1,923,1821,0,0
-294,-797,0,0,0,0,0,0,0,0,0,-1,930,1821,0,0
-287,-797,0,0,0,0,0,0,0,0,0,-1,937,1821,0,0
-280,-797,0,0,0,0,0,0,0,0,0,-1,944,1821,0,0
-273,-797,0,0,0,0,0,0,0,0,0,-1,951,1821,0,0
-266,-797,0,0,0,0,0,0,0,0,0,-1,958,1821,0,0
-259,-797,0,0,0,0,0,0,0,0,0,-1,965,1821,0,0
-252,-797,0,0,0,0,0,0,0,0,0,-1,972,1821,0,0
-245,-797,0,0,0,0,0,0,0,0,0,-1,979,1821,0,0
-238,-797,0,0,0,0,0,0,0,0,0,-1,986,1821,0,0
-231,-797,0,0,0,0,0,0,0,0,0,-1,993,1821,0,0
-224,-797,0,0,0,0,0,0,0,0,0,-1,1000,1821,0,0
-217,-797,0,0,0,0,0,0,0,0,0,-1,1007,1821,0,0
-210,-797,0,0,0,0,0,0,0,0,0,-1,1014,1821,0,0
-203,-797,0,0,0,0,0,0,0,0,0,-1,1021,1821,0,0
-196,-797,0,0,0,0,0,0,0,0,0,-1,1028,1821,0,0
-189,-797,0,0,0,0,0,0,0,0,0,-1,1035,1821,0,0
-182,-797,0,0,0,0,0,0,0,0,0,-1,1042,1821,0,0
-175,-797,0,0,0,0,0,0,0,0,0,-1,1049,1821,0,0
-168,-797,0,0,0,0,0,0,0,0,0,-1,1056,1821,0,0
-161,-797,0,0,0,0,0,0,0,0,0,-1,1063,1821,0,0
-154,-797,0,0,0,0,0,0,0,0,0,-1,1070,1821,0,0
-147,-797,0,0,0,0,0,0,0,0,0,-1,1077,1821,0,0
-140,-797,0,0,0,0,0,0,0,0,0,-1,1084,1821,0,0
-133,-797,0,0,0,0,0,0,0,0,0,-1,1091,1821,0,0
-126,-797,0,0,0,0,0,0,0,0,0,-1,1098,1821,0,0
-119,-797,0,0,0,0,0,0,0,0,0,-1,1105,1821,0,0
-112,-797,0,0,0,0,0,0,0,0,0,-1,1112,1821,0,0
-105,-797,0,0,0,0,0,0,0,0,0,-1,1119,1821,0,0
-98,-797,0,0,0,0,0,0,0,0,0,-1,1126,1821,0,0
-91,-797,0,0,0,0,0,0,0,0,0,-1,1133,1821,0,0
-84,-797,0,0,0,0,0,0,0,0,0,-1,1140,1821,0,0
-77,-797,0,0,0,0,0,0,0,0,0,-1,1147,1821,0,0
-70,-797,0,0,0,0,0,0,0,0,0,-1,1154,1821,0,0
-63,-797,0,0,0,0,0,0,0,0,0,-1,1161,1821,0,0
-56,-797,0,0,0,0,0,0,0,0,0,-1,1168,1821,0,0
-49,-797,0,0,0,0,0,0,0,0,0,-1,1175,1821,0,0
-42,-797,0.579834,0.692871,0,0,0,0,0,0,0,-1,1182,1821,0.579856,-0.692816
-35,-797,-0.185425,5.55396,0,0,0,0,0,0,0,-1,1189,1821,-0.18542,-5.55396
-28,-797,-0.310181,4.71509,0,0,0,0,0,0,0,-1,1196,1821,-0.310228,-4.71503
-21,-797,4.86731,27.1334,0,0,0,0,0,0,0,-1,1203,1821,4.86733,-27.1334
-14,-797,3.68335,18.0508,0,0,0,0,0,0,0,-1,1210,1821,3.68337,-18.0507
-7,-797,4.44275,18.4478,0,0,0,0,0,0,0,-1,1217,1821,4.44269,-18.4478
0,-797,5.27124,19.2321,0,0,0,0,0,0,0,-1,1224,1821,5.27129,-19.2321
7,-797,5.53381,19.7306,0,0,0,0,0,0,0,-1,1231,1821,5.53381,-19.7306
14,-797,3.2334,17.3656,0,0,0,0,0,0,0,-1,1238,1821,3.23344,-17.3656
21,-797,3.55713,17.3694,0.0254608,0.00327961,0.0487122,0.064329,-0.0355886,0.673468,0.0584776,0.0463928,1245,1821,3.55712,-17.3693
28,-797,3.86963,17.3574,0.0180045,0.000415423,0.0431923,0.0532886,-0.0348686,0.684964,0.0512666,0.0439276,1252,1821,3.86959,-17.3574
35,-797,4.17407,17.2802,0.0129479,-0.00377187,0.0378741,0.0433738,-0.0341978,0.676776,0.0448903,0.049963,1259,1821,4.17413,-17.2802
42,-797,4.55713,17.2091,0,0,0,0,0,0,0,-1,1266,1821,4.55712,-17.2092
49,-797,4.9967,18.2595,0,0,0,0,0,0,0,-1,1273,1821,4.99668,-18.2595
56,-797,4.74438,18.2517,0.0561937,-0.00273554,0.012617,0.0587815,-0.00532326,0.202293,0.0410772,0.0450497,1280,1821,4.74437,-18.2517
63,-797,4.48511,18.2355,0.0778184,0.0023042,0.00237843,0.0778933,0.00222937,0.0314549,0.0512019,0.0419993,1287,1821,4.48516,-18.2355
70,-797,4.31116,18.4532,0.102895,0.00919393,-0.0091161,0.103774,0.00831528,-0.0960883,0.0665842,0.0403925,1294,1821,4.31112,-18.4532
77,-797,4.28992,18.177,0.130407,0.0182828,-0.0220426,0.134585,0.0141052,-0.187307,0.0854107,0.0423755,1301,1821,4.2899,-18.177
84,-797,4.26636,18.0018,0.159304,0.0322769,-0.0358634,0.16873,0.0228511,-0.257013,0.105696,0.0461534,1308,1821,4.26642,-18.0018
91,-797,4.48474,17.8092,0.186653,0.0480356,-0.0501126,0.202872,0.0318167,-0.313009,0.125989,0.0463308,1315,1821,4.48471,-17.8092
98,-797,11.8483,13.4187,0.206993,0.0662144,-0.0624977,0.230734,0.0424729,-0.363042,0.141801,0.0438894,1322,1821,11.8482,-13.4187
105,-797,12.0835,14.8613,0.219334,0.0826775,-0.0742102,0.251882,0.0501301,-0.413319,0.153956,0.0450603,1329,1821,12.0835,-14.8613
112,-797,12.4938,15.9792,0.224433,0.096452,-0.0855462,0.267274,0.0536111,-0.464281,0.163273,0.0456549,1336,1821,12.4938,-15.9792
119,-797,12.6702,16.6073,0.216873,0.10694,-0.0938557,0.270673,0.05314,-0.520499,0.165602,0.0448978,1343,1821,12.6702,-16.6073
126,-797,12.7706,17.0381,0,0,0,0,0,0,0,-1,1350,1821,12.7706,-17.0381
133,-797,14.8259,15.7958,0,0,0,0,0,0,0,-1,1357,1821,14.826,-15.7958
140,-797,16.1001,15.882,0,0,0,0,0,0,0,-1,1364,1821,16.1001,-15.882
147,-797,5.44116,15.9459,0,0,0,0,0,0,0,-1,1371,1821,5.44118,-15.9459
154,-797,14.49,10.5256,0,0,0,0,0,0,0,-1,1378,1821,14.49,-10.5256
161,-797,6.79199,1.12952,0,0,0,0,0,0,0,-1,1385,1821,6.79203,-1.12957
168,-797,0,0,0,0,0,0,0,0,0,-1,1392,1821,0,0
175,-797,0,0,0,0,0,0,0,0,0,-1,1399,1821,0,0
182,-797,0,0,0,0,0,0,0,0,0,-1,1406,1821,0,0
189,-797,0,0,0,0,0,0,0,0,0,-1,1413,1821,0,0
196,-797,0,0,0,0,0,0,0,0,0,-1,1420,1821,0,0
203,-797,0,0,0,0,0,0,0,0,0,-1,1427,1821,0,0
210,-797,0,0,0,0,0,0,0,0,0,-1,1434,1821,0,0
217,-797,0,0,0,0,0,0,0,0,0,-1,1441,1821,0,0
224,-797,0,0,0,0,0,0,0,0,0,-1,1448,1821,0,0
231,-797,0,0,0,0,0,0,0,0,0,-1,1455,1821,0,0
238,-797,0,0,0,0,0,0,0,0,0,-1,1462,1821,0,0
245,-797,0,0,0,0,0,0,0,0,0,-1,1469,1821,0,0
252,-797,0,0,0,0,0,0,0,0,0,-1,1476,1821,0,0
259,-797,0,0,0,0,0,0,0,0,0,-1,1483,1821,0,0
266,-797,0,0,0,0,0,0,0,0,0,-1,1490,1821,0,0
273,-797,0,0,0,0,0,0,0,0,0,-1,1497,1821,0,0
280,-797,0,0,0,0,0,0,0,0,0,-1,1504,1821,0,0
287,-797,0,0,0,0,0,0,0,0,0,-1,1511,1821,0,0
294,-797,0,0,0,0,0,0,0,0,0,-1,1518,1821,0,0
301,-797,0,0,0,0,0,0,0,0,0,-1,1525,1821,0,0
308,-797,0,0,0,0,0,0,0,0,0,-1,1532,1821,0,0
315,-797,0,0,0,0,0,0,0,0,0,-1,1539,1821,0,0
322,-797,0,0,0,0,0,0,0,0,0,-1,1546,1821,0,0
329,-797,0,0,0,0,0,0,0,0,0,-1,1553,1821,0,0
336,-797,0,0,0,0,0,0,0,0,0,-1,1560,1821,0,0
343,-797,0,0,0,0,0,0,0,0,0,-1,1567,1821,0,0
350,-797,0,0,0,0,0,0,0,0,0,-1,1574,1821,0,0
357,-797,0,0,0,0,0,0,0,0,0,-1,1581,1821,0,0
364,-797,0,0,0,0,0,0,0,0,0,-1,1588,1821,0,0
371,-797,0,0,0,0,0,0,0,0,0,-1,1595,1821,0,0
378,-797,0,0,0,0,0,0,0,0,0,-1,1602,1821,0,0
385,-797,0,0,0,0,0,0,0,0,0,-1,1609,1821,0,0
392,-797,0,0,0,0,0,0,0,0,0,-1,1616,1821,0,0
399,-797,0,0,0,0,0,0,0,0,0,-1,1623,1821,0,0
406,-797,0,0,0,0,0,0,0,0,0,-1,1630,1821,0,0
413,-797,0,0,0,0,0,0,0,0,0,-1,1637,1821,0,0
420,-797,0,0,0,0,0,0,0,0,0,-1,1644,1821,0,0
427,-797,0,0,0,0,0,0,0,0,0,-1,1651,1821,0,0
434,-797,0,0,0,0,0,0,0,0,0,-1,1658,1821,0,0
441,-797,0,0,0,0,0,0,0,0,0,-1,1665,1821,0,0
448,-797,0,0,0,0,0,0,0,0,0,-1,1672,1821,0,0
455,-797,0,0,0,0,0,0,0,0,0,-1,1679,1821,0,0
462,-797,0,0,0,0,0,0,0,0,0,-1,1686,1821,0,0
469,-797,0,0,0,0,0,0,0,0,0,-1,1693,1821,0,0
476,-797,0,0,0,0,0,0,0,0,0,-1,1700,1821,0,0
483,-797,0,0,0,0,0,0,0,0,0,-1,1707,1821,0,0
490,-797,0,0,0,0,0,0,0,0,0,-1,1714,1821,0,0
497,-797,0,0,0,0,0,0,0,0,0,-1,1721,1821,0,0
504,-797,0,0,0,0,0,0,0,0,0,-1,1728,1821,0,0
511,-797,0,0,0,0,0,0,0,0,0,-1,1735,1821,0,0
518,-797,0,0,0,0,0,0,0,0,0,-1,1742,1821,0,0
525,-797,0,0,0,0,0,0,0,0,0,-1,1749,1821,0,0
532,-797,0,0,0,0,0,0,0,0,0,-1,1756,1821,0,0
539,-797,0,0,0,0,0,0,0,0,0,-1,1763,1821,0,0
546,-797,0,0,0,0,0,0,0,0,0,-1,1770,1821,0,0
553,-797,0,0,0,0,0,0,0,0,0,-1,1777,1821,0,0
560,-797,0,0,0,0,0,0,0,0,0,-1,1784,1821,0,0
567,-797,0,0,0,0,0,0,0,0,0,-1,1791,1821,0,0
574,-797,0,0,0,0,0,0,0,0,0,-1,1798,1821,0,0
581,-797,0,0,0,0,0,0,0,0,0,-1,1805,1821,0,0
588,-797,0,0,0,0,0,0,0,0,0,-1,1812,1821,0,0
595,-797,0,0,0,0,0,0,0,0,0,-1,1819,1821,0,0
602,-797,0,0,0,0,0,0,0,0,0,-1,1826,1821,0,0
609,-797,0,0,0,0,0,0,0,0,0,-1,1833,1821,0,0
616,-797,0,0,0,0,0,0,0,0,0,-1,1840,1821,0,0
623,-797,0,0,0,0,0,0,0,0,0,-1,1847,1821,0,0
630,-797,0,0,0,0,0,0,0,0,0,-1,1854,1821,0,0
637,-797,0,0,0,0,0,0,0,0,0,-1,1861,1821,0,0
644,-797,0,0,0,0,0,0,0,0,0,-1,1868,1821,0,0
651,-797,0,0,0,0,0,0,0,0,0,-1,1875,1821,0,0
658,-797,0,0,0,0,0,0,0,0,0,-1,1882,1821,0,0
665,-797,0,0,0,0,0,0,0,0,0,-1,1889,1821,0,0
672,-797,0,0,0,0,0,0,0,0,0,-1,1896,1821,0,0
679,-797,0,0,0,0,0,0,0,0,0,-1,1903,1821,0,0
686,-797,0,0,0,0,0,0,0,0,0,-1,1910,1821,0,0
693,-797,0,0,0,0,0,0,0,0,0,-1,1917,1821,0,0
700,-797,0,0,0,0,0,0,0,0,0,-1,1924,1821,0,0
707,-797,0,0,0,0,0,0,0,0,0,-1,1931,1821,0,0
714,-797,0,0,0,0,0,0,0,0,0,-1,1938,1821,0,0
721,-797,0,0,0,0,0,0,0,0,0,-1,1945,1821,0,0
728,-797,0,0,0,0,0,0,0,0,0,-1,1952,1821,0,0
735,-797,0,0,0,0,0,0,0,0,0,-1,1959,1821,0,0
742,-797,0,0,0,0,0,0,0,0,0,-1,1966,1821,0,0
749,-797,0,0,0,0,0,0,0,0,0,-1,1973,1821,0,0
756,-797,0,0,0,0,0,0,0,0,0,-1,1980,1821,0,0
763,-797,0,0,0,0,0,0,0,0,0,-1,1987,1821,0,0
770,-797,0,0,0,0,0,0,0,0,0,-1,1994,1821,0,0
777,-797,0,0,0,0,0,0,0,0,0,-1,2001,1821,0,0
784,-797,0,0,0,0,0,0,0,0,0,-1,2008,1821,0,0
791,-797,0,0,0,0,0,0,0,0,0,-1,2015,1821,0,0
798,-797,0,0,0,0,0,0,0,0,0,-1,2022,1821,0,0
805,-797,0,0,0,0,0,0,0,0,0,-1,2029,1821,0,0
812,-797,0,0,0,0,0,0,0,0,0,-1,2036,1821,0,0
-700,-804,0,0,0,0,0,0,0,0,0,-1,524,1828,0,0
-693,-804,0,0,0,0,0,0,0,0,0,-1,531,1828,0,0
-686,-804,0,0,0,0,0,0,0,0,0,-1,538,1828,0,0
-679,-804,0,0,0,0,0,0,0,0,0,-1,545,1828,0,0
-672,-804,0,0,0,0,0,0,0,0,0,-1,552,1828,0,0
-665,-804,0,0,0,0,0,0,0,0,0,-1,559,1828,0,0
-658,-804,0,0,0,0,0,0,0,0,0,-1,566,1828,0,0
-651,-804,0,0,0,0,0,0,0,0,0,-1,573,1828,0,0
-644,-804,0,0,0,0,0,0,0,0,0,-1,580,1828,0,0
-637,-804,0,0,0,0,0,0,0,0,0,-1,587,1828,0,0
-630,-804,0,0,0,0,0,0,0,0,0,-1,594,1828,0,0
-623,-804,0,0,0,0,0,0,0,0,0,-1,601,1828,0,0
-616,-804,0,0,0,0,0,0,0,0,0,-1,608,1828,0,0
-609,-804,0,0,0,0,0,0,0,0,0,-1,615,1828,0,0
-602,-804,0,0,0,0,0,0,0,0,0,-1,622,1828,0,0
-595,-804,0,0,0,0,0,0,0,0,0,-1,629,1828,0,0
-588,-804,0,0,0,0,0,0,0,0,0,-1,636,1828,0,0
-581,-804,0,0,0,0,0,0,0,0,0,-1,643,1828,0,0
-574,-804,0,0,0,0,0,0,0,0,0,-1,650,1828,0,0
-567,-804,0,0,0,0,0,0,0,0,0,-1,657,1828,0,0
-560,-804,0,0,0,0,0,0,0,0,0,-1,664,1828,0,0
-553,-804,0,0,0,0,0,0,0,0,0,-1,671,1828,0,0
-546,-804,0,0,0,0,0,0,0,0,0,-1,678,1828,0,0
-539,-804,0,0,0,0,0,0,0,0,0,-1,685,1828,0,0
-532,-804,0,0,0,0,0,0,0,0,0,-1,692,1828,0,0
-525,-804,0,0,0,0,0,0,0,0,0,-1,699,1828,0,0
-518,-804,0,0,0,0,0,0,0,0,0,-1,706,1828,0,0
-511,-804,0,0,0,0,0,0,0,0,0,-1,713,1828,0,0
-504,-804,0,0,0,0,0,0,0,0,0,-1,720,1828,0,0
-497,-804,0,0,0,0,0,0,0,0,0,-1,727,1828,0,0
-490,-804,0,0,0,0,0,0,0,0,0,-1,734,1828,0,0
-483,-804,0,0,0,0,0,0,0,0,0,-1,741,1828,0,0
-476,-804,0,0,0,0,0,0,0,0,0,-1,748,1828,0,0
-469,-804,0,0,0,0,0,0,0,0,0,-1,755,1828,0,0
-462,-804,0,0,0,0,0,0,0,0,0,-1,762,1828,0,0
-455,-804,0,0,0,0,0,0,0,0,0,-1,769,1828,0,0
-448,-804,0,0,0,0,0,0,0,0,0,-1,776,1828,0,0
-441,-804,0,0,0,0,0,0,0,0,0,-1,783,1828,0,0
-434,-804,0,0,0,0,0,0,0,0,0,-1,790,1828,0,0
-427,-804,0,0,0,0,0,0,0,0,0,-1,797,1828,0,0
-420,-804,0,0,0,0,0,0,0,0,0,-1,804,1828,0,0
-413,-804,0,0,0,0,0,0,0,0,0,-1,811,1828,0,0
-406,-804,0,0,0,0,0,0,0,0,0,-1,818,1828,0,0
-399,-804,0,0,0,0,0,0,0,0,0,-1,825,1828,0,0
-392,-804,0,0,0,0,0,0,0,0,0,-1,832,1828,0,0
-385,-804,0,0,0,0,0,0,0,0,0,-1,839,1828,0,0
-378,-804,0,0,0,0,0,0,0,0,0,-1,846,1828,0,0
-371,-804,0,0,0,0,0,0,0,0,0,-1,853,1828,0,0
-364,-804,0,0,0,0,0,0,0,0,0,-1,860,1828,0,0
-357,-804,0,0,0,0,0,0,0,0,0,-1,867,1828,0,0
-350,-804,0,0,0,0,0,0,0,0,0,-1,874,1828,0,0
-343,-804,0,0,0,0,0,0,0,0,0,-1,881,1828,0,0
-336,-804,0,0,0,0,0,0,0,0,0,-1,888,1828,0,0
-329,-804,0,0,0,0,0,0,0,0,0,-1,895,1828,0,0
-322,-804,0,0,0,0,0,0,0,0,0,-1,902,1828,0,0
-315,-804,0,0,0,0,0,0,0,0,0,-1,909,1828,0,0
-308,-804,0,0,0,0,0,0,0,0,0,-1,916,1828,0,0
-301,-804,0,0,0,0,0,0,0,0,0,-1,923,1828,0,0
-294,-804,0,0,0,0,0,0,0,0,0,-1,930,1828,0,0
-287,-804,0,0,0,0,0,0,0,0,0,-1,937,1828,0,0
-280,-804,0,0,0,0,0,0,0,0,0,-1,944,1828,0,0
-273,-804,0,0,0,0,0,0,0,0,0,-1,951,1828,0,0
-266,-804,0,0,0,0,0,0,0,0,0,-1,958,1828,0,0
-259,-804,0,0,0,0,0,0,0,0,0,-1,965,1828,0,0
-252,-804,0,0,0,0,0,0,0,0,0,-1,972,1828,0,0
-245,-804,0,0,0,0,0,0,0,0,0,-1,979,1828,0,0
-238,-804,0,0,0,0,0,0,0,0,0,-1,986,1828,0,0
-231,-804,0,0,0,0,0,0,0,0,0,-1,993,1828,0,0
-224,-804,0,0,0,0,0,0,0,0,0,-1,1000,1828,0,0
-217,-804,0,0,0,0,0,0,0,0,0,-1,1007,1828,0,0
-210,-804,0,0,0,0,0,0,0,0,0,-1,1014,1828,0,0
-203,-804,0,0,0,0,0,0,0,0,0,-1,1021,1828,0,0
-196,-804,0,0,0,0,0,0,0,0,0,-1,1028,1828,0,0
-189,-804,0,0,0,0,0,0,0,0,0,-1,1035,1828,0,0
-182,-804,0,0,0,0,0,0,0,0,0,-1,1042,1828,0,0
-175,-804,0,0,0,0,0,0,0,0,0,-1,1049,1828,0,0
-168,-804,0,0,0,0,0,0,0,0,0,-1,1056,1828,0,0
-161,-804,0,0,0,0,0,0,0,0,0,-1,1063,1828,0,0
-154,-804,0,0,0,0,0,0,0,0,0,-1,1070,1828,0,0
-147,-804,0,0,0,0,0,0,0,0,0,-1,1077,1828,0,0
-140,-804,0,0,0,0,0,0,0,0,0,-1,1084,1828,0,0
-133,-804,0,0,0,0,0,0,0,0,0,-1,1091,1828,0,0
-126,-804,0,0,0,0,0,0,0,0,0,-1,1098,1828,0,0
-119,-804,0,0,0,0,0,0,0,0,0,-1,1105,1828,0,0
-112,-804,0,0,0,0,0,0,0,0,0,-1,1112,1828,0,0
-105,-804,0,0,0,0,0,0,0,0,0,-1,1119,1828,0,0
-98,-804,0,0,0,0,0,0,0,0,0,-1,1126,1828,0,0
-91,-804,0,0,0,0,0,0,0,0,0,-1,1133,1828,0,0
-84,-804,0,0,0,0,0,0,0,0,0,-1,1140,1828,0,0
-77,-804,0,0,0,0,0,0,0,0,0,-1,1147,1828,0,0
-70,-804,0,0,0,0,0,0,0,0,0,-1,1154,1828,0,0
-63,-804,0,0,0,0,0,0,0,0,0,-1,1161,1828,0,0
-56,-804,0,0,0,0,0,0,0,0,0,-1,1168,1828,0,0
-49,-804,0,0,0,0,0,0,0,0,0,-1,1175,1828,0,0
-42,-804,0,0,0,0,0,0,0,0,0,-1,1182,1828,0,0
-35,-804,0,0,0,0,0,0,0,0,0,-1,1189,1828,0,0
-28,-804,0,0,0,0,0,0,0,0,0,-1,1196,1828,0,0
-21,-804,0,0,0,0,0,0,0,0,0,-1,1203,1828,0,0
-14,-804,0,0,0,0,0,0,0,0,0,-1,1210,1828,0,0
-7,-804,0,0,0,0,0,0,0,0,0,-1,1217,1828,0,0
0,-804,0,0,0,0,0,0,0,0,0,-1,1224,1828,0,0
7,-804,0,0,0,0,0,0,0,0,0,-1,1231,1828,0,0
14,-804,0,0,0,0,0,0,0,0,0,-1,1238,1828,0,0
21,-804,0,0,0,0,0,0,0,0,0,-1,1245,1828,0,0
28,-804,0,0,0,0,0,0,0,0,0,-1,1252,1828,0,0
35,-804,3.12927,16.8511,0.0154735,-0.0040797,0.0500582,0.0567008,-0.0453071,0.68896,0.0590166,0.0472572,1259,1828,3.12922,-16.8511
42,-804,3.55737,16.967,0,0,0,0,0,0,0,-1,1266,1828,3.55737,-16.967
49,-804,4.8031,18.1694,0,0,0,0,0,0,0,-1,1273,1828,4.8031,-18.1694
56,-804,4.52991,18.2264,0.0627891,-0.0102156,0.02088,0.0683391,-0.0157655,0.259795,0.0516234,0.0483152,1280,1828,4.52996,-18.2264
63,-804,4.00146,19.0961,0.0885851,-0.00690191,0.00896746,0.0894199,-0.00773678,0.0928314,0.0623524,0.0482656,1287,1828,4.00151,-19.096
70,-804,3.93579,18.8202,0.119148,-0.000538049,-0.00475409,0.119337,-0.000726592,-0.039638,0.0798011,0.0469677,1294,1828,3.93578,-18.8201
77,-804,3.89392,18.5221,0,0,0,0,0,0,0,-1,1301,1828,3.89395,-18.5221
84,-804,4.18445,18.2067,0,0,0,0,0,0,0,-1,1308,1828,4.18445,-18.2066
91,-804,0,0,0,0,0,0,0,0,0,-1,1315,1828,0,0
98,-804,0,0,0,0,0,0,0,0,0,-1,1322,1828,0,0
105,-804,0,0,0,0,0,0,0,0,0,-1,1329,1828,0,0
112,-804,0,0,0,0,0,0,0,0,0,-1,1336,1828,0,0
119,-804,0,0,0,0,0,0,0,0,0,-1,1343,1828,0,0
126,-804,0,0,0,0,0,0,0,0,0,-1,1350,1828,0,0
133,-804,0,0,0,0,0,0,0,0,0,-1,1357,1828,0,0
140,-804,0,0,0,0,0,0,0,0,0,-1,1364,1828,0,0
147,-804,0,0,0,0,0,0,0,0,0,-1,1371,1828,0,0
154,-804,0,0,0,0,0,0,0,0,0,-1,1378,1828,0,0
161,-804,0,0,0,0,0,0,0,0,0,-1,1385,1828,0,0
168,-804,0,0,0,0,0,0,0,0,0,-1,1392,1828,0,0
175,-804,0,0,0,0,0,0,0,0,0,-1,1399,1828,0,0
182,-804,0,0,0,0,0,0,0,0,0,-1,1406,1828,0,0
189,-804,0,0,0,0,0,0,0,0,0,-1,1413,1828,0,0
196,-804,0,0,0,0,0,0,0,0,0,-1,1420,1828,0,0
203,-804,0,0,0,0,0,0,0,0,0,-1,1427,1828,0,0
210,-804,0,0,0,0,0,0,0,0,0,-1,1434,1828,0,0
217,-804,0,0,0,0,0,0,0,0,0,-1,1441,1828,0,0
224,-804,0,0,0,0,0,0,0,0,0,-1,1448,1828,0,0
231,-804,0,0,0,0,0,0,0,0,0,-1,1455,1828,0,0
238,-804,0,0,0,0,0,0,0,0,0,-1,1462,1828,0,0
245,-804,0,0,0,0,0,0,0,0,0,-1,1469,1828,0,0
252,-804,0,0,0,0,0,0,0,0,0,-1,1476,1828,0,0
259,-804,0,0,0,0,0,0,0,0,0,-1,1483,1828,0,0
266,-804,0,0,0,0,0,0,0,0,0,-1,1490,1828,0,0
273,-804,0,0,0,0,0,0,0,0,0,-1,1497,1828,0,0
280,-804,0,0,0,0,0,0,0,0,0,-1,1504,1828,0,0
287,-804,0,0,0,0,0,0,0,0,0,-1,1511,1828,0,0
294,-804,0,0,0,0,0,0,0,0,0,-1,1518,1828,0,0
301,-804,0,0,0,0,0,0,0,0,0,-1,1525,1828,0,0
308,-804,0,0,0,0,0,0,0,0,0,-1,1532,1828,0,0
315,-804,0,0,0,0,0,0,0,0,0,-1,1539,1828,0,0
322,-804,0,0,0,0,0,0,0,0,0,-1,1546,1828,0,0
329,-804,0,0,0,0,0,0,0,0,0,-1,1553,1828,0,0
336,-804,0,0,0,0,0,0,0,0,0,-1,1560,1828,0,0
343,-804,0,0,0,0,0,0,0,0,0,-1,1567,1828,0,0
350,-804,0,0,0,0,0,0,0,0,0,-1,1574,1828,0,0
357,-804,0,0,0,0,0,0,0,0,0,-1,1581,1828,0,0
364,-804,0,0,0,0,0,0,0,0,0,-1,1588,1828,0,0
371,-804,0,0,0,0,0,0,0,0,0,-1,1595,1828,0,0
378,-804,0,0,0,0,0,0,0,0,0,-1,1602,1828,0,0
385,-804,0,0,0,0,0,0,0,0,0,-1,1609,1828,0,0
392,-804,0,0,0,0,0,0,0,0,0,-1,1616,1828,0,0
399,-804,0,0,0,0,0,0,0,0,0,-1,1623,1828,0,0
406,-804,0,0,0,0,0,0,0,0,0,-1,1630,1828,0,0
413,-804,0,0,0,0,0,0,0,0,0,-1,1637,1828,0,0
420,-804,0,0,0,0,0,0,0,0,0,-1,1644,1828,0,0
427,-804,0,0,0,0,0,0,0,0,0,-1,1651,1828,0,0
434,-804,0,0,0,0,0,0,0,0,0,-1,1658,1828,0,0
441,-804,0,0,0,0,0,0,0,0,0,-1,1665,1828,0,0
448,-804,0,0,0,0,0,0,0,0,0,-1,1672,1828,0,0
455,-804,0,0,0,0,0,0,0,0,0,-1,1679,1828,0,0
462,-804,0,0,0,0,0,0,0,0,0,-1,1686,1828,0,0
469,-804,0,0,0,0,0,0,0,0,0,-1,1693,1828,0,0
476,-804,0,0,0,0,0,0,0,0,0,-1,1700,1828,0,0
483,-804,0,0,0,0,0,0,0,0,0,-1,1707,1828,0,0
490,-804,0,0,0,0,0,0,0,0,0,-1,1714,1828,0,0
497,-804,0,0,0,0,0,0,0,0,0,-1,1721,1828,0,0
504,-804,0,0,0,0,0,0,0,0,0,-1,1728,1828,0,0
511,-804,0,0,0,0,0,0,0,0,0,-1,1735,1828,0,0
518,-804,0,0,0,0,0,0,0,0,0,-1,1742,1828,0,0
525,-804,0,0,0,0,0,0,0,0,0,-1,1749,1828,0,0
532,-804,0,0,0,0,0,0,0,0,0,-1,1756,1828,0,0
539,-804,0,0,0,0,0,0,0,0,0,-1,1763,1828,0,0
546,-804,0,0,0,0,0,0,0,0,0,-1,1770,1828,0,0
553,-804,0,0,0,0,0,0,0,0,0,-1,1777,1828,0,0
560,-804,0,0,0,0,0,0,0,0,0,-1,1784,1828,0,0
567,-804,0,0,0,0,0,0,0,0,0,-1,1791,1828,0,0
574,-804,0,0,0,0,0,0,0,0,0,-1,1798,1828,0,0
581,-804,0,0,0,0,0,0,0,0,0,-1,1805,1828,0,0
588,-804,0,0,0,0,0,0,0,0,0,-1,1812,1828,0,0
595,-804,0,0,0,0,0,0,0,0,0,-1,1819,1828,0,0
602,-804,0,0,0,0,0,0,0,0,0,-1,1826,1828,0,0
609,-804,0,0,0,0,0,0,0,0,0,-1,1833,1828,0,0
616,-804,0,0,0,0,0,0,0,0,0,-1,1840,1828,0,0
623,-804,0,0,0,0,0,0,0,0,0,-1,1847,1828,0,0
630,-804,0,0,0,0,0,0,0,0,0,-1,1854,1828,0,0
637,-804,0,0,0,0,0,0,0,0,0,-1,1861,1828,0,0
644,-804,0,0,0,0,0,0,0,0,0,-1,1868,1828,0,0
651,-804,0,0,0,0,0,0,0,0,0,-1,1875,1828,0,0
658,-804,0,0,0,0,0,0,0,0,0,-1,1882,1828,0,0
665,-804,0,0,0,0,0,0,0,0,0,-1,1889,1828,0,0
672,-804,0,0,0,0,0,0,0,0,0,-1,1896,1828,0,0
679,-804,0,0,0,0,0,0,0,0,0,-1,1903,1828,0,0
686,-804,0,0,0,0,0,0,0,0,0,-1,1910,1828,0,0
693,-804,0,0,0,0,0,0,0,0,0,-1,1917,1828,0,0
700,-804,0,0,0,0,0,0,0,0,0,-1,1924,1828,0,0
707,-804,0,0,0,0,0,0,0,0,0,-1,1931,1828,0,0
714,-804,0,0,0,0,0,0,0,0,0,-1,1938,1828,0,0
721,-804,0,0,0,0,0,0,0,0,0,-1,1945,1828,0,0
728,-804,0,0,0,0,0,0,0,0,0,-1,1952,1828,0,0
735,-804,0,0,0,0,0,0,0,0,0,-1,1959,1828,0,0
742,-804,0,0,0,0,0,0,0,0,0,-1,1966,1828,0,0
749,-804,0,0,0,0,0,0,0,0,0,-1,1973,1828,0,0
756,-804,0,0,0,0,0,0,0,0,0,-1,1980,1828,0,0
763,-804,0,0,0,0,0,0,0,0,0,-1,1987,1828,0,0
770,-804,0,0,0,0,0,0,0,0,0,-1,1994,1828,0,0
777,-804,0,0,0,0,0,0,0,0,0,-1,2001,1828,0,0
784,-804,0,0,0,0,0,0,0,0,0,-1,2008,1828,0,0
791,-804,0,0,0,0,0,0,0,0,0,-1,2015,1828,0,0
798,-804,0,0,0,0,0,0,0,0,0,-1,2022,1828,0,0
805,-804,0,0,0,0,0,0,0,0,0,-1,2029,1828,0,0
812,-804,0,0,0,0,0,0,0,0,0,-1,2036,1828,0,0

