 "x_c",  "y_c",  "u_c",  "v_c",  "exx",  "eyy",  "exy",  "e1",  "e2",  "gamma",  "e_vonmises",  "sigma",  "x",  "y",  "u",  "v"
-700,715,0,0,0,0,0,0,0,0,0,-1,524,309,0,0
-693,715,0,0,0,0,0,0,0,0,0,-1,531,309,0,0
-686,715,0,0,0,0,0,0,0,0,0,-1,538,309,0,0
-679,715,0,0,0,0,0,0,0,0,0,-1,545,309,0,0
-672,715,0,0,0,0,0,0,0,0,0,-1,552,309,0,0
-665,715,0,0,0,0,0,0,0,0,0,-1,559,309,0,0
-658,715,0,0,0,0,0,0,0,0,0,-1,566,309,0,0
-651,715,0,0,0,0,0,0,0,0,0,-1,573,309,0,0
-644,715,0,0,0,0,0,0,0,0,0,-1,580,309,0,0
-637,715,0,0,0,0,0,0,0,0,0,-1,587,309,0,0
-630,715,0,0,0,0,0,0,0,0,0,-1,594,309,0,0
-623,715,0,0,0,0,0,0,0,0,0,-1,601,309,0,0
-616,715,0,0,0,0,0,0,0,0,0,-1,608,309,0,0
-609,715,0,0,0,0,0,0,0,0,0,-1,615,309,0,0
-602,715,0,0,0,0,0,0,0,0,0,-1,622,309,0,0
-595,715,0,0,0,0,0,0,0,0,0,-1,629,309,0,0
-588,715,0,0,0,0,0,0,0,0,0,-1,636,309,0,0
-581,715,0,0,0,0,0,0,0,0,0,-1,643,309,0,0
-574,715,0,0,0,0,0,0,0,0,0,-1,650,309,0,0
-567,715,0,0,0,0,0,0,0,0,0,-1,657,309,0,0
-560,715,0,0,0,0,0,0,0,0,0,-1,664,309,0,0
-553,715,0,0,0,0,0,0,0,0,0,-1,671,309,0,0
-546,715,0,0,0,0,0,0,0,0,0,-1,678,309,0,0
-539,715,0,0,0,0,0,0,0,0,0,-1,685,309,0,0
-532,715,0,0,0,0,0,0,0,0,0,-1,692,309,0,0
-525,715,0,0,0,0,0,0,0,0,0,-1,699,309,0,0
-518,715,0,0,0,0,0,0,0,0,0,-1,706,309,0,0
-511,715,0,0,0,0,0,0,0,0,0,-1,713,309,0,0
-504,715,0,0,0,0,0,0,0,0,0,-1,720,309,0,0
-497,715,0,0,0,0,0,0,0,0,0,-1,727,309,0,0
-490,715,0,0,0,0,0,0,0,0,0,-1,734,309,0,0
-483,715,0,0,0,0,0,0,0,0,0,-1,741,309,0,0
-476,715,0,0,0,0,0,0,0,0,0,-1,748,309,0,0
-469,715,0,0,0,0,0,0,0,0,0,-1,755,309,0,0
-462,715,0,0,0,0,0,0,0,0,0,-1,762,309,0,0
-455,715,0,0,0,0,0,0,0,0,0,-1,769,309,0,0
-448,715,0,0,0,0,0,0,0,0,0,-1,776,309,0,0
-441,715,0,0,0,0,0,0,0,0,0,-1,783,309,0,0
-434,715,0,0,0,0,0,0,0,0,0,-1,790,309,0,0
-427,715,0,0,0,0,0,0,0,0,0,-1,797,309,0,0
-420,715,0,0,0,0,0,0,0,0,0,-1,804,309,0,0
-413,715,0,0,0,0,0,0,0,0,0,-1,811,309,0,0
-406,715,0,0,0,0,0,0,0,0,0,-1,818,309,0,0
-399,715,0,0,0,0,0,0,0,0,0,-1,825,309,0,0
-392,715,0,0,0,0,0,0,0,0,0,-1,832,309,0,0
-385,715,0,0,0,0,0,0,0,0,0,-1,839,309,0,0
-378,715,0,0,0,0,0,0,0,0,0,-1,846,309,0,0
-371,715,0,0,0,0,0,0,0,0,0,-1,853,309,0,0
-364,715,0,0,0,0,0,0,0,0,0,-1,860,309,0,0
-357,715,0,0,0,0,0,0,0,0,0,-1,867,309,0,0
-350,715,0,0,0,0,0,0,0,0,0,-1,874,309,0,0
-343,715,0,0,0,0,0,0,0,0,0,-1,881,309,0,0
-336,715,0,0,0,0,0,0,0,0,0,-1,888,309,0,0
-329,715,0,0,0,0,0,0,0,0,0,-1,895,309,0,0
-322,715,0,0,0,0,0,0,0,0,0,-1,902,309,0,0
-315,715,0,0,0,0,0,0,0,0,0,-1,909,309,0,0
-308,715,0,0,0,0,0,0,0,0,0,-1,916,309,0,0
-301,715,0,0,0,0,0,0,0,0,0,-1,923,309,0,0
-294,715,0,0,0,0,0,0,0,0,0,-1,930,309,0,0
-287,715,0,0,0,0,0,0,0,0,0,-1,937,309,0,0
-280,715,0,0,0,0,0,0,0,0,0,-1,944,309,0,0
-273,715,0,0,0,0,0,0,0,0,0,-1,951,309,0,0
-266,715,0,0,0,0,0,0,0,0,0,-1,958,309,0,0
-259,715,0,0,0,0,0,0,0,0,0,-1,965,309,0,0
-252,715,0,0,0,0,0,0,0,0,0,-1,972,309,0,0
-245,715,0,0,0,0,0,0,0,0,0,-1,979,309,0,0
-238,715,0,0,0,0,0,0,0,0,0,-1,986,309,0,0
-231,715,0,0,0,0,0,0,0,0,0,-1,993,309,0,0
-224,715,0,0,0,0,0,0,0,0,0,-1,1000,309,0,0
-217,715,0,0,0,0,0,0,0,0,0,-1,1007,309,0,0
-210,715,0,0,0,0,0,0,0,0,0,-1,1014,309,0,0
-203,715,0,0,0,0,0,0,0,0,0,-1,1021,309,0,0
-196,715,0,0,0,0,0,0,0,0,0,-1,1028,309,0,0
-189,715,0,0,0,0,0,0,0,0,0,-1,1035,309,0,0
-182,715,0,0,0,0,0,0,0,0,0,-1,1042,309,0,0
-175,715,0,0,0,0,0,0,0,0,0,-1,1049,309,0,0
-168,715,0,0,0,0,0,0,0,0,0,-1,1056,309,0,0
-161,715,0,0,0,0,0,0,0,0,0,-1,1063,309,0,0
-154,715,0,0,0,0,0,0,0,0,0,-1,1070,309,0,0
-147,715,0,0,0,0,0,0,0,0,0,-1,1077,309,0,0
-140,715,0,0,0,0,0,0,0,0,0,-1,1084,309,0,0
-133,715,0,0,0,0,0,0,0,0,0,-1,1091,309,0,0
-126,715,0,0,0,0,0,0,0,0,0,-1,1098,309,0,0
-119,715,0,0,0,0,0,0,0,0,0,-1,1105,309,0,0
-112,715,0,0,0,0,0,0,0,0,0,-1,1112,309,0,0
-105,715,0,0,0,0,0,0,0,0,0,-1,1119,309,0,0
-98,715,0,0,0,0,0,0,0,0,0,-1,1126,309,0,0
-91,715,0,0,0,0,0,0,0,0,0,-1,1133,309,0,0
-84,715,0,0,0,0,0,0,0,0,0,-1,1140,309,0,0
-77,715,0,0,0,0,0,0,0,0,0,-1,1147,309,0,0
-70,715,0,0,0,0,0,0,0,0,0,-1,1154,309,0,0
-63,715,0,0,0,0,0,0,0,0,0,-1,1161,309,0,0
-56,715,0,0,0,0,0,0,0,0,0,-1,1168,309,0,0
-49,715,0,0,0,0,0,0,0,0,0,-1,1175,309,0,0
-42,715,0,0,0,0,0,0,0,0,0,-1,1182,309,0,0
-35,715,0,0,0,0,0,0,0,0,0,-1,1189,309,0,0
-28,715,0,0,0,0,0,0,0,0,0,-1,1196,309,0,0
-21,715,0,0,0,0,0,0,0,0,0,-1,1203,309,0,0
-14,715,0,0,0,0,0,0,0,0,0,-1,1210,309,0,0
-7,715,0,0,0,0,0,0,0,0,0,-1,1217,309,0,0
0,715,0,0,0,0,0,0,0,0,0,-1,1224,309,0,0
7,715,0,0,0,0,0,0,0,0,0,-1,1231,309,0,0
14,715,0,0,0,0,0,0,0,0,0,-1,1238,309,0,0
21,715,0,0,0,0,0,0,0,0,0,-1,1245,309,0,0
28,715,0,0,0,0,0,0,0,0,0,-1,1252,309,0,0
35,715,0,0,0,0,0,0,0,0,0,-1,1259,309,0,0
42,715,0,0,0,0,0,0,0,0,0,-1,1266,309,0,0
49,715,0,0,0,0,0,0,0,0,0,-1,1273,309,0,0
56,715,0,0,0,0,0,0,0,0,0,-1,1280,309,0,0
63,715,1.89978,-10.4876,0,0,0,0,0,0,0,-1,1287,309,1.89979,10.4876
70,715,1.44434,-10.2927,0,0,0,0,0,0,0,-1,1294,309,1.44434,10.2927
77,715,0,0,0,0,0,0,0,0,0,-1,1301,309,0,0
84,715,0,0,0,0,0,0,0,0,0,-1,1308,309,0,0
91,715,0,0,0,0,0,0,0,0,0,-1,1315,309,0,0
98,715,0,0,0,0,0,0,0,0,0,-1,1322,309,0,0
105,715,0,0,0,0,0,0,0,0,0,-1,1329,309,0,0
112,715,0,0,0,0,0,0,0,0,0,-1,1336,309,0,0
119,715,0,0,0,0,0,0,0,0,0,-1,1343,309,0,0
126,715,0,0,0,0,0,0,0,0,0,-1,1350,309,0,0
133,715,0,0,0,0,0,0,0,0,0,-1,1357,309,0,0
140,715,0,0,0,0,0,0,0,0,0,-1,1364,309,0,0
147,715,0,0,0,0,0,0,0,0,0,-1,1371,309,0,0
154,715,0,0,0,0,0,0,0,0,0,-1,1378,309,0,0
161,715,0,0,0,0,0,0,0,0,0,-1,1385,309,0,0
168,715,0,0,0,0,0,0,0,0,0,-1,1392,309,0,0
175,715,0,0,0,0,0,0,0,0,0,-1,1399,309,0,0
182,715,0,0,0,0,0,0,0,0,0,-1,1406,309,0,0
189,715,0,0,0,0,0,0,0,0,0,-1,1413,309,0,0
196,715,0,0,0,0,0,0,0,0,0,-1,1420,309,0,0
203,715,0,0,0,0,0,0,0,0,0,-1,1427,309,0,0
210,715,0,0,0,0,0,0,0,0,0,-1,1434,309,0,0
217,715,0,0,0,0,0,0,0,0,0,-1,1441,309,0,0
224,715,0,0,0,0,0,0,0,0,0,-1,1448,309,0,0
231,715,0,0,0,0,0,0,0,0,0,-1,1455,309,0,0
238,715,0,0,0,0,0,0,0,0,0,-1,1462,309,0,0
245,715,0,0,0,0,0,0,0,0,0,-1,1469,309,0,0
252,715,0,0,0,0,0,0,0,0,0,-1,1476,309,0,0
259,715,0,0,0,0,0,0,0,0,0,-1,1483,309,0,0
266,715,0,0,0,0,0,0,0,0,0,-1,1490,309,0,0
273,715,0,0,0,0,0,0,0,0,0,-1,1497,309,0,0
280,715,0,0,0,0,0,0,0,0,0,-1,1504,309,0,0
287,715,0,0,0,0,0,0,0,0,0,-1,1511,309,0,0
294,715,0,0,0,0,0,0,0,0,0,-1,1518,309,0,0
301,715,0,0,0,0,0,0,0,0,0,-1,1525,309,0,0
308,715,0,0,0,0,0,0,0,0,0,-1,1532,309,0,0
315,715,0,0,0,0,0,0,0,0,0,-1,1539,309,0,0
322,715,0,0,0,0,0,0,0,0,0,-1,1546,309,0,0
329,715,0,0,0,0,0,0,0,0,0,-1,1553,309,0,0
336,715,0,0,0,0,0,0,0,0,0,-1,1560,309,0,0
343,715,0,0,0,0,0,0,0,0,0,-1,1567,309,0,0
350,715,0,0,0,0,0,0,0,0,0,-1,1574,309,0,0
357,715,0,0,0,0,0,0,0,0,0,-1,1581,309,0,0
364,715,0,0,0,0,0,0,0,0,0,-1,1588,309,0,0
371,715,0,0,0,0,0,0,0,0,0,-1,1595,309,0,0
378,715,0,0,0,0,0,0,0,0,0,-1,1602,309,0,0
385,715,0,0,0,0,0,0,0,0,0,-1,1609,309,0,0
392,715,0,0,0,0,0,0,0,0,0,-1,1616,309,0,0
399,715,0,0,0,0,0,0,0,0,0,-1,1623,309,0,0
406,715,0,0,0,0,0,0,0,0,0,-1,1630,309,0,0
413,715,0,0,0,0,0,0,0,0,0,-1,1637,309,0,0
420,715,0,0,0,0,0,0,0,0,0,-1,1644,309,0,0
427,715,0,0,0,0,0,0,0,0,0,-1,1651,309,0,0
434,715,0,0,0,0,0,0,0,0,0,-1,1658,309,0,0
441,715,0,0,0,0,0,0,0,0,0,-1,1665,309,0,0
448,715,0,0,0,0,0,0,0,0,0,-1,1672,309,0,0
455,715,0,0,0,0,0,0,0,0,0,-1,1679,309,0,0
462,715,0,0,0,0,0,0,0,0,0,-1,1686,309,0,0
469,715,0,0,0,0,0,0,0,0,0,-1,1693,309,0,0
476,715,0,0,0,0,0,0,0,0,0,-1,1700,309,0,0
483,715,0,0,0,0,0,0,0,0,0,-1,1707,309,0,0
490,715,0,0,0,0,0,0,0,0,0,-1,1714,309,0,0
497,715,0,0,0,0,0,0,0,0,0,-1,1721,309,0,0
504,715,0,0,0,0,0,0,0,0,0,-1,1728,309,0,0
511,715,0,0,0,0,0,0,0,0,0,-1,1735,309,0,0
518,715,0,0,0,0,0,0,0,0,0,-1,1742,309,0,0
525,715,0,0,0,0,0,0,0,0,0,-1,1749,309,0,0
532,715,0,0,0,0,0,0,0,0,0,-1,1756,309,0,0
539,715,0,0,0,0,0,0,0,0,0,-1,1763,309,0,0
546,715,0,0,0,0,0,0,0,0,0,-1,1770,309,0,0
553,715,0,0,0,0,0,0,0,0,0,-1,1777,309,0,0
560,715,0,0,0,0,0,0,0,0,0,-1,1784,309,0,0
567,715,0,0,0,0,0,0,0,0,0,-1,1791,309,0,0
574,715,0,0,0,0,0,0,0,0,0,-1,1798,309,0,0
581,715,0,0,0,0,0,0,0,0,0,-1,1805,309,0,0
588,715,0,0,0,0,0,0,0,0,0,-1,1812,309,0,0
595,715,0,0,0,0,0,0,0,0,0,-1,1819,309,0,0
602,715,0,0,0,0,0,0,0,0,0,-1,1826,309,0,0
609,715,0,0,0,0,0,0,0,0,0,-1,1833,309,0,0
616,715,0,0,0,0,0,0,0,0,0,-1,1840,309,0,0
623,715,0,0,0,0,0,0,0,0,0,-1,1847,309,0,0
630,715,0,0,0,0,0,0,0,0,0,-1,1854,309,0,0
637,715,0,0,0,0,0,0,0,0,0,-1,1861,309,0,0
644,715,0,0,0,0,0,0,0,0,0,-1,1868,309,0,0
651,715,0,0,0,0,0,0,0,0,0,-1,1875,309,0,0
658,715,0,0,0,0,0,0,0,0,0,-1,1882,309,0,0
665,715,0,0,0,0,0,0,0,0,0,-1,1889,309,0,0
672,715,0,0,0,0,0,0,0,0,0,-1,1896,309,0,0
679,715,0,0,0,0,0,0,0,0,0,-1,1903,309,0,0
686,715,0,0,0,0,0,0,0,0,0,-1,1910,309,0,0
693,715,0,0,0,0,0,0,0,0,0,-1,1917,309,0,0
700,715,0,0,0,0,0,0,0,0,0,-1,1924,309,0,0
707,715,0,0,0,0,0,0,0,0,0,-1,1931,309,0,0
714,715,0,0,0,0,0,0,0,0,0,-1,1938,309,0,0
721,715,0,0,0,0,0,0,0,0,0,-1,1945,309,0,0
728,715,0,0,0,0,0,0,0,0,0,-1,1952,309,0,0
735,715,0,0,0,0,0,0,0,0,0,-1,1959,309,0,0
742,715,0,0,0,0,0,0,0,0,0,-1,1966,309,0,0
749,715,0,0,0,0,0,0,0,0,0,-1,1973,309,0,0
756,715,0,0,0,0,0,0,0,0,0,-1,1980,309,0,0
763,715,0,0,0,0,0,0,0,0,0,-1,1987,309,0,0
770,715,0,0,0,0,0,0,0,0,0,-1,1994,309,0,0
777,715,0,0,0,0,0,0,0,0,0,-1,2001,309,0,0
784,715,0,0,0,0,0,0,0,0,0,-1,2008,309,0,0
791,715,0,0,0,0,0,0,0,0,0,-1,2015,309,0,0
798,715,0,0,0,0,0,0,0,0,0,-1,2022,309,0,0
805,715,0,0,0,0,0,0,0,0,0,-1,2029,309,0,0
812,715,0,0,0,0,0,0,0,0,0,-1,2036,309,0,0
-700,708,0,0,0,0,0,0,0,0,0,-1,524,316,0,0
-693,708,0,0,0,0,0,0,0,0,0,-1,531,316,0,0
-686,708,0,0,0,0,0,0,0,0,0,-1,538,316,0,0
-679,708,0,0,0,0,0,0,0,0,0,-1,545,316,0,0
-672,708,0,0,0,0,0,0,0,0,0,-1,552,316,0,0
-665,708,0,0,0,0,0,0,0,0,0,-1,559,316,0,0
-658,708,0,0,0,0,0,0,0,0,0,-1,566,316,0,0
-651,708,0,0,0,0,0,0,0,0,0,-1,573,316,0,0
-644,708,0,0,0,0,0,0,0,0,0,-1,580,316,0,0
-637,708,0,0,0,0,0,0,0,0,0,-1,587,316,0,0
-630,708,0,0,0,0,0,0,0,0,0,-1,594,316,0,0
-623,708,0,0,0,0,0,0,0,0,0,-1,601,316,0,0
-616,708,0,0,0,0,0,0,0,0,0,-1,608,316,0,0
-609,708,0,0,0,0,0,0,0,0,0,-1,615,316,0,0
-602,708,0,0,0,0,0,0,0,0,0,-1,622,316,0,0
-595,708,0,0,0,0,0,0,0,0,0,-1,629,316,0,0
-588,708,0,0,0,0,0,0,0,0,0,-1,636,316,0,0
-581,708,0,0,0,0,0,0,0,0,0,-1,643,316,0,0
-574,708,0,0,0,0,0,0,0,0,0,-1,650,316,0,0
-567,708,0,0,0,0,0,0,0,0,0,-1,657,316,0,0
-560,708,0,0,0,0,0,0,0,0,0,-1,664,316,0,0
-553,708,0,0,0,0,0,0,0,0,0,-1,671,316,0,0
-546,708,0,0,0,0,0,0,0,0,0,-1,678,316,0,0
-539,708,0,0,0,0,0,0,0,0,0,-1,685,316,0,0
-532,708,0,0,0,0,0,0,0,0,0,-1,692,316,0,0
-525,708,0,0,0,0,0,0,0,0,0,-1,699,316,0,0
-518,708,0,0,0,0,0,0,0,0,0,-1,706,316,0,0
-511,708,0,0,0,0,0,0,0,0,0,-1,713,316,0,0
-504,708,0,0,0,0,0,0,0,0,0,-1,720,316,0,0
-497,708,0,0,0,0,0,0,0,0,0,-1,727,316,0,0
-490,708,0,0,0,0,0,0,0,0,0,-1,734,316,0,0
-483,708,0,0,0,0,0,0,0,0,0,-1,741,316,0,0
-476,708,0,0,0,0,0,0,0,0,0,-1,748,316,0,0
-469,708,0,0,0,0,0,0,0,0,0,-1,755,316,0,0
-462,708,0,0,0,0,0,0,0,0,0,-1,762,316,0,0
-455,708,0,0,0,0,0,0,0,0,0,-1,769,316,0,0
-448,708,0,0,0,0,0,0,0,0,0,-1,776,316,0,0
-441,708,0,0,0,0,0,0,0,0,0,-1,783,316,0,0
-434,708,0,0,0,0,0,0,0,0,0,-1,790,316,0,0
-427,708,0,0,0,0,0,0,0,0,0,-1,797,316,0,0
-420,708,0,0,0,0,0,0,0,0,0,-1,804,316,0,0
-413,708,0,0,0,0,0,0,0,0,0,-1,811,316,0,0
-406,708,0,0,0,0,0,0,0,0,0,-1,818,316,0,0
-399,708,0,0,0,0,0,0,0,0,0,-1,825,316,0,0
-392,708,0,0,0,0,0,0,0,0,0,-1,832,316,0,0
-385,708,0,0,0,0,0,0,0,0,0,-1,839,316,0,0
-378,708,0,0,0,0,0,0,0,0,0,-1,846,316,0,0
-371,708,0,0,0,0,0,0,0,0,0,-1,853,316,0,0
-364,708,0,0,0,0,0,0,0,0,0,-1,860,316,0,0
-357,708,0,0,0,0,0,0,0,0,0,-1,867,316,0,0
-350,708,0,0,0,0,0,0,0,0,0,-1,874,316,0,0
-343,708,0,0,0,0,0,0,0,0,0,-1,881,316,0,0
-336,708,0,0,0,0,0,0,0,0,0,-1,888,316,0,0
-329,708,0,0,0,0,0,0,0,0,0,-1,895,316,0,0
-322,708,0,0,0,0,0,0,0,0,0,-1,902,316,0,0
-315,708,0,0,0,0,0,0,0,0,0,-1,909,316,0,0
-308,708,0,0,0,0,0,0,0,0,0,-1,916,316,0,0
-301,708,0,0,0,0,0,0,0,0,0,-1,923,316,0,0
-294,708,0,0,0,0,0,0,0,0,0,-1,930,316,0,0
-287,708,0,0,0,0,0,0,0,0,0,-1,937,316,0,0
-280,708,0,0,0,0,0,0,0,0,0,-1,944,316,0,0
-273,708,0,0,0,0,0,0,0,0,0,-1,951,316,0,0
-266,708,0,0,0,0,0,0,0,0,0,-1,958,316,0,0
-259,708,0,0,0,0,0,0,0,0,0,-1,965,316,0,0
-252,708,0,0,0,0,0,0,0,0,0,-1,972,316,0,0
-245,708,0,0,0,0,0,0,0,0,0,-1,979,316,0,0
-238,708,0,0,0,0,0,0,0,0,0,-1,986,316,0,0
-231,708,0,0,0,0,0,0,0,0,0,-1,993,316,0,0
-224,708,0,0,0,0,0,0,0,0,0,-1,1000,316,0,0
-217,708,0,0,0,0,0,0,0,0,0,-1,1007,316,0,0
-210,708,0,0,0,0,0,0,0,0,0,-1,1014,316,0,0
-203,708,0,0,0,0,0,0,0,0,0,-1,1021,316,0,0
-196,708,0,0,0,0,0,0,0,0,0,-1,1028,316,0,0
-189,708,0,0,0,0,0,0,0,0,0,-1,1035,316,0,0
-182,708,0,0,0,0,0,0,0,0,0,-1,1042,316,0,0
-175,708,0,0,0,0,0,0,0,0,0,-1,1049,316,0,0
-168,708,0,0,0,0,0,0,0,0,0,-1,1056,316,0,0
-161,708,0,0,0,0,0,0,0,0,0,-1,1063,316,0,0
-154,708,0,0,0,0,0,0,0,0,0,-1,1070,316,0,0
-147,708,0,0,0,0,0,0,0,0,0,-1,1077,316,0,0
-140,708,0,0,0,0,0,0,0,0,0,-1,1084,316,0,0
-133,708,0,0,0,0,0,0,0,0,0,-1,1091,316,0,0
-126,708,0,0,0,0,0,0,0,0,0,-1,1098,316,0,0
-119,708,0,0,0,0,0,0,0,0,0,-1,1105,316,0,0
-112,708,0,0,0,0,0,0,0,0,0,-1,1112,316,0,0
-105,708,0,0,0,0,0,0,0,0,0,-1,1119,316,0,0
-98,708,0,0,0,0,0,0,0,0,0,-1,1126,316,0,0
-91,708,0,0,0,0,0,0,0,0,0,-1,1133,316,0,0
-84,708,0,0,0,0,0,0,0,0,0,-1,1140,316,0,0
-77,708,0,0,0,0,0,0,0,0,0,-1,1147,316,0,0
-70,708,0,0,0,0,0,0,0,0,0,-1,1154,316,0,0
-63,708,0,0,0,0,0,0,0,0,0,-1,1161,316,0,0
-56,708,0,0,0,0,0,0,0,0,0,-1,1168,316,0,0
-49,708,0,0,0,0,0,0,0,0,0,-1,1175,316,0,0
-42,708,0,0,0,0,0,0,0,0,0,-1,1182,316,0,0
-35,708,-2.71204,-6.31558,0,0,0,0,0,0,0,-1,1189,316,-2.712,6.3156
-28,708,-2.92371,-5.53253,0,0,0,0,0,0,0,-1,1196,316,-2.92375,5.53254
-21,708,-5.32227,-7.36841,0,0,0,0,0,0,0,-1,1203,316,-5.32232,7.3684
-14,708,-1.11047,-13.4866,0,0,0,0,0,0,0,-1,1210,316,-1.11043,13.4866
-7,708,-0.717041,-13.5523,0,0,0,0,0,0,0,-1,1217,316,-0.716997,13.5523
0,708,2.77332,-11.7148,0,0,0,0,0,0,0,-1,1224,316,2.77335,11.7148
7,708,-2.15857,-11.8138,0,0,0,0,0,0,0,-1,1231,316,-2.15855,11.8139
14,708,4.87634,-10.2984,0,0,0,0,0,0,0,-1,1238,316,4.87633,10.2984
21,708,-0.296021,-14.9427,0,0,0,0,0,0,0,-1,1245,316,-0.296003,14.9427
28,708,0.0518799,-14.3275,0,0,0,0,0,0,0,-1,1252,316,0.0518857,14.3275
35,708,-0.252808,-13.6686,0,0,0,0,0,0,0,-1,1259,316,-0.252829,13.6686
42,708,0.386841,-12.9945,0.0952819,0.0299819,-0.0214556,0.101701,0.0235631,-0.290689,0.0614703,0.0438907,1266,316,0.386826,12.9945
49,708,1.11523,-12.3285,0.0857137,0.0331332,-0.0136001,0.0890231,0.0298238,-0.238697,0.052322,0.0443602,1273,316,1.11526,12.3285
56,708,1.85437,-11.7742,0.0733207,0.034769,-0.00714603,0.0746027,0.0334871,-0.177509,0.0431469,0.0448237,1280,316,1.85438,11.7742
63,708,2.05896,-11.1848,0.0562307,0.0349513,-0.00137533,0.0563192,0.0348628,-0.0642756,0.0328215,0.0450697,1287,316,2.05894,11.1847
70,708,1.61377,-10.9183,0.039414,0.0331679,0.00402928,0.0413889,0.0311931,0.455715,0.0248998,0.0435134,1294,316,1.61376,10.9183
77,708,4.78845,-12.5372,0.0285613,0.029246,0.00588207,0.0347957,0.0230116,0.814464,0.0204349,0.043271,1301,316,4.78845,12.5372
84,708,4.08582,-12.7105,0.0214311,0.029201,0.0174183,0.0431623,0.00746972,0.895122,0.0266364,0.0451296,1308,316,4.08586,12.7105
91,708,3.38916,-12.8934,0.0104987,0.0238298,0.0239249,0.0420003,-0.00767177,0.921255,0.0308768,0.0481005,1315,316,3.38921,12.8934
98,708,2.68677,-13.0793,0.00365704,0.017531,0.0310183,0.0423785,-0.0211905,0.895409,0.0373749,0.048029,1322,316,2.68671,13.0793
105,708,1.86011,-13.0618,0.00336684,0.0136466,0.0405067,0.0493382,-0.0323248,0.848506,0.047488,0.0431411,1329,316,1.86015,13.0618
112,708,0.782104,-13.1919,0.00938727,0.0112943,0.0521688,0.0625183,-0.0418368,0.794536,0.0606426,0.0411181,1336,316,0.782047,13.1919
119,708,-0.20459,-13.5835,0.0234655,0.009706,0.0662658,0.0832077,-0.0500362,0.733673,0.077719,0.0436621,1343,316,-0.204618,13.5835
126,708,-1.28015,-13.9746,0.0411506,0.00910815,0.0829194,0.109582,-0.0593237,0.689967,0.0989465,0.0454614,1350,316,-1.2801,13.9746
133,708,3.17896,-11.758,0.0676396,0.00957566,0.0996414,0.142392,-0.0651771,0.64364,0.122573,0.0499973,1357,316,3.17894,11.758
140,708,2.54834,-10.2099,0,0,0,0,0,0,0,-1,1364,316,2.54839,10.2099
147,708,2.74109,-12.0951,0,0,0,0,0,0,0,-1,1371,316,2.74111,12.0951
154,708,0,0,0,0,0,0,0,0,0,-1,1378,316,0,0
161,708,0,0,0,0,0,0,0,0,0,-1,1385,316,0,0
168,708,0,0,0,0,0,0,0,0,0,-1,1392,316,0,0
175,708,0,0,0,0,0,0,0,0,0,-1,1399,316,0,0
182,708,0,0,0,0,0,0,0,0,0,-1,1406,316,0,0
189,708,0,0,0,0,0,0,0,0,0,-1,1413,316,0,0
196,708,0,0,0,0,0,0,0,0,0,-1,1420,316,0,0
203,708,0,0,0,0,0,0,0,0,0,-1,1427,316,0,0
210,708,0,0,0,0,0,0,0,0,0,-1,1434,316,0,0
217,708,0,0,0,0,0,0,0,0,0,-1,1441,316,0,0
224,708,0,0,0,0,0,0,0,0,0,-1,1448,316,0,0
231,708,0,0,0,0,0,0,0,0,0,-1,1455,316,0,0
238,708,0,0,0,0,0,0,0,0,0,-1,1462,316,0,0
245,708,0,0,0,0,0,0,0,0,0,-1,1469,316,0,0
252,708,0,0,0,0,0,0,0,0,0,-1,1476,316,0,0
259,708,0,0,0,0,0,0,0,0,0,-1,1483,316,0,0
266,708,0,0,0,0,0,0,0,0,0,-1,1490,316,0,0
273,708,0,0,0,0,0,0,0,0,0,-1,1497,316,0,0
280,708,0,0,0,0,0,0,0,0,0,-1,1504,316,0,0
287,708,0,0,0,0,0,0,0,0,0,-1,1511,316,0,0
294,708,0,0,0,0,0,0,0,0,0,-1,1518,316,0,0
301,708,0,0,0,0,0,0,0,0,0,-1,1525,316,0,0
308,708,0,0,0,0,0,0,0,0,0,-1,1532,316,0,0
315,708,0,0,0,0,0,0,0,0,0,-1,1539,316,0,0
322,708,0,0,0,0,0,0,0,0,0,-1,1546,316,0,0
329,708,0,0,0,0,0,0,0,0,0,-1,1553,316,0,0
336,708,0,0,0,0,0,0,0,0,0,-1,1560,316,0,0
343,708,0,0,0,0,0,0,0,0,0,-1,1567,316,0,0
350,708,0,0,0,0,0,0,0,0,0,-1,1574,316,0,0
357,708,0,0,0,0,0,0,0,0,0,-1,1581,316,0,0
364,708,0,0,0,0,0,0,0,0,0,-1,1588,316,0,0
371,708,0,0,0,0,0,0,0,0,0,-1,1595,316,0,0
378,708,0,0,0,0,0,0,0,0,0,-1,1602,316,0,0
385,708,0,0,0,0,0,0,0,0,0,-1,1609,316,0,0
392,708,0,0,0,0,0,0,0,0,0,-1,1616,316,0,0
399,708,0,0,0,0,0,0,0,0,0,-1,1623,316,0,0
406,708,0,0,0,0,0,0,0,0,0,-1,1630,316,0,0
413,708,0,0,0,0,0,0,0,0,0,-1,1637,316,0,0
420,708,0,0,0,0,0,0,0,0,0,-1,1644,316,0,0
427,708,0,0,0,0,0,0,0,0,0,-1,1651,316,0,0
434,708,0,0,0,0,0,0,0,0,0,-1,1658,316,0,0
441,708,0,0,0,0,0,0,0,0,0,-1,1665,316,0,0
448,708,0,0,0,0,0,0,0,0,0,-1,1672,316,0,0
455,708,0,0,0,0,0,0,0,0,0,-1,1679,316,0,0
462,708,0,0,0,0,0,0,0,0,0,-1,1686,316,0,0
469,708,0,0,0,0,0,0,0,0,0,-1,1693,316,0,0
476,708,0,0,0,0,0,0,0,0,0,-1,1700,316,0,0
483,708,0,0,0,0,0,0,0,0,0,-1,1707,316,0,0
490,708,0,0,0,0,0,0,0,0,0,-1,1714,316,0,0
497,708,0,0,0,0,0,0,0,0,0,-1,1721,316,0,0
504,708,0,0,0,0,0,0,0,0,0,-1,1728,316,0,0
511,708,0,0,0,0,0,0,0,0,0,-1,1735,316,0,0
518,708,0,0,0,0,0,0,0,0,0,-1,1742,316,0,0
525,708,0,0,0,0,0,0,0,0,0,-1,1749,316,0,0
532,708,0,0,0,0,0,0,0,0,0,-1,1756,316,0,0
539,708,0,0,0,0,0,0,0,0,0,-1,1763,316,0,0
546,708,0,0,0,0,0,0,0,0,0,-1,1770,316,0,0
553,708,0,0,0,0,0,0,0,0,0,-1,1777,316,0,0
560,708,0,0,0,0,0,0,0,0,0,-1,1784,316,0,0
567,708,0,0,0,0,0,0,0,0,0,-1,1791,316,0,0
574,708,0,0,0,0,0,0,0,0,0,-1,1798,316,0,0
581,708,0,0,0,0,0,0,0,0,0,-1,1805,316,0,0
588,708,0,0,0,0,0,0,0,0,0,-1,1812,316,0,0
595,708,0,0,0,0,0,0,0,0,0,-1,1819,316,0,0
602,708,0,0,0,0,0,0,0,0,0,-1,1826,316,0,0
609,708,0,0,0,0,0,0,0,0,0,-1,1833,316,0,0
616,708,0,0,0,0,0,0,0,0,0,-1,1840,316,0,0
623,708,0,0,0,0,0,0,0,0,0,-1,1847,316,0,0
630,708,0,0,0,0,0,0,0,0,0,-1,1854,316,0,0
637,708,0,0,0,0,0,0,0,0,0,-1,1861,316,0,0
644,708,0,0,0,0,0,0,0,0,0,-1,1868,316,0,0
651,708,0,0,0,0,0,0,0,0,0,-1,1875,316,0,0
658,708,0,0,0,0,0,0,0,0,0,-1,1882,316,0,0
665,708,0,0,0,0,0,0,0,0,0,-1,1889,316,0,0
672,708,0,0,0,0,0,0,0,0,0,-1,1896,316,0,0
679,708,0,0,0,0,0,0,0,0,0,-1,1903,316,0,0
686,708,0,0,0,0,0,0,0,0,0,-1,1910,316,0,0
693,708,0,0,0,0,0,0,0,0,0,-1,1917,316,0,0
700,708,0,0,0,0,0,0,0,0,0,-1,1924,316,0,0
707,708,0,0,0,0,0,0,0,0,0,-1,1931,316,0,0
714,708,0,0,0,0,0,0,0,0,0,-1,1938,316,0,0
721,708,0,0,0,0,0,0,0,0,0,-1,1945,316,0,0
728,708,0,0,0,0,0,0,0,0,0,-1,1952,316,0,0
735,708,0,0,0,0,0,0,0,0,0,-1,1959,316,0,0
742,708,0,0,0,0,0,0,0,0,0,-1,1966,316,0,0
749,708,0,0,0,0,0,0,0,0,0,-1,1973,316,0,0
756,708,0,0,0,0,0,0,0,0,0,-1,1980,316,0,0
763,708,0,0,0,0,0,0,0,0,0,-1,1987,316,0,0
770,708,0,0,0,0,0,0,0,0,0,-1,1994,316,0,0
777,708,0,0,0,0,0,0,0,0,0,-1,2001,316,0,0
784,708,0,0,0,0,0,0,0,0,0,-1,2008,316,0,0
791,708,0,0,0,0,0,0,0,0,0,-1,2015,316,0,0
798,708,0,0,0,0,0,0,0,0,0,-1,2022,316,0,0
805,708,0,0,0,0,0,0,0,0,0,-1,2029,316,0,0
812,708,0,0,0,0,0,0,0,0,0,-1,2036,316,0,0
-700,701,0,0,0,0,0,0,0,0,0,-1,524,323,0,0
-693,701,0,0,0,0,0,0,0,0,0,-1,531,323,0,0
-686,701,0,0,0,0,0,0,0,0,0,-1,538,323,0,0
-679,701,0,0,0,0,0,0,0,0,0,-1,545,323,0,0
-672,701,0,0,0,0,0,0,0,0,0,-1,552,323,0,0
-665,701,0,0,0,0,0,0,0,0,0,-1,559,323,0,0
-658,701,0,0,0,0,0,0,0,0,0,-1,566,323,0,0
-651,701,0,0,0,0,0,0,0,0,0,-1,573,323,0,0
-644,701,0,0,0,0,0,0,0,0,0,-1,580,323,0,0
-637,701,0,0,0,0,0,0,0,0,0,-1,587,323,0,0
-630,701,0,0,0,0,0,0,0,0,0,-1,594,323,0,0
-623,701,0,0,0,0,0,0,0,0,0,-1,601,323,0,0
-616,701,0,0,0,0,0,0,0,0,0,-1,608,323,0,0
-609,701,0,0,0,0,0,0,0,0,0,-1,615,323,0,0
-602,701,0,0,0,0,0,0,0,0,0,-1,622,323,0,0
-595,701,0,0,0,0,0,0,0,0,0,-1,629,323,0,0
-588,701,0,0,0,0,0,0,0,0,0,-1,636,323,0,0
-581,701,0,0,0,0,0,0,0,0,0,-1,643,323,0,0
-574,701,0,0,0,0,0,0,0,0,0,-1,650,323,0,0
-567,701,0,0,0,0,0,0,0,0,0,-1,657,323,0,0
-560,701,0,0,0,0,0,0,0,0,0,-1,664,323,0,0
-553,701,0,0,0,0,0,0,0,0,0,-1,671,323,0,0
-546,701,0,0,0,0,0,0,0,0,0,-1,678,323,0,0
-539,701,0,0,0,0,0,0,0,0,0,-1,685,323,0,0
-532,701,0,0,0,0,0,0,0,0,0,-1,692,323,0,0
-525,701,0,0,0,0,0,0,0,0,0,-1,699,323,0,0
-518,701,0,0,0,0,0,0,0,0,0,-1,706,323,0,0
-511,701,0,0,0,0,0,0,0,0,0,-1,713,323,0,0
-504,701,0,0,0,0,0,0,0,0,0,-1,720,323,0,0
-497,701,0,0,0,0,0,0,0,0,0,-1,727,323,0,0
-490,701,0,0,0,0,0,0,0,0,0,-1,734,323,0,0
-483,701,0,0,0,0,0,0,0,0,0,-1,741,323,0,0
-476,701,0,0,0,0,0,0,0,0,0,-1,748,323,0,0
-469,701,0,0,0,0,0,0,0,0,0,-1,755,323,0,0
-462,701,0,0,0,0,0,0,0,0,0,-1,762,323,0,0
-455,701,0,0,0,0,0,0,0,0,0,-1,769,323,0,0
-448,701,0,0,0,0,0,0,0,0,0,-1,776,323,0,0
-441,701,0,0,0,0,0,0,0,0,0,-1,783,323,0,0
-434,701,0,0,0,0,0,0,0,0,0,-1,790,323,0,0
-427,701,0,0,0,0,0,0,0,0,0,-1,797,323,0,0
-420,701,0,0,0,0,0,0,0,0,0,-1,804,323,0,0
-413,701,0,0,0,0,0,0,0,0,0,-1,811,323,0,0
-406,701,0,0,0,0,0,0,0,0,0,-1,818,323,0,0
-399,701,0,0,0,0,0,0,0,0,0,-1,825,323,0,0
-392,701,0,0,0,0,0,0,0,0,0,-1,832,323,0,0
-385,701,0,0,0,0,0,0,0,0,0,-1,839,323,0,0
-378,701,0,0,0,0,0,0,0,0,0,-1,846,323,0,0
-371,701,0,0,0,0,0,0,0,0,0,-1,853,323,0,0
-364,701,0,0,0,0,0,0,0,0,0,-1,860,323,0,0
-357,701,0,0,0,0,0,0,0,0,0,-1,867,323,0,0
-350,701,0,0,0,0,0,0,0,0,0,-1,874,323,0,0
-343,701,0,0,0,0,0,0,0,0,0,-1,881,323,0,0
-336,701,0,0,0,0,0,0,0,0,0,-1,888,323,0,0
-329,701,0,0,0,0,0,0,0,0,0,-1,895,323,0,0
-322,701,0,0,0,0,0,0,0,0,0,-1,902,323,0,0
-315,701,0,0,0,0,0,0,0,0,0,-1,909,323,0,0
-308,701,0,0,0,0,0,0,0,0,0,-1,916,323,0,0
-301,701,0,0,0,0,0,0,0,0,0,-1,923,323,0,0
-294,701,0,0,0,0,0,0,0,0,0,-1,930,323,0,0
-287,701,0,0,0,0,0,0,0,0,0,-1,937,323,0,0
-280,701,0,0,0,0,0,0,0,0,0,-1,944,323,0,0
-273,701,0,0,0,0,0,0,0,0,0,-1,951,323,0,0
-266,701,0,0,0,0,0,0,0,0,0,-1,958,323,0,0
-259,701,0,0,0,0,0,0,0,0,0,-1,965,323,0,0
-252,701,0,0,0,0,0,0,0,0,0,-1,972,323,0,0
-245,701,0,0,0,0,0,0,0,0,0,-1,979,323,0,0
-238,701,0,0,0,0,0,0,0,0,0,-1,986,323,0,0
-231,701,0,0,0,0,0,0,0,0,0,-1,993,323,0,0
-224,701,0,0,0,0,0,0,0,0,0,-1,1000,323,0,0
-217,701,0,0,0,0,0,0,0,0,0,-1,1007,323,0,0
-210,701,0,0,0,0,0,0,0,0,0,-1,1014,323,0,0
-203,701,0,0,0,0,0,0,0,0,0,-1,1021,323,0,0
-196,701,0,0,0,0,0,0,0,0,0,-1,1028,323,0,0
-189,701,0,0,0,0,0,0,0,0,0,-1,1035,323,0,0
-182,701,0,0,0,0,0,0,0,0,0,-1,1042,323,0,0
-175,701,0,0,0,0,0,0,0,0,0,-1,1049,323,0,0
-168,701,0,0,0,0,0,0,0,0,0,-1,1056,323,0,0
-161,701,0,0,0,0,0,0,0,0,0,-1,1063,323,0,0
-154,701,0,0,0,0,0,0,0,0,0,-1,1070,323,0,0
-147,701,0,0,0,0,0,0,0,0,0,-1,1077,323,0,0
-140,701,0,0,0,0,0,0,0,0,0,-1,1084,323,0,0
-133,701,0,0,0,0,0,0,0,0,0,-1,1091,323,0,0
-126,701,0,0,0,0,0,0,0,0,0,-1,1098,323,0,0
-119,701,0,0,0,0,0,0,0,0,0,-1,1105,323,0,0
-112,701,0,0,0,0,0,0,0,0,0,-1,1112,323,0,0
-105,701,0,0,0,0,0,0,0,0,0,-1,1119,323,0,0
-98,701,0,0,0,0,0,0,0,0,0,-1,1126,323,0,0
-91,701,0,0,0,0,0,0,0,0,0,-1,1133,323,0,0
-84,701,0,0,0,0,0,0,0,0,0,-1,1140,323,0,0
-77,701,0,0,0,0,0,0,0,0,0,-1,1147,323,0,0
-70,701,-2.36731,-1.49271,0,0,0,0,0,0,0,-1,1154,323,-2.36729,1.4927
-63,701,-2.479,-0.295959,0,0,0,0,0,0,0,-1,1161,323,-2.47895,0.295961
-56,701,-0.420166,-0.101776,0,0,0,0,0,0,0,-1,1168,323,-0.420119,0.101777
-49,701,-1.09021,-0.155762,0,0,0,0,0,0,0,-1,1175,323,-1.09024,0.155768
-42,701,-0.210327,-0.299133,0,0,0,0,0,0,0,-1,1182,323,-0.210379,0.29914
-35,701,-2.9635,-7.98676,0,0,0,0,0,0,0,-1,1189,323,-2.9635,7.98676
-28,701,-6.64417,-5.4917,0,0,0,0,0,0,0,-1,1196,323,-6.64411,5.4917
-21,701,3.47998,-4.31433,0,0,0,0,0,0,0,-1,1203,323,3.48,4.31434
-14,701,-1.13586,-12.985,0,0,0,0,0,0,0,-1,1210,323,-1.13582,12.9849
-7,701,1.6781,-12.9148,0,0,0,0,0,0,0,-1,1217,323,1.67813,12.9148
0,701,-2.25708,-11.9621,0,0,0,0,0,0,0,-1,1224,323,-2.25707,11.9621
7,701,-1.22412,-11.7027,0,0,0,0,0,0,0,-1,1231,323,-1.22414,11.7027
14,701,-0.218506,-11.5502,0,0,0,0,0,0,0,-1,1238,323,-0.218471,11.5502
21,701,-0.0322266,-15.7569,0,0,0,0,0,0,0,-1,1245,323,-0.0322316,15.7569
28,701,0.300659,-15.142,0.0916727,0.0142213,-0.0345811,0.104866,0.00102843,-0.36446,0.0695701,0.0492914,1252,323,0.300712,15.142
35,701,0.55957,-14.3939,0.0826322,0.0184404,-0.0265667,0.0922008,0.00887175,-0.34571,0.0587337,0.0473048,1259,323,0.559545,14.3939
42,701,0.827515,-13.6494,0.0746786,0.0216409,-0.0191173,0.0808511,0.0154684,-0.312307,0.0495559,0.04689,1266,323,0.827562,13.6495
49,701,1.11646,-12.9861,0.0666702,0.0241125,-0.0127368,0.0701908,0.0205919,-0.269683,0.0416622,0.0461383,1273,323,1.11647,12.9861
56,701,1.60938,-12.1003,0.0559147,0.0250849,-0.00725314,0.0575358,0.0234638,-0.219897,0.033406,0.0450667,1280,323,1.60936,12.1003
63,701,2.03052,-11.5474,0.0412359,0.0250037,-0.002482,0.0416069,0.0246327,-0.14839,0.024157,0.0452368,1287,323,2.03056,11.5474
70,701,1.79993,-11.2553,0.0278028,0.0233555,0.00194697,0.0285347,0.0226236,0.359576,0.0173909,0.0466185,1294,323,1.79992,11.2553
77,701,4.51477,-12.6195,0.0190329,0.020056,0.00423458,0.0238098,0.0152791,0.845507,0.0139294,0.0467596,1301,323,4.51482,12.6195
84,701,3.797,-12.731,0.0132859,0.0200494,0.0141128,0.03118,0.00215536,0.902992,0.0201068,0.0443687,1308,323,3.797,12.731
91,701,3.07434,-12.8651,0.00445987,0.0159767,0.0197994,0.030838,-0.0104015,0.926913,0.024765,0.0430591,1315,323,3.07428,12.8651
98,701,2.34973,-13.0616,-0.0012929,0.0108188,0.0255642,0.0310347,-0.0215088,0.901698,0.0305017,0.0428851,1322,323,2.34977,13.0616
105,701,1.39087,-13.204,-0.00198206,0.00774982,0.0332149,0.0364533,-0.0306856,0.85813,0.0388103,0.0415961,1329,323,1.39085,13.204
112,701,0.0251465,-13.4618,0.00203865,0.00589529,0.0425858,0.0465964,-0.0386625,0.808023,0.0492952,0.0419714,1336,323,0.0251771,13.4618
119,701,-0.979004,-13.756,0.0123638,0.00477969,0.0538476,0.0625527,-0.0454092,0.750245,0.0625933,0.0437565,1343,323,-0.979024,13.756
126,701,1.50671,-13.1967,0.0250631,0.00452944,0.0671409,0.0827176,-0.0531251,0.709529,0.0790467,0.0483076,1350,323,1.50671,13.1967
133,701,0.931274,-11.733,0.044496,0.0052906,0.0801513,0.107407,-0.0576203,0.665467,0.0967131,0.0485511,1357,323,0.931232,11.733
140,701,2.59119,-11.4565,0,0,0,0,0,0,0,-1,1364,323,2.59118,11.4565
147,701,2.72498,-12.005,0.0896265,0.00684574,0.10254,0.158815,-0.0623424,0.593573,0.131672,0.0472928,1371,323,2.72502,12.005
154,701,3.31958,-10.9825,0.107266,0.00851474,0.110167,0.178617,-0.0628357,0.574725,0.144646,0.047492,1378,323,3.31954,10.9825
161,701,3.99817,-10.0332,0,0,0,0,0,0,0,-1,1385,323,3.9982,10.0332
168,701,6.88513,-0.0237427,0,0,0,0,0,0,0,-1,1392,323,6.88517,0.0237498
175,701,6.94556,0.0693054,0,0,0,0,0,0,0,-1,1399,323,6.94555,-0.0692958
182,701,8.80652,5.42807,0,0,0,0,0,0,0,-1,1406,323,8.8065,-5.42808
189,701,8.58081,4.24493,0,0,0,0,0,0,0,-1,1413,323,8.58082,-4.24494
196,701,0,0,0,0,0,0,0,0,0,-1,1420,323,0,0
203,701,0,0,0,0,0,0,0,0,0,-1,1427,323,0,0
210,701,0,0,0,0,0,0,0,0,0,-1,1434,323,0,0
217,701,0,0,0,0,0,0,0,0,0,-1,1441,323,0,0
224,701,0,0,0,0,0,0,0,0,0,-1,1448,323,0,0
231,701,0,0,0,0,0,0,0,0,0,-1,1455,323,0,0
238,701,0,0,0,0,0,0,0,0,0,-1,1462,323,0,0
245,701,0,0,0,0,0,0,0,0,0,-1,1469,323,0,0
252,701,0,0,0,0,0,0,0,0,0,-1,1476,323,0,0
259,701,0,0,0,0,0,0,0,0,0,-1,1483,323,0,0
266,701,0,0,0,0,0,0,0,0,0,-1,1490,323,0,0
273,701,0,0,0,0,0,0,0,0,0,-1,1497,323,0,0
280,701,0,0,0,0,0,0,0,0,0,-1,1504,323,0,0
287,701,0,0,0,0,0,0,0,0,0,-1,1511,323,0,0
294,701,0,0,0,0,0,0,0,0,0,-1,1518,323,0,0
301,701,0,0,0,0,0,0,0,0,0,-1,1525,323,0,0
308,701,0,0,0,0,0,0,0,0,0,-1,1532,323,0,0
315,701,0,0,0,0,0,0,0,0,0,-1,1539,323,0,0
322,701,0,0,0,0,0,0,0,0,0,-1,1546,323,0,0
329,701,0,0,0,0,0,0,0,0,0,-1,1553,323,0,0
336,701,0,0,0,0,0,0,0,0,0,-1,1560,323,0,0
343,701,0,0,0,0,0,0,0,0,0,-1,1567,323,0,0
350,701,0,0,0,0,0,0,0,0,0,-1,1574,323,0,0
357,701,0,0,0,0,0,0,0,0,0,-1,1581,323,0,0
364,701,0,0,0,0,0,0,0,0,0,-1,1588,323,0,0
371,701,0,0,0,0,0,0,0,0,0,-1,1595,323,0,0
378,701,0,0,0,0,0,0,0,0,0,-1,1602,323,0,0
385,701,0,0,0,0,0,0,0,0,0,-1,1609,323,0,0
392,701,0,0,0,0,0,0,0,0,0,-1,1616,323,0,0
399,701,0,0,0,0,0,0,0,0,0,-1,1623,323,0,0
406,701,0,0,0,0,0,0,0,0,0,-1,1630,323,0,0
413,701,0,0,0,0,0,0,0,0,0,-1,1637,323,0,0
420,701,0,0,0,0,0,0,0,0,0,-1,1644,323,0,0
427,701,0,0,0,0,0,0,0,0,0,-1,1651,323,0,0
434,701,0,0,0,0,0,0,0,0,0,-1,1658,323,0,0
441,701,0,0,0,0,0,0,0,0,0,-1,1665,323,0,0
448,701,0,0,0,0,0,0,0,0,0,-1,1672,323,0,0
455,701,0,0,0,0,0,0,0,0,0,-1,1679,323,0,0
462,701,0,0,0,0,0,0,0,0,0,-1,1686,323,0,0
469,701,0,0,0,0,0,0,0,0,0,-1,1693,323,0,0
476,701,0,0,0,0,0,0,0,0,0,-1,1700,323,0,0
483,701,0,0,0,0,0,0,0,0,0,-1,1707,323,0,0
490,701,0,0,0,0,0,0,0,0,0,-1,1714,323,0,0
497,701,0,0,0,0,0,0,0,0,0,-1,1721,323,0,0
504,701,0,0,0,0,0,0,0,0,0,-1,1728,323,0,0
511,701,0,0,0,0,0,0,0,0,0,-1,1735,323,0,0
518,701,0,0,0,0,0,0,0,0,0,-1,1742,323,0,0
525,701,0,0,0,0,0,0,0,0,0,-1,1749,323,0,0
532,701,0,0,0,0,0,0,0,0,0,-1,1756,323,0,0
539,701,0,0,0,0,0,0,0,0,0,-1,1763,323,0,0
546,701,0,0,0,0,0,0,0,0,0,-1,1770,323,0,0
553,701,0,0,0,0,0,0,0,0,0,-1,1777,323,0,0
560,701,0,0,0,0,0,0,0,0,0,-1,1784,323,0,0
567,701,0,0,0,0,0,0,0,0,0,-1,1791,323,0,0
574,701,0,0,0,0,0,0,0,0,0,-1,1798,323,0,0
581,701,0,0,0,0,0,0,0,0,0,-1,1805,323,0,0
588,701,0,0,0,0,0,0,0,0,0,-1,1812,323,0,0
595,701,0,0,0,0,0,0,0,0,0,-1,1819,323,0,0
602,701,0,0,0,0,0,0,0,0,0,-1,1826,323,0,0
609,701,0,0,0,0,0,0,0,0,0,-1,1833,323,0,0
616,701,0,0,0,0,0,0,0,0,0,-1,1840,323,0,0
623,701,0,0,0,0,0,0,0,0,0,-1,1847,323,0,0
630,701,0,0,0,0,0,0,0,0,0,-1,1854,323,0,0
637,701,0,0,0,0,0,0,0,0,0,-1,1861,323,0,0
644,701,0,0,0,0,0,0,0,0,0,-1,1868,323,0,0
651,701,0,0,0,0,0,0,0,0,0,-1,1875,323,0,0
658,701,0,0,0,0,0,0,0,0,0,-1,1882,323,0,0
665,701,0,0,0,0,0,0,0,0,0,-1,1889,323,0,0
672,701,0,0,0,0,0,0,0,0,0,-1,1896,323,0,0
679,701,0,0,0,0,0,0,0,0,0,-1,1903,323,0,0
686,701,0,0,0,0,0,0,0,0,0,-1,1910,323,0,0
693,701,0,0,0,0,0,0,0,0,0,-1,1917,323,0,0
700,701,0,0,0,0,0,0,0,0,0,-1,1924,323,0,0
707,701,0,0,0,0,0,0,0,0,0,-1,1931,323,0,0
714,701,0,0,0,0,0,0,0,0,0,-1,1938,323,0,0
721,701,0,0,0,0,0,0,0,0,0,-1,1945,323,0,0
728,701,0,0,0,0,0,0,0,0,0,-1,1952,323,0,0
735,701,0,0,0,0,0,0,0,0,0,-1,1959,323,0,0
742,701,0,0,0,0,0,0,0,0,0,-1,1966,323,0,0
749,701,0,0,0,0,0,0,0,0,0,-1,1973,323,0,0
756,701,0,0,0,0,0,0,0,0,0,-1,1980,323,0,0
763,701,0,0,0,0,0,0,0,0,0,-1,1987,323,0,0
770,701,0,0,0,0,0,0,0,0,0,-1,1994,323,0,0
777,701,0,0,0,0,0,0,0,0,0,-1,2001,323,0,0
784,701,0,0,0,0,0,0,0,0,0,-1,2008,323,0,0
791,701,0,0,0,0,0,0,0,0,0,-1,2015,323,0,0
798,701,0,0,0,0,0,0,0,0,0,-1,2022,323,0,0
805,701,0,0,0,0,0,0,0,0,0,-1,2029,323,0,0
812,701,0,0,0,0,0,0,0,0,0,-1,2036,323,0,0
-700,694,0,0,0,0,0,0,0,0,0,-1,524,330,0,0
-693,694,0,0,0,0,0,0,0,0,0,-1,531,330,0,0
-686,694,0,0,0,0,0,0,0,0,0,-1,538,330,0,0
-679,694,0,0,0,0,0,0,0,0,0,-1,545,330,0,0
-672,694,0,0,0,0,0,0,0,0,0,-1,552,330,0,0
-665,694,0,0,0,0,0,0,0,0,0,-1,559,330,0,0
-658,694,0,0,0,0,0,0,0,0,0,-1,566,330,0,0
-651,694,0,0,0,0,0,0,0,0,0,-1,573,330,0,0
-644,694,0,0,0,0,0,0,0,0,0,-1,580,330,0,0
-637,694,0,0,0,0,0,0,0,0,0,-1,587,330,0,0
-630,694,0,0,0,0,0,0,0,0,0,-1,594,330,0,0
-623,694,0,0,0,0,0,0,0,0,0,-1,601,330,0,0
-616,694,0,0,0,0,0,0,0,0,0,-1,608,330,0,0
-609,694,0,0,0,0,0,0,0,0,0,-1,615,330,0,0
-602,694,0,0,0,0,0,0,0,0,0,-1,622,330,0,0
-595,694,0,0,0,0,0,0,0,0,0,-1,629,330,0,0
-588,694,0,0,0,0,0,0,0,0,0,-1,636,330,0,0
-581,694,0,0,0,0,0,0,0,0,0,-1,643,330,0,0
-574,694,0,0,0,0,0,0,0,0,0,-1,650,330,0,0
-567,694,0,0,0,0,0,0,0,0,0,-1,657,330,0,0
-560,694,0,0,0,0,0,0,0,0,0,-1,664,330,0,0
-553,694,0,0,0,0,0,0,0,0,0,-1,671,330,0,0
-546,694,0,0,0,0,0,0,0,0,0,-1,678,330,0,0
-539,694,0,0,0,0,0,0,0,0,0,-1,685,330,0,0
-532,694,0,0,0,0,0,0,0,0,0,-1,692,330,0,0
-525,694,0,0,0,0,0,0,0,0,0,-1,699,330,0,0
-518,694,0,0,0,0,0,0,0,0,0,-1,706,330,0,0
-511,694,0,0,0,0,0,0,0,0,0,-1,713,330,0,0
-504,694,0,0,0,0,0,0,0,0,0,-1,720,330,0,0
-497,694,0,0,0,0,0,0,0,0,0,-1,727,330,0,0
-490,694,0,0,0,0,0,0,0,0,0,-1,734,330,0,0
-483,694,0,0,0,0,0,0,0,0,0,-1,741,330,0,0
-476,694,0,0,0,0,0,0,0,0,0,-1,748,330,0,0
-469,694,0,0,0,0,0,0,0,0,0,-1,755,330,0,0
-462,694,0,0,0,0,0,0,0,0,0,-1,762,330,0,0
-455,694,0,0,0,0,0,0,0,0,0,-1,769,330,0,0
-448,694,0,0,0,0,0,0,0,0,0,-1,776,330,0,0
-441,694,0,0,0,0,0,0,0,0,0,-1,783,330,0,0
-434,694,0,0,0,0,0,0,0,0,0,-1,790,330,0,0
-427,694,0,0,0,0,0,0,0,0,0,-1,797,330,0,0
-420,694,0,0,0,0,0,0,0,0,0,-1,804,330,0,0
-413,694,0,0,0,0,0,0,0,0,0,-1,811,330,0,0
-406,694,0,0,0,0,0,0,0,0,0,-1,818,330,0,0
-399,694,0,0,0,0,0,0,0,0,0,-1,825,330,0,0
-392,694,0,0,0,0,0,0,0,0,0,-1,832,330,0,0
-385,694,0,0,0,0,0,0,0,0,0,-1,839,330,0,0
-378,694,0,0,0,0,0,0,0,0,0,-1,846,330,0,0
-371,694,0,0,0,0,0,0,0,0,0,-1,853,330,0,0
-364,694,0,0,0,0,0,0,0,0,0,-1,860,330,0,0
-357,694,0,0,0,0,0,0,0,0,0,-1,867,330,0,0
-350,694,0,0,0,0,0,0,0,0,0,-1,874,330,0,0
-343,694,0,0,0,0,0,0,0,0,0,-1,881,330,0,0
-336,694,0,0,0,0,0,0,0,0,0,-1,888,330,0,0
-329,694,0,0,0,0,0,0,0,0,0,-1,895,330,0,0
-322,694,0,0,0,0,0,0,0,0,0,-1,902,330,0,0
-315,694,0,0,0,0,0,0,0,0,0,-1,909,330,0,0
-308,694,0,0,0,0,0,0,0,0,0,-1,916,330,0,0
-301,694,0,0,0,0,0,0,0,0,0,-1,923,330,0,0
-294,694,0,0,0,0,0,0,0,0,0,-1,930,330,0,0
-287,694,0,0,0,0,0,0,0,0,0,-1,937,330,0,0
-280,694,0,0,0,0,0,0,0,0,0,-1,944,330,0,0
-273,694,0,0,0,0,0,0,0,0,0,-1,951,330,0,0
-266,694,0,0,0,0,0,0,0,0,0,-1,958,330,0,0
-259,694,0,0,0,0,0,0,0,0,0,-1,965,330,0,0
-252,694,0,0,0,0,0,0,0,0,0,-1,972,330,0,0
-245,694,0,0,0,0,0,0,0,0,0,-1,979,330,0,0
-238,694,0,0,0,0,0,0,0,0,0,-1,986,330,0,0
-231,694,0,0,0,0,0,0,0,0,0,-1,993,330,0,0
-224,694,0,0,0,0,0,0,0,0,0,-1,1000,330,0,0
-217,694,0,0,0,0,0,0,0,0,0,-1,1007,330,0,0
-210,694,0,0,0,0,0,0,0,0,0,-1,1014,330,0,0
-203,694,0,0,0,0,0,0,0,0,0,-1,1021,330,0,0
-196,694,0,0,0,0,0,0,0,0,0,-1,1028,330,0,0
-189,694,0,0,0,0,0,0,0,0,0,-1,1035,330,0,0
-182,694,0,0,0,0,0,0,0,0,0,-1,1042,330,0,0
-175,694,0,0,0,0,0,0,0,0,0,-1,1049,330,0,0
-168,694,0,0,0,0,0,0,0,0,0,-1,1056,330,0,0
-161,694,0,0,0,0,0,0,0,0,0,-1,1063,330,0,0
-154,694,0,0,0,0,0,0,0,0,0,-1,1070,330,0,0
-147,694,0,0,0,0,0,0,0,0,0,-1,1077,330,0,0
-140,694,0,0,0,0,0,0,0,0,0,-1,1084,330,0,0
-133,694,0,0,0,0,0,0,0,0,0,-1,1091,330,0,0
-126,694,0,0,0,0,0,0,0,0,0,-1,1098,330,0,0
-119,694,0,0,0,0,0,0,0,0,0,-1,1105,330,0,0
-112,694,0,0,0,0,0,0,0,0,0,-1,1112,330,0,0
-105,694,-1.35962,-7.57141,0,0,0,0,0,0,0,-1,1119,330,-1.3596,7.57142
-98,694,1.34875,-10.1051,0,0,0,0,0,0,0,-1,1126,330,1.34874,10.1051
-91,694,1.35474,-9.22229,0,0,0,0,0,0,0,-1,1133,330,1.35476,9.22229
-84,694,-4.39136,-4.62332,0,0,0,0,0,0,0,-1,1140,330,-4.3914,4.62331
-77,694,-4.93396,-10.2672,0,0,0,0,0,0,0,-1,1147,330,-4.9339,10.2672
-70,694,-6.49402,-10.0714,0,0,0,0,0,0,0,-1,1154,330,-6.49399,10.0714
-63,694,-5.80835,-4.75275,0,0,0,0,0,0,0,-1,1161,330,-5.80834,4.75274
-56,694,-6.50623,-0.649139,0,0,0,0,0,0,0,-1,1168,330,-6.5062,0.649126
-49,694,-1.11426,0.0341797,0,0,0,0,0,0,0,-1,1175,330,-1.11424,-0.0341846
-42,694,-0.346313,-0.709595,0,0,0,0,0,0,0,-1,1182,330,-0.346298,0.709581
-35,694,-0.459106,-1.24713,0,0,0,0,0,0,0,-1,1189,330,-0.459142,1.24714
-28,694,-6.48413,-3.95972,0,0,0,0,0,0,0,-1,1196,330,-6.48414,3.9597
-21,694,-5.01636,-4.28162,0,0,0,0,0,0,0,-1,1203,330,-5.01641,4.28162
-14,694,1.66577,-12.7016,0,0,0,0,0,0,0,-1,1210,330,1.66572,12.7016
-7,694,1.78479,-12.7728,0,0,0,0,0,0,0,-1,1217,330,1.78483,12.7728
0,694,1.90393,-12.8441,0,0,0,0,0,0,0,-1,1224,330,1.90393,12.844
7,694,-0.20752,-11.787,0.0941074,0.000706359,-0.0422188,0.110362,-0.0155484,-0.367519,0.0792675,0.0453708,1231,330,-0.207537,11.7871
14,694,0.684814,-11.4567,0.0814572,0.0034289,-0.0375139,0.0965669,-0.0116808,-0.382898,0.0686038,0.0458711,1238,330,0.684828,11.4567
21,694,3.15027,-11.2766,0.0747432,0.00699459,-0.0334465,0.0884728,-0.00673507,-0.389522,0.0613503,0.0491214,1245,330,3.15022,11.2766
28,694,2.99109,-11.9886,0.0708112,0.0108119,-0.0280741,0.0818984,-0.000275336,-0.376127,0.054691,0.0474651,1252,330,2.99107,11.9887
35,694,0.897461,-15.3474,0.0637562,0.0134685,-0.0219664,0.0720001,0.0052247,-0.359027,0.0463567,0.0493898,1259,330,0.897504,15.3474
42,694,1.18237,-14.559,0,0,0,0,0,0,0,-1,1266,330,1.18237,14.559
49,694,1.61169,-13.8477,0,0,0,0,0,0,0,-1,1273,330,1.6117,13.8477
56,694,2.21545,-12.0532,0,0,0,0,0,0,0,-1,1280,330,2.21545,12.0532
63,694,1.56873,-11.8056,0.0296522,0.0176851,-0.00289252,0.0303147,0.0170227,-0.225146,0.0175463,0.0439277,1287,330,1.56869,11.8056
70,694,1.52673,-11.6043,0.0190539,0.0161545,0.000581204,0.019166,0.0160423,0.190646,0.0118739,0.0465762,1294,330,1.52668,11.6043
77,694,5.10913,-13.4833,0.0121051,0.0133909,0.00288237,0.0157012,0.00979482,0.895129,0.0091573,0.0430802,1301,330,5.10915,13.4833
84,694,3.67639,-12.9719,0.00758456,0.0133388,0.0110639,0.0218936,-0.000970191,0.912604,0.0149296,0.0411247,1308,330,3.67633,12.9719
91,694,2.68298,-12.8872,0.000664046,0.0102933,0.0158145,0.0220098,-0.0110525,0.933163,0.0194348,0.040331,1315,330,2.68301,12.8872
98,694,2.19507,-13.3543,-0.00396744,0.00618104,0.0203777,0.0221068,-0.0198932,0.907421,0.0242599,0.0421697,1322,330,2.19506,13.3543
105,694,1.59705,-13.19,-0.00476009,0.00381479,0.0264101,0.0262832,-0.0272285,0.865867,0.0308966,0.0415042,1329,330,1.59703,13.19
112,694,-1.06836,-13.7263,-0.00211164,0.00240476,0.0337371,0.0339592,-0.0336661,0.818816,0.0390436,0.0423425,1336,330,-1.06831,13.7263
119,694,-1.08496,-13.0252,0.00535415,0.00167029,0.0425147,0.0460668,-0.0390424,0.763749,0.0491936,0.0441101,1343,330,-1.08495,13.0252
126,694,-1.26917,-12.3131,0.014264,0.00166197,0.0529066,0.0612435,-0.0453175,0.726129,0.0617516,0.0456259,1350,330,-1.26919,12.3131
133,694,-1.30945,-11.4252,0.0281697,0.00256198,0.0628411,0.0794981,-0.0487664,0.684899,0.0747587,0.045182,1357,330,-1.30949,11.4252
140,694,2.11597,-11.4617,0,0,0,0,0,0,0,-1,1364,330,2.11597,11.4617
147,694,2.42065,-11.7136,0.0620891,0.00474688,0.0800784,0.118474,-0.0516384,0.613489,0.10071,0.0448035,1371,330,2.42066,11.7136
154,694,2.75391,-11.2273,0.0753283,0.00604595,0.0861168,0.13351,-0.0521359,0.594172,0.110562,0.0482301,1378,330,2.75386,11.2273
161,694,3.07007,-10.4028,0,0,0,0,0,0,0,-1,1385,330,3.07004,10.4028
168,694,6.77161,1.01288,0,0,0,0,0,0,0,-1,1392,330,6.77156,-1.01287
175,694,6.72839,0.473175,0,0,0,0,0,0,0,-1,1399,330,6.72838,-0.473182
182,694,8.29028,5.75238,0,0,0,0,0,0,0,-1,1406,330,8.29034,-5.75237
189,694,7.9801,4.46118,0,0,0,0,0,0,0,-1,1413,330,7.9801,-4.46118
196,694,7.39331,3.32632,0,0,0,0,0,0,0,-1,1420,330,7.39329,-3.32633
203,694,7.04492,2.20529,0,0,0,0,0,0,0,-1,1427,330,7.04496,-2.20529
210,694,6.44714,0.646912,0,0,0,0,0,0,0,-1,1434,330,6.44717,-0.646903
217,694,7.12061,-0.644958,0,0,0,0,0,0,0,-1,1441,330,7.12059,0.644961
224,694,6.74011,-1.70544,0,0,0,0,0,0,0,-1,1448,330,6.74013,1.70546
231,694,0,0,0,0,0,0,0,0,0,-1,1455,330,0,0
238,694,0,0,0,0,0,0,0,0,0,-1,1462,330,0,0
245,694,0,0,0,0,0,0,0,0,0,-1,1469,330,0,0
252,694,0,0,0,0,0,0,0,0,0,-1,1476,330,0,0
259,694,0,0,0,0,0,0,0,0,0,-1,1483,330,0,0
266,694,0,0,0,0,0,0,0,0,0,-1,1490,330,0,0
273,694,0,0,0,0,0,0,0,0,0,-1,1497,330,0,0
280,694,0,0,0,0,0,0,0,0,0,-1,1504,330,0,0
287,694,0,0,0,0,0,0,0,0,0,-1,1511,330,0,0
294,694,0,0,0,0,0,0,0,0,0,-1,1518,330,0,0
301,694,0,0,0,0,0,0,0,0,0,-1,1525,330,0,0
308,694,0,0,0,0,0,0,0,0,0,-1,1532,330,0,0
315,694,0,0,0,0,0,0,0,0,0,-1,1539,330,0,0
322,694,0,0,0,0,0,0,0,0,0,-1,1546,330,0,0
329,694,0,0,0,0,0,0,0,0,0,-1,1553,330,0,0
336,694,0,0,0,0,0,0,0,0,0,-1,1560,330,0,0
343,694,0,0,0,0,0,0,0,0,0,-1,1567,330,0,0
350,694,0,0,0,0,0,0,0,0,0,-1,1574,330,0,0
357,694,0,0,0,0,0,0,0,0,0,-1,1581,330,0,0
364,694,0,0,0,0,0,0,0,0,0,-1,1588,330,0,0
371,694,0,0,0,0,0,0,0,0,0,-1,1595,330,0,0
378,694,0,0,0,0,0,0,0,0,0,-1,1602,330,0,0
385,694,0,0,0,0,0,0,0,0,0,-1,1609,330,0,0
392,694,0,0,0,0,0,0,0,0,0,-1,1616,330,0,0
399,694,0,0,0,0,0,0,0,0,0,-1,1623,330,0,0
406,694,0,0,0,0,0,0,0,0,0,-1,1630,330,0,0
413,694,0,0,0,0,0,0,0,0,0,-1,1637,330,0,0
420,694,0,0,0,0,0,0,0,0,0,-1,1644,330,0,0
427,694,0,0,0,0,0,0,0,0,0,-1,1651,330,0,0
434,694,0,0,0,0,0,0,0,0,0,-1,1658,330,0,0
441,694,0,0,0,0,0,0,0,0,0,-1,1665,330,0,0
448,694,0,0,0,0,0,0,0,0,0,-1,1672,330,0,0
455,694,0,0,0,0,0,0,0,0,0,-1,1679,330,0,0
462,694,0,0,0,0,0,0,0,0,0,-1,1686,330,0,0
469,694,0,0,0,0,0,0,0,0,0,-1,1693,330,0,0
476,694,0,0,0,0,0,0,0,0,0,-1,1700,330,0,0
483,694,0,0,0,0,0,0,0,0,0,-1,1707,330,0,0
490,694,0,0,0,0,0,0,0,0,0,-1,1714,330,0,0
497,694,0,0,0,0,0,0,0,0,0,-1,1721,330,0,0
504,694,0,0,0,0,0,0,0,0,0,-1,1728,330,0,0
511,694,0,0,0,0,0,0,0,0,0,-1,1735,330,0,0
518,694,0,0,0,0,0,0,0,0,0,-1,1742,330,0,0
525,694,0,0,0,0,0,0,0,0,0,-1,1749,330,0,0
532,694,0,0,0,0,0,0,0,0,0,-1,1756,330,0,0
539,694,0,0,0,0,0,0,0,0,0,-1,1763,330,0,0
546,694,0,0,0,0,0,0,0,0,0,-1,1770,330,0,0
553,694,0,0,0,0,0,0,0,0,0,-1,1777,330,0,0
560,694,0,0,0,0,0,0,0,0,0,-1,1784,330,0,0
567,694,0,0,0,0,0,0,0,0,0,-1,1791,330,0,0
574,694,0,0,0,0,0,0,0,0,0,-1,1798,330,0,0
581,694,0,0,0,0,0,0,0,0,0,-1,1805,330,0,0
588,694,0,0,0,0,0,0,0,0,0,-1,1812,330,0,0
595,694,0,0,0,0,0,0,0,0,0,-1,1819,330,0,0
602,694,0,0,0,0,0,0,0,0,0,-1,1826,330,0,0
609,694,0,0,0,0,0,0,0,0,0,-1,1833,330,0,0
616,694,0,0,0,0,0,0,0,0,0,-1,1840,330,0,0
623,694,0,0,0,0,0,0,0,0,0,-1,1847,330,0,0
630,694,0,0,0,0,0,0,0,0,0,-1,1854,330,0,0
637,694,0,0,0,0,0,0,0,0,0,-1,1861,330,0,0
644,694,0,0,0,0,0,0,0,0,0,-1,1868,330,0,0
651,694,0,0,0,0,0,0,0,0,0,-1,1875,330,0,0
658,694,0,0,0,0,0,0,0,0,0,-1,1882,330,0,0
665,694,0,0,0,0,0,0,0,0,0,-1,1889,330,0,0
672,694,0,0,0,0,0,0,0,0,0,-1,1896,330,0,0
679,694,0,0,0,0,0,0,0,0,0,-1,1903,330,0,0
686,694,0,0,0,0,0,0,0,0,0,-1,1910,330,0,0
693,694,0,0,0,0,0,0,0,0,0,-1,1917,330,0,0
700,694,0,0,0,0,0,0,0,0,0,-1,1924,330,0,0
707,694,0,0,0,0,0,0,0,0,0,-1,1931,330,0,0
714,694,0,0,0,0,0,0,0,0,0,-1,1938,330,0,0
721,694,0,0,0,0,0,0,0,0,0,-1,1945,330,0,0
728,694,0,0,0,0,0,0,0,0,0,-1,1952,330,0,0
735,694,0,0,0,0,0,0,0,0,0,-1,1959,330,0,0
742,694,0,0,0,0,0,0,0,0,0,-1,1966,330,0,0
749,694,0,0,0,0,0,0,0,0,0,-1,1973,330,0,0
756,694,0,0,0,0,0,0,0,0,0,-1,1980,330,0,0
763,694,0,0,0,0,0,0,0,0,0,-1,1987,330,0,0
770,694,0,0,0,0,0,0,0,0,0,-1,1994,330,0,0
777,694,0,0,0,0,0,0,0,0,0,-1,2001,330,0,0
784,694,0,0,0,0,0,0,0,0,0,-1,2008,330,0,0
791,694,0,0,0,0,0,0,0,0,0,-1,2015,330,0,0
798,694,0,0,0,0,0,0,0,0,0,-1,2022,330,0,0
805,694,0,0,0,0,0,0,0,0,0,-1,2029,330,0,0
812,694,0,0,0,0,0,0,0,0,0,-1,2036,330,0,0
-700,687,0,0,0,0,0,0,0,0,0,-1,524,337,0,0
-693,687,0,0,0,0,0,0,0,0,0,-1,531,337,0,0
-686,687,0,0,0,0,0,0,0,0,0,-1,538,337,0,0
-679,687,0,0,0,0,0,0,0,0,0,-1,545,337,0,0
-672,687,0,0,0,0,0,0,0,0,0,-1,552,337,0,0
-665,687,0,0,0,0,0,0,0,0,0,-1,559,337,0,0
-658,687,0,0,0,0,0,0,0,0,0,-1,566,337,0,0
-651,687,0,0,0,0,0,0,0,0,0,-1,573,337,0,0
-644,687,0,0,0,0,0,0,0,0,0,-1,580,337,0,0
-637,687,0,0,0,0,0,0,0,0,0,-1,587,337,0,0
-630,687,0,0,0,0,0,0,0,0,0,-1,594,337,0,0
-623,687,0,0,0,0,0,0,0,0,0,-1,601,337,0,0
-616,687,0,0,0,0,0,0,0,0,0,-1,608,337,0,0
-609,687,0,0,0,0,0,0,0,0,0,-1,615,337,0,0
-602,687,0,0,0,0,0,0,0,0,0,-1,622,337,0,0
-595,687,0,0,0,0,0,0,0,0,0,-1,629,337,0,0
-588,687,0,0,0,0,0,0,0,0,0,-1,636,337,0,0
-581,687,0,0,0,0,0,0,0,0,0,-1,643,337,0,0
-574,687,0,0,0,0,0,0,0,0,0,-1,650,337,0,0
-567,687,0,0,0,0,0,0,0,0,0,-1,657,337,0,0
-560,687,0,0,0,0,0,0,0,0,0,-1,664,337,0,0
-553,687,0,0,0,0,0,0,0,0,0,-1,671,337,0,0
-546,687,0,0,0,0,0,0,0,0,0,-1,678,337,0,0
-539,687,0,0,0,0,0,0,0,0,0,-1,685,337,0,0
-532,687,0,0,0,0,0,0,0,0,0,-1,692,337,0,0
-525,687,0,0,0,0,0,0,0,0,0,-1,699,337,0,0
-518,687,0,0,0,0,0,0,0,0,0,-1,706,337,0,0
-511,687,0,0,0,0,0,0,0,0,0,-1,713,337,0,0
-504,687,0,0,0,0,0,0,0,0,0,-1,720,337,0,0
-497,687,0,0,0,0,0,0,0,0,0,-1,727,337,0,0
-490,687,0,0,0,0,0,0,0,0,0,-1,734,337,0,0
-483,687,0,0,0,0,0,0,0,0,0,-1,741,337,0,0
-476,687,0,0,0,0,0,0,0,0,0,-1,748,337,0,0
-469,687,0,0,0,0,0,0,0,0,0,-1,755,337,0,0
-462,687,0,0,0,0,0,0,0,0,0,-1,762,337,0,0
-455,687,0,0,0,0,0,0,0,0,0,-1,769,337,0,0
-448,687,0,0,0,0,0,0,0,0,0,-1,776,337,0,0
-441,687,0,0,0,0,0,0,0,0,0,-1,783,337,0,0
-434,687,0,0,0,0,0,0,0,0,0,-1,790,337,0,0
-427,687,0,0,0,0,0,0,0,0,0,-1,797,337,0,0
-420,687,0,0,0,0,0,0,0,0,0,-1,804,337,0,0
-413,687,0,0,0,0,0,0,0,0,0,-1,811,337,0,0
-406,687,0,0,0,0,0,0,0,0,0,-1,818,337,0,0
-399,687,0,0,0,0,0,0,0,0,0,-1,825,337,0,0
-392,687,0,0,0,0,0,0,0,0,0,-1,832,337,0,0
-385,687,0,0,0,0,0,0,0,0,0,-1,839,337,0,0
-378,687,0,0,0,0,0,0,0,0,0,-1,846,337,0,0
-371,687,0,0,0,0,0,0,0,0,0,-1,853,337,0,0
-364,687,0,0,0,0,0,0,0,0,0,-1,860,337,0,0
-357,687,0,0,0,0,0,0,0,0,0,-1,867,337,0,0
-350,687,0,0,0,0,0,0,0,0,0,-1,874,337,0,0
-343,687,0,0,0,0,0,0,0,0,0,-1,881,337,0,0
-336,687,0,0,0,0,0,0,0,0,0,-1,888,337,0,0
-329,687,0,0,0,0,0,0,0,0,0,-1,895,337,0,0
-322,687,0,0,0,0,0,0,0,0,0,-1,902,337,0,0
-315,687,0,0,0,0,0,0,0,0,0,-1,909,337,0,0
-308,687,0,0,0,0,0,0,0,0,0,-1,916,337,0,0
-301,687,0,0,0,0,0,0,0,0,0,-1,923,337,0,0
-294,687,0,0,0,0,0,0,0,0,0,-1,930,337,0,0
-287,687,0,0,0,0,0,0,0,0,0,-1,937,337,0,0
-280,687,0,0,0,0,0,0,0,0,0,-1,944,337,0,0
-273,687,0,0,0,0,0,0,0,0,0,-1,951,337,0,0
-266,687,0,0,0,0,0,0,0,0,0,-1,958,337,0,0
-259,687,0,0,0,0,0,0,0,0,0,-1,965,337,0,0
-252,687,0,0,0,0,0,0,0,0,0,-1,972,337,0,0
-245,687,0,0,0,0,0,0,0,0,0,-1,979,337,0,0
-238,687,0,0,0,0,0,0,0,0,0,-1,986,337,0,0
-231,687,0,0,0,0,0,0,0,0,0,-1,993,337,0,0
-224,687,0,0,0,0,0,0,0,0,0,-1,1000,337,0,0
-217,687,0,0,0,0,0,0,0,0,0,-1,1007,337,0,0
-210,687,0,0,0,0,0,0,0,0,0,-1,1014,337,0,0
-203,687,0,0,0,0,0,0,0,0,0,-1,1021,337,0,0
-196,687,0,0,0,0,0,0,0,0,0,-1,1028,337,0,0
-189,687,0,0,0,0,0,0,0,0,0,-1,1035,337,0,0
-182,687,0,0,0,0,0,0,0,0,0,-1,1042,337,0,0
-175,687,0,0,0,0,0,0,0,0,0,-1,1049,337,0,0
-168,687,0,0,0,0,0,0,0,0,0,-1,1056,337,0,0
-161,687,0,0,0,0,0,0,0,0,0,-1,1063,337,0,0
-154,687,0,0,0,0,0,0,0,0,0,-1,1070,337,0,0
-147,687,0,0,0,0,0,0,0,0,0,-1,1077,337,0,0
-140,687,0,0,0,0,0,0,0,0,0,-1,1084,337,0,0
-133,687,1.63049,-10.3847,0,0,0,0,0,0,0,-1,1091,337,1.63044,10.3847
-126,687,0.941284,-10.8708,0,0,0,0,0,0,0,-1,1098,337,0.941263,10.8708
-119,687,0.577881,-11.4252,0,0,0,0,0,0,0,-1,1105,337,0.57784,11.4252
-112,687,0.14917,-11.9645,0,0,0,0,0,0,0,-1,1112,337,0.149153,11.9645
-105,687,-0.227173,-12.5151,0,0,0,0,0,0,0,-1,1119,337,-0.227166,12.5151
-98,687,-1.97437,-6.83603,0,0,0,0,0,0,0,-1,1126,337,-1.97434,6.83603
-91,687,2.28162,-7.72437,0,0,0,0,0,0,0,-1,1133,337,2.28167,7.72437
-84,687,-0.867676,-5.7392,0,0,0,0,0,0,0,-1,1140,337,-0.867619,5.73919
-77,687,-3.63806,-12.9185,0,0,0,0,0,0,0,-1,1147,337,-3.6381,12.9185
-70,687,-6.24756,-13.2618,0,0,0,0,0,0,0,-1,1154,337,-6.24752,13.2618
-63,687,-7.70837,-12.9269,0,0,0,0,0,0,0,-1,1161,337,-7.70833,12.9269
-56,687,-7.86511,-5.93417,0,0,0,0,0,0,0,-1,1168,337,-7.86511,5.93419
-49,687,-7.44934,-0.550262,0,0,0,0,0,0,0,-1,1175,337,-7.44938,0.550261
-42,687,-4.2019,-0.405609,0,0,0,0,0,0,0,-1,1182,337,-4.20192,0.405614
-35,687,-4.42273,-0.688171,0,0,0,0,0,0,0,-1,1189,337,-4.42276,0.688178
-28,687,-1.14038,-1.39072,0,0,0,0,0,0,0,-1,1196,337,-1.14035,1.3907
-21,687,1.72864,-12.3809,0,0,0,0,0,0,0,-1,1203,337,1.72859,12.3808
-14,687,1.81238,-12.5164,0,0,0,0,0,0,0,-1,1210,337,1.81234,12.5165
-7,687,1.88025,-12.5872,0.0805208,-0.00241873,-0.0346116,0.0930668,-0.0149647,-0.347749,0.0675873,0.0458882,1217,337,1.88028,12.5872
0,687,2.25366,-12.5464,0,0,0,0,0,0,0,-1,1224,337,2.25361,12.5464
7,687,0.61853,-12.0083,0.0688594,0.00108366,-0.0317127,0.0813836,-0.0114406,-0.376126,0.0584437,0.0448258,1231,337,0.618585,12.0083
14,687,2.42651,-11.1136,0.0601425,0.0030054,-0.0285645,0.0719731,-0.0088252,-0.392664,0.051178,0.0479977,1238,337,2.4265,11.1136
21,687,2.78845,-11.3767,0.0557956,0.00557393,-0.0259899,0.0668238,-0.00545427,-0.4013,0.0464741,0.0494378,1245,337,2.7884,11.3767
28,687,2.68481,-11.9744,0.0532827,0.00827034,-0.0220646,0.0622944,-0.000741355,-0.387746,0.0417789,0.04664,1252,337,2.68483,11.9744
35,687,2.57166,-12.5439,0.0479573,0.00985832,-0.0175454,0.0548062,0.00300945,-0.372161,0.0355767,0.0462824,1259,337,2.57161,12.5439
42,687,2.09448,-12.2823,0,0,0,0,0,0,0,-1,1266,337,2.09453,12.2823
49,687,1.95837,-11.8808,0,0,0,0,0,0,0,-1,1273,337,1.95841,11.8808
56,687,2.02588,-12.1425,0,0,0,0,0,0,0,-1,1280,337,2.0259,12.1425
63,687,2.00659,-12.6464,0,0,0,0,0,0,0,-1,1287,337,2.00655,12.6464
70,687,1.59192,-11.8714,0.0125442,0.0108668,-0.000266214,0.0125854,0.0108256,-0.15368,0.00786954,0.0429278,1294,337,1.59192,11.8714
77,687,1.52881,-11.8085,0.00715426,0.00857152,0.00182135,0.00981724,0.00590854,0.970921,0.00570705,0.0462411,1301,337,1.52882,11.8085
84,687,2.94983,-11.8656,0.00368115,0.008447,0.00838414,0.0147803,-0.00265212,0.923856,0.0108462,0.0441082,1308,337,2.94984,11.8656
91,687,2.33069,-12.679,-0.00159602,0.00620284,0.0122012,0.0151125,-0.0105057,0.940066,0.0148702,0.0434504,1315,337,2.33073,12.679
98,687,1.89905,-13.4027,-0.00518862,0.00300767,0.0157202,0.0151551,-0.017336,0.912907,0.0187728,0.0451679,1322,337,1.89902,13.4027
105,687,1.8645,-14.0448,-0.00593081,0.0012289,0.0203696,0.0183308,-0.0230327,0.872382,0.0239326,0.0465066,1329,337,1.86445,14.0448
112,687,-2.13904,-13.7356,-0.00422101,0.000188807,0.0259463,0.0240237,-0.0280559,0.827786,0.0300982,0.0439911,1336,337,-2.13898,13.7356
119,687,-2.38367,-12.8807,0.00107811,-0.00026475,0.0326144,0.0330279,-0.0322146,0.775106,0.0376688,0.0430144,1343,337,-2.38369,12.8807
126,687,-2.86853,-11.9643,0.00715904,-0.00013605,0.0405503,0.0442255,-0.0372025,0.740543,0.0470708,0.0438443,1350,337,-2.86851,11.9643
133,687,-3.24646,-11.1313,0.016828,0.000773498,0.0479642,0.057432,-0.0398305,0.702487,0.0564602,0.0486904,1357,337,-3.24648,11.1313
140,687,-3.58081,-10.2709,0,0,0,0,0,0,0,-1,1364,337,-3.58086,10.2709
147,687,2.37488,-11.5164,0.041764,0.00314697,0.060933,0.0863746,-0.0414636,0.631963,0.0753103,0.0452188,1371,337,2.37483,11.5164
154,687,2.52258,-11.3062,0.0515323,0.00413063,0.0656095,0.0975906,-0.0419277,0.612071,0.0826602,0.0491384,1378,337,2.52264,11.3062
161,687,2.62097,-10.8349,0,0,0,0,0,0,0,-1,1385,337,2.62097,10.8349
168,687,6.66968,1.37039,0,0,0,0,0,0,0,-1,1392,337,6.6697,-1.37039
175,687,6.64075,0.771606,0,0,0,0,0,0,0,-1,1399,337,6.64073,-0.771595
182,687,6.67249,0.289917,0,0,0,0,0,0,0,-1,1406,337,6.67247,-0.289916
189,687,7.76062,4.53635,0,0,0,0,0,0,0,-1,1413,337,7.76064,-4.53636
196,687,6.99048,3.2966,0,0,0,0,0,0,0,-1,1420,337,6.99046,-3.2966
203,687,6.36499,2.1445,0,0,0,0,0,0,0,-1,1427,337,6.36499,-2.14451
210,687,6.68066,0.674652,0,0,0,0,0,0,0,-1,1434,337,6.68062,-0.674655
217,687,5.99683,-0.630493,0,0,0,0,0,0,0,-1,1441,337,5.99684,0.630497
224,687,5.52917,0.524902,0,0,0,0,0,0,0,-1,1448,337,5.5292,-0.524915
231,687,5.85583,-1.73651,0,0,0,0,0,0,0,-1,1455,337,5.85577,1.73651
238,687,5.96582,-2.96774,0,0,0,0,0,0,0,-1,1462,337,5.96577,2.96773
245,687,1.28259,2.32211,0,0,0,0,0,0,0,-1,1469,337,1.28258,-2.32211
252,687,1.97278,3.88422,0,0,0,0,0,0,0,-1,1476,337,1.97281,-3.88421
259,687,0,0,0,0,0,0,0,0,0,-1,1483,337,0,0
266,687,0,0,0,0,0,0,0,0,0,-1,1490,337,0,0
273,687,0,0,0,0,0,0,0,0,0,-1,1497,337,0,0
280,687,0,0,0,0,0,0,0,0,0,-1,1504,337,0,0
287,687,0,0,0,0,0,0,0,0,0,-1,1511,337,0,0
294,687,0,0,0,0,0,0,0,0,0,-1,1518,337,0,0
301,687,0,0,0,0,0,0,0,0,0,-1,1525,337,0,0
308,687,0,0,0,0,0,0,0,0,0,-1,1532,337,0,0
315,687,0,0,0,0,0,0,0,0,0,-1,1539,337,0,0
322,687,0,0,0,0,0,0,0,0,0,-1,1546,337,0,0
329,687,0,0,0,0,0,0,0,0,0,-1,1553,337,0,0
336,687,0,0,0,0,0,0,0,0,0,-1,1560,337,0,0
343,687,0,0,0,0,0,0,0,0,0,-1,1567,337,0,0
350,687,0,0,0,0,0,0,0,0,0,-1,1574,337,0,0
357,687,0,0,0,0,0,0,0,0,0,-1,1581,337,0,0
364,687,0,0,0,0,0,0,0,0,0,-1,1588,337,0,0
371,687,0,0,0,0,0,0,0,0,0,-1,1595,337,0,0
378,687,0,0,0,0,0,0,0,0,0,-1,1602,337,0,0
385,687,0,0,0,0,0,0,0,0,0,-1,1609,337,0,0
392,687,0,0,0,0,0,0,0,0,0,-1,1616,337,0,0
399,687,0,0,0,0,0,0,0,0,0,-1,1623,337,0,0
406,687,0,0,0,0,0,0,0,0,0,-1,1630,337,0,0
413,687,0,0,0,0,0,0,0,0,0,-1,1637,337,0,0
420,687,0,0,0,0,0,0,0,0,0,-1,1644,337,0,0
427,687,0,0,0,0,0,0,0,0,0,-1,1651,337,0,0
434,687,0,0,0,0,0,0,0,0,0,-1,1658,337,0,0
441,687,0,0,0,0,0,0,0,0,0,-1,1665,337,0,0
448,687,0,0,0,0,0,0,0,0,0,-1,1672,337,0,0
455,687,0,0,0,0,0,0,0,0,0,-1,1679,337,0,0
462,687,0,0,0,0,0,0,0,0,0,-1,1686,337,0,0
469,687,0,0,0,0,0,0,0,0,0,-1,1693,337,0,0
476,687,0,0,0,0,0,0,0,0,0,-1,1700,337,0,0
483,687,0,0,0,0,0,0,0,0,0,-1,1707,337,0,0
490,687,0,0,0,0,0,0,0,0,0,-1,1714,337,0,0
497,687,0,0,0,0,0,0,0,0,0,-1,1721,337,0,0
504,687,0,0,0,0,0,0,0,0,0,-1,1728,337,0,0
511,687,0,0,0,0,0,0,0,0,0,-1,1735,337,0,0
518,687,0,0,0,0,0,0,0,0,0,-1,1742,337,0,0
525,687,0,0,0,0,0,0,0,0,0,-1,1749,337,0,0
532,687,0,0,0,0,0,0,0,0,0,-1,1756,337,0,0
539,687,0,0,0,0,0,0,0,0,0,-1,1763,337,0,0
546,687,0,0,0,0,0,0,0,0,0,-1,1770,337,0,0
553,687,0,0,0,0,0,0,0,0,0,-1,1777,337,0,0
560,687,0,0,0,0,0,0,0,0,0,-1,1784,337,0,0
567,687,0,0,0,0,0,0,0,0,0,-1,1791,337,0,0
574,687,0,0,0,0,0,0,0,0,0,-1,1798,337,0,0
581,687,0,0,0,0,0,0,0,0,0,-1,1805,337,0,0
588,687,0,0,0,0,0,0,0,0,0,-1,1812,337,0,0
595,687,0,0,0,0,0,0,0,0,0,-1,1819,337,0,0
602,687,0,0,0,0,0,0,0,0,0,-1,1826,337,0,0
609,687,0,0,0,0,0,0,0,0,0,-1,1833,337,0,0
616,687,0,0,0,0,0,0,0,0,0,-1,1840,337,0,0
623,687,0,0,0,0,0,0,0,0,0,-1,1847,337,0,0
630,687,0,0,0,0,0,0,0,0,0,-1,1854,337,0,0
637,687,0,0,0,0,0,0,0,0,0,-1,1861,337,0,0
644,687,0,0,0,0,0,0,0,0,0,-1,1868,337,0,0
651,687,0,0,0,0,0,0,0,0,0,-1,1875,337,0,0
658,687,0,0,0,0,0,0,0,0,0,-1,1882,337,0,0
665,687,0,0,0,0,0,0,0,0,0,-1,1889,337,0,0
672,687,0,0,0,0,0,0,0,0,0,-1,1896,337,0,0
679,687,0,0,0,0,0,0,0,0,0,-1,1903,337,0,0
686,687,0,0,0,0,0,0,0,0,0,-1,1910,337,0,0
693,687,0,0,0,0,0,0,0,0,0,-1,1917,337,0,0
700,687,0,0,0,0,0,0,0,0,0,-1,1924,337,0,0
707,687,0,0,0,0,0,0,0,0,0,-1,1931,337,0,0
714,687,0,0,0,0,0,0,0,0,0,-1,1938,337,0,0
721,687,0,0,0,0,0,0,0,0,0,-1,1945,337,0,0
728,687,0,0,0,0,0,0,0,0,0,-1,1952,337,0,0
735,687,0,0,0,0,0,0,0,0,0,-1,1959,337,0,0
742,687,0,0,0,0,0,0,0,0,0,-1,1966,337,0,0
749,687,0,0,0,0,0,0,0,0,0,-1,1973,337,0,0
756,687,0,0,0,0,0,0,0,0,0,-1,1980,337,0,0
763,687,0,0,0,0,0,0,0,0,0,-1,1987,337,0,0
770,687,0,0,0,0,0,0,0,0,0,-1,1994,337,0,0
777,687,0,0,0,0,0,0,0,0,0,-1,2001,337,0,0
784,687,0,0,0,0,0,0,0,0,0,-1,2008,337,0,0
791,687,0,0,0,0,0,0,0,0,0,-1,2015,337,0,0
798,687,0,0,0,0,0,0,0,0,0,-1,2022,337,0,0
805,687,0,0,0,0,0,0,0,0,0,-1,2029,337,0,0
812,687,0,0,0,0,0,0,0,0,0,-1,2036,337,0,0
-700,680,0,0,0,0,0,0,0,0,0,-1,524,344,0,0
-693,680,0,0,0,0,0,0,0,0,0,-1,531,344,0,0
-686,680,0,0,0,0,0,0,0,0,0,-1,538,344,0,0
-679,680,0,0,0,0,0,0,0,0,0,-1,545,344,0,0
-672,680,0,0,0,0,0,0,0,0,0,-1,552,344,0,0
-665,680,0,0,0,0,0,0,0,0,0,-1,559,344,0,0
-658,680,0,0,0,0,0,0,0,0,0,-1,566,344,0,0
-651,680,0,0,0,0,0,0,0,0,0,-1,573,344,0,0
-644,680,0,0,0,0,0,0,0,0,0,-1,580,344,0,0
-637,680,0,0,0,0,0,0,0,0,0,-1,587,344,0,0
-630,680,0,0,0,0,0,0,0,0,0,-1,594,344,0,0
-623,680,0,0,0,0,0,0,0,0,0,-1,601,344,0,0
-616,680,0,0,0,0,0,0,0,0,0,-1,608,344,0,0
-609,680,0,0,0,0,0,0,0,0,0,-1,615,344,0,0
-602,680,0,0,0,0,0,0,0,0,0,-1,622,344,0,0
-595,680,0,0,0,0,0,0,0,0,0,-1,629,344,0,0
-588,680,0,0,0,0,0,0,0,0,0,-1,636,344,0,0
-581,680,0,0,0,0,0,0,0,0,0,-1,643,344,0,0
-574,680,0,0,0,0,0,0,0,0,0,-1,650,344,0,0
-567,680,0,0,0,0,0,0,0,0,0,-1,657,344,0,0
-560,680,0,0,0,0,0,0,0,0,0,-1,664,344,0,0
-553,680,0,0,0,0,0,0,0,0,0,-1,671,344,0,0
-546,680,0,0,0,0,0,0,0,0,0,-1,678,344,0,0
-539,680,0,0,0,0,0,0,0,0,0,-1,685,344,0,0
-532,680,0,0,0,0,0,0,0,0,0,-1,692,344,0,0
-525,680,0,0,0,0,0,0,0,0,0,-1,699,344,0,0
-518,680,0,0,0,0,0,0,0,0,0,-1,706,344,0,0
-511,680,0,0,0,0,0,0,0,0,0,-1,713,344,0,0
-504,680,0,0,0,0,0,0,0,0,0,-1,720,344,0,0
-497,680,0,0,0,0,0,0,0,0,0,-1,727,344,0,0
-490,680,0,0,0,0,0,0,0,0,0,-1,734,344,0,0
-483,680,0,0,0,0,0,0,0,0,0,-1,741,344,0,0
-476,680,0,0,0,0,0,0,0,0,0,-1,748,344,0,0
-469,680,0,0,0,0,0,0,0,0,0,-1,755,344,0,0
-462,680,0,0,0,0,0,0,0,0,0,-1,762,344,0,0
-455,680,0,0,0,0,0,0,0,0,0,-1,769,344,0,0
-448,680,0,0,0,0,0,0,0,0,0,-1,776,344,0,0
-441,680,0,0,0,0,0,0,0,0,0,-1,783,344,0,0
-434,680,0,0,0,0,0,0,0,0,0,-1,790,344,0,0
-427,680,0,0,0,0,0,0,0,0,0,-1,797,344,0,0
-420,680,0,0,0,0,0,0,0,0,0,-1,804,344,0,0
-413,680,0,0,0,0,0,0,0,0,0,-1,811,344,0,0
-406,680,0,0,0,0,0,0,0,0,0,-1,818,344,0,0
-399,680,0,0,0,0,0,0,0,0,0,-1,825,344,0,0
-392,680,0,0,0,0,0,0,0,0,0,-1,832,344,0,0
-385,680,0,0,0,0,0,0,0,0,0,-1,839,344,0,0
-378,680,0,0,0,0,0,0,0,0,0,-1,846,344,0,0
-371,680,0,0,0,0,0,0,0,0,0,-1,853,344,0,0
-364,680,0,0,0,0,0,0,0,0,0,-1,860,344,0,0
-357,680,0,0,0,0,0,0,0,0,0,-1,867,344,0,0
-350,680,0,0,0,0,0,0,0,0,0,-1,874,344,0,0
-343,680,0,0,0,0,0,0,0,0,0,-1,881,344,0,0
-336,680,0,0,0,0,0,0,0,0,0,-1,888,344,0,0
-329,680,0,0,0,0,0,0,0,0,0,-1,895,344,0,0
-322,680,0,0,0,0,0,0,0,0,0,-1,902,344,0,0
-315,680,0,0,0,0,0,0,0,0,0,-1,909,344,0,0
-308,680,0,0,0,0,0,0,0,0,0,-1,916,344,0,0
-301,680,0,0,0,0,0,0,0,0,0,-1,923,344,0,0
-294,680,0,0,0,0,0,0,0,0,0,-1,930,344,0,0
-287,680,0,0,0,0,0,0,0,0,0,-1,937,344,0,0
-280,680,0,0,0,0,0,0,0,0,0,-1,944,344,0,0
-273,680,0,0,0,0,0,0,0,0,0,-1,951,344,0,0
-266,680,0,0,0,0,0,0,0,0,0,-1,958,344,0,0
-259,680,0,0,0,0,0,0,0,0,0,-1,965,344,0,0
-252,680,0,0,0,0,0,0,0,0,0,-1,972,344,0,0
-245,680,0,0,0,0,0,0,0,0,0,-1,979,344,0,0
-238,680,0,0,0,0,0,0,0,0,0,-1,986,344,0,0
-231,680,0,0,0,0,0,0,0,0,0,-1,993,344,0,0
-224,680,0,0,0,0,0,0,0,0,0,-1,1000,344,0,0
-217,680,0,0,0,0,0,0,0,0,0,-1,1007,344,0,0
-210,680,0,0,0,0,0,0,0,0,0,-1,1014,344,0,0
-203,680,0,0,0,0,0,0,0,0,0,-1,1021,344,0,0
-196,680,0,0,0,0,0,0,0,0,0,-1,1028,344,0,0
-189,680,0,0,0,0,0,0,0,0,0,-1,1035,344,0,0
-182,680,0,0,0,0,0,0,0,0,0,-1,1042,344,0,0
-175,680,0,0,0,0,0,0,0,0,0,-1,1049,344,0,0
-168,680,0,0,0,0,0,0,0,0,0,-1,1056,344,0,0
-161,680,0,0,0,0,0,0,0,0,0,-1,1063,344,0,0
-154,680,-1.22534,-3.19229,0,0,0,0,0,0,0,-1,1070,344,-1.22529,3.1923
-147,680,-1.80957,-11.6711,0,0,0,0,0,0,0,-1,1077,344,-1.8096,11.6711
-140,680,-0.929688,-12.2493,0,0,0,0,0,0,0,-1,1084,344,-0.929724,12.2493
-133,680,3.11047,-11.7595,0,0,0,0,0,0,0,-1,1091,344,3.11044,11.7595
-126,680,1.31165,-10.1951,0,0,0,0,0,0,0,-1,1098,344,1.31166,10.1951
-119,680,1.04834,-10.3552,0,0,0,0,0,0,0,-1,1105,344,1.04835,10.3552
-112,680,0.719482,-10.732,0,0,0,0,0,0,0,-1,1112,344,0.719423,10.732
-105,680,1.61389,-10.9674,0,0,0,0,0,0,0,-1,1119,344,1.61384,10.9674
-98,680,2.69434,-11.1682,0,0,0,0,0,0,0,-1,1126,344,2.69437,11.1682
-91,680,2.55139,-10.923,0,0,0,0,0,0,0,-1,1133,344,2.55141,10.923
-84,680,1.13232,-9.39075,0,0,0,0,0,0,0,-1,1140,344,1.13233,9.39075
-77,680,-0.118652,-5.75586,0,0,0,0,0,0,0,-1,1147,344,-0.118628,5.75586
-70,680,-4.04382,-16.124,0,0,0,0,0,0,0,-1,1154,344,-4.04388,16.124
-63,680,-5.41333,-13.0013,0,0,0,0,0,0,0,-1,1161,344,-5.41332,13.0013
-56,680,-6.96912,-8.83356,0,0,0,0,0,0,0,-1,1168,344,-6.96907,8.83354
-49,680,-6.7677,-2.24063,0,0,0,0,0,0,0,-1,1175,344,-6.76772,2.24063
-42,680,-1.02368,0.618805,0,0,0,0,0,0,0,-1,1182,344,-1.0237,-0.618797
-35,680,-0.947876,-0.942719,0,0,0,0,0,0,0,-1,1189,344,-0.947842,0.942731
-28,680,-1.46118,-1.10574,0,0,0,0,0,0,0,-1,1196,344,-1.4612,1.10575
-21,680,2.1665,-11.8168,0,0,0,0,0,0,0,-1,1203,344,2.16649,11.8168
-14,680,2.17212,-12.0935,0,0,0,0,0,0,0,-1,1210,344,2.17207,12.0935
-7,680,1.96313,-12.4401,0,0,0,0,0,0,0,-1,1217,344,1.96309,12.4401
0,680,1.99707,-12.5553,0,0,0,0,0,0,0,-1,1224,344,1.99706,12.5553
7,680,1.43372,-12.1796,0.0491303,0.00127608,-0.0231562,0.0585006,-0.00809418,-0.384513,0.0419595,0.0426971,1231,344,1.43369,12.1796
14,680,2.46851,-11.6691,0.0433066,0.00262638,-0.0211261,0.0522928,-0.00635981,-0.402175,0.0371636,0.0439212,1238,344,2.46849,11.6691
21,680,2.36023,-11.7856,0.0405313,0.00446312,-0.0195533,0.0490972,-0.00410282,-0.412898,0.0341813,0.0476641,1245,344,2.3602,11.7856
28,680,2.42603,-12.0791,0.0389479,0.00633461,-0.0167683,0.0460311,-0.000748541,-0.399677,0.0309399,0.0474735,1252,344,2.42608,12.0791
35,680,2.3811,-12.3499,0.0350594,0.00721552,-0.0135315,0.040552,0.00172296,-0.385589,0.026479,0.0454333,1259,344,2.38106,12.3499
42,680,2.15405,-12.265,0.0312609,0.00807841,-0.0104233,0.0352582,0.0040811,-0.366199,0.0222701,0.0462884,1266,344,2.1541,12.2649
49,680,2.06482,-12.0399,0.0274359,0.00904485,-0.00753873,0.0301311,0.00634962,-0.343357,0.018341,0.0431208,1273,344,2.06485,12.04
56,680,2.04907,-11.9562,0.0218864,0.00892212,-0.00478844,0.0234633,0.00734527,-0.318119,0.0138586,0.0387028,1280,344,2.04912,11.9562
63,680,2.02905,-11.9824,0.0140651,0.00834271,-0.00260938,0.0150763,0.00733152,-0.3697,0.00870538,0.0368939,1287,344,2.02902,11.9824
70,680,1.89478,-12.0011,0.00783332,0.00706965,-0.000741794,0.00828578,0.00661718,-0.54771,0.0050602,0.0369441,1294,344,1.89483,12.0011
77,680,1.88684,-12.0355,0.00375161,0.00519019,0.00102084,0.00571969,0.0032221,1.0923,0.00331109,0.0426781,1301,344,1.88682,12.0355
84,680,2.04871,-11.8822,0,0,0,0,0,0,0,-1,1308,344,2.04875,11.8822
91,680,1.92505,-12.4673,0,0,0,0,0,0,0,-1,1315,344,1.92505,12.4673
98,680,1.75391,-12.1194,0,0,0,0,0,0,0,-1,1322,344,1.7539,12.1195
105,680,1.33496,-12.6973,-0.00607957,-0.000338222,0.0152058,0.0122655,-0.0186833,0.878694,0.0179959,0.0470722,1329,344,1.33499,12.6973
112,680,1.38635,-12.5105,-0.00500066,-0.00108307,0.019335,0.0163921,-0.0224759,0.83588,0.0225319,0.0474098,1336,344,1.38638,12.5105
119,680,1.38904,-12.3851,-0.0013186,-0.00134296,0.0242632,0.0229324,-0.025594,0.785147,0.0280307,0.0456579,1343,344,1.38906,12.3851
126,680,1.78662,-11.766,0,0,0,0,0,0,0,-1,1350,344,1.78667,11.766
133,680,1.94043,-11.7807,0,0,0,0,0,0,0,-1,1357,344,1.9404,11.7807
140,680,2.03882,-11.8142,0,0,0,0,0,0,0,-1,1364,344,2.03885,11.8142
147,680,2.1759,-11.3694,0.0270895,0.00195736,0.045006,0.0612508,-0.0322039,0.649261,0.054818,0.0453072,1371,344,2.1759,11.3694
154,680,2.23047,-11.3421,0.0341032,0.00268208,0.0484729,0.069348,-0.0325627,0.628685,0.0601022,0.0479439,1378,344,2.23049,11.3421
161,680,2.20459,-11.0067,0,0,0,0,0,0,0,-1,1385,344,2.20456,11.0067
168,680,6.85046,1.69257,0,0,0,0,0,0,0,-1,1392,344,6.85045,-1.69257
175,680,6.66541,0.942078,0,0,0,0,0,0,0,-1,1399,344,6.66538,-0.942088
182,680,6.52917,0.532379,0,0,0,0,0,0,0,-1,1406,344,6.52922,-0.532385
189,680,7.55884,4.77695,0,0,0,0,0,0,0,-1,1413,344,7.55886,-4.77694
196,680,6.55627,3.35254,0,0,0,0,0,0,0,-1,1420,344,6.55622,-3.35255
203,680,5.7334,1.90753,0,0,0,0,0,0,0,-1,1427,344,5.73341,-1.90754
210,680,5.27515,0.493622,0,0,0,0,0,0,0,-1,1434,344,5.27514,-0.493632
217,680,3.96936,1.3656,0,0,0,0,0,0,0,-1,1441,344,3.96942,-1.36559
224,680,3.9491,-0.640228,0,0,0,0,0,0,0,-1,1448,344,3.94908,0.64024
231,680,4.24866,-1.96881,0,0,0,0,0,0,0,-1,1455,344,4.2486,1.96882
238,680,4.29333,-3.23984,0,0,0,0,0,0,0,-1,1462,344,4.29332,3.23984
245,680,2.44397,0.985382,0,0,0,0,0,0,0,-1,1469,344,2.44402,-0.985394
252,680,3.07349,2.18951,0,0,0,0,0,0,0,-1,1476,344,3.0735,-2.18952
259,680,2.82971,1.30682,0,0,0,0,0,0,0,-1,1483,344,2.82972,-1.30684
266,680,2.67554,1.44067,0,0,0,0,0,0,0,-1,1490,344,2.67551,-1.44066
273,680,2.46411,1.54666,0,0,0,0,0,0,0,-1,1497,344,2.46407,-1.54666
280,680,0,0,0,0,0,0,0,0,0,-1,1504,344,0,0
287,680,0,0,0,0,0,0,0,0,0,-1,1511,344,0,0
294,680,0,0,0,0,0,0,0,0,0,-1,1518,344,0,0
301,680,0,0,0,0,0,0,0,0,0,-1,1525,344,0,0
308,680,0,0,0,0,0,0,0,0,0,-1,1532,344,0,0
315,680,0,0,0,0,0,0,0,0,0,-1,1539,344,0,0
322,680,0,0,0,0,0,0,0,0,0,-1,1546,344,0,0
329,680,0,0,0,0,0,0,0,0,0,-1,1553,344,0,0
336,680,0,0,0,0,0,0,0,0,0,-1,1560,344,0,0
343,680,0,0,0,0,0,0,0,0,0,-1,1567,344,0,0
350,680,0,0,0,0,0,0,0,0,0,-1,1574,344,0,0
357,680,0,0,0,0,0,0,0,0,0,-1,1581,344,0,0
364,680,0,0,0,0,0,0,0,0,0,-1,1588,344,0,0
371,680,0,0,0,0,0,0,0,0,0,-1,1595,344,0,0
378,680,0,0,0,0,0,0,0,0,0,-1,1602,344,0,0
385,680,0,0,0,0,0,0,0,0,0,-1,1609,344,0,0
392,680,0,0,0,0,0,0,0,0,0,-1,1616,344,0,0
399,680,0,0,0,0,0,0,0,0,0,-1,1623,344,0,0
406,680,0,0,0,0,0,0,0,0,0,-1,1630,344,0,0
413,680,0,0,0,0,0,0,0,0,0,-1,1637,344,0,0
420,680,0,0,0,0,0,0,0,0,0,-1,1644,344,0,0
427,680,0,0,0,0,0,0,0,0,0,-1,1651,344,0,0
434,680,0,0,0,0,0,0,0,0,0,-1,1658,344,0,0
441,680,0,0,0,0,0,0,0,0,0,-1,1665,344,0,0
448,680,0,0,0,0,0,0,0,0,0,-1,1672,344,0,0
455,680,0,0,0,0,0,0,0,0,0,-1,1679,344,0,0
462,680,0,0,0,0,0,0,0,0,0,-1,1686,344,0,0
469,680,0,0,0,0,0,0,0,0,0,-1,1693,344,0,0
476,680,0,0,0,0,0,0,0,0,0,-1,1700,344,0,0
483,680,0,0,0,0,0,0,0,0,0,-1,1707,344,0,0
490,680,0,0,0,0,0,0,0,0,0,-1,1714,344,0,0
497,680,0,0,0,0,0,0,0,0,0,-1,1721,344,0,0
504,680,0,0,0,0,0,0,0,0,0,-1,1728,344,0,0
511,680,0,0,0,0,0,0,0,0,0,-1,1735,344,0,0
518,680,0,0,0,0,0,0,0,0,0,-1,1742,344,0,0
525,680,0,0,0,0,0,0,0,0,0,-1,1749,344,0,0
532,680,0,0,0,0,0,0,0,0,0,-1,1756,344,0,0
539,680,0,0,0,0,0,0,0,0,0,-1,1763,344,0,0
546,680,0,0,0,0,0,0,0,0,0,-1,1770,344,0,0
553,680,0,0,0,0,0,0,0,0,0,-1,1777,344,0,0
560,680,0,0,0,0,0,0,0,0,0,-1,1784,344,0,0
567,680,0,0,0,0,0,0,0,0,0,-1,1791,344,0,0
574,680,0,0,0,0,0,0,0,0,0,-1,1798,344,0,0
581,680,0,0,0,0,0,0,0,0,0,-1,1805,344,0,0
588,680,0,0,0,0,0,0,0,0,0,-1,1812,344,0,0
595,680,0,0,0,0,0,0,0,0,0,-1,1819,344,0,0
602,680,0,0,0,0,0,0,0,0,0,-1,1826,344,0,0
609,680,0,0,0,0,0,0,0,0,0,-1,1833,344,0,0
616,680,0,0,0,0,0,0,0,0,0,-1,1840,344,0,0
623,680,0,0,0,0,0,0,0,0,0,-1,1847,344,0,0
630,680,0,0,0,0,0,0,0,0,0,-1,1854,344,0,0
637,680,0,0,0,0,0,0,0,0,0,-1,1861,344,0,0
644,680,0,0,0,0,0,0,0,0,0,-1,1868,344,0,0
651,680,0,0,0,0,0,0,0,0,0,-1,1875,344,0,0
658,680,0,0,0,0,0,0,0,0,0,-1,1882,344,0,0
665,680,0,0,0,0,0,0,0,0,0,-1,1889,344,0,0
672,680,0,0,0,0,0,0,0,0,0,-1,1896,344,0,0
679,680,0,0,0,0,0,0,0,0,0,-1,1903,344,0,0
686,680,0,0,0,0,0,0,0,0,0,-1,1910,344,0,0
693,680,0,0,0,0,0,0,0,0,0,-1,1917,344,0,0
700,680,0,0,0,0,0,0,0,0,0,-1,1924,344,0,0
707,680,0,0,0,0,0,0,0,0,0,-1,1931,344,0,0
714,680,0,0,0,0,0,0,0,0,0,-1,1938,344,0,0
721,680,0,0,0,0,0,0,0,0,0,-1,1945,344,0,0
728,680,0,0,0,0,0,0,0,0,0,-1,1952,344,0,0
735,680,0,0,0,0,0,0,0,0,0,-1,1959,344,0,0
742,680,0,0,0,0,0,0,0,0,0,-1,1966,344,0,0
749,680,0,0,0,0,0,0,0,0,0,-1,1973,344,0,0
756,680,0,0,0,0,0,0,0,0,0,-1,1980,344,0,0
763,680,0,0,0,0,0,0,0,0,0,-1,1987,344,0,0
770,680,0,0,0,0,0,0,0,0,0,-1,1994,344,0,0
777,680,0,0,0,0,0,0,0,0,0,-1,2001,344,0,0
784,680,0,0,0,0,0,0,0,0,0,-1,2008,344,0,0
791,680,0,0,0,0,0,0,0,0,0,-1,2015,344,0,0
798,680,0,0,0,0,0,0,0,0,0,-1,2022,344,0,0
805,680,0,0,0,0,0,0,0,0,0,-1,2029,344,0,0
812,680,0,0,0,0,0,0,0,0,0,-1,2036,344,0,0
-700,673,0,0,0,0,0,0,0,0,0,-1,524,351,0,0
-693,673,0,0,0,0,0,0,0,0,0,-1,531,351,0,0
-686,673,0,0,0,0,0,0,0,0,0,-1,538,351,0,0
-679,673,0,0,0,0,0,0,0,0,0,-1,545,351,0,0
-672,673,0,0,0,0,0,0,0,0,0,-1,552,351,0,0
-665,673,0,0,0,0,0,0,0,0,0,-1,559,351,0,0
-658,673,0,0,0,0,0,0,0,0,0,-1,566,351,0,0
-651,673,0,0,0,0,0,0,0,0,0,-1,573,351,0,0
-644,673,0,0,0,0,0,0,0,0,0,-1,580,351,0,0
-637,673,0,0,0,0,0,0,0,0,0,-1,587,351,0,0
-630,673,0,0,0,0,0,0,0,0,0,-1,594,351,0,0
-623,673,0,0,0,0,0,0,0,0,0,-1,601,351,0,0
-616,673,0,0,0,0,0,0,0,0,0,-1,608,351,0,0
-609,673,0,0,0,0,0,0,0,0,0,-1,615,351,0,0
-602,673,0,0,0,0,0,0,0,0,0,-1,622,351,0,0
-595,673,0,0,0,0,0,0,0,0,0,-1,629,351,0,0
-588,673,0,0,0,0,0,0,0,0,0,-1,636,351,0,0
-581,673,0,0,0,0,0,0,0,0,0,-1,643,351,0,0
-574,673,0,0,0,0,0,0,0,0,0,-1,650,351,0,0
-567,673,0,0,0,0,0,0,0,0,0,-1,657,351,0,0
-560,673,0,0,0,0,0,0,0,0,0,-1,664,351,0,0
-553,673,0,0,0,0,0,0,0,0,0,-1,671,351,0,0
-546,673,0,0,0,0,0,0,0,0,0,-1,678,351,0,0
-539,673,0,0,0,0,0,0,0,0,0,-1,685,351,0,0
-532,673,0,0,0,0,0,0,0,0,0,-1,692,351,0,0
-525,673,0,0,0,0,0,0,0,0,0,-1,699,351,0,0
-518,673,0,0,0,0,0,0,0,0,0,-1,706,351,0,0
-511,673,0,0,0,0,0,0,0,0,0,-1,713,351,0,0
-504,673,0,0,0,0,0,0,0,0,0,-1,720,351,0,0
-497,673,0,0,0,0,0,0,0,0,0,-1,727,351,0,0
-490,673,0,0,0,0,0,0,0,0,0,-1,734,351,0,0
-483,673,0,0,0,0,0,0,0,0,0,-1,741,351,0,0
-476,673,0,0,0,0,0,0,0,0,0,-1,748,351,0,0
-469,673,0,0,0,0,0,0,0,0,0,-1,755,351,0,0
-462,673,0,0,0,0,0,0,0,0,0,-1,762,351,0,0
-455,673,0,0,0,0,0,0,0,0,0,-1,769,351,0,0
-448,673,0,0,0,0,0,0,0,0,0,-1,776,351,0,0
-441,673,0,0,0,0,0,0,0,0,0,-1,783,351,0,0
-434,673,0,0,0,0,0,0,0,0,0,-1,790,351,0,0
-427,673,0,0,0,0,0,0,0,0,0,-1,797,351,0,0
-420,673,0,0,0,0,0,0,0,0,0,-1,804,351,0,0
-413,673,0,0,0,0,0,0,0,0,0,-1,811,351,0,0
-406,673,0,0,0,0,0,0,0,0,0,-1,818,351,0,0
-399,673,0,0,0,0,0,0,0,0,0,-1,825,351,0,0
-392,673,0,0,0,0,0,0,0,0,0,-1,832,351,0,0
-385,673,0,0,0,0,0,0,0,0,0,-1,839,351,0,0
-378,673,0,0,0,0,0,0,0,0,0,-1,846,351,0,0
-371,673,0,0,0,0,0,0,0,0,0,-1,853,351,0,0
-364,673,0,0,0,0,0,0,0,0,0,-1,860,351,0,0
-357,673,0,0,0,0,0,0,0,0,0,-1,867,351,0,0
-350,673,0,0,0,0,0,0,0,0,0,-1,874,351,0,0
-343,673,0,0,0,0,0,0,0,0,0,-1,881,351,0,0
-336,673,0,0,0,0,0,0,0,0,0,-1,888,351,0,0
-329,673,0,0,0,0,0,0,0,0,0,-1,895,351,0,0
-322,673,0,0,0,0,0,0,0,0,0,-1,902,351,0,0
-315,673,0,0,0,0,0,0,0,0,0,-1,909,351,0,0
-308,673,0,0,0,0,0,0,0,0,0,-1,916,351,0,0
-301,673,0,0,0,0,0,0,0,0,0,-1,923,351,0,0
-294,673,0,0,0,0,0,0,0,0,0,-1,930,351,0,0
-287,673,0,0,0,0,0,0,0,0,0,-1,937,351,0,0
-280,673,0,0,0,0,0,0,0,0,0,-1,944,351,0,0
-273,673,0,0,0,0,0,0,0,0,0,-1,951,351,0,0
-266,673,0,0,0,0,0,0,0,0,0,-1,958,351,0,0
-259,673,0,0,0,0,0,0,0,0,0,-1,965,351,0,0
-252,673,0,0,0,0,0,0,0,0,0,-1,972,351,0,0
-245,673,0,0,0,0,0,0,0,0,0,-1,979,351,0,0
-238,673,0,0,0,0,0,0,0,0,0,-1,986,351,0,0
-231,673,0,0,0,0,0,0,0,0,0,-1,993,351,0,0
-224,673,0,0,0,0,0,0,0,0,0,-1,1000,351,0,0
-217,673,0,0,0,0,0,0,0,0,0,-1,1007,351,0,0
-210,673,0,0,0,0,0,0,0,0,0,-1,1014,351,0,0
-203,673,0,0,0,0,0,0,0,0,0,-1,1021,351,0,0
-196,673,0,0,0,0,0,0,0,0,0,-1,1028,351,0,0
-189,673,0,0,0,0,0,0,0,0,0,-1,1035,351,0,0
-182,673,0,0,0,0,0,0,0,0,0,-1,1042,351,0,0
-175,673,5.71729,-7.07901,0,0,0,0,0,0,0,-1,1049,351,5.71723,7.079
-168,673,-2.26758,-11.4204,0,0,0,0,0,0,0,-1,1056,351,-2.26762,11.4204
-161,673,3.58032,-13.2393,0,0,0,0,0,0,0,-1,1063,351,3.58032,13.2393
-154,673,0.788818,-14.3871,0,0,0,0,0,0,0,-1,1070,351,0.788878,14.387
-147,673,-0.547607,-11.6821,0,0,0,0,0,0,0,-1,1077,351,-0.547623,11.6821
-140,673,1.78052,-12.8625,0,0,0,0,0,0,0,-1,1084,351,1.7805,12.8625
-133,673,1.14063,-12.0141,0,0,0,0,0,0,0,-1,1091,351,1.14067,12.0141
-126,673,3.91003,-10.2144,0,0,0,0,0,0,0,-1,1098,351,3.91004,10.2144
-119,673,2.2644,-9.51627,0,0,0,0,0,0,0,-1,1105,351,2.26435,9.51626
-112,673,2.57996,-9.18784,0,0,0,0,0,0,0,-1,1112,351,2.58001,9.18783
-105,673,2.453,-8.56613,0,0,0,0,0,0,0,-1,1119,351,2.45302,8.56614
-98,673,2.5575,-11.2373,-0.00725306,0.057735,-0.00144909,0.0577673,-0.00728535,-1.54851,0.0411555,0.0489703,1126,351,2.55744,11.2373
-91,673,2.35352,-10.9878,-0.00862561,0.054259,-0.00156149,0.0542977,-0.00866435,-1.54599,0.0394054,0.0492391,1133,351,2.35352,10.9878
-84,673,2.13403,-10.5989,0,0,0,0,0,0,0,-1,1140,351,2.13405,10.5989
-77,673,0.616333,-9.72266,0,0,0,0,0,0,0,-1,1147,351,0.616302,9.72266
-70,673,1.88684,-4.7381,0,0,0,0,0,0,0,-1,1154,351,1.88682,4.73809
-63,673,1.11719,-2.95016,0,0,0,0,0,0,0,-1,1161,351,1.11724,2.95016
-56,673,-6.18872,-9.52338,0,0,0,0,0,0,0,-1,1168,351,-6.18874,9.52336
-49,673,-0.926758,-0.115448,0,0,0,0,0,0,0,-1,1175,351,-0.926732,0.115444
-42,673,-1.15015,0.289917,0,0,0,0,0,0,0,-1,1182,351,-1.15017,-0.289932
-35,673,-0.919556,-1.00711,0,0,0,0,0,0,0,-1,1189,351,-0.919514,1.00711
-28,673,1.03564,-2.58228,0,0,0,0,0,0,0,-1,1196,351,1.0356,2.58229
-21,673,2.34924,-12.0051,0,0,0,0,0,0,0,-1,1203,351,2.34925,12.0051
-14,673,2.22913,-12.0786,0.0380037,-0.00149041,-0.0166573,0.044091,-0.00757765,-0.350363,0.0322183,0.0444262,1210,351,2.22911,12.0786
-7,673,2.10986,-12.2245,0.0377164,-0.000418134,-0.0170617,0.0442355,-0.00693722,-0.364971,0.032054,0.0420038,1217,351,2.10989,12.2244
0,673,2.0918,-12.259,0.0363963,0.000611867,-0.0169961,0.043182,-0.00617383,-0.37986,0.0310512,0.0431795,1224,351,2.09185,12.259
7,673,2.05957,-12.2081,0.0340769,0.00133554,-0.0163903,0.0408718,-0.00545933,-0.392999,0.029238,0.0433432,1231,351,2.05953,12.2081
14,673,2.36755,-12.0719,0.030316,0.00227898,-0.0151321,0.0369251,-0.00433017,-0.411792,0.0261798,0.0385375,1238,351,2.36759,12.0719
21,673,2.32629,-12.1387,0.0285758,0.00357882,-0.014213,0.035004,-0.00284944,-0.424749,0.0243415,0.02577,1245,351,2.32633,12.1387
28,673,2.29968,-12.1232,0.0275944,0.00485187,-0.0123007,0.0329747,-0.00052838,-0.412321,0.0221613,0.0178622,1252,351,2.29967,12.1232
35,673,2.27344,-12.1768,0.0248455,0.00528719,-0.0100612,0.029097,0.00103569,-0.399806,0.0190622,0.0249945,1259,351,2.27343,12.1768
42,673,2.1925,-12.2094,0.0220662,0.00577393,-0.00788048,0.0252541,0.00258597,-0.384413,0.0160437,0.0281677,1266,351,2.19255,12.2094
49,673,2.18115,-12.1508,0.019258,0.00642221,-0.00580489,0.0214938,0.00418642,-0.367644,0.0131576,0.0173007,1273,351,2.18113,12.1508
56,673,2.17407,-12.1281,0.0151246,0.00616542,-0.00376831,0.0164988,0.00479122,-0.349686,0.00980062,0.0131818,1280,351,2.17407,12.1281
63,673,2.19263,-12.1054,0.00916873,0.0055451,-0.0022154,0.0102189,0.00449498,-0.44264,0.00591406,0.0160689,1287,351,2.19267,12.1054
70,673,2.13477,-12.0732,0.00456739,0.00442347,-0.000949639,0.00544779,0.00354307,-0.747581,0.00319234,0.0253625,1294,351,2.13481,12.0732
77,673,2.19263,-12.1346,0.00155951,0.00290912,0.000451014,0.00304597,0.00142267,1.27621,0.00175986,0.0360973,1301,351,2.1926,12.1345
84,673,2.11902,-12.2705,-0.000345086,0.00267109,0.00425778,0.00567997,-0.00335397,0.955602,0.00527306,0.039784,1308,351,2.119,12.2705
91,673,1.93164,-12.2975,-0.00316437,0.00150645,0.00645178,0.0060325,-0.00769042,0.959052,0.00794218,0.0417498,1315,351,1.93167,12.2975
98,673,1.86035,-12.0889,-0.00511294,-0.000263684,0.00837545,0.00603103,-0.0114077,0.926293,0.0102265,0.043814,1322,351,1.86039,12.0889
105,673,1.82239,-11.9305,0,0,0,0,0,0,0,-1,1329,351,1.82239,11.9305
112,673,1.68152,-12.2391,-0.00492916,-0.00169101,0.0139145,0.0106982,-0.0173184,0.843317,0.0163253,0.0417451,1336,351,1.68147,12.2391
119,673,1.88635,-11.8806,-0.00243105,-0.00181423,0.0174475,0.0153275,-0.0195728,0.794236,0.0201994,0.0405974,1343,351,1.88632,11.8806
126,673,1.88904,-11.7969,0.000155775,-0.00160334,0.0217047,0.0209987,-0.0224463,0.765147,0.0250876,0.0402155,1350,351,1.889,11.7969
133,673,1.96948,-11.7705,0.00439549,-0.000873047,0.0254844,0.0273815,-0.023859,0.733897,0.029607,0.0412222,1357,351,1.96948,11.7705
140,673,2.00085,-11.791,0.0109769,0.000411726,0.0290318,0.0352028,-0.0238142,0.695404,0.0342843,0.0439669,1364,351,2.00089,11.791
147,673,1.9884,-11.6415,0.0168253,0.00117854,0.0321252,0.042066,-0.0240622,0.66596,0.0386479,0.0423266,1371,351,1.98844,11.6415
154,673,2.06714,-11.5923,0.021687,0.00170214,0.0345509,0.0476614,-0.0242723,0.644634,0.0422564,0.0412571,1378,351,2.06712,11.5923
161,673,2.01038,-11.5327,0,0,0,0,0,0,0,-1,1385,351,2.01041,11.5327
168,673,6.87061,1.83954,0,0,0,0,0,0,0,-1,1392,351,6.87063,-1.83953
175,673,6.6228,1.1459,0,0,0,0,0,0,0,-1,1399,351,6.62276,-1.14591
182,673,6.37244,0.796112,0,0,0,0,0,0,0,-1,1406,351,6.3724,-0.796102
189,673,6.12097,0.265472,0,0,0,0,0,0,0,-1,1413,351,6.121,-0.265482
196,673,6.02173,3.12717,0,0,0,0,0,0,0,-1,1420,351,6.02176,-3.12717
203,673,5.04456,1.6351,0,0,0,0,0,0,0,-1,1427,351,5.04455,-1.63509
210,673,4.79224,0.447479,0,0,0,0,0,0,0,-1,1434,351,4.79229,-0.447469
217,673,2.01648,0.972687,0,0,0,0,0,0,0,-1,1441,351,2.01644,-0.972691
224,673,2.3689,-1.80539,0,0,0,0,0,0,0,-1,1448,351,2.36896,1.80539
231,673,2.65857,-2.18497,0,0,0,0,0,0,0,-1,1455,351,2.65852,2.18496
238,673,3.24146,-1.01593,0,0,0,0,0,0,0,-1,1462,351,3.24142,1.01593
245,673,3.5376,-0.190399,0,0,0,0,0,0,0,-1,1469,351,3.53759,0.1904
252,673,3.80518,0.55603,0,0,0,0,0,0,0,-1,1476,351,3.80519,-0.556022
259,673,3.88562,1.29617,0,0,0,0,0,0,0,-1,1483,351,3.88562,-1.29618
266,673,4.22424,2.04834,0,0,0,0,0,0,0,-1,1490,351,4.22429,-2.04834
273,673,6.07886,0.385895,0,0,0,0,0,0,0,-1,1497,351,6.0789,-0.385906
280,673,6.97534,-0.0820007,0,0,0,0,0,0,0,-1,1504,351,6.97536,0.0820122
287,673,7.66968,-0.348541,0,0,0,0,0,0,0,-1,1511,351,7.66969,0.348534
294,673,8.20996,0.28537,0,0,0,0,0,0,0,-1,1518,351,8.20993,-0.28536
301,673,0,0,0,0,0,0,0,0,0,-1,1525,351,0,0
308,673,0,0,0,0,0,0,0,0,0,-1,1532,351,0,0
315,673,0,0,0,0,0,0,0,0,0,-1,1539,351,0,0
322,673,0,0,0,0,0,0,0,0,0,-1,1546,351,0,0
329,673,0,0,0,0,0,0,0,0,0,-1,1553,351,0,0
336,673,0,0,0,0,0,0,0,0,0,-1,1560,351,0,0
343,673,0,0,0,0,0,0,0,0,0,-1,1567,351,0,0
350,673,0,0,0,0,0,0,0,0,0,-1,1574,351,0,0
357,673,0,0,0,0,0,0,0,0,0,-1,1581,351,0,0
364,673,0,0,0,0,0,0,0,0,0,-1,1588,351,0,0
371,673,0,0,0,0,0,0,0,0,0,-1,1595,351,0,0
378,673,0,0,0,0,0,0,0,0,0,-1,1602,351,0,0
385,673,0,0,0,0,0,0,0,0,0,-1,1609,351,0,0
392,673,0,0,0,0,0,0,0,0,0,-1,1616,351,0,0
399,673,0,0,0,0,0,0,0,0,0,-1,1623,351,0,0
406,673,0,0,0,0,0,0,0,0,0,-1,1630,351,0,0
413,673,0,0,0,0,0,0,0,0,0,-1,1637,351,0,0
420,673,0,0,0,0,0,0,0,0,0,-1,1644,351,0,0
427,673,0,0,0,0,0,0,0,0,0,-1,1651,351,0,0
434,673,0,0,0,0,0,0,0,0,0,-1,1658,351,0,0
441,673,0,0,0,0,0,0,0,0,0,-1,1665,351,0,0
448,673,0,0,0,0,0,0,0,0,0,-1,1672,351,0,0
455,673,0,0,0,0,0,0,0,0,0,-1,1679,351,0,0
462,673,0,0,0,0,0,0,0,0,0,-1,1686,351,0,0
469,673,0,0,0,0,0,0,0,0,0,-1,1693,351,0,0
476,673,0,0,0,0,0,0,0,0,0,-1,1700,351,0,0
483,673,0,0,0,0,0,0,0,0,0,-1,1707,351,0,0
490,673,0,0,0,0,0,0,0,0,0,-1,1714,351,0,0
497,673,0,0,0,0,0,0,0,0,0,-1,1721,351,0,0
504,673,0,0,0,0,0,0,0,0,0,-1,1728,351,0,0
511,673,0,0,0,0,0,0,0,0,0,-1,1735,351,0,0
518,673,0,0,0,0,0,0,0,0,0,-1,1742,351,0,0
525,673,0,0,0,0,0,0,0,0,0,-1,1749,351,0,0
532,673,0,0,0,0,0,0,0,0,0,-1,1756,351,0,0
539,673,0,0,0,0,0,0,0,0,0,-1,1763,351,0,0
546,673,0,0,0,0,0,0,0,0,0,-1,1770,351,0,0
553,673,0,0,0,0,0,0,0,0,0,-1,1777,351,0,0
560,673,0,0,0,0,0,0,0,0,0,-1,1784,351,0,0
567,673,0,0,0,0,0,0,0,0,0,-1,1791,351,0,0
574,673,0,0,0,0,0,0,0,0,0,-1,1798,351,0,0
581,673,0,0,0,0,0,0,0,0,0,-1,1805,351,0,0
588,673,0,0,0,0,0,0,0,0,0,-1,1812,351,0,0
595,673,0,0,0,0,0,0,0,0,0,-1,1819,351,0,0
602,673,0,0,0,0,0,0,0,0,0,-1,1826,351,0,0
609,673,0,0,0,0,0,0,0,0,0,-1,1833,351,0,0
616,673,0,0,0,0,0,0,0,0,0,-1,1840,351,0,0
623,673,0,0,0,0,0,0,0,0,0,-1,1847,351,0,0
630,673,0,0,0,0,0,0,0,0,0,-1,1854,351,0,0
637,673,0,0,0,0,0,0,0,0,0,-1,1861,351,0,0
644,673,0,0,0,0,0,0,0,0,0,-1,1868,351,0,0
651,673,0,0,0,0,0,0,0,0,0,-1,1875,351,0,0
658,673,0,0,0,0,0,0,0,0,0,-1,1882,351,0,0
665,673,0,0,0,0,0,0,0,0,0,-1,1889,351,0,0
672,673,0,0,0,0,0,0,0,0,0,-1,1896,351,0,0
679,673,0,0,0,0,0,0,0,0,0,-1,1903,351,0,0
686,673,0,0,0,0,0,0,0,0,0,-1,1910,351,0,0
693,673,0,0,0,0,0,0,0,0,0,-1,1917,351,0,0
700,673,0,0,0,0,0,0,0,0,0,-1,1924,351,0,0
707,673,0,0,0,0,0,0,0,0,0,-1,1931,351,0,0
714,673,0,0,0,0,0,0,0,0,0,-1,1938,351,0,0
721,673,0,0,0,0,0,0,0,0,0,-1,1945,351,0,0
728,673,0,0,0,0,0,0,0,0,0,-1,1952,351,0,0
735,673,0,0,0,0,0,0,0,0,0,-1,1959,351,0,0
742,673,0,0,0,0,0,0,0,0,0,-1,1966,351,0,0
749,673,0,0,0,0,0,0,0,0,0,-1,1973,351,0,0
756,673,0,0,0,0,0,0,0,0,0,-1,1980,351,0,0
763,673,0,0,0,0,0,0,0,0,0,-1,1987,351,0,0
770,673,0,0,0,0,0,0,0,0,0,-1,1994,351,0,0
777,673,0,0,0,0,0,0,0,0,0,-1,2001,351,0,0
784,673,0,0,0,0,0,0,0,0,0,-1,2008,351,0,0
791,673,0,0,0,0,0,0,0,0,0,-1,2015,351,0,0
798,673,0,0,0,0,0,0,0,0,0,-1,2022,351,0,0
805,673,0,0,0,0,0,0,0,0,0,-1,2029,351,0,0
812,673,0,0,0,0,0,0,0,0,0,-1,2036,351,0,0
-700,666,0,0,0,0,0,0,0,0,0,-1,524,358,0,0
-693,666,0,0,0,0,0,0,0,0,0,-1,531,358,0,0
-686,666,0,0,0,0,0,0,0,0,0,-1,538,358,0,0
-679,666,0,0,0,0,0,0,0,0,0,-1,545,358,0,0
-672,666,0,0,0,0,0,0,0,0,0,-1,552,358,0,0
-665,666,0,0,0,0,0,0,0,0,0,-1,559,358,0,0
-658,666,0,0,0,0,0,0,0,0,0,-1,566,358,0,0
-651,666,0,0,0,0,0,0,0,0,0,-1,573,358,0,0
-644,666,0,0,0,0,0,0,0,0,0,-1,580,358,0,0
-637,666,0,0,0,0,0,0,0,0,0,-1,587,358,0,0
-630,666,0,0,0,0,0,0,0,0,0,-1,594,358,0,0
-623,666,0,0,0,0,0,0,0,0,0,-1,601,358,0,0
-616,666,0,0,0,0,0,0,0,0,0,-1,608,358,0,0
-609,666,0,0,0,0,0,0,0,0,0,-1,615,358,0,0
-602,666,0,0,0,0,0,0,0,0,0,-1,622,358,0,0
-595,666,0,0,0,0,0,0,0,0,0,-1,629,358,0,0
-588,666,0,0,0,0,0,0,0,0,0,-1,636,358,0,0
-581,666,0,0,0,0,0,0,0,0,0,-1,643,358,0,0
-574,666,0,0,0,0,0,0,0,0,0,-1,650,358,0,0
-567,666,0,0,0,0,0,0,0,0,0,-1,657,358,0,0
-560,666,0,0,0,0,0,0,0,0,0,-1,664,358,0,0
-553,666,0,0,0,0,0,0,0,0,0,-1,671,358,0,0
-546,666,0,0,0,0,0,0,0,0,0,-1,678,358,0,0
-539,666,0,0,0,0,0,0,0,0,0,-1,685,358,0,0
-532,666,0,0,0,0,0,0,0,0,0,-1,692,358,0,0
-525,666,0,0,0,0,0,0,0,0,0,-1,699,358,0,0
-518,666,0,0,0,0,0,0,0,0,0,-1,706,358,0,0
-511,666,0,0,0,0,0,0,0,0,0,-1,713,358,0,0
-504,666,0,0,0,0,0,0,0,0,0,-1,720,358,0,0
-497,666,0,0,0,0,0,0,0,0,0,-1,727,358,0,0
-490,666,0,0,0,0,0,0,0,0,0,-1,734,358,0,0
-483,666,0,0,0,0,0,0,0,0,0,-1,741,358,0,0
-476,666,0,0,0,0,0,0,0,0,0,-1,748,358,0,0
-469,666,0,0,0,0,0,0,0,0,0,-1,755,358,0,0
-462,666,0,0,0,0,0,0,0,0,0,-1,762,358,0,0
-455,666,0,0,0,0,0,0,0,0,0,-1,769,358,0,0
-448,666,0,0,0,0,0,0,0,0,0,-1,776,358,0,0
-441,666,0,0,0,0,0,0,0,0,0,-1,783,358,0,0
-434,666,0,0,0,0,0,0,0,0,0,-1,790,358,0,0
-427,666,0,0,0,0,0,0,0,0,0,-1,797,358,0,0
-420,666,0,0,0,0,0,0,0,0,0,-1,804,358,0,0
-413,666,0,0,0,0,0,0,0,0,0,-1,811,358,0,0
-406,666,0,0,0,0,0,0,0,0,0,-1,818,358,0,0
-399,666,0,0,0,0,0,0,0,0,0,-1,825,358,0,0
-392,666,0,0,0,0,0,0,0,0,0,-1,832,358,0,0
-385,666,0,0,0,0,0,0,0,0,0,-1,839,358,0,0
-378,666,0,0,0,0,0,0,0,0,0,-1,846,358,0,0
-371,666,0,0,0,0,0,0,0,0,0,-1,853,358,0,0
-364,666,0,0,0,0,0,0,0,0,0,-1,860,358,0,0
-357,666,0,0,0,0,0,0,0,0,0,-1,867,358,0,0
-350,666,0,0,0,0,0,0,0,0,0,-1,874,358,0,0
-343,666,0,0,0,0,0,0,0,0,0,-1,881,358,0,0
-336,666,0,0,0,0,0,0,0,0,0,-1,888,358,0,0
-329,666,0,0,0,0,0,0,0,0,0,-1,895,358,0,0
-322,666,0,0,0,0,0,0,0,0,0,-1,902,358,0,0
-315,666,0,0,0,0,0,0,0,0,0,-1,909,358,0,0
-308,666,0,0,0,0,0,0,0,0,0,-1,916,358,0,0
-301,666,0,0,0,0,0,0,0,0,0,-1,923,358,0,0
-294,666,0,0,0,0,0,0,0,0,0,-1,930,358,0,0
-287,666,0,0,0,0,0,0,0,0,0,-1,937,358,0,0
-280,666,0,0,0,0,0,0,0,0,0,-1,944,358,0,0
-273,666,0,0,0,0,0,0,0,0,0,-1,951,358,0,0
-266,666,0,0,0,0,0,0,0,0,0,-1,958,358,0,0
-259,666,0,0,0,0,0,0,0,0,0,-1,965,358,0,0
-252,666,0,0,0,0,0,0,0,0,0,-1,972,358,0,0
-245,666,0,0,0,0,0,0,0,0,0,-1,979,358,0,0
-238,666,0,0,0,0,0,0,0,0,0,-1,986,358,0,0
-231,666,0,0,0,0,0,0,0,0,0,-1,993,358,0,0
-224,666,0,0,0,0,0,0,0,0,0,-1,1000,358,0,0
-217,666,0,0,0,0,0,0,0,0,0,-1,1007,358,0,0
-210,666,0,0,0,0,0,0,0,0,0,-1,1014,358,0,0
-203,666,0,0,0,0,0,0,0,0,0,-1,1021,358,0,0
-196,666,1.68958,-9.41406,0,0,0,0,0,0,0,-1,1028,358,1.68961,9.41406
-189,666,1.56323,-9.65897,0,0,0,0,0,0,0,-1,1035,358,1.56321,9.65897
-182,666,6.93665,-11.2356,0,0,0,0,0,0,0,-1,1042,358,6.93664,11.2356
-175,666,-2.5144,-11.3974,0,0,0,0,0,0,0,-1,1049,358,-2.51444,11.3974
-168,666,3.07263,-12.923,0,0,0,0,0,0,0,-1,1056,358,3.07266,12.923
-161,666,0.22644,-13.1467,0,0,0,0,0,0,0,-1,1063,358,0.226396,13.1467
-154,666,1.13135,-13.5878,0,0,0,0,0,0,0,-1,1070,358,1.13136,13.5878
-147,666,2.03638,-14.029,0,0,0,0,0,0,0,-1,1077,358,2.03632,14.029
-140,666,1.99414,-12.2058,0,0,0,0,0,0,0,-1,1084,358,1.99416,12.2058
-133,666,2.32373,-10.9966,0,0,0,0,0,0,0,-1,1091,358,2.32376,10.9966
-126,666,2.396,-10.43,0,0,0,0,0,0,0,-1,1098,358,2.39599,10.43
-119,666,2.64014,-10.8809,0,0,0,0,0,0,0,-1,1105,358,2.64016,10.8809
-112,666,2.51221,-9.633,-0.000519241,0.0408781,-0.000546998,0.0408853,-0.000526469,-1.55759,0.027434,0.0412945,1112,358,2.51224,9.63298
-105,666,2.43225,-9.31091,-0.00291298,0.0440208,-0.0010755,0.0440454,-0.00293761,-1.5479,0.0303902,0.0423749,1119,358,2.4323,9.31092
-98,666,2.4198,-11.3173,-0.0047001,0.0440351,-0.0016439,0.0440905,-0.00475549,-1.53712,0.0311003,0.0488699,1126,358,2.41982,11.3173
-91,666,2.16956,-11.052,-0.00573432,0.0416566,-0.00187473,0.0417306,-0.00580836,-1.53132,0.0299449,0.0495679,1133,358,2.16953,11.052
-84,666,2.55017,-11.191,0,0,0,0,0,0,0,-1,1140,358,2.5502,11.191
-77,666,0.964722,-10.3601,0,0,0,0,0,0,0,-1,1147,358,0.964669,10.3601
-70,666,2.05957,-6.51086,0,0,0,0,0,0,0,-1,1154,358,2.05959,6.51088
-63,666,1.47485,-3.79593,0,0,0,0,0,0,0,-1,1161,358,1.47481,3.79593
-56,666,0.424683,-2.04132,0,0,0,0,0,0,0,-1,1168,358,0.424665,2.04132
-49,666,0.754395,-2.23169,0,0,0,0,0,0,0,-1,1175,358,0.754383,2.23169
-42,666,1.34473,-3.53897,0,0,0,0,0,0,0,-1,1182,358,1.34476,3.53896
-35,666,2.08801,-12.1663,0,0,0,0,0,0,0,-1,1189,358,2.08801,12.1663
-28,666,2.33289,-12.0606,0,0,0,0,0,0,0,-1,1196,358,2.3329,12.0606
-21,666,2.32263,-12.0144,0.0244585,-0.000127376,-0.00926133,0.0275567,-0.00322562,-0.322833,0.0195353,0.0314144,1203,358,2.32265,12.0144
-14,666,2.28967,-12.0709,0.0244604,-0.000621233,-0.0110274,0.0286191,-0.00478,-0.360637,0.0208562,0.0239633,1210,358,2.28971,12.0709
-7,666,2.28699,-12.0839,0.0246815,5.49536e-05,-0.0114271,0.0291669,-0.00443046,-0.374044,0.0210772,0.0168189,1217,358,2.28697,12.0839
0,666,2.30115,-12.0886,0.0241689,0.000756822,-0.0114993,0.0288722,-0.00394646,-0.388245,0.0206895,0.0119867,1224,358,2.30114,12.0886
7,666,2.28711,-12.1123,0.0229208,0.0012839,-0.0112163,0.0276859,-0.00348113,-0.401726,0.0197203,0.0147929,1231,358,2.28708,12.1123
14,666,2.28235,-12.1252,0.0205839,0.00193971,-0.0104712,0.0252813,-0.00275771,-0.421694,0.0178446,0.0148702,1238,358,2.28231,12.1252
21,666,2.23987,-12.1454,0.0195176,0.00284939,-0.00996335,0.0241729,-0.00180595,-0.437103,0.0167497,0.0112856,1245,358,2.23983,12.1454
28,666,2.20142,-12.1523,0.0189253,0.00369735,-0.00869886,0.0228717,-0.000249073,-0.425903,0.0153315,0.0111012,1252,358,2.20146,12.1523
35,666,2.21826,-12.1493,0.0170472,0.00386959,-0.00720681,0.0202231,0.000693631,-0.415084,0.0132569,0.00998172,1259,358,2.2182,12.1493
42,666,2.1969,-12.1696,0.015078,0.00410864,-0.00573182,0.0175265,0.00166012,-0.403715,0.0111721,0.011208,1266,358,2.19695,12.1696
49,666,2.1676,-12.1727,0.0130794,0.00451716,-0.00429353,0.0148615,0.00273509,-0.393423,0.0091335,0.00973058,1273,358,2.16765,12.1727
56,666,2.16443,-12.1648,0.0101149,0.00420213,-0.00284506,0.0112615,0.00305553,-0.383104,0.0067247,0.010699,1280,358,2.16442,12.1648
63,666,2.14966,-12.1569,0.00573813,0.00359292,-0.00178735,0.00675001,0.00258104,-0.515147,0.0039329,0.0125294,1287,358,2.14965,12.1569
70,666,2.14124,-12.1369,0.002445,0.00263155,-0.000982057,0.00352475,0.0015518,-0.832746,0.00203985,0.0130162,1294,358,2.14129,12.1369
77,666,2.15063,-12.1463,0.000296094,0.00143579,7.09319e-05,0.00144019,0.000291696,1.50888,0.000879177,0.01664,1301,358,2.15069,12.1463
84,666,2.12146,-12.1521,-0.001057,0.00117487,0.00280622,0.0030789,-0.00296103,0.974644,0.00348738,0.0222597,1308,358,2.12145,12.1521
91,666,2.0387,-12.1161,-0.00302911,0.000353425,0.00436887,0.00334696,-0.00602265,0.970074,0.00548258,0.0204147,1315,358,2.03875,12.1161
98,666,2.00476,-12.0491,-0.00439684,-0.000903393,0.0057246,0.00333504,-0.00863528,0.933475,0.00713332,0.0165636,1322,358,2.00477,12.0491
105,666,2.00037,-11.9878,-0.00474733,-0.00152274,0.0075588,0.00459381,-0.0108639,0.890474,0.00916596,0.0182089,1329,358,2.00032,11.9878
112,666,1.99402,-11.9762,-0.00434515,-0.00185702,0.00963252,0.00661144,-0.0128136,0.849619,0.011404,0.022871,1336,358,1.99406,11.9762
119,666,1.9928,-11.9209,-0.00269072,-0.0018856,0.0120811,0.00979962,-0.0143759,0.802053,0.0140409,0.0243732,1343,358,1.99282,11.9209
126,666,1.99304,-11.8221,-0.00107731,-0.00167262,0.0150458,0.0136738,-0.0164237,0.775508,0.017401,0.0239845,1350,358,1.99308,11.8221
133,666,2.00208,-11.7671,0.00158884,-0.0010578,0.0176027,0.0179179,-0.0173869,0.74788,0.020384,0.0221243,1357,358,2.00208,11.7671
140,666,1.94604,-11.7735,0.00600543,4.72792e-05,0.0199894,0.0232366,-0.0171838,0.711426,0.0234238,0.0216195,1364,358,1.94599,11.7735
147,666,1.948,-11.7265,0.00995877,0.000683031,0.022064,0.027867,-0.0172253,0.681806,0.0262746,0.0199022,1371,358,1.94801,11.7265
154,666,1.9563,-11.6676,0.013191,0.00105664,0.0236468,0.0315366,-0.017289,0.65982,0.0285867,0.0174264,1378,358,1.95628,11.6676
161,666,1.99744,-11.6156,0.0161572,0.00119633,0.0246189,0.034407,-0.0170535,0.637905,0.0302686,0.0235971,1385,358,1.99747,11.6156
168,666,2.03955,-11.6439,0,0,0,0,0,0,0,-1,1392,358,2.03949,11.6439
175,666,2.16431,-11.7147,0,0,0,0,0,0,0,-1,1399,358,2.16437,11.7147
182,666,2.60876,-5.17068,0,0,0,0,0,0,0,-1,1406,358,2.6088,5.17068
189,666,2.46973,-5.49979,0,0,0,0,0,0,0,-1,1413,358,2.46975,5.49979
196,666,2.32458,-5.23651,0,0,0,0,0,0,0,-1,1420,358,2.32461,5.23653
203,666,2.28064,-3.88004,0,0,0,0,0,0,0,-1,1427,358,2.28059,3.88003
210,666,3.02576,-5.83548,0,0,0,0,0,0,0,-1,1434,358,3.02581,5.83547
217,666,2.30444,-5.36011,0,0,0,0,0,0,0,-1,1441,358,2.30447,5.3601
224,666,1.82324,-6.03101,0,0,0,0,0,0,0,-1,1448,358,1.82322,6.031
231,666,2.29797,-10.1093,0,0,0,0,0,0,0,-1,1455,358,2.29801,10.1093
238,666,2.52429,-6.10568,0,0,0,0,0,0,0,-1,1462,358,2.52423,6.10567
245,666,4.53345,-1.38205,0,0,0,0,0,0,0,-1,1469,358,4.53349,1.38204
252,666,4.77405,-0.246979,0,0,0,0,0,0,0,-1,1476,358,4.77405,0.246993
259,666,4.83655,1.14087,0,0,0,0,0,0,0,-1,1483,358,4.83652,-1.14087
266,666,6.14148,0.749512,0,0,0,0,0,0,0,-1,1490,358,6.14144,-0.749519
273,666,2.61304,-1.53772,0,0,0,0,0,0,0,-1,1497,358,2.613,1.53773
280,666,8.70898,-0.836975,0,0,0,0,0,0,0,-1,1504,358,8.70894,0.836988
287,666,2.27039,-4.09058,0,0,0,0,0,0,0,-1,1511,358,2.27042,4.09059
294,666,9.87,-1.10745,0,0,0,0,0,0,0,-1,1518,358,9.87,1.10745
301,666,3.61511,-3.23752,0,0,0,0,0,0,0,-1,1525,358,3.61511,3.23753
308,666,1.08496,-1.87576,0,0,0,0,0,0,0,-1,1532,358,1.08491,1.87575
315,666,1.76294,-0.284027,0,0,0,0,0,0,0,-1,1539,358,1.76291,0.284016
322,666,0,0,0,0,0,0,0,0,0,-1,1546,358,0,0
329,666,0,0,0,0,0,0,0,0,0,-1,1553,358,0,0
336,666,0,0,0,0,0,0,0,0,0,-1,1560,358,0,0
343,666,0,0,0,0,0,0,0,0,0,-1,1567,358,0,0
350,666,0,0,0,0,0,0,0,0,0,-1,1574,358,0,0
357,666,0,0,0,0,0,0,0,0,0,-1,1581,358,0,0
364,666,0,0,0,0,0,0,0,0,0,-1,1588,358,0,0
371,666,0,0,0,0,0,0,0,0,0,-1,1595,358,0,0
378,666,0,0,0,0,0,0,0,0,0,-1,1602,358,0,0
385,666,0,0,0,0,0,0,0,0,0,-1,1609,358,0,0
392,666,0,0,0,0,0,0,0,0,0,-1,1616,358,0,0
399,666,0,0,0,0,0,0,0,0,0,-1,1623,358,0,0
406,666,0,0,0,0,0,0,0,0,0,-1,1630,358,0,0
413,666,0,0,0,0,0,0,0,0,0,-1,1637,358,0,0
420,666,0,0,0,0,0,0,0,0,0,-1,1644,358,0,0
427,666,0,0,0,0,0,0,0,0,0,-1,1651,358,0,0
434,666,0,0,0,0,0,0,0,0,0,-1,1658,358,0,0
441,666,0,0,0,0,0,0,0,0,0,-1,1665,358,0,0
448,666,0,0,0,0,0,0,0,0,0,-1,1672,358,0,0
455,666,0,0,0,0,0,0,0,0,0,-1,1679,358,0,0
462,666,0,0,0,0,0,0,0,0,0,-1,1686,358,0,0
469,666,0,0,0,0,0,0,0,0,0,-1,1693,358,0,0
476,666,0,0,0,0,0,0,0,0,0,-1,1700,358,0,0
483,666,0,0,0,0,0,0,0,0,0,-1,1707,358,0,0
490,666,0,0,0,0,0,0,0,0,0,-1,1714,358,0,0
497,666,0,0,0,0,0,0,0,0,0,-1,1721,358,0,0
504,666,0,0,0,0,0,0,0,0,0,-1,1728,358,0,0
511,666,0,0,0,0,0,0,0,0,0,-1,1735,358,0,0
518,666,0,0,0,0,0,0,0,0,0,-1,1742,358,0,0
525,666,0,0,0,0,0,0,0,0,0,-1,1749,358,0,0
532,666,0,0,0,0,0,0,0,0,0,-1,1756,358,0,0
539,666,0,0,0,0,0,0,0,0,0,-1,1763,358,0,0
546,666,0,0,0,0,0,0,0,0,0,-1,1770,358,0,0
553,666,0,0,0,0,0,0,0,0,0,-1,1777,358,0,0
560,666,0,0,0,0,0,0,0,0,0,-1,1784,358,0,0
567,666,0,0,0,0,0,0,0,0,0,-1,1791,358,0,0
574,666,0,0,0,0,0,0,0,0,0,-1,1798,358,0,0
581,666,0,0,0,0,0,0,0,0,0,-1,1805,358,0,0
588,666,0,0,0,0,0,0,0,0,0,-1,1812,358,0,0
595,666,0,0,0,0,0,0,0,0,0,-1,1819,358,0,0
602,666,0,0,0,0,0,0,0,0,0,-1,1826,358,0,0
609,666,0,0,0,0,0,0,0,0,0,-1,1833,358,0,0
616,666,0,0,0,0,0,0,0,0,0,-1,1840,358,0,0
623,666,0,0,0,0,0,0,0,0,0,-1,1847,358,0,0
630,666,0,0,0,0,0,0,0,0,0,-1,1854,358,0,0
637,666,0,0,0,0,0,0,0,0,0,-1,1861,358,0,0
644,666,0,0,0,0,0,0,0,0,0,-1,1868,358,0,0
651,666,0,0,0,0,0,0,0,0,0,-1,1875,358,0,0
658,666,0,0,0,0,0,0,0,0,0,-1,1882,358,0,0
665,666,0,0,0,0,0,0,0,0,0,-1,1889,358,0,0
672,666,0,0,0,0,0,0,0,0,0,-1,1896,358,0,0
679,666,0,0,0,0,0,0,0,0,0,-1,1903,358,0,0
686,666,0,0,0,0,0,0,0,0,0,-1,1910,358,0,0
693,666,0,0,0,0,0,0,0,0,0,-1,1917,358,0,0
700,666,0,0,0,0,0,0,0,0,0,-1,1924,358,0,0
707,666,0,0,0,0,0,0,0,0,0,-1,1931,358,0,0
714,666,0,0,0,0,0,0,0,0,0,-1,1938,358,0,0
721,666,0,0,0,0,0,0,0,0,0,-1,1945,358,0,0
728,666,0,0,0,0,0,0,0,0,0,-1,1952,358,0,0
735,666,0,0,0,0,0,0,0,0,0,-1,1959,358,0,0
742,666,0,0,0,0,0,0,0,0,0,-1,1966,358,0,0
749,666,0,0,0,0,0,0,0,0,0,-1,1973,358,0,0
756,666,0,0,0,0,0,0,0,0,0,-1,1980,358,0,0
763,666,0,0,0,0,0,0,0,0,0,-1,1987,358,0,0
770,666,0,0,0,0,0,0,0,0,0,-1,1994,358,0,0
777,666,0,0,0,0,0,0,0,0,0,-1,2001,358,0,0
784,666,0,0,0,0,0,0,0,0,0,-1,2008,358,0,0
791,666,0,0,0,0,0,0,0,0,0,-1,2015,358,0,0
798,666,0,0,0,0,0,0,0,0,0,-1,2022,358,0,0
805,666,0,0,0,0,0,0,0,0,0,-1,2029,358,0,0
812,666,0,0,0,0,0,0,0,0,0,-1,2036,358,0,0
-700,659,0,0,0,0,0,0,0,0,0,-1,524,365,0,0
-693,659,0,0,0,0,0,0,0,0,0,-1,531,365,0,0
-686,659,0,0,0,0,0,0,0,0,0,-1,538,365,0,0
-679,659,0,0,0,0,0,0,0,0,0,-1,545,365,0,0
-672,659,0,0,0,0,0,0,0,0,0,-1,552,365,0,0
-665,659,0,0,0,0,0,0,0,0,0,-1,559,365,0,0
-658,659,0,0,0,0,0,0,0,0,0,-1,566,365,0,0
-651,659,0,0,0,0,0,0,0,0,0,-1,573,365,0,0
-644,659,0,0,0,0,0,0,0,0,0,-1,580,365,0,0
-637,659,0,0,0,0,0,0,0,0,0,-1,587,365,0,0
-630,659,0,0,0,0,0,0,0,0,0,-1,594,365,0,0
-623,659,0,0,0,0,0,0,0,0,0,-1,601,365,0,0
-616,659,0,0,0,0,0,0,0,0,0,-1,608,365,0,0
-609,659,0,0,0,0,0,0,0,0,0,-1,615,365,0,0
-602,659,0,0,0,0,0,0,0,0,0,-1,622,365,0,0
-595,659,0,0,0,0,0,0,0,0,0,-1,629,365,0,0
-588,659,0,0,0,0,0,0,0,0,0,-1,636,365,0,0
-581,659,0,0,0,0,0,0,0,0,0,-1,643,365,0,0
-574,659,0,0,0,0,0,0,0,0,0,-1,650,365,0,0
-567,659,0,0,0,0,0,0,0,0,0,-1,657,365,0,0
-560,659,0,0,0,0,0,0,0,0,0,-1,664,365,0,0
-553,659,0,0,0,0,0,0,0,0,0,-1,671,365,0,0
-546,659,0,0,0,0,0,0,0,0,0,-1,678,365,0,0
-539,659,0,0,0,0,0,0,0,0,0,-1,685,365,0,0
-532,659,0,0,0,0,0,0,0,0,0,-1,692,365,0,0
-525,659,0,0,0,0,0,0,0,0,0,-1,699,365,0,0
-518,659,0,0,0,0,0,0,0,0,0,-1,706,365,0,0
-511,659,0,0,0,0,0,0,0,0,0,-1,713,365,0,0
-504,659,0,0,0,0,0,0,0,0,0,-1,720,365,0,0
-497,659,0,0,0,0,0,0,0,0,0,-1,727,365,0,0
-490,659,0,0,0,0,0,0,0,0,0,-1,734,365,0,0
-483,659,0,0,0,0,0,0,0,0,0,-1,741,365,0,0
-476,659,0,0,0,0,0,0,0,0,0,-1,748,365,0,0
-469,659,0,0,0,0,0,0,0,0,0,-1,755,365,0,0
-462,659,0,0,0,0,0,0,0,0,0,-1,762,365,0,0
-455,659,0,0,0,0,0,0,0,0,0,-1,769,365,0,0
-448,659,0,0,0,0,0,0,0,0,0,-1,776,365,0,0
-441,659,0,0,0,0,0,0,0,0,0,-1,783,365,0,0
-434,659,0,0,0,0,0,0,0,0,0,-1,790,365,0,0
-427,659,0,0,0,0,0,0,0,0,0,-1,797,365,0,0
-420,659,0,0,0,0,0,0,0,0,0,-1,804,365,0,0
-413,659,0,0,0,0,0,0,0,0,0,-1,811,365,0,0
-406,659,0,0,0,0,0,0,0,0,0,-1,818,365,0,0
-399,659,0,0,0,0,0,0,0,0,0,-1,825,365,0,0
-392,659,0,0,0,0,0,0,0,0,0,-1,832,365,0,0
-385,659,0,0,0,0,0,0,0,0,0,-1,839,365,0,0
-378,659,0,0,0,0,0,0,0,0,0,-1,846,365,0,0
-371,659,0,0,0,0,0,0,0,0,0,-1,853,365,0,0
-364,659,0,0,0,0,0,0,0,0,0,-1,860,365,0,0
-357,659,0,0,0,0,0,0,0,0,0,-1,867,365,0,0
-350,659,0,0,0,0,0,0,0,0,0,-1,874,365,0,0
-343,659,0,0,0,0,0,0,0,0,0,-1,881,365,0,0
-336,659,0,0,0,0,0,0,0,0,0,-1,888,365,0,0
-329,659,0,0,0,0,0,0,0,0,0,-1,895,365,0,0
-322,659,0,0,0,0,0,0,0,0,0,-1,902,365,0,0
-315,659,0,0,0,0,0,0,0,0,0,-1,909,365,0,0
-308,659,0,0,0,0,0,0,0,0,0,-1,916,365,0,0
-301,659,0,0,0,0,0,0,0,0,0,-1,923,365,0,0
-294,659,0,0,0,0,0,0,0,0,0,-1,930,365,0,0
-287,659,0,0,0,0,0,0,0,0,0,-1,937,365,0,0
-280,659,0,0,0,0,0,0,0,0,0,-1,944,365,0,0
-273,659,0,0,0,0,0,0,0,0,0,-1,951,365,0,0
-266,659,0,0,0,0,0,0,0,0,0,-1,958,365,0,0
-259,659,0,0,0,0,0,0,0,0,0,-1,965,365,0,0
-252,659,0,0,0,0,0,0,0,0,0,-1,972,365,0,0
-245,659,0,0,0,0,0,0,0,0,0,-1,979,365,0,0
-238,659,0,0,0,0,0,0,0,0,0,-1,986,365,0,0
-231,659,0,0,0,0,0,0,0,0,0,-1,993,365,0,0
-224,659,0,0,0,0,0,0,0,0,0,-1,1000,365,0,0
-217,659,1.62122,-1.10727,0,0,0,0,0,0,0,-1,1007,365,1.62123,1.10728
-210,659,0.368042,-7.90527,0,0,0,0,0,0,0,-1,1014,365,0.368058,7.90528
-203,659,2.09253,-9.38916,0,0,0,0,0,0,0,-1,1021,365,2.09255,9.38917
-196,659,-0.828369,-10.2602,0,0,0,0,0,0,0,-1,1028,365,-0.828398,10.2602
-189,659,6.19006,-10.8313,0,0,0,0,0,0,0,-1,1035,365,6.19,10.8313
-182,659,6.17236,-10.318,0,0,0,0,0,0,0,-1,1042,365,6.17233,10.318
-175,659,2.58313,-11.4954,0,0,0,0,0,0,0,-1,1049,365,2.58308,11.4954
-168,659,-0.552368,-11.4837,0,0,0,0,0,0,0,-1,1056,365,-0.552319,11.4837
-161,659,0.519653,-12.0665,0,0,0,0,0,0,0,-1,1063,365,0.519709,12.0665
-154,659,1.31689,-12.7478,0,0,0,0,0,0,0,-1,1070,365,1.31695,12.7478
-147,659,2.02258,-13.1163,0,0,0,0,0,0,0,-1,1077,365,2.02255,13.1163
-140,659,2.19031,-11.6452,0.0104756,0.00167167,-0.00042309,0.0104959,0.00165139,-0.0479098,0.00651691,0.0451661,1084,365,2.19033,11.6452
-133,659,2.45142,-10.9521,0.0075339,0.0109614,-2.84149e-05,0.0109617,0.00753366,-1.56251,0.006475,0.0450077,1091,365,2.45145,10.9521
-126,659,2.45898,-10.8665,0.00467103,0.0190332,-0.000117241,0.0190341,0.00467007,-1.56263,0.0114546,0.0431441,1098,365,2.45895,10.8665
-119,659,2.54932,-10.9939,0.00220405,0.0252561,-0.000487223,0.0252664,0.00219376,-1.54967,0.0161627,0.0443022,1105,365,2.54932,10.9939
-112,659,2.40527,-10.4084,0.00013269,0.0295933,-0.00096518,0.0296248,0.000101103,-1.53808,0.0197163,0.0371009,1112,365,2.40533,10.4085
-105,659,2.40784,-11.0446,-0.00164263,0.0324364,-0.00118346,0.0324774,-0.00168368,-1.53613,0.0222341,0.0414076,1119,365,2.40786,11.0446
-98,659,2.45581,-11.1789,-0.00303962,0.0328704,-0.0015375,0.0329361,-0.00310533,-1.52809,0.0230623,0.0417925,1126,365,2.45575,11.1789
-91,659,2.45422,-11.1849,-0.00381137,0.0312429,-0.00180158,0.0313352,-0.00390372,-1.51958,0.0223056,0.0424479,1133,365,2.45417,11.1849
-84,659,2.48572,-11.3233,-0.00417777,0.028726,-0.00189436,0.0288347,-0.00428648,-1.51348,0.0207997,0.047724,1140,365,2.48571,11.3233
-77,659,2.42639,-11.2327,0,0,0,0,0,0,0,-1,1147,365,2.42633,11.2327
-70,659,2.46069,-11.1882,0,0,0,0,0,0,0,-1,1154,365,2.46064,11.1882
-63,659,2.11267,-9.7796,0,0,0,0,0,0,0,-1,1161,365,2.11266,9.7796
-56,659,2.11182,-9.91541,0,0,0,0,0,0,0,-1,1168,365,2.11178,9.91541
-49,659,2.33057,-11.8242,0,0,0,0,0,0,0,-1,1175,365,2.33061,11.8242
-42,659,2.3269,-11.9115,0,0,0,0,0,0,0,-1,1182,365,2.32687,11.9115
-35,659,2.26672,-12.0287,0.0112877,0.00127837,-0.00416569,0.0127945,-0.000228468,-0.347082,0.00860687,0.044196,1189,365,2.26673,12.0287
-28,659,2.32263,-12.0053,0.0138741,0.00158459,-0.00433619,0.01525,0.000208673,-0.307262,0.0100978,0.0167376,1196,365,2.32267,12.0053
-21,659,2.30029,-12.0163,0.0148792,0.000342804,-0.00584166,0.0169358,-0.00171379,-0.338505,0.011903,0.010501,1203,365,2.30025,12.0163
-14,659,2.27808,-12.0605,0.015216,-9.04931e-05,-0.00705534,0.0179718,-0.00284638,-0.372386,0.013034,0.00772469,1210,365,2.27804,12.0605
-7,659,2.27148,-12.0934,0.0156342,0.000301023,-0.00738094,0.0186098,-0.00267451,-0.383208,0.0133874,0.00787163,1217,365,2.27144,12.0934
0,659,2.25659,-12.1121,0.0155539,0.000753166,-0.00750312,0.0186921,-0.00238508,-0.396147,0.0133278,0.00803348,1224,365,2.25663,12.1121
7,659,2.24109,-12.1283,0.0149544,0.00111862,-0.00740791,0.0181723,-0.00209927,-0.409794,0.0128718,0.00754157,1231,365,2.24115,12.1283
14,659,2.24048,-12.145,0.0135655,0.00155334,-0.00699781,0.0167813,-0.00166242,-0.430758,0.0117808,0.00991143,1238,365,2.24048,12.145
21,659,2.22571,-12.1537,0.0129311,0.00216804,-0.00674665,0.0161797,-0.00108049,-0.448741,0.011164,0.0107706,1245,365,2.22565,12.1538
28,659,2.2002,-12.1578,0.0125893,0.00270994,-0.00595223,0.0153846,-8.53254e-05,-0.439047,0.0102849,0.00958965,1252,365,2.20014,12.1578
35,659,2.20483,-12.1626,0.0113509,0.00273282,-0.00499801,0.0136409,0.000442768,-0.429646,0.00895,0.00960368,1259,365,2.20487,12.1626
42,659,2.19104,-12.1755,0.0100007,0.00281165,-0.00403615,0.0118109,0.00100145,-0.421603,0.00756228,0.0104592,1266,365,2.19101,12.1755
49,659,2.16577,-12.1795,0.00862129,0.00304769,-0.0030784,0.00998693,0.00168205,-0.417537,0.00617412,0.0106136,1273,365,2.16581,12.1795
56,659,2.15295,-12.1819,0.00657172,0.00273124,-0.00209255,0.00749157,0.00181139,-0.414156,0.00451342,0.0142264,1280,365,2.15293,12.1819
63,659,2.15747,-12.1852,0.00347234,0.00218149,-0.00140881,0.00437653,0.00127729,-0.570599,0.00259875,0.0156194,1287,365,2.15747,12.1852
70,659,2.15515,-12.1689,0.00119284,0.00139432,-0.000935117,0.00223411,0.000353055,-0.839057,0.00138678,0.016081,1294,365,2.15518,12.1688
77,659,2.14697,-12.1506,-0.00029101,0.000484333,-0.000185484,0.000526422,-0.000333098,-1.34766,0.000500411,0.0171322,1301,365,2.14693,12.1506
84,659,2.14026,-12.1349,-0.0012228,0.00023835,0.00169405,0.00135265,-0.0023371,0.988978,0.0021554,0.0123622,1308,365,2.14025,12.1349
91,659,2.10205,-12.1088,-0.00256182,-0.000317215,0.00275325,0.00153369,-0.00441273,0.978931,0.00356477,0.0103813,1315,365,2.10203,12.1088
98,659,2.08191,-12.0771,-0.00349389,-0.00116923,0.00366915,0.00151729,-0.00618041,0.93879,0.00470825,0.00722848,1322,365,2.08195,12.0771
105,659,2.08313,-12.0267,-0.00373704,-0.00156321,0.00493666,0.00240478,-0.00770503,0.893755,0.00609843,0.00857258,1329,365,2.08309,12.0267
112,659,2.07617,-11.9851,-0.00349526,-0.00175982,0.00633936,0.00377093,-0.00902601,0.853414,0.00759313,0.0104568,1336,365,2.07612,11.9851
119,659,2.07703,-11.9484,-0.00242364,-0.00172551,0.00798023,0.00591329,-0.0100624,0.807255,0.00932671,0.0115882,1343,365,2.07699,11.9484
126,659,2.06177,-11.8839,-0.00144039,-0.00152816,0.00997269,0.00848851,-0.0114571,0.783198,0.011558,0.011724,1350,365,2.06172,11.8839
133,659,2.0343,-11.8395,0.00017983,-0.00103519,0.011637,0.0112252,-0.0120805,0.759319,0.0134586,0.0105336,1357,365,2.03431,11.8395
140,659,2.01282,-11.8005,0.00304076,-0.000143583,0.0131803,0.0147247,-0.0118275,0.72529,0.0153603,0.00892653,1364,365,2.01287,11.8005
147,659,1.9928,-11.7511,0.00561658,0.000357498,0.0145116,0.017735,-0.0117609,0.69577,0.0171455,0.0076734,1371,365,1.99277,11.7511
154,659,1.97449,-11.6934,0.00766281,0.000624656,0.0154777,0.0200164,-0.011729,0.673616,0.0185352,0.00808758,1378,365,1.97444,11.6934
161,659,1.99695,-11.6301,0.00962394,0.000791774,0.0159832,0.02179,-0.0113742,0.650614,0.0194596,0.00958882,1385,365,1.99699,11.6301
168,659,2.02576,-11.5826,0.0111128,0.000837402,0.0163798,0.0231417,-0.0111915,0.633427,0.0202186,0.0175456,1392,365,2.02578,11.5827
175,659,2.02136,-11.5424,0.0108975,0.0010532,0.0164964,0.0231904,-0.0112397,0.640414,0.0202735,0.0422853,1399,365,2.02137,11.5425
182,659,1.8988,-11.5217,0,0,0,0,0,0,0,-1,1406,365,1.89885,11.5217
189,659,1.98315,-11.2605,0,0,0,0,0,0,0,-1,1413,365,1.98317,11.2605
196,659,1.98047,-10.9119,0,0,0,0,0,0,0,-1,1420,365,1.98045,10.9119
203,659,1.78149,-10.3592,0,0,0,0,0,0,0,-1,1427,365,1.78147,10.3592
210,659,1.90234,-11.1555,0,0,0,0,0,0,0,-1,1434,365,1.90238,11.1555
217,659,2.02527,-10.7485,0,0,0,0,0,0,0,-1,1441,365,2.02528,10.7485
224,659,2.03076,-10.865,0,0,0,0,0,0,0,-1,1448,365,2.03078,10.865
231,659,2.09607,-10.7878,0,0,0,0,0,0,0,-1,1455,365,2.09604,10.7878
238,659,2.2135,-10.8737,0,0,0,0,0,0,0,-1,1462,365,2.21354,10.8737
245,659,1.93787,-11.0114,0,0,0,0,0,0,0,-1,1469,365,1.93789,11.0114
252,659,1.65955,-11.2247,0,0,0,0,0,0,0,-1,1476,365,1.65951,11.2247
259,659,2.33069,-3.36703,0,0,0,0,0,0,0,-1,1483,365,2.33073,3.36702
266,659,1.46887,-9.71368,0,0,0,0,0,0,0,-1,1490,365,1.46884,9.71369
273,659,2.13562,-9.50784,0,0,0,0,0,0,0,-1,1497,365,2.13567,9.50786
280,659,1.70947,-9.4129,0,0,0,0,0,0,0,-1,1504,365,1.70952,9.4129
287,659,2.37976,-9.09607,0,0,0,0,0,0,0,-1,1511,365,2.37981,9.09608
294,659,2.46704,-9.73871,0,0,0,0,0,0,0,-1,1518,365,2.46708,9.73872
301,659,0.770874,-5.72247,0,0,0,0,0,0,0,-1,1525,365,0.770867,5.72248
308,659,0.532837,-4.58545,0,0,0,0,0,0,0,-1,1532,365,0.532815,4.58546
315,659,1.71216,-4.09201,0,0,0,0,0,0,0,-1,1539,365,1.71219,4.092
322,659,2.88672,-0.266174,0,0,0,0,0,0,0,-1,1546,365,2.88671,0.266163
329,659,5.20154,-4.3071,0,0,0,0,0,0,0,-1,1553,365,5.20158,4.3071
336,659,2.09851,-1.17941,0,0,0,0,0,0,0,-1,1560,365,2.09857,1.17942
343,659,0,0,0,0,0,0,0,0,0,-1,1567,365,0,0
350,659,0,0,0,0,0,0,0,0,0,-1,1574,365,0,0
357,659,0,0,0,0,0,0,0,0,0,-1,1581,365,0,0
364,659,0,0,0,0,0,0,0,0,0,-1,1588,365,0,0
371,659,0,0,0,0,0,0,0,0,0,-1,1595,365,0,0
378,659,0,0,0,0,0,0,0,0,0,-1,1602,365,0,0
385,659,0,0,0,0,0,0,0,0,0,-1,1609,365,0,0
392,659,0,0,0,0,0,0,0,0,0,-1,1616,365,0,0
399,659,0,0,0,0,0,0,0,0,0,-1,1623,365,0,0
406,659,0,0,0,0,0,0,0,0,0,-1,1630,365,0,0
413,659,0,0,0,0,0,0,0,0,0,-1,1637,365,0,0
420,659,0,0,0,0,0,0,0,0,0,-1,1644,365,0,0
427,659,0,0,0,0,0,0,0,0,0,-1,1651,365,0,0
434,659,0,0,0,0,0,0,0,0,0,-1,1658,365,0,0
441,659,0,0,0,0,0,0,0,0,0,-1,1665,365,0,0
448,659,0,0,0,0,0,0,0,0,0,-1,1672,365,0,0
455,659,0,0,0,0,0,0,0,0,0,-1,1679,365,0,0
462,659,0,0,0,0,0,0,0,0,0,-1,1686,365,0,0
469,659,0,0,0,0,0,0,0,0,0,-1,1693,365,0,0
476,659,0,0,0,0,0,0,0,0,0,-1,1700,365,0,0
483,659,0,0,0,0,0,0,0,0,0,-1,1707,365,0,0
490,659,0,0,0,0,0,0,0,0,0,-1,1714,365,0,0
497,659,0,0,0,0,0,0,0,0,0,-1,1721,365,0,0
504,659,0,0,0,0,0,0,0,0,0,-1,1728,365,0,0
511,659,0,0,0,0,0,0,0,0,0,-1,1735,365,0,0
518,659,0,0,0,0,0,0,0,0,0,-1,1742,365,0,0
525,659,0,0,0,0,0,0,0,0,0,-1,1749,365,0,0
532,659,0,0,0,0,0,0,0,0,0,-1,1756,365,0,0
539,659,0,0,0,0,0,0,0,0,0,-1,1763,365,0,0
546,659,0,0,0,0,0,0,0,0,0,-1,1770,365,0,0
553,659,0,0,0,0,0,0,0,0,0,-1,1777,365,0,0
560,659,0,0,0,0,0,0,0,0,0,-1,1784,365,0,0
567,659,0,0,0,0,0,0,0,0,0,-1,1791,365,0,0
574,659,0,0,0,0,0,0,0,0,0,-1,1798,365,0,0
581,659,0,0,0,0,0,0,0,0,0,-1,1805,365,0,0
588,659,0,0,0,0,0,0,0,0,0,-1,1812,365,0,0
595,659,0,0,0,0,0,0,0,0,0,-1,1819,365,0,0
602,659,0,0,0,0,0,0,0,0,0,-1,1826,365,0,0
609,659,0,0,0,0,0,0,0,0,0,-1,1833,365,0,0
616,659,0,0,0,0,0,0,0,0,0,-1,1840,365,0,0
623,659,0,0,0,0,0,0,0,0,0,-1,1847,365,0,0
630,659,0,0,0,0,0,0,0,0,0,-1,1854,365,0,0
637,659,0,0,0,0,0,0,0,0,0,-1,1861,365,0,0
644,659,0,0,0,0,0,0,0,0,0,-1,1868,365,0,0
651,659,0,0,0,0,0,0,0,0,0,-1,1875,365,0,0
658,659,0,0,0,0,0,0,0,0,0,-1,1882,365,0,0
665,659,0,0,0,0,0,0,0,0,0,-1,1889,365,0,0
672,659,0,0,0,0,0,0,0,0,0,-1,1896,365,0,0
679,659,0,0,0,0,0,0,0,0,0,-1,1903,365,0,0
686,659,0,0,0,0,0,0,0,0,0,-1,1910,365,0,0
693,659,0,0,0,0,0,0,0,0,0,-1,1917,365,0,0
700,659,0,0,0,0,0,0,0,0,0,-1,1924,365,0,0
707,659,0,0,0,0,0,0,0,0,0,-1,1931,365,0,0
714,659,0,0,0,0,0,0,0,0,0,-1,1938,365,0,0
721,659,0,0,0,0,0,0,0,0,0,-1,1945,365,0,0
728,659,0,0,0,0,0,0,0,0,0,-1,1952,365,0,0
735,659,0,0,0,0,0,0,0,0,0,-1,1959,365,0,0
742,659,0,0,0,0,0,0,0,0,0,-1,1966,365,0,0
749,659,0,0,0,0,0,0,0,0,0,-1,1973,365,0,0
756,659,0,0,0,0,0,0,0,0,0,-1,1980,365,0,0
763,659,0,0,0,0,0,0,0,0,0,-1,1987,365,0,0
770,659,0,0,0,0,0,0,0,0,0,-1,1994,365,0,0
777,659,0,0,0,0,0,0,0,0,0,-1,2001,365,0,0
784,659,0,0,0,0,0,0,0,0,0,-1,2008,365,0,0
791,659,0,0,0,0,0,0,0,0,0,-1,2015,365,0,0
798,659,0,0,0,0,0,0,0,0,0,-1,2022,365,0,0
805,659,0,0,0,0,0,0,0,0,0,-1,2029,365,0,0
812,659,0,0,0,0,0,0,0,0,0,-1,2036,365,0,0
-700,652,0,0,0,0,0,0,0,0,0,-1,524,372,0,0
-693,652,0,0,0,0,0,0,0,0,0,-1,531,372,0,0
-686,652,0,0,0,0,0,0,0,0,0,-1,538,372,0,0
-679,652,0,0,0,0,0,0,0,0,0,-1,545,372,0,0
-672,652,0,0,0,0,0,0,0,0,0,-1,552,372,0,0
-665,652,0,0,0,0,0,0,0,0,0,-1,559,372,0,0
-658,652,0,0,0,0,0,0,0,0,0,-1,566,372,0,0
-651,652,0,0,0,0,0,0,0,0,0,-1,573,372,0,0
-644,652,0,0,0,0,0,0,0,0,0,-1,580,372,0,0
-637,652,0,0,0,0,0,0,0,0,0,-1,587,372,0,0
-630,652,0,0,0,0,0,0,0,0,0,-1,594,372,0,0
-623,652,0,0,0,0,0,0,0,0,0,-1,601,372,0,0
-616,652,0,0,0,0,0,0,0,0,0,-1,608,372,0,0
-609,652,0,0,0,0,0,0,0,0,0,-1,615,372,0,0
-602,652,0,0,0,0,0,0,0,0,0,-1,622,372,0,0
-595,652,0,0,0,0,0,0,0,0,0,-1,629,372,0,0
-588,652,0,0,0,0,0,0,0,0,0,-1,636,372,0,0
-581,652,0,0,0,0,0,0,0,0,0,-1,643,372,0,0
-574,652,0,0,0,0,0,0,0,0,0,-1,650,372,0,0
-567,652,0,0,0,0,0,0,0,0,0,-1,657,372,0,0
-560,652,0,0,0,0,0,0,0,0,0,-1,664,372,0,0
-553,652,0,0,0,0,0,0,0,0,0,-1,671,372,0,0
-546,652,0,0,0,0,0,0,0,0,0,-1,678,372,0,0
-539,652,0,0,0,0,0,0,0,0,0,-1,685,372,0,0
-532,652,0,0,0,0,0,0,0,0,0,-1,692,372,0,0
-525,652,0,0,0,0,0,0,0,0,0,-1,699,372,0,0
-518,652,0,0,0,0,0,0,0,0,0,-1,706,372,0,0
-511,652,0,0,0,0,0,0,0,0,0,-1,713,372,0,0
-504,652,0,0,0,0,0,0,0,0,0,-1,720,372,0,0
-497,652,0,0,0,0,0,0,0,0,0,-1,727,372,0,0
-490,652,0,0,0,0,0,0,0,0,0,-1,734,372,0,0
-483,652,0,0,0,0,0,0,0,0,0,-1,741,372,0,0
-476,652,0,0,0,0,0,0,0,0,0,-1,748,372,0,0
-469,652,0,0,0,0,0,0,0,0,0,-1,755,372,0,0
-462,652,0,0,0,0,0,0,0,0,0,-1,762,372,0,0
-455,652,0,0,0,0,0,0,0,0,0,-1,769,372,0,0
-448,652,0,0,0,0,0,0,0,0,0,-1,776,372,0,0
-441,652,0,0,0,0,0,0,0,0,0,-1,783,372,0,0
-434,652,0,0,0,0,0,0,0,0,0,-1,790,372,0,0
-427,652,0,0,0,0,0,0,0,0,0,-1,797,372,0,0
-420,652,0,0,0,0,0,0,0,0,0,-1,804,372,0,0
-413,652,0,0,0,0,0,0,0,0,0,-1,811,372,0,0
-406,652,0,0,0,0,0,0,0,0,0,-1,818,372,0,0
-399,652,0,0,0,0,0,0,0,0,0,-1,825,372,0,0
-392,652,0,0,0,0,0,0,0,0,0,-1,832,372,0,0
-385,652,0,0,0,0,0,0,0,0,0,-1,839,372,0,0
-378,652,0,0,0,0,0,0,0,0,0,-1,846,372,0,0
-371,652,0,0,0,0,0,0,0,0,0,-1,853,372,0,0
-364,652,0,0,0,0,0,0,0,0,0,-1,860,372,0,0
-357,652,0,0,0,0,0,0,0,0,0,-1,867,372,0,0
-350,652,0,0,0,0,0,0,0,0,0,-1,874,372,0,0
-343,652,0,0,0,0,0,0,0,0,0,-1,881,372,0,0
-336,652,0,0,0,0,0,0,0,0,0,-1,888,372,0,0
-329,652,0,0,0,0,0,0,0,0,0,-1,895,372,0,0
-322,652,0,0,0,0,0,0,0,0,0,-1,902,372,0,0
-315,652,0,0,0,0,0,0,0,0,0,-1,909,372,0,0
-308,652,0,0,0,0,0,0,0,0,0,-1,916,372,0,0
-301,652,0,0,0,0,0,0,0,0,0,-1,923,372,0,0
-294,652,0,0,0,0,0,0,0,0,0,-1,930,372,0,0
-287,652,0,0,0,0,0,0,0,0,0,-1,937,372,0,0
-280,652,0,0,0,0,0,0,0,0,0,-1,944,372,0,0
-273,652,0,0,0,0,0,0,0,0,0,-1,951,372,0,0
-266,652,0,0,0,0,0,0,0,0,0,-1,958,372,0,0
-259,652,0,0,0,0,0,0,0,0,0,-1,965,372,0,0
-252,652,0,0,0,0,0,0,0,0,0,-1,972,372,0,0
-245,652,0,0,0,0,0,0,0,0,0,-1,979,372,0,0
-238,652,0,0,0,0,0,0,0,0,0,-1,986,372,0,0
-231,652,-3.1214,-6.93527,0,0,0,0,0,0,0,-1,993,372,-3.1214,6.93528
-224,652,-3.74396,-5.71695,0,0,0,0,0,0,0,-1,1000,372,-3.74397,5.71694
-217,652,-4.52545,-5.19208,0,0,0,0,0,0,0,-1,1007,372,-4.52543,5.19207
-210,652,2.33746,-9.61121,0,0,0,0,0,0,0,-1,1014,372,2.33747,9.61121
-203,652,-2.37793,-10.4327,0,0,0,0,0,0,0,-1,1021,372,-2.37792,10.4327
-196,652,2.53687,-12.4586,0,0,0,0,0,0,0,-1,1028,372,2.53688,12.4586
-189,652,2.7843,-11.977,0,0,0,0,0,0,0,-1,1035,372,2.78433,11.977
-182,652,1.97473,-11.8764,0,0,0,0,0,0,0,-1,1042,372,1.97473,11.8764
-175,652,0.844971,-11.4736,0,0,0,0,0,0,0,-1,1049,372,0.844918,11.4736
-168,652,2.18091,-11.5191,0,0,0,0,0,0,0,-1,1056,372,2.18093,11.5191
-161,652,1.29944,-11.5622,0,0,0,0,0,0,0,-1,1063,372,1.29943,11.5622
-154,652,1.47559,-12.0574,0,0,0,0,0,0,0,-1,1070,372,1.47555,12.0574
-147,652,2.7511,-10.991,0,0,0,0,0,0,0,-1,1077,372,2.75113,10.991
-140,652,2.33276,-11.0615,0.00758077,0.000108522,-0.00138306,0.00782855,-0.000139258,-0.177272,0.00526607,0.0423919,1084,372,2.33273,11.0615
-133,652,2.36182,-10.9604,0.00559677,0.00685394,-0.00086192,0.00729214,0.00515857,-1.10045,0.00432918,0.0407702,1091,372,2.36183,10.9604
-126,652,2.5769,-10.8979,0.00358356,0.012857,-0.000731201,0.0129143,0.00352626,-1.49259,0.00770784,0.0380962,1098,372,2.57692,10.8979
-119,652,2.47681,-11.0398,0.00185266,0.0175882,-0.000837819,0.0176326,0.00180818,-1.51775,0.0112011,0.0331052,1105,372,2.47676,11.0398
-112,652,2.43201,-11.1158,0.000395205,0.0209774,-0.00106849,0.0210327,0.000339885,-1.51907,0.0139099,0.0239614,1112,372,2.43197,11.1158
-105,652,2.38904,-11.1794,-0.00089676,0.0234197,-0.00108549,0.0234681,-0.000945119,-1.52627,0.0159697,0.0207227,1119,372,2.38905,11.1794
-98,652,2.3822,-11.2806,-0.00198098,0.0240612,-0.00128266,0.0241242,-0.002044,-1.5217,0.0168056,0.0220555,1126,372,2.38222,11.2806
-91,652,2.37695,-11.3545,-0.0025519,0.0229821,-0.00152822,0.0230733,-0.00264303,-1.51123,0.0163346,0.0224756,1133,372,2.37701,11.3545
-84,652,2.40845,-11.4512,-0.00281213,0.021325,-0.00159213,0.0214296,-0.0029167,-1.50521,0.0153512,0.0214177,1140,372,2.40842,11.4512
-77,652,2.37122,-11.517,-0.00295433,0.0184277,-0.00148099,0.0185298,-0.00305642,-1.50197,0.0134879,0.0228314,1147,372,2.37125,11.517
-70,652,2.37537,-11.5994,-0.00290599,0.0151918,-0.0011408,0.0152634,-0.00297761,-1.50809,0.0112997,0.0310226,1154,372,2.37537,11.5994
-63,652,2.34814,-11.7663,0,0,0,0,0,0,0,-1,1161,372,2.34816,11.7663
-56,652,2.33191,-11.8145,0,0,0,0,0,0,0,-1,1168,372,2.33194,11.8145
-49,652,2.31384,-11.8457,-0.00178015,0.00166107,-0.000924525,0.00189373,-0.00201281,-1.32427,0.00225579,0.0280435,1175,372,2.3138,11.8457
-42,652,2.28406,-11.8914,0.0023511,0.00140865,-0.00145672,0.00341092,0.000348834,-0.628968,0.00216705,0.0112842,1182,372,2.2841,11.8914
-35,652,2.28857,-11.9354,0.00614328,0.0011472,-0.00266515,0.00729807,-7.59191e-06,-0.408876,0.00486791,0.00971713,1189,372,2.28861,11.9354
-28,652,2.27844,-11.9807,0.00782104,0.00130431,-0.00275573,0.00883011,0.000295244,-0.351008,0.00579083,0.00778095,1196,372,2.27843,11.9807
-21,652,2.25806,-12.0253,0.00867819,0.000577993,-0.00357844,0.0100326,-0.000776397,-0.361824,0.00696163,0.00699123,1203,372,2.25803,12.0253
-14,652,2.25171,-12.0742,0.00911591,0.000157474,-0.00431487,0.0108561,-0.00158275,-0.383356,0.0078186,0.00807873,1210,372,2.2517,12.0742
-7,652,2.25,-12.1116,0.00952364,0.000194045,-0.00455543,0.011379,-0.0016613,-0.386769,0.00819608,0.0107425,1217,372,2.25,12.1116
0,652,2.22717,-12.1132,0.00960996,0.000321439,-0.00474053,0.0116021,-0.0016707,-0.397828,0.00834755,0.0117703,1224,372,2.22715,12.1132
7,652,2.20447,-12.1047,0.00933375,0.000442819,-0.00482856,0.0114516,-0.00167504,-0.413342,0.00824963,0.0132393,1231,372,2.20447,12.1047
14,652,2.20154,-12.1287,0.00851994,0.000595845,-0.00470877,0.0107118,-0.001596,-0.435653,0.00772832,0.0112775,1238,372,2.2016,12.1287
21,652,2.20435,-12.1677,0.00797944,0.000894609,-0.00465042,0.010283,-0.00140893,-0.459912,0.00736999,0.0102491,1245,372,2.20429,12.1677
28,652,2.20361,-12.1789,0.00759073,0.00115972,-0.00420945,0.0096723,-0.000921848,-0.459236,0.00677641,0.00919582,1252,372,2.20362,12.1789
35,652,2.19177,-12.1829,0.00670016,0.00104711,-0.00364973,0.00848989,-0.000742619,-0.455916,0.005923,0.00868086,1259,372,2.19176,12.1829
42,652,2.18127,-12.1854,0.00572749,0.00101477,-0.00306557,0.00723767,-0.00049541,-0.457732,0.00499844,0.0101559,1266,372,2.18123,12.1854
49,652,2.19055,-12.1872,0.00477279,0.00116012,-0.00245565,0.00601491,-8.20025e-05,-0.468293,0.00403755,0.0129939,1273,372,2.19056,12.1872
56,652,2.17859,-12.194,0.00340693,0.000917429,-0.00179674,0.00434797,-2.36102e-05,-0.482465,0.00290655,0.015068,1280,372,2.17857,12.194
63,652,2.15491,-12.198,0.00131141,0.000499337,-0.00137354,0.00233768,-0.000526927,-0.641684,0.00176058,0.0184745,1287,372,2.15492,12.198
70,652,2.17139,-12.1666,-7.96337e-05,-6.35553e-05,-0.00110509,0.00103353,-0.00117672,-0.789035,0.00127698,0.0161221,1294,372,2.17134,12.1666
77,652,2.15723,-12.1476,-0.00108275,-0.000664614,-0.000436976,-0.000389268,-0.0013581,-1.00853,0.000807546,0.0156812,1301,372,2.15718,12.1477
84,652,2.15393,-12.1303,-0.0017545,-0.000803594,0.000780128,-0.000365453,-0.00219264,1.05907,0.00135646,0.0129868,1308,372,2.15391,12.1303
91,652,2.13562,-12.1273,-0.00260448,-0.00110971,0.00149387,-0.000186695,-0.00352749,1.01734,0.00229197,0.0152124,1315,372,2.13568,12.1273
98,652,2.14502,-12.0646,-0.00317782,-0.0016014,0.00209444,-0.000151765,-0.00462745,0.965368,0.00303565,0.0120581,1322,372,2.14503,12.0646
105,652,2.1344,-12.0175,-0.00334822,-0.00179111,0.00295952,0.000490545,-0.00562988,0.914018,0.00392699,0.0100103,1329,372,2.13445,12.0175
112,652,2.11597,-11.9954,-0.00330077,-0.00189536,0.00388037,0.00134542,-0.00654155,0.874974,0.00487183,0.00872693,1336,372,2.11597,11.9954
119,652,2.11743,-11.9578,-0.00277852,-0.0018308,0.00492281,0.00264091,-0.00725022,0.833379,0.00591372,0.00961579,1343,372,2.11749,11.9578
126,652,2.09875,-11.9044,-0.00228953,-0.00166872,0.00616457,0.00419325,-0.0081515,0.810553,0.00724834,0.0114449,1350,372,2.0988,11.9044
133,652,2.0459,-11.8464,-0.00145922,-0.00129954,0.00714161,0.00576268,-0.00852144,0.790988,0.00829805,0.0124247,1357,372,2.04593,11.8464
140,652,2.03748,-11.7971,0.000143397,-0.000592996,0.0080505,0.00783412,-0.00828372,0.762546,0.00930684,0.00962641,1364,372,2.03752,11.7971
147,652,2.03467,-11.751,0.00163877,-0.000186538,0.00882387,0.00959706,-0.00814482,0.733866,0.0102547,0.00832298,1371,372,2.03461,11.751
154,652,2.03674,-11.6932,0.00279871,4.90057e-05,0.00932865,0.0108533,-0.00800556,0.712235,0.0109295,0.00882991,1378,372,2.03678,11.6932
161,652,2.04163,-11.6201,0.00399211,0.000305855,0.00951948,0.0118452,-0.00754729,0.689773,0.0112876,0.0103489,1385,372,2.0416,11.6201
168,652,2.02893,-11.5566,0.00480997,0.000523775,0.00975542,0.0126549,-0.00732118,0.677274,0.0116694,0.0110577,1392,372,2.02898,11.5567
175,652,2.02136,-11.4712,0.0044689,0.0007692,0.00978635,0.0125787,-0.0073406,0.691989,0.0116322,0.0112729,1399,372,2.02141,11.4712
182,652,2.00073,-11.4041,0.00396363,0.00102286,0.00838302,0.0110042,-0.00601775,0.698581,0.00996722,0.0169366,1406,372,2.00079,11.4041
189,652,2.02637,-11.3038,0.00288306,0.000818362,0.00620973,0.00814567,-0.00444425,0.703028,0.00737276,0.0230919,1413,372,2.0264,11.3038
196,652,2.00439,-11.2608,0.00218332,0.000424651,0.00599254,0.0073607,-0.00475273,0.712549,0.00704751,0.0386829,1420,372,2.00444,11.2608
203,652,1.97607,-11.0887,0,0,0,0,0,0,0,-1,1427,372,1.97613,11.0887
210,652,1.95959,-11.1516,-0.00143685,-0.00166194,0.00348952,0.00194194,-0.00504073,0.769277,0.00416167,0.0314608,1434,372,1.95955,11.1516
217,652,2.01501,-10.8562,-0.000974038,-0.00130051,0.00334235,0.00220906,-0.00448361,0.760998,0.00393769,0.0309488,1441,372,2.01503,10.8562
224,652,2.02698,-10.737,2.86612e-05,-0.000616603,0.00349642,0.00321731,-0.00380525,0.739391,0.00405921,0.0281073,1448,372,2.02695,10.737
231,652,2.03076,-10.6437,0.000769652,0.000226343,0.00364231,0.00415042,-0.00315443,0.748176,0.00423051,0.0334993,1455,372,2.0307,10.6437
238,652,2.06042,-10.6448,0.00181823,0.000972167,0.00361737,0.00503722,-0.00224682,0.72719,0.00430707,0.0369206,1462,372,2.06037,10.6448
245,652,1.9447,-10.6407,0.00317708,0.00204614,0.00362164,0.00627713,-0.00105391,0.707956,0.00457668,0.0377293,1469,372,1.94464,10.6408
252,652,1.77014,-10.6055,0.00497277,0.00359607,0.00380007,0.00814634,0.000422507,0.6958,0.00529568,0.0447325,1476,372,1.77016,10.6055
259,652,1.57202,-10.4717,0,0,0,0,0,0,0,-1,1483,372,1.572,10.4717
266,652,1.68835,-9.8175,0.00902688,0.00866486,0.0046717,0.0135211,0.00417067,0.766035,0.00799506,0.0492508,1490,372,1.68835,9.8175
273,652,2.11157,-9.72375,0.0108835,0.0106269,0.0056833,0.01644,0.00507049,0.774112,0.00972109,0.048773,1497,372,2.11156,9.72376
280,652,2.15454,-9.63629,0,0,0,0,0,0,0,-1,1504,372,2.15452,9.6363
287,652,2.22668,-9.28003,0,0,0,0,0,0,0,-1,1511,372,2.2267,9.28004
294,652,2.28955,-9.20612,0,0,0,0,0,0,0,-1,1518,372,2.28949,9.20613
301,652,3.21997,-5.06412,0,0,0,0,0,0,0,-1,1525,372,3.21995,5.06413
308,652,3.28345,-4.1044,0,0,0,0,0,0,0,-1,1532,372,3.2834,4.10439
315,652,2.41553,-8.53745,0,0,0,0,0,0,0,-1,1539,372,2.41554,8.53746
322,652,5.12012,-3.16913,0,0,0,0,0,0,0,-1,1546,372,5.12018,3.16914
329,652,0.594604,-8.61166,0,0,0,0,0,0,0,-1,1553,372,0.594565,8.61167
336,652,4.32825,-3.46991,0,0,0,0,0,0,0,-1,1560,372,4.3282,3.46991
343,652,4.18225,-6.7092,0,0,0,0,0,0,0,-1,1567,372,4.18231,6.70921
350,652,4.64563,-7.2074,0,0,0,0,0,0,0,-1,1574,372,4.6456,7.2074
357,652,0,0,0,0,0,0,0,0,0,-1,1581,372,0,0
364,652,0,0,0,0,0,0,0,0,0,-1,1588,372,0,0
371,652,0,0,0,0,0,0,0,0,0,-1,1595,372,0,0
378,652,0,0,0,0,0,0,0,0,0,-1,1602,372,0,0
385,652,0,0,0,0,0,0,0,0,0,-1,1609,372,0,0
392,652,0,0,0,0,0,0,0,0,0,-1,1616,372,0,0
399,652,0,0,0,0,0,0,0,0,0,-1,1623,372,0,0
406,652,0,0,0,0,0,0,0,0,0,-1,1630,372,0,0
413,652,0,0,0,0,0,0,0,0,0,-1,1637,372,0,0
420,652,0,0,0,0,0,0,0,0,0,-1,1644,372,0,0
427,652,0,0,0,0,0,0,0,0,0,-1,1651,372,0,0
434,652,0,0,0,0,0,0,0,0,0,-1,1658,372,0,0
441,652,0,0,0,0,0,0,0,0,0,-1,1665,372,0,0
448,652,0,0,0,0,0,0,0,0,0,-1,1672,372,0,0
455,652,0,0,0,0,0,0,0,0,0,-1,1679,372,0,0
462,652,0,0,0,0,0,0,0,0,0,-1,1686,372,0,0
469,652,0,0,0,0,0,0,0,0,0,-1,1693,372,0,0
476,652,0,0,0,0,0,0,0,0,0,-1,1700,372,0,0
483,652,0,0,0,0,0,0,0,0,0,-1,1707,372,0,0
490,652,0,0,0,0,0,0,0,0,0,-1,1714,372,0,0
497,652,0,0,0,0,0,0,0,0,0,-1,1721,372,0,0
504,652,0,0,0,0,0,0,0,0,0,-1,1728,372,0,0
511,652,0,0,0,0,0,0,0,0,0,-1,1735,372,0,0
518,652,0,0,0,0,0,0,0,0,0,-1,1742,372,0,0
525,652,0,0,0,0,0,0,0,0,0,-1,1749,372,0,0
532,652,0,0,0,0,0,0,0,0,0,-1,1756,372,0,0
539,652,0,0,0,0,0,0,0,0,0,-1,1763,372,0,0
546,652,0,0,0,0,0,0,0,0,0,-1,1770,372,0,0
553,652,0,0,0,0,0,0,0,0,0,-1,1777,372,0,0
560,652,0,0,0,0,0,0,0,0,0,-1,1784,372,0,0
567,652,0,0,0,0,0,0,0,0,0,-1,1791,372,0,0
574,652,0,0,0,0,0,0,0,0,0,-1,1798,372,0,0
581,652,0,0,0,0,0,0,0,0,0,-1,1805,372,0,0
588,652,0,0,0,0,0,0,0,0,0,-1,1812,372,0,0
595,652,0,0,0,0,0,0,0,0,0,-1,1819,372,0,0
602,652,0,0,0,0,0,0,0,0,0,-1,1826,372,0,0
609,652,0,0,0,0,0,0,0,0,0,-1,1833,372,0,0
616,652,0,0,0,0,0,0,0,0,0,-1,1840,372,0,0
623,652,0,0,0,0,0,0,0,0,0,-1,1847,372,0,0
630,652,0,0,0,0,0,0,0,0,0,-1,1854,372,0,0
637,652,0,0,0,0,0,0,0,0,0,-1,1861,372,0,0
644,652,0,0,0,0,0,0,0,0,0,-1,1868,372,0,0
651,652,0,0,0,0,0,0,0,0,0,-1,1875,372,0,0
658,652,0,0,0,0,0,0,0,0,0,-1,1882,372,0,0
665,652,0,0,0,0,0,0,0,0,0,-1,1889,372,0,0
672,652,0,0,0,0,0,0,0,0,0,-1,1896,372,0,0
679,652,0,0,0,0,0,0,0,0,0,-1,1903,372,0,0
686,652,0,0,0,0,0,0,0,0,0,-1,1910,372,0,0
693,652,0,0,0,0,0,0,0,0,0,-1,1917,372,0,0
700,652,0,0,0,0,0,0,0,0,0,-1,1924,372,0,0
707,652,0,0,0,0,0,0,0,0,0,-1,1931,372,0,0
714,652,0,0,0,0,0,0,0,0,0,-1,1938,372,0,0
721,652,0,0,0,0,0,0,0,0,0,-1,1945,372,0,0
728,652,0,0,0,0,0,0,0,0,0,-1,1952,372,0,0
735,652,0,0,0,0,0,0,0,0,0,-1,1959,372,0,0
742,652,0,0,0,0,0,0,0,0,0,-1,1966,372,0,0
749,652,0,0,0,0,0,0,0,0,0,-1,1973,372,0,0
756,652,0,0,0,0,0,0,0,0,0,-1,1980,372,0,0
763,652,0,0,0,0,0,0,0,0,0,-1,1987,372,0,0
770,652,0,0,0,0,0,0,0,0,0,-1,1994,372,0,0
777,652,0,0,0,0,0,0,0,0,0,-1,2001,372,0,0
784,652,0,0,0,0,0,0,0,0,0,-1,2008,372,0,0
791,652,0,0,0,0,0,0,0,0,0,-1,2015,372,0,0
798,652,0,0,0,0,0,0,0,0,0,-1,2022,372,0,0
805,652,0,0,0,0,0,0,0,0,0,-1,2029,372,0,0
812,652,0,0,0,0,0,0,0,0,0,-1,2036,372,0,0
-700,645,0,0,0,0,0,0,0,0,0,-1,524,379,0,0
-693,645,0,0,0,0,0,0,0,0,0,-1,531,379,0,0
-686,645,0,0,0,0,0,0,0,0,0,-1,538,379,0,0
-679,645,0,0,0,0,0,0,0,0,0,-1,545,379,0,0
-672,645,0,0,0,0,0,0,0,0,0,-1,552,379,0,0
-665,645,0,0,0,0,0,0,0,0,0,-1,559,379,0,0
-658,645,0,0,0,0,0,0,0,0,0,-1,566,379,0,0
-651,645,0,0,0,0,0,0,0,0,0,-1,573,379,0,0
-644,645,0,0,0,0,0,0,0,0,0,-1,580,379,0,0
-637,645,0,0,0,0,0,0,0,0,0,-1,587,379,0,0
-630,645,0,0,0,0,0,0,0,0,0,-1,594,379,0,0
-623,645,0,0,0,0,0,0,0,0,0,-1,601,379,0,0
-616,645,0,0,0,0,0,0,0,0,0,-1,608,379,0,0
-609,645,0,0,0,0,0,0,0,0,0,-1,615,379,0,0
-602,645,0,0,0,0,0,0,0,0,0,-1,622,379,0,0
-595,645,0,0,0,0,0,0,0,0,0,-1,629,379,0,0
-588,645,0,0,0,0,0,0,0,0,0,-1,636,379,0,0
-581,645,0,0,0,0,0,0,0,0,0,-1,643,379,0,0
-574,645,0,0,0,0,0,0,0,0,0,-1,650,379,0,0
-567,645,0,0,0,0,0,0,0,0,0,-1,657,379,0,0
-560,645,0,0,0,0,0,0,0,0,0,-1,664,379,0,0
-553,645,0,0,0,0,0,0,0,0,0,-1,671,379,0,0
-546,645,0,0,0,0,0,0,0,0,0,-1,678,379,0,0
-539,645,0,0,0,0,0,0,0,0,0,-1,685,379,0,0
-532,645,0,0,0,0,0,0,0,0,0,-1,692,379,0,0
-525,645,0,0,0,0,0,0,0,0,0,-1,699,379,0,0
-518,645,0,0,0,0,0,0,0,0,0,-1,706,379,0,0
-511,645,0,0,0,0,0,0,0,0,0,-1,713,379,0,0
-504,645,0,0,0,0,0,0,0,0,0,-1,720,379,0,0
-497,645,0,0,0,0,0,0,0,0,0,-1,727,379,0,0
-490,645,0,0,0,0,0,0,0,0,0,-1,734,379,0,0
-483,645,0,0,0,0,0,0,0,0,0,-1,741,379,0,0
-476,645,0,0,0,0,0,0,0,0,0,-1,748,379,0,0
-469,645,0,0,0,0,0,0,0,0,0,-1,755,379,0,0
-462,645,0,0,0,0,0,0,0,0,0,-1,762,379,0,0
-455,645,0,0,0,0,0,0,0,0,0,-1,769,379,0,0
-448,645,0,0,0,0,0,0,0,0,0,-1,776,379,0,0
-441,645,0,0,0,0,0,0,0,0,0,-1,783,379,0,0
-434,645,0,0,0,0,0,0,0,0,0,-1,790,379,0,0
-427,645,0,0,0,0,0,0,0,0,0,-1,797,379,0,0
-420,645,0,0,0,0,0,0,0,0,0,-1,804,379,0,0
-413,645,0,0,0,0,0,0,0,0,0,-1,811,379,0,0
-406,645,0,0,0,0,0,0,0,0,0,-1,818,379,0,0
-399,645,0,0,0,0,0,0,0,0,0,-1,825,379,0,0
-392,645,0,0,0,0,0,0,0,0,0,-1,832,379,0,0
-385,645,0,0,0,0,0,0,0,0,0,-1,839,379,0,0
-378,645,0,0,0,0,0,0,0,0,0,-1,846,379,0,0
-371,645,0,0,0,0,0,0,0,0,0,-1,853,379,0,0
-364,645,0,0,0,0,0,0,0,0,0,-1,860,379,0,0
-357,645,0,0,0,0,0,0,0,0,0,-1,867,379,0,0
-350,645,0,0,0,0,0,0,0,0,0,-1,874,379,0,0
-343,645,0,0,0,0,0,0,0,0,0,-1,881,379,0,0
-336,645,0,0,0,0,0,0,0,0,0,-1,888,379,0,0
-329,645,0,0,0,0,0,0,0,0,0,-1,895,379,0,0
-322,645,0,0,0,0,0,0,0,0,0,-1,902,379,0,0
-315,645,0,0,0,0,0,0,0,0,0,-1,909,379,0,0
-308,645,0,0,0,0,0,0,0,0,0,-1,916,379,0,0
-301,645,0,0,0,0,0,0,0,0,0,-1,923,379,0,0
-294,645,0,0,0,0,0,0,0,0,0,-1,930,379,0,0
-287,645,0,0,0,0,0,0,0,0,0,-1,937,379,0,0
-280,645,0,0,0,0,0,0,0,0,0,-1,944,379,0,0
-273,645,0,0,0,0,0,0,0,0,0,-1,951,379,0,0
-266,645,0,0,0,0,0,0,0,0,0,-1,958,379,0,0
-259,645,0,0,0,0,0,0,0,0,0,-1,965,379,0,0
-252,645,-1.50244,-10.0362,0,0,0,0,0,0,0,-1,972,379,-1.50244,10.0362
-245,645,-1.16406,-9.70279,0,0,0,0,0,0,0,-1,979,379,-1.16407,9.70278
-238,645,-0.267273,-9.43524,0,0,0,0,0,0,0,-1,986,379,-0.267282,9.43523
-231,645,-1.95947,-7.94208,0,0,0,0,0,0,0,-1,993,379,-1.9595,7.94209
-224,645,-2.58899,-7.38031,0,0,0,0,0,0,0,-1,1000,379,-2.58896,7.38031
-217,645,-3.33527,-5.9166,0,0,0,0,0,0,0,-1,1007,379,-3.33529,5.91658
-210,645,2.55573,-13.5182,0,0,0,0,0,0,0,-1,1014,379,2.55572,13.5182
-203,645,2.59467,-12.8821,0,0,0,0,0,0,0,-1,1021,379,2.59469,12.8821
-196,645,2.57666,-12.4496,0,0,0,0,0,0,0,-1,1028,379,2.57661,12.4497
-189,645,2.67126,-11.7241,0,0,0,0,0,0,0,-1,1035,379,2.67126,11.7241
-182,645,2.1803,-11.3343,0,0,0,0,0,0,0,-1,1042,379,2.18029,11.3343
-175,645,2.1958,-9.92267,0,0,0,0,0,0,0,-1,1049,379,2.19586,9.92267
-168,645,2.38013,-10.2511,0,0,0,0,0,0,0,-1,1056,379,2.38011,10.2511
-161,645,1.70544,-11.0378,0.00882783,-0.0161883,-0.00337783,0.00927589,-0.0166363,-0.13188,0.0151603,0.0450743,1063,379,1.70542,11.0378
-154,645,1.84082,-11.3539,0.00802395,-0.00966065,-0.00310922,0.00855467,-0.0101914,-0.169063,0.0108368,0.0404725,1070,379,1.84078,11.3539
-147,645,2.56824,-10.8102,0.00678147,-0.00539426,-0.00254326,0.00729135,-0.00590415,-0.197861,0.00763245,0.0385597,1077,379,2.56825,10.8101
-140,645,2.32324,-10.8239,0.00533021,-0.000705219,-0.00173624,0.00579404,-0.00116905,-0.261049,0.0043056,0.0337755,1084,379,2.32323,10.8239
-133,645,2.32947,-10.9276,0.00403382,0.00409612,-0.00120327,0.00526865,0.0028613,-0.798339,0.00304562,0.0278089,1091,379,2.32953,10.9275
-126,645,2.38232,-10.9949,0.00266122,0.00846172,-0.000983993,0.0086241,0.00249884,-1.40725,0.00512376,0.0225413,1098,379,2.38229,10.9949
-119,645,2.38074,-11.1007,0.00149237,0.0120011,-0.000965195,0.012089,0.00140445,-1.47996,0.00763438,0.0161364,1105,379,2.38078,11.1007
-112,645,2.375,-11.2008,0.000502775,0.0146273,-0.00106496,0.0147071,0.00042293,-1.49596,0.00966685,0.0119093,1112,379,2.37497,11.2008
-105,645,2.34436,-11.2838,-0.00042062,0.0166445,-0.000976767,0.0167002,-0.000476346,-1.51381,0.0112956,0.0119337,1119,379,2.34433,11.2838
-98,645,2.31067,-11.3615,-0.00124477,0.0173371,-0.00108036,0.0173997,-0.00130737,-1.51292,0.0120592,0.0124059,1126,379,2.31061,11.3615
-91,645,2.31042,-11.4401,-0.00164891,0.0166338,-0.00130029,0.0167258,-0.00174093,-1.50015,0.0117739,0.0126723,1133,379,2.31043,11.4401
-84,645,2.29846,-11.5098,-0.00180545,0.0155608,-0.00133136,0.0156622,-0.00190693,-1.49472,0.0111317,0.0129569,1140,379,2.29845,11.5098
-77,645,2.27698,-11.5991,-0.00193592,0.0134999,-0.00123068,0.0135974,-0.00203343,-1.49173,0.00981322,0.0123767,1147,379,2.27699,11.5991
-70,645,2.27771,-11.6927,-0.00192462,0.0111699,-0.000947413,0.0112381,-0.00199281,-1.49894,0.00823706,0.0116716,1154,379,2.27774,11.6927
-63,645,2.28772,-11.748,-0.00177506,0.00882722,-0.000968253,0.00891492,-0.00186276,-1.48047,0.00665172,0.0116572,1161,379,2.28773,11.748
-56,645,2.28088,-11.7846,-0.001312,0.00533015,-0.00114543,0.00552213,-0.00150398,-1.40474,0.00427192,0.0126255,1168,379,2.28086,11.7846
-49,645,2.2594,-11.8277,-0.00121529,0.00161506,-0.000617106,0.00174376,-0.00134399,-1.36519,0.00178768,0.0107785,1175,379,2.2594,11.8277
-42,645,2.25049,-11.8923,0.00106385,0.00127456,-0.000900897,0.00207624,0.000262167,-0.843605,0.00130557,0.00971369,1182,379,2.25048,11.8923
-35,645,2.25525,-11.9607,0.00319659,0.000980034,-0.00155742,0.00399982,0.000176806,-0.476161,0.00260961,0.00911698,1189,379,2.25526,11.9607
-28,645,2.22986,-12.0241,0.00418965,0.000947045,-0.00156211,0.00481975,0.000316942,-0.383404,0.0031129,0.0074776,1196,379,2.22992,12.0241
-21,645,2.20898,-12.0366,0.00481405,0.00067657,-0.00180136,0.00548841,2.21073e-06,-0.35821,0.0036582,0.00892144,1203,379,2.20895,12.0366
-14,645,2.2146,-12.0682,0.00523616,0.000195585,-0.00220032,0.0060615,-0.000629761,-0.35886,0.00426644,0.0090105,1210,379,2.21462,12.0682
-7,645,2.22632,-12.1269,0.00565912,4.32445e-06,-0.00233218,0.00649686,-0.000833417,-0.344856,0.00463409,0.0118601,1217,379,2.22636,12.1269
0,645,2.20618,-12.1294,0.00589571,-0.000102589,-0.002497,0.00679911,-0.00100599,-0.347143,0.00490259,0.0223161,1224,379,2.20616,12.1294
7,645,2.203,-12.1276,0.00586105,-0.000174877,-0.00265894,0.00686529,-0.00117911,-0.36112,0.0050163,0.0159969,1231,379,2.20306,12.1276
14,645,2.20557,-12.1376,0.00543153,-0.000241882,-0.0027149,0.00652135,-0.0013317,-0.38173,0.00485276,0.015173,1238,379,2.20561,12.1376
21,645,2.18933,-12.1728,0.00499563,-0.000191508,-0.00281117,0.00622688,-0.00142276,-0.412819,0.00469788,0.0101968,1245,379,2.18938,12.1728
28,645,2.18774,-12.1939,0.0045901,-0.000174698,-0.00263932,0.00576324,-0.00134783,-0.418258,0.00436142,0.00887387,1252,379,2.18769,12.1939
35,645,2.18274,-12.199,0.00393061,-0.000357026,-0.00239645,0.00500221,-0.00142863,-0.420491,0.00389925,0.00807548,1259,379,2.18271,12.199
42,645,2.18542,-12.2068,0.00322936,-0.000454919,-0.00214881,0.00421756,-0.00144312,-0.431044,0.00339653,0.00794871,1266,379,2.18543,12.2069
49,645,2.20386,-12.204,0.00255256,-0.000368427,-0.00186333,0.00345956,-0.00127543,-0.453003,0.00282903,0.0111816,1273,379,2.20389,12.204
56,645,2.19238,-12.2022,0.00166609,-0.00048297,-0.00149998,0.00243671,-0.00125359,-0.474587,0.00216679,0.0113377,1280,379,2.1924,12.2022
63,645,2.17908,-12.2013,0.000323691,-0.000693193,-0.0013152,0.0012253,-0.00159481,-0.600952,0.00163284,0.0111428,1287,379,2.17904,12.2013
70,645,2.15918,-12.17,-0.000578308,-0.000958024,-0.00123658,0.000482901,-0.00201923,-0.709225,0.00153269,0.0143006,1294,379,2.15916,12.1699
77,645,2.1532,-12.1524,-0.00109348,-0.00123051,-0.000804315,-0.000354766,-0.00196922,-0.742909,0.00121199,0.0172771,1301,379,2.15319,12.1524
84,645,2.17615,-12.1292,-0.00124994,-0.00128986,-0.000204538,-0.00106439,-0.00147541,-0.736757,0.000879229,0.0126569,1308,379,2.17613,12.1292
91,645,2.16248,-12.1103,-0.00159248,-0.00122015,0.000219608,-0.00111842,-0.00169422,1.13699,0.000994738,0.0139191,1315,379,2.16248,12.1103
98,645,2.17627,-12.0497,-0.00186222,-0.00135913,0.000503974,-0.00104741,-0.00217394,1.01687,0.0012554,0.0129187,1322,379,2.17623,12.0497
105,645,2.16626,-12.0117,-0.00192949,-0.00138439,0.000968573,-0.000650748,-0.00266313,0.922548,0.00160315,0.00965205,1329,379,2.16627,12.0117
112,645,2.1322,-11.991,-0.00188022,-0.0014243,0.00148813,-0.000146774,-0.00315774,0.8614,0.00205798,0.00795238,1336,379,2.13214,11.991
119,645,2.14331,-11.9509,-0.00160862,-0.00137327,0.00205081,0.000563239,-0.00354513,0.814057,0.00257181,0.00812018,1343,379,2.14337,11.9509
126,645,2.14185,-11.9144,-0.00136342,-0.00128555,0.00270871,0.00138451,-0.00403348,0.792584,0.00325031,0.0109407,1350,379,2.1418,11.9144
133,645,2.11597,-11.8593,-0.0010106,-0.00105983,0.0031567,0.00212157,-0.00419201,0.7815,0.00370991,0.012732,1357,379,2.11591,11.8593
140,645,2.12207,-11.7961,-0.000297116,-0.000620565,0.00361204,0.00315682,-0.0040745,0.763026,0.00418619,0.0124452,1364,379,2.12203,11.796
147,645,2.10364,-11.7517,0.000369955,-0.000374458,0.00400786,0.00402286,-0.00402736,0.739096,0.0046478,0.0125536,1371,379,2.10358,11.7517
154,645,2.11328,-11.6958,0.000833599,-0.000222435,0.00421401,0.00455254,-0.00394138,0.723073,0.00490819,0.0112008,1378,379,2.11331,11.6958
161,645,2.1084,-11.6234,0.0013751,-8.95978e-06,0.00425469,0.00499367,-0.00362753,0.704779,0.00499824,0.0131695,1385,379,2.10843,11.6234
168,645,2.09082,-11.5536,0.00169846,0.000262084,0.00447156,0.00550913,-0.00354859,0.705772,0.00527016,0.0157211,1392,379,2.09087,11.5536
175,645,2.11719,-11.4768,0.00158971,0.000435912,0.00460309,0.00565191,-0.00362629,0.723059,0.00539915,0.0135469,1399,379,2.11713,11.4768
182,645,2.09619,-11.3898,0.00156464,0.000562607,0.00390633,0.00500196,-0.00287471,0.721617,0.00460255,0.00983943,1406,379,2.09618,11.3898
189,645,2.08936,-11.2907,0.000903452,0.000476834,0.00311511,0.00381254,-0.00243226,0.751214,0.00363468,0.0105488,1413,379,2.08936,11.2907
196,645,2.06201,-11.2124,0.000527652,0.000211356,0.00316677,0.00354023,-0.00280122,0.760449,0.00366951,0.0116557,1420,379,2.06199,11.2124
203,645,2.04211,-11.1103,-0.000297917,-0.000434681,0.00286039,0.00249491,-0.00322751,0.773447,0.00331286,0.0111763,1427,379,2.04214,11.1103
210,645,2.05896,-11.0203,-0.00111283,-0.00102948,0.00250818,0.00143737,-0.00357968,0.793706,0.00298332,0.0128776,1434,379,2.05898,11.0203
217,645,2.04224,-10.931,-0.000801081,-0.000684381,0.00241758,0.00167555,-0.00316101,0.797464,0.00283595,0.0131892,1441,379,2.04218,10.931
224,645,2.01514,-10.8096,-0.000104306,-0.000111504,0.00256851,0.0024606,-0.00267641,0.784697,0.00296673,0.0121689,1448,379,2.0151,10.8096
231,645,2.00391,-10.6777,0.000421458,0.000601582,0.00274845,0.00326144,-0.0022384,0.801776,0.0031936,0.0124982,1455,379,2.00394,10.6777
238,645,1.9856,-10.5854,0.00116271,0.00121511,0.00280868,0.00399772,-0.00161989,0.790062,0.00333877,0.0107491,1462,379,1.98559,10.5854
245,645,1.98987,-10.4896,0.00209786,0.00206091,0.00289125,0.00497069,-0.000811924,0.782203,0.00361496,0.0117791,1469,379,1.98983,10.4896
252,645,1.98853,-10.3138,0.00330824,0.00323944,0.0031031,0.00637713,0.000170543,0.779856,0.00419573,0.0176991,1476,379,1.98847,10.3138
259,645,1.93103,-10.1368,0.00468578,0.00471115,0.00355789,0.00825638,0.00114055,0.787181,0.00516621,0.0288061,1483,379,1.93105,10.1368
266,645,1.89819,-10.0002,0.00594328,0.0070919,0.00396031,0.0105193,0.00251585,0.857405,0.00634282,0.0262718,1490,379,1.89821,10.0002
273,645,2.04517,-9.88202,0.00714421,0.0085744,0.00482666,0.0127387,0.00297996,0.858941,0.00769394,0.0245145,1497,379,2.04519,9.88203
280,645,2.11975,-9.62509,0.00831714,0.0117047,0.00585456,0.0161056,0.00391628,0.92621,0.00969887,0.0421715,1504,379,2.11974,9.62511
287,645,2.1532,-9.42712,0,0,0,0,0,0,0,-1,1511,379,2.15315,9.42711
294,645,2.10852,-10.102,0,0,0,0,0,0,0,-1,1518,379,2.10849,10.102
301,645,2.42773,-9.39069,0,0,0,0,0,0,0,-1,1525,379,2.42777,9.39068
308,645,2.20251,-8.70349,0,0,0,0,0,0,0,-1,1532,379,2.2025,8.70349
315,645,2.40442,-8.5553,0,0,0,0,0,0,0,-1,1539,379,2.4044,8.55529
322,645,2.68311,-8.96725,0,0,0,0,0,0,0,-1,1546,379,2.68314,8.96727
329,645,1.23096,-7.2207,0,0,0,0,0,0,0,-1,1553,379,1.23091,7.22072
336,645,0.61792,-6.51047,0,0,0,0,0,0,0,-1,1560,379,0.617879,6.51047
343,645,3.48962,-5.22675,0,0,0,0,0,0,0,-1,1567,379,3.48959,5.22675
350,645,3.93213,-5.72198,0,0,0,0,0,0,0,-1,1574,379,3.9321,5.72198
357,645,1.63928,-6.465,0,0,0,0,0,0,0,-1,1581,379,1.63926,6.46499
364,645,-0.0794678,-3.22021,0,0,0,0,0,0,0,-1,1588,379,-0.0794987,3.22021
371,645,0,0,0,0,0,0,0,0,0,-1,1595,379,0,0
378,645,0,0,0,0,0,0,0,0,0,-1,1602,379,0,0
385,645,0,0,0,0,0,0,0,0,0,-1,1609,379,0,0
392,645,0,0,0,0,0,0,0,0,0,-1,1616,379,0,0
399,645,0,0,0,0,0,0,0,0,0,-1,1623,379,0,0
406,645,0,0,0,0,0,0,0,0,0,-1,1630,379,0,0
413,645,0,0,0,0,0,0,0,0,0,-1,1637,379,0,0
420,645,0,0,0,0,0,0,0,0,0,-1,1644,379,0,0
427,645,0,0,0,0,0,0,0,0,0,-1,1651,379,0,0
434,645,0,0,0,0,0,0,0,0,0,-1,1658,379,0,0
441,645,0,0,0,0,0,0,0,0,0,-1,1665,379,0,0
448,645,0,0,0,0,0,0,0,0,0,-1,1672,379,0,0
455,645,0,0,0,0,0,0,0,0,0,-1,1679,379,0,0
462,645,0,0,0,0,0,0,0,0,0,-1,1686,379,0,0
469,645,0,0,0,0,0,0,0,0,0,-1,1693,379,0,0
476,645,0,0,0,0,0,0,0,0,0,-1,1700,379,0,0
483,645,0,0,0,0,0,0,0,0,0,-1,1707,379,0,0
490,645,0,0,0,0,0,0,0,0,0,-1,1714,379,0,0
497,645,0,0,0,0,0,0,0,0,0,-1,1721,379,0,0
504,645,0,0,0,0,0,0,0,0,0,-1,1728,379,0,0
511,645,0,0,0,0,0,0,0,0,0,-1,1735,379,0,0
518,645,0,0,0,0,0,0,0,0,0,-1,1742,379,0,0
525,645,0,0,0,0,0,0,0,0,0,-1,1749,379,0,0
532,645,0,0,0,0,0,0,0,0,0,-1,1756,379,0,0
539,645,0,0,0,0,0,0,0,0,0,-1,1763,379,0,0
546,645,0,0,0,0,0,0,0,0,0,-1,1770,379,0,0
553,645,0,0,0,0,0,0,0,0,0,-1,1777,379,0,0
560,645,0,0,0,0,0,0,0,0,0,-1,1784,379,0,0
567,645,0,0,0,0,0,0,0,0,0,-1,1791,379,0,0
574,645,0,0,0,0,0,0,0,0,0,-1,1798,379,0,0
581,645,0,0,0,0,0,0,0,0,0,-1,1805,379,0,0
588,645,0,0,0,0,0,0,0,0,0,-1,1812,379,0,0
595,645,0,0,0,0,0,0,0,0,0,-1,1819,379,0,0
602,645,0,0,0,0,0,0,0,0,0,-1,1826,379,0,0
609,645,0,0,0,0,0,0,0,0,0,-1,1833,379,0,0
616,645,0,0,0,0,0,0,0,0,0,-1,1840,379,0,0
623,645,0,0,0,0,0,0,0,0,0,-1,1847,379,0,0
630,645,0,0,0,0,0,0,0,0,0,-1,1854,379,0,0
637,645,0,0,0,0,0,0,0,0,0,-1,1861,379,0,0
644,645,0,0,0,0,0,0,0,0,0,-1,1868,379,0,0
651,645,0,0,0,0,0,0,0,0,0,-1,1875,379,0,0
658,645,0,0,0,0,0,0,0,0,0,-1,1882,379,0,0
665,645,0,0,0,0,0,0,0,0,0,-1,1889,379,0,0
672,645,0,0,0,0,0,0,0,0,0,-1,1896,379,0,0
679,645,0,0,0,0,0,0,0,0,0,-1,1903,379,0,0
686,645,0,0,0,0,0,0,0,0,0,-1,1910,379,0,0
693,645,0,0,0,0,0,0,0,0,0,-1,1917,379,0,0
700,645,0,0,0,0,0,0,0,0,0,-1,1924,379,0,0
707,645,0,0,0,0,0,0,0,0,0,-1,1931,379,0,0
714,645,0,0,0,0,0,0,0,0,0,-1,1938,379,0,0
721,645,0,0,0,0,0,0,0,0,0,-1,1945,379,0,0
728,645,0,0,0,0,0,0,0,0,0,-1,1952,379,0,0
735,645,0,0,0,0,0,0,0,0,0,-1,1959,379,0,0
742,645,0,0,0,0,0,0,0,0,0,-1,1966,379,0,0
749,645,0,0,0,0,0,0,0,0,0,-1,1973,379,0,0
756,645,0,0,0,0,0,0,0,0,0,-1,1980,379,0,0
763,645,0,0,0,0,0,0,0,0,0,-1,1987,379,0,0
770,645,0,0,0,0,0,0,0,0,0,-1,1994,379,0,0
777,645,0,0,0,0,0,0,0,0,0,-1,2001,379,0,0
784,645,0,0,0,0,0,0,0,0,0,-1,2008,379,0,0
791,645,0,0,0,0,0,0,0,0,0,-1,2015,379,0,0
798,645,0,0,0,0,0,0,0,0,0,-1,2022,379,0,0
805,645,0,0,0,0,0,0,0,0,0,-1,2029,379,0,0
812,645,0,0,0,0,0,0,0,0,0,-1,2036,379,0,0
-700,638,0,0,0,0,0,0,0,0,0,-1,524,386,0,0
-693,638,0,0,0,0,0,0,0,0,0,-1,531,386,0,0
-686,638,0,0,0,0,0,0,0,0,0,-1,538,386,0,0
-679,638,0,0,0,0,0,0,0,0,0,-1,545,386,0,0
-672,638,0,0,0,0,0,0,0,0,0,-1,552,386,0,0
-665,638,0,0,0,0,0,0,0,0,0,-1,559,386,0,0
-658,638,0,0,0,0,0,0,0,0,0,-1,566,386,0,0
-651,638,0,0,0,0,0,0,0,0,0,-1,573,386,0,0
-644,638,0,0,0,0,0,0,0,0,0,-1,580,386,0,0
-637,638,0,0,0,0,0,0,0,0,0,-1,587,386,0,0
-630,638,0,0,0,0,0,0,0,0,0,-1,594,386,0,0
-623,638,0,0,0,0,0,0,0,0,0,-1,601,386,0,0
-616,638,0,0,0,0,0,0,0,0,0,-1,608,386,0,0
-609,638,0,0,0,0,0,0,0,0,0,-1,615,386,0,0
-602,638,0,0,0,0,0,0,0,0,0,-1,622,386,0,0
-595,638,0,0,0,0,0,0,0,0,0,-1,629,386,0,0
-588,638,0,0,0,0,0,0,0,0,0,-1,636,386,0,0
-581,638,0,0,0,0,0,0,0,0,0,-1,643,386,0,0
-574,638,0,0,0,0,0,0,0,0,0,-1,650,386,0,0
-567,638,0,0,0,0,0,0,0,0,0,-1,657,386,0,0
-560,638,0,0,0,0,0,0,0,0,0,-1,664,386,0,0
-553,638,0,0,0,0,0,0,0,0,0,-1,671,386,0,0
-546,638,0,0,0,0,0,0,0,0,0,-1,678,386,0,0
-539,638,0,0,0,0,0,0,0,0,0,-1,685,386,0,0
-532,638,0,0,0,0,0,0,0,0,0,-1,692,386,0,0
-525,638,0,0,0,0,0,0,0,0,0,-1,699,386,0,0
-518,638,0,0,0,0,0,0,0,0,0,-1,706,386,0,0
-511,638,0,0,0,0,0,0,0,0,0,-1,713,386,0,0
-504,638,0,0,0,0,0,0,0,0,0,-1,720,386,0,0
-497,638,0,0,0,0,0,0,0,0,0,-1,727,386,0,0
-490,638,0,0,0,0,0,0,0,0,0,-1,734,386,0,0
-483,638,0,0,0,0,0,0,0,0,0,-1,741,386,0,0
-476,638,0,0,0,0,0,0,0,0,0,-1,748,386,0,0
-469,638,0,0,0,0,0,0,0,0,0,-1,755,386,0,0
-462,638,0,0,0,0,0,0,0,0,0,-1,762,386,0,0
-455,638,0,0,0,0,0,0,0,0,0,-1,769,386,0,0
-448,638,0,0,0,0,0,0,0,0,0,-1,776,386,0,0
-441,638,0,0,0,0,0,0,0,0,0,-1,783,386,0,0
-434,638,0,0,0,0,0,0,0,0,0,-1,790,386,0,0
-427,638,0,0,0,0,0,0,0,0,0,-1,797,386,0,0
-420,638,0,0,0,0,0,0,0,0,0,-1,804,386,0,0
-413,638,0,0,0,0,0,0,0,0,0,-1,811,386,0,0
-406,638,0,0,0,0,0,0,0,0,0,-1,818,386,0,0
-399,638,0,0,0,0,0,0,0,0,0,-1,825,386,0,0
-392,638,0,0,0,0,0,0,0,0,0,-1,832,386,0,0
-385,638,0,0,0,0,0,0,0,0,0,-1,839,386,0,0
-378,638,0,0,0,0,0,0,0,0,0,-1,846,386,0,0
-371,638,0,0,0,0,0,0,0,0,0,-1,853,386,0,0
-364,638,0,0,0,0,0,0,0,0,0,-1,860,386,0,0
-357,638,0,0,0,0,0,0,0,0,0,-1,867,386,0,0
-350,638,0,0,0,0,0,0,0,0,0,-1,874,386,0,0
-343,638,0,0,0,0,0,0,0,0,0,-1,881,386,0,0
-336,638,0,0,0,0,0,0,0,0,0,-1,888,386,0,0
-329,638,0,0,0,0,0,0,0,0,0,-1,895,386,0,0
-322,638,0,0,0,0,0,0,0,0,0,-1,902,386,0,0
-315,638,0,0,0,0,0,0,0,0,0,-1,909,386,0,0
-308,638,0,0,0,0,0,0,0,0,0,-1,916,386,0,0
-301,638,0,0,0,0,0,0,0,0,0,-1,923,386,0,0
-294,638,0,0,0,0,0,0,0,0,0,-1,930,386,0,0
-287,638,0,0,0,0,0,0,0,0,0,-1,937,386,0,0
-280,638,0,0,0,0,0,0,0,0,0,-1,944,386,0,0
-273,638,0,0,0,0,0,0,0,0,0,-1,951,386,0,0
-266,638,0.603821,-10.3962,0,0,0,0,0,0,0,-1,958,386,0.603829,10.3962
-259,638,0.491272,-10.2385,0,0,0,0,0,0,0,-1,965,386,0.491282,10.2385
-252,638,-0.979492,-8.90643,0,0,0,0,0,0,0,-1,972,386,-0.979468,8.90644
-245,638,-0.476318,-8.96979,0,0,0,0,0,0,0,-1,979,386,-0.476307,8.9698
-238,638,-0.0393066,-9.02866,0,0,0,0,0,0,0,-1,986,386,-0.0393007,9.02867
-231,638,-0.544983,-8.88834,0,0,0,0,0,0,0,-1,993,386,-0.544984,8.88833
-224,638,-0.990479,-9.01202,0,0,0,0,0,0,0,-1,1000,386,-0.990463,9.01204
-217,638,2.72388,-14.4252,0,0,0,0,0,0,0,-1,1007,386,2.72386,14.4252
-210,638,2.64087,-13.6581,0,0,0,0,0,0,0,-1,1014,386,2.64086,13.658
-203,638,2.5658,-12.8549,0,0,0,0,0,0,0,-1,1021,386,2.56579,12.8549
-196,638,2.48828,-12.1541,0,0,0,0,0,0,0,-1,1028,386,2.4883,12.1542
-189,638,1.52173,-9.97638,0,0,0,0,0,0,0,-1,1035,386,1.52178,9.97639
-182,638,2.13989,-9.98196,0,0,0,0,0,0,0,-1,1042,386,2.13992,9.98196
-175,638,2.33923,-10.1876,0,0,0,0,0,0,0,-1,1049,386,2.33925,10.1876
-168,638,2.32007,-10.3218,0.00607179,-0.0138435,-0.00393159,0.00681986,-0.0145915,-0.188022,0.0126304,0.0343946,1056,386,2.32011,10.3218
-161,638,2.26477,-10.4454,0.00566132,-0.0110859,-0.00305574,0.00620146,-0.011626,-0.174955,0.0104503,0.0296501,1063,386,2.26477,10.4454
-154,638,2.3313,-10.6065,0.00522526,-0.00694581,-0.00283217,0.00585202,-0.00757257,-0.21779,0.00777188,0.0220981,1070,386,2.33135,10.6065
-147,638,2.36597,-10.712,0.00450517,-0.00417989,-0.00240333,0.00512586,-0.00480058,-0.252741,0.00573206,0.0172353,1077,386,2.366,10.7121
-140,638,2.33142,-10.8044,0.00364808,-0.00101734,-0.00177667,0.00424762,-0.00161688,-0.325452,0.00349758,0.0138084,1084,386,2.33146,10.8044
-133,638,2.30225,-10.9403,0.00284795,0.00232776,-0.00129502,0.00390874,0.00126697,-0.686296,0.00230277,0.0111554,1091,386,2.30219,10.9403
-126,638,2.30981,-11.0244,0.00195388,0.0054481,-0.00106614,0.0057477,0.00165428,-1.29684,0.00341659,0.0126843,1098,386,2.30983,11.0244
-119,638,2.29944,-11.1225,0.00119407,0.00805693,-0.000994319,0.00819809,0.00105292,-1.42977,0.00515042,0.014619,1105,386,2.29944,11.1225
-112,638,2.276,-11.2261,0.000549875,0.0100584,-0.00102869,0.0101684,0.000439858,-1.46425,0.00663719,0.0143798,1112,386,2.276,11.2261
-105,638,2.25354,-11.3151,-8.80032e-05,0.011662,-0.000904663,0.0117313,-0.000157247,-1.4944,0.00787378,0.0166623,1119,386,2.2536,11.3151
-98,638,2.25513,-11.3961,-0.000689854,0.0122984,-0.000962971,0.0123694,-0.000760862,-1.49719,0.00851123,0.0158232,1126,386,2.25511,11.3961
-91,638,2.24182,-11.4573,-0.00095368,0.0118305,-0.00115507,0.011934,-0.0010572,-1.48141,0.00833081,0.0124965,1133,386,2.24184,11.4573
-84,638,2.21387,-11.5269,-0.00101577,0.0110963,-0.00115502,0.0112054,-0.00112493,-1.47657,0.00787211,0.0143159,1140,386,2.21391,11.5269
-77,638,2.20447,-11.6217,-0.00110256,0.009634,-0.00105104,0.00973592,-0.00120448,-1.47413,0.0069271,0.0120711,1147,386,2.20452,11.6217
-70,638,2.22131,-11.6897,-0.00109379,0.00798944,-0.000811938,0.00806144,-0.00116579,-1.48234,0.00580206,0.0110542,1154,386,2.22134,11.6897
-63,638,2.22986,-11.7447,-0.000970309,0.00633896,-0.000748017,0.00641472,-0.00104607,-1.46985,0.00466444,0.0117034,1161,386,2.2298,11.7446
-56,638,2.2323,-11.8111,-0.000695105,0.0039793,-0.000781814,0.00410659,-0.0008224,-1.40939,0.00304906,0.014725,1168,386,2.23233,11.8111
-49,638,2.20056,-11.859,-0.00062808,0.00156922,-0.000385385,0.00163485,-0.000693712,-1.40211,0.00138052,0.0122432,1175,386,2.20061,11.859
-42,638,2.19739,-11.9022,0.000404972,0.00110923,-0.000379964,0.00127514,0.000239058,-1.15909,0.000782672,0.0106556,1182,386,2.19742,11.9022
-35,638,2.2085,-11.9617,0.00127452,0.000710628,-0.000487616,0.00155584,0.000429314,-0.523274,0.00092784,0.00931002,1189,386,2.20849,11.9617
-28,638,2.20361,-12.0114,0.00170077,0.000404999,-0.000388999,0.00180858,0.000297189,-0.270362,0.00111988,0.00892389,1196,386,2.20366,12.0114
-21,638,2.17456,-12.0216,0.00221233,8.34178e-05,-0.000306284,0.00225552,4.02294e-05,-0.140084,0.00149045,0.0102924,1203,386,2.17453,12.0216
-14,638,2.17334,-12.0539,0.00268603,-0.000448192,-0.000318603,0.00271809,-0.000480251,-0.100286,0.00199154,0.0105783,1210,386,2.17329,12.0539
-7,638,2.18286,-12.1388,0.00312812,-0.000818286,-0.000317267,0.00315347,-0.000843629,-0.0797117,0.00243278,0.0153579,1217,386,2.18285,12.1388
0,638,2.19543,-12.1847,0.00348743,-0.00104383,-0.000381605,0.00351934,-0.00107575,-0.083433,0.0027752,0.0277196,1224,386,2.19547,12.1847
7,638,2.17749,-12.1447,0.00364249,-0.00120605,-0.000471831,0.00368797,-0.00125154,-0.0961125,0.00296522,0.0210091,1231,386,2.17747,12.1447
14,638,2.17969,-12.139,0.00348221,-0.001277,-0.000626038,0.00356318,-0.00135798,-0.128628,0.00293478,0.0114929,1238,386,2.17974,12.139
21,638,2.17102,-12.1773,0.00309676,-0.00126353,-0.00082453,0.00324747,-0.00141424,-0.180787,0.00275994,0.00985588,1245,386,2.17096,12.1773
28,638,2.16455,-12.1932,0.00267104,-0.0012128,-0.000946956,0.00288963,-0.00143138,-0.226855,0.00254165,0.00861387,1252,386,2.16452,12.1932
35,638,2.17004,-12.1979,0.00220762,-0.00110494,-0.00108637,0.00253211,-0.00142944,-0.29026,0.00231655,0.0106926,1259,386,2.16999,12.1979
42,638,2.18921,-12.2056,0.00170159,-0.000984119,-0.00122869,0.00217888,-0.00146141,-0.370515,0.00211529,0.00922452,1266,386,2.18918,12.2056
49,638,2.19238,-12.1997,0.0011584,-0.000701201,-0.00139036,0.00190121,-0.00144402,-0.490678,0.00193737,0.00816582,1273,386,2.19242,12.1997
56,638,2.1875,-12.1879,0.000566517,-0.000496474,-0.00146067,0.00158938,-0.00151934,-0.610909,0.00179497,0.0106425,1280,386,2.1875,12.1879
63,638,2.18713,-12.1988,-0.000257847,-0.000304079,-0.00168101,0.0014002,-0.00196213,-0.778523,0.00195026,0.0120024,1287,386,2.18718,12.1988
70,638,2.151,-12.1874,-0.000730065,-0.000217134,-0.00197226,0.00151527,-0.00246247,-0.850053,0.00231815,0.0160268,1294,386,2.15095,12.1874
77,638,2.15051,-12.1618,-0.000840088,-0.000180817,-0.00189636,0.00141434,-0.00243525,-0.871451,0.00224846,0.0168036,1301,386,2.15055,12.1618
84,638,2.1958,-12.1188,-0.000869496,-0.000134716,-0.00181869,0.00135332,-0.00235754,-0.885061,0.00216846,0.012453,1308,386,2.19584,12.1188
91,638,2.19104,-12.0937,-0.000898705,0.000103197,-0.00167236,0.00134802,-0.00214353,-0.930919,0.00203322,0.0138094,1315,386,2.19102,12.0937
98,638,2.20569,-12.0523,-0.000923462,6.71936e-05,-0.00151865,0.00116926,-0.00202553,-0.94304,0.00186646,0.0130886,1322,386,2.20571,12.0523
105,638,2.18225,-12.0196,-0.00093872,5.46961e-06,-0.0012323,0.000853013,-0.00178626,-0.968324,0.00155522,0.00987001,1329,386,2.18226,12.0196
112,638,2.17175,-11.978,-0.000915405,-0.000113549,-0.000856793,0.000431481,-0.00146044,-1.00423,0.00114488,0.00880252,1336,386,2.1717,11.978
119,638,2.1908,-11.9469,-0.000757764,-0.000231666,-0.000394634,-2.0447e-05,-0.000968984,-1.07936,0.000639282,0.0109308,1343,386,2.19074,11.9469
126,638,2.19348,-11.9142,-0.0005779,-0.000291671,6.52229e-05,-0.000277509,-0.000592061,1.35699,0.00034205,0.0153258,1350,386,2.19343,11.9142
133,638,2.18823,-11.8431,-0.000479814,-0.000313339,0.000423176,3.47076e-05,-0.000827861,0.882507,0.000563833,0.0164617,1357,386,2.18821,11.8432
140,638,2.18005,-11.7842,-0.000353048,-0.000278002,0.00080389,0.00048924,-0.00112029,0.80872,0.000952773,0.0169474,1364,386,2.18005,11.7842
147,638,2.17175,-11.7491,-0.000178368,-0.000257015,0.00111953,0.000902528,-0.00133791,0.767843,0.00130163,0.0185712,1371,386,2.17173,11.7491
154,638,2.17017,-11.6992,-3.56252e-05,-0.00028047,0.00130615,0.00115383,-0.00146992,0.738671,0.00151848,0.0153232,1378,386,2.17014,11.6992
161,638,2.14502,-11.6233,0.000152186,-0.000241844,0.00136132,0.00133067,-0.00142033,0.713535,0.00158857,0.0164727,1385,386,2.14507,11.6233
168,638,2.16077,-11.5464,0.000247599,-9.97561e-05,0.00160635,0.00168964,-0.00154179,0.731548,0.00186632,0.0221419,1392,386,2.16075,11.5464
175,638,2.19812,-11.4774,0.000230871,-1.44128e-05,0.00184755,0.00195984,-0.00174338,0.752256,0.00213927,0.0187141,1399,386,2.19814,11.4774
182,638,2.17041,-11.3911,0.000254142,8.75468e-05,0.00171265,0.00188552,-0.00154383,0.761099,0.00198321,0.012649,1406,386,2.17038,11.3911
189,638,2.14893,-11.3084,0.000246197,8.75807e-05,0.00162075,0.00178958,-0.0014558,0.760951,0.00187702,0.0108452,1413,386,2.1489,11.3084
196,638,2.16101,-11.2037,8.26991e-05,-9.81937e-06,0.00177382,0.00181087,-0.00173799,0.772362,0.00204908,0.013831,1420,386,2.16098,11.2037
203,638,2.15198,-11.1077,-0.000324147,-0.000409957,0.00175165,0.00138512,-0.00211922,0.773154,0.00203798,0.0190461,1427,386,2.15193,11.1077
210,638,2.12268,-11.0515,-0.000748854,-0.000561635,0.00172805,0.00107534,-0.00238583,0.812457,0.00204549,0.0156223,1434,386,2.12267,11.0515
217,638,2.10828,-10.9513,-0.000581266,-0.000228855,0.00168554,0.00128967,-0.00209979,0.837479,0.00197545,0.0114631,1441,386,2.10823,10.9513
224,638,2.10645,-10.8392,-0.000126212,0.000222605,0.00184498,0.00190141,-0.00180501,0.832524,0.00214014,0.00961269,1448,386,2.10647,10.8392
231,638,2.09021,-10.718,0.000237781,0.000793381,0.00204706,0.0025814,-0.00155024,0.85284,0.00241004,0.0108307,1455,386,2.09023,10.718
238,638,2.08643,-10.5927,0.00075663,0.00128225,0.00216241,0.00319776,-0.00115888,0.845869,0.0026055,0.0120075,1462,386,2.08637,10.5927
245,638,2.09949,-10.492,0.00139779,0.0019338,0.00228693,0.00396838,-0.000636784,0.843727,0.0028814,0.0139085,1469,386,2.09949,10.492
252,638,2.06567,-10.3804,0.00220913,0.0028111,0.0025014,0.00502955,-9.32836e-06,0.845273,0.00335615,0.0156066,1476,386,2.06568,10.3804
259,638,2.05872,-10.2462,0.00310173,0.00389146,0.00291344,0.00643667,0.00055652,0.852754,0.00411816,0.0146073,1483,386,2.05871,10.2462
266,638,2.05322,-10.1181,0.0038853,0.00565231,0.00327496,0.00816085,0.00137677,0.91715,0.00504466,0.0109089,1490,386,2.05317,10.1181
273,638,2.04968,-10.0048,0.00464999,0.00673427,0.00398725,0.00981333,0.00157094,0.913223,0.00608653,0.0109877,1497,386,2.04964,10.0048
280,638,2.08875,-9.78018,0.00541482,0.00911975,0.00483215,0.0124424,0.00209222,0.968439,0.00769292,0.0221505,1504,386,2.08877,9.78017
287,638,2.36951,-9.90814,0,0,0,0,0,0,0,-1,1511,386,2.36957,9.90815
294,638,2.20447,-9.69229,0,0,0,0,0,0,0,-1,1518,386,2.20444,9.6923
301,638,2.09082,-9.38937,0,0,0,0,0,0,0,-1,1525,386,2.09084,9.38938
308,638,2.27063,-8.98752,0,0,0,0,0,0,0,-1,1532,386,2.27061,8.98753
315,638,2.34961,-8.65817,0.00645333,0.0213644,0.00993589,0.0263309,0.00148684,1.10727,0.0170799,0.043121,1539,386,2.34961,8.65816
322,638,2.43311,-8.90277,0.00518634,0.0234969,0.0111036,0.028733,-4.96926e-05,1.13016,0.0191719,0.0448372,1546,386,2.43308,8.90278
329,638,2.02478,-8.01016,0,0,0,0,0,0,0,-1,1553,386,2.02479,8.01018
336,638,2.75012,-8.26135,0,0,0,0,0,0,0,-1,1560,386,2.75016,8.26134
343,638,1.04028,-10.3387,0,0,0,0,0,0,0,-1,1567,386,1.04031,10.3387
350,638,2.3783,-11.33,0,0,0,0,0,0,0,-1,1574,386,2.37831,11.33
357,638,0.130371,-3.02618,0,0,0,0,0,0,0,-1,1581,386,0.130345,3.0262
364,638,3.78149,-6.45215,0,0,0,0,0,0,0,-1,1588,386,3.78155,6.45216
371,638,4.18604,-6.71164,0,0,0,0,0,0,0,-1,1595,386,4.18598,6.71164
378,638,4.59045,-6.97113,0,0,0,0,0,0,0,-1,1602,386,4.5904,6.97112
385,638,0,0,0,0,0,0,0,0,0,-1,1609,386,0,0
392,638,0,0,0,0,0,0,0,0,0,-1,1616,386,0,0
399,638,0,0,0,0,0,0,0,0,0,-1,1623,386,0,0
406,638,0,0,0,0,0,0,0,0,0,-1,1630,386,0,0
413,638,0,0,0,0,0,0,0,0,0,-1,1637,386,0,0
420,638,0,0,0,0,0,0,0,0,0,-1,1644,386,0,0
427,638,0,0,0,0,0,0,0,0,0,-1,1651,386,0,0
434,638,0,0,0,0,0,0,0,0,0,-1,1658,386,0,0
441,638,0,0,0,0,0,0,0,0,0,-1,1665,386,0,0
448,638,0,0,0,0,0,0,0,0,0,-1,1672,386,0,0
455,638,0,0,0,0,0,0,0,0,0,-1,1679,386,0,0
462,638,0,0,0,0,0,0,0,0,0,-1,1686,386,0,0
469,638,0,0,0,0,0,0,0,0,0,-1,1693,386,0,0
476,638,0,0,0,0,0,0,0,0,0,-1,1700,386,0,0
483,638,0,0,0,0,0,0,0,0,0,-1,1707,386,0,0
490,638,0,0,0,0,0,0,0,0,0,-1,1714,386,0,0
497,638,0,0,0,0,0,0,0,0,0,-1,1721,386,0,0
504,638,0,0,0,0,0,0,0,0,0,-1,1728,386,0,0
511,638,0,0,0,0,0,0,0,0,0,-1,1735,386,0,0
518,638,0,0,0,0,0,0,0,0,0,-1,1742,386,0,0
525,638,0,0,0,0,0,0,0,0,0,-1,1749,386,0,0
532,638,0,0,0,0,0,0,0,0,0,-1,1756,386,0,0
539,638,0,0,0,0,0,0,0,0,0,-1,1763,386,0,0
546,638,0,0,0,0,0,0,0,0,0,-1,1770,386,0,0
553,638,0,0,0,0,0,0,0,0,0,-1,1777,386,0,0
560,638,0,0,0,0,0,0,0,0,0,-1,1784,386,0,0
567,638,0,0,0,0,0,0,0,0,0,-1,1791,386,0,0
574,638,0,0,0,0,0,0,0,0,0,-1,1798,386,0,0
581,638,0,0,0,0,0,0,0,0,0,-1,1805,386,0,0
588,638,0,0,0,0,0,0,0,0,0,-1,1812,386,0,0
595,638,0,0,0,0,0,0,0,0,0,-1,1819,386,0,0
602,638,0,0,0,0,0,0,0,0,0,-1,1826,386,0,0
609,638,0,0,0,0,0,0,0,0,0,-1,1833,386,0,0
616,638,0,0,0,0,0,0,0,0,0,-1,1840,386,0,0
623,638,0,0,0,0,0,0,0,0,0,-1,1847,386,0,0
630,638,0,0,0,0,0,0,0,0,0,-1,1854,386,0,0
637,638,0,0,0,0,0,0,0,0,0,-1,1861,386,0,0
644,638,0,0,0,0,0,0,0,0,0,-1,1868,386,0,0
651,638,0,0,0,0,0,0,0,0,0,-1,1875,386,0,0
658,638,0,0,0,0,0,0,0,0,0,-1,1882,386,0,0
665,638,0,0,0,0,0,0,0,0,0,-1,1889,386,0,0
672,638,0,0,0,0,0,0,0,0,0,-1,1896,386,0,0
679,638,0,0,0,0,0,0,0,0,0,-1,1903,386,0,0
686,638,0,0,0,0,0,0,0,0,0,-1,1910,386,0,0
693,638,0,0,0,0,0,0,0,0,0,-1,1917,386,0,0
700,638,0,0,0,0,0,0,0,0,0,-1,1924,386,0,0
707,638,0,0,0,0,0,0,0,0,0,-1,1931,386,0,0
714,638,0,0,0,0,0,0,0,0,0,-1,1938,386,0,0
721,638,0,0,0,0,0,0,0,0,0,-1,1945,386,0,0
728,638,0,0,0,0,0,0,0,0,0,-1,1952,386,0,0
735,638,0,0,0,0,0,0,0,0,0,-1,1959,386,0,0
742,638,0,0,0,0,0,0,0,0,0,-1,1966,386,0,0
749,638,0,0,0,0,0,0,0,0,0,-1,1973,386,0,0
756,638,0,0,0,0,0,0,0,0,0,-1,1980,386,0,0
763,638,0,0,0,0,0,0,0,0,0,-1,1987,386,0,0
770,638,0,0,0,0,0,0,0,0,0,-1,1994,386,0,0
777,638,0,0,0,0,0,0,0,0,0,-1,2001,386,0,0
784,638,0,0,0,0,0,0,0,0,0,-1,2008,386,0,0
791,638,0,0,0,0,0,0,0,0,0,-1,2015,386,0,0
798,638,0,0,0,0,0,0,0,0,0,-1,2022,386,0,0
805,638,0,0,0,0,0,0,0,0,0,-1,2029,386,0,0
812,638,0,0,0,0,0,0,0,0,0,-1,2036,386,0,0
-700,631,0,0,0,0,0,0,0,0,0,-1,524,393,0,0
-693,631,0,0,0,0,0,0,0,0,0,-1,531,393,0,0
-686,631,0,0,0,0,0,0,0,0,0,-1,538,393,0,0
-679,631,0,0,0,0,0,0,0,0,0,-1,545,393,0,0
-672,631,0,0,0,0,0,0,0,0,0,-1,552,393,0,0
-665,631,0,0,0,0,0,0,0,0,0,-1,559,393,0,0
-658,631,0,0,0,0,0,0,0,0,0,-1,566,393,0,0
-651,631,0,0,0,0,0,0,0,0,0,-1,573,393,0,0
-644,631,0,0,0,0,0,0,0,0,0,-1,580,393,0,0
-637,631,0,0,0,0,0,0,0,0,0,-1,587,393,0,0
-630,631,0,0,0,0,0,0,0,0,0,-1,594,393,0,0
-623,631,0,0,0,0,0,0,0,0,0,-1,601,393,0,0
-616,631,0,0,0,0,0,0,0,0,0,-1,608,393,0,0
-609,631,0,0,0,0,0,0,0,0,0,-1,615,393,0,0
-602,631,0,0,0,0,0,0,0,0,0,-1,622,393,0,0
-595,631,0,0,0,0,0,0,0,0,0,-1,629,393,0,0
-588,631,0,0,0,0,0,0,0,0,0,-1,636,393,0,0
-581,631,0,0,0,0,0,0,0,0,0,-1,643,393,0,0
-574,631,0,0,0,0,0,0,0,0,0,-1,650,393,0,0
-567,631,0,0,0,0,0,0,0,0,0,-1,657,393,0,0
-560,631,0,0,0,0,0,0,0,0,0,-1,664,393,0,0
-553,631,0,0,0,0,0,0,0,0,0,-1,671,393,0,0
-546,631,0,0,0,0,0,0,0,0,0,-1,678,393,0,0
-539,631,0,0,0,0,0,0,0,0,0,-1,685,393,0,0
-532,631,0,0,0,0,0,0,0,0,0,-1,692,393,0,0
-525,631,0,0,0,0,0,0,0,0,0,-1,699,393,0,0
-518,631,0,0,0,0,0,0,0,0,0,-1,706,393,0,0
-511,631,0,0,0,0,0,0,0,0,0,-1,713,393,0,0
-504,631,0,0,0,0,0,0,0,0,0,-1,720,393,0,0
-497,631,0,0,0,0,0,0,0,0,0,-1,727,393,0,0
-490,631,0,0,0,0,0,0,0,0,0,-1,734,393,0,0
-483,631,0,0,0,0,0,0,0,0,0,-1,741,393,0,0
-476,631,0,0,0,0,0,0,0,0,0,-1,748,393,0,0
-469,631,0,0,0,0,0,0,0,0,0,-1,755,393,0,0
-462,631,0,0,0,0,0,0,0,0,0,-1,762,393,0,0
-455,631,0,0,0,0,0,0,0,0,0,-1,769,393,0,0
-448,631,0,0,0,0,0,0,0,0,0,-1,776,393,0,0
-441,631,0,0,0,0,0,0,0,0,0,-1,783,393,0,0
-434,631,0,0,0,0,0,0,0,0,0,-1,790,393,0,0
-427,631,0,0,0,0,0,0,0,0,0,-1,797,393,0,0
-420,631,0,0,0,0,0,0,0,0,0,-1,804,393,0,0
-413,631,0,0,0,0,0,0,0,0,0,-1,811,393,0,0
-406,631,0,0,0,0,0,0,0,0,0,-1,818,393,0,0
-399,631,0,0,0,0,0,0,0,0,0,-1,825,393,0,0
-392,631,0,0,0,0,0,0,0,0,0,-1,832,393,0,0
-385,631,0,0,0,0,0,0,0,0,0,-1,839,393,0,0
-378,631,0,0,0,0,0,0,0,0,0,-1,846,393,0,0
-371,631,0,0,0,0,0,0,0,0,0,-1,853,393,0,0
-364,631,0,0,0,0,0,0,0,0,0,-1,860,393,0,0
-357,631,0,0,0,0,0,0,0,0,0,-1,867,393,0,0
-350,631,0,0,0,0,0,0,0,0,0,-1,874,393,0,0
-343,631,0,0,0,0,0,0,0,0,0,-1,881,393,0,0
-336,631,0,0,0,0,0,0,0,0,0,-1,888,393,0,0
-329,631,0,0,0,0,0,0,0,0,0,-1,895,393,0,0
-322,631,0,0,0,0,0,0,0,0,0,-1,902,393,0,0
-315,631,0,0,0,0,0,0,0,0,0,-1,909,393,0,0
-308,631,0,0,0,0,0,0,0,0,0,-1,916,393,0,0
-301,631,0,0,0,0,0,0,0,0,0,-1,923,393,0,0
-294,631,0,0,0,0,0,0,0,0,0,-1,930,393,0,0
-287,631,0,0,0,0,0,0,0,0,0,-1,937,393,0,0
-280,631,1.12305,-12.4633,0,0,0,0,0,0,0,-1,944,393,1.12305,12.4633
-273,631,1.05743,-9.98688,0,0,0,0,0,0,0,-1,951,393,1.05741,9.98687
-266,631,0.616394,-9.4404,0,0,0,0,0,0,0,-1,958,393,0.616411,9.4404
-259,631,1.97864,-10.1057,0,0,0,0,0,0,0,-1,965,393,1.97865,10.1056
-252,631,1.40961,-9.8642,0,0,0,0,0,0,0,-1,972,393,1.40963,9.86421
-245,631,-0.358765,-8.30075,0,0,0,0,0,0,0,-1,979,393,-0.358738,8.30074
-238,631,-0.0640869,-8.70227,0,0,0,0,0,0,0,-1,986,393,-0.0640945,8.70228
-231,631,1.46918,-9.35092,0,0,0,0,0,0,0,-1,993,393,1.46919,9.35093
-224,631,0.539063,-9.05594,0,0,0,0,0,0,0,-1,1000,393,0.539048,9.05593
-217,631,3.75494,-9.74118,0,0,0,0,0,0,0,-1,1007,393,3.75493,9.74119
-210,631,2.22687,-9.82877,0,0,0,0,0,0,0,-1,1014,393,2.22689,9.82876
-203,631,2.48291,-9.7171,0,0,0,0,0,0,0,-1,1021,393,2.48291,9.71709
-196,631,2.66272,-9.6326,0,0,0,0,0,0,0,-1,1028,393,2.66271,9.63261
-189,631,1.73486,-9.97415,0,0,0,0,0,0,0,-1,1035,393,1.73482,9.97415
-182,631,2.32019,-10.0825,0,0,0,0,0,0,0,-1,1042,393,2.32022,10.0825
-175,631,2.28809,-10.2286,0.00365602,-0.0089049,-0.00349514,0.00456306,-0.00981194,-0.253914,0.00848183,0.0362496,1049,393,2.28813,10.2286
-168,631,2.24634,-10.3799,0.003682,-0.00891081,-0.00312556,0.00441509,-0.00964391,-0.230384,0.00830199,0.0184298,1056,393,2.24636,10.3799
-161,631,2.24976,-10.5068,0.00355149,-0.00734671,-0.00259363,0.00413726,-0.00793248,-0.222121,0.00708237,0.00925319,1063,393,2.24979,10.5068
-154,631,2.2428,-10.6159,0.00333173,-0.00482082,-0.00241089,0.00399132,-0.0054804,-0.267052,0.00549098,0.00854395,1070,393,2.24276,10.6159
-147,631,2.24561,-10.7229,0.00293372,-0.00310484,-0.00209372,0.00358864,-0.00375975,-0.303159,0.00424298,0.00937474,1077,393,2.24562,10.7229
-140,631,2.23193,-10.837,0.00246988,-0.00104588,-0.00162406,0.00310527,-0.00168126,-0.372925,0.00280397,0.0089142,1084,393,2.23197,10.837
-133,631,2.20703,-10.9453,0.00202138,0.00123935,-0.00122453,0.0029158,0.000344923,-0.630856,0.00183971,0.00789252,1091,393,2.20706,10.9453
-126,631,2.22852,-11.033,0.00147247,0.00344538,-0.00102005,0.00387794,0.00103991,-1.16973,0.00231777,0.0119889,1098,393,2.22854,11.033
-119,631,2.22229,-11.1206,0.00101367,0.00535984,-0.000937497,0.00555344,0.000820066,-1.36715,0.00346147,0.0151752,1105,393,2.2223,11.1206
-112,631,2.18042,-11.2233,0.000630023,0.00688893,-0.000948858,0.00702961,0.000489337,-1.4236,0.00453211,0.0137847,1112,393,2.18047,11.2233
-105,631,2.18774,-11.3168,0.000223579,0.0081378,-0.000837258,0.0082254,0.000135974,-1.46654,0.00543884,0.0171697,1119,393,2.1878,11.3168
-98,631,2.18372,-11.4095,-0.000178323,0.00867614,-0.000888151,0.00876435,-0.000266531,-1.4718,0.00593374,0.016049,1126,393,2.18376,11.4095
-91,631,2.17468,-11.4734,-0.000317684,0.00836278,-0.00105825,0.00848993,-0.000444836,-1.45122,0.00581391,0.0174317,1133,393,2.17464,11.4733
-84,631,2.17163,-11.5412,-0.00029996,0.00781503,-0.00103948,0.00794607,-0.000430996,-1.4454,0.00544673,0.0158805,1140,393,2.17159,11.5412
-77,631,2.14697,-11.6245,-0.000332598,0.00677308,-0.000929324,0.00689262,-0.00045213,-1.44288,0.00475296,0.0103994,1147,393,2.14699,11.6245
-70,631,2.15442,-11.681,-0.000310951,0.00563655,-0.000723141,0.00572321,-0.000397614,-1.45152,0.00395468,0.0111209,1154,393,2.15442,11.681
-63,631,2.15552,-11.7506,-0.00020741,0.00451087,-0.000591016,0.00458377,-0.000280314,-1.44806,0.00315344,0.0109045,1161,393,2.15546,11.7506
-56,631,2.1593,-11.8348,-8.97604e-05,0.00304288,-0.000521166,0.0031273,-0.00017419,-1.41019,0.00214529,0.0116691,1168,393,2.15931,11.8348
-49,631,2.14465,-11.8763,-5.88379e-05,0.00159153,-0.000211844,0.00161829,-8.55966e-05,-1.44515,0.00110849,0.0099473,1175,393,2.14463,11.8763
-42,631,2.13831,-11.9084,0.000323673,0.0010279,2.97643e-05,0.00102916,0.000322418,1.52863,0.000607837,0.0079076,1182,393,2.13825,11.9084
-35,631,2.14648,-11.9403,0.000777248,0.000424841,0.000211697,0.000876477,0.000325611,0.438324,0.000511575,0.00901967,1189,393,2.14651,11.9403
-28,631,2.1521,-11.9763,0.00119245,-0.000199841,0.00038232,0.00129053,-0.000297916,0.251113,0.000974949,0.0124445,1196,393,2.15216,11.9763
-21,631,2.13806,-12.0277,0.00161801,-0.000776684,0.000511872,0.00172284,-0.00088151,0.201995,0.00152955,0.011204,1203,393,2.13811,12.0277
-14,631,2.13342,-12.0661,0.00196742,-0.00153482,0.00050552,0.00203893,-0.00160633,0.140521,0.00210953,0.0126782,1210,393,2.13338,12.0661
-7,631,2.13074,-12.1296,0.0023077,-0.00214587,0.000462416,0.0023552,-0.00219338,0.102375,0.00262668,0.0183965,1217,393,2.13078,12.1296
0,631,2.13074,-12.1711,0.00253719,-0.00252807,0.000355074,0.00256196,-0.00255284,0.0696459,0.00295303,0.0197958,1224,393,2.13072,12.1711
7,631,2.14771,-12.1572,0.00256199,-0.00279052,0.000227562,0.00257165,-0.00280018,0.0424129,0.00310236,0.0155241,1231,393,2.14776,12.1572
14,631,2.13953,-12.1677,0.0022788,-0.00280031,-4.20195e-05,0.00227914,-0.00280066,-0.00827225,0.00293797,0.00911566,1238,393,2.13956,12.1677
21,631,2.14929,-12.1951,0.00176364,-0.00276344,-0.000370873,0.00179382,-0.00279362,-0.0812019,0.00266945,0.0113489,1245,393,2.14927,12.1951
28,631,2.14966,-12.2017,0.00110286,-0.00255036,-0.000685678,0.00122732,-0.00267482,-0.179553,0.00230399,0.0137312,1252,393,2.1496,12.2017
35,631,2.1698,-12.1894,0.000505591,-0.00207511,-0.00102659,0.000864146,-0.00243367,-0.336023,0.00197456,0.0136254,1259,393,2.16975,12.1894
42,631,2.18994,-12.1918,-3.68734e-05,-0.00161942,-0.00135858,0.000744069,-0.00240036,-0.5217,0.00189753,0.0117055,1266,393,2.18996,12.1918
49,631,2.17358,-12.1974,-0.000670657,-0.000927457,-0.00177002,0.000975613,-0.00257373,-0.749191,0.00211732,0.0108529,1273,393,2.17361,12.1974
56,631,2.17944,-12.1967,-0.00120751,-0.000176805,-0.00207082,0.00144182,-0.00282613,-0.907353,0.00250694,0.0120929,1280,393,2.17949,12.1967
63,631,2.18665,-12.2012,-0.00169261,0.000623441,-0.00242993,0.00215717,-0.00322634,-1.00776,0.00312854,0.0136851,1287,393,2.18663,12.2012
70,631,2.18005,-12.1859,-0.00196051,0.00120224,-0.00278545,0.00282391,-0.00358217,-1.04357,0.00370718,0.0142146,1294,393,2.18011,12.1859
77,631,2.18604,-12.1649,-0.00172662,0.00161387,-0.00279002,0.00319538,-0.00330813,-1.05511,0.00375499,0.0140099,1301,393,2.18606,12.1649
84,631,2.20166,-12.1326,-0.0013023,0.00190596,-0.00287218,0.00359161,-0.00298796,-1.04007,0.00380404,0.0123694,1308,393,2.2016,12.1326
91,631,2.2074,-12.1046,-0.000848689,0.00227082,-0.00274593,0.00386906,-0.00244693,-1.04369,0.00367723,0.0156821,1315,393,2.20742,12.1045
98,631,2.21558,-12.0836,-0.0004502,0.00226635,-0.00259279,0.00383509,-0.00201895,-1.02668,0.00343362,0.0134789,1322,393,2.2156,12.0836
105,631,2.21265,-12.0505,-7.90339e-05,0.00210144,-0.00233712,0.0035901,-0.0015677,-1.00364,0.00305321,0.0109497,1329,393,2.21265,12.0505
112,631,2.22522,-11.9972,0.000263297,0.00178688,-0.00195818,0.00312623,-0.00107606,-0.970905,0.0025206,0.0109406,1336,393,2.22525,11.9972
119,631,2.23035,-11.9648,0.000644213,0.00134242,-0.00146089,0.00249534,-0.000508709,-0.902681,0.00185651,0.0120441,1343,393,2.23033,11.9648
126,631,2.22278,-11.91,0.000920503,0.00101075,-0.00099052,0.00195717,-2.59222e-05,-0.808159,0.00131351,0.0166951,1350,393,2.22279,11.91
133,631,2.24121,-11.8316,0.00105023,0.000602242,-0.000598653,0.00146542,0.00018705,-0.60638,0.000920951,0.017811,1357,393,2.24126,11.8316
140,631,2.22107,-11.7886,0.000945928,0.000141035,-0.000223231,0.00100369,8.32688e-05,-0.253217,0.000643172,0.0190271,1364,393,2.22107,11.7886
147,631,2.19849,-11.7624,0.000774642,-0.000135287,6.00724e-05,0.000778591,-0.000139236,0.0656391,0.000571158,0.022401,1371,393,2.1985,11.7624
154,631,2.21497,-11.7213,0.00070597,-0.000425806,0.000280872,0.00077184,-0.000491676,0.230357,0.000735445,0.0201329,1378,393,2.21499,11.7213
161,631,2.21179,-11.6089,0.000582709,-0.000639954,0.00034381,0.000672756,-0.000730001,0.256155,0.000810107,0.0207385,1385,393,2.21175,11.6089
168,631,2.22668,-11.4935,0.000389083,-0.000670163,0.000461718,0.000562086,-0.000843166,0.358503,0.000816715,0.0255728,1392,393,2.22666,11.4935
175,631,2.26294,-11.4325,0.000241093,-0.000552618,0.000599224,0.000562961,-0.000874486,0.492917,0.000836382,0.0201589,1399,393,2.26292,11.4325
182,631,2.23425,-11.3872,3.66697e-05,-0.000398861,0.000629613,0.000485113,-0.000847305,0.618902,0.000778688,0.0113986,1406,393,2.23428,11.3872
189,631,2.22351,-11.2907,-4.36433e-05,-0.000329802,0.000799082,0.000625068,-0.000998513,0.69681,0.000945604,0.0108681,1413,393,2.22351,11.2907
196,631,2.23596,-11.1996,-8.61951e-05,-0.000321449,0.000905094,0.000708883,-0.00111653,0.72078,0.00106262,0.0112776,1420,393,2.23595,11.1996
203,631,2.24878,-11.1235,-0.000241557,-0.000454542,0.000976168,0.00063391,-0.00133001,0.731067,0.00115737,0.0130511,1427,393,2.24876,11.1235
210,631,2.20056,-11.0677,-0.000428742,-0.000383924,0.00104965,0.000643561,-0.00145623,0.796071,0.00124221,0.0144464,1434,393,2.20052,11.0677
217,631,2.18213,-10.977,-0.000315025,-7.08039e-05,0.00104886,0.000863029,-0.00124886,0.843348,0.00122606,0.0149103,1441,393,2.18212,10.977
224,631,2.19421,-10.8441,-4.77639e-05,0.000291421,0.00122839,0.00136187,-0.00111821,0.853995,0.00143417,0.0121333,1448,393,2.19417,10.8441
231,631,2.18835,-10.7164,0.00019644,0.000760703,0.00145173,0.00195746,-0.00100032,0.881372,0.00173723,0.0110414,1455,393,2.18835,10.7164
238,631,2.19226,-10.5809,0.000557615,0.00117953,0.00161147,0.00250978,-0.000772626,0.88071,0.00198159,0.0162664,1462,393,2.19224,10.5809
245,631,2.20508,-10.4887,0.000999188,0.00171158,0.00176642,0.00315736,-0.00044659,0.884889,0.00226847,0.0171968,1469,393,2.20509,10.4887
252,631,2.18896,-10.3941,0.00154092,0.00238705,0.00197771,0.00398644,-5.8471e-05,0.890768,0.00267733,0.0174094,1476,393,2.18893,10.3941
259,631,2.17163,-10.2642,0.00210746,0.00319225,0.00234354,0.00505534,0.000244375,0.899118,0.0032918,0.0131772,1483,393,2.17159,10.2642
266,631,2.18652,-10.1407,0.00258171,0.00448425,0.00266047,0.0063584,0.000707564,0.957094,0.00402387,0.0112363,1490,393,2.18653,10.1407
273,631,2.17041,-9.99637,0.00304791,0.00526734,0.00323417,0.00757688,0.000738363,0.950665,0.00482401,0.0131849,1497,393,2.1704,9.99636
280,631,2.14795,-9.88464,0.00351614,0.00705053,0.0039117,0.0095757,0.00099097,0.997561,0.00608045,0.0131564,1504,393,2.14798,9.88465
287,631,2.18994,-9.72089,0.00385032,0.0084717,0.00462887,0.0113346,0.000987448,1.0169,0.00724969,0.0160305,1511,393,2.18994,9.72089
294,631,2.1908,-9.54938,0.004094,0.0102613,0.00539463,0.0133914,0.000963888,1.04504,0.00862431,0.0198641,1518,393,2.19077,9.54939
301,631,2.16821,-9.38004,0.00428359,0.0122275,0.00621085,0.0156278,0.000883217,1.06988,0.010137,0.0274834,1525,393,2.16817,9.38003
308,631,2.26672,-9.13794,0.00440243,0.0144457,0.00711968,0.0181365,0.000711629,1.09254,0.0118609,0.0326882,1532,393,2.26668,9.13793
315,631,2.27051,-8.91699,0.00415421,0.016108,0.0078139,0.0199688,0.000293416,1.11188,0.0132158,0.0360951,1539,393,2.27046,8.917
322,631,2.1084,-8.77432,0.00338935,0.0177302,0.00863865,0.0217866,-0.000667034,1.13179,0.0147518,0.0422257,1546,393,2.1084,8.77432
329,631,2.03735,-8.18344,0.00234133,0.0193168,0.00885285,0.0230934,-0.0014353,1.16757,0.0158956,0.0493537,1553,393,2.03731,8.18346
336,631,1.95313,-7.34143,0,0,0,0,0,0,0,-1,1560,393,1.95311,7.34143
343,631,2.39612,-6.96481,0,0,0,0,0,0,0,-1,1567,393,2.39608,6.96482
350,631,2.1344,-9.23401,0,0,0,0,0,0,0,-1,1574,393,2.13439,9.23401
357,631,2.6449,-9.60303,0,0,0,0,0,0,0,-1,1581,393,2.64491,9.60304
364,631,3.39136,-5.7594,0,0,0,0,0,0,0,-1,1588,393,3.39137,5.75939
371,631,3.72839,-6.0574,0,0,0,0,0,0,0,-1,1595,393,3.72845,6.05742
378,631,4.06555,-6.35544,0,0,0,0,0,0,0,-1,1602,393,4.06553,6.35544
385,631,3.90442,-3.58298,0,0,0,0,0,0,0,-1,1609,393,3.90437,3.58299
392,631,0.352295,-2.21301,0,0,0,0,0,0,0,-1,1616,393,0.352345,2.213
399,631,0,0,0,0,0,0,0,0,0,-1,1623,393,0,0
406,631,0,0,0,0,0,0,0,0,0,-1,1630,393,0,0
413,631,0,0,0,0,0,0,0,0,0,-1,1637,393,0,0
420,631,0,0,0,0,0,0,0,0,0,-1,1644,393,0,0
427,631,0,0,0,0,0,0,0,0,0,-1,1651,393,0,0
434,631,0,0,0,0,0,0,0,0,0,-1,1658,393,0,0
441,631,0,0,0,0,0,0,0,0,0,-1,1665,393,0,0
448,631,0,0,0,0,0,0,0,0,0,-1,1672,393,0,0
455,631,0,0,0,0,0,0,0,0,0,-1,1679,393,0,0
462,631,0,0,0,0,0,0,0,0,0,-1,1686,393,0,0
469,631,0,0,0,0,0,0,0,0,0,-1,1693,393,0,0
476,631,0,0,0,0,0,0,0,0,0,-1,1700,393,0,0
483,631,0,0,0,0,0,0,0,0,0,-1,1707,393,0,0
490,631,0,0,0,0,0,0,0,0,0,-1,1714,393,0,0
497,631,0,0,0,0,0,0,0,0,0,-1,1721,393,0,0
504,631,0,0,0,0,0,0,0,0,0,-1,1728,393,0,0
511,631,0,0,0,0,0,0,0,0,0,-1,1735,393,0,0
518,631,0,0,0,0,0,0,0,0,0,-1,1742,393,0,0
525,631,0,0,0,0,0,0,0,0,0,-1,1749,393,0,0
532,631,0,0,0,0,0,0,0,0,0,-1,1756,393,0,0
539,631,0,0,0,0,0,0,0,0,0,-1,1763,393,0,0
546,631,0,0,0,0,0,0,0,0,0,-1,1770,393,0,0
553,631,0,0,0,0,0,0,0,0,0,-1,1777,393,0,0
560,631,0,0,0,0,0,0,0,0,0,-1,1784,393,0,0
567,631,0,0,0,0,0,0,0,0,0,-1,1791,393,0,0
574,631,0,0,0,0,0,0,0,0,0,-1,1798,393,0,0
581,631,0,0,0,0,0,0,0,0,0,-1,1805,393,0,0
588,631,0,0,0,0,0,0,0,0,0,-1,1812,393,0,0
595,631,0,0,0,0,0,0,0,0,0,-1,1819,393,0,0
602,631,0,0,0,0,0,0,0,0,0,-1,1826,393,0,0
609,631,0,0,0,0,0,0,0,0,0,-1,1833,393,0,0
616,631,0,0,0,0,0,0,0,0,0,-1,1840,393,0,0
623,631,0,0,0,0,0,0,0,0,0,-1,1847,393,0,0
630,631,0,0,0,0,0,0,0,0,0,-1,1854,393,0,0
637,631,0,0,0,0,0,0,0,0,0,-1,1861,393,0,0
644,631,0,0,0,0,0,0,0,0,0,-1,1868,393,0,0
651,631,0,0,0,0,0,0,0,0,0,-1,1875,393,0,0
658,631,0,0,0,0,0,0,0,0,0,-1,1882,393,0,0
665,631,0,0,0,0,0,0,0,0,0,-1,1889,393,0,0
672,631,0,0,0,0,0,0,0,0,0,-1,1896,393,0,0
679,631,0,0,0,0,0,0,0,0,0,-1,1903,393,0,0
686,631,0,0,0,0,0,0,0,0,0,-1,1910,393,0,0
693,631,0,0,0,0,0,0,0,0,0,-1,1917,393,0,0
700,631,0,0,0,0,0,0,0,0,0,-1,1924,393,0,0
707,631,0,0,0,0,0,0,0,0,0,-1,1931,393,0,0
714,631,0,0,0,0,0,0,0,0,0,-1,1938,393,0,0
721,631,0,0,0,0,0,0,0,0,0,-1,1945,393,0,0
728,631,0,0,0,0,0,0,0,0,0,-1,1952,393,0,0
735,631,0,0,0,0,0,0,0,0,0,-1,1959,393,0,0
742,631,0,0,0,0,0,0,0,0,0,-1,1966,393,0,0
749,631,0,0,0,0,0,0,0,0,0,-1,1973,393,0,0
756,631,0,0,0,0,0,0,0,0,0,-1,1980,393,0,0
763,631,0,0,0,0,0,0,0,0,0,-1,1987,393,0,0
770,631,0,0,0,0,0,0,0,0,0,-1,1994,393,0,0
777,631,0,0,0,0,0,0,0,0,0,-1,2001,393,0,0
784,631,0,0,0,0,0,0,0,0,0,-1,2008,393,0,0
791,631,0,0,0,0,0,0,0,0,0,-1,2015,393,0,0
798,631,0,0,0,0,0,0,0,0,0,-1,2022,393,0,0
805,631,0,0,0,0,0,0,0,0,0,-1,2029,393,0,0
812,631,0,0,0,0,0,0,0,0,0,-1,2036,393,0,0
-700,624,0,0,0,0,0,0,0,0,0,-1,524,400,0,0
-693,624,0,0,0,0,0,0,0,0,0,-1,531,400,0,0
-686,624,0,0,0,0,0,0,0,0,0,-1,538,400,0,0
-679,624,0,0,0,0,0,0,0,0,0,-1,545,400,0,0
-672,624,0,0,0,0,0,0,0,0,0,-1,552,400,0,0
-665,624,0,0,0,0,0,0,0,0,0,-1,559,400,0,0
-658,624,0,0,0,0,0,0,0,0,0,-1,566,400,0,0
-651,624,0,0,0,0,0,0,0,0,0,-1,573,400,0,0
-644,624,0,0,0,0,0,0,0,0,0,-1,580,400,0,0
-637,624,0,0,0,0,0,0,0,0,0,-1,587,400,0,0
-630,624,0,0,0,0,0,0,0,0,0,-1,594,400,0,0
-623,624,0,0,0,0,0,0,0,0,0,-1,601,400,0,0
-616,624,0,0,0,0,0,0,0,0,0,-1,608,400,0,0
-609,624,0,0,0,0,0,0,0,0,0,-1,615,400,0,0
-602,624,0,0,0,0,0,0,0,0,0,-1,622,400,0,0
-595,624,0,0,0,0,0,0,0,0,0,-1,629,400,0,0
-588,624,0,0,0,0,0,0,0,0,0,-1,636,400,0,0
-581,624,0,0,0,0,0,0,0,0,0,-1,643,400,0,0
-574,624,0,0,0,0,0,0,0,0,0,-1,650,400,0,0
-567,624,0,0,0,0,0,0,0,0,0,-1,657,400,0,0
-560,624,0,0,0,0,0,0,0,0,0,-1,664,400,0,0
-553,624,0,0,0,0,0,0,0,0,0,-1,671,400,0,0
-546,624,0,0,0,0,0,0,0,0,0,-1,678,400,0,0
-539,624,0,0,0,0,0,0,0,0,0,-1,685,400,0,0
-532,624,0,0,0,0,0,0,0,0,0,-1,692,400,0,0
-525,624,0,0,0,0,0,0,0,0,0,-1,699,400,0,0
-518,624,0,0,0,0,0,0,0,0,0,-1,706,400,0,0
-511,624,0,0,0,0,0,0,0,0,0,-1,713,400,0,0
-504,624,0,0,0,0,0,0,0,0,0,-1,720,400,0,0
-497,624,0,0,0,0,0,0,0,0,0,-1,727,400,0,0
-490,624,0,0,0,0,0,0,0,0,0,-1,734,400,0,0
-483,624,0,0,0,0,0,0,0,0,0,-1,741,400,0,0
-476,624,0,0,0,0,0,0,0,0,0,-1,748,400,0,0
-469,624,0,0,0,0,0,0,0,0,0,-1,755,400,0,0
-462,624,0,0,0,0,0,0,0,0,0,-1,762,400,0,0
-455,624,0,0,0,0,0,0,0,0,0,-1,769,400,0,0
-448,624,0,0,0,0,0,0,0,0,0,-1,776,400,0,0
-441,624,0,0,0,0,0,0,0,0,0,-1,783,400,0,0
-434,624,0,0,0,0,0,0,0,0,0,-1,790,400,0,0
-427,624,0,0,0,0,0,0,0,0,0,-1,797,400,0,0
-420,624,0,0,0,0,0,0,0,0,0,-1,804,400,0,0
-413,624,0,0,0,0,0,0,0,0,0,-1,811,400,0,0
-406,624,0,0,0,0,0,0,0,0,0,-1,818,400,0,0
-399,624,0,0,0,0,0,0,0,0,0,-1,825,400,0,0
-392,624,0,0,0,0,0,0,0,0,0,-1,832,400,0,0
-385,624,0,0,0,0,0,0,0,0,0,-1,839,400,0,0
-378,624,0,0,0,0,0,0,0,0,0,-1,846,400,0,0
-371,624,0,0,0,0,0,0,0,0,0,-1,853,400,0,0
-364,624,0,0,0,0,0,0,0,0,0,-1,860,400,0,0
-357,624,0,0,0,0,0,0,0,0,0,-1,867,400,0,0
-350,624,0,0,0,0,0,0,0,0,0,-1,874,400,0,0
-343,624,0,0,0,0,0,0,0,0,0,-1,881,400,0,0
-336,624,0,0,0,0,0,0,0,0,0,-1,888,400,0,0
-329,624,0,0,0,0,0,0,0,0,0,-1,895,400,0,0
-322,624,0,0,0,0,0,0,0,0,0,-1,902,400,0,0
-315,624,0,0,0,0,0,0,0,0,0,-1,909,400,0,0
-308,624,0,0,0,0,0,0,0,0,0,-1,916,400,0,0
-301,624,0,0,0,0,0,0,0,0,0,-1,923,400,0,0
-294,624,-0.912903,-12.9461,0,0,0,0,0,0,0,-1,930,400,-0.912926,12.9461
-287,624,-0.355164,-12.6199,0,0,0,0,0,0,0,-1,937,400,-0.355166,12.6199
-280,624,0.937683,-11.5193,0,0,0,0,0,0,0,-1,944,400,0.937667,11.5193
-273,624,1.08618,-9.31528,0,0,0,0,0,0,0,-1,951,400,1.0862,9.31527
-266,624,2.53687,-9.28403,0,0,0,0,0,0,0,-1,958,400,2.53687,9.28403
-259,624,1.90283,-9.51407,0,0,0,0,0,0,0,-1,965,400,1.90284,9.51406
-252,624,1.44214,-9.82388,0,0,0,0,0,0,0,-1,972,400,1.44217,9.82389
-245,624,2.41241,-7.50885,0,0,0,0,0,0,0,-1,979,400,2.41241,7.50885
-238,624,2.51276,-9.23581,0,0,0,0,0,0,0,-1,986,400,2.51274,9.2358
-231,624,1.93286,-9.1972,0,0,0,0,0,0,0,-1,993,400,1.93286,9.19719
-224,624,2.29266,-9.30383,0,0,0,0,0,0,0,-1,1000,400,2.29267,9.30382
-217,624,2.39398,-9.50186,0,0,0,0,0,0,0,-1,1007,400,2.39401,9.50187
-210,624,2.16016,-9.77563,0.00026328,-0.0025731,7.42206e-05,0.000265221,-0.00257504,0.0261435,0.00181158,0.0475459,1014,400,2.16016,9.77564
-203,624,2.30566,-9.73096,0.000812891,-0.00376126,-0.00141437,0.0012149,-0.00416326,-0.276926,0.0032569,0.039485,1021,400,2.30568,9.73096
-196,624,2.38123,-9.74939,0.00117377,-0.00398314,-0.00191683,0.00180821,-0.00461758,-0.319633,0.00382629,0.0367392,1028,400,2.38124,9.7494
-189,624,2.14636,-9.98141,0.00140867,-0.00476553,-0.00241079,0.00223846,-0.00559533,-0.3315,0.0046592,0.0355285,1035,400,2.14635,9.98142
-182,624,2.17566,-10.1083,0.00174097,-0.00525255,-0.00254682,0.00257014,-0.00608172,-0.314747,0.00513046,0.0295808,1042,400,2.17565,10.1083
-175,624,2.19653,-10.2401,0.00203723,-0.00542327,-0.00260983,0.00285956,-0.0062456,-0.305242,0.00537667,0.0186238,1049,400,2.19649,10.2401
-168,624,2.17419,-10.378,0.0021826,-0.00558316,-0.00240846,0.00286891,-0.00626946,-0.277598,0.00539643,0.0119889,1056,400,2.17416,10.378
-161,624,2.13953,-10.5088,0.00218247,-0.00475386,-0.0020593,0.00274777,-0.00531916,-0.267914,0.00473566,0.0101461,1063,400,2.13957,10.5088
-154,624,2.13794,-10.6136,0.00208878,-0.00326686,-0.00189951,0.00269408,-0.00387216,-0.308487,0.0038113,0.00959101,1070,400,2.1379,10.6136
-147,624,2.14221,-10.7168,0.00190685,-0.002238,-0.00167312,0.00249794,-0.00282908,-0.339595,0.00307754,0.0104042,1077,400,2.14226,10.7168
-140,624,2.11951,-10.8285,0.00171033,-0.000928049,-0.00133849,0.00227045,-0.00148818,-0.396331,0.00218566,0.00930481,1084,400,2.1195,10.8285
-133,624,2.11072,-10.9354,0.0015087,0.000622074,-0.0010349,0.00219124,-6.04648e-05,-0.58304,0.00148139,0.0103511,1091,400,2.11068,10.9354
-126,624,2.12244,-11.0298,0.00121965,0.0021837,-0.000885558,0.00270992,0.000693426,-1.03463,0.00162554,0.0121784,1098,400,2.12242,11.0297
-119,624,2.11536,-11.1183,0.000996882,0.00360118,-0.000832157,0.00384438,0.000753691,-1.28647,0.00235229,0.0141367,1105,400,2.11539,11.1183
-112,624,2.10938,-11.1889,0.000824699,0.00479733,-0.000861825,0.00497624,0.000645791,-1.36611,0.00312455,0.0149302,1112,400,2.10943,11.1889
-105,624,2.10352,-11.2943,0.000621186,0.00577231,-0.000804319,0.00589497,0.000498517,-1.41945,0.0037748,0.0107472,1119,400,2.10356,11.2942
-98,624,2.09021,-11.4009,0.000411694,0.00621477,-0.00087947,0.00634513,0.000281336,-1.42365,0.00413949,0.0127343,1126,400,2.09027,11.4009
-91,624,2.09888,-11.4781,0.000396133,0.00602108,-0.00103441,0.00620528,0.00021194,-1.39458,0.00406805,0.0185586,1133,400,2.09892,11.4781
-84,624,2.12964,-11.5532,0.000482541,0.00558717,-0.00100478,0.00577783,0.000291882,-1.38327,0.00375837,0.0165768,1140,400,2.12962,11.5532
-77,624,2.12012,-11.6377,0.000501883,0.00485421,-0.000884858,0.00502723,0.000328863,-1.3777,0.00324742,0.0119354,1147,400,2.12009,11.6377
-70,624,2.10791,-11.6921,0.000550762,0.0041006,-0.000694927,0.00423179,0.00041957,-1.38421,0.00269226,0.0126085,1154,400,2.10795,11.6921
-63,624,2.10437,-11.7465,0.000660349,0.00337004,-0.000509774,0.00346277,0.000567618,-1.39086,0.00214449,0.0116331,1161,400,2.10437,11.7465
-56,624,2.10181,-11.8189,0.000729587,0.00252584,-0.000350446,0.00259179,0.000663637,-1.38478,0.0015546,0.00939256,1168,400,2.10181,11.8189
-49,624,2.09595,-11.8669,0.000692436,0.00167649,-7.92636e-05,0.00168284,0.000686092,-1.49093,0.000977089,0.00934128,1175,400,2.09593,11.8669
-42,624,2.09509,-11.9077,0.00111505,0.00108591,0.000559719,0.00166039,0.000540571,0.772383,0.000977877,0.00905925,1182,400,2.09514,11.9076
-35,624,2.10498,-11.9415,0.00181057,0.000437884,0.00118562,0.00249417,-0.000245718,0.523021,0.00175045,0.0135245,1189,400,2.10503,11.9415
-28,624,2.1001,-11.985,0.00257326,-0.000406519,0.00154994,0.00323327,-0.00106653,0.402575,0.00258542,0.0184998,1196,400,2.10005,11.985
-21,624,2.10278,-12.0402,0.00315403,-0.00114103,0.00178802,0.00380094,-0.00178794,0.347151,0.00329577,0.013726,1203,400,2.10283,12.0402
-14,624,2.12964,-12.073,0.00436405,-0.00225284,0.00156791,0.00471677,-0.00260556,0.22128,0.00428572,0.0145572,1210,400,2.12958,12.073
-7,624,2.10364,-12.1029,0.00572372,-0.00322839,0.00194797,0.00612922,-0.00363389,0.205239,0.00569778,0.0174758,1217,400,2.10363,12.1029
0,624,2.11121,-12.1526,0.00635906,-0.00383845,0.00189611,0.00670021,-0.0041796,0.178015,0.0063374,0.0165435,1224,400,2.11117,12.1526
7,624,2.11426,-12.1681,0.00670609,-0.00431621,0.0018092,0.00699546,-0.00460558,0.158598,0.00674507,0.0122719,1231,400,2.11431,12.1681
14,624,2.11877,-12.1866,0.0066202,-0.00441362,0.00149575,0.00681937,-0.00461279,0.132378,0.00664122,0.0104699,1238,400,2.11876,12.1866
21,624,2.13892,-12.1899,0.00619963,-0.00451805,0.00109289,0.00630994,-0.00462836,0.100592,0.00634006,0.0113042,1245,400,2.13888,12.1899
28,624,2.14111,-12.1973,0.00538083,-0.00430177,0.000694456,0.00543038,-0.00435132,0.0712362,0.00565891,0.0111451,1252,400,2.14113,12.1973
35,624,2.14917,-12.2012,0.00450357,-0.00365091,0.000199648,0.00450845,-0.00365579,0.0244637,0.00472219,0.01457,1259,400,2.14914,12.2012
42,624,2.14856,-12.2017,0.00353797,-0.00300614,-0.000306475,0.00355229,-0.00302046,-0.046696,0.00379892,0.0166983,1266,400,2.14861,12.2017
49,624,2.1582,-12.2001,0.00220967,-0.00190898,-0.000962149,0.00242335,-0.00212266,-0.218539,0.00262655,0.0182514,1273,400,2.15821,12.2001
56,624,2.17651,-12.2127,0.000898488,-0.000576273,-0.00154453,0.00187263,-0.00155041,-0.56269,0.00197921,0.0181316,1280,400,2.17654,12.2127
63,624,2.20422,-12.2056,-0.000289124,0.000840839,-0.0021614,0.00250988,-0.00195816,-0.913236,0.00258617,0.0144614,1287,400,2.20423,12.2056
70,624,2.20947,-12.1758,-0.00125587,0.00204521,-0.00267181,0.00353519,-0.00274584,-1.06209,0.00363589,0.01277,1294,400,2.20946,12.1758
77,624,2.21692,-12.1533,-0.00149625,0.00301615,-0.00273705,0.00430705,-0.00278714,-1.1301,0.00412705,0.012668,1301,400,2.21697,12.1533
84,624,2.21631,-12.1385,-0.00137608,0.00379364,-0.00289199,0.00508758,-0.00267002,-1.15009,0.00455077,0.0119361,1308,400,2.2163,12.1386
91,624,2.21863,-12.1206,-0.00142378,0.00459939,-0.00265242,0.0056009,-0.00242529,-1.20976,0.00475329,0.0130248,1315,400,2.21864,12.1206
98,624,2.23315,-12.1034,-0.00115526,0.00472694,-0.00266824,0.00575693,-0.00218525,-1.2024,0.00473746,0.012947,1322,400,2.2332,12.1034
105,624,2.25024,-12.0786,-0.000301311,0.00440301,-0.00217674,0.00525567,-0.00115397,-1.19745,0.0039451,0.0139508,1329,400,2.25029,12.0786
112,624,2.28015,-12.0204,0.000433403,0.00383075,-0.00158866,0.00445787,-0.00019372,-1.19482,0.00303855,0.0146718,1336,400,2.28011,12.0204
119,624,2.29053,-11.9692,0.00120862,0.00294927,-0.00084445,0.00329161,0.000866282,-1.18564,0.00197019,0.0150514,1343,400,2.29056,11.9692
126,624,2.26501,-11.8952,0.00178902,0.00218461,-0.000166146,0.00224513,0.0017285,-1.22147,0.00135771,0.0169077,1350,400,2.26496,11.8952
133,624,2.28784,-11.8282,0.00219016,0.00125685,0.000363386,0.00231495,0.00113205,0.330811,0.00133665,0.0165567,1357,400,2.28779,11.8282
140,624,2.30261,-11.7974,0.0021824,0.000214566,0.000850521,0.00249905,-0.000102086,0.356405,0.00170108,0.0176291,1364,400,2.30266,11.7974
147,624,2.26831,-11.7692,0.00201511,-0.00045143,0.00113791,0.00245988,-0.000896191,0.372601,0.00200651,0.0222518,1371,400,2.2683,11.7692
154,624,2.28467,-11.7311,0.0020237,-0.00114328,0.00134635,0.0025187,-0.00163828,0.352318,0.00241791,0.0232409,1378,400,2.28471,11.7311
161,624,2.28638,-11.5992,0.00185159,-0.00163934,0.00129227,0.0022779,-0.00206565,0.318652,0.00250875,0.0209362,1385,400,2.28642,11.5992
168,624,2.29541,-11.4888,0.00148276,-0.00182817,0.00110117,0.00181555,-0.00216096,0.293484,0.00229872,0.0215541,1392,400,2.29537,11.4888
175,624,2.31165,-11.4476,0.0010743,-0.00160386,0.000885666,0.00134069,-0.00187025,0.292173,0.00186222,0.0179244,1399,400,2.31169,11.4476
182,624,2.31702,-11.4011,0.000479217,-0.00126178,0.000630214,0.000683399,-0.00146596,0.313317,0.00126805,0.0111035,1406,400,2.31703,11.4011
189,624,2.30188,-11.3157,0.000204523,-0.00106409,0.000629147,0.00046362,-0.00132319,0.390657,0.00107067,0.0103881,1413,400,2.30186,11.3157
196,624,2.29932,-11.2238,0.000122357,-0.000932401,0.000510043,0.000328649,-0.00113869,0.384345,0.00088916,0.0108778,1420,400,2.29933,11.2238
203,624,2.31409,-11.1339,-2.2967e-05,-0.000730128,0.000441577,0.000189146,-0.000942241,0.447808,0.000699783,0.0138911,1427,400,2.31404,11.1339
210,624,2.28906,-11.0603,-0.000148707,-0.000456347,0.000420122,0.000144869,-0.000749923,0.609912,0.000554582,0.0162679,1434,400,2.28909,11.0603
217,624,2.27625,-10.9388,-5.45948e-05,-0.000151779,0.000448482,0.00034792,-0.000554294,0.731435,0.000525416,0.0178877,1441,400,2.27621,10.9388
224,624,2.29126,-10.8224,6.66088e-05,0.00016503,0.000654567,0.000772234,-0.000540595,0.822918,0.000761884,0.0148926,1448,400,2.2912,10.8224
231,624,2.30505,-10.7235,0.000219517,0.000570952,0.000896696,0.00130899,-0.000518517,0.882152,0.00108751,0.0120108,1455,400,2.30506,10.7235
238,624,2.28882,-10.5957,0.000466958,0.000962138,0.00109342,0.00183565,-0.000406554,0.896739,0.0013794,0.0164501,1462,400,2.28878,10.5957
245,624,2.30103,-10.5144,0.000773812,0.00143018,0.00126932,0.00241305,-0.000209061,0.911904,0.00168272,0.0163275,1469,400,2.301,10.5144
252,624,2.30701,-10.3989,0.00113531,0.00198223,0.00147221,0.00309067,2.6864e-05,0.925436,0.00205155,0.0126639,1476,400,2.30706,10.3989
259,624,2.29834,-10.2728,0.00148873,0.00261126,0.00179089,0.00392677,0.000173219,0.93725,0.00256206,0.00950499,1483,400,2.29829,10.2728
266,624,2.30273,-10.1463,0.00177448,0.00357951,0.00206679,0.00493225,0.000421742,0.991257,0.00315699,0.0128985,1490,400,2.30269,10.1463
273,624,2.28394,-10.0113,0.00206221,0.00418217,0.00253008,0.00586534,0.000379038,0.983766,0.0037902,0.0158456,1497,400,2.28388,10.0113
280,624,2.27441,-9.89331,0.00235946,0.00555682,0.00308038,0.00742866,0.000487618,1.02476,0.00479817,0.0142095,1504,400,2.27445,9.8933
287,624,2.26929,-9.75403,0.0025617,0.00660309,0.0036398,0.00874549,0.000419303,1.0388,0.0056957,0.0107249,1511,400,2.26933,9.75403
294,624,2.26123,-9.59866,0.00270499,0.00790592,0.00423205,0.0102726,0.0003383,1.06089,0.00673847,0.00913094,1518,400,2.26122,9.59866
301,624,2.26196,-9.45367,0.00280118,0.00928247,0.00484506,0.0118708,0.000212897,1.08016,0.00784383,0.0105712,1525,400,2.26195,9.45366
308,624,2.26538,-9.28882,0.00287014,0.0108487,0.00551675,0.0136674,5.14239e-05,1.09844,0.00909453,0.0143383,1532,400,2.26543,9.28881
315,624,2.23486,-9.12094,0.00272206,0.0120552,0.00603019,0.0150136,-0.000236339,1.1147,0.0100887,0.0166595,1539,400,2.2348,9.12095
322,624,2.21948,-8.97247,0.00224646,0.0131962,0.00659214,0.0162905,-0.00084783,1.13193,0.0111537,0.0235744,1546,400,2.21953,8.97246
329,624,2.42188,-8.74252,0.00151769,0.0142973,0.00675067,0.0172028,-0.00138772,1.16437,0.0119579,0.0390682,1553,400,2.42188,8.74253
336,624,2.52271,-8.45187,0,0,0,0,0,0,0,-1,1560,400,2.52266,8.45188
343,624,2.36206,-8.19647,0,0,0,0,0,0,0,-1,1567,400,2.36211,8.19646
350,624,1.99194,-7.29742,0,0,0,0,0,0,0,-1,1574,400,1.99198,7.29741
357,624,2.64075,-3.13092,0,0,0,0,0,0,0,-1,1581,400,2.64076,3.13091
364,624,3.16565,-4.9458,0,0,0,0,0,0,0,-1,1588,400,3.16564,4.94579
371,624,3.37561,-5.23529,0,0,0,0,0,0,0,-1,1595,400,3.37563,5.23529
378,624,1.50439,-5.22165,0,0,0,0,0,0,0,-1,1602,400,1.50438,5.22164
385,624,0.724731,-2.43875,0,0,0,0,0,0,0,-1,1609,400,0.724746,2.43875
392,624,4.26819,-5.14236,0,0,0,0,0,0,0,-1,1616,400,4.26818,5.14236
399,624,3.86841,-2.36917,0,0,0,0,0,0,0,-1,1623,400,3.86838,2.36916
406,624,4.35376,-2.6962,0,0,0,0,0,0,0,-1,1630,400,4.35373,2.69619
413,624,0,0,0,0,0,0,0,0,0,-1,1637,400,0,0
420,624,0,0,0,0,0,0,0,0,0,-1,1644,400,0,0
427,624,0,0,0,0,0,0,0,0,0,-1,1651,400,0,0
434,624,0,0,0,0,0,0,0,0,0,-1,1658,400,0,0
441,624,0,0,0,0,0,0,0,0,0,-1,1665,400,0,0
448,624,0,0,0,0,0,0,0,0,0,-1,1672,400,0,0
455,624,0,0,0,0,0,0,0,0,0,-1,1679,400,0,0
462,624,0,0,0,0,0,0,0,0,0,-1,1686,400,0,0
469,624,0,0,0,0,0,0,0,0,0,-1,1693,400,0,0
476,624,0,0,0,0,0,0,0,0,0,-1,1700,400,0,0
483,624,0,0,0,0,0,0,0,0,0,-1,1707,400,0,0
490,624,0,0,0,0,0,0,0,0,0,-1,1714,400,0,0
497,624,0,0,0,0,0,0,0,0,0,-1,1721,400,0,0
504,624,0,0,0,0,0,0,0,0,0,-1,1728,400,0,0
511,624,0,0,0,0,0,0,0,0,0,-1,1735,400,0,0
518,624,0,0,0,0,0,0,0,0,0,-1,1742,400,0,0
525,624,0,0,0,0,0,0,0,0,0,-1,1749,400,0,0
532,624,0,0,0,0,0,0,0,0,0,-1,1756,400,0,0
539,624,0,0,0,0,0,0,0,0,0,-1,1763,400,0,0
546,624,0,0,0,0,0,0,0,0,0,-1,1770,400,0,0
553,624,0,0,0,0,0,0,0,0,0,-1,1777,400,0,0
560,624,0,0,0,0,0,0,0,0,0,-1,1784,400,0,0
567,624,0,0,0,0,0,0,0,0,0,-1,1791,400,0,0
574,624,0,0,0,0,0,0,0,0,0,-1,1798,400,0,0
581,624,0,0,0,0,0,0,0,0,0,-1,1805,400,0,0
588,624,0,0,0,0,0,0,0,0,0,-1,1812,400,0,0
595,624,0,0,0,0,0,0,0,0,0,-1,1819,400,0,0
602,624,0,0,0,0,0,0,0,0,0,-1,1826,400,0,0
609,624,0,0,0,0,0,0,0,0,0,-1,1833,400,0,0
616,624,0,0,0,0,0,0,0,0,0,-1,1840,400,0,0
623,624,0,0,0,0,0,0,0,0,0,-1,1847,400,0,0
630,624,0,0,0,0,0,0,0,0,0,-1,1854,400,0,0
637,624,0,0,0,0,0,0,0,0,0,-1,1861,400,0,0
644,624,0,0,0,0,0,0,0,0,0,-1,1868,400,0,0
651,624,0,0,0,0,0,0,0,0,0,-1,1875,400,0,0
658,624,0,0,0,0,0,0,0,0,0,-1,1882,400,0,0
665,624,0,0,0,0,0,0,0,0,0,-1,1889,400,0,0
672,624,0,0,0,0,0,0,0,0,0,-1,1896,400,0,0
679,624,0,0,0,0,0,0,0,0,0,-1,1903,400,0,0
686,624,0,0,0,0,0,0,0,0,0,-1,1910,400,0,0
693,624,0,0,0,0,0,0,0,0,0,-1,1917,400,0,0
700,624,0,0,0,0,0,0,0,0,0,-1,1924,400,0,0
707,624,0,0,0,0,0,0,0,0,0,-1,1931,400,0,0
714,624,0,0,0,0,0,0,0,0,0,-1,1938,400,0,0
721,624,0,0,0,0,0,0,0,0,0,-1,1945,400,0,0
728,624,0,0,0,0,0,0,0,0,0,-1,1952,400,0,0
735,624,0,0,0,0,0,0,0,0,0,-1,1959,400,0,0
742,624,0,0,0,0,0,0,0,0,0,-1,1966,400,0,0
749,624,0,0,0,0,0,0,0,0,0,-1,1973,400,0,0
756,624,0,0,0,0,0,0,0,0,0,-1,1980,400,0,0
763,624,0,0,0,0,0,0,0,0,0,-1,1987,400,0,0
770,624,0,0,0,0,0,0,0,0,0,-1,1994,400,0,0
777,624,0,0,0,0,0,0,0,0,0,-1,2001,400,0,0
784,624,0,0,0,0,0,0,0,0,0,-1,2008,400,0,0
791,624,0,0,0,0,0,0,0,0,0,-1,2015,400,0,0
798,624,0,0,0,0,0,0,0,0,0,-1,2022,400,0,0
805,624,0,0,0,0,0,0,0,0,0,-1,2029,400,0,0
812,624,0,0,0,0,0,0,0,0,0,-1,2036,400,0,0
-700,617,0,0,0,0,0,0,0,0,0,-1,524,407,0,0
-693,617,0,0,0,0,0,0,0,0,0,-1,531,407,0,0
-686,617,0,0,0,0,0,0,0,0,0,-1,538,407,0,0
-679,617,0,0,0,0,0,0,0,0,0,-1,545,407,0,0
-672,617,0,0,0,0,0,0,0,0,0,-1,552,407,0,0
-665,617,0,0,0,0,0,0,0,0,0,-1,559,407,0,0
-658,617,0,0,0,0,0,0,0,0,0,-1,566,407,0,0
-651,617,0,0,0,0,0,0,0,0,0,-1,573,407,0,0
-644,617,0,0,0,0,0,0,0,0,0,-1,580,407,0,0
-637,617,0,0,0,0,0,0,0,0,0,-1,587,407,0,0
-630,617,0,0,0,0,0,0,0,0,0,-1,594,407,0,0
-623,617,0,0,0,0,0,0,0,0,0,-1,601,407,0,0
-616,617,0,0,0,0,0,0,0,0,0,-1,608,407,0,0
-609,617,0,0,0,0,0,0,0,0,0,-1,615,407,0,0
-602,617,0,0,0,0,0,0,0,0,0,-1,622,407,0,0
-595,617,0,0,0,0,0,0,0,0,0,-1,629,407,0,0
-588,617,0,0,0,0,0,0,0,0,0,-1,636,407,0,0
-581,617,0,0,0,0,0,0,0,0,0,-1,643,407,0,0
-574,617,0,0,0,0,0,0,0,0,0,-1,650,407,0,0
-567,617,0,0,0,0,0,0,0,0,0,-1,657,407,0,0
-560,617,0,0,0,0,0,0,0,0,0,-1,664,407,0,0
-553,617,0,0,0,0,0,0,0,0,0,-1,671,407,0,0
-546,617,0,0,0,0,0,0,0,0,0,-1,678,407,0,0
-539,617,0,0,0,0,0,0,0,0,0,-1,685,407,0,0
-532,617,0,0,0,0,0,0,0,0,0,-1,692,407,0,0
-525,617,0,0,0,0,0,0,0,0,0,-1,699,407,0,0
-518,617,0,0,0,0,0,0,0,0,0,-1,706,407,0,0
-511,617,0,0,0,0,0,0,0,0,0,-1,713,407,0,0
-504,617,0,0,0,0,0,0,0,0,0,-1,720,407,0,0
-497,617,0,0,0,0,0,0,0,0,0,-1,727,407,0,0
-490,617,0,0,0,0,0,0,0,0,0,-1,734,407,0,0
-483,617,0,0,0,0,0,0,0,0,0,-1,741,407,0,0
-476,617,0,0,0,0,0,0,0,0,0,-1,748,407,0,0
-469,617,0,0,0,0,0,0,0,0,0,-1,755,407,0,0
-462,617,0,0,0,0,0,0,0,0,0,-1,762,407,0,0
-455,617,0,0,0,0,0,0,0,0,0,-1,769,407,0,0
-448,617,0,0,0,0,0,0,0,0,0,-1,776,407,0,0
-441,617,0,0,0,0,0,0,0,0,0,-1,783,407,0,0
-434,617,0,0,0,0,0,0,0,0,0,-1,790,407,0,0
-427,617,0,0,0,0,0,0,0,0,0,-1,797,407,0,0
-420,617,0,0,0,0,0,0,0,0,0,-1,804,407,0,0
-413,617,0,0,0,0,0,0,0,0,0,-1,811,407,0,0
-406,617,0,0,0,0,0,0,0,0,0,-1,818,407,0,0
-399,617,0,0,0,0,0,0,0,0,0,-1,825,407,0,0
-392,617,0,0,0,0,0,0,0,0,0,-1,832,407,0,0
-385,617,0,0,0,0,0,0,0,0,0,-1,839,407,0,0
-378,617,0,0,0,0,0,0,0,0,0,-1,846,407,0,0
-371,617,0,0,0,0,0,0,0,0,0,-1,853,407,0,0
-364,617,0,0,0,0,0,0,0,0,0,-1,860,407,0,0
-357,617,0,0,0,0,0,0,0,0,0,-1,867,407,0,0
-350,617,0,0,0,0,0,0,0,0,0,-1,874,407,0,0
-343,617,0,0,0,0,0,0,0,0,0,-1,881,407,0,0
-336,617,0,0,0,0,0,0,0,0,0,-1,888,407,0,0
-329,617,0,0,0,0,0,0,0,0,0,-1,895,407,0,0
-322,617,0,0,0,0,0,0,0,0,0,-1,902,407,0,0
-315,617,0,0,0,0,0,0,0,0,0,-1,909,407,0,0
-308,617,0,0,0,0,0,0,0,0,0,-1,916,407,0,0
-301,617,-1.61346,-11.4687,0,0,0,0,0,0,0,-1,923,407,-1.61344,11.4687
-294,617,-0.867493,-11.1655,0.0605648,-0.078475,0.0191951,0.0631661,-0.0810763,0.134698,0.0834921,0.0442735,930,407,-0.867487,11.1655
-287,617,-0.212524,-10.7744,0,0,0,0,0,0,0,-1,937,407,-0.212541,10.7743
-280,617,0.457703,-10.3054,0,0,0,0,0,0,0,-1,944,407,0.457708,10.3054
-273,617,0.775146,-9.85422,0,0,0,0,0,0,0,-1,951,407,0.775126,9.85422
-266,617,2.50708,-8.93878,0,0,0,0,0,0,0,-1,958,407,2.5071,8.93879
-259,617,1.88312,-9.24066,0,0,0,0,0,0,0,-1,965,407,1.88312,9.24066
-252,617,1.25916,-9.54251,0,0,0,0,0,0,0,-1,972,407,1.25915,9.54252
-245,617,2.03912,-9.49725,0,0,0,0,0,0,0,-1,979,407,2.03915,9.49725
-238,617,2.22284,-9.18152,0,0,0,0,0,0,0,-1,986,407,2.22282,9.18153
-231,617,2.18097,-9.19308,0.00209168,-0.00317826,0.00110692,0.00231474,-0.00340132,0.198852,0.00331999,0.0480205,993,407,2.18098,9.19307
-224,617,2.16235,-9.28644,0.00123131,-0.00230592,0.00125896,0.00163363,-0.00270825,0.309312,0.00253225,0.0471675,1000,407,2.16234,9.28643
-217,617,2.2124,-9.48108,0.000257024,-0.00136822,0.00123557,0.000923252,-0.00203445,0.494518,0.00174734,0.0381112,1007,407,2.21241,9.48108
-210,617,2.15271,-9.69327,-4.91749e-05,-0.00157349,7.99292e-05,-4.49953e-05,-0.00157767,0.0522452,0.00103711,0.0236974,1014,407,2.15274,9.69326
-203,617,2.12811,-9.75974,0.000223902,-0.00213107,-0.000917208,0.000538978,-0.00244615,-0.330888,0.00183697,0.0181815,1021,407,2.12813,9.75973
-196,617,2.09229,-9.86542,0.000455167,-0.00224694,-0.00132182,0.000994232,-0.00278601,-0.38723,0.00226277,0.0147319,1028,407,2.09232,9.86541
-189,617,2.08008,-10.0043,0.000622212,-0.00260986,-0.00175763,0.00139382,-0.00338146,-0.413672,0.0028355,0.0121564,1035,407,2.08012,10.0043
-182,617,2.08215,-10.1278,0.000867628,-0.0029987,-0.00190994,0.001652,-0.00378307,-0.389678,0.00321734,0.0128452,1042,407,2.08212,10.1278
-175,617,2.08936,-10.2501,0.00112311,-0.00320064,-0.001925,0.00185594,-0.00393348,-0.363752,0.00341351,0.0116387,1049,407,2.08934,10.2501
-168,617,2.06299,-10.3831,0.00124981,-0.00340729,-0.00173607,0.00182575,-0.00398323,-0.320326,0.00343006,0.0101631,1056,407,2.06297,10.3831
-161,617,2.03381,-10.5208,0.0013064,-0.0029991,-0.00144137,0.00174438,-0.00343708,-0.294997,0.00304426,0.0112189,1063,407,2.03387,10.5208
-154,617,2.03064,-10.6326,0.0013451,-0.00212077,-0.00126171,0.00175575,-0.00253142,-0.314661,0.00248867,0.0109535,1070,407,2.03058,10.6326
-147,617,2.03711,-10.7238,0.00138,-0.00152445,-0.00108539,0.0017408,-0.00188524,-0.320918,0.00209405,0.0142918,1077,407,2.03709,10.7238
-140,617,2.01257,-10.8411,0.00142594,-0.0007251,-0.000871867,0.00173494,-0.0010341,-0.340599,0.00161569,0.0107096,1084,407,2.01256,10.8411
-133,617,2.01074,-10.9471,0.00145549,0.000294395,-0.000686251,0.00177382,-2.39313e-05,-0.434323,0.0011906,0.0131137,1091,407,2.0107,10.9471
-126,617,2.01538,-11.0338,0.0014146,0.00136864,-0.000641649,0.00203368,0.000749562,-0.767499,0.00118759,0.0129088,1098,407,2.01532,11.0338
-119,617,2.0094,-11.1152,0.00141735,0.00239206,-0.00068422,0.00274475,0.00106466,-1.09486,0.0015979,0.0127184,1105,407,2.00946,11.1152
-112,617,2.01917,-11.1868,0.00143905,0.00332235,-0.000807412,0.00362112,0.00114029,-1.2164,0.00213787,0.014394,1112,407,2.01913,11.1868
-105,617,2.03186,-11.2758,0.00141139,0.00407247,-0.000872012,0.00433276,0.0011511,-1.28072,0.00259148,0.0146051,1119,407,2.0319,11.2758
-98,617,2.01819,-11.3967,0.00135717,0.00444037,-0.00102124,0.00474794,0.00104959,-1.27826,0.00287991,0.012225,1126,407,2.0182,11.3967
-91,617,2.02417,-11.4857,0.00142567,0.00434399,-0.0011821,0.00476273,0.00100693,-1.23035,0.00289841,0.0171417,1133,407,2.02412,11.4857
-84,617,2.04639,-11.5753,0.00153191,0.00401177,-0.00113916,0.00445562,0.00108806,-1.19926,0.00268232,0.0165017,1140,407,2.04635,11.5753
-77,617,2.05774,-11.6399,0.00155593,0.00355339,-0.000997495,0.0039662,0.00114311,-1.17841,0.00235737,0.0124598,1147,407,2.05776,11.6399
-70,617,2.05212,-11.6996,0.00159218,0.00311263,-0.000775061,0.00343807,0.00126675,-1.17327,0.00200774,0.0131798,1154,407,2.0521,11.6995
-63,617,2.0614,-11.7501,0.00163236,0.00272529,-0.000513452,0.00292866,0.00142899,-1.19366,0.00169103,0.0130264,1161,407,2.06135,11.7501
-56,617,2.04712,-11.8107,0.00158103,0.00238581,-0.000227854,0.00244584,0.001521,-1.31318,0.00142602,0.00934333,1168,407,2.04708,11.8107
-49,617,2.04297,-11.8677,0.0014475,0.00187061,2.32607e-05,0.00187188,0.00144623,1.51604,0.00113301,0.00862512,1175,407,2.04298,11.8677
-42,617,2.05444,-11.9312,0.00229694,0.00136028,0.00128254,0.00319399,0.000463241,0.610341,0.00199294,0.010559,1182,407,2.05446,11.9312
-35,617,2.09521,-11.9658,0.00358041,0.000873099,0.00262099,0.00517667,-0.000723156,0.547031,0.00371569,0.0149633,1189,407,2.09525,11.9658
-28,617,2.10535,-11.9936,0.00487815,-7.70673e-06,0.00336152,0.00659066,-0.00172022,0.471177,0.0050655,0.0170388,1196,407,2.10537,11.9936
-21,617,2.10229,-12.044,0.00573303,-0.000815588,0.00380443,0.00747816,-0.00256072,0.430074,0.00602327,0.0129633,1203,407,2.10225,12.044
-14,617,2.07922,-12.0592,0.00776818,-0.00227248,0.00338584,0.00880322,-0.00330752,0.296677,0.00722813,0.0148597,1210,407,2.07923,12.0592
-7,617,2.05798,-12.09,0.00988906,-0.00362021,0.00432877,0.0111571,-0.00488825,0.284962,0.00949654,0.0170913,1217,407,2.05795,12.09
0,617,2.09167,-12.1299,0.0106807,-0.00442928,0.00432471,0.011831,-0.00557952,0.25995,0.0102657,0.013963,1224,407,2.09166,12.1299
7,617,2.1134,-12.1556,0.0110688,-0.00513447,0.00422391,0.0121038,-0.00616946,0.240296,0.0107339,0.0102129,1231,407,2.11346,12.1556
14,617,2.11292,-12.1634,0.010867,-0.00537482,0.00376704,0.0116981,-0.00620599,0.217164,0.0104978,0.0117431,1238,407,2.1129,12.1633
21,617,2.1228,-12.178,0.0101601,-0.00565956,0.00312306,0.0107543,-0.00625379,0.188022,0.00993354,0.01097,1245,407,2.12281,12.178
28,617,2.1283,-12.1987,0.00885199,-0.00547334,0.00244999,0.00925942,-0.00588076,0.164788,0.00881344,0.0102957,1252,407,2.12825,12.1987
35,617,2.10803,-12.2227,0.0076289,-0.00467371,0.00159968,0.00783351,-0.00487831,0.12721,0.00740498,0.0124373,1259,407,2.10799,12.2227
42,617,2.13977,-12.2184,0.00628733,-0.00386644,0.000712197,0.00633704,-0.00391615,0.0696864,0.00597443,0.0191241,1266,407,2.13981,12.2184
49,617,2.17468,-12.2054,0.00430864,-0.00240407,-0.000372711,0.00432927,-0.0024247,-0.0552966,0.00395075,0.0195129,1273,407,2.17474,12.2054
56,617,2.19678,-12.2061,0.00241667,-0.00060854,-0.00134327,0.00292702,-0.00111889,-0.363088,0.00241241,0.0141677,1280,407,2.19677,12.2061
63,617,2.21057,-12.1941,0.000713596,0.00131704,-0.00239139,0.00342567,-0.00139503,-0.848151,0.00286436,0.0101212,1287,407,2.21054,12.1941
70,617,2.1908,-12.171,-0.000680549,0.00302045,-0.00324938,0.00490931,-0.00256941,-1.04424,0.00438772,0.0142739,1294,407,2.19079,12.171
77,617,2.22656,-12.1533,-0.00114339,0.00444022,-0.00348916,0.00611702,-0.00282019,-1.12281,0.00527563,0.0128687,1301,407,2.2266,12.1533
84,617,2.24719,-12.1362,-0.00111971,0.00562993,-0.00377938,0.00732198,-0.00281176,-1.14985,0.00604079,0.0101228,1308,407,2.24723,12.1362
91,617,2.25366,-12.113,-0.0013583,0.00680992,-0.0034857,0.00809518,-0.00264355,-1.21754,0.00646083,0.00996715,1315,407,2.25362,12.113
98,617,2.27649,-12.0874,-0.00102609,0.00694969,-0.00358431,0.00832375,-0.00240015,-1.20472,0.00649868,0.011458,1322,407,2.27646,12.0874
105,617,2.30322,-12.0597,0.000257302,0.00633628,-0.00273282,0.00738419,-0.000790606,-1.20464,0.00520638,0.0133381,1329,407,2.30323,12.0597
112,617,2.31653,-11.9903,0.00129713,0.00543503,-0.00182023,0.00612177,0.000610391,-1.21003,0.00389369,0.017154,1336,407,2.31651,11.9903
119,617,2.32532,-11.9319,0.00241298,0.00407463,-0.000657996,0.00430363,0.00218398,-1.23588,0.0024848,0.01995,1343,407,2.32531,11.9319
126,617,2.31348,-11.912,0.00332615,0.00286053,0.000459244,0.00360822,0.00257845,0.550805,0.00214622,0.0207746,1350,407,2.31347,11.9119
133,617,2.3252,-11.8485,0.00404517,0.00138433,0.00138669,0.00463645,0.000793048,0.403053,0.00286346,0.01708,1357,407,2.32524,11.8485
140,617,2.34998,-11.8105,0.00406775,-0.000255027,0.00226798,0.00503931,-0.00122658,0.404728,0.00383436,0.0155042,1364,407,2.34994,11.8105
147,617,2.32568,-11.7656,0.00393573,-0.00130258,0.00282981,0.00517246,-0.00253931,0.412019,0.00453808,0.0199329,1371,407,2.32565,11.7656
154,617,2.32886,-11.7079,0.00424677,-0.00241797,0.00326796,0.00558176,-0.00375296,0.38782,0.00542377,0.022067,1378,407,2.3289,11.7079
161,617,2.36401,-11.6029,0.00414378,-0.00317544,0.00325522,0.00538204,-0.0044137,0.363491,0.00566478,0.0217275,1385,407,2.36397,11.6029
168,617,2.40027,-11.5555,0.00362207,-0.0035615,0.00292673,0.00466349,-0.00460292,0.341862,0.00535001,0.0210057,1392,407,2.40032,11.5555
175,617,2.38733,-11.5175,0.00286724,-0.00320206,0.00238789,0.00369408,-0.0040289,0.333343,0.00446026,0.0185468,1399,407,2.38732,11.5175
182,617,2.39465,-11.4241,0.00174452,-0.00263674,0.00171809,0.0023379,-0.00323012,0.332544,0.00322842,0.0118247,1406,407,2.39469,11.4241
189,617,2.39478,-11.3302,0.00111985,-0.00225908,0.00136391,0.00160168,-0.00274091,0.339588,0.00253579,0.0105138,1413,407,2.39483,11.3302
196,617,2.38562,-11.2147,0.000831319,-0.00195872,0.000805022,0.00104693,-0.00217434,0.261694,0.00189739,0.013865,1420,407,2.38558,11.2147
203,617,2.39954,-11.1382,0.000380418,-0.00129747,0.000254649,0.000418214,-0.00133527,0.147348,0.00105752,0.0151279,1427,407,2.3995,11.1382
210,617,2.40503,-11.0615,8.60559e-05,-0.000735421,-0.000156704,0.000114933,-0.000764298,-0.182236,0.000551847,0.0141338,1434,407,2.40503,11.0615
217,617,2.38757,-10.9274,0.000205653,-0.000418409,-0.000116617,0.000226733,-0.000439489,-0.178831,0.000391126,0.0176939,1441,407,2.3876,10.9274
224,617,2.38367,-10.8337,0.000215014,-0.000106726,0.000120813,0.000255328,-0.000147039,0.322069,0.000235094,0.0178856,1448,407,2.38367,10.8337
231,617,2.41418,-10.7523,0.000298443,0.000273056,0.00038209,0.00066805,-9.65513e-05,0.768794,0.000480793,0.014326,1455,407,2.41421,10.7523
238,617,2.40881,-10.6293,0.000470327,0.000667456,0.00060997,0.00118677,-4.89907e-05,0.8655,0.000808008,0.0147806,1462,407,2.40883,10.6293
245,617,2.4187,-10.533,0.000688856,0.00111115,0.000798041,0.0017255,7.45013e-05,0.914725,0.00112632,0.0125147,1469,407,2.41866,10.533
252,617,2.42419,-10.4037,0.000923001,0.00159029,0.000986012,0.00229758,0.000215713,0.948539,0.00146512,0.013712,1476,407,2.42415,10.4037
259,617,2.42444,-10.2778,0.00112372,0.00209565,0.00125423,0.00295478,0.000264595,0.970224,0.00188784,0.0121064,1483,407,2.42438,10.2778
266,617,2.42603,-10.1449,0.00128152,0.00280909,0.00148565,0.00371579,0.000374815,1.02283,0.00236219,0.0140899,1490,407,2.42606,10.1449
273,617,2.41199,-10.0219,0.0014488,0.00328135,0.00184818,0.00442792,0.000302228,1.01553,0.00285654,0.0143471,1497,407,2.41194,10.0219
280,617,2.39844,-9.89859,0.00162964,0.00432333,0.00228924,0.00563254,0.000320438,1.0513,0.0036529,0.01246,1504,407,2.39843,9.89859
287,617,2.37378,-9.74551,0.00174502,0.00508764,0.00272197,0.00661045,0.000222205,1.06073,0.0043348,0.0117806,1511,407,2.37374,9.74552
294,617,2.37512,-9.60001,0.00182192,0.00601509,0.00318511,0.00773172,0.000105291,1.07647,0.00511974,0.00978721,1518,407,2.37509,9.6
301,617,2.38806,-9.45724,0.00185565,0.00694606,0.00365435,0.00885421,-5.2501e-05,1.08958,0.00592038,0.00767611,1525,407,2.388,9.45725
308,617,2.37451,-9.30734,0.00189062,0.00803464,0.00416503,0.010138,-0.00021277,1.10315,0.00683071,0.00807671,1532,407,2.37454,9.30734
315,617,2.35535,-9.15146,0.00179702,0.00889376,0.00455868,0.0111223,-0.0004315,1.11611,0.00756279,0.00942805,1539,407,2.35532,9.15147
322,617,2.36072,-9.00037,0.00148966,0.00967628,0.00495816,0.0120125,-0.000846539,1.13047,0.00830489,0.0116329,1546,407,2.36076,9.00037
329,617,2.35852,-8.85236,0.000948494,0.0103696,0.00507529,0.0125835,-0.00126539,1.15947,0.00884104,0.0125643,1553,407,2.35856,8.85237
336,617,2.36572,-8.67285,0.000108514,0.0106374,0.00460644,0.0123682,-0.0016223,1.21138,0.00883604,0.0276277,1560,407,2.36567,8.67285
343,617,2.4624,-8.33459,0,0,0,0,0,0,0,-1,1567,407,2.46235,8.33458
350,617,2.45667,-8.30865,0,0,0,0,0,0,0,-1,1574,407,2.4567,8.30864
357,617,2.1748,-7.16504,0,0,0,0,0,0,0,-1,1581,407,2.1748,7.16505
364,617,2.30127,-7.60257,0,0,0,0,0,0,0,-1,1588,407,2.30125,7.60258
371,617,2.60266,-6.20667,0,0,0,0,0,0,0,-1,1595,407,2.60261,6.20668
378,617,2.27588,-7.47134,0,0,0,0,0,0,0,-1,1602,407,2.27582,7.47136
385,617,1.37012,-5.41284,0,0,0,0,0,0,0,-1,1609,407,1.37016,5.41286
392,617,3.40723,-2.54929,0,0,0,0,0,0,0,-1,1616,407,3.40725,2.54929
399,617,3.25,-2.14835,0,0,0,0,0,0,0,-1,1623,407,3.25006,2.14836
406,617,3.02429,-3.19577,0,0,0,0,0,0,0,-1,1630,407,3.02431,3.19577
413,617,2.92786,-3.80649,0,0,0,0,0,0,0,-1,1637,407,2.92788,3.8065
420,617,3.42737,-4.47391,0,0,0,0,0,0,0,-1,1644,407,3.42737,4.47391
427,617,0,0,0,0,0,0,0,0,0,-1,1651,407,0,0
434,617,0,0,0,0,0,0,0,0,0,-1,1658,407,0,0
441,617,0,0,0,0,0,0,0,0,0,-1,1665,407,0,0
448,617,0,0,0,0,0,0,0,0,0,-1,1672,407,0,0
455,617,0,0,0,0,0,0,0,0,0,-1,1679,407,0,0
462,617,0,0,0,0,0,0,0,0,0,-1,1686,407,0,0
469,617,0,0,0,0,0,0,0,0,0,-1,1693,407,0,0
476,617,0,0,0,0,0,0,0,0,0,-1,1700,407,0,0
483,617,0,0,0,0,0,0,0,0,0,-1,1707,407,0,0
490,617,0,0,0,0,0,0,0,0,0,-1,1714,407,0,0
497,617,0,0,0,0,0,0,0,0,0,-1,1721,407,0,0
504,617,0,0,0,0,0,0,0,0,0,-1,1728,407,0,0
511,617,0,0,0,0,0,0,0,0,0,-1,1735,407,0,0
518,617,0,0,0,0,0,0,0,0,0,-1,1742,407,0,0
525,617,0,0,0,0,0,0,0,0,0,-1,1749,407,0,0
532,617,0,0,0,0,0,0,0,0,0,-1,1756,407,0,0
539,617,0,0,0,0,0,0,0,0,0,-1,1763,407,0,0
546,617,0,0,0,0,0,0,0,0,0,-1,1770,407,0,0
553,617,0,0,0,0,0,0,0,0,0,-1,1777,407,0,0
560,617,0,0,0,0,0,0,0,0,0,-1,1784,407,0,0
567,617,0,0,0,0,0,0,0,0,0,-1,1791,407,0,0
574,617,0,0,0,0,0,0,0,0,0,-1,1798,407,0,0
581,617,0,0,0,0,0,0,0,0,0,-1,1805,407,0,0
588,617,0,0,0,0,0,0,0,0,0,-1,1812,407,0,0
595,617,0,0,0,0,0,0,0,0,0,-1,1819,407,0,0
602,617,0,0,0,0,0,0,0,0,0,-1,1826,407,0,0
609,617,0,0,0,0,0,0,0,0,0,-1,1833,407,0,0
616,617,0,0,0,0,0,0,0,0,0,-1,1840,407,0,0
623,617,0,0,0,0,0,0,0,0,0,-1,1847,407,0,0
630,617,0,0,0,0,0,0,0,0,0,-1,1854,407,0,0
637,617,0,0,0,0,0,0,0,0,0,-1,1861,407,0,0
644,617,0,0,0,0,0,0,0,0,0,-1,1868,407,0,0
651,617,0,0,0,0,0,0,0,0,0,-1,1875,407,0,0
658,617,0,0,0,0,0,0,0,0,0,-1,1882,407,0,0
665,617,0,0,0,0,0,0,0,0,0,-1,1889,407,0,0
672,617,0,0,0,0,0,0,0,0,0,-1,1896,407,0,0
679,617,0,0,0,0,0,0,0,0,0,-1,1903,407,0,0
686,617,0,0,0,0,0,0,0,0,0,-1,1910,407,0,0
693,617,0,0,0,0,0,0,0,0,0,-1,1917,407,0,0
700,617,0,0,0,0,0,0,0,0,0,-1,1924,407,0,0
707,617,0,0,0,0,0,0,0,0,0,-1,1931,407,0,0
714,617,0,0,0,0,0,0,0,0,0,-1,1938,407,0,0
721,617,0,0,0,0,0,0,0,0,0,-1,1945,407,0,0
728,617,0,0,0,0,0,0,0,0,0,-1,1952,407,0,0
735,617,0,0,0,0,0,0,0,0,0,-1,1959,407,0,0
742,617,0,0,0,0,0,0,0,0,0,-1,1966,407,0,0
749,617,0,0,0,0,0,0,0,0,0,-1,1973,407,0,0
756,617,0,0,0,0,0,0,0,0,0,-1,1980,407,0,0
763,617,0,0,0,0,0,0,0,0,0,-1,1987,407,0,0
770,617,0,0,0,0,0,0,0,0,0,-1,1994,407,0,0
777,617,0,0,0,0,0,0,0,0,0,-1,2001,407,0,0
784,617,0,0,0,0,0,0,0,0,0,-1,2008,407,0,0
791,617,0,0,0,0,0,0,0,0,0,-1,2015,407,0,0
798,617,0,0,0,0,0,0,0,0,0,-1,2022,407,0,0
805,617,0,0,0,0,0,0,0,0,0,-1,2029,407,0,0
812,617,0,0,0,0,0,0,0,0,0,-1,2036,407,0,0
-700,610,0,0,0,0,0,0,0,0,0,-1,524,414,0,0
-693,610,0,0,0,0,0,0,0,0,0,-1,531,414,0,0
-686,610,0,0,0,0,0,0,0,0,0,-1,538,414,0,0
-679,610,0,0,0,0,0,0,0,0,0,-1,545,414,0,0
-672,610,0,0,0,0,0,0,0,0,0,-1,552,414,0,0
-665,610,0,0,0,0,0,0,0,0,0,-1,559,414,0,0
-658,610,0,0,0,0,0,0,0,0,0,-1,566,414,0,0
-651,610,0,0,0,0,0,0,0,0,0,-1,573,414,0,0
-644,610,0,0,0,0,0,0,0,0,0,-1,580,414,0,0
-637,610,0,0,0,0,0,0,0,0,0,-1,587,414,0,0
-630,610,0,0,0,0,0,0,0,0,0,-1,594,414,0,0
-623,610,0,0,0,0,0,0,0,0,0,-1,601,414,0,0
-616,610,0,0,0,0,0,0,0,0,0,-1,608,414,0,0
-609,610,0,0,0,0,0,0,0,0,0,-1,615,414,0,0
-602,610,0,0,0,0,0,0,0,0,0,-1,622,414,0,0
-595,610,0,0,0,0,0,0,0,0,0,-1,629,414,0,0
-588,610,0,0,0,0,0,0,0,0,0,-1,636,414,0,0
-581,610,0,0,0,0,0,0,0,0,0,-1,643,414,0,0
-574,610,0,0,0,0,0,0,0,0,0,-1,650,414,0,0
-567,610,0,0,0,0,0,0,0,0,0,-1,657,414,0,0
-560,610,0,0,0,0,0,0,0,0,0,-1,664,414,0,0
-553,610,0,0,0,0,0,0,0,0,0,-1,671,414,0,0
-546,610,0,0,0,0,0,0,0,0,0,-1,678,414,0,0
-539,610,0,0,0,0,0,0,0,0,0,-1,685,414,0,0
-532,610,0,0,0,0,0,0,0,0,0,-1,692,414,0,0
-525,610,0,0,0,0,0,0,0,0,0,-1,699,414,0,0
-518,610,0,0,0,0,0,0,0,0,0,-1,706,414,0,0
-511,610,0,0,0,0,0,0,0,0,0,-1,713,414,0,0
-504,610,0,0,0,0,0,0,0,0,0,-1,720,414,0,0
-497,610,0,0,0,0,0,0,0,0,0,-1,727,414,0,0
-490,610,0,0,0,0,0,0,0,0,0,-1,734,414,0,0
-483,610,0,0,0,0,0,0,0,0,0,-1,741,414,0,0
-476,610,0,0,0,0,0,0,0,0,0,-1,748,414,0,0
-469,610,0,0,0,0,0,0,0,0,0,-1,755,414,0,0
-462,610,0,0,0,0,0,0,0,0,0,-1,762,414,0,0
-455,610,0,0,0,0,0,0,0,0,0,-1,769,414,0,0
-448,610,0,0,0,0,0,0,0,0,0,-1,776,414,0,0
-441,610,0,0,0,0,0,0,0,0,0,-1,783,414,0,0
-434,610,0,0,0,0,0,0,0,0,0,-1,790,414,0,0
-427,610,0,0,0,0,0,0,0,0,0,-1,797,414,0,0
-420,610,0,0,0,0,0,0,0,0,0,-1,804,414,0,0
-413,610,0,0,0,0,0,0,0,0,0,-1,811,414,0,0
-406,610,0,0,0,0,0,0,0,0,0,-1,818,414,0,0
-399,610,0,0,0,0,0,0,0,0,0,-1,825,414,0,0
-392,610,0,0,0,0,0,0,0,0,0,-1,832,414,0,0
-385,610,0,0,0,0,0,0,0,0,0,-1,839,414,0,0
-378,610,0,0,0,0,0,0,0,0,0,-1,846,414,0,0
-371,610,0,0,0,0,0,0,0,0,0,-1,853,414,0,0
-364,610,0,0,0,0,0,0,0,0,0,-1,860,414,0,0
-357,610,0,0,0,0,0,0,0,0,0,-1,867,414,0,0
-350,610,0,0,0,0,0,0,0,0,0,-1,874,414,0,0
-343,610,0,0,0,0,0,0,0,0,0,-1,881,414,0,0
-336,610,0,0,0,0,0,0,0,0,0,-1,888,414,0,0
-329,610,0,0,0,0,0,0,0,0,0,-1,895,414,0,0
-322,610,0,0,0,0,0,0,0,0,0,-1,902,414,0,0
-315,610,5.57825,-7.69159,0,0,0,0,0,0,0,-1,909,414,5.57823,7.69159
-308,610,5.54938,-7.44653,0,0,0,0,0,0,0,-1,916,414,5.54937,7.44653
-301,610,-1.54291,-9.7341,0,0,0,0,0,0,0,-1,923,414,-1.54293,9.73409
-294,610,-1.43835,-9.29047,0,0,0,0,0,0,0,-1,930,414,-1.43836,9.29047
-287,610,-0.141846,-9.6178,0,0,0,0,0,0,0,-1,937,414,-0.141819,9.61781
-280,610,0.0545654,-9.20004,0,0,0,0,0,0,0,-1,944,414,0.054548,9.20003
-273,610,0.235474,-8.77753,0,0,0,0,0,0,0,-1,951,414,0.235468,8.77751
-266,610,0.508606,-8.20007,0,0,0,0,0,0,0,-1,958,414,0.508592,8.20008
-259,610,2.27576,-8.63998,0,0,0,0,0,0,0,-1,965,414,2.27577,8.63997
-252,610,2.23352,-8.80371,0,0,0,0,0,0,0,-1,972,414,2.2335,8.80372
-245,610,1.98608,-9.2623,0.00600273,-0.00506323,0.000128431,0.00600422,-0.00506472,0.0116039,0.00639832,0.0484088,979,414,1.98607,9.26229
-238,610,1.97699,-9.00168,0.00251271,-0.00130874,-0.000502922,0.00257779,-0.00137382,-0.128686,0.00231649,0.0402771,986,414,1.97698,9.00168
-231,610,2.02179,-9.05881,0.00153475,-0.00201574,0.000263259,0.00155416,-0.00203515,0.073611,0.00207848,0.0344759,993,414,2.02177,9.0588
-224,610,2.03149,-9.3006,0.00091831,-0.00149914,0.000553364,0.00103896,-0.00161978,0.214665,0.00154718,0.0251516,1000,414,2.03151,9.30059
-217,610,2.03143,-9.47415,0.000226039,-0.000934712,0.000678601,0.0005386,-0.00124727,0.43163,0.00105779,0.0148095,1007,414,2.03143,9.47415
-210,610,2.00189,-9.61542,-4.05155e-06,-0.000977382,-6.99063e-06,-4.00137e-06,-0.000977432,-0.00718168,0.000650292,0.00966597,1014,414,2.0019,9.61541
-203,610,1.974,-9.74313,0.000114613,-0.00117768,-0.000622581,0.000365747,-0.00142881,-0.383413,0.00109501,0.0122321,1021,414,1.97401,9.74315
-196,610,1.9751,-9.88522,0.000210306,-0.00118701,-0.000849487,0.000611535,-0.00158824,-0.441259,0.0013111,0.0126975,1028,414,1.97513,9.88522
-189,610,1.97986,-10.009,0.000288911,-0.00125975,-0.00112496,0.000880278,-0.00185112,-0.483978,0.00160983,0.00996646,1035,414,1.97988,10.009
-182,610,1.97034,-10.1394,0.000426585,-0.00153422,-0.00117012,0.00097274,-0.00208038,-0.436695,0.00180097,0.010763,1042,414,1.97028,10.1394
-175,610,1.94751,-10.2588,0.0005884,-0.00170137,-0.00108594,0.0010215,-0.00213447,-0.379491,0.00185948,0.0112519,1049,414,1.94746,10.2588
-168,610,1.93616,-10.3924,0.000681155,-0.00191987,-0.000847609,0.000932986,-0.00217171,-0.288802,0.00183944,0.0107419,1056,414,1.93616,10.3924
-161,610,1.92615,-10.5381,0.000812732,-0.00186897,-0.000603237,0.000942179,-0.00199842,-0.211382,0.00173388,0.0108688,1063,414,1.92619,10.5381
-154,610,1.93884,-10.6465,0.000992935,-0.00156118,-0.000376578,0.0010473,-0.00161555,-0.143376,0.00154902,0.0131929,1070,414,1.9389,10.6465
-147,610,1.95715,-10.7206,0.0012381,-0.0013253,-0.000187553,0.00125175,-0.00133895,-0.07265,0.00149603,0.0137501,1077,414,1.95717,10.7206
-140,610,1.93042,-10.8352,0.00153896,-0.00097678,-5.39453e-05,0.00154012,-0.000977936,-0.02143,0.00146583,0.0107467,1084,414,1.93037,10.8352
-133,610,1.93176,-10.9416,0.00183414,-0.000436405,2.98245e-05,0.00183453,-0.000436797,0.0131324,0.00139166,0.0125039,1091,414,1.93172,10.9416
-126,610,1.92139,-11.0327,0.00207942,0.000204877,-1.65626e-05,0.00207956,0.000204731,-0.00883463,0.00132342,0.0116053,1098,414,1.92135,11.0327
-119,610,1.92493,-11.1249,0.00235173,0.000902128,-0.000154023,0.00236791,0.000885944,-0.104695,0.00138148,0.00991038,1105,414,1.92494,11.1249
-112,610,1.94482,-11.2029,0.00260433,0.00165184,-0.000389437,0.00274328,0.00151288,-0.342728,0.00158663,0.0177358,1112,414,1.94481,11.2029
-105,610,1.95862,-11.2988,0.00277475,0.00233153,-0.000627585,0.0032187,0.00188758,-0.615674,0.00186755,0.0171068,1119,414,1.95861,11.2988
-98,610,1.93921,-11.4007,0.00286734,0.0028366,-0.000919689,0.00377179,0.00193215,-0.777041,0.00217786,0.012094,1126,414,1.93927,11.4007
-91,610,1.93982,-11.4782,0.00299068,0.00302224,-0.0011638,0.00417037,0.00184256,-0.792178,0.00241319,0.0131179,1133,414,1.93988,11.4782
-84,610,1.94666,-11.5598,0.00309444,0.00301438,-0.0012037,0.00425877,0.00185004,-0.768777,0.00246585,0.0132798,1140,414,1.94667,11.5598
-77,610,1.9491,-11.6484,0.00309148,0.00296445,-0.00112386,0.00415362,0.00190231,-0.75717,0.00240091,0.0101327,1147,414,1.94911,11.6484
-70,610,1.96741,-11.7079,0.00307756,0.00288339,-0.000920216,0.0039058,0.00205515,-0.732839,0.00225604,0.0117185,1154,414,1.96735,11.7079
-63,610,1.97656,-11.766,0.00289613,0.00286977,-0.000672496,0.00355557,0.00221032,-0.7756,0.00207296,0.0106564,1161,414,1.97662,11.766
-56,610,1.97815,-11.8177,0.00254716,0.00291405,-0.000306366,0.00308769,0.00237351,-1.05516,0.00186652,0.00823759,1168,414,1.97817,11.8177
-49,610,1.97644,-11.8706,0.0022575,0.00220858,1.25377e-05,0.00226053,0.00220556,0.23684,0.00148903,0.00862605,1175,414,1.9765,11.8706
-42,610,1.98682,-11.9359,0.00387837,0.00194191,0.00233927,0.00544187,0.000378411,0.589182,0.00350858,0.0129265,1182,414,1.9868,11.9359
-35,610,2.01941,-11.981,0.00605504,0.00183065,0.00466781,0.0090663,-0.00118061,0.572931,0.00647372,0.0133709,1189,414,2.01943,11.981
-28,610,2.05066,-12.0076,0.00798804,0.00109764,0.00597061,0.0114361,-0.00235045,0.52372,0.00851639,0.0108451,1196,414,2.05063,12.0076
-21,610,2.04138,-12.0527,0.00913914,0.000272903,0.0066877,0.0127296,-0.00331756,0.492711,0.00978162,0.0102822,1203,414,2.04134,12.0527
-14,610,2.03174,-12.0632,0.0122468,-0.00153686,0.00585376,0.0143973,-0.00368737,0.352066,0.0110346,0.0124866,1210,414,2.03175,12.0632
-7,610,2.04541,-12.0806,0.0152506,-0.00315367,0.0071036,0.0176734,-0.00557652,0.328701,0.0140159,0.0137718,1217,414,2.04543,12.0806
0,610,2.07336,-12.1158,0.0162115,-0.00406155,0.00679305,0.0182772,-0.00612726,0.295207,0.0146604,0.0100895,1224,414,2.07331,12.1158
7,610,2.09656,-12.1313,0.0166601,-0.00495856,0.00636148,0.0183931,-0.00669156,0.265967,0.0149987,0.010659,1231,414,2.09656,12.1313
14,610,2.11316,-12.1508,0.0163384,-0.00532658,0.00546216,0.0176376,-0.00662578,0.233516,0.0144814,0.0125678,1238,414,2.1132,12.1508
21,610,2.13269,-12.1754,0.0153358,-0.00576555,0.00431162,0.0161827,-0.00661254,0.193974,0.013542,0.0113461,1245,414,2.13275,12.1754
28,610,2.14954,-12.1994,0.0134806,-0.00558915,0.00314184,0.0139849,-0.00609345,0.159153,0.011887,0.0113513,1252,414,2.14949,12.1994
35,610,2.16089,-12.2118,0.0119025,-0.00466116,0.0017921,0.0120942,-0.00485284,0.106552,0.0100777,0.0143712,1259,414,2.16094,12.2118
42,610,2.16931,-12.2044,0.010178,-0.00371587,0.000432275,0.0101914,-0.00372931,0.0310727,0.00832078,0.0142121,1266,414,2.16936,12.2044
49,610,2.19092,-12.2116,0.00745352,-0.00196192,-0.0010612,0.00757165,-0.00208004,-0.110855,0.00586537,0.0148547,1273,414,2.19096,12.2116
56,610,2.23279,-12.1962,0.00491767,0.000194667,-0.00235811,0.00589344,-0.000781103,-0.39234,0.00421353,0.0132092,1280,414,2.23275,12.1962
63,610,2.2262,-12.1601,0.00263407,0.00251906,-0.0036986,0.00627561,-0.00112248,-0.777624,0.00460374,0.0151437,1287,414,2.22614,12.1601
70,610,2.23914,-12.1531,0.000856444,0.00465211,-0.00481017,0.0079253,-0.00241675,-0.973296,0.00624694,0.0214953,1294,414,2.23909,12.1531
77,610,2.25732,-12.1605,0.000385939,0.00643357,-0.00514972,0.00938161,-0.0025621,-1.05087,0.00726072,0.0283569,1301,414,2.25732,12.1605
84,610,2.25537,-12.137,0.000419853,0.00800139,-0.00544427,0.0108446,-0.00242339,-1.08951,0.00815842,0.0299754,1308,414,2.25539,12.137
91,610,2.30554,-12.0774,0.000104556,0.00954904,-0.00497905,0.0116891,-0.00203546,-1.16486,0.00855231,0.0250214,1315,414,2.3055,12.0774
98,610,2.37231,-12.0798,0.000638636,0.00961492,-0.00493182,0.0117951,-0.00154153,-1.15456,0.00842438,0.023737,1322,414,2.37233,12.0798
105,610,2.34875,-12.0504,0.0024803,0.00869845,-0.00354735,0.0103064,0.000872388,-1.14522,0.00659937,0.0191341,1329,414,2.34872,12.0504
112,610,2.35242,-11.9865,0.00397838,0.00748467,-0.00222532,0.00856447,0.00289858,-1.11903,0.00503,0.0129537,1336,414,2.35239,11.9865
119,610,2.33142,-11.9433,0.00560867,0.00564179,-0.00053559,0.00616107,0.00508938,-0.800853,0.00380085,0.0184485,1343,414,2.33138,11.9433
126,610,2.32178,-11.9248,0.00699645,0.00392633,0.00117427,0.00739409,0.00352869,0.326506,0.00427045,0.0248476,1350,414,2.32181,11.9248
133,610,2.38159,-11.8542,0.00813886,0.00180609,0.00269651,0.00913146,0.000813495,0.352713,0.00583541,0.0189346,1357,414,2.38162,11.8542
140,610,2.40381,-11.8129,0.0081252,-0.000533837,0.00419479,0.00982403,-0.00223267,0.384797,0.00740661,0.0148064,1364,414,2.40387,11.8129
147,610,2.39587,-11.7496,0.00791924,-0.00209692,0.005294,0.0101986,-0.00437632,0.406572,0.00863576,0.0163224,1371,414,2.39591,11.7496
154,610,2.39917,-11.6815,0.00855898,-0.00378457,0.00621449,0.0111457,-0.00637125,0.394423,0.0102379,0.0213282,1378,414,2.39921,11.6815
161,610,2.46021,-11.6198,0.00836405,-0.00491463,0.0064576,0.0109865,-0.00753711,0.385761,0.0107563,0.0266619,1385,414,2.46023,11.6198
168,610,2.48523,-11.5758,0.00758028,-0.00569237,0.00614609,0.00998914,-0.00810122,0.373533,0.0104634,0.0276516,1392,414,2.48523,11.5758
175,610,2.47839,-11.5077,0.00604844,-0.00542202,0.00541165,0.00819857,-0.00757215,0.378189,0.00910762,0.0221313,1399,414,2.47836,11.5077
182,610,2.49109,-11.4063,0.00374622,-0.0047074,0.0043842,0.00560933,-0.00657051,0.401837,0.00703933,0.0153129,1406,414,2.49112,11.4062
189,610,2.50708,-11.3113,0.0026511,-0.00407227,0.00340543,0.00407459,-0.00549576,0.395931,0.00554571,0.0132988,1413,414,2.50711,11.3113
196,610,2.49109,-11.2217,0.00201277,-0.00352428,0.00211819,0.00273014,-0.00424165,0.326547,0.00405657,0.0129818,1420,414,2.49109,11.2217
203,610,2.48804,-11.1489,0.000965043,-0.00220169,0.000608398,0.00107791,-0.00231455,0.183425,0.00200154,0.0138798,1427,414,2.48806,11.1489
210,610,2.50671,-11.0612,0.000254671,-0.00123335,-0.000684591,0.000521708,-0.00150039,-0.371915,0.00121218,0.0107233,1434,414,2.50669,11.0612
217,610,2.49744,-10.9261,0.000455314,-0.000880312,-0.000655504,0.000723268,-0.00114827,-0.388049,0.00108978,0.0153617,1441,414,2.49749,10.9261
224,610,2.50085,-10.8546,0.000385223,-0.000526182,-0.000381752,0.000523994,-0.000664954,-0.348661,0.000688046,0.018752,1448,414,2.50086,10.8546
231,610,2.52979,-10.7761,0.000420557,-0.000128047,-9.96346e-05,0.000438092,-0.000145581,-0.174206,0.000350806,0.0152951,1455,414,2.52979,10.7761
238,610,2.52417,-10.6431,0.000545291,0.00031277,0.000156811,0.000624238,0.000233822,0.466409,0.000364164,0.0112062,1462,414,2.52417,10.6431
245,610,2.53186,-10.5241,0.000709573,0.000778721,0.000354294,0.00110012,0.000388171,0.834037,0.000644261,0.0120806,1469,414,2.53186,10.5241
252,610,2.54956,-10.4025,0.000843208,0.00124162,0.000525226,0.00160415,0.00048068,0.966656,0.000950617,0.0136705,1476,414,2.54953,10.4025
259,610,2.53967,-10.2911,0.000923919,0.00167583,0.000743401,0.00213294,0.000466817,1.01951,0.00129471,0.0125553,1483,414,2.53972,10.2911
266,610,2.53796,-10.1555,0.000989337,0.00219947,0.000926472,0.00270095,0.000487852,1.07467,0.00166206,0.0126398,1490,414,2.53797,10.1555
273,610,2.53052,-10.0161,0.00107011,0.00257505,0.00119188,0.00323212,0.00041304,1.06697,0.00203112,0.0099219,1497,414,2.5305,10.0161
280,610,2.51013,-9.87201,0.00116942,0.00334313,0.00153498,0.00413707,0.000375479,1.09346,0.0026418,0.00942298,1504,414,2.51016,9.87201
287,610,2.48462,-9.72461,0.0012279,0.00388982,0.00185697,0.00484355,0.000274173,1.09633,0.00314163,0.0127109,1511,414,2.48456,9.72462
294,610,2.51257,-9.58676,0.00126416,0.0045194,0.002217,0.00564209,0.000141467,1.10204,0.00371514,0.0110248,1518,414,2.51258,9.58676
301,610,2.53003,-9.47055,0.00126519,0.00510782,0.00257901,0.00640252,-2.95083e-05,1.10554,0.00427822,0.00995369,1525,414,2.53006,9.47054
308,610,2.52478,-9.31326,0.00129241,0.00584781,0.00297526,0.00731712,-0.000176906,1.11209,0.00493811,0.0118349,1532,414,2.52479,9.31328
315,610,2.49829,-9.16867,0.00124735,0.00645272,0.00328777,0.00804329,-0.000343221,1.12021,0.00548019,0.0126532,1539,414,2.4983,9.16866
322,610,2.505,-9.0199,0.00105489,0.00698788,0.00358702,0.00867615,-0.000633378,1.13089,0.00600637,0.0123014,1546,414,2.50504,9.0199
329,610,2.49048,-8.85611,0.000653001,0.00742288,0.00369017,0.00904545,-0.000969574,1.15654,0.00637811,0.0112971,1553,414,2.49043,8.8561
336,610,2.50024,-8.6673,-5.84293e-05,0.0075421,0.00331559,0.00878517,-0.00130149,1.2121,0.00633533,0.0126613,1560,414,2.50027,8.66731
343,610,2.50916,-8.47552,-0.000735085,0.00759402,0.0030415,0.00858643,-0.00172749,1.2554,0.00637857,0.0257515,1567,414,2.50916,8.47553
350,610,2.48376,-8.40466,-0.00167644,0.00758611,0.00262078,0.00827623,-0.00236656,1.31332,0.00645265,0.0452545,1574,414,2.48381,8.40466
357,610,2.48767,-8.034,0,0,0,0,0,0,0,-1,1581,414,2.48763,8.03399
364,610,2.4259,-7.91614,0,0,0,0,0,0,0,-1,1588,414,2.42585,7.91614
371,610,2.52515,-7.69061,0,0,0,0,0,0,0,-1,1595,414,2.52517,7.6906
378,610,2.41272,-7.60858,0,0,0,0,0,0,0,-1,1602,414,2.41268,7.60857
385,610,1.62488,-7.60287,0,0,0,0,0,0,0,-1,1609,414,1.62483,7.60287
392,610,2.54626,0.0437622,0,0,0,0,0,0,0,-1,1616,414,2.54632,-0.0437683
399,610,3.03833,-2.82547,0,0,0,0,0,0,0,-1,1623,414,3.03827,2.82546
406,610,2.91687,-2.9166,0,0,0,0,0,0,0,-1,1630,414,2.91688,2.91659
413,610,3.01929,-3.20306,0,0,0,0,0,0,0,-1,1637,414,3.01929,3.20306
420,610,4.78149,-3.64041,0,0,0,0,0,0,0,-1,1644,414,4.78152,3.64042
427,610,5.20764,-4.67545,0,0,0,0,0,0,0,-1,1651,414,5.20759,4.67545
434,610,5.39233,-5.45441,0,0,0,0,0,0,0,-1,1658,414,5.39228,5.4544
441,610,0,0,0,0,0,0,0,0,0,-1,1665,414,0,0
448,610,0,0,0,0,0,0,0,0,0,-1,1672,414,0,0
455,610,0,0,0,0,0,0,0,0,0,-1,1679,414,0,0
462,610,0,0,0,0,0,0,0,0,0,-1,1686,414,0,0
469,610,0,0,0,0,0,0,0,0,0,-1,1693,414,0,0
476,610,0,0,0,0,0,0,0,0,0,-1,1700,414,0,0
483,610,0,0,0,0,0,0,0,0,0,-1,1707,414,0,0
490,610,0,0,0,0,0,0,0,0,0,-1,1714,414,0,0
497,610,0,0,0,0,0,0,0,0,0,-1,1721,414,0,0
504,610,0,0,0,0,0,0,0,0,0,-1,1728,414,0,0
511,610,0,0,0,0,0,0,0,0,0,-1,1735,414,0,0
518,610,0,0,0,0,0,0,0,0,0,-1,1742,414,0,0
525,610,0,0,0,0,0,0,0,0,0,-1,1749,414,0,0
532,610,0,0,0,0,0,0,0,0,0,-1,1756,414,0,0
539,610,0,0,0,0,0,0,0,0,0,-1,1763,414,0,0
546,610,0,0,0,0,0,0,0,0,0,-1,1770,414,0,0
553,610,0,0,0,0,0,0,0,0,0,-1,1777,414,0,0
560,610,0,0,0,0,0,0,0,0,0,-1,1784,414,0,0
567,610,0,0,0,0,0,0,0,0,0,-1,1791,414,0,0
574,610,0,0,0,0,0,0,0,0,0,-1,1798,414,0,0
581,610,0,0,0,0,0,0,0,0,0,-1,1805,414,0,0
588,610,0,0,0,0,0,0,0,0,0,-1,1812,414,0,0
595,610,0,0,0,0,0,0,0,0,0,-1,1819,414,0,0
602,610,0,0,0,0,0,0,0,0,0,-1,1826,414,0,0
609,610,0,0,0,0,0,0,0,0,0,-1,1833,414,0,0
616,610,0,0,0,0,0,0,0,0,0,-1,1840,414,0,0
623,610,0,0,0,0,0,0,0,0,0,-1,1847,414,0,0
630,610,0,0,0,0,0,0,0,0,0,-1,1854,414,0,0
637,610,0,0,0,0,0,0,0,0,0,-1,1861,414,0,0
644,610,0,0,0,0,0,0,0,0,0,-1,1868,414,0,0
651,610,0,0,0,0,0,0,0,0,0,-1,1875,414,0,0
658,610,0,0,0,0,0,0,0,0,0,-1,1882,414,0,0
665,610,0,0,0,0,0,0,0,0,0,-1,1889,414,0,0
672,610,0,0,0,0,0,0,0,0,0,-1,1896,414,0,0
679,610,0,0,0,0,0,0,0,0,0,-1,1903,414,0,0
686,610,0,0,0,0,0,0,0,0,0,-1,1910,414,0,0
693,610,0,0,0,0,0,0,0,0,0,-1,1917,414,0,0
700,610,0,0,0,0,0,0,0,0,0,-1,1924,414,0,0
707,610,0,0,0,0,0,0,0,0,0,-1,1931,414,0,0
714,610,0,0,0,0,0,0,0,0,0,-1,1938,414,0,0
721,610,0,0,0,0,0,0,0,0,0,-1,1945,414,0,0
728,610,0,0,0,0,0,0,0,0,0,-1,1952,414,0,0
735,610,0,0,0,0,0,0,0,0,0,-1,1959,414,0,0
742,610,0,0,0,0,0,0,0,0,0,-1,1966,414,0,0
749,610,0,0,0,0,0,0,0,0,0,-1,1973,414,0,0
756,610,0,0,0,0,0,0,0,0,0,-1,1980,414,0,0
763,610,0,0,0,0,0,0,0,0,0,-1,1987,414,0,0
770,610,0,0,0,0,0,0,0,0,0,-1,1994,414,0,0
777,610,0,0,0,0,0,0,0,0,0,-1,2001,414,0,0
784,610,0,0,0,0,0,0,0,0,0,-1,2008,414,0,0
791,610,0,0,0,0,0,0,0,0,0,-1,2015,414,0,0
798,610,0,0,0,0,0,0,0,0,0,-1,2022,414,0,0
805,610,0,0,0,0,0,0,0,0,0,-1,2029,414,0,0
812,610,0,0,0,0,0,0,0,0,0,-1,2036,414,0,0
-700,603,0,0,0,0,0,0,0,0,0,-1,524,421,0,0
-693,603,0,0,0,0,0,0,0,0,0,-1,531,421,0,0
-686,603,0,0,0,0,0,0,0,0,0,-1,538,421,0,0
-679,603,0,0,0,0,0,0,0,0,0,-1,545,421,0,0
-672,603,0,0,0,0,0,0,0,0,0,-1,552,421,0,0
-665,603,0,0,0,0,0,0,0,0,0,-1,559,421,0,0
-658,603,0,0,0,0,0,0,0,0,0,-1,566,421,0,0
-651,603,0,0,0,0,0,0,0,0,0,-1,573,421,0,0
-644,603,0,0,0,0,0,0,0,0,0,-1,580,421,0,0
-637,603,0,0,0,0,0,0,0,0,0,-1,587,421,0,0
-630,603,0,0,0,0,0,0,0,0,0,-1,594,421,0,0
-623,603,0,0,0,0,0,0,0,0,0,-1,601,421,0,0
-616,603,0,0,0,0,0,0,0,0,0,-1,608,421,0,0
-609,603,0,0,0,0,0,0,0,0,0,-1,615,421,0,0
-602,603,0,0,0,0,0,0,0,0,0,-1,622,421,0,0
-595,603,0,0,0,0,0,0,0,0,0,-1,629,421,0,0
-588,603,0,0,0,0,0,0,0,0,0,-1,636,421,0,0
-581,603,0,0,0,0,0,0,0,0,0,-1,643,421,0,0
-574,603,0,0,0,0,0,0,0,0,0,-1,650,421,0,0
-567,603,0,0,0,0,0,0,0,0,0,-1,657,421,0,0
-560,603,0,0,0,0,0,0,0,0,0,-1,664,421,0,0
-553,603,0,0,0,0,0,0,0,0,0,-1,671,421,0,0
-546,603,0,0,0,0,0,0,0,0,0,-1,678,421,0,0
-539,603,0,0,0,0,0,0,0,0,0,-1,685,421,0,0
-532,603,0,0,0,0,0,0,0,0,0,-1,692,421,0,0
-525,603,0,0,0,0,0,0,0,0,0,-1,699,421,0,0
-518,603,0,0,0,0,0,0,0,0,0,-1,706,421,0,0
-511,603,0,0,0,0,0,0,0,0,0,-1,713,421,0,0
-504,603,0,0,0,0,0,0,0,0,0,-1,720,421,0,0
-497,603,0,0,0,0,0,0,0,0,0,-1,727,421,0,0
-490,603,0,0,0,0,0,0,0,0,0,-1,734,421,0,0
-483,603,0,0,0,0,0,0,0,0,0,-1,741,421,0,0
-476,603,0,0,0,0,0,0,0,0,0,-1,748,421,0,0
-469,603,0,0,0,0,0,0,0,0,0,-1,755,421,0,0
-462,603,0,0,0,0,0,0,0,0,0,-1,762,421,0,0
-455,603,0,0,0,0,0,0,0,0,0,-1,769,421,0,0
-448,603,0,0,0,0,0,0,0,0,0,-1,776,421,0,0
-441,603,0,0,0,0,0,0,0,0,0,-1,783,421,0,0
-434,603,0,0,0,0,0,0,0,0,0,-1,790,421,0,0
-427,603,0,0,0,0,0,0,0,0,0,-1,797,421,0,0
-420,603,0,0,0,0,0,0,0,0,0,-1,804,421,0,0
-413,603,0,0,0,0,0,0,0,0,0,-1,811,421,0,0
-406,603,0,0,0,0,0,0,0,0,0,-1,818,421,0,0
-399,603,0,0,0,0,0,0,0,0,0,-1,825,421,0,0
-392,603,0,0,0,0,0,0,0,0,0,-1,832,421,0,0
-385,603,0,0,0,0,0,0,0,0,0,-1,839,421,0,0
-378,603,0,0,0,0,0,0,0,0,0,-1,846,421,0,0
-371,603,0,0,0,0,0,0,0,0,0,-1,853,421,0,0
-364,603,0,0,0,0,0,0,0,0,0,-1,860,421,0,0
-357,603,0,0,0,0,0,0,0,0,0,-1,867,421,0,0
-350,603,0,0,0,0,0,0,0,0,0,-1,874,421,0,0
-343,603,0,0,0,0,0,0,0,0,0,-1,881,421,0,0
-336,603,0,0,0,0,0,0,0,0,0,-1,888,421,0,0
-329,603,4.6095,-8.85309,0,0,0,0,0,0,0,-1,895,421,4.60952,8.8531
-322,603,4.4209,-8.48056,0,0,0,0,0,0,0,-1,902,421,4.42093,8.48056
-315,603,3.94946,-8.08862,0,0,0,0,0,0,0,-1,909,421,3.94948,8.08863
-308,603,3.67664,-7.59,0,0,0,0,0,0,0,-1,916,421,3.67665,7.58999
-301,603,3.79938,-6.92474,0,0,0,0,0,0,0,-1,923,421,3.79937,6.92473
-294,603,1.87543,-6.70303,0,0,0,0,0,0,0,-1,930,421,1.87541,6.70304
-287,603,2.03363,-6.82123,0,0,0,0,0,0,0,-1,937,421,2.0336,6.82123
-280,603,-0.321289,-8.09372,0,0,0,0,0,0,0,-1,944,421,-0.321311,8.09372
-273,603,0.822205,-8.12845,0,0,0,0,0,0,0,-1,951,421,0.822189,8.12845
-266,603,1.98193,-8.14664,0,0,0,0,0,0,0,-1,958,421,1.98195,8.14663
-259,603,1.9649,-8.4852,0.00873938,-0.00217153,-0.0023552,0.00922606,-0.00265821,-0.203772,0.00720219,0.0452903,965,421,1.96488,8.48519
-252,603,1.98511,-8.7345,0.0062582,-0.00208249,-0.00161298,0.00655926,-0.00238355,-0.184526,0.00534746,0.0415902,972,421,1.98508,8.7345
-245,603,1.92914,-8.97116,0.00427607,-0.00211299,-0.000949249,0.00441412,-0.00225104,-0.144419,0.0039151,0.0309059,979,421,1.92914,8.97117
-238,603,1.91821,-8.96515,0.00191627,-0.000296127,-0.000964612,0.00227778,-0.000657631,-0.358566,0.00177872,0.0173552,986,421,1.91823,8.96515
-231,603,1.90265,-9.15729,0.0011717,-0.00108501,-0.000220785,0.0011931,-0.0011064,-0.0966144,0.00132793,0.0128289,993,421,1.90268,9.15728
-224,603,1.87231,-9.32742,0.000733369,-0.000810354,0.000116465,0.000742106,-0.000819091,0.0748792,0.000901723,0.0129354,1000,421,1.87234,9.32743
-217,603,1.86133,-9.4516,0.000178314,-0.000482648,0.000354895,0.000332774,-0.000637108,0.410502,0.000569076,0.0113004,1007,421,1.86133,9.45161
-210,603,1.86798,-9.61176,-4.80689e-05,-0.000502381,1.0635e-05,-4.78201e-05,-0.00050263,0.023392,0.000320339,0.00938467,1014,421,1.868,9.61175
-203,603,1.85797,-9.77756,-2.69005e-05,-0.000594642,-0.000294096,9.79766e-05,-0.000719519,-0.401543,0.000515452,0.0145663,1021,421,1.85797,9.77756
-196,603,1.88611,-9.93207,-9.50776e-07,-0.000549239,-0.000334539,0.000157423,-0.000707612,-0.442149,0.000532036,0.0163358,1028,421,1.88612,9.93207
-189,603,1.8949,-10.032,-2.42533e-05,-0.000442852,-0.000444846,0.000258072,-0.000725177,-0.565514,0.000588644,0.0131742,1035,421,1.89485,10.032
-182,603,1.8501,-10.1657,1.75727e-05,-0.000655684,-0.000362817,0.000175873,-0.000813985,-0.411411,0.000609794,0.0104017,1042,421,1.85006,10.1657
-175,603,1.81555,-10.2804,9.42415e-05,-0.000808997,-0.000148342,0.00011798,-0.000832736,-0.158682,0.000598373,0.0108878,1049,421,1.81551,10.2804
-168,603,1.81714,-10.3838,0.000195448,-0.00106623,0.00016906,0.000217709,-0.00108849,0.13092,0.000808065,0.0127423,1056,421,1.81718,10.3838
-161,603,1.82568,-10.513,0.000408551,-0.00122786,0.000425143,0.000512412,-0.00133172,0.239604,0.00109918,0.012581,1063,421,1.82573,10.513
-154,603,1.82275,-10.6414,0.000716829,-0.00113752,0.000663914,0.00093002,-0.00135071,0.310712,0.00132423,0.0125585,1070,421,1.82273,10.6414
-147,603,1.83228,-10.7246,0.00114351,-0.00105506,0.000819556,0.00141539,-0.00132694,0.320319,0.00158356,0.0133147,1077,421,1.83224,10.7247
-140,603,1.84375,-10.8388,0.00163557,-0.000923892,0.000867729,0.00190202,-0.00119034,0.297923,0.00180106,0.0112661,1084,421,1.84378,10.8388
-133,603,1.83643,-10.926,0.00215572,-0.000623573,0.000828575,0.00238399,-0.000851843,0.268828,0.00193676,0.0123007,1091,421,1.83648,10.926
-126,603,1.8208,-11.0083,0.00267635,-0.000232036,0.000641938,0.00281174,-0.000367422,0.207856,0.0020082,0.0114271,1098,421,1.82075,11.0083
-119,603,1.84766,-11.1094,0.00324606,0.000288956,0.000349841,0.00328689,0.000248132,0.116169,0.00211341,0.0107767,1105,421,1.84761,11.1094
-112,603,1.84863,-11.2072,0.00375611,0.000965051,-4.16051e-05,0.00375673,0.000964431,-0.0149021,0.0022529,0.0148328,1112,421,1.84863,11.2072
-105,603,1.84314,-11.3275,0.00419781,0.00164604,-0.000529704,0.0043034,0.00154045,-0.196756,0.00251776,0.0144396,1119,421,1.84315,11.3275
-98,603,1.84863,-11.3929,0.00453857,0.00232845,-0.00102409,0.00494013,0.00192689,-0.373694,0.00287508,0.0117689,1126,421,1.84865,11.3928
-91,603,1.85181,-11.4655,0.0048148,0.00279482,-0.00134858,0.00548967,0.00211995,-0.463991,0.00319672,0.00874517,1133,421,1.85185,11.4655
-84,603,1.87073,-11.5528,0.00495039,0.00314835,-0.00148317,0.00578478,0.00231396,-0.512443,0.00336203,0.00909342,1140,421,1.87071,11.5528
-77,603,1.89661,-11.6477,0.00494411,0.00344879,-0.00147648,0.00585144,0.00254146,-0.551028,0.00338803,0.0103836,1147,421,1.89665,11.6477
-70,603,1.94434,-11.8141,0.00491188,0.00360321,-0.00123858,0.00565834,0.00285675,-0.542385,0.00326689,0.0235903,1154,421,1.94435,11.8141
-63,603,1.97229,-11.9904,0.00456023,0.00383615,-0.00100636,0.00526769,0.00312869,-0.61273,0.00305914,0.0451673,1161,421,1.97232,11.9905
-56,603,1.98267,-12.1925,0,0,0,0,0,0,0,-1,1168,421,1.98269,12.1925
-49,603,1.9176,-11.8661,0,0,0,0,0,0,0,-1,1175,421,1.91766,11.8661
-42,603,1.92139,-11.9165,0,0,0,0,0,0,0,-1,1182,421,1.92137,11.9165
-35,603,1.87,-11.945,0.0092272,0.00367394,0.00758233,0.0145253,-0.00162416,0.609883,0.0102678,0.0391707,1189,421,1.86996,11.945
-28,603,1.86548,-11.9705,0.0115773,0.00340946,0.00953995,0.0178707,-0.00288397,0.583158,0.0129823,0.0220003,1196,421,1.86547,11.9705
-21,603,1.91418,-12.0192,0.0128915,0.00264693,0.0105251,0.0194745,-0.00393613,0.558933,0.0144746,0.0193988,1203,421,1.91414,12.0192
-14,603,1.99719,-12.032,0.0171735,0.00050965,0.00919826,0.0212524,-0.00356927,0.41739,0.0154956,0.0212407,1210,421,1.99722,12.0321
-7,603,2.05566,-12.0497,0.020904,-0.00122831,0.010592,0.0251561,-0.00548042,0.381753,0.0188648,0.0229899,1217,421,2.05567,12.0497
0,603,2.05591,-12.1136,0.0218663,-0.00225593,0.0097767,0.0253311,-0.00572073,0.340584,0.0190823,0.0256274,1224,421,2.05592,12.1136
7,603,2.03796,-12.1148,0.0223104,-0.00344698,0.00886839,0.0250685,-0.00620507,0.30152,0.0191193,0.0320321,1231,421,2.03794,12.1148
14,603,2.1123,-12.0925,0.0218547,-0.00409397,0.00742885,0.023831,-0.00607026,0.260007,0.0182504,0.0298441,1238,421,2.11235,12.0925
21,603,2.18164,-12.1085,0.0205287,-0.00478187,0.00568094,0.0217453,-0.00599847,0.210969,0.016856,0.0211061,1245,421,2.18168,12.1084
28,603,2.26355,-12.1095,0.0180714,-0.00469681,0.00389946,0.0187208,-0.00534615,0.165005,0.0145927,0.0226045,1252,421,2.26351,12.1095
35,603,2.27368,-12.0714,0.0159571,-0.00376197,0.00197515,0.016153,-0.00395786,0.0988557,0.012302,0.0309039,1259,421,2.2737,12.0714
42,603,2.21375,-12.1443,0.0135195,-0.00276233,6.72306e-05,0.0135198,-0.0027626,0.00412908,0.0100613,0.0284173,1266,421,2.21369,12.1443
49,603,2.21765,-12.1784,0.00984453,-0.000809927,-0.00188645,0.0101687,-0.00113407,-0.170168,0.00718703,0.0164878,1273,421,2.21763,12.1784
56,603,2.21912,-12.1448,0.0064898,0.00161964,-0.00356689,0.00837356,-0.000264117,-0.485891,0.00567246,0.0292469,1280,421,2.21912,12.1448
63,603,2.24146,-12.0538,0.00360058,0.0042672,-0.0052464,0.00919086,-0.00132309,-0.817121,0.00661254,0.036385,1287,421,2.24142,12.0538
70,603,2.32227,-12.082,0.00140347,0.00675976,-0.0066687,0.011268,-0.00310477,-0.97634,0.00873287,0.0419252,1294,421,2.32229,12.082
77,603,2.29224,-12.1428,0.000879015,0.00884566,-0.00713008,0.0130296,-0.00330497,-1.04013,0.00997234,0.0474421,1301,421,2.29223,12.1428
84,603,2.21765,-12.1141,0.00106428,0.0107982,-0.00745576,0.014835,-0.00297244,-1.07456,0.0110153,0.0479215,1308,421,2.21771,12.1141
91,603,2.3457,-11.9772,0.000745585,0.0133004,-0.00647175,0.0160391,-0.00199307,-1.17048,0.0114152,0.0448268,1315,421,2.34566,11.9772
98,603,2.55701,-12.0643,0.00148321,0.0135146,-0.00597124,0.015975,-0.000977192,-1.17995,0.0109902,0.0443655,1322,421,2.55707,12.0643
105,603,2.52429,-12.0673,0.00398172,0.0126489,-0.00374195,0.0140409,0.00258973,-1.21466,0.00862789,0.0374833,1329,421,2.52435,12.0673
112,603,2.44604,-12.0304,0.00603894,0.0116015,-0.00165893,0.0120586,0.00558176,-1.30189,0.00696845,0.0302186,1336,421,2.44599,12.0304
119,603,2.42371,-11.9464,0.00820742,0.00981543,0.00099292,0.010289,0.00773381,1.12572,0.0061861,0.0333808,1343,421,2.42374,11.9464
126,603,2.40637,-11.8831,0.0100345,0.00810916,0.00376993,0.0129627,0.00518093,0.660392,0.00753409,0.0397329,1350,421,2.40633,11.8831
133,603,2.51721,-11.8268,0.0115019,0.00583357,0.00639257,0.0156604,0.00167506,0.576742,0.00992913,0.0335396,1357,421,2.51717,11.8268
140,603,2.55225,-11.7869,0.0114397,0.00322401,0.00892954,0.017161,-0.00249724,0.569817,0.0123575,0.0205387,1364,421,2.55229,11.7869
147,603,2.51636,-11.7285,0.0112348,0.00134446,0.0109695,0.0183223,-0.00574303,0.573634,0.0145131,0.0155199,1371,421,2.51637,11.7285
154,603,2.46069,-11.6663,0.0120065,-0.000786266,0.0126959,0.0198263,-0.00860607,0.552051,0.0168361,0.0239091,1378,421,2.46075,11.6663
161,603,2.45532,-11.5993,0.0115684,-0.00239503,0.0133732,0.0196726,-0.0104993,0.544826,0.0176861,0.0308689,1385,421,2.45526,11.5993
168,603,2.52625,-11.5525,0.0104445,-0.00395776,0.0132407,0.0183156,-0.0118289,0.536339,0.0175377,0.0304074,1392,421,2.52626,11.5525
175,603,2.6543,-11.4721,0.00829198,-0.00467022,0.0122236,0.0156464,-0.0120247,0.541637,0.0160214,0.0305779,1399,421,2.6543,11.4721
182,603,2.73938,-11.3713,0.00500879,-0.00461756,0.0105937,0.0118315,-0.0114403,0.572169,0.0134366,0.0348974,1406,421,2.73942,11.3713
189,603,2.71643,-11.2603,0.00339743,-0.00459852,0.00849849,0.00879138,-0.00999247,0.56554,0.0108522,0.0306005,1413,421,2.71637,11.2603
196,603,2.62354,-11.1769,0.00289205,-0.00590332,0.00498346,0.00514076,-0.00815203,0.42388,0.00773996,0.0230243,1420,421,2.62352,11.1769
203,603,2.59558,-11.123,0.00165559,-0.0035888,0.00171821,0.00216838,-0.00410159,0.290031,0.00367688,0.0123279,1427,421,2.59561,11.1231
210,603,2.61316,-11.0542,0.000338517,-0.00197538,-0.00116723,0.000825028,-0.00246189,-0.394911,0.00197458,0.00987411,1434,421,2.6132,11.0542
217,603,2.61096,-10.9315,0.000683119,-0.00155749,-0.0011792,0.00118934,-0.00206371,-0.405503,0.00190063,0.0119544,1441,421,2.61095,10.9315
224,603,2.6239,-10.8414,0.000564358,-0.00110353,-0.000863952,0.000931195,-0.00147037,-0.401535,0.00139814,0.0154361,1448,421,2.62395,10.8414
231,603,2.64258,-10.7599,0.00057283,-0.00063491,-0.000557805,0.000791033,-0.000853114,-0.372882,0.000949474,0.0137259,1455,421,2.64259,10.7599
238,603,2.62109,-10.6309,0.000680221,-0.000101787,-0.000274393,0.000766894,-0.000188461,-0.305955,0.000584303,0.0104708,1462,421,2.62106,10.6309
245,603,2.6394,-10.5216,0.000821561,0.000434711,-7.01837e-05,0.000833901,0.000422372,-0.174037,0.000481466,0.0111977,1469,421,2.63936,10.5216
252,603,2.66614,-10.4026,0.000887464,0.000931421,8.32012e-05,0.000995498,0.000823387,0.914531,0.000614384,0.0101991,1476,421,2.6661,10.4025
259,603,2.66101,-10.287,0.000882553,0.00133908,0.000254017,0.00145232,0.000769307,1.15142,0.000838993,0.0101295,1483,421,2.66098,10.2871
266,603,2.63806,-10.1575,0.00088296,0.00172592,0.000389598,0.0018784,0.000730478,1.19774,0.00109339,0.0112908,1490,421,2.6381,10.1575
273,603,2.63367,-10.0233,0.000870301,0.00201362,0.000557743,0.00224063,0.000643291,1.18426,0.00133214,0.0103988,1497,421,2.63365,10.0232
280,603,2.64966,-9.87598,0.000886135,0.00254566,0.000816767,0.00288021,0.000551589,1.18204,0.00176524,0.0118572,1504,421,2.64962,9.87598
287,603,2.65784,-9.71487,0.000881881,0.00291136,0.00104128,0.00335057,0.000442672,1.17164,0.00210175,0.0115222,1511,421,2.65789,9.71488
294,603,2.6499,-9.58838,0.000865034,0.0032919,0.00132108,0.00387225,0.000284682,1.15687,0.00249203,0.00996872,1518,421,2.64994,9.58839
301,603,2.65637,-9.46353,0.000826453,0.00360949,0.00160575,0.00434277,9.31739e-05,1.14242,0.00286463,0.0116295,1525,421,2.65639,9.46352
308,603,2.66321,-9.3161,0.000841459,0.00409868,0.00192489,0.00499149,-5.1355e-05,1.1365,0.00334491,0.016563,1532,421,2.66323,9.3161
315,603,2.64832,-9.1669,0.00083036,0.00453439,0.00219148,0.00555162,-0.000186867,1.13622,0.00376492,0.0145016,1539,421,2.64835,9.1669
322,603,2.651,-9.02029,0.00071999,0.00492931,0.00244182,0.00604832,-0.000399027,1.14109,0.00417159,0.0134998,1546,421,2.65101,9.02028
329,603,2.6377,-8.84995,0.000438985,0.00524265,0.00255917,0.00635054,-0.000668904,1.16225,0.00447336,0.0102219,1553,421,2.63772,8.84995
336,603,2.63989,-8.68405,-0.000119353,0.00533866,0.00229691,0.00617662,-0.000957319,1.22098,0.00447115,0.00907246,1560,421,2.63988,8.68405
343,603,2.64465,-8.52676,-0.000650757,0.00536834,0.00211272,0.00603588,-0.0013183,1.26476,0.00452778,0.0108942,1567,421,2.64471,8.52678
350,603,2.62085,-8.34857,-0.00137886,0.00537213,0.0018256,0.00583419,-0.00184092,1.3229,0.00462683,0.0185975,1574,421,2.62091,8.34859
357,603,2.62341,-8.12363,-0.00235698,0.00530021,0.00136456,0.00553611,-0.00259288,1.39961,0.00479472,0.0217369,1581,421,2.62341,8.12364
364,603,2.59424,-7.92786,-0.00354274,0.00506077,0.000677029,0.00511372,-0.00359569,1.49274,0.00505378,0.020625,1588,421,2.59418,7.92784
371,603,2.61145,-7.76724,-0.0049182,0.00446595,-6.4524e-05,0.00446639,-0.00491864,-1.56392,0.00542055,0.0242217,1595,421,2.61148,7.76725
378,603,2.57275,-7.62622,-0.00673653,0.00428034,-0.00129378,0.00443023,-0.00688643,-1.45545,0.00658477,0.0344427,1602,421,2.57281,7.62622
385,603,2.18823,-7.50476,-0.00864977,0.00244352,-0.00262498,0.00303331,-0.00923955,-1.34978,0.00738156,0.0440751,1609,421,2.18821,7.50477
392,603,2.53479,-7.33591,0,0,0,0,0,0,0,-1,1616,421,2.53481,7.3359
399,603,2.38013,-5.37076,0,0,0,0,0,0,0,-1,1623,421,2.38016,5.37075
406,603,3.01917,-2.37219,0,0,0,0,0,0,0,-1,1630,421,3.01915,2.37219
413,603,2.38928,-2.41275,0,0,0,0,0,0,0,-1,1637,421,2.38926,2.41274
420,603,2.74866,-2.30066,0,0,0,0,0,0,0,-1,1644,421,2.74867,2.30065
427,603,7.11548,-3.35352,0,0,0,0,0,0,0,-1,1651,421,7.11549,3.35351
434,603,7.32153,-4.50525,0,0,0,0,0,0,0,-1,1658,421,7.32149,4.50525
441,603,3.18213,-0.250946,0,0,0,0,0,0,0,-1,1665,421,3.18212,0.250944
448,603,2.95667,-0.066925,0,0,0,0,0,0,0,-1,1672,421,2.95662,0.0669226
455,603,0,0,0,0,0,0,0,0,0,-1,1679,421,0,0
462,603,0,0,0,0,0,0,0,0,0,-1,1686,421,0,0
469,603,0,0,0,0,0,0,0,0,0,-1,1693,421,0,0
476,603,0,0,0,0,0,0,0,0,0,-1,1700,421,0,0
483,603,0,0,0,0,0,0,0,0,0,-1,1707,421,0,0
490,603,0,0,0,0,0,0,0,0,0,-1,1714,421,0,0
497,603,0,0,0,0,0,0,0,0,0,-1,1721,421,0,0
504,603,0,0,0,0,0,0,0,0,0,-1,1728,421,0,0
511,603,0,0,0,0,0,0,0,0,0,-1,1735,421,0,0
518,603,0,0,0,0,0,0,0,0,0,-1,1742,421,0,0
525,603,0,0,0,0,0,0,0,0,0,-1,1749,421,0,0
532,603,0,0,0,0,0,0,0,0,0,-1,1756,421,0,0
539,603,0,0,0,0,0,0,0,0,0,-1,1763,421,0,0
546,603,0,0,0,0,0,0,0,0,0,-1,1770,421,0,0
553,603,0,0,0,0,0,0,0,0,0,-1,1777,421,0,0
560,603,0,0,0,0,0,0,0,0,0,-1,1784,421,0,0
567,603,0,0,0,0,0,0,0,0,0,-1,1791,421,0,0
574,603,0,0,0,0,0,0,0,0,0,-1,1798,421,0,0
581,603,0,0,0,0,0,0,0,0,0,-1,1805,421,0,0
588,603,0,0,0,0,0,0,0,0,0,-1,1812,421,0,0
595,603,0,0,0,0,0,0,0,0,0,-1,1819,421,0,0
602,603,0,0,0,0,0,0,0,0,0,-1,1826,421,0,0
609,603,0,0,0,0,0,0,0,0,0,-1,1833,421,0,0
616,603,0,0,0,0,0,0,0,0,0,-1,1840,421,0,0
623,603,0,0,0,0,0,0,0,0,0,-1,1847,421,0,0
630,603,0,0,0,0,0,0,0,0,0,-1,1854,421,0,0
637,603,0,0,0,0,0,0,0,0,0,-1,1861,421,0,0
644,603,0,0,0,0,0,0,0,0,0,-1,1868,421,0,0
651,603,0,0,0,0,0,0,0,0,0,-1,1875,421,0,0
658,603,0,0,0,0,0,0,0,0,0,-1,1882,421,0,0
665,603,0,0,0,0,0,0,0,0,0,-1,1889,421,0,0
672,603,0,0,0,0,0,0,0,0,0,-1,1896,421,0,0
679,603,0,0,0,0,0,0,0,0,0,-1,1903,421,0,0
686,603,0,0,0,0,0,0,0,0,0,-1,1910,421,0,0
693,603,0,0,0,0,0,0,0,0,0,-1,1917,421,0,0
700,603,0,0,0,0,0,0,0,0,0,-1,1924,421,0,0
707,603,0,0,0,0,0,0,0,0,0,-1,1931,421,0,0
714,603,0,0,0,0,0,0,0,0,0,-1,1938,421,0,0
721,603,0,0,0,0,0,0,0,0,0,-1,1945,421,0,0
728,603,0,0,0,0,0,0,0,0,0,-1,1952,421,0,0
735,603,0,0,0,0,0,0,0,0,0,-1,1959,421,0,0
742,603,0,0,0,0,0,0,0,0,0,-1,1966,421,0,0
749,603,0,0,0,0,0,0,0,0,0,-1,1973,421,0,0
756,603,0,0,0,0,0,0,0,0,0,-1,1980,421,0,0
763,603,0,0,0,0,0,0,0,0,0,-1,1987,421,0,0
770,603,0,0,0,0,0,0,0,0,0,-1,1994,421,0,0
777,603,0,0,0,0,0,0,0,0,0,-1,2001,421,0,0
784,603,0,0,0,0,0,0,0,0,0,-1,2008,421,0,0
791,603,0,0,0,0,0,0,0,0,0,-1,2015,421,0,0
798,603,0,0,0,0,0,0,0,0,0,-1,2022,421,0,0
805,603,0,0,0,0,0,0,0,0,0,-1,2029,421,0,0
812,603,0,0,0,0,0,0,0,0,0,-1,2036,421,0,0
-700,596,0,0,0,0,0,0,0,0,0,-1,524,428,0,0
-693,596,0,0,0,0,0,0,0,0,0,-1,531,428,0,0
-686,596,0,0,0,0,0,0,0,0,0,-1,538,428,0,0
-679,596,0,0,0,0,0,0,0,0,0,-1,545,428,0,0
-672,596,0,0,0,0,0,0,0,0,0,-1,552,428,0,0
-665,596,0,0,0,0,0,0,0,0,0,-1,559,428,0,0
-658,596,0,0,0,0,0,0,0,0,0,-1,566,428,0,0
-651,596,0,0,0,0,0,0,0,0,0,-1,573,428,0,0
-644,596,0,0,0,0,0,0,0,0,0,-1,580,428,0,0
-637,596,0,0,0,0,0,0,0,0,0,-1,587,428,0,0
-630,596,0,0,0,0,0,0,0,0,0,-1,594,428,0,0
-623,596,0,0,0,0,0,0,0,0,0,-1,601,428,0,0
-616,596,0,0,0,0,0,0,0,0,0,-1,608,428,0,0
-609,596,0,0,0,0,0,0,0,0,0,-1,615,428,0,0
-602,596,0,0,0,0,0,0,0,0,0,-1,622,428,0,0
-595,596,0,0,0,0,0,0,0,0,0,-1,629,428,0,0
-588,596,0,0,0,0,0,0,0,0,0,-1,636,428,0,0
-581,596,0,0,0,0,0,0,0,0,0,-1,643,428,0,0
-574,596,0,0,0,0,0,0,0,0,0,-1,650,428,0,0
-567,596,0,0,0,0,0,0,0,0,0,-1,657,428,0,0
-560,596,0,0,0,0,0,0,0,0,0,-1,664,428,0,0
-553,596,0,0,0,0,0,0,0,0,0,-1,671,428,0,0
-546,596,0,0,0,0,0,0,0,0,0,-1,678,428,0,0
-539,596,0,0,0,0,0,0,0,0,0,-1,685,428,0,0
-532,596,0,0,0,0,0,0,0,0,0,-1,692,428,0,0
-525,596,0,0,0,0,0,0,0,0,0,-1,699,428,0,0
-518,596,0,0,0,0,0,0,0,0,0,-1,706,428,0,0
-511,596,0,0,0,0,0,0,0,0,0,-1,713,428,0,0
-504,596,0,0,0,0,0,0,0,0,0,-1,720,428,0,0
-497,596,0,0,0,0,0,0,0,0,0,-1,727,428,0,0
-490,596,0,0,0,0,0,0,0,0,0,-1,734,428,0,0
-483,596,0,0,0,0,0,0,0,0,0,-1,741,428,0,0
-476,596,0,0,0,0,0,0,0,0,0,-1,748,428,0,0
-469,596,0,0,0,0,0,0,0,0,0,-1,755,428,0,0
-462,596,0,0,0,0,0,0,0,0,0,-1,762,428,0,0
-455,596,0,0,0,0,0,0,0,0,0,-1,769,428,0,0
-448,596,0,0,0,0,0,0,0,0,0,-1,776,428,0,0
-441,596,0,0,0,0,0,0,0,0,0,-1,783,428,0,0
-434,596,0,0,0,0,0,0,0,0,0,-1,790,428,0,0
-427,596,0,0,0,0,0,0,0,0,0,-1,797,428,0,0
-420,596,0,0,0,0,0,0,0,0,0,-1,804,428,0,0
-413,596,0,0,0,0,0,0,0,0,0,-1,811,428,0,0
-406,596,0,0,0,0,0,0,0,0,0,-1,818,428,0,0
-399,596,0,0,0,0,0,0,0,0,0,-1,825,428,0,0
-392,596,0,0,0,0,0,0,0,0,0,-1,832,428,0,0
-385,596,0,0,0,0,0,0,0,0,0,-1,839,428,0,0
-378,596,0,0,0,0,0,0,0,0,0,-1,846,428,0,0
-371,596,0,0,0,0,0,0,0,0,0,-1,853,428,0,0
-364,596,0,0,0,0,0,0,0,0,0,-1,860,428,0,0
-357,596,0,0,0,0,0,0,0,0,0,-1,867,428,0,0
-350,596,0,0,0,0,0,0,0,0,0,-1,874,428,0,0
-343,596,0,0,0,0,0,0,0,0,0,-1,881,428,0,0
-336,596,1.89813,-9.66019,0,0,0,0,0,0,0,-1,888,428,1.89813,9.6602
-329,596,1.54865,-9.16202,0,0,0,0,0,0,0,-1,895,428,1.54866,9.16203
-322,596,2.35809,-9.06784,0,0,0,0,0,0,0,-1,902,428,2.35812,9.06783
-315,596,1.62445,-8.37375,0,0,0,0,0,0,0,-1,909,428,1.62445,8.37376
-308,596,2.77289,-6.63049,0,0,0,0,0,0,0,-1,916,428,2.77286,6.6305
-301,596,1.5498,-6.82498,0,0,0,0,0,0,0,-1,923,428,1.54978,6.82498
-294,596,1.75946,-6.73059,0.0196902,0.00489893,-0.00493329,0.0211846,0.00340453,-0.294135,0.0131361,0.0457639,930,428,1.75948,6.73059
-287,596,1.86224,-7.01871,0.0166893,0.00448937,-0.00487961,0.0184009,0.00277779,-0.337352,0.0114542,0.0498316,937,428,1.86226,7.01869
-280,596,1.81012,-7.91949,0,0,0,0,0,0,0,-1,944,428,1.81013,7.9195
-273,596,1.22571,-8.16428,0.0107565,0.00297566,-0.00434989,0.0127019,0.00103026,-0.420549,0.00814628,0.0442258,951,428,1.22568,8.16429
-266,596,1.58606,-8.22653,0.00818085,0.00210084,-0.00378673,0.00999686,0.000284821,-0.447174,0.00657169,0.0397281,958,428,1.58605,8.22654
-259,596,1.64771,-8.47116,0.00605994,0.00116188,-0.00308839,0.00755247,-0.00033065,-0.450175,0.00514873,0.0315999,965,428,1.64769,8.47115
-252,596,1.77539,-8.71317,0.00437073,0.000285137,-0.00221391,0.00534031,-0.000684441,-0.412787,0.00380891,0.0162942,972,428,1.77538,8.71315
-245,596,1.7641,-8.87402,0.00299665,-0.000419422,-0.00149878,0.003561,-0.000983772,-0.360119,0.00276098,0.0114832,979,428,1.76409,8.87403
-238,596,1.75488,-9.02158,0.00136531,0.000266219,-0.00123246,0.00216519,-0.000533662,-0.575681,0.00165036,0.0101103,986,428,1.75491,9.02157
-231,596,1.74329,-9.18091,0.00082433,-0.000545947,-0.00054928,0.00101733,-0.000738945,-0.33789,0.00101822,0.0122524,993,428,1.74331,9.18091
-224,596,1.72528,-9.33856,0.000526324,-0.000498209,-0.000177678,0.000556263,-0.000528147,-0.166932,0.000626155,0.0127077,1000,428,1.72527,9.33857
-217,596,1.72998,-9.47147,0.000127563,-0.000375404,0.000131784,0.00016,-0.000407841,0.241341,0.000338092,0.0132734,1007,428,1.73,9.47148
-210,596,1.74426,-9.62354,-2.87228e-05,-0.000468893,9.43998e-05,-9.33181e-06,-0.000488284,0.202595,0.000322457,0.0113238,1014,428,1.74427,9.62355
-203,596,1.72919,-9.77191,1.74525e-06,-0.000603063,9.17983e-05,1.53715e-05,-0.000616689,0.147361,0.000416344,0.0139625,1021,428,1.72918,9.7719
-196,596,1.74426,-9.9169,4.98789e-05,-0.000556995,0.000243857,0.000135724,-0.00064284,0.338481,0.000480237,0.0143743,1028,428,1.74421,9.91691
-189,596,1.72986,-10.0481,4.87182e-05,-0.000415826,0.00036491,0.000249008,-0.000616116,0.501979,0.000514251,0.0111158,1035,428,1.72985,10.0481
-182,596,1.71106,-10.1665,8.57284e-05,-0.000567159,0.000646646,0.000483658,-0.000965089,0.551648,0.00085169,0.0110987,1042,428,1.71112,10.1665
-175,596,1.70178,-10.2828,0.000127803,-0.000667842,0.00101566,0.000820776,-0.00136081,0.598738,0.00127234,0.0133989,1049,428,1.70175,10.2828
-168,596,1.71667,-10.3899,0.000278967,-0.000912481,0.00146113,0.00126114,-0.00189466,0.591828,0.0018342,0.0156188,1056,428,1.71666,10.3899
-161,596,1.72803,-10.5066,0.000603473,-0.00114915,0.00173924,0.00167469,-0.00222037,0.552038,0.00225616,0.0138674,1063,428,1.72801,10.5066
-154,596,1.71448,-10.6388,0.00105126,-0.00105701,0.00197315,0.0022342,-0.00223995,0.540066,0.00258315,0.012183,1070,428,1.71445,10.6388
-147,596,1.7323,-10.7522,0.00166746,-0.000981893,0.00209187,0.00281881,-0.00213324,0.503144,0.00286819,0.0131111,1077,428,1.73224,10.7522
-140,596,1.74561,-10.8474,0.00233431,-0.000901925,0.00202962,0.0033119,-0.00187951,0.448867,0.00303505,0.0135645,1084,428,1.74556,10.8474
-133,596,1.72961,-10.9475,0.00305027,-0.000645553,0.00185144,0.0038182,-0.00141348,0.393176,0.00312506,0.0150478,1091,428,1.72965,10.9475
-126,596,1.72131,-11.0112,0.00388785,-0.000417276,0.00147802,0.00434643,-0.000875854,0.300848,0.00322941,0.0118254,1098,428,1.72136,11.0112
-119,596,1.74988,-11.1302,0.00479652,-9.20781e-06,0.000973035,0.00498606,-0.000198747,0.192382,0.00339223,0.0132653,1105,428,1.74984,11.1302
-112,596,1.74927,-11.2274,0.00561467,0.000632044,0.000355867,0.00563996,0.000606755,0.0709415,0.00357493,0.013872,1112,428,1.74932,11.2274
-105,596,1.74756,-11.3138,0.00636929,0.00134816,-0.000442076,0.00640792,0.00130953,-0.0871497,0.00390924,0.0140877,1119,428,1.74751,11.3138
-98,596,1.78088,-11.3797,0.00698231,0.00222316,-0.00119101,0.00726373,0.00194175,-0.232029,0.00434244,0.00965013,1126,428,1.78088,11.3797
-91,596,1.78674,-11.4632,0.00742402,0.00294305,-0.00163819,0.00795904,0.00240803,-0.315672,0.00471307,0.0101593,1133,428,1.78674,11.4632
-84,596,1.83191,-11.6044,0.00759897,0.00367017,-0.00186137,0.00834078,0.00292836,-0.379237,0.00488622,0.0160388,1140,428,1.83186,11.6044
-77,596,1.84717,-11.7477,0.00755437,0.00428842,-0.00190306,0.00842903,0.00341376,-0.430815,0.0048957,0.0319882,1147,428,1.84714,11.7477
-70,596,1.89526,-11.9712,0,0,0,0,0,0,0,-1,1154,428,1.89526,11.9712
-63,596,1.95569,-12.2758,0,0,0,0,0,0,0,-1,1161,428,1.95563,12.2759
-56,596,1.60107,-10.5827,0,0,0,0,0,0,0,-1,1168,428,1.60108,10.5827
-49,596,1.59473,-10.0393,0,0,0,0,0,0,0,-1,1175,428,1.59472,10.0393
-42,596,1.99585,-6.6246,0,0,0,0,0,0,0,-1,1182,428,1.99586,6.62459
-35,596,1.54956,-11.8305,0,0,0,0,0,0,0,-1,1189,428,1.54954,11.8305
-28,596,1.66418,-11.9186,0,0,0,0,0,0,0,-1,1196,428,1.66419,11.9186
-21,596,1.7688,-11.9499,0,0,0,0,0,0,0,-1,1203,428,1.76884,11.9499
-14,596,1.67126,-11.856,0,0,0,0,0,0,0,-1,1210,428,1.6713,11.856
-7,596,2.04907,-11.9579,0,0,0,0,0,0,0,-1,1217,428,2.04907,11.9579
0,596,2.03137,-12.1365,0,0,0,0,0,0,0,-1,1224,428,2.03134,12.1365
7,596,1.54065,-11.8343,0.0295296,-0.0011674,0.0125352,0.033998,-0.00563574,0.342422,0.0247586,0.0451077,1231,428,1.54067,11.8343
14,596,1.87451,-11.8114,0.0291115,-0.00241055,0.0105035,0.0322907,-0.00558978,0.293916,0.023612,0.0449821,1238,428,1.87446,11.8114
21,596,2.27441,-11.8297,0.0275271,-0.00356809,0.00808593,0.029504,-0.00554505,0.23979,0.0217545,0.0428626,1245,428,2.27444,11.8297
28,596,2.3407,-12.0065,0.024416,-0.00374365,0.00560259,0.0254898,-0.00481738,0.189354,0.0188058,0.0425089,1252,428,2.34072,12.0065
35,596,2.24304,-11.9987,0.0216655,-0.00288844,0.00298735,0.0220237,-0.00324667,0.119345,0.0158758,0.0436101,1259,428,2.24303,11.9987
42,596,2.23669,-12.0474,0.0184258,-0.00187339,0.000412629,0.0184342,-0.00188178,0.0203161,0.0129623,0.0441376,1266,428,2.23673,12.0474
49,596,2.26807,-12.102,0.0136082,0.000317812,-0.00211782,0.0139375,-1.15028e-05,-0.154262,0.00929551,0.0438483,1273,428,2.26803,12.102
56,596,2.20862,-12.08,0.00923498,0.00309851,-0.00430661,0.0114546,0.000878933,-0.475882,0.0073609,0.0450703,1280,428,2.20859,12.0799
63,596,2.21118,-12.0294,0,0,0,0,0,0,0,-1,1287,428,2.21114,12.0294
70,596,2.42761,-12.03,0.00277743,0.00898297,-0.00828493,0.0147271,-0.00296668,-0.964568,0.0109418,0.0494201,1294,428,2.42761,12.03
77,596,2.44312,-12.0558,0.00207388,0.0114531,-0.00895963,0.0168762,-0.00334926,-1.0265,0.0125175,0.0476991,1301,428,2.44316,12.0558
84,596,2.23413,-11.9772,0.00203832,0.013873,-0.00891598,0.0186565,-0.00274526,-1.07836,0.0134465,0.0465936,1308,428,2.23409,11.9772
91,596,2.72144,-12.0953,0.00131471,0.0178343,-0.00699986,0.0204014,-0.00125242,-1.21929,0.0140371,0.0438043,1315,428,2.72141,12.0953
98,596,2.84338,-12.3091,0.00198563,0.0182647,-0.00573487,0.0200821,0.000168215,-1.2639,0.0133324,0.0458955,1322,428,2.84334,12.3091
105,596,2.55566,-12.4754,0.00490716,0.0174393,-0.0021639,0.0178024,0.00454405,-1.40454,0.0106808,0.0450427,1329,428,2.55568,12.4754
112,596,2.53882,-12.1577,0.00726791,0.0166619,0.00121364,0.0168162,0.00711365,1.44437,0.00974712,0.0408442,1336,428,2.53881,12.1577
119,596,1.95313,-12.09,0,0,0,0,0,0,0,-1,1343,428,1.95308,12.09
126,596,1.95276,-11.5642,0.0115857,0.0134272,0.00982849,0.022378,0.00263492,0.832101,0.0141225,0.046238,1350,428,1.95275,11.5642
133,596,2.8645,-11.7442,0.0130302,0.0110827,0.0140568,0.0261469,-0.00203404,0.750818,0.0181473,0.0465627,1357,428,2.86454,11.7442
140,596,2.76013,-11.7194,0.0126635,0.00828856,0.0180421,0.0286503,-0.00769823,0.725071,0.0221175,0.0396575,1364,428,2.76014,11.7194
147,596,2.6543,-11.5981,0.0122583,0.00617018,0.0213105,0.030741,-0.0123126,0.714457,0.0256048,0.035762,1371,428,2.65425,11.5981
154,596,2.45081,-11.4192,0.0129012,0.00377538,0.0239754,0.032744,-0.0160674,0.691364,0.0287243,0.0414498,1378,428,2.45084,11.4192
161,596,2.4093,-11.3588,0.0121929,0.00187988,0.0250715,0.0326326,-0.0185599,0.683976,0.0299259,0.0448823,1385,428,2.40925,11.3588
168,596,2.44812,-11.3105,0,0,0,0,0,0,0,-1,1392,428,2.44807,11.3105
175,596,2.83167,-11.3113,0,0,0,0,0,0,0,-1,1399,428,2.83165,11.3113
182,596,2.90466,-11.2888,0,0,0,0,0,0,0,-1,1406,428,2.90464,11.2888
189,596,2.8407,-11.2233,0,0,0,0,0,0,0,-1,1413,428,2.84072,11.2233
196,596,2.80542,-11.033,0,0,0,0,0,0,0,-1,1420,428,2.80545,11.033
203,596,2.72217,-11.3997,0,0,0,0,0,0,0,-1,1427,428,2.72218,11.3997
210,596,2.7052,-11.0946,0.000237287,-0.00330981,-0.00153407,0.000808697,-0.00388122,-0.35656,0.00289495,0.0317396,1434,428,2.7052,11.0946
217,596,2.69788,-10.9641,0.000903592,-0.00275431,-0.00167489,0.00155462,-0.00340534,-0.370729,0.00292934,0.0123464,1441,428,2.69788,10.964
224,596,2.71875,-10.8731,0.000837702,-0.00205319,-0.00132733,0.00135468,-0.00257017,-0.371413,0.00230195,0.0110612,1448,428,2.71875,10.8731
231,596,2.7384,-10.7537,0.000847239,-0.00139498,-0.00101088,0.00123568,-0.00178343,-0.36687,0.00175262,0.0111839,1455,428,2.73845,10.7537
238,596,2.72766,-10.6316,0.000972926,-0.000668765,-0.000709711,0.0012372,-0.000933036,-0.356457,0.00125708,0.0136855,1462,428,2.72763,10.6316
245,596,2.75525,-10.5245,0.00111662,2.88336e-05,-0.000503507,0.0013139,-0.000168447,-0.373429,0.000937144,0.0126248,1469,428,2.75525,10.5245
252,596,2.79041,-10.387,0.00111727,0.000643728,-0.000366668,0.00131697,0.000444028,-0.498713,0.000773676,0.00966092,1476,428,2.79044,10.387
259,596,2.78711,-10.2556,0.0010219,0.0010888,-0.000233799,0.00129153,0.000819172,-0.856454,0.000754575,0.00860815,1483,428,2.78707,10.2556
266,596,2.75928,-10.1393,0.000944114,0.00140217,-0.000135012,0.001439,0.000907281,-1.30446,0.000840186,0.00978246,1490,428,2.75924,10.1393
273,596,2.7616,-10.0201,0.000817007,0.0016367,-4.27575e-05,0.00163892,0.000814783,-1.51882,0.000946238,0.0113031,1497,428,2.76157,10.0201
280,596,2.79089,-9.88989,0.000756381,0.00197028,0.00016413,0.00199208,0.00073458,1.43875,0.00116326,0.0120889,1504,428,2.79092,9.8899
287,596,2.80701,-9.74612,0.000679203,0.0021765,0.000309127,0.00223781,0.000617892,1.375,0.00133448,0.0108314,1511,428,2.80706,9.74614
294,596,2.7915,-9.6044,0.000593935,0.00233197,0.000528777,0.0024802,0.000445703,1.29748,0.00152674,0.0086067,1518,428,2.79156,9.6044
301,596,2.78992,-9.45306,0.00050935,0.00240936,0.000755215,0.00267297,0.000245741,1.23497,0.00170597,0.00969125,1525,428,2.78989,9.45305
308,596,2.79712,-9.31757,0.000508987,0.00267181,0.00100914,0.00306953,0.00011127,1.19537,0.00201029,0.0151075,1532,428,2.79715,9.31757
315,596,2.77649,-9.16046,0.000529257,0.00296972,0.00124808,0.00349496,4.0211e-06,1.17246,0.00232863,0.015506,1539,428,2.77653,9.16047
322,596,2.78845,-8.99878,0.000494437,0.00326662,0.0014672,0.00389892,-0.00013787,1.16389,0.00264644,0.0129121,1546,428,2.78847,8.99878
329,596,2.78467,-8.8407,0.000310866,0.00350718,0.00161237,0.00417923,-0.000361185,1.17588,0.00291402,0.00980848,1553,428,2.78473,8.84068
336,596,2.7793,-8.68643,-0.000146598,0.00361733,0.00147076,0.00412386,-0.000653132,1.23912,0.00299082,0.00855203,1560,428,2.77935,8.68642
343,596,2.79651,-8.53198,-0.000600115,0.00366428,0.00138165,0.0040728,-0.00100863,1.28331,0.00310648,0.0112573,1567,428,2.79645,8.53199
350,596,2.7926,-8.35162,-0.00119338,0.00370887,0.00122123,0.00399624,-0.00148076,1.33968,0.00327143,0.0120392,1574,428,2.79264,8.35164
357,596,2.77661,-8.1647,-0.00193769,0.00371235,0.000937789,0.00386393,-0.00208928,1.41054,0.00348762,0.00897317,1581,428,2.77663,8.1647
364,596,2.75708,-7.9838,-0.00281018,0.00362845,0.000498363,0.0036668,-0.00284852,1.494,0.0037715,0.00835639,1588,428,2.75711,7.98378
371,596,2.75476,-7.81708,-0.00379884,0.00334068,2.47716e-05,0.00334076,-0.00379893,1.56733,0.00412493,0.00921927,1595,428,2.75474,7.81706
378,596,2.75195,-7.63608,-0.00502807,0.00325147,-0.000728213,0.00331503,-0.00509163,-1.48373,0.00488958,0.0135689,1602,428,2.75197,7.63609
385,596,2.75244,-7.41983,-0.00615838,0.00222748,-0.00158889,0.00251844,-0.00644933,-1.38968,0.00534078,0.0243735,1609,428,2.75242,7.41982
392,596,2.72168,-7.2717,-0.00653119,0.00185965,-0.00229849,0.00244802,-0.00711955,-1.3202,0.00573913,0.0375201,1616,428,2.72169,7.27169
399,596,2.63135,-6.96674,0,0,0,0,0,0,0,-1,1623,428,2.63133,6.96674
406,596,2.42261,-6.35526,0,0,0,0,0,0,0,-1,1630,428,2.42257,6.35526
413,596,3.39124,-2.63528,0,0,0,0,0,0,0,-1,1637,428,3.39122,2.6353
420,596,2.6344,-3.06308,0,0,0,0,0,0,0,-1,1644,428,2.63439,3.06308
427,596,2.99329,-1.90512,0,0,0,0,0,0,0,-1,1651,428,2.99327,1.90512
434,596,3.80896,-0.253998,0,0,0,0,0,0,0,-1,1658,428,3.80902,0.254004
441,596,3.86401,-0.131622,0,0,0,0,0,0,0,-1,1665,428,3.86406,0.131613
448,596,1.0769,0.0083313,0,0,0,0,0,0,0,-1,1672,428,1.07684,-0.00832231
455,596,2.00769,-1.43329,0,0,0,0,0,0,0,-1,1679,428,2.00765,1.4333
462,596,0,0,0,0,0,0,0,0,0,-1,1686,428,0,0
469,596,0,0,0,0,0,0,0,0,0,-1,1693,428,0,0
476,596,0,0,0,0,0,0,0,0,0,-1,1700,428,0,0
483,596,0,0,0,0,0,0,0,0,0,-1,1707,428,0,0
490,596,0,0,0,0,0,0,0,0,0,-1,1714,428,0,0
497,596,0,0,0,0,0,0,0,0,0,-1,1721,428,0,0
504,596,0,0,0,0,0,0,0,0,0,-1,1728,428,0,0
511,596,0,0,0,0,0,0,0,0,0,-1,1735,428,0,0
518,596,0,0,0,0,0,0,0,0,0,-1,1742,428,0,0
525,596,0,0,0,0,0,0,0,0,0,-1,1749,428,0,0
532,596,0,0,0,0,0,0,0,0,0,-1,1756,428,0,0
539,596,0,0,0,0,0,0,0,0,0,-1,1763,428,0,0
546,596,0,0,0,0,0,0,0,0,0,-1,1770,428,0,0
553,596,0,0,0,0,0,0,0,0,0,-1,1777,428,0,0
560,596,0,0,0,0,0,0,0,0,0,-1,1784,428,0,0
567,596,0,0,0,0,0,0,0,0,0,-1,1791,428,0,0
574,596,0,0,0,0,0,0,0,0,0,-1,1798,428,0,0
581,596,0,0,0,0,0,0,0,0,0,-1,1805,428,0,0
588,596,0,0,0,0,0,0,0,0,0,-1,1812,428,0,0
595,596,0,0,0,0,0,0,0,0,0,-1,1819,428,0,0
602,596,0,0,0,0,0,0,0,0,0,-1,1826,428,0,0
609,596,0,0,0,0,0,0,0,0,0,-1,1833,428,0,0
616,596,0,0,0,0,0,0,0,0,0,-1,1840,428,0,0
623,596,0,0,0,0,0,0,0,0,0,-1,1847,428,0,0
630,596,0,0,0,0,0,0,0,0,0,-1,1854,428,0,0
637,596,0,0,0,0,0,0,0,0,0,-1,1861,428,0,0
644,596,0,0,0,0,0,0,0,0,0,-1,1868,428,0,0
651,596,0,0,0,0,0,0,0,0,0,-1,1875,428,0,0
658,596,0,0,0,0,0,0,0,0,0,-1,1882,428,0,0
665,596,0,0,0,0,0,0,0,0,0,-1,1889,428,0,0
672,596,0,0,0,0,0,0,0,0,0,-1,1896,428,0,0
679,596,0,0,0,0,0,0,0,0,0,-1,1903,428,0,0
686,596,0,0,0,0,0,0,0,0,0,-1,1910,428,0,0
693,596,0,0,0,0,0,0,0,0,0,-1,1917,428,0,0
700,596,0,0,0,0,0,0,0,0,0,-1,1924,428,0,0
707,596,0,0,0,0,0,0,0,0,0,-1,1931,428,0,0
714,596,0,0,0,0,0,0,0,0,0,-1,1938,428,0,0
721,596,0,0,0,0,0,0,0,0,0,-1,1945,428,0,0
728,596,0,0,0,0,0,0,0,0,0,-1,1952,428,0,0
735,596,0,0,0,0,0,0,0,0,0,-1,1959,428,0,0
742,596,0,0,0,0,0,0,0,0,0,-1,1966,428,0,0
749,596,0,0,0,0,0,0,0,0,0,-1,1973,428,0,0
756,596,0,0,0,0,0,0,0,0,0,-1,1980,428,0,0
763,596,0,0,0,0,0,0,0,0,0,-1,1987,428,0,0
770,596,0,0,0,0,0,0,0,0,0,-1,1994,428,0,0
777,596,0,0,0,0,0,0,0,0,0,-1,2001,428,0,0
784,596,0,0,0,0,0,0,0,0,0,-1,2008,428,0,0
791,596,0,0,0,0,0,0,0,0,0,-1,2015,428,0,0
798,596,0,0,0,0,0,0,0,0,0,-1,2022,428,0,0
805,596,0,0,0,0,0,0,0,0,0,-1,2029,428,0,0
812,596,0,0,0,0,0,0,0,0,0,-1,2036,428,0,0
-700,589,0,0,0,0,0,0,0,0,0,-1,524,435,0,0
-693,589,0,0,0,0,0,0,0,0,0,-1,531,435,0,0
-686,589,0,0,0,0,0,0,0,0,0,-1,538,435,0,0
-679,589,0,0,0,0,0,0,0,0,0,-1,545,435,0,0
-672,589,0,0,0,0,0,0,0,0,0,-1,552,435,0,0
-665,589,0,0,0,0,0,0,0,0,0,-1,559,435,0,0
-658,589,0,0,0,0,0,0,0,0,0,-1,566,435,0,0
-651,589,0,0,0,0,0,0,0,0,0,-1,573,435,0,0
-644,589,0,0,0,0,0,0,0,0,0,-1,580,435,0,0
-637,589,0,0,0,0,0,0,0,0,0,-1,587,435,0,0
-630,589,0,0,0,0,0,0,0,0,0,-1,594,435,0,0
-623,589,0,0,0,0,0,0,0,0,0,-1,601,435,0,0
-616,589,0,0,0,0,0,0,0,0,0,-1,608,435,0,0
-609,589,0,0,0,0,0,0,0,0,0,-1,615,435,0,0
-602,589,0,0,0,0,0,0,0,0,0,-1,622,435,0,0
-595,589,0,0,0,0,0,0,0,0,0,-1,629,435,0,0
-588,589,0,0,0,0,0,0,0,0,0,-1,636,435,0,0
-581,589,0,0,0,0,0,0,0,0,0,-1,643,435,0,0
-574,589,0,0,0,0,0,0,0,0,0,-1,650,435,0,0
-567,589,0,0,0,0,0,0,0,0,0,-1,657,435,0,0
-560,589,0,0,0,0,0,0,0,0,0,-1,664,435,0,0
-553,589,0,0,0,0,0,0,0,0,0,-1,671,435,0,0
-546,589,0,0,0,0,0,0,0,0,0,-1,678,435,0,0
-539,589,0,0,0,0,0,0,0,0,0,-1,685,435,0,0
-532,589,0,0,0,0,0,0,0,0,0,-1,692,435,0,0
-525,589,0,0,0,0,0,0,0,0,0,-1,699,435,0,0
-518,589,0,0,0,0,0,0,0,0,0,-1,706,435,0,0
-511,589,0,0,0,0,0,0,0,0,0,-1,713,435,0,0
-504,589,0,0,0,0,0,0,0,0,0,-1,720,435,0,0
-497,589,0,0,0,0,0,0,0,0,0,-1,727,435,0,0
-490,589,0,0,0,0,0,0,0,0,0,-1,734,435,0,0
-483,589,0,0,0,0,0,0,0,0,0,-1,741,435,0,0
-476,589,0,0,0,0,0,0,0,0,0,-1,748,435,0,0
-469,589,0,0,0,0,0,0,0,0,0,-1,755,435,0,0
-462,589,0,0,0,0,0,0,0,0,0,-1,762,435,0,0
-455,589,0,0,0,0,0,0,0,0,0,-1,769,435,0,0
-448,589,0,0,0,0,0,0,0,0,0,-1,776,435,0,0
-441,589,0,0,0,0,0,0,0,0,0,-1,783,435,0,0
-434,589,0,0,0,0,0,0,0,0,0,-1,790,435,0,0
-427,589,0,0,0,0,0,0,0,0,0,-1,797,435,0,0
-420,589,0,0,0,0,0,0,0,0,0,-1,804,435,0,0
-413,589,0,0,0,0,0,0,0,0,0,-1,811,435,0,0
-406,589,0,0,0,0,0,0,0,0,0,-1,818,435,0,0
-399,589,0,0,0,0,0,0,0,0,0,-1,825,435,0,0
-392,589,0,0,0,0,0,0,0,0,0,-1,832,435,0,0
-385,589,0,0,0,0,0,0,0,0,0,-1,839,435,0,0
-378,589,0,0,0,0,0,0,0,0,0,-1,846,435,0,0
-371,589,0,0,0,0,0,0,0,0,0,-1,853,435,0,0
-364,589,0,0,0,0,0,0,0,0,0,-1,860,435,0,0
-357,589,0,0,0,0,0,0,0,0,0,-1,867,435,0,0
-350,589,-0.262695,-13.5742,0,0,0,0,0,0,0,-1,874,435,-0.262715,13.5742
-343,589,0.187195,-13.2853,0,0,0,0,0,0,0,-1,881,435,0.187181,13.2853
-336,589,0.677856,-12.7685,0,0,0,0,0,0,0,-1,888,435,0.677838,12.7685
-329,589,0.0882568,-9.79782,0,0,0,0,0,0,0,-1,895,435,0.0882795,9.79781
-322,589,-0.481873,-9.3327,0,0,0,0,0,0,0,-1,902,435,-0.481902,9.33269
-315,589,-1.216,-8.91977,0,0,0,0,0,0,0,-1,909,435,-1.21602,8.91975
-308,589,1.44147,-6.56296,0,0,0,0,0,0,0,-1,916,435,1.44147,6.56296
-301,589,1.57501,-6.78668,0.014841,0.0120172,-0.00640704,0.0199899,0.00686834,-0.676949,0.0117279,0.0469502,923,435,1.57499,6.78668
-294,589,1.60327,-6.92914,0.0130506,0.0106337,-0.00597932,0.0179424,0.00574197,-0.685688,0.0105804,0.0460224,930,435,1.6033,6.92913
-287,589,1.65948,-7.27658,0.0110821,0.0091732,-0.00555766,0.0157667,0.00448864,-0.700359,0.00938001,0.0408322,937,435,1.65947,7.27658
-280,589,1.65875,-7.94733,0.00907066,0.00749164,-0.00511259,0.0134543,0.00310796,-0.708791,0.00813397,0.0318011,944,435,1.65878,7.94733
-273,589,1.66937,-8.22546,0.00722562,0.0057966,-0.00456923,0.0111359,0.00188634,-0.707839,0.00688185,0.0188712,951,435,1.66937,8.22546
-266,589,1.64917,-8.39005,0.00556823,0.00419893,-0.00390117,0.00884437,0.000922785,-0.698534,0.00561399,0.0162884,958,435,1.64915,8.39005
-259,589,1.62769,-8.53976,0.00419416,0.00274545,-0.00315265,0.0067046,0.00023501,-0.672478,0.00439349,0.0139126,965,435,1.62766,8.53978
-252,589,1.62097,-8.72119,0.00306575,0.00147191,-0.00231375,0.00471598,-0.000178314,-0.619547,0.00320508,0.00947436,972,435,1.62096,8.72119
-245,589,1.61926,-8.88208,0.00219164,0.000453155,-0.00163347,0.00317275,-0.000527957,-0.540883,0.00231134,0.00995246,979,435,1.61924,8.88207
-238,589,1.61658,-9.04431,0.00118691,0.000373899,-0.00126924,0.00211315,-0.000552343,-0.630422,0.00162449,0.0135461,986,435,1.61655,9.04432
-231,589,1.59723,-9.17841,0.000839837,-0.000429372,-0.00066762,0.00112634,-0.000715875,-0.405373,0.00107237,0.0146719,993,435,1.5972,9.17839
-224,589,1.57196,-9.34323,0.000657974,-0.000543906,-0.000293608,0.000725865,-0.000611797,-0.227236,0.000773235,0.0139839,1000,435,1.57197,9.34324
-217,589,1.58771,-9.50876,0.000382653,-0.000557622,5.02295e-05,0.000385329,-0.000560298,0.0532181,0.000549064,0.0145887,1007,435,1.58773,9.50875
-210,589,1.60419,-9.63791,0.00024734,-0.0006542,0.000295617,0.000335628,-0.000742488,0.290223,0.000637053,0.0138775,1014,435,1.60416,9.63792
-203,589,1.59003,-9.73831,0.000216699,-0.00076791,0.000594907,0.000496584,-0.0010478,0.439746,0.000910383,0.0102989,1021,435,1.59002,9.73831
-196,589,1.5863,-9.87994,0.000206752,-0.000646997,0.00094804,0.000819589,-0.00125983,0.573859,0.00120949,0.01265,1028,435,1.58634,9.87996
-189,589,1.57422,-10.0665,0.000154263,-0.00046815,0.00133117,0.00121012,-0.001524,0.670568,0.00158201,0.0164213,1035,435,1.57428,10.0665
-182,589,1.57825,-10.155,0.000135943,-0.000521324,0.00186524,0.00170128,-0.00208666,0.698199,0.00219074,0.0122582,1042,435,1.5783,10.155
-175,589,1.59387,-10.2626,0.000103359,-0.000542302,0.00243901,0.00224081,-0.00267975,0.7196,0.00284465,0.0152926,1049,435,1.59387,10.2626
-168,589,1.61536,-10.3929,0.000302946,-0.000792465,0.0030577,0.0028616,-0.00335112,0.696776,0.00359063,0.0129016,1056,435,1.61532,10.3929
-161,589,1.6178,-10.5131,0.000786224,-0.00111098,0.00338067,0.00334885,-0.00367361,0.648617,0.00405587,0.0114085,1063,435,1.61783,10.5131
-154,589,1.6062,-10.627,0.00142429,-0.00104798,0.00362596,0.00401903,-0.00364272,0.621119,0.0044253,0.0118068,1070,435,1.6062,10.627
-147,589,1.62341,-10.7298,0.00229929,-0.0010061,0.00371629,0.0047138,-0.00342062,0.576173,0.00471615,0.0126714,1077,435,1.62343,10.7298
-140,589,1.64026,-10.8274,0.00327443,-0.00100414,0.00354047,0.00527174,-0.00300145,0.513633,0.00483611,0.0135247,1084,435,1.6402,10.8274
-133,589,1.64124,-10.9214,0.00433589,-0.000820796,0.00320234,0.00586885,-0.00235376,0.446464,0.00488979,0.0139798,1091,435,1.64129,10.9214
-126,589,1.64661,-11.0289,0.00564137,-0.000778897,0.00259593,0.00655965,-0.00169718,0.340002,0.00503509,0.0110454,1098,435,1.64665,11.0289
-119,589,1.65735,-11.148,0.0070637,-0.000504971,0.00180931,0.00747398,-0.000915251,0.222989,0.00531407,0.0160004,1105,435,1.6573,11.148
-112,589,1.67358,-11.251,0.00835053,6.9233e-05,0.000882158,0.00844346,-2.36956e-05,0.104955,0.00563689,0.0163608,1112,435,1.67355,11.251
-105,589,1.68213,-11.3501,0.00954768,0.000869387,-0.000292135,0.00955751,0.000859565,-0.033612,0.00610535,0.0160862,1119,435,1.68217,11.3501
-98,589,1.73767,-11.4,0.0104729,0.00205838,-0.00134519,0.0106827,0.00184856,-0.15473,0.00659257,0.0170347,1126,435,1.73773,11.4
-91,589,1.78015,-11.4751,0.0110852,0.00303652,-0.00199733,0.0115536,0.00256813,-0.230346,0.00700508,0.0233719,1133,435,1.7801,11.4751
-84,589,1.80408,-11.6497,0.0113823,0.00412806,-0.0023161,0.0120587,0.00345165,-0.284143,0.00717104,0.0342827,1140,435,1.80403,11.6497
-77,589,1.82568,-11.824,0,0,0,0,0,0,0,-1,1147,435,1.82572,11.824
-70,589,1.48267,-9.90961,0,0,0,0,0,0,0,-1,1154,435,1.48264,9.9096
-63,589,0.880127,-5.50586,0,0,0,0,0,0,0,-1,1161,435,0.880186,5.50587
-56,589,-2.78052,-7.28082,0,0,0,0,0,0,0,-1,1168,435,-2.78053,7.28082
-49,589,-0.525757,-2.76703,0,0,0,0,0,0,0,-1,1175,435,-0.525771,2.76702
-42,589,-2.7738,-2.87921,0,0,0,0,0,0,0,-1,1182,435,-2.77383,2.87922
-35,589,-2.55225,-3.27551,0,0,0,0,0,0,0,-1,1189,435,-2.55223,3.27552
-28,589,-0.0632324,-3.42938,0,0,0,0,0,0,0,-1,1196,435,-0.063241,3.42938
-21,589,1.39478,-11.6032,0,0,0,0,0,0,0,-1,1203,435,1.39474,11.6032
-14,589,1.38782,-11.7006,0,0,0,0,0,0,0,-1,1210,435,1.38778,11.7005
-7,589,2.19775,-13.0283,0,0,0,0,0,0,0,-1,1217,435,2.19776,13.0283
0,589,1.10095,-11.7278,0,0,0,0,0,0,0,-1,1224,435,1.10095,11.7278
7,589,1.18115,-11.6237,0.0369659,0.00300539,0.0168849,0.043932,-0.00396073,0.391291,0.0306936,0.0482093,1231,435,1.1811,11.6236
14,589,1.67505,-11.5997,0.0368881,0.000805495,0.0141281,0.0417617,-0.00406806,0.332174,0.0292914,0.0463389,1238,435,1.67504,11.5997
21,589,2.39648,-11.4921,0.0352296,-0.001035,0.0108902,0.0382486,-0.00405397,0.270429,0.0269522,0.0469269,1245,435,2.39649,11.4921
28,589,2.43091,-11.9172,0,0,0,0,0,0,0,-1,1252,435,2.43088,11.9172
35,589,2.50488,-11.0931,0.0281699,-0.0010629,0.00407863,0.0287283,-0.0016213,0.136061,0.0197149,0.0461054,1259,435,2.50486,11.0931
42,589,2.02405,-11.8828,0.0240953,-0.000169296,0.000713297,0.0241162,-0.000190246,0.0293628,0.0161413,0.0465774,1266,435,2.02399,11.8828
49,589,2.32202,-12.0749,0,0,0,0,0,0,0,-1,1273,435,2.32203,12.0749
56,589,2.19495,-12.0665,0,0,0,0,0,0,0,-1,1280,435,2.19492,12.0665
63,589,2.87122,-11.4914,0.00817156,0.00833466,-0.00782337,0.0160769,0.000429315,-0.79061,0.0105777,0.0468596,1287,435,2.87127,11.4914
70,589,2.55994,-11.9958,0.00484592,0.011507,-0.0100922,0.018804,-0.0024511,-0.944777,0.0134278,0.0493978,1294,435,2.55993,11.9959
77,589,2.32544,-12.0114,0.00398858,0.0142939,-0.0110063,0.021294,-0.00301151,-1.00432,0.015299,0.0432287,1301,435,2.32544,12.0114
84,589,2.54846,-12.8303,0.00379821,0.0171726,-0.0107209,0.0231209,-0.00215011,-1.06425,0.0161783,0.0392656,1308,435,2.54847,12.8303
91,589,2.94934,-12.2012,0,0,0,0,0,0,0,-1,1315,435,2.9493,12.2012
98,589,3.0188,-12.4254,0.00341167,0.0231017,-0.00595417,0.0247622,0.00175119,-1.29883,0.0159565,0.0463198,1322,435,3.01875,12.4254
105,589,2.55005,-12.9187,0.00691109,0.0222688,-0.00106971,0.022343,0.00683695,-1.50159,0.0132194,0.0493382,1329,435,2.55006,12.9187
112,589,2.36145,-12.8346,0.00976653,0.0217325,0.00356704,0.0227151,0.00878389,1.30199,0.0132263,0.0462947,1336,435,2.36142,12.8346
119,589,2.16296,-12.7951,0,0,0,0,0,0,0,-1,1343,435,2.16293,12.7951
126,589,1.75671,-12.6507,0,0,0,0,0,0,0,-1,1350,435,1.75671,12.6507
133,589,3.10999,-11.7035,0,0,0,0,0,0,0,-1,1357,435,3.11,11.7035
140,589,2.52612,-11.8127,0.015871,0.0127651,0.0269132,0.041276,-0.0126399,0.756579,0.032559,0.0461081,1364,435,2.5261,11.8127
147,589,2.81519,-11.4612,0.0153492,0.0102265,0.0316999,0.0445911,-0.0190154,0.745086,0.0376998,0.0449933,1371,435,2.81522,11.4612
154,589,2.54565,-11.3257,0.0157719,0.00742567,0.0355388,0.0473817,-0.0241842,0.726954,0.0420359,0.0423866,1378,435,2.54562,11.3256
161,589,2.18713,-11.4132,0.0145604,0.00528446,0.0373258,0.0475353,-0.0276904,0.723587,0.0439324,0.0468157,1385,435,2.18709,11.4132
168,589,1.9303,-11.3237,0,0,0,0,0,0,0,-1,1392,435,1.93036,11.3237
175,589,8.66992,-7.65527,0,0,0,0,0,0,0,-1,1399,435,8.66994,7.65528
182,589,3.8136,-2.45389,0,0,0,0,0,0,0,-1,1406,435,3.81363,2.4539
189,589,3.69983,-3.68149,0,0,0,0,0,0,0,-1,1413,435,3.69987,3.68147
196,589,3.31055,-5.31677,0,0,0,0,0,0,0,-1,1420,435,3.31059,5.31678
203,589,2.72559,-8.84338,0,0,0,0,0,0,0,-1,1427,435,2.72558,8.84338
210,589,2.78845,-11.0345,0,0,0,0,0,0,0,-1,1434,435,2.78846,11.0345
217,589,2.79736,-10.9199,0.000989265,-0.00434886,-0.002135,0.00173811,-0.00509771,-0.337342,0.00410247,0.0294257,1441,435,2.79735,10.9199
224,589,2.80603,-10.8705,0.00101008,-0.00325358,-0.00170882,0.00161042,-0.00385392,-0.33785,0.00324226,0.0206169,1448,435,2.80601,10.8704
231,589,2.83875,-10.7773,0.00107884,-0.00226849,-0.00134535,0.00155252,-0.00274218,-0.338537,0.00251106,0.0186278,1455,435,2.83875,10.7773
238,589,2.84399,-10.6747,0.00128358,-0.00125966,-0.00103036,0.00164862,-0.0016247,-0.340487,0.00188987,0.0216117,1462,435,2.84396,10.6746
245,589,2.86304,-10.4937,0.0014871,-0.000326469,-0.000838911,0.00181564,-0.00065501,-0.373268,0.00147797,0.0196766,1469,435,2.863,10.4936
252,589,2.91956,-10.3748,0.00145938,0.000471858,-0.000741606,0.00185656,7.46755e-05,-0.491698,0.00121358,0.012793,1476,435,2.9195,10.3748
259,589,2.90784,-10.2632,0.00131694,0.000987712,-0.000668585,0.00184088,0.000463774,-0.664693,0.00110557,0.00945911,1483,435,2.90778,10.2632
266,589,2.89563,-10.1318,0.00120155,0.00126159,-0.000631038,0.00186333,0.000599821,-0.809166,0.0010983,0.00950746,1490,435,2.89568,10.1318
273,589,2.90259,-10.0231,0.000976006,0.00142803,-0.000637324,0.00187823,0.000525805,-0.955793,0.00111886,0.0113949,1497,435,2.90258,10.0231
280,589,2.92969,-9.90485,0.00085698,0.00157781,-0.000484626,0.00182135,0.000613441,-1.10513,0.00107006,0.0115615,1504,435,2.92973,9.90484
287,589,2.94128,-9.78055,0.000711415,0.00163939,-0.000416332,0.00179879,0.000552011,-1.20514,0.00106404,0.0104028,1511,435,2.94131,9.78056
294,589,2.93079,-9.6188,0.000551427,0.00159456,-0.00024347,0.00164858,0.000497399,-1.35243,0.00097644,0.00933952,1518,435,2.93073,9.61879
301,589,2.9375,-9.45615,0.000413746,0.00146322,-5.51696e-05,0.00146612,0.000410854,-1.51842,0.000873292,0.00982727,1525,435,2.93753,9.45613
308,589,2.93726,-9.31937,0.000354698,0.00152936,0.000131868,0.00154398,0.000340076,1.46037,0.000936769,0.0101692,1532,435,2.93723,9.31935
315,589,2.93225,-9.16852,0.000347381,0.001694,0.000341707,0.00177574,0.000265635,1.33598,0.00110597,0.0109598,1539,435,2.93224,9.16851
322,589,2.95874,-9.0144,0.000309941,0.00189825,0.000550243,0.00207025,0.000137944,1.26784,0.00133656,0.0116103,1546,435,2.95872,9.01441
329,589,2.96265,-8.84732,0.000175705,0.00208229,0.000729683,0.0023295,-7.15042e-05,1.24414,0.00157737,0.00996977,1553,435,2.96263,8.84733
336,589,2.9502,-8.68924,-0.000149864,0.00223125,0.000721079,0.0024326,-0.000351205,1.29851,0.00175058,0.00913271,1560,435,2.95015,8.68925
343,589,2.94714,-8.5408,-0.000495098,0.00231966,0.000733954,0.00249954,-0.000674982,1.33045,0.00193109,0.0106941,1567,435,2.94713,8.54079
350,589,2.94934,-8.37262,-0.000925788,0.00242125,0.000702519,0.00256272,-0.00106726,1.37207,0.00215424,0.0163226,1574,435,2.94937,8.37261
357,589,2.93506,-8.18832,-0.00143105,0.0025055,0.000590795,0.00259226,-0.00151781,1.425,0.00239982,0.0127053,1581,435,2.93505,8.18831
364,589,2.93396,-7.99475,-0.0020228,0.00255723,0.000372678,0.00258735,-0.00205293,1.49013,0.00268498,0.0102089,1588,435,2.93393,7.99474
371,589,2.93555,-7.82336,-0.00269571,0.00248686,0.000136213,0.00249044,-0.00269929,1.54454,0.0029971,0.0102201,1595,435,2.93559,7.82336
378,589,2.92139,-7.64331,-0.00349917,0.00250215,-0.000271164,0.00251438,-0.0035114,-1.52573,0.00349482,0.0114885,1602,435,2.92136,7.64332
385,589,2.92334,-7.46613,-0.00416138,0.00196228,-0.000804614,0.00206624,-0.00426534,-1.44231,0.00372831,0.0152637,1609,435,2.92333,7.46612
392,589,2.90723,-7.25314,-0.00425767,0.0016376,-0.00126553,0.00189779,-0.00451786,-1.36803,0.00380565,0.0173878,1616,435,2.90727,7.25314
399,589,2.86096,-7.00708,-0.00407714,0.00106981,-0.00160186,0.00152763,-0.00453496,-1.29241,0.00364096,0.0225202,1623,435,2.86095,7.00708
406,589,2.80762,-6.76208,0,0,0,0,0,0,0,-1,1630,435,2.80757,6.76207
413,589,2.73462,-6.58353,0,0,0,0,0,0,0,-1,1637,435,2.73462,6.58353
420,589,2.79724,-5.79956,0,0,0,0,0,0,0,-1,1644,435,2.7973,5.79955
427,589,2.87976,-5.28177,0,0,0,0,0,0,0,-1,1651,435,2.87972,5.28177
434,589,2.52734,-2.73029,0,0,0,0,0,0,0,-1,1658,435,2.52736,2.73029
441,589,3.17639,-2.02435,0,0,0,0,0,0,0,-1,1665,435,3.17643,2.02435
448,589,0.453735,-3.2868,0,0,0,0,0,0,0,-1,1672,435,0.453701,3.28681
455,589,0.664307,-3.46848,0,0,0,0,0,0,0,-1,1679,435,0.66425,3.46846
462,589,3.46716,-4.41891,0,0,0,0,0,0,0,-1,1686,435,3.4672,4.41891
469,589,0.0238037,-3.81497,0,0,0,0,0,0,0,-1,1693,435,0.0237965,3.81498
476,589,0,0,0,0,0,0,0,0,0,-1,1700,435,0,0
483,589,0,0,0,0,0,0,0,0,0,-1,1707,435,0,0
490,589,0,0,0,0,0,0,0,0,0,-1,1714,435,0,0
497,589,0,0,0,0,0,0,0,0,0,-1,1721,435,0,0
504,589,0,0,0,0,0,0,0,0,0,-1,1728,435,0,0
511,589,0,0,0,0,0,0,0,0,0,-1,1735,435,0,0
518,589,0,0,0,0,0,0,0,0,0,-1,1742,435,0,0
525,589,0,0,0,0,0,0,0,0,0,-1,1749,435,0,0
532,589,0,0,0,0,0,0,0,0,0,-1,1756,435,0,0
539,589,0,0,0,0,0,0,0,0,0,-1,1763,435,0,0
546,589,0,0,0,0,0,0,0,0,0,-1,1770,435,0,0
553,589,0,0,0,0,0,0,0,0,0,-1,1777,435,0,0
560,589,0,0,0,0,0,0,0,0,0,-1,1784,435,0,0
567,589,0,0,0,0,0,0,0,0,0,-1,1791,435,0,0
574,589,0,0,0,0,0,0,0,0,0,-1,1798,435,0,0
581,589,0,0,0,0,0,0,0,0,0,-1,1805,435,0,0
588,589,0,0,0,0,0,0,0,0,0,-1,1812,435,0,0
595,589,0,0,0,0,0,0,0,0,0,-1,1819,435,0,0
602,589,0,0,0,0,0,0,0,0,0,-1,1826,435,0,0
609,589,0,0,0,0,0,0,0,0,0,-1,1833,435,0,0
616,589,0,0,0,0,0,0,0,0,0,-1,1840,435,0,0
623,589,0,0,0,0,0,0,0,0,0,-1,1847,435,0,0
630,589,0,0,0,0,0,0,0,0,0,-1,1854,435,0,0
637,589,0,0,0,0,0,0,0,0,0,-1,1861,435,0,0
644,589,0,0,0,0,0,0,0,0,0,-1,1868,435,0,0
651,589,0,0,0,0,0,0,0,0,0,-1,1875,435,0,0
658,589,0,0,0,0,0,0,0,0,0,-1,1882,435,0,0
665,589,0,0,0,0,0,0,0,0,0,-1,1889,435,0,0
672,589,0,0,0,0,0,0,0,0,0,-1,1896,435,0,0
679,589,0,0,0,0,0,0,0,0,0,-1,1903,435,0,0
686,589,0,0,0,0,0,0,0,0,0,-1,1910,435,0,0
693,589,0,0,0,0,0,0,0,0,0,-1,1917,435,0,0
700,589,0,0,0,0,0,0,0,0,0,-1,1924,435,0,0
707,589,0,0,0,0,0,0,0,0,0,-1,1931,435,0,0
714,589,0,0,0,0,0,0,0,0,0,-1,1938,435,0,0
721,589,0,0,0,0,0,0,0,0,0,-1,1945,435,0,0
728,589,0,0,0,0,0,0,0,0,0,-1,1952,435,0,0
735,589,0,0,0,0,0,0,0,0,0,-1,1959,435,0,0
742,589,0,0,0,0,0,0,0,0,0,-1,1966,435,0,0
749,589,0,0,0,0,0,0,0,0,0,-1,1973,435,0,0
756,589,0,0,0,0,0,0,0,0,0,-1,1980,435,0,0
763,589,0,0,0,0,0,0,0,0,0,-1,1987,435,0,0
770,589,0,0,0,0,0,0,0,0,0,-1,1994,435,0,0
777,589,0,0,0,0,0,0,0,0,0,-1,2001,435,0,0
784,589,0,0,0,0,0,0,0,0,0,-1,2008,435,0,0
791,589,0,0,0,0,0,0,0,0,0,-1,2015,435,0,0
798,589,0,0,0,0,0,0,0,0,0,-1,2022,435,0,0
805,589,0,0,0,0,0,0,0,0,0,-1,2029,435,0,0
812,589,0,0,0,0,0,0,0,0,0,-1,2036,435,0,0
-700,582,0,0,0,0,0,0,0,0,0,-1,524,442,0,0
-693,582,0,0,0,0,0,0,0,0,0,-1,531,442,0,0
-686,582,0,0,0,0,0,0,0,0,0,-1,538,442,0,0
-679,582,0,0,0,0,0,0,0,0,0,-1,545,442,0,0
-672,582,0,0,0,0,0,0,0,0,0,-1,552,442,0,0
-665,582,0,0,0,0,0,0,0,0,0,-1,559,442,0,0
-658,582,0,0,0,0,0,0,0,0,0,-1,566,442,0,0
-651,582,0,0,0,0,0,0,0,0,0,-1,573,442,0,0
-644,582,0,0,0,0,0,0,0,0,0,-1,580,442,0,0
-637,582,0,0,0,0,0,0,0,0,0,-1,587,442,0,0
-630,582,0,0,0,0,0,0,0,0,0,-1,594,442,0,0
-623,582,0,0,0,0,0,0,0,0,0,-1,601,442,0,0
-616,582,0,0,0,0,0,0,0,0,0,-1,608,442,0,0
-609,582,0,0,0,0,0,0,0,0,0,-1,615,442,0,0
-602,582,0,0,0,0,0,0,0,0,0,-1,622,442,0,0
-595,582,0,0,0,0,0,0,0,0,0,-1,629,442,0,0
-588,582,0,0,0,0,0,0,0,0,0,-1,636,442,0,0
-581,582,0,0,0,0,0,0,0,0,0,-1,643,442,0,0
-574,582,0,0,0,0,0,0,0,0,0,-1,650,442,0,0
-567,582,0,0,0,0,0,0,0,0,0,-1,657,442,0,0
-560,582,0,0,0,0,0,0,0,0,0,-1,664,442,0,0
-553,582,0,0,0,0,0,0,0,0,0,-1,671,442,0,0
-546,582,0,0,0,0,0,0,0,0,0,-1,678,442,0,0
-539,582,0,0,0,0,0,0,0,0,0,-1,685,442,0,0
-532,582,0,0,0,0,0,0,0,0,0,-1,692,442,0,0
-525,582,0,0,0,0,0,0,0,0,0,-1,699,442,0,0
-518,582,0,0,0,0,0,0,0,0,0,-1,706,442,0,0
-511,582,0,0,0,0,0,0,0,0,0,-1,713,442,0,0
-504,582,0,0,0,0,0,0,0,0,0,-1,720,442,0,0
-497,582,0,0,0,0,0,0,0,0,0,-1,727,442,0,0
-490,582,0,0,0,0,0,0,0,0,0,-1,734,442,0,0
-483,582,0,0,0,0,0,0,0,0,0,-1,741,442,0,0
-476,582,0,0,0,0,0,0,0,0,0,-1,748,442,0,0
-469,582,0,0,0,0,0,0,0,0,0,-1,755,442,0,0
-462,582,0,0,0,0,0,0,0,0,0,-1,762,442,0,0
-455,582,0,0,0,0,0,0,0,0,0,-1,769,442,0,0
-448,582,0,0,0,0,0,0,0,0,0,-1,776,442,0,0
-441,582,0,0,0,0,0,0,0,0,0,-1,783,442,0,0
-434,582,0,0,0,0,0,0,0,0,0,-1,790,442,0,0
-427,582,0,0,0,0,0,0,0,0,0,-1,797,442,0,0
-420,582,0,0,0,0,0,0,0,0,0,-1,804,442,0,0
-413,582,0,0,0,0,0,0,0,0,0,-1,811,442,0,0
-406,582,0,0,0,0,0,0,0,0,0,-1,818,442,0,0
-399,582,0,0,0,0,0,0,0,0,0,-1,825,442,0,0
-392,582,0,0,0,0,0,0,0,0,0,-1,832,442,0,0
-385,582,0,0,0,0,0,0,0,0,0,-1,839,442,0,0
-378,582,0,0,0,0,0,0,0,0,0,-1,846,442,0,0
-371,582,0,0,0,0,0,0,0,0,0,-1,853,442,0,0
-364,582,0,0,0,0,0,0,0,0,0,-1,860,442,0,0
-357,582,6.4043,-4.18127,0,0,0,0,0,0,0,-1,867,442,6.40427,4.18126
-350,582,-1.12933,-15.713,0,0,0,0,0,0,0,-1,874,442,-1.12935,15.713
-343,582,-0.551086,-15.4312,0,0,0,0,0,0,0,-1,881,442,-0.5511,15.4311
-336,582,0.0556641,-4.78558,0,0,0,0,0,0,0,-1,888,442,0.0556634,4.78559
-329,582,-2.44604,-10.3816,0,0,0,0,0,0,0,-1,895,442,-2.44607,10.3816
-322,582,-3.14026,-10.0155,0,0,0,0,0,0,0,-1,902,442,-3.14024,10.0155
-315,582,1.30609,-6.64059,0,0,0,0,0,0,0,-1,909,442,1.30612,6.64059
-308,582,1.38147,-6.86691,0.0107036,0.0146455,-0.00663564,0.0195967,0.00575241,-0.929762,0.0116313,0.0488443,916,442,1.38149,6.86691
-301,582,1.44537,-7.09723,0.00958661,0.0136396,-0.00633142,0.018261,0.00496529,-0.940283,0.0109025,0.0445745,923,442,1.44538,7.09724
-294,582,1.45923,-7.33313,0.00850757,0.0120265,-0.00574747,0.0162778,0.00425629,-0.933934,0.00974793,0.0405442,930,442,1.45923,7.33312
-287,582,1.47858,-7.72784,0.00724174,0.0103065,-0.0052077,0.0142026,0.00334563,-0.928484,0.00857359,0.0309143,937,442,1.47857,7.72784
-280,582,1.52679,-8.02271,0.00595999,0.00843153,-0.00471249,0.0120676,0.00232393,-0.913628,0.00739318,0.0151226,944,442,1.52681,8.02271
-273,582,1.50549,-8.19653,0.00479866,0.00652227,-0.0041691,0.0099177,0.00140322,-0.887319,0.00619724,0.0104619,951,442,1.50548,8.19652
-266,582,1.50323,-8.37958,0.003765,0.00477179,-0.00355545,0.00785931,0.000677489,-0.855723,0.00502894,0.00988731,958,442,1.50323,8.37958
-259,582,1.49512,-8.55664,0.00293094,0.00324886,-0.00287316,0.00596745,0.000212342,-0.813033,0.00390944,0.00803978,965,442,1.49512,8.55665
-252,582,1.47357,-8.72446,0.00223383,0.00190002,-0.00213679,0.00421022,-7.63685e-05,-0.746422,0.00283262,0.00764143,972,442,1.47357,8.72446
-245,582,1.47565,-8.88412,0.00172142,0.000800614,-0.00154155,0.00286985,-0.000347816,-0.640284,0.00203908,0.0112943,979,442,1.47567,8.88411
-238,582,1.47815,-9.0343,0.0011817,0.000274288,-0.00117821,0.00199054,-0.000534553,-0.601609,0.00153652,0.0158166,986,442,1.47815,9.03429
-231,582,1.47021,-9.16956,0.00100037,-0.000500462,-0.000676617,0.00126037,-0.00076046,-0.366865,0.00117856,0.0127353,993,442,1.47024,9.16956
-224,582,1.45325,-9.31613,0.000905433,-0.000753545,-0.00032969,0.000968551,-0.000816663,-0.189158,0.00103194,0.0102497,1000,442,1.45324,9.31614
-217,582,1.44531,-9.4993,0.000730605,-0.000893276,1.80864e-05,0.000730807,-0.000893478,0.0111359,0.000939347,0.0122988,1007,442,1.44534,9.49929
-210,582,1.46741,-9.63242,0.000622274,-0.00108135,0.000460943,0.000738993,-0.00119807,0.248005,0.00112878,0.0126196,1014,442,1.46741,9.63241
-203,582,1.46289,-9.74762,0.000596979,-0.00132231,0.00102152,0.00103891,-0.00176425,0.40831,0.00163637,0.00944818,1021,442,1.4629,9.74762
-196,582,1.46643,-9.90842,0.000588934,-0.00121348,0.00159895,0.00152316,-0.00214771,0.528777,0.00212958,0.0145424,1028,442,1.46647,9.90842
-189,582,1.45715,-10.0712,0.000498468,-0.00109326,0.00226041,0.00209903,-0.00269382,0.616131,0.00277425,0.0220757,1035,442,1.45716,10.0712
-182,582,1.45947,-10.1945,0.000450451,-0.00111912,0.00308982,0.00285359,-0.00352226,0.661033,0.00368784,0.0158296,1042,442,1.45953,10.1944
-175,582,1.47363,-10.2533,0.000362884,-0.00109714,0.00394344,0.00364332,-0.00437757,0.693874,0.00463733,0.0128922,1049,442,1.47366,10.2533
-168,582,1.4873,-10.3718,0.000654276,-0.00138963,0.00481249,0.00455213,-0.00528748,0.680775,0.00568619,0.0104374,1056,442,1.48727,10.3718
-161,582,1.50635,-10.5118,0.00134508,-0.00180868,0.00524379,0.00524396,-0.00570755,0.639342,0.00632474,0.0118427,1063,442,1.50631,10.5118
-154,582,1.49915,-10.6134,0.0022032,-0.00174374,0.00556214,0.00613159,-0.00567213,0.614924,0.0068166,0.0117549,1070,442,1.49916,10.6134
-147,582,1.5155,-10.714,0.00338548,-0.0016802,0.00567687,0.00706892,-0.00536364,0.575567,0.00720041,0.0116259,1077,442,1.51555,10.714
-140,582,1.52124,-10.817,0.00472442,-0.00168453,0.00541367,0.00781093,-0.00477104,0.518169,0.00733453,0.0123306,1084,442,1.52121,10.817
-133,582,1.54041,-10.9309,0.00619544,-0.00147149,0.00493237,0.00860887,-0.00388493,0.455055,0.00738317,0.0142255,1091,442,1.54041,10.931
-126,582,1.56091,-11.0053,0.00810309,-0.0015962,0.00405065,0.00957221,-0.00306533,0.347933,0.00761184,0.0125432,1098,442,1.56096,11.0053
-119,582,1.55273,-11.0742,0.0102101,-0.00144192,0.00290632,0.0108948,-0.0021266,0.231364,0.00806608,0.0170042,1105,442,1.55273,11.0742
-112,582,1.4574,-11.2657,0.0121216,-0.000957722,0.0015752,0.0123087,-0.00114475,0.118183,0.00861275,0.0252277,1112,442,1.45746,11.2657
-105,582,1.44934,-11.4113,0.0139271,-5.66548e-05,-0.000100851,0.0139278,-5.73825e-05,-0.00721156,0.00930438,0.0316863,1119,442,1.44935,11.4114
-98,582,1.67615,-11.4854,0.0153475,0.0014891,-0.00155702,0.0155203,0.00131632,-0.110516,0.0099372,0.0348416,1126,442,1.6762,11.4855
-91,582,1.74597,-11.5744,0.0162863,0.00270605,-0.00244472,0.0167129,0.00227936,-0.172797,0.0104652,0.0395144,1133,442,1.74593,11.5744
-84,582,1.84351,-11.6845,0,0,0,0,0,0,0,-1,1140,442,1.84356,11.6845
-77,582,2.30212,-11.4907,0,0,0,0,0,0,0,-1,1147,442,2.30207,11.4907
-70,582,1.49255,-6.36548,0,0,0,0,0,0,0,-1,1154,442,1.49251,6.36549
-63,582,-4.62915,-4.0347,0,0,0,0,0,0,0,-1,1161,442,-4.6292,4.03471
-56,582,-5.81714,-5.24149,0,0,0,0,0,0,0,-1,1168,442,-5.81718,5.24149
-49,582,-3.88672,-10.1064,0,0,0,0,0,0,0,-1,1175,442,-3.88678,10.1064
-42,582,-0.948975,1.13968,0,0,0,0,0,0,0,-1,1182,442,-0.949003,-1.13969
-35,582,-2.58435,-3.86911,0,0,0,0,0,0,0,-1,1189,442,-2.58437,3.86912
-28,582,-0.825317,-3.45941,0,0,0,0,0,0,0,-1,1196,442,-0.825377,3.45942
-21,582,2.33789,-12.8168,0,0,0,0,0,0,0,-1,1203,442,2.33785,12.8168
-14,582,2.27576,-13.0738,0,0,0,0,0,0,0,-1,1210,442,2.27572,13.0738
-7,582,2.37439,-13.2802,0,0,0,0,0,0,0,-1,1217,442,2.37444,13.2802
0,582,1.35645,-7.23083,0,0,0,0,0,0,0,-1,1224,442,1.35645,7.23082
7,582,0.907227,-11.4073,0,0,0,0,0,0,0,-1,1231,442,0.907187,11.4073
14,582,2.37244,-11.2624,0,0,0,0,0,0,0,-1,1238,442,2.37239,11.2624
21,582,2.47571,-11.3166,0,0,0,0,0,0,0,-1,1245,442,2.47573,11.3166
28,582,2.5791,-11.3708,0,0,0,0,0,0,0,-1,1252,442,2.57906,11.3708
35,582,2.66101,-11.1045,0,0,0,0,0,0,0,-1,1259,442,2.66097,11.1045
42,582,1.99451,-11.8871,0,0,0,0,0,0,0,-1,1266,442,1.9945,11.8871
49,582,5.2561,-13.3599,0.0231251,0.0047054,-0.00306428,0.0236215,0.00420901,-0.160598,0.014549,0.0478131,1273,442,5.25607,13.3599
56,582,4.47009,-12.7468,0.0166423,0.00774574,-0.00641258,0.0199984,0.00438964,-0.482162,0.0121366,0.0453146,1280,442,4.47011,12.7468
63,582,3.7627,-12.2552,0.0114622,0.0109767,-0.0094772,0.0206998,0.00173915,-0.772595,0.0132582,0.0419767,1287,442,3.76267,12.2553
70,582,3.00391,-11.911,0.00771812,0.0142658,-0.0121455,0.023571,-0.00158708,-0.917044,0.0162688,0.0453091,1294,442,3.00391,11.911
77,582,1.9613,-12.267,0.00679938,0.0172491,-0.0133035,0.026317,-0.00226849,-0.972516,0.0183476,0.0471488,1301,442,1.96131,12.267
84,582,2.00452,-12.6524,0,0,0,0,0,0,0,-1,1308,442,2.00456,12.6524
91,582,3.39795,-11.8416,0,0,0,0,0,0,0,-1,1315,442,3.39796,11.8417
98,582,3.21582,-12.3045,0.00546819,0.0284703,-0.00558069,0.0297527,0.00418572,-1.34491,0.0185976,0.0459704,1322,442,3.2158,12.3045
105,582,2.56641,-13.1981,0.00938668,0.0277804,0.00087955,0.0278223,0.00934471,1.52312,0.0163492,0.047577,1329,442,2.56641,13.198
112,582,2.59375,-13.1655,0.0126292,0.0277669,0.00706613,0.0305527,0.00984348,1.19527,0.0180076,0.0453894,1336,442,2.5938,13.1655
119,582,2.44556,-13.2568,0,0,0,0,0,0,0,-1,1343,442,2.44552,13.2568
126,582,2.88989,-13.6449,0.0180969,0.0250668,0.0226666,0.0445147,-0.00135105,0.861676,0.0301369,0.0452928,1350,442,2.88987,13.6449
133,582,3.32593,-13.1318,0,0,0,0,0,0,0,-1,1357,442,3.32591,13.1318
140,582,1.76294,-12.2944,0,0,0,0,0,0,0,-1,1364,442,1.76292,12.2944
147,582,2.95032,-11.3486,0,0,0,0,0,0,0,-1,1371,442,2.95031,11.3486
154,582,2.79285,-11.548,0,0,0,0,0,0,0,-1,1378,442,2.79279,11.548
161,582,2.42432,-11.4931,0,0,0,0,0,0,0,-1,1385,442,2.42428,11.4931
168,582,2.61353,-10.6618,0,0,0,0,0,0,0,-1,1392,442,2.61354,10.6618
175,582,6.50549,-2.00424,0,0,0,0,0,0,0,-1,1399,442,6.50546,2.00425
182,582,5.18958,-2.18652,0,0,0,0,0,0,0,-1,1406,442,5.1896,2.18652
189,582,6.19751,-0.880951,0,0,0,0,0,0,0,-1,1413,442,6.19754,0.88096
196,582,4.87354,-2.22327,0,0,0,0,0,0,0,-1,1420,442,4.87348,2.22325
203,582,3.11401,-4.48257,0,0,0,0,0,0,0,-1,1427,442,3.11404,4.48259
210,582,2.93115,-11.0731,0,0,0,0,0,0,0,-1,1434,442,2.93113,11.0731
217,582,2.92468,-10.8289,0,0,0,0,0,0,0,-1,1441,442,2.9247,10.829
224,582,2.96277,-10.6265,0.00102817,-0.00471409,-0.0022265,0.00179031,-0.00547624,-0.329804,0.00437155,0.0433543,1448,442,2.9628,10.6265
231,582,2.84216,-10.5765,0.00120799,-0.00322711,-0.00176048,0.00182184,-0.00384096,-0.3355,0.00333798,0.0422618,1455,442,2.84212,10.5765
238,582,2.93555,-10.6047,0.00155723,-0.00182094,-0.00140432,0.00206477,-0.00232848,-0.346801,0.00253796,0.0415609,1462,442,2.9356,10.6047
245,582,2.99829,-10.6931,0.00186408,-0.000561676,-0.00120785,0.00236292,-0.00106052,-0.391661,0.00202364,0.0394419,1469,442,2.99831,10.6931
252,582,3.07996,-10.4718,0.00180419,0.000492618,-0.00113219,0.0024568,-0.000159993,-0.522898,0.00169372,0.0250934,1476,442,3.07998,10.4718
259,582,3.01672,-10.3433,0.00162161,0.00111066,-0.0010958,0.00249132,0.000240944,-0.670874,0.00158668,0.0193053,1483,442,3.01678,10.3433
266,582,2.98804,-10.2281,0.00150118,0.00142037,-0.00112574,0.00258724,0.000334314,-0.767459,0.00162489,0.0141013,1490,442,2.98801,10.2281
273,582,3.03625,-10.0538,0.00117715,0.00147538,-0.00122605,0.00256135,9.11779e-05,-0.845912,0.001678,0.0121435,1497,442,3.03622,10.0538
280,582,3.06018,-9.91867,0.00102463,0.00143069,-0.00110042,0.00234665,0.000108667,-0.876625,0.0015295,0.0103851,1504,442,3.06012,9.91867
287,582,3.09131,-9.77435,0.000819862,0.00133759,-0.00109673,0.00220559,-4.81362e-05,-0.901294,0.0014867,0.010443,1511,442,3.09126,9.77435
294,582,3.08276,-9.6279,0.000580675,0.00109329,-0.000951812,0.0018227,-0.000148735,-0.91692,0.00126762,0.00898196,1518,442,3.08272,9.62789
301,582,3.09277,-9.46826,0.000385258,0.000762752,-0.000781648,0.00137812,-0.000230108,-0.903867,0.00100427,0.00952963,1525,442,3.09273,9.46825
308,582,3.10278,-9.31644,0.000141876,0.000623219,-0.000712018,0.00113414,-0.000369046,-0.948376,0.000904561,0.0124206,1532,442,3.10278,9.31644
315,582,3.09888,-9.16507,-2.0986e-06,0.000648078,-0.00055617,0.000967201,-0.000321221,-1.04988,0.000774409,0.0134238,1539,442,3.09894,9.16507
322,582,3.11279,-9.01593,-0.000124339,0.000763509,-0.000366184,0.00089505,-0.00025588,-1.22593,0.00069781,0.00988507,1546,442,3.11275,9.01594
329,582,3.12305,-8.86368,-0.000271376,0.000895975,-0.000172792,0.000921015,-0.000296416,-1.42689,0.000733071,0.00934068,1553,442,3.12311,8.86367
336,582,3.11255,-8.70197,-0.000509425,0.00108062,-7.87394e-05,0.00108451,-0.000513314,-1.52144,0.000941949,0.0100203,1560,442,3.11256,8.70198
343,582,3.11011,-8.52536,-0.000767346,0.00121706,1.38785e-05,0.00121716,-0.000767443,1.5638,0.00115558,0.0120058,1567,442,3.11009,8.52536
350,582,3.11035,-8.36407,-0.00103539,0.00136916,8.9874e-05,0.00137252,-0.00103874,1.53349,0.00139658,0.0147809,1574,442,3.11041,8.36407
357,582,3.10828,-8.18829,-0.00129071,0.00151429,0.000125176,0.00151986,-0.00129629,1.52629,0.00162761,0.0127504,1581,442,3.10827,8.1883
364,582,3.10815,-8.00613,-0.00158357,0.0016649,9.6175e-05,0.00166774,-0.00158642,1.54122,0.00187898,0.0104306,1588,442,3.10816,8.00615
371,582,3.08301,-7.8187,-0.00191245,0.00176105,5.53637e-05,0.00176188,-0.00191328,1.55573,0.00212246,0.0138149,1595,442,3.08296,7.8187
378,582,3.06372,-7.6517,-0.00229917,0.00184339,-7.70222e-05,0.00184482,-0.0023006,-1.55221,0.00239818,0.0144626,1602,442,3.06373,7.6517
385,582,3.08301,-7.47812,-0.0025811,0.00159681,-0.000362432,0.00162802,-0.0026123,-1.4849,0.00247004,0.0112288,1609,442,3.08295,7.47811
392,582,3.06531,-7.28152,-0.00246873,0.00133429,-0.000622539,0.00143361,-0.00256804,-1.4126,0.00234109,0.00985479,1616,442,3.06529,7.28153
399,582,3.03662,-7.07108,-0.00218502,0.000850032,-0.000792056,0.0010443,-0.00237928,-1.33027,0.00202608,0.0125351,1623,442,3.03661,7.07106
406,582,3.02478,-6.81854,-0.00191258,0.000407075,-0.000990667,0.000772573,-0.00227808,-1.21735,0.0018314,0.0192188,1630,442,3.02484,6.81855
413,582,2.99182,-6.6275,-0.00180197,-0.000467663,-0.00157003,0.000571084,-0.00284072,-0.986304,0.00211009,0.0390897,1637,442,2.99188,6.6275
420,582,3.0238,-6.43533,0,0,0,0,0,0,0,-1,1644,442,3.02382,6.43533
427,582,2.94141,-6.28232,0,0,0,0,0,0,0,-1,1651,442,2.94143,6.28232
434,582,2.69434,-6.146,0,0,0,0,0,0,0,-1,1658,442,2.69434,6.14601
441,582,2.9032,-6.14038,0,0,0,0,0,0,0,-1,1665,442,2.90321,6.14037
448,582,1.52722,-2.85928,0,0,0,0,0,0,0,-1,1672,442,1.52724,2.85927
455,582,3.6698,-4.4032,0,0,0,0,0,0,0,-1,1679,442,3.66983,4.40319
462,582,1.38074,-3.94418,0,0,0,0,0,0,0,-1,1686,442,1.38074,3.94419
469,582,0.935181,-4.08994,0,0,0,0,0,0,0,-1,1693,442,0.93512,4.08994
476,582,0.489502,-4.23569,0,0,0,0,0,0,0,-1,1700,442,0.489502,4.23569
483,582,0,0,0,0,0,0,0,0,0,-1,1707,442,0,0
490,582,0,0,0,0,0,0,0,0,0,-1,1714,442,0,0
497,582,0,0,0,0,0,0,0,0,0,-1,1721,442,0,0
504,582,0,0,0,0,0,0,0,0,0,-1,1728,442,0,0
511,582,0,0,0,0,0,0,0,0,0,-1,1735,442,0,0
518,582,0,0,0,0,0,0,0,0,0,-1,1742,442,0,0
525,582,0,0,0,0,0,0,0,0,0,-1,1749,442,0,0
532,582,0,0,0,0,0,0,0,0,0,-1,1756,442,0,0
539,582,0,0,0,0,0,0,0,0,0,-1,1763,442,0,0
546,582,0,0,0,0,0,0,0,0,0,-1,1770,442,0,0
553,582,0,0,0,0,0,0,0,0,0,-1,1777,442,0,0
560,582,0,0,0,0,0,0,0,0,0,-1,1784,442,0,0
567,582,0,0,0,0,0,0,0,0,0,-1,1791,442,0,0
574,582,0,0,0,0,0,0,0,0,0,-1,1798,442,0,0
581,582,0,0,0,0,0,0,0,0,0,-1,1805,442,0,0
588,582,0,0,0,0,0,0,0,0,0,-1,1812,442,0,0
595,582,0,0,0,0,0,0,0,0,0,-1,1819,442,0,0
602,582,0,0,0,0,0,0,0,0,0,-1,1826,442,0,0
609,582,0,0,0,0,0,0,0,0,0,-1,1833,442,0,0
616,582,0,0,0,0,0,0,0,0,0,-1,1840,442,0,0
623,582,0,0,0,0,0,0,0,0,0,-1,1847,442,0,0
630,582,0,0,0,0,0,0,0,0,0,-1,1854,442,0,0
637,582,0,0,0,0,0,0,0,0,0,-1,1861,442,0,0
644,582,0,0,0,0,0,0,0,0,0,-1,1868,442,0,0
651,582,0,0,0,0,0,0,0,0,0,-1,1875,442,0,0
658,582,0,0,0,0,0,0,0,0,0,-1,1882,442,0,0
665,582,0,0,0,0,0,0,0,0,0,-1,1889,442,0,0
672,582,0,0,0,0,0,0,0,0,0,-1,1896,442,0,0
679,582,0,0,0,0,0,0,0,0,0,-1,1903,442,0,0
686,582,0,0,0,0,0,0,0,0,0,-1,1910,442,0,0
693,582,0,0,0,0,0,0,0,0,0,-1,1917,442,0,0
700,582,0,0,0,0,0,0,0,0,0,-1,1924,442,0,0
707,582,0,0,0,0,0,0,0,0,0,-1,1931,442,0,0
714,582,0,0,0,0,0,0,0,0,0,-1,1938,442,0,0
721,582,0,0,0,0,0,0,0,0,0,-1,1945,442,0,0
728,582,0,0,0,0,0,0,0,0,0,-1,1952,442,0,0
735,582,0,0,0,0,0,0,0,0,0,-1,1959,442,0,0
742,582,0,0,0,0,0,0,0,0,0,-1,1966,442,0,0
749,582,0,0,0,0,0,0,0,0,0,-1,1973,442,0,0
756,582,0,0,0,0,0,0,0,0,0,-1,1980,442,0,0
763,582,0,0,0,0,0,0,0,0,0,-1,1987,442,0,0
770,582,0,0,0,0,0,0,0,0,0,-1,1994,442,0,0
777,582,0,0,0,0,0,0,0,0,0,-1,2001,442,0,0
784,582,0,0,0,0,0,0,0,0,0,-1,2008,442,0,0
791,582,0,0,0,0,0,0,0,0,0,-1,2015,442,0,0
798,582,0,0,0,0,0,0,0,0,0,-1,2022,442,0,0
805,582,0,0,0,0,0,0,0,0,0,-1,2029,442,0,0
812,582,0,0,0,0,0,0,0,0,0,-1,2036,442,0,0
-700,575,0,0,0,0,0,0,0,0,0,-1,524,449,0,0
-693,575,0,0,0,0,0,0,0,0,0,-1,531,449,0,0
-686,575,0,0,0,0,0,0,0,0,0,-1,538,449,0,0
-679,575,0,0,0,0,0,0,0,0,0,-1,545,449,0,0
-672,575,0,0,0,0,0,0,0,0,0,-1,552,449,0,0
-665,575,0,0,0,0,0,0,0,0,0,-1,559,449,0,0
-658,575,0,0,0,0,0,0,0,0,0,-1,566,449,0,0
-651,575,0,0,0,0,0,0,0,0,0,-1,573,449,0,0
-644,575,0,0,0,0,0,0,0,0,0,-1,580,449,0,0
-637,575,0,0,0,0,0,0,0,0,0,-1,587,449,0,0
-630,575,0,0,0,0,0,0,0,0,0,-1,594,449,0,0
-623,575,0,0,0,0,0,0,0,0,0,-1,601,449,0,0
-616,575,0,0,0,0,0,0,0,0,0,-1,608,449,0,0
-609,575,0,0,0,0,0,0,0,0,0,-1,615,449,0,0
-602,575,0,0,0,0,0,0,0,0,0,-1,622,449,0,0
-595,575,0,0,0,0,0,0,0,0,0,-1,629,449,0,0
-588,575,0,0,0,0,0,0,0,0,0,-1,636,449,0,0
-581,575,0,0,0,0,0,0,0,0,0,-1,643,449,0,0
-574,575,0,0,0,0,0,0,0,0,0,-1,650,449,0,0
-567,575,0,0,0,0,0,0,0,0,0,-1,657,449,0,0
-560,575,0,0,0,0,0,0,0,0,0,-1,664,449,0,0
-553,575,0,0,0,0,0,0,0,0,0,-1,671,449,0,0
-546,575,0,0,0,0,0,0,0,0,0,-1,678,449,0,0
-539,575,0,0,0,0,0,0,0,0,0,-1,685,449,0,0
-532,575,0,0,0,0,0,0,0,0,0,-1,692,449,0,0
-525,575,0,0,0,0,0,0,0,0,0,-1,699,449,0,0
-518,575,0,0,0,0,0,0,0,0,0,-1,706,449,0,0
-511,575,0,0,0,0,0,0,0,0,0,-1,713,449,0,0
-504,575,0,0,0,0,0,0,0,0,0,-1,720,449,0,0
-497,575,0,0,0,0,0,0,0,0,0,-1,727,449,0,0
-490,575,0,0,0,0,0,0,0,0,0,-1,734,449,0,0
-483,575,0,0,0,0,0,0,0,0,0,-1,741,449,0,0
-476,575,0,0,0,0,0,0,0,0,0,-1,748,449,0,0
-469,575,0,0,0,0,0,0,0,0,0,-1,755,449,0,0
-462,575,0,0,0,0,0,0,0,0,0,-1,762,449,0,0
-455,575,0,0,0,0,0,0,0,0,0,-1,769,449,0,0
-448,575,0,0,0,0,0,0,0,0,0,-1,776,449,0,0
-441,575,0,0,0,0,0,0,0,0,0,-1,783,449,0,0
-434,575,0,0,0,0,0,0,0,0,0,-1,790,449,0,0
-427,575,0,0,0,0,0,0,0,0,0,-1,797,449,0,0
-420,575,0,0,0,0,0,0,0,0,0,-1,804,449,0,0
-413,575,0,0,0,0,0,0,0,0,0,-1,811,449,0,0
-406,575,0,0,0,0,0,0,0,0,0,-1,818,449,0,0
-399,575,0,0,0,0,0,0,0,0,0,-1,825,449,0,0
-392,575,0,0,0,0,0,0,0,0,0,-1,832,449,0,0
-385,575,0,0,0,0,0,0,0,0,0,-1,839,449,0,0
-378,575,0,0,0,0,0,0,0,0,0,-1,846,449,0,0
-371,575,0.56897,-3.52304,0,0,0,0,0,0,0,-1,853,449,0.568955,3.52306
-364,575,1.49805,-4.67191,0,0,0,0,0,0,0,-1,860,449,1.49803,4.6719
-357,575,7.00562,-3.99518,0,0,0,0,0,0,0,-1,867,449,7.0056,3.99517
-350,575,1.67273,-7.16425,0,0,0,0,0,0,0,-1,874,449,1.67271,7.16423
-343,575,0.124512,-6.51617,0,0,0,0,0,0,0,-1,881,449,0.124497,6.51618
-336,575,0.192383,-6.98215,0,0,0,0,0,0,0,-1,888,449,0.192363,6.98214
-329,575,1.37396,-6.60889,0,0,0,0,0,0,0,-1,895,449,1.37393,6.60888
-322,575,1.10077,-6.70828,0,0,0,0,0,0,0,-1,902,449,1.10076,6.70828
-315,575,1.2146,-6.91714,0,0,0,0,0,0,0,-1,909,449,1.21459,6.91714
-308,575,1.31805,-7.16928,0.00679437,0.0135733,-0.00589244,0.0169816,0.00338609,-1.0464,0.0103782,0.0420461,916,449,1.31803,7.16928
-301,575,1.4281,-7.47058,0.00609122,0.0125601,-0.0055064,0.0157117,0.00293957,-1.05095,0.00964512,0.0303186,923,449,1.4281,7.47058
-294,575,1.3894,-7.67145,0.00546594,0.0111259,-0.00492528,0.0139764,0.00261551,-1.04616,0.00857967,0.0214086,930,449,1.38941,7.67145
-287,575,1.38477,-7.86224,0.0046743,0.00954886,-0.00440483,0.0121457,0.00207741,-1.03809,0.0075012,0.0140364,937,449,1.38477,7.86223
-280,575,1.3786,-8.04456,0.00388028,0.0078502,-0.00397231,0.0103059,0.0014246,-1.0171,0.00644839,0.0112294,944,449,1.37859,8.04454
-273,575,1.35071,-8.21292,0.00317908,0.00608986,-0.00351738,0.00844106,0.000827881,-0.981559,0.00537271,0.0121247,951,449,1.35068,8.21291
-266,575,1.36279,-8.38876,0.00257231,0.0044762,-0.00302026,0.00669098,0.000357528,-0.938064,0.00434638,0.0136276,958,449,1.36281,8.38876
-259,575,1.34314,-8.56784,0.00211326,0.00308965,-0.00244898,0.00509862,0.000104294,-0.883782,0.00336486,0.0127141,965,449,1.34312,8.56784
-252,575,1.31262,-8.72507,0.00173208,0.00182903,-0.00183716,0.00361836,-5.72412e-05,-0.798588,0.00243154,0.0111621,972,449,1.31263,8.72507
-245,575,1.3053,-8.88004,0.00149544,0.000771933,-0.00133773,0.00251946,-0.000252094,-0.653346,0.00176967,0.0135625,979,449,1.30527,8.88004
-238,575,1.30786,-9.02621,0.00132476,-1.67376e-05,-0.00102212,0.00187656,-0.000568539,-0.495026,0.00147748,0.0133472,986,449,1.30784,9.02622
-231,575,1.31378,-9.15906,0.00130602,-0.000762355,-0.000616976,0.00147607,-0.000932412,-0.268951,0.0014023,0.0117945,993,449,1.31376,9.15906
-224,575,1.29987,-9.31061,0.00130029,-0.00115335,-0.000297375,0.00133582,-0.00118888,-0.118904,0.00145846,0.0121678,1000,449,1.29984,9.31061
-217,575,1.31976,-9.46417,0.00122442,-0.00142054,4.78832e-05,0.00122529,-0.00142141,0.0180957,0.00152947,0.0105733,1007,449,1.31974,9.46418
-210,575,1.3457,-9.6405,0.00114336,-0.00174245,0.000670444,0.00129151,-0.00189061,0.217484,0.00184802,0.00928523,1014,449,1.34572,9.64049
-203,575,1.32568,-9.76807,0.00112571,-0.0021832,0.00148622,0.00169524,-0.00275272,0.365942,0.00259211,0.0118198,1021,449,1.32566,9.76808
-196,575,1.32007,-9.9104,0.00111806,-0.0021313,0.00230224,0.00231116,-0.0033244,0.478129,0.00327118,0.0146919,1028,449,1.3201,9.91041
-189,575,1.32556,-10.0672,0.000970601,-0.00211511,0.00326142,0.00303569,-0.0041802,0.564465,0.00418353,0.0159627,1035,449,1.32561,10.0672
-182,575,1.33691,-10.1783,0.000870626,-0.00214092,0.00443493,0.00404844,-0.00531874,0.621741,0.00542469,0.0147268,1042,449,1.33693,10.1783
-175,575,1.34229,-10.2659,0.00070404,-0.00208067,0.00565276,0.0051334,-0.00651003,0.664645,0.00673798,0.0114454,1049,449,1.34234,10.2659
-168,575,1.33484,-10.3767,0.00109933,-0.00242048,0.00685309,0.00641488,-0.00773603,0.659712,0.00818189,0.00998465,1056,449,1.33481,10.3767
-161,575,1.36023,-10.522,0.0020478,-0.00295273,0.00746586,0.00742093,-0.00832586,0.623821,0.00909642,0.0133938,1063,449,1.36024,10.522
-154,575,1.38354,-10.6176,0.00316543,-0.00287789,0.00794586,0.00864478,-0.00835725,0.603702,0.00981659,0.0153389,1070,449,1.38352,10.6175
-147,575,1.39954,-10.6829,0.00473221,-0.00276579,0.00816641,0.00996905,-0.00800263,0.570211,0.0103966,0.0158858,1077,449,1.39958,10.6829
-140,575,1.34778,-10.7673,0.00657326,-0.00275154,0.00786311,0.0110523,-0.00723061,0.51779,0.0106323,0.0265313,1084,449,1.34779,10.7673
-133,575,1.49268,-10.9238,0.00861858,-0.00244878,0.00727808,0.0122278,-0.00605797,0.460361,0.0107557,0.0351882,1091,449,1.49273,10.9238
-126,575,1.56641,-10.9003,0.0114097,-0.00282044,0.00607349,0.0136494,-0.00506014,0.353293,0.0111749,0.0388428,1098,449,1.56635,10.9003
-119,575,1.35767,-10.8914,0.0145119,-0.00287218,0.00448794,0.0156021,-0.00396243,0.238312,0.0119434,0.038395,1105,449,1.3577,10.8914
-112,575,1.01978,-11.1723,0.0173313,-0.00259636,0.00264009,0.0176752,-0.0029402,0.129508,0.0128759,0.040651,1112,449,1.01977,11.1723
-105,575,1.38171,-11.7089,0.0200414,-0.00172373,0.000270503,0.0200448,-0.00172709,0.0124257,0.0139745,0.04624,1119,449,1.38166,11.7089
-98,575,1.5968,-11.6626,0.0222412,8.21991e-05,-0.00176256,0.0223805,-5.71227e-05,-0.0788807,0.0149394,0.0482448,1126,449,1.59674,11.6626
-91,575,1.82336,-11.5912,0,0,0,0,0,0,0,-1,1133,449,1.82342,11.5912
-84,575,2.38049,-10.9724,0,0,0,0,0,0,0,-1,1140,449,2.38049,10.9724
-77,575,0.205078,-11.2584,0,0,0,0,0,0,0,-1,1147,449,0.205117,11.2584
-70,575,-4.2467,-1.78738,0,0,0,0,0,0,0,-1,1154,449,-4.24674,1.78739
-63,575,-4.52209,-3.48798,0,0,0,0,0,0,0,-1,1161,449,-4.5221,3.48796
-56,575,-5.5968,-5.4928,0,0,0,0,0,0,0,-1,1168,449,-5.59683,5.49281
-49,575,-5.96863,-7.17612,0,0,0,0,0,0,0,-1,1175,449,-5.96868,7.1761
-42,575,-0.830322,0.773499,0,0,0,0,0,0,0,-1,1182,449,-0.83038,-0.77351
-35,575,-0.62085,0.205139,0,0,0,0,0,0,0,-1,1189,449,-0.620855,-0.205126
-28,575,0.49292,-3.87988,0,0,0,0,0,0,0,-1,1196,449,0.492941,3.87989
-21,575,-2.44336,-16.4868,0,0,0,0,0,0,0,-1,1203,449,-2.44331,16.4868
-14,575,2.27039,-13.6571,0,0,0,0,0,0,0,-1,1210,449,2.27039,13.6571
-7,575,-0.165649,-7.91925,0,0,0,0,0,0,0,-1,1217,449,-0.165655,7.91926
0,575,0.199341,-7.81778,0,0,0,0,0,0,0,-1,1224,449,0.199379,7.81779
7,575,0.57605,-7.76077,0.0492007,0.0181681,0.0271585,0.0649629,0.00240593,0.525865,0.0425293,0.0493875,1231,449,0.576005,7.76077
14,575,0.984375,-7.6665,0.0514318,0.0128151,0.0224502,0.0617346,0.00251225,0.430247,0.0403451,0.0482639,1238,449,0.984419,7.66649
21,575,2.53625,-11.1584,0,0,0,0,0,0,0,-1,1245,449,2.53627,11.1584
28,575,0.459106,-8.33545,0.046458,0.00676293,0.0111914,0.0493958,0.00382513,0.256714,0.0317324,0.0422676,1252,449,0.459132,8.33544
35,575,0.488892,-9.00781,0.0420752,0.00625906,0.00558186,0.042925,0.0054093,0.151076,0.0269948,0.0429031,1259,449,0.488936,9.00782
42,575,6.172,-13.8661,0.0366054,0.00637155,0.000324186,0.0366089,0.00636807,0.010721,0.0225845,0.0424054,1266,449,6.17194,13.8661
49,575,5.53235,-13.2746,0.0284709,0.00820108,-0.00419955,0.0293065,0.00736546,-0.196414,0.0176039,0.042865,1273,449,5.53236,13.2746
56,575,4.76038,-12.8524,0.0210912,0.0110151,-0.00814108,0.0256271,0.00647928,-0.508317,0.0153866,0.0432512,1280,449,4.76038,12.8524
63,575,4.05762,-12.3381,0.015373,0.0140277,-0.0115816,0.0263015,0.00309918,-0.756392,0.016598,0.044626,1287,449,4.05765,12.3381
70,575,1.80542,-12.1283,0,0,0,0,0,0,0,-1,1294,449,1.80538,12.1283
77,575,1.7511,-12.51,0.010667,0.0202186,-0.0159409,0.0320837,-0.0011981,-0.930941,0.0217995,0.0467483,1301,449,1.75108,12.51
84,575,1.6283,-12.9009,0.0100595,0.0238157,-0.014414,0.0329085,0.00096664,-1.00801,0.021624,0.0455705,1308,449,1.62834,12.9009
91,575,3.30237,-13.5896,0,0,0,0,0,0,0,-1,1315,449,3.30239,13.5896
98,575,2.92358,-13.6774,0.00823263,0.0343846,-0.00438608,0.0351006,0.00751662,-1.40898,0.0213408,0.0451851,1322,449,2.92361,13.6774
105,575,2.58044,-13.5904,0.0122755,0.0340678,0.00390654,0.0347469,0.0115964,1.39867,0.0204275,0.042051,1329,449,2.58046,13.5904
112,575,2.57776,-13.6345,0.0156884,0.0349671,0.0119408,0.0406737,0.00998178,1.12497,0.0244767,0.0429427,1336,449,2.57777,13.6345
119,575,2.83826,-13.6216,0.0187862,0.0345152,0.0215321,0.0495741,0.00372729,0.960494,0.0318797,0.0444636,1343,449,2.83822,13.6216
126,575,2.95447,-13.4521,0.0210566,0.0333872,0.0319069,0.059719,-0.00527525,0.880836,0.0416825,0.0493804,1350,449,2.95448,13.4521
133,575,3.0481,-13.2962,0,0,0,0,0,0,0,-1,1357,449,3.04812,13.2962
140,575,1.19421,-12.5122,0,0,0,0,0,0,0,-1,1364,449,1.1942,12.5122
147,575,1.75427,-13.128,0.0196316,0.0231022,0.0610072,0.0823988,-0.039665,0.799616,0.0718987,0.0491943,1371,449,1.75422,13.128
154,575,2.64563,-13.1918,0.0180859,0.019015,0.0678884,0.0864405,-0.0493396,0.78882,0.0793621,0.0480433,1378,449,2.64562,13.1918
161,575,3.53992,-13.1912,0,0,0,0,0,0,0,-1,1385,449,3.53992,13.1912
168,575,9.2522,-0.307129,0,0,0,0,0,0,0,-1,1392,449,9.25225,0.307127
175,575,4.32617,1.93634,0,0,0,0,0,0,0,-1,1399,449,4.32612,-1.93634
182,575,6.3147,-2.88345,0,0,0,0,0,0,0,-1,1406,449,6.31466,2.88346
189,575,6.10449,-1.30817,0,0,0,0,0,0,0,-1,1413,449,6.10455,1.30817
196,575,5.79895,0.818359,0,0,0,0,0,0,0,-1,1420,449,5.79895,-0.81837
203,575,3.29724,-1.46378,0,0,0,0,0,0,0,-1,1427,449,3.29722,1.46377
210,575,2.32739,-7.74503,0,0,0,0,0,0,0,-1,1434,449,2.32741,7.74502
217,575,3.22815,-11.0961,0,0,0,0,0,0,0,-1,1441,449,3.2282,11.0961
224,575,3.14355,-10.4338,0,0,0,0,0,0,0,-1,1448,449,3.14352,10.4338
231,575,2.83252,-10.492,0,0,0,0,0,0,0,-1,1455,449,2.83247,10.492
238,575,3.24146,-10.6474,0,0,0,0,0,0,0,-1,1462,449,3.24149,10.6474
245,575,3.24207,-11.0106,0,0,0,0,0,0,0,-1,1469,449,3.24208,11.0106
252,575,3.23352,-10.6749,0,0,0,0,0,0,0,-1,1476,449,3.23354,10.6749
259,575,3.16174,-10.5428,0,0,0,0,0,0,0,-1,1483,449,3.1618,10.5428
266,575,3.1051,-10.4317,0,0,0,0,0,0,0,-1,1490,449,3.10505,10.4317
273,575,3.24609,-10.1313,0.00128695,0.00183452,-0.0016516,0.00323487,-0.000113408,-0.867536,0.00219536,0.037986,1497,449,3.24605,10.1313
280,575,3.2699,-9.86191,0.00110623,0.00176051,-0.0014671,0.0029365,-6.97579e-05,-0.895095,0.00198133,0.0244886,1504,449,3.26984,9.86192
287,575,3.20618,-9.79611,0.000846312,0.00151775,-0.00152116,0.00273979,-0.000375734,-0.894006,0.00196379,0.0138252,1511,449,3.20624,9.79612
294,575,3.2489,-9.62064,0.00053318,0.00105254,-0.00141458,0.00223108,-0.000645359,-0.876174,0.0017428,0.0101404,1518,449,3.2489,9.62063
301,575,3.2511,-9.47543,0.000310309,0.000479301,-0.00129637,0.00169393,-0.000904319,-0.817942,0.00152301,0.00948466,1525,449,3.25107,9.47544
308,575,3.2644,-9.32312,-7.95991e-05,5.48063e-05,-0.00140969,0.0013989,-0.00142369,-0.809216,0.00162964,0.0103547,1532,449,3.26438,9.32313
315,575,3.25635,-9.17026,-0.000307455,-0.000145326,-0.00136416,0.00114018,-0.00159296,-0.815076,0.00158518,0.0105047,1539,449,3.25639,9.17025
322,575,3.26892,-9.01736,-0.000465066,-0.000200813,-0.00124564,0.000919693,-0.00158557,-0.838236,0.00146335,0.00892083,1546,449,3.26886,9.01736
329,575,3.26318,-8.87897,-0.000601974,-0.000191084,-0.00109128,0.000713918,-0.00150698,-0.87844,0.0013092,0.00957946,1553,449,3.26313,8.87896
336,575,3.24707,-8.71609,-0.000766699,-3.65308e-05,-0.000948998,0.000615186,-0.00141842,-0.969024,0.00120424,0.0115488,1560,449,3.24705,8.71609
343,575,3.27771,-8.52151,-0.000984875,0.00010002,-0.000819048,0.000539961,-0.00142482,-1.07788,0.00117208,0.0116567,1567,449,3.27773,8.5215
350,575,3.28333,-8.35193,-0.00117045,0.000272423,-0.000674256,0.000538454,-0.00143648,-1.19499,0.00117887,0.0106272,1574,449,3.28329,8.35192
357,575,3.29321,-8.19266,-0.00128992,0.000462493,-0.000535755,0.000613307,-0.00144073,-1.2964,0.00121755,0.0107519,1581,449,3.29315,8.19267
364,575,3.27747,-8.01273,-0.00143025,0.000707796,-0.000424832,0.000789117,-0.00151157,-1.38166,0.00134995,0.0107791,1588,449,3.27752,8.01272
371,575,3.20801,-7.83945,-0.00160676,0.000927681,-0.000308977,0.000964805,-0.00164389,-1.45122,0.00152304,0.0183216,1595,449,3.20803,7.83943
378,575,3.24805,-7.64877,-0.00179114,0.00112953,-0.000248015,0.00115044,-0.00181205,-1.48668,0.00172455,0.0177053,1602,449,3.24807,7.64876
385,575,3.26331,-7.46597,-0.00188647,0.00115423,-0.000364105,0.00119723,-0.00192946,-1.45327,0.00182162,0.0112024,1609,449,3.26336,7.46596
392,575,3.24207,-7.27417,-0.00168243,0.000978397,-0.000483559,0.00106355,-0.00176759,-1.39649,0.00165132,0.00913816,1616,449,3.24207,7.27417
399,575,3.22009,-7.0954,-0.00135198,0.00059454,-0.000535524,0.000732145,-0.00148959,-1.31928,0.00130733,0.00985261,1623,449,3.22011,7.09538
406,575,3.22278,-6.88977,-0.00107804,0.000230945,-0.000616771,0.000475767,-0.00132286,-1.19293,0.00107614,0.0105119,1630,449,3.22273,6.88977
413,575,3.23254,-6.68668,-0.00094286,-0.000409457,-0.000978012,0.000337566,-0.00168988,-0.91851,0.00125434,0.0116882,1637,449,3.23252,6.68667
420,575,3.21289,-6.4856,-0.000287582,-0.00123845,-0.00127318,0.000596041,-0.00212207,-0.606705,0.00164969,0.0139693,1644,449,3.21291,6.48558
427,575,3.16541,-6.32526,0.000991979,-0.00211195,-0.00140729,0.00153502,-0.00265499,-0.368274,0.00244774,0.0203475,1651,449,3.1654,6.32527
434,575,3.08569,-6.22028,0.00249214,-0.00316402,-0.00153568,0.00288219,-0.00355407,-0.248731,0.00372272,0.0288239,1658,449,3.08565,6.22026
441,575,3.26917,-6.14584,0.00449751,-0.0042258,-0.00131068,0.00469019,-0.00441847,-0.145958,0.00525967,0.0457747,1665,449,3.26911,6.14583
448,575,3.505,-6.06708,0,0,0,0,0,0,0,-1,1672,449,3.50501,6.06707
455,575,2.88135,-4.53244,0,0,0,0,0,0,0,-1,1679,449,2.8814,4.53243
462,575,2.86719,-4.47812,0,0,0,0,0,0,0,-1,1686,449,2.86714,4.47811
469,575,2.88721,-5.13208,0,0,0,0,0,0,0,-1,1693,449,2.88715,5.13208
476,575,3.02148,-4.86987,0,0,0,0,0,0,0,-1,1700,449,3.02151,4.86989
483,575,0.876221,-3.40201,0,0,0,0,0,0,0,-1,1707,449,0.876263,3.40201
490,575,0.700684,-2.41489,0,0,0,0,0,0,0,-1,1714,449,0.700745,2.4149
497,575,0,0,0,0,0,0,0,0,0,-1,1721,449,0,0
504,575,0,0,0,0,0,0,0,0,0,-1,1728,449,0,0
511,575,0,0,0,0,0,0,0,0,0,-1,1735,449,0,0
518,575,0,0,0,0,0,0,0,0,0,-1,1742,449,0,0
525,575,0,0,0,0,0,0,0,0,0,-1,1749,449,0,0
532,575,0,0,0,0,0,0,0,0,0,-1,1756,449,0,0
539,575,0,0,0,0,0,0,0,0,0,-1,1763,449,0,0
546,575,0,0,0,0,0,0,0,0,0,-1,1770,449,0,0
553,575,0,0,0,0,0,0,0,0,0,-1,1777,449,0,0
560,575,0,0,0,0,0,0,0,0,0,-1,1784,449,0,0
567,575,0,0,0,0,0,0,0,0,0,-1,1791,449,0,0
574,575,0,0,0,0,0,0,0,0,0,-1,1798,449,0,0
581,575,0,0,0,0,0,0,0,0,0,-1,1805,449,0,0
588,575,0,0,0,0,0,0,0,0,0,-1,1812,449,0,0
595,575,0,0,0,0,0,0,0,0,0,-1,1819,449,0,0
602,575,0,0,0,0,0,0,0,0,0,-1,1826,449,0,0
609,575,0,0,0,0,0,0,0,0,0,-1,1833,449,0,0
616,575,0,0,0,0,0,0,0,0,0,-1,1840,449,0,0
623,575,0,0,0,0,0,0,0,0,0,-1,1847,449,0,0
630,575,0,0,0,0,0,0,0,0,0,-1,1854,449,0,0
637,575,0,0,0,0,0,0,0,0,0,-1,1861,449,0,0
644,575,0,0,0,0,0,0,0,0,0,-1,1868,449,0,0
651,575,0,0,0,0,0,0,0,0,0,-1,1875,449,0,0
658,575,0,0,0,0,0,0,0,0,0,-1,1882,449,0,0
665,575,0,0,0,0,0,0,0,0,0,-1,1889,449,0,0
672,575,0,0,0,0,0,0,0,0,0,-1,1896,449,0,0
679,575,0,0,0,0,0,0,0,0,0,-1,1903,449,0,0
686,575,0,0,0,0,0,0,0,0,0,-1,1910,449,0,0
693,575,0,0,0,0,0,0,0,0,0,-1,1917,449,0,0
700,575,0,0,0,0,0,0,0,0,0,-1,1924,449,0,0
707,575,0,0,0,0,0,0,0,0,0,-1,1931,449,0,0
714,575,0,0,0,0,0,0,0,0,0,-1,1938,449,0,0
721,575,0,0,0,0,0,0,0,0,0,-1,1945,449,0,0
728,575,0,0,0,0,0,0,0,0,0,-1,1952,449,0,0
735,575,0,0,0,0,0,0,0,0,0,-1,1959,449,0,0
742,575,0,0,0,0,0,0,0,0,0,-1,1966,449,0,0
749,575,0,0,0,0,0,0,0,0,0,-1,1973,449,0,0
756,575,0,0,0,0,0,0,0,0,0,-1,1980,449,0,0
763,575,0,0,0,0,0,0,0,0,0,-1,1987,449,0,0
770,575,0,0,0,0,0,0,0,0,0,-1,1994,449,0,0
777,575,0,0,0,0,0,0,0,0,0,-1,2001,449,0,0
784,575,0,0,0,0,0,0,0,0,0,-1,2008,449,0,0
791,575,0,0,0,0,0,0,0,0,0,-1,2015,449,0,0
798,575,0,0,0,0,0,0,0,0,0,-1,2022,449,0,0
805,575,0,0,0,0,0,0,0,0,0,-1,2029,449,0,0
812,575,0,0,0,0,0,0,0,0,0,-1,2036,449,0,0
-700,568,0,0,0,0,0,0,0,0,0,-1,524,456,0,0
-693,568,0,0,0,0,0,0,0,0,0,-1,531,456,0,0
-686,568,0,0,0,0,0,0,0,0,0,-1,538,456,0,0
-679,568,0,0,0,0,0,0,0,0,0,-1,545,456,0,0
-672,568,0,0,0,0,0,0,0,0,0,-1,552,456,0,0
-665,568,0,0,0,0,0,0,0,0,0,-1,559,456,0,0
-658,568,0,0,0,0,0,0,0,0,0,-1,566,456,0,0
-651,568,0,0,0,0,0,0,0,0,0,-1,573,456,0,0
-644,568,0,0,0,0,0,0,0,0,0,-1,580,456,0,0
-637,568,0,0,0,0,0,0,0,0,0,-1,587,456,0,0
-630,568,0,0,0,0,0,0,0,0,0,-1,594,456,0,0
-623,568,0,0,0,0,0,0,0,0,0,-1,601,456,0,0
-616,568,0,0,0,0,0,0,0,0,0,-1,608,456,0,0
-609,568,0,0,0,0,0,0,0,0,0,-1,615,456,0,0
-602,568,0,0,0,0,0,0,0,0,0,-1,622,456,0,0
-595,568,0,0,0,0,0,0,0,0,0,-1,629,456,0,0
-588,568,0,0,0,0,0,0,0,0,0,-1,636,456,0,0
-581,568,0,0,0,0,0,0,0,0,0,-1,643,456,0,0
-574,568,0,0,0,0,0,0,0,0,0,-1,650,456,0,0
-567,568,0,0,0,0,0,0,0,0,0,-1,657,456,0,0
-560,568,0,0,0,0,0,0,0,0,0,-1,664,456,0,0
-553,568,0,0,0,0,0,0,0,0,0,-1,671,456,0,0
-546,568,0,0,0,0,0,0,0,0,0,-1,678,456,0,0
-539,568,0,0,0,0,0,0,0,0,0,-1,685,456,0,0
-532,568,0,0,0,0,0,0,0,0,0,-1,692,456,0,0
-525,568,0,0,0,0,0,0,0,0,0,-1,699,456,0,0
-518,568,0,0,0,0,0,0,0,0,0,-1,706,456,0,0
-511,568,0,0,0,0,0,0,0,0,0,-1,713,456,0,0
-504,568,0,0,0,0,0,0,0,0,0,-1,720,456,0,0
-497,568,0,0,0,0,0,0,0,0,0,-1,727,456,0,0
-490,568,0,0,0,0,0,0,0,0,0,-1,734,456,0,0
-483,568,0,0,0,0,0,0,0,0,0,-1,741,456,0,0
-476,568,0,0,0,0,0,0,0,0,0,-1,748,456,0,0
-469,568,0,0,0,0,0,0,0,0,0,-1,755,456,0,0
-462,568,0,0,0,0,0,0,0,0,0,-1,762,456,0,0
-455,568,0,0,0,0,0,0,0,0,0,-1,769,456,0,0
-448,568,0,0,0,0,0,0,0,0,0,-1,776,456,0,0
-441,568,0,0,0,0,0,0,0,0,0,-1,783,456,0,0
-434,568,0,0,0,0,0,0,0,0,0,-1,790,456,0,0
-427,568,0,0,0,0,0,0,0,0,0,-1,797,456,0,0
-420,568,0,0,0,0,0,0,0,0,0,-1,804,456,0,0
-413,568,0,0,0,0,0,0,0,0,0,-1,811,456,0,0
-406,568,0,0,0,0,0,0,0,0,0,-1,818,456,0,0
-399,568,0,0,0,0,0,0,0,0,0,-1,825,456,0,0
-392,568,0,0,0,0,0,0,0,0,0,-1,832,456,0,0
-385,568,0,0,0,0,0,0,0,0,0,-1,839,456,0,0
-378,568,0.0559082,-3.97311,0,0,0,0,0,0,0,-1,846,456,0.0559355,3.97311
-371,568,0.428345,-4.25775,0,0,0,0,0,0,0,-1,853,456,0.428339,4.25776
-364,568,1.06445,-4.49878,0,0,0,0,0,0,0,-1,860,456,1.06443,4.49877
-357,568,1.72162,-7.40503,0,0,0,0,0,0,0,-1,867,456,1.72162,7.40502
-350,568,0.518005,-6.60342,0,0,0,0,0,0,0,-1,874,456,0.518007,6.60342
-343,568,0.648132,-6.31827,0,0,0,0,0,0,0,-1,881,456,0.648129,6.31826
-336,568,1.03149,-6.6001,0,0,0,0,0,0,0,-1,888,456,1.03147,6.60011
-329,568,1.20935,-6.62399,0.00531031,0.0114068,-0.0068232,0.0158317,0.000885412,-0.99547,0.010272,0.0453591,895,456,1.20934,6.624
-322,568,1.34326,-6.79474,0.00504318,0.0117697,-0.00592447,0.015219,0.0015939,-1.04356,0.00965865,0.039834,902,456,1.34328,6.79474
-315,568,1.24097,-7.14316,0,0,0,0,0,0,0,-1,909,456,1.24095,7.14315
-308,568,1.31647,-7.34735,0.00422959,0.0112543,-0.00477872,0.0136726,0.00181128,-1.10231,0.00857532,0.0258618,916,456,1.31645,7.34737
-301,568,1.25879,-7.52301,0.00381974,0.010432,-0.00441901,0.0126448,0.00160698,-1.10656,0.00794853,0.0139558,923,456,1.25881,7.523
-294,568,1.22845,-7.68124,0.00350704,0.00931541,-0.00390926,0.0112812,0.00154126,-1.10487,0.00706332,0.010241,930,456,1.22843,7.68123
-287,568,1.21625,-7.85873,0.00304212,0.00800521,-0.00347053,0.00979012,0.00125721,-1.09577,0.00615066,0.00892601,937,456,1.21622,7.85872
-280,568,1.21259,-8.0462,0.00256765,0.00658644,-0.00313865,0.00830382,0.000850277,-1.07013,0.00527534,0.0102751,944,456,1.21257,8.0462
-273,568,1.19794,-8.21756,0.00216027,0.00508779,-0.00278748,0.00677247,0.000475594,-1.02717,0.00436509,0.0126212,951,456,1.19794,8.21755
-266,568,1.19135,-8.38876,0.00182924,0.00371265,-0.00240963,0.00535805,0.000183838,-0.971677,0.00351236,0.0121651,958,456,1.19134,8.38877
-259,568,1.17828,-8.56622,0.00161245,0.0025536,-0.00195498,0.00409384,7.22064e-05,-0.903504,0.00270548,0.0125089,965,456,1.17826,8.56621
-252,568,1.16571,-8.71869,0.00145259,0.00146311,-0.00147488,0.00293274,-1.70424e-05,-0.787182,0.00196086,0.0125228,972,456,1.16571,8.71868
-245,568,1.16931,-8.85873,0.00142819,0.000512321,-0.00107778,0.00214128,-0.000200772,-0.58451,0.00149893,0.0132665,979,456,1.16932,8.85873
-238,568,1.16724,-9.01224,0.00156484,-0.00043312,-0.000835801,0.00186837,-0.000736647,-0.348347,0.0015506,0.0114825,986,456,1.16722,9.01224
-231,568,1.1579,-9.16977,0.00170069,-0.00114993,-0.000522268,0.00179336,-0.0012426,-0.175616,0.0017624,0.0108102,993,456,1.15792,9.16977
-224,568,1.14691,-9.33319,0.00178046,-0.00168225,-0.000228458,0.00179547,-0.00169726,-0.0655978,0.00201679,0.0126192,1000,456,1.14689,9.33318
-217,568,1.18695,-9.47501,0.00181625,-0.00208549,0.000117663,0.00181979,-0.00208903,0.0301202,0.00225855,0.0110579,1007,456,1.18693,9.475
-210,568,1.21259,-9.61588,0.00178133,-0.00255527,0.000928281,0.00197168,-0.00274562,0.202253,0.00273573,0.0109496,1014,456,1.21257,9.61589
-203,568,1.18799,-9.76492,0.00178635,-0.00322967,0.00202075,0.00249914,-0.00394246,0.339109,0.00375005,0.00977586,1021,456,1.18797,9.76491
-196,568,1.19836,-9.89572,0.00180337,-0.00326904,0.00311019,0.00328034,-0.00474601,0.443353,0.0046597,0.0122786,1028,456,1.19837,9.89573
-189,568,1.20422,-10.0118,0.0016118,-0.00339408,0.00442703,0.00419445,-0.00597674,0.528112,0.00590232,0.0124671,1035,456,1.20424,10.0118
-182,568,1.21936,-10.1383,0.0014564,-0.00345964,0.00603768,0.00551723,-0.00752047,0.592086,0.00755688,0.0134364,1042,456,1.21938,10.1383
-175,568,1.23572,-10.269,0.001193,-0.00338626,0.00775855,0.00699272,-0.00918597,0.641916,0.00936934,0.0114316,1049,456,1.23571,10.269
-168,568,1.20984,-10.3787,0.00172278,-0.00381157,0.00943051,0.00878371,-0.0108725,0.64269,0.0113699,0.0153611,1056,456,1.20982,10.3787
-161,568,1.18677,-10.4756,0.00300807,-0.00452414,0.0103354,0.0102421,-0.0117582,0.61068,0.0127119,0.0246742,1063,456,1.18673,10.4756
-154,568,1.23816,-10.6753,0.00442419,-0.00446838,0.0110732,0.0119105,-0.0119547,0.594484,0.0137786,0.0340331,1070,456,1.23812,10.6753
-147,568,1.29163,-10.83,0.00645624,-0.00433088,0.0114724,0.0137397,-0.0116143,0.565663,0.0146553,0.0420157,1077,456,1.29159,10.8301
-140,568,1.22974,-10.8779,0.0089908,-0.00433675,0.0111537,0.0153197,-0.0106657,0.516126,0.0150827,0.0477581,1084,456,1.22974,10.8779
-133,568,1.26099,-10.8083,0.01183,-0.00390711,0.0105161,0.0170954,-0.00917254,0.464211,0.015394,0.0470118,1091,456,1.26098,10.8083
-126,568,1.53162,-10.6995,0,0,0,0,0,0,0,-1,1098,456,1.53163,10.6995
-119,568,0.868164,-10.6792,0.0203911,-0.00514223,0.00674809,0.0220648,-0.00681595,0.243121,0.0174318,0.0465047,1105,456,0.868103,10.6792
-112,568,1.20337,-11.074,0.0245313,-0.00529035,0.00420548,0.025113,-0.00587206,0.137451,0.0190042,0.0489281,1112,456,1.20336,11.074
-105,568,1.26636,-11.8574,0,0,0,0,0,0,0,-1,1119,456,1.26637,11.8574
-98,568,1.42712,-11.5888,0,0,0,0,0,0,0,-1,1126,456,1.42708,11.5888
-91,568,1.52979,-6.79303,0,0,0,0,0,0,0,-1,1133,456,1.52976,6.79303
-84,568,0.461792,-9.7959,0,0,0,0,0,0,0,-1,1140,456,0.461793,9.7959
-77,568,-1.13806,-8.57822,0,0,0,0,0,0,0,-1,1147,456,-1.13807,8.57821
-70,568,-4.09766,-1.42911,0,0,0,0,0,0,0,-1,1154,456,-4.09767,1.4291
-63,568,-5.92273,-3.70752,0,0,0,0,0,0,0,-1,1161,456,-5.92272,3.70751
-56,568,-5.24158,-6.01385,0,0,0,0,0,0,0,-1,1168,456,-5.24161,6.01386
-49,568,-5.24365,-8.33557,0,0,0,0,0,0,0,-1,1175,456,-5.24371,8.33557
-42,568,-0.664795,0.521973,0,0,0,0,0,0,0,-1,1182,456,-0.664829,-0.521984
-35,568,-0.153076,-1.67731,0,0,0,0,0,0,0,-1,1189,456,-0.153068,1.67731
-28,568,1.25439,-4.48798,0,0,0,0,0,0,0,-1,1196,456,1.2544,4.48797
-21,568,1.05359,-11.6162,0,0,0,0,0,0,0,-1,1203,456,1.0536,11.6162
-14,568,1.3053,-11.5297,0,0,0,0,0,0,0,-1,1210,456,1.30531,11.5297
-7,568,1.57788,-11.4476,0,0,0,0,0,0,0,-1,1217,456,1.57792,11.4476
0,568,-0.826538,-8.37982,0,0,0,0,0,0,0,-1,1224,456,-0.826519,8.37983
7,568,-0.549683,-8.27228,0.0520916,0.0295409,0.0328063,0.0755062,0.00612637,0.619875,0.0484247,0.047117,1231,456,-0.549659,8.27229
14,568,-0.226685,-8.13669,0.0565726,0.0220259,0.0266695,0.0710739,0.00752453,0.498027,0.0450842,0.0457643,1238,456,-0.226652,8.13668
21,568,-0.00732422,-8.06628,0.0568483,0.0168086,0.0196209,0.0648601,0.00879682,0.387668,0.0406265,0.0420965,1245,456,-0.00732418,8.06629
28,568,0.134277,-8.22449,0.0528698,0.0136353,0.0121711,0.0563387,0.0101664,0.277653,0.0346708,0.0414568,1252,456,0.134335,8.22449
35,568,0.355713,-8.60464,0.0482934,0.0122799,0.00520341,0.0490302,0.0115432,0.140653,0.0295991,0.0414431,1259,456,0.355685,8.60465
42,568,0.741699,-9.44391,0.0425025,0.0116714,-0.00109552,0.0425414,0.0116325,-0.0354733,0.0253879,0.039927,1266,456,0.741708,9.4439
49,568,1.06958,-10.4313,0,0,0,0,0,0,0,-1,1273,456,1.06959,10.4313
56,568,5.07239,-12.7827,0,0,0,0,0,0,0,-1,1280,456,5.07241,12.7827
63,568,1.92969,-11.3656,0,0,0,0,0,0,0,-1,1287,456,1.92974,11.3656
70,568,1.79102,-12.2632,0.0160833,0.0203137,-0.0175557,0.0358812,0.000515807,-0.845351,0.0237507,0.0431089,1294,456,1.79104,12.2632
77,568,1.5697,-12.8167,0.0157331,0.0230762,-0.019072,0.0388269,-1.75741e-05,-0.88049,0.0258905,0.0431173,1301,456,1.56969,12.8167
84,568,1.48425,-13.2097,0.0148931,0.0268234,-0.0162434,0.0381623,0.0035542,-0.961372,0.0243435,0.0443437,1308,456,1.48429,13.2097
91,568,3.76855,-14.0564,0.0122213,0.0393197,-0.00833713,0.0416793,0.00986177,-1.29499,0.0251519,0.0408318,1315,456,3.76851,14.0564
98,568,3.06921,-13.9113,0.0117309,0.0408721,-0.00206727,0.041018,0.011585,-1.50033,0.0244176,0.0423412,1322,456,3.06919,13.9112
105,568,2.69324,-13.8044,0.0154293,0.0412669,0.00830593,0.0437066,0.0129896,1.2851,0.0259166,0.0439466,1329,456,2.69327,13.8044
112,568,2.76575,-13.5998,0.0186554,0.0436125,0.0184799,0.0534324,0.00883555,1.08236,0.0330722,0.0450763,1336,456,2.76579,13.5998
119,568,2.89441,-13.5025,0.0213753,0.0443919,0.0303528,0.0653449,0.00042234,0.966601,0.0434232,0.0464019,1343,456,2.89438,13.5025
126,568,3.00183,-13.3761,0,0,0,0,0,0,0,-1,1350,456,3.00181,13.3761
133,568,4.95178,-10.9295,0,0,0,0,0,0,0,-1,1357,456,4.95182,10.9295
140,568,0.61084,-12.5744,0,0,0,0,0,0,0,-1,1364,456,0.61079,12.5744
147,568,0.43042,-12.5466,0.0196235,0.0324985,0.0800636,0.106383,-0.054261,0.825514,0.0943611,0.0485281,1371,456,0.430476,12.5466
154,568,1.13416,-12.5549,0.0160185,0.0269789,0.0888993,0.110567,-0.0675694,0.816182,0.103841,0.0457502,1378,456,1.13416,12.5549
161,568,1.68091,-12.6622,0,0,0,0,0,0,0,-1,1385,456,1.68092,12.6622
168,568,9.09583,-0.563782,0,0,0,0,0,0,0,-1,1392,456,9.09586,0.563788
175,568,10.5151,0.747498,0,0,0,0,0,0,0,-1,1399,456,10.5152,-0.747501
182,568,6.35095,-3.63361,0,0,0,0,0,0,0,-1,1406,456,6.35093,3.63359
189,568,6.17493,-1.70911,0,0,0,0,0,0,0,-1,1413,456,6.17497,1.70911
196,568,6.04724,0.200836,0,0,0,0,0,0,0,-1,1420,456,6.04724,-0.200835
203,568,5.9281,2.08649,0,0,0,0,0,0,0,-1,1427,456,5.92812,-2.08648
210,568,1.46216,-2.50446,0,0,0,0,0,0,0,-1,1434,456,1.46219,2.50446
217,568,2.62366,-7.86703,0,0,0,0,0,0,0,-1,1441,456,2.62365,7.86704
224,568,1.89819,-7.62418,0,0,0,0,0,0,0,-1,1448,456,1.89817,7.62418
231,568,4.38245,-9.3205,0,0,0,0,0,0,0,-1,1455,456,4.38244,9.32048
238,568,3.88123,-9.43616,0,0,0,0,0,0,0,-1,1462,456,3.88117,9.43617
245,568,3.34387,-10.6774,0,0,0,0,0,0,0,-1,1469,456,3.34389,10.6774
252,568,3.56946,-9.28928,0,0,0,0,0,0,0,-1,1476,456,3.56948,9.28928
259,568,3.38843,-8.73068,0,0,0,0,0,0,0,-1,1483,456,3.38842,8.73068
266,568,3.104,-9.16876,0,0,0,0,0,0,0,-1,1490,456,3.10397,9.16876
273,568,3.34949,-10.33,0,0,0,0,0,0,0,-1,1497,456,3.34943,10.33
280,568,3.323,-10.0327,0,0,0,0,0,0,0,-1,1504,456,3.32297,10.0328
287,568,3.37927,-9.74316,0.000970931,0.00187647,-0.00202193,0.0034957,-0.000648302,-0.895546,0.00257393,0.0372484,1511,456,3.37932,9.74318
294,568,3.46167,-9.61893,0.000599944,0.00120799,-0.00191154,0.00283953,-0.0010316,-0.86426,0.00231482,0.0264007,1518,456,3.46164,9.61892
301,568,3.45227,-9.48376,0.000359292,0.000421831,-0.0017944,0.00218524,-0.00140411,-0.79411,0.0020886,0.020539,1525,456,3.45225,9.48376
308,568,3.42688,-9.31659,-0.000304383,-0.000294383,-0.00212185,0.00182247,-0.00242124,-0.786576,0.00245822,0.0124624,1532,456,3.42693,9.31659
315,568,3.4104,-9.16953,-0.000717633,-0.00069765,-0.00217016,0.00146254,-0.00287783,-0.7877,0.00254993,0.00804135,1539,456,3.41041,9.16953
322,568,3.42529,-9.01486,-0.000981674,-0.000893836,-0.00209635,0.00115906,-0.00303457,-0.795872,0.0025006,0.00938659,1546,456,3.42525,9.01485
329,568,3.43213,-8.86835,-0.00118093,-0.00104966,-0.0019439,0.000829708,-0.0030603,-0.802273,0.00236577,0.0105484,1553,456,3.43215,8.86833
336,568,3.41797,-8.69629,-0.00134983,-0.00100419,-0.00173396,0.00056554,-0.00291956,-0.835068,0.00215971,0.0118397,1560,456,3.41794,8.6963
343,568,3.44836,-8.50977,-0.00159845,-0.000937919,-0.00158744,0.000353246,-0.00288962,-0.88796,0.00205431,0.0118843,1567,456,3.44839,8.50977
350,568,3.44824,-8.35715,-0.00174876,-0.000823426,-0.00140868,0.000196624,-0.00276881,-0.944068,0.00191478,0.010269,1574,456,3.44828,8.35714
357,568,3.44824,-8.18222,-0.00176429,-0.00066203,-0.00120673,0.000113467,-0.00253979,-0.99961,0.00173226,0.0101045,1581,456,3.44829,8.18223
364,568,3.45728,-8.01727,-0.00177183,-0.000387214,-0.00100239,0.000138703,-0.00229774,-1.08761,0.00158009,0.0128848,1588,456,3.45731,8.01728
371,568,3.41748,-7.83441,-0.00178673,-9.74555e-05,-0.000782341,0.000209198,-0.00209338,-1.19723,0.00147029,0.0215954,1595,456,3.41751,7.83441
378,568,3.45581,-7.64429,-0.00174811,0.000228286,-0.000597263,0.000394756,-0.00191458,-1.29897,0.0014263,0.0202744,1602,456,3.45584,7.6443
385,568,3.44141,-7.46567,-0.00164933,0.000454542,-0.000582723,0.00060516,-0.00179995,-1.31786,0.00144458,0.00951081,1609,456,3.44141,7.46568
392,568,3.41504,-7.27359,-0.00134048,0.000460826,-0.000560125,0.000620793,-0.00150045,-1.29261,0.00125931,0.0101127,1616,456,3.41507,7.27358
399,568,3.38403,-7.11591,-0.00093217,0.000280438,-0.0004885,0.000452746,-0.00110448,-1.23169,0.000924938,0.0171305,1623,456,3.38402,7.11592
406,568,3.41138,-6.92172,-0.000608415,0.000105183,-0.00044039,0.000315173,-0.000818405,-1.12586,0.000675626,0.0151474,1630,456,3.41132,6.92171
413,568,3.42712,-6.70389,-0.000379344,-0.000230381,-0.000568225,0.000268223,-0.000877948,-0.850566,0.00069225,0.0115772,1637,456,3.42717,6.70389
420,568,3.41467,-6.49118,0.000193646,-0.000779698,-0.000714799,0.000571721,-0.00115777,-0.486519,0.00101745,0.0104275,1644,456,3.41464,6.49119
427,568,3.40601,-6.2782,0.0011774,-0.00139946,-0.000744347,0.00137696,-0.00159902,-0.261936,0.00171977,0.0123988,1651,456,3.406,6.2782
434,568,3.41833,-6.11835,0.00220532,-0.00221772,-0.000774246,0.00233694,-0.00234934,-0.16838,0.00270563,0.0155228,1658,456,3.41832,6.11835
441,568,3.40234,-6.00674,0.00354172,-0.00309503,-0.000615228,0.00359827,-0.00315158,-0.0916593,0.00389987,0.0228356,1665,456,3.40239,6.00673
448,568,3.58008,-5.88547,0.00474189,-0.00394465,-0.000717188,0.0048007,-0.00400347,-0.0818248,0.00509003,0.0416584,1672,456,3.58003,5.88548
455,568,3.70288,-5.70819,0,0,0,0,0,0,0,-1,1679,456,3.70282,5.70819
462,568,3.15088,-5.09082,0,0,0,0,0,0,0,-1,1686,456,3.15082,5.09083
469,568,3.1637,-5.05673,0.00808633,0.00258286,0.000747575,0.00818607,0.00248312,0.132636,0.00484656,0.0427686,1693,456,3.16375,5.05674
476,568,3.26953,-4.80533,0.00873462,0.00912074,0.00183983,0.0107776,0.00707774,0.837673,0.00632351,0.0470717,1700,456,3.26957,4.80534
483,568,3.36267,-4.56497,0,0,0,0,0,0,0,-1,1707,456,3.36273,4.56497
490,568,5.52991,-3.68573,0,0,0,0,0,0,0,-1,1714,456,5.52992,3.68573
497,568,6.58289,-3.47745,0,0,0,0,0,0,0,-1,1721,456,6.58294,3.47744
504,568,0,0,0,0,0,0,0,0,0,-1,1728,456,0,0
511,568,0,0,0,0,0,0,0,0,0,-1,1735,456,0,0
518,568,0,0,0,0,0,0,0,0,0,-1,1742,456,0,0
525,568,0,0,0,0,0,0,0,0,0,-1,1749,456,0,0
532,568,0,0,0,0,0,0,0,0,0,-1,1756,456,0,0
539,568,0,0,0,0,0,0,0,0,0,-1,1763,456,0,0
546,568,0,0,0,0,0,0,0,0,0,-1,1770,456,0,0
553,568,0,0,0,0,0,0,0,0,0,-1,1777,456,0,0
560,568,0,0,0,0,0,0,0,0,0,-1,1784,456,0,0
567,568,0,0,0,0,0,0,0,0,0,-1,1791,456,0,0
574,568,0,0,0,0,0,0,0,0,0,-1,1798,456,0,0
581,568,0,0,0,0,0,0,0,0,0,-1,1805,456,0,0
588,568,0,0,0,0,0,0,0,0,0,-1,1812,456,0,0
595,568,0,0,0,0,0,0,0,0,0,-1,1819,456,0,0
602,568,0,0,0,0,0,0,0,0,0,-1,1826,456,0,0
609,568,0,0,0,0,0,0,0,0,0,-1,1833,456,0,0
616,568,0,0,0,0,0,0,0,0,0,-1,1840,456,0,0
623,568,0,0,0,0,0,0,0,0,0,-1,1847,456,0,0
630,568,0,0,0,0,0,0,0,0,0,-1,1854,456,0,0
637,568,0,0,0,0,0,0,0,0,0,-1,1861,456,0,0
644,568,0,0,0,0,0,0,0,0,0,-1,1868,456,0,0
651,568,0,0,0,0,0,0,0,0,0,-1,1875,456,0,0
658,568,0,0,0,0,0,0,0,0,0,-1,1882,456,0,0
665,568,0,0,0,0,0,0,0,0,0,-1,1889,456,0,0
672,568,0,0,0,0,0,0,0,0,0,-1,1896,456,0,0
679,568,0,0,0,0,0,0,0,0,0,-1,1903,456,0,0
686,568,0,0,0,0,0,0,0,0,0,-1,1910,456,0,0
693,568,0,0,0,0,0,0,0,0,0,-1,1917,456,0,0
700,568,0,0,0,0,0,0,0,0,0,-1,1924,456,0,0
707,568,0,0,0,0,0,0,0,0,0,-1,1931,456,0,0
714,568,0,0,0,0,0,0,0,0,0,-1,1938,456,0,0
721,568,0,0,0,0,0,0,0,0,0,-1,1945,456,0,0
728,568,0,0,0,0,0,0,0,0,0,-1,1952,456,0,0
735,568,0,0,0,0,0,0,0,0,0,-1,1959,456,0,0
742,568,0,0,0,0,0,0,0,0,0,-1,1966,456,0,0
749,568,0,0,0,0,0,0,0,0,0,-1,1973,456,0,0
756,568,0,0,0,0,0,0,0,0,0,-1,1980,456,0,0
763,568,0,0,0,0,0,0,0,0,0,-1,1987,456,0,0
770,568,0,0,0,0,0,0,0,0,0,-1,1994,456,0,0
777,568,0,0,0,0,0,0,0,0,0,-1,2001,456,0,0
784,568,0,0,0,0,0,0,0,0,0,-1,2008,456,0,0
791,568,0,0,0,0,0,0,0,0,0,-1,2015,456,0,0
798,568,0,0,0,0,0,0,0,0,0,-1,2022,456,0,0
805,568,0,0,0,0,0,0,0,0,0,-1,2029,456,0,0
812,568,0,0,0,0,0,0,0,0,0,-1,2036,456,0,0
-700,561,0,0,0,0,0,0,0,0,0,-1,524,463,0,0
-693,561,0,0,0,0,0,0,0,0,0,-1,531,463,0,0
-686,561,0,0,0,0,0,0,0,0,0,-1,538,463,0,0
-679,561,0,0,0,0,0,0,0,0,0,-1,545,463,0,0
-672,561,0,0,0,0,0,0,0,0,0,-1,552,463,0,0
-665,561,0,0,0,0,0,0,0,0,0,-1,559,463,0,0
-658,561,0,0,0,0,0,0,0,0,0,-1,566,463,0,0
-651,561,0,0,0,0,0,0,0,0,0,-1,573,463,0,0
-644,561,0,0,0,0,0,0,0,0,0,-1,580,463,0,0
-637,561,0,0,0,0,0,0,0,0,0,-1,587,463,0,0
-630,561,0,0,0,0,0,0,0,0,0,-1,594,463,0,0
-623,561,0,0,0,0,0,0,0,0,0,-1,601,463,0,0
-616,561,0,0,0,0,0,0,0,0,0,-1,608,463,0,0
-609,561,0,0,0,0,0,0,0,0,0,-1,615,463,0,0
-602,561,0,0,0,0,0,0,0,0,0,-1,622,463,0,0
-595,561,0,0,0,0,0,0,0,0,0,-1,629,463,0,0
-588,561,0,0,0,0,0,0,0,0,0,-1,636,463,0,0
-581,561,0,0,0,0,0,0,0,0,0,-1,643,463,0,0
-574,561,0,0,0,0,0,0,0,0,0,-1,650,463,0,0
-567,561,0,0,0,0,0,0,0,0,0,-1,657,463,0,0
-560,561,0,0,0,0,0,0,0,0,0,-1,664,463,0,0
-553,561,0,0,0,0,0,0,0,0,0,-1,671,463,0,0
-546,561,0,0,0,0,0,0,0,0,0,-1,678,463,0,0
-539,561,0,0,0,0,0,0,0,0,0,-1,685,463,0,0
-532,561,0,0,0,0,0,0,0,0,0,-1,692,463,0,0
-525,561,0,0,0,0,0,0,0,0,0,-1,699,463,0,0
-518,561,0,0,0,0,0,0,0,0,0,-1,706,463,0,0
-511,561,0,0,0,0,0,0,0,0,0,-1,713,463,0,0
-504,561,0,0,0,0,0,0,0,0,0,-1,720,463,0,0
-497,561,0,0,0,0,0,0,0,0,0,-1,727,463,0,0
-490,561,0,0,0,0,0,0,0,0,0,-1,734,463,0,0
-483,561,0,0,0,0,0,0,0,0,0,-1,741,463,0,0
-476,561,0,0,0,0,0,0,0,0,0,-1,748,463,0,0
-469,561,0,0,0,0,0,0,0,0,0,-1,755,463,0,0
-462,561,0,0,0,0,0,0,0,0,0,-1,762,463,0,0
-455,561,0,0,0,0,0,0,0,0,0,-1,769,463,0,0
-448,561,0,0,0,0,0,0,0,0,0,-1,776,463,0,0
-441,561,0,0,0,0,0,0,0,0,0,-1,783,463,0,0
-434,561,0,0,0,0,0,0,0,0,0,-1,790,463,0,0
-427,561,0,0,0,0,0,0,0,0,0,-1,797,463,0,0
-420,561,0,0,0,0,0,0,0,0,0,-1,804,463,0,0
-413,561,0,0,0,0,0,0,0,0,0,-1,811,463,0,0
-406,561,0,0,0,0,0,0,0,0,0,-1,818,463,0,0
-399,561,0,0,0,0,0,0,0,0,0,-1,825,463,0,0
-392,561,-0.498413,-4.28265,0,0,0,0,0,0,0,-1,832,463,-0.49843,4.28265
-385,561,-0.50647,-4.17508,0,0,0,0,0,0,0,-1,839,463,-0.506441,4.17507
-378,561,-0.194885,-3.97186,0,0,0,0,0,0,0,-1,846,463,-0.194871,3.97187
-371,561,0.185974,-4.26169,0,0,0,0,0,0,0,-1,853,463,0.185967,4.2617
-364,561,0.57135,-4.56784,0,0,0,0,0,0,0,-1,860,463,0.571359,4.56785
-357,561,1.24811,-6.42285,0,0,0,0,0,0,0,-1,867,463,1.24812,6.42284
-350,561,0.878784,-6.34097,0.00406129,0.00638535,-0.0110273,0.0163116,-0.00586501,-0.837893,0.0132688,0.0481308,874,463,0.878771,6.34098
-343,561,0.749939,-6.3858,0.00381041,0.00800866,-0.00881722,0.0149732,-0.00315411,-0.902258,0.0111828,0.0461287,881,463,0.749963,6.3858
-336,561,1.04767,-6.63333,0.00343617,0.00944648,-0.00720054,0.0142438,-0.00136116,-0.983085,0.00998058,0.0484218,888,463,1.04766,6.63333
-329,561,1.07495,-6.79001,0.00288642,0.0100985,-0.00584338,0.013359,-0.00037402,-1.06185,0.00903323,0.0373772,895,463,1.07494,6.79001
-322,561,1.10974,-6.9357,0.00264188,0.0104779,-0.00505629,0.0129566,0.000163269,-1.11502,0.00858379,0.0274605,902,463,1.10976,6.9357
-315,561,1.13416,-7.10602,0.00241084,0.0105203,-0.00450335,0.0125254,0.000405786,-1.15191,0.00821832,0.0176386,909,463,1.13414,7.10603
-308,561,1.09497,-7.30725,0.00215248,0.0100325,-0.00404318,0.0117379,0.000447048,-1.17164,0.00768061,0.0139795,916,463,1.09496,7.30725
-301,561,1.0636,-7.52417,0.00196643,0.00928558,-0.00370463,0.0108334,0.000418634,-1.17504,0.00708683,0.0113266,923,463,1.06362,7.52416
-294,561,1.04376,-7.68335,0.00188927,0.00830036,-0.00323467,0.00964878,0.000540845,-1.17584,0.00626003,0.00986292,930,463,1.04376,7.68335
-287,561,1.0213,-7.86597,0.00168716,0.00706735,-0.0028345,0.00828507,0.000469442,-1.16503,0.00537374,0.00881252,937,463,1.02129,7.86596
-280,561,1.008,-8.0491,0.0014758,0.00574239,-0.00255338,0.00693636,0.00028183,-1.1334,0.00453322,0.0118629,944,463,1.00802,8.04911
-273,561,1.02393,-8.22684,0.0013103,0.00434182,-0.00225241,0.005541,0.000111124,-1.08157,0.00365752,0.0149962,951,463,1.02394,8.22684
-266,561,1.03143,-8.38718,0.00121019,0.00306698,-0.00193949,0.00428883,-1.16513e-05,-1.00862,0.00286311,0.00943862,958,463,1.03144,8.38718
-259,561,1.02063,-8.54245,0.00121966,0.00201464,-0.00154744,0.00321482,1.94757e-05,-0.911115,0.00213675,0.00985171,965,463,1.02066,8.54246
-252,561,1.01813,-8.69366,0.00128073,0.00103038,-0.00114993,0.00231228,-1.17056e-06,-0.731186,0.00154191,0.0145916,972,463,1.01811,8.69366
-245,561,1.02856,-8.8649,0.0014594,0.000151826,-0.000813403,0.00184919,-0.000237969,-0.446882,0.00131929,0.0161352,979,463,1.02858,8.86489
-238,561,1.03125,-9.021,0.00190015,-0.000968989,-0.000626497,0.00203099,-0.00109982,-0.205875,0.00183403,0.012177,986,463,1.03128,9.021
-231,561,1.02374,-9.18103,0.0022034,-0.00166407,-0.000386741,0.00224169,-0.00170236,-0.0986964,0.00228419,0.0103655,993,463,1.02374,9.18103
-224,561,1.03467,-9.34271,0.00238452,-0.00234706,-0.000104812,0.00238684,-0.00234938,-0.0221372,0.00273448,0.0105923,1000,463,1.03467,9.34272
-217,561,1.06805,-9.47626,0.00257175,-0.00290571,0.000252359,0.00258335,-0.00291731,0.0459426,0.00317776,0.0109134,1007,463,1.06804,9.47627
-210,561,1.07288,-9.59537,0.00264111,-0.00355496,0.00126521,0.00288951,-0.00380336,0.19386,0.00387611,0.0117254,1014,463,1.07286,9.59536
-203,561,1.06628,-9.76227,0.00268345,-0.00452606,0.00267214,0.00356586,-0.00540847,0.318949,0.00521761,0.012816,1021,463,1.06631,9.76227
-196,561,1.06006,-9.91043,0.00273674,-0.00472845,0.00408723,0.00453928,-0.00653099,0.415359,0.00642581,0.0128644,1028,463,1.06,9.91044
-189,561,1.05261,-10.0174,0.00249648,-0.00507551,0.00584557,0.005675,-0.00825403,0.498031,0.00808775,0.015466,1035,463,1.05258,10.0174
-182,561,1.07996,-10.1487,0.0022709,-0.00524118,0.00802062,0.00737139,-0.0103417,0.566415,0.0102745,0.0181799,1042,463,1.07994,10.1487
-175,561,1.0238,-10.3201,0.00189093,-0.00517771,0.0104053,0.00934581,-0.0126326,0.62168,0.0127364,0.0260441,1049,463,1.02374,10.3201
-168,561,0.77356,-10.5329,0.00260934,-0.00575416,0.0126961,0.0117946,-0.0149394,0.626307,0.0154704,0.0370193,1056,463,0.77352,10.5329
-161,561,0.473267,-10.5334,0.00434731,-0.00674186,0.0140102,0.0138702,-0.0162648,0.596978,0.0174167,0.0422175,1063,463,0.473208,10.5334
-154,561,0.305542,-10.3818,0.00614143,-0.00674747,0.0151363,0.0161481,-0.0167541,0.58414,0.0189971,0.0432667,1070,463,0.305501,10.3818
-147,561,0.525146,-11.1304,0.0087509,-0.0066053,0.0158329,0.0186692,-0.0165236,0.559632,0.0203312,0.0481871,1077,463,0.525175,11.1304
-140,561,1.19592,-10.9168,0,0,0,0,0,0,0,-1,1084,463,1.19595,10.9168
-133,561,1.28796,-10.5834,0,0,0,0,0,0,0,-1,1091,463,1.28795,10.5834
-126,561,0.117432,-10.1191,0,0,0,0,0,0,0,-1,1098,463,0.117453,10.1191
-119,561,0.502563,-10.4842,0.0284412,-0.00852863,0.00993279,0.0309408,-0.0110283,0.246538,0.0251235,0.0462905,1105,463,0.502546,10.4842
-112,561,1.06189,-10.7047,0.0344844,-0.0094187,0.00645074,0.0354125,-0.0103469,0.142908,0.0277089,0.0496411,1112,463,1.06194,10.7046
-105,561,1.65417,-10.9557,0,0,0,0,0,0,0,-1,1119,463,1.65412,10.9556
-98,561,1.5387,-7.54352,0,0,0,0,0,0,0,-1,1126,463,1.53871,7.54351
-91,561,1.29553,-6.57968,0,0,0,0,0,0,0,-1,1133,463,1.29549,6.5797
-84,561,1.23364,-5.84555,0,0,0,0,0,0,0,-1,1140,463,1.23363,5.84556
-77,561,-2.36023,1.00204,0,0,0,0,0,0,0,-1,1147,463,-2.3602,-1.00205
-70,561,-3.90015,-1.41541,0,0,0,0,0,0,0,-1,1154,463,-3.90009,1.4154
-63,561,-6.95691,-4.02756,0,0,0,0,0,0,0,-1,1161,463,-6.95696,4.02756
-56,561,-5.37988,-6.66855,0,0,0,0,0,0,0,-1,1168,463,-5.37988,6.66854
-49,561,-5.7439,-9.11029,0,0,0,0,0,0,0,-1,1175,463,-5.74387,9.1103
-42,561,-1.72644,-5.63065,0,0,0,0,0,0,0,-1,1182,463,-1.72648,5.63064
-35,561,-1.65674,-4.87994,0,0,0,0,0,0,0,-1,1189,463,-1.6567,4.87993
-28,561,-1.91418,-3.86896,0,0,0,0,0,0,0,-1,1196,463,-1.91414,3.86895
-21,561,1.41711,-11.6238,0,0,0,0,0,0,0,-1,1203,463,1.41711,11.6239
-14,561,1.6792,-11.5365,0,0,0,0,0,0,0,-1,1210,463,1.67922,11.5365
-7,561,1.85852,-11.4318,0,0,0,0,0,0,0,-1,1217,463,1.85848,11.4318
0,561,-1.30029,-8.4902,0,0,0,0,0,0,0,-1,1224,463,-1.30027,8.49021
7,561,-1.11096,-8.46408,0.0511776,0.0437948,0.0383559,0.0860193,0.00895307,0.737425,0.054607,0.0459651,1231,463,-1.1109,8.46408
14,561,-0.804321,-8.34006,0.0586561,0.0338049,0.0301506,0.0788411,0.0136199,0.589944,0.0486604,0.0424185,1238,463,-0.804277,8.34004
21,561,-0.601929,-8.30997,0.0604459,0.0271954,0.0210408,0.070637,0.0170044,0.451047,0.0425707,0.042549,1245,463,-0.601931,8.30996
28,561,0.14563,-7.68082,0,0,0,0,0,0,0,-1,1252,463,0.145615,7.68082
35,561,0.425171,-8.4498,0.0526871,0.0204509,0.00305893,0.0529748,0.0201632,0.0937757,0.0308743,0.0426453,1259,463,0.425164,8.44981
42,561,0.741821,-9.29892,0.0470602,0.0188256,-0.00423601,0.047682,0.0182038,-0.145755,0.0277846,0.0426512,1266,463,0.741869,9.29891
49,561,1.02844,-10.2601,0.0381628,0.018753,-0.00989035,0.0423144,0.0146013,-0.397431,0.0248181,0.0446891,1273,463,1.02845,10.2601
56,561,1.40869,-11.1653,0.0300491,0.0198809,-0.0147801,0.0405951,0.0093349,-0.619747,0.0245506,0.0435804,1280,463,1.4087,11.1653
63,561,1.66162,-11.6072,0.0243476,0.021387,-0.0183876,0.0413143,0.00442024,-0.745232,0.0261941,0.0425629,1287,463,1.66167,11.6072
70,561,1.73987,-12.37,0.0215432,0.0234394,-0.0214255,0.0439378,0.00104486,-0.807509,0.0289499,0.0427483,1294,463,1.73988,12.37
77,561,1.44067,-13.181,0.0221412,0.025585,-0.022939,0.0468666,0.000859546,-0.82286,0.0309619,0.0429813,1301,463,1.44065,13.181
84,561,1.23035,-13.4679,0.0210695,0.0292224,-0.0179926,0.0435946,0.00669731,-0.896798,0.0271078,0.0428089,1308,463,1.2303,13.4679
91,561,3.78601,-13.8886,0.017603,0.0457596,-0.0068918,0.047356,0.0160067,-1.34318,0.0278152,0.0409097,1315,463,3.78603,13.8886
98,561,3.09766,-13.8421,0.0159309,0.0479162,0.00186241,0.0480243,0.0158228,1.51283,0.0282592,0.046468,1322,463,3.09766,13.8421
105,561,2.92737,-13.8859,0,0,0,0,0,0,0,-1,1329,463,2.92733,13.8859
112,561,3.15308,-13.9626,0.0210501,0.0540643,0.0271387,0.0693219,0.00579255,1.05863,0.0444098,0.0498019,1336,463,3.15308,13.9626
119,561,2.92957,-13.4076,0.0228488,0.0567939,0.0414216,0.0845854,-0.00494269,0.979841,0.0581079,0.0472842,1343,463,2.92952,13.4076
126,561,4.71411,-14.3264,0.0237981,0.0576761,0.0570248,0.100225,-0.0187504,0.929771,0.0738641,0.0441253,1350,463,4.71412,14.3265
133,561,4.99646,-14.4154,0,0,0,0,0,0,0,-1,1357,463,4.99649,14.4154
140,561,-1.10376,-11.8408,0,0,0,0,0,0,0,-1,1364,463,-1.10375,11.8407
147,561,-0.776489,-11.8633,0.0171054,0.0447706,0.102137,0.134008,-0.0721316,0.852704,0.120788,0.0486161,1371,463,-0.776453,11.8634
154,561,-0.440918,-11.9045,0.0105792,0.0366681,0.113399,0.13777,-0.0905231,0.842662,0.132743,0.0481372,1378,463,-0.440885,11.9045
161,561,-0.0279541,-12.0196,0,0,0,0,0,0,0,-1,1385,463,-0.0279356,12.0196
168,561,6.14331,-9.40823,0,0,0,0,0,0,0,-1,1392,463,6.14337,9.40823
175,561,10.4185,0.276398,0,0,0,0,0,0,0,-1,1399,463,10.4185,-0.276394
182,561,6.45703,-4.02127,0,0,0,0,0,0,0,-1,1406,463,6.45704,4.02127
189,561,6.50854,-2.08685,0,0,0,0,0,0,0,-1,1413,463,6.50851,2.08686
196,561,6.44775,-0.27182,0,0,0,0,0,0,0,-1,1420,463,6.44773,0.271814
203,561,6.18591,1.1301,0,0,0,0,0,0,0,-1,1427,463,6.18592,-1.13009
210,561,5.68713,2.68427,0,0,0,0,0,0,0,-1,1434,463,5.6871,-2.68425
217,561,3.61743,-7.33582,0,0,0,0,0,0,0,-1,1441,463,3.61738,7.33581
224,561,4.27466,-8.59171,0,0,0,0,0,0,0,-1,1448,463,4.27466,8.59171
231,561,4.93188,-9.8476,0,0,0,0,0,0,0,-1,1455,463,4.93193,9.84761
238,561,2.18018,-5.18359,0,0,0,0,0,0,0,-1,1462,463,2.18023,5.18359
245,561,3.07568,-3.50238,0,0,0,0,0,0,0,-1,1469,463,3.0757,3.50238
252,561,3.47412,-3.71109,0,0,0,0,0,0,0,-1,1476,463,3.47413,3.71109
259,561,3.42212,-3.2334,0,0,0,0,0,0,0,-1,1483,463,3.42214,3.2334
266,561,4.44373,-5.90027,0,0,0,0,0,0,0,-1,1490,463,4.44372,5.90026
273,561,2.59485,-3.65268,0,0,0,0,0,0,0,-1,1497,463,2.5948,3.65268
280,561,3.10767,-6.38235,0,0,0,0,0,0,0,-1,1504,463,3.10766,6.38235
287,561,3.59949,-9.6402,0,0,0,0,0,0,0,-1,1511,463,3.59951,9.64021
294,561,3.70483,-9.63879,0,0,0,0,0,0,0,-1,1518,463,3.70483,9.63878
301,561,3.69666,-9.54037,0.000228552,-1.46777e-05,-0.00234267,0.00245276,-0.00223888,-0.759465,0.00270966,0.0442138,1525,463,3.69664,9.54039
308,561,3.61682,-9.34412,-0.00084342,-0.000989929,-0.00299833,0.00208255,-0.00391589,-0.773185,0.00351671,0.0325644,1532,463,3.61679,9.34411
315,561,3.59607,-9.21353,-0.00148546,-0.00150612,-0.00316734,0.00167156,-0.00466315,-0.783768,0.00379086,0.0223185,1539,463,3.59609,9.21354
322,561,3.6178,-9.07059,-0.00183754,-0.00173973,-0.00313853,0.00135027,-0.00492755,-0.793189,0.00381561,0.022729,1546,463,3.61777,9.07057
329,561,3.60889,-8.86951,-0.00210522,-0.00206006,-0.00293947,0.00085692,-0.0050222,-0.789239,0.0036673,0.014578,1553,463,3.60883,8.86951
336,561,3.61816,-8.68634,-0.00229732,-0.00215621,-0.00261827,0.000392456,-0.00484599,-0.798868,0.0033691,0.0113432,1560,463,3.61819,8.68633
343,561,3.62109,-8.53275,-0.00257051,-0.00214405,-0.00244078,9.27916e-05,-0.00480735,-0.828968,0.00323628,0.0100328,1567,463,3.62115,8.53273
350,561,3.61816,-8.36795,-0.00269979,-0.00212672,-0.00224944,-0.000145646,-0.00468087,-0.848747,0.00307318,0.00917654,1574,463,3.61814,8.36796
357,561,3.61816,-8.181,-0.00264205,-0.00203084,-0.002013,-0.000300384,-0.00437251,-0.860731,0.00282022,0.0100401,1581,463,3.61819,8.18101
364,561,3.6333,-8.02255,-0.002537,-0.00174478,-0.00176266,-0.00033427,-0.00394751,-0.895924,0.00252763,0.0104187,1588,463,3.63327,8.02254
371,561,3.62207,-7.83707,-0.00240332,-0.00141158,-0.00146923,-0.0003568,-0.0034581,-0.948149,0.00219615,0.0173992,1595,463,3.62208,7.83708
378,561,3.61731,-7.64764,-0.00217605,-0.00098972,-0.0011894,-0.000253782,-0.00291198,-1.01671,0.0018625,0.0127936,1602,463,3.61732,7.64765
385,561,3.62219,-7.45639,-0.00193243,-0.000616562,-0.00107046,-1.80106e-05,-0.00253098,-1.06095,0.00168135,0.0107351,1609,463,3.6222,7.45638
392,561,3.62585,-7.25821,-0.00151417,-0.000423297,-0.000924712,0.000104856,-0.00204232,-1.05186,0.00139781,0.0137134,1616,463,3.62587,7.25822
399,561,3.6001,-7.10266,-0.00101273,-0.000393439,-0.000742114,0.000101038,-0.00150721,-0.983041,0.00104012,0.019949,1623,463,3.60006,7.10267
406,561,3.61462,-6.91107,-0.000606068,-0.000374021,-0.000566318,8.80364e-05,-0.00106813,-0.886437,0.000743169,0.0179737,1630,463,3.61468,6.91109
413,561,3.61633,-6.69562,-0.000242252,-0.000436984,-0.000464316,0.000134797,-0.000814033,-0.682047,0.000592752,0.0158031,1637,463,3.61635,6.69561
420,561,3.59521,-6.49469,0.000305413,-0.000734342,-0.000452857,0.000474994,-0.000903923,-0.358304,0.000808855,0.0128391,1644,463,3.59527,6.49469
427,561,3.60645,-6.27737,0.00109223,-0.0011182,-0.000367375,0.00115169,-0.00117765,-0.160456,0.00134488,0.00990077,1651,463,3.60645,6.27736
434,561,3.61877,-6.08957,0.00183326,-0.00167105,-0.000285132,0.00185631,-0.00169409,-0.0806592,0.00205054,0.0110573,1658,463,3.61883,6.08958
441,561,3.61206,-5.92615,0.00277181,-0.00232004,-0.000107656,0.00277409,-0.00232231,-0.0211302,0.00294626,0.0138229,1665,463,3.61203,5.92614
448,561,3.61743,-5.73453,0.00366675,-0.0028915,-8.35964e-05,0.00366781,-0.00289256,-0.012744,0.00379644,0.0194316,1672,463,3.61741,5.73452
455,561,3.63306,-5.47211,0.00472834,-0.00310307,1.87991e-05,0.00472838,-0.00310312,0.00240046,0.00455386,0.0386941,1679,463,3.63302,5.47211
462,561,3.46472,-5.18777,0.00553075,-0.000653924,0.00055449,0.00558007,-0.000703244,0.0887128,0.00397525,0.037017,1686,463,3.46469,5.18776
469,561,3.44055,-4.99155,0.00599223,0.00419986,0.00121946,0.0066094,0.0035827,0.468514,0.00382044,0.024109,1693,463,3.44059,4.99155
476,561,3.52185,-4.74011,0.00636143,0.0102381,0.00217502,0.0112131,0.00538637,1.14936,0.00647557,0.0409202,1700,463,3.52184,4.74012
483,561,3.61829,-4.49652,0,0,0,0,0,0,0,-1,1707,463,3.61826,4.49652
490,561,6.13135,-2.58374,0,0,0,0,0,0,0,-1,1714,463,6.13139,2.58373
497,561,7.30652,-2.46649,0,0,0,0,0,0,0,-1,1721,463,7.30649,2.4665
504,561,6.45044,-2.35263,0,0,0,0,0,0,0,-1,1728,463,6.4504,2.35263
511,561,0,0,0,0,0,0,0,0,0,-1,1735,463,0,0
518,561,0,0,0,0,0,0,0,0,0,-1,1742,463,0,0
525,561,0,0,0,0,0,0,0,0,0,-1,1749,463,0,0
532,561,0,0,0,0,0,0,0,0,0,-1,1756,463,0,0
539,561,0,0,0,0,0,0,0,0,0,-1,1763,463,0,0
546,561,0,0,0,0,0,0,0,0,0,-1,1770,463,0,0
553,561,0,0,0,0,0,0,0,0,0,-1,1777,463,0,0
560,561,0,0,0,0,0,0,0,0,0,-1,1784,463,0,0
567,561,0,0,0,0,0,0,0,0,0,-1,1791,463,0,0
574,561,0,0,0,0,0,0,0,0,0,-1,1798,463,0,0
581,561,0,0,0,0,0,0,0,0,0,-1,1805,463,0,0
588,561,0,0,0,0,0,0,0,0,0,-1,1812,463,0,0
595,561,0,0,0,0,0,0,0,0,0,-1,1819,463,0,0
602,561,0,0,0,0,0,0,0,0,0,-1,1826,463,0,0
609,561,0,0,0,0,0,0,0,0,0,-1,1833,463,0,0
616,561,0,0,0,0,0,0,0,0,0,-1,1840,463,0,0
623,561,0,0,0,0,0,0,0,0,0,-1,1847,463,0,0
630,561,0,0,0,0,0,0,0,0,0,-1,1854,463,0,0
637,561,0,0,0,0,0,0,0,0,0,-1,1861,463,0,0
644,561,0,0,0,0,0,0,0,0,0,-1,1868,463,0,0
651,561,0,0,0,0,0,0,0,0,0,-1,1875,463,0,0
658,561,0,0,0,0,0,0,0,0,0,-1,1882,463,0,0
665,561,0,0,0,0,0,0,0,0,0,-1,1889,463,0,0
672,561,0,0,0,0,0,0,0,0,0,-1,1896,463,0,0
679,561,0,0,0,0,0,0,0,0,0,-1,1903,463,0,0
686,561,0,0,0,0,0,0,0,0,0,-1,1910,463,0,0
693,561,0,0,0,0,0,0,0,0,0,-1,1917,463,0,0
700,561,0,0,0,0,0,0,0,0,0,-1,1924,463,0,0
707,561,0,0,0,0,0,0,0,0,0,-1,1931,463,0,0
714,561,0,0,0,0,0,0,0,0,0,-1,1938,463,0,0
721,561,0,0,0,0,0,0,0,0,0,-1,1945,463,0,0
728,561,0,0,0,0,0,0,0,0,0,-1,1952,463,0,0
735,561,0,0,0,0,0,0,0,0,0,-1,1959,463,0,0
742,561,0,0,0,0,0,0,0,0,0,-1,1966,463,0,0
749,561,0,0,0,0,0,0,0,0,0,-1,1973,463,0,0
756,561,0,0,0,0,0,0,0,0,0,-1,1980,463,0,0
763,561,0,0,0,0,0,0,0,0,0,-1,1987,463,0,0
770,561,0,0,0,0,0,0,0,0,0,-1,1994,463,0,0
777,561,0,0,0,0,0,0,0,0,0,-1,2001,463,0,0
784,561,0,0,0,0,0,0,0,0,0,-1,2008,463,0,0
791,561,0,0,0,0,0,0,0,0,0,-1,2015,463,0,0
798,561,0,0,0,0,0,0,0,0,0,-1,2022,463,0,0
805,561,0,0,0,0,0,0,0,0,0,-1,2029,463,0,0
812,561,0,0,0,0,0,0,0,0,0,-1,2036,463,0,0
-700,554,0,0,0,0,0,0,0,0,0,-1,524,470,0,0
-693,554,0,0,0,0,0,0,0,0,0,-1,531,470,0,0
-686,554,0,0,0,0,0,0,0,0,0,-1,538,470,0,0
-679,554,0,0,0,0,0,0,0,0,0,-1,545,470,0,0
-672,554,0,0,0,0,0,0,0,0,0,-1,552,470,0,0
-665,554,0,0,0,0,0,0,0,0,0,-1,559,470,0,0
-658,554,0,0,0,0,0,0,0,0,0,-1,566,470,0,0
-651,554,0,0,0,0,0,0,0,0,0,-1,573,470,0,0
-644,554,0,0,0,0,0,0,0,0,0,-1,580,470,0,0
-637,554,0,0,0,0,0,0,0,0,0,-1,587,470,0,0
-630,554,0,0,0,0,0,0,0,0,0,-1,594,470,0,0
-623,554,0,0,0,0,0,0,0,0,0,-1,601,470,0,0
-616,554,0,0,0,0,0,0,0,0,0,-1,608,470,0,0
-609,554,0,0,0,0,0,0,0,0,0,-1,615,470,0,0
-602,554,0,0,0,0,0,0,0,0,0,-1,622,470,0,0
-595,554,0,0,0,0,0,0,0,0,0,-1,629,470,0,0
-588,554,0,0,0,0,0,0,0,0,0,-1,636,470,0,0
-581,554,0,0,0,0,0,0,0,0,0,-1,643,470,0,0
-574,554,0,0,0,0,0,0,0,0,0,-1,650,470,0,0
-567,554,0,0,0,0,0,0,0,0,0,-1,657,470,0,0
-560,554,0,0,0,0,0,0,0,0,0,-1,664,470,0,0
-553,554,0,0,0,0,0,0,0,0,0,-1,671,470,0,0
-546,554,0,0,0,0,0,0,0,0,0,-1,678,470,0,0
-539,554,0,0,0,0,0,0,0,0,0,-1,685,470,0,0
-532,554,0,0,0,0,0,0,0,0,0,-1,692,470,0,0
-525,554,0,0,0,0,0,0,0,0,0,-1,699,470,0,0
-518,554,0,0,0,0,0,0,0,0,0,-1,706,470,0,0
-511,554,0,0,0,0,0,0,0,0,0,-1,713,470,0,0
-504,554,0,0,0,0,0,0,0,0,0,-1,720,470,0,0
-497,554,0,0,0,0,0,0,0,0,0,-1,727,470,0,0
-490,554,0,0,0,0,0,0,0,0,0,-1,734,470,0,0
-483,554,0,0,0,0,0,0,0,0,0,-1,741,470,0,0
-476,554,0,0,0,0,0,0,0,0,0,-1,748,470,0,0
-469,554,0,0,0,0,0,0,0,0,0,-1,755,470,0,0
-462,554,0,0,0,0,0,0,0,0,0,-1,762,470,0,0
-455,554,0,0,0,0,0,0,0,0,0,-1,769,470,0,0
-448,554,0,0,0,0,0,0,0,0,0,-1,776,470,0,0
-441,554,0,0,0,0,0,0,0,0,0,-1,783,470,0,0
-434,554,0,0,0,0,0,0,0,0,0,-1,790,470,0,0
-427,554,0,0,0,0,0,0,0,0,0,-1,797,470,0,0
-420,554,0,0,0,0,0,0,0,0,0,-1,804,470,0,0
-413,554,0,0,0,0,0,0,0,0,0,-1,811,470,0,0
-406,554,0,0,0,0,0,0,0,0,0,-1,818,470,0,0
-399,554,1.22241,-4.88776,0,0,0,0,0,0,0,-1,825,470,1.2224,4.88775
-392,554,-0.667969,-3.71759,0,0,0,0,0,0,0,-1,832,470,-0.667998,3.71759
-385,554,-0.377991,-4.06265,0,0,0,0,0,0,0,-1,839,470,-0.37801,4.06266
-378,554,-0.0618286,-4.44217,0,0,0,0,0,0,0,-1,846,470,-0.0618537,4.44217
-371,554,0.0684204,-4.48541,0,0,0,0,0,0,0,-1,853,470,0.0684178,4.4854
-364,554,0.372986,-4.60822,0,0,0,0,0,0,0,-1,860,470,0.372991,4.60821
-357,554,1.17639,-6.1933,0,0,0,0,0,0,0,-1,867,470,1.17639,6.19329
-350,554,1.07343,-6.30115,0.00312,0.00453973,-0.00850472,0.0123642,-0.00470443,-0.827035,0.0101799,0.0472609,874,470,1.07342,6.30114
-343,554,1.02252,-6.41757,0.00284503,0.00558549,-0.00681527,0.0111669,-0.00273639,-0.884602,0.00850477,0.0423822,881,470,1.02251,6.41758
-336,554,0.984497,-6.57147,0.00246322,0.00651808,-0.00551795,0.0103693,-0.00138798,-0.961455,0.00741892,0.0348484,888,470,0.984489,6.57146
-329,554,0.907166,-6.77557,0.00197385,0.00692541,-0.00436041,0.00946388,-0.000564617,-1.0436,0.00650563,0.017734,895,470,0.90717,6.77557
-322,554,0.892334,-6.95828,0.0017433,0.0072343,-0.00368406,0.00908337,-0.000105773,-1.10562,0.00609115,0.00994089,902,470,0.892344,6.95827
-315,554,0.909119,-7.14569,0.00155354,0.00729362,-0.0032201,0.00873707,0.000110087,-1.14939,0.00578837,0.00929348,909,470,0.909121,7.14569
-308,554,0.898438,-7.3382,0.0013824,0.00694252,-0.002843,0.00813881,0.000186103,-1.1725,0.00536491,0.0120645,916,470,0.898438,7.33819
-301,554,0.911804,-7.51996,0.00129384,0.00641098,-0.00257975,0.00748578,0.00021904,-1.17604,0.00491913,0.0129838,923,470,0.91178,7.51997
-294,554,0.874329,-7.68668,0.00130857,0.00575113,-0.00222633,0.00667478,0.000384913,-1.17753,0.00432726,0.0109153,930,470,0.874307,7.68668
-287,554,0.848999,-7.86765,0.00122019,0.00482918,-0.00194561,0.00567829,0.00037108,-1.15929,0.0036681,0.0109132,937,470,0.849026,7.86766
-280,554,0.8479,-8.03946,0.00111171,0.00382297,-0.00177701,0.0047024,0.000232279,-1.11124,0.00306045,0.0108075,944,470,0.847882,8.03945
-273,554,0.860352,-8.22183,0.00104484,0.00276682,-0.0015831,0.00370792,0.00010375,-1.03446,0.0024381,0.0139815,951,470,0.860371,8.22185
-266,554,0.868103,-8.39572,0.00104542,0.00181663,-0.00138541,0.0028691,-7.04988e-06,-0.921128,0.00191509,0.0112926,958,470,0.868107,8.39571
-259,554,0.858704,-8.51984,0.00116282,0.00104753,-0.00109939,0.00220608,4.27489e-06,-0.759206,0.00146929,0.0109501,965,470,0.858728,8.51984
-252,554,0.846558,-8.66571,0.00136063,0.000288513,-0.000803684,0.00179063,-0.000141486,-0.491281,0.0012436,0.0142032,972,470,0.846529,8.6657
-245,554,0.845459,-8.83401,0.00167637,-0.00044278,-0.000529525,0.00180132,-0.000567728,-0.231725,0.00142824,0.0156279,979,470,0.845448,8.83402
-238,554,0.858948,-9.01917,0.002334,-0.00159208,-0.000427868,0.00238008,-0.00163817,-0.107303,0.00233309,0.0112311,986,470,0.858952,9.01916
-231,554,0.868469,-9.18552,0.00281525,-0.00231191,-0.000236745,0.00282616,-0.00232282,-0.046044,0.0029775,0.00945093,993,470,0.868467,9.1855
-224,554,0.886047,-9.33347,0.00312722,-0.00318901,5.46827e-05,0.00312769,-0.00318948,0.00865662,0.00364728,0.00958547,1000,470,0.886024,9.33347
-217,554,0.902649,-9.45984,0.003508,-0.00396634,0.000441597,0.003534,-0.00399234,0.058809,0.00434802,0.0101735,1007,470,0.902648,9.45984
-210,554,0.944275,-9.60925,0.0037253,-0.00485789,0.00168368,0.00404375,-0.00517635,0.186935,0.0053366,0.0131207,1014,470,0.944288,9.60925
-203,554,0.956482,-9.79111,0.00384821,-0.00620246,0.00346061,0.00492449,-0.00727875,0.301528,0.00708912,0.0190666,1021,470,0.956484,9.79111
-196,554,0.914307,-9.90179,0.00398942,-0.0066478,0.00527478,0.00616154,-0.00881991,0.39063,0.00869482,0.0254169,1028,470,0.914288,9.90179
-189,554,0.894043,-10.0412,0.0037353,-0.0072615,0.0075402,0.00756895,-0.0110951,0.470367,0.0108396,0.0332352,1035,470,0.894017,10.0412
-182,554,0.944824,-10.135,0.00346011,-0.00759833,0.0103975,0.00970713,-0.0138454,0.541023,0.0136678,0.0426591,1042,470,0.944814,10.135
-175,554,0.700806,-10.1805,0.00297857,-0.00763237,0.0136571,0.0123245,-0.0169783,0.600132,0.016989,0.0475745,1049,470,0.700849,10.1805
-168,554,0.356323,-10.6925,0,0,0,0,0,0,0,-1,1056,470,0.356363,10.6925
-161,554,-0.270996,-10.4718,0.00636477,-0.00994145,0.018647,0.0185632,-0.0221398,0.579304,0.0235301,0.0473001,1063,470,-0.270948,10.4718
-154,554,-0.312866,-10.1921,0.00861761,-0.0101315,0.0203363,0.0216361,-0.02315,0.569426,0.0258622,0.0422809,1070,470,-0.312863,10.1921
-147,554,-0.0124512,-11.5604,0,0,0,0,0,0,0,-1,1077,470,-0.0124665,11.5604
-140,554,0.495361,-10.0527,0,0,0,0,0,0,0,-1,1084,470,0.4954,10.0527
-133,554,0.436768,-10.0913,0,0,0,0,0,0,0,-1,1091,470,0.436741,10.0913
-126,554,-0.195923,-8.76236,0,0,0,0,0,0,0,-1,1098,470,-0.195888,8.76235
-119,554,-0.0657959,-10.1435,0,0,0,0,0,0,0,-1,1105,470,-0.0658039,10.1435
-112,554,0.695679,-10.0938,0,0,0,0,0,0,0,-1,1112,470,0.695678,10.0939
-105,554,2.82129,-9.46112,0,0,0,0,0,0,0,-1,1119,470,2.82127,9.46112
-98,554,1.51929,-7.3624,0,0,0,0,0,0,0,-1,1126,470,1.51928,7.36241
-91,554,1.41089,-6.5864,0,0,0,0,0,0,0,-1,1133,470,1.41093,6.58638
-84,554,1.62305,-5.87186,0,0,0,0,0,0,0,-1,1140,470,1.62299,5.87186
-77,554,-2.56958,1.33258,0,0,0,0,0,0,0,-1,1147,470,-2.56959,-1.33257
-70,554,-3.68164,-1.18332,0,0,0,0,0,0,0,-1,1154,470,-3.68158,1.18331
-63,554,-4.86853,-3.88708,0,0,0,0,0,0,0,-1,1161,470,-4.86853,3.88708
-56,554,-5.69958,-6.45422,0,0,0,0,0,0,0,-1,1168,470,-5.69955,6.45422
-49,554,-6.23645,-8.8569,0,0,0,0,0,0,0,-1,1175,470,-6.23643,8.85689
-42,554,-6.62524,-11.5382,0,0,0,0,0,0,0,-1,1182,470,-6.62522,11.5382
-35,554,-2.40173,-4.59482,0,0,0,0,0,0,0,-1,1189,470,-2.40169,4.59481
-28,554,-0.760132,-1.65555,0,0,0,0,0,0,0,-1,1196,470,-0.760095,1.65556
-21,554,6.67249,-10.1976,0,0,0,0,0,0,0,-1,1203,470,6.67249,10.1976
-14,554,2.00781,-11.4771,0,0,0,0,0,0,0,-1,1210,470,2.00778,11.4771
-7,554,2.19116,-11.1935,0,0,0,0,0,0,0,-1,1217,470,2.19113,11.1935
0,554,1.74451,-10.5679,0,0,0,0,0,0,0,-1,1224,470,1.74453,10.5679
7,554,-1.54102,-8.33203,0,0,0,0,0,0,0,-1,1231,470,-1.54097,8.33203
14,554,-1.0791,-8.55057,0.0549691,0.048683,0.0311815,0.0831655,0.0204865,0.735169,0.050033,0.0441382,1238,470,-1.07907,8.55057
21,554,-1.04468,-8.56265,0.0586771,0.0407555,0.0193387,0.0710302,0.0284024,0.568444,0.0412825,0.0424501,1245,470,-1.0447,8.56265
28,554,-1.05554,-8.7583,0,0,0,0,0,0,0,-1,1252,470,-1.05553,8.7583
35,554,1.52539,-9.47806,0,0,0,0,0,0,0,-1,1259,470,1.52544,9.47805
42,554,1.4303,-10.0211,0.0485549,0.0282749,-0.0105458,0.0530447,0.023785,-0.402506,0.0306797,0.0452842,1266,470,1.43025,10.021
49,554,1.36682,-10.5842,0.0405516,0.0262281,-0.0163109,0.0512038,0.015576,-0.57853,0.0303087,0.0488162,1273,470,1.36685,10.5842
56,554,1.26318,-11.1778,0.033196,0.0254517,-0.0212763,0.0509496,0.00769805,-0.695387,0.0317134,0.0458203,1280,470,1.26316,11.1778
63,554,1.52246,-11.6616,0.028585,0.0253525,-0.0242995,0.0513219,0.00261555,-0.752191,0.033377,0.0436902,1287,470,1.52244,11.6616
70,554,1.4812,-12.481,0.0276726,0.026142,-0.0267545,0.0536728,0.000141865,-0.7711,0.0357346,0.0420733,1294,470,1.48118,12.481
77,554,1.14465,-13.5259,0.0300352,0.0271214,-0.027996,0.0566122,0.00054442,-0.759401,0.0375613,0.0450614,1301,470,1.14469,13.5259
84,554,4.49304,-14.0246,0,0,0,0,0,0,0,-1,1308,470,4.49304,14.0246
91,554,3.75488,-13.78,0.0242659,0.05237,-0.00393072,0.0529094,0.0237265,-1.43442,0.0306013,0.0417258,1315,470,3.75491,13.78
98,554,3.13538,-13.8717,0.0206724,0.0553753,0.00818423,0.0572086,0.0188391,1.35043,0.0336648,0.0461693,1322,470,3.13538,13.8717
105,554,2.75818,-14.6036,0,0,0,0,0,0,0,-1,1329,470,2.75815,14.6036
112,554,3.38867,-14.598,0.0219657,0.0668648,0.0386254,0.0890908,-0.000260327,1.04864,0.0594808,0.0454428,1336,470,3.38869,14.598
119,554,4.06702,-14.6113,0.0220341,0.0726642,0.0553166,0.108183,-0.0134849,0.999992,0.0770117,0.0424406,1343,470,4.06698,14.6113
126,554,4.8822,-14.5321,0.0215006,0.0757237,0.0736129,0.127059,-0.0298346,0.961839,0.0962054,0.044184,1350,470,4.88223,14.5321
133,554,5.84961,-14.9298,0.0195081,0.0746735,0.0922906,0.143415,-0.0492334,0.930607,0.115571,0.0462081,1357,470,5.84959,14.9298
140,554,6.84741,-14.992,0.0145808,0.0700634,0.110404,0.156158,-0.0715133,0.908486,0.13444,0.0475772,1364,470,6.84739,14.992
147,554,-2.13513,-11.1552,0.0106596,0.0616257,0.127221,0.165891,-0.0936059,0.884242,0.151746,0.0481249,1371,470,-2.13508,11.1552
154,554,-2.26648,-11.5687,0.00039719,0.0489608,0.141651,0.168396,-0.119038,0.870283,0.166764,0.048254,1378,470,-2.26651,11.5687
161,554,-2.19604,-12.2971,0,0,0,0,0,0,0,-1,1385,470,-2.19601,12.2971
168,554,5.08496,-10.4024,0,0,0,0,0,0,0,-1,1392,470,5.085,10.4024
175,554,10.663,0.286957,0,0,0,0,0,0,0,-1,1399,470,10.663,-0.286966
182,554,6.71106,-4.50217,0,0,0,0,0,0,0,-1,1406,470,6.71107,4.50215
189,554,6.90479,-2.50348,0,0,0,0,0,0,0,-1,1413,470,6.90477,2.50348
196,554,6.96216,-0.740906,0,0,0,0,0,0,0,-1,1420,470,6.96214,0.740912
203,554,6.43518,0.414154,0,0,0,0,0,0,0,-1,1427,470,6.43523,-0.414141
210,554,6.21167,1.96707,0,0,0,0,0,0,0,-1,1434,470,6.21165,-1.96706
217,554,5.64551,3.4989,0,0,0,0,0,0,0,-1,1441,470,5.64555,-3.49891
224,554,4.85144,-8.85172,0,0,0,0,0,0,0,-1,1448,470,4.85146,8.85173
231,554,3.25073,-5.29642,0,0,0,0,0,0,0,-1,1455,470,3.25078,5.29642
238,554,4.28625,-3.25253,0,0,0,0,0,0,0,-1,1462,470,4.28622,3.25252
245,554,4.0752,-2.90033,0,0,0,0,0,0,0,-1,1469,470,4.07515,2.90032
252,554,3.52112,-0.934998,0,0,0,0,0,0,0,-1,1476,470,3.52113,0.934996
259,554,3.96448,-2.16425,0,0,0,0,0,0,0,-1,1483,470,3.96446,2.16424
266,554,3.0592,-2.71716,0,0,0,0,0,0,0,-1,1490,470,3.05923,2.71718
273,554,2.58521,-3.06876,0,0,0,0,0,0,0,-1,1497,470,2.58524,3.06874
280,554,2.83301,-0.991699,0,0,0,0,0,0,0,-1,1504,470,2.83303,0.991704
287,554,3.54126,-4.12277,0,0,0,0,0,0,0,-1,1511,470,3.54123,4.12277
294,554,3.62036,-8.50146,0,0,0,0,0,0,0,-1,1518,470,3.62031,8.50145
301,554,3.89709,-9.49307,0,0,0,0,0,0,0,-1,1525,470,3.8971,9.49307
308,554,3.84058,-9.45715,0,0,0,0,0,0,0,-1,1532,470,3.8406,9.45715
315,554,3.7937,-9.29721,0,0,0,0,0,0,0,-1,1539,470,3.79365,9.29722
322,554,3.92908,-8.94055,-0.00327075,-0.002953,-0.0046128,0.00150366,-0.00772741,-0.802613,0.0057191,0.0471781,1546,470,3.92912,8.94057
329,554,3.75269,-8.79785,-0.00358447,-0.0034126,-0.00429954,0.000801863,-0.00779893,-0.79539,0.00548614,0.0244224,1553,470,3.75272,8.79784
336,554,3.776,-8.67111,-0.00377427,-0.00362362,-0.00381848,0.000120274,-0.00751817,-0.79526,0.00505268,0.0117505,1560,470,3.77603,8.67111
343,554,3.77283,-8.54105,-0.00404683,-0.00363238,-0.00358498,-0.000248642,-0.00743057,-0.814268,0.00487295,0.0092707,1567,470,3.77288,8.54105
350,554,3.79053,-8.36923,-0.00411441,-0.00366995,-0.0033443,-0.000540505,-0.00724385,-0.818575,0.00465953,0.00860932,1574,470,3.79051,8.36923
357,554,3.80945,-8.18832,-0.00382467,-0.00360845,-0.00311639,-0.000598299,-0.00683482,-0.802736,0.00437079,0.00999919,1581,470,3.8095,8.18832
364,554,3.80383,-8.01624,-0.00355714,-0.00323756,-0.00288656,-0.000506375,-0.00628833,-0.813048,0.00403403,0.00927385,1588,470,3.80378,8.01623
371,554,3.80151,-7.83759,-0.00328102,-0.00282262,-0.0025257,-0.00051574,-0.0055879,-0.830648,0.00356581,0.00915287,1595,470,3.80157,7.8376
378,554,3.80286,-7.64267,-0.00285217,-0.00228745,-0.00216185,-0.000389599,-0.00475003,-0.850335,0.00304514,0.0106682,1602,470,3.80289,7.64267
385,554,3.81726,-7.457,-0.002471,-0.00176563,-0.00195716,-0.000129633,-0.00410699,-0.874542,0.00269582,0.0101634,1609,470,3.81723,7.45701
392,554,3.80945,-7.26471,-0.00195835,-0.00138583,-0.00169837,5.02411e-05,-0.00339442,-0.868889,0.00227988,0.0128414,1616,470,3.80943,7.26471
399,554,3.81934,-7.09161,-0.0013842,-0.00115746,-0.00141241,0.00014612,-0.00268778,-0.825445,0.00184249,0.0170108,1623,470,3.81929,7.09161
406,554,3.81091,-6.90906,-0.000914002,-0.00096789,-0.00111268,0.000172058,-0.00205395,-0.773293,0.00143011,0.0150892,1630,470,3.81094,6.90906
413,554,3.80273,-6.68649,-0.000427795,-0.000803109,-0.000788654,0.000195221,-0.00142613,-0.668597,0.00102206,0.0143989,1637,470,3.80278,6.6865
420,554,3.79883,-6.45004,0.000108643,-0.000886811,-0.000616007,0.000402874,-0.00118104,-0.445601,0.00095055,0.0155992,1644,470,3.79886,6.45006
427,554,3.79419,-6.28043,0.000760306,-0.00106668,-0.000404815,0.000845985,-0.00115236,-0.208572,0.00115825,0.0109697,1651,470,3.79421,6.28043
434,554,3.79236,-6.09821,0.00134923,-0.0013604,-0.00020108,0.00136407,-0.00137524,-0.0736715,0.00158155,0.00959812,1658,470,3.79237,6.0982
441,554,3.8042,-5.9024,0.00208152,-0.00177191,4.53873e-05,0.00208206,-0.00177244,0.0117762,0.00222779,0.0108036,1665,470,3.80414,5.9024
448,554,3.80713,-5.68835,0.00279776,-0.00215771,0.000213975,0.00280699,-0.00216694,0.0430726,0.00287961,0.0129639,1672,470,3.80712,5.68836
455,554,3.79541,-5.46262,0.0036478,-0.0021443,0.000449233,0.00368244,-0.00217893,0.0769463,0.00342097,0.0148565,1679,470,3.79546,5.46263
462,554,3.74646,-5.2395,0.0043399,0.000264984,0.000946641,0.00454907,5.58076e-05,0.217472,0.00301428,0.0175863,1686,470,3.74645,5.23951
469,554,3.7074,-5.03461,0.00458127,0.00479196,0.00144945,0.00613989,0.00323335,0.821673,0.00354654,0.0230176,1693,470,3.70735,5.03462
476,554,3.83618,-4.73334,0.00460858,0.0100621,0.00229808,0.0109013,0.00376933,1.22065,0.00639291,0.0451393,1700,470,3.83613,4.73334
483,554,3.96973,-4.43216,0,0,0,0,0,0,0,-1,1707,470,3.96977,4.43216
490,554,7.31543,-3.51794,0,0,0,0,0,0,0,-1,1714,470,7.3154,3.51794
497,554,7.9751,-2.43454,0,0,0,0,0,0,0,-1,1721,470,7.97505,2.43453
504,554,2.13257,-3.81628,0,0,0,0,0,0,0,-1,1728,470,2.1326,3.8163
511,554,1.31396,-4.02713,0,0,0,0,0,0,0,-1,1735,470,1.31398,4.02712
518,554,-1.15686,-2.436,0,0,0,0,0,0,0,-1,1742,470,-1.15691,2.43599
525,554,0,0,0,0,0,0,0,0,0,-1,1749,470,0,0
532,554,0,0,0,0,0,0,0,0,0,-1,1756,470,0,0
539,554,0,0,0,0,0,0,0,0,0,-1,1763,470,0,0
546,554,0,0,0,0,0,0,0,0,0,-1,1770,470,0,0
553,554,0,0,0,0,0,0,0,0,0,-1,1777,470,0,0
560,554,0,0,0,0,0,0,0,0,0,-1,1784,470,0,0
567,554,0,0,0,0,0,0,0,0,0,-1,1791,470,0,0
574,554,0,0,0,0,0,0,0,0,0,-1,1798,470,0,0
581,554,0,0,0,0,0,0,0,0,0,-1,1805,470,0,0
588,554,0,0,0,0,0,0,0,0,0,-1,1812,470,0,0
595,554,0,0,0,0,0,0,0,0,0,-1,1819,470,0,0
602,554,0,0,0,0,0,0,0,0,0,-1,1826,470,0,0
609,554,0,0,0,0,0,0,0,0,0,-1,1833,470,0,0
616,554,0,0,0,0,0,0,0,0,0,-1,1840,470,0,0
623,554,0,0,0,0,0,0,0,0,0,-1,1847,470,0,0
630,554,0,0,0,0,0,0,0,0,0,-1,1854,470,0,0
637,554,0,0,0,0,0,0,0,0,0,-1,1861,470,0,0
644,554,0,0,0,0,0,0,0,0,0,-1,1868,470,0,0
651,554,0,0,0,0,0,0,0,0,0,-1,1875,470,0,0
658,554,0,0,0,0,0,0,0,0,0,-1,1882,470,0,0
665,554,0,0,0,0,0,0,0,0,0,-1,1889,470,0,0
672,554,0,0,0,0,0,0,0,0,0,-1,1896,470,0,0
679,554,0,0,0,0,0,0,0,0,0,-1,1903,470,0,0
686,554,0,0,0,0,0,0,0,0,0,-1,1910,470,0,0
693,554,0,0,0,0,0,0,0,0,0,-1,1917,470,0,0
700,554,0,0,0,0,0,0,0,0,0,-1,1924,470,0,0
707,554,0,0,0,0,0,0,0,0,0,-1,1931,470,0,0
714,554,0,0,0,0,0,0,0,0,0,-1,1938,470,0,0
721,554,0,0,0,0,0,0,0,0,0,-1,1945,470,0,0
728,554,0,0,0,0,0,0,0,0,0,-1,1952,470,0,0
735,554,0,0,0,0,0,0,0,0,0,-1,1959,470,0,0
742,554,0,0,0,0,0,0,0,0,0,-1,1966,470,0,0
749,554,0,0,0,0,0,0,0,0,0,-1,1973,470,0,0
756,554,0,0,0,0,0,0,0,0,0,-1,1980,470,0,0
763,554,0,0,0,0,0,0,0,0,0,-1,1987,470,0,0
770,554,0,0,0,0,0,0,0,0,0,-1,1994,470,0,0
777,554,0,0,0,0,0,0,0,0,0,-1,2001,470,0,0
784,554,0,0,0,0,0,0,0,0,0,-1,2008,470,0,0
791,554,0,0,0,0,0,0,0,0,0,-1,2015,470,0,0
798,554,0,0,0,0,0,0,0,0,0,-1,2022,470,0,0
805,554,0,0,0,0,0,0,0,0,0,-1,2029,470,0,0
812,554,0,0,0,0,0,0,0,0,0,-1,2036,470,0,0
-700,547,0,0,0,0,0,0,0,0,0,-1,524,477,0,0
-693,547,0,0,0,0,0,0,0,0,0,-1,531,477,0,0
-686,547,0,0,0,0,0,0,0,0,0,-1,538,477,0,0
-679,547,0,0,0,0,0,0,0,0,0,-1,545,477,0,0
-672,547,0,0,0,0,0,0,0,0,0,-1,552,477,0,0
-665,547,0,0,0,0,0,0,0,0,0,-1,559,477,0,0
-658,547,0,0,0,0,0,0,0,0,0,-1,566,477,0,0
-651,547,0,0,0,0,0,0,0,0,0,-1,573,477,0,0
-644,547,0,0,0,0,0,0,0,0,0,-1,580,477,0,0
-637,547,0,0,0,0,0,0,0,0,0,-1,587,477,0,0
-630,547,0,0,0,0,0,0,0,0,0,-1,594,477,0,0
-623,547,0,0,0,0,0,0,0,0,0,-1,601,477,0,0
-616,547,0,0,0,0,0,0,0,0,0,-1,608,477,0,0
-609,547,0,0,0,0,0,0,0,0,0,-1,615,477,0,0
-602,547,0,0,0,0,0,0,0,0,0,-1,622,477,0,0
-595,547,0,0,0,0,0,0,0,0,0,-1,629,477,0,0
-588,547,0,0,0,0,0,0,0,0,0,-1,636,477,0,0
-581,547,0,0,0,0,0,0,0,0,0,-1,643,477,0,0
-574,547,0,0,0,0,0,0,0,0,0,-1,650,477,0,0
-567,547,0,0,0,0,0,0,0,0,0,-1,657,477,0,0
-560,547,0,0,0,0,0,0,0,0,0,-1,664,477,0,0
-553,547,0,0,0,0,0,0,0,0,0,-1,671,477,0,0
-546,547,0,0,0,0,0,0,0,0,0,-1,678,477,0,0
-539,547,0,0,0,0,0,0,0,0,0,-1,685,477,0,0
-532,547,0,0,0,0,0,0,0,0,0,-1,692,477,0,0
-525,547,0,0,0,0,0,0,0,0,0,-1,699,477,0,0
-518,547,0,0,0,0,0,0,0,0,0,-1,706,477,0,0
-511,547,0,0,0,0,0,0,0,0,0,-1,713,477,0,0
-504,547,0,0,0,0,0,0,0,0,0,-1,720,477,0,0
-497,547,0,0,0,0,0,0,0,0,0,-1,727,477,0,0
-490,547,0,0,0,0,0,0,0,0,0,-1,734,477,0,0
-483,547,0,0,0,0,0,0,0,0,0,-1,741,477,0,0
-476,547,0,0,0,0,0,0,0,0,0,-1,748,477,0,0
-469,547,0,0,0,0,0,0,0,0,0,-1,755,477,0,0
-462,547,0,0,0,0,0,0,0,0,0,-1,762,477,0,0
-455,547,0,0,0,0,0,0,0,0,0,-1,769,477,0,0
-448,547,0,0,0,0,0,0,0,0,0,-1,776,477,0,0
-441,547,0,0,0,0,0,0,0,0,0,-1,783,477,0,0
-434,547,0,0,0,0,0,0,0,0,0,-1,790,477,0,0
-427,547,0,0,0,0,0,0,0,0,0,-1,797,477,0,0
-420,547,0,0,0,0,0,0,0,0,0,-1,804,477,0,0
-413,547,0,0,0,0,0,0,0,0,0,-1,811,477,0,0
-406,547,-1.9129,-4.21432,0,0,0,0,0,0,0,-1,818,477,-1.91292,4.21433
-399,547,1.61487,-2.37161,0,0,0,0,0,0,0,-1,825,477,1.61489,2.37162
-392,547,1.35889,-1.38098,0,0,0,0,0,0,0,-1,832,477,1.35886,1.38098
-385,547,-0.308533,-4.51331,0,0,0,0,0,0,0,-1,839,477,-0.308519,4.51331
-378,547,-0.17926,-4.71603,0,0,0,0,0,0,0,-1,846,477,-0.179287,4.71602
-371,547,-0.116943,-4.61679,0,0,0,0,0,0,0,-1,853,477,-0.116958,4.61679
-364,547,0.271729,-4.58582,0,0,0,0,0,0,0,-1,860,477,0.271753,4.5858
-357,547,0.947998,-6.05045,0,0,0,0,0,0,0,-1,867,477,0.947982,6.05044
-350,547,0.771973,-6.17758,0,0,0,0,0,0,0,-1,874,477,0.771995,6.17758
-343,547,0.768799,-6.39801,0.00220653,0.00373667,-0.00527955,0.00830629,-0.00236309,-0.857353,0.00647069,0.036319,881,477,0.768781,6.39801
-336,547,0.753601,-6.59137,0.00183169,0.00433488,-0.00423345,0.00749787,-0.0013313,-0.929126,0.00549635,0.0169433,888,477,0.753579,6.59137
-329,547,0.725403,-6.77246,0.00139039,0.00458557,-0.00323778,0.00659846,-0.000622494,-1.01458,0.00462047,0.00955859,895,477,0.725412,6.77247
-322,547,0.718872,-6.96677,0.00116034,0.00484154,-0.00265101,0.00622827,-0.000226391,-1.08884,0.00422966,0.010104,902,477,0.718845,6.96678
-315,547,0.708984,-7.16098,0.000982381,0.00491553,-0.00224496,0.00593346,-3.555e-05,-1.14509,0.00396754,0.00994276,909,477,0.708968,7.16098
-308,547,0.714783,-7.33759,0.00086846,0.00467951,-0.00192317,0.0054813,6.66617e-05,-1.17579,0.00363219,0.0114718,916,477,0.714767,7.33759
-301,547,0.725403,-7.52066,0.000845257,0.00431701,-0.0017065,0.00501536,0.000146916,-1.18236,0.00329569,0.0110605,923,477,0.725406,7.52066
-294,547,0.69458,-7.69464,0.000916158,0.00385212,-0.00141091,0.00442022,0.000348053,-1.18801,0.00283792,0.00896206,930,477,0.694567,7.69463
-287,547,0.686401,-7.86285,0.00091238,0.0031161,-0.00119556,0.00364011,0.000388365,-1.15772,0.0023082,0.0100569,937,477,0.686421,7.86284
-280,547,0.700134,-8.03809,0.000884709,0.00228653,-0.00109111,0.00288246,0.000288776,-1.0709,0.00183298,0.0114921,944,477,0.700141,8.0381
-273,547,0.699219,-8.21567,0.000897535,0.00144444,-0.000961756,0.00217086,0.000171112,-0.923906,0.00139371,0.0112021,951,477,0.699196,8.21566
-266,547,0.698425,-8.38483,0.000981637,0.00069561,-0.000836757,0.00168751,-1.02665e-05,-0.700759,0.00112845,0.0111084,958,477,0.698433,8.38483
-259,547,0.679138,-8.52878,0.00118774,9.83868e-05,-0.000623872,0.00147125,-0.00018512,-0.426532,0.001048,0.0102786,965,477,0.679155,8.52877
-252,547,0.684265,-8.69095,0.00150639,-0.000521616,-0.000402293,0.00158327,-0.000598504,-0.188846,0.00130172,0.0106077,972,477,0.684259,8.69095
-245,547,0.698425,-8.87033,0.00195688,-0.00117352,-0.000184454,0.00196771,-0.00118435,-0.0586529,0.00183848,0.0120667,979,477,0.69845,8.87033
-238,547,0.702637,-9.02036,0.00285242,-0.00241409,-0.000199022,0.00285993,-0.0024216,-0.0377184,0.00305279,0.00852507,986,477,0.702633,9.02037
-231,547,0.70636,-9.18759,0.00352268,-0.00316916,-6.13853e-05,0.00352325,-0.00316972,-0.00917213,0.00386598,0.00786497,993,477,0.706353,9.1876
-224,547,0.705994,-9.32434,0.00399306,-0.00425291,0.000232292,0.0039996,-0.00425945,0.0281406,0.00476915,0.0102564,1000,477,0.70602,9.32433
-217,547,0.728088,-9.48129,0.00462961,-0.00527516,0.000643445,0.00467124,-0.00531679,0.0646012,0.0057706,0.0139994,1007,477,0.728098,9.48128
-210,547,0.77301,-9.64896,0.00507954,-0.00644875,0.00212694,0.00545944,-0.00682865,0.176748,0.0071092,0.0237798,1014,477,0.77303,9.64896
-203,547,0.891968,-9.62769,0.00532959,-0.00823015,0.0043176,0.00658765,-0.00948822,0.283529,0.00933163,0.0346608,1021,477,0.891976,9.62767
-196,547,0.907715,-9.66812,0.00563545,-0.00899531,0.00660725,0.00817758,-0.0115374,0.36729,0.0114374,0.0428398,1028,477,0.907751,9.66811
-189,547,1.44434,-9.2016,0.00544483,-0.00997072,0.00950599,0.00997526,-0.0145011,0.444742,0.0142118,0.0469559,1035,477,1.44434,9.20161
-182,547,0.834473,-10.1736,0,0,0,0,0,0,0,-1,1042,477,0.834426,10.1736
-175,547,0.342163,-10.1358,0,0,0,0,0,0,0,-1,1049,477,0.342111,10.1358
-168,547,1.12463,-8.66785,0,0,0,0,0,0,0,-1,1056,477,1.12461,8.66786
-161,547,-0.866577,-10.5763,0,0,0,0,0,0,0,-1,1063,477,-0.866574,10.5763
-154,547,-0.174805,-10.6464,0,0,0,0,0,0,0,-1,1070,477,-0.174801,10.6464
-147,547,0.24939,-9.93164,0,0,0,0,0,0,0,-1,1077,477,0.249388,9.93163
-140,547,0.236328,-9.97873,0,0,0,0,0,0,0,-1,1084,477,0.236345,9.97873
-133,547,0.376709,-8.79092,0,0,0,0,0,0,0,-1,1091,477,0.376746,8.79092
-126,547,0.784302,-9.76431,0,0,0,0,0,0,0,-1,1098,477,0.78428,9.76432
-119,547,-0.531006,-10.0229,0,0,0,0,0,0,0,-1,1105,477,-0.530984,10.0229
-112,547,4.36194,-9.23029,0,0,0,0,0,0,0,-1,1112,477,4.36195,9.23029
-105,547,4.448,-9.17819,0,0,0,0,0,0,0,-1,1119,477,4.44799,9.1782
-98,547,1.50391,-7.20621,0,0,0,0,0,0,0,-1,1126,477,1.50395,7.20621
-91,547,1.37805,-7.12024,0,0,0,0,0,0,0,-1,1133,477,1.37804,7.12025
-84,547,1.94202,-6.66241,0,0,0,0,0,0,0,-1,1140,477,1.94201,6.66241
-77,547,-2.28357,1.8588,0,0,0,0,0,0,0,-1,1147,477,-2.28356,-1.85879
-70,547,-3.70178,-0.874908,0,0,0,0,0,0,0,-1,1154,477,-3.70182,0.874918
-63,547,-5.12012,-3.60861,0,0,0,0,0,0,0,-1,1161,477,-5.12009,3.60862
-56,547,-6.01917,-6.2399,0,0,0,0,0,0,0,-1,1168,477,-6.01921,6.23991
-49,547,-6.729,-8.60349,0,0,0,0,0,0,0,-1,1175,477,-6.72899,8.60348
-42,547,-2.41736,-5.53012,0,0,0,0,0,0,0,-1,1182,477,-2.41734,5.53011
-35,547,-2.96838,-4.45734,0,0,0,0,0,0,0,-1,1189,477,-2.96839,4.45734
-28,547,-0.869141,-1.29901,0,0,0,0,0,0,0,-1,1196,477,-0.869135,1.29901
-21,547,7.02197,-10.6903,0,0,0,0,0,0,0,-1,1203,477,7.02195,10.6903
-14,547,1.01721,-13.8526,0,0,0,0,0,0,0,-1,1210,477,1.01719,13.8526
-7,547,1.21802,-11.6566,0,0,0,0,0,0,0,-1,1217,477,1.21807,11.6567
0,547,1.34045,-9.83615,0,0,0,0,0,0,0,-1,1224,477,1.34047,9.83614
7,547,1.92285,-8.45636,0,0,0,0,0,0,0,-1,1231,477,1.92288,8.45635
14,547,0,0,0,0,0,0,0,0,0,-1,1238,477,0,0
21,547,0,0,0,0,0,0,0,0,0,-1,1245,477,0,0
28,547,0,0,0,0,0,0,0,0,0,-1,1252,477,0,0
35,547,0,0,0,0,0,0,0,0,0,-1,1259,477,0,0
42,547,0,0,0,0,0,0,0,0,0,-1,1266,477,0,0
49,547,0,0,0,0,0,0,0,0,0,-1,1273,477,0,0
56,547,0,0,0,0,0,0,0,0,0,-1,1280,477,0,0
63,547,0,0,0,0,0,0,0,0,0,-1,1287,477,0,0
70,547,0,0,0,0,0,0,0,0,0,-1,1294,477,0,0
77,547,0,0,0,0,0,0,0,0,0,-1,1301,477,0,0
84,547,0,0,0,0,0,0,0,0,0,-1,1308,477,0,0
91,547,0,0,0,0,0,0,0,0,0,-1,1315,477,0,0
98,547,0,0,0,0,0,0,0,0,0,-1,1322,477,0,0
105,547,5.95227,-15.5005,0,0,0,0,0,0,0,-1,1329,477,5.95231,15.5005
112,547,3.58801,-15.0497,0,0,0,0,0,0,0,-1,1336,477,3.58804,15.0497
119,547,4.17175,-14.841,0,0,0,0,0,0,0,-1,1343,477,4.17171,14.841
126,547,5.21948,-14.5869,0,0,0,0,0,0,0,-1,1350,477,5.21951,14.5869
133,547,6.15442,-15.2622,0.00889753,0.10227,0.115039,0.179736,-0.0685681,0.978159,0.14807,0.0466523,1357,477,6.15442,15.2622
140,547,-3.45068,-10.2094,0.00170268,0.0983877,0.135453,0.193866,-0.0937757,0.9568,0.169388,0.0420181,1364,477,-3.45064,10.2093
147,547,-3.64709,-10.4085,-0.00335837,0.0877912,0.154884,0.203667,-0.119234,0.928485,0.188539,0.0453412,1371,477,-3.64715,10.4085
154,547,-3.96021,-10.9059,-0.0176103,0.0669111,0.173833,0.203547,-0.154246,0.90464,0.207225,0.0482746,1378,477,-3.96022,10.9059
161,547,-4.13098,-11.6252,0,0,0,0,0,0,0,-1,1385,477,-4.131,11.6252
168,547,-6.75854,-16.465,0,0,0,0,0,0,0,-1,1392,477,-6.75852,16.465
175,547,3.35034,-0.26532,0,0,0,0,0,0,0,-1,1399,477,3.3503,0.265306
182,547,4.26038,3.72672,0,0,0,0,0,0,0,-1,1406,477,4.26039,-3.7267
189,547,3.40454,1.28671,0,0,0,0,0,0,0,-1,1413,477,3.40457,-1.28673
196,547,3.53931,1.87793,0,0,0,0,0,0,0,-1,1420,477,3.53928,-1.87794
203,547,6.49414,-0.425842,0,0,0,0,0,0,0,-1,1427,477,6.4941,0.425844
210,547,4.82092,0.53595,0,0,0,0,0,0,0,-1,1434,477,4.82096,-0.535942
217,547,4.68579,0.480072,0,0,0,0,0,0,0,-1,1441,477,4.68577,-0.480069
224,547,4.55615,0.739807,0,0,0,0,0,0,0,-1,1448,477,4.55613,-0.73981
231,547,5.90869,-3.57721,0,0,0,0,0,0,0,-1,1455,477,5.90871,3.57722
238,547,5.50049,-3.15356,0,0,0,0,0,0,0,-1,1462,477,5.50045,3.15356
245,547,5.13708,-2.65213,0,0,0,0,0,0,0,-1,1469,477,5.13708,2.65212
252,547,3.73511,-0.645233,0,0,0,0,0,0,0,-1,1476,477,3.73515,0.645237
259,547,5.86816,-3.20816,0,0,0,0,0,0,0,-1,1483,477,5.86815,3.20816
266,547,5.40222,-2.45731,0,0,0,0,0,0,0,-1,1490,477,5.40221,2.45732
273,547,3.05737,0.495789,0,0,0,0,0,0,0,-1,1497,477,3.05742,-0.49578
280,547,2.0885,1.47797,0,0,0,0,0,0,0,-1,1504,477,2.08848,-1.47795
287,547,2.31177,-2.21716,0,0,0,0,0,0,0,-1,1511,477,2.31174,2.21717
294,547,2.4823,-3.03659,0,0,0,0,0,0,0,-1,1518,477,2.48229,3.0366
301,547,4.72119,-3.93454,0,0,0,0,0,0,0,-1,1525,477,4.72119,3.93453
308,547,4.07471,-5.42175,0,0,0,0,0,0,0,-1,1532,477,4.07468,5.42174
315,547,3.58496,-6.62112,0,0,0,0,0,0,0,-1,1539,477,3.58497,6.62113
322,547,3.58826,-8.91766,0,0,0,0,0,0,0,-1,1546,477,3.58824,8.91766
329,547,3.77954,-8.69214,-0.00609821,-0.0052931,-0.00611808,0.000435649,-0.011827,-0.81825,0.0080338,0.0486853,1553,477,3.77949,8.69214
336,547,3.93665,-8.60068,-0.00640219,-0.00572914,-0.00546298,-0.00059233,-0.011539,-0.81616,0.00750302,0.0303952,1560,477,3.93663,8.60068
343,547,3.9292,-8.5459,-0.00661065,-0.00574857,-0.00513648,-0.00102508,-0.0113341,-0.827259,0.00723864,0.0242978,1567,477,3.92915,8.5459
350,547,3.96741,-8.42667,-0.00651456,-0.00583527,-0.00481232,-0.00135062,-0.0109992,-0.820629,0.00692663,0.0191635,1574,477,3.96747,8.42667
357,547,3.9668,-8.20587,-0.00587846,-0.0057669,-0.00453541,-0.00128692,-0.0103584,-0.791547,0.00651913,0.014174,1581,477,3.9668,8.20588
364,547,3.95776,-7.99319,-0.00530289,-0.00525542,-0.00425297,-0.00102612,-0.00953219,-0.788189,0.00604187,0.010012,1588,477,3.95771,7.99318
371,547,3.97607,-7.81979,-0.00472817,-0.00470106,-0.00376128,-0.000953308,-0.00847592,-0.7872,0.00536117,0.00914294,1595,477,3.97602,7.81979
378,547,3.98901,-7.65088,-0.0039552,-0.00398651,-0.00325671,-0.000714106,-0.0072276,-0.782994,0.00459889,0.0106114,1602,477,3.989,7.65089
385,547,3.99402,-7.46326,-0.0033223,-0.00325356,-0.0029316,-0.000356129,-0.00621974,-0.79126,0.00403303,0.011244,1609,477,3.99399,7.46327
392,547,3.96497,-7.26294,-0.00261712,-0.00262012,-0.00254843,-7.01898e-05,-0.00516706,-0.785104,0.00342155,0.0115947,1616,477,3.96496,7.26293
399,547,3.97021,-7.0694,-0.00189332,-0.00213041,-0.00217118,0.000162547,-0.00418628,-0.758126,0.00284658,0.0129133,1623,477,3.9702,7.06938
406,547,3.99927,-6.8862,-0.00130075,-0.00170189,-0.00178212,0.00029205,-0.00329469,-0.729361,0.0023,0.0121035,1630,477,3.99924,6.8862
413,547,4.00403,-6.69946,-0.000655154,-0.0012657,-0.00129569,0.000370745,-0.00229159,-0.669706,0.00166513,0.0124077,1637,477,4.00403,6.69946
420,547,4.01831,-6.474,-0.00011204,-0.00110124,-0.00102033,0.000527246,-0.00174052,-0.559713,0.00137033,0.0144603,1644,477,4.01826,6.474
427,547,3.99536,-6.28931,0.000422324,-0.00106164,-0.000733683,0.000723812,-0.00136313,-0.389887,0.00122359,0.0131171,1651,477,3.99535,6.2893
434,547,3.95886,-6.10352,0.000884962,-0.0011016,-0.000460691,0.000986598,-0.00120323,-0.217139,0.00126636,0.00902005,1658,477,3.95889,6.10351
441,547,3.97009,-5.90094,0.00144553,-0.00130289,-0.000174062,0.00145651,-0.00131387,-0.0629962,0.00160018,0.0100812,1665,477,3.9701,5.90094
448,547,3.97498,-5.69,0.00203704,-0.00154769,0.000117435,0.00204089,-0.00155153,0.0327131,0.00208049,0.0107922,1672,477,3.97502,5.69001
455,547,3.97107,-5.47336,0.00273491,-0.00139454,0.000466024,0.00278685,-0.00144648,0.110994,0.00248462,0.0106716,1679,477,3.97101,5.47337
462,547,3.94153,-5.25095,0.00327091,0.00085311,0.00101861,0.00364283,0.000481186,0.350089,0.00228511,0.0109512,1686,477,3.94151,5.25094
469,547,3.92908,-5.06699,0.00340803,0.00480322,0.00152887,0.00578613,0.00242512,0.99943,0.00335516,0.0186085,1693,477,3.92905,5.067
476,547,4.06677,-4.73215,0.00330859,0.00917879,0.00225042,0.00994223,0.00254515,1.24374,0.00596364,0.0401184,1700,477,4.06674,4.73215
483,547,4.19165,-4.30298,0,0,0,0,0,0,0,-1,1707,477,4.19162,4.30299
490,547,3.65271,-3.71707,0,0,0,0,0,0,0,-1,1714,477,3.65277,3.71708
497,547,2.55481,-3.81421,0,0,0,0,0,0,0,-1,1721,477,2.55476,3.8142
504,547,4.01953,-2.22714,0,0,0,0,0,0,0,-1,1728,477,4.0195,2.22713
511,547,4.82495,-1.45642,0,0,0,0,0,0,0,-1,1735,477,4.82495,1.45641
518,547,4.5116,-1.21103,0,0,0,0,0,0,0,-1,1742,477,4.51155,1.21103
525,547,0.781616,-3.76355,0,0,0,0,0,0,0,-1,1749,477,0.781645,3.76354
532,547,0,0,0,0,0,0,0,0,0,-1,1756,477,0,0
539,547,0,0,0,0,0,0,0,0,0,-1,1763,477,0,0
546,547,0,0,0,0,0,0,0,0,0,-1,1770,477,0,0
553,547,0,0,0,0,0,0,0,0,0,-1,1777,477,0,0
560,547,0,0,0,0,0,0,0,0,0,-1,1784,477,0,0
567,547,0,0,0,0,0,0,0,0,0,-1,1791,477,0,0
574,547,0,0,0,0,0,0,0,0,0,-1,1798,477,0,0
581,547,0,0,0,0,0,0,0,0,0,-1,1805,477,0,0
588,547,0,0,0,0,0,0,0,0,0,-1,1812,477,0,0
595,547,0,0,0,0,0,0,0,0,0,-1,1819,477,0,0
602,547,0,0,0,0,0,0,0,0,0,-1,1826,477,0,0
609,547,0,0,0,0,0,0,0,0,0,-1,1833,477,0,0
616,547,0,0,0,0,0,0,0,0,0,-1,1840,477,0,0
623,547,0,0,0,0,0,0,0,0,0,-1,1847,477,0,0
630,547,0,0,0,0,0,0,0,0,0,-1,1854,477,0,0
637,547,0,0,0,0,0,0,0,0,0,-1,1861,477,0,0
644,547,0,0,0,0,0,0,0,0,0,-1,1868,477,0,0
651,547,0,0,0,0,0,0,0,0,0,-1,1875,477,0,0
658,547,0,0,0,0,0,0,0,0,0,-1,1882,477,0,0
665,547,0,0,0,0,0,0,0,0,0,-1,1889,477,0,0
672,547,0,0,0,0,0,0,0,0,0,-1,1896,477,0,0
679,547,0,0,0,0,0,0,0,0,0,-1,1903,477,0,0
686,547,0,0,0,0,0,0,0,0,0,-1,1910,477,0,0
693,547,0,0,0,0,0,0,0,0,0,-1,1917,477,0,0
700,547,0,0,0,0,0,0,0,0,0,-1,1924,477,0,0
707,547,0,0,0,0,0,0,0,0,0,-1,1931,477,0,0
714,547,0,0,0,0,0,0,0,0,0,-1,1938,477,0,0
721,547,0,0,0,0,0,0,0,0,0,-1,1945,477,0,0
728,547,0,0,0,0,0,0,0,0,0,-1,1952,477,0,0
735,547,0,0,0,0,0,0,0,0,0,-1,1959,477,0,0
742,547,0,0,0,0,0,0,0,0,0,-1,1966,477,0,0
749,547,0,0,0,0,0,0,0,0,0,-1,1973,477,0,0
756,547,0,0,0,0,0,0,0,0,0,-1,1980,477,0,0
763,547,0,0,0,0,0,0,0,0,0,-1,1987,477,0,0
770,547,0,0,0,0,0,0,0,0,0,-1,1994,477,0,0
777,547,0,0,0,0,0,0,0,0,0,-1,2001,477,0,0
784,547,0,0,0,0,0,0,0,0,0,-1,2008,477,0,0
791,547,0,0,0,0,0,0,0,0,0,-1,2015,477,0,0
798,547,0,0,0,0,0,0,0,0,0,-1,2022,477,0,0
805,547,0,0,0,0,0,0,0,0,0,-1,2029,477,0,0
812,547,0,0,0,0,0,0,0,0,0,-1,2036,477,0,0
-700,540,0,0,0,0,0,0,0,0,0,-1,524,484,0,0
-693,540,0,0,0,0,0,0,0,0,0,-1,531,484,0,0
-686,540,0,0,0,0,0,0,0,0,0,-1,538,484,0,0
-679,540,0,0,0,0,0,0,0,0,0,-1,545,484,0,0
-672,540,0,0,0,0,0,0,0,0,0,-1,552,484,0,0
-665,540,0,0,0,0,0,0,0,0,0,-1,559,484,0,0
-658,540,0,0,0,0,0,0,0,0,0,-1,566,484,0,0
-651,540,0,0,0,0,0,0,0,0,0,-1,573,484,0,0
-644,540,0,0,0,0,0,0,0,0,0,-1,580,484,0,0
-637,540,0,0,0,0,0,0,0,0,0,-1,587,484,0,0
-630,540,0,0,0,0,0,0,0,0,0,-1,594,484,0,0
-623,540,0,0,0,0,0,0,0,0,0,-1,601,484,0,0
-616,540,0,0,0,0,0,0,0,0,0,-1,608,484,0,0
-609,540,0,0,0,0,0,0,0,0,0,-1,615,484,0,0
-602,540,0,0,0,0,0,0,0,0,0,-1,622,484,0,0
-595,540,0,0,0,0,0,0,0,0,0,-1,629,484,0,0
-588,540,0,0,0,0,0,0,0,0,0,-1,636,484,0,0
-581,540,0,0,0,0,0,0,0,0,0,-1,643,484,0,0
-574,540,0,0,0,0,0,0,0,0,0,-1,650,484,0,0
-567,540,0,0,0,0,0,0,0,0,0,-1,657,484,0,0
-560,540,0,0,0,0,0,0,0,0,0,-1,664,484,0,0
-553,540,0,0,0,0,0,0,0,0,0,-1,671,484,0,0
-546,540,0,0,0,0,0,0,0,0,0,-1,678,484,0,0
-539,540,0,0,0,0,0,0,0,0,0,-1,685,484,0,0
-532,540,0,0,0,0,0,0,0,0,0,-1,692,484,0,0
-525,540,0,0,0,0,0,0,0,0,0,-1,699,484,0,0
-518,540,0,0,0,0,0,0,0,0,0,-1,706,484,0,0
-511,540,0,0,0,0,0,0,0,0,0,-1,713,484,0,0
-504,540,0,0,0,0,0,0,0,0,0,-1,720,484,0,0
-497,540,0,0,0,0,0,0,0,0,0,-1,727,484,0,0
-490,540,0,0,0,0,0,0,0,0,0,-1,734,484,0,0
-483,540,0,0,0,0,0,0,0,0,0,-1,741,484,0,0
-476,540,0,0,0,0,0,0,0,0,0,-1,748,484,0,0
-469,540,0,0,0,0,0,0,0,0,0,-1,755,484,0,0
-462,540,0,0,0,0,0,0,0,0,0,-1,762,484,0,0
-455,540,0,0,0,0,0,0,0,0,0,-1,769,484,0,0
-448,540,0,0,0,0,0,0,0,0,0,-1,776,484,0,0
-441,540,0,0,0,0,0,0,0,0,0,-1,783,484,0,0
-434,540,0,0,0,0,0,0,0,0,0,-1,790,484,0,0
-427,540,0,0,0,0,0,0,0,0,0,-1,797,484,0,0
-420,540,0.50824,-4.86896,0,0,0,0,0,0,0,-1,804,484,0.508247,4.86897
-413,540,-1.2381,-4.07144,0,0,0,0,0,0,0,-1,811,484,-1.23807,4.07143
-406,540,1.69879,-4.28293,0,0,0,0,0,0,0,-1,818,484,1.6988,4.28293
-399,540,2.06079,-3.6463,0,0,0,0,0,0,0,-1,825,484,2.06078,3.6463
-392,540,0.883789,-2.51743,0,0,0,0,0,0,0,-1,832,484,0.883774,2.51744
-385,540,0.769104,-2.28012,0,0,0,0,0,0,0,-1,839,484,0.769126,2.28011
-378,540,-3.828,-3.2016,0,0,0,0,0,0,0,-1,846,484,-3.82798,3.20159
-371,540,-0.0177002,-4.21246,0,0,0,0,0,0,0,-1,853,484,-0.0176722,4.21247
-364,540,0.432678,-5.53839,0,0,0,0,0,0,0,-1,860,484,0.432694,5.53839
-357,540,0.810547,-6.03302,0,0,0,0,0,0,0,-1,867,484,0.810554,6.03302
-350,540,0.530762,-6.21436,0.00186818,0.00218408,-0.00499788,0.0070265,-0.00297425,-0.801195,0.00592983,0.0314981,874,484,0.530737,6.21437
-343,540,0.5401,-6.39944,0.00166024,0.00252638,-0.00403593,0.00615241,-0.00196579,-0.838846,0.00489039,0.0135687,881,484,0.540087,6.39944
-336,540,0.528809,-6.60028,0.00132456,0.00285455,-0.00319947,0.00537921,-0.0012001,-0.902745,0.00404595,0.0124238,888,484,0.528821,6.60027
-329,540,0.526123,-6.77209,0.000961504,0.00296754,-0.00235537,0.00452456,-0.000595521,-0.98669,0.00323322,0.0103376,895,484,0.526151,6.7721
-322,540,0.52478,-6.96045,0.000734951,0.00313345,-0.00184383,0.00413372,-0.00026532,-1.07373,0.00284838,0.0139768,902,484,0.524753,6.96044
-315,540,0.514099,-7.16266,0.00056403,0.00315498,-0.00148753,0.00383207,-0.00011306,-1.14365,0.00259322,0.0129915,909,484,0.51412,7.16265
-308,540,0.514099,-7.34137,0.000499922,0.00294145,-0.00120342,0.00343489,6.48363e-06,-1.18167,0.00228777,0.0123559,916,484,0.514102,7.34137
-301,540,0.502686,-7.49838,0.000524041,0.00264373,-0.00101865,0.0030539,0.000113876,-1.188,0.00199905,0.0119728,923,484,0.502687,7.49839
-294,540,0.50293,-7.67462,0.000634583,0.00225685,-0.000765296,0.00256089,0.000330542,-1.19263,0.00160844,0.0106226,930,484,0.502926,7.67461
-287,540,0.519775,-7.86652,0.00070577,0.0016109,-0.00059845,0.00190864,0.000408031,-1.10914,0.00116058,0.00742307,937,484,0.519785,7.86652
-280,540,0.522217,-8.04562,0.000756183,0.000877112,-0.00054554,0.00136553,0.000267767,-0.84059,0.000835523,0.00889983,944,484,0.522194,8.04563
-273,540,0.53186,-8.22565,0.000854082,0.000185079,-0.000470608,0.00109696,-5.77957e-05,-0.476434,0.000751311,0.0115102,951,484,0.531832,8.22564
-266,540,0.538452,-8.39801,0.00103861,-0.000418804,-0.000407779,0.00114494,-0.000525141,-0.25509,0.000986108,0.0128466,958,484,0.538426,8.398
-259,540,0.521301,-8.55322,0.00134766,-0.000879167,-0.000269053,0.00137971,-0.000911214,-0.11855,0.00133185,0.0117298,965,484,0.521307,8.55322
-252,540,0.525696,-8.71429,0.00179951,-0.0013837,-0.000112967,0.00180351,-0.0013877,-0.0354291,0.00184765,0.0115402,972,484,0.525681,8.7143
-245,540,0.534912,-8.87622,0.00243045,-0.00196343,3.78894e-05,0.00243078,-0.00196376,0.00862237,0.00254196,0.0125925,979,484,0.534888,8.87621
-238,540,0.540955,-9.00952,0.00359688,-0.00330025,-9.37319e-05,0.00359815,-0.00330153,-0.0135866,0.00398476,0.00923469,986,484,0.540936,9.00953
-231,540,0.540894,-9.16479,0.00449466,-0.00411393,-1.14693e-05,0.00449467,-0.00411395,-0.0013323,0.00497181,0.0108865,993,484,0.540922,9.16479
-224,540,0.555237,-9.31149,0.00518388,-0.00542714,0.000294546,0.00519205,-0.00543531,0.0277301,0.00613624,0.0165318,1000,484,0.555235,9.31149
-217,540,0.568604,-9.50818,0.00609501,-0.00673872,0.000802022,0.00614494,-0.00678865,0.0621709,0.00747029,0.0273498,1007,484,0.568613,9.50818
-210,540,0.551575,-9.70306,0.00684388,-0.00829348,0.00258302,0.00727251,-0.0087221,0.164441,0.00924712,0.0433431,1014,484,0.551558,9.70306
-203,540,0.798706,-9.58673,0.00727089,-0.0106395,0.00527586,0.00870945,-0.0120781,0.266197,0.0120541,0.0455197,1021,484,0.798705,9.58672
-196,540,0.92334,-9.63535,0,0,0,0,0,0,0,-1,1028,484,0.923342,9.63534
-189,540,1.5813,-8.63824,0,0,0,0,0,0,0,-1,1035,484,1.5813,8.63824
-182,540,0.889893,-7.7973,0,0,0,0,0,0,0,-1,1042,484,0.889893,7.79729
-175,540,1.02588,-7.74042,0,0,0,0,0,0,0,-1,1049,484,1.02589,7.74043
-168,540,1.18164,-7.65347,0,0,0,0,0,0,0,-1,1056,484,1.18163,7.65347
-161,540,-1.31653,-9.93869,0,0,0,0,0,0,0,-1,1063,484,-1.31651,9.93868
-154,540,-0.348145,-9.39148,0,0,0,0,0,0,0,-1,1070,484,-0.348166,9.39148
-147,540,1.22168,-8.1449,0,0,0,0,0,0,0,-1,1077,484,1.22172,8.14489
-140,540,0.466797,-8.22092,0,0,0,0,0,0,0,-1,1084,484,0.466834,8.22091
-133,540,0.733276,-8.80582,0,0,0,0,0,0,0,-1,1091,484,0.733219,8.80582
-126,540,1.06201,-9.57385,0,0,0,0,0,0,0,-1,1098,484,1.06204,9.57385
-119,540,6.18579,-10.4846,0,0,0,0,0,0,0,-1,1105,484,6.18582,10.4846
-112,540,5.8468,-9.65106,0,0,0,0,0,0,0,-1,1112,484,5.84681,9.65106
-105,540,5.50781,-8.81754,0,0,0,0,0,0,0,-1,1119,484,5.5078,8.81753
-98,540,0.73877,-3.08093,0,0,0,0,0,0,0,-1,1126,484,0.738754,3.08092
-91,540,1.56519,-7.48666,0,0,0,0,0,0,0,-1,1133,484,1.56514,7.48667
-84,540,-0.945923,4.43073,0,0,0,0,0,0,0,-1,1140,484,-0.945891,-4.43074
-77,540,-2.28894,2.14368,0,0,0,0,0,0,0,-1,1147,484,-2.28894,-2.14368
-70,540,-3.75244,-0.452576,0,0,0,0,0,0,0,-1,1154,484,-3.75244,0.452576
-63,540,-5.26257,-3.04767,0,0,0,0,0,0,0,-1,1161,484,-5.26262,3.04766
-56,540,-5.19055,-6.12595,0,0,0,0,0,0,0,-1,1168,484,-5.19057,6.12595
-49,540,-5.63867,-8.52298,0,0,0,0,0,0,0,-1,1175,484,-5.63871,8.52298
-42,540,0,0,0,0,0,0,0,0,0,-1,1182,484,0,0
-35,540,0,0,0,0,0,0,0,0,0,-1,1189,484,0,0
-28,540,0,0,0,0,0,0,0,0,0,-1,1196,484,0,0
-21,540,0,0,0,0,0,0,0,0,0,-1,1203,484,0,0
-14,540,0,0,0,0,0,0,0,0,0,-1,1210,484,0,0
-7,540,0,0,0,0,0,0,0,0,0,-1,1217,484,0,0
0,540,0,0,0,0,0,0,0,0,0,-1,1224,484,0,0
7,540,0,0,0,0,0,0,0,0,0,-1,1231,484,0,0
14,540,0,0,0,0,0,0,0,0,0,-1,1238,484,0,0
21,540,0,0,0,0,0,0,0,0,0,-1,1245,484,0,0
28,540,0,0,0,0,0,0,0,0,0,-1,1252,484,0,0
35,540,0,0,0,0,0,0,0,0,0,-1,1259,484,0,0
42,540,0,0,0,0,0,0,0,0,0,-1,1266,484,0,0
49,540,0,0,0,0,0,0,0,0,0,-1,1273,484,0,0
56,540,0,0,0,0,0,0,0,0,0,-1,1280,484,0,0
63,540,0,0,0,0,0,0,0,0,0,-1,1287,484,0,0
70,540,0,0,0,0,0,0,0,0,0,-1,1294,484,0,0
77,540,0,0,0,0,0,0,0,0,0,-1,1301,484,0,0
84,540,0,0,0,0,0,0,0,0,0,-1,1308,484,0,0
91,540,0,0,0,0,0,0,0,0,0,-1,1315,484,0,0
98,540,0,0,0,0,0,0,0,0,0,-1,1322,484,0,0
105,540,0,0,0,0,0,0,0,0,0,-1,1329,484,0,0
112,540,0,0,0,0,0,0,0,0,0,-1,1336,484,0,0
119,540,0,0,0,0,0,0,0,0,0,-1,1343,484,0,0
126,540,0,0,0,0,0,0,0,0,0,-1,1350,484,0,0
133,540,0,0,0,0,0,0,0,0,0,-1,1357,484,0,0
140,540,0,0,0,0,0,0,0,0,0,-1,1364,484,0,0
147,540,0,0,0,0,0,0,0,0,0,-1,1371,484,0,0
154,540,0,0,0,0,0,0,0,0,0,-1,1378,484,0,0
161,540,0,0,0,0,0,0,0,0,0,-1,1385,484,0,0
168,540,3.05078,-0.0010376,0,0,0,0,0,0,0,-1,1392,484,3.05084,0.00102554
175,540,3.37708,0.617035,0,0,0,0,0,0,0,-1,1399,484,3.37707,-0.617046
182,540,3.32678,1.23267,0,0,0,0,0,0,0,-1,1406,484,3.32678,-1.23266
189,540,3.5813,2.15619,0,0,0,0,0,0,0,-1,1413,484,3.58129,-2.1562
196,540,1.84448,-0.801483,0,0,0,0,0,0,0,-1,1420,484,1.84446,0.80148
203,540,4.14648,0.702087,0,0,0,0,0,0,0,-1,1427,484,4.14645,-0.702089
210,540,4.50671,-0.56076,0,0,0,0,0,0,0,-1,1434,484,4.50667,0.560771
217,540,5.00452,-0.278717,0,0,0,0,0,0,0,-1,1441,484,5.00452,0.278709
224,540,6.44458,-2.83527,0,0,0,0,0,0,0,-1,1448,484,6.44457,2.83525
231,540,6.9231,-3.10504,0,0,0,0,0,0,0,-1,1455,484,6.92307,3.10505
238,540,6.4823,-2.58365,0,0,0,0,0,0,0,-1,1462,484,6.48225,2.58363
245,540,6.02087,-1.97916,0,0,0,0,0,0,0,-1,1469,484,6.02088,1.97915
252,540,6.50647,-3.56006,0,0,0,0,0,0,0,-1,1476,484,6.50649,3.56006
259,540,6.01941,-2.798,0,0,0,0,0,0,0,-1,1483,484,6.01941,2.79801
266,540,5.5332,-2.02853,0,0,0,0,0,0,0,-1,1490,484,5.53323,2.02855
273,540,5.06787,-1.28137,0,0,0,0,0,0,0,-1,1497,484,5.06786,1.28136
280,540,1.62903,-2.14609,0,0,0,0,0,0,0,-1,1504,484,1.62906,2.1461
287,540,1.97156,-2.45053,0,0,0,0,0,0,0,-1,1511,484,1.97159,2.45053
294,540,2.44165,-2.6185,0,0,0,0,0,0,0,-1,1518,484,2.44167,2.6185
301,540,4.36169,-2.54272,0,0,0,0,0,0,0,-1,1525,484,4.36165,2.54272
308,540,4.2019,-4.30469,0,0,0,0,0,0,0,-1,1532,484,4.20193,4.3047
315,540,4.45923,-5.32101,0,0,0,0,0,0,0,-1,1539,484,4.45923,5.32103
322,540,4.71655,-6.33737,0,0,0,0,0,0,0,-1,1546,484,4.71653,6.33736
329,540,3.85217,-8.6524,0,0,0,0,0,0,0,-1,1553,484,3.85216,8.65239
336,540,4.10229,-8.58194,0,0,0,0,0,0,0,-1,1560,484,4.10235,8.58194
343,540,4.07043,-8.59692,0,0,0,0,0,0,0,-1,1567,484,4.0704,8.59693
350,540,4.11023,-8.52072,0,0,0,0,0,0,0,-1,1574,484,4.11023,8.52072
357,540,4.33374,-8.07184,-0.0086433,-0.00874889,-0.00630126,-0.00239461,-0.0149976,-0.781209,0.00930348,0.0370395,1581,484,4.33369,8.07184
364,540,4.13123,-7.94943,-0.00768488,-0.00797044,-0.00598538,-0.00184058,-0.0138147,-0.773473,0.00866173,0.020198,1588,484,4.13117,7.94944
371,540,4.12988,-7.82401,-0.00677095,-0.0071743,-0.00534859,-0.00162023,-0.012325,-0.766554,0.00773339,0.0143825,1595,484,4.12986,7.82401
378,540,4.17224,-7.64514,-0.00561264,-0.0061859,-0.00469944,-0.0011911,-0.0106074,-0.75494,0.00670993,0.011589,1602,484,4.1722,7.64514
385,540,4.18665,-7.4642,-0.00470597,-0.00514332,-0.00425726,-0.000661777,-0.00918752,-0.759738,0.00591677,0.0126945,1609,484,4.1867,7.46421
392,540,4.16284,-7.26102,-0.00377431,-0.00415523,-0.00374888,-0.000211051,-0.00771849,-0.760017,0.00507677,0.0119754,1616,484,4.16283,7.26102
399,540,4.16479,-7.07904,-0.00285883,-0.00331869,-0.00327484,0.000194142,-0.00637166,-0.75035,0.00431394,0.0166466,1623,484,4.16473,7.07904
406,540,4.1842,-6.89722,-0.00209731,-0.00257877,-0.00278542,0.000457761,-0.00513384,-0.742292,0.0035849,0.017442,1630,484,4.18416,6.89722
413,540,4.19861,-6.71542,-0.00124635,-0.0018339,-0.00212469,0.000604777,-0.00368503,-0.7167,0.00268112,0.0128344,1637,484,4.19865,6.71541
420,540,4.20984,-6.48462,-0.000637214,-0.00139835,-0.00171959,0.000743421,-0.00277898,-0.676497,0.00214387,0.0113308,1644,484,4.20982,6.48461
427,540,4.18298,-6.28543,-0.000143537,-0.00113432,-0.00132586,0.000776458,-0.00205431,-0.606611,0.00168894,0.0121399,1651,484,4.183,6.28542
434,540,4.16992,-6.10074,0.000305411,-0.000928998,-0.000954598,0.000824956,-0.00144854,-0.498422,0.00132896,0.0144261,1658,484,4.16995,6.10072
441,540,4.1936,-5.87686,0.00083216,-0.000931192,-0.000572825,0.0010019,-0.00110094,-0.288082,0.00121452,0.0184942,1665,484,4.19355,5.87685
448,540,4.18567,-5.68063,0.00136088,-0.00106667,-0.000149834,0.00137009,-0.00107589,-0.0614118,0.00141559,0.011885,1672,484,4.18569,5.68063
455,540,4.16687,-5.4653,0.00197465,-0.000835401,0.000312138,0.00200891,-0.000869656,0.109304,0.00170477,0.0104896,1679,484,4.16684,5.4653
462,540,4.13684,-5.23904,0.00242248,0.00114452,0.000918614,0.0029025,0.000664508,0.481517,0.00175592,0.0105765,1686,484,4.13682,5.23905
469,540,4.12732,-5.05975,0.00253365,0.00444625,0.001447,0.0052244,0.0017555,1.07739,0.00306991,0.013434,1693,484,4.12727,5.05977
476,540,4.11316,-4.91605,0.00238942,0.00797503,0.00205832,0.00865158,0.00171287,1.25323,0.00529002,0.0203836,1700,484,4.11316,4.91604
483,540,4.14343,-4.65649,0.00210609,0.013282,0.00289928,0.0139894,0.00139872,1.33149,0.00889674,0.0343035,1707,484,4.14348,4.65649
490,540,4.30066,-4.33856,0,0,0,0,0,0,0,-1,1714,484,4.30067,4.33855
497,540,4.27393,-2.67752,0,0,0,0,0,0,0,-1,1721,484,4.27395,2.67751
504,540,4.41003,-3.2067,0,0,0,0,0,0,0,-1,1728,484,4.41002,3.20671
511,540,4.80774,-2.13504,-0.00492598,0.0574463,0.00847853,0.0585782,-0.00605796,1.43807,0.0412201,0.0490177,1735,484,4.80778,2.13505
518,540,4.5542,-2.0368,-0.00850172,0.0747774,0.0105932,0.0761038,-0.00982806,1.44624,0.0543091,0.0469463,1742,484,4.55425,2.0368
525,540,4.37878,-1.75592,0,0,0,0,0,0,0,-1,1749,484,4.3788,1.75591
532,540,2.84265,-1.07925,0,0,0,0,0,0,0,-1,1756,484,2.84269,1.07927
539,540,0,0,0,0,0,0,0,0,0,-1,1763,484,0,0
546,540,0,0,0,0,0,0,0,0,0,-1,1770,484,0,0
553,540,0,0,0,0,0,0,0,0,0,-1,1777,484,0,0
560,540,0,0,0,0,0,0,0,0,0,-1,1784,484,0,0
567,540,0,0,0,0,0,0,0,0,0,-1,1791,484,0,0
574,540,0,0,0,0,0,0,0,0,0,-1,1798,484,0,0
581,540,0,0,0,0,0,0,0,0,0,-1,1805,484,0,0
588,540,0,0,0,0,0,0,0,0,0,-1,1812,484,0,0
595,540,0,0,0,0,0,0,0,0,0,-1,1819,484,0,0
602,540,0,0,0,0,0,0,0,0,0,-1,1826,484,0,0
609,540,0,0,0,0,0,0,0,0,0,-1,1833,484,0,0
616,540,0,0,0,0,0,0,0,0,0,-1,1840,484,0,0
623,540,0,0,0,0,0,0,0,0,0,-1,1847,484,0,0
630,540,0,0,0,0,0,0,0,0,0,-1,1854,484,0,0
637,540,0,0,0,0,0,0,0,0,0,-1,1861,484,0,0
644,540,0,0,0,0,0,0,0,0,0,-1,1868,484,0,0
651,540,0,0,0,0,0,0,0,0,0,-1,1875,484,0,0
658,540,0,0,0,0,0,0,0,0,0,-1,1882,484,0,0
665,540,0,0,0,0,0,0,0,0,0,-1,1889,484,0,0
672,540,0,0,0,0,0,0,0,0,0,-1,1896,484,0,0
679,540,0,0,0,0,0,0,0,0,0,-1,1903,484,0,0
686,540,0,0,0,0,0,0,0,0,0,-1,1910,484,0,0
693,540,0,0,0,0,0,0,0,0,0,-1,1917,484,0,0
700,540,0,0,0,0,0,0,0,0,0,-1,1924,484,0,0
707,540,0,0,0,0,0,0,0,0,0,-1,1931,484,0,0
714,540,0,0,0,0,0,0,0,0,0,-1,1938,484,0,0
721,540,0,0,0,0,0,0,0,0,0,-1,1945,484,0,0
728,540,0,0,0,0,0,0,0,0,0,-1,1952,484,0,0
735,540,0,0,0,0,0,0,0,0,0,-1,1959,484,0,0
742,540,0,0,0,0,0,0,0,0,0,-1,1966,484,0,0
749,540,0,0,0,0,0,0,0,0,0,-1,1973,484,0,0
756,540,0,0,0,0,0,0,0,0,0,-1,1980,484,0,0
763,540,0,0,0,0,0,0,0,0,0,-1,1987,484,0,0
770,540,0,0,0,0,0,0,0,0,0,-1,1994,484,0,0
777,540,0,0,0,0,0,0,0,0,0,-1,2001,484,0,0
784,540,0,0,0,0,0,0,0,0,0,-1,2008,484,0,0
791,540,0,0,0,0,0,0,0,0,0,-1,2015,484,0,0
798,540,0,0,0,0,0,0,0,0,0,-1,2022,484,0,0
805,540,0,0,0,0,0,0,0,0,0,-1,2029,484,0,0
812,540,0,0,0,0,0,0,0,0,0,-1,2036,484,0,0
-700,533,0,0,0,0,0,0,0,0,0,-1,524,491,0,0
-693,533,0,0,0,0,0,0,0,0,0,-1,531,491,0,0
-686,533,0,0,0,0,0,0,0,0,0,-1,538,491,0,0
-679,533,0,0,0,0,0,0,0,0,0,-1,545,491,0,0
-672,533,0,0,0,0,0,0,0,0,0,-1,552,491,0,0
-665,533,0,0,0,0,0,0,0,0,0,-1,559,491,0,0
-658,533,0,0,0,0,0,0,0,0,0,-1,566,491,0,0
-651,533,0,0,0,0,0,0,0,0,0,-1,573,491,0,0
-644,533,0,0,0,0,0,0,0,0,0,-1,580,491,0,0
-637,533,0,0,0,0,0,0,0,0,0,-1,587,491,0,0
-630,533,0,0,0,0,0,0,0,0,0,-1,594,491,0,0
-623,533,0,0,0,0,0,0,0,0,0,-1,601,491,0,0
-616,533,0,0,0,0,0,0,0,0,0,-1,608,491,0,0
-609,533,0,0,0,0,0,0,0,0,0,-1,615,491,0,0
-602,533,0,0,0,0,0,0,0,0,0,-1,622,491,0,0
-595,533,0,0,0,0,0,0,0,0,0,-1,629,491,0,0
-588,533,0,0,0,0,0,0,0,0,0,-1,636,491,0,0
-581,533,0,0,0,0,0,0,0,0,0,-1,643,491,0,0
-574,533,0,0,0,0,0,0,0,0,0,-1,650,491,0,0
-567,533,0,0,0,0,0,0,0,0,0,-1,657,491,0,0
-560,533,0,0,0,0,0,0,0,0,0,-1,664,491,0,0
-553,533,0,0,0,0,0,0,0,0,0,-1,671,491,0,0
-546,533,0,0,0,0,0,0,0,0,0,-1,678,491,0,0
-539,533,0,0,0,0,0,0,0,0,0,-1,685,491,0,0
-532,533,0,0,0,0,0,0,0,0,0,-1,692,491,0,0
-525,533,0,0,0,0,0,0,0,0,0,-1,699,491,0,0
-518,533,0,0,0,0,0,0,0,0,0,-1,706,491,0,0
-511,533,0,0,0,0,0,0,0,0,0,-1,713,491,0,0
-504,533,0,0,0,0,0,0,0,0,0,-1,720,491,0,0
-497,533,0,0,0,0,0,0,0,0,0,-1,727,491,0,0
-490,533,0,0,0,0,0,0,0,0,0,-1,734,491,0,0
-483,533,0,0,0,0,0,0,0,0,0,-1,741,491,0,0
-476,533,0,0,0,0,0,0,0,0,0,-1,748,491,0,0
-469,533,0,0,0,0,0,0,0,0,0,-1,755,491,0,0
-462,533,0,0,0,0,0,0,0,0,0,-1,762,491,0,0
-455,533,0,0,0,0,0,0,0,0,0,-1,769,491,0,0
-448,533,0,0,0,0,0,0,0,0,0,-1,776,491,0,0
-441,533,0,0,0,0,0,0,0,0,0,-1,783,491,0,0
-434,533,0,0,0,0,0,0,0,0,0,-1,790,491,0,0
-427,533,-0.196228,-5.3111,0.0513576,-0.00649221,0.0485773,0.0789694,-0.034104,0.516868,0.066974,0.0492014,797,491,-0.19621,5.31109
-420,533,0.239624,-4.77179,0.0506984,-0.0119991,0.0420851,0.0718273,-0.033128,0.465287,0.0619538,0.0481158,804,491,0.239601,4.77179
-413,533,0.814026,-4.50705,0,0,0,0,0,0,0,-1,811,491,0.814038,4.50706
-406,533,1.3725,-4.13541,0.0424419,-0.01068,0.0296706,0.0557034,-0.0239415,0.420321,0.0471861,0.0455585,818,491,1.3725,4.13542
-399,533,1.72455,-3.4632,0,0,0,0,0,0,0,-1,825,491,1.72455,3.46319
-392,533,2.08478,-2.78412,0,0,0,0,0,0,0,-1,832,491,2.08479,2.78411
-385,533,0.109924,-4.41916,0,0,0,0,0,0,0,-1,839,491,0.109918,4.41915
-378,533,-0.761414,-5.15549,0,0,0,0,0,0,0,-1,846,491,-0.761387,5.15549
-371,533,0.105103,-5.56375,0,0,0,0,0,0,0,-1,853,491,0.10513,5.56377
-364,533,0.348938,-5.69827,0.00497086,0.000347288,-0.00127295,0.00529816,1.99904e-05,-0.251666,0.00352546,0.0390314,860,491,0.34892,5.69827
-357,533,0.447876,-6.00751,0.00294815,0.000710374,-0.0026951,0.00474739,-0.00108887,-0.588647,0.00358346,0.0253133,867,491,0.447901,6.00751
-350,533,0.377075,-6.17319,0.00147387,0.00141024,-0.00381079,0.00525298,-0.00236887,-0.781224,0.00450427,0.01151,874,491,0.37709,6.17319
-343,533,0.386658,-6.40182,0.00134826,0.00160995,-0.00309486,0.00457673,-0.00161852,-0.806524,0.00371026,0.0101751,881,491,0.386669,6.40183
-336,533,0.352051,-6.60968,0.00109112,0.00176715,-0.0024367,0.00388917,-0.0010309,-0.854318,0.00299613,0.0147494,888,491,0.352037,6.60969
-329,533,0.357483,-6.77734,0.000816928,0.00179762,-0.00172563,0.00310122,-0.000486668,-0.923827,0.00224733,0.0140953,895,491,0.357497,6.77734
-322,533,0.342163,-6.9592,0.000650996,0.00189156,-0.00130303,0.00271441,-0.00017186,-1.00754,0.00186953,0.0115052,902,491,0.342164,6.95921
-315,533,0.325562,-7.16309,0.000518719,0.00186968,-0.000996068,0.00239771,-9.30484e-06,-1.08335,0.00160158,0.0126762,909,491,0.325566,7.1631
-308,533,0.331909,-7.34259,0.000521319,0.0016742,-0.000743268,0.00203836,0.000157158,-1.11522,0.00130967,0.0119212,916,491,0.331887,7.34258
-301,533,0.32489,-7.49075,0.000597569,0.0014258,-0.000580673,0.0017249,0.000298472,-1.09515,0.00106448,0.0128485,923,491,0.32491,7.49074
-294,533,0.34137,-7.67233,0.000743006,0.00109764,-0.000365342,0.00132642,0.000514225,-1.01133,0.000772224,0.0121674,930,491,0.341373,7.67233
-287,533,0.348816,-7.86365,0.000871711,0.000524759,-0.000244546,0.000998063,0.000398407,-0.476902,0.000580123,0.00896363,937,491,0.348792,7.86364
-280,533,0.345093,-8.04889,0.000968787,-0.000146529,-0.000241298,0.00101875,-0.000196495,-0.204187,0.000753259,0.00849185,944,491,0.345105,8.04888
-273,533,0.356689,-8.22556,0.00110138,-0.000733534,-0.000215526,0.00112635,-0.000758509,-0.115367,0.00109511,0.0122461,951,491,0.3567,8.22554
-266,533,0.370911,-8.39285,0.00131609,-0.0012473,-0.00019854,0.00133138,-0.00126258,-0.0768414,0.0014978,0.0119362,958,491,0.370899,8.39286
-259,533,0.380371,-8.55557,0.00166433,-0.00162617,-0.000140937,0.00167035,-0.0016322,-0.0427272,0.00190677,0.011317,965,491,0.380347,8.55558
-252,533,0.377258,-8.71179,0.00218704,-0.0020749,-5.06801e-05,0.00218764,-0.0020755,-0.0118891,0.00246161,0.0127735,972,491,0.377262,8.7118
-245,533,0.435669,-8.84763,0.0029299,-0.00269209,3.83333e-05,0.00293016,-0.00269235,0.00681803,0.00324713,0.0191095,979,491,0.435686,8.84763
-238,533,0.44574,-8.94019,0.00432941,-0.00423991,-0.000221032,0.0043351,-0.00424561,-0.0257705,0.00495417,0.0211711,986,491,0.445765,8.94018
-231,533,0.47644,-9.11377,0.00542665,-0.00520797,-0.000146759,0.00542868,-0.00520999,-0.0137966,0.00614267,0.0291094,993,491,0.476417,9.11376
-224,533,0.38269,-9.34842,0.00633727,-0.00680825,0.000235427,0.00634149,-0.00681246,0.0179016,0.00759606,0.0363159,1000,491,0.382672,9.34841
-217,533,0.400696,-9.53421,0.00766785,-0.00845017,0.000891544,0.00771702,-0.00849934,0.0550895,0.00936615,0.0445581,1007,491,0.400686,9.53422
-210,533,0.346191,-9.71906,0,0,0,0,0,0,0,-1,1014,491,0.346201,9.71905
-203,533,0.687622,-9.56714,0,0,0,0,0,0,0,-1,1021,491,0.687593,9.56713
-196,533,-0.451904,-9.40134,0,0,0,0,0,0,0,-1,1028,491,-0.45185,9.40132
-189,533,-1.09204,-9.45688,0,0,0,0,0,0,0,-1,1035,491,-1.09203,9.45688
-182,533,0.805786,-7.42383,0,0,0,0,0,0,0,-1,1042,491,0.805827,7.42383
-175,533,0.937744,-7.36966,0,0,0,0,0,0,0,-1,1049,491,0.937769,7.36965
-168,533,2.64807,-2.7543,0,0,0,0,0,0,0,-1,1056,491,2.64812,2.7543
-161,533,1.91833,-1.76553,0,0,0,0,0,0,0,-1,1063,491,1.91836,1.76554
-154,533,-1.24805,-5.92294,0,0,0,0,0,0,0,-1,1070,491,-1.24806,5.92295
-147,533,-0.449951,-7.10913,0,0,0,0,0,0,0,-1,1077,491,-0.449921,7.10912
-140,533,0.481812,-8.27359,0,0,0,0,0,0,0,-1,1084,491,0.481827,8.2736
-133,533,1.23474,-8.92532,0,0,0,0,0,0,0,-1,1091,491,1.2347,8.92532
-126,533,2.89612,-2.59003,0,0,0,0,0,0,0,-1,1098,491,2.89608,2.59003
-119,533,3.00842,-12.8239,0,0,0,0,0,0,0,-1,1105,491,3.00841,12.8239
-112,533,7.05884,-10.21,0,0,0,0,0,0,0,-1,1112,491,7.0588,10.21
-105,533,3.84839,1.12769,0,0,0,0,0,0,0,-1,1119,491,3.84843,-1.12769
-98,533,-1.39392,-5.16367,0,0,0,0,0,0,0,-1,1126,491,-1.39394,5.16367
-91,533,0.367432,4.49753,0,0,0,0,0,0,0,-1,1133,491,0.367468,-4.49754
-84,533,-0.88623,3.03604,0,0,0,0,0,0,0,-1,1140,491,-0.886288,-3.03605
-77,533,0,0,0,0,0,0,0,0,0,-1,1147,491,0,0
-70,533,0,0,0,0,0,0,0,0,0,-1,1154,491,0,0
-63,533,0,0,0,0,0,0,0,0,0,-1,1161,491,0,0
-56,533,0,0,0,0,0,0,0,0,0,-1,1168,491,0,0
-49,533,0,0,0,0,0,0,0,0,0,-1,1175,491,0,0
-42,533,0,0,0,0,0,0,0,0,0,-1,1182,491,0,0
-35,533,0,0,0,0,0,0,0,0,0,-1,1189,491,0,0
-28,533,0,0,0,0,0,0,0,0,0,-1,1196,491,0,0
-21,533,0,0,0,0,0,0,0,0,0,-1,1203,491,0,0
-14,533,0,0,0,0,0,0,0,0,0,-1,1210,491,0,0
-7,533,0,0,0,0,0,0,0,0,0,-1,1217,491,0,0
0,533,0,0,0,0,0,0,0,0,0,-1,1224,491,0,0
7,533,0,0,0,0,0,0,0,0,0,-1,1231,491,0,0
14,533,0,0,0,0,0,0,0,0,0,-1,1238,491,0,0
21,533,0,0,0,0,0,0,0,0,0,-1,1245,491,0,0
28,533,0,0,0,0,0,0,0,0,0,-1,1252,491,0,0
35,533,0,0,0,0,0,0,0,0,0,-1,1259,491,0,0
42,533,0,0,0,0,0,0,0,0,0,-1,1266,491,0,0
49,533,0,0,0,0,0,0,0,0,0,-1,1273,491,0,0
56,533,0,0,0,0,0,0,0,0,0,-1,1280,491,0,0
63,533,0,0,0,0,0,0,0,0,0,-1,1287,491,0,0
70,533,0,0,0,0,0,0,0,0,0,-1,1294,491,0,0
77,533,0,0,0,0,0,0,0,0,0,-1,1301,491,0,0
84,533,0,0,0,0,0,0,0,0,0,-1,1308,491,0,0
91,533,0,0,0,0,0,0,0,0,0,-1,1315,491,0,0
98,533,0,0,0,0,0,0,0,0,0,-1,1322,491,0,0
105,533,0,0,0,0,0,0,0,0,0,-1,1329,491,0,0
112,533,0,0,0,0,0,0,0,0,0,-1,1336,491,0,0
119,533,0,0,0,0,0,0,0,0,0,-1,1343,491,0,0
126,533,0,0,0,0,0,0,0,0,0,-1,1350,491,0,0
133,533,0,0,0,0,0,0,0,0,0,-1,1357,491,0,0
140,533,0,0,0,0,0,0,0,0,0,-1,1364,491,0,0
147,533,0,0,0,0,0,0,0,0,0,-1,1371,491,0,0
154,533,0,0,0,0,0,0,0,0,0,-1,1378,491,0,0
161,533,0,0,0,0,0,0,0,0,0,-1,1385,491,0,0
168,533,0,0,0,0,0,0,0,0,0,-1,1392,491,0,0
175,533,0,0,0,0,0,0,0,0,0,-1,1399,491,0,0
182,533,0,0,0,0,0,0,0,0,0,-1,1406,491,0,0
189,533,0,0,0,0,0,0,0,0,0,-1,1413,491,0,0
196,533,0,0,0,0,0,0,0,0,0,-1,1420,491,0,0
203,533,3.7887,1.16193,0,0,0,0,0,0,0,-1,1427,491,3.78872,-1.16193
210,533,5.09558,-0.216034,0,0,0,0,0,0,0,-1,1434,491,5.09559,0.216028
217,533,6.91614,-2.46814,0,0,0,0,0,0,0,-1,1441,491,6.91618,2.46814
224,533,7.23621,-2.1857,0,0,0,0,0,0,0,-1,1448,491,7.23621,2.1857
231,533,7.23474,-1.92282,0,0,0,0,0,0,0,-1,1455,491,7.2347,1.92282
238,533,7.23535,-1.67258,0,0,0,0,0,0,0,-1,1462,491,7.23539,1.67258
245,533,6.86682,-1.2301,0,0,0,0,0,0,0,-1,1469,491,6.86686,1.23011
252,533,6.63354,-3.07825,0,0,0,0,0,0,0,-1,1476,491,6.6335,3.07824
259,533,6.16431,-2.35037,0,0,0,0,0,0,0,-1,1483,491,6.1643,2.35037
266,533,5.68884,-1.6214,0,0,0,0,0,0,0,-1,1490,491,5.68885,1.6214
273,533,5.21399,-0.864227,0,0,0,0,0,0,0,-1,1497,491,5.21403,0.864227
280,533,1.41089,-1.97946,0,0,0,0,0,0,0,-1,1504,491,1.41087,1.97946
287,533,1.6814,-2.44443,0,0,0,0,0,0,0,-1,1511,491,1.6814,2.44444
294,533,2.2384,-2.57626,0,0,0,0,0,0,0,-1,1518,491,2.23839,2.57625
301,533,3.39941,-4.0817,0,0,0,0,0,0,0,-1,1525,491,3.3994,4.08171
308,533,4.13733,-4.14752,0,0,0,0,0,0,0,-1,1532,491,4.13727,4.14752
315,533,4.80762,-5.29349,0,0,0,0,0,0,0,-1,1539,491,4.80762,5.29347
322,533,5.47803,-6.43942,0,0,0,0,0,0,0,-1,1546,491,5.47798,6.43943
329,533,3.88477,-3.86301,0,0,0,0,0,0,0,-1,1553,491,3.88475,3.86299
336,533,3.43896,-7.53741,0,0,0,0,0,0,0,-1,1560,491,3.43902,7.53742
343,533,5.87952,-6.38858,0,0,0,0,0,0,0,-1,1567,491,5.87953,6.38857
350,533,5.62915,-8.02426,0,0,0,0,0,0,0,-1,1574,491,5.6291,8.02426
357,533,5.14722,-7.87387,-0.0123842,-0.0128346,-0.00830721,-0.00429911,-0.0209196,-0.771848,0.0127572,0.0480875,1581,491,5.14721,7.87388
364,533,4.51855,-7.91284,-0.010841,-0.0115785,-0.00800761,-0.00319366,-0.0192259,-0.762391,0.0118964,0.0392556,1588,491,4.5186,7.91283
371,533,4.30066,-7.84528,-0.00943439,-0.0103839,-0.00722759,-0.00266596,-0.0171523,-0.752603,0.0106579,0.0331625,1595,491,4.30067,7.84527
378,533,4.31104,-7.63272,-0.00774035,-0.00897725,-0.00644305,-0.00188613,-0.0148315,-0.737551,0.00932275,0.0240056,1602,491,4.31105,7.63272
385,533,4.38831,-7.43863,-0.00643815,-0.00749784,-0.00589439,-0.00104983,-0.0128862,-0.740574,0.00826308,0.0203099,1609,491,4.38829,7.43864
392,533,4.37903,-7.26309,-0.00518164,-0.00604536,-0.00527374,-0.000322115,-0.0109049,-0.744545,0.00716497,0.0132635,1616,491,4.37904,7.2631
399,533,4.38367,-7.09882,-0.00401373,-0.0047552,-0.0046992,0.000329334,-0.00909826,-0.746033,0.00617821,0.0121335,1623,491,4.3837,7.09882
406,533,4.39185,-6.91977,-0.00303751,-0.0036263,-0.00409804,0.000776693,-0.0074405,-0.74954,0.00523846,0.0147822,1630,491,4.39179,6.91977
413,533,4.40881,-6.70093,-0.00195211,-0.00252639,-0.00324716,0.00102058,-0.00549908,-0.741299,0.00404935,0.0123101,1637,491,4.40876,6.70094
420,533,4.40515,-6.47128,-0.00124932,-0.00179001,-0.00267931,0.00117325,-0.00421257,-0.735117,0.00327039,0.0116157,1644,491,4.40519,6.47129
427,533,4.39172,-6.25424,-0.000765234,-0.0012876,-0.00214261,0.00113206,-0.00318489,-0.724748,0.00258462,0.0133044,1651,491,4.39173,6.25425
434,533,4.38025,-6.07907,-0.000300906,-0.000833287,-0.00164968,0.00110392,-0.00223812,-0.705408,0.00196622,0.0128302,1658,491,4.38019,6.07907
441,533,4.39319,-5.88367,0.000220318,-0.000639819,-0.00114067,0.00100931,-0.00142881,-0.605124,0.00141457,0.0151821,1665,491,4.3932,5.88367
448,533,4.401,-5.6824,0.00072111,-0.000682609,-0.000571914,0.00092462,-0.000886118,-0.341867,0.00104551,0.0173375,1672,491,4.40097,5.6824
455,533,4.38037,-5.46561,0.00128101,-0.000411389,4.72374e-06,0.00128103,-0.000411402,0.00279112,0.00101921,0.0171244,1679,491,4.38034,5.4656
462,533,4.34302,-5.20166,0.00167638,0.00123597,0.000662015,0.00215385,0.000758494,0.624841,0.00126152,0.0160241,1686,491,4.34302,5.20166
469,533,4.34595,-5.03021,0.00180648,0.00387335,0.00121471,0.00443475,0.00124508,1.13787,0.00264118,0.0101689,1693,491,4.346,5.03022
476,533,4.35889,-4.83755,0.001664,0.00664561,0.00173146,0.0071883,0.00112132,1.26707,0.0044656,0.0108957,1700,491,4.35894,4.83757
483,533,4.38708,-4.58755,0.00139452,0.0108241,0.00241839,0.0114082,0.000810457,1.33382,0.0073502,0.0178625,1707,491,4.38711,4.58756
490,533,4.45105,-4.4834,0.000677744,0.0163449,0.00321285,0.0169782,4.44837e-05,1.37619,0.011304,0.0395676,1714,491,4.45101,4.4834
497,533,4.53552,-4.41238,0,0,0,0,0,0,0,-1,1721,491,4.53557,4.4124
504,533,4.49683,-3.53638,-0.00257665,0.0332401,0.00534553,0.0340209,-0.00335744,1.42576,0.0238785,0.0439801,1728,491,4.49685,3.53638
511,533,4.62366,-3.20374,-0.00502566,0.0443313,0.00662246,0.0452044,-0.00589878,1.43971,0.0322827,0.0449575,1735,491,4.62363,3.20375
518,533,4.5957,-2.87863,-0.00830916,0.0573417,0.00815376,0.0583392,-0.00930669,1.44906,0.0423374,0.0443356,1742,491,4.59567,2.87865
525,533,4.35083,-2.62369,0,0,0,0,0,0,0,-1,1749,491,4.35077,2.62369
532,533,3.24243,0.0737,0,0,0,0,0,0,0,-1,1756,491,3.24239,-0.0737072
539,533,3.61609,1.62427,0,0,0,0,0,0,0,-1,1763,491,3.61606,-1.62426
546,533,3.59607,1.65799,0,0,0,0,0,0,0,-1,1770,491,3.59605,-1.658
553,533,0,0,0,0,0,0,0,0,0,-1,1777,491,0,0
560,533,0,0,0,0,0,0,0,0,0,-1,1784,491,0,0
567,533,0,0,0,0,0,0,0,0,0,-1,1791,491,0,0
574,533,0,0,0,0,0,0,0,0,0,-1,1798,491,0,0
581,533,0,0,0,0,0,0,0,0,0,-1,1805,491,0,0
588,533,0,0,0,0,0,0,0,0,0,-1,1812,491,0,0
595,533,0,0,0,0,0,0,0,0,0,-1,1819,491,0,0
602,533,0,0,0,0,0,0,0,0,0,-1,1826,491,0,0
609,533,0,0,0,0,0,0,0,0,0,-1,1833,491,0,0
616,533,0,0,0,0,0,0,0,0,0,-1,1840,491,0,0
623,533,0,0,0,0,0,0,0,0,0,-1,1847,491,0,0
630,533,0,0,0,0,0,0,0,0,0,-1,1854,491,0,0
637,533,0,0,0,0,0,0,0,0,0,-1,1861,491,0,0
644,533,0,0,0,0,0,0,0,0,0,-1,1868,491,0,0
651,533,0,0,0,0,0,0,0,0,0,-1,1875,491,0,0
658,533,0,0,0,0,0,0,0,0,0,-1,1882,491,0,0
665,533,0,0,0,0,0,0,0,0,0,-1,1889,491,0,0
672,533,0,0,0,0,0,0,0,0,0,-1,1896,491,0,0
679,533,0,0,0,0,0,0,0,0,0,-1,1903,491,0,0
686,533,0,0,0,0,0,0,0,0,0,-1,1910,491,0,0
693,533,0,0,0,0,0,0,0,0,0,-1,1917,491,0,0
700,533,0,0,0,0,0,0,0,0,0,-1,1924,491,0,0
707,533,0,0,0,0,0,0,0,0,0,-1,1931,491,0,0
714,533,0,0,0,0,0,0,0,0,0,-1,1938,491,0,0
721,533,0,0,0,0,0,0,0,0,0,-1,1945,491,0,0
728,533,0,0,0,0,0,0,0,0,0,-1,1952,491,0,0
735,533,0,0,0,0,0,0,0,0,0,-1,1959,491,0,0
742,533,0,0,0,0,0,0,0,0,0,-1,1966,491,0,0
749,533,0,0,0,0,0,0,0,0,0,-1,1973,491,0,0
756,533,0,0,0,0,0,0,0,0,0,-1,1980,491,0,0
763,533,0,0,0,0,0,0,0,0,0,-1,1987,491,0,0
770,533,0,0,0,0,0,0,0,0,0,-1,1994,491,0,0
777,533,0,0,0,0,0,0,0,0,0,-1,2001,491,0,0
784,533,0,0,0,0,0,0,0,0,0,-1,2008,491,0,0
791,533,0,0,0,0,0,0,0,0,0,-1,2015,491,0,0
798,533,0,0,0,0,0,0,0,0,0,-1,2022,491,0,0
805,533,0,0,0,0,0,0,0,0,0,-1,2029,491,0,0
812,533,0,0,0,0,0,0,0,0,0,-1,2036,491,0,0
-700,526,0,0,0,0,0,0,0,0,0,-1,524,498,0,0
-693,526,0,0,0,0,0,0,0,0,0,-1,531,498,0,0
-686,526,0,0,0,0,0,0,0,0,0,-1,538,498,0,0
-679,526,0,0,0,0,0,0,0,0,0,-1,545,498,0,0
-672,526,0,0,0,0,0,0,0,0,0,-1,552,498,0,0
-665,526,0,0,0,0,0,0,0,0,0,-1,559,498,0,0
-658,526,0,0,0,0,0,0,0,0,0,-1,566,498,0,0
-651,526,0,0,0,0,0,0,0,0,0,-1,573,498,0,0
-644,526,0,0,0,0,0,0,0,0,0,-1,580,498,0,0
-637,526,0,0,0,0,0,0,0,0,0,-1,587,498,0,0
-630,526,0,0,0,0,0,0,0,0,0,-1,594,498,0,0
-623,526,0,0,0,0,0,0,0,0,0,-1,601,498,0,0
-616,526,0,0,0,0,0,0,0,0,0,-1,608,498,0,0
-609,526,0,0,0,0,0,0,0,0,0,-1,615,498,0,0
-602,526,0,0,0,0,0,0,0,0,0,-1,622,498,0,0
-595,526,0,0,0,0,0,0,0,0,0,-1,629,498,0,0
-588,526,0,0,0,0,0,0,0,0,0,-1,636,498,0,0
-581,526,0,0,0,0,0,0,0,0,0,-1,643,498,0,0
-574,526,0,0,0,0,0,0,0,0,0,-1,650,498,0,0
-567,526,0,0,0,0,0,0,0,0,0,-1,657,498,0,0
-560,526,0,0,0,0,0,0,0,0,0,-1,664,498,0,0
-553,526,0,0,0,0,0,0,0,0,0,-1,671,498,0,0
-546,526,0,0,0,0,0,0,0,0,0,-1,678,498,0,0
-539,526,0,0,0,0,0,0,0,0,0,-1,685,498,0,0
-532,526,0,0,0,0,0,0,0,0,0,-1,692,498,0,0
-525,526,0,0,0,0,0,0,0,0,0,-1,699,498,0,0
-518,526,0,0,0,0,0,0,0,0,0,-1,706,498,0,0
-511,526,0,0,0,0,0,0,0,0,0,-1,713,498,0,0
-504,526,0,0,0,0,0,0,0,0,0,-1,720,498,0,0
-497,526,0,0,0,0,0,0,0,0,0,-1,727,498,0,0
-490,526,0,0,0,0,0,0,0,0,0,-1,734,498,0,0
-483,526,0,0,0,0,0,0,0,0,0,-1,741,498,0,0
-476,526,0,0,0,0,0,0,0,0,0,-1,748,498,0,0
-469,526,0,0,0,0,0,0,0,0,0,-1,755,498,0,0
-462,526,0,0,0,0,0,0,0,0,0,-1,762,498,0,0
-455,526,0,0,0,0,0,0,0,0,0,-1,769,498,0,0
-448,526,0,0,0,0,0,0,0,0,0,-1,776,498,0,0
-441,526,0,0,0,0,0,0,0,0,0,-1,783,498,0,0
-434,526,2.58533,-2.05515,0,0,0,0,0,0,0,-1,790,498,2.58533,2.05513
-427,526,-0.249756,-4.86801,0.0360041,0.00929722,0.0429443,0.0676232,-0.0223219,0.634663,0.0540808,0.049409,797,498,-0.249735,4.86801
-420,526,0.186462,-4.63467,0.0358358,0.00184023,0.036766,0.0593431,-0.0216671,0.568871,0.048428,0.0474866,804,498,0.18648,4.63466
-413,526,0.672424,-4.45074,0.0336673,-0.00122763,0.0306113,0.0514543,-0.0190146,0.526376,0.0420976,0.0489421,811,498,0.672424,4.45076
-406,526,1.09711,-3.96762,0.0302796,-0.00251366,0.0249746,0.043759,-0.0159931,0.494921,0.0357179,0.0439165,818,498,1.09709,3.96761
-399,526,1.57916,-3.33728,0,0,0,0,0,0,0,-1,825,498,1.57919,3.33729
-392,526,-0.212158,-4.29779,0,0,0,0,0,0,0,-1,832,498,-0.212188,4.29778
-385,526,-0.66748,-4.88895,0,0,0,0,0,0,0,-1,839,498,-0.667481,4.88894
-378,526,0.0678711,-5.37869,0,0,0,0,0,0,0,-1,846,498,0.0678933,5.37868
-371,526,0.110229,-5.60294,0.00702151,0.000167769,0.0014234,0.00730537,-0.000116091,0.196841,0.0049094,0.0428598,853,498,0.110258,5.60293
-364,526,0.234924,-5.84839,0.00380551,0.00012087,-0.000891718,0.00400997,-8.35885e-05,-0.225391,0.0027016,0.0223487,860,498,0.23491,5.8484
-357,526,0.163086,-5.98291,0.00229737,0.000310627,-0.00204885,0.00358096,-0.000972963,-0.559673,0.0027692,0.0148195,867,498,0.163089,5.9829
-350,526,0.182007,-6.18524,0.00123716,0.000815033,-0.00293302,0.0039667,-0.00191451,-0.74948,0.00346374,0.0112112,874,498,0.182018,6.18524
-343,526,0.189209,-6.39731,0.00119917,0.000967461,-0.00239919,0.0034853,-0.00131867,-0.761273,0.00286606,0.0146016,881,498,0.189183,6.39731
-336,526,0.165771,-6.6004,0.00103242,0.00105397,-0.001899,0.00294223,-0.000855839,-0.788236,0.00230046,0.0142682,888,498,0.165796,6.60042
-329,526,0.176758,-6.76477,0.000855849,0.00106801,-0.00132917,0.00229532,-0.000371467,-0.825218,0.00166788,0.0148317,895,498,0.17678,6.76477
-322,526,0.167053,-6.95456,0.000751679,0.00113412,-0.00101176,0.00197257,-8.67756e-05,-0.878794,0.00134491,0.00996186,902,498,0.16706,6.95454
-315,526,0.155273,-7.15286,0.000650064,0.00110807,-0.000764964,0.00167757,8.05598e-05,-0.930835,0.00109252,0.0087129,909,498,0.155272,7.15287
-308,526,0.161316,-7.33514,0.000708116,0.000966463,-0.00055917,0.00141119,0.000263393,-0.898912,0.000866442,0.00806118,916,498,0.161303,7.33513
-301,526,0.156067,-7.50348,0.000819657,0.000787945,-0.000429501,0.00123359,0.000374008,-0.766948,0.000730377,0.00973136,923,498,0.156044,7.50347
-294,526,0.157471,-7.68793,0.000981788,0.000534625,-0.000263915,0.0011041,0.000412317,-0.433973,0.000644221,0.0098266,930,498,0.157466,7.68793
-287,526,0.151489,-7.86725,0.00114187,3.60417e-05,-0.000189319,0.00117339,4.52826e-06,-0.164945,0.000780752,0.00945488,937,498,0.15146,7.86724
-280,526,0.167847,-8.02774,0.00125903,-0.000604394,-0.000214,0.00128329,-0.000628654,-0.112884,0.00112523,0.0121162,944,498,0.167872,8.02774
-273,526,0.17749,-8.20282,0.00140321,-0.00116437,-0.000196871,0.00141822,-0.00117937,-0.0760832,0.00150183,0.0104379,951,498,0.177461,8.20283
-266,526,0.188599,-8.37296,0.00163667,-0.00165913,-0.0001979,0.00164851,-0.00167097,-0.0597601,0.00191652,0.00958799,958,498,0.188579,8.37295
-259,526,0.223999,-8.5321,0.00199911,-0.0020574,-0.000183023,0.00200736,-0.00206564,-0.0449963,0.00235163,0.0158481,965,498,0.224002,8.5321
-252,526,0.243164,-8.68542,0.00253791,-0.00261681,-8.2979e-05,0.00253925,-0.00261815,-0.0160921,0.00297774,0.0322367,972,498,0.243192,8.68543
-245,526,0.302979,-8.85486,0.0033779,-0.00346077,2.29122e-06,0.0033779,-0.00346078,0.000335039,0.00394841,0.0411594,979,498,0.302984,8.85487
-238,526,0.413086,-8.84833,0.00503685,-0.00542601,-0.000383243,0.00505087,-0.00544003,-0.0365636,0.00605831,0.0400601,986,498,0.413067,8.84833
-231,526,0.40686,-9.00592,0.00634105,-0.00665528,-0.00028819,0.00634744,-0.00666166,-0.0221602,0.00751154,0.0439843,993,498,0.406882,9.00592
-224,526,0.129883,-9.31546,0,0,0,0,0,0,0,-1,1000,498,0.129913,9.31546
-217,526,0.105652,-9.49985,0,0,0,0,0,0,0,-1,1007,498,0.10566,9.49985
-210,526,0.171021,-8.39801,0,0,0,0,0,0,0,-1,1014,498,0.170997,8.398
-203,526,-0.338257,-8.9267,0,0,0,0,0,0,0,-1,1021,498,-0.338254,8.9267
-196,526,-1.02625,-9.08768,0,0,0,0,0,0,0,-1,1028,498,-1.02625,9.08768
-189,526,0.401245,-5.96826,0,0,0,0,0,0,0,-1,1035,498,0.401197,5.96826
-182,526,1.7323,-2.99405,0,0,0,0,0,0,0,-1,1042,498,1.73226,2.99404
-175,526,2.27637,-2.07983,0,0,0,0,0,0,0,-1,1049,498,2.27639,2.07984
-168,526,2.12036,-1.66049,0,0,0,0,0,0,0,-1,1056,498,2.12035,1.66048
-161,526,2.09082,-1.20572,0,0,0,0,0,0,0,-1,1063,498,2.09086,1.2057
-154,526,-1.3446,-5.37799,0,0,0,0,0,0,0,-1,1070,498,-1.34457,5.37799
-147,526,-0.472656,-6.64996,0,0,0,0,0,0,0,-1,1077,498,-0.472659,6.64997
-140,526,0.422852,-8.03339,0,0,0,0,0,0,0,-1,1084,498,0.422844,8.0334
-133,526,1.09583,-9.2215,0,0,0,0,0,0,0,-1,1091,498,1.09581,9.2215
-126,526,3.42529,-2.36053,0,0,0,0,0,0,0,-1,1098,498,3.42523,2.36052
-119,526,2.7771,-0.764099,0,0,0,0,0,0,0,-1,1105,498,2.7771,0.764107
-112,526,2.57715,-1.1893,0,0,0,0,0,0,0,-1,1112,498,2.57718,1.1893
-105,526,0,0,0,0,0,0,0,0,0,-1,1119,498,0,0
-98,526,0,0,0,0,0,0,0,0,0,-1,1126,498,0,0
-91,526,0,0,0,0,0,0,0,0,0,-1,1133,498,0,0
-84,526,0,0,0,0,0,0,0,0,0,-1,1140,498,0,0
-77,526,0,0,0,0,0,0,0,0,0,-1,1147,498,0,0
-70,526,0,0,0,0,0,0,0,0,0,-1,1154,498,0,0
-63,526,0,0,0,0,0,0,0,0,0,-1,1161,498,0,0
-56,526,0,0,0,0,0,0,0,0,0,-1,1168,498,0,0
-49,526,0,0,0,0,0,0,0,0,0,-1,1175,498,0,0
-42,526,0,0,0,0,0,0,0,0,0,-1,1182,498,0,0
-35,526,0,0,0,0,0,0,0,0,0,-1,1189,498,0,0
-28,526,0,0,0,0,0,0,0,0,0,-1,1196,498,0,0
-21,526,0,0,0,0,0,0,0,0,0,-1,1203,498,0,0
-14,526,0,0,0,0,0,0,0,0,0,-1,1210,498,0,0
-7,526,0,0,0,0,0,0,0,0,0,-1,1217,498,0,0
0,526,0,0,0,0,0,0,0,0,0,-1,1224,498,0,0
7,526,0,0,0,0,0,0,0,0,0,-1,1231,498,0,0
14,526,0,0,0,0,0,0,0,0,0,-1,1238,498,0,0
21,526,0,0,0,0,0,0,0,0,0,-1,1245,498,0,0
28,526,0,0,0,0,0,0,0,0,0,-1,1252,498,0,0
35,526,0,0,0,0,0,0,0,0,0,-1,1259,498,0,0
42,526,0,0,0,0,0,0,0,0,0,-1,1266,498,0,0
49,526,0,0,0,0,0,0,0,0,0,-1,1273,498,0,0
56,526,0,0,0,0,0,0,0,0,0,-1,1280,498,0,0
63,526,0,0,0,0,0,0,0,0,0,-1,1287,498,0,0
70,526,0,0,0,0,0,0,0,0,0,-1,1294,498,0,0
77,526,0,0,0,0,0,0,0,0,0,-1,1301,498,0,0
84,526,0,0,0,0,0,0,0,0,0,-1,1308,498,0,0
91,526,0,0,0,0,0,0,0,0,0,-1,1315,498,0,0
98,526,0,0,0,0,0,0,0,0,0,-1,1322,498,0,0
105,526,0,0,0,0,0,0,0,0,0,-1,1329,498,0,0
112,526,0,0,0,0,0,0,0,0,0,-1,1336,498,0,0
119,526,0,0,0,0,0,0,0,0,0,-1,1343,498,0,0
126,526,0,0,0,0,0,0,0,0,0,-1,1350,498,0,0
133,526,0,0,0,0,0,0,0,0,0,-1,1357,498,0,0
140,526,0,0,0,0,0,0,0,0,0,-1,1364,498,0,0
147,526,0,0,0,0,0,0,0,0,0,-1,1371,498,0,0
154,526,0,0,0,0,0,0,0,0,0,-1,1378,498,0,0
161,526,0,0,0,0,0,0,0,0,0,-1,1385,498,0,0
168,526,0,0,0,0,0,0,0,0,0,-1,1392,498,0,0
175,526,0,0,0,0,0,0,0,0,0,-1,1399,498,0,0
182,526,0,0,0,0,0,0,0,0,0,-1,1406,498,0,0
189,526,0,0,0,0,0,0,0,0,0,-1,1413,498,0,0
196,526,0,0,0,0,0,0,0,0,0,-1,1420,498,0,0
203,526,0,0,0,0,0,0,0,0,0,-1,1427,498,0,0
210,526,0,0,0,0,0,0,0,0,0,-1,1434,498,0,0
217,526,0,0,0,0,0,0,0,0,0,-1,1441,498,0,0
224,526,0,0,0,0,0,0,0,0,0,-1,1448,498,0,0
231,526,7.93237,-1.30618,0,0,0,0,0,0,0,-1,1455,498,7.93238,1.30618
238,526,7.97717,-1.08197,0,0,0,0,0,0,0,-1,1462,498,7.97723,1.08196
245,526,7.2793,-0.792938,0,0,0,0,0,0,0,-1,1469,498,7.27931,0.792926
252,526,6.73523,-2.23608,0,0,0,0,0,0,0,-1,1476,498,6.73525,2.23608
259,526,6.22949,-1.84967,0,0,0,0,0,0,0,-1,1483,498,6.22953,1.84968
266,526,5.72375,-1.46329,0,0,0,0,0,0,0,-1,1490,498,5.72381,1.46328
273,526,4.33984,0.49173,0,0,0,0,0,0,0,-1,1497,498,4.33979,-0.491727
280,526,1.4585,-1.59897,0,0,0,0,0,0,0,-1,1504,498,1.45846,1.59895
287,526,1.46411,-2.40134,0,0,0,0,0,0,0,-1,1511,498,1.46406,2.40133
294,526,5.57471,-4.59085,0,0,0,0,0,0,0,-1,1518,498,5.57466,4.59084
301,526,4.42786,-3.99677,0,0,0,0,0,0,0,-1,1525,498,4.42788,3.99676
308,526,5.79529,-4.19366,0,0,0,0,0,0,0,-1,1532,498,5.79528,4.19368
315,526,5.09851,-5.20068,0,0,0,0,0,0,0,-1,1539,498,5.09851,5.20068
322,526,5.50708,-4.72348,0,0,0,0,0,0,0,-1,1546,498,5.50713,4.72347
329,526,3.88672,-4.345,0,0,0,0,0,0,0,-1,1553,498,3.88674,4.34501
336,526,4.97876,-2.23828,0,0,0,0,0,0,0,-1,1560,498,4.97877,2.23828
343,526,3.31665,-2.69696,0,0,0,0,0,0,0,-1,1567,498,3.31667,2.69696
350,526,6.06287,-6.12015,0,0,0,0,0,0,0,-1,1574,498,6.06286,6.12014
357,526,5.79736,-7.7854,0,0,0,0,0,0,0,-1,1581,498,5.79734,7.78539
364,526,4.87219,-8.0769,0,0,0,0,0,0,0,-1,1588,498,4.87218,8.07692
371,526,4.55933,-8.20462,0,0,0,0,0,0,0,-1,1595,498,4.55936,8.20462
378,526,4.39404,-7.88733,0,0,0,0,0,0,0,-1,1602,498,4.39409,7.88734
385,526,4.52014,-7.53058,0,0,0,0,0,0,0,-1,1609,498,4.52012,7.53057
392,526,4.61633,-7.29083,-0.00687967,-0.0083029,-0.00715911,-0.000396896,-0.0147857,-0.735861,0.00972751,0.0278899,1616,498,4.61633,7.29084
399,526,4.54578,-7.09903,-0.00537551,-0.00642541,-0.00645483,0.000575683,-0.0123766,-0.744824,0.0084495,0.0161908,1623,498,4.54577,7.09904
406,526,4.60205,-6.89609,-0.00415392,-0.00481507,-0.00571852,0.00124356,-0.0102126,-0.756526,0.00725849,0.0116741,1630,498,4.60206,6.8961
413,526,4.60425,-6.68106,-0.00282388,-0.0033092,-0.00464727,0.00158706,-0.00772014,-0.759314,0.00574927,0.012499,1637,498,4.60428,6.68107
420,526,4.5824,-6.47702,-0.00200424,-0.00224984,-0.00387238,0.00174729,-0.00600137,-0.769548,0.00469305,0.0136929,1644,498,4.58237,6.47703
427,526,4.58191,-6.27396,-0.00149698,-0.0015018,-0.00315239,0.001653,-0.00465178,-0.785017,0.00377483,0.014521,1651,498,4.5819,6.27395
434,526,4.58728,-6.05511,-0.000989824,-0.000802283,-0.00251545,0.00162115,-0.00341325,-0.804028,0.00296736,0.0129512,1658,498,4.58726,6.05511
441,526,4.59204,-5.87164,-0.000448949,-0.000420578,-0.00185877,0.00142406,-0.00229358,-0.789214,0.00216586,0.0115905,1665,498,4.59202,5.87165
448,526,4.58789,-5.6937,5.64586e-05,-0.000382,-0.0011284,0.000986733,-0.00131227,-0.689452,0.00133176,0.0110333,1672,498,4.58783,5.6937
455,526,4.57983,-5.49631,0.000600812,-0.00010493,-0.000431297,0.000805198,-0.000309316,-0.442539,0.000664356,0.0141038,1679,498,4.57984,5.4963
462,526,4.58997,-5.24197,0.000973666,0.00118333,0.000287928,0.00138492,0.000772081,0.959987,0.000801343,0.0109576,1686,498,4.59,5.24198
469,526,4.59119,-5.03998,0.00116203,0.00317577,0.00087693,0.00350412,0.000833692,1.21253,0.00211371,0.00789171,1693,498,4.59116,5.03999
476,526,4.57874,-4.82974,0.00107197,0.00528265,0.0013167,0.00566048,0.000694138,1.29135,0.00356487,0.00936162,1700,498,4.57876,4.82976
483,526,4.5968,-4.57031,0.000847465,0.00849866,0.00187379,0.0089329,0.000413218,1.34307,0.00582242,0.0107299,1707,498,4.5968,4.57032
490,526,4.66736,-4.32501,0.000227672,0.0126029,0.00247626,0.01308,-0.00024943,1.38046,0.00880431,0.018246,1714,498,4.66734,4.32502
497,526,4.61475,-4.20517,-0.000960294,0.0180872,0.00320051,0.0186106,-0.00148369,1.4087,0.0129301,0.0233604,1721,498,4.6148,4.20518
504,526,4.54614,-3.93234,-0.00264904,0.0251285,0.00404382,0.0257052,-0.00322576,1.42913,0.018307,0.0272829,1728,498,4.54616,3.93235
511,526,4.62817,-3.72708,-0.00489752,0.0332927,0.00488434,0.0339074,-0.00551231,1.44559,0.0246487,0.0363197,1735,498,4.62821,3.7271
518,526,4.72339,-3.51535,-0.00789422,0.0428756,0.00590808,0.0435541,-0.00857268,1.45646,0.0322754,0.0456092,1742,498,4.72343,3.51535
525,526,4.78198,-3.29315,0,0,0,0,0,0,0,-1,1749,498,4.78193,3.29317
532,526,3.54285,-2.81274,0,0,0,0,0,0,0,-1,1756,498,3.54284,2.81273
539,526,3.29407,0.932312,0,0,0,0,0,0,0,-1,1763,498,3.2941,-0.93232
546,526,3.36731,1.07721,0,0,0,0,0,0,0,-1,1770,498,3.36735,-1.07719
553,526,3.40796,1.37137,0,0,0,0,0,0,0,-1,1777,498,3.40792,-1.37138
560,526,0,0,0,0,0,0,0,0,0,-1,1784,498,0,0
567,526,0,0,0,0,0,0,0,0,0,-1,1791,498,0,0
574,526,0,0,0,0,0,0,0,0,0,-1,1798,498,0,0
581,526,0,0,0,0,0,0,0,0,0,-1,1805,498,0,0
588,526,0,0,0,0,0,0,0,0,0,-1,1812,498,0,0
595,526,0,0,0,0,0,0,0,0,0,-1,1819,498,0,0
602,526,0,0,0,0,0,0,0,0,0,-1,1826,498,0,0
609,526,0,0,0,0,0,0,0,0,0,-1,1833,498,0,0
616,526,0,0,0,0,0,0,0,0,0,-1,1840,498,0,0
623,526,0,0,0,0,0,0,0,0,0,-1,1847,498,0,0
630,526,0,0,0,0,0,0,0,0,0,-1,1854,498,0,0
637,526,0,0,0,0,0,0,0,0,0,-1,1861,498,0,0
644,526,0,0,0,0,0,0,0,0,0,-1,1868,498,0,0
651,526,0,0,0,0,0,0,0,0,0,-1,1875,498,0,0
658,526,0,0,0,0,0,0,0,0,0,-1,1882,498,0,0
665,526,0,0,0,0,0,0,0,0,0,-1,1889,498,0,0
672,526,0,0,0,0,0,0,0,0,0,-1,1896,498,0,0
679,526,0,0,0,0,0,0,0,0,0,-1,1903,498,0,0
686,526,0,0,0,0,0,0,0,0,0,-1,1910,498,0,0
693,526,0,0,0,0,0,0,0,0,0,-1,1917,498,0,0
700,526,0,0,0,0,0,0,0,0,0,-1,1924,498,0,0
707,526,0,0,0,0,0,0,0,0,0,-1,1931,498,0,0
714,526,0,0,0,0,0,0,0,0,0,-1,1938,498,0,0
721,526,0,0,0,0,0,0,0,0,0,-1,1945,498,0,0
728,526,0,0,0,0,0,0,0,0,0,-1,1952,498,0,0
735,526,0,0,0,0,0,0,0,0,0,-1,1959,498,0,0
742,526,0,0,0,0,0,0,0,0,0,-1,1966,498,0,0
749,526,0,0,0,0,0,0,0,0,0,-1,1973,498,0,0
756,526,0,0,0,0,0,0,0,0,0,-1,1980,498,0,0
763,526,0,0,0,0,0,0,0,0,0,-1,1987,498,0,0
770,526,0,0,0,0,0,0,0,0,0,-1,1994,498,0,0
777,526,0,0,0,0,0,0,0,0,0,-1,2001,498,0,0
784,526,0,0,0,0,0,0,0,0,0,-1,2008,498,0,0
791,526,0,0,0,0,0,0,0,0,0,-1,2015,498,0,0
798,526,0,0,0,0,0,0,0,0,0,-1,2022,498,0,0
805,526,0,0,0,0,0,0,0,0,0,-1,2029,498,0,0
812,526,0,0,0,0,0,0,0,0,0,-1,2036,498,0,0
-700,519,0,0,0,0,0,0,0,0,0,-1,524,505,0,0
-693,519,0,0,0,0,0,0,0,0,0,-1,531,505,0,0
-686,519,0,0,0,0,0,0,0,0,0,-1,538,505,0,0
-679,519,0,0,0,0,0,0,0,0,0,-1,545,505,0,0
-672,519,0,0,0,0,0,0,0,0,0,-1,552,505,0,0
-665,519,0,0,0,0,0,0,0,0,0,-1,559,505,0,0
-658,519,0,0,0,0,0,0,0,0,0,-1,566,505,0,0
-651,519,0,0,0,0,0,0,0,0,0,-1,573,505,0,0
-644,519,0,0,0,0,0,0,0,0,0,-1,580,505,0,0
-637,519,0,0,0,0,0,0,0,0,0,-1,587,505,0,0
-630,519,0,0,0,0,0,0,0,0,0,-1,594,505,0,0
-623,519,0,0,0,0,0,0,0,0,0,-1,601,505,0,0
-616,519,0,0,0,0,0,0,0,0,0,-1,608,505,0,0
-609,519,0,0,0,0,0,0,0,0,0,-1,615,505,0,0
-602,519,0,0,0,0,0,0,0,0,0,-1,622,505,0,0
-595,519,0,0,0,0,0,0,0,0,0,-1,629,505,0,0
-588,519,0,0,0,0,0,0,0,0,0,-1,636,505,0,0
-581,519,0,0,0,0,0,0,0,0,0,-1,643,505,0,0
-574,519,0,0,0,0,0,0,0,0,0,-1,650,505,0,0
-567,519,0,0,0,0,0,0,0,0,0,-1,657,505,0,0
-560,519,0,0,0,0,0,0,0,0,0,-1,664,505,0,0
-553,519,0,0,0,0,0,0,0,0,0,-1,671,505,0,0
-546,519,0,0,0,0,0,0,0,0,0,-1,678,505,0,0
-539,519,0,0,0,0,0,0,0,0,0,-1,685,505,0,0
-532,519,0,0,0,0,0,0,0,0,0,-1,692,505,0,0
-525,519,0,0,0,0,0,0,0,0,0,-1,699,505,0,0
-518,519,0,0,0,0,0,0,0,0,0,-1,706,505,0,0
-511,519,0,0,0,0,0,0,0,0,0,-1,713,505,0,0
-504,519,0,0,0,0,0,0,0,0,0,-1,720,505,0,0
-497,519,0,0,0,0,0,0,0,0,0,-1,727,505,0,0
-490,519,0,0,0,0,0,0,0,0,0,-1,734,505,0,0
-483,519,0,0,0,0,0,0,0,0,0,-1,741,505,0,0
-476,519,0,0,0,0,0,0,0,0,0,-1,748,505,0,0
-469,519,0,0,0,0,0,0,0,0,0,-1,755,505,0,0
-462,519,0,0,0,0,0,0,0,0,0,-1,762,505,0,0
-455,519,0,0,0,0,0,0,0,0,0,-1,769,505,0,0
-448,519,0,0,0,0,0,0,0,0,0,-1,776,505,0,0
-441,519,1.64478,-2.70544,0,0,0,0,0,0,0,-1,783,505,1.64479,2.70544
-434,519,1.67749,-2.85846,0,0,0,0,0,0,0,-1,790,505,1.67747,2.85846
-427,519,1.40833,-3.09689,0,0,0,0,0,0,0,-1,797,505,1.4083,3.0969
-420,519,0.446899,-4.65399,0,0,0,0,0,0,0,-1,804,505,0.446903,4.654
-413,519,0.598145,-4.44662,0,0,0,0,0,0,0,-1,811,505,0.598153,4.44663
-406,519,0.556396,-4.60098,0,0,0,0,0,0,0,-1,818,505,0.556416,4.60097
-399,519,0.15564,-4.8725,0,0,0,0,0,0,0,-1,825,505,0.155619,4.87251
-392,519,-0.440857,-4.77127,0,0,0,0,0,0,0,-1,832,505,-0.440852,4.77127
-385,519,-0.423828,-5.01697,0.0116525,-0.00108581,0.00596114,0.014007,-0.00344026,0.376159,0.0106712,0.0442226,839,505,-0.423811,5.01695
-378,519,-0.237671,-5.37033,0.00835658,-0.000492931,0.00326257,0.00942935,-0.0015657,0.317676,0.00686789,0.0319184,846,505,-0.237697,5.37033
-371,519,0.0132446,-5.58627,0.00527824,0.000236051,0.00107169,0.00549657,1.77219e-05,0.200973,0.00365849,0.0195131,853,505,0.0132687,5.58628
-364,519,-0.00952148,-5.77133,0.00292827,6.74955e-06,-0.000733377,0.00310203,-0.000167012,-0.232644,0.00212588,0.0121488,860,505,-0.00953286,5.77133
-357,519,0.0065918,-5.97717,0.00185536,0.000123907,-0.00165942,0.0028613,-0.000882036,-0.544968,0.00225968,0.00965195,867,505,0.00656803,5.97717
-350,519,-0.000610352,-6.17743,0.00115342,0.000511846,-0.00232789,0.00318253,-0.00151726,-0.716929,0.00276962,0.0116138,874,505,-0.000630854,6.17744
-343,519,-0.0131836,-6.3866,0.00118659,0.000679099,-0.00192739,0.00287686,-0.00101117,-0.719948,0.00232931,0.0133923,881,505,-0.0131877,6.3866
-336,519,-0.034729,-6.58533,0.00111266,0.00076527,-0.00155956,0.00250816,-0.000630231,-0.729939,0.00191704,0.0124288,888,505,-0.0347093,6.58532
-329,519,-0.0235596,-6.76227,0.00104602,0.000814522,-0.00112871,0.00206491,-0.000204363,-0.734302,0.00144953,0.0114533,895,505,-0.0235735,6.76226
-322,519,-0.0133667,-6.95413,0.00101571,0.000888686,-0.00091492,0.00186932,3.50784e-05,-0.750744,0.00123469,0.00979153,902,505,-0.0133406,6.95412
-315,519,-0.0107422,-7.16321,0.000951791,0.000881399,-0.000730963,0.0016484,0.000184785,-0.761342,0.00104281,0.00849882,909,505,-0.0107691,7.16323
-308,519,-0.0127563,-7.35071,0.00106478,0.000810184,-0.000575615,0.00152701,0.00034796,-0.676573,0.000924118,0.00764584,916,505,-0.0127359,7.3507
-301,519,-0.0501709,-7.52301,0.00120029,0.000689294,-0.000476938,0.00148586,0.000403729,-0.539497,0.000887163,0.0117106,923,505,-0.0501926,7.523
-294,519,-0.0321045,-7.66357,0.00135964,0.000483842,-0.000358157,0.00148745,0.000356027,-0.342781,0.000896832,0.0141569,930,505,-0.0321128,7.66356
-287,519,-0.0327759,-7.87451,0.00151288,2.17221e-05,-0.000315673,0.00157695,-4.23516e-05,-0.200255,0.0010657,0.0102254,937,505,-0.0327877,7.87452
-280,519,-0.0174561,-8.04895,0.00161469,-0.000661016,-0.000350601,0.00166748,-0.000713806,-0.149447,0.00141111,0.0139724,944,505,-0.0174294,8.04897
-273,519,0.0318604,-8.24933,0.00172276,-0.00129216,-0.000314515,0.00175522,-0.00132462,-0.102844,0.00178393,0.0203143,951,505,0.0318781,8.24936
-266,519,-0.0141602,-8.4353,0.00191768,-0.00189038,-0.000287574,0.00193927,-0.00191197,-0.0749507,0.00222354,0.0278173,958,505,-0.0141481,8.43528
-259,519,0.0712891,-8.51575,0.00223916,-0.00242699,-0.000294892,0.00225772,-0.00244556,-0.0628647,0.00271616,0.0464417,965,505,0.0712942,8.51575
-252,519,0.108093,-8.77252,0,0,0,0,0,0,0,-1,972,505,0.108101,8.77254
-245,519,0.123779,-8.89355,0,0,0,0,0,0,0,-1,979,505,0.123776,8.89357
-238,519,0.392029,-8.73187,0,0,0,0,0,0,0,-1,986,505,0.392058,8.73189
-231,519,0.382141,-8.82965,0,0,0,0,0,0,0,-1,993,505,0.382121,8.82964
-224,519,-0.0494995,-7.97394,0,0,0,0,0,0,0,-1,1000,505,-0.0495123,7.97392
-217,519,-2.97125,-4.84393,0,0,0,0,0,0,0,-1,1007,505,-2.97128,4.84393
-210,519,-2.14398,-4.74774,0,0,0,0,0,0,0,-1,1014,505,-2.14397,4.74775
-203,519,-0.513611,-5.39017,0,0,0,0,0,0,0,-1,1021,505,-0.513585,5.39017
-196,519,-0.374023,-5.41635,0,0,0,0,0,0,0,-1,1028,505,-0.374047,5.41635
-189,519,-0.234497,-5.44254,0,0,0,0,0,0,0,-1,1035,505,-0.234508,5.44253
-182,519,2.76697,-1.19659,0,0,0,0,0,0,0,-1,1042,505,2.76696,1.19661
-175,519,2.31323,-0.960938,0,0,0,0,0,0,0,-1,1049,505,2.31319,0.960941
-168,519,2.01074,-0.721405,0,0,0,0,0,0,0,-1,1056,505,2.01072,0.721407
-161,519,2.32056,-0.522339,0,0,0,0,0,0,0,-1,1063,505,2.32057,0.522328
-154,519,2.55566,0.116669,0,0,0,0,0,0,0,-1,1070,505,2.55563,-0.116661
-147,519,-0.55127,-6.14001,0,0,0,0,0,0,0,-1,1077,505,-0.551252,6.14001
-140,519,0.240601,-7.53503,0,0,0,0,0,0,0,-1,1084,505,0.240653,7.53501
-133,519,2.70911,-4.4516,0,0,0,0,0,0,0,-1,1091,505,2.70915,4.45161
-126,519,0,0,0,0,0,0,0,0,0,-1,1098,505,0,0
-119,519,0,0,0,0,0,0,0,0,0,-1,1105,505,0,0
-112,519,0,0,0,0,0,0,0,0,0,-1,1112,505,0,0
-105,519,0,0,0,0,0,0,0,0,0,-1,1119,505,0,0
-98,519,0,0,0,0,0,0,0,0,0,-1,1126,505,0,0
-91,519,0,0,0,0,0,0,0,0,0,-1,1133,505,0,0
-84,519,0,0,0,0,0,0,0,0,0,-1,1140,505,0,0
-77,519,0,0,0,0,0,0,0,0,0,-1,1147,505,0,0
-70,519,0,0,0,0,0,0,0,0,0,-1,1154,505,0,0
-63,519,0,0,0,0,0,0,0,0,0,-1,1161,505,0,0
-56,519,0,0,0,0,0,0,0,0,0,-1,1168,505,0,0
-49,519,0,0,0,0,0,0,0,0,0,-1,1175,505,0,0
-42,519,0,0,0,0,0,0,0,0,0,-1,1182,505,0,0
-35,519,0,0,0,0,0,0,0,0,0,-1,1189,505,0,0
-28,519,0,0,0,0,0,0,0,0,0,-1,1196,505,0,0
-21,519,0,0,0,0,0,0,0,0,0,-1,1203,505,0,0
-14,519,0,0,0,0,0,0,0,0,0,-1,1210,505,0,0
-7,519,0,0,0,0,0,0,0,0,0,-1,1217,505,0,0
0,519,0,0,0,0,0,0,0,0,0,-1,1224,505,0,0
7,519,0,0,0,0,0,0,0,0,0,-1,1231,505,0,0
14,519,0,0,0,0,0,0,0,0,0,-1,1238,505,0,0
21,519,0,0,0,0,0,0,0,0,0,-1,1245,505,0,0
28,519,0,0,0,0,0,0,0,0,0,-1,1252,505,0,0
35,519,0,0,0,0,0,0,0,0,0,-1,1259,505,0,0
42,519,0,0,0,0,0,0,0,0,0,-1,1266,505,0,0
49,519,0,0,0,0,0,0,0,0,0,-1,1273,505,0,0
56,519,0,0,0,0,0,0,0,0,0,-1,1280,505,0,0
63,519,0,0,0,0,0,0,0,0,0,-1,1287,505,0,0
70,519,0,0,0,0,0,0,0,0,0,-1,1294,505,0,0
77,519,0,0,0,0,0,0,0,0,0,-1,1301,505,0,0
84,519,0,0,0,0,0,0,0,0,0,-1,1308,505,0,0
91,519,0,0,0,0,0,0,0,0,0,-1,1315,505,0,0
98,519,0,0,0,0,0,0,0,0,0,-1,1322,505,0,0
105,519,0,0,0,0,0,0,0,0,0,-1,1329,505,0,0
112,519,0,0,0,0,0,0,0,0,0,-1,1336,505,0,0
119,519,0,0,0,0,0,0,0,0,0,-1,1343,505,0,0
126,519,0,0,0,0,0,0,0,0,0,-1,1350,505,0,0
133,519,0,0,0,0,0,0,0,0,0,-1,1357,505,0,0
140,519,0,0,0,0,0,0,0,0,0,-1,1364,505,0,0
147,519,0,0,0,0,0,0,0,0,0,-1,1371,505,0,0
154,519,0,0,0,0,0,0,0,0,0,-1,1378,505,0,0
161,519,0,0,0,0,0,0,0,0,0,-1,1385,505,0,0
168,519,0,0,0,0,0,0,0,0,0,-1,1392,505,0,0
175,519,0,0,0,0,0,0,0,0,0,-1,1399,505,0,0
182,519,0,0,0,0,0,0,0,0,0,-1,1406,505,0,0
189,519,0,0,0,0,0,0,0,0,0,-1,1413,505,0,0
196,519,0,0,0,0,0,0,0,0,0,-1,1420,505,0,0
203,519,0,0,0,0,0,0,0,0,0,-1,1427,505,0,0
210,519,0,0,0,0,0,0,0,0,0,-1,1434,505,0,0
217,519,0,0,0,0,0,0,0,0,0,-1,1441,505,0,0
224,519,0,0,0,0,0,0,0,0,0,-1,1448,505,0,0
231,519,0,0,0,0,0,0,0,0,0,-1,1455,505,0,0
238,519,0,0,0,0,0,0,0,0,0,-1,1462,505,0,0
245,519,0,0,0,0,0,0,0,0,0,-1,1469,505,0,0
252,519,5.26208,0.0938416,0,0,0,0,0,0,0,-1,1476,505,5.26207,-0.0938493
259,519,6.14246,-1.36441,0,0,0,0,0,0,0,-1,1483,505,6.14241,1.36441
266,519,5.31909,-0.400787,0,0,0,0,0,0,0,-1,1490,505,5.31912,0.400773
273,519,4.02393,0.325531,0,0,0,0,0,0,0,-1,1497,505,4.0239,-0.325522
280,519,4.68848,0.53006,0,0,0,0,0,0,0,-1,1504,505,4.68842,-0.530073
287,519,7.9519,-3.80801,0,0,0,0,0,0,0,-1,1511,505,7.95193,3.808
294,519,6.92273,-3.38889,0,0,0,0,0,0,0,-1,1518,505,6.92268,3.38888
301,519,5.35669,-2.92661,0,0,0,0,0,0,0,-1,1525,505,5.35675,2.9266
308,519,7.37549,-5.64529,0,0,0,0,0,0,0,-1,1532,505,7.3755,5.64529
315,519,6.30029,-4.53754,0,0,0,0,0,0,0,-1,1539,505,6.30024,4.53753
322,519,5.84302,-5.45117,0,0,0,0,0,0,0,-1,1546,505,5.84303,5.45116
329,519,4.92407,0.62384,0,0,0,0,0,0,0,-1,1553,505,4.92403,-0.623832
336,519,3.10095,-0.329285,0,0,0,0,0,0,0,-1,1560,505,3.1009,0.329283
343,519,2.49146,-2.31119,0,0,0,0,0,0,0,-1,1567,505,2.49145,2.31119
350,519,3.47729,-2.22516,0,0,0,0,0,0,0,-1,1574,505,3.47726,2.22515
357,519,4.51917,-4.51691,0,0,0,0,0,0,0,-1,1581,505,4.51914,4.51691
364,519,3.54626,-7.20673,0,0,0,0,0,0,0,-1,1588,505,3.54622,7.20675
371,519,5.34705,-7.63123,0,0,0,0,0,0,0,-1,1595,505,5.34699,7.63123
378,519,5.20129,-7.42505,-0.0137304,-0.0172257,-0.0112742,-0.00406914,-0.0268869,-0.708504,0.016734,0.0462657,1602,505,5.20129,7.42505
385,519,5.10669,-7.19244,-0.0111962,-0.0142196,-0.0105553,-0.0020449,-0.0233709,-0.714273,0.0149457,0.0468087,1609,505,5.10665,7.19244
392,519,4.96606,-7.05676,-0.00890558,-0.011248,-0.00966843,-0.000337704,-0.0198159,-0.725122,0.0130995,0.0431436,1616,505,4.96607,7.05679
399,519,4.77393,-6.99936,-0.00697026,-0.00852726,-0.0087664,0.00105214,-0.0165497,-0.741112,0.0114,0.0322518,1623,505,4.77398,6.99937
406,519,4.77637,-6.89511,-0.00543617,-0.00625267,-0.00780765,0.0019739,-0.0136627,-0.759278,0.00983272,0.019483,1630,505,4.77639,6.8951
413,519,4.81238,-6.69272,-0.00383219,-0.00422439,-0.00642926,0.00240396,-0.0104605,-0.770152,0.00789792,0.0132209,1637,505,4.81237,6.69272
420,519,4.78845,-6.47693,-0.00287262,-0.00276218,-0.00534941,0.00253229,-0.00816709,-0.790559,0.00645653,0.0157339,1644,505,4.78851,6.47694
427,519,4.79895,-6.29196,-0.00229116,-0.00172516,-0.00434485,0.0023459,-0.00636222,-0.817919,0.00520283,0.0142626,1651,505,4.7989,6.29195
434,519,4.80518,-6.08234,-0.00170446,-0.00074955,-0.00349264,0.00229812,-0.00475213,-0.853329,0.00415185,0.012845,1658,505,4.80519,6.08235
441,519,4.79578,-5.87042,-0.00111829,-0.000164607,-0.00263812,0.00203942,-0.00332232,-0.874808,0.003125,0.0127958,1665,505,4.79583,5.87043
448,519,4.78662,-5.67648,-0.000580993,-4.31591e-05,-0.00171353,0.00142243,-0.00204658,-0.863232,0.00201361,0.00945902,1672,505,4.78663,5.6765
455,519,4.78833,-5.4816,-2.68822e-05,0.000221116,-0.000882136,0.000987925,-0.000793692,-0.855224,0.00103065,0.0102596,1679,505,4.78837,5.48159
462,519,4.80847,-5.26132,0.000336259,0.00113355,-9.04023e-05,0.00114367,0.000326137,-1.4593,0.000680312,0.00979536,1686,505,4.80842,5.26132
469,519,4.83179,-5.04343,0.00060563,0.00249958,0.000541375,0.0026434,0.000461804,1.31113,0.00163029,0.0102872,1693,505,4.83179,5.04344
476,519,4.82312,-4.81921,0.000589218,0.00403296,0.000907383,0.00425742,0.000364764,1.3283,0.00272484,0.0126006,1700,505,4.82306,4.81921
483,519,4.80542,-4.58606,0.00040438,0.00643984,0.00133957,0.00672379,0.000120422,1.36191,0.00444293,0.0137698,1707,505,4.80545,4.58607
490,519,4.80615,-4.35049,-0.000131815,0.00940553,0.00176995,0.0097234,-0.000449691,1.3931,0.00663725,0.0113238,1714,505,4.80616,4.3505
497,519,4.80237,-4.16504,-0.00119889,0.0133851,0.0022825,0.0137339,-0.00154777,1.41912,0.00971308,0.0130773,1721,505,4.80242,4.16503
504,519,4.78394,-3.94009,-0.00272479,0.0186063,0.00289857,0.0189932,-0.00311165,1.43812,0.0138166,0.0131077,1728,505,4.78394,3.94009
511,519,4.81409,-3.70193,-0.00474247,0.0244691,0.00344976,0.024871,-0.00514434,1.45483,0.018535,0.0181234,1735,505,4.81414,3.70195
518,519,4.84839,-3.63748,-0.00737773,0.0312619,0.0041243,0.0316972,-0.00781305,1.46564,0.0241607,0.0405284,1742,505,4.84835,3.63747
525,519,4.96924,-3.55743,0,0,0,0,0,0,0,-1,1749,505,4.96926,3.55743
532,519,3.5155,-2.86511,0,0,0,0,0,0,0,-1,1756,505,3.51554,2.8651
539,519,3.30005,0.0229797,0,0,0,0,0,0,0,-1,1763,505,3.30008,-0.0229869
546,519,4.62024,-2.89774,0,0,0,0,0,0,0,-1,1770,505,4.62023,2.89775
553,519,4.14136,0.0667419,0,0,0,0,0,0,0,-1,1777,505,4.14141,-0.0667503
560,519,3.77856,0.279724,0,0,0,0,0,0,0,-1,1784,505,3.77861,-0.279731
567,519,0,0,0,0,0,0,0,0,0,-1,1791,505,0,0
574,519,0,0,0,0,0,0,0,0,0,-1,1798,505,0,0
581,519,0,0,0,0,0,0,0,0,0,-1,1805,505,0,0
588,519,0,0,0,0,0,0,0,0,0,-1,1812,505,0,0
595,519,0,0,0,0,0,0,0,0,0,-1,1819,505,0,0
602,519,0,0,0,0,0,0,0,0,0,-1,1826,505,0,0
609,519,0,0,0,0,0,0,0,0,0,-1,1833,505,0,0
616,519,0,0,0,0,0,0,0,0,0,-1,1840,505,0,0
623,519,0,0,0,0,0,0,0,0,0,-1,1847,505,0,0
630,519,0,0,0,0,0,0,0,0,0,-1,1854,505,0,0
637,519,0,0,0,0,0,0,0,0,0,-1,1861,505,0,0
644,519,0,0,0,0,0,0,0,0,0,-1,1868,505,0,0
651,519,0,0,0,0,0,0,0,0,0,-1,1875,505,0,0
658,519,0,0,0,0,0,0,0,0,0,-1,1882,505,0,0
665,519,0,0,0,0,0,0,0,0,0,-1,1889,505,0,0
672,519,0,0,0,0,0,0,0,0,0,-1,1896,505,0,0
679,519,0,0,0,0,0,0,0,0,0,-1,1903,505,0,0
686,519,0,0,0,0,0,0,0,0,0,-1,1910,505,0,0
693,519,0,0,0,0,0,0,0,0,0,-1,1917,505,0,0
700,519,0,0,0,0,0,0,0,0,0,-1,1924,505,0,0
707,519,0,0,0,0,0,0,0,0,0,-1,1931,505,0,0
714,519,0,0,0,0,0,0,0,0,0,-1,1938,505,0,0
721,519,0,0,0,0,0,0,0,0,0,-1,1945,505,0,0
728,519,0,0,0,0,0,0,0,0,0,-1,1952,505,0,0
735,519,0,0,0,0,0,0,0,0,0,-1,1959,505,0,0
742,519,0,0,0,0,0,0,0,0,0,-1,1966,505,0,0
749,519,0,0,0,0,0,0,0,0,0,-1,1973,505,0,0
756,519,0,0,0,0,0,0,0,0,0,-1,1980,505,0,0
763,519,0,0,0,0,0,0,0,0,0,-1,1987,505,0,0
770,519,0,0,0,0,0,0,0,0,0,-1,1994,505,0,0
777,519,0,0,0,0,0,0,0,0,0,-1,2001,505,0,0
784,519,0,0,0,0,0,0,0,0,0,-1,2008,505,0,0
791,519,0,0,0,0,0,0,0,0,0,-1,2015,505,0,0
798,519,0,0,0,0,0,0,0,0,0,-1,2022,505,0,0
805,519,0,0,0,0,0,0,0,0,0,-1,2029,505,0,0
812,519,0,0,0,0,0,0,0,0,0,-1,2036,505,0,0
-700,512,0,0,0,0,0,0,0,0,0,-1,524,512,0,0
-693,512,0,0,0,0,0,0,0,0,0,-1,531,512,0,0
-686,512,0,0,0,0,0,0,0,0,0,-1,538,512,0,0
-679,512,0,0,0,0,0,0,0,0,0,-1,545,512,0,0
-672,512,0,0,0,0,0,0,0,0,0,-1,552,512,0,0
-665,512,0,0,0,0,0,0,0,0,0,-1,559,512,0,0
-658,512,0,0,0,0,0,0,0,0,0,-1,566,512,0,0
-651,512,0,0,0,0,0,0,0,0,0,-1,573,512,0,0
-644,512,0,0,0,0,0,0,0,0,0,-1,580,512,0,0
-637,512,0,0,0,0,0,0,0,0,0,-1,587,512,0,0
-630,512,0,0,0,0,0,0,0,0,0,-1,594,512,0,0
-623,512,0,0,0,0,0,0,0,0,0,-1,601,512,0,0
-616,512,0,0,0,0,0,0,0,0,0,-1,608,512,0,0
-609,512,0,0,0,0,0,0,0,0,0,-1,615,512,0,0
-602,512,0,0,0,0,0,0,0,0,0,-1,622,512,0,0
-595,512,0,0,0,0,0,0,0,0,0,-1,629,512,0,0
-588,512,0,0,0,0,0,0,0,0,0,-1,636,512,0,0
-581,512,0,0,0,0,0,0,0,0,0,-1,643,512,0,0
-574,512,0,0,0,0,0,0,0,0,0,-1,650,512,0,0
-567,512,0,0,0,0,0,0,0,0,0,-1,657,512,0,0
-560,512,0,0,0,0,0,0,0,0,0,-1,664,512,0,0
-553,512,0,0,0,0,0,0,0,0,0,-1,671,512,0,0
-546,512,0,0,0,0,0,0,0,0,0,-1,678,512,0,0
-539,512,0,0,0,0,0,0,0,0,0,-1,685,512,0,0
-532,512,0,0,0,0,0,0,0,0,0,-1,692,512,0,0
-525,512,0,0,0,0,0,0,0,0,0,-1,699,512,0,0
-518,512,0,0,0,0,0,0,0,0,0,-1,706,512,0,0
-511,512,0,0,0,0,0,0,0,0,0,-1,713,512,0,0
-504,512,0,0,0,0,0,0,0,0,0,-1,720,512,0,0
-497,512,0,0,0,0,0,0,0,0,0,-1,727,512,0,0
-490,512,0,0,0,0,0,0,0,0,0,-1,734,512,0,0
-483,512,0,0,0,0,0,0,0,0,0,-1,741,512,0,0
-476,512,0,0,0,0,0,0,0,0,0,-1,748,512,0,0
-469,512,0,0,0,0,0,0,0,0,0,-1,755,512,0,0
-462,512,0,0,0,0,0,0,0,0,0,-1,762,512,0,0
-455,512,0,0,0,0,0,0,0,0,0,-1,769,512,0,0
-448,512,1.15979,-3.66168,0.00804046,0.0658345,0.0464742,0.0916631,-0.0177881,1.06354,0.0678202,0.045299,776,512,1.15981,3.6617
-441,512,0.877319,-3.48383,0.0147114,0.048932,0.0398155,0.0751581,-0.0115147,0.988338,0.0543517,0.0479103,783,512,0.877305,3.48386
-434,512,0.756165,-3.5448,0,0,0,0,0,0,0,-1,790,512,0.756189,3.54483
-427,512,0.58905,-3.57849,0,0,0,0,0,0,0,-1,797,512,0.589073,3.57848
-420,512,0.6521,-4.12549,0,0,0,0,0,0,0,-1,804,512,0.652078,4.12548
-413,512,0.474121,-4.35645,0.0174176,0.00976719,0.0200851,0.0340386,-0.00685375,0.6913,0.0252885,0.0447268,811,512,0.47412,4.35647
-406,512,0.263489,-4.59998,0.0154203,0.00604617,0.015805,0.0272186,-0.00575215,0.641252,0.0203361,0.0453509,818,512,0.263492,4.59998
-399,512,-0.0220337,-4.9021,0.0127932,0.00378528,0.011603,0.0207357,-0.0041573,0.600265,0.0153978,0.0456309,825,512,-0.0220287,4.90207
-392,512,-0.134338,-4.99512,0.0106246,0.00193446,0.00749927,0.0149466,-0.00238758,0.522832,0.0108482,0.0353982,832,512,-0.134356,4.99511
-385,512,-0.167297,-5.15808,0.00840233,-8.05575e-06,0.00438144,0.0102701,-0.00187581,0.402961,0.00755007,0.0188905,839,512,-0.167284,5.15808
-378,512,-0.182373,-5.36578,0.00606507,5.24804e-05,0.00235634,0.00687848,-0.00076093,0.332393,0.0048592,0.0143114,846,512,-0.182349,5.36576
-371,512,-0.185669,-5.57489,0.00385996,0.000210336,0.000707982,0.00399248,7.78085e-05,0.185049,0.0026361,0.0104517,853,512,-0.185664,5.57491
-364,512,-0.165161,-5.79028,0.00222071,-0.000133683,-0.000687017,0.00240652,-0.000319492,-0.264138,0.00172076,0.00879791,860,512,-0.165178,5.79029
-357,512,-0.177246,-5.97266,0.00155213,-4.9359e-05,-0.00144415,0.00240267,-0.000899904,-0.532262,0.00197145,0.0101888,867,512,-0.177264,5.97263
-350,512,-0.185486,-6.18024,0.00118035,0.000261333,-0.00195534,0.00272944,-0.00128776,-0.669992,0.0023686,0.0106543,874,512,-0.18549,6.18025
-343,512,-0.203796,-6.39227,0.00129577,0.000471377,-0.00167603,0.00260955,-0.000842401,-0.664823,0.00207821,0.0105558,881,512,-0.203804,6.39228
-336,512,-0.212402,-6.5907,0.00133952,0.000598114,-0.00143403,0.00244999,-0.000512351,-0.658914,0.0018282,0.0100835,888,512,-0.212388,6.5907
-329,512,-0.200928,-6.75873,0.0014147,0.000735619,-0.00114877,0.00227306,-0.000122742,-0.641706,0.0015579,0.0109754,895,512,-0.200937,6.75873
-322,512,-0.196716,-6.9483,0.00149181,0.000868932,-0.00103818,0.00226426,9.64812e-05,-0.639676,0.0014784,0.0100034,902,512,-0.196713,6.94828
-315,512,-0.190125,-7.15143,0.0014901,0.000920837,-0.000909034,0.00215802,0.000252914,-0.633677,0.00136222,0.0103818,909,512,-0.190124,7.15144
-308,512,-0.194702,-7.35425,0.00166334,0.000954239,-0.000786547,0.00217155,0.000446025,-0.573652,0.00132431,0.0109275,916,512,-0.194687,7.35427
-301,512,-0.218567,-7.56085,0.00180493,0.000895195,-0.000684183,0.00217165,0.000528472,-0.492033,0.0013077,0.014797,923,512,-0.218556,7.56086
-294,512,-0.201416,-7.69104,0.00191421,0.000730148,-0.000570796,0.00214456,0.000499799,-0.38357,0.00129565,0.0144755,930,512,-0.201408,7.69104
-287,512,-0.258728,-7.82123,0.00197676,0.00029598,-0.000511694,0.00212028,0.000152456,-0.273461,0.00136554,0.0192336,937,512,-0.258705,7.82121
-280,512,-0.146362,-8.06061,0.00199228,-0.000520866,-0.00049763,0.00208723,-0.000615815,-0.188536,0.00163586,0.0259125,944,512,-0.146345,8.06064
-273,512,-0.0189209,-8.13654,0.00193618,-0.00140311,-0.000365123,0.00197563,-0.00144257,-0.107647,0.00198148,0.0447737,951,512,-0.0189362,8.13655
-266,512,-0.203247,-8.31366,0.00195326,-0.00227082,-0.000264944,0.00196981,-0.00228737,-0.0623963,0.00246017,0.0464995,958,512,-0.203228,8.31369
-259,512,-0.154968,-8.66748,0,0,0,0,0,0,0,-1,965,512,-0.154951,8.6675
-252,512,1.45941,-3.43475,0,0,0,0,0,0,0,-1,972,512,1.45938,3.43475
-245,512,4.12927,-11.272,0,0,0,0,0,0,0,-1,979,512,4.1293,11.272
-238,512,0.625916,-8.52448,0,0,0,0,0,0,0,-1,986,512,0.62593,8.52449
-231,512,-2.54437,-10.169,0,0,0,0,0,0,0,-1,993,512,-2.54439,10.169
-224,512,-4.84601,-7.52783,0,0,0,0,0,0,0,-1,1000,512,-4.84602,7.52786
-217,512,-7.37274,-3.89563,0,0,0,0,0,0,0,-1,1007,512,-7.37274,3.89561
-210,512,-3.76642,-1.94702,0,0,0,0,0,0,0,-1,1014,512,-3.76641,1.94702
-203,512,-2.48328,-5.19061,0,0,0,0,0,0,0,-1,1021,512,-2.48328,5.19059
-196,512,-1.14929,-4.63202,0,0,0,0,0,0,0,-1,1028,512,-1.14934,4.632
-189,512,0.197998,4.55505,0,0,0,0,0,0,0,-1,1035,512,0.197996,-4.55506
-182,512,2.73938,0.0778503,0,0,0,0,0,0,0,-1,1042,512,2.73944,-0.077852
-175,512,2.29565,0.209808,0,0,0,0,0,0,0,-1,1049,512,2.29565,-0.209813
-168,512,2.09399,-0.302856,0,0,0,0,0,0,0,-1,1056,512,2.09403,0.302826
-161,512,2.76636,0.0921021,0,0,0,0,0,0,0,-1,1063,512,2.76633,-0.0921104
-154,512,3.41382,0.466187,0,0,0,0,0,0,0,-1,1070,512,3.41382,-0.466178
-147,512,0,0,0,0,0,0,0,0,0,-1,1077,512,0,0
-140,512,0,0,0,0,0,0,0,0,0,-1,1084,512,0,0
-133,512,0,0,0,0,0,0,0,0,0,-1,1091,512,0,0
-126,512,0,0,0,0,0,0,0,0,0,-1,1098,512,0,0
-119,512,0,0,0,0,0,0,0,0,0,-1,1105,512,0,0
-112,512,0,0,0,0,0,0,0,0,0,-1,1112,512,0,0
-105,512,0,0,0,0,0,0,0,0,0,-1,1119,512,0,0
-98,512,0,0,0,0,0,0,0,0,0,-1,1126,512,0,0
-91,512,0,0,0,0,0,0,0,0,0,-1,1133,512,0,0
-84,512,0,0,0,0,0,0,0,0,0,-1,1140,512,0,0
-77,512,0,0,0,0,0,0,0,0,0,-1,1147,512,0,0
-70,512,0,0,0,0,0,0,0,0,0,-1,1154,512,0,0
-63,512,0,0,0,0,0,0,0,0,0,-1,1161,512,0,0
-56,512,0,0,0,0,0,0,0,0,0,-1,1168,512,0,0
-49,512,0,0,0,0,0,0,0,0,0,-1,1175,512,0,0
-42,512,0,0,0,0,0,0,0,0,0,-1,1182,512,0,0
-35,512,0,0,0,0,0,0,0,0,0,-1,1189,512,0,0
-28,512,0,0,0,0,0,0,0,0,0,-1,1196,512,0,0
-21,512,0,0,0,0,0,0,0,0,0,-1,1203,512,0,0
-14,512,0,0,0,0,0,0,0,0,0,-1,1210,512,0,0
-7,512,0,0,0,0,0,0,0,0,0,-1,1217,512,0,0
0,512,0,0,0,0,0,0,0,0,0,-1,1224,512,0,0
7,512,0,0,0,0,0,0,0,0,0,-1,1231,512,0,0
14,512,0,0,0,0,0,0,0,0,0,-1,1238,512,0,0
21,512,0,0,0,0,0,0,0,0,0,-1,1245,512,0,0
28,512,0,0,0,0,0,0,0,0,0,-1,1252,512,0,0
35,512,0,0,0,0,0,0,0,0,0,-1,1259,512,0,0
42,512,0,0,0,0,0,0,0,0,0,-1,1266,512,0,0
49,512,0,0,0,0,0,0,0,0,0,-1,1273,512,0,0
56,512,0,0,0,0,0,0,0,0,0,-1,1280,512,0,0
63,512,0,0,0,0,0,0,0,0,0,-1,1287,512,0,0
70,512,0,0,0,0,0,0,0,0,0,-1,1294,512,0,0
77,512,0,0,0,0,0,0,0,0,0,-1,1301,512,0,0
84,512,0,0,0,0,0,0,0,0,0,-1,1308,512,0,0
91,512,0,0,0,0,0,0,0,0,0,-1,1315,512,0,0
98,512,0,0,0,0,0,0,0,0,0,-1,1322,512,0,0
105,512,0,0,0,0,0,0,0,0,0,-1,1329,512,0,0
112,512,0,0,0,0,0,0,0,0,0,-1,1336,512,0,0
119,512,0,0,0,0,0,0,0,0,0,-1,1343,512,0,0
126,512,0,0,0,0,0,0,0,0,0,-1,1350,512,0,0
133,512,0,0,0,0,0,0,0,0,0,-1,1357,512,0,0
140,512,0,0,0,0,0,0,0,0,0,-1,1364,512,0,0
147,512,0,0,0,0,0,0,0,0,0,-1,1371,512,0,0
154,512,0,0,0,0,0,0,0,0,0,-1,1378,512,0,0
161,512,0,0,0,0,0,0,0,0,0,-1,1385,512,0,0
168,512,0,0,0,0,0,0,0,0,0,-1,1392,512,0,0
175,512,0,0,0,0,0,0,0,0,0,-1,1399,512,0,0
182,512,0,0,0,0,0,0,0,0,0,-1,1406,512,0,0
189,512,0,0,0,0,0,0,0,0,0,-1,1413,512,0,0
196,512,0,0,0,0,0,0,0,0,0,-1,1420,512,0,0
203,512,0,0,0,0,0,0,0,0,0,-1,1427,512,0,0
210,512,0,0,0,0,0,0,0,0,0,-1,1434,512,0,0
217,512,0,0,0,0,0,0,0,0,0,-1,1441,512,0,0
224,512,0,0,0,0,0,0,0,0,0,-1,1448,512,0,0
231,512,0,0,0,0,0,0,0,0,0,-1,1455,512,0,0
238,512,0,0,0,0,0,0,0,0,0,-1,1462,512,0,0
245,512,0,0,0,0,0,0,0,0,0,-1,1469,512,0,0
252,512,0,0,0,0,0,0,0,0,0,-1,1476,512,0,0
259,512,0,0,0,0,0,0,0,0,0,-1,1483,512,0,0
266,512,0,0,0,0,0,0,0,0,0,-1,1490,512,0,0
273,512,4.00745,0.618622,0,0,0,0,0,0,0,-1,1497,512,4.00747,-0.618611
280,512,4.49609,0.649841,0,0,0,0,0,0,0,-1,1504,512,4.49612,-0.649834
287,512,4.77234,0.458069,0,0,0,0,0,0,0,-1,1511,512,4.77233,-0.458083
294,512,8.54956,-2.36273,0,0,0,0,0,0,0,-1,1518,512,8.54952,2.36274
301,512,6.302,-1.69092,0,0,0,0,0,0,0,-1,1525,512,6.30196,1.69093
308,512,8.2439,-6.22754,0,0,0,0,0,0,0,-1,1532,512,8.24394,6.22757
315,512,7.53687,-6.04211,0,0,0,0,0,0,0,-1,1539,512,7.53691,6.04211
322,512,6.82983,-5.85663,0,0,0,0,0,0,0,-1,1546,512,6.82988,5.85666
329,512,4.38147,-0.329651,0,0,0,0,0,0,0,-1,1553,512,4.38144,0.329662
336,512,4.41467,-0.741455,0,0,0,0,0,0,0,-1,1560,512,4.41467,0.741442
343,512,4.44727,-1.21667,0,0,0,0,0,0,0,-1,1567,512,4.44732,1.21666
350,512,4.55469,-1.65082,0,0,0,0,0,0,0,-1,1574,512,4.5547,1.65083
357,512,5.79993,-2.67456,0,0,0,0,0,0,0,-1,1581,512,5.79991,2.67454
364,512,5.18298,-6.80133,0,0,0,0,0,0,0,-1,1588,512,5.18296,6.80132
371,512,5.28467,-7.69269,0,0,0,0,0,0,0,-1,1595,512,5.28464,7.69269
378,512,5.36792,-7.14319,-0.0174873,-0.0232927,-0.0145001,-0.00560224,-0.0351778,-0.686612,0.0218254,0.0488836,1602,512,5.36787,7.14319
385,512,5.20789,-6.86749,-0.0141677,-0.0190578,-0.0137872,-0.00261041,-0.0306151,-0.697639,0.0195979,0.0498365,1609,512,5.20788,6.86751
392,512,5.14307,-6.79736,0,0,0,0,0,0,0,-1,1616,512,5.14311,6.79734
399,512,5.19519,-6.74548,-0.00874233,-0.0111774,-0.0116541,0.00175761,-0.0216773,-0.73335,0.0150716,0.0487017,1623,512,5.19523,6.74546
406,512,5.07361,-6.78278,-0.00686522,-0.00804437,-0.010409,0.00297093,-0.0178805,-0.757108,0.0130241,0.0361977,1630,512,5.07357,6.78275
413,512,4.97351,-6.74078,-0.00497643,-0.00536419,-0.00865049,0.00348235,-0.013823,-0.774194,0.0105691,0.0280339,1637,512,4.97356,6.74077
420,512,5.04187,-6.52142,-0.00384817,-0.00343445,-0.00719867,0.00356034,-0.0108429,-0.799762,0.00866282,0.0175794,1644,512,5.04187,6.52142
427,512,5.03589,-6.30035,-0.00316506,-0.00206556,-0.00584632,0.0032568,-0.00848742,-0.832277,0.0070011,0.0140946,1651,512,5.03595,6.30037
434,512,5.00928,-6.08453,-0.00244802,-0.000749342,-0.00469474,0.00317227,-0.00636963,-0.874886,0.00561117,0.0108552,1658,512,5.00923,6.08453
441,512,4.99634,-5.88074,-0.00178215,7.50604e-05,-0.00357952,0.00284446,-0.00455156,-0.912312,0.00430784,0.0132236,1665,512,4.99631,5.88075
448,512,4.97839,-5.66827,-0.00118817,0.000306215,-0.00241199,0.0020841,-0.00296605,-0.935602,0.00293049,0.00918511,1672,512,4.97843,5.66829
455,512,4.97766,-5.44458,-0.000600515,0.000568186,-0.00140738,0.0015077,-0.00154003,-0.982171,0.00175965,0.00830929,1679,512,4.97764,5.44456
462,512,5.00818,-5.23029,-0.000230092,0.00114827,-0.000502974,0.00131229,-0.000394113,-1.25557,0.00103164,0.00895111,1686,512,5.00819,5.23028
469,512,5.01855,-5.01404,0.00013818,0.00198127,0.00020629,0.00200408,0.000115373,1.46069,0.0012993,0.0105834,1693,512,5.01858,5.01404
476,512,5.01306,-4.80139,0.000219968,0.00306629,0.000539076,0.00316497,0.000121291,1.38975,0.00207073,0.0131974,1700,512,5.01308,4.80142
483,512,5.00085,-4.5697,8.97643e-05,0.00483273,0.000892653,0.00499517,-7.26751e-05,1.39079,0.0033546,0.0121744,1707,512,5.00089,4.56972
490,512,5.00793,-4.33948,-0.000368393,0.00691931,0.0012122,0.00711566,-0.000564734,1.41022,0.00494278,0.00953359,1714,512,5.00797,4.33948
497,512,5.01123,-4.12714,-0.00134081,0.00974923,0.00156496,0.00996584,-0.00155742,1.43326,0.00721925,0.011046,1721,512,5.01123,4.12711
504,512,4.99402,-3.88348,-0.00270689,0.0135687,0.00200237,0.0138115,-0.00294962,1.45016,0.0103322,0.0121845,1728,512,4.99397,3.88349
511,512,4.98291,-3.6438,-0.00451854,0.0177222,0.00233632,0.017965,-0.00476131,1.46726,0.0138395,0.0130722,1735,512,4.98289,3.64377
518,512,5.04126,-3.46198,-0.00686444,0.02249,0.00273334,0.0227423,-0.00711679,1.47874,0.0180088,0.0206045,1742,512,5.04122,3.46196
525,512,4.64282,-3.2569,-0.00981187,0.0278793,0.0031359,0.0281384,-0.010071,1.48835,0.0228675,0.0492466,1749,512,4.64276,3.25692
532,512,4.52124,-2.30914,0,0,0,0,0,0,0,-1,1756,512,4.52124,2.30916
539,512,4.39929,-3.11737,0,0,0,0,0,0,0,-1,1763,512,4.3993,3.11735
546,512,2.77551,-0.66449,0,0,0,0,0,0,0,-1,1770,512,2.77548,0.664503
553,512,3.927,-0.448853,0,0,0,0,0,0,0,-1,1777,512,3.92704,0.448843
560,512,3.55762,-0.201233,0,0,0,0,0,0,0,-1,1784,512,3.55768,0.201259
567,512,3.09045,0.191193,0,0,0,0,0,0,0,-1,1791,512,3.09045,-0.191203
574,512,0,0,0,0,0,0,0,0,0,-1,1798,512,0,0
581,512,0,0,0,0,0,0,0,0,0,-1,1805,512,0,0
588,512,0,0,0,0,0,0,0,0,0,-1,1812,512,0,0
595,512,0,0,0,0,0,0,0,0,0,-1,1819,512,0,0
602,512,0,0,0,0,0,0,0,0,0,-1,1826,512,0,0
609,512,0,0,0,0,0,0,0,0,0,-1,1833,512,0,0
616,512,0,0,0,0,0,0,0,0,0,-1,1840,512,0,0
623,512,0,0,0,0,0,0,0,0,0,-1,1847,512,0,0
630,512,0,0,0,0,0,0,0,0,0,-1,1854,512,0,0
637,512,0,0,0,0,0,0,0,0,0,-1,1861,512,0,0
644,512,0,0,0,0,0,0,0,0,0,-1,1868,512,0,0
651,512,0,0,0,0,0,0,0,0,0,-1,1875,512,0,0
658,512,0,0,0,0,0,0,0,0,0,-1,1882,512,0,0
665,512,0,0,0,0,0,0,0,0,0,-1,1889,512,0,0
672,512,0,0,0,0,0,0,0,0,0,-1,1896,512,0,0
679,512,0,0,0,0,0,0,0,0,0,-1,1903,512,0,0
686,512,0,0,0,0,0,0,0,0,0,-1,1910,512,0,0
693,512,0,0,0,0,0,0,0,0,0,-1,1917,512,0,0
700,512,0,0,0,0,0,0,0,0,0,-1,1924,512,0,0
707,512,0,0,0,0,0,0,0,0,0,-1,1931,512,0,0
714,512,0,0,0,0,0,0,0,0,0,-1,1938,512,0,0
721,512,0,0,0,0,0,0,0,0,0,-1,1945,512,0,0
728,512,0,0,0,0,0,0,0,0,0,-1,1952,512,0,0
735,512,0,0,0,0,0,0,0,0,0,-1,1959,512,0,0
742,512,0,0,0,0,0,0,0,0,0,-1,1966,512,0,0
749,512,0,0,0,0,0,0,0,0,0,-1,1973,512,0,0
756,512,0,0,0,0,0,0,0,0,0,-1,1980,512,0,0
763,512,0,0,0,0,0,0,0,0,0,-1,1987,512,0,0
770,512,0,0,0,0,0,0,0,0,0,-1,1994,512,0,0
777,512,0,0,0,0,0,0,0,0,0,-1,2001,512,0,0
784,512,0,0,0,0,0,0,0,0,0,-1,2008,512,0,0
791,512,0,0,0,0,0,0,0,0,0,-1,2015,512,0,0
798,512,0,0,0,0,0,0,0,0,0,-1,2022,512,0,0
805,512,0,0,0,0,0,0,0,0,0,-1,2029,512,0,0
812,512,0,0,0,0,0,0,0,0,0,-1,2036,512,0,0
-700,505,0,0,0,0,0,0,0,0,0,-1,524,519,0,0
-693,505,0,0,0,0,0,0,0,0,0,-1,531,519,0,0
-686,505,0,0,0,0,0,0,0,0,0,-1,538,519,0,0
-679,505,0,0,0,0,0,0,0,0,0,-1,545,519,0,0
-672,505,0,0,0,0,0,0,0,0,0,-1,552,519,0,0
-665,505,0,0,0,0,0,0,0,0,0,-1,559,519,0,0
-658,505,0,0,0,0,0,0,0,0,0,-1,566,519,0,0
-651,505,0,0,0,0,0,0,0,0,0,-1,573,519,0,0
-644,505,0,0,0,0,0,0,0,0,0,-1,580,519,0,0
-637,505,0,0,0,0,0,0,0,0,0,-1,587,519,0,0
-630,505,0,0,0,0,0,0,0,0,0,-1,594,519,0,0
-623,505,0,0,0,0,0,0,0,0,0,-1,601,519,0,0
-616,505,0,0,0,0,0,0,0,0,0,-1,608,519,0,0
-609,505,0,0,0,0,0,0,0,0,0,-1,615,519,0,0
-602,505,0,0,0,0,0,0,0,0,0,-1,622,519,0,0
-595,505,0,0,0,0,0,0,0,0,0,-1,629,519,0,0
-588,505,0,0,0,0,0,0,0,0,0,-1,636,519,0,0
-581,505,0,0,0,0,0,0,0,0,0,-1,643,519,0,0
-574,505,0,0,0,0,0,0,0,0,0,-1,650,519,0,0
-567,505,0,0,0,0,0,0,0,0,0,-1,657,519,0,0
-560,505,0,0,0,0,0,0,0,0,0,-1,664,519,0,0
-553,505,0,0,0,0,0,0,0,0,0,-1,671,519,0,0
-546,505,0,0,0,0,0,0,0,0,0,-1,678,519,0,0
-539,505,0,0,0,0,0,0,0,0,0,-1,685,519,0,0
-532,505,0,0,0,0,0,0,0,0,0,-1,692,519,0,0
-525,505,0,0,0,0,0,0,0,0,0,-1,699,519,0,0
-518,505,0,0,0,0,0,0,0,0,0,-1,706,519,0,0
-511,505,0,0,0,0,0,0,0,0,0,-1,713,519,0,0
-504,505,0,0,0,0,0,0,0,0,0,-1,720,519,0,0
-497,505,0,0,0,0,0,0,0,0,0,-1,727,519,0,0
-490,505,0,0,0,0,0,0,0,0,0,-1,734,519,0,0
-483,505,0,0,0,0,0,0,0,0,0,-1,741,519,0,0
-476,505,0,0,0,0,0,0,0,0,0,-1,748,519,0,0
-469,505,0,0,0,0,0,0,0,0,0,-1,755,519,0,0
-462,505,0,0,0,0,0,0,0,0,0,-1,762,519,0,0
-455,505,0.12384,-4.06439,0,0,0,0,0,0,0,-1,769,519,0.123847,4.06437
-448,505,0.147827,-4.17816,0.00648784,0.0619888,0.0376634,0.081021,-0.0125444,1.1029,0.0586444,0.0470098,776,519,0.147853,4.17819
-441,505,0.145325,-4.2962,0.0115202,0.0472584,0.0318935,0.0659475,-0.00716892,1.04075,0.0465391,0.0495982,783,519,0.145344,4.2962
-434,505,-0.144592,-3.50854,0,0,0,0,0,0,0,-1,790,519,-0.144573,3.50856
-427,505,-0.217468,-3.84192,0.0142715,0.0246875,0.023125,0.0431837,-0.0042247,0.896156,0.0302957,0.0458911,797,519,-0.217475,3.84191
-420,505,-0.227905,-4.21545,0.0138077,0.0170245,0.0190996,0.0345833,-0.00375108,0.827404,0.0244022,0.0438004,804,519,-0.227891,4.21543
-413,505,-0.140564,-4.5293,0.0126248,0.0114946,0.0152979,0.0273681,-0.00324869,0.766936,0.0194191,0.0450047,811,519,-0.140551,4.5293
-406,505,-0.151184,-4.61249,0.010984,0.00752905,0.0118545,0.0212362,-0.00272318,0.713046,0.015147,0.0447078,818,519,-0.151177,4.61248
-399,505,-0.246948,-4.82739,0.00909931,0.00485578,0.00864847,0.0158825,-0.00192739,0.665107,0.0112858,0.0406356,825,519,-0.246965,4.82737
-392,505,-0.334717,-4.97302,0.00757411,0.00269575,0.00553062,0.0111795,-0.000909686,0.577713,0.00777402,0.0210138,832,519,-0.334709,4.97301
-385,505,-0.363647,-5.16858,0.00602533,0.000652925,0.00318153,0.007503,-0.000824746,0.434807,0.00529835,0.00961717,839,519,-0.363625,5.1686
-378,505,-0.379211,-5.35944,0.00443671,0.000389266,0.00171503,0.00506567,-0.000239704,0.35151,0.00345979,0.0107279,846,519,-0.379186,5.35942
-371,505,-0.361755,-5.591,0.00293296,0.000183102,0.000506899,0.00302342,9.26385e-05,0.176606,0.00198545,0.0126088,853,519,-0.361783,5.59101
-364,505,-0.364685,-5.81335,0.00186602,-0.000228659,-0.000570727,0.00201143,-0.000374068,-0.249471,0.00148147,0.0139106,860,519,-0.364708,5.81334
-357,505,-0.368896,-5.98425,0.00153517,-0.000186952,-0.00120501,0.00215515,-0.000806931,-0.47518,0.00176822,0.0116785,867,519,-0.368903,5.98424
-350,505,-0.397034,-6.16815,0.00144048,3.63353e-05,-0.00161625,0.00250056,-0.00102374,-0.580501,0.00209345,0.0108308,874,519,-0.397041,6.16816
-343,505,-0.404419,-6.37836,0.00163791,0.000249202,-0.001459,0.00255936,-0.000672246,-0.563303,0.00196895,0.00844863,881,519,-0.404444,6.37838
-336,505,-0.399048,-6.56616,0.00180425,0.000390045,-0.00135838,0.00262854,-0.000434252,-0.545423,0.00191361,0.0094542,888,519,-0.39903,6.56619
-329,505,-0.390625,-6.73914,0.00203326,0.000607734,-0.00125414,0.00276303,-0.000122031,-0.526995,0.00188401,0.0126373,895,519,-0.390653,6.73913
-322,505,-0.392883,-6.94012,0.0022376,0.000799216,-0.00128617,0.002992,4.48173e-05,-0.530469,0.0019799,0.0144717,902,519,-0.392854,6.94014
-315,505,-0.388977,-7.13898,0.00231634,0.000915614,-0.00124708,0.00304627,0.000185688,-0.529545,0.00197187,0.0131631,909,519,-0.388996,7.13896
-308,505,-0.388062,-7.33801,0.0025521,0.00107111,-0.0011814,0.0032059,0.000417317,-0.505453,0.00201263,0.0125488,916,519,-0.388063,7.33802
-301,505,-0.367188,-7.5769,0.00267119,0.00109388,-0.00107824,0.00321842,0.000546655,-0.469643,0.0019886,0.0169592,923,519,-0.367207,7.57691
-294,505,-0.366516,-7.70776,0,0,0,0,0,0,0,-1,930,519,-0.366513,7.70776
-287,505,-0.45282,-7.80255,0,0,0,0,0,0,0,-1,937,519,-0.452845,7.80257
-280,505,-0.368408,-8.1748,0,0,0,0,0,0,0,-1,944,519,-0.368438,8.17482
-273,505,-0.101257,-8.26056,0,0,0,0,0,0,0,-1,951,519,-0.101281,8.26056
-266,505,-0.211304,-8.30908,0,0,0,0,0,0,0,-1,958,519,-0.211323,8.30907
-259,505,0.10321,-6.69824,0,0,0,0,0,0,0,-1,965,519,0.103235,6.69826
-252,505,6.82312,-15.6972,0,0,0,0,0,0,0,-1,972,519,6.82314,15.6972
-245,505,4.26727,-12.9861,0,0,0,0,0,0,0,-1,979,519,4.2673,12.9861
-238,505,1.67432,-11.2307,0,0,0,0,0,0,0,-1,986,519,1.67429,11.2307
-231,505,-0.958435,-8.3075,0,0,0,0,0,0,0,-1,993,519,-0.958421,8.30751
-224,505,-3.69653,-5.12732,0,0,0,0,0,0,0,-1,1000,519,-3.69653,5.12733
-217,505,-6.34302,-1.65533,0,0,0,0,0,0,0,-1,1007,519,-6.34299,1.65535
-210,505,-3.06128,-0.396301,0,0,0,0,0,0,0,-1,1014,519,-3.06129,0.396294
-203,505,-4.26465,2.03607,0,0,0,0,0,0,0,-1,1021,519,-4.26462,-2.03606
-196,505,-5.47595,4.27295,0,0,0,0,0,0,0,-1,1028,519,-5.47597,-4.27292
-189,505,1.51526,5.56207,0,0,0,0,0,0,0,-1,1035,519,1.51523,-5.56209
-182,505,2.97815,7.5097,0,0,0,0,0,0,0,-1,1042,519,2.97812,-7.5097
-175,505,-2.38416,-2.17548,0,0,0,0,0,0,0,-1,1049,519,-2.38411,2.1755
-168,505,0,0,0,0,0,0,0,0,0,-1,1056,519,0,0
-161,505,0,0,0,0,0,0,0,0,0,-1,1063,519,0,0
-154,505,0,0,0,0,0,0,0,0,0,-1,1070,519,0,0
-147,505,0,0,0,0,0,0,0,0,0,-1,1077,519,0,0
-140,505,0,0,0,0,0,0,0,0,0,-1,1084,519,0,0
-133,505,0,0,0,0,0,0,0,0,0,-1,1091,519,0,0
-126,505,0,0,0,0,0,0,0,0,0,-1,1098,519,0,0
-119,505,0,0,0,0,0,0,0,0,0,-1,1105,519,0,0
-112,505,0,0,0,0,0,0,0,0,0,-1,1112,519,0,0
-105,505,0,0,0,0,0,0,0,0,0,-1,1119,519,0,0
-98,505,0,0,0,0,0,0,0,0,0,-1,1126,519,0,0
-91,505,0,0,0,0,0,0,0,0,0,-1,1133,519,0,0
-84,505,0,0,0,0,0,0,0,0,0,-1,1140,519,0,0
-77,505,0,0,0,0,0,0,0,0,0,-1,1147,519,0,0
-70,505,0,0,0,0,0,0,0,0,0,-1,1154,519,0,0
-63,505,0,0,0,0,0,0,0,0,0,-1,1161,519,0,0
-56,505,0,0,0,0,0,0,0,0,0,-1,1168,519,0,0
-49,505,0,0,0,0,0,0,0,0,0,-1,1175,519,0,0
-42,505,0,0,0,0,0,0,0,0,0,-1,1182,519,0,0
-35,505,0,0,0,0,0,0,0,0,0,-1,1189,519,0,0
-28,505,0,0,0,0,0,0,0,0,0,-1,1196,519,0,0
-21,505,0,0,0,0,0,0,0,0,0,-1,1203,519,0,0
-14,505,0,0,0,0,0,0,0,0,0,-1,1210,519,0,0
-7,505,0,0,0,0,0,0,0,0,0,-1,1217,519,0,0
0,505,0,0,0,0,0,0,0,0,0,-1,1224,519,0,0
7,505,0,0,0,0,0,0,0,0,0,-1,1231,519,0,0
14,505,0,0,0,0,0,0,0,0,0,-1,1238,519,0,0
21,505,0,0,0,0,0,0,0,0,0,-1,1245,519,0,0
28,505,0,0,0,0,0,0,0,0,0,-1,1252,519,0,0
35,505,0,0,0,0,0,0,0,0,0,-1,1259,519,0,0
42,505,0,0,0,0,0,0,0,0,0,-1,1266,519,0,0
49,505,0,0,0,0,0,0,0,0,0,-1,1273,519,0,0
56,505,0,0,0,0,0,0,0,0,0,-1,1280,519,0,0
63,505,0,0,0,0,0,0,0,0,0,-1,1287,519,0,0
70,505,0,0,0,0,0,0,0,0,0,-1,1294,519,0,0
77,505,0,0,0,0,0,0,0,0,0,-1,1301,519,0,0
84,505,0,0,0,0,0,0,0,0,0,-1,1308,519,0,0
91,505,0,0,0,0,0,0,0,0,0,-1,1315,519,0,0
98,505,0,0,0,0,0,0,0,0,0,-1,1322,519,0,0
105,505,0,0,0,0,0,0,0,0,0,-1,1329,519,0,0
112,505,0,0,0,0,0,0,0,0,0,-1,1336,519,0,0
119,505,0,0,0,0,0,0,0,0,0,-1,1343,519,0,0
126,505,0,0,0,0,0,0,0,0,0,-1,1350,519,0,0
133,505,0,0,0,0,0,0,0,0,0,-1,1357,519,0,0
140,505,0,0,0,0,0,0,0,0,0,-1,1364,519,0,0
147,505,0,0,0,0,0,0,0,0,0,-1,1371,519,0,0
154,505,0,0,0,0,0,0,0,0,0,-1,1378,519,0,0
161,505,0,0,0,0,0,0,0,0,0,-1,1385,519,0,0
168,505,0,0,0,0,0,0,0,0,0,-1,1392,519,0,0
175,505,0,0,0,0,0,0,0,0,0,-1,1399,519,0,0
182,505,0,0,0,0,0,0,0,0,0,-1,1406,519,0,0
189,505,0,0,0,0,0,0,0,0,0,-1,1413,519,0,0
196,505,0,0,0,0,0,0,0,0,0,-1,1420,519,0,0
203,505,0,0,0,0,0,0,0,0,0,-1,1427,519,0,0
210,505,0,0,0,0,0,0,0,0,0,-1,1434,519,0,0
217,505,0,0,0,0,0,0,0,0,0,-1,1441,519,0,0
224,505,0,0,0,0,0,0,0,0,0,-1,1448,519,0,0
231,505,0,0,0,0,0,0,0,0,0,-1,1455,519,0,0
238,505,0,0,0,0,0,0,0,0,0,-1,1462,519,0,0
245,505,0,0,0,0,0,0,0,0,0,-1,1469,519,0,0
252,505,0,0,0,0,0,0,0,0,0,-1,1476,519,0,0
259,505,0,0,0,0,0,0,0,0,0,-1,1483,519,0,0
266,505,0,0,0,0,0,0,0,0,0,-1,1490,519,0,0
273,505,0,0,0,0,0,0,0,0,0,-1,1497,519,0,0
280,505,0,0,0,0,0,0,0,0,0,-1,1504,519,0,0
287,505,4.39478,0.499512,0,0,0,0,0,0,0,-1,1511,519,4.39476,-0.499506
294,505,4.88867,0.0822754,0,0,0,0,0,0,0,-1,1518,519,4.88871,-0.0822748
301,505,4.82153,-0.0704346,0,0,0,0,0,0,0,-1,1525,519,4.82156,0.0704312
308,505,4.67761,-0.29187,0,0,0,0,0,0,0,-1,1532,519,4.67762,0.291845
315,505,8.44055,-6.54352,0,0,0,0,0,0,0,-1,1539,519,8.44059,6.54349
322,505,4.78955,-0.594116,0,0,0,0,0,0,0,-1,1546,519,4.78957,0.594096
329,505,5.16321,0.434631,0,0,0,0,0,0,0,-1,1553,519,5.16316,-0.434614
336,505,4.94495,-0.920471,0,0,0,0,0,0,0,-1,1560,519,4.945,0.920495
343,505,5.01855,-1.4823,0,0,0,0,0,0,0,-1,1567,519,5.01851,1.48227
350,505,5.33154,-1.77838,0,0,0,0,0,0,0,-1,1574,519,5.33152,1.77838
357,505,5.56567,-1.9425,0,0,0,0,0,0,0,-1,1581,519,5.56562,1.94248
364,505,5.85205,-2.6579,0,0,0,0,0,0,0,-1,1588,519,5.85211,2.65788
371,505,5.88477,-7.00922,0,0,0,0,0,0,0,-1,1595,519,5.88473,7.00924
378,505,5.44104,-7.10162,0,0,0,0,0,0,0,-1,1602,519,5.44099,7.10162
385,505,5.30042,-6.48242,0,0,0,0,0,0,0,-1,1609,519,5.30043,6.48243
392,505,5.43701,-6.13647,0,0,0,0,0,0,0,-1,1616,519,5.43703,6.13644
399,505,5.89172,-6.85236,0,0,0,0,0,0,0,-1,1623,519,5.89171,6.85233
406,505,5.59155,-6.65936,-0.00864566,-0.0101632,-0.0135362,0.00415302,-0.0229619,-0.7574,0.0168636,0.0478171,1630,519,5.59155,6.65937
413,505,5.98083,-6.87939,-0.00651042,-0.0066919,-0.0113307,0.00472987,-0.0179322,-0.781394,0.0138042,0.0460404,1637,519,5.98088,6.87942
420,505,5.30823,-6.57056,-0.0051738,-0.00421359,-0.00941831,0.00473684,-0.0141242,-0.810864,0.0113301,0.0323619,1644,519,5.30823,6.57054
427,505,5.24426,-6.30261,-0.00429967,-0.00247772,-0.00763197,0.00429745,-0.0110748,-0.844799,0.00915821,0.0138269,1651,519,5.24425,6.30264
434,505,5.22021,-6.08423,-0.00337933,-0.000798872,-0.00611976,0.00416519,-0.00834339,-0.889292,0.0073549,0.00975985,1658,519,5.22025,6.08424
441,505,5.21094,-5.87146,-0.00255702,0.000256799,-0.00469522,0.00375137,-0.00605159,-0.930964,0.00571144,0.0104456,1665,519,5.21091,5.87148
448,505,5.21423,-5.66095,-0.0018271,0.000584645,-0.00324365,0.00283932,-0.00408177,-0.963364,0.0040173,0.0110954,1672,519,5.21424,5.66093
455,505,5.203,-5.43781,-0.00113362,0.000814354,-0.00203781,0.00209898,-0.00241824,-1.00833,0.00261019,0.0108446,1679,519,5.20295,5.43779
462,505,5.18213,-5.19922,-0.000701719,0.00106644,-0.000994426,0.00151295,-0.00114823,-1.14876,0.00154124,0.0105134,1686,519,5.18219,5.19924
469,505,5.2019,-4.9942,-0.00018394,0.00141894,-0.000182575,0.00143947,-0.000204473,-1.4588,0.00103456,0.0100918,1693,519,5.20192,4.99417
476,505,5.21167,-4.7876,5.25159e-05,0.0021365,0.000154834,0.00214794,4.10751e-05,1.49704,0.00141847,0.0107552,1700,519,5.21165,4.78757
483,505,5.21082,-4.57629,1.3227e-05,0.00338441,0.000479364,0.00345125,-5.3611e-05,1.43226,0.00231891,0.0122827,1707,519,5.21078,4.57632
490,505,5.22559,-4.35724,-0.000333183,0.00480602,0.000756298,0.00491501,-0.00044217,1.42768,0.00343356,0.0113323,1714,519,5.22558,4.35726
497,505,5.22522,-4.1264,-0.00118724,0.00678023,0.00101792,0.00690822,-0.00131524,1.44571,0.00510073,0.0118654,1721,519,5.22526,4.12639
504,505,5.21704,-3.89056,-0.00238762,0.00959237,0.00134561,0.00974165,-0.0025369,1.46031,0.00748478,0.0132035,1728,519,5.21709,3.89055
511,505,5.22449,-3.66681,-0.0039721,0.0125374,0.00155702,0.012683,-0.00411766,1.47758,0.0101113,0.0138401,1735,519,5.22444,3.66683
518,505,5.29944,-3.48962,-0.00602264,0.0159198,0.00177124,0.0160618,-0.0061647,1.49076,0.0132498,0.0260022,1742,519,5.29944,3.48964
525,505,4.97766,-3.2113,-0.0085277,0.0197338,0.00194651,0.0198672,-0.00866113,1.50235,0.0168891,0.0341047,1749,519,4.97768,3.21133
532,505,4.87866,-2.76062,-0.0114992,0.0241588,0.00221472,0.0242958,-0.0116362,1.509,0.0211702,0.0431631,1756,519,4.8786,2.76061
539,505,4.85132,-2.40411,0,0,0,0,0,0,0,-1,1763,519,4.85131,2.40414
546,505,4.69727,-1.47705,0,0,0,0,0,0,0,-1,1770,519,4.69723,1.47703
553,505,2.82837,0.162659,0,0,0,0,0,0,0,-1,1777,519,2.82841,-0.162672
560,505,3.66223,-0.479797,0,0,0,0,0,0,0,-1,1784,519,3.66219,0.47982
567,505,4.65271,-0.950256,0,0,0,0,0,0,0,-1,1791,519,4.65274,0.95028
574,505,5.54443,-1.19977,0,0,0,0,0,0,0,-1,1798,519,5.54443,1.19974
581,505,0,0,0,0,0,0,0,0,0,-1,1805,519,0,0
588,505,0,0,0,0,0,0,0,0,0,-1,1812,519,0,0
595,505,0,0,0,0,0,0,0,0,0,-1,1819,519,0,0
602,505,0,0,0,0,0,0,0,0,0,-1,1826,519,0,0
609,505,0,0,0,0,0,0,0,0,0,-1,1833,519,0,0
616,505,0,0,0,0,0,0,0,0,0,-1,1840,519,0,0
623,505,0,0,0,0,0,0,0,0,0,-1,1847,519,0,0
630,505,0,0,0,0,0,0,0,0,0,-1,1854,519,0,0
637,505,0,0,0,0,0,0,0,0,0,-1,1861,519,0,0
644,505,0,0,0,0,0,0,0,0,0,-1,1868,519,0,0
651,505,0,0,0,0,0,0,0,0,0,-1,1875,519,0,0
658,505,0,0,0,0,0,0,0,0,0,-1,1882,519,0,0
665,505,0,0,0,0,0,0,0,0,0,-1,1889,519,0,0
672,505,0,0,0,0,0,0,0,0,0,-1,1896,519,0,0
679,505,0,0,0,0,0,0,0,0,0,-1,1903,519,0,0
686,505,0,0,0,0,0,0,0,0,0,-1,1910,519,0,0
693,505,0,0,0,0,0,0,0,0,0,-1,1917,519,0,0
700,505,0,0,0,0,0,0,0,0,0,-1,1924,519,0,0
707,505,0,0,0,0,0,0,0,0,0,-1,1931,519,0,0
714,505,0,0,0,0,0,0,0,0,0,-1,1938,519,0,0
721,505,0,0,0,0,0,0,0,0,0,-1,1945,519,0,0
728,505,0,0,0,0,0,0,0,0,0,-1,1952,519,0,0
735,505,0,0,0,0,0,0,0,0,0,-1,1959,519,0,0
742,505,0,0,0,0,0,0,0,0,0,-1,1966,519,0,0
749,505,0,0,0,0,0,0,0,0,0,-1,1973,519,0,0
756,505,0,0,0,0,0,0,0,0,0,-1,1980,519,0,0
763,505,0,0,0,0,0,0,0,0,0,-1,1987,519,0,0
770,505,0,0,0,0,0,0,0,0,0,-1,1994,519,0,0
777,505,0,0,0,0,0,0,0,0,0,-1,2001,519,0,0
784,505,0,0,0,0,0,0,0,0,0,-1,2008,519,0,0
791,505,0,0,0,0,0,0,0,0,0,-1,2015,519,0,0
798,505,0,0,0,0,0,0,0,0,0,-1,2022,519,0,0
805,505,0,0,0,0,0,0,0,0,0,-1,2029,519,0,0
812,505,0,0,0,0,0,0,0,0,0,-1,2036,519,0,0
-700,498,0,0,0,0,0,0,0,0,0,-1,524,526,0,0
-693,498,0,0,0,0,0,0,0,0,0,-1,531,526,0,0
-686,498,0,0,0,0,0,0,0,0,0,-1,538,526,0,0
-679,498,0,0,0,0,0,0,0,0,0,-1,545,526,0,0
-672,498,0,0,0,0,0,0,0,0,0,-1,552,526,0,0
-665,498,0,0,0,0,0,0,0,0,0,-1,559,526,0,0
-658,498,0,0,0,0,0,0,0,0,0,-1,566,526,0,0
-651,498,0,0,0,0,0,0,0,0,0,-1,573,526,0,0
-644,498,0,0,0,0,0,0,0,0,0,-1,580,526,0,0
-637,498,0,0,0,0,0,0,0,0,0,-1,587,526,0,0
-630,498,0,0,0,0,0,0,0,0,0,-1,594,526,0,0
-623,498,0,0,0,0,0,0,0,0,0,-1,601,526,0,0
-616,498,0,0,0,0,0,0,0,0,0,-1,608,526,0,0
-609,498,0,0,0,0,0,0,0,0,0,-1,615,526,0,0
-602,498,0,0,0,0,0,0,0,0,0,-1,622,526,0,0
-595,498,0,0,0,0,0,0,0,0,0,-1,629,526,0,0
-588,498,0,0,0,0,0,0,0,0,0,-1,636,526,0,0
-581,498,0,0,0,0,0,0,0,0,0,-1,643,526,0,0
-574,498,0,0,0,0,0,0,0,0,0,-1,650,526,0,0
-567,498,0,0,0,0,0,0,0,0,0,-1,657,526,0,0
-560,498,0,0,0,0,0,0,0,0,0,-1,664,526,0,0
-553,498,0,0,0,0,0,0,0,0,0,-1,671,526,0,0
-546,498,0,0,0,0,0,0,0,0,0,-1,678,526,0,0
-539,498,0,0,0,0,0,0,0,0,0,-1,685,526,0,0
-532,498,0,0,0,0,0,0,0,0,0,-1,692,526,0,0
-525,498,0,0,0,0,0,0,0,0,0,-1,699,526,0,0
-518,498,0,0,0,0,0,0,0,0,0,-1,706,526,0,0
-511,498,0,0,0,0,0,0,0,0,0,-1,713,526,0,0
-504,498,0,0,0,0,0,0,0,0,0,-1,720,526,0,0
-497,498,0,0,0,0,0,0,0,0,0,-1,727,526,0,0
-490,498,0,0,0,0,0,0,0,0,0,-1,734,526,0,0
-483,498,0,0,0,0,0,0,0,0,0,-1,741,526,0,0
-476,498,0,0,0,0,0,0,0,0,0,-1,748,526,0,0
-469,498,0,0,0,0,0,0,0,0,0,-1,755,526,0,0
-462,498,-0.642761,-3.18683,0,0,0,0,0,0,0,-1,762,526,-0.642769,3.18684
-455,498,-0.253662,-3.45422,0,0,0,0,0,0,0,-1,769,526,-0.253642,3.45424
-448,498,-0.143066,-3.96558,0,0,0,0,0,0,0,-1,776,526,-0.143058,3.9656
-441,498,-0.890503,-3.34076,0,0,0,0,0,0,0,-1,783,526,-0.890502,3.34074
-434,498,-0.921753,-3.71594,0,0,0,0,0,0,0,-1,790,526,-0.921745,3.71595
-427,498,-0.936523,-4.0929,0.0110843,0.0236618,0.0172176,0.0357033,-0.00095712,0.960496,0.0241275,0.0470453,797,526,-0.936499,4.09287
-420,498,-0.986694,-4.66223,0.0104017,0.016829,0.0140045,0.0279839,-0.000753186,0.898183,0.018912,0.0474721,804,526,-0.986695,4.6622
-413,498,-0.586487,-4.3399,0.00926909,0.0116637,0.0110589,0.0215899,-0.000657166,0.83932,0.0146173,0.049182,811,526,-0.58651,4.33987
-406,498,-0.520142,-4.55298,0.0078799,0.00783122,0.0084436,0.0162992,-0.000588079,0.783957,0.0110674,0.0423027,818,526,-0.520149,4.55298
-399,498,-0.533325,-4.73047,0.00645513,0.00512816,0.00611301,0.0119406,-0.000357263,0.731342,0.00808209,0.0246912,825,526,-0.533355,4.73046
-392,498,-0.569519,-4.95544,0.00539689,0.00293307,0.00384099,0.00819869,0.000131268,0.630217,0.00542257,0.012551,832,526,-0.56951,4.95543
-385,498,-0.584839,-5.15814,0.00439307,0.000944527,0.00213473,0.00541292,-7.53175e-05,0.445682,0.00363398,0.00914411,839,526,-0.584863,5.15815
-378,498,-0.586731,-5.33746,0.00341507,0.000487229,0.00111427,0.00379089,0.000111406,0.3253,0.00249096,0.0101391,846,526,-0.586701,5.33745
-371,498,-0.553589,-5.55072,0.00250634,5.63048e-05,0.000255675,0.00253273,2.9908e-05,0.102879,0.00167861,0.0146052,853,526,-0.553566,5.55069
-364,498,-0.571106,-5.79938,0.00195514,-0.000370508,-0.000557946,0.00208207,-0.000497437,-0.223686,0.00158018,0.0161494,860,526,-0.571128,5.7994
-357,498,-0.576599,-5.98633,0.00196196,-0.00036507,-0.00107703,0.00238393,-0.000787036,-0.373407,0.00190657,0.0119935,867,526,-0.576607,5.9863
-350,498,-0.604736,-6.1803,0.00214477,-0.00022216,-0.00140006,0.00279454,-0.000871935,-0.43452,0.00221173,0.0111162,874,526,-0.604711,6.18032
-343,498,-0.598328,-6.38593,0.00243728,-1.89778e-05,-0.00132848,0.00301834,-0.00060004,-0.412316,0.0022392,0.0110809,881,526,-0.598308,6.38591
-336,498,-0.580322,-6.57587,0.00272013,0.000125918,-0.00133925,0.00328745,-0.000441402,-0.400692,0.00235261,0.0138178,888,526,-0.580347,6.57585
-329,498,-0.569824,-6.74286,0.00308704,0.000415656,-0.0014076,0.00369182,-0.000189119,-0.405802,0.00252661,0.0179651,895,526,-0.569852,6.74289
-322,498,-0.572205,-6.95239,0.00339754,0.000656269,-0.00158186,0.00411997,-6.6157e-05,-0.428408,0.00276896,0.0168159,902,526,-0.57221,6.95237
-315,498,-0.579468,-7.14301,0.0035299,0.000826569,-0.00164213,0.0043051,5.13627e-05,-0.441059,0.0028531,0.0156218,909,526,-0.57944,7.143
-308,498,-0.567993,-7.33582,0.0037788,0.00108792,-0.00165403,0.0045655,0.000301223,-0.443959,0.00294839,0.0173023,916,526,-0.56802,7.33582
-301,498,-0.482544,-7.62891,0.00377082,0.00118221,-0.00158967,0.00452646,0.000426571,-0.443729,0.00288597,0.0289308,923,526,-0.482555,7.62888
-294,498,-0.611755,-7.66278,0.00353905,0.00159906,-0.00145659,0.00431907,0.000819046,-0.49165,0.00264892,0.0460559,930,526,-0.611756,7.66276
-287,498,-0.766174,-7.81268,0,0,0,0,0,0,0,-1,937,526,-0.766187,7.81269
-280,498,-0.328125,-7.96716,0,0,0,0,0,0,0,-1,944,526,-0.328133,7.96717
-273,498,-1.10272,-7.83875,0,0,0,0,0,0,0,-1,951,526,-1.10269,7.83874
-266,498,0.362488,-6.33545,0,0,0,0,0,0,0,-1,958,526,0.362478,6.33547
-259,498,10.9454,-17.3615,0,0,0,0,0,0,0,-1,965,526,10.9454,17.3614
-252,498,8.56586,-14.6886,0,0,0,0,0,0,0,-1,972,526,8.56584,14.6886
-245,498,5.97382,-11.928,0,0,0,0,0,0,0,-1,979,526,5.97381,11.928
-238,498,3.31403,-9.40442,0,0,0,0,0,0,0,-1,986,526,3.31405,9.40443
-231,498,0.675598,-6.60547,0,0,0,0,0,0,0,-1,993,526,0.675587,6.60545
-224,498,-2.11243,-4.76312,0,0,0,0,0,0,0,-1,1000,526,-2.11245,4.76314
-217,498,-3.82239,-1.42841,0,0,0,0,0,0,0,-1,1007,526,-3.82241,1.42843
-210,498,-1.80591,-0.358215,0,0,0,0,0,0,0,-1,1014,526,-1.8059,0.3582
-203,498,-3.17316,1.06641,0,0,0,0,0,0,0,-1,1021,526,-3.17313,-1.0664
-196,498,-0.103271,5.40527,0,0,0,0,0,0,0,-1,1028,526,-0.103285,-5.40528
-189,498,3.00256,6.47137,0,0,0,0,0,0,0,-1,1035,526,3.00256,-6.47139
-182,498,0,0,0,0,0,0,0,0,0,-1,1042,526,0,0
-175,498,0,0,0,0,0,0,0,0,0,-1,1049,526,0,0
-168,498,0,0,0,0,0,0,0,0,0,-1,1056,526,0,0
-161,498,0,0,0,0,0,0,0,0,0,-1,1063,526,0,0
-154,498,0,0,0,0,0,0,0,0,0,-1,1070,526,0,0
-147,498,0,0,0,0,0,0,0,0,0,-1,1077,526,0,0
-140,498,0,0,0,0,0,0,0,0,0,-1,1084,526,0,0
-133,498,0,0,0,0,0,0,0,0,0,-1,1091,526,0,0
-126,498,0,0,0,0,0,0,0,0,0,-1,1098,526,0,0
-119,498,0,0,0,0,0,0,0,0,0,-1,1105,526,0,0
-112,498,0,0,0,0,0,0,0,0,0,-1,1112,526,0,0
-105,498,0,0,0,0,0,0,0,0,0,-1,1119,526,0,0
-98,498,0,0,0,0,0,0,0,0,0,-1,1126,526,0,0
-91,498,0,0,0,0,0,0,0,0,0,-1,1133,526,0,0
-84,498,0,0,0,0,0,0,0,0,0,-1,1140,526,0,0
-77,498,0,0,0,0,0,0,0,0,0,-1,1147,526,0,0
-70,498,0,0,0,0,0,0,0,0,0,-1,1154,526,0,0
-63,498,0,0,0,0,0,0,0,0,0,-1,1161,526,0,0
-56,498,0,0,0,0,0,0,0,0,0,-1,1168,526,0,0
-49,498,0,0,0,0,0,0,0,0,0,-1,1175,526,0,0
-42,498,0,0,0,0,0,0,0,0,0,-1,1182,526,0,0
-35,498,0,0,0,0,0,0,0,0,0,-1,1189,526,0,0
-28,498,0,0,0,0,0,0,0,0,0,-1,1196,526,0,0
-21,498,0,0,0,0,0,0,0,0,0,-1,1203,526,0,0
-14,498,0,0,0,0,0,0,0,0,0,-1,1210,526,0,0
-7,498,0,0,0,0,0,0,0,0,0,-1,1217,526,0,0
0,498,0,0,0,0,0,0,0,0,0,-1,1224,526,0,0
7,498,0,0,0,0,0,0,0,0,0,-1,1231,526,0,0
14,498,0,0,0,0,0,0,0,0,0,-1,1238,526,0,0
21,498,0,0,0,0,0,0,0,0,0,-1,1245,526,0,0
28,498,0,0,0,0,0,0,0,0,0,-1,1252,526,0,0
35,498,0,0,0,0,0,0,0,0,0,-1,1259,526,0,0
42,498,0,0,0,0,0,0,0,0,0,-1,1266,526,0,0
49,498,0,0,0,0,0,0,0,0,0,-1,1273,526,0,0
56,498,0,0,0,0,0,0,0,0,0,-1,1280,526,0,0
63,498,0,0,0,0,0,0,0,0,0,-1,1287,526,0,0
70,498,0,0,0,0,0,0,0,0,0,-1,1294,526,0,0
77,498,0,0,0,0,0,0,0,0,0,-1,1301,526,0,0
84,498,0,0,0,0,0,0,0,0,0,-1,1308,526,0,0
91,498,0,0,0,0,0,0,0,0,0,-1,1315,526,0,0
98,498,0,0,0,0,0,0,0,0,0,-1,1322,526,0,0
105,498,0,0,0,0,0,0,0,0,0,-1,1329,526,0,0
112,498,0,0,0,0,0,0,0,0,0,-1,1336,526,0,0
119,498,0,0,0,0,0,0,0,0,0,-1,1343,526,0,0
126,498,0,0,0,0,0,0,0,0,0,-1,1350,526,0,0
133,498,0,0,0,0,0,0,0,0,0,-1,1357,526,0,0
140,498,0,0,0,0,0,0,0,0,0,-1,1364,526,0,0
147,498,0,0,0,0,0,0,0,0,0,-1,1371,526,0,0
154,498,0,0,0,0,0,0,0,0,0,-1,1378,526,0,0
161,498,0,0,0,0,0,0,0,0,0,-1,1385,526,0,0
168,498,0,0,0,0,0,0,0,0,0,-1,1392,526,0,0
175,498,0,0,0,0,0,0,0,0,0,-1,1399,526,0,0
182,498,0,0,0,0,0,0,0,0,0,-1,1406,526,0,0
189,498,0,0,0,0,0,0,0,0,0,-1,1413,526,0,0
196,498,0,0,0,0,0,0,0,0,0,-1,1420,526,0,0
203,498,0,0,0,0,0,0,0,0,0,-1,1427,526,0,0
210,498,0,0,0,0,0,0,0,0,0,-1,1434,526,0,0
217,498,0,0,0,0,0,0,0,0,0,-1,1441,526,0,0
224,498,0,0,0,0,0,0,0,0,0,-1,1448,526,0,0
231,498,0,0,0,0,0,0,0,0,0,-1,1455,526,0,0
238,498,0,0,0,0,0,0,0,0,0,-1,1462,526,0,0
245,498,0,0,0,0,0,0,0,0,0,-1,1469,526,0,0
252,498,0,0,0,0,0,0,0,0,0,-1,1476,526,0,0
259,498,0,0,0,0,0,0,0,0,0,-1,1483,526,0,0
266,498,0,0,0,0,0,0,0,0,0,-1,1490,526,0,0
273,498,0,0,0,0,0,0,0,0,0,-1,1497,526,0,0
280,498,0,0,0,0,0,0,0,0,0,-1,1504,526,0,0
287,498,0,0,0,0,0,0,0,0,0,-1,1511,526,0,0
294,498,0,0,0,0,0,0,0,0,0,-1,1518,526,0,0
301,498,0,0,0,0,0,0,0,0,0,-1,1525,526,0,0
308,498,4.77942,-0.293884,0,0,0,0,0,0,0,-1,1532,526,4.77939,0.293899
315,498,4.56091,-0.564148,0,0,0,0,0,0,0,-1,1539,526,4.56097,0.564142
322,498,4.52344,-0.447266,0,0,0,0,0,0,0,-1,1546,526,4.52341,0.447295
329,498,4.63232,-0.156982,0,0,0,0,0,0,0,-1,1553,526,4.63238,0.156991
336,498,5.22644,0.0925903,0,0,0,0,0,0,0,-1,1560,526,5.22648,-0.0926188
343,498,6.22607,-1.67615,0,0,0,0,0,0,0,-1,1567,526,6.22605,1.67617
350,498,6.19373,-1.59906,0,0,0,0,0,0,0,-1,1574,526,6.19367,1.59906
357,498,6.21472,-1.58929,0,0,0,0,0,0,0,-1,1581,526,6.21476,1.58927
364,498,5.73547,-1.2019,0,0,0,0,0,0,0,-1,1588,526,5.73547,1.20192
371,498,3.27087,-4.55334,0,0,0,0,0,0,0,-1,1595,526,3.27089,4.55332
378,498,8.42944,-4.70624,0,0,0,0,0,0,0,-1,1602,526,8.42942,4.70624
385,498,4.7793,-5.15314,0,0,0,0,0,0,0,-1,1609,526,4.77935,5.15311
392,498,3.44421,-4.27454,0,0,0,0,0,0,0,-1,1616,526,3.44416,4.27456
399,498,7.71191,-6.33777,0,0,0,0,0,0,0,-1,1623,526,7.71196,6.33774
406,498,6.05542,-6.59467,0,0,0,0,0,0,0,-1,1630,526,6.05539,6.59467
413,498,7.20251,-7.05884,0,0,0,0,0,0,0,-1,1637,526,7.2025,7.05886
420,498,5.59351,-6.4646,0,0,0,0,0,0,0,-1,1644,526,5.59345,6.46457
427,498,5.50037,-6.27289,-0.0056651,-0.00283318,-0.00969659,0.00555028,-0.0140486,-0.857899,0.0116646,0.0375052,1651,526,5.50031,6.27288
434,498,5.50378,-6.06616,-0.00447513,-0.000747558,-0.00771464,0.00532524,-0.0105479,-0.903922,0.00932827,0.0179569,1658,526,5.50384,6.06615
441,498,5.4397,-5.85278,-0.00345376,0.00053713,-0.00590453,0.00477429,-0.00769091,-0.948349,0.00726216,0.00975668,1665,526,5.43968,5.85276
448,498,5.44177,-5.66034,-0.00255003,0.000941086,-0.00412282,0.00367265,-0.0052816,-0.985651,0.00519748,0.0104078,1672,526,5.44183,5.66037
455,498,5.42639,-5.44513,-0.00170216,0.00110964,-0.00268096,0.00273097,-0.00332348,-1.02689,0.00350111,0.013743,1679,526,5.42636,5.44513
462,498,5.41223,-5.21942,-0.00117611,0.00103889,-0.00147288,0.0017742,-0.00191142,-1.10776,0.00212838,0.0152675,1686,526,5.41221,5.21943
469,498,5.39868,-5.00403,-0.000475869,0.000963598,-0.000547542,0.0011482,-0.000660469,-1.24562,0.00105681,0.0127049,1693,526,5.39862,5.00403
476,498,5.42639,-4.79596,-5.01467e-05,0.00138498,-0.00018153,0.00140759,-7.27526e-05,-1.4469,0.000963557,0.00963234,1700,526,5.42643,4.79598
483,498,5.4519,-4.58075,1.9567e-05,0.002208,0.000140365,0.00221697,1.06009e-05,1.50701,0.00147446,0.00858187,1707,526,5.45196,4.58074
490,498,5.45154,-4.3681,-0.000195063,0.00313252,0.000410199,0.00318234,-0.000244883,1.44993,0.00220772,0.01034,1714,526,5.45151,4.3681
497,498,5.44189,-4.14111,-0.000907753,0.0044686,0.000617904,0.0045387,-0.000977855,1.45783,0.00339897,0.0123992,1721,526,5.44193,4.14111
504,498,5.43787,-3.91077,-0.00193242,0.00653919,0.000869059,0.00662742,-0.00202065,1.46962,0.00522377,0.0147981,1728,526,5.43791,3.91076
511,498,5.44617,-3.68213,-0.0032835,0.00863315,0.00101328,0.0087187,-0.00336905,1.48657,0.00720308,0.0150489,1735,526,5.44614,3.68213
518,498,5.48157,-3.44434,-0.00505309,0.011054,0.00112295,0.011132,-0.00513101,1.50153,0.00960013,0.0174883,1742,526,5.48154,3.44433
525,498,5.36621,-3.20538,-0.00718244,0.0138038,0.00117444,0.0138693,-0.00724796,1.51507,0.0123902,0.0294698,1749,526,5.36623,3.20539
532,498,5.21423,-3.03186,-0.00962322,0.0169984,0.00130325,0.017062,-0.00968687,1.522,0.0156379,0.0399532,1756,526,5.21422,3.03184
539,498,5.18433,-2.87543,-0.0123228,0.0208753,0.00160568,0.0209528,-0.0124003,1.52258,0.0194663,0.0469701,1763,526,5.18437,2.87541
546,498,5.14355,-2.737,0,0,0,0,0,0,0,-1,1770,526,5.14352,2.73702
553,498,4.31055,-0.950439,0,0,0,0,0,0,0,-1,1777,526,4.31054,0.950461
560,498,3.69385,-0.615112,0,0,0,0,0,0,0,-1,1784,526,3.69381,0.615118
567,498,5.12695,-0.581604,0,0,0,0,0,0,0,-1,1791,526,5.12699,0.58159
574,498,3.88,0.0286255,0,0,0,0,0,0,0,-1,1798,526,3.87999,-0.0286535
581,498,10.8722,2.58551,0,0,0,0,0,0,0,-1,1805,526,10.8723,-2.58551
588,498,0,0,0,0,0,0,0,0,0,-1,1812,526,0,0
595,498,0,0,0,0,0,0,0,0,0,-1,1819,526,0,0
602,498,0,0,0,0,0,0,0,0,0,-1,1826,526,0,0
609,498,0,0,0,0,0,0,0,0,0,-1,1833,526,0,0
616,498,0,0,0,0,0,0,0,0,0,-1,1840,526,0,0
623,498,0,0,0,0,0,0,0,0,0,-1,1847,526,0,0
630,498,0,0,0,0,0,0,0,0,0,-1,1854,526,0,0
637,498,0,0,0,0,0,0,0,0,0,-1,1861,526,0,0
644,498,0,0,0,0,0,0,0,0,0,-1,1868,526,0,0
651,498,0,0,0,0,0,0,0,0,0,-1,1875,526,0,0
658,498,0,0,0,0,0,0,0,0,0,-1,1882,526,0,0
665,498,0,0,0,0,0,0,0,0,0,-1,1889,526,0,0
672,498,0,0,0,0,0,0,0,0,0,-1,1896,526,0,0
679,498,0,0,0,0,0,0,0,0,0,-1,1903,526,0,0
686,498,0,0,0,0,0,0,0,0,0,-1,1910,526,0,0
693,498,0,0,0,0,0,0,0,0,0,-1,1917,526,0,0
700,498,0,0,0,0,0,0,0,0,0,-1,1924,526,0,0
707,498,0,0,0,0,0,0,0,0,0,-1,1931,526,0,0
714,498,0,0,0,0,0,0,0,0,0,-1,1938,526,0,0
721,498,0,0,0,0,0,0,0,0,0,-1,1945,526,0,0
728,498,0,0,0,0,0,0,0,0,0,-1,1952,526,0,0
735,498,0,0,0,0,0,0,0,0,0,-1,1959,526,0,0
742,498,0,0,0,0,0,0,0,0,0,-1,1966,526,0,0
749,498,0,0,0,0,0,0,0,0,0,-1,1973,526,0,0
756,498,0,0,0,0,0,0,0,0,0,-1,1980,526,0,0
763,498,0,0,0,0,0,0,0,0,0,-1,1987,526,0,0
770,498,0,0,0,0,0,0,0,0,0,-1,1994,526,0,0
777,498,0,0,0,0,0,0,0,0,0,-1,2001,526,0,0
784,498,0,0,0,0,0,0,0,0,0,-1,2008,526,0,0
791,498,0,0,0,0,0,0,0,0,0,-1,2015,526,0,0
798,498,0,0,0,0,0,0,0,0,0,-1,2022,526,0,0
805,498,0,0,0,0,0,0,0,0,0,-1,2029,526,0,0
812,498,0,0,0,0,0,0,0,0,0,-1,2036,526,0,0
-700,491,0,0,0,0,0,0,0,0,0,-1,524,533,0,0
-693,491,0,0,0,0,0,0,0,0,0,-1,531,533,0,0
-686,491,0,0,0,0,0,0,0,0,0,-1,538,533,0,0
-679,491,0,0,0,0,0,0,0,0,0,-1,545,533,0,0
-672,491,0,0,0,0,0,0,0,0,0,-1,552,533,0,0
-665,491,0,0,0,0,0,0,0,0,0,-1,559,533,0,0
-658,491,0,0,0,0,0,0,0,0,0,-1,566,533,0,0
-651,491,0,0,0,0,0,0,0,0,0,-1,573,533,0,0
-644,491,0,0,0,0,0,0,0,0,0,-1,580,533,0,0
-637,491,0,0,0,0,0,0,0,0,0,-1,587,533,0,0
-630,491,0,0,0,0,0,0,0,0,0,-1,594,533,0,0
-623,491,0,0,0,0,0,0,0,0,0,-1,601,533,0,0
-616,491,0,0,0,0,0,0,0,0,0,-1,608,533,0,0
-609,491,0,0,0,0,0,0,0,0,0,-1,615,533,0,0
-602,491,0,0,0,0,0,0,0,0,0,-1,622,533,0,0
-595,491,0,0,0,0,0,0,0,0,0,-1,629,533,0,0
-588,491,0,0,0,0,0,0,0,0,0,-1,636,533,0,0
-581,491,0,0,0,0,0,0,0,0,0,-1,643,533,0,0
-574,491,0,0,0,0,0,0,0,0,0,-1,650,533,0,0
-567,491,0,0,0,0,0,0,0,0,0,-1,657,533,0,0
-560,491,0,0,0,0,0,0,0,0,0,-1,664,533,0,0
-553,491,0,0,0,0,0,0,0,0,0,-1,671,533,0,0
-546,491,0,0,0,0,0,0,0,0,0,-1,678,533,0,0
-539,491,0,0,0,0,0,0,0,0,0,-1,685,533,0,0
-532,491,0,0,0,0,0,0,0,0,0,-1,692,533,0,0
-525,491,0,0,0,0,0,0,0,0,0,-1,699,533,0,0
-518,491,0,0,0,0,0,0,0,0,0,-1,706,533,0,0
-511,491,0,0,0,0,0,0,0,0,0,-1,713,533,0,0
-504,491,0,0,0,0,0,0,0,0,0,-1,720,533,0,0
-497,491,0,0,0,0,0,0,0,0,0,-1,727,533,0,0
-490,491,0,0,0,0,0,0,0,0,0,-1,734,533,0,0
-483,491,0,0,0,0,0,0,0,0,0,-1,741,533,0,0
-476,491,0,0,0,0,0,0,0,0,0,-1,748,533,0,0
-469,491,-5.85913,4.55011,0,0,0,0,0,0,0,-1,755,533,-5.8591,-4.55009
-462,491,-1.04462,-3.17084,0,0,0,0,0,0,0,-1,762,533,-1.04461,3.17086
-455,491,-0.613831,-3.42908,0,0,0,0,0,0,0,-1,769,533,-0.61381,3.42906
-448,491,-0.343445,-3.69183,0,0,0,0,0,0,0,-1,776,533,-0.343474,3.69183
-441,491,-0.341248,-4.26862,0,0,0,0,0,0,0,-1,783,533,-0.341247,4.2686
-434,491,-1.68018,-3.95538,0,0,0,0,0,0,0,-1,790,533,-1.68015,3.9554
-427,491,-1.47443,-2.92468,0,0,0,0,0,0,0,-1,797,533,-1.47444,2.92467
-420,491,-0.874756,-3.92352,0,0,0,0,0,0,0,-1,804,533,-0.87476,3.92351
-413,491,-0.793945,-4.2392,0.0069325,0.0107634,0.00746059,0.0165505,0.0011454,0.911056,0.0106724,0.0410286,811,533,-0.793916,4.23923
-406,491,-0.748718,-4.52051,0.00573551,0.00737039,0.00564338,0.0122552,0.00085068,0.857323,0.00790187,0.0224735,818,533,-0.748709,4.5205
-399,491,-0.77832,-4.73102,0.00468638,0.00487135,0.00403629,0.00881621,0.000741517,0.796853,0.00564655,0.0108832,825,533,-0.778349,4.73102
-392,491,-0.798401,-4.94049,0.00396639,0.00283523,0.00245788,0.00592292,0.00087869,0.672312,0.00369075,0.00966109,832,533,-0.798383,4.94046
-385,491,-0.791687,-5.14099,0.00337313,0.00103307,0.00126077,0.00392313,0.000483062,0.411355,0.0024702,0.00971364,839,533,-0.791685,5.14097
-378,491,-0.778076,-5.3335,0.00286473,0.000496645,0.00055802,0.00298964,0.000371741,0.220206,0.00188146,0.0136307,846,533,-0.778099,5.33351
-371,491,-0.766724,-5.5401,0.0024358,-3.1083e-05,-5.98998e-05,0.00243725,-3.25367e-05,-0.0242625,0.00163579,0.0138386,853,533,-0.766748,5.5401
-364,491,-0.772156,-5.77179,0.00232274,-0.000409757,-0.000687101,0.00248579,-0.000572803,-0.232987,0.00187748,0.0138516,860,533,-0.772177,5.77177
-357,491,-0.793701,-5.96484,0.00264543,-0.000412685,-0.00113164,0.00301864,-0.000785895,-0.318564,0.00231921,0.0128731,867,533,-0.793691,5.96483
-350,491,-0.806519,-6.1673,0.00309484,-0.000317914,-0.00140658,0.00359984,-0.000822912,-0.344693,0.00271608,0.0142118,874,533,-0.806539,6.16727
-343,491,-0.789734,-6.39832,0.00350721,-0.000110779,-0.00140758,0.00399032,-0.000593887,-0.330622,0.00287867,0.021915,881,533,-0.789744,6.39829
-336,491,-0.803833,-6.591,0.00393669,5.00907e-05,-0.0015024,0.00444973,-0.00046295,-0.329066,0.00313223,0.0225708,888,533,-0.803859,6.591
-329,491,-0.79126,-6.76904,0.00448128,0.000409696,-0.00171084,0.00510471,-0.000213729,-0.349442,0.00347657,0.0230269,895,533,-0.791279,6.76903
-322,491,-0.782654,-6.95544,0.00495209,0.000688699,-0.00198993,0.00573655,-9.57604e-05,-0.375509,0.00385668,0.0207119,902,533,-0.782625,6.95543
-315,491,-0.795959,-7.11639,0.00520998,0.000883595,-0.00211544,0.00607243,2.11506e-05,-0.387119,0.00404125,0.0178178,909,533,-0.79594,7.11638
-308,491,-0.634888,-7.3457,0.00548663,0.00117722,-0.00219136,0.00640516,0.00025868,-0.396916,0.00418655,0.0405086,916,533,-0.634873,7.34573
-301,491,-0.667419,-7.9939,0,0,0,0,0,0,0,-1,923,533,-0.6674,7.99392
-294,491,-1.02881,-7.84375,0,0,0,0,0,0,0,-1,930,533,-1.02879,7.84376
-287,491,-0.85376,-7.94482,0,0,0,0,0,0,0,-1,937,533,-0.853774,7.94483
-280,491,0.2948,-5.99219,0,0,0,0,0,0,0,-1,944,533,0.294811,5.99221
-273,491,0.369995,-5.33691,0,0,0,0,0,0,0,-1,951,533,0.369985,5.33693
-266,491,1.1167,-5.0321,0,0,0,0,0,0,0,-1,958,533,1.11668,5.0321
-259,491,12.0862,-16.9615,0,0,0,0,0,0,0,-1,965,533,12.0862,16.9615
-252,491,9.72443,-13.8417,0,0,0,0,0,0,0,-1,972,533,9.72444,13.8418
-245,491,7.36926,-10.7169,0,0,0,0,0,0,0,-1,979,533,7.36924,10.7169
-238,491,4.84167,-7.53986,0,0,0,0,0,0,0,-1,986,533,4.84169,7.53984
-231,491,2.15582,-5.05225,0,0,0,0,0,0,0,-1,993,533,2.1558,5.05223
-224,491,-0.429749,-3.09216,0,0,0,0,0,0,0,-1,1000,533,-0.429743,3.09215
-217,491,-2.92743,-1.0766,0,0,0,0,0,0,0,-1,1007,533,-2.92743,1.07659
-210,491,-0.92395,0.374512,0,0,0,0,0,0,0,-1,1014,533,-0.923959,-0.374531
-203,491,0.417419,4.77161,0,0,0,0,0,0,0,-1,1021,533,0.417446,-4.77162
-196,491,0,0,0,0,0,0,0,0,0,-1,1028,533,0,0
-189,491,0,0,0,0,0,0,0,0,0,-1,1035,533,0,0
-182,491,0,0,0,0,0,0,0,0,0,-1,1042,533,0,0
-175,491,0,0,0,0,0,0,0,0,0,-1,1049,533,0,0
-168,491,0,0,0,0,0,0,0,0,0,-1,1056,533,0,0
-161,491,0,0,0,0,0,0,0,0,0,-1,1063,533,0,0
-154,491,0,0,0,0,0,0,0,0,0,-1,1070,533,0,0
-147,491,0,0,0,0,0,0,0,0,0,-1,1077,533,0,0
-140,491,0,0,0,0,0,0,0,0,0,-1,1084,533,0,0
-133,491,0,0,0,0,0,0,0,0,0,-1,1091,533,0,0
-126,491,0,0,0,0,0,0,0,0,0,-1,1098,533,0,0
-119,491,0,0,0,0,0,0,0,0,0,-1,1105,533,0,0
-112,491,0,0,0,0,0,0,0,0,0,-1,1112,533,0,0
-105,491,0,0,0,0,0,0,0,0,0,-1,1119,533,0,0
-98,491,0,0,0,0,0,0,0,0,0,-1,1126,533,0,0
-91,491,0,0,0,0,0,0,0,0,0,-1,1133,533,0,0
-84,491,0,0,0,0,0,0,0,0,0,-1,1140,533,0,0
-77,491,0,0,0,0,0,0,0,0,0,-1,1147,533,0,0
-70,491,0,0,0,0,0,0,0,0,0,-1,1154,533,0,0
-63,491,0,0,0,0,0,0,0,0,0,-1,1161,533,0,0
-56,491,0,0,0,0,0,0,0,0,0,-1,1168,533,0,0
-49,491,0,0,0,0,0,0,0,0,0,-1,1175,533,0,0
-42,491,0,0,0,0,0,0,0,0,0,-1,1182,533,0,0
-35,491,0,0,0,0,0,0,0,0,0,-1,1189,533,0,0
-28,491,0,0,0,0,0,0,0,0,0,-1,1196,533,0,0
-21,491,0,0,0,0,0,0,0,0,0,-1,1203,533,0,0
-14,491,0,0,0,0,0,0,0,0,0,-1,1210,533,0,0
-7,491,0,0,0,0,0,0,0,0,0,-1,1217,533,0,0
0,491,0,0,0,0,0,0,0,0,0,-1,1224,533,0,0
7,491,0,0,0,0,0,0,0,0,0,-1,1231,533,0,0
14,491,0,0,0,0,0,0,0,0,0,-1,1238,533,0,0
21,491,0,0,0,0,0,0,0,0,0,-1,1245,533,0,0
28,491,0,0,0,0,0,0,0,0,0,-1,1252,533,0,0
35,491,0,0,0,0,0,0,0,0,0,-1,1259,533,0,0
42,491,0,0,0,0,0,0,0,0,0,-1,1266,533,0,0
49,491,0,0,0,0,0,0,0,0,0,-1,1273,533,0,0
56,491,0,0,0,0,0,0,0,0,0,-1,1280,533,0,0
63,491,0,0,0,0,0,0,0,0,0,-1,1287,533,0,0
70,491,0,0,0,0,0,0,0,0,0,-1,1294,533,0,0
77,491,0,0,0,0,0,0,0,0,0,-1,1301,533,0,0
84,491,0,0,0,0,0,0,0,0,0,-1,1308,533,0,0
91,491,0,0,0,0,0,0,0,0,0,-1,1315,533,0,0
98,491,0,0,0,0,0,0,0,0,0,-1,1322,533,0,0
105,491,0,0,0,0,0,0,0,0,0,-1,1329,533,0,0
112,491,0,0,0,0,0,0,0,0,0,-1,1336,533,0,0
119,491,0,0,0,0,0,0,0,0,0,-1,1343,533,0,0
126,491,0,0,0,0,0,0,0,0,0,-1,1350,533,0,0
133,491,0,0,0,0,0,0,0,0,0,-1,1357,533,0,0
140,491,0,0,0,0,0,0,0,0,0,-1,1364,533,0,0
147,491,0,0,0,0,0,0,0,0,0,-1,1371,533,0,0
154,491,0,0,0,0,0,0,0,0,0,-1,1378,533,0,0
161,491,0,0,0,0,0,0,0,0,0,-1,1385,533,0,0
168,491,0,0,0,0,0,0,0,0,0,-1,1392,533,0,0
175,491,0,0,0,0,0,0,0,0,0,-1,1399,533,0,0
182,491,0,0,0,0,0,0,0,0,0,-1,1406,533,0,0
189,491,0,0,0,0,0,0,0,0,0,-1,1413,533,0,0
196,491,0,0,0,0,0,0,0,0,0,-1,1420,533,0,0
203,491,0,0,0,0,0,0,0,0,0,-1,1427,533,0,0
210,491,0,0,0,0,0,0,0,0,0,-1,1434,533,0,0
217,491,0,0,0,0,0,0,0,0,0,-1,1441,533,0,0
224,491,0,0,0,0,0,0,0,0,0,-1,1448,533,0,0
231,491,0,0,0,0,0,0,0,0,0,-1,1455,533,0,0
238,491,0,0,0,0,0,0,0,0,0,-1,1462,533,0,0
245,491,0,0,0,0,0,0,0,0,0,-1,1469,533,0,0
252,491,0,0,0,0,0,0,0,0,0,-1,1476,533,0,0
259,491,0,0,0,0,0,0,0,0,0,-1,1483,533,0,0
266,491,0,0,0,0,0,0,0,0,0,-1,1490,533,0,0
273,491,0,0,0,0,0,0,0,0,0,-1,1497,533,0,0
280,491,0,0,0,0,0,0,0,0,0,-1,1504,533,0,0
287,491,0,0,0,0,0,0,0,0,0,-1,1511,533,0,0
294,491,0,0,0,0,0,0,0,0,0,-1,1518,533,0,0
301,491,0,0,0,0,0,0,0,0,0,-1,1525,533,0,0
308,491,0,0,0,0,0,0,0,0,0,-1,1532,533,0,0
315,491,0,0,0,0,0,0,0,0,0,-1,1539,533,0,0
322,491,4.26331,-0.734314,0,0,0,0,0,0,0,-1,1546,533,4.26326,0.734324
329,491,4.25354,-0.783752,0,0,0,0,0,0,0,-1,1553,533,4.25359,0.783734
336,491,4.81604,-0.722107,0,0,0,0,0,0,0,-1,1560,533,4.81605,0.722115
343,491,6.14478,-1.44281,0,0,0,0,0,0,0,-1,1567,533,6.14474,1.44281
350,491,6.36353,-1.30792,0,0,0,0,0,0,0,-1,1574,533,6.36352,1.3079
357,491,6.69482,-1.06018,0,0,0,0,0,0,0,-1,1581,533,6.69489,1.06018
364,491,8.01086,-1.69604,0,0,0,0,0,0,0,-1,1588,533,8.01087,1.69607
371,491,8.2135,-0.539307,0,0,0,0,0,0,0,-1,1595,533,8.21348,0.53929
378,491,13.3589,2.17267,0,0,0,0,0,0,0,-1,1602,533,13.3589,-2.17264
385,491,8.08228,-4.95471,0,0,0,0,0,0,0,-1,1609,533,8.08227,4.95474
392,491,2.88721,-4.30988,0,0,0,0,0,0,0,-1,1616,533,2.88716,4.30986
399,491,7.08691,-4.86603,0,0,0,0,0,0,0,-1,1623,533,7.08696,4.86606
406,491,7.58154,-6.24127,0,0,0,0,0,0,0,-1,1630,533,7.5816,6.24126
413,491,5.31848,-3.7124,0,0,0,0,0,0,0,-1,1637,533,5.31849,3.7124
420,491,4.86389,-3.95892,0,0,0,0,0,0,0,-1,1644,533,4.86387,3.95893
427,491,5.85205,-6.15332,0,0,0,0,0,0,0,-1,1651,533,5.85202,6.15335
434,491,5.81921,-6.01819,-0.00572309,-0.000522399,-0.00938726,0.00661802,-0.0128635,-0.920514,0.0114387,0.0409914,1658,533,5.81922,6.01819
441,491,5.69434,-5.88757,-0.00443007,0.000989589,-0.00710324,0.00588234,-0.00932282,-0.967623,0.0088533,0.0237296,1665,533,5.69435,5.88759
448,491,5.6803,-5.64722,-0.00329648,0.00146613,-0.00494475,0.0045731,-0.00640345,-1.0098,0.00636662,0.0126644,1672,533,5.68032,5.64724
455,491,5.66528,-5.44177,-0.00224949,0.00154941,-0.00325122,0.00341537,-0.00411546,-1.04977,0.00435418,0.011546,1679,533,5.66528,5.4418
462,491,5.64001,-5.24225,-0.00157441,0.00115859,-0.00185398,0.00209526,-0.00251108,-1.10298,0.00266308,0.0152651,1686,533,5.64004,5.24222
469,491,5.60559,-5.04022,-0.000657492,0.000718511,-0.000818453,0.00109972,-0.0010387,-1.13491,0.00123479,0.0142675,1693,533,5.60558,5.04023
476,491,5.65991,-4.81238,-1.26569e-05,0.00090297,-0.000406612,0.00105747,-0.000167156,-1.20768,0.000766795,0.00991365,1700,533,5.65995,4.81236
483,491,5.67041,-4.55872,0.000181775,0.00137078,-6.80573e-05,0.00137466,0.000177892,-1.51381,0.000863273,0.0113973,1707,533,5.67037,4.55871
490,491,5.66968,-4.36493,0.000112631,0.00192916,0.00021467,0.00195418,8.76073e-05,1.45475,0.00127459,0.0101271,1714,533,5.66967,4.36495
497,491,5.65796,-4.15698,-0.000441163,0.00278067,0.000388343,0.00282682,-0.000487311,1.45252,0.00206623,0.0118456,1721,533,5.65796,4.15697
504,491,5.66077,-3.92474,-0.00128676,0.00427374,0.00058162,0.00433392,-0.00134695,1.46768,0.00342765,0.0135195,1728,533,5.66078,3.92474
511,491,5.65833,-3.69299,-0.00241491,0.00575961,0.000690254,0.00581749,-0.00247278,1.48715,0.00491452,0.0125186,1735,533,5.65834,3.69301
518,491,5.65234,-3.47351,-0.00393326,0.00750084,0.00073018,0.00754728,-0.0039797,1.50728,0.00676052,0.0100089,1742,533,5.65228,3.47353
525,491,5.67346,-3.22321,-0.00574692,0.00951834,0.000696522,0.00955006,-0.00577863,1.52529,0.00893886,0.00951889,1749,533,5.67347,3.2232
532,491,5.7002,-2.99542,-0.00776749,0.0118921,0.000732756,0.0119194,-0.00779477,1.53359,0.0114647,0.0166518,1756,533,5.70024,2.99541
539,491,5.62488,-2.81934,-0.00994595,0.0147321,0.000892592,0.0147644,-0.00997819,1.53469,0.0143739,0.0250499,1763,533,5.62487,2.81933
546,491,5.17322,-2.26971,-0.0122195,0.0178819,0.00113266,0.0179245,-0.0122621,1.53324,0.0175301,0.0364235,1770,533,5.17325,2.26972
553,491,4.82019,-1.34119,-0.0146854,0.0213767,0.00140548,0.0214314,-0.0147401,1.5319,0.0210024,0.0492518,1777,533,4.82017,1.34121
560,491,4.36133,-0.520447,0,0,0,0,0,0,0,-1,1784,533,4.3613,0.520474
567,491,5.67651,-1.3562,0,0,0,0,0,0,0,-1,1791,533,5.67649,1.3562
574,491,8.0719,1.58325,0,0,0,0,0,0,0,-1,1798,533,8.07195,-1.58326
581,491,9.44812,1.60931,0,0,0,0,0,0,0,-1,1805,533,9.44808,-1.60933
588,491,11.0497,1.54962,0,0,0,0,0,0,0,-1,1812,533,11.0496,-1.54963
595,491,0,0,0,0,0,0,0,0,0,-1,1819,533,0,0
602,491,0,0,0,0,0,0,0,0,0,-1,1826,533,0,0
609,491,0,0,0,0,0,0,0,0,0,-1,1833,533,0,0
616,491,0,0,0,0,0,0,0,0,0,-1,1840,533,0,0
623,491,0,0,0,0,0,0,0,0,0,-1,1847,533,0,0
630,491,0,0,0,0,0,0,0,0,0,-1,1854,533,0,0
637,491,0,0,0,0,0,0,0,0,0,-1,1861,533,0,0
644,491,0,0,0,0,0,0,0,0,0,-1,1868,533,0,0
651,491,0,0,0,0,0,0,0,0,0,-1,1875,533,0,0
658,491,0,0,0,0,0,0,0,0,0,-1,1882,533,0,0
665,491,0,0,0,0,0,0,0,0,0,-1,1889,533,0,0
672,491,0,0,0,0,0,0,0,0,0,-1,1896,533,0,0
679,491,0,0,0,0,0,0,0,0,0,-1,1903,533,0,0
686,491,0,0,0,0,0,0,0,0,0,-1,1910,533,0,0
693,491,0,0,0,0,0,0,0,0,0,-1,1917,533,0,0
700,491,0,0,0,0,0,0,0,0,0,-1,1924,533,0,0
707,491,0,0,0,0,0,0,0,0,0,-1,1931,533,0,0
714,491,0,0,0,0,0,0,0,0,0,-1,1938,533,0,0
721,491,0,0,0,0,0,0,0,0,0,-1,1945,533,0,0
728,491,0,0,0,0,0,0,0,0,0,-1,1952,533,0,0
735,491,0,0,0,0,0,0,0,0,0,-1,1959,533,0,0
742,491,0,0,0,0,0,0,0,0,0,-1,1966,533,0,0
749,491,0,0,0,0,0,0,0,0,0,-1,1973,533,0,0
756,491,0,0,0,0,0,0,0,0,0,-1,1980,533,0,0
763,491,0,0,0,0,0,0,0,0,0,-1,1987,533,0,0
770,491,0,0,0,0,0,0,0,0,0,-1,1994,533,0,0
777,491,0,0,0,0,0,0,0,0,0,-1,2001,533,0,0
784,491,0,0,0,0,0,0,0,0,0,-1,2008,533,0,0
791,491,0,0,0,0,0,0,0,0,0,-1,2015,533,0,0
798,491,0,0,0,0,0,0,0,0,0,-1,2022,533,0,0
805,491,0,0,0,0,0,0,0,0,0,-1,2029,533,0,0
812,491,0,0,0,0,0,0,0,0,0,-1,2036,533,0,0
-700,484,0,0,0,0,0,0,0,0,0,-1,524,540,0,0
-693,484,0,0,0,0,0,0,0,0,0,-1,531,540,0,0
-686,484,0,0,0,0,0,0,0,0,0,-1,538,540,0,0
-679,484,0,0,0,0,0,0,0,0,0,-1,545,540,0,0
-672,484,0,0,0,0,0,0,0,0,0,-1,552,540,0,0
-665,484,0,0,0,0,0,0,0,0,0,-1,559,540,0,0
-658,484,0,0,0,0,0,0,0,0,0,-1,566,540,0,0
-651,484,0,0,0,0,0,0,0,0,0,-1,573,540,0,0
-644,484,0,0,0,0,0,0,0,0,0,-1,580,540,0,0
-637,484,0,0,0,0,0,0,0,0,0,-1,587,540,0,0
-630,484,0,0,0,0,0,0,0,0,0,-1,594,540,0,0
-623,484,0,0,0,0,0,0,0,0,0,-1,601,540,0,0
-616,484,0,0,0,0,0,0,0,0,0,-1,608,540,0,0
-609,484,0,0,0,0,0,0,0,0,0,-1,615,540,0,0
-602,484,0,0,0,0,0,0,0,0,0,-1,622,540,0,0
-595,484,0,0,0,0,0,0,0,0,0,-1,629,540,0,0
-588,484,0,0,0,0,0,0,0,0,0,-1,636,540,0,0
-581,484,0,0,0,0,0,0,0,0,0,-1,643,540,0,0
-574,484,0,0,0,0,0,0,0,0,0,-1,650,540,0,0
-567,484,0,0,0,0,0,0,0,0,0,-1,657,540,0,0
-560,484,0,0,0,0,0,0,0,0,0,-1,664,540,0,0
-553,484,0,0,0,0,0,0,0,0,0,-1,671,540,0,0
-546,484,0,0,0,0,0,0,0,0,0,-1,678,540,0,0
-539,484,0,0,0,0,0,0,0,0,0,-1,685,540,0,0
-532,484,0,0,0,0,0,0,0,0,0,-1,692,540,0,0
-525,484,0,0,0,0,0,0,0,0,0,-1,699,540,0,0
-518,484,0,0,0,0,0,0,0,0,0,-1,706,540,0,0
-511,484,0,0,0,0,0,0,0,0,0,-1,713,540,0,0
-504,484,0,0,0,0,0,0,0,0,0,-1,720,540,0,0
-497,484,0,0,0,0,0,0,0,0,0,-1,727,540,0,0
-490,484,0,0,0,0,0,0,0,0,0,-1,734,540,0,0
-483,484,0,0,0,0,0,0,0,0,0,-1,741,540,0,0
-476,484,-7.44257,1.59998,0,0,0,0,0,0,0,-1,748,540,-7.44258,-1.59999
-469,484,-6.87036,1.17047,0,0,0,0,0,0,0,-1,755,540,-6.87037,-1.17045
-462,484,-6.34863,1.11737,0,0,0,0,0,0,0,-1,762,540,-6.34864,-1.11739
-455,484,-5.68115,0.5354,0,0,0,0,0,0,0,-1,769,540,-5.68116,-0.535397
-448,484,-0.487793,-3.3941,0,0,0,0,0,0,0,-1,776,540,-0.48777,3.39409
-441,484,-0.456116,-4.11584,0,0,0,0,0,0,0,-1,783,540,-0.456113,4.11587
-434,484,-1.33075,-3.24036,0,0,0,0,0,0,0,-1,790,540,-1.33075,3.24034
-427,484,-1.28345,-3.37457,0.0086771,0.0177214,0.00679373,0.0213604,0.00503808,1.07904,0.0128933,0.0402495,797,540,-1.28347,3.37458
-420,484,-0.983276,-4.01477,0.00661266,0.0129921,0.00572979,0.0163602,0.00324457,1.03938,0.0100022,0.0331967,804,540,-0.983262,4.01476
-413,484,-0.959534,-4.23798,0.00526467,0.00929046,0.00458928,0.0122889,0.00226625,0.992068,0.00755138,0.020927,811,540,-0.959547,4.238
-406,484,-0.94342,-4.5061,0.00427735,0.00648816,0.00345836,0.00901348,0.00175203,0.940084,0.00551848,0.0130419,818,540,-0.943414,4.50612
-399,484,-0.991821,-4.74121,0.00352226,0.00431953,0.0024567,0.00640972,0.00143206,0.86583,0.0038848,0.0152358,825,540,-0.99185,4.74122
-392,484,-0.999573,-4.9342,0.00304242,0.00253911,0.00145316,0.00426556,0.00131598,0.699659,0.0025222,0.0165551,832,540,-0.9996,4.93422
-385,484,-0.983093,-5.12878,0.00273697,0.000988052,0.00067229,0.00296553,0.000759491,0.327714,0.00177875,0.0121951,839,540,-0.983104,5.12879
-378,484,-0.976196,-5.34338,0.00255604,0.000432583,0.000213601,0.00257732,0.00041131,0.099266,0.00159884,0.013338,846,540,-0.97622,5.34337
-371,484,-0.978149,-5.55017,0.00247895,-0.000118955,-0.000225581,0.00249839,-0.000138397,-0.0859745,0.00171359,0.0147665,853,540,-0.978148,5.55015
-364,484,-0.980896,-5.74634,0.00269966,-0.000453293,-0.000701537,0.0028487,-0.000602341,-0.209346,0.00212852,0.0108485,860,540,-0.980892,5.74633
-357,484,-0.996033,-5.95831,0.00328816,-0.000501614,-0.00108581,0.00357721,-0.000790662,-0.260172,0.00268742,0.0118013,867,540,-0.996049,5.95834
-350,484,-0.987366,-6.15326,0.00397353,-0.000488078,-0.00134198,0.00434607,-0.000860617,-0.270786,0.00322279,0.0142823,874,540,-0.987339,6.15327
-343,484,-0.980347,-6.37189,0.00453145,-0.000329197,-0.00141472,0.00491322,-0.000710976,-0.263582,0.00353638,0.0212846,881,540,-0.980364,6.3719
-336,484,-0.949524,-6.56433,0.0051507,-0.000195907,-0.00159703,0.00559141,-0.000636614,-0.269253,0.00395692,0.0240847,888,540,-0.949526,6.56432
-329,484,-0.932983,-6.72137,0.00593658,0.000191715,-0.00195615,0.0065394,-0.000411106,-0.298933,0.0045029,0.0297401,895,540,-0.932969,6.7214
-322,484,-0.829102,-7.00763,0.00666996,0.00048879,-0.00236744,0.00747251,-0.000313759,-0.326837,0.00508948,0.0361401,902,540,-0.829088,7.0076
-315,484,-0.790955,-7.23694,0,0,0,0,0,0,0,-1,909,540,-0.79094,7.23695
-308,484,-0.480835,-7.29895,0,0,0,0,0,0,0,-1,916,540,-0.480819,7.29892
-301,484,-1.33453,-6.52667,0,0,0,0,0,0,0,-1,923,540,-1.33454,6.5267
-294,484,-1.61224,-8.17059,0,0,0,0,0,0,0,-1,930,540,-1.61227,8.17058
-287,484,-0.715759,-5.62103,0,0,0,0,0,0,0,-1,937,540,-0.715772,5.62105
-280,484,2.66742,-1.6795,0,0,0,0,0,0,0,-1,944,540,2.6674,1.67949
-273,484,2.53125,-2.22296,0,0,0,0,0,0,0,-1,951,540,2.53128,2.22295
-266,484,2.6778,-2.72058,0,0,0,0,0,0,0,-1,958,540,2.6778,2.72061
-259,484,2.41718,-2.59894,0,0,0,0,0,0,0,-1,965,540,2.41717,2.59892
-252,484,10.6069,-11.696,0,0,0,0,0,0,0,-1,972,540,10.6069,11.696
-245,484,8.0415,-9.22931,0,0,0,0,0,0,0,-1,979,540,8.0415,9.2293
-238,484,5.56836,-6.82672,0,0,0,0,0,0,0,-1,986,540,5.56834,6.82672
-231,484,3.39185,-3.8576,0,0,0,0,0,0,0,-1,993,540,3.39183,3.85763
-224,484,1.14313,-1.21228,0,0,0,0,0,0,0,-1,1000,540,1.14312,1.21226
-217,484,-0.745056,1.17358,0,0,0,0,0,0,0,-1,1007,540,-0.745043,-1.17359
-210,484,0,0,0,0,0,0,0,0,0,-1,1014,540,0,0
-203,484,0,0,0,0,0,0,0,0,0,-1,1021,540,0,0
-196,484,0,0,0,0,0,0,0,0,0,-1,1028,540,0,0
-189,484,0,0,0,0,0,0,0,0,0,-1,1035,540,0,0
-182,484,0,0,0,0,0,0,0,0,0,-1,1042,540,0,0
-175,484,0,0,0,0,0,0,0,0,0,-1,1049,540,0,0
-168,484,0,0,0,0,0,0,0,0,0,-1,1056,540,0,0
-161,484,0,0,0,0,0,0,0,0,0,-1,1063,540,0,0
-154,484,0,0,0,0,0,0,0,0,0,-1,1070,540,0,0
-147,484,0,0,0,0,0,0,0,0,0,-1,1077,540,0,0
-140,484,0,0,0,0,0,0,0,0,0,-1,1084,540,0,0
-133,484,0,0,0,0,0,0,0,0,0,-1,1091,540,0,0
-126,484,0,0,0,0,0,0,0,0,0,-1,1098,540,0,0
-119,484,0,0,0,0,0,0,0,0,0,-1,1105,540,0,0
-112,484,0,0,0,0,0,0,0,0,0,-1,1112,540,0,0
-105,484,0,0,0,0,0,0,0,0,0,-1,1119,540,0,0
-98,484,0,0,0,0,0,0,0,0,0,-1,1126,540,0,0
-91,484,0,0,0,0,0,0,0,0,0,-1,1133,540,0,0
-84,484,0,0,0,0,0,0,0,0,0,-1,1140,540,0,0
-77,484,0,0,0,0,0,0,0,0,0,-1,1147,540,0,0
-70,484,0,0,0,0,0,0,0,0,0,-1,1154,540,0,0
-63,484,0,0,0,0,0,0,0,0,0,-1,1161,540,0,0
-56,484,0,0,0,0,0,0,0,0,0,-1,1168,540,0,0
-49,484,0,0,0,0,0,0,0,0,0,-1,1175,540,0,0
-42,484,0,0,0,0,0,0,0,0,0,-1,1182,540,0,0
-35,484,0,0,0,0,0,0,0,0,0,-1,1189,540,0,0
-28,484,0,0,0,0,0,0,0,0,0,-1,1196,540,0,0
-21,484,0,0,0,0,0,0,0,0,0,-1,1203,540,0,0
-14,484,0,0,0,0,0,0,0,0,0,-1,1210,540,0,0
-7,484,0,0,0,0,0,0,0,0,0,-1,1217,540,0,0
0,484,0,0,0,0,0,0,0,0,0,-1,1224,540,0,0
7,484,0,0,0,0,0,0,0,0,0,-1,1231,540,0,0
14,484,0,0,0,0,0,0,0,0,0,-1,1238,540,0,0
21,484,0,0,0,0,0,0,0,0,0,-1,1245,540,0,0
28,484,0,0,0,0,0,0,0,0,0,-1,1252,540,0,0
35,484,0,0,0,0,0,0,0,0,0,-1,1259,540,0,0
42,484,0,0,0,0,0,0,0,0,0,-1,1266,540,0,0
49,484,0,0,0,0,0,0,0,0,0,-1,1273,540,0,0
56,484,0,0,0,0,0,0,0,0,0,-1,1280,540,0,0
63,484,0,0,0,0,0,0,0,0,0,-1,1287,540,0,0
70,484,0,0,0,0,0,0,0,0,0,-1,1294,540,0,0
77,484,0,0,0,0,0,0,0,0,0,-1,1301,540,0,0
84,484,0,0,0,0,0,0,0,0,0,-1,1308,540,0,0
91,484,0,0,0,0,0,0,0,0,0,-1,1315,540,0,0
98,484,0,0,0,0,0,0,0,0,0,-1,1322,540,0,0
105,484,0,0,0,0,0,0,0,0,0,-1,1329,540,0,0
112,484,0,0,0,0,0,0,0,0,0,-1,1336,540,0,0
119,484,0,0,0,0,0,0,0,0,0,-1,1343,540,0,0
126,484,0,0,0,0,0,0,0,0,0,-1,1350,540,0,0
133,484,0,0,0,0,0,0,0,0,0,-1,1357,540,0,0
140,484,0,0,0,0,0,0,0,0,0,-1,1364,540,0,0
147,484,0,0,0,0,0,0,0,0,0,-1,1371,540,0,0
154,484,0,0,0,0,0,0,0,0,0,-1,1378,540,0,0
161,484,0,0,0,0,0,0,0,0,0,-1,1385,540,0,0
168,484,0,0,0,0,0,0,0,0,0,-1,1392,540,0,0
175,484,0,0,0,0,0,0,0,0,0,-1,1399,540,0,0
182,484,0,0,0,0,0,0,0,0,0,-1,1406,540,0,0
189,484,0,0,0,0,0,0,0,0,0,-1,1413,540,0,0
196,484,0,0,0,0,0,0,0,0,0,-1,1420,540,0,0
203,484,0,0,0,0,0,0,0,0,0,-1,1427,540,0,0
210,484,0,0,0,0,0,0,0,0,0,-1,1434,540,0,0
217,484,0,0,0,0,0,0,0,0,0,-1,1441,540,0,0
224,484,0,0,0,0,0,0,0,0,0,-1,1448,540,0,0
231,484,0,0,0,0,0,0,0,0,0,-1,1455,540,0,0
238,484,0,0,0,0,0,0,0,0,0,-1,1462,540,0,0
245,484,0,0,0,0,0,0,0,0,0,-1,1469,540,0,0
252,484,0,0,0,0,0,0,0,0,0,-1,1476,540,0,0
259,484,0,0,0,0,0,0,0,0,0,-1,1483,540,0,0
266,484,0,0,0,0,0,0,0,0,0,-1,1490,540,0,0
273,484,0,0,0,0,0,0,0,0,0,-1,1497,540,0,0
280,484,0,0,0,0,0,0,0,0,0,-1,1504,540,0,0
287,484,0,0,0,0,0,0,0,0,0,-1,1511,540,0,0
294,484,0,0,0,0,0,0,0,0,0,-1,1518,540,0,0
301,484,0,0,0,0,0,0,0,0,0,-1,1525,540,0,0
308,484,0,0,0,0,0,0,0,0,0,-1,1532,540,0,0
315,484,0,0,0,0,0,0,0,0,0,-1,1539,540,0,0
322,484,0,0,0,0,0,0,0,0,0,-1,1546,540,0,0
329,484,0,0,0,0,0,0,0,0,0,-1,1553,540,0,0
336,484,4.38708,-1.64136,0,0,0,0,0,0,0,-1,1560,540,4.38704,1.64138
343,484,7.57996,-1.05457,0,0,0,0,0,0,0,-1,1567,540,7.57995,1.05454
350,484,8.10425,-1.18878,0,0,0,0,0,0,0,-1,1574,540,8.1043,1.18877
357,484,7.74902,-3.80286,0,0,0,0,0,0,0,-1,1581,540,7.74901,3.80287
364,484,6.31262,-3.87213,0,0,0,0,0,0,0,-1,1588,540,6.31263,3.87215
371,484,7.21008,0.973511,0,0,0,0,0,0,0,-1,1595,540,7.21014,-0.973541
378,484,11.0563,1.5014,0,0,0,0,0,0,0,-1,1602,540,11.0563,-1.5014
385,484,14.3469,2.5545,0,0,0,0,0,0,0,-1,1609,540,14.3469,-2.55453
392,484,7.39453,-4.95026,0,0,0,0,0,0,0,-1,1616,540,7.39448,4.95023
399,484,7.14417,-2.5639,0,0,0,0,0,0,0,-1,1623,540,7.14417,2.56391
406,484,7.88953,-2.47321,0,0,0,0,0,0,0,-1,1630,540,7.88954,2.47323
413,484,4.4895,-1.08673,0,0,0,0,0,0,0,-1,1637,540,4.48952,1.08674
420,484,4.50012,-2.11255,0,0,0,0,0,0,0,-1,1644,540,4.50012,2.11256
427,484,5.28601,-3.54053,0,0,0,0,0,0,0,-1,1651,540,5.28599,3.54051
434,484,6.24805,-5.95001,0,0,0,0,0,0,0,-1,1658,540,6.24803,5.95004
441,484,6.01147,-5.93152,0,0,0,0,0,0,0,-1,1665,540,6.01149,5.93153
448,484,5.98242,-5.65857,-0.00421841,0.00206638,-0.00580318,0.00552334,-0.00767537,-1.03354,0.00765397,0.0413574,1672,540,5.98242,5.65859
455,484,5.88623,-5.44507,-0.00286337,0.00207696,-0.00378712,0.0041283,-0.00491471,-1.07438,0.00522756,0.0209161,1679,540,5.88624,5.44509
462,484,5.87817,-5.2533,-0.00191379,0.00162435,-0.00211404,0.00261186,-0.00290131,-1.13379,0.00318449,0.0152337,1686,540,5.87823,5.25328
469,484,5.88611,-5.03705,-0.000693581,0.00101319,-0.000949394,0.00143637,-0.00111676,-1.15149,0.00147789,0.0166168,1693,540,5.88613,5.03702
476,484,5.89282,-4.79913,0.000265998,0.000969296,-0.00045443,0.00119225,4.30484e-05,-1.11469,0.000780877,0.0150511,1700,540,5.89278,4.79916
483,484,5.89978,-4.5614,0.000654894,0.00104924,-7.65178e-05,0.00106357,0.000640567,-1.38571,0.000618319,0.0117959,1707,540,5.89973,4.56138
490,484,5.89758,-4.36035,0.000786692,0.00122107,0.000227514,0.00131842,0.000689343,1.16649,0.000761454,0.0117911,1714,540,5.89764,4.36038
497,484,5.88269,-4.17297,0.000435028,0.00153,0.000362439,0.0016391,0.00032593,1.27841,0.00100192,0.01351,1721,540,5.88274,4.17298
504,484,5.88477,-3.93976,-0.000224576,0.00236224,0.000484315,0.00244994,-0.000312279,1.39165,0.00174672,0.0158397,1728,540,5.8848,3.93974
511,484,5.90405,-3.70477,-0.00115295,0.00321143,0.000547991,0.00327918,-0.0012207,1.44778,0.00268709,0.0184247,1735,540,5.90411,3.70477
518,484,5.88977,-3.46741,-0.00247208,0.00427648,0.000513199,0.00431528,-0.00251089,1.49533,0.00398672,0.0153823,1742,540,5.88972,3.46739
525,484,5.88452,-3.22284,-0.00406506,0.00560579,0.000393108,0.00562174,-0.00408101,1.53024,0.00562538,0.0127788,1749,540,5.88448,3.22285
532,484,5.92444,-2.98712,-0.00580723,0.00726295,0.000339083,0.00727174,-0.00581602,1.54488,0.00757179,0.0147254,1756,540,5.92442,2.98715
539,484,5.9093,-2.72125,-0.00763321,0.00924297,0.000375293,0.00925131,-0.00764155,1.54857,0.00976785,0.0203613,1763,540,5.90933,2.72127
546,484,5.82056,-2.52051,-0.00945652,0.0115294,0.000510872,0.0115418,-0.00946895,1.54647,0.0121502,0.0225543,1770,540,5.82056,2.52051
553,484,5.40796,-1.83429,-0.0113225,0.0139885,0.000647887,0.014005,-0.0113391,1.54522,0.0146594,0.0357047,1777,540,5.40795,1.83432
560,484,5.58972,-0.927307,0,0,0,0,0,0,0,-1,1784,540,5.58977,0.927295
567,484,5.46484,-0.0122681,0,0,0,0,0,0,0,-1,1791,540,5.46481,0.0122863
574,484,5.74463,1.50922,0,0,0,0,0,0,0,-1,1798,540,5.74463,-1.50924
581,484,10.34,2.9491,0,0,0,0,0,0,0,-1,1805,540,10.34,-2.94912
588,484,10.6669,2.88568,0,0,0,0,0,0,0,-1,1812,540,10.6669,-2.88567
595,484,10.7233,1.04767,0,0,0,0,0,0,0,-1,1819,540,10.7233,-1.04766
602,484,0,0,0,0,0,0,0,0,0,-1,1826,540,0,0
609,484,0,0,0,0,0,0,0,0,0,-1,1833,540,0,0
616,484,0,0,0,0,0,0,0,0,0,-1,1840,540,0,0
623,484,0,0,0,0,0,0,0,0,0,-1,1847,540,0,0
630,484,0,0,0,0,0,0,0,0,0,-1,1854,540,0,0
637,484,0,0,0,0,0,0,0,0,0,-1,1861,540,0,0
644,484,0,0,0,0,0,0,0,0,0,-1,1868,540,0,0
651,484,0,0,0,0,0,0,0,0,0,-1,1875,540,0,0
658,484,0,0,0,0,0,0,0,0,0,-1,1882,540,0,0
665,484,0,0,0,0,0,0,0,0,0,-1,1889,540,0,0
672,484,0,0,0,0,0,0,0,0,0,-1,1896,540,0,0
679,484,0,0,0,0,0,0,0,0,0,-1,1903,540,0,0
686,484,0,0,0,0,0,0,0,0,0,-1,1910,540,0,0
693,484,0,0,0,0,0,0,0,0,0,-1,1917,540,0,0
700,484,0,0,0,0,0,0,0,0,0,-1,1924,540,0,0
707,484,0,0,0,0,0,0,0,0,0,-1,1931,540,0,0
714,484,0,0,0,0,0,0,0,0,0,-1,1938,540,0,0
721,484,0,0,0,0,0,0,0,0,0,-1,1945,540,0,0
728,484,0,0,0,0,0,0,0,0,0,-1,1952,540,0,0
735,484,0,0,0,0,0,0,0,0,0,-1,1959,540,0,0
742,484,0,0,0,0,0,0,0,0,0,-1,1966,540,0,0
749,484,0,0,0,0,0,0,0,0,0,-1,1973,540,0,0
756,484,0,0,0,0,0,0,0,0,0,-1,1980,540,0,0
763,484,0,0,0,0,0,0,0,0,0,-1,1987,540,0,0
770,484,0,0,0,0,0,0,0,0,0,-1,1994,540,0,0
777,484,0,0,0,0,0,0,0,0,0,-1,2001,540,0,0
784,484,0,0,0,0,0,0,0,0,0,-1,2008,540,0,0
791,484,0,0,0,0,0,0,0,0,0,-1,2015,540,0,0
798,484,0,0,0,0,0,0,0,0,0,-1,2022,540,0,0
805,484,0,0,0,0,0,0,0,0,0,-1,2029,540,0,0
812,484,0,0,0,0,0,0,0,0,0,-1,2036,540,0,0
-700,477,0,0,0,0,0,0,0,0,0,-1,524,547,0,0
-693,477,0,0,0,0,0,0,0,0,0,-1,531,547,0,0
-686,477,0,0,0,0,0,0,0,0,0,-1,538,547,0,0
-679,477,0,0,0,0,0,0,0,0,0,-1,545,547,0,0
-672,477,0,0,0,0,0,0,0,0,0,-1,552,547,0,0
-665,477,0,0,0,0,0,0,0,0,0,-1,559,547,0,0
-658,477,0,0,0,0,0,0,0,0,0,-1,566,547,0,0
-651,477,0,0,0,0,0,0,0,0,0,-1,573,547,0,0
-644,477,0,0,0,0,0,0,0,0,0,-1,580,547,0,0
-637,477,0,0,0,0,0,0,0,0,0,-1,587,547,0,0
-630,477,0,0,0,0,0,0,0,0,0,-1,594,547,0,0
-623,477,0,0,0,0,0,0,0,0,0,-1,601,547,0,0
-616,477,0,0,0,0,0,0,0,0,0,-1,608,547,0,0
-609,477,0,0,0,0,0,0,0,0,0,-1,615,547,0,0
-602,477,0,0,0,0,0,0,0,0,0,-1,622,547,0,0
-595,477,0,0,0,0,0,0,0,0,0,-1,629,547,0,0
-588,477,0,0,0,0,0,0,0,0,0,-1,636,547,0,0
-581,477,0,0,0,0,0,0,0,0,0,-1,643,547,0,0
-574,477,0,0,0,0,0,0,0,0,0,-1,650,547,0,0
-567,477,0,0,0,0,0,0,0,0,0,-1,657,547,0,0
-560,477,0,0,0,0,0,0,0,0,0,-1,664,547,0,0
-553,477,0,0,0,0,0,0,0,0,0,-1,671,547,0,0
-546,477,0,0,0,0,0,0,0,0,0,-1,678,547,0,0
-539,477,0,0,0,0,0,0,0,0,0,-1,685,547,0,0
-532,477,0,0,0,0,0,0,0,0,0,-1,692,547,0,0
-525,477,0,0,0,0,0,0,0,0,0,-1,699,547,0,0
-518,477,0,0,0,0,0,0,0,0,0,-1,706,547,0,0
-511,477,0,0,0,0,0,0,0,0,0,-1,713,547,0,0
-504,477,0,0,0,0,0,0,0,0,0,-1,720,547,0,0
-497,477,0,0,0,0,0,0,0,0,0,-1,727,547,0,0
-490,477,0,0,0,0,0,0,0,0,0,-1,734,547,0,0
-483,477,-8.30969,1.16516,0,0,0,0,0,0,0,-1,741,547,-8.30969,-1.16514
-476,477,-7.90381,1.0343,0,0,0,0,0,0,0,-1,748,547,-7.90384,-1.03432
-469,477,-7.29449,0.745605,0,0,0,0,0,0,0,-1,755,547,-7.2945,-0.745633
-462,477,-6.69519,0.245605,0,0,0,0,0,0,0,-1,762,547,-6.69519,-0.245597
-455,477,-6.28265,-0.226318,0,0,0,0,0,0,0,-1,769,547,-6.28263,0.226343
-448,477,-5.30103,-1.02991,0,0,0,0,0,0,0,-1,776,547,-5.30104,1.02993
-441,477,-1.52618,-3.00787,0,0,0,0,0,0,0,-1,783,547,-1.52619,3.00787
-434,477,-1.31769,-3.45544,0.010773,0.0210131,0.00215829,0.0214494,0.0103367,1.37133,0.0123865,0.0416134,790,547,-1.31766,3.45545
-427,477,-1.12921,-3.82581,0.00693065,0.0154215,0.00265697,0.0161844,0.00616777,1.29119,0.00943172,0.0216233,797,547,-1.1292,3.82578
-420,477,-1.19879,-3.9762,0.00473473,0.0113794,0.0024692,0.0121965,0.00391765,1.25123,0.00719016,0.0183054,804,547,-1.19881,3.97617
-413,477,-1.20178,-4.23535,0.00345427,0.00824278,0.00207725,0.00901829,0.00267876,1.21349,0.00534779,0.0156544,811,547,-1.20177,4.23532
-406,477,-1.18494,-4.47583,0.00270845,0.00587147,0.00156125,0.00651227,0.00206764,1.18132,0.00384244,0.0114241,818,547,-1.18496,4.47582
-399,477,-1.17493,-4.72443,0.00223328,0.00392637,0.00110695,0.00447338,0.00168627,1.11184,0.00260864,0.0181886,825,547,-1.17495,4.72446
-392,477,-1.19153,-4.93097,0.00197664,0.00232125,0.000623471,0.00279579,0.0015021,0.920212,0.00161564,0.0162089,832,547,-1.1915,4.93097
-385,477,-1.18402,-5.10181,0.00192444,0.000942091,0.000247928,0.00198347,0.000883065,0.233727,0.00114744,0.0133,839,547,-1.18402,5.1018
-378,477,-1.17688,-5.32782,0.00202911,0.000342846,4.84656e-05,0.0020305,0.000341455,0.0287099,0.00125542,0.0121266,846,547,-1.17691,5.32783
-371,477,-1.18439,-5.53937,0.00228155,-0.000238302,-0.000196951,0.00229685,-0.000253603,-0.0775326,0.00162239,0.0123793,853,547,-1.18438,5.53939
-364,477,-1.19739,-5.73322,0.00281932,-0.000557625,-0.000509553,0.00289453,-0.000632837,-0.146546,0.00217159,0.0120037,860,547,-1.19738,5.73319
-357,477,-1.19098,-5.94116,0.00369381,-0.000681639,-0.000823524,0.00384367,-0.000831505,-0.180012,0.00287991,0.00968038,867,547,-1.191,5.94114
-350,477,-1.19281,-6.14563,0.00463824,-0.000765218,-0.00109612,0.00485212,-0.000979105,-0.192709,0.0036057,0.00996444,874,547,-1.19283,6.14566
-343,477,-1.12866,-6.36108,0.00543072,-0.000692545,-0.00124871,0.00567557,-0.000937403,-0.193632,0.00413178,0.0184996,881,547,-1.12869,6.36108
-336,477,-1.04852,-6.58862,0.00634268,-0.000616962,-0.00153598,0.00666659,-0.000940875,-0.207838,0.00478893,0.0274226,888,547,-1.04853,6.5886
-329,477,-0.995239,-6.86755,0.00749847,-0.000233848,-0.00207692,0.00802102,-0.000756399,-0.246483,0.00561648,0.0477583,895,547,-0.995214,6.86755
-322,477,-1.00269,-7.20776,0,0,0,0,0,0,0,-1,902,547,-1.00268,7.20776
-315,477,-1.41577,-7.47571,0,0,0,0,0,0,0,-1,909,547,-1.41579,7.47572
-308,477,-1.30127,-6.55188,0,0,0,0,0,0,0,-1,916,547,-1.30128,6.55185
-301,477,-1.21185,-6.28351,0,0,0,0,0,0,0,-1,923,547,-1.21184,6.28352
-294,477,-0.352905,3.27142,0,0,0,0,0,0,0,-1,930,547,-0.35292,-3.27144
-287,477,3.54364,2.15399,0,0,0,0,0,0,0,-1,937,547,3.54362,-2.15396
-280,477,1.97308,-0.954163,0,0,0,0,0,0,0,-1,944,547,1.9731,0.954178
-273,477,2.11621,-3.76709,0,0,0,0,0,0,0,-1,951,547,2.11619,3.76706
-266,477,2.04669,-3.42389,0,0,0,0,0,0,0,-1,958,547,2.04671,3.42391
-259,477,-1.33478,-3.41205,0,0,0,0,0,0,0,-1,965,547,-1.3348,3.41206
-252,477,0.597168,-5.32922,0,0,0,0,0,0,0,-1,972,547,0.597144,5.32924
-245,477,2.27161,-7.02875,0,0,0,0,0,0,0,-1,979,547,2.27158,7.02873
-238,477,7.29095,-4.50336,0,0,0,0,0,0,0,-1,986,547,7.29093,4.50335
-231,477,4.88141,-2.23413,0,0,0,0,0,0,0,-1,993,547,4.88143,2.23413
-224,477,0,0,0,0,0,0,0,0,0,-1,1000,547,0,0
-217,477,0,0,0,0,0,0,0,0,0,-1,1007,547,0,0
-210,477,0,0,0,0,0,0,0,0,0,-1,1014,547,0,0
-203,477,0,0,0,0,0,0,0,0,0,-1,1021,547,0,0
-196,477,0,0,0,0,0,0,0,0,0,-1,1028,547,0,0
-189,477,0,0,0,0,0,0,0,0,0,-1,1035,547,0,0
-182,477,0,0,0,0,0,0,0,0,0,-1,1042,547,0,0
-175,477,0,0,0,0,0,0,0,0,0,-1,1049,547,0,0
-168,477,0,0,0,0,0,0,0,0,0,-1,1056,547,0,0
-161,477,0,0,0,0,0,0,0,0,0,-1,1063,547,0,0
-154,477,0,0,0,0,0,0,0,0,0,-1,1070,547,0,0
-147,477,0,0,0,0,0,0,0,0,0,-1,1077,547,0,0
-140,477,0,0,0,0,0,0,0,0,0,-1,1084,547,0,0
-133,477,0,0,0,0,0,0,0,0,0,-1,1091,547,0,0
-126,477,0,0,0,0,0,0,0,0,0,-1,1098,547,0,0
-119,477,0,0,0,0,0,0,0,0,0,-1,1105,547,0,0
-112,477,0,0,0,0,0,0,0,0,0,-1,1112,547,0,0
-105,477,0,0,0,0,0,0,0,0,0,-1,1119,547,0,0
-98,477,0,0,0,0,0,0,0,0,0,-1,1126,547,0,0
-91,477,0,0,0,0,0,0,0,0,0,-1,1133,547,0,0
-84,477,0,0,0,0,0,0,0,0,0,-1,1140,547,0,0
-77,477,0,0,0,0,0,0,0,0,0,-1,1147,547,0,0
-70,477,0,0,0,0,0,0,0,0,0,-1,1154,547,0,0
-63,477,0,0,0,0,0,0,0,0,0,-1,1161,547,0,0
-56,477,0,0,0,0,0,0,0,0,0,-1,1168,547,0,0
-49,477,0,0,0,0,0,0,0,0,0,-1,1175,547,0,0
-42,477,0,0,0,0,0,0,0,0,0,-1,1182,547,0,0
-35,477,0,0,0,0,0,0,0,0,0,-1,1189,547,0,0
-28,477,0,0,0,0,0,0,0,0,0,-1,1196,547,0,0
-21,477,0,0,0,0,0,0,0,0,0,-1,1203,547,0,0
-14,477,0,0,0,0,0,0,0,0,0,-1,1210,547,0,0
-7,477,0,0,0,0,0,0,0,0,0,-1,1217,547,0,0
0,477,0,0,0,0,0,0,0,0,0,-1,1224,547,0,0
7,477,0,0,0,0,0,0,0,0,0,-1,1231,547,0,0
14,477,0,0,0,0,0,0,0,0,0,-1,1238,547,0,0
21,477,0,0,0,0,0,0,0,0,0,-1,1245,547,0,0
28,477,0,0,0,0,0,0,0,0,0,-1,1252,547,0,0
35,477,0,0,0,0,0,0,0,0,0,-1,1259,547,0,0
42,477,0,0,0,0,0,0,0,0,0,-1,1266,547,0,0
49,477,0,0,0,0,0,0,0,0,0,-1,1273,547,0,0
56,477,0,0,0,0,0,0,0,0,0,-1,1280,547,0,0
63,477,0,0,0,0,0,0,0,0,0,-1,1287,547,0,0
70,477,0,0,0,0,0,0,0,0,0,-1,1294,547,0,0
77,477,0,0,0,0,0,0,0,0,0,-1,1301,547,0,0
84,477,0,0,0,0,0,0,0,0,0,-1,1308,547,0,0
91,477,0,0,0,0,0,0,0,0,0,-1,1315,547,0,0
98,477,0,0,0,0,0,0,0,0,0,-1,1322,547,0,0
105,477,0,0,0,0,0,0,0,0,0,-1,1329,547,0,0
112,477,0,0,0,0,0,0,0,0,0,-1,1336,547,0,0
119,477,0,0,0,0,0,0,0,0,0,-1,1343,547,0,0
126,477,0,0,0,0,0,0,0,0,0,-1,1350,547,0,0
133,477,0,0,0,0,0,0,0,0,0,-1,1357,547,0,0
140,477,0,0,0,0,0,0,0,0,0,-1,1364,547,0,0
147,477,0,0,0,0,0,0,0,0,0,-1,1371,547,0,0
154,477,0,0,0,0,0,0,0,0,0,-1,1378,547,0,0
161,477,0,0,0,0,0,0,0,0,0,-1,1385,547,0,0
168,477,0,0,0,0,0,0,0,0,0,-1,1392,547,0,0
175,477,0,0,0,0,0,0,0,0,0,-1,1399,547,0,0
182,477,0,0,0,0,0,0,0,0,0,-1,1406,547,0,0
189,477,0,0,0,0,0,0,0,0,0,-1,1413,547,0,0
196,477,0,0,0,0,0,0,0,0,0,-1,1420,547,0,0
203,477,0,0,0,0,0,0,0,0,0,-1,1427,547,0,0
210,477,0,0,0,0,0,0,0,0,0,-1,1434,547,0,0
217,477,0,0,0,0,0,0,0,0,0,-1,1441,547,0,0
224,477,0,0,0,0,0,0,0,0,0,-1,1448,547,0,0
231,477,0,0,0,0,0,0,0,0,0,-1,1455,547,0,0
238,477,0,0,0,0,0,0,0,0,0,-1,1462,547,0,0
245,477,0,0,0,0,0,0,0,0,0,-1,1469,547,0,0
252,477,0,0,0,0,0,0,0,0,0,-1,1476,547,0,0
259,477,0,0,0,0,0,0,0,0,0,-1,1483,547,0,0
266,477,0,0,0,0,0,0,0,0,0,-1,1490,547,0,0
273,477,0,0,0,0,0,0,0,0,0,-1,1497,547,0,0
280,477,0,0,0,0,0,0,0,0,0,-1,1504,547,0,0
287,477,0,0,0,0,0,0,0,0,0,-1,1511,547,0,0
294,477,0,0,0,0,0,0,0,0,0,-1,1518,547,0,0
301,477,0,0,0,0,0,0,0,0,0,-1,1525,547,0,0
308,477,0,0,0,0,0,0,0,0,0,-1,1532,547,0,0
315,477,0,0,0,0,0,0,0,0,0,-1,1539,547,0,0
322,477,0,0,0,0,0,0,0,0,0,-1,1546,547,0,0
329,477,0,0,0,0,0,0,0,0,0,-1,1553,547,0,0
336,477,0,0,0,0,0,0,0,0,0,-1,1560,547,0,0
343,477,0,0,0,0,0,0,0,0,0,-1,1567,547,0,0
350,477,1.7699,-3.32275,0,0,0,0,0,0,0,-1,1574,547,1.7699,3.32272
357,477,3.073,-4.83313,0,0,0,0,0,0,0,-1,1581,547,3.07303,4.83316
364,477,4.30127,-4.22864,0,0,0,0,0,0,0,-1,1588,547,4.30125,4.22865
371,477,4.57703,0.283264,0,0,0,0,0,0,0,-1,1595,547,4.57706,-0.283262
378,477,8.57947,1.05969,0,0,0,0,0,0,0,-1,1602,547,8.5795,-1.05972
385,477,12.3726,2.02356,0,0,0,0,0,0,0,-1,1609,547,12.3725,-2.02355
392,477,16.4678,2.76843,0,0,0,0,0,0,0,-1,1616,547,16.4678,-2.76845
399,477,8.00037,-2.29523,0,0,0,0,0,0,0,-1,1623,547,8.00031,2.2952
406,477,4.82495,2.7475,0,0,0,0,0,0,0,-1,1630,547,4.825,-2.74752
413,477,4.88171,-0.336426,0,0,0,0,0,0,0,-1,1637,547,4.88169,0.336398
420,477,3.34875,0.102722,0,0,0,0,0,0,0,-1,1644,547,3.34871,-0.1027
427,477,1.66772,-0.373108,0,0,0,0,0,0,0,-1,1651,547,1.66768,0.373104
434,477,3.76978,-2.30798,0,0,0,0,0,0,0,-1,1658,547,3.76974,2.30801
441,477,4.05444,-2.80402,0,0,0,0,0,0,0,-1,1665,547,4.05444,2.804
448,477,6.4353,-5.46301,0,0,0,0,0,0,0,-1,1672,547,6.43532,5.463
455,477,6.27185,-5.42017,-0.00331905,0.00284137,-0.00427881,0.00503334,-0.00551102,-1.09737,0.00608987,0.0490481,1679,547,6.2718,5.42014
462,477,6.12231,-5.29584,-0.00198949,0.00246034,-0.00220579,0.00336843,-0.00289759,-1.18025,0.00362109,0.0341959,1686,547,6.1223,5.29584
469,477,6.12292,-5.02228,-0.000447619,0.00186407,-0.000859893,0.00214885,-0.000732397,-1.25099,0.0017292,0.0208676,1693,547,6.12296,5.02229
476,477,6.1134,-4.8006,0.000807761,0.00167134,-0.000232231,0.00172983,0.000749272,-1.32407,0.00100169,0.0162286,1700,547,6.11344,4.8006
483,477,6.13428,-4.57251,0.00132502,0.00142945,0.000205912,0.00158966,0.0011648,0.909575,0.000950356,0.0115641,1707,547,6.13427,4.57252
490,477,6.12415,-4.35596,0.00157177,0.00132218,0.000523461,0.00198511,0.000908843,0.668378,0.00114746,0.011557,1714,547,6.12418,4.35597
497,477,6.1178,-4.14215,0.00132996,0.00119607,0.000595389,0.00186215,0.000663871,0.729413,0.00108977,0.0130793,1721,547,6.11786,4.14214
504,477,6.11096,-3.93323,0.000754449,0.00145329,0.000611771,0.00180839,0.000399341,1.04487,0.00109699,0.0171974,1728,547,6.11098,3.93322
511,477,6.16138,-3.73138,-7.62547e-05,0.00183629,0.000601618,0.0020098,-0.000249761,1.29002,0.00143041,0.0215972,1735,547,6.16138,3.73138
518,477,6.13232,-3.45917,-0.00128443,0.00241826,0.000466558,0.00247615,-0.00134232,1.44736,0.00223675,0.0185441,1742,547,6.13234,3.45917
525,477,6.10254,-3.19769,-0.00272847,0.00326835,0.000247068,0.00327852,-0.00273863,1.52969,0.00347866,0.0156859,1749,547,6.10252,3.19767
532,477,6.11414,-2.99835,-0.00425935,0.00441839,8.7483e-05,0.00441927,-0.00426023,1.56072,0.00501139,0.018843,1756,547,6.11413,2.99834
539,477,6.10364,-2.7052,-0.00580407,0.00580363,-1.97807e-06,0.00580363,-0.00580407,-1.57063,0.00670171,0.0164398,1763,547,6.10367,2.7052
546,477,6.09851,-2.48694,-0.00725323,0.00745817,2.36626e-05,0.00745821,-0.00725326,1.56919,0.00849395,0.0184198,1770,547,6.09847,2.48694
553,477,6.11182,-2.26459,-0.00867457,0.00921099,4.16175e-05,0.00921109,-0.00867466,1.56847,0.0103279,0.0189712,1777,547,6.11183,2.26457
560,477,5.88831,-1.59509,0,0,0,0,0,0,0,-1,1784,547,5.88828,1.59508
567,477,6.64636,-1.43512,0,0,0,0,0,0,0,-1,1791,547,6.6464,1.43512
574,477,6.82593,-0.916992,0,0,0,0,0,0,0,-1,1798,547,6.82598,0.916977
581,477,9.29321,-0.557007,0,0,0,0,0,0,0,-1,1805,547,9.29324,0.55703
588,477,9.75195,0.422729,0,0,0,0,0,0,0,-1,1812,547,9.75198,-0.42273
595,477,9.89172,1.21326,0,0,0,0,0,0,0,-1,1819,547,9.89174,-1.21328
602,477,6.5271,-0.964417,0,0,0,0,0,0,0,-1,1826,547,6.52706,0.964427
609,477,0,0,0,0,0,0,0,0,0,-1,1833,547,0,0
616,477,0,0,0,0,0,0,0,0,0,-1,1840,547,0,0
623,477,0,0,0,0,0,0,0,0,0,-1,1847,547,0,0
630,477,0,0,0,0,0,0,0,0,0,-1,1854,547,0,0
637,477,0,0,0,0,0,0,0,0,0,-1,1861,547,0,0
644,477,0,0,0,0,0,0,0,0,0,-1,1868,547,0,0
651,477,0,0,0,0,0,0,0,0,0,-1,1875,547,0,0
658,477,0,0,0,0,0,0,0,0,0,-1,1882,547,0,0
665,477,0,0,0,0,0,0,0,0,0,-1,1889,547,0,0
672,477,0,0,0,0,0,0,0,0,0,-1,1896,547,0,0
679,477,0,0,0,0,0,0,0,0,0,-1,1903,547,0,0
686,477,0,0,0,0,0,0,0,0,0,-1,1910,547,0,0
693,477,0,0,0,0,0,0,0,0,0,-1,1917,547,0,0
700,477,0,0,0,0,0,0,0,0,0,-1,1924,547,0,0
707,477,0,0,0,0,0,0,0,0,0,-1,1931,547,0,0
714,477,0,0,0,0,0,0,0,0,0,-1,1938,547,0,0
721,477,0,0,0,0,0,0,0,0,0,-1,1945,547,0,0
728,477,0,0,0,0,0,0,0,0,0,-1,1952,547,0,0
735,477,0,0,0,0,0,0,0,0,0,-1,1959,547,0,0
742,477,0,0,0,0,0,0,0,0,0,-1,1966,547,0,0
749,477,0,0,0,0,0,0,0,0,0,-1,1973,547,0,0
756,477,0,0,0,0,0,0,0,0,0,-1,1980,547,0,0
763,477,0,0,0,0,0,0,0,0,0,-1,1987,547,0,0
770,477,0,0,0,0,0,0,0,0,0,-1,1994,547,0,0
777,477,0,0,0,0,0,0,0,0,0,-1,2001,547,0,0
784,477,0,0,0,0,0,0,0,0,0,-1,2008,547,0,0
791,477,0,0,0,0,0,0,0,0,0,-1,2015,547,0,0
798,477,0,0,0,0,0,0,0,0,0,-1,2022,547,0,0
805,477,0,0,0,0,0,0,0,0,0,-1,2029,547,0,0
812,477,0,0,0,0,0,0,0,0,0,-1,2036,547,0,0
-700,470,0,0,0,0,0,0,0,0,0,-1,524,554,0,0
-693,470,0,0,0,0,0,0,0,0,0,-1,531,554,0,0
-686,470,0,0,0,0,0,0,0,0,0,-1,538,554,0,0
-679,470,0,0,0,0,0,0,0,0,0,-1,545,554,0,0
-672,470,0,0,0,0,0,0,0,0,0,-1,552,554,0,0
-665,470,0,0,0,0,0,0,0,0,0,-1,559,554,0,0
-658,470,0,0,0,0,0,0,0,0,0,-1,566,554,0,0
-651,470,0,0,0,0,0,0,0,0,0,-1,573,554,0,0
-644,470,0,0,0,0,0,0,0,0,0,-1,580,554,0,0
-637,470,0,0,0,0,0,0,0,0,0,-1,587,554,0,0
-630,470,0,0,0,0,0,0,0,0,0,-1,594,554,0,0
-623,470,0,0,0,0,0,0,0,0,0,-1,601,554,0,0
-616,470,0,0,0,0,0,0,0,0,0,-1,608,554,0,0
-609,470,0,0,0,0,0,0,0,0,0,-1,615,554,0,0
-602,470,0,0,0,0,0,0,0,0,0,-1,622,554,0,0
-595,470,0,0,0,0,0,0,0,0,0,-1,629,554,0,0
-588,470,0,0,0,0,0,0,0,0,0,-1,636,554,0,0
-581,470,0,0,0,0,0,0,0,0,0,-1,643,554,0,0
-574,470,0,0,0,0,0,0,0,0,0,-1,650,554,0,0
-567,470,0,0,0,0,0,0,0,0,0,-1,657,554,0,0
-560,470,0,0,0,0,0,0,0,0,0,-1,664,554,0,0
-553,470,0,0,0,0,0,0,0,0,0,-1,671,554,0,0
-546,470,0,0,0,0,0,0,0,0,0,-1,678,554,0,0
-539,470,0,0,0,0,0,0,0,0,0,-1,685,554,0,0
-532,470,0,0,0,0,0,0,0,0,0,-1,692,554,0,0
-525,470,0,0,0,0,0,0,0,0,0,-1,699,554,0,0
-518,470,0,0,0,0,0,0,0,0,0,-1,706,554,0,0
-511,470,0,0,0,0,0,0,0,0,0,-1,713,554,0,0
-504,470,0,0,0,0,0,0,0,0,0,-1,720,554,0,0
-497,470,0,0,0,0,0,0,0,0,0,-1,727,554,0,0
-490,470,-10.0392,1.38037,0,0,0,0,0,0,0,-1,734,554,-10.0392,-1.38036
-483,470,-9.63336,3.56458,0,0,0,0,0,0,0,-1,741,554,-9.63337,-3.56456
-476,470,-8.63257,0.466431,0,0,0,0,0,0,0,-1,748,554,-8.63258,-0.466428
-469,470,-8.12396,0.151184,0,0,0,0,0,0,0,-1,755,554,-8.12395,-0.15119
-462,470,-7.31451,-0.536011,0,0,0,0,0,0,0,-1,762,554,-7.31449,0.535994
-455,470,-5.36963,-3.09192,0,0,0,0,0,0,0,-1,769,554,-5.36963,3.0919
-448,470,-1.71143,-2.90784,0,0,0,0,0,0,0,-1,776,554,-1.71141,2.90784
-441,470,-1.25983,-3.2309,0.0140171,0.0230352,-0.00277924,0.0238229,0.0132294,-1.29461,0.0137822,0.0478857,783,554,-1.25984,3.2309
-434,470,-1.29468,-3.62897,0.00936011,0.0175855,-0.00138877,0.0178136,0.00913196,-1.40797,0.0102858,0.0251696,790,554,-1.29468,3.629
-427,470,-1.39203,-3.85394,0.00540053,0.0127884,-0.000115104,0.0127902,0.00539873,-1.55522,0.00741424,0.0126011,797,554,-1.39203,3.85391
-420,470,-1.3891,-4.0694,0.00314545,0.00947236,0.000372459,0.00949421,0.0031236,1.5122,0.00558732,0.0128923,804,554,-1.38909,4.06938
-413,470,-1.39886,-4.2746,0.00196683,0.00695683,0.000507802,0.00700798,0.00191568,1.4704,0.00418232,0.0129189,811,554,-1.39887,4.27457
-406,470,-1.40912,-4.46954,0.00146059,0.00507843,0.000411903,0.00512473,0.00141428,1.45885,0.00305616,0.00972018,818,554,-1.40913,4.46957
-399,470,-1.37366,-4.69916,0.00124977,0.00341979,0.000323747,0.00346706,0.0012025,1.42581,0.00203277,0.0125182,825,554,-1.37366,4.69916
-392,470,-1.38342,-4.9245,0.00121593,0.00204411,0.000197001,0.00208858,0.00117146,1.34877,0.00120882,0.0131579,832,554,-1.38342,4.9245
-385,470,-1.38055,-5.10254,0.00141305,0.000884025,9.65827e-05,0.00143014,0.000866944,0.175045,0.000831874,0.0102959,839,554,-1.38054,5.10251
-378,470,-1.37665,-5.33734,0.00180442,0.000297873,5.47736e-05,0.0018064,0.000295884,0.0362933,0.00111876,0.0148127,846,554,-1.37667,5.33735
-371,470,-1.39172,-5.5271,0.00238421,-0.000248834,-8.2492e-05,0.0023868,-0.000251416,-0.0312886,0.00168128,0.0130674,853,554,-1.39171,5.5271
-364,470,-1.39368,-5.73523,0.00325481,-0.000564821,-0.000283513,0.00327574,-0.00058575,-0.0736871,0.00240299,0.0124907,860,554,-1.39365,5.73525
-357,470,-1.38464,-5.94824,0.00445329,-0.000808198,-0.000549753,0.00451012,-0.000865026,-0.103004,0.00333272,0.0121476,867,554,-1.38467,5.94823
-350,470,-1.388,-6.14862,0.00568973,-0.00104138,-0.000868015,0.00579987,-0.00115151,-0.126205,0.0043021,0.00985714,874,554,-1.38799,6.14863
-343,470,-1.31799,-6.36633,0.00682028,-0.00114108,-0.00109006,0.00696683,-0.00128764,-0.133643,0.00512794,0.0215659,881,554,-1.318,6.36633
-336,470,-1.12408,-6.6283,0,0,0,0,0,0,0,-1,888,554,-1.12406,6.62832
-329,470,-1.1662,-6.6817,0,0,0,0,0,0,0,-1,895,554,-1.16621,6.68167
-322,470,-1.52979,-6.97113,0,0,0,0,0,0,0,-1,902,554,-1.52977,6.97114
-315,470,-1.38586,-7.2218,0,0,0,0,0,0,0,-1,909,554,-1.38584,7.22178
-308,470,-1.39368,-6.68152,0,0,0,0,0,0,0,-1,916,554,-1.39369,6.68149
-301,470,-0.0340576,3.34888,0,0,0,0,0,0,0,-1,923,554,-0.0340496,-3.3489
-294,470,-1.18378,3.22266,0,0,0,0,0,0,0,-1,930,554,-1.18376,-3.22268
-287,470,-2.15454,3.2204,0,0,0,0,0,0,0,-1,937,554,-2.15452,-3.22037
-280,470,-3.00537,3.099,0,0,0,0,0,0,0,-1,944,554,-3.00536,-3.09898
-273,470,1.05981,-2.39728,0,0,0,0,0,0,0,-1,951,554,1.05983,2.39727
-266,470,-3.55084,-1.16742,0,0,0,0,0,0,0,-1,958,554,-3.55086,1.16744
-259,470,-2.06311,-2.73199,0,0,0,0,0,0,0,-1,965,554,-2.0631,2.732
-252,470,-0.369019,-4.24976,0,0,0,0,0,0,0,-1,972,554,-0.36901,4.24977
-245,470,1.10651,-6.29034,0,0,0,0,0,0,0,-1,979,554,1.1065,6.29033
-238,470,0,0,0,0,0,0,0,0,0,-1,986,554,0,0
-231,470,0,0,0,0,0,0,0,0,0,-1,993,554,0,0
-224,470,0,0,0,0,0,0,0,0,0,-1,1000,554,0,0
-217,470,0,0,0,0,0,0,0,0,0,-1,1007,554,0,0
-210,470,0,0,0,0,0,0,0,0,0,-1,1014,554,0,0
-203,470,0,0,0,0,0,0,0,0,0,-1,1021,554,0,0
-196,470,0,0,0,0,0,0,0,0,0,-1,1028,554,0,0
-189,470,0,0,0,0,0,0,0,0,0,-1,1035,554,0,0
-182,470,0,0,0,0,0,0,0,0,0,-1,1042,554,0,0
-175,470,0,0,0,0,0,0,0,0,0,-1,1049,554,0,0
-168,470,0,0,0,0,0,0,0,0,0,-1,1056,554,0,0
-161,470,0,0,0,0,0,0,0,0,0,-1,1063,554,0,0
-154,470,0,0,0,0,0,0,0,0,0,-1,1070,554,0,0
-147,470,0,0,0,0,0,0,0,0,0,-1,1077,554,0,0
-140,470,0,0,0,0,0,0,0,0,0,-1,1084,554,0,0
-133,470,0,0,0,0,0,0,0,0,0,-1,1091,554,0,0
-126,470,0,0,0,0,0,0,0,0,0,-1,1098,554,0,0
-119,470,0,0,0,0,0,0,0,0,0,-1,1105,554,0,0
-112,470,0,0,0,0,0,0,0,0,0,-1,1112,554,0,0
-105,470,0,0,0,0,0,0,0,0,0,-1,1119,554,0,0
-98,470,0,0,0,0,0,0,0,0,0,-1,1126,554,0,0
-91,470,0,0,0,0,0,0,0,0,0,-1,1133,554,0,0
-84,470,0,0,0,0,0,0,0,0,0,-1,1140,554,0,0
-77,470,0,0,0,0,0,0,0,0,0,-1,1147,554,0,0
-70,470,0,0,0,0,0,0,0,0,0,-1,1154,554,0,0
-63,470,0,0,0,0,0,0,0,0,0,-1,1161,554,0,0
-56,470,0,0,0,0,0,0,0,0,0,-1,1168,554,0,0
-49,470,0,0,0,0,0,0,0,0,0,-1,1175,554,0,0
-42,470,0,0,0,0,0,0,0,0,0,-1,1182,554,0,0
-35,470,0,0,0,0,0,0,0,0,0,-1,1189,554,0,0
-28,470,0,0,0,0,0,0,0,0,0,-1,1196,554,0,0
-21,470,0,0,0,0,0,0,0,0,0,-1,1203,554,0,0
-14,470,0,0,0,0,0,0,0,0,0,-1,1210,554,0,0
-7,470,0,0,0,0,0,0,0,0,0,-1,1217,554,0,0
0,470,0,0,0,0,0,0,0,0,0,-1,1224,554,0,0
7,470,0,0,0,0,0,0,0,0,0,-1,1231,554,0,0
14,470,0,0,0,0,0,0,0,0,0,-1,1238,554,0,0
21,470,0,0,0,0,0,0,0,0,0,-1,1245,554,0,0
28,470,0,0,0,0,0,0,0,0,0,-1,1252,554,0,0
35,470,0,0,0,0,0,0,0,0,0,-1,1259,554,0,0
42,470,0,0,0,0,0,0,0,0,0,-1,1266,554,0,0
49,470,0,0,0,0,0,0,0,0,0,-1,1273,554,0,0
56,470,0,0,0,0,0,0,0,0,0,-1,1280,554,0,0
63,470,0,0,0,0,0,0,0,0,0,-1,1287,554,0,0
70,470,0,0,0,0,0,0,0,0,0,-1,1294,554,0,0
77,470,0,0,0,0,0,0,0,0,0,-1,1301,554,0,0
84,470,0,0,0,0,0,0,0,0,0,-1,1308,554,0,0
91,470,0,0,0,0,0,0,0,0,0,-1,1315,554,0,0
98,470,0,0,0,0,0,0,0,0,0,-1,1322,554,0,0
105,470,0,0,0,0,0,0,0,0,0,-1,1329,554,0,0
112,470,0,0,0,0,0,0,0,0,0,-1,1336,554,0,0
119,470,0,0,0,0,0,0,0,0,0,-1,1343,554,0,0
126,470,0,0,0,0,0,0,0,0,0,-1,1350,554,0,0
133,470,0,0,0,0,0,0,0,0,0,-1,1357,554,0,0
140,470,0,0,0,0,0,0,0,0,0,-1,1364,554,0,0
147,470,0,0,0,0,0,0,0,0,0,-1,1371,554,0,0
154,470,0,0,0,0,0,0,0,0,0,-1,1378,554,0,0
161,470,0,0,0,0,0,0,0,0,0,-1,1385,554,0,0
168,470,0,0,0,0,0,0,0,0,0,-1,1392,554,0,0
175,470,0,0,0,0,0,0,0,0,0,-1,1399,554,0,0
182,470,0,0,0,0,0,0,0,0,0,-1,1406,554,0,0
189,470,0,0,0,0,0,0,0,0,0,-1,1413,554,0,0
196,470,0,0,0,0,0,0,0,0,0,-1,1420,554,0,0
203,470,0,0,0,0,0,0,0,0,0,-1,1427,554,0,0
210,470,0,0,0,0,0,0,0,0,0,-1,1434,554,0,0
217,470,0,0,0,0,0,0,0,0,0,-1,1441,554,0,0
224,470,0,0,0,0,0,0,0,0,0,-1,1448,554,0,0
231,470,0,0,0,0,0,0,0,0,0,-1,1455,554,0,0
238,470,0,0,0,0,0,0,0,0,0,-1,1462,554,0,0
245,470,0,0,0,0,0,0,0,0,0,-1,1469,554,0,0
252,470,0,0,0,0,0,0,0,0,0,-1,1476,554,0,0
259,470,0,0,0,0,0,0,0,0,0,-1,1483,554,0,0
266,470,0,0,0,0,0,0,0,0,0,-1,1490,554,0,0
273,470,0,0,0,0,0,0,0,0,0,-1,1497,554,0,0
280,470,0,0,0,0,0,0,0,0,0,-1,1504,554,0,0
287,470,0,0,0,0,0,0,0,0,0,-1,1511,554,0,0
294,470,0,0,0,0,0,0,0,0,0,-1,1518,554,0,0
301,470,0,0,0,0,0,0,0,0,0,-1,1525,554,0,0
308,470,0,0,0,0,0,0,0,0,0,-1,1532,554,0,0
315,470,0,0,0,0,0,0,0,0,0,-1,1539,554,0,0
322,470,0,0,0,0,0,0,0,0,0,-1,1546,554,0,0
329,470,0,0,0,0,0,0,0,0,0,-1,1553,554,0,0
336,470,0,0,0,0,0,0,0,0,0,-1,1560,554,0,0
343,470,0,0,0,0,0,0,0,0,0,-1,1567,554,0,0
350,470,0,0,0,0,0,0,0,0,0,-1,1574,554,0,0
357,470,0,0,0,0,0,0,0,0,0,-1,1581,554,0,0
364,470,1.33423,0.293335,0,0,0,0,0,0,0,-1,1588,554,1.33422,-0.293348
371,470,2.22498,-0.0305176,0,0,0,0,0,0,0,-1,1595,554,2.22494,0.0305046
378,470,6.27051,0.710083,0,0,0,0,0,0,0,-1,1602,554,6.27054,-0.710093
385,470,10.3657,1.47296,0,0,0,0,0,0,0,-1,1609,554,10.3657,-1.47299
392,470,14.4915,2.24756,0,0,0,0,0,0,0,-1,1616,554,14.4915,-2.24757
399,470,18.4479,2.93793,0,0,0,0,0,0,0,-1,1623,554,18.4479,-2.93792
406,470,15.1896,1.36676,0,0,0,0,0,0,0,-1,1630,554,15.1896,-1.36679
413,470,6.55383,1.99207,0,0,0,0,0,0,0,-1,1637,554,6.5538,-1.99208
420,470,4.47095,0.845703,0,0,0,0,0,0,0,-1,1644,554,4.47098,-0.845718
427,470,3.51038,1.19684,0,0,0,0,0,0,0,-1,1651,554,3.51039,-1.19684
434,470,3.31775,-1.37427,0,0,0,0,0,0,0,-1,1658,554,3.31781,1.37426
441,470,2.55457,-2.05902,0,0,0,0,0,0,0,-1,1665,554,2.55461,2.05904
448,470,3.27258,-2.64032,0,0,0,0,0,0,0,-1,1672,554,3.27257,2.64029
455,470,6.71875,-5.48767,0,0,0,0,0,0,0,-1,1679,554,6.71872,5.48765
462,470,6.38257,-5.271,0,0,0,0,0,0,0,-1,1686,554,6.38257,5.27098
469,470,6.25842,-5.05872,0,0,0,0,0,0,0,-1,1693,554,6.25837,5.0587
476,470,6.28784,-4.80469,0.00169394,0.00254463,0.000182379,0.00258208,0.00165649,1.36826,0.00151054,0.0293855,1700,554,6.28789,4.80467
483,470,6.34937,-4.56567,0.00237035,0.00202887,0.000691742,0.00291211,0.00148711,0.664404,0.00168144,0.01416,1707,554,6.34934,4.5657
490,470,6.3429,-4.341,0.00274212,0.00177448,0.00102575,0.00339242,0.00112418,0.565032,0.0019954,0.0116527,1714,554,6.34289,4.34099
497,470,6.35217,-4.11407,0.00260571,0.00135272,0.00104408,0.00319683,0.000761598,0.51517,0.00192816,0.0124323,1721,554,6.35221,4.11406
504,470,6.37,-3.90839,0.0020789,0.00116221,0.000969641,0.00269307,0.000548043,0.564616,0.00164344,0.0191569,1728,554,6.36998,3.90841
511,470,6.40442,-3.72754,0.00129979,0.00128272,0.000914814,0.00220611,0.000376402,0.780732,0.00136271,0.0253583,1735,554,6.4044,3.72752
518,470,6.39612,-3.46454,0.000150018,0.00158409,0.000716317,0.00188059,-0.00014648,1.17835,0.00130529,0.0238398,1742,554,6.39609,3.46454
525,470,6.35046,-3.1709,-0.00120455,0.00214152,0.000442884,0.00219915,-0.00126217,1.4414,0.00202265,0.0155092,1749,554,6.35048,3.17089
532,470,6.34839,-2.94891,-0.00260168,0.00294755,0.00021133,0.00295559,-0.00260972,1.53279,0.0032152,0.0140858,1756,554,6.34834,2.94889
539,470,6.34229,-2.72461,-0.00396639,0.00389371,2.72511e-05,0.00389381,-0.00396649,1.56733,0.00453821,0.0160039,1763,554,6.34226,2.72459
546,470,6.34009,-2.48938,-0.00517661,0.00507952,-2.73246e-05,0.00507959,-0.00517668,-1.56813,0.00592155,0.0141752,1770,554,6.3401,2.48937
553,470,6.36853,-2.26166,-0.0063114,0.0062697,-0.000104338,0.00627057,-0.00631227,-1.5625,0.00726472,0.011495,1777,554,6.36855,2.26165
560,470,6.38293,-2.01526,-0.00730509,0.00744629,-0.000146238,0.00744774,-0.00730654,-1.56088,0.00851852,0.0150091,1784,554,6.38298,2.01527
567,470,6.36145,-1.77142,-0.00788419,0.00840775,-6.86805e-05,0.00840804,-0.00788448,-1.56658,0.00940811,0.0178033,1791,554,6.36145,1.77144
574,470,6.20667,-1.64978,0,0,0,0,0,0,0,-1,1798,554,6.20667,1.64979
581,470,8.24646,-4.06317,0,0,0,0,0,0,0,-1,1805,554,8.24648,4.06318
588,470,8.83704,-2.04022,0,0,0,0,0,0,0,-1,1812,554,8.83707,2.04021
595,470,4.72192,3.44116,0,0,0,0,0,0,0,-1,1819,554,4.72191,-3.44116
602,470,14.4307,2.76141,0,0,0,0,0,0,0,-1,1826,554,14.4306,-2.76139
609,470,20.9181,4.41058,0,0,0,0,0,0,0,-1,1833,554,20.9181,-4.4106
616,470,0,0,0,0,0,0,0,0,0,-1,1840,554,0,0
623,470,0,0,0,0,0,0,0,0,0,-1,1847,554,0,0
630,470,0,0,0,0,0,0,0,0,0,-1,1854,554,0,0
637,470,0,0,0,0,0,0,0,0,0,-1,1861,554,0,0
644,470,0,0,0,0,0,0,0,0,0,-1,1868,554,0,0
651,470,0,0,0,0,0,0,0,0,0,-1,1875,554,0,0
658,470,0,0,0,0,0,0,0,0,0,-1,1882,554,0,0
665,470,0,0,0,0,0,0,0,0,0,-1,1889,554,0,0
672,470,0,0,0,0,0,0,0,0,0,-1,1896,554,0,0
679,470,0,0,0,0,0,0,0,0,0,-1,1903,554,0,0
686,470,0,0,0,0,0,0,0,0,0,-1,1910,554,0,0
693,470,0,0,0,0,0,0,0,0,0,-1,1917,554,0,0
700,470,0,0,0,0,0,0,0,0,0,-1,1924,554,0,0
707,470,0,0,0,0,0,0,0,0,0,-1,1931,554,0,0
714,470,0,0,0,0,0,0,0,0,0,-1,1938,554,0,0
721,470,0,0,0,0,0,0,0,0,0,-1,1945,554,0,0
728,470,0,0,0,0,0,0,0,0,0,-1,1952,554,0,0
735,470,0,0,0,0,0,0,0,0,0,-1,1959,554,0,0
742,470,0,0,0,0,0,0,0,0,0,-1,1966,554,0,0
749,470,0,0,0,0,0,0,0,0,0,-1,1973,554,0,0
756,470,0,0,0,0,0,0,0,0,0,-1,1980,554,0,0
763,470,0,0,0,0,0,0,0,0,0,-1,1987,554,0,0
770,470,0,0,0,0,0,0,0,0,0,-1,1994,554,0,0
777,470,0,0,0,0,0,0,0,0,0,-1,2001,554,0,0
784,470,0,0,0,0,0,0,0,0,0,-1,2008,554,0,0
791,470,0,0,0,0,0,0,0,0,0,-1,2015,554,0,0
798,470,0,0,0,0,0,0,0,0,0,-1,2022,554,0,0
805,470,0,0,0,0,0,0,0,0,0,-1,2029,554,0,0
812,470,0,0,0,0,0,0,0,0,0,-1,2036,554,0,0
-700,463,0,0,0,0,0,0,0,0,0,-1,524,561,0,0
-693,463,0,0,0,0,0,0,0,0,0,-1,531,561,0,0
-686,463,0,0,0,0,0,0,0,0,0,-1,538,561,0,0
-679,463,0,0,0,0,0,0,0,0,0,-1,545,561,0,0
-672,463,0,0,0,0,0,0,0,0,0,-1,552,561,0,0
-665,463,0,0,0,0,0,0,0,0,0,-1,559,561,0,0
-658,463,0,0,0,0,0,0,0,0,0,-1,566,561,0,0
-651,463,0,0,0,0,0,0,0,0,0,-1,573,561,0,0
-644,463,0,0,0,0,0,0,0,0,0,-1,580,561,0,0
-637,463,0,0,0,0,0,0,0,0,0,-1,587,561,0,0
-630,463,0,0,0,0,0,0,0,0,0,-1,594,561,0,0
-623,463,0,0,0,0,0,0,0,0,0,-1,601,561,0,0
-616,463,0,0,0,0,0,0,0,0,0,-1,608,561,0,0
-609,463,0,0,0,0,0,0,0,0,0,-1,615,561,0,0
-602,463,0,0,0,0,0,0,0,0,0,-1,622,561,0,0
-595,463,0,0,0,0,0,0,0,0,0,-1,629,561,0,0
-588,463,0,0,0,0,0,0,0,0,0,-1,636,561,0,0
-581,463,0,0,0,0,0,0,0,0,0,-1,643,561,0,0
-574,463,0,0,0,0,0,0,0,0,0,-1,650,561,0,0
-567,463,0,0,0,0,0,0,0,0,0,-1,657,561,0,0
-560,463,0,0,0,0,0,0,0,0,0,-1,664,561,0,0
-553,463,0,0,0,0,0,0,0,0,0,-1,671,561,0,0
-546,463,0,0,0,0,0,0,0,0,0,-1,678,561,0,0
-539,463,0,0,0,0,0,0,0,0,0,-1,685,561,0,0
-532,463,0,0,0,0,0,0,0,0,0,-1,692,561,0,0
-525,463,0,0,0,0,0,0,0,0,0,-1,699,561,0,0
-518,463,0,0,0,0,0,0,0,0,0,-1,706,561,0,0
-511,463,0,0,0,0,0,0,0,0,0,-1,713,561,0,0
-504,463,0,0,0,0,0,0,0,0,0,-1,720,561,0,0
-497,463,-11.5931,1.22791,0,0,0,0,0,0,0,-1,727,561,-11.5931,-1.2279
-490,463,-10.0386,3.28607,0,0,0,0,0,0,0,-1,734,561,-10.0386,-3.28608
-483,463,-8.2428,2.31268,0,0,0,0,0,0,0,-1,741,561,-8.24281,-2.31267
-476,463,-6.44702,1.33923,0,0,0,0,0,0,0,-1,748,561,-6.447,-1.33926
-469,463,-3.07709,-1.4928,0,0,0,0,0,0,0,-1,755,561,-3.07709,1.49279
-462,463,-1.36017,-1.14777,0,0,0,0,0,0,0,-1,762,561,-1.36016,1.14774
-455,463,-1.86566,-2.78485,0,0,0,0,0,0,0,-1,769,561,-1.86566,2.78487
-448,463,-1.74591,-3.05548,0.0210699,0.0228333,-0.00830622,0.0303045,0.0135987,-0.838276,0.0175269,0.0443479,776,561,-1.74589,3.05547
-441,463,-1.50177,-3.36945,0.014127,0.0173728,-0.00526994,0.0212641,0.0102357,-0.934768,0.0122796,0.0322737,783,561,-1.50174,3.36942
-434,463,-1.58508,-3.62201,0.00946023,0.0130105,-0.0032846,0.014969,0.00750177,-1.03314,0.00864235,0.0129558,790,561,-1.58507,3.62202
-427,463,-1.59833,-3.84308,0.00534587,0.00920555,-0.00147298,0.00970346,0.00484796,-1.24483,0.00560229,0.0093178,797,561,-1.59832,3.84307
-420,463,-1.57471,-4.06183,0.00288058,0.00677816,-0.000508631,0.00684344,0.0028153,-1.44314,0.00397169,0.0102771,804,561,-1.57469,4.0618
-413,463,-1.59454,-4.27722,0.00159336,0.00503658,-2.02553e-05,0.0050367,0.00159324,-1.56491,0.00297262,0.00911363,811,561,-1.59457,4.27723
-406,463,-1.62677,-4.48767,0.00108344,0.00378917,0.000146902,0.00379712,0.00107549,1.51672,0.00225989,0.00814285,818,561,-1.62674,4.48766
-399,463,-1.60175,-4.69812,0.00089097,0.00253534,0.000273525,0.00257964,0.000846665,1.41021,0.00151838,0.00923972,825,561,-1.60174,4.69814
-392,463,-1.59229,-4.90955,0.000873439,0.00148636,0.000352437,0.00164695,0.000712856,1.14327,0.00095372,0.00911702,832,561,-1.5923,4.90956
-385,463,-1.60883,-5.13483,0.00111365,0.000632409,0.000392033,0.00133302,0.000413043,0.510153,0.000787952,0.00966355,839,561,-1.60881,5.13481
-378,463,-1.60272,-5.33862,0.00161736,0.000156562,0.000389336,0.00171465,5.92745e-05,0.244867,0.00112386,0.0113538,846,561,-1.60271,5.33864
-371,463,-1.59503,-5.54193,0.00239981,-0.000268093,0.000251827,0.00242337,-0.000291656,0.0932935,0.00172106,0.0117151,853,561,-1.59506,5.54196
-364,463,-1.59033,-5.74243,0.00355728,-0.000560317,6.84936e-05,0.00355842,-0.000561456,0.0166282,0.00257988,0.0132381,860,561,-1.59031,5.74243
-357,463,-1.6001,-5.94958,0.00513114,-0.000917461,-0.000222188,0.00513929,-0.000925612,-0.0366679,0.00377277,0.0151757,867,561,-1.60007,5.9496
-350,463,-1.58167,-6.17773,0.00682259,-0.00132776,-0.000624442,0.00687015,-0.00137532,-0.0760241,0.00510073,0.0170042,874,561,-1.58168,6.17771
-343,463,-1.44885,-6.30365,0.00849738,-0.00164432,-0.000980689,0.00859134,-0.00173828,-0.0955195,0.00638634,0.0303818,881,561,-1.44883,6.30367
-336,463,-1.35614,-6.49512,0,0,0,0,0,0,0,-1,888,561,-1.35614,6.49513
-329,463,-1.14594,-6.77625,0,0,0,0,0,0,0,-1,895,561,-1.14593,6.77624
-322,463,-0.454102,-6.53351,0,0,0,0,0,0,0,-1,902,561,-0.454091,6.53348
-315,463,-0.944763,-5.96234,0,0,0,0,0,0,0,-1,909,561,-0.94479,5.96237
-308,463,-1.1535,-3.17889,0,0,0,0,0,0,0,-1,916,561,-1.15352,3.17889
-301,463,-1.50366,-3.15338,0,0,0,0,0,0,0,-1,923,561,-1.50364,3.15341
-294,463,-2.35889,-3.93463,0,0,0,0,0,0,0,-1,930,561,-2.35886,3.93465
-287,463,-2.80322,2.73999,0,0,0,0,0,0,0,-1,937,561,-2.80322,-2.74
-280,463,-3.29858,2.24219,0,0,0,0,0,0,0,-1,944,561,-3.29859,-2.24221
-273,463,-5.54578,0.486755,0,0,0,0,0,0,0,-1,951,561,-5.54576,-0.486736
-266,463,-3.96259,-0.93335,0,0,0,0,0,0,0,-1,958,561,-3.96258,0.933349
-259,463,-2.54156,-2.28058,0,0,0,0,0,0,0,-1,965,561,-2.54159,2.28059
-252,463,0,0,0,0,0,0,0,0,0,-1,972,561,0,0
-245,463,0,0,0,0,0,0,0,0,0,-1,979,561,0,0
-238,463,0,0,0,0,0,0,0,0,0,-1,986,561,0,0
-231,463,0,0,0,0,0,0,0,0,0,-1,993,561,0,0
-224,463,0,0,0,0,0,0,0,0,0,-1,1000,561,0,0
-217,463,0,0,0,0,0,0,0,0,0,-1,1007,561,0,0
-210,463,0,0,0,0,0,0,0,0,0,-1,1014,561,0,0
-203,463,0,0,0,0,0,0,0,0,0,-1,1021,561,0,0
-196,463,0,0,0,0,0,0,0,0,0,-1,1028,561,0,0
-189,463,0,0,0,0,0,0,0,0,0,-1,1035,561,0,0
-182,463,0,0,0,0,0,0,0,0,0,-1,1042,561,0,0
-175,463,0,0,0,0,0,0,0,0,0,-1,1049,561,0,0
-168,463,0,0,0,0,0,0,0,0,0,-1,1056,561,0,0
-161,463,0,0,0,0,0,0,0,0,0,-1,1063,561,0,0
-154,463,0,0,0,0,0,0,0,0,0,-1,1070,561,0,0
-147,463,0,0,0,0,0,0,0,0,0,-1,1077,561,0,0
-140,463,0,0,0,0,0,0,0,0,0,-1,1084,561,0,0
-133,463,0,0,0,0,0,0,0,0,0,-1,1091,561,0,0
-126,463,0,0,0,0,0,0,0,0,0,-1,1098,561,0,0
-119,463,0,0,0,0,0,0,0,0,0,-1,1105,561,0,0
-112,463,0,0,0,0,0,0,0,0,0,-1,1112,561,0,0
-105,463,0,0,0,0,0,0,0,0,0,-1,1119,561,0,0
-98,463,0,0,0,0,0,0,0,0,0,-1,1126,561,0,0
-91,463,0,0,0,0,0,0,0,0,0,-1,1133,561,0,0
-84,463,0,0,0,0,0,0,0,0,0,-1,1140,561,0,0
-77,463,0,0,0,0,0,0,0,0,0,-1,1147,561,0,0
-70,463,0,0,0,0,0,0,0,0,0,-1,1154,561,0,0
-63,463,0,0,0,0,0,0,0,0,0,-1,1161,561,0,0
-56,463,0,0,0,0,0,0,0,0,0,-1,1168,561,0,0
-49,463,0,0,0,0,0,0,0,0,0,-1,1175,561,0,0
-42,463,0,0,0,0,0,0,0,0,0,-1,1182,561,0,0
-35,463,0,0,0,0,0,0,0,0,0,-1,1189,561,0,0
-28,463,0,0,0,0,0,0,0,0,0,-1,1196,561,0,0
-21,463,0,0,0,0,0,0,0,0,0,-1,1203,561,0,0
-14,463,0,0,0,0,0,0,0,0,0,-1,1210,561,0,0
-7,463,0,0,0,0,0,0,0,0,0,-1,1217,561,0,0
0,463,0,0,0,0,0,0,0,0,0,-1,1224,561,0,0
7,463,0,0,0,0,0,0,0,0,0,-1,1231,561,0,0
14,463,0,0,0,0,0,0,0,0,0,-1,1238,561,0,0
21,463,0,0,0,0,0,0,0,0,0,-1,1245,561,0,0
28,463,0,0,0,0,0,0,0,0,0,-1,1252,561,0,0
35,463,0,0,0,0,0,0,0,0,0,-1,1259,561,0,0
42,463,0,0,0,0,0,0,0,0,0,-1,1266,561,0,0
49,463,0,0,0,0,0,0,0,0,0,-1,1273,561,0,0
56,463,0,0,0,0,0,0,0,0,0,-1,1280,561,0,0
63,463,0,0,0,0,0,0,0,0,0,-1,1287,561,0,0
70,463,0,0,0,0,0,0,0,0,0,-1,1294,561,0,0
77,463,0,0,0,0,0,0,0,0,0,-1,1301,561,0,0
84,463,0,0,0,0,0,0,0,0,0,-1,1308,561,0,0
91,463,0,0,0,0,0,0,0,0,0,-1,1315,561,0,0
98,463,0,0,0,0,0,0,0,0,0,-1,1322,561,0,0
105,463,0,0,0,0,0,0,0,0,0,-1,1329,561,0,0
112,463,0,0,0,0,0,0,0,0,0,-1,1336,561,0,0
119,463,0,0,0,0,0,0,0,0,0,-1,1343,561,0,0
126,463,0,0,0,0,0,0,0,0,0,-1,1350,561,0,0
133,463,0,0,0,0,0,0,0,0,0,-1,1357,561,0,0
140,463,0,0,0,0,0,0,0,0,0,-1,1364,561,0,0
147,463,0,0,0,0,0,0,0,0,0,-1,1371,561,0,0
154,463,0,0,0,0,0,0,0,0,0,-1,1378,561,0,0
161,463,0,0,0,0,0,0,0,0,0,-1,1385,561,0,0
168,463,0,0,0,0,0,0,0,0,0,-1,1392,561,0,0
175,463,0,0,0,0,0,0,0,0,0,-1,1399,561,0,0
182,463,0,0,0,0,0,0,0,0,0,-1,1406,561,0,0
189,463,0,0,0,0,0,0,0,0,0,-1,1413,561,0,0
196,463,0,0,0,0,0,0,0,0,0,-1,1420,561,0,0
203,463,0,0,0,0,0,0,0,0,0,-1,1427,561,0,0
210,463,0,0,0,0,0,0,0,0,0,-1,1434,561,0,0
217,463,0,0,0,0,0,0,0,0,0,-1,1441,561,0,0
224,463,0,0,0,0,0,0,0,0,0,-1,1448,561,0,0
231,463,0,0,0,0,0,0,0,0,0,-1,1455,561,0,0
238,463,0,0,0,0,0,0,0,0,0,-1,1462,561,0,0
245,463,0,0,0,0,0,0,0,0,0,-1,1469,561,0,0
252,463,0,0,0,0,0,0,0,0,0,-1,1476,561,0,0
259,463,0,0,0,0,0,0,0,0,0,-1,1483,561,0,0
266,463,0,0,0,0,0,0,0,0,0,-1,1490,561,0,0
273,463,0,0,0,0,0,0,0,0,0,-1,1497,561,0,0
280,463,0,0,0,0,0,0,0,0,0,-1,1504,561,0,0
287,463,0,0,0,0,0,0,0,0,0,-1,1511,561,0,0
294,463,0,0,0,0,0,0,0,0,0,-1,1518,561,0,0
301,463,0,0,0,0,0,0,0,0,0,-1,1525,561,0,0
308,463,0,0,0,0,0,0,0,0,0,-1,1532,561,0,0
315,463,0,0,0,0,0,0,0,0,0,-1,1539,561,0,0
322,463,0,0,0,0,0,0,0,0,0,-1,1546,561,0,0
329,463,0,0,0,0,0,0,0,0,0,-1,1553,561,0,0
336,463,0,0,0,0,0,0,0,0,0,-1,1560,561,0,0
343,463,0,0,0,0,0,0,0,0,0,-1,1567,561,0,0
350,463,0,0,0,0,0,0,0,0,0,-1,1574,561,0,0
357,463,0,0,0,0,0,0,0,0,0,-1,1581,561,0,0
364,463,0,0,0,0,0,0,0,0,0,-1,1588,561,0,0
371,463,1.75842,0.152588,0,0,0,0,0,0,0,-1,1595,561,1.75844,-0.152558
378,463,4.30493,0.169861,0,0,0,0,0,0,0,-1,1602,561,4.30489,-0.169877
385,463,8.76331,1.01813,0,0,0,0,0,0,0,-1,1609,561,8.7633,-1.01813
392,463,12.6002,1.78589,0,0,0,0,0,0,0,-1,1616,561,12.6002,-1.78588
399,463,14.4622,3.409,0,0,0,0,0,0,0,-1,1623,561,14.4622,-3.409
406,463,7.28088,1.38538,0,0,0,0,0,0,0,-1,1630,561,7.28091,-1.38537
413,463,8.05847,1.82239,0,0,0,0,0,0,0,-1,1637,561,8.05851,-1.82241
420,463,8.849,2.26611,0,0,0,0,0,0,0,-1,1644,561,8.84899,-2.26613
427,463,5.12207,1.69183,0,0,0,0,0,0,0,-1,1651,561,5.12206,-1.69184
434,463,4.59814,1.81995,0,0,0,0,0,0,0,-1,1658,561,4.59812,-1.81994
441,463,1.76392,-5.99225,0,0,0,0,0,0,0,-1,1665,561,1.7639,5.99225
448,463,2.49939,-4.30536,0,0,0,0,0,0,0,-1,1672,561,2.49941,4.30536
455,463,4.40295,-3.02557,0,0,0,0,0,0,0,-1,1679,561,4.40299,3.02558
462,463,5.38293,-4.06445,0,0,0,0,0,0,0,-1,1686,561,5.38289,4.06444
469,463,5.94373,-4.50647,0,0,0,0,0,0,0,-1,1693,561,5.94368,4.50646
476,463,6.40479,-5.00983,0,0,0,0,0,0,0,-1,1700,561,6.40484,5.00983
483,463,6.4397,-4.72772,0.00377744,0.00235399,0.00132734,0.00457184,0.0015596,0.539304,0.0026836,0.0362881,1707,561,6.43973,4.72774
490,463,6.57935,-4.3891,0.00422488,0.00211492,0.00166631,0.0051421,0.0011977,0.503188,0.00310677,0.0186847,1714,561,6.57929,4.38907
497,463,6.58704,-4.10211,0.00415728,0.00152564,0.00162662,0.00493365,0.000749263,0.445318,0.00306998,0.0122633,1721,561,6.58698,4.10214
504,463,6.59326,-3.86188,0.00362459,0.00099752,0.0014618,0.00427631,0.0003458,0.419384,0.00274288,0.0160498,1728,561,6.59329,3.86189
511,463,6.60535,-3.66302,0.00284604,0.00100528,0.00136816,0.00357459,0.000276735,0.48931,0.00229638,0.0224393,1735,561,6.60529,3.66302
518,463,6.65112,-3.45343,0.00170883,0.0011663,0.00111762,0.00258763,0.000287501,0.666341,0.00163769,0.0230048,1742,561,6.65109,3.45344
525,463,6.5918,-3.20825,0.00040263,0.00155666,0.000809126,0.00197344,-1.4151e-05,1.09514,0.00132037,0.0188689,1749,561,6.59178,3.20825
532,463,6.5918,-2.96057,-0.000912565,0.00212617,0.000514971,0.00221107,-0.000997465,1.4074,0.00189611,0.015954,1756,561,6.59177,2.96057
539,463,6.59241,-2.69891,-0.00216754,0.00273974,0.000243884,0.00275183,-0.00217963,1.52126,0.00285356,0.0149441,1763,561,6.59238,2.69889
546,463,6.57483,-2.47852,-0.00322234,0.00356756,0.000113917,0.00356947,-0.00322425,1.55403,0.00392404,0.0122341,1770,561,6.57482,2.47853
553,463,6.57275,-2.22174,-0.00415892,0.00432508,-4.85209e-05,0.00432536,-0.00415919,-1.56508,0.00489887,0.0111602,1777,561,6.57278,2.22172
560,463,6.59253,-1.96069,-0.00495569,0.00503789,-0.000187884,0.00504143,-0.00495922,-1.552,0.00577394,0.0122917,1784,561,6.59258,1.96067
567,463,6.53052,-1.75085,-0.00536736,0.00551494,-0.000238722,0.00552018,-0.0053726,-1.54887,0.00628914,0.0164596,1791,561,6.53053,1.75087
574,463,6.44788,-1.63483,-0.00553584,0.00595224,-0.000325598,0.00596146,-0.00554506,-1.54248,0.00664474,0.046095,1798,561,6.44786,1.63484
581,463,6.52271,-1.47363,0,0,0,0,0,0,0,-1,1805,561,6.52271,1.47366
588,463,1.97424,2.16016,0,0,0,0,0,0,0,-1,1812,561,1.97422,-2.16013
595,463,9.98657,2.99854,0,0,0,0,0,0,0,-1,1819,561,9.98662,-2.99856
602,463,15.0848,4.91132,0,0,0,0,0,0,0,-1,1826,561,15.0848,-4.91134
609,463,17.96,4.03131,0,0,0,0,0,0,0,-1,1833,561,17.96,-4.03132
616,463,20.8352,3.15131,0,0,0,0,0,0,0,-1,1840,561,20.8352,-3.1513
623,463,0,0,0,0,0,0,0,0,0,-1,1847,561,0,0
630,463,0,0,0,0,0,0,0,0,0,-1,1854,561,0,0
637,463,0,0,0,0,0,0,0,0,0,-1,1861,561,0,0
644,463,0,0,0,0,0,0,0,0,0,-1,1868,561,0,0
651,463,0,0,0,0,0,0,0,0,0,-1,1875,561,0,0
658,463,0,0,0,0,0,0,0,0,0,-1,1882,561,0,0
665,463,0,0,0,0,0,0,0,0,0,-1,1889,561,0,0
672,463,0,0,0,0,0,0,0,0,0,-1,1896,561,0,0
679,463,0,0,0,0,0,0,0,0,0,-1,1903,561,0,0
686,463,0,0,0,0,0,0,0,0,0,-1,1910,561,0,0
693,463,0,0,0,0,0,0,0,0,0,-1,1917,561,0,0
700,463,0,0,0,0,0,0,0,0,0,-1,1924,561,0,0
707,463,0,0,0,0,0,0,0,0,0,-1,1931,561,0,0
714,463,0,0,0,0,0,0,0,0,0,-1,1938,561,0,0
721,463,0,0,0,0,0,0,0,0,0,-1,1945,561,0,0
728,463,0,0,0,0,0,0,0,0,0,-1,1952,561,0,0
735,463,0,0,0,0,0,0,0,0,0,-1,1959,561,0,0
742,463,0,0,0,0,0,0,0,0,0,-1,1966,561,0,0
749,463,0,0,0,0,0,0,0,0,0,-1,1973,561,0,0
756,463,0,0,0,0,0,0,0,0,0,-1,1980,561,0,0
763,463,0,0,0,0,0,0,0,0,0,-1,1987,561,0,0
770,463,0,0,0,0,0,0,0,0,0,-1,1994,561,0,0
777,463,0,0,0,0,0,0,0,0,0,-1,2001,561,0,0
784,463,0,0,0,0,0,0,0,0,0,-1,2008,561,0,0
791,463,0,0,0,0,0,0,0,0,0,-1,2015,561,0,0
798,463,0,0,0,0,0,0,0,0,0,-1,2022,561,0,0
805,463,0,0,0,0,0,0,0,0,0,-1,2029,561,0,0
812,463,0,0,0,0,0,0,0,0,0,-1,2036,561,0,0
-700,456,0,0,0,0,0,0,0,0,0,-1,524,568,0,0
-693,456,0,0,0,0,0,0,0,0,0,-1,531,568,0,0
-686,456,0,0,0,0,0,0,0,0,0,-1,538,568,0,0
-679,456,0,0,0,0,0,0,0,0,0,-1,545,568,0,0
-672,456,0,0,0,0,0,0,0,0,0,-1,552,568,0,0
-665,456,0,0,0,0,0,0,0,0,0,-1,559,568,0,0
-658,456,0,0,0,0,0,0,0,0,0,-1,566,568,0,0
-651,456,0,0,0,0,0,0,0,0,0,-1,573,568,0,0
-644,456,0,0,0,0,0,0,0,0,0,-1,580,568,0,0
-637,456,0,0,0,0,0,0,0,0,0,-1,587,568,0,0
-630,456,0,0,0,0,0,0,0,0,0,-1,594,568,0,0
-623,456,0,0,0,0,0,0,0,0,0,-1,601,568,0,0
-616,456,0,0,0,0,0,0,0,0,0,-1,608,568,0,0
-609,456,0,0,0,0,0,0,0,0,0,-1,615,568,0,0
-602,456,0,0,0,0,0,0,0,0,0,-1,622,568,0,0
-595,456,0,0,0,0,0,0,0,0,0,-1,629,568,0,0
-588,456,0,0,0,0,0,0,0,0,0,-1,636,568,0,0
-581,456,0,0,0,0,0,0,0,0,0,-1,643,568,0,0
-574,456,0,0,0,0,0,0,0,0,0,-1,650,568,0,0
-567,456,0,0,0,0,0,0,0,0,0,-1,657,568,0,0
-560,456,0,0,0,0,0,0,0,0,0,-1,664,568,0,0
-553,456,0,0,0,0,0,0,0,0,0,-1,671,568,0,0
-546,456,0,0,0,0,0,0,0,0,0,-1,678,568,0,0
-539,456,0,0,0,0,0,0,0,0,0,-1,685,568,0,0
-532,456,0,0,0,0,0,0,0,0,0,-1,692,568,0,0
-525,456,0,0,0,0,0,0,0,0,0,-1,699,568,0,0
-518,456,0,0,0,0,0,0,0,0,0,-1,706,568,0,0
-511,456,0,0,0,0,0,0,0,0,0,-1,713,568,0,0
-504,456,-13.3015,0.873108,0,0,0,0,0,0,0,-1,720,568,-13.3015,-0.873114
-497,456,-12.4813,0.344604,0,0,0,0,0,0,0,-1,727,568,-12.4813,-0.344597
-490,456,-9.0379,2.1925,0,0,0,0,0,0,0,-1,734,568,-9.03793,-2.19251
-483,456,-7.13733,1.24512,0,0,0,0,0,0,0,-1,741,568,-7.13731,-1.24509
-476,456,-5.23669,0.297668,0,0,0,0,0,0,0,-1,748,568,-5.23668,-0.297679
-469,456,-2.81238,-3.51501,0,0,0,0,0,0,0,-1,755,568,-2.81237,3.51501
-462,456,-2.08734,-1.95233,0,0,0,0,0,0,0,-1,762,568,-2.08737,1.95235
-455,456,-1.87744,-2.67957,0,0,0,0,0,0,0,-1,769,568,-1.87745,2.67959
-448,456,-1.7868,-3.05621,0.0213305,0.0160926,-0.0112051,0.0302186,0.0072045,-0.670596,0.0182253,0.034296,776,568,-1.78683,3.05623
-441,456,-1.77515,-3.39569,0.0145818,0.0120328,-0.00762909,0.0210421,0.00557244,-0.702634,0.0125886,0.0155336,783,568,-1.77516,3.3957
-434,456,-1.81134,-3.62238,0.00990473,0.00880941,-0.00508941,0.0144759,0.00423828,-0.7318,0.00859356,0.00921675,790,568,-1.81134,3.62235
-427,456,-1.8125,-3.83362,0.00566678,0.00592608,-0.00280189,0.00860131,0.00299155,-0.808517,0.00504208,0.00832215,797,568,-1.81249,3.83362
-420,456,-1.80615,-4.05157,0.00299264,0.00428611,-0.00139752,0.00517928,0.00209946,-1.00211,0.00300806,0.00910475,804,568,-1.80614,4.05158
-413,456,-1.82184,-4.276,0.00155742,0.00322699,-0.000582595,0.00341018,0.00137423,-1.26614,0.00198119,0.00862961,811,568,-1.82184,4.276
-406,456,-1.84735,-4.48627,0.000972821,0.00253824,-0.000167732,0.00255601,0.00095505,-1.46524,0.00149134,0.00862262,818,568,-1.84737,4.48626
-399,456,-1.83051,-4.69135,0.000708477,0.00165438,0.000165487,0.00168249,0.00068036,1.4025,0.000977291,0.00983354,825,568,-1.83051,4.69137
-392,456,-1.8089,-4.91077,0.000611325,0.000916987,0.000447699,0.00123722,0.000291091,0.949881,0.000746937,0.00885716,832,568,-1.8089,4.91076
-385,456,-1.81555,-5.13379,0.000790662,0.000336153,0.000634549,0.00123742,-0.000110608,0.613446,0.00086418,0.00859996,839,568,-1.81555,5.13381
-378,456,-1.81921,-5.34467,0.00128899,-3.65767e-05,0.000708499,0.00159639,-0.000343975,0.409362,0.00119553,0.00978925,846,568,-1.8192,5.34469
-371,456,-1.80994,-5.54431,0.00215549,-0.000340009,0.000626388,0.00230389,-0.000488412,0.232629,0.00172198,0.0107729,853,568,-1.80993,5.54434
-364,456,-1.80707,-5.73541,0.00348777,-0.000616268,0.000529966,0.0035551,-0.0006836,0.126372,0.00262774,0.0136178,860,568,-1.80707,5.7354
-357,456,-1.78235,-5.9549,0.00536746,-0.0011233,0.000269469,0.00537863,-0.00113447,0.0414207,0.00401766,0.0155607,867,568,-1.78233,5.95488
-350,456,-1.65472,-6.05573,0.00752362,-0.00173544,-0.000161614,0.00752644,-0.00173826,-0.0174476,0.00568631,0.0301492,874,568,-1.65471,6.05574
-343,456,-1.5567,-6.12103,0.0098758,-0.00228961,-0.000591167,0.00990446,-0.00231827,-0.0484419,0.00749619,0.040629,881,568,-1.55668,6.12105
-336,456,-1.31091,-6.1449,0,0,0,0,0,0,0,-1,888,568,-1.3109,6.14489
-329,456,-0.851685,-6.91742,0,0,0,0,0,0,0,-1,895,568,-0.851663,6.91744
-322,456,-1.53802,-4.8894,0,0,0,0,0,0,0,-1,902,568,-1.53801,4.8894
-315,456,-0.675476,-3.38397,0,0,0,0,0,0,0,-1,909,568,-0.675473,3.38399
-308,456,-1.1618,-3.15314,0,0,0,0,0,0,0,-1,916,568,-1.16178,3.15314
-301,456,-1.83551,-3.26447,0,0,0,0,0,0,0,-1,923,568,-1.8355,3.26449
-294,456,-2.93414,-3.35449,0,0,0,0,0,0,0,-1,930,568,-2.93413,3.35451
-287,456,-3.7569,-3.53101,0,0,0,0,0,0,0,-1,937,568,-3.75692,3.53101
-280,456,-3.58478,1.37744,0,0,0,0,0,0,0,-1,944,568,-3.58476,-1.37746
-273,456,-5.48199,0.679199,0,0,0,0,0,0,0,-1,951,568,-5.482,-0.679176
-266,456,-3.95667,-0.68927,0,0,0,0,0,0,0,-1,958,568,-3.95667,0.689273
-259,456,0,0,0,0,0,0,0,0,0,-1,965,568,0,0
-252,456,0,0,0,0,0,0,0,0,0,-1,972,568,0,0
-245,456,0,0,0,0,0,0,0,0,0,-1,979,568,0,0
-238,456,0,0,0,0,0,0,0,0,0,-1,986,568,0,0
-231,456,0,0,0,0,0,0,0,0,0,-1,993,568,0,0
-224,456,0,0,0,0,0,0,0,0,0,-1,1000,568,0,0
-217,456,0,0,0,0,0,0,0,0,0,-1,1007,568,0,0
-210,456,0,0,0,0,0,0,0,0,0,-1,1014,568,0,0
-203,456,0,0,0,0,0,0,0,0,0,-1,1021,568,0,0
-196,456,0,0,0,0,0,0,0,0,0,-1,1028,568,0,0
-189,456,0,0,0,0,0,0,0,0,0,-1,1035,568,0,0
-182,456,0,0,0,0,0,0,0,0,0,-1,1042,568,0,0
-175,456,0,0,0,0,0,0,0,0,0,-1,1049,568,0,0
-168,456,0,0,0,0,0,0,0,0,0,-1,1056,568,0,0
-161,456,0,0,0,0,0,0,0,0,0,-1,1063,568,0,0
-154,456,0,0,0,0,0,0,0,0,0,-1,1070,568,0,0
-147,456,0,0,0,0,0,0,0,0,0,-1,1077,568,0,0
-140,456,0,0,0,0,0,0,0,0,0,-1,1084,568,0,0
-133,456,0,0,0,0,0,0,0,0,0,-1,1091,568,0,0
-126,456,0,0,0,0,0,0,0,0,0,-1,1098,568,0,0
-119,456,0,0,0,0,0,0,0,0,0,-1,1105,568,0,0
-112,456,0,0,0,0,0,0,0,0,0,-1,1112,568,0,0
-105,456,0,0,0,0,0,0,0,0,0,-1,1119,568,0,0
-98,456,0,0,0,0,0,0,0,0,0,-1,1126,568,0,0
-91,456,0,0,0,0,0,0,0,0,0,-1,1133,568,0,0
-84,456,0,0,0,0,0,0,0,0,0,-1,1140,568,0,0
-77,456,0,0,0,0,0,0,0,0,0,-1,1147,568,0,0
-70,456,0,0,0,0,0,0,0,0,0,-1,1154,568,0,0
-63,456,0,0,0,0,0,0,0,0,0,-1,1161,568,0,0
-56,456,0,0,0,0,0,0,0,0,0,-1,1168,568,0,0
-49,456,0,0,0,0,0,0,0,0,0,-1,1175,568,0,0
-42,456,0,0,0,0,0,0,0,0,0,-1,1182,568,0,0
-35,456,0,0,0,0,0,0,0,0,0,-1,1189,568,0,0
-28,456,0,0,0,0,0,0,0,0,0,-1,1196,568,0,0
-21,456,0,0,0,0,0,0,0,0,0,-1,1203,568,0,0
-14,456,0,0,0,0,0,0,0,0,0,-1,1210,568,0,0
-7,456,0,0,0,0,0,0,0,0,0,-1,1217,568,0,0
0,456,0,0,0,0,0,0,0,0,0,-1,1224,568,0,0
7,456,0,0,0,0,0,0,0,0,0,-1,1231,568,0,0
14,456,0,0,0,0,0,0,0,0,0,-1,1238,568,0,0
21,456,0,0,0,0,0,0,0,0,0,-1,1245,568,0,0
28,456,0,0,0,0,0,0,0,0,0,-1,1252,568,0,0
35,456,0,0,0,0,0,0,0,0,0,-1,1259,568,0,0
42,456,0,0,0,0,0,0,0,0,0,-1,1266,568,0,0
49,456,0,0,0,0,0,0,0,0,0,-1,1273,568,0,0
56,456,0,0,0,0,0,0,0,0,0,-1,1280,568,0,0
63,456,0,0,0,0,0,0,0,0,0,-1,1287,568,0,0
70,456,0,0,0,0,0,0,0,0,0,-1,1294,568,0,0
77,456,0,0,0,0,0,0,0,0,0,-1,1301,568,0,0
84,456,0,0,0,0,0,0,0,0,0,-1,1308,568,0,0
91,456,0,0,0,0,0,0,0,0,0,-1,1315,568,0,0
98,456,0,0,0,0,0,0,0,0,0,-1,1322,568,0,0
105,456,0,0,0,0,0,0,0,0,0,-1,1329,568,0,0
112,456,0,0,0,0,0,0,0,0,0,-1,1336,568,0,0
119,456,0,0,0,0,0,0,0,0,0,-1,1343,568,0,0
126,456,0,0,0,0,0,0,0,0,0,-1,1350,568,0,0
133,456,0,0,0,0,0,0,0,0,0,-1,1357,568,0,0
140,456,0,0,0,0,0,0,0,0,0,-1,1364,568,0,0
147,456,0,0,0,0,0,0,0,0,0,-1,1371,568,0,0
154,456,0,0,0,0,0,0,0,0,0,-1,1378,568,0,0
161,456,0,0,0,0,0,0,0,0,0,-1,1385,568,0,0
168,456,0,0,0,0,0,0,0,0,0,-1,1392,568,0,0
175,456,0,0,0,0,0,0,0,0,0,-1,1399,568,0,0
182,456,0,0,0,0,0,0,0,0,0,-1,1406,568,0,0
189,456,0,0,0,0,0,0,0,0,0,-1,1413,568,0,0
196,456,0,0,0,0,0,0,0,0,0,-1,1420,568,0,0
203,456,0,0,0,0,0,0,0,0,0,-1,1427,568,0,0
210,456,0,0,0,0,0,0,0,0,0,-1,1434,568,0,0
217,456,0,0,0,0,0,0,0,0,0,-1,1441,568,0,0
224,456,0,0,0,0,0,0,0,0,0,-1,1448,568,0,0
231,456,0,0,0,0,0,0,0,0,0,-1,1455,568,0,0
238,456,0,0,0,0,0,0,0,0,0,-1,1462,568,0,0
245,456,0,0,0,0,0,0,0,0,0,-1,1469,568,0,0
252,456,0,0,0,0,0,0,0,0,0,-1,1476,568,0,0
259,456,0,0,0,0,0,0,0,0,0,-1,1483,568,0,0
266,456,0,0,0,0,0,0,0,0,0,-1,1490,568,0,0
273,456,0,0,0,0,0,0,0,0,0,-1,1497,568,0,0
280,456,0,0,0,0,0,0,0,0,0,-1,1504,568,0,0
287,456,0,0,0,0,0,0,0,0,0,-1,1511,568,0,0
294,456,0,0,0,0,0,0,0,0,0,-1,1518,568,0,0
301,456,0,0,0,0,0,0,0,0,0,-1,1525,568,0,0
308,456,0,0,0,0,0,0,0,0,0,-1,1532,568,0,0
315,456,0,0,0,0,0,0,0,0,0,-1,1539,568,0,0
322,456,0,0,0,0,0,0,0,0,0,-1,1546,568,0,0
329,456,0,0,0,0,0,0,0,0,0,-1,1553,568,0,0
336,456,0,0,0,0,0,0,0,0,0,-1,1560,568,0,0
343,456,0,0,0,0,0,0,0,0,0,-1,1567,568,0,0
350,456,0,0,0,0,0,0,0,0,0,-1,1574,568,0,0
357,456,0,0,0,0,0,0,0,0,0,-1,1581,568,0,0
364,456,0,0,0,0,0,0,0,0,0,-1,1588,568,0,0
371,456,0,0,0,0,0,0,0,0,0,-1,1595,568,0,0
378,456,0,0,0,0,0,0,0,0,0,-1,1602,568,0,0
385,456,5.66284,0.660645,0,0,0,0,0,0,0,-1,1609,568,5.66285,-0.660615
392,456,11.1426,3.43079,0,0,0,0,0,0,0,-1,1616,568,11.1425,-3.43079
399,456,13.5647,3.49213,0,0,0,0,0,0,0,-1,1623,568,13.5647,-3.49213
406,456,17.8179,3.4339,0,0,0,0,0,0,0,-1,1630,568,17.8178,-3.43389
413,456,9.55115,1.49933,0,0,0,0,0,0,0,-1,1637,568,9.55119,-1.49933
420,456,6.33875,1.88824,0,0,0,0,0,0,0,-1,1644,568,6.33876,-1.88827
427,456,6.21375,2.02905,0,0,0,0,0,0,0,-1,1651,568,6.21372,-2.02904
434,456,3.0719,-4.86285,0,0,0,0,0,0,0,-1,1658,568,3.07184,4.86287
441,456,2.90344,-4.70459,0,0,0,0,0,0,0,-1,1665,568,2.90346,4.7046
448,456,3.06995,-4.93689,0,0,0,0,0,0,0,-1,1672,568,3.06991,4.93687
455,456,3.46582,-3.43701,0,0,0,0,0,0,0,-1,1679,568,3.46585,3.43698
462,456,4.68445,-4.45831,0,0,0,0,0,0,0,-1,1686,568,4.68439,4.45833
469,456,4.93201,-2.289,0,0,0,0,0,0,0,-1,1693,568,4.93197,2.28903
476,456,4.8363,-2.79364,0,0,0,0,0,0,0,-1,1700,568,4.83636,2.79363
483,456,6.40442,-5.07782,0,0,0,0,0,0,0,-1,1707,568,6.40446,5.07784
490,456,6.73315,-4.58923,0,0,0,0,0,0,0,-1,1714,568,6.73314,4.58921
497,456,6.8429,-4.18256,0.0056944,0.00163767,0.0023189,0.00674687,0.0005852,0.426065,0.00431609,0.0329276,1721,568,6.84289,4.18253
504,456,6.79944,-3.87225,0.00515795,0.000769322,0.00201611,0.00594353,-1.62499e-05,0.371549,0.00396778,0.0111646,1728,568,6.79938,3.87227
511,456,6.81433,-3.64221,0.00438994,0.000703179,0.00184649,0.00515569,-6.25772e-05,0.393121,0.00345818,0.0134716,1735,568,6.81429,3.64223
518,456,6.84412,-3.43988,0.00327592,0.000774205,0.00152235,0.00399539,5.47343e-05,0.441493,0.00264554,0.0160462,1742,568,6.84406,3.43988
525,456,6.823,-3.21704,0.00201876,0.00106135,0.00117738,0.00281104,0.000269076,0.592312,0.00179108,0.0157105,1749,568,6.82298,3.21705
532,456,6.82043,-2.95361,0.00076722,0.00146925,0.000827725,0.00201731,0.000219158,0.985941,0.0012781,0.0141171,1756,568,6.82039,2.95363
539,456,6.81812,-2.68213,-0.000418244,0.00185364,0.000486706,0.00195351,-0.00051812,1.3684,0.00150507,0.0162551,1763,568,6.8181,2.68215
546,456,6.80872,-2.45093,-0.00138548,0.00243718,0.000299726,0.00246054,-0.00140884,1.49302,0.00226133,0.0185539,1770,568,6.80866,2.45091
553,456,6.79443,-2.19537,-0.00221442,0.00291855,9.22563e-05,0.00292021,-0.00221607,1.55283,0.00297471,0.0132992,1777,568,6.79438,2.19535
560,456,6.80603,-1.97064,-0.00292049,0.00335461,-8.30573e-05,0.00335571,-0.00292159,-1.55756,0.00362708,0.0103098,1784,568,6.80602,1.97062
567,456,6.82495,-1.73309,-0.00329088,0.003625,-0.000155972,0.00362852,-0.0032944,-1.54826,0.0039985,0.013016,1791,568,6.82498,1.73312
574,456,6.79944,-1.61627,-0.00342857,0.0038146,-0.000229872,0.00382189,-0.00343585,-1.5391,0.00419223,0.0357024,1798,568,6.79943,1.61628
581,456,6.83191,-1.46704,0,0,0,0,0,0,0,-1,1805,568,6.83188,1.46707
588,456,5.23901,-0.0901489,0,0,0,0,0,0,0,-1,1812,568,5.23906,0.0901656
595,456,6.90063,3.14886,0,0,0,0,0,0,0,-1,1819,568,6.90066,-3.14887
602,456,12.3827,4.21948,0,0,0,0,0,0,0,-1,1826,568,12.3827,-4.21951
609,456,14.9966,3.5708,0,0,0,0,0,0,0,-1,1833,568,14.9966,-3.57083
616,456,17.7407,2.6579,0,0,0,0,0,0,0,-1,1840,568,17.7408,-2.6579
623,456,20.6838,1.7121,0,0,0,0,0,0,0,-1,1847,568,20.6838,-1.71208
630,456,0,0,0,0,0,0,0,0,0,-1,1854,568,0,0
637,456,0,0,0,0,0,0,0,0,0,-1,1861,568,0,0
644,456,0,0,0,0,0,0,0,0,0,-1,1868,568,0,0
651,456,0,0,0,0,0,0,0,0,0,-1,1875,568,0,0
658,456,0,0,0,0,0,0,0,0,0,-1,1882,568,0,0
665,456,0,0,0,0,0,0,0,0,0,-1,1889,568,0,0
672,456,0,0,0,0,0,0,0,0,0,-1,1896,568,0,0
679,456,0,0,0,0,0,0,0,0,0,-1,1903,568,0,0
686,456,0,0,0,0,0,0,0,0,0,-1,1910,568,0,0
693,456,0,0,0,0,0,0,0,0,0,-1,1917,568,0,0
700,456,0,0,0,0,0,0,0,0,0,-1,1924,568,0,0
707,456,0,0,0,0,0,0,0,0,0,-1,1931,568,0,0
714,456,0,0,0,0,0,0,0,0,0,-1,1938,568,0,0
721,456,0,0,0,0,0,0,0,0,0,-1,1945,568,0,0
728,456,0,0,0,0,0,0,0,0,0,-1,1952,568,0,0
735,456,0,0,0,0,0,0,0,0,0,-1,1959,568,0,0
742,456,0,0,0,0,0,0,0,0,0,-1,1966,568,0,0
749,456,0,0,0,0,0,0,0,0,0,-1,1973,568,0,0
756,456,0,0,0,0,0,0,0,0,0,-1,1980,568,0,0
763,456,0,0,0,0,0,0,0,0,0,-1,1987,568,0,0
770,456,0,0,0,0,0,0,0,0,0,-1,1994,568,0,0
777,456,0,0,0,0,0,0,0,0,0,-1,2001,568,0,0
784,456,0,0,0,0,0,0,0,0,0,-1,2008,568,0,0
791,456,0,0,0,0,0,0,0,0,0,-1,2015,568,0,0
798,456,0,0,0,0,0,0,0,0,0,-1,2022,568,0,0
805,456,0,0,0,0,0,0,0,0,0,-1,2029,568,0,0
812,456,0,0,0,0,0,0,0,0,0,-1,2036,568,0,0
-700,449,0,0,0,0,0,0,0,0,0,-1,524,575,0,0
-693,449,0,0,0,0,0,0,0,0,0,-1,531,575,0,0
-686,449,0,0,0,0,0,0,0,0,0,-1,538,575,0,0
-679,449,0,0,0,0,0,0,0,0,0,-1,545,575,0,0
-672,449,0,0,0,0,0,0,0,0,0,-1,552,575,0,0
-665,449,0,0,0,0,0,0,0,0,0,-1,559,575,0,0
-658,449,0,0,0,0,0,0,0,0,0,-1,566,575,0,0
-651,449,0,0,0,0,0,0,0,0,0,-1,573,575,0,0
-644,449,0,0,0,0,0,0,0,0,0,-1,580,575,0,0
-637,449,0,0,0,0,0,0,0,0,0,-1,587,575,0,0
-630,449,0,0,0,0,0,0,0,0,0,-1,594,575,0,0
-623,449,0,0,0,0,0,0,0,0,0,-1,601,575,0,0
-616,449,0,0,0,0,0,0,0,0,0,-1,608,575,0,0
-609,449,0,0,0,0,0,0,0,0,0,-1,615,575,0,0
-602,449,0,0,0,0,0,0,0,0,0,-1,622,575,0,0
-595,449,0,0,0,0,0,0,0,0,0,-1,629,575,0,0
-588,449,0,0,0,0,0,0,0,0,0,-1,636,575,0,0
-581,449,0,0,0,0,0,0,0,0,0,-1,643,575,0,0
-574,449,0,0,0,0,0,0,0,0,0,-1,650,575,0,0
-567,449,0,0,0,0,0,0,0,0,0,-1,657,575,0,0
-560,449,0,0,0,0,0,0,0,0,0,-1,664,575,0,0
-553,449,0,0,0,0,0,0,0,0,0,-1,671,575,0,0
-546,449,0,0,0,0,0,0,0,0,0,-1,678,575,0,0
-539,449,0,0,0,0,0,0,0,0,0,-1,685,575,0,0
-532,449,0,0,0,0,0,0,0,0,0,-1,692,575,0,0
-525,449,0,0,0,0,0,0,0,0,0,-1,699,575,0,0
-518,449,0,0,0,0,0,0,0,0,0,-1,706,575,0,0
-511,449,-0.941345,-4.4519,0,0,0,0,0,0,0,-1,713,575,-0.941356,4.45191
-504,449,-14.1078,0.318237,0,0,0,0,0,0,0,-1,720,575,-14.1078,-0.318231
-497,449,-9.50403,2.34485,0,0,0,0,0,0,0,-1,727,575,-9.50402,-2.34485
-490,449,-7.92145,1.30792,0,0,0,0,0,0,0,-1,734,575,-7.92145,-1.30795
-483,449,-6.00275,0.305542,0,0,0,0,0,0,0,-1,741,575,-6.00275,-0.305524
-476,449,-3.12244,-1.55927,0,0,0,0,0,0,0,-1,748,575,-3.12245,1.55928
-469,449,-2.80273,-2.0614,0,0,0,0,0,0,0,-1,755,575,-2.80272,2.0614
-462,449,-2.2691,-2.79889,0,0,0,0,0,0,0,-1,762,575,-2.2691,2.79891
-455,449,-2.13562,-2.94019,0.0279762,0.0158849,-0.0167008,0.0396919,0.00416921,-0.611736,0.0251868,0.0480444,769,575,-2.13559,2.9402
-448,449,-2.02826,-3.15259,0.019311,0.011509,-0.0118046,0.0278425,0.00297747,-0.625814,0.0176531,0.0240388,776,575,-2.02824,3.1526
-441,449,-2.01221,-3.43927,0.0132886,0.00838546,-0.00831607,0.0195069,0.0021671,-0.64206,0.0123458,0.0136624,783,575,-2.01219,3.43926
-434,449,-2.03033,-3.62396,0.00903634,0.0058812,-0.00571212,0.0133847,0.0015328,-0.650667,0.00845865,0.0118287,790,575,-2.03036,3.62394
-427,449,-2.02118,-3.82349,0.00504147,0.00358097,-0.00332146,0.00771201,0.000910436,-0.677191,0.00486633,0.0122348,797,575,-2.02121,3.82348
-420,449,-2.02173,-4.05054,0.00243089,0.00243202,-0.00172965,0.00416111,0.000701798,-0.785562,0.00257225,0.0119788,804,575,-2.02173,4.05051
-413,449,-2.03833,-4.28717,0.00104291,0.0018317,-0.00075626,0.00229023,0.000584382,-1.02575,0.00137409,0.00981032,811,575,-2.03832,4.28717
-406,449,-2.05475,-4.49823,0.000513261,0.00154326,-0.000190361,0.00157732,0.000479205,-1.39377,0.000933741,0.00895582,818,575,-2.05477,4.49822
-399,449,-2.05377,-4.70349,0.000267602,0.000945751,0.000298013,0.0010581,0.000155253,1.21028,0.000659766,0.00825203,825,575,-2.05377,4.70352
-392,449,-2.01801,-4.92346,0.000170172,0.000450225,0.000729044,0.00105257,-0.000432171,0.880277,0.000881806,0.00877808,832,575,-2.01802,4.92344
-385,449,-2.00879,-5.13452,0.000324099,9.17636e-05,0.00106441,0.00127866,-0.000862794,0.731044,0.00124411,0.00979115,839,575,-2.00876,5.1345
-378,449,-2.02838,-5.33252,0.000822164,-0.000160433,0.00126198,0.00168511,-0.00102338,0.599771,0.00157922,0.00910008,846,575,-2.02841,5.33251
-371,449,-2.01581,-5.52759,0.00177184,-0.000359205,0.00128209,0.00237338,-0.000960742,0.438693,0.00198171,0.00966875,853,575,-2.01581,5.52759
-364,449,-2.01123,-5.75,0.00326817,-0.000711676,0.00130474,0.00365777,-0.00110128,0.290177,0.00287675,0.0176732,860,575,-2.01123,5.75002
-357,449,-1.87964,-5.92657,0.00542997,-0.00137335,0.00111604,0.00560837,-0.00155175,0.158511,0.00434943,0.0303366,867,575,-1.87965,5.92658
-350,449,-1.59283,-5.66296,0.00805123,-0.00223649,0.000707456,0.00809965,-0.00228491,0.0683383,0.00630104,0.0476669,874,575,-1.59286,5.66298
-343,449,-1.43744,-5.63635,0,0,0,0,0,0,0,-1,881,575,-1.43743,5.63637
-336,449,-1.29724,-4.74359,0,0,0,0,0,0,0,-1,888,575,-1.29725,4.74358
-329,449,-1.21906,-3.34039,0,0,0,0,0,0,0,-1,895,575,-1.21906,3.34039
-322,449,-0.628845,-3.16669,0,0,0,0,0,0,0,-1,902,575,-0.628861,3.16667
-315,449,-0.540344,-3.21918,0,0,0,0,0,0,0,-1,909,575,-0.540336,3.21917
-308,449,-1.04413,-2.99341,0,0,0,0,0,0,0,-1,916,575,-1.04415,2.99338
-301,449,-1.58691,-2.80725,0,0,0,0,0,0,0,-1,923,575,-1.58692,2.80728
-294,449,-3.71118,-2.76086,0,0,0,0,0,0,0,-1,930,575,-3.71119,2.76087
-287,449,-4.4082,-2.69525,0,0,0,0,0,0,0,-1,937,575,-4.40822,2.69526
-280,449,-5.09955,-2.96295,0,0,0,0,0,0,0,-1,944,575,-5.09953,2.96297
-273,449,0,0,0,0,0,0,0,0,0,-1,951,575,0,0
-266,449,0,0,0,0,0,0,0,0,0,-1,958,575,0,0
-259,449,0,0,0,0,0,0,0,0,0,-1,965,575,0,0
-252,449,0,0,0,0,0,0,0,0,0,-1,972,575,0,0
-245,449,0,0,0,0,0,0,0,0,0,-1,979,575,0,0
-238,449,0,0,0,0,0,0,0,0,0,-1,986,575,0,0
-231,449,0,0,0,0,0,0,0,0,0,-1,993,575,0,0
-224,449,0,0,0,0,0,0,0,0,0,-1,1000,575,0,0
-217,449,0,0,0,0,0,0,0,0,0,-1,1007,575,0,0
-210,449,0,0,0,0,0,0,0,0,0,-1,1014,575,0,0
-203,449,0,0,0,0,0,0,0,0,0,-1,1021,575,0,0
-196,449,0,0,0,0,0,0,0,0,0,-1,1028,575,0,0
-189,449,0,0,0,0,0,0,0,0,0,-1,1035,575,0,0
-182,449,0,0,0,0,0,0,0,0,0,-1,1042,575,0,0
-175,449,0,0,0,0,0,0,0,0,0,-1,1049,575,0,0
-168,449,0,0,0,0,0,0,0,0,0,-1,1056,575,0,0
-161,449,0,0,0,0,0,0,0,0,0,-1,1063,575,0,0
-154,449,0,0,0,0,0,0,0,0,0,-1,1070,575,0,0
-147,449,0,0,0,0,0,0,0,0,0,-1,1077,575,0,0
-140,449,0,0,0,0,0,0,0,0,0,-1,1084,575,0,0
-133,449,0,0,0,0,0,0,0,0,0,-1,1091,575,0,0
-126,449,0,0,0,0,0,0,0,0,0,-1,1098,575,0,0
-119,449,0,0,0,0,0,0,0,0,0,-1,1105,575,0,0
-112,449,0,0,0,0,0,0,0,0,0,-1,1112,575,0,0
-105,449,0,0,0,0,0,0,0,0,0,-1,1119,575,0,0
-98,449,0,0,0,0,0,0,0,0,0,-1,1126,575,0,0
-91,449,0,0,0,0,0,0,0,0,0,-1,1133,575,0,0
-84,449,0,0,0,0,0,0,0,0,0,-1,1140,575,0,0
-77,449,0,0,0,0,0,0,0,0,0,-1,1147,575,0,0
-70,449,0,0,0,0,0,0,0,0,0,-1,1154,575,0,0
-63,449,0,0,0,0,0,0,0,0,0,-1,1161,575,0,0
-56,449,0,0,0,0,0,0,0,0,0,-1,1168,575,0,0
-49,449,0,0,0,0,0,0,0,0,0,-1,1175,575,0,0
-42,449,0,0,0,0,0,0,0,0,0,-1,1182,575,0,0
-35,449,0,0,0,0,0,0,0,0,0,-1,1189,575,0,0
-28,449,0,0,0,0,0,0,0,0,0,-1,1196,575,0,0
-21,449,0,0,0,0,0,0,0,0,0,-1,1203,575,0,0
-14,449,0,0,0,0,0,0,0,0,0,-1,1210,575,0,0
-7,449,0,0,0,0,0,0,0,0,0,-1,1217,575,0,0
0,449,0,0,0,0,0,0,0,0,0,-1,1224,575,0,0
7,449,0,0,0,0,0,0,0,0,0,-1,1231,575,0,0
14,449,0,0,0,0,0,0,0,0,0,-1,1238,575,0,0
21,449,0,0,0,0,0,0,0,0,0,-1,1245,575,0,0
28,449,0,0,0,0,0,0,0,0,0,-1,1252,575,0,0
35,449,0,0,0,0,0,0,0,0,0,-1,1259,575,0,0
42,449,0,0,0,0,0,0,0,0,0,-1,1266,575,0,0
49,449,0,0,0,0,0,0,0,0,0,-1,1273,575,0,0
56,449,0,0,0,0,0,0,0,0,0,-1,1280,575,0,0
63,449,0,0,0,0,0,0,0,0,0,-1,1287,575,0,0
70,449,0,0,0,0,0,0,0,0,0,-1,1294,575,0,0
77,449,0,0,0,0,0,0,0,0,0,-1,1301,575,0,0
84,449,0,0,0,0,0,0,0,0,0,-1,1308,575,0,0
91,449,0,0,0,0,0,0,0,0,0,-1,1315,575,0,0
98,449,0,0,0,0,0,0,0,0,0,-1,1322,575,0,0
105,449,0,0,0,0,0,0,0,0,0,-1,1329,575,0,0
112,449,0,0,0,0,0,0,0,0,0,-1,1336,575,0,0
119,449,0,0,0,0,0,0,0,0,0,-1,1343,575,0,0
126,449,0,0,0,0,0,0,0,0,0,-1,1350,575,0,0
133,449,0,0,0,0,0,0,0,0,0,-1,1357,575,0,0
140,449,0,0,0,0,0,0,0,0,0,-1,1364,575,0,0
147,449,0,0,0,0,0,0,0,0,0,-1,1371,575,0,0
154,449,0,0,0,0,0,0,0,0,0,-1,1378,575,0,0
161,449,0,0,0,0,0,0,0,0,0,-1,1385,575,0,0
168,449,0,0,0,0,0,0,0,0,0,-1,1392,575,0,0
175,449,0,0,0,0,0,0,0,0,0,-1,1399,575,0,0
182,449,0,0,0,0,0,0,0,0,0,-1,1406,575,0,0
189,449,0,0,0,0,0,0,0,0,0,-1,1413,575,0,0
196,449,0,0,0,0,0,0,0,0,0,-1,1420,575,0,0
203,449,0,0,0,0,0,0,0,0,0,-1,1427,575,0,0
210,449,0,0,0,0,0,0,0,0,0,-1,1434,575,0,0
217,449,0,0,0,0,0,0,0,0,0,-1,1441,575,0,0
224,449,0,0,0,0,0,0,0,0,0,-1,1448,575,0,0
231,449,0,0,0,0,0,0,0,0,0,-1,1455,575,0,0
238,449,0,0,0,0,0,0,0,0,0,-1,1462,575,0,0
245,449,0,0,0,0,0,0,0,0,0,-1,1469,575,0,0
252,449,0,0,0,0,0,0,0,0,0,-1,1476,575,0,0
259,449,0,0,0,0,0,0,0,0,0,-1,1483,575,0,0
266,449,0,0,0,0,0,0,0,0,0,-1,1490,575,0,0
273,449,0,0,0,0,0,0,0,0,0,-1,1497,575,0,0
280,449,0,0,0,0,0,0,0,0,0,-1,1504,575,0,0
287,449,0,0,0,0,0,0,0,0,0,-1,1511,575,0,0
294,449,0,0,0,0,0,0,0,0,0,-1,1518,575,0,0
301,449,0,0,0,0,0,0,0,0,0,-1,1525,575,0,0
308,449,0,0,0,0,0,0,0,0,0,-1,1532,575,0,0
315,449,0,0,0,0,0,0,0,0,0,-1,1539,575,0,0
322,449,0,0,0,0,0,0,0,0,0,-1,1546,575,0,0
329,449,0,0,0,0,0,0,0,0,0,-1,1553,575,0,0
336,449,0,0,0,0,0,0,0,0,0,-1,1560,575,0,0
343,449,0,0,0,0,0,0,0,0,0,-1,1567,575,0,0
350,449,0,0,0,0,0,0,0,0,0,-1,1574,575,0,0
357,449,0,0,0,0,0,0,0,0,0,-1,1581,575,0,0
364,449,0,0,0,0,0,0,0,0,0,-1,1588,575,0,0
371,449,0,0,0,0,0,0,0,0,0,-1,1595,575,0,0
378,449,0,0,0,0,0,0,0,0,0,-1,1602,575,0,0
385,449,0,0,0,0,0,0,0,0,0,-1,1609,575,0,0
392,449,7.95471,3.66217,0,0,0,0,0,0,0,-1,1616,575,7.95471,-3.66218
399,449,15.4399,4.83917,0,0,0,0,0,0,0,-1,1623,575,15.44,-4.83918
406,449,15.4888,3.6402,0,0,0,0,0,0,0,-1,1630,575,15.4888,-3.64021
413,449,15.5376,2.44122,0,0,0,0,0,0,0,-1,1637,575,15.5376,-2.44124
420,449,4.70264,2.21893,0,0,0,0,0,0,0,-1,1644,575,4.70263,-2.21894
427,449,8.96924,-4.53351,0,0,0,0,0,0,0,-1,1651,575,8.96925,4.53353
434,449,4.12927,-7.06952,0,0,0,0,0,0,0,-1,1658,575,4.12932,7.06952
441,449,3.89856,-6.06458,0,0,0,0,0,0,0,-1,1665,575,3.89855,6.06459
448,449,4.03198,-5.18207,0,0,0,0,0,0,0,-1,1672,575,4.03197,5.18207
455,449,4.21948,-4.09467,0,0,0,0,0,0,0,-1,1679,575,4.21952,4.09465
462,449,4.23181,-2.96924,0,0,0,0,0,0,0,-1,1686,575,4.23185,2.96926
469,449,4.51672,-2.95135,0,0,0,0,0,0,0,-1,1693,575,4.51672,2.95135
476,449,4.71838,-1.86688,0,0,0,0,0,0,0,-1,1700,575,4.71842,1.86689
483,449,4.87878,-1.73126,0,0,0,0,0,0,0,-1,1707,575,4.87875,1.73128
490,449,5.73279,-2.74573,0,0,0,0,0,0,0,-1,1714,575,5.73282,2.74575
497,449,7.02466,-4.34326,0,0,0,0,0,0,0,-1,1721,575,7.02462,4.34327
504,449,6.99463,-3.90906,0.006759,0.000724054,0.00270784,0.00779586,-0.000312798,0.365685,0.00530458,0.0355807,1728,575,6.99464,3.90903
511,449,7.04175,-3.63947,0.0058514,0.000524363,0.00239709,0.00677123,-0.000395467,0.3664,0.00465158,0.0109393,1735,575,7.04174,3.63947
518,449,7.06506,-3.41742,0.00463989,0.000459991,0.0019493,0.00540785,-0.000307969,0.375295,0.00371215,0.0130169,1742,575,7.06501,3.4174
525,449,7.04102,-3.20367,0.00333273,0.000627056,0.00153768,0.00402797,-6.81849e-05,0.424629,0.00270833,0.0116736,1749,575,7.04107,3.20367
532,449,7.01416,-2.96417,0.00206459,0.000879064,0.00111283,0.00273269,0.000210968,0.540681,0.0017557,0.00955239,1756,575,7.01419,2.96415
539,449,7.01001,-2.71033,0.000890312,0.00108237,0.000695922,0.00168885,0.000283823,0.853958,0.00104423,0.0121232,1763,575,7.01007,2.7103
546,449,7.03967,-2.46912,-4.0712e-05,0.00147952,0.000447113,0.00160127,-0.000162461,1.30494,0.00112558,0.020515,1770,575,7.03964,2.46912
553,449,7.03467,-2.23883,-0.000804061,0.00178251,0.000207501,0.00179905,-0.000820601,1.49125,0.00154722,0.0152286,1777,575,7.03464,2.23886
560,449,7.04614,-2.00763,-0.00145022,0.0020636,1.4962e-05,0.00206366,-0.00145028,1.56654,0.00203905,0.0125362,1784,575,7.04613,2.00763
567,449,7.04993,-1.75482,-0.0017966,0.00226497,-6.16366e-05,0.00226591,-0.00179754,-1.55563,0.00235122,0.00937316,1791,575,7.04997,1.75483
574,449,7.04614,-1.48315,-0.00184285,0.00240319,-5.24592e-05,0.00240384,-0.0018435,-1.55844,0.0024593,0.0182874,1798,575,7.04619,1.48318
581,449,7.03894,-1.25726,-0.0017301,0.00254972,0.00016205,0.00255584,-0.00173623,1.533,0.00249305,0.0427985,1805,575,7.03894,1.25725
588,449,7.12219,-1.12146,0,0,0,0,0,0,0,-1,1812,575,7.12221,1.12148
595,449,7.30286,-0.427124,0,0,0,0,0,0,0,-1,1819,575,7.30291,0.427094
602,449,9.46167,4.17444,0,0,0,0,0,0,0,-1,1826,575,9.46164,-4.17442
609,449,12.2028,3.18652,0,0,0,0,0,0,0,-1,1833,575,12.2027,-3.18655
616,449,14.9438,2.19867,0,0,0,0,0,0,0,-1,1840,575,14.9438,-2.19867
623,449,9.83789,-0.0820313,0,0,0,0,0,0,0,-1,1847,575,9.83794,0.0820443
630,449,8.90686,4.99329,0,0,0,0,0,0,0,-1,1854,575,8.90685,-4.99327
637,449,0,0,0,0,0,0,0,0,0,-1,1861,575,0,0
644,449,0,0,0,0,0,0,0,0,0,-1,1868,575,0,0
651,449,0,0,0,0,0,0,0,0,0,-1,1875,575,0,0
658,449,0,0,0,0,0,0,0,0,0,-1,1882,575,0,0
665,449,0,0,0,0,0,0,0,0,0,-1,1889,575,0,0
672,449,0,0,0,0,0,0,0,0,0,-1,1896,575,0,0
679,449,0,0,0,0,0,0,0,0,0,-1,1903,575,0,0
686,449,0,0,0,0,0,0,0,0,0,-1,1910,575,0,0
693,449,0,0,0,0,0,0,0,0,0,-1,1917,575,0,0
700,449,0,0,0,0,0,0,0,0,0,-1,1924,575,0,0
707,449,0,0,0,0,0,0,0,0,0,-1,1931,575,0,0
714,449,0,0,0,0,0,0,0,0,0,-1,1938,575,0,0
721,449,0,0,0,0,0,0,0,0,0,-1,1945,575,0,0
728,449,0,0,0,0,0,0,0,0,0,-1,1952,575,0,0
735,449,0,0,0,0,0,0,0,0,0,-1,1959,575,0,0
742,449,0,0,0,0,0,0,0,0,0,-1,1966,575,0,0
749,449,0,0,0,0,0,0,0,0,0,-1,1973,575,0,0
756,449,0,0,0,0,0,0,0,0,0,-1,1980,575,0,0
763,449,0,0,0,0,0,0,0,0,0,-1,1987,575,0,0
770,449,0,0,0,0,0,0,0,0,0,-1,1994,575,0,0
777,449,0,0,0,0,0,0,0,0,0,-1,2001,575,0,0
784,449,0,0,0,0,0,0,0,0,0,-1,2008,575,0,0
791,449,0,0,0,0,0,0,0,0,0,-1,2015,575,0,0
798,449,0,0,0,0,0,0,0,0,0,-1,2022,575,0,0
805,449,0,0,0,0,0,0,0,0,0,-1,2029,575,0,0
812,449,0,0,0,0,0,0,0,0,0,-1,2036,575,0,0
-700,442,0,0,0,0,0,0,0,0,0,-1,524,582,0,0
-693,442,0,0,0,0,0,0,0,0,0,-1,531,582,0,0
-686,442,0,0,0,0,0,0,0,0,0,-1,538,582,0,0
-679,442,0,0,0,0,0,0,0,0,0,-1,545,582,0,0
-672,442,0,0,0,0,0,0,0,0,0,-1,552,582,0,0
-665,442,0,0,0,0,0,0,0,0,0,-1,559,582,0,0
-658,442,0,0,0,0,0,0,0,0,0,-1,566,582,0,0
-651,442,0,0,0,0,0,0,0,0,0,-1,573,582,0,0
-644,442,0,0,0,0,0,0,0,0,0,-1,580,582,0,0
-637,442,0,0,0,0,0,0,0,0,0,-1,587,582,0,0
-630,442,0,0,0,0,0,0,0,0,0,-1,594,582,0,0
-623,442,0,0,0,0,0,0,0,0,0,-1,601,582,0,0
-616,442,0,0,0,0,0,0,0,0,0,-1,608,582,0,0
-609,442,0,0,0,0,0,0,0,0,0,-1,615,582,0,0
-602,442,0,0,0,0,0,0,0,0,0,-1,622,582,0,0
-595,442,0,0,0,0,0,0,0,0,0,-1,629,582,0,0
-588,442,0,0,0,0,0,0,0,0,0,-1,636,582,0,0
-581,442,0,0,0,0,0,0,0,0,0,-1,643,582,0,0
-574,442,0,0,0,0,0,0,0,0,0,-1,650,582,0,0
-567,442,0,0,0,0,0,0,0,0,0,-1,657,582,0,0
-560,442,0,0,0,0,0,0,0,0,0,-1,664,582,0,0
-553,442,0,0,0,0,0,0,0,0,0,-1,671,582,0,0
-546,442,0,0,0,0,0,0,0,0,0,-1,678,582,0,0
-539,442,0,0,0,0,0,0,0,0,0,-1,685,582,0,0
-532,442,0,0,0,0,0,0,0,0,0,-1,692,582,0,0
-525,442,0,0,0,0,0,0,0,0,0,-1,699,582,0,0
-518,442,-0.493774,-5.72943,0,0,0,0,0,0,0,-1,706,582,-0.493791,5.72946
-511,442,-1.68738,-5.91357,0,0,0,0,0,0,0,-1,713,582,-1.68736,5.91359
-504,442,-3.20807,-6.34082,0,0,0,0,0,0,0,-1,720,582,-3.2081,6.34083
-497,442,-13.6886,-0.250122,0,0,0,0,0,0,0,-1,727,582,-13.6886,0.250143
-490,442,-5.86694,0.132874,0,0,0,0,0,0,0,-1,734,582,-5.86694,-0.132878
-483,442,-4.5694,-0.662415,0.0776702,0.0424889,-0.0435504,0.107048,0.0131108,-0.593459,0.0674215,0.0449011,741,582,-4.56942,0.662422
-476,442,-3.39111,-1.62653,0.059469,0.0321647,-0.0340109,0.0824655,0.00916819,-0.59454,0.0521901,0.0475484,748,582,-3.39109,1.6265
-469,442,-2.74451,-2.2851,0.0445019,0.0238637,-0.0259391,0.0620991,0.00626642,-0.596085,0.0394768,0.0488178,755,582,-2.74453,2.28508
-462,442,-2.24976,-2.83551,0.0325814,0.0174518,-0.0194036,0.0458427,0.0041905,-0.599529,0.0292651,0.0356351,762,582,-2.24974,2.83549
-455,442,-2.29169,-3.04437,0.0232571,0.0126172,-0.0142506,0.0331484,0.0027259,-0.606753,0.0212486,0.0260219,769,582,-2.29171,3.0444
-448,442,-2.23468,-3.19299,0.0161744,0.00901013,-0.0102309,0.0234321,0.00175237,-0.617004,0.0150713,0.0146167,776,582,-2.23467,3.19298
-441,442,-2.22913,-3.42456,0.0111407,0.00643567,-0.00731374,0.016471,0.00110541,-0.629795,0.0106313,0.0139514,783,582,-2.2291,3.42455
-434,442,-2.23914,-3.62421,0.00748187,0.00430984,-0.00503061,0.0111706,0.000621146,-0.632694,0.00724887,0.0129848,790,582,-2.23911,3.62423
-427,442,-2.25336,-3.82996,0.00389102,0.00231937,-0.00286738,0.00607831,0.000132081,-0.651653,0.0040089,0.012453,797,582,-2.25334,3.82993
-420,442,-2.2301,-4.06866,0.00142545,0.00136765,-0.00132936,0.00272622,6.68799e-05,-0.774531,0.0017956,0.01262,804,582,-2.23008,4.06868
-413,442,-2.22009,-4.27985,0.000109208,0.0009623,-0.000368042,0.00109913,-2.76258e-05,-1.21485,0.000742136,0.01052,811,582,-2.22008,4.27985
-406,442,-2.24084,-4.49481,-0.000380913,0.000852142,0.000241473,0.000897744,-0.000426515,1.38415,0.00078053,0.00862182,818,582,-2.24086,4.49482
-399,442,-2.24756,-4.70819,-0.000629469,0.000391478,0.000815396,0.00084301,-0.001081,1.06507,0.00111366,0.00733438,825,582,-2.24755,4.70817
-392,442,-2.23669,-4.92712,-0.000739448,3.42925e-05,0.00134095,0.00104306,-0.00174822,0.925837,0.0016286,0.00976899,832,582,-2.23669,4.92713
-385,442,-2.23187,-5.13013,-0.000632848,-0.00017506,0.00180938,0.00141985,-0.00222775,0.848316,0.00212309,0.0121586,839,582,-2.23185,5.13013
-378,442,-2.23425,-5.33307,-0.000163991,-0.000319181,0.00215096,0.00191077,-0.00239394,0.767369,0.00249054,0.0121724,846,582,-2.23422,5.3331
-371,442,-2.22375,-5.56635,0.000853134,-0.00044352,0.00230717,0.00260134,-0.00219173,0.648428,0.00277065,0.0217821,853,582,-2.22374,5.56634
-364,442,-2.26917,-5.89063,0.00249074,-0.000902692,0.00241714,0.00374723,-0.00215918,0.47938,0.00345091,0.0365028,860,582,-2.26914,5.89061
-357,442,-1.92944,-6.11224,0.00490423,-0.00165469,0.00228285,0.00562055,-0.00237101,0.304054,0.00473937,0.0495137,867,582,-1.92946,6.11225
-350,442,-1.60522,-5.45795,0,0,0,0,0,0,0,-1,874,582,-1.60521,5.45792
-343,442,-1.57098,-4.42352,0,0,0,0,0,0,0,-1,881,582,-1.57096,4.42353
-336,442,-1.4054,-2.64313,0,0,0,0,0,0,0,-1,888,582,-1.40539,2.64315
-329,442,-0.952576,-2.76923,0,0,0,0,0,0,0,-1,895,582,-0.952571,2.7692
-322,442,-0.972534,-2.63208,0,0,0,0,0,0,0,-1,902,582,-0.972512,2.6321
-315,442,-0.445557,-2.89764,0,0,0,0,0,0,0,-1,909,582,-0.445582,2.89765
-308,442,-0.654175,-3.07831,0,0,0,0,0,0,0,-1,916,582,-0.654145,3.07832
-301,442,-1.37427,-2.41455,0,0,0,0,0,0,0,-1,923,582,-1.37425,2.41453
-294,442,-2.99963,-2.07855,0,0,0,0,0,0,0,-1,930,582,-2.99964,2.07857
-287,442,-5.62799,-2.76422,0,0,0,0,0,0,0,-1,937,582,-5.628,2.76424
-280,442,0,0,0,0,0,0,0,0,0,-1,944,582,0,0
-273,442,0,0,0,0,0,0,0,0,0,-1,951,582,0,0
-266,442,0,0,0,0,0,0,0,0,0,-1,958,582,0,0
-259,442,0,0,0,0,0,0,0,0,0,-1,965,582,0,0
-252,442,0,0,0,0,0,0,0,0,0,-1,972,582,0,0
-245,442,0,0,0,0,0,0,0,0,0,-1,979,582,0,0
-238,442,0,0,0,0,0,0,0,0,0,-1,986,582,0,0
-231,442,0,0,0,0,0,0,0,0,0,-1,993,582,0,0
-224,442,0,0,0,0,0,0,0,0,0,-1,1000,582,0,0
-217,442,0,0,0,0,0,0,0,0,0,-1,1007,582,0,0
-210,442,0,0,0,0,0,0,0,0,0,-1,1014,582,0,0
-203,442,0,0,0,0,0,0,0,0,0,-1,1021,582,0,0
-196,442,0,0,0,0,0,0,0,0,0,-1,1028,582,0,0
-189,442,0,0,0,0,0,0,0,0,0,-1,1035,582,0,0
-182,442,0,0,0,0,0,0,0,0,0,-1,1042,582,0,0
-175,442,0,0,0,0,0,0,0,0,0,-1,1049,582,0,0
-168,442,0,0,0,0,0,0,0,0,0,-1,1056,582,0,0
-161,442,0,0,0,0,0,0,0,0,0,-1,1063,582,0,0
-154,442,0,0,0,0,0,0,0,0,0,-1,1070,582,0,0
-147,442,0,0,0,0,0,0,0,0,0,-1,1077,582,0,0
-140,442,0,0,0,0,0,0,0,0,0,-1,1084,582,0,0
-133,442,0,0,0,0,0,0,0,0,0,-1,1091,582,0,0
-126,442,0,0,0,0,0,0,0,0,0,-1,1098,582,0,0
-119,442,0,0,0,0,0,0,0,0,0,-1,1105,582,0,0
-112,442,0,0,0,0,0,0,0,0,0,-1,1112,582,0,0
-105,442,0,0,0,0,0,0,0,0,0,-1,1119,582,0,0
-98,442,0,0,0,0,0,0,0,0,0,-1,1126,582,0,0
-91,442,0,0,0,0,0,0,0,0,0,-1,1133,582,0,0
-84,442,0,0,0,0,0,0,0,0,0,-1,1140,582,0,0
-77,442,0,0,0,0,0,0,0,0,0,-1,1147,582,0,0
-70,442,0,0,0,0,0,0,0,0,0,-1,1154,582,0,0
-63,442,0,0,0,0,0,0,0,0,0,-1,1161,582,0,0
-56,442,0,0,0,0,0,0,0,0,0,-1,1168,582,0,0
-49,442,0,0,0,0,0,0,0,0,0,-1,1175,582,0,0
-42,442,0,0,0,0,0,0,0,0,0,-1,1182,582,0,0
-35,442,0,0,0,0,0,0,0,0,0,-1,1189,582,0,0
-28,442,0,0,0,0,0,0,0,0,0,-1,1196,582,0,0
-21,442,0,0,0,0,0,0,0,0,0,-1,1203,582,0,0
-14,442,0,0,0,0,0,0,0,0,0,-1,1210,582,0,0
-7,442,0,0,0,0,0,0,0,0,0,-1,1217,582,0,0
0,442,0,0,0,0,0,0,0,0,0,-1,1224,582,0,0
7,442,0,0,0,0,0,0,0,0,0,-1,1231,582,0,0
14,442,0,0,0,0,0,0,0,0,0,-1,1238,582,0,0
21,442,0,0,0,0,0,0,0,0,0,-1,1245,582,0,0
28,442,0,0,0,0,0,0,0,0,0,-1,1252,582,0,0
35,442,0,0,0,0,0,0,0,0,0,-1,1259,582,0,0
42,442,0,0,0,0,0,0,0,0,0,-1,1266,582,0,0
49,442,0,0,0,0,0,0,0,0,0,-1,1273,582,0,0
56,442,0,0,0,0,0,0,0,0,0,-1,1280,582,0,0
63,442,0,0,0,0,0,0,0,0,0,-1,1287,582,0,0
70,442,0,0,0,0,0,0,0,0,0,-1,1294,582,0,0
77,442,0,0,0,0,0,0,0,0,0,-1,1301,582,0,0
84,442,0,0,0,0,0,0,0,0,0,-1,1308,582,0,0
91,442,0,0,0,0,0,0,0,0,0,-1,1315,582,0,0
98,442,0,0,0,0,0,0,0,0,0,-1,1322,582,0,0
105,442,0,0,0,0,0,0,0,0,0,-1,1329,582,0,0
112,442,0,0,0,0,0,0,0,0,0,-1,1336,582,0,0
119,442,0,0,0,0,0,0,0,0,0,-1,1343,582,0,0
126,442,0,0,0,0,0,0,0,0,0,-1,1350,582,0,0
133,442,0,0,0,0,0,0,0,0,0,-1,1357,582,0,0
140,442,0,0,0,0,0,0,0,0,0,-1,1364,582,0,0
147,442,0,0,0,0,0,0,0,0,0,-1,1371,582,0,0
154,442,0,0,0,0,0,0,0,0,0,-1,1378,582,0,0
161,442,0,0,0,0,0,0,0,0,0,-1,1385,582,0,0
168,442,0,0,0,0,0,0,0,0,0,-1,1392,582,0,0
175,442,0,0,0,0,0,0,0,0,0,-1,1399,582,0,0
182,442,0,0,0,0,0,0,0,0,0,-1,1406,582,0,0
189,442,0,0,0,0,0,0,0,0,0,-1,1413,582,0,0
196,442,0,0,0,0,0,0,0,0,0,-1,1420,582,0,0
203,442,0,0,0,0,0,0,0,0,0,-1,1427,582,0,0
210,442,0,0,0,0,0,0,0,0,0,-1,1434,582,0,0
217,442,0,0,0,0,0,0,0,0,0,-1,1441,582,0,0
224,442,0,0,0,0,0,0,0,0,0,-1,1448,582,0,0
231,442,0,0,0,0,0,0,0,0,0,-1,1455,582,0,0
238,442,0,0,0,0,0,0,0,0,0,-1,1462,582,0,0
245,442,0,0,0,0,0,0,0,0,0,-1,1469,582,0,0
252,442,0,0,0,0,0,0,0,0,0,-1,1476,582,0,0
259,442,0,0,0,0,0,0,0,0,0,-1,1483,582,0,0
266,442,0,0,0,0,0,0,0,0,0,-1,1490,582,0,0
273,442,0,0,0,0,0,0,0,0,0,-1,1497,582,0,0
280,442,0,0,0,0,0,0,0,0,0,-1,1504,582,0,0
287,442,0,0,0,0,0,0,0,0,0,-1,1511,582,0,0
294,442,0,0,0,0,0,0,0,0,0,-1,1518,582,0,0
301,442,0,0,0,0,0,0,0,0,0,-1,1525,582,0,0
308,442,0,0,0,0,0,0,0,0,0,-1,1532,582,0,0
315,442,0,0,0,0,0,0,0,0,0,-1,1539,582,0,0
322,442,0,0,0,0,0,0,0,0,0,-1,1546,582,0,0
329,442,0,0,0,0,0,0,0,0,0,-1,1553,582,0,0
336,442,0,0,0,0,0,0,0,0,0,-1,1560,582,0,0
343,442,0,0,0,0,0,0,0,0,0,-1,1567,582,0,0
350,442,0,0,0,0,0,0,0,0,0,-1,1574,582,0,0
357,442,0,0,0,0,0,0,0,0,0,-1,1581,582,0,0
364,442,0,0,0,0,0,0,0,0,0,-1,1588,582,0,0
371,442,0,0,0,0,0,0,0,0,0,-1,1595,582,0,0
378,442,0,0,0,0,0,0,0,0,0,-1,1602,582,0,0
385,442,0,0,0,0,0,0,0,0,0,-1,1609,582,0,0
392,442,0,0,0,0,0,0,0,0,0,-1,1616,582,0,0
399,442,0,0,0,0,0,0,0,0,0,-1,1623,582,0,0
406,442,13.1598,3.8465,0,0,0,0,0,0,0,-1,1630,582,13.1598,-3.84653
413,442,3.66699,2.87408,0,0,0,0,0,0,0,-1,1637,582,3.66703,-2.87408
420,442,4.69055,3.09448,0,0,0,0,0,0,0,-1,1644,582,4.69054,-3.0945
427,442,2.44519,-1.35358,0,0,0,0,0,0,0,-1,1651,582,2.44514,1.35361
434,442,8.45898,-3.86719,0,0,0,0,0,0,0,-1,1658,582,8.45904,3.86719
441,442,4.89368,-7.42456,0,0,0,0,0,0,0,-1,1665,582,4.89365,7.42457
448,442,4.7749,-5.88562,0,0,0,0,0,0,0,-1,1672,582,4.7749,5.8856
455,442,4.87024,-4.60687,0,0,0,0,0,0,0,-1,1679,582,4.87019,4.60686
462,442,5.02307,-3.72821,0,0,0,0,0,0,0,-1,1686,582,5.02311,3.7282
469,442,5.12976,-2.98834,0,0,0,0,0,0,0,-1,1693,582,5.12971,2.98834
476,442,5.4624,1.76947,0,0,0,0,0,0,0,-1,1700,582,5.46234,-1.76944
483,442,5.98486,1.87042,0,0,0,0,0,0,0,-1,1707,582,5.98492,-1.87045
490,442,5.04407,-2.35834,0,0,0,0,0,0,0,-1,1714,582,5.04411,2.35837
497,442,6.20984,-3.07831,0,0,0,0,0,0,0,-1,1721,582,6.2098,3.07833
504,442,7.10449,-3.97845,0,0,0,0,0,0,0,-1,1728,582,7.10453,3.97847
511,442,7.21021,-3.6601,0.00698818,0.000130292,0.0025084,0.00780773,-0.000689258,0.315789,0.00544946,0.0228684,1735,582,7.21024,3.66007
518,442,7.29443,-3.40607,0.00557289,-1.08565e-05,0.00200862,0.00622036,-0.000658332,0.311831,0.00438287,0.0115593,1742,582,7.29444,3.40609
525,442,7.27197,-3.19806,0.00414626,0.000110195,0.00161537,0.00471316,-0.000456705,0.337513,0.00330488,0.00988565,1749,582,7.27197,3.19808
532,442,7.28015,-2.95319,0.00282291,0.000289007,0.00119898,0.0033003,-0.000188378,0.37892,0.00226561,0.00958339,1756,582,7.28017,2.9532
539,442,7.27966,-2.69769,0.00164783,0.00041871,0.00079055,0.0020346,3.19451e-05,0.454999,0.00134588,0.0108565,1763,582,7.27966,2.69767
546,442,7.29785,-2.47913,0.000751847,0.000728914,0.000548956,0.00128946,0.000191305,0.774956,0.000803496,0.0138033,1770,582,7.29788,2.47913
553,442,7.26855,-2.23792,6.79402e-05,0.000973283,0.000346504,0.00109068,-4.94556e-05,1.24413,0.000744152,0.0146646,1777,582,7.26854,2.23791
560,442,7.2666,-2.00354,-0.000483962,0.00122018,0.000199797,0.00124329,-0.000507074,1.45563,0.00103994,0.0130764,1784,582,7.26665,2.00352
567,442,7.27515,-1.75,-0.000776931,0.00146443,0.000170743,0.00147736,-0.000789864,1.4952,0.00132889,0.00945097,1791,582,7.27513,1.75001
574,442,7.26038,-1.50232,-0.00071847,0.00166383,0.000283603,0.00169713,-0.000751767,1.45393,0.00144856,0.0116898,1798,582,7.26039,1.5023
581,442,7.30713,-1.23138,-0.000472444,0.00194125,0.000571134,0.00206957,-0.000600764,1.34979,0.00161759,0.0167718,1805,582,7.30708,1.23137
588,442,7.26563,-1.10309,9.1109e-05,0.00228514,0.00110129,0.00274257,-0.000366318,1.17712,0.00196192,0.0231531,1812,582,7.26557,1.10306
595,442,7.31995,-0.701477,0.00103378,0.00296353,0.00190692,0.00413579,-0.000138478,1.01961,0.00280449,0.0355881,1819,582,7.31997,0.701477
602,442,7.2688,-0.517395,0,0,0,0,0,0,0,-1,1826,582,7.26885,0.517382
609,442,9.38428,2.86908,0,0,0,0,0,0,0,-1,1833,582,9.38429,-2.86906
616,442,7.16003,-1.18372,0,0,0,0,0,0,0,-1,1840,582,7.16,1.18373
623,442,9.23828,0.326721,0,0,0,0,0,0,0,-1,1847,582,9.23829,-0.326727
630,442,7.74304,2.3924,0,0,0,0,0,0,0,-1,1854,582,7.7431,-2.39238
637,442,5.87805,1.84027,0,0,0,0,0,0,0,-1,1861,582,5.87807,-1.84025
644,442,0,0,0,0,0,0,0,0,0,-1,1868,582,0,0
651,442,0,0,0,0,0,0,0,0,0,-1,1875,582,0,0
658,442,0,0,0,0,0,0,0,0,0,-1,1882,582,0,0
665,442,0,0,0,0,0,0,0,0,0,-1,1889,582,0,0
672,442,0,0,0,0,0,0,0,0,0,-1,1896,582,0,0
679,442,0,0,0,0,0,0,0,0,0,-1,1903,582,0,0
686,442,0,0,0,0,0,0,0,0,0,-1,1910,582,0,0
693,442,0,0,0,0,0,0,0,0,0,-1,1917,582,0,0
700,442,0,0,0,0,0,0,0,0,0,-1,1924,582,0,0
707,442,0,0,0,0,0,0,0,0,0,-1,1931,582,0,0
714,442,0,0,0,0,0,0,0,0,0,-1,1938,582,0,0
721,442,0,0,0,0,0,0,0,0,0,-1,1945,582,0,0
728,442,0,0,0,0,0,0,0,0,0,-1,1952,582,0,0
735,442,0,0,0,0,0,0,0,0,0,-1,1959,582,0,0
742,442,0,0,0,0,0,0,0,0,0,-1,1966,582,0,0
749,442,0,0,0,0,0,0,0,0,0,-1,1973,582,0,0
756,442,0,0,0,0,0,0,0,0,0,-1,1980,582,0,0
763,442,0,0,0,0,0,0,0,0,0,-1,1987,582,0,0
770,442,0,0,0,0,0,0,0,0,0,-1,1994,582,0,0
777,442,0,0,0,0,0,0,0,0,0,-1,2001,582,0,0
784,442,0,0,0,0,0,0,0,0,0,-1,2008,582,0,0
791,442,0,0,0,0,0,0,0,0,0,-1,2015,582,0,0
798,442,0,0,0,0,0,0,0,0,0,-1,2022,582,0,0
805,442,0,0,0,0,0,0,0,0,0,-1,2029,582,0,0
812,442,0,0,0,0,0,0,0,0,0,-1,2036,582,0,0
-700,435,0,0,0,0,0,0,0,0,0,-1,524,589,0,0
-693,435,0,0,0,0,0,0,0,0,0,-1,531,589,0,0
-686,435,0,0,0,0,0,0,0,0,0,-1,538,589,0,0
-679,435,0,0,0,0,0,0,0,0,0,-1,545,589,0,0
-672,435,0,0,0,0,0,0,0,0,0,-1,552,589,0,0
-665,435,0,0,0,0,0,0,0,0,0,-1,559,589,0,0
-658,435,0,0,0,0,0,0,0,0,0,-1,566,589,0,0
-651,435,0,0,0,0,0,0,0,0,0,-1,573,589,0,0
-644,435,0,0,0,0,0,0,0,0,0,-1,580,589,0,0
-637,435,0,0,0,0,0,0,0,0,0,-1,587,589,0,0
-630,435,0,0,0,0,0,0,0,0,0,-1,594,589,0,0
-623,435,0,0,0,0,0,0,0,0,0,-1,601,589,0,0
-616,435,0,0,0,0,0,0,0,0,0,-1,608,589,0,0
-609,435,0,0,0,0,0,0,0,0,0,-1,615,589,0,0
-602,435,0,0,0,0,0,0,0,0,0,-1,622,589,0,0
-595,435,0,0,0,0,0,0,0,0,0,-1,629,589,0,0
-588,435,0,0,0,0,0,0,0,0,0,-1,636,589,0,0
-581,435,0,0,0,0,0,0,0,0,0,-1,643,589,0,0
-574,435,0,0,0,0,0,0,0,0,0,-1,650,589,0,0
-567,435,0,0,0,0,0,0,0,0,0,-1,657,589,0,0
-560,435,0,0,0,0,0,0,0,0,0,-1,664,589,0,0
-553,435,0,0,0,0,0,0,0,0,0,-1,671,589,0,0
-546,435,0,0,0,0,0,0,0,0,0,-1,678,589,0,0
-539,435,0,0,0,0,0,0,0,0,0,-1,685,589,0,0
-532,435,0,0,0,0,0,0,0,0,0,-1,692,589,0,0
-525,435,0.57843,-4.4433,0,0,0,0,0,0,0,-1,699,589,0.578429,4.44331
-518,435,-0.928711,-4.91492,0,0,0,0,0,0,0,-1,706,589,-0.928723,4.91489
-511,435,-2.43555,-5.38599,0,0,0,0,0,0,0,-1,713,589,-2.43553,5.38597
-504,435,-3.89355,-5.72308,0,0,0,0,0,0,0,-1,720,589,-3.89353,5.72309
-497,435,-5.18701,-5.97711,0,0,0,0,0,0,0,-1,727,589,-5.18703,5.97714
-490,435,-4.75385,-0.894775,0,0,0,0,0,0,0,-1,734,589,-4.75384,0.894767
-483,435,-4.26196,-1.3866,0.0580425,0.0331407,-0.0329582,0.0808232,0.01036,-0.604796,0.0507823,0.0459561,741,589,-4.26194,1.38659
-476,435,-3.40332,-1.9411,0.0452668,0.0252524,-0.0261245,0.0632351,0.007284,-0.60249,0.0399507,0.0450894,748,589,-3.40333,1.94108
-469,435,-2.48218,-2.41022,0.034495,0.0189963,-0.0202225,0.0484021,0.00508916,-0.602427,0.0307126,0.0293066,755,589,-2.48219,2.41025
-462,435,-2.39197,-2.7796,0.0256983,0.0139871,-0.0153144,0.0362383,0.003447,-0.602795,0.0230958,0.0149306,762,589,-2.39194,2.77963
-455,435,-2.45996,-2.97852,0.0186118,0.0101017,-0.0113221,0.026452,0.00226146,-0.605654,0.0169313,0.0138692,769,589,-2.45995,2.9785
-448,435,-2.45154,-3.19135,0.0130599,0.00709803,-0.00810207,0.018712,0.00144591,-0.609123,0.0120217,0.0131741,776,589,-2.45154,3.19137
-441,435,-2.45825,-3.40698,0.00897902,0.00493192,-0.00571881,0.0130217,0.00088921,-0.615351,0.00840045,0.0110342,783,589,-2.45824,3.40696
-434,435,-2.46582,-3.61731,0.00591408,0.00308279,-0.00375838,0.00851458,0.000482288,-0.605284,0.00552265,0.0122796,790,589,-2.46582,3.61734
-427,435,-2.47046,-3.84418,0.00278914,0.00133509,-0.00187239,0.0040707,5.35322e-05,-0.600215,0.00269613,0.00986552,797,589,-2.47048,3.84418
-420,435,-2.44806,-4.05035,0.000518916,0.000483382,-0.000458271,0.000959764,4.25337e-05,-0.766023,0.000626146,0.00978155,804,589,-2.44805,4.05034
-413,435,-2.44153,-4.26642,-0.000732611,0.000155919,0.000423165,0.000325201,-0.000901893,1.19026,0.000734079,0.0102389,811,589,-2.44155,4.26641
-406,435,-2.4436,-4.49023,-0.00125233,0.000102164,0.00101803,0.000647641,-0.0017978,1.07891,0.00146301,0.0101502,818,589,-2.44363,4.49023
-399,435,-2.45428,-4.70447,-0.00159406,-0.000299499,0.00161615,0.000794174,-0.00268773,0.97587,0.00210704,0.00813682,825,589,-2.45431,4.70444
-392,435,-2.46991,-4.91919,-0.0018151,-0.000574177,0.00217721,0.00106925,-0.00345854,0.924209,0.00273275,0.00962731,832,589,-2.46993,4.91916
-385,435,-2.45673,-5.14209,-0.0018806,-0.000675373,0.00272956,0.0015173,-0.00407327,0.894042,0.00333827,0.0121302,839,589,-2.4567,5.14211
-378,435,-2.4339,-5.34741,-0.00159888,-0.000726815,0.00319002,0.00205684,-0.00438254,0.853321,0.00379774,0.0179495,846,589,-2.43392,5.34743
-371,435,-2.49835,-5.60004,-0.00067647,-0.000737213,0.00348194,0.00277523,-0.00418891,0.781037,0.00404827,0.0355426,853,589,-2.49834,5.60006
-364,435,-2.6264,-5.99292,0.000999566,-0.00105073,0.0037344,0.00384698,-0.00389813,0.651441,0.00447167,0.0463404,860,589,-2.6264,5.99292
-357,435,-2.70917,-6.4837,0,0,0,0,0,0,0,-1,867,589,-2.70919,6.48369
-350,435,-0.86676,-3.69836,0,0,0,0,0,0,0,-1,874,589,-0.866784,3.69834
-343,435,-1.60706,-2.36835,0,0,0,0,0,0,0,-1,881,589,-1.60706,2.36838
-336,435,-2.07263,-1.94012,0,0,0,0,0,0,0,-1,888,589,-2.07265,1.94014
-329,435,-2.55963,-1.5517,0,0,0,0,0,0,0,-1,895,589,-2.5596,1.55168
-322,435,-3.08545,-1.55255,0,0,0,0,0,0,0,-1,902,589,-3.08544,1.55254
-315,435,-0.404297,-2.63763,0,0,0,0,0,0,0,-1,909,589,-0.404276,2.63761
-308,435,-1.70056,-1.90369,0,0,0,0,0,0,0,-1,916,589,-1.70056,1.90367
-301,435,-1.25232,-2.05511,0,0,0,0,0,0,0,-1,923,589,-1.25234,2.05514
-294,435,-1.79974,-1.97321,0,0,0,0,0,0,0,-1,930,589,-1.79973,1.97322
-287,435,0,0,0,0,0,0,0,0,0,-1,937,589,0,0
-280,435,0,0,0,0,0,0,0,0,0,-1,944,589,0,0
-273,435,0,0,0,0,0,0,0,0,0,-1,951,589,0,0
-266,435,0,0,0,0,0,0,0,0,0,-1,958,589,0,0
-259,435,0,0,0,0,0,0,0,0,0,-1,965,589,0,0
-252,435,0,0,0,0,0,0,0,0,0,-1,972,589,0,0
-245,435,0,0,0,0,0,0,0,0,0,-1,979,589,0,0
-238,435,0,0,0,0,0,0,0,0,0,-1,986,589,0,0
-231,435,0,0,0,0,0,0,0,0,0,-1,993,589,0,0
-224,435,0,0,0,0,0,0,0,0,0,-1,1000,589,0,0
-217,435,0,0,0,0,0,0,0,0,0,-1,1007,589,0,0
-210,435,0,0,0,0,0,0,0,0,0,-1,1014,589,0,0
-203,435,0,0,0,0,0,0,0,0,0,-1,1021,589,0,0
-196,435,0,0,0,0,0,0,0,0,0,-1,1028,589,0,0
-189,435,0,0,0,0,0,0,0,0,0,-1,1035,589,0,0
-182,435,0,0,0,0,0,0,0,0,0,-1,1042,589,0,0
-175,435,0,0,0,0,0,0,0,0,0,-1,1049,589,0,0
-168,435,0,0,0,0,0,0,0,0,0,-1,1056,589,0,0
-161,435,0,0,0,0,0,0,0,0,0,-1,1063,589,0,0
-154,435,0,0,0,0,0,0,0,0,0,-1,1070,589,0,0
-147,435,0,0,0,0,0,0,0,0,0,-1,1077,589,0,0
-140,435,0,0,0,0,0,0,0,0,0,-1,1084,589,0,0
-133,435,0,0,0,0,0,0,0,0,0,-1,1091,589,0,0
-126,435,0,0,0,0,0,0,0,0,0,-1,1098,589,0,0
-119,435,0,0,0,0,0,0,0,0,0,-1,1105,589,0,0
-112,435,0,0,0,0,0,0,0,0,0,-1,1112,589,0,0
-105,435,0,0,0,0,0,0,0,0,0,-1,1119,589,0,0
-98,435,0,0,0,0,0,0,0,0,0,-1,1126,589,0,0
-91,435,0,0,0,0,0,0,0,0,0,-1,1133,589,0,0
-84,435,0,0,0,0,0,0,0,0,0,-1,1140,589,0,0
-77,435,0,0,0,0,0,0,0,0,0,-1,1147,589,0,0
-70,435,0,0,0,0,0,0,0,0,0,-1,1154,589,0,0
-63,435,0,0,0,0,0,0,0,0,0,-1,1161,589,0,0
-56,435,0,0,0,0,0,0,0,0,0,-1,1168,589,0,0
-49,435,0,0,0,0,0,0,0,0,0,-1,1175,589,0,0
-42,435,0,0,0,0,0,0,0,0,0,-1,1182,589,0,0
-35,435,0,0,0,0,0,0,0,0,0,-1,1189,589,0,0
-28,435,0,0,0,0,0,0,0,0,0,-1,1196,589,0,0
-21,435,0,0,0,0,0,0,0,0,0,-1,1203,589,0,0
-14,435,0,0,0,0,0,0,0,0,0,-1,1210,589,0,0
-7,435,0,0,0,0,0,0,0,0,0,-1,1217,589,0,0
0,435,0,0,0,0,0,0,0,0,0,-1,1224,589,0,0
7,435,0,0,0,0,0,0,0,0,0,-1,1231,589,0,0
14,435,0,0,0,0,0,0,0,0,0,-1,1238,589,0,0
21,435,0,0,0,0,0,0,0,0,0,-1,1245,589,0,0
28,435,0,0,0,0,0,0,0,0,0,-1,1252,589,0,0
35,435,0,0,0,0,0,0,0,0,0,-1,1259,589,0,0
42,435,0,0,0,0,0,0,0,0,0,-1,1266,589,0,0
49,435,0,0,0,0,0,0,0,0,0,-1,1273,589,0,0
56,435,0,0,0,0,0,0,0,0,0,-1,1280,589,0,0
63,435,0,0,0,0,0,0,0,0,0,-1,1287,589,0,0
70,435,0,0,0,0,0,0,0,0,0,-1,1294,589,0,0
77,435,0,0,0,0,0,0,0,0,0,-1,1301,589,0,0
84,435,0,0,0,0,0,0,0,0,0,-1,1308,589,0,0
91,435,0,0,0,0,0,0,0,0,0,-1,1315,589,0,0
98,435,0,0,0,0,0,0,0,0,0,-1,1322,589,0,0
105,435,0,0,0,0,0,0,0,0,0,-1,1329,589,0,0
112,435,0,0,0,0,0,0,0,0,0,-1,1336,589,0,0
119,435,0,0,0,0,0,0,0,0,0,-1,1343,589,0,0
126,435,0,0,0,0,0,0,0,0,0,-1,1350,589,0,0
133,435,0,0,0,0,0,0,0,0,0,-1,1357,589,0,0
140,435,0,0,0,0,0,0,0,0,0,-1,1364,589,0,0
147,435,0,0,0,0,0,0,0,0,0,-1,1371,589,0,0
154,435,0,0,0,0,0,0,0,0,0,-1,1378,589,0,0
161,435,0,0,0,0,0,0,0,0,0,-1,1385,589,0,0
168,435,0,0,0,0,0,0,0,0,0,-1,1392,589,0,0
175,435,0,0,0,0,0,0,0,0,0,-1,1399,589,0,0
182,435,0,0,0,0,0,0,0,0,0,-1,1406,589,0,0
189,435,0,0,0,0,0,0,0,0,0,-1,1413,589,0,0
196,435,0,0,0,0,0,0,0,0,0,-1,1420,589,0,0
203,435,0,0,0,0,0,0,0,0,0,-1,1427,589,0,0
210,435,0,0,0,0,0,0,0,0,0,-1,1434,589,0,0
217,435,0,0,0,0,0,0,0,0,0,-1,1441,589,0,0
224,435,0,0,0,0,0,0,0,0,0,-1,1448,589,0,0
231,435,0,0,0,0,0,0,0,0,0,-1,1455,589,0,0
238,435,0,0,0,0,0,0,0,0,0,-1,1462,589,0,0
245,435,0,0,0,0,0,0,0,0,0,-1,1469,589,0,0
252,435,0,0,0,0,0,0,0,0,0,-1,1476,589,0,0
259,435,0,0,0,0,0,0,0,0,0,-1,1483,589,0,0
266,435,0,0,0,0,0,0,0,0,0,-1,1490,589,0,0
273,435,0,0,0,0,0,0,0,0,0,-1,1497,589,0,0
280,435,0,0,0,0,0,0,0,0,0,-1,1504,589,0,0
287,435,0,0,0,0,0,0,0,0,0,-1,1511,589,0,0
294,435,0,0,0,0,0,0,0,0,0,-1,1518,589,0,0
301,435,0,0,0,0,0,0,0,0,0,-1,1525,589,0,0
308,435,0,0,0,0,0,0,0,0,0,-1,1532,589,0,0
315,435,0,0,0,0,0,0,0,0,0,-1,1539,589,0,0
322,435,0,0,0,0,0,0,0,0,0,-1,1546,589,0,0
329,435,0,0,0,0,0,0,0,0,0,-1,1553,589,0,0
336,435,0,0,0,0,0,0,0,0,0,-1,1560,589,0,0
343,435,0,0,0,0,0,0,0,0,0,-1,1567,589,0,0
350,435,0,0,0,0,0,0,0,0,0,-1,1574,589,0,0
357,435,0,0,0,0,0,0,0,0,0,-1,1581,589,0,0
364,435,0,0,0,0,0,0,0,0,0,-1,1588,589,0,0
371,435,0,0,0,0,0,0,0,0,0,-1,1595,589,0,0
378,435,0,0,0,0,0,0,0,0,0,-1,1602,589,0,0
385,435,0,0,0,0,0,0,0,0,0,-1,1609,589,0,0
392,435,0,0,0,0,0,0,0,0,0,-1,1616,589,0,0
399,435,0,0,0,0,0,0,0,0,0,-1,1623,589,0,0
406,435,0,0,0,0,0,0,0,0,0,-1,1630,589,0,0
413,435,3.62073,3.42682,0,0,0,0,0,0,0,-1,1637,589,3.62069,-3.4268
420,435,3.6062,3.71564,0,0,0,0,0,0,0,-1,1644,589,3.60616,-3.71562
427,435,3.11963,0.640198,0,0,0,0,0,0,0,-1,1651,589,3.11967,-0.640192
434,435,2.72107,-1.34802,0,0,0,0,0,0,0,-1,1658,589,2.7211,1.34803
441,435,7.33191,-1.57452,0,0,0,0,0,0,0,-1,1665,589,7.33193,1.57452
448,435,7.4585,-0.00292969,0,0,0,0,0,0,0,-1,1672,589,7.45848,0.00294131
455,435,5.49915,-5.047,0,0,0,0,0,0,0,-1,1679,589,5.49914,5.04703
462,435,5.60669,-4.71466,0,0,0,0,0,0,0,-1,1686,589,5.60675,4.71469
469,435,5.87708,1.22351,0,0,0,0,0,0,0,-1,1693,589,5.87703,-1.22351
476,435,6.14136,1.37714,0,0,0,0,0,0,0,-1,1700,589,6.14138,-1.37712
483,435,6.49243,1.36169,0,0,0,0,0,0,0,-1,1707,589,6.49242,-1.36171
490,435,4.38391,-1.36218,0,0,0,0,0,0,0,-1,1714,589,4.38389,1.3622
497,435,7.23499,-3.64551,0,0,0,0,0,0,0,-1,1721,589,7.23495,3.64551
504,435,6.854,-3.62964,0,0,0,0,0,0,0,-1,1728,589,6.85403,3.62961
511,435,7.24304,-3.54779,0.00765039,0.000125727,0.00292636,0.00865447,-0.000878356,0.33053,0.0060836,0.0489088,1735,589,7.24299,3.54781
518,435,7.50464,-3.42847,0.00602888,-0.000179868,0.00225054,0.00675883,-0.000909821,0.31364,0.00483777,0.0172296,1742,589,7.50461,3.42844
525,435,7.51343,-3.18597,0.00454199,-0.000194906,0.00175687,0.00512246,-0.00077538,0.31911,0.00370061,0.0112987,1749,589,7.51345,3.18599
532,435,7.53955,-2.94312,0.00323628,-0.000178088,0.00124399,0.00364144,-0.000583248,0.314859,0.00264358,0.0127005,1756,589,7.53961,2.9431
539,435,7.55762,-2.70142,0.00213428,-0.000189876,0.000752862,0.00235684,-0.000412437,0.287434,0.00172522,0.0143418,1763,589,7.55758,2.70143
546,435,7.53601,-2.46436,0.00132552,-3.9374e-05,0.000433459,0.00145154,-0.000165395,0.282935,0.00102727,0.0135267,1770,589,7.53601,2.46433
553,435,7.51001,-2.23718,0.000751304,0.000104073,0.000205861,0.000811232,4.41446e-05,0.283281,0.000526723,0.00998475,1777,589,7.50999,2.23721
560,435,7.49719,-1.99146,0.000307671,0.000290533,6.16503e-05,0.000361346,0.000236859,0.716344,0.000211959,0.00881373,1784,589,7.49713,1.99148
567,435,7.521,-1.7442,5.86525e-05,0.000559636,4.98448e-05,0.000564547,5.37414e-05,1.47259,0.000359791,0.00840592,1791,589,7.521,1.74422
574,435,7.50525,-1.50647,0.000178233,0.000819305,0.000228632,0.00089249,0.000105048,1.261,0.000563252,0.0095963,1798,589,7.50521,1.50648
581,435,7.49646,-1.28485,0.000471139,0.00121338,0.000571134,0.00152338,0.000161139,1.07351,0.00096636,0.016737,1805,589,7.49645,1.28484
588,435,7.50037,-1.05127,0.000940739,0.00172613,0.00110467,0.00250583,0.00016104,0.956175,0.00161954,0.0198693,1812,589,7.50032,1.05128
595,435,7.45532,-0.823669,0.00168769,0.0024383,0.00181284,0.00391427,0.000211713,0.88747,0.00254188,0.021054,1819,589,7.45537,0.823671
602,435,7.49353,-0.574402,0.00242549,0.00309547,0.00258921,0.00537127,0.000149692,0.849731,0.003532,0.0384021,1826,589,7.49347,0.574381
609,435,7.56238,-0.38916,0,0,0,0,0,0,0,-1,1833,589,7.56233,0.389146
616,435,5.05151,-2.75269,0,0,0,0,0,0,0,-1,1840,589,5.05157,2.7527
623,435,10.957,4.23553,0,0,0,0,0,0,0,-1,1847,589,10.957,-4.2355
630,435,4.72742,-0.87561,0,0,0,0,0,0,0,-1,1854,589,4.7274,0.875636
637,435,5.05286,1.48792,0,0,0,0,0,0,0,-1,1861,589,5.05291,-1.48792
644,435,0,0,0,0,0,0,0,0,0,-1,1868,589,0,0
651,435,0,0,0,0,0,0,0,0,0,-1,1875,589,0,0
658,435,0,0,0,0,0,0,0,0,0,-1,1882,589,0,0
665,435,0,0,0,0,0,0,0,0,0,-1,1889,589,0,0
672,435,0,0,0,0,0,0,0,0,0,-1,1896,589,0,0
679,435,0,0,0,0,0,0,0,0,0,-1,1903,589,0,0
686,435,0,0,0,0,0,0,0,0,0,-1,1910,589,0,0
693,435,0,0,0,0,0,0,0,0,0,-1,1917,589,0,0
700,435,0,0,0,0,0,0,0,0,0,-1,1924,589,0,0
707,435,0,0,0,0,0,0,0,0,0,-1,1931,589,0,0
714,435,0,0,0,0,0,0,0,0,0,-1,1938,589,0,0
721,435,0,0,0,0,0,0,0,0,0,-1,1945,589,0,0
728,435,0,0,0,0,0,0,0,0,0,-1,1952,589,0,0
735,435,0,0,0,0,0,0,0,0,0,-1,1959,589,0,0
742,435,0,0,0,0,0,0,0,0,0,-1,1966,589,0,0
749,435,0,0,0,0,0,0,0,0,0,-1,1973,589,0,0
756,435,0,0,0,0,0,0,0,0,0,-1,1980,589,0,0
763,435,0,0,0,0,0,0,0,0,0,-1,1987,589,0,0
770,435,0,0,0,0,0,0,0,0,0,-1,1994,589,0,0
777,435,0,0,0,0,0,0,0,0,0,-1,2001,589,0,0
784,435,0,0,0,0,0,0,0,0,0,-1,2008,589,0,0
791,435,0,0,0,0,0,0,0,0,0,-1,2015,589,0,0
798,435,0,0,0,0,0,0,0,0,0,-1,2022,589,0,0
805,435,0,0,0,0,0,0,0,0,0,-1,2029,589,0,0
812,435,0,0,0,0,0,0,0,0,0,-1,2036,589,0,0
-700,428,0,0,0,0,0,0,0,0,0,-1,524,596,0,0
-693,428,0,0,0,0,0,0,0,0,0,-1,531,596,0,0
-686,428,0,0,0,0,0,0,0,0,0,-1,538,596,0,0
-679,428,0,0,0,0,0,0,0,0,0,-1,545,596,0,0
-672,428,0,0,0,0,0,0,0,0,0,-1,552,596,0,0
-665,428,0,0,0,0,0,0,0,0,0,-1,559,596,0,0
-658,428,0,0,0,0,0,0,0,0,0,-1,566,596,0,0
-651,428,0,0,0,0,0,0,0,0,0,-1,573,596,0,0
-644,428,0,0,0,0,0,0,0,0,0,-1,580,596,0,0
-637,428,0,0,0,0,0,0,0,0,0,-1,587,596,0,0
-630,428,0,0,0,0,0,0,0,0,0,-1,594,596,0,0
-623,428,0,0,0,0,0,0,0,0,0,-1,601,596,0,0
-616,428,0,0,0,0,0,0,0,0,0,-1,608,596,0,0
-609,428,0,0,0,0,0,0,0,0,0,-1,615,596,0,0
-602,428,0,0,0,0,0,0,0,0,0,-1,622,596,0,0
-595,428,0,0,0,0,0,0,0,0,0,-1,629,596,0,0
-588,428,0,0,0,0,0,0,0,0,0,-1,636,596,0,0
-581,428,0,0,0,0,0,0,0,0,0,-1,643,596,0,0
-574,428,0,0,0,0,0,0,0,0,0,-1,650,596,0,0
-567,428,0,0,0,0,0,0,0,0,0,-1,657,596,0,0
-560,428,0,0,0,0,0,0,0,0,0,-1,664,596,0,0
-553,428,0,0,0,0,0,0,0,0,0,-1,671,596,0,0
-546,428,0,0,0,0,0,0,0,0,0,-1,678,596,0,0
-539,428,0,0,0,0,0,0,0,0,0,-1,685,596,0,0
-532,428,0,0,0,0,0,0,0,0,0,-1,692,596,0,0
-525,428,-0.880249,-4.03839,0,0,0,0,0,0,0,-1,699,596,-0.880228,4.03838
-518,428,-2.09711,-4.5094,0,0,0,0,0,0,0,-1,706,596,-2.09711,4.50942
-511,428,-3.32758,-4.85852,0,0,0,0,0,0,0,-1,713,596,-3.32759,4.85853
-504,428,-4.19916,-4.97797,0,0,0,0,0,0,0,-1,720,596,-4.19918,4.97795
-497,428,-2.85516,-3.52179,0,0,0,0,0,0,0,-1,727,596,-2.85517,3.52181
-490,428,-2.67657,-1.25287,0,0,0,0,0,0,0,-1,734,596,-2.67659,1.25284
-483,428,-3.159,-1.68323,0,0,0,0,0,0,0,-1,741,596,-3.15902,1.68325
-476,428,-2.89911,-2.07397,0.03343,0.019342,-0.0193898,0.0470157,0.00575638,-0.611168,0.0296121,0.0377357,748,596,-2.89912,2.07396
-469,428,-2.61395,-2.49548,0.025872,0.0146753,-0.0152488,0.0365177,0.00402962,-0.609469,0.0231193,0.0191861,755,596,-2.61395,2.49546
-462,428,-2.65613,-2.72925,0.0195306,0.01076,-0.0116154,0.0275609,0.00272962,-0.604899,0.017535,0.0163556,762,596,-2.65616,2.72922
-455,428,-2.68402,-2.96313,0.0142808,0.00764451,-0.00856123,0.0201444,0.00178089,-0.600523,0.0128771,0.0116384,769,596,-2.684,2.96312
-448,428,-2.68091,-3.1745,0.0100453,0.00515084,-0.00601284,0.0140898,0.00110628,-0.592136,0.00904703,0.010351,776,596,-2.6809,3.17449
-441,428,-2.68152,-3.40503,0.00681365,0.00334307,-0.00409237,0.00952344,0.000633277,-0.584873,0.00614875,0.0124562,783,596,-2.68149,3.40502
-434,428,-2.68378,-3.63153,0.00431192,0.00176177,-0.00242837,0.00577961,0.000294076,-0.543645,0.00375889,0.00984699,790,596,-2.68376,3.63152
-427,428,-2.67877,-3.83691,0.00168772,0.00027611,-0.000828018,0.00206993,-0.000106099,-0.432454,0.00141664,0.0106418,797,596,-2.67877,3.83692
-420,428,-2.66205,-4.02362,-0.000329017,-0.000461247,0.000432311,4.22056e-05,-0.00083247,0.709519,0.00056957,0.0104721,804,596,-2.66208,4.02361
-413,428,-2.65393,-4.23401,-0.00148912,-0.00071612,0.00121593,0.000173256,-0.00237849,0.93928,0.00164646,0.0129246,811,596,-2.65396,4.23403
-406,428,-2.67584,-4.48621,-0.00206361,-0.000729203,0.00179092,0.000514762,-0.00330758,0.963708,0.00239515,0.0157049,818,596,-2.67587,4.48622
-399,428,-2.68585,-4.71448,-0.00254919,-0.00105907,0.00240811,0.000716607,-0.00432486,0.935425,0.00314941,0.0135147,825,596,-2.68586,4.71448
-392,428,-2.66394,-4.92615,-0.00295524,-0.00123682,0.00300997,0.00103416,-0.00522623,0.924428,0.00387515,0.0126873,832,596,-2.66393,4.92616
-385,428,-2.66571,-5.14667,-0.00331225,-0.00122986,0.00367122,0.00154495,-0.00608706,0.923575,0.0046592,0.0195826,839,596,-2.66569,5.14665
-378,428,-2.74969,-5.28119,-0.00340513,-0.00116977,0.00429334,0.00214898,-0.00672389,0.912736,0.00534492,0.0348383,846,596,-2.74967,5.28117
-371,428,-3.28296,-5.53162,-0.00287356,-0.00121264,0.00495013,0.0029762,-0.0070624,0.868506,0.00595369,0.045417,853,596,-3.28293,5.53161
-364,428,-2.79584,-5.92145,0,0,0,0,0,0,0,-1,860,596,-2.79582,5.92145
-357,428,-3.20996,-4.70966,0,0,0,0,0,0,0,-1,867,596,-3.20997,4.70965
-350,428,-1.62793,-3.94055,0,0,0,0,0,0,0,-1,874,596,-1.62794,3.94055
-343,428,-0.0567017,-4.80994,0,0,0,0,0,0,0,-1,881,596,-0.0567096,4.80996
-336,428,-3.29175,-1.39569,0,0,0,0,0,0,0,-1,888,596,-3.29172,1.39568
-329,428,-3.71564,-0.791321,0,0,0,0,0,0,0,-1,895,596,-3.71564,0.791299
-322,428,-5.52863,-3.59827,0,0,0,0,0,0,0,-1,902,596,-5.52865,3.59829
-315,428,-4.57172,-1.22052,0,0,0,0,0,0,0,-1,909,596,-4.57171,1.22052
-308,428,-5.26538,-1.1521,0,0,0,0,0,0,0,-1,916,596,-5.26539,1.15209
-301,428,0,0,0,0,0,0,0,0,0,-1,923,596,0,0
-294,428,0,0,0,0,0,0,0,0,0,-1,930,596,0,0
-287,428,0,0,0,0,0,0,0,0,0,-1,937,596,0,0
-280,428,0,0,0,0,0,0,0,0,0,-1,944,596,0,0
-273,428,0,0,0,0,0,0,0,0,0,-1,951,596,0,0
-266,428,0,0,0,0,0,0,0,0,0,-1,958,596,0,0
-259,428,0,0,0,0,0,0,0,0,0,-1,965,596,0,0
-252,428,0,0,0,0,0,0,0,0,0,-1,972,596,0,0
-245,428,0,0,0,0,0,0,0,0,0,-1,979,596,0,0
-238,428,0,0,0,0,0,0,0,0,0,-1,986,596,0,0
-231,428,0,0,0,0,0,0,0,0,0,-1,993,596,0,0
-224,428,0,0,0,0,0,0,0,0,0,-1,1000,596,0,0
-217,428,0,0,0,0,0,0,0,0,0,-1,1007,596,0,0
-210,428,0,0,0,0,0,0,0,0,0,-1,1014,596,0,0
-203,428,0,0,0,0,0,0,0,0,0,-1,1021,596,0,0
-196,428,0,0,0,0,0,0,0,0,0,-1,1028,596,0,0
-189,428,0,0,0,0,0,0,0,0,0,-1,1035,596,0,0
-182,428,0,0,0,0,0,0,0,0,0,-1,1042,596,0,0
-175,428,0,0,0,0,0,0,0,0,0,-1,1049,596,0,0
-168,428,0,0,0,0,0,0,0,0,0,-1,1056,596,0,0
-161,428,0,0,0,0,0,0,0,0,0,-1,1063,596,0,0
-154,428,0,0,0,0,0,0,0,0,0,-1,1070,596,0,0
-147,428,0,0,0,0,0,0,0,0,0,-1,1077,596,0,0
-140,428,0,0,0,0,0,0,0,0,0,-1,1084,596,0,0
-133,428,0,0,0,0,0,0,0,0,0,-1,1091,596,0,0
-126,428,0,0,0,0,0,0,0,0,0,-1,1098,596,0,0
-119,428,0,0,0,0,0,0,0,0,0,-1,1105,596,0,0
-112,428,0,0,0,0,0,0,0,0,0,-1,1112,596,0,0
-105,428,0,0,0,0,0,0,0,0,0,-1,1119,596,0,0
-98,428,0,0,0,0,0,0,0,0,0,-1,1126,596,0,0
-91,428,0,0,0,0,0,0,0,0,0,-1,1133,596,0,0
-84,428,0,0,0,0,0,0,0,0,0,-1,1140,596,0,0
-77,428,0,0,0,0,0,0,0,0,0,-1,1147,596,0,0
-70,428,0,0,0,0,0,0,0,0,0,-1,1154,596,0,0
-63,428,0,0,0,0,0,0,0,0,0,-1,1161,596,0,0
-56,428,0,0,0,0,0,0,0,0,0,-1,1168,596,0,0
-49,428,0,0,0,0,0,0,0,0,0,-1,1175,596,0,0
-42,428,0,0,0,0,0,0,0,0,0,-1,1182,596,0,0
-35,428,0,0,0,0,0,0,0,0,0,-1,1189,596,0,0
-28,428,0,0,0,0,0,0,0,0,0,-1,1196,596,0,0
-21,428,0,0,0,0,0,0,0,0,0,-1,1203,596,0,0
-14,428,0,0,0,0,0,0,0,0,0,-1,1210,596,0,0
-7,428,0,0,0,0,0,0,0,0,0,-1,1217,596,0,0
0,428,0,0,0,0,0,0,0,0,0,-1,1224,596,0,0
7,428,0,0,0,0,0,0,0,0,0,-1,1231,596,0,0
14,428,0,0,0,0,0,0,0,0,0,-1,1238,596,0,0
21,428,0,0,0,0,0,0,0,0,0,-1,1245,596,0,0
28,428,0,0,0,0,0,0,0,0,0,-1,1252,596,0,0
35,428,0,0,0,0,0,0,0,0,0,-1,1259,596,0,0
42,428,0,0,0,0,0,0,0,0,0,-1,1266,596,0,0
49,428,0,0,0,0,0,0,0,0,0,-1,1273,596,0,0
56,428,0,0,0,0,0,0,0,0,0,-1,1280,596,0,0
63,428,0,0,0,0,0,0,0,0,0,-1,1287,596,0,0
70,428,0,0,0,0,0,0,0,0,0,-1,1294,596,0,0
77,428,0,0,0,0,0,0,0,0,0,-1,1301,596,0,0
84,428,0,0,0,0,0,0,0,0,0,-1,1308,596,0,0
91,428,0,0,0,0,0,0,0,0,0,-1,1315,596,0,0
98,428,0,0,0,0,0,0,0,0,0,-1,1322,596,0,0
105,428,0,0,0,0,0,0,0,0,0,-1,1329,596,0,0
112,428,0,0,0,0,0,0,0,0,0,-1,1336,596,0,0
119,428,0,0,0,0,0,0,0,0,0,-1,1343,596,0,0
126,428,0,0,0,0,0,0,0,0,0,-1,1350,596,0,0
133,428,0,0,0,0,0,0,0,0,0,-1,1357,596,0,0
140,428,0,0,0,0,0,0,0,0,0,-1,1364,596,0,0
147,428,0,0,0,0,0,0,0,0,0,-1,1371,596,0,0
154,428,0,0,0,0,0,0,0,0,0,-1,1378,596,0,0
161,428,0,0,0,0,0,0,0,0,0,-1,1385,596,0,0
168,428,0,0,0,0,0,0,0,0,0,-1,1392,596,0,0
175,428,0,0,0,0,0,0,0,0,0,-1,1399,596,0,0
182,428,0,0,0,0,0,0,0,0,0,-1,1406,596,0,0
189,428,0,0,0,0,0,0,0,0,0,-1,1413,596,0,0
196,428,0,0,0,0,0,0,0,0,0,-1,1420,596,0,0
203,428,0,0,0,0,0,0,0,0,0,-1,1427,596,0,0
210,428,0,0,0,0,0,0,0,0,0,-1,1434,596,0,0
217,428,0,0,0,0,0,0,0,0,0,-1,1441,596,0,0
224,428,0,0,0,0,0,0,0,0,0,-1,1448,596,0,0
231,428,0,0,0,0,0,0,0,0,0,-1,1455,596,0,0
238,428,0,0,0,0,0,0,0,0,0,-1,1462,596,0,0
245,428,0,0,0,0,0,0,0,0,0,-1,1469,596,0,0
252,428,0,0,0,0,0,0,0,0,0,-1,1476,596,0,0
259,428,0,0,0,0,0,0,0,0,0,-1,1483,596,0,0
266,428,0,0,0,0,0,0,0,0,0,-1,1490,596,0,0
273,428,0,0,0,0,0,0,0,0,0,-1,1497,596,0,0
280,428,0,0,0,0,0,0,0,0,0,-1,1504,596,0,0
287,428,0,0,0,0,0,0,0,0,0,-1,1511,596,0,0
294,428,0,0,0,0,0,0,0,0,0,-1,1518,596,0,0
301,428,0,0,0,0,0,0,0,0,0,-1,1525,596,0,0
308,428,0,0,0,0,0,0,0,0,0,-1,1532,596,0,0
315,428,0,0,0,0,0,0,0,0,0,-1,1539,596,0,0
322,428,0,0,0,0,0,0,0,0,0,-1,1546,596,0,0
329,428,0,0,0,0,0,0,0,0,0,-1,1553,596,0,0
336,428,0,0,0,0,0,0,0,0,0,-1,1560,596,0,0
343,428,0,0,0,0,0,0,0,0,0,-1,1567,596,0,0
350,428,0,0,0,0,0,0,0,0,0,-1,1574,596,0,0
357,428,0,0,0,0,0,0,0,0,0,-1,1581,596,0,0
364,428,0,0,0,0,0,0,0,0,0,-1,1588,596,0,0
371,428,0,0,0,0,0,0,0,0,0,-1,1595,596,0,0
378,428,0,0,0,0,0,0,0,0,0,-1,1602,596,0,0
385,428,0,0,0,0,0,0,0,0,0,-1,1609,596,0,0
392,428,0,0,0,0,0,0,0,0,0,-1,1616,596,0,0
399,428,0,0,0,0,0,0,0,0,0,-1,1623,596,0,0
406,428,0,0,0,0,0,0,0,0,0,-1,1630,596,0,0
413,428,0,0,0,0,0,0,0,0,0,-1,1637,596,0,0
420,428,2.95886,0.551819,0,0,0,0,0,0,0,-1,1644,596,2.9589,-0.551797
427,428,3.19385,0.384705,0,0,0,0,0,0,0,-1,1651,596,3.19383,-0.384692
434,428,8.18152,1.80432,0,0,0,0,0,0,0,-1,1658,596,8.18148,-1.80434
441,428,8.17993,0.607483,0,0,0,0,0,0,0,-1,1665,596,8.17997,-0.607513
448,428,7.84338,-0.385986,0,0,0,0,0,0,0,-1,1672,596,7.84336,0.385978
455,428,6.64038,2.1123,0,0,0,0,0,0,0,-1,1679,596,6.64037,-2.11229
462,428,4.84106,4.12341,0,0,0,0,0,0,0,-1,1686,596,4.84107,-4.12339
469,428,7.83789,3.10083,0,0,0,0,0,0,0,-1,1693,596,7.83785,-3.10086
476,428,7.61255,1.73956,0,0,0,0,0,0,0,-1,1700,596,7.61252,-1.73958
483,428,7.22766,1.05121,0,0,0,0,0,0,0,-1,1707,596,7.2277,-1.05121
490,428,5.4071,-3.2793,0,0,0,0,0,0,0,-1,1714,596,5.40707,3.27929
497,428,7.84106,-3.65491,0,0,0,0,0,0,0,-1,1721,596,7.84107,3.65491
504,428,6.92139,-2.83356,0,0,0,0,0,0,0,-1,1728,596,6.92137,2.83353
511,428,7.37244,-3.64087,0,0,0,0,0,0,0,-1,1735,596,7.37242,3.64086
518,428,7.68921,-3.47443,0,0,0,0,0,0,0,-1,1742,596,7.68924,3.47444
525,428,7.67041,-3.23993,0.0046807,-0.000184562,0.00179981,0.00527412,-0.000777985,0.31849,0.00380204,0.0320852,1749,596,7.67037,3.2399
532,428,7.74182,-2.91974,0.0032684,-0.00027494,0.00120823,0.00364117,-0.000647712,0.299262,0.00266967,0.0174949,1756,596,7.74185,2.91976
539,428,7.7876,-2.69653,0.00213693,-0.000365122,0.000664851,0.00230262,-0.000530815,0.244243,0.00173923,0.0189135,1763,596,7.78764,2.69653
546,428,7.77148,-2.47491,0.00132873,-0.000341493,0.000295429,0.00137944,-0.000392209,0.17001,0.0010745,0.0152348,1770,596,7.77153,2.47493
553,428,7.73792,-2.24323,0.000800846,-0.000275955,6.8519e-05,0.000805189,-0.000280297,0.0632918,0.000650671,0.0105559,1777,596,7.73787,2.24321
560,428,7.75476,-2.00409,0.000427101,-0.000148858,-5.20269e-05,0.000431763,-0.00015352,-0.0893669,0.000350411,0.0114168,1784,596,7.75481,2.0041
567,428,7.76843,-1.7616,0.000216152,0.000106666,-3.54804e-05,0.000226645,9.61738e-05,-0.287528,0.000131352,0.0112536,1791,596,7.76841,1.76158
574,428,7.75427,-1.52045,0.00039759,0.00036033,0.000199844,0.00057967,0.00017825,0.738921,0.000342841,0.0132471,1798,596,7.75426,1.52045
581,428,7.72864,-1.28149,0.000754546,0.000762023,0.000580716,0.00133901,0.000177556,0.788617,0.00083977,0.0112634,1805,596,7.72861,1.2815
588,428,7.72656,-1.0285,0.00122391,0.00129936,0.00112159,0.00238385,0.000139411,0.80221,0.00154486,0.0134759,1812,596,7.72657,1.0285
595,428,7.72156,-0.783813,0.00192202,0.00192672,0.00176802,0.00369239,0.000156345,0.786062,0.00241117,0.00887584,1819,596,7.72161,0.783826
602,428,7.71082,-0.552856,0.00260913,0.00257472,0.0024958,0.00508779,9.60641e-05,0.781951,0.0033603,0.0187765,1826,596,7.71078,0.552862
609,428,7.70642,-0.264526,0,0,0,0,0,0,0,-1,1833,596,7.70647,0.264535
616,428,5.88977,-0.239319,0,0,0,0,0,0,0,-1,1840,596,5.88983,0.239293
623,428,6.41541,0.466675,0,0,0,0,0,0,0,-1,1847,596,6.41543,-0.466696
630,428,4.94434,0.773193,0,0,0,0,0,0,0,-1,1854,596,4.9443,-0.773171
637,428,3.95435,1.90857,0,0,0,0,0,0,0,-1,1861,596,3.95439,-1.90858
644,428,5.75476,0.888977,0,0,0,0,0,0,0,-1,1868,596,5.75472,-0.888955
651,428,0,0,0,0,0,0,0,0,0,-1,1875,596,0,0
658,428,0,0,0,0,0,0,0,0,0,-1,1882,596,0,0
665,428,0,0,0,0,0,0,0,0,0,-1,1889,596,0,0
672,428,0,0,0,0,0,0,0,0,0,-1,1896,596,0,0
679,428,0,0,0,0,0,0,0,0,0,-1,1903,596,0,0
686,428,0,0,0,0,0,0,0,0,0,-1,1910,596,0,0
693,428,0,0,0,0,0,0,0,0,0,-1,1917,596,0,0
700,428,0,0,0,0,0,0,0,0,0,-1,1924,596,0,0
707,428,0,0,0,0,0,0,0,0,0,-1,1931,596,0,0
714,428,0,0,0,0,0,0,0,0,0,-1,1938,596,0,0
721,428,0,0,0,0,0,0,0,0,0,-1,1945,596,0,0
728,428,0,0,0,0,0,0,0,0,0,-1,1952,596,0,0
735,428,0,0,0,0,0,0,0,0,0,-1,1959,596,0,0
742,428,0,0,0,0,0,0,0,0,0,-1,1966,596,0,0
749,428,0,0,0,0,0,0,0,0,0,-1,1973,596,0,0
756,428,0,0,0,0,0,0,0,0,0,-1,1980,596,0,0
763,428,0,0,0,0,0,0,0,0,0,-1,1987,596,0,0
770,428,0,0,0,0,0,0,0,0,0,-1,1994,596,0,0
777,428,0,0,0,0,0,0,0,0,0,-1,2001,596,0,0
784,428,0,0,0,0,0,0,0,0,0,-1,2008,596,0,0
791,428,0,0,0,0,0,0,0,0,0,-1,2015,596,0,0
798,428,0,0,0,0,0,0,0,0,0,-1,2022,596,0,0
805,428,0,0,0,0,0,0,0,0,0,-1,2029,596,0,0
812,428,0,0,0,0,0,0,0,0,0,-1,2036,596,0,0
-700,421,0,0,0,0,0,0,0,0,0,-1,524,603,0,0
-693,421,0,0,0,0,0,0,0,0,0,-1,531,603,0,0
-686,421,0,0,0,0,0,0,0,0,0,-1,538,603,0,0
-679,421,0,0,0,0,0,0,0,0,0,-1,545,603,0,0
-672,421,0,0,0,0,0,0,0,0,0,-1,552,603,0,0
-665,421,0,0,0,0,0,0,0,0,0,-1,559,603,0,0
-658,421,0,0,0,0,0,0,0,0,0,-1,566,603,0,0
-651,421,0,0,0,0,0,0,0,0,0,-1,573,603,0,0
-644,421,0,0,0,0,0,0,0,0,0,-1,580,603,0,0
-637,421,0,0,0,0,0,0,0,0,0,-1,587,603,0,0
-630,421,0,0,0,0,0,0,0,0,0,-1,594,603,0,0
-623,421,0,0,0,0,0,0,0,0,0,-1,601,603,0,0
-616,421,0,0,0,0,0,0,0,0,0,-1,608,603,0,0
-609,421,0,0,0,0,0,0,0,0,0,-1,615,603,0,0
-602,421,0,0,0,0,0,0,0,0,0,-1,622,603,0,0
-595,421,0,0,0,0,0,0,0,0,0,-1,629,603,0,0
-588,421,0,0,0,0,0,0,0,0,0,-1,636,603,0,0
-581,421,0,0,0,0,0,0,0,0,0,-1,643,603,0,0
-574,421,0,0,0,0,0,0,0,0,0,-1,650,603,0,0
-567,421,0,0,0,0,0,0,0,0,0,-1,657,603,0,0
-560,421,0,0,0,0,0,0,0,0,0,-1,664,603,0,0
-553,421,0,0,0,0,0,0,0,0,0,-1,671,603,0,0
-546,421,0,0,0,0,0,0,0,0,0,-1,678,603,0,0
-539,421,0,0,0,0,0,0,0,0,0,-1,685,603,0,0
-532,421,-9.85718,5.32794,0,0,0,0,0,0,0,-1,692,603,-9.85718,-5.32797
-525,421,-10.3297,5.08777,0,0,0,0,0,0,0,-1,699,603,-10.3297,-5.08777
-518,421,-3.18958,-4.09619,0,0,0,0,0,0,0,-1,706,603,-3.1896,4.09622
-511,421,-4.08118,-4.24005,0,0,0,0,0,0,0,-1,713,603,-4.08115,4.24002
-504,421,-4.97272,-4.38385,0,0,0,0,0,0,0,-1,720,603,-4.9727,4.38383
-497,421,-2.75323,-1.03796,0,0,0,0,0,0,0,-1,727,603,-2.75325,1.03796
-490,421,-2.81683,-1.42078,0.0357392,0.0233242,-0.0199106,0.0503875,0.00867594,-0.63429,0.0311056,0.0473589,734,603,-2.81683,1.42077
-483,421,-2.83722,-1.93616,0.0294687,0.0184402,-0.0168941,0.0417257,0.00618318,-0.627649,0.0260023,0.0358699,741,603,-2.83719,1.93617
-476,421,-2.87103,-2.32001,0.0239372,0.0143498,-0.0139417,0.0338863,0.00440071,-0.619811,0.0212762,0.0202226,748,603,-2.87105,2.31998
-469,421,-2.88745,-2.50934,0.0188248,0.0109588,-0.0111428,0.0267083,0.00307525,-0.615741,0.0168741,0.0168896,755,603,-2.88748,2.50934
-462,421,-2.89996,-2.75177,0.0143726,0.00798561,-0.00852643,0.020284,0.00207424,-0.606214,0.012887,0.0181698,762,603,-2.89997,2.75179
-455,421,-2.89783,-2.9552,0.010572,0.00554676,-0.00623654,0.0147831,0.00133573,-0.5939,0.00944169,0.0171636,769,603,-2.89785,2.9552
-448,421,-2.91235,-3.16461,0.00739835,0.00350467,-0.0042407,0.0101177,0.000785279,-0.570206,0.00649923,0.0167179,776,603,-2.91237,3.1646
-441,421,-2.90692,-3.40912,0.00484428,0.00200299,-0.00268933,0.00646513,0.000382134,-0.542401,0.00418852,0.013467,783,603,-2.90693,3.4091
-434,421,-2.89185,-3.64398,0.00279069,0.000654269,-0.00125641,0.00337161,7.33456e-05,-0.433091,0.00222369,0.00998886,790,603,-2.89182,3.64396
-427,421,-2.88287,-3.84003,0.000613435,-0.000596442,0.000105717,0.000622603,-0.00060561,0.0865045,0.000709132,0.00965216,797,603,-2.88286,3.84
-420,421,-2.87384,-4.02319,-0.001164,-0.0012589,0.00124258,3.20375e-05,-0.00245494,0.766313,0.00164741,0.0108934,804,603,-2.87382,4.02319
-413,421,-2.88318,-4.23846,-0.0022689,-0.00150932,0.00198053,0.000127509,-0.00390573,0.88013,0.00264734,0.0135273,811,603,-2.88316,4.23847
-406,421,-2.93506,-4.52734,-0.00297703,-0.00156497,0.00260413,0.000427146,-0.00496915,0.917776,0.00346394,0.0187459,818,603,-2.93508,4.52732
-399,421,-2.89355,-4.78357,-0.00370509,-0.00188599,0.00331059,0.000637725,-0.0062288,0.91946,0.00438061,0.0173039,825,603,-2.89357,4.78358
-392,421,-2.90588,-4.94135,-0.00443103,-0.00203331,0.00403886,0.000980869,-0.00744521,0.929672,0.00532065,0.0185472,832,603,-2.90588,4.94135
-385,421,-2.97461,-5.18341,-0.00522766,-0.0019893,0.00489304,0.0015455,-0.00876247,0.945185,0.00641913,0.0383319,839,603,-2.97459,5.18339
-378,421,-3.01996,-5.45288,0,0,0,0,0,0,0,-1,846,603,-3.01998,5.45288
-371,421,-4.10461,-5.62915,0,0,0,0,0,0,0,-1,853,603,-4.10462,5.62915
-364,421,-4.06537,-3.64362,0,0,0,0,0,0,0,-1,860,603,-4.06539,3.64362
-357,421,-4.77606,-3.73309,0,0,0,0,0,0,0,-1,867,603,-4.77604,3.73312
-350,421,-5.38019,-3.75024,0,0,0,0,0,0,0,-1,874,603,-5.38017,3.75026
-343,421,-6.22797,-2.57123,0,0,0,0,0,0,0,-1,881,603,-6.22798,2.57121
-336,421,-6.22882,-2.59369,0,0,0,0,0,0,0,-1,888,603,-6.22883,2.5937
-329,421,-4.50134,-1.49469,0,0,0,0,0,0,0,-1,895,603,-4.50137,1.49468
-322,421,-6.30377,-0.285339,0,0,0,0,0,0,0,-1,902,603,-6.30379,0.285355
-315,421,-4.47821,-1.26733,0,0,0,0,0,0,0,-1,909,603,-4.47824,1.26732
-308,421,0,0,0,0,0,0,0,0,0,-1,916,603,0,0
-301,421,0,0,0,0,0,0,0,0,0,-1,923,603,0,0
-294,421,0,0,0,0,0,0,0,0,0,-1,930,603,0,0
-287,421,0,0,0,0,0,0,0,0,0,-1,937,603,0,0
-280,421,0,0,0,0,0,0,0,0,0,-1,944,603,0,0
-273,421,0,0,0,0,0,0,0,0,0,-1,951,603,0,0
-266,421,0,0,0,0,0,0,0,0,0,-1,958,603,0,0
-259,421,0,0,0,0,0,0,0,0,0,-1,965,603,0,0
-252,421,0,0,0,0,0,0,0,0,0,-1,972,603,0,0
-245,421,0,0,0,0,0,0,0,0,0,-1,979,603,0,0
-238,421,0,0,0,0,0,0,0,0,0,-1,986,603,0,0
-231,421,0,0,0,0,0,0,0,0,0,-1,993,603,0,0
-224,421,0,0,0,0,0,0,0,0,0,-1,1000,603,0,0
-217,421,0,0,0,0,0,0,0,0,0,-1,1007,603,0,0
-210,421,0,0,0,0,0,0,0,0,0,-1,1014,603,0,0
-203,421,0,0,0,0,0,0,0,0,0,-1,1021,603,0,0
-196,421,0,0,0,0,0,0,0,0,0,-1,1028,603,0,0
-189,421,0,0,0,0,0,0,0,0,0,-1,1035,603,0,0
-182,421,0,0,0,0,0,0,0,0,0,-1,1042,603,0,0
-175,421,0,0,0,0,0,0,0,0,0,-1,1049,603,0,0
-168,421,0,0,0,0,0,0,0,0,0,-1,1056,603,0,0
-161,421,0,0,0,0,0,0,0,0,0,-1,1063,603,0,0
-154,421,0,0,0,0,0,0,0,0,0,-1,1070,603,0,0
-147,421,0,0,0,0,0,0,0,0,0,-1,1077,603,0,0
-140,421,0,0,0,0,0,0,0,0,0,-1,1084,603,0,0
-133,421,0,0,0,0,0,0,0,0,0,-1,1091,603,0,0
-126,421,0,0,0,0,0,0,0,0,0,-1,1098,603,0,0
-119,421,0,0,0,0,0,0,0,0,0,-1,1105,603,0,0
-112,421,0,0,0,0,0,0,0,0,0,-1,1112,603,0,0
-105,421,0,0,0,0,0,0,0,0,0,-1,1119,603,0,0
-98,421,0,0,0,0,0,0,0,0,0,-1,1126,603,0,0
-91,421,0,0,0,0,0,0,0,0,0,-1,1133,603,0,0
-84,421,0,0,0,0,0,0,0,0,0,-1,1140,603,0,0
-77,421,0,0,0,0,0,0,0,0,0,-1,1147,603,0,0
-70,421,0,0,0,0,0,0,0,0,0,-1,1154,603,0,0
-63,421,0,0,0,0,0,0,0,0,0,-1,1161,603,0,0
-56,421,0,0,0,0,0,0,0,0,0,-1,1168,603,0,0
-49,421,0,0,0,0,0,0,0,0,0,-1,1175,603,0,0
-42,421,0,0,0,0,0,0,0,0,0,-1,1182,603,0,0
-35,421,0,0,0,0,0,0,0,0,0,-1,1189,603,0,0
-28,421,0,0,0,0,0,0,0,0,0,-1,1196,603,0,0
-21,421,0,0,0,0,0,0,0,0,0,-1,1203,603,0,0
-14,421,0,0,0,0,0,0,0,0,0,-1,1210,603,0,0
-7,421,0,0,0,0,0,0,0,0,0,-1,1217,603,0,0
0,421,0,0,0,0,0,0,0,0,0,-1,1224,603,0,0
7,421,0,0,0,0,0,0,0,0,0,-1,1231,603,0,0
14,421,0,0,0,0,0,0,0,0,0,-1,1238,603,0,0
21,421,0,0,0,0,0,0,0,0,0,-1,1245,603,0,0
28,421,0,0,0,0,0,0,0,0,0,-1,1252,603,0,0
35,421,0,0,0,0,0,0,0,0,0,-1,1259,603,0,0
42,421,0,0,0,0,0,0,0,0,0,-1,1266,603,0,0
49,421,0,0,0,0,0,0,0,0,0,-1,1273,603,0,0
56,421,0,0,0,0,0,0,0,0,0,-1,1280,603,0,0
63,421,0,0,0,0,0,0,0,0,0,-1,1287,603,0,0
70,421,0,0,0,0,0,0,0,0,0,-1,1294,603,0,0
77,421,0,0,0,0,0,0,0,0,0,-1,1301,603,0,0
84,421,0,0,0,0,0,0,0,0,0,-1,1308,603,0,0
91,421,0,0,0,0,0,0,0,0,0,-1,1315,603,0,0
98,421,0,0,0,0,0,0,0,0,0,-1,1322,603,0,0
105,421,0,0,0,0,0,0,0,0,0,-1,1329,603,0,0
112,421,0,0,0,0,0,0,0,0,0,-1,1336,603,0,0
119,421,0,0,0,0,0,0,0,0,0,-1,1343,603,0,0
126,421,0,0,0,0,0,0,0,0,0,-1,1350,603,0,0
133,421,0,0,0,0,0,0,0,0,0,-1,1357,603,0,0
140,421,0,0,0,0,0,0,0,0,0,-1,1364,603,0,0
147,421,0,0,0,0,0,0,0,0,0,-1,1371,603,0,0
154,421,0,0,0,0,0,0,0,0,0,-1,1378,603,0,0
161,421,0,0,0,0,0,0,0,0,0,-1,1385,603,0,0
168,421,0,0,0,0,0,0,0,0,0,-1,1392,603,0,0
175,421,0,0,0,0,0,0,0,0,0,-1,1399,603,0,0
182,421,0,0,0,0,0,0,0,0,0,-1,1406,603,0,0
189,421,0,0,0,0,0,0,0,0,0,-1,1413,603,0,0
196,421,0,0,0,0,0,0,0,0,0,-1,1420,603,0,0
203,421,0,0,0,0,0,0,0,0,0,-1,1427,603,0,0
210,421,0,0,0,0,0,0,0,0,0,-1,1434,603,0,0
217,421,0,0,0,0,0,0,0,0,0,-1,1441,603,0,0
224,421,0,0,0,0,0,0,0,0,0,-1,1448,603,0,0
231,421,0,0,0,0,0,0,0,0,0,-1,1455,603,0,0
238,421,0,0,0,0,0,0,0,0,0,-1,1462,603,0,0
245,421,0,0,0,0,0,0,0,0,0,-1,1469,603,0,0
252,421,0,0,0,0,0,0,0,0,0,-1,1476,603,0,0
259,421,0,0,0,0,0,0,0,0,0,-1,1483,603,0,0
266,421,0,0,0,0,0,0,0,0,0,-1,1490,603,0,0
273,421,0,0,0,0,0,0,0,0,0,-1,1497,603,0,0
280,421,0,0,0,0,0,0,0,0,0,-1,1504,603,0,0
287,421,0,0,0,0,0,0,0,0,0,-1,1511,603,0,0
294,421,0,0,0,0,0,0,0,0,0,-1,1518,603,0,0
301,421,0,0,0,0,0,0,0,0,0,-1,1525,603,0,0
308,421,0,0,0,0,0,0,0,0,0,-1,1532,603,0,0
315,421,0,0,0,0,0,0,0,0,0,-1,1539,603,0,0
322,421,0,0,0,0,0,0,0,0,0,-1,1546,603,0,0
329,421,0,0,0,0,0,0,0,0,0,-1,1553,603,0,0
336,421,0,0,0,0,0,0,0,0,0,-1,1560,603,0,0
343,421,0,0,0,0,0,0,0,0,0,-1,1567,603,0,0
350,421,0,0,0,0,0,0,0,0,0,-1,1574,603,0,0
357,421,0,0,0,0,0,0,0,0,0,-1,1581,603,0,0
364,421,0,0,0,0,0,0,0,0,0,-1,1588,603,0,0
371,421,0,0,0,0,0,0,0,0,0,-1,1595,603,0,0
378,421,0,0,0,0,0,0,0,0,0,-1,1602,603,0,0
385,421,0,0,0,0,0,0,0,0,0,-1,1609,603,0,0
392,421,0,0,0,0,0,0,0,0,0,-1,1616,603,0,0
399,421,0,0,0,0,0,0,0,0,0,-1,1623,603,0,0
406,421,0,0,0,0,0,0,0,0,0,-1,1630,603,0,0
413,421,0,0,0,0,0,0,0,0,0,-1,1637,603,0,0
420,421,0,0,0,0,0,0,0,0,0,-1,1644,603,0,0
427,421,0,0,0,0,0,0,0,0,0,-1,1651,603,0,0
434,421,3.68176,-0.0327759,0,0,0,0,0,0,0,-1,1658,603,3.6818,0.0328037
441,421,8.06689,0.527832,0,0,0,0,0,0,0,-1,1665,603,8.06693,-0.527851
448,421,6.93921,0.802246,0,0,0,0,0,0,0,-1,1672,603,6.93923,-0.802251
455,421,7.29456,2.14825,0,0,0,0,0,0,0,-1,1679,603,7.29461,-2.14827
462,421,7.86902,3.53174,0,0,0,0,0,0,0,-1,1686,603,7.869,-3.53173
469,421,8.06604,2.81213,0,0,0,0,0,0,0,-1,1693,603,8.06606,-2.81212
476,421,8.26306,2.09253,0,0,0,0,0,0,0,-1,1700,603,8.26312,-2.09251
483,421,8.05322,0.798096,0,0,0,0,0,0,0,-1,1707,603,8.05323,-0.7981
490,421,7.51233,0.213074,0,0,0,0,0,0,0,-1,1714,603,7.51235,-0.213043
497,421,7.49634,-2.86688,0,0,0,0,0,0,0,-1,1721,603,7.4963,2.86688
504,421,6.90491,-2.18671,0,0,0,0,0,0,0,-1,1728,603,6.90491,2.18669
511,421,6.31348,-1.50653,0,0,0,0,0,0,0,-1,1735,603,6.31353,1.5065
518,421,6.27588,-2.49878,0,0,0,0,0,0,0,-1,1742,603,6.2759,2.4988
525,421,7.78833,-3.31311,0,0,0,0,0,0,0,-1,1749,603,7.78838,3.31308
532,421,7.8916,-2.94958,0.00323906,-7.5183e-05,0.00114675,0.00359715,-0.000433276,0.302673,0.0025548,0.033543,1756,603,7.89166,2.94957
539,421,7.99951,-2.68372,0.00201843,-0.000153584,0.000619727,0.00218281,-0.000317967,0.259279,0.00157195,0.0201756,1763,603,7.99951,2.68372
546,421,8.00049,-2.47296,0.00116342,-0.000197522,0.000248062,0.00120722,-0.000241327,0.174787,0.000896156,0.0126876,1770,603,8.00047,2.47299
553,421,7.99487,-2.23254,0.000646318,-0.000174864,4.32479e-05,0.00064859,-0.000177135,0.0524719,0.000501967,0.0115414,1777,603,7.99487,2.23256
560,421,8.00293,-1.99048,0.000310605,-0.000102579,-5.71127e-05,0.000318354,-0.000110328,-0.134857,0.00025703,0.0134601,1784,603,8.00292,1.99048
567,421,8.0022,-1.74994,0.000118638,0.000102544,-3.40235e-05,0.000145553,7.56284e-05,-0.669275,8.40565e-05,0.0168022,1791,603,8.00222,1.74992
574,421,8.00232,-1.50409,0.000332096,0.000297617,0.000209699,0.000525263,0.00010445,0.744384,0.000321073,0.0195518,1798,603,8.00232,1.5041
581,421,7.99402,-1.24139,0.000721462,0.000630865,0.000571098,0.00124906,0.000103272,0.745822,0.000800503,0.016242,1805,603,7.99405,1.24141
588,421,7.96924,-1.0437,0.00117746,0.00109154,0.00105834,0.00219371,7.5291e-05,0.765112,0.00143803,0.0110319,1812,603,7.96926,1.04371
595,421,7.98779,-0.795898,0.00183859,0.00158489,0.00160408,0.00332082,0.000102658,0.74594,0.00218047,0.0137465,1819,603,7.98784,0.795918
602,421,7.96887,-0.584961,0.0024774,0.00215233,0.00219424,0.00451512,0.000114611,0.748429,0.00297262,0.0151623,1826,603,7.96891,0.584989
609,421,7.89307,-0.328857,0,0,0,0,0,0,0,-1,1833,603,7.8931,0.328834
616,421,8.11108,0.0151367,0,0,0,0,0,0,0,-1,1840,603,8.11103,-0.0151224
623,421,6.19885,0.376648,0,0,0,0,0,0,0,-1,1847,603,6.19881,-0.376624
630,421,6.54993,0.778748,0,0,0,0,0,0,0,-1,1854,603,6.54991,-0.778744
637,421,3.74512,1.65405,0,0,0,0,0,0,0,-1,1861,603,3.74517,-1.65407
644,421,3.58081,0.354675,0,0,0,0,0,0,0,-1,1868,603,3.58082,-0.354704
651,421,3.28687,3.66351,0,0,0,0,0,0,0,-1,1875,603,3.28688,-3.66353
658,421,0,0,0,0,0,0,0,0,0,-1,1882,603,0,0
665,421,0,0,0,0,0,0,0,0,0,-1,1889,603,0,0
672,421,0,0,0,0,0,0,0,0,0,-1,1896,603,0,0
679,421,0,0,0,0,0,0,0,0,0,-1,1903,603,0,0
686,421,0,0,0,0,0,0,0,0,0,-1,1910,603,0,0
693,421,0,0,0,0,0,0,0,0,0,-1,1917,603,0,0
700,421,0,0,0,0,0,0,0,0,0,-1,1924,603,0,0
707,421,0,0,0,0,0,0,0,0,0,-1,1931,603,0,0
714,421,0,0,0,0,0,0,0,0,0,-1,1938,603,0,0
721,421,0,0,0,0,0,0,0,0,0,-1,1945,603,0,0
728,421,0,0,0,0,0,0,0,0,0,-1,1952,603,0,0
735,421,0,0,0,0,0,0,0,0,0,-1,1959,603,0,0
742,421,0,0,0,0,0,0,0,0,0,-1,1966,603,0,0
749,421,0,0,0,0,0,0,0,0,0,-1,1973,603,0,0
756,421,0,0,0,0,0,0,0,0,0,-1,1980,603,0,0
763,421,0,0,0,0,0,0,0,0,0,-1,1987,603,0,0
770,421,0,0,0,0,0,0,0,0,0,-1,1994,603,0,0
777,421,0,0,0,0,0,0,0,0,0,-1,2001,603,0,0
784,421,0,0,0,0,0,0,0,0,0,-1,2008,603,0,0
791,421,0,0,0,0,0,0,0,0,0,-1,2015,603,0,0
798,421,0,0,0,0,0,0,0,0,0,-1,2022,603,0,0
805,421,0,0,0,0,0,0,0,0,0,-1,2029,603,0,0
812,421,0,0,0,0,0,0,0,0,0,-1,2036,603,0,0
-700,414,0,0,0,0,0,0,0,0,0,-1,524,610,0,0
-693,414,0,0,0,0,0,0,0,0,0,-1,531,610,0,0
-686,414,0,0,0,0,0,0,0,0,0,-1,538,610,0,0
-679,414,0,0,0,0,0,0,0,0,0,-1,545,610,0,0
-672,414,0,0,0,0,0,0,0,0,0,-1,552,610,0,0
-665,414,0,0,0,0,0,0,0,0,0,-1,559,610,0,0
-658,414,0,0,0,0,0,0,0,0,0,-1,566,610,0,0
-651,414,0,0,0,0,0,0,0,0,0,-1,573,610,0,0
-644,414,0,0,0,0,0,0,0,0,0,-1,580,610,0,0
-637,414,0,0,0,0,0,0,0,0,0,-1,587,610,0,0
-630,414,0,0,0,0,0,0,0,0,0,-1,594,610,0,0
-623,414,0,0,0,0,0,0,0,0,0,-1,601,610,0,0
-616,414,0,0,0,0,0,0,0,0,0,-1,608,610,0,0
-609,414,0,0,0,0,0,0,0,0,0,-1,615,610,0,0
-602,414,0,0,0,0,0,0,0,0,0,-1,622,610,0,0
-595,414,0,0,0,0,0,0,0,0,0,-1,629,610,0,0
-588,414,0,0,0,0,0,0,0,0,0,-1,636,610,0,0
-581,414,0,0,0,0,0,0,0,0,0,-1,643,610,0,0
-574,414,0,0,0,0,0,0,0,0,0,-1,650,610,0,0
-567,414,0,0,0,0,0,0,0,0,0,-1,657,610,0,0
-560,414,0,0,0,0,0,0,0,0,0,-1,664,610,0,0
-553,414,0,0,0,0,0,0,0,0,0,-1,671,610,0,0
-546,414,0,0,0,0,0,0,0,0,0,-1,678,610,0,0
-539,414,-6.50098,-0.528992,0,0,0,0,0,0,0,-1,685,610,-6.501,0.528994
-532,414,-3.95496,-0.877441,0,0,0,0,0,0,0,-1,692,610,-3.95493,0.877472
-525,414,-9.23834,3.88635,0,0,0,0,0,0,0,-1,699,610,-9.23831,-3.88637
-518,414,-1.50458,-1.36444,0,0,0,0,0,0,0,-1,706,610,-1.50459,1.36443
-511,414,-4.86432,-3.59082,0,0,0,0,0,0,0,-1,713,610,-4.86433,3.59081
-504,414,-2.26416,-2.87775,0,0,0,0,0,0,0,-1,720,610,-2.26415,2.87776
-497,414,-2.99884,-1.54199,0,0,0,0,0,0,0,-1,727,610,-2.99881,1.54201
-490,414,-3.01587,-1.77094,0.0241668,0.016666,-0.0131698,0.0341098,0.00672293,-0.646683,0.0208632,0.0358974,734,610,-3.01588,1.77091
-483,414,-3.03442,-2.06549,0.0200334,0.0130495,-0.0113963,0.0284607,0.00462221,-0.636734,0.0176361,0.0150467,741,610,-3.03443,2.06548
-476,414,-3.091,-2.29791,0.0165951,0.0103049,-0.0096195,0.0235706,0.00332943,-0.627401,0.0147299,0.0103275,748,610,-3.091,2.29794
-469,414,-3.1192,-2.49994,0.013213,0.00791201,-0.00780396,0.0188043,0.00232074,-0.621691,0.0118387,0.0121544,755,610,-3.11921,2.49993
-462,414,-3.11432,-2.7193,0.0101978,0.00575985,-0.00600767,0.0143832,0.00157446,-0.608491,0.00910944,0.0210452,762,610,-3.11431,2.71929
-455,414,-3.10345,-2.95142,0.00753648,0.00390601,-0.00435688,0.0104411,0.00100134,-0.588016,0.00665216,0.0221999,769,610,-3.10348,2.95145
-448,414,-3.13416,-3.16547,0.00520627,0.00226268,-0.00283804,0.00693145,0.000537501,-0.546192,0.00445263,0.0222808,776,610,-3.13415,3.16549
-441,414,-3.12939,-3.39496,0.00317653,0.00102305,-0.00159925,0.00402773,0.000171849,-0.489114,0.00262974,0.0161684,783,610,-3.12941,3.39497
-434,414,-3.09894,-3.63745,0.00145767,-0.00011972,-0.000362567,0.00153702,-0.000199066,-0.215447,0.00109707,0.00916431,790,610,-3.09892,3.63747
-427,414,-3.1059,-3.849,-0.000351441,-0.0011658,0.000793262,0.00013304,-0.00165028,0.548283,0.00114711,0.00977637,797,610,-3.10592,3.849
-420,414,-3.10449,-4.04315,-0.00193268,-0.00179433,0.00182623,-3.59709e-05,-0.00369104,0.804328,0.00244879,0.00960551,804,610,-3.10447,4.04316
-413,414,-3.11017,-4.26068,-0.00303927,-0.00211263,0.00256688,3.24128e-05,-0.00518431,0.874687,0.00346706,0.0105319,811,610,-3.11015,4.26067
-406,414,-3.10602,-4.56976,-0.00397133,-0.00230943,0.00330739,0.000269794,-0.00655055,0.908471,0.00445969,0.0169069,818,610,-3.10602,4.56979
-399,414,-3.09564,-4.75165,-0.0050585,-0.00272299,0.0041923,0.000461154,-0.00824264,0.921229,0.00565508,0.0237178,825,610,-3.09567,4.75165
-392,414,-3.20355,-4.90857,-0.00624149,-0.0029458,0.00517232,0.000834824,-0.0100221,0.939609,0.00697635,0.0285528,832,610,-3.20354,4.90854
-385,414,-3.41974,-5.29645,-0.00760753,-0.00300821,0.00633548,0.00143206,-0.0120478,0.959494,0.00854929,0.043857,839,610,-3.41977,5.29645
-378,414,-3.31897,-5.42407,0,0,0,0,0,0,0,-1,846,610,-3.31899,5.42405
-371,414,-2.8714,-5.40558,0,0,0,0,0,0,0,-1,853,610,-2.87139,5.40557
-364,414,-3.85767,-5.12946,0,0,0,0,0,0,0,-1,860,610,-3.85768,5.12944
-357,414,-5.95874,-2.51605,0,0,0,0,0,0,0,-1,867,610,-5.95872,2.51603
-350,414,-6.4502,-2.41821,0,0,0,0,0,0,0,-1,874,610,-6.45021,2.41822
-343,414,-6.80249,-2.32117,0,0,0,0,0,0,0,-1,881,610,-6.80252,2.32116
-336,414,-7.11017,-2.52026,0,0,0,0,0,0,0,-1,888,610,-7.11016,2.52026
-329,414,-7.59747,-2.70313,0,0,0,0,0,0,0,-1,895,610,-7.59747,2.70315
-322,414,-4.42236,-1.29163,0,0,0,0,0,0,0,-1,902,610,-4.42238,1.2916
-315,414,0,0,0,0,0,0,0,0,0,-1,909,610,0,0
-308,414,0,0,0,0,0,0,0,0,0,-1,916,610,0,0
-301,414,0,0,0,0,0,0,0,0,0,-1,923,610,0,0
-294,414,0,0,0,0,0,0,0,0,0,-1,930,610,0,0
-287,414,0,0,0,0,0,0,0,0,0,-1,937,610,0,0
-280,414,0,0,0,0,0,0,0,0,0,-1,944,610,0,0
-273,414,0,0,0,0,0,0,0,0,0,-1,951,610,0,0
-266,414,0,0,0,0,0,0,0,0,0,-1,958,610,0,0
-259,414,0,0,0,0,0,0,0,0,0,-1,965,610,0,0
-252,414,0,0,0,0,0,0,0,0,0,-1,972,610,0,0
-245,414,0,0,0,0,0,0,0,0,0,-1,979,610,0,0
-238,414,0,0,0,0,0,0,0,0,0,-1,986,610,0,0
-231,414,0,0,0,0,0,0,0,0,0,-1,993,610,0,0
-224,414,0,0,0,0,0,0,0,0,0,-1,1000,610,0,0
-217,414,0,0,0,0,0,0,0,0,0,-1,1007,610,0,0
-210,414,0,0,0,0,0,0,0,0,0,-1,1014,610,0,0
-203,414,0,0,0,0,0,0,0,0,0,-1,1021,610,0,0
-196,414,0,0,0,0,0,0,0,0,0,-1,1028,610,0,0
-189,414,0,0,0,0,0,0,0,0,0,-1,1035,610,0,0
-182,414,0,0,0,0,0,0,0,0,0,-1,1042,610,0,0
-175,414,0,0,0,0,0,0,0,0,0,-1,1049,610,0,0
-168,414,0,0,0,0,0,0,0,0,0,-1,1056,610,0,0
-161,414,0,0,0,0,0,0,0,0,0,-1,1063,610,0,0
-154,414,0,0,0,0,0,0,0,0,0,-1,1070,610,0,0
-147,414,0,0,0,0,0,0,0,0,0,-1,1077,610,0,0
-140,414,0,0,0,0,0,0,0,0,0,-1,1084,610,0,0
-133,414,0,0,0,0,0,0,0,0,0,-1,1091,610,0,0
-126,414,0,0,0,0,0,0,0,0,0,-1,1098,610,0,0
-119,414,0,0,0,0,0,0,0,0,0,-1,1105,610,0,0
-112,414,0,0,0,0,0,0,0,0,0,-1,1112,610,0,0
-105,414,0,0,0,0,0,0,0,0,0,-1,1119,610,0,0
-98,414,0,0,0,0,0,0,0,0,0,-1,1126,610,0,0
-91,414,0,0,0,0,0,0,0,0,0,-1,1133,610,0,0
-84,414,0,0,0,0,0,0,0,0,0,-1,1140,610,0,0
-77,414,0,0,0,0,0,0,0,0,0,-1,1147,610,0,0
-70,414,0,0,0,0,0,0,0,0,0,-1,1154,610,0,0
-63,414,0,0,0,0,0,0,0,0,0,-1,1161,610,0,0
-56,414,0,0,0,0,0,0,0,0,0,-1,1168,610,0,0
-49,414,0,0,0,0,0,0,0,0,0,-1,1175,610,0,0
-42,414,0,0,0,0,0,0,0,0,0,-1,1182,610,0,0
-35,414,0,0,0,0,0,0,0,0,0,-1,1189,610,0,0
-28,414,0,0,0,0,0,0,0,0,0,-1,1196,610,0,0
-21,414,0,0,0,0,0,0,0,0,0,-1,1203,610,0,0
-14,414,0,0,0,0,0,0,0,0,0,-1,1210,610,0,0
-7,414,0,0,0,0,0,0,0,0,0,-1,1217,610,0,0
0,414,0,0,0,0,0,0,0,0,0,-1,1224,610,0,0
7,414,0,0,0,0,0,0,0,0,0,-1,1231,610,0,0
14,414,0,0,0,0,0,0,0,0,0,-1,1238,610,0,0
21,414,0,0,0,0,0,0,0,0,0,-1,1245,610,0,0
28,414,0,0,0,0,0,0,0,0,0,-1,1252,610,0,0
35,414,0,0,0,0,0,0,0,0,0,-1,1259,610,0,0
42,414,0,0,0,0,0,0,0,0,0,-1,1266,610,0,0
49,414,0,0,0,0,0,0,0,0,0,-1,1273,610,0,0
56,414,0,0,0,0,0,0,0,0,0,-1,1280,610,0,0
63,414,0,0,0,0,0,0,0,0,0,-1,1287,610,0,0
70,414,0,0,0,0,0,0,0,0,0,-1,1294,610,0,0
77,414,0,0,0,0,0,0,0,0,0,-1,1301,610,0,0
84,414,0,0,0,0,0,0,0,0,0,-1,1308,610,0,0
91,414,0,0,0,0,0,0,0,0,0,-1,1315,610,0,0
98,414,0,0,0,0,0,0,0,0,0,-1,1322,610,0,0
105,414,0,0,0,0,0,0,0,0,0,-1,1329,610,0,0
112,414,0,0,0,0,0,0,0,0,0,-1,1336,610,0,0
119,414,0,0,0,0,0,0,0,0,0,-1,1343,610,0,0
126,414,0,0,0,0,0,0,0,0,0,-1,1350,610,0,0
133,414,0,0,0,0,0,0,0,0,0,-1,1357,610,0,0
140,414,0,0,0,0,0,0,0,0,0,-1,1364,610,0,0
147,414,0,0,0,0,0,0,0,0,0,-1,1371,610,0,0
154,414,0,0,0,0,0,0,0,0,0,-1,1378,610,0,0
161,414,0,0,0,0,0,0,0,0,0,-1,1385,610,0,0
168,414,0,0,0,0,0,0,0,0,0,-1,1392,610,0,0
175,414,0,0,0,0,0,0,0,0,0,-1,1399,610,0,0
182,414,0,0,0,0,0,0,0,0,0,-1,1406,610,0,0
189,414,0,0,0,0,0,0,0,0,0,-1,1413,610,0,0
196,414,0,0,0,0,0,0,0,0,0,-1,1420,610,0,0
203,414,0,0,0,0,0,0,0,0,0,-1,1427,610,0,0
210,414,0,0,0,0,0,0,0,0,0,-1,1434,610,0,0
217,414,0,0,0,0,0,0,0,0,0,-1,1441,610,0,0
224,414,0,0,0,0,0,0,0,0,0,-1,1448,610,0,0
231,414,0,0,0,0,0,0,0,0,0,-1,1455,610,0,0
238,414,0,0,0,0,0,0,0,0,0,-1,1462,610,0,0
245,414,0,0,0,0,0,0,0,0,0,-1,1469,610,0,0
252,414,0,0,0,0,0,0,0,0,0,-1,1476,610,0,0
259,414,0,0,0,0,0,0,0,0,0,-1,1483,610,0,0
266,414,0,0,0,0,0,0,0,0,0,-1,1490,610,0,0
273,414,0,0,0,0,0,0,0,0,0,-1,1497,610,0,0
280,414,0,0,0,0,0,0,0,0,0,-1,1504,610,0,0
287,414,0,0,0,0,0,0,0,0,0,-1,1511,610,0,0
294,414,0,0,0,0,0,0,0,0,0,-1,1518,610,0,0
301,414,0,0,0,0,0,0,0,0,0,-1,1525,610,0,0
308,414,0,0,0,0,0,0,0,0,0,-1,1532,610,0,0
315,414,0,0,0,0,0,0,0,0,0,-1,1539,610,0,0
322,414,0,0,0,0,0,0,0,0,0,-1,1546,610,0,0
329,414,0,0,0,0,0,0,0,0,0,-1,1553,610,0,0
336,414,0,0,0,0,0,0,0,0,0,-1,1560,610,0,0
343,414,0,0,0,0,0,0,0,0,0,-1,1567,610,0,0
350,414,0,0,0,0,0,0,0,0,0,-1,1574,610,0,0
357,414,0,0,0,0,0,0,0,0,0,-1,1581,610,0,0
364,414,0,0,0,0,0,0,0,0,0,-1,1588,610,0,0
371,414,0,0,0,0,0,0,0,0,0,-1,1595,610,0,0
378,414,0,0,0,0,0,0,0,0,0,-1,1602,610,0,0
385,414,0,0,0,0,0,0,0,0,0,-1,1609,610,0,0
392,414,0,0,0,0,0,0,0,0,0,-1,1616,610,0,0
399,414,0,0,0,0,0,0,0,0,0,-1,1623,610,0,0
406,414,0,0,0,0,0,0,0,0,0,-1,1630,610,0,0
413,414,0,0,0,0,0,0,0,0,0,-1,1637,610,0,0
420,414,0,0,0,0,0,0,0,0,0,-1,1644,610,0,0
427,414,0,0,0,0,0,0,0,0,0,-1,1651,610,0,0
434,414,0,0,0,0,0,0,0,0,0,-1,1658,610,0,0
441,414,7.84375,0.584412,0,0,0,0,0,0,0,-1,1665,610,7.84379,-0.584394
448,414,7.40808,1.25446,0,0,0,0,0,0,0,-1,1672,610,7.40807,-1.25446
455,414,6.3512,1.73846,0,0,0,0,0,0,0,-1,1679,610,6.3512,-1.73847
462,414,8.18103,3.22113,0,0,0,0,0,0,0,-1,1686,610,8.18108,-3.22112
469,414,8.38513,2.49579,0,0,0,0,0,0,0,-1,1693,610,8.38516,-2.49576
476,414,8.64099,1.71161,0,0,0,0,0,0,0,-1,1700,610,8.64097,-1.71164
483,414,8.62744,0.687622,0,0,0,0,0,0,0,-1,1707,610,8.62749,-0.687615
490,414,8.38831,-0.0302734,0,0,0,0,0,0,0,-1,1714,610,8.38835,0.0302913
497,414,4.71094,-0.110046,0,0,0,0,0,0,0,-1,1721,610,4.71089,0.110024
504,414,7.19568,-1.43835,0,0,0,0,0,0,0,-1,1728,610,7.19563,1.43836
511,414,5.94153,-1.28772,0,0,0,0,0,0,0,-1,1735,610,5.94151,1.28769
518,414,4.53381,-0.0996704,0,0,0,0,0,0,0,-1,1742,610,4.53378,0.0996819
525,414,6.18811,-1.64056,0,0,0,0,0,0,0,-1,1749,610,6.18814,1.64055
532,414,8.07458,-3.17157,0,0,0,0,0,0,0,-1,1756,610,8.07455,3.17156
539,414,8.19006,-2.77972,0.00137649,-0.000307891,0.000278717,0.00142141,-0.000352813,0.159799,0.00108451,0.0367277,1763,610,8.19001,2.77975
546,414,8.2207,-2.46027,0.000524399,-0.000287482,-8.7744e-05,0.000533773,-0.000296856,-0.106438,0.000486023,0.0131284,1770,610,8.22066,2.46029
553,414,8.23914,-2.22882,8.09714e-05,-0.000195752,-0.000253027,0.000230996,-0.000345777,-0.535196,0.000335191,0.0117426,1777,610,8.23917,2.22882
560,414,8.24817,-1.97021,-0.000156548,-8.54565e-05,-0.000311505,0.000192524,-0.000434529,-0.842207,0.000370908,0.0132055,1784,610,8.24816,1.97019
567,414,8.24121,-1.70947,-0.00026284,0.000137834,-0.00025264,0.000259928,-0.000384934,-1.12062,0.000374636,0.0225771,1791,610,8.2412,1.70945
574,414,8.22327,-1.49274,4.026e-05,0.000343887,2.90696e-05,0.000346645,3.75019e-05,1.4762,0.000219666,0.0221777,1798,610,8.22326,1.49276
581,414,8.25098,-1.23663,0.000521305,0.000670404,0.000414779,0.00101728,0.000174429,0.874315,0.000628169,0.0173468,1805,610,8.25096,1.23664
588,414,8.22205,-1.0495,0.00103872,0.00110155,0.000897153,0.00196784,0.000172433,0.8029,0.00125836,0.0161926,1812,610,8.22199,1.04948
595,414,8.24048,-0.759644,0.00174727,0.00151666,0.00139929,0.003036,0.000227927,0.74429,0.00195246,0.0207234,1819,610,8.24043,0.75962
602,414,8.23999,-0.519836,0.00241459,0.00204791,0.00192572,0.00416568,0.000296826,0.737938,0.00268366,0.0241722,1826,610,8.23996,0.519826
609,414,8.24585,-0.311768,0,0,0,0,0,0,0,-1,1833,610,8.24584,0.311754
616,414,8.30347,-0.258911,0,0,0,0,0,0,0,-1,1840,610,8.30343,0.25892
623,414,8.70325,0.0610352,0,0,0,0,0,0,0,-1,1847,610,8.70329,-0.0610619
630,414,5.47144,0.499329,0,0,0,0,0,0,0,-1,1854,610,5.47142,-0.499303
637,414,6.57898,2.38019,0,0,0,0,0,0,0,-1,1861,610,6.579,-2.38019
644,414,5.87073,1.51422,0,0,0,0,0,0,0,-1,1868,610,5.87076,-1.51424
651,414,3.6377,0.820557,0,0,0,0,0,0,0,-1,1875,610,3.6377,-0.820543
658,414,2.29761,3.87323,0,0,0,0,0,0,0,-1,1882,610,2.29758,-3.87325
665,414,0,0,0,0,0,0,0,0,0,-1,1889,610,0,0
672,414,0,0,0,0,0,0,0,0,0,-1,1896,610,0,0
679,414,0,0,0,0,0,0,0,0,0,-1,1903,610,0,0
686,414,0,0,0,0,0,0,0,0,0,-1,1910,610,0,0
693,414,0,0,0,0,0,0,0,0,0,-1,1917,610,0,0
700,414,0,0,0,0,0,0,0,0,0,-1,1924,610,0,0
707,414,0,0,0,0,0,0,0,0,0,-1,1931,610,0,0
714,414,0,0,0,0,0,0,0,0,0,-1,1938,610,0,0
721,414,0,0,0,0,0,0,0,0,0,-1,1945,610,0,0
728,414,0,0,0,0,0,0,0,0,0,-1,1952,610,0,0
735,414,0,0,0,0,0,0,0,0,0,-1,1959,610,0,0
742,414,0,0,0,0,0,0,0,0,0,-1,1966,610,0,0
749,414,0,0,0,0,0,0,0,0,0,-1,1973,610,0,0
756,414,0,0,0,0,0,0,0,0,0,-1,1980,610,0,0
763,414,0,0,0,0,0,0,0,0,0,-1,1987,610,0,0
770,414,0,0,0,0,0,0,0,0,0,-1,1994,610,0,0
777,414,0,0,0,0,0,0,0,0,0,-1,2001,610,0,0
784,414,0,0,0,0,0,0,0,0,0,-1,2008,610,0,0
791,414,0,0,0,0,0,0,0,0,0,-1,2015,610,0,0
798,414,0,0,0,0,0,0,0,0,0,-1,2022,610,0,0
805,414,0,0,0,0,0,0,0,0,0,-1,2029,610,0,0
812,414,0,0,0,0,0,0,0,0,0,-1,2036,610,0,0
-700,407,0,0,0,0,0,0,0,0,0,-1,524,617,0,0
-693,407,0,0,0,0,0,0,0,0,0,-1,531,617,0,0
-686,407,0,0,0,0,0,0,0,0,0,-1,538,617,0,0
-679,407,0,0,0,0,0,0,0,0,0,-1,545,617,0,0
-672,407,0,0,0,0,0,0,0,0,0,-1,552,617,0,0
-665,407,0,0,0,0,0,0,0,0,0,-1,559,617,0,0
-658,407,0,0,0,0,0,0,0,0,0,-1,566,617,0,0
-651,407,0,0,0,0,0,0,0,0,0,-1,573,617,0,0
-644,407,0,0,0,0,0,0,0,0,0,-1,580,617,0,0
-637,407,0,0,0,0,0,0,0,0,0,-1,587,617,0,0
-630,407,0,0,0,0,0,0,0,0,0,-1,594,617,0,0
-623,407,0,0,0,0,0,0,0,0,0,-1,601,617,0,0
-616,407,0,0,0,0,0,0,0,0,0,-1,608,617,0,0
-609,407,0,0,0,0,0,0,0,0,0,-1,615,617,0,0
-602,407,0,0,0,0,0,0,0,0,0,-1,622,617,0,0
-595,407,0,0,0,0,0,0,0,0,0,-1,629,617,0,0
-588,407,0,0,0,0,0,0,0,0,0,-1,636,617,0,0
-581,407,0,0,0,0,0,0,0,0,0,-1,643,617,0,0
-574,407,0,0,0,0,0,0,0,0,0,-1,650,617,0,0
-567,407,0,0,0,0,0,0,0,0,0,-1,657,617,0,0
-560,407,0,0,0,0,0,0,0,0,0,-1,664,617,0,0
-553,407,0,0,0,0,0,0,0,0,0,-1,671,617,0,0
-546,407,-8.54517,-0.658142,0,0,0,0,0,0,0,-1,678,617,-8.54515,0.658112
-539,407,-6.09442,-1.01154,0,0,0,0,0,0,0,-1,685,617,-6.09441,1.01155
-532,407,-3.51044,-1.34229,0,0,0,0,0,0,0,-1,692,617,-3.51045,1.34226
-525,407,-2.20178,-0.230286,0,0,0,0,0,0,0,-1,699,617,-2.2018,0.230291
-518,407,-1.79602,-0.880981,0,0,0,0,0,0,0,-1,706,617,-1.796,0.880991
-511,407,-1.7511,-2.38977,0,0,0,0,0,0,0,-1,713,617,-1.75107,2.38978
-504,407,-3.08569,-1.93744,0,0,0,0,0,0,0,-1,720,617,-3.08571,1.93744
-497,407,-3.14172,-1.9339,0.0236068,0.011798,-0.00956189,0.0289403,0.00646443,-0.508807,0.0175404,0.0435247,727,617,-3.14174,1.93388
-490,407,-3.27753,-1.89697,0.0153963,0.0119835,-0.00845685,0.0223172,0.00506262,-0.685847,0.0135106,0.0206845,734,617,-3.27754,1.89698
-483,407,-3.28271,-2.05206,0.012971,0.00919538,-0.00746097,0.0187793,0.00338711,-0.661485,0.0115572,0.0107108,741,617,-3.28271,2.05205
-476,407,-3.2951,-2.26569,0.010973,0.00727101,-0.00637996,0.015765,0.00247895,-0.644211,0.00978891,0.00961777,748,617,-3.29511,2.26568
-469,407,-3.31635,-2.47772,0.00878146,0.00556955,-0.00522623,0.0126429,0.0017081,-0.636334,0.00792087,0.0124411,755,617,-3.31636,2.47773
-462,407,-3.33002,-2.71295,0.0067982,0.00401761,-0.00401463,0.00965646,0.00115936,-0.618707,0.0060881,0.018768,762,617,-3.33004,2.71296
-455,407,-3.31805,-2.96045,0.00499601,0.00259802,-0.00282691,0.00686769,0.00072634,-0.584828,0.00435657,0.0200096,769,617,-3.31804,2.96045
-448,407,-3.31354,-3.17902,0.00332953,0.00124522,-0.00166303,0.00424997,0.000324785,-0.505503,0.0027315,0.017788,776,617,-3.31353,3.17902
-441,407,-3.3208,-3.36835,0.00171724,0.000169975,-0.000640724,0.00194812,-6.08992e-05,-0.345851,0.00131951,0.0133444,783,617,-3.32077,3.36834
-434,407,-3.31744,-3.59216,0.000274029,-0.000832045,0.000464181,0.000443013,-0.00100103,0.349133,0.000854215,0.0092668,790,617,-3.31745,3.59217
-427,407,-3.32788,-3.8266,-0.00119337,-0.00174203,0.00147004,2.77197e-05,-0.00296312,0.693153,0.00198472,0.0096286,797,617,-3.32786,3.82661
-420,407,-3.3158,-4.03705,-0.00256871,-0.00240497,0.002434,-5.14658e-05,-0.00492221,0.802209,0.00326445,0.00960518,804,617,-3.3158,4.03705
-413,407,-3.29834,-4.25861,-0.00367413,-0.00288008,0.00323068,-2.21196e-05,-0.00653209,0.846538,0.00434737,0.0111076,811,617,-3.29836,4.25861
-406,407,-3.30188,-4.44202,-0.00486636,-0.00333052,0.0041581,0.000129971,-0.00832685,0.87671,0.00559506,0.0236914,818,617,-3.3019,4.44203
-399,407,-3.30267,-4.54303,-0.00641906,-0.0039497,0.00531416,0.000271329,-0.0106401,0.899542,0.00718554,0.0386611,825,617,-3.30264,4.54303
-392,407,-3.54224,-4.84235,-0.00833996,-0.00434661,0.00672917,0.000675864,-0.0133624,0.92962,0.00914191,0.0463462,832,617,-3.54224,4.84237
-385,407,-3.81348,-5.18079,0,0,0,0,0,0,0,-1,839,617,-3.81346,5.18081
-378,407,-4.54877,-5.56934,0,0,0,0,0,0,0,-1,846,617,-4.54878,5.56935
-371,407,-5.03748,-4.89868,0,0,0,0,0,0,0,-1,853,617,-5.03747,4.89867
-364,407,-6.26666,-1.91302,0,0,0,0,0,0,0,-1,860,617,-6.26669,1.91305
-357,407,-6.64447,-1.83337,0,0,0,0,0,0,0,-1,867,617,-6.64446,1.8334
-350,407,-7.03351,-1.77551,0,0,0,0,0,0,0,-1,874,617,-7.03349,1.77551
-343,407,-7.40967,-1.95026,0,0,0,0,0,0,0,-1,881,617,-7.40969,1.95026
-336,407,-8.10229,-2.40662,0,0,0,0,0,0,0,-1,888,617,-8.10229,2.40664
-329,407,-8.81232,-2.76331,0,0,0,0,0,0,0,-1,895,617,-8.81235,2.76331
-322,407,0,0,0,0,0,0,0,0,0,-1,902,617,0,0
-315,407,0,0,0,0,0,0,0,0,0,-1,909,617,0,0
-308,407,0,0,0,0,0,0,0,0,0,-1,916,617,0,0
-301,407,0,0,0,0,0,0,0,0,0,-1,923,617,0,0
-294,407,0,0,0,0,0,0,0,0,0,-1,930,617,0,0
-287,407,0,0,0,0,0,0,0,0,0,-1,937,617,0,0
-280,407,0,0,0,0,0,0,0,0,0,-1,944,617,0,0
-273,407,0,0,0,0,0,0,0,0,0,-1,951,617,0,0
-266,407,0,0,0,0,0,0,0,0,0,-1,958,617,0,0
-259,407,0,0,0,0,0,0,0,0,0,-1,965,617,0,0
-252,407,0,0,0,0,0,0,0,0,0,-1,972,617,0,0
-245,407,0,0,0,0,0,0,0,0,0,-1,979,617,0,0
-238,407,0,0,0,0,0,0,0,0,0,-1,986,617,0,0
-231,407,0,0,0,0,0,0,0,0,0,-1,993,617,0,0
-224,407,0,0,0,0,0,0,0,0,0,-1,1000,617,0,0
-217,407,0,0,0,0,0,0,0,0,0,-1,1007,617,0,0
-210,407,0,0,0,0,0,0,0,0,0,-1,1014,617,0,0
-203,407,0,0,0,0,0,0,0,0,0,-1,1021,617,0,0
-196,407,0,0,0,0,0,0,0,0,0,-1,1028,617,0,0
-189,407,0,0,0,0,0,0,0,0,0,-1,1035,617,0,0
-182,407,0,0,0,0,0,0,0,0,0,-1,1042,617,0,0
-175,407,0,0,0,0,0,0,0,0,0,-1,1049,617,0,0
-168,407,0,0,0,0,0,0,0,0,0,-1,1056,617,0,0
-161,407,0,0,0,0,0,0,0,0,0,-1,1063,617,0,0
-154,407,0,0,0,0,0,0,0,0,0,-1,1070,617,0,0
-147,407,0,0,0,0,0,0,0,0,0,-1,1077,617,0,0
-140,407,0,0,0,0,0,0,0,0,0,-1,1084,617,0,0
-133,407,0,0,0,0,0,0,0,0,0,-1,1091,617,0,0
-126,407,0,0,0,0,0,0,0,0,0,-1,1098,617,0,0
-119,407,0,0,0,0,0,0,0,0,0,-1,1105,617,0,0
-112,407,0,0,0,0,0,0,0,0,0,-1,1112,617,0,0
-105,407,0,0,0,0,0,0,0,0,0,-1,1119,617,0,0
-98,407,0,0,0,0,0,0,0,0,0,-1,1126,617,0,0
-91,407,0,0,0,0,0,0,0,0,0,-1,1133,617,0,0
-84,407,0,0,0,0,0,0,0,0,0,-1,1140,617,0,0
-77,407,0,0,0,0,0,0,0,0,0,-1,1147,617,0,0
-70,407,0,0,0,0,0,0,0,0,0,-1,1154,617,0,0
-63,407,0,0,0,0,0,0,0,0,0,-1,1161,617,0,0
-56,407,0,0,0,0,0,0,0,0,0,-1,1168,617,0,0
-49,407,0,0,0,0,0,0,0,0,0,-1,1175,617,0,0
-42,407,0,0,0,0,0,0,0,0,0,-1,1182,617,0,0
-35,407,0,0,0,0,0,0,0,0,0,-1,1189,617,0,0
-28,407,0,0,0,0,0,0,0,0,0,-1,1196,617,0,0
-21,407,0,0,0,0,0,0,0,0,0,-1,1203,617,0,0
-14,407,0,0,0,0,0,0,0,0,0,-1,1210,617,0,0
-7,407,0,0,0,0,0,0,0,0,0,-1,1217,617,0,0
0,407,0,0,0,0,0,0,0,0,0,-1,1224,617,0,0
7,407,0,0,0,0,0,0,0,0,0,-1,1231,617,0,0
14,407,0,0,0,0,0,0,0,0,0,-1,1238,617,0,0
21,407,0,0,0,0,0,0,0,0,0,-1,1245,617,0,0
28,407,0,0,0,0,0,0,0,0,0,-1,1252,617,0,0
35,407,0,0,0,0,0,0,0,0,0,-1,1259,617,0,0
42,407,0,0,0,0,0,0,0,0,0,-1,1266,617,0,0
49,407,0,0,0,0,0,0,0,0,0,-1,1273,617,0,0
56,407,0,0,0,0,0,0,0,0,0,-1,1280,617,0,0
63,407,0,0,0,0,0,0,0,0,0,-1,1287,617,0,0
70,407,0,0,0,0,0,0,0,0,0,-1,1294,617,0,0
77,407,0,0,0,0,0,0,0,0,0,-1,1301,617,0,0
84,407,0,0,0,0,0,0,0,0,0,-1,1308,617,0,0
91,407,0,0,0,0,0,0,0,0,0,-1,1315,617,0,0
98,407,0,0,0,0,0,0,0,0,0,-1,1322,617,0,0
105,407,0,0,0,0,0,0,0,0,0,-1,1329,617,0,0
112,407,0,0,0,0,0,0,0,0,0,-1,1336,617,0,0
119,407,0,0,0,0,0,0,0,0,0,-1,1343,617,0,0
126,407,0,0,0,0,0,0,0,0,0,-1,1350,617,0,0
133,407,0,0,0,0,0,0,0,0,0,-1,1357,617,0,0
140,407,0,0,0,0,0,0,0,0,0,-1,1364,617,0,0
147,407,0,0,0,0,0,0,0,0,0,-1,1371,617,0,0
154,407,0,0,0,0,0,0,0,0,0,-1,1378,617,0,0
161,407,0,0,0,0,0,0,0,0,0,-1,1385,617,0,0
168,407,0,0,0,0,0,0,0,0,0,-1,1392,617,0,0
175,407,0,0,0,0,0,0,0,0,0,-1,1399,617,0,0
182,407,0,0,0,0,0,0,0,0,0,-1,1406,617,0,0
189,407,0,0,0,0,0,0,0,0,0,-1,1413,617,0,0
196,407,0,0,0,0,0,0,0,0,0,-1,1420,617,0,0
203,407,0,0,0,0,0,0,0,0,0,-1,1427,617,0,0
210,407,0,0,0,0,0,0,0,0,0,-1,1434,617,0,0
217,407,0,0,0,0,0,0,0,0,0,-1,1441,617,0,0
224,407,0,0,0,0,0,0,0,0,0,-1,1448,617,0,0
231,407,0,0,0,0,0,0,0,0,0,-1,1455,617,0,0
238,407,0,0,0,0,0,0,0,0,0,-1,1462,617,0,0
245,407,0,0,0,0,0,0,0,0,0,-1,1469,617,0,0
252,407,0,0,0,0,0,0,0,0,0,-1,1476,617,0,0
259,407,0,0,0,0,0,0,0,0,0,-1,1483,617,0,0
266,407,0,0,0,0,0,0,0,0,0,-1,1490,617,0,0
273,407,0,0,0,0,0,0,0,0,0,-1,1497,617,0,0
280,407,0,0,0,0,0,0,0,0,0,-1,1504,617,0,0
287,407,0,0,0,0,0,0,0,0,0,-1,1511,617,0,0
294,407,0,0,0,0,0,0,0,0,0,-1,1518,617,0,0
301,407,0,0,0,0,0,0,0,0,0,-1,1525,617,0,0
308,407,0,0,0,0,0,0,0,0,0,-1,1532,617,0,0
315,407,0,0,0,0,0,0,0,0,0,-1,1539,617,0,0
322,407,0,0,0,0,0,0,0,0,0,-1,1546,617,0,0
329,407,0,0,0,0,0,0,0,0,0,-1,1553,617,0,0
336,407,0,0,0,0,0,0,0,0,0,-1,1560,617,0,0
343,407,0,0,0,0,0,0,0,0,0,-1,1567,617,0,0
350,407,0,0,0,0,0,0,0,0,0,-1,1574,617,0,0
357,407,0,0,0,0,0,0,0,0,0,-1,1581,617,0,0
364,407,0,0,0,0,0,0,0,0,0,-1,1588,617,0,0
371,407,0,0,0,0,0,0,0,0,0,-1,1595,617,0,0
378,407,0,0,0,0,0,0,0,0,0,-1,1602,617,0,0
385,407,0,0,0,0,0,0,0,0,0,-1,1609,617,0,0
392,407,0,0,0,0,0,0,0,0,0,-1,1616,617,0,0
399,407,0,0,0,0,0,0,0,0,0,-1,1623,617,0,0
406,407,0,0,0,0,0,0,0,0,0,-1,1630,617,0,0
413,407,0,0,0,0,0,0,0,0,0,-1,1637,617,0,0
420,407,0,0,0,0,0,0,0,0,0,-1,1644,617,0,0
427,407,0,0,0,0,0,0,0,0,0,-1,1651,617,0,0
434,407,0,0,0,0,0,0,0,0,0,-1,1658,617,0,0
441,407,0,0,0,0,0,0,0,0,0,-1,1665,617,0,0
448,407,7.02893,2.13843,0,0,0,0,0,0,0,-1,1672,617,7.02899,-2.13844
455,407,7.55237,2.29242,0,0,0,0,0,0,0,-1,1679,617,7.55236,-2.29244
462,407,8.2926,2.46173,0,0,0,0,0,0,0,-1,1686,617,8.29261,-2.46174
469,407,8.71509,2.22681,0,0,0,0,0,0,0,-1,1693,617,8.71511,-2.22681
476,407,8.89917,1.47766,0,0,0,0,0,0,0,-1,1700,617,8.89914,-1.47768
483,407,9.02612,0.682983,0,0,0,0,0,0,0,-1,1707,617,9.02608,-0.683004
490,407,9.12659,0.000671387,0,0,0,0,0,0,0,-1,1714,617,9.12653,-0.000675931
497,407,7.76819,0.855835,0,0,0,0,0,0,0,-1,1721,617,7.7682,-0.855865
504,407,4.69336,0.160706,0,0,0,0,0,0,0,-1,1728,617,4.69337,-0.1607
511,407,4.07104,-0.00140381,0,0,0,0,0,0,0,-1,1735,617,4.07109,0.00141425
518,407,6.09534,1.9411,0,0,0,0,0,0,0,-1,1742,617,6.09532,-1.94113
525,407,5.72534,-1.35986,0,0,0,0,0,0,0,-1,1749,617,5.72529,1.35988
532,407,7.31763,-2.34937,0,0,0,0,0,0,0,-1,1756,617,7.31766,2.34937
539,407,8.33618,-2.85016,0,0,0,0,0,0,0,-1,1763,617,8.33623,2.85016
546,407,8.44666,-2.45514,-0.000519069,-0.000558991,-0.0006677,0.000128969,-0.00120703,-0.770455,0.000850939,0.0135142,1770,617,8.44666,2.45513
553,407,8.44592,-2.22693,-0.000777575,-0.000375709,-0.000722472,0.000173251,-0.00132654,-0.92103,0.000947402,0.0135509,1777,617,8.4459,2.22694
560,407,8.47229,-1.96545,-0.000840844,-0.000221647,-0.0006892,0.000224299,-0.00128679,-0.996498,0.000941575,0.0152983,1784,617,8.47231,1.96544
567,407,8.47815,-1.73895,-0.000800752,1.81404e-05,-0.00055699,0.000299986,-0.0010826,-1.10235,0.000839781,0.0284458,1791,617,8.47818,1.73897
574,407,8.4502,-1.52344,-0.000380324,0.000246935,-0.000215697,0.000313948,-0.000447337,-1.26957,0.000441771,0.0255251,1798,617,8.45021,1.52345
581,407,8.46716,-1.24426,0.000205132,0.000590716,0.000216749,0.000688008,0.000107841,1.14888,0.000427286,0.0170189,1805,617,8.4671,1.24429
588,407,8.45288,-1.02997,0.000796916,0.00102825,0.000717999,0.00163984,0.000185327,0.86526,0.00103698,0.0114575,1812,617,8.45283,1.02997
595,407,8.47961,-0.795959,0.00154915,0.00141764,0.00120447,0.00268967,0.000277131,0.758129,0.00170824,0.0217406,1819,617,8.47956,0.795988
602,407,8.49084,-0.534546,0.00223665,0.00196684,0.00171907,0.0038261,0.000377386,0.746241,0.00243471,0.0198702,1826,617,8.49085,0.534546
609,407,8.46692,-0.267334,0.00258028,0.00250408,0.00205729,0.00459982,0.000484541,0.77614,0.00291847,0.0160487,1833,617,8.46686,0.267312
616,407,8.51819,0.0688477,0.00289407,0.0035137,0.00250549,0.00572845,0.000679317,0.846914,0.00361388,0.0254515,1840,617,8.51821,-0.0688366
623,407,8.78088,0.413757,0,0,0,0,0,0,0,-1,1847,617,8.78087,-0.413744
630,407,7.06177,0.814575,0,0,0,0,0,0,0,-1,1854,617,7.06178,-0.814579
637,407,6.27808,1.17114,0,0,0,0,0,0,0,-1,1861,617,6.27803,-1.17116
644,407,5.09766,2.27747,0,0,0,0,0,0,0,-1,1868,617,5.09764,-2.27746
651,407,7.37524,0.0513916,0,0,0,0,0,0,0,-1,1875,617,7.3752,-0.0513923
658,407,3.76685,0.594177,0,0,0,0,0,0,0,-1,1882,617,3.76683,-0.594184
665,407,5.76123,0.375061,0,0,0,0,0,0,0,-1,1889,617,5.76118,-0.37509
672,407,0,0,0,0,0,0,0,0,0,-1,1896,617,0,0
679,407,0,0,0,0,0,0,0,0,0,-1,1903,617,0,0
686,407,0,0,0,0,0,0,0,0,0,-1,1910,617,0,0
693,407,0,0,0,0,0,0,0,0,0,-1,1917,617,0,0
700,407,0,0,0,0,0,0,0,0,0,-1,1924,617,0,0
707,407,0,0,0,0,0,0,0,0,0,-1,1931,617,0,0
714,407,0,0,0,0,0,0,0,0,0,-1,1938,617,0,0
721,407,0,0,0,0,0,0,0,0,0,-1,1945,617,0,0
728,407,0,0,0,0,0,0,0,0,0,-1,1952,617,0,0
735,407,0,0,0,0,0,0,0,0,0,-1,1959,617,0,0
742,407,0,0,0,0,0,0,0,0,0,-1,1966,617,0,0
749,407,0,0,0,0,0,0,0,0,0,-1,1973,617,0,0
756,407,0,0,0,0,0,0,0,0,0,-1,1980,617,0,0
763,407,0,0,0,0,0,0,0,0,0,-1,1987,617,0,0
770,407,0,0,0,0,0,0,0,0,0,-1,1994,617,0,0
777,407,0,0,0,0,0,0,0,0,0,-1,2001,617,0,0
784,407,0,0,0,0,0,0,0,0,0,-1,2008,617,0,0
791,407,0,0,0,0,0,0,0,0,0,-1,2015,617,0,0
798,407,0,0,0,0,0,0,0,0,0,-1,2022,617,0,0
805,407,0,0,0,0,0,0,0,0,0,-1,2029,617,0,0
812,407,0,0,0,0,0,0,0,0,0,-1,2036,617,0,0
-700,400,0,0,0,0,0,0,0,0,0,-1,524,624,0,0
-693,400,0,0,0,0,0,0,0,0,0,-1,531,624,0,0
-686,400,0,0,0,0,0,0,0,0,0,-1,538,624,0,0
-679,400,0,0,0,0,0,0,0,0,0,-1,545,624,0,0
-672,400,0,0,0,0,0,0,0,0,0,-1,552,624,0,0
-665,400,0,0,0,0,0,0,0,0,0,-1,559,624,0,0
-658,400,0,0,0,0,0,0,0,0,0,-1,566,624,0,0
-651,400,0,0,0,0,0,0,0,0,0,-1,573,624,0,0
-644,400,0,0,0,0,0,0,0,0,0,-1,580,624,0,0
-637,400,0,0,0,0,0,0,0,0,0,-1,587,624,0,0
-630,400,0,0,0,0,0,0,0,0,0,-1,594,624,0,0
-623,400,0,0,0,0,0,0,0,0,0,-1,601,624,0,0
-616,400,0,0,0,0,0,0,0,0,0,-1,608,624,0,0
-609,400,0,0,0,0,0,0,0,0,0,-1,615,624,0,0
-602,400,0,0,0,0,0,0,0,0,0,-1,622,624,0,0
-595,400,0,0,0,0,0,0,0,0,0,-1,629,624,0,0
-588,400,0,0,0,0,0,0,0,0,0,-1,636,624,0,0
-581,400,0,0,0,0,0,0,0,0,0,-1,643,624,0,0
-574,400,0,0,0,0,0,0,0,0,0,-1,650,624,0,0
-567,400,0,0,0,0,0,0,0,0,0,-1,657,624,0,0
-560,400,0,0,0,0,0,0,0,0,0,-1,664,624,0,0
-553,400,0,0,0,0,0,0,0,0,0,-1,671,624,0,0
-546,400,-8.41174,-1.4599,0,0,0,0,0,0,0,-1,678,624,-8.41173,1.45989
-539,400,-5.69104,-1.7337,0,0,0,0,0,0,0,-1,685,624,-5.69103,1.7337
-532,400,-3.03632,-2.03912,0,0,0,0,0,0,0,-1,692,624,-3.03632,2.03909
-525,400,-0.330627,-2.44366,0,0,0,0,0,0,0,-1,699,624,-0.330601,2.44365
-518,400,-2.65259,-0.450928,0,0,0,0,0,0,0,-1,706,624,-2.65262,0.45091
-511,400,-2.90057,-3.6604,0,0,0,0,0,0,0,-1,713,624,-2.90058,3.66042
-504,400,-3.09381,-2.75061,0,0,0,0,0,0,0,-1,720,624,-3.09379,2.75059
-497,400,-3.49274,-1.78864,0.0163942,0.00831739,-0.0058645,0.0194763,0.00523533,-0.483875,0.0116384,0.0354943,727,624,-3.49272,1.78862
-490,400,-3.53485,-1.8457,0.00958203,0.00854244,-0.00514171,0.0142302,0.00389431,-0.735022,0.00849173,0.0162633,734,624,-3.53488,1.84573
-483,400,-3.53815,-2.04822,0.00811196,0.00631227,-0.0046159,0.0119149,0.00250932,-0.689133,0.007253,0.0137204,741,624,-3.53816,2.04824
-476,400,-3.51672,-2.2597,0.00699221,0.00494755,-0.00398065,0.0100797,0.00186005,-0.659703,0.0061936,0.0124251,748,624,-3.51671,2.2597
-469,400,-3.54041,-2.47742,0.00556221,0.00372437,-0.00325891,0.00802927,0.00125731,-0.64798,0.00498686,0.0140876,755,624,-3.54041,2.4774
-462,400,-3.52716,-2.71899,0.00425909,0.00261318,-0.00244695,0.00601776,0.000854504,-0.623181,0.00375952,0.0185924,762,624,-3.52717,2.71902
-455,400,-3.52515,-2.94012,0.0030452,0.00153316,-0.00158703,0.00404709,0.000531277,-0.563114,0.00253956,0.019471,769,624,-3.52513,2.9401
-448,400,-3.54877,-3.14709,0.00184326,0.000417035,-0.00068113,0.00211628,0.000144009,-0.381232,0.00136538,0.0148655,776,624,-3.54878,3.1471
-441,400,-3.55371,-3.35071,0.000497842,-0.000541911,0.00020191,0.000535675,-0.000579744,0.185225,0.000644155,0.0138268,783,624,-3.55373,3.35068
-434,400,-3.54718,-3.57062,-0.000787461,-0.00141979,0.00122471,0.000161236,-0.00236849,0.659079,0.00163539,0.0104037,790,624,-3.54717,3.57061
-427,400,-3.54626,-3.79138,-0.0020178,-0.00222154,0.00213193,1.46904e-05,-0.00425403,0.761525,0.00284093,0.00887246,797,624,-3.54626,3.79141
-420,400,-3.50049,-4.03717,-0.00326062,-0.00294362,0.00305952,-3.84971e-05,-0.00616575,0.811278,0.00409773,0.0113888,804,624,-3.50047,4.03717
-413,400,-3.50073,-4.25085,-0.00443811,-0.00362609,0.00396217,-4.91864e-05,-0.00801502,0.836456,0.00532703,0.0250475,811,624,-3.50072,4.25084
-406,400,-3.65625,-4.35529,-0.00597873,-0.00440958,0.00514146,6.81635e-06,-0.0103951,0.861113,0.00693236,0.0395057,818,624,-3.65628,4.35526
-399,400,-3.44958,-4.48193,-0.00810686,-0.00527422,0.00664546,0.000104172,-0.0134853,0.89039,0.00902509,0.0484395,825,624,-3.44957,4.48195
-392,400,-3.78345,-4.77179,0,0,0,0,0,0,0,-1,832,624,-3.78347,4.77178
-385,400,-3.68738,-5.04205,0,0,0,0,0,0,0,-1,839,624,-3.68736,5.04207
-378,400,-6.84064,-1.28662,0,0,0,0,0,0,0,-1,846,624,-6.84062,1.28662
-371,400,-6.98865,-1.2572,0,0,0,0,0,0,0,-1,853,624,-6.98865,1.25721
-364,400,-6.97247,-1.24133,0,0,0,0,0,0,0,-1,860,624,-6.97249,1.24135
-357,400,-7.18329,-1.23218,0,0,0,0,0,0,0,-1,867,624,-7.18327,1.2322
-350,400,-7.40186,-1.19409,0,0,0,0,0,0,0,-1,874,624,-7.40187,1.19407
-343,400,-8.09357,-1.51147,0,0,0,0,0,0,0,-1,881,624,-8.09355,1.51148
-336,400,0,0,0,0,0,0,0,0,0,-1,888,624,0,0
-329,400,0,0,0,0,0,0,0,0,0,-1,895,624,0,0
-322,400,0,0,0,0,0,0,0,0,0,-1,902,624,0,0
-315,400,0,0,0,0,0,0,0,0,0,-1,909,624,0,0
-308,400,0,0,0,0,0,0,0,0,0,-1,916,624,0,0
-301,400,0,0,0,0,0,0,0,0,0,-1,923,624,0,0
-294,400,0,0,0,0,0,0,0,0,0,-1,930,624,0,0
-287,400,0,0,0,0,0,0,0,0,0,-1,937,624,0,0
-280,400,0,0,0,0,0,0,0,0,0,-1,944,624,0,0
-273,400,0,0,0,0,0,0,0,0,0,-1,951,624,0,0
-266,400,0,0,0,0,0,0,0,0,0,-1,958,624,0,0
-259,400,0,0,0,0,0,0,0,0,0,-1,965,624,0,0
-252,400,0,0,0,0,0,0,0,0,0,-1,972,624,0,0
-245,400,0,0,0,0,0,0,0,0,0,-1,979,624,0,0
-238,400,0,0,0,0,0,0,0,0,0,-1,986,624,0,0
-231,400,0,0,0,0,0,0,0,0,0,-1,993,624,0,0
-224,400,0,0,0,0,0,0,0,0,0,-1,1000,624,0,0
-217,400,0,0,0,0,0,0,0,0,0,-1,1007,624,0,0
-210,400,0,0,0,0,0,0,0,0,0,-1,1014,624,0,0
-203,400,0,0,0,0,0,0,0,0,0,-1,1021,624,0,0
-196,400,0,0,0,0,0,0,0,0,0,-1,1028,624,0,0
-189,400,0,0,0,0,0,0,0,0,0,-1,1035,624,0,0
-182,400,0,0,0,0,0,0,0,0,0,-1,1042,624,0,0
-175,400,0,0,0,0,0,0,0,0,0,-1,1049,624,0,0
-168,400,0,0,0,0,0,0,0,0,0,-1,1056,624,0,0
-161,400,0,0,0,0,0,0,0,0,0,-1,1063,624,0,0
-154,400,0,0,0,0,0,0,0,0,0,-1,1070,624,0,0
-147,400,0,0,0,0,0,0,0,0,0,-1,1077,624,0,0
-140,400,0,0,0,0,0,0,0,0,0,-1,1084,624,0,0
-133,400,0,0,0,0,0,0,0,0,0,-1,1091,624,0,0
-126,400,0,0,0,0,0,0,0,0,0,-1,1098,624,0,0
-119,400,0,0,0,0,0,0,0,0,0,-1,1105,624,0,0
-112,400,0,0,0,0,0,0,0,0,0,-1,1112,624,0,0
-105,400,0,0,0,0,0,0,0,0,0,-1,1119,624,0,0
-98,400,0,0,0,0,0,0,0,0,0,-1,1126,624,0,0
-91,400,0,0,0,0,0,0,0,0,0,-1,1133,624,0,0
-84,400,0,0,0,0,0,0,0,0,0,-1,1140,624,0,0
-77,400,0,0,0,0,0,0,0,0,0,-1,1147,624,0,0
-70,400,0,0,0,0,0,0,0,0,0,-1,1154,624,0,0
-63,400,0,0,0,0,0,0,0,0,0,-1,1161,624,0,0
-56,400,0,0,0,0,0,0,0,0,0,-1,1168,624,0,0
-49,400,0,0,0,0,0,0,0,0,0,-1,1175,624,0,0
-42,400,0,0,0,0,0,0,0,0,0,-1,1182,624,0,0
-35,400,0,0,0,0,0,0,0,0,0,-1,1189,624,0,0
-28,400,0,0,0,0,0,0,0,0,0,-1,1196,624,0,0
-21,400,0,0,0,0,0,0,0,0,0,-1,1203,624,0,0
-14,400,0,0,0,0,0,0,0,0,0,-1,1210,624,0,0
-7,400,0,0,0,0,0,0,0,0,0,-1,1217,624,0,0
0,400,0,0,0,0,0,0,0,0,0,-1,1224,624,0,0
7,400,0,0,0,0,0,0,0,0,0,-1,1231,624,0,0
14,400,0,0,0,0,0,0,0,0,0,-1,1238,624,0,0
21,400,0,0,0,0,0,0,0,0,0,-1,1245,624,0,0
28,400,0,0,0,0,0,0,0,0,0,-1,1252,624,0,0
35,400,0,0,0,0,0,0,0,0,0,-1,1259,624,0,0
42,400,0,0,0,0,0,0,0,0,0,-1,1266,624,0,0
49,400,0,0,0,0,0,0,0,0,0,-1,1273,624,0,0
56,400,0,0,0,0,0,0,0,0,0,-1,1280,624,0,0
63,400,0,0,0,0,0,0,0,0,0,-1,1287,624,0,0
70,400,0,0,0,0,0,0,0,0,0,-1,1294,624,0,0
77,400,0,0,0,0,0,0,0,0,0,-1,1301,624,0,0
84,400,0,0,0,0,0,0,0,0,0,-1,1308,624,0,0
91,400,0,0,0,0,0,0,0,0,0,-1,1315,624,0,0
98,400,0,0,0,0,0,0,0,0,0,-1,1322,624,0,0
105,400,0,0,0,0,0,0,0,0,0,-1,1329,624,0,0
112,400,0,0,0,0,0,0,0,0,0,-1,1336,624,0,0
119,400,0,0,0,0,0,0,0,0,0,-1,1343,624,0,0
126,400,0,0,0,0,0,0,0,0,0,-1,1350,624,0,0
133,400,0,0,0,0,0,0,0,0,0,-1,1357,624,0,0
140,400,0,0,0,0,0,0,0,0,0,-1,1364,624,0,0
147,400,0,0,0,0,0,0,0,0,0,-1,1371,624,0,0
154,400,0,0,0,0,0,0,0,0,0,-1,1378,624,0,0
161,400,0,0,0,0,0,0,0,0,0,-1,1385,624,0,0
168,400,0,0,0,0,0,0,0,0,0,-1,1392,624,0,0
175,400,0,0,0,0,0,0,0,0,0,-1,1399,624,0,0
182,400,0,0,0,0,0,0,0,0,0,-1,1406,624,0,0
189,400,0,0,0,0,0,0,0,0,0,-1,1413,624,0,0
196,400,0,0,0,0,0,0,0,0,0,-1,1420,624,0,0
203,400,0,0,0,0,0,0,0,0,0,-1,1427,624,0,0
210,400,0,0,0,0,0,0,0,0,0,-1,1434,624,0,0
217,400,0,0,0,0,0,0,0,0,0,-1,1441,624,0,0
224,400,0,0,0,0,0,0,0,0,0,-1,1448,624,0,0
231,400,0,0,0,0,0,0,0,0,0,-1,1455,624,0,0
238,400,0,0,0,0,0,0,0,0,0,-1,1462,624,0,0
245,400,0,0,0,0,0,0,0,0,0,-1,1469,624,0,0
252,400,0,0,0,0,0,0,0,0,0,-1,1476,624,0,0
259,400,0,0,0,0,0,0,0,0,0,-1,1483,624,0,0
266,400,0,0,0,0,0,0,0,0,0,-1,1490,624,0,0
273,400,0,0,0,0,0,0,0,0,0,-1,1497,624,0,0
280,400,0,0,0,0,0,0,0,0,0,-1,1504,624,0,0
287,400,0,0,0,0,0,0,0,0,0,-1,1511,624,0,0
294,400,0,0,0,0,0,0,0,0,0,-1,1518,624,0,0
301,400,0,0,0,0,0,0,0,0,0,-1,1525,624,0,0
308,400,0,0,0,0,0,0,0,0,0,-1,1532,624,0,0
315,400,0,0,0,0,0,0,0,0,0,-1,1539,624,0,0
322,400,0,0,0,0,0,0,0,0,0,-1,1546,624,0,0
329,400,0,0,0,0,0,0,0,0,0,-1,1553,624,0,0
336,400,0,0,0,0,0,0,0,0,0,-1,1560,624,0,0
343,400,0,0,0,0,0,0,0,0,0,-1,1567,624,0,0
350,400,0,0,0,0,0,0,0,0,0,-1,1574,624,0,0
357,400,0,0,0,0,0,0,0,0,0,-1,1581,624,0,0
364,400,0,0,0,0,0,0,0,0,0,-1,1588,624,0,0
371,400,0,0,0,0,0,0,0,0,0,-1,1595,624,0,0
378,400,0,0,0,0,0,0,0,0,0,-1,1602,624,0,0
385,400,0,0,0,0,0,0,0,0,0,-1,1609,624,0,0
392,400,0,0,0,0,0,0,0,0,0,-1,1616,624,0,0
399,400,0,0,0,0,0,0,0,0,0,-1,1623,624,0,0
406,400,0,0,0,0,0,0,0,0,0,-1,1630,624,0,0
413,400,0,0,0,0,0,0,0,0,0,-1,1637,624,0,0
420,400,0,0,0,0,0,0,0,0,0,-1,1644,624,0,0
427,400,0,0,0,0,0,0,0,0,0,-1,1651,624,0,0
434,400,0,0,0,0,0,0,0,0,0,-1,1658,624,0,0
441,400,0,0,0,0,0,0,0,0,0,-1,1665,624,0,0
448,400,0,0,0,0,0,0,0,0,0,-1,1672,624,0,0
455,400,8.91309,2.75885,0,0,0,0,0,0,0,-1,1679,624,8.91312,-2.75885
462,400,8.90356,2.37878,0,0,0,0,0,0,0,-1,1686,624,8.90353,-2.37878
469,400,9.14429,1.76849,0,0,0,0,0,0,0,-1,1693,624,9.14432,-1.76847
476,400,9.23254,1.25995,0,0,0,0,0,0,0,-1,1700,624,9.23252,-1.25994
483,400,9.59766,0.562439,0,0,0,0,0,0,0,-1,1707,624,9.59771,-0.56242
490,400,9.92578,-0.213745,0,0,0,0,0,0,0,-1,1714,624,9.92579,0.21376
497,400,9.19141,0.175232,0,0,0,0,0,0,0,-1,1721,624,9.19138,-0.175209
504,400,9.23438,0.00823975,0,0,0,0,0,0,0,-1,1728,624,9.23436,-0.00823766
511,400,6.16687,3.3501,0,0,0,0,0,0,0,-1,1735,624,6.16682,-3.35007
518,400,6.55237,1.74994,0,0,0,0,0,0,0,-1,1742,624,6.55236,-1.74993
525,400,6.99731,1.08783,0,0,0,0,0,0,0,-1,1749,624,6.99736,-1.08785
532,400,6.96582,-1.74982,0,0,0,0,0,0,0,-1,1756,624,6.96585,1.74983
539,400,8.78308,-2.70844,0,0,0,0,0,0,0,-1,1763,624,8.78312,2.70844
546,400,8.74329,-2.49359,-0.00229027,-0.00106322,-0.0017068,0.000136975,-0.00349046,-0.957937,0.00237395,0.0220416,1770,624,8.74323,2.49361
553,400,8.66846,-2.21802,-0.00234612,-0.000784902,-0.0016153,0.000228523,-0.00335954,-1.01048,0.00231963,0.0132996,1777,624,8.66842,2.21803
560,400,8.69116,-1.95648,-0.00221507,-0.000594907,-0.00147383,0.000276798,-0.00308677,-1.03668,0.00215604,0.0135145,1784,624,8.69115,1.95646
567,400,8.72681,-1.74109,-0.00199273,-0.000347568,-0.00125262,0.000328414,-0.00266871,-1.07593,0.0018981,0.0182457,1791,624,8.72683,1.74111
574,400,8.71924,-1.51782,-0.00141088,-9.13129e-05,-0.000834064,0.000312377,-0.00181457,-1.12003,0.00132616,0.0191819,1798,624,8.71929,1.51781
581,400,8.68103,-1.25055,-0.000648575,0.00028571,-0.000317186,0.000383217,-0.000746082,-1.27255,0.000663125,0.0169434,1805,624,8.68109,1.25053
588,400,8.69055,-0.998718,0.000119111,0.000765746,0.000264813,0.000860352,2.45049e-05,1.22767,0.000565577,0.0137577,1812,624,8.69059,0.998705
595,400,8.70886,-0.793579,0.00102145,0.00119257,0.000815113,0.0019266,0.000287422,0.83769,0.00120012,0.0132619,1819,624,8.70886,0.793564
602,400,8.72607,-0.556091,0.00185489,0.00181526,0.00140114,0.00323636,0.000433794,0.778328,0.0020285,0.0136804,1826,624,8.72613,0.556069
609,400,8.68311,-0.2948,0.00223878,0.00239648,0.00174893,0.00406833,0.000566926,0.807925,0.00254439,0.0132733,1833,624,8.68311,0.294784
616,400,8.67542,-0.0343628,0.00252675,0.00325713,0.00210563,0.005029,0.000754873,0.871262,0.00313152,0.0159818,1840,624,8.67537,0.034335
623,400,8.88843,0.317383,0.00268863,0.00409582,0.00222304,0.00572396,0.00106049,0.93866,0.00351619,0.0366183,1847,624,8.88847,-0.317364
630,400,9.17419,0.635254,0,0,0,0,0,0,0,-1,1854,624,9.17414,-0.635252
637,400,6.92896,1.01917,0,0,0,0,0,0,0,-1,1861,624,6.92899,-1.01918
644,400,8.65381,1.4599,0,0,0,0,0,0,0,-1,1868,624,8.65379,-1.45991
651,400,7.90601,0.424072,0,0,0,0,0,0,0,-1,1875,624,7.90598,-0.424097
658,400,8.69031,1.0484,0,0,0,0,0,0,0,-1,1882,624,8.6903,-1.0484
665,400,5.98438,0.522522,0,0,0,0,0,0,0,-1,1889,624,5.98442,-0.522552
672,400,0,0,0,0,0,0,0,0,0,-1,1896,624,0,0
679,400,0,0,0,0,0,0,0,0,0,-1,1903,624,0,0
686,400,0,0,0,0,0,0,0,0,0,-1,1910,624,0,0
693,400,0,0,0,0,0,0,0,0,0,-1,1917,624,0,0
700,400,0,0,0,0,0,0,0,0,0,-1,1924,624,0,0
707,400,0,0,0,0,0,0,0,0,0,-1,1931,624,0,0
714,400,0,0,0,0,0,0,0,0,0,-1,1938,624,0,0
721,400,0,0,0,0,0,0,0,0,0,-1,1945,624,0,0
728,400,0,0,0,0,0,0,0,0,0,-1,1952,624,0,0
735,400,0,0,0,0,0,0,0,0,0,-1,1959,624,0,0
742,400,0,0,0,0,0,0,0,0,0,-1,1966,624,0,0
749,400,0,0,0,0,0,0,0,0,0,-1,1973,624,0,0
756,400,0,0,0,0,0,0,0,0,0,-1,1980,624,0,0
763,400,0,0,0,0,0,0,0,0,0,-1,1987,624,0,0
770,400,0,0,0,0,0,0,0,0,0,-1,1994,624,0,0
777,400,0,0,0,0,0,0,0,0,0,-1,2001,624,0,0
784,400,0,0,0,0,0,0,0,0,0,-1,2008,624,0,0
791,400,0,0,0,0,0,0,0,0,0,-1,2015,624,0,0
798,400,0,0,0,0,0,0,0,0,0,-1,2022,624,0,0
805,400,0,0,0,0,0,0,0,0,0,-1,2029,624,0,0
812,400,0,0,0,0,0,0,0,0,0,-1,2036,624,0,0
-700,393,0,0,0,0,0,0,0,0,0,-1,524,631,0,0
-693,393,0,0,0,0,0,0,0,0,0,-1,531,631,0,0
-686,393,0,0,0,0,0,0,0,0,0,-1,538,631,0,0
-679,393,0,0,0,0,0,0,0,0,0,-1,545,631,0,0
-672,393,0,0,0,0,0,0,0,0,0,-1,552,631,0,0
-665,393,0,0,0,0,0,0,0,0,0,-1,559,631,0,0
-658,393,0,0,0,0,0,0,0,0,0,-1,566,631,0,0
-651,393,0,0,0,0,0,0,0,0,0,-1,573,631,0,0
-644,393,0,0,0,0,0,0,0,0,0,-1,580,631,0,0
-637,393,0,0,0,0,0,0,0,0,0,-1,587,631,0,0
-630,393,0,0,0,0,0,0,0,0,0,-1,594,631,0,0
-623,393,0,0,0,0,0,0,0,0,0,-1,601,631,0,0
-616,393,0,0,0,0,0,0,0,0,0,-1,608,631,0,0
-609,393,0,0,0,0,0,0,0,0,0,-1,615,631,0,0
-602,393,0,0,0,0,0,0,0,0,0,-1,622,631,0,0
-595,393,0,0,0,0,0,0,0,0,0,-1,629,631,0,0
-588,393,0,0,0,0,0,0,0,0,0,-1,636,631,0,0
-581,393,0,0,0,0,0,0,0,0,0,-1,643,631,0,0
-574,393,0,0,0,0,0,0,0,0,0,-1,650,631,0,0
-567,393,0,0,0,0,0,0,0,0,0,-1,657,631,0,0
-560,393,0,0,0,0,0,0,0,0,0,-1,664,631,0,0
-553,393,-2.48889,-1.87238,0,0,0,0,0,0,0,-1,671,631,-2.48891,1.87235
-546,393,-2.07355,-2.34564,0,0,0,0,0,0,0,-1,678,631,-2.07352,2.34562
-539,393,-5.2113,-2.20245,0,0,0,0,0,0,0,-1,685,631,-5.21128,2.20247
-532,393,-2.83643,-2.01624,0,0,0,0,0,0,0,-1,692,631,-2.83642,2.01626
-525,393,-3.02795,0.58905,0,0,0,0,0,0,0,-1,699,631,-3.02794,-0.589026
-518,393,-2.94037,-0.140625,0,0,0,0,0,0,0,-1,706,631,-2.94036,0.1406
-511,393,-3.50916,-1.12677,0,0,0,0,0,0,0,-1,713,631,-3.50918,1.12676
-504,393,-3.51062,-2.26947,0,0,0,0,0,0,0,-1,720,631,-3.5106,2.26944
-497,393,-3.74915,-1.54718,0.0113279,0.0058564,-0.00343812,0.0129859,0.00419841,-0.449338,0.00765187,0.0243852,727,631,-3.74916,1.54718
-490,393,-3.76703,-1.84705,0.00568046,0.00601419,-0.00295634,0.00880837,0.00288628,-0.813589,0.00518522,0.0147046,734,631,-3.76705,1.84702
-483,393,-3.75653,-2.07758,0.00480309,0.00423313,-0.0027019,0.007235,0.00180123,-0.732855,0.00434909,0.0182452,741,631,-3.7565,2.07759
-476,393,-3.72998,-2.26666,0.00424459,0.0032802,-0.00234556,0.006157,0.00136778,-0.684022,0.00373322,0.0145126,748,631,-3.72999,2.26669
-469,393,-3.74792,-2.48102,0.00331254,0.00239161,-0.00189345,0.00480071,0.000903441,-0.666119,0.00294587,0.0125166,755,631,-3.74793,2.48102
-462,393,-3.75806,-2.73102,0.00246344,0.00161356,-0.00134629,0.00345026,0.000626739,-0.632528,0.00212233,0.0152285,762,631,-3.75807,2.73101
-455,393,-3.75726,-2.94946,0.00165241,0.000801606,-0.000706552,0.00205174,0.000402277,-0.514424,0.00125541,0.0149064,769,631,-3.75725,2.94944
-448,393,-3.77832,-3.18146,0.000774706,-0.000115798,2.85033e-05,0.000775617,-0.00011671,0.0319645,0.00056005,0.013778,776,631,-3.77833,3.18146
-441,393,-3.78491,-3.38611,-0.000401039,-0.000991905,0.000847807,0.000201335,-0.00159428,0.617744,0.00113593,0.0117632,783,631,-3.78493,3.38612
-434,393,-3.7724,-3.5769,-0.0015982,-0.00174988,0.00184301,0.000170533,-0.00351861,0.764835,0.0024046,0.0104004,790,631,-3.77241,3.57689
-427,393,-3.73199,-3.81384,-0.00266955,-0.00245954,0.00271932,0.000156805,-0.0052859,0.804697,0.00357734,0.0146962,797,631,-3.73202,3.81385
-420,393,-3.72534,-4.00879,-0.00382925,-0.00324576,0.00366564,0.000139722,-0.00721474,0.825109,0.00485707,0.0289722,804,631,-3.72536,4.00879
-413,393,-3.98065,-4.08405,-0.00512696,-0.00417613,0.00473636,0.000108617,-0.0094117,0.835419,0.00631098,0.0439705,811,631,-3.98065,4.08406
-406,393,-4.00232,-4.40747,0,0,0,0,0,0,0,-1,818,631,-4.00231,4.4075
-399,393,-3.66742,-4.41364,0,0,0,0,0,0,0,-1,825,631,-3.66743,4.41365
-392,393,-2.08063,-3.02386,0,0,0,0,0,0,0,-1,832,631,-2.08063,3.02384
-385,393,-3.16931,-0.624756,0,0,0,0,0,0,0,-1,839,631,-3.16928,0.624764
-378,393,-7.33081,-0.872314,0,0,0,0,0,0,0,-1,846,631,-7.33081,0.872325
-371,393,-7.47858,-0.811096,0,0,0,0,0,0,0,-1,853,631,-7.47859,0.811075
-364,393,-7.64917,-0.662415,0,0,0,0,0,0,0,-1,860,631,-7.64917,0.662406
-357,393,-8.09686,-0.726013,0,0,0,0,0,0,0,-1,867,631,-8.09689,0.726029
-350,393,-8.38788,-0.511841,0,0,0,0,0,0,0,-1,874,631,-8.38785,0.511811
-343,393,0,0,0,0,0,0,0,0,0,-1,881,631,0,0
-336,393,0,0,0,0,0,0,0,0,0,-1,888,631,0,0
-329,393,0,0,0,0,0,0,0,0,0,-1,895,631,0,0
-322,393,0,0,0,0,0,0,0,0,0,-1,902,631,0,0
-315,393,0,0,0,0,0,0,0,0,0,-1,909,631,0,0
-308,393,0,0,0,0,0,0,0,0,0,-1,916,631,0,0
-301,393,0,0,0,0,0,0,0,0,0,-1,923,631,0,0
-294,393,0,0,0,0,0,0,0,0,0,-1,930,631,0,0
-287,393,0,0,0,0,0,0,0,0,0,-1,937,631,0,0
-280,393,0,0,0,0,0,0,0,0,0,-1,944,631,0,0
-273,393,0,0,0,0,0,0,0,0,0,-1,951,631,0,0
-266,393,0,0,0,0,0,0,0,0,0,-1,958,631,0,0
-259,393,0,0,0,0,0,0,0,0,0,-1,965,631,0,0
-252,393,0,0,0,0,0,0,0,0,0,-1,972,631,0,0
-245,393,0,0,0,0,0,0,0,0,0,-1,979,631,0,0
-238,393,0,0,0,0,0,0,0,0,0,-1,986,631,0,0
-231,393,0,0,0,0,0,0,0,0,0,-1,993,631,0,0
-224,393,0,0,0,0,0,0,0,0,0,-1,1000,631,0,0
-217,393,0,0,0,0,0,0,0,0,0,-1,1007,631,0,0
-210,393,0,0,0,0,0,0,0,0,0,-1,1014,631,0,0
-203,393,0,0,0,0,0,0,0,0,0,-1,1021,631,0,0
-196,393,0,0,0,0,0,0,0,0,0,-1,1028,631,0,0
-189,393,0,0,0,0,0,0,0,0,0,-1,1035,631,0,0
-182,393,0,0,0,0,0,0,0,0,0,-1,1042,631,0,0
-175,393,0,0,0,0,0,0,0,0,0,-1,1049,631,0,0
-168,393,0,0,0,0,0,0,0,0,0,-1,1056,631,0,0
-161,393,0,0,0,0,0,0,0,0,0,-1,1063,631,0,0
-154,393,0,0,0,0,0,0,0,0,0,-1,1070,631,0,0
-147,393,0,0,0,0,0,0,0,0,0,-1,1077,631,0,0
-140,393,0,0,0,0,0,0,0,0,0,-1,1084,631,0,0
-133,393,0,0,0,0,0,0,0,0,0,-1,1091,631,0,0
-126,393,0,0,0,0,0,0,0,0,0,-1,1098,631,0,0
-119,393,0,0,0,0,0,0,0,0,0,-1,1105,631,0,0
-112,393,0,0,0,0,0,0,0,0,0,-1,1112,631,0,0
-105,393,0,0,0,0,0,0,0,0,0,-1,1119,631,0,0
-98,393,0,0,0,0,0,0,0,0,0,-1,1126,631,0,0
-91,393,0,0,0,0,0,0,0,0,0,-1,1133,631,0,0
-84,393,0,0,0,0,0,0,0,0,0,-1,1140,631,0,0
-77,393,0,0,0,0,0,0,0,0,0,-1,1147,631,0,0
-70,393,0,0,0,0,0,0,0,0,0,-1,1154,631,0,0
-63,393,0,0,0,0,0,0,0,0,0,-1,1161,631,0,0
-56,393,0,0,0,0,0,0,0,0,0,-1,1168,631,0,0
-49,393,0,0,0,0,0,0,0,0,0,-1,1175,631,0,0
-42,393,0,0,0,0,0,0,0,0,0,-1,1182,631,0,0
-35,393,0,0,0,0,0,0,0,0,0,-1,1189,631,0,0
-28,393,0,0,0,0,0,0,0,0,0,-1,1196,631,0,0
-21,393,0,0,0,0,0,0,0,0,0,-1,1203,631,0,0
-14,393,0,0,0,0,0,0,0,0,0,-1,1210,631,0,0
-7,393,0,0,0,0,0,0,0,0,0,-1,1217,631,0,0
0,393,0,0,0,0,0,0,0,0,0,-1,1224,631,0,0
7,393,0,0,0,0,0,0,0,0,0,-1,1231,631,0,0
14,393,0,0,0,0,0,0,0,0,0,-1,1238,631,0,0
21,393,0,0,0,0,0,0,0,0,0,-1,1245,631,0,0
28,393,0,0,0,0,0,0,0,0,0,-1,1252,631,0,0
35,393,0,0,0,0,0,0,0,0,0,-1,1259,631,0,0
42,393,0,0,0,0,0,0,0,0,0,-1,1266,631,0,0
49,393,0,0,0,0,0,0,0,0,0,-1,1273,631,0,0
56,393,0,0,0,0,0,0,0,0,0,-1,1280,631,0,0
63,393,0,0,0,0,0,0,0,0,0,-1,1287,631,0,0
70,393,0,0,0,0,0,0,0,0,0,-1,1294,631,0,0
77,393,0,0,0,0,0,0,0,0,0,-1,1301,631,0,0
84,393,0,0,0,0,0,0,0,0,0,-1,1308,631,0,0
91,393,0,0,0,0,0,0,0,0,0,-1,1315,631,0,0
98,393,0,0,0,0,0,0,0,0,0,-1,1322,631,0,0
105,393,0,0,0,0,0,0,0,0,0,-1,1329,631,0,0
112,393,0,0,0,0,0,0,0,0,0,-1,1336,631,0,0
119,393,0,0,0,0,0,0,0,0,0,-1,1343,631,0,0
126,393,0,0,0,0,0,0,0,0,0,-1,1350,631,0,0
133,393,0,0,0,0,0,0,0,0,0,-1,1357,631,0,0
140,393,0,0,0,0,0,0,0,0,0,-1,1364,631,0,0
147,393,0,0,0,0,0,0,0,0,0,-1,1371,631,0,0
154,393,0,0,0,0,0,0,0,0,0,-1,1378,631,0,0
161,393,0,0,0,0,0,0,0,0,0,-1,1385,631,0,0
168,393,0,0,0,0,0,0,0,0,0,-1,1392,631,0,0
175,393,0,0,0,0,0,0,0,0,0,-1,1399,631,0,0
182,393,0,0,0,0,0,0,0,0,0,-1,1406,631,0,0
189,393,0,0,0,0,0,0,0,0,0,-1,1413,631,0,0
196,393,0,0,0,0,0,0,0,0,0,-1,1420,631,0,0
203,393,0,0,0,0,0,0,0,0,0,-1,1427,631,0,0
210,393,0,0,0,0,0,0,0,0,0,-1,1434,631,0,0
217,393,0,0,0,0,0,0,0,0,0,-1,1441,631,0,0
224,393,0,0,0,0,0,0,0,0,0,-1,1448,631,0,0
231,393,0,0,0,0,0,0,0,0,0,-1,1455,631,0,0
238,393,0,0,0,0,0,0,0,0,0,-1,1462,631,0,0
245,393,0,0,0,0,0,0,0,0,0,-1,1469,631,0,0
252,393,0,0,0,0,0,0,0,0,0,-1,1476,631,0,0
259,393,0,0,0,0,0,0,0,0,0,-1,1483,631,0,0
266,393,0,0,0,0,0,0,0,0,0,-1,1490,631,0,0
273,393,0,0,0,0,0,0,0,0,0,-1,1497,631,0,0
280,393,0,0,0,0,0,0,0,0,0,-1,1504,631,0,0
287,393,0,0,0,0,0,0,0,0,0,-1,1511,631,0,0
294,393,0,0,0,0,0,0,0,0,0,-1,1518,631,0,0
301,393,0,0,0,0,0,0,0,0,0,-1,1525,631,0,0
308,393,0,0,0,0,0,0,0,0,0,-1,1532,631,0,0
315,393,0,0,0,0,0,0,0,0,0,-1,1539,631,0,0
322,393,0,0,0,0,0,0,0,0,0,-1,1546,631,0,0
329,393,0,0,0,0,0,0,0,0,0,-1,1553,631,0,0
336,393,0,0,0,0,0,0,0,0,0,-1,1560,631,0,0
343,393,0,0,0,0,0,0,0,0,0,-1,1567,631,0,0
350,393,0,0,0,0,0,0,0,0,0,-1,1574,631,0,0
357,393,0,0,0,0,0,0,0,0,0,-1,1581,631,0,0
364,393,0,0,0,0,0,0,0,0,0,-1,1588,631,0,0
371,393,0,0,0,0,0,0,0,0,0,-1,1595,631,0,0
378,393,0,0,0,0,0,0,0,0,0,-1,1602,631,0,0
385,393,0,0,0,0,0,0,0,0,0,-1,1609,631,0,0
392,393,0,0,0,0,0,0,0,0,0,-1,1616,631,0,0
399,393,0,0,0,0,0,0,0,0,0,-1,1623,631,0,0
406,393,0,0,0,0,0,0,0,0,0,-1,1630,631,0,0
413,393,0,0,0,0,0,0,0,0,0,-1,1637,631,0,0
420,393,0,0,0,0,0,0,0,0,0,-1,1644,631,0,0
427,393,0,0,0,0,0,0,0,0,0,-1,1651,631,0,0
434,393,0,0,0,0,0,0,0,0,0,-1,1658,631,0,0
441,393,0,0,0,0,0,0,0,0,0,-1,1665,631,0,0
448,393,0,0,0,0,0,0,0,0,0,-1,1672,631,0,0
455,393,0,0,0,0,0,0,0,0,0,-1,1679,631,0,0
462,393,8.51099,1.89502,0,0,0,0,0,0,0,-1,1686,631,8.51103,-1.89504
469,393,9.39465,1.51703,0,0,0,0,0,0,0,-1,1693,631,9.39465,-1.51703
476,393,9.95569,1.185,0,0,0,0,0,0,0,-1,1700,631,9.95575,-1.18497
483,393,10.5267,0.887329,0,0,0,0,0,0,0,-1,1707,631,10.5267,-0.887321
490,393,10.9303,0.761414,0,0,0,0,0,0,0,-1,1714,631,10.9303,-0.761386
497,393,8.32153,1.88104,0,0,0,0,0,0,0,-1,1721,631,8.32148,-1.88103
504,393,9.46985,1.78711,0,0,0,0,0,0,0,-1,1728,631,9.46986,-1.78713
511,393,9.66565,-0.375977,0,0,0,0,0,0,0,-1,1735,631,9.66571,0.375949
518,393,7.01599,1.62482,0,0,0,0,0,0,0,-1,1742,631,7.01597,-1.62483
525,393,7.88245,-1.13422,0,0,0,0,0,0,0,-1,1749,631,7.88246,1.13423
532,393,7.06335,-1.18103,0,0,0,0,0,0,0,-1,1756,631,7.06332,1.18101
539,393,9.39868,-2.38208,0,0,0,0,0,0,0,-1,1763,631,9.39868,2.38206
546,393,9.20398,-2.26251,-0.00440681,-0.00129163,-0.00267963,0.000250214,-0.00594865,-1.04867,0.00405175,0.0459189,1770,631,9.20398,2.26252
553,393,8.9585,-2.22961,-0.00410814,-0.000964962,-0.00243937,0.000365243,-0.00543834,-1.07156,0.00375324,0.0200727,1777,631,8.95848,2.22961
560,393,8.95276,-1.99384,-0.00370498,-0.000767916,-0.00220267,0.000410879,-0.00488377,-1.07941,0.00340109,0.0141327,1784,631,8.9527,1.99381
567,393,8.95129,-1.73346,-0.0032621,-0.000562293,-0.00191404,0.000429979,-0.00425438,-1.09252,0.0029899,0.0146331,1791,631,8.95127,1.73345
574,393,8.95898,-1.51166,-0.00252233,-0.000334937,-0.00145901,0.000394796,-0.00325206,-1.10702,0.00231091,0.0157412,1798,631,8.95902,1.51168
581,393,8.92883,-1.23633,-0.00161066,8.17682e-06,-0.000901425,0.000410255,-0.00201274,-1.15123,0.00149743,0.0138866,1805,631,8.92878,1.2363
588,393,8.93579,-0.975769,-0.000704908,0.000462895,-0.000283516,0.000528087,-0.0007701,-1.34478,0.000753837,0.0154883,1812,631,8.93576,0.975784
595,393,8.95605,-0.777527,0.000290755,0.000874206,0.000288674,0.000992891,0.00017207,1.18073,0.000612679,0.0134181,1819,631,8.95611,0.777523
602,393,8.94275,-0.563538,0.00119557,0.00149881,0.00089028,0.00225029,0.000444091,0.869741,0.00137626,0.0151203,1826,631,8.94278,0.563533
609,393,8.91577,-0.313232,0.00157064,0.00206846,0.00121094,0.00305581,0.000583293,0.886761,0.0018733,0.0148001,1833,631,8.91574,0.313204
616,393,8.91125,-0.0478516,0.00180288,0.00274648,0.00143845,0.00378852,0.000760837,0.943866,0.00231414,0.0150088,1840,631,8.91127,0.0478502
623,393,8.95593,0.241516,0.00189052,0.00349344,0.00140743,0.00431161,0.00107234,1.04423,0.00259199,0.0209369,1847,631,8.95588,-0.241513
630,393,9.08044,0.574707,0.00157313,0.00438479,0.000799189,0.00459607,0.00136184,1.31234,0.00272596,0.0378175,1854,631,9.08045,-0.574698
637,393,9.14026,0.987854,0,0,0,0,0,0,0,-1,1861,631,9.14024,-0.987849
644,393,8.64001,1.09155,0,0,0,0,0,0,0,-1,1868,631,8.64002,-1.09157
651,393,8.92871,1.35193,0,0,0,0,0,0,0,-1,1875,631,8.92875,-1.3519
658,393,9.21338,1.50836,0,0,0,0,0,0,0,-1,1882,631,9.21338,-1.50834
665,393,6.1001,2.32129,0,0,0,0,0,0,0,-1,1889,631,6.10012,-2.3213
672,393,7.14575,2.43225,0,0,0,0,0,0,0,-1,1896,631,7.14572,-2.43222
679,393,0,0,0,0,0,0,0,0,0,-1,1903,631,0,0
686,393,0,0,0,0,0,0,0,0,0,-1,1910,631,0,0
693,393,0,0,0,0,0,0,0,0,0,-1,1917,631,0,0
700,393,0,0,0,0,0,0,0,0,0,-1,1924,631,0,0
707,393,0,0,0,0,0,0,0,0,0,-1,1931,631,0,0
714,393,0,0,0,0,0,0,0,0,0,-1,1938,631,0,0
721,393,0,0,0,0,0,0,0,0,0,-1,1945,631,0,0
728,393,0,0,0,0,0,0,0,0,0,-1,1952,631,0,0
735,393,0,0,0,0,0,0,0,0,0,-1,1959,631,0,0
742,393,0,0,0,0,0,0,0,0,0,-1,1966,631,0,0
749,393,0,0,0,0,0,0,0,0,0,-1,1973,631,0,0
756,393,0,0,0,0,0,0,0,0,0,-1,1980,631,0,0
763,393,0,0,0,0,0,0,0,0,0,-1,1987,631,0,0
770,393,0,0,0,0,0,0,0,0,0,-1,1994,631,0,0
777,393,0,0,0,0,0,0,0,0,0,-1,2001,631,0,0
784,393,0,0,0,0,0,0,0,0,0,-1,2008,631,0,0
791,393,0,0,0,0,0,0,0,0,0,-1,2015,631,0,0
798,393,0,0,0,0,0,0,0,0,0,-1,2022,631,0,0
805,393,0,0,0,0,0,0,0,0,0,-1,2029,631,0,0
812,393,0,0,0,0,0,0,0,0,0,-1,2036,631,0,0
-700,386,0,0,0,0,0,0,0,0,0,-1,524,638,0,0
-693,386,0,0,0,0,0,0,0,0,0,-1,531,638,0,0
-686,386,0,0,0,0,0,0,0,0,0,-1,538,638,0,0
-679,386,0,0,0,0,0,0,0,0,0,-1,545,638,0,0
-672,386,0,0,0,0,0,0,0,0,0,-1,552,638,0,0
-665,386,0,0,0,0,0,0,0,0,0,-1,559,638,0,0
-658,386,0,0,0,0,0,0,0,0,0,-1,566,638,0,0
-651,386,0,0,0,0,0,0,0,0,0,-1,573,638,0,0
-644,386,0,0,0,0,0,0,0,0,0,-1,580,638,0,0
-637,386,0,0,0,0,0,0,0,0,0,-1,587,638,0,0
-630,386,0,0,0,0,0,0,0,0,0,-1,594,638,0,0
-623,386,0,0,0,0,0,0,0,0,0,-1,601,638,0,0
-616,386,0,0,0,0,0,0,0,0,0,-1,608,638,0,0
-609,386,0,0,0,0,0,0,0,0,0,-1,615,638,0,0
-602,386,0,0,0,0,0,0,0,0,0,-1,622,638,0,0
-595,386,0,0,0,0,0,0,0,0,0,-1,629,638,0,0
-588,386,0,0,0,0,0,0,0,0,0,-1,636,638,0,0
-581,386,0,0,0,0,0,0,0,0,0,-1,643,638,0,0
-574,386,0,0,0,0,0,0,0,0,0,-1,650,638,0,0
-567,386,0,0,0,0,0,0,0,0,0,-1,657,638,0,0
-560,386,-3.93866,-1.71252,0.183848,-0.050796,0.0048251,0.183947,-0.0508952,0.0205519,0.142656,0.0487406,664,638,-3.93863,1.71253
-553,386,-2.89966,-1.97101,0.159701,-0.0438869,0.00411586,0.159784,-0.0439701,0.0202056,0.12381,0.0479883,671,638,-2.89963,1.97099
-546,386,-1.8631,-2.5575,0.132173,-0.0355337,0.00385135,0.132261,-0.0356221,0.0229488,0.10214,0.0470894,678,638,-1.86308,2.55749
-539,386,-0.879456,-2.90009,0,0,0,0,0,0,0,-1,685,638,-0.879442,2.90008
-532,386,-4.69666,1.55145,0,0,0,0,0,0,0,-1,692,638,-4.69665,-1.55145
-525,386,-4.54431,-0.153381,0,0,0,0,0,0,0,-1,699,638,-4.54429,0.153355
-518,386,-4.12207,-0.449341,0,0,0,0,0,0,0,-1,706,638,-4.12209,0.449339
-511,386,-3.78632,-1.23151,0.0263341,0.000913204,-0.00124915,0.0263954,0.00085197,-0.0489815,0.0173199,0.0439139,713,638,-3.78633,1.23148
-504,386,-3.88934,-1.38672,0.0137431,0.00347425,-0.00147359,0.0139504,0.00326697,-0.139744,0.00842513,0.0266137,720,638,-3.88933,1.38675
-497,386,-3.98395,-1.61414,0.00611178,0.00368569,-0.00102956,0.00648979,0.00330767,-0.35188,0.00374712,0.0123183,727,638,-3.98392,1.61414
-490,386,-3.98584,-1.86102,0.00159929,0.00373585,-0.000760897,0.00397913,0.00135601,-1.26134,0.00233585,0.0127823,734,638,-3.98586,1.86103
-483,386,-3.96973,-2.1048,0.00135124,0.00236059,-0.000791005,0.0027942,0.000917624,-1.06935,0.0016446,0.0157229,741,638,-3.96974,2.10482
-476,386,-3.94952,-2.30835,0.00144767,0.00178972,-0.000751358,0.00238927,0.000848117,-0.897304,0.00139866,0.013954,748,638,-3.94955,2.30838
-469,386,-3.97589,-2.50427,0.00115245,0.00123811,-0.000625573,0.00182232,0.000568242,-0.819576,0.00107667,0.0112169,755,638,-3.97588,2.50426
-462,386,-3.97504,-2.74475,0.000928565,0.000821266,-0.000424747,0.00130304,0.000446794,-0.722576,0.000764589,0.0106233,762,638,-3.97502,2.74476
-455,386,-3.97247,-2.96027,0.000684709,0.000320509,-8.98957e-05,0.000705689,0.000299529,-0.229282,0.000408977,0.0117356,769,638,-3.97248,2.96028
-448,386,-3.99005,-3.18707,0.000294466,-0.000342732,0.000388496,0.000478296,-0.000526562,0.441965,0.000580378,0.011272,776,638,-3.99007,3.18705
-441,386,-3.99371,-3.39227,-0.000556268,-0.00109849,0.00106927,0.000275729,-0.00193048,0.661242,0.00138806,0.0108182,783,638,-3.99372,3.39225
-434,386,-3.9635,-3.62921,-0.00153705,-0.00169615,0.00197147,0.000356472,-0.00358968,0.765233,0.00252036,0.0186713,790,638,-3.96352,3.62921
-427,386,-3.8996,-3.80768,-0.00261643,-0.00243865,0.00291123,0.000385042,-0.00544012,0.80066,0.00376167,0.0452684,797,638,-3.89958,3.80767
-420,386,-4.09821,-3.68445,-0.00396112,-0.00338316,0.00399014,0.00032845,-0.00767273,0.821546,0.00522808,0.0460007,804,638,-4.09823,3.68447
-413,386,-4.24341,-4.05756,0,0,0,0,0,0,0,-1,811,638,-4.24342,4.05754
-406,386,-4.51135,-4.10999,0,0,0,0,0,0,0,-1,818,638,-4.51135,4.10996
-399,386,-3.57117,-3.42126,0,0,0,0,0,0,0,-1,825,638,-3.57116,3.42129
-392,386,-4.00977,0.403625,0,0,0,0,0,0,0,-1,832,638,-4.0098,-0.403616
-385,386,-3.2406,-0.118469,0,0,0,0,0,0,0,-1,839,638,-3.24058,0.118485
-378,386,-2.55243,-1.22748,0,0,0,0,0,0,0,-1,846,638,-2.55243,1.22748
-371,386,-7.95807,-0.330261,0,0,0,0,0,0,0,-1,853,638,-7.95806,0.330284
-364,386,-8.90637,-0.665955,0,0,0,0,0,0,0,-1,860,638,-8.90635,0.665951
-357,386,-9.10364,-0.388733,0,0,0,0,0,0,0,-1,867,638,-9.10364,0.388744
-350,386,0,0,0,0,0,0,0,0,0,-1,874,638,0,0
-343,386,0,0,0,0,0,0,0,0,0,-1,881,638,0,0
-336,386,0,0,0,0,0,0,0,0,0,-1,888,638,0,0
-329,386,0,0,0,0,0,0,0,0,0,-1,895,638,0,0
-322,386,0,0,0,0,0,0,0,0,0,-1,902,638,0,0
-315,386,0,0,0,0,0,0,0,0,0,-1,909,638,0,0
-308,386,0,0,0,0,0,0,0,0,0,-1,916,638,0,0
-301,386,0,0,0,0,0,0,0,0,0,-1,923,638,0,0
-294,386,0,0,0,0,0,0,0,0,0,-1,930,638,0,0
-287,386,0,0,0,0,0,0,0,0,0,-1,937,638,0,0
-280,386,0,0,0,0,0,0,0,0,0,-1,944,638,0,0
-273,386,0,0,0,0,0,0,0,0,0,-1,951,638,0,0
-266,386,0,0,0,0,0,0,0,0,0,-1,958,638,0,0
-259,386,0,0,0,0,0,0,0,0,0,-1,965,638,0,0
-252,386,0,0,0,0,0,0,0,0,0,-1,972,638,0,0
-245,386,0,0,0,0,0,0,0,0,0,-1,979,638,0,0
-238,386,0,0,0,0,0,0,0,0,0,-1,986,638,0,0
-231,386,0,0,0,0,0,0,0,0,0,-1,993,638,0,0
-224,386,0,0,0,0,0,0,0,0,0,-1,1000,638,0,0
-217,386,0,0,0,0,0,0,0,0,0,-1,1007,638,0,0
-210,386,0,0,0,0,0,0,0,0,0,-1,1014,638,0,0
-203,386,0,0,0,0,0,0,0,0,0,-1,1021,638,0,0
-196,386,0,0,0,0,0,0,0,0,0,-1,1028,638,0,0
-189,386,0,0,0,0,0,0,0,0,0,-1,1035,638,0,0
-182,386,0,0,0,0,0,0,0,0,0,-1,1042,638,0,0
-175,386,0,0,0,0,0,0,0,0,0,-1,1049,638,0,0
-168,386,0,0,0,0,0,0,0,0,0,-1,1056,638,0,0
-161,386,0,0,0,0,0,0,0,0,0,-1,1063,638,0,0
-154,386,0,0,0,0,0,0,0,0,0,-1,1070,638,0,0
-147,386,0,0,0,0,0,0,0,0,0,-1,1077,638,0,0
-140,386,0,0,0,0,0,0,0,0,0,-1,1084,638,0,0
-133,386,0,0,0,0,0,0,0,0,0,-1,1091,638,0,0
-126,386,0,0,0,0,0,0,0,0,0,-1,1098,638,0,0
-119,386,0,0,0,0,0,0,0,0,0,-1,1105,638,0,0
-112,386,0,0,0,0,0,0,0,0,0,-1,1112,638,0,0
-105,386,0,0,0,0,0,0,0,0,0,-1,1119,638,0,0
-98,386,0,0,0,0,0,0,0,0,0,-1,1126,638,0,0
-91,386,0,0,0,0,0,0,0,0,0,-1,1133,638,0,0
-84,386,0,0,0,0,0,0,0,0,0,-1,1140,638,0,0
-77,386,0,0,0,0,0,0,0,0,0,-1,1147,638,0,0
-70,386,0,0,0,0,0,0,0,0,0,-1,1154,638,0,0
-63,386,0,0,0,0,0,0,0,0,0,-1,1161,638,0,0
-56,386,0,0,0,0,0,0,0,0,0,-1,1168,638,0,0
-49,386,0,0,0,0,0,0,0,0,0,-1,1175,638,0,0
-42,386,0,0,0,0,0,0,0,0,0,-1,1182,638,0,0
-35,386,0,0,0,0,0,0,0,0,0,-1,1189,638,0,0
-28,386,0,0,0,0,0,0,0,0,0,-1,1196,638,0,0
-21,386,0,0,0,0,0,0,0,0,0,-1,1203,638,0,0
-14,386,0,0,0,0,0,0,0,0,0,-1,1210,638,0,0
-7,386,0,0,0,0,0,0,0,0,0,-1,1217,638,0,0
0,386,0,0,0,0,0,0,0,0,0,-1,1224,638,0,0
7,386,0,0,0,0,0,0,0,0,0,-1,1231,638,0,0
14,386,0,0,0,0,0,0,0,0,0,-1,1238,638,0,0
21,386,0,0,0,0,0,0,0,0,0,-1,1245,638,0,0
28,386,0,0,0,0,0,0,0,0,0,-1,1252,638,0,0
35,386,0,0,0,0,0,0,0,0,0,-1,1259,638,0,0
42,386,0,0,0,0,0,0,0,0,0,-1,1266,638,0,0
49,386,0,0,0,0,0,0,0,0,0,-1,1273,638,0,0
56,386,0,0,0,0,0,0,0,0,0,-1,1280,638,0,0
63,386,0,0,0,0,0,0,0,0,0,-1,1287,638,0,0
70,386,0,0,0,0,0,0,0,0,0,-1,1294,638,0,0
77,386,0,0,0,0,0,0,0,0,0,-1,1301,638,0,0
84,386,0,0,0,0,0,0,0,0,0,-1,1308,638,0,0
91,386,0,0,0,0,0,0,0,0,0,-1,1315,638,0,0
98,386,0,0,0,0,0,0,0,0,0,-1,1322,638,0,0
105,386,0,0,0,0,0,0,0,0,0,-1,1329,638,0,0
112,386,0,0,0,0,0,0,0,0,0,-1,1336,638,0,0
119,386,0,0,0,0,0,0,0,0,0,-1,1343,638,0,0
126,386,0,0,0,0,0,0,0,0,0,-1,1350,638,0,0
133,386,0,0,0,0,0,0,0,0,0,-1,1357,638,0,0
140,386,0,0,0,0,0,0,0,0,0,-1,1364,638,0,0
147,386,0,0,0,0,0,0,0,0,0,-1,1371,638,0,0
154,386,0,0,0,0,0,0,0,0,0,-1,1378,638,0,0
161,386,0,0,0,0,0,0,0,0,0,-1,1385,638,0,0
168,386,0,0,0,0,0,0,0,0,0,-1,1392,638,0,0
175,386,0,0,0,0,0,0,0,0,0,-1,1399,638,0,0
182,386,0,0,0,0,0,0,0,0,0,-1,1406,638,0,0
189,386,0,0,0,0,0,0,0,0,0,-1,1413,638,0,0
196,386,0,0,0,0,0,0,0,0,0,-1,1420,638,0,0
203,386,0,0,0,0,0,0,0,0,0,-1,1427,638,0,0
210,386,0,0,0,0,0,0,0,0,0,-1,1434,638,0,0
217,386,0,0,0,0,0,0,0,0,0,-1,1441,638,0,0
224,386,0,0,0,0,0,0,0,0,0,-1,1448,638,0,0
231,386,0,0,0,0,0,0,0,0,0,-1,1455,638,0,0
238,386,0,0,0,0,0,0,0,0,0,-1,1462,638,0,0
245,386,0,0,0,0,0,0,0,0,0,-1,1469,638,0,0
252,386,0,0,0,0,0,0,0,0,0,-1,1476,638,0,0
259,386,0,0,0,0,0,0,0,0,0,-1,1483,638,0,0
266,386,0,0,0,0,0,0,0,0,0,-1,1490,638,0,0
273,386,0,0,0,0,0,0,0,0,0,-1,1497,638,0,0
280,386,0,0,0,0,0,0,0,0,0,-1,1504,638,0,0
287,386,0,0,0,0,0,0,0,0,0,-1,1511,638,0,0
294,386,0,0,0,0,0,0,0,0,0,-1,1518,638,0,0
301,386,0,0,0,0,0,0,0,0,0,-1,1525,638,0,0
308,386,0,0,0,0,0,0,0,0,0,-1,1532,638,0,0
315,386,0,0,0,0,0,0,0,0,0,-1,1539,638,0,0
322,386,0,0,0,0,0,0,0,0,0,-1,1546,638,0,0
329,386,0,0,0,0,0,0,0,0,0,-1,1553,638,0,0
336,386,0,0,0,0,0,0,0,0,0,-1,1560,638,0,0
343,386,0,0,0,0,0,0,0,0,0,-1,1567,638,0,0
350,386,0,0,0,0,0,0,0,0,0,-1,1574,638,0,0
357,386,0,0,0,0,0,0,0,0,0,-1,1581,638,0,0
364,386,0,0,0,0,0,0,0,0,0,-1,1588,638,0,0
371,386,0,0,0,0,0,0,0,0,0,-1,1595,638,0,0
378,386,0,0,0,0,0,0,0,0,0,-1,1602,638,0,0
385,386,0,0,0,0,0,0,0,0,0,-1,1609,638,0,0
392,386,0,0,0,0,0,0,0,0,0,-1,1616,638,0,0
399,386,0,0,0,0,0,0,0,0,0,-1,1623,638,0,0
406,386,0,0,0,0,0,0,0,0,0,-1,1630,638,0,0
413,386,0,0,0,0,0,0,0,0,0,-1,1637,638,0,0
420,386,0,0,0,0,0,0,0,0,0,-1,1644,638,0,0
427,386,0,0,0,0,0,0,0,0,0,-1,1651,638,0,0
434,386,0,0,0,0,0,0,0,0,0,-1,1658,638,0,0
441,386,0,0,0,0,0,0,0,0,0,-1,1665,638,0,0
448,386,0,0,0,0,0,0,0,0,0,-1,1672,638,0,0
455,386,0,0,0,0,0,0,0,0,0,-1,1679,638,0,0
462,386,0,0,0,0,0,0,0,0,0,-1,1686,638,0,0
469,386,9.84692,1.55804,0,0,0,0,0,0,0,-1,1693,638,9.84691,-1.55807
476,386,10.6145,0.986511,0,0,0,0,0,0,0,-1,1700,638,10.6145,-0.986529
483,386,11.4113,0.732971,0,0,0,0,0,0,0,-1,1707,638,11.4112,-0.732958
490,386,7.79785,1.79572,0,0,0,0,0,0,0,-1,1714,638,7.79788,-1.7957
497,386,8.96362,1.77081,0,0,0,0,0,0,0,-1,1721,638,8.96357,-1.77081
504,386,10.0555,1.69427,0,0,0,0,0,0,0,-1,1728,638,10.0555,-1.69426
511,386,11.2172,1.534,0,0,0,0,0,0,0,-1,1735,638,11.2172,-1.53398
518,386,7.41553,1.75238,0,0,0,0,0,0,0,-1,1742,638,7.41547,-1.75238
525,386,8.82422,-1.1449,0,0,0,0,0,0,0,-1,1749,638,8.82426,1.14492
532,386,10.6432,0.617371,0,0,0,0,0,0,0,-1,1756,638,10.6432,-0.617359
539,386,9.62061,-0.393616,0,0,0,0,0,0,0,-1,1763,638,9.62059,0.393634
546,386,9.20886,-2.14148,0,0,0,0,0,0,0,-1,1770,638,9.20889,2.14146
553,386,9.29358,-2.00348,-0.00639179,-0.000933382,-0.00333003,0.000642952,-0.00796813,-1.12868,0.00553885,0.0428089,1777,638,9.29353,2.00345
560,386,9.2384,-1.87457,-0.00559377,-0.00082151,-0.00298829,0.000616426,-0.0070317,-1.12231,0.0049062,0.0302091,1784,638,9.2384,1.87458
567,386,9.17126,-1.67957,-0.00483154,-0.000736955,-0.00262224,0.000542541,-0.00611104,-1.11684,0.00426639,0.0199575,1791,638,9.17131,1.67956
574,386,9.17688,-1.45929,-0.0038779,-0.000589538,-0.00213846,0.00046375,-0.00493119,-1.11313,0.00345244,0.0142344,1798,638,9.1769,1.45927
581,386,9.15845,-1.2453,-0.00277214,-0.000324515,-0.00154662,0.000423917,-0.00352057,-1.1201,0.00250036,0.0129385,1805,638,9.15843,1.24533
588,386,9.16833,-1.0033,-0.00168558,7.46494e-05,-0.000894999,0.000449774,-0.00206071,-1.17391,0.0015457,0.0120611,1812,638,9.16835,1.00333
595,386,9.16992,-0.785339,-0.000573857,0.000460466,-0.000297425,0.000539893,-0.000653284,-1.30984,0.000689917,0.0129309,1819,638,9.16996,0.785341
602,386,9.15344,-0.566956,0.000412427,0.00106157,0.000310565,0.00118622,0.00028778,1.18912,0.000714474,0.0144033,1826,638,9.15344,0.566948
609,386,9.1626,-0.312317,0.000804662,0.0015992,0.000604639,0.0019254,0.000478459,1.07605,0.00115756,0.0139525,1833,638,9.16255,0.312321
616,386,9.16833,-0.0460815,0.00100276,0.00209534,0.000717561,0.0024509,0.000647201,1.11075,0.0014666,0.0112125,1840,638,9.16829,0.0460733
623,386,9.15454,0.193726,0.00100921,0.00273527,0.000574478,0.00290898,0.000835495,1.27715,0.00172946,0.0105572,1847,638,9.15451,-0.193711
630,386,9.20837,0.430908,0.000657782,0.003475,-9.096e-05,0.00347793,0.000654848,-1.53855,0.00213409,0.020075,1854,638,9.20839,-0.430881
637,386,9.15186,0.721863,-0.00070605,0.0035836,-0.00148127,0.00404539,-0.00116784,-1.26859,0.003159,0.0355918,1861,638,9.15183,-0.721886
644,386,8.9519,0.829285,-0.00248839,0.00404495,-0.00324406,0.00538209,-0.00382553,-1.17983,0.00534128,0.0428461,1868,638,8.95194,-0.829256
651,386,9.17297,1.07806,0,0,0,0,0,0,0,-1,1875,638,9.17297,-1.07804
658,386,9.38428,1.29645,0,0,0,0,0,0,0,-1,1882,638,9.38432,-1.29645
665,386,6.33167,1.78601,0,0,0,0,0,0,0,-1,1889,638,6.33171,-1.78601
672,386,7.23352,2.14435,0,0,0,0,0,0,0,-1,1896,638,7.23353,-2.14433
679,386,8.07764,2.57104,0,0,0,0,0,0,0,-1,1903,638,8.07758,-2.57103
686,386,0,0,0,0,0,0,0,0,0,-1,1910,638,0,0
693,386,0,0,0,0,0,0,0,0,0,-1,1917,638,0,0
700,386,0,0,0,0,0,0,0,0,0,-1,1924,638,0,0
707,386,0,0,0,0,0,0,0,0,0,-1,1931,638,0,0
714,386,0,0,0,0,0,0,0,0,0,-1,1938,638,0,0
721,386,0,0,0,0,0,0,0,0,0,-1,1945,638,0,0
728,386,0,0,0,0,0,0,0,0,0,-1,1952,638,0,0
735,386,0,0,0,0,0,0,0,0,0,-1,1959,638,0,0
742,386,0,0,0,0,0,0,0,0,0,-1,1966,638,0,0
749,386,0,0,0,0,0,0,0,0,0,-1,1973,638,0,0
756,386,0,0,0,0,0,0,0,0,0,-1,1980,638,0,0
763,386,0,0,0,0,0,0,0,0,0,-1,1987,638,0,0
770,386,0,0,0,0,0,0,0,0,0,-1,1994,638,0,0
777,386,0,0,0,0,0,0,0,0,0,-1,2001,638,0,0
784,386,0,0,0,0,0,0,0,0,0,-1,2008,638,0,0
791,386,0,0,0,0,0,0,0,0,0,-1,2015,638,0,0
798,386,0,0,0,0,0,0,0,0,0,-1,2022,638,0,0
805,386,0,0,0,0,0,0,0,0,0,-1,2029,638,0,0
812,386,0,0,0,0,0,0,0,0,0,-1,2036,638,0,0
-700,379,0,0,0,0,0,0,0,0,0,-1,524,645,0,0
-693,379,0,0,0,0,0,0,0,0,0,-1,531,645,0,0
-686,379,0,0,0,0,0,0,0,0,0,-1,538,645,0,0
-679,379,0,0,0,0,0,0,0,0,0,-1,545,645,0,0
-672,379,0,0,0,0,0,0,0,0,0,-1,552,645,0,0
-665,379,0,0,0,0,0,0,0,0,0,-1,559,645,0,0
-658,379,0,0,0,0,0,0,0,0,0,-1,566,645,0,0
-651,379,0,0,0,0,0,0,0,0,0,-1,573,645,0,0
-644,379,0,0,0,0,0,0,0,0,0,-1,580,645,0,0
-637,379,0,0,0,0,0,0,0,0,0,-1,587,645,0,0
-630,379,0,0,0,0,0,0,0,0,0,-1,594,645,0,0
-623,379,0,0,0,0,0,0,0,0,0,-1,601,645,0,0
-616,379,0,0,0,0,0,0,0,0,0,-1,608,645,0,0
-609,379,0,0,0,0,0,0,0,0,0,-1,615,645,0,0
-602,379,0,0,0,0,0,0,0,0,0,-1,622,645,0,0
-595,379,0,0,0,0,0,0,0,0,0,-1,629,645,0,0
-588,379,0,0,0,0,0,0,0,0,0,-1,636,645,0,0
-581,379,0,0,0,0,0,0,0,0,0,-1,643,645,0,0
-574,379,0,0,0,0,0,0,0,0,0,-1,650,645,0,0
-567,379,-5.41962,-1.0097,0.181975,-0.0401751,0.00302248,0.182016,-0.0402162,0.0136022,0.136735,0.0444399,657,645,-5.41964,1.00969
-560,379,-4.31061,-1.38812,0.158783,-0.0339065,0.00164709,0.158797,-0.0339205,0.00854707,0.118797,0.0473029,664,645,-4.31058,1.38815
-553,379,-3.33514,-1.66992,0.136117,-0.0282575,0.00106475,0.136124,-0.0282644,0.00647718,0.101492,0.0496889,671,645,-3.33517,1.6699
-546,379,-2.1358,-1.87762,0.112498,-0.022418,0.000952368,0.112505,-0.0224247,0.00705851,0.0834879,0.0456883,678,645,-2.13579,1.87765
-539,379,-0.71698,-2.19427,0,0,0,0,0,0,0,-1,685,645,-0.716959,2.19427
-532,379,-5.3266,-0.323547,0,0,0,0,0,0,0,-1,692,645,-5.32661,0.323518
-525,379,-4.75238,-0.429688,0.0504201,-0.00498653,-0.000348542,0.0504222,-0.00498872,-0.00629029,0.0353951,0.046475,699,645,-4.75241,0.429681
-518,379,-4.29669,-0.694885,0,0,0,0,0,0,0,-1,706,645,-4.2967,0.694863
-511,379,-4.07391,-1.26044,0.0198824,0.00120896,-0.000429283,0.0198922,0.00119909,-0.0229728,0.0128804,0.0285158,713,645,-4.0739,1.26047
-504,379,-4.15424,-1.43756,0.00948777,0.00277275,-0.000456537,0.00951867,0.00274186,-0.067573,0.0056578,0.0158829,720,645,-4.15424,1.43759
-497,379,-4.19916,-1.63184,0.00336801,0.00255651,-1.80593e-05,0.00336841,0.00255611,-0.0222396,0.00202976,0.0103539,727,645,-4.19917,1.63186
-490,379,-4.19922,-1.84894,-0.000187567,0.00234816,0.000174706,0.00236014,-0.000199547,1.50233,0.00164398,0.0106216,734,645,-4.19923,1.84892
-483,379,-4.19373,-2.08215,-0.000101725,0.0012327,3.71844e-05,0.00123374,-0.00010276,1.54296,0.000858795,0.011768,741,645,-4.19373,2.08213
-476,379,-4.18109,-2.26807,0.000363383,0.000896368,-7.44058e-05,0.000906561,0.000353191,-1.43466,0.000527639,0.0119292,748,645,-4.18111,2.26809
-469,379,-4.19879,-2.47241,0.000470425,0.000573759,-0.000129413,0.000661438,0.000382746,-0.975324,0.000383453,0.0112478,755,645,-4.1988,2.47244
-462,379,-4.21802,-2.72119,0.000637525,0.000421917,-0.000138465,0.000705204,0.000354238,-0.45463,0.000407151,0.00874826,762,645,-4.21804,2.72119
-455,379,-4.21198,-2.92828,0.00074971,0.000173329,7.45554e-06,0.000749807,0.000173233,0.0129322,0.000453298,0.00889167,769,645,-4.21198,2.92828
-448,379,-4.19562,-3.13776,0.000675047,-0.000258954,0.000317953,0.00077301,-0.000356917,0.298876,0.000666945,0.0103244,776,645,-4.19563,3.13778
-441,379,-4.17963,-3.38654,3.73394e-05,-0.000901046,0.000921438,0.000602163,-0.00146587,0.549909,0.0012282,0.0144339,783,645,-4.17965,3.38654
-434,379,-4.0274,-3.64789,-0.000808497,-0.00132716,0.00177344,0.000724479,-0.00286013,0.712798,0.00218859,0.0454408,790,645,-4.02743,3.64791
-427,379,-4.54395,-3.4458,0,0,0,0,0,0,0,-1,797,645,-4.54392,3.44581
-420,379,-4.20331,-3.17133,0,0,0,0,0,0,0,-1,804,645,-4.20333,3.17133
-413,379,-4.15887,-3.13977,0,0,0,0,0,0,0,-1,811,645,-4.15889,3.1398
-406,379,-4.64063,-4.38489,0,0,0,0,0,0,0,-1,818,645,-4.64065,4.3849
-399,379,-2.93536,-1.40118,0,0,0,0,0,0,0,-1,825,645,-2.93534,1.40119
-392,379,-4.16711,-0.466003,0,0,0,0,0,0,0,-1,832,645,-4.16714,0.465992
-385,379,-3.51862,0.441101,0,0,0,0,0,0,0,-1,839,645,-3.51859,-0.441072
-378,379,-5.3504,0.212219,0,0,0,0,0,0,0,-1,846,645,-5.35038,-0.212241
-371,379,-4.32092,-0.186707,0,0,0,0,0,0,0,-1,853,645,-4.3209,0.186707
-364,379,-3.40887,-0.549805,0,0,0,0,0,0,0,-1,860,645,-3.4089,0.549802
-357,379,0,0,0,0,0,0,0,0,0,-1,867,645,0,0
-350,379,0,0,0,0,0,0,0,0,0,-1,874,645,0,0
-343,379,0,0,0,0,0,0,0,0,0,-1,881,645,0,0
-336,379,0,0,0,0,0,0,0,0,0,-1,888,645,0,0
-329,379,0,0,0,0,0,0,0,0,0,-1,895,645,0,0
-322,379,0,0,0,0,0,0,0,0,0,-1,902,645,0,0
-315,379,0,0,0,0,0,0,0,0,0,-1,909,645,0,0
-308,379,0,0,0,0,0,0,0,0,0,-1,916,645,0,0
-301,379,0,0,0,0,0,0,0,0,0,-1,923,645,0,0
-294,379,0,0,0,0,0,0,0,0,0,-1,930,645,0,0
-287,379,0,0,0,0,0,0,0,0,0,-1,937,645,0,0
-280,379,0,0,0,0,0,0,0,0,0,-1,944,645,0,0
-273,379,0,0,0,0,0,0,0,0,0,-1,951,645,0,0
-266,379,0,0,0,0,0,0,0,0,0,-1,958,645,0,0
-259,379,0,0,0,0,0,0,0,0,0,-1,965,645,0,0
-252,379,0,0,0,0,0,0,0,0,0,-1,972,645,0,0
-245,379,0,0,0,0,0,0,0,0,0,-1,979,645,0,0
-238,379,0,0,0,0,0,0,0,0,0,-1,986,645,0,0
-231,379,0,0,0,0,0,0,0,0,0,-1,993,645,0,0
-224,379,0,0,0,0,0,0,0,0,0,-1,1000,645,0,0
-217,379,0,0,0,0,0,0,0,0,0,-1,1007,645,0,0
-210,379,0,0,0,0,0,0,0,0,0,-1,1014,645,0,0
-203,379,0,0,0,0,0,0,0,0,0,-1,1021,645,0,0
-196,379,0,0,0,0,0,0,0,0,0,-1,1028,645,0,0
-189,379,0,0,0,0,0,0,0,0,0,-1,1035,645,0,0
-182,379,0,0,0,0,0,0,0,0,0,-1,1042,645,0,0
-175,379,0,0,0,0,0,0,0,0,0,-1,1049,645,0,0
-168,379,0,0,0,0,0,0,0,0,0,-1,1056,645,0,0
-161,379,0,0,0,0,0,0,0,0,0,-1,1063,645,0,0
-154,379,0,0,0,0,0,0,0,0,0,-1,1070,645,0,0
-147,379,0,0,0,0,0,0,0,0,0,-1,1077,645,0,0
-140,379,0,0,0,0,0,0,0,0,0,-1,1084,645,0,0
-133,379,0,0,0,0,0,0,0,0,0,-1,1091,645,0,0
-126,379,0,0,0,0,0,0,0,0,0,-1,1098,645,0,0
-119,379,0,0,0,0,0,0,0,0,0,-1,1105,645,0,0
-112,379,0,0,0,0,0,0,0,0,0,-1,1112,645,0,0
-105,379,0,0,0,0,0,0,0,0,0,-1,1119,645,0,0
-98,379,0,0,0,0,0,0,0,0,0,-1,1126,645,0,0
-91,379,0,0,0,0,0,0,0,0,0,-1,1133,645,0,0
-84,379,0,0,0,0,0,0,0,0,0,-1,1140,645,0,0
-77,379,0,0,0,0,0,0,0,0,0,-1,1147,645,0,0
-70,379,0,0,0,0,0,0,0,0,0,-1,1154,645,0,0
-63,379,0,0,0,0,0,0,0,0,0,-1,1161,645,0,0
-56,379,0,0,0,0,0,0,0,0,0,-1,1168,645,0,0
-49,379,0,0,0,0,0,0,0,0,0,-1,1175,645,0,0
-42,379,0,0,0,0,0,0,0,0,0,-1,1182,645,0,0
-35,379,0,0,0,0,0,0,0,0,0,-1,1189,645,0,0
-28,379,0,0,0,0,0,0,0,0,0,-1,1196,645,0,0
-21,379,0,0,0,0,0,0,0,0,0,-1,1203,645,0,0
-14,379,0,0,0,0,0,0,0,0,0,-1,1210,645,0,0
-7,379,0,0,0,0,0,0,0,0,0,-1,1217,645,0,0
0,379,0,0,0,0,0,0,0,0,0,-1,1224,645,0,0
7,379,0,0,0,0,0,0,0,0,0,-1,1231,645,0,0
14,379,0,0,0,0,0,0,0,0,0,-1,1238,645,0,0
21,379,0,0,0,0,0,0,0,0,0,-1,1245,645,0,0
28,379,0,0,0,0,0,0,0,0,0,-1,1252,645,0,0
35,379,0,0,0,0,0,0,0,0,0,-1,1259,645,0,0
42,379,0,0,0,0,0,0,0,0,0,-1,1266,645,0,0
49,379,0,0,0,0,0,0,0,0,0,-1,1273,645,0,0
56,379,0,0,0,0,0,0,0,0,0,-1,1280,645,0,0
63,379,0,0,0,0,0,0,0,0,0,-1,1287,645,0,0
70,379,0,0,0,0,0,0,0,0,0,-1,1294,645,0,0
77,379,0,0,0,0,0,0,0,0,0,-1,1301,645,0,0
84,379,0,0,0,0,0,0,0,0,0,-1,1308,645,0,0
91,379,0,0,0,0,0,0,0,0,0,-1,1315,645,0,0
98,379,0,0,0,0,0,0,0,0,0,-1,1322,645,0,0
105,379,0,0,0,0,0,0,0,0,0,-1,1329,645,0,0
112,379,0,0,0,0,0,0,0,0,0,-1,1336,645,0,0
119,379,0,0,0,0,0,0,0,0,0,-1,1343,645,0,0
126,379,0,0,0,0,0,0,0,0,0,-1,1350,645,0,0
133,379,0,0,0,0,0,0,0,0,0,-1,1357,645,0,0
140,379,0,0,0,0,0,0,0,0,0,-1,1364,645,0,0
147,379,0,0,0,0,0,0,0,0,0,-1,1371,645,0,0
154,379,0,0,0,0,0,0,0,0,0,-1,1378,645,0,0
161,379,0,0,0,0,0,0,0,0,0,-1,1385,645,0,0
168,379,0,0,0,0,0,0,0,0,0,-1,1392,645,0,0
175,379,0,0,0,0,0,0,0,0,0,-1,1399,645,0,0
182,379,0,0,0,0,0,0,0,0,0,-1,1406,645,0,0
189,379,0,0,0,0,0,0,0,0,0,-1,1413,645,0,0
196,379,0,0,0,0,0,0,0,0,0,-1,1420,645,0,0
203,379,0,0,0,0,0,0,0,0,0,-1,1427,645,0,0
210,379,0,0,0,0,0,0,0,0,0,-1,1434,645,0,0
217,379,0,0,0,0,0,0,0,0,0,-1,1441,645,0,0
224,379,0,0,0,0,0,0,0,0,0,-1,1448,645,0,0
231,379,0,0,0,0,0,0,0,0,0,-1,1455,645,0,0
238,379,0,0,0,0,0,0,0,0,0,-1,1462,645,0,0
245,379,0,0,0,0,0,0,0,0,0,-1,1469,645,0,0
252,379,0,0,0,0,0,0,0,0,0,-1,1476,645,0,0
259,379,0,0,0,0,0,0,0,0,0,-1,1483,645,0,0
266,379,0,0,0,0,0,0,0,0,0,-1,1490,645,0,0
273,379,0,0,0,0,0,0,0,0,0,-1,1497,645,0,0
280,379,0,0,0,0,0,0,0,0,0,-1,1504,645,0,0
287,379,0,0,0,0,0,0,0,0,0,-1,1511,645,0,0
294,379,0,0,0,0,0,0,0,0,0,-1,1518,645,0,0
301,379,0,0,0,0,0,0,0,0,0,-1,1525,645,0,0
308,379,0,0,0,0,0,0,0,0,0,-1,1532,645,0,0
315,379,0,0,0,0,0,0,0,0,0,-1,1539,645,0,0
322,379,0,0,0,0,0,0,0,0,0,-1,1546,645,0,0
329,379,0,0,0,0,0,0,0,0,0,-1,1553,645,0,0
336,379,0,0,0,0,0,0,0,0,0,-1,1560,645,0,0
343,379,0,0,0,0,0,0,0,0,0,-1,1567,645,0,0
350,379,0,0,0,0,0,0,0,0,0,-1,1574,645,0,0
357,379,0,0,0,0,0,0,0,0,0,-1,1581,645,0,0
364,379,0,0,0,0,0,0,0,0,0,-1,1588,645,0,0
371,379,0,0,0,0,0,0,0,0,0,-1,1595,645,0,0
378,379,0,0,0,0,0,0,0,0,0,-1,1602,645,0,0
385,379,0,0,0,0,0,0,0,0,0,-1,1609,645,0,0
392,379,0,0,0,0,0,0,0,0,0,-1,1616,645,0,0
399,379,0,0,0,0,0,0,0,0,0,-1,1623,645,0,0
406,379,0,0,0,0,0,0,0,0,0,-1,1630,645,0,0
413,379,0,0,0,0,0,0,0,0,0,-1,1637,645,0,0
420,379,0,0,0,0,0,0,0,0,0,-1,1644,645,0,0
427,379,0,0,0,0,0,0,0,0,0,-1,1651,645,0,0
434,379,0,0,0,0,0,0,0,0,0,-1,1658,645,0,0
441,379,0,0,0,0,0,0,0,0,0,-1,1665,645,0,0
448,379,0,0,0,0,0,0,0,0,0,-1,1672,645,0,0
455,379,0,0,0,0,0,0,0,0,0,-1,1679,645,0,0
462,379,0,0,0,0,0,0,0,0,0,-1,1686,645,0,0
469,379,0,0,0,0,0,0,0,0,0,-1,1693,645,0,0
476,379,11.1787,0.830383,0,0,0,0,0,0,0,-1,1700,645,11.1787,-0.830365
483,379,7.4231,1.54321,0,0,0,0,0,0,0,-1,1707,645,7.42314,-1.54324
490,379,8.52881,1.56677,0,0,0,0,0,0,0,-1,1714,645,8.52878,-1.56677
497,379,9.63599,1.49573,0,0,0,0,0,0,0,-1,1721,645,9.63604,-1.4957
504,379,10.0833,1.35229,0,0,0,0,0,0,0,-1,1728,645,10.0832,-1.35227
511,379,8.14343,1.59912,0,0,0,0,0,0,0,-1,1735,645,8.14347,-1.59912
518,379,12.7955,-0.324097,0,0,0,0,0,0,0,-1,1742,645,12.7955,0.324101
525,379,6.03711,1.10352,0,0,0,0,0,0,0,-1,1749,645,6.03711,-1.10351
532,379,8.70947,0.887817,0,0,0,0,0,0,0,-1,1756,645,8.70953,-0.887808
539,379,9.87097,0.111389,0,0,0,0,0,0,0,-1,1763,645,9.87095,-0.111395
546,379,8.42383,-0.730652,0,0,0,0,0,0,0,-1,1770,645,8.42378,0.730638
553,379,9.52991,-1.7807,0,0,0,0,0,0,0,-1,1777,645,9.52988,1.78068
560,379,9.50256,-1.83826,-0.00819637,-0.000894452,-0.00403759,0.000898084,-0.0099889,-1.15297,0.00697792,0.0388462,1784,645,9.50261,1.83827
567,379,9.33423,-1.64606,-0.00685639,-0.000994889,-0.00354052,0.000670512,-0.00852179,-1.13112,0.00591737,0.0222557,1791,645,9.33426,1.64607
574,379,9.42139,-1.44708,-0.00554789,-0.000944019,-0.00297491,0.000515558,-0.00700747,-1.11467,0.00485264,0.0118813,1798,645,9.42141,1.4471
581,379,9.41296,-1.23865,-0.00414543,-0.000757161,-0.00229066,0.000397776,-0.00530037,-1.1038,0.00367336,0.0140501,1805,645,9.41293,1.23865
588,379,9.40918,-1.02704,-0.00278924,-0.000397525,-0.00154732,0.000362195,-0.00354896,-1.11438,0.00249548,0.0172956,1812,645,9.40922,1.02705
595,379,9.40686,-0.796997,-0.00150038,-6.69393e-07,-0.000864412,0.000393806,-0.00189485,-1.14267,0.00141292,0.0142212,1819,645,9.40684,0.797007
602,379,9.40479,-0.569519,-0.000386323,0.000594968,-0.000206457,0.000636636,-0.000427991,-1.37165,0.000618585,0.0139987,1826,645,9.40476,0.569533
609,379,9.40845,-0.327515,8.05544e-05,0.00111751,0.000112034,0.00112948,6.85882e-05,1.46439,0.000731195,0.0143913,1833,645,9.40843,0.327544
616,379,9.40161,-0.06073,0.000286512,0.00146625,0.000166165,0.00148921,0.000263554,1.4335,0.000917658,0.0116676,1840,645,9.40157,0.0607351
623,379,9.40161,0.201599,0.000244403,0.00202612,-2.67435e-05,0.00202652,0.000244001,-1.55579,0.00127747,0.011634,1847,645,9.40167,-0.20161
630,379,9.39587,0.424011,-0.000140898,0.00263682,-0.000693235,0.00280022,-0.000304297,-1.33932,0.00197607,0.0129782,1854,645,9.39588,-0.42401
637,379,9.41638,0.676147,-0.00137867,0.00267181,-0.00194097,0.00345174,-0.00215859,-1.18872,0.00326768,0.0165341,1861,645,9.41642,-0.676131
644,379,9.40894,0.974548,-0.00306432,0.00291355,-0.00360327,0.00460621,-0.00475697,-1.13164,0.00540607,0.0276715,1868,645,9.40895,-0.974559
651,379,9.41724,0.804138,0,0,0,0,0,0,0,-1,1875,645,9.41718,-0.804166
658,379,8.84253,1.59711,0,0,0,0,0,0,0,-1,1882,645,8.84247,-1.59714
665,379,8.81238,1.94122,0,0,0,0,0,0,0,-1,1889,645,8.81243,-1.94125
672,379,7.57605,2.15326,0,0,0,0,0,0,0,-1,1896,645,7.57599,-2.15326
679,379,8.55078,2.50409,0,0,0,0,0,0,0,-1,1903,645,8.55073,-2.50406
686,379,0,0,0,0,0,0,0,0,0,-1,1910,645,0,0
693,379,0,0,0,0,0,0,0,0,0,-1,1917,645,0,0
700,379,0,0,0,0,0,0,0,0,0,-1,1924,645,0,0
707,379,0,0,0,0,0,0,0,0,0,-1,1931,645,0,0
714,379,0,0,0,0,0,0,0,0,0,-1,1938,645,0,0
721,379,0,0,0,0,0,0,0,0,0,-1,1945,645,0,0
728,379,0,0,0,0,0,0,0,0,0,-1,1952,645,0,0
735,379,0,0,0,0,0,0,0,0,0,-1,1959,645,0,0
742,379,0,0,0,0,0,0,0,0,0,-1,1966,645,0,0
749,379,0,0,0,0,0,0,0,0,0,-1,1973,645,0,0
756,379,0,0,0,0,0,0,0,0,0,-1,1980,645,0,0
763,379,0,0,0,0,0,0,0,0,0,-1,1987,645,0,0
770,379,0,0,0,0,0,0,0,0,0,-1,1994,645,0,0
777,379,0,0,0,0,0,0,0,0,0,-1,2001,645,0,0
784,379,0,0,0,0,0,0,0,0,0,-1,2008,645,0,0
791,379,0,0,0,0,0,0,0,0,0,-1,2015,645,0,0
798,379,0,0,0,0,0,0,0,0,0,-1,2022,645,0,0
805,379,0,0,0,0,0,0,0,0,0,-1,2029,645,0,0
812,379,0,0,0,0,0,0,0,0,0,-1,2036,645,0,0
-700,372,0,0,0,0,0,0,0,0,0,-1,524,652,0,0
-693,372,0,0,0,0,0,0,0,0,0,-1,531,652,0,0
-686,372,0,0,0,0,0,0,0,0,0,-1,538,652,0,0
-679,372,0,0,0,0,0,0,0,0,0,-1,545,652,0,0
-672,372,0,0,0,0,0,0,0,0,0,-1,552,652,0,0
-665,372,0,0,0,0,0,0,0,0,0,-1,559,652,0,0
-658,372,0,0,0,0,0,0,0,0,0,-1,566,652,0,0
-651,372,0,0,0,0,0,0,0,0,0,-1,573,652,0,0
-644,372,0,0,0,0,0,0,0,0,0,-1,580,652,0,0
-637,372,0,0,0,0,0,0,0,0,0,-1,587,652,0,0
-630,372,0,0,0,0,0,0,0,0,0,-1,594,652,0,0
-623,372,0,0,0,0,0,0,0,0,0,-1,601,652,0,0
-616,372,0,0,0,0,0,0,0,0,0,-1,608,652,0,0
-609,372,0,0,0,0,0,0,0,0,0,-1,615,652,0,0
-602,372,0,0,0,0,0,0,0,0,0,-1,622,652,0,0
-595,372,0,0,0,0,0,0,0,0,0,-1,629,652,0,0
-588,372,0,0,0,0,0,0,0,0,0,-1,636,652,0,0
-581,372,0,0,0,0,0,0,0,0,0,-1,643,652,0,0
-574,372,0,0,0,0,0,0,0,0,0,-1,650,652,0,0
-567,372,-5.8045,-0.655151,0.159571,-0.0280174,0.000568874,0.159573,-0.0280191,0.00303253,0.116847,0.0410019,657,652,-5.80453,0.65516
-560,372,-4.73248,-1.01947,0.136857,-0.0216145,-0.000593952,0.136859,-0.0216167,-0.00374794,0.099233,0.0434026,664,652,-4.7325,1.01945
-553,372,-4.55664,2.25775,0,0,0,0,0,0,0,-1,671,652,-4.55664,-2.25778
-546,372,-4.15826,1.88702,0,0,0,0,0,0,0,-1,678,652,-4.15826,-1.88703
-539,372,-6.30621,0.226196,0,0,0,0,0,0,0,-1,685,652,-6.30621,-0.226188
-532,372,-5.7287,-0.196045,0,0,0,0,0,0,0,-1,692,652,-5.72867,0.196065
-525,372,-4.9826,-0.491577,0,0,0,0,0,0,0,-1,699,652,-4.98262,0.491603
-518,372,-4.36572,-0.749817,0,0,0,0,0,0,0,-1,706,652,-4.36574,0.749823
-511,372,-4.40771,-1.21356,0.0156614,0.00226635,-0.000504309,0.0156804,0.00224739,-0.0375779,0.00979081,0.01628,713,652,-4.40774,1.21359
-504,372,-4.42517,-1.40649,0.00739418,0.00295351,-0.000349195,0.00742147,0.00292622,-0.0779969,0.00431659,0.0106052,720,652,-4.42514,1.40651
-497,372,-4.41571,-1.638,0.0026604,0.00234553,7.64458e-05,0.00267797,0.00232796,0.226025,0.00168084,0.010985,727,652,-4.41569,1.63802
-490,372,-4.41931,-1.83954,-5.08594e-05,0.00183352,0.000232133,0.0018617,-7.90343e-05,1.45001,0.0012683,0.011828,734,652,-4.41929,1.83952
-483,372,-4.41699,-2.04529,0.000121309,0.000885883,8.00323e-05,0.00089417,0.000113022,1.46761,0.000562239,0.011609,741,652,-4.417,2.04527
-476,372,-4.40771,-2.23767,0.000652211,0.000650086,-7.62125e-05,0.000727369,0.000574929,-0.778427,0.000442931,0.0128303,748,652,-4.40772,2.23767
-469,372,-4.41577,-2.45105,0.000878928,0.000436769,-0.000205892,0.000959954,0.000355743,-0.374921,0.000560384,0.0106456,755,652,-4.41579,2.45106
-462,372,-4.41675,-2.70306,0.00111318,0.000409405,-0.000301814,0.00122488,0.000297702,-0.354474,0.000737658,0.00930821,762,652,-4.41674,2.70305
-455,372,-4.42419,-2.91333,0.00126798,0.000307922,-0.000233744,0.00132187,0.000254037,-0.226571,0.000809957,0.00943898,769,652,-4.42419,2.91333
-448,372,-4.41235,-3.13452,0.00122946,4.01476e-05,1.27387e-06,0.00122946,4.01462e-05,0.0010711,0.000806591,0.0101789,776,652,-4.41234,3.13454
-441,372,-4.31256,-3.49469,0.000590721,-0.000512123,0.000586904,0.000844608,-0.00076601,0.408279,0.00093026,0.0297508,783,652,-4.31257,3.4947
-434,372,-4.56335,-3.5141,-0.000274674,-0.000764923,0.00142387,0.000925018,-0.00196461,0.700157,0.00170394,0.0486032,790,652,-4.56335,3.51411
-427,372,-4.54248,-3.56268,0,0,0,0,0,0,0,-1,797,652,-4.54247,3.56266
-420,372,-4.53424,-3.66199,0,0,0,0,0,0,0,-1,804,652,-4.53425,3.66197
-413,372,-4.74762,-3.29541,0,0,0,0,0,0,0,-1,811,652,-4.74763,3.29542
-406,372,-0.885437,-0.583923,0,0,0,0,0,0,0,-1,818,652,-0.885437,0.5839
-399,372,-3.97357,-0.825012,0,0,0,0,0,0,0,-1,825,652,-3.97359,0.825037
-392,372,-7.64337,0.173035,0,0,0,0,0,0,0,-1,832,652,-7.64337,-0.173019
-385,372,-6.48871,-0.0271606,0,0,0,0,0,0,0,-1,839,652,-6.48874,0.0271353
-378,372,-5.33044,-0.242432,0,0,0,0,0,0,0,-1,846,652,-5.33042,0.242457
-371,372,-4.40802,-0.495667,0,0,0,0,0,0,0,-1,853,652,-4.40802,0.495661
-364,372,0,0,0,0,0,0,0,0,0,-1,860,652,0,0
-357,372,0,0,0,0,0,0,0,0,0,-1,867,652,0,0
-350,372,0,0,0,0,0,0,0,0,0,-1,874,652,0,0
-343,372,0,0,0,0,0,0,0,0,0,-1,881,652,0,0
-336,372,0,0,0,0,0,0,0,0,0,-1,888,652,0,0
-329,372,0,0,0,0,0,0,0,0,0,-1,895,652,0,0
-322,372,0,0,0,0,0,0,0,0,0,-1,902,652,0,0
-315,372,0,0,0,0,0,0,0,0,0,-1,909,652,0,0
-308,372,0,0,0,0,0,0,0,0,0,-1,916,652,0,0
-301,372,0,0,0,0,0,0,0,0,0,-1,923,652,0,0
-294,372,0,0,0,0,0,0,0,0,0,-1,930,652,0,0
-287,372,0,0,0,0,0,0,0,0,0,-1,937,652,0,0
-280,372,0,0,0,0,0,0,0,0,0,-1,944,652,0,0
-273,372,0,0,0,0,0,0,0,0,0,-1,951,652,0,0
-266,372,0,0,0,0,0,0,0,0,0,-1,958,652,0,0
-259,372,0,0,0,0,0,0,0,0,0,-1,965,652,0,0
-252,372,0,0,0,0,0,0,0,0,0,-1,972,652,0,0
-245,372,0,0,0,0,0,0,0,0,0,-1,979,652,0,0
-238,372,0,0,0,0,0,0,0,0,0,-1,986,652,0,0
-231,372,0,0,0,0,0,0,0,0,0,-1,993,652,0,0
-224,372,0,0,0,0,0,0,0,0,0,-1,1000,652,0,0
-217,372,0,0,0,0,0,0,0,0,0,-1,1007,652,0,0
-210,372,0,0,0,0,0,0,0,0,0,-1,1014,652,0,0
-203,372,0,0,0,0,0,0,0,0,0,-1,1021,652,0,0
-196,372,0,0,0,0,0,0,0,0,0,-1,1028,652,0,0
-189,372,0,0,0,0,0,0,0,0,0,-1,1035,652,0,0
-182,372,0,0,0,0,0,0,0,0,0,-1,1042,652,0,0
-175,372,0,0,0,0,0,0,0,0,0,-1,1049,652,0,0
-168,372,0,0,0,0,0,0,0,0,0,-1,1056,652,0,0
-161,372,0,0,0,0,0,0,0,0,0,-1,1063,652,0,0
-154,372,0,0,0,0,0,0,0,0,0,-1,1070,652,0,0
-147,372,0,0,0,0,0,0,0,0,0,-1,1077,652,0,0
-140,372,0,0,0,0,0,0,0,0,0,-1,1084,652,0,0
-133,372,0,0,0,0,0,0,0,0,0,-1,1091,652,0,0
-126,372,0,0,0,0,0,0,0,0,0,-1,1098,652,0,0
-119,372,0,0,0,0,0,0,0,0,0,-1,1105,652,0,0
-112,372,0,0,0,0,0,0,0,0,0,-1,1112,652,0,0
-105,372,0,0,0,0,0,0,0,0,0,-1,1119,652,0,0
-98,372,0,0,0,0,0,0,0,0,0,-1,1126,652,0,0
-91,372,0,0,0,0,0,0,0,0,0,-1,1133,652,0,0
-84,372,0,0,0,0,0,0,0,0,0,-1,1140,652,0,0
-77,372,0,0,0,0,0,0,0,0,0,-1,1147,652,0,0
-70,372,0,0,0,0,0,0,0,0,0,-1,1154,652,0,0
-63,372,0,0,0,0,0,0,0,0,0,-1,1161,652,0,0
-56,372,0,0,0,0,0,0,0,0,0,-1,1168,652,0,0
-49,372,0,0,0,0,0,0,0,0,0,-1,1175,652,0,0
-42,372,0,0,0,0,0,0,0,0,0,-1,1182,652,0,0
-35,372,0,0,0,0,0,0,0,0,0,-1,1189,652,0,0
-28,372,0,0,0,0,0,0,0,0,0,-1,1196,652,0,0
-21,372,0,0,0,0,0,0,0,0,0,-1,1203,652,0,0
-14,372,0,0,0,0,0,0,0,0,0,-1,1210,652,0,0
-7,372,0,0,0,0,0,0,0,0,0,-1,1217,652,0,0
0,372,0,0,0,0,0,0,0,0,0,-1,1224,652,0,0
7,372,0,0,0,0,0,0,0,0,0,-1,1231,652,0,0
14,372,0,0,0,0,0,0,0,0,0,-1,1238,652,0,0
21,372,0,0,0,0,0,0,0,0,0,-1,1245,652,0,0
28,372,0,0,0,0,0,0,0,0,0,-1,1252,652,0,0
35,372,0,0,0,0,0,0,0,0,0,-1,1259,652,0,0
42,372,0,0,0,0,0,0,0,0,0,-1,1266,652,0,0
49,372,0,0,0,0,0,0,0,0,0,-1,1273,652,0,0
56,372,0,0,0,0,0,0,0,0,0,-1,1280,652,0,0
63,372,0,0,0,0,0,0,0,0,0,-1,1287,652,0,0
70,372,0,0,0,0,0,0,0,0,0,-1,1294,652,0,0
77,372,0,0,0,0,0,0,0,0,0,-1,1301,652,0,0
84,372,0,0,0,0,0,0,0,0,0,-1,1308,652,0,0
91,372,0,0,0,0,0,0,0,0,0,-1,1315,652,0,0
98,372,0,0,0,0,0,0,0,0,0,-1,1322,652,0,0
105,372,0,0,0,0,0,0,0,0,0,-1,1329,652,0,0
112,372,0,0,0,0,0,0,0,0,0,-1,1336,652,0,0
119,372,0,0,0,0,0,0,0,0,0,-1,1343,652,0,0
126,372,0,0,0,0,0,0,0,0,0,-1,1350,652,0,0
133,372,0,0,0,0,0,0,0,0,0,-1,1357,652,0,0
140,372,0,0,0,0,0,0,0,0,0,-1,1364,652,0,0
147,372,0,0,0,0,0,0,0,0,0,-1,1371,652,0,0
154,372,0,0,0,0,0,0,0,0,0,-1,1378,652,0,0
161,372,0,0,0,0,0,0,0,0,0,-1,1385,652,0,0
168,372,0,0,0,0,0,0,0,0,0,-1,1392,652,0,0
175,372,0,0,0,0,0,0,0,0,0,-1,1399,652,0,0
182,372,0,0,0,0,0,0,0,0,0,-1,1406,652,0,0
189,372,0,0,0,0,0,0,0,0,0,-1,1413,652,0,0
196,372,0,0,0,0,0,0,0,0,0,-1,1420,652,0,0
203,372,0,0,0,0,0,0,0,0,0,-1,1427,652,0,0
210,372,0,0,0,0,0,0,0,0,0,-1,1434,652,0,0
217,372,0,0,0,0,0,0,0,0,0,-1,1441,652,0,0
224,372,0,0,0,0,0,0,0,0,0,-1,1448,652,0,0
231,372,0,0,0,0,0,0,0,0,0,-1,1455,652,0,0
238,372,0,0,0,0,0,0,0,0,0,-1,1462,652,0,0
245,372,0,0,0,0,0,0,0,0,0,-1,1469,652,0,0
252,372,0,0,0,0,0,0,0,0,0,-1,1476,652,0,0
259,372,0,0,0,0,0,0,0,0,0,-1,1483,652,0,0
266,372,0,0,0,0,0,0,0,0,0,-1,1490,652,0,0
273,372,0,0,0,0,0,0,0,0,0,-1,1497,652,0,0
280,372,0,0,0,0,0,0,0,0,0,-1,1504,652,0,0
287,372,0,0,0,0,0,0,0,0,0,-1,1511,652,0,0
294,372,0,0,0,0,0,0,0,0,0,-1,1518,652,0,0
301,372,0,0,0,0,0,0,0,0,0,-1,1525,652,0,0
308,372,0,0,0,0,0,0,0,0,0,-1,1532,652,0,0
315,372,0,0,0,0,0,0,0,0,0,-1,1539,652,0,0
322,372,0,0,0,0,0,0,0,0,0,-1,1546,652,0,0
329,372,0,0,0,0,0,0,0,0,0,-1,1553,652,0,0
336,372,0,0,0,0,0,0,0,0,0,-1,1560,652,0,0
343,372,0,0,0,0,0,0,0,0,0,-1,1567,652,0,0
350,372,0,0,0,0,0,0,0,0,0,-1,1574,652,0,0
357,372,0,0,0,0,0,0,0,0,0,-1,1581,652,0,0
364,372,0,0,0,0,0,0,0,0,0,-1,1588,652,0,0
371,372,0,0,0,0,0,0,0,0,0,-1,1595,652,0,0
378,372,0,0,0,0,0,0,0,0,0,-1,1602,652,0,0
385,372,0,0,0,0,0,0,0,0,0,-1,1609,652,0,0
392,372,0,0,0,0,0,0,0,0,0,-1,1616,652,0,0
399,372,0,0,0,0,0,0,0,0,0,-1,1623,652,0,0
406,372,0,0,0,0,0,0,0,0,0,-1,1630,652,0,0
413,372,0,0,0,0,0,0,0,0,0,-1,1637,652,0,0
420,372,0,0,0,0,0,0,0,0,0,-1,1644,652,0,0
427,372,0,0,0,0,0,0,0,0,0,-1,1651,652,0,0
434,372,0,0,0,0,0,0,0,0,0,-1,1658,652,0,0
441,372,0,0,0,0,0,0,0,0,0,-1,1665,652,0,0
448,372,0,0,0,0,0,0,0,0,0,-1,1672,652,0,0
455,372,0,0,0,0,0,0,0,0,0,-1,1679,652,0,0
462,372,0,0,0,0,0,0,0,0,0,-1,1686,652,0,0
469,372,0,0,0,0,0,0,0,0,0,-1,1693,652,0,0
476,372,0,0,0,0,0,0,0,0,0,-1,1700,652,0,0
483,372,8.74182,1.53125,0,0,0,0,0,0,0,-1,1707,652,8.74186,-1.53126
490,372,9.78455,1.67096,0,0,0,0,0,0,0,-1,1714,652,9.7846,-1.67093
497,372,9.97644,1.46069,0,0,0,0,0,0,0,-1,1721,652,9.97647,-1.46071
504,372,10.1216,1.28375,0,0,0,0,0,0,0,-1,1728,652,10.1216,-1.28376
511,372,11.7367,-0.0272217,0,0,0,0,0,0,0,-1,1735,652,11.7367,0.0272326
518,372,12.0657,-0.0995483,0,0,0,0,0,0,0,-1,1742,652,12.0657,0.0995285
525,372,12.3947,-0.171814,0,0,0,0,0,0,0,-1,1749,652,12.3946,0.171824
532,372,9.36597,1.72034,0,0,0,0,0,0,0,-1,1756,652,9.36597,-1.72036
539,372,7.82886,-0.0865479,0,0,0,0,0,0,0,-1,1763,652,7.82882,0.0865771
546,372,10.953,-0.187195,0,0,0,0,0,0,0,-1,1770,652,10.953,0.187181
553,372,9.54333,-2.73187,0,0,0,0,0,0,0,-1,1777,652,9.54331,2.73186
560,372,9.62878,-2.23541,-0.0112687,-0.00118629,-0.00542505,0.00117823,-0.0136333,-1.15977,0.00950596,0.0436047,1784,652,9.62881,2.23542
567,372,9.63623,-1.72382,-0.00926748,-0.00145248,-0.0047288,0.00077436,-0.0114943,-1.13069,0.00793361,0.0232319,1791,652,9.6362,1.72379
574,372,9.69958,-1.4353,-0.00748828,-0.00150791,-0.00400785,0.000502315,-0.00949851,-1.10589,0.00650624,0.0158744,1798,652,9.69956,1.43533
581,372,9.67468,-1.24548,-0.00565824,-0.00138332,-0.00316632,0.000299469,-0.00734104,-1.08229,0.00499684,0.0151059,1805,652,9.67466,1.24548
588,372,9.66565,-1.02502,-0.00393636,-0.00103789,-0.00227848,0.000213197,-0.00518745,-1.06865,0.00353151,0.0165826,1812,652,9.66559,1.02503
595,372,9.65552,-0.777832,-0.0024102,-0.000596248,-0.00146287,0.000217996,-0.00322444,-1.0629,0.00222586,0.0143321,1819,652,9.65551,0.777806
602,372,9.67834,-0.557129,-0.00112409,9.15325e-06,-0.000720746,0.000359339,-0.00147427,-1.11852,0.00112198,0.0144641,1826,652,9.67837,0.557139
609,372,9.65417,-0.321228,-0.000520642,0.00053504,-0.00033154,0.000630525,-0.000616126,-1.29038,0.00071977,0.0143225,1833,652,9.65419,0.3212
616,372,9.63672,-0.0645752,-0.000267426,0.000782276,-0.0002836,0.000853996,-0.000339147,-1.3231,0.000709917,0.0133795,1840,652,9.63669,0.0645821
623,372,9.64453,0.19928,-0.000321386,0.001292,-0.000473378,0.00142064,-0.000450022,-1.30546,0.00112745,0.012137,1847,652,9.64453,-0.199257
630,372,9.65442,0.435608,-0.000699517,0.00181243,-0.00109747,0.00222436,-0.00111145,-1.21172,0.00196133,0.016918,1854,652,9.65443,-0.435592
637,372,9.67517,0.651367,-0.00176232,0.00185695,-0.00217712,0.00287833,-0.00278369,-1.13214,0.00326912,0.0205725,1861,652,9.67517,-0.651385
644,372,9.7135,0.948853,-0.00328524,0.00198368,-0.00371146,0.00390063,-0.00520219,-1.09404,0.00527339,0.0204808,1868,652,9.7135,-0.948857
651,372,9.75562,1.1969,-0.00491876,0.0021429,-0.00565053,0.00527504,-0.0080509,-1.06465,0.00774918,0.0442887,1875,652,9.75566,-1.19689
658,372,9.56616,1.16602,-0.00675953,0.00228434,-0.00812305,0.00705928,-0.0115345,-1.03938,0.0108383,0.0435387,1882,652,9.56614,-1.16603
665,372,9.42651,1.48053,0,0,0,0,0,0,0,-1,1889,652,9.42653,-1.48053
672,372,8.09216,1.5365,0,0,0,0,0,0,0,-1,1896,652,8.0922,-1.53653
679,372,8.78052,2.13696,0,0,0,0,0,0,0,-1,1903,652,8.78057,-2.13695
686,372,8.96912,2.44781,0,0,0,0,0,0,0,-1,1910,652,8.96913,-2.44781
693,372,0,0,0,0,0,0,0,0,0,-1,1917,652,0,0
700,372,0,0,0,0,0,0,0,0,0,-1,1924,652,0,0
707,372,0,0,0,0,0,0,0,0,0,-1,1931,652,0,0
714,372,0,0,0,0,0,0,0,0,0,-1,1938,652,0,0
721,372,0,0,0,0,0,0,0,0,0,-1,1945,652,0,0
728,372,0,0,0,0,0,0,0,0,0,-1,1952,652,0,0
735,372,0,0,0,0,0,0,0,0,0,-1,1959,652,0,0
742,372,0,0,0,0,0,0,0,0,0,-1,1966,652,0,0
749,372,0,0,0,0,0,0,0,0,0,-1,1973,652,0,0
756,372,0,0,0,0,0,0,0,0,0,-1,1980,652,0,0
763,372,0,0,0,0,0,0,0,0,0,-1,1987,652,0,0
770,372,0,0,0,0,0,0,0,0,0,-1,1994,652,0,0
777,372,0,0,0,0,0,0,0,0,0,-1,2001,652,0,0
784,372,0,0,0,0,0,0,0,0,0,-1,2008,652,0,0
791,372,0,0,0,0,0,0,0,0,0,-1,2015,652,0,0
798,372,0,0,0,0,0,0,0,0,0,-1,2022,652,0,0
805,372,0,0,0,0,0,0,0,0,0,-1,2029,652,0,0
812,372,0,0,0,0,0,0,0,0,0,-1,2036,652,0,0
-700,365,0,0,0,0,0,0,0,0,0,-1,524,659,0,0
-693,365,0,0,0,0,0,0,0,0,0,-1,531,659,0,0
-686,365,0,0,0,0,0,0,0,0,0,-1,538,659,0,0
-679,365,0,0,0,0,0,0,0,0,0,-1,545,659,0,0
-672,365,0,0,0,0,0,0,0,0,0,-1,552,659,0,0
-665,365,0,0,0,0,0,0,0,0,0,-1,559,659,0,0
-658,365,0,0,0,0,0,0,0,0,0,-1,566,659,0,0
-651,365,0,0,0,0,0,0,0,0,0,-1,573,659,0,0
-644,365,0,0,0,0,0,0,0,0,0,-1,580,659,0,0
-637,365,0,0,0,0,0,0,0,0,0,-1,587,659,0,0
-630,365,0,0,0,0,0,0,0,0,0,-1,594,659,0,0
-623,365,0,0,0,0,0,0,0,0,0,-1,601,659,0,0
-616,365,0,0,0,0,0,0,0,0,0,-1,608,659,0,0
-609,365,0,0,0,0,0,0,0,0,0,-1,615,659,0,0
-602,365,0,0,0,0,0,0,0,0,0,-1,622,659,0,0
-595,365,0,0,0,0,0,0,0,0,0,-1,629,659,0,0
-588,365,0,0,0,0,0,0,0,0,0,-1,636,659,0,0
-581,365,0,0,0,0,0,0,0,0,0,-1,643,659,0,0
-574,365,-7.34705,0.00750732,0.161524,-0.0303887,-0.000636875,0.161526,-0.0303908,-0.00331852,0.119114,0.0442508,650,659,-7.34707,-0.00752244
-567,365,-6.15277,-0.396423,0.136256,-0.0199391,-0.00190134,0.136279,-0.0199622,-0.0121705,0.0981854,0.0448306,657,659,-6.15279,0.396432
-560,365,-4.94073,1.86115,0,0,0,0,0,0,0,-1,664,659,-4.94073,-1.86116
-553,365,-4.58942,1.46082,0.0958083,-0.00843071,-0.00260156,0.0958731,-0.00849559,-0.024937,0.0669273,0.0493828,671,659,-4.58944,-1.46083
-546,365,-4.24237,1.10187,0.0773968,-0.00495029,-0.00241031,0.0774673,-0.00502078,-0.0292367,0.0533972,0.0493374,678,659,-4.24234,-1.10186
-539,365,-3.90564,0.711731,0.0604328,-0.0020983,-0.00214003,0.0605059,-0.00217145,-0.0341702,0.0410802,0.0483451,685,659,-3.90565,-0.71173
-532,365,-4.8811,-0.209106,0,0,0,0,0,0,0,-1,692,659,-4.88107,0.209137
-525,365,-4.67365,-0.604187,0.0324824,0.00132656,-0.00134598,0.0325404,0.00126852,-0.0430946,0.0212834,0.0409367,699,659,-4.67366,0.604209
-518,365,-4.52271,-1.02032,0.0214445,0.00210452,-0.000917114,0.0214879,0.00206113,-0.0472792,0.0136901,0.0254168,706,659,-4.52268,1.0203
-511,365,-4.63953,-1.19843,0.0120389,0.00283723,-0.000620238,0.0120805,0.00279561,-0.0670008,0.00730244,0.0178402,713,659,-4.63953,1.19845
-504,365,-4.63538,-1.41455,0.005778,0.00285356,-0.000331654,0.00581514,0.00281642,-0.111521,0.00335792,0.0116061,720,659,-4.63539,1.41458
-497,365,-4.62341,-1.63995,0.00230637,0.00199611,4.52787e-05,0.00231284,0.00198964,0.141994,0.00144625,0.0120969,727,659,-4.62342,1.63995
-490,365,-4.62439,-1.83746,0.000369416,0.00129216,0.000138686,0.00131255,0.000349023,1.42479,0.000784996,0.0128725,734,659,-4.62442,1.83745
-483,365,-4.6272,-2.04211,0.00062462,0.000565296,-5.12206e-05,0.000654147,0.000535768,-0.522942,0.000402484,0.0124092,741,659,-4.6272,2.04211
-476,365,-4.60608,-2.25409,0.00119417,0.000474449,-0.000276123,0.0012879,0.00038072,-0.327243,0.000763995,0.0130045,748,659,-4.60605,2.25408
-469,365,-4.61237,-2.47479,0.00153082,0.000424973,-0.000501852,0.00172461,0.000231183,-0.368509,0.00108095,0.0125292,755,659,-4.61237,2.47481
-462,365,-4.6217,-2.69666,0.0017981,0.00055262,-0.000684756,0.00210094,0.000249781,-0.416396,0.00132524,0.0129065,762,659,-4.62168,2.69667
-455,365,-4.62976,-2.91125,0.00193907,0.00064394,-0.000687205,0.00223575,0.000347265,-0.407543,0.00138929,0.0141439,769,659,-4.62975,2.91125
-448,365,-4.56732,-3.18524,0.00188007,0.000605602,-0.000519334,0.0020649,0.000420782,-0.341904,0.00125998,0.0192649,776,659,-4.56733,3.18525
-441,365,-4.6629,-3.45514,0.00120879,0.000232418,3.82804e-05,0.00121029,0.000230919,0.0391266,0.000741963,0.0463726,783,659,-4.66287,3.45512
-434,365,-4.67072,-3.8595,0.000283877,6.76829e-05,0.000928232,0.00111029,-0.000758725,0.727432,0.00108542,0.0478016,790,659,-4.67071,3.85947
-427,365,-4.54102,-3.6795,0,0,0,0,0,0,0,-1,797,659,-4.54103,3.67952
-420,365,-4.58813,-3.16376,0,0,0,0,0,0,0,-1,804,659,-4.58816,3.16374
-413,365,0.141357,0.672729,0,0,0,0,0,0,0,-1,811,659,0.141365,-0.672714
-406,365,-1.75067,-0.934448,0,0,0,0,0,0,0,-1,818,659,-1.7507,0.934424
-399,365,-4.10242,-1.25439,0,0,0,0,0,0,0,-1,825,659,-4.10244,1.25438
-392,365,-7.46545,-0.779724,0,0,0,0,0,0,0,-1,832,659,-7.46543,0.779744
-385,365,-6.27875,-0.887573,0,0,0,0,0,0,0,-1,839,659,-6.27874,0.887545
-378,365,-5.34503,-0.263306,0,0,0,0,0,0,0,-1,846,659,-5.34504,0.263275
-371,365,0,0,0,0,0,0,0,0,0,-1,853,659,0,0
-364,365,0,0,0,0,0,0,0,0,0,-1,860,659,0,0
-357,365,0,0,0,0,0,0,0,0,0,-1,867,659,0,0
-350,365,0,0,0,0,0,0,0,0,0,-1,874,659,0,0
-343,365,0,0,0,0,0,0,0,0,0,-1,881,659,0,0
-336,365,0,0,0,0,0,0,0,0,0,-1,888,659,0,0
-329,365,0,0,0,0,0,0,0,0,0,-1,895,659,0,0
-322,365,0,0,0,0,0,0,0,0,0,-1,902,659,0,0
-315,365,0,0,0,0,0,0,0,0,0,-1,909,659,0,0
-308,365,0,0,0,0,0,0,0,0,0,-1,916,659,0,0
-301,365,0,0,0,0,0,0,0,0,0,-1,923,659,0,0
-294,365,0,0,0,0,0,0,0,0,0,-1,930,659,0,0
-287,365,0,0,0,0,0,0,0,0,0,-1,937,659,0,0
-280,365,0,0,0,0,0,0,0,0,0,-1,944,659,0,0
-273,365,0,0,0,0,0,0,0,0,0,-1,951,659,0,0
-266,365,0,0,0,0,0,0,0,0,0,-1,958,659,0,0
-259,365,0,0,0,0,0,0,0,0,0,-1,965,659,0,0
-252,365,0,0,0,0,0,0,0,0,0,-1,972,659,0,0
-245,365,0,0,0,0,0,0,0,0,0,-1,979,659,0,0
-238,365,0,0,0,0,0,0,0,0,0,-1,986,659,0,0
-231,365,0,0,0,0,0,0,0,0,0,-1,993,659,0,0
-224,365,0,0,0,0,0,0,0,0,0,-1,1000,659,0,0
-217,365,0,0,0,0,0,0,0,0,0,-1,1007,659,0,0
-210,365,0,0,0,0,0,0,0,0,0,-1,1014,659,0,0
-203,365,0,0,0,0,0,0,0,0,0,-1,1021,659,0,0
-196,365,0,0,0,0,0,0,0,0,0,-1,1028,659,0,0
-189,365,0,0,0,0,0,0,0,0,0,-1,1035,659,0,0
-182,365,0,0,0,0,0,0,0,0,0,-1,1042,659,0,0
-175,365,0,0,0,0,0,0,0,0,0,-1,1049,659,0,0
-168,365,0,0,0,0,0,0,0,0,0,-1,1056,659,0,0
-161,365,0,0,0,0,0,0,0,0,0,-1,1063,659,0,0
-154,365,0,0,0,0,0,0,0,0,0,-1,1070,659,0,0
-147,365,0,0,0,0,0,0,0,0,0,-1,1077,659,0,0
-140,365,0,0,0,0,0,0,0,0,0,-1,1084,659,0,0
-133,365,0,0,0,0,0,0,0,0,0,-1,1091,659,0,0
-126,365,0,0,0,0,0,0,0,0,0,-1,1098,659,0,0
-119,365,0,0,0,0,0,0,0,0,0,-1,1105,659,0,0
-112,365,0,0,0,0,0,0,0,0,0,-1,1112,659,0,0
-105,365,0,0,0,0,0,0,0,0,0,-1,1119,659,0,0
-98,365,0,0,0,0,0,0,0,0,0,-1,1126,659,0,0
-91,365,0,0,0,0,0,0,0,0,0,-1,1133,659,0,0
-84,365,0,0,0,0,0,0,0,0,0,-1,1140,659,0,0
-77,365,0,0,0,0,0,0,0,0,0,-1,1147,659,0,0
-70,365,0,0,0,0,0,0,0,0,0,-1,1154,659,0,0
-63,365,0,0,0,0,0,0,0,0,0,-1,1161,659,0,0
-56,365,0,0,0,0,0,0,0,0,0,-1,1168,659,0,0
-49,365,0,0,0,0,0,0,0,0,0,-1,1175,659,0,0
-42,365,0,0,0,0,0,0,0,0,0,-1,1182,659,0,0
-35,365,0,0,0,0,0,0,0,0,0,-1,1189,659,0,0
-28,365,0,0,0,0,0,0,0,0,0,-1,1196,659,0,0
-21,365,0,0,0,0,0,0,0,0,0,-1,1203,659,0,0
-14,365,0,0,0,0,0,0,0,0,0,-1,1210,659,0,0
-7,365,0,0,0,0,0,0,0,0,0,-1,1217,659,0,0
0,365,0,0,0,0,0,0,0,0,0,-1,1224,659,0,0
7,365,0,0,0,0,0,0,0,0,0,-1,1231,659,0,0
14,365,0,0,0,0,0,0,0,0,0,-1,1238,659,0,0
21,365,0,0,0,0,0,0,0,0,0,-1,1245,659,0,0
28,365,0,0,0,0,0,0,0,0,0,-1,1252,659,0,0
35,365,0,0,0,0,0,0,0,0,0,-1,1259,659,0,0
42,365,0,0,0,0,0,0,0,0,0,-1,1266,659,0,0
49,365,0,0,0,0,0,0,0,0,0,-1,1273,659,0,0
56,365,0,0,0,0,0,0,0,0,0,-1,1280,659,0,0
63,365,0,0,0,0,0,0,0,0,0,-1,1287,659,0,0
70,365,0,0,0,0,0,0,0,0,0,-1,1294,659,0,0
77,365,0,0,0,0,0,0,0,0,0,-1,1301,659,0,0
84,365,0,0,0,0,0,0,0,0,0,-1,1308,659,0,0
91,365,0,0,0,0,0,0,0,0,0,-1,1315,659,0,0
98,365,0,0,0,0,0,0,0,0,0,-1,1322,659,0,0
105,365,0,0,0,0,0,0,0,0,0,-1,1329,659,0,0
112,365,0,0,0,0,0,0,0,0,0,-1,1336,659,0,0
119,365,0,0,0,0,0,0,0,0,0,-1,1343,659,0,0
126,365,0,0,0,0,0,0,0,0,0,-1,1350,659,0,0
133,365,0,0,0,0,0,0,0,0,0,-1,1357,659,0,0
140,365,0,0,0,0,0,0,0,0,0,-1,1364,659,0,0
147,365,0,0,0,0,0,0,0,0,0,-1,1371,659,0,0
154,365,0,0,0,0,0,0,0,0,0,-1,1378,659,0,0
161,365,0,0,0,0,0,0,0,0,0,-1,1385,659,0,0
168,365,0,0,0,0,0,0,0,0,0,-1,1392,659,0,0
175,365,0,0,0,0,0,0,0,0,0,-1,1399,659,0,0
182,365,0,0,0,0,0,0,0,0,0,-1,1406,659,0,0
189,365,0,0,0,0,0,0,0,0,0,-1,1413,659,0,0
196,365,0,0,0,0,0,0,0,0,0,-1,1420,659,0,0
203,365,0,0,0,0,0,0,0,0,0,-1,1427,659,0,0
210,365,0,0,0,0,0,0,0,0,0,-1,1434,659,0,0
217,365,0,0,0,0,0,0,0,0,0,-1,1441,659,0,0
224,365,0,0,0,0,0,0,0,0,0,-1,1448,659,0,0
231,365,0,0,0,0,0,0,0,0,0,-1,1455,659,0,0
238,365,0,0,0,0,0,0,0,0,0,-1,1462,659,0,0
245,365,0,0,0,0,0,0,0,0,0,-1,1469,659,0,0
252,365,0,0,0,0,0,0,0,0,0,-1,1476,659,0,0
259,365,0,0,0,0,0,0,0,0,0,-1,1483,659,0,0
266,365,0,0,0,0,0,0,0,0,0,-1,1490,659,0,0
273,365,0,0,0,0,0,0,0,0,0,-1,1497,659,0,0
280,365,0,0,0,0,0,0,0,0,0,-1,1504,659,0,0
287,365,0,0,0,0,0,0,0,0,0,-1,1511,659,0,0
294,365,0,0,0,0,0,0,0,0,0,-1,1518,659,0,0
301,365,0,0,0,0,0,0,0,0,0,-1,1525,659,0,0
308,365,0,0,0,0,0,0,0,0,0,-1,1532,659,0,0
315,365,0,0,0,0,0,0,0,0,0,-1,1539,659,0,0
322,365,0,0,0,0,0,0,0,0,0,-1,1546,659,0,0
329,365,0,0,0,0,0,0,0,0,0,-1,1553,659,0,0
336,365,0,0,0,0,0,0,0,0,0,-1,1560,659,0,0
343,365,0,0,0,0,0,0,0,0,0,-1,1567,659,0,0
350,365,0,0,0,0,0,0,0,0,0,-1,1574,659,0,0
357,365,0,0,0,0,0,0,0,0,0,-1,1581,659,0,0
364,365,0,0,0,0,0,0,0,0,0,-1,1588,659,0,0
371,365,0,0,0,0,0,0,0,0,0,-1,1595,659,0,0
378,365,0,0,0,0,0,0,0,0,0,-1,1602,659,0,0
385,365,0,0,0,0,0,0,0,0,0,-1,1609,659,0,0
392,365,0,0,0,0,0,0,0,0,0,-1,1616,659,0,0
399,365,0,0,0,0,0,0,0,0,0,-1,1623,659,0,0
406,365,0,0,0,0,0,0,0,0,0,-1,1630,659,0,0
413,365,0,0,0,0,0,0,0,0,0,-1,1637,659,0,0
420,365,0,0,0,0,0,0,0,0,0,-1,1644,659,0,0
427,365,0,0,0,0,0,0,0,0,0,-1,1651,659,0,0
434,365,0,0,0,0,0,0,0,0,0,-1,1658,659,0,0
441,365,0,0,0,0,0,0,0,0,0,-1,1665,659,0,0
448,365,0,0,0,0,0,0,0,0,0,-1,1672,659,0,0
455,365,0,0,0,0,0,0,0,0,0,-1,1679,659,0,0
462,365,0,0,0,0,0,0,0,0,0,-1,1686,659,0,0
469,365,0,0,0,0,0,0,0,0,0,-1,1693,659,0,0
476,365,0,0,0,0,0,0,0,0,0,-1,1700,659,0,0
483,365,0,0,0,0,0,0,0,0,0,-1,1707,659,0,0
490,365,8.39551,0.471252,0,0,0,0,0,0,0,-1,1714,659,8.39551,-0.471241
497,365,9.89233,1.35394,0,0,0,0,0,0,0,-1,1721,659,9.89237,-1.35396
504,365,10.1414,1.18005,0,0,0,0,0,0,0,-1,1728,659,10.1413,-1.18004
511,365,10.5151,0.993896,0,0,0,0,0,0,0,-1,1735,659,10.5152,-0.993894
518,365,11.2029,0.398132,0,0,0,0,0,0,0,-1,1742,659,11.2029,-0.398136
525,365,15.5748,3.85303,0,0,0,0,0,0,0,-1,1749,659,15.5748,-3.85303
532,365,11.2446,1.00629,0,0,0,0,0,0,0,-1,1756,659,11.2446,-1.00631
539,365,12.6301,1.03204,0,0,0,0,0,0,0,-1,1763,659,12.6302,-1.03204
546,365,11.647,0.84198,0,0,0,0,0,0,0,-1,1770,659,11.6469,-0.841955
553,365,12.028,-0.558899,0,0,0,0,0,0,0,-1,1777,659,12.028,0.558873
560,365,10.0043,-2.83057,0,0,0,0,0,0,0,-1,1784,659,10.0043,2.83054
567,365,10.1606,-1.75903,0,0,0,0,0,0,0,-1,1791,659,10.1606,1.75905
574,365,10.1097,-1.5119,-0.00984326,-0.0023049,-0.00520772,0.000354529,-0.0125027,-1.09865,0.00845578,0.0358612,1798,659,10.1098,1.5119
581,365,9.92224,-1.28192,-0.00747538,-0.00219747,-0.00415319,8.42502e-05,-0.0097571,-1.06842,0.006533,0.0184854,1805,659,9.9223,1.28194
588,365,9.89709,-1.02979,-0.00527135,-0.00180927,-0.00305129,-3.21926e-05,-0.00704843,-1.04342,0.00468826,0.0130511,1812,659,9.89714,1.02979
595,365,9.9093,-0.757263,-0.00342642,-0.00127248,-0.00204677,-3.66273e-05,-0.00466227,-1.02758,0.00309604,0.0135992,1819,659,9.9093,0.757233
602,365,9.91174,-0.522217,-0.00189273,-0.00063727,-0.00118232,7.363e-05,-0.00260363,-1.02944,0.00176081,0.0151752,1826,659,9.9117,0.522197
609,365,9.88855,-0.288208,-0.00105084,-8.18855e-05,-0.000677138,0.000266245,-0.00139897,-1.09592,0.00103289,0.0151598,1833,659,9.88853,0.288189
616,365,9.89514,-0.0507813,-0.00066969,0.000117018,-0.000589004,0.000431939,-0.000984611,-1.0798,0.000838337,0.0151887,1840,659,9.8952,0.0508065
623,365,9.91003,0.17981,-0.000655603,0.000600114,-0.000740337,0.000942979,-0.000998469,-1.13708,0.00112105,0.0107401,1847,659,9.91007,-0.179818
630,365,9.90967,0.424255,-0.000951482,0.00105409,-0.00129846,0.00169191,-0.0015893,-1.11421,0.00189471,0.0156447,1854,659,9.90967,-0.424231
637,365,9.9115,0.644775,-0.00178213,0.00112421,-0.00221189,0.00231758,-0.0029755,-1.07603,0.00306382,0.0217689,1861,659,9.91145,-0.644787
644,365,9.92786,0.886597,-0.00310636,0.00112279,-0.0036255,0.00320532,-0.00518889,-1.0494,0.00489129,0.0150455,1868,659,9.92784,-0.886586
651,365,10.0159,1.13312,-0.0045499,0.00110238,-0.00540217,0.004373,-0.00782052,-1.0264,0.00713311,0.0274447,1875,659,10.0159,-1.13312
658,365,9.6709,0.981995,-0.006091,0.00101089,-0.0075985,0.00584722,-0.0109273,-1.00398,0.00983171,0.0419394,1882,659,9.67087,-0.981969
665,365,9.28625,1.4491,0,0,0,0,0,0,0,-1,1889,659,9.28624,-1.44909
672,365,9.08179,1.95148,0,0,0,0,0,0,0,-1,1896,659,9.08183,-1.95146
679,365,8.83984,2.01807,0,0,0,0,0,0,0,-1,1903,659,8.83989,-2.01806
686,365,9.10181,2.29803,0,0,0,0,0,0,0,-1,1910,659,9.10176,-2.29803
693,365,15.7997,-3.09222,0,0,0,0,0,0,0,-1,1917,659,15.7997,3.09224
700,365,0,0,0,0,0,0,0,0,0,-1,1924,659,0,0
707,365,0,0,0,0,0,0,0,0,0,-1,1931,659,0,0
714,365,0,0,0,0,0,0,0,0,0,-1,1938,659,0,0
721,365,0,0,0,0,0,0,0,0,0,-1,1945,659,0,0
728,365,0,0,0,0,0,0,0,0,0,-1,1952,659,0,0
735,365,0,0,0,0,0,0,0,0,0,-1,1959,659,0,0
742,365,0,0,0,0,0,0,0,0,0,-1,1966,659,0,0
749,365,0,0,0,0,0,0,0,0,0,-1,1973,659,0,0
756,365,0,0,0,0,0,0,0,0,0,-1,1980,659,0,0
763,365,0,0,0,0,0,0,0,0,0,-1,1987,659,0,0
770,365,0,0,0,0,0,0,0,0,0,-1,1994,659,0,0
777,365,0,0,0,0,0,0,0,0,0,-1,2001,659,0,0
784,365,0,0,0,0,0,0,0,0,0,-1,2008,659,0,0
791,365,0,0,0,0,0,0,0,0,0,-1,2015,659,0,0
798,365,0,0,0,0,0,0,0,0,0,-1,2022,659,0,0
805,365,0,0,0,0,0,0,0,0,0,-1,2029,659,0,0
812,365,0,0,0,0,0,0,0,0,0,-1,2036,659,0,0
-700,358,0,0,0,0,0,0,0,0,0,-1,524,666,0,0
-693,358,0,0,0,0,0,0,0,0,0,-1,531,666,0,0
-686,358,0,0,0,0,0,0,0,0,0,-1,538,666,0,0
-679,358,0,0,0,0,0,0,0,0,0,-1,545,666,0,0
-672,358,0,0,0,0,0,0,0,0,0,-1,552,666,0,0
-665,358,0,0,0,0,0,0,0,0,0,-1,559,666,0,0
-658,358,0,0,0,0,0,0,0,0,0,-1,566,666,0,0
-651,358,0,0,0,0,0,0,0,0,0,-1,573,666,0,0
-644,358,0,0,0,0,0,0,0,0,0,-1,580,666,0,0
-637,358,0,0,0,0,0,0,0,0,0,-1,587,666,0,0
-630,358,0,0,0,0,0,0,0,0,0,-1,594,666,0,0
-623,358,0,0,0,0,0,0,0,0,0,-1,601,666,0,0
-616,358,0,0,0,0,0,0,0,0,0,-1,608,666,0,0
-609,358,0,0,0,0,0,0,0,0,0,-1,615,666,0,0
-602,358,0,0,0,0,0,0,0,0,0,-1,622,666,0,0
-595,358,0,0,0,0,0,0,0,0,0,-1,629,666,0,0
-588,358,0,0,0,0,0,0,0,0,0,-1,636,666,0,0
-581,358,-8.68872,1.17175,0,0,0,0,0,0,0,-1,643,666,-8.6887,-1.17175
-574,358,-7.63171,0.106201,0,0,0,0,0,0,0,-1,650,666,-7.63172,-0.10623
-567,358,-4.94379,2.17334,0,0,0,0,0,0,0,-1,657,666,-4.94379,-2.17332
-560,358,-4.70111,1.66168,0,0,0,0,0,0,0,-1,664,666,-4.70112,-1.66171
-553,358,-4.45581,1.17755,0.0769512,-0.0026062,-0.00350589,0.0771054,-0.0027604,-0.0439539,0.052348,0.0469995,671,666,-4.45584,-1.17756
-546,358,-4.43573,0.840454,0.0611718,0.000180383,-0.00319962,0.0613392,1.29901e-05,-0.0522689,0.0408885,0.0471243,678,666,-4.4357,-0.840479
-539,358,-4.39801,0.32666,0.0470274,0.00197232,-0.00276255,0.0471961,0.00180356,-0.0610103,0.0308805,0.0467486,685,666,-4.39801,-0.326645
-532,358,-4.7572,-0.156738,0.0348142,0.00297129,-0.00224755,0.0349721,0.00281344,-0.0701189,0.0224358,0.0399671,692,666,-4.75718,0.156709
-525,358,-4.76892,-0.785645,0.0246222,0.00334821,-0.00170019,0.0247572,0.00321319,-0.0792486,0.0155448,0.0288075,699,666,-4.76893,0.785674
-518,358,-4.77228,-0.916443,0.0159986,0.00332067,-0.00119691,0.0161106,0.00320866,-0.0933102,0.00984667,0.0244174,706,666,-4.77226,0.91643
-511,358,-4.84106,-1.18744,0.00881079,0.00332319,-0.000822442,0.0089314,0.00320258,-0.145612,0.00522485,0.0141542,713,666,-4.84104,1.18745
-504,358,-4.84924,-1.41046,0.0043666,0.00281131,-0.00047597,0.0045007,0.00267721,-0.274622,0.00261401,0.0110553,720,666,-4.84925,1.41049
-497,358,-4.84607,-1.63135,0.0020158,0.00178852,-0.000159462,0.00209797,0.00170635,-0.475815,0.00128811,0.0108412,727,666,-4.84606,1.63134
-490,358,-4.83337,-1.82733,0.000801175,0.000941013,-0.000108489,0.00100016,0.000742026,-1.07164,0.000599548,0.00995209,734,666,-4.83339,1.82736
-483,358,-4.83722,-2.03467,0.00115274,0.000414474,-0.00030514,0.00126253,0.000304682,-0.345388,0.000760745,0.00940303,741,666,-4.83723,2.03465
-476,358,-4.8172,-2.24878,0.00176026,0.000423079,-0.000567668,0.00196874,0.000214594,-0.351972,0.00124713,0.0105674,748,666,-4.81723,2.24876
-469,358,-4.81818,-2.46637,0.00223569,0.000491673,-0.00086168,0.00258961,0.000137757,-0.38972,0.00168237,0.013045,755,666,-4.81815,2.46637
-462,358,-4.8468,-2.69971,0.00255377,0.000707113,-0.00109191,0.0030604,0.000200476,-0.434429,0.00197683,0.0157853,762,666,-4.84682,2.69972
-455,358,-4.81964,-2.93744,0.00269176,0.000960564,-0.00113988,0.00325745,0.000394877,-0.460659,0.00205271,0.0204936,769,666,-4.81962,2.93744
-448,358,-4.63428,-3.21136,0.00264569,0.00118108,-0.00103674,0.00318267,0.000644093,-0.477908,0.001943,0.0493024,776,666,-4.63428,3.21138
-441,358,-4.4718,-3.35382,0,0,0,0,0,0,0,-1,783,666,-4.47181,3.3538
-434,358,-4.87573,-4.3924,0,0,0,0,0,0,0,-1,790,666,-4.87576,4.3924
-427,358,-3.56189,-3.15729,0,0,0,0,0,0,0,-1,797,666,-3.56192,3.15729
-420,358,0.200195,1.08234,0,0,0,0,0,0,0,-1,804,666,0.200174,-1.08231
-413,358,0.0325317,0.161072,0,0,0,0,0,0,0,-1,811,666,0.0325501,-0.161098
-406,358,-3.85846,0.753113,0,0,0,0,0,0,0,-1,818,666,-3.85846,-0.753129
-399,358,-1.31213,0.190735,0,0,0,0,0,0,0,-1,825,666,-1.31215,-0.190763
-392,358,-3.73914,-0.832214,0,0,0,0,0,0,0,-1,832,666,-3.73915,0.832202
-385,358,-5.95178,-1.69141,0,0,0,0,0,0,0,-1,839,666,-5.9518,1.69143
-378,358,0,0,0,0,0,0,0,0,0,-1,846,666,0,0
-371,358,0,0,0,0,0,0,0,0,0,-1,853,666,0,0
-364,358,0,0,0,0,0,0,0,0,0,-1,860,666,0,0
-357,358,0,0,0,0,0,0,0,0,0,-1,867,666,0,0
-350,358,0,0,0,0,0,0,0,0,0,-1,874,666,0,0
-343,358,0,0,0,0,0,0,0,0,0,-1,881,666,0,0
-336,358,0,0,0,0,0,0,0,0,0,-1,888,666,0,0
-329,358,0,0,0,0,0,0,0,0,0,-1,895,666,0,0
-322,358,0,0,0,0,0,0,0,0,0,-1,902,666,0,0
-315,358,0,0,0,0,0,0,0,0,0,-1,909,666,0,0
-308,358,0,0,0,0,0,0,0,0,0,-1,916,666,0,0
-301,358,0,0,0,0,0,0,0,0,0,-1,923,666,0,0
-294,358,0,0,0,0,0,0,0,0,0,-1,930,666,0,0
-287,358,0,0,0,0,0,0,0,0,0,-1,937,666,0,0
-280,358,0,0,0,0,0,0,0,0,0,-1,944,666,0,0
-273,358,0,0,0,0,0,0,0,0,0,-1,951,666,0,0
-266,358,0,0,0,0,0,0,0,0,0,-1,958,666,0,0
-259,358,0,0,0,0,0,0,0,0,0,-1,965,666,0,0
-252,358,0,0,0,0,0,0,0,0,0,-1,972,666,0,0
-245,358,0,0,0,0,0,0,0,0,0,-1,979,666,0,0
-238,358,0,0,0,0,0,0,0,0,0,-1,986,666,0,0
-231,358,0,0,0,0,0,0,0,0,0,-1,993,666,0,0
-224,358,0,0,0,0,0,0,0,0,0,-1,1000,666,0,0
-217,358,0,0,0,0,0,0,0,0,0,-1,1007,666,0,0
-210,358,0,0,0,0,0,0,0,0,0,-1,1014,666,0,0
-203,358,0,0,0,0,0,0,0,0,0,-1,1021,666,0,0
-196,358,0,0,0,0,0,0,0,0,0,-1,1028,666,0,0
-189,358,0,0,0,0,0,0,0,0,0,-1,1035,666,0,0
-182,358,0,0,0,0,0,0,0,0,0,-1,1042,666,0,0
-175,358,0,0,0,0,0,0,0,0,0,-1,1049,666,0,0
-168,358,0,0,0,0,0,0,0,0,0,-1,1056,666,0,0
-161,358,0,0,0,0,0,0,0,0,0,-1,1063,666,0,0
-154,358,0,0,0,0,0,0,0,0,0,-1,1070,666,0,0
-147,358,0,0,0,0,0,0,0,0,0,-1,1077,666,0,0
-140,358,0,0,0,0,0,0,0,0,0,-1,1084,666,0,0
-133,358,0,0,0,0,0,0,0,0,0,-1,1091,666,0,0
-126,358,0,0,0,0,0,0,0,0,0,-1,1098,666,0,0
-119,358,0,0,0,0,0,0,0,0,0,-1,1105,666,0,0
-112,358,0,0,0,0,0,0,0,0,0,-1,1112,666,0,0
-105,358,0,0,0,0,0,0,0,0,0,-1,1119,666,0,0
-98,358,0,0,0,0,0,0,0,0,0,-1,1126,666,0,0
-91,358,0,0,0,0,0,0,0,0,0,-1,1133,666,0,0
-84,358,0,0,0,0,0,0,0,0,0,-1,1140,666,0,0
-77,358,0,0,0,0,0,0,0,0,0,-1,1147,666,0,0
-70,358,0,0,0,0,0,0,0,0,0,-1,1154,666,0,0
-63,358,0,0,0,0,0,0,0,0,0,-1,1161,666,0,0
-56,358,0,0,0,0,0,0,0,0,0,-1,1168,666,0,0
-49,358,0,0,0,0,0,0,0,0,0,-1,1175,666,0,0
-42,358,0,0,0,0,0,0,0,0,0,-1,1182,666,0,0
-35,358,0,0,0,0,0,0,0,0,0,-1,1189,666,0,0
-28,358,0,0,0,0,0,0,0,0,0,-1,1196,666,0,0
-21,358,0,0,0,0,0,0,0,0,0,-1,1203,666,0,0
-14,358,0,0,0,0,0,0,0,0,0,-1,1210,666,0,0
-7,358,0,0,0,0,0,0,0,0,0,-1,1217,666,0,0
0,358,0,0,0,0,0,0,0,0,0,-1,1224,666,0,0
7,358,0,0,0,0,0,0,0,0,0,-1,1231,666,0,0
14,358,0,0,0,0,0,0,0,0,0,-1,1238,666,0,0
21,358,0,0,0,0,0,0,0,0,0,-1,1245,666,0,0
28,358,0,0,0,0,0,0,0,0,0,-1,1252,666,0,0
35,358,0,0,0,0,0,0,0,0,0,-1,1259,666,0,0
42,358,0,0,0,0,0,0,0,0,0,-1,1266,666,0,0
49,358,0,0,0,0,0,0,0,0,0,-1,1273,666,0,0
56,358,0,0,0,0,0,0,0,0,0,-1,1280,666,0,0
63,358,0,0,0,0,0,0,0,0,0,-1,1287,666,0,0
70,358,0,0,0,0,0,0,0,0,0,-1,1294,666,0,0
77,358,0,0,0,0,0,0,0,0,0,-1,1301,666,0,0
84,358,0,0,0,0,0,0,0,0,0,-1,1308,666,0,0
91,358,0,0,0,0,0,0,0,0,0,-1,1315,666,0,0
98,358,0,0,0,0,0,0,0,0,0,-1,1322,666,0,0
105,358,0,0,0,0,0,0,0,0,0,-1,1329,666,0,0
112,358,0,0,0,0,0,0,0,0,0,-1,1336,666,0,0
119,358,0,0,0,0,0,0,0,0,0,-1,1343,666,0,0
126,358,0,0,0,0,0,0,0,0,0,-1,1350,666,0,0
133,358,0,0,0,0,0,0,0,0,0,-1,1357,666,0,0
140,358,0,0,0,0,0,0,0,0,0,-1,1364,666,0,0
147,358,0,0,0,0,0,0,0,0,0,-1,1371,666,0,0
154,358,0,0,0,0,0,0,0,0,0,-1,1378,666,0,0
161,358,0,0,0,0,0,0,0,0,0,-1,1385,666,0,0
168,358,0,0,0,0,0,0,0,0,0,-1,1392,666,0,0
175,358,0,0,0,0,0,0,0,0,0,-1,1399,666,0,0
182,358,0,0,0,0,0,0,0,0,0,-1,1406,666,0,0
189,358,0,0,0,0,0,0,0,0,0,-1,1413,666,0,0
196,358,0,0,0,0,0,0,0,0,0,-1,1420,666,0,0
203,358,0,0,0,0,0,0,0,0,0,-1,1427,666,0,0
210,358,0,0,0,0,0,0,0,0,0,-1,1434,666,0,0
217,358,0,0,0,0,0,0,0,0,0,-1,1441,666,0,0
224,358,0,0,0,0,0,0,0,0,0,-1,1448,666,0,0
231,358,0,0,0,0,0,0,0,0,0,-1,1455,666,0,0
238,358,0,0,0,0,0,0,0,0,0,-1,1462,666,0,0
245,358,0,0,0,0,0,0,0,0,0,-1,1469,666,0,0
252,358,0,0,0,0,0,0,0,0,0,-1,1476,666,0,0
259,358,0,0,0,0,0,0,0,0,0,-1,1483,666,0,0
266,358,0,0,0,0,0,0,0,0,0,-1,1490,666,0,0
273,358,0,0,0,0,0,0,0,0,0,-1,1497,666,0,0
280,358,0,0,0,0,0,0,0,0,0,-1,1504,666,0,0
287,358,0,0,0,0,0,0,0,0,0,-1,1511,666,0,0
294,358,0,0,0,0,0,0,0,0,0,-1,1518,666,0,0
301,358,0,0,0,0,0,0,0,0,0,-1,1525,666,0,0
308,358,0,0,0,0,0,0,0,0,0,-1,1532,666,0,0
315,358,0,0,0,0,0,0,0,0,0,-1,1539,666,0,0
322,358,0,0,0,0,0,0,0,0,0,-1,1546,666,0,0
329,358,0,0,0,0,0,0,0,0,0,-1,1553,666,0,0
336,358,0,0,0,0,0,0,0,0,0,-1,1560,666,0,0
343,358,0,0,0,0,0,0,0,0,0,-1,1567,666,0,0
350,358,0,0,0,0,0,0,0,0,0,-1,1574,666,0,0
357,358,0,0,0,0,0,0,0,0,0,-1,1581,666,0,0
364,358,0,0,0,0,0,0,0,0,0,-1,1588,666,0,0
371,358,0,0,0,0,0,0,0,0,0,-1,1595,666,0,0
378,358,0,0,0,0,0,0,0,0,0,-1,1602,666,0,0
385,358,0,0,0,0,0,0,0,0,0,-1,1609,666,0,0
392,358,0,0,0,0,0,0,0,0,0,-1,1616,666,0,0
399,358,0,0,0,0,0,0,0,0,0,-1,1623,666,0,0
406,358,0,0,0,0,0,0,0,0,0,-1,1630,666,0,0
413,358,0,0,0,0,0,0,0,0,0,-1,1637,666,0,0
420,358,0,0,0,0,0,0,0,0,0,-1,1644,666,0,0
427,358,0,0,0,0,0,0,0,0,0,-1,1651,666,0,0
434,358,0,0,0,0,0,0,0,0,0,-1,1658,666,0,0
441,358,0,0,0,0,0,0,0,0,0,-1,1665,666,0,0
448,358,0,0,0,0,0,0,0,0,0,-1,1672,666,0,0
455,358,0,0,0,0,0,0,0,0,0,-1,1679,666,0,0
462,358,0,0,0,0,0,0,0,0,0,-1,1686,666,0,0
469,358,0,0,0,0,0,0,0,0,0,-1,1693,666,0,0
476,358,0,0,0,0,0,0,0,0,0,-1,1700,666,0,0
483,358,0,0,0,0,0,0,0,0,0,-1,1707,666,0,0
490,358,0,0,0,0,0,0,0,0,0,-1,1714,666,0,0
497,358,8.57239,1.1322,0,0,0,0,0,0,0,-1,1721,666,8.57234,-1.13219
504,358,10.5972,0.832947,0,0,0,0,0,0,0,-1,1728,666,10.5972,-0.832968
511,358,10.6873,0.868469,0,0,0,0,0,0,0,-1,1735,666,10.6872,-0.868484
518,358,16.5884,2.34894,0,0,0,0,0,0,0,-1,1742,666,16.5884,-2.34894
525,358,15.7626,3.65344,0,0,0,0,0,0,0,-1,1749,666,15.7626,-3.65342
532,358,14.9368,4.95789,0,0,0,0,0,0,0,-1,1756,666,14.9367,-4.9579
539,358,15.1597,3.42694,0,0,0,0,0,0,0,-1,1763,666,15.1597,-3.42692
546,358,12.3792,1.53558,0,0,0,0,0,0,0,-1,1770,666,12.3792,-1.5356
553,358,11.6584,1.26172,0,0,0,0,0,0,0,-1,1777,666,11.6585,-1.26175
560,358,10.8234,1.43042,0,0,0,0,0,0,0,-1,1784,666,10.8233,-1.43041
567,358,10.1333,-0.955139,0,0,0,0,0,0,0,-1,1791,666,10.1333,0.955132
574,358,10.5339,-1.66681,0,0,0,0,0,0,0,-1,1798,666,10.5339,1.66684
581,358,10.2554,-1.22461,-0.00927208,-0.00321517,-0.00514059,-0.000277287,-0.01221,-1.05159,0.00804914,0.0296175,1805,666,10.2554,1.22462
588,358,10.0946,-1.03748,-0.00656044,-0.00271765,-0.00378782,-0.00039177,-0.00888632,-1.02012,0.00579804,0.0162405,1812,666,10.0945,1.03746
595,358,10.1345,-0.762146,-0.00436016,-0.00202363,-0.00255462,-0.000382816,-0.00600098,-0.999859,0.00387935,0.0126197,1819,666,10.1345,0.762175
602,358,10.1298,-0.506409,-0.00254074,-0.00132601,-0.00154697,-0.000271449,-0.00359531,-0.97246,0.00231171,0.0127833,1826,666,10.1297,0.506411
609,358,10.1128,-0.286621,-0.00140722,-0.000699588,-0.000899939,-8.64112e-05,-0.0020204,-0.972695,0.00131907,0.0154636,1833,666,10.1128,0.286627
616,358,10.1161,-0.0482788,-0.000871818,-0.000485094,-0.000739012,8.54335e-05,-0.00144235,-0.913354,0.000991269,0.0146049,1840,666,10.1161,0.0483058
623,358,10.1334,0.180115,-0.000777011,1.28127e-06,-0.000828025,0.000527045,-0.00130277,-1.00507,0.00108763,0.0136519,1847,666,10.1334,-0.180127
630,358,10.139,0.416992,-0.000985145,0.000417143,-0.00130276,0.00119546,-0.00176346,-1.03227,0.00171879,0.0168332,1854,666,10.1391,-0.416996
637,358,10.1464,0.6651,-0.0016027,0.000533387,-0.0020492,0.00177617,-0.00284549,-1.02563,0.00269202,0.0240979,1861,666,10.1464,-0.665114
644,358,10.155,0.897583,-0.00265118,0.000448899,-0.0033177,0.00256079,-0.00476307,-1.00393,0.00429168,0.0200604,1868,666,10.155,-0.897574
651,358,10.1929,1.17517,-0.00386176,0.000299693,-0.00491232,0.00355379,-0.00711585,-0.985729,0.00627351,0.0203873,1875,666,10.1929,-1.17516
658,358,9.95972,1.31018,-0.00506307,4.0229e-05,-0.00683024,0.00477988,-0.00980272,-0.964161,0.00858413,0.0336911,1882,666,9.95966,-1.31016
665,358,9.70007,1.45917,-0.00601449,-0.000418594,-0.00910538,0.00630902,-0.0127421,-0.934462,0.0112063,0.0441469,1889,666,9.70006,-1.45915
672,358,9.81262,2.09137,0,0,0,0,0,0,0,-1,1896,666,9.81259,-2.09137
679,358,9.95349,2.20367,0,0,0,0,0,0,0,-1,1903,666,9.95353,-2.20368
686,358,10.7699,2.43762,0,0,0,0,0,0,0,-1,1910,666,10.7699,-2.43763
693,358,14.6539,-2.62823,0,0,0,0,0,0,0,-1,1917,666,14.6539,2.62825
700,358,0,0,0,0,0,0,0,0,0,-1,1924,666,0,0
707,358,0,0,0,0,0,0,0,0,0,-1,1931,666,0,0
714,358,0,0,0,0,0,0,0,0,0,-1,1938,666,0,0
721,358,0,0,0,0,0,0,0,0,0,-1,1945,666,0,0
728,358,0,0,0,0,0,0,0,0,0,-1,1952,666,0,0
735,358,0,0,0,0,0,0,0,0,0,-1,1959,666,0,0
742,358,0,0,0,0,0,0,0,0,0,-1,1966,666,0,0
749,358,0,0,0,0,0,0,0,0,0,-1,1973,666,0,0
756,358,0,0,0,0,0,0,0,0,0,-1,1980,666,0,0
763,358,0,0,0,0,0,0,0,0,0,-1,1987,666,0,0
770,358,0,0,0,0,0,0,0,0,0,-1,1994,666,0,0
777,358,0,0,0,0,0,0,0,0,0,-1,2001,666,0,0
784,358,0,0,0,0,0,0,0,0,0,-1,2008,666,0,0
791,358,0,0,0,0,0,0,0,0,0,-1,2015,666,0,0
798,358,0,0,0,0,0,0,0,0,0,-1,2022,666,0,0
805,358,0,0,0,0,0,0,0,0,0,-1,2029,666,0,0
812,358,0,0,0,0,0,0,0,0,0,-1,2036,666,0,0
-700,351,0,0,0,0,0,0,0,0,0,-1,524,673,0,0
-693,351,0,0,0,0,0,0,0,0,0,-1,531,673,0,0
-686,351,0,0,0,0,0,0,0,0,0,-1,538,673,0,0
-679,351,0,0,0,0,0,0,0,0,0,-1,545,673,0,0
-672,351,0,0,0,0,0,0,0,0,0,-1,552,673,0,0
-665,351,0,0,0,0,0,0,0,0,0,-1,559,673,0,0
-658,351,0,0,0,0,0,0,0,0,0,-1,566,673,0,0
-651,351,0,0,0,0,0,0,0,0,0,-1,573,673,0,0
-644,351,0,0,0,0,0,0,0,0,0,-1,580,673,0,0
-637,351,0,0,0,0,0,0,0,0,0,-1,587,673,0,0
-630,351,0,0,0,0,0,0,0,0,0,-1,594,673,0,0
-623,351,0,0,0,0,0,0,0,0,0,-1,601,673,0,0
-616,351,0,0,0,0,0,0,0,0,0,-1,608,673,0,0
-609,351,0,0,0,0,0,0,0,0,0,-1,615,673,0,0
-602,351,0,0,0,0,0,0,0,0,0,-1,622,673,0,0
-595,351,0,0,0,0,0,0,0,0,0,-1,629,673,0,0
-588,351,0,0,0,0,0,0,0,0,0,-1,636,673,0,0
-581,351,-8.3031,1.23853,0,0,0,0,0,0,0,-1,643,673,-8.30309,-1.23853
-574,351,-7.42236,0.50293,0,0,0,0,0,0,0,-1,650,673,-7.42234,-0.502907
-567,351,-5.99054,-0.453552,0,0,0,0,0,0,0,-1,657,673,-5.99057,0.453546
-560,351,-4.65961,1.64001,0,0,0,0,0,0,0,-1,664,673,-4.65961,-1.64001
-553,351,-5.21796,0.269165,0,0,0,0,0,0,0,-1,671,673,-5.21798,-0.269189
-546,351,-4.99304,0.408813,0.0458769,0.00343,-0.00316427,0.0461114,0.00319541,-0.0740015,0.0297331,0.0451519,678,673,-4.99304,-0.4088
-539,351,-4.92999,-0.100403,0.0347204,0.00451369,-0.00279381,0.0349766,0.00425747,-0.0914561,0.0220361,0.044272,685,673,-4.93002,0.100432
-532,351,-4.87561,-0.520386,0.0253637,0.00479845,-0.00231919,0.025622,0.00454015,-0.110916,0.0157871,0.0295427,692,673,-4.87563,0.520409
-525,351,-5.01483,-0.797241,0.0177358,0.00455144,-0.0018068,0.017979,0.00430832,-0.133756,0.0108391,0.0189233,699,673,-5.01483,0.79726
-518,351,-5.06299,-0.945679,0.0113614,0.00400123,-0.00133976,0.0115977,0.00376494,-0.174571,0.00683183,0.0107942,706,673,-5.06301,0.945693
-511,351,-5.05908,-1.16101,0.00622863,0.0035146,-0.000989735,0.00655122,0.00319201,-0.315076,0.00378276,0.0103134,713,673,-5.0591,1.16099
-504,351,-5.07581,-1.39398,0.00332837,0.00264974,-0.000641398,0.00371467,0.00226343,-0.5421,0.00216169,0.0101297,720,673,-5.07582,1.39398
-497,351,-5.07635,-1.6048,0.00189938,0.00154036,-0.000390968,0.00215008,0.00128966,-0.570183,0.00124957,0.0105365,727,673,-5.07639,1.60482
-490,351,-5.05957,-1.81567,0.00130735,0.000608432,-0.000362657,0.00146152,0.000454263,-0.401964,0.000863709,0.00954415,734,673,-5.05958,1.81564
-483,351,-5.05737,-2.02838,0.00177141,0.000241406,-0.000538755,0.00194208,7.07342e-05,-0.306787,0.0012718,0.0109659,741,673,-5.05739,2.02835
-476,351,-5.06647,-2.22974,0.00241358,0.000301771,-0.000811036,0.00268911,2.62423e-05,-0.327491,0.00178405,0.0107347,748,673,-5.06647,2.22971
-469,351,-5.05878,-2.43665,0.00303917,0.000433532,-0.00114204,0.00346886,3.84066e-06,-0.359865,0.00231129,0.0126005,755,673,-5.05876,2.43667
-462,351,-5.05798,-2.69434,0.00342715,0.000669194,-0.00138166,0.00400024,9.61064e-05,-0.393184,0.00263538,0.0165132,762,673,-5.05796,2.69431
-455,351,-5.03235,-2.95746,0,0,0,0,0,0,0,-1,769,673,-5.03235,2.95747
-448,351,-4.77765,-3.1792,0,0,0,0,0,0,0,-1,776,673,-4.77764,3.17917
-441,351,-4.31567,-2.3009,0,0,0,0,0,0,0,-1,783,673,-4.31565,2.30089
-434,351,-3.81708,-2.28003,0,0,0,0,0,0,0,-1,790,673,-3.81706,2.28006
-427,351,-2.05157,-2.7785,0,0,0,0,0,0,0,-1,797,673,-2.05157,2.77848
-420,351,-1.06989,-2.43665,0,0,0,0,0,0,0,-1,804,673,-1.06991,2.43663
-413,351,-0.392334,-2.06671,0,0,0,0,0,0,0,-1,811,673,-0.392363,2.06672
-406,351,-1.86316,-2.58105,0,0,0,0,0,0,0,-1,818,673,-1.86313,2.58106
-399,351,1.00952,-1.53455,0,0,0,0,0,0,0,-1,825,673,1.00954,1.53457
-392,351,-1.02197,0.877136,0,0,0,0,0,0,0,-1,832,673,-1.02195,-0.877143
-385,351,-1.47205,1.04437,0,0,0,0,0,0,0,-1,839,673,-1.47207,-1.04435
-378,351,0,0,0,0,0,0,0,0,0,-1,846,673,0,0
-371,351,0,0,0,0,0,0,0,0,0,-1,853,673,0,0
-364,351,0,0,0,0,0,0,0,0,0,-1,860,673,0,0
-357,351,0,0,0,0,0,0,0,0,0,-1,867,673,0,0
-350,351,0,0,0,0,0,0,0,0,0,-1,874,673,0,0
-343,351,0,0,0,0,0,0,0,0,0,-1,881,673,0,0
-336,351,0,0,0,0,0,0,0,0,0,-1,888,673,0,0
-329,351,0,0,0,0,0,0,0,0,0,-1,895,673,0,0
-322,351,0,0,0,0,0,0,0,0,0,-1,902,673,0,0
-315,351,0,0,0,0,0,0,0,0,0,-1,909,673,0,0
-308,351,0,0,0,0,0,0,0,0,0,-1,916,673,0,0
-301,351,0,0,0,0,0,0,0,0,0,-1,923,673,0,0
-294,351,0,0,0,0,0,0,0,0,0,-1,930,673,0,0
-287,351,0,0,0,0,0,0,0,0,0,-1,937,673,0,0
-280,351,0,0,0,0,0,0,0,0,0,-1,944,673,0,0
-273,351,0,0,0,0,0,0,0,0,0,-1,951,673,0,0
-266,351,0,0,0,0,0,0,0,0,0,-1,958,673,0,0
-259,351,0,0,0,0,0,0,0,0,0,-1,965,673,0,0
-252,351,0,0,0,0,0,0,0,0,0,-1,972,673,0,0
-245,351,0,0,0,0,0,0,0,0,0,-1,979,673,0,0
-238,351,0,0,0,0,0,0,0,0,0,-1,986,673,0,0
-231,351,0,0,0,0,0,0,0,0,0,-1,993,673,0,0
-224,351,0,0,0,0,0,0,0,0,0,-1,1000,673,0,0
-217,351,0,0,0,0,0,0,0,0,0,-1,1007,673,0,0
-210,351,0,0,0,0,0,0,0,0,0,-1,1014,673,0,0
-203,351,0,0,0,0,0,0,0,0,0,-1,1021,673,0,0
-196,351,0,0,0,0,0,0,0,0,0,-1,1028,673,0,0
-189,351,0,0,0,0,0,0,0,0,0,-1,1035,673,0,0
-182,351,0,0,0,0,0,0,0,0,0,-1,1042,673,0,0
-175,351,0,0,0,0,0,0,0,0,0,-1,1049,673,0,0
-168,351,0,0,0,0,0,0,0,0,0,-1,1056,673,0,0
-161,351,0,0,0,0,0,0,0,0,0,-1,1063,673,0,0
-154,351,0,0,0,0,0,0,0,0,0,-1,1070,673,0,0
-147,351,0,0,0,0,0,0,0,0,0,-1,1077,673,0,0
-140,351,0,0,0,0,0,0,0,0,0,-1,1084,673,0,0
-133,351,0,0,0,0,0,0,0,0,0,-1,1091,673,0,0
-126,351,0,0,0,0,0,0,0,0,0,-1,1098,673,0,0
-119,351,0,0,0,0,0,0,0,0,0,-1,1105,673,0,0
-112,351,0,0,0,0,0,0,0,0,0,-1,1112,673,0,0
-105,351,0,0,0,0,0,0,0,0,0,-1,1119,673,0,0
-98,351,0,0,0,0,0,0,0,0,0,-1,1126,673,0,0
-91,351,0,0,0,0,0,0,0,0,0,-1,1133,673,0,0
-84,351,0,0,0,0,0,0,0,0,0,-1,1140,673,0,0
-77,351,0,0,0,0,0,0,0,0,0,-1,1147,673,0,0
-70,351,0,0,0,0,0,0,0,0,0,-1,1154,673,0,0
-63,351,0,0,0,0,0,0,0,0,0,-1,1161,673,0,0
-56,351,0,0,0,0,0,0,0,0,0,-1,1168,673,0,0
-49,351,0,0,0,0,0,0,0,0,0,-1,1175,673,0,0
-42,351,0,0,0,0,0,0,0,0,0,-1,1182,673,0,0
-35,351,0,0,0,0,0,0,0,0,0,-1,1189,673,0,0
-28,351,0,0,0,0,0,0,0,0,0,-1,1196,673,0,0
-21,351,0,0,0,0,0,0,0,0,0,-1,1203,673,0,0
-14,351,0,0,0,0,0,0,0,0,0,-1,1210,673,0,0
-7,351,0,0,0,0,0,0,0,0,0,-1,1217,673,0,0
0,351,0,0,0,0,0,0,0,0,0,-1,1224,673,0,0
7,351,0,0,0,0,0,0,0,0,0,-1,1231,673,0,0
14,351,0,0,0,0,0,0,0,0,0,-1,1238,673,0,0
21,351,0,0,0,0,0,0,0,0,0,-1,1245,673,0,0
28,351,0,0,0,0,0,0,0,0,0,-1,1252,673,0,0
35,351,0,0,0,0,0,0,0,0,0,-1,1259,673,0,0
42,351,0,0,0,0,0,0,0,0,0,-1,1266,673,0,0
49,351,0,0,0,0,0,0,0,0,0,-1,1273,673,0,0
56,351,0,0,0,0,0,0,0,0,0,-1,1280,673,0,0
63,351,0,0,0,0,0,0,0,0,0,-1,1287,673,0,0
70,351,0,0,0,0,0,0,0,0,0,-1,1294,673,0,0
77,351,0,0,0,0,0,0,0,0,0,-1,1301,673,0,0
84,351,0,0,0,0,0,0,0,0,0,-1,1308,673,0,0
91,351,0,0,0,0,0,0,0,0,0,-1,1315,673,0,0
98,351,0,0,0,0,0,0,0,0,0,-1,1322,673,0,0
105,351,0,0,0,0,0,0,0,0,0,-1,1329,673,0,0
112,351,0,0,0,0,0,0,0,0,0,-1,1336,673,0,0
119,351,0,0,0,0,0,0,0,0,0,-1,1343,673,0,0
126,351,0,0,0,0,0,0,0,0,0,-1,1350,673,0,0
133,351,0,0,0,0,0,0,0,0,0,-1,1357,673,0,0
140,351,0,0,0,0,0,0,0,0,0,-1,1364,673,0,0
147,351,0,0,0,0,0,0,0,0,0,-1,1371,673,0,0
154,351,0,0,0,0,0,0,0,0,0,-1,1378,673,0,0
161,351,0,0,0,0,0,0,0,0,0,-1,1385,673,0,0
168,351,0,0,0,0,0,0,0,0,0,-1,1392,673,0,0
175,351,0,0,0,0,0,0,0,0,0,-1,1399,673,0,0
182,351,0,0,0,0,0,0,0,0,0,-1,1406,673,0,0
189,351,0,0,0,0,0,0,0,0,0,-1,1413,673,0,0
196,351,0,0,0,0,0,0,0,0,0,-1,1420,673,0,0
203,351,0,0,0,0,0,0,0,0,0,-1,1427,673,0,0
210,351,0,0,0,0,0,0,0,0,0,-1,1434,673,0,0
217,351,0,0,0,0,0,0,0,0,0,-1,1441,673,0,0
224,351,0,0,0,0,0,0,0,0,0,-1,1448,673,0,0
231,351,0,0,0,0,0,0,0,0,0,-1,1455,673,0,0
238,351,0,0,0,0,0,0,0,0,0,-1,1462,673,0,0
245,351,0,0,0,0,0,0,0,0,0,-1,1469,673,0,0
252,351,0,0,0,0,0,0,0,0,0,-1,1476,673,0,0
259,351,0,0,0,0,0,0,0,0,0,-1,1483,673,0,0
266,351,0,0,0,0,0,0,0,0,0,-1,1490,673,0,0
273,351,0,0,0,0,0,0,0,0,0,-1,1497,673,0,0
280,351,0,0,0,0,0,0,0,0,0,-1,1504,673,0,0
287,351,0,0,0,0,0,0,0,0,0,-1,1511,673,0,0
294,351,0,0,0,0,0,0,0,0,0,-1,1518,673,0,0
301,351,0,0,0,0,0,0,0,0,0,-1,1525,673,0,0
308,351,0,0,0,0,0,0,0,0,0,-1,1532,673,0,0
315,351,0,0,0,0,0,0,0,0,0,-1,1539,673,0,0
322,351,0,0,0,0,0,0,0,0,0,-1,1546,673,0,0
329,351,0,0,0,0,0,0,0,0,0,-1,1553,673,0,0
336,351,0,0,0,0,0,0,0,0,0,-1,1560,673,0,0
343,351,0,0,0,0,0,0,0,0,0,-1,1567,673,0,0
350,351,0,0,0,0,0,0,0,0,0,-1,1574,673,0,0
357,351,0,0,0,0,0,0,0,0,0,-1,1581,673,0,0
364,351,0,0,0,0,0,0,0,0,0,-1,1588,673,0,0
371,351,0,0,0,0,0,0,0,0,0,-1,1595,673,0,0
378,351,0,0,0,0,0,0,0,0,0,-1,1602,673,0,0
385,351,0,0,0,0,0,0,0,0,0,-1,1609,673,0,0
392,351,0,0,0,0,0,0,0,0,0,-1,1616,673,0,0
399,351,0,0,0,0,0,0,0,0,0,-1,1623,673,0,0
406,351,0,0,0,0,0,0,0,0,0,-1,1630,673,0,0
413,351,0,0,0,0,0,0,0,0,0,-1,1637,673,0,0
420,351,0,0,0,0,0,0,0,0,0,-1,1644,673,0,0
427,351,0,0,0,0,0,0,0,0,0,-1,1651,673,0,0
434,351,0,0,0,0,0,0,0,0,0,-1,1658,673,0,0
441,351,0,0,0,0,0,0,0,0,0,-1,1665,673,0,0
448,351,0,0,0,0,0,0,0,0,0,-1,1672,673,0,0
455,351,0,0,0,0,0,0,0,0,0,-1,1679,673,0,0
462,351,0,0,0,0,0,0,0,0,0,-1,1686,673,0,0
469,351,0,0,0,0,0,0,0,0,0,-1,1693,673,0,0
476,351,0,0,0,0,0,0,0,0,0,-1,1700,673,0,0
483,351,0,0,0,0,0,0,0,0,0,-1,1707,673,0,0
490,351,0,0,0,0,0,0,0,0,0,-1,1714,673,0,0
497,351,0,0,0,0,0,0,0,0,0,-1,1721,673,0,0
504,351,10.8842,1.61615,0,0,0,0,0,0,0,-1,1728,673,10.8842,-1.61618
511,351,15.4548,0.0236816,0,0,0,0,0,0,0,-1,1735,673,15.4549,-0.0236664
518,351,16.7448,2.49268,0,0,0,0,0,0,0,-1,1742,673,16.7448,-2.49269
525,351,16.0701,3.43225,0,0,0,0,0,0,0,-1,1749,673,16.07,-3.43227
532,351,16.4181,3.33472,0,0,0,0,0,0,0,-1,1756,673,16.4181,-3.33473
539,351,15.3387,3.54486,0,0,0,0,0,0,0,-1,1763,673,15.3387,-3.54485
546,351,13.9387,4.59357,0,0,0,0,0,0,0,-1,1770,673,13.9388,-4.59359
553,351,12.0682,2.02832,0,0,0,0,0,0,0,-1,1777,673,12.0683,-2.02831
560,351,12.0173,0.55304,0,0,0,0,0,0,0,-1,1784,673,12.0174,-0.553028
567,351,10.7827,0.130188,0,0,0,0,0,0,0,-1,1791,673,10.7827,-0.130183
574,351,11.3745,-0.601501,0,0,0,0,0,0,0,-1,1798,673,11.3745,0.601504
581,351,10.8816,-0.757751,-0.0110903,-0.00429416,-0.00597505,-0.000818507,-0.014566,-1.04395,0.00944962,0.0461646,1805,673,10.8816,0.757728
588,351,10.3256,-0.951904,-0.00777152,-0.00364427,-0.00435828,-0.000885747,-0.01053,-1.00651,0.0067442,0.0312542,1812,673,10.3255,0.951877
595,351,10.3402,-0.802979,-0.00517571,-0.00278356,-0.00292001,-0.000824157,-0.00713511,-0.979781,0.00450721,0.018182,1819,673,10.3402,0.803004
602,351,10.3757,-0.529175,-0.00302891,-0.00200601,-0.00178405,-0.00066155,-0.00437337,-0.924993,0.002722,0.0171788,1826,673,10.3757,0.529151
609,351,10.3759,-0.303345,-0.00156819,-0.00128957,-0.00100077,-0.00041846,-0.00243931,-0.854555,0.00150622,0.0167475,1833,673,10.3758,0.303368
616,351,10.3639,-0.0609741,-0.000873685,-0.00102591,-0.000762918,-0.000183094,-0.00171651,-0.735679,0.00108845,0.0151588,1840,673,10.3639,0.0609799
623,351,10.3795,0.197083,-0.000709459,-0.000527661,-0.000788594,0.000175255,-0.00141238,-0.842779,0.00100511,0.0150619,1847,673,10.3795,-0.197077
630,351,10.4058,0.43219,-0.000850576,-0.000135309,-0.00118074,0.000740767,-0.00172665,-0.932451,0.00146198,0.023605,1854,673,10.4057,-0.432164
637,351,10.4286,0.701904,-0.00129888,4.21431e-05,-0.00178286,0.00127641,-0.00253315,-0.965261,0.00223898,0.0275841,1861,673,10.4286,-0.701902
644,351,10.385,0.942627,-0.00217874,-8.26037e-05,-0.00292382,0.00197531,-0.00423666,-0.957494,0.00366484,0.020648,1868,673,10.385,-0.942635
651,351,10.3668,1.15662,-0.00323818,-0.000304898,-0.00435079,0.0028198,-0.00636288,-0.947966,0.00543157,0.0155271,1875,673,10.3668,-1.15662
658,351,10.3514,1.41229,-0.00424247,-0.000655756,-0.00602634,0.00383841,-0.00873664,-0.930019,0.00744154,0.0227519,1882,673,10.3515,-1.41232
665,351,10.1257,1.51392,-0.0047547,-0.00104597,-0.00794513,0.00525833,-0.011059,-0.900044,0.00961719,0.0298746,1889,673,10.1257,-1.5139
672,351,10.1709,1.88184,-0.0049673,-0.00166987,-0.0102502,0.00706332,-0.0137005,-0.865139,0.0121904,0.0409358,1896,673,10.171,-1.88183
679,351,10.3228,1.97845,-0.00450158,-0.0024672,-0.0128763,0.009432,-0.0164008,-0.824815,0.0150944,0.0473749,1903,673,10.3227,-1.97845
686,351,10.452,2.0365,0,0,0,0,0,0,0,-1,1910,673,10.452,-2.03649
693,351,12.0637,2.77539,0,0,0,0,0,0,0,-1,1917,673,12.0637,-2.77538
700,351,14.5629,-2.40173,0,0,0,0,0,0,0,-1,1924,673,14.5629,2.40172
707,351,0,0,0,0,0,0,0,0,0,-1,1931,673,0,0
714,351,0,0,0,0,0,0,0,0,0,-1,1938,673,0,0
721,351,0,0,0,0,0,0,0,0,0,-1,1945,673,0,0
728,351,0,0,0,0,0,0,0,0,0,-1,1952,673,0,0
735,351,0,0,0,0,0,0,0,0,0,-1,1959,673,0,0
742,351,0,0,0,0,0,0,0,0,0,-1,1966,673,0,0
749,351,0,0,0,0,0,0,0,0,0,-1,1973,673,0,0
756,351,0,0,0,0,0,0,0,0,0,-1,1980,673,0,0
763,351,0,0,0,0,0,0,0,0,0,-1,1987,673,0,0
770,351,0,0,0,0,0,0,0,0,0,-1,1994,673,0,0
777,351,0,0,0,0,0,0,0,0,0,-1,2001,673,0,0
784,351,0,0,0,0,0,0,0,0,0,-1,2008,673,0,0
791,351,0,0,0,0,0,0,0,0,0,-1,2015,673,0,0
798,351,0,0,0,0,0,0,0,0,0,-1,2022,673,0,0
805,351,0,0,0,0,0,0,0,0,0,-1,2029,673,0,0
812,351,0,0,0,0,0,0,0,0,0,-1,2036,673,0,0
-700,344,0,0,0,0,0,0,0,0,0,-1,524,680,0,0
-693,344,0,0,0,0,0,0,0,0,0,-1,531,680,0,0
-686,344,0,0,0,0,0,0,0,0,0,-1,538,680,0,0
-679,344,0,0,0,0,0,0,0,0,0,-1,545,680,0,0
-672,344,0,0,0,0,0,0,0,0,0,-1,552,680,0,0
-665,344,0,0,0,0,0,0,0,0,0,-1,559,680,0,0
-658,344,0,0,0,0,0,0,0,0,0,-1,566,680,0,0
-651,344,0,0,0,0,0,0,0,0,0,-1,573,680,0,0
-644,344,0,0,0,0,0,0,0,0,0,-1,580,680,0,0
-637,344,0,0,0,0,0,0,0,0,0,-1,587,680,0,0
-630,344,0,0,0,0,0,0,0,0,0,-1,594,680,0,0
-623,344,0,0,0,0,0,0,0,0,0,-1,601,680,0,0
-616,344,0,0,0,0,0,0,0,0,0,-1,608,680,0,0
-609,344,0,0,0,0,0,0,0,0,0,-1,615,680,0,0
-602,344,0,0,0,0,0,0,0,0,0,-1,622,680,0,0
-595,344,0,0,0,0,0,0,0,0,0,-1,629,680,0,0
-588,344,-8.7923,-1.1908,0,0,0,0,0,0,0,-1,636,680,-8.79228,1.19078
-581,344,-8.20551,-0.296204,0,0,0,0,0,0,0,-1,643,680,-8.20552,0.296182
-574,344,-7.31317,0.504089,0,0,0,0,0,0,0,-1,650,680,-7.31315,-0.504099
-567,344,-5.52179,-0.632874,0,0,0,0,0,0,0,-1,657,680,-5.5218,0.632876
-560,344,-5.52631,0.490967,0,0,0,0,0,0,0,-1,664,680,-5.52631,-0.490948
-553,344,-5.45465,0.292603,0.0420118,0.00353256,-0.00272095,0.0422033,0.0033411,-0.0702462,0.0270906,0.0469678,671,680,-5.45463,-0.292576
-546,344,-5.3208,0.114319,0.0321398,0.0051762,-0.00268784,0.0324051,0.00491088,-0.0983941,0.0201668,0.0436165,678,680,-5.32078,-0.114346
-539,344,-5.22198,-0.217468,0.0238959,0.00571947,-0.00242156,0.024213,0.00540239,-0.1302,0.0146765,0.0372433,685,680,-5.22196,0.21748
-532,344,-5.17371,-0.537903,0.0171682,0.00553523,-0.0020388,0.0175152,0.00518826,-0.168569,0.0103886,0.0203622,692,680,-5.17373,0.537917
-525,344,-5.26593,-0.731689,0.0118218,0.0049139,-0.00161323,0.01218,0.00455573,-0.218477,0.00710613,0.0174027,699,680,-5.26594,0.731694
-518,344,-5.28363,-0.97998,0.00743188,0.00406407,-0.00123276,0.0078349,0.00366106,-0.315969,0.00452671,0.0178316,706,680,-5.28364,0.979984
-511,344,-5.28333,-1.18616,0.00406349,0.00327501,-0.000944126,0.00469238,0.00264612,-0.587616,0.00271652,0.0156043,713,680,-5.28332,1.18615
-504,344,-5.30133,-1.41034,0.00244565,0.00221526,-0.000631162,0.00297204,0.00168887,-0.695136,0.00172123,0.0157188,720,680,-5.30131,1.41034
-497,344,-5.29956,-1.62073,0.00177507,0.00110104,-0.000471968,0.002018,0.000858113,-0.475348,0.00116942,0.0146287,727,680,-5.29956,1.62074
-490,344,-5.30029,-1.83337,0.00173041,0.000168277,-0.00049439,0.00187373,2.49593e-05,-0.282154,0.00124091,0.0132515,734,680,-5.30029,1.83339
-483,344,-5.29193,-2.03271,0.00234577,-4.19988e-05,-0.000685761,0.00252871,-0.000224932,-0.260689,0.00176557,0.0128163,741,680,-5.29192,2.03271
-476,344,-5.27899,-2.22852,0.00305614,6.17962e-05,-0.00101,0.00336496,-0.000247027,-0.296739,0.00233002,0.0134986,748,680,-5.27897,2.22854
-469,344,-5.28217,-2.45294,0.00387451,0.000233258,-0.00141715,0.00436104,-0.000253274,-0.33071,0.00299536,0.0117886,755,680,-5.28218,2.45294
-462,344,-5.27777,-2.71375,0.00442505,0.00047795,-0.00171705,0.00506744,-0.000164442,-0.358004,0.00343442,0.0206714,762,680,-5.27778,2.71377
-455,344,-5.31189,-2.62817,0,0,0,0,0,0,0,-1,769,680,-5.31189,2.6282
-448,344,-5.24261,-2.45831,0,0,0,0,0,0,0,-1,776,680,-5.24264,2.45829
-441,344,-5.09229,-2.34167,0,0,0,0,0,0,0,-1,783,680,-5.09229,2.34168
-434,344,-4.28778,-2.08807,0,0,0,0,0,0,0,-1,790,680,-4.28778,2.08809
-427,344,-3.06506,-1.45404,0,0,0,0,0,0,0,-1,797,680,-3.06505,1.45402
-420,344,-1.96582,-1.57574,0,0,0,0,0,0,0,-1,804,680,-1.96579,1.57574
-413,344,-0.817993,-1.4751,0,0,0,0,0,0,0,-1,811,680,-0.818017,1.47511
-406,344,-0.00714111,-1.25189,0,0,0,0,0,0,0,-1,818,680,-0.00714956,1.25191
-399,344,0.240051,-1.75769,0,0,0,0,0,0,0,-1,825,680,0.240079,1.75767
-392,344,1.11353,-2.05615,0,0,0,0,0,0,0,-1,832,680,1.11351,2.05616
-385,344,0,0,0,0,0,0,0,0,0,-1,839,680,0,0
-378,344,0,0,0,0,0,0,0,0,0,-1,846,680,0,0
-371,344,0,0,0,0,0,0,0,0,0,-1,853,680,0,0
-364,344,0,0,0,0,0,0,0,0,0,-1,860,680,0,0
-357,344,0,0,0,0,0,0,0,0,0,-1,867,680,0,0
-350,344,0,0,0,0,0,0,0,0,0,-1,874,680,0,0
-343,344,0,0,0,0,0,0,0,0,0,-1,881,680,0,0
-336,344,0,0,0,0,0,0,0,0,0,-1,888,680,0,0
-329,344,0,0,0,0,0,0,0,0,0,-1,895,680,0,0
-322,344,0,0,0,0,0,0,0,0,0,-1,902,680,0,0
-315,344,0,0,0,0,0,0,0,0,0,-1,909,680,0,0
-308,344,0,0,0,0,0,0,0,0,0,-1,916,680,0,0
-301,344,0,0,0,0,0,0,0,0,0,-1,923,680,0,0
-294,344,0,0,0,0,0,0,0,0,0,-1,930,680,0,0
-287,344,0,0,0,0,0,0,0,0,0,-1,937,680,0,0
-280,344,0,0,0,0,0,0,0,0,0,-1,944,680,0,0
-273,344,0,0,0,0,0,0,0,0,0,-1,951,680,0,0
-266,344,0,0,0,0,0,0,0,0,0,-1,958,680,0,0
-259,344,0,0,0,0,0,0,0,0,0,-1,965,680,0,0
-252,344,0,0,0,0,0,0,0,0,0,-1,972,680,0,0
-245,344,0,0,0,0,0,0,0,0,0,-1,979,680,0,0
-238,344,0,0,0,0,0,0,0,0,0,-1,986,680,0,0
-231,344,0,0,0,0,0,0,0,0,0,-1,993,680,0,0
-224,344,0,0,0,0,0,0,0,0,0,-1,1000,680,0,0
-217,344,0,0,0,0,0,0,0,0,0,-1,1007,680,0,0
-210,344,0,0,0,0,0,0,0,0,0,-1,1014,680,0,0
-203,344,0,0,0,0,0,0,0,0,0,-1,1021,680,0,0
-196,344,0,0,0,0,0,0,0,0,0,-1,1028,680,0,0
-189,344,0,0,0,0,0,0,0,0,0,-1,1035,680,0,0
-182,344,0,0,0,0,0,0,0,0,0,-1,1042,680,0,0
-175,344,0,0,0,0,0,0,0,0,0,-1,1049,680,0,0
-168,344,0,0,0,0,0,0,0,0,0,-1,1056,680,0,0
-161,344,0,0,0,0,0,0,0,0,0,-1,1063,680,0,0
-154,344,0,0,0,0,0,0,0,0,0,-1,1070,680,0,0
-147,344,0,0,0,0,0,0,0,0,0,-1,1077,680,0,0
-140,344,0,0,0,0,0,0,0,0,0,-1,1084,680,0,0
-133,344,0,0,0,0,0,0,0,0,0,-1,1091,680,0,0
-126,344,0,0,0,0,0,0,0,0,0,-1,1098,680,0,0
-119,344,0,0,0,0,0,0,0,0,0,-1,1105,680,0,0
-112,344,0,0,0,0,0,0,0,0,0,-1,1112,680,0,0
-105,344,0,0,0,0,0,0,0,0,0,-1,1119,680,0,0
-98,344,0,0,0,0,0,0,0,0,0,-1,1126,680,0,0
-91,344,0,0,0,0,0,0,0,0,0,-1,1133,680,0,0
-84,344,0,0,0,0,0,0,0,0,0,-1,1140,680,0,0
-77,344,0,0,0,0,0,0,0,0,0,-1,1147,680,0,0
-70,344,0,0,0,0,0,0,0,0,0,-1,1154,680,0,0
-63,344,0,0,0,0,0,0,0,0,0,-1,1161,680,0,0
-56,344,0,0,0,0,0,0,0,0,0,-1,1168,680,0,0
-49,344,0,0,0,0,0,0,0,0,0,-1,1175,680,0,0
-42,344,0,0,0,0,0,0,0,0,0,-1,1182,680,0,0
-35,344,0,0,0,0,0,0,0,0,0,-1,1189,680,0,0
-28,344,0,0,0,0,0,0,0,0,0,-1,1196,680,0,0
-21,344,0,0,0,0,0,0,0,0,0,-1,1203,680,0,0
-14,344,0,0,0,0,0,0,0,0,0,-1,1210,680,0,0
-7,344,0,0,0,0,0,0,0,0,0,-1,1217,680,0,0
0,344,0,0,0,0,0,0,0,0,0,-1,1224,680,0,0
7,344,0,0,0,0,0,0,0,0,0,-1,1231,680,0,0
14,344,0,0,0,0,0,0,0,0,0,-1,1238,680,0,0
21,344,0,0,0,0,0,0,0,0,0,-1,1245,680,0,0
28,344,0,0,0,0,0,0,0,0,0,-1,1252,680,0,0
35,344,0,0,0,0,0,0,0,0,0,-1,1259,680,0,0
42,344,0,0,0,0,0,0,0,0,0,-1,1266,680,0,0
49,344,0,0,0,0,0,0,0,0,0,-1,1273,680,0,0
56,344,0,0,0,0,0,0,0,0,0,-1,1280,680,0,0
63,344,0,0,0,0,0,0,0,0,0,-1,1287,680,0,0
70,344,0,0,0,0,0,0,0,0,0,-1,1294,680,0,0
77,344,0,0,0,0,0,0,0,0,0,-1,1301,680,0,0
84,344,0,0,0,0,0,0,0,0,0,-1,1308,680,0,0
91,344,0,0,0,0,0,0,0,0,0,-1,1315,680,0,0
98,344,0,0,0,0,0,0,0,0,0,-1,1322,680,0,0
105,344,0,0,0,0,0,0,0,0,0,-1,1329,680,0,0
112,344,0,0,0,0,0,0,0,0,0,-1,1336,680,0,0
119,344,0,0,0,0,0,0,0,0,0,-1,1343,680,0,0
126,344,0,0,0,0,0,0,0,0,0,-1,1350,680,0,0
133,344,0,0,0,0,0,0,0,0,0,-1,1357,680,0,0
140,344,0,0,0,0,0,0,0,0,0,-1,1364,680,0,0
147,344,0,0,0,0,0,0,0,0,0,-1,1371,680,0,0
154,344,0,0,0,0,0,0,0,0,0,-1,1378,680,0,0
161,344,0,0,0,0,0,0,0,0,0,-1,1385,680,0,0
168,344,0,0,0,0,0,0,0,0,0,-1,1392,680,0,0
175,344,0,0,0,0,0,0,0,0,0,-1,1399,680,0,0
182,344,0,0,0,0,0,0,0,0,0,-1,1406,680,0,0
189,344,0,0,0,0,0,0,0,0,0,-1,1413,680,0,0
196,344,0,0,0,0,0,0,0,0,0,-1,1420,680,0,0
203,344,0,0,0,0,0,0,0,0,0,-1,1427,680,0,0
210,344,0,0,0,0,0,0,0,0,0,-1,1434,680,0,0
217,344,0,0,0,0,0,0,0,0,0,-1,1441,680,0,0
224,344,0,0,0,0,0,0,0,0,0,-1,1448,680,0,0
231,344,0,0,0,0,0,0,0,0,0,-1,1455,680,0,0
238,344,0,0,0,0,0,0,0,0,0,-1,1462,680,0,0
245,344,0,0,0,0,0,0,0,0,0,-1,1469,680,0,0
252,344,0,0,0,0,0,0,0,0,0,-1,1476,680,0,0
259,344,0,0,0,0,0,0,0,0,0,-1,1483,680,0,0
266,344,0,0,0,0,0,0,0,0,0,-1,1490,680,0,0
273,344,0,0,0,0,0,0,0,0,0,-1,1497,680,0,0
280,344,0,0,0,0,0,0,0,0,0,-1,1504,680,0,0
287,344,0,0,0,0,0,0,0,0,0,-1,1511,680,0,0
294,344,0,0,0,0,0,0,0,0,0,-1,1518,680,0,0
301,344,0,0,0,0,0,0,0,0,0,-1,1525,680,0,0
308,344,0,0,0,0,0,0,0,0,0,-1,1532,680,0,0
315,344,0,0,0,0,0,0,0,0,0,-1,1539,680,0,0
322,344,0,0,0,0,0,0,0,0,0,-1,1546,680,0,0
329,344,0,0,0,0,0,0,0,0,0,-1,1553,680,0,0
336,344,0,0,0,0,0,0,0,0,0,-1,1560,680,0,0
343,344,0,0,0,0,0,0,0,0,0,-1,1567,680,0,0
350,344,0,0,0,0,0,0,0,0,0,-1,1574,680,0,0
357,344,0,0,0,0,0,0,0,0,0,-1,1581,680,0,0
364,344,0,0,0,0,0,0,0,0,0,-1,1588,680,0,0
371,344,0,0,0,0,0,0,0,0,0,-1,1595,680,0,0
378,344,0,0,0,0,0,0,0,0,0,-1,1602,680,0,0
385,344,0,0,0,0,0,0,0,0,0,-1,1609,680,0,0
392,344,0,0,0,0,0,0,0,0,0,-1,1616,680,0,0
399,344,0,0,0,0,0,0,0,0,0,-1,1623,680,0,0
406,344,0,0,0,0,0,0,0,0,0,-1,1630,680,0,0
413,344,0,0,0,0,0,0,0,0,0,-1,1637,680,0,0
420,344,0,0,0,0,0,0,0,0,0,-1,1644,680,0,0
427,344,0,0,0,0,0,0,0,0,0,-1,1651,680,0,0
434,344,0,0,0,0,0,0,0,0,0,-1,1658,680,0,0
441,344,0,0,0,0,0,0,0,0,0,-1,1665,680,0,0
448,344,0,0,0,0,0,0,0,0,0,-1,1672,680,0,0
455,344,0,0,0,0,0,0,0,0,0,-1,1679,680,0,0
462,344,0,0,0,0,0,0,0,0,0,-1,1686,680,0,0
469,344,0,0,0,0,0,0,0,0,0,-1,1693,680,0,0
476,344,0,0,0,0,0,0,0,0,0,-1,1700,680,0,0
483,344,0,0,0,0,0,0,0,0,0,-1,1707,680,0,0
490,344,0,0,0,0,0,0,0,0,0,-1,1714,680,0,0
497,344,0,0,0,0,0,0,0,0,0,-1,1721,680,0,0
504,344,0,0,0,0,0,0,0,0,0,-1,1728,680,0,0
511,344,15.4819,0.452637,0,0,0,0,0,0,0,-1,1735,680,15.4819,-0.452656
518,344,17.1357,2.31207,0,0,0,0,0,0,0,-1,1742,680,17.1358,-2.31207
525,344,16.4807,2.83368,0,0,0,0,0,0,0,-1,1749,680,16.4807,-2.83368
532,344,15.8599,3.37219,0,0,0,0,0,0,0,-1,1756,680,15.8598,-3.3722
539,344,15.3691,3.78113,0,0,0,0,0,0,0,-1,1763,680,15.3691,-3.78113
546,344,14.6722,4.30243,0,0,0,0,0,0,0,-1,1770,680,14.6722,-4.30241
553,344,14.8136,4.35681,0,0,0,0,0,0,0,-1,1777,680,14.8136,-4.35679
560,344,11.9363,2.14185,0,0,0,0,0,0,0,-1,1784,680,11.9362,-2.14182
567,344,11.397,0.925842,0,0,0,0,0,0,0,-1,1791,680,11.397,-0.92583
574,344,10.0004,0.504639,0,0,0,0,0,0,0,-1,1798,680,10.0004,-0.504645
581,344,11.5227,-0.419189,0,0,0,0,0,0,0,-1,1805,680,11.5227,0.419201
588,344,10.6545,-0.921265,0,0,0,0,0,0,0,-1,1812,680,10.6545,0.921293
595,344,10.5073,-0.813232,0,0,0,0,0,0,0,-1,1819,680,10.5073,0.813254
602,344,10.6816,-0.493103,-0.00314542,-0.00261652,-0.00183168,-0.00103029,-0.00473164,-0.857091,0.00287325,0.0281585,1826,680,10.6817,0.493107
609,344,10.6139,-0.277832,-0.00141036,-0.00178047,-0.000932928,-0.000644314,-0.00254652,-0.687489,0.00152886,0.0155491,1833,680,10.6139,0.277808
616,344,10.593,-0.0301514,-0.000619387,-0.00143653,-0.000629462,-0.000277524,-0.0017784,-0.497533,0.00110477,0.0220397,1840,680,10.593,0.0301459
623,344,10.6292,0.201416,-0.000450029,-0.000926823,-0.000607075,-3.62198e-05,-0.00134063,-0.598301,0.000881929,0.0185765,1847,680,10.6291,-0.201394
630,344,10.6403,0.4245,-0.000588407,-0.000552454,-0.000935966,0.000365708,-0.00150657,-0.795,0.0011459,0.0242171,1854,680,10.6403,-0.424494
637,344,10.6348,0.662231,-0.000942548,-0.000318413,-0.00143693,0.000839949,-0.00210091,-0.892326,0.00174916,0.0238493,1861,680,10.6348,-0.662228
644,344,10.6241,0.906799,-0.00169869,-0.00046972,-0.00246535,0.00145657,-0.00362498,-0.907533,0.00302156,0.0159027,1868,680,10.6242,-0.906779
651,344,10.6067,1.14069,-0.00262513,-0.000731778,-0.00372001,0.00216012,-0.00551703,-0.909994,0.00457147,0.0116121,1875,680,10.6067,-1.14069
658,344,10.5969,1.4325,-0.00341762,-0.00107283,-0.00512741,0.00301451,-0.00750496,-0.897792,0.00625515,0.0177311,1882,680,10.597,-1.43247
665,344,10.5234,1.65759,-0.00361446,-0.00130504,-0.00665651,0.00429617,-0.00921567,-0.871279,0.00797155,0.0254314,1889,680,10.5234,-1.65757
672,344,10.5646,1.76953,-0.00354419,-0.00177928,-0.00842839,0.00581273,-0.0111362,-0.837559,0.00994505,0.0203945,1896,680,10.5646,-1.76952
679,344,10.6936,1.75073,-0.00275133,-0.00227907,-0.0103363,0.00782382,-0.0128542,-0.796818,0.0120556,0.0391834,1903,680,10.6936,-1.75076
686,344,10.8779,1.75476,0,0,0,0,0,0,0,-1,1910,680,10.8779,-1.75476
693,344,12.4362,-1.42346,0,0,0,0,0,0,0,-1,1917,680,12.4361,1.42348
700,344,14.0134,-1.63721,0,0,0,0,0,0,0,-1,1924,680,14.0135,1.63722
707,344,14.8154,-1.64838,0,0,0,0,0,0,0,-1,1931,680,14.8155,1.64837
714,344,0,0,0,0,0,0,0,0,0,-1,1938,680,0,0
721,344,0,0,0,0,0,0,0,0,0,-1,1945,680,0,0
728,344,0,0,0,0,0,0,0,0,0,-1,1952,680,0,0
735,344,0,0,0,0,0,0,0,0,0,-1,1959,680,0,0
742,344,0,0,0,0,0,0,0,0,0,-1,1966,680,0,0
749,344,0,0,0,0,0,0,0,0,0,-1,1973,680,0,0
756,344,0,0,0,0,0,0,0,0,0,-1,1980,680,0,0
763,344,0,0,0,0,0,0,0,0,0,-1,1987,680,0,0
770,344,0,0,0,0,0,0,0,0,0,-1,1994,680,0,0
777,344,0,0,0,0,0,0,0,0,0,-1,2001,680,0,0
784,344,0,0,0,0,0,0,0,0,0,-1,2008,680,0,0
791,344,0,0,0,0,0,0,0,0,0,-1,2015,680,0,0
798,344,0,0,0,0,0,0,0,0,0,-1,2022,680,0,0
805,344,0,0,0,0,0,0,0,0,0,-1,2029,680,0,0
812,344,0,0,0,0,0,0,0,0,0,-1,2036,680,0,0
-700,337,0,0,0,0,0,0,0,0,0,-1,524,687,0,0
-693,337,0,0,0,0,0,0,0,0,0,-1,531,687,0,0
-686,337,0,0,0,0,0,0,0,0,0,-1,538,687,0,0
-679,337,0,0,0,0,0,0,0,0,0,-1,545,687,0,0
-672,337,0,0,0,0,0,0,0,0,0,-1,552,687,0,0
-665,337,0,0,0,0,0,0,0,0,0,-1,559,687,0,0
-658,337,0,0,0,0,0,0,0,0,0,-1,566,687,0,0
-651,337,0,0,0,0,0,0,0,0,0,-1,573,687,0,0
-644,337,0,0,0,0,0,0,0,0,0,-1,580,687,0,0
-637,337,0,0,0,0,0,0,0,0,0,-1,587,687,0,0
-630,337,0,0,0,0,0,0,0,0,0,-1,594,687,0,0
-623,337,0,0,0,0,0,0,0,0,0,-1,601,687,0,0
-616,337,0,0,0,0,0,0,0,0,0,-1,608,687,0,0
-609,337,0,0,0,0,0,0,0,0,0,-1,615,687,0,0
-602,337,0,0,0,0,0,0,0,0,0,-1,622,687,0,0
-595,337,0,0,0,0,0,0,0,0,0,-1,629,687,0,0
-588,337,-9.06604,-0.400452,0,0,0,0,0,0,0,-1,636,687,-9.06606,0.400475
-581,337,-4.935,1.62006,0,0,0,0,0,0,0,-1,643,687,-4.93499,-1.62007
-574,337,-3.87482,1.12158,0,0,0,0,0,0,0,-1,650,687,-3.87483,-1.12157
-567,337,-6.8244,1.31525,0,0,0,0,0,0,0,-1,657,687,-6.82441,-1.31523
-560,337,-5.81775,0.591431,0,0,0,0,0,0,0,-1,664,687,-5.81773,-0.591442
-553,337,-5.67584,0.244141,0.0272879,0.00486532,-0.00194465,0.0274553,0.00469792,-0.0858729,0.0169559,0.0479138,671,687,-5.67584,-0.244152
-546,337,-5.53815,-0.0491943,0.0203332,0.00587693,-0.00200614,0.0206065,0.00560369,-0.135365,0.0123028,0.0400303,678,687,-5.53817,0.049224
-539,337,-5.41602,-0.283875,0.0148145,0.00596606,-0.00183973,0.0151818,0.0055988,-0.197039,0.00886526,0.0242192,685,687,-5.41602,0.283884
-532,337,-5.44739,-0.536377,0.0104455,0.00546685,-0.00156135,0.0108947,0.00501771,-0.280095,0.00629656,0.0139195,692,687,-5.4474,0.536378
-525,337,-5.48743,-0.751587,0.00707546,0.00464125,-0.0012402,0.00759601,0.0041207,-0.397397,0.00439083,0.0150449,699,687,-5.48744,0.751593
-518,337,-5.49884,-0.981262,0.00437779,0.00364522,-0.000961424,0.00504034,0.00298267,-0.603397,0.00292633,0.0217861,706,687,-5.49882,0.981287
-511,337,-5.50281,-1.18896,0.0025924,0.00270335,-0.00076099,0.00341089,0.00188487,-0.821785,0.00197291,0.022063,713,687,-5.50284,1.18898
-504,337,-5.49792,-1.42499,0.00208612,0.00157595,-0.00051722,0.00240774,0.00125434,-0.556309,0.00139052,0.0217244,720,687,-5.4979,1.42499
-497,337,-5.49329,-1.63177,0.00217371,0.00051358,-0.000465058,0.00229511,0.000392179,-0.255346,0.00141755,0.0155148,727,687,-5.4933,1.63175
-490,337,-5.51166,-1.83716,0.00285048,-0.000625269,-0.000484553,0.00291676,-0.000691556,-0.135957,0.00221137,0.0133063,734,687,-5.51164,1.83717
-483,337,-5.50696,-2.05243,0.00403411,-0.00102785,-0.00065158,0.00411664,-0.00111038,-0.125985,0.00317984,0.0134602,741,687,-5.50697,2.05245
-476,337,-5.49377,-2.26605,0.00542302,-0.00145616,-0.000919913,0.00554392,-0.00157705,-0.130666,0.0043187,0.0123552,748,687,-5.49375,2.26606
-469,337,-5.48981,-2.52106,0.00724609,-0.00217086,-0.00120786,0.00739854,-0.00232332,-0.125557,0.00586232,0.0193059,755,687,-5.48981,2.52108
-462,337,-5.46503,-2.64899,0.00911155,-0.00330522,-0.00129413,0.009245,-0.00343867,-0.102753,0.00757437,0.042232,762,687,-5.465,2.649
-455,337,-5.3609,-2.80347,0,0,0,0,0,0,0,-1,769,687,-5.36088,2.80344
-448,337,-5.30627,-2.07202,0,0,0,0,0,0,0,-1,776,687,-5.30628,2.07205
-441,337,-4.24762,-1.49597,0,0,0,0,0,0,0,-1,783,687,-4.24762,1.49598
-434,337,-6.86908,1.37531,0,0,0,0,0,0,0,-1,790,687,-6.86908,-1.3753
-427,337,-9.92004,2.487,0,0,0,0,0,0,0,-1,797,687,-9.92002,-2.48701
-420,337,-2.95996,-1.76697,0,0,0,0,0,0,0,-1,804,687,-2.95998,1.76696
-413,337,-1.29169,-1.99487,0,0,0,0,0,0,0,-1,811,687,-1.29171,1.9949
-406,337,-1.02356,-1.89563,0,0,0,0,0,0,0,-1,818,687,-1.02357,1.89564
-399,337,-0.472839,-2.21338,0,0,0,0,0,0,0,-1,825,687,-0.472837,2.2134
-392,337,0,0,0,0,0,0,0,0,0,-1,832,687,0,0
-385,337,0,0,0,0,0,0,0,0,0,-1,839,687,0,0
-378,337,0,0,0,0,0,0,0,0,0,-1,846,687,0,0
-371,337,0,0,0,0,0,0,0,0,0,-1,853,687,0,0
-364,337,0,0,0,0,0,0,0,0,0,-1,860,687,0,0
-357,337,0,0,0,0,0,0,0,0,0,-1,867,687,0,0
-350,337,0,0,0,0,0,0,0,0,0,-1,874,687,0,0
-343,337,0,0,0,0,0,0,0,0,0,-1,881,687,0,0
-336,337,0,0,0,0,0,0,0,0,0,-1,888,687,0,0
-329,337,0,0,0,0,0,0,0,0,0,-1,895,687,0,0
-322,337,0,0,0,0,0,0,0,0,0,-1,902,687,0,0
-315,337,0,0,0,0,0,0,0,0,0,-1,909,687,0,0
-308,337,0,0,0,0,0,0,0,0,0,-1,916,687,0,0
-301,337,0,0,0,0,0,0,0,0,0,-1,923,687,0,0
-294,337,0,0,0,0,0,0,0,0,0,-1,930,687,0,0
-287,337,0,0,0,0,0,0,0,0,0,-1,937,687,0,0
-280,337,0,0,0,0,0,0,0,0,0,-1,944,687,0,0
-273,337,0,0,0,0,0,0,0,0,0,-1,951,687,0,0
-266,337,0,0,0,0,0,0,0,0,0,-1,958,687,0,0
-259,337,0,0,0,0,0,0,0,0,0,-1,965,687,0,0
-252,337,0,0,0,0,0,0,0,0,0,-1,972,687,0,0
-245,337,0,0,0,0,0,0,0,0,0,-1,979,687,0,0
-238,337,0,0,0,0,0,0,0,0,0,-1,986,687,0,0
-231,337,0,0,0,0,0,0,0,0,0,-1,993,687,0,0
-224,337,0,0,0,0,0,0,0,0,0,-1,1000,687,0,0
-217,337,0,0,0,0,0,0,0,0,0,-1,1007,687,0,0
-210,337,0,0,0,0,0,0,0,0,0,-1,1014,687,0,0
-203,337,0,0,0,0,0,0,0,0,0,-1,1021,687,0,0
-196,337,0,0,0,0,0,0,0,0,0,-1,1028,687,0,0
-189,337,0,0,0,0,0,0,0,0,0,-1,1035,687,0,0
-182,337,0,0,0,0,0,0,0,0,0,-1,1042,687,0,0
-175,337,0,0,0,0,0,0,0,0,0,-1,1049,687,0,0
-168,337,0,0,0,0,0,0,0,0,0,-1,1056,687,0,0
-161,337,0,0,0,0,0,0,0,0,0,-1,1063,687,0,0
-154,337,0,0,0,0,0,0,0,0,0,-1,1070,687,0,0
-147,337,0,0,0,0,0,0,0,0,0,-1,1077,687,0,0
-140,337,0,0,0,0,0,0,0,0,0,-1,1084,687,0,0
-133,337,0,0,0,0,0,0,0,0,0,-1,1091,687,0,0
-126,337,0,0,0,0,0,0,0,0,0,-1,1098,687,0,0
-119,337,0,0,0,0,0,0,0,0,0,-1,1105,687,0,0
-112,337,0,0,0,0,0,0,0,0,0,-1,1112,687,0,0
-105,337,0,0,0,0,0,0,0,0,0,-1,1119,687,0,0
-98,337,0,0,0,0,0,0,0,0,0,-1,1126,687,0,0
-91,337,0,0,0,0,0,0,0,0,0,-1,1133,687,0,0
-84,337,0,0,0,0,0,0,0,0,0,-1,1140,687,0,0
-77,337,0,0,0,0,0,0,0,0,0,-1,1147,687,0,0
-70,337,0,0,0,0,0,0,0,0,0,-1,1154,687,0,0
-63,337,0,0,0,0,0,0,0,0,0,-1,1161,687,0,0
-56,337,0,0,0,0,0,0,0,0,0,-1,1168,687,0,0
-49,337,0,0,0,0,0,0,0,0,0,-1,1175,687,0,0
-42,337,0,0,0,0,0,0,0,0,0,-1,1182,687,0,0
-35,337,0,0,0,0,0,0,0,0,0,-1,1189,687,0,0
-28,337,0,0,0,0,0,0,0,0,0,-1,1196,687,0,0
-21,337,0,0,0,0,0,0,0,0,0,-1,1203,687,0,0
-14,337,0,0,0,0,0,0,0,0,0,-1,1210,687,0,0
-7,337,0,0,0,0,0,0,0,0,0,-1,1217,687,0,0
0,337,0,0,0,0,0,0,0,0,0,-1,1224,687,0,0
7,337,0,0,0,0,0,0,0,0,0,-1,1231,687,0,0
14,337,0,0,0,0,0,0,0,0,0,-1,1238,687,0,0
21,337,0,0,0,0,0,0,0,0,0,-1,1245,687,0,0
28,337,0,0,0,0,0,0,0,0,0,-1,1252,687,0,0
35,337,0,0,0,0,0,0,0,0,0,-1,1259,687,0,0
42,337,0,0,0,0,0,0,0,0,0,-1,1266,687,0,0
49,337,0,0,0,0,0,0,0,0,0,-1,1273,687,0,0
56,337,0,0,0,0,0,0,0,0,0,-1,1280,687,0,0
63,337,0,0,0,0,0,0,0,0,0,-1,1287,687,0,0
70,337,0,0,0,0,0,0,0,0,0,-1,1294,687,0,0
77,337,0,0,0,0,0,0,0,0,0,-1,1301,687,0,0
84,337,0,0,0,0,0,0,0,0,0,-1,1308,687,0,0
91,337,0,0,0,0,0,0,0,0,0,-1,1315,687,0,0
98,337,0,0,0,0,0,0,0,0,0,-1,1322,687,0,0
105,337,0,0,0,0,0,0,0,0,0,-1,1329,687,0,0
112,337,0,0,0,0,0,0,0,0,0,-1,1336,687,0,0
119,337,0,0,0,0,0,0,0,0,0,-1,1343,687,0,0
126,337,0,0,0,0,0,0,0,0,0,-1,1350,687,0,0
133,337,0,0,0,0,0,0,0,0,0,-1,1357,687,0,0
140,337,0,0,0,0,0,0,0,0,0,-1,1364,687,0,0
147,337,0,0,0,0,0,0,0,0,0,-1,1371,687,0,0
154,337,0,0,0,0,0,0,0,0,0,-1,1378,687,0,0
161,337,0,0,0,0,0,0,0,0,0,-1,1385,687,0,0
168,337,0,0,0,0,0,0,0,0,0,-1,1392,687,0,0
175,337,0,0,0,0,0,0,0,0,0,-1,1399,687,0,0
182,337,0,0,0,0,0,0,0,0,0,-1,1406,687,0,0
189,337,0,0,0,0,0,0,0,0,0,-1,1413,687,0,0
196,337,0,0,0,0,0,0,0,0,0,-1,1420,687,0,0
203,337,0,0,0,0,0,0,0,0,0,-1,1427,687,0,0
210,337,0,0,0,0,0,0,0,0,0,-1,1434,687,0,0
217,337,0,0,0,0,0,0,0,0,0,-1,1441,687,0,0
224,337,0,0,0,0,0,0,0,0,0,-1,1448,687,0,0
231,337,0,0,0,0,0,0,0,0,0,-1,1455,687,0,0
238,337,0,0,0,0,0,0,0,0,0,-1,1462,687,0,0
245,337,0,0,0,0,0,0,0,0,0,-1,1469,687,0,0
252,337,0,0,0,0,0,0,0,0,0,-1,1476,687,0,0
259,337,0,0,0,0,0,0,0,0,0,-1,1483,687,0,0
266,337,0,0,0,0,0,0,0,0,0,-1,1490,687,0,0
273,337,0,0,0,0,0,0,0,0,0,-1,1497,687,0,0
280,337,0,0,0,0,0,0,0,0,0,-1,1504,687,0,0
287,337,0,0,0,0,0,0,0,0,0,-1,1511,687,0,0
294,337,0,0,0,0,0,0,0,0,0,-1,1518,687,0,0
301,337,0,0,0,0,0,0,0,0,0,-1,1525,687,0,0
308,337,0,0,0,0,0,0,0,0,0,-1,1532,687,0,0
315,337,0,0,0,0,0,0,0,0,0,-1,1539,687,0,0
322,337,0,0,0,0,0,0,0,0,0,-1,1546,687,0,0
329,337,0,0,0,0,0,0,0,0,0,-1,1553,687,0,0
336,337,0,0,0,0,0,0,0,0,0,-1,1560,687,0,0
343,337,0,0,0,0,0,0,0,0,0,-1,1567,687,0,0
350,337,0,0,0,0,0,0,0,0,0,-1,1574,687,0,0
357,337,0,0,0,0,0,0,0,0,0,-1,1581,687,0,0
364,337,0,0,0,0,0,0,0,0,0,-1,1588,687,0,0
371,337,0,0,0,0,0,0,0,0,0,-1,1595,687,0,0
378,337,0,0,0,0,0,0,0,0,0,-1,1602,687,0,0
385,337,0,0,0,0,0,0,0,0,0,-1,1609,687,0,0
392,337,0,0,0,0,0,0,0,0,0,-1,1616,687,0,0
399,337,0,0,0,0,0,0,0,0,0,-1,1623,687,0,0
406,337,0,0,0,0,0,0,0,0,0,-1,1630,687,0,0
413,337,0,0,0,0,0,0,0,0,0,-1,1637,687,0,0
420,337,0,0,0,0,0,0,0,0,0,-1,1644,687,0,0
427,337,0,0,0,0,0,0,0,0,0,-1,1651,687,0,0
434,337,0,0,0,0,0,0,0,0,0,-1,1658,687,0,0
441,337,0,0,0,0,0,0,0,0,0,-1,1665,687,0,0
448,337,0,0,0,0,0,0,0,0,0,-1,1672,687,0,0
455,337,0,0,0,0,0,0,0,0,0,-1,1679,687,0,0
462,337,0,0,0,0,0,0,0,0,0,-1,1686,687,0,0
469,337,0,0,0,0,0,0,0,0,0,-1,1693,687,0,0
476,337,0,0,0,0,0,0,0,0,0,-1,1700,687,0,0
483,337,0,0,0,0,0,0,0,0,0,-1,1707,687,0,0
490,337,0,0,0,0,0,0,0,0,0,-1,1714,687,0,0
497,337,0,0,0,0,0,0,0,0,0,-1,1721,687,0,0
504,337,0,0,0,0,0,0,0,0,0,-1,1728,687,0,0
511,337,0,0,0,0,0,0,0,0,0,-1,1735,687,0,0
518,337,18.0369,1.64581,0,0,0,0,0,0,0,-1,1742,687,18.0368,-1.64581
525,337,16.9935,2.33093,0,0,0,0,0,0,0,-1,1749,687,16.9935,-2.33094
532,337,16.3579,2.91357,0,0,0,0,0,0,0,-1,1756,687,16.3579,-2.91358
539,337,15.7062,3.49115,0,0,0,0,0,0,0,-1,1763,687,15.7062,-3.49114
546,337,15.0701,4.06219,0,0,0,0,0,0,0,-1,1770,687,15.0701,-4.06219
553,337,14.1956,4.74957,0,0,0,0,0,0,0,-1,1777,687,14.1956,-4.74958
560,337,12.347,2.23297,0,0,0,0,0,0,0,-1,1784,687,12.3471,-2.23299
567,337,11.9288,1.38776,0,0,0,0,0,0,0,-1,1791,687,11.9288,-1.38777
574,337,10.704,1.19476,0,0,0,0,0,0,0,-1,1798,687,10.704,-1.19478
581,337,8.50427,0.561768,0,0,0,0,0,0,0,-1,1805,687,8.5043,-0.561754
588,337,8.5885,-0.0536499,0,0,0,0,0,0,0,-1,1812,687,8.58844,0.0536788
595,337,10.6047,-0.915344,0,0,0,0,0,0,0,-1,1819,687,10.6048,0.915348
602,337,10.8276,-0.506775,-0.00303198,-0.00305854,-0.00176945,-0.00127575,-0.00481476,-0.781646,0.00288036,0.03929,1826,687,10.8276,0.506801
609,337,10.8438,-0.214966,-0.00103327,-0.00212787,-0.000775933,-0.000631042,-0.0025301,-0.478247,0.00152068,0.0213298,1833,687,10.8437,0.214937
616,337,10.8392,0.0140991,-0.000159011,-0.00170439,-0.000402721,-6.03603e-05,-0.00180304,-0.24023,0.00118242,0.01639,1840,687,10.8392,-0.0141252
623,337,10.8541,0.202942,-3.57124e-06,-0.00119548,-0.000332258,8.27918e-05,-0.00128184,-0.254301,0.000883451,0.0141021,1847,687,10.8541,-0.20293
630,337,10.8488,0.428894,-0.000162601,-0.000838266,-0.000603888,0.000191528,-0.0011924,-0.530371,0.000865863,0.0185322,1854,687,10.8488,-0.428886
637,337,10.8549,0.669189,-0.000470458,-0.000553921,-0.00103625,0.000524901,-0.00154928,-0.765273,0.00124526,0.0169096,1861,687,10.8549,-0.669186
644,337,10.8494,0.91333,-0.0011492,-0.000716185,-0.00196645,0.00104564,-0.00291102,-0.840227,0.00236749,0.0110222,1868,687,10.8493,-0.9133
651,337,10.8427,1.14703,-0.00198741,-0.000993124,-0.00307346,0.00162314,-0.00460368,-0.865581,0.00372981,0.00986782,1875,687,10.8427,-1.14705
658,337,10.8441,1.38281,-0.00265194,-0.00130089,-0.00426076,0.00233756,-0.0062904,-0.864017,0.00515267,0.0111153,1882,687,10.8441,-1.38283
665,337,10.8289,1.60663,-0.00267336,-0.00138261,-0.00547222,0.00348217,-0.00753813,-0.844095,0.00650463,0.0129953,1889,687,10.8288,-1.60664
672,337,10.8247,1.7829,-0.00248893,-0.00170752,-0.00683268,0.00474562,-0.00894207,-0.813958,0.00802544,0.0163349,1896,687,10.8248,-1.78289
679,337,10.7526,1.7948,-0.00162131,-0.00194894,-0.00820043,0.00641694,-0.00998719,-0.775411,0.00954541,0.0333158,1903,687,10.7526,-1.79482
686,337,10.8772,1.79236,0.000391897,-0.00189279,-0.00947789,0.00879603,-0.0102969,-0.725424,0.0110347,0.0484424,1910,687,10.8772,-1.79238
693,337,11.021,1.8974,0,0,0,0,0,0,0,-1,1917,687,11.021,-1.89741
700,337,13.4678,-0.972046,0,0,0,0,0,0,0,-1,1924,687,13.4677,0.972062
707,337,14.9698,-0.898987,0,0,0,0,0,0,0,-1,1931,687,14.9698,0.898974
714,337,0,0,0,0,0,0,0,0,0,-1,1938,687,0,0
721,337,0,0,0,0,0,0,0,0,0,-1,1945,687,0,0
728,337,0,0,0,0,0,0,0,0,0,-1,1952,687,0,0
735,337,0,0,0,0,0,0,0,0,0,-1,1959,687,0,0
742,337,0,0,0,0,0,0,0,0,0,-1,1966,687,0,0
749,337,0,0,0,0,0,0,0,0,0,-1,1973,687,0,0
756,337,0,0,0,0,0,0,0,0,0,-1,1980,687,0,0
763,337,0,0,0,0,0,0,0,0,0,-1,1987,687,0,0
770,337,0,0,0,0,0,0,0,0,0,-1,1994,687,0,0
777,337,0,0,0,0,0,0,0,0,0,-1,2001,687,0,0
784,337,0,0,0,0,0,0,0,0,0,-1,2008,687,0,0
791,337,0,0,0,0,0,0,0,0,0,-1,2015,687,0,0
798,337,0,0,0,0,0,0,0,0,0,-1,2022,687,0,0
805,337,0,0,0,0,0,0,0,0,0,-1,2029,687,0,0
812,337,0,0,0,0,0,0,0,0,0,-1,2036,687,0,0
-700,330,0,0,0,0,0,0,0,0,0,-1,524,694,0,0
-693,330,0,0,0,0,0,0,0,0,0,-1,531,694,0,0
-686,330,0,0,0,0,0,0,0,0,0,-1,538,694,0,0
-679,330,0,0,0,0,0,0,0,0,0,-1,545,694,0,0
-672,330,0,0,0,0,0,0,0,0,0,-1,552,694,0,0
-665,330,0,0,0,0,0,0,0,0,0,-1,559,694,0,0
-658,330,0,0,0,0,0,0,0,0,0,-1,566,694,0,0
-651,330,0,0,0,0,0,0,0,0,0,-1,573,694,0,0
-644,330,0,0,0,0,0,0,0,0,0,-1,580,694,0,0
-637,330,0,0,0,0,0,0,0,0,0,-1,587,694,0,0
-630,330,0,0,0,0,0,0,0,0,0,-1,594,694,0,0
-623,330,0,0,0,0,0,0,0,0,0,-1,601,694,0,0
-616,330,0,0,0,0,0,0,0,0,0,-1,608,694,0,0
-609,330,0,0,0,0,0,0,0,0,0,-1,615,694,0,0
-602,330,0,0,0,0,0,0,0,0,0,-1,622,694,0,0
-595,330,-4.67883,1.65515,0,0,0,0,0,0,0,-1,629,694,-4.67881,-1.65515
-588,330,-4.70923,1.38007,0,0,0,0,0,0,0,-1,636,694,-4.70922,-1.38007
-581,330,-5.1795,0.640747,0,0,0,0,0,0,0,-1,643,694,-5.17952,-0.640773
-574,330,-7.24469,0.918945,0,0,0,0,0,0,0,-1,650,694,-7.2447,-0.918933
-567,330,-6.54895,0.479065,0,0,0,0,0,0,0,-1,657,694,-6.54894,-0.479042
-560,330,-5.92859,0.330994,0.0195706,0.00540179,-0.000858462,0.0196224,0.00534997,-0.0602942,0.0117129,0.0457714,664,694,-5.92861,-0.330985
-553,330,-5.75079,0.0925903,0.0137461,0.0066236,-0.00126139,0.0139629,0.0064068,-0.170206,0.00807056,0.0390149,671,694,-5.7508,-0.0925985
-546,330,-5.65765,-0.13385,0.0095788,0.0068176,-0.00136099,0.0101369,0.00625955,-0.389123,0.00590614,0.0253976,678,694,-5.65765,0.133837
-539,330,-5.65753,-0.334717,0.0066543,0.00633357,-0.00127842,0.00778237,0.0052055,-0.723004,0.00457779,0.0113618,685,694,-5.65754,0.334691
-532,330,-5.70599,-0.540527,0.00453905,0.00543999,-0.00110497,0.00618279,0.00379626,-0.978952,0.00360043,0.00985287,692,694,-5.70597,0.540541
-525,330,-5.72003,-0.776917,0.0030564,0.00430672,-0.000876369,0.00475806,0.00260506,-1.09521,0.0027512,0.0111407,699,694,-5.72005,0.776909
-518,330,-5.72626,-0.967896,0.00202831,0.00306603,-0.00068146,0.00340368,0.00169067,-1.11077,0.00196513,0.0144757,706,694,-5.72623,0.967897
-511,330,-5.72485,-1.18054,0.00180461,0.00188981,-0.000542809,0.00239169,0.00130273,-0.82456,0.00138268,0.0194886,713,694,-5.72484,1.18053
-504,330,-5.7132,-1.41229,0.00242322,0.000560288,-0.000319312,0.00247644,0.000507077,-0.165125,0.00151057,0.01808,720,694,-5.71319,1.41227
-497,330,-5.69647,-1.6062,0.00336759,-0.000693761,-0.000229889,0.00338056,-0.000706733,-0.0563641,0.0025225,0.0126863,727,694,-5.6965,1.60617
-490,330,-5.70551,-1.8407,0.00482413,-0.00246812,-3.03875e-05,0.00482425,-0.00246825,-0.004167,0.00428294,0.0122694,734,694,-5.70553,1.84071
-483,330,-5.71118,-2.06036,0.00680696,-0.00368138,9.85212e-05,0.00680788,-0.0036823,0.0093923,0.00614547,0.0129039,741,694,-5.71117,2.06038
-476,330,-5.72144,-2.255,0.00917602,-0.00536206,0.000246278,0.00918019,-0.00536623,0.0169338,0.00849406,0.0205744,748,694,-5.72145,2.255
-469,330,-5.5672,-2.37073,0.0121686,-0.00769731,0.000508586,0.0121816,-0.00771032,0.0255786,0.0115809,0.0364307,755,694,-5.5672,2.37072
-462,330,-5.54694,-2.68835,0,0,0,0,0,0,0,-1,762,694,-5.54697,2.68834
-455,330,-5.04254,-1.79303,0,0,0,0,0,0,0,-1,769,694,-5.04252,1.79305
-448,330,-4.89886,-1.66156,0,0,0,0,0,0,0,-1,776,694,-4.89886,1.66157
-441,330,-5.30676,-2.34045,0,0,0,0,0,0,0,-1,783,694,-5.30679,2.34048
-434,330,-7.20428,1.00024,0,0,0,0,0,0,0,-1,790,694,-7.20431,-1.00027
-427,330,-7.67114,0.451782,0,0,0,0,0,0,0,-1,797,694,-7.67116,-0.451789
-420,330,-9.80774,2.9187,0,0,0,0,0,0,0,-1,804,694,-9.80774,-2.91868
-413,330,-10.4567,2.56183,0,0,0,0,0,0,0,-1,811,694,-10.4567,-2.56182
-406,330,-1.65375,-1.74371,0,0,0,0,0,0,0,-1,818,694,-1.65375,1.74371
-399,330,0,0,0,0,0,0,0,0,0,-1,825,694,0,0
-392,330,0,0,0,0,0,0,0,0,0,-1,832,694,0,0
-385,330,0,0,0,0,0,0,0,0,0,-1,839,694,0,0
-378,330,0,0,0,0,0,0,0,0,0,-1,846,694,0,0
-371,330,0,0,0,0,0,0,0,0,0,-1,853,694,0,0
-364,330,0,0,0,0,0,0,0,0,0,-1,860,694,0,0
-357,330,0,0,0,0,0,0,0,0,0,-1,867,694,0,0
-350,330,0,0,0,0,0,0,0,0,0,-1,874,694,0,0
-343,330,0,0,0,0,0,0,0,0,0,-1,881,694,0,0
-336,330,0,0,0,0,0,0,0,0,0,-1,888,694,0,0
-329,330,0,0,0,0,0,0,0,0,0,-1,895,694,0,0
-322,330,0,0,0,0,0,0,0,0,0,-1,902,694,0,0
-315,330,0,0,0,0,0,0,0,0,0,-1,909,694,0,0
-308,330,0,0,0,0,0,0,0,0,0,-1,916,694,0,0
-301,330,0,0,0,0,0,0,0,0,0,-1,923,694,0,0
-294,330,0,0,0,0,0,0,0,0,0,-1,930,694,0,0
-287,330,0,0,0,0,0,0,0,0,0,-1,937,694,0,0
-280,330,0,0,0,0,0,0,0,0,0,-1,944,694,0,0
-273,330,0,0,0,0,0,0,0,0,0,-1,951,694,0,0
-266,330,0,0,0,0,0,0,0,0,0,-1,958,694,0,0
-259,330,0,0,0,0,0,0,0,0,0,-1,965,694,0,0
-252,330,0,0,0,0,0,0,0,0,0,-1,972,694,0,0
-245,330,0,0,0,0,0,0,0,0,0,-1,979,694,0,0
-238,330,0,0,0,0,0,0,0,0,0,-1,986,694,0,0
-231,330,0,0,0,0,0,0,0,0,0,-1,993,694,0,0
-224,330,0,0,0,0,0,0,0,0,0,-1,1000,694,0,0
-217,330,0,0,0,0,0,0,0,0,0,-1,1007,694,0,0
-210,330,0,0,0,0,0,0,0,0,0,-1,1014,694,0,0
-203,330,0,0,0,0,0,0,0,0,0,-1,1021,694,0,0
-196,330,0,0,0,0,0,0,0,0,0,-1,1028,694,0,0
-189,330,0,0,0,0,0,0,0,0,0,-1,1035,694,0,0
-182,330,0,0,0,0,0,0,0,0,0,-1,1042,694,0,0
-175,330,0,0,0,0,0,0,0,0,0,-1,1049,694,0,0
-168,330,0,0,0,0,0,0,0,0,0,-1,1056,694,0,0
-161,330,0,0,0,0,0,0,0,0,0,-1,1063,694,0,0
-154,330,0,0,0,0,0,0,0,0,0,-1,1070,694,0,0
-147,330,0,0,0,0,0,0,0,0,0,-1,1077,694,0,0
-140,330,0,0,0,0,0,0,0,0,0,-1,1084,694,0,0
-133,330,0,0,0,0,0,0,0,0,0,-1,1091,694,0,0
-126,330,0,0,0,0,0,0,0,0,0,-1,1098,694,0,0
-119,330,0,0,0,0,0,0,0,0,0,-1,1105,694,0,0
-112,330,0,0,0,0,0,0,0,0,0,-1,1112,694,0,0
-105,330,0,0,0,0,0,0,0,0,0,-1,1119,694,0,0
-98,330,0,0,0,0,0,0,0,0,0,-1,1126,694,0,0
-91,330,0,0,0,0,0,0,0,0,0,-1,1133,694,0,0
-84,330,0,0,0,0,0,0,0,0,0,-1,1140,694,0,0
-77,330,0,0,0,0,0,0,0,0,0,-1,1147,694,0,0
-70,330,0,0,0,0,0,0,0,0,0,-1,1154,694,0,0
-63,330,0,0,0,0,0,0,0,0,0,-1,1161,694,0,0
-56,330,0,0,0,0,0,0,0,0,0,-1,1168,694,0,0
-49,330,0,0,0,0,0,0,0,0,0,-1,1175,694,0,0
-42,330,0,0,0,0,0,0,0,0,0,-1,1182,694,0,0
-35,330,0,0,0,0,0,0,0,0,0,-1,1189,694,0,0
-28,330,0,0,0,0,0,0,0,0,0,-1,1196,694,0,0
-21,330,0,0,0,0,0,0,0,0,0,-1,1203,694,0,0
-14,330,0,0,0,0,0,0,0,0,0,-1,1210,694,0,0
-7,330,0,0,0,0,0,0,0,0,0,-1,1217,694,0,0
0,330,0,0,0,0,0,0,0,0,0,-1,1224,694,0,0
7,330,0,0,0,0,0,0,0,0,0,-1,1231,694,0,0
14,330,0,0,0,0,0,0,0,0,0,-1,1238,694,0,0
21,330,0,0,0,0,0,0,0,0,0,-1,1245,694,0,0
28,330,0,0,0,0,0,0,0,0,0,-1,1252,694,0,0
35,330,0,0,0,0,0,0,0,0,0,-1,1259,694,0,0
42,330,0,0,0,0,0,0,0,0,0,-1,1266,694,0,0
49,330,0,0,0,0,0,0,0,0,0,-1,1273,694,0,0
56,330,0,0,0,0,0,0,0,0,0,-1,1280,694,0,0
63,330,0,0,0,0,0,0,0,0,0,-1,1287,694,0,0
70,330,0,0,0,0,0,0,0,0,0,-1,1294,694,0,0
77,330,0,0,0,0,0,0,0,0,0,-1,1301,694,0,0
84,330,0,0,0,0,0,0,0,0,0,-1,1308,694,0,0
91,330,0,0,0,0,0,0,0,0,0,-1,1315,694,0,0
98,330,0,0,0,0,0,0,0,0,0,-1,1322,694,0,0
105,330,0,0,0,0,0,0,0,0,0,-1,1329,694,0,0
112,330,0,0,0,0,0,0,0,0,0,-1,1336,694,0,0
119,330,0,0,0,0,0,0,0,0,0,-1,1343,694,0,0
126,330,0,0,0,0,0,0,0,0,0,-1,1350,694,0,0
133,330,0,0,0,0,0,0,0,0,0,-1,1357,694,0,0
140,330,0,0,0,0,0,0,0,0,0,-1,1364,694,0,0
147,330,0,0,0,0,0,0,0,0,0,-1,1371,694,0,0
154,330,0,0,0,0,0,0,0,0,0,-1,1378,694,0,0
161,330,0,0,0,0,0,0,0,0,0,-1,1385,694,0,0
168,330,0,0,0,0,0,0,0,0,0,-1,1392,694,0,0
175,330,0,0,0,0,0,0,0,0,0,-1,1399,694,0,0
182,330,0,0,0,0,0,0,0,0,0,-1,1406,694,0,0
189,330,0,0,0,0,0,0,0,0,0,-1,1413,694,0,0
196,330,0,0,0,0,0,0,0,0,0,-1,1420,694,0,0
203,330,0,0,0,0,0,0,0,0,0,-1,1427,694,0,0
210,330,0,0,0,0,0,0,0,0,0,-1,1434,694,0,0
217,330,0,0,0,0,0,0,0,0,0,-1,1441,694,0,0
224,330,0,0,0,0,0,0,0,0,0,-1,1448,694,0,0
231,330,0,0,0,0,0,0,0,0,0,-1,1455,694,0,0
238,330,0,0,0,0,0,0,0,0,0,-1,1462,694,0,0
245,330,0,0,0,0,0,0,0,0,0,-1,1469,694,0,0
252,330,0,0,0,0,0,0,0,0,0,-1,1476,694,0,0
259,330,0,0,0,0,0,0,0,0,0,-1,1483,694,0,0
266,330,0,0,0,0,0,0,0,0,0,-1,1490,694,0,0
273,330,0,0,0,0,0,0,0,0,0,-1,1497,694,0,0
280,330,0,0,0,0,0,0,0,0,0,-1,1504,694,0,0
287,330,0,0,0,0,0,0,0,0,0,-1,1511,694,0,0
294,330,0,0,0,0,0,0,0,0,0,-1,1518,694,0,0
301,330,0,0,0,0,0,0,0,0,0,-1,1525,694,0,0
308,330,0,0,0,0,0,0,0,0,0,-1,1532,694,0,0
315,330,0,0,0,0,0,0,0,0,0,-1,1539,694,0,0
322,330,0,0,0,0,0,0,0,0,0,-1,1546,694,0,0
329,330,0,0,0,0,0,0,0,0,0,-1,1553,694,0,0
336,330,0,0,0,0,0,0,0,0,0,-1,1560,694,0,0
343,330,0,0,0,0,0,0,0,0,0,-1,1567,694,0,0
350,330,0,0,0,0,0,0,0,0,0,-1,1574,694,0,0
357,330,0,0,0,0,0,0,0,0,0,-1,1581,694,0,0
364,330,0,0,0,0,0,0,0,0,0,-1,1588,694,0,0
371,330,0,0,0,0,0,0,0,0,0,-1,1595,694,0,0
378,330,0,0,0,0,0,0,0,0,0,-1,1602,694,0,0
385,330,0,0,0,0,0,0,0,0,0,-1,1609,694,0,0
392,330,0,0,0,0,0,0,0,0,0,-1,1616,694,0,0
399,330,0,0,0,0,0,0,0,0,0,-1,1623,694,0,0
406,330,0,0,0,0,0,0,0,0,0,-1,1630,694,0,0
413,330,0,0,0,0,0,0,0,0,0,-1,1637,694,0,0
420,330,0,0,0,0,0,0,0,0,0,-1,1644,694,0,0
427,330,0,0,0,0,0,0,0,0,0,-1,1651,694,0,0
434,330,0,0,0,0,0,0,0,0,0,-1,1658,694,0,0
441,330,0,0,0,0,0,0,0,0,0,-1,1665,694,0,0
448,330,0,0,0,0,0,0,0,0,0,-1,1672,694,0,0
455,330,0,0,0,0,0,0,0,0,0,-1,1679,694,0,0
462,330,0,0,0,0,0,0,0,0,0,-1,1686,694,0,0
469,330,0,0,0,0,0,0,0,0,0,-1,1693,694,0,0
476,330,0,0,0,0,0,0,0,0,0,-1,1700,694,0,0
483,330,0,0,0,0,0,0,0,0,0,-1,1707,694,0,0
490,330,0,0,0,0,0,0,0,0,0,-1,1714,694,0,0
497,330,0,0,0,0,0,0,0,0,0,-1,1721,694,0,0
504,330,0,0,0,0,0,0,0,0,0,-1,1728,694,0,0
511,330,0,0,0,0,0,0,0,0,0,-1,1735,694,0,0
518,330,0,0,0,0,0,0,0,0,0,-1,1742,694,0,0
525,330,17.5052,1.86627,0,0,0,0,0,0,0,-1,1749,694,17.5052,-1.86629
532,330,16.8772,2.56702,0,0,0,0,0,0,0,-1,1756,694,16.8772,-2.567
539,330,16.1982,5.49628,0,0,0,0,0,0,0,-1,1763,694,16.1983,-5.49626
546,330,15.353,3.8175,0,0,0,0,0,0,0,-1,1770,694,15.353,-3.81751
553,330,14.3347,4.82251,0,0,0,0,0,0,0,-1,1777,694,14.3347,-4.8225
560,330,13.3215,5.24579,0,0,0,0,0,0,0,-1,1784,694,13.3216,-5.24581
567,330,15.6969,2.73596,0,0,0,0,0,0,0,-1,1791,694,15.6969,-2.73596
574,330,12.0454,2.1662,0,0,0,0,0,0,0,-1,1798,694,12.0455,-2.16618
581,330,11.4215,4.50836,0,0,0,0,0,0,0,-1,1805,694,11.4215,-4.50837
588,330,6.45667,-0.0630493,0,0,0,0,0,0,0,-1,1812,694,6.45661,0.0630695
595,330,8.23193,-0.258484,0,0,0,0,0,0,0,-1,1819,694,8.23188,0.258459
602,330,10.7773,-0.765137,0,0,0,0,0,0,0,-1,1826,694,10.7773,0.765164
609,330,10.9923,-0.290649,-0.000525889,-0.00241098,-0.000649649,-0.000323692,-0.00261317,-0.301738,0.00164487,0.0296534,1833,694,10.9923,0.290664
616,330,11.0798,-0.00366211,0.000429486,-0.00187663,-0.000162392,0.000440865,-0.001888,-0.069958,0.00142849,0.0112363,1840,694,11.0798,0.00364194
623,330,11.0939,0.208374,0.000569343,-0.00134191,-8.84961e-06,0.000569384,-0.00134195,-0.00463013,0.00113316,0.0120989,1847,694,11.0939,-0.208358
630,330,11.1011,0.443359,0.000388939,-0.000967979,-0.000201816,0.000418319,-0.000997359,-0.144563,0.000839823,0.012478,1854,694,11.1011,-0.443365
637,330,11.1097,0.685486,0.000101629,-0.000622384,-0.000569311,0.000414281,-0.000935035,-0.50221,0.000798133,0.0125924,1861,694,11.1098,-0.685508
644,330,11.0815,0.920349,-0.000533057,-0.000768498,-0.00139765,0.000751817,-0.00205337,-0.743383,0.00167668,0.0083897,1868,694,11.0816,-0.920378
651,330,11.0769,1.14459,-0.00131615,-0.00103695,-0.00236645,0.00119401,-0.00354711,-0.81486,0.00284745,0.0106945,1875,694,11.0769,-1.14461
658,330,11.0778,1.36884,-0.00190615,-0.00130511,-0.00337044,0.00177818,-0.00498944,-0.829862,0.00405126,0.0113594,1882,694,11.0778,-1.36886
665,330,11.0656,1.58295,-0.00182411,-0.00123972,-0.00434523,0.00282313,-0.00588696,-0.81897,0.00513143,0.0105453,1889,694,11.0656,-1.58296
672,330,11.0739,1.80249,-0.00159901,-0.00141673,-0.00540945,0.00390235,-0.00691809,-0.793822,0.00632754,0.0130169,1896,694,11.0739,-1.80246
679,330,10.9542,1.9577,-0.000476039,-0.00115567,-0.00638252,0.00557571,-0.00720741,-0.758803,0.00740035,0.0255443,1903,694,10.9542,-1.95771
686,330,10.834,2.12604,0.00167093,-0.000501271,-0.00725884,0.00792447,-0.00675481,-0.711137,0.00848405,0.0445888,1910,694,10.8339,-2.12607
693,330,10.7255,2.25531,0,0,0,0,0,0,0,-1,1917,694,10.7254,-2.25533
700,330,12.2338,-0.0736084,0,0,0,0,0,0,0,-1,1924,694,12.2338,0.0736035
707,330,13.4666,-0.003479,0,0,0,0,0,0,0,-1,1931,694,13.4665,0.00345908
714,330,14.6604,0.0909424,0,0,0,0,0,0,0,-1,1938,694,14.6604,-0.0909463
721,330,0,0,0,0,0,0,0,0,0,-1,1945,694,0,0
728,330,0,0,0,0,0,0,0,0,0,-1,1952,694,0,0
735,330,0,0,0,0,0,0,0,0,0,-1,1959,694,0,0
742,330,0,0,0,0,0,0,0,0,0,-1,1966,694,0,0
749,330,0,0,0,0,0,0,0,0,0,-1,1973,694,0,0
756,330,0,0,0,0,0,0,0,0,0,-1,1980,694,0,0
763,330,0,0,0,0,0,0,0,0,0,-1,1987,694,0,0
770,330,0,0,0,0,0,0,0,0,0,-1,1994,694,0,0
777,330,0,0,0,0,0,0,0,0,0,-1,2001,694,0,0
784,330,0,0,0,0,0,0,0,0,0,-1,2008,694,0,0
791,330,0,0,0,0,0,0,0,0,0,-1,2015,694,0,0
798,330,0,0,0,0,0,0,0,0,0,-1,2022,694,0,0
805,330,0,0,0,0,0,0,0,0,0,-1,2029,694,0,0
812,330,0,0,0,0,0,0,0,0,0,-1,2036,694,0,0
-700,323,0,0,0,0,0,0,0,0,0,-1,524,701,0,0
-693,323,0,0,0,0,0,0,0,0,0,-1,531,701,0,0
-686,323,0,0,0,0,0,0,0,0,0,-1,538,701,0,0
-679,323,0,0,0,0,0,0,0,0,0,-1,545,701,0,0
-672,323,0,0,0,0,0,0,0,0,0,-1,552,701,0,0
-665,323,0,0,0,0,0,0,0,0,0,-1,559,701,0,0
-658,323,0,0,0,0,0,0,0,0,0,-1,566,701,0,0
-651,323,0,0,0,0,0,0,0,0,0,-1,573,701,0,0
-644,323,0,0,0,0,0,0,0,0,0,-1,580,701,0,0
-637,323,0,0,0,0,0,0,0,0,0,-1,587,701,0,0
-630,323,0,0,0,0,0,0,0,0,0,-1,594,701,0,0
-623,323,0,0,0,0,0,0,0,0,0,-1,601,701,0,0
-616,323,0,0,0,0,0,0,0,0,0,-1,608,701,0,0
-609,323,0,0,0,0,0,0,0,0,0,-1,615,701,0,0
-602,323,-4.15833,2.12256,0,0,0,0,0,0,0,-1,622,701,-4.1583,-2.12257
-595,323,-4.052,1.79156,0,0,0,0,0,0,0,-1,629,701,-4.05198,-1.79158
-588,323,-4.07019,1.94543,0,0,0,0,0,0,0,-1,636,701,-4.07019,-1.94542
-581,323,-6.63727,0.562805,0,0,0,0,0,0,0,-1,643,701,-6.63728,-0.56279
-574,323,-6.15887,0.426697,0,0,0,0,0,0,0,-1,650,701,-6.15887,-0.426727
-567,323,-6.27344,-0.357178,0,0,0,0,0,0,0,-1,657,701,-6.27346,0.35715
-560,323,-6.09155,0.0610962,0.00379875,0.00784585,-0.000906252,0.00803951,0.00360509,-1.36026,0.00464984,0.0488405,664,701,-6.09153,-0.0611037
-553,323,-5.93799,-0.02771,0.00141107,0.00769613,-0.000729486,0.00777968,0.00132752,-1.45675,0.00480547,0.0292773,671,701,-5.93802,0.0277011
-546,323,-5.92206,-0.157837,0.000234463,0.00710653,-0.000836626,0.00720691,0.000134076,-1.45138,0.00476055,0.0111361,678,701,-5.92209,0.157833
-539,323,-5.92688,-0.322205,-0.00018241,0.0061302,-0.000803504,0.00623087,-0.000283079,-1.44616,0.00425141,0.0107327,685,701,-5.92687,0.322211
-532,323,-5.92352,-0.542969,-0.000223174,0.00494941,-0.000704511,0.00504365,-0.000317412,-1.43782,0.00347307,0.00966239,692,701,-5.9235,0.542985
-525,323,-5.93903,-0.771118,-1.90746e-05,0.00360586,-0.000547618,0.00368678,-9.99968e-05,-1.42409,0.00249186,0.00769386,699,701,-5.93903,0.771146
-518,323,-5.94446,-0.954529,0.000444398,0.00222356,-0.000447867,0.00232994,0.000338017,-1.33759,0.00145378,0.0098421,706,701,-5.94445,0.954529
-511,323,-5.95337,-1.16809,0.00163731,0.000891434,-0.00040169,0.0018125,0.000716251,-0.411249,0.00105408,0.0139501,713,701,-5.95334,1.16809
-504,323,-5.95203,-1.36267,0.00317903,-0.000648005,-0.000301828,0.00320269,-0.000671663,-0.0782229,0.00239067,0.0149474,720,701,-5.95204,1.36264
-497,323,-5.93268,-1.57788,0.00478658,-0.00216174,-0.000293346,0.00479894,-0.0021741,-0.0421184,0.00411987,0.011787,727,701,-5.93268,1.5779
-490,323,-5.93506,-1.82422,0.00678854,-0.00455391,-0.000101153,0.00678944,-0.00455481,-0.00891713,0.00659183,0.0124442,734,701,-5.93506,1.82423
-483,323,-5.93848,-2.04193,0.00925831,-0.00657992,-2.58303e-05,0.00925835,-0.00657996,-0.00163087,0.00918773,0.0162802,741,701,-5.93851,2.0419
-476,323,-5.83881,-2.28314,0.0120077,-0.00928583,8.89107e-05,0.0120081,-0.0092862,0.00417537,0.0123277,0.0341058,748,701,-5.83879,2.28316
-469,323,-5.47906,-2.57178,0,0,0,0,0,0,0,-1,755,701,-5.47905,2.57175
-462,323,-5.29431,-1.45697,0,0,0,0,0,0,0,-1,762,701,-5.29431,1.45699
-455,323,-5.0658,-1.36639,0,0,0,0,0,0,0,-1,769,701,-5.06578,1.3664
-448,323,-4.91608,-1.59601,0,0,0,0,0,0,0,-1,776,701,-4.91606,1.59604
-441,323,-4.66174,-2.02039,0,0,0,0,0,0,0,-1,783,701,-4.66175,2.02036
-434,323,-7.5022,0.849731,0,0,0,0,0,0,0,-1,790,701,-7.50219,-0.849752
-427,323,-7.61346,-0.0681763,0,0,0,0,0,0,0,-1,797,701,-7.61345,0.0681943
-420,323,-10.3256,2.65674,0,0,0,0,0,0,0,-1,804,701,-10.3256,-2.65675
-413,323,-10.202,3.21863,0,0,0,0,0,0,0,-1,811,701,-10.202,-3.21863
-406,323,0,0,0,0,0,0,0,0,0,-1,818,701,0,0
-399,323,0,0,0,0,0,0,0,0,0,-1,825,701,0,0
-392,323,0,0,0,0,0,0,0,0,0,-1,832,701,0,0
-385,323,0,0,0,0,0,0,0,0,0,-1,839,701,0,0
-378,323,0,0,0,0,0,0,0,0,0,-1,846,701,0,0
-371,323,0,0,0,0,0,0,0,0,0,-1,853,701,0,0
-364,323,0,0,0,0,0,0,0,0,0,-1,860,701,0,0
-357,323,0,0,0,0,0,0,0,0,0,-1,867,701,0,0
-350,323,0,0,0,0,0,0,0,0,0,-1,874,701,0,0
-343,323,0,0,0,0,0,0,0,0,0,-1,881,701,0,0
-336,323,0,0,0,0,0,0,0,0,0,-1,888,701,0,0
-329,323,0,0,0,0,0,0,0,0,0,-1,895,701,0,0
-322,323,0,0,0,0,0,0,0,0,0,-1,902,701,0,0
-315,323,0,0,0,0,0,0,0,0,0,-1,909,701,0,0
-308,323,0,0,0,0,0,0,0,0,0,-1,916,701,0,0
-301,323,0,0,0,0,0,0,0,0,0,-1,923,701,0,0
-294,323,0,0,0,0,0,0,0,0,0,-1,930,701,0,0
-287,323,0,0,0,0,0,0,0,0,0,-1,937,701,0,0
-280,323,0,0,0,0,0,0,0,0,0,-1,944,701,0,0
-273,323,0,0,0,0,0,0,0,0,0,-1,951,701,0,0
-266,323,0,0,0,0,0,0,0,0,0,-1,958,701,0,0
-259,323,0,0,0,0,0,0,0,0,0,-1,965,701,0,0
-252,323,0,0,0,0,0,0,0,0,0,-1,972,701,0,0
-245,323,0,0,0,0,0,0,0,0,0,-1,979,701,0,0
-238,323,0,0,0,0,0,0,0,0,0,-1,986,701,0,0
-231,323,0,0,0,0,0,0,0,0,0,-1,993,701,0,0
-224,323,0,0,0,0,0,0,0,0,0,-1,1000,701,0,0
-217,323,0,0,0,0,0,0,0,0,0,-1,1007,701,0,0
-210,323,0,0,0,0,0,0,0,0,0,-1,1014,701,0,0
-203,323,0,0,0,0,0,0,0,0,0,-1,1021,701,0,0
-196,323,0,0,0,0,0,0,0,0,0,-1,1028,701,0,0
-189,323,0,0,0,0,0,0,0,0,0,-1,1035,701,0,0
-182,323,0,0,0,0,0,0,0,0,0,-1,1042,701,0,0
-175,323,0,0,0,0,0,0,0,0,0,-1,1049,701,0,0
-168,323,0,0,0,0,0,0,0,0,0,-1,1056,701,0,0
-161,323,0,0,0,0,0,0,0,0,0,-1,1063,701,0,0
-154,323,0,0,0,0,0,0,0,0,0,-1,1070,701,0,0
-147,323,0,0,0,0,0,0,0,0,0,-1,1077,701,0,0
-140,323,0,0,0,0,0,0,0,0,0,-1,1084,701,0,0
-133,323,0,0,0,0,0,0,0,0,0,-1,1091,701,0,0
-126,323,0,0,0,0,0,0,0,0,0,-1,1098,701,0,0
-119,323,0,0,0,0,0,0,0,0,0,-1,1105,701,0,0
-112,323,0,0,0,0,0,0,0,0,0,-1,1112,701,0,0
-105,323,0,0,0,0,0,0,0,0,0,-1,1119,701,0,0
-98,323,0,0,0,0,0,0,0,0,0,-1,1126,701,0,0
-91,323,0,0,0,0,0,0,0,0,0,-1,1133,701,0,0
-84,323,0,0,0,0,0,0,0,0,0,-1,1140,701,0,0
-77,323,0,0,0,0,0,0,0,0,0,-1,1147,701,0,0
-70,323,0,0,0,0,0,0,0,0,0,-1,1154,701,0,0
-63,323,0,0,0,0,0,0,0,0,0,-1,1161,701,0,0
-56,323,0,0,0,0,0,0,0,0,0,-1,1168,701,0,0
-49,323,0,0,0,0,0,0,0,0,0,-1,1175,701,0,0
-42,323,0,0,0,0,0,0,0,0,0,-1,1182,701,0,0
-35,323,0,0,0,0,0,0,0,0,0,-1,1189,701,0,0
-28,323,0,0,0,0,0,0,0,0,0,-1,1196,701,0,0
-21,323,0,0,0,0,0,0,0,0,0,-1,1203,701,0,0
-14,323,0,0,0,0,0,0,0,0,0,-1,1210,701,0,0
-7,323,0,0,0,0,0,0,0,0,0,-1,1217,701,0,0
0,323,0,0,0,0,0,0,0,0,0,-1,1224,701,0,0
7,323,0,0,0,0,0,0,0,0,0,-1,1231,701,0,0
14,323,0,0,0,0,0,0,0,0,0,-1,1238,701,0,0
21,323,0,0,0,0,0,0,0,0,0,-1,1245,701,0,0
28,323,0,0,0,0,0,0,0,0,0,-1,1252,701,0,0
35,323,0,0,0,0,0,0,0,0,0,-1,1259,701,0,0
42,323,0,0,0,0,0,0,0,0,0,-1,1266,701,0,0
49,323,0,0,0,0,0,0,0,0,0,-1,1273,701,0,0
56,323,0,0,0,0,0,0,0,0,0,-1,1280,701,0,0
63,323,0,0,0,0,0,0,0,0,0,-1,1287,701,0,0
70,323,0,0,0,0,0,0,0,0,0,-1,1294,701,0,0
77,323,0,0,0,0,0,0,0,0,0,-1,1301,701,0,0
84,323,0,0,0,0,0,0,0,0,0,-1,1308,701,0,0
91,323,0,0,0,0,0,0,0,0,0,-1,1315,701,0,0
98,323,0,0,0,0,0,0,0,0,0,-1,1322,701,0,0
105,323,0,0,0,0,0,0,0,0,0,-1,1329,701,0,0
112,323,0,0,0,0,0,0,0,0,0,-1,1336,701,0,0
119,323,0,0,0,0,0,0,0,0,0,-1,1343,701,0,0
126,323,0,0,0,0,0,0,0,0,0,-1,1350,701,0,0
133,323,0,0,0,0,0,0,0,0,0,-1,1357,701,0,0
140,323,0,0,0,0,0,0,0,0,0,-1,1364,701,0,0
147,323,0,0,0,0,0,0,0,0,0,-1,1371,701,0,0
154,323,0,0,0,0,0,0,0,0,0,-1,1378,701,0,0
161,323,0,0,0,0,0,0,0,0,0,-1,1385,701,0,0
168,323,0,0,0,0,0,0,0,0,0,-1,1392,701,0,0
175,323,0,0,0,0,0,0,0,0,0,-1,1399,701,0,0
182,323,0,0,0,0,0,0,0,0,0,-1,1406,701,0,0
189,323,0,0,0,0,0,0,0,0,0,-1,1413,701,0,0
196,323,0,0,0,0,0,0,0,0,0,-1,1420,701,0,0
203,323,0,0,0,0,0,0,0,0,0,-1,1427,701,0,0
210,323,0,0,0,0,0,0,0,0,0,-1,1434,701,0,0
217,323,0,0,0,0,0,0,0,0,0,-1,1441,701,0,0
224,323,0,0,0,0,0,0,0,0,0,-1,1448,701,0,0
231,323,0,0,0,0,0,0,0,0,0,-1,1455,701,0,0
238,323,0,0,0,0,0,0,0,0,0,-1,1462,701,0,0
245,323,0,0,0,0,0,0,0,0,0,-1,1469,701,0,0
252,323,0,0,0,0,0,0,0,0,0,-1,1476,701,0,0
259,323,0,0,0,0,0,0,0,0,0,-1,1483,701,0,0
266,323,0,0,0,0,0,0,0,0,0,-1,1490,701,0,0
273,323,0,0,0,0,0,0,0,0,0,-1,1497,701,0,0
280,323,0,0,0,0,0,0,0,0,0,-1,1504,701,0,0
287,323,0,0,0,0,0,0,0,0,0,-1,1511,701,0,0
294,323,0,0,0,0,0,0,0,0,0,-1,1518,701,0,0
301,323,0,0,0,0,0,0,0,0,0,-1,1525,701,0,0
308,323,0,0,0,0,0,0,0,0,0,-1,1532,701,0,0
315,323,0,0,0,0,0,0,0,0,0,-1,1539,701,0,0
322,323,0,0,0,0,0,0,0,0,0,-1,1546,701,0,0
329,323,0,0,0,0,0,0,0,0,0,-1,1553,701,0,0
336,323,0,0,0,0,0,0,0,0,0,-1,1560,701,0,0
343,323,0,0,0,0,0,0,0,0,0,-1,1567,701,0,0
350,323,0,0,0,0,0,0,0,0,0,-1,1574,701,0,0
357,323,0,0,0,0,0,0,0,0,0,-1,1581,701,0,0
364,323,0,0,0,0,0,0,0,0,0,-1,1588,701,0,0
371,323,0,0,0,0,0,0,0,0,0,-1,1595,701,0,0
378,323,0,0,0,0,0,0,0,0,0,-1,1602,701,0,0
385,323,0,0,0,0,0,0,0,0,0,-1,1609,701,0,0
392,323,0,0,0,0,0,0,0,0,0,-1,1616,701,0,0
399,323,0,0,0,0,0,0,0,0,0,-1,1623,701,0,0
406,323,0,0,0,0,0,0,0,0,0,-1,1630,701,0,0
413,323,0,0,0,0,0,0,0,0,0,-1,1637,701,0,0
420,323,0,0,0,0,0,0,0,0,0,-1,1644,701,0,0
427,323,0,0,0,0,0,0,0,0,0,-1,1651,701,0,0
434,323,0,0,0,0,0,0,0,0,0,-1,1658,701,0,0
441,323,0,0,0,0,0,0,0,0,0,-1,1665,701,0,0
448,323,0,0,0,0,0,0,0,0,0,-1,1672,701,0,0
455,323,0,0,0,0,0,0,0,0,0,-1,1679,701,0,0
462,323,0,0,0,0,0,0,0,0,0,-1,1686,701,0,0
469,323,0,0,0,0,0,0,0,0,0,-1,1693,701,0,0
476,323,0,0,0,0,0,0,0,0,0,-1,1700,701,0,0
483,323,0,0,0,0,0,0,0,0,0,-1,1707,701,0,0
490,323,0,0,0,0,0,0,0,0,0,-1,1714,701,0,0
497,323,0,0,0,0,0,0,0,0,0,-1,1721,701,0,0
504,323,0,0,0,0,0,0,0,0,0,-1,1728,701,0,0
511,323,0,0,0,0,0,0,0,0,0,-1,1735,701,0,0
518,323,0,0,0,0,0,0,0,0,0,-1,1742,701,0,0
525,323,0,0,0,0,0,0,0,0,0,-1,1749,701,0,0
532,323,16.1195,3.75397,0,0,0,0,0,0,0,-1,1756,701,16.1196,-3.75396
539,323,15.8151,4.36414,0,0,0,0,0,0,0,-1,1763,701,15.8151,-4.36415
546,323,14.9697,4.06653,0,0,0,0,0,0,0,-1,1770,701,14.9697,-4.06654
553,323,14.3397,4.67419,0,0,0,0,0,0,0,-1,1777,701,14.3397,-4.67421
560,323,13.4242,4.87994,0,0,0,0,0,0,0,-1,1784,701,13.4242,-4.87996
567,323,12.6624,5.24524,0,0,0,0,0,0,0,-1,1791,701,12.6623,-5.24523
574,323,12.514,5.89685,0,0,0,0,0,0,0,-1,1798,701,12.5141,-5.89683
581,323,11.821,5.3476,0,0,0,0,0,0,0,-1,1805,701,11.821,-5.34762
588,323,11.7933,7.00818,0,0,0,0,0,0,0,-1,1812,701,11.7933,-7.00819
595,323,6.67847,0.06604,0,0,0,0,0,0,0,-1,1819,701,6.67841,-0.0660418
602,323,10.8621,-0.383606,0,0,0,0,0,0,0,-1,1826,701,10.862,0.383621
609,323,11.1591,-0.216003,-0.000493726,-0.00171109,-0.000428228,-0.000358182,-0.00184664,-0.306546,0.00113077,0.0469149,1833,701,11.159,0.21598
616,323,11.3035,-0.0267334,0.000606973,-0.00152511,7.93862e-05,0.000609925,-0.00152807,0.0371654,0.00127174,0.0139418,1840,701,11.3035,0.0267438
623,323,11.3214,0.223267,0.000847028,-0.00124465,0.000254063,0.000877445,-0.00127507,0.119155,0.0012498,0.0121954,1847,701,11.3214,-0.223295
630,323,11.3303,0.460571,0.00076358,-0.00104165,0.000119943,0.000771514,-0.00104958,0.0660552,0.00105549,0.0127204,1854,701,11.3303,-0.460602
637,323,11.3538,0.692322,0.000536023,-0.000729702,-0.000198526,0.000566431,-0.00076011,-0.151987,0.000768595,0.0106077,1861,701,11.3538,-0.692326
644,323,11.329,0.920593,-6.50762e-05,-0.000830247,-0.000939539,0.000566787,-0.00146211,-0.592047,0.0012088,0.00836238,1868,701,11.329,-0.920623
651,323,11.3146,1.15631,-0.000782809,-0.00105671,-0.00178411,0.0008696,-0.00270912,-0.747093,0.00215524,0.0095447,1875,701,11.3146,-1.15629
658,323,11.2946,1.38794,-0.0012867,-0.00125145,-0.00263516,0.00136615,-0.0039043,-0.788742,0.00315832,0.0124025,1882,701,11.2946,-1.38795
665,323,11.2842,1.61182,-0.00106062,-0.00102081,-0.00344207,0.00240141,-0.00448284,-0.78829,0.00403473,0.0115822,1889,701,11.2841,-1.61184
672,323,11.2938,1.84552,-0.000591861,-0.000928144,-0.0042916,0.00353489,-0.00505489,-0.765819,0.00498512,0.0101181,1896,701,11.2938,-1.84554
679,323,11.2684,2.05688,0.00102964,-0.00010044,-0.0050052,0.00550159,-0.00457239,-0.729191,0.00582445,0.0199024,1903,701,11.2685,-2.0569
686,323,11.1238,2.13446,0.00361251,0.00115542,-0.00565122,0.00816718,-0.00339925,-0.678366,0.0068644,0.0441627,1910,701,11.1238,-2.13444
693,323,11.0211,2.22687,0,0,0,0,0,0,0,-1,1917,701,11.0212,-2.22687
700,323,10.7705,0.828613,0,0,0,0,0,0,0,-1,1924,701,10.7705,-0.828591
707,323,12.7253,0.564026,0,0,0,0,0,0,0,-1,1931,701,12.7254,-0.564037
714,323,13.9398,0.620789,0,0,0,0,0,0,0,-1,1938,701,13.9399,-0.620761
721,323,0,0,0,0,0,0,0,0,0,-1,1945,701,0,0
728,323,0,0,0,0,0,0,0,0,0,-1,1952,701,0,0
735,323,0,0,0,0,0,0,0,0,0,-1,1959,701,0,0
742,323,0,0,0,0,0,0,0,0,0,-1,1966,701,0,0
749,323,0,0,0,0,0,0,0,0,0,-1,1973,701,0,0
756,323,0,0,0,0,0,0,0,0,0,-1,1980,701,0,0
763,323,0,0,0,0,0,0,0,0,0,-1,1987,701,0,0
770,323,0,0,0,0,0,0,0,0,0,-1,1994,701,0,0
777,323,0,0,0,0,0,0,0,0,0,-1,2001,701,0,0
784,323,0,0,0,0,0,0,0,0,0,-1,2008,701,0,0
791,323,0,0,0,0,0,0,0,0,0,-1,2015,701,0,0
798,323,0,0,0,0,0,0,0,0,0,-1,2022,701,0,0
805,323,0,0,0,0,0,0,0,0,0,-1,2029,701,0,0
812,323,0,0,0,0,0,0,0,0,0,-1,2036,701,0,0
-700,316,0,0,0,0,0,0,0,0,0,-1,524,708,0,0
-693,316,0,0,0,0,0,0,0,0,0,-1,531,708,0,0
-686,316,0,0,0,0,0,0,0,0,0,-1,538,708,0,0
-679,316,0,0,0,0,0,0,0,0,0,-1,545,708,0,0
-672,316,0,0,0,0,0,0,0,0,0,-1,552,708,0,0
-665,316,0,0,0,0,0,0,0,0,0,-1,559,708,0,0
-658,316,0,0,0,0,0,0,0,0,0,-1,566,708,0,0
-651,316,0,0,0,0,0,0,0,0,0,-1,573,708,0,0
-644,316,0,0,0,0,0,0,0,0,0,-1,580,708,0,0
-637,316,0,0,0,0,0,0,0,0,0,-1,587,708,0,0
-630,316,0,0,0,0,0,0,0,0,0,-1,594,708,0,0
-623,316,0,0,0,0,0,0,0,0,0,-1,601,708,0,0
-616,316,0,0,0,0,0,0,0,0,0,-1,608,708,0,0
-609,316,0,0,0,0,0,0,0,0,0,-1,615,708,0,0
-602,316,-0.451782,-0.0494995,0,0,0,0,0,0,0,-1,622,708,-0.451768,0.0495022
-595,316,-3.3761,2.17188,0,0,0,0,0,0,0,-1,629,708,-3.37609,-2.17189
-588,316,-5.00177,2.60675,0,0,0,0,0,0,0,-1,636,708,-5.00175,-2.60676
-581,316,-3.94653,0.393433,0,0,0,0,0,0,0,-1,643,708,-3.94655,-0.39342
-574,316,-3.65845,1.06451,0,0,0,0,0,0,0,-1,650,708,-3.65847,-1.06454
-567,316,-4.44055,0.737061,0,0,0,0,0,0,0,-1,657,708,-4.44053,-0.737037
-560,316,-5.19922,0.368774,-0.00595974,0.00742038,-3.55083e-05,0.00742047,-0.00595983,-1.56814,0.00774045,0.0438037,664,708,-5.19919,-0.368793
-553,316,-6.047,0.0137939,-0.00551379,0.00663583,0.000427293,0.00665084,-0.0055288,1.53568,0.00704186,0.0288601,671,708,-6.047,-0.0138203
-546,316,-6.16425,-0.107666,-0.00459639,0.00578379,0.000100784,0.00578476,-0.00459737,1.56109,0.00600718,0.0172848,678,708,-6.16422,0.107693
-539,316,-6.1441,-0.328369,-0.00346138,0.00475524,-8.64826e-05,0.00475615,-0.00346229,-1.56027,0.00476448,0.0128943,685,708,-6.14413,0.328385
-532,316,-6.15027,-0.539063,-0.00229763,0.00366182,-0.00017389,0.00366689,-0.0023027,-1.54165,0.00347641,0.010325,692,708,-6.15026,0.539079
-525,316,-6.16034,-0.731323,-0.00113688,0.00240066,-0.000163456,0.0024082,-0.00114442,-1.52472,0.00209392,0.00841172,699,708,-6.16037,0.731302
-518,316,-6.14868,-0.941895,0.000221664,0.00112074,-0.000227585,0.00117506,0.000167337,-1.33647,0.000733982,0.0090653,706,708,-6.14867,0.941891
-511,316,-6.14526,-1.14789,0.00234589,-0.000160328,-0.000325698,0.00238753,-0.000201963,-0.127143,0.0016631,0.0105412,713,708,-6.14527,1.14789
-504,316,-6.14313,-1.36157,0.00448186,-0.00182026,-0.000362092,0.00450259,-0.001841,-0.0572047,0.0037684,0.0133418,720,708,-6.14314,1.3616
-497,316,-6.13812,-1.57996,0.00664303,-0.0035222,-0.000419479,0.00666031,-0.00353949,-0.0411728,0.00598003,0.0115878,727,708,-6.13812,1.57995
-490,316,-6.14069,-1.82367,0.00925166,-0.00652557,-0.000201034,0.00925422,-0.00652813,-0.0127393,0.00915715,0.0132475,734,708,-6.14069,1.82368
-483,316,-6.04633,-2.08911,0.0123461,-0.00928642,-0.000147485,0.0123471,-0.00928742,-0.00681735,0.0125323,0.034275,741,708,-6.04635,2.08912
-476,316,-5.90912,-2.34381,0,0,0,0,0,0,0,-1,748,708,-5.90912,2.34378
-469,316,-6.24194,-1.42725,0,0,0,0,0,0,0,-1,755,708,-6.24192,1.42725
-462,316,-5.74237,-1.40039,0,0,0,0,0,0,0,-1,762,708,-5.74238,1.40039
-455,316,-5.44745,-1.21899,0,0,0,0,0,0,0,-1,769,708,-5.44746,1.21898
-448,316,-5.21997,-1.72546,0,0,0,0,0,0,0,-1,776,708,-5.22,1.72546
-441,316,-4.64679,-2.33038,0,0,0,0,0,0,0,-1,783,708,-4.64677,2.33039
-434,316,-7.45673,0.935486,0,0,0,0,0,0,0,-1,790,708,-7.45674,-0.935479
-427,316,-7.84717,0.0581055,0,0,0,0,0,0,0,-1,797,708,-7.84716,-0.0581049
-420,316,-8.02203,-0.534973,0,0,0,0,0,0,0,-1,804,708,-8.02205,0.534991
-413,316,0,0,0,0,0,0,0,0,0,-1,811,708,0,0
-406,316,0,0,0,0,0,0,0,0,0,-1,818,708,0,0
-399,316,0,0,0,0,0,0,0,0,0,-1,825,708,0,0
-392,316,0,0,0,0,0,0,0,0,0,-1,832,708,0,0
-385,316,0,0,0,0,0,0,0,0,0,-1,839,708,0,0
-378,316,0,0,0,0,0,0,0,0,0,-1,846,708,0,0
-371,316,0,0,0,0,0,0,0,0,0,-1,853,708,0,0
-364,316,0,0,0,0,0,0,0,0,0,-1,860,708,0,0
-357,316,0,0,0,0,0,0,0,0,0,-1,867,708,0,0
-350,316,0,0,0,0,0,0,0,0,0,-1,874,708,0,0
-343,316,0,0,0,0,0,0,0,0,0,-1,881,708,0,0
-336,316,0,0,0,0,0,0,0,0,0,-1,888,708,0,0
-329,316,0,0,0,0,0,0,0,0,0,-1,895,708,0,0
-322,316,0,0,0,0,0,0,0,0,0,-1,902,708,0,0
-315,316,0,0,0,0,0,0,0,0,0,-1,909,708,0,0
-308,316,0,0,0,0,0,0,0,0,0,-1,916,708,0,0
-301,316,0,0,0,0,0,0,0,0,0,-1,923,708,0,0
-294,316,0,0,0,0,0,0,0,0,0,-1,930,708,0,0
-287,316,0,0,0,0,0,0,0,0,0,-1,937,708,0,0
-280,316,0,0,0,0,0,0,0,0,0,-1,944,708,0,0
-273,316,0,0,0,0,0,0,0,0,0,-1,951,708,0,0
-266,316,0,0,0,0,0,0,0,0,0,-1,958,708,0,0
-259,316,0,0,0,0,0,0,0,0,0,-1,965,708,0,0
-252,316,0,0,0,0,0,0,0,0,0,-1,972,708,0,0
-245,316,0,0,0,0,0,0,0,0,0,-1,979,708,0,0
-238,316,0,0,0,0,0,0,0,0,0,-1,986,708,0,0
-231,316,0,0,0,0,0,0,0,0,0,-1,993,708,0,0
-224,316,0,0,0,0,0,0,0,0,0,-1,1000,708,0,0
-217,316,0,0,0,0,0,0,0,0,0,-1,1007,708,0,0
-210,316,0,0,0,0,0,0,0,0,0,-1,1014,708,0,0
-203,316,0,0,0,0,0,0,0,0,0,-1,1021,708,0,0
-196,316,0,0,0,0,0,0,0,0,0,-1,1028,708,0,0
-189,316,0,0,0,0,0,0,0,0,0,-1,1035,708,0,0
-182,316,0,0,0,0,0,0,0,0,0,-1,1042,708,0,0
-175,316,0,0,0,0,0,0,0,0,0,-1,1049,708,0,0
-168,316,0,0,0,0,0,0,0,0,0,-1,1056,708,0,0
-161,316,0,0,0,0,0,0,0,0,0,-1,1063,708,0,0
-154,316,0,0,0,0,0,0,0,0,0,-1,1070,708,0,0
-147,316,0,0,0,0,0,0,0,0,0,-1,1077,708,0,0
-140,316,0,0,0,0,0,0,0,0,0,-1,1084,708,0,0
-133,316,0,0,0,0,0,0,0,0,0,-1,1091,708,0,0
-126,316,0,0,0,0,0,0,0,0,0,-1,1098,708,0,0
-119,316,0,0,0,0,0,0,0,0,0,-1,1105,708,0,0
-112,316,0,0,0,0,0,0,0,0,0,-1,1112,708,0,0
-105,316,0,0,0,0,0,0,0,0,0,-1,1119,708,0,0
-98,316,0,0,0,0,0,0,0,0,0,-1,1126,708,0,0
-91,316,0,0,0,0,0,0,0,0,0,-1,1133,708,0,0
-84,316,0,0,0,0,0,0,0,0,0,-1,1140,708,0,0
-77,316,0,0,0,0,0,0,0,0,0,-1,1147,708,0,0
-70,316,0,0,0,0,0,0,0,0,0,-1,1154,708,0,0
-63,316,0,0,0,0,0,0,0,0,0,-1,1161,708,0,0
-56,316,0,0,0,0,0,0,0,0,0,-1,1168,708,0,0
-49,316,0,0,0,0,0,0,0,0,0,-1,1175,708,0,0
-42,316,0,0,0,0,0,0,0,0,0,-1,1182,708,0,0
-35,316,0,0,0,0,0,0,0,0,0,-1,1189,708,0,0
-28,316,0,0,0,0,0,0,0,0,0,-1,1196,708,0,0
-21,316,0,0,0,0,0,0,0,0,0,-1,1203,708,0,0
-14,316,0,0,0,0,0,0,0,0,0,-1,1210,708,0,0
-7,316,0,0,0,0,0,0,0,0,0,-1,1217,708,0,0
0,316,0,0,0,0,0,0,0,0,0,-1,1224,708,0,0
7,316,0,0,0,0,0,0,0,0,0,-1,1231,708,0,0
14,316,0,0,0,0,0,0,0,0,0,-1,1238,708,0,0
21,316,0,0,0,0,0,0,0,0,0,-1,1245,708,0,0
28,316,0,0,0,0,0,0,0,0,0,-1,1252,708,0,0
35,316,0,0,0,0,0,0,0,0,0,-1,1259,708,0,0
42,316,0,0,0,0,0,0,0,0,0,-1,1266,708,0,0
49,316,0,0,0,0,0,0,0,0,0,-1,1273,708,0,0
56,316,0,0,0,0,0,0,0,0,0,-1,1280,708,0,0
63,316,0,0,0,0,0,0,0,0,0,-1,1287,708,0,0
70,316,0,0,0,0,0,0,0,0,0,-1,1294,708,0,0
77,316,0,0,0,0,0,0,0,0,0,-1,1301,708,0,0
84,316,0,0,0,0,0,0,0,0,0,-1,1308,708,0,0
91,316,0,0,0,0,0,0,0,0,0,-1,1315,708,0,0
98,316,0,0,0,0,0,0,0,0,0,-1,1322,708,0,0
105,316,0,0,0,0,0,0,0,0,0,-1,1329,708,0,0
112,316,0,0,0,0,0,0,0,0,0,-1,1336,708,0,0
119,316,0,0,0,0,0,0,0,0,0,-1,1343,708,0,0
126,316,0,0,0,0,0,0,0,0,0,-1,1350,708,0,0
133,316,0,0,0,0,0,0,0,0,0,-1,1357,708,0,0
140,316,0,0,0,0,0,0,0,0,0,-1,1364,708,0,0
147,316,0,0,0,0,0,0,0,0,0,-1,1371,708,0,0
154,316,0,0,0,0,0,0,0,0,0,-1,1378,708,0,0
161,316,0,0,0,0,0,0,0,0,0,-1,1385,708,0,0
168,316,0,0,0,0,0,0,0,0,0,-1,1392,708,0,0
175,316,0,0,0,0,0,0,0,0,0,-1,1399,708,0,0
182,316,0,0,0,0,0,0,0,0,0,-1,1406,708,0,0
189,316,0,0,0,0,0,0,0,0,0,-1,1413,708,0,0
196,316,0,0,0,0,0,0,0,0,0,-1,1420,708,0,0
203,316,0,0,0,0,0,0,0,0,0,-1,1427,708,0,0
210,316,0,0,0,0,0,0,0,0,0,-1,1434,708,0,0
217,316,0,0,0,0,0,0,0,0,0,-1,1441,708,0,0
224,316,0,0,0,0,0,0,0,0,0,-1,1448,708,0,0
231,316,0,0,0,0,0,0,0,0,0,-1,1455,708,0,0
238,316,0,0,0,0,0,0,0,0,0,-1,1462,708,0,0
245,316,0,0,0,0,0,0,0,0,0,-1,1469,708,0,0
252,316,0,0,0,0,0,0,0,0,0,-1,1476,708,0,0
259,316,0,0,0,0,0,0,0,0,0,-1,1483,708,0,0
266,316,0,0,0,0,0,0,0,0,0,-1,1490,708,0,0
273,316,0,0,0,0,0,0,0,0,0,-1,1497,708,0,0
280,316,0,0,0,0,0,0,0,0,0,-1,1504,708,0,0
287,316,0,0,0,0,0,0,0,0,0,-1,1511,708,0,0
294,316,0,0,0,0,0,0,0,0,0,-1,1518,708,0,0
301,316,0,0,0,0,0,0,0,0,0,-1,1525,708,0,0
308,316,0,0,0,0,0,0,0,0,0,-1,1532,708,0,0
315,316,0,0,0,0,0,0,0,0,0,-1,1539,708,0,0
322,316,0,0,0,0,0,0,0,0,0,-1,1546,708,0,0
329,316,0,0,0,0,0,0,0,0,0,-1,1553,708,0,0
336,316,0,0,0,0,0,0,0,0,0,-1,1560,708,0,0
343,316,0,0,0,0,0,0,0,0,0,-1,1567,708,0,0
350,316,0,0,0,0,0,0,0,0,0,-1,1574,708,0,0
357,316,0,0,0,0,0,0,0,0,0,-1,1581,708,0,0
364,316,0,0,0,0,0,0,0,0,0,-1,1588,708,0,0
371,316,0,0,0,0,0,0,0,0,0,-1,1595,708,0,0
378,316,0,0,0,0,0,0,0,0,0,-1,1602,708,0,0
385,316,0,0,0,0,0,0,0,0,0,-1,1609,708,0,0
392,316,0,0,0,0,0,0,0,0,0,-1,1616,708,0,0
399,316,0,0,0,0,0,0,0,0,0,-1,1623,708,0,0
406,316,0,0,0,0,0,0,0,0,0,-1,1630,708,0,0
413,316,0,0,0,0,0,0,0,0,0,-1,1637,708,0,0
420,316,0,0,0,0,0,0,0,0,0,-1,1644,708,0,0
427,316,0,0,0,0,0,0,0,0,0,-1,1651,708,0,0
434,316,0,0,0,0,0,0,0,0,0,-1,1658,708,0,0
441,316,0,0,0,0,0,0,0,0,0,-1,1665,708,0,0
448,316,0,0,0,0,0,0,0,0,0,-1,1672,708,0,0
455,316,0,0,0,0,0,0,0,0,0,-1,1679,708,0,0
462,316,0,0,0,0,0,0,0,0,0,-1,1686,708,0,0
469,316,0,0,0,0,0,0,0,0,0,-1,1693,708,0,0
476,316,0,0,0,0,0,0,0,0,0,-1,1700,708,0,0
483,316,0,0,0,0,0,0,0,0,0,-1,1707,708,0,0
490,316,0,0,0,0,0,0,0,0,0,-1,1714,708,0,0
497,316,0,0,0,0,0,0,0,0,0,-1,1721,708,0,0
504,316,0,0,0,0,0,0,0,0,0,-1,1728,708,0,0
511,316,0,0,0,0,0,0,0,0,0,-1,1735,708,0,0
518,316,0,0,0,0,0,0,0,0,0,-1,1742,708,0,0
525,316,0,0,0,0,0,0,0,0,0,-1,1749,708,0,0
532,316,15.6722,2.51886,0,0,0,0,0,0,0,-1,1756,708,15.6722,-2.51888
539,316,15.2794,3.11963,0,0,0,0,0,0,0,-1,1763,708,15.2794,-3.11962
546,316,14.8114,3.69598,0,0,0,0,0,0,0,-1,1770,708,14.8115,-3.69596
553,316,14.2327,4.12115,0,0,0,0,0,0,0,-1,1777,708,14.2327,-4.12118
560,316,13.5422,4.41211,0,0,0,0,0,0,0,-1,1784,708,13.5423,-4.4121
567,316,12.839,4.72937,0,0,0,0,0,0,0,-1,1791,708,12.839,-4.72934
574,316,12.4089,5.2868,0,0,0,0,0,0,0,-1,1798,708,12.4089,-5.28681
581,316,12.1108,6.01782,0,0,0,0,0,0,0,-1,1805,708,12.1108,-6.01785
588,316,11.8125,7.09998,0,0,0,0,0,0,0,-1,1812,708,11.8125,-7.09996
595,316,12.5363,1.50702,0,0,0,0,0,0,0,-1,1819,708,12.5363,-1.50701
602,316,7.79919,0.0422363,0,0,0,0,0,0,0,-1,1826,708,7.79923,-0.0422066
609,316,11.3528,-0.10376,0,0,0,0,0,0,0,-1,1833,708,11.3528,0.103753
616,316,11.5544,-0.0198364,0.000210159,-0.000863707,0.000142598,0.000228772,-0.00088232,0.129793,0.000677471,0.0172835,1840,708,11.5544,0.0198359
623,316,11.5564,0.232361,0.000735482,-0.00103658,0.000324799,0.000793138,-0.00109424,0.175683,0.00109429,0.0107613,1847,708,11.5564,-0.232342
630,316,11.546,0.460327,0.000893444,-0.00116591,0.000252977,0.000924065,-0.00119653,0.120457,0.00122769,0.0123355,1854,708,11.546,-0.4603
637,316,11.5619,0.703247,0.000809834,-0.00097618,-6.07034e-06,0.000809854,-0.0009762,-0.00339877,0.00103267,0.0119515,1861,708,11.5618,-0.703233
644,316,11.5732,0.945129,0.000279992,-0.00100822,-0.000647651,0.000549299,-0.00127753,-0.394071,0.00108229,0.0122319,1868,708,11.5733,-0.945148
651,316,11.5408,1.17554,-0.000335098,-0.00116403,-0.0013542,0.000666646,-0.00216578,-0.636895,0.00170995,0.0129172,1875,708,11.5408,-1.17555
658,316,11.521,1.4248,-0.000734695,-0.00125902,-0.00204222,0.00106212,-0.00305584,-0.721561,0.00246864,0.02107,1882,708,11.521,-1.42479
665,316,11.5033,1.65527,-0.000392298,-0.000881628,-0.00269686,0.00207097,-0.00334489,-0.740161,0.00315555,0.0171408,1889,708,11.5033,-1.65528
672,316,11.5242,1.87805,0.000257852,-0.000584758,-0.00340302,0.00326554,-0.00359245,-0.72381,0.00396096,0.0127566,1896,708,11.5242,-1.87803
679,316,11.5432,2.10541,0.00221578,0.000572834,-0.00395117,0.00542997,-0.00264136,-0.682905,0.00475179,0.0178985,1903,708,11.5432,-2.10544
686,316,11.4301,2.18011,0.0050066,0.00208985,-0.00449178,0.00827083,-0.00117438,-0.628429,0.00594414,0.031721,1910,708,11.43,-2.18013
693,316,11.2761,2.2431,0.00963815,0.00487338,-0.00484682,0.0126565,0.00185508,-0.556972,0.00789229,0.0487107,1917,708,11.2761,-2.24308
700,316,11.1136,2.43738,0,0,0,0,0,0,0,-1,1924,708,11.1136,-2.43735
707,316,11.7877,1.08746,0,0,0,0,0,0,0,-1,1931,708,11.7877,-1.08746
714,316,12.7045,5.39276,0,0,0,0,0,0,0,-1,1938,708,12.7045,-5.39279
721,316,12.7159,5.49396,0,0,0,0,0,0,0,-1,1945,708,12.7159,-5.49393
728,316,0,0,0,0,0,0,0,0,0,-1,1952,708,0,0
735,316,0,0,0,0,0,0,0,0,0,-1,1959,708,0,0
742,316,0,0,0,0,0,0,0,0,0,-1,1966,708,0,0
749,316,0,0,0,0,0,0,0,0,0,-1,1973,708,0,0
756,316,0,0,0,0,0,0,0,0,0,-1,1980,708,0,0
763,316,0,0,0,0,0,0,0,0,0,-1,1987,708,0,0
770,316,0,0,0,0,0,0,0,0,0,-1,1994,708,0,0
777,316,0,0,0,0,0,0,0,0,0,-1,2001,708,0,0
784,316,0,0,0,0,0,0,0,0,0,-1,2008,708,0,0
791,316,0,0,0,0,0,0,0,0,0,-1,2015,708,0,0
798,316,0,0,0,0,0,0,0,0,0,-1,2022,708,0,0
805,316,0,0,0,0,0,0,0,0,0,-1,2029,708,0,0
812,316,0,0,0,0,0,0,0,0,0,-1,2036,708,0,0
-700,309,0,0,0,0,0,0,0,0,0,-1,524,715,0,0
-693,309,0,0,0,0,0,0,0,0,0,-1,531,715,0,0
-686,309,0,0,0,0,0,0,0,0,0,-1,538,715,0,0
-679,309,0,0,0,0,0,0,0,0,0,-1,545,715,0,0
-672,309,0,0,0,0,0,0,0,0,0,-1,552,715,0,0
-665,309,0,0,0,0,0,0,0,0,0,-1,559,715,0,0
-658,309,0,0,0,0,0,0,0,0,0,-1,566,715,0,0
-651,309,0,0,0,0,0,0,0,0,0,-1,573,715,0,0
-644,309,0,0,0,0,0,0,0,0,0,-1,580,715,0,0
-637,309,0,0,0,0,0,0,0,0,0,-1,587,715,0,0
-630,309,0,0,0,0,0,0,0,0,0,-1,594,715,0,0
-623,309,0,0,0,0,0,0,0,0,0,-1,601,715,0,0
-616,309,0,0,0,0,0,0,0,0,0,-1,608,715,0,0
-609,309,-5.95392,-3.93689,0,0,0,0,0,0,0,-1,615,715,-5.95392,3.93686
-602,309,-4.99786,-3.31287,0,0,0,0,0,0,0,-1,622,715,-4.99786,3.31284
-595,309,-6.80847,2.4046,0,0,0,0,0,0,0,-1,629,715,-6.80845,-2.40458
-588,309,-6.08795,2.19324,0,0,0,0,0,0,0,-1,636,715,-6.08793,-2.19325
-581,309,-5.97552,1.3277,0,0,0,0,0,0,0,-1,643,715,-5.97552,-1.32769
-574,309,-5.94318,-0.437378,0,0,0,0,0,0,0,-1,650,715,-5.94318,0.437354
-567,309,-4.78308,0.647766,0,0,0,0,0,0,0,-1,657,715,-4.7831,-0.647777
-560,309,-5.5097,0.274475,-0.0133835,0.00526454,0.00126918,0.00535052,-0.0134694,1.50315,0.0111977,0.0434569,664,715,-5.50967,-0.274473
-553,309,-6.28168,0.0697632,-0.0106533,0.00456034,0.00187167,0.00478722,-0.0108801,1.45017,0.00927075,0.0289223,671,715,-6.28168,-0.0697448
-546,309,-6.3623,-0.0906982,-0.00807201,0.00386873,0.00118147,0.00398451,-0.00818779,1.47311,0.00716599,0.0155908,678,715,-6.36231,0.0906923
-539,309,-6.34637,-0.317993,-0.00573805,0.00304747,0.000753687,0.00311166,-0.00580223,1.48584,0.005224,0.0139587,685,715,-6.34638,0.317989
-532,309,-6.34454,-0.529236,-0.00359997,0.00215235,0.00054361,0.00220327,-0.00365089,1.4774,0.00341417,0.0111282,692,715,-6.34453,0.529253
-525,309,-6.35492,-0.738159,-0.00163741,0.000979712,0.000533888,0.00108443,-0.00174213,1.37711,0.00164658,0.0133829,699,715,-6.3549,0.738137
-518,309,-6.36163,-0.951782,0.000561124,-0.000229867,0.000454869,0.000768391,-0.000437134,0.427553,0.000704714,0.0145843,706,715,-6.36163,0.951761
-511,309,-6.35547,-1.1568,0.00353079,-0.00149082,0.000371402,0.00355811,-0.00151814,0.0734282,0.00300863,0.0119846,713,715,-6.35548,1.15679
-504,309,-6.33807,-1.36273,0.00628286,-0.00331449,0.000361561,0.00629647,-0.00332809,0.0376019,0.00564414,0.00907873,720,715,-6.33808,1.36271
-497,309,-6.33185,-1.5816,0.00908229,-0.0052511,0.000376258,0.00909216,-0.00526097,0.0262264,0.00838461,0.0126021,727,715,-6.33185,1.58159
-490,309,-6.30994,-1.79095,0.0122962,-0.00880317,0.000672774,0.0123176,-0.0088246,0.0318429,0.0122619,0.0237635,734,715,-6.30992,1.79094
-483,309,-6.04956,-2.18604,0,0,0,0,0,0,0,-1,741,715,-6.04953,2.18601
-476,309,-5.29486,-1.2262,0,0,0,0,0,0,0,-1,748,715,-5.29484,1.22622
-469,309,-4.22717,-0.592896,0,0,0,0,0,0,0,-1,755,715,-4.2272,0.592905
-462,309,-7.69855,1.83942,0,0,0,0,0,0,0,-1,762,715,-7.69854,-1.83943
-455,309,-5.70184,-1.18042,0,0,0,0,0,0,0,-1,769,715,-5.70185,1.18044
-448,309,-5.56927,-2.21387,0,0,0,0,0,0,0,-1,776,715,-5.56928,2.21385
-441,309,-7.34198,1.73737,0,0,0,0,0,0,0,-1,783,715,-7.34199,-1.73737
-434,309,-7.58209,1.37335,0,0,0,0,0,0,0,-1,790,715,-7.58208,-1.37335
-427,309,-7.76324,1.12799,0,0,0,0,0,0,0,-1,797,715,-7.76323,-1.12801
-420,309,-11.6252,2.34113,0,0,0,0,0,0,0,-1,804,715,-11.6252,-2.34114
-413,309,0,0,0,0,0,0,0,0,0,-1,811,715,0,0
-406,309,0,0,0,0,0,0,0,0,0,-1,818,715,0,0
-399,309,0,0,0,0,0,0,0,0,0,-1,825,715,0,0
-392,309,0,0,0,0,0,0,0,0,0,-1,832,715,0,0
-385,309,0,0,0,0,0,0,0,0,0,-1,839,715,0,0
-378,309,0,0,0,0,0,0,0,0,0,-1,846,715,0,0
-371,309,0,0,0,0,0,0,0,0,0,-1,853,715,0,0
-364,309,0,0,0,0,0,0,0,0,0,-1,860,715,0,0
-357,309,0,0,0,0,0,0,0,0,0,-1,867,715,0,0
-350,309,0,0,0,0,0,0,0,0,0,-1,874,715,0,0
-343,309,0,0,0,0,0,0,0,0,0,-1,881,715,0,0
-336,309,0,0,0,0,0,0,0,0,0,-1,888,715,0,0
-329,309,0,0,0,0,0,0,0,0,0,-1,895,715,0,0
-322,309,0,0,0,0,0,0,0,0,0,-1,902,715,0,0
-315,309,0,0,0,0,0,0,0,0,0,-1,909,715,0,0
-308,309,0,0,0,0,0,0,0,0,0,-1,916,715,0,0
-301,309,0,0,0,0,0,0,0,0,0,-1,923,715,0,0
-294,309,0,0,0,0,0,0,0,0,0,-1,930,715,0,0
-287,309,0,0,0,0,0,0,0,0,0,-1,937,715,0,0
-280,309,0,0,0,0,0,0,0,0,0,-1,944,715,0,0
-273,309,0,0,0,0,0,0,0,0,0,-1,951,715,0,0
-266,309,0,0,0,0,0,0,0,0,0,-1,958,715,0,0
-259,309,0,0,0,0,0,0,0,0,0,-1,965,715,0,0
-252,309,0,0,0,0,0,0,0,0,0,-1,972,715,0,0
-245,309,0,0,0,0,0,0,0,0,0,-1,979,715,0,0
-238,309,0,0,0,0,0,0,0,0,0,-1,986,715,0,0
-231,309,0,0,0,0,0,0,0,0,0,-1,993,715,0,0
-224,309,0,0,0,0,0,0,0,0,0,-1,1000,715,0,0
-217,309,0,0,0,0,0,0,0,0,0,-1,1007,715,0,0
-210,309,0,0,0,0,0,0,0,0,0,-1,1014,715,0,0
-203,309,0,0,0,0,0,0,0,0,0,-1,1021,715,0,0
-196,309,0,0,0,0,0,0,0,0,0,-1,1028,715,0,0
-189,309,0,0,0,0,0,0,0,0,0,-1,1035,715,0,0
-182,309,0,0,0,0,0,0,0,0,0,-1,1042,715,0,0
-175,309,0,0,0,0,0,0,0,0,0,-1,1049,715,0,0
-168,309,0,0,0,0,0,0,0,0,0,-1,1056,715,0,0
-161,309,0,0,0,0,0,0,0,0,0,-1,1063,715,0,0
-154,309,0,0,0,0,0,0,0,0,0,-1,1070,715,0,0
-147,309,0,0,0,0,0,0,0,0,0,-1,1077,715,0,0
-140,309,0,0,0,0,0,0,0,0,0,-1,1084,715,0,0
-133,309,0,0,0,0,0,0,0,0,0,-1,1091,715,0,0
-126,309,0,0,0,0,0,0,0,0,0,-1,1098,715,0,0
-119,309,0,0,0,0,0,0,0,0,0,-1,1105,715,0,0
-112,309,0,0,0,0,0,0,0,0,0,-1,1112,715,0,0
-105,309,0,0,0,0,0,0,0,0,0,-1,1119,715,0,0
-98,309,0,0,0,0,0,0,0,0,0,-1,1126,715,0,0
-91,309,0,0,0,0,0,0,0,0,0,-1,1133,715,0,0
-84,309,0,0,0,0,0,0,0,0,0,-1,1140,715,0,0
-77,309,0,0,0,0,0,0,0,0,0,-1,1147,715,0,0
-70,309,0,0,0,0,0,0,0,0,0,-1,1154,715,0,0
-63,309,0,0,0,0,0,0,0,0,0,-1,1161,715,0,0
-56,309,0,0,0,0,0,0,0,0,0,-1,1168,715,0,0
-49,309,0,0,0,0,0,0,0,0,0,-1,1175,715,0,0
-42,309,0,0,0,0,0,0,0,0,0,-1,1182,715,0,0
-35,309,0,0,0,0,0,0,0,0,0,-1,1189,715,0,0
-28,309,0,0,0,0,0,0,0,0,0,-1,1196,715,0,0
-21,309,0,0,0,0,0,0,0,0,0,-1,1203,715,0,0
-14,309,0,0,0,0,0,0,0,0,0,-1,1210,715,0,0
-7,309,0,0,0,0,0,0,0,0,0,-1,1217,715,0,0
0,309,0,0,0,0,0,0,0,0,0,-1,1224,715,0,0
7,309,0,0,0,0,0,0,0,0,0,-1,1231,715,0,0
14,309,0,0,0,0,0,0,0,0,0,-1,1238,715,0,0
21,309,0,0,0,0,0,0,0,0,0,-1,1245,715,0,0
28,309,0,0,0,0,0,0,0,0,0,-1,1252,715,0,0
35,309,0,0,0,0,0,0,0,0,0,-1,1259,715,0,0
42,309,0,0,0,0,0,0,0,0,0,-1,1266,715,0,0
49,309,0,0,0,0,0,0,0,0,0,-1,1273,715,0,0
56,309,0,0,0,0,0,0,0,0,0,-1,1280,715,0,0
63,309,0,0,0,0,0,0,0,0,0,-1,1287,715,0,0
70,309,0,0,0,0,0,0,0,0,0,-1,1294,715,0,0
77,309,0,0,0,0,0,0,0,0,0,-1,1301,715,0,0
84,309,0,0,0,0,0,0,0,0,0,-1,1308,715,0,0
91,309,0,0,0,0,0,0,0,0,0,-1,1315,715,0,0
98,309,0,0,0,0,0,0,0,0,0,-1,1322,715,0,0
105,309,0,0,0,0,0,0,0,0,0,-1,1329,715,0,0
112,309,0,0,0,0,0,0,0,0,0,-1,1336,715,0,0
119,309,0,0,0,0,0,0,0,0,0,-1,1343,715,0,0
126,309,0,0,0,0,0,0,0,0,0,-1,1350,715,0,0
133,309,0,0,0,0,0,0,0,0,0,-1,1357,715,0,0
140,309,0,0,0,0,0,0,0,0,0,-1,1364,715,0,0
147,309,0,0,0,0,0,0,0,0,0,-1,1371,715,0,0
154,309,0,0,0,0,0,0,0,0,0,-1,1378,715,0,0
161,309,0,0,0,0,0,0,0,0,0,-1,1385,715,0,0
168,309,0,0,0,0,0,0,0,0,0,-1,1392,715,0,0
175,309,0,0,0,0,0,0,0,0,0,-1,1399,715,0,0
182,309,0,0,0,0,0,0,0,0,0,-1,1406,715,0,0
189,309,0,0,0,0,0,0,0,0,0,-1,1413,715,0,0
196,309,0,0,0,0,0,0,0,0,0,-1,1420,715,0,0
203,309,0,0,0,0,0,0,0,0,0,-1,1427,715,0,0
210,309,0,0,0,0,0,0,0,0,0,-1,1434,715,0,0
217,309,0,0,0,0,0,0,0,0,0,-1,1441,715,0,0
224,309,0,0,0,0,0,0,0,0,0,-1,1448,715,0,0
231,309,0,0,0,0,0,0,0,0,0,-1,1455,715,0,0
238,309,0,0,0,0,0,0,0,0,0,-1,1462,715,0,0
245,309,0,0,0,0,0,0,0,0,0,-1,1469,715,0,0
252,309,0,0,0,0,0,0,0,0,0,-1,1476,715,0,0
259,309,0,0,0,0,0,0,0,0,0,-1,1483,715,0,0
266,309,0,0,0,0,0,0,0,0,0,-1,1490,715,0,0
273,309,0,0,0,0,0,0,0,0,0,-1,1497,715,0,0
280,309,0,0,0,0,0,0,0,0,0,-1,1504,715,0,0
287,309,0,0,0,0,0,0,0,0,0,-1,1511,715,0,0
294,309,0,0,0,0,0,0,0,0,0,-1,1518,715,0,0
301,309,0,0,0,0,0,0,0,0,0,-1,1525,715,0,0
308,309,0,0,0,0,0,0,0,0,0,-1,1532,715,0,0
315,309,0,0,0,0,0,0,0,0,0,-1,1539,715,0,0
322,309,0,0,0,0,0,0,0,0,0,-1,1546,715,0,0
329,309,0,0,0,0,0,0,0,0,0,-1,1553,715,0,0
336,309,0,0,0,0,0,0,0,0,0,-1,1560,715,0,0
343,309,0,0,0,0,0,0,0,0,0,-1,1567,715,0,0
350,309,0,0,0,0,0,0,0,0,0,-1,1574,715,0,0
357,309,0,0,0,0,0,0,0,0,0,-1,1581,715,0,0
364,309,0,0,0,0,0,0,0,0,0,-1,1588,715,0,0
371,309,0,0,0,0,0,0,0,0,0,-1,1595,715,0,0
378,309,0,0,0,0,0,0,0,0,0,-1,1602,715,0,0
385,309,0,0,0,0,0,0,0,0,0,-1,1609,715,0,0
392,309,0,0,0,0,0,0,0,0,0,-1,1616,715,0,0
399,309,0,0,0,0,0,0,0,0,0,-1,1623,715,0,0
406,309,0,0,0,0,0,0,0,0,0,-1,1630,715,0,0
413,309,0,0,0,0,0,0,0,0,0,-1,1637,715,0,0
420,309,0,0,0,0,0,0,0,0,0,-1,1644,715,0,0
427,309,0,0,0,0,0,0,0,0,0,-1,1651,715,0,0
434,309,0,0,0,0,0,0,0,0,0,-1,1658,715,0,0
441,309,0,0,0,0,0,0,0,0,0,-1,1665,715,0,0
448,309,0,0,0,0,0,0,0,0,0,-1,1672,715,0,0
455,309,0,0,0,0,0,0,0,0,0,-1,1679,715,0,0
462,309,0,0,0,0,0,0,0,0,0,-1,1686,715,0,0
469,309,0,0,0,0,0,0,0,0,0,-1,1693,715,0,0
476,309,0,0,0,0,0,0,0,0,0,-1,1700,715,0,0
483,309,0,0,0,0,0,0,0,0,0,-1,1707,715,0,0
490,309,0,0,0,0,0,0,0,0,0,-1,1714,715,0,0
497,309,0,0,0,0,0,0,0,0,0,-1,1721,715,0,0
504,309,0,0,0,0,0,0,0,0,0,-1,1728,715,0,0
511,309,0,0,0,0,0,0,0,0,0,-1,1735,715,0,0
518,309,0,0,0,0,0,0,0,0,0,-1,1742,715,0,0
525,309,0,0,0,0,0,0,0,0,0,-1,1749,715,0,0
532,309,0,0,0,0,0,0,0,0,0,-1,1756,715,0,0
539,309,14.8127,2.06628,0,0,0,0,0,0,0,-1,1763,715,14.8127,-2.06629
546,309,14.3623,3.09839,0,0,0,0,0,0,0,-1,1770,715,14.3623,-3.0984
553,309,14.3401,3.57642,0,0,0,0,0,0,0,-1,1777,715,14.34,-3.57643
560,309,13.0106,3.85083,0,0,0,0,0,0,0,-1,1784,715,13.0106,-3.85081
567,309,13.0269,4.10443,0,0,0,0,0,0,0,-1,1791,715,13.0269,-4.10444
574,309,12.7025,3.98077,0,0,0,0,0,0,0,-1,1798,715,12.7025,-3.98074
581,309,12.9982,4.55505,0,0,0,0,0,0,0,-1,1805,715,12.9982,-4.55505
588,309,13.0957,5.10406,0,0,0,0,0,0,0,-1,1812,715,13.0957,-5.10407
595,309,13.2393,5.22357,0,0,0,0,0,0,0,-1,1819,715,13.2392,-5.22355
602,309,11.0811,3.47772,0,0,0,0,0,0,0,-1,1826,715,11.0811,-3.47772
609,309,11.7626,-0.260376,0,0,0,0,0,0,0,-1,1833,715,11.7626,0.260389
616,309,11.7823,0.00598145,0.00241873,-0.00194616,-0.000346062,0.002446,-0.00197342,-0.0786285,0.00255641,0.0249352,1840,715,11.7824,-0.00595748
623,309,11.7858,0.24707,0.00218375,-0.00187497,-2.71213e-05,0.00218393,-0.00187516,-0.00668182,0.00234577,0.0108559,1847,715,11.7858,-0.247058
630,309,11.7529,0.47998,0.00187508,-0.00183129,5.11828e-05,0.00187579,-0.001832,0.0138059,0.00214074,0.0106083,1854,715,11.7529,-0.47996
637,309,11.7371,0.706848,0.00149459,-0.00147579,-5.27638e-05,0.00149553,-0.00147673,-0.0177558,0.00171604,0.0132766,1861,715,11.7371,-0.706841
644,309,11.7428,0.947083,0.000758631,-0.00121134,-0.00048026,0.000869477,-0.00132218,-0.226832,0.00127432,0.0137021,1868,715,11.7428,-0.947081
651,309,11.7513,1.18872,9.25516e-05,-0.00114149,-0.000998458,0.000649258,-0.00169819,-0.508634,0.00139968,0.0131649,1875,715,11.7513,-1.18872
658,309,11.7607,1.41974,-0.000275081,-0.00105696,-0.00152592,0.000909183,-0.00224123,-0.659996,0.0018723,0.0203624,1882,715,11.7607,-1.41973
665,309,11.7839,1.63733,0.000151352,-0.00055098,-0.00205713,0.00188707,-0.0022867,-0.70086,0.00241341,0.0182572,1889,715,11.784,-1.63734
672,309,11.7906,1.87775,0.000936421,-0.000170374,-0.00266174,0.00310168,-0.00233564,-0.682904,0.00314961,0.0153976,1896,715,11.7907,-1.87773
679,309,11.7737,2.11981,0.00302417,0.00106763,-0.00311372,0.00530968,-0.00121788,-0.633191,0.00400791,0.0154094,1903,715,11.7737,-2.11981
686,309,11.7499,2.29144,0.00579686,0.00260946,-0.00357854,0.00812054,0.000285782,-0.575909,0.00532099,0.0209148,1910,715,11.7499,-2.29142
693,309,11.5327,2.46307,0.0102149,0.00524286,-0.00395752,0.0124025,0.00305531,-0.504957,0.00746139,0.0342316,1917,715,11.5327,-2.46309
700,309,12.5225,2.84729,0,0,0,0,0,0,0,-1,1924,715,12.5224,-2.84731
707,309,13.4426,3.20801,0,0,0,0,0,0,0,-1,1931,715,13.4427,-3.20801
714,309,12.0404,4.41815,0,0,0,0,0,0,0,-1,1938,715,12.0404,-4.41814
721,309,12.8585,4.86328,0,0,0,0,0,0,0,-1,1945,715,12.8585,-4.86329
728,309,0,0,0,0,0,0,0,0,0,-1,1952,715,0,0
735,309,0,0,0,0,0,0,0,0,0,-1,1959,715,0,0
742,309,0,0,0,0,0,0,0,0,0,-1,1966,715,0,0
749,309,0,0,0,0,0,0,0,0,0,-1,1973,715,0,0
756,309,0,0,0,0,0,0,0,0,0,-1,1980,715,0,0
763,309,0,0,0,0,0,0,0,0,0,-1,1987,715,0,0
770,309,0,0,0,0,0,0,0,0,0,-1,1994,715,0,0
777,309,0,0,0,0,0,0,0,0,0,-1,2001,715,0,0
784,309,0,0,0,0,0,0,0,0,0,-1,2008,715,0,0
791,309,0,0,0,0,0,0,0,0,0,-1,2015,715,0,0
798,309,0,0,0,0,0,0,0,0,0,-1,2022,715,0,0
805,309,0,0,0,0,0,0,0,0,0,-1,2029,715,0,0
812,309,0,0,0,0,0,0,0,0,0,-1,2036,715,0,0
-700,302,0,0,0,0,0,0,0,0,0,-1,524,722,0,0
-693,302,0,0,0,0,0,0,0,0,0,-1,531,722,0,0
-686,302,0,0,0,0,0,0,0,0,0,-1,538,722,0,0
-679,302,0,0,0,0,0,0,0,0,0,-1,545,722,0,0
-672,302,0,0,0,0,0,0,0,0,0,-1,552,722,0,0
-665,302,0,0,0,0,0,0,0,0,0,-1,559,722,0,0
-658,302,0,0,0,0,0,0,0,0,0,-1,566,722,0,0
-651,302,0,0,0,0,0,0,0,0,0,-1,573,722,0,0
-644,302,0,0,0,0,0,0,0,0,0,-1,580,722,0,0
-637,302,0,0,0,0,0,0,0,0,0,-1,587,722,0,0
-630,302,0,0,0,0,0,0,0,0,0,-1,594,722,0,0
-623,302,0,0,0,0,0,0,0,0,0,-1,601,722,0,0
-616,302,0,0,0,0,0,0,0,0,0,-1,608,722,0,0
-609,302,-6.14014,-3.6167,0,0,0,0,0,0,0,-1,615,722,-6.14016,3.61669
-602,302,-5.40784,-2.83258,0,0,0,0,0,0,0,-1,622,722,-5.40785,2.83259
-595,302,-7.89941,2.13641,0,0,0,0,0,0,0,-1,629,722,-7.89939,-2.13639
-588,302,-7.10895,1.79163,0,0,0,0,0,0,0,-1,636,722,-7.10896,-1.79163
-581,302,-6.27838,-0.314636,0,0,0,0,0,0,0,-1,643,722,-6.27835,0.314632
-574,302,-5.25842,0.277405,0,0,0,0,0,0,0,-1,650,722,-5.25842,-0.277382
-567,302,-5.64532,0.179016,-0.0149582,0.00123243,-0.000574441,0.00125278,-0.0149785,-1.53538,0.0104284,0.0490673,657,722,-5.64535,-0.179005
-560,302,-6.24738,0.138062,-0.0123637,0.00202116,0.00232944,0.00238898,-0.0127316,1.41419,0.00938593,0.0388659,664,722,-6.2474,-0.138087
-553,302,-6.55115,0.131104,-0.00985093,0.00191861,0.00284035,0.00256822,-0.0105005,1.34596,0.00799513,0.0174146,671,722,-6.55113,-0.131101
-546,302,-6.55865,-0.0925903,-0.0075948,0.00175456,0.00200403,0.00216602,-0.00800625,1.3683,0.00618721,0.0141239,678,722,-6.55867,0.0926136
-539,302,-6.573,-0.305481,-0.0054368,0.00131615,0.00152095,0.0016429,-0.00576355,1.35918,0.0044913,0.0135612,685,722,-6.57298,0.30551
-532,302,-6.58276,-0.514465,-0.00337763,0.000699733,0.00134482,0.00110334,-0.00378124,1.27923,0.00295801,0.0128874,692,722,-6.58279,0.514462
-525,302,-6.55396,-0.74762,-0.00138318,-0.000419853,0.00150042,0.00067432,-0.00247735,0.940712,0.0019163,0.017935,699,722,-6.55393,0.747608
-518,302,-6.59814,-0.951599,0.000986147,-0.00156955,0.00160249,0.0017579,-0.00234131,0.448817,0.00237465,0.0190995,706,722,-6.59812,0.951618
-511,302,-6.5611,-1.14972,0.00429161,-0.00284104,0.00170101,0.0046765,-0.00322593,0.222525,0.00458802,0.0103018,713,722,-6.56109,1.14974
-504,302,-6.55725,-1.34961,0.00732885,-0.00487155,0.00188053,0.00761213,-0.00515483,0.149515,0.00741638,0.00912892,720,722,-6.55724,1.34963
-497,302,-6.56726,-1.55896,0.0104388,-0.00703617,0.00206492,0.0106795,-0.00727686,0.116036,0.0104289,0.0133627,727,722,-6.56725,1.55894
-490,302,-6.48273,-1.72235,0.0139496,-0.0110075,0.00243706,0.0141853,-0.0112432,0.0964363,0.0147139,0.0328456,734,722,-6.48272,1.72237
-483,302,-6.13898,-1.68304,0,0,0,0,0,0,0,-1,741,722,-6.13897,1.68304
-476,302,-4.29749,-0.203491,0,0,0,0,0,0,0,-1,748,722,-4.29751,0.203464
-469,302,-7.73517,2.19983,0,0,0,0,0,0,0,-1,755,722,-7.73515,-2.19982
-462,302,-8.16956,2.04803,0,0,0,0,0,0,0,-1,762,722,-8.16956,-2.04802
-455,302,-11.7719,-0.259155,0,0,0,0,0,0,0,-1,769,722,-11.7719,0.259169
-448,302,-7.46857,2.26135,0,0,0,0,0,0,0,-1,776,722,-7.46855,-2.26136
-441,302,-7.73749,2.30029,0,0,0,0,0,0,0,-1,783,722,-7.73751,-2.30028
-434,302,-9.01862,1.82251,0,0,0,0,0,0,0,-1,790,722,-9.01861,-1.82254
-427,302,-7.91388,1.72229,0,0,0,0,0,0,0,-1,797,722,-7.91388,-1.72227
-420,302,0,0,0,0,0,0,0,0,0,-1,804,722,0,0
-413,302,0,0,0,0,0,0,0,0,0,-1,811,722,0,0
-406,302,0,0,0,0,0,0,0,0,0,-1,818,722,0,0
-399,302,0,0,0,0,0,0,0,0,0,-1,825,722,0,0
-392,302,0,0,0,0,0,0,0,0,0,-1,832,722,0,0
-385,302,0,0,0,0,0,0,0,0,0,-1,839,722,0,0
-378,302,0,0,0,0,0,0,0,0,0,-1,846,722,0,0
-371,302,0,0,0,0,0,0,0,0,0,-1,853,722,0,0
-364,302,0,0,0,0,0,0,0,0,0,-1,860,722,0,0
-357,302,0,0,0,0,0,0,0,0,0,-1,867,722,0,0
-350,302,0,0,0,0,0,0,0,0,0,-1,874,722,0,0
-343,302,0,0,0,0,0,0,0,0,0,-1,881,722,0,0
-336,302,0,0,0,0,0,0,0,0,0,-1,888,722,0,0
-329,302,0,0,0,0,0,0,0,0,0,-1,895,722,0,0
-322,302,0,0,0,0,0,0,0,0,0,-1,902,722,0,0
-315,302,0,0,0,0,0,0,0,0,0,-1,909,722,0,0
-308,302,0,0,0,0,0,0,0,0,0,-1,916,722,0,0
-301,302,0,0,0,0,0,0,0,0,0,-1,923,722,0,0
-294,302,0,0,0,0,0,0,0,0,0,-1,930,722,0,0
-287,302,0,0,0,0,0,0,0,0,0,-1,937,722,0,0
-280,302,0,0,0,0,0,0,0,0,0,-1,944,722,0,0
-273,302,0,0,0,0,0,0,0,0,0,-1,951,722,0,0
-266,302,0,0,0,0,0,0,0,0,0,-1,958,722,0,0
-259,302,0,0,0,0,0,0,0,0,0,-1,965,722,0,0
-252,302,0,0,0,0,0,0,0,0,0,-1,972,722,0,0
-245,302,0,0,0,0,0,0,0,0,0,-1,979,722,0,0
-238,302,0,0,0,0,0,0,0,0,0,-1,986,722,0,0
-231,302,0,0,0,0,0,0,0,0,0,-1,993,722,0,0
-224,302,0,0,0,0,0,0,0,0,0,-1,1000,722,0,0
-217,302,0,0,0,0,0,0,0,0,0,-1,1007,722,0,0
-210,302,0,0,0,0,0,0,0,0,0,-1,1014,722,0,0
-203,302,0,0,0,0,0,0,0,0,0,-1,1021,722,0,0
-196,302,0,0,0,0,0,0,0,0,0,-1,1028,722,0,0
-189,302,0,0,0,0,0,0,0,0,0,-1,1035,722,0,0
-182,302,0,0,0,0,0,0,0,0,0,-1,1042,722,0,0
-175,302,0,0,0,0,0,0,0,0,0,-1,1049,722,0,0
-168,302,0,0,0,0,0,0,0,0,0,-1,1056,722,0,0
-161,302,0,0,0,0,0,0,0,0,0,-1,1063,722,0,0
-154,302,0,0,0,0,0,0,0,0,0,-1,1070,722,0,0
-147,302,0,0,0,0,0,0,0,0,0,-1,1077,722,0,0
-140,302,0,0,0,0,0,0,0,0,0,-1,1084,722,0,0
-133,302,0,0,0,0,0,0,0,0,0,-1,1091,722,0,0
-126,302,0,0,0,0,0,0,0,0,0,-1,1098,722,0,0
-119,302,0,0,0,0,0,0,0,0,0,-1,1105,722,0,0
-112,302,0,0,0,0,0,0,0,0,0,-1,1112,722,0,0
-105,302,0,0,0,0,0,0,0,0,0,-1,1119,722,0,0
-98,302,0,0,0,0,0,0,0,0,0,-1,1126,722,0,0
-91,302,0,0,0,0,0,0,0,0,0,-1,1133,722,0,0
-84,302,0,0,0,0,0,0,0,0,0,-1,1140,722,0,0
-77,302,0,0,0,0,0,0,0,0,0,-1,1147,722,0,0
-70,302,0,0,0,0,0,0,0,0,0,-1,1154,722,0,0
-63,302,0,0,0,0,0,0,0,0,0,-1,1161,722,0,0
-56,302,0,0,0,0,0,0,0,0,0,-1,1168,722,0,0
-49,302,0,0,0,0,0,0,0,0,0,-1,1175,722,0,0
-42,302,0,0,0,0,0,0,0,0,0,-1,1182,722,0,0
-35,302,0,0,0,0,0,0,0,0,0,-1,1189,722,0,0
-28,302,0,0,0,0,0,0,0,0,0,-1,1196,722,0,0
-21,302,0,0,0,0,0,0,0,0,0,-1,1203,722,0,0
-14,302,0,0,0,0,0,0,0,0,0,-1,1210,722,0,0
-7,302,0,0,0,0,0,0,0,0,0,-1,1217,722,0,0
0,302,0,0,0,0,0,0,0,0,0,-1,1224,722,0,0
7,302,0,0,0,0,0,0,0,0,0,-1,1231,722,0,0
14,302,0,0,0,0,0,0,0,0,0,-1,1238,722,0,0
21,302,0,0,0,0,0,0,0,0,0,-1,1245,722,0,0
28,302,0,0,0,0,0,0,0,0,0,-1,1252,722,0,0
35,302,0,0,0,0,0,0,0,0,0,-1,1259,722,0,0
42,302,0,0,0,0,0,0,0,0,0,-1,1266,722,0,0
49,302,0,0,0,0,0,0,0,0,0,-1,1273,722,0,0
56,302,0,0,0,0,0,0,0,0,0,-1,1280,722,0,0
63,302,0,0,0,0,0,0,0,0,0,-1,1287,722,0,0
70,302,0,0,0,0,0,0,0,0,0,-1,1294,722,0,0
77,302,0,0,0,0,0,0,0,0,0,-1,1301,722,0,0
84,302,0,0,0,0,0,0,0,0,0,-1,1308,722,0,0
91,302,0,0,0,0,0,0,0,0,0,-1,1315,722,0,0
98,302,0,0,0,0,0,0,0,0,0,-1,1322,722,0,0
105,302,0,0,0,0,0,0,0,0,0,-1,1329,722,0,0
112,302,0,0,0,0,0,0,0,0,0,-1,1336,722,0,0
119,302,0,0,0,0,0,0,0,0,0,-1,1343,722,0,0
126,302,0,0,0,0,0,0,0,0,0,-1,1350,722,0,0
133,302,0,0,0,0,0,0,0,0,0,-1,1357,722,0,0
140,302,0,0,0,0,0,0,0,0,0,-1,1364,722,0,0
147,302,0,0,0,0,0,0,0,0,0,-1,1371,722,0,0
154,302,0,0,0,0,0,0,0,0,0,-1,1378,722,0,0
161,302,0,0,0,0,0,0,0,0,0,-1,1385,722,0,0
168,302,0,0,0,0,0,0,0,0,0,-1,1392,722,0,0
175,302,0,0,0,0,0,0,0,0,0,-1,1399,722,0,0
182,302,0,0,0,0,0,0,0,0,0,-1,1406,722,0,0
189,302,0,0,0,0,0,0,0,0,0,-1,1413,722,0,0
196,302,0,0,0,0,0,0,0,0,0,-1,1420,722,0,0
203,302,0,0,0,0,0,0,0,0,0,-1,1427,722,0,0
210,302,0,0,0,0,0,0,0,0,0,-1,1434,722,0,0
217,302,0,0,0,0,0,0,0,0,0,-1,1441,722,0,0
224,302,0,0,0,0,0,0,0,0,0,-1,1448,722,0,0
231,302,0,0,0,0,0,0,0,0,0,-1,1455,722,0,0
238,302,0,0,0,0,0,0,0,0,0,-1,1462,722,0,0
245,302,0,0,0,0,0,0,0,0,0,-1,1469,722,0,0
252,302,0,0,0,0,0,0,0,0,0,-1,1476,722,0,0
259,302,0,0,0,0,0,0,0,0,0,-1,1483,722,0,0
266,302,0,0,0,0,0,0,0,0,0,-1,1490,722,0,0
273,302,0,0,0,0,0,0,0,0,0,-1,1497,722,0,0
280,302,0,0,0,0,0,0,0,0,0,-1,1504,722,0,0
287,302,0,0,0,0,0,0,0,0,0,-1,1511,722,0,0
294,302,0,0,0,0,0,0,0,0,0,-1,1518,722,0,0
301,302,0,0,0,0,0,0,0,0,0,-1,1525,722,0,0
308,302,0,0,0,0,0,0,0,0,0,-1,1532,722,0,0
315,302,0,0,0,0,0,0,0,0,0,-1,1539,722,0,0
322,302,0,0,0,0,0,0,0,0,0,-1,1546,722,0,0
329,302,0,0,0,0,0,0,0,0,0,-1,1553,722,0,0
336,302,0,0,0,0,0,0,0,0,0,-1,1560,722,0,0
343,302,0,0,0,0,0,0,0,0,0,-1,1567,722,0,0
350,302,0,0,0,0,0,0,0,0,0,-1,1574,722,0,0
357,302,0,0,0,0,0,0,0,0,0,-1,1581,722,0,0
364,302,0,0,0,0,0,0,0,0,0,-1,1588,722,0,0
371,302,0,0,0,0,0,0,0,0,0,-1,1595,722,0,0
378,302,0,0,0,0,0,0,0,0,0,-1,1602,722,0,0
385,302,0,0,0,0,0,0,0,0,0,-1,1609,722,0,0
392,302,0,0,0,0,0,0,0,0,0,-1,1616,722,0,0
399,302,0,0,0,0,0,0,0,0,0,-1,1623,722,0,0
406,302,0,0,0,0,0,0,0,0,0,-1,1630,722,0,0
413,302,0,0,0,0,0,0,0,0,0,-1,1637,722,0,0
420,302,0,0,0,0,0,0,0,0,0,-1,1644,722,0,0
427,302,0,0,0,0,0,0,0,0,0,-1,1651,722,0,0
434,302,0,0,0,0,0,0,0,0,0,-1,1658,722,0,0
441,302,0,0,0,0,0,0,0,0,0,-1,1665,722,0,0
448,302,0,0,0,0,0,0,0,0,0,-1,1672,722,0,0
455,302,0,0,0,0,0,0,0,0,0,-1,1679,722,0,0
462,302,0,0,0,0,0,0,0,0,0,-1,1686,722,0,0
469,302,0,0,0,0,0,0,0,0,0,-1,1693,722,0,0
476,302,0,0,0,0,0,0,0,0,0,-1,1700,722,0,0
483,302,0,0,0,0,0,0,0,0,0,-1,1707,722,0,0
490,302,0,0,0,0,0,0,0,0,0,-1,1714,722,0,0
497,302,0,0,0,0,0,0,0,0,0,-1,1721,722,0,0
504,302,0,0,0,0,0,0,0,0,0,-1,1728,722,0,0
511,302,0,0,0,0,0,0,0,0,0,-1,1735,722,0,0
518,302,0,0,0,0,0,0,0,0,0,-1,1742,722,0,0
525,302,0,0,0,0,0,0,0,0,0,-1,1749,722,0,0
532,302,0,0,0,0,0,0,0,0,0,-1,1756,722,0,0
539,302,0,0,0,0,0,0,0,0,0,-1,1763,722,0,0
546,302,13.7178,5.16223,0,0,0,0,0,0,0,-1,1770,722,13.7177,-5.16222
553,302,13.7627,3.76025,0,0,0,0,0,0,0,-1,1777,722,13.7627,-3.76025
560,302,13.4829,3.64825,0,0,0,0,0,0,0,-1,1784,722,13.483,-3.64822
567,302,13.3867,3.83221,0,0,0,0,0,0,0,-1,1791,722,13.3867,-3.8322
574,302,13.5532,3.74139,0,0,0,0,0,0,0,-1,1798,722,13.5532,-3.74142
581,302,13.8442,4.21185,0,0,0,0,0,0,0,-1,1805,722,13.8442,-4.21187
588,302,13.9962,4.61115,0,0,0,0,0,0,0,-1,1812,722,13.9963,-4.61117
595,302,14.2603,4.97107,0,0,0,0,0,0,0,-1,1819,722,14.2602,-4.97107
602,302,14.7349,5.21246,0,0,0,0,0,0,0,-1,1826,722,14.7349,-5.21247
609,302,11.1578,-0.125854,0,0,0,0,0,0,0,-1,1833,722,11.1579,0.125839
616,302,11.9746,0.0221558,0,0,0,0,0,0,0,-1,1840,722,11.9746,-0.0221594
623,302,11.9902,0.255371,0.0034798,-0.00279535,-0.00020879,0.00348674,-0.00280229,-0.0332235,0.00363813,0.0142999,1847,722,11.9902,-0.255367
630,302,11.9626,0.502136,0.00283726,-0.00266741,-0.000102322,0.00283916,-0.00266931,-0.0185796,0.00318082,0.011146,1854,722,11.9626,-0.502109
637,302,11.9484,0.72052,0.0021393,-0.00216152,-0.000146887,0.00214432,-0.00216653,-0.0341003,0.00248888,0.0133993,1861,722,11.9484,-0.720534
644,302,11.9725,0.943115,0.00117329,-0.00153761,-0.000401389,0.00123147,-0.0015958,-0.143951,0.00163684,0.0143861,1868,722,11.9725,-0.943134
651,302,11.9907,1.19611,0.000438384,-0.00117184,-0.000746708,0.000731352,-0.00146481,-0.37389,0.00129131,0.0141662,1875,722,11.9907,-1.1961
658,302,12.0022,1.40649,8.19654e-05,-0.000850697,-0.00114158,0.00084879,-0.00161752,-0.591494,0.0014468,0.015301,1882,722,12.0022,-1.40648
665,302,12.0183,1.62274,0.000543287,-0.000218713,-0.00157771,0.00178535,-0.00146078,-0.666922,0.00187727,0.0154901,1889,722,12.0183,-1.62275
672,302,12.0117,1.8515,0.00144249,0.00022724,-0.0021038,0.00302466,-0.00135493,-0.644813,0.00258909,0.0119436,1896,722,12.0117,-1.85151
679,302,11.9824,2.0791,0.00362865,0.00147182,-0.00253529,0.00530536,-0.00020489,-0.58431,0.00360714,0.00907668,1903,722,11.9825,-2.0791
686,302,12.0046,2.27728,0.00632716,0.00294245,-0.00310969,0.00817518,0.00109443,-0.536201,0.00512442,0.0124399,1910,722,12.0046,-2.27731
693,302,11.8619,2.42139,0.0104916,0.00532059,-0.003645,0.0123749,0.00343721,-0.47692,0.00737618,0.0262632,1917,722,11.8619,-2.42139
700,302,12.0148,2.75568,0,0,0,0,0,0,0,-1,1924,722,12.0147,-2.75566
707,302,12.0264,3.43964,0,0,0,0,0,0,0,-1,1931,722,12.0264,-3.43961
714,302,12.3591,3.91315,0.0373976,0.0226712,-0.00446739,0.0386468,0.0214219,-0.272672,0.0223566,0.047556,1938,722,12.3591,-3.91314
721,302,12.9626,4.08521,0,0,0,0,0,0,0,-1,1945,722,12.9626,-4.0852
728,302,13.5193,4.04858,0,0,0,0,0,0,0,-1,1952,722,13.5193,-4.04859
735,302,0,0,0,0,0,0,0,0,0,-1,1959,722,0,0
742,302,0,0,0,0,0,0,0,0,0,-1,1966,722,0,0
749,302,0,0,0,0,0,0,0,0,0,-1,1973,722,0,0
756,302,0,0,0,0,0,0,0,0,0,-1,1980,722,0,0
763,302,0,0,0,0,0,0,0,0,0,-1,1987,722,0,0
770,302,0,0,0,0,0,0,0,0,0,-1,1994,722,0,0
777,302,0,0,0,0,0,0,0,0,0,-1,2001,722,0,0
784,302,0,0,0,0,0,0,0,0,0,-1,2008,722,0,0
791,302,0,0,0,0,0,0,0,0,0,-1,2015,722,0,0
798,302,0,0,0,0,0,0,0,0,0,-1,2022,722,0,0
805,302,0,0,0,0,0,0,0,0,0,-1,2029,722,0,0
812,302,0,0,0,0,0,0,0,0,0,-1,2036,722,0,0
-700,295,0,0,0,0,0,0,0,0,0,-1,524,729,0,0
-693,295,0,0,0,0,0,0,0,0,0,-1,531,729,0,0
-686,295,0,0,0,0,0,0,0,0,0,-1,538,729,0,0
-679,295,0,0,0,0,0,0,0,0,0,-1,545,729,0,0
-672,295,0,0,0,0,0,0,0,0,0,-1,552,729,0,0
-665,295,0,0,0,0,0,0,0,0,0,-1,559,729,0,0
-658,295,0,0,0,0,0,0,0,0,0,-1,566,729,0,0
-651,295,0,0,0,0,0,0,0,0,0,-1,573,729,0,0
-644,295,0,0,0,0,0,0,0,0,0,-1,580,729,0,0
-637,295,0,0,0,0,0,0,0,0,0,-1,587,729,0,0
-630,295,0,0,0,0,0,0,0,0,0,-1,594,729,0,0
-623,295,0,0,0,0,0,0,0,0,0,-1,601,729,0,0
-616,295,-6.39587,-4.52765,0,0,0,0,0,0,0,-1,608,729,-6.3959,4.52767
-609,295,-5.22925,0.719055,0,0,0,0,0,0,0,-1,615,729,-5.22923,-0.719043
-602,295,-5.61359,-2.48157,0,0,0,0,0,0,0,-1,622,729,-5.61359,2.48156
-595,295,-5.30798,-1.24542,0,0,0,0,0,0,0,-1,629,729,-5.30801,1.24542
-588,295,-7.98999,1.56903,0,0,0,0,0,0,0,-1,636,729,-7.98997,-1.56905
-581,295,-5.97595,1.10284,0,0,0,0,0,0,0,-1,643,729,-5.97593,-1.10284
-574,295,-6.15796,0.702271,-0.0155612,-0.00392176,-0.00558051,-0.00167853,-0.0178044,-1.18859,0.0113516,0.0450072,650,729,-6.15795,-0.702294
-567,295,-6.26617,0.292358,-0.0130893,-0.00110995,-0.000315843,-0.00110163,-0.0130977,-1.54446,0.00838871,0.0417549,657,729,-6.26618,-0.292354
-560,295,-6.7326,0.243408,-0.0107939,0.000143464,0.00252368,0.000697692,-0.0113481,1.35462,0.00780839,0.0228976,664,729,-6.73263,-0.243411
-553,295,-6.75513,0.0838013,-0.00866195,0.000378575,0.00309751,0.00133803,-0.00962141,1.27042,0.00690364,0.0174083,671,729,-6.75511,-0.0838029
-546,295,-6.78021,-0.0929565,-0.00686852,0.000510096,0.00233097,0.00118478,-0.00754321,1.28905,0.0054667,0.0202561,678,729,-6.78021,0.0929563
-539,295,-6.79645,-0.295654,-0.00506138,0.000270526,0.00192563,0.000893243,-0.0056841,1.25803,0.00411955,0.017748,685,729,-6.79646,0.295636
-532,295,-6.82336,-0.507507,-0.00330369,-0.000175811,0.00184766,0.000680943,-0.00416045,1.13661,0.00302626,0.0149266,692,729,-6.82337,0.507522
-525,295,-6.79822,-0.723999,-0.00145857,-0.00134172,0.00217957,0.000780207,-0.0035805,0.798799,0.00268512,0.014664,699,729,-6.79824,0.724011
-518,295,-6.76434,-0.93866,0.000923928,-0.00246299,0.00241541,0.00218039,-0.00371945,0.479664,0.00344469,0.0110506,706,729,-6.76435,0.938666
-511,295,-6.7619,-1.14282,0.0044191,-0.00375552,0.00259449,0.00517302,-0.00450944,0.282796,0.00559454,0.00882633,713,729,-6.76189,1.14284
-504,295,-6.7876,-1.34052,0.00765941,-0.0059587,0.00283712,0.00822684,-0.00652612,0.197396,0.00853647,0.0102803,720,729,-6.78757,1.34053
-497,295,-6.80066,-1.53015,0.0110728,-0.00828073,0.00303094,0.0115364,-0.00874429,0.15177,0.011746,0.0151701,727,729,-6.80064,1.53015
-490,295,-6.90643,-1.84271,0,0,0,0,0,0,0,-1,734,729,-6.90644,1.84272
-483,295,-7.10181,0.820374,0,0,0,0,0,0,0,-1,741,729,-7.10181,-0.820366
-476,295,-8.34387,1.93433,0,0,0,0,0,0,0,-1,748,729,-8.34386,-1.93432
-469,295,-8.54846,2.02832,0,0,0,0,0,0,0,-1,755,729,-8.54845,-2.02833
-462,295,-12.5914,0.156677,0,0,0,0,0,0,0,-1,762,729,-12.5913,-0.156682
-455,295,-11.7435,-0.0444946,0,0,0,0,0,0,0,-1,769,729,-11.7435,0.0444692
-448,295,-10.9146,-0.25885,0,0,0,0,0,0,0,-1,776,729,-10.9146,0.25887
-441,295,-11.7839,-1.66248,0,0,0,0,0,0,0,-1,783,729,-11.7838,1.66246
-434,295,-11.7062,-1.51434,0,0,0,0,0,0,0,-1,790,729,-11.7062,1.51432
-427,295,0,0,0,0,0,0,0,0,0,-1,797,729,0,0
-420,295,0,0,0,0,0,0,0,0,0,-1,804,729,0,0
-413,295,0,0,0,0,0,0,0,0,0,-1,811,729,0,0
-406,295,0,0,0,0,0,0,0,0,0,-1,818,729,0,0
-399,295,0,0,0,0,0,0,0,0,0,-1,825,729,0,0
-392,295,0,0,0,0,0,0,0,0,0,-1,832,729,0,0
-385,295,0,0,0,0,0,0,0,0,0,-1,839,729,0,0
-378,295,0,0,0,0,0,0,0,0,0,-1,846,729,0,0
-371,295,0,0,0,0,0,0,0,0,0,-1,853,729,0,0
-364,295,0,0,0,0,0,0,0,0,0,-1,860,729,0,0
-357,295,0,0,0,0,0,0,0,0,0,-1,867,729,0,0
-350,295,0,0,0,0,0,0,0,0,0,-1,874,729,0,0
-343,295,0,0,0,0,0,0,0,0,0,-1,881,729,0,0
-336,295,0,0,0,0,0,0,0,0,0,-1,888,729,0,0
-329,295,0,0,0,0,0,0,0,0,0,-1,895,729,0,0
-322,295,0,0,0,0,0,0,0,0,0,-1,902,729,0,0
-315,295,0,0,0,0,0,0,0,0,0,-1,909,729,0,0
-308,295,0,0,0,0,0,0,0,0,0,-1,916,729,0,0
-301,295,0,0,0,0,0,0,0,0,0,-1,923,729,0,0
-294,295,0,0,0,0,0,0,0,0,0,-1,930,729,0,0
-287,295,0,0,0,0,0,0,0,0,0,-1,937,729,0,0
-280,295,0,0,0,0,0,0,0,0,0,-1,944,729,0,0
-273,295,0,0,0,0,0,0,0,0,0,-1,951,729,0,0
-266,295,0,0,0,0,0,0,0,0,0,-1,958,729,0,0
-259,295,0,0,0,0,0,0,0,0,0,-1,965,729,0,0
-252,295,0,0,0,0,0,0,0,0,0,-1,972,729,0,0
-245,295,0,0,0,0,0,0,0,0,0,-1,979,729,0,0
-238,295,0,0,0,0,0,0,0,0,0,-1,986,729,0,0
-231,295,0,0,0,0,0,0,0,0,0,-1,993,729,0,0
-224,295,0,0,0,0,0,0,0,0,0,-1,1000,729,0,0
-217,295,0,0,0,0,0,0,0,0,0,-1,1007,729,0,0
-210,295,0,0,0,0,0,0,0,0,0,-1,1014,729,0,0
-203,295,0,0,0,0,0,0,0,0,0,-1,1021,729,0,0
-196,295,0,0,0,0,0,0,0,0,0,-1,1028,729,0,0
-189,295,0,0,0,0,0,0,0,0,0,-1,1035,729,0,0
-182,295,0,0,0,0,0,0,0,0,0,-1,1042,729,0,0
-175,295,0,0,0,0,0,0,0,0,0,-1,1049,729,0,0
-168,295,0,0,0,0,0,0,0,0,0,-1,1056,729,0,0
-161,295,0,0,0,0,0,0,0,0,0,-1,1063,729,0,0
-154,295,0,0,0,0,0,0,0,0,0,-1,1070,729,0,0
-147,295,0,0,0,0,0,0,0,0,0,-1,1077,729,0,0
-140,295,0,0,0,0,0,0,0,0,0,-1,1084,729,0,0
-133,295,0,0,0,0,0,0,0,0,0,-1,1091,729,0,0
-126,295,0,0,0,0,0,0,0,0,0,-1,1098,729,0,0
-119,295,0,0,0,0,0,0,0,0,0,-1,1105,729,0,0
-112,295,0,0,0,0,0,0,0,0,0,-1,1112,729,0,0
-105,295,0,0,0,0,0,0,0,0,0,-1,1119,729,0,0
-98,295,0,0,0,0,0,0,0,0,0,-1,1126,729,0,0
-91,295,0,0,0,0,0,0,0,0,0,-1,1133,729,0,0
-84,295,0,0,0,0,0,0,0,0,0,-1,1140,729,0,0
-77,295,0,0,0,0,0,0,0,0,0,-1,1147,729,0,0
-70,295,0,0,0,0,0,0,0,0,0,-1,1154,729,0,0
-63,295,0,0,0,0,0,0,0,0,0,-1,1161,729,0,0
-56,295,0,0,0,0,0,0,0,0,0,-1,1168,729,0,0
-49,295,0,0,0,0,0,0,0,0,0,-1,1175,729,0,0
-42,295,0,0,0,0,0,0,0,0,0,-1,1182,729,0,0
-35,295,0,0,0,0,0,0,0,0,0,-1,1189,729,0,0
-28,295,0,0,0,0,0,0,0,0,0,-1,1196,729,0,0
-21,295,0,0,0,0,0,0,0,0,0,-1,1203,729,0,0
-14,295,0,0,0,0,0,0,0,0,0,-1,1210,729,0,0
-7,295,0,0,0,0,0,0,0,0,0,-1,1217,729,0,0
0,295,0,0,0,0,0,0,0,0,0,-1,1224,729,0,0
7,295,0,0,0,0,0,0,0,0,0,-1,1231,729,0,0
14,295,0,0,0,0,0,0,0,0,0,-1,1238,729,0,0
21,295,0,0,0,0,0,0,0,0,0,-1,1245,729,0,0
28,295,0,0,0,0,0,0,0,0,0,-1,1252,729,0,0
35,295,0,0,0,0,0,0,0,0,0,-1,1259,729,0,0
42,295,0,0,0,0,0,0,0,0,0,-1,1266,729,0,0
49,295,0,0,0,0,0,0,0,0,0,-1,1273,729,0,0
56,295,0,0,0,0,0,0,0,0,0,-1,1280,729,0,0
63,295,0,0,0,0,0,0,0,0,0,-1,1287,729,0,0
70,295,0,0,0,0,0,0,0,0,0,-1,1294,729,0,0
77,295,0,0,0,0,0,0,0,0,0,-1,1301,729,0,0
84,295,0,0,0,0,0,0,0,0,0,-1,1308,729,0,0
91,295,0,0,0,0,0,0,0,0,0,-1,1315,729,0,0
98,295,0,0,0,0,0,0,0,0,0,-1,1322,729,0,0
105,295,0,0,0,0,0,0,0,0,0,-1,1329,729,0,0
112,295,0,0,0,0,0,0,0,0,0,-1,1336,729,0,0
119,295,0,0,0,0,0,0,0,0,0,-1,1343,729,0,0
126,295,0,0,0,0,0,0,0,0,0,-1,1350,729,0,0
133,295,0,0,0,0,0,0,0,0,0,-1,1357,729,0,0
140,295,0,0,0,0,0,0,0,0,0,-1,1364,729,0,0
147,295,0,0,0,0,0,0,0,0,0,-1,1371,729,0,0
154,295,0,0,0,0,0,0,0,0,0,-1,1378,729,0,0
161,295,0,0,0,0,0,0,0,0,0,-1,1385,729,0,0
168,295,0,0,0,0,0,0,0,0,0,-1,1392,729,0,0
175,295,0,0,0,0,0,0,0,0,0,-1,1399,729,0,0
182,295,0,0,0,0,0,0,0,0,0,-1,1406,729,0,0
189,295,0,0,0,0,0,0,0,0,0,-1,1413,729,0,0
196,295,0,0,0,0,0,0,0,0,0,-1,1420,729,0,0
203,295,0,0,0,0,0,0,0,0,0,-1,1427,729,0,0
210,295,0,0,0,0,0,0,0,0,0,-1,1434,729,0,0
217,295,0,0,0,0,0,0,0,0,0,-1,1441,729,0,0
224,295,0,0,0,0,0,0,0,0,0,-1,1448,729,0,0
231,295,0,0,0,0,0,0,0,0,0,-1,1455,729,0,0
238,295,0,0,0,0,0,0,0,0,0,-1,1462,729,0,0
245,295,0,0,0,0,0,0,0,0,0,-1,1469,729,0,0
252,295,0,0,0,0,0,0,0,0,0,-1,1476,729,0,0
259,295,0,0,0,0,0,0,0,0,0,-1,1483,729,0,0
266,295,0,0,0,0,0,0,0,0,0,-1,1490,729,0,0
273,295,0,0,0,0,0,0,0,0,0,-1,1497,729,0,0
280,295,0,0,0,0,0,0,0,0,0,-1,1504,729,0,0
287,295,0,0,0,0,0,0,0,0,0,-1,1511,729,0,0
294,295,0,0,0,0,0,0,0,0,0,-1,1518,729,0,0
301,295,0,0,0,0,0,0,0,0,0,-1,1525,729,0,0
308,295,0,0,0,0,0,0,0,0,0,-1,1532,729,0,0
315,295,0,0,0,0,0,0,0,0,0,-1,1539,729,0,0
322,295,0,0,0,0,0,0,0,0,0,-1,1546,729,0,0
329,295,0,0,0,0,0,0,0,0,0,-1,1553,729,0,0
336,295,0,0,0,0,0,0,0,0,0,-1,1560,729,0,0
343,295,0,0,0,0,0,0,0,0,0,-1,1567,729,0,0
350,295,0,0,0,0,0,0,0,0,0,-1,1574,729,0,0
357,295,0,0,0,0,0,0,0,0,0,-1,1581,729,0,0
364,295,0,0,0,0,0,0,0,0,0,-1,1588,729,0,0
371,295,0,0,0,0,0,0,0,0,0,-1,1595,729,0,0
378,295,0,0,0,0,0,0,0,0,0,-1,1602,729,0,0
385,295,0,0,0,0,0,0,0,0,0,-1,1609,729,0,0
392,295,0,0,0,0,0,0,0,0,0,-1,1616,729,0,0
399,295,0,0,0,0,0,0,0,0,0,-1,1623,729,0,0
406,295,0,0,0,0,0,0,0,0,0,-1,1630,729,0,0
413,295,0,0,0,0,0,0,0,0,0,-1,1637,729,0,0
420,295,0,0,0,0,0,0,0,0,0,-1,1644,729,0,0
427,295,0,0,0,0,0,0,0,0,0,-1,1651,729,0,0
434,295,0,0,0,0,0,0,0,0,0,-1,1658,729,0,0
441,295,0,0,0,0,0,0,0,0,0,-1,1665,729,0,0
448,295,0,0,0,0,0,0,0,0,0,-1,1672,729,0,0
455,295,0,0,0,0,0,0,0,0,0,-1,1679,729,0,0
462,295,0,0,0,0,0,0,0,0,0,-1,1686,729,0,0
469,295,0,0,0,0,0,0,0,0,0,-1,1693,729,0,0
476,295,0,0,0,0,0,0,0,0,0,-1,1700,729,0,0
483,295,0,0,0,0,0,0,0,0,0,-1,1707,729,0,0
490,295,0,0,0,0,0,0,0,0,0,-1,1714,729,0,0
497,295,0,0,0,0,0,0,0,0,0,-1,1721,729,0,0
504,295,0,0,0,0,0,0,0,0,0,-1,1728,729,0,0
511,295,0,0,0,0,0,0,0,0,0,-1,1735,729,0,0
518,295,0,0,0,0,0,0,0,0,0,-1,1742,729,0,0
525,295,0,0,0,0,0,0,0,0,0,-1,1749,729,0,0
532,295,0,0,0,0,0,0,0,0,0,-1,1756,729,0,0
539,295,0,0,0,0,0,0,0,0,0,-1,1763,729,0,0
546,295,15.4219,4.15662,0,0,0,0,0,0,0,-1,1770,729,15.4219,-4.1566
553,295,14.8054,4.52374,0,0,0,0,0,0,0,-1,1777,729,14.8054,-4.52372
560,295,14.1964,4.12933,0,0,0,0,0,0,0,-1,1784,729,14.1965,-4.12933
567,295,13.8263,3.72974,0,0,0,0,0,0,0,-1,1791,729,13.8263,-3.72972
574,295,14.3542,3.31445,0,0,0,0,0,0,0,-1,1798,729,14.3542,-3.31445
581,295,14.6473,3.75903,0,0,0,0,0,0,0,-1,1805,729,14.6474,-3.75902
588,295,14.8984,4.17255,0,0,0,0,0,0,0,-1,1812,729,14.8985,-4.17253
595,295,15.2823,4.65863,0,0,0,0,0,0,0,-1,1819,729,15.2824,-4.65861
602,295,15.6809,5.12988,0,0,0,0,0,0,0,-1,1826,729,15.6809,-5.12989
609,295,11.7737,2.19989,0,0,0,0,0,0,0,-1,1833,729,11.7736,-2.19988
616,295,12.1177,0.024231,0,0,0,0,0,0,0,-1,1840,729,12.1177,-0.0242354
623,295,12.1556,0.277344,0.00468264,-0.00359582,-0.000478344,0.00471019,-0.00362337,-0.0575266,0.004825,0.0281939,1847,729,12.1557,-0.277327
630,295,12.1868,0.523987,0.00362538,-0.00359296,-0.000441174,0.00365225,-0.00361982,-0.0608167,0.00419854,0.0120328,1854,729,12.1868,-0.523975
637,295,12.1974,0.740234,0.00248157,-0.0031256,-0.000482814,0.00252284,-0.00316687,-0.08527,0.00329197,0.0126988,1861,729,12.1973,-0.740239
644,295,12.2274,0.959473,0.00119611,-0.00221333,-0.000551265,0.00128303,-0.00230024,-0.156381,0.0020964,0.0123571,1868,729,12.2274,-0.959503
651,295,12.2407,1.19519,0.000350968,-0.00156605,-0.000699031,0.00057879,-0.00179388,-0.315057,0.00142848,0.0125344,1875,729,12.2407,-1.19518
658,295,12.2268,1.40308,-5.15399e-06,-0.00100525,-0.000933394,0.000553701,-0.0015641,-0.539488,0.00126825,0.0123218,1882,729,12.2268,-1.40307
665,295,12.215,1.61621,0.000463832,-0.000261214,-0.00125583,0.00140842,-0.0012058,-0.644882,0.00151083,0.0117259,1889,729,12.2149,-1.61623
672,295,12.2108,1.83954,0.00145908,0.00025054,-0.00168001,0.00264019,-0.000930569,-0.612761,0.00213889,0.0121088,1896,729,12.2108,-1.83956
679,295,12.2031,2.06927,0.00371604,0.00152623,-0.00204467,0.00494051,0.000301764,-0.53958,0.00319784,0.00876804,1903,729,12.2031,-2.0693
686,295,12.2179,2.27063,0.00635133,0.0029764,-0.00258983,0.00775494,0.00157279,-0.496658,0.00473361,0.00841159,1910,729,12.2179,-2.27063
693,295,12.2281,2.45636,0.0103053,0.00518518,-0.0031368,0.0117941,0.00369637,-0.443145,0.00696561,0.0204569,1917,729,12.2281,-2.45635
700,295,12.192,2.72491,0.0159978,0.00851272,-0.00373324,0.0175414,0.00696908,-0.392077,0.0101985,0.0369247,1924,729,12.192,-2.72489
707,295,12.3016,3.20551,0.023987,0.0133412,-0.00429727,0.0255051,0.011823,-0.339593,0.0147384,0.0436732,1931,729,12.3016,-3.20548
714,295,12.5835,3.48572,0.03489,0.0202067,-0.0048376,0.0363405,0.0187562,-0.291312,0.0209848,0.0439241,1938,729,12.5835,-3.48573
721,295,12.9052,3.68378,0,0,0,0,0,0,0,-1,1945,729,12.9051,-3.68375
728,295,13.9436,3.97491,0,0,0,0,0,0,0,-1,1952,729,13.9437,-3.97493
735,295,0,0,0,0,0,0,0,0,0,-1,1959,729,0,0
742,295,0,0,0,0,0,0,0,0,0,-1,1966,729,0,0
749,295,0,0,0,0,0,0,0,0,0,-1,1973,729,0,0
756,295,0,0,0,0,0,0,0,0,0,-1,1980,729,0,0
763,295,0,0,0,0,0,0,0,0,0,-1,1987,729,0,0
770,295,0,0,0,0,0,0,0,0,0,-1,1994,729,0,0
777,295,0,0,0,0,0,0,0,0,0,-1,2001,729,0,0
784,295,0,0,0,0,0,0,0,0,0,-1,2008,729,0,0
791,295,0,0,0,0,0,0,0,0,0,-1,2015,729,0,0
798,295,0,0,0,0,0,0,0,0,0,-1,2022,729,0,0
805,295,0,0,0,0,0,0,0,0,0,-1,2029,729,0,0
812,295,0,0,0,0,0,0,0,0,0,-1,2036,729,0,0
-700,288,0,0,0,0,0,0,0,0,0,-1,524,736,0,0
-693,288,0,0,0,0,0,0,0,0,0,-1,531,736,0,0
-686,288,0,0,0,0,0,0,0,0,0,-1,538,736,0,0
-679,288,0,0,0,0,0,0,0,0,0,-1,545,736,0,0
-672,288,0,0,0,0,0,0,0,0,0,-1,552,736,0,0
-665,288,0,0,0,0,0,0,0,0,0,-1,559,736,0,0
-658,288,0,0,0,0,0,0,0,0,0,-1,566,736,0,0
-651,288,0,0,0,0,0,0,0,0,0,-1,573,736,0,0
-644,288,0,0,0,0,0,0,0,0,0,-1,580,736,0,0
-637,288,0,0,0,0,0,0,0,0,0,-1,587,736,0,0
-630,288,0,0,0,0,0,0,0,0,0,-1,594,736,0,0
-623,288,0,0,0,0,0,0,0,0,0,-1,601,736,0,0
-616,288,-8.35645,0.362061,0,0,0,0,0,0,0,-1,608,736,-8.35645,-0.362042
-609,288,-15.2246,-1.08795,0,0,0,0,0,0,0,-1,615,736,-15.2246,1.08794
-602,288,-6.20886,0.383667,0,0,0,0,0,0,0,-1,622,736,-6.20887,-0.383678
-595,288,-5.7287,2.38434,0,0,0,0,0,0,0,-1,629,736,-5.72871,-2.38432
-588,288,-6.75586,1.0415,0,0,0,0,0,0,0,-1,636,736,-6.75586,-1.04148
-581,288,-7.12225,0.819519,0,0,0,0,0,0,0,-1,643,736,-7.12228,-0.81952
-574,288,-6.73761,0.739807,-0.0136525,-0.00541043,-0.00539436,-0.00274309,-0.0163198,-1.11158,0.0100906,0.0378172,650,736,-6.73761,-0.739816
-567,288,-6.87262,0.382385,-0.0113083,-0.00245404,-0.00045163,-0.00243106,-0.0113313,-1.51997,0.00688836,0.0237738,657,736,-6.87261,-0.382378
-560,288,-6.98792,0.243103,-0.00927416,-0.000863844,0.00241646,-0.000218988,-0.00991901,1.31001,0.0065409,0.0130522,664,736,-6.9879,-0.243132
-553,288,-6.95465,0.0818481,-0.00749085,-0.0003968,0.00314664,0.000797771,-0.00868543,1.20797,0.0060737,0.0183159,671,736,-6.95467,-0.0818541
-546,288,-6.97266,-0.0908813,-0.00613932,-0.000126178,0.0025188,0.000789474,-0.00705498,1.22212,0.00498735,0.0188834,678,736,-6.97268,0.090851
-539,288,-6.97815,-0.314514,-0.00475707,-0.000275132,0.00227473,0.00067707,-0.00570927,1.17436,0.00405077,0.0156577,685,736,-6.97812,0.314485
-532,288,-6.97479,-0.521606,-0.00345914,-0.000621217,0.0023778,0.000728825,-0.00480918,1.05441,0.00347464,0.0118715,692,736,-6.9748,0.521597
-525,288,-6.97839,-0.743225,-0.0019163,-0.00187447,0.00293698,0.00104167,-0.00483244,0.788958,0.00361917,0.0119001,699,736,-6.97841,0.743232
-518,288,-6.98792,-0.945496,0.000332775,-0.00297425,0.00333087,0.00239797,-0.00503944,0.555008,0.00438334,0.0115504,706,736,-6.98791,0.945499
-511,288,-6.97888,-1.15021,0.00386881,-0.00427579,0.00358137,0.00521959,-0.00562658,0.360671,0.00626351,0.00872537,713,736,-6.97889,1.15021
-504,288,-6.99768,-1.35956,0.00720571,-0.00661808,0.00387412,0.0082174,-0.00762976,0.255435,0.00915146,0.0106161,720,736,-6.9977,1.35957
-497,288,-6.9715,-1.50189,0.0108653,-0.00905997,0.00404922,0.0116568,-0.00985141,0.193023,0.0124323,0.0203754,727,736,-6.9715,1.5019
-490,288,-6.87415,-1.6142,0,0,0,0,0,0,0,-1,734,736,-6.87413,1.6142
-483,288,-7.18433,0.525391,0,0,0,0,0,0,0,-1,741,736,-7.18433,-0.525395
-476,288,-13.5999,-1.20441,0,0,0,0,0,0,0,-1,748,736,-13.5999,1.20439
-469,288,-13.2117,0.437134,0,0,0,0,0,0,0,-1,755,736,-13.2117,-0.437148
-462,288,-12.6051,0.396423,0.0341557,-0.0368907,0.00220594,0.0342241,-0.0369592,0.0310095,0.0411078,0.0499212,762,736,-12.6051,-0.396452
-455,288,-11.6908,0.198486,0,0,0,0,0,0,0,-1,769,736,-11.6908,-0.198465
-448,288,-10.8395,-0.020752,0,0,0,0,0,0,0,-1,776,736,-10.8395,0.020733
-441,288,-12.0951,-0.573792,0.0273601,-0.0811388,0.0121539,0.0287049,-0.0824836,0.110199,0.0666507,0.0433763,783,736,-12.0951,0.573816
-434,288,-11.9454,-0.381409,0,0,0,0,0,0,0,-1,790,736,-11.9454,0.381388
-427,288,0,0,0,0,0,0,0,0,0,-1,797,736,0,0
-420,288,0,0,0,0,0,0,0,0,0,-1,804,736,0,0
-413,288,0,0,0,0,0,0,0,0,0,-1,811,736,0,0
-406,288,0,0,0,0,0,0,0,0,0,-1,818,736,0,0
-399,288,0,0,0,0,0,0,0,0,0,-1,825,736,0,0
-392,288,0,0,0,0,0,0,0,0,0,-1,832,736,0,0
-385,288,0,0,0,0,0,0,0,0,0,-1,839,736,0,0
-378,288,0,0,0,0,0,0,0,0,0,-1,846,736,0,0
-371,288,0,0,0,0,0,0,0,0,0,-1,853,736,0,0
-364,288,0,0,0,0,0,0,0,0,0,-1,860,736,0,0
-357,288,0,0,0,0,0,0,0,0,0,-1,867,736,0,0
-350,288,0,0,0,0,0,0,0,0,0,-1,874,736,0,0
-343,288,0,0,0,0,0,0,0,0,0,-1,881,736,0,0
-336,288,0,0,0,0,0,0,0,0,0,-1,888,736,0,0
-329,288,0,0,0,0,0,0,0,0,0,-1,895,736,0,0
-322,288,0,0,0,0,0,0,0,0,0,-1,902,736,0,0
-315,288,0,0,0,0,0,0,0,0,0,-1,909,736,0,0
-308,288,0,0,0,0,0,0,0,0,0,-1,916,736,0,0
-301,288,0,0,0,0,0,0,0,0,0,-1,923,736,0,0
-294,288,0,0,0,0,0,0,0,0,0,-1,930,736,0,0
-287,288,0,0,0,0,0,0,0,0,0,-1,937,736,0,0
-280,288,0,0,0,0,0,0,0,0,0,-1,944,736,0,0
-273,288,0,0,0,0,0,0,0,0,0,-1,951,736,0,0
-266,288,0,0,0,0,0,0,0,0,0,-1,958,736,0,0
-259,288,0,0,0,0,0,0,0,0,0,-1,965,736,0,0
-252,288,0,0,0,0,0,0,0,0,0,-1,972,736,0,0
-245,288,0,0,0,0,0,0,0,0,0,-1,979,736,0,0
-238,288,0,0,0,0,0,0,0,0,0,-1,986,736,0,0
-231,288,0,0,0,0,0,0,0,0,0,-1,993,736,0,0
-224,288,0,0,0,0,0,0,0,0,0,-1,1000,736,0,0
-217,288,0,0,0,0,0,0,0,0,0,-1,1007,736,0,0
-210,288,0,0,0,0,0,0,0,0,0,-1,1014,736,0,0
-203,288,0,0,0,0,0,0,0,0,0,-1,1021,736,0,0
-196,288,0,0,0,0,0,0,0,0,0,-1,1028,736,0,0
-189,288,0,0,0,0,0,0,0,0,0,-1,1035,736,0,0
-182,288,0,0,0,0,0,0,0,0,0,-1,1042,736,0,0
-175,288,0,0,0,0,0,0,0,0,0,-1,1049,736,0,0
-168,288,0,0,0,0,0,0,0,0,0,-1,1056,736,0,0
-161,288,0,0,0,0,0,0,0,0,0,-1,1063,736,0,0
-154,288,0,0,0,0,0,0,0,0,0,-1,1070,736,0,0
-147,288,0,0,0,0,0,0,0,0,0,-1,1077,736,0,0
-140,288,0,0,0,0,0,0,0,0,0,-1,1084,736,0,0
-133,288,0,0,0,0,0,0,0,0,0,-1,1091,736,0,0
-126,288,0,0,0,0,0,0,0,0,0,-1,1098,736,0,0
-119,288,0,0,0,0,0,0,0,0,0,-1,1105,736,0,0
-112,288,0,0,0,0,0,0,0,0,0,-1,1112,736,0,0
-105,288,0,0,0,0,0,0,0,0,0,-1,1119,736,0,0
-98,288,0,0,0,0,0,0,0,0,0,-1,1126,736,0,0
-91,288,0,0,0,0,0,0,0,0,0,-1,1133,736,0,0
-84,288,0,0,0,0,0,0,0,0,0,-1,1140,736,0,0
-77,288,0,0,0,0,0,0,0,0,0,-1,1147,736,0,0
-70,288,0,0,0,0,0,0,0,0,0,-1,1154,736,0,0
-63,288,0,0,0,0,0,0,0,0,0,-1,1161,736,0,0
-56,288,0,0,0,0,0,0,0,0,0,-1,1168,736,0,0
-49,288,0,0,0,0,0,0,0,0,0,-1,1175,736,0,0
-42,288,0,0,0,0,0,0,0,0,0,-1,1182,736,0,0
-35,288,0,0,0,0,0,0,0,0,0,-1,1189,736,0,0
-28,288,0,0,0,0,0,0,0,0,0,-1,1196,736,0,0
-21,288,0,0,0,0,0,0,0,0,0,-1,1203,736,0,0
-14,288,0,0,0,0,0,0,0,0,0,-1,1210,736,0,0
-7,288,0,0,0,0,0,0,0,0,0,-1,1217,736,0,0
0,288,0,0,0,0,0,0,0,0,0,-1,1224,736,0,0
7,288,0,0,0,0,0,0,0,0,0,-1,1231,736,0,0
14,288,0,0,0,0,0,0,0,0,0,-1,1238,736,0,0
21,288,0,0,0,0,0,0,0,0,0,-1,1245,736,0,0
28,288,0,0,0,0,0,0,0,0,0,-1,1252,736,0,0
35,288,0,0,0,0,0,0,0,0,0,-1,1259,736,0,0
42,288,0,0,0,0,0,0,0,0,0,-1,1266,736,0,0
49,288,0,0,0,0,0,0,0,0,0,-1,1273,736,0,0
56,288,0,0,0,0,0,0,0,0,0,-1,1280,736,0,0
63,288,0,0,0,0,0,0,0,0,0,-1,1287,736,0,0
70,288,0,0,0,0,0,0,0,0,0,-1,1294,736,0,0
77,288,0,0,0,0,0,0,0,0,0,-1,1301,736,0,0
84,288,0,0,0,0,0,0,0,0,0,-1,1308,736,0,0
91,288,0,0,0,0,0,0,0,0,0,-1,1315,736,0,0
98,288,0,0,0,0,0,0,0,0,0,-1,1322,736,0,0
105,288,0,0,0,0,0,0,0,0,0,-1,1329,736,0,0
112,288,0,0,0,0,0,0,0,0,0,-1,1336,736,0,0
119,288,0,0,0,0,0,0,0,0,0,-1,1343,736,0,0
126,288,0,0,0,0,0,0,0,0,0,-1,1350,736,0,0
133,288,0,0,0,0,0,0,0,0,0,-1,1357,736,0,0
140,288,0,0,0,0,0,0,0,0,0,-1,1364,736,0,0
147,288,0,0,0,0,0,0,0,0,0,-1,1371,736,0,0
154,288,0,0,0,0,0,0,0,0,0,-1,1378,736,0,0
161,288,0,0,0,0,0,0,0,0,0,-1,1385,736,0,0
168,288,0,0,0,0,0,0,0,0,0,-1,1392,736,0,0
175,288,0,0,0,0,0,0,0,0,0,-1,1399,736,0,0
182,288,0,0,0,0,0,0,0,0,0,-1,1406,736,0,0
189,288,0,0,0,0,0,0,0,0,0,-1,1413,736,0,0
196,288,0,0,0,0,0,0,0,0,0,-1,1420,736,0,0
203,288,0,0,0,0,0,0,0,0,0,-1,1427,736,0,0
210,288,0,0,0,0,0,0,0,0,0,-1,1434,736,0,0
217,288,0,0,0,0,0,0,0,0,0,-1,1441,736,0,0
224,288,0,0,0,0,0,0,0,0,0,-1,1448,736,0,0
231,288,0,0,0,0,0,0,0,0,0,-1,1455,736,0,0
238,288,0,0,0,0,0,0,0,0,0,-1,1462,736,0,0
245,288,0,0,0,0,0,0,0,0,0,-1,1469,736,0,0
252,288,0,0,0,0,0,0,0,0,0,-1,1476,736,0,0
259,288,0,0,0,0,0,0,0,0,0,-1,1483,736,0,0
266,288,0,0,0,0,0,0,0,0,0,-1,1490,736,0,0
273,288,0,0,0,0,0,0,0,0,0,-1,1497,736,0,0
280,288,0,0,0,0,0,0,0,0,0,-1,1504,736,0,0
287,288,0,0,0,0,0,0,0,0,0,-1,1511,736,0,0
294,288,0,0,0,0,0,0,0,0,0,-1,1518,736,0,0
301,288,0,0,0,0,0,0,0,0,0,-1,1525,736,0,0
308,288,0,0,0,0,0,0,0,0,0,-1,1532,736,0,0
315,288,0,0,0,0,0,0,0,0,0,-1,1539,736,0,0
322,288,0,0,0,0,0,0,0,0,0,-1,1546,736,0,0
329,288,0,0,0,0,0,0,0,0,0,-1,1553,736,0,0
336,288,0,0,0,0,0,0,0,0,0,-1,1560,736,0,0
343,288,0,0,0,0,0,0,0,0,0,-1,1567,736,0,0
350,288,0,0,0,0,0,0,0,0,0,-1,1574,736,0,0
357,288,0,0,0,0,0,0,0,0,0,-1,1581,736,0,0
364,288,0,0,0,0,0,0,0,0,0,-1,1588,736,0,0
371,288,0,0,0,0,0,0,0,0,0,-1,1595,736,0,0
378,288,0,0,0,0,0,0,0,0,0,-1,1602,736,0,0
385,288,0,0,0,0,0,0,0,0,0,-1,1609,736,0,0
392,288,0,0,0,0,0,0,0,0,0,-1,1616,736,0,0
399,288,0,0,0,0,0,0,0,0,0,-1,1623,736,0,0
406,288,0,0,0,0,0,0,0,0,0,-1,1630,736,0,0
413,288,0,0,0,0,0,0,0,0,0,-1,1637,736,0,0
420,288,0,0,0,0,0,0,0,0,0,-1,1644,736,0,0
427,288,0,0,0,0,0,0,0,0,0,-1,1651,736,0,0
434,288,0,0,0,0,0,0,0,0,0,-1,1658,736,0,0
441,288,0,0,0,0,0,0,0,0,0,-1,1665,736,0,0
448,288,0,0,0,0,0,0,0,0,0,-1,1672,736,0,0
455,288,0,0,0,0,0,0,0,0,0,-1,1679,736,0,0
462,288,0,0,0,0,0,0,0,0,0,-1,1686,736,0,0
469,288,0,0,0,0,0,0,0,0,0,-1,1693,736,0,0
476,288,0,0,0,0,0,0,0,0,0,-1,1700,736,0,0
483,288,0,0,0,0,0,0,0,0,0,-1,1707,736,0,0
490,288,0,0,0,0,0,0,0,0,0,-1,1714,736,0,0
497,288,0,0,0,0,0,0,0,0,0,-1,1721,736,0,0
504,288,0,0,0,0,0,0,0,0,0,-1,1728,736,0,0
511,288,0,0,0,0,0,0,0,0,0,-1,1735,736,0,0
518,288,0,0,0,0,0,0,0,0,0,-1,1742,736,0,0
525,288,0,0,0,0,0,0,0,0,0,-1,1749,736,0,0
532,288,0,0,0,0,0,0,0,0,0,-1,1756,736,0,0
539,288,0,0,0,0,0,0,0,0,0,-1,1763,736,0,0
546,288,0,0,0,0,0,0,0,0,0,-1,1770,736,0,0
553,288,16.1022,3.01141,0,0,0,0,0,0,0,-1,1777,736,16.1022,-3.01139
560,288,16.5106,3.9306,0,0,0,0,0,0,0,-1,1784,736,16.5107,-3.93059
567,288,16.3424,4.31622,0,0,0,0,0,0,0,-1,1791,736,16.3424,-4.31622
574,288,16.1703,4.39636,0,0,0,0,0,0,0,-1,1798,736,16.1703,-4.39633
581,288,15.7518,4.3717,0,0,0,0,0,0,0,-1,1805,736,15.7518,-4.37171
588,288,15.6243,4.53442,0,0,0,0,0,0,0,-1,1812,736,15.6242,-4.53441
595,288,16.0812,4.03497,0,0,0,0,0,0,0,-1,1819,736,16.0812,-4.03496
602,288,16.7866,4.28668,0,0,0,0,0,0,0,-1,1826,736,16.7866,-4.28665
609,288,17.5223,4.86414,0,0,0,0,0,0,0,-1,1833,736,17.5223,-4.86412
616,288,12.2759,0.423157,0,0,0,0,0,0,0,-1,1840,736,12.2759,-0.423153
623,288,12.3381,0.291565,0,0,0,0,0,0,0,-1,1847,736,12.3381,-0.291564
630,288,12.4138,0.543579,0.00315565,-0.00519185,-0.00136117,0.003372,-0.0054082,-0.157625,0.00511449,0.0204153,1854,736,12.4138,-0.543571
637,288,12.4384,0.742981,0.00171692,-0.00477727,-0.00137082,0.00199442,-0.00505477,-0.199735,0.00419575,0.0103954,1861,736,12.4384,-0.742971
644,288,12.4628,0.962158,0.000249643,-0.00360223,-0.00123925,0.000613899,-0.00396648,-0.28588,0.00287092,0.0103666,1868,736,12.4628,-0.962136
651,288,12.4763,1.18964,-0.000589632,-0.00258697,-0.00114593,-6.82718e-05,-0.00310833,-0.426978,0.00204984,0.0110095,1875,736,12.4763,-1.18965
658,288,12.4644,1.42206,-0.000798199,-0.00164502,-0.00115193,5.67699e-06,-0.00244889,-0.609281,0.00163449,0.0156173,1882,736,12.4643,-1.42204
665,288,12.4564,1.62683,-0.000169625,-0.000653266,-0.00129101,0.000902016,-0.00172491,-0.692815,0.00154126,0.0162844,1889,736,12.4564,-1.62686
672,288,12.455,1.82599,0.00109372,4.18198e-05,-0.0015417,0.00219671,-0.00106118,-0.621014,0.00191865,0.0135806,1896,736,12.4549,-1.82598
679,288,12.4604,2.06653,0.00352048,0.00139913,-0.00180753,0.00455556,0.000364043,-0.520067,0.00292326,0.0110308,1903,736,12.4605,-2.06653
686,288,12.441,2.2533,0.00616468,0.00285062,-0.00232853,0.00736559,0.00164972,-0.476157,0.0044633,0.00892067,1910,736,12.441,-2.25331
693,288,12.4567,2.47089,0.00995761,0.00487232,-0.0029198,0.0112867,0.00354323,-0.427167,0.00666508,0.0119009,1917,736,12.4567,-2.47086
700,288,12.4332,2.70392,0.0152179,0.00773215,-0.00369542,0.0167348,0.00621526,-0.389508,0.0097678,0.02373,1924,736,12.4333,-2.70394
707,288,12.4583,2.97797,0.0224518,0.0117544,-0.004609,0.0241637,0.0100426,-0.355626,0.014017,0.0365105,1931,736,12.4582,-2.97794
714,288,12.5548,3.24518,0.0322512,0.0173479,-0.00570072,0.0341818,0.0154174,-0.326525,0.0197664,0.0469211,1938,736,12.5549,-3.24518
721,288,12.7842,3.50336,0,0,0,0,0,0,0,-1,1945,736,12.7842,-3.50336
728,288,14.6309,3.74915,0,0,0,0,0,0,0,-1,1952,736,14.6309,-3.74918
735,288,15.2201,3.56317,0,0,0,0,0,0,0,-1,1959,736,15.2201,-3.56319
742,288,0,0,0,0,0,0,0,0,0,-1,1966,736,0,0
749,288,0,0,0,0,0,0,0,0,0,-1,1973,736,0,0
756,288,0,0,0,0,0,0,0,0,0,-1,1980,736,0,0
763,288,0,0,0,0,0,0,0,0,0,-1,1987,736,0,0
770,288,0,0,0,0,0,0,0,0,0,-1,1994,736,0,0
777,288,0,0,0,0,0,0,0,0,0,-1,2001,736,0,0
784,288,0,0,0,0,0,0,0,0,0,-1,2008,736,0,0
791,288,0,0,0,0,0,0,0,0,0,-1,2015,736,0,0
798,288,0,0,0,0,0,0,0,0,0,-1,2022,736,0,0
805,288,0,0,0,0,0,0,0,0,0,-1,2029,736,0,0
812,288,0,0,0,0,0,0,0,0,0,-1,2036,736,0,0
-700,281,0,0,0,0,0,0,0,0,0,-1,524,743,0,0
-693,281,0,0,0,0,0,0,0,0,0,-1,531,743,0,0
-686,281,0,0,0,0,0,0,0,0,0,-1,538,743,0,0
-679,281,0,0,0,0,0,0,0,0,0,-1,545,743,0,0
-672,281,0,0,0,0,0,0,0,0,0,-1,552,743,0,0
-665,281,0,0,0,0,0,0,0,0,0,-1,559,743,0,0
-658,281,0,0,0,0,0,0,0,0,0,-1,566,743,0,0
-651,281,0,0,0,0,0,0,0,0,0,-1,573,743,0,0
-644,281,0,0,0,0,0,0,0,0,0,-1,580,743,0,0
-637,281,0,0,0,0,0,0,0,0,0,-1,587,743,0,0
-630,281,0,0,0,0,0,0,0,0,0,-1,594,743,0,0
-623,281,-12.8099,-1.19244,0,0,0,0,0,0,0,-1,601,743,-12.8099,1.19242
-616,281,-13.8781,-0.960754,0,0,0,0,0,0,0,-1,608,743,-13.8781,0.960776
-609,281,-14.0696,-0.976563,0,0,0,0,0,0,0,-1,615,743,-14.0696,0.976539
-602,281,-14.2612,-0.99231,0,0,0,0,0,0,0,-1,622,743,-14.2612,0.992302
-595,281,-5.39661,1.9082,0,0,0,0,0,0,0,-1,629,743,-5.3966,-1.9082
-588,281,-7.58746,1.00714,0,0,0,0,0,0,0,-1,636,743,-7.58747,-1.00711
-581,281,-7.35034,0.823853,-0.0130188,-0.00968605,-0.0103528,-0.000866373,-0.0218385,-0.865194,0.014279,0.0461254,643,743,-7.35037,-0.823855
-574,281,-7.08362,0.63501,-0.0108733,-0.00636081,-0.00486381,-0.00325541,-0.0139787,-1.00257,0.00844578,0.0265625,650,743,-7.08364,-0.635018
-567,281,-7.17371,0.444641,-0.00890683,-0.00331986,-0.000354707,-0.00329743,-0.00892926,-1.50765,0.0052137,0.0127016,657,743,-7.17371,-0.444612
-560,281,-7.19067,0.263306,-0.00733421,-0.00151104,0.00240288,-0.000647557,-0.0081977,1.22581,0.00526258,0.00770958,664,743,-7.1907,-0.263333
-553,281,-7.15491,0.0682983,-0.00608493,-0.000873704,0.0032024,0.000649189,-0.00760782,1.1269,0.00530154,0.0121907,671,743,-7.15492,-0.0682975
-546,281,-7.15283,-0.112427,-0.00532314,-0.000514979,0.00271899,0.000710334,-0.00654845,1.1474,0.00462065,0.0136906,678,743,-7.15282,0.112454
-539,281,-7.17542,-0.325684,-0.00435852,-0.000646439,0.00268311,0.000760031,-0.00576499,1.08798,0.00412011,0.0121678,685,743,-7.17541,0.325684
-532,281,-7.16815,-0.517639,-0.00350545,-0.000959056,0.00299903,0.00102585,-0.00549035,0.986137,0.00404577,0.0109478,692,743,-7.16817,0.517666
-525,281,-7.18665,-0.743713,-0.00221571,-0.00235286,0.00378154,0.00149788,-0.00606645,0.776332,0.00462516,0.0123895,699,743,-7.18662,0.743742
-518,281,-7.19373,-0.961243,-6.63931e-05,-0.00345624,0.00429726,0.00285812,-0.00638075,0.597555,0.00546178,0.0112784,706,743,-7.19373,0.961219
-511,281,-7.19861,-1.16656,0.00347692,-0.00477774,0.00460671,0.00553478,-0.00683561,0.420115,0.0071552,0.0108809,713,743,-7.19863,1.16658
-504,281,-7.20398,-1.40161,0.00687092,-0.00722423,0.00493039,0.00842434,-0.00877765,0.305224,0.00993227,0.0136706,720,743,-7.204,1.40159
-497,281,-7.06946,-1.59436,0.0106898,-0.00972545,0.00507961,0.0118838,-0.0109195,0.230875,0.0131694,0.0356032,727,743,-7.06948,1.59437
-490,281,-6.92218,-1.64221,0,0,0,0,0,0,0,-1,734,743,-6.92218,1.64223
-483,281,-6.87555,-1.64941,0,0,0,0,0,0,0,-1,741,743,-6.87556,1.64939
-476,281,-13.4811,0.0350342,0.0257054,-0.0234499,0.00400205,0.0260291,-0.0237736,0.0807081,0.0287634,0.0433659,748,743,-13.481,-0.035021
-469,281,-13.2794,0.688293,0.0311645,-0.0298491,0.00311117,0.0313227,-0.0300073,0.0508158,0.0354116,0.0478952,755,743,-13.2794,-0.688272
-462,281,-12.7171,0.55072,0.0359954,-0.0380679,0.00233793,0.0360692,-0.0381416,0.0315248,0.0428512,0.0452416,762,743,-12.7171,-0.550733
-455,281,-11.9462,0.280273,0,0,0,0,0,0,0,-1,769,743,-11.9462,-0.280292
-448,281,-12.6211,0.29126,0.0379035,-0.0624818,0.00385871,0.0380516,-0.0626299,0.0383635,0.0587031,0.0425263,776,743,-12.6211,-0.291265
-441,281,-12.3932,0.392761,0.0288767,-0.0801325,0.0111293,0.0300013,-0.0812572,0.100711,0.0664685,0.0440964,783,743,-12.3932,-0.392767
-434,281,0,0,0,0,0,0,0,0,0,-1,790,743,0,0
-427,281,0,0,0,0,0,0,0,0,0,-1,797,743,0,0
-420,281,0,0,0,0,0,0,0,0,0,-1,804,743,0,0
-413,281,0,0,0,0,0,0,0,0,0,-1,811,743,0,0
-406,281,0,0,0,0,0,0,0,0,0,-1,818,743,0,0
-399,281,0,0,0,0,0,0,0,0,0,-1,825,743,0,0
-392,281,0,0,0,0,0,0,0,0,0,-1,832,743,0,0
-385,281,0,0,0,0,0,0,0,0,0,-1,839,743,0,0
-378,281,0,0,0,0,0,0,0,0,0,-1,846,743,0,0
-371,281,0,0,0,0,0,0,0,0,0,-1,853,743,0,0
-364,281,0,0,0,0,0,0,0,0,0,-1,860,743,0,0
-357,281,0,0,0,0,0,0,0,0,0,-1,867,743,0,0
-350,281,0,0,0,0,0,0,0,0,0,-1,874,743,0,0
-343,281,0,0,0,0,0,0,0,0,0,-1,881,743,0,0
-336,281,0,0,0,0,0,0,0,0,0,-1,888,743,0,0
-329,281,0,0,0,0,0,0,0,0,0,-1,895,743,0,0
-322,281,0,0,0,0,0,0,0,0,0,-1,902,743,0,0
-315,281,0,0,0,0,0,0,0,0,0,-1,909,743,0,0
-308,281,0,0,0,0,0,0,0,0,0,-1,916,743,0,0
-301,281,0,0,0,0,0,0,0,0,0,-1,923,743,0,0
-294,281,0,0,0,0,0,0,0,0,0,-1,930,743,0,0
-287,281,0,0,0,0,0,0,0,0,0,-1,937,743,0,0
-280,281,0,0,0,0,0,0,0,0,0,-1,944,743,0,0
-273,281,0,0,0,0,0,0,0,0,0,-1,951,743,0,0
-266,281,0,0,0,0,0,0,0,0,0,-1,958,743,0,0
-259,281,0,0,0,0,0,0,0,0,0,-1,965,743,0,0
-252,281,0,0,0,0,0,0,0,0,0,-1,972,743,0,0
-245,281,0,0,0,0,0,0,0,0,0,-1,979,743,0,0
-238,281,0,0,0,0,0,0,0,0,0,-1,986,743,0,0
-231,281,0,0,0,0,0,0,0,0,0,-1,993,743,0,0
-224,281,0,0,0,0,0,0,0,0,0,-1,1000,743,0,0
-217,281,0,0,0,0,0,0,0,0,0,-1,1007,743,0,0
-210,281,0,0,0,0,0,0,0,0,0,-1,1014,743,0,0
-203,281,0,0,0,0,0,0,0,0,0,-1,1021,743,0,0
-196,281,0,0,0,0,0,0,0,0,0,-1,1028,743,0,0
-189,281,0,0,0,0,0,0,0,0,0,-1,1035,743,0,0
-182,281,0,0,0,0,0,0,0,0,0,-1,1042,743,0,0
-175,281,0,0,0,0,0,0,0,0,0,-1,1049,743,0,0
-168,281,0,0,0,0,0,0,0,0,0,-1,1056,743,0,0
-161,281,0,0,0,0,0,0,0,0,0,-1,1063,743,0,0
-154,281,0,0,0,0,0,0,0,0,0,-1,1070,743,0,0
-147,281,0,0,0,0,0,0,0,0,0,-1,1077,743,0,0
-140,281,0,0,0,0,0,0,0,0,0,-1,1084,743,0,0
-133,281,0,0,0,0,0,0,0,0,0,-1,1091,743,0,0
-126,281,0,0,0,0,0,0,0,0,0,-1,1098,743,0,0
-119,281,0,0,0,0,0,0,0,0,0,-1,1105,743,0,0
-112,281,0,0,0,0,0,0,0,0,0,-1,1112,743,0,0
-105,281,0,0,0,0,0,0,0,0,0,-1,1119,743,0,0
-98,281,0,0,0,0,0,0,0,0,0,-1,1126,743,0,0
-91,281,0,0,0,0,0,0,0,0,0,-1,1133,743,0,0
-84,281,0,0,0,0,0,0,0,0,0,-1,1140,743,0,0
-77,281,0,0,0,0,0,0,0,0,0,-1,1147,743,0,0
-70,281,0,0,0,0,0,0,0,0,0,-1,1154,743,0,0
-63,281,0,0,0,0,0,0,0,0,0,-1,1161,743,0,0
-56,281,0,0,0,0,0,0,0,0,0,-1,1168,743,0,0
-49,281,0,0,0,0,0,0,0,0,0,-1,1175,743,0,0
-42,281,0,0,0,0,0,0,0,0,0,-1,1182,743,0,0
-35,281,0,0,0,0,0,0,0,0,0,-1,1189,743,0,0
-28,281,0,0,0,0,0,0,0,0,0,-1,1196,743,0,0
-21,281,0,0,0,0,0,0,0,0,0,-1,1203,743,0,0
-14,281,0,0,0,0,0,0,0,0,0,-1,1210,743,0,0
-7,281,0,0,0,0,0,0,0,0,0,-1,1217,743,0,0
0,281,0,0,0,0,0,0,0,0,0,-1,1224,743,0,0
7,281,0,0,0,0,0,0,0,0,0,-1,1231,743,0,0
14,281,0,0,0,0,0,0,0,0,0,-1,1238,743,0,0
21,281,0,0,0,0,0,0,0,0,0,-1,1245,743,0,0
28,281,0,0,0,0,0,0,0,0,0,-1,1252,743,0,0
35,281,0,0,0,0,0,0,0,0,0,-1,1259,743,0,0
42,281,0,0,0,0,0,0,0,0,0,-1,1266,743,0,0
49,281,0,0,0,0,0,0,0,0,0,-1,1273,743,0,0
56,281,0,0,0,0,0,0,0,0,0,-1,1280,743,0,0
63,281,0,0,0,0,0,0,0,0,0,-1,1287,743,0,0
70,281,0,0,0,0,0,0,0,0,0,-1,1294,743,0,0
77,281,0,0,0,0,0,0,0,0,0,-1,1301,743,0,0
84,281,0,0,0,0,0,0,0,0,0,-1,1308,743,0,0
91,281,0,0,0,0,0,0,0,0,0,-1,1315,743,0,0
98,281,0,0,0,0,0,0,0,0,0,-1,1322,743,0,0
105,281,0,0,0,0,0,0,0,0,0,-1,1329,743,0,0
112,281,0,0,0,0,0,0,0,0,0,-1,1336,743,0,0
119,281,0,0,0,0,0,0,0,0,0,-1,1343,743,0,0
126,281,0,0,0,0,0,0,0,0,0,-1,1350,743,0,0
133,281,0,0,0,0,0,0,0,0,0,-1,1357,743,0,0
140,281,0,0,0,0,0,0,0,0,0,-1,1364,743,0,0
147,281,0,0,0,0,0,0,0,0,0,-1,1371,743,0,0
154,281,0,0,0,0,0,0,0,0,0,-1,1378,743,0,0
161,281,0,0,0,0,0,0,0,0,0,-1,1385,743,0,0
168,281,0,0,0,0,0,0,0,0,0,-1,1392,743,0,0
175,281,0,0,0,0,0,0,0,0,0,-1,1399,743,0,0
182,281,0,0,0,0,0,0,0,0,0,-1,1406,743,0,0
189,281,0,0,0,0,0,0,0,0,0,-1,1413,743,0,0
196,281,0,0,0,0,0,0,0,0,0,-1,1420,743,0,0
203,281,0,0,0,0,0,0,0,0,0,-1,1427,743,0,0
210,281,0,0,0,0,0,0,0,0,0,-1,1434,743,0,0
217,281,0,0,0,0,0,0,0,0,0,-1,1441,743,0,0
224,281,0,0,0,0,0,0,0,0,0,-1,1448,743,0,0
231,281,0,0,0,0,0,0,0,0,0,-1,1455,743,0,0
238,281,0,0,0,0,0,0,0,0,0,-1,1462,743,0,0
245,281,0,0,0,0,0,0,0,0,0,-1,1469,743,0,0
252,281,0,0,0,0,0,0,0,0,0,-1,1476,743,0,0
259,281,0,0,0,0,0,0,0,0,0,-1,1483,743,0,0
266,281,0,0,0,0,0,0,0,0,0,-1,1490,743,0,0
273,281,0,0,0,0,0,0,0,0,0,-1,1497,743,0,0
280,281,0,0,0,0,0,0,0,0,0,-1,1504,743,0,0
287,281,0,0,0,0,0,0,0,0,0,-1,1511,743,0,0
294,281,0,0,0,0,0,0,0,0,0,-1,1518,743,0,0
301,281,0,0,0,0,0,0,0,0,0,-1,1525,743,0,0
308,281,0,0,0,0,0,0,0,0,0,-1,1532,743,0,0
315,281,0,0,0,0,0,0,0,0,0,-1,1539,743,0,0
322,281,0,0,0,0,0,0,0,0,0,-1,1546,743,0,0
329,281,0,0,0,0,0,0,0,0,0,-1,1553,743,0,0
336,281,0,0,0,0,0,0,0,0,0,-1,1560,743,0,0
343,281,0,0,0,0,0,0,0,0,0,-1,1567,743,0,0
350,281,0,0,0,0,0,0,0,0,0,-1,1574,743,0,0
357,281,0,0,0,0,0,0,0,0,0,-1,1581,743,0,0
364,281,0,0,0,0,0,0,0,0,0,-1,1588,743,0,0
371,281,0,0,0,0,0,0,0,0,0,-1,1595,743,0,0
378,281,0,0,0,0,0,0,0,0,0,-1,1602,743,0,0
385,281,0,0,0,0,0,0,0,0,0,-1,1609,743,0,0
392,281,0,0,0,0,0,0,0,0,0,-1,1616,743,0,0
399,281,0,0,0,0,0,0,0,0,0,-1,1623,743,0,0
406,281,0,0,0,0,0,0,0,0,0,-1,1630,743,0,0
413,281,0,0,0,0,0,0,0,0,0,-1,1637,743,0,0
420,281,0,0,0,0,0,0,0,0,0,-1,1644,743,0,0
427,281,0,0,0,0,0,0,0,0,0,-1,1651,743,0,0
434,281,0,0,0,0,0,0,0,0,0,-1,1658,743,0,0
441,281,0,0,0,0,0,0,0,0,0,-1,1665,743,0,0
448,281,0,0,0,0,0,0,0,0,0,-1,1672,743,0,0
455,281,0,0,0,0,0,0,0,0,0,-1,1679,743,0,0
462,281,0,0,0,0,0,0,0,0,0,-1,1686,743,0,0
469,281,0,0,0,0,0,0,0,0,0,-1,1693,743,0,0
476,281,0,0,0,0,0,0,0,0,0,-1,1700,743,0,0
483,281,0,0,0,0,0,0,0,0,0,-1,1707,743,0,0
490,281,0,0,0,0,0,0,0,0,0,-1,1714,743,0,0
497,281,0,0,0,0,0,0,0,0,0,-1,1721,743,0,0
504,281,0,0,0,0,0,0,0,0,0,-1,1728,743,0,0
511,281,0,0,0,0,0,0,0,0,0,-1,1735,743,0,0
518,281,0,0,0,0,0,0,0,0,0,-1,1742,743,0,0
525,281,0,0,0,0,0,0,0,0,0,-1,1749,743,0,0
532,281,0,0,0,0,0,0,0,0,0,-1,1756,743,0,0
539,281,0,0,0,0,0,0,0,0,0,-1,1763,743,0,0
546,281,0,0,0,0,0,0,0,0,0,-1,1770,743,0,0
553,281,0,0,0,0,0,0,0,0,0,-1,1777,743,0,0
560,281,17.3035,3.39185,0,0,0,0,0,0,0,-1,1784,743,17.3035,-3.39184
567,281,17.0718,3.72504,0,0,0,0,0,0,0,-1,1791,743,17.0717,-3.72501
574,281,18.991,3.28784,0,0,0,0,0,0,0,-1,1798,743,18.991,-3.28783
581,281,18.8458,3.33801,0,0,0,0,0,0,0,-1,1805,743,18.8459,-3.33803
588,281,18.7404,3.35809,0,0,0,0,0,0,0,-1,1812,743,18.7404,-3.35807
595,281,16.8475,3.5824,0,0,0,0,0,0,0,-1,1819,743,16.8475,-3.58238
602,281,17.4373,3.20355,0,0,0,0,0,0,0,-1,1826,743,17.4373,-3.20354
609,281,15.8187,3.76251,0,0,0,0,0,0,0,-1,1833,743,15.8187,-3.76251
616,281,16.0756,3.79248,0,0,0,0,0,0,0,-1,1840,743,16.0755,-3.79247
623,281,12.5155,0.367493,0,0,0,0,0,0,0,-1,1847,743,12.5155,-0.367484
630,281,12.6084,0.534851,0.00349539,-0.00630068,-0.0019066,0.00385339,-0.00665868,-0.185606,0.00614076,0.0349588,1854,743,12.6084,-0.534881
637,281,12.6577,0.728027,0.00181723,-0.00594318,-0.00191103,0.0022623,-0.00638825,-0.228818,0.0051803,0.013069,1861,743,12.6577,-0.728006
644,281,12.6783,0.959106,5.86215e-05,-0.00465908,-0.00166352,0.000586202,-0.00518666,-0.307112,0.00366882,0.0103181,1868,743,12.6784,-0.959113
651,281,12.7009,1.1781,-0.000971497,-0.00337537,-0.00143705,-0.000299996,-0.00404687,-0.437128,0.00260368,0.0110813,1875,743,12.7009,-1.1781
658,281,12.6819,1.41016,-0.00123879,-0.0021145,-0.00132989,-0.000276523,-0.00307676,-0.626366,0.0019655,0.0192435,1882,743,12.6818,-1.41016
665,281,12.6702,1.59644,-0.000651707,-0.000935028,-0.00139083,0.000604659,-0.00219139,-0.734647,0.00169874,0.0201425,1889,743,12.6702,-1.59642
672,281,12.6521,1.82843,0.000706777,-0.000116177,-0.00155352,0.00190238,-0.00131179,-0.655937,0.00186612,0.0115731,1896,743,12.6521,-1.8284
679,281,12.6635,2.04059,0.00316003,0.00124131,-0.001789,0.00423067,0.000170666,-0.539284,0.00276531,0.0168411,1903,743,12.6634,-2.04057
686,281,12.6499,2.22278,0.00575091,0.00265449,-0.00231687,0.00698925,0.00141615,-0.490855,0.00426653,0.0132452,1910,743,12.65,-2.22279
693,281,12.6552,2.45081,0.00930657,0.00442893,-0.00299186,0.0107277,0.00300782,-0.443442,0.00638969,0.0104066,1917,743,12.6551,-2.45082
700,281,12.6523,2.67279,0.0141191,0.00680216,-0.00394863,0.0158436,0.00507769,-0.411761,0.00934174,0.0173141,1924,743,12.6524,-2.67277
707,281,12.5963,2.88806,0.0207357,0.0100489,-0.00503249,0.0227325,0.00805213,-0.37772,0.0133093,0.0338127,1931,743,12.5963,-2.88804
714,281,12.6719,3.13452,0.0297045,0.0144388,-0.00618918,0.0318985,0.0122448,-0.340663,0.0185815,0.0479475,1938,743,12.6719,-3.13451
721,281,12.9957,3.21246,0,0,0,0,0,0,0,-1,1945,743,12.9957,-3.21246
728,281,14.568,3.14459,0.0563743,0.0277949,-0.00875076,0.0588408,0.0253284,-0.274737,0.0340811,0.048134,1952,743,14.568,-3.1446
735,281,15.1864,2.98285,0,0,0,0,0,0,0,-1,1959,743,15.1864,-2.98285
742,281,0,0,0,0,0,0,0,0,0,-1,1966,743,0,0
749,281,0,0,0,0,0,0,0,0,0,-1,1973,743,0,0
756,281,0,0,0,0,0,0,0,0,0,-1,1980,743,0,0
763,281,0,0,0,0,0,0,0,0,0,-1,1987,743,0,0
770,281,0,0,0,0,0,0,0,0,0,-1,1994,743,0,0
777,281,0,0,0,0,0,0,0,0,0,-1,2001,743,0,0
784,281,0,0,0,0,0,0,0,0,0,-1,2008,743,0,0
791,281,0,0,0,0,0,0,0,0,0,-1,2015,743,0,0
798,281,0,0,0,0,0,0,0,0,0,-1,2022,743,0,0
805,281,0,0,0,0,0,0,0,0,0,-1,2029,743,0,0
812,281,0,0,0,0,0,0,0,0,0,-1,2036,743,0,0
-700,274,0,0,0,0,0,0,0,0,0,-1,524,750,0,0
-693,274,0,0,0,0,0,0,0,0,0,-1,531,750,0,0
-686,274,0,0,0,0,0,0,0,0,0,-1,538,750,0,0
-679,274,0,0,0,0,0,0,0,0,0,-1,545,750,0,0
-672,274,0,0,0,0,0,0,0,0,0,-1,552,750,0,0
-665,274,0,0,0,0,0,0,0,0,0,-1,559,750,0,0
-658,274,0,0,0,0,0,0,0,0,0,-1,566,750,0,0
-651,274,0,0,0,0,0,0,0,0,0,-1,573,750,0,0
-644,274,0,0,0,0,0,0,0,0,0,-1,580,750,0,0
-637,274,0,0,0,0,0,0,0,0,0,-1,587,750,0,0
-630,274,0,0,0,0,0,0,0,0,0,-1,594,750,0,0
-623,274,-12.14,-0.835999,-0.0167712,-0.0438367,-0.077643,0.0485096,-0.109117,-0.699118,0.0932214,0.0459564,601,750,-12.14,0.836003
-616,274,-12.7793,-0.954407,-0.0162962,-0.0374147,-0.0620239,0.0360608,-0.0897718,-0.701084,0.0748231,0.0489411,608,750,-12.7793,0.954407
-609,274,-12.9775,-1.04645,-0.0162567,-0.0316908,-0.047828,0.0244728,-0.0724203,-0.705412,0.0581796,0.0436378,615,750,-12.9775,1.04643
-602,274,-13.042,-0.995728,0,0,0,0,0,0,0,-1,622,750,-13.042,0.995754
-595,274,-7.27655,0.562256,0,0,0,0,0,0,0,-1,629,750,-7.27653,-0.562254
-588,274,-7.6828,0.983032,0,0,0,0,0,0,0,-1,636,750,-7.68278,-0.983002
-581,274,-7.50092,0.801025,-0.010159,-0.0108146,-0.00928547,-0.00119556,-0.0197781,-0.767753,0.0128055,0.0361086,643,750,-7.50093,-0.801011
-574,274,-7.3017,0.615784,-0.00841237,-0.00720191,-0.00450323,-0.00326342,-0.0123509,-0.852197,0.00739031,0.0177181,650,750,-7.30173,-0.615795
-567,274,-7.38544,0.45874,-0.00682944,-0.00408223,-0.000423427,-0.00401845,-0.00689322,-1.42129,0.00399802,0.0162668,657,750,-7.38542,-0.458759
-560,274,-7.38458,0.293945,-0.00566899,-0.00210952,0.00222307,-0.00104153,-0.00673697,1.12294,0.00418754,0.0131458,664,750,-7.38458,-0.293917
-553,274,-7.36798,0.0742798,-0.0048711,-0.00134979,0.00316804,0.000513972,-0.00673486,1.03902,0.00467067,0.00886016,671,750,-7.36801,-0.0743097
-546,274,-7.37482,-0.120361,-0.0047055,-0.000923539,0.00298494,0.000718989,-0.00634803,1.06774,0.00449091,0.0101299,678,750,-7.37479,0.120369
-539,274,-7.3905,-0.314819,-0.00424465,-0.00109637,0.00328952,0.000976247,-0.00631727,1.00856,0.00457181,0.0102775,685,750,-7.39053,0.31479
-532,274,-7.38025,-0.503601,-0.00393792,-0.00142409,0.00394848,0.0014627,-0.00682471,0.939492,0.00510767,0.0108419,692,750,-7.38024,0.503626
-525,274,-7.37695,-0.721375,-0.00300216,-0.00292151,0.00501239,0.00205072,-0.00797439,0.78942,0.00611554,0.0112547,699,750,-7.37697,0.721399
-518,274,-7.39124,-0.953125,-0.0010865,-0.00398649,0.00565838,0.00330472,-0.00837771,0.659969,0.0069536,0.0118269,706,750,-7.39125,0.953151
-511,274,-7.40002,-1.1709,0.00226105,-0.00525606,0.00602153,0.00560077,-0.00859578,0.506391,0.00825696,0.0115879,713,750,-7.4,1.17091
-504,274,-7.39331,-1.40308,0.00554791,-0.00764995,0.00636036,0.00811413,-0.0102162,0.383495,0.0106062,0.0201154,720,750,-7.39332,1.40308
-497,274,-7.258,-1.34229,0.00935979,-0.0100661,0.00645042,0.0113066,-0.0120129,0.293113,0.0134656,0.0444204,727,750,-7.25798,1.34229
-490,274,-7.12665,-1.30298,0,0,0,0,0,0,0,-1,734,750,-7.12664,1.30297
-483,274,-13.7354,1.08563,0,0,0,0,0,0,0,-1,741,750,-13.7354,-1.0856
-476,274,-13.4824,0.917297,0.0247831,-0.023145,0.00485483,0.02527,-0.0236318,0.0999413,0.0282387,0.046225,748,750,-13.4824,-0.91729
-469,274,-13.1533,0.76709,0.0304823,-0.0292295,0.00370492,0.0307113,-0.0294585,0.0617311,0.0347416,0.0470133,755,750,-13.1533,-0.767105
-462,274,-12.8024,0.626831,0.0355404,-0.0369509,0.00259914,0.0356334,-0.0370439,0.0357932,0.0419629,0.0466411,762,750,-12.8024,-0.626819
-455,274,-12.6736,0.687866,0.0382993,-0.047055,0.00218959,0.0383555,-0.0471112,0.0256304,0.0494304,0.0422519,769,750,-12.6736,-0.68785
-448,274,-12.8161,0.541016,0.0368249,-0.0589129,0.00298189,0.0369177,-0.0590057,0.0311062,0.0558687,0.0422905,776,750,-12.8161,-0.541035
-441,274,0,0,0,0,0,0,0,0,0,-1,783,750,0,0
-434,274,0,0,0,0,0,0,0,0,0,-1,790,750,0,0
-427,274,0,0,0,0,0,0,0,0,0,-1,797,750,0,0
-420,274,0,0,0,0,0,0,0,0,0,-1,804,750,0,0
-413,274,0,0,0,0,0,0,0,0,0,-1,811,750,0,0
-406,274,0,0,0,0,0,0,0,0,0,-1,818,750,0,0
-399,274,0,0,0,0,0,0,0,0,0,-1,825,750,0,0
-392,274,0,0,0,0,0,0,0,0,0,-1,832,750,0,0
-385,274,0,0,0,0,0,0,0,0,0,-1,839,750,0,0
-378,274,0,0,0,0,0,0,0,0,0,-1,846,750,0,0
-371,274,0,0,0,0,0,0,0,0,0,-1,853,750,0,0
-364,274,0,0,0,0,0,0,0,0,0,-1,860,750,0,0
-357,274,0,0,0,0,0,0,0,0,0,-1,867,750,0,0
-350,274,0,0,0,0,0,0,0,0,0,-1,874,750,0,0
-343,274,0,0,0,0,0,0,0,0,0,-1,881,750,0,0
-336,274,0,0,0,0,0,0,0,0,0,-1,888,750,0,0
-329,274,0,0,0,0,0,0,0,0,0,-1,895,750,0,0
-322,274,0,0,0,0,0,0,0,0,0,-1,902,750,0,0
-315,274,0,0,0,0,0,0,0,0,0,-1,909,750,0,0
-308,274,0,0,0,0,0,0,0,0,0,-1,916,750,0,0
-301,274,0,0,0,0,0,0,0,0,0,-1,923,750,0,0
-294,274,0,0,0,0,0,0,0,0,0,-1,930,750,0,0
-287,274,0,0,0,0,0,0,0,0,0,-1,937,750,0,0
-280,274,0,0,0,0,0,0,0,0,0,-1,944,750,0,0
-273,274,0,0,0,0,0,0,0,0,0,-1,951,750,0,0
-266,274,0,0,0,0,0,0,0,0,0,-1,958,750,0,0
-259,274,0,0,0,0,0,0,0,0,0,-1,965,750,0,0
-252,274,0,0,0,0,0,0,0,0,0,-1,972,750,0,0
-245,274,0,0,0,0,0,0,0,0,0,-1,979,750,0,0
-238,274,0,0,0,0,0,0,0,0,0,-1,986,750,0,0
-231,274,0,0,0,0,0,0,0,0,0,-1,993,750,0,0
-224,274,0,0,0,0,0,0,0,0,0,-1,1000,750,0,0
-217,274,0,0,0,0,0,0,0,0,0,-1,1007,750,0,0
-210,274,0,0,0,0,0,0,0,0,0,-1,1014,750,0,0
-203,274,0,0,0,0,0,0,0,0,0,-1,1021,750,0,0
-196,274,0,0,0,0,0,0,0,0,0,-1,1028,750,0,0
-189,274,0,0,0,0,0,0,0,0,0,-1,1035,750,0,0
-182,274,0,0,0,0,0,0,0,0,0,-1,1042,750,0,0
-175,274,0,0,0,0,0,0,0,0,0,-1,1049,750,0,0
-168,274,0,0,0,0,0,0,0,0,0,-1,1056,750,0,0
-161,274,0,0,0,0,0,0,0,0,0,-1,1063,750,0,0
-154,274,0,0,0,0,0,0,0,0,0,-1,1070,750,0,0
-147,274,0,0,0,0,0,0,0,0,0,-1,1077,750,0,0
-140,274,0,0,0,0,0,0,0,0,0,-1,1084,750,0,0
-133,274,0,0,0,0,0,0,0,0,0,-1,1091,750,0,0
-126,274,0,0,0,0,0,0,0,0,0,-1,1098,750,0,0
-119,274,0,0,0,0,0,0,0,0,0,-1,1105,750,0,0
-112,274,0,0,0,0,0,0,0,0,0,-1,1112,750,0,0
-105,274,0,0,0,0,0,0,0,0,0,-1,1119,750,0,0
-98,274,0,0,0,0,0,0,0,0,0,-1,1126,750,0,0
-91,274,0,0,0,0,0,0,0,0,0,-1,1133,750,0,0
-84,274,0,0,0,0,0,0,0,0,0,-1,1140,750,0,0
-77,274,0,0,0,0,0,0,0,0,0,-1,1147,750,0,0
-70,274,0,0,0,0,0,0,0,0,0,-1,1154,750,0,0
-63,274,0,0,0,0,0,0,0,0,0,-1,1161,750,0,0
-56,274,0,0,0,0,0,0,0,0,0,-1,1168,750,0,0
-49,274,0,0,0,0,0,0,0,0,0,-1,1175,750,0,0
-42,274,0,0,0,0,0,0,0,0,0,-1,1182,750,0,0
-35,274,0,0,0,0,0,0,0,0,0,-1,1189,750,0,0
-28,274,0,0,0,0,0,0,0,0,0,-1,1196,750,0,0
-21,274,0,0,0,0,0,0,0,0,0,-1,1203,750,0,0
-14,274,0,0,0,0,0,0,0,0,0,-1,1210,750,0,0
-7,274,0,0,0,0,0,0,0,0,0,-1,1217,750,0,0
0,274,0,0,0,0,0,0,0,0,0,-1,1224,750,0,0
7,274,0,0,0,0,0,0,0,0,0,-1,1231,750,0,0
14,274,0,0,0,0,0,0,0,0,0,-1,1238,750,0,0
21,274,0,0,0,0,0,0,0,0,0,-1,1245,750,0,0
28,274,0,0,0,0,0,0,0,0,0,-1,1252,750,0,0
35,274,0,0,0,0,0,0,0,0,0,-1,1259,750,0,0
42,274,0,0,0,0,0,0,0,0,0,-1,1266,750,0,0
49,274,0,0,0,0,0,0,0,0,0,-1,1273,750,0,0
56,274,0,0,0,0,0,0,0,0,0,-1,1280,750,0,0
63,274,0,0,0,0,0,0,0,0,0,-1,1287,750,0,0
70,274,0,0,0,0,0,0,0,0,0,-1,1294,750,0,0
77,274,0,0,0,0,0,0,0,0,0,-1,1301,750,0,0
84,274,0,0,0,0,0,0,0,0,0,-1,1308,750,0,0
91,274,0,0,0,0,0,0,0,0,0,-1,1315,750,0,0
98,274,0,0,0,0,0,0,0,0,0,-1,1322,750,0,0
105,274,0,0,0,0,0,0,0,0,0,-1,1329,750,0,0
112,274,0,0,0,0,0,0,0,0,0,-1,1336,750,0,0
119,274,0,0,0,0,0,0,0,0,0,-1,1343,750,0,0
126,274,0,0,0,0,0,0,0,0,0,-1,1350,750,0,0
133,274,0,0,0,0,0,0,0,0,0,-1,1357,750,0,0
140,274,0,0,0,0,0,0,0,0,0,-1,1364,750,0,0
147,274,0,0,0,0,0,0,0,0,0,-1,1371,750,0,0
154,274,0,0,0,0,0,0,0,0,0,-1,1378,750,0,0
161,274,0,0,0,0,0,0,0,0,0,-1,1385,750,0,0
168,274,0,0,0,0,0,0,0,0,0,-1,1392,750,0,0
175,274,0,0,0,0,0,0,0,0,0,-1,1399,750,0,0
182,274,0,0,0,0,0,0,0,0,0,-1,1406,750,0,0
189,274,0,0,0,0,0,0,0,0,0,-1,1413,750,0,0
196,274,0,0,0,0,0,0,0,0,0,-1,1420,750,0,0
203,274,0,0,0,0,0,0,0,0,0,-1,1427,750,0,0
210,274,0,0,0,0,0,0,0,0,0,-1,1434,750,0,0
217,274,0,0,0,0,0,0,0,0,0,-1,1441,750,0,0
224,274,0,0,0,0,0,0,0,0,0,-1,1448,750,0,0
231,274,0,0,0,0,0,0,0,0,0,-1,1455,750,0,0
238,274,0,0,0,0,0,0,0,0,0,-1,1462,750,0,0
245,274,0,0,0,0,0,0,0,0,0,-1,1469,750,0,0
252,274,0,0,0,0,0,0,0,0,0,-1,1476,750,0,0
259,274,0,0,0,0,0,0,0,0,0,-1,1483,750,0,0
266,274,0,0,0,0,0,0,0,0,0,-1,1490,750,0,0
273,274,0,0,0,0,0,0,0,0,0,-1,1497,750,0,0
280,274,0,0,0,0,0,0,0,0,0,-1,1504,750,0,0
287,274,0,0,0,0,0,0,0,0,0,-1,1511,750,0,0
294,274,0,0,0,0,0,0,0,0,0,-1,1518,750,0,0
301,274,0,0,0,0,0,0,0,0,0,-1,1525,750,0,0
308,274,0,0,0,0,0,0,0,0,0,-1,1532,750,0,0
315,274,0,0,0,0,0,0,0,0,0,-1,1539,750,0,0
322,274,0,0,0,0,0,0,0,0,0,-1,1546,750,0,0
329,274,0,0,0,0,0,0,0,0,0,-1,1553,750,0,0
336,274,0,0,0,0,0,0,0,0,0,-1,1560,750,0,0
343,274,0,0,0,0,0,0,0,0,0,-1,1567,750,0,0
350,274,0,0,0,0,0,0,0,0,0,-1,1574,750,0,0
357,274,0,0,0,0,0,0,0,0,0,-1,1581,750,0,0
364,274,0,0,0,0,0,0,0,0,0,-1,1588,750,0,0
371,274,0,0,0,0,0,0,0,0,0,-1,1595,750,0,0
378,274,0,0,0,0,0,0,0,0,0,-1,1602,750,0,0
385,274,0,0,0,0,0,0,0,0,0,-1,1609,750,0,0
392,274,0,0,0,0,0,0,0,0,0,-1,1616,750,0,0
399,274,0,0,0,0,0,0,0,0,0,-1,1623,750,0,0
406,274,0,0,0,0,0,0,0,0,0,-1,1630,750,0,0
413,274,0,0,0,0,0,0,0,0,0,-1,1637,750,0,0
420,274,0,0,0,0,0,0,0,0,0,-1,1644,750,0,0
427,274,0,0,0,0,0,0,0,0,0,-1,1651,750,0,0
434,274,0,0,0,0,0,0,0,0,0,-1,1658,750,0,0
441,274,0,0,0,0,0,0,0,0,0,-1,1665,750,0,0
448,274,0,0,0,0,0,0,0,0,0,-1,1672,750,0,0
455,274,0,0,0,0,0,0,0,0,0,-1,1679,750,0,0
462,274,0,0,0,0,0,0,0,0,0,-1,1686,750,0,0
469,274,0,0,0,0,0,0,0,0,0,-1,1693,750,0,0
476,274,0,0,0,0,0,0,0,0,0,-1,1700,750,0,0
483,274,0,0,0,0,0,0,0,0,0,-1,1707,750,0,0
490,274,0,0,0,0,0,0,0,0,0,-1,1714,750,0,0
497,274,0,0,0,0,0,0,0,0,0,-1,1721,750,0,0
504,274,0,0,0,0,0,0,0,0,0,-1,1728,750,0,0
511,274,0,0,0,0,0,0,0,0,0,-1,1735,750,0,0
518,274,0,0,0,0,0,0,0,0,0,-1,1742,750,0,0
525,274,0,0,0,0,0,0,0,0,0,-1,1749,750,0,0
532,274,0,0,0,0,0,0,0,0,0,-1,1756,750,0,0
539,274,0,0,0,0,0,0,0,0,0,-1,1763,750,0,0
546,274,0,0,0,0,0,0,0,0,0,-1,1770,750,0,0
553,274,0,0,0,0,0,0,0,0,0,-1,1777,750,0,0
560,274,18.1653,2.77075,0,0,0,0,0,0,0,-1,1784,750,18.1653,-2.77076
567,274,19.0901,2.98358,0,0,0,0,0,0,0,-1,1791,750,19.0901,-2.9836
574,274,18.9899,3.10175,-0.0013013,0.0235089,-0.00473549,0.0243821,-0.00217443,-1.38846,0.0170259,0.0474127,1798,750,18.9898,-3.10176
581,274,18.8973,3.14569,0.00640992,0.0153204,-0.00249997,0.0159739,0.00575644,-1.31512,0.00934165,0.0447072,1805,750,18.8973,-3.1457
588,274,18.8004,3.16699,0,0,0,0,0,0,0,-1,1812,750,18.8004,-3.16701
595,274,18.8724,2.25995,0,0,0,0,0,0,0,-1,1819,750,18.8725,-2.25998
602,274,17.7764,2.53741,0,0,0,0,0,0,0,-1,1826,750,17.7763,-2.53744
609,274,20.6542,1.79535,0,0,0,0,0,0,0,-1,1833,750,20.6542,-1.79537
616,274,20.5865,1.83514,0,0,0,0,0,0,0,-1,1840,750,20.5865,-1.83516
623,274,12.9099,0.338745,0,0,0,0,0,0,0,-1,1847,750,12.9099,-0.338772
630,274,12.9069,0.517578,0.00326864,-0.00716098,-0.00237076,0.00378225,-0.00767459,-0.213345,0.00674065,0.0408449,1854,750,12.9068,-0.51755
637,274,12.8751,0.721741,0.00148348,-0.00684966,-0.00237495,0.00211282,-0.007479,-0.259035,0.00581955,0.0130886,1861,750,12.8752,-0.721767
644,274,12.8813,0.966064,-0.000405307,-0.00563667,-0.00206747,0.00031311,-0.00635509,-0.334434,0.00434486,0.011048,1868,750,12.8814,-0.96607
651,274,12.8876,1.19043,-0.00155539,-0.00423635,-0.00176177,-0.000682115,-0.00510963,-0.460187,0.00320335,0.012315,1875,750,12.8875,-1.19041
658,274,12.8859,1.39447,-0.00185173,-0.0027464,-0.00158498,-0.000652169,-0.00394596,-0.647859,0.00244245,0.0163792,1882,750,12.8859,-1.39446
665,274,12.8651,1.62903,-0.00128056,-0.00142086,-0.00158217,0.000233021,-0.00293443,-0.763244,0.00203841,0.0159002,1889,750,12.8651,-1.62905
672,274,12.8699,1.84814,0.000190533,-0.000521327,-0.0016614,0.0015337,-0.0018645,-0.679876,0.00196505,0.0129749,1896,750,12.8698,-1.84812
679,274,12.8699,2.06238,0.00264379,0.000754273,-0.00186229,0.00378726,-0.000389194,-0.550659,0.00266406,0.0140055,1903,750,12.8698,-2.06241
686,274,12.8755,2.26172,0.00519554,0.00207089,-0.00236608,0.00646857,0.000797865,-0.493607,0.00407256,0.014006,1910,750,12.8755,-2.26174
693,274,12.8815,2.48706,0.00848972,0.00352788,-0.00310242,0.0099812,0.0020364,-0.448128,0.0060899,0.0112846,1917,750,12.8815,-2.48707
700,274,12.8865,2.72095,0.0129105,0.00552422,-0.0041034,0.014738,0.00369675,-0.418985,0.00885416,0.0130897,1924,750,12.8865,-2.72094
707,274,12.8677,2.91919,0.0189456,0.00816232,-0.00514938,0.0210095,0.00609836,-0.381211,0.0124805,0.0197075,1931,750,12.8676,-2.91919
714,274,13.0033,2.96094,0.0270893,0.0116764,-0.00605799,0.0291853,0.00958033,-0.333102,0.0171783,0.0380305,1938,750,13.0033,-2.96097
721,274,13.4904,2.75427,0.037533,0.0163775,-0.0070474,0.0396657,0.0142448,-0.293856,0.023202,0.0459293,1945,750,13.4903,-2.75428
728,274,14.3164,2.54193,0.0510156,0.0226671,-0.00737797,0.0528208,0.0208619,-0.239964,0.0307196,0.0455601,1952,750,14.3165,-2.54191
735,274,14.9237,2.3988,0,0,0,0,0,0,0,-1,1959,750,14.9236,-2.39878
742,274,11.7815,-0.740234,0,0,0,0,0,0,0,-1,1966,750,11.7815,0.740253
749,274,0,0,0,0,0,0,0,0,0,-1,1973,750,0,0
756,274,0,0,0,0,0,0,0,0,0,-1,1980,750,0,0
763,274,0,0,0,0,0,0,0,0,0,-1,1987,750,0,0
770,274,0,0,0,0,0,0,0,0,0,-1,1994,750,0,0
777,274,0,0,0,0,0,0,0,0,0,-1,2001,750,0,0
784,274,0,0,0,0,0,0,0,0,0,-1,2008,750,0,0
791,274,0,0,0,0,0,0,0,0,0,-1,2015,750,0,0
798,274,0,0,0,0,0,0,0,0,0,-1,2022,750,0,0
805,274,0,0,0,0,0,0,0,0,0,-1,2029,750,0,0
812,274,0,0,0,0,0,0,0,0,0,-1,2036,750,0,0
-700,267,0,0,0,0,0,0,0,0,0,-1,524,757,0,0
-693,267,0,0,0,0,0,0,0,0,0,-1,531,757,0,0
-686,267,0,0,0,0,0,0,0,0,0,-1,538,757,0,0
-679,267,0,0,0,0,0,0,0,0,0,-1,545,757,0,0
-672,267,0,0,0,0,0,0,0,0,0,-1,552,757,0,0
-665,267,0,0,0,0,0,0,0,0,0,-1,559,757,0,0
-658,267,0,0,0,0,0,0,0,0,0,-1,566,757,0,0
-651,267,0,0,0,0,0,0,0,0,0,-1,573,757,0,0
-644,267,0,0,0,0,0,0,0,0,0,-1,580,757,0,0
-637,267,0,0,0,0,0,0,0,0,0,-1,587,757,0,0
-630,267,-11.499,-0.0250244,0,0,0,0,0,0,0,-1,594,757,-11.499,0.025046
-623,267,-11.5312,-0.47583,-0.0106789,-0.0493718,-0.066502,0.0392336,-0.0992843,-0.643847,0.0824404,0.0419122,601,757,-11.5312,0.47585
-616,267,-11.573,-0.928528,-0.0105911,-0.0412857,-0.0536883,0.0299004,-0.0817772,-0.646182,0.0667556,0.0430739,608,757,-11.573,0.928533
-609,267,-11.8881,-1.05811,-0.0105975,-0.0340268,-0.0416013,0.0209071,-0.0655314,-0.648155,0.0520749,0.0413848,615,757,-11.8881,1.05809
-602,267,-7.30505,0.357422,0,0,0,0,0,0,0,-1,622,757,-7.30508,-0.357441
-595,267,-7.40106,0.520752,-0.00858187,-0.0215039,-0.0216398,0.0075409,-0.0376267,-0.640326,0.0279394,0.0490466,629,757,-7.40107,-0.520777
-588,267,-7.4989,0.696472,-0.00772217,-0.0160574,-0.014192,0.00290149,-0.026681,-0.642584,0.0188292,0.043459,636,757,-7.49888,-0.696495
-581,267,-7.5451,0.861267,-0.00711697,-0.0110554,-0.00825361,-0.000600922,-0.0175715,-0.668293,0.0115192,0.0272744,643,757,-7.54513,-0.861242
-574,267,-7.54376,0.651001,-0.0059815,-0.00734499,-0.00412011,-0.00248711,-0.0108394,-0.703407,0.00655639,0.0143538,650,757,-7.54377,-0.651029
-567,267,-7.58179,0.491638,-0.00495966,-0.00430855,-0.00042943,-0.00409522,-0.00517299,-1.10973,0.00315144,0.0204593,657,757,-7.58178,-0.491637
-560,267,-7.56091,0.292297,-0.00430125,-0.00236751,0.00211905,-0.00100517,-0.00566359,0.999429,0.00348927,0.0199731,664,757,-7.5609,-0.292297
-553,267,-7.55591,0.105713,-0.00406671,-0.00163721,0.00322133,0.000590803,-0.00629472,0.965701,0.00440664,0.0173665,671,757,-7.55589,-0.105727
-546,267,-7.56097,-0.111938,-0.00461493,-0.00125498,0.00341632,0.000872085,-0.00674199,1.01391,0.00481177,0.0108949,678,757,-7.56095,0.111947
-539,267,-7.57654,-0.316956,-0.0047789,-0.00158202,0.0041095,0.00122897,-0.00758988,0.970876,0.00551541,0.00957332,685,757,-7.57655,0.31694
-532,267,-7.57184,-0.513977,-0.00515076,-0.00201668,0.00512413,0.00177468,-0.00894211,0.93379,0.00663258,0.00981063,692,757,-7.57184,0.513987
-525,267,-7.57391,-0.715759,-0.00463291,-0.00360253,0.00643942,0.00234227,-0.0105777,0.825316,0.00794845,0.00958674,699,757,-7.57392,0.715736
-518,267,-7.58472,-0.937866,-0.002975,-0.00462295,0.00719599,0.00344404,-0.011042,0.728394,0.00873857,0.00998206,706,757,-7.58472,0.937892
-511,267,-7.57483,-1.15558,0.000113656,-0.00580557,0.0076095,0.00531883,-0.0110107,0.599932,0.0096169,0.013833,713,757,-7.57482,1.15557
-504,267,-7.60809,-1.17468,0,0,0,0,0,0,0,-1,720,757,-7.6081,1.17469
-497,267,-7.42102,-1.06042,0,0,0,0,0,0,0,-1,727,757,-7.42099,1.06041
-490,267,-7.23389,-0.946106,0,0,0,0,0,0,0,-1,734,757,-7.23388,0.946128
-483,267,-6.30939,-0.0735474,0,0,0,0,0,0,0,-1,741,757,-6.30942,0.0735306
-476,267,-13.2676,0.903015,0.022506,-0.0220378,0.0060084,0.0233022,-0.022834,0.131751,0.0266372,0.0447913,748,757,-13.2676,-0.903044
-469,267,-12.923,0.782654,0.0281938,-0.0274115,0.00454589,0.028563,-0.0277807,0.0810357,0.0325311,0.0456728,755,757,-12.923,-0.782636
-462,267,-12.5407,0.758057,0.0331206,-0.0341618,0.00291526,0.0332467,-0.0342878,0.0432207,0.0389926,0.0472719,762,757,-12.5407,-0.758041
-455,267,-12.4048,1.29211,0.0352517,-0.0429157,0.00172373,0.0352897,-0.0429537,0.0220375,0.045246,0.047824,769,757,-12.4048,-1.29214
-448,267,-12.3387,1.45953,0,0,0,0,0,0,0,-1,776,757,-12.3387,-1.45953
-441,267,0,0,0,0,0,0,0,0,0,-1,783,757,0,0
-434,267,0,0,0,0,0,0,0,0,0,-1,790,757,0,0
-427,267,0,0,0,0,0,0,0,0,0,-1,797,757,0,0
-420,267,0,0,0,0,0,0,0,0,0,-1,804,757,0,0
-413,267,0,0,0,0,0,0,0,0,0,-1,811,757,0,0
-406,267,0,0,0,0,0,0,0,0,0,-1,818,757,0,0
-399,267,0,0,0,0,0,0,0,0,0,-1,825,757,0,0
-392,267,0,0,0,0,0,0,0,0,0,-1,832,757,0,0
-385,267,0,0,0,0,0,0,0,0,0,-1,839,757,0,0
-378,267,0,0,0,0,0,0,0,0,0,-1,846,757,0,0
-371,267,0,0,0,0,0,0,0,0,0,-1,853,757,0,0
-364,267,0,0,0,0,0,0,0,0,0,-1,860,757,0,0
-357,267,0,0,0,0,0,0,0,0,0,-1,867,757,0,0
-350,267,0,0,0,0,0,0,0,0,0,-1,874,757,0,0
-343,267,0,0,0,0,0,0,0,0,0,-1,881,757,0,0
-336,267,0,0,0,0,0,0,0,0,0,-1,888,757,0,0
-329,267,0,0,0,0,0,0,0,0,0,-1,895,757,0,0
-322,267,0,0,0,0,0,0,0,0,0,-1,902,757,0,0
-315,267,0,0,0,0,0,0,0,0,0,-1,909,757,0,0
-308,267,0,0,0,0,0,0,0,0,0,-1,916,757,0,0
-301,267,0,0,0,0,0,0,0,0,0,-1,923,757,0,0
-294,267,0,0,0,0,0,0,0,0,0,-1,930,757,0,0
-287,267,0,0,0,0,0,0,0,0,0,-1,937,757,0,0
-280,267,0,0,0,0,0,0,0,0,0,-1,944,757,0,0
-273,267,0,0,0,0,0,0,0,0,0,-1,951,757,0,0
-266,267,0,0,0,0,0,0,0,0,0,-1,958,757,0,0
-259,267,0,0,0,0,0,0,0,0,0,-1,965,757,0,0
-252,267,0,0,0,0,0,0,0,0,0,-1,972,757,0,0
-245,267,0,0,0,0,0,0,0,0,0,-1,979,757,0,0
-238,267,0,0,0,0,0,0,0,0,0,-1,986,757,0,0
-231,267,0,0,0,0,0,0,0,0,0,-1,993,757,0,0
-224,267,0,0,0,0,0,0,0,0,0,-1,1000,757,0,0
-217,267,0,0,0,0,0,0,0,0,0,-1,1007,757,0,0
-210,267,0,0,0,0,0,0,0,0,0,-1,1014,757,0,0
-203,267,0,0,0,0,0,0,0,0,0,-1,1021,757,0,0
-196,267,0,0,0,0,0,0,0,0,0,-1,1028,757,0,0
-189,267,0,0,0,0,0,0,0,0,0,-1,1035,757,0,0
-182,267,0,0,0,0,0,0,0,0,0,-1,1042,757,0,0
-175,267,0,0,0,0,0,0,0,0,0,-1,1049,757,0,0
-168,267,0,0,0,0,0,0,0,0,0,-1,1056,757,0,0
-161,267,0,0,0,0,0,0,0,0,0,-1,1063,757,0,0
-154,267,0,0,0,0,0,0,0,0,0,-1,1070,757,0,0
-147,267,0,0,0,0,0,0,0,0,0,-1,1077,757,0,0
-140,267,0,0,0,0,0,0,0,0,0,-1,1084,757,0,0
-133,267,0,0,0,0,0,0,0,0,0,-1,1091,757,0,0
-126,267,0,0,0,0,0,0,0,0,0,-1,1098,757,0,0
-119,267,0,0,0,0,0,0,0,0,0,-1,1105,757,0,0
-112,267,0,0,0,0,0,0,0,0,0,-1,1112,757,0,0
-105,267,0,0,0,0,0,0,0,0,0,-1,1119,757,0,0
-98,267,0,0,0,0,0,0,0,0,0,-1,1126,757,0,0
-91,267,0,0,0,0,0,0,0,0,0,-1,1133,757,0,0
-84,267,0,0,0,0,0,0,0,0,0,-1,1140,757,0,0
-77,267,0,0,0,0,0,0,0,0,0,-1,1147,757,0,0
-70,267,0,0,0,0,0,0,0,0,0,-1,1154,757,0,0
-63,267,0,0,0,0,0,0,0,0,0,-1,1161,757,0,0
-56,267,0,0,0,0,0,0,0,0,0,-1,1168,757,0,0
-49,267,0,0,0,0,0,0,0,0,0,-1,1175,757,0,0
-42,267,0,0,0,0,0,0,0,0,0,-1,1182,757,0,0
-35,267,0,0,0,0,0,0,0,0,0,-1,1189,757,0,0
-28,267,0,0,0,0,0,0,0,0,0,-1,1196,757,0,0
-21,267,0,0,0,0,0,0,0,0,0,-1,1203,757,0,0
-14,267,0,0,0,0,0,0,0,0,0,-1,1210,757,0,0
-7,267,0,0,0,0,0,0,0,0,0,-1,1217,757,0,0
0,267,0,0,0,0,0,0,0,0,0,-1,1224,757,0,0
7,267,0,0,0,0,0,0,0,0,0,-1,1231,757,0,0
14,267,0,0,0,0,0,0,0,0,0,-1,1238,757,0,0
21,267,0,0,0,0,0,0,0,0,0,-1,1245,757,0,0
28,267,0,0,0,0,0,0,0,0,0,-1,1252,757,0,0
35,267,0,0,0,0,0,0,0,0,0,-1,1259,757,0,0
42,267,0,0,0,0,0,0,0,0,0,-1,1266,757,0,0
49,267,0,0,0,0,0,0,0,0,0,-1,1273,757,0,0
56,267,0,0,0,0,0,0,0,0,0,-1,1280,757,0,0
63,267,0,0,0,0,0,0,0,0,0,-1,1287,757,0,0
70,267,0,0,0,0,0,0,0,0,0,-1,1294,757,0,0
77,267,0,0,0,0,0,0,0,0,0,-1,1301,757,0,0
84,267,0,0,0,0,0,0,0,0,0,-1,1308,757,0,0
91,267,0,0,0,0,0,0,0,0,0,-1,1315,757,0,0
98,267,0,0,0,0,0,0,0,0,0,-1,1322,757,0,0
105,267,0,0,0,0,0,0,0,0,0,-1,1329,757,0,0
112,267,0,0,0,0,0,0,0,0,0,-1,1336,757,0,0
119,267,0,0,0,0,0,0,0,0,0,-1,1343,757,0,0
126,267,0,0,0,0,0,0,0,0,0,-1,1350,757,0,0
133,267,0,0,0,0,0,0,0,0,0,-1,1357,757,0,0
140,267,0,0,0,0,0,0,0,0,0,-1,1364,757,0,0
147,267,0,0,0,0,0,0,0,0,0,-1,1371,757,0,0
154,267,0,0,0,0,0,0,0,0,0,-1,1378,757,0,0
161,267,0,0,0,0,0,0,0,0,0,-1,1385,757,0,0
168,267,0,0,0,0,0,0,0,0,0,-1,1392,757,0,0
175,267,0,0,0,0,0,0,0,0,0,-1,1399,757,0,0
182,267,0,0,0,0,0,0,0,0,0,-1,1406,757,0,0
189,267,0,0,0,0,0,0,0,0,0,-1,1413,757,0,0
196,267,0,0,0,0,0,0,0,0,0,-1,1420,757,0,0
203,267,0,0,0,0,0,0,0,0,0,-1,1427,757,0,0
210,267,0,0,0,0,0,0,0,0,0,-1,1434,757,0,0
217,267,0,0,0,0,0,0,0,0,0,-1,1441,757,0,0
224,267,0,0,0,0,0,0,0,0,0,-1,1448,757,0,0
231,267,0,0,0,0,0,0,0,0,0,-1,1455,757,0,0
238,267,0,0,0,0,0,0,0,0,0,-1,1462,757,0,0
245,267,0,0,0,0,0,0,0,0,0,-1,1469,757,0,0
252,267,0,0,0,0,0,0,0,0,0,-1,1476,757,0,0
259,267,0,0,0,0,0,0,0,0,0,-1,1483,757,0,0
266,267,0,0,0,0,0,0,0,0,0,-1,1490,757,0,0
273,267,0,0,0,0,0,0,0,0,0,-1,1497,757,0,0
280,267,0,0,0,0,0,0,0,0,0,-1,1504,757,0,0
287,267,0,0,0,0,0,0,0,0,0,-1,1511,757,0,0
294,267,0,0,0,0,0,0,0,0,0,-1,1518,757,0,0
301,267,0,0,0,0,0,0,0,0,0,-1,1525,757,0,0
308,267,0,0,0,0,0,0,0,0,0,-1,1532,757,0,0
315,267,0,0,0,0,0,0,0,0,0,-1,1539,757,0,0
322,267,0,0,0,0,0,0,0,0,0,-1,1546,757,0,0
329,267,0,0,0,0,0,0,0,0,0,-1,1553,757,0,0
336,267,0,0,0,0,0,0,0,0,0,-1,1560,757,0,0
343,267,0,0,0,0,0,0,0,0,0,-1,1567,757,0,0
350,267,0,0,0,0,0,0,0,0,0,-1,1574,757,0,0
357,267,0,0,0,0,0,0,0,0,0,-1,1581,757,0,0
364,267,0,0,0,0,0,0,0,0,0,-1,1588,757,0,0
371,267,0,0,0,0,0,0,0,0,0,-1,1595,757,0,0
378,267,0,0,0,0,0,0,0,0,0,-1,1602,757,0,0
385,267,0,0,0,0,0,0,0,0,0,-1,1609,757,0,0
392,267,0,0,0,0,0,0,0,0,0,-1,1616,757,0,0
399,267,0,0,0,0,0,0,0,0,0,-1,1623,757,0,0
406,267,0,0,0,0,0,0,0,0,0,-1,1630,757,0,0
413,267,0,0,0,0,0,0,0,0,0,-1,1637,757,0,0
420,267,0,0,0,0,0,0,0,0,0,-1,1644,757,0,0
427,267,0,0,0,0,0,0,0,0,0,-1,1651,757,0,0
434,267,0,0,0,0,0,0,0,0,0,-1,1658,757,0,0
441,267,0,0,0,0,0,0,0,0,0,-1,1665,757,0,0
448,267,0,0,0,0,0,0,0,0,0,-1,1672,757,0,0
455,267,0,0,0,0,0,0,0,0,0,-1,1679,757,0,0
462,267,0,0,0,0,0,0,0,0,0,-1,1686,757,0,0
469,267,0,0,0,0,0,0,0,0,0,-1,1693,757,0,0
476,267,0,0,0,0,0,0,0,0,0,-1,1700,757,0,0
483,267,0,0,0,0,0,0,0,0,0,-1,1707,757,0,0
490,267,0,0,0,0,0,0,0,0,0,-1,1714,757,0,0
497,267,0,0,0,0,0,0,0,0,0,-1,1721,757,0,0
504,267,0,0,0,0,0,0,0,0,0,-1,1728,757,0,0
511,267,0,0,0,0,0,0,0,0,0,-1,1735,757,0,0
518,267,0,0,0,0,0,0,0,0,0,-1,1742,757,0,0
525,267,0,0,0,0,0,0,0,0,0,-1,1749,757,0,0
532,267,0,0,0,0,0,0,0,0,0,-1,1756,757,0,0
539,267,0,0,0,0,0,0,0,0,0,-1,1763,757,0,0
546,267,0,0,0,0,0,0,0,0,0,-1,1770,757,0,0
553,267,0,0,0,0,0,0,0,0,0,-1,1777,757,0,0
560,267,0,0,0,0,0,0,0,0,0,-1,1784,757,0,0
567,267,19,2.79523,0,0,0,0,0,0,0,-1,1791,757,19,-2.7952
574,267,19.0004,2.92175,0.00356986,0.0167067,-0.00592093,0.0189814,0.00129512,-1.204,0.0122454,0.0411857,1798,757,19.0003,-2.92175
581,267,18.9001,2.88055,0.00977229,0.00935522,-0.00367557,0.0132452,0.00588228,-0.757061,0.00766305,0.0418373,1805,757,18.9002,-2.88053
588,267,18.9344,2.67432,0,0,0,0,0,0,0,-1,1812,757,18.9344,-2.67434
595,267,19.0155,2.27081,0,0,0,0,0,0,0,-1,1819,757,19.0156,-2.27081
602,267,19.3619,2.02539,0,0,0,0,0,0,0,-1,1826,757,19.3619,-2.02541
609,267,20.1744,1.66663,0.00981576,-0.00664352,-0.00244785,0.0101721,-0.00699986,-0.144555,0.00997046,0.041991,1833,757,20.1745,-1.6666
616,267,20.0764,1.71625,0,0,0,0,0,0,0,-1,1840,757,20.0764,-1.71623
623,267,13.1516,0.681213,0,0,0,0,0,0,0,-1,1847,757,13.1516,-0.681242
630,267,13.139,0.756531,0.00255367,-0.00741489,-0.00310415,0.00344126,-0.00830247,-0.278504,0.00697119,0.0410287,1854,757,13.139,-0.756515
637,267,13.1576,0.768188,0.000567016,-0.00697161,-0.00328721,0.00179905,-0.00820365,-0.358592,0.00615703,0.0248252,1861,757,13.1576,-0.768192
644,267,13.1145,0.974854,-0.00151514,-0.00578254,-0.00312887,0.000138311,-0.00743599,-0.486148,0.00500407,0.0118761,1868,757,13.1145,-0.974877
651,267,13.0947,1.22656,-0.00283633,-0.00441974,-0.00288626,-0.000635161,-0.00662091,-0.651539,0.00421819,0.0141873,1875,757,13.0947,-1.22659
658,267,13.1019,1.41132,-0.00318621,-0.00290697,-0.00266759,-0.00037535,-0.00571783,-0.811544,0.00369313,0.0157937,1882,757,13.1019,-1.41132
665,267,13.1033,1.6264,-0.00259766,-0.00159502,-0.00252559,0.000478521,-0.0046712,-0.883374,0.00328528,0.0154778,1889,757,13.1033,-1.62641
672,267,13.1053,1.85077,-0.000962025,-0.000782223,-0.00233193,0.00146154,-0.00320579,-0.804665,0.0027567,0.0128245,1896,757,13.1053,-1.85078
679,267,13.0859,2.07922,0.00154884,0.00026776,-0.00229366,0.00328972,-0.00147312,-0.649235,0.00281571,0.012591,1903,757,13.0859,-2.07925
686,267,13.0945,2.30676,0.00414471,0.00138229,-0.00257571,0.00568618,-0.000159174,-0.539288,0.00384494,0.0127508,1910,757,13.0945,-2.30675
693,267,13.0962,2.48816,0.00724856,0.00245345,-0.00319666,0.00884687,0.000855144,-0.463642,0.00563454,0.0124387,1917,757,13.0962,-2.48815
700,267,13.1001,2.69257,0.011301,0.00398111,-0.00411085,0.0131451,0.00213704,-0.421678,0.00814506,0.0137387,1924,757,13.1001,-2.69257
707,267,13.1096,2.87701,0.0166693,0.00602616,-0.00517893,0.0187734,0.00392207,-0.385908,0.0114347,0.0133499,1931,757,13.1096,-2.87698
714,267,13.1713,2.93451,0.0239309,0.00872015,-0.00599833,0.0260117,0.00663936,-0.333905,0.0156061,0.027339,1938,757,13.1712,-2.93449
721,267,13.3428,2.36829,0.0331664,0.012356,-0.00688921,0.0352404,0.0102821,-0.292415,0.0209259,0.0439981,1945,757,13.3428,-2.36826
728,267,13.9644,1.89551,0.045188,0.0173652,-0.00700136,0.0468505,0.0157027,-0.233135,0.0275347,0.0477298,1952,757,13.9644,-1.89548
735,267,14.5443,1.63483,0,0,0,0,0,0,0,-1,1959,757,14.5443,-1.63484
742,267,15.7451,3.65533,0,0,0,0,0,0,0,-1,1966,757,15.7451,-3.65533
749,267,0,0,0,0,0,0,0,0,0,-1,1973,757,0,0
756,267,0,0,0,0,0,0,0,0,0,-1,1980,757,0,0
763,267,0,0,0,0,0,0,0,0,0,-1,1987,757,0,0
770,267,0,0,0,0,0,0,0,0,0,-1,1994,757,0,0
777,267,0,0,0,0,0,0,0,0,0,-1,2001,757,0,0
784,267,0,0,0,0,0,0,0,0,0,-1,2008,757,0,0
791,267,0,0,0,0,0,0,0,0,0,-1,2015,757,0,0
798,267,0,0,0,0,0,0,0,0,0,-1,2022,757,0,0
805,267,0,0,0,0,0,0,0,0,0,-1,2029,757,0,0
812,267,0,0,0,0,0,0,0,0,0,-1,2036,757,0,0
-700,260,0,0,0,0,0,0,0,0,0,-1,524,764,0,0
-693,260,0,0,0,0,0,0,0,0,0,-1,531,764,0,0
-686,260,0,0,0,0,0,0,0,0,0,-1,538,764,0,0
-679,260,0,0,0,0,0,0,0,0,0,-1,545,764,0,0
-672,260,0,0,0,0,0,0,0,0,0,-1,552,764,0,0
-665,260,0,0,0,0,0,0,0,0,0,-1,559,764,0,0
-658,260,0,0,0,0,0,0,0,0,0,-1,566,764,0,0
-651,260,0,0,0,0,0,0,0,0,0,-1,573,764,0,0
-644,260,0,0,0,0,0,0,0,0,0,-1,580,764,0,0
-637,260,0,0,0,0,0,0,0,0,0,-1,587,764,0,0
-630,260,-10.7792,0.214417,0,0,0,0,0,0,0,-1,594,764,-10.7792,-0.214411
-623,260,-10.8687,-0.0858765,-0.00450054,-0.052081,-0.0562572,0.0327899,-0.0893714,-0.58536,0.0730081,0.0404843,601,764,-10.8687,0.0859041
-616,260,-10.811,-0.546997,-0.00535091,-0.0429962,-0.04571,0.0252602,-0.0736073,-0.590087,0.0593125,0.0430334,608,764,-10.811,0.546977
-609,260,-10.8479,-0.810791,-0.00560268,-0.0348155,-0.0355017,0.0181799,-0.0585981,-0.590238,0.04633,0.0422193,615,764,-10.8479,0.810776
-602,260,-7.70343,0.413696,0,0,0,0,0,0,0,-1,622,764,-7.70344,-0.413711
-595,260,-7.60455,0.485168,-0.00465447,-0.0212635,-0.0184403,0.007265,-0.033183,-0.573827,0.0248995,0.0475825,629,764,-7.60457,-0.485187
-588,260,-7.64435,0.680542,-0.00434413,-0.0157327,-0.0121342,0.00336546,-0.0234423,-0.566014,0.0168624,0.0400493,636,764,-7.64432,-0.68053
-581,260,-7.7301,0.824951,0,0,0,0,0,0,0,-1,643,764,-7.73011,-0.824955
-574,260,-7.77136,0.655884,-0.00351678,-0.00713253,-0.00349589,-0.00138896,-0.00926034,-0.546764,0.0057666,0.0154664,650,764,-7.77135,-0.655856
-567,260,-7.77789,0.468384,-0.00297608,-0.00430896,-0.00022799,-0.00293816,-0.00434688,-0.16481,0.00256093,0.01582,657,764,-7.77787,-0.468367
-560,260,-7.75055,0.262939,-0.00279012,-0.00250335,0.00218422,-0.000457815,-0.00483566,0.818174,0.00308252,0.0171242,664,764,-7.75055,-0.262948
-553,260,-7.7392,0.0880127,-0.00307888,-0.00184746,0.003364,0.00095671,-0.00588305,0.875912,0.00427676,0.016778,671,764,-7.73921,-0.0880392
-546,260,-7.76154,-0.09552,-0.00431745,-0.00150827,0.00387714,0.00121086,-0.00703658,0.959182,0.00514241,0.0111683,678,764,-7.76156,0.095528
-539,260,-7.77069,-0.304565,-0.00507678,-0.00195759,0.0049024,0.00162731,-0.00866169,0.9394,0.00638638,0.0108528,685,764,-7.77071,0.304543
-532,260,-7.77417,-0.504456,-0.00609607,-0.00244479,0.0061899,0.00218309,-0.0107239,0.928801,0.00797719,0.0129589,692,764,-7.77415,0.504482
-525,260,-7.77362,-0.71991,-0.00600592,-0.00401836,0.00765528,0.00270738,-0.0127317,0.849945,0.00951944,0.0124528,699,764,-7.77361,0.719926
-518,260,-7.76666,-0.908447,-0.00472816,-0.00493531,0.00848223,0.00365113,-0.0133146,0.779293,0.0103112,0.0124634,706,764,-7.76666,0.908418
-511,260,-7.76227,-1.11462,-0.00214744,-0.00599087,0.00895922,0.00509385,-0.0132322,0.679751,0.0109228,0.020128,713,764,-7.76229,1.11463
-504,260,-8.47766,-0.768677,0,0,0,0,0,0,0,-1,720,764,-8.47768,0.768677
-497,260,-8.2345,-0.522034,0.00391632,-0.00996405,0.00944227,0.00869461,-0.0147423,0.468478,0.0136807,0.0489177,727,764,-8.23453,0.522036
-490,260,-7.99872,-0.248535,0.00814969,-0.0131606,0.00925097,0.0116053,-0.0166162,0.357487,0.016379,0.0471244,734,764,-7.99872,0.248527
-483,260,-7.34906,0.0944824,0,0,0,0,0,0,0,-1,741,764,-7.34908,-0.0944879
-476,260,-6.65588,0.480713,0,0,0,0,0,0,0,-1,748,764,-6.65589,-0.480734
-469,260,-12.6978,0.898804,0.0242839,-0.0244448,0.00502286,0.0247963,-0.0249571,0.101654,0.0287252,0.0457263,755,764,-12.6978,-0.898818
-462,260,-12.2997,0.801758,0.0291009,-0.0300713,0.00257605,0.0292128,-0.0301832,0.0434252,0.0342939,0.0417985,762,764,-12.2998,-0.80178
-455,260,-11.8521,1.0282,0,0,0,0,0,0,0,-1,769,764,-11.8521,-1.02821
-448,260,0,0,0,0,0,0,0,0,0,-1,776,764,0,0
-441,260,0,0,0,0,0,0,0,0,0,-1,783,764,0,0
-434,260,0,0,0,0,0,0,0,0,0,-1,790,764,0,0
-427,260,0,0,0,0,0,0,0,0,0,-1,797,764,0,0
-420,260,0,0,0,0,0,0,0,0,0,-1,804,764,0,0
-413,260,0,0,0,0,0,0,0,0,0,-1,811,764,0,0
-406,260,0,0,0,0,0,0,0,0,0,-1,818,764,0,0
-399,260,0,0,0,0,0,0,0,0,0,-1,825,764,0,0
-392,260,0,0,0,0,0,0,0,0,0,-1,832,764,0,0
-385,260,0,0,0,0,0,0,0,0,0,-1,839,764,0,0
-378,260,0,0,0,0,0,0,0,0,0,-1,846,764,0,0
-371,260,0,0,0,0,0,0,0,0,0,-1,853,764,0,0
-364,260,0,0,0,0,0,0,0,0,0,-1,860,764,0,0
-357,260,0,0,0,0,0,0,0,0,0,-1,867,764,0,0
-350,260,0,0,0,0,0,0,0,0,0,-1,874,764,0,0
-343,260,0,0,0,0,0,0,0,0,0,-1,881,764,0,0
-336,260,0,0,0,0,0,0,0,0,0,-1,888,764,0,0
-329,260,0,0,0,0,0,0,0,0,0,-1,895,764,0,0
-322,260,0,0,0,0,0,0,0,0,0,-1,902,764,0,0
-315,260,0,0,0,0,0,0,0,0,0,-1,909,764,0,0
-308,260,0,0,0,0,0,0,0,0,0,-1,916,764,0,0
-301,260,0,0,0,0,0,0,0,0,0,-1,923,764,0,0
-294,260,0,0,0,0,0,0,0,0,0,-1,930,764,0,0
-287,260,0,0,0,0,0,0,0,0,0,-1,937,764,0,0
-280,260,0,0,0,0,0,0,0,0,0,-1,944,764,0,0
-273,260,0,0,0,0,0,0,0,0,0,-1,951,764,0,0
-266,260,0,0,0,0,0,0,0,0,0,-1,958,764,0,0
-259,260,0,0,0,0,0,0,0,0,0,-1,965,764,0,0
-252,260,0,0,0,0,0,0,0,0,0,-1,972,764,0,0
-245,260,0,0,0,0,0,0,0,0,0,-1,979,764,0,0
-238,260,0,0,0,0,0,0,0,0,0,-1,986,764,0,0
-231,260,0,0,0,0,0,0,0,0,0,-1,993,764,0,0
-224,260,0,0,0,0,0,0,0,0,0,-1,1000,764,0,0
-217,260,0,0,0,0,0,0,0,0,0,-1,1007,764,0,0
-210,260,0,0,0,0,0,0,0,0,0,-1,1014,764,0,0
-203,260,0,0,0,0,0,0,0,0,0,-1,1021,764,0,0
-196,260,0,0,0,0,0,0,0,0,0,-1,1028,764,0,0
-189,260,0,0,0,0,0,0,0,0,0,-1,1035,764,0,0
-182,260,0,0,0,0,0,0,0,0,0,-1,1042,764,0,0
-175,260,0,0,0,0,0,0,0,0,0,-1,1049,764,0,0
-168,260,0,0,0,0,0,0,0,0,0,-1,1056,764,0,0
-161,260,0,0,0,0,0,0,0,0,0,-1,1063,764,0,0
-154,260,0,0,0,0,0,0,0,0,0,-1,1070,764,0,0
-147,260,0,0,0,0,0,0,0,0,0,-1,1077,764,0,0
-140,260,0,0,0,0,0,0,0,0,0,-1,1084,764,0,0
-133,260,0,0,0,0,0,0,0,0,0,-1,1091,764,0,0
-126,260,0,0,0,0,0,0,0,0,0,-1,1098,764,0,0
-119,260,0,0,0,0,0,0,0,0,0,-1,1105,764,0,0
-112,260,0,0,0,0,0,0,0,0,0,-1,1112,764,0,0
-105,260,0,0,0,0,0,0,0,0,0,-1,1119,764,0,0
-98,260,0,0,0,0,0,0,0,0,0,-1,1126,764,0,0
-91,260,0,0,0,0,0,0,0,0,0,-1,1133,764,0,0
-84,260,0,0,0,0,0,0,0,0,0,-1,1140,764,0,0
-77,260,0,0,0,0,0,0,0,0,0,-1,1147,764,0,0
-70,260,0,0,0,0,0,0,0,0,0,-1,1154,764,0,0
-63,260,0,0,0,0,0,0,0,0,0,-1,1161,764,0,0
-56,260,0,0,0,0,0,0,0,0,0,-1,1168,764,0,0
-49,260,0,0,0,0,0,0,0,0,0,-1,1175,764,0,0
-42,260,0,0,0,0,0,0,0,0,0,-1,1182,764,0,0
-35,260,0,0,0,0,0,0,0,0,0,-1,1189,764,0,0
-28,260,0,0,0,0,0,0,0,0,0,-1,1196,764,0,0
-21,260,0,0,0,0,0,0,0,0,0,-1,1203,764,0,0
-14,260,0,0,0,0,0,0,0,0,0,-1,1210,764,0,0
-7,260,0,0,0,0,0,0,0,0,0,-1,1217,764,0,0
0,260,0,0,0,0,0,0,0,0,0,-1,1224,764,0,0
7,260,0,0,0,0,0,0,0,0,0,-1,1231,764,0,0
14,260,0,0,0,0,0,0,0,0,0,-1,1238,764,0,0
21,260,0,0,0,0,0,0,0,0,0,-1,1245,764,0,0
28,260,0,0,0,0,0,0,0,0,0,-1,1252,764,0,0
35,260,0,0,0,0,0,0,0,0,0,-1,1259,764,0,0
42,260,0,0,0,0,0,0,0,0,0,-1,1266,764,0,0
49,260,0,0,0,0,0,0,0,0,0,-1,1273,764,0,0
56,260,0,0,0,0,0,0,0,0,0,-1,1280,764,0,0
63,260,0,0,0,0,0,0,0,0,0,-1,1287,764,0,0
70,260,0,0,0,0,0,0,0,0,0,-1,1294,764,0,0
77,260,0,0,0,0,0,0,0,0,0,-1,1301,764,0,0
84,260,0,0,0,0,0,0,0,0,0,-1,1308,764,0,0
91,260,0,0,0,0,0,0,0,0,0,-1,1315,764,0,0
98,260,0,0,0,0,0,0,0,0,0,-1,1322,764,0,0
105,260,0,0,0,0,0,0,0,0,0,-1,1329,764,0,0
112,260,0,0,0,0,0,0,0,0,0,-1,1336,764,0,0
119,260,0,0,0,0,0,0,0,0,0,-1,1343,764,0,0
126,260,0,0,0,0,0,0,0,0,0,-1,1350,764,0,0
133,260,0,0,0,0,0,0,0,0,0,-1,1357,764,0,0
140,260,0,0,0,0,0,0,0,0,0,-1,1364,764,0,0
147,260,0,0,0,0,0,0,0,0,0,-1,1371,764,0,0
154,260,0,0,0,0,0,0,0,0,0,-1,1378,764,0,0
161,260,0,0,0,0,0,0,0,0,0,-1,1385,764,0,0
168,260,0,0,0,0,0,0,0,0,0,-1,1392,764,0,0
175,260,0,0,0,0,0,0,0,0,0,-1,1399,764,0,0
182,260,0,0,0,0,0,0,0,0,0,-1,1406,764,0,0
189,260,0,0,0,0,0,0,0,0,0,-1,1413,764,0,0
196,260,0,0,0,0,0,0,0,0,0,-1,1420,764,0,0
203,260,0,0,0,0,0,0,0,0,0,-1,1427,764,0,0
210,260,0,0,0,0,0,0,0,0,0,-1,1434,764,0,0
217,260,0,0,0,0,0,0,0,0,0,-1,1441,764,0,0
224,260,0,0,0,0,0,0,0,0,0,-1,1448,764,0,0
231,260,0,0,0,0,0,0,0,0,0,-1,1455,764,0,0
238,260,0,0,0,0,0,0,0,0,0,-1,1462,764,0,0
245,260,0,0,0,0,0,0,0,0,0,-1,1469,764,0,0
252,260,0,0,0,0,0,0,0,0,0,-1,1476,764,0,0
259,260,0,0,0,0,0,0,0,0,0,-1,1483,764,0,0
266,260,0,0,0,0,0,0,0,0,0,-1,1490,764,0,0
273,260,0,0,0,0,0,0,0,0,0,-1,1497,764,0,0
280,260,0,0,0,0,0,0,0,0,0,-1,1504,764,0,0
287,260,0,0,0,0,0,0,0,0,0,-1,1511,764,0,0
294,260,0,0,0,0,0,0,0,0,0,-1,1518,764,0,0
301,260,0,0,0,0,0,0,0,0,0,-1,1525,764,0,0
308,260,0,0,0,0,0,0,0,0,0,-1,1532,764,0,0
315,260,0,0,0,0,0,0,0,0,0,-1,1539,764,0,0
322,260,0,0,0,0,0,0,0,0,0,-1,1546,764,0,0
329,260,0,0,0,0,0,0,0,0,0,-1,1553,764,0,0
336,260,0,0,0,0,0,0,0,0,0,-1,1560,764,0,0
343,260,0,0,0,0,0,0,0,0,0,-1,1567,764,0,0
350,260,0,0,0,0,0,0,0,0,0,-1,1574,764,0,0
357,260,0,0,0,0,0,0,0,0,0,-1,1581,764,0,0
364,260,0,0,0,0,0,0,0,0,0,-1,1588,764,0,0
371,260,0,0,0,0,0,0,0,0,0,-1,1595,764,0,0
378,260,0,0,0,0,0,0,0,0,0,-1,1602,764,0,0
385,260,0,0,0,0,0,0,0,0,0,-1,1609,764,0,0
392,260,0,0,0,0,0,0,0,0,0,-1,1616,764,0,0
399,260,0,0,0,0,0,0,0,0,0,-1,1623,764,0,0
406,260,0,0,0,0,0,0,0,0,0,-1,1630,764,0,0
413,260,0,0,0,0,0,0,0,0,0,-1,1637,764,0,0
420,260,0,0,0,0,0,0,0,0,0,-1,1644,764,0,0
427,260,0,0,0,0,0,0,0,0,0,-1,1651,764,0,0
434,260,0,0,0,0,0,0,0,0,0,-1,1658,764,0,0
441,260,0,0,0,0,0,0,0,0,0,-1,1665,764,0,0
448,260,0,0,0,0,0,0,0,0,0,-1,1672,764,0,0
455,260,0,0,0,0,0,0,0,0,0,-1,1679,764,0,0
462,260,0,0,0,0,0,0,0,0,0,-1,1686,764,0,0
469,260,0,0,0,0,0,0,0,0,0,-1,1693,764,0,0
476,260,0,0,0,0,0,0,0,0,0,-1,1700,764,0,0
483,260,0,0,0,0,0,0,0,0,0,-1,1707,764,0,0
490,260,0,0,0,0,0,0,0,0,0,-1,1714,764,0,0
497,260,0,0,0,0,0,0,0,0,0,-1,1721,764,0,0
504,260,0,0,0,0,0,0,0,0,0,-1,1728,764,0,0
511,260,0,0,0,0,0,0,0,0,0,-1,1735,764,0,0
518,260,0,0,0,0,0,0,0,0,0,-1,1742,764,0,0
525,260,0,0,0,0,0,0,0,0,0,-1,1749,764,0,0
532,260,0,0,0,0,0,0,0,0,0,-1,1756,764,0,0
539,260,0,0,0,0,0,0,0,0,0,-1,1763,764,0,0
546,260,0,0,0,0,0,0,0,0,0,-1,1770,764,0,0
553,260,0,0,0,0,0,0,0,0,0,-1,1777,764,0,0
560,260,0,0,0,0,0,0,0,0,0,-1,1784,764,0,0
567,260,0,0,0,0,0,0,0,0,0,-1,1791,764,0,0
574,260,19.0696,2.63269,0,0,0,0,0,0,0,-1,1798,764,19.0696,-2.63271
581,260,18.645,2.92816,0,0,0,0,0,0,0,-1,1805,764,18.645,-2.92819
588,260,19.0026,2.65479,0.0135803,-0.00107423,-0.00425581,0.0147266,-0.0022205,-0.263098,0.0106354,0.0424059,1812,764,19.0026,-2.65477
595,260,19.257,2.34198,0.013483,-0.00476131,-0.00373429,0.0142178,-0.00549606,-0.194276,0.0117472,0.045289,1819,764,19.257,-2.34199
602,260,19.6429,1.92908,0.0121298,-0.00712862,-0.00295954,0.0125743,-0.00757317,-0.149094,0.011751,0.0441128,1826,764,19.643,-1.92905
609,260,19.9644,1.69855,0.00955122,-0.00807836,-0.00306069,0.0100675,-0.00859462,-0.167099,0.0107857,0.0401705,1833,764,19.9643,-1.69852
616,260,19.9581,1.95276,0,0,0,0,0,0,0,-1,1840,764,19.9582,-1.95277
623,260,18.9009,2.19531,0,0,0,0,0,0,0,-1,1847,764,18.9009,-2.19529
630,260,13.3728,0.876465,0,0,0,0,0,0,0,-1,1854,764,13.3728,-0.876474
637,260,13.4747,0.809509,-0.000362838,-0.00665535,-0.00410138,0.00166007,-0.00867826,-0.458214,0.00641091,0.0457787,1861,764,13.4747,-0.809516
644,260,13.3693,0.971558,-0.00246321,-0.00540466,-0.00405033,0.00037515,-0.00824302,-0.611244,0.00562456,0.0245709,1868,764,13.3692,-0.971579
651,260,13.3621,1.17639,-0.0038575,-0.00408594,-0.00390802,-6.20275e-05,-0.0078814,-0.770789,0.00523372,0.0147674,1875,764,13.362,-1.17637
658,260,13.3353,1.40851,-0.00426325,-0.00261492,-0.0037223,0.000373362,-0.00725153,-0.894347,0.00496349,0.0167236,1882,764,13.3353,-1.40853
665,260,13.3192,1.63654,-0.00372544,-0.00137002,-0.00350985,0.00115444,-0.0062499,-0.947268,0.00459996,0.0156639,1889,764,13.3192,-1.63654
672,260,13.3138,1.85034,-0.00204612,-0.000720078,-0.00308621,0.00177353,-0.00453973,-0.891207,0.00375978,0.0133453,1896,764,13.3139,-1.85037
679,260,13.2972,2.07294,0.000433094,3.67629e-05,-0.00279714,0.00303908,-0.00256923,-0.750034,0.00324174,0.0122775,1903,764,13.2972,-2.07293
686,260,13.3141,2.289,0.0030217,0.000909049,-0.00281629,0.00497324,-0.0010425,-0.605979,0.00371212,0.0144374,1910,764,13.314,-2.289
693,260,13.3087,2.46021,0.00588791,0.00160047,-0.0032601,0.00764596,-0.000157578,-0.494562,0.00515064,0.0149783,1917,764,13.3088,-2.46021
700,260,13.282,2.68524,0.00955342,0.00274265,-0.00399625,0.0113984,0.000897638,-0.432529,0.00731812,0.013439,1924,764,13.282,-2.68525
707,260,13.3027,2.87262,0.0146569,0.00429625,-0.00491112,0.0166149,0.00233831,-0.379364,0.0103853,0.0131123,1931,764,13.3027,-2.87263
714,260,13.3505,3.00134,0.0217053,0.00630052,-0.00552676,0.023483,0.00452283,-0.3112,0.0143867,0.0228899,1938,764,13.3505,-3.00132
721,260,13.4869,2.59558,0.0304646,0.00902714,-0.00619753,0.0321273,0.00736441,-0.262117,0.0194342,0.0407913,1945,764,13.487,-2.5956
728,260,13.3943,2.21161,0.042192,0.012869,-0.00607965,0.0434025,0.0116585,-0.196544,0.0259375,0.0455346,1952,764,13.3942,-2.21162
735,260,13.2518,1.98877,0,0,0,0,0,0,0,-1,1959,764,13.2519,-1.98876
742,260,15.5726,3.36639,0,0,0,0,0,0,0,-1,1966,764,15.5726,-3.36641
749,260,16.6082,3.20825,0,0,0,0,0,0,0,-1,1973,764,16.6082,-3.20827
756,260,0,0,0,0,0,0,0,0,0,-1,1980,764,0,0
763,260,0,0,0,0,0,0,0,0,0,-1,1987,764,0,0
770,260,0,0,0,0,0,0,0,0,0,-1,1994,764,0,0
777,260,0,0,0,0,0,0,0,0,0,-1,2001,764,0,0
784,260,0,0,0,0,0,0,0,0,0,-1,2008,764,0,0
791,260,0,0,0,0,0,0,0,0,0,-1,2015,764,0,0
798,260,0,0,0,0,0,0,0,0,0,-1,2022,764,0,0
805,260,0,0,0,0,0,0,0,0,0,-1,2029,764,0,0
812,260,0,0,0,0,0,0,0,0,0,-1,2036,764,0,0
-700,253,0,0,0,0,0,0,0,0,0,-1,524,771,0,0
-693,253,0,0,0,0,0,0,0,0,0,-1,531,771,0,0
-686,253,0,0,0,0,0,0,0,0,0,-1,538,771,0,0
-679,253,0,0,0,0,0,0,0,0,0,-1,545,771,0,0
-672,253,0,0,0,0,0,0,0,0,0,-1,552,771,0,0
-665,253,0,0,0,0,0,0,0,0,0,-1,559,771,0,0
-658,253,0,0,0,0,0,0,0,0,0,-1,566,771,0,0
-651,253,0,0,0,0,0,0,0,0,0,-1,573,771,0,0
-644,253,0,0,0,0,0,0,0,0,0,-1,580,771,0,0
-637,253,-11.0364,1.70343,0.011423,-0.0686642,-0.0605531,0.0439753,-0.101217,-0.49326,0.0859706,0.0454015,587,771,-11.0364,-1.70342
-630,253,-10.6754,1.01025,0,0,0,0,0,0,0,-1,594,771,-10.6754,-1.01028
-623,253,-10.2526,0.572021,0.00168955,-0.049935,-0.0465947,0.029144,-0.0773894,-0.532454,0.0635747,0.043818,601,771,-10.2526,-0.572005
-616,253,-9.88324,0.256104,-0.00035735,-0.0412298,-0.0380104,0.0223623,-0.0639495,-0.538743,0.0517243,0.0433654,608,771,-9.88324,-0.256085
-609,253,-8.11536,1.35388,0,0,0,0,0,0,0,-1,615,771,-8.11533,-1.35389
-602,253,-7.97766,1.13794,-0.00169092,-0.0262247,-0.0221026,0.0113207,-0.0392362,-0.532062,0.0306364,0.0488842,622,771,-7.97768,-1.13796
-595,253,-7.90363,0.888489,-0.0018143,-0.0202271,-0.0155383,0.00704019,-0.0290815,-0.517956,0.0221112,0.042107,629,771,-7.90363,-0.888462
-588,253,-7.88031,0.793701,-0.00205597,-0.0149125,-0.0103322,0.00368444,-0.0206529,-0.507122,0.0151468,0.0346648,636,771,-7.88033,-0.793722
-581,253,-7.92145,0.801453,-0.00215347,-0.0101226,-0.00601021,0.00107302,-0.0133491,-0.49268,0.00927779,0.0207529,643,771,-7.92144,-0.801481
-574,253,-7.97388,0.624023,-0.0019586,-0.00676178,-0.00303325,-0.000491308,-0.00822907,-0.450552,0.00532983,0.0181866,650,771,-7.9739,-0.624051
-567,253,-7.9917,0.428223,-0.00180564,-0.00429174,-0.000159305,-0.00179548,-0.0043019,-0.0637309,0.00249499,0.0151332,657,771,-7.9917,-0.428223
-560,253,-7.94122,0.249817,-0.00197603,-0.00274775,0.00212277,-0.00020434,-0.00451944,0.695493,0.00294721,0.0113389,664,771,-7.94123,-0.249831
-553,253,-7.92969,0.0875244,-0.00260344,-0.00226463,0.00337165,0.000941867,-0.00580993,0.810499,0.0042224,0.0112606,671,771,-7.92968,-0.0875114
-546,253,-7.95825,-0.0787354,-0.0042916,-0.00206145,0.00418974,0.00115906,-0.00751211,0.915456,0.00543578,0.0102574,678,771,-7.95824,0.0787105
-539,253,-7.97681,-0.289307,-0.0053897,-0.00268715,0.00549876,0.00162394,-0.00970079,0.905881,0.00707094,0.010623,685,771,-7.9768,0.289309
-532,253,-7.98328,-0.49115,-0.00670721,-0.00328524,0.00695779,0.00216885,-0.0121613,0.905961,0.00891882,0.0144864,692,771,-7.98325,0.491139
-525,253,-7.9754,-0.71637,-0.00686971,-0.0048175,0.00849798,0.0027161,-0.0144033,0.845481,0.0106239,0.0124934,699,771,-7.97537,0.716394
-518,253,-7.9743,-0.884766,-0.00593048,-0.00563601,0.00937936,0.00359727,-0.0151638,0.793246,0.0114974,0.0151376,706,771,-7.97433,0.884742
-511,253,-8.02063,-1.08563,-0.00388405,-0.00655217,0.00992766,0.00479878,-0.015235,0.718609,0.0120783,0.0343165,713,771,-8.0206,1.08562
-504,253,-8.78992,-0.81842,-0.00171698,-0.00824244,0.0103912,0.00591173,-0.0158711,0.633278,0.0130071,0.0456422,720,771,-8.78993,0.818396
-497,253,-9.1142,-0.135559,0.00123905,-0.00983512,0.0104563,0.00753386,-0.0161299,0.541896,0.0139595,0.0446622,727,771,-9.11421,0.135549
-490,253,-8.71533,0.216797,0.00507801,-0.0123555,0.0101428,0.00973505,-0.0170125,0.430434,0.0156321,0.0471986,734,771,-8.71532,-0.216805
-483,253,-8.38873,0.262512,0,0,0,0,0,0,0,-1,741,771,-8.38873,-0.262506
-476,253,-12.7208,0.108154,0.0149129,-0.017596,0.00730571,0.0164793,-0.0191623,0.211202,0.0205971,0.0452622,748,771,-12.7208,-0.108177
-469,253,-12.6431,0.867004,0.0202771,-0.0210487,0.00475132,0.0208163,-0.021588,0.113008,0.0244835,0.0421464,755,771,-12.6431,-0.866988
-462,253,-12.6384,0.695618,0.0249313,-0.0254933,0.0012909,0.0249643,-0.0255264,0.0255783,0.0291514,0.0428699,762,771,-12.6384,-0.695633
-455,253,-12.6141,0.777588,0,0,0,0,0,0,0,-1,769,771,-12.6141,-0.777574
-448,253,0,0,0,0,0,0,0,0,0,-1,776,771,0,0
-441,253,0,0,0,0,0,0,0,0,0,-1,783,771,0,0
-434,253,0,0,0,0,0,0,0,0,0,-1,790,771,0,0
-427,253,0,0,0,0,0,0,0,0,0,-1,797,771,0,0
-420,253,0,0,0,0,0,0,0,0,0,-1,804,771,0,0
-413,253,0,0,0,0,0,0,0,0,0,-1,811,771,0,0
-406,253,0,0,0,0,0,0,0,0,0,-1,818,771,0,0
-399,253,0,0,0,0,0,0,0,0,0,-1,825,771,0,0
-392,253,0,0,0,0,0,0,0,0,0,-1,832,771,0,0
-385,253,0,0,0,0,0,0,0,0,0,-1,839,771,0,0
-378,253,0,0,0,0,0,0,0,0,0,-1,846,771,0,0
-371,253,0,0,0,0,0,0,0,0,0,-1,853,771,0,0
-364,253,0,0,0,0,0,0,0,0,0,-1,860,771,0,0
-357,253,0,0,0,0,0,0,0,0,0,-1,867,771,0,0
-350,253,0,0,0,0,0,0,0,0,0,-1,874,771,0,0
-343,253,0,0,0,0,0,0,0,0,0,-1,881,771,0,0
-336,253,0,0,0,0,0,0,0,0,0,-1,888,771,0,0
-329,253,0,0,0,0,0,0,0,0,0,-1,895,771,0,0
-322,253,0,0,0,0,0,0,0,0,0,-1,902,771,0,0
-315,253,0,0,0,0,0,0,0,0,0,-1,909,771,0,0
-308,253,0,0,0,0,0,0,0,0,0,-1,916,771,0,0
-301,253,0,0,0,0,0,0,0,0,0,-1,923,771,0,0
-294,253,0,0,0,0,0,0,0,0,0,-1,930,771,0,0
-287,253,0,0,0,0,0,0,0,0,0,-1,937,771,0,0
-280,253,0,0,0,0,0,0,0,0,0,-1,944,771,0,0
-273,253,0,0,0,0,0,0,0,0,0,-1,951,771,0,0
-266,253,0,0,0,0,0,0,0,0,0,-1,958,771,0,0
-259,253,0,0,0,0,0,0,0,0,0,-1,965,771,0,0
-252,253,0,0,0,0,0,0,0,0,0,-1,972,771,0,0
-245,253,0,0,0,0,0,0,0,0,0,-1,979,771,0,0
-238,253,0,0,0,0,0,0,0,0,0,-1,986,771,0,0
-231,253,0,0,0,0,0,0,0,0,0,-1,993,771,0,0
-224,253,0,0,0,0,0,0,0,0,0,-1,1000,771,0,0
-217,253,0,0,0,0,0,0,0,0,0,-1,1007,771,0,0
-210,253,0,0,0,0,0,0,0,0,0,-1,1014,771,0,0
-203,253,0,0,0,0,0,0,0,0,0,-1,1021,771,0,0
-196,253,0,0,0,0,0,0,0,0,0,-1,1028,771,0,0
-189,253,0,0,0,0,0,0,0,0,0,-1,1035,771,0,0
-182,253,0,0,0,0,0,0,0,0,0,-1,1042,771,0,0
-175,253,0,0,0,0,0,0,0,0,0,-1,1049,771,0,0
-168,253,0,0,0,0,0,0,0,0,0,-1,1056,771,0,0
-161,253,0,0,0,0,0,0,0,0,0,-1,1063,771,0,0
-154,253,0,0,0,0,0,0,0,0,0,-1,1070,771,0,0
-147,253,0,0,0,0,0,0,0,0,0,-1,1077,771,0,0
-140,253,0,0,0,0,0,0,0,0,0,-1,1084,771,0,0
-133,253,0,0,0,0,0,0,0,0,0,-1,1091,771,0,0
-126,253,0,0,0,0,0,0,0,0,0,-1,1098,771,0,0
-119,253,0,0,0,0,0,0,0,0,0,-1,1105,771,0,0
-112,253,0,0,0,0,0,0,0,0,0,-1,1112,771,0,0
-105,253,0,0,0,0,0,0,0,0,0,-1,1119,771,0,0
-98,253,0,0,0,0,0,0,0,0,0,-1,1126,771,0,0
-91,253,0,0,0,0,0,0,0,0,0,-1,1133,771,0,0
-84,253,0,0,0,0,0,0,0,0,0,-1,1140,771,0,0
-77,253,0,0,0,0,0,0,0,0,0,-1,1147,771,0,0
-70,253,0,0,0,0,0,0,0,0,0,-1,1154,771,0,0
-63,253,0,0,0,0,0,0,0,0,0,-1,1161,771,0,0
-56,253,0,0,0,0,0,0,0,0,0,-1,1168,771,0,0
-49,253,0,0,0,0,0,0,0,0,0,-1,1175,771,0,0
-42,253,0,0,0,0,0,0,0,0,0,-1,1182,771,0,0
-35,253,0,0,0,0,0,0,0,0,0,-1,1189,771,0,0
-28,253,0,0,0,0,0,0,0,0,0,-1,1196,771,0,0
-21,253,0,0,0,0,0,0,0,0,0,-1,1203,771,0,0
-14,253,0,0,0,0,0,0,0,0,0,-1,1210,771,0,0
-7,253,0,0,0,0,0,0,0,0,0,-1,1217,771,0,0
0,253,0,0,0,0,0,0,0,0,0,-1,1224,771,0,0
7,253,0,0,0,0,0,0,0,0,0,-1,1231,771,0,0
14,253,0,0,0,0,0,0,0,0,0,-1,1238,771,0,0
21,253,0,0,0,0,0,0,0,0,0,-1,1245,771,0,0
28,253,0,0,0,0,0,0,0,0,0,-1,1252,771,0,0
35,253,0,0,0,0,0,0,0,0,0,-1,1259,771,0,0
42,253,0,0,0,0,0,0,0,0,0,-1,1266,771,0,0
49,253,0,0,0,0,0,0,0,0,0,-1,1273,771,0,0
56,253,0,0,0,0,0,0,0,0,0,-1,1280,771,0,0
63,253,0,0,0,0,0,0,0,0,0,-1,1287,771,0,0
70,253,0,0,0,0,0,0,0,0,0,-1,1294,771,0,0
77,253,0,0,0,0,0,0,0,0,0,-1,1301,771,0,0
84,253,0,0,0,0,0,0,0,0,0,-1,1308,771,0,0
91,253,0,0,0,0,0,0,0,0,0,-1,1315,771,0,0
98,253,0,0,0,0,0,0,0,0,0,-1,1322,771,0,0
105,253,0,0,0,0,0,0,0,0,0,-1,1329,771,0,0
112,253,0,0,0,0,0,0,0,0,0,-1,1336,771,0,0
119,253,0,0,0,0,0,0,0,0,0,-1,1343,771,0,0
126,253,0,0,0,0,0,0,0,0,0,-1,1350,771,0,0
133,253,0,0,0,0,0,0,0,0,0,-1,1357,771,0,0
140,253,0,0,0,0,0,0,0,0,0,-1,1364,771,0,0
147,253,0,0,0,0,0,0,0,0,0,-1,1371,771,0,0
154,253,0,0,0,0,0,0,0,0,0,-1,1378,771,0,0
161,253,0,0,0,0,0,0,0,0,0,-1,1385,771,0,0
168,253,0,0,0,0,0,0,0,0,0,-1,1392,771,0,0
175,253,0,0,0,0,0,0,0,0,0,-1,1399,771,0,0
182,253,0,0,0,0,0,0,0,0,0,-1,1406,771,0,0
189,253,0,0,0,0,0,0,0,0,0,-1,1413,771,0,0
196,253,0,0,0,0,0,0,0,0,0,-1,1420,771,0,0
203,253,0,0,0,0,0,0,0,0,0,-1,1427,771,0,0
210,253,0,0,0,0,0,0,0,0,0,-1,1434,771,0,0
217,253,0,0,0,0,0,0,0,0,0,-1,1441,771,0,0
224,253,0,0,0,0,0,0,0,0,0,-1,1448,771,0,0
231,253,0,0,0,0,0,0,0,0,0,-1,1455,771,0,0
238,253,0,0,0,0,0,0,0,0,0,-1,1462,771,0,0
245,253,0,0,0,0,0,0,0,0,0,-1,1469,771,0,0
252,253,0,0,0,0,0,0,0,0,0,-1,1476,771,0,0
259,253,0,0,0,0,0,0,0,0,0,-1,1483,771,0,0
266,253,0,0,0,0,0,0,0,0,0,-1,1490,771,0,0
273,253,0,0,0,0,0,0,0,0,0,-1,1497,771,0,0
280,253,0,0,0,0,0,0,0,0,0,-1,1504,771,0,0
287,253,0,0,0,0,0,0,0,0,0,-1,1511,771,0,0
294,253,0,0,0,0,0,0,0,0,0,-1,1518,771,0,0
301,253,0,0,0,0,0,0,0,0,0,-1,1525,771,0,0
308,253,0,0,0,0,0,0,0,0,0,-1,1532,771,0,0
315,253,0,0,0,0,0,0,0,0,0,-1,1539,771,0,0
322,253,0,0,0,0,0,0,0,0,0,-1,1546,771,0,0
329,253,0,0,0,0,0,0,0,0,0,-1,1553,771,0,0
336,253,0,0,0,0,0,0,0,0,0,-1,1560,771,0,0
343,253,0,0,0,0,0,0,0,0,0,-1,1567,771,0,0
350,253,0,0,0,0,0,0,0,0,0,-1,1574,771,0,0
357,253,0,0,0,0,0,0,0,0,0,-1,1581,771,0,0
364,253,0,0,0,0,0,0,0,0,0,-1,1588,771,0,0
371,253,0,0,0,0,0,0,0,0,0,-1,1595,771,0,0
378,253,0,0,0,0,0,0,0,0,0,-1,1602,771,0,0
385,253,0,0,0,0,0,0,0,0,0,-1,1609,771,0,0
392,253,0,0,0,0,0,0,0,0,0,-1,1616,771,0,0
399,253,0,0,0,0,0,0,0,0,0,-1,1623,771,0,0
406,253,0,0,0,0,0,0,0,0,0,-1,1630,771,0,0
413,253,0,0,0,0,0,0,0,0,0,-1,1637,771,0,0
420,253,0,0,0,0,0,0,0,0,0,-1,1644,771,0,0
427,253,0,0,0,0,0,0,0,0,0,-1,1651,771,0,0
434,253,0,0,0,0,0,0,0,0,0,-1,1658,771,0,0
441,253,0,0,0,0,0,0,0,0,0,-1,1665,771,0,0
448,253,0,0,0,0,0,0,0,0,0,-1,1672,771,0,0
455,253,0,0,0,0,0,0,0,0,0,-1,1679,771,0,0
462,253,0,0,0,0,0,0,0,0,0,-1,1686,771,0,0
469,253,0,0,0,0,0,0,0,0,0,-1,1693,771,0,0
476,253,0,0,0,0,0,0,0,0,0,-1,1700,771,0,0
483,253,0,0,0,0,0,0,0,0,0,-1,1707,771,0,0
490,253,0,0,0,0,0,0,0,0,0,-1,1714,771,0,0
497,253,0,0,0,0,0,0,0,0,0,-1,1721,771,0,0
504,253,0,0,0,0,0,0,0,0,0,-1,1728,771,0,0
511,253,0,0,0,0,0,0,0,0,0,-1,1735,771,0,0
518,253,0,0,0,0,0,0,0,0,0,-1,1742,771,0,0
525,253,0,0,0,0,0,0,0,0,0,-1,1749,771,0,0
532,253,0,0,0,0,0,0,0,0,0,-1,1756,771,0,0
539,253,0,0,0,0,0,0,0,0,0,-1,1763,771,0,0
546,253,0,0,0,0,0,0,0,0,0,-1,1770,771,0,0
553,253,0,0,0,0,0,0,0,0,0,-1,1777,771,0,0
560,253,0,0,0,0,0,0,0,0,0,-1,1784,771,0,0
567,253,0,0,0,0,0,0,0,0,0,-1,1791,771,0,0
574,253,19.0582,2.54395,0,0,0,0,0,0,0,-1,1798,771,19.0583,-2.54396
581,253,18.8427,2.75189,0.0138527,0.00277319,-0.0051963,0.0159084,0.000717522,-0.376709,0.0103747,0.036822,1805,771,18.8426,-2.75187
588,253,18.9788,2.76501,0.0144668,-0.00331645,-0.0046993,0.0156322,-0.00448188,-0.243097,0.0121932,0.0391649,1812,771,18.9788,-2.765
595,253,19.2347,2.55524,0.013647,-0.00670312,-0.00414223,0.0144578,-0.00751396,-0.193305,0.0128948,0.0421361,1819,771,19.2347,-2.55524
602,253,19.3774,2.30481,0.0115769,-0.00848261,-0.00353988,0.0121833,-0.00908896,-0.169645,0.0123248,0.0430821,1826,771,19.3775,-2.30483
609,253,19.5337,2.03424,0.0086966,-0.00891992,-0.00369113,0.00943872,-0.00966205,-0.198412,0.0110281,0.0394119,1833,771,19.5336,-2.03422
616,253,19.6968,1.83002,0,0,0,0,0,0,0,-1,1840,771,19.6968,-1.82999
623,253,15.5812,0.0839233,0,0,0,0,0,0,0,-1,1847,771,15.5812,-0.0839161
630,253,14.8019,-0.071106,0,0,0,0,0,0,0,-1,1854,771,14.8019,0.071111
637,253,13.7693,0.846985,0,0,0,0,0,0,0,-1,1861,771,13.7692,-0.847012
644,253,13.5939,0.923645,-0.00312905,-0.0049718,-0.00482673,0.000863461,-0.00896431,-0.691088,0.00628383,0.0408671,1868,771,13.5939,-0.923663
651,253,13.5441,1.18207,-0.00446894,-0.00368683,-0.00475564,0.000693806,-0.00884957,-0.826421,0.00614405,0.023763,1875,771,13.544,-1.18205
658,253,13.548,1.42474,-0.00491055,-0.00228327,-0.0046463,0.00123152,-0.00842534,-0.923167,0.00606919,0.0184467,1882,771,13.548,-1.42476
665,253,13.5034,1.63898,-0.0044912,-0.00110958,-0.004429,0.00194037,-0.00754115,-0.967739,0.00578376,0.0195232,1889,771,13.5034,-1.639
672,253,13.4993,1.85596,-0.00295178,-0.000621651,-0.00385413,0.00223965,-0.00581309,-0.932177,0.00479942,0.0162877,1896,771,13.4993,-1.85595
679,253,13.5232,2.08789,-0.000675382,-0.000156638,-0.00333976,0.00293381,-0.00376583,-0.824151,0.00387796,0.0130636,1903,771,13.5232,-2.08791
686,253,13.5308,2.28015,0.00176819,0.000479561,-0.00309153,0.00428184,-0.00203409,-0.682663,0.00372268,0.0174054,1910,771,13.5307,-2.28015
693,253,13.5021,2.48041,0.00429588,0.000838225,-0.00332947,0.00631861,-0.00118451,-0.545933,0.00465772,0.0178618,1917,771,13.5021,-2.48041
700,253,13.4891,2.69263,0.0075774,0.00167323,-0.00383528,0.00946517,-0.00021454,-0.457397,0.00638283,0.0153492,1924,771,13.4891,-2.69264
707,253,13.5096,2.89453,0.0124311,0.00283342,-0.00448003,0.0141973,0.00106724,-0.375526,0.00912993,0.0141831,1931,771,13.5097,-2.89455
714,253,13.5255,3.06427,0.0192201,0.00431044,-0.00487671,0.0206735,0.00285703,-0.28965,0.0129356,0.0181398,1938,771,13.5255,-3.06426
721,253,13.5946,3.30005,0.0275575,0.00602513,-0.00535432,0.0288155,0.0047672,-0.230753,0.0178349,0.0321695,1945,771,13.5946,-3.30005
728,253,13.5701,2.67487,0.038766,0.00865558,-0.00512291,0.0396137,0.00780785,-0.163993,0.0242296,0.0446475,1952,771,13.5701,-2.67484
735,253,13.6011,2.18481,0.0534434,0.0121635,-0.00382371,0.0537946,0.0118123,-0.0915905,0.0326459,0.0450504,1959,771,13.6011,-2.18483
742,253,13.8483,1.61426,0,0,0,0,0,0,0,-1,1966,771,13.8483,-1.61425
749,253,16.6555,2.75659,0,0,0,0,0,0,0,-1,1973,771,16.6555,-2.7566
756,253,0,0,0,0,0,0,0,0,0,-1,1980,771,0,0
763,253,0,0,0,0,0,0,0,0,0,-1,1987,771,0,0
770,253,0,0,0,0,0,0,0,0,0,-1,1994,771,0,0
777,253,0,0,0,0,0,0,0,0,0,-1,2001,771,0,0
784,253,0,0,0,0,0,0,0,0,0,-1,2008,771,0,0
791,253,0,0,0,0,0,0,0,0,0,-1,2015,771,0,0
798,253,0,0,0,0,0,0,0,0,0,-1,2022,771,0,0
805,253,0,0,0,0,0,0,0,0,0,-1,2029,771,0,0
812,253,0,0,0,0,0,0,0,0,0,-1,2036,771,0,0
-700,246,0,0,0,0,0,0,0,0,0,-1,524,778,0,0
-693,246,0,0,0,0,0,0,0,0,0,-1,531,778,0,0
-686,246,0,0,0,0,0,0,0,0,0,-1,538,778,0,0
-679,246,0,0,0,0,0,0,0,0,0,-1,545,778,0,0
-672,246,0,0,0,0,0,0,0,0,0,-1,552,778,0,0
-665,246,0,0,0,0,0,0,0,0,0,-1,559,778,0,0
-658,246,0,0,0,0,0,0,0,0,0,-1,566,778,0,0
-651,246,0,0,0,0,0,0,0,0,0,-1,573,778,0,0
-644,246,0,0,0,0,0,0,0,0,0,-1,580,778,0,0
-637,246,-10.915,2.48346,0,0,0,0,0,0,0,-1,587,778,-10.915,-2.48348
-630,246,-8.51483,-0.257629,0,0,0,0,0,0,0,-1,594,778,-8.51481,0.257647
-623,246,-9.66327,0.781616,0,0,0,0,0,0,0,-1,601,778,-9.66325,-0.781644
-616,246,-9.81561,0.101868,0,0,0,0,0,0,0,-1,608,778,-9.81561,-0.101844
-609,246,-8.48352,1.6546,0,0,0,0,0,0,0,-1,615,778,-8.48355,-1.65462
-602,246,-8.23621,1.599,0.00124181,-0.0240355,-0.0181874,0.0107507,-0.0335444,-0.481746,0.0266786,0.0474802,622,778,-8.2362,-1.59901
-595,246,-8.10565,1.29089,0.000466056,-0.018546,-0.012832,0.00692954,-0.0250095,-0.466603,0.0193999,0.0428919,629,778,-8.10564,-1.29088
-588,246,-8.0929,1.00494,-0.000279931,-0.0136307,-0.00861315,0.0039418,-0.0178524,-0.455737,0.0134101,0.0270195,636,778,-8.09287,-1.00497
-581,246,-8.14044,0.831726,-0.000701635,-0.00920686,-0.00501482,0.00162094,-0.0115294,-0.43373,0.00827967,0.0147096,643,778,-8.14046,-0.831697
-574,246,-8.15936,0.605652,-0.00100809,-0.00619221,-0.00252387,1.76809e-05,-0.00721798,-0.386035,0.00481789,0.0168036,650,778,-8.15936,-0.605667
-567,246,-8.18628,0.417542,-0.00123035,-0.00412833,-4.08431e-05,-0.00122978,-0.0041289,-0.01409,0.00244791,0.0162033,657,778,-8.18629,-0.417526
-560,246,-8.16492,0.254883,-0.0016745,-0.00290561,0.00208311,-0.000117901,-0.00446221,0.641737,0.0029363,0.0124697,664,778,-8.1649,-0.254895
-553,246,-8.13177,0.104797,-0.00255925,-0.00265494,0.00337105,0.000764296,-0.00597849,0.778302,0.00426332,0.0118562,671,778,-8.13177,-0.104779
-546,246,-8.13434,-0.0837402,-0.00460388,-0.00266616,0.00442968,0.000899375,-0.00816941,0.893063,0.00576948,0.00997925,678,778,-8.13436,0.0837612
-539,246,-8.14856,-0.287964,-0.00596245,-0.00348535,0.00593631,0.00134024,-0.010788,0.888243,0.00767786,0.00954182,685,778,-8.14858,0.287967
-532,246,-8.17151,-0.501831,-0.00743289,-0.00422659,0.00747176,0.00181207,-0.0134716,0.891077,0.00964199,0.0113485,692,778,-8.1715,0.501841
-525,246,-8.15625,-0.686096,-0.00779419,-0.00571637,0.00901659,0.00232096,-0.0158315,0.842756,0.011407,0.012468,699,778,-8.15628,0.686084
-518,246,-8.15845,-0.83844,-0.00717538,-0.00648686,0.00992768,0.00310253,-0.0167648,0.80273,0.0123414,0.0188822,706,778,-8.15843,0.838459
-511,246,-8.44098,-0.851929,-0.00563964,-0.00731859,0.0105358,0.00409007,-0.0170483,0.745643,0.0129461,0.0404736,713,778,-8.44097,0.851954
-504,246,-8.92169,-0.71759,-0.0038839,-0.00871744,0.011013,0.00497436,-0.0175757,0.677386,0.0136801,0.0443049,720,778,-8.92168,0.717621
-497,246,-9.39185,-0.612305,-0.00128883,-0.00996603,0.011024,0.00621959,-0.0174744,0.597927,0.0141849,0.0456037,727,778,-9.39187,0.612302
-490,246,-10.1191,-0.451233,0,0,0,0,0,0,0,-1,734,778,-10.1192,0.451205
-483,246,-13.0655,-0.180115,0,0,0,0,0,0,0,-1,741,778,-13.0655,0.180101
-476,246,-12.7464,0.576477,0.0116799,-0.0155999,0.00700801,0.0133749,-0.0172949,0.237309,0.0177553,0.0456056,748,778,-12.7464,-0.576493
-469,246,-12.5663,0.89502,0.0170443,-0.0180406,0.0037426,0.0174391,-0.0184354,0.105097,0.0207148,0.0413544,755,778,-12.5663,-0.89504
-462,246,-12.5574,0.814819,0.0217518,-0.0213564,-0.000828588,0.0217678,-0.0213723,-0.0192117,0.0249073,0.0462924,762,778,-12.5574,-0.814833
-455,246,0,0,0,0,0,0,0,0,0,-1,769,778,0,0
-448,246,0,0,0,0,0,0,0,0,0,-1,776,778,0,0
-441,246,0,0,0,0,0,0,0,0,0,-1,783,778,0,0
-434,246,0,0,0,0,0,0,0,0,0,-1,790,778,0,0
-427,246,0,0,0,0,0,0,0,0,0,-1,797,778,0,0
-420,246,0,0,0,0,0,0,0,0,0,-1,804,778,0,0
-413,246,0,0,0,0,0,0,0,0,0,-1,811,778,0,0
-406,246,0,0,0,0,0,0,0,0,0,-1,818,778,0,0
-399,246,0,0,0,0,0,0,0,0,0,-1,825,778,0,0
-392,246,0,0,0,0,0,0,0,0,0,-1,832,778,0,0
-385,246,0,0,0,0,0,0,0,0,0,-1,839,778,0,0
-378,246,0,0,0,0,0,0,0,0,0,-1,846,778,0,0
-371,246,0,0,0,0,0,0,0,0,0,-1,853,778,0,0
-364,246,0,0,0,0,0,0,0,0,0,-1,860,778,0,0
-357,246,0,0,0,0,0,0,0,0,0,-1,867,778,0,0
-350,246,0,0,0,0,0,0,0,0,0,-1,874,778,0,0
-343,246,0,0,0,0,0,0,0,0,0,-1,881,778,0,0
-336,246,0,0,0,0,0,0,0,0,0,-1,888,778,0,0
-329,246,0,0,0,0,0,0,0,0,0,-1,895,778,0,0
-322,246,0,0,0,0,0,0,0,0,0,-1,902,778,0,0
-315,246,0,0,0,0,0,0,0,0,0,-1,909,778,0,0
-308,246,0,0,0,0,0,0,0,0,0,-1,916,778,0,0
-301,246,0,0,0,0,0,0,0,0,0,-1,923,778,0,0
-294,246,0,0,0,0,0,0,0,0,0,-1,930,778,0,0
-287,246,0,0,0,0,0,0,0,0,0,-1,937,778,0,0
-280,246,0,0,0,0,0,0,0,0,0,-1,944,778,0,0
-273,246,0,0,0,0,0,0,0,0,0,-1,951,778,0,0
-266,246,0,0,0,0,0,0,0,0,0,-1,958,778,0,0
-259,246,0,0,0,0,0,0,0,0,0,-1,965,778,0,0
-252,246,0,0,0,0,0,0,0,0,0,-1,972,778,0,0
-245,246,0,0,0,0,0,0,0,0,0,-1,979,778,0,0
-238,246,0,0,0,0,0,0,0,0,0,-1,986,778,0,0
-231,246,0,0,0,0,0,0,0,0,0,-1,993,778,0,0
-224,246,0,0,0,0,0,0,0,0,0,-1,1000,778,0,0
-217,246,0,0,0,0,0,0,0,0,0,-1,1007,778,0,0
-210,246,0,0,0,0,0,0,0,0,0,-1,1014,778,0,0
-203,246,0,0,0,0,0,0,0,0,0,-1,1021,778,0,0
-196,246,0,0,0,0,0,0,0,0,0,-1,1028,778,0,0
-189,246,0,0,0,0,0,0,0,0,0,-1,1035,778,0,0
-182,246,0,0,0,0,0,0,0,0,0,-1,1042,778,0,0
-175,246,0,0,0,0,0,0,0,0,0,-1,1049,778,0,0
-168,246,0,0,0,0,0,0,0,0,0,-1,1056,778,0,0
-161,246,0,0,0,0,0,0,0,0,0,-1,1063,778,0,0
-154,246,0,0,0,0,0,0,0,0,0,-1,1070,778,0,0
-147,246,0,0,0,0,0,0,0,0,0,-1,1077,778,0,0
-140,246,0,0,0,0,0,0,0,0,0,-1,1084,778,0,0
-133,246,0,0,0,0,0,0,0,0,0,-1,1091,778,0,0
-126,246,0,0,0,0,0,0,0,0,0,-1,1098,778,0,0
-119,246,0,0,0,0,0,0,0,0,0,-1,1105,778,0,0
-112,246,0,0,0,0,0,0,0,0,0,-1,1112,778,0,0
-105,246,0,0,0,0,0,0,0,0,0,-1,1119,778,0,0
-98,246,0,0,0,0,0,0,0,0,0,-1,1126,778,0,0
-91,246,0,0,0,0,0,0,0,0,0,-1,1133,778,0,0
-84,246,0,0,0,0,0,0,0,0,0,-1,1140,778,0,0
-77,246,0,0,0,0,0,0,0,0,0,-1,1147,778,0,0
-70,246,0,0,0,0,0,0,0,0,0,-1,1154,778,0,0
-63,246,0,0,0,0,0,0,0,0,0,-1,1161,778,0,0
-56,246,0,0,0,0,0,0,0,0,0,-1,1168,778,0,0
-49,246,0,0,0,0,0,0,0,0,0,-1,1175,778,0,0
-42,246,0,0,0,0,0,0,0,0,0,-1,1182,778,0,0
-35,246,0,0,0,0,0,0,0,0,0,-1,1189,778,0,0
-28,246,0,0,0,0,0,0,0,0,0,-1,1196,778,0,0
-21,246,0,0,0,0,0,0,0,0,0,-1,1203,778,0,0
-14,246,0,0,0,0,0,0,0,0,0,-1,1210,778,0,0
-7,246,0,0,0,0,0,0,0,0,0,-1,1217,778,0,0
0,246,0,0,0,0,0,0,0,0,0,-1,1224,778,0,0
7,246,0,0,0,0,0,0,0,0,0,-1,1231,778,0,0
14,246,0,0,0,0,0,0,0,0,0,-1,1238,778,0,0
21,246,0,0,0,0,0,0,0,0,0,-1,1245,778,0,0
28,246,0,0,0,0,0,0,0,0,0,-1,1252,778,0,0
35,246,0,0,0,0,0,0,0,0,0,-1,1259,778,0,0
42,246,0,0,0,0,0,0,0,0,0,-1,1266,778,0,0
49,246,0,0,0,0,0,0,0,0,0,-1,1273,778,0,0
56,246,0,0,0,0,0,0,0,0,0,-1,1280,778,0,0
63,246,0,0,0,0,0,0,0,0,0,-1,1287,778,0,0
70,246,0,0,0,0,0,0,0,0,0,-1,1294,778,0,0
77,246,0,0,0,0,0,0,0,0,0,-1,1301,778,0,0
84,246,0,0,0,0,0,0,0,0,0,-1,1308,778,0,0
91,246,0,0,0,0,0,0,0,0,0,-1,1315,778,0,0
98,246,0,0,0,0,0,0,0,0,0,-1,1322,778,0,0
105,246,0,0,0,0,0,0,0,0,0,-1,1329,778,0,0
112,246,0,0,0,0,0,0,0,0,0,-1,1336,778,0,0
119,246,0,0,0,0,0,0,0,0,0,-1,1343,778,0,0
126,246,0,0,0,0,0,0,0,0,0,-1,1350,778,0,0
133,246,0,0,0,0,0,0,0,0,0,-1,1357,778,0,0
140,246,0,0,0,0,0,0,0,0,0,-1,1364,778,0,0
147,246,0,0,0,0,0,0,0,0,0,-1,1371,778,0,0
154,246,0,0,0,0,0,0,0,0,0,-1,1378,778,0,0
161,246,0,0,0,0,0,0,0,0,0,-1,1385,778,0,0
168,246,0,0,0,0,0,0,0,0,0,-1,1392,778,0,0
175,246,0,0,0,0,0,0,0,0,0,-1,1399,778,0,0
182,246,0,0,0,0,0,0,0,0,0,-1,1406,778,0,0
189,246,0,0,0,0,0,0,0,0,0,-1,1413,778,0,0
196,246,0,0,0,0,0,0,0,0,0,-1,1420,778,0,0
203,246,0,0,0,0,0,0,0,0,0,-1,1427,778,0,0
210,246,0,0,0,0,0,0,0,0,0,-1,1434,778,0,0
217,246,0,0,0,0,0,0,0,0,0,-1,1441,778,0,0
224,246,0,0,0,0,0,0,0,0,0,-1,1448,778,0,0
231,246,0,0,0,0,0,0,0,0,0,-1,1455,778,0,0
238,246,0,0,0,0,0,0,0,0,0,-1,1462,778,0,0
245,246,0,0,0,0,0,0,0,0,0,-1,1469,778,0,0
252,246,0,0,0,0,0,0,0,0,0,-1,1476,778,0,0
259,246,0,0,0,0,0,0,0,0,0,-1,1483,778,0,0
266,246,0,0,0,0,0,0,0,0,0,-1,1490,778,0,0
273,246,0,0,0,0,0,0,0,0,0,-1,1497,778,0,0
280,246,0,0,0,0,0,0,0,0,0,-1,1504,778,0,0
287,246,0,0,0,0,0,0,0,0,0,-1,1511,778,0,0
294,246,0,0,0,0,0,0,0,0,0,-1,1518,778,0,0
301,246,0,0,0,0,0,0,0,0,0,-1,1525,778,0,0
308,246,0,0,0,0,0,0,0,0,0,-1,1532,778,0,0
315,246,0,0,0,0,0,0,0,0,0,-1,1539,778,0,0
322,246,0,0,0,0,0,0,0,0,0,-1,1546,778,0,0
329,246,0,0,0,0,0,0,0,0,0,-1,1553,778,0,0
336,246,0,0,0,0,0,0,0,0,0,-1,1560,778,0,0
343,246,0,0,0,0,0,0,0,0,0,-1,1567,778,0,0
350,246,0,0,0,0,0,0,0,0,0,-1,1574,778,0,0
357,246,0,0,0,0,0,0,0,0,0,-1,1581,778,0,0
364,246,0,0,0,0,0,0,0,0,0,-1,1588,778,0,0
371,246,0,0,0,0,0,0,0,0,0,-1,1595,778,0,0
378,246,0,0,0,0,0,0,0,0,0,-1,1602,778,0,0
385,246,0,0,0,0,0,0,0,0,0,-1,1609,778,0,0
392,246,0,0,0,0,0,0,0,0,0,-1,1616,778,0,0
399,246,0,0,0,0,0,0,0,0,0,-1,1623,778,0,0
406,246,0,0,0,0,0,0,0,0,0,-1,1630,778,0,0
413,246,0,0,0,0,0,0,0,0,0,-1,1637,778,0,0
420,246,0,0,0,0,0,0,0,0,0,-1,1644,778,0,0
427,246,0,0,0,0,0,0,0,0,0,-1,1651,778,0,0
434,246,0,0,0,0,0,0,0,0,0,-1,1658,778,0,0
441,246,0,0,0,0,0,0,0,0,0,-1,1665,778,0,0
448,246,0,0,0,0,0,0,0,0,0,-1,1672,778,0,0
455,246,0,0,0,0,0,0,0,0,0,-1,1679,778,0,0
462,246,0,0,0,0,0,0,0,0,0,-1,1686,778,0,0
469,246,0,0,0,0,0,0,0,0,0,-1,1693,778,0,0
476,246,0,0,0,0,0,0,0,0,0,-1,1700,778,0,0
483,246,0,0,0,0,0,0,0,0,0,-1,1707,778,0,0
490,246,0,0,0,0,0,0,0,0,0,-1,1714,778,0,0
497,246,0,0,0,0,0,0,0,0,0,-1,1721,778,0,0
504,246,0,0,0,0,0,0,0,0,0,-1,1728,778,0,0
511,246,0,0,0,0,0,0,0,0,0,-1,1735,778,0,0
518,246,0,0,0,0,0,0,0,0,0,-1,1742,778,0,0
525,246,0,0,0,0,0,0,0,0,0,-1,1749,778,0,0
532,246,0,0,0,0,0,0,0,0,0,-1,1756,778,0,0
539,246,0,0,0,0,0,0,0,0,0,-1,1763,778,0,0
546,246,0,0,0,0,0,0,0,0,0,-1,1770,778,0,0
553,246,0,0,0,0,0,0,0,0,0,-1,1777,778,0,0
560,246,0,0,0,0,0,0,0,0,0,-1,1784,778,0,0
567,246,0,0,0,0,0,0,0,0,0,-1,1791,778,0,0
574,246,0,0,0,0,0,0,0,0,0,-1,1798,778,0,0
581,246,18.7905,2.87952,0.0135894,0.00282324,-0.00525243,0.0157273,0.000685312,-0.386557,0.0102641,0.0358537,1805,778,18.7905,-2.87951
588,246,18.887,2.79187,0.0141937,-0.00367749,-0.00467918,0.0153447,-0.00482849,-0.241196,0.0121631,0.0392348,1812,778,18.887,-2.79186
595,246,19.2069,2.56415,0.0131343,-0.0070985,-0.00411721,0.0139401,-0.00790423,-0.193256,0.0127713,0.0395192,1819,778,19.2069,-2.56413
602,246,19.2683,2.5213,0.0106164,-0.00861085,-0.00381783,0.0113467,-0.00934119,-0.189014,0.0119629,0.0403264,1826,778,19.2683,-2.52128
609,246,19.2551,2.16083,0.00752384,-0.00881007,-0.00412552,0.0085067,-0.00979293,-0.233879,0.010574,0.0431771,1833,778,19.2552,-2.16082
616,246,16.9883,0.827209,0,0,0,0,0,0,0,-1,1840,778,16.9883,-0.827239
623,246,16.2737,0.612732,0,0,0,0,0,0,0,-1,1847,778,16.2737,-0.612731
630,246,15.4562,0.355286,0,0,0,0,0,0,0,-1,1854,778,15.4562,-0.35531
637,246,14.2639,0.598755,0,0,0,0,0,0,0,-1,1861,778,14.2639,-0.598754
644,246,14.0328,0.944092,-0.00370327,-0.00437425,-0.00538113,0.00135281,-0.00943033,-0.754266,0.00678295,0.0496892,1868,778,14.0329,-0.944117
651,246,13.7592,1.25104,-0.00488721,-0.0032102,-0.00533831,0.00135505,-0.00945247,-0.863298,0.00679849,0.0292278,1875,778,13.7592,-1.25101
658,246,13.7167,1.45782,-0.00529992,-0.00195718,-0.0053094,0.00193771,-0.00919481,-0.937885,0.00686751,0.0191064,1882,778,13.7167,-1.45781
665,246,13.7253,1.64203,-0.00499195,-0.000901861,-0.00512144,0.00256775,-0.00846156,-0.975354,0.00666395,0.0202588,1889,778,13.7253,-1.64202
672,246,13.7128,1.87164,-0.00364181,-0.000570738,-0.00447642,0.00262619,-0.00683874,-0.950623,0.0056421,0.0203491,1896,778,13.7127,-1.87167
679,246,13.7283,2.06464,-0.00160966,-0.000363481,-0.0037863,0.00285065,-0.0048238,-0.86695,0.0044794,0.0202361,1903,778,13.7283,-2.06466
686,246,13.7574,2.2597,0.000652993,5.6066e-05,-0.0032837,0.00365177,-0.00294271,-0.740076,0.00381465,0.0204394,1910,778,13.7575,-2.25969
693,246,13.7467,2.46533,0.0028471,0.000129833,-0.00329106,0.00504894,-0.00207201,-0.589641,0.00422934,0.0163441,1917,778,13.7468,-2.46533
700,246,13.7317,2.68365,0.00578517,0.000704937,-0.00351818,0.00758439,-0.00109428,-0.47273,0.00545771,0.0136571,1924,778,13.7317,-2.68365
707,246,13.7456,2.87866,0.0104485,0.00152149,-0.00381647,0.0118577,0.000112324,-0.353705,0.00786797,0.0127655,1931,778,13.7456,-2.87866
714,246,13.7264,3.07806,0.0170296,0.00254884,-0.00396332,0.0180434,0.00153507,-0.250418,0.0115513,0.0120808,1938,778,13.7264,-3.07809
721,246,13.7317,3.27661,0.0249985,0.00344978,-0.00418343,0.0257822,0.00266612,-0.185179,0.0163719,0.0175364,1945,778,13.7317,-3.2766
728,246,13.8285,3.14972,0,0,0,0,0,0,0,-1,1952,778,13.8284,-3.14969
735,246,14.3297,2.27112,0,0,0,0,0,0,0,-1,1959,778,14.3297,-2.27113
742,246,14.604,1.95392,0,0,0,0,0,0,0,-1,1966,778,14.604,-1.95394
749,246,13.7891,4.02997,0,0,0,0,0,0,0,-1,1973,778,13.7891,-4.02996
756,246,13.2834,4.66998,0,0,0,0,0,0,0,-1,1980,778,13.2835,-4.66999
763,246,0,0,0,0,0,0,0,0,0,-1,1987,778,0,0
770,246,0,0,0,0,0,0,0,0,0,-1,1994,778,0,0
777,246,0,0,0,0,0,0,0,0,0,-1,2001,778,0,0
784,246,0,0,0,0,0,0,0,0,0,-1,2008,778,0,0
791,246,0,0,0,0,0,0,0,0,0,-1,2015,778,0,0
798,246,0,0,0,0,0,0,0,0,0,-1,2022,778,0,0
805,246,0,0,0,0,0,0,0,0,0,-1,2029,778,0,0
812,246,0,0,0,0,0,0,0,0,0,-1,2036,778,0,0
-700,239,0,0,0,0,0,0,0,0,0,-1,524,785,0,0
-693,239,0,0,0,0,0,0,0,0,0,-1,531,785,0,0
-686,239,0,0,0,0,0,0,0,0,0,-1,538,785,0,0
-679,239,0,0,0,0,0,0,0,0,0,-1,545,785,0,0
-672,239,0,0,0,0,0,0,0,0,0,-1,552,785,0,0
-665,239,0,0,0,0,0,0,0,0,0,-1,559,785,0,0
-658,239,0,0,0,0,0,0,0,0,0,-1,566,785,0,0
-651,239,0,0,0,0,0,0,0,0,0,-1,573,785,0,0
-644,239,0,0,0,0,0,0,0,0,0,-1,580,785,0,0
-637,239,-8.56787,0.564636,0.0276081,-0.053219,-0.0395596,0.0437473,-0.0693582,-0.38736,0.0658572,0.0487499,587,785,-8.56786,-0.564625
-630,239,-8.47809,0.293762,0.0187121,-0.0470619,-0.0353919,0.034138,-0.0624879,-0.411034,0.0565817,0.0484488,594,785,-8.47807,-0.293745
-623,239,-9.15936,0.60083,0.0124395,-0.0403251,-0.0302434,0.0261906,-0.0540762,-0.42674,0.0472651,0.0446351,601,785,-9.15934,-0.600803
-616,239,-9.38995,0.432068,0.00811383,-0.0335766,-0.0247533,0.0196298,-0.0450927,-0.435448,0.0383194,0.0432087,608,785,-9.38993,-0.432087
-609,239,-9.68811,0.244385,0.00523804,-0.0271977,-0.0193901,0.0142985,-0.0362582,-0.437126,0.0300928,0.0469134,615,785,-9.68811,-0.244414
-602,239,-8.28162,1.4043,0,0,0,0,0,0,0,-1,622,785,-8.2816,-1.40433
-595,239,-8.27216,1.21484,0.00195681,-0.0166207,-0.0101848,0.00645248,-0.0211164,-0.415689,0.0166505,0.0399203,629,785,-8.27215,-1.21486
-588,239,-8.28296,1.00537,0.00075431,-0.0122356,-0.00684246,0.00369353,-0.0151748,-0.405724,0.0115464,0.0173638,636,785,-8.28298,-1.00538
-581,239,-8.32983,0.818848,6.20219e-05,-0.00824444,-0.00389171,0.00160043,-0.00978285,-0.376451,0.00711563,0.0107222,643,785,-8.32981,-0.818818
-574,239,-8.34607,0.616089,-0.000614058,-0.00560576,-0.0018494,-3.53833e-06,-0.00621628,-0.318854,0.00414301,0.0116111,650,785,-8.34604,-0.616106
-567,239,-8.37976,0.421875,-0.00110582,-0.00395164,0.000244726,-0.00108493,-0.00397254,0.0851616,0.00237095,0.0128834,657,785,-8.37978,-0.421865
-560,239,-8.35925,0.268799,-0.0017041,-0.0030768,0.00220012,-8.57634e-05,-0.00469514,0.634202,0.0031019,0.013109,664,785,-8.35925,-0.268822
-553,239,-8.32324,0.106079,-0.00265676,-0.00309431,0.00349163,0.00062294,-0.00637401,0.754111,0.00447147,0.0133595,671,785,-8.32324,-0.106086
-546,239,-8.35669,-0.0849609,-0.0047905,-0.0033976,0.00469571,0.000653029,-0.00884113,0.85902,0.00612338,0.0135729,678,785,-8.35669,0.0849867
-539,239,-8.36334,-0.282593,-0.00619903,-0.00441875,0.006293,0.00104675,-0.0116645,0.855656,0.00814771,0.0151629,685,785,-8.36333,0.282576
-532,239,-8.32861,-0.472717,-0.00764435,-0.00531732,0.00783966,0.00144469,-0.0144064,0.859067,0.0101202,0.0131649,692,785,-8.32861,0.472717
-525,239,-8.32678,-0.634033,-0.00810891,-0.00677871,0.00935212,0.00193194,-0.0168195,0.820897,0.0119094,0.0148332,699,785,-8.32681,0.634032
-518,239,-8.32904,-0.753662,-0.00776095,-0.0075577,0.0102849,0.0026261,-0.0179448,0.790339,0.0129278,0.0346631,706,785,-8.32907,0.753642
-511,239,-8.62341,-0.769653,-0.0066549,-0.00835086,0.0109229,0.00345286,-0.0184586,0.746659,0.0136036,0.0432467,713,785,-8.62342,0.769675
-504,239,-8.89801,-0.772583,0,0,0,0,0,0,0,-1,720,785,-8.89803,0.772609
-497,239,-8.92682,-1.27643,-0.00304726,-0.010425,0.011274,0.00512599,-0.0185983,0.627287,0.0144146,0.0481748,727,785,-8.92683,1.27641
-490,239,-10.5385,-0.750427,0,0,0,0,0,0,0,-1,734,785,-10.5385,0.750404
-483,239,-12.0616,0.141479,0,0,0,0,0,0,0,-1,741,785,-12.0616,-0.14148
-476,239,-12.6633,0.795105,0.00916178,-0.0139091,0.00613474,0.0106916,-0.0154389,0.244388,0.0151692,0.0380703,748,785,-12.6633,-0.795078
-469,239,-12.5629,0.848694,0.0145126,-0.0153084,0.00206336,0.0146547,-0.0154505,0.0687551,0.0173832,0.0422747,755,785,-12.5629,-0.848664
-462,239,-12.53,0.870605,0.0193158,-0.0175367,-0.00369581,0.0196828,-0.0179037,-0.0989733,0.0217087,0.0476515,762,785,-12.53,-0.870627
-455,239,0,0,0,0,0,0,0,0,0,-1,769,785,0,0
-448,239,0,0,0,0,0,0,0,0,0,-1,776,785,0,0
-441,239,0,0,0,0,0,0,0,0,0,-1,783,785,0,0
-434,239,0,0,0,0,0,0,0,0,0,-1,790,785,0,0
-427,239,0,0,0,0,0,0,0,0,0,-1,797,785,0,0
-420,239,0,0,0,0,0,0,0,0,0,-1,804,785,0,0
-413,239,0,0,0,0,0,0,0,0,0,-1,811,785,0,0
-406,239,0,0,0,0,0,0,0,0,0,-1,818,785,0,0
-399,239,0,0,0,0,0,0,0,0,0,-1,825,785,0,0
-392,239,0,0,0,0,0,0,0,0,0,-1,832,785,0,0
-385,239,0,0,0,0,0,0,0,0,0,-1,839,785,0,0
-378,239,0,0,0,0,0,0,0,0,0,-1,846,785,0,0
-371,239,0,0,0,0,0,0,0,0,0,-1,853,785,0,0
-364,239,0,0,0,0,0,0,0,0,0,-1,860,785,0,0
-357,239,0,0,0,0,0,0,0,0,0,-1,867,785,0,0
-350,239,0,0,0,0,0,0,0,0,0,-1,874,785,0,0
-343,239,0,0,0,0,0,0,0,0,0,-1,881,785,0,0
-336,239,0,0,0,0,0,0,0,0,0,-1,888,785,0,0
-329,239,0,0,0,0,0,0,0,0,0,-1,895,785,0,0
-322,239,0,0,0,0,0,0,0,0,0,-1,902,785,0,0
-315,239,0,0,0,0,0,0,0,0,0,-1,909,785,0,0
-308,239,0,0,0,0,0,0,0,0,0,-1,916,785,0,0
-301,239,0,0,0,0,0,0,0,0,0,-1,923,785,0,0
-294,239,0,0,0,0,0,0,0,0,0,-1,930,785,0,0
-287,239,0,0,0,0,0,0,0,0,0,-1,937,785,0,0
-280,239,0,0,0,0,0,0,0,0,0,-1,944,785,0,0
-273,239,0,0,0,0,0,0,0,0,0,-1,951,785,0,0
-266,239,0,0,0,0,0,0,0,0,0,-1,958,785,0,0
-259,239,0,0,0,0,0,0,0,0,0,-1,965,785,0,0
-252,239,0,0,0,0,0,0,0,0,0,-1,972,785,0,0
-245,239,0,0,0,0,0,0,0,0,0,-1,979,785,0,0
-238,239,0,0,0,0,0,0,0,0,0,-1,986,785,0,0
-231,239,0,0,0,0,0,0,0,0,0,-1,993,785,0,0
-224,239,0,0,0,0,0,0,0,0,0,-1,1000,785,0,0
-217,239,0,0,0,0,0,0,0,0,0,-1,1007,785,0,0
-210,239,0,0,0,0,0,0,0,0,0,-1,1014,785,0,0
-203,239,0,0,0,0,0,0,0,0,0,-1,1021,785,0,0
-196,239,0,0,0,0,0,0,0,0,0,-1,1028,785,0,0
-189,239,0,0,0,0,0,0,0,0,0,-1,1035,785,0,0
-182,239,0,0,0,0,0,0,0,0,0,-1,1042,785,0,0
-175,239,0,0,0,0,0,0,0,0,0,-1,1049,785,0,0
-168,239,0,0,0,0,0,0,0,0,0,-1,1056,785,0,0
-161,239,0,0,0,0,0,0,0,0,0,-1,1063,785,0,0
-154,239,0,0,0,0,0,0,0,0,0,-1,1070,785,0,0
-147,239,0,0,0,0,0,0,0,0,0,-1,1077,785,0,0
-140,239,0,0,0,0,0,0,0,0,0,-1,1084,785,0,0
-133,239,0,0,0,0,0,0,0,0,0,-1,1091,785,0,0
-126,239,0,0,0,0,0,0,0,0,0,-1,1098,785,0,0
-119,239,0,0,0,0,0,0,0,0,0,-1,1105,785,0,0
-112,239,0,0,0,0,0,0,0,0,0,-1,1112,785,0,0
-105,239,0,0,0,0,0,0,0,0,0,-1,1119,785,0,0
-98,239,0,0,0,0,0,0,0,0,0,-1,1126,785,0,0
-91,239,0,0,0,0,0,0,0,0,0,-1,1133,785,0,0
-84,239,0,0,0,0,0,0,0,0,0,-1,1140,785,0,0
-77,239,0,0,0,0,0,0,0,0,0,-1,1147,785,0,0
-70,239,0,0,0,0,0,0,0,0,0,-1,1154,785,0,0
-63,239,0,0,0,0,0,0,0,0,0,-1,1161,785,0,0
-56,239,0,0,0,0,0,0,0,0,0,-1,1168,785,0,0
-49,239,0,0,0,0,0,0,0,0,0,-1,1175,785,0,0
-42,239,0,0,0,0,0,0,0,0,0,-1,1182,785,0,0
-35,239,0,0,0,0,0,0,0,0,0,-1,1189,785,0,0
-28,239,0,0,0,0,0,0,0,0,0,-1,1196,785,0,0
-21,239,0,0,0,0,0,0,0,0,0,-1,1203,785,0,0
-14,239,0,0,0,0,0,0,0,0,0,-1,1210,785,0,0
-7,239,0,0,0,0,0,0,0,0,0,-1,1217,785,0,0
0,239,0,0,0,0,0,0,0,0,0,-1,1224,785,0,0
7,239,0,0,0,0,0,0,0,0,0,-1,1231,785,0,0
14,239,0,0,0,0,0,0,0,0,0,-1,1238,785,0,0
21,239,0,0,0,0,0,0,0,0,0,-1,1245,785,0,0
28,239,0,0,0,0,0,0,0,0,0,-1,1252,785,0,0
35,239,0,0,0,0,0,0,0,0,0,-1,1259,785,0,0
42,239,0,0,0,0,0,0,0,0,0,-1,1266,785,0,0
49,239,0,0,0,0,0,0,0,0,0,-1,1273,785,0,0
56,239,0,0,0,0,0,0,0,0,0,-1,1280,785,0,0
63,239,0,0,0,0,0,0,0,0,0,-1,1287,785,0,0
70,239,0,0,0,0,0,0,0,0,0,-1,1294,785,0,0
77,239,0,0,0,0,0,0,0,0,0,-1,1301,785,0,0
84,239,0,0,0,0,0,0,0,0,0,-1,1308,785,0,0
91,239,0,0,0,0,0,0,0,0,0,-1,1315,785,0,0
98,239,0,0,0,0,0,0,0,0,0,-1,1322,785,0,0
105,239,0,0,0,0,0,0,0,0,0,-1,1329,785,0,0
112,239,0,0,0,0,0,0,0,0,0,-1,1336,785,0,0
119,239,0,0,0,0,0,0,0,0,0,-1,1343,785,0,0
126,239,0,0,0,0,0,0,0,0,0,-1,1350,785,0,0
133,239,0,0,0,0,0,0,0,0,0,-1,1357,785,0,0
140,239,0,0,0,0,0,0,0,0,0,-1,1364,785,0,0
147,239,0,0,0,0,0,0,0,0,0,-1,1371,785,0,0
154,239,0,0,0,0,0,0,0,0,0,-1,1378,785,0,0
161,239,0,0,0,0,0,0,0,0,0,-1,1385,785,0,0
168,239,0,0,0,0,0,0,0,0,0,-1,1392,785,0,0
175,239,0,0,0,0,0,0,0,0,0,-1,1399,785,0,0
182,239,0,0,0,0,0,0,0,0,0,-1,1406,785,0,0
189,239,0,0,0,0,0,0,0,0,0,-1,1413,785,0,0
196,239,0,0,0,0,0,0,0,0,0,-1,1420,785,0,0
203,239,0,0,0,0,0,0,0,0,0,-1,1427,785,0,0
210,239,0,0,0,0,0,0,0,0,0,-1,1434,785,0,0
217,239,0,0,0,0,0,0,0,0,0,-1,1441,785,0,0
224,239,0,0,0,0,0,0,0,0,0,-1,1448,785,0,0
231,239,0,0,0,0,0,0,0,0,0,-1,1455,785,0,0
238,239,0,0,0,0,0,0,0,0,0,-1,1462,785,0,0
245,239,0,0,0,0,0,0,0,0,0,-1,1469,785,0,0
252,239,0,0,0,0,0,0,0,0,0,-1,1476,785,0,0
259,239,0,0,0,0,0,0,0,0,0,-1,1483,785,0,0
266,239,0,0,0,0,0,0,0,0,0,-1,1490,785,0,0
273,239,0,0,0,0,0,0,0,0,0,-1,1497,785,0,0
280,239,0,0,0,0,0,0,0,0,0,-1,1504,785,0,0
287,239,0,0,0,0,0,0,0,0,0,-1,1511,785,0,0
294,239,0,0,0,0,0,0,0,0,0,-1,1518,785,0,0
301,239,0,0,0,0,0,0,0,0,0,-1,1525,785,0,0
308,239,0,0,0,0,0,0,0,0,0,-1,1532,785,0,0
315,239,0,0,0,0,0,0,0,0,0,-1,1539,785,0,0
322,239,0,0,0,0,0,0,0,0,0,-1,1546,785,0,0
329,239,0,0,0,0,0,0,0,0,0,-1,1553,785,0,0
336,239,0,0,0,0,0,0,0,0,0,-1,1560,785,0,0
343,239,0,0,0,0,0,0,0,0,0,-1,1567,785,0,0
350,239,0,0,0,0,0,0,0,0,0,-1,1574,785,0,0
357,239,0,0,0,0,0,0,0,0,0,-1,1581,785,0,0
364,239,0,0,0,0,0,0,0,0,0,-1,1588,785,0,0
371,239,0,0,0,0,0,0,0,0,0,-1,1595,785,0,0
378,239,0,0,0,0,0,0,0,0,0,-1,1602,785,0,0
385,239,0,0,0,0,0,0,0,0,0,-1,1609,785,0,0
392,239,0,0,0,0,0,0,0,0,0,-1,1616,785,0,0
399,239,0,0,0,0,0,0,0,0,0,-1,1623,785,0,0
406,239,0,0,0,0,0,0,0,0,0,-1,1630,785,0,0
413,239,0,0,0,0,0,0,0,0,0,-1,1637,785,0,0
420,239,0,0,0,0,0,0,0,0,0,-1,1644,785,0,0
427,239,0,0,0,0,0,0,0,0,0,-1,1651,785,0,0
434,239,0,0,0,0,0,0,0,0,0,-1,1658,785,0,0
441,239,0,0,0,0,0,0,0,0,0,-1,1665,785,0,0
448,239,0,0,0,0,0,0,0,0,0,-1,1672,785,0,0
455,239,0,0,0,0,0,0,0,0,0,-1,1679,785,0,0
462,239,0,0,0,0,0,0,0,0,0,-1,1686,785,0,0
469,239,0,0,0,0,0,0,0,0,0,-1,1693,785,0,0
476,239,0,0,0,0,0,0,0,0,0,-1,1700,785,0,0
483,239,0,0,0,0,0,0,0,0,0,-1,1707,785,0,0
490,239,0,0,0,0,0,0,0,0,0,-1,1714,785,0,0
497,239,0,0,0,0,0,0,0,0,0,-1,1721,785,0,0
504,239,0,0,0,0,0,0,0,0,0,-1,1728,785,0,0
511,239,0,0,0,0,0,0,0,0,0,-1,1735,785,0,0
518,239,0,0,0,0,0,0,0,0,0,-1,1742,785,0,0
525,239,0,0,0,0,0,0,0,0,0,-1,1749,785,0,0
532,239,0,0,0,0,0,0,0,0,0,-1,1756,785,0,0
539,239,0,0,0,0,0,0,0,0,0,-1,1763,785,0,0
546,239,0,0,0,0,0,0,0,0,0,-1,1770,785,0,0
553,239,0,0,0,0,0,0,0,0,0,-1,1777,785,0,0
560,239,0,0,0,0,0,0,0,0,0,-1,1784,785,0,0
567,239,0,0,0,0,0,0,0,0,0,-1,1791,785,0,0
574,239,0,0,0,0,0,0,0,0,0,-1,1798,785,0,0
581,239,18.7876,2.93561,0.0124126,0.00486386,-0.00475581,0.0147098,0.00256669,-0.449974,0.00907279,0.0356479,1805,785,18.7876,-2.93561
588,239,18.8722,2.83948,0.0131201,-0.0022123,-0.00420929,0.0141997,-0.00329188,-0.251064,0.0107334,0.0373269,1812,785,18.8722,-2.83951
595,239,19.0177,2.62042,0.012227,-0.00604402,-0.0036236,0.0129194,-0.00673643,-0.188807,0.0115339,0.0342735,1819,785,19.0178,-2.62042
602,239,19.1417,2.60858,0.00957195,-0.00767616,-0.0035522,0.0102749,-0.00837908,-0.195359,0.0107884,0.036293,1826,785,19.1417,-2.60859
609,239,19.3151,2.51904,0.00634748,-0.00788394,-0.00411428,0.0074513,-0.00898776,-0.262117,0.0095049,0.0462477,1833,785,19.3151,-2.51905
616,239,19.2948,2.49792,0.0033023,-0.00734383,-0.00465307,0.00504931,-0.00909085,-0.359169,0.00827423,0.0480764,1840,785,19.2948,-2.49792
623,239,16.9175,1.15521,0,0,0,0,0,0,0,-1,1847,785,16.9175,-1.15519
630,239,16.0922,0.833191,-0.00117784,-0.00551713,-0.00544053,0.00250971,-0.00920467,-0.595665,0.00712197,0.0428552,1854,785,16.0922,-0.833217
637,239,15.0962,0.822937,0,0,0,0,0,0,0,-1,1861,785,15.0963,-0.822949
644,239,14.6115,1.23999,-0.00417262,-0.00347675,-0.00570423,0.00189015,-0.00953951,-0.815858,0.0070744,0.0499463,1868,785,14.6115,-1.24
651,239,14.1063,1.43182,-0.00514446,-0.00245289,-0.00567679,0.00203545,-0.00963281,-0.901784,0.00719695,0.0402755,1875,785,14.1063,-1.43185
658,239,13.9218,1.50031,-0.00547342,-0.00139304,-0.00572576,0.00264515,-0.00951161,-0.956544,0.00738248,0.0183222,1882,785,13.9217,-1.50031
665,239,13.9548,1.67871,-0.00521386,-0.000496981,-0.00559724,0.0032184,-0.00892925,-0.984789,0.0072672,0.013651,1889,785,13.9549,-1.67873
672,239,13.9246,1.8631,-0.0040494,-0.000275545,-0.0049749,0.00315825,-0.00748319,-0.966661,0.00631072,0.0190981,1896,785,13.9245,-1.86307
679,239,13.9554,2.09167,-0.00228025,-0.000284194,-0.00420157,0.00303626,-0.0056007,-0.902005,0.00505929,0.0204812,1903,785,13.9554,-2.09165
686,239,13.9758,2.31024,-0.000247762,-7.8945e-05,-0.00352574,0.0033634,-0.0036901,-0.797366,0.00407379,0.0222861,1910,785,13.9759,-2.31022
693,239,13.9714,2.46515,0.00162567,-0.000252545,-0.00333351,0.00414982,-0.0027767,-0.648098,0.00402514,0.0150614,1917,785,13.9715,-2.46516
700,239,13.9492,2.6781,0.0042672,0.00010033,-0.00328426,0.00607312,-0.00170559,-0.502744,0.00472112,0.0109983,1924,785,13.9493,-2.6781
707,239,13.9436,2.87976,0.00877301,0.000656193,-0.00322154,0.0098962,-0.000467003,-0.335473,0.00675852,0.0104413,1931,785,13.9436,-2.87976
714,239,13.9354,3.07019,0.0151125,0.00141178,-0.00317818,0.0158138,0.000710429,-0.217195,0.0103139,0.0101058,1938,785,13.9354,-3.07018
721,239,13.7532,3.45215,0,0,0,0,0,0,0,-1,1945,785,13.7532,-3.45217
728,239,14.2273,3.10413,0,0,0,0,0,0,0,-1,1952,785,14.2273,-3.1041
735,239,14.8312,2.53088,0,0,0,0,0,0,0,-1,1959,785,14.8312,-2.53087
742,239,15.1206,2.36267,0,0,0,0,0,0,0,-1,1966,785,15.1206,-2.36268
749,239,15.3589,2.22339,0,0,0,0,0,0,0,-1,1973,785,15.3589,-2.2234
756,239,16.6962,3.8158,0,0,0,0,0,0,0,-1,1980,785,16.6961,-3.81578
763,239,0,0,0,0,0,0,0,0,0,-1,1987,785,0,0
770,239,0,0,0,0,0,0,0,0,0,-1,1994,785,0,0
777,239,0,0,0,0,0,0,0,0,0,-1,2001,785,0,0
784,239,0,0,0,0,0,0,0,0,0,-1,2008,785,0,0
791,239,0,0,0,0,0,0,0,0,0,-1,2015,785,0,0
798,239,0,0,0,0,0,0,0,0,0,-1,2022,785,0,0
805,239,0,0,0,0,0,0,0,0,0,-1,2029,785,0,0
812,239,0,0,0,0,0,0,0,0,0,-1,2036,785,0,0
-700,232,0,0,0,0,0,0,0,0,0,-1,524,792,0,0
-693,232,0,0,0,0,0,0,0,0,0,-1,531,792,0,0
-686,232,0,0,0,0,0,0,0,0,0,-1,538,792,0,0
-679,232,0,0,0,0,0,0,0,0,0,-1,545,792,0,0
-672,232,0,0,0,0,0,0,0,0,0,-1,552,792,0,0
-665,232,0,0,0,0,0,0,0,0,0,-1,559,792,0,0
-658,232,0,0,0,0,0,0,0,0,0,-1,566,792,0,0
-651,232,0,0,0,0,0,0,0,0,0,-1,573,792,0,0
-644,232,-8.74866,1.33789,0.0475376,-0.0454011,-0.0319795,0.0574783,-0.0553418,-0.301376,0.0651406,0.0467364,580,792,-8.74866,-1.33791
-637,232,-8.46545,1.17456,0.033616,-0.0433574,-0.0303819,0.0441628,-0.0539042,-0.334126,0.0567121,0.0476503,587,792,-8.46544,-1.17459
-630,232,-8.38721,0.824219,0.023386,-0.0392733,-0.0270596,0.033454,-0.0493414,-0.356198,0.0480944,0.0459677,594,792,-8.38719,-0.824236
-623,232,-8.46204,0.65802,0.0159649,-0.0341642,-0.0230357,0.0249426,-0.0431419,-0.371622,0.039774,0.0452505,601,792,-8.46206,-0.658022
-616,232,-8.9776,0.768799,0.0107025,-0.0287027,-0.0187806,0.0182194,-0.0362197,-0.380722,0.031998,0.0431818,608,792,-8.97759,-0.768782
-609,232,-9.32672,0.671509,0.00707084,-0.0233721,-0.0146337,0.0129643,-0.0292655,-0.382857,0.0249795,0.0474079,615,792,-9.32671,-0.671536
-602,232,-8.75726,1.14496,0.0046026,-0.0184568,-0.0108384,0.00889711,-0.0227513,-0.377252,0.0188467,0.0498106,622,792,-8.75727,-1.14496
-595,232,-8.52887,1.17108,0.002757,-0.0144525,-0.00755572,0.00560348,-0.017299,-0.360288,0.0137855,0.0345693,629,792,-8.52886,-1.1711
-588,232,-8.5011,0.988647,0.00123434,-0.010673,-0.00500876,0.00306102,-0.0124997,-0.349707,0.00951897,0.0121544,636,792,-8.50108,-0.988667
-581,232,-8.51434,0.812073,0.000377949,-0.00717941,-0.00267105,0.00122668,-0.00802814,-0.307662,0.00580436,0.00857052,643,792,-8.51432,-0.812058
-574,232,-8.51923,0.635559,-0.000499554,-0.00494214,-0.00111006,-0.00023763,-0.00520407,-0.231717,0.00339294,0.00841402,650,792,-8.51923,-0.635541
-567,232,-8.53802,0.441345,-0.00112185,-0.00378219,0.00058862,-0.000997433,-0.00390661,0.208306,0.00234378,0.00977219,657,792,-8.53805,-0.441339
-560,232,-8.52655,0.270996,-0.001753,-0.003312,0.00235718,-4.97773e-05,-0.00501522,0.625712,0.00332701,0.0118939,664,792,-8.52656,-0.270973
-553,232,-8.52576,0.0892334,-0.00262784,-0.00360129,0.00362957,0.000547497,-0.00677662,0.718745,0.00471086,0.0123724,671,792,-8.52576,-0.0892295
-546,232,-8.58002,-0.102417,-0.0046852,-0.00419694,0.00492099,0.000485967,-0.00936811,0.810183,0.00641353,0.0191429,678,792,-8.58004,0.102433
-539,232,-8.59302,-0.288879,-0.00602428,-0.00537332,0.00654725,0.000856531,-0.0122541,0.810234,0.00846938,0.0241765,685,792,-8.59301,0.288863
-532,232,-8.53217,-0.466248,-0.00733408,-0.00638623,0.00806477,0.00121853,-0.0149388,0.814747,0.0103892,0.0157479,692,792,-8.53218,0.466253
-525,232,-8.55829,-0.622986,-0.00782481,-0.00778663,0.00952554,0.00171984,-0.0173313,0.7864,0.012168,0.0244057,699,792,-8.55826,0.622958
-518,232,-8.703,-0.718506,-0.00766527,-0.00856525,0.0104682,0.00236264,-0.0185932,0.763918,0.0132534,0.0474146,706,792,-8.70302,0.718502
-511,232,-8.83771,-0.842224,0,0,0,0,0,0,0,-1,713,792,-8.8377,0.842254
-504,232,-6.94806,-1.7558,0,0,0,0,0,0,0,-1,720,792,-6.94804,1.75581
-497,232,-8.21948,-1.93427,0,0,0,0,0,0,0,-1,727,792,-8.21951,1.93426
-490,232,-10.6447,-0.669434,0,0,0,0,0,0,0,-1,734,792,-10.6447,0.669405
-483,232,-12.5545,0.921509,0.00261384,-0.0116296,0.00823581,0.00638008,-0.0153958,0.428908,0.0129265,0.0419244,741,792,-12.5545,-0.92149
-476,232,-12.5448,0.809265,0.0074336,-0.0117667,0.00479551,0.0085647,-0.0128978,0.231634,0.0124753,0.0352314,748,792,-12.5448,-0.809243
-469,232,-12.5532,0.745972,0.0128262,-0.0118896,-0.000228187,0.0128283,-0.0118917,-0.00923137,0.0142755,0.0340604,755,792,-12.5532,-0.745953
-462,232,0,0,0,0,0,0,0,0,0,-1,762,792,0,0
-455,232,0,0,0,0,0,0,0,0,0,-1,769,792,0,0
-448,232,0,0,0,0,0,0,0,0,0,-1,776,792,0,0
-441,232,0,0,0,0,0,0,0,0,0,-1,783,792,0,0
-434,232,0,0,0,0,0,0,0,0,0,-1,790,792,0,0
-427,232,0,0,0,0,0,0,0,0,0,-1,797,792,0,0
-420,232,0,0,0,0,0,0,0,0,0,-1,804,792,0,0
-413,232,0,0,0,0,0,0,0,0,0,-1,811,792,0,0
-406,232,0,0,0,0,0,0,0,0,0,-1,818,792,0,0
-399,232,0,0,0,0,0,0,0,0,0,-1,825,792,0,0
-392,232,0,0,0,0,0,0,0,0,0,-1,832,792,0,0
-385,232,0,0,0,0,0,0,0,0,0,-1,839,792,0,0
-378,232,0,0,0,0,0,0,0,0,0,-1,846,792,0,0
-371,232,0,0,0,0,0,0,0,0,0,-1,853,792,0,0
-364,232,0,0,0,0,0,0,0,0,0,-1,860,792,0,0
-357,232,0,0,0,0,0,0,0,0,0,-1,867,792,0,0
-350,232,0,0,0,0,0,0,0,0,0,-1,874,792,0,0
-343,232,0,0,0,0,0,0,0,0,0,-1,881,792,0,0
-336,232,0,0,0,0,0,0,0,0,0,-1,888,792,0,0
-329,232,0,0,0,0,0,0,0,0,0,-1,895,792,0,0
-322,232,0,0,0,0,0,0,0,0,0,-1,902,792,0,0
-315,232,0,0,0,0,0,0,0,0,0,-1,909,792,0,0
-308,232,0,0,0,0,0,0,0,0,0,-1,916,792,0,0
-301,232,0,0,0,0,0,0,0,0,0,-1,923,792,0,0
-294,232,0,0,0,0,0,0,0,0,0,-1,930,792,0,0
-287,232,0,0,0,0,0,0,0,0,0,-1,937,792,0,0
-280,232,0,0,0,0,0,0,0,0,0,-1,944,792,0,0
-273,232,0,0,0,0,0,0,0,0,0,-1,951,792,0,0
-266,232,0,0,0,0,0,0,0,0,0,-1,958,792,0,0
-259,232,0,0,0,0,0,0,0,0,0,-1,965,792,0,0
-252,232,0,0,0,0,0,0,0,0,0,-1,972,792,0,0
-245,232,0,0,0,0,0,0,0,0,0,-1,979,792,0,0
-238,232,0,0,0,0,0,0,0,0,0,-1,986,792,0,0
-231,232,0,0,0,0,0,0,0,0,0,-1,993,792,0,0
-224,232,0,0,0,0,0,0,0,0,0,-1,1000,792,0,0
-217,232,0,0,0,0,0,0,0,0,0,-1,1007,792,0,0
-210,232,0,0,0,0,0,0,0,0,0,-1,1014,792,0,0
-203,232,0,0,0,0,0,0,0,0,0,-1,1021,792,0,0
-196,232,0,0,0,0,0,0,0,0,0,-1,1028,792,0,0
-189,232,0,0,0,0,0,0,0,0,0,-1,1035,792,0,0
-182,232,0,0,0,0,0,0,0,0,0,-1,1042,792,0,0
-175,232,0,0,0,0,0,0,0,0,0,-1,1049,792,0,0
-168,232,0,0,0,0,0,0,0,0,0,-1,1056,792,0,0
-161,232,0,0,0,0,0,0,0,0,0,-1,1063,792,0,0
-154,232,0,0,0,0,0,0,0,0,0,-1,1070,792,0,0
-147,232,0,0,0,0,0,0,0,0,0,-1,1077,792,0,0
-140,232,0,0,0,0,0,0,0,0,0,-1,1084,792,0,0
-133,232,0,0,0,0,0,0,0,0,0,-1,1091,792,0,0
-126,232,0,0,0,0,0,0,0,0,0,-1,1098,792,0,0
-119,232,0,0,0,0,0,0,0,0,0,-1,1105,792,0,0
-112,232,0,0,0,0,0,0,0,0,0,-1,1112,792,0,0
-105,232,0,0,0,0,0,0,0,0,0,-1,1119,792,0,0
-98,232,0,0,0,0,0,0,0,0,0,-1,1126,792,0,0
-91,232,0,0,0,0,0,0,0,0,0,-1,1133,792,0,0
-84,232,0,0,0,0,0,0,0,0,0,-1,1140,792,0,0
-77,232,0,0,0,0,0,0,0,0,0,-1,1147,792,0,0
-70,232,0,0,0,0,0,0,0,0,0,-1,1154,792,0,0
-63,232,0,0,0,0,0,0,0,0,0,-1,1161,792,0,0
-56,232,0,0,0,0,0,0,0,0,0,-1,1168,792,0,0
-49,232,0,0,0,0,0,0,0,0,0,-1,1175,792,0,0
-42,232,0,0,0,0,0,0,0,0,0,-1,1182,792,0,0
-35,232,0,0,0,0,0,0,0,0,0,-1,1189,792,0,0
-28,232,0,0,0,0,0,0,0,0,0,-1,1196,792,0,0
-21,232,0,0,0,0,0,0,0,0,0,-1,1203,792,0,0
-14,232,0,0,0,0,0,0,0,0,0,-1,1210,792,0,0
-7,232,0,0,0,0,0,0,0,0,0,-1,1217,792,0,0
0,232,0,0,0,0,0,0,0,0,0,-1,1224,792,0,0
7,232,0,0,0,0,0,0,0,0,0,-1,1231,792,0,0
14,232,0,0,0,0,0,0,0,0,0,-1,1238,792,0,0
21,232,0,0,0,0,0,0,0,0,0,-1,1245,792,0,0
28,232,0,0,0,0,0,0,0,0,0,-1,1252,792,0,0
35,232,0,0,0,0,0,0,0,0,0,-1,1259,792,0,0
42,232,0,0,0,0,0,0,0,0,0,-1,1266,792,0,0
49,232,0,0,0,0,0,0,0,0,0,-1,1273,792,0,0
56,232,0,0,0,0,0,0,0,0,0,-1,1280,792,0,0
63,232,0,0,0,0,0,0,0,0,0,-1,1287,792,0,0
70,232,0,0,0,0,0,0,0,0,0,-1,1294,792,0,0
77,232,0,0,0,0,0,0,0,0,0,-1,1301,792,0,0
84,232,0,0,0,0,0,0,0,0,0,-1,1308,792,0,0
91,232,0,0,0,0,0,0,0,0,0,-1,1315,792,0,0
98,232,0,0,0,0,0,0,0,0,0,-1,1322,792,0,0
105,232,0,0,0,0,0,0,0,0,0,-1,1329,792,0,0
112,232,0,0,0,0,0,0,0,0,0,-1,1336,792,0,0
119,232,0,0,0,0,0,0,0,0,0,-1,1343,792,0,0
126,232,0,0,0,0,0,0,0,0,0,-1,1350,792,0,0
133,232,0,0,0,0,0,0,0,0,0,-1,1357,792,0,0
140,232,0,0,0,0,0,0,0,0,0,-1,1364,792,0,0
147,232,0,0,0,0,0,0,0,0,0,-1,1371,792,0,0
154,232,0,0,0,0,0,0,0,0,0,-1,1378,792,0,0
161,232,0,0,0,0,0,0,0,0,0,-1,1385,792,0,0
168,232,0,0,0,0,0,0,0,0,0,-1,1392,792,0,0
175,232,0,0,0,0,0,0,0,0,0,-1,1399,792,0,0
182,232,0,0,0,0,0,0,0,0,0,-1,1406,792,0,0
189,232,0,0,0,0,0,0,0,0,0,-1,1413,792,0,0
196,232,0,0,0,0,0,0,0,0,0,-1,1420,792,0,0
203,232,0,0,0,0,0,0,0,0,0,-1,1427,792,0,0
210,232,0,0,0,0,0,0,0,0,0,-1,1434,792,0,0
217,232,0,0,0,0,0,0,0,0,0,-1,1441,792,0,0
224,232,0,0,0,0,0,0,0,0,0,-1,1448,792,0,0
231,232,0,0,0,0,0,0,0,0,0,-1,1455,792,0,0
238,232,0,0,0,0,0,0,0,0,0,-1,1462,792,0,0
245,232,0,0,0,0,0,0,0,0,0,-1,1469,792,0,0
252,232,0,0,0,0,0,0,0,0,0,-1,1476,792,0,0
259,232,0,0,0,0,0,0,0,0,0,-1,1483,792,0,0
266,232,0,0,0,0,0,0,0,0,0,-1,1490,792,0,0
273,232,0,0,0,0,0,0,0,0,0,-1,1497,792,0,0
280,232,0,0,0,0,0,0,0,0,0,-1,1504,792,0,0
287,232,0,0,0,0,0,0,0,0,0,-1,1511,792,0,0
294,232,0,0,0,0,0,0,0,0,0,-1,1518,792,0,0
301,232,0,0,0,0,0,0,0,0,0,-1,1525,792,0,0
308,232,0,0,0,0,0,0,0,0,0,-1,1532,792,0,0
315,232,0,0,0,0,0,0,0,0,0,-1,1539,792,0,0
322,232,0,0,0,0,0,0,0,0,0,-1,1546,792,0,0
329,232,0,0,0,0,0,0,0,0,0,-1,1553,792,0,0
336,232,0,0,0,0,0,0,0,0,0,-1,1560,792,0,0
343,232,0,0,0,0,0,0,0,0,0,-1,1567,792,0,0
350,232,0,0,0,0,0,0,0,0,0,-1,1574,792,0,0
357,232,0,0,0,0,0,0,0,0,0,-1,1581,792,0,0
364,232,0,0,0,0,0,0,0,0,0,-1,1588,792,0,0
371,232,0,0,0,0,0,0,0,0,0,-1,1595,792,0,0
378,232,0,0,0,0,0,0,0,0,0,-1,1602,792,0,0
385,232,0,0,0,0,0,0,0,0,0,-1,1609,792,0,0
392,232,0,0,0,0,0,0,0,0,0,-1,1616,792,0,0
399,232,0,0,0,0,0,0,0,0,0,-1,1623,792,0,0
406,232,0,0,0,0,0,0,0,0,0,-1,1630,792,0,0
413,232,0,0,0,0,0,0,0,0,0,-1,1637,792,0,0
420,232,0,0,0,0,0,0,0,0,0,-1,1644,792,0,0
427,232,0,0,0,0,0,0,0,0,0,-1,1651,792,0,0
434,232,0,0,0,0,0,0,0,0,0,-1,1658,792,0,0
441,232,0,0,0,0,0,0,0,0,0,-1,1665,792,0,0
448,232,0,0,0,0,0,0,0,0,0,-1,1672,792,0,0
455,232,0,0,0,0,0,0,0,0,0,-1,1679,792,0,0
462,232,0,0,0,0,0,0,0,0,0,-1,1686,792,0,0
469,232,0,0,0,0,0,0,0,0,0,-1,1693,792,0,0
476,232,0,0,0,0,0,0,0,0,0,-1,1700,792,0,0
483,232,0,0,0,0,0,0,0,0,0,-1,1707,792,0,0
490,232,0,0,0,0,0,0,0,0,0,-1,1714,792,0,0
497,232,0,0,0,0,0,0,0,0,0,-1,1721,792,0,0
504,232,0,0,0,0,0,0,0,0,0,-1,1728,792,0,0
511,232,0,0,0,0,0,0,0,0,0,-1,1735,792,0,0
518,232,0,0,0,0,0,0,0,0,0,-1,1742,792,0,0
525,232,0,0,0,0,0,0,0,0,0,-1,1749,792,0,0
532,232,0,0,0,0,0,0,0,0,0,-1,1756,792,0,0
539,232,0,0,0,0,0,0,0,0,0,-1,1763,792,0,0
546,232,0,0,0,0,0,0,0,0,0,-1,1770,792,0,0
553,232,0,0,0,0,0,0,0,0,0,-1,1777,792,0,0
560,232,0,0,0,0,0,0,0,0,0,-1,1784,792,0,0
567,232,0,0,0,0,0,0,0,0,0,-1,1791,792,0,0
574,232,0,0,0,0,0,0,0,0,0,-1,1798,792,0,0
581,232,0,0,0,0,0,0,0,0,0,-1,1805,792,0,0
588,232,18.8943,2.92621,0.0112976,0.000242989,-0.00323841,0.0121764,-0.000635829,-0.264991,0.00833765,0.0371015,1812,792,18.8943,-2.92619
595,232,18.9648,2.72198,0.0109185,-0.00404237,-0.00259413,0.0113555,-0.00447941,-0.166905,0.00942525,0.034988,1819,792,18.9649,-2.72196
602,232,18.9835,2.62085,0.00852272,-0.00601018,-0.00258757,0.00896969,-0.00645715,-0.171049,0.00894598,0.0357672,1826,792,18.9835,-2.62085
609,232,19.1266,2.59998,0.00532785,-0.00636481,-0.00354012,0.00631614,-0.0073531,-0.272237,0.00789951,0.0393899,1833,792,19.1266,-2.59997
616,232,19.3276,2.54767,0.00233485,-0.00591704,-0.00440564,0.00424488,-0.00782708,-0.409085,0.00707129,0.0411218,1840,792,19.3276,-2.54767
623,232,18.3621,2.28741,0,0,0,0,0,0,0,-1,1847,792,18.362,-2.28741
630,232,17.4585,1.63348,0,0,0,0,0,0,0,-1,1854,792,17.4585,-1.6335
637,232,15.4929,1.32581,0,0,0,0,0,0,0,-1,1861,792,15.493,-1.32579
644,232,14.9568,1.75439,0,0,0,0,0,0,0,-1,1868,792,14.9567,-1.7544
651,232,14.6235,2.18097,0,0,0,0,0,0,0,-1,1875,792,14.6236,-2.18097
658,232,14.156,1.54279,-0.00521123,-0.000693172,-0.00605556,0.00351101,-0.00941541,-0.963928,0.00771822,0.0243688,1882,792,14.156,-1.54279
665,232,14.1619,1.68842,-0.00492398,2.30127e-05,-0.00601247,0.0040509,-0.00895187,-0.980543,0.00768284,0.011927,1889,792,14.1619,-1.68843
672,232,14.1172,1.88403,-0.00394054,0.000149762,-0.00544423,0.00392031,-0.00771109,-0.96507,0.00683324,0.0176345,1896,792,14.1172,-1.88401
679,232,14.1525,2.11346,-0.00247848,-8.81428e-06,-0.00461717,0.0035358,-0.00602309,-0.916062,0.00558076,0.0185189,1903,792,14.1525,-2.11344
686,232,14.1761,2.32373,-0.000733968,3.06383e-05,-0.00378802,0.0034556,-0.00415893,-0.83569,0.00440249,0.0187742,1910,792,14.1762,-2.32371
693,232,14.1595,2.48486,0.000795428,-0.000313287,-0.003385,0.00367116,-0.00318902,-0.704234,0.00396399,0.0110688,1917,792,14.1596,-2.48485
700,232,14.1484,2.69049,0.0031253,-0.000120052,-0.00304393,0.00495205,-0.00194681,-0.540516,0.0041071,0.0126156,1924,792,14.1484,-2.69051
707,232,14.1604,2.89215,0.00745159,0.000264652,-0.00260626,0.00829722,-0.000580979,-0.313745,0.00573496,0.0126109,1931,792,14.1604,-2.89214
714,232,14.1553,3.07001,0.0135057,0.000845147,-0.00240682,0.0139478,0.000403042,-0.181664,0.00916716,0.0130321,1938,792,14.1553,-3.07001
721,232,14.1576,3.25165,0.0206599,0.000905954,-0.00245515,0.0209605,0.000605385,-0.121817,0.0137763,0.016658,1945,792,14.1576,-3.25165
728,232,14.453,3.1709,0,0,0,0,0,0,0,-1,1952,792,14.453,-3.17089
735,232,15.3745,2.80933,0,0,0,0,0,0,0,-1,1959,792,15.3745,-2.80933
742,232,15.6982,2.74377,0,0,0,0,0,0,0,-1,1966,792,15.6983,-2.74379
749,232,15.8348,2.71942,0,0,0,0,0,0,0,-1,1973,792,15.8349,-2.71945
756,232,16.377,3.66791,0.0958392,0.00379286,0.00635947,0.0962765,0.00335557,0.0686551,0.0630956,0.0464785,1980,792,16.377,-3.6679
763,232,17.0864,3.93848,0.119133,0.00371603,0.0108943,0.120153,0.00269671,0.0932928,0.0792182,0.0468037,1987,792,17.0865,-3.93849
770,232,0,0,0,0,0,0,0,0,0,-1,1994,792,0,0
777,232,0,0,0,0,0,0,0,0,0,-1,2001,792,0,0
784,232,0,0,0,0,0,0,0,0,0,-1,2008,792,0,0
791,232,0,0,0,0,0,0,0,0,0,-1,2015,792,0,0
798,232,0,0,0,0,0,0,0,0,0,-1,2022,792,0,0
805,232,0,0,0,0,0,0,0,0,0,-1,2029,792,0,0
812,232,0,0,0,0,0,0,0,0,0,-1,2036,792,0,0
-700,225,0,0,0,0,0,0,0,0,0,-1,524,799,0,0
-693,225,0,0,0,0,0,0,0,0,0,-1,531,799,0,0
-686,225,0,0,0,0,0,0,0,0,0,-1,538,799,0,0
-679,225,0,0,0,0,0,0,0,0,0,-1,545,799,0,0
-672,225,0,0,0,0,0,0,0,0,0,-1,552,799,0,0
-665,225,0,0,0,0,0,0,0,0,0,-1,559,799,0,0
-658,225,0,0,0,0,0,0,0,0,0,-1,566,799,0,0
-651,225,0,0,0,0,0,0,0,0,0,-1,573,799,0,0
-644,225,-8.79462,1.98596,0.0537589,-0.0334359,-0.0230957,0.0594986,-0.0391755,-0.243582,0.0573709,0.0490865,580,799,-8.7946,-1.98596
-637,225,-8.32983,1.60968,0.0386753,-0.0338505,-0.0219812,0.0448173,-0.0399924,-0.272469,0.0489913,0.0493016,587,799,-8.32985,-1.60967
-630,225,-8.2467,1.37439,0.02742,-0.0315915,-0.0195236,0.0332944,-0.037466,-0.292274,0.0408772,0.0493639,594,799,-8.24668,-1.37441
-623,225,-8.38562,1.1886,0.0190195,-0.0279764,-0.0165651,0.0242714,-0.0332284,-0.307023,0.0333315,0.0472841,601,799,-8.38563,-1.18861
-616,225,-8.55609,1.16077,0.012916,-0.0237547,-0.0134377,0.0173129,-0.0281516,-0.316228,0.0264964,0.049017,608,799,-8.55611,-1.16078
-609,225,-8.91345,1.12396,0.00858793,-0.0194671,-0.0103893,0.0120163,-0.0228955,-0.318741,0.02048,0.0485829,615,799,-8.91344,-1.12399
-602,225,-9.15387,0.952576,0.00558298,-0.0154375,-0.0076126,0.00805029,-0.0179048,-0.313425,0.015341,0.047459,622,799,-9.15388,-0.952548
-595,225,-8.75287,1.13385,0.00332113,-0.012243,-0.00519903,0.00489804,-0.0138199,-0.294489,0.0112086,0.0295674,629,799,-8.7529,-1.13383
-588,225,-8.69757,0.978577,0.00151157,-0.00909245,-0.00333369,0.00247253,-0.0100534,-0.280649,0.00766063,0.0122902,636,799,-8.69759,-0.978597
-581,225,-8.69409,0.808289,0.000466049,-0.00612356,-0.00159955,0.0008338,-0.00649131,-0.225981,0.00463056,0.0105385,643,799,-8.69406,-0.808301
-574,225,-8.7041,0.631531,-0.000611635,-0.00432912,-0.000432664,-0.000561943,-0.00437882,-0.11435,0.00275109,0.00844215,650,799,-8.70413,-0.631501
-567,225,-8.72937,0.427063,-0.00130966,-0.00365424,0.000898219,-0.00100511,-0.00395879,0.326896,0.00237611,0.0104185,657,799,-8.72936,-0.42708
-560,225,-8.73938,0.258362,-0.00189244,-0.00359439,0.00244478,-0.000154761,-0.00533206,0.617917,0.00350426,0.0104937,664,799,-8.73939,-0.258368
-553,225,-8.74274,0.0845337,-0.00261593,-0.00410394,0.00365108,0.000366183,-0.00708606,0.684886,0.00485071,0.0102114,671,799,-8.74274,-0.0845104
-546,225,-8.77185,-0.120911,-0.00447909,-0.00497036,0.00491185,0.000193266,-0.00964272,0.760414,0.00649386,0.0181442,678,799,-8.77183,0.120919
-539,225,-8.7655,-0.298279,-0.00568615,-0.00624442,0.00645321,0.000493959,-0.0124245,0.763784,0.00845248,0.0220891,685,799,-8.76548,0.298255
-532,225,-8.74274,-0.441589,-0.00680491,-0.00733837,0.00786419,0.000797071,-0.0149404,0.768446,0.0102363,0.0156186,692,799,-8.74276,0.441564
-525,225,-8.85144,-0.5896,-0.00729404,-0.00859856,0.00921761,0.00129437,-0.017187,0.750076,0.0119129,0.0355159,699,799,-8.85146,0.589606
-518,225,-8.99133,-0.78479,-0.00728791,-0.009347,0.0101368,0.0018715,-0.0185064,0.734789,0.0130064,0.0429052,706,799,-8.99132,0.784806
-511,225,-9.1463,-0.73584,-0.00683153,-0.00997564,0.0107832,0.00249358,-0.0193007,0.713014,0.0137738,0.0464752,713,799,-9.14628,0.735855
-504,225,-9.48108,-0.760559,0,0,0,0,0,0,0,-1,720,799,-9.48108,0.760539
-497,225,-12.1887,0.700439,-0.00433147,-0.0108205,0.0107316,0.00363534,-0.0187874,0.638599,0.0138961,0.0403616,727,799,-12.1888,-0.700413
-490,225,-12.4708,0.892822,-0.00170157,-0.0107067,0.00943904,0.00425382,-0.0166621,0.562853,0.0127645,0.0361057,734,799,-12.4708,-0.89283
-483,225,-12.5441,0.880127,0.00206685,-0.0102409,0.00689846,0.00515738,-0.0133314,0.421192,0.0110168,0.0333214,741,799,-12.5441,-0.880125
-476,225,-12.4438,0.847717,0.00692652,-0.00944383,0.00281247,0.00739623,-0.00991354,0.165483,0.010029,0.0332968,748,799,-12.4438,-0.847728
-469,225,-12.4473,0.810669,0.0125957,-0.00850068,-0.00314133,0.0130535,-0.0089585,-0.144722,0.0127817,0.0360579,755,799,-12.4474,-0.810672
-462,225,0,0,0,0,0,0,0,0,0,-1,762,799,0,0
-455,225,0,0,0,0,0,0,0,0,0,-1,769,799,0,0
-448,225,0,0,0,0,0,0,0,0,0,-1,776,799,0,0
-441,225,0,0,0,0,0,0,0,0,0,-1,783,799,0,0
-434,225,0,0,0,0,0,0,0,0,0,-1,790,799,0,0
-427,225,0,0,0,0,0,0,0,0,0,-1,797,799,0,0
-420,225,0,0,0,0,0,0,0,0,0,-1,804,799,0,0
-413,225,0,0,0,0,0,0,0,0,0,-1,811,799,0,0
-406,225,0,0,0,0,0,0,0,0,0,-1,818,799,0,0
-399,225,0,0,0,0,0,0,0,0,0,-1,825,799,0,0
-392,225,0,0,0,0,0,0,0,0,0,-1,832,799,0,0
-385,225,0,0,0,0,0,0,0,0,0,-1,839,799,0,0
-378,225,0,0,0,0,0,0,0,0,0,-1,846,799,0,0
-371,225,0,0,0,0,0,0,0,0,0,-1,853,799,0,0
-364,225,0,0,0,0,0,0,0,0,0,-1,860,799,0,0
-357,225,0,0,0,0,0,0,0,0,0,-1,867,799,0,0
-350,225,0,0,0,0,0,0,0,0,0,-1,874,799,0,0
-343,225,0,0,0,0,0,0,0,0,0,-1,881,799,0,0
-336,225,0,0,0,0,0,0,0,0,0,-1,888,799,0,0
-329,225,0,0,0,0,0,0,0,0,0,-1,895,799,0,0
-322,225,0,0,0,0,0,0,0,0,0,-1,902,799,0,0
-315,225,0,0,0,0,0,0,0,0,0,-1,909,799,0,0
-308,225,0,0,0,0,0,0,0,0,0,-1,916,799,0,0
-301,225,0,0,0,0,0,0,0,0,0,-1,923,799,0,0
-294,225,0,0,0,0,0,0,0,0,0,-1,930,799,0,0
-287,225,0,0,0,0,0,0,0,0,0,-1,937,799,0,0
-280,225,0,0,0,0,0,0,0,0,0,-1,944,799,0,0
-273,225,0,0,0,0,0,0,0,0,0,-1,951,799,0,0
-266,225,0,0,0,0,0,0,0,0,0,-1,958,799,0,0
-259,225,0,0,0,0,0,0,0,0,0,-1,965,799,0,0
-252,225,0,0,0,0,0,0,0,0,0,-1,972,799,0,0
-245,225,0,0,0,0,0,0,0,0,0,-1,979,799,0,0
-238,225,0,0,0,0,0,0,0,0,0,-1,986,799,0,0
-231,225,0,0,0,0,0,0,0,0,0,-1,993,799,0,0
-224,225,0,0,0,0,0,0,0,0,0,-1,1000,799,0,0
-217,225,0,0,0,0,0,0,0,0,0,-1,1007,799,0,0
-210,225,0,0,0,0,0,0,0,0,0,-1,1014,799,0,0
-203,225,0,0,0,0,0,0,0,0,0,-1,1021,799,0,0
-196,225,0,0,0,0,0,0,0,0,0,-1,1028,799,0,0
-189,225,0,0,0,0,0,0,0,0,0,-1,1035,799,0,0
-182,225,0,0,0,0,0,0,0,0,0,-1,1042,799,0,0
-175,225,0,0,0,0,0,0,0,0,0,-1,1049,799,0,0
-168,225,0,0,0,0,0,0,0,0,0,-1,1056,799,0,0
-161,225,0,0,0,0,0,0,0,0,0,-1,1063,799,0,0
-154,225,0,0,0,0,0,0,0,0,0,-1,1070,799,0,0
-147,225,0,0,0,0,0,0,0,0,0,-1,1077,799,0,0
-140,225,0,0,0,0,0,0,0,0,0,-1,1084,799,0,0
-133,225,0,0,0,0,0,0,0,0,0,-1,1091,799,0,0
-126,225,0,0,0,0,0,0,0,0,0,-1,1098,799,0,0
-119,225,0,0,0,0,0,0,0,0,0,-1,1105,799,0,0
-112,225,0,0,0,0,0,0,0,0,0,-1,1112,799,0,0
-105,225,0,0,0,0,0,0,0,0,0,-1,1119,799,0,0
-98,225,0,0,0,0,0,0,0,0,0,-1,1126,799,0,0
-91,225,0,0,0,0,0,0,0,0,0,-1,1133,799,0,0
-84,225,0,0,0,0,0,0,0,0,0,-1,1140,799,0,0
-77,225,0,0,0,0,0,0,0,0,0,-1,1147,799,0,0
-70,225,0,0,0,0,0,0,0,0,0,-1,1154,799,0,0
-63,225,0,0,0,0,0,0,0,0,0,-1,1161,799,0,0
-56,225,0,0,0,0,0,0,0,0,0,-1,1168,799,0,0
-49,225,0,0,0,0,0,0,0,0,0,-1,1175,799,0,0
-42,225,0,0,0,0,0,0,0,0,0,-1,1182,799,0,0
-35,225,0,0,0,0,0,0,0,0,0,-1,1189,799,0,0
-28,225,0,0,0,0,0,0,0,0,0,-1,1196,799,0,0
-21,225,0,0,0,0,0,0,0,0,0,-1,1203,799,0,0
-14,225,0,0,0,0,0,0,0,0,0,-1,1210,799,0,0
-7,225,0,0,0,0,0,0,0,0,0,-1,1217,799,0,0
0,225,0,0,0,0,0,0,0,0,0,-1,1224,799,0,0
7,225,0,0,0,0,0,0,0,0,0,-1,1231,799,0,0
14,225,0,0,0,0,0,0,0,0,0,-1,1238,799,0,0
21,225,0,0,0,0,0,0,0,0,0,-1,1245,799,0,0
28,225,0,0,0,0,0,0,0,0,0,-1,1252,799,0,0
35,225,0,0,0,0,0,0,0,0,0,-1,1259,799,0,0
42,225,0,0,0,0,0,0,0,0,0,-1,1266,799,0,0
49,225,0,0,0,0,0,0,0,0,0,-1,1273,799,0,0
56,225,0,0,0,0,0,0,0,0,0,-1,1280,799,0,0
63,225,0,0,0,0,0,0,0,0,0,-1,1287,799,0,0
70,225,0,0,0,0,0,0,0,0,0,-1,1294,799,0,0
77,225,0,0,0,0,0,0,0,0,0,-1,1301,799,0,0
84,225,0,0,0,0,0,0,0,0,0,-1,1308,799,0,0
91,225,0,0,0,0,0,0,0,0,0,-1,1315,799,0,0
98,225,0,0,0,0,0,0,0,0,0,-1,1322,799,0,0
105,225,0,0,0,0,0,0,0,0,0,-1,1329,799,0,0
112,225,0,0,0,0,0,0,0,0,0,-1,1336,799,0,0
119,225,0,0,0,0,0,0,0,0,0,-1,1343,799,0,0
126,225,0,0,0,0,0,0,0,0,0,-1,1350,799,0,0
133,225,0,0,0,0,0,0,0,0,0,-1,1357,799,0,0
140,225,0,0,0,0,0,0,0,0,0,-1,1364,799,0,0
147,225,0,0,0,0,0,0,0,0,0,-1,1371,799,0,0
154,225,0,0,0,0,0,0,0,0,0,-1,1378,799,0,0
161,225,0,0,0,0,0,0,0,0,0,-1,1385,799,0,0
168,225,0,0,0,0,0,0,0,0,0,-1,1392,799,0,0
175,225,0,0,0,0,0,0,0,0,0,-1,1399,799,0,0
182,225,0,0,0,0,0,0,0,0,0,-1,1406,799,0,0
189,225,0,0,0,0,0,0,0,0,0,-1,1413,799,0,0
196,225,0,0,0,0,0,0,0,0,0,-1,1420,799,0,0
203,225,0,0,0,0,0,0,0,0,0,-1,1427,799,0,0
210,225,0,0,0,0,0,0,0,0,0,-1,1434,799,0,0
217,225,0,0,0,0,0,0,0,0,0,-1,1441,799,0,0
224,225,0,0,0,0,0,0,0,0,0,-1,1448,799,0,0
231,225,0,0,0,0,0,0,0,0,0,-1,1455,799,0,0
238,225,0,0,0,0,0,0,0,0,0,-1,1462,799,0,0
245,225,0,0,0,0,0,0,0,0,0,-1,1469,799,0,0
252,225,0,0,0,0,0,0,0,0,0,-1,1476,799,0,0
259,225,0,0,0,0,0,0,0,0,0,-1,1483,799,0,0
266,225,0,0,0,0,0,0,0,0,0,-1,1490,799,0,0
273,225,0,0,0,0,0,0,0,0,0,-1,1497,799,0,0
280,225,0,0,0,0,0,0,0,0,0,-1,1504,799,0,0
287,225,0,0,0,0,0,0,0,0,0,-1,1511,799,0,0
294,225,0,0,0,0,0,0,0,0,0,-1,1518,799,0,0
301,225,0,0,0,0,0,0,0,0,0,-1,1525,799,0,0
308,225,0,0,0,0,0,0,0,0,0,-1,1532,799,0,0
315,225,0,0,0,0,0,0,0,0,0,-1,1539,799,0,0
322,225,0,0,0,0,0,0,0,0,0,-1,1546,799,0,0
329,225,0,0,0,0,0,0,0,0,0,-1,1553,799,0,0
336,225,0,0,0,0,0,0,0,0,0,-1,1560,799,0,0
343,225,0,0,0,0,0,0,0,0,0,-1,1567,799,0,0
350,225,0,0,0,0,0,0,0,0,0,-1,1574,799,0,0
357,225,0,0,0,0,0,0,0,0,0,-1,1581,799,0,0
364,225,0,0,0,0,0,0,0,0,0,-1,1588,799,0,0
371,225,0,0,0,0,0,0,0,0,0,-1,1595,799,0,0
378,225,0,0,0,0,0,0,0,0,0,-1,1602,799,0,0
385,225,0,0,0,0,0,0,0,0,0,-1,1609,799,0,0
392,225,0,0,0,0,0,0,0,0,0,-1,1616,799,0,0
399,225,0,0,0,0,0,0,0,0,0,-1,1623,799,0,0
406,225,0,0,0,0,0,0,0,0,0,-1,1630,799,0,0
413,225,0,0,0,0,0,0,0,0,0,-1,1637,799,0,0
420,225,0,0,0,0,0,0,0,0,0,-1,1644,799,0,0
427,225,0,0,0,0,0,0,0,0,0,-1,1651,799,0,0
434,225,0,0,0,0,0,0,0,0,0,-1,1658,799,0,0
441,225,0,0,0,0,0,0,0,0,0,-1,1665,799,0,0
448,225,0,0,0,0,0,0,0,0,0,-1,1672,799,0,0
455,225,0,0,0,0,0,0,0,0,0,-1,1679,799,0,0
462,225,0,0,0,0,0,0,0,0,0,-1,1686,799,0,0
469,225,0,0,0,0,0,0,0,0,0,-1,1693,799,0,0
476,225,0,0,0,0,0,0,0,0,0,-1,1700,799,0,0
483,225,0,0,0,0,0,0,0,0,0,-1,1707,799,0,0
490,225,0,0,0,0,0,0,0,0,0,-1,1714,799,0,0
497,225,0,0,0,0,0,0,0,0,0,-1,1721,799,0,0
504,225,0,0,0,0,0,0,0,0,0,-1,1728,799,0,0
511,225,0,0,0,0,0,0,0,0,0,-1,1735,799,0,0
518,225,0,0,0,0,0,0,0,0,0,-1,1742,799,0,0
525,225,0,0,0,0,0,0,0,0,0,-1,1749,799,0,0
532,225,0,0,0,0,0,0,0,0,0,-1,1756,799,0,0
539,225,0,0,0,0,0,0,0,0,0,-1,1763,799,0,0
546,225,0,0,0,0,0,0,0,0,0,-1,1770,799,0,0
553,225,0,0,0,0,0,0,0,0,0,-1,1777,799,0,0
560,225,0,0,0,0,0,0,0,0,0,-1,1784,799,0,0
567,225,0,0,0,0,0,0,0,0,0,-1,1791,799,0,0
574,225,0,0,0,0,0,0,0,0,0,-1,1798,799,0,0
581,225,0,0,0,0,0,0,0,0,0,-1,1805,799,0,0
588,225,19.0074,2.85742,0.00910684,0.00297977,-0.00202402,0.00971508,0.00237153,-0.291924,0.00584873,0.0367825,1812,799,19.0075,-2.85742
595,225,18.9822,2.78711,0.00939405,-0.00167314,-0.00131065,0.00954715,-0.00182624,-0.116284,0.00705277,0.0344048,1819,799,18.9822,-2.78708
602,225,19.0171,2.73743,0.00759045,-0.00405812,-0.00112706,0.00769849,-0.00416617,-0.0955743,0.00695052,0.0358482,1826,799,19.0171,-2.7374
609,225,19.0219,2.73389,0.00457408,-0.00459053,-0.00254098,0.00523145,-0.00524789,-0.253154,0.00605025,0.0336287,1833,799,19.0219,-2.73386
616,225,19.0428,2.65454,0.00169971,-0.00427992,-0.00382986,0.00356858,-0.0061488,-0.45398,0.00567587,0.0349875,1840,799,19.0428,-2.65456
623,225,19.0791,2.65167,-0.000613562,-0.00349717,-0.00481828,0.00297401,-0.00708474,-0.64002,0.00596689,0.0347633,1847,799,19.0791,-2.65168
630,225,18.592,2.32391,0,0,0,0,0,0,0,-1,1854,799,18.5921,-2.32393
637,225,15.1044,2.00964,0,0,0,0,0,0,0,-1,1861,799,15.1043,-2.00967
644,225,15.2133,2.23669,0,0,0,0,0,0,0,-1,1868,799,15.2132,-2.23672
651,225,15.1193,2.28009,0,0,0,0,0,0,0,-1,1875,799,15.1192,-2.28007
658,225,14.8184,2.12061,0,0,0,0,0,0,0,-1,1882,799,14.8184,-2.1206
665,225,14.3771,1.67816,-0.00447446,0.000630433,-0.00619259,0.00477598,-0.00862001,-0.980878,0.0078396,0.0136836,1889,799,14.3771,-1.67818
672,225,14.3292,1.9248,-0.00366088,0.000657174,-0.00567593,0.00457083,-0.00757454,-0.967139,0.00708326,0.0168276,1896,799,14.3293,-1.92482
679,225,14.3416,2.13342,-0.00252695,0.000370415,-0.00484718,0.00398077,-0.0061373,-0.930609,0.00588573,0.0168619,1903,799,14.3416,-2.1334
686,225,14.3624,2.3175,-0.00109546,0.000262015,-0.00393952,0.00358084,-0.00441429,-0.870705,0.00462434,0.0106523,1910,799,14.3624,-2.31749
693,225,14.3578,2.49518,9.81208e-05,-0.000226789,-0.00337625,0.00331582,-0.00344449,-0.761358,0.0039033,0.0101674,1917,799,14.3578,-2.49518
700,225,14.3521,2.69489,0.00208599,-0.000221317,-0.0027974,0.00395828,-0.00209361,-0.589822,0.00354891,0.0112116,1924,799,14.3521,-2.69487
707,225,14.35,2.89178,0.00614421,-5.1125e-05,-0.00202119,0.0067453,-0.00065221,-0.289061,0.00472928,0.0114697,1931,799,14.35,-2.89179
714,225,14.3533,3.07782,0.0118121,0.000315132,-0.00170957,0.0120609,6.63074e-05,-0.144533,0.00801858,0.0128669,1938,799,14.3533,-3.07783
721,225,14.3843,3.25964,0.0185204,-5.05293e-05,-0.00162344,0.0186613,-0.000191379,-0.0865432,0.0125051,0.0136771,1945,799,14.3843,-3.25965
728,225,14.4097,3.4209,0.026989,-4.6985e-05,-0.00114655,0.0270375,-9.5522e-05,-0.0423072,0.018057,0.0226902,1952,799,14.4097,-3.42088
735,225,14.453,3.63159,0.0381507,-5.75067e-05,-0.000207885,0.0381518,-5.86379e-05,-0.00544064,0.0254541,0.0432411,1959,799,14.453,-3.63158
742,225,16.2384,2.99017,0,0,0,0,0,0,0,-1,1966,799,16.2384,-2.99017
749,225,15.4595,3.10577,0.0687891,-0.000883629,0.00335706,0.0689505,-0.00104501,0.048035,0.0463192,0.0492568,1973,799,15.4595,-3.10578
756,225,16.0833,3.39221,0.0881233,-0.00204889,0.00610964,0.0885354,-0.00246097,0.067345,0.0598608,0.0494602,1980,799,16.0833,-3.39222
763,225,16.7037,3.7334,0.109813,-0.00410895,0.00957595,0.110613,-0.00490827,0.0832781,0.0754311,0.0437939,1987,799,16.7037,-3.7334
770,225,0,0,0,0,0,0,0,0,0,-1,1994,799,0,0
777,225,0,0,0,0,0,0,0,0,0,-1,2001,799,0,0
784,225,0,0,0,0,0,0,0,0,0,-1,2008,799,0,0
791,225,0,0,0,0,0,0,0,0,0,-1,2015,799,0,0
798,225,0,0,0,0,0,0,0,0,0,-1,2022,799,0,0
805,225,0,0,0,0,0,0,0,0,0,-1,2029,799,0,0
812,225,0,0,0,0,0,0,0,0,0,-1,2036,799,0,0
-700,218,0,0,0,0,0,0,0,0,0,-1,524,806,0,0
-693,218,0,0,0,0,0,0,0,0,0,-1,531,806,0,0
-686,218,0,0,0,0,0,0,0,0,0,-1,538,806,0,0
-679,218,0,0,0,0,0,0,0,0,0,-1,545,806,0,0
-672,218,0,0,0,0,0,0,0,0,0,-1,552,806,0,0
-665,218,0,0,0,0,0,0,0,0,0,-1,559,806,0,0
-658,218,0,0,0,0,0,0,0,0,0,-1,566,806,0,0
-651,218,-10.8367,8.91827,0,0,0,0,0,0,0,-1,573,806,-10.8367,-8.91828
-644,218,-9.77325,3.19879,0,0,0,0,0,0,0,-1,580,806,-9.77326,-3.19881
-637,218,-9.51422,2.77869,0,0,0,0,0,0,0,-1,587,806,-9.51423,-2.77866
-630,218,-9.15521,2.45471,0.0343538,-0.0250396,-0.0129432,0.0370519,-0.0277377,-0.205511,0.0375349,0.0495864,594,806,-9.15524,-2.45473
-623,218,-8.35767,1.6546,0.0243419,-0.0226435,-0.0107972,0.0267043,-0.0250059,-0.215403,0.0298603,0.048839,601,806,-8.35767,-1.65458
-616,218,-8.59509,1.57709,0,0,0,0,0,0,0,-1,608,806,-8.59509,-1.57706
-609,218,-8.70691,1.40906,0.0114216,-0.0159909,-0.0064241,0.0128524,-0.0174217,-0.219147,0.017545,0.0474622,615,806,-8.70692,-1.40904
-602,218,-8.84723,1.27271,0.00752834,-0.0126875,-0.00451328,0.00849019,-0.0136494,-0.209974,0.0128974,0.0393071,622,806,-8.84725,-1.27269
-595,218,-8.88898,1.13623,0.00454345,-0.0101763,-0.00283431,0.00507034,-0.0107032,-0.1838,0.00929839,0.0164569,629,806,-8.889,-1.13621
-588,218,-8.88617,0.975281,0.00221665,-0.00756353,-0.00156319,0.00246042,-0.0078073,-0.1547,0.0061902,0.0104078,636,806,-8.88618,-0.975291
-581,218,-8.88928,0.811829,0.000624079,-0.00505288,-0.000397651,0.000651798,-0.0050806,-0.0695936,0.00362392,0.0101908,643,806,-8.88927,-0.811813
-574,218,-8.89948,0.635559,-0.00078298,-0.00367798,0.000421909,-0.000722746,-0.00373821,0.141808,0.00228957,0.00960809,650,806,-8.89947,-0.635548
-567,218,-8.88464,0.425171,-0.00158616,-0.00344075,0.00139499,-0.000838381,-0.00418853,0.492065,0.00255909,0.0162784,657,806,-8.88467,-0.42518
-560,218,-8.91321,0.279602,-0.00213163,-0.00373734,0.00268477,-0.000132238,-0.00573673,0.64011,0.00378118,0.0170742,664,806,-8.9132,-0.27962
-553,218,-8.9187,0.0886841,-0.00269456,-0.0044637,0.00378687,0.000309683,-0.00746794,0.670662,0.005085,0.0169764,671,806,-8.91873,-0.0886591
-546,218,-8.91846,-0.118835,-0.00428371,-0.00559599,0.00497227,7.55279e-05,-0.00995523,0.719797,0.00666214,0.0140005,678,806,-8.91846,0.118866
-539,218,-8.92798,-0.297668,-0.00526685,-0.00697257,0.00638033,0.000317371,-0.0125568,0.718957,0.00847896,0.0176786,685,806,-8.928,0.297639
-532,218,-8.96362,-0.383667,-0.00608213,-0.00817859,0.00763521,0.000576468,-0.0148372,0.71718,0.0100891,0.0202724,692,806,-8.96359,0.383665
-525,218,-9.35071,-0.346985,-0.00643448,-0.00942966,0.00887385,0.00106726,-0.0169314,0.701804,0.0116596,0.0483724,699,806,-9.35072,0.347001
-518,218,-9.69885,-0.363647,-0.00640177,-0.0102458,0.00974706,0.00161097,-0.0182585,0.688053,0.0127433,0.0445496,706,806,-9.69886,0.363657
-511,218,-10.5764,-0.350403,-0.0059593,-0.0108766,0.0103497,0.00221976,-0.0190557,0.668781,0.0135046,0.0411986,713,806,-10.5764,0.350383
-504,218,-11.3022,-0.159485,0,0,0,0,0,0,0,-1,720,806,-11.3022,0.159473
-497,218,-12.4354,0.905334,-0.00345989,-0.0112158,0.0101523,0.00352986,-0.0182055,0.602961,0.0134687,0.0451807,727,806,-12.4354,-0.905349
-490,218,-12.4856,0.850281,-0.000794093,-0.010654,0.0086536,0.00423533,-0.0156834,0.526477,0.0121167,0.0366327,734,806,-12.4856,-0.850306
-483,218,-12.4699,0.813782,0.00307718,-0.00955596,0.00580525,0.00533966,-0.0118184,0.371621,0.0101389,0.0336844,741,806,-12.4699,-0.813789
-476,218,-12.4156,0.878357,0.00817299,-0.00799016,0.00127383,0.00827277,-0.00808994,0.0781676,0.00944721,0.0366194,748,806,-12.4156,-0.878359
-469,218,0,0,0,0,0,0,0,0,0,-1,755,806,0,0
-462,218,0,0,0,0,0,0,0,0,0,-1,762,806,0,0
-455,218,0,0,0,0,0,0,0,0,0,-1,769,806,0,0
-448,218,0,0,0,0,0,0,0,0,0,-1,776,806,0,0
-441,218,0,0,0,0,0,0,0,0,0,-1,783,806,0,0
-434,218,0,0,0,0,0,0,0,0,0,-1,790,806,0,0
-427,218,0,0,0,0,0,0,0,0,0,-1,797,806,0,0
-420,218,0,0,0,0,0,0,0,0,0,-1,804,806,0,0
-413,218,0,0,0,0,0,0,0,0,0,-1,811,806,0,0
-406,218,0,0,0,0,0,0,0,0,0,-1,818,806,0,0
-399,218,0,0,0,0,0,0,0,0,0,-1,825,806,0,0
-392,218,0,0,0,0,0,0,0,0,0,-1,832,806,0,0
-385,218,0,0,0,0,0,0,0,0,0,-1,839,806,0,0
-378,218,0,0,0,0,0,0,0,0,0,-1,846,806,0,0
-371,218,0,0,0,0,0,0,0,0,0,-1,853,806,0,0
-364,218,0,0,0,0,0,0,0,0,0,-1,860,806,0,0
-357,218,0,0,0,0,0,0,0,0,0,-1,867,806,0,0
-350,218,0,0,0,0,0,0,0,0,0,-1,874,806,0,0
-343,218,0,0,0,0,0,0,0,0,0,-1,881,806,0,0
-336,218,0,0,0,0,0,0,0,0,0,-1,888,806,0,0
-329,218,0,0,0,0,0,0,0,0,0,-1,895,806,0,0
-322,218,0,0,0,0,0,0,0,0,0,-1,902,806,0,0
-315,218,0,0,0,0,0,0,0,0,0,-1,909,806,0,0
-308,218,0,0,0,0,0,0,0,0,0,-1,916,806,0,0
-301,218,0,0,0,0,0,0,0,0,0,-1,923,806,0,0
-294,218,0,0,0,0,0,0,0,0,0,-1,930,806,0,0
-287,218,0,0,0,0,0,0,0,0,0,-1,937,806,0,0
-280,218,0,0,0,0,0,0,0,0,0,-1,944,806,0,0
-273,218,0,0,0,0,0,0,0,0,0,-1,951,806,0,0
-266,218,0,0,0,0,0,0,0,0,0,-1,958,806,0,0
-259,218,0,0,0,0,0,0,0,0,0,-1,965,806,0,0
-252,218,0,0,0,0,0,0,0,0,0,-1,972,806,0,0
-245,218,0,0,0,0,0,0,0,0,0,-1,979,806,0,0
-238,218,0,0,0,0,0,0,0,0,0,-1,986,806,0,0
-231,218,0,0,0,0,0,0,0,0,0,-1,993,806,0,0
-224,218,0,0,0,0,0,0,0,0,0,-1,1000,806,0,0
-217,218,0,0,0,0,0,0,0,0,0,-1,1007,806,0,0
-210,218,0,0,0,0,0,0,0,0,0,-1,1014,806,0,0
-203,218,0,0,0,0,0,0,0,0,0,-1,1021,806,0,0
-196,218,0,0,0,0,0,0,0,0,0,-1,1028,806,0,0
-189,218,0,0,0,0,0,0,0,0,0,-1,1035,806,0,0
-182,218,0,0,0,0,0,0,0,0,0,-1,1042,806,0,0
-175,218,0,0,0,0,0,0,0,0,0,-1,1049,806,0,0
-168,218,0,0,0,0,0,0,0,0,0,-1,1056,806,0,0
-161,218,0,0,0,0,0,0,0,0,0,-1,1063,806,0,0
-154,218,0,0,0,0,0,0,0,0,0,-1,1070,806,0,0
-147,218,0,0,0,0,0,0,0,0,0,-1,1077,806,0,0
-140,218,0,0,0,0,0,0,0,0,0,-1,1084,806,0,0
-133,218,0,0,0,0,0,0,0,0,0,-1,1091,806,0,0
-126,218,0,0,0,0,0,0,0,0,0,-1,1098,806,0,0
-119,218,0,0,0,0,0,0,0,0,0,-1,1105,806,0,0
-112,218,0,0,0,0,0,0,0,0,0,-1,1112,806,0,0
-105,218,0,0,0,0,0,0,0,0,0,-1,1119,806,0,0
-98,218,0,0,0,0,0,0,0,0,0,-1,1126,806,0,0
-91,218,0,0,0,0,0,0,0,0,0,-1,1133,806,0,0
-84,218,0,0,0,0,0,0,0,0,0,-1,1140,806,0,0
-77,218,0,0,0,0,0,0,0,0,0,-1,1147,806,0,0
-70,218,0,0,0,0,0,0,0,0,0,-1,1154,806,0,0
-63,218,0,0,0,0,0,0,0,0,0,-1,1161,806,0,0
-56,218,0,0,0,0,0,0,0,0,0,-1,1168,806,0,0
-49,218,0,0,0,0,0,0,0,0,0,-1,1175,806,0,0
-42,218,0,0,0,0,0,0,0,0,0,-1,1182,806,0,0
-35,218,0,0,0,0,0,0,0,0,0,-1,1189,806,0,0
-28,218,0,0,0,0,0,0,0,0,0,-1,1196,806,0,0
-21,218,0,0,0,0,0,0,0,0,0,-1,1203,806,0,0
-14,218,0,0,0,0,0,0,0,0,0,-1,1210,806,0,0
-7,218,0,0,0,0,0,0,0,0,0,-1,1217,806,0,0
0,218,0,0,0,0,0,0,0,0,0,-1,1224,806,0,0
7,218,0,0,0,0,0,0,0,0,0,-1,1231,806,0,0
14,218,0,0,0,0,0,0,0,0,0,-1,1238,806,0,0
21,218,0,0,0,0,0,0,0,0,0,-1,1245,806,0,0
28,218,0,0,0,0,0,0,0,0,0,-1,1252,806,0,0
35,218,0,0,0,0,0,0,0,0,0,-1,1259,806,0,0
42,218,0,0,0,0,0,0,0,0,0,-1,1266,806,0,0
49,218,0,0,0,0,0,0,0,0,0,-1,1273,806,0,0
56,218,0,0,0,0,0,0,0,0,0,-1,1280,806,0,0
63,218,0,0,0,0,0,0,0,0,0,-1,1287,806,0,0
70,218,0,0,0,0,0,0,0,0,0,-1,1294,806,0,0
77,218,0,0,0,0,0,0,0,0,0,-1,1301,806,0,0
84,218,0,0,0,0,0,0,0,0,0,-1,1308,806,0,0
91,218,0,0,0,0,0,0,0,0,0,-1,1315,806,0,0
98,218,0,0,0,0,0,0,0,0,0,-1,1322,806,0,0
105,218,0,0,0,0,0,0,0,0,0,-1,1329,806,0,0
112,218,0,0,0,0,0,0,0,0,0,-1,1336,806,0,0
119,218,0,0,0,0,0,0,0,0,0,-1,1343,806,0,0
126,218,0,0,0,0,0,0,0,0,0,-1,1350,806,0,0
133,218,0,0,0,0,0,0,0,0,0,-1,1357,806,0,0
140,218,0,0,0,0,0,0,0,0,0,-1,1364,806,0,0
147,218,0,0,0,0,0,0,0,0,0,-1,1371,806,0,0
154,218,0,0,0,0,0,0,0,0,0,-1,1378,806,0,0
161,218,0,0,0,0,0,0,0,0,0,-1,1385,806,0,0
168,218,0,0,0,0,0,0,0,0,0,-1,1392,806,0,0
175,218,0,0,0,0,0,0,0,0,0,-1,1399,806,0,0
182,218,0,0,0,0,0,0,0,0,0,-1,1406,806,0,0
189,218,0,0,0,0,0,0,0,0,0,-1,1413,806,0,0
196,218,0,0,0,0,0,0,0,0,0,-1,1420,806,0,0
203,218,0,0,0,0,0,0,0,0,0,-1,1427,806,0,0
210,218,0,0,0,0,0,0,0,0,0,-1,1434,806,0,0
217,218,0,0,0,0,0,0,0,0,0,-1,1441,806,0,0
224,218,0,0,0,0,0,0,0,0,0,-1,1448,806,0,0
231,218,0,0,0,0,0,0,0,0,0,-1,1455,806,0,0
238,218,0,0,0,0,0,0,0,0,0,-1,1462,806,0,0
245,218,0,0,0,0,0,0,0,0,0,-1,1469,806,0,0
252,218,0,0,0,0,0,0,0,0,0,-1,1476,806,0,0
259,218,0,0,0,0,0,0,0,0,0,-1,1483,806,0,0
266,218,0,0,0,0,0,0,0,0,0,-1,1490,806,0,0
273,218,0,0,0,0,0,0,0,0,0,-1,1497,806,0,0
280,218,0,0,0,0,0,0,0,0,0,-1,1504,806,0,0
287,218,0,0,0,0,0,0,0,0,0,-1,1511,806,0,0
294,218,0,0,0,0,0,0,0,0,0,-1,1518,806,0,0
301,218,0,0,0,0,0,0,0,0,0,-1,1525,806,0,0
308,218,0,0,0,0,0,0,0,0,0,-1,1532,806,0,0
315,218,0,0,0,0,0,0,0,0,0,-1,1539,806,0,0
322,218,0,0,0,0,0,0,0,0,0,-1,1546,806,0,0
329,218,0,0,0,0,0,0,0,0,0,-1,1553,806,0,0
336,218,0,0,0,0,0,0,0,0,0,-1,1560,806,0,0
343,218,0,0,0,0,0,0,0,0,0,-1,1567,806,0,0
350,218,0,0,0,0,0,0,0,0,0,-1,1574,806,0,0
357,218,0,0,0,0,0,0,0,0,0,-1,1581,806,0,0
364,218,0,0,0,0,0,0,0,0,0,-1,1588,806,0,0
371,218,0,0,0,0,0,0,0,0,0,-1,1595,806,0,0
378,218,0,0,0,0,0,0,0,0,0,-1,1602,806,0,0
385,218,0,0,0,0,0,0,0,0,0,-1,1609,806,0,0
392,218,0,0,0,0,0,0,0,0,0,-1,1616,806,0,0
399,218,0,0,0,0,0,0,0,0,0,-1,1623,806,0,0
406,218,0,0,0,0,0,0,0,0,0,-1,1630,806,0,0
413,218,0,0,0,0,0,0,0,0,0,-1,1637,806,0,0
420,218,0,0,0,0,0,0,0,0,0,-1,1644,806,0,0
427,218,0,0,0,0,0,0,0,0,0,-1,1651,806,0,0
434,218,0,0,0,0,0,0,0,0,0,-1,1658,806,0,0
441,218,0,0,0,0,0,0,0,0,0,-1,1665,806,0,0
448,218,0,0,0,0,0,0,0,0,0,-1,1672,806,0,0
455,218,0,0,0,0,0,0,0,0,0,-1,1679,806,0,0
462,218,0,0,0,0,0,0,0,0,0,-1,1686,806,0,0
469,218,0,0,0,0,0,0,0,0,0,-1,1693,806,0,0
476,218,0,0,0,0,0,0,0,0,0,-1,1700,806,0,0
483,218,0,0,0,0,0,0,0,0,0,-1,1707,806,0,0
490,218,0,0,0,0,0,0,0,0,0,-1,1714,806,0,0
497,218,0,0,0,0,0,0,0,0,0,-1,1721,806,0,0
504,218,0,0,0,0,0,0,0,0,0,-1,1728,806,0,0
511,218,0,0,0,0,0,0,0,0,0,-1,1735,806,0,0
518,218,0,0,0,0,0,0,0,0,0,-1,1742,806,0,0
525,218,0,0,0,0,0,0,0,0,0,-1,1749,806,0,0
532,218,0,0,0,0,0,0,0,0,0,-1,1756,806,0,0
539,218,0,0,0,0,0,0,0,0,0,-1,1763,806,0,0
546,218,0,0,0,0,0,0,0,0,0,-1,1770,806,0,0
553,218,0,0,0,0,0,0,0,0,0,-1,1777,806,0,0
560,218,0,0,0,0,0,0,0,0,0,-1,1784,806,0,0
567,218,0,0,0,0,0,0,0,0,0,-1,1791,806,0,0
574,218,0,0,0,0,0,0,0,0,0,-1,1798,806,0,0
581,218,0,0,0,0,0,0,0,0,0,-1,1805,806,0,0
588,218,0,0,0,0,0,0,0,0,0,-1,1812,806,0,0
595,218,19.009,2.72656,0.00810811,0.00026802,-5.61789e-06,0.00810811,0.000268016,-0.00071656,0.00531832,0.0361837,1819,806,19.0091,-2.72655
602,218,19.0426,2.68781,0.00704813,-0.00240232,0.000713381,0.00710168,-0.00245586,0.0749207,0.00573124,0.0344322,1826,806,19.0426,-2.68778
609,218,19.0004,2.69916,0.00428694,-0.00294991,-0.00112844,0.00445882,-0.00312179,-0.151151,0.0043993,0.0303253,1833,806,19.0004,-2.69918
616,218,18.9729,2.69818,0.00159776,-0.00268217,-0.00286895,0.00303694,-0.00412136,-0.46496,0.00414862,0.0300088,1840,806,18.9729,-2.69819
623,218,19.0203,2.64655,-0.000587259,-0.00194295,-0.00422943,0.0030183,-0.00554851,-0.705939,0.00501744,0.0325734,1847,806,19.0202,-2.64655
630,218,19.0914,2.68176,-0.00205936,-0.00120675,-0.00519907,0.00358347,-0.00684958,-0.826305,0.00612112,0.0360371,1854,806,19.0914,-2.68177
637,218,19.2111,2.79822,-0.00307149,-0.000508256,-0.00580514,0.00415505,-0.00773481,-0.894042,0.00696755,0.0418197,1861,806,19.2111,-2.79823
644,218,15.5139,2.65979,0,0,0,0,0,0,0,-1,1868,806,15.514,-2.65978
651,218,16.3052,3.01514,-0.00413526,0.00048602,-0.00603133,0.00463417,-0.00828341,-0.968327,0.00755652,0.0432234,1875,806,16.3052,-3.01516
658,218,14.6482,1.6441,0,0,0,0,0,0,0,-1,1882,806,14.6482,-1.64411
665,218,14.6199,1.7146,-0.00377573,0.0012214,-0.00606202,0.00527958,-0.00783391,-0.980874,0.0076188,0.0306619,1889,806,14.6199,-1.71461
672,218,14.572,1.90283,-0.003173,0.00112029,-0.00558798,0.00495977,-0.00701248,-0.968784,0.00694596,0.0118044,1896,806,14.572,-1.90281
679,218,14.566,2.11957,-0.002373,0.000709837,-0.00479916,0.00420904,-0.0058722,-0.940787,0.00584675,0.010556,1903,806,14.5661,-2.11959
686,218,14.5724,2.31335,-0.00130486,0.000462756,-0.00389842,0.00357629,-0.0044184,-0.896869,0.00462426,0.0102065,1910,806,14.5724,-2.31335
693,218,14.5762,2.50446,-0.000497646,-0.000124376,-0.00324507,0.00293942,-0.00356145,-0.814123,0.003759,0.0107753,1917,806,14.5762,-2.50445
700,218,14.559,2.69489,0.00104012,-0.000291172,-0.00249096,0.00295283,-0.00220389,-0.654837,0.00298768,0.00883965,1924,806,14.559,-2.69488
707,218,14.5353,2.88312,0.00462855,-0.000330572,-0.00143056,0.00501164,-0.000713653,-0.261645,0.00360261,0.00739485,1931,806,14.5352,-2.88312
714,218,14.5485,3.07837,0.00971274,-0.000153561,-0.00103884,0.00982093,-0.000261756,-0.103776,0.00663626,0.0102059,1938,806,14.5484,-3.07837
721,218,14.5775,3.24731,0.0158538,-0.000879448,-0.000839195,0.0158958,-0.000921429,-0.049984,0.0109173,0.0131452,1945,806,14.5775,-3.24732
728,218,14.5897,3.41455,0.0234814,-0.00134373,-0.000297455,0.0234849,-0.0013473,-0.0119797,0.0161245,0.0189439,1952,806,14.5897,-3.41455
735,218,14.605,3.61481,0.0334187,-0.00199118,0.000662728,0.0334311,-0.00200358,0.0187072,0.0229844,0.0346837,1959,806,14.605,-3.61478
742,218,14.6117,3.8429,0,0,0,0,0,0,0,-1,1966,806,14.6117,-3.84288
749,218,15.2599,2.37122,0,0,0,0,0,0,0,-1,1973,806,15.2599,-2.37122
756,218,15.0502,3.83539,0,0,0,0,0,0,0,-1,1980,806,15.0501,-3.83539
763,218,16.7191,3.66071,0,0,0,0,0,0,0,-1,1987,806,16.7192,-3.6607
770,218,0,0,0,0,0,0,0,0,0,-1,1994,806,0,0
777,218,0,0,0,0,0,0,0,0,0,-1,2001,806,0,0
784,218,0,0,0,0,0,0,0,0,0,-1,2008,806,0,0
791,218,0,0,0,0,0,0,0,0,0,-1,2015,806,0,0
798,218,0,0,0,0,0,0,0,0,0,-1,2022,806,0,0
805,218,0,0,0,0,0,0,0,0,0,-1,2029,806,0,0
812,218,0,0,0,0,0,0,0,0,0,-1,2036,806,0,0
-700,211,0,0,0,0,0,0,0,0,0,-1,524,813,0,0
-693,211,0,0,0,0,0,0,0,0,0,-1,531,813,0,0
-686,211,0,0,0,0,0,0,0,0,0,-1,538,813,0,0
-679,211,0,0,0,0,0,0,0,0,0,-1,545,813,0,0
-672,211,0,0,0,0,0,0,0,0,0,-1,552,813,0,0
-665,211,0,0,0,0,0,0,0,0,0,-1,559,813,0,0
-658,211,0,0,0,0,0,0,0,0,0,-1,566,813,0,0
-651,211,-10.3387,3.21411,0,0,0,0,0,0,0,-1,573,813,-10.3387,-3.21414
-644,211,-10.0803,2.90485,0.0665981,-0.024399,-0.0107252,0.0678451,-0.025646,-0.11575,0.0557799,0.0464121,580,813,-10.0803,-2.90488
-637,211,-9.77875,2.52399,0,0,0,0,0,0,0,-1,587,813,-9.77872,-2.52399
-630,211,-9.52716,2.12714,0.0371315,-0.0214144,-0.00757551,0.0380959,-0.0223788,-0.126617,0.0353059,0.0469146,594,813,-9.52715,-2.12712
-623,211,-8.9325,1.61407,0.0266312,-0.0187758,-0.00601805,0.0274153,-0.0195599,-0.129556,0.0272472,0.046307,601,813,-8.93252,-1.6141
-616,211,-8.82324,1.54285,0.0186087,-0.0158369,-0.00454718,0.0191988,-0.0164271,-0.129066,0.0205894,0.047531,608,813,-8.82322,-1.54283
-609,211,-8.9278,1.38501,0.012681,-0.0127441,-0.00319201,0.0130756,-0.0131388,-0.123003,0.0151349,0.0393112,615,813,-8.92779,-1.38501
-602,211,-9.04327,1.26733,0.0083687,-0.00995164,-0.0020247,0.00858979,-0.0101727,-0.108768,0.0108454,0.0202533,622,813,-9.04326,-1.26732
-595,211,-9.07477,1.13385,0.00498825,-0.00813621,-0.00096464,0.00505877,-0.00820673,-0.0729768,0.00773039,0.0099636,629,813,-9.07477,-1.13385
-588,211,-9.07074,0.975647,0.00237969,-0.00607334,-0.000180063,0.00238353,-0.00607717,-0.0212887,0.00503756,0.00989677,636,813,-9.07073,-0.975647
-581,211,-9.07404,0.815369,0.000473094,-0.00404517,0.000532243,0.000534945,-0.00410702,0.115688,0.00293264,0.0105249,643,813,-9.07401,-0.815395
-574,211,-9.08044,0.639099,-0.00113557,-0.00308113,0.00107505,-0.000658508,-0.00355819,0.417649,0.00218594,0.011797,650,813,-9.08046,-0.639126
-567,211,-9.0592,0.445923,-0.0019843,-0.00323099,0.00176088,-0.000739692,-0.0044756,0.615283,0.00277029,0.0192247,657,813,-9.05919,-0.445928
-560,211,-9.06,0.281921,-0.00247999,-0.00380471,0.00283471,-0.000231284,-0.00605342,0.670628,0.00396077,0.0235463,664,813,-9.06,-0.281899
-553,211,-9.0705,0.0964966,-0.00288871,-0.00463926,0.00382663,0.000161467,-0.00768944,0.672966,0.00518095,0.0183418,671,813,-9.0705,-0.0965115
-546,211,-9.11646,-0.0401001,-0.00413997,-0.00596643,0.00489128,-7.73976e-05,-0.010029,0.693108,0.00666036,0.0211626,678,813,-9.11643,0.0400776
-539,211,-9.11066,-0.214172,-0.00483972,-0.00738016,0.00612592,0.000146284,-0.0123662,0.683171,0.0082933,0.0158832,685,813,-9.11064,0.2142
-532,211,-9.29932,-0.277344,-0.00527717,-0.0086575,0.00720026,0.000428637,-0.0143633,0.670117,0.00972157,0.0457829,692,813,-9.29935,0.27736
-525,211,-9.56689,-0.258179,0,0,0,0,0,0,0,-1,699,813,-9.56687,0.258196
-518,211,-10.1104,-0.148987,0,0,0,0,0,0,0,-1,706,813,-10.1104,0.148961
-511,211,-11.6165,0.209351,0,0,0,0,0,0,0,-1,713,813,-11.6165,-0.20934
-504,211,-12.7719,0.486572,0,0,0,0,0,0,0,-1,720,813,-12.7719,-0.48655
-497,211,-12.4089,0.874939,0,0,0,0,0,0,0,-1,727,813,-12.4089,-0.874917
-490,211,-12.4039,0.882263,0.000844889,-0.0105016,0.00733178,0.00444206,-0.0140988,0.456122,0.0111781,0.0357803,734,813,-12.4039,-0.88227
-483,211,-12.4611,0.819153,0.00464474,-0.00879637,0.0041365,0.00581574,-0.00996736,0.275869,0.00921686,0.0333186,741,813,-12.461,-0.819133
-476,211,-12.5952,0.860107,0.00958953,-0.00646631,-0.000793858,0.00962868,-0.00650546,-0.0492833,0.00937305,0.0358596,748,813,-12.5952,-0.86011
-469,211,0,0,0,0,0,0,0,0,0,-1,755,813,0,0
-462,211,0,0,0,0,0,0,0,0,0,-1,762,813,0,0
-455,211,0,0,0,0,0,0,0,0,0,-1,769,813,0,0
-448,211,0,0,0,0,0,0,0,0,0,-1,776,813,0,0
-441,211,0,0,0,0,0,0,0,0,0,-1,783,813,0,0
-434,211,0,0,0,0,0,0,0,0,0,-1,790,813,0,0
-427,211,0,0,0,0,0,0,0,0,0,-1,797,813,0,0
-420,211,0,0,0,0,0,0,0,0,0,-1,804,813,0,0
-413,211,0,0,0,0,0,0,0,0,0,-1,811,813,0,0
-406,211,0,0,0,0,0,0,0,0,0,-1,818,813,0,0
-399,211,0,0,0,0,0,0,0,0,0,-1,825,813,0,0
-392,211,0,0,0,0,0,0,0,0,0,-1,832,813,0,0
-385,211,0,0,0,0,0,0,0,0,0,-1,839,813,0,0
-378,211,0,0,0,0,0,0,0,0,0,-1,846,813,0,0
-371,211,0,0,0,0,0,0,0,0,0,-1,853,813,0,0
-364,211,0,0,0,0,0,0,0,0,0,-1,860,813,0,0
-357,211,0,0,0,0,0,0,0,0,0,-1,867,813,0,0
-350,211,0,0,0,0,0,0,0,0,0,-1,874,813,0,0
-343,211,0,0,0,0,0,0,0,0,0,-1,881,813,0,0
-336,211,0,0,0,0,0,0,0,0,0,-1,888,813,0,0
-329,211,0,0,0,0,0,0,0,0,0,-1,895,813,0,0
-322,211,0,0,0,0,0,0,0,0,0,-1,902,813,0,0
-315,211,0,0,0,0,0,0,0,0,0,-1,909,813,0,0
-308,211,0,0,0,0,0,0,0,0,0,-1,916,813,0,0
-301,211,0,0,0,0,0,0,0,0,0,-1,923,813,0,0
-294,211,0,0,0,0,0,0,0,0,0,-1,930,813,0,0
-287,211,0,0,0,0,0,0,0,0,0,-1,937,813,0,0
-280,211,0,0,0,0,0,0,0,0,0,-1,944,813,0,0
-273,211,0,0,0,0,0,0,0,0,0,-1,951,813,0,0
-266,211,0,0,0,0,0,0,0,0,0,-1,958,813,0,0
-259,211,0,0,0,0,0,0,0,0,0,-1,965,813,0,0
-252,211,0,0,0,0,0,0,0,0,0,-1,972,813,0,0
-245,211,0,0,0,0,0,0,0,0,0,-1,979,813,0,0
-238,211,0,0,0,0,0,0,0,0,0,-1,986,813,0,0
-231,211,0,0,0,0,0,0,0,0,0,-1,993,813,0,0
-224,211,0,0,0,0,0,0,0,0,0,-1,1000,813,0,0
-217,211,0,0,0,0,0,0,0,0,0,-1,1007,813,0,0
-210,211,0,0,0,0,0,0,0,0,0,-1,1014,813,0,0
-203,211,0,0,0,0,0,0,0,0,0,-1,1021,813,0,0
-196,211,0,0,0,0,0,0,0,0,0,-1,1028,813,0,0
-189,211,0,0,0,0,0,0,0,0,0,-1,1035,813,0,0
-182,211,0,0,0,0,0,0,0,0,0,-1,1042,813,0,0
-175,211,0,0,0,0,0,0,0,0,0,-1,1049,813,0,0
-168,211,0,0,0,0,0,0,0,0,0,-1,1056,813,0,0
-161,211,0,0,0,0,0,0,0,0,0,-1,1063,813,0,0
-154,211,0,0,0,0,0,0,0,0,0,-1,1070,813,0,0
-147,211,0,0,0,0,0,0,0,0,0,-1,1077,813,0,0
-140,211,0,0,0,0,0,0,0,0,0,-1,1084,813,0,0
-133,211,0,0,0,0,0,0,0,0,0,-1,1091,813,0,0
-126,211,0,0,0,0,0,0,0,0,0,-1,1098,813,0,0
-119,211,0,0,0,0,0,0,0,0,0,-1,1105,813,0,0
-112,211,0,0,0,0,0,0,0,0,0,-1,1112,813,0,0
-105,211,0,0,0,0,0,0,0,0,0,-1,1119,813,0,0
-98,211,0,0,0,0,0,0,0,0,0,-1,1126,813,0,0
-91,211,0,0,0,0,0,0,0,0,0,-1,1133,813,0,0
-84,211,0,0,0,0,0,0,0,0,0,-1,1140,813,0,0
-77,211,0,0,0,0,0,0,0,0,0,-1,1147,813,0,0
-70,211,0,0,0,0,0,0,0,0,0,-1,1154,813,0,0
-63,211,0,0,0,0,0,0,0,0,0,-1,1161,813,0,0
-56,211,0,0,0,0,0,0,0,0,0,-1,1168,813,0,0
-49,211,0,0,0,0,0,0,0,0,0,-1,1175,813,0,0
-42,211,0,0,0,0,0,0,0,0,0,-1,1182,813,0,0
-35,211,0,0,0,0,0,0,0,0,0,-1,1189,813,0,0
-28,211,0,0,0,0,0,0,0,0,0,-1,1196,813,0,0
-21,211,0,0,0,0,0,0,0,0,0,-1,1203,813,0,0
-14,211,0,0,0,0,0,0,0,0,0,-1,1210,813,0,0
-7,211,0,0,0,0,0,0,0,0,0,-1,1217,813,0,0
0,211,0,0,0,0,0,0,0,0,0,-1,1224,813,0,0
7,211,0,0,0,0,0,0,0,0,0,-1,1231,813,0,0
14,211,0,0,0,0,0,0,0,0,0,-1,1238,813,0,0
21,211,0,0,0,0,0,0,0,0,0,-1,1245,813,0,0
28,211,0,0,0,0,0,0,0,0,0,-1,1252,813,0,0
35,211,0,0,0,0,0,0,0,0,0,-1,1259,813,0,0
42,211,0,0,0,0,0,0,0,0,0,-1,1266,813,0,0
49,211,0,0,0,0,0,0,0,0,0,-1,1273,813,0,0
56,211,0,0,0,0,0,0,0,0,0,-1,1280,813,0,0
63,211,0,0,0,0,0,0,0,0,0,-1,1287,813,0,0
70,211,0,0,0,0,0,0,0,0,0,-1,1294,813,0,0
77,211,0,0,0,0,0,0,0,0,0,-1,1301,813,0,0
84,211,0,0,0,0,0,0,0,0,0,-1,1308,813,0,0
91,211,0,0,0,0,0,0,0,0,0,-1,1315,813,0,0
98,211,0,0,0,0,0,0,0,0,0,-1,1322,813,0,0
105,211,0,0,0,0,0,0,0,0,0,-1,1329,813,0,0
112,211,0,0,0,0,0,0,0,0,0,-1,1336,813,0,0
119,211,0,0,0,0,0,0,0,0,0,-1,1343,813,0,0
126,211,0,0,0,0,0,0,0,0,0,-1,1350,813,0,0
133,211,0,0,0,0,0,0,0,0,0,-1,1357,813,0,0
140,211,0,0,0,0,0,0,0,0,0,-1,1364,813,0,0
147,211,0,0,0,0,0,0,0,0,0,-1,1371,813,0,0
154,211,0,0,0,0,0,0,0,0,0,-1,1378,813,0,0
161,211,0,0,0,0,0,0,0,0,0,-1,1385,813,0,0
168,211,0,0,0,0,0,0,0,0,0,-1,1392,813,0,0
175,211,0,0,0,0,0,0,0,0,0,-1,1399,813,0,0
182,211,0,0,0,0,0,0,0,0,0,-1,1406,813,0,0
189,211,0,0,0,0,0,0,0,0,0,-1,1413,813,0,0
196,211,0,0,0,0,0,0,0,0,0,-1,1420,813,0,0
203,211,0,0,0,0,0,0,0,0,0,-1,1427,813,0,0
210,211,0,0,0,0,0,0,0,0,0,-1,1434,813,0,0
217,211,0,0,0,0,0,0,0,0,0,-1,1441,813,0,0
224,211,0,0,0,0,0,0,0,0,0,-1,1448,813,0,0
231,211,0,0,0,0,0,0,0,0,0,-1,1455,813,0,0
238,211,0,0,0,0,0,0,0,0,0,-1,1462,813,0,0
245,211,0,0,0,0,0,0,0,0,0,-1,1469,813,0,0
252,211,0,0,0,0,0,0,0,0,0,-1,1476,813,0,0
259,211,0,0,0,0,0,0,0,0,0,-1,1483,813,0,0
266,211,0,0,0,0,0,0,0,0,0,-1,1490,813,0,0
273,211,0,0,0,0,0,0,0,0,0,-1,1497,813,0,0
280,211,0,0,0,0,0,0,0,0,0,-1,1504,813,0,0
287,211,0,0,0,0,0,0,0,0,0,-1,1511,813,0,0
294,211,0,0,0,0,0,0,0,0,0,-1,1518,813,0,0
301,211,0,0,0,0,0,0,0,0,0,-1,1525,813,0,0
308,211,0,0,0,0,0,0,0,0,0,-1,1532,813,0,0
315,211,0,0,0,0,0,0,0,0,0,-1,1539,813,0,0
322,211,0,0,0,0,0,0,0,0,0,-1,1546,813,0,0
329,211,0,0,0,0,0,0,0,0,0,-1,1553,813,0,0
336,211,0,0,0,0,0,0,0,0,0,-1,1560,813,0,0
343,211,0,0,0,0,0,0,0,0,0,-1,1567,813,0,0
350,211,0,0,0,0,0,0,0,0,0,-1,1574,813,0,0
357,211,0,0,0,0,0,0,0,0,0,-1,1581,813,0,0
364,211,0,0,0,0,0,0,0,0,0,-1,1588,813,0,0
371,211,0,0,0,0,0,0,0,0,0,-1,1595,813,0,0
378,211,0,0,0,0,0,0,0,0,0,-1,1602,813,0,0
385,211,0,0,0,0,0,0,0,0,0,-1,1609,813,0,0
392,211,0,0,0,0,0,0,0,0,0,-1,1616,813,0,0
399,211,0,0,0,0,0,0,0,0,0,-1,1623,813,0,0
406,211,0,0,0,0,0,0,0,0,0,-1,1630,813,0,0
413,211,0,0,0,0,0,0,0,0,0,-1,1637,813,0,0
420,211,0,0,0,0,0,0,0,0,0,-1,1644,813,0,0
427,211,0,0,0,0,0,0,0,0,0,-1,1651,813,0,0
434,211,0,0,0,0,0,0,0,0,0,-1,1658,813,0,0
441,211,0,0,0,0,0,0,0,0,0,-1,1665,813,0,0
448,211,0,0,0,0,0,0,0,0,0,-1,1672,813,0,0
455,211,0,0,0,0,0,0,0,0,0,-1,1679,813,0,0
462,211,0,0,0,0,0,0,0,0,0,-1,1686,813,0,0
469,211,0,0,0,0,0,0,0,0,0,-1,1693,813,0,0
476,211,0,0,0,0,0,0,0,0,0,-1,1700,813,0,0
483,211,0,0,0,0,0,0,0,0,0,-1,1707,813,0,0
490,211,0,0,0,0,0,0,0,0,0,-1,1714,813,0,0
497,211,0,0,0,0,0,0,0,0,0,-1,1721,813,0,0
504,211,0,0,0,0,0,0,0,0,0,-1,1728,813,0,0
511,211,0,0,0,0,0,0,0,0,0,-1,1735,813,0,0
518,211,0,0,0,0,0,0,0,0,0,-1,1742,813,0,0
525,211,0,0,0,0,0,0,0,0,0,-1,1749,813,0,0
532,211,0,0,0,0,0,0,0,0,0,-1,1756,813,0,0
539,211,0,0,0,0,0,0,0,0,0,-1,1763,813,0,0
546,211,0,0,0,0,0,0,0,0,0,-1,1770,813,0,0
553,211,0,0,0,0,0,0,0,0,0,-1,1777,813,0,0
560,211,0,0,0,0,0,0,0,0,0,-1,1784,813,0,0
567,211,0,0,0,0,0,0,0,0,0,-1,1791,813,0,0
574,211,0,0,0,0,0,0,0,0,0,-1,1798,813,0,0
581,211,0,0,0,0,0,0,0,0,0,-1,1805,813,0,0
588,211,0,0,0,0,0,0,0,0,0,-1,1812,813,0,0
595,211,19.0221,2.60571,0.00645734,0.00178123,0.00150036,0.00689734,0.00134123,0.285264,0.00422276,0.0368145,1819,813,19.022,-2.60569
602,211,19.0277,2.57214,0.0063143,-0.00110929,0.00288162,0.00730156,-0.00209655,0.330074,0.00569664,0.0358596,1826,813,19.0278,-2.57214
609,211,18.9641,2.66724,0.00398953,-0.00160162,0.000664204,0.00406735,-0.00167944,0.116633,0.00341206,0.0361089,1833,813,18.9641,-2.66723
616,211,19.0082,2.69391,0.00165944,-0.00133725,-0.00149913,0.00228063,-0.00195844,-0.392829,0.00244979,0.0297609,1840,813,19.0082,-2.69392
623,211,19.0166,2.68677,-0.000314426,-0.00063199,-0.00324046,0.00277114,-0.00371756,-0.760918,0.00375951,0.030808,1847,813,19.0166,-2.68674
630,211,19.0461,2.66406,-0.00165393,7.16797e-05,-0.00448262,0.00377378,-0.00535603,-0.880474,0.00529742,0.0364872,1854,813,19.0462,-2.66408
637,211,19.0652,2.66791,-0.00254051,0.000661052,-0.00525045,0.00454933,-0.00642878,-0.933364,0.0063691,0.041382,1861,813,19.0652,-2.66788
644,211,18.6422,3.03406,-0.00311189,0.00104096,-0.00555131,0.00489147,-0.0069624,-0.964364,0.00687856,0.0415926,1868,813,18.6422,-3.03403
651,211,18.5471,2.78143,-0.00336028,0.00127385,-0.00562352,0.00503895,-0.00712538,-0.980816,0.00705743,0.0440461,1875,813,18.5471,-2.78146
658,211,14.5435,1.69153,0,0,0,0,0,0,0,-1,1882,813,14.5434,-1.69153
665,211,14.887,1.74738,0,0,0,0,0,0,0,-1,1889,813,14.887,-1.74739
672,211,14.728,1.93805,-0.00256454,0.00140253,-0.00519996,0.00498443,-0.00614644,-0.967605,0.00643807,0.0179183,1896,813,14.728,-1.93808
679,211,14.7687,2.11609,-0.00203775,0.00095099,-0.0045079,0.00420576,-0.00529252,-0.945448,0.00549579,0.0119821,1903,813,14.7687,-2.11607
686,211,14.7677,2.3255,-0.0012671,0.000640869,-0.00370438,0.00351213,-0.00413836,-0.911424,0.00442194,0.010308,1910,813,14.7677,-2.32548
693,211,14.7692,2.50055,-0.000738096,7.50555e-05,-0.00305103,0.00274648,-0.00340952,-0.851637,0.00356103,0.0109562,1917,813,14.7692,-2.50053
700,211,14.7156,2.67896,0.000462319,-0.000140082,-0.00220227,0.00238389,-0.00206166,-0.717436,0.00256888,0.0131032,1924,813,14.7156,-2.67898
707,211,14.7158,2.89569,0.00361836,-0.000254117,-0.00094085,0.00383485,-0.000470602,-0.226159,0.002727,0.0200704,1931,813,14.7158,-2.89572
714,211,14.7052,3.11169,0.00814533,-0.000122052,-0.000493323,0.00817467,-0.000151385,-0.0593901,0.00550093,0.0219578,1938,813,14.7052,-3.11167
721,211,14.7637,3.2561,0.0138193,-0.000949542,-0.000210992,0.0138224,-0.000952556,-0.0142824,0.00954828,0.0165471,1945,813,14.7637,-3.2561
728,211,14.7736,3.39447,0.0206677,-0.00166596,0.000399545,0.0206749,-0.0016731,0.0178822,0.0143734,0.0150386,1952,813,14.7735,-3.39447
735,211,14.7725,3.59875,0.0294029,-0.00271261,0.00139321,0.0294632,-0.00277293,0.0432728,0.0206287,0.0244641,1959,813,14.7724,-3.59877
742,211,14.8069,3.81628,0.0405814,-0.00426551,0.0026058,0.0407323,-0.00441641,0.057845,0.0287403,0.0492064,1966,813,14.8069,-3.8163
749,211,14.7999,4.00287,0,0,0,0,0,0,0,-1,1973,813,14.7999,-4.00285
756,211,15.2483,3.93994,0.0692182,-0.0102175,0.00603873,0.0696746,-0.010674,0.0754426,0.050386,0.0474296,1980,813,15.2483,-3.93993
763,211,16.4735,3.83649,0.0858923,-0.015386,0.00825154,0.0865602,-0.0160539,0.0807641,0.0637356,0.0480434,1987,813,16.4735,-3.8365
770,211,17.5654,3.4696,0,0,0,0,0,0,0,-1,1994,813,17.5654,-3.46963
777,211,0,0,0,0,0,0,0,0,0,-1,2001,813,0,0
784,211,0,0,0,0,0,0,0,0,0,-1,2008,813,0,0
791,211,0,0,0,0,0,0,0,0,0,-1,2015,813,0,0
798,211,0,0,0,0,0,0,0,0,0,-1,2022,813,0,0
805,211,0,0,0,0,0,0,0,0,0,-1,2029,813,0,0
812,211,0,0,0,0,0,0,0,0,0,-1,2036,813,0,0
-700,204,0,0,0,0,0,0,0,0,0,-1,524,820,0,0
-693,204,0,0,0,0,0,0,0,0,0,-1,531,820,0,0
-686,204,0,0,0,0,0,0,0,0,0,-1,538,820,0,0
-679,204,0,0,0,0,0,0,0,0,0,-1,545,820,0,0
-672,204,0,0,0,0,0,0,0,0,0,-1,552,820,0,0
-665,204,0,0,0,0,0,0,0,0,0,-1,559,820,0,0
-658,204,0,0,0,0,0,0,0,0,0,-1,566,820,0,0
-651,204,-11.3421,3.17572,0.079475,-0.0403835,-0.00873368,0.0801081,-0.0410166,-0.0723571,0.071135,0.0429006,573,820,-11.3421,-3.17571
-644,204,-10.5997,2.56696,0.0638791,-0.0328664,-0.00610543,0.0642629,-0.0332502,-0.0627762,0.0572404,0.0464265,580,820,-10.5998,-2.56693
-637,204,-10.0521,2.21057,0,0,0,0,0,0,0,-1,587,820,-10.0521,-2.21055
-630,204,-9.78674,1.89014,0.037436,-0.0215746,-0.0028653,0.0375748,-0.0217134,-0.0484039,0.0346359,0.0450665,594,820,-9.78676,-1.89013
-623,204,-9.46375,1.55463,0.0272017,-0.0172841,-0.00185211,0.0272787,-0.0173611,-0.0415379,0.0259839,0.0415979,601,820,-9.46373,-1.55465
-616,204,-9.19183,1.43073,0.0191242,-0.0136536,-0.00106636,0.0191588,-0.0136883,-0.0324873,0.0190518,0.044238,608,820,-9.19186,-1.43071
-609,204,-9.15045,1.28467,0.0130228,-0.0102402,-0.000407654,0.01303,-0.0102473,-0.0175166,0.0134711,0.035742,615,820,-9.15047,-1.28467
-602,204,-9.21741,1.26178,0.00849279,-0.00757187,0.000116619,0.00849364,-0.00757271,0.00725882,0.00928099,0.0153021,622,820,-9.2174,-1.26181
-595,204,-9.23718,1.12238,0.00484863,-0.0062443,0.000631204,0.00488443,-0.0062801,0.0566577,0.00646261,0.0135895,629,820,-9.23718,-1.12239
-588,204,-9.23615,0.965149,0.00207039,-0.0046488,0.000995165,0.00221468,-0.0047931,0.143991,0.00413622,0.011043,636,820,-9.23612,-0.965154
-581,204,-9.23633,0.804626,-0.000118536,-0.00313329,0.00132661,0.000382094,-0.00363392,0.36085,0.0025595,0.0108342,643,820,-9.23636,-0.804628
-574,204,-9.25653,0.631104,-0.00184285,-0.00259193,0.00165179,-0.00052367,-0.00391111,0.67391,0.00245157,0.0126378,650,820,-9.25653,-0.631111
-567,204,-9.24652,0.453979,-0.00267791,-0.00309895,0.00209344,-0.000784431,-0.00499243,0.735286,0.00310007,0.0137702,657,820,-9.24652,-0.453949
-560,204,-9.2431,0.27301,-0.00307827,-0.00391684,0.00294685,-0.00052102,-0.00647409,0.714731,0.00415329,0.0139714,664,820,-9.24312,-0.273041
-553,204,-9.22742,0.115051,-0.00329971,-0.00481543,0.00380071,-0.000182037,-0.00793311,0.686989,0.00522912,0.00973268,671,820,-9.22742,-0.115079
-546,204,-9.24951,-0.00762939,-0.00421681,-0.00625246,0.00466513,-0.000459765,-0.0100095,0.677993,0.00652515,0.0144877,678,820,-9.24954,0.00765913
-539,204,-9.28827,-0.192932,-0.00466495,-0.0076282,0.00564252,-0.000312775,-0.0119804,0.657005,0.00788472,0.0264013,685,820,-9.28824,0.19293
-532,204,-9.60858,-0.211182,0,0,0,0,0,0,0,-1,692,820,-9.60857,0.211168
-525,204,-13.7441,-0.688293,0,0,0,0,0,0,0,-1,699,820,-13.7441,0.688292
-518,204,-13.2581,-0.113525,-0.0041147,-0.0109812,0.00789751,0.00106355,-0.0161594,0.580359,0.0111444,0.043684,706,820,-13.258,0.113503
-511,204,-13.0181,0.198303,-0.00333383,-0.0115904,0.00822407,0.00173996,-0.0166641,0.552786,0.0117325,0.0477942,713,820,-13.0182,-0.198329
-504,204,-12.6523,0.573669,-0.00209629,-0.0117653,0.00814772,0.00254327,-0.0164048,0.517638,0.0118754,0.0474246,720,820,-12.6523,-0.573679
-497,204,-12.504,0.79425,-6.46005e-05,-0.0113377,0.00732481,0.00354134,-0.0149436,0.457462,0.0113289,0.0383061,727,820,-12.504,-0.794229
-490,204,-12.4697,0.818665,0.00290805,-0.010159,0.00543266,0.00487163,-0.0121226,0.346829,0.0101049,0.0335728,734,820,-12.4697,-0.818674
-483,204,-12.465,0.846802,0.00691135,-0.00817564,0.00220116,0.00722593,-0.00849022,0.141957,0.00908351,0.0387558,741,820,-12.465,-0.846779
-476,204,0,0,0,0,0,0,0,0,0,-1,748,820,0,0
-469,204,0,0,0,0,0,0,0,0,0,-1,755,820,0,0
-462,204,0,0,0,0,0,0,0,0,0,-1,762,820,0,0
-455,204,0,0,0,0,0,0,0,0,0,-1,769,820,0,0
-448,204,0,0,0,0,0,0,0,0,0,-1,776,820,0,0
-441,204,0,0,0,0,0,0,0,0,0,-1,783,820,0,0
-434,204,0,0,0,0,0,0,0,0,0,-1,790,820,0,0
-427,204,0,0,0,0,0,0,0,0,0,-1,797,820,0,0
-420,204,0,0,0,0,0,0,0,0,0,-1,804,820,0,0
-413,204,0,0,0,0,0,0,0,0,0,-1,811,820,0,0
-406,204,0,0,0,0,0,0,0,0,0,-1,818,820,0,0
-399,204,0,0,0,0,0,0,0,0,0,-1,825,820,0,0
-392,204,0,0,0,0,0,0,0,0,0,-1,832,820,0,0
-385,204,0,0,0,0,0,0,0,0,0,-1,839,820,0,0
-378,204,0,0,0,0,0,0,0,0,0,-1,846,820,0,0
-371,204,0,0,0,0,0,0,0,0,0,-1,853,820,0,0
-364,204,0,0,0,0,0,0,0,0,0,-1,860,820,0,0
-357,204,0,0,0,0,0,0,0,0,0,-1,867,820,0,0
-350,204,0,0,0,0,0,0,0,0,0,-1,874,820,0,0
-343,204,0,0,0,0,0,0,0,0,0,-1,881,820,0,0
-336,204,0,0,0,0,0,0,0,0,0,-1,888,820,0,0
-329,204,0,0,0,0,0,0,0,0,0,-1,895,820,0,0
-322,204,0,0,0,0,0,0,0,0,0,-1,902,820,0,0
-315,204,0,0,0,0,0,0,0,0,0,-1,909,820,0,0
-308,204,0,0,0,0,0,0,0,0,0,-1,916,820,0,0
-301,204,0,0,0,0,0,0,0,0,0,-1,923,820,0,0
-294,204,0,0,0,0,0,0,0,0,0,-1,930,820,0,0
-287,204,0,0,0,0,0,0,0,0,0,-1,937,820,0,0
-280,204,0,0,0,0,0,0,0,0,0,-1,944,820,0,0
-273,204,0,0,0,0,0,0,0,0,0,-1,951,820,0,0
-266,204,0,0,0,0,0,0,0,0,0,-1,958,820,0,0
-259,204,0,0,0,0,0,0,0,0,0,-1,965,820,0,0
-252,204,0,0,0,0,0,0,0,0,0,-1,972,820,0,0
-245,204,0,0,0,0,0,0,0,0,0,-1,979,820,0,0
-238,204,0,0,0,0,0,0,0,0,0,-1,986,820,0,0
-231,204,0,0,0,0,0,0,0,0,0,-1,993,820,0,0
-224,204,0,0,0,0,0,0,0,0,0,-1,1000,820,0,0
-217,204,0,0,0,0,0,0,0,0,0,-1,1007,820,0,0
-210,204,0,0,0,0,0,0,0,0,0,-1,1014,820,0,0
-203,204,0,0,0,0,0,0,0,0,0,-1,1021,820,0,0
-196,204,0,0,0,0,0,0,0,0,0,-1,1028,820,0,0
-189,204,0,0,0,0,0,0,0,0,0,-1,1035,820,0,0
-182,204,0,0,0,0,0,0,0,0,0,-1,1042,820,0,0
-175,204,0,0,0,0,0,0,0,0,0,-1,1049,820,0,0
-168,204,0,0,0,0,0,0,0,0,0,-1,1056,820,0,0
-161,204,0,0,0,0,0,0,0,0,0,-1,1063,820,0,0
-154,204,0,0,0,0,0,0,0,0,0,-1,1070,820,0,0
-147,204,0,0,0,0,0,0,0,0,0,-1,1077,820,0,0
-140,204,0,0,0,0,0,0,0,0,0,-1,1084,820,0,0
-133,204,0,0,0,0,0,0,0,0,0,-1,1091,820,0,0
-126,204,0,0,0,0,0,0,0,0,0,-1,1098,820,0,0
-119,204,0,0,0,0,0,0,0,0,0,-1,1105,820,0,0
-112,204,0,0,0,0,0,0,0,0,0,-1,1112,820,0,0
-105,204,0,0,0,0,0,0,0,0,0,-1,1119,820,0,0
-98,204,0,0,0,0,0,0,0,0,0,-1,1126,820,0,0
-91,204,0,0,0,0,0,0,0,0,0,-1,1133,820,0,0
-84,204,0,0,0,0,0,0,0,0,0,-1,1140,820,0,0
-77,204,0,0,0,0,0,0,0,0,0,-1,1147,820,0,0
-70,204,0,0,0,0,0,0,0,0,0,-1,1154,820,0,0
-63,204,0,0,0,0,0,0,0,0,0,-1,1161,820,0,0
-56,204,0,0,0,0,0,0,0,0,0,-1,1168,820,0,0
-49,204,0,0,0,0,0,0,0,0,0,-1,1175,820,0,0
-42,204,0,0,0,0,0,0,0,0,0,-1,1182,820,0,0
-35,204,0,0,0,0,0,0,0,0,0,-1,1189,820,0,0
-28,204,0,0,0,0,0,0,0,0,0,-1,1196,820,0,0
-21,204,0,0,0,0,0,0,0,0,0,-1,1203,820,0,0
-14,204,0,0,0,0,0,0,0,0,0,-1,1210,820,0,0
-7,204,0,0,0,0,0,0,0,0,0,-1,1217,820,0,0
0,204,0,0,0,0,0,0,0,0,0,-1,1224,820,0,0
7,204,0,0,0,0,0,0,0,0,0,-1,1231,820,0,0
14,204,0,0,0,0,0,0,0,0,0,-1,1238,820,0,0
21,204,0,0,0,0,0,0,0,0,0,-1,1245,820,0,0
28,204,0,0,0,0,0,0,0,0,0,-1,1252,820,0,0
35,204,0,0,0,0,0,0,0,0,0,-1,1259,820,0,0
42,204,0,0,0,0,0,0,0,0,0,-1,1266,820,0,0
49,204,0,0,0,0,0,0,0,0,0,-1,1273,820,0,0
56,204,0,0,0,0,0,0,0,0,0,-1,1280,820,0,0
63,204,0,0,0,0,0,0,0,0,0,-1,1287,820,0,0
70,204,0,0,0,0,0,0,0,0,0,-1,1294,820,0,0
77,204,0,0,0,0,0,0,0,0,0,-1,1301,820,0,0
84,204,0,0,0,0,0,0,0,0,0,-1,1308,820,0,0
91,204,0,0,0,0,0,0,0,0,0,-1,1315,820,0,0
98,204,0,0,0,0,0,0,0,0,0,-1,1322,820,0,0
105,204,0,0,0,0,0,0,0,0,0,-1,1329,820,0,0
112,204,0,0,0,0,0,0,0,0,0,-1,1336,820,0,0
119,204,0,0,0,0,0,0,0,0,0,-1,1343,820,0,0
126,204,0,0,0,0,0,0,0,0,0,-1,1350,820,0,0
133,204,0,0,0,0,0,0,0,0,0,-1,1357,820,0,0
140,204,0,0,0,0,0,0,0,0,0,-1,1364,820,0,0
147,204,0,0,0,0,0,0,0,0,0,-1,1371,820,0,0
154,204,0,0,0,0,0,0,0,0,0,-1,1378,820,0,0
161,204,0,0,0,0,0,0,0,0,0,-1,1385,820,0,0
168,204,0,0,0,0,0,0,0,0,0,-1,1392,820,0,0
175,204,0,0,0,0,0,0,0,0,0,-1,1399,820,0,0
182,204,0,0,0,0,0,0,0,0,0,-1,1406,820,0,0
189,204,0,0,0,0,0,0,0,0,0,-1,1413,820,0,0
196,204,0,0,0,0,0,0,0,0,0,-1,1420,820,0,0
203,204,0,0,0,0,0,0,0,0,0,-1,1427,820,0,0
210,204,0,0,0,0,0,0,0,0,0,-1,1434,820,0,0
217,204,0,0,0,0,0,0,0,0,0,-1,1441,820,0,0
224,204,0,0,0,0,0,0,0,0,0,-1,1448,820,0,0
231,204,0,0,0,0,0,0,0,0,0,-1,1455,820,0,0
238,204,0,0,0,0,0,0,0,0,0,-1,1462,820,0,0
245,204,0,0,0,0,0,0,0,0,0,-1,1469,820,0,0
252,204,0,0,0,0,0,0,0,0,0,-1,1476,820,0,0
259,204,0,0,0,0,0,0,0,0,0,-1,1483,820,0,0
266,204,0,0,0,0,0,0,0,0,0,-1,1490,820,0,0
273,204,0,0,0,0,0,0,0,0,0,-1,1497,820,0,0
280,204,0,0,0,0,0,0,0,0,0,-1,1504,820,0,0
287,204,0,0,0,0,0,0,0,0,0,-1,1511,820,0,0
294,204,0,0,0,0,0,0,0,0,0,-1,1518,820,0,0
301,204,0,0,0,0,0,0,0,0,0,-1,1525,820,0,0
308,204,0,0,0,0,0,0,0,0,0,-1,1532,820,0,0
315,204,0,0,0,0,0,0,0,0,0,-1,1539,820,0,0
322,204,0,0,0,0,0,0,0,0,0,-1,1546,820,0,0
329,204,0,0,0,0,0,0,0,0,0,-1,1553,820,0,0
336,204,0,0,0,0,0,0,0,0,0,-1,1560,820,0,0
343,204,0,0,0,0,0,0,0,0,0,-1,1567,820,0,0
350,204,0,0,0,0,0,0,0,0,0,-1,1574,820,0,0
357,204,0,0,0,0,0,0,0,0,0,-1,1581,820,0,0
364,204,0,0,0,0,0,0,0,0,0,-1,1588,820,0,0
371,204,0,0,0,0,0,0,0,0,0,-1,1595,820,0,0
378,204,0,0,0,0,0,0,0,0,0,-1,1602,820,0,0
385,204,0,0,0,0,0,0,0,0,0,-1,1609,820,0,0
392,204,0,0,0,0,0,0,0,0,0,-1,1616,820,0,0
399,204,0,0,0,0,0,0,0,0,0,-1,1623,820,0,0
406,204,0,0,0,0,0,0,0,0,0,-1,1630,820,0,0
413,204,0,0,0,0,0,0,0,0,0,-1,1637,820,0,0
420,204,0,0,0,0,0,0,0,0,0,-1,1644,820,0,0
427,204,0,0,0,0,0,0,0,0,0,-1,1651,820,0,0
434,204,0,0,0,0,0,0,0,0,0,-1,1658,820,0,0
441,204,0,0,0,0,0,0,0,0,0,-1,1665,820,0,0
448,204,0,0,0,0,0,0,0,0,0,-1,1672,820,0,0
455,204,0,0,0,0,0,0,0,0,0,-1,1679,820,0,0
462,204,0,0,0,0,0,0,0,0,0,-1,1686,820,0,0
469,204,0,0,0,0,0,0,0,0,0,-1,1693,820,0,0
476,204,0,0,0,0,0,0,0,0,0,-1,1700,820,0,0
483,204,0,0,0,0,0,0,0,0,0,-1,1707,820,0,0
490,204,0,0,0,0,0,0,0,0,0,-1,1714,820,0,0
497,204,0,0,0,0,0,0,0,0,0,-1,1721,820,0,0
504,204,0,0,0,0,0,0,0,0,0,-1,1728,820,0,0
511,204,0,0,0,0,0,0,0,0,0,-1,1735,820,0,0
518,204,0,0,0,0,0,0,0,0,0,-1,1742,820,0,0
525,204,0,0,0,0,0,0,0,0,0,-1,1749,820,0,0
532,204,0,0,0,0,0,0,0,0,0,-1,1756,820,0,0
539,204,0,0,0,0,0,0,0,0,0,-1,1763,820,0,0
546,204,0,0,0,0,0,0,0,0,0,-1,1770,820,0,0
553,204,0,0,0,0,0,0,0,0,0,-1,1777,820,0,0
560,204,0,0,0,0,0,0,0,0,0,-1,1784,820,0,0
567,204,0,0,0,0,0,0,0,0,0,-1,1791,820,0,0
574,204,0,0,0,0,0,0,0,0,0,-1,1798,820,0,0
581,204,0,0,0,0,0,0,0,0,0,-1,1805,820,0,0
588,204,0,0,0,0,0,0,0,0,0,-1,1812,820,0,0
595,204,0,0,0,0,0,0,0,0,0,-1,1819,820,0,0
602,204,19.0426,2.59772,0.00449318,0.000193814,0.00507014,0.00785053,-0.00316354,0.584891,0.00654809,0.0355474,1826,820,19.0425,-2.59772
609,204,18.9636,2.7312,0.00273361,-0.000285014,0.00264037,0.00426561,-0.00181701,0.52575,0.0036054,0.0401238,1833,820,18.9636,-2.7312
616,204,18.9838,2.8205,0.00105683,-7.93759e-05,0.00016201,0.00107948,-0.000102025,0.138902,0.000755957,0.0379713,1840,820,18.9837,-2.82048
623,204,19.0112,2.66571,-0.00041561,0.000500745,-0.00194196,0.00203785,-0.00195271,-0.901247,0.00230413,0.029393,1847,820,19.0112,-2.66574
630,204,19.0385,2.64203,-0.00140032,0.00107507,-0.00347568,0.00352686,-0.00385211,-0.956448,0.00426162,0.0286988,1854,820,19.0385,-2.642
637,204,19.0294,2.62628,-0.00202734,0.00150961,-0.00443804,0.00451856,-0.00503628,-0.974996,0.00551919,0.0343384,1861,820,19.0295,-2.6263
644,204,19.0118,2.59015,-0.002367,0.00172215,-0.00487461,0.00496361,-0.00560846,-0.983971,0.00610757,0.0404668,1868,820,19.0118,-2.59013
651,204,19.1975,2.52075,-0.0024583,0.00176614,-0.00501622,0.00509671,-0.00578887,-0.98467,0.00628903,0.0460951,1875,820,19.1975,-2.52078
658,204,19.4987,2.55139,0,0,0,0,0,0,0,-1,1882,820,19.4986,-2.55136
665,204,14.851,1.82916,0,0,0,0,0,0,0,-1,1889,820,14.851,-1.82913
672,204,14.8683,1.89752,-0.00173949,0.00151283,-0.00465325,0.00481589,-0.00504254,-0.953498,0.00569227,0.0340124,1896,820,14.8682,-1.89755
679,204,14.9333,2.06403,-0.00140606,0.00111202,-0.00406783,0.00411119,-0.00440523,-0.935478,0.00491794,0.0193255,1903,820,14.9333,-2.06402
686,204,14.9521,2.32233,-0.000890167,0.00082633,-0.00340693,0.00348145,-0.00354529,-0.908787,0.00405695,0.0111612,1910,820,14.9521,-2.32233
693,204,14.9233,2.49292,-0.000563834,0.000348695,-0.00283258,0.00276152,-0.00297666,-0.865251,0.00331371,0.0156,1917,820,14.9234,-2.49291
700,204,14.9557,2.67407,0.000375779,0.000165975,-0.00200823,0.00228185,-0.00174009,-0.759304,0.00232908,0.0173662,1924,820,14.9557,-2.67409
707,204,14.9336,2.92859,0.00310124,7.94385e-05,-0.000691903,0.00325213,-7.14521e-05,-0.214719,0.00219229,0.0158649,1931,820,14.9335,-2.9286
714,204,14.936,3.16931,0.00703894,0.000261423,-0.000258564,0.00704879,0.000251573,-0.0380765,0.00461762,0.0243127,1938,820,14.9361,-3.16932
721,204,14.9291,3.25262,0.0122393,-0.000523934,6.01222e-05,0.0122396,-0.000524218,0.00471042,0.00833998,0.0217139,1945,820,14.929,-3.2526
728,204,14.9293,3.39856,0.0184104,-0.00134365,0.000688124,0.0184343,-0.00136759,0.0347784,0.0127699,0.01295,1952,820,14.9294,-3.39858
735,204,14.9219,3.5957,0.0260972,-0.00261937,0.00165674,0.0261925,-0.00271464,0.0574388,0.0184333,0.01469,1959,820,14.9218,-3.59572
742,204,14.9058,3.77808,0.0358711,-0.00455895,0.00272883,0.0360545,-0.0047423,0.0670894,0.025763,0.0301426,1966,820,14.9057,-3.77806
749,204,14.8939,4.00311,0.0474569,-0.0075857,0.00407582,0.0477571,-0.00788587,0.073514,0.0347661,0.041677,1973,820,14.8939,-4.0031
756,204,15.517,4.04303,0.0605037,-0.0120731,0.00570544,0.0609495,-0.0125189,0.0779742,0.0453852,0.0456271,1980,820,15.517,-4.04301
763,204,16.4537,4.06146,0.074416,-0.0184998,0.00764832,0.0750414,-0.0191252,0.0815827,0.0574733,0.0440543,1987,820,16.4537,-4.06144
770,204,17.1265,3.68304,0.0881289,-0.0274895,0.00993738,0.0889768,-0.0283374,0.0851179,0.0706832,0.0478172,1994,820,17.1264,-3.68302
777,204,0,0,0,0,0,0,0,0,0,-1,2001,820,0,0
784,204,0,0,0,0,0,0,0,0,0,-1,2008,820,0,0
791,204,0,0,0,0,0,0,0,0,0,-1,2015,820,0,0
798,204,0,0,0,0,0,0,0,0,0,-1,2022,820,0,0
805,204,0,0,0,0,0,0,0,0,0,-1,2029,820,0,0
812,204,0,0,0,0,0,0,0,0,0,-1,2036,820,0,0
-700,197,0,0,0,0,0,0,0,0,0,-1,524,827,0,0
-693,197,0,0,0,0,0,0,0,0,0,-1,531,827,0,0
-686,197,0,0,0,0,0,0,0,0,0,-1,538,827,0,0
-679,197,0,0,0,0,0,0,0,0,0,-1,545,827,0,0
-672,197,0,0,0,0,0,0,0,0,0,-1,552,827,0,0
-665,197,0,0,0,0,0,0,0,0,0,-1,559,827,0,0
-658,197,-12.0856,2.66418,0,0,0,0,0,0,0,-1,566,827,-12.0857,-2.66419
-651,197,-11.5285,2.16083,0,0,0,0,0,0,0,-1,573,827,-11.5285,-2.16082
-644,197,-11.0482,2.11261,0,0,0,0,0,0,0,-1,580,827,-11.0482,-2.11264
-637,197,-10.4631,1.88367,0,0,0,0,0,0,0,-1,587,827,-10.4631,-1.88364
-630,197,-10.1326,1.54535,0.0363992,-0.0213013,0.00134551,0.0364306,-0.0213327,0.023302,0.0337272,0.0446701,594,827,-10.1326,-1.54533
-623,197,-9.08838,0.791321,0.0264498,-0.0159488,0.00164407,0.0265135,-0.0160124,0.038699,0.0248006,0.0488009,601,827,-9.08839,-0.791326
-616,197,-9.18518,0.985291,0.0185092,-0.0118091,0.00171421,0.0186058,-0.0119057,0.0563013,0.0177568,0.0471686,608,827,-9.18519,-0.985277
-609,197,-9.37067,1.24915,0.0124739,-0.00816852,0.00173028,0.0126179,-0.00831255,0.0830493,0.0121691,0.033054,615,827,-9.37069,-1.24913
-602,197,-9.4079,1.23743,0.00796133,-0.00558068,0.00170218,0.00817201,-0.00579136,0.123145,0.00810072,0.0165902,622,827,-9.40789,-1.23745
-595,197,-9.41754,1.12665,0.00428224,-0.0045636,0.00176589,0.00462173,-0.00490309,0.189934,0.00549996,0.015996,629,827,-9.41756,-1.12662
-588,197,-9.40808,0.957642,0.00150581,-0.00334444,0.00179357,0.00209699,-0.00393562,0.318399,0.00353644,0.0162714,636,827,-9.40805,-0.957632
-581,197,-9.40051,0.781128,-0.000790087,-0.00230894,0.00182512,0.000427298,-0.00352633,0.588245,0.00250549,0.0100923,643,827,-9.40051,-0.781126
-574,197,-9.41187,0.619629,-0.00245153,-0.00209967,0.00200495,-0.000262942,-0.00428825,0.82916,0.00277534,0.0122887,650,827,-9.41186,-0.61965
-567,197,-9.42426,0.442078,-0.00313245,-0.00285551,0.00226429,-0.000725455,-0.0052625,0.815938,0.00329326,0.0141525,657,827,-9.42428,-0.442059
-560,197,-9.43005,0.28772,-0.00332063,-0.0038226,0.00290115,-0.000659633,-0.0064836,0.742249,0.00412016,0.0128167,664,827,-9.43006,-0.287749
-553,197,-9.42798,0.148621,-0.00328536,-0.0047007,0.00361891,-0.000305581,-0.00768048,0.688842,0.00502156,0.0121138,671,827,-9.42795,-0.148616
-546,197,-9.39557,-0.031311,-0.0038051,-0.00622599,0.00427404,-0.000573406,-0.00945768,0.647407,0.00612294,0.0219161,678,827,-9.39554,0.031333
-539,197,-9.53558,-0.115051,-0.00393526,-0.00754984,0.00499558,-0.000430098,-0.011055,0.611834,0.0072309,0.0474729,685,827,-9.5356,0.115047
-532,197,-9.96552,-0.246094,0,0,0,0,0,0,0,-1,692,827,-9.9655,0.246084
-525,197,-13.2282,0.1203,0,0,0,0,0,0,0,-1,699,827,-13.2282,-0.120305
-518,197,-12.8016,0.413208,-0.00246083,-0.0107382,0.00657417,0.0011689,-0.014368,0.50447,0.0099911,0.0442169,706,827,-12.8016,-0.413194
-511,197,-12.7614,0.426819,-0.00143307,-0.0112644,0.00671241,0.00197113,-0.0146686,0.469351,0.010498,0.0439884,713,827,-12.7614,-0.426827
-504,197,-12.4783,0.851318,9.81036e-06,-0.0112907,0.00645431,0.00293764,-0.0142185,0.425864,0.0105948,0.0422638,720,827,-12.4783,-0.851343
-497,197,-12.561,0.903076,0.0021382,-0.0106027,0.0055062,0.00418801,-0.0126526,0.356378,0.010124,0.0392413,727,827,-12.561,-0.903077
-490,197,-12.6284,0.890137,0.00494269,-0.00903513,0.00367124,0.00584826,-0.0099407,0.241839,0.00921727,0.0367206,734,827,-12.6284,-0.89011
-483,197,-12.4775,1.02399,0.00874154,-0.00654131,0.000689231,0.00877256,-0.00657233,0.0449766,0.00888968,0.0405271,741,827,-12.4776,-1.02399
-476,197,0,0,0,0,0,0,0,0,0,-1,748,827,0,0
-469,197,0,0,0,0,0,0,0,0,0,-1,755,827,0,0
-462,197,0,0,0,0,0,0,0,0,0,-1,762,827,0,0
-455,197,0,0,0,0,0,0,0,0,0,-1,769,827,0,0
-448,197,0,0,0,0,0,0,0,0,0,-1,776,827,0,0
-441,197,0,0,0,0,0,0,0,0,0,-1,783,827,0,0
-434,197,0,0,0,0,0,0,0,0,0,-1,790,827,0,0
-427,197,0,0,0,0,0,0,0,0,0,-1,797,827,0,0
-420,197,0,0,0,0,0,0,0,0,0,-1,804,827,0,0
-413,197,0,0,0,0,0,0,0,0,0,-1,811,827,0,0
-406,197,0,0,0,0,0,0,0,0,0,-1,818,827,0,0
-399,197,0,0,0,0,0,0,0,0,0,-1,825,827,0,0
-392,197,0,0,0,0,0,0,0,0,0,-1,832,827,0,0
-385,197,0,0,0,0,0,0,0,0,0,-1,839,827,0,0
-378,197,0,0,0,0,0,0,0,0,0,-1,846,827,0,0
-371,197,0,0,0,0,0,0,0,0,0,-1,853,827,0,0
-364,197,0,0,0,0,0,0,0,0,0,-1,860,827,0,0
-357,197,0,0,0,0,0,0,0,0,0,-1,867,827,0,0
-350,197,0,0,0,0,0,0,0,0,0,-1,874,827,0,0
-343,197,0,0,0,0,0,0,0,0,0,-1,881,827,0,0
-336,197,0,0,0,0,0,0,0,0,0,-1,888,827,0,0
-329,197,0,0,0,0,0,0,0,0,0,-1,895,827,0,0
-322,197,0,0,0,0,0,0,0,0,0,-1,902,827,0,0
-315,197,0,0,0,0,0,0,0,0,0,-1,909,827,0,0
-308,197,0,0,0,0,0,0,0,0,0,-1,916,827,0,0
-301,197,0,0,0,0,0,0,0,0,0,-1,923,827,0,0
-294,197,0,0,0,0,0,0,0,0,0,-1,930,827,0,0
-287,197,0,0,0,0,0,0,0,0,0,-1,937,827,0,0
-280,197,0,0,0,0,0,0,0,0,0,-1,944,827,0,0
-273,197,0,0,0,0,0,0,0,0,0,-1,951,827,0,0
-266,197,0,0,0,0,0,0,0,0,0,-1,958,827,0,0
-259,197,0,0,0,0,0,0,0,0,0,-1,965,827,0,0
-252,197,0,0,0,0,0,0,0,0,0,-1,972,827,0,0
-245,197,0,0,0,0,0,0,0,0,0,-1,979,827,0,0
-238,197,0,0,0,0,0,0,0,0,0,-1,986,827,0,0
-231,197,0,0,0,0,0,0,0,0,0,-1,993,827,0,0
-224,197,0,0,0,0,0,0,0,0,0,-1,1000,827,0,0
-217,197,0,0,0,0,0,0,0,0,0,-1,1007,827,0,0
-210,197,0,0,0,0,0,0,0,0,0,-1,1014,827,0,0
-203,197,0,0,0,0,0,0,0,0,0,-1,1021,827,0,0
-196,197,0,0,0,0,0,0,0,0,0,-1,1028,827,0,0
-189,197,0,0,0,0,0,0,0,0,0,-1,1035,827,0,0
-182,197,0,0,0,0,0,0,0,0,0,-1,1042,827,0,0
-175,197,0,0,0,0,0,0,0,0,0,-1,1049,827,0,0
-168,197,0,0,0,0,0,0,0,0,0,-1,1056,827,0,0
-161,197,0,0,0,0,0,0,0,0,0,-1,1063,827,0,0
-154,197,0,0,0,0,0,0,0,0,0,-1,1070,827,0,0
-147,197,0,0,0,0,0,0,0,0,0,-1,1077,827,0,0
-140,197,0,0,0,0,0,0,0,0,0,-1,1084,827,0,0
-133,197,0,0,0,0,0,0,0,0,0,-1,1091,827,0,0
-126,197,0,0,0,0,0,0,0,0,0,-1,1098,827,0,0
-119,197,0,0,0,0,0,0,0,0,0,-1,1105,827,0,0
-112,197,0,0,0,0,0,0,0,0,0,-1,1112,827,0,0
-105,197,0,0,0,0,0,0,0,0,0,-1,1119,827,0,0
-98,197,0,0,0,0,0,0,0,0,0,-1,1126,827,0,0
-91,197,0,0,0,0,0,0,0,0,0,-1,1133,827,0,0
-84,197,0,0,0,0,0,0,0,0,0,-1,1140,827,0,0
-77,197,0,0,0,0,0,0,0,0,0,-1,1147,827,0,0
-70,197,0,0,0,0,0,0,0,0,0,-1,1154,827,0,0
-63,197,0,0,0,0,0,0,0,0,0,-1,1161,827,0,0
-56,197,0,0,0,0,0,0,0,0,0,-1,1168,827,0,0
-49,197,0,0,0,0,0,0,0,0,0,-1,1175,827,0,0
-42,197,0,0,0,0,0,0,0,0,0,-1,1182,827,0,0
-35,197,0,0,0,0,0,0,0,0,0,-1,1189,827,0,0
-28,197,0,0,0,0,0,0,0,0,0,-1,1196,827,0,0
-21,197,0,0,0,0,0,0,0,0,0,-1,1203,827,0,0
-14,197,0,0,0,0,0,0,0,0,0,-1,1210,827,0,0
-7,197,0,0,0,0,0,0,0,0,0,-1,1217,827,0,0
0,197,0,0,0,0,0,0,0,0,0,-1,1224,827,0,0
7,197,0,0,0,0,0,0,0,0,0,-1,1231,827,0,0
14,197,0,0,0,0,0,0,0,0,0,-1,1238,827,0,0
21,197,0,0,0,0,0,0,0,0,0,-1,1245,827,0,0
28,197,0,0,0,0,0,0,0,0,0,-1,1252,827,0,0
35,197,0,0,0,0,0,0,0,0,0,-1,1259,827,0,0
42,197,0,0,0,0,0,0,0,0,0,-1,1266,827,0,0
49,197,0,0,0,0,0,0,0,0,0,-1,1273,827,0,0
56,197,0,0,0,0,0,0,0,0,0,-1,1280,827,0,0
63,197,0,0,0,0,0,0,0,0,0,-1,1287,827,0,0
70,197,0,0,0,0,0,0,0,0,0,-1,1294,827,0,0
77,197,0,0,0,0,0,0,0,0,0,-1,1301,827,0,0
84,197,0,0,0,0,0,0,0,0,0,-1,1308,827,0,0
91,197,0,0,0,0,0,0,0,0,0,-1,1315,827,0,0
98,197,0,0,0,0,0,0,0,0,0,-1,1322,827,0,0
105,197,0,0,0,0,0,0,0,0,0,-1,1329,827,0,0
112,197,0,0,0,0,0,0,0,0,0,-1,1336,827,0,0
119,197,0,0,0,0,0,0,0,0,0,-1,1343,827,0,0
126,197,0,0,0,0,0,0,0,0,0,-1,1350,827,0,0
133,197,0,0,0,0,0,0,0,0,0,-1,1357,827,0,0
140,197,0,0,0,0,0,0,0,0,0,-1,1364,827,0,0
147,197,0,0,0,0,0,0,0,0,0,-1,1371,827,0,0
154,197,0,0,0,0,0,0,0,0,0,-1,1378,827,0,0
161,197,0,0,0,0,0,0,0,0,0,-1,1385,827,0,0
168,197,0,0,0,0,0,0,0,0,0,-1,1392,827,0,0
175,197,0,0,0,0,0,0,0,0,0,-1,1399,827,0,0
182,197,0,0,0,0,0,0,0,0,0,-1,1406,827,0,0
189,197,0,0,0,0,0,0,0,0,0,-1,1413,827,0,0
196,197,0,0,0,0,0,0,0,0,0,-1,1420,827,0,0
203,197,0,0,0,0,0,0,0,0,0,-1,1427,827,0,0
210,197,0,0,0,0,0,0,0,0,0,-1,1434,827,0,0
217,197,0,0,0,0,0,0,0,0,0,-1,1441,827,0,0
224,197,0,0,0,0,0,0,0,0,0,-1,1448,827,0,0
231,197,0,0,0,0,0,0,0,0,0,-1,1455,827,0,0
238,197,0,0,0,0,0,0,0,0,0,-1,1462,827,0,0
245,197,0,0,0,0,0,0,0,0,0,-1,1469,827,0,0
252,197,0,0,0,0,0,0,0,0,0,-1,1476,827,0,0
259,197,0,0,0,0,0,0,0,0,0,-1,1483,827,0,0
266,197,0,0,0,0,0,0,0,0,0,-1,1490,827,0,0
273,197,0,0,0,0,0,0,0,0,0,-1,1497,827,0,0
280,197,0,0,0,0,0,0,0,0,0,-1,1504,827,0,0
287,197,0,0,0,0,0,0,0,0,0,-1,1511,827,0,0
294,197,0,0,0,0,0,0,0,0,0,-1,1518,827,0,0
301,197,0,0,0,0,0,0,0,0,0,-1,1525,827,0,0
308,197,0,0,0,0,0,0,0,0,0,-1,1532,827,0,0
315,197,0,0,0,0,0,0,0,0,0,-1,1539,827,0,0
322,197,0,0,0,0,0,0,0,0,0,-1,1546,827,0,0
329,197,0,0,0,0,0,0,0,0,0,-1,1553,827,0,0
336,197,0,0,0,0,0,0,0,0,0,-1,1560,827,0,0
343,197,0,0,0,0,0,0,0,0,0,-1,1567,827,0,0
350,197,0,0,0,0,0,0,0,0,0,-1,1574,827,0,0
357,197,0,0,0,0,0,0,0,0,0,-1,1581,827,0,0
364,197,0,0,0,0,0,0,0,0,0,-1,1588,827,0,0
371,197,0,0,0,0,0,0,0,0,0,-1,1595,827,0,0
378,197,0,0,0,0,0,0,0,0,0,-1,1602,827,0,0
385,197,0,0,0,0,0,0,0,0,0,-1,1609,827,0,0
392,197,0,0,0,0,0,0,0,0,0,-1,1616,827,0,0
399,197,0,0,0,0,0,0,0,0,0,-1,1623,827,0,0
406,197,0,0,0,0,0,0,0,0,0,-1,1630,827,0,0
413,197,0,0,0,0,0,0,0,0,0,-1,1637,827,0,0
420,197,0,0,0,0,0,0,0,0,0,-1,1644,827,0,0
427,197,0,0,0,0,0,0,0,0,0,-1,1651,827,0,0
434,197,0,0,0,0,0,0,0,0,0,-1,1658,827,0,0
441,197,0,0,0,0,0,0,0,0,0,-1,1665,827,0,0
448,197,0,0,0,0,0,0,0,0,0,-1,1672,827,0,0
455,197,0,0,0,0,0,0,0,0,0,-1,1679,827,0,0
462,197,0,0,0,0,0,0,0,0,0,-1,1686,827,0,0
469,197,0,0,0,0,0,0,0,0,0,-1,1693,827,0,0
476,197,0,0,0,0,0,0,0,0,0,-1,1700,827,0,0
483,197,0,0,0,0,0,0,0,0,0,-1,1707,827,0,0
490,197,0,0,0,0,0,0,0,0,0,-1,1714,827,0,0
497,197,0,0,0,0,0,0,0,0,0,-1,1721,827,0,0
504,197,0,0,0,0,0,0,0,0,0,-1,1728,827,0,0
511,197,0,0,0,0,0,0,0,0,0,-1,1735,827,0,0
518,197,0,0,0,0,0,0,0,0,0,-1,1742,827,0,0
525,197,0,0,0,0,0,0,0,0,0,-1,1749,827,0,0
532,197,0,0,0,0,0,0,0,0,0,-1,1756,827,0,0
539,197,0,0,0,0,0,0,0,0,0,-1,1763,827,0,0
546,197,0,0,0,0,0,0,0,0,0,-1,1770,827,0,0
553,197,0,0,0,0,0,0,0,0,0,-1,1777,827,0,0
560,197,0,0,0,0,0,0,0,0,0,-1,1784,827,0,0
567,197,0,0,0,0,0,0,0,0,0,-1,1791,827,0,0
574,197,0,0,0,0,0,0,0,0,0,-1,1798,827,0,0
581,197,0,0,0,0,0,0,0,0,0,-1,1805,827,0,0
588,197,0,0,0,0,0,0,0,0,0,-1,1812,827,0,0
595,197,0,0,0,0,0,0,0,0,0,-1,1819,827,0,0
602,197,19.017,2.68005,0.00266716,0.000959669,0.00699389,0.00885922,-0.00523239,0.724663,0.00822513,0.0387642,1826,827,19.0169,-2.68006
609,197,18.9767,2.85175,0.0015366,0.000451057,0.00449749,0.00552396,-0.0035363,0.725347,0.00527273,0.0406483,1833,827,18.9767,-2.85177
616,197,19.0155,2.70795,0.000608894,0.000637089,0.00187205,0.0024951,-0.00124911,0.789163,0.00220126,0.0407941,1840,827,19.0156,-2.70793
623,197,18.9779,2.5282,-0.000302608,0.00114495,-0.000489383,0.00129487,-0.00045253,-1.27353,0.00104721,0.0379959,1847,827,18.978,-2.52818
630,197,19.015,2.59064,-0.000920223,0.00165531,-0.00227616,0.00298274,-0.00224765,-1.04283,0.00302969,0.0319011,1854,827,19.015,-2.59064
637,197,19.0306,2.6311,-0.00129516,0.00198507,-0.00342256,0.00414021,-0.0034503,-1.00884,0.00438841,0.0291044,1861,827,19.0306,-2.63109
644,197,19.0632,2.5354,-0.00146311,0.00208172,-0.00399821,0.00468277,-0.00406415,-0.994033,0.00505425,0.03449,1868,827,19.0632,-2.53541
651,197,19.2379,2.65192,-0.00146911,0.00199964,-0.00422422,0.00483168,-0.00430114,-0.980194,0.0052758,0.0437554,1875,827,19.238,-2.65193
658,197,19.3491,2.89423,0,0,0,0,0,0,0,-1,1882,827,19.3491,-2.89425
665,197,14.0618,1.80304,0,0,0,0,0,0,0,-1,1889,827,14.0617,-1.80303
672,197,15.0881,1.82764,0,0,0,0,0,0,0,-1,1896,827,15.0882,-1.82763
679,197,15.1732,2.15051,-0.000749744,0.00113274,-0.00354579,0.00386009,-0.00347709,-0.915133,0.00423805,0.0235783,1903,827,15.1732,-2.1505
686,197,15.1401,2.33209,-0.000438102,0.000876216,-0.00300911,0.00329909,-0.00286098,-0.892905,0.00355951,0.0143737,1910,827,15.1401,-2.33209
693,197,15.1069,2.53491,-0.000283484,0.000493678,-0.00252897,0.00266375,-0.00245355,-0.861628,0.00295531,0.01467,1917,827,15.1069,-2.5349
700,197,15.1195,2.71326,0.000382784,0.000317684,-0.00177382,0.00212436,-0.00142389,-0.776224,0.00206184,0.0204251,1924,827,15.1195,-2.71328
707,197,15.1633,2.90887,0.00260241,0.000225295,-0.000488486,0.00269888,0.000128828,-0.194973,0.00175788,0.0092324,1931,827,15.1633,-2.9089
714,197,15.1249,3.08264,0.005864,0.000417775,-7.68126e-05,0.00586509,0.000416691,-0.0141001,0.00377883,0.0118442,1938,827,15.1249,-3.08261
721,197,15.092,3.23212,0.0104656,-0.000333061,0.000290949,0.0104734,-0.000340895,0.0269171,0.00709862,0.0121756,1945,827,15.092,-3.23213
728,197,15.0936,3.40961,0.0158699,-0.00125674,0.000974708,0.0159252,-0.00131204,0.0566679,0.0110801,0.0102755,1952,827,15.0937,-3.40962
735,197,15.0967,3.59302,0.0224536,-0.00273111,0.00197641,0.0226078,-0.00288527,0.0778414,0.0161199,0.0111808,1959,827,15.0967,-3.59305
742,197,15.0782,3.78461,0.0307541,-0.00495878,0.00298445,0.0310018,-0.00520646,0.0828023,0.0226041,0.0197499,1966,827,15.0782,-3.7846
749,197,15.2046,4.02466,0.0404623,-0.00843602,0.00423057,0.0408256,-0.00879934,0.0856693,0.0305752,0.0396762,1973,827,15.2046,-4.02463
756,197,15.7031,4.20911,0.0511956,-0.013549,0.00577504,0.0517067,-0.0140601,0.0882686,0.0399904,0.0422501,1980,827,15.7032,-4.20913
763,197,16.4092,4.34949,0.062295,-0.0207615,0.00769595,0.0630021,-0.0214686,0.0916197,0.0506962,0.0448333,1987,827,16.4092,-4.34951
770,197,17.0365,4.45398,0.0726703,-0.030625,0.0101225,0.0736529,-0.0316076,0.0967688,0.0623673,0.0473902,1994,827,17.0366,-4.45399
777,197,0,0,0,0,0,0,0,0,0,-1,2001,827,0,0
784,197,0,0,0,0,0,0,0,0,0,-1,2008,827,0,0
791,197,0,0,0,0,0,0,0,0,0,-1,2015,827,0,0
798,197,0,0,0,0,0,0,0,0,0,-1,2022,827,0,0
805,197,0,0,0,0,0,0,0,0,0,-1,2029,827,0,0
812,197,0,0,0,0,0,0,0,0,0,-1,2036,827,0,0
-700,190,0,0,0,0,0,0,0,0,0,-1,524,834,0,0
-693,190,0,0,0,0,0,0,0,0,0,-1,531,834,0,0
-686,190,0,0,0,0,0,0,0,0,0,-1,538,834,0,0
-679,190,0,0,0,0,0,0,0,0,0,-1,545,834,0,0
-672,190,0,0,0,0,0,0,0,0,0,-1,552,834,0,0
-665,190,0,0,0,0,0,0,0,0,0,-1,559,834,0,0
-658,190,-12.5204,1.4071,0,0,0,0,0,0,0,-1,566,834,-12.5204,-1.4071
-651,190,-11.8945,1.37708,0,0,0,0,0,0,0,-1,573,834,-11.8945,-1.37705
-644,190,-9.35852,6.66278,0,0,0,0,0,0,0,-1,580,834,-9.35853,-6.66276
-637,190,-10.0829,3.62732,0,0,0,0,0,0,0,-1,587,834,-10.083,-3.6273
-630,190,-10.4651,1.19482,0,0,0,0,0,0,0,-1,594,834,-10.4651,-1.19485
-623,190,-9.67499,1.42023,0.0289218,-0.0159867,0.00558149,0.0296051,-0.01667,0.121817,0.0270626,0.047352,601,834,-9.67499,-1.4202
-616,190,-9.63257,1.35645,0.0197398,-0.0113343,0.00443434,0.0203602,-0.0119547,0.139006,0.0188662,0.0451052,608,834,-9.63259,-1.35646
-609,190,-9.6087,1.30316,0.0123575,-0.00724582,0.00353087,0.0129741,-0.00786239,0.17288,0.01215,0.0246455,615,834,-9.60868,-1.30314
-602,190,-9.59497,1.21747,0.00743902,-0.00464054,0.00272136,0.00802379,-0.00522531,0.211665,0.00770604,0.0159006,622,834,-9.59495,-1.21746
-595,190,-9.59558,1.1261,0.00373178,-0.00369849,0.00249761,0.00449328,-0.00446,0.295939,0.00516919,0.0177353,629,834,-9.59559,-1.12607
-588,190,-9.59155,0.961975,0.000954965,-0.00264583,0.00232074,0.00209179,-0.00378266,0.455498,0.00343813,0.0146142,636,834,-9.59153,-0.961996
-581,190,-9.57471,0.790955,-0.00146779,-0.00186026,0.00220885,0.000553529,-0.00388158,0.741095,0.00279059,0.0108295,643,834,-9.57469,-0.790936
-574,190,-9.57147,0.618042,-0.00304751,-0.0018328,0.00231487,-4.69333e-05,-0.00483338,0.913692,0.00320672,0.0108261,650,834,-9.57146,-0.618048
-567,190,-9.57758,0.445313,-0.0035968,-0.00265946,0.00246112,-0.000622784,-0.00563348,0.879486,0.00356623,0.0123847,657,834,-9.57756,-0.445292
-560,190,-9.61206,0.290649,-0.0036284,-0.00360473,0.0029104,-0.000706147,-0.00652699,0.787432,0.00413609,0.0175798,664,834,-9.61208,-0.290661
-553,190,-9.61584,0.150208,-0.00340593,-0.00436971,0.00348092,-0.000373705,-0.00740193,0.716616,0.00481489,0.0156302,671,834,-9.61586,-0.15019
-546,190,-9.58289,-0.0366821,-0.00353759,-0.00590881,0.0039758,-0.000574386,-0.00887201,0.640493,0.00573281,0.0306272,678,834,-9.58286,0.0366543
-539,190,-9.66364,-0.0870972,-0.00330844,-0.00716277,0.00452076,-0.000321214,-0.01015,0.583916,0.00666217,0.0463209,685,834,-9.66362,0.0870885
-532,190,-9.91089,-0.0718994,0,0,0,0,0,0,0,-1,692,834,-9.91089,0.0719105
-525,190,-12.9991,0.269409,-0.00184414,-0.00940848,0.00541165,0.000976019,-0.0122286,0.480407,0.00849647,0.0481206,699,834,-12.9992,-0.269382
-518,190,-12.802,0.32251,-0.000777328,-0.0102234,0.00566983,0.00187894,-0.0128797,0.438124,0.0092764,0.0492542,706,834,-12.802,-0.322536
-511,190,-12.504,0.582031,0.000567671,-0.0106812,0.00573815,0.00297819,-0.0130917,0.397702,0.00987146,0.0429825,713,834,-12.504,-0.582025
-504,190,-12.3453,1.19177,0.0022077,-0.010537,0.00541234,0.004196,-0.0125253,0.352058,0.0100453,0.0430556,720,834,-12.3453,-1.19177
-497,190,-12.3402,1.43512,0.00420555,-0.0094679,0.00442329,0.0055117,-0.010774,0.287128,0.0095648,0.0439894,727,834,-12.3402,-1.4351
-490,190,-12.3817,1.31976,0,0,0,0,0,0,0,-1,734,834,-12.3817,-1.31979
-483,190,0,0,0,0,0,0,0,0,0,-1,741,834,0,0
-476,190,0,0,0,0,0,0,0,0,0,-1,748,834,0,0
-469,190,0,0,0,0,0,0,0,0,0,-1,755,834,0,0
-462,190,0,0,0,0,0,0,0,0,0,-1,762,834,0,0
-455,190,0,0,0,0,0,0,0,0,0,-1,769,834,0,0
-448,190,0,0,0,0,0,0,0,0,0,-1,776,834,0,0
-441,190,0,0,0,0,0,0,0,0,0,-1,783,834,0,0
-434,190,0,0,0,0,0,0,0,0,0,-1,790,834,0,0
-427,190,0,0,0,0,0,0,0,0,0,-1,797,834,0,0
-420,190,0,0,0,0,0,0,0,0,0,-1,804,834,0,0
-413,190,0,0,0,0,0,0,0,0,0,-1,811,834,0,0
-406,190,0,0,0,0,0,0,0,0,0,-1,818,834,0,0
-399,190,0,0,0,0,0,0,0,0,0,-1,825,834,0,0
-392,190,0,0,0,0,0,0,0,0,0,-1,832,834,0,0
-385,190,0,0,0,0,0,0,0,0,0,-1,839,834,0,0
-378,190,0,0,0,0,0,0,0,0,0,-1,846,834,0,0
-371,190,0,0,0,0,0,0,0,0,0,-1,853,834,0,0
-364,190,0,0,0,0,0,0,0,0,0,-1,860,834,0,0
-357,190,0,0,0,0,0,0,0,0,0,-1,867,834,0,0
-350,190,0,0,0,0,0,0,0,0,0,-1,874,834,0,0
-343,190,0,0,0,0,0,0,0,0,0,-1,881,834,0,0
-336,190,0,0,0,0,0,0,0,0,0,-1,888,834,0,0
-329,190,0,0,0,0,0,0,0,0,0,-1,895,834,0,0
-322,190,0,0,0,0,0,0,0,0,0,-1,902,834,0,0
-315,190,0,0,0,0,0,0,0,0,0,-1,909,834,0,0
-308,190,0,0,0,0,0,0,0,0,0,-1,916,834,0,0
-301,190,0,0,0,0,0,0,0,0,0,-1,923,834,0,0
-294,190,0,0,0,0,0,0,0,0,0,-1,930,834,0,0
-287,190,0,0,0,0,0,0,0,0,0,-1,937,834,0,0
-280,190,0,0,0,0,0,0,0,0,0,-1,944,834,0,0
-273,190,0,0,0,0,0,0,0,0,0,-1,951,834,0,0
-266,190,0,0,0,0,0,0,0,0,0,-1,958,834,0,0
-259,190,0,0,0,0,0,0,0,0,0,-1,965,834,0,0
-252,190,0,0,0,0,0,0,0,0,0,-1,972,834,0,0
-245,190,0,0,0,0,0,0,0,0,0,-1,979,834,0,0
-238,190,0,0,0,0,0,0,0,0,0,-1,986,834,0,0
-231,190,0,0,0,0,0,0,0,0,0,-1,993,834,0,0
-224,190,0,0,0,0,0,0,0,0,0,-1,1000,834,0,0
-217,190,0,0,0,0,0,0,0,0,0,-1,1007,834,0,0
-210,190,0,0,0,0,0,0,0,0,0,-1,1014,834,0,0
-203,190,0,0,0,0,0,0,0,0,0,-1,1021,834,0,0
-196,190,0,0,0,0,0,0,0,0,0,-1,1028,834,0,0
-189,190,0,0,0,0,0,0,0,0,0,-1,1035,834,0,0
-182,190,0,0,0,0,0,0,0,0,0,-1,1042,834,0,0
-175,190,0,0,0,0,0,0,0,0,0,-1,1049,834,0,0
-168,190,0,0,0,0,0,0,0,0,0,-1,1056,834,0,0
-161,190,0,0,0,0,0,0,0,0,0,-1,1063,834,0,0
-154,190,0,0,0,0,0,0,0,0,0,-1,1070,834,0,0
-147,190,0,0,0,0,0,0,0,0,0,-1,1077,834,0,0
-140,190,0,0,0,0,0,0,0,0,0,-1,1084,834,0,0
-133,190,0,0,0,0,0,0,0,0,0,-1,1091,834,0,0
-126,190,0,0,0,0,0,0,0,0,0,-1,1098,834,0,0
-119,190,0,0,0,0,0,0,0,0,0,-1,1105,834,0,0
-112,190,0,0,0,0,0,0,0,0,0,-1,1112,834,0,0
-105,190,0,0,0,0,0,0,0,0,0,-1,1119,834,0,0
-98,190,0,0,0,0,0,0,0,0,0,-1,1126,834,0,0
-91,190,0,0,0,0,0,0,0,0,0,-1,1133,834,0,0
-84,190,0,0,0,0,0,0,0,0,0,-1,1140,834,0,0
-77,190,0,0,0,0,0,0,0,0,0,-1,1147,834,0,0
-70,190,0,0,0,0,0,0,0,0,0,-1,1154,834,0,0
-63,190,0,0,0,0,0,0,0,0,0,-1,1161,834,0,0
-56,190,0,0,0,0,0,0,0,0,0,-1,1168,834,0,0
-49,190,0,0,0,0,0,0,0,0,0,-1,1175,834,0,0
-42,190,0,0,0,0,0,0,0,0,0,-1,1182,834,0,0
-35,190,0,0,0,0,0,0,0,0,0,-1,1189,834,0,0
-28,190,0,0,0,0,0,0,0,0,0,-1,1196,834,0,0
-21,190,0,0,0,0,0,0,0,0,0,-1,1203,834,0,0
-14,190,0,0,0,0,0,0,0,0,0,-1,1210,834,0,0
-7,190,0,0,0,0,0,0,0,0,0,-1,1217,834,0,0
0,190,0,0,0,0,0,0,0,0,0,-1,1224,834,0,0
7,190,0,0,0,0,0,0,0,0,0,-1,1231,834,0,0
14,190,0,0,0,0,0,0,0,0,0,-1,1238,834,0,0
21,190,0,0,0,0,0,0,0,0,0,-1,1245,834,0,0
28,190,0,0,0,0,0,0,0,0,0,-1,1252,834,0,0
35,190,0,0,0,0,0,0,0,0,0,-1,1259,834,0,0
42,190,0,0,0,0,0,0,0,0,0,-1,1266,834,0,0
49,190,0,0,0,0,0,0,0,0,0,-1,1273,834,0,0
56,190,0,0,0,0,0,0,0,0,0,-1,1280,834,0,0
63,190,0,0,0,0,0,0,0,0,0,-1,1287,834,0,0
70,190,0,0,0,0,0,0,0,0,0,-1,1294,834,0,0
77,190,0,0,0,0,0,0,0,0,0,-1,1301,834,0,0
84,190,0,0,0,0,0,0,0,0,0,-1,1308,834,0,0
91,190,0,0,0,0,0,0,0,0,0,-1,1315,834,0,0
98,190,0,0,0,0,0,0,0,0,0,-1,1322,834,0,0
105,190,0,0,0,0,0,0,0,0,0,-1,1329,834,0,0
112,190,0,0,0,0,0,0,0,0,0,-1,1336,834,0,0
119,190,0,0,0,0,0,0,0,0,0,-1,1343,834,0,0
126,190,0,0,0,0,0,0,0,0,0,-1,1350,834,0,0
133,190,0,0,0,0,0,0,0,0,0,-1,1357,834,0,0
140,190,0,0,0,0,0,0,0,0,0,-1,1364,834,0,0
147,190,0,0,0,0,0,0,0,0,0,-1,1371,834,0,0
154,190,0,0,0,0,0,0,0,0,0,-1,1378,834,0,0
161,190,0,0,0,0,0,0,0,0,0,-1,1385,834,0,0
168,190,0,0,0,0,0,0,0,0,0,-1,1392,834,0,0
175,190,0,0,0,0,0,0,0,0,0,-1,1399,834,0,0
182,190,0,0,0,0,0,0,0,0,0,-1,1406,834,0,0
189,190,0,0,0,0,0,0,0,0,0,-1,1413,834,0,0
196,190,0,0,0,0,0,0,0,0,0,-1,1420,834,0,0
203,190,0,0,0,0,0,0,0,0,0,-1,1427,834,0,0
210,190,0,0,0,0,0,0,0,0,0,-1,1434,834,0,0
217,190,0,0,0,0,0,0,0,0,0,-1,1441,834,0,0
224,190,0,0,0,0,0,0,0,0,0,-1,1448,834,0,0
231,190,0,0,0,0,0,0,0,0,0,-1,1455,834,0,0
238,190,0,0,0,0,0,0,0,0,0,-1,1462,834,0,0
245,190,0,0,0,0,0,0,0,0,0,-1,1469,834,0,0
252,190,0,0,0,0,0,0,0,0,0,-1,1476,834,0,0
259,190,0,0,0,0,0,0,0,0,0,-1,1483,834,0,0
266,190,0,0,0,0,0,0,0,0,0,-1,1490,834,0,0
273,190,0,0,0,0,0,0,0,0,0,-1,1497,834,0,0
280,190,0,0,0,0,0,0,0,0,0,-1,1504,834,0,0
287,190,0,0,0,0,0,0,0,0,0,-1,1511,834,0,0
294,190,0,0,0,0,0,0,0,0,0,-1,1518,834,0,0
301,190,0,0,0,0,0,0,0,0,0,-1,1525,834,0,0
308,190,0,0,0,0,0,0,0,0,0,-1,1532,834,0,0
315,190,0,0,0,0,0,0,0,0,0,-1,1539,834,0,0
322,190,0,0,0,0,0,0,0,0,0,-1,1546,834,0,0
329,190,0,0,0,0,0,0,0,0,0,-1,1553,834,0,0
336,190,0,0,0,0,0,0,0,0,0,-1,1560,834,0,0
343,190,0,0,0,0,0,0,0,0,0,-1,1567,834,0,0
350,190,0,0,0,0,0,0,0,0,0,-1,1574,834,0,0
357,190,0,0,0,0,0,0,0,0,0,-1,1581,834,0,0
364,190,0,0,0,0,0,0,0,0,0,-1,1588,834,0,0
371,190,0,0,0,0,0,0,0,0,0,-1,1595,834,0,0
378,190,0,0,0,0,0,0,0,0,0,-1,1602,834,0,0
385,190,0,0,0,0,0,0,0,0,0,-1,1609,834,0,0
392,190,0,0,0,0,0,0,0,0,0,-1,1616,834,0,0
399,190,0,0,0,0,0,0,0,0,0,-1,1623,834,0,0
406,190,0,0,0,0,0,0,0,0,0,-1,1630,834,0,0
413,190,0,0,0,0,0,0,0,0,0,-1,1637,834,0,0
420,190,0,0,0,0,0,0,0,0,0,-1,1644,834,0,0
427,190,0,0,0,0,0,0,0,0,0,-1,1651,834,0,0
434,190,0,0,0,0,0,0,0,0,0,-1,1658,834,0,0
441,190,0,0,0,0,0,0,0,0,0,-1,1665,834,0,0
448,190,0,0,0,0,0,0,0,0,0,-1,1672,834,0,0
455,190,0,0,0,0,0,0,0,0,0,-1,1679,834,0,0
462,190,0,0,0,0,0,0,0,0,0,-1,1686,834,0,0
469,190,0,0,0,0,0,0,0,0,0,-1,1693,834,0,0
476,190,0,0,0,0,0,0,0,0,0,-1,1700,834,0,0
483,190,0,0,0,0,0,0,0,0,0,-1,1707,834,0,0
490,190,0,0,0,0,0,0,0,0,0,-1,1714,834,0,0
497,190,0,0,0,0,0,0,0,0,0,-1,1721,834,0,0
504,190,0,0,0,0,0,0,0,0,0,-1,1728,834,0,0
511,190,0,0,0,0,0,0,0,0,0,-1,1735,834,0,0
518,190,0,0,0,0,0,0,0,0,0,-1,1742,834,0,0
525,190,0,0,0,0,0,0,0,0,0,-1,1749,834,0,0
532,190,0,0,0,0,0,0,0,0,0,-1,1756,834,0,0
539,190,0,0,0,0,0,0,0,0,0,-1,1763,834,0,0
546,190,0,0,0,0,0,0,0,0,0,-1,1770,834,0,0
553,190,0,0,0,0,0,0,0,0,0,-1,1777,834,0,0
560,190,0,0,0,0,0,0,0,0,0,-1,1784,834,0,0
567,190,0,0,0,0,0,0,0,0,0,-1,1791,834,0,0
574,190,0,0,0,0,0,0,0,0,0,-1,1798,834,0,0
581,190,0,0,0,0,0,0,0,0,0,-1,1805,834,0,0
588,190,0,0,0,0,0,0,0,0,0,-1,1812,834,0,0
595,190,0,0,0,0,0,0,0,0,0,-1,1819,834,0,0
602,190,19.0283,2.52325,0.000370212,0.000932113,0.00859904,0.00925479,-0.00795246,0.801729,0.00994409,0.0429362,1826,834,19.0283,-2.52327
609,190,19.0415,2.79346,4.8712e-06,0.000320249,0.00608274,0.00624735,-0.00592223,0.798357,0.00702694,0.0420676,1833,834,19.0416,-2.79343
616,190,19.0109,2.67816,-1.21761e-05,0.00052349,0.00345473,0.00372076,-0.00320944,0.824084,0.00400478,0.0400588,1840,834,19.0109,-2.67816
623,190,18.9052,2.56897,-0.000202661,0.00105056,0.000985982,0.00159219,-0.000744298,1.06846,0.00137826,0.040358,1847,834,18.9052,-2.56894
630,190,18.9225,2.59729,-0.000335291,0.00161256,-0.000973946,0.00201599,-0.000738719,-1.17809,0.00164643,0.041909,1854,834,18.9225,-2.59729
637,190,18.9734,2.65948,-0.000424403,0.00195294,-0.00228552,0.00334042,-0.00181188,-1.02519,0.003018,0.035955,1861,834,18.9734,-2.65951
644,190,18.9877,2.64911,-0.000477144,0.00204139,-0.00302647,0.00406012,-0.00249587,-0.982545,0.00382085,0.0275914,1868,834,18.9877,-2.64913
651,190,18.9833,2.72681,-0.000474684,0.00194186,-0.00336074,0.00430493,-0.00283776,-0.957966,0.00415273,0.0357821,1875,834,18.9833,-2.72683
658,190,19.1276,2.75122,-0.000407699,0.0017347,-0.00354974,0.00437135,-0.00304435,-0.931937,0.00430424,0.0443685,1882,834,19.1276,-2.7512
665,190,19.4254,2.58136,0,0,0,0,0,0,0,-1,1889,834,19.4254,-2.58136
672,190,15.5077,2.18024,0,0,0,0,0,0,0,-1,1896,834,15.5077,-2.18023
679,190,15.374,2.3172,-0.000248406,0.00105355,-0.00307873,0.00354938,-0.00274423,-0.889585,0.00364351,0.0295588,1903,834,15.374,-2.31717
686,190,15.2915,2.38373,-0.00012046,0.000843828,-0.00271539,0.00311955,-0.00239618,-0.873262,0.00319362,0.0130908,1910,834,15.2915,-2.38373
693,190,15.2994,2.52856,-0.00012575,0.000567064,-0.00236489,0.00261078,-0.00216947,-0.858121,0.00276379,0.0126932,1917,834,15.2995,-2.52855
700,190,15.2853,2.73022,0.000262848,0.000366694,-0.00175402,0.00206956,-0.00144001,-0.800195,0.00203709,0.011376,1924,834,15.2853,-2.73023
707,190,15.2932,2.90149,0.00199171,0.000195403,-0.000662733,0.00220975,-2.26401e-05,-0.31785,0.00148077,0.0124427,1931,834,15.2932,-2.90147
714,190,15.3099,3.07001,0.00464419,0.000292646,-0.000397376,0.00468018,0.000256656,-0.0903229,0.00303819,0.0114841,1938,834,15.3099,-3.06999
721,190,15.2909,3.24072,0.00860173,-0.000476005,-0.000119598,0.00860331,-0.00047758,-0.0131718,0.00590118,0.0104941,1945,834,15.2909,-3.24073
728,190,15.2864,3.39502,0.0131972,-0.00153018,0.000495241,0.0132139,-0.00154681,0.0335766,0.00936752,0.0119689,1952,834,15.2864,-3.39503
735,190,15.2947,3.56165,0.0186795,-0.00318719,0.00144837,0.018775,-0.00328271,0.0658529,0.0137422,0.0119493,1959,834,15.2947,-3.56163
742,190,15.2633,3.78778,0.0255524,-0.00559934,0.00238139,0.0257334,-0.00578034,0.0758575,0.019372,0.0158432,1966,834,15.2633,-3.78776
749,190,15.2969,4.18988,0.0334247,-0.00931864,0.003591,0.0337243,-0.00961823,0.0832357,0.0262823,0.0357775,1973,834,15.2969,-4.18986
756,190,15.6367,4.42133,0.0419522,-0.014734,0.00522131,0.0424291,-0.0152109,0.0910877,0.0344931,0.0420069,1980,834,15.6367,-4.42133
763,190,15.8888,4.33661,0,0,0,0,0,0,0,-1,1987,834,15.8888,-4.33663
770,190,17.1274,4.77832,0.0579191,-0.0324067,0.0103965,0.0591003,-0.0335879,0.11313,0.054185,0.0472275,1994,834,17.1274,-4.77833
777,190,17.3185,3.79724,0.0628353,-0.0457845,0.0144177,0.0647164,-0.0476657,0.129743,0.0651323,0.0428091,2001,834,17.3185,-3.79726
784,190,0,0,0,0,0,0,0,0,0,-1,2008,834,0,0
791,190,0,0,0,0,0,0,0,0,0,-1,2015,834,0,0
798,190,0,0,0,0,0,0,0,0,0,-1,2022,834,0,0
805,190,0,0,0,0,0,0,0,0,0,-1,2029,834,0,0
812,190,0,0,0,0,0,0,0,0,0,-1,2036,834,0,0
-700,183,0,0,0,0,0,0,0,0,0,-1,524,841,0,0
-693,183,0,0,0,0,0,0,0,0,0,-1,531,841,0,0
-686,183,0,0,0,0,0,0,0,0,0,-1,538,841,0,0
-679,183,0,0,0,0,0,0,0,0,0,-1,545,841,0,0
-672,183,0,0,0,0,0,0,0,0,0,-1,552,841,0,0
-665,183,0,0,0,0,0,0,0,0,0,-1,559,841,0,0
-658,183,-9.07666,9.47174,0,0,0,0,0,0,0,-1,566,841,-9.07667,-9.47174
-651,183,-10.9236,3.97742,0,0,0,0,0,0,0,-1,573,841,-10.9236,-3.97742
-644,183,-9.61945,3.10193,0,0,0,0,0,0,0,-1,580,841,-9.61944,-3.10194
-637,183,-9.07318,1.38849,0,0,0,0,0,0,0,-1,587,841,-9.07317,-1.38849
-630,183,-8.81824,0.982605,0.0443969,-0.0222502,0.0112736,0.0462522,-0.0241055,0.163111,0.0412864,0.0465934,594,841,-8.81824,-0.982581
-623,183,-9.57202,1.47137,0.0314329,-0.0157337,0.00892513,0.0330653,-0.0173661,0.180896,0.0295831,0.0454564,601,841,-9.57203,-1.47138
-616,183,-9.7309,1.46381,0.021381,-0.0107711,0.00689947,0.022799,-0.0121892,0.202701,0.0205077,0.0385733,608,841,-9.73087,-1.46383
-609,183,-9.7616,1.3772,0.0130629,-0.00637617,0.00529505,0.0144117,-0.00772492,0.249415,0.0129735,0.0168034,615,841,-9.76163,-1.37718
-602,183,-9.76575,1.25818,0.00744339,-0.00385074,0.00387054,0.00864252,-0.00504988,0.300433,0.0079955,0.0110369,622,841,-9.76572,-1.25821
-595,183,-9.76202,1.09564,0.00340493,-0.00297441,0.00331861,0.00481821,-0.0043877,0.402604,0.00531697,0.0102762,629,841,-9.76204,-1.09564
-588,183,-9.74603,0.9552,0.000532933,-0.00206303,0.00291873,0.00242928,-0.00395937,0.576176,0.00372359,0.0102981,636,841,-9.74606,-0.955199
-581,183,-9.75079,0.802185,-0.00209893,-0.00151394,0.00268649,0.000895927,-0.0045088,0.839624,0.00334475,0.0117058,643,841,-9.7508,-0.802207
-574,183,-9.74292,0.641052,-0.00369757,-0.00162897,0.00273553,0.000261266,-0.00558781,0.96614,0.00381527,0.0119089,650,841,-9.74291,-0.641045
-567,183,-9.71478,0.485657,-0.00419492,-0.00244348,0.00277096,-0.000413154,-0.00622525,0.938449,0.00401953,0.0162683,657,841,-9.71479,-0.485668
-560,183,-9.79303,0.364136,-0.00412516,-0.00330937,0.00302635,-0.00066355,-0.00677098,0.852385,0.00430986,0.019232,664,841,-9.793,-0.364133
-553,183,-9.71826,0.139465,-0.0038408,-0.00395547,0.00344348,-0.000454183,-0.00734209,0.777074,0.00475058,0.0152209,671,841,-9.71826,-0.139476
-546,183,-9.61633,-0.00213623,-0.00359555,-0.00539823,0.00375964,-0.000630722,-0.00836306,0.667748,0.00537748,0.0373249,678,841,-9.61636,0.00212129
-539,183,-9.34076,-0.145996,0,0,0,0,0,0,0,-1,685,841,-9.34077,0.146026
-532,183,-12.2357,1.11249,0,0,0,0,0,0,0,-1,692,841,-12.2356,-1.11251
-525,183,-12.7377,0.47406,-0.000732069,-0.00858935,0.00458157,0.0013746,-0.010696,0.430986,0.00763026,0.0485788,699,841,-12.7377,-0.474069
-518,183,-12.5458,0.512085,0.000831358,-0.00935894,0.0046564,0.00263857,-0.0111662,0.370218,0.00846188,0.0462372,706,841,-12.5458,-0.512095
-511,183,-12.244,0.619995,0.0026832,-0.00974173,0.00457616,0.00418669,-0.0112452,0.317438,0.00921506,0.0406041,713,841,-12.244,-0.620002
-504,183,-12.2029,1.17664,0.00470038,-0.0094152,0.00414021,0.00582511,-0.0105399,0.26526,0.00957818,0.0401643,720,841,-12.2029,-1.17665
-497,183,-11.847,1.8938,0,0,0,0,0,0,0,-1,727,841,-11.847,-1.89379
-490,183,-12.4138,1.00018,0,0,0,0,0,0,0,-1,734,841,-12.4138,-1.00021
-483,183,0,0,0,0,0,0,0,0,0,-1,741,841,0,0
-476,183,0,0,0,0,0,0,0,0,0,-1,748,841,0,0
-469,183,0,0,0,0,0,0,0,0,0,-1,755,841,0,0
-462,183,0,0,0,0,0,0,0,0,0,-1,762,841,0,0
-455,183,0,0,0,0,0,0,0,0,0,-1,769,841,0,0
-448,183,0,0,0,0,0,0,0,0,0,-1,776,841,0,0
-441,183,0,0,0,0,0,0,0,0,0,-1,783,841,0,0
-434,183,0,0,0,0,0,0,0,0,0,-1,790,841,0,0
-427,183,0,0,0,0,0,0,0,0,0,-1,797,841,0,0
-420,183,0,0,0,0,0,0,0,0,0,-1,804,841,0,0
-413,183,0,0,0,0,0,0,0,0,0,-1,811,841,0,0
-406,183,0,0,0,0,0,0,0,0,0,-1,818,841,0,0
-399,183,0,0,0,0,0,0,0,0,0,-1,825,841,0,0
-392,183,0,0,0,0,0,0,0,0,0,-1,832,841,0,0
-385,183,0,0,0,0,0,0,0,0,0,-1,839,841,0,0
-378,183,0,0,0,0,0,0,0,0,0,-1,846,841,0,0
-371,183,0,0,0,0,0,0,0,0,0,-1,853,841,0,0
-364,183,0,0,0,0,0,0,0,0,0,-1,860,841,0,0
-357,183,0,0,0,0,0,0,0,0,0,-1,867,841,0,0
-350,183,0,0,0,0,0,0,0,0,0,-1,874,841,0,0
-343,183,0,0,0,0,0,0,0,0,0,-1,881,841,0,0
-336,183,0,0,0,0,0,0,0,0,0,-1,888,841,0,0
-329,183,0,0,0,0,0,0,0,0,0,-1,895,841,0,0
-322,183,0,0,0,0,0,0,0,0,0,-1,902,841,0,0
-315,183,0,0,0,0,0,0,0,0,0,-1,909,841,0,0
-308,183,0,0,0,0,0,0,0,0,0,-1,916,841,0,0
-301,183,0,0,0,0,0,0,0,0,0,-1,923,841,0,0
-294,183,0,0,0,0,0,0,0,0,0,-1,930,841,0,0
-287,183,0,0,0,0,0,0,0,0,0,-1,937,841,0,0
-280,183,0,0,0,0,0,0,0,0,0,-1,944,841,0,0
-273,183,0,0,0,0,0,0,0,0,0,-1,951,841,0,0
-266,183,0,0,0,0,0,0,0,0,0,-1,958,841,0,0
-259,183,0,0,0,0,0,0,0,0,0,-1,965,841,0,0
-252,183,0,0,0,0,0,0,0,0,0,-1,972,841,0,0
-245,183,0,0,0,0,0,0,0,0,0,-1,979,841,0,0
-238,183,0,0,0,0,0,0,0,0,0,-1,986,841,0,0
-231,183,0,0,0,0,0,0,0,0,0,-1,993,841,0,0
-224,183,0,0,0,0,0,0,0,0,0,-1,1000,841,0,0
-217,183,0,0,0,0,0,0,0,0,0,-1,1007,841,0,0
-210,183,0,0,0,0,0,0,0,0,0,-1,1014,841,0,0
-203,183,0,0,0,0,0,0,0,0,0,-1,1021,841,0,0
-196,183,0,0,0,0,0,0,0,0,0,-1,1028,841,0,0
-189,183,0,0,0,0,0,0,0,0,0,-1,1035,841,0,0
-182,183,0,0,0,0,0,0,0,0,0,-1,1042,841,0,0
-175,183,0,0,0,0,0,0,0,0,0,-1,1049,841,0,0
-168,183,0,0,0,0,0,0,0,0,0,-1,1056,841,0,0
-161,183,0,0,0,0,0,0,0,0,0,-1,1063,841,0,0
-154,183,0,0,0,0,0,0,0,0,0,-1,1070,841,0,0
-147,183,0,0,0,0,0,0,0,0,0,-1,1077,841,0,0
-140,183,0,0,0,0,0,0,0,0,0,-1,1084,841,0,0
-133,183,0,0,0,0,0,0,0,0,0,-1,1091,841,0,0
-126,183,0,0,0,0,0,0,0,0,0,-1,1098,841,0,0
-119,183,0,0,0,0,0,0,0,0,0,-1,1105,841,0,0
-112,183,0,0,0,0,0,0,0,0,0,-1,1112,841,0,0
-105,183,0,0,0,0,0,0,0,0,0,-1,1119,841,0,0
-98,183,0,0,0,0,0,0,0,0,0,-1,1126,841,0,0
-91,183,0,0,0,0,0,0,0,0,0,-1,1133,841,0,0
-84,183,0,0,0,0,0,0,0,0,0,-1,1140,841,0,0
-77,183,0,0,0,0,0,0,0,0,0,-1,1147,841,0,0
-70,183,0,0,0,0,0,0,0,0,0,-1,1154,841,0,0
-63,183,0,0,0,0,0,0,0,0,0,-1,1161,841,0,0
-56,183,0,0,0,0,0,0,0,0,0,-1,1168,841,0,0
-49,183,0,0,0,0,0,0,0,0,0,-1,1175,841,0,0
-42,183,0,0,0,0,0,0,0,0,0,-1,1182,841,0,0
-35,183,0,0,0,0,0,0,0,0,0,-1,1189,841,0,0
-28,183,0,0,0,0,0,0,0,0,0,-1,1196,841,0,0
-21,183,0,0,0,0,0,0,0,0,0,-1,1203,841,0,0
-14,183,0,0,0,0,0,0,0,0,0,-1,1210,841,0,0
-7,183,0,0,0,0,0,0,0,0,0,-1,1217,841,0,0
0,183,0,0,0,0,0,0,0,0,0,-1,1224,841,0,0
7,183,0,0,0,0,0,0,0,0,0,-1,1231,841,0,0
14,183,0,0,0,0,0,0,0,0,0,-1,1238,841,0,0
21,183,0,0,0,0,0,0,0,0,0,-1,1245,841,0,0
28,183,0,0,0,0,0,0,0,0,0,-1,1252,841,0,0
35,183,0,0,0,0,0,0,0,0,0,-1,1259,841,0,0
42,183,0,0,0,0,0,0,0,0,0,-1,1266,841,0,0
49,183,0,0,0,0,0,0,0,0,0,-1,1273,841,0,0
56,183,0,0,0,0,0,0,0,0,0,-1,1280,841,0,0
63,183,0,0,0,0,0,0,0,0,0,-1,1287,841,0,0
70,183,0,0,0,0,0,0,0,0,0,-1,1294,841,0,0
77,183,0,0,0,0,0,0,0,0,0,-1,1301,841,0,0
84,183,0,0,0,0,0,0,0,0,0,-1,1308,841,0,0
91,183,0,0,0,0,0,0,0,0,0,-1,1315,841,0,0
98,183,0,0,0,0,0,0,0,0,0,-1,1322,841,0,0
105,183,0,0,0,0,0,0,0,0,0,-1,1329,841,0,0
112,183,0,0,0,0,0,0,0,0,0,-1,1336,841,0,0
119,183,0,0,0,0,0,0,0,0,0,-1,1343,841,0,0
126,183,0,0,0,0,0,0,0,0,0,-1,1350,841,0,0
133,183,0,0,0,0,0,0,0,0,0,-1,1357,841,0,0
140,183,0,0,0,0,0,0,0,0,0,-1,1364,841,0,0
147,183,0,0,0,0,0,0,0,0,0,-1,1371,841,0,0
154,183,0,0,0,0,0,0,0,0,0,-1,1378,841,0,0
161,183,0,0,0,0,0,0,0,0,0,-1,1385,841,0,0
168,183,0,0,0,0,0,0,0,0,0,-1,1392,841,0,0
175,183,0,0,0,0,0,0,0,0,0,-1,1399,841,0,0
182,183,0,0,0,0,0,0,0,0,0,-1,1406,841,0,0
189,183,0,0,0,0,0,0,0,0,0,-1,1413,841,0,0
196,183,0,0,0,0,0,0,0,0,0,-1,1420,841,0,0
203,183,0,0,0,0,0,0,0,0,0,-1,1427,841,0,0
210,183,0,0,0,0,0,0,0,0,0,-1,1434,841,0,0
217,183,0,0,0,0,0,0,0,0,0,-1,1441,841,0,0
224,183,0,0,0,0,0,0,0,0,0,-1,1448,841,0,0
231,183,0,0,0,0,0,0,0,0,0,-1,1455,841,0,0
238,183,0,0,0,0,0,0,0,0,0,-1,1462,841,0,0
245,183,0,0,0,0,0,0,0,0,0,-1,1469,841,0,0
252,183,0,0,0,0,0,0,0,0,0,-1,1476,841,0,0
259,183,0,0,0,0,0,0,0,0,0,-1,1483,841,0,0
266,183,0,0,0,0,0,0,0,0,0,-1,1490,841,0,0
273,183,0,0,0,0,0,0,0,0,0,-1,1497,841,0,0
280,183,0,0,0,0,0,0,0,0,0,-1,1504,841,0,0
287,183,0,0,0,0,0,0,0,0,0,-1,1511,841,0,0
294,183,0,0,0,0,0,0,0,0,0,-1,1518,841,0,0
301,183,0,0,0,0,0,0,0,0,0,-1,1525,841,0,0
308,183,0,0,0,0,0,0,0,0,0,-1,1532,841,0,0
315,183,0,0,0,0,0,0,0,0,0,-1,1539,841,0,0
322,183,0,0,0,0,0,0,0,0,0,-1,1546,841,0,0
329,183,0,0,0,0,0,0,0,0,0,-1,1553,841,0,0
336,183,0,0,0,0,0,0,0,0,0,-1,1560,841,0,0
343,183,0,0,0,0,0,0,0,0,0,-1,1567,841,0,0
350,183,0,0,0,0,0,0,0,0,0,-1,1574,841,0,0
357,183,0,0,0,0,0,0,0,0,0,-1,1581,841,0,0
364,183,0,0,0,0,0,0,0,0,0,-1,1588,841,0,0
371,183,0,0,0,0,0,0,0,0,0,-1,1595,841,0,0
378,183,0,0,0,0,0,0,0,0,0,-1,1602,841,0,0
385,183,0,0,0,0,0,0,0,0,0,-1,1609,841,0,0
392,183,0,0,0,0,0,0,0,0,0,-1,1616,841,0,0
399,183,0,0,0,0,0,0,0,0,0,-1,1623,841,0,0
406,183,0,0,0,0,0,0,0,0,0,-1,1630,841,0,0
413,183,0,0,0,0,0,0,0,0,0,-1,1637,841,0,0
420,183,0,0,0,0,0,0,0,0,0,-1,1644,841,0,0
427,183,0,0,0,0,0,0,0,0,0,-1,1651,841,0,0
434,183,0,0,0,0,0,0,0,0,0,-1,1658,841,0,0
441,183,0,0,0,0,0,0,0,0,0,-1,1665,841,0,0
448,183,0,0,0,0,0,0,0,0,0,-1,1672,841,0,0
455,183,0,0,0,0,0,0,0,0,0,-1,1679,841,0,0
462,183,0,0,0,0,0,0,0,0,0,-1,1686,841,0,0
469,183,0,0,0,0,0,0,0,0,0,-1,1693,841,0,0
476,183,0,0,0,0,0,0,0,0,0,-1,1700,841,0,0
483,183,0,0,0,0,0,0,0,0,0,-1,1707,841,0,0
490,183,0,0,0,0,0,0,0,0,0,-1,1714,841,0,0
497,183,0,0,0,0,0,0,0,0,0,-1,1721,841,0,0
504,183,0,0,0,0,0,0,0,0,0,-1,1728,841,0,0
511,183,0,0,0,0,0,0,0,0,0,-1,1735,841,0,0
518,183,0,0,0,0,0,0,0,0,0,-1,1742,841,0,0
525,183,0,0,0,0,0,0,0,0,0,-1,1749,841,0,0
532,183,0,0,0,0,0,0,0,0,0,-1,1756,841,0,0
539,183,0,0,0,0,0,0,0,0,0,-1,1763,841,0,0
546,183,0,0,0,0,0,0,0,0,0,-1,1770,841,0,0
553,183,0,0,0,0,0,0,0,0,0,-1,1777,841,0,0
560,183,0,0,0,0,0,0,0,0,0,-1,1784,841,0,0
567,183,0,0,0,0,0,0,0,0,0,-1,1791,841,0,0
574,183,0,0,0,0,0,0,0,0,0,-1,1798,841,0,0
581,183,0,0,0,0,0,0,0,0,0,-1,1805,841,0,0
588,183,0,0,0,0,0,0,0,0,0,-1,1812,841,0,0
595,183,0,0,0,0,0,0,0,0,0,-1,1819,841,0,0
602,183,0,0,0,0,0,0,0,0,0,-1,1826,841,0,0
609,183,19.0269,2.45172,-0.00250353,-0.00026093,0.00726743,0.00597119,-0.00873565,0.86194,0.00854086,0.0415108,1833,841,19.0268,-2.4517
616,183,18.85,2.91681,-0.0012465,0.000100164,0.00475093,0.00422524,-0.00537158,0.855792,0.00555389,0.0399341,1840,841,18.85,-2.91679
623,183,18.8639,2.66327,-0.000379033,0.000795607,0.00237709,0.00265686,-0.00224029,0.90651,0.00283078,0.0432458,1847,841,18.8639,-2.66328
630,183,18.8126,2.64075,0.000247182,0.00153891,0.000397676,0.00165152,0.000134569,1.29484,0.00105901,0.0418316,1854,841,18.8126,-2.64077
637,183,18.8695,2.68671,0.000577026,0.00197549,-0.00101385,0.00250785,4.46675e-05,-1.08728,0.00165721,0.0356177,1861,841,18.8695,-2.68672
644,183,18.8954,2.7146,0.00058572,0.00211418,-0.00191025,0.0034074,-0.000707503,-0.97568,0.00254049,0.0275429,1868,841,18.8953,-2.71459
651,183,18.9482,2.71069,0.000496617,0.00203074,-0.00237724,0.00376161,-0.00123425,-0.941459,0.00300488,0.0248662,1875,841,18.9483,-2.7107
658,183,19.1675,2.53998,0.00041494,0.00182471,-0.00267215,0.00388338,-0.00164373,-0.914356,0.00327724,0.0414092,1882,841,19.1675,-2.54001
665,183,15.5941,3.77643,0,0,0,0,0,0,0,-1,1889,841,15.5941,-3.77641
672,183,15.468,3.10223,0,0,0,0,0,0,0,-1,1896,841,15.468,-3.10222
679,183,15.4962,2.36194,-2.93575e-05,0.00110116,-0.00258022,0.00317732,-0.00210551,-0.893232,0.0030709,0.0358305,1903,841,15.4962,-2.36192
686,183,15.5032,2.39124,-0.000188505,0.000889082,-0.00243568,0.00284485,-0.00214427,-0.89425,0.00288992,0.0162982,1910,841,15.5031,-2.39123
693,183,15.5109,2.5542,-0.000377691,0.000706362,-0.00219192,0.00242228,-0.00209361,-0.906609,0.00260955,0.0133167,1917,841,15.5108,-2.5542
700,183,15.4882,2.74316,-0.000265425,0.000486796,-0.0016903,0.00184232,-0.00162095,-0.894871,0.00200088,0.0150531,1924,841,15.4881,-2.74314
707,183,15.4604,2.90881,0.00102134,0.000272904,-0.000809469,0.00153891,-0.000244662,-0.56888,0.00111646,0.0116144,1931,841,15.4605,-2.90882
714,183,15.473,3.06805,0.00314634,0.000292921,-0.000645179,0.00328544,0.000153822,-0.212347,0.00214086,0.015294,1938,841,15.473,-3.06803
721,183,15.4994,3.24402,0.0065119,-0.000447382,-0.000412047,0.00653621,-0.000471694,-0.0589337,0.00452291,0.0135833,1945,841,15.4993,-3.24402
728,183,15.47,3.40057,0.0103764,-0.0015562,0.000189663,0.0103794,-0.00155921,0.0158892,0.00749361,0.0116243,1952,841,15.47,-3.40058
735,183,15.4762,3.5481,0.01488,-0.00330053,0.00116044,0.0149538,-0.0033743,0.0634853,0.0112637,0.0117057,1959,841,15.4763,-3.54808
742,183,15.4757,3.73663,0.0204968,-0.00576296,0.00211208,0.0206656,-0.00593175,0.0797471,0.0161223,0.0107881,1966,841,15.4757,-3.73665
749,183,15.354,4.06451,0.0267391,-0.00952991,0.00339902,0.0270549,-0.0098457,0.0926422,0.0220633,0.029389,1973,841,15.354,-4.0645
756,183,15.6936,4.18396,0.0333016,-0.0149998,0.00521329,0.0338578,-0.015556,0.106302,0.0291741,0.0416109,1980,841,15.6935,-4.18396
763,183,15.9736,4.19409,0,0,0,0,0,0,0,-1,1987,841,15.9736,-4.19412
770,183,16.7135,3.89056,0,0,0,0,0,0,0,-1,1994,841,16.7136,-3.89053
777,183,16.9299,4.00269,0,0,0,0,0,0,0,-1,2001,841,16.93,-4.00271
784,183,0,0,0,0,0,0,0,0,0,-1,2008,841,0,0
791,183,0,0,0,0,0,0,0,0,0,-1,2015,841,0,0
798,183,0,0,0,0,0,0,0,0,0,-1,2022,841,0,0
805,183,0,0,0,0,0,0,0,0,0,-1,2029,841,0,0
812,183,0,0,0,0,0,0,0,0,0,-1,2036,841,0,0
-700,176,0,0,0,0,0,0,0,0,0,-1,524,848,0,0
-693,176,0,0,0,0,0,0,0,0,0,-1,531,848,0,0
-686,176,0,0,0,0,0,0,0,0,0,-1,538,848,0,0
-679,176,0,0,0,0,0,0,0,0,0,-1,545,848,0,0
-672,176,0,0,0,0,0,0,0,0,0,-1,552,848,0,0
-665,176,-7.90509,-2.5401,0,0,0,0,0,0,0,-1,559,848,-7.90509,2.5401
-658,176,-10.4333,4.09937,0,0,0,0,0,0,0,-1,566,848,-10.4333,-4.09935
-651,176,-10.4265,3.64948,0,0,0,0,0,0,0,-1,573,848,-10.4265,-3.64945
-644,176,-10.1484,3.10028,0,0,0,0,0,0,0,-1,580,848,-10.1484,-3.10028
-637,176,-10.0215,2.49084,0.0627461,-0.0311092,0.0177602,0.0659944,-0.0343575,0.1809,0.0588901,0.0474128,587,848,-10.0215,-2.49087
-630,176,-9.7243,1.86975,0.0460159,-0.0224526,0.0145031,0.0489613,-0.0253979,0.20036,0.0436439,0.04352,594,848,-9.72429,-1.86977
-623,176,-9.58972,1.50726,0.0323706,-0.0156725,0.0113996,0.0349383,-0.0182402,0.221543,0.0312031,0.0414249,601,848,-9.58973,-1.50724
-616,176,-9.83954,1.49567,0.0217914,-0.0104847,0.0087017,0.0239879,-0.0126812,0.247259,0.0215038,0.0276373,608,848,-9.83952,-1.49564
-609,176,-9.89972,1.39569,0.0126443,-0.00582071,0.00654751,0.0147303,-0.00790673,0.308431,0.0132659,0.0113851,615,848,-9.89974,-1.39566
-602,176,-9.91766,1.25061,0.00652943,-0.00332371,0.00461206,0.00835135,-0.00514564,0.376219,0.00786542,0.0112578,622,848,-9.91768,-1.25063
-595,176,-9.90948,1.07745,0.00240124,-0.00249346,0.00376466,0.00444412,-0.00453634,0.49718,0.00518496,0.010041,629,848,-9.9095,-1.07747
-588,176,-9.89801,0.930359,-0.000496767,-0.00173438,0.00320054,0.00214424,-0.00437539,0.689905,0.00383688,0.0101133,636,848,-9.898,-0.930344
-581,176,-9.90308,0.807739,-0.00323996,-0.00137503,0.00292089,0.000758624,-0.00537362,0.939904,0.00386021,0.0104328,643,848,-9.90307,-0.807762
-574,176,-9.90997,0.671448,-0.00480254,-0.00158056,0.00296264,0.000180763,-0.00656386,1.03442,0.00443739,0.012432,650,848,-9.90998,-0.671418
-567,176,-9.86798,0.554993,-0.00522096,-0.00235768,0.00294911,-0.000511079,-0.00706756,1.01137,0.00455092,0.0208952,657,848,-9.86797,-0.555016
-560,176,-9.95953,0.384705,-0.00505614,-0.0031322,0.00307438,-0.000872797,-0.00731554,0.937022,0.00461369,0.0173503,664,848,-9.95953,-0.384693
-553,176,-9.85962,0.168091,-0.00469357,-0.00365387,0.00337822,-0.000755738,-0.0075917,0.861741,0.00482897,0.0285888,671,848,-9.85961,-0.168114
-546,176,-9.79633,-0.0673828,-0.00425012,-0.00484903,0.00356558,-0.000971439,-0.00812771,0.743504,0.00512544,0.0461063,678,848,-9.79632,0.0673608
-539,176,-9.64838,-0.451843,0,0,0,0,0,0,0,-1,685,848,-9.64835,0.451839
-532,176,-12.3584,0.922607,-0.0020907,-0.00668393,0.00377516,3.15355e-05,-0.00880617,0.51213,0.00588132,0.039326,692,848,-12.3584,-0.922601
-525,176,-12.4938,0.736084,-0.000413605,-0.0074504,0.00379107,0.00124017,-0.00910417,0.411343,0.00652226,0.0494416,699,848,-12.4938,-0.73606
-518,176,-12.3522,0.794617,0.00164583,-0.00804156,0.00367522,0.00288232,-0.00927805,0.324543,0.00733734,0.0447009,706,848,-12.3522,-0.794586
-511,176,-12.5129,0.497131,0.00405262,-0.00822999,0.0034235,0.00494239,-0.00911976,0.254274,0.00823733,0.039688,713,848,-12.5129,-0.497143
-504,176,-12.4392,0.704956,0.00659727,-0.00770494,0.00291516,0.00716863,-0.00827629,0.193542,0.00892477,0.041296,720,848,-12.4392,-0.704935
-497,176,-12.4641,0.874695,0.00850482,-0.00603051,0.00206358,0.0087921,-0.0063178,0.138329,0.00876261,0.0448983,727,848,-12.4641,-0.874698
-490,176,-12.4291,0.817078,0,0,0,0,0,0,0,-1,734,848,-12.4291,-0.81707
-483,176,0,0,0,0,0,0,0,0,0,-1,741,848,0,0
-476,176,0,0,0,0,0,0,0,0,0,-1,748,848,0,0
-469,176,0,0,0,0,0,0,0,0,0,-1,755,848,0,0
-462,176,0,0,0,0,0,0,0,0,0,-1,762,848,0,0
-455,176,0,0,0,0,0,0,0,0,0,-1,769,848,0,0
-448,176,0,0,0,0,0,0,0,0,0,-1,776,848,0,0
-441,176,0,0,0,0,0,0,0,0,0,-1,783,848,0,0
-434,176,0,0,0,0,0,0,0,0,0,-1,790,848,0,0
-427,176,0,0,0,0,0,0,0,0,0,-1,797,848,0,0
-420,176,0,0,0,0,0,0,0,0,0,-1,804,848,0,0
-413,176,0,0,0,0,0,0,0,0,0,-1,811,848,0,0
-406,176,0,0,0,0,0,0,0,0,0,-1,818,848,0,0
-399,176,0,0,0,0,0,0,0,0,0,-1,825,848,0,0
-392,176,0,0,0,0,0,0,0,0,0,-1,832,848,0,0
-385,176,0,0,0,0,0,0,0,0,0,-1,839,848,0,0
-378,176,0,0,0,0,0,0,0,0,0,-1,846,848,0,0
-371,176,0,0,0,0,0,0,0,0,0,-1,853,848,0,0
-364,176,0,0,0,0,0,0,0,0,0,-1,860,848,0,0
-357,176,0,0,0,0,0,0,0,0,0,-1,867,848,0,0
-350,176,0,0,0,0,0,0,0,0,0,-1,874,848,0,0
-343,176,0,0,0,0,0,0,0,0,0,-1,881,848,0,0
-336,176,0,0,0,0,0,0,0,0,0,-1,888,848,0,0
-329,176,0,0,0,0,0,0,0,0,0,-1,895,848,0,0
-322,176,0,0,0,0,0,0,0,0,0,-1,902,848,0,0
-315,176,0,0,0,0,0,0,0,0,0,-1,909,848,0,0
-308,176,0,0,0,0,0,0,0,0,0,-1,916,848,0,0
-301,176,0,0,0,0,0,0,0,0,0,-1,923,848,0,0
-294,176,0,0,0,0,0,0,0,0,0,-1,930,848,0,0
-287,176,0,0,0,0,0,0,0,0,0,-1,937,848,0,0
-280,176,0,0,0,0,0,0,0,0,0,-1,944,848,0,0
-273,176,0,0,0,0,0,0,0,0,0,-1,951,848,0,0
-266,176,0,0,0,0,0,0,0,0,0,-1,958,848,0,0
-259,176,0,0,0,0,0,0,0,0,0,-1,965,848,0,0
-252,176,0,0,0,0,0,0,0,0,0,-1,972,848,0,0
-245,176,0,0,0,0,0,0,0,0,0,-1,979,848,0,0
-238,176,0,0,0,0,0,0,0,0,0,-1,986,848,0,0
-231,176,0,0,0,0,0,0,0,0,0,-1,993,848,0,0
-224,176,0,0,0,0,0,0,0,0,0,-1,1000,848,0,0
-217,176,0,0,0,0,0,0,0,0,0,-1,1007,848,0,0
-210,176,0,0,0,0,0,0,0,0,0,-1,1014,848,0,0
-203,176,0,0,0,0,0,0,0,0,0,-1,1021,848,0,0
-196,176,0,0,0,0,0,0,0,0,0,-1,1028,848,0,0
-189,176,0,0,0,0,0,0,0,0,0,-1,1035,848,0,0
-182,176,0,0,0,0,0,0,0,0,0,-1,1042,848,0,0
-175,176,0,0,0,0,0,0,0,0,0,-1,1049,848,0,0
-168,176,0,0,0,0,0,0,0,0,0,-1,1056,848,0,0
-161,176,0,0,0,0,0,0,0,0,0,-1,1063,848,0,0
-154,176,0,0,0,0,0,0,0,0,0,-1,1070,848,0,0
-147,176,0,0,0,0,0,0,0,0,0,-1,1077,848,0,0
-140,176,0,0,0,0,0,0,0,0,0,-1,1084,848,0,0
-133,176,0,0,0,0,0,0,0,0,0,-1,1091,848,0,0
-126,176,0,0,0,0,0,0,0,0,0,-1,1098,848,0,0
-119,176,0,0,0,0,0,0,0,0,0,-1,1105,848,0,0
-112,176,0,0,0,0,0,0,0,0,0,-1,1112,848,0,0
-105,176,0,0,0,0,0,0,0,0,0,-1,1119,848,0,0
-98,176,0,0,0,0,0,0,0,0,0,-1,1126,848,0,0
-91,176,0,0,0,0,0,0,0,0,0,-1,1133,848,0,0
-84,176,0,0,0,0,0,0,0,0,0,-1,1140,848,0,0
-77,176,0,0,0,0,0,0,0,0,0,-1,1147,848,0,0
-70,176,0,0,0,0,0,0,0,0,0,-1,1154,848,0,0
-63,176,0,0,0,0,0,0,0,0,0,-1,1161,848,0,0
-56,176,0,0,0,0,0,0,0,0,0,-1,1168,848,0,0
-49,176,0,0,0,0,0,0,0,0,0,-1,1175,848,0,0
-42,176,0,0,0,0,0,0,0,0,0,-1,1182,848,0,0
-35,176,0,0,0,0,0,0,0,0,0,-1,1189,848,0,0
-28,176,0,0,0,0,0,0,0,0,0,-1,1196,848,0,0
-21,176,0,0,0,0,0,0,0,0,0,-1,1203,848,0,0
-14,176,0,0,0,0,0,0,0,0,0,-1,1210,848,0,0
-7,176,0,0,0,0,0,0,0,0,0,-1,1217,848,0,0
0,176,0,0,0,0,0,0,0,0,0,-1,1224,848,0,0
7,176,0,0,0,0,0,0,0,0,0,-1,1231,848,0,0
14,176,0,0,0,0,0,0,0,0,0,-1,1238,848,0,0
21,176,0,0,0,0,0,0,0,0,0,-1,1245,848,0,0
28,176,0,0,0,0,0,0,0,0,0,-1,1252,848,0,0
35,176,0,0,0,0,0,0,0,0,0,-1,1259,848,0,0
42,176,0,0,0,0,0,0,0,0,0,-1,1266,848,0,0
49,176,0,0,0,0,0,0,0,0,0,-1,1273,848,0,0
56,176,0,0,0,0,0,0,0,0,0,-1,1280,848,0,0
63,176,0,0,0,0,0,0,0,0,0,-1,1287,848,0,0
70,176,0,0,0,0,0,0,0,0,0,-1,1294,848,0,0
77,176,0,0,0,0,0,0,0,0,0,-1,1301,848,0,0
84,176,0,0,0,0,0,0,0,0,0,-1,1308,848,0,0
91,176,0,0,0,0,0,0,0,0,0,-1,1315,848,0,0
98,176,0,0,0,0,0,0,0,0,0,-1,1322,848,0,0
105,176,0,0,0,0,0,0,0,0,0,-1,1329,848,0,0
112,176,0,0,0,0,0,0,0,0,0,-1,1336,848,0,0
119,176,0,0,0,0,0,0,0,0,0,-1,1343,848,0,0
126,176,0,0,0,0,0,0,0,0,0,-1,1350,848,0,0
133,176,0,0,0,0,0,0,0,0,0,-1,1357,848,0,0
140,176,0,0,0,0,0,0,0,0,0,-1,1364,848,0,0
147,176,0,0,0,0,0,0,0,0,0,-1,1371,848,0,0
154,176,0,0,0,0,0,0,0,0,0,-1,1378,848,0,0
161,176,0,0,0,0,0,0,0,0,0,-1,1385,848,0,0
168,176,0,0,0,0,0,0,0,0,0,-1,1392,848,0,0
175,176,0,0,0,0,0,0,0,0,0,-1,1399,848,0,0
182,176,0,0,0,0,0,0,0,0,0,-1,1406,848,0,0
189,176,0,0,0,0,0,0,0,0,0,-1,1413,848,0,0
196,176,0,0,0,0,0,0,0,0,0,-1,1420,848,0,0
203,176,0,0,0,0,0,0,0,0,0,-1,1427,848,0,0
210,176,0,0,0,0,0,0,0,0,0,-1,1434,848,0,0
217,176,0,0,0,0,0,0,0,0,0,-1,1441,848,0,0
224,176,0,0,0,0,0,0,0,0,0,-1,1448,848,0,0
231,176,0,0,0,0,0,0,0,0,0,-1,1455,848,0,0
238,176,0,0,0,0,0,0,0,0,0,-1,1462,848,0,0
245,176,0,0,0,0,0,0,0,0,0,-1,1469,848,0,0
252,176,0,0,0,0,0,0,0,0,0,-1,1476,848,0,0
259,176,0,0,0,0,0,0,0,0,0,-1,1483,848,0,0
266,176,0,0,0,0,0,0,0,0,0,-1,1490,848,0,0
273,176,0,0,0,0,0,0,0,0,0,-1,1497,848,0,0
280,176,0,0,0,0,0,0,0,0,0,-1,1504,848,0,0
287,176,0,0,0,0,0,0,0,0,0,-1,1511,848,0,0
294,176,0,0,0,0,0,0,0,0,0,-1,1518,848,0,0
301,176,0,0,0,0,0,0,0,0,0,-1,1525,848,0,0
308,176,0,0,0,0,0,0,0,0,0,-1,1532,848,0,0
315,176,0,0,0,0,0,0,0,0,0,-1,1539,848,0,0
322,176,0,0,0,0,0,0,0,0,0,-1,1546,848,0,0
329,176,0,0,0,0,0,0,0,0,0,-1,1553,848,0,0
336,176,0,0,0,0,0,0,0,0,0,-1,1560,848,0,0
343,176,0,0,0,0,0,0,0,0,0,-1,1567,848,0,0
350,176,0,0,0,0,0,0,0,0,0,-1,1574,848,0,0
357,176,0,0,0,0,0,0,0,0,0,-1,1581,848,0,0
364,176,0,0,0,0,0,0,0,0,0,-1,1588,848,0,0
371,176,0,0,0,0,0,0,0,0,0,-1,1595,848,0,0
378,176,0,0,0,0,0,0,0,0,0,-1,1602,848,0,0
385,176,0,0,0,0,0,0,0,0,0,-1,1609,848,0,0
392,176,0,0,0,0,0,0,0,0,0,-1,1616,848,0,0
399,176,0,0,0,0,0,0,0,0,0,-1,1623,848,0,0
406,176,0,0,0,0,0,0,0,0,0,-1,1630,848,0,0
413,176,0,0,0,0,0,0,0,0,0,-1,1637,848,0,0
420,176,0,0,0,0,0,0,0,0,0,-1,1644,848,0,0
427,176,0,0,0,0,0,0,0,0,0,-1,1651,848,0,0
434,176,0,0,0,0,0,0,0,0,0,-1,1658,848,0,0
441,176,0,0,0,0,0,0,0,0,0,-1,1665,848,0,0
448,176,0,0,0,0,0,0,0,0,0,-1,1672,848,0,0
455,176,0,0,0,0,0,0,0,0,0,-1,1679,848,0,0
462,176,0,0,0,0,0,0,0,0,0,-1,1686,848,0,0
469,176,0,0,0,0,0,0,0,0,0,-1,1693,848,0,0
476,176,0,0,0,0,0,0,0,0,0,-1,1700,848,0,0
483,176,0,0,0,0,0,0,0,0,0,-1,1707,848,0,0
490,176,0,0,0,0,0,0,0,0,0,-1,1714,848,0,0
497,176,0,0,0,0,0,0,0,0,0,-1,1721,848,0,0
504,176,0,0,0,0,0,0,0,0,0,-1,1728,848,0,0
511,176,0,0,0,0,0,0,0,0,0,-1,1735,848,0,0
518,176,0,0,0,0,0,0,0,0,0,-1,1742,848,0,0
525,176,0,0,0,0,0,0,0,0,0,-1,1749,848,0,0
532,176,0,0,0,0,0,0,0,0,0,-1,1756,848,0,0
539,176,0,0,0,0,0,0,0,0,0,-1,1763,848,0,0
546,176,0,0,0,0,0,0,0,0,0,-1,1770,848,0,0
553,176,0,0,0,0,0,0,0,0,0,-1,1777,848,0,0
560,176,0,0,0,0,0,0,0,0,0,-1,1784,848,0,0
567,176,0,0,0,0,0,0,0,0,0,-1,1791,848,0,0
574,176,0,0,0,0,0,0,0,0,0,-1,1798,848,0,0
581,176,0,0,0,0,0,0,0,0,0,-1,1805,848,0,0
588,176,0,0,0,0,0,0,0,0,0,-1,1812,848,0,0
595,176,0,0,0,0,0,0,0,0,0,-1,1819,848,0,0
602,176,0,0,0,0,0,0,0,0,0,-1,1826,848,0,0
609,176,18.9568,2.52771,-0.00375708,-0.000366481,0.00802013,0.00613557,-0.0102591,0.889555,0.00956476,0.0385688,1833,848,18.9567,-2.52772
616,176,18.863,2.68799,-0.00210136,-0.000349903,0.00539278,0.00423779,-0.00668905,0.86589,0.00636131,0.0393316,1840,848,18.863,-2.688
623,176,18.9078,2.72119,-0.000876075,7.9592e-05,0.00305365,0.00269257,-0.00348905,0.863008,0.00357882,0.0446748,1847,848,18.9078,-2.72118
630,176,19.0435,2.68622,0.000119239,0.000755063,0.00109353,0.00157596,-0.000701656,0.926859,0.00134689,0.0409255,1854,848,19.0435,-2.68623
637,176,18.9088,2.67639,0.000715575,0.00123059,-0.000354055,0.00141088,0.000535287,-1.09981,0.000822431,0.0310853,1861,848,18.9088,-2.67639
644,176,18.8718,2.67786,0.000707608,0.00145341,-0.00134389,0.00247517,-0.000314155,-0.920733,0.00176418,0.0301955,1868,848,18.8718,-2.67785
651,176,18.9491,2.67682,0.000497086,0.00146838,-0.00189022,0.00293434,-0.000968875,-0.911142,0.00234683,0.0320214,1875,848,18.9491,-2.67683
658,176,19.0059,2.65802,0.000286705,0.00135017,-0.0022353,0.00311611,-0.00147923,-0.902168,0.00270865,0.0368156,1882,848,19.0059,-2.65799
665,176,19.0486,2.63629,0,0,0,0,0,0,0,-1,1889,848,19.0486,-2.63631
672,176,15.7961,3.10632,0,0,0,0,0,0,0,-1,1896,848,15.7962,-3.10634
679,176,15.776,2.25745,-0.000537097,0.000832383,-0.00234455,0.00259014,-0.00229485,-0.927475,0.00282207,0.0473594,1903,848,15.7761,-2.25746
686,176,15.7563,2.38879,-0.000807492,0.000718911,-0.00229317,0.00237255,-0.00246113,-0.94604,0.00279088,0.0216697,1910,848,15.7563,-2.38881
693,176,15.699,2.58923,-0.00115243,0.000637768,-0.00210489,0.00202997,-0.00254464,-0.986439,0.00264672,0.0117954,1917,848,15.699,-2.58926
700,176,15.6836,2.74811,-0.00120084,0.000467298,-0.00168704,0.00151519,-0.00224873,-1.01498,0.00218682,0.0148695,1924,848,15.6836,-2.74809
707,176,15.6691,2.90497,-0.000237489,0.000259099,-0.00101749,0.00105816,-0.00103654,-0.905072,0.0012094,0.0130643,1931,848,15.6691,-2.90498
714,176,15.6835,3.08136,0.00148311,0.000235662,-0.000960818,0.0020049,-0.000286128,-0.497506,0.00144147,0.0115173,1938,848,15.6835,-3.08136
721,176,15.6708,3.24292,0.0043474,-0.000446635,-0.000774694,0.00446948,-0.000568713,-0.156297,0.00318619,0.0115097,1945,848,15.6708,-3.24292
728,176,15.6486,3.39685,0.0075952,-0.00154788,-0.000208622,0.00759996,-0.00155264,-0.0228016,0.00565568,0.0144853,1952,848,15.6485,-3.39686
735,176,15.6652,3.534,0.0112873,-0.0033026,0.000738372,0.0113246,-0.00333987,0.0504366,0.00887503,0.0135726,1959,848,15.6652,-3.53398
742,176,15.6836,3.69269,0.0158698,-0.00572611,0.0016691,0.0159981,-0.00585435,0.0766807,0.0130617,0.016073,1966,848,15.6835,-3.69272
749,176,15.6271,3.94891,0.0207962,-0.00941272,0.0029769,0.0210868,-0.00970328,0.0972967,0.0181771,0.0265176,1973,848,15.6271,-3.94888
756,176,15.9589,3.99854,0.0257744,-0.014767,0.004883,0.0263542,-0.0153468,0.118193,0.0243541,0.0428206,1980,848,15.9589,-3.99854
763,176,16.1541,4.14117,0,0,0,0,0,0,0,-1,1987,848,16.154,-4.14116
770,176,16.1422,4.4248,0.033627,-0.0320101,0.0117091,0.0356532,-0.0340363,0.171352,0.0402389,0.0494898,1994,848,16.1422,-4.4248
777,176,16.3195,4.48639,0.0342792,-0.0447668,0.0173635,0.0379251,-0.0484127,0.206972,0.0499696,0.0482294,2001,848,16.3195,-4.48638
784,176,0,0,0,0,0,0,0,0,0,-1,2008,848,0,0
791,176,0,0,0,0,0,0,0,0,0,-1,2015,848,0,0
798,176,0,0,0,0,0,0,0,0,0,-1,2022,848,0,0
805,176,0,0,0,0,0,0,0,0,0,-1,2029,848,0,0
812,176,0,0,0,0,0,0,0,0,0,-1,2036,848,0,0
-700,169,0,0,0,0,0,0,0,0,0,-1,524,855,0,0
-693,169,0,0,0,0,0,0,0,0,0,-1,531,855,0,0
-686,169,0,0,0,0,0,0,0,0,0,-1,538,855,0,0
-679,169,0,0,0,0,0,0,0,0,0,-1,545,855,0,0
-672,169,0,0,0,0,0,0,0,0,0,-1,552,855,0,0
-665,169,-8.41937,-1.55707,0,0,0,0,0,0,0,-1,559,855,-8.41938,1.55707
-658,169,-8.50269,-2.64691,0,0,0,0,0,0,0,-1,566,855,-8.50271,2.64691
-651,169,-13.4265,3.66559,0,0,0,0,0,0,0,-1,573,855,-13.4265,-3.66558
-644,169,-12.6379,3.32324,0,0,0,0,0,0,0,-1,580,855,-12.6379,-3.32323
-637,169,-11.7968,2.98608,0.0633319,-0.0315987,0.0212081,0.0678544,-0.0361213,0.2101,0.0609552,0.0422114,587,855,-11.7968,-2.98611
-630,169,-9.79962,1.97742,0.0464905,-0.0225877,0.01718,0.0505273,-0.0266245,0.230786,0.0452506,0.0487469,594,855,-9.79963,-1.97739
-623,169,-9.91064,1.76752,0.0327119,-0.0155785,0.0134006,0.0361814,-0.0190479,0.253337,0.0323941,0.0392499,601,855,-9.91063,-1.76751
-616,169,-10.0356,1.53705,0.0220252,-0.0102236,0.0101533,0.0249556,-0.013154,0.28098,0.0223515,0.0216915,608,855,-10.0356,-1.53707
-609,169,-10.0564,1.38226,0.012364,-0.00532631,0.00751912,0.0151281,-0.00809037,0.352271,0.0136089,0.0128269,615,855,-10.0564,-1.38224
-602,169,-10.0667,1.23932,0.00582479,-0.00283123,0.00514096,0.00821699,-0.00522343,0.435521,0.00782372,0.0121373,622,855,-10.0667,-1.23932
-595,169,-10.062,1.07611,0.0016022,-0.00206253,0.00410841,0.00426835,-0.00472867,0.575636,0.0051967,0.0106305,629,855,-10.0619,-1.07614
-588,169,-10.0405,0.932922,-0.00122569,-0.00143477,0.00340648,0.00207786,-0.00473832,0.770059,0.00403401,0.00836487,636,855,-10.0404,-0.932927
-581,169,-10.0659,0.811829,-0.00396194,-0.00123509,0.0031067,0.000794208,-0.00599123,0.992176,0.0042835,0.0094328,643,855,-10.0659,-0.811831
-574,169,-10.1255,0.68219,-0.0054546,-0.00148527,0.00315562,0.000257915,-0.00719778,1.06611,0.00488676,0.0119813,650,855,-10.1255,-0.682164
-567,169,-10.058,0.568115,-0.00580492,-0.00216723,0.00311237,-0.000381213,-0.00759093,1.04983,0.00493846,0.0194537,657,855,-10.0581,-0.568099
-560,169,-10.0941,0.423462,-0.00557572,-0.00280405,0.00308687,-0.000806204,-0.00757357,0.996387,0.00480292,0.0193724,664,855,-10.0941,-0.423461
-553,169,-10.022,0.229248,-0.00522025,-0.00317025,0.00326199,-0.000776014,-0.00761449,0.937626,0.00483844,0.0282191,671,855,-10.0221,-0.229229
-546,169,-10.6771,0.389038,-0.00463551,-0.00408061,0.0032815,-0.00106485,-0.00765127,0.827573,0.00478555,0.03725,678,855,-10.6771,-0.389016
-539,169,-11.5021,0.535156,0,0,0,0,0,0,0,-1,685,855,-11.5022,-0.535138
-532,169,-12.4302,0.847473,-0.00196262,-0.00543469,0.00306426,-0.000176792,-0.00722052,0.527671,0.00475585,0.0364681,692,855,-12.4302,-0.847472
-525,169,-12.3754,0.862061,8.76445e-05,-0.00597896,0.00283218,0.0012043,-0.00709562,0.375561,0.00517873,0.0457599,699,855,-12.3754,-0.862053
-518,169,-12.2825,0.931335,0.00265052,-0.00637813,0.00250262,0.00329781,-0.00702542,0.253097,0.00608826,0.0436934,706,855,-12.2824,-0.931362
-511,169,-12.2638,0.914795,0.0056219,-0.0064394,0.00212302,0.00598468,-0.00680218,0.169245,0.00738752,0.0413562,713,855,-12.2638,-0.914808
-504,169,-12.3149,1.12231,0,0,0,0,0,0,0,-1,720,855,-12.3149,-1.12229
-497,169,-12.4442,0.994141,0,0,0,0,0,0,0,-1,727,855,-12.4442,-0.994156
-490,169,0,0,0,0,0,0,0,0,0,-1,734,855,0,0
-483,169,0,0,0,0,0,0,0,0,0,-1,741,855,0,0
-476,169,0,0,0,0,0,0,0,0,0,-1,748,855,0,0
-469,169,0,0,0,0,0,0,0,0,0,-1,755,855,0,0
-462,169,0,0,0,0,0,0,0,0,0,-1,762,855,0,0
-455,169,0,0,0,0,0,0,0,0,0,-1,769,855,0,0
-448,169,0,0,0,0,0,0,0,0,0,-1,776,855,0,0
-441,169,0,0,0,0,0,0,0,0,0,-1,783,855,0,0
-434,169,0,0,0,0,0,0,0,0,0,-1,790,855,0,0
-427,169,0,0,0,0,0,0,0,0,0,-1,797,855,0,0
-420,169,0,0,0,0,0,0,0,0,0,-1,804,855,0,0
-413,169,0,0,0,0,0,0,0,0,0,-1,811,855,0,0
-406,169,0,0,0,0,0,0,0,0,0,-1,818,855,0,0
-399,169,0,0,0,0,0,0,0,0,0,-1,825,855,0,0
-392,169,0,0,0,0,0,0,0,0,0,-1,832,855,0,0
-385,169,0,0,0,0,0,0,0,0,0,-1,839,855,0,0
-378,169,0,0,0,0,0,0,0,0,0,-1,846,855,0,0
-371,169,0,0,0,0,0,0,0,0,0,-1,853,855,0,0
-364,169,0,0,0,0,0,0,0,0,0,-1,860,855,0,0
-357,169,0,0,0,0,0,0,0,0,0,-1,867,855,0,0
-350,169,0,0,0,0,0,0,0,0,0,-1,874,855,0,0
-343,169,0,0,0,0,0,0,0,0,0,-1,881,855,0,0
-336,169,0,0,0,0,0,0,0,0,0,-1,888,855,0,0
-329,169,0,0,0,0,0,0,0,0,0,-1,895,855,0,0
-322,169,0,0,0,0,0,0,0,0,0,-1,902,855,0,0
-315,169,0,0,0,0,0,0,0,0,0,-1,909,855,0,0
-308,169,0,0,0,0,0,0,0,0,0,-1,916,855,0,0
-301,169,0,0,0,0,0,0,0,0,0,-1,923,855,0,0
-294,169,0,0,0,0,0,0,0,0,0,-1,930,855,0,0
-287,169,0,0,0,0,0,0,0,0,0,-1,937,855,0,0
-280,169,0,0,0,0,0,0,0,0,0,-1,944,855,0,0
-273,169,0,0,0,0,0,0,0,0,0,-1,951,855,0,0
-266,169,0,0,0,0,0,0,0,0,0,-1,958,855,0,0
-259,169,0,0,0,0,0,0,0,0,0,-1,965,855,0,0
-252,169,0,0,0,0,0,0,0,0,0,-1,972,855,0,0
-245,169,0,0,0,0,0,0,0,0,0,-1,979,855,0,0
-238,169,0,0,0,0,0,0,0,0,0,-1,986,855,0,0
-231,169,0,0,0,0,0,0,0,0,0,-1,993,855,0,0
-224,169,0,0,0,0,0,0,0,0,0,-1,1000,855,0,0
-217,169,0,0,0,0,0,0,0,0,0,-1,1007,855,0,0
-210,169,0,0,0,0,0,0,0,0,0,-1,1014,855,0,0
-203,169,0,0,0,0,0,0,0,0,0,-1,1021,855,0,0
-196,169,0,0,0,0,0,0,0,0,0,-1,1028,855,0,0
-189,169,0,0,0,0,0,0,0,0,0,-1,1035,855,0,0
-182,169,0,0,0,0,0,0,0,0,0,-1,1042,855,0,0
-175,169,0,0,0,0,0,0,0,0,0,-1,1049,855,0,0
-168,169,0,0,0,0,0,0,0,0,0,-1,1056,855,0,0
-161,169,0,0,0,0,0,0,0,0,0,-1,1063,855,0,0
-154,169,0,0,0,0,0,0,0,0,0,-1,1070,855,0,0
-147,169,0,0,0,0,0,0,0,0,0,-1,1077,855,0,0
-140,169,0,0,0,0,0,0,0,0,0,-1,1084,855,0,0
-133,169,0,0,0,0,0,0,0,0,0,-1,1091,855,0,0
-126,169,0,0,0,0,0,0,0,0,0,-1,1098,855,0,0
-119,169,0,0,0,0,0,0,0,0,0,-1,1105,855,0,0
-112,169,0,0,0,0,0,0,0,0,0,-1,1112,855,0,0
-105,169,0,0,0,0,0,0,0,0,0,-1,1119,855,0,0
-98,169,0,0,0,0,0,0,0,0,0,-1,1126,855,0,0
-91,169,0,0,0,0,0,0,0,0,0,-1,1133,855,0,0
-84,169,0,0,0,0,0,0,0,0,0,-1,1140,855,0,0
-77,169,0,0,0,0,0,0,0,0,0,-1,1147,855,0,0
-70,169,0,0,0,0,0,0,0,0,0,-1,1154,855,0,0
-63,169,0,0,0,0,0,0,0,0,0,-1,1161,855,0,0
-56,169,0,0,0,0,0,0,0,0,0,-1,1168,855,0,0
-49,169,0,0,0,0,0,0,0,0,0,-1,1175,855,0,0
-42,169,0,0,0,0,0,0,0,0,0,-1,1182,855,0,0
-35,169,0,0,0,0,0,0,0,0,0,-1,1189,855,0,0
-28,169,0,0,0,0,0,0,0,0,0,-1,1196,855,0,0
-21,169,0,0,0,0,0,0,0,0,0,-1,1203,855,0,0
-14,169,0,0,0,0,0,0,0,0,0,-1,1210,855,0,0
-7,169,0,0,0,0,0,0,0,0,0,-1,1217,855,0,0
0,169,0,0,0,0,0,0,0,0,0,-1,1224,855,0,0
7,169,0,0,0,0,0,0,0,0,0,-1,1231,855,0,0
14,169,0,0,0,0,0,0,0,0,0,-1,1238,855,0,0
21,169,0,0,0,0,0,0,0,0,0,-1,1245,855,0,0
28,169,0,0,0,0,0,0,0,0,0,-1,1252,855,0,0
35,169,0,0,0,0,0,0,0,0,0,-1,1259,855,0,0
42,169,0,0,0,0,0,0,0,0,0,-1,1266,855,0,0
49,169,0,0,0,0,0,0,0,0,0,-1,1273,855,0,0
56,169,0,0,0,0,0,0,0,0,0,-1,1280,855,0,0
63,169,0,0,0,0,0,0,0,0,0,-1,1287,855,0,0
70,169,0,0,0,0,0,0,0,0,0,-1,1294,855,0,0
77,169,0,0,0,0,0,0,0,0,0,-1,1301,855,0,0
84,169,0,0,0,0,0,0,0,0,0,-1,1308,855,0,0
91,169,0,0,0,0,0,0,0,0,0,-1,1315,855,0,0
98,169,0,0,0,0,0,0,0,0,0,-1,1322,855,0,0
105,169,0,0,0,0,0,0,0,0,0,-1,1329,855,0,0
112,169,0,0,0,0,0,0,0,0,0,-1,1336,855,0,0
119,169,0,0,0,0,0,0,0,0,0,-1,1343,855,0,0
126,169,0,0,0,0,0,0,0,0,0,-1,1350,855,0,0
133,169,0,0,0,0,0,0,0,0,0,-1,1357,855,0,0
140,169,0,0,0,0,0,0,0,0,0,-1,1364,855,0,0
147,169,0,0,0,0,0,0,0,0,0,-1,1371,855,0,0
154,169,0,0,0,0,0,0,0,0,0,-1,1378,855,0,0
161,169,0,0,0,0,0,0,0,0,0,-1,1385,855,0,0
168,169,0,0,0,0,0,0,0,0,0,-1,1392,855,0,0
175,169,0,0,0,0,0,0,0,0,0,-1,1399,855,0,0
182,169,0,0,0,0,0,0,0,0,0,-1,1406,855,0,0
189,169,0,0,0,0,0,0,0,0,0,-1,1413,855,0,0
196,169,0,0,0,0,0,0,0,0,0,-1,1420,855,0,0
203,169,0,0,0,0,0,0,0,0,0,-1,1427,855,0,0
210,169,0,0,0,0,0,0,0,0,0,-1,1434,855,0,0
217,169,0,0,0,0,0,0,0,0,0,-1,1441,855,0,0
224,169,0,0,0,0,0,0,0,0,0,-1,1448,855,0,0
231,169,0,0,0,0,0,0,0,0,0,-1,1455,855,0,0
238,169,0,0,0,0,0,0,0,0,0,-1,1462,855,0,0
245,169,0,0,0,0,0,0,0,0,0,-1,1469,855,0,0
252,169,0,0,0,0,0,0,0,0,0,-1,1476,855,0,0
259,169,0,0,0,0,0,0,0,0,0,-1,1483,855,0,0
266,169,0,0,0,0,0,0,0,0,0,-1,1490,855,0,0
273,169,0,0,0,0,0,0,0,0,0,-1,1497,855,0,0
280,169,0,0,0,0,0,0,0,0,0,-1,1504,855,0,0
287,169,0,0,0,0,0,0,0,0,0,-1,1511,855,0,0
294,169,0,0,0,0,0,0,0,0,0,-1,1518,855,0,0
301,169,0,0,0,0,0,0,0,0,0,-1,1525,855,0,0
308,169,0,0,0,0,0,0,0,0,0,-1,1532,855,0,0
315,169,0,0,0,0,0,0,0,0,0,-1,1539,855,0,0
322,169,0,0,0,0,0,0,0,0,0,-1,1546,855,0,0
329,169,0,0,0,0,0,0,0,0,0,-1,1553,855,0,0
336,169,0,0,0,0,0,0,0,0,0,-1,1560,855,0,0
343,169,0,0,0,0,0,0,0,0,0,-1,1567,855,0,0
350,169,0,0,0,0,0,0,0,0,0,-1,1574,855,0,0
357,169,0,0,0,0,0,0,0,0,0,-1,1581,855,0,0
364,169,0,0,0,0,0,0,0,0,0,-1,1588,855,0,0
371,169,0,0,0,0,0,0,0,0,0,-1,1595,855,0,0
378,169,0,0,0,0,0,0,0,0,0,-1,1602,855,0,0
385,169,0,0,0,0,0,0,0,0,0,-1,1609,855,0,0
392,169,0,0,0,0,0,0,0,0,0,-1,1616,855,0,0
399,169,0,0,0,0,0,0,0,0,0,-1,1623,855,0,0
406,169,0,0,0,0,0,0,0,0,0,-1,1630,855,0,0
413,169,0,0,0,0,0,0,0,0,0,-1,1637,855,0,0
420,169,0,0,0,0,0,0,0,0,0,-1,1644,855,0,0
427,169,0,0,0,0,0,0,0,0,0,-1,1651,855,0,0
434,169,0,0,0,0,0,0,0,0,0,-1,1658,855,0,0
441,169,0,0,0,0,0,0,0,0,0,-1,1665,855,0,0
448,169,0,0,0,0,0,0,0,0,0,-1,1672,855,0,0
455,169,0,0,0,0,0,0,0,0,0,-1,1679,855,0,0
462,169,0,0,0,0,0,0,0,0,0,-1,1686,855,0,0
469,169,0,0,0,0,0,0,0,0,0,-1,1693,855,0,0
476,169,0,0,0,0,0,0,0,0,0,-1,1700,855,0,0
483,169,0,0,0,0,0,0,0,0,0,-1,1707,855,0,0
490,169,0,0,0,0,0,0,0,0,0,-1,1714,855,0,0
497,169,0,0,0,0,0,0,0,0,0,-1,1721,855,0,0
504,169,0,0,0,0,0,0,0,0,0,-1,1728,855,0,0
511,169,0,0,0,0,0,0,0,0,0,-1,1735,855,0,0
518,169,0,0,0,0,0,0,0,0,0,-1,1742,855,0,0
525,169,0,0,0,0,0,0,0,0,0,-1,1749,855,0,0
532,169,0,0,0,0,0,0,0,0,0,-1,1756,855,0,0
539,169,0,0,0,0,0,0,0,0,0,-1,1763,855,0,0
546,169,0,0,0,0,0,0,0,0,0,-1,1770,855,0,0
553,169,0,0,0,0,0,0,0,0,0,-1,1777,855,0,0
560,169,0,0,0,0,0,0,0,0,0,-1,1784,855,0,0
567,169,0,0,0,0,0,0,0,0,0,-1,1791,855,0,0
574,169,0,0,0,0,0,0,0,0,0,-1,1798,855,0,0
581,169,0,0,0,0,0,0,0,0,0,-1,1805,855,0,0
588,169,0,0,0,0,0,0,0,0,0,-1,1812,855,0,0
595,169,0,0,0,0,0,0,0,0,0,-1,1819,855,0,0
602,169,0,0,0,0,0,0,0,0,0,-1,1826,855,0,0
609,169,0,0,0,0,0,0,0,0,0,-1,1833,855,0,0
616,169,18.9167,2.70575,-0.00261665,-0.00092983,0.00554799,0.00383849,-0.00738497,0.860831,0.00658682,0.0429323,1840,855,18.9168,-2.70576
623,169,19.0321,2.76147,-0.00113097,-0.000734574,0.00323826,0.00231154,-0.00417709,0.815963,0.00379748,0.0456366,1847,855,19.0321,-2.7615
630,169,18.9617,2.63959,0.000132198,-0.000139865,0.00135921,0.00136217,-0.00136984,0.735524,0.00157733,0.0413227,1854,855,18.9616,-2.63959
637,169,18.9211,2.64124,0.000926351,0.000383305,-6.45041e-05,0.000933908,0.000375749,-0.11662,0.000542609,0.0346252,1861,855,18.9212,-2.64125
644,169,18.9258,2.63684,0.000807463,0.000704431,-0.00110313,0.00186028,-0.000348386,-0.762065,0.00137115,0.0344994,1868,855,18.9258,-2.63684
651,169,18.9673,2.62195,0.00034406,0.000833752,-0.00170847,0.00231483,-0.00113702,-0.85657,0.00203123,0.035291,1875,855,18.9672,-2.62195
658,169,18.9935,2.67554,-0.000107049,0.000818219,-0.00208436,0.00249067,-0.0017795,-0.894605,0.00247676,0.0341483,1882,855,18.9935,-2.67551
665,169,18.9976,2.68567,-0.000547775,0.000744144,-0.00233161,0.00251762,-0.00232125,-0.920531,0.00279449,0.0451721,1889,855,18.9975,-2.68569
672,169,19.0072,2.70026,0,0,0,0,0,0,0,-1,1896,855,19.0071,-2.70028
679,169,15.8331,2.20074,0,0,0,0,0,0,0,-1,1903,855,15.8332,-2.20076
686,169,15.8586,2.40515,-0.00190206,0.000492612,-0.00234982,0.00193256,-0.00334201,-1.02102,0.0030813,0.022951,1910,855,15.8586,-2.40515
693,169,15.8801,2.60254,-0.00241174,0.000511656,-0.00217945,0.00167419,-0.00357427,-1.08078,0.00309568,0.0121641,1917,855,15.8802,-2.60254
700,169,15.8795,2.78076,-0.0026477,0.000365426,-0.00182203,0.00122308,-0.00350536,-1.13085,0.00283399,0.0120738,1924,855,15.8795,-2.78076
707,169,15.8599,2.92542,-0.00192554,0.000162975,-0.00133104,0.000810504,-0.00257307,-1.11802,0.00203995,0.0133682,1931,855,15.8598,-2.92539
714,169,15.8528,3.07153,-0.000446591,9.3706e-05,-0.00133219,0.00118286,-0.00153574,-0.885435,0.00157399,0.0123132,1938,855,15.8528,-3.07153
721,169,15.8628,3.24829,0.0020787,-0.000535466,-0.00115818,0.002518,-0.000974765,-0.362536,0.00208113,0.0148675,1945,855,15.8629,-3.24826
728,169,15.8497,3.39838,0.00491324,-0.00159666,-0.000612059,0.00497028,-0.00165371,-0.0929345,0.00398095,0.0130861,1952,855,15.8497,-3.39838
735,169,15.8405,3.52637,0.00804449,-0.00331562,0.000317268,0.00805334,-0.00332448,0.0278992,0.00675546,0.0183923,1959,855,15.8404,-3.52639
742,169,15.8438,3.70459,0.0118726,-0.0056321,0.00124312,0.0119604,-0.00571994,0.0705446,0.0104176,0.0136502,1966,855,15.8437,-3.70458
749,169,15.8292,3.86578,0.0158081,-0.00910316,0.00257625,0.0160718,-0.0093668,0.101979,0.0148561,0.0231971,1973,855,15.8292,-3.86581
756,169,15.8103,3.88531,0.0195328,-0.0141275,0.00455761,0.0201389,-0.0147337,0.132229,0.0202142,0.0465224,1980,855,15.8103,-3.88529
763,169,15.8392,3.92767,0,0,0,0,0,0,0,-1,1987,855,15.8392,-3.9277
770,169,15.5637,4.95404,0.0247049,-0.0302546,0.0120009,0.0272111,-0.0327608,0.205877,0.0346742,0.0484853,1994,855,15.5638,-4.95402
777,169,15.702,4.95038,0.0241421,-0.0421192,0.0183483,0.0288836,-0.0468607,0.252884,0.0441397,0.0457155,2001,855,15.7021,-4.95037
784,169,15.5708,4.79773,0.019361,-0.0570387,0.0272584,0.0280893,-0.065767,0.309889,0.0556244,0.0483591,2008,855,15.5708,-4.79772
791,169,0,0,0,0,0,0,0,0,0,-1,2015,855,0,0
798,169,0,0,0,0,0,0,0,0,0,-1,2022,855,0,0
805,169,0,0,0,0,0,0,0,0,0,-1,2029,855,0,0
812,169,0,0,0,0,0,0,0,0,0,-1,2036,855,0,0
-700,162,0,0,0,0,0,0,0,0,0,-1,524,862,0,0
-693,162,0,0,0,0,0,0,0,0,0,-1,531,862,0,0
-686,162,0,0,0,0,0,0,0,0,0,-1,538,862,0,0
-679,162,0,0,0,0,0,0,0,0,0,-1,545,862,0,0
-672,162,0,0,0,0,0,0,0,0,0,-1,552,862,0,0
-665,162,-8.94202,-0.602539,0.154027,-0.0972219,0.0372118,0.159422,-0.102617,0.14399,0.152469,0.0429777,559,862,-8.94201,0.602529
-658,162,-8.67944,-1.23633,0.128042,-0.0764663,0.0351152,0.133904,-0.0823277,0.165396,0.12602,0.0461063,566,862,-8.67947,1.23632
-651,162,-8.15851,-1.56915,0,0,0,0,0,0,0,-1,573,862,-8.15852,1.56912
-644,162,-7.91937,-1.48291,0,0,0,0,0,0,0,-1,580,862,-7.91939,1.4829
-637,162,-13.0039,3.57227,0,0,0,0,0,0,0,-1,587,862,-13.0039,-3.57226
-630,162,-9.90735,2.23517,0,0,0,0,0,0,0,-1,594,862,-9.90735,-2.23519
-623,162,-10.2135,1.5752,0.0317302,-0.016448,0.014022,0.035514,-0.0202318,0.263572,0.0325855,0.032853,601,862,-10.2135,-1.57519
-616,162,-10.2042,1.52094,0.0212415,-0.0108128,0.0105928,0.0244257,-0.013997,0.29201,0.0224541,0.018773,608,862,-10.2042,-1.52096
-609,162,-10.2058,1.37421,0.0113481,-0.0056227,0.00778008,0.014375,-0.00864954,0.371031,0.0134295,0.012959,615,862,-10.2058,-1.3742
-602,162,-10.2079,1.22559,0.00458296,-0.00301228,0.00526876,0.00728009,-0.00570941,0.47313,0.00751775,0.0112473,622,862,-10.2079,-1.22557
-595,162,-10.2043,1.09851,0.000406904,-0.00207285,0.00424767,0.00359195,-0.0052579,0.643395,0.00513955,0.0103912,629,862,-10.2043,-1.09851
-588,162,-10.2095,0.94751,-0.00225047,-0.00134585,0.00350553,0.00173643,-0.00533276,0.849557,0.0042538,0.0101988,636,862,-10.2095,-0.947492
-581,162,-10.2747,0.771851,-0.00484493,-0.00116706,0.00322129,0.000703231,-0.00671522,1.04476,0.00472869,0.011401,643,862,-10.2747,-0.771822
-574,162,-10.3716,0.603394,-0.00617253,-0.00135934,0.00326601,0.000290976,-0.00782285,1.10292,0.00531488,0.016388,650,862,-10.3716,-0.603378
-567,162,-10.3047,0.504578,-0.00637894,-0.00185167,0.0031941,-0.000200416,-0.00803019,1.09367,0.00528792,0.0249289,657,862,-10.3047,-0.504597
-560,162,-10.2582,0.294067,-0.00601954,-0.00228948,0.00308038,-0.000553523,-0.00775549,1.05761,0.00499605,0.0210926,664,862,-10.2582,-0.294059
-553,162,-10.1763,0.149231,-0.00562429,-0.0024789,0.00314779,-0.0005328,-0.00757039,1.01707,0.00487904,0.0281619,671,862,-10.1763,-0.149249
-546,162,-11.1598,0.483032,-0.00489061,-0.0030843,0.00303007,-0.000825655,-0.00714926,0.930238,0.00451618,0.0376997,678,862,-11.1598,-0.483033
-539,162,-12.0607,0.740112,0,0,0,0,0,0,0,-1,685,862,-12.0607,-0.740142
-532,162,-12.3908,0.783203,-0.00165907,-0.00386149,0.0024488,-7.52693e-05,-0.00544528,0.574098,0.00360536,0.0382603,692,862,-12.3908,-0.783198
-525,162,-12.3886,0.826965,0.000796295,-0.00413882,0.00198129,0.00149328,-0.0048358,0.338264,0.00382019,0.0412266,699,862,-12.3886,-0.826987
-518,162,-12.4181,0.80603,0.00383601,-0.00429621,0.00142942,0.00407994,-0.00454015,0.169025,0.00497918,0.0413196,706,862,-12.4181,-0.806034
-511,162,-12.3145,0.774048,0.00724696,-0.00423883,0.00092648,0.00732121,-0.00431308,0.0799741,0.00679149,0.0451691,713,862,-12.3145,-0.774066
-504,162,-12.3024,0.636475,0.0104173,-0.00371185,0.000651141,0.0104472,-0.00374179,0.0459553,0.00849147,0.0459952,720,862,-12.3024,-0.63646
-497,162,-12.398,0.461731,0,0,0,0,0,0,0,-1,727,862,-12.398,-0.461748
-490,162,0,0,0,0,0,0,0,0,0,-1,734,862,0,0
-483,162,0,0,0,0,0,0,0,0,0,-1,741,862,0,0
-476,162,0,0,0,0,0,0,0,0,0,-1,748,862,0,0
-469,162,0,0,0,0,0,0,0,0,0,-1,755,862,0,0
-462,162,0,0,0,0,0,0,0,0,0,-1,762,862,0,0
-455,162,0,0,0,0,0,0,0,0,0,-1,769,862,0,0
-448,162,0,0,0,0,0,0,0,0,0,-1,776,862,0,0
-441,162,0,0,0,0,0,0,0,0,0,-1,783,862,0,0
-434,162,0,0,0,0,0,0,0,0,0,-1,790,862,0,0
-427,162,0,0,0,0,0,0,0,0,0,-1,797,862,0,0
-420,162,0,0,0,0,0,0,0,0,0,-1,804,862,0,0
-413,162,0,0,0,0,0,0,0,0,0,-1,811,862,0,0
-406,162,0,0,0,0,0,0,0,0,0,-1,818,862,0,0
-399,162,0,0,0,0,0,0,0,0,0,-1,825,862,0,0
-392,162,0,0,0,0,0,0,0,0,0,-1,832,862,0,0
-385,162,0,0,0,0,0,0,0,0,0,-1,839,862,0,0
-378,162,0,0,0,0,0,0,0,0,0,-1,846,862,0,0
-371,162,0,0,0,0,0,0,0,0,0,-1,853,862,0,0
-364,162,0,0,0,0,0,0,0,0,0,-1,860,862,0,0
-357,162,0,0,0,0,0,0,0,0,0,-1,867,862,0,0
-350,162,0,0,0,0,0,0,0,0,0,-1,874,862,0,0
-343,162,0,0,0,0,0,0,0,0,0,-1,881,862,0,0
-336,162,0,0,0,0,0,0,0,0,0,-1,888,862,0,0
-329,162,0,0,0,0,0,0,0,0,0,-1,895,862,0,0
-322,162,0,0,0,0,0,0,0,0,0,-1,902,862,0,0
-315,162,0,0,0,0,0,0,0,0,0,-1,909,862,0,0
-308,162,0,0,0,0,0,0,0,0,0,-1,916,862,0,0
-301,162,0,0,0,0,0,0,0,0,0,-1,923,862,0,0
-294,162,0,0,0,0,0,0,0,0,0,-1,930,862,0,0
-287,162,0,0,0,0,0,0,0,0,0,-1,937,862,0,0
-280,162,0,0,0,0,0,0,0,0,0,-1,944,862,0,0
-273,162,0,0,0,0,0,0,0,0,0,-1,951,862,0,0
-266,162,0,0,0,0,0,0,0,0,0,-1,958,862,0,0
-259,162,0,0,0,0,0,0,0,0,0,-1,965,862,0,0
-252,162,0,0,0,0,0,0,0,0,0,-1,972,862,0,0
-245,162,0,0,0,0,0,0,0,0,0,-1,979,862,0,0
-238,162,0,0,0,0,0,0,0,0,0,-1,986,862,0,0
-231,162,0,0,0,0,0,0,0,0,0,-1,993,862,0,0
-224,162,0,0,0,0,0,0,0,0,0,-1,1000,862,0,0
-217,162,0,0,0,0,0,0,0,0,0,-1,1007,862,0,0
-210,162,0,0,0,0,0,0,0,0,0,-1,1014,862,0,0
-203,162,0,0,0,0,0,0,0,0,0,-1,1021,862,0,0
-196,162,0,0,0,0,0,0,0,0,0,-1,1028,862,0,0
-189,162,0,0,0,0,0,0,0,0,0,-1,1035,862,0,0
-182,162,0,0,0,0,0,0,0,0,0,-1,1042,862,0,0
-175,162,0,0,0,0,0,0,0,0,0,-1,1049,862,0,0
-168,162,0,0,0,0,0,0,0,0,0,-1,1056,862,0,0
-161,162,0,0,0,0,0,0,0,0,0,-1,1063,862,0,0
-154,162,0,0,0,0,0,0,0,0,0,-1,1070,862,0,0
-147,162,0,0,0,0,0,0,0,0,0,-1,1077,862,0,0
-140,162,0,0,0,0,0,0,0,0,0,-1,1084,862,0,0
-133,162,0,0,0,0,0,0,0,0,0,-1,1091,862,0,0
-126,162,0,0,0,0,0,0,0,0,0,-1,1098,862,0,0
-119,162,0,0,0,0,0,0,0,0,0,-1,1105,862,0,0
-112,162,0,0,0,0,0,0,0,0,0,-1,1112,862,0,0
-105,162,0,0,0,0,0,0,0,0,0,-1,1119,862,0,0
-98,162,0,0,0,0,0,0,0,0,0,-1,1126,862,0,0
-91,162,0,0,0,0,0,0,0,0,0,-1,1133,862,0,0
-84,162,0,0,0,0,0,0,0,0,0,-1,1140,862,0,0
-77,162,0,0,0,0,0,0,0,0,0,-1,1147,862,0,0
-70,162,0,0,0,0,0,0,0,0,0,-1,1154,862,0,0
-63,162,0,0,0,0,0,0,0,0,0,-1,1161,862,0,0
-56,162,0,0,0,0,0,0,0,0,0,-1,1168,862,0,0
-49,162,0,0,0,0,0,0,0,0,0,-1,1175,862,0,0
-42,162,0,0,0,0,0,0,0,0,0,-1,1182,862,0,0
-35,162,0,0,0,0,0,0,0,0,0,-1,1189,862,0,0
-28,162,0,0,0,0,0,0,0,0,0,-1,1196,862,0,0
-21,162,0,0,0,0,0,0,0,0,0,-1,1203,862,0,0
-14,162,0,0,0,0,0,0,0,0,0,-1,1210,862,0,0
-7,162,0,0,0,0,0,0,0,0,0,-1,1217,862,0,0
0,162,0,0,0,0,0,0,0,0,0,-1,1224,862,0,0
7,162,0,0,0,0,0,0,0,0,0,-1,1231,862,0,0
14,162,0,0,0,0,0,0,0,0,0,-1,1238,862,0,0
21,162,0,0,0,0,0,0,0,0,0,-1,1245,862,0,0
28,162,0,0,0,0,0,0,0,0,0,-1,1252,862,0,0
35,162,0,0,0,0,0,0,0,0,0,-1,1259,862,0,0
42,162,0,0,0,0,0,0,0,0,0,-1,1266,862,0,0
49,162,0,0,0,0,0,0,0,0,0,-1,1273,862,0,0
56,162,0,0,0,0,0,0,0,0,0,-1,1280,862,0,0
63,162,0,0,0,0,0,0,0,0,0,-1,1287,862,0,0
70,162,0,0,0,0,0,0,0,0,0,-1,1294,862,0,0
77,162,0,0,0,0,0,0,0,0,0,-1,1301,862,0,0
84,162,0,0,0,0,0,0,0,0,0,-1,1308,862,0,0
91,162,0,0,0,0,0,0,0,0,0,-1,1315,862,0,0
98,162,0,0,0,0,0,0,0,0,0,-1,1322,862,0,0
105,162,0,0,0,0,0,0,0,0,0,-1,1329,862,0,0
112,162,0,0,0,0,0,0,0,0,0,-1,1336,862,0,0
119,162,0,0,0,0,0,0,0,0,0,-1,1343,862,0,0
126,162,0,0,0,0,0,0,0,0,0,-1,1350,862,0,0
133,162,0,0,0,0,0,0,0,0,0,-1,1357,862,0,0
140,162,0,0,0,0,0,0,0,0,0,-1,1364,862,0,0
147,162,0,0,0,0,0,0,0,0,0,-1,1371,862,0,0
154,162,0,0,0,0,0,0,0,0,0,-1,1378,862,0,0
161,162,0,0,0,0,0,0,0,0,0,-1,1385,862,0,0
168,162,0,0,0,0,0,0,0,0,0,-1,1392,862,0,0
175,162,0,0,0,0,0,0,0,0,0,-1,1399,862,0,0
182,162,0,0,0,0,0,0,0,0,0,-1,1406,862,0,0
189,162,0,0,0,0,0,0,0,0,0,-1,1413,862,0,0
196,162,0,0,0,0,0,0,0,0,0,-1,1420,862,0,0
203,162,0,0,0,0,0,0,0,0,0,-1,1427,862,0,0
210,162,0,0,0,0,0,0,0,0,0,-1,1434,862,0,0
217,162,0,0,0,0,0,0,0,0,0,-1,1441,862,0,0
224,162,0,0,0,0,0,0,0,0,0,-1,1448,862,0,0
231,162,0,0,0,0,0,0,0,0,0,-1,1455,862,0,0
238,162,0,0,0,0,0,0,0,0,0,-1,1462,862,0,0
245,162,0,0,0,0,0,0,0,0,0,-1,1469,862,0,0
252,162,0,0,0,0,0,0,0,0,0,-1,1476,862,0,0
259,162,0,0,0,0,0,0,0,0,0,-1,1483,862,0,0
266,162,0,0,0,0,0,0,0,0,0,-1,1490,862,0,0
273,162,0,0,0,0,0,0,0,0,0,-1,1497,862,0,0
280,162,0,0,0,0,0,0,0,0,0,-1,1504,862,0,0
287,162,0,0,0,0,0,0,0,0,0,-1,1511,862,0,0
294,162,0,0,0,0,0,0,0,0,0,-1,1518,862,0,0
301,162,0,0,0,0,0,0,0,0,0,-1,1525,862,0,0
308,162,0,0,0,0,0,0,0,0,0,-1,1532,862,0,0
315,162,0,0,0,0,0,0,0,0,0,-1,1539,862,0,0
322,162,0,0,0,0,0,0,0,0,0,-1,1546,862,0,0
329,162,0,0,0,0,0,0,0,0,0,-1,1553,862,0,0
336,162,0,0,0,0,0,0,0,0,0,-1,1560,862,0,0
343,162,0,0,0,0,0,0,0,0,0,-1,1567,862,0,0
350,162,0,0,0,0,0,0,0,0,0,-1,1574,862,0,0
357,162,0,0,0,0,0,0,0,0,0,-1,1581,862,0,0
364,162,0,0,0,0,0,0,0,0,0,-1,1588,862,0,0
371,162,0,0,0,0,0,0,0,0,0,-1,1595,862,0,0
378,162,0,0,0,0,0,0,0,0,0,-1,1602,862,0,0
385,162,0,0,0,0,0,0,0,0,0,-1,1609,862,0,0
392,162,0,0,0,0,0,0,0,0,0,-1,1616,862,0,0
399,162,0,0,0,0,0,0,0,0,0,-1,1623,862,0,0
406,162,0,0,0,0,0,0,0,0,0,-1,1630,862,0,0
413,162,0,0,0,0,0,0,0,0,0,-1,1637,862,0,0
420,162,0,0,0,0,0,0,0,0,0,-1,1644,862,0,0
427,162,0,0,0,0,0,0,0,0,0,-1,1651,862,0,0
434,162,0,0,0,0,0,0,0,0,0,-1,1658,862,0,0
441,162,0,0,0,0,0,0,0,0,0,-1,1665,862,0,0
448,162,0,0,0,0,0,0,0,0,0,-1,1672,862,0,0
455,162,0,0,0,0,0,0,0,0,0,-1,1679,862,0,0
462,162,0,0,0,0,0,0,0,0,0,-1,1686,862,0,0
469,162,0,0,0,0,0,0,0,0,0,-1,1693,862,0,0
476,162,0,0,0,0,0,0,0,0,0,-1,1700,862,0,0
483,162,0,0,0,0,0,0,0,0,0,-1,1707,862,0,0
490,162,0,0,0,0,0,0,0,0,0,-1,1714,862,0,0
497,162,0,0,0,0,0,0,0,0,0,-1,1721,862,0,0
504,162,0,0,0,0,0,0,0,0,0,-1,1728,862,0,0
511,162,0,0,0,0,0,0,0,0,0,-1,1735,862,0,0
518,162,0,0,0,0,0,0,0,0,0,-1,1742,862,0,0
525,162,0,0,0,0,0,0,0,0,0,-1,1749,862,0,0
532,162,0,0,0,0,0,0,0,0,0,-1,1756,862,0,0
539,162,0,0,0,0,0,0,0,0,0,-1,1763,862,0,0
546,162,0,0,0,0,0,0,0,0,0,-1,1770,862,0,0
553,162,0,0,0,0,0,0,0,0,0,-1,1777,862,0,0
560,162,0,0,0,0,0,0,0,0,0,-1,1784,862,0,0
567,162,0,0,0,0,0,0,0,0,0,-1,1791,862,0,0
574,162,0,0,0,0,0,0,0,0,0,-1,1798,862,0,0
581,162,0,0,0,0,0,0,0,0,0,-1,1805,862,0,0
588,162,0,0,0,0,0,0,0,0,0,-1,1812,862,0,0
595,162,0,0,0,0,0,0,0,0,0,-1,1819,862,0,0
602,162,0,0,0,0,0,0,0,0,0,-1,1826,862,0,0
609,162,0,0,0,0,0,0,0,0,0,-1,1833,862,0,0
616,162,18.9175,2.65356,-0.00376005,-0.00120174,0.00451628,0.00221304,-0.00717483,0.9234,0.00566682,0.045845,1840,862,18.9175,-2.65357
623,162,18.9833,2.59631,-0.00176536,-0.00127668,0.00254899,0.00103965,-0.00408169,0.833182,0.00312585,0.046026,1847,862,18.9833,-2.59634
630,162,18.8593,2.62634,-1.49266e-06,-0.000861396,0.00113461,0.000781897,-0.00164479,0.604287,0.00143027,0.0415649,1854,862,18.8592,-2.62633
637,162,18.8867,2.66742,0.00117523,-0.000363259,6.56922e-05,0.00117803,-0.000366059,0.0425958,0.000931662,0.0391115,1861,862,18.8867,-2.66745
644,162,18.9528,2.68237,0.00116753,3.70132e-06,-0.000779942,0.00155872,-0.000387489,-0.464897,0.00118954,0.0374219,1868,862,18.9527,-2.68239
651,162,19.0215,2.60773,0.000487131,0.00022135,-0.00133153,0.00169239,-0.000983905,-0.735662,0.0015631,0.0338535,1875,862,19.0214,-2.60772
658,162,19.0293,2.61334,-0.000237596,0.000304878,-0.00169189,0.00174714,-0.00167986,-0.86488,0.0019787,0.0341729,1882,862,19.0293,-2.61337
665,162,18.957,2.69836,-0.00094043,0.000321956,-0.00195712,0.00174715,-0.00236562,-0.941388,0.00238344,0.0414092,1889,862,18.9571,-2.69836
672,162,18.2996,2.90326,0,0,0,0,0,0,0,-1,1896,862,18.2995,-2.90327
679,162,17.212,2.70422,0,0,0,0,0,0,0,-1,1903,862,17.2121,-2.70422
686,162,16.0819,2.46545,-0.00287341,0.00029499,-0.00222143,0.00143924,-0.00401766,-1.09514,0.00326567,0.0306576,1910,862,16.0819,-2.46548
693,162,16.03,2.63159,-0.0035695,0.00041651,-0.00210251,0.00132051,-0.0044735,-1.16473,0.00350639,0.0168074,1917,862,16.03,-2.63162
700,162,16.0403,2.77234,-0.00398818,0.000336209,-0.00180013,0.000987475,-0.00463945,-1.22366,0.00346929,0.0148424,1924,862,16.0402,-2.77233
707,162,16.026,2.90472,-0.00356991,0.000221849,-0.00156357,0.000783429,-0.00413149,-1.22598,0.0030492,0.011085,1931,862,16.0259,-2.90473
714,162,16.0151,3.06085,-0.00221437,0.000162359,-0.00157419,0.000946374,-0.00299839,-1.10872,0.00237801,0.014591,1938,862,16.0151,-3.06087
721,162,15.96,3.29535,0.000104753,-0.000314317,-0.00137509,0.00128618,-0.00149574,-0.70979,0.00160766,0.0255583,1945,862,15.9599,-3.29532
728,162,15.9766,3.42572,0.00270878,-0.00116707,-0.000800134,0.00286746,-0.00132576,-0.195781,0.0024749,0.0213227,1952,862,15.9765,-3.42573
735,162,16.0187,3.54761,0.00552794,-0.00262913,0.000148987,0.00553066,-0.00263185,0.0182566,0.00481067,0.0107638,1959,862,16.0187,-3.5476
742,162,16.0103,3.70819,0.00889229,-0.00459584,0.00111589,0.00898399,-0.00468753,0.0819882,0.00802213,0.0114144,1966,862,16.0103,-3.7082
749,162,15.9823,3.85663,0.0121969,-0.00758861,0.00249432,0.0125065,-0.00789822,0.123494,0.0118804,0.0157338,1973,862,15.9824,-3.85664
756,162,15.9429,3.95032,0.015033,-0.0120048,0.00451043,0.0157655,-0.0127374,0.161013,0.0164871,0.0384602,1980,862,15.9429,-3.95029
763,162,15.9357,4.08167,0,0,0,0,0,0,0,-1,1987,862,15.9357,-4.08166
770,162,15.9105,4.17804,0,0,0,0,0,0,0,-1,1994,862,15.9105,-4.17801
777,162,15.031,5.29895,0.0169876,-0.037666,0.0188574,0.0228625,-0.0435409,0.302014,0.0389528,0.045841,2001,862,15.031,-5.29895
784,162,14.6943,5.32306,0.0118564,-0.0518078,0.0281904,0.0225447,-0.062496,0.3624,0.0508723,0.0445558,2008,862,14.6943,-5.32304
791,162,0,0,0,0,0,0,0,0,0,-1,2015,862,0,0
798,162,0,0,0,0,0,0,0,0,0,-1,2022,862,0,0
805,162,0,0,0,0,0,0,0,0,0,-1,2029,862,0,0
812,162,0,0,0,0,0,0,0,0,0,-1,2036,862,0,0
-700,155,0,0,0,0,0,0,0,0,0,-1,524,869,0,0
-693,155,0,0,0,0,0,0,0,0,0,-1,531,869,0,0
-686,155,0,0,0,0,0,0,0,0,0,-1,538,869,0,0
-679,155,0,0,0,0,0,0,0,0,0,-1,545,869,0,0
-672,155,0,0,0,0,0,0,0,0,0,-1,552,869,0,0
-665,155,-9.2652,0.69342,0.144309,-0.0941383,0.0366327,0.14981,-0.0996393,0.149052,0.144987,0.0461231,559,869,-9.26522,-0.693425
-658,155,-8.83044,0.259705,0.121249,-0.0754713,0.0344411,0.127104,-0.0813268,0.168406,0.121301,0.0467306,566,869,-8.83044,-0.259679
-651,155,-8.59357,-0.202332,0.0987675,-0.0593011,0.030754,0.10454,-0.0650738,0.185547,0.0988064,0.0476801,573,869,-8.59358,0.202316
-644,155,-8.6322,-0.591125,0.0780574,-0.0455458,0.0263855,0.0834543,-0.0509426,0.201756,0.0783472,0.0467786,580,869,-8.63221,0.591147
-637,155,-9.09839,-0.924683,0,0,0,0,0,0,0,-1,587,869,-9.09837,0.924655
-630,155,-10.2891,1.76929,0,0,0,0,0,0,0,-1,594,869,-10.2891,-1.7693
-623,155,-10.3753,1.49884,0.0312403,-0.0175223,0.0137272,0.034839,-0.021121,0.256393,0.0326305,0.0255868,601,869,-10.3753,-1.49886
-616,155,-10.3513,1.4931,0.0210281,-0.0116638,0.0105395,0.0241313,-0.014767,0.286348,0.0226739,0.0146952,608,869,-10.3513,-1.4931
-609,155,-10.3474,1.35449,0.0107731,-0.00623984,0.00763167,0.0136947,-0.00916152,0.365623,0.0132823,0.0140938,615,869,-10.3474,-1.35452
-602,155,-10.346,1.23468,0.00356993,-0.00350142,0.00507927,0.00622296,-0.00615445,0.481347,0.00714614,0.0121587,622,869,-10.346,-1.23468
-595,155,-10.3615,1.09625,-0.000707312,-0.00227081,0.00411164,0.00269623,-0.00567436,0.691454,0.00493367,0.0106666,629,869,-10.3614,-1.09625
-588,155,-10.3666,0.95282,-0.00319698,-0.00136136,0.00342544,0.0012671,-0.00582544,0.916293,0.0043677,0.0115588,636,869,-10.3666,-0.952796
-581,155,-10.4538,0.79303,-0.00564187,-0.00114503,0.00320224,0.000519315,-0.00730621,1.09148,0.00505281,0.0155752,643,869,-10.4538,-0.793029
-574,155,-10.5146,0.662903,-0.00689764,-0.00124474,0.00327124,0.000251983,-0.00839436,1.14169,0.0056821,0.020676,650,869,-10.5147,-0.662892
-567,155,-10.4575,0.507996,-0.0070843,-0.00155628,0.00323929,-6.20345e-05,-0.00857855,1.13859,0.00569847,0.0233231,657,869,-10.4574,-0.507985
-560,155,-10.4186,0.356384,-0.00674854,-0.00184007,0.00314366,-0.000306088,-0.00828252,1.11683,0.00542253,0.0232151,664,869,-10.4186,-0.356361
-553,155,-10.4453,0.297791,-0.00640211,-0.00189725,0.00316933,-0.000261476,-0.00803788,1.09433,0.00527359,0.038387,671,869,-10.4453,-0.297793
-546,155,-11.4271,0.565369,-0.00565342,-0.0022559,0.0030121,-0.000496547,-0.00741278,1.04215,0.00478493,0.0435026,678,869,-11.4271,-0.56537
-539,155,-12.1836,0.842346,0,0,0,0,0,0,0,-1,685,869,-12.1836,-0.84235
-532,155,-12.3855,0.803467,-0.00216829,-0.00255854,0.00224554,-0.000109419,-0.00461742,0.74206,0.00304246,0.0363682,692,869,-12.3855,-0.803443
-525,155,-12.3254,0.969666,0.000606426,-0.00259888,0.00160577,0.00127248,-0.00326493,0.393186,0.00270255,0.0382657,699,869,-12.3254,-0.969636
-518,155,-12.3926,0.865173,0.00414797,-0.0025287,0.0008387,0.00425171,-0.00263244,0.12307,0.00401105,0.0414313,706,869,-12.3926,-0.86516
-511,155,-12.3245,0.739685,0.00822924,-0.00233335,0.00011386,0.00823047,-0.00233458,0.0107778,0.00640852,0.0443279,713,869,-12.3245,-0.739714
-504,155,-12.3191,0.555542,0.012116,-0.00178305,-0.000317911,0.0121232,-0.00179032,-0.022857,0.00874027,0.0457381,720,869,-12.3191,-0.555536
-497,155,0,0,0,0,0,0,0,0,0,-1,727,869,0,0
-490,155,0,0,0,0,0,0,0,0,0,-1,734,869,0,0
-483,155,0,0,0,0,0,0,0,0,0,-1,741,869,0,0
-476,155,0,0,0,0,0,0,0,0,0,-1,748,869,0,0
-469,155,0,0,0,0,0,0,0,0,0,-1,755,869,0,0
-462,155,0,0,0,0,0,0,0,0,0,-1,762,869,0,0
-455,155,0,0,0,0,0,0,0,0,0,-1,769,869,0,0
-448,155,0,0,0,0,0,0,0,0,0,-1,776,869,0,0
-441,155,0,0,0,0,0,0,0,0,0,-1,783,869,0,0
-434,155,0,0,0,0,0,0,0,0,0,-1,790,869,0,0
-427,155,0,0,0,0,0,0,0,0,0,-1,797,869,0,0
-420,155,0,0,0,0,0,0,0,0,0,-1,804,869,0,0
-413,155,0,0,0,0,0,0,0,0,0,-1,811,869,0,0
-406,155,0,0,0,0,0,0,0,0,0,-1,818,869,0,0
-399,155,0,0,0,0,0,0,0,0,0,-1,825,869,0,0
-392,155,0,0,0,0,0,0,0,0,0,-1,832,869,0,0
-385,155,0,0,0,0,0,0,0,0,0,-1,839,869,0,0
-378,155,0,0,0,0,0,0,0,0,0,-1,846,869,0,0
-371,155,0,0,0,0,0,0,0,0,0,-1,853,869,0,0
-364,155,0,0,0,0,0,0,0,0,0,-1,860,869,0,0
-357,155,0,0,0,0,0,0,0,0,0,-1,867,869,0,0
-350,155,0,0,0,0,0,0,0,0,0,-1,874,869,0,0
-343,155,0,0,0,0,0,0,0,0,0,-1,881,869,0,0
-336,155,0,0,0,0,0,0,0,0,0,-1,888,869,0,0
-329,155,0,0,0,0,0,0,0,0,0,-1,895,869,0,0
-322,155,0,0,0,0,0,0,0,0,0,-1,902,869,0,0
-315,155,0,0,0,0,0,0,0,0,0,-1,909,869,0,0
-308,155,0,0,0,0,0,0,0,0,0,-1,916,869,0,0
-301,155,0,0,0,0,0,0,0,0,0,-1,923,869,0,0
-294,155,0,0,0,0,0,0,0,0,0,-1,930,869,0,0
-287,155,0,0,0,0,0,0,0,0,0,-1,937,869,0,0
-280,155,0,0,0,0,0,0,0,0,0,-1,944,869,0,0
-273,155,0,0,0,0,0,0,0,0,0,-1,951,869,0,0
-266,155,0,0,0,0,0,0,0,0,0,-1,958,869,0,0
-259,155,0,0,0,0,0,0,0,0,0,-1,965,869,0,0
-252,155,0,0,0,0,0,0,0,0,0,-1,972,869,0,0
-245,155,0,0,0,0,0,0,0,0,0,-1,979,869,0,0
-238,155,0,0,0,0,0,0,0,0,0,-1,986,869,0,0
-231,155,0,0,0,0,0,0,0,0,0,-1,993,869,0,0
-224,155,0,0,0,0,0,0,0,0,0,-1,1000,869,0,0
-217,155,0,0,0,0,0,0,0,0,0,-1,1007,869,0,0
-210,155,0,0,0,0,0,0,0,0,0,-1,1014,869,0,0
-203,155,0,0,0,0,0,0,0,0,0,-1,1021,869,0,0
-196,155,0,0,0,0,0,0,0,0,0,-1,1028,869,0,0
-189,155,0,0,0,0,0,0,0,0,0,-1,1035,869,0,0
-182,155,0,0,0,0,0,0,0,0,0,-1,1042,869,0,0
-175,155,0,0,0,0,0,0,0,0,0,-1,1049,869,0,0
-168,155,0,0,0,0,0,0,0,0,0,-1,1056,869,0,0
-161,155,0,0,0,0,0,0,0,0,0,-1,1063,869,0,0
-154,155,0,0,0,0,0,0,0,0,0,-1,1070,869,0,0
-147,155,0,0,0,0,0,0,0,0,0,-1,1077,869,0,0
-140,155,0,0,0,0,0,0,0,0,0,-1,1084,869,0,0
-133,155,0,0,0,0,0,0,0,0,0,-1,1091,869,0,0
-126,155,0,0,0,0,0,0,0,0,0,-1,1098,869,0,0
-119,155,0,0,0,0,0,0,0,0,0,-1,1105,869,0,0
-112,155,0,0,0,0,0,0,0,0,0,-1,1112,869,0,0
-105,155,0,0,0,0,0,0,0,0,0,-1,1119,869,0,0
-98,155,0,0,0,0,0,0,0,0,0,-1,1126,869,0,0
-91,155,0,0,0,0,0,0,0,0,0,-1,1133,869,0,0
-84,155,0,0,0,0,0,0,0,0,0,-1,1140,869,0,0
-77,155,0,0,0,0,0,0,0,0,0,-1,1147,869,0,0
-70,155,0,0,0,0,0,0,0,0,0,-1,1154,869,0,0
-63,155,0,0,0,0,0,0,0,0,0,-1,1161,869,0,0
-56,155,0,0,0,0,0,0,0,0,0,-1,1168,869,0,0
-49,155,0,0,0,0,0,0,0,0,0,-1,1175,869,0,0
-42,155,0,0,0,0,0,0,0,0,0,-1,1182,869,0,0
-35,155,0,0,0,0,0,0,0,0,0,-1,1189,869,0,0
-28,155,0,0,0,0,0,0,0,0,0,-1,1196,869,0,0
-21,155,0,0,0,0,0,0,0,0,0,-1,1203,869,0,0
-14,155,0,0,0,0,0,0,0,0,0,-1,1210,869,0,0
-7,155,0,0,0,0,0,0,0,0,0,-1,1217,869,0,0
0,155,0,0,0,0,0,0,0,0,0,-1,1224,869,0,0
7,155,0,0,0,0,0,0,0,0,0,-1,1231,869,0,0
14,155,0,0,0,0,0,0,0,0,0,-1,1238,869,0,0
21,155,0,0,0,0,0,0,0,0,0,-1,1245,869,0,0
28,155,0,0,0,0,0,0,0,0,0,-1,1252,869,0,0
35,155,0,0,0,0,0,0,0,0,0,-1,1259,869,0,0
42,155,0,0,0,0,0,0,0,0,0,-1,1266,869,0,0
49,155,0,0,0,0,0,0,0,0,0,-1,1273,869,0,0
56,155,0,0,0,0,0,0,0,0,0,-1,1280,869,0,0
63,155,0,0,0,0,0,0,0,0,0,-1,1287,869,0,0
70,155,0,0,0,0,0,0,0,0,0,-1,1294,869,0,0
77,155,0,0,0,0,0,0,0,0,0,-1,1301,869,0,0
84,155,0,0,0,0,0,0,0,0,0,-1,1308,869,0,0
91,155,0,0,0,0,0,0,0,0,0,-1,1315,869,0,0
98,155,0,0,0,0,0,0,0,0,0,-1,1322,869,0,0
105,155,0,0,0,0,0,0,0,0,0,-1,1329,869,0,0
112,155,0,0,0,0,0,0,0,0,0,-1,1336,869,0,0
119,155,0,0,0,0,0,0,0,0,0,-1,1343,869,0,0
126,155,0,0,0,0,0,0,0,0,0,-1,1350,869,0,0
133,155,0,0,0,0,0,0,0,0,0,-1,1357,869,0,0
140,155,0,0,0,0,0,0,0,0,0,-1,1364,869,0,0
147,155,0,0,0,0,0,0,0,0,0,-1,1371,869,0,0
154,155,0,0,0,0,0,0,0,0,0,-1,1378,869,0,0
161,155,0,0,0,0,0,0,0,0,0,-1,1385,869,0,0
168,155,0,0,0,0,0,0,0,0,0,-1,1392,869,0,0
175,155,0,0,0,0,0,0,0,0,0,-1,1399,869,0,0
182,155,0,0,0,0,0,0,0,0,0,-1,1406,869,0,0
189,155,0,0,0,0,0,0,0,0,0,-1,1413,869,0,0
196,155,0,0,0,0,0,0,0,0,0,-1,1420,869,0,0
203,155,0,0,0,0,0,0,0,0,0,-1,1427,869,0,0
210,155,0,0,0,0,0,0,0,0,0,-1,1434,869,0,0
217,155,0,0,0,0,0,0,0,0,0,-1,1441,869,0,0
224,155,0,0,0,0,0,0,0,0,0,-1,1448,869,0,0
231,155,0,0,0,0,0,0,0,0,0,-1,1455,869,0,0
238,155,0,0,0,0,0,0,0,0,0,-1,1462,869,0,0
245,155,0,0,0,0,0,0,0,0,0,-1,1469,869,0,0
252,155,0,0,0,0,0,0,0,0,0,-1,1476,869,0,0
259,155,0,0,0,0,0,0,0,0,0,-1,1483,869,0,0
266,155,0,0,0,0,0,0,0,0,0,-1,1490,869,0,0
273,155,0,0,0,0,0,0,0,0,0,-1,1497,869,0,0
280,155,0,0,0,0,0,0,0,0,0,-1,1504,869,0,0
287,155,0,0,0,0,0,0,0,0,0,-1,1511,869,0,0
294,155,0,0,0,0,0,0,0,0,0,-1,1518,869,0,0
301,155,0,0,0,0,0,0,0,0,0,-1,1525,869,0,0
308,155,0,0,0,0,0,0,0,0,0,-1,1532,869,0,0
315,155,0,0,0,0,0,0,0,0,0,-1,1539,869,0,0
322,155,0,0,0,0,0,0,0,0,0,-1,1546,869,0,0
329,155,0,0,0,0,0,0,0,0,0,-1,1553,869,0,0
336,155,0,0,0,0,0,0,0,0,0,-1,1560,869,0,0
343,155,0,0,0,0,0,0,0,0,0,-1,1567,869,0,0
350,155,0,0,0,0,0,0,0,0,0,-1,1574,869,0,0
357,155,0,0,0,0,0,0,0,0,0,-1,1581,869,0,0
364,155,0,0,0,0,0,0,0,0,0,-1,1588,869,0,0
371,155,0,0,0,0,0,0,0,0,0,-1,1595,869,0,0
378,155,0,0,0,0,0,0,0,0,0,-1,1602,869,0,0
385,155,0,0,0,0,0,0,0,0,0,-1,1609,869,0,0
392,155,0,0,0,0,0,0,0,0,0,-1,1616,869,0,0
399,155,0,0,0,0,0,0,0,0,0,-1,1623,869,0,0
406,155,0,0,0,0,0,0,0,0,0,-1,1630,869,0,0
413,155,0,0,0,0,0,0,0,0,0,-1,1637,869,0,0
420,155,0,0,0,0,0,0,0,0,0,-1,1644,869,0,0
427,155,0,0,0,0,0,0,0,0,0,-1,1651,869,0,0
434,155,0,0,0,0,0,0,0,0,0,-1,1658,869,0,0
441,155,0,0,0,0,0,0,0,0,0,-1,1665,869,0,0
448,155,0,0,0,0,0,0,0,0,0,-1,1672,869,0,0
455,155,0,0,0,0,0,0,0,0,0,-1,1679,869,0,0
462,155,0,0,0,0,0,0,0,0,0,-1,1686,869,0,0
469,155,0,0,0,0,0,0,0,0,0,-1,1693,869,0,0
476,155,0,0,0,0,0,0,0,0,0,-1,1700,869,0,0
483,155,0,0,0,0,0,0,0,0,0,-1,1707,869,0,0
490,155,0,0,0,0,0,0,0,0,0,-1,1714,869,0,0
497,155,0,0,0,0,0,0,0,0,0,-1,1721,869,0,0
504,155,0,0,0,0,0,0,0,0,0,-1,1728,869,0,0
511,155,0,0,0,0,0,0,0,0,0,-1,1735,869,0,0
518,155,0,0,0,0,0,0,0,0,0,-1,1742,869,0,0
525,155,0,0,0,0,0,0,0,0,0,-1,1749,869,0,0
532,155,0,0,0,0,0,0,0,0,0,-1,1756,869,0,0
539,155,0,0,0,0,0,0,0,0,0,-1,1763,869,0,0
546,155,0,0,0,0,0,0,0,0,0,-1,1770,869,0,0
553,155,0,0,0,0,0,0,0,0,0,-1,1777,869,0,0
560,155,0,0,0,0,0,0,0,0,0,-1,1784,869,0,0
567,155,0,0,0,0,0,0,0,0,0,-1,1791,869,0,0
574,155,0,0,0,0,0,0,0,0,0,-1,1798,869,0,0
581,155,0,0,0,0,0,0,0,0,0,-1,1805,869,0,0
588,155,0,0,0,0,0,0,0,0,0,-1,1812,869,0,0
595,155,0,0,0,0,0,0,0,0,0,-1,1819,869,0,0
602,155,0,0,0,0,0,0,0,0,0,-1,1826,869,0,0
609,155,0,0,0,0,0,0,0,0,0,-1,1833,869,0,0
616,155,18.9371,2.7417,-0.00422515,-0.00063711,0.00312762,0.0011745,-0.00603675,1.04579,0.00446776,0.0465691,1840,869,18.9371,-2.74172
623,155,18.8336,2.71173,-0.00193995,-0.00107273,0.00133573,-0.000101992,-0.00291068,0.942344,0.00190737,0.0458879,1847,869,18.8336,-2.71172
630,155,18.8385,2.72168,-1.90524e-05,-0.000994345,0.000277081,5.41692e-05,-0.00106757,0.258355,0.000730438,0.0459259,1854,869,18.8385,-2.72169
637,155,18.8418,2.72906,0.00124468,-0.000675098,-0.000459573,0.00134903,-0.000779443,-0.223262,0.00124345,0.0407517,1861,869,18.8418,-2.72904
644,155,18.8914,2.72241,0.00123243,-0.00038298,-0.0010683,0.00176399,-0.000914546,-0.461712,0.00157216,0.0366147,1868,869,18.8914,-2.7224
651,155,18.9719,2.64294,0.0002815,-0.000158282,-0.00151902,0.00159646,-0.00147324,-0.713518,0.00177277,0.0333132,1875,869,18.9719,-2.64293
658,155,18.9974,2.58173,-0.000768968,-3.5001e-05,-0.00181832,0.001453,-0.00225697,-0.884973,0.00215865,0.0274181,1882,869,18.9974,-2.58174
665,155,18.9205,2.69397,-0.00175268,2.99075e-05,-0.00204422,0.00136869,-0.00309146,-0.990977,0.00263832,0.0310434,1889,869,18.9205,-2.69395
672,155,18.9369,2.70374,-0.00270091,8.48471e-05,-0.00211302,0.00122277,-0.00383883,-1.0768,0.00304965,0.0378625,1896,869,18.9369,-2.70371
679,155,17.4919,3.05463,0,0,0,0,0,0,0,-1,1903,869,17.492,-3.05462
686,155,16.1877,2.52063,0,0,0,0,0,0,0,-1,1910,869,16.1878,-2.52064
693,155,16.1749,2.63306,-0.00493559,0.000333572,-0.00221892,0.0011435,-0.00574552,-1.22081,0.00426294,0.0215168,1917,869,16.1749,-2.63305
700,155,16.2145,2.77576,-0.00543443,0.000319219,-0.00191876,0.000900391,-0.00601561,-1.27669,0.00434177,0.0159825,1924,869,16.2145,-2.77576
707,155,16.2614,2.97156,-0.00514021,0.000255671,-0.00177338,0.000786314,-0.00567085,-1.28005,0.00406808,0.0120329,1931,869,16.2613,-2.97153
714,155,16.2299,3.06171,-0.00393675,0.000235695,-0.00179579,0.000902144,-0.0046032,-1.21543,0.00340953,0.0211845,1938,869,16.2299,-3.06169
721,155,16.1348,3.25531,-0.00183775,-0.000105811,-0.00157643,0.000826837,-0.0027704,-1.03656,0.00217557,0.0257791,1945,869,16.1348,-3.25529
728,155,16.1292,3.41626,0.00049712,-0.00074428,-0.00102747,0.00107682,-0.00132398,-0.513681,0.00138855,0.018739,1952,869,16.1291,-3.41626
735,155,16.193,3.55939,0.00296773,-0.0019162,-0.000117105,0.00297053,-0.00191901,-0.0239592,0.00284465,0.0140192,1959,869,16.1929,-3.55938
742,155,16.1927,3.73114,0.00583624,-0.00350044,0.00079747,0.00590387,-0.00356806,0.084596,0.00552377,0.014754,1966,869,16.1928,-3.73111
749,155,16.1644,3.87286,0.00852966,-0.0059782,0.00205663,0.00881557,-0.00626412,0.138135,0.0087477,0.0125095,1973,869,16.1644,-3.87289
756,155,16.134,3.98309,0.0105976,-0.00971198,0.00384399,0.0113008,-0.0104152,0.180935,0.0125412,0.0238856,1980,869,16.1341,-3.98308
763,155,16.0879,4.10266,0.0121112,-0.0150692,0.00659531,0.013627,-0.016585,0.225909,0.0174707,0.0449883,1987,869,16.0879,-4.10265
770,155,16.037,4.25208,0,0,0,0,0,0,0,-1,1994,869,16.037,-4.25205
777,155,16.0186,4.35748,0,0,0,0,0,0,0,-1,2001,869,16.0185,-4.35746
784,155,13.905,5.77295,0,0,0,0,0,0,0,-1,2008,869,13.9051,-5.77295
791,155,0,0,0,0,0,0,0,0,0,-1,2015,869,0,0
798,155,0,0,0,0,0,0,0,0,0,-1,2022,869,0,0
805,155,0,0,0,0,0,0,0,0,0,-1,2029,869,0,0
812,155,0,0,0,0,0,0,0,0,0,-1,2036,869,0,0
-700,148,0,0,0,0,0,0,0,0,0,-1,524,876,0,0
-693,148,0,0,0,0,0,0,0,0,0,-1,531,876,0,0
-686,148,0,0,0,0,0,0,0,0,0,-1,538,876,0,0
-679,148,0,0,0,0,0,0,0,0,0,-1,545,876,0,0
-672,148,-9.32208,-3.55267,0,0,0,0,0,0,0,-1,552,876,-9.32207,3.55266
-665,148,-14.5632,-1.91302,0,0,0,0,0,0,0,-1,559,876,-14.5632,1.91301
-658,148,-9.79688,0.557068,0,0,0,0,0,0,0,-1,566,876,-9.79686,-0.557066
-651,148,-9.45764,0.450745,0.0954669,-0.058834,0.0310569,0.101483,-0.0648504,0.191351,0.0968061,0.0446634,573,876,-9.45763,-0.450772
-644,148,-9.34894,0.186707,0.0757016,-0.0456023,0.0263872,0.081193,-0.0510938,0.20518,0.077032,0.0421318,580,876,-9.34896,-0.186684
-637,148,-10.2373,1.85852,0,0,0,0,0,0,0,-1,587,876,-10.2373,-1.85849
-630,148,-10.3217,1.72583,0.0426614,-0.0251552,0.0172667,0.0468046,-0.0292984,0.235497,0.0443239,0.0468776,594,876,-10.3217,-1.72584
-623,148,-10.3957,1.57385,0.0307311,-0.0181893,0.0134326,0.0341767,-0.0216349,0.251099,0.0324929,0.0227523,601,876,-10.3957,-1.57386
-616,148,-10.4634,1.49731,0.0207268,-0.0121985,0.0105433,0.0238136,-0.0152852,0.284812,0.022752,0.012744,608,876,-10.4634,-1.49733
-609,148,-10.478,1.36761,0.0102245,-0.0066657,0.00752904,0.0130934,-0.00953458,0.364057,0.013118,0.0122313,615,876,-10.478,-1.36764
-602,148,-10.5016,1.22791,0.00268763,-0.00388026,0.00491323,0.00531335,-0.00650597,0.490802,0.00683546,0.0118781,622,876,-10.5016,-1.22789
-595,148,-10.5206,1.08221,-0.00172062,-0.00236308,0.00393082,0.00190207,-0.00598577,0.744628,0.00475314,0.00984932,629,876,-10.5205,-1.08223
-588,148,-10.5369,0.925171,-0.00415496,-0.00134453,0.00328106,0.000819568,-0.00631906,0.987721,0.00451078,0.0129791,636,876,-10.5369,-0.925192
-581,148,-10.5818,0.794922,-0.00646624,-0.00109734,0.00306995,0.000296303,-0.00785989,1.14465,0.00534143,0.0197309,643,876,-10.5818,-0.79493
-574,148,-10.4823,0.651489,-0.00769849,-0.00112337,0.0031121,0.000116014,-0.00893788,1.1918,0.00599763,0.0227988,650,876,-10.4823,-0.651491
-567,148,-10.5538,0.555359,-0.00792126,-0.00125524,0.00306083,-6.30328e-05,-0.00911347,1.19937,0.00605475,0.029453,657,876,-10.5538,-0.555338
-560,148,-10.5443,0.420959,-0.00765193,-0.00138814,0.00295826,-0.000211891,-0.00882817,1.19235,0.0058161,0.0295341,664,876,-10.5442,-0.420971
-553,148,-10.6711,0.471741,0,0,0,0,0,0,0,-1,671,876,-10.6711,-0.471739
-546,148,-11.7769,0.569946,0,0,0,0,0,0,0,-1,678,876,-11.7768,-0.569953
-539,148,-12.4084,0.720398,-0.00524742,-0.00142065,0.00226946,-0.000365625,-0.00630245,1.13564,0.00408521,0.0345529,685,876,-12.4084,-0.720383
-532,148,-12.4255,0.749756,-0.00306641,-0.0013204,0.00165184,-0.000325056,-0.00406175,1.02849,0.00260624,0.034195,692,876,-12.4255,-0.749766
-525,148,-12.3752,0.828918,-0.000102881,-0.00113006,0.000813203,0.000345338,-0.00157827,0.503747,0.0011842,0.03617,699,876,-12.3752,-0.828894
-518,148,-12.2982,0.784302,0.00381228,-0.000863665,-0.000221126,0.00382271,-0.000874099,-0.0471498,0.00288433,0.0418391,706,876,-12.2982,-0.78431
-511,148,-12.2292,0.728027,0.00831303,-0.000562341,-0.00122241,0.00847832,-0.000727625,-0.134397,0.0059097,0.0414834,713,876,-12.2293,-0.728051
-504,148,-12.2897,0.764221,0.0125252,-4.62405e-05,-0.00189098,0.0128035,-0.00032452,-0.146113,0.00864587,0.0442019,720,876,-12.2897,-0.764244
-497,148,0,0,0,0,0,0,0,0,0,-1,727,876,0,0
-490,148,0,0,0,0,0,0,0,0,0,-1,734,876,0,0
-483,148,0,0,0,0,0,0,0,0,0,-1,741,876,0,0
-476,148,0,0,0,0,0,0,0,0,0,-1,748,876,0,0
-469,148,0,0,0,0,0,0,0,0,0,-1,755,876,0,0
-462,148,0,0,0,0,0,0,0,0,0,-1,762,876,0,0
-455,148,0,0,0,0,0,0,0,0,0,-1,769,876,0,0
-448,148,0,0,0,0,0,0,0,0,0,-1,776,876,0,0
-441,148,0,0,0,0,0,0,0,0,0,-1,783,876,0,0
-434,148,0,0,0,0,0,0,0,0,0,-1,790,876,0,0
-427,148,0,0,0,0,0,0,0,0,0,-1,797,876,0,0
-420,148,0,0,0,0,0,0,0,0,0,-1,804,876,0,0
-413,148,0,0,0,0,0,0,0,0,0,-1,811,876,0,0
-406,148,0,0,0,0,0,0,0,0,0,-1,818,876,0,0
-399,148,0,0,0,0,0,0,0,0,0,-1,825,876,0,0
-392,148,0,0,0,0,0,0,0,0,0,-1,832,876,0,0
-385,148,0,0,0,0,0,0,0,0,0,-1,839,876,0,0
-378,148,0,0,0,0,0,0,0,0,0,-1,846,876,0,0
-371,148,0,0,0,0,0,0,0,0,0,-1,853,876,0,0
-364,148,0,0,0,0,0,0,0,0,0,-1,860,876,0,0
-357,148,0,0,0,0,0,0,0,0,0,-1,867,876,0,0
-350,148,0,0,0,0,0,0,0,0,0,-1,874,876,0,0
-343,148,0,0,0,0,0,0,0,0,0,-1,881,876,0,0
-336,148,0,0,0,0,0,0,0,0,0,-1,888,876,0,0
-329,148,0,0,0,0,0,0,0,0,0,-1,895,876,0,0
-322,148,0,0,0,0,0,0,0,0,0,-1,902,876,0,0
-315,148,0,0,0,0,0,0,0,0,0,-1,909,876,0,0
-308,148,0,0,0,0,0,0,0,0,0,-1,916,876,0,0
-301,148,0,0,0,0,0,0,0,0,0,-1,923,876,0,0
-294,148,0,0,0,0,0,0,0,0,0,-1,930,876,0,0
-287,148,0,0,0,0,0,0,0,0,0,-1,937,876,0,0
-280,148,0,0,0,0,0,0,0,0,0,-1,944,876,0,0
-273,148,0,0,0,0,0,0,0,0,0,-1,951,876,0,0
-266,148,0,0,0,0,0,0,0,0,0,-1,958,876,0,0
-259,148,0,0,0,0,0,0,0,0,0,-1,965,876,0,0
-252,148,0,0,0,0,0,0,0,0,0,-1,972,876,0,0
-245,148,0,0,0,0,0,0,0,0,0,-1,979,876,0,0
-238,148,0,0,0,0,0,0,0,0,0,-1,986,876,0,0
-231,148,0,0,0,0,0,0,0,0,0,-1,993,876,0,0
-224,148,0,0,0,0,0,0,0,0,0,-1,1000,876,0,0
-217,148,0,0,0,0,0,0,0,0,0,-1,1007,876,0,0
-210,148,0,0,0,0,0,0,0,0,0,-1,1014,876,0,0
-203,148,0,0,0,0,0,0,0,0,0,-1,1021,876,0,0
-196,148,0,0,0,0,0,0,0,0,0,-1,1028,876,0,0
-189,148,0,0,0,0,0,0,0,0,0,-1,1035,876,0,0
-182,148,0,0,0,0,0,0,0,0,0,-1,1042,876,0,0
-175,148,0,0,0,0,0,0,0,0,0,-1,1049,876,0,0
-168,148,0,0,0,0,0,0,0,0,0,-1,1056,876,0,0
-161,148,0,0,0,0,0,0,0,0,0,-1,1063,876,0,0
-154,148,0,0,0,0,0,0,0,0,0,-1,1070,876,0,0
-147,148,0,0,0,0,0,0,0,0,0,-1,1077,876,0,0
-140,148,0,0,0,0,0,0,0,0,0,-1,1084,876,0,0
-133,148,0,0,0,0,0,0,0,0,0,-1,1091,876,0,0
-126,148,0,0,0,0,0,0,0,0,0,-1,1098,876,0,0
-119,148,0,0,0,0,0,0,0,0,0,-1,1105,876,0,0
-112,148,0,0,0,0,0,0,0,0,0,-1,1112,876,0,0
-105,148,0,0,0,0,0,0,0,0,0,-1,1119,876,0,0
-98,148,0,0,0,0,0,0,0,0,0,-1,1126,876,0,0
-91,148,0,0,0,0,0,0,0,0,0,-1,1133,876,0,0
-84,148,0,0,0,0,0,0,0,0,0,-1,1140,876,0,0
-77,148,0,0,0,0,0,0,0,0,0,-1,1147,876,0,0
-70,148,0,0,0,0,0,0,0,0,0,-1,1154,876,0,0
-63,148,0,0,0,0,0,0,0,0,0,-1,1161,876,0,0
-56,148,0,0,0,0,0,0,0,0,0,-1,1168,876,0,0
-49,148,0,0,0,0,0,0,0,0,0,-1,1175,876,0,0
-42,148,0,0,0,0,0,0,0,0,0,-1,1182,876,0,0
-35,148,0,0,0,0,0,0,0,0,0,-1,1189,876,0,0
-28,148,0,0,0,0,0,0,0,0,0,-1,1196,876,0,0
-21,148,0,0,0,0,0,0,0,0,0,-1,1203,876,0,0
-14,148,0,0,0,0,0,0,0,0,0,-1,1210,876,0,0
-7,148,0,0,0,0,0,0,0,0,0,-1,1217,876,0,0
0,148,0,0,0,0,0,0,0,0,0,-1,1224,876,0,0
7,148,0,0,0,0,0,0,0,0,0,-1,1231,876,0,0
14,148,0,0,0,0,0,0,0,0,0,-1,1238,876,0,0
21,148,0,0,0,0,0,0,0,0,0,-1,1245,876,0,0
28,148,0,0,0,0,0,0,0,0,0,-1,1252,876,0,0
35,148,0,0,0,0,0,0,0,0,0,-1,1259,876,0,0
42,148,0,0,0,0,0,0,0,0,0,-1,1266,876,0,0
49,148,0,0,0,0,0,0,0,0,0,-1,1273,876,0,0
56,148,0,0,0,0,0,0,0,0,0,-1,1280,876,0,0
63,148,0,0,0,0,0,0,0,0,0,-1,1287,876,0,0
70,148,0,0,0,0,0,0,0,0,0,-1,1294,876,0,0
77,148,0,0,0,0,0,0,0,0,0,-1,1301,876,0,0
84,148,0,0,0,0,0,0,0,0,0,-1,1308,876,0,0
91,148,0,0,0,0,0,0,0,0,0,-1,1315,876,0,0
98,148,0,0,0,0,0,0,0,0,0,-1,1322,876,0,0
105,148,0,0,0,0,0,0,0,0,0,-1,1329,876,0,0
112,148,0,0,0,0,0,0,0,0,0,-1,1336,876,0,0
119,148,0,0,0,0,0,0,0,0,0,-1,1343,876,0,0
126,148,0,0,0,0,0,0,0,0,0,-1,1350,876,0,0
133,148,0,0,0,0,0,0,0,0,0,-1,1357,876,0,0
140,148,0,0,0,0,0,0,0,0,0,-1,1364,876,0,0
147,148,0,0,0,0,0,0,0,0,0,-1,1371,876,0,0
154,148,0,0,0,0,0,0,0,0,0,-1,1378,876,0,0
161,148,0,0,0,0,0,0,0,0,0,-1,1385,876,0,0
168,148,0,0,0,0,0,0,0,0,0,-1,1392,876,0,0
175,148,0,0,0,0,0,0,0,0,0,-1,1399,876,0,0
182,148,0,0,0,0,0,0,0,0,0,-1,1406,876,0,0
189,148,0,0,0,0,0,0,0,0,0,-1,1413,876,0,0
196,148,0,0,0,0,0,0,0,0,0,-1,1420,876,0,0
203,148,0,0,0,0,0,0,0,0,0,-1,1427,876,0,0
210,148,0,0,0,0,0,0,0,0,0,-1,1434,876,0,0
217,148,0,0,0,0,0,0,0,0,0,-1,1441,876,0,0
224,148,0,0,0,0,0,0,0,0,0,-1,1448,876,0,0
231,148,0,0,0,0,0,0,0,0,0,-1,1455,876,0,0
238,148,0,0,0,0,0,0,0,0,0,-1,1462,876,0,0
245,148,0,0,0,0,0,0,0,0,0,-1,1469,876,0,0
252,148,0,0,0,0,0,0,0,0,0,-1,1476,876,0,0
259,148,0,0,0,0,0,0,0,0,0,-1,1483,876,0,0
266,148,0,0,0,0,0,0,0,0,0,-1,1490,876,0,0
273,148,0,0,0,0,0,0,0,0,0,-1,1497,876,0,0
280,148,0,0,0,0,0,0,0,0,0,-1,1504,876,0,0
287,148,0,0,0,0,0,0,0,0,0,-1,1511,876,0,0
294,148,0,0,0,0,0,0,0,0,0,-1,1518,876,0,0
301,148,0,0,0,0,0,0,0,0,0,-1,1525,876,0,0
308,148,0,0,0,0,0,0,0,0,0,-1,1532,876,0,0
315,148,0,0,0,0,0,0,0,0,0,-1,1539,876,0,0
322,148,0,0,0,0,0,0,0,0,0,-1,1546,876,0,0
329,148,0,0,0,0,0,0,0,0,0,-1,1553,876,0,0
336,148,0,0,0,0,0,0,0,0,0,-1,1560,876,0,0
343,148,0,0,0,0,0,0,0,0,0,-1,1567,876,0,0
350,148,0,0,0,0,0,0,0,0,0,-1,1574,876,0,0
357,148,0,0,0,0,0,0,0,0,0,-1,1581,876,0,0
364,148,0,0,0,0,0,0,0,0,0,-1,1588,876,0,0
371,148,0,0,0,0,0,0,0,0,0,-1,1595,876,0,0
378,148,0,0,0,0,0,0,0,0,0,-1,1602,876,0,0
385,148,0,0,0,0,0,0,0,0,0,-1,1609,876,0,0
392,148,0,0,0,0,0,0,0,0,0,-1,1616,876,0,0
399,148,0,0,0,0,0,0,0,0,0,-1,1623,876,0,0
406,148,0,0,0,0,0,0,0,0,0,-1,1630,876,0,0
413,148,0,0,0,0,0,0,0,0,0,-1,1637,876,0,0
420,148,0,0,0,0,0,0,0,0,0,-1,1644,876,0,0
427,148,0,0,0,0,0,0,0,0,0,-1,1651,876,0,0
434,148,0,0,0,0,0,0,0,0,0,-1,1658,876,0,0
441,148,0,0,0,0,0,0,0,0,0,-1,1665,876,0,0
448,148,0,0,0,0,0,0,0,0,0,-1,1672,876,0,0
455,148,0,0,0,0,0,0,0,0,0,-1,1679,876,0,0
462,148,0,0,0,0,0,0,0,0,0,-1,1686,876,0,0
469,148,0,0,0,0,0,0,0,0,0,-1,1693,876,0,0
476,148,0,0,0,0,0,0,0,0,0,-1,1700,876,0,0
483,148,0,0,0,0,0,0,0,0,0,-1,1707,876,0,0
490,148,0,0,0,0,0,0,0,0,0,-1,1714,876,0,0
497,148,0,0,0,0,0,0,0,0,0,-1,1721,876,0,0
504,148,0,0,0,0,0,0,0,0,0,-1,1728,876,0,0
511,148,0,0,0,0,0,0,0,0,0,-1,1735,876,0,0
518,148,0,0,0,0,0,0,0,0,0,-1,1742,876,0,0
525,148,0,0,0,0,0,0,0,0,0,-1,1749,876,0,0
532,148,0,0,0,0,0,0,0,0,0,-1,1756,876,0,0
539,148,0,0,0,0,0,0,0,0,0,-1,1763,876,0,0
546,148,0,0,0,0,0,0,0,0,0,-1,1770,876,0,0
553,148,0,0,0,0,0,0,0,0,0,-1,1777,876,0,0
560,148,0,0,0,0,0,0,0,0,0,-1,1784,876,0,0
567,148,0,0,0,0,0,0,0,0,0,-1,1791,876,0,0
574,148,0,0,0,0,0,0,0,0,0,-1,1798,876,0,0
581,148,0,0,0,0,0,0,0,0,0,-1,1805,876,0,0
588,148,0,0,0,0,0,0,0,0,0,-1,1812,876,0,0
595,148,0,0,0,0,0,0,0,0,0,-1,1819,876,0,0
602,148,0,0,0,0,0,0,0,0,0,-1,1826,876,0,0
609,148,0,0,0,0,0,0,0,0,0,-1,1833,876,0,0
616,148,0,0,0,0,0,0,0,0,0,-1,1840,876,0,0
623,148,18.9375,2.63483,-0.00164578,-0.00093213,6.13574e-05,-0.000926893,-0.00165102,1.48565,0.000955608,0.0448145,1847,876,18.9375,-2.63485
630,148,18.8479,2.74957,0.000118492,-0.00109216,-0.000769074,0.000491887,-0.00146555,-0.451991,0.00117581,0.0457082,1854,876,18.8479,-2.74957
637,148,18.8085,2.68713,0.00122391,-0.000870085,-0.00124258,0.00180178,-0.00144796,-0.435307,0.00187994,0.0392126,1861,876,18.8084,-2.68716
644,148,18.838,2.64587,0.00116731,-0.000607455,-0.00160646,0.00211519,-0.00155533,-0.533063,0.00212738,0.0354596,1868,876,18.8381,-2.64586
651,148,18.9063,2.64941,-9.84814e-05,-0.000365872,-0.00194654,0.00171895,-0.00218331,-0.75111,0.00225828,0.0362733,1875,876,18.9063,-2.6494
658,148,18.9231,2.62329,-0.00156098,-0.000205957,-0.00217303,0.00139273,-0.00315967,-0.936513,0.00269351,0.030378,1882,876,18.9231,-2.62329
665,148,18.8945,2.69592,-0.0028835,-0.000115907,-0.00233462,0.00121422,-0.00421362,-1.05293,0.00328939,0.0222023,1889,876,18.8946,-2.69595
672,148,18.9191,2.6864,-0.00405783,-3.33456e-05,-0.00237565,0.00106775,-0.00515892,-1.13678,0.00384494,0.0260133,1896,876,18.9191,-2.68639
679,148,18.9446,2.66156,0,0,0,0,0,0,0,-1,1903,876,18.9446,-2.66156
686,148,16.3025,2.47748,0,0,0,0,0,0,0,-1,1910,876,16.3025,-2.47749
693,148,16.2928,2.62585,-0.00656893,0.000266875,-0.0023954,0.0010227,-0.00732475,-1.26515,0.00525733,0.0325151,1917,876,16.2928,-2.62585
700,148,16.3895,2.82111,-0.00709647,0.000276332,-0.0020509,0.000808432,-0.00762857,-1.31695,0.00537549,0.0161928,1924,876,16.3895,-2.82113
707,148,16.4684,3.03375,-0.00682609,0.000230789,-0.00191149,0.000715289,-0.00731059,-1.32256,0.00512881,0.0141575,1931,876,16.4684,-3.03372
714,148,16.4218,3.12622,-0.00566016,0.000258869,-0.00194961,0.000843324,-0.00624461,-1.27954,0.00447077,0.0138943,1938,876,16.4217,-3.12625
721,148,16.3364,3.24518,-0.00363751,9.3897e-05,-0.00170839,0.000757907,-0.00430152,-1.20009,0.00315085,0.0167229,1945,876,16.3364,-3.24518
728,148,16.3225,3.41248,-0.00126379,-0.000300973,-0.00117544,0.000487824,-0.00205259,-0.979756,0.00155669,0.018815,1952,876,16.3226,-3.41246
735,148,16.3639,3.58752,0.00121726,-0.00111925,-0.000311499,0.00125808,-0.00116007,-0.130287,0.0013965,0.0168739,1959,876,16.3639,-3.58754
742,148,16.3628,3.76471,0.00420963,-0.00220327,0.000772437,0.00430136,-0.002295,0.118198,0.00386668,0.0179653,1966,876,16.3628,-3.76473
749,148,16.3409,3.88434,0.00720693,-0.00394568,0.00255501,0.00776441,-0.00450315,0.214822,0.00716562,0.0145937,1973,876,16.3409,-3.88435
756,148,16.313,3.97491,0.00964535,-0.0066933,0.0048703,0.0109869,-0.0080349,0.268799,0.0110263,0.0204684,1980,876,16.313,-3.97489
763,148,16.2994,4.04779,0.0120801,-0.0106988,0.0086135,0.0149704,-0.0135891,0.323751,0.0164953,0.0456163,1987,876,16.2994,-4.04779
770,148,16.2881,4.13794,0,0,0,0,0,0,0,-1,1994,876,16.2881,-4.13796
777,148,18.2666,3.61584,0,0,0,0,0,0,0,-1,2001,876,18.2666,-3.61586
784,148,13.3214,6.38629,0,0,0,0,0,0,0,-1,2008,876,13.3214,-6.38626
791,148,16.9246,5.1723,0,0,0,0,0,0,0,-1,2015,876,16.9246,-5.17233
798,148,0,0,0,0,0,0,0,0,0,-1,2022,876,0,0
805,148,0,0,0,0,0,0,0,0,0,-1,2029,876,0,0
812,148,0,0,0,0,0,0,0,0,0,-1,2036,876,0,0
-700,141,0,0,0,0,0,0,0,0,0,-1,524,883,0,0
-693,141,0,0,0,0,0,0,0,0,0,-1,531,883,0,0
-686,141,0,0,0,0,0,0,0,0,0,-1,538,883,0,0
-679,141,0,0,0,0,0,0,0,0,0,-1,545,883,0,0
-672,141,-14.8753,-1.84668,0,0,0,0,0,0,0,-1,552,883,-14.8753,1.84666
-665,141,-14.1801,-0.996277,0.12896,-0.072266,0.0360173,0.135213,-0.0785184,0.171883,0.124836,0.0460163,559,883,-14.1801,0.996294
-658,141,-10.4851,0.882507,0.110654,-0.0608785,0.0330748,0.116811,-0.067035,0.184032,0.107432,0.0492231,566,883,-10.4851,-0.882517
-651,141,-10.2606,0.787537,0.0914139,-0.049571,0.0290355,0.0971596,-0.0553166,0.19536,0.0891302,0.0445868,573,883,-10.2606,-0.787566
-644,141,-10.0422,0.689941,0.0729555,-0.0391362,0.0245804,0.0781088,-0.0442895,0.206657,0.0715602,0.0437102,580,883,-10.0422,-0.689947
-637,141,-10.4144,1.95416,0,0,0,0,0,0,0,-1,587,883,-10.4144,-1.95414
-630,141,-10.4625,1.75336,0.0415804,-0.0223877,0.0159223,0.0453245,-0.0261318,0.230951,0.0417484,0.0418876,594,883,-10.4625,-1.75337
-623,141,-10.4967,1.55383,0.0302495,-0.0166177,0.0123267,0.0332938,-0.019662,0.242127,0.0309099,0.0215398,601,883,-10.4967,-1.55382
-616,141,-10.5866,1.4704,0.0204038,-0.0111716,0.00984182,0.0232202,-0.013988,0.278719,0.0217014,0.0118624,608,883,-10.5866,-1.47041
-609,141,-10.6177,1.34686,0.00978261,-0.00607729,0.0069459,0.0123945,-0.00868914,0.359672,0.0122351,0.0128354,615,883,-10.6177,-1.34689
-602,141,-10.6442,1.21533,0.00196602,-0.00360491,0.00448659,0.00446149,-0.00610038,0.507597,0.00612232,0.0116078,622,883,-10.6442,-1.21535
-595,141,-10.656,1.0705,-0.00263571,-0.00216476,0.00362776,0.00123516,-0.00603563,0.817807,0.00449244,0.0101053,629,883,-10.656,-1.07049
-588,141,-10.7499,0.943481,-0.00503474,-0.00115981,0.00305461,0.000519957,-0.00671451,1.06802,0.00465934,0.0146656,636,883,-10.7499,-0.94349
-581,141,-10.7267,0.818848,-0.00714156,-0.00091018,0.00286369,0.000205941,-0.00825768,1.19916,0.00557504,0.0201784,643,883,-10.7267,-0.818875
-574,141,-10.5596,0.722717,-0.00826908,-0.000876658,0.00287899,0.000112272,-0.00925801,1.23992,0.00620977,0.0237939,650,883,-10.5597,-0.722693
-567,141,-10.6122,0.669067,-0.00845649,-0.000916635,0.00283284,2.90857e-05,-0.00940221,1.24859,0.00627786,0.0292253,657,883,-10.6122,-0.669046
-560,141,-10.6371,0.668457,0,0,0,0,0,0,0,-1,664,883,-10.6371,-0.668447
-553,141,-11.7014,0.727539,0,0,0,0,0,0,0,-1,671,883,-11.7014,-0.727565
-546,141,-12.3959,0.817688,-0.00710409,-0.00074068,0.00241695,7.32215e-05,-0.00791799,1.24598,0.00530324,0.0330539,678,883,-12.3959,-0.817679
-539,141,-12.3694,0.714355,-0.00555364,-0.000541293,0.00193722,0.000120142,-0.00621507,1.24177,0.00418401,0.02792,685,883,-12.3694,-0.714386
-532,141,-12.4517,0.665161,-0.00320114,-0.000247077,0.00122864,0.000197134,-0.00364535,1.22387,0.00249854,0.0272705,692,883,-12.4517,-0.665153
-525,141,-12.4249,0.742065,3.0261e-05,0.000135367,0.00026384,0.000351837,-0.000186209,0.883704,0.000315509,0.0353079,699,883,-12.4249,-0.742082
-518,141,-12.3646,0.806091,0.00431994,0.000594698,-0.000949787,0.00454812,0.000366518,-0.235776,0.00291759,0.0408962,706,883,-12.3646,-0.806102
-511,141,-12.342,0.828369,0.00906491,0.00108297,-0.00211173,0.00958917,0.000558717,-0.243339,0.00621492,0.040175,713,883,-12.342,-0.828354
-504,141,-12.3519,0.720337,0.0132298,0.0017969,-0.00289044,0.013919,0.00110769,-0.234072,0.00893305,0.0439113,720,883,-12.3519,-0.720336
-497,141,0,0,0,0,0,0,0,0,0,-1,727,883,0,0
-490,141,0,0,0,0,0,0,0,0,0,-1,734,883,0,0
-483,141,0,0,0,0,0,0,0,0,0,-1,741,883,0,0
-476,141,0,0,0,0,0,0,0,0,0,-1,748,883,0,0
-469,141,0,0,0,0,0,0,0,0,0,-1,755,883,0,0
-462,141,0,0,0,0,0,0,0,0,0,-1,762,883,0,0
-455,141,0,0,0,0,0,0,0,0,0,-1,769,883,0,0
-448,141,0,0,0,0,0,0,0,0,0,-1,776,883,0,0
-441,141,0,0,0,0,0,0,0,0,0,-1,783,883,0,0
-434,141,0,0,0,0,0,0,0,0,0,-1,790,883,0,0
-427,141,0,0,0,0,0,0,0,0,0,-1,797,883,0,0
-420,141,0,0,0,0,0,0,0,0,0,-1,804,883,0,0
-413,141,0,0,0,0,0,0,0,0,0,-1,811,883,0,0
-406,141,0,0,0,0,0,0,0,0,0,-1,818,883,0,0
-399,141,0,0,0,0,0,0,0,0,0,-1,825,883,0,0
-392,141,0,0,0,0,0,0,0,0,0,-1,832,883,0,0
-385,141,0,0,0,0,0,0,0,0,0,-1,839,883,0,0
-378,141,0,0,0,0,0,0,0,0,0,-1,846,883,0,0
-371,141,0,0,0,0,0,0,0,0,0,-1,853,883,0,0
-364,141,0,0,0,0,0,0,0,0,0,-1,860,883,0,0
-357,141,0,0,0,0,0,0,0,0,0,-1,867,883,0,0
-350,141,0,0,0,0,0,0,0,0,0,-1,874,883,0,0
-343,141,0,0,0,0,0,0,0,0,0,-1,881,883,0,0
-336,141,0,0,0,0,0,0,0,0,0,-1,888,883,0,0
-329,141,0,0,0,0,0,0,0,0,0,-1,895,883,0,0
-322,141,0,0,0,0,0,0,0,0,0,-1,902,883,0,0
-315,141,0,0,0,0,0,0,0,0,0,-1,909,883,0,0
-308,141,0,0,0,0,0,0,0,0,0,-1,916,883,0,0
-301,141,0,0,0,0,0,0,0,0,0,-1,923,883,0,0
-294,141,0,0,0,0,0,0,0,0,0,-1,930,883,0,0
-287,141,0,0,0,0,0,0,0,0,0,-1,937,883,0,0
-280,141,0,0,0,0,0,0,0,0,0,-1,944,883,0,0
-273,141,0,0,0,0,0,0,0,0,0,-1,951,883,0,0
-266,141,0,0,0,0,0,0,0,0,0,-1,958,883,0,0
-259,141,0,0,0,0,0,0,0,0,0,-1,965,883,0,0
-252,141,0,0,0,0,0,0,0,0,0,-1,972,883,0,0
-245,141,0,0,0,0,0,0,0,0,0,-1,979,883,0,0
-238,141,0,0,0,0,0,0,0,0,0,-1,986,883,0,0
-231,141,0,0,0,0,0,0,0,0,0,-1,993,883,0,0
-224,141,0,0,0,0,0,0,0,0,0,-1,1000,883,0,0
-217,141,0,0,0,0,0,0,0,0,0,-1,1007,883,0,0
-210,141,0,0,0,0,0,0,0,0,0,-1,1014,883,0,0
-203,141,0,0,0,0,0,0,0,0,0,-1,1021,883,0,0
-196,141,0,0,0,0,0,0,0,0,0,-1,1028,883,0,0
-189,141,0,0,0,0,0,0,0,0,0,-1,1035,883,0,0
-182,141,0,0,0,0,0,0,0,0,0,-1,1042,883,0,0
-175,141,0,0,0,0,0,0,0,0,0,-1,1049,883,0,0
-168,141,0,0,0,0,0,0,0,0,0,-1,1056,883,0,0
-161,141,0,0,0,0,0,0,0,0,0,-1,1063,883,0,0
-154,141,0,0,0,0,0,0,0,0,0,-1,1070,883,0,0
-147,141,0,0,0,0,0,0,0,0,0,-1,1077,883,0,0
-140,141,0,0,0,0,0,0,0,0,0,-1,1084,883,0,0
-133,141,0,0,0,0,0,0,0,0,0,-1,1091,883,0,0
-126,141,0,0,0,0,0,0,0,0,0,-1,1098,883,0,0
-119,141,0,0,0,0,0,0,0,0,0,-1,1105,883,0,0
-112,141,0,0,0,0,0,0,0,0,0,-1,1112,883,0,0
-105,141,0,0,0,0,0,0,0,0,0,-1,1119,883,0,0
-98,141,0,0,0,0,0,0,0,0,0,-1,1126,883,0,0
-91,141,0,0,0,0,0,0,0,0,0,-1,1133,883,0,0
-84,141,0,0,0,0,0,0,0,0,0,-1,1140,883,0,0
-77,141,0,0,0,0,0,0,0,0,0,-1,1147,883,0,0
-70,141,0,0,0,0,0,0,0,0,0,-1,1154,883,0,0
-63,141,0,0,0,0,0,0,0,0,0,-1,1161,883,0,0
-56,141,0,0,0,0,0,0,0,0,0,-1,1168,883,0,0
-49,141,0,0,0,0,0,0,0,0,0,-1,1175,883,0,0
-42,141,0,0,0,0,0,0,0,0,0,-1,1182,883,0,0
-35,141,0,0,0,0,0,0,0,0,0,-1,1189,883,0,0
-28,141,0,0,0,0,0,0,0,0,0,-1,1196,883,0,0
-21,141,0,0,0,0,0,0,0,0,0,-1,1203,883,0,0
-14,141,0,0,0,0,0,0,0,0,0,-1,1210,883,0,0
-7,141,0,0,0,0,0,0,0,0,0,-1,1217,883,0,0
0,141,0,0,0,0,0,0,0,0,0,-1,1224,883,0,0
7,141,0,0,0,0,0,0,0,0,0,-1,1231,883,0,0
14,141,0,0,0,0,0,0,0,0,0,-1,1238,883,0,0
21,141,0,0,0,0,0,0,0,0,0,-1,1245,883,0,0
28,141,0,0,0,0,0,0,0,0,0,-1,1252,883,0,0
35,141,0,0,0,0,0,0,0,0,0,-1,1259,883,0,0
42,141,0,0,0,0,0,0,0,0,0,-1,1266,883,0,0
49,141,0,0,0,0,0,0,0,0,0,-1,1273,883,0,0
56,141,0,0,0,0,0,0,0,0,0,-1,1280,883,0,0
63,141,0,0,0,0,0,0,0,0,0,-1,1287,883,0,0
70,141,0,0,0,0,0,0,0,0,0,-1,1294,883,0,0
77,141,0,0,0,0,0,0,0,0,0,-1,1301,883,0,0
84,141,0,0,0,0,0,0,0,0,0,-1,1308,883,0,0
91,141,0,0,0,0,0,0,0,0,0,-1,1315,883,0,0
98,141,0,0,0,0,0,0,0,0,0,-1,1322,883,0,0
105,141,0,0,0,0,0,0,0,0,0,-1,1329,883,0,0
112,141,0,0,0,0,0,0,0,0,0,-1,1336,883,0,0
119,141,0,0,0,0,0,0,0,0,0,-1,1343,883,0,0
126,141,0,0,0,0,0,0,0,0,0,-1,1350,883,0,0
133,141,0,0,0,0,0,0,0,0,0,-1,1357,883,0,0
140,141,0,0,0,0,0,0,0,0,0,-1,1364,883,0,0
147,141,0,0,0,0,0,0,0,0,0,-1,1371,883,0,0
154,141,0,0,0,0,0,0,0,0,0,-1,1378,883,0,0
161,141,0,0,0,0,0,0,0,0,0,-1,1385,883,0,0
168,141,0,0,0,0,0,0,0,0,0,-1,1392,883,0,0
175,141,0,0,0,0,0,0,0,0,0,-1,1399,883,0,0
182,141,0,0,0,0,0,0,0,0,0,-1,1406,883,0,0
189,141,0,0,0,0,0,0,0,0,0,-1,1413,883,0,0
196,141,0,0,0,0,0,0,0,0,0,-1,1420,883,0,0
203,141,0,0,0,0,0,0,0,0,0,-1,1427,883,0,0
210,141,0,0,0,0,0,0,0,0,0,-1,1434,883,0,0
217,141,0,0,0,0,0,0,0,0,0,-1,1441,883,0,0
224,141,0,0,0,0,0,0,0,0,0,-1,1448,883,0,0
231,141,0,0,0,0,0,0,0,0,0,-1,1455,883,0,0
238,141,0,0,0,0,0,0,0,0,0,-1,1462,883,0,0
245,141,0,0,0,0,0,0,0,0,0,-1,1469,883,0,0
252,141,0,0,0,0,0,0,0,0,0,-1,1476,883,0,0
259,141,0,0,0,0,0,0,0,0,0,-1,1483,883,0,0
266,141,0,0,0,0,0,0,0,0,0,-1,1490,883,0,0
273,141,0,0,0,0,0,0,0,0,0,-1,1497,883,0,0
280,141,0,0,0,0,0,0,0,0,0,-1,1504,883,0,0
287,141,0,0,0,0,0,0,0,0,0,-1,1511,883,0,0
294,141,0,0,0,0,0,0,0,0,0,-1,1518,883,0,0
301,141,0,0,0,0,0,0,0,0,0,-1,1525,883,0,0
308,141,0,0,0,0,0,0,0,0,0,-1,1532,883,0,0
315,141,0,0,0,0,0,0,0,0,0,-1,1539,883,0,0
322,141,0,0,0,0,0,0,0,0,0,-1,1546,883,0,0
329,141,0,0,0,0,0,0,0,0,0,-1,1553,883,0,0
336,141,0,0,0,0,0,0,0,0,0,-1,1560,883,0,0
343,141,0,0,0,0,0,0,0,0,0,-1,1567,883,0,0
350,141,0,0,0,0,0,0,0,0,0,-1,1574,883,0,0
357,141,0,0,0,0,0,0,0,0,0,-1,1581,883,0,0
364,141,0,0,0,0,0,0,0,0,0,-1,1588,883,0,0
371,141,0,0,0,0,0,0,0,0,0,-1,1595,883,0,0
378,141,0,0,0,0,0,0,0,0,0,-1,1602,883,0,0
385,141,0,0,0,0,0,0,0,0,0,-1,1609,883,0,0
392,141,0,0,0,0,0,0,0,0,0,-1,1616,883,0,0
399,141,0,0,0,0,0,0,0,0,0,-1,1623,883,0,0
406,141,0,0,0,0,0,0,0,0,0,-1,1630,883,0,0
413,141,0,0,0,0,0,0,0,0,0,-1,1637,883,0,0
420,141,0,0,0,0,0,0,0,0,0,-1,1644,883,0,0
427,141,0,0,0,0,0,0,0,0,0,-1,1651,883,0,0
434,141,0,0,0,0,0,0,0,0,0,-1,1658,883,0,0
441,141,0,0,0,0,0,0,0,0,0,-1,1665,883,0,0
448,141,0,0,0,0,0,0,0,0,0,-1,1672,883,0,0
455,141,0,0,0,0,0,0,0,0,0,-1,1679,883,0,0
462,141,0,0,0,0,0,0,0,0,0,-1,1686,883,0,0
469,141,0,0,0,0,0,0,0,0,0,-1,1693,883,0,0
476,141,0,0,0,0,0,0,0,0,0,-1,1700,883,0,0
483,141,0,0,0,0,0,0,0,0,0,-1,1707,883,0,0
490,141,0,0,0,0,0,0,0,0,0,-1,1714,883,0,0
497,141,0,0,0,0,0,0,0,0,0,-1,1721,883,0,0
504,141,0,0,0,0,0,0,0,0,0,-1,1728,883,0,0
511,141,0,0,0,0,0,0,0,0,0,-1,1735,883,0,0
518,141,0,0,0,0,0,0,0,0,0,-1,1742,883,0,0
525,141,0,0,0,0,0,0,0,0,0,-1,1749,883,0,0
532,141,0,0,0,0,0,0,0,0,0,-1,1756,883,0,0
539,141,0,0,0,0,0,0,0,0,0,-1,1763,883,0,0
546,141,0,0,0,0,0,0,0,0,0,-1,1770,883,0,0
553,141,0,0,0,0,0,0,0,0,0,-1,1777,883,0,0
560,141,0,0,0,0,0,0,0,0,0,-1,1784,883,0,0
567,141,0,0,0,0,0,0,0,0,0,-1,1791,883,0,0
574,141,0,0,0,0,0,0,0,0,0,-1,1798,883,0,0
581,141,0,0,0,0,0,0,0,0,0,-1,1805,883,0,0
588,141,0,0,0,0,0,0,0,0,0,-1,1812,883,0,0
595,141,0,0,0,0,0,0,0,0,0,-1,1819,883,0,0
602,141,0,0,0,0,0,0,0,0,0,-1,1826,883,0,0
609,141,0,0,0,0,0,0,0,0,0,-1,1833,883,0,0
616,141,0,0,0,0,0,0,0,0,0,-1,1840,883,0,0
623,141,18.8835,2.66772,-0.00109033,-0.00145872,-0.000930787,-0.000325688,-0.00222336,-0.687714,0.00138649,0.0462192,1847,883,18.8835,-2.66773
630,141,18.8428,2.76013,0.000480052,-0.00159556,-0.00177631,0.00149951,-0.00261502,-0.521019,0.00240445,0.0478193,1854,883,18.8428,-2.76011
637,141,18.7012,2.99634,0.00139799,-0.00125627,-0.00213828,0.00258751,-0.00244579,-0.507665,0.00290636,0.0443204,1861,883,18.7012,-2.99633
644,141,18.7814,2.74341,0.00140908,-0.000875996,-0.00227876,0.00281569,-0.0022826,-0.55302,0.00294886,0.0384557,1868,883,18.7814,-2.74339
651,141,18.9645,2.58795,-0.000123768,-0.000541168,-0.00250338,0.0021796,-0.00284454,-0.743811,0.00290914,0.0368828,1875,883,18.9644,-2.58795
658,141,19.0175,2.57819,-0.00206655,-0.000297448,-0.00263869,0.00160101,-0.003965,-0.947123,0.00330874,0.0336487,1882,883,19.0174,-2.57821
665,141,18.9158,2.64893,-0.00381158,-0.000171696,-0.00271125,0.0012738,-0.00525708,-1.08098,0.00399755,0.0240603,1889,883,18.9157,-2.64891
672,141,18.946,2.64209,-0.00528808,-6.4982e-05,-0.00269898,0.00107909,-0.00643214,-1.16987,0.00468936,0.0180564,1896,883,18.9461,-2.64211
679,141,18.949,2.62518,-0.00639396,-0.000109596,-0.00276675,0.000934891,-0.00743844,-1.20982,0.00529816,0.0215834,1903,883,18.9489,-2.62517
686,141,17.3333,2.67383,0,0,0,0,0,0,0,-1,1910,883,17.3332,-2.6738
693,141,16.7419,2.73724,-0.00821332,0.000212131,-0.00253347,0.000915248,-0.00891644,-1.30008,0.00627168,0.04777,1917,883,16.7419,-2.73724
700,141,16.5098,2.81165,-0.00877164,0.000211102,-0.00212775,0.000689615,-0.00925016,-1.34959,0.00640902,0.0165334,1924,883,16.5097,-2.81164
707,141,16.5293,2.95111,-0.00851144,0.000174067,-0.00197284,0.000601177,-0.00893855,-1.35759,0.0061692,0.0144839,1931,883,16.5294,-2.95108
714,141,16.4664,3.07886,-0.0073564,0.000245635,-0.00204829,0.0007624,-0.00787317,-1.32366,0.00552049,0.0152455,1938,883,16.4665,-3.07885
721,141,16.4957,3.25195,-0.00537265,0.000217413,-0.0018387,0.000767977,-0.00592321,-1.27986,0.00422811,0.0120516,1945,883,16.4957,-3.25193
728,141,16.5061,3.38348,-0.00292734,3.25754e-05,-0.001365,0.000565946,-0.00346071,-1.19829,0.00251709,0.0136751,1952,883,16.5061,-3.38347
735,141,16.5193,3.58789,-0.000319607,-0.000463011,-0.000620663,0.000233482,-0.0010161,-0.727891,0.000767164,0.0141196,1959,883,16.5193,-3.58788
742,141,16.501,3.74457,0.00280361,-0.00104768,0.000530508,0.00287535,-0.00111942,0.134414,0.00237949,0.0155648,1966,883,16.501,-3.74456
749,141,16.4814,3.85468,0.00592168,-0.00202476,0.00265711,0.00672828,-0.00283136,0.294723,0.00567006,0.0132972,1973,883,16.4815,-3.85468
756,141,16.4963,4.00073,0.00840649,-0.00374866,0.00526545,0.0103702,-0.00571235,0.356962,0.00941416,0.0199486,1980,883,16.4964,-4.00075
763,141,17.1489,3.89136,0.0108799,-0.00631604,0.00959299,0.0151641,-0.0106003,0.420021,0.0149526,0.0419642,1987,883,17.149,-3.89137
770,141,17.7577,3.79999,0,0,0,0,0,0,0,-1,1994,883,17.7577,-3.79996
777,141,18.476,3.72552,0,0,0,0,0,0,0,-1,2001,883,18.476,-3.72551
784,141,19.2455,3.62732,0,0,0,0,0,0,0,-1,2008,883,19.2455,-3.62733
791,141,17.3313,5.32672,0,0,0,0,0,0,0,-1,2015,883,17.3314,-5.32672
798,141,0,0,0,0,0,0,0,0,0,-1,2022,883,0,0
805,141,0,0,0,0,0,0,0,0,0,-1,2029,883,0,0
812,141,0,0,0,0,0,0,0,0,0,-1,2036,883,0,0
-700,134,0,0,0,0,0,0,0,0,0,-1,524,890,0,0
-693,134,0,0,0,0,0,0,0,0,0,-1,531,890,0,0
-686,134,0,0,0,0,0,0,0,0,0,-1,538,890,0,0
-679,134,0,0,0,0,0,0,0,0,0,-1,545,890,0,0
-672,134,-14.5743,-1.19403,0.127523,-0.0569419,0.0336792,0.13348,-0.0628986,0.175056,0.115795,0.0488829,552,890,-14.5744,1.19402
-665,134,-14.0145,-0.239075,0.118125,-0.0533825,0.0322953,0.124005,-0.0592622,0.180089,0.107987,0.0458794,559,890,-14.0145,0.239104
-658,134,-13.3029,0.819519,0.103101,-0.0468019,0.0294548,0.108681,-0.0523819,0.187223,0.0948642,0.0420885,566,890,-13.3028,-0.819525
-651,134,-10.6728,0.67511,0.0862038,-0.0391629,0.0258222,0.0913142,-0.0442733,0.195381,0.0798365,0.0416287,573,890,-10.6728,-0.675107
-644,134,-10.7156,0.939453,0.0693859,-0.0315157,0.021875,0.0739241,-0.036054,0.204562,0.0647386,0.0430949,580,890,-10.7156,-0.939438
-637,134,-11.0764,1.66022,0,0,0,0,0,0,0,-1,587,890,-11.0763,-1.66021
-630,134,-10.8555,1.61035,0.0401346,-0.0186627,0.0141177,0.0433487,-0.0218768,0.223848,0.0383321,0.0391771,594,890,-10.8555,-1.61036
-623,134,-10.6617,1.57813,0.0295163,-0.0142497,0.0109103,0.0320853,-0.0168187,0.231252,0.0286897,0.0202006,601,890,-10.6617,-1.57815
-616,134,-10.7423,1.45935,0.0198651,-0.0094875,0.00896921,0.0223888,-0.0120112,0.274284,0.0201599,0.0111941,608,890,-10.7423,-1.45936
-609,134,-10.7798,1.33429,0.0093019,-0.00504322,0.00629653,0.0116735,-0.00741487,0.360225,0.0111118,0.0110115,615,890,-10.7798,-1.33428
-602,134,-10.7882,1.20538,0.00137184,-0.00299729,0.00405043,0.00378926,-0.00541472,0.538086,0.00534147,0.0118331,622,890,-10.7882,-1.20537
-595,134,-10.7874,1.08386,-0.00334471,-0.00171646,0.00331673,0.000884599,-0.00594577,0.905749,0.00428923,0.0117342,629,890,-10.7874,-1.08389
-588,134,-10.9123,0.99762,-0.0057126,-0.000839886,0.00282807,0.000456562,-0.00700905,1.14096,0.00483208,0.0187625,636,890,-10.9123,-0.99765
-581,134,-10.8568,0.793213,-0.00764261,-0.00064923,0.00264281,0.00023715,-0.00852899,1.24719,0.00576667,0.0234535,643,890,-10.8568,-0.793236
-574,134,-10.8043,0.661743,-0.00875883,-0.000595184,0.00264292,0.000185741,-0.00953975,1.28349,0.00642264,0.0251396,650,890,-10.8043,-0.66173
-567,134,-10.7121,0.582458,-0.00895909,-0.000570531,0.00258995,0.000164672,-0.00969429,1.2942,0.00651845,0.0214691,657,890,-10.7121,-0.582442
-560,134,-11.127,0.762451,-0.00871366,-0.00052791,0.00251698,0.00018409,-0.00942566,1.29512,0.00634602,0.0405758,664,890,-11.127,-0.762423
-553,134,-11.8683,1.1012,0,0,0,0,0,0,0,-1,671,890,-11.8683,-1.10118
-546,134,-12.3831,0.715515,-0.00749818,-5.41907e-05,0.00208292,0.000488998,-0.00804137,1.3157,0.00553112,0.0255933,678,890,-12.3831,-0.71554
-539,134,-12.3972,0.68457,-0.00584677,0.000308724,0.00155167,0.000677746,-0.00621579,1.33731,0.00438726,0.0175654,685,890,-12.3972,-0.684586
-532,134,-12.4103,0.68457,-0.00336622,0.000776525,0.000781918,0.000919194,-0.00350889,1.39032,0.00269836,0.0217192,692,890,-12.4103,-0.684594
-525,134,-12.4088,0.731934,5.68607e-05,0.00133924,-0.000265643,0.00139209,4.01115e-06,-1.37441,0.000926727,0.0334263,699,890,-12.4088,-0.731941
-518,134,-12.3859,0.776123,0.00456013,0.00197684,-0.00157696,0.0053069,0.00123007,-0.442266,0.00320752,0.0409924,706,890,-12.386,-0.77611
-511,134,-12.1899,0.669617,0.00927715,0.0026485,-0.00276107,0.0102766,0.0016491,-0.347292,0.00637286,0.0446401,713,890,-12.1899,-0.669645
-504,134,0,0,0,0,0,0,0,0,0,-1,720,890,0,0
-497,134,0,0,0,0,0,0,0,0,0,-1,727,890,0,0
-490,134,0,0,0,0,0,0,0,0,0,-1,734,890,0,0
-483,134,0,0,0,0,0,0,0,0,0,-1,741,890,0,0
-476,134,0,0,0,0,0,0,0,0,0,-1,748,890,0,0
-469,134,0,0,0,0,0,0,0,0,0,-1,755,890,0,0
-462,134,0,0,0,0,0,0,0,0,0,-1,762,890,0,0
-455,134,0,0,0,0,0,0,0,0,0,-1,769,890,0,0
-448,134,0,0,0,0,0,0,0,0,0,-1,776,890,0,0
-441,134,0,0,0,0,0,0,0,0,0,-1,783,890,0,0
-434,134,0,0,0,0,0,0,0,0,0,-1,790,890,0,0
-427,134,0,0,0,0,0,0,0,0,0,-1,797,890,0,0
-420,134,0,0,0,0,0,0,0,0,0,-1,804,890,0,0
-413,134,0,0,0,0,0,0,0,0,0,-1,811,890,0,0
-406,134,0,0,0,0,0,0,0,0,0,-1,818,890,0,0
-399,134,0,0,0,0,0,0,0,0,0,-1,825,890,0,0
-392,134,0,0,0,0,0,0,0,0,0,-1,832,890,0,0
-385,134,0,0,0,0,0,0,0,0,0,-1,839,890,0,0
-378,134,0,0,0,0,0,0,0,0,0,-1,846,890,0,0
-371,134,0,0,0,0,0,0,0,0,0,-1,853,890,0,0
-364,134,0,0,0,0,0,0,0,0,0,-1,860,890,0,0
-357,134,0,0,0,0,0,0,0,0,0,-1,867,890,0,0
-350,134,0,0,0,0,0,0,0,0,0,-1,874,890,0,0
-343,134,0,0,0,0,0,0,0,0,0,-1,881,890,0,0
-336,134,0,0,0,0,0,0,0,0,0,-1,888,890,0,0
-329,134,0,0,0,0,0,0,0,0,0,-1,895,890,0,0
-322,134,0,0,0,0,0,0,0,0,0,-1,902,890,0,0
-315,134,0,0,0,0,0,0,0,0,0,-1,909,890,0,0
-308,134,0,0,0,0,0,0,0,0,0,-1,916,890,0,0
-301,134,0,0,0,0,0,0,0,0,0,-1,923,890,0,0
-294,134,0,0,0,0,0,0,0,0,0,-1,930,890,0,0
-287,134,0,0,0,0,0,0,0,0,0,-1,937,890,0,0
-280,134,0,0,0,0,0,0,0,0,0,-1,944,890,0,0
-273,134,0,0,0,0,0,0,0,0,0,-1,951,890,0,0
-266,134,0,0,0,0,0,0,0,0,0,-1,958,890,0,0
-259,134,0,0,0,0,0,0,0,0,0,-1,965,890,0,0
-252,134,0,0,0,0,0,0,0,0,0,-1,972,890,0,0
-245,134,0,0,0,0,0,0,0,0,0,-1,979,890,0,0
-238,134,0,0,0,0,0,0,0,0,0,-1,986,890,0,0
-231,134,0,0,0,0,0,0,0,0,0,-1,993,890,0,0
-224,134,0,0,0,0,0,0,0,0,0,-1,1000,890,0,0
-217,134,0,0,0,0,0,0,0,0,0,-1,1007,890,0,0
-210,134,0,0,0,0,0,0,0,0,0,-1,1014,890,0,0
-203,134,0,0,0,0,0,0,0,0,0,-1,1021,890,0,0
-196,134,0,0,0,0,0,0,0,0,0,-1,1028,890,0,0
-189,134,0,0,0,0,0,0,0,0,0,-1,1035,890,0,0
-182,134,0,0,0,0,0,0,0,0,0,-1,1042,890,0,0
-175,134,0,0,0,0,0,0,0,0,0,-1,1049,890,0,0
-168,134,0,0,0,0,0,0,0,0,0,-1,1056,890,0,0
-161,134,0,0,0,0,0,0,0,0,0,-1,1063,890,0,0
-154,134,0,0,0,0,0,0,0,0,0,-1,1070,890,0,0
-147,134,0,0,0,0,0,0,0,0,0,-1,1077,890,0,0
-140,134,0,0,0,0,0,0,0,0,0,-1,1084,890,0,0
-133,134,0,0,0,0,0,0,0,0,0,-1,1091,890,0,0
-126,134,0,0,0,0,0,0,0,0,0,-1,1098,890,0,0
-119,134,0,0,0,0,0,0,0,0,0,-1,1105,890,0,0
-112,134,0,0,0,0,0,0,0,0,0,-1,1112,890,0,0
-105,134,0,0,0,0,0,0,0,0,0,-1,1119,890,0,0
-98,134,0,0,0,0,0,0,0,0,0,-1,1126,890,0,0
-91,134,0,0,0,0,0,0,0,0,0,-1,1133,890,0,0
-84,134,0,0,0,0,0,0,0,0,0,-1,1140,890,0,0
-77,134,0,0,0,0,0,0,0,0,0,-1,1147,890,0,0
-70,134,0,0,0,0,0,0,0,0,0,-1,1154,890,0,0
-63,134,0,0,0,0,0,0,0,0,0,-1,1161,890,0,0
-56,134,0,0,0,0,0,0,0,0,0,-1,1168,890,0,0
-49,134,0,0,0,0,0,0,0,0,0,-1,1175,890,0,0
-42,134,0,0,0,0,0,0,0,0,0,-1,1182,890,0,0
-35,134,0,0,0,0,0,0,0,0,0,-1,1189,890,0,0
-28,134,0,0,0,0,0,0,0,0,0,-1,1196,890,0,0
-21,134,0,0,0,0,0,0,0,0,0,-1,1203,890,0,0
-14,134,0,0,0,0,0,0,0,0,0,-1,1210,890,0,0
-7,134,0,0,0,0,0,0,0,0,0,-1,1217,890,0,0
0,134,0,0,0,0,0,0,0,0,0,-1,1224,890,0,0
7,134,0,0,0,0,0,0,0,0,0,-1,1231,890,0,0
14,134,0,0,0,0,0,0,0,0,0,-1,1238,890,0,0
21,134,0,0,0,0,0,0,0,0,0,-1,1245,890,0,0
28,134,0,0,0,0,0,0,0,0,0,-1,1252,890,0,0
35,134,0,0,0,0,0,0,0,0,0,-1,1259,890,0,0
42,134,0,0,0,0,0,0,0,0,0,-1,1266,890,0,0
49,134,0,0,0,0,0,0,0,0,0,-1,1273,890,0,0
56,134,0,0,0,0,0,0,0,0,0,-1,1280,890,0,0
63,134,0,0,0,0,0,0,0,0,0,-1,1287,890,0,0
70,134,0,0,0,0,0,0,0,0,0,-1,1294,890,0,0
77,134,0,0,0,0,0,0,0,0,0,-1,1301,890,0,0
84,134,0,0,0,0,0,0,0,0,0,-1,1308,890,0,0
91,134,0,0,0,0,0,0,0,0,0,-1,1315,890,0,0
98,134,0,0,0,0,0,0,0,0,0,-1,1322,890,0,0
105,134,0,0,0,0,0,0,0,0,0,-1,1329,890,0,0
112,134,0,0,0,0,0,0,0,0,0,-1,1336,890,0,0
119,134,0,0,0,0,0,0,0,0,0,-1,1343,890,0,0
126,134,0,0,0,0,0,0,0,0,0,-1,1350,890,0,0
133,134,0,0,0,0,0,0,0,0,0,-1,1357,890,0,0
140,134,0,0,0,0,0,0,0,0,0,-1,1364,890,0,0
147,134,0,0,0,0,0,0,0,0,0,-1,1371,890,0,0
154,134,0,0,0,0,0,0,0,0,0,-1,1378,890,0,0
161,134,0,0,0,0,0,0,0,0,0,-1,1385,890,0,0
168,134,0,0,0,0,0,0,0,0,0,-1,1392,890,0,0
175,134,0,0,0,0,0,0,0,0,0,-1,1399,890,0,0
182,134,0,0,0,0,0,0,0,0,0,-1,1406,890,0,0
189,134,0,0,0,0,0,0,0,0,0,-1,1413,890,0,0
196,134,0,0,0,0,0,0,0,0,0,-1,1420,890,0,0
203,134,0,0,0,0,0,0,0,0,0,-1,1427,890,0,0
210,134,0,0,0,0,0,0,0,0,0,-1,1434,890,0,0
217,134,0,0,0,0,0,0,0,0,0,-1,1441,890,0,0
224,134,0,0,0,0,0,0,0,0,0,-1,1448,890,0,0
231,134,0,0,0,0,0,0,0,0,0,-1,1455,890,0,0
238,134,0,0,0,0,0,0,0,0,0,-1,1462,890,0,0
245,134,0,0,0,0,0,0,0,0,0,-1,1469,890,0,0
252,134,0,0,0,0,0,0,0,0,0,-1,1476,890,0,0
259,134,0,0,0,0,0,0,0,0,0,-1,1483,890,0,0
266,134,0,0,0,0,0,0,0,0,0,-1,1490,890,0,0
273,134,0,0,0,0,0,0,0,0,0,-1,1497,890,0,0
280,134,0,0,0,0,0,0,0,0,0,-1,1504,890,0,0
287,134,0,0,0,0,0,0,0,0,0,-1,1511,890,0,0
294,134,0,0,0,0,0,0,0,0,0,-1,1518,890,0,0
301,134,0,0,0,0,0,0,0,0,0,-1,1525,890,0,0
308,134,0,0,0,0,0,0,0,0,0,-1,1532,890,0,0
315,134,0,0,0,0,0,0,0,0,0,-1,1539,890,0,0
322,134,0,0,0,0,0,0,0,0,0,-1,1546,890,0,0
329,134,0,0,0,0,0,0,0,0,0,-1,1553,890,0,0
336,134,0,0,0,0,0,0,0,0,0,-1,1560,890,0,0
343,134,0,0,0,0,0,0,0,0,0,-1,1567,890,0,0
350,134,0,0,0,0,0,0,0,0,0,-1,1574,890,0,0
357,134,0,0,0,0,0,0,0,0,0,-1,1581,890,0,0
364,134,0,0,0,0,0,0,0,0,0,-1,1588,890,0,0
371,134,0,0,0,0,0,0,0,0,0,-1,1595,890,0,0
378,134,0,0,0,0,0,0,0,0,0,-1,1602,890,0,0
385,134,0,0,0,0,0,0,0,0,0,-1,1609,890,0,0
392,134,0,0,0,0,0,0,0,0,0,-1,1616,890,0,0
399,134,0,0,0,0,0,0,0,0,0,-1,1623,890,0,0
406,134,0,0,0,0,0,0,0,0,0,-1,1630,890,0,0
413,134,0,0,0,0,0,0,0,0,0,-1,1637,890,0,0
420,134,0,0,0,0,0,0,0,0,0,-1,1644,890,0,0
427,134,0,0,0,0,0,0,0,0,0,-1,1651,890,0,0
434,134,0,0,0,0,0,0,0,0,0,-1,1658,890,0,0
441,134,0,0,0,0,0,0,0,0,0,-1,1665,890,0,0
448,134,0,0,0,0,0,0,0,0,0,-1,1672,890,0,0
455,134,0,0,0,0,0,0,0,0,0,-1,1679,890,0,0
462,134,0,0,0,0,0,0,0,0,0,-1,1686,890,0,0
469,134,0,0,0,0,0,0,0,0,0,-1,1693,890,0,0
476,134,0,0,0,0,0,0,0,0,0,-1,1700,890,0,0
483,134,0,0,0,0,0,0,0,0,0,-1,1707,890,0,0
490,134,0,0,0,0,0,0,0,0,0,-1,1714,890,0,0
497,134,0,0,0,0,0,0,0,0,0,-1,1721,890,0,0
504,134,0,0,0,0,0,0,0,0,0,-1,1728,890,0,0
511,134,0,0,0,0,0,0,0,0,0,-1,1735,890,0,0
518,134,0,0,0,0,0,0,0,0,0,-1,1742,890,0,0
525,134,0,0,0,0,0,0,0,0,0,-1,1749,890,0,0
532,134,0,0,0,0,0,0,0,0,0,-1,1756,890,0,0
539,134,0,0,0,0,0,0,0,0,0,-1,1763,890,0,0
546,134,0,0,0,0,0,0,0,0,0,-1,1770,890,0,0
553,134,0,0,0,0,0,0,0,0,0,-1,1777,890,0,0
560,134,0,0,0,0,0,0,0,0,0,-1,1784,890,0,0
567,134,0,0,0,0,0,0,0,0,0,-1,1791,890,0,0
574,134,0,0,0,0,0,0,0,0,0,-1,1798,890,0,0
581,134,0,0,0,0,0,0,0,0,0,-1,1805,890,0,0
588,134,0,0,0,0,0,0,0,0,0,-1,1812,890,0,0
595,134,0,0,0,0,0,0,0,0,0,-1,1819,890,0,0
602,134,0,0,0,0,0,0,0,0,0,-1,1826,890,0,0
609,134,0,0,0,0,0,0,0,0,0,-1,1833,890,0,0
616,134,0,0,0,0,0,0,0,0,0,-1,1840,890,0,0
623,134,18.959,2.48657,-0.000939796,-0.00118188,-0.00258843,0.00153042,-0.0036521,-0.762034,0.00307457,0.0446091,1847,890,18.959,-2.48655
630,134,18.8286,2.92151,0.000530434,-0.0013228,-0.00333989,0.00306986,-0.00386223,-0.650082,0.00401095,0.0483437,1854,890,18.8286,-2.92152
637,134,18.7527,3.39368,0.00132874,-0.0010025,-0.00347499,0.00382839,-0.00350215,-0.62358,0.00423368,0.0471898,1861,890,18.7526,-3.3937
644,134,18.9543,3.06818,0.00154543,-0.000654796,-0.00322291,0.00385081,-0.00296018,-0.620928,0.00394352,0.0391993,1868,890,18.9543,-3.06815
651,134,19.017,2.49152,-0.000171513,-0.000358418,-0.00318841,0.00292482,-0.00345475,-0.770747,0.00368748,0.0404646,1875,890,19.017,-2.4915
658,134,18.9674,2.53363,-0.00257446,-0.000124894,-0.00314155,0.00202218,-0.00472154,-0.971268,0.00399611,0.0377991,1882,890,18.9674,-2.53366
665,134,18.9563,2.58075,-0.00475823,-1.50206e-05,-0.00307473,0.00149648,-0.00626972,-1.1139,0.00475775,0.029646,1889,890,18.9563,-2.58077
672,134,18.9402,2.61407,-0.00655985,5.3213e-05,-0.0029648,0.00118776,-0.0076944,-1.20532,0.00556791,0.019004,1896,890,18.9402,-2.61408
679,134,18.9606,2.57629,-0.0078948,-2.20537e-05,-0.00295913,0.00096615,-0.00888301,-1.24849,0.00626892,0.0155331,1903,890,18.9605,-2.5763
686,134,18.6267,2.66449,0,0,0,0,0,0,0,-1,1910,890,18.6267,-2.66448
693,134,17.4119,2.70544,-0.00989372,0.000235606,-0.00257822,0.000854077,-0.0105122,-1.33536,0.00730947,0.0355983,1917,890,17.4118,-2.70542
700,134,16.553,2.74548,-0.0104502,0.000201985,-0.00212677,0.000610908,-0.0108591,-1.38084,0.00745138,0.0197617,1924,890,16.553,-2.74551
707,134,16.4618,2.8183,-0.010161,0.000169847,-0.00197705,0.000535274,-0.0105265,-1.38802,0.0072027,0.0184999,1931,890,16.4617,-2.81829
714,134,16.5189,3.03833,-0.00892323,0.000252639,-0.00208858,0.000705665,-0.00937625,-1.3572,0.00649884,0.0176345,1938,890,16.519,-3.03834
721,134,16.6335,3.24829,-0.00687131,0.00026643,-0.00189754,0.000739526,-0.00734441,-1.32646,0.00516047,0.0149892,1945,890,16.6336,-3.24827
728,134,16.6631,3.39868,-0.00425691,0.000218325,-0.00146953,0.000657732,-0.00469632,-1.28025,0.00337158,0.0144999,1952,890,16.6631,-3.3987
735,134,16.6647,3.57617,-0.00141134,-5.80221e-05,-0.00082015,0.000328575,-0.00179794,-1.13031,0.00132183,0.0193927,1959,890,16.6647,-3.57615
742,134,16.6353,3.7157,0.0020148,-0.000236901,0.000415783,0.00208912,-0.000311224,0.176884,0.00150724,0.0136473,1966,890,16.6353,-3.71572
749,134,16.6278,3.82831,0.00546833,-0.000522913,0.00283519,0.00659728,-0.00165186,0.378945,0.00503986,0.0118607,1973,890,16.6278,-3.82831
756,134,16.6318,3.98047,0.00816058,-0.00114392,0.00568192,0.0108519,-0.00383521,0.442354,0.00879624,0.0157005,1980,890,16.6319,-3.98048
763,134,16.7168,4.1297,0.0106928,-0.00219377,0.0103414,0.0164339,-0.00793489,0.506797,0.0143517,0.0355749,1987,890,16.7167,-4.12968
770,134,17.8448,3.86908,0,0,0,0,0,0,0,-1,1994,890,17.8448,-3.86908
777,134,18.6853,3.83514,0,0,0,0,0,0,0,-1,2001,890,18.6853,-3.83515
784,134,16.6282,4.81226,0,0,0,0,0,0,0,-1,2008,890,16.6282,-4.81225
791,134,17.4073,6.20081,0,0,0,0,0,0,0,-1,2015,890,17.4073,-6.20082
798,134,0,0,0,0,0,0,0,0,0,-1,2022,890,0,0
805,134,0,0,0,0,0,0,0,0,0,-1,2029,890,0,0
812,134,0,0,0,0,0,0,0,0,0,-1,2036,890,0,0
-700,127,0,0,0,0,0,0,0,0,0,-1,524,897,0,0
-693,127,0,0,0,0,0,0,0,0,0,-1,531,897,0,0
-686,127,0,0,0,0,0,0,0,0,0,-1,538,897,0,0
-679,127,-14.8402,-1.34625,0,0,0,0,0,0,0,-1,545,897,-14.8402,1.34627
-672,127,-14.2627,-0.50769,0.11057,-0.0344637,0.0307141,0.116806,-0.0406999,0.200319,0.0944085,0.0482901,552,897,-14.2627,0.507718
-665,127,-13.7355,0.399231,0.105127,-0.0358186,0.0285393,0.110687,-0.0413781,0.192391,0.0907834,0.045425,559,897,-13.7355,-0.399219
-658,127,-11.3231,0.469177,0.0936942,-0.0334376,0.0256599,0.0986779,-0.0384213,0.191835,0.0816629,0.0468351,566,897,-11.3231,-0.469174
-651,127,-11.3254,0.946167,0.0796495,-0.0291736,0.0223568,0.0840635,-0.0335876,0.194926,0.0699787,0.0450388,573,897,-11.3255,-0.946144
-644,127,-11.1545,1.06494,0.0649643,-0.0241634,0.0188964,0.0688051,-0.0280042,0.200524,0.0575237,0.0440906,580,897,-11.1545,-1.06495
-637,127,-11.0415,1.23981,0.0508793,-0.0191276,0.0154857,0.0541518,-0.0224001,0.208259,0.0454469,0.0421618,587,897,-11.0415,-1.23983
-630,127,-10.9082,1.43958,0.0384691,-0.0150522,0.0120713,0.0410657,-0.0176488,0.211878,0.0347859,0.0299817,594,897,-10.9082,-1.43959
-623,127,-10.8449,1.54608,0.0286806,-0.0119665,0.00927227,0.0306958,-0.0139818,0.214013,0.0263894,0.0125751,601,897,-10.8449,-1.54607
-616,127,-10.8901,1.45709,0.0193034,-0.00786453,0.00791604,0.0214417,-0.0100028,0.263819,0.0185505,0.00937651,608,897,-10.8902,-1.45709
-609,127,-10.8996,1.32593,0.0089836,-0.00410578,0.00550629,0.0109918,-0.00611399,0.349722,0.010009,0.0128595,615,897,-10.8996,-1.32591
-602,127,-10.9061,1.19617,0.00106523,-0.00248605,0.00352743,0.00323872,-0.00465955,0.552224,0.0045846,0.0146478,622,897,-10.9061,-1.19618
-595,127,-10.9105,1.0802,-0.00378682,-0.00137371,0.00294699,0.000604156,-0.00576469,0.979698,0.00405952,0.013998,629,897,-10.9104,-1.08019
-588,127,-10.9651,0.998718,-0.00618061,-0.000642531,0.00256611,0.000363675,-0.00718682,1.19711,0.00491692,0.0178631,636,897,-10.9652,-0.998716
-581,127,-11.0118,0.817566,-0.00799377,-0.000522658,0.0023829,0.000172652,-0.00868909,1.28689,0.00585112,0.0249679,643,897,-11.0118,-0.817544
-574,127,-10.972,0.676147,-0.00913992,-0.000493062,0.00239265,0.000124844,-0.00975783,1.31807,0.00654723,0.0244417,650,897,-10.972,-0.676126
-567,127,-10.8978,0.539001,-0.00936009,-0.000383852,0.00232886,0.000184393,-0.00992833,1.33147,0.0066812,0.0390889,657,897,-10.8978,-0.539027
-560,127,-11.4889,0.700012,-0.00911772,-0.000283647,0.00224363,0.000253515,-0.00965489,1.3358,0.00652274,0.0427823,664,897,-11.4889,-0.700034
-553,127,-12.4592,0.622131,-0.00872945,-2.4853e-05,0.00205453,0.000435704,-0.00919001,1.35027,0.00627695,0.0391135,671,897,-12.4592,-0.622132
-546,127,-12.4087,0.749207,-0.00771316,0.000302511,0.00170358,0.000649549,-0.0080602,1.36983,0.00560255,0.0232234,678,897,-12.4087,-0.74921
-539,127,-12.387,0.722046,-0.00591619,0.000749076,0.00112348,0.000933351,-0.00610046,1.40822,0.00441113,0.0210988,685,897,-12.387,-0.722049
-532,127,-12.3574,0.708923,-0.00325951,0.00128667,0.000302119,0.00130666,-0.0032795,1.50473,0.00272826,0.0175892,692,897,-12.3573,-0.708942
-525,127,-12.3456,0.746826,0.000399861,0.0018839,-0.0008083,0.00223913,4.46378e-05,-1.15673,0.0014781,0.0333389,699,897,-12.3456,-0.746821
-518,127,-12.286,0.765991,0.00509135,0.00249219,-0.00218006,0.00632979,0.00125375,-0.516616,0.00387024,0.0401894,706,897,-12.286,-0.766002
-511,127,-11.9921,0.552612,0.00965935,0.00305081,-0.00333235,0.0110479,0.00166224,-0.394814,0.00687848,0.0432935,713,897,-11.9921,-0.552634
-504,127,0,0,0,0,0,0,0,0,0,-1,720,897,0,0
-497,127,0,0,0,0,0,0,0,0,0,-1,727,897,0,0
-490,127,0,0,0,0,0,0,0,0,0,-1,734,897,0,0
-483,127,0,0,0,0,0,0,0,0,0,-1,741,897,0,0
-476,127,0,0,0,0,0,0,0,0,0,-1,748,897,0,0
-469,127,0,0,0,0,0,0,0,0,0,-1,755,897,0,0
-462,127,0,0,0,0,0,0,0,0,0,-1,762,897,0,0
-455,127,0,0,0,0,0,0,0,0,0,-1,769,897,0,0
-448,127,0,0,0,0,0,0,0,0,0,-1,776,897,0,0
-441,127,0,0,0,0,0,0,0,0,0,-1,783,897,0,0
-434,127,0,0,0,0,0,0,0,0,0,-1,790,897,0,0
-427,127,0,0,0,0,0,0,0,0,0,-1,797,897,0,0
-420,127,0,0,0,0,0,0,0,0,0,-1,804,897,0,0
-413,127,0,0,0,0,0,0,0,0,0,-1,811,897,0,0
-406,127,0,0,0,0,0,0,0,0,0,-1,818,897,0,0
-399,127,0,0,0,0,0,0,0,0,0,-1,825,897,0,0
-392,127,0,0,0,0,0,0,0,0,0,-1,832,897,0,0
-385,127,0,0,0,0,0,0,0,0,0,-1,839,897,0,0
-378,127,0,0,0,0,0,0,0,0,0,-1,846,897,0,0
-371,127,0,0,0,0,0,0,0,0,0,-1,853,897,0,0
-364,127,0,0,0,0,0,0,0,0,0,-1,860,897,0,0
-357,127,0,0,0,0,0,0,0,0,0,-1,867,897,0,0
-350,127,0,0,0,0,0,0,0,0,0,-1,874,897,0,0
-343,127,0,0,0,0,0,0,0,0,0,-1,881,897,0,0
-336,127,0,0,0,0,0,0,0,0,0,-1,888,897,0,0
-329,127,0,0,0,0,0,0,0,0,0,-1,895,897,0,0
-322,127,0,0,0,0,0,0,0,0,0,-1,902,897,0,0
-315,127,0,0,0,0,0,0,0,0,0,-1,909,897,0,0
-308,127,0,0,0,0,0,0,0,0,0,-1,916,897,0,0
-301,127,0,0,0,0,0,0,0,0,0,-1,923,897,0,0
-294,127,0,0,0,0,0,0,0,0,0,-1,930,897,0,0
-287,127,0,0,0,0,0,0,0,0,0,-1,937,897,0,0
-280,127,0,0,0,0,0,0,0,0,0,-1,944,897,0,0
-273,127,0,0,0,0,0,0,0,0,0,-1,951,897,0,0
-266,127,0,0,0,0,0,0,0,0,0,-1,958,897,0,0
-259,127,0,0,0,0,0,0,0,0,0,-1,965,897,0,0
-252,127,0,0,0,0,0,0,0,0,0,-1,972,897,0,0
-245,127,0,0,0,0,0,0,0,0,0,-1,979,897,0,0
-238,127,0,0,0,0,0,0,0,0,0,-1,986,897,0,0
-231,127,0,0,0,0,0,0,0,0,0,-1,993,897,0,0
-224,127,0,0,0,0,0,0,0,0,0,-1,1000,897,0,0
-217,127,0,0,0,0,0,0,0,0,0,-1,1007,897,0,0
-210,127,0,0,0,0,0,0,0,0,0,-1,1014,897,0,0
-203,127,0,0,0,0,0,0,0,0,0,-1,1021,897,0,0
-196,127,0,0,0,0,0,0,0,0,0,-1,1028,897,0,0
-189,127,0,0,0,0,0,0,0,0,0,-1,1035,897,0,0
-182,127,0,0,0,0,0,0,0,0,0,-1,1042,897,0,0
-175,127,0,0,0,0,0,0,0,0,0,-1,1049,897,0,0
-168,127,0,0,0,0,0,0,0,0,0,-1,1056,897,0,0
-161,127,0,0,0,0,0,0,0,0,0,-1,1063,897,0,0
-154,127,0,0,0,0,0,0,0,0,0,-1,1070,897,0,0
-147,127,0,0,0,0,0,0,0,0,0,-1,1077,897,0,0
-140,127,0,0,0,0,0,0,0,0,0,-1,1084,897,0,0
-133,127,0,0,0,0,0,0,0,0,0,-1,1091,897,0,0
-126,127,0,0,0,0,0,0,0,0,0,-1,1098,897,0,0
-119,127,0,0,0,0,0,0,0,0,0,-1,1105,897,0,0
-112,127,0,0,0,0,0,0,0,0,0,-1,1112,897,0,0
-105,127,0,0,0,0,0,0,0,0,0,-1,1119,897,0,0
-98,127,0,0,0,0,0,0,0,0,0,-1,1126,897,0,0
-91,127,0,0,0,0,0,0,0,0,0,-1,1133,897,0,0
-84,127,0,0,0,0,0,0,0,0,0,-1,1140,897,0,0
-77,127,0,0,0,0,0,0,0,0,0,-1,1147,897,0,0
-70,127,0,0,0,0,0,0,0,0,0,-1,1154,897,0,0
-63,127,0,0,0,0,0,0,0,0,0,-1,1161,897,0,0
-56,127,0,0,0,0,0,0,0,0,0,-1,1168,897,0,0
-49,127,0,0,0,0,0,0,0,0,0,-1,1175,897,0,0
-42,127,0,0,0,0,0,0,0,0,0,-1,1182,897,0,0
-35,127,0,0,0,0,0,0,0,0,0,-1,1189,897,0,0
-28,127,0,0,0,0,0,0,0,0,0,-1,1196,897,0,0
-21,127,0,0,0,0,0,0,0,0,0,-1,1203,897,0,0
-14,127,0,0,0,0,0,0,0,0,0,-1,1210,897,0,0
-7,127,0,0,0,0,0,0,0,0,0,-1,1217,897,0,0
0,127,0,0,0,0,0,0,0,0,0,-1,1224,897,0,0
7,127,0,0,0,0,0,0,0,0,0,-1,1231,897,0,0
14,127,0,0,0,0,0,0,0,0,0,-1,1238,897,0,0
21,127,0,0,0,0,0,0,0,0,0,-1,1245,897,0,0
28,127,0,0,0,0,0,0,0,0,0,-1,1252,897,0,0
35,127,0,0,0,0,0,0,0,0,0,-1,1259,897,0,0
42,127,0,0,0,0,0,0,0,0,0,-1,1266,897,0,0
49,127,0,0,0,0,0,0,0,0,0,-1,1273,897,0,0
56,127,0,0,0,0,0,0,0,0,0,-1,1280,897,0,0
63,127,0,0,0,0,0,0,0,0,0,-1,1287,897,0,0
70,127,0,0,0,0,0,0,0,0,0,-1,1294,897,0,0
77,127,0,0,0,0,0,0,0,0,0,-1,1301,897,0,0
84,127,0,0,0,0,0,0,0,0,0,-1,1308,897,0,0
91,127,0,0,0,0,0,0,0,0,0,-1,1315,897,0,0
98,127,0,0,0,0,0,0,0,0,0,-1,1322,897,0,0
105,127,0,0,0,0,0,0,0,0,0,-1,1329,897,0,0
112,127,0,0,0,0,0,0,0,0,0,-1,1336,897,0,0
119,127,0,0,0,0,0,0,0,0,0,-1,1343,897,0,0
126,127,0,0,0,0,0,0,0,0,0,-1,1350,897,0,0
133,127,0,0,0,0,0,0,0,0,0,-1,1357,897,0,0
140,127,0,0,0,0,0,0,0,0,0,-1,1364,897,0,0
147,127,0,0,0,0,0,0,0,0,0,-1,1371,897,0,0
154,127,0,0,0,0,0,0,0,0,0,-1,1378,897,0,0
161,127,0,0,0,0,0,0,0,0,0,-1,1385,897,0,0
168,127,0,0,0,0,0,0,0,0,0,-1,1392,897,0,0
175,127,0,0,0,0,0,0,0,0,0,-1,1399,897,0,0
182,127,0,0,0,0,0,0,0,0,0,-1,1406,897,0,0
189,127,0,0,0,0,0,0,0,0,0,-1,1413,897,0,0
196,127,0,0,0,0,0,0,0,0,0,-1,1420,897,0,0
203,127,0,0,0,0,0,0,0,0,0,-1,1427,897,0,0
210,127,0,0,0,0,0,0,0,0,0,-1,1434,897,0,0
217,127,0,0,0,0,0,0,0,0,0,-1,1441,897,0,0
224,127,0,0,0,0,0,0,0,0,0,-1,1448,897,0,0
231,127,0,0,0,0,0,0,0,0,0,-1,1455,897,0,0
238,127,0,0,0,0,0,0,0,0,0,-1,1462,897,0,0
245,127,0,0,0,0,0,0,0,0,0,-1,1469,897,0,0
252,127,0,0,0,0,0,0,0,0,0,-1,1476,897,0,0
259,127,0,0,0,0,0,0,0,0,0,-1,1483,897,0,0
266,127,0,0,0,0,0,0,0,0,0,-1,1490,897,0,0
273,127,0,0,0,0,0,0,0,0,0,-1,1497,897,0,0
280,127,0,0,0,0,0,0,0,0,0,-1,1504,897,0,0
287,127,0,0,0,0,0,0,0,0,0,-1,1511,897,0,0
294,127,0,0,0,0,0,0,0,0,0,-1,1518,897,0,0
301,127,0,0,0,0,0,0,0,0,0,-1,1525,897,0,0
308,127,0,0,0,0,0,0,0,0,0,-1,1532,897,0,0
315,127,0,0,0,0,0,0,0,0,0,-1,1539,897,0,0
322,127,0,0,0,0,0,0,0,0,0,-1,1546,897,0,0
329,127,0,0,0,0,0,0,0,0,0,-1,1553,897,0,0
336,127,0,0,0,0,0,0,0,0,0,-1,1560,897,0,0
343,127,0,0,0,0,0,0,0,0,0,-1,1567,897,0,0
350,127,0,0,0,0,0,0,0,0,0,-1,1574,897,0,0
357,127,0,0,0,0,0,0,0,0,0,-1,1581,897,0,0
364,127,0,0,0,0,0,0,0,0,0,-1,1588,897,0,0
371,127,0,0,0,0,0,0,0,0,0,-1,1595,897,0,0
378,127,0,0,0,0,0,0,0,0,0,-1,1602,897,0,0
385,127,0,0,0,0,0,0,0,0,0,-1,1609,897,0,0
392,127,0,0,0,0,0,0,0,0,0,-1,1616,897,0,0
399,127,0,0,0,0,0,0,0,0,0,-1,1623,897,0,0
406,127,0,0,0,0,0,0,0,0,0,-1,1630,897,0,0
413,127,0,0,0,0,0,0,0,0,0,-1,1637,897,0,0
420,127,0,0,0,0,0,0,0,0,0,-1,1644,897,0,0
427,127,0,0,0,0,0,0,0,0,0,-1,1651,897,0,0
434,127,0,0,0,0,0,0,0,0,0,-1,1658,897,0,0
441,127,0,0,0,0,0,0,0,0,0,-1,1665,897,0,0
448,127,0,0,0,0,0,0,0,0,0,-1,1672,897,0,0
455,127,0,0,0,0,0,0,0,0,0,-1,1679,897,0,0
462,127,0,0,0,0,0,0,0,0,0,-1,1686,897,0,0
469,127,0,0,0,0,0,0,0,0,0,-1,1693,897,0,0
476,127,0,0,0,0,0,0,0,0,0,-1,1700,897,0,0
483,127,0,0,0,0,0,0,0,0,0,-1,1707,897,0,0
490,127,0,0,0,0,0,0,0,0,0,-1,1714,897,0,0
497,127,0,0,0,0,0,0,0,0,0,-1,1721,897,0,0
504,127,0,0,0,0,0,0,0,0,0,-1,1728,897,0,0
511,127,0,0,0,0,0,0,0,0,0,-1,1735,897,0,0
518,127,0,0,0,0,0,0,0,0,0,-1,1742,897,0,0
525,127,0,0,0,0,0,0,0,0,0,-1,1749,897,0,0
532,127,0,0,0,0,0,0,0,0,0,-1,1756,897,0,0
539,127,0,0,0,0,0,0,0,0,0,-1,1763,897,0,0
546,127,0,0,0,0,0,0,0,0,0,-1,1770,897,0,0
553,127,0,0,0,0,0,0,0,0,0,-1,1777,897,0,0
560,127,0,0,0,0,0,0,0,0,0,-1,1784,897,0,0
567,127,0,0,0,0,0,0,0,0,0,-1,1791,897,0,0
574,127,0,0,0,0,0,0,0,0,0,-1,1798,897,0,0
581,127,0,0,0,0,0,0,0,0,0,-1,1805,897,0,0
588,127,0,0,0,0,0,0,0,0,0,-1,1812,897,0,0
595,127,0,0,0,0,0,0,0,0,0,-1,1819,897,0,0
602,127,0,0,0,0,0,0,0,0,0,-1,1826,897,0,0
609,127,0,0,0,0,0,0,0,0,0,-1,1833,897,0,0
616,127,0,0,0,0,0,0,0,0,0,-1,1840,897,0,0
623,127,0,0,0,0,0,0,0,0,0,-1,1847,897,0,0
630,127,18.5548,3.40662,0,0,0,0,0,0,0,-1,1854,897,18.5548,-3.40661
637,127,18.8263,3.27795,0.00130576,-3.69799e-05,-0.00486936,0.00554981,-0.00428103,-0.716892,0.00569157,0.0437937,1861,897,18.8262,-3.27797
644,127,19.0773,2.87292,0.00174131,1.16735e-05,-0.0041231,0.00508931,-0.00333633,-0.682022,0.00489952,0.0405341,1868,897,19.0773,-2.87295
651,127,19.0028,2.51831,-4.37171e-05,7.82243e-05,-0.00375076,0.00376851,-0.003734,-0.793525,0.00433159,0.04136,1875,897,19.0028,-2.51829
658,127,18.8868,2.57178,-0.00278893,0.000159048,-0.00348485,0.00246882,-0.0050987,-0.985473,0.00445618,0.0418591,1882,897,18.8868,-2.5718
665,127,18.9153,2.56519,-0.00538443,0.000172803,-0.00323993,0.00166243,-0.00687405,-1.13985,0.00522574,0.0382932,1889,897,18.9152,-2.56521
672,127,18.9232,2.48132,-0.00747737,0.000166587,-0.00302682,0.00121997,-0.00853075,-1.23589,0.0061344,0.0307131,1896,897,18.9232,-2.48133
679,127,18.9601,2.5365,-0.0090193,4.33832e-05,-0.00295278,0.000920552,-0.00989647,-1.28203,0.00692492,0.023198,1903,897,18.9601,-2.53648
686,127,18.9164,2.54852,0,0,0,0,0,0,0,-1,1910,897,18.9164,-2.54855
693,127,17.7816,2.64825,-0.0111272,0.000200201,-0.00246139,0.000711929,-0.0116389,-1.36581,0.00800715,0.0356309,1917,897,17.7816,-2.64823
700,127,16.7811,2.74103,-0.0116316,0.00013518,-0.00198898,0.000462292,-0.0119587,-1.40779,0.00813093,0.0262283,1924,897,16.7811,-2.74103
707,127,16.6423,2.88397,-0.0113019,0.000114409,-0.00185052,0.000406875,-0.0115944,-1.41405,0.00786873,0.0226219,1931,897,16.6423,-2.88395
714,127,16.6697,3.0625,-0.0100288,0.000194276,-0.0019755,0.000562741,-0.0103973,-1.3864,0.00712651,0.0189839,1938,897,16.6696,-3.0625
721,127,16.798,3.29102,-0.00797445,0.00022075,-0.00183472,0.00061275,-0.00836645,-1.3603,0.0057927,0.0142495,1945,897,16.798,-3.291
728,127,16.8146,3.39526,-0.00528273,0.000266489,-0.00152504,0.000657982,-0.00567422,-1.31951,0.00402013,0.0137583,1952,897,16.8145,-3.39529
735,127,16.8062,3.54248,-0.00230117,0.000129222,-0.00106307,0.000528588,-0.00270053,-1.21143,0.00199997,0.0185609,1959,897,16.8061,-3.54251
742,127,16.7834,3.6994,0.00130862,0.000247604,0.000106824,0.00131926,0.000236956,0.0993526,0.00081213,0.0157446,1966,897,16.7835,-3.69942
749,127,16.764,3.83423,0.00505866,0.000520477,0.00259491,0.00623664,-0.000657505,0.426142,0.00439336,0.0116579,1973,897,16.764,-3.83424
756,127,16.7584,3.94116,0.00804194,0.000883394,0.00534777,0.0108977,-0.00197238,0.490485,0.00800402,0.0134363,1980,897,16.7584,-3.94113
763,127,16.7981,4.04785,0.0107635,0.00116967,0.00979097,0.0168695,-0.00493633,0.557618,0.013203,0.0200472,1987,897,16.7981,-4.04787
770,127,16.972,4.13751,0.0140298,0.00164145,0.0167786,0.0257211,-0.0100498,0.608572,0.0213027,0.0410977,1994,897,16.9721,-4.1375
777,127,17.2297,4.24335,0,0,0,0,0,0,0,-1,2001,897,17.2297,-4.24332
784,127,16.7317,4.72021,0,0,0,0,0,0,0,-1,2008,897,16.7317,-4.72023
791,127,18.3555,2.82336,0,0,0,0,0,0,0,-1,2015,897,18.3555,-2.82334
798,127,0,0,0,0,0,0,0,0,0,-1,2022,897,0,0
805,127,0,0,0,0,0,0,0,0,0,-1,2029,897,0,0
812,127,0,0,0,0,0,0,0,0,0,-1,2036,897,0,0
-700,120,0,0,0,0,0,0,0,0,0,-1,524,904,0,0
-693,120,0,0,0,0,0,0,0,0,0,-1,531,904,0,0
-686,120,0,0,0,0,0,0,0,0,0,-1,538,904,0,0
-679,120,-7.27527,5.48279,0,0,0,0,0,0,0,-1,545,904,-7.27528,-5.48277
-672,120,-13.573,-0.071106,0.092619,-0.0150588,0.0287273,0.0998037,-0.0222435,0.245074,0.0750571,0.0438664,552,904,-13.573,0.0710781
-665,120,-13.463,1.05859,0.0903831,-0.0200811,0.025734,0.096084,-0.0257819,0.218009,0.0741592,0.0422814,559,904,-13.463,-1.05857
-658,120,-12.9014,1.93347,0.0822481,-0.0211447,0.022624,0.0869819,-0.0258785,0.206261,0.0682691,0.0405789,566,904,-12.9014,-1.93346
-651,120,-11.7406,1.01703,0.0710864,-0.0198471,0.0194541,0.0750736,-0.0238342,0.202151,0.059604,0.046244,573,904,-11.7406,-1.01703
-644,120,-11.5509,1.18152,0.0587341,-0.0172628,0.0163274,0.0620934,-0.0206221,0.202917,0.0497163,0.0435771,580,904,-11.5509,-1.1815
-637,120,-11.2542,1.32239,0.0464677,-0.0141458,0.0133324,0.0492706,-0.0169487,0.207218,0.0397208,0.0379116,587,904,-11.2542,-1.32238
-630,120,-11.0104,1.57141,0.0354973,-0.0117056,0.0102454,0.0376251,-0.0138334,0.204777,0.0307499,0.0221217,594,904,-11.0105,-1.5714
-623,120,-11.0323,1.5257,0.0267434,-0.00988609,0.00777449,0.0283252,-0.0114679,0.200721,0.0236517,0.0102431,601,904,-11.0323,-1.52569
-616,120,-11.0239,1.43512,0.017873,-0.00644609,0.00693463,0.0197114,-0.00828453,0.259149,0.0166062,0.00906305,608,904,-11.0239,-1.43513
-609,120,-11.0198,1.32867,0.00804862,-0.00339394,0.00476689,0.00977424,-0.00511956,0.347325,0.0087378,0.0130582,615,904,-11.0198,-1.32867
-602,120,-11.0383,1.21277,0.00038877,-0.0021767,0.00304339,0.00240871,-0.00419663,0.585955,0.00385988,0.0140254,622,904,-11.0383,-1.21279
-595,120,-11.0273,1.10132,-0.00441864,-0.00121278,0.00258709,0.00022771,-0.00585913,1.06275,0.00398416,0.0167786,629,904,-11.0274,-1.10129
-588,120,-11.0504,0.983521,-0.0067377,-0.000597753,0.00230269,0.000169864,-0.00750532,1.24902,0.00506112,0.0215883,636,904,-11.0504,-0.983504
-581,120,-11.1467,0.853577,-0.00837094,-0.000545603,0.00212952,-3.62843e-06,-0.00891292,1.32158,0.00594074,0.0254449,643,904,-11.1467,-0.853601
-574,120,-11.0621,0.701416,-0.00944739,-0.000525633,0.0020807,-6.42384e-05,-0.00990879,1.35258,0.00658455,0.0215334,650,904,-11.0621,-0.701417
-567,120,-11.1447,0.674744,-0.00964533,-0.000373688,0.0019885,3.47923e-05,-0.0100538,1.36819,0.00671417,0.0430173,657,904,-11.1447,-0.674748
-560,120,-12.446,0.581848,0,0,0,0,0,0,0,-1,664,904,-12.446,-0.581837
-553,120,-12.4137,0.787476,-0.00891641,4.27667e-05,0.00167048,0.000344099,-0.00921775,1.39233,0.00626302,0.0381368,671,904,-12.4137,-0.787484
-546,120,-12.3701,0.959167,-0.00777599,0.000432349,0.00128723,0.000629477,-0.00797312,1.41884,0.00553718,0.0325911,678,904,-12.3701,-0.959186
-539,120,-12.4117,0.754395,-0.00583867,0.000923877,0.000680411,0.000991657,-0.00590645,1.47151,0.00430641,0.0249031,685,904,-12.4117,-0.754414
-532,120,-12.3066,0.666077,-0.00302831,0.00148836,-0.000161735,0.00149415,-0.00303409,-1.53505,0.0026643,0.0272153,692,904,-12.3066,-0.666055
-525,120,-12.3051,0.64032,0.000808286,0.00207418,-0.00129639,0.00288389,-1.42143e-06,-1.0125,0.00192307,0.0354585,699,904,-12.3051,-0.640304
-518,120,-12.4283,0.758728,0.00551578,0.00260802,-0.00267957,0.00711049,0.00101331,-0.536834,0.00444126,0.0376803,706,904,-12.4283,-0.758741
-511,120,-12.3372,0.842712,0.00963007,0.00302137,-0.00374131,0.0113173,0.00133411,-0.423668,0.00714184,0.0390013,713,904,-12.3372,-0.842686
-504,120,0,0,0,0,0,0,0,0,0,-1,720,904,0,0
-497,120,0,0,0,0,0,0,0,0,0,-1,727,904,0,0
-490,120,0,0,0,0,0,0,0,0,0,-1,734,904,0,0
-483,120,0,0,0,0,0,0,0,0,0,-1,741,904,0,0
-476,120,0,0,0,0,0,0,0,0,0,-1,748,904,0,0
-469,120,0,0,0,0,0,0,0,0,0,-1,755,904,0,0
-462,120,0,0,0,0,0,0,0,0,0,-1,762,904,0,0
-455,120,0,0,0,0,0,0,0,0,0,-1,769,904,0,0
-448,120,0,0,0,0,0,0,0,0,0,-1,776,904,0,0
-441,120,0,0,0,0,0,0,0,0,0,-1,783,904,0,0
-434,120,0,0,0,0,0,0,0,0,0,-1,790,904,0,0
-427,120,0,0,0,0,0,0,0,0,0,-1,797,904,0,0
-420,120,0,0,0,0,0,0,0,0,0,-1,804,904,0,0
-413,120,0,0,0,0,0,0,0,0,0,-1,811,904,0,0
-406,120,0,0,0,0,0,0,0,0,0,-1,818,904,0,0
-399,120,0,0,0,0,0,0,0,0,0,-1,825,904,0,0
-392,120,0,0,0,0,0,0,0,0,0,-1,832,904,0,0
-385,120,0,0,0,0,0,0,0,0,0,-1,839,904,0,0
-378,120,0,0,0,0,0,0,0,0,0,-1,846,904,0,0
-371,120,0,0,0,0,0,0,0,0,0,-1,853,904,0,0
-364,120,0,0,0,0,0,0,0,0,0,-1,860,904,0,0
-357,120,0,0,0,0,0,0,0,0,0,-1,867,904,0,0
-350,120,0,0,0,0,0,0,0,0,0,-1,874,904,0,0
-343,120,0,0,0,0,0,0,0,0,0,-1,881,904,0,0
-336,120,0,0,0,0,0,0,0,0,0,-1,888,904,0,0
-329,120,0,0,0,0,0,0,0,0,0,-1,895,904,0,0
-322,120,0,0,0,0,0,0,0,0,0,-1,902,904,0,0
-315,120,0,0,0,0,0,0,0,0,0,-1,909,904,0,0
-308,120,0,0,0,0,0,0,0,0,0,-1,916,904,0,0
-301,120,0,0,0,0,0,0,0,0,0,-1,923,904,0,0
-294,120,0,0,0,0,0,0,0,0,0,-1,930,904,0,0
-287,120,0,0,0,0,0,0,0,0,0,-1,937,904,0,0
-280,120,0,0,0,0,0,0,0,0,0,-1,944,904,0,0
-273,120,0,0,0,0,0,0,0,0,0,-1,951,904,0,0
-266,120,0,0,0,0,0,0,0,0,0,-1,958,904,0,0
-259,120,0,0,0,0,0,0,0,0,0,-1,965,904,0,0
-252,120,0,0,0,0,0,0,0,0,0,-1,972,904,0,0
-245,120,0,0,0,0,0,0,0,0,0,-1,979,904,0,0
-238,120,0,0,0,0,0,0,0,0,0,-1,986,904,0,0
-231,120,0,0,0,0,0,0,0,0,0,-1,993,904,0,0
-224,120,0,0,0,0,0,0,0,0,0,-1,1000,904,0,0
-217,120,0,0,0,0,0,0,0,0,0,-1,1007,904,0,0
-210,120,0,0,0,0,0,0,0,0,0,-1,1014,904,0,0
-203,120,0,0,0,0,0,0,0,0,0,-1,1021,904,0,0
-196,120,0,0,0,0,0,0,0,0,0,-1,1028,904,0,0
-189,120,0,0,0,0,0,0,0,0,0,-1,1035,904,0,0
-182,120,0,0,0,0,0,0,0,0,0,-1,1042,904,0,0
-175,120,0,0,0,0,0,0,0,0,0,-1,1049,904,0,0
-168,120,0,0,0,0,0,0,0,0,0,-1,1056,904,0,0
-161,120,0,0,0,0,0,0,0,0,0,-1,1063,904,0,0
-154,120,0,0,0,0,0,0,0,0,0,-1,1070,904,0,0
-147,120,0,0,0,0,0,0,0,0,0,-1,1077,904,0,0
-140,120,0,0,0,0,0,0,0,0,0,-1,1084,904,0,0
-133,120,0,0,0,0,0,0,0,0,0,-1,1091,904,0,0
-126,120,0,0,0,0,0,0,0,0,0,-1,1098,904,0,0
-119,120,0,0,0,0,0,0,0,0,0,-1,1105,904,0,0
-112,120,0,0,0,0,0,0,0,0,0,-1,1112,904,0,0
-105,120,0,0,0,0,0,0,0,0,0,-1,1119,904,0,0
-98,120,0,0,0,0,0,0,0,0,0,-1,1126,904,0,0
-91,120,0,0,0,0,0,0,0,0,0,-1,1133,904,0,0
-84,120,0,0,0,0,0,0,0,0,0,-1,1140,904,0,0
-77,120,0,0,0,0,0,0,0,0,0,-1,1147,904,0,0
-70,120,0,0,0,0,0,0,0,0,0,-1,1154,904,0,0
-63,120,0,0,0,0,0,0,0,0,0,-1,1161,904,0,0
-56,120,0,0,0,0,0,0,0,0,0,-1,1168,904,0,0
-49,120,0,0,0,0,0,0,0,0,0,-1,1175,904,0,0
-42,120,0,0,0,0,0,0,0,0,0,-1,1182,904,0,0
-35,120,0,0,0,0,0,0,0,0,0,-1,1189,904,0,0
-28,120,0,0,0,0,0,0,0,0,0,-1,1196,904,0,0
-21,120,0,0,0,0,0,0,0,0,0,-1,1203,904,0,0
-14,120,0,0,0,0,0,0,0,0,0,-1,1210,904,0,0
-7,120,0,0,0,0,0,0,0,0,0,-1,1217,904,0,0
0,120,0,0,0,0,0,0,0,0,0,-1,1224,904,0,0
7,120,0,0,0,0,0,0,0,0,0,-1,1231,904,0,0
14,120,0,0,0,0,0,0,0,0,0,-1,1238,904,0,0
21,120,0,0,0,0,0,0,0,0,0,-1,1245,904,0,0
28,120,0,0,0,0,0,0,0,0,0,-1,1252,904,0,0
35,120,0,0,0,0,0,0,0,0,0,-1,1259,904,0,0
42,120,0,0,0,0,0,0,0,0,0,-1,1266,904,0,0
49,120,0,0,0,0,0,0,0,0,0,-1,1273,904,0,0
56,120,0,0,0,0,0,0,0,0,0,-1,1280,904,0,0
63,120,0,0,0,0,0,0,0,0,0,-1,1287,904,0,0
70,120,0,0,0,0,0,0,0,0,0,-1,1294,904,0,0
77,120,0,0,0,0,0,0,0,0,0,-1,1301,904,0,0
84,120,0,0,0,0,0,0,0,0,0,-1,1308,904,0,0
91,120,0,0,0,0,0,0,0,0,0,-1,1315,904,0,0
98,120,0,0,0,0,0,0,0,0,0,-1,1322,904,0,0
105,120,0,0,0,0,0,0,0,0,0,-1,1329,904,0,0
112,120,0,0,0,0,0,0,0,0,0,-1,1336,904,0,0
119,120,0,0,0,0,0,0,0,0,0,-1,1343,904,0,0
126,120,0,0,0,0,0,0,0,0,0,-1,1350,904,0,0
133,120,0,0,0,0,0,0,0,0,0,-1,1357,904,0,0
140,120,0,0,0,0,0,0,0,0,0,-1,1364,904,0,0
147,120,0,0,0,0,0,0,0,0,0,-1,1371,904,0,0
154,120,0,0,0,0,0,0,0,0,0,-1,1378,904,0,0
161,120,0,0,0,0,0,0,0,0,0,-1,1385,904,0,0
168,120,0,0,0,0,0,0,0,0,0,-1,1392,904,0,0
175,120,0,0,0,0,0,0,0,0,0,-1,1399,904,0,0
182,120,0,0,0,0,0,0,0,0,0,-1,1406,904,0,0
189,120,0,0,0,0,0,0,0,0,0,-1,1413,904,0,0
196,120,0,0,0,0,0,0,0,0,0,-1,1420,904,0,0
203,120,0,0,0,0,0,0,0,0,0,-1,1427,904,0,0
210,120,0,0,0,0,0,0,0,0,0,-1,1434,904,0,0
217,120,0,0,0,0,0,0,0,0,0,-1,1441,904,0,0
224,120,0,0,0,0,0,0,0,0,0,-1,1448,904,0,0
231,120,0,0,0,0,0,0,0,0,0,-1,1455,904,0,0
238,120,0,0,0,0,0,0,0,0,0,-1,1462,904,0,0
245,120,0,0,0,0,0,0,0,0,0,-1,1469,904,0,0
252,120,0,0,0,0,0,0,0,0,0,-1,1476,904,0,0
259,120,0,0,0,0,0,0,0,0,0,-1,1483,904,0,0
266,120,0,0,0,0,0,0,0,0,0,-1,1490,904,0,0
273,120,0,0,0,0,0,0,0,0,0,-1,1497,904,0,0
280,120,0,0,0,0,0,0,0,0,0,-1,1504,904,0,0
287,120,0,0,0,0,0,0,0,0,0,-1,1511,904,0,0
294,120,0,0,0,0,0,0,0,0,0,-1,1518,904,0,0
301,120,0,0,0,0,0,0,0,0,0,-1,1525,904,0,0
308,120,0,0,0,0,0,0,0,0,0,-1,1532,904,0,0
315,120,0,0,0,0,0,0,0,0,0,-1,1539,904,0,0
322,120,0,0,0,0,0,0,0,0,0,-1,1546,904,0,0
329,120,0,0,0,0,0,0,0,0,0,-1,1553,904,0,0
336,120,0,0,0,0,0,0,0,0,0,-1,1560,904,0,0
343,120,0,0,0,0,0,0,0,0,0,-1,1567,904,0,0
350,120,0,0,0,0,0,0,0,0,0,-1,1574,904,0,0
357,120,0,0,0,0,0,0,0,0,0,-1,1581,904,0,0
364,120,0,0,0,0,0,0,0,0,0,-1,1588,904,0,0
371,120,0,0,0,0,0,0,0,0,0,-1,1595,904,0,0
378,120,0,0,0,0,0,0,0,0,0,-1,1602,904,0,0
385,120,0,0,0,0,0,0,0,0,0,-1,1609,904,0,0
392,120,0,0,0,0,0,0,0,0,0,-1,1616,904,0,0
399,120,0,0,0,0,0,0,0,0,0,-1,1623,904,0,0
406,120,0,0,0,0,0,0,0,0,0,-1,1630,904,0,0
413,120,0,0,0,0,0,0,0,0,0,-1,1637,904,0,0
420,120,0,0,0,0,0,0,0,0,0,-1,1644,904,0,0
427,120,0,0,0,0,0,0,0,0,0,-1,1651,904,0,0
434,120,0,0,0,0,0,0,0,0,0,-1,1658,904,0,0
441,120,0,0,0,0,0,0,0,0,0,-1,1665,904,0,0
448,120,0,0,0,0,0,0,0,0,0,-1,1672,904,0,0
455,120,0,0,0,0,0,0,0,0,0,-1,1679,904,0,0
462,120,0,0,0,0,0,0,0,0,0,-1,1686,904,0,0
469,120,0,0,0,0,0,0,0,0,0,-1,1693,904,0,0
476,120,0,0,0,0,0,0,0,0,0,-1,1700,904,0,0
483,120,0,0,0,0,0,0,0,0,0,-1,1707,904,0,0
490,120,0,0,0,0,0,0,0,0,0,-1,1714,904,0,0
497,120,0,0,0,0,0,0,0,0,0,-1,1721,904,0,0
504,120,0,0,0,0,0,0,0,0,0,-1,1728,904,0,0
511,120,0,0,0,0,0,0,0,0,0,-1,1735,904,0,0
518,120,0,0,0,0,0,0,0,0,0,-1,1742,904,0,0
525,120,0,0,0,0,0,0,0,0,0,-1,1749,904,0,0
532,120,0,0,0,0,0,0,0,0,0,-1,1756,904,0,0
539,120,0,0,0,0,0,0,0,0,0,-1,1763,904,0,0
546,120,0,0,0,0,0,0,0,0,0,-1,1770,904,0,0
553,120,0,0,0,0,0,0,0,0,0,-1,1777,904,0,0
560,120,0,0,0,0,0,0,0,0,0,-1,1784,904,0,0
567,120,0,0,0,0,0,0,0,0,0,-1,1791,904,0,0
574,120,0,0,0,0,0,0,0,0,0,-1,1798,904,0,0
581,120,0,0,0,0,0,0,0,0,0,-1,1805,904,0,0
588,120,0,0,0,0,0,0,0,0,0,-1,1812,904,0,0
595,120,0,0,0,0,0,0,0,0,0,-1,1819,904,0,0
602,120,0,0,0,0,0,0,0,0,0,-1,1826,904,0,0
609,120,0,0,0,0,0,0,0,0,0,-1,1833,904,0,0
616,120,0,0,0,0,0,0,0,0,0,-1,1840,904,0,0
623,120,0,0,0,0,0,0,0,0,0,-1,1847,904,0,0
630,120,18.6128,3.73022,0,0,0,0,0,0,0,-1,1854,904,18.6128,-3.73025
637,120,18.7677,3.29431,0.00109377,0.000771262,-0.00574758,0.00668235,-0.00481732,-0.771374,0.00666838,0.0449335,1861,904,18.7676,-3.29428
644,120,18.9017,2.81732,0.00182745,0.000494352,-0.00463928,0.00584782,-0.00352602,-0.714049,0.00546704,0.0407432,1868,904,18.9018,-2.81734
651,120,18.9674,2.52008,0.00016263,0.000318046,-0.00400867,0.00424976,-0.00376908,-0.795089,0.00463245,0.0417698,1875,904,18.9674,-2.52008
658,120,18.9525,2.65552,-0.0027494,0.000253167,-0.00357021,0.0026249,-0.00512113,-0.984426,0.00454892,0.0427102,1882,904,18.9525,-2.65552
665,120,18.917,2.60309,-0.00564995,0.000174302,-0.00319631,0.00158617,-0.00706181,-1.15485,0.00531607,0.0391965,1889,904,18.917,-2.60306
672,120,18.9011,2.55054,-0.00798205,0.00012869,-0.0029097,0.00106455,-0.00891791,-1.25961,0.00633003,0.0357086,1896,904,18.9011,-2.55053
679,120,18.9034,2.55469,-0.00970571,-1.04707e-05,-0.00277642,0.000728315,-0.0104445,-1.31073,0.00721803,0.0302571,1903,904,18.9034,-2.55466
686,120,19.2058,2.62036,0,0,0,0,0,0,0,-1,1910,904,19.2058,-2.62038
693,120,18.3412,2.68719,-0.0119092,8.86321e-05,-0.00221807,0.000485561,-0.0123061,-1.39372,0.00837063,0.0383865,1917,904,18.3412,-2.68719
700,120,17.324,2.77936,-0.0123693,3.71112e-05,-0.00174934,0.000279056,-0.0126113,-1.43336,0.00850205,0.0289467,1924,904,17.324,-2.77936
707,120,16.8673,3.00391,-0.0120313,5.34898e-05,-0.00162497,0.000268176,-0.0122459,-1.43944,0.00825481,0.0193532,1931,904,16.8673,-3.0039
714,120,16.9282,3.16028,-0.0107874,0.000147979,-0.00175559,0.000422912,-0.0110623,-1.41545,0.00751983,0.0153485,1938,904,16.9282,-3.1603
721,120,16.9336,3.27917,-0.00879176,0.000246349,-0.00169491,0.000553739,-0.00909915,-1.39139,0.00625885,0.0128832,1945,904,16.9336,-3.2792
728,120,16.9489,3.42334,-0.00611224,0.000419914,-0.00153277,0.000761695,-0.00645402,-1.3514,0.00457775,0.0100748,1952,904,16.9488,-3.42334
735,120,16.939,3.53143,-0.00314184,0.000433561,-0.00129152,0.000851288,-0.00355956,-1.25798,0.00270188,0.0128253,1959,904,16.939,-3.53144
742,120,16.9269,3.69489,0.00043831,0.000880523,-0.000296152,0.001029,0.00028983,-1.10606,0.000612685,0.013664,1966,904,16.9268,-3.69491
749,120,16.9133,3.82751,0.00432818,0.00167126,0.00211269,0.00549537,0.000504066,0.504735,0.00350765,0.0107023,1973,904,16.9134,-3.82752
756,120,16.9156,3.89288,0.00749249,0.00283407,0.00462416,0.0103409,-1.43689e-05,0.552095,0.00689875,0.0117215,1980,904,16.9156,-3.89291
763,120,16.8979,3.98419,0.0103102,0.00422268,0.00870988,0.0164928,-0.00195997,0.617302,0.0117034,0.0203447,1987,904,16.8979,-3.98419
770,120,16.9453,4.13568,0.0136203,0.00616613,0.0151625,0.025507,-0.00572062,0.664883,0.0191978,0.0431492,1994,904,16.9454,-4.13568
777,120,17.0708,4.25171,0,0,0,0,0,0,0,-1,2001,904,17.0708,-4.25173
784,120,16.8679,3.42743,0,0,0,0,0,0,0,-1,2008,904,16.8679,-3.42745
791,120,18.1962,3.56378,0,0,0,0,0,0,0,-1,2015,904,18.1962,-3.5638
798,120,19.854,4.51215,0,0,0,0,0,0,0,-1,2022,904,19.8539,-4.51212
805,120,0,0,0,0,0,0,0,0,0,-1,2029,904,0,0
812,120,0,0,0,0,0,0,0,0,0,-1,2036,904,0,0
-700,113,0,0,0,0,0,0,0,0,0,-1,524,911,0,0
-693,113,0,0,0,0,0,0,0,0,0,-1,531,911,0,0
-686,113,0,0,0,0,0,0,0,0,0,-1,538,911,0,0
-679,113,-8.21362,4.5556,0,0,0,0,0,0,0,-1,545,911,-8.21362,-4.5556
-672,113,-8.23474,5.04303,0,0,0,0,0,0,0,-1,552,911,-8.23472,-5.04303
-665,113,-13.5801,1.89398,0.0750999,-0.00610507,0.0241147,0.0817212,-0.0127263,0.267969,0.0591808,0.0469552,559,911,-13.5801,-1.894
-658,113,-12.821,2.53033,0.0695056,-0.00994547,0.0205798,0.0745198,-0.0149597,0.238992,0.0553446,0.0435281,566,911,-12.821,-2.53034
-651,113,-11.9125,0.811768,0.0608686,-0.0111944,0.0173195,0.064815,-0.0151408,0.224035,0.0490423,0.0451114,573,911,-11.9126,-0.811787
-644,113,-11.7086,1.15338,0.0507841,-0.0107997,0.0143269,0.0539539,-0.0139695,0.217744,0.0414187,0.0414947,580,911,-11.7086,-1.1534
-637,113,-11.351,1.48456,0.0404445,-0.00947582,0.0115926,0.0430052,-0.0120365,0.2174,0.033413,0.0333869,587,911,-11.351,-1.48459
-630,113,-11.1301,1.60059,0.031098,-0.00859165,0.00870423,0.0329229,-0.0104166,0.206673,0.0261226,0.0161929,594,911,-11.1301,-1.60056
-623,113,-11.139,1.52051,0.0235443,-0.00795982,0.00645019,0.0248137,-0.00922929,0.194327,0.0203297,0.0104816,601,911,-11.1391,-1.5205
-616,113,-11.1427,1.42316,0.0154181,-0.00518679,0.00603442,0.0170553,-0.00682396,0.264929,0.0142023,0.00862186,608,911,-11.1427,-1.42317
-609,113,-11.1461,1.32355,0.00643407,-0.0028433,0.00410669,0.00799072,-0.00439996,0.36232,0.00725321,0.0107159,615,911,-11.1461,-1.32352
-602,113,-11.1527,1.2132,-0.000662552,-0.00199296,0.00260255,0.00135846,-0.00401397,0.660278,0.00322561,0.0147722,622,911,-11.1527,-1.21319
-595,113,-11.1595,1.12189,-0.00519174,-0.00116474,0.00222688,-0.000176044,-0.00618044,1.15296,0.00406288,0.0171889,629,911,-11.1595,-1.12191
-588,113,-11.1534,1.01428,-0.0073014,-0.000649676,0.00201943,-8.45902e-05,-0.00786649,1.29795,0.00521636,0.0186813,636,911,-11.1534,-1.01425
-581,113,-11.1511,0.897766,-0.00858482,-0.000631469,0.00182224,-0.000233845,-0.00898245,1.35596,0.00591189,0.0191853,643,911,-11.151,-0.897792
-574,113,-11.0797,0.733643,-0.00951926,-0.000611122,0.00167877,-0.000305254,-0.00982513,1.39058,0.00645074,0.0186143,650,911,-11.0797,-0.733613
-567,113,-11.517,0.686584,-0.00968605,-0.000440684,0.00153275,-0.000193201,-0.00993353,1.41071,0.0065589,0.0410645,657,911,-11.5169,-0.686589
-560,113,-12.3878,0.742432,0,0,0,0,0,0,0,-1,664,911,-12.3878,-0.742415
-553,113,-12.3631,0.816223,-0.0088847,5.64059e-05,0.00116296,0.000205194,-0.00903349,1.44355,0.00609188,0.0378246,671,911,-12.3631,-0.816214
-546,113,-12.338,0.875122,-0.00768547,0.0004961,0.000754257,0.000565054,-0.00775442,1.47963,0.00536789,0.035086,678,911,-12.338,-0.87514
-539,113,-12.3765,0.793213,-0.00573068,0.00103953,0.000146944,0.00104272,-0.00573386,1.54911,0.00421338,0.0348272,685,911,-12.3764,-0.793207
-532,113,-12.3397,0.661194,-0.00296033,0.00165624,-0.000663202,0.00174963,-0.00305371,-1.43091,0.00280707,0.0364364,692,911,-12.3397,-0.661194
-525,113,-12.3554,0.486206,0.000753141,0.00228284,-0.00172593,0.0034058,-0.000369818,-0.993971,0.00240331,0.0374429,699,911,-12.3554,-0.486222
-518,113,-12.4629,0.619934,0.00501151,0.00283539,-0.00296445,0.00708127,0.000765632,-0.609513,0.00448746,0.0384653,706,911,-12.4629,-0.619942
-511,113,-12.4811,0.785156,0.00806718,0.00327157,-0.00370788,0.010085,0.00125374,-0.49838,0.00634684,0.0403393,713,911,-12.4811,-0.785142
-504,113,0,0,0,0,0,0,0,0,0,-1,720,911,0,0
-497,113,0,0,0,0,0,0,0,0,0,-1,727,911,0,0
-490,113,0,0,0,0,0,0,0,0,0,-1,734,911,0,0
-483,113,0,0,0,0,0,0,0,0,0,-1,741,911,0,0
-476,113,0,0,0,0,0,0,0,0,0,-1,748,911,0,0
-469,113,0,0,0,0,0,0,0,0,0,-1,755,911,0,0
-462,113,0,0,0,0,0,0,0,0,0,-1,762,911,0,0
-455,113,0,0,0,0,0,0,0,0,0,-1,769,911,0,0
-448,113,0,0,0,0,0,0,0,0,0,-1,776,911,0,0
-441,113,0,0,0,0,0,0,0,0,0,-1,783,911,0,0
-434,113,0,0,0,0,0,0,0,0,0,-1,790,911,0,0
-427,113,0,0,0,0,0,0,0,0,0,-1,797,911,0,0
-420,113,0,0,0,0,0,0,0,0,0,-1,804,911,0,0
-413,113,0,0,0,0,0,0,0,0,0,-1,811,911,0,0
-406,113,0,0,0,0,0,0,0,0,0,-1,818,911,0,0
-399,113,0,0,0,0,0,0,0,0,0,-1,825,911,0,0
-392,113,0,0,0,0,0,0,0,0,0,-1,832,911,0,0
-385,113,0,0,0,0,0,0,0,0,0,-1,839,911,0,0
-378,113,0,0,0,0,0,0,0,0,0,-1,846,911,0,0
-371,113,0,0,0,0,0,0,0,0,0,-1,853,911,0,0
-364,113,0,0,0,0,0,0,0,0,0,-1,860,911,0,0
-357,113,0,0,0,0,0,0,0,0,0,-1,867,911,0,0
-350,113,0,0,0,0,0,0,0,0,0,-1,874,911,0,0
-343,113,0,0,0,0,0,0,0,0,0,-1,881,911,0,0
-336,113,0,0,0,0,0,0,0,0,0,-1,888,911,0,0
-329,113,0,0,0,0,0,0,0,0,0,-1,895,911,0,0
-322,113,0,0,0,0,0,0,0,0,0,-1,902,911,0,0
-315,113,0,0,0,0,0,0,0,0,0,-1,909,911,0,0
-308,113,0,0,0,0,0,0,0,0,0,-1,916,911,0,0
-301,113,0,0,0,0,0,0,0,0,0,-1,923,911,0,0
-294,113,0,0,0,0,0,0,0,0,0,-1,930,911,0,0
-287,113,0,0,0,0,0,0,0,0,0,-1,937,911,0,0
-280,113,0,0,0,0,0,0,0,0,0,-1,944,911,0,0
-273,113,0,0,0,0,0,0,0,0,0,-1,951,911,0,0
-266,113,0,0,0,0,0,0,0,0,0,-1,958,911,0,0
-259,113,0,0,0,0,0,0,0,0,0,-1,965,911,0,0
-252,113,0,0,0,0,0,0,0,0,0,-1,972,911,0,0
-245,113,0,0,0,0,0,0,0,0,0,-1,979,911,0,0
-238,113,0,0,0,0,0,0,0,0,0,-1,986,911,0,0
-231,113,0,0,0,0,0,0,0,0,0,-1,993,911,0,0
-224,113,0,0,0,0,0,0,0,0,0,-1,1000,911,0,0
-217,113,0,0,0,0,0,0,0,0,0,-1,1007,911,0,0
-210,113,0,0,0,0,0,0,0,0,0,-1,1014,911,0,0
-203,113,0,0,0,0,0,0,0,0,0,-1,1021,911,0,0
-196,113,0,0,0,0,0,0,0,0,0,-1,1028,911,0,0
-189,113,0,0,0,0,0,0,0,0,0,-1,1035,911,0,0
-182,113,0,0,0,0,0,0,0,0,0,-1,1042,911,0,0
-175,113,0,0,0,0,0,0,0,0,0,-1,1049,911,0,0
-168,113,0,0,0,0,0,0,0,0,0,-1,1056,911,0,0
-161,113,0,0,0,0,0,0,0,0,0,-1,1063,911,0,0
-154,113,0,0,0,0,0,0,0,0,0,-1,1070,911,0,0
-147,113,0,0,0,0,0,0,0,0,0,-1,1077,911,0,0
-140,113,0,0,0,0,0,0,0,0,0,-1,1084,911,0,0
-133,113,0,0,0,0,0,0,0,0,0,-1,1091,911,0,0
-126,113,0,0,0,0,0,0,0,0,0,-1,1098,911,0,0
-119,113,0,0,0,0,0,0,0,0,0,-1,1105,911,0,0
-112,113,0,0,0,0,0,0,0,0,0,-1,1112,911,0,0
-105,113,0,0,0,0,0,0,0,0,0,-1,1119,911,0,0
-98,113,0,0,0,0,0,0,0,0,0,-1,1126,911,0,0
-91,113,0,0,0,0,0,0,0,0,0,-1,1133,911,0,0
-84,113,0,0,0,0,0,0,0,0,0,-1,1140,911,0,0
-77,113,0,0,0,0,0,0,0,0,0,-1,1147,911,0,0
-70,113,0,0,0,0,0,0,0,0,0,-1,1154,911,0,0
-63,113,0,0,0,0,0,0,0,0,0,-1,1161,911,0,0
-56,113,0,0,0,0,0,0,0,0,0,-1,1168,911,0,0
-49,113,0,0,0,0,0,0,0,0,0,-1,1175,911,0,0
-42,113,0,0,0,0,0,0,0,0,0,-1,1182,911,0,0
-35,113,0,0,0,0,0,0,0,0,0,-1,1189,911,0,0
-28,113,0,0,0,0,0,0,0,0,0,-1,1196,911,0,0
-21,113,0,0,0,0,0,0,0,0,0,-1,1203,911,0,0
-14,113,0,0,0,0,0,0,0,0,0,-1,1210,911,0,0
-7,113,0,0,0,0,0,0,0,0,0,-1,1217,911,0,0
0,113,0,0,0,0,0,0,0,0,0,-1,1224,911,0,0
7,113,0,0,0,0,0,0,0,0,0,-1,1231,911,0,0
14,113,0,0,0,0,0,0,0,0,0,-1,1238,911,0,0
21,113,0,0,0,0,0,0,0,0,0,-1,1245,911,0,0
28,113,0,0,0,0,0,0,0,0,0,-1,1252,911,0,0
35,113,0,0,0,0,0,0,0,0,0,-1,1259,911,0,0
42,113,0,0,0,0,0,0,0,0,0,-1,1266,911,0,0
49,113,0,0,0,0,0,0,0,0,0,-1,1273,911,0,0
56,113,0,0,0,0,0,0,0,0,0,-1,1280,911,0,0
63,113,0,0,0,0,0,0,0,0,0,-1,1287,911,0,0
70,113,0,0,0,0,0,0,0,0,0,-1,1294,911,0,0
77,113,0,0,0,0,0,0,0,0,0,-1,1301,911,0,0
84,113,0,0,0,0,0,0,0,0,0,-1,1308,911,0,0
91,113,0,0,0,0,0,0,0,0,0,-1,1315,911,0,0
98,113,0,0,0,0,0,0,0,0,0,-1,1322,911,0,0
105,113,0,0,0,0,0,0,0,0,0,-1,1329,911,0,0
112,113,0,0,0,0,0,0,0,0,0,-1,1336,911,0,0
119,113,0,0,0,0,0,0,0,0,0,-1,1343,911,0,0
126,113,0,0,0,0,0,0,0,0,0,-1,1350,911,0,0
133,113,0,0,0,0,0,0,0,0,0,-1,1357,911,0,0
140,113,0,0,0,0,0,0,0,0,0,-1,1364,911,0,0
147,113,0,0,0,0,0,0,0,0,0,-1,1371,911,0,0
154,113,0,0,0,0,0,0,0,0,0,-1,1378,911,0,0
161,113,0,0,0,0,0,0,0,0,0,-1,1385,911,0,0
168,113,0,0,0,0,0,0,0,0,0,-1,1392,911,0,0
175,113,0,0,0,0,0,0,0,0,0,-1,1399,911,0,0
182,113,0,0,0,0,0,0,0,0,0,-1,1406,911,0,0
189,113,0,0,0,0,0,0,0,0,0,-1,1413,911,0,0
196,113,0,0,0,0,0,0,0,0,0,-1,1420,911,0,0
203,113,0,0,0,0,0,0,0,0,0,-1,1427,911,0,0
210,113,0,0,0,0,0,0,0,0,0,-1,1434,911,0,0
217,113,0,0,0,0,0,0,0,0,0,-1,1441,911,0,0
224,113,0,0,0,0,0,0,0,0,0,-1,1448,911,0,0
231,113,0,0,0,0,0,0,0,0,0,-1,1455,911,0,0
238,113,0,0,0,0,0,0,0,0,0,-1,1462,911,0,0
245,113,0,0,0,0,0,0,0,0,0,-1,1469,911,0,0
252,113,0,0,0,0,0,0,0,0,0,-1,1476,911,0,0
259,113,0,0,0,0,0,0,0,0,0,-1,1483,911,0,0
266,113,0,0,0,0,0,0,0,0,0,-1,1490,911,0,0
273,113,0,0,0,0,0,0,0,0,0,-1,1497,911,0,0
280,113,0,0,0,0,0,0,0,0,0,-1,1504,911,0,0
287,113,0,0,0,0,0,0,0,0,0,-1,1511,911,0,0
294,113,0,0,0,0,0,0,0,0,0,-1,1518,911,0,0
301,113,0,0,0,0,0,0,0,0,0,-1,1525,911,0,0
308,113,0,0,0,0,0,0,0,0,0,-1,1532,911,0,0
315,113,0,0,0,0,0,0,0,0,0,-1,1539,911,0,0
322,113,0,0,0,0,0,0,0,0,0,-1,1546,911,0,0
329,113,0,0,0,0,0,0,0,0,0,-1,1553,911,0,0
336,113,0,0,0,0,0,0,0,0,0,-1,1560,911,0,0
343,113,0,0,0,0,0,0,0,0,0,-1,1567,911,0,0
350,113,0,0,0,0,0,0,0,0,0,-1,1574,911,0,0
357,113,0,0,0,0,0,0,0,0,0,-1,1581,911,0,0
364,113,0,0,0,0,0,0,0,0,0,-1,1588,911,0,0
371,113,0,0,0,0,0,0,0,0,0,-1,1595,911,0,0
378,113,0,0,0,0,0,0,0,0,0,-1,1602,911,0,0
385,113,0,0,0,0,0,0,0,0,0,-1,1609,911,0,0
392,113,0,0,0,0,0,0,0,0,0,-1,1616,911,0,0
399,113,0,0,0,0,0,0,0,0,0,-1,1623,911,0,0
406,113,0,0,0,0,0,0,0,0,0,-1,1630,911,0,0
413,113,0,0,0,0,0,0,0,0,0,-1,1637,911,0,0
420,113,0,0,0,0,0,0,0,0,0,-1,1644,911,0,0
427,113,0,0,0,0,0,0,0,0,0,-1,1651,911,0,0
434,113,0,0,0,0,0,0,0,0,0,-1,1658,911,0,0
441,113,0,0,0,0,0,0,0,0,0,-1,1665,911,0,0
448,113,0,0,0,0,0,0,0,0,0,-1,1672,911,0,0
455,113,0,0,0,0,0,0,0,0,0,-1,1679,911,0,0
462,113,0,0,0,0,0,0,0,0,0,-1,1686,911,0,0
469,113,0,0,0,0,0,0,0,0,0,-1,1693,911,0,0
476,113,0,0,0,0,0,0,0,0,0,-1,1700,911,0,0
483,113,0,0,0,0,0,0,0,0,0,-1,1707,911,0,0
490,113,0,0,0,0,0,0,0,0,0,-1,1714,911,0,0
497,113,0,0,0,0,0,0,0,0,0,-1,1721,911,0,0
504,113,0,0,0,0,0,0,0,0,0,-1,1728,911,0,0
511,113,0,0,0,0,0,0,0,0,0,-1,1735,911,0,0
518,113,0,0,0,0,0,0,0,0,0,-1,1742,911,0,0
525,113,0,0,0,0,0,0,0,0,0,-1,1749,911,0,0
532,113,0,0,0,0,0,0,0,0,0,-1,1756,911,0,0
539,113,0,0,0,0,0,0,0,0,0,-1,1763,911,0,0
546,113,0,0,0,0,0,0,0,0,0,-1,1770,911,0,0
553,113,0,0,0,0,0,0,0,0,0,-1,1777,911,0,0
560,113,0,0,0,0,0,0,0,0,0,-1,1784,911,0,0
567,113,0,0,0,0,0,0,0,0,0,-1,1791,911,0,0
574,113,0,0,0,0,0,0,0,0,0,-1,1798,911,0,0
581,113,0,0,0,0,0,0,0,0,0,-1,1805,911,0,0
588,113,0,0,0,0,0,0,0,0,0,-1,1812,911,0,0
595,113,0,0,0,0,0,0,0,0,0,-1,1819,911,0,0
602,113,0,0,0,0,0,0,0,0,0,-1,1826,911,0,0
609,113,0,0,0,0,0,0,0,0,0,-1,1833,911,0,0
616,113,0,0,0,0,0,0,0,0,0,-1,1840,911,0,0
623,113,0,0,0,0,0,0,0,0,0,-1,1847,911,0,0
630,113,18.9619,2.56952,0,0,0,0,0,0,0,-1,1854,911,18.9619,-2.56954
637,113,18.7944,3.40411,0,0,0,0,0,0,0,-1,1861,911,18.7945,-3.40413
644,113,18.9097,2.84186,0.00185452,0.000957796,-0.00496314,0.00638951,-0.00357719,-0.740351,0.00583014,0.0406705,1868,911,18.9096,-2.84185
651,113,18.9402,2.47797,0.000380086,0.000589379,-0.0040971,0.00458317,-0.0036137,-0.798166,0.00474348,0.0417777,1875,911,18.9401,-2.47794
658,113,19.1877,2.41699,-0.00255377,0.000406314,-0.0035001,0.00272644,-0.00487389,-0.985425,0.00444605,0.0426988,1882,911,19.1877,-2.41701
665,113,19.0934,2.67645,-0.00562978,0.000263654,-0.00302654,0.00154105,-0.00690717,-1.17142,0.00519522,0.0394212,1889,911,19.0933,-2.67648
672,113,18.8994,2.69232,-0.00813309,0.000179279,-0.00267891,0.000967833,-0.00892164,-1.28453,0.00629522,0.0354709,1896,911,18.8994,-2.69232
679,113,18.9106,2.56226,-0.0100072,3.73811e-05,-0.0024966,0.000623696,-0.0105935,-1.34013,0.00727913,0.0295637,1903,911,18.9106,-2.56226
686,113,18.9154,2.57813,-0.0113291,7.31428e-05,-0.0023317,0.000531534,-0.0117875,-1.37668,0.00804136,0.0243637,1910,911,18.9154,-2.57811
693,113,18.6711,2.73901,0,0,0,0,0,0,0,-1,1917,911,18.6711,-2.73901
700,113,17.8456,2.8183,-0.0126649,2.28929e-05,-0.0014667,0.000190234,-0.0128323,-1.45719,0.00861897,0.0406687,1924,911,17.8456,-2.8183
707,113,17.0377,2.97632,-0.0123138,7.47845e-05,-0.00136588,0.000223591,-0.0124626,-1.46228,0.0083839,0.0275919,1931,911,17.0377,-2.97633
714,113,17.0262,3.10663,-0.0111175,0.000185301,-0.00150947,0.000383414,-0.0113156,-1.44029,0.00767476,0.0150354,1938,911,17.0263,-3.10664
721,113,17.0404,3.25043,-0.00920116,0.000320613,-0.00150888,0.000553999,-0.00943455,-1.41734,0.00648226,0.0145689,1945,911,17.0404,-3.25041
728,113,17.0958,3.42914,-0.00659548,0.000569432,-0.0014498,0.000851676,-0.00687772,-1.37852,0.00489381,0.0157846,1952,911,17.0958,-3.42912
735,113,17.0654,3.54956,-0.00371431,0.000709818,-0.0014169,0.0011247,-0.00412919,-1.28595,0.00319439,0.0155766,1959,911,17.0654,-3.54957
742,113,17.0555,3.68188,-0.000215144,0.00144118,-0.000606584,0.00163956,-0.000413528,-1.25471,0.00125383,0.0131216,1966,911,17.0555,-3.68186
749,113,17.0565,3.80945,0.00373124,0.00268264,0.00157343,0.00486542,0.00154846,0.624573,0.00287024,0.00986218,1973,911,17.0566,-3.80944
756,113,17.0599,3.89215,0.00701934,0.00471593,0.00363392,0.0096797,0.00205557,0.631939,0.00588877,0.0106456,1980,911,17.0599,-3.89213
763,113,17.032,3.99493,0.00999767,0.00719041,0.00709969,0.0158312,0.00135692,0.687805,0.0101321,0.0193963,1987,911,17.032,-3.99495
770,113,16.9902,4.11157,0.013352,0.0105979,0.0125976,0.0246476,-0.000697676,0.730959,0.0166692,0.0422951,1994,911,16.9902,-4.11157
777,113,16.9667,4.22076,0,0,0,0,0,0,0,-1,2001,911,16.9666,-4.22077
784,113,16.9247,4.26117,0,0,0,0,0,0,0,-1,2008,911,16.9247,-4.26119
791,113,18.3552,4.41083,0,0,0,0,0,0,0,-1,2015,911,18.3552,-4.41081
798,113,19.943,4.50555,0,0,0,0,0,0,0,-1,2022,911,19.943,-4.50554
805,113,0,0,0,0,0,0,0,0,0,-1,2029,911,0,0
812,113,0,0,0,0,0,0,0,0,0,-1,2036,911,0,0
-700,106,0,0,0,0,0,0,0,0,0,-1,524,918,0,0
-693,106,0,0,0,0,0,0,0,0,0,-1,531,918,0,0
-686,106,0,0,0,0,0,0,0,0,0,-1,538,918,0,0
-679,106,-9.13837,3.63501,0.0531478,0.0318781,0.0350724,0.0791623,0.00586361,0.638192,0.050933,0.0463733,545,918,-9.13837,-3.63499
-672,106,-14.3333,1.56537,0.0618753,0.016593,0.0291609,0.0761527,0.00231561,0.4553,0.0500145,0.0478598,552,918,-14.3332,-1.56535
-665,106,-13.6898,2.14764,0.0628915,0.00680373,0.0242005,0.0718898,-0.00219459,0.355983,0.0486746,0.0476808,559,918,-13.6898,-2.14763
-658,106,-13.0548,2.72101,0.0591187,0.000785734,0.0199496,0.0652888,-0.00538432,0.29995,0.0454271,0.0448847,566,918,-13.0548,-2.72103
-651,106,-10.8743,1.72174,0.0524629,-0.00259894,0.0162732,0.0569127,-0.00704875,0.26692,0.0404964,0.0457963,573,918,-10.8743,-1.72172
-644,106,-11.0042,1.72748,0.0442747,-0.0041683,0.013103,0.0475917,-0.0074853,0.24794,0.0344947,0.0436407,580,918,-11.0042,-1.7275
-637,106,-11.1754,1.72491,0.0356068,-0.00455499,0.0103678,0.0381254,-0.00707351,0.238302,0.0280734,0.0293268,587,918,-11.1754,-1.72489
-630,106,-11.2271,1.62616,0.0276726,-0.00517914,0.0074682,0.0292906,-0.0067972,0.213362,0.0221433,0.0124722,594,918,-11.227,-1.62617
-623,106,-11.2502,1.52362,0.0211003,-0.00571187,0.00527259,0.0220999,-0.00671146,0.187358,0.0174072,0.0110088,601,918,-11.2502,-1.52362
-616,106,-11.2581,1.40912,0.0136213,-0.00368678,0.00514923,0.0150374,-0.00510284,0.268371,0.0120903,0.0106857,608,918,-11.2581,-1.40909
-609,106,-11.2573,1.31128,0.00547581,-0.00215696,0.0034344,0.00679361,-0.00347476,0.366382,0.00603078,0.0103098,615,918,-11.2573,-1.31129
-602,106,-11.2632,1.19556,-0.00106956,-0.00169267,0.00213423,0.000775734,-0.00353796,0.712919,0.00265526,0.0119922,622,918,-11.2632,-1.19557
-595,106,-11.3196,1.10199,-0.00541748,-0.000973543,0.00184354,-0.000308336,-0.00608269,1.2245,0.00395635,0.0151582,629,918,-11.3196,-1.10198
-588,106,-11.3114,0.990601,-0.00745127,-0.000509393,0.00170332,-0.000113975,-0.00784669,1.34269,0.00519355,0.0166926,636,918,-11.3114,-0.990619
-581,106,-11.2313,0.872375,-0.00861714,-0.000442269,0.00145502,-0.000191016,-0.0088684,1.3998,0.00584963,0.0135989,643,918,-11.2313,-0.87237
-574,106,-11.249,0.772583,-0.00946182,-0.000381443,0.00124369,-0.000214182,-0.00962908,1.43711,0.0063492,0.0187376,650,918,-11.2489,-0.772587
-567,106,-11.7648,0.816589,-0.00957207,-0.000171455,0.00104457,-5.67841e-05,-0.00968674,1.46146,0.00643898,0.0357814,657,918,-11.7647,-0.816583
-560,106,-12.3875,0.86261,0,0,0,0,0,0,0,-1,664,918,-12.3875,-0.862583
-553,106,-12.356,0.843933,-0.0086597,0.000390478,0.000581338,0.000427668,-0.00869689,1.50691,0.00594561,0.0348877,671,918,-12.356,-0.843928
-546,106,-12.4147,0.832886,-0.00738528,0.000849049,0.000118865,0.000850764,-0.00738699,1.55637,0.00523136,0.0384914,678,918,-12.4147,-0.832863
-539,106,-12.4993,0.55719,-0.00539909,0.00139384,-0.000527118,0.0014345,-0.00543975,-1.49381,0.00418739,0.0401206,685,918,-12.4992,-0.557194
-532,106,-12.2013,0.853821,-0.00265622,0.00198635,-0.00135705,0.00235392,-0.00302379,-1.30628,0.00311284,0.042076,692,918,-12.2013,-0.85384
-525,106,-12.5363,0.503784,0.000914907,0.00255246,-0.00241463,0.00428335,-0.000815987,-0.948859,0.00316285,0.0385702,699,918,-12.5363,-0.503763
-518,106,-12.5015,0.470398,0.00462165,0.0030143,-0.00359752,0.00750417,0.00013178,-0.675504,0.00495944,0.0383557,706,918,-12.5015,-0.470394
-511,106,0,0,0,0,0,0,0,0,0,-1,713,918,0,0
-504,106,0,0,0,0,0,0,0,0,0,-1,720,918,0,0
-497,106,0,0,0,0,0,0,0,0,0,-1,727,918,0,0
-490,106,0,0,0,0,0,0,0,0,0,-1,734,918,0,0
-483,106,0,0,0,0,0,0,0,0,0,-1,741,918,0,0
-476,106,0,0,0,0,0,0,0,0,0,-1,748,918,0,0
-469,106,0,0,0,0,0,0,0,0,0,-1,755,918,0,0
-462,106,0,0,0,0,0,0,0,0,0,-1,762,918,0,0
-455,106,0,0,0,0,0,0,0,0,0,-1,769,918,0,0
-448,106,0,0,0,0,0,0,0,0,0,-1,776,918,0,0
-441,106,0,0,0,0,0,0,0,0,0,-1,783,918,0,0
-434,106,0,0,0,0,0,0,0,0,0,-1,790,918,0,0
-427,106,0,0,0,0,0,0,0,0,0,-1,797,918,0,0
-420,106,0,0,0,0,0,0,0,0,0,-1,804,918,0,0
-413,106,0,0,0,0,0,0,0,0,0,-1,811,918,0,0
-406,106,0,0,0,0,0,0,0,0,0,-1,818,918,0,0
-399,106,0,0,0,0,0,0,0,0,0,-1,825,918,0,0
-392,106,0,0,0,0,0,0,0,0,0,-1,832,918,0,0
-385,106,0,0,0,0,0,0,0,0,0,-1,839,918,0,0
-378,106,0,0,0,0,0,0,0,0,0,-1,846,918,0,0
-371,106,0,0,0,0,0,0,0,0,0,-1,853,918,0,0
-364,106,0,0,0,0,0,0,0,0,0,-1,860,918,0,0
-357,106,0,0,0,0,0,0,0,0,0,-1,867,918,0,0
-350,106,0,0,0,0,0,0,0,0,0,-1,874,918,0,0
-343,106,0,0,0,0,0,0,0,0,0,-1,881,918,0,0
-336,106,0,0,0,0,0,0,0,0,0,-1,888,918,0,0
-329,106,0,0,0,0,0,0,0,0,0,-1,895,918,0,0
-322,106,0,0,0,0,0,0,0,0,0,-1,902,918,0,0
-315,106,0,0,0,0,0,0,0,0,0,-1,909,918,0,0
-308,106,0,0,0,0,0,0,0,0,0,-1,916,918,0,0
-301,106,0,0,0,0,0,0,0,0,0,-1,923,918,0,0
-294,106,0,0,0,0,0,0,0,0,0,-1,930,918,0,0
-287,106,0,0,0,0,0,0,0,0,0,-1,937,918,0,0
-280,106,0,0,0,0,0,0,0,0,0,-1,944,918,0,0
-273,106,0,0,0,0,0,0,0,0,0,-1,951,918,0,0
-266,106,0,0,0,0,0,0,0,0,0,-1,958,918,0,0
-259,106,0,0,0,0,0,0,0,0,0,-1,965,918,0,0
-252,106,0,0,0,0,0,0,0,0,0,-1,972,918,0,0
-245,106,0,0,0,0,0,0,0,0,0,-1,979,918,0,0
-238,106,0,0,0,0,0,0,0,0,0,-1,986,918,0,0
-231,106,0,0,0,0,0,0,0,0,0,-1,993,918,0,0
-224,106,0,0,0,0,0,0,0,0,0,-1,1000,918,0,0
-217,106,0,0,0,0,0,0,0,0,0,-1,1007,918,0,0
-210,106,0,0,0,0,0,0,0,0,0,-1,1014,918,0,0
-203,106,0,0,0,0,0,0,0,0,0,-1,1021,918,0,0
-196,106,0,0,0,0,0,0,0,0,0,-1,1028,918,0,0
-189,106,0,0,0,0,0,0,0,0,0,-1,1035,918,0,0
-182,106,0,0,0,0,0,0,0,0,0,-1,1042,918,0,0
-175,106,0,0,0,0,0,0,0,0,0,-1,1049,918,0,0
-168,106,0,0,0,0,0,0,0,0,0,-1,1056,918,0,0
-161,106,0,0,0,0,0,0,0,0,0,-1,1063,918,0,0
-154,106,0,0,0,0,0,0,0,0,0,-1,1070,918,0,0
-147,106,0,0,0,0,0,0,0,0,0,-1,1077,918,0,0
-140,106,0,0,0,0,0,0,0,0,0,-1,1084,918,0,0
-133,106,0,0,0,0,0,0,0,0,0,-1,1091,918,0,0
-126,106,0,0,0,0,0,0,0,0,0,-1,1098,918,0,0
-119,106,0,0,0,0,0,0,0,0,0,-1,1105,918,0,0
-112,106,0,0,0,0,0,0,0,0,0,-1,1112,918,0,0
-105,106,0,0,0,0,0,0,0,0,0,-1,1119,918,0,0
-98,106,0,0,0,0,0,0,0,0,0,-1,1126,918,0,0
-91,106,0,0,0,0,0,0,0,0,0,-1,1133,918,0,0
-84,106,0,0,0,0,0,0,0,0,0,-1,1140,918,0,0
-77,106,0,0,0,0,0,0,0,0,0,-1,1147,918,0,0
-70,106,0,0,0,0,0,0,0,0,0,-1,1154,918,0,0
-63,106,0,0,0,0,0,0,0,0,0,-1,1161,918,0,0
-56,106,0,0,0,0,0,0,0,0,0,-1,1168,918,0,0
-49,106,0,0,0,0,0,0,0,0,0,-1,1175,918,0,0
-42,106,0,0,0,0,0,0,0,0,0,-1,1182,918,0,0
-35,106,0,0,0,0,0,0,0,0,0,-1,1189,918,0,0
-28,106,0,0,0,0,0,0,0,0,0,-1,1196,918,0,0
-21,106,0,0,0,0,0,0,0,0,0,-1,1203,918,0,0
-14,106,0,0,0,0,0,0,0,0,0,-1,1210,918,0,0
-7,106,0,0,0,0,0,0,0,0,0,-1,1217,918,0,0
0,106,0,0,0,0,0,0,0,0,0,-1,1224,918,0,0
7,106,0,0,0,0,0,0,0,0,0,-1,1231,918,0,0
14,106,0,0,0,0,0,0,0,0,0,-1,1238,918,0,0
21,106,0,0,0,0,0,0,0,0,0,-1,1245,918,0,0
28,106,0,0,0,0,0,0,0,0,0,-1,1252,918,0,0
35,106,0,0,0,0,0,0,0,0,0,-1,1259,918,0,0
42,106,0,0,0,0,0,0,0,0,0,-1,1266,918,0,0
49,106,0,0,0,0,0,0,0,0,0,-1,1273,918,0,0
56,106,0,0,0,0,0,0,0,0,0,-1,1280,918,0,0
63,106,0,0,0,0,0,0,0,0,0,-1,1287,918,0,0
70,106,0,0,0,0,0,0,0,0,0,-1,1294,918,0,0
77,106,0,0,0,0,0,0,0,0,0,-1,1301,918,0,0
84,106,0,0,0,0,0,0,0,0,0,-1,1308,918,0,0
91,106,0,0,0,0,0,0,0,0,0,-1,1315,918,0,0
98,106,0,0,0,0,0,0,0,0,0,-1,1322,918,0,0
105,106,0,0,0,0,0,0,0,0,0,-1,1329,918,0,0
112,106,0,0,0,0,0,0,0,0,0,-1,1336,918,0,0
119,106,0,0,0,0,0,0,0,0,0,-1,1343,918,0,0
126,106,0,0,0,0,0,0,0,0,0,-1,1350,918,0,0
133,106,0,0,0,0,0,0,0,0,0,-1,1357,918,0,0
140,106,0,0,0,0,0,0,0,0,0,-1,1364,918,0,0
147,106,0,0,0,0,0,0,0,0,0,-1,1371,918,0,0
154,106,0,0,0,0,0,0,0,0,0,-1,1378,918,0,0
161,106,0,0,0,0,0,0,0,0,0,-1,1385,918,0,0
168,106,0,0,0,0,0,0,0,0,0,-1,1392,918,0,0
175,106,0,0,0,0,0,0,0,0,0,-1,1399,918,0,0
182,106,0,0,0,0,0,0,0,0,0,-1,1406,918,0,0
189,106,0,0,0,0,0,0,0,0,0,-1,1413,918,0,0
196,106,0,0,0,0,0,0,0,0,0,-1,1420,918,0,0
203,106,0,0,0,0,0,0,0,0,0,-1,1427,918,0,0
210,106,0,0,0,0,0,0,0,0,0,-1,1434,918,0,0
217,106,0,0,0,0,0,0,0,0,0,-1,1441,918,0,0
224,106,0,0,0,0,0,0,0,0,0,-1,1448,918,0,0
231,106,0,0,0,0,0,0,0,0,0,-1,1455,918,0,0
238,106,0,0,0,0,0,0,0,0,0,-1,1462,918,0,0
245,106,0,0,0,0,0,0,0,0,0,-1,1469,918,0,0
252,106,0,0,0,0,0,0,0,0,0,-1,1476,918,0,0
259,106,0,0,0,0,0,0,0,0,0,-1,1483,918,0,0
266,106,0,0,0,0,0,0,0,0,0,-1,1490,918,0,0
273,106,0,0,0,0,0,0,0,0,0,-1,1497,918,0,0
280,106,0,0,0,0,0,0,0,0,0,-1,1504,918,0,0
287,106,0,0,0,0,0,0,0,0,0,-1,1511,918,0,0
294,106,0,0,0,0,0,0,0,0,0,-1,1518,918,0,0
301,106,0,0,0,0,0,0,0,0,0,-1,1525,918,0,0
308,106,0,0,0,0,0,0,0,0,0,-1,1532,918,0,0
315,106,0,0,0,0,0,0,0,0,0,-1,1539,918,0,0
322,106,0,0,0,0,0,0,0,0,0,-1,1546,918,0,0
329,106,0,0,0,0,0,0,0,0,0,-1,1553,918,0,0
336,106,0,0,0,0,0,0,0,0,0,-1,1560,918,0,0
343,106,0,0,0,0,0,0,0,0,0,-1,1567,918,0,0
350,106,0,0,0,0,0,0,0,0,0,-1,1574,918,0,0
357,106,0,0,0,0,0,0,0,0,0,-1,1581,918,0,0
364,106,0,0,0,0,0,0,0,0,0,-1,1588,918,0,0
371,106,0,0,0,0,0,0,0,0,0,-1,1595,918,0,0
378,106,0,0,0,0,0,0,0,0,0,-1,1602,918,0,0
385,106,0,0,0,0,0,0,0,0,0,-1,1609,918,0,0
392,106,0,0,0,0,0,0,0,0,0,-1,1616,918,0,0
399,106,0,0,0,0,0,0,0,0,0,-1,1623,918,0,0
406,106,0,0,0,0,0,0,0,0,0,-1,1630,918,0,0
413,106,0,0,0,0,0,0,0,0,0,-1,1637,918,0,0
420,106,0,0,0,0,0,0,0,0,0,-1,1644,918,0,0
427,106,0,0,0,0,0,0,0,0,0,-1,1651,918,0,0
434,106,0,0,0,0,0,0,0,0,0,-1,1658,918,0,0
441,106,0,0,0,0,0,0,0,0,0,-1,1665,918,0,0
448,106,0,0,0,0,0,0,0,0,0,-1,1672,918,0,0
455,106,0,0,0,0,0,0,0,0,0,-1,1679,918,0,0
462,106,0,0,0,0,0,0,0,0,0,-1,1686,918,0,0
469,106,0,0,0,0,0,0,0,0,0,-1,1693,918,0,0
476,106,0,0,0,0,0,0,0,0,0,-1,1700,918,0,0
483,106,0,0,0,0,0,0,0,0,0,-1,1707,918,0,0
490,106,0,0,0,0,0,0,0,0,0,-1,1714,918,0,0
497,106,0,0,0,0,0,0,0,0,0,-1,1721,918,0,0
504,106,0,0,0,0,0,0,0,0,0,-1,1728,918,0,0
511,106,0,0,0,0,0,0,0,0,0,-1,1735,918,0,0
518,106,0,0,0,0,0,0,0,0,0,-1,1742,918,0,0
525,106,0,0,0,0,0,0,0,0,0,-1,1749,918,0,0
532,106,0,0,0,0,0,0,0,0,0,-1,1756,918,0,0
539,106,0,0,0,0,0,0,0,0,0,-1,1763,918,0,0
546,106,0,0,0,0,0,0,0,0,0,-1,1770,918,0,0
553,106,0,0,0,0,0,0,0,0,0,-1,1777,918,0,0
560,106,0,0,0,0,0,0,0,0,0,-1,1784,918,0,0
567,106,0,0,0,0,0,0,0,0,0,-1,1791,918,0,0
574,106,0,0,0,0,0,0,0,0,0,-1,1798,918,0,0
581,106,0,0,0,0,0,0,0,0,0,-1,1805,918,0,0
588,106,0,0,0,0,0,0,0,0,0,-1,1812,918,0,0
595,106,0,0,0,0,0,0,0,0,0,-1,1819,918,0,0
602,106,0,0,0,0,0,0,0,0,0,-1,1826,918,0,0
609,106,0,0,0,0,0,0,0,0,0,-1,1833,918,0,0
616,106,0,0,0,0,0,0,0,0,0,-1,1840,918,0,0
623,106,0,0,0,0,0,0,0,0,0,-1,1847,918,0,0
630,106,19.0371,2.6897,0,0,0,0,0,0,0,-1,1854,918,19.0371,-2.68973
637,106,19.0343,2.8974,0.000492811,0.00288908,-0.00684355,0.00863858,-0.00525669,-0.872057,0.00810125,0.0403645,1861,918,19.0343,-2.89742
644,106,19.0807,2.53271,0.00155167,0.00195851,-0.00507853,0.0068377,-0.00332751,-0.805415,0.00598439,0.0382869,1868,918,19.0807,-2.53273
651,106,18.9821,2.3396,0.000398768,0.00126701,-0.00399561,0.00485202,-0.00318624,-0.839511,0.00467399,0.0410892,1875,918,18.982,-2.33959
658,106,19.1912,2.31635,-0.00232629,0.000848659,-0.00324035,0.0028695,-0.00434713,-1.01317,0.00419554,0.0425224,1882,918,19.1912,-2.31636
665,106,19.056,2.62274,-0.00538221,0.000559369,-0.00266765,0.00158132,-0.00640416,-1.20495,0.00488266,0.0415649,1889,918,19.056,-2.62276
672,106,18.9633,2.77161,-0.00792956,0.000371963,-0.00226349,0.000949013,-0.00850661,-1.32118,0.00601243,0.0384172,1896,918,18.9632,-2.7716
679,106,18.953,2.63171,-0.00985619,0.000184465,-0.00203368,0.000580736,-0.0102525,-1.37835,0.00703654,0.0316461,1903,918,18.953,-2.63173
686,106,18.8944,2.5976,-0.0111886,0.000164071,-0.00185406,0.000459195,-0.0114837,-1.41294,0.00781335,0.0294259,1910,918,18.8944,-2.59757
693,106,18.9117,2.52905,-0.0120422,9.67263e-05,-0.00145273,0.00026816,-0.0122137,-1.45333,0.00823328,0.0237463,1917,918,18.9117,-2.52906
700,106,18.3163,2.69104,0,0,0,0,0,0,0,-1,1924,918,18.3163,-2.69103
707,106,17.3591,2.95392,-0.012063,0.000124949,-0.00101744,0.0002093,-0.0121474,-1.48808,0.0081689,0.0360903,1931,918,17.3591,-2.95393
714,106,17.1808,3.11383,-0.0109629,0.000243833,-0.00118271,0.000367291,-0.0110863,-1.46679,0.00751631,0.017314,1938,918,17.1808,-3.11383
721,106,17.2147,3.26129,-0.00920666,0.00036912,-0.00122512,0.000523376,-0.00936092,-1.44554,0.00642218,0.0162128,1945,918,17.2147,-3.26127
728,106,17.2535,3.42688,-0.00677382,0.000663698,-0.00125513,0.000869797,-0.00697992,-1.40804,0.00496865,0.0160593,1952,918,17.2535,-3.42688
735,106,17.2227,3.54437,-0.00408945,0.000863394,-0.00137537,0.00121969,-0.00444575,-1.31731,0.00344318,0.0150436,1959,918,17.2227,-3.54436
742,106,17.203,3.66553,-0.000786986,0.0017324,-0.000681693,0.00190503,-0.000959609,-1.32278,0.00168366,0.0114735,1966,918,17.203,-3.66553
749,106,17.1926,3.79236,0.00293584,0.00311854,0.00118855,0.00421924,0.00183514,0.823751,0.00244284,0.00891396,1973,918,17.1926,-3.79236
756,106,17.1832,3.90094,0.00606974,0.0056611,0.00273745,0.00861049,0.00312035,0.748147,0.00503364,0.00967452,1980,918,17.1832,-3.90096
763,106,17.1769,4.01074,0.00902287,0.00867583,0.00556126,0.0144133,0.00328538,0.769803,0.00872249,0.015722,1987,918,17.1769,-4.01077
770,106,17.2256,4.12482,0.0121249,0.0128483,0.010051,0.0225442,0.00242911,0.803383,0.0142887,0.0349027,1994,918,17.2256,-4.12482
777,106,17.298,4.23834,0.0160936,0.0186522,0.0170761,0.0344968,0.000248956,0.822787,0.0229153,0.0480073,2001,918,17.298,-4.23833
784,106,18.8516,4.56805,0,0,0,0,0,0,0,-1,2008,918,18.8516,-4.56805
791,106,19.6857,4.5639,0,0,0,0,0,0,0,-1,2015,918,19.6856,-4.56387
798,106,20.3682,4.48907,0,0,0,0,0,0,0,-1,2022,918,20.3682,-4.48905
805,106,0,0,0,0,0,0,0,0,0,-1,2029,918,0,0
812,106,0,0,0,0,0,0,0,0,0,-1,2036,918,0,0
-700,99,0,0,0,0,0,0,0,0,0,-1,524,925,0,0
-693,99,0,0,0,0,0,0,0,0,0,-1,531,925,0,0
-686,99,0,0,0,0,0,0,0,0,0,-1,538,925,0,0
-679,99,-10.1205,2.66174,0.0427769,0.0436844,0.0377434,0.0809767,0.0054845,0.791409,0.0522524,0.0439384,545,925,-10.1205,-2.66175
-672,99,-10.0748,3.41443,0.0508819,0.0277502,0.0304966,0.0719322,0.0066999,0.604152,0.0458848,0.0464268,552,925,-10.0748,-3.41442
-665,99,-13.995,2.3327,0,0,0,0,0,0,0,-1,559,925,-13.995,-2.33272
-658,99,-13.4207,2.70728,0.0498426,0.00943332,0.0196899,0.05785,0.00142588,0.386249,0.0381003,0.0466598,566,925,-13.4207,-2.7073
-651,99,-12.8201,3.08392,0.0446361,0.00459761,0.0156084,0.0500017,-0.000767997,0.33111,0.0335934,0.0465997,573,925,-12.8201,-3.08394
-644,99,-10.9821,1.48035,0.0379681,0.00160259,0.0122266,0.0416966,-0.00212587,0.29599,0.0285327,0.0462693,580,925,-10.982,-1.48036
-637,99,-11.2358,1.6684,0.0307365,-0.00010094,0.00942651,0.0333898,-0.00275419,0.274368,0.0232324,0.0295242,587,925,-11.2358,-1.66841
-630,99,-11.3369,1.6084,0.0240655,-0.0019047,0.00644448,0.0255768,-0.00341595,0.230341,0.0182964,0.0133317,594,925,-11.3369,-1.60839
-623,99,-11.382,1.51575,0.0183439,-0.0033897,0.00421597,0.0191331,-0.00417887,0.185045,0.0143526,0.00807631,601,925,-11.382,-1.51576
-616,99,-11.3867,1.41504,0.0115763,-0.00205171,0.00428946,0.012814,-0.00328941,0.280916,0.00982446,0.00914211,608,925,-11.3867,-1.41506
-609,99,-11.3792,1.31329,0.00441679,-0.00128352,0.00275493,0.0055306,-0.00239733,0.384205,0.00469484,0.00960209,615,925,-11.3792,-1.31331
-602,99,-11.3749,1.21747,-0.0014792,-0.00117796,0.00161529,0.000293716,-0.00295087,0.831887,0.0020721,0.00989087,622,925,-11.3749,-1.21748
-595,99,-11.4176,1.12903,-0.00555425,-0.000610528,0.00140424,-0.000239504,-0.00592528,1.31248,0.00387282,0.0129994,629,925,-11.4176,-1.12906
-588,99,-11.4092,1.01447,-0.00747527,-0.000234403,0.00131722,-2.22633e-06,-0.00770745,1.39633,0.00513756,0.0128013,636,925,-11.4093,-1.01448
-581,99,-11.3538,0.884094,-0.00851287,-0.000122545,0.00101339,-1.8836e-06,-0.00863353,1.45229,0.00575506,0.0105382,643,925,-11.3538,-0.88408
-574,99,-11.4611,0.771545,-0.0092676,-2.20389e-05,0.000732801,3.56822e-05,-0.00932532,1.49219,0.00622881,0.0156633,650,925,-11.461,-0.771537
-567,99,-11.9053,0.630554,-0.00932249,0.000224945,0.000485291,0.000249549,-0.00934709,1.52014,0.00631622,0.0354643,657,925,-11.9054,-0.630565
-560,99,-12.348,0.500305,0,0,0,0,0,0,0,-1,664,925,-12.3479,-0.500322
-553,99,-12.3241,0.761902,-0.00830938,0.000886471,-8.25834e-05,0.000887213,-0.00831012,-1.56182,0.00585825,0.03725,671,925,-12.3241,-0.761898
-546,99,-12.3353,0.707092,-0.00698814,0.00137701,-0.000605247,0.00142057,-0.0070317,-1.49894,0.00522608,0.0415742,678,925,-12.3353,-0.707096
-539,99,-12.0875,0.816406,0,0,0,0,0,0,0,-1,685,925,-12.0875,-0.816429
-532,99,-12.1667,0.918152,-0.00235679,0.00252491,-0.0021837,0.00335916,-0.00319104,-1.20587,0.00378218,0.0424527,692,925,-12.1667,-0.918152
-525,99,-12.5497,0.726135,0.00095245,0.00307034,-0.00328851,0.0054662,-0.00144341,-0.941162,0.0042086,0.0404884,699,925,-12.5497,-0.726127
-518,99,-12.5429,0.315735,0.00391693,0.00352585,-0.00449696,0.0082226,-0.000779815,-0.763671,0.00575929,0.0409546,706,925,-12.5429,-0.315741
-511,99,0,0,0,0,0,0,0,0,0,-1,713,925,0,0
-504,99,0,0,0,0,0,0,0,0,0,-1,720,925,0,0
-497,99,0,0,0,0,0,0,0,0,0,-1,727,925,0,0
-490,99,0,0,0,0,0,0,0,0,0,-1,734,925,0,0
-483,99,0,0,0,0,0,0,0,0,0,-1,741,925,0,0
-476,99,0,0,0,0,0,0,0,0,0,-1,748,925,0,0
-469,99,0,0,0,0,0,0,0,0,0,-1,755,925,0,0
-462,99,0,0,0,0,0,0,0,0,0,-1,762,925,0,0
-455,99,0,0,0,0,0,0,0,0,0,-1,769,925,0,0
-448,99,0,0,0,0,0,0,0,0,0,-1,776,925,0,0
-441,99,0,0,0,0,0,0,0,0,0,-1,783,925,0,0
-434,99,0,0,0,0,0,0,0,0,0,-1,790,925,0,0
-427,99,0,0,0,0,0,0,0,0,0,-1,797,925,0,0
-420,99,0,0,0,0,0,0,0,0,0,-1,804,925,0,0
-413,99,0,0,0,0,0,0,0,0,0,-1,811,925,0,0
-406,99,0,0,0,0,0,0,0,0,0,-1,818,925,0,0
-399,99,0,0,0,0,0,0,0,0,0,-1,825,925,0,0
-392,99,0,0,0,0,0,0,0,0,0,-1,832,925,0,0
-385,99,0,0,0,0,0,0,0,0,0,-1,839,925,0,0
-378,99,0,0,0,0,0,0,0,0,0,-1,846,925,0,0
-371,99,0,0,0,0,0,0,0,0,0,-1,853,925,0,0
-364,99,0,0,0,0,0,0,0,0,0,-1,860,925,0,0
-357,99,0,0,0,0,0,0,0,0,0,-1,867,925,0,0
-350,99,0,0,0,0,0,0,0,0,0,-1,874,925,0,0
-343,99,0,0,0,0,0,0,0,0,0,-1,881,925,0,0
-336,99,0,0,0,0,0,0,0,0,0,-1,888,925,0,0
-329,99,0,0,0,0,0,0,0,0,0,-1,895,925,0,0
-322,99,0,0,0,0,0,0,0,0,0,-1,902,925,0,0
-315,99,0,0,0,0,0,0,0,0,0,-1,909,925,0,0
-308,99,0,0,0,0,0,0,0,0,0,-1,916,925,0,0
-301,99,0,0,0,0,0,0,0,0,0,-1,923,925,0,0
-294,99,0,0,0,0,0,0,0,0,0,-1,930,925,0,0
-287,99,0,0,0,0,0,0,0,0,0,-1,937,925,0,0
-280,99,0,0,0,0,0,0,0,0,0,-1,944,925,0,0
-273,99,0,0,0,0,0,0,0,0,0,-1,951,925,0,0
-266,99,0,0,0,0,0,0,0,0,0,-1,958,925,0,0
-259,99,0,0,0,0,0,0,0,0,0,-1,965,925,0,0
-252,99,0,0,0,0,0,0,0,0,0,-1,972,925,0,0
-245,99,0,0,0,0,0,0,0,0,0,-1,979,925,0,0
-238,99,0,0,0,0,0,0,0,0,0,-1,986,925,0,0
-231,99,0,0,0,0,0,0,0,0,0,-1,993,925,0,0
-224,99,0,0,0,0,0,0,0,0,0,-1,1000,925,0,0
-217,99,0,0,0,0,0,0,0,0,0,-1,1007,925,0,0
-210,99,0,0,0,0,0,0,0,0,0,-1,1014,925,0,0
-203,99,0,0,0,0,0,0,0,0,0,-1,1021,925,0,0
-196,99,0,0,0,0,0,0,0,0,0,-1,1028,925,0,0
-189,99,0,0,0,0,0,0,0,0,0,-1,1035,925,0,0
-182,99,0,0,0,0,0,0,0,0,0,-1,1042,925,0,0
-175,99,0,0,0,0,0,0,0,0,0,-1,1049,925,0,0
-168,99,0,0,0,0,0,0,0,0,0,-1,1056,925,0,0
-161,99,0,0,0,0,0,0,0,0,0,-1,1063,925,0,0
-154,99,0,0,0,0,0,0,0,0,0,-1,1070,925,0,0
-147,99,0,0,0,0,0,0,0,0,0,-1,1077,925,0,0
-140,99,0,0,0,0,0,0,0,0,0,-1,1084,925,0,0
-133,99,0,0,0,0,0,0,0,0,0,-1,1091,925,0,0
-126,99,0,0,0,0,0,0,0,0,0,-1,1098,925,0,0
-119,99,0,0,0,0,0,0,0,0,0,-1,1105,925,0,0
-112,99,0,0,0,0,0,0,0,0,0,-1,1112,925,0,0
-105,99,0,0,0,0,0,0,0,0,0,-1,1119,925,0,0
-98,99,0,0,0,0,0,0,0,0,0,-1,1126,925,0,0
-91,99,0,0,0,0,0,0,0,0,0,-1,1133,925,0,0
-84,99,0,0,0,0,0,0,0,0,0,-1,1140,925,0,0
-77,99,0,0,0,0,0,0,0,0,0,-1,1147,925,0,0
-70,99,0,0,0,0,0,0,0,0,0,-1,1154,925,0,0
-63,99,0,0,0,0,0,0,0,0,0,-1,1161,925,0,0
-56,99,0,0,0,0,0,0,0,0,0,-1,1168,925,0,0
-49,99,0,0,0,0,0,0,0,0,0,-1,1175,925,0,0
-42,99,0,0,0,0,0,0,0,0,0,-1,1182,925,0,0
-35,99,0,0,0,0,0,0,0,0,0,-1,1189,925,0,0
-28,99,0,0,0,0,0,0,0,0,0,-1,1196,925,0,0
-21,99,0,0,0,0,0,0,0,0,0,-1,1203,925,0,0
-14,99,0,0,0,0,0,0,0,0,0,-1,1210,925,0,0
-7,99,0,0,0,0,0,0,0,0,0,-1,1217,925,0,0
0,99,0,0,0,0,0,0,0,0,0,-1,1224,925,0,0
7,99,0,0,0,0,0,0,0,0,0,-1,1231,925,0,0
14,99,0,0,0,0,0,0,0,0,0,-1,1238,925,0,0
21,99,0,0,0,0,0,0,0,0,0,-1,1245,925,0,0
28,99,0,0,0,0,0,0,0,0,0,-1,1252,925,0,0
35,99,0,0,0,0,0,0,0,0,0,-1,1259,925,0,0
42,99,0,0,0,0,0,0,0,0,0,-1,1266,925,0,0
49,99,0,0,0,0,0,0,0,0,0,-1,1273,925,0,0
56,99,0,0,0,0,0,0,0,0,0,-1,1280,925,0,0
63,99,0,0,0,0,0,0,0,0,0,-1,1287,925,0,0
70,99,0,0,0,0,0,0,0,0,0,-1,1294,925,0,0
77,99,0,0,0,0,0,0,0,0,0,-1,1301,925,0,0
84,99,0,0,0,0,0,0,0,0,0,-1,1308,925,0,0
91,99,0,0,0,0,0,0,0,0,0,-1,1315,925,0,0
98,99,0,0,0,0,0,0,0,0,0,-1,1322,925,0,0
105,99,0,0,0,0,0,0,0,0,0,-1,1329,925,0,0
112,99,0,0,0,0,0,0,0,0,0,-1,1336,925,0,0
119,99,0,0,0,0,0,0,0,0,0,-1,1343,925,0,0
126,99,0,0,0,0,0,0,0,0,0,-1,1350,925,0,0
133,99,0,0,0,0,0,0,0,0,0,-1,1357,925,0,0
140,99,0,0,0,0,0,0,0,0,0,-1,1364,925,0,0
147,99,0,0,0,0,0,0,0,0,0,-1,1371,925,0,0
154,99,0,0,0,0,0,0,0,0,0,-1,1378,925,0,0
161,99,0,0,0,0,0,0,0,0,0,-1,1385,925,0,0
168,99,0,0,0,0,0,0,0,0,0,-1,1392,925,0,0
175,99,0,0,0,0,0,0,0,0,0,-1,1399,925,0,0
182,99,0,0,0,0,0,0,0,0,0,-1,1406,925,0,0
189,99,0,0,0,0,0,0,0,0,0,-1,1413,925,0,0
196,99,0,0,0,0,0,0,0,0,0,-1,1420,925,0,0
203,99,0,0,0,0,0,0,0,0,0,-1,1427,925,0,0
210,99,0,0,0,0,0,0,0,0,0,-1,1434,925,0,0
217,99,0,0,0,0,0,0,0,0,0,-1,1441,925,0,0
224,99,0,0,0,0,0,0,0,0,0,-1,1448,925,0,0
231,99,0,0,0,0,0,0,0,0,0,-1,1455,925,0,0
238,99,0,0,0,0,0,0,0,0,0,-1,1462,925,0,0
245,99,0,0,0,0,0,0,0,0,0,-1,1469,925,0,0
252,99,0,0,0,0,0,0,0,0,0,-1,1476,925,0,0
259,99,0,0,0,0,0,0,0,0,0,-1,1483,925,0,0
266,99,0,0,0,0,0,0,0,0,0,-1,1490,925,0,0
273,99,0,0,0,0,0,0,0,0,0,-1,1497,925,0,0
280,99,0,0,0,0,0,0,0,0,0,-1,1504,925,0,0
287,99,0,0,0,0,0,0,0,0,0,-1,1511,925,0,0
294,99,0,0,0,0,0,0,0,0,0,-1,1518,925,0,0
301,99,0,0,0,0,0,0,0,0,0,-1,1525,925,0,0
308,99,0,0,0,0,0,0,0,0,0,-1,1532,925,0,0
315,99,0,0,0,0,0,0,0,0,0,-1,1539,925,0,0
322,99,0,0,0,0,0,0,0,0,0,-1,1546,925,0,0
329,99,0,0,0,0,0,0,0,0,0,-1,1553,925,0,0
336,99,0,0,0,0,0,0,0,0,0,-1,1560,925,0,0
343,99,0,0,0,0,0,0,0,0,0,-1,1567,925,0,0
350,99,0,0,0,0,0,0,0,0,0,-1,1574,925,0,0
357,99,0,0,0,0,0,0,0,0,0,-1,1581,925,0,0
364,99,0,0,0,0,0,0,0,0,0,-1,1588,925,0,0
371,99,0,0,0,0,0,0,0,0,0,-1,1595,925,0,0
378,99,0,0,0,0,0,0,0,0,0,-1,1602,925,0,0
385,99,0,0,0,0,0,0,0,0,0,-1,1609,925,0,0
392,99,0,0,0,0,0,0,0,0,0,-1,1616,925,0,0
399,99,0,0,0,0,0,0,0,0,0,-1,1623,925,0,0
406,99,0,0,0,0,0,0,0,0,0,-1,1630,925,0,0
413,99,0,0,0,0,0,0,0,0,0,-1,1637,925,0,0
420,99,0,0,0,0,0,0,0,0,0,-1,1644,925,0,0
427,99,0,0,0,0,0,0,0,0,0,-1,1651,925,0,0
434,99,0,0,0,0,0,0,0,0,0,-1,1658,925,0,0
441,99,0,0,0,0,0,0,0,0,0,-1,1665,925,0,0
448,99,0,0,0,0,0,0,0,0,0,-1,1672,925,0,0
455,99,0,0,0,0,0,0,0,0,0,-1,1679,925,0,0
462,99,0,0,0,0,0,0,0,0,0,-1,1686,925,0,0
469,99,0,0,0,0,0,0,0,0,0,-1,1693,925,0,0
476,99,0,0,0,0,0,0,0,0,0,-1,1700,925,0,0
483,99,0,0,0,0,0,0,0,0,0,-1,1707,925,0,0
490,99,0,0,0,0,0,0,0,0,0,-1,1714,925,0,0
497,99,0,0,0,0,0,0,0,0,0,-1,1721,925,0,0
504,99,0,0,0,0,0,0,0,0,0,-1,1728,925,0,0
511,99,0,0,0,0,0,0,0,0,0,-1,1735,925,0,0
518,99,0,0,0,0,0,0,0,0,0,-1,1742,925,0,0
525,99,0,0,0,0,0,0,0,0,0,-1,1749,925,0,0
532,99,0,0,0,0,0,0,0,0,0,-1,1756,925,0,0
539,99,0,0,0,0,0,0,0,0,0,-1,1763,925,0,0
546,99,0,0,0,0,0,0,0,0,0,-1,1770,925,0,0
553,99,0,0,0,0,0,0,0,0,0,-1,1777,925,0,0
560,99,0,0,0,0,0,0,0,0,0,-1,1784,925,0,0
567,99,0,0,0,0,0,0,0,0,0,-1,1791,925,0,0
574,99,0,0,0,0,0,0,0,0,0,-1,1798,925,0,0
581,99,0,0,0,0,0,0,0,0,0,-1,1805,925,0,0
588,99,0,0,0,0,0,0,0,0,0,-1,1812,925,0,0
595,99,0,0,0,0,0,0,0,0,0,-1,1819,925,0,0
602,99,0,0,0,0,0,0,0,0,0,-1,1826,925,0,0
609,99,0,0,0,0,0,0,0,0,0,-1,1833,925,0,0
616,99,0,0,0,0,0,0,0,0,0,-1,1840,925,0,0
623,99,0,0,0,0,0,0,0,0,0,-1,1847,925,0,0
630,99,0,0,0,0,0,0,0,0,0,-1,1854,925,0,0
637,99,19.0481,2.79999,7.31674e-05,0.00452094,-0.00701341,0.00965461,-0.0050605,-0.938929,0.00863269,0.0427541,1861,925,19.048,-2.8
644,99,19.0138,2.45624,0.00107821,0.00307704,-0.00496595,0.00714314,-0.0029879,-0.884699,0.00601092,0.0374295,1868,925,19.0138,-2.45624
651,99,18.9945,2.34888,0.000224213,0.00201379,-0.0037138,0.00493908,-0.00270107,-0.903613,0.00447368,0.0390492,1875,925,18.9945,-2.34887
658,99,18.9927,2.46918,-0.00216255,0.00132903,-0.00282724,0.00290605,-0.00373957,-1.06199,0.0038469,0.0402041,1882,925,18.9926,-2.46916
665,99,19.0028,2.58142,-0.00504478,0.000886792,-0.00216921,0.00159543,-0.00575342,-1.25505,0.0044635,0.0407059,1889,925,19.0028,-2.58142
672,99,19.0883,2.60809,-0.00752814,0.000613196,-0.00172194,0.000962417,-0.00787736,-1.3707,0.00560001,0.0394188,1896,925,19.0883,-2.60809
679,99,19.0081,2.59802,-0.00942761,0.000397463,-0.00146055,0.000609984,-0.00964013,-1.4263,0.00663943,0.0343759,1903,925,19.008,-2.59805
686,99,18.8816,2.66577,-0.0107201,0.000345248,-0.00128346,0.000492165,-0.010867,-1.45682,0.00741419,0.0296423,1910,925,18.8815,-2.66575
693,99,18.8733,2.61816,-0.0115057,0.000244027,-0.000927983,0.000316866,-0.0115785,-1.49246,0.00782677,0.0237028,1917,925,18.8733,-2.61813
700,99,18.7244,2.56305,0,0,0,0,0,0,0,-1,1924,925,18.7244,-2.56302
707,99,17.7323,2.94666,-0.0115289,0.000314967,-0.000622653,0.000347611,-0.0115615,-1.51842,0.00782613,0.038032,1931,925,17.7323,-2.94665
714,99,17.3773,3.14417,-0.0105526,0.000435173,-0.000812954,0.000494996,-0.0106124,-1.49734,0.0072456,0.0175315,1938,925,17.3773,-3.14418
721,99,17.3264,3.26196,-0.00899375,0.000548027,-0.000908837,0.000633821,-0.00907954,-1.47668,0.00627498,0.0187208,1945,925,17.3264,-3.26194
728,99,17.3499,3.40619,-0.00681782,0.000849481,-0.000999586,0.000977654,-0.006946,-1.44327,0.00498859,0.0155116,1952,925,17.3498,-3.4062
735,99,17.3591,3.52844,-0.00448565,0.00100889,-0.00120492,0.00126151,-0.00473827,-1.36413,0.0036527,0.0141348,1959,925,17.3591,-3.52844
742,99,17.347,3.64832,-0.00157822,0.00186446,-0.000597782,0.00196531,-0.00167906,-1.40367,0.00210624,0.01176,1966,925,17.3471,-3.64832
749,99,17.3228,3.76605,0.00163439,0.0031055,0.000783612,0.0034447,0.0012952,1.16229,0.00200908,0.00953182,1973,925,17.3227,-3.76608
756,99,17.3035,3.8692,0.0042618,0.00578432,0.00157701,0.0067742,0.00327193,1.01026,0.00391184,0.0103366,1980,925,17.3034,-3.86919
763,99,17.3129,3.96863,0.00675379,0.00877598,0.00353531,0.0114419,0.00408783,0.92468,0.00669513,0.0118796,1987,925,17.3129,-3.96861
770,99,17.3892,4.0802,0.00900234,0.0129869,0.00668956,0.0179745,0.00401468,0.930125,0.0108942,0.0249491,1994,925,17.3892,-4.08019
777,99,18.2623,4.2569,0.011634,0.0188096,0.0116559,0.0274174,0.00302623,0.934702,0.0173577,0.0415815,2001,925,18.2624,-4.25692
784,99,19.0161,4.43689,0,0,0,0,0,0,0,-1,2008,925,19.0161,-4.43688
791,99,19.8964,4.37549,0.0191421,0.0370987,0.0301082,0.0595388,-0.00329795,0.930301,0.0408363,0.0492934,2015,925,19.8964,-4.37549
798,99,20.822,4.32269,0.0242053,0.0506839,0.0454334,0.0847676,-0.00987843,0.927173,0.0600759,0.0466174,2022,925,20.8221,-4.32268
805,99,0,0,0,0,0,0,0,0,0,-1,2029,925,0,0
812,99,0,0,0,0,0,0,0,0,0,-1,2036,925,0,0
-700,92,0,0,0,0,0,0,0,0,0,-1,524,932,0,0
-693,92,0,0,0,0,0,0,0,0,0,-1,531,932,0,0
-686,92,-11.3967,0.788696,0.0158004,0.0736483,0.0517467,0.104006,-0.0145573,1.04024,0.0746643,0.0411973,538,932,-11.3967,-0.788701
-679,92,-10.982,1.50159,0.0316826,0.0513486,0.0408502,0.0835326,-0.000501323,0.903506,0.0558563,0.0435624,545,932,-10.982,-1.50156
-672,92,-11.0988,2.20911,0,0,0,0,0,0,0,-1,552,932,-11.0988,-2.2091
-665,92,-14.1946,2.37946,0,0,0,0,0,0,0,-1,559,932,-14.1946,-2.37946
-658,92,-13.6063,2.73499,0.0400456,0.0155274,0.0198551,0.0511213,0.00445174,0.508831,0.0326981,0.0453586,566,932,-13.6063,-2.73499
-651,92,-12.8502,2.8092,0.0363855,0.00966094,0.015324,0.0433549,0.00269158,0.426838,0.0280492,0.0443842,573,932,-12.8502,-2.80921
-644,92,-11.2036,1.70685,0.0313265,0.00563865,0.0116825,0.0358448,0.00112031,0.369041,0.023532,0.0440375,580,932,-11.2036,-1.70684
-637,92,-11.3481,1.67297,0.0255968,0.00299651,0.00876447,0.0285974,-4.01307e-06,0.329844,0.0190662,0.0234424,587,932,-11.3481,-1.673
-630,92,-11.4422,1.60156,0.0201924,0.000378624,0.00566952,0.0217,-0.00112895,0.259894,0.0148573,0.0118096,594,932,-11.4422,-1.60159
-623,92,-11.4752,1.50232,0.0153521,-0.00172773,0.00336672,0.0159918,-0.00236741,0.187763,0.0115316,0.00824714,601,932,-11.4752,-1.50229
-616,92,-11.4799,1.40668,0.00940565,-0.000907528,0.0035051,0.0104841,-0.00198601,0.298497,0.00773687,0.0077619,608,932,-11.4799,-1.40668
-609,92,-11.4855,1.30615,0.00329158,-0.000657555,0.00212862,0.00422045,-0.00158642,0.411462,0.00346566,0.00823475,615,932,-11.4855,-1.30614
-602,92,-11.4699,1.21222,-0.00191594,-0.000792515,0.00112937,-9.28853e-05,-0.00261557,1.01617,0.00171359,0.00860021,622,932,-11.4699,-1.2122
-595,92,-11.4135,1.10217,-0.00569175,-0.000379613,0.000994784,-0.000199435,-0.00587192,1.39162,0.00384986,0.0139338,629,932,-11.4135,-1.10219
-588,92,-11.409,1.01038,-0.00748433,-0.000102982,0.000957943,1.93131e-05,-0.00760662,1.44382,0.00507753,0.0152519,636,932,-11.409,-1.01037
-581,92,-11.4366,0.915344,-0.00843467,6.62896e-06,0.00064415,5.55008e-05,-0.00848354,1.49507,0.00567429,0.0134597,643,932,-11.4366,-0.915338
-574,92,-11.6721,0.81543,-0.00915248,0.000110335,0.000324571,0.000121694,-0.00916384,1.53581,0.00615019,0.0214542,650,932,-11.672,-0.815447
-567,92,-12.1076,0.590942,-0.00921176,0.000361855,4.99638e-05,0.000362116,-0.00921202,1.56558,0.00626554,0.0385898,657,932,-12.1076,-0.59093
-560,92,-12.2233,0.525024,-0.00889779,0.000658359,-0.000195481,0.000662357,-0.00890179,-1.55035,0.00616718,0.0352,664,932,-12.2233,-0.525043
-553,92,-12.2695,0.557617,-0.00814723,0.00108795,-0.000610148,0.00112809,-0.00818736,-1.50511,0.00587051,0.038317,671,932,-12.2695,-0.557627
-546,92,-12.2234,0.649353,-0.00676751,0.00162355,-0.00120082,0.00179201,-0.00693597,-1.43142,0.00532284,0.0389432,678,932,-12.2234,-0.649375
-539,92,-12.1603,0.780884,-0.00473635,0.002248,-0.00199433,0.00277735,-0.00526569,-1.31135,0.00471715,0.0381841,685,932,-12.1603,-0.780876
-532,92,-12.1783,0.897583,-0.00203587,0.00292669,-0.00301084,0.00434693,-0.00345611,-1.13003,0.00451486,0.0420225,692,932,-12.1784,-0.89757
-525,92,-12.3311,0.872314,0.00119522,0.00362835,-0.00432485,0.00690449,-0.00208092,-0.922504,0.00543118,0.039764,699,932,-12.3311,-0.872294
-518,92,-12.2253,0.939331,0.00375965,0.0043546,-0.00584391,0.0099086,-0.00179435,-0.810828,0.00727796,0.0415857,706,932,-12.2253,-0.939358
-511,92,0,0,0,0,0,0,0,0,0,-1,713,932,0,0
-504,92,0,0,0,0,0,0,0,0,0,-1,720,932,0,0
-497,92,0,0,0,0,0,0,0,0,0,-1,727,932,0,0
-490,92,0,0,0,0,0,0,0,0,0,-1,734,932,0,0
-483,92,0,0,0,0,0,0,0,0,0,-1,741,932,0,0
-476,92,0,0,0,0,0,0,0,0,0,-1,748,932,0,0
-469,92,0,0,0,0,0,0,0,0,0,-1,755,932,0,0
-462,92,0,0,0,0,0,0,0,0,0,-1,762,932,0,0
-455,92,0,0,0,0,0,0,0,0,0,-1,769,932,0,0
-448,92,0,0,0,0,0,0,0,0,0,-1,776,932,0,0
-441,92,0,0,0,0,0,0,0,0,0,-1,783,932,0,0
-434,92,0,0,0,0,0,0,0,0,0,-1,790,932,0,0
-427,92,0,0,0,0,0,0,0,0,0,-1,797,932,0,0
-420,92,0,0,0,0,0,0,0,0,0,-1,804,932,0,0
-413,92,0,0,0,0,0,0,0,0,0,-1,811,932,0,0
-406,92,0,0,0,0,0,0,0,0,0,-1,818,932,0,0
-399,92,0,0,0,0,0,0,0,0,0,-1,825,932,0,0
-392,92,0,0,0,0,0,0,0,0,0,-1,832,932,0,0
-385,92,0,0,0,0,0,0,0,0,0,-1,839,932,0,0
-378,92,0,0,0,0,0,0,0,0,0,-1,846,932,0,0
-371,92,0,0,0,0,0,0,0,0,0,-1,853,932,0,0
-364,92,0,0,0,0,0,0,0,0,0,-1,860,932,0,0
-357,92,0,0,0,0,0,0,0,0,0,-1,867,932,0,0
-350,92,0,0,0,0,0,0,0,0,0,-1,874,932,0,0
-343,92,0,0,0,0,0,0,0,0,0,-1,881,932,0,0
-336,92,0,0,0,0,0,0,0,0,0,-1,888,932,0,0
-329,92,0,0,0,0,0,0,0,0,0,-1,895,932,0,0
-322,92,0,0,0,0,0,0,0,0,0,-1,902,932,0,0
-315,92,0,0,0,0,0,0,0,0,0,-1,909,932,0,0
-308,92,0,0,0,0,0,0,0,0,0,-1,916,932,0,0
-301,92,0,0,0,0,0,0,0,0,0,-1,923,932,0,0
-294,92,0,0,0,0,0,0,0,0,0,-1,930,932,0,0
-287,92,0,0,0,0,0,0,0,0,0,-1,937,932,0,0
-280,92,0,0,0,0,0,0,0,0,0,-1,944,932,0,0
-273,92,0,0,0,0,0,0,0,0,0,-1,951,932,0,0
-266,92,0,0,0,0,0,0,0,0,0,-1,958,932,0,0
-259,92,0,0,0,0,0,0,0,0,0,-1,965,932,0,0
-252,92,0,0,0,0,0,0,0,0,0,-1,972,932,0,0
-245,92,0,0,0,0,0,0,0,0,0,-1,979,932,0,0
-238,92,0,0,0,0,0,0,0,0,0,-1,986,932,0,0
-231,92,0,0,0,0,0,0,0,0,0,-1,993,932,0,0
-224,92,0,0,0,0,0,0,0,0,0,-1,1000,932,0,0
-217,92,0,0,0,0,0,0,0,0,0,-1,1007,932,0,0
-210,92,0,0,0,0,0,0,0,0,0,-1,1014,932,0,0
-203,92,0,0,0,0,0,0,0,0,0,-1,1021,932,0,0
-196,92,0,0,0,0,0,0,0,0,0,-1,1028,932,0,0
-189,92,0,0,0,0,0,0,0,0,0,-1,1035,932,0,0
-182,92,0,0,0,0,0,0,0,0,0,-1,1042,932,0,0
-175,92,0,0,0,0,0,0,0,0,0,-1,1049,932,0,0
-168,92,0,0,0,0,0,0,0,0,0,-1,1056,932,0,0
-161,92,0,0,0,0,0,0,0,0,0,-1,1063,932,0,0
-154,92,0,0,0,0,0,0,0,0,0,-1,1070,932,0,0
-147,92,0,0,0,0,0,0,0,0,0,-1,1077,932,0,0
-140,92,0,0,0,0,0,0,0,0,0,-1,1084,932,0,0
-133,92,0,0,0,0,0,0,0,0,0,-1,1091,932,0,0
-126,92,0,0,0,0,0,0,0,0,0,-1,1098,932,0,0
-119,92,0,0,0,0,0,0,0,0,0,-1,1105,932,0,0
-112,92,0,0,0,0,0,0,0,0,0,-1,1112,932,0,0
-105,92,0,0,0,0,0,0,0,0,0,-1,1119,932,0,0
-98,92,0,0,0,0,0,0,0,0,0,-1,1126,932,0,0
-91,92,0,0,0,0,0,0,0,0,0,-1,1133,932,0,0
-84,92,0,0,0,0,0,0,0,0,0,-1,1140,932,0,0
-77,92,0,0,0,0,0,0,0,0,0,-1,1147,932,0,0
-70,92,0,0,0,0,0,0,0,0,0,-1,1154,932,0,0
-63,92,0,0,0,0,0,0,0,0,0,-1,1161,932,0,0
-56,92,0,0,0,0,0,0,0,0,0,-1,1168,932,0,0
-49,92,0,0,0,0,0,0,0,0,0,-1,1175,932,0,0
-42,92,0,0,0,0,0,0,0,0,0,-1,1182,932,0,0
-35,92,0,0,0,0,0,0,0,0,0,-1,1189,932,0,0
-28,92,0,0,0,0,0,0,0,0,0,-1,1196,932,0,0
-21,92,0,0,0,0,0,0,0,0,0,-1,1203,932,0,0
-14,92,0,0,0,0,0,0,0,0,0,-1,1210,932,0,0
-7,92,0,0,0,0,0,0,0,0,0,-1,1217,932,0,0
0,92,0,0,0,0,0,0,0,0,0,-1,1224,932,0,0
7,92,0,0,0,0,0,0,0,0,0,-1,1231,932,0,0
14,92,0,0,0,0,0,0,0,0,0,-1,1238,932,0,0
21,92,0,0,0,0,0,0,0,0,0,-1,1245,932,0,0
28,92,0,0,0,0,0,0,0,0,0,-1,1252,932,0,0
35,92,0,0,0,0,0,0,0,0,0,-1,1259,932,0,0
42,92,0,0,0,0,0,0,0,0,0,-1,1266,932,0,0
49,92,0,0,0,0,0,0,0,0,0,-1,1273,932,0,0
56,92,0,0,0,0,0,0,0,0,0,-1,1280,932,0,0
63,92,0,0,0,0,0,0,0,0,0,-1,1287,932,0,0
70,92,0,0,0,0,0,0,0,0,0,-1,1294,932,0,0
77,92,0,0,0,0,0,0,0,0,0,-1,1301,932,0,0
84,92,0,0,0,0,0,0,0,0,0,-1,1308,932,0,0
91,92,0,0,0,0,0,0,0,0,0,-1,1315,932,0,0
98,92,0,0,0,0,0,0,0,0,0,-1,1322,932,0,0
105,92,0,0,0,0,0,0,0,0,0,-1,1329,932,0,0
112,92,0,0,0,0,0,0,0,0,0,-1,1336,932,0,0
119,92,0,0,0,0,0,0,0,0,0,-1,1343,932,0,0
126,92,0,0,0,0,0,0,0,0,0,-1,1350,932,0,0
133,92,0,0,0,0,0,0,0,0,0,-1,1357,932,0,0
140,92,0,0,0,0,0,0,0,0,0,-1,1364,932,0,0
147,92,0,0,0,0,0,0,0,0,0,-1,1371,932,0,0
154,92,0,0,0,0,0,0,0,0,0,-1,1378,932,0,0
161,92,0,0,0,0,0,0,0,0,0,-1,1385,932,0,0
168,92,0,0,0,0,0,0,0,0,0,-1,1392,932,0,0
175,92,0,0,0,0,0,0,0,0,0,-1,1399,932,0,0
182,92,0,0,0,0,0,0,0,0,0,-1,1406,932,0,0
189,92,0,0,0,0,0,0,0,0,0,-1,1413,932,0,0
196,92,0,0,0,0,0,0,0,0,0,-1,1420,932,0,0
203,92,0,0,0,0,0,0,0,0,0,-1,1427,932,0,0
210,92,0,0,0,0,0,0,0,0,0,-1,1434,932,0,0
217,92,0,0,0,0,0,0,0,0,0,-1,1441,932,0,0
224,92,0,0,0,0,0,0,0,0,0,-1,1448,932,0,0
231,92,0,0,0,0,0,0,0,0,0,-1,1455,932,0,0
238,92,0,0,0,0,0,0,0,0,0,-1,1462,932,0,0
245,92,0,0,0,0,0,0,0,0,0,-1,1469,932,0,0
252,92,0,0,0,0,0,0,0,0,0,-1,1476,932,0,0
259,92,0,0,0,0,0,0,0,0,0,-1,1483,932,0,0
266,92,0,0,0,0,0,0,0,0,0,-1,1490,932,0,0
273,92,0,0,0,0,0,0,0,0,0,-1,1497,932,0,0
280,92,0,0,0,0,0,0,0,0,0,-1,1504,932,0,0
287,92,0,0,0,0,0,0,0,0,0,-1,1511,932,0,0
294,92,0,0,0,0,0,0,0,0,0,-1,1518,932,0,0
301,92,0,0,0,0,0,0,0,0,0,-1,1525,932,0,0
308,92,0,0,0,0,0,0,0,0,0,-1,1532,932,0,0
315,92,0,0,0,0,0,0,0,0,0,-1,1539,932,0,0
322,92,0,0,0,0,0,0,0,0,0,-1,1546,932,0,0
329,92,0,0,0,0,0,0,0,0,0,-1,1553,932,0,0
336,92,0,0,0,0,0,0,0,0,0,-1,1560,932,0,0
343,92,0,0,0,0,0,0,0,0,0,-1,1567,932,0,0
350,92,0,0,0,0,0,0,0,0,0,-1,1574,932,0,0
357,92,0,0,0,0,0,0,0,0,0,-1,1581,932,0,0
364,92,0,0,0,0,0,0,0,0,0,-1,1588,932,0,0
371,92,0,0,0,0,0,0,0,0,0,-1,1595,932,0,0
378,92,0,0,0,0,0,0,0,0,0,-1,1602,932,0,0
385,92,0,0,0,0,0,0,0,0,0,-1,1609,932,0,0
392,92,0,0,0,0,0,0,0,0,0,-1,1616,932,0,0
399,92,0,0,0,0,0,0,0,0,0,-1,1623,932,0,0
406,92,0,0,0,0,0,0,0,0,0,-1,1630,932,0,0
413,92,0,0,0,0,0,0,0,0,0,-1,1637,932,0,0
420,92,0,0,0,0,0,0,0,0,0,-1,1644,932,0,0
427,92,0,0,0,0,0,0,0,0,0,-1,1651,932,0,0
434,92,0,0,0,0,0,0,0,0,0,-1,1658,932,0,0
441,92,0,0,0,0,0,0,0,0,0,-1,1665,932,0,0
448,92,0,0,0,0,0,0,0,0,0,-1,1672,932,0,0
455,92,0,0,0,0,0,0,0,0,0,-1,1679,932,0,0
462,92,0,0,0,0,0,0,0,0,0,-1,1686,932,0,0
469,92,0,0,0,0,0,0,0,0,0,-1,1693,932,0,0
476,92,0,0,0,0,0,0,0,0,0,-1,1700,932,0,0
483,92,0,0,0,0,0,0,0,0,0,-1,1707,932,0,0
490,92,0,0,0,0,0,0,0,0,0,-1,1714,932,0,0
497,92,0,0,0,0,0,0,0,0,0,-1,1721,932,0,0
504,92,0,0,0,0,0,0,0,0,0,-1,1728,932,0,0
511,92,0,0,0,0,0,0,0,0,0,-1,1735,932,0,0
518,92,0,0,0,0,0,0,0,0,0,-1,1742,932,0,0
525,92,0,0,0,0,0,0,0,0,0,-1,1749,932,0,0
532,92,0,0,0,0,0,0,0,0,0,-1,1756,932,0,0
539,92,0,0,0,0,0,0,0,0,0,-1,1763,932,0,0
546,92,0,0,0,0,0,0,0,0,0,-1,1770,932,0,0
553,92,0,0,0,0,0,0,0,0,0,-1,1777,932,0,0
560,92,0,0,0,0,0,0,0,0,0,-1,1784,932,0,0
567,92,0,0,0,0,0,0,0,0,0,-1,1791,932,0,0
574,92,0,0,0,0,0,0,0,0,0,-1,1798,932,0,0
581,92,0,0,0,0,0,0,0,0,0,-1,1805,932,0,0
588,92,0,0,0,0,0,0,0,0,0,-1,1812,932,0,0
595,92,0,0,0,0,0,0,0,0,0,-1,1819,932,0,0
602,92,0,0,0,0,0,0,0,0,0,-1,1826,932,0,0
609,92,0,0,0,0,0,0,0,0,0,-1,1833,932,0,0
616,92,0,0,0,0,0,0,0,0,0,-1,1840,932,0,0
623,92,0,0,0,0,0,0,0,0,0,-1,1847,932,0,0
630,92,0,0,0,0,0,0,0,0,0,-1,1854,932,0,0
637,92,18.88,2.7691,-0.000385188,0.0054594,-0.0068154,0.0099526,-0.00487839,-0.987931,0.00872813,0.0438165,1861,932,18.88,-2.76911
644,92,18.9235,2.66113,0.000511564,0.00360449,-0.00459088,0.00690238,-0.00278632,-0.947857,0.00575958,0.0378137,1868,932,18.9234,-2.66112
651,92,18.9037,2.51758,-6.13929e-05,0.00228152,-0.00323299,0.00454875,-0.00232862,-0.959213,0.00403903,0.0382661,1875,932,18.9037,-2.51756
658,92,18.8043,2.55548,-0.00202715,0.00141984,-0.00225809,0.00253702,-0.00314432,-1.11136,0.00328636,0.040623,1882,932,18.8043,-2.55549
665,92,18.814,2.79492,-0.00461635,0.000895039,-0.00153862,0.00129548,-0.00501679,-1.31618,0.00384971,0.0416927,1889,932,18.814,-2.79495
672,92,18.9623,2.59906,-0.00694657,0.000600184,-0.00104962,0.00074345,-0.00708984,-1.43514,0.00499286,0.0418439,1896,932,18.9623,-2.59906
679,92,18.9934,2.58636,-0.00878522,0.000401836,-0.000750906,0.000462807,-0.00884619,-1.48978,0.00605763,0.0368382,1903,932,18.9934,-2.58639
686,92,18.925,2.65308,-0.0100348,0.000354806,-0.000571691,0.000386169,-0.0100661,-1.51599,0.00684311,0.0299307,1910,932,18.925,-2.65306
693,92,18.8762,2.68158,-0.0107808,0.000239966,-0.000263633,0.000246269,-0.0107871,-1.54689,0.00727485,0.0216236,1917,932,18.8762,-2.68156
700,92,18.9313,2.49841,0,0,0,0,0,0,0,-1,1924,932,18.9312,-2.49843
707,92,18.0438,2.96875,-0.0108776,0.000384957,-7.18394e-05,0.000385415,-0.0108781,-1.56442,0.00738387,0.0417152,1931,932,18.0438,-2.96875
714,92,17.4073,3.21844,-0.0100582,0.000524657,-0.00026449,0.000531263,-0.0100649,-1.54582,0.00689382,0.0333826,1938,932,17.4073,-3.21847
721,92,17.4919,3.28094,-0.00872106,0.000643319,-0.000405307,0.000660829,-0.00873857,-1.52762,0.00605801,0.0233187,1945,932,17.4919,-3.28096
728,92,17.4203,3.43982,-0.00681979,0.000945063,-0.000563082,0.000985683,-0.00686041,-1.49878,0.00493509,0.0173765,1952,932,17.4203,-3.4398
735,92,17.4562,3.53998,-0.00484088,0.00105348,-0.000858713,0.00117604,-0.00496344,-1.42904,0.00376274,0.0153328,1959,932,17.4561,-3.53996
742,92,17.4706,3.61328,-0.00235558,0.0018769,-0.000394815,0.00191342,-0.0023921,-1.47857,0.00249091,0.0163428,1966,932,17.4705,-3.61326
749,92,17.443,3.74207,0.000315962,0.00299414,0.000530982,0.00309557,0.00021453,1.38204,0.00199605,0.0138057,1973,932,17.443,-3.74209
756,92,17.4071,3.86163,0.00240369,0.00571277,0.000728544,0.00586607,0.00225039,1.3634,0.00341721,0.0126901,1980,932,17.4071,-3.86161
763,92,17.4448,3.96851,0.00439749,0.00862514,0.00192763,0.00937209,0.00365055,1.20112,0.00545484,0.0140179,1987,932,17.4448,-3.96848
770,92,17.5188,4.07251,0.00581684,0.0128325,0.00395073,0.0146079,0.00404137,1.14844,0.00870985,0.0232763,1994,932,17.5188,-4.07253
777,92,17.7732,4.08112,0.00714443,0.018586,0.00711469,0.0219946,0.0037358,1.12401,0.0135901,0.0422903,2001,932,17.7733,-4.08113
784,92,17.9971,4.11951,0,0,0,0,0,0,0,-1,2008,932,17.9971,-4.11952
791,92,17.8514,4.60217,0.0103336,0.036594,0.0187228,0.0463317,0.000595834,1.0912,0.0306911,0.0443215,2015,932,17.8514,-4.60219
798,92,17.8003,4.77704,0.0120718,0.0499812,0.0281104,0.0649304,-0.00287746,1.08203,0.0442773,0.0426644,2022,932,17.8003,-4.77704
805,92,0,0,0,0,0,0,0,0,0,-1,2029,932,0,0
812,92,0,0,0,0,0,0,0,0,0,-1,2036,932,0,0
-700,85,0,0,0,0,0,0,0,0,0,-1,524,939,0,0
-693,85,0,0,0,0,0,0,0,0,0,-1,531,939,0,0
-686,85,-11.8423,-0.518982,0.00564954,0.0766912,0.0558049,0.107321,-0.0249804,1.06882,0.0811658,0.042798,538,939,-11.8423,0.518957
-679,85,-11.8024,0.449097,0.0189078,0.0559648,0.0432607,0.0844978,-0.00962527,0.987729,0.0597991,0.0440542,545,939,-11.8023,-0.449125
-672,85,-13.6272,0.809204,0,0,0,0,0,0,0,-1,552,939,-13.6272,-0.809183
-665,85,-13.5856,1.86469,0.0286048,0.0288254,0.0257064,0.0544217,0.00300846,0.787544,0.035321,0.0425932,559,939,-13.5856,-1.86467
-658,85,-13.4087,2.75085,0.0285532,0.0200362,0.019507,0.0442611,0.00432831,0.67793,0.0281757,0.0440493,566,939,-13.4087,-2.75086
-651,85,-13.1097,3.49237,0,0,0,0,0,0,0,-1,573,939,-13.1097,-3.49236
-644,85,-11.3424,1.71857,0.0232478,0.00875142,0.0107584,0.0289719,0.00302732,0.488963,0.0183888,0.0328719,580,939,-11.3424,-1.71857
-637,85,-11.5021,1.65399,0.0192217,0.0054156,0.00778448,0.022723,0.00191432,0.422669,0.0145526,0.0153586,587,939,-11.5021,-1.65402
-630,85,-11.5549,1.56427,0.0152671,0.00221246,0.00463388,0.0167447,0.000734866,0.308676,0.0109264,0.00978708,594,939,-11.5549,-1.56427
-623,85,-11.5756,1.47327,0.0114975,-0.000329324,0.00230697,0.0119316,-0.000763396,0.185982,0.00822069,0.00865298,601,939,-11.5756,-1.47326
-616,85,-11.5882,1.40198,0.00663342,4.38898e-05,0.00250807,0.00747942,-0.000802104,0.325324,0.00527402,0.00852096,608,939,-11.5882,-1.40198
-609,85,-11.5945,1.30756,0.00195541,-0.000175074,0.00136308,0.00262012,-0.000839785,0.453721,0.00208386,0.0110237,615,939,-11.5945,-1.30758
-602,85,-11.58,1.21033,-0.00235424,-0.000489238,0.000619507,-0.000302209,-0.00254127,1.2776,0.00160297,0.0150033,622,939,-11.58,-1.21032
-595,85,-11.549,1.12524,-0.00572057,-0.000213267,0.000537049,-0.000161385,-0.00577245,1.47449,0.00379565,0.0158697,629,939,-11.549,-1.12523
-588,85,-11.5203,1.02435,-0.00732634,-2.48822e-05,0.000541609,1.50749e-05,-0.00736629,1.49716,0.0049159,0.0143711,636,939,-11.5204,-1.02433
-581,85,-11.5411,0.95343,-0.00816777,5.66467e-05,0.000255742,6.45914e-05,-0.00817572,1.53974,0.00547213,0.0153162,643,939,-11.5412,-0.953441
-574,85,-11.7898,0.867676,-0.00882447,0.00015265,-6.71763e-05,0.000153152,-0.00882497,-1.56331,0.00593502,0.0272935,650,939,-11.7898,-0.867689
-567,85,-12.2054,0.715454,-0.00886371,0.000394846,-0.000335682,0.000407001,-0.00887587,-1.5346,0.00605747,0.0356265,657,939,-12.2054,-0.715469
-560,85,-12.2271,0.527405,-0.00853779,0.000685912,-0.000578247,0.000722021,-0.0085739,-1.50843,0.00597118,0.0344851,664,939,-12.2271,-0.527385
-553,85,-12.1364,0.390076,-0.00773969,0.00110972,-0.000986334,0.00121832,-0.00784829,-1.46113,0.00568201,0.0401967,671,939,-12.1364,-0.390071
-546,85,-12.1362,0.435242,-0.00632207,0.00165346,-0.0015822,0.00195587,-0.00662448,-1.38194,0.00519255,0.0410426,678,939,-12.1362,-0.435212
-539,85,-12.3228,0.740601,-0.00427646,0.00230253,-0.00240068,0.00308538,-0.00505932,-1.25557,0.00474816,0.0382751,685,939,-12.3228,-0.740627
-532,85,-12.2382,0.761658,-0.00160474,0.0030366,-0.00349088,0.0049078,-0.00347594,-1.07875,0.00486383,0.0403395,692,939,-12.2382,-0.76165
-525,85,-12.1407,0.742371,0.00141176,0.00386049,-0.00496504,0.0077499,-0.00247765,-0.906285,0.00616085,0.0385382,699,939,-12.1407,-0.742361
-518,85,-12.1456,0.771912,0.00343577,0.0048073,-0.00680743,0.0109634,-0.00272035,-0.835598,0.00836451,0.0381957,706,939,-12.1455,-0.771902
-511,85,0,0,0,0,0,0,0,0,0,-1,713,939,0,0
-504,85,0,0,0,0,0,0,0,0,0,-1,720,939,0,0
-497,85,0,0,0,0,0,0,0,0,0,-1,727,939,0,0
-490,85,0,0,0,0,0,0,0,0,0,-1,734,939,0,0
-483,85,0,0,0,0,0,0,0,0,0,-1,741,939,0,0
-476,85,0,0,0,0,0,0,0,0,0,-1,748,939,0,0
-469,85,0,0,0,0,0,0,0,0,0,-1,755,939,0,0
-462,85,0,0,0,0,0,0,0,0,0,-1,762,939,0,0
-455,85,0,0,0,0,0,0,0,0,0,-1,769,939,0,0
-448,85,0,0,0,0,0,0,0,0,0,-1,776,939,0,0
-441,85,0,0,0,0,0,0,0,0,0,-1,783,939,0,0
-434,85,0,0,0,0,0,0,0,0,0,-1,790,939,0,0
-427,85,0,0,0,0,0,0,0,0,0,-1,797,939,0,0
-420,85,0,0,0,0,0,0,0,0,0,-1,804,939,0,0
-413,85,0,0,0,0,0,0,0,0,0,-1,811,939,0,0
-406,85,0,0,0,0,0,0,0,0,0,-1,818,939,0,0
-399,85,0,0,0,0,0,0,0,0,0,-1,825,939,0,0
-392,85,0,0,0,0,0,0,0,0,0,-1,832,939,0,0
-385,85,0,0,0,0,0,0,0,0,0,-1,839,939,0,0
-378,85,0,0,0,0,0,0,0,0,0,-1,846,939,0,0
-371,85,0,0,0,0,0,0,0,0,0,-1,853,939,0,0
-364,85,0,0,0,0,0,0,0,0,0,-1,860,939,0,0
-357,85,0,0,0,0,0,0,0,0,0,-1,867,939,0,0
-350,85,0,0,0,0,0,0,0,0,0,-1,874,939,0,0
-343,85,0,0,0,0,0,0,0,0,0,-1,881,939,0,0
-336,85,0,0,0,0,0,0,0,0,0,-1,888,939,0,0
-329,85,0,0,0,0,0,0,0,0,0,-1,895,939,0,0
-322,85,0,0,0,0,0,0,0,0,0,-1,902,939,0,0
-315,85,0,0,0,0,0,0,0,0,0,-1,909,939,0,0
-308,85,0,0,0,0,0,0,0,0,0,-1,916,939,0,0
-301,85,0,0,0,0,0,0,0,0,0,-1,923,939,0,0
-294,85,0,0,0,0,0,0,0,0,0,-1,930,939,0,0
-287,85,0,0,0,0,0,0,0,0,0,-1,937,939,0,0
-280,85,0,0,0,0,0,0,0,0,0,-1,944,939,0,0
-273,85,0,0,0,0,0,0,0,0,0,-1,951,939,0,0
-266,85,0,0,0,0,0,0,0,0,0,-1,958,939,0,0
-259,85,0,0,0,0,0,0,0,0,0,-1,965,939,0,0
-252,85,0,0,0,0,0,0,0,0,0,-1,972,939,0,0
-245,85,0,0,0,0,0,0,0,0,0,-1,979,939,0,0
-238,85,0,0,0,0,0,0,0,0,0,-1,986,939,0,0
-231,85,0,0,0,0,0,0,0,0,0,-1,993,939,0,0
-224,85,0,0,0,0,0,0,0,0,0,-1,1000,939,0,0
-217,85,0,0,0,0,0,0,0,0,0,-1,1007,939,0,0
-210,85,0,0,0,0,0,0,0,0,0,-1,1014,939,0,0
-203,85,0,0,0,0,0,0,0,0,0,-1,1021,939,0,0
-196,85,0,0,0,0,0,0,0,0,0,-1,1028,939,0,0
-189,85,0,0,0,0,0,0,0,0,0,-1,1035,939,0,0
-182,85,0,0,0,0,0,0,0,0,0,-1,1042,939,0,0
-175,85,0,0,0,0,0,0,0,0,0,-1,1049,939,0,0
-168,85,0,0,0,0,0,0,0,0,0,-1,1056,939,0,0
-161,85,0,0,0,0,0,0,0,0,0,-1,1063,939,0,0
-154,85,0,0,0,0,0,0,0,0,0,-1,1070,939,0,0
-147,85,0,0,0,0,0,0,0,0,0,-1,1077,939,0,0
-140,85,0,0,0,0,0,0,0,0,0,-1,1084,939,0,0
-133,85,0,0,0,0,0,0,0,0,0,-1,1091,939,0,0
-126,85,0,0,0,0,0,0,0,0,0,-1,1098,939,0,0
-119,85,0,0,0,0,0,0,0,0,0,-1,1105,939,0,0
-112,85,0,0,0,0,0,0,0,0,0,-1,1112,939,0,0
-105,85,0,0,0,0,0,0,0,0,0,-1,1119,939,0,0
-98,85,0,0,0,0,0,0,0,0,0,-1,1126,939,0,0
-91,85,0,0,0,0,0,0,0,0,0,-1,1133,939,0,0
-84,85,0,0,0,0,0,0,0,0,0,-1,1140,939,0,0
-77,85,0,0,0,0,0,0,0,0,0,-1,1147,939,0,0
-70,85,0,0,0,0,0,0,0,0,0,-1,1154,939,0,0
-63,85,0,0,0,0,0,0,0,0,0,-1,1161,939,0,0
-56,85,0,0,0,0,0,0,0,0,0,-1,1168,939,0,0
-49,85,0,0,0,0,0,0,0,0,0,-1,1175,939,0,0
-42,85,0,0,0,0,0,0,0,0,0,-1,1182,939,0,0
-35,85,0,0,0,0,0,0,0,0,0,-1,1189,939,0,0
-28,85,0,0,0,0,0,0,0,0,0,-1,1196,939,0,0
-21,85,0,0,0,0,0,0,0,0,0,-1,1203,939,0,0
-14,85,0,0,0,0,0,0,0,0,0,-1,1210,939,0,0
-7,85,0,0,0,0,0,0,0,0,0,-1,1217,939,0,0
0,85,0,0,0,0,0,0,0,0,0,-1,1224,939,0,0
7,85,0,0,0,0,0,0,0,0,0,-1,1231,939,0,0
14,85,0,0,0,0,0,0,0,0,0,-1,1238,939,0,0
21,85,0,0,0,0,0,0,0,0,0,-1,1245,939,0,0
28,85,0,0,0,0,0,0,0,0,0,-1,1252,939,0,0
35,85,0,0,0,0,0,0,0,0,0,-1,1259,939,0,0
42,85,0,0,0,0,0,0,0,0,0,-1,1266,939,0,0
49,85,0,0,0,0,0,0,0,0,0,-1,1273,939,0,0
56,85,0,0,0,0,0,0,0,0,0,-1,1280,939,0,0
63,85,0,0,0,0,0,0,0,0,0,-1,1287,939,0,0
70,85,0,0,0,0,0,0,0,0,0,-1,1294,939,0,0
77,85,0,0,0,0,0,0,0,0,0,-1,1301,939,0,0
84,85,0,0,0,0,0,0,0,0,0,-1,1308,939,0,0
91,85,0,0,0,0,0,0,0,0,0,-1,1315,939,0,0
98,85,0,0,0,0,0,0,0,0,0,-1,1322,939,0,0
105,85,0,0,0,0,0,0,0,0,0,-1,1329,939,0,0
112,85,0,0,0,0,0,0,0,0,0,-1,1336,939,0,0
119,85,0,0,0,0,0,0,0,0,0,-1,1343,939,0,0
126,85,0,0,0,0,0,0,0,0,0,-1,1350,939,0,0
133,85,0,0,0,0,0,0,0,0,0,-1,1357,939,0,0
140,85,0,0,0,0,0,0,0,0,0,-1,1364,939,0,0
147,85,0,0,0,0,0,0,0,0,0,-1,1371,939,0,0
154,85,0,0,0,0,0,0,0,0,0,-1,1378,939,0,0
161,85,0,0,0,0,0,0,0,0,0,-1,1385,939,0,0
168,85,0,0,0,0,0,0,0,0,0,-1,1392,939,0,0
175,85,0,0,0,0,0,0,0,0,0,-1,1399,939,0,0
182,85,0,0,0,0,0,0,0,0,0,-1,1406,939,0,0
189,85,0,0,0,0,0,0,0,0,0,-1,1413,939,0,0
196,85,0,0,0,0,0,0,0,0,0,-1,1420,939,0,0
203,85,0,0,0,0,0,0,0,0,0,-1,1427,939,0,0
210,85,0,0,0,0,0,0,0,0,0,-1,1434,939,0,0
217,85,0,0,0,0,0,0,0,0,0,-1,1441,939,0,0
224,85,0,0,0,0,0,0,0,0,0,-1,1448,939,0,0
231,85,0,0,0,0,0,0,0,0,0,-1,1455,939,0,0
238,85,0,0,0,0,0,0,0,0,0,-1,1462,939,0,0
245,85,0,0,0,0,0,0,0,0,0,-1,1469,939,0,0
252,85,0,0,0,0,0,0,0,0,0,-1,1476,939,0,0
259,85,0,0,0,0,0,0,0,0,0,-1,1483,939,0,0
266,85,0,0,0,0,0,0,0,0,0,-1,1490,939,0,0
273,85,0,0,0,0,0,0,0,0,0,-1,1497,939,0,0
280,85,0,0,0,0,0,0,0,0,0,-1,1504,939,0,0
287,85,0,0,0,0,0,0,0,0,0,-1,1511,939,0,0
294,85,0,0,0,0,0,0,0,0,0,-1,1518,939,0,0
301,85,0,0,0,0,0,0,0,0,0,-1,1525,939,0,0
308,85,0,0,0,0,0,0,0,0,0,-1,1532,939,0,0
315,85,0,0,0,0,0,0,0,0,0,-1,1539,939,0,0
322,85,0,0,0,0,0,0,0,0,0,-1,1546,939,0,0
329,85,0,0,0,0,0,0,0,0,0,-1,1553,939,0,0
336,85,0,0,0,0,0,0,0,0,0,-1,1560,939,0,0
343,85,0,0,0,0,0,0,0,0,0,-1,1567,939,0,0
350,85,0,0,0,0,0,0,0,0,0,-1,1574,939,0,0
357,85,0,0,0,0,0,0,0,0,0,-1,1581,939,0,0
364,85,0,0,0,0,0,0,0,0,0,-1,1588,939,0,0
371,85,0,0,0,0,0,0,0,0,0,-1,1595,939,0,0
378,85,0,0,0,0,0,0,0,0,0,-1,1602,939,0,0
385,85,0,0,0,0,0,0,0,0,0,-1,1609,939,0,0
392,85,0,0,0,0,0,0,0,0,0,-1,1616,939,0,0
399,85,0,0,0,0,0,0,0,0,0,-1,1623,939,0,0
406,85,0,0,0,0,0,0,0,0,0,-1,1630,939,0,0
413,85,0,0,0,0,0,0,0,0,0,-1,1637,939,0,0
420,85,0,0,0,0,0,0,0,0,0,-1,1644,939,0,0
427,85,0,0,0,0,0,0,0,0,0,-1,1651,939,0,0
434,85,0,0,0,0,0,0,0,0,0,-1,1658,939,0,0
441,85,0,0,0,0,0,0,0,0,0,-1,1665,939,0,0
448,85,0,0,0,0,0,0,0,0,0,-1,1672,939,0,0
455,85,0,0,0,0,0,0,0,0,0,-1,1679,939,0,0
462,85,0,0,0,0,0,0,0,0,0,-1,1686,939,0,0
469,85,0,0,0,0,0,0,0,0,0,-1,1693,939,0,0
476,85,0,0,0,0,0,0,0,0,0,-1,1700,939,0,0
483,85,0,0,0,0,0,0,0,0,0,-1,1707,939,0,0
490,85,0,0,0,0,0,0,0,0,0,-1,1714,939,0,0
497,85,0,0,0,0,0,0,0,0,0,-1,1721,939,0,0
504,85,0,0,0,0,0,0,0,0,0,-1,1728,939,0,0
511,85,0,0,0,0,0,0,0,0,0,-1,1735,939,0,0
518,85,0,0,0,0,0,0,0,0,0,-1,1742,939,0,0
525,85,0,0,0,0,0,0,0,0,0,-1,1749,939,0,0
532,85,0,0,0,0,0,0,0,0,0,-1,1756,939,0,0
539,85,0,0,0,0,0,0,0,0,0,-1,1763,939,0,0
546,85,0,0,0,0,0,0,0,0,0,-1,1770,939,0,0
553,85,0,0,0,0,0,0,0,0,0,-1,1777,939,0,0
560,85,0,0,0,0,0,0,0,0,0,-1,1784,939,0,0
567,85,0,0,0,0,0,0,0,0,0,-1,1791,939,0,0
574,85,0,0,0,0,0,0,0,0,0,-1,1798,939,0,0
581,85,0,0,0,0,0,0,0,0,0,-1,1805,939,0,0
588,85,0,0,0,0,0,0,0,0,0,-1,1812,939,0,0
595,85,0,0,0,0,0,0,0,0,0,-1,1819,939,0,0
602,85,0,0,0,0,0,0,0,0,0,-1,1826,939,0,0
609,85,0,0,0,0,0,0,0,0,0,-1,1833,939,0,0
616,85,0,0,0,0,0,0,0,0,0,-1,1840,939,0,0
623,85,0,0,0,0,0,0,0,0,0,-1,1847,939,0,0
630,85,0,0,0,0,0,0,0,0,0,-1,1854,939,0,0
637,85,19.017,2.90552,-0.00115601,0.00623685,-0.00574425,0.00937123,-0.0042904,-1.07129,0.00806732,0.0465831,1861,939,19.0169,-2.90554
644,85,18.9158,2.75433,-0.000357348,0.00392593,-0.00356898,0.00594653,-0.00237795,-1.05563,0.00495116,0.0413699,1868,939,18.9158,-2.75436
651,85,18.9312,2.56372,-0.00060708,0.00233294,-0.00228377,0.00357891,-0.00185305,-1.07136,0.00318847,0.0410723,1875,939,18.9311,-2.56373
658,85,18.8173,2.68658,-0.00203243,0.00129161,-0.00136862,0.00178259,-0.00252342,-1.22635,0.00249831,0.0413447,1882,939,18.8173,-2.68659
665,85,18.6825,2.85095,-0.00416907,0.000678258,-0.000702144,0.000777916,-0.00426873,-1.4298,0.00313744,0.0418127,1889,939,18.6825,-2.85098
672,85,18.8721,2.21075,0,0,0,0,0,0,0,-1,1896,939,18.872,-2.21078
679,85,18.9878,2.59357,-0.00790296,0.000170724,4.54027e-05,0.000170979,-0.00790322,1.56517,0.00532672,0.0392717,1903,939,18.9877,-2.59357
686,85,18.9218,2.66309,-0.00906608,0.000128535,0.000203137,0.00013302,-0.00907056,1.54872,0.00609187,0.033061,1910,939,18.9218,-2.6631
693,85,18.8788,2.66327,-0.00976962,3.6204e-06,0.00044856,2.41641e-05,-0.00979017,1.52503,0.00653485,0.0249546,1917,939,18.8788,-2.66324
700,85,18.9063,2.62878,-0.0101021,3.47771e-05,0.000580942,6.79623e-05,-0.0101353,1.51374,0.00677962,0.0271784,1924,939,18.9062,-2.62876
707,85,18.323,2.8808,-0.00999455,0.000228642,0.000500462,0.000253084,-0.010019,1.522,0.00676527,0.0441963,1931,939,18.323,-2.88077
714,85,17.594,3.17523,0,0,0,0,0,0,0,-1,1938,939,17.594,-3.17524
721,85,17.5719,3.30554,-0.00835167,0.000568204,0.000124917,0.000569953,-0.00835342,1.5568,0.00576832,0.0225142,1945,939,17.5719,-3.30555
728,85,17.5466,3.46588,-0.00678207,0.00088764,-8.5407e-05,0.000888591,-0.00678302,-1.55966,0.00484545,0.0175746,1952,939,17.5466,-3.4659
735,85,17.5762,3.56036,-0.0051961,0.000973717,-0.000455645,0.00100719,-0.00522957,-1.49748,0.00386609,0.0161345,1959,939,17.5762,-3.56036
742,85,17.5837,3.62744,-0.00320348,0.00178475,-0.000162413,0.00179003,-0.00320876,-1.53828,0.00292454,0.0143048,1966,939,17.5838,-3.62742
749,85,17.5557,3.73615,-0.00120296,0.00277584,0.000213984,0.00278731,-0.00121443,1.51722,0.00236915,0.0134743,1973,939,17.5556,-3.73616
756,85,17.5469,3.86023,0.000189907,0.00550857,-0.000297616,0.00552517,0.000173305,-1.51507,0.00362706,0.0126223,1980,939,17.5468,-3.8602
763,85,17.5597,3.98108,0.00152788,0.00830916,-5.61365e-06,0.00830916,0.00152788,-1.56997,0.00510691,0.0125009,1987,939,17.5597,-3.98107
770,85,17.5808,4.04987,0.00201902,0.0124505,0.000664249,0.0124926,0.00197689,1.50746,0.00775393,0.0177809,1994,939,17.5808,-4.04985
777,85,17.541,3.98199,0.00202554,0.0180421,0.00179496,0.0182408,0.00182685,1.46055,0.0115996,0.0382151,2001,939,17.541,-3.98197
784,85,17.4886,3.94348,0.00161947,0.0255907,0.00354271,0.0261033,0.00110686,1.4271,0.0170453,0.0464556,2008,939,17.4887,-3.9435
791,85,17.6049,4.19446,0.000813523,0.0355821,0.0059669,0.0365776,-0.000181999,1.40548,0.024446,0.0487284,2015,939,17.6049,-4.19444
798,85,17.5529,4.31073,-0.000753954,0.0486805,0.00911562,0.0503078,-0.00238129,1.39414,0.0343598,0.0454134,2022,939,17.5528,-4.31071
805,85,17.5607,4.40649,-0.00361504,0.0657799,0.0128961,0.068099,-0.0059341,1.39287,0.0475011,0.0465624,2029,939,17.5607,-4.40652
812,85,0,0,0,0,0,0,0,0,0,-1,2036,939,0,0
-700,78,0,0,0,0,0,0,0,0,0,-1,524,946,0,0
-693,78,0,0,0,0,0,0,0,0,0,-1,531,946,0,0
-686,78,-12.1661,-1.26239,0.00190936,0.0722931,0.0582938,0.105194,-0.0309916,1.05697,0.0824254,0.0423815,538,946,-12.1661,1.26237
-679,78,-12.09,-0.321106,0.0122765,0.0544282,0.045077,0.083113,-0.0164083,1.00408,0.0616108,0.0453109,545,946,-12.09,0.321121
-672,78,-12.1976,0.443726,0,0,0,0,0,0,0,-1,552,946,-12.1977,-0.44372
-665,78,-12.5915,1.60175,0.0202373,0.0301194,0.0264744,0.0521099,-0.00175322,0.877654,0.0353388,0.0447819,559,946,-12.5915,-1.60175
-658,78,-12.9523,2.51465,0.0205021,0.0218478,0.0198839,0.0410702,0.00127973,0.802311,0.0269637,0.046047,566,946,-12.9523,-2.51468
-651,78,-12.9835,3.45398,0,0,0,0,0,0,0,-1,573,946,-12.9835,-3.45399
-644,78,-11.5326,1.73651,0.016965,0.0105993,0.010606,0.0248555,0.00270887,0.639623,0.0157452,0.0257564,580,946,-11.5326,-1.73653
-637,78,-11.6089,1.62219,0.0140419,0.00702229,0.00747586,0.0187909,0.00227333,0.565928,0.0118424,0.0124895,587,946,-11.609,-1.62221
-630,78,-11.6532,1.51532,0.0111775,0.00364137,0.00420359,0.0130547,0.00176422,0.419988,0.00817872,0.0113563,594,946,-11.6532,-1.51535
-623,78,-11.6758,1.43915,0.00818145,0.000938812,0.0017701,0.00859091,0.000529351,0.227323,0.00555923,0.0108465,601,946,-11.6758,-1.43912
-616,78,-11.6846,1.38348,0.0042191,0.000927536,0.00185965,0.00505664,8.99932e-05,0.423167,0.0033415,0.00980714,608,946,-11.6846,-1.38348
-609,78,-11.6586,1.29816,0.000550887,0.000306596,0.000794308,0.00123239,-0.000374903,0.709108,0.000970991,0.0106921,615,946,-11.6586,-1.29818
-602,78,-11.666,1.20013,-0.00287929,-0.000187832,0.000115971,-0.000182845,-0.00288428,1.52781,0.0018649,0.0149739,622,946,-11.666,-1.20013
-595,78,-11.6627,1.10004,-0.00562388,-5.92249e-05,5.3839e-05,-5.87043e-05,-0.00562441,1.56112,0.00373019,0.0147694,629,946,-11.6626,-1.10005
-588,78,-11.6554,1.05579,-0.00699219,4.54314e-05,6.61903e-05,4.60539e-05,-0.00699282,1.56139,0.0046773,0.0121813,636,946,-11.6554,-1.05579
-581,78,-11.6929,1.00562,-0.00770317,8.89777e-05,-0.000194097,9.38096e-05,-0.007708,-1.54591,0.00517022,0.0173973,643,946,-11.6929,-1.00559
-574,78,-11.9575,0.842773,-0.00825887,0.000173507,-0.000519459,0.000205387,-0.00829075,-1.5095,0.00559688,0.0235375,650,946,-11.9575,-0.842796
-567,78,-12.2779,0.650391,-0.00826812,0.000391477,-0.000766583,0.000458814,-0.00833546,-1.48318,0.00571605,0.0298852,657,946,-12.2779,-0.65038
-560,78,-12.2634,0.640137,-0.00795515,0.000650539,-0.000985261,0.0007619,-0.00806652,-1.45825,0.0056488,0.0315206,664,946,-12.2633,-0.640147
-553,78,-12.1799,0.582214,-0.00716261,0.00104974,-0.00135918,0.00126884,-0.00738172,-1.41097,0.00539407,0.0410414,671,946,-12.1799,-0.582209
-546,78,-12.171,0.588257,-0.00580357,0.00157913,-0.00191017,0.00204408,-0.00626852,-1.33203,0.0050016,0.0440569,678,946,-12.171,-0.588246
-539,78,-12.2861,0.909058,-0.00388302,0.00222952,-0.0026803,0.00323832,-0.00489182,-1.21082,0.00472619,0.0397029,685,946,-12.2862,-0.90906
-532,78,-12.2917,0.678711,-0.00144038,0.00299854,-0.00374665,0.00513378,-0.00357562,-1.0528,0.00505512,0.0403062,692,946,-12.2917,-0.678702
-525,78,-12.2785,0.499939,0.00109783,0.00392997,-0.00525989,0.00796108,-0.00293327,-0.916891,0.00650931,0.0391471,699,946,-12.2785,-0.499945
-518,78,-12.1248,0.555176,0.00230019,0.00508185,-0.00728865,0.0111112,-0.00372914,-0.879675,0.00891441,0.0411322,706,946,-12.1248,-0.555206
-511,78,0,0,0,0,0,0,0,0,0,-1,713,946,0,0
-504,78,0,0,0,0,0,0,0,0,0,-1,720,946,0,0
-497,78,0,0,0,0,0,0,0,0,0,-1,727,946,0,0
-490,78,0,0,0,0,0,0,0,0,0,-1,734,946,0,0
-483,78,0,0,0,0,0,0,0,0,0,-1,741,946,0,0
-476,78,0,0,0,0,0,0,0,0,0,-1,748,946,0,0
-469,78,0,0,0,0,0,0,0,0,0,-1,755,946,0,0
-462,78,0,0,0,0,0,0,0,0,0,-1,762,946,0,0
-455,78,0,0,0,0,0,0,0,0,0,-1,769,946,0,0
-448,78,0,0,0,0,0,0,0,0,0,-1,776,946,0,0
-441,78,0,0,0,0,0,0,0,0,0,-1,783,946,0,0
-434,78,0,0,0,0,0,0,0,0,0,-1,790,946,0,0
-427,78,0,0,0,0,0,0,0,0,0,-1,797,946,0,0
-420,78,0,0,0,0,0,0,0,0,0,-1,804,946,0,0
-413,78,0,0,0,0,0,0,0,0,0,-1,811,946,0,0
-406,78,0,0,0,0,0,0,0,0,0,-1,818,946,0,0
-399,78,0,0,0,0,0,0,0,0,0,-1,825,946,0,0
-392,78,0,0,0,0,0,0,0,0,0,-1,832,946,0,0
-385,78,0,0,0,0,0,0,0,0,0,-1,839,946,0,0
-378,78,0,0,0,0,0,0,0,0,0,-1,846,946,0,0
-371,78,0,0,0,0,0,0,0,0,0,-1,853,946,0,0
-364,78,0,0,0,0,0,0,0,0,0,-1,860,946,0,0
-357,78,0,0,0,0,0,0,0,0,0,-1,867,946,0,0
-350,78,0,0,0,0,0,0,0,0,0,-1,874,946,0,0
-343,78,0,0,0,0,0,0,0,0,0,-1,881,946,0,0
-336,78,0,0,0,0,0,0,0,0,0,-1,888,946,0,0
-329,78,0,0,0,0,0,0,0,0,0,-1,895,946,0,0
-322,78,0,0,0,0,0,0,0,0,0,-1,902,946,0,0
-315,78,0,0,0,0,0,0,0,0,0,-1,909,946,0,0
-308,78,0,0,0,0,0,0,0,0,0,-1,916,946,0,0
-301,78,0,0,0,0,0,0,0,0,0,-1,923,946,0,0
-294,78,0,0,0,0,0,0,0,0,0,-1,930,946,0,0
-287,78,0,0,0,0,0,0,0,0,0,-1,937,946,0,0
-280,78,0,0,0,0,0,0,0,0,0,-1,944,946,0,0
-273,78,0,0,0,0,0,0,0,0,0,-1,951,946,0,0
-266,78,0,0,0,0,0,0,0,0,0,-1,958,946,0,0
-259,78,0,0,0,0,0,0,0,0,0,-1,965,946,0,0
-252,78,0,0,0,0,0,0,0,0,0,-1,972,946,0,0
-245,78,0,0,0,0,0,0,0,0,0,-1,979,946,0,0
-238,78,0,0,0,0,0,0,0,0,0,-1,986,946,0,0
-231,78,0,0,0,0,0,0,0,0,0,-1,993,946,0,0
-224,78,0,0,0,0,0,0,0,0,0,-1,1000,946,0,0
-217,78,0,0,0,0,0,0,0,0,0,-1,1007,946,0,0
-210,78,0,0,0,0,0,0,0,0,0,-1,1014,946,0,0
-203,78,0,0,0,0,0,0,0,0,0,-1,1021,946,0,0
-196,78,0,0,0,0,0,0,0,0,0,-1,1028,946,0,0
-189,78,0,0,0,0,0,0,0,0,0,-1,1035,946,0,0
-182,78,0,0,0,0,0,0,0,0,0,-1,1042,946,0,0
-175,78,0,0,0,0,0,0,0,0,0,-1,1049,946,0,0
-168,78,0,0,0,0,0,0,0,0,0,-1,1056,946,0,0
-161,78,0,0,0,0,0,0,0,0,0,-1,1063,946,0,0
-154,78,0,0,0,0,0,0,0,0,0,-1,1070,946,0,0
-147,78,0,0,0,0,0,0,0,0,0,-1,1077,946,0,0
-140,78,0,0,0,0,0,0,0,0,0,-1,1084,946,0,0
-133,78,0,0,0,0,0,0,0,0,0,-1,1091,946,0,0
-126,78,0,0,0,0,0,0,0,0,0,-1,1098,946,0,0
-119,78,0,0,0,0,0,0,0,0,0,-1,1105,946,0,0
-112,78,0,0,0,0,0,0,0,0,0,-1,1112,946,0,0
-105,78,0,0,0,0,0,0,0,0,0,-1,1119,946,0,0
-98,78,0,0,0,0,0,0,0,0,0,-1,1126,946,0,0
-91,78,0,0,0,0,0,0,0,0,0,-1,1133,946,0,0
-84,78,0,0,0,0,0,0,0,0,0,-1,1140,946,0,0
-77,78,0,0,0,0,0,0,0,0,0,-1,1147,946,0,0
-70,78,0,0,0,0,0,0,0,0,0,-1,1154,946,0,0
-63,78,0,0,0,0,0,0,0,0,0,-1,1161,946,0,0
-56,78,0,0,0,0,0,0,0,0,0,-1,1168,946,0,0
-49,78,0,0,0,0,0,0,0,0,0,-1,1175,946,0,0
-42,78,0,0,0,0,0,0,0,0,0,-1,1182,946,0,0
-35,78,0,0,0,0,0,0,0,0,0,-1,1189,946,0,0
-28,78,0,0,0,0,0,0,0,0,0,-1,1196,946,0,0
-21,78,0,0,0,0,0,0,0,0,0,-1,1203,946,0,0
-14,78,0,0,0,0,0,0,0,0,0,-1,1210,946,0,0
-7,78,0,0,0,0,0,0,0,0,0,-1,1217,946,0,0
0,78,0,0,0,0,0,0,0,0,0,-1,1224,946,0,0
7,78,0,0,0,0,0,0,0,0,0,-1,1231,946,0,0
14,78,0,0,0,0,0,0,0,0,0,-1,1238,946,0,0
21,78,0,0,0,0,0,0,0,0,0,-1,1245,946,0,0
28,78,0,0,0,0,0,0,0,0,0,-1,1252,946,0,0
35,78,0,0,0,0,0,0,0,0,0,-1,1259,946,0,0
42,78,0,0,0,0,0,0,0,0,0,-1,1266,946,0,0
49,78,0,0,0,0,0,0,0,0,0,-1,1273,946,0,0
56,78,0,0,0,0,0,0,0,0,0,-1,1280,946,0,0
63,78,0,0,0,0,0,0,0,0,0,-1,1287,946,0,0
70,78,0,0,0,0,0,0,0,0,0,-1,1294,946,0,0
77,78,0,0,0,0,0,0,0,0,0,-1,1301,946,0,0
84,78,0,0,0,0,0,0,0,0,0,-1,1308,946,0,0
91,78,0,0,0,0,0,0,0,0,0,-1,1315,946,0,0
98,78,0,0,0,0,0,0,0,0,0,-1,1322,946,0,0
105,78,0,0,0,0,0,0,0,0,0,-1,1329,946,0,0
112,78,0,0,0,0,0,0,0,0,0,-1,1336,946,0,0
119,78,0,0,0,0,0,0,0,0,0,-1,1343,946,0,0
126,78,0,0,0,0,0,0,0,0,0,-1,1350,946,0,0
133,78,0,0,0,0,0,0,0,0,0,-1,1357,946,0,0
140,78,0,0,0,0,0,0,0,0,0,-1,1364,946,0,0
147,78,0,0,0,0,0,0,0,0,0,-1,1371,946,0,0
154,78,0,0,0,0,0,0,0,0,0,-1,1378,946,0,0
161,78,0,0,0,0,0,0,0,0,0,-1,1385,946,0,0
168,78,0,0,0,0,0,0,0,0,0,-1,1392,946,0,0
175,78,0,0,0,0,0,0,0,0,0,-1,1399,946,0,0
182,78,0,0,0,0,0,0,0,0,0,-1,1406,946,0,0
189,78,0,0,0,0,0,0,0,0,0,-1,1413,946,0,0
196,78,0,0,0,0,0,0,0,0,0,-1,1420,946,0,0
203,78,0,0,0,0,0,0,0,0,0,-1,1427,946,0,0
210,78,0,0,0,0,0,0,0,0,0,-1,1434,946,0,0
217,78,0,0,0,0,0,0,0,0,0,-1,1441,946,0,0
224,78,0,0,0,0,0,0,0,0,0,-1,1448,946,0,0
231,78,0,0,0,0,0,0,0,0,0,-1,1455,946,0,0
238,78,0,0,0,0,0,0,0,0,0,-1,1462,946,0,0
245,78,0,0,0,0,0,0,0,0,0,-1,1469,946,0,0
252,78,0,0,0,0,0,0,0,0,0,-1,1476,946,0,0
259,78,0,0,0,0,0,0,0,0,0,-1,1483,946,0,0
266,78,0,0,0,0,0,0,0,0,0,-1,1490,946,0,0
273,78,0,0,0,0,0,0,0,0,0,-1,1497,946,0,0
280,78,0,0,0,0,0,0,0,0,0,-1,1504,946,0,0
287,78,0,0,0,0,0,0,0,0,0,-1,1511,946,0,0
294,78,0,0,0,0,0,0,0,0,0,-1,1518,946,0,0
301,78,0,0,0,0,0,0,0,0,0,-1,1525,946,0,0
308,78,0,0,0,0,0,0,0,0,0,-1,1532,946,0,0
315,78,0,0,0,0,0,0,0,0,0,-1,1539,946,0,0
322,78,0,0,0,0,0,0,0,0,0,-1,1546,946,0,0
329,78,0,0,0,0,0,0,0,0,0,-1,1553,946,0,0
336,78,0,0,0,0,0,0,0,0,0,-1,1560,946,0,0
343,78,0,0,0,0,0,0,0,0,0,-1,1567,946,0,0
350,78,0,0,0,0,0,0,0,0,0,-1,1574,946,0,0
357,78,0,0,0,0,0,0,0,0,0,-1,1581,946,0,0
364,78,0,0,0,0,0,0,0,0,0,-1,1588,946,0,0
371,78,0,0,0,0,0,0,0,0,0,-1,1595,946,0,0
378,78,0,0,0,0,0,0,0,0,0,-1,1602,946,0,0
385,78,0,0,0,0,0,0,0,0,0,-1,1609,946,0,0
392,78,0,0,0,0,0,0,0,0,0,-1,1616,946,0,0
399,78,0,0,0,0,0,0,0,0,0,-1,1623,946,0,0
406,78,0,0,0,0,0,0,0,0,0,-1,1630,946,0,0
413,78,0,0,0,0,0,0,0,0,0,-1,1637,946,0,0
420,78,0,0,0,0,0,0,0,0,0,-1,1644,946,0,0
427,78,0,0,0,0,0,0,0,0,0,-1,1651,946,0,0
434,78,0,0,0,0,0,0,0,0,0,-1,1658,946,0,0
441,78,0,0,0,0,0,0,0,0,0,-1,1665,946,0,0
448,78,0,0,0,0,0,0,0,0,0,-1,1672,946,0,0
455,78,0,0,0,0,0,0,0,0,0,-1,1679,946,0,0
462,78,0,0,0,0,0,0,0,0,0,-1,1686,946,0,0
469,78,0,0,0,0,0,0,0,0,0,-1,1693,946,0,0
476,78,0,0,0,0,0,0,0,0,0,-1,1700,946,0,0
483,78,0,0,0,0,0,0,0,0,0,-1,1707,946,0,0
490,78,0,0,0,0,0,0,0,0,0,-1,1714,946,0,0
497,78,0,0,0,0,0,0,0,0,0,-1,1721,946,0,0
504,78,0,0,0,0,0,0,0,0,0,-1,1728,946,0,0
511,78,0,0,0,0,0,0,0,0,0,-1,1735,946,0,0
518,78,0,0,0,0,0,0,0,0,0,-1,1742,946,0,0
525,78,0,0,0,0,0,0,0,0,0,-1,1749,946,0,0
532,78,0,0,0,0,0,0,0,0,0,-1,1756,946,0,0
539,78,0,0,0,0,0,0,0,0,0,-1,1763,946,0,0
546,78,0,0,0,0,0,0,0,0,0,-1,1770,946,0,0
553,78,0,0,0,0,0,0,0,0,0,-1,1777,946,0,0
560,78,0,0,0,0,0,0,0,0,0,-1,1784,946,0,0
567,78,0,0,0,0,0,0,0,0,0,-1,1791,946,0,0
574,78,0,0,0,0,0,0,0,0,0,-1,1798,946,0,0
581,78,0,0,0,0,0,0,0,0,0,-1,1805,946,0,0
588,78,0,0,0,0,0,0,0,0,0,-1,1812,946,0,0
595,78,0,0,0,0,0,0,0,0,0,-1,1819,946,0,0
602,78,0,0,0,0,0,0,0,0,0,-1,1826,946,0,0
609,78,0,0,0,0,0,0,0,0,0,-1,1833,946,0,0
616,78,0,0,0,0,0,0,0,0,0,-1,1840,946,0,0
623,78,0,0,0,0,0,0,0,0,0,-1,1847,946,0,0
630,78,0,0,0,0,0,0,0,0,0,-1,1854,946,0,0
637,78,19.1189,2.54651,-0.00162699,0.00640843,-0.00451351,0.00843338,-0.00365194,-1.14907,0.00715718,0.0451813,1861,946,19.1189,-2.54649
644,78,18.9755,2.5011,-0.00100459,0.00393358,-0.00242589,0.0049259,-0.00199691,-1.18251,0.0041144,0.0434943,1868,946,18.9755,-2.5011
651,78,18.9613,2.6225,-0.000970882,0.00225895,-0.00129755,0.00271564,-0.00142758,-1.23237,0.00243032,0.0413511,1875,946,18.9613,-2.6225
658,78,18.9104,2.63428,-0.00183767,0.00116811,-0.000521355,0.00125597,-0.00192553,-1.40384,0.00185035,0.0390324,1882,946,18.9104,-2.63429
665,78,18.9686,2.45734,-0.00345744,0.000562332,3.96248e-05,0.000562722,-0.00345783,1.56094,0.00251388,0.0407295,1889,946,18.9687,-2.45736
672,78,19.0087,2.4505,-0.00517114,0.000271428,0.000442189,0.00030712,-0.00520683,1.49025,0.00357799,0.0426167,1896,946,19.0087,-2.45048
679,78,18.9764,2.58191,-0.00668229,0.000150073,0.000721403,0.000225412,-0.00675763,1.46674,0.00458207,0.0412356,1903,946,18.9764,-2.5819
686,78,18.9111,2.58063,-0.00776206,0.000130271,0.000870305,0.000225102,-0.00785689,1.46226,0.00531455,0.0345883,1910,946,18.9111,-2.58062
693,78,18.8921,2.56152,-0.00844334,2.70474e-05,0.00106684,0.00015935,-0.00857564,1.44741,0.00577095,0.0272234,1917,946,18.8921,-2.56155
700,78,18.8938,2.56732,-0.0088262,9.68746e-05,0.00112357,0.000236177,-0.0089655,1.44744,0.00605726,0.0218452,1924,946,18.8938,-2.56732
707,78,18.7159,2.88373,-0.00885958,0.000307389,0.00101113,0.000417593,-0.00896978,1.46223,0.0061238,0.0364702,1931,946,18.716,-2.88376
714,78,17.5719,3.24683,0,0,0,0,0,0,0,-1,1938,946,17.5719,-3.24685
721,78,17.6584,3.3299,-0.00770143,0.000677519,0.000604526,0.00072091,-0.00774482,1.49914,0.00541952,0.0206084,1945,946,17.6584,-3.32988
728,78,17.7125,3.46259,-0.00644462,0.000989433,0.000360234,0.00100685,-0.00646204,1.52249,0.00467988,0.0213258,1952,946,17.7125,-3.46258
735,78,17.7037,3.56061,-0.00518717,0.00103814,-6.44098e-05,0.0010388,-0.00518784,-1.56045,0.00385181,0.0151085,1959,946,17.7038,-3.5606
742,78,17.692,3.65363,-0.00360772,0.00179601,4.70352e-05,0.00179642,-0.00360812,1.56209,0.00317822,0.013777,1966,946,17.692,-3.65365
749,78,17.6697,3.74426,-0.00221063,0.00261321,-0.00014865,0.00261778,-0.00221521,-1.54002,0.00279355,0.0132379,1973,946,17.6697,-3.74425
756,78,17.6793,3.8493,-0.00143595,0.00527285,-0.00140091,0.00555363,-0.00171673,-1.37299,0.00438807,0.0141278,1980,946,17.6793,-3.84933
763,78,17.6855,3.93756,-0.000692942,0.00787953,-0.00206939,0.00835293,-0.00116635,-1.3459,0.00599534,0.0126652,1987,946,17.6856,-3.93756
770,78,17.6775,4.01331,-0.00102894,0.0118373,-0.00284709,0.0124392,-0.0016308,-1.36247,0.00888639,0.0162343,1994,946,17.6775,-4.01333
777,78,17.5752,3.99719,-0.00219143,0.0171584,-0.00379323,0.0178755,-0.00290846,-1.38397,0.0129954,0.0359457,2001,946,17.5752,-3.99722
784,78,17.474,3.96497,-0.00431588,0.02438,-0.00508374,0.025254,-0.00518989,-1.40054,0.0188062,0.045762,2008,946,17.474,-3.96498
791,78,17.3735,3.78351,-0.00749598,0.0339879,-0.00699486,0.0351356,-0.00864367,-1.40817,0.0267742,0.0472822,2015,946,17.3736,-3.7835
798,78,17.2889,3.81384,-0.0121984,0.0466644,-0.00991003,0.0482881,-0.0138221,-1.4084,0.0376547,0.0444395,2022,946,17.2889,-3.81383
805,78,17.4097,3.86896,-0.0191813,0.0633561,-0.0144579,0.0658154,-0.0216406,-1.40231,0.052596,0.0455292,2029,946,17.4097,-3.86898
812,78,0,0,0,0,0,0,0,0,0,-1,2036,946,0,0
-700,71,0,0,0,0,0,0,0,0,0,-1,524,953,0,0
-693,71,0,0,0,0,0,0,0,0,0,-1,531,953,0,0
-686,71,-12.448,-1.60138,-0.00326695,0.0620779,0.0585374,0.0964437,-0.0376327,1.03994,0.0798528,0.0444237,538,953,-12.448,1.60138
-679,71,-12.5557,-0.820679,0.00523008,0.0483575,0.0455193,0.0771625,-0.0235749,1.0066,0.0608419,0.0469286,545,953,-12.5556,0.820665
-672,71,-12.9415,-0.0253906,0.0100448,0.0375393,0.0352133,0.0615937,-0.0140096,0.971499,0.0464421,0.0452178,552,953,-12.9415,0.0253828
-665,71,-12.6115,1.03082,0.0124859,0.028847,0.0269079,0.0487904,-0.00745749,0.932969,0.0352765,0.0461381,559,953,-12.6115,-1.03079
-658,71,-12.571,1.81891,0.0132568,0.0218119,0.0202088,0.0381908,-0.00312215,0.889692,0.0265625,0.0483323,566,953,-12.571,-1.81888
-651,71,-12.4577,2.58905,0,0,0,0,0,0,0,-1,573,953,-12.4577,-2.58903
-644,71,-11.644,1.73486,0.0115027,0.0116122,0.0106557,0.0222133,0.000901615,0.787969,0.0145177,0.0305696,580,953,-11.644,-1.73488
-637,71,-11.7013,1.61572,0.00958925,0.00812199,0.0073875,0.0162795,0.00143178,0.735907,0.0104086,0.0132273,587,953,-11.7013,-1.61574
-630,71,-11.7473,1.51575,0.00772331,0.00486457,0.00402059,0.0105611,0.00202683,0.614609,0.00647176,0.0122473,594,953,-11.7473,-1.51574
-623,71,-11.7656,1.43994,0.00542378,0.00219592,0.00148683,0.00600426,0.00161544,0.372216,0.00358771,0.0120281,601,953,-11.7656,-1.43993
-616,71,-11.7686,1.3689,0.00229466,0.0018838,0.0013806,0.00348503,0.000693426,0.711542,0.00213017,0.0121812,608,953,-11.7686,-1.36891
-609,71,-11.7415,1.29657,-0.000451412,0.000934545,0.000337328,0.00101229,-0.000529154,1.34429,0.000904405,0.0134893,615,953,-11.7415,-1.29658
-602,71,-11.7283,1.21094,-0.00313222,0.000250067,-0.000328325,0.000281643,-0.0031638,-1.47492,0.00220907,0.0147055,622,953,-11.7283,-1.21096
-595,71,-11.7516,1.14948,-0.00533723,0.000260549,-0.000406414,0.000289901,-0.00536658,-1.4987,0.00367817,0.0154767,629,953,-11.7516,-1.14946
-588,71,-11.7441,1.10278,-0.00641489,0.000308913,-0.000420515,0.00033511,-0.00644109,-1.50858,0.00441001,0.0164468,636,953,-11.7441,-1.10281
-581,71,-11.8397,0.991211,-0.00696466,0.000340171,-0.000653984,0.000398258,-0.00702275,-1.48221,0.00482007,0.0221383,643,953,-11.8396,-0.991208
-574,71,-12.1387,0.817627,-0.00740705,0.000415773,-0.000983242,0.000537463,-0.00752874,-1.44766,0.00520756,0.0267925,650,953,-12.1386,-0.817606
-567,71,-12.2687,0.642822,-0.00737702,0.000621355,-0.00121538,0.000801959,-0.00755763,-1.42328,0.0053259,0.0199827,657,953,-12.2688,-0.642799
-560,71,-12.2524,0.693542,-0.00707155,0.000876184,-0.00143682,0.00112796,-0.00732333,-1.39733,0.00529838,0.0286193,664,953,-12.2524,-0.693554
-553,71,-12.2266,0.789185,-0.00631449,0.00126028,-0.0018068,0.00166919,-0.00672339,-1.34823,0.00512999,0.0426567,671,953,-12.2266,-0.789182
-546,71,-12.2054,0.885315,-0.00508043,0.00177642,-0.00235599,0.00250789,-0.00581191,-1.26976,0.00492808,0.0441186,678,953,-12.2054,-0.885298
-539,71,-12.1354,0.986145,-0.00339011,0.00242309,-0.00313897,0.00379451,-0.00476153,-1.15889,0.00495034,0.0411617,685,953,-12.1353,-0.986132
-532,71,-12.4418,0.679565,-0.00132907,0.00322548,-0.0042695,0.00578707,-0.00389066,-1.0304,0.00562309,0.0430545,692,953,-12.4418,-0.679536
-525,71,-12.6096,0.314636,0.000540411,0.00428707,-0.00594866,0.0086504,-0.00382292,-0.93794,0.00737907,0.0431769,699,953,-12.6096,-0.314608
-518,71,0,0,0,0,0,0,0,0,0,-1,706,953,0,0
-511,71,0,0,0,0,0,0,0,0,0,-1,713,953,0,0
-504,71,0,0,0,0,0,0,0,0,0,-1,720,953,0,0
-497,71,0,0,0,0,0,0,0,0,0,-1,727,953,0,0
-490,71,0,0,0,0,0,0,0,0,0,-1,734,953,0,0
-483,71,0,0,0,0,0,0,0,0,0,-1,741,953,0,0
-476,71,0,0,0,0,0,0,0,0,0,-1,748,953,0,0
-469,71,0,0,0,0,0,0,0,0,0,-1,755,953,0,0
-462,71,0,0,0,0,0,0,0,0,0,-1,762,953,0,0
-455,71,0,0,0,0,0,0,0,0,0,-1,769,953,0,0
-448,71,0,0,0,0,0,0,0,0,0,-1,776,953,0,0
-441,71,0,0,0,0,0,0,0,0,0,-1,783,953,0,0
-434,71,0,0,0,0,0,0,0,0,0,-1,790,953,0,0
-427,71,0,0,0,0,0,0,0,0,0,-1,797,953,0,0
-420,71,0,0,0,0,0,0,0,0,0,-1,804,953,0,0
-413,71,0,0,0,0,0,0,0,0,0,-1,811,953,0,0
-406,71,0,0,0,0,0,0,0,0,0,-1,818,953,0,0
-399,71,0,0,0,0,0,0,0,0,0,-1,825,953,0,0
-392,71,0,0,0,0,0,0,0,0,0,-1,832,953,0,0
-385,71,0,0,0,0,0,0,0,0,0,-1,839,953,0,0
-378,71,0,0,0,0,0,0,0,0,0,-1,846,953,0,0
-371,71,0,0,0,0,0,0,0,0,0,-1,853,953,0,0
-364,71,0,0,0,0,0,0,0,0,0,-1,860,953,0,0
-357,71,0,0,0,0,0,0,0,0,0,-1,867,953,0,0
-350,71,0,0,0,0,0,0,0,0,0,-1,874,953,0,0
-343,71,0,0,0,0,0,0,0,0,0,-1,881,953,0,0
-336,71,0,0,0,0,0,0,0,0,0,-1,888,953,0,0
-329,71,0,0,0,0,0,0,0,0,0,-1,895,953,0,0
-322,71,0,0,0,0,0,0,0,0,0,-1,902,953,0,0
-315,71,0,0,0,0,0,0,0,0,0,-1,909,953,0,0
-308,71,0,0,0,0,0,0,0,0,0,-1,916,953,0,0
-301,71,0,0,0,0,0,0,0,0,0,-1,923,953,0,0
-294,71,0,0,0,0,0,0,0,0,0,-1,930,953,0,0
-287,71,0,0,0,0,0,0,0,0,0,-1,937,953,0,0
-280,71,0,0,0,0,0,0,0,0,0,-1,944,953,0,0
-273,71,0,0,0,0,0,0,0,0,0,-1,951,953,0,0
-266,71,0,0,0,0,0,0,0,0,0,-1,958,953,0,0
-259,71,0,0,0,0,0,0,0,0,0,-1,965,953,0,0
-252,71,0,0,0,0,0,0,0,0,0,-1,972,953,0,0
-245,71,0,0,0,0,0,0,0,0,0,-1,979,953,0,0
-238,71,0,0,0,0,0,0,0,0,0,-1,986,953,0,0
-231,71,0,0,0,0,0,0,0,0,0,-1,993,953,0,0
-224,71,0,0,0,0,0,0,0,0,0,-1,1000,953,0,0
-217,71,0,0,0,0,0,0,0,0,0,-1,1007,953,0,0
-210,71,0,0,0,0,0,0,0,0,0,-1,1014,953,0,0
-203,71,0,0,0,0,0,0,0,0,0,-1,1021,953,0,0
-196,71,0,0,0,0,0,0,0,0,0,-1,1028,953,0,0
-189,71,0,0,0,0,0,0,0,0,0,-1,1035,953,0,0
-182,71,0,0,0,0,0,0,0,0,0,-1,1042,953,0,0
-175,71,0,0,0,0,0,0,0,0,0,-1,1049,953,0,0
-168,71,0,0,0,0,0,0,0,0,0,-1,1056,953,0,0
-161,71,0,0,0,0,0,0,0,0,0,-1,1063,953,0,0
-154,71,0,0,0,0,0,0,0,0,0,-1,1070,953,0,0
-147,71,0,0,0,0,0,0,0,0,0,-1,1077,953,0,0
-140,71,0,0,0,0,0,0,0,0,0,-1,1084,953,0,0
-133,71,0,0,0,0,0,0,0,0,0,-1,1091,953,0,0
-126,71,0,0,0,0,0,0,0,0,0,-1,1098,953,0,0
-119,71,0,0,0,0,0,0,0,0,0,-1,1105,953,0,0
-112,71,0,0,0,0,0,0,0,0,0,-1,1112,953,0,0
-105,71,0,0,0,0,0,0,0,0,0,-1,1119,953,0,0
-98,71,0,0,0,0,0,0,0,0,0,-1,1126,953,0,0
-91,71,0,0,0,0,0,0,0,0,0,-1,1133,953,0,0
-84,71,0,0,0,0,0,0,0,0,0,-1,1140,953,0,0
-77,71,0,0,0,0,0,0,0,0,0,-1,1147,953,0,0
-70,71,0,0,0,0,0,0,0,0,0,-1,1154,953,0,0
-63,71,0,0,0,0,0,0,0,0,0,-1,1161,953,0,0
-56,71,0,0,0,0,0,0,0,0,0,-1,1168,953,0,0
-49,71,0,0,0,0,0,0,0,0,0,-1,1175,953,0,0
-42,71,0,0,0,0,0,0,0,0,0,-1,1182,953,0,0
-35,71,0,0,0,0,0,0,0,0,0,-1,1189,953,0,0
-28,71,0,0,0,0,0,0,0,0,0,-1,1196,953,0,0
-21,71,0,0,0,0,0,0,0,0,0,-1,1203,953,0,0
-14,71,0,0,0,0,0,0,0,0,0,-1,1210,953,0,0
-7,71,0,0,0,0,0,0,0,0,0,-1,1217,953,0,0
0,71,0,0,0,0,0,0,0,0,0,-1,1224,953,0,0
7,71,0,0,0,0,0,0,0,0,0,-1,1231,953,0,0
14,71,0,0,0,0,0,0,0,0,0,-1,1238,953,0,0
21,71,0,0,0,0,0,0,0,0,0,-1,1245,953,0,0
28,71,0,0,0,0,0,0,0,0,0,-1,1252,953,0,0
35,71,0,0,0,0,0,0,0,0,0,-1,1259,953,0,0
42,71,0,0,0,0,0,0,0,0,0,-1,1266,953,0,0
49,71,0,0,0,0,0,0,0,0,0,-1,1273,953,0,0
56,71,0,0,0,0,0,0,0,0,0,-1,1280,953,0,0
63,71,0,0,0,0,0,0,0,0,0,-1,1287,953,0,0
70,71,0,0,0,0,0,0,0,0,0,-1,1294,953,0,0
77,71,0,0,0,0,0,0,0,0,0,-1,1301,953,0,0
84,71,0,0,0,0,0,0,0,0,0,-1,1308,953,0,0
91,71,0,0,0,0,0,0,0,0,0,-1,1315,953,0,0
98,71,0,0,0,0,0,0,0,0,0,-1,1322,953,0,0
105,71,0,0,0,0,0,0,0,0,0,-1,1329,953,0,0
112,71,0,0,0,0,0,0,0,0,0,-1,1336,953,0,0
119,71,0,0,0,0,0,0,0,0,0,-1,1343,953,0,0
126,71,0,0,0,0,0,0,0,0,0,-1,1350,953,0,0
133,71,0,0,0,0,0,0,0,0,0,-1,1357,953,0,0
140,71,0,0,0,0,0,0,0,0,0,-1,1364,953,0,0
147,71,0,0,0,0,0,0,0,0,0,-1,1371,953,0,0
154,71,0,0,0,0,0,0,0,0,0,-1,1378,953,0,0
161,71,0,0,0,0,0,0,0,0,0,-1,1385,953,0,0
168,71,0,0,0,0,0,0,0,0,0,-1,1392,953,0,0
175,71,0,0,0,0,0,0,0,0,0,-1,1399,953,0,0
182,71,0,0,0,0,0,0,0,0,0,-1,1406,953,0,0
189,71,0,0,0,0,0,0,0,0,0,-1,1413,953,0,0
196,71,0,0,0,0,0,0,0,0,0,-1,1420,953,0,0
203,71,0,0,0,0,0,0,0,0,0,-1,1427,953,0,0
210,71,0,0,0,0,0,0,0,0,0,-1,1434,953,0,0
217,71,0,0,0,0,0,0,0,0,0,-1,1441,953,0,0
224,71,0,0,0,0,0,0,0,0,0,-1,1448,953,0,0
231,71,0,0,0,0,0,0,0,0,0,-1,1455,953,0,0
238,71,0,0,0,0,0,0,0,0,0,-1,1462,953,0,0
245,71,0,0,0,0,0,0,0,0,0,-1,1469,953,0,0
252,71,0,0,0,0,0,0,0,0,0,-1,1476,953,0,0
259,71,0,0,0,0,0,0,0,0,0,-1,1483,953,0,0
266,71,0,0,0,0,0,0,0,0,0,-1,1490,953,0,0
273,71,0,0,0,0,0,0,0,0,0,-1,1497,953,0,0
280,71,0,0,0,0,0,0,0,0,0,-1,1504,953,0,0
287,71,0,0,0,0,0,0,0,0,0,-1,1511,953,0,0
294,71,0,0,0,0,0,0,0,0,0,-1,1518,953,0,0
301,71,0,0,0,0,0,0,0,0,0,-1,1525,953,0,0
308,71,0,0,0,0,0,0,0,0,0,-1,1532,953,0,0
315,71,0,0,0,0,0,0,0,0,0,-1,1539,953,0,0
322,71,0,0,0,0,0,0,0,0,0,-1,1546,953,0,0
329,71,0,0,0,0,0,0,0,0,0,-1,1553,953,0,0
336,71,0,0,0,0,0,0,0,0,0,-1,1560,953,0,0
343,71,0,0,0,0,0,0,0,0,0,-1,1567,953,0,0
350,71,0,0,0,0,0,0,0,0,0,-1,1574,953,0,0
357,71,0,0,0,0,0,0,0,0,0,-1,1581,953,0,0
364,71,0,0,0,0,0,0,0,0,0,-1,1588,953,0,0
371,71,0,0,0,0,0,0,0,0,0,-1,1595,953,0,0
378,71,0,0,0,0,0,0,0,0,0,-1,1602,953,0,0
385,71,0,0,0,0,0,0,0,0,0,-1,1609,953,0,0
392,71,0,0,0,0,0,0,0,0,0,-1,1616,953,0,0
399,71,0,0,0,0,0,0,0,0,0,-1,1623,953,0,0
406,71,0,0,0,0,0,0,0,0,0,-1,1630,953,0,0
413,71,0,0,0,0,0,0,0,0,0,-1,1637,953,0,0
420,71,0,0,0,0,0,0,0,0,0,-1,1644,953,0,0
427,71,0,0,0,0,0,0,0,0,0,-1,1651,953,0,0
434,71,0,0,0,0,0,0,0,0,0,-1,1658,953,0,0
441,71,0,0,0,0,0,0,0,0,0,-1,1665,953,0,0
448,71,0,0,0,0,0,0,0,0,0,-1,1672,953,0,0
455,71,0,0,0,0,0,0,0,0,0,-1,1679,953,0,0
462,71,0,0,0,0,0,0,0,0,0,-1,1686,953,0,0
469,71,0,0,0,0,0,0,0,0,0,-1,1693,953,0,0
476,71,0,0,0,0,0,0,0,0,0,-1,1700,953,0,0
483,71,0,0,0,0,0,0,0,0,0,-1,1707,953,0,0
490,71,0,0,0,0,0,0,0,0,0,-1,1714,953,0,0
497,71,0,0,0,0,0,0,0,0,0,-1,1721,953,0,0
504,71,0,0,0,0,0,0,0,0,0,-1,1728,953,0,0
511,71,0,0,0,0,0,0,0,0,0,-1,1735,953,0,0
518,71,0,0,0,0,0,0,0,0,0,-1,1742,953,0,0
525,71,0,0,0,0,0,0,0,0,0,-1,1749,953,0,0
532,71,0,0,0,0,0,0,0,0,0,-1,1756,953,0,0
539,71,0,0,0,0,0,0,0,0,0,-1,1763,953,0,0
546,71,0,0,0,0,0,0,0,0,0,-1,1770,953,0,0
553,71,0,0,0,0,0,0,0,0,0,-1,1777,953,0,0
560,71,0,0,0,0,0,0,0,0,0,-1,1784,953,0,0
567,71,0,0,0,0,0,0,0,0,0,-1,1791,953,0,0
574,71,0,0,0,0,0,0,0,0,0,-1,1798,953,0,0
581,71,0,0,0,0,0,0,0,0,0,-1,1805,953,0,0
588,71,0,0,0,0,0,0,0,0,0,-1,1812,953,0,0
595,71,0,0,0,0,0,0,0,0,0,-1,1819,953,0,0
602,71,0,0,0,0,0,0,0,0,0,-1,1826,953,0,0
609,71,0,0,0,0,0,0,0,0,0,-1,1833,953,0,0
616,71,0,0,0,0,0,0,0,0,0,-1,1840,953,0,0
623,71,0,0,0,0,0,0,0,0,0,-1,1847,953,0,0
630,71,0,0,0,0,0,0,0,0,0,-1,1854,953,0,0
637,71,19.1133,2.38861,-0.00284807,0.00607785,-0.00190654,0.00646802,-0.00323824,-1.36893,0.00570639,0.0411795,1861,953,19.1133,-2.38864
644,71,19.0095,2.41547,-0.00201368,0.00381424,-0.000598899,0.00387515,-0.00207459,-1.46944,0.00348712,0.0437952,1868,953,19.0095,-2.41545
651,71,19.0507,2.57098,-0.0015495,0.00227339,-1.78508e-05,0.00227347,-0.00154959,-1.56613,0.00222039,0.0403451,1875,953,19.0506,-2.57099
658,71,19.0801,2.56921,-0.00181519,0.00124994,0.000395803,0.00130022,-0.00186548,1.44443,0.00183741,0.0367808,1882,953,19.0801,-2.56919
665,71,19.0834,2.58057,-0.00286486,0.000707749,0.000736291,0.000853544,-0.00301066,1.37531,0.00234401,0.0383566,1889,953,19.0834,-2.58055
672,71,18.9893,2.75555,-0.00419958,0.000480986,0.00103514,0.000699693,-0.00441829,1.36257,0.00320432,0.0404394,1896,953,18.9892,-2.75555
679,71,18.8931,2.66315,-0.00551224,0.000406775,0.00128959,0.000675538,-0.005781,1.36533,0.00409778,0.0388547,1903,953,18.8931,-2.66315
686,71,18.8297,2.54321,-0.0065037,0.000414737,0.00144416,0.000704091,-0.00679306,1.37305,0.00478072,0.0354803,1910,953,18.8297,-2.54323
693,71,18.8726,2.42883,-0.00716628,0.000335816,0.00162286,0.000671824,-0.00750229,1.36663,0.00523984,0.0309688,1917,953,18.8726,-2.42884
700,71,18.8702,2.48499,-0.00760618,0.000432304,0.00166093,0.000761969,-0.00793585,1.37486,0.00556198,0.0271917,1924,953,18.8702,-2.48496
707,71,18.8269,2.76544,-0.00778427,0.00062402,0.0015601,0.000904152,-0.0080644,1.39313,0.0057016,0.0288715,1931,953,18.8268,-2.76546
714,71,17.9897,3.27625,0,0,0,0,0,0,0,-1,1938,953,17.9897,-3.27623
721,71,17.8813,3.34515,-0.00711657,0.00092574,0.00117328,0.00109341,-0.00728424,1.42885,0.00525866,0.0286334,1945,953,17.8813,-3.34517
728,71,17.8011,3.47644,-0.00616523,0.00120738,0.000920454,0.00132056,-0.00627841,1.44845,0.0046882,0.0188729,1952,953,17.8012,-3.47642
735,71,17.8052,3.55066,-0.00520264,0.00120642,0.000465502,0.00124006,-0.00523628,1.49867,0.00396931,0.0127705,1959,953,17.8052,-3.55066
742,71,17.8146,3.66028,-0.00399112,0.00187995,0.000404589,0.0019077,-0.00401887,1.50232,0.00349332,0.0136363,1966,953,17.8146,-3.66027
749,71,17.8091,3.75287,-0.0031337,0.00248342,-0.000331182,0.00250288,-0.00315316,-1.51211,0.0032727,0.0156056,1973,953,17.8091,-3.75285
756,71,17.8031,3.84149,-0.00298364,0.0050024,-0.00225682,0.00559604,-0.00357728,-1.31358,0.0053388,0.015313,1980,953,17.8032,-3.84149
763,71,17.7933,3.92865,-0.00285863,0.00735262,-0.00382531,0.00862669,-0.0041327,-1.24929,0.0075174,0.0132817,1987,953,17.7933,-3.92864
770,71,17.7731,4.01331,-0.00398731,0.0110081,-0.00597103,0.0130952,-0.00607443,-1.23453,0.0113123,0.0151248,1994,953,17.773,-4.01333
777,71,17.6356,4.04852,-0.00620897,0.0159432,-0.00880537,0.0190168,-0.00928259,-1.23496,0.0166577,0.0335338,2001,953,17.6357,-4.04854
784,71,17.6406,3.84589,-0.00986546,0.0226858,-0.0127716,0.0270986,-0.0142782,-1.23812,0.0242681,0.0436308,2008,953,17.6406,-3.8459
791,71,17.1814,3.28284,-0.0151194,0.0316995,-0.0183987,0.0380644,-0.0214843,-1.23774,0.0348219,0.0445046,2015,953,17.1814,-3.28281
798,71,17.0337,3.25861,0,0,0,0,0,0,0,-1,2022,953,17.0337,-3.25858
805,71,17.1208,2.95374,0,0,0,0,0,0,0,-1,2029,953,17.1209,-2.95376
812,71,0,0,0,0,0,0,0,0,0,-1,2036,953,0,0
-700,64,0,0,0,0,0,0,0,0,0,-1,524,960,0,0
-693,64,0,0,0,0,0,0,0,0,0,-1,531,960,0,0
-686,64,-12.4664,-1.89777,-0.00930937,0.0433893,0.0541514,0.0772617,-0.0431818,1.01183,0.0704599,0.0458821,538,960,-12.4664,1.89779
-679,64,-12.6434,-0.967163,-0.00187128,0.0355461,0.0425466,0.0633156,-0.0296408,0.992535,0.0548297,0.0440725,545,960,-12.6434,0.967158
-672,64,-12.5808,-0.0661011,0.00268103,0.0290689,0.0332222,0.0516212,-0.0198713,0.974418,0.0426114,0.0438827,552,960,-12.5808,0.0660763
-665,64,-12.4631,0.644287,0.0053709,0.0235505,0.0255945,0.0416214,-0.0127,0.956025,0.0328108,0.044875,559,960,-12.4632,-0.644278
-658,64,-12.3956,1.3468,0.00671499,0.0187755,0.0193481,0.0330113,-0.00752082,0.936463,0.0248961,0.0453166,566,960,-12.3956,-1.34683
-651,64,-12.3282,2.02618,0,0,0,0,0,0,0,-1,573,960,-12.3282,-2.02621
-644,64,-11.819,1.66498,0.00661933,0.0110941,0.0102295,0.019328,-0.00161457,0.893062,0.0134558,0.0301887,580,960,-11.819,-1.66497
-637,64,-11.7963,1.58563,0.00565331,0.00831376,0.00703209,0.0141403,-0.000173261,0.878876,0.00948517,0.0154291,587,960,-11.7963,-1.58565
-630,64,-11.8353,1.52582,0.00468607,0.0055392,0.00372433,0.00886131,0.00136395,0.842417,0.00550946,0.0126032,594,960,-11.8353,-1.5258
-623,64,-11.8467,1.44934,0.00303028,0.00314634,0.00120532,0.00429503,0.00188159,0.80945,0.00248607,0.0129587,601,960,-11.8468,-1.44932
-616,64,-11.8426,1.3869,0.000648878,0.00267696,0.000922262,0.00303363,0.000292208,1.20178,0.00193239,0.0164918,608,960,-11.8426,-1.38687
-609,64,-11.8179,1.31732,-0.00141,0.00151288,-6.67664e-05,0.0015144,-0.00141153,-1.54797,0.00168963,0.0158898,615,960,-11.8179,-1.31735
-602,64,-11.7988,1.23376,-0.00347378,0.000679707,-0.000711748,0.000798288,-0.00359237,-1.40571,0.00270062,0.0155626,622,960,-11.7988,-1.23375
-595,64,-11.8265,1.16992,-0.00513708,0.000617835,-0.000858744,0.000743243,-0.00526249,-1.42578,0.00378051,0.0162523,629,960,-11.8265,-1.16994
-588,64,-11.8443,1.14575,-0.00596447,0.00061847,-0.000921517,0.000745036,-0.00609103,-1.43431,0.00433045,0.022318,636,960,-11.8443,-1.14576
-581,64,-11.9728,1.04608,-0.00639456,0.000632072,-0.00114735,0.000814672,-0.00657716,-1.41297,0.00468003,0.0279161,643,960,-11.9728,-1.04611
-574,64,-12.1935,0.898865,-0.00675493,0.000680736,-0.00148403,0.000965981,-0.00704018,-1.3809,0.00504636,0.0317972,650,960,-12.1935,-0.898846
-567,64,-12.2322,0.689087,-0.00668765,0.000851928,-0.00172255,0.00122683,-0.00706255,-1.35649,0.0051661,0.0257211,657,960,-12.2321,-0.689088
-560,64,-12.2838,0.821228,-0.00634769,0.00107754,-0.00198882,0.00157668,-0.00684683,-1.3249,0.00517087,0.0348605,664,960,-12.2837,-0.821226
-553,64,-12.3123,1.0155,-0.00556109,0.00141522,-0.00240782,0.00216556,-0.00631143,-1.26871,0.00508556,0.0406717,671,960,-12.3123,-1.01548
-546,64,-12.3455,1.12653,-0.00431789,0.00188092,-0.00304073,0.00312345,-0.00556042,-1.18287,0.00507901,0.0431435,678,960,-12.3455,-1.12652
-539,64,-12.4514,0.699829,-0.00263582,0.00248578,-0.00397183,0.00465077,-0.00480081,-1.07173,0.0054571,0.0412721,685,960,-12.4514,-0.699846
-532,64,-12.4927,0.76593,-0.000630735,0.00329794,-0.00537454,0.00705586,-0.00438866,-0.960601,0.00666704,0.0422317,692,960,-12.4927,-0.765944
-525,64,-12.7278,0.574951,0.00104814,0.00448019,-0.00750438,0.0104622,-0.00493392,-0.897801,0.00907798,0.043068,699,960,-12.7279,-0.574976
-518,64,0,0,0,0,0,0,0,0,0,-1,706,960,0,0
-511,64,0,0,0,0,0,0,0,0,0,-1,713,960,0,0
-504,64,0,0,0,0,0,0,0,0,0,-1,720,960,0,0
-497,64,0,0,0,0,0,0,0,0,0,-1,727,960,0,0
-490,64,0,0,0,0,0,0,0,0,0,-1,734,960,0,0
-483,64,0,0,0,0,0,0,0,0,0,-1,741,960,0,0
-476,64,0,0,0,0,0,0,0,0,0,-1,748,960,0,0
-469,64,0,0,0,0,0,0,0,0,0,-1,755,960,0,0
-462,64,0,0,0,0,0,0,0,0,0,-1,762,960,0,0
-455,64,0,0,0,0,0,0,0,0,0,-1,769,960,0,0
-448,64,0,0,0,0,0,0,0,0,0,-1,776,960,0,0
-441,64,0,0,0,0,0,0,0,0,0,-1,783,960,0,0
-434,64,0,0,0,0,0,0,0,0,0,-1,790,960,0,0
-427,64,0,0,0,0,0,0,0,0,0,-1,797,960,0,0
-420,64,0,0,0,0,0,0,0,0,0,-1,804,960,0,0
-413,64,0,0,0,0,0,0,0,0,0,-1,811,960,0,0
-406,64,0,0,0,0,0,0,0,0,0,-1,818,960,0,0
-399,64,0,0,0,0,0,0,0,0,0,-1,825,960,0,0
-392,64,0,0,0,0,0,0,0,0,0,-1,832,960,0,0
-385,64,0,0,0,0,0,0,0,0,0,-1,839,960,0,0
-378,64,0,0,0,0,0,0,0,0,0,-1,846,960,0,0
-371,64,0,0,0,0,0,0,0,0,0,-1,853,960,0,0
-364,64,0,0,0,0,0,0,0,0,0,-1,860,960,0,0
-357,64,0,0,0,0,0,0,0,0,0,-1,867,960,0,0
-350,64,0,0,0,0,0,0,0,0,0,-1,874,960,0,0
-343,64,0,0,0,0,0,0,0,0,0,-1,881,960,0,0
-336,64,0,0,0,0,0,0,0,0,0,-1,888,960,0,0
-329,64,0,0,0,0,0,0,0,0,0,-1,895,960,0,0
-322,64,0,0,0,0,0,0,0,0,0,-1,902,960,0,0
-315,64,0,0,0,0,0,0,0,0,0,-1,909,960,0,0
-308,64,0,0,0,0,0,0,0,0,0,-1,916,960,0,0
-301,64,0,0,0,0,0,0,0,0,0,-1,923,960,0,0
-294,64,0,0,0,0,0,0,0,0,0,-1,930,960,0,0
-287,64,0,0,0,0,0,0,0,0,0,-1,937,960,0,0
-280,64,0,0,0,0,0,0,0,0,0,-1,944,960,0,0
-273,64,0,0,0,0,0,0,0,0,0,-1,951,960,0,0
-266,64,0,0,0,0,0,0,0,0,0,-1,958,960,0,0
-259,64,0,0,0,0,0,0,0,0,0,-1,965,960,0,0
-252,64,0,0,0,0,0,0,0,0,0,-1,972,960,0,0
-245,64,0,0,0,0,0,0,0,0,0,-1,979,960,0,0
-238,64,0,0,0,0,0,0,0,0,0,-1,986,960,0,0
-231,64,0,0,0,0,0,0,0,0,0,-1,993,960,0,0
-224,64,0,0,0,0,0,0,0,0,0,-1,1000,960,0,0
-217,64,0,0,0,0,0,0,0,0,0,-1,1007,960,0,0
-210,64,0,0,0,0,0,0,0,0,0,-1,1014,960,0,0
-203,64,0,0,0,0,0,0,0,0,0,-1,1021,960,0,0
-196,64,0,0,0,0,0,0,0,0,0,-1,1028,960,0,0
-189,64,0,0,0,0,0,0,0,0,0,-1,1035,960,0,0
-182,64,0,0,0,0,0,0,0,0,0,-1,1042,960,0,0
-175,64,0,0,0,0,0,0,0,0,0,-1,1049,960,0,0
-168,64,0,0,0,0,0,0,0,0,0,-1,1056,960,0,0
-161,64,0,0,0,0,0,0,0,0,0,-1,1063,960,0,0
-154,64,0,0,0,0,0,0,0,0,0,-1,1070,960,0,0
-147,64,0,0,0,0,0,0,0,0,0,-1,1077,960,0,0
-140,64,0,0,0,0,0,0,0,0,0,-1,1084,960,0,0
-133,64,0,0,0,0,0,0,0,0,0,-1,1091,960,0,0
-126,64,0,0,0,0,0,0,0,0,0,-1,1098,960,0,0
-119,64,0,0,0,0,0,0,0,0,0,-1,1105,960,0,0
-112,64,0,0,0,0,0,0,0,0,0,-1,1112,960,0,0
-105,64,0,0,0,0,0,0,0,0,0,-1,1119,960,0,0
-98,64,0,0,0,0,0,0,0,0,0,-1,1126,960,0,0
-91,64,0,0,0,0,0,0,0,0,0,-1,1133,960,0,0
-84,64,0,0,0,0,0,0,0,0,0,-1,1140,960,0,0
-77,64,0,0,0,0,0,0,0,0,0,-1,1147,960,0,0
-70,64,0,0,0,0,0,0,0,0,0,-1,1154,960,0,0
-63,64,0,0,0,0,0,0,0,0,0,-1,1161,960,0,0
-56,64,0,0,0,0,0,0,0,0,0,-1,1168,960,0,0
-49,64,0,0,0,0,0,0,0,0,0,-1,1175,960,0,0
-42,64,0,0,0,0,0,0,0,0,0,-1,1182,960,0,0
-35,64,0,0,0,0,0,0,0,0,0,-1,1189,960,0,0
-28,64,0,0,0,0,0,0,0,0,0,-1,1196,960,0,0
-21,64,0,0,0,0,0,0,0,0,0,-1,1203,960,0,0
-14,64,0,0,0,0,0,0,0,0,0,-1,1210,960,0,0
-7,64,0,0,0,0,0,0,0,0,0,-1,1217,960,0,0
0,64,0,0,0,0,0,0,0,0,0,-1,1224,960,0,0
7,64,0,0,0,0,0,0,0,0,0,-1,1231,960,0,0
14,64,0,0,0,0,0,0,0,0,0,-1,1238,960,0,0
21,64,0,0,0,0,0,0,0,0,0,-1,1245,960,0,0
28,64,0,0,0,0,0,0,0,0,0,-1,1252,960,0,0
35,64,0,0,0,0,0,0,0,0,0,-1,1259,960,0,0
42,64,0,0,0,0,0,0,0,0,0,-1,1266,960,0,0
49,64,0,0,0,0,0,0,0,0,0,-1,1273,960,0,0
56,64,0,0,0,0,0,0,0,0,0,-1,1280,960,0,0
63,64,0,0,0,0,0,0,0,0,0,-1,1287,960,0,0
70,64,0,0,0,0,0,0,0,0,0,-1,1294,960,0,0
77,64,0,0,0,0,0,0,0,0,0,-1,1301,960,0,0
84,64,0,0,0,0,0,0,0,0,0,-1,1308,960,0,0
91,64,0,0,0,0,0,0,0,0,0,-1,1315,960,0,0
98,64,0,0,0,0,0,0,0,0,0,-1,1322,960,0,0
105,64,0,0,0,0,0,0,0,0,0,-1,1329,960,0,0
112,64,0,0,0,0,0,0,0,0,0,-1,1336,960,0,0
119,64,0,0,0,0,0,0,0,0,0,-1,1343,960,0,0
126,64,0,0,0,0,0,0,0,0,0,-1,1350,960,0,0
133,64,0,0,0,0,0,0,0,0,0,-1,1357,960,0,0
140,64,0,0,0,0,0,0,0,0,0,-1,1364,960,0,0
147,64,0,0,0,0,0,0,0,0,0,-1,1371,960,0,0
154,64,0,0,0,0,0,0,0,0,0,-1,1378,960,0,0
161,64,0,0,0,0,0,0,0,0,0,-1,1385,960,0,0
168,64,0,0,0,0,0,0,0,0,0,-1,1392,960,0,0
175,64,0,0,0,0,0,0,0,0,0,-1,1399,960,0,0
182,64,0,0,0,0,0,0,0,0,0,-1,1406,960,0,0
189,64,0,0,0,0,0,0,0,0,0,-1,1413,960,0,0
196,64,0,0,0,0,0,0,0,0,0,-1,1420,960,0,0
203,64,0,0,0,0,0,0,0,0,0,-1,1427,960,0,0
210,64,0,0,0,0,0,0,0,0,0,-1,1434,960,0,0
217,64,0,0,0,0,0,0,0,0,0,-1,1441,960,0,0
224,64,0,0,0,0,0,0,0,0,0,-1,1448,960,0,0
231,64,0,0,0,0,0,0,0,0,0,-1,1455,960,0,0
238,64,0,0,0,0,0,0,0,0,0,-1,1462,960,0,0
245,64,0,0,0,0,0,0,0,0,0,-1,1469,960,0,0
252,64,0,0,0,0,0,0,0,0,0,-1,1476,960,0,0
259,64,0,0,0,0,0,0,0,0,0,-1,1483,960,0,0
266,64,0,0,0,0,0,0,0,0,0,-1,1490,960,0,0
273,64,0,0,0,0,0,0,0,0,0,-1,1497,960,0,0
280,64,0,0,0,0,0,0,0,0,0,-1,1504,960,0,0
287,64,0,0,0,0,0,0,0,0,0,-1,1511,960,0,0
294,64,0,0,0,0,0,0,0,0,0,-1,1518,960,0,0
301,64,0,0,0,0,0,0,0,0,0,-1,1525,960,0,0
308,64,0,0,0,0,0,0,0,0,0,-1,1532,960,0,0
315,64,0,0,0,0,0,0,0,0,0,-1,1539,960,0,0
322,64,0,0,0,0,0,0,0,0,0,-1,1546,960,0,0
329,64,0,0,0,0,0,0,0,0,0,-1,1553,960,0,0
336,64,0,0,0,0,0,0,0,0,0,-1,1560,960,0,0
343,64,0,0,0,0,0,0,0,0,0,-1,1567,960,0,0
350,64,0,0,0,0,0,0,0,0,0,-1,1574,960,0,0
357,64,0,0,0,0,0,0,0,0,0,-1,1581,960,0,0
364,64,0,0,0,0,0,0,0,0,0,-1,1588,960,0,0
371,64,0,0,0,0,0,0,0,0,0,-1,1595,960,0,0
378,64,0,0,0,0,0,0,0,0,0,-1,1602,960,0,0
385,64,0,0,0,0,0,0,0,0,0,-1,1609,960,0,0
392,64,0,0,0,0,0,0,0,0,0,-1,1616,960,0,0
399,64,0,0,0,0,0,0,0,0,0,-1,1623,960,0,0
406,64,0,0,0,0,0,0,0,0,0,-1,1630,960,0,0
413,64,0,0,0,0,0,0,0,0,0,-1,1637,960,0,0
420,64,0,0,0,0,0,0,0,0,0,-1,1644,960,0,0
427,64,0,0,0,0,0,0,0,0,0,-1,1651,960,0,0
434,64,0,0,0,0,0,0,0,0,0,-1,1658,960,0,0
441,64,0,0,0,0,0,0,0,0,0,-1,1665,960,0,0
448,64,0,0,0,0,0,0,0,0,0,-1,1672,960,0,0
455,64,0,0,0,0,0,0,0,0,0,-1,1679,960,0,0
462,64,0,0,0,0,0,0,0,0,0,-1,1686,960,0,0
469,64,0,0,0,0,0,0,0,0,0,-1,1693,960,0,0
476,64,0,0,0,0,0,0,0,0,0,-1,1700,960,0,0
483,64,0,0,0,0,0,0,0,0,0,-1,1707,960,0,0
490,64,0,0,0,0,0,0,0,0,0,-1,1714,960,0,0
497,64,0,0,0,0,0,0,0,0,0,-1,1721,960,0,0
504,64,0,0,0,0,0,0,0,0,0,-1,1728,960,0,0
511,64,0,0,0,0,0,0,0,0,0,-1,1735,960,0,0
518,64,0,0,0,0,0,0,0,0,0,-1,1742,960,0,0
525,64,0,0,0,0,0,0,0,0,0,-1,1749,960,0,0
532,64,0,0,0,0,0,0,0,0,0,-1,1756,960,0,0
539,64,0,0,0,0,0,0,0,0,0,-1,1763,960,0,0
546,64,0,0,0,0,0,0,0,0,0,-1,1770,960,0,0
553,64,0,0,0,0,0,0,0,0,0,-1,1777,960,0,0
560,64,0,0,0,0,0,0,0,0,0,-1,1784,960,0,0
567,64,0,0,0,0,0,0,0,0,0,-1,1791,960,0,0
574,64,0,0,0,0,0,0,0,0,0,-1,1798,960,0,0
581,64,0,0,0,0,0,0,0,0,0,-1,1805,960,0,0
588,64,0,0,0,0,0,0,0,0,0,-1,1812,960,0,0
595,64,0,0,0,0,0,0,0,0,0,-1,1819,960,0,0
602,64,0,0,0,0,0,0,0,0,0,-1,1826,960,0,0
609,64,0,0,0,0,0,0,0,0,0,-1,1833,960,0,0
616,64,0,0,0,0,0,0,0,0,0,-1,1840,960,0,0
623,64,0,0,0,0,0,0,0,0,0,-1,1847,960,0,0
630,64,0,0,0,0,0,0,0,0,0,-1,1854,960,0,0
637,64,0,0,0,0,0,0,0,0,0,-1,1861,960,0,0
644,64,18.9396,2.62903,-0.00243002,0.00346107,0.00082634,0.00357478,-0.00254373,1.43404,0.00354921,0.0421556,1868,960,18.9396,-2.62905
651,64,19.0653,2.58435,-0.00174072,0.00213482,0.000981183,0.00236907,-0.00197497,1.33644,0.00251147,0.0393201,1875,960,19.0653,-2.58433
658,64,19.026,2.68207,-0.00159553,0.00123397,0.00112419,0.00162624,-0.00198781,1.23507,0.00209005,0.0350328,1882,960,19.0261,-2.68208
665,64,18.9666,2.75958,-0.00218329,0.000776161,0.00130313,0.00126817,-0.0026753,1.20978,0.00232457,0.0378348,1889,960,18.9666,-2.75959
672,64,18.8668,2.6969,-0.00317593,0.000608211,0.00153484,0.00115246,-0.00372018,1.23003,0.00294054,0.0403597,1896,960,18.8669,-2.69687
679,64,18.8168,2.68359,-0.00428951,0.000567791,0.00178876,0.00115543,-0.00487715,1.25339,0.00369725,0.0393892,1903,960,18.8168,-2.68356
686,64,18.873,2.50385,-0.00518202,0.00059221,0.00196723,0.00119872,-0.00578853,1.27174,0.00431446,0.036171,1910,960,18.873,-2.50387
693,64,18.8989,2.42529,-0.00582329,0.000531179,0.00214422,0.00118703,-0.00647914,1.27397,0.00476465,0.0326515,1917,960,18.8989,-2.42531
700,64,18.8999,2.48425,-0.00630914,0.000643901,0.00217568,0.00126857,-0.00693381,1.2912,0.00509828,0.0287155,1924,960,18.9,-2.48428
707,64,18.8571,2.67529,-0.00659667,0.000816605,0.0020999,0.0013701,-0.00715016,1.31308,0.00528303,0.0319298,1931,960,18.857,-2.67532
714,64,18.427,3.38129,0,0,0,0,0,0,0,-1,1938,960,18.427,-3.38131
721,64,17.9756,3.37006,-0.00635368,0.00106499,0.0017248,0.00144638,-0.00673508,1.35317,0.00504182,0.0289656,1945,960,17.9756,-3.37007
728,64,17.8608,3.51245,-0.00569959,0.00131569,0.00146412,0.001609,-0.0059929,1.37308,0.00462583,0.013819,1952,960,17.8609,-3.51246
735,64,17.8759,3.58588,-0.00502477,0.00129263,0.000996157,0.00144598,-0.00517812,1.41805,0.00402168,0.0163215,1959,960,17.8759,-3.58588
742,64,17.9154,3.66589,-0.00416972,0.00187259,0.000775001,0.00197041,-0.00426754,1.44524,0.00368198,0.0152883,1966,960,17.9154,-3.66587
749,64,17.8898,3.73444,-0.00378354,0.00226407,-0.000428265,0.00229425,-0.00381372,-1.50045,0.00356263,0.012734,1973,960,17.8898,-3.73446
756,64,17.8859,3.82031,-0.0041506,0.00458379,-0.00289715,0.00545738,-0.00502419,-1.27793,0.00605326,0.0135993,1980,960,17.8858,-3.8203
763,64,17.8879,3.91534,-0.0045703,0.00663506,-0.00521251,0.00868485,-0.00662009,-1.19613,0.00886307,0.0130329,1987,960,17.8879,-3.91532
770,64,17.8622,4.00659,-0.00633419,0.0098839,-0.00850639,0.0135271,-0.00997739,-1.16614,0.0136218,0.0132571,1994,960,17.8621,-4.00658
777,64,17.7648,4.09833,-0.00938659,0.0143277,-0.0129248,0.0200103,-0.0150692,-1.15657,0.02032,0.0293649,2001,960,17.7648,-4.09831
784,64,17.7196,4.21045,-0.0142436,0.0204746,-0.0191331,0.0289498,-0.0227188,-1.15381,0.0299031,0.043536,2008,960,17.7196,-4.21046
791,64,17.3424,3.08685,-0.0211392,0.0287876,-0.0278895,0.041254,-0.0336057,-1.15044,0.0432954,0.0493237,2015,960,17.3425,-3.08685
798,64,17.3466,3.02795,-0.0306719,0.0399508,-0.0400937,0.058066,-0.0487871,-1.14643,0.0617692,0.0459978,2022,960,17.3465,-3.02794
805,64,16.7887,1.7876,-0.0437845,0.054934,-0.0568644,0.0808734,-0.069724,-1.14283,0.0870269,0.04833,2029,960,16.7887,-1.78761
812,64,0,0,0,0,0,0,0,0,0,-1,2036,960,0,0
-700,57,0,0,0,0,0,0,0,0,0,-1,524,967,0,0
-693,57,0,0,0,0,0,0,0,0,0,-1,531,967,0,0
-686,57,-12.3395,-2.23822,-0.0168664,0.0220001,0.0471687,0.0535819,-0.0484482,0.9808,0.058932,0.0421562,538,967,-12.3396,2.23824
-679,57,-12.5966,-1.07996,-0.00979253,0.0199818,0.0375019,0.0454434,-0.0352541,0.974344,0.0467144,0.0452723,545,967,-12.5965,1.07997
-672,57,-12.3676,-0.297485,-0.00502961,0.0179443,0.0296408,0.0382462,-0.0253315,0.970257,0.0369581,0.0466876,552,967,-12.3675,0.297489
-665,57,-12.0005,0.586975,-0.00179445,0.0158312,0.0231259,0.0317666,-0.0177298,0.967444,0.0289572,0.0445917,559,967,-12.0005,-0.586988
-658,57,-12.1491,1.13416,0.000292087,0.0136403,0.0177118,0.0258937,-0.0119613,0.96558,0.0223436,0.0492777,566,967,-12.1491,-1.13413
-651,57,-11.9437,1.62286,0.00148094,0.0114034,0.0132399,0.0205811,-0.00769673,0.96466,0.0168817,0.0435328,573,967,-11.9436,-1.62285
-644,57,-11.8953,1.48743,0.00197541,0.00921383,0.00957537,0.0158311,-0.0046419,0.966085,0.0123946,0.0291508,580,967,-11.8953,-1.48742
-637,57,-11.8758,1.54767,0.00195527,0.00749104,0.00660918,0.0118885,-0.00244221,0.983699,0.00885276,0.0163026,587,967,-11.8758,-1.54767
-630,57,-11.915,1.5097,0.00185893,0.00550326,0.00350898,0.00763498,-0.000272788,1.02488,0.00518331,0.0132992,594,967,-11.915,-1.5097
-623,57,-11.9116,1.43726,0.000875576,0.00358455,0.00109622,0.00397257,0.000487554,1.2306,0.00250175,0.0129532,601,967,-11.9116,-1.43728
-616,57,-11.8943,1.37463,-0.000736914,0.00311334,0.000622971,0.00321162,-0.000835202,1.41431,0.00246707,0.0150738,608,967,-11.8943,-1.37465
-609,57,-11.8902,1.30426,-0.00209951,0.00185007,-0.000330659,0.00187756,-0.002127,-1.48785,0.00231353,0.0143248,615,967,-11.8902,-1.30424
-602,57,-11.8932,1.22815,-0.00357544,0.000955145,-0.001013,0.00117133,-0.00379163,-1.36054,0.00299553,0.0109133,622,967,-11.8933,-1.22816
-595,57,-11.9075,1.17249,-0.00471129,0.000800754,-0.00127982,0.00108341,-0.00499395,-1.35343,0.00374307,0.012075,629,967,-11.9075,-1.1725
-588,57,-11.9506,1.14752,-0.00525303,0.000743972,-0.00141796,0.00106234,-0.0055714,-1.34993,0.00411435,0.016378,636,967,-11.9505,-1.1475
-581,57,-12.0851,1.00092,-0.00552758,0.00073412,-0.00164469,0.00113983,-0.00593328,-1.32895,0.00438512,0.0256653,643,967,-12.0851,-1.00092
-574,57,-12.2266,0.826172,-0.00577722,0.000767315,-0.00198933,0.00132456,-0.00633447,-1.29768,0.00472677,0.0315222,650,967,-12.2266,-0.826152
-567,57,-12.2822,0.641785,-0.00564677,0.000901927,-0.00222714,0.00158756,-0.00633241,-1.27215,0.0048384,0.0335071,657,967,-12.2822,-0.641782
-560,57,-12.2622,0.786621,-0.0052435,0.00108268,-0.0025193,0.00196336,-0.00612417,-1.2345,0.00487097,0.0407598,664,967,-12.2622,-0.786604
-553,57,-12.286,1.03754,-0.00441977,0.00136555,-0.00297026,0.00261897,-0.00567318,-1.17148,0.00489453,0.0414992,671,967,-12.286,-1.03754
-546,57,-12.5448,1.09045,-0.00317201,0.00176353,-0.00366457,0.00371378,-0.00512226,-1.08173,0.00512305,0.0435351,678,967,-12.5448,-1.09048
-539,57,-12.7167,0.624023,-0.00150984,0.00229493,-0.0047239,0.00548512,-0.00470003,-0.976821,0.00588622,0.0427322,685,967,-12.7167,-0.624042
-532,57,-12.5543,0.589783,0.000406778,0.00306682,-0.00638116,0.00825509,-0.0047815,-0.888142,0.00761522,0.039612,692,967,-12.5543,-0.589767
-525,57,-12.5203,0.585266,0.00186591,0.00427149,-0.008936,0.0120853,-0.00594788,-0.852296,0.0106105,0.0416665,699,967,-12.5203,-0.585264
-518,57,0,0,0,0,0,0,0,0,0,-1,706,967,0,0
-511,57,0,0,0,0,0,0,0,0,0,-1,713,967,0,0
-504,57,0,0,0,0,0,0,0,0,0,-1,720,967,0,0
-497,57,0,0,0,0,0,0,0,0,0,-1,727,967,0,0
-490,57,0,0,0,0,0,0,0,0,0,-1,734,967,0,0
-483,57,0,0,0,0,0,0,0,0,0,-1,741,967,0,0
-476,57,0,0,0,0,0,0,0,0,0,-1,748,967,0,0
-469,57,0,0,0,0,0,0,0,0,0,-1,755,967,0,0
-462,57,0,0,0,0,0,0,0,0,0,-1,762,967,0,0
-455,57,0,0,0,0,0,0,0,0,0,-1,769,967,0,0
-448,57,0,0,0,0,0,0,0,0,0,-1,776,967,0,0
-441,57,0,0,0,0,0,0,0,0,0,-1,783,967,0,0
-434,57,0,0,0,0,0,0,0,0,0,-1,790,967,0,0
-427,57,0,0,0,0,0,0,0,0,0,-1,797,967,0,0
-420,57,0,0,0,0,0,0,0,0,0,-1,804,967,0,0
-413,57,0,0,0,0,0,0,0,0,0,-1,811,967,0,0
-406,57,0,0,0,0,0,0,0,0,0,-1,818,967,0,0
-399,57,0,0,0,0,0,0,0,0,0,-1,825,967,0,0
-392,57,0,0,0,0,0,0,0,0,0,-1,832,967,0,0
-385,57,0,0,0,0,0,0,0,0,0,-1,839,967,0,0
-378,57,0,0,0,0,0,0,0,0,0,-1,846,967,0,0
-371,57,0,0,0,0,0,0,0,0,0,-1,853,967,0,0
-364,57,0,0,0,0,0,0,0,0,0,-1,860,967,0,0
-357,57,0,0,0,0,0,0,0,0,0,-1,867,967,0,0
-350,57,0,0,0,0,0,0,0,0,0,-1,874,967,0,0
-343,57,0,0,0,0,0,0,0,0,0,-1,881,967,0,0
-336,57,0,0,0,0,0,0,0,0,0,-1,888,967,0,0
-329,57,0,0,0,0,0,0,0,0,0,-1,895,967,0,0
-322,57,0,0,0,0,0,0,0,0,0,-1,902,967,0,0
-315,57,0,0,0,0,0,0,0,0,0,-1,909,967,0,0
-308,57,0,0,0,0,0,0,0,0,0,-1,916,967,0,0
-301,57,0,0,0,0,0,0,0,0,0,-1,923,967,0,0
-294,57,0,0,0,0,0,0,0,0,0,-1,930,967,0,0
-287,57,0,0,0,0,0,0,0,0,0,-1,937,967,0,0
-280,57,0,0,0,0,0,0,0,0,0,-1,944,967,0,0
-273,57,0,0,0,0,0,0,0,0,0,-1,951,967,0,0
-266,57,0,0,0,0,0,0,0,0,0,-1,958,967,0,0
-259,57,0,0,0,0,0,0,0,0,0,-1,965,967,0,0
-252,57,0,0,0,0,0,0,0,0,0,-1,972,967,0,0
-245,57,0,0,0,0,0,0,0,0,0,-1,979,967,0,0
-238,57,0,0,0,0,0,0,0,0,0,-1,986,967,0,0
-231,57,0,0,0,0,0,0,0,0,0,-1,993,967,0,0
-224,57,0,0,0,0,0,0,0,0,0,-1,1000,967,0,0
-217,57,0,0,0,0,0,0,0,0,0,-1,1007,967,0,0
-210,57,0,0,0,0,0,0,0,0,0,-1,1014,967,0,0
-203,57,0,0,0,0,0,0,0,0,0,-1,1021,967,0,0
-196,57,0,0,0,0,0,0,0,0,0,-1,1028,967,0,0
-189,57,0,0,0,0,0,0,0,0,0,-1,1035,967,0,0
-182,57,0,0,0,0,0,0,0,0,0,-1,1042,967,0,0
-175,57,0,0,0,0,0,0,0,0,0,-1,1049,967,0,0
-168,57,0,0,0,0,0,0,0,0,0,-1,1056,967,0,0
-161,57,0,0,0,0,0,0,0,0,0,-1,1063,967,0,0
-154,57,0,0,0,0,0,0,0,0,0,-1,1070,967,0,0
-147,57,0,0,0,0,0,0,0,0,0,-1,1077,967,0,0
-140,57,0,0,0,0,0,0,0,0,0,-1,1084,967,0,0
-133,57,0,0,0,0,0,0,0,0,0,-1,1091,967,0,0
-126,57,0,0,0,0,0,0,0,0,0,-1,1098,967,0,0
-119,57,0,0,0,0,0,0,0,0,0,-1,1105,967,0,0
-112,57,0,0,0,0,0,0,0,0,0,-1,1112,967,0,0
-105,57,0,0,0,0,0,0,0,0,0,-1,1119,967,0,0
-98,57,0,0,0,0,0,0,0,0,0,-1,1126,967,0,0
-91,57,0,0,0,0,0,0,0,0,0,-1,1133,967,0,0
-84,57,0,0,0,0,0,0,0,0,0,-1,1140,967,0,0
-77,57,0,0,0,0,0,0,0,0,0,-1,1147,967,0,0
-70,57,0,0,0,0,0,0,0,0,0,-1,1154,967,0,0
-63,57,0,0,0,0,0,0,0,0,0,-1,1161,967,0,0
-56,57,0,0,0,0,0,0,0,0,0,-1,1168,967,0,0
-49,57,0,0,0,0,0,0,0,0,0,-1,1175,967,0,0
-42,57,0,0,0,0,0,0,0,0,0,-1,1182,967,0,0
-35,57,0,0,0,0,0,0,0,0,0,-1,1189,967,0,0
-28,57,0,0,0,0,0,0,0,0,0,-1,1196,967,0,0
-21,57,0,0,0,0,0,0,0,0,0,-1,1203,967,0,0
-14,57,0,0,0,0,0,0,0,0,0,-1,1210,967,0,0
-7,57,0,0,0,0,0,0,0,0,0,-1,1217,967,0,0
0,57,0,0,0,0,0,0,0,0,0,-1,1224,967,0,0
7,57,0,0,0,0,0,0,0,0,0,-1,1231,967,0,0
14,57,0,0,0,0,0,0,0,0,0,-1,1238,967,0,0
21,57,0,0,0,0,0,0,0,0,0,-1,1245,967,0,0
28,57,0,0,0,0,0,0,0,0,0,-1,1252,967,0,0
35,57,0,0,0,0,0,0,0,0,0,-1,1259,967,0,0
42,57,0,0,0,0,0,0,0,0,0,-1,1266,967,0,0
49,57,0,0,0,0,0,0,0,0,0,-1,1273,967,0,0
56,57,0,0,0,0,0,0,0,0,0,-1,1280,967,0,0
63,57,0,0,0,0,0,0,0,0,0,-1,1287,967,0,0
70,57,0,0,0,0,0,0,0,0,0,-1,1294,967,0,0
77,57,0,0,0,0,0,0,0,0,0,-1,1301,967,0,0
84,57,0,0,0,0,0,0,0,0,0,-1,1308,967,0,0
91,57,0,0,0,0,0,0,0,0,0,-1,1315,967,0,0
98,57,0,0,0,0,0,0,0,0,0,-1,1322,967,0,0
105,57,0,0,0,0,0,0,0,0,0,-1,1329,967,0,0
112,57,0,0,0,0,0,0,0,0,0,-1,1336,967,0,0
119,57,0,0,0,0,0,0,0,0,0,-1,1343,967,0,0
126,57,0,0,0,0,0,0,0,0,0,-1,1350,967,0,0
133,57,0,0,0,0,0,0,0,0,0,-1,1357,967,0,0
140,57,0,0,0,0,0,0,0,0,0,-1,1364,967,0,0
147,57,0,0,0,0,0,0,0,0,0,-1,1371,967,0,0
154,57,0,0,0,0,0,0,0,0,0,-1,1378,967,0,0
161,57,0,0,0,0,0,0,0,0,0,-1,1385,967,0,0
168,57,0,0,0,0,0,0,0,0,0,-1,1392,967,0,0
175,57,0,0,0,0,0,0,0,0,0,-1,1399,967,0,0
182,57,0,0,0,0,0,0,0,0,0,-1,1406,967,0,0
189,57,0,0,0,0,0,0,0,0,0,-1,1413,967,0,0
196,57,0,0,0,0,0,0,0,0,0,-1,1420,967,0,0
203,57,0,0,0,0,0,0,0,0,0,-1,1427,967,0,0
210,57,0,0,0,0,0,0,0,0,0,-1,1434,967,0,0
217,57,0,0,0,0,0,0,0,0,0,-1,1441,967,0,0
224,57,0,0,0,0,0,0,0,0,0,-1,1448,967,0,0
231,57,0,0,0,0,0,0,0,0,0,-1,1455,967,0,0
238,57,0,0,0,0,0,0,0,0,0,-1,1462,967,0,0
245,57,0,0,0,0,0,0,0,0,0,-1,1469,967,0,0
252,57,0,0,0,0,0,0,0,0,0,-1,1476,967,0,0
259,57,0,0,0,0,0,0,0,0,0,-1,1483,967,0,0
266,57,0,0,0,0,0,0,0,0,0,-1,1490,967,0,0
273,57,0,0,0,0,0,0,0,0,0,-1,1497,967,0,0
280,57,0,0,0,0,0,0,0,0,0,-1,1504,967,0,0
287,57,0,0,0,0,0,0,0,0,0,-1,1511,967,0,0
294,57,0,0,0,0,0,0,0,0,0,-1,1518,967,0,0
301,57,0,0,0,0,0,0,0,0,0,-1,1525,967,0,0
308,57,0,0,0,0,0,0,0,0,0,-1,1532,967,0,0
315,57,0,0,0,0,0,0,0,0,0,-1,1539,967,0,0
322,57,0,0,0,0,0,0,0,0,0,-1,1546,967,0,0
329,57,0,0,0,0,0,0,0,0,0,-1,1553,967,0,0
336,57,0,0,0,0,0,0,0,0,0,-1,1560,967,0,0
343,57,0,0,0,0,0,0,0,0,0,-1,1567,967,0,0
350,57,0,0,0,0,0,0,0,0,0,-1,1574,967,0,0
357,57,0,0,0,0,0,0,0,0,0,-1,1581,967,0,0
364,57,0,0,0,0,0,0,0,0,0,-1,1588,967,0,0
371,57,0,0,0,0,0,0,0,0,0,-1,1595,967,0,0
378,57,0,0,0,0,0,0,0,0,0,-1,1602,967,0,0
385,57,0,0,0,0,0,0,0,0,0,-1,1609,967,0,0
392,57,0,0,0,0,0,0,0,0,0,-1,1616,967,0,0
399,57,0,0,0,0,0,0,0,0,0,-1,1623,967,0,0
406,57,0,0,0,0,0,0,0,0,0,-1,1630,967,0,0
413,57,0,0,0,0,0,0,0,0,0,-1,1637,967,0,0
420,57,0,0,0,0,0,0,0,0,0,-1,1644,967,0,0
427,57,0,0,0,0,0,0,0,0,0,-1,1651,967,0,0
434,57,0,0,0,0,0,0,0,0,0,-1,1658,967,0,0
441,57,0,0,0,0,0,0,0,0,0,-1,1665,967,0,0
448,57,0,0,0,0,0,0,0,0,0,-1,1672,967,0,0
455,57,0,0,0,0,0,0,0,0,0,-1,1679,967,0,0
462,57,0,0,0,0,0,0,0,0,0,-1,1686,967,0,0
469,57,0,0,0,0,0,0,0,0,0,-1,1693,967,0,0
476,57,0,0,0,0,0,0,0,0,0,-1,1700,967,0,0
483,57,0,0,0,0,0,0,0,0,0,-1,1707,967,0,0
490,57,0,0,0,0,0,0,0,0,0,-1,1714,967,0,0
497,57,0,0,0,0,0,0,0,0,0,-1,1721,967,0,0
504,57,0,0,0,0,0,0,0,0,0,-1,1728,967,0,0
511,57,0,0,0,0,0,0,0,0,0,-1,1735,967,0,0
518,57,0,0,0,0,0,0,0,0,0,-1,1742,967,0,0
525,57,0,0,0,0,0,0,0,0,0,-1,1749,967,0,0
532,57,0,0,0,0,0,0,0,0,0,-1,1756,967,0,0
539,57,0,0,0,0,0,0,0,0,0,-1,1763,967,0,0
546,57,0,0,0,0,0,0,0,0,0,-1,1770,967,0,0
553,57,0,0,0,0,0,0,0,0,0,-1,1777,967,0,0
560,57,0,0,0,0,0,0,0,0,0,-1,1784,967,0,0
567,57,0,0,0,0,0,0,0,0,0,-1,1791,967,0,0
574,57,0,0,0,0,0,0,0,0,0,-1,1798,967,0,0
581,57,0,0,0,0,0,0,0,0,0,-1,1805,967,0,0
588,57,0,0,0,0,0,0,0,0,0,-1,1812,967,0,0
595,57,0,0,0,0,0,0,0,0,0,-1,1819,967,0,0
602,57,0,0,0,0,0,0,0,0,0,-1,1826,967,0,0
609,57,0,0,0,0,0,0,0,0,0,-1,1833,967,0,0
616,57,0,0,0,0,0,0,0,0,0,-1,1840,967,0,0
623,57,0,0,0,0,0,0,0,0,0,-1,1847,967,0,0
630,57,0,0,0,0,0,0,0,0,0,-1,1854,967,0,0
637,57,0,0,0,0,0,0,0,0,0,-1,1861,967,0,0
644,57,18.9111,2.51428,-0.00183095,0.00201919,0.00170195,0.00266365,-0.00247542,1.20882,0.00296771,0.0390288,1868,967,18.9111,-2.51427
651,57,18.9011,2.59937,-0.0012819,0.00110436,0.00153237,0.00185332,-0.00203086,1.11618,0.00224331,0.0351962,1875,967,18.9012,-2.59935
658,57,18.7968,2.68018,-0.00108103,0.000503486,0.00146394,0.0013758,-0.00195334,1.03342,0.00193169,0.0336747,1882,967,18.7968,-2.68018
665,57,18.7604,2.62799,-0.00146988,0.00027122,0.00152272,0.00115467,-0.00235333,1.04508,0.00206438,0.0379846,1889,967,18.7603,-2.62799
672,57,18.8461,2.51379,-0.00230162,0.000282785,0.00171829,0.00114054,-0.00315937,1.1078,0.00257215,0.0415379,1896,967,18.8461,-2.5138
679,57,18.9706,2.56036,-0.00334064,0.000376549,0.00199564,0.00124503,-0.00420913,1.16033,0.00330033,0.0411656,1903,967,18.9706,-2.56037
686,57,19.0287,2.54193,-0.00420482,0.000496224,0.00222335,0.00138117,-0.00508976,1.192,0.00393521,0.0379871,1910,967,19.0287,-2.5419
693,57,18.991,2.48523,-0.00486792,0.000517441,0.00243845,0.00145747,-0.00580794,1.20285,0.00443828,0.0316767,1917,967,18.991,-2.48524
700,57,18.915,2.49023,-0.00540258,0.000699836,0.00248901,0.00158628,-0.00628902,1.22866,0.00480944,0.0233558,1924,967,18.9151,-2.49022
707,57,18.8772,2.65155,-0.00577044,0.000892721,0.00245876,0.00170178,-0.0065795,1.2529,0.0050501,0.0335424,1931,967,18.8772,-2.65154
714,57,18.8883,2.91168,0,0,0,0,0,0,0,-1,1938,967,18.8883,-2.9117
721,57,18.002,3.40588,0,0,0,0,0,0,0,-1,1945,967,18.002,-3.40591
728,57,17.9371,3.53345,-0.00541515,0.00141184,0.00192316,0.00191632,-0.00591963,1.31426,0.00471679,0.0182638,1952,967,17.9372,-3.53345
735,57,17.963,3.61755,-0.00494133,0.00137746,0.00148115,0.00170742,-0.00527129,1.3516,0.00420064,0.0193943,1959,967,17.963,-3.61754
742,57,18.0007,3.64941,-0.0043468,0.0018836,0.00113977,0.00208556,-0.00454876,1.39542,0.00391734,0.0155891,1966,967,18.0008,-3.64943
749,57,17.9563,3.73822,-0.00425875,0.00210034,-0.000398567,0.00212522,-0.00428363,-1.50844,0.00376945,0.0130142,1973,967,17.9563,-3.73821
756,57,17.9436,3.80615,-0.00501706,0.00419699,-0.00322512,0.00521367,-0.00603374,-1.26542,0.00649944,0.0106993,1980,967,17.9435,-3.80613
763,57,17.9559,3.87921,-0.00585772,0.00596164,-0.00607004,0.00852366,-0.00841974,-1.1714,0.00978234,0.0107167,1987,967,17.956,-3.87923
770,57,17.951,3.96191,-0.00805916,0.00879262,-0.0101727,0.0135758,-0.0128423,-1.13127,0.0152545,0.0102299,1994,967,17.9511,-3.96194
777,57,17.9213,4.08679,-0.0117208,0.0127528,-0.0157263,0.0204422,-0.0194103,-1.11602,0.0230114,0.0250221,2001,967,17.9213,-4.08682
784,57,17.9446,4.12299,-0.0174844,0.0182986,-0.0235327,0.0299688,-0.0291546,-1.11042,0.034136,0.0459593,2008,967,17.9445,-4.12297
791,57,17.9219,4.16858,0,0,0,0,0,0,0,-1,2015,967,17.9218,-4.16858
798,57,17.8022,2.98492,-0.0367563,0.0362025,-0.049763,0.0614249,-0.0619787,-1.10168,0.0712473,0.0495003,2022,967,17.8023,-2.98493
805,57,16.2719,0.908142,-0.0519415,0.0502336,-0.0705334,0.0862374,-0.0879453,-1.09882,0.100566,0.0467923,2029,967,16.2718,-0.908167
812,57,0,0,0,0,0,0,0,0,0,-1,2036,967,0,0
-700,50,0,0,0,0,0,0,0,0,0,-1,524,974,0,0
-693,50,-12.3859,-3.08435,0,0,0,0,0,0,0,-1,531,974,-12.3859,3.08436
-686,50,-12.3063,-2.26007,-0.0196998,0.00457012,0.0424975,0.0366312,-0.0517609,0.92447,0.0512818,0.0438535,538,974,-12.3063,2.26006
-679,50,-12.4959,-1.2066,-0.0133355,0.00717931,0.0341308,0.0325607,-0.0387169,0.931371,0.0412033,0.0473071,545,974,-12.4959,1.20663
-672,50,-11.2158,0.0447388,-0.00887376,0.00858473,0.0272158,0.028437,-0.028726,0.940586,0.0330032,0.0475757,552,974,-11.2158,-0.044752
-665,50,-11.6556,0.446777,-0.00567627,0.00909411,0.0214015,0.0243489,-0.020931,0.95154,0.0261672,0.0497318,559,974,-11.6556,-0.446805
-658,50,-11.7039,0.963745,-0.00343388,0.00891389,0.0165074,0.0203642,-0.0148842,0.964348,0.0204324,0.0499797,566,974,-11.7039,-0.963764
-651,50,-11.8906,1.37384,-0.00193251,0.00820296,0.0124131,0.0165429,-0.0102725,0.979201,0.0156223,0.0433754,573,974,-11.8906,-1.37384
-644,50,-11.9451,1.44891,-0.00100601,0.00713722,0.0089992,0.012943,-0.00681183,0.99784,0.0115871,0.0253453,580,974,-11.9451,-1.4489
-637,50,-11.9619,1.49805,-0.000492839,0.00632047,0.00617036,0.00996212,-0.00413449,1.03762,0.0083673,0.0136712,587,974,-11.9619,-1.49803
-630,50,-11.9694,1.47552,-1.78161e-06,0.00507173,0.00326555,0.00667006,-0.00160012,1.11562,0.00506504,0.00997243,594,974,-11.9694,-1.47555
-623,50,-11.9615,1.42035,-0.000676573,0.00366778,0.000914522,0.00385245,-0.000861238,1.37155,0.00289835,0.0113899,601,974,-11.9615,-1.42035
-616,50,-11.9517,1.35956,-0.0016978,0.00323859,0.000209645,0.00324748,-0.00170669,1.52843,0.00290604,0.0119663,608,974,-11.9517,-1.35953
-609,50,-11.9577,1.28857,-0.00245907,0.00200491,-0.000675746,0.00210496,-0.00255912,-1.42381,0.00269706,0.0107083,615,974,-11.9577,-1.28855
-602,50,-11.9812,1.22583,-0.00338961,0.0011609,-0.00135943,0.00153609,-0.00376479,-1.30151,0.00314934,0.0109423,622,974,-11.9812,-1.22586
-595,50,-11.9706,1.18793,-0.0040709,0.00094292,-0.00170826,0.00146962,-0.00459759,-1.27172,0.00365479,0.011629,629,974,-11.9706,-1.18792
-588,50,-12.0087,1.11877,-0.00441468,0.000870134,-0.00193592,0.00150341,-0.00504796,-1.25465,0.00396268,0.0119668,636,974,-12.0087,-1.11876
-581,50,-12.1612,0.884827,-0.00458268,0.000864496,-0.00216722,0.00162154,-0.00533972,-1.23473,0.00420585,0.0211858,643,974,-12.1612,-0.884849
-574,50,-12.2349,0.621094,-0.00473878,0.000917202,-0.00250287,0.0018657,-0.00568728,-1.20855,0.00454297,0.0278418,650,974,-12.2349,-0.621114
-567,50,-12.2969,0.551636,-0.00457148,0.00104543,-0.00271102,0.00214044,-0.00566649,-1.18692,0.00465806,0.0338625,657,974,-12.2969,-0.551613
-560,50,-12.3031,0.544922,-0.00413847,0.00121586,-0.0029693,0.00253669,-0.0054593,-1.15225,0.00471816,0.0394315,664,974,-12.3031,-0.544924
-553,50,-12.3515,0.513123,-0.00333649,0.00147143,-0.00338019,0.00321533,-0.00508039,-1.0945,0.00482971,0.0417822,671,974,-12.3515,-0.513146
-546,50,-12.3914,0.601501,-0.002164,0.00182132,-0.00403225,0.0043264,-0.00466909,-1.01489,0.0051948,0.0426123,678,974,-12.3914,-0.601502
-539,50,-12.1921,0.650879,-0.000625532,0.00228506,-0.00507408,0.00610841,-0.00444889,-0.925054,0.00612031,0.0438168,685,974,-12.1921,-0.650849
-532,50,-12.0743,0.689087,0.00106566,0.00301841,-0.00678817,0.00890007,-0.004816,-0.856826,0.00803514,0.0410414,692,974,-12.0743,-0.689102
-525,50,-12.1534,0.659058,0.00219115,0.00420835,-0.0094913,0.0127445,-0.00634499,-0.838332,0.0112259,0.0428501,699,974,-12.1534,-0.659086
-518,50,0,0,0,0,0,0,0,0,0,-1,706,974,0,0
-511,50,0,0,0,0,0,0,0,0,0,-1,713,974,0,0
-504,50,0,0,0,0,0,0,0,0,0,-1,720,974,0,0
-497,50,0,0,0,0,0,0,0,0,0,-1,727,974,0,0
-490,50,0,0,0,0,0,0,0,0,0,-1,734,974,0,0
-483,50,0,0,0,0,0,0,0,0,0,-1,741,974,0,0
-476,50,0,0,0,0,0,0,0,0,0,-1,748,974,0,0
-469,50,0,0,0,0,0,0,0,0,0,-1,755,974,0,0
-462,50,0,0,0,0,0,0,0,0,0,-1,762,974,0,0
-455,50,0,0,0,0,0,0,0,0,0,-1,769,974,0,0
-448,50,0,0,0,0,0,0,0,0,0,-1,776,974,0,0
-441,50,0,0,0,0,0,0,0,0,0,-1,783,974,0,0
-434,50,0,0,0,0,0,0,0,0,0,-1,790,974,0,0
-427,50,0,0,0,0,0,0,0,0,0,-1,797,974,0,0
-420,50,0,0,0,0,0,0,0,0,0,-1,804,974,0,0
-413,50,0,0,0,0,0,0,0,0,0,-1,811,974,0,0
-406,50,0,0,0,0,0,0,0,0,0,-1,818,974,0,0
-399,50,0,0,0,0,0,0,0,0,0,-1,825,974,0,0
-392,50,0,0,0,0,0,0,0,0,0,-1,832,974,0,0
-385,50,0,0,0,0,0,0,0,0,0,-1,839,974,0,0
-378,50,0,0,0,0,0,0,0,0,0,-1,846,974,0,0
-371,50,0,0,0,0,0,0,0,0,0,-1,853,974,0,0
-364,50,0,0,0,0,0,0,0,0,0,-1,860,974,0,0
-357,50,0,0,0,0,0,0,0,0,0,-1,867,974,0,0
-350,50,0,0,0,0,0,0,0,0,0,-1,874,974,0,0
-343,50,0,0,0,0,0,0,0,0,0,-1,881,974,0,0
-336,50,0,0,0,0,0,0,0,0,0,-1,888,974,0,0
-329,50,0,0,0,0,0,0,0,0,0,-1,895,974,0,0
-322,50,0,0,0,0,0,0,0,0,0,-1,902,974,0,0
-315,50,0,0,0,0,0,0,0,0,0,-1,909,974,0,0
-308,50,0,0,0,0,0,0,0,0,0,-1,916,974,0,0
-301,50,0,0,0,0,0,0,0,0,0,-1,923,974,0,0
-294,50,0,0,0,0,0,0,0,0,0,-1,930,974,0,0
-287,50,0,0,0,0,0,0,0,0,0,-1,937,974,0,0
-280,50,0,0,0,0,0,0,0,0,0,-1,944,974,0,0
-273,50,0,0,0,0,0,0,0,0,0,-1,951,974,0,0
-266,50,0,0,0,0,0,0,0,0,0,-1,958,974,0,0
-259,50,0,0,0,0,0,0,0,0,0,-1,965,974,0,0
-252,50,0,0,0,0,0,0,0,0,0,-1,972,974,0,0
-245,50,0,0,0,0,0,0,0,0,0,-1,979,974,0,0
-238,50,0,0,0,0,0,0,0,0,0,-1,986,974,0,0
-231,50,0,0,0,0,0,0,0,0,0,-1,993,974,0,0
-224,50,0,0,0,0,0,0,0,0,0,-1,1000,974,0,0
-217,50,0,0,0,0,0,0,0,0,0,-1,1007,974,0,0
-210,50,0,0,0,0,0,0,0,0,0,-1,1014,974,0,0
-203,50,0,0,0,0,0,0,0,0,0,-1,1021,974,0,0
-196,50,0,0,0,0,0,0,0,0,0,-1,1028,974,0,0
-189,50,0,0,0,0,0,0,0,0,0,-1,1035,974,0,0
-182,50,0,0,0,0,0,0,0,0,0,-1,1042,974,0,0
-175,50,0,0,0,0,0,0,0,0,0,-1,1049,974,0,0
-168,50,0,0,0,0,0,0,0,0,0,-1,1056,974,0,0
-161,50,0,0,0,0,0,0,0,0,0,-1,1063,974,0,0
-154,50,0,0,0,0,0,0,0,0,0,-1,1070,974,0,0
-147,50,0,0,0,0,0,0,0,0,0,-1,1077,974,0,0
-140,50,0,0,0,0,0,0,0,0,0,-1,1084,974,0,0
-133,50,0,0,0,0,0,0,0,0,0,-1,1091,974,0,0
-126,50,0,0,0,0,0,0,0,0,0,-1,1098,974,0,0
-119,50,0,0,0,0,0,0,0,0,0,-1,1105,974,0,0
-112,50,0,0,0,0,0,0,0,0,0,-1,1112,974,0,0
-105,50,0,0,0,0,0,0,0,0,0,-1,1119,974,0,0
-98,50,0,0,0,0,0,0,0,0,0,-1,1126,974,0,0
-91,50,0,0,0,0,0,0,0,0,0,-1,1133,974,0,0
-84,50,0,0,0,0,0,0,0,0,0,-1,1140,974,0,0
-77,50,0,0,0,0,0,0,0,0,0,-1,1147,974,0,0
-70,50,0,0,0,0,0,0,0,0,0,-1,1154,974,0,0
-63,50,0,0,0,0,0,0,0,0,0,-1,1161,974,0,0
-56,50,0,0,0,0,0,0,0,0,0,-1,1168,974,0,0
-49,50,0,0,0,0,0,0,0,0,0,-1,1175,974,0,0
-42,50,0,0,0,0,0,0,0,0,0,-1,1182,974,0,0
-35,50,0,0,0,0,0,0,0,0,0,-1,1189,974,0,0
-28,50,0,0,0,0,0,0,0,0,0,-1,1196,974,0,0
-21,50,0,0,0,0,0,0,0,0,0,-1,1203,974,0,0
-14,50,0,0,0,0,0,0,0,0,0,-1,1210,974,0,0
-7,50,0,0,0,0,0,0,0,0,0,-1,1217,974,0,0
0,50,0,0,0,0,0,0,0,0,0,-1,1224,974,0,0
7,50,0,0,0,0,0,0,0,0,0,-1,1231,974,0,0
14,50,0,0,0,0,0,0,0,0,0,-1,1238,974,0,0
21,50,0,0,0,0,0,0,0,0,0,-1,1245,974,0,0
28,50,0,0,0,0,0,0,0,0,0,-1,1252,974,0,0
35,50,0,0,0,0,0,0,0,0,0,-1,1259,974,0,0
42,50,0,0,0,0,0,0,0,0,0,-1,1266,974,0,0
49,50,0,0,0,0,0,0,0,0,0,-1,1273,974,0,0
56,50,0,0,0,0,0,0,0,0,0,-1,1280,974,0,0
63,50,0,0,0,0,0,0,0,0,0,-1,1287,974,0,0
70,50,0,0,0,0,0,0,0,0,0,-1,1294,974,0,0
77,50,0,0,0,0,0,0,0,0,0,-1,1301,974,0,0
84,50,0,0,0,0,0,0,0,0,0,-1,1308,974,0,0
91,50,0,0,0,0,0,0,0,0,0,-1,1315,974,0,0
98,50,0,0,0,0,0,0,0,0,0,-1,1322,974,0,0
105,50,0,0,0,0,0,0,0,0,0,-1,1329,974,0,0
112,50,0,0,0,0,0,0,0,0,0,-1,1336,974,0,0
119,50,0,0,0,0,0,0,0,0,0,-1,1343,974,0,0
126,50,0,0,0,0,0,0,0,0,0,-1,1350,974,0,0
133,50,0,0,0,0,0,0,0,0,0,-1,1357,974,0,0
140,50,0,0,0,0,0,0,0,0,0,-1,1364,974,0,0
147,50,0,0,0,0,0,0,0,0,0,-1,1371,974,0,0
154,50,0,0,0,0,0,0,0,0,0,-1,1378,974,0,0
161,50,0,0,0,0,0,0,0,0,0,-1,1385,974,0,0
168,50,0,0,0,0,0,0,0,0,0,-1,1392,974,0,0
175,50,0,0,0,0,0,0,0,0,0,-1,1399,974,0,0
182,50,0,0,0,0,0,0,0,0,0,-1,1406,974,0,0
189,50,0,0,0,0,0,0,0,0,0,-1,1413,974,0,0
196,50,0,0,0,0,0,0,0,0,0,-1,1420,974,0,0
203,50,0,0,0,0,0,0,0,0,0,-1,1427,974,0,0
210,50,0,0,0,0,0,0,0,0,0,-1,1434,974,0,0
217,50,0,0,0,0,0,0,0,0,0,-1,1441,974,0,0
224,50,0,0,0,0,0,0,0,0,0,-1,1448,974,0,0
231,50,0,0,0,0,0,0,0,0,0,-1,1455,974,0,0
238,50,0,0,0,0,0,0,0,0,0,-1,1462,974,0,0
245,50,0,0,0,0,0,0,0,0,0,-1,1469,974,0,0
252,50,0,0,0,0,0,0,0,0,0,-1,1476,974,0,0
259,50,0,0,0,0,0,0,0,0,0,-1,1483,974,0,0
266,50,0,0,0,0,0,0,0,0,0,-1,1490,974,0,0
273,50,0,0,0,0,0,0,0,0,0,-1,1497,974,0,0
280,50,0,0,0,0,0,0,0,0,0,-1,1504,974,0,0
287,50,0,0,0,0,0,0,0,0,0,-1,1511,974,0,0
294,50,0,0,0,0,0,0,0,0,0,-1,1518,974,0,0
301,50,0,0,0,0,0,0,0,0,0,-1,1525,974,0,0
308,50,0,0,0,0,0,0,0,0,0,-1,1532,974,0,0
315,50,0,0,0,0,0,0,0,0,0,-1,1539,974,0,0
322,50,0,0,0,0,0,0,0,0,0,-1,1546,974,0,0
329,50,0,0,0,0,0,0,0,0,0,-1,1553,974,0,0
336,50,0,0,0,0,0,0,0,0,0,-1,1560,974,0,0
343,50,0,0,0,0,0,0,0,0,0,-1,1567,974,0,0
350,50,0,0,0,0,0,0,0,0,0,-1,1574,974,0,0
357,50,0,0,0,0,0,0,0,0,0,-1,1581,974,0,0
364,50,0,0,0,0,0,0,0,0,0,-1,1588,974,0,0
371,50,0,0,0,0,0,0,0,0,0,-1,1595,974,0,0
378,50,0,0,0,0,0,0,0,0,0,-1,1602,974,0,0
385,50,0,0,0,0,0,0,0,0,0,-1,1609,974,0,0
392,50,0,0,0,0,0,0,0,0,0,-1,1616,974,0,0
399,50,0,0,0,0,0,0,0,0,0,-1,1623,974,0,0
406,50,0,0,0,0,0,0,0,0,0,-1,1630,974,0,0
413,50,0,0,0,0,0,0,0,0,0,-1,1637,974,0,0
420,50,0,0,0,0,0,0,0,0,0,-1,1644,974,0,0
427,50,0,0,0,0,0,0,0,0,0,-1,1651,974,0,0
434,50,0,0,0,0,0,0,0,0,0,-1,1658,974,0,0
441,50,0,0,0,0,0,0,0,0,0,-1,1665,974,0,0
448,50,0,0,0,0,0,0,0,0,0,-1,1672,974,0,0
455,50,0,0,0,0,0,0,0,0,0,-1,1679,974,0,0
462,50,0,0,0,0,0,0,0,0,0,-1,1686,974,0,0
469,50,0,0,0,0,0,0,0,0,0,-1,1693,974,0,0
476,50,0,0,0,0,0,0,0,0,0,-1,1700,974,0,0
483,50,0,0,0,0,0,0,0,0,0,-1,1707,974,0,0
490,50,0,0,0,0,0,0,0,0,0,-1,1714,974,0,0
497,50,0,0,0,0,0,0,0,0,0,-1,1721,974,0,0
504,50,0,0,0,0,0,0,0,0,0,-1,1728,974,0,0
511,50,0,0,0,0,0,0,0,0,0,-1,1735,974,0,0
518,50,0,0,0,0,0,0,0,0,0,-1,1742,974,0,0
525,50,0,0,0,0,0,0,0,0,0,-1,1749,974,0,0
532,50,0,0,0,0,0,0,0,0,0,-1,1756,974,0,0
539,50,0,0,0,0,0,0,0,0,0,-1,1763,974,0,0
546,50,0,0,0,0,0,0,0,0,0,-1,1770,974,0,0
553,50,0,0,0,0,0,0,0,0,0,-1,1777,974,0,0
560,50,0,0,0,0,0,0,0,0,0,-1,1784,974,0,0
567,50,0,0,0,0,0,0,0,0,0,-1,1791,974,0,0
574,50,0,0,0,0,0,0,0,0,0,-1,1798,974,0,0
581,50,0,0,0,0,0,0,0,0,0,-1,1805,974,0,0
588,50,0,0,0,0,0,0,0,0,0,-1,1812,974,0,0
595,50,0,0,0,0,0,0,0,0,0,-1,1819,974,0,0
602,50,0,0,0,0,0,0,0,0,0,-1,1826,974,0,0
609,50,0,0,0,0,0,0,0,0,0,-1,1833,974,0,0
616,50,0,0,0,0,0,0,0,0,0,-1,1840,974,0,0
623,50,0,0,0,0,0,0,0,0,0,-1,1847,974,0,0
630,50,0,0,0,0,0,0,0,0,0,-1,1854,974,0,0
637,50,0,0,0,0,0,0,0,0,0,-1,1861,974,0,0
644,50,18.8646,2.42987,-0.00114456,0.000618845,0.00242404,0.00231656,-0.00284227,0.959826,0.0029836,0.0355882,1868,974,18.8646,-2.42989
651,50,18.8188,2.48193,-0.000661684,0.000151523,0.00191878,0.0017063,-0.00221646,0.889807,0.00227119,0.032173,1875,974,18.8188,-2.48191
658,50,18.7362,2.47821,-0.000512477,-0.000148997,0.00160529,0.0012848,-0.00194628,0.841765,0.00187845,0.0366115,1882,974,18.7362,-2.47822
665,50,18.7145,2.50079,-0.000841979,-0.000170234,0.0015191,0.00104969,-0.0020619,0.894197,0.00182788,0.038948,1889,974,18.7144,-2.50078
672,50,18.858,2.64191,-0.00162418,2.82768e-06,0.00166604,0.00104337,-0.00266472,1.01251,0.00220803,0.0405678,1896,974,18.858,-2.64193
679,50,18.8737,2.69391,-0.00268235,0.000208053,0.00196914,0.00120542,-0.00367971,1.10196,0.00293855,0.0413619,1903,974,18.8736,-2.69389
686,50,19.0145,2.59125,-0.00359237,0.000403002,0.00225922,0.00142108,-0.00461044,1.14742,0.00364097,0.0395456,1910,974,19.0145,-2.59127
693,50,18.9919,2.50842,-0.00431804,0.000495633,0.00252401,0.00157642,-0.00539882,1.16622,0.00422391,0.0358286,1917,974,18.992,-2.50844
700,50,18.8629,2.54718,-0.00491427,0.000723425,0.00262291,0.00175497,-0.00594582,1.19609,0.00466035,0.0210526,1924,974,18.8629,-2.5472
707,50,18.8707,2.65112,-0.00536563,0.000917439,0.0026651,0.00189562,-0.0063438,1.21903,0.00498275,0.0292816,1931,974,18.8708,-2.65112
714,50,18.7622,3.00513,0,0,0,0,0,0,0,-1,1938,974,18.7622,-3.00515
721,50,18.2714,3.36169,-0.00567066,0.00121685,0.00249451,0.00202539,-0.00647921,1.25735,0.00512966,0.0359814,1945,974,18.2714,-3.36169
728,50,18.054,3.48785,-0.00540699,0.001431,0.00232385,0.00214598,-0.00612198,1.27231,0.00495408,0.0192669,1952,974,18.054,-3.48787
735,50,18.0806,3.55701,-0.00503728,0.00139192,0.00193344,0.00192856,-0.00557393,1.30005,0.00449878,0.0179613,1959,974,18.0806,-3.55702
742,50,18.0968,3.62378,-0.00456568,0.00183916,0.00150833,0.00217659,-0.00490311,1.35071,0.00418729,0.0148971,1966,974,18.0968,-3.62377
749,50,18.078,3.71045,-0.00460725,0.00194692,-0.000218422,0.0019542,-0.00461452,-1.53752,0.00389475,0.0152538,1973,974,18.078,-3.71046
756,50,18.0487,3.7865,-0.0054857,0.00383359,-0.00318333,0.00481716,-0.00646927,-1.27113,0.00653945,0.0118756,1980,974,18.0487,-3.78651
763,50,18.0433,3.86682,-0.00645915,0.00536246,-0.00628782,0.00808151,-0.0091782,-1.16265,0.0099716,0.0109363,1987,974,18.0433,-3.86682
770,50,18.0364,3.93402,-0.00868906,0.00782234,-0.01076,0.0131289,-0.0139956,-1.11263,0.015663,0.009919,1994,974,18.0363,-3.93401
777,50,18.0309,4.01184,-0.0123889,0.0113286,-0.0167996,0.0200333,-0.0210936,-1.09273,0.0237473,0.0215607,2001,974,18.0309,-4.01185
784,50,18.0059,4.08142,-0.0181872,0.0162554,-0.0251746,0.0295355,-0.0314673,-1.08538,0.0352259,0.0417574,2008,974,18.0058,-4.08142
791,50,17.9899,4.07788,0,0,0,0,0,0,0,-1,2015,974,17.9899,-4.07786
798,50,17.9757,4.09753,-0.0371609,0.0322488,-0.052719,0.0606607,-0.0655728,-1.07649,0.0728993,0.0477959,2022,974,17.9758,-4.09754
805,50,15.812,0.0493164,-0.0517903,0.0448711,-0.0740039,0.0849284,-0.0918476,-1.07467,0.102088,0.0441866,2029,974,15.8121,-0.0493315
812,50,0,0,0,0,0,0,0,0,0,-1,2036,974,0,0
-700,43,0,0,0,0,0,0,0,0,0,-1,524,981,0,0
-693,43,-11.294,-1.43176,0,0,0,0,0,0,0,-1,531,981,-11.294,1.43177
-686,43,-12.1069,-2.44586,0,0,0,0,0,0,0,-1,538,981,-12.1069,2.44588
-679,43,-12.3019,-1.36951,0,0,0,0,0,0,0,-1,545,981,-12.3019,1.3695
-672,43,-11.0782,-0.142456,0,0,0,0,0,0,0,-1,552,981,-11.0782,0.142445
-665,43,-11.2801,0.2099,0,0,0,0,0,0,0,-1,559,981,-11.2801,-0.209907
-658,43,-11.4709,0.848572,0,0,0,0,0,0,0,-1,566,981,-11.4709,-0.848588
-651,43,-11.7658,1.56458,-0.00656288,0.00482621,0.0103199,0.0109185,-0.0126552,1.03751,0.0136226,0.0407209,573,981,-11.7658,-1.5646
-644,43,-12.0432,1.51709,-0.00474616,0.00476743,0.00748821,0.00888196,-0.00886069,1.06836,0.0102437,0.0176187,580,981,-12.0431,-1.51709
-637,43,-12.0383,1.49219,-0.00336736,0.00483843,0.00506031,0.00725017,-0.0057791,1.12604,0.00753842,0.0107586,587,981,-12.0383,-1.49221
-630,43,-12.0208,1.45789,-0.00209825,0.00430188,0.00255825,0.00519877,-0.00299514,1.2336,0.00478745,0.0107237,594,981,-12.0207,-1.45789
-623,43,-12.0201,1.40198,-0.00203747,0.00337261,0.000574033,0.00343285,-0.00209771,1.46624,0.00322394,0.0113042,601,981,-12.0201,-1.402
-616,43,-12.0055,1.33459,-0.00241923,0.00308686,-0.000276623,0.00310073,-0.00243309,-1.52072,0.00320269,0.0107773,608,981,-12.0055,-1.33457
-609,43,-12.0159,1.27948,-0.00270282,0.00203034,-0.00110674,0.00227634,-0.00294882,-1.35208,0.00302507,0.0129536,615,981,-12.0159,-1.27948
-602,43,-12.0333,1.23779,-0.00321417,0.00130579,-0.00175835,0.00190925,-0.00381763,-1.24019,0.00336705,0.0156521,622,981,-12.0333,-1.2378
-595,43,-12.0316,1.19952,-0.00349479,0.00110361,-0.00214264,0.00194722,-0.0043384,-1.19571,0.0037155,0.014705,629,981,-12.0316,-1.19954
-588,43,-12.0394,1.0697,-0.00358967,0.00104545,-0.00241991,0.00207857,-0.00462279,-1.1673,0.00396089,0.0135288,636,981,-12.0394,-1.06968
-581,43,-12.1663,0.835388,-0.00364798,0.00104977,-0.00262308,0.00222194,-0.00482015,-1.15055,0.00415698,0.019728,643,981,-12.1663,-0.835379
-574,43,-12.2247,0.625,-0.00370996,0.0011257,-0.0029064,0.00248849,-0.00507275,-1.13234,0.00444966,0.0270484,650,981,-12.2246,-0.624973
-567,43,-12.2231,0.610107,-0.0034954,0.00127196,-0.00302819,0.0027421,-0.00496553,-1.11883,0.0045113,0.0324723,657,981,-12.2231,-0.610124
-560,43,-12.1732,0.634766,-0.00302391,0.00143787,-0.00319036,0.00309996,-0.00468599,-1.09051,0.0045262,0.0359915,664,981,-12.1732,-0.634793
-553,43,-12.1984,0.606628,-0.00222832,0.00166945,-0.00347991,0.00370904,-0.00426791,-1.04066,0.00460926,0.0387572,671,981,-12.1984,-0.606607
-546,43,-12.2468,0.598022,-0.0011098,0.00197332,-0.00398721,0.0047066,-0.00384308,-0.96986,0.00494455,0.0413347,678,981,-12.2468,-0.598021
-539,43,-12.0682,0.55127,0.000329337,0.00237447,-0.00488738,0.00634511,-0.0036413,-0.888524,0.00583567,0.0438848,685,981,-12.0682,-0.55127
-532,43,-11.8209,0.530945,0.00181747,0.00309834,-0.00651082,0.00900014,-0.00408433,-0.834423,0.00773,0.0448012,692,981,-11.8208,-0.53095
-525,43,-11.8149,0.545349,0.00266005,0.0043206,-0.00916634,0.0126942,-0.00571354,-0.830564,0.0108795,0.0457758,699,981,-11.815,-0.545329
-518,43,0,0,0,0,0,0,0,0,0,-1,706,981,0,0
-511,43,0,0,0,0,0,0,0,0,0,-1,713,981,0,0
-504,43,0,0,0,0,0,0,0,0,0,-1,720,981,0,0
-497,43,0,0,0,0,0,0,0,0,0,-1,727,981,0,0
-490,43,0,0,0,0,0,0,0,0,0,-1,734,981,0,0
-483,43,0,0,0,0,0,0,0,0,0,-1,741,981,0,0
-476,43,0,0,0,0,0,0,0,0,0,-1,748,981,0,0
-469,43,0,0,0,0,0,0,0,0,0,-1,755,981,0,0
-462,43,0,0,0,0,0,0,0,0,0,-1,762,981,0,0
-455,43,0,0,0,0,0,0,0,0,0,-1,769,981,0,0
-448,43,0,0,0,0,0,0,0,0,0,-1,776,981,0,0
-441,43,0,0,0,0,0,0,0,0,0,-1,783,981,0,0
-434,43,0,0,0,0,0,0,0,0,0,-1,790,981,0,0
-427,43,0,0,0,0,0,0,0,0,0,-1,797,981,0,0
-420,43,0,0,0,0,0,0,0,0,0,-1,804,981,0,0
-413,43,0,0,0,0,0,0,0,0,0,-1,811,981,0,0
-406,43,0,0,0,0,0,0,0,0,0,-1,818,981,0,0
-399,43,0,0,0,0,0,0,0,0,0,-1,825,981,0,0
-392,43,0,0,0,0,0,0,0,0,0,-1,832,981,0,0
-385,43,0,0,0,0,0,0,0,0,0,-1,839,981,0,0
-378,43,0,0,0,0,0,0,0,0,0,-1,846,981,0,0
-371,43,0,0,0,0,0,0,0,0,0,-1,853,981,0,0
-364,43,0,0,0,0,0,0,0,0,0,-1,860,981,0,0
-357,43,0,0,0,0,0,0,0,0,0,-1,867,981,0,0
-350,43,0,0,0,0,0,0,0,0,0,-1,874,981,0,0
-343,43,0,0,0,0,0,0,0,0,0,-1,881,981,0,0
-336,43,0,0,0,0,0,0,0,0,0,-1,888,981,0,0
-329,43,0,0,0,0,0,0,0,0,0,-1,895,981,0,0
-322,43,0,0,0,0,0,0,0,0,0,-1,902,981,0,0
-315,43,0,0,0,0,0,0,0,0,0,-1,909,981,0,0
-308,43,0,0,0,0,0,0,0,0,0,-1,916,981,0,0
-301,43,0,0,0,0,0,0,0,0,0,-1,923,981,0,0
-294,43,0,0,0,0,0,0,0,0,0,-1,930,981,0,0
-287,43,0,0,0,0,0,0,0,0,0,-1,937,981,0,0
-280,43,0,0,0,0,0,0,0,0,0,-1,944,981,0,0
-273,43,0,0,0,0,0,0,0,0,0,-1,951,981,0,0
-266,43,0,0,0,0,0,0,0,0,0,-1,958,981,0,0
-259,43,0,0,0,0,0,0,0,0,0,-1,965,981,0,0
-252,43,0,0,0,0,0,0,0,0,0,-1,972,981,0,0
-245,43,0,0,0,0,0,0,0,0,0,-1,979,981,0,0
-238,43,0,0,0,0,0,0,0,0,0,-1,986,981,0,0
-231,43,0,0,0,0,0,0,0,0,0,-1,993,981,0,0
-224,43,0,0,0,0,0,0,0,0,0,-1,1000,981,0,0
-217,43,0,0,0,0,0,0,0,0,0,-1,1007,981,0,0
-210,43,0,0,0,0,0,0,0,0,0,-1,1014,981,0,0
-203,43,0,0,0,0,0,0,0,0,0,-1,1021,981,0,0
-196,43,0,0,0,0,0,0,0,0,0,-1,1028,981,0,0
-189,43,0,0,0,0,0,0,0,0,0,-1,1035,981,0,0
-182,43,0,0,0,0,0,0,0,0,0,-1,1042,981,0,0
-175,43,0,0,0,0,0,0,0,0,0,-1,1049,981,0,0
-168,43,0,0,0,0,0,0,0,0,0,-1,1056,981,0,0
-161,43,0,0,0,0,0,0,0,0,0,-1,1063,981,0,0
-154,43,0,0,0,0,0,0,0,0,0,-1,1070,981,0,0
-147,43,0,0,0,0,0,0,0,0,0,-1,1077,981,0,0
-140,43,0,0,0,0,0,0,0,0,0,-1,1084,981,0,0
-133,43,0,0,0,0,0,0,0,0,0,-1,1091,981,0,0
-126,43,0,0,0,0,0,0,0,0,0,-1,1098,981,0,0
-119,43,0,0,0,0,0,0,0,0,0,-1,1105,981,0,0
-112,43,0,0,0,0,0,0,0,0,0,-1,1112,981,0,0
-105,43,0,0,0,0,0,0,0,0,0,-1,1119,981,0,0
-98,43,0,0,0,0,0,0,0,0,0,-1,1126,981,0,0
-91,43,0,0,0,0,0,0,0,0,0,-1,1133,981,0,0
-84,43,0,0,0,0,0,0,0,0,0,-1,1140,981,0,0
-77,43,0,0,0,0,0,0,0,0,0,-1,1147,981,0,0
-70,43,0,0,0,0,0,0,0,0,0,-1,1154,981,0,0
-63,43,0,0,0,0,0,0,0,0,0,-1,1161,981,0,0
-56,43,0,0,0,0,0,0,0,0,0,-1,1168,981,0,0
-49,43,0,0,0,0,0,0,0,0,0,-1,1175,981,0,0
-42,43,0,0,0,0,0,0,0,0,0,-1,1182,981,0,0
-35,43,0,0,0,0,0,0,0,0,0,-1,1189,981,0,0
-28,43,0,0,0,0,0,0,0,0,0,-1,1196,981,0,0
-21,43,0,0,0,0,0,0,0,0,0,-1,1203,981,0,0
-14,43,0,0,0,0,0,0,0,0,0,-1,1210,981,0,0
-7,43,0,0,0,0,0,0,0,0,0,-1,1217,981,0,0
0,43,0,0,0,0,0,0,0,0,0,-1,1224,981,0,0
7,43,0,0,0,0,0,0,0,0,0,-1,1231,981,0,0
14,43,0,0,0,0,0,0,0,0,0,-1,1238,981,0,0
21,43,0,0,0,0,0,0,0,0,0,-1,1245,981,0,0
28,43,0,0,0,0,0,0,0,0,0,-1,1252,981,0,0
35,43,0,0,0,0,0,0,0,0,0,-1,1259,981,0,0
42,43,0,0,0,0,0,0,0,0,0,-1,1266,981,0,0
49,43,0,0,0,0,0,0,0,0,0,-1,1273,981,0,0
56,43,0,0,0,0,0,0,0,0,0,-1,1280,981,0,0
63,43,0,0,0,0,0,0,0,0,0,-1,1287,981,0,0
70,43,0,0,0,0,0,0,0,0,0,-1,1294,981,0,0
77,43,0,0,0,0,0,0,0,0,0,-1,1301,981,0,0
84,43,0,0,0,0,0,0,0,0,0,-1,1308,981,0,0
91,43,0,0,0,0,0,0,0,0,0,-1,1315,981,0,0
98,43,0,0,0,0,0,0,0,0,0,-1,1322,981,0,0
105,43,0,0,0,0,0,0,0,0,0,-1,1329,981,0,0
112,43,0,0,0,0,0,0,0,0,0,-1,1336,981,0,0
119,43,0,0,0,0,0,0,0,0,0,-1,1343,981,0,0
126,43,0,0,0,0,0,0,0,0,0,-1,1350,981,0,0
133,43,0,0,0,0,0,0,0,0,0,-1,1357,981,0,0
140,43,0,0,0,0,0,0,0,0,0,-1,1364,981,0,0
147,43,0,0,0,0,0,0,0,0,0,-1,1371,981,0,0
154,43,0,0,0,0,0,0,0,0,0,-1,1378,981,0,0
161,43,0,0,0,0,0,0,0,0,0,-1,1385,981,0,0
168,43,0,0,0,0,0,0,0,0,0,-1,1392,981,0,0
175,43,0,0,0,0,0,0,0,0,0,-1,1399,981,0,0
182,43,0,0,0,0,0,0,0,0,0,-1,1406,981,0,0
189,43,0,0,0,0,0,0,0,0,0,-1,1413,981,0,0
196,43,0,0,0,0,0,0,0,0,0,-1,1420,981,0,0
203,43,0,0,0,0,0,0,0,0,0,-1,1427,981,0,0
210,43,0,0,0,0,0,0,0,0,0,-1,1434,981,0,0
217,43,0,0,0,0,0,0,0,0,0,-1,1441,981,0,0
224,43,0,0,0,0,0,0,0,0,0,-1,1448,981,0,0
231,43,0,0,0,0,0,0,0,0,0,-1,1455,981,0,0
238,43,0,0,0,0,0,0,0,0,0,-1,1462,981,0,0
245,43,0,0,0,0,0,0,0,0,0,-1,1469,981,0,0
252,43,0,0,0,0,0,0,0,0,0,-1,1476,981,0,0
259,43,0,0,0,0,0,0,0,0,0,-1,1483,981,0,0
266,43,0,0,0,0,0,0,0,0,0,-1,1490,981,0,0
273,43,0,0,0,0,0,0,0,0,0,-1,1497,981,0,0
280,43,0,0,0,0,0,0,0,0,0,-1,1504,981,0,0
287,43,0,0,0,0,0,0,0,0,0,-1,1511,981,0,0
294,43,0,0,0,0,0,0,0,0,0,-1,1518,981,0,0
301,43,0,0,0,0,0,0,0,0,0,-1,1525,981,0,0
308,43,0,0,0,0,0,0,0,0,0,-1,1532,981,0,0
315,43,0,0,0,0,0,0,0,0,0,-1,1539,981,0,0
322,43,0,0,0,0,0,0,0,0,0,-1,1546,981,0,0
329,43,0,0,0,0,0,0,0,0,0,-1,1553,981,0,0
336,43,0,0,0,0,0,0,0,0,0,-1,1560,981,0,0
343,43,0,0,0,0,0,0,0,0,0,-1,1567,981,0,0
350,43,0,0,0,0,0,0,0,0,0,-1,1574,981,0,0
357,43,0,0,0,0,0,0,0,0,0,-1,1581,981,0,0
364,43,0,0,0,0,0,0,0,0,0,-1,1588,981,0,0
371,43,0,0,0,0,0,0,0,0,0,-1,1595,981,0,0
378,43,0,0,0,0,0,0,0,0,0,-1,1602,981,0,0
385,43,0,0,0,0,0,0,0,0,0,-1,1609,981,0,0
392,43,0,0,0,0,0,0,0,0,0,-1,1616,981,0,0
399,43,0,0,0,0,0,0,0,0,0,-1,1623,981,0,0
406,43,0,0,0,0,0,0,0,0,0,-1,1630,981,0,0
413,43,0,0,0,0,0,0,0,0,0,-1,1637,981,0,0
420,43,0,0,0,0,0,0,0,0,0,-1,1644,981,0,0
427,43,0,0,0,0,0,0,0,0,0,-1,1651,981,0,0
434,43,0,0,0,0,0,0,0,0,0,-1,1658,981,0,0
441,43,0,0,0,0,0,0,0,0,0,-1,1665,981,0,0
448,43,0,0,0,0,0,0,0,0,0,-1,1672,981,0,0
455,43,0,0,0,0,0,0,0,0,0,-1,1679,981,0,0
462,43,0,0,0,0,0,0,0,0,0,-1,1686,981,0,0
469,43,0,0,0,0,0,0,0,0,0,-1,1693,981,0,0
476,43,0,0,0,0,0,0,0,0,0,-1,1700,981,0,0
483,43,0,0,0,0,0,0,0,0,0,-1,1707,981,0,0
490,43,0,0,0,0,0,0,0,0,0,-1,1714,981,0,0
497,43,0,0,0,0,0,0,0,0,0,-1,1721,981,0,0
504,43,0,0,0,0,0,0,0,0,0,-1,1728,981,0,0
511,43,0,0,0,0,0,0,0,0,0,-1,1735,981,0,0
518,43,0,0,0,0,0,0,0,0,0,-1,1742,981,0,0
525,43,0,0,0,0,0,0,0,0,0,-1,1749,981,0,0
532,43,0,0,0,0,0,0,0,0,0,-1,1756,981,0,0
539,43,0,0,0,0,0,0,0,0,0,-1,1763,981,0,0
546,43,0,0,0,0,0,0,0,0,0,-1,1770,981,0,0
553,43,0,0,0,0,0,0,0,0,0,-1,1777,981,0,0
560,43,0,0,0,0,0,0,0,0,0,-1,1784,981,0,0
567,43,0,0,0,0,0,0,0,0,0,-1,1791,981,0,0
574,43,0,0,0,0,0,0,0,0,0,-1,1798,981,0,0
581,43,0,0,0,0,0,0,0,0,0,-1,1805,981,0,0
588,43,0,0,0,0,0,0,0,0,0,-1,1812,981,0,0
595,43,0,0,0,0,0,0,0,0,0,-1,1819,981,0,0
602,43,0,0,0,0,0,0,0,0,0,-1,1826,981,0,0
609,43,0,0,0,0,0,0,0,0,0,-1,1833,981,0,0
616,43,0,0,0,0,0,0,0,0,0,-1,1840,981,0,0
623,43,0,0,0,0,0,0,0,0,0,-1,1847,981,0,0
630,43,0,0,0,0,0,0,0,0,0,-1,1854,981,0,0
637,43,0,0,0,0,0,0,0,0,0,-1,1861,981,0,0
644,43,18.8123,2.39233,-0.000341831,-0.000520509,0.00271679,0.00228709,-0.00314943,0.768962,0.00315191,0.0369744,1868,981,18.8123,-2.39232
651,43,18.7714,2.45953,-6.32996e-06,-0.00054172,0.00199706,0.0017409,-0.00228895,0.718773,0.0023338,0.0359029,1875,981,18.7714,-2.4595
658,43,18.8134,2.42871,2.83791e-05,-0.000556287,0.00152746,0.00129123,-0.00181913,0.690849,0.00180437,0.0381438,1882,981,18.8134,-2.42872
665,43,18.9313,2.39777,-0.000271715,-0.00040123,0.00135138,0.00101646,-0.00168941,0.761457,0.00157826,0.0372134,1889,981,18.9312,-2.39776
672,43,18.9982,2.60577,-0.000998316,-0.000116155,0.00150165,0.00100785,-0.00212232,0.928246,0.00184499,0.0384049,1896,981,18.9982,-2.60576
679,43,18.8381,2.72742,-0.00205714,0.000153253,0.00187789,0.00122703,-0.00313092,1.05137,0.00259487,0.0412288,1903,981,18.8381,-2.72742
686,43,18.8534,2.45758,-0.0029961,0.000380333,0.00226548,0.00151744,-0.0041332,1.10561,0.00337691,0.0418847,1910,981,18.8534,-2.45755
693,43,18.7743,2.46735,-0.00377332,0.000503642,0.00261751,0.00174517,-0.00501485,1.12791,0.00405222,0.0376818,1917,981,18.7743,-2.46737
700,43,18.8051,2.57135,-0.00441913,0.000735672,0.00280045,0.00196426,-0.00564771,1.15737,0.00456307,0.0327903,1924,981,18.8051,-2.57135
707,43,18.8682,2.57977,-0.00494256,0.000903045,0.00293468,0.00212212,-0.00616163,1.17708,0.00496856,0.0269083,1931,981,18.8682,-2.57977
714,43,18.9031,2.70288,-0.00528009,0.00104131,0.00297308,0.00221988,-0.00645866,1.19339,0.00520596,0.0298098,1938,981,18.9031,-2.70289
721,43,18.6259,3.16974,-0.00547516,0.00117478,0.00289238,0.00225676,-0.00655715,1.21283,0.00528676,0.0290435,1945,981,18.6259,-3.16974
728,43,18.2648,3.4458,-0.00541577,0.00135766,0.00275945,0.00233952,-0.00639762,1.22895,0.00522261,0.019175,1952,981,18.2647,-3.44578
735,43,18.1803,3.57001,-0.00517434,0.00132198,0.00239742,0.00211092,-0.00596328,1.25288,0.00483527,0.0134976,1959,981,18.1803,-3.57
742,43,18.1615,3.61914,-0.00492685,0.00169385,0.00180836,0.00215558,-0.00538858,1.32081,0.00448696,0.016077,1966,981,18.1615,-3.61917
749,43,18.1375,3.6817,-0.00518732,0.00169512,-0.000186678,0.00170018,-0.00519238,-1.5437,0.00414619,0.0175798,1973,981,18.1374,-3.68172
756,43,18.123,3.75732,-0.00629972,0.00333992,-0.00329147,0.00435657,-0.00731638,-1.27122,0.00681122,0.0163046,1980,981,18.1231,-3.75731
763,43,18.124,3.82074,-0.00775782,0.00450285,-0.0067517,0.00749208,-0.010747,-1.154,0.0105861,0.0170263,1987,981,18.124,-3.82075
770,43,18.113,3.89581,-0.0103686,0.00646362,-0.0116317,0.0124047,-0.0163096,-1.09858,0.0166292,0.0141695,1994,981,18.1131,-3.8958
777,43,18.0953,3.97687,-0.0145892,0.00928165,-0.0181375,0.0190585,-0.0243661,-1.07641,0.0251336,0.0199687,2001,981,18.0953,-3.97689
784,43,18.1061,4.08368,-0.021062,0.0132023,-0.0269063,0.0279678,-0.0358275,-1.06889,0.0369253,0.0420795,2008,981,18.106,-4.08366
791,43,18.121,4.18243,0,0,0,0,0,0,0,-1,2015,981,18.121,-4.18244
798,43,19.348,4.66272,0,0,0,0,0,0,0,-1,2022,981,19.348,-4.66273
805,43,19.3716,4.75763,0,0,0,0,0,0,0,-1,2029,981,19.3715,-4.75763
812,43,19.3582,4.51337,0,0,0,0,0,0,0,-1,2036,981,19.3582,-4.51337
-700,36,0,0,0,0,0,0,0,0,0,-1,524,988,0,0
-693,36,-10.7608,-0.992126,0,0,0,0,0,0,0,-1,531,988,-10.7608,0.99212
-686,36,-12.0294,-0.521667,0,0,0,0,0,0,0,-1,538,988,-12.0294,0.521642
-679,36,-12.8065,-0.224426,0,0,0,0,0,0,0,-1,545,988,-12.8064,0.224417
-672,36,-10.7048,-0.358215,0,0,0,0,0,0,0,-1,552,988,-10.7047,0.358237
-665,36,-10.9152,0.0159912,0,0,0,0,0,0,0,-1,559,988,-10.9152,-0.0160125
-658,36,-11.8295,1.83972,0,0,0,0,0,0,0,-1,566,988,-11.8295,-1.83971
-651,36,-11.9517,1.67883,-0.0108114,0.000864616,0.0073649,0.00442469,-0.0143715,1.12053,0.0113472,0.0376485,573,988,-11.9517,-1.67884
-644,36,-12.0906,1.51056,-0.00802055,0.00202946,0.0053704,0.00435917,-0.0103503,1.16149,0.00872414,0.0184261,580,988,-12.0905,-1.51055
-637,36,-12.1,1.47791,-0.00576031,0.00313358,0.00354292,0.00437238,-0.00699911,1.23443,0.00662346,0.0127742,587,988,-12.1,-1.47789
-630,36,-12.0831,1.46173,-0.00372296,0.00345754,0.00160202,0.00379875,-0.00406416,1.36095,0.00454052,0.0117247,594,988,-12.0831,-1.46172
-623,36,-12.0776,1.401,-0.00297437,0.00300841,4.86292e-05,0.0030088,-0.00297477,1.56267,0.00345463,0.011881,601,988,-12.0776,-1.40097
-616,36,-12.0568,1.32367,-0.00282144,0.0028976,-0.000724165,0.00298787,-0.00291171,-1.44678,0.00340622,0.0102619,608,988,-12.0568,-1.32368
-609,36,-12.0668,1.28986,-0.00268582,0.00201515,-0.00149242,0.00244892,-0.00311959,-1.28794,0.00322275,0.0154814,615,988,-12.0668,-1.28988
-602,36,-12.0731,1.26465,-0.00287146,0.00134712,-0.00216048,0.00225723,-0.00378157,-1.1721,0.00352333,0.0202,622,988,-12.0731,-1.26463
-595,36,-12.0681,1.22778,-0.0028981,0.00116091,-0.00262297,0.00244786,-0.00418505,-1.11466,0.00387305,0.0206348,629,988,-12.0681,-1.22779
-588,36,-12.1033,1.02899,-0.00282558,0.00109492,-0.00293906,0.00266747,-0.00439813,-1.0795,0.00411992,0.0201296,636,988,-12.1033,-1.02899
-581,36,-12.1818,0.75238,-0.00280426,0.00109047,-0.00313806,0.00283629,-0.00455008,-1.0631,0.00430262,0.0241078,643,988,-12.1819,-0.752372
-574,36,-12.2084,0.679871,-0.00281018,0.00115977,-0.00338479,0.00309869,-0.0047491,-1.05059,0.00456419,0.0277972,650,988,-12.2084,-0.679851
-567,36,-12.2159,0.619751,-0.00259364,0.00129575,-0.00345943,0.00331962,-0.00461751,-1.04146,0.00460288,0.0328784,657,988,-12.2159,-0.619737
-560,36,-12.1876,0.668884,-0.00214615,0.0014341,-0.00355881,0.00362766,-0.0043397,-1.01843,0.00460608,0.0365157,664,988,-12.1875,-0.668863
-553,36,-12.2255,0.793884,-0.00142759,0.00161827,-0.00376972,0.00416106,-0.00397038,-0.977369,0.00469512,0.0402118,671,988,-12.2255,-0.793911
-546,36,-12.2553,0.586792,-0.000441222,0.00185183,-0.0041877,0.00504711,-0.00363651,-0.919016,0.00503549,0.0413807,678,988,-12.2553,-0.586816
-539,36,-12.1228,0.47345,0.000817233,0.00216501,-0.00502874,0.00656481,-0.00358257,-0.852005,0.00594233,0.0437823,685,988,-12.1228,-0.473444
-532,36,-12.0625,0.545105,0.0020512,0.00286175,-0.00667439,0.00914316,-0.00423021,-0.815721,0.00789288,0.0475186,692,988,-12.0625,-0.54511
-525,36,-11.853,0.314514,0,0,0,0,0,0,0,-1,699,988,-11.853,-0.314512
-518,36,0,0,0,0,0,0,0,0,0,-1,706,988,0,0
-511,36,0,0,0,0,0,0,0,0,0,-1,713,988,0,0
-504,36,0,0,0,0,0,0,0,0,0,-1,720,988,0,0
-497,36,0,0,0,0,0,0,0,0,0,-1,727,988,0,0
-490,36,0,0,0,0,0,0,0,0,0,-1,734,988,0,0
-483,36,0,0,0,0,0,0,0,0,0,-1,741,988,0,0
-476,36,0,0,0,0,0,0,0,0,0,-1,748,988,0,0
-469,36,0,0,0,0,0,0,0,0,0,-1,755,988,0,0
-462,36,0,0,0,0,0,0,0,0,0,-1,762,988,0,0
-455,36,0,0,0,0,0,0,0,0,0,-1,769,988,0,0
-448,36,0,0,0,0,0,0,0,0,0,-1,776,988,0,0
-441,36,0,0,0,0,0,0,0,0,0,-1,783,988,0,0
-434,36,0,0,0,0,0,0,0,0,0,-1,790,988,0,0
-427,36,0,0,0,0,0,0,0,0,0,-1,797,988,0,0
-420,36,0,0,0,0,0,0,0,0,0,-1,804,988,0,0
-413,36,0,0,0,0,0,0,0,0,0,-1,811,988,0,0
-406,36,0,0,0,0,0,0,0,0,0,-1,818,988,0,0
-399,36,0,0,0,0,0,0,0,0,0,-1,825,988,0,0
-392,36,0,0,0,0,0,0,0,0,0,-1,832,988,0,0
-385,36,0,0,0,0,0,0,0,0,0,-1,839,988,0,0
-378,36,0,0,0,0,0,0,0,0,0,-1,846,988,0,0
-371,36,0,0,0,0,0,0,0,0,0,-1,853,988,0,0
-364,36,0,0,0,0,0,0,0,0,0,-1,860,988,0,0
-357,36,0,0,0,0,0,0,0,0,0,-1,867,988,0,0
-350,36,0,0,0,0,0,0,0,0,0,-1,874,988,0,0
-343,36,0,0,0,0,0,0,0,0,0,-1,881,988,0,0
-336,36,0,0,0,0,0,0,0,0,0,-1,888,988,0,0
-329,36,0,0,0,0,0,0,0,0,0,-1,895,988,0,0
-322,36,0,0,0,0,0,0,0,0,0,-1,902,988,0,0
-315,36,0,0,0,0,0,0,0,0,0,-1,909,988,0,0
-308,36,0,0,0,0,0,0,0,0,0,-1,916,988,0,0
-301,36,0,0,0,0,0,0,0,0,0,-1,923,988,0,0
-294,36,0,0,0,0,0,0,0,0,0,-1,930,988,0,0
-287,36,0,0,0,0,0,0,0,0,0,-1,937,988,0,0
-280,36,0,0,0,0,0,0,0,0,0,-1,944,988,0,0
-273,36,0,0,0,0,0,0,0,0,0,-1,951,988,0,0
-266,36,0,0,0,0,0,0,0,0,0,-1,958,988,0,0
-259,36,0,0,0,0,0,0,0,0,0,-1,965,988,0,0
-252,36,0,0,0,0,0,0,0,0,0,-1,972,988,0,0
-245,36,0,0,0,0,0,0,0,0,0,-1,979,988,0,0
-238,36,0,0,0,0,0,0,0,0,0,-1,986,988,0,0
-231,36,0,0,0,0,0,0,0,0,0,-1,993,988,0,0
-224,36,0,0,0,0,0,0,0,0,0,-1,1000,988,0,0
-217,36,0,0,0,0,0,0,0,0,0,-1,1007,988,0,0
-210,36,0,0,0,0,0,0,0,0,0,-1,1014,988,0,0
-203,36,0,0,0,0,0,0,0,0,0,-1,1021,988,0,0
-196,36,0,0,0,0,0,0,0,0,0,-1,1028,988,0,0
-189,36,0,0,0,0,0,0,0,0,0,-1,1035,988,0,0
-182,36,0,0,0,0,0,0,0,0,0,-1,1042,988,0,0
-175,36,0,0,0,0,0,0,0,0,0,-1,1049,988,0,0
-168,36,0,0,0,0,0,0,0,0,0,-1,1056,988,0,0
-161,36,0,0,0,0,0,0,0,0,0,-1,1063,988,0,0
-154,36,0,0,0,0,0,0,0,0,0,-1,1070,988,0,0
-147,36,0,0,0,0,0,0,0,0,0,-1,1077,988,0,0
-140,36,0,0,0,0,0,0,0,0,0,-1,1084,988,0,0
-133,36,0,0,0,0,0,0,0,0,0,-1,1091,988,0,0
-126,36,0,0,0,0,0,0,0,0,0,-1,1098,988,0,0
-119,36,0,0,0,0,0,0,0,0,0,-1,1105,988,0,0
-112,36,0,0,0,0,0,0,0,0,0,-1,1112,988,0,0
-105,36,0,0,0,0,0,0,0,0,0,-1,1119,988,0,0
-98,36,0,0,0,0,0,0,0,0,0,-1,1126,988,0,0
-91,36,0,0,0,0,0,0,0,0,0,-1,1133,988,0,0
-84,36,0,0,0,0,0,0,0,0,0,-1,1140,988,0,0
-77,36,0,0,0,0,0,0,0,0,0,-1,1147,988,0,0
-70,36,0,0,0,0,0,0,0,0,0,-1,1154,988,0,0
-63,36,0,0,0,0,0,0,0,0,0,-1,1161,988,0,0
-56,36,0,0,0,0,0,0,0,0,0,-1,1168,988,0,0
-49,36,0,0,0,0,0,0,0,0,0,-1,1175,988,0,0
-42,36,0,0,0,0,0,0,0,0,0,-1,1182,988,0,0
-35,36,0,0,0,0,0,0,0,0,0,-1,1189,988,0,0
-28,36,0,0,0,0,0,0,0,0,0,-1,1196,988,0,0
-21,36,0,0,0,0,0,0,0,0,0,-1,1203,988,0,0
-14,36,0,0,0,0,0,0,0,0,0,-1,1210,988,0,0
-7,36,0,0,0,0,0,0,0,0,0,-1,1217,988,0,0
0,36,0,0,0,0,0,0,0,0,0,-1,1224,988,0,0
7,36,0,0,0,0,0,0,0,0,0,-1,1231,988,0,0
14,36,0,0,0,0,0,0,0,0,0,-1,1238,988,0,0
21,36,0,0,0,0,0,0,0,0,0,-1,1245,988,0,0
28,36,0,0,0,0,0,0,0,0,0,-1,1252,988,0,0
35,36,0,0,0,0,0,0,0,0,0,-1,1259,988,0,0
42,36,0,0,0,0,0,0,0,0,0,-1,1266,988,0,0
49,36,0,0,0,0,0,0,0,0,0,-1,1273,988,0,0
56,36,0,0,0,0,0,0,0,0,0,-1,1280,988,0,0
63,36,0,0,0,0,0,0,0,0,0,-1,1287,988,0,0
70,36,0,0,0,0,0,0,0,0,0,-1,1294,988,0,0
77,36,0,0,0,0,0,0,0,0,0,-1,1301,988,0,0
84,36,0,0,0,0,0,0,0,0,0,-1,1308,988,0,0
91,36,0,0,0,0,0,0,0,0,0,-1,1315,988,0,0
98,36,0,0,0,0,0,0,0,0,0,-1,1322,988,0,0
105,36,0,0,0,0,0,0,0,0,0,-1,1329,988,0,0
112,36,0,0,0,0,0,0,0,0,0,-1,1336,988,0,0
119,36,0,0,0,0,0,0,0,0,0,-1,1343,988,0,0
126,36,0,0,0,0,0,0,0,0,0,-1,1350,988,0,0
133,36,0,0,0,0,0,0,0,0,0,-1,1357,988,0,0
140,36,0,0,0,0,0,0,0,0,0,-1,1364,988,0,0
147,36,0,0,0,0,0,0,0,0,0,-1,1371,988,0,0
154,36,0,0,0,0,0,0,0,0,0,-1,1378,988,0,0
161,36,0,0,0,0,0,0,0,0,0,-1,1385,988,0,0
168,36,0,0,0,0,0,0,0,0,0,-1,1392,988,0,0
175,36,0,0,0,0,0,0,0,0,0,-1,1399,988,0,0
182,36,0,0,0,0,0,0,0,0,0,-1,1406,988,0,0
189,36,0,0,0,0,0,0,0,0,0,-1,1413,988,0,0
196,36,0,0,0,0,0,0,0,0,0,-1,1420,988,0,0
203,36,0,0,0,0,0,0,0,0,0,-1,1427,988,0,0
210,36,0,0,0,0,0,0,0,0,0,-1,1434,988,0,0
217,36,0,0,0,0,0,0,0,0,0,-1,1441,988,0,0
224,36,0,0,0,0,0,0,0,0,0,-1,1448,988,0,0
231,36,0,0,0,0,0,0,0,0,0,-1,1455,988,0,0
238,36,0,0,0,0,0,0,0,0,0,-1,1462,988,0,0
245,36,0,0,0,0,0,0,0,0,0,-1,1469,988,0,0
252,36,0,0,0,0,0,0,0,0,0,-1,1476,988,0,0
259,36,0,0,0,0,0,0,0,0,0,-1,1483,988,0,0
266,36,0,0,0,0,0,0,0,0,0,-1,1490,988,0,0
273,36,0,0,0,0,0,0,0,0,0,-1,1497,988,0,0
280,36,0,0,0,0,0,0,0,0,0,-1,1504,988,0,0
287,36,0,0,0,0,0,0,0,0,0,-1,1511,988,0,0
294,36,0,0,0,0,0,0,0,0,0,-1,1518,988,0,0
301,36,0,0,0,0,0,0,0,0,0,-1,1525,988,0,0
308,36,0,0,0,0,0,0,0,0,0,-1,1532,988,0,0
315,36,0,0,0,0,0,0,0,0,0,-1,1539,988,0,0
322,36,0,0,0,0,0,0,0,0,0,-1,1546,988,0,0
329,36,0,0,0,0,0,0,0,0,0,-1,1553,988,0,0
336,36,0,0,0,0,0,0,0,0,0,-1,1560,988,0,0
343,36,0,0,0,0,0,0,0,0,0,-1,1567,988,0,0
350,36,0,0,0,0,0,0,0,0,0,-1,1574,988,0,0
357,36,0,0,0,0,0,0,0,0,0,-1,1581,988,0,0
364,36,0,0,0,0,0,0,0,0,0,-1,1588,988,0,0
371,36,0,0,0,0,0,0,0,0,0,-1,1595,988,0,0
378,36,0,0,0,0,0,0,0,0,0,-1,1602,988,0,0
385,36,0,0,0,0,0,0,0,0,0,-1,1609,988,0,0
392,36,0,0,0,0,0,0,0,0,0,-1,1616,988,0,0
399,36,0,0,0,0,0,0,0,0,0,-1,1623,988,0,0
406,36,0,0,0,0,0,0,0,0,0,-1,1630,988,0,0
413,36,0,0,0,0,0,0,0,0,0,-1,1637,988,0,0
420,36,0,0,0,0,0,0,0,0,0,-1,1644,988,0,0
427,36,0,0,0,0,0,0,0,0,0,-1,1651,988,0,0
434,36,0,0,0,0,0,0,0,0,0,-1,1658,988,0,0
441,36,0,0,0,0,0,0,0,0,0,-1,1665,988,0,0
448,36,0,0,0,0,0,0,0,0,0,-1,1672,988,0,0
455,36,0,0,0,0,0,0,0,0,0,-1,1679,988,0,0
462,36,0,0,0,0,0,0,0,0,0,-1,1686,988,0,0
469,36,0,0,0,0,0,0,0,0,0,-1,1693,988,0,0
476,36,0,0,0,0,0,0,0,0,0,-1,1700,988,0,0
483,36,0,0,0,0,0,0,0,0,0,-1,1707,988,0,0
490,36,0,0,0,0,0,0,0,0,0,-1,1714,988,0,0
497,36,0,0,0,0,0,0,0,0,0,-1,1721,988,0,0
504,36,0,0,0,0,0,0,0,0,0,-1,1728,988,0,0
511,36,0,0,0,0,0,0,0,0,0,-1,1735,988,0,0
518,36,0,0,0,0,0,0,0,0,0,-1,1742,988,0,0
525,36,0,0,0,0,0,0,0,0,0,-1,1749,988,0,0
532,36,0,0,0,0,0,0,0,0,0,-1,1756,988,0,0
539,36,0,0,0,0,0,0,0,0,0,-1,1763,988,0,0
546,36,0,0,0,0,0,0,0,0,0,-1,1770,988,0,0
553,36,0,0,0,0,0,0,0,0,0,-1,1777,988,0,0
560,36,0,0,0,0,0,0,0,0,0,-1,1784,988,0,0
567,36,0,0,0,0,0,0,0,0,0,-1,1791,988,0,0
574,36,0,0,0,0,0,0,0,0,0,-1,1798,988,0,0
581,36,0,0,0,0,0,0,0,0,0,-1,1805,988,0,0
588,36,0,0,0,0,0,0,0,0,0,-1,1812,988,0,0
595,36,0,0,0,0,0,0,0,0,0,-1,1819,988,0,0
602,36,0,0,0,0,0,0,0,0,0,-1,1826,988,0,0
609,36,0,0,0,0,0,0,0,0,0,-1,1833,988,0,0
616,36,0,0,0,0,0,0,0,0,0,-1,1840,988,0,0
623,36,0,0,0,0,0,0,0,0,0,-1,1847,988,0,0
630,36,0,0,0,0,0,0,0,0,0,-1,1854,988,0,0
637,36,0,0,0,0,0,0,0,0,0,-1,1861,988,0,0
644,36,18.842,2.43274,0.000210521,-0.00151309,0.00282799,0.0023051,-0.00360767,0.637497,0.00344124,0.0407995,1868,988,18.842,-2.43274
651,36,18.699,2.66516,0.000416685,-0.00114212,0.00196131,0.00174778,-0.00247322,0.596271,0.00244896,0.0393114,1875,988,18.699,-2.66513
658,36,18.9232,2.75842,0.00034105,-0.000895497,0.00138303,0.00123772,-0.00179216,0.575202,0.00175904,0.0376913,1882,988,18.9233,-2.75843
665,36,18.9937,2.76178,8.41734e-05,-0.000583047,0.00113541,0.000933969,-0.00143284,0.642508,0.00137656,0.036576,1889,988,18.9936,-2.76177
672,36,18.901,2.75342,-0.000552537,-0.000190204,0.00129236,0.000933626,-0.00167637,0.855036,0.00152708,0.0381898,1896,988,18.901,-2.7534
679,36,18.7655,2.70941,-0.00156591,0.000156692,0.00174185,0.00123855,-0.00264777,1.01501,0.00229241,0.0410486,1903,988,18.7656,-2.7094
686,36,18.6781,2.54425,-0.00249491,0.00042951,0.00222902,0.00163312,-0.00369852,1.07568,0.00315427,0.0411109,1910,988,18.6781,-2.54424
693,36,18.6573,2.62439,-0.00328564,0.000590367,0.00267962,0.00195936,-0.00465463,1.09847,0.00392286,0.0420813,1917,988,18.6574,-2.6244
700,36,18.7589,2.65326,-0.00395173,0.00084058,0.00295502,0.00224886,-0.00536001,1.12607,0.00451373,0.0369184,1924,988,18.7589,-2.65327
707,36,18.8441,2.6167,-0.00450986,0.000996238,0.00317541,0.00244587,-0.00595949,1.14254,0.00499217,0.0243105,1931,988,18.8442,-2.61673
714,36,18.8983,2.69525,-0.00491435,0.00112606,0.00328479,0.00256808,-0.00635638,1.15713,0.00530502,0.0238754,1938,988,18.8983,-2.69525
721,36,18.7125,3.18671,-0.00519231,0.00125403,0.00326649,0.00261984,-0.00655813,1.17476,0.0054591,0.0293753,1945,988,18.7125,-3.18673
728,36,18.4022,3.47089,-0.00523183,0.0014071,0.00316311,0.00267284,-0.00649757,1.19015,0.00544587,0.0217545,1952,988,18.4023,-3.4709
735,36,18.2213,3.59985,-0.00505899,0.00137263,0.0028271,0.00243863,-0.00612499,1.21022,0.00509462,0.0173128,1959,988,18.2214,-3.59984
742,36,18.2263,3.6452,-0.00488954,0.00164834,0.00215315,0.00229374,-0.00553493,1.27957,0.00464721,0.0150438,1966,988,18.2263,-3.64521
749,36,18.2061,3.69336,-0.00517193,0.00152864,0.000112713,0.00153054,-0.00517382,1.55398,0.0040568,0.0164263,1973,988,18.206,-3.69333
756,36,18.1888,3.74072,-0.00630824,0.00282211,-0.0028974,0.00366394,-0.00715007,-1.28803,0.00635069,0.0139012,1980,988,18.1888,-3.74072
763,36,18.1912,3.80115,-0.00788214,0.00349448,-0.00637005,0.00634634,-0.010734,-1.14986,0.0099692,0.0144829,1987,988,18.1911,-3.80112
770,36,18.189,3.86963,-0.0104514,0.00479527,-0.0111819,0.0107053,-0.0163614,-1.08459,0.0157402,0.0127341,1994,988,18.1889,-3.86963
777,36,18.1598,3.96942,-0.0146404,0.00668874,-0.0175309,0.016544,-0.0244957,-1.05866,0.0238421,0.0214771,2001,988,18.1598,-3.96941
784,36,18.3407,4.29401,-0.0211027,0.00930228,-0.0259231,0.0241518,-0.0359522,-1.05059,0.0349233,0.0422674,2008,988,18.3407,-4.29398
791,36,18.3157,4.49677,0,0,0,0,0,0,0,-1,2015,988,18.3157,-4.49678
798,36,18.1669,4.5235,0,0,0,0,0,0,0,-1,2022,988,18.1669,-4.52351
805,36,18.1559,4.68622,0,0,0,0,0,0,0,-1,2029,988,18.1559,-4.6862
812,36,17.9214,4.50623,0,0,0,0,0,0,0,-1,2036,988,17.9214,-4.50625
-700,29,0,0,0,0,0,0,0,0,0,-1,524,995,0,0
-693,29,-10.2316,-0.379333,0,0,0,0,0,0,0,-1,531,995,-10.2316,0.379352
-686,29,-11.2357,-0.100769,-0.0453042,-0.0407997,0.0166941,-0.0262066,-0.0598973,0.85245,0.0346716,0.0431173,538,995,-11.2357,0.10077
-679,29,-12.1072,0.229004,-0.0359823,-0.0276492,0.0134803,-0.0177062,-0.0459253,0.935283,0.0267456,0.0434242,545,995,-12.1072,-0.229009
-672,29,-12.0157,0.343872,-0.0284038,-0.018022,0.010825,-0.0112076,-0.0352181,1.00897,0.0207762,0.0427367,552,995,-12.0157,-0.343888
-665,29,-11.2865,1.9776,0,0,0,0,0,0,0,-1,559,995,-11.2865,-1.97759
-658,29,-11.5228,1.89252,0,0,0,0,0,0,0,-1,566,995,-11.5228,-1.89252
-651,29,-11.8002,1.64447,-0.012799,-0.00251127,0.00506113,-0.000438887,-0.0148714,1.18215,0.00977127,0.0360187,573,995,-11.8002,-1.64444
-644,29,-12.0536,1.44019,-0.00941705,-0.00036467,0.00358606,0.000883759,-0.0106655,1.23578,0.00742247,0.0175758,580,995,-12.0536,-1.44018
-637,29,-12.134,1.43164,-0.00664158,0.00157692,0.00216459,0.00211217,-0.00717683,1.32838,0.00562245,0.0123078,587,995,-12.1341,-1.43166
-630,29,-12.1333,1.44135,-0.00422752,0.00269469,0.000594603,0.00274539,-0.00427823,1.48573,0.00408715,0.0109621,594,995,-12.1333,-1.44132
-623,29,-12.1088,1.43304,-0.00306983,0.0025624,-0.000645747,0.00263548,-0.00314292,-1.45809,0.00334045,0.0106688,601,995,-12.1088,-1.43304
-616,29,-12.1194,1.35919,-0.00257273,0.00255477,-0.00133153,0.00287993,-0.00289789,-1.33129,0.00333583,0.0132453,608,995,-12.1194,-1.35917
-609,29,-12.1389,1.30927,-0.0021895,0.00182409,-0.00197814,0.00263514,-0.00300055,-1.18169,0.00325605,0.0204132,615,995,-12.1389,-1.30928
-602,29,-12.1157,1.2865,-0.0022585,0.00125818,-0.00259869,0.00263751,-0.00363782,-1.08283,0.00363837,0.0217105,622,995,-12.1157,-1.28647
-595,29,-12.1017,1.22614,-0.0022507,0.00107599,-0.00312113,0.00294933,-0.00412404,-1.03022,0.00410254,0.0191161,629,995,-12.1018,-1.22614
-588,29,-12.1415,0.966614,-0.00212462,0.00102939,-0.00345495,0.00325024,-0.00434546,-0.9995,0.00440055,0.0233304,636,995,-12.1415,-0.966628
-581,29,-12.1948,0.69812,-0.00205142,0.00103172,-0.00363888,0.0034421,-0.00446179,-0.985757,0.00457595,0.0363456,643,995,-12.1948,-0.698105
-574,29,-12.2001,0.647827,-0.00202185,0.00110812,-0.00384104,0.00369076,-0.00460448,-0.97885,0.00479893,0.0327083,650,995,-12.2001,-0.64783
-567,29,-12.2415,0.604797,-0.001819,0.00123308,-0.00385927,0.00385707,-0.00444298,-0.973675,0.00479602,0.0337536,657,995,-12.2415,-0.604825
-560,29,-12.294,0.788452,-0.00142701,0.00136318,-0.00387559,0.00408713,-0.00415095,-0.958163,0.00475631,0.0389554,664,995,-12.294,-0.788461
-553,29,-12.3722,1.02448,-0.000822097,0.00150596,-0.00397808,0.00448682,-0.00380296,-0.92773,0.00479153,0.0423122,671,995,-12.3722,-1.0245
-546,29,-12.3376,0.737976,-8.87295e-06,0.00164142,-0.00426566,0.005161,-0.00352846,-0.880938,0.00504629,0.0419831,678,995,-12.3376,-0.737947
-539,29,-12.3675,0.507141,0.00102468,0.00176932,-0.00500483,0.00641566,-0.00362166,-0.822526,0.00586941,0.040925,685,995,-12.3675,-0.507118
-532,29,-12.4425,0.692444,0.00196639,0.00223163,-0.00662618,0.00872651,-0.0045285,-0.795404,0.00777967,0.04575,692,995,-12.4425,-0.692436
-525,29,-12.5533,0.898926,0,0,0,0,0,0,0,-1,699,995,-12.5533,-0.898947
-518,29,0,0,0,0,0,0,0,0,0,-1,706,995,0,0
-511,29,0,0,0,0,0,0,0,0,0,-1,713,995,0,0
-504,29,0,0,0,0,0,0,0,0,0,-1,720,995,0,0
-497,29,0,0,0,0,0,0,0,0,0,-1,727,995,0,0
-490,29,0,0,0,0,0,0,0,0,0,-1,734,995,0,0
-483,29,0,0,0,0,0,0,0,0,0,-1,741,995,0,0
-476,29,0,0,0,0,0,0,0,0,0,-1,748,995,0,0
-469,29,0,0,0,0,0,0,0,0,0,-1,755,995,0,0
-462,29,0,0,0,0,0,0,0,0,0,-1,762,995,0,0
-455,29,0,0,0,0,0,0,0,0,0,-1,769,995,0,0
-448,29,0,0,0,0,0,0,0,0,0,-1,776,995,0,0
-441,29,0,0,0,0,0,0,0,0,0,-1,783,995,0,0
-434,29,0,0,0,0,0,0,0,0,0,-1,790,995,0,0
-427,29,0,0,0,0,0,0,0,0,0,-1,797,995,0,0
-420,29,0,0,0,0,0,0,0,0,0,-1,804,995,0,0
-413,29,0,0,0,0,0,0,0,0,0,-1,811,995,0,0
-406,29,0,0,0,0,0,0,0,0,0,-1,818,995,0,0
-399,29,0,0,0,0,0,0,0,0,0,-1,825,995,0,0
-392,29,0,0,0,0,0,0,0,0,0,-1,832,995,0,0
-385,29,0,0,0,0,0,0,0,0,0,-1,839,995,0,0
-378,29,0,0,0,0,0,0,0,0,0,-1,846,995,0,0
-371,29,0,0,0,0,0,0,0,0,0,-1,853,995,0,0
-364,29,0,0,0,0,0,0,0,0,0,-1,860,995,0,0
-357,29,0,0,0,0,0,0,0,0,0,-1,867,995,0,0
-350,29,0,0,0,0,0,0,0,0,0,-1,874,995,0,0
-343,29,0,0,0,0,0,0,0,0,0,-1,881,995,0,0
-336,29,0,0,0,0,0,0,0,0,0,-1,888,995,0,0
-329,29,0,0,0,0,0,0,0,0,0,-1,895,995,0,0
-322,29,0,0,0,0,0,0,0,0,0,-1,902,995,0,0
-315,29,0,0,0,0,0,0,0,0,0,-1,909,995,0,0
-308,29,0,0,0,0,0,0,0,0,0,-1,916,995,0,0
-301,29,0,0,0,0,0,0,0,0,0,-1,923,995,0,0
-294,29,0,0,0,0,0,0,0,0,0,-1,930,995,0,0
-287,29,0,0,0,0,0,0,0,0,0,-1,937,995,0,0
-280,29,0,0,0,0,0,0,0,0,0,-1,944,995,0,0
-273,29,0,0,0,0,0,0,0,0,0,-1,951,995,0,0
-266,29,0,0,0,0,0,0,0,0,0,-1,958,995,0,0
-259,29,0,0,0,0,0,0,0,0,0,-1,965,995,0,0
-252,29,0,0,0,0,0,0,0,0,0,-1,972,995,0,0
-245,29,0,0,0,0,0,0,0,0,0,-1,979,995,0,0
-238,29,0,0,0,0,0,0,0,0,0,-1,986,995,0,0
-231,29,0,0,0,0,0,0,0,0,0,-1,993,995,0,0
-224,29,0,0,0,0,0,0,0,0,0,-1,1000,995,0,0
-217,29,0,0,0,0,0,0,0,0,0,-1,1007,995,0,0
-210,29,0,0,0,0,0,0,0,0,0,-1,1014,995,0,0
-203,29,0,0,0,0,0,0,0,0,0,-1,1021,995,0,0
-196,29,0,0,0,0,0,0,0,0,0,-1,1028,995,0,0
-189,29,0,0,0,0,0,0,0,0,0,-1,1035,995,0,0
-182,29,0,0,0,0,0,0,0,0,0,-1,1042,995,0,0
-175,29,0,0,0,0,0,0,0,0,0,-1,1049,995,0,0
-168,29,0,0,0,0,0,0,0,0,0,-1,1056,995,0,0
-161,29,0,0,0,0,0,0,0,0,0,-1,1063,995,0,0
-154,29,0,0,0,0,0,0,0,0,0,-1,1070,995,0,0
-147,29,0,0,0,0,0,0,0,0,0,-1,1077,995,0,0
-140,29,0,0,0,0,0,0,0,0,0,-1,1084,995,0,0
-133,29,0,0,0,0,0,0,0,0,0,-1,1091,995,0,0
-126,29,0,0,0,0,0,0,0,0,0,-1,1098,995,0,0
-119,29,0,0,0,0,0,0,0,0,0,-1,1105,995,0,0
-112,29,0,0,0,0,0,0,0,0,0,-1,1112,995,0,0
-105,29,0,0,0,0,0,0,0,0,0,-1,1119,995,0,0
-98,29,0,0,0,0,0,0,0,0,0,-1,1126,995,0,0
-91,29,0,0,0,0,0,0,0,0,0,-1,1133,995,0,0
-84,29,0,0,0,0,0,0,0,0,0,-1,1140,995,0,0
-77,29,0,0,0,0,0,0,0,0,0,-1,1147,995,0,0
-70,29,0,0,0,0,0,0,0,0,0,-1,1154,995,0,0
-63,29,0,0,0,0,0,0,0,0,0,-1,1161,995,0,0
-56,29,0,0,0,0,0,0,0,0,0,-1,1168,995,0,0
-49,29,0,0,0,0,0,0,0,0,0,-1,1175,995,0,0
-42,29,0,0,0,0,0,0,0,0,0,-1,1182,995,0,0
-35,29,0,0,0,0,0,0,0,0,0,-1,1189,995,0,0
-28,29,0,0,0,0,0,0,0,0,0,-1,1196,995,0,0
-21,29,0,0,0,0,0,0,0,0,0,-1,1203,995,0,0
-14,29,0,0,0,0,0,0,0,0,0,-1,1210,995,0,0
-7,29,0,0,0,0,0,0,0,0,0,-1,1217,995,0,0
0,29,0,0,0,0,0,0,0,0,0,-1,1224,995,0,0
7,29,0,0,0,0,0,0,0,0,0,-1,1231,995,0,0
14,29,0,0,0,0,0,0,0,0,0,-1,1238,995,0,0
21,29,0,0,0,0,0,0,0,0,0,-1,1245,995,0,0
28,29,0,0,0,0,0,0,0,0,0,-1,1252,995,0,0
35,29,0,0,0,0,0,0,0,0,0,-1,1259,995,0,0
42,29,0,0,0,0,0,0,0,0,0,-1,1266,995,0,0
49,29,0,0,0,0,0,0,0,0,0,-1,1273,995,0,0
56,29,0,0,0,0,0,0,0,0,0,-1,1280,995,0,0
63,29,0,0,0,0,0,0,0,0,0,-1,1287,995,0,0
70,29,0,0,0,0,0,0,0,0,0,-1,1294,995,0,0
77,29,0,0,0,0,0,0,0,0,0,-1,1301,995,0,0
84,29,0,0,0,0,0,0,0,0,0,-1,1308,995,0,0
91,29,0,0,0,0,0,0,0,0,0,-1,1315,995,0,0
98,29,0,0,0,0,0,0,0,0,0,-1,1322,995,0,0
105,29,0,0,0,0,0,0,0,0,0,-1,1329,995,0,0
112,29,0,0,0,0,0,0,0,0,0,-1,1336,995,0,0
119,29,0,0,0,0,0,0,0,0,0,-1,1343,995,0,0
126,29,0,0,0,0,0,0,0,0,0,-1,1350,995,0,0
133,29,0,0,0,0,0,0,0,0,0,-1,1357,995,0,0
140,29,0,0,0,0,0,0,0,0,0,-1,1364,995,0,0
147,29,0,0,0,0,0,0,0,0,0,-1,1371,995,0,0
154,29,0,0,0,0,0,0,0,0,0,-1,1378,995,0,0
161,29,0,0,0,0,0,0,0,0,0,-1,1385,995,0,0
168,29,0,0,0,0,0,0,0,0,0,-1,1392,995,0,0
175,29,0,0,0,0,0,0,0,0,0,-1,1399,995,0,0
182,29,0,0,0,0,0,0,0,0,0,-1,1406,995,0,0
189,29,0,0,0,0,0,0,0,0,0,-1,1413,995,0,0
196,29,0,0,0,0,0,0,0,0,0,-1,1420,995,0,0
203,29,0,0,0,0,0,0,0,0,0,-1,1427,995,0,0
210,29,0,0,0,0,0,0,0,0,0,-1,1434,995,0,0
217,29,0,0,0,0,0,0,0,0,0,-1,1441,995,0,0
224,29,0,0,0,0,0,0,0,0,0,-1,1448,995,0,0
231,29,0,0,0,0,0,0,0,0,0,-1,1455,995,0,0
238,29,0,0,0,0,0,0,0,0,0,-1,1462,995,0,0
245,29,0,0,0,0,0,0,0,0,0,-1,1469,995,0,0
252,29,0,0,0,0,0,0,0,0,0,-1,1476,995,0,0
259,29,0,0,0,0,0,0,0,0,0,-1,1483,995,0,0
266,29,0,0,0,0,0,0,0,0,0,-1,1490,995,0,0
273,29,0,0,0,0,0,0,0,0,0,-1,1497,995,0,0
280,29,0,0,0,0,0,0,0,0,0,-1,1504,995,0,0
287,29,0,0,0,0,0,0,0,0,0,-1,1511,995,0,0
294,29,0,0,0,0,0,0,0,0,0,-1,1518,995,0,0
301,29,0,0,0,0,0,0,0,0,0,-1,1525,995,0,0
308,29,0,0,0,0,0,0,0,0,0,-1,1532,995,0,0
315,29,0,0,0,0,0,0,0,0,0,-1,1539,995,0,0
322,29,0,0,0,0,0,0,0,0,0,-1,1546,995,0,0
329,29,0,0,0,0,0,0,0,0,0,-1,1553,995,0,0
336,29,0,0,0,0,0,0,0,0,0,-1,1560,995,0,0
343,29,0,0,0,0,0,0,0,0,0,-1,1567,995,0,0
350,29,0,0,0,0,0,0,0,0,0,-1,1574,995,0,0
357,29,0,0,0,0,0,0,0,0,0,-1,1581,995,0,0
364,29,0,0,0,0,0,0,0,0,0,-1,1588,995,0,0
371,29,0,0,0,0,0,0,0,0,0,-1,1595,995,0,0
378,29,0,0,0,0,0,0,0,0,0,-1,1602,995,0,0
385,29,0,0,0,0,0,0,0,0,0,-1,1609,995,0,0
392,29,0,0,0,0,0,0,0,0,0,-1,1616,995,0,0
399,29,0,0,0,0,0,0,0,0,0,-1,1623,995,0,0
406,29,0,0,0,0,0,0,0,0,0,-1,1630,995,0,0
413,29,0,0,0,0,0,0,0,0,0,-1,1637,995,0,0
420,29,0,0,0,0,0,0,0,0,0,-1,1644,995,0,0
427,29,0,0,0,0,0,0,0,0,0,-1,1651,995,0,0
434,29,0,0,0,0,0,0,0,0,0,-1,1658,995,0,0
441,29,0,0,0,0,0,0,0,0,0,-1,1665,995,0,0
448,29,0,0,0,0,0,0,0,0,0,-1,1672,995,0,0
455,29,0,0,0,0,0,0,0,0,0,-1,1679,995,0,0
462,29,0,0,0,0,0,0,0,0,0,-1,1686,995,0,0
469,29,0,0,0,0,0,0,0,0,0,-1,1693,995,0,0
476,29,0,0,0,0,0,0,0,0,0,-1,1700,995,0,0
483,29,0,0,0,0,0,0,0,0,0,-1,1707,995,0,0
490,29,0,0,0,0,0,0,0,0,0,-1,1714,995,0,0
497,29,0,0,0,0,0,0,0,0,0,-1,1721,995,0,0
504,29,0,0,0,0,0,0,0,0,0,-1,1728,995,0,0
511,29,0,0,0,0,0,0,0,0,0,-1,1735,995,0,0
518,29,0,0,0,0,0,0,0,0,0,-1,1742,995,0,0
525,29,0,0,0,0,0,0,0,0,0,-1,1749,995,0,0
532,29,0,0,0,0,0,0,0,0,0,-1,1756,995,0,0
539,29,0,0,0,0,0,0,0,0,0,-1,1763,995,0,0
546,29,0,0,0,0,0,0,0,0,0,-1,1770,995,0,0
553,29,0,0,0,0,0,0,0,0,0,-1,1777,995,0,0
560,29,0,0,0,0,0,0,0,0,0,-1,1784,995,0,0
567,29,0,0,0,0,0,0,0,0,0,-1,1791,995,0,0
574,29,0,0,0,0,0,0,0,0,0,-1,1798,995,0,0
581,29,0,0,0,0,0,0,0,0,0,-1,1805,995,0,0
588,29,0,0,0,0,0,0,0,0,0,-1,1812,995,0,0
595,29,0,0,0,0,0,0,0,0,0,-1,1819,995,0,0
602,29,0,0,0,0,0,0,0,0,0,-1,1826,995,0,0
609,29,0,0,0,0,0,0,0,0,0,-1,1833,995,0,0
616,29,0,0,0,0,0,0,0,0,0,-1,1840,995,0,0
623,29,0,0,0,0,0,0,0,0,0,-1,1847,995,0,0
630,29,0,0,0,0,0,0,0,0,0,-1,1854,995,0,0
637,29,0,0,0,0,0,0,0,0,0,-1,1861,995,0,0
644,29,18.6479,2.58374,0.000977988,-0.00284867,0.00297653,0.0026031,-0.00447378,0.499748,0.00413315,0.0433346,1868,995,18.648,-2.58376
651,29,18.6252,2.74042,0.00101105,-0.00202533,0.00197965,0.00198764,-0.00300192,0.458284,0.0029005,0.0421513,1875,995,18.6252,-2.74039
658,29,18.8306,2.85303,0.000819855,-0.00147206,0.0012889,0.00139857,-0.00205077,0.422019,0.00200331,0.0418279,1882,995,18.8306,-2.85303
665,29,18.9167,2.85309,0.000563795,-0.000972617,0.000956284,0.00102222,-0.00143104,0.447016,0.00142293,0.0402399,1889,995,18.9168,-2.85307
672,29,18.8562,2.72424,-2.53489e-05,-0.000459775,0.00109844,0.000877148,-0.00136227,0.687784,0.001303,0.0396979,1896,995,18.8562,-2.72425
679,29,18.797,2.60187,-0.00103351,-2.23762e-05,0.00160615,0.0011559,-0.00221178,0.937873,0.00197593,0.0394551,1903,995,18.797,-2.60189
686,29,18.7704,2.58386,-0.00199123,0.000307083,0.00218527,0.00162693,-0.00331107,1.02746,0.0029057,0.0384796,1910,995,18.7704,-2.58388
693,29,18.7635,2.6665,-0.00282693,0.000525188,0.00272886,0.00205161,-0.00435335,1.06079,0.00377666,0.0396787,1917,995,18.7635,-2.66648
700,29,18.7787,2.71252,-0.00353209,0.000812874,0.00310142,0.00242701,-0.00514623,1.09092,0.00446538,0.0354778,1924,995,18.7787,-2.71252
707,29,18.7999,2.6109,-0.00412298,0.000969683,0.00341162,0.00268046,-0.00583375,1.10599,0.0050268,0.0224071,1931,995,18.7999,-2.61092
714,29,18.8688,2.76514,-0.00459011,0.00109836,0.00359283,0.0028365,-0.00632824,1.12021,0.00541777,0.0221377,1938,995,18.8688,-2.76514
721,29,18.7217,3.22058,-0.00494102,0.00124025,0.00363779,0.00292304,-0.00662381,1.13753,0.00564823,0.0267087,1945,995,18.7217,-3.22057
728,29,18.4275,3.46619,-0.00504352,0.00139275,0.00358641,0.0029932,-0.00664397,1.15106,0.00569555,0.021561,1952,995,18.4275,-3.46619
735,29,18.2737,3.61182,-0.00490606,0.00138453,0.00328371,0.00278628,-0.00630781,1.16733,0.00538009,0.0147591,1959,995,18.2737,-3.6118
742,29,18.2917,3.66284,-0.00476623,0.00159923,0.00259613,0.00252377,-0.00569077,1.22868,0.00485874,0.0121483,1966,995,18.2917,-3.66282
749,29,18.2898,3.70703,-0.00501682,0.00142758,0.000688349,0.00150029,-0.00508952,1.46556,0.00398831,0.0122149,1973,995,18.2897,-3.70705
756,29,18.262,3.77423,-0.0061525,0.00231138,-0.0021153,0.00281059,-0.00665171,-1.33904,0.0056111,0.0113866,1980,995,18.262,-3.77422
763,29,18.2767,3.81152,-0.00783561,0.00245368,-0.00542832,0.00478794,-0.0101699,-1.16469,0.00882027,0.011094,1987,995,18.2767,-3.81154
770,29,18.2397,3.85236,-0.0103766,0.00303564,-0.00994842,0.00832715,-0.0156681,-1.08196,0.0140681,0.0117609,1994,995,18.2397,-3.85236
777,29,18.2477,3.94836,-0.0145736,0.00388266,-0.0158917,0.0130313,-0.0237223,-1.04845,0.0215168,0.0202262,2001,995,18.2476,-3.94834
784,29,18.319,4.27985,-0.0211243,0.00502591,-0.0236899,0.0190095,-0.0351078,-1.03756,0.0317021,0.0431326,2008,995,18.319,-4.27985
791,29,18.3883,4.57684,0,0,0,0,0,0,0,-1,2015,995,18.3883,-4.57687
798,29,17.0194,4.43256,0,0,0,0,0,0,0,-1,2022,995,17.0194,-4.43253
805,29,16.8313,4.53235,0,0,0,0,0,0,0,-1,2029,995,16.8313,-4.53234
812,29,16.4841,4.46185,0,0,0,0,0,0,0,-1,2036,995,16.4842,-4.46185
-700,22,0,0,0,0,0,0,0,0,0,-1,524,1002,0,0
-693,22,-9.18011,0.260071,0,0,0,0,0,0,0,-1,531,1002,-9.18013,-0.26009
-686,22,-10.5866,0.413513,-0.0455723,-0.0473063,0.0113778,-0.0350285,-0.0578501,0.747371,0.0336467,0.04221,538,1002,-10.5866,-0.413531
-679,22,-11.4725,0.712769,-0.0367646,-0.0330863,0.00884262,-0.0258936,-0.0439573,0.88793,0.0255126,0.0420125,545,1002,-11.4726,-0.712756
-672,22,-11.8448,0.832031,-0.0293436,-0.0224799,0.00686898,-0.0182332,-0.0335903,1.01707,0.0194171,0.0428537,552,1002,-11.8448,-0.832026
-665,22,-11.85,0.506287,0,0,0,0,0,0,0,-1,559,1002,-11.85,-0.506265
-658,22,-11.446,1.95251,0,0,0,0,0,0,0,-1,566,1002,-11.446,-1.95254
-651,22,-11.9873,1.34863,-0.0133862,-0.00468808,0.00296968,-0.00377089,-0.0143034,1.27124,0.0085601,0.0386322,573,1002,-11.9873,-1.34861
-644,22,-12.0824,1.40613,-0.00982379,-0.00200698,0.00197368,-0.00153691,-0.0102939,1.33698,0.00641196,0.0166502,580,1002,-12.0824,-1.40615
-637,22,-12.144,1.41736,-0.00694239,0.000414441,0.000907799,0.000524804,-0.00705276,1.44982,0.00488618,0.0117036,587,1002,-12.144,-1.41735
-630,22,-12.1536,1.41412,-0.00437847,0.00201144,-0.000319298,0.00202736,-0.00439438,-1.52099,0.00379062,0.0107097,594,1002,-12.1535,-1.41414
-623,22,-12.1464,1.40814,-0.00296988,0.00203241,-0.00127734,0.0023397,-0.00327718,-1.33471,0.00325793,0.0103539,601,1002,-12.1464,-1.40811
-616,22,-12.1586,1.35431,-0.00224318,0.00208373,-0.00189261,0.00279473,-0.00295418,-1.21144,0.00331956,0.0166128,608,1002,-12.1586,-1.35428
-609,22,-12.1909,1.31451,-0.00170422,0.00150795,-0.00244496,0.00282716,-0.00302342,-1.076,0.00337847,0.0255866,615,1002,-12.1909,-1.31454
-602,22,-12.2133,1.27118,-0.00168896,0.00110682,-0.00303081,0.00304658,-0.00362872,-1.00147,0.00385887,0.0243581,622,1002,-12.2132,-1.27117
-595,22,-12.2164,1.16943,-0.00165308,0.000961832,-0.00358817,0.00347333,-0.00416458,-0.960112,0.00441576,0.020418,629,1002,-12.2164,-1.16943
-588,22,-12.1957,0.931641,-0.00148708,0.000939267,-0.00392421,0.00383356,-0.00438137,-0.935314,0.0047464,0.0260596,636,1002,-12.1957,-0.931629
-581,22,-12.2079,0.68988,-0.00136491,0.000969446,-0.00408292,0.00404875,-0.00444421,-0.924619,0.00490518,0.0383072,643,1002,-12.208,-0.689878
-574,22,-12.2194,0.6073,-0.00131594,0.00107558,-0.00422522,0.00427098,-0.00451134,-0.923295,0.00507111,0.0350744,650,1002,-12.2194,-0.60727
-567,22,-12.2279,0.715637,-0.00115953,0.00122554,-0.00416244,0.00436291,-0.0042969,-0.924911,0.00499979,0.033781,657,1002,-12.2279,-0.715628
-560,22,-12.268,0.867737,-0.000855738,0.00138514,-0.0040589,0.00447541,-0.00394601,-0.920067,0.00486531,0.0397351,664,1002,-12.268,-0.867711
-553,22,-12.4082,1.06647,-0.000403558,0.00152406,-0.00400256,0.00467722,-0.00355672,-0.903548,0.00476852,0.0411175,671,1002,-12.4082,-1.06647
-546,22,-12.3748,0.828247,0.000188449,0.00159389,-0.00409549,0.00504651,-0.00326418,-0.870363,0.00483482,0.0408919,678,1002,-12.3747,-0.828223
-539,22,-12.4032,0.661255,0.000937946,0.00154594,-0.00466159,0.00591344,-0.00342955,-0.817959,0.00545735,0.0401184,685,1002,-12.4032,-0.661256
-532,22,-12.452,0.677429,0.00153008,0.00174483,-0.00619871,0.0078371,-0.00456218,-0.794058,0.00724148,0.0409399,692,1002,-12.452,-0.677436
-525,22,0,0,0,0,0,0,0,0,0,-1,699,1002,0,0
-518,22,0,0,0,0,0,0,0,0,0,-1,706,1002,0,0
-511,22,0,0,0,0,0,0,0,0,0,-1,713,1002,0,0
-504,22,0,0,0,0,0,0,0,0,0,-1,720,1002,0,0
-497,22,0,0,0,0,0,0,0,0,0,-1,727,1002,0,0
-490,22,0,0,0,0,0,0,0,0,0,-1,734,1002,0,0
-483,22,0,0,0,0,0,0,0,0,0,-1,741,1002,0,0
-476,22,0,0,0,0,0,0,0,0,0,-1,748,1002,0,0
-469,22,0,0,0,0,0,0,0,0,0,-1,755,1002,0,0
-462,22,0,0,0,0,0,0,0,0,0,-1,762,1002,0,0
-455,22,0,0,0,0,0,0,0,0,0,-1,769,1002,0,0
-448,22,0,0,0,0,0,0,0,0,0,-1,776,1002,0,0
-441,22,0,0,0,0,0,0,0,0,0,-1,783,1002,0,0
-434,22,0,0,0,0,0,0,0,0,0,-1,790,1002,0,0
-427,22,0,0,0,0,0,0,0,0,0,-1,797,1002,0,0
-420,22,0,0,0,0,0,0,0,0,0,-1,804,1002,0,0
-413,22,0,0,0,0,0,0,0,0,0,-1,811,1002,0,0
-406,22,0,0,0,0,0,0,0,0,0,-1,818,1002,0,0
-399,22,0,0,0,0,0,0,0,0,0,-1,825,1002,0,0
-392,22,0,0,0,0,0,0,0,0,0,-1,832,1002,0,0
-385,22,0,0,0,0,0,0,0,0,0,-1,839,1002,0,0
-378,22,0,0,0,0,0,0,0,0,0,-1,846,1002,0,0
-371,22,0,0,0,0,0,0,0,0,0,-1,853,1002,0,0
-364,22,0,0,0,0,0,0,0,0,0,-1,860,1002,0,0
-357,22,0,0,0,0,0,0,0,0,0,-1,867,1002,0,0
-350,22,0,0,0,0,0,0,0,0,0,-1,874,1002,0,0
-343,22,0,0,0,0,0,0,0,0,0,-1,881,1002,0,0
-336,22,0,0,0,0,0,0,0,0,0,-1,888,1002,0,0
-329,22,0,0,0,0,0,0,0,0,0,-1,895,1002,0,0
-322,22,0,0,0,0,0,0,0,0,0,-1,902,1002,0,0
-315,22,0,0,0,0,0,0,0,0,0,-1,909,1002,0,0
-308,22,0,0,0,0,0,0,0,0,0,-1,916,1002,0,0
-301,22,0,0,0,0,0,0,0,0,0,-1,923,1002,0,0
-294,22,0,0,0,0,0,0,0,0,0,-1,930,1002,0,0
-287,22,0,0,0,0,0,0,0,0,0,-1,937,1002,0,0
-280,22,0,0,0,0,0,0,0,0,0,-1,944,1002,0,0
-273,22,0,0,0,0,0,0,0,0,0,-1,951,1002,0,0
-266,22,0,0,0,0,0,0,0,0,0,-1,958,1002,0,0
-259,22,0,0,0,0,0,0,0,0,0,-1,965,1002,0,0
-252,22,0,0,0,0,0,0,0,0,0,-1,972,1002,0,0
-245,22,0,0,0,0,0,0,0,0,0,-1,979,1002,0,0
-238,22,0,0,0,0,0,0,0,0,0,-1,986,1002,0,0
-231,22,0,0,0,0,0,0,0,0,0,-1,993,1002,0,0
-224,22,0,0,0,0,0,0,0,0,0,-1,1000,1002,0,0
-217,22,0,0,0,0,0,0,0,0,0,-1,1007,1002,0,0
-210,22,0,0,0,0,0,0,0,0,0,-1,1014,1002,0,0
-203,22,0,0,0,0,0,0,0,0,0,-1,1021,1002,0,0
-196,22,0,0,0,0,0,0,0,0,0,-1,1028,1002,0,0
-189,22,0,0,0,0,0,0,0,0,0,-1,1035,1002,0,0
-182,22,0,0,0,0,0,0,0,0,0,-1,1042,1002,0,0
-175,22,0,0,0,0,0,0,0,0,0,-1,1049,1002,0,0
-168,22,0,0,0,0,0,0,0,0,0,-1,1056,1002,0,0
-161,22,0,0,0,0,0,0,0,0,0,-1,1063,1002,0,0
-154,22,0,0,0,0,0,0,0,0,0,-1,1070,1002,0,0
-147,22,0,0,0,0,0,0,0,0,0,-1,1077,1002,0,0
-140,22,0,0,0,0,0,0,0,0,0,-1,1084,1002,0,0
-133,22,0,0,0,0,0,0,0,0,0,-1,1091,1002,0,0
-126,22,0,0,0,0,0,0,0,0,0,-1,1098,1002,0,0
-119,22,0,0,0,0,0,0,0,0,0,-1,1105,1002,0,0
-112,22,0,0,0,0,0,0,0,0,0,-1,1112,1002,0,0
-105,22,0,0,0,0,0,0,0,0,0,-1,1119,1002,0,0
-98,22,0,0,0,0,0,0,0,0,0,-1,1126,1002,0,0
-91,22,0,0,0,0,0,0,0,0,0,-1,1133,1002,0,0
-84,22,0,0,0,0,0,0,0,0,0,-1,1140,1002,0,0
-77,22,0,0,0,0,0,0,0,0,0,-1,1147,1002,0,0
-70,22,0,0,0,0,0,0,0,0,0,-1,1154,1002,0,0
-63,22,0,0,0,0,0,0,0,0,0,-1,1161,1002,0,0
-56,22,0,0,0,0,0,0,0,0,0,-1,1168,1002,0,0
-49,22,0,0,0,0,0,0,0,0,0,-1,1175,1002,0,0
-42,22,0,0,0,0,0,0,0,0,0,-1,1182,1002,0,0
-35,22,0,0,0,0,0,0,0,0,0,-1,1189,1002,0,0
-28,22,0,0,0,0,0,0,0,0,0,-1,1196,1002,0,0
-21,22,0,0,0,0,0,0,0,0,0,-1,1203,1002,0,0
-14,22,0,0,0,0,0,0,0,0,0,-1,1210,1002,0,0
-7,22,0,0,0,0,0,0,0,0,0,-1,1217,1002,0,0
0,22,0,0,0,0,0,0,0,0,0,-1,1224,1002,0,0
7,22,0,0,0,0,0,0,0,0,0,-1,1231,1002,0,0
14,22,0,0,0,0,0,0,0,0,0,-1,1238,1002,0,0
21,22,0,0,0,0,0,0,0,0,0,-1,1245,1002,0,0
28,22,0,0,0,0,0,0,0,0,0,-1,1252,1002,0,0
35,22,0,0,0,0,0,0,0,0,0,-1,1259,1002,0,0
42,22,0,0,0,0,0,0,0,0,0,-1,1266,1002,0,0
49,22,0,0,0,0,0,0,0,0,0,-1,1273,1002,0,0
56,22,0,0,0,0,0,0,0,0,0,-1,1280,1002,0,0
63,22,0,0,0,0,0,0,0,0,0,-1,1287,1002,0,0
70,22,0,0,0,0,0,0,0,0,0,-1,1294,1002,0,0
77,22,0,0,0,0,0,0,0,0,0,-1,1301,1002,0,0
84,22,0,0,0,0,0,0,0,0,0,-1,1308,1002,0,0
91,22,0,0,0,0,0,0,0,0,0,-1,1315,1002,0,0
98,22,0,0,0,0,0,0,0,0,0,-1,1322,1002,0,0
105,22,0,0,0,0,0,0,0,0,0,-1,1329,1002,0,0
112,22,0,0,0,0,0,0,0,0,0,-1,1336,1002,0,0
119,22,0,0,0,0,0,0,0,0,0,-1,1343,1002,0,0
126,22,0,0,0,0,0,0,0,0,0,-1,1350,1002,0,0
133,22,0,0,0,0,0,0,0,0,0,-1,1357,1002,0,0
140,22,0,0,0,0,0,0,0,0,0,-1,1364,1002,0,0
147,22,0,0,0,0,0,0,0,0,0,-1,1371,1002,0,0
154,22,0,0,0,0,0,0,0,0,0,-1,1378,1002,0,0
161,22,0,0,0,0,0,0,0,0,0,-1,1385,1002,0,0
168,22,0,0,0,0,0,0,0,0,0,-1,1392,1002,0,0
175,22,0,0,0,0,0,0,0,0,0,-1,1399,1002,0,0
182,22,0,0,0,0,0,0,0,0,0,-1,1406,1002,0,0
189,22,0,0,0,0,0,0,0,0,0,-1,1413,1002,0,0
196,22,0,0,0,0,0,0,0,0,0,-1,1420,1002,0,0
203,22,0,0,0,0,0,0,0,0,0,-1,1427,1002,0,0
210,22,0,0,0,0,0,0,0,0,0,-1,1434,1002,0,0
217,22,0,0,0,0,0,0,0,0,0,-1,1441,1002,0,0
224,22,0,0,0,0,0,0,0,0,0,-1,1448,1002,0,0
231,22,0,0,0,0,0,0,0,0,0,-1,1455,1002,0,0
238,22,0,0,0,0,0,0,0,0,0,-1,1462,1002,0,0
245,22,0,0,0,0,0,0,0,0,0,-1,1469,1002,0,0
252,22,0,0,0,0,0,0,0,0,0,-1,1476,1002,0,0
259,22,0,0,0,0,0,0,0,0,0,-1,1483,1002,0,0
266,22,0,0,0,0,0,0,0,0,0,-1,1490,1002,0,0
273,22,0,0,0,0,0,0,0,0,0,-1,1497,1002,0,0
280,22,0,0,0,0,0,0,0,0,0,-1,1504,1002,0,0
287,22,0,0,0,0,0,0,0,0,0,-1,1511,1002,0,0
294,22,0,0,0,0,0,0,0,0,0,-1,1518,1002,0,0
301,22,0,0,0,0,0,0,0,0,0,-1,1525,1002,0,0
308,22,0,0,0,0,0,0,0,0,0,-1,1532,1002,0,0
315,22,0,0,0,0,0,0,0,0,0,-1,1539,1002,0,0
322,22,0,0,0,0,0,0,0,0,0,-1,1546,1002,0,0
329,22,0,0,0,0,0,0,0,0,0,-1,1553,1002,0,0
336,22,0,0,0,0,0,0,0,0,0,-1,1560,1002,0,0
343,22,0,0,0,0,0,0,0,0,0,-1,1567,1002,0,0
350,22,0,0,0,0,0,0,0,0,0,-1,1574,1002,0,0
357,22,0,0,0,0,0,0,0,0,0,-1,1581,1002,0,0
364,22,0,0,0,0,0,0,0,0,0,-1,1588,1002,0,0
371,22,0,0,0,0,0,0,0,0,0,-1,1595,1002,0,0
378,22,0,0,0,0,0,0,0,0,0,-1,1602,1002,0,0
385,22,0,0,0,0,0,0,0,0,0,-1,1609,1002,0,0
392,22,0,0,0,0,0,0,0,0,0,-1,1616,1002,0,0
399,22,0,0,0,0,0,0,0,0,0,-1,1623,1002,0,0
406,22,0,0,0,0,0,0,0,0,0,-1,1630,1002,0,0
413,22,0,0,0,0,0,0,0,0,0,-1,1637,1002,0,0
420,22,0,0,0,0,0,0,0,0,0,-1,1644,1002,0,0
427,22,0,0,0,0,0,0,0,0,0,-1,1651,1002,0,0
434,22,0,0,0,0,0,0,0,0,0,-1,1658,1002,0,0
441,22,0,0,0,0,0,0,0,0,0,-1,1665,1002,0,0
448,22,0,0,0,0,0,0,0,0,0,-1,1672,1002,0,0
455,22,0,0,0,0,0,0,0,0,0,-1,1679,1002,0,0
462,22,0,0,0,0,0,0,0,0,0,-1,1686,1002,0,0
469,22,0,0,0,0,0,0,0,0,0,-1,1693,1002,0,0
476,22,0,0,0,0,0,0,0,0,0,-1,1700,1002,0,0
483,22,0,0,0,0,0,0,0,0,0,-1,1707,1002,0,0
490,22,0,0,0,0,0,0,0,0,0,-1,1714,1002,0,0
497,22,0,0,0,0,0,0,0,0,0,-1,1721,1002,0,0
504,22,0,0,0,0,0,0,0,0,0,-1,1728,1002,0,0
511,22,0,0,0,0,0,0,0,0,0,-1,1735,1002,0,0
518,22,0,0,0,0,0,0,0,0,0,-1,1742,1002,0,0
525,22,0,0,0,0,0,0,0,0,0,-1,1749,1002,0,0
532,22,0,0,0,0,0,0,0,0,0,-1,1756,1002,0,0
539,22,0,0,0,0,0,0,0,0,0,-1,1763,1002,0,0
546,22,0,0,0,0,0,0,0,0,0,-1,1770,1002,0,0
553,22,0,0,0,0,0,0,0,0,0,-1,1777,1002,0,0
560,22,0,0,0,0,0,0,0,0,0,-1,1784,1002,0,0
567,22,0,0,0,0,0,0,0,0,0,-1,1791,1002,0,0
574,22,0,0,0,0,0,0,0,0,0,-1,1798,1002,0,0
581,22,0,0,0,0,0,0,0,0,0,-1,1805,1002,0,0
588,22,0,0,0,0,0,0,0,0,0,-1,1812,1002,0,0
595,22,0,0,0,0,0,0,0,0,0,-1,1819,1002,0,0
602,22,0,0,0,0,0,0,0,0,0,-1,1826,1002,0,0
609,22,0,0,0,0,0,0,0,0,0,-1,1833,1002,0,0
616,22,0,0,0,0,0,0,0,0,0,-1,1840,1002,0,0
623,22,0,0,0,0,0,0,0,0,0,-1,1847,1002,0,0
630,22,0,0,0,0,0,0,0,0,0,-1,1854,1002,0,0
637,22,0,0,0,0,0,0,0,0,0,-1,1861,1002,0,0
644,22,18.8529,2.61816,0.00163935,-0.00430243,0.00244019,0.00251303,-0.00517611,0.343817,0.00452721,0.0417343,1868,1002,18.8529,-2.61818
651,22,18.7159,2.62573,0.0014577,-0.0029033,0.00159553,0.00197911,-0.00342471,0.315851,0.00315689,0.0425877,1875,1002,18.7159,-2.62575
658,22,18.7811,2.74609,0.00112386,-0.0019756,0.000984905,0.00141035,-0.00226209,0.283069,0.00213921,0.0410244,1882,1002,18.7812,-2.74607
665,22,18.8274,2.84943,0.000802998,-0.00126622,0.000681389,0.00100722,-0.00147045,0.291197,0.00143879,0.0409669,1889,1002,18.8274,-2.84941
672,22,18.8834,2.65973,0.000216407,-0.000648165,0.000872919,0.000758215,-0.00118997,0.55549,0.00113396,0.0413594,1896,1002,18.8834,-2.6597
679,22,18.9283,2.5155,-0.000807909,-0.000160166,0.00147301,0.00102416,-0.00199223,0.893611,0.00177116,0.0404214,1903,1002,18.9284,-2.51552
686,22,18.9315,2.52521,-0.00180422,0.000179107,0.00215621,0.00156076,-0.00318587,1.00093,0.0027935,0.0384852,1910,1002,18.9315,-2.52523
693,22,18.8983,2.6532,-0.0026794,0.000409393,0.00280237,0.00206476,-0.00433476,1.03724,0.00377145,0.0358635,1917,1002,18.8983,-2.6532
700,22,18.8617,2.61749,-0.00341598,0.0006931,0.00327929,0.0025083,-0.00523118,1.06524,0.00455964,0.0313237,1924,1002,18.8616,-2.61747
707,22,18.7767,2.53973,-0.00401547,0.000819077,0.00368074,0.00280533,-0.00600173,1.07595,0.00519519,0.0279049,1931,1002,18.7768,-2.53971
714,22,18.855,2.65955,-0.00449916,0.000929589,0.00392537,0.00298767,-0.00655724,1.0879,0.00563775,0.0241642,1938,1002,18.855,-2.65952
721,22,18.8217,3.05505,-0.0048676,0.0010555,0.00401773,0.00308524,-0.00689733,1.103,0.00590186,0.0297582,1945,1002,18.8216,-3.05506
728,22,18.4218,3.41583,-0.00499433,0.00118608,0.00401436,0.00316188,-0.00697013,1.11342,0.00598587,0.0256152,1952,1002,18.4217,-3.41583
735,22,18.3724,3.6286,-0.00485661,0.00121513,0.00374536,0.00300049,-0.00664196,1.12597,0.00569787,0.0143174,1959,1002,18.3724,-3.62861
742,22,18.3811,3.67999,-0.00469572,0.00142199,0.00306276,0.00269177,-0.0059655,1.17778,0.00511602,0.014519,1966,1002,18.3811,-3.68
749,22,18.3491,3.71423,-0.00485456,0.00128546,0.00136958,0.0015771,-0.0051462,1.36099,0.00405992,0.0108725,1973,1002,18.3491,-3.71426
756,22,18.3259,3.73395,-0.00593031,0.00180025,-0.00111835,0.00195879,-0.00608885,-1.42998,0.00484597,0.0148353,1980,1002,18.3259,-3.73395
763,22,18.3065,3.79932,-0.00770952,0.00147034,-0.00414548,0.00306527,-0.00930445,-1.20352,0.00743832,0.0165037,1987,1002,18.3065,-3.79933
770,22,18.3132,3.83209,-0.0102037,0.00141059,-0.00819324,0.00564597,-0.014439,-1.09369,0.0119608,0.0107297,1994,1002,18.3132,-3.83207
777,22,18.2931,3.89148,-0.0143578,0.0012605,-0.0134891,0.00903784,-0.0221352,-1.04779,0.0185197,0.0187418,2001,1002,18.2931,-3.89145
784,22,18.4349,4.2027,0,0,0,0,0,0,0,-1,2008,1002,18.435,-4.20271
791,22,18.1592,4.13855,0,0,0,0,0,0,0,-1,2015,1002,18.1592,-4.13856
798,22,19.5625,3.02802,0,0,0,0,0,0,0,-1,2022,1002,19.5625,-3.02801
805,22,19.0874,3.12476,-0.0591399,-0.00191365,-0.059013,0.0350571,-0.0961107,-1.01113,0.0784166,0.0464365,2029,1002,19.0873,-3.12474
812,22,18.5825,3.21368,0,0,0,0,0,0,0,-1,2036,1002,18.5826,-3.2137
-700,15,0,0,0,0,0,0,0,0,0,-1,524,1009,0,0
-693,15,-9.53265,1.40259,-0.0519116,-0.0667087,0.00967795,-0.0471281,-0.0714922,0.459047,0.0419677,0.0486827,531,1009,-9.53265,-1.40256
-686,15,-10.111,1.22845,-0.0433095,-0.0477422,0.00682979,-0.0383455,-0.0527063,0.628502,0.0314627,0.043519,538,1009,-10.111,-1.22846
-679,15,-11.0922,1.20837,-0.0356843,-0.0336982,0.00487368,-0.0297174,-0.0396651,0.885899,0.0238299,0.0438291,545,1009,-11.0922,-1.20839
-672,15,-11.6597,1.12213,-0.0289108,-0.0231072,0.0034975,-0.0214644,-0.0305535,1.13169,0.018116,0.043613,552,1009,-11.6597,-1.12216
-665,15,-12.4252,1.36182,0,0,0,0,0,0,0,-1,559,1009,-12.4253,-1.36181
-658,15,-12.2357,1.11871,0,0,0,0,0,0,0,-1,566,1009,-12.2357,-1.11869
-651,15,-12.1724,1.26324,-0.0134638,-0.00511949,0.00123896,-0.00493942,-0.0136438,1.42646,0.00797661,0.0364282,573,1009,-12.1724,-1.26323
-644,15,-12.1393,1.40088,-0.00988089,-0.00237311,0.000650305,-0.00231719,-0.0099368,1.48503,0.00600311,0.0176362,580,1009,-12.1394,-1.40088
-637,15,-12.1411,1.41919,-0.00702347,0.000124176,-0.000121342,0.000126235,-0.00702552,-1.55383,0.00472632,0.0140752,587,1009,-12.1411,-1.41921
-630,15,-12.1655,1.38379,-0.00445829,0.00183037,-0.00108292,0.00201163,-0.00463955,-1.40496,0.0039387,0.0109535,594,1009,-12.1655,-1.38379
-623,15,-12.1772,1.36725,-0.00289716,0.00174788,-0.00180457,0.00236654,-0.00351583,-1.24052,0.00341772,0.0086534,601,1009,-12.1772,-1.36725
-616,15,-12.197,1.34778,-0.0019678,0.00177213,-0.00236291,0.00291548,-0.00311115,-1.12013,0.00348009,0.0130431,608,1009,-12.197,-1.34777
-609,15,-12.1906,1.3327,-0.0012667,0.00133556,-0.0028384,0.00315684,-0.00308799,-1.00031,0.00360553,0.0189584,615,1009,-12.1906,-1.3327
-602,15,-12.1948,1.29333,-0.00116817,0.00105231,-0.00339856,0.00351738,-0.00363324,-0.943274,0.00412859,0.0187512,622,1009,-12.1948,-1.29331
-595,15,-12.2035,1.04181,-0.00113059,0.000939754,-0.0039684,0.00400577,-0.00419661,-0.912982,0.00473607,0.0218265,629,1009,-12.2035,-1.04183
-588,15,-12.181,0.824707,-0.000931377,0.000925679,-0.0042991,0.00439538,-0.00440108,-0.891755,0.00507864,0.0280644,636,1009,-12.181,-0.824701
-581,15,-12.2255,0.614502,-0.000745796,0.000976121,-0.00443223,0.00463024,-0.00439992,-0.881328,0.00521413,0.0355929,643,1009,-12.2255,-0.614518
-574,15,-12.2442,0.615601,-0.000654787,0.00111423,-0.00449585,0.00481176,-0.00435232,-0.882527,0.0052931,0.0329125,650,1009,-12.2442,-0.615592
-567,15,-12.2604,0.795776,-0.000492463,0.00129709,-0.00434082,0.0048344,-0.00402977,-0.88704,0.00512475,0.0340207,657,1009,-12.2604,-0.79575
-560,15,-12.0839,0.897644,-0.000203417,0.00148829,-0.00410375,0.00483245,-0.00354757,-0.887034,0.00485713,0.0384321,664,1009,-12.084,-0.89767
-553,15,-12.2379,0.881592,0.000218176,0.00164481,-0.00386772,0.00486445,-0.00300146,-0.876588,0.00458364,0.038878,671,1009,-12.2379,-0.881589
-546,15,-12.367,0.825867,0.000776628,0.00170914,-0.00373424,0.00500612,-0.00252035,-0.847506,0.0044237,0.0393529,678,1009,-12.367,-0.825875
-539,15,-12.2997,0.744202,0.00152304,0.00161129,-0.00406351,0.00563091,-0.00249658,-0.790827,0.00480731,0.0408343,685,1009,-12.2997,-0.744181
-532,15,-12.2187,0.42627,0.00219709,0.0017547,-0.00541808,0.00739849,-0.00344669,-0.764997,0.00639853,0.0417914,692,1009,-12.2187,-0.426295
-525,15,0,0,0,0,0,0,0,0,0,-1,699,1009,0,0
-518,15,0,0,0,0,0,0,0,0,0,-1,706,1009,0,0
-511,15,0,0,0,0,0,0,0,0,0,-1,713,1009,0,0
-504,15,0,0,0,0,0,0,0,0,0,-1,720,1009,0,0
-497,15,0,0,0,0,0,0,0,0,0,-1,727,1009,0,0
-490,15,0,0,0,0,0,0,0,0,0,-1,734,1009,0,0
-483,15,0,0,0,0,0,0,0,0,0,-1,741,1009,0,0
-476,15,0,0,0,0,0,0,0,0,0,-1,748,1009,0,0
-469,15,0,0,0,0,0,0,0,0,0,-1,755,1009,0,0
-462,15,0,0,0,0,0,0,0,0,0,-1,762,1009,0,0
-455,15,0,0,0,0,0,0,0,0,0,-1,769,1009,0,0
-448,15,0,0,0,0,0,0,0,0,0,-1,776,1009,0,0
-441,15,0,0,0,0,0,0,0,0,0,-1,783,1009,0,0
-434,15,0,0,0,0,0,0,0,0,0,-1,790,1009,0,0
-427,15,0,0,0,0,0,0,0,0,0,-1,797,1009,0,0
-420,15,0,0,0,0,0,0,0,0,0,-1,804,1009,0,0
-413,15,0,0,0,0,0,0,0,0,0,-1,811,1009,0,0
-406,15,0,0,0,0,0,0,0,0,0,-1,818,1009,0,0
-399,15,0,0,0,0,0,0,0,0,0,-1,825,1009,0,0
-392,15,0,0,0,0,0,0,0,0,0,-1,832,1009,0,0
-385,15,0,0,0,0,0,0,0,0,0,-1,839,1009,0,0
-378,15,0,0,0,0,0,0,0,0,0,-1,846,1009,0,0
-371,15,0,0,0,0,0,0,0,0,0,-1,853,1009,0,0
-364,15,0,0,0,0,0,0,0,0,0,-1,860,1009,0,0
-357,15,0,0,0,0,0,0,0,0,0,-1,867,1009,0,0
-350,15,0,0,0,0,0,0,0,0,0,-1,874,1009,0,0
-343,15,0,0,0,0,0,0,0,0,0,-1,881,1009,0,0
-336,15,0,0,0,0,0,0,0,0,0,-1,888,1009,0,0
-329,15,0,0,0,0,0,0,0,0,0,-1,895,1009,0,0
-322,15,0,0,0,0,0,0,0,0,0,-1,902,1009,0,0
-315,15,0,0,0,0,0,0,0,0,0,-1,909,1009,0,0
-308,15,0,0,0,0,0,0,0,0,0,-1,916,1009,0,0
-301,15,0,0,0,0,0,0,0,0,0,-1,923,1009,0,0
-294,15,0,0,0,0,0,0,0,0,0,-1,930,1009,0,0
-287,15,0,0,0,0,0,0,0,0,0,-1,937,1009,0,0
-280,15,0,0,0,0,0,0,0,0,0,-1,944,1009,0,0
-273,15,0,0,0,0,0,0,0,0,0,-1,951,1009,0,0
-266,15,0,0,0,0,0,0,0,0,0,-1,958,1009,0,0
-259,15,0,0,0,0,0,0,0,0,0,-1,965,1009,0,0
-252,15,0,0,0,0,0,0,0,0,0,-1,972,1009,0,0
-245,15,0,0,0,0,0,0,0,0,0,-1,979,1009,0,0
-238,15,0,0,0,0,0,0,0,0,0,-1,986,1009,0,0
-231,15,0,0,0,0,0,0,0,0,0,-1,993,1009,0,0
-224,15,0,0,0,0,0,0,0,0,0,-1,1000,1009,0,0
-217,15,0,0,0,0,0,0,0,0,0,-1,1007,1009,0,0
-210,15,0,0,0,0,0,0,0,0,0,-1,1014,1009,0,0
-203,15,0,0,0,0,0,0,0,0,0,-1,1021,1009,0,0
-196,15,0,0,0,0,0,0,0,0,0,-1,1028,1009,0,0
-189,15,0,0,0,0,0,0,0,0,0,-1,1035,1009,0,0
-182,15,0,0,0,0,0,0,0,0,0,-1,1042,1009,0,0
-175,15,0,0,0,0,0,0,0,0,0,-1,1049,1009,0,0
-168,15,0,0,0,0,0,0,0,0,0,-1,1056,1009,0,0
-161,15,0,0,0,0,0,0,0,0,0,-1,1063,1009,0,0
-154,15,0,0,0,0,0,0,0,0,0,-1,1070,1009,0,0
-147,15,0,0,0,0,0,0,0,0,0,-1,1077,1009,0,0
-140,15,0,0,0,0,0,0,0,0,0,-1,1084,1009,0,0
-133,15,0,0,0,0,0,0,0,0,0,-1,1091,1009,0,0
-126,15,0,0,0,0,0,0,0,0,0,-1,1098,1009,0,0
-119,15,0,0,0,0,0,0,0,0,0,-1,1105,1009,0,0
-112,15,0,0,0,0,0,0,0,0,0,-1,1112,1009,0,0
-105,15,0,0,0,0,0,0,0,0,0,-1,1119,1009,0,0
-98,15,0,0,0,0,0,0,0,0,0,-1,1126,1009,0,0
-91,15,0,0,0,0,0,0,0,0,0,-1,1133,1009,0,0
-84,15,0,0,0,0,0,0,0,0,0,-1,1140,1009,0,0
-77,15,0,0,0,0,0,0,0,0,0,-1,1147,1009,0,0
-70,15,0,0,0,0,0,0,0,0,0,-1,1154,1009,0,0
-63,15,0,0,0,0,0,0,0,0,0,-1,1161,1009,0,0
-56,15,0,0,0,0,0,0,0,0,0,-1,1168,1009,0,0
-49,15,0,0,0,0,0,0,0,0,0,-1,1175,1009,0,0
-42,15,0,0,0,0,0,0,0,0,0,-1,1182,1009,0,0
-35,15,0,0,0,0,0,0,0,0,0,-1,1189,1009,0,0
-28,15,0,0,0,0,0,0,0,0,0,-1,1196,1009,0,0
-21,15,0,0,0,0,0,0,0,0,0,-1,1203,1009,0,0
-14,15,0,0,0,0,0,0,0,0,0,-1,1210,1009,0,0
-7,15,0,0,0,0,0,0,0,0,0,-1,1217,1009,0,0
0,15,0,0,0,0,0,0,0,0,0,-1,1224,1009,0,0
7,15,0,0,0,0,0,0,0,0,0,-1,1231,1009,0,0
14,15,0,0,0,0,0,0,0,0,0,-1,1238,1009,0,0
21,15,0,0,0,0,0,0,0,0,0,-1,1245,1009,0,0
28,15,0,0,0,0,0,0,0,0,0,-1,1252,1009,0,0
35,15,0,0,0,0,0,0,0,0,0,-1,1259,1009,0,0
42,15,0,0,0,0,0,0,0,0,0,-1,1266,1009,0,0
49,15,0,0,0,0,0,0,0,0,0,-1,1273,1009,0,0
56,15,0,0,0,0,0,0,0,0,0,-1,1280,1009,0,0
63,15,0,0,0,0,0,0,0,0,0,-1,1287,1009,0,0
70,15,0,0,0,0,0,0,0,0,0,-1,1294,1009,0,0
77,15,0,0,0,0,0,0,0,0,0,-1,1301,1009,0,0
84,15,0,0,0,0,0,0,0,0,0,-1,1308,1009,0,0
91,15,0,0,0,0,0,0,0,0,0,-1,1315,1009,0,0
98,15,0,0,0,0,0,0,0,0,0,-1,1322,1009,0,0
105,15,0,0,0,0,0,0,0,0,0,-1,1329,1009,0,0
112,15,0,0,0,0,0,0,0,0,0,-1,1336,1009,0,0
119,15,0,0,0,0,0,0,0,0,0,-1,1343,1009,0,0
126,15,0,0,0,0,0,0,0,0,0,-1,1350,1009,0,0
133,15,0,0,0,0,0,0,0,0,0,-1,1357,1009,0,0
140,15,0,0,0,0,0,0,0,0,0,-1,1364,1009,0,0
147,15,0,0,0,0,0,0,0,0,0,-1,1371,1009,0,0
154,15,0,0,0,0,0,0,0,0,0,-1,1378,1009,0,0
161,15,0,0,0,0,0,0,0,0,0,-1,1385,1009,0,0
168,15,0,0,0,0,0,0,0,0,0,-1,1392,1009,0,0
175,15,0,0,0,0,0,0,0,0,0,-1,1399,1009,0,0
182,15,0,0,0,0,0,0,0,0,0,-1,1406,1009,0,0
189,15,0,0,0,0,0,0,0,0,0,-1,1413,1009,0,0
196,15,0,0,0,0,0,0,0,0,0,-1,1420,1009,0,0
203,15,0,0,0,0,0,0,0,0,0,-1,1427,1009,0,0
210,15,0,0,0,0,0,0,0,0,0,-1,1434,1009,0,0
217,15,0,0,0,0,0,0,0,0,0,-1,1441,1009,0,0
224,15,0,0,0,0,0,0,0,0,0,-1,1448,1009,0,0
231,15,0,0,0,0,0,0,0,0,0,-1,1455,1009,0,0
238,15,0,0,0,0,0,0,0,0,0,-1,1462,1009,0,0
245,15,0,0,0,0,0,0,0,0,0,-1,1469,1009,0,0
252,15,0,0,0,0,0,0,0,0,0,-1,1476,1009,0,0
259,15,0,0,0,0,0,0,0,0,0,-1,1483,1009,0,0
266,15,0,0,0,0,0,0,0,0,0,-1,1490,1009,0,0
273,15,0,0,0,0,0,0,0,0,0,-1,1497,1009,0,0
280,15,0,0,0,0,0,0,0,0,0,-1,1504,1009,0,0
287,15,0,0,0,0,0,0,0,0,0,-1,1511,1009,0,0
294,15,0,0,0,0,0,0,0,0,0,-1,1518,1009,0,0
301,15,0,0,0,0,0,0,0,0,0,-1,1525,1009,0,0
308,15,0,0,0,0,0,0,0,0,0,-1,1532,1009,0,0
315,15,0,0,0,0,0,0,0,0,0,-1,1539,1009,0,0
322,15,0,0,0,0,0,0,0,0,0,-1,1546,1009,0,0
329,15,0,0,0,0,0,0,0,0,0,-1,1553,1009,0,0
336,15,0,0,0,0,0,0,0,0,0,-1,1560,1009,0,0
343,15,0,0,0,0,0,0,0,0,0,-1,1567,1009,0,0
350,15,0,0,0,0,0,0,0,0,0,-1,1574,1009,0,0
357,15,0,0,0,0,0,0,0,0,0,-1,1581,1009,0,0
364,15,0,0,0,0,0,0,0,0,0,-1,1588,1009,0,0
371,15,0,0,0,0,0,0,0,0,0,-1,1595,1009,0,0
378,15,0,0,0,0,0,0,0,0,0,-1,1602,1009,0,0
385,15,0,0,0,0,0,0,0,0,0,-1,1609,1009,0,0
392,15,0,0,0,0,0,0,0,0,0,-1,1616,1009,0,0
399,15,0,0,0,0,0,0,0,0,0,-1,1623,1009,0,0
406,15,0,0,0,0,0,0,0,0,0,-1,1630,1009,0,0
413,15,0,0,0,0,0,0,0,0,0,-1,1637,1009,0,0
420,15,0,0,0,0,0,0,0,0,0,-1,1644,1009,0,0
427,15,0,0,0,0,0,0,0,0,0,-1,1651,1009,0,0
434,15,0,0,0,0,0,0,0,0,0,-1,1658,1009,0,0
441,15,0,0,0,0,0,0,0,0,0,-1,1665,1009,0,0
448,15,0,0,0,0,0,0,0,0,0,-1,1672,1009,0,0
455,15,0,0,0,0,0,0,0,0,0,-1,1679,1009,0,0
462,15,0,0,0,0,0,0,0,0,0,-1,1686,1009,0,0
469,15,0,0,0,0,0,0,0,0,0,-1,1693,1009,0,0
476,15,0,0,0,0,0,0,0,0,0,-1,1700,1009,0,0
483,15,0,0,0,0,0,0,0,0,0,-1,1707,1009,0,0
490,15,0,0,0,0,0,0,0,0,0,-1,1714,1009,0,0
497,15,0,0,0,0,0,0,0,0,0,-1,1721,1009,0,0
504,15,0,0,0,0,0,0,0,0,0,-1,1728,1009,0,0
511,15,0,0,0,0,0,0,0,0,0,-1,1735,1009,0,0
518,15,0,0,0,0,0,0,0,0,0,-1,1742,1009,0,0
525,15,0,0,0,0,0,0,0,0,0,-1,1749,1009,0,0
532,15,0,0,0,0,0,0,0,0,0,-1,1756,1009,0,0
539,15,0,0,0,0,0,0,0,0,0,-1,1763,1009,0,0
546,15,0,0,0,0,0,0,0,0,0,-1,1770,1009,0,0
553,15,0,0,0,0,0,0,0,0,0,-1,1777,1009,0,0
560,15,0,0,0,0,0,0,0,0,0,-1,1784,1009,0,0
567,15,0,0,0,0,0,0,0,0,0,-1,1791,1009,0,0
574,15,0,0,0,0,0,0,0,0,0,-1,1798,1009,0,0
581,15,0,0,0,0,0,0,0,0,0,-1,1805,1009,0,0
588,15,0,0,0,0,0,0,0,0,0,-1,1812,1009,0,0
595,15,0,0,0,0,0,0,0,0,0,-1,1819,1009,0,0
602,15,0,0,0,0,0,0,0,0,0,-1,1826,1009,0,0
609,15,0,0,0,0,0,0,0,0,0,-1,1833,1009,0,0
616,15,0,0,0,0,0,0,0,0,0,-1,1840,1009,0,0
623,15,0,0,0,0,0,0,0,0,0,-1,1847,1009,0,0
630,15,0,0,0,0,0,0,0,0,0,-1,1854,1009,0,0
637,15,0,0,0,0,0,0,0,0,0,-1,1861,1009,0,0
644,15,18.8258,2.67267,0.0015566,-0.00450893,0.00163945,0.00197137,-0.0049237,0.247791,0.0041007,0.041684,1868,1009,18.8258,-2.6727
651,15,18.9404,2.55157,0.00137322,-0.00283363,0.00100268,0.00159998,-0.00306039,0.222412,0.00273435,0.0397592,1875,1009,18.9404,-2.55159
658,15,18.7842,2.25317,0.00105727,-0.00173533,0.000537813,0.00115727,-0.00183532,0.183829,0.00174249,0.0378798,1882,1009,18.7842,-2.25317
665,15,18.7246,2.37097,0.00076537,-0.0009687,0.000311972,0.000819788,-0.00102312,0.172696,0.00106616,0.0382658,1889,1009,18.7246,-2.37095
672,15,18.8394,2.63037,0.000260064,-0.000368789,0.00058686,0.000611422,-0.000720147,0.539469,0.000769636,0.0395239,1896,1009,18.8394,-2.6304
679,15,18.9468,2.58746,-0.000710278,6.77773e-05,0.00130792,0.0010433,-0.0016858,0.929951,0.00159013,0.0389049,1903,1009,18.9468,-2.58747
686,15,18.9922,2.59906,-0.0016979,0.000339049,0.00211477,0.00166782,-0.00302667,1.00981,0.00274795,0.041925,1910,1009,18.9922,-2.59908
693,15,18.9263,2.60791,-0.00257241,0.000504164,0.00287867,0.00222978,-0.00429802,1.03078,0.00383136,0.0374969,1917,1009,18.9263,-2.60792
700,15,18.891,2.60565,-0.00331345,0.000717069,0.00346714,0.00271209,-0.00530847,1.04866,0.00471085,0.0292567,1924,1009,18.891,-2.60563
707,15,18.811,2.58594,-0.00389103,0.000769827,0.00395111,0.00302657,-0.00614777,1.05185,0.00539802,0.0250446,1931,1009,18.811,-2.58595
714,15,18.8466,2.6217,-0.0043698,0.000824413,0.00425905,0.00321574,-0.00676113,1.05919,0.00588013,0.0246784,1938,1009,18.8465,-2.62173
721,15,18.988,2.62939,0,0,0,0,0,0,0,-1,1945,1009,18.988,-2.62938
728,15,18.3326,3.46832,-0.00490277,0.000990536,0.0044359,0.00336929,-0.00728153,1.07857,0.00628601,0.0299759,1952,1009,18.3327,-3.46834
735,15,18.3918,3.62714,-0.00475515,0.00105231,0.00417402,0.00323327,-0.00693611,1.0893,0.00599963,0.0150766,1959,1009,18.3918,-3.62713
742,15,18.3966,3.68018,-0.00453409,0.00126181,0.00350393,0.0029109,-0.00618319,1.13091,0.00536258,0.0166816,1966,1009,18.3965,-3.6802
749,15,18.3776,3.70624,-0.00457243,0.00121258,0.00204975,0.00186521,-0.00522507,1.26255,0.00424402,0.0105222,1973,1009,18.3776,-3.70625
756,15,18.375,3.7334,-0.00547885,0.0015521,-5.51655e-05,0.00155253,-0.00547928,-1.56295,0.00426561,0.0116451,1980,1009,18.375,-3.7334
763,15,18.363,3.77344,-0.00718046,0.00100776,-0.00269548,0.00181542,-0.00798811,-1.27967,0.00602246,0.0109751,1987,1009,18.363,-3.77341
770,15,18.354,3.80011,-0.00940718,0.000668502,-0.00609208,0.00353593,-0.0122746,-1.13088,0.00958172,0.0100037,1994,1009,18.354,-3.8001
777,15,18.3245,3.84369,-0.0131647,1.91906e-05,-0.0104337,0.00576885,-0.0189144,-1.06713,0.0149093,0.0193895,2001,1009,18.3245,-3.84368
784,15,18.147,3.90253,-0.0192426,-0.00104348,-0.0159472,0.00821762,-0.0285037,-1.04466,0.0222533,0.0397913,2008,1009,18.147,-3.90251
791,15,17.9496,3.85529,-0.0279699,-0.00279764,-0.0234067,0.0111923,-0.0419598,-1.03208,0.0323558,0.045754,2015,1009,17.9496,-3.85526
798,15,19.599,2.89252,0,0,0,0,0,0,0,-1,2022,1009,19.5989,-2.89254
805,15,18.9375,3.09869,0,0,0,0,0,0,0,-1,2029,1009,18.9375,-3.09867
812,15,18.2759,3.30481,0,0,0,0,0,0,0,-1,2036,1009,18.276,-3.3048
-700,8,0,0,0,0,0,0,0,0,0,-1,524,1016,0,0
-693,8,-9.85474,2.62201,-0.0425626,-0.0620608,0.0036627,-0.0418972,-0.0627261,0.17969,0.0368896,0.045709,531,1016,-9.85472,-2.62201
-686,8,-10.3885,2.25909,-0.0371914,-0.0445283,0.00197126,-0.0366953,-0.0450244,0.246542,0.0276611,0.0454351,538,1016,-10.3885,-2.25909
-679,8,-11.1234,1.88391,-0.0316102,-0.0313041,0.00095169,-0.0304932,-0.0324211,0.865135,0.0210009,0.0437367,545,1016,-11.1234,-1.88391
-672,8,-11.7647,1.61707,-0.0261576,-0.0212538,0.00037044,-0.0212259,-0.0261854,1.49582,0.0160611,0.0423239,552,1016,-11.7647,-1.61705
-665,8,-12.148,1.34741,-0.0210533,-0.0136914,6.14441e-05,-0.0136908,-0.0210538,1.56245,0.0123371,0.044307,559,1016,-12.148,-1.34743
-658,8,-12.2198,1.29083,-0.0164855,-0.00816128,-7.2091e-05,-0.00816066,-0.0164861,-1.56214,0.00951841,0.0353415,566,1016,-12.2198,-1.29081
-651,8,-12.1193,1.33203,-0.0125395,-0.00431267,-0.000142346,-0.0043102,-0.012542,-1.5535,0.00735816,0.0199097,573,1016,-12.1193,-1.33206
-644,8,-12.0828,1.34558,-0.00925732,-0.00182519,-0.000357048,-0.00180808,-0.00927443,-1.5229,0.00567706,0.0185744,580,1016,-12.0828,-1.34561
-637,8,-12.1231,1.37231,-0.0066444,0.000456388,-0.000892084,0.000566746,-0.00675476,-1.44771,0.00470348,0.01612,587,1016,-12.1231,-1.37229
-630,8,-12.188,1.36237,-0.00430911,0.00201953,-0.00164291,0.00242061,-0.00471019,-1.33135,0.00418711,0.0125555,594,1016,-12.188,-1.36238
-623,8,-12.1895,1.36285,-0.00272883,0.00165647,-0.00215962,0.00254143,-0.00361379,-1.18189,0.00357165,0.0120482,601,1016,-12.1895,-1.36288
-616,8,-12.2038,1.34802,-0.00166295,0.0015606,-0.00274404,0.00313121,-0.00323356,-1.05094,0.00367486,0.0121254,608,1016,-12.2038,-1.34804
-609,8,-12.1799,1.34473,-0.000871446,0.00117944,-0.00320305,0.00351718,-0.00320919,-0.940316,0.00388483,0.0148175,615,1016,-12.18,-1.34473
-602,8,-12.1842,1.30389,-0.000729778,0.000940342,-0.00374984,0.00394698,-0.00373642,-0.894956,0.00443657,0.0194527,622,1016,-12.1842,-1.30391
-595,8,-12.1163,1.03198,-0.000699144,0.000832721,-0.00432872,0.00446275,-0.00432917,-0.872963,0.00507621,0.0243619,629,1016,-12.1163,-1.03196
-588,8,-12.1665,0.688904,0,0,0,0,0,0,0,-1,636,1016,-12.1665,-0.688887
-581,8,-12.1989,0.6922,-0.000234104,0.000871747,-0.00478022,0.00513092,-0.00449327,-0.842977,0.00556059,0.0279778,643,1016,-12.1989,-0.692176
-574,8,-12.2728,0.631836,-0.00010129,0.00102987,-0.00477889,0.00527653,-0.00434795,-0.844299,0.00556531,0.0350053,650,1016,-12.2728,-0.631834
-567,8,-12.3082,0.74054,7.2677e-05,0.00122591,-0.00454923,0.00523492,-0.00393633,-0.848437,0.00531269,0.0404434,657,1016,-12.3082,-0.740548
-560,8,-12.1265,0.935852,0.000358486,0.00142708,-0.00419877,0.00512541,-0.00333984,-0.848684,0.00492352,0.0406023,664,1016,-12.1265,-0.935847
-553,8,-12.0947,0.835022,0.000765856,0.00158219,-0.00380605,0.00500189,-0.00265385,-0.838815,0.00448881,0.0378121,671,1016,-12.0946,-0.835004
-546,8,-12.2753,0.801941,0.00130779,0.00162555,-0.00347261,0.00494291,-0.00200957,-0.808258,0.00413139,0.0378061,678,1016,-12.2753,-0.801925
-539,8,-12.1152,0.780762,0.00206258,0.00146435,-0.00358804,0.00536396,-0.00183702,-0.743812,0.00432051,0.0412389,685,1016,-12.1153,-0.780788
-532,8,-11.9859,0.485596,0.00283927,0.00152386,-0.00481977,0.007046,-0.00268287,-0.717587,0.0058022,0.0427716,692,1016,-11.9859,-0.485616
-525,8,0,0,0,0,0,0,0,0,0,-1,699,1016,0,0
-518,8,0,0,0,0,0,0,0,0,0,-1,706,1016,0,0
-511,8,0,0,0,0,0,0,0,0,0,-1,713,1016,0,0
-504,8,0,0,0,0,0,0,0,0,0,-1,720,1016,0,0
-497,8,0,0,0,0,0,0,0,0,0,-1,727,1016,0,0
-490,8,0,0,0,0,0,0,0,0,0,-1,734,1016,0,0
-483,8,0,0,0,0,0,0,0,0,0,-1,741,1016,0,0
-476,8,0,0,0,0,0,0,0,0,0,-1,748,1016,0,0
-469,8,0,0,0,0,0,0,0,0,0,-1,755,1016,0,0
-462,8,0,0,0,0,0,0,0,0,0,-1,762,1016,0,0
-455,8,0,0,0,0,0,0,0,0,0,-1,769,1016,0,0
-448,8,0,0,0,0,0,0,0,0,0,-1,776,1016,0,0
-441,8,0,0,0,0,0,0,0,0,0,-1,783,1016,0,0
-434,8,0,0,0,0,0,0,0,0,0,-1,790,1016,0,0
-427,8,0,0,0,0,0,0,0,0,0,-1,797,1016,0,0
-420,8,0,0,0,0,0,0,0,0,0,-1,804,1016,0,0
-413,8,0,0,0,0,0,0,0,0,0,-1,811,1016,0,0
-406,8,0,0,0,0,0,0,0,0,0,-1,818,1016,0,0
-399,8,0,0,0,0,0,0,0,0,0,-1,825,1016,0,0
-392,8,0,0,0,0,0,0,0,0,0,-1,832,1016,0,0
-385,8,0,0,0,0,0,0,0,0,0,-1,839,1016,0,0
-378,8,0,0,0,0,0,0,0,0,0,-1,846,1016,0,0
-371,8,0,0,0,0,0,0,0,0,0,-1,853,1016,0,0
-364,8,0,0,0,0,0,0,0,0,0,-1,860,1016,0,0
-357,8,0,0,0,0,0,0,0,0,0,-1,867,1016,0,0
-350,8,0,0,0,0,0,0,0,0,0,-1,874,1016,0,0
-343,8,0,0,0,0,0,0,0,0,0,-1,881,1016,0,0
-336,8,0,0,0,0,0,0,0,0,0,-1,888,1016,0,0
-329,8,0,0,0,0,0,0,0,0,0,-1,895,1016,0,0
-322,8,0,0,0,0,0,0,0,0,0,-1,902,1016,0,0
-315,8,0,0,0,0,0,0,0,0,0,-1,909,1016,0,0
-308,8,0,0,0,0,0,0,0,0,0,-1,916,1016,0,0
-301,8,0,0,0,0,0,0,0,0,0,-1,923,1016,0,0
-294,8,0,0,0,0,0,0,0,0,0,-1,930,1016,0,0
-287,8,0,0,0,0,0,0,0,0,0,-1,937,1016,0,0
-280,8,0,0,0,0,0,0,0,0,0,-1,944,1016,0,0
-273,8,0,0,0,0,0,0,0,0,0,-1,951,1016,0,0
-266,8,0,0,0,0,0,0,0,0,0,-1,958,1016,0,0
-259,8,0,0,0,0,0,0,0,0,0,-1,965,1016,0,0
-252,8,0,0,0,0,0,0,0,0,0,-1,972,1016,0,0
-245,8,0,0,0,0,0,0,0,0,0,-1,979,1016,0,0
-238,8,0,0,0,0,0,0,0,0,0,-1,986,1016,0,0
-231,8,0,0,0,0,0,0,0,0,0,-1,993,1016,0,0
-224,8,0,0,0,0,0,0,0,0,0,-1,1000,1016,0,0
-217,8,0,0,0,0,0,0,0,0,0,-1,1007,1016,0,0
-210,8,0,0,0,0,0,0,0,0,0,-1,1014,1016,0,0
-203,8,0,0,0,0,0,0,0,0,0,-1,1021,1016,0,0
-196,8,0,0,0,0,0,0,0,0,0,-1,1028,1016,0,0
-189,8,0,0,0,0,0,0,0,0,0,-1,1035,1016,0,0
-182,8,0,0,0,0,0,0,0,0,0,-1,1042,1016,0,0
-175,8,0,0,0,0,0,0,0,0,0,-1,1049,1016,0,0
-168,8,0,0,0,0,0,0,0,0,0,-1,1056,1016,0,0
-161,8,0,0,0,0,0,0,0,0,0,-1,1063,1016,0,0
-154,8,0,0,0,0,0,0,0,0,0,-1,1070,1016,0,0
-147,8,0,0,0,0,0,0,0,0,0,-1,1077,1016,0,0
-140,8,0,0,0,0,0,0,0,0,0,-1,1084,1016,0,0
-133,8,0,0,0,0,0,0,0,0,0,-1,1091,1016,0,0
-126,8,0,0,0,0,0,0,0,0,0,-1,1098,1016,0,0
-119,8,0,0,0,0,0,0,0,0,0,-1,1105,1016,0,0
-112,8,0,0,0,0,0,0,0,0,0,-1,1112,1016,0,0
-105,8,0,0,0,0,0,0,0,0,0,-1,1119,1016,0,0
-98,8,0,0,0,0,0,0,0,0,0,-1,1126,1016,0,0
-91,8,0,0,0,0,0,0,0,0,0,-1,1133,1016,0,0
-84,8,0,0,0,0,0,0,0,0,0,-1,1140,1016,0,0
-77,8,0,0,0,0,0,0,0,0,0,-1,1147,1016,0,0
-70,8,0,0,0,0,0,0,0,0,0,-1,1154,1016,0,0
-63,8,0,0,0,0,0,0,0,0,0,-1,1161,1016,0,0
-56,8,0,0,0,0,0,0,0,0,0,-1,1168,1016,0,0
-49,8,0,0,0,0,0,0,0,0,0,-1,1175,1016,0,0
-42,8,0,0,0,0,0,0,0,0,0,-1,1182,1016,0,0
-35,8,0,0,0,0,0,0,0,0,0,-1,1189,1016,0,0
-28,8,0,0,0,0,0,0,0,0,0,-1,1196,1016,0,0
-21,8,0,0,0,0,0,0,0,0,0,-1,1203,1016,0,0
-14,8,0,0,0,0,0,0,0,0,0,-1,1210,1016,0,0
-7,8,0,0,0,0,0,0,0,0,0,-1,1217,1016,0,0
0,8,0,0,0,0,0,0,0,0,0,-1,1224,1016,0,0
7,8,0,0,0,0,0,0,0,0,0,-1,1231,1016,0,0
14,8,0,0,0,0,0,0,0,0,0,-1,1238,1016,0,0
21,8,0,0,0,0,0,0,0,0,0,-1,1245,1016,0,0
28,8,0,0,0,0,0,0,0,0,0,-1,1252,1016,0,0
35,8,0,0,0,0,0,0,0,0,0,-1,1259,1016,0,0
42,8,0,0,0,0,0,0,0,0,0,-1,1266,1016,0,0
49,8,0,0,0,0,0,0,0,0,0,-1,1273,1016,0,0
56,8,0,0,0,0,0,0,0,0,0,-1,1280,1016,0,0
63,8,0,0,0,0,0,0,0,0,0,-1,1287,1016,0,0
70,8,0,0,0,0,0,0,0,0,0,-1,1294,1016,0,0
77,8,0,0,0,0,0,0,0,0,0,-1,1301,1016,0,0
84,8,0,0,0,0,0,0,0,0,0,-1,1308,1016,0,0
91,8,0,0,0,0,0,0,0,0,0,-1,1315,1016,0,0
98,8,0,0,0,0,0,0,0,0,0,-1,1322,1016,0,0
105,8,0,0,0,0,0,0,0,0,0,-1,1329,1016,0,0
112,8,0,0,0,0,0,0,0,0,0,-1,1336,1016,0,0
119,8,0,0,0,0,0,0,0,0,0,-1,1343,1016,0,0
126,8,0,0,0,0,0,0,0,0,0,-1,1350,1016,0,0
133,8,0,0,0,0,0,0,0,0,0,-1,1357,1016,0,0
140,8,0,0,0,0,0,0,0,0,0,-1,1364,1016,0,0
147,8,0,0,0,0,0,0,0,0,0,-1,1371,1016,0,0
154,8,0,0,0,0,0,0,0,0,0,-1,1378,1016,0,0
161,8,0,0,0,0,0,0,0,0,0,-1,1385,1016,0,0
168,8,0,0,0,0,0,0,0,0,0,-1,1392,1016,0,0
175,8,0,0,0,0,0,0,0,0,0,-1,1399,1016,0,0
182,8,0,0,0,0,0,0,0,0,0,-1,1406,1016,0,0
189,8,0,0,0,0,0,0,0,0,0,-1,1413,1016,0,0
196,8,0,0,0,0,0,0,0,0,0,-1,1420,1016,0,0
203,8,0,0,0,0,0,0,0,0,0,-1,1427,1016,0,0
210,8,0,0,0,0,0,0,0,0,0,-1,1434,1016,0,0
217,8,0,0,0,0,0,0,0,0,0,-1,1441,1016,0,0
224,8,0,0,0,0,0,0,0,0,0,-1,1448,1016,0,0
231,8,0,0,0,0,0,0,0,0,0,-1,1455,1016,0,0
238,8,0,0,0,0,0,0,0,0,0,-1,1462,1016,0,0
245,8,0,0,0,0,0,0,0,0,0,-1,1469,1016,0,0
252,8,0,0,0,0,0,0,0,0,0,-1,1476,1016,0,0
259,8,0,0,0,0,0,0,0,0,0,-1,1483,1016,0,0
266,8,0,0,0,0,0,0,0,0,0,-1,1490,1016,0,0
273,8,0,0,0,0,0,0,0,0,0,-1,1497,1016,0,0
280,8,0,0,0,0,0,0,0,0,0,-1,1504,1016,0,0
287,8,0,0,0,0,0,0,0,0,0,-1,1511,1016,0,0
294,8,0,0,0,0,0,0,0,0,0,-1,1518,1016,0,0
301,8,0,0,0,0,0,0,0,0,0,-1,1525,1016,0,0
308,8,0,0,0,0,0,0,0,0,0,-1,1532,1016,0,0
315,8,0,0,0,0,0,0,0,0,0,-1,1539,1016,0,0
322,8,0,0,0,0,0,0,0,0,0,-1,1546,1016,0,0
329,8,0,0,0,0,0,0,0,0,0,-1,1553,1016,0,0
336,8,0,0,0,0,0,0,0,0,0,-1,1560,1016,0,0
343,8,0,0,0,0,0,0,0,0,0,-1,1567,1016,0,0
350,8,0,0,0,0,0,0,0,0,0,-1,1574,1016,0,0
357,8,0,0,0,0,0,0,0,0,0,-1,1581,1016,0,0
364,8,0,0,0,0,0,0,0,0,0,-1,1588,1016,0,0
371,8,0,0,0,0,0,0,0,0,0,-1,1595,1016,0,0
378,8,0,0,0,0,0,0,0,0,0,-1,1602,1016,0,0
385,8,0,0,0,0,0,0,0,0,0,-1,1609,1016,0,0
392,8,0,0,0,0,0,0,0,0,0,-1,1616,1016,0,0
399,8,0,0,0,0,0,0,0,0,0,-1,1623,1016,0,0
406,8,0,0,0,0,0,0,0,0,0,-1,1630,1016,0,0
413,8,0,0,0,0,0,0,0,0,0,-1,1637,1016,0,0
420,8,0,0,0,0,0,0,0,0,0,-1,1644,1016,0,0
427,8,0,0,0,0,0,0,0,0,0,-1,1651,1016,0,0
434,8,0,0,0,0,0,0,0,0,0,-1,1658,1016,0,0
441,8,0,0,0,0,0,0,0,0,0,-1,1665,1016,0,0
448,8,0,0,0,0,0,0,0,0,0,-1,1672,1016,0,0
455,8,0,0,0,0,0,0,0,0,0,-1,1679,1016,0,0
462,8,0,0,0,0,0,0,0,0,0,-1,1686,1016,0,0
469,8,0,0,0,0,0,0,0,0,0,-1,1693,1016,0,0
476,8,0,0,0,0,0,0,0,0,0,-1,1700,1016,0,0
483,8,0,0,0,0,0,0,0,0,0,-1,1707,1016,0,0
490,8,0,0,0,0,0,0,0,0,0,-1,1714,1016,0,0
497,8,0,0,0,0,0,0,0,0,0,-1,1721,1016,0,0
504,8,0,0,0,0,0,0,0,0,0,-1,1728,1016,0,0
511,8,0,0,0,0,0,0,0,0,0,-1,1735,1016,0,0
518,8,0,0,0,0,0,0,0,0,0,-1,1742,1016,0,0
525,8,0,0,0,0,0,0,0,0,0,-1,1749,1016,0,0
532,8,0,0,0,0,0,0,0,0,0,-1,1756,1016,0,0
539,8,0,0,0,0,0,0,0,0,0,-1,1763,1016,0,0
546,8,0,0,0,0,0,0,0,0,0,-1,1770,1016,0,0
553,8,0,0,0,0,0,0,0,0,0,-1,1777,1016,0,0
560,8,0,0,0,0,0,0,0,0,0,-1,1784,1016,0,0
567,8,0,0,0,0,0,0,0,0,0,-1,1791,1016,0,0
574,8,0,0,0,0,0,0,0,0,0,-1,1798,1016,0,0
581,8,0,0,0,0,0,0,0,0,0,-1,1805,1016,0,0
588,8,0,0,0,0,0,0,0,0,0,-1,1812,1016,0,0
595,8,0,0,0,0,0,0,0,0,0,-1,1819,1016,0,0
602,8,0,0,0,0,0,0,0,0,0,-1,1826,1016,0,0
609,8,0,0,0,0,0,0,0,0,0,-1,1833,1016,0,0
616,8,0,0,0,0,0,0,0,0,0,-1,1840,1016,0,0
623,8,0,0,0,0,0,0,0,0,0,-1,1847,1016,0,0
630,8,0,0,0,0,0,0,0,0,0,-1,1854,1016,0,0
637,8,0,0,0,0,0,0,0,0,0,-1,1861,1016,0,0
644,8,18.6864,2.89069,0.000785732,-0.00394799,0.00102866,0.000999601,-0.00416186,0.20499,0.00316091,0.0459048,1868,1016,18.6864,-2.8907
651,8,18.8788,2.60907,0.000826967,-0.00233383,0.000541944,0.000917305,-0.00242417,0.165175,0.00199352,0.0417864,1875,1016,18.8787,-2.60908
658,8,18.8601,2.36316,0.000680118,-0.00126203,0.000204112,0.000701337,-0.00128325,0.103588,0.0011621,0.0392168,1882,1016,18.8602,-2.36317
665,8,18.8076,2.52216,0.000511776,-0.000545672,5.37584e-05,0.000514502,-0.000548398,0.0506637,0.00061377,0.0391144,1889,1016,18.8076,-2.52214
672,8,18.9016,2.58014,0.000149939,-2.19518e-05,0.000393772,0.000467035,-0.000339048,0.677952,0.000467344,0.0393285,1896,1016,18.9016,-2.58014
679,8,19.0028,2.59796,-0.000712242,0.000327631,0.00120856,0.00112335,-0.00150796,0.988537,0.00152458,0.0380785,1903,1016,19.0028,-2.59797
686,8,18.8788,2.67236,-0.00165243,0.000516584,0.0021116,0.00180589,-0.00294174,1.02263,0.00276707,0.0404881,1910,1016,18.8788,-2.67238
693,8,18.814,2.58807,-0.00248809,0.00059901,0.00296319,0.00239657,-0.00428566,1.02552,0.00390904,0.0375616,1917,1016,18.814,-2.58806
700,8,18.823,2.56549,-0.00320752,0.000736428,0.00363821,0.00290272,-0.00537381,1.03375,0.00484893,0.0295099,1924,1016,18.823,-2.56549
707,8,18.8446,2.56122,-0.00374749,0.0007212,0.00417447,0.00322167,-0.00624796,1.03112,0.00555958,0.0218517,1931,1016,18.8446,-2.56125
714,8,18.8497,2.56976,-0.00421864,0.000713896,0.00453192,0.00340716,-0.00691191,1.03459,0.00607118,0.0210453,1938,1016,18.8497,-2.56979
721,8,18.9803,2.5957,0,0,0,0,0,0,0,-1,1945,1016,18.9803,-2.59568
728,8,18.3778,3.61102,0,0,0,0,0,0,0,-1,1952,1016,18.3778,-3.61105
735,8,18.3679,3.62823,-0.00463686,0.00088631,0.00446996,0.00337895,-0.0071295,1.0621,0.00619452,0.0176804,1959,1016,18.3679,-3.62822
742,8,18.3721,3.65051,-0.00443047,0.00110026,0.0038202,0.00305096,-0.00638116,1.09868,0.00555763,0.0170244,1966,1016,18.372,-3.6505
749,8,18.382,3.68866,-0.00443024,0.00110181,0.00263231,0.00215416,-0.00548258,1.19048,0.00454652,0.011421,1973,1016,18.382,-3.68868
756,8,18.4222,3.73517,-0.00525204,0.0011347,0.000904292,0.00126027,-0.00537761,1.43282,0.00407072,0.0116698,1980,1016,18.4222,-3.73518
763,8,18.4139,3.74951,-0.00696954,0.000304733,-0.00134285,0.000544712,-0.00720951,-1.39396,0.00499782,0.0118392,1987,1016,18.4139,-3.74949
770,8,18.4019,3.76923,-0.00908071,-0.000422866,-0.00409217,0.00120518,-0.0107087,-1.19215,0.00757292,0.0128445,1994,1016,18.4019,-3.7692
777,8,18.3738,3.82849,-0.0126251,-0.00173354,-0.00750256,0.00209133,-0.0164499,-1.09933,0.0117261,0.0174728,2001,1016,18.3738,-3.8285
784,8,18.2897,3.89258,-0.0183974,-0.0037897,-0.0116978,0.00269719,-0.0248843,-1.06447,0.0175578,0.0363909,2008,1016,18.2897,-3.89257
791,8,18.0385,4.0509,-0.0267923,-0.00698181,-0.0173764,0.0031143,-0.0368884,-1.04445,0.0256934,0.0445488,2015,1016,18.0384,-4.0509
798,8,18.6997,3.70728,0,0,0,0,0,0,0,-1,2022,1016,18.6997,-3.70728
805,8,18.7051,3.09583,0,0,0,0,0,0,0,-1,2029,1016,18.7051,-3.09585
812,8,18.0627,3.30341,0,0,0,0,0,0,0,-1,2036,1016,18.0627,-3.30341
-700,1,0,0,0,0,0,0,0,0,0,-1,524,1023,0,0
-693,1,-10.2026,3.65723,0,0,0,0,0,0,0,-1,531,1023,-10.2026,-3.65722
-686,1,-11.738,2.33673,0,0,0,0,0,0,0,-1,538,1023,-11.738,-2.33671
-679,1,-11.765,1.99927,-0.0284041,-0.0277913,-0.000533982,-0.0274821,-0.0287133,-1.04584,0.0187453,0.0468848,545,1023,-11.7649,-1.99928
-672,1,-11.7955,1.65387,-0.024247,-0.0184335,-0.000779639,-0.0183308,-0.0243497,-1.43977,0.0146451,0.0444273,552,1023,-11.7955,-1.65389
-665,1,-11.9396,1.26044,-0.0199329,-0.0114559,-0.00081086,-0.011379,-0.0200097,-1.47628,0.0115889,0.0420969,559,1023,-11.9396,-1.26042
-658,1,-12.1241,1.27136,-0.0158287,-0.00643756,-0.000717883,-0.006383,-0.0158832,-1.49494,0.00922886,0.0306169,566,1023,-12.1241,-1.27139
-651,1,-12.1542,1.35919,-0.0121466,-0.00303747,-0.000614888,-0.00299615,-0.0121879,-1.5037,0.00733349,0.0154448,573,1023,-12.1542,-1.3592
-644,1,-12.0853,1.40204,-0.00906619,-0.00092942,-0.000713125,-0.000867394,-0.00912822,-1.48404,0.00581794,0.0187035,580,1023,-12.0852,-1.40207
-637,1,-12.1468,1.35284,-0.00662873,0.00100962,-0.00121245,0.00119745,-0.00681657,-1.4171,0.00499164,0.0158028,587,1023,-12.1468,-1.35283
-630,1,-12.2136,1.3338,-0.00441542,0.00230975,-0.00192136,0.00281996,-0.00492564,-1.31124,0.00452667,0.0152115,594,1023,-12.2136,-1.33382
-623,1,-12.2047,1.3653,-0.00262889,0.00163939,-0.00237917,0.00270134,-0.00369084,-1.15098,0.00370524,0.0124782,601,1023,-12.2047,-1.36528
-616,1,-12.2094,1.35529,-0.00140094,0.00134624,-0.00306037,0.00332715,-0.00338184,-0.996339,0.00387348,0.0148576,608,1023,-12.2094,-1.35529
-609,1,-12.1999,1.36768,-0.000563114,0.000924695,-0.00354164,0.00379971,-0.00343813,-0.888916,0.00418051,0.015554,615,1023,-12.1999,-1.36766
-602,1,-12.1844,1.3454,-0.000388279,0.000630244,-0.00409807,0.00425057,-0.00400861,-0.847216,0.00476912,0.0121786,622,1023,-12.1844,-1.34539
-595,1,-12.1653,1.29779,-0.00035081,0.000467831,-0.00469314,0.00476946,-0.00465244,-0.828897,0.00543988,0.01489,629,1023,-12.1653,-1.29781
-588,1,-12.1779,1.02917,-0.00010728,0.000418639,-0.0050119,0.00517447,-0.00486311,-0.811608,0.00579613,0.0216131,636,1023,-12.1779,-1.0292
-581,1,-12.2157,0.788574,0.000151124,0.000399385,-0.00507884,0.00535562,-0.00480511,-0.797616,0.00586917,0.0255476,643,1023,-12.2157,-0.788545
-574,1,-12.1879,0.669373,0.000296072,0.000509744,-0.00498771,0.00539176,-0.00458595,-0.796106,0.00576689,0.0354161,650,1023,-12.1879,-0.669382
-567,1,-12.163,0.66687,0.000457299,0.000656249,-0.00463484,0.00519268,-0.00407913,-0.796128,0.00536594,0.043478,657,1023,-12.163,-0.666897
-560,1,-12.0579,0.883118,0.000695774,0.00080804,-0.004097,0.00484929,-0.00334548,-0.792248,0.00475773,0.0424017,664,1023,-12.0579,-0.883091
-553,1,-12.0074,0.828918,0.0010148,0.000910816,-0.00344107,0.00440426,-0.00247865,-0.777844,0.00402536,0.0387563,671,1023,-12.0074,-0.828897
-546,1,-12.0962,0.663757,0.00141439,0.000894228,-0.00275872,0.00392527,-0.00161665,-0.738399,0.00329087,0.0383326,678,1023,-12.0962,-0.663732
-539,1,-12.1545,0.625916,0.00196774,0.000644103,-0.00246673,0.00385989,-0.00124805,-0.654336,0.0030749,0.0407738,685,1023,-12.1545,-0.625917
-532,1,-12.1379,0.592957,0.00252885,0.000572204,-0.00333903,0.00502992,-0.00192887,-0.642889,0.00414851,0.0424924,692,1023,-12.138,-0.592957
-525,1,0,0,0,0,0,0,0,0,0,-1,699,1023,0,0
-518,1,0,0,0,0,0,0,0,0,0,-1,706,1023,0,0
-511,1,0,0,0,0,0,0,0,0,0,-1,713,1023,0,0
-504,1,0,0,0,0,0,0,0,0,0,-1,720,1023,0,0
-497,1,0,0,0,0,0,0,0,0,0,-1,727,1023,0,0
-490,1,0,0,0,0,0,0,0,0,0,-1,734,1023,0,0
-483,1,0,0,0,0,0,0,0,0,0,-1,741,1023,0,0
-476,1,0,0,0,0,0,0,0,0,0,-1,748,1023,0,0
-469,1,0,0,0,0,0,0,0,0,0,-1,755,1023,0,0
-462,1,0,0,0,0,0,0,0,0,0,-1,762,1023,0,0
-455,1,0,0,0,0,0,0,0,0,0,-1,769,1023,0,0
-448,1,0,0,0,0,0,0,0,0,0,-1,776,1023,0,0
-441,1,0,0,0,0,0,0,0,0,0,-1,783,1023,0,0
-434,1,0,0,0,0,0,0,0,0,0,-1,790,1023,0,0
-427,1,0,0,0,0,0,0,0,0,0,-1,797,1023,0,0
-420,1,0,0,0,0,0,0,0,0,0,-1,804,1023,0,0
-413,1,0,0,0,0,0,0,0,0,0,-1,811,1023,0,0
-406,1,0,0,0,0,0,0,0,0,0,-1,818,1023,0,0
-399,1,0,0,0,0,0,0,0,0,0,-1,825,1023,0,0
-392,1,0,0,0,0,0,0,0,0,0,-1,832,1023,0,0
-385,1,0,0,0,0,0,0,0,0,0,-1,839,1023,0,0
-378,1,0,0,0,0,0,0,0,0,0,-1,846,1023,0,0
-371,1,0,0,0,0,0,0,0,0,0,-1,853,1023,0,0
-364,1,0,0,0,0,0,0,0,0,0,-1,860,1023,0,0
-357,1,0,0,0,0,0,0,0,0,0,-1,867,1023,0,0
-350,1,0,0,0,0,0,0,0,0,0,-1,874,1023,0,0
-343,1,0,0,0,0,0,0,0,0,0,-1,881,1023,0,0
-336,1,0,0,0,0,0,0,0,0,0,-1,888,1023,0,0
-329,1,0,0,0,0,0,0,0,0,0,-1,895,1023,0,0
-322,1,0,0,0,0,0,0,0,0,0,-1,902,1023,0,0
-315,1,0,0,0,0,0,0,0,0,0,-1,909,1023,0,0
-308,1,0,0,0,0,0,0,0,0,0,-1,916,1023,0,0
-301,1,0,0,0,0,0,0,0,0,0,-1,923,1023,0,0
-294,1,0,0,0,0,0,0,0,0,0,-1,930,1023,0,0
-287,1,0,0,0,0,0,0,0,0,0,-1,937,1023,0,0
-280,1,0,0,0,0,0,0,0,0,0,-1,944,1023,0,0
-273,1,0,0,0,0,0,0,0,0,0,-1,951,1023,0,0
-266,1,0,0,0,0,0,0,0,0,0,-1,958,1023,0,0
-259,1,0,0,0,0,0,0,0,0,0,-1,965,1023,0,0
-252,1,0,0,0,0,0,0,0,0,0,-1,972,1023,0,0
-245,1,0,0,0,0,0,0,0,0,0,-1,979,1023,0,0
-238,1,0,0,0,0,0,0,0,0,0,-1,986,1023,0,0
-231,1,0,0,0,0,0,0,0,0,0,-1,993,1023,0,0
-224,1,0,0,0,0,0,0,0,0,0,-1,1000,1023,0,0
-217,1,0,0,0,0,0,0,0,0,0,-1,1007,1023,0,0
-210,1,0,0,0,0,0,0,0,0,0,-1,1014,1023,0,0
-203,1,0,0,0,0,0,0,0,0,0,-1,1021,1023,0,0
-196,1,0,0,0,0,0,0,0,0,0,-1,1028,1023,0,0
-189,1,0,0,0,0,0,0,0,0,0,-1,1035,1023,0,0
-182,1,0,0,0,0,0,0,0,0,0,-1,1042,1023,0,0
-175,1,0,0,0,0,0,0,0,0,0,-1,1049,1023,0,0
-168,1,0,0,0,0,0,0,0,0,0,-1,1056,1023,0,0
-161,1,0,0,0,0,0,0,0,0,0,-1,1063,1023,0,0
-154,1,0,0,0,0,0,0,0,0,0,-1,1070,1023,0,0
-147,1,0,0,0,0,0,0,0,0,0,-1,1077,1023,0,0
-140,1,0,0,0,0,0,0,0,0,0,-1,1084,1023,0,0
-133,1,0,0,0,0,0,0,0,0,0,-1,1091,1023,0,0
-126,1,0,0,0,0,0,0,0,0,0,-1,1098,1023,0,0
-119,1,0,0,0,0,0,0,0,0,0,-1,1105,1023,0,0
-112,1,0,0,0,0,0,0,0,0,0,-1,1112,1023,0,0
-105,1,0,0,0,0,0,0,0,0,0,-1,1119,1023,0,0
-98,1,0,0,0,0,0,0,0,0,0,-1,1126,1023,0,0
-91,1,0,0,0,0,0,0,0,0,0,-1,1133,1023,0,0
-84,1,0,0,0,0,0,0,0,0,0,-1,1140,1023,0,0
-77,1,0,0,0,0,0,0,0,0,0,-1,1147,1023,0,0
-70,1,0,0,0,0,0,0,0,0,0,-1,1154,1023,0,0
-63,1,0,0,0,0,0,0,0,0,0,-1,1161,1023,0,0
-56,1,0,0,0,0,0,0,0,0,0,-1,1168,1023,0,0
-49,1,0,0,0,0,0,0,0,0,0,-1,1175,1023,0,0
-42,1,0,0,0,0,0,0,0,0,0,-1,1182,1023,0,0
-35,1,0,0,0,0,0,0,0,0,0,-1,1189,1023,0,0
-28,1,0,0,0,0,0,0,0,0,0,-1,1196,1023,0,0
-21,1,0,0,0,0,0,0,0,0,0,-1,1203,1023,0,0
-14,1,0,0,0,0,0,0,0,0,0,-1,1210,1023,0,0
-7,1,0,0,0,0,0,0,0,0,0,-1,1217,1023,0,0
0,1,0,0,0,0,0,0,0,0,0,-1,1224,1023,0,0
7,1,0,0,0,0,0,0,0,0,0,-1,1231,1023,0,0
14,1,0,0,0,0,0,0,0,0,0,-1,1238,1023,0,0
21,1,0,0,0,0,0,0,0,0,0,-1,1245,1023,0,0
28,1,0,0,0,0,0,0,0,0,0,-1,1252,1023,0,0
35,1,0,0,0,0,0,0,0,0,0,-1,1259,1023,0,0
42,1,0,0,0,0,0,0,0,0,0,-1,1266,1023,0,0
49,1,0,0,0,0,0,0,0,0,0,-1,1273,1023,0,0
56,1,0,0,0,0,0,0,0,0,0,-1,1280,1023,0,0
63,1,0,0,0,0,0,0,0,0,0,-1,1287,1023,0,0
70,1,0,0,0,0,0,0,0,0,0,-1,1294,1023,0,0
77,1,0,0,0,0,0,0,0,0,0,-1,1301,1023,0,0
84,1,0,0,0,0,0,0,0,0,0,-1,1308,1023,0,0
91,1,0,0,0,0,0,0,0,0,0,-1,1315,1023,0,0
98,1,0,0,0,0,0,0,0,0,0,-1,1322,1023,0,0
105,1,0,0,0,0,0,0,0,0,0,-1,1329,1023,0,0
112,1,0,0,0,0,0,0,0,0,0,-1,1336,1023,0,0
119,1,0,0,0,0,0,0,0,0,0,-1,1343,1023,0,0
126,1,0,0,0,0,0,0,0,0,0,-1,1350,1023,0,0
133,1,0,0,0,0,0,0,0,0,0,-1,1357,1023,0,0
140,1,0,0,0,0,0,0,0,0,0,-1,1364,1023,0,0
147,1,0,0,0,0,0,0,0,0,0,-1,1371,1023,0,0
154,1,0,0,0,0,0,0,0,0,0,-1,1378,1023,0,0
161,1,0,0,0,0,0,0,0,0,0,-1,1385,1023,0,0
168,1,0,0,0,0,0,0,0,0,0,-1,1392,1023,0,0
175,1,0,0,0,0,0,0,0,0,0,-1,1399,1023,0,0
182,1,0,0,0,0,0,0,0,0,0,-1,1406,1023,0,0
189,1,0,0,0,0,0,0,0,0,0,-1,1413,1023,0,0
196,1,0,0,0,0,0,0,0,0,0,-1,1420,1023,0,0
203,1,0,0,0,0,0,0,0,0,0,-1,1427,1023,0,0
210,1,0,0,0,0,0,0,0,0,0,-1,1434,1023,0,0
217,1,0,0,0,0,0,0,0,0,0,-1,1441,1023,0,0
224,1,0,0,0,0,0,0,0,0,0,-1,1448,1023,0,0
231,1,0,0,0,0,0,0,0,0,0,-1,1455,1023,0,0
238,1,0,0,0,0,0,0,0,0,0,-1,1462,1023,0,0
245,1,0,0,0,0,0,0,0,0,0,-1,1469,1023,0,0
252,1,0,0,0,0,0,0,0,0,0,-1,1476,1023,0,0
259,1,0,0,0,0,0,0,0,0,0,-1,1483,1023,0,0
266,1,0,0,0,0,0,0,0,0,0,-1,1490,1023,0,0
273,1,0,0,0,0,0,0,0,0,0,-1,1497,1023,0,0
280,1,0,0,0,0,0,0,0,0,0,-1,1504,1023,0,0
287,1,0,0,0,0,0,0,0,0,0,-1,1511,1023,0,0
294,1,0,0,0,0,0,0,0,0,0,-1,1518,1023,0,0
301,1,0,0,0,0,0,0,0,0,0,-1,1525,1023,0,0
308,1,0,0,0,0,0,0,0,0,0,-1,1532,1023,0,0
315,1,0,0,0,0,0,0,0,0,0,-1,1539,1023,0,0
322,1,0,0,0,0,0,0,0,0,0,-1,1546,1023,0,0
329,1,0,0,0,0,0,0,0,0,0,-1,1553,1023,0,0
336,1,0,0,0,0,0,0,0,0,0,-1,1560,1023,0,0
343,1,0,0,0,0,0,0,0,0,0,-1,1567,1023,0,0
350,1,0,0,0,0,0,0,0,0,0,-1,1574,1023,0,0
357,1,0,0,0,0,0,0,0,0,0,-1,1581,1023,0,0
364,1,0,0,0,0,0,0,0,0,0,-1,1588,1023,0,0
371,1,0,0,0,0,0,0,0,0,0,-1,1595,1023,0,0
378,1,0,0,0,0,0,0,0,0,0,-1,1602,1023,0,0
385,1,0,0,0,0,0,0,0,0,0,-1,1609,1023,0,0
392,1,0,0,0,0,0,0,0,0,0,-1,1616,1023,0,0
399,1,0,0,0,0,0,0,0,0,0,-1,1623,1023,0,0
406,1,0,0,0,0,0,0,0,0,0,-1,1630,1023,0,0
413,1,0,0,0,0,0,0,0,0,0,-1,1637,1023,0,0
420,1,0,0,0,0,0,0,0,0,0,-1,1644,1023,0,0
427,1,0,0,0,0,0,0,0,0,0,-1,1651,1023,0,0
434,1,0,0,0,0,0,0,0,0,0,-1,1658,1023,0,0
441,1,0,0,0,0,0,0,0,0,0,-1,1665,1023,0,0
448,1,0,0,0,0,0,0,0,0,0,-1,1672,1023,0,0
455,1,0,0,0,0,0,0,0,0,0,-1,1679,1023,0,0
462,1,0,0,0,0,0,0,0,0,0,-1,1686,1023,0,0
469,1,0,0,0,0,0,0,0,0,0,-1,1693,1023,0,0
476,1,0,0,0,0,0,0,0,0,0,-1,1700,1023,0,0
483,1,0,0,0,0,0,0,0,0,0,-1,1707,1023,0,0
490,1,0,0,0,0,0,0,0,0,0,-1,1714,1023,0,0
497,1,0,0,0,0,0,0,0,0,0,-1,1721,1023,0,0
504,1,0,0,0,0,0,0,0,0,0,-1,1728,1023,0,0
511,1,0,0,0,0,0,0,0,0,0,-1,1735,1023,0,0
518,1,0,0,0,0,0,0,0,0,0,-1,1742,1023,0,0
525,1,0,0,0,0,0,0,0,0,0,-1,1749,1023,0,0
532,1,0,0,0,0,0,0,0,0,0,-1,1756,1023,0,0
539,1,0,0,0,0,0,0,0,0,0,-1,1763,1023,0,0
546,1,0,0,0,0,0,0,0,0,0,-1,1770,1023,0,0
553,1,0,0,0,0,0,0,0,0,0,-1,1777,1023,0,0
560,1,0,0,0,0,0,0,0,0,0,-1,1784,1023,0,0
567,1,0,0,0,0,0,0,0,0,0,-1,1791,1023,0,0
574,1,0,0,0,0,0,0,0,0,0,-1,1798,1023,0,0
581,1,0,0,0,0,0,0,0,0,0,-1,1805,1023,0,0
588,1,0,0,0,0,0,0,0,0,0,-1,1812,1023,0,0
595,1,0,0,0,0,0,0,0,0,0,-1,1819,1023,0,0
602,1,0,0,0,0,0,0,0,0,0,-1,1826,1023,0,0
609,1,0,0,0,0,0,0,0,0,0,-1,1833,1023,0,0
616,1,0,0,0,0,0,0,0,0,0,-1,1840,1023,0,0
623,1,0,0,0,0,0,0,0,0,0,-1,1847,1023,0,0
630,1,0,0,0,0,0,0,0,0,0,-1,1854,1023,0,0
637,1,0,0,0,0,0,0,0,0,0,-1,1861,1023,0,0
644,1,0,0,0,0,0,0,0,0,0,-1,1868,1023,0,0
651,1,18.8811,2.68243,0.00041435,-0.00237585,-7.58524e-05,0.00041641,-0.00237791,-0.0271586,0.00174076,0.040927,1875,1023,18.8811,-2.68245
658,1,18.9906,2.60742,0.00036975,-0.0012696,-0.000225454,0.000400191,-0.00130004,-0.134208,0.00102643,0.0400015,1882,1023,18.9906,-2.60742
665,1,18.8679,2.75385,0.000284319,-0.000535399,-0.000244648,0.000351782,-0.000602863,-0.269071,0.000557483,0.0422601,1889,1023,18.8679,-2.75382
672,1,18.9673,2.65198,3.27556e-05,-2.98978e-05,0.000214887,0.000218587,-0.000215729,0.713017,0.000250755,0.0419843,1896,1023,18.9673,-2.65199
679,1,19.0908,2.57367,-0.000742004,0.000273548,0.00117324,0.00104418,-0.00151264,0.989627,0.00148441,0.0403634,1903,1023,19.0908,-2.57367
686,1,18.8646,2.6239,-0.0016423,0.000410432,0.00221232,0.00182287,-0.00305475,1.00259,0.00284587,0.0404345,1910,1023,18.8647,-2.62388
693,1,18.8018,2.58771,-0.00244868,0.000435774,0.0031835,0.0024885,-0.00450141,0.998084,0.00409102,0.035253,1917,1023,18.8018,-2.58768
700,1,18.8484,2.61206,-0.00316058,0.000519793,0.00396921,0.00305463,-0.00569543,1.00246,0.00512797,0.0287771,1924,1023,18.8484,-2.61205
707,1,18.8541,2.57129,-0.00368095,0.000462656,0.00457833,0.00341613,-0.00663443,0.997874,0.00590103,0.0227022,1931,1023,18.8541,-2.57131
714,1,18.8367,2.49518,-0.00414762,0.000419724,0.00499777,0.00363086,-0.00735875,0.999703,0.00646539,0.0236671,1938,1023,18.8367,-2.4952
721,1,18.9489,2.44495,0,0,0,0,0,0,0,-1,1945,1023,18.9489,-2.44493
728,1,18.5074,3.48212,-0.00471648,0.000454971,0.00521893,0.00369361,-0.00795512,1.0154,0.00687378,0.0252841,1952,1023,18.5075,-3.48214
735,1,18.3978,3.64471,-0.00461247,0.00057019,0.00489328,0.00351593,-0.00755821,1.02891,0.0065341,0.0169,1959,1023,18.3978,-3.64474
742,1,18.401,3.65649,-0.00446832,0.000828547,0.00420108,0.00314633,-0.0067861,1.06664,0.00586143,0.0163599,1966,1023,18.401,-3.65651
749,1,18.396,3.68201,-0.00441798,0.000925294,0.00321625,0.0024348,-0.00592748,1.13198,0.00496635,0.0132529,1973,1023,18.396,-3.68198
756,1,18.424,3.71405,-0.00508572,0.000728644,0.00179761,0.00123952,-0.0055966,1.2939,0.00420557,0.0108693,1980,1023,18.4239,-3.71404
763,1,18.4354,3.72784,-0.00670004,-0.000335984,-0.000135053,-0.000333119,-0.0067029,-1.54959,0.0043618,0.0123332,1987,1023,18.4354,-3.72786
770,1,18.4304,3.74762,-0.00853622,-0.00132751,-0.00231801,-0.000646478,-0.00921725,-1.28504,0.00594108,0.0121665,1994,1023,18.4304,-3.7476
777,1,18.4006,3.78491,-0.0115798,-0.00311151,-0.00486502,-0.000896133,-0.0137952,-1.14349,0.00891311,0.0133392,2001,1023,18.4006,-3.78492
784,1,18.3605,3.83655,-0.0165633,-0.00589311,-0.00776514,-0.00180691,-0.0206495,-1.08639,0.0132053,0.0340053,2008,1023,18.3605,-3.83652
791,1,18.6095,3.63318,-0.0238574,-0.0101327,-0.0115789,-0.00353537,-0.0304547,-1.0529,0.0192333,0.0471661,2015,1023,18.6095,-3.63319
798,1,18.6095,3.57611,-0.0336275,-0.0162937,-0.0168929,-0.00597412,-0.043947,-1.02241,0.0275236,0.0484511,2022,1023,18.6095,-3.57614
805,1,18.6593,3.36908,-0.0465981,-0.0249277,-0.0241893,-0.00925769,-0.0622681,-0.995965,0.0387961,0.0490879,2029,1023,18.6594,-3.36909
812,1,18.4265,3.35089,0,0,0,0,0,0,0,-1,2036,1023,18.4264,-3.3509
-700,-6,0,0,0,0,0,0,0,0,0,-1,524,1030,0,0
-693,-6,-10.8582,1.48254,0,0,0,0,0,0,0,-1,531,1030,-10.8582,-1.48258
-686,-6,-11.2819,1.276,-0.0198139,-0.0332651,-0.00203313,-0.0195133,-0.0335657,-0.146782,0.0194645,0.0437838,538,1030,-11.2819,-1.276
-679,-6,-11.5206,1.09009,-0.0201556,-0.0220574,-0.00196386,-0.0189246,-0.0232885,-0.559937,0.0142948,0.0477543,545,1030,-11.5206,-1.09003
-672,-6,-11.7724,1.11511,0,0,0,0,0,0,0,-1,552,1030,-11.7724,-1.11512
-665,-6,-11.9932,1.29517,-0.016136,-0.00768827,-0.00145418,-0.00744495,-0.0163793,-1.40501,0.00946961,0.0432333,559,1030,-11.9932,-1.29517
-658,-6,-12.2081,1.35596,-0.013257,-0.00351559,-0.00113649,-0.00338476,-0.0133878,-1.45618,0.00803814,0.0341539,566,1030,-12.2081,-1.35601
-651,-6,-12.21,1.35559,-0.0104084,-0.000855059,-0.000882944,-0.000774141,-0.0104893,-1.47941,0.00674964,0.031028,573,1030,-12.21,-1.35565
-644,-6,-12.1313,1.37769,-0.00791495,0.000637489,-0.000892525,0.00072964,-0.0080071,-1.46791,0.00559716,0.0326144,580,1030,-12.1313,-1.37772
-637,-6,-12.1747,1.38989,-0.00629211,0.00202195,-0.00131771,0.0022258,-0.00649595,-1.41731,0.00523282,0.019465,587,1030,-12.1747,-1.38984
-630,-6,-12.1976,1.33923,-0.00430146,0.00286605,-0.00204834,0.00341013,-0.00484554,-1.31117,0.00479036,0.01384,594,1030,-12.1976,-1.33923
-623,-6,-12.1919,1.35132,-0.00233548,0.00182234,-0.00250173,0.0029962,-0.00350934,-1.13207,0.00375987,0.0134658,601,1030,-12.1919,-1.35137
-616,-6,-12.1829,1.35291,-0.00103116,0.00125752,-0.00327574,0.00358305,-0.00335669,-0.953441,0.00400737,0.0137205,608,1030,-12.1828,-1.3529
-609,-6,-12.1664,1.36548,-0.00025841,0.000756526,-0.00378812,0.00407102,-0.00357291,-0.851983,0.00441635,0.0153934,615,1030,-12.1664,-1.36544
-602,-6,-12.1801,1.36157,-0.000109701,0.000402666,-0.00434105,0.00449509,-0.00420212,-0.814871,0.00502229,0.0124766,622,1030,-12.1801,-1.3616
-595,-6,-12.1507,1.33618,-0.000133594,0.000194308,-0.00493224,0.00496532,-0.0049046,-0.802012,0.00569844,0.0141766,629,1030,-12.1507,-1.33623
-588,-6,-12.1694,0.970093,7.18711e-05,0.000123353,-0.00521469,0.00531236,-0.00511714,-0.787866,0.00602183,0.0161648,636,1030,-12.1694,-0.970111
-581,-6,-12.2257,0.747314,0.00032554,6.96969e-05,-0.00520916,0.00540835,-0.00501311,-0.773122,0.00601828,0.0230797,643,1030,-12.2257,-0.747273
-574,-6,-12.2014,0.748657,0.000452383,0.000161235,-0.00500328,0.0053122,-0.00469859,-0.770854,0.00578335,0.03186,650,1030,-12.2014,-0.748642
-567,-6,-12.1841,0.650879,0.000567445,0.000289379,-0.00449578,0.00492634,-0.00406951,-0.76994,0.0052016,0.0412319,657,1030,-12.1841,-0.65093
-560,-6,-12.2012,0.526489,0.000735249,0.000413753,-0.0037376,0.00431556,-0.00316656,-0.763907,0.00433675,0.0415137,664,1030,-12.2012,-0.526498
-553,-6,-12.076,0.263306,0.000959736,0.000469184,-0.00278513,0.00351037,-0.00208145,-0.741478,0.00326339,0.04089,671,1030,-12.0761,-0.26328
-546,-6,-12.0592,0.534912,0.00123782,0.000372715,-0.00171809,0.00257697,-0.000966434,-0.662079,0.00211505,0.0403332,678,1030,-12.0592,-0.534905
-539,-6,-12.0727,0.721313,0.00165098,-2.08454e-05,-0.000978782,0.00210222,-0.000472086,-0.431983,0.00158249,0.0396459,685,1030,-12.0727,-0.721306
-532,-6,-12.1605,0.749756,0.00211607,-0.00037199,-0.00145644,0.00278746,-0.00104338,-0.431947,0.00228687,0.0416998,692,1030,-12.1605,-0.749722
-525,-6,0,0,0,0,0,0,0,0,0,-1,699,1030,0,0
-518,-6,0,0,0,0,0,0,0,0,0,-1,706,1030,0,0
-511,-6,0,0,0,0,0,0,0,0,0,-1,713,1030,0,0
-504,-6,0,0,0,0,0,0,0,0,0,-1,720,1030,0,0
-497,-6,0,0,0,0,0,0,0,0,0,-1,727,1030,0,0
-490,-6,0,0,0,0,0,0,0,0,0,-1,734,1030,0,0
-483,-6,0,0,0,0,0,0,0,0,0,-1,741,1030,0,0
-476,-6,0,0,0,0,0,0,0,0,0,-1,748,1030,0,0
-469,-6,0,0,0,0,0,0,0,0,0,-1,755,1030,0,0
-462,-6,0,0,0,0,0,0,0,0,0,-1,762,1030,0,0
-455,-6,0,0,0,0,0,0,0,0,0,-1,769,1030,0,0
-448,-6,0,0,0,0,0,0,0,0,0,-1,776,1030,0,0
-441,-6,0,0,0,0,0,0,0,0,0,-1,783,1030,0,0
-434,-6,0,0,0,0,0,0,0,0,0,-1,790,1030,0,0
-427,-6,0,0,0,0,0,0,0,0,0,-1,797,1030,0,0
-420,-6,0,0,0,0,0,0,0,0,0,-1,804,1030,0,0
-413,-6,0,0,0,0,0,0,0,0,0,-1,811,1030,0,0
-406,-6,0,0,0,0,0,0,0,0,0,-1,818,1030,0,0
-399,-6,0,0,0,0,0,0,0,0,0,-1,825,1030,0,0
-392,-6,0,0,0,0,0,0,0,0,0,-1,832,1030,0,0
-385,-6,0,0,0,0,0,0,0,0,0,-1,839,1030,0,0
-378,-6,0,0,0,0,0,0,0,0,0,-1,846,1030,0,0
-371,-6,0,0,0,0,0,0,0,0,0,-1,853,1030,0,0
-364,-6,0,0,0,0,0,0,0,0,0,-1,860,1030,0,0
-357,-6,0,0,0,0,0,0,0,0,0,-1,867,1030,0,0
-350,-6,0,0,0,0,0,0,0,0,0,-1,874,1030,0,0
-343,-6,0,0,0,0,0,0,0,0,0,-1,881,1030,0,0
-336,-6,0,0,0,0,0,0,0,0,0,-1,888,1030,0,0
-329,-6,0,0,0,0,0,0,0,0,0,-1,895,1030,0,0
-322,-6,0,0,0,0,0,0,0,0,0,-1,902,1030,0,0
-315,-6,0,0,0,0,0,0,0,0,0,-1,909,1030,0,0
-308,-6,0,0,0,0,0,0,0,0,0,-1,916,1030,0,0
-301,-6,0,0,0,0,0,0,0,0,0,-1,923,1030,0,0
-294,-6,0,0,0,0,0,0,0,0,0,-1,930,1030,0,0
-287,-6,0,0,0,0,0,0,0,0,0,-1,937,1030,0,0
-280,-6,0,0,0,0,0,0,0,0,0,-1,944,1030,0,0
-273,-6,0,0,0,0,0,0,0,0,0,-1,951,1030,0,0
-266,-6,0,0,0,0,0,0,0,0,0,-1,958,1030,0,0
-259,-6,0,0,0,0,0,0,0,0,0,-1,965,1030,0,0
-252,-6,0,0,0,0,0,0,0,0,0,-1,972,1030,0,0
-245,-6,0,0,0,0,0,0,0,0,0,-1,979,1030,0,0
-238,-6,0,0,0,0,0,0,0,0,0,-1,986,1030,0,0
-231,-6,0,0,0,0,0,0,0,0,0,-1,993,1030,0,0
-224,-6,0,0,0,0,0,0,0,0,0,-1,1000,1030,0,0
-217,-6,0,0,0,0,0,0,0,0,0,-1,1007,1030,0,0
-210,-6,0,0,0,0,0,0,0,0,0,-1,1014,1030,0,0
-203,-6,0,0,0,0,0,0,0,0,0,-1,1021,1030,0,0
-196,-6,0,0,0,0,0,0,0,0,0,-1,1028,1030,0,0
-189,-6,0,0,0,0,0,0,0,0,0,-1,1035,1030,0,0
-182,-6,0,0,0,0,0,0,0,0,0,-1,1042,1030,0,0
-175,-6,0,0,0,0,0,0,0,0,0,-1,1049,1030,0,0
-168,-6,0,0,0,0,0,0,0,0,0,-1,1056,1030,0,0
-161,-6,0,0,0,0,0,0,0,0,0,-1,1063,1030,0,0
-154,-6,0,0,0,0,0,0,0,0,0,-1,1070,1030,0,0
-147,-6,0,0,0,0,0,0,0,0,0,-1,1077,1030,0,0
-140,-6,0,0,0,0,0,0,0,0,0,-1,1084,1030,0,0
-133,-6,0,0,0,0,0,0,0,0,0,-1,1091,1030,0,0
-126,-6,0,0,0,0,0,0,0,0,0,-1,1098,1030,0,0
-119,-6,0,0,0,0,0,0,0,0,0,-1,1105,1030,0,0
-112,-6,0,0,0,0,0,0,0,0,0,-1,1112,1030,0,0
-105,-6,0,0,0,0,0,0,0,0,0,-1,1119,1030,0,0
-98,-6,0,0,0,0,0,0,0,0,0,-1,1126,1030,0,0
-91,-6,0,0,0,0,0,0,0,0,0,-1,1133,1030,0,0
-84,-6,0,0,0,0,0,0,0,0,0,-1,1140,1030,0,0
-77,-6,0,0,0,0,0,0,0,0,0,-1,1147,1030,0,0
-70,-6,0,0,0,0,0,0,0,0,0,-1,1154,1030,0,0
-63,-6,0,0,0,0,0,0,0,0,0,-1,1161,1030,0,0
-56,-6,0,0,0,0,0,0,0,0,0,-1,1168,1030,0,0
-49,-6,0,0,0,0,0,0,0,0,0,-1,1175,1030,0,0
-42,-6,0,0,0,0,0,0,0,0,0,-1,1182,1030,0,0
-35,-6,0,0,0,0,0,0,0,0,0,-1,1189,1030,0,0
-28,-6,0,0,0,0,0,0,0,0,0,-1,1196,1030,0,0
-21,-6,0,0,0,0,0,0,0,0,0,-1,1203,1030,0,0
-14,-6,0,0,0,0,0,0,0,0,0,-1,1210,1030,0,0
-7,-6,0,0,0,0,0,0,0,0,0,-1,1217,1030,0,0
0,-6,0,0,0,0,0,0,0,0,0,-1,1224,1030,0,0
7,-6,0,0,0,0,0,0,0,0,0,-1,1231,1030,0,0
14,-6,0,0,0,0,0,0,0,0,0,-1,1238,1030,0,0
21,-6,0,0,0,0,0,0,0,0,0,-1,1245,1030,0,0
28,-6,0,0,0,0,0,0,0,0,0,-1,1252,1030,0,0
35,-6,0,0,0,0,0,0,0,0,0,-1,1259,1030,0,0
42,-6,0,0,0,0,0,0,0,0,0,-1,1266,1030,0,0
49,-6,0,0,0,0,0,0,0,0,0,-1,1273,1030,0,0
56,-6,0,0,0,0,0,0,0,0,0,-1,1280,1030,0,0
63,-6,0,0,0,0,0,0,0,0,0,-1,1287,1030,0,0
70,-6,0,0,0,0,0,0,0,0,0,-1,1294,1030,0,0
77,-6,0,0,0,0,0,0,0,0,0,-1,1301,1030,0,0
84,-6,0,0,0,0,0,0,0,0,0,-1,1308,1030,0,0
91,-6,0,0,0,0,0,0,0,0,0,-1,1315,1030,0,0
98,-6,0,0,0,0,0,0,0,0,0,-1,1322,1030,0,0
105,-6,0,0,0,0,0,0,0,0,0,-1,1329,1030,0,0
112,-6,0,0,0,0,0,0,0,0,0,-1,1336,1030,0,0
119,-6,0,0,0,0,0,0,0,0,0,-1,1343,1030,0,0
126,-6,0,0,0,0,0,0,0,0,0,-1,1350,1030,0,0
133,-6,0,0,0,0,0,0,0,0,0,-1,1357,1030,0,0
140,-6,0,0,0,0,0,0,0,0,0,-1,1364,1030,0,0
147,-6,0,0,0,0,0,0,0,0,0,-1,1371,1030,0,0
154,-6,0,0,0,0,0,0,0,0,0,-1,1378,1030,0,0
161,-6,0,0,0,0,0,0,0,0,0,-1,1385,1030,0,0
168,-6,0,0,0,0,0,0,0,0,0,-1,1392,1030,0,0
175,-6,0,0,0,0,0,0,0,0,0,-1,1399,1030,0,0
182,-6,0,0,0,0,0,0,0,0,0,-1,1406,1030,0,0
189,-6,0,0,0,0,0,0,0,0,0,-1,1413,1030,0,0
196,-6,0,0,0,0,0,0,0,0,0,-1,1420,1030,0,0
203,-6,0,0,0,0,0,0,0,0,0,-1,1427,1030,0,0
210,-6,0,0,0,0,0,0,0,0,0,-1,1434,1030,0,0
217,-6,0,0,0,0,0,0,0,0,0,-1,1441,1030,0,0
224,-6,0,0,0,0,0,0,0,0,0,-1,1448,1030,0,0
231,-6,0,0,0,0,0,0,0,0,0,-1,1455,1030,0,0
238,-6,0,0,0,0,0,0,0,0,0,-1,1462,1030,0,0
245,-6,0,0,0,0,0,0,0,0,0,-1,1469,1030,0,0
252,-6,0,0,0,0,0,0,0,0,0,-1,1476,1030,0,0
259,-6,0,0,0,0,0,0,0,0,0,-1,1483,1030,0,0
266,-6,0,0,0,0,0,0,0,0,0,-1,1490,1030,0,0
273,-6,0,0,0,0,0,0,0,0,0,-1,1497,1030,0,0
280,-6,0,0,0,0,0,0,0,0,0,-1,1504,1030,0,0
287,-6,0,0,0,0,0,0,0,0,0,-1,1511,1030,0,0
294,-6,0,0,0,0,0,0,0,0,0,-1,1518,1030,0,0
301,-6,0,0,0,0,0,0,0,0,0,-1,1525,1030,0,0
308,-6,0,0,0,0,0,0,0,0,0,-1,1532,1030,0,0
315,-6,0,0,0,0,0,0,0,0,0,-1,1539,1030,0,0
322,-6,0,0,0,0,0,0,0,0,0,-1,1546,1030,0,0
329,-6,0,0,0,0,0,0,0,0,0,-1,1553,1030,0,0
336,-6,0,0,0,0,0,0,0,0,0,-1,1560,1030,0,0
343,-6,0,0,0,0,0,0,0,0,0,-1,1567,1030,0,0
350,-6,0,0,0,0,0,0,0,0,0,-1,1574,1030,0,0
357,-6,0,0,0,0,0,0,0,0,0,-1,1581,1030,0,0
364,-6,0,0,0,0,0,0,0,0,0,-1,1588,1030,0,0
371,-6,0,0,0,0,0,0,0,0,0,-1,1595,1030,0,0
378,-6,0,0,0,0,0,0,0,0,0,-1,1602,1030,0,0
385,-6,0,0,0,0,0,0,0,0,0,-1,1609,1030,0,0
392,-6,0,0,0,0,0,0,0,0,0,-1,1616,1030,0,0
399,-6,0,0,0,0,0,0,0,0,0,-1,1623,1030,0,0
406,-6,0,0,0,0,0,0,0,0,0,-1,1630,1030,0,0
413,-6,0,0,0,0,0,0,0,0,0,-1,1637,1030,0,0
420,-6,0,0,0,0,0,0,0,0,0,-1,1644,1030,0,0
427,-6,0,0,0,0,0,0,0,0,0,-1,1651,1030,0,0
434,-6,0,0,0,0,0,0,0,0,0,-1,1658,1030,0,0
441,-6,0,0,0,0,0,0,0,0,0,-1,1665,1030,0,0
448,-6,0,0,0,0,0,0,0,0,0,-1,1672,1030,0,0
455,-6,0,0,0,0,0,0,0,0,0,-1,1679,1030,0,0
462,-6,0,0,0,0,0,0,0,0,0,-1,1686,1030,0,0
469,-6,0,0,0,0,0,0,0,0,0,-1,1693,1030,0,0
476,-6,0,0,0,0,0,0,0,0,0,-1,1700,1030,0,0
483,-6,0,0,0,0,0,0,0,0,0,-1,1707,1030,0,0
490,-6,0,0,0,0,0,0,0,0,0,-1,1714,1030,0,0
497,-6,0,0,0,0,0,0,0,0,0,-1,1721,1030,0,0
504,-6,0,0,0,0,0,0,0,0,0,-1,1728,1030,0,0
511,-6,0,0,0,0,0,0,0,0,0,-1,1735,1030,0,0
518,-6,0,0,0,0,0,0,0,0,0,-1,1742,1030,0,0
525,-6,0,0,0,0,0,0,0,0,0,-1,1749,1030,0,0
532,-6,0,0,0,0,0,0,0,0,0,-1,1756,1030,0,0
539,-6,0,0,0,0,0,0,0,0,0,-1,1763,1030,0,0
546,-6,0,0,0,0,0,0,0,0,0,-1,1770,1030,0,0
553,-6,0,0,0,0,0,0,0,0,0,-1,1777,1030,0,0
560,-6,0,0,0,0,0,0,0,0,0,-1,1784,1030,0,0
567,-6,0,0,0,0,0,0,0,0,0,-1,1791,1030,0,0
574,-6,0,0,0,0,0,0,0,0,0,-1,1798,1030,0,0
581,-6,0,0,0,0,0,0,0,0,0,-1,1805,1030,0,0
588,-6,0,0,0,0,0,0,0,0,0,-1,1812,1030,0,0
595,-6,0,0,0,0,0,0,0,0,0,-1,1819,1030,0,0
602,-6,0,0,0,0,0,0,0,0,0,-1,1826,1030,0,0
609,-6,0,0,0,0,0,0,0,0,0,-1,1833,1030,0,0
616,-6,0,0,0,0,0,0,0,0,0,-1,1840,1030,0,0
623,-6,0,0,0,0,0,0,0,0,0,-1,1847,1030,0,0
630,-6,0,0,0,0,0,0,0,0,0,-1,1854,1030,0,0
637,-6,0,0,0,0,0,0,0,0,0,-1,1861,1030,0,0
644,-6,0,0,0,0,0,0,0,0,0,-1,1868,1030,0,0
651,-6,18.974,2.6543,9.21685e-05,-0.00236098,-0.000406133,0.000157658,-0.00242647,-0.159875,0.00167268,0.0354797,1875,1030,18.974,-2.65424
658,-6,18.9642,2.79468,0.00010908,-0.00127448,-0.00047466,0.000256264,-0.00142166,-0.300683,0.00104374,0.0388185,1882,1030,18.9642,-2.79471
665,-6,18.9127,2.71509,7.86502e-05,-0.00056206,-0.00043715,0.000300262,-0.000783672,-0.469189,0.000646221,0.0435096,1889,1030,18.9127,-2.71506
672,-6,18.9587,2.58826,-7.34853e-05,-9.6105e-05,6.96972e-05,-1.41863e-05,-0.000155404,0.704964,9.92126e-05,0.0422261,1896,1030,18.9588,-2.58822
679,-6,18.9996,2.45605,-0.000743924,0.000146773,0.00111453,0.000901637,-0.00149879,0.975472,0.00140011,0.0404463,1903,1030,18.9996,-2.4561
686,-6,18.8472,2.51355,-0.00158014,0.000221174,0.00224989,0.00174398,-0.00310295,0.975786,0.00283481,0.0384648,1910,1030,18.8472,-2.51357
693,-6,18.8597,2.60339,-0.0023261,0.000185319,0.00330877,0.00246864,-0.00460942,0.966757,0.00414836,0.0352486,1917,1030,18.8597,-2.60343
700,-6,18.9149,2.66602,-0.00299825,0.000204104,0.00418321,0.0030821,-0.00587625,0.968177,0.0052553,0.0293759,1924,1030,18.9149,-2.66607
707,-6,18.8594,2.63818,-0.00348265,0.000110529,0.00483801,0.00347476,-0.00684688,0.963181,0.00606428,0.0251109,1931,1030,18.8594,-2.6382
714,-6,18.8464,2.57373,-0.00392056,4.67971e-05,0.00530612,0.00372791,-0.00760168,0.964278,0.00666738,0.0316706,1938,1030,18.8465,-2.5737
721,-6,18.7892,2.94019,-0.00428645,9.33911e-07,0.00555138,0.00380815,-0.00809366,0.969655,0.00701843,0.0376811,1945,1030,18.7892,-2.94015
728,-6,18.5341,3.54773,-0.00447821,6.19015e-05,0.00554953,0.00378771,-0.00820402,0.979542,0.0070782,0.0310731,1952,1030,18.5341,-3.54768
735,-6,18.4468,3.6355,-0.00442823,0.000221077,0.00519002,0.00358328,-0.00779043,0.995955,0.00671469,0.0171288,1959,1030,18.4468,-3.63555
742,-6,18.4473,3.66724,-0.00437277,0.000550037,0.00450807,0.0032249,-0.00704762,1.03528,0.00606618,0.0139392,1966,1030,18.4473,-3.66718
749,-6,18.4326,3.69336,-0.00441479,0.000722993,0.00379532,0.00273707,-0.00642887,1.08291,0.00543316,0.0123967,1973,1030,18.4326,-3.69341
756,-6,18.4467,3.70422,-0.00509132,0.000388526,0.00274845,0.00152947,-0.00623226,1.17732,0.00474751,0.0126396,1980,1030,18.4466,-3.70417
763,-6,18.4539,3.70618,-0.00675655,-0.000787434,0.00118832,-0.000559565,-0.00698442,1.38134,0.00448142,0.0122614,1987,1030,18.4539,-3.70621
770,-6,18.4449,3.7345,-0.00860631,-0.00191627,-0.000368113,-0.00189608,-0.0086265,-1.51599,0.00523472,0.0108334,1994,1030,18.4449,-3.73452
777,-6,18.4152,3.74255,-0.0115842,-0.00397755,-0.00199389,-0.00348659,-0.0120752,-1.32937,0.00717604,0.0128727,2001,1030,18.4152,-3.74256
784,-6,18.4563,3.64685,-0.016324,-0.00721207,-0.00354283,-0.00599668,-0.0175394,-1.24032,0.0102937,0.0332858,2008,1030,18.4563,-3.64679
791,-6,18.4769,3.54065,-0.0232315,-0.0121366,-0.00541774,-0.00992997,-0.0254381,-1.18401,0.0148039,0.0455408,2015,1030,18.4769,-3.54063
798,-6,18.4073,3.46973,-0.0324087,-0.0193009,-0.00809781,-0.0154371,-0.0362725,-1.1256,0.0210191,0.0451695,2022,1030,18.4074,-3.46973
805,-6,18.7899,3.35608,-0.0444652,-0.0293644,-0.0119456,-0.0227831,-0.0510466,-1.06723,0.0295283,0.0463188,2029,1030,18.7899,-3.35611
812,-6,17.092,2.31177,-0.0604267,-0.0432171,-0.0174337,-0.0323803,-0.0712635,-1.01464,0.041201,0.0423631,2036,1030,17.0922,-2.31181
-700,-13,0,0,0,0,0,0,0,0,0,-1,524,1037,0,0
-693,-13,-10.9044,1.07568,0,0,0,0,0,0,0,-1,531,1037,-10.9044,-1.07566
-686,-13,-11.343,0.858521,0,0,0,0,0,0,0,-1,538,1037,-11.343,-0.858495
-679,-13,-11.4472,0.366333,0,0,0,0,0,0,0,-1,545,1037,-11.4472,-0.36638
-672,-13,-10.7737,2.03418,0,0,0,0,0,0,0,-1,552,1037,-10.7737,-2.03413
-665,-13,-12.0458,1.56531,-0.0118443,-0.0024983,-0.000675232,-0.00244977,-0.0118928,-1.49904,0.00725124,0.0478343,559,1037,-12.0458,-1.56525
-658,-13,-12.5262,0.864502,-0.0102669,0.000326858,-0.000530962,0.000353403,-0.0102934,-1.52084,0.00698307,0.041558,566,1037,-12.5262,-0.864477
-651,-13,-12.2935,1.18152,-0.00837535,0.00188113,-0.000427417,0.00189891,-0.00839313,-1.52922,0.00632415,0.0359883,573,1037,-12.2935,-1.18148
-644,-13,-12.1412,1.34387,-0.00655332,0.00251825,-0.000590718,0.00255656,-0.00659163,-1.50604,0.00545027,0.026625,580,1037,-12.1412,-1.34388
-637,-13,-12.171,1.33472,-0.00560955,0.00316965,-0.00115078,0.00331798,-0.00575789,-1.4426,0.0053027,0.0194446,587,1037,-12.171,-1.33467
-630,-13,-12.1817,1.33948,-0.00401268,0.003429,-0.00201242,0.00393835,-0.00452203,-1.3229,0.00488848,0.0130777,594,1037,-12.1817,-1.33951
-623,-13,-12.1719,1.35779,-0.00211517,0.00201534,-0.00255015,0.00323163,-0.00333146,-1.12576,0.00378934,0.0119069,601,1037,-12.172,-1.35779
-616,-13,-12.1533,1.35376,-0.000811327,0.00120744,-0.00341056,0.00375484,-0.00335873,-0.929271,0.00410915,0.0108945,608,1037,-12.1533,-1.35374
-609,-13,-12.1208,1.35999,-7.54273e-05,0.00062245,-0.00398884,0.00427759,-0.00373057,-0.829026,0.00462711,0.0153634,615,1037,-12.1208,-1.35993
-602,-13,-12.1608,1.36609,2.7062e-05,0.000240756,-0.00455802,0.00469318,-0.00442537,-0.797117,0.00526535,0.0115905,622,1037,-12.1608,-1.36613
-595,-13,-12.1487,1.33362,-7.13414e-05,3.39351e-05,-0.00516896,0.00515053,-0.00518794,-0.79049,0.00596893,0.015175,629,1037,-12.1487,-1.33357
-588,-13,-12.1096,0.917114,7.64795e-05,-6.76059e-06,-0.00543597,0.00547099,-0.00540127,-0.78157,0.00627715,0.0197696,636,1037,-12.1095,-0.917075
-581,-13,-12.1617,0.685303,0.000301453,-3.77247e-05,-0.005369,0.00550354,-0.00523981,-0.76961,0.0062033,0.0197618,643,1037,-12.1617,-0.685305
-574,-13,-12.132,0.690796,0.000389506,9.25095e-05,-0.00506934,0.00531252,-0.00483051,-0.770756,0.00585828,0.0331568,650,1037,-12.132,-0.690747
-567,-13,-12.3181,0.759888,0.000450392,0.000272623,-0.00442366,0.00478606,-0.00406304,-0.775353,0.00511471,0.0399009,657,1037,-12.318,-0.759904
-560,-13,-12.0938,0.204834,0.000547788,0.000446317,-0.00346259,0.00396001,-0.00296591,-0.778072,0.00401239,0.0425019,664,1037,-12.0938,-0.204796
-553,-13,-12.0366,0.266357,0.000683232,0.000532564,-0.00223156,0.00284073,-0.00162493,-0.768525,0.00260991,0.0428329,671,1037,-12.0365,-0.266299
-546,-13,-12.1084,0.692627,0.000844908,0.000431245,-0.000798018,0.00146246,-0.000186309,-0.658598,0.00104264,0.0401882,678,1037,-12.1084,-0.692607
-539,-13,-12.1416,0.8927,0.00110525,-3.98401e-05,0.000376656,0.00121803,-0.000152625,0.290941,0.000867385,0.0401955,685,1037,-12.1416,-0.892749
-532,-13,-12.1001,0.755981,0.00140797,-0.000670801,0.00028483,0.00144629,-0.000709121,0.133735,0.00126846,0.0395579,692,1037,-12.1001,-0.755964
-525,-13,0,0,0,0,0,0,0,0,0,-1,699,1037,0,0
-518,-13,0,0,0,0,0,0,0,0,0,-1,706,1037,0,0
-511,-13,0,0,0,0,0,0,0,0,0,-1,713,1037,0,0
-504,-13,0,0,0,0,0,0,0,0,0,-1,720,1037,0,0
-497,-13,0,0,0,0,0,0,0,0,0,-1,727,1037,0,0
-490,-13,0,0,0,0,0,0,0,0,0,-1,734,1037,0,0
-483,-13,0,0,0,0,0,0,0,0,0,-1,741,1037,0,0
-476,-13,0,0,0,0,0,0,0,0,0,-1,748,1037,0,0
-469,-13,0,0,0,0,0,0,0,0,0,-1,755,1037,0,0
-462,-13,0,0,0,0,0,0,0,0,0,-1,762,1037,0,0
-455,-13,0,0,0,0,0,0,0,0,0,-1,769,1037,0,0
-448,-13,0,0,0,0,0,0,0,0,0,-1,776,1037,0,0
-441,-13,0,0,0,0,0,0,0,0,0,-1,783,1037,0,0
-434,-13,0,0,0,0,0,0,0,0,0,-1,790,1037,0,0
-427,-13,0,0,0,0,0,0,0,0,0,-1,797,1037,0,0
-420,-13,0,0,0,0,0,0,0,0,0,-1,804,1037,0,0
-413,-13,0,0,0,0,0,0,0,0,0,-1,811,1037,0,0
-406,-13,0,0,0,0,0,0,0,0,0,-1,818,1037,0,0
-399,-13,0,0,0,0,0,0,0,0,0,-1,825,1037,0,0
-392,-13,0,0,0,0,0,0,0,0,0,-1,832,1037,0,0
-385,-13,0,0,0,0,0,0,0,0,0,-1,839,1037,0,0
-378,-13,0,0,0,0,0,0,0,0,0,-1,846,1037,0,0
-371,-13,0,0,0,0,0,0,0,0,0,-1,853,1037,0,0
-364,-13,0,0,0,0,0,0,0,0,0,-1,860,1037,0,0
-357,-13,0,0,0,0,0,0,0,0,0,-1,867,1037,0,0
-350,-13,0,0,0,0,0,0,0,0,0,-1,874,1037,0,0
-343,-13,0,0,0,0,0,0,0,0,0,-1,881,1037,0,0
-336,-13,0,0,0,0,0,0,0,0,0,-1,888,1037,0,0
-329,-13,0,0,0,0,0,0,0,0,0,-1,895,1037,0,0
-322,-13,0,0,0,0,0,0,0,0,0,-1,902,1037,0,0
-315,-13,0,0,0,0,0,0,0,0,0,-1,909,1037,0,0
-308,-13,0,0,0,0,0,0,0,0,0,-1,916,1037,0,0
-301,-13,0,0,0,0,0,0,0,0,0,-1,923,1037,0,0
-294,-13,0,0,0,0,0,0,0,0,0,-1,930,1037,0,0
-287,-13,0,0,0,0,0,0,0,0,0,-1,937,1037,0,0
-280,-13,0,0,0,0,0,0,0,0,0,-1,944,1037,0,0
-273,-13,0,0,0,0,0,0,0,0,0,-1,951,1037,0,0
-266,-13,0,0,0,0,0,0,0,0,0,-1,958,1037,0,0
-259,-13,0,0,0,0,0,0,0,0,0,-1,965,1037,0,0
-252,-13,0,0,0,0,0,0,0,0,0,-1,972,1037,0,0
-245,-13,0,0,0,0,0,0,0,0,0,-1,979,1037,0,0
-238,-13,0,0,0,0,0,0,0,0,0,-1,986,1037,0,0
-231,-13,0,0,0,0,0,0,0,0,0,-1,993,1037,0,0
-224,-13,0,0,0,0,0,0,0,0,0,-1,1000,1037,0,0
-217,-13,0,0,0,0,0,0,0,0,0,-1,1007,1037,0,0
-210,-13,0,0,0,0,0,0,0,0,0,-1,1014,1037,0,0
-203,-13,0,0,0,0,0,0,0,0,0,-1,1021,1037,0,0
-196,-13,0,0,0,0,0,0,0,0,0,-1,1028,1037,0,0
-189,-13,0,0,0,0,0,0,0,0,0,-1,1035,1037,0,0
-182,-13,0,0,0,0,0,0,0,0,0,-1,1042,1037,0,0
-175,-13,0,0,0,0,0,0,0,0,0,-1,1049,1037,0,0
-168,-13,0,0,0,0,0,0,0,0,0,-1,1056,1037,0,0
-161,-13,0,0,0,0,0,0,0,0,0,-1,1063,1037,0,0
-154,-13,0,0,0,0,0,0,0,0,0,-1,1070,1037,0,0
-147,-13,0,0,0,0,0,0,0,0,0,-1,1077,1037,0,0
-140,-13,0,0,0,0,0,0,0,0,0,-1,1084,1037,0,0
-133,-13,0,0,0,0,0,0,0,0,0,-1,1091,1037,0,0
-126,-13,0,0,0,0,0,0,0,0,0,-1,1098,1037,0,0
-119,-13,0,0,0,0,0,0,0,0,0,-1,1105,1037,0,0
-112,-13,0,0,0,0,0,0,0,0,0,-1,1112,1037,0,0
-105,-13,0,0,0,0,0,0,0,0,0,-1,1119,1037,0,0
-98,-13,0,0,0,0,0,0,0,0,0,-1,1126,1037,0,0
-91,-13,0,0,0,0,0,0,0,0,0,-1,1133,1037,0,0
-84,-13,0,0,0,0,0,0,0,0,0,-1,1140,1037,0,0
-77,-13,0,0,0,0,0,0,0,0,0,-1,1147,1037,0,0
-70,-13,0,0,0,0,0,0,0,0,0,-1,1154,1037,0,0
-63,-13,0,0,0,0,0,0,0,0,0,-1,1161,1037,0,0
-56,-13,0,0,0,0,0,0,0,0,0,-1,1168,1037,0,0
-49,-13,0,0,0,0,0,0,0,0,0,-1,1175,1037,0,0
-42,-13,0,0,0,0,0,0,0,0,0,-1,1182,1037,0,0
-35,-13,0,0,0,0,0,0,0,0,0,-1,1189,1037,0,0
-28,-13,0,0,0,0,0,0,0,0,0,-1,1196,1037,0,0
-21,-13,0,0,0,0,0,0,0,0,0,-1,1203,1037,0,0
-14,-13,0,0,0,0,0,0,0,0,0,-1,1210,1037,0,0
-7,-13,0,0,0,0,0,0,0,0,0,-1,1217,1037,0,0
0,-13,0,0,0,0,0,0,0,0,0,-1,1224,1037,0,0
7,-13,0,0,0,0,0,0,0,0,0,-1,1231,1037,0,0
14,-13,0,0,0,0,0,0,0,0,0,-1,1238,1037,0,0
21,-13,0,0,0,0,0,0,0,0,0,-1,1245,1037,0,0
28,-13,0,0,0,0,0,0,0,0,0,-1,1252,1037,0,0
35,-13,0,0,0,0,0,0,0,0,0,-1,1259,1037,0,0
42,-13,0,0,0,0,0,0,0,0,0,-1,1266,1037,0,0
49,-13,0,0,0,0,0,0,0,0,0,-1,1273,1037,0,0
56,-13,0,0,0,0,0,0,0,0,0,-1,1280,1037,0,0
63,-13,0,0,0,0,0,0,0,0,0,-1,1287,1037,0,0
70,-13,0,0,0,0,0,0,0,0,0,-1,1294,1037,0,0
77,-13,0,0,0,0,0,0,0,0,0,-1,1301,1037,0,0
84,-13,0,0,0,0,0,0,0,0,0,-1,1308,1037,0,0
91,-13,0,0,0,0,0,0,0,0,0,-1,1315,1037,0,0
98,-13,0,0,0,0,0,0,0,0,0,-1,1322,1037,0,0
105,-13,0,0,0,0,0,0,0,0,0,-1,1329,1037,0,0
112,-13,0,0,0,0,0,0,0,0,0,-1,1336,1037,0,0
119,-13,0,0,0,0,0,0,0,0,0,-1,1343,1037,0,0
126,-13,0,0,0,0,0,0,0,0,0,-1,1350,1037,0,0
133,-13,0,0,0,0,0,0,0,0,0,-1,1357,1037,0,0
140,-13,0,0,0,0,0,0,0,0,0,-1,1364,1037,0,0
147,-13,0,0,0,0,0,0,0,0,0,-1,1371,1037,0,0
154,-13,0,0,0,0,0,0,0,0,0,-1,1378,1037,0,0
161,-13,0,0,0,0,0,0,0,0,0,-1,1385,1037,0,0
168,-13,0,0,0,0,0,0,0,0,0,-1,1392,1037,0,0
175,-13,0,0,0,0,0,0,0,0,0,-1,1399,1037,0,0
182,-13,0,0,0,0,0,0,0,0,0,-1,1406,1037,0,0
189,-13,0,0,0,0,0,0,0,0,0,-1,1413,1037,0,0
196,-13,0,0,0,0,0,0,0,0,0,-1,1420,1037,0,0
203,-13,0,0,0,0,0,0,0,0,0,-1,1427,1037,0,0
210,-13,0,0,0,0,0,0,0,0,0,-1,1434,1037,0,0
217,-13,0,0,0,0,0,0,0,0,0,-1,1441,1037,0,0
224,-13,0,0,0,0,0,0,0,0,0,-1,1448,1037,0,0
231,-13,0,0,0,0,0,0,0,0,0,-1,1455,1037,0,0
238,-13,0,0,0,0,0,0,0,0,0,-1,1462,1037,0,0
245,-13,0,0,0,0,0,0,0,0,0,-1,1469,1037,0,0
252,-13,0,0,0,0,0,0,0,0,0,-1,1476,1037,0,0
259,-13,0,0,0,0,0,0,0,0,0,-1,1483,1037,0,0
266,-13,0,0,0,0,0,0,0,0,0,-1,1490,1037,0,0
273,-13,0,0,0,0,0,0,0,0,0,-1,1497,1037,0,0
280,-13,0,0,0,0,0,0,0,0,0,-1,1504,1037,0,0
287,-13,0,0,0,0,0,0,0,0,0,-1,1511,1037,0,0
294,-13,0,0,0,0,0,0,0,0,0,-1,1518,1037,0,0
301,-13,0,0,0,0,0,0,0,0,0,-1,1525,1037,0,0
308,-13,0,0,0,0,0,0,0,0,0,-1,1532,1037,0,0
315,-13,0,0,0,0,0,0,0,0,0,-1,1539,1037,0,0
322,-13,0,0,0,0,0,0,0,0,0,-1,1546,1037,0,0
329,-13,0,0,0,0,0,0,0,0,0,-1,1553,1037,0,0
336,-13,0,0,0,0,0,0,0,0,0,-1,1560,1037,0,0
343,-13,0,0,0,0,0,0,0,0,0,-1,1567,1037,0,0
350,-13,0,0,0,0,0,0,0,0,0,-1,1574,1037,0,0
357,-13,0,0,0,0,0,0,0,0,0,-1,1581,1037,0,0
364,-13,0,0,0,0,0,0,0,0,0,-1,1588,1037,0,0
371,-13,0,0,0,0,0,0,0,0,0,-1,1595,1037,0,0
378,-13,0,0,0,0,0,0,0,0,0,-1,1602,1037,0,0
385,-13,0,0,0,0,0,0,0,0,0,-1,1609,1037,0,0
392,-13,0,0,0,0,0,0,0,0,0,-1,1616,1037,0,0
399,-13,0,0,0,0,0,0,0,0,0,-1,1623,1037,0,0
406,-13,0,0,0,0,0,0,0,0,0,-1,1630,1037,0,0
413,-13,0,0,0,0,0,0,0,0,0,-1,1637,1037,0,0
420,-13,0,0,0,0,0,0,0,0,0,-1,1644,1037,0,0
427,-13,0,0,0,0,0,0,0,0,0,-1,1651,1037,0,0
434,-13,0,0,0,0,0,0,0,0,0,-1,1658,1037,0,0
441,-13,0,0,0,0,0,0,0,0,0,-1,1665,1037,0,0
448,-13,0,0,0,0,0,0,0,0,0,-1,1672,1037,0,0
455,-13,0,0,0,0,0,0,0,0,0,-1,1679,1037,0,0
462,-13,0,0,0,0,0,0,0,0,0,-1,1686,1037,0,0
469,-13,0,0,0,0,0,0,0,0,0,-1,1693,1037,0,0
476,-13,0,0,0,0,0,0,0,0,0,-1,1700,1037,0,0
483,-13,0,0,0,0,0,0,0,0,0,-1,1707,1037,0,0
490,-13,0,0,0,0,0,0,0,0,0,-1,1714,1037,0,0
497,-13,0,0,0,0,0,0,0,0,0,-1,1721,1037,0,0
504,-13,0,0,0,0,0,0,0,0,0,-1,1728,1037,0,0
511,-13,0,0,0,0,0,0,0,0,0,-1,1735,1037,0,0
518,-13,0,0,0,0,0,0,0,0,0,-1,1742,1037,0,0
525,-13,0,0,0,0,0,0,0,0,0,-1,1749,1037,0,0
532,-13,0,0,0,0,0,0,0,0,0,-1,1756,1037,0,0
539,-13,0,0,0,0,0,0,0,0,0,-1,1763,1037,0,0
546,-13,0,0,0,0,0,0,0,0,0,-1,1770,1037,0,0
553,-13,0,0,0,0,0,0,0,0,0,-1,1777,1037,0,0
560,-13,0,0,0,0,0,0,0,0,0,-1,1784,1037,0,0
567,-13,0,0,0,0,0,0,0,0,0,-1,1791,1037,0,0
574,-13,0,0,0,0,0,0,0,0,0,-1,1798,1037,0,0
581,-13,0,0,0,0,0,0,0,0,0,-1,1805,1037,0,0
588,-13,0,0,0,0,0,0,0,0,0,-1,1812,1037,0,0
595,-13,0,0,0,0,0,0,0,0,0,-1,1819,1037,0,0
602,-13,0,0,0,0,0,0,0,0,0,-1,1826,1037,0,0
609,-13,0,0,0,0,0,0,0,0,0,-1,1833,1037,0,0
616,-13,0,0,0,0,0,0,0,0,0,-1,1840,1037,0,0
623,-13,0,0,0,0,0,0,0,0,0,-1,1847,1037,0,0
630,-13,0,0,0,0,0,0,0,0,0,-1,1854,1037,0,0
637,-13,0,0,0,0,0,0,0,0,0,-1,1861,1037,0,0
644,-13,0,0,0,0,0,0,0,0,0,-1,1868,1037,0,0
651,-13,18.9749,2.74597,-7.69486e-06,-0.00156629,-0.000413938,9.54187e-05,-0.0016694,-0.244135,0.00114606,0.0359294,1875,1037,18.9748,-2.74596
658,-13,18.7731,3.01892,7.0632e-05,-0.000657479,-0.000484453,0.000312572,-0.00089942,-0.463175,0.000726572,0.0445404,1882,1037,18.773,-3.01897
665,-13,18.9146,2.83643,7.16936e-05,-9.78283e-05,-0.000445474,0.000440399,-0.000466533,-0.691386,0.00052369,0.0453998,1889,1037,18.9145,-2.83644
672,-13,18.9672,2.50793,-1.50642e-06,0.000220173,4.39383e-05,0.000228564,-9.89765e-06,1.38209,0.00015578,0.0373172,1896,1037,18.9672,-2.50794
679,-13,18.8149,2.5166,-0.000584281,0.000321344,0.00109035,0.00104917,-0.0013121,0.982208,0.00136609,0.0356625,1903,1037,18.8149,-2.51661
686,-13,18.7809,2.50476,-0.00137023,0.000276012,0.00224153,0.00184077,-0.00293499,0.961361,0.00278131,0.0381609,1910,1037,18.7809,-2.50471
693,-13,18.8069,2.51685,-0.00207257,0.00014387,0.00331717,0.00253304,-0.00446174,0.946612,0.00408929,0.0375404,1917,1037,18.8069,-2.51688
700,-13,18.8557,2.52502,-0.00271498,7.39618e-05,0.00422028,0.00312418,-0.0057652,0.944962,0.00520724,0.0345322,1924,1037,18.8557,-2.52504
707,-13,18.8411,2.61206,-0.00318295,-7.42325e-05,0.00487524,0.00348844,-0.00674562,0.939717,0.00600756,0.0287183,1931,1037,18.8411,-2.61212
714,-13,18.8243,2.67944,-0.00360541,-0.000179565,0.00535833,0.00373297,-0.00751795,0.940102,0.00661711,0.0263313,1938,1037,18.8243,-2.67944
721,-13,18.7936,3.04382,-0.00395975,-0.000250341,0.00561975,0.00381286,-0.00802295,0.944787,0.00697602,0.0325199,1945,1037,18.7936,-3.04377
728,-13,18.5588,3.59314,-0.00417348,-0.000186632,0.00560605,0.00376986,-0.00812997,0.956219,0.00702241,0.0286211,1952,1037,18.5588,-3.59317
735,-13,18.4683,3.6571,-0.00420711,8.31721e-06,0.00522095,0.00353095,-0.00772975,0.977245,0.00665031,0.0191998,1959,1037,18.4683,-3.65712
742,-13,18.4441,3.68945,-0.00428041,0.000398377,0.0045587,0.0031829,-0.00706494,1.02246,0.00605644,0.0107732,1966,1037,18.444,-3.68951
749,-13,18.4501,3.69556,-0.00446884,0.000572811,0.00389638,0.00269271,-0.00658874,1.07252,0.00551377,0.0153732,1973,1037,18.4501,-3.69559
756,-13,18.4585,3.69763,-0.0051409,0.000440811,0.00279989,0.00160322,-0.0063033,1.17729,0.0048262,0.0137888,1980,1037,18.4584,-3.6976
763,-13,18.4703,3.71948,-0.00671795,-0.000678587,0.00119154,-0.000452,-0.00694453,1.38288,0.00448662,0.0132458,1987,1037,18.4703,-3.71951
770,-13,18.4523,3.72949,-0.00852465,-0.00165871,-0.0004107,-0.00163423,-0.00854913,-1.51126,0.00524032,0.0116243,1994,1037,18.4523,-3.72946
777,-13,18.4232,3.71643,-0.0113012,-0.00354422,-0.00213885,-0.00299356,-0.0118519,-1.31881,0.00711647,0.011374,2001,1037,18.4233,-3.71646
784,-13,18.4447,3.67371,-0.0155722,-0.00657952,-0.00381039,-0.00518212,-0.0169696,-1.21929,0.0100418,0.0258,2008,1037,18.4447,-3.67376
791,-13,18.3228,3.67578,-0.0217382,-0.0112926,-0.00576863,-0.00873373,-0.0242971,-1.15329,0.0142114,0.0423184,2015,1037,18.3227,-3.67583
798,-13,18.1288,3.6825,-0.0298077,-0.018238,-0.00849948,-0.0137415,-0.0343042,-1.0842,0.0199356,0.0438698,2022,1037,18.1288,-3.68245
805,-13,17.7271,3.32239,-0.0401984,-0.0281149,-0.0123553,-0.0204032,-0.0479101,-1.0128,0.0277621,0.0388593,2029,1037,17.7271,-3.32238
812,-13,17.3708,2.96729,-0.0537252,-0.0418937,-0.0177904,-0.0290612,-0.0665577,-0.94591,0.0385298,0.040152,2036,1037,17.3709,-2.96732
-700,-20,-14.9748,-2.77942,0,0,0,0,0,0,0,-1,524,1044,-14.9748,2.77941
-693,-20,-12.6385,2.28369,0,0,0,0,0,0,0,-1,531,1044,-12.6385,-2.28365
-686,-20,-11.3481,0.437866,0.00099664,-0.0127363,0.000644435,0.00102681,-0.0127665,0.046789,0.00887311,0.0440329,538,1044,-11.3481,-0.437829
-679,-20,-10.9101,1.64502,-0.00470707,-0.00549226,0.000495164,-0.00446775,-0.00573158,0.450213,0.0034772,0.0468789,545,1044,-10.9101,-1.64507
-672,-20,-11.2495,1.81763,-0.0074938,-0.000738018,0.000387495,-0.000715865,-0.00751595,1.51369,0.00478988,0.0485568,552,1044,-11.2495,-1.81759
-665,-20,-11.5483,2.04382,-0.00829411,0.00216112,0.000312737,0.00217047,-0.00830346,1.54092,0.00638334,0.0465566,559,1044,-11.5483,-2.04378
-658,-20,-12.5319,0.218994,-0.00788121,0.00368173,0.00026349,0.00368773,-0.00788721,1.54802,0.00682783,0.0430168,566,1044,-12.5319,-0.218944
-651,-20,-12.2028,0.858765,-0.00681597,0.00420081,0.000185609,0.00420393,-0.00681909,1.55395,0.00642357,0.0375904,573,1044,-12.2027,-0.858713
-644,-20,-12.1238,1.23083,-0.0055907,0.00405879,-0.000145542,0.00406098,-0.0055929,-1.55572,0.00559701,0.0261922,580,1044,-12.1238,-1.23081
-637,-20,-12.1468,1.26758,-0.00527397,0.00405048,-0.000853668,0.00412799,-0.00535148,-1.48025,0.00548815,0.0172159,587,1044,-12.1468,-1.26759
-630,-20,-12.155,1.33191,-0.00395023,0.00373723,-0.00191573,0.00418818,-0.00440118,-1.33961,0.00495958,0.0141697,594,1044,-12.155,-1.33186
-623,-20,-12.1501,1.33826,-0.00204875,0.00206748,-0.00256789,0.00330024,-0.00328151,-1.12322,0.00379998,0.0132257,601,1044,-12.1501,-1.33821
-616,-20,-12.1321,1.33472,-0.000732796,0.0011021,-0.00354518,0.00384662,-0.00347731,-0.912014,0.00423026,0.0118699,608,1044,-12.1321,-1.33472
-609,-20,-12.1338,1.35083,-4.79376e-05,0.000458603,-0.00420269,0.00441565,-0.00400498,-0.815494,0.00486358,0.013176,615,1044,-12.1338,-1.35078
-602,-20,-12.1437,1.37158,1.77143e-05,5.29103e-05,-0.00479668,0.00483203,-0.0047614,-0.787233,0.00553882,0.0109666,622,1044,-12.1437,-1.37156
-595,-20,-12.1584,1.34119,-0.000127868,-0.000156365,-0.00543429,0.00529219,-0.00557642,-0.784087,0.00627571,0.012496,629,1044,-12.1585,-1.34114
-588,-20,-12.1609,0.979736,-6.66848e-06,-0.000191918,-0.00570516,0.00560662,-0.00580521,-0.777281,0.00658896,0.0166826,636,1044,-12.161,-0.979759
-581,-20,-12.1386,0.708008,0.000222385,-0.000202048,-0.00560588,0.00562006,-0.00559973,-0.766479,0.00647775,0.0253336,643,1044,-12.1386,-0.707996
-574,-20,-12.1506,0.78125,0.000308329,-4.65118e-05,-0.00526183,0.00539573,-0.00513391,-0.768545,0.00607992,0.0376685,650,1044,-12.1505,-0.781228
-567,-20,-12.2123,0.833252,0.000376815,0.000177057,-0.00452972,0.00480776,-0.00425389,-0.774375,0.005235,0.0430017,657,1044,-12.2123,-0.833238
-560,-20,-12.0207,0.606323,0.000494058,0.000415491,-0.00342956,0.00388456,-0.00297501,-0.779671,0.00397197,0.0434035,664,1044,-12.0207,-0.606274
-553,-20,-11.9324,0.376953,0.00066643,0.000587907,-0.00199943,0.00262699,-0.00137265,-0.775581,0.00234674,0.0433671,671,1044,-11.9324,-0.37698
-546,-20,-12.095,0.557251,0.000881352,0.000596994,-0.000296721,0.0010682,0.000410146,-0.561977,0.000622237,0.0420332,678,1044,-12.095,-0.55727
-539,-20,-12.1208,0.55188,0.00120107,0.000249752,0.00120763,0.00202334,-0.000572522,0.59779,0.00157481,0.0423825,685,1044,-12.1208,-0.551916
-532,-20,-12.1575,0.681519,0.00158523,-0.000342751,0.00139962,0.00232071,-0.00107823,0.48383,0.00200561,0.0408337,692,1044,-12.1575,-0.681553
-525,-20,0,0,0,0,0,0,0,0,0,-1,699,1044,0,0
-518,-20,0,0,0,0,0,0,0,0,0,-1,706,1044,0,0
-511,-20,0,0,0,0,0,0,0,0,0,-1,713,1044,0,0
-504,-20,0,0,0,0,0,0,0,0,0,-1,720,1044,0,0
-497,-20,0,0,0,0,0,0,0,0,0,-1,727,1044,0,0
-490,-20,0,0,0,0,0,0,0,0,0,-1,734,1044,0,0
-483,-20,0,0,0,0,0,0,0,0,0,-1,741,1044,0,0
-476,-20,0,0,0,0,0,0,0,0,0,-1,748,1044,0,0
-469,-20,0,0,0,0,0,0,0,0,0,-1,755,1044,0,0
-462,-20,0,0,0,0,0,0,0,0,0,-1,762,1044,0,0
-455,-20,0,0,0,0,0,0,0,0,0,-1,769,1044,0,0
-448,-20,0,0,0,0,0,0,0,0,0,-1,776,1044,0,0
-441,-20,0,0,0,0,0,0,0,0,0,-1,783,1044,0,0
-434,-20,0,0,0,0,0,0,0,0,0,-1,790,1044,0,0
-427,-20,0,0,0,0,0,0,0,0,0,-1,797,1044,0,0
-420,-20,0,0,0,0,0,0,0,0,0,-1,804,1044,0,0
-413,-20,0,0,0,0,0,0,0,0,0,-1,811,1044,0,0
-406,-20,0,0,0,0,0,0,0,0,0,-1,818,1044,0,0
-399,-20,0,0,0,0,0,0,0,0,0,-1,825,1044,0,0
-392,-20,0,0,0,0,0,0,0,0,0,-1,832,1044,0,0
-385,-20,0,0,0,0,0,0,0,0,0,-1,839,1044,0,0
-378,-20,0,0,0,0,0,0,0,0,0,-1,846,1044,0,0
-371,-20,0,0,0,0,0,0,0,0,0,-1,853,1044,0,0
-364,-20,0,0,0,0,0,0,0,0,0,-1,860,1044,0,0
-357,-20,0,0,0,0,0,0,0,0,0,-1,867,1044,0,0
-350,-20,0,0,0,0,0,0,0,0,0,-1,874,1044,0,0
-343,-20,0,0,0,0,0,0,0,0,0,-1,881,1044,0,0
-336,-20,0,0,0,0,0,0,0,0,0,-1,888,1044,0,0
-329,-20,0,0,0,0,0,0,0,0,0,-1,895,1044,0,0
-322,-20,0,0,0,0,0,0,0,0,0,-1,902,1044,0,0
-315,-20,0,0,0,0,0,0,0,0,0,-1,909,1044,0,0
-308,-20,0,0,0,0,0,0,0,0,0,-1,916,1044,0,0
-301,-20,0,0,0,0,0,0,0,0,0,-1,923,1044,0,0
-294,-20,0,0,0,0,0,0,0,0,0,-1,930,1044,0,0
-287,-20,0,0,0,0,0,0,0,0,0,-1,937,1044,0,0
-280,-20,0,0,0,0,0,0,0,0,0,-1,944,1044,0,0
-273,-20,0,0,0,0,0,0,0,0,0,-1,951,1044,0,0
-266,-20,0,0,0,0,0,0,0,0,0,-1,958,1044,0,0
-259,-20,0,0,0,0,0,0,0,0,0,-1,965,1044,0,0
-252,-20,0,0,0,0,0,0,0,0,0,-1,972,1044,0,0
-245,-20,0,0,0,0,0,0,0,0,0,-1,979,1044,0,0
-238,-20,0,0,0,0,0,0,0,0,0,-1,986,1044,0,0
-231,-20,0,0,0,0,0,0,0,0,0,-1,993,1044,0,0
-224,-20,0,0,0,0,0,0,0,0,0,-1,1000,1044,0,0
-217,-20,0,0,0,0,0,0,0,0,0,-1,1007,1044,0,0
-210,-20,0,0,0,0,0,0,0,0,0,-1,1014,1044,0,0
-203,-20,0,0,0,0,0,0,0,0,0,-1,1021,1044,0,0
-196,-20,0,0,0,0,0,0,0,0,0,-1,1028,1044,0,0
-189,-20,0,0,0,0,0,0,0,0,0,-1,1035,1044,0,0
-182,-20,0,0,0,0,0,0,0,0,0,-1,1042,1044,0,0
-175,-20,0,0,0,0,0,0,0,0,0,-1,1049,1044,0,0
-168,-20,0,0,0,0,0,0,0,0,0,-1,1056,1044,0,0
-161,-20,0,0,0,0,0,0,0,0,0,-1,1063,1044,0,0
-154,-20,0,0,0,0,0,0,0,0,0,-1,1070,1044,0,0
-147,-20,0,0,0,0,0,0,0,0,0,-1,1077,1044,0,0
-140,-20,0,0,0,0,0,0,0,0,0,-1,1084,1044,0,0
-133,-20,0,0,0,0,0,0,0,0,0,-1,1091,1044,0,0
-126,-20,0,0,0,0,0,0,0,0,0,-1,1098,1044,0,0
-119,-20,0,0,0,0,0,0,0,0,0,-1,1105,1044,0,0
-112,-20,0,0,0,0,0,0,0,0,0,-1,1112,1044,0,0
-105,-20,0,0,0,0,0,0,0,0,0,-1,1119,1044,0,0
-98,-20,0,0,0,0,0,0,0,0,0,-1,1126,1044,0,0
-91,-20,0,0,0,0,0,0,0,0,0,-1,1133,1044,0,0
-84,-20,0,0,0,0,0,0,0,0,0,-1,1140,1044,0,0
-77,-20,0,0,0,0,0,0,0,0,0,-1,1147,1044,0,0
-70,-20,0,0,0,0,0,0,0,0,0,-1,1154,1044,0,0
-63,-20,0,0,0,0,0,0,0,0,0,-1,1161,1044,0,0
-56,-20,0,0,0,0,0,0,0,0,0,-1,1168,1044,0,0
-49,-20,0,0,0,0,0,0,0,0,0,-1,1175,1044,0,0
-42,-20,0,0,0,0,0,0,0,0,0,-1,1182,1044,0,0
-35,-20,0,0,0,0,0,0,0,0,0,-1,1189,1044,0,0
-28,-20,0,0,0,0,0,0,0,0,0,-1,1196,1044,0,0
-21,-20,0,0,0,0,0,0,0,0,0,-1,1203,1044,0,0
-14,-20,0,0,0,0,0,0,0,0,0,-1,1210,1044,0,0
-7,-20,0,0,0,0,0,0,0,0,0,-1,1217,1044,0,0
0,-20,0,0,0,0,0,0,0,0,0,-1,1224,1044,0,0
7,-20,0,0,0,0,0,0,0,0,0,-1,1231,1044,0,0
14,-20,0,0,0,0,0,0,0,0,0,-1,1238,1044,0,0
21,-20,0,0,0,0,0,0,0,0,0,-1,1245,1044,0,0
28,-20,0,0,0,0,0,0,0,0,0,-1,1252,1044,0,0
35,-20,0,0,0,0,0,0,0,0,0,-1,1259,1044,0,0
42,-20,0,0,0,0,0,0,0,0,0,-1,1266,1044,0,0
49,-20,0,0,0,0,0,0,0,0,0,-1,1273,1044,0,0
56,-20,0,0,0,0,0,0,0,0,0,-1,1280,1044,0,0
63,-20,0,0,0,0,0,0,0,0,0,-1,1287,1044,0,0
70,-20,0,0,0,0,0,0,0,0,0,-1,1294,1044,0,0
77,-20,0,0,0,0,0,0,0,0,0,-1,1301,1044,0,0
84,-20,0,0,0,0,0,0,0,0,0,-1,1308,1044,0,0
91,-20,0,0,0,0,0,0,0,0,0,-1,1315,1044,0,0
98,-20,0,0,0,0,0,0,0,0,0,-1,1322,1044,0,0
105,-20,0,0,0,0,0,0,0,0,0,-1,1329,1044,0,0
112,-20,0,0,0,0,0,0,0,0,0,-1,1336,1044,0,0
119,-20,0,0,0,0,0,0,0,0,0,-1,1343,1044,0,0
126,-20,0,0,0,0,0,0,0,0,0,-1,1350,1044,0,0
133,-20,0,0,0,0,0,0,0,0,0,-1,1357,1044,0,0
140,-20,0,0,0,0,0,0,0,0,0,-1,1364,1044,0,0
147,-20,0,0,0,0,0,0,0,0,0,-1,1371,1044,0,0
154,-20,0,0,0,0,0,0,0,0,0,-1,1378,1044,0,0
161,-20,0,0,0,0,0,0,0,0,0,-1,1385,1044,0,0
168,-20,0,0,0,0,0,0,0,0,0,-1,1392,1044,0,0
175,-20,0,0,0,0,0,0,0,0,0,-1,1399,1044,0,0
182,-20,0,0,0,0,0,0,0,0,0,-1,1406,1044,0,0
189,-20,0,0,0,0,0,0,0,0,0,-1,1413,1044,0,0
196,-20,0,0,0,0,0,0,0,0,0,-1,1420,1044,0,0
203,-20,0,0,0,0,0,0,0,0,0,-1,1427,1044,0,0
210,-20,0,0,0,0,0,0,0,0,0,-1,1434,1044,0,0
217,-20,0,0,0,0,0,0,0,0,0,-1,1441,1044,0,0
224,-20,0,0,0,0,0,0,0,0,0,-1,1448,1044,0,0
231,-20,0,0,0,0,0,0,0,0,0,-1,1455,1044,0,0
238,-20,0,0,0,0,0,0,0,0,0,-1,1462,1044,0,0
245,-20,0,0,0,0,0,0,0,0,0,-1,1469,1044,0,0
252,-20,0,0,0,0,0,0,0,0,0,-1,1476,1044,0,0
259,-20,0,0,0,0,0,0,0,0,0,-1,1483,1044,0,0
266,-20,0,0,0,0,0,0,0,0,0,-1,1490,1044,0,0
273,-20,0,0,0,0,0,0,0,0,0,-1,1497,1044,0,0
280,-20,0,0,0,0,0,0,0,0,0,-1,1504,1044,0,0
287,-20,0,0,0,0,0,0,0,0,0,-1,1511,1044,0,0
294,-20,0,0,0,0,0,0,0,0,0,-1,1518,1044,0,0
301,-20,0,0,0,0,0,0,0,0,0,-1,1525,1044,0,0
308,-20,0,0,0,0,0,0,0,0,0,-1,1532,1044,0,0
315,-20,0,0,0,0,0,0,0,0,0,-1,1539,1044,0,0
322,-20,0,0,0,0,0,0,0,0,0,-1,1546,1044,0,0
329,-20,0,0,0,0,0,0,0,0,0,-1,1553,1044,0,0
336,-20,0,0,0,0,0,0,0,0,0,-1,1560,1044,0,0
343,-20,0,0,0,0,0,0,0,0,0,-1,1567,1044,0,0
350,-20,0,0,0,0,0,0,0,0,0,-1,1574,1044,0,0
357,-20,0,0,0,0,0,0,0,0,0,-1,1581,1044,0,0
364,-20,0,0,0,0,0,0,0,0,0,-1,1588,1044,0,0
371,-20,0,0,0,0,0,0,0,0,0,-1,1595,1044,0,0
378,-20,0,0,0,0,0,0,0,0,0,-1,1602,1044,0,0
385,-20,0,0,0,0,0,0,0,0,0,-1,1609,1044,0,0
392,-20,0,0,0,0,0,0,0,0,0,-1,1616,1044,0,0
399,-20,0,0,0,0,0,0,0,0,0,-1,1623,1044,0,0
406,-20,0,0,0,0,0,0,0,0,0,-1,1630,1044,0,0
413,-20,0,0,0,0,0,0,0,0,0,-1,1637,1044,0,0
420,-20,0,0,0,0,0,0,0,0,0,-1,1644,1044,0,0
427,-20,0,0,0,0,0,0,0,0,0,-1,1651,1044,0,0
434,-20,0,0,0,0,0,0,0,0,0,-1,1658,1044,0,0
441,-20,0,0,0,0,0,0,0,0,0,-1,1665,1044,0,0
448,-20,0,0,0,0,0,0,0,0,0,-1,1672,1044,0,0
455,-20,0,0,0,0,0,0,0,0,0,-1,1679,1044,0,0
462,-20,0,0,0,0,0,0,0,0,0,-1,1686,1044,0,0
469,-20,0,0,0,0,0,0,0,0,0,-1,1693,1044,0,0
476,-20,0,0,0,0,0,0,0,0,0,-1,1700,1044,0,0
483,-20,0,0,0,0,0,0,0,0,0,-1,1707,1044,0,0
490,-20,0,0,0,0,0,0,0,0,0,-1,1714,1044,0,0
497,-20,0,0,0,0,0,0,0,0,0,-1,1721,1044,0,0
504,-20,0,0,0,0,0,0,0,0,0,-1,1728,1044,0,0
511,-20,0,0,0,0,0,0,0,0,0,-1,1735,1044,0,0
518,-20,0,0,0,0,0,0,0,0,0,-1,1742,1044,0,0
525,-20,0,0,0,0,0,0,0,0,0,-1,1749,1044,0,0
532,-20,0,0,0,0,0,0,0,0,0,-1,1756,1044,0,0
539,-20,0,0,0,0,0,0,0,0,0,-1,1763,1044,0,0
546,-20,0,0,0,0,0,0,0,0,0,-1,1770,1044,0,0
553,-20,0,0,0,0,0,0,0,0,0,-1,1777,1044,0,0
560,-20,0,0,0,0,0,0,0,0,0,-1,1784,1044,0,0
567,-20,0,0,0,0,0,0,0,0,0,-1,1791,1044,0,0
574,-20,0,0,0,0,0,0,0,0,0,-1,1798,1044,0,0
581,-20,0,0,0,0,0,0,0,0,0,-1,1805,1044,0,0
588,-20,0,0,0,0,0,0,0,0,0,-1,1812,1044,0,0
595,-20,0,0,0,0,0,0,0,0,0,-1,1819,1044,0,0
602,-20,0,0,0,0,0,0,0,0,0,-1,1826,1044,0,0
609,-20,0,0,0,0,0,0,0,0,0,-1,1833,1044,0,0
616,-20,0,0,0,0,0,0,0,0,0,-1,1840,1044,0,0
623,-20,0,0,0,0,0,0,0,0,0,-1,1847,1044,0,0
630,-20,0,0,0,0,0,0,0,0,0,-1,1854,1044,0,0
637,-20,0,0,0,0,0,0,0,0,0,-1,1861,1044,0,0
644,-20,0,0,0,0,0,0,0,0,0,-1,1868,1044,0,0
651,-20,18.8588,2.6947,-5.36347e-05,-0.000284377,-0.000857613,0.000696333,-0.00103434,-0.718537,0.00100554,0.0395541,1875,1044,18.8588,-2.69466
658,-20,18.6671,2.7937,0.000115601,0.000342789,-0.000752577,0.000990297,-0.000531907,-0.860303,0.000892029,0.043592,1882,1044,18.6671,-2.79368
665,-20,18.8418,2.82922,0.000165773,0.000675126,-0.000582345,0.00105605,-0.000215149,-0.991532,0.000785631,0.0405377,1889,1044,18.8418,-2.82923
672,-20,18.9255,2.65515,0.000166987,0.000783922,-2.02665e-05,0.000784587,0.000166322,-1.53799,0.000477375,0.0258537,1896,1044,18.9255,-2.65519
679,-20,18.8463,2.54822,-0.000351957,0.000695984,0.00107494,0.00136786,-0.00102383,1.01217,0.0013856,0.0275096,1903,1044,18.8464,-2.54827
686,-20,18.8164,2.48914,-0.00111769,0.000492361,0.00225879,0.0020853,-0.00271063,0.956579,0.00277676,0.0373064,1910,1044,18.8164,-2.48908
693,-20,18.7982,2.44299,-0.00181482,0.000236449,0.00334665,0.00271109,-0.00428947,0.934088,0.00407588,0.0417893,1917,1044,18.7982,-2.44305
700,-20,18.8099,2.48376,-0.00246438,5.23752e-05,0.00426663,0.00324232,-0.00565433,0.9288,0.00519903,0.037625,1924,1044,18.8099,-2.48382
707,-20,18.8129,2.53467,-0.00294417,-0.000160602,0.00491326,0.00355419,-0.00665896,0.923418,0.0059867,0.029464,1931,1044,18.8129,-2.53466
714,-20,18.8374,2.61353,-0.00337678,-0.000319738,0.00539506,0.00375915,-0.00745567,0.92344,0.00659108,0.0221753,1938,1044,18.8374,-2.61356
721,-20,18.8754,2.81592,-0.00373912,-0.000419852,0.0056464,0.00380577,-0.00796474,0.928336,0.00693567,0.0186463,1945,1044,18.8754,-2.8159
728,-20,18.6593,3.36694,-0.00398302,-0.000360789,0.00559821,0.00371198,-0.00805579,0.941843,0.0069467,0.0198885,1952,1044,18.6593,-3.36697
735,-20,18.4126,3.64758,-0.00412136,-0.000145941,0.00516624,0.00340178,-0.00766909,0.969044,0.00654813,0.0175172,1959,1044,18.4126,-3.64755
742,-20,18.45,3.68799,-0.00433004,0.000270178,0.00447604,0.00300251,-0.00706237,1.02274,0.00596646,0.0144498,1966,1044,18.4499,-3.68797
749,-20,18.4819,3.68677,-0.00464563,0.000429376,0.00383104,0.00248707,-0.00670332,1.0779,0.00548904,0.0163001,1973,1044,18.4819,-3.68682
756,-20,18.4808,3.69409,-0.00517523,0.000475878,0.00279827,0.00162701,-0.00632637,1.18052,0.00485172,0.0130034,1980,1044,18.4808,-3.6941
763,-20,18.4609,3.70142,-0.00643683,-0.0004586,0.00138003,-0.000155408,-0.00674002,1.35453,0.00444245,0.0145242,1987,1044,18.461,-3.70146
770,-20,18.4612,3.72046,-0.00797709,-0.00121306,-4.85898e-05,-0.00121271,-0.00797744,-1.56361,0.00496369,0.0130661,1994,1044,18.4612,-3.72048
777,-20,18.4359,3.69897,-0.0102317,-0.00277982,-0.00151628,-0.00248311,-0.0105284,-1.37755,0.00635507,0.0115349,2001,1044,18.4359,-3.69902
784,-20,18.4202,3.69604,-0.0136143,-0.00536109,-0.00279523,-0.00450351,-0.0144719,-1.27311,0.00855163,0.0170688,2008,1044,18.4202,-3.69601
791,-20,18.3831,3.72974,-0.0184495,-0.00944835,-0.00413301,-0.00783853,-0.0200593,-1.19937,0.011673,0.0357189,2015,1044,18.383,-3.72973
798,-20,18.3478,3.82092,-0.0245839,-0.0155175,-0.0059497,-0.0125708,-0.0275306,-1.11094,0.0159147,0.0414098,2022,1044,18.3478,-3.82095
805,-20,17.8544,3.9353,-0.032169,-0.0241976,-0.00850154,-0.0187939,-0.0375728,-1.00459,0.0216927,0.0402664,2029,1044,17.8543,-3.93529
812,-20,17.4307,3.57629,-0.0416866,-0.0363691,-0.0121133,-0.0266262,-0.0514295,-0.893431,0.0296991,0.0431257,2036,1044,17.4306,-3.57634
-700,-27,-13.3309,2.45129,0,0,0,0,0,0,0,-1,524,1051,-13.3309,-2.45126
-693,-27,-12.8539,2.1969,0.0230888,-0.012779,0.00125886,0.0231329,-0.0128231,0.0350396,0.0210418,0.0455372,531,1051,-12.8539,-2.19685
-686,-27,-12.1344,2.11926,0.0100396,-0.00420138,0.0013768,0.0101715,-0.00433326,0.0955001,0.00859746,0.0428147,538,1051,-12.1344,-2.11926
-679,-27,-11.9517,1.72229,0.00177409,0.00127221,0.00131982,0.00286661,0.000179686,0.691453,0.00185408,0.0442291,545,1051,-11.9517,-1.7223
-672,-27,-11.8785,1.51038,-0.00297815,0.00450041,0.00120065,0.00468844,-0.00316618,1.41545,0.00456317,0.0430935,552,1051,-11.8785,-1.51032
-665,-27,-11.8253,1.38623,-0.0052296,0.00610099,0.00105173,0.00619778,-0.0053264,1.47902,0.00665983,0.0441932,559,1051,-11.8253,-1.38628
-658,-27,-11.8905,1.26111,-0.00585079,0.00654639,0.000894186,0.00661055,-0.00591496,1.49916,0.00723532,0.045055,566,1051,-11.8905,-1.26116
-651,-27,-12.0499,1.00134,-0.00549957,0.00620597,0.000702287,0.00624795,-0.00554155,1.51109,0.00681075,0.0335054,573,1051,-12.0499,-1.00133
-644,-27,-12.103,1.203,-0.00478397,0.00540961,0.00025478,0.00541598,-0.00479033,1.54582,0.0058963,0.0157559,580,1051,-12.103,-1.20302
-637,-27,-12.1182,1.23792,-0.00503773,0.00485612,-0.000555813,0.00488724,-0.00506886,-1.51485,0.00574848,0.013126,587,1051,-12.1182,-1.23789
-630,-27,-12.1525,1.31702,-0.00396101,0.00402591,-0.00178129,0.00440518,-0.00434028,-1.36101,0.00504924,0.0175794,594,1051,-12.1525,-1.31702
-623,-27,-12.1412,1.33862,-0.00204598,0.0021401,-0.00255317,0.0033485,-0.00325438,-1.12874,0.0038123,0.0155844,601,1051,-12.1412,-1.33859
-616,-27,-12.0972,1.33911,-0.000729486,0.00104463,-0.00364613,0.00391005,-0.00359491,-0.904724,0.00433426,0.0128836,608,1051,-12.0972,-1.3391
-609,-27,-12.1137,1.36572,-0.000129224,0.000357092,-0.00438734,0.00450801,-0.00428014,-0.813081,0.0050744,0.0129277,615,1051,-12.1137,-1.36572
-602,-27,-12.1187,1.41443,-0.000105586,-6.85336e-05,-0.00501929,0.00493226,-0.00510638,-0.787244,0.0057961,0.0113886,622,1051,-12.1187,-1.41443
-595,-27,-12.1551,1.42078,-0.000282943,-0.000288207,-0.005686,0.00540043,-0.00597158,-0.785167,0.00656839,0.0100305,629,1051,-12.1551,-1.42082
-588,-27,-12.1688,1.04028,-0.000183237,-0.000324151,-0.00595321,0.00569993,-0.00620732,-0.779481,0.00687673,0.0150559,636,1051,-12.1687,-1.04028
-581,-27,-12.1212,0.679932,5.96613e-05,-0.000319265,-0.00580697,0.00568026,-0.00593986,-0.769091,0.00670944,0.0215609,643,1051,-12.1212,-0.679874
-574,-27,-12.1227,0.806885,0.000161228,-0.000154917,-0.00540781,0.00541327,-0.00540696,-0.770787,0.00624707,0.0361929,650,1051,-12.1227,-0.806886
-567,-27,-12.1097,0.948608,0.000270117,8.14162e-05,-0.00457706,0.0047538,-0.00440226,-0.775093,0.00528755,0.0440277,657,1051,-12.1097,-0.948624
-560,-27,-11.9122,0.719116,0.000455012,0.00033831,-0.00332349,0.00372066,-0.00292734,-0.776621,0.00384733,0.0444788,664,1051,-11.9121,-0.719157
-553,-27,-11.937,0.465088,0.000728622,0.000537876,-0.00167592,0.00231188,-0.00104538,-0.756975,0.00198376,0.0427082,671,1051,-11.937,-0.465108
-546,-27,-12.0958,0.506592,0.00108241,0.000586526,0.000319854,0.00123917,0.000429768,0.45569,0.000726539,0.0434476,678,1051,-12.0958,-0.506587
-539,-27,-12.2097,0.542725,0.0015619,0.000290862,0.002183,0.0032,-0.00134724,0.643752,0.00269701,0.0444136,685,1051,-12.2097,-0.542785
-532,-27,-12.1812,0.706299,0.00212553,-0.000316859,0.00270342,0.00387078,-0.00206211,0.573256,0.00347801,0.044131,692,1051,-12.1812,-0.706344
-525,-27,0,0,0,0,0,0,0,0,0,-1,699,1051,0,0
-518,-27,0,0,0,0,0,0,0,0,0,-1,706,1051,0,0
-511,-27,0,0,0,0,0,0,0,0,0,-1,713,1051,0,0
-504,-27,0,0,0,0,0,0,0,0,0,-1,720,1051,0,0
-497,-27,0,0,0,0,0,0,0,0,0,-1,727,1051,0,0
-490,-27,0,0,0,0,0,0,0,0,0,-1,734,1051,0,0
-483,-27,0,0,0,0,0,0,0,0,0,-1,741,1051,0,0
-476,-27,0,0,0,0,0,0,0,0,0,-1,748,1051,0,0
-469,-27,0,0,0,0,0,0,0,0,0,-1,755,1051,0,0
-462,-27,0,0,0,0,0,0,0,0,0,-1,762,1051,0,0
-455,-27,0,0,0,0,0,0,0,0,0,-1,769,1051,0,0
-448,-27,0,0,0,0,0,0,0,0,0,-1,776,1051,0,0
-441,-27,0,0,0,0,0,0,0,0,0,-1,783,1051,0,0
-434,-27,0,0,0,0,0,0,0,0,0,-1,790,1051,0,0
-427,-27,0,0,0,0,0,0,0,0,0,-1,797,1051,0,0
-420,-27,0,0,0,0,0,0,0,0,0,-1,804,1051,0,0
-413,-27,0,0,0,0,0,0,0,0,0,-1,811,1051,0,0
-406,-27,0,0,0,0,0,0,0,0,0,-1,818,1051,0,0
-399,-27,0,0,0,0,0,0,0,0,0,-1,825,1051,0,0
-392,-27,0,0,0,0,0,0,0,0,0,-1,832,1051,0,0
-385,-27,0,0,0,0,0,0,0,0,0,-1,839,1051,0,0
-378,-27,0,0,0,0,0,0,0,0,0,-1,846,1051,0,0
-371,-27,0,0,0,0,0,0,0,0,0,-1,853,1051,0,0
-364,-27,0,0,0,0,0,0,0,0,0,-1,860,1051,0,0
-357,-27,0,0,0,0,0,0,0,0,0,-1,867,1051,0,0
-350,-27,0,0,0,0,0,0,0,0,0,-1,874,1051,0,0
-343,-27,0,0,0,0,0,0,0,0,0,-1,881,1051,0,0
-336,-27,0,0,0,0,0,0,0,0,0,-1,888,1051,0,0
-329,-27,0,0,0,0,0,0,0,0,0,-1,895,1051,0,0
-322,-27,0,0,0,0,0,0,0,0,0,-1,902,1051,0,0
-315,-27,0,0,0,0,0,0,0,0,0,-1,909,1051,0,0
-308,-27,0,0,0,0,0,0,0,0,0,-1,916,1051,0,0
-301,-27,0,0,0,0,0,0,0,0,0,-1,923,1051,0,0
-294,-27,0,0,0,0,0,0,0,0,0,-1,930,1051,0,0
-287,-27,0,0,0,0,0,0,0,0,0,-1,937,1051,0,0
-280,-27,0,0,0,0,0,0,0,0,0,-1,944,1051,0,0
-273,-27,0,0,0,0,0,0,0,0,0,-1,951,1051,0,0
-266,-27,0,0,0,0,0,0,0,0,0,-1,958,1051,0,0
-259,-27,0,0,0,0,0,0,0,0,0,-1,965,1051,0,0
-252,-27,0,0,0,0,0,0,0,0,0,-1,972,1051,0,0
-245,-27,0,0,0,0,0,0,0,0,0,-1,979,1051,0,0
-238,-27,0,0,0,0,0,0,0,0,0,-1,986,1051,0,0
-231,-27,0,0,0,0,0,0,0,0,0,-1,993,1051,0,0
-224,-27,0,0,0,0,0,0,0,0,0,-1,1000,1051,0,0
-217,-27,0,0,0,0,0,0,0,0,0,-1,1007,1051,0,0
-210,-27,0,0,0,0,0,0,0,0,0,-1,1014,1051,0,0
-203,-27,0,0,0,0,0,0,0,0,0,-1,1021,1051,0,0
-196,-27,0,0,0,0,0,0,0,0,0,-1,1028,1051,0,0
-189,-27,0,0,0,0,0,0,0,0,0,-1,1035,1051,0,0
-182,-27,0,0,0,0,0,0,0,0,0,-1,1042,1051,0,0
-175,-27,0,0,0,0,0,0,0,0,0,-1,1049,1051,0,0
-168,-27,0,0,0,0,0,0,0,0,0,-1,1056,1051,0,0
-161,-27,0,0,0,0,0,0,0,0,0,-1,1063,1051,0,0
-154,-27,0,0,0,0,0,0,0,0,0,-1,1070,1051,0,0
-147,-27,0,0,0,0,0,0,0,0,0,-1,1077,1051,0,0
-140,-27,0,0,0,0,0,0,0,0,0,-1,1084,1051,0,0
-133,-27,0,0,0,0,0,0,0,0,0,-1,1091,1051,0,0
-126,-27,0,0,0,0,0,0,0,0,0,-1,1098,1051,0,0
-119,-27,0,0,0,0,0,0,0,0,0,-1,1105,1051,0,0
-112,-27,0,0,0,0,0,0,0,0,0,-1,1112,1051,0,0
-105,-27,0,0,0,0,0,0,0,0,0,-1,1119,1051,0,0
-98,-27,0,0,0,0,0,0,0,0,0,-1,1126,1051,0,0
-91,-27,0,0,0,0,0,0,0,0,0,-1,1133,1051,0,0
-84,-27,0,0,0,0,0,0,0,0,0,-1,1140,1051,0,0
-77,-27,0,0,0,0,0,0,0,0,0,-1,1147,1051,0,0
-70,-27,0,0,0,0,0,0,0,0,0,-1,1154,1051,0,0
-63,-27,0,0,0,0,0,0,0,0,0,-1,1161,1051,0,0
-56,-27,0,0,0,0,0,0,0,0,0,-1,1168,1051,0,0
-49,-27,0,0,0,0,0,0,0,0,0,-1,1175,1051,0,0
-42,-27,0,0,0,0,0,0,0,0,0,-1,1182,1051,0,0
-35,-27,0,0,0,0,0,0,0,0,0,-1,1189,1051,0,0
-28,-27,0,0,0,0,0,0,0,0,0,-1,1196,1051,0,0
-21,-27,0,0,0,0,0,0,0,0,0,-1,1203,1051,0,0
-14,-27,0,0,0,0,0,0,0,0,0,-1,1210,1051,0,0
-7,-27,0,0,0,0,0,0,0,0,0,-1,1217,1051,0,0
0,-27,0,0,0,0,0,0,0,0,0,-1,1224,1051,0,0
7,-27,0,0,0,0,0,0,0,0,0,-1,1231,1051,0,0
14,-27,0,0,0,0,0,0,0,0,0,-1,1238,1051,0,0
21,-27,0,0,0,0,0,0,0,0,0,-1,1245,1051,0,0
28,-27,0,0,0,0,0,0,0,0,0,-1,1252,1051,0,0
35,-27,0,0,0,0,0,0,0,0,0,-1,1259,1051,0,0
42,-27,0,0,0,0,0,0,0,0,0,-1,1266,1051,0,0
49,-27,0,0,0,0,0,0,0,0,0,-1,1273,1051,0,0
56,-27,0,0,0,0,0,0,0,0,0,-1,1280,1051,0,0
63,-27,0,0,0,0,0,0,0,0,0,-1,1287,1051,0,0
70,-27,0,0,0,0,0,0,0,0,0,-1,1294,1051,0,0
77,-27,0,0,0,0,0,0,0,0,0,-1,1301,1051,0,0
84,-27,0,0,0,0,0,0,0,0,0,-1,1308,1051,0,0
91,-27,0,0,0,0,0,0,0,0,0,-1,1315,1051,0,0
98,-27,0,0,0,0,0,0,0,0,0,-1,1322,1051,0,0
105,-27,0,0,0,0,0,0,0,0,0,-1,1329,1051,0,0
112,-27,0,0,0,0,0,0,0,0,0,-1,1336,1051,0,0
119,-27,0,0,0,0,0,0,0,0,0,-1,1343,1051,0,0
126,-27,0,0,0,0,0,0,0,0,0,-1,1350,1051,0,0
133,-27,0,0,0,0,0,0,0,0,0,-1,1357,1051,0,0
140,-27,0,0,0,0,0,0,0,0,0,-1,1364,1051,0,0
147,-27,0,0,0,0,0,0,0,0,0,-1,1371,1051,0,0
154,-27,0,0,0,0,0,0,0,0,0,-1,1378,1051,0,0
161,-27,0,0,0,0,0,0,0,0,0,-1,1385,1051,0,0
168,-27,0,0,0,0,0,0,0,0,0,-1,1392,1051,0,0
175,-27,0,0,0,0,0,0,0,0,0,-1,1399,1051,0,0
182,-27,0,0,0,0,0,0,0,0,0,-1,1406,1051,0,0
189,-27,0,0,0,0,0,0,0,0,0,-1,1413,1051,0,0
196,-27,0,0,0,0,0,0,0,0,0,-1,1420,1051,0,0
203,-27,0,0,0,0,0,0,0,0,0,-1,1427,1051,0,0
210,-27,0,0,0,0,0,0,0,0,0,-1,1434,1051,0,0
217,-27,0,0,0,0,0,0,0,0,0,-1,1441,1051,0,0
224,-27,0,0,0,0,0,0,0,0,0,-1,1448,1051,0,0
231,-27,0,0,0,0,0,0,0,0,0,-1,1455,1051,0,0
238,-27,0,0,0,0,0,0,0,0,0,-1,1462,1051,0,0
245,-27,0,0,0,0,0,0,0,0,0,-1,1469,1051,0,0
252,-27,0,0,0,0,0,0,0,0,0,-1,1476,1051,0,0
259,-27,0,0,0,0,0,0,0,0,0,-1,1483,1051,0,0
266,-27,0,0,0,0,0,0,0,0,0,-1,1490,1051,0,0
273,-27,0,0,0,0,0,0,0,0,0,-1,1497,1051,0,0
280,-27,0,0,0,0,0,0,0,0,0,-1,1504,1051,0,0
287,-27,0,0,0,0,0,0,0,0,0,-1,1511,1051,0,0
294,-27,0,0,0,0,0,0,0,0,0,-1,1518,1051,0,0
301,-27,0,0,0,0,0,0,0,0,0,-1,1525,1051,0,0
308,-27,0,0,0,0,0,0,0,0,0,-1,1532,1051,0,0
315,-27,0,0,0,0,0,0,0,0,0,-1,1539,1051,0,0
322,-27,0,0,0,0,0,0,0,0,0,-1,1546,1051,0,0
329,-27,0,0,0,0,0,0,0,0,0,-1,1553,1051,0,0
336,-27,0,0,0,0,0,0,0,0,0,-1,1560,1051,0,0
343,-27,0,0,0,0,0,0,0,0,0,-1,1567,1051,0,0
350,-27,0,0,0,0,0,0,0,0,0,-1,1574,1051,0,0
357,-27,0,0,0,0,0,0,0,0,0,-1,1581,1051,0,0
364,-27,0,0,0,0,0,0,0,0,0,-1,1588,1051,0,0
371,-27,0,0,0,0,0,0,0,0,0,-1,1595,1051,0,0
378,-27,0,0,0,0,0,0,0,0,0,-1,1602,1051,0,0
385,-27,0,0,0,0,0,0,0,0,0,-1,1609,1051,0,0
392,-27,0,0,0,0,0,0,0,0,0,-1,1616,1051,0,0
399,-27,0,0,0,0,0,0,0,0,0,-1,1623,1051,0,0
406,-27,0,0,0,0,0,0,0,0,0,-1,1630,1051,0,0
413,-27,0,0,0,0,0,0,0,0,0,-1,1637,1051,0,0
420,-27,0,0,0,0,0,0,0,0,0,-1,1644,1051,0,0
427,-27,0,0,0,0,0,0,0,0,0,-1,1651,1051,0,0
434,-27,0,0,0,0,0,0,0,0,0,-1,1658,1051,0,0
441,-27,0,0,0,0,0,0,0,0,0,-1,1665,1051,0,0
448,-27,0,0,0,0,0,0,0,0,0,-1,1672,1051,0,0
455,-27,0,0,0,0,0,0,0,0,0,-1,1679,1051,0,0
462,-27,0,0,0,0,0,0,0,0,0,-1,1686,1051,0,0
469,-27,0,0,0,0,0,0,0,0,0,-1,1693,1051,0,0
476,-27,0,0,0,0,0,0,0,0,0,-1,1700,1051,0,0
483,-27,0,0,0,0,0,0,0,0,0,-1,1707,1051,0,0
490,-27,0,0,0,0,0,0,0,0,0,-1,1714,1051,0,0
497,-27,0,0,0,0,0,0,0,0,0,-1,1721,1051,0,0
504,-27,0,0,0,0,0,0,0,0,0,-1,1728,1051,0,0
511,-27,0,0,0,0,0,0,0,0,0,-1,1735,1051,0,0
518,-27,0,0,0,0,0,0,0,0,0,-1,1742,1051,0,0
525,-27,0,0,0,0,0,0,0,0,0,-1,1749,1051,0,0
532,-27,0,0,0,0,0,0,0,0,0,-1,1756,1051,0,0
539,-27,0,0,0,0,0,0,0,0,0,-1,1763,1051,0,0
546,-27,0,0,0,0,0,0,0,0,0,-1,1770,1051,0,0
553,-27,0,0,0,0,0,0,0,0,0,-1,1777,1051,0,0
560,-27,0,0,0,0,0,0,0,0,0,-1,1784,1051,0,0
567,-27,0,0,0,0,0,0,0,0,0,-1,1791,1051,0,0
574,-27,0,0,0,0,0,0,0,0,0,-1,1798,1051,0,0
581,-27,0,0,0,0,0,0,0,0,0,-1,1805,1051,0,0
588,-27,0,0,0,0,0,0,0,0,0,-1,1812,1051,0,0
595,-27,0,0,0,0,0,0,0,0,0,-1,1819,1051,0,0
602,-27,0,0,0,0,0,0,0,0,0,-1,1826,1051,0,0
609,-27,0,0,0,0,0,0,0,0,0,-1,1833,1051,0,0
616,-27,0,0,0,0,0,0,0,0,0,-1,1840,1051,0,0
623,-27,0,0,0,0,0,0,0,0,0,-1,1847,1051,0,0
630,-27,0,0,0,0,0,0,0,0,0,-1,1854,1051,0,0
637,-27,0,0,0,0,0,0,0,0,0,-1,1861,1051,0,0
644,-27,0,0,0,0,0,0,0,0,0,-1,1868,1051,0,0
651,-27,18.7858,2.76294,-0.000567525,0.000635292,-0.00154089,0.00168798,-0.00162021,-0.971456,0.00191012,0.0397679,1875,1051,18.7857,-2.76291
658,-27,18.7531,2.67175,-0.00020088,0.000984466,-0.00120883,0.0017381,-0.000954511,-1.01332,0.00157637,0.0383098,1882,1051,18.753,-2.67181
665,-27,18.797,2.5752,1.35122e-06,0.00111231,-0.000854523,0.00157603,-0.000462369,-1.0736,0.00123403,0.0346547,1889,1051,18.7971,-2.57515
672,-27,18.7375,2.67175,0.000137685,0.00103305,-0.000143093,0.00105536,0.000115372,-1.41611,0.000668444,0.0284541,1896,1051,18.7376,-2.67178
679,-27,18.7592,2.52856,-0.000285587,0.000768897,0.00108251,0.00144573,-0.000962422,1.01202,0.00139965,0.0281208,1903,1051,18.7592,-2.52861
686,-27,18.8656,2.55212,-0.00101066,0.000423716,0.00236463,0.00217753,-0.00276447,0.932638,0.00285996,0.0410043,1910,1051,18.8656,-2.55216
693,-27,18.8582,2.58679,-0.00169399,5.92975e-05,0.00351789,0.00280813,-0.00444282,0.907509,0.00422165,0.0449403,1917,1051,18.8581,-2.58681
700,-27,18.8348,2.5249,-0.00234389,-0.000224383,0.00448267,0.0033221,-0.00589037,0.901472,0.00538728,0.0388978,1924,1051,18.8349,-2.52487
707,-27,18.7986,2.58667,-0.00284349,-0.000480292,0.00514866,0.00362062,-0.0069444,0.898193,0.00619952,0.0233115,1931,1051,18.7986,-2.58669
714,-27,18.8442,2.63074,-0.00328876,-0.000669976,0.00564871,0.00381912,-0.00777785,0.899288,0.00682431,0.0171173,1938,1051,18.8443,-2.63071
721,-27,18.8987,2.81531,-0.00365014,-0.000772156,0.00588771,0.00384986,-0.00827215,0.905252,0.0071522,0.0185448,1945,1051,18.8987,-2.81535
728,-27,18.6923,3.39905,-0.00390803,-0.000702506,0.00579167,0.00370408,-0.00831462,0.920388,0.00710715,0.0232772,1952,1051,18.6923,-3.39907
735,-27,18.4091,3.68469,-0.0040819,-0.000462861,0.0052973,0.00332546,-0.00787022,0.949981,0.00663898,0.0172523,1959,1051,18.4091,-3.68467
742,-27,18.4271,3.70569,-0.00430391,-1.34351e-05,0.00455546,0.00287663,-0.00719397,1.00545,0.00598972,0.0160678,1966,1051,18.4271,-3.70566
749,-27,18.4772,3.69861,-0.00465165,0.000152393,0.00388976,0.00232202,-0.00682127,1.062,0.00548779,0.0119841,1973,1051,18.4771,-3.69865
756,-27,18.4689,3.70007,-0.00499409,0.000354693,0.00283017,0.00157417,-0.00621357,1.16395,0.00475477,0.0110352,1980,1051,18.4688,-3.70009
763,-27,18.4509,3.68018,-0.00590039,-0.000299188,0.00149404,7.44085e-05,-0.00627398,1.32576,0.00420768,0.0128866,1987,1051,18.4509,-3.68023
770,-27,18.4398,3.66345,-0.0070923,-0.000775468,0.000129775,-0.000772804,-0.00709496,1.55026,0.00449458,0.0145923,1994,1051,18.4399,-3.66351
777,-27,18.4183,3.66907,-0.00878899,-0.00193219,-0.00120564,-0.00172638,-0.0089948,-1.40172,0.00551194,0.0150165,2001,1051,18.4183,-3.66901
784,-27,18.3812,3.67554,-0.011337,-0.0039262,-0.00224349,-0.00329995,-0.0119633,-1.29858,0.00713463,0.0230329,2008,1051,18.3813,-3.67554
791,-27,18.3479,3.69458,-0.0149841,-0.00715685,-0.00319178,-0.00602033,-0.0161206,-1.22872,0.00940608,0.0413989,2015,1051,18.3479,-3.69463
798,-27,18.427,3.72961,-0.0194483,-0.0119781,-0.00441644,-0.00992911,-0.0214973,-1.1364,0.0124235,0.0442564,2022,1051,18.427,-3.72964
805,-27,18.0997,4.49744,-0.0246962,-0.018887,-0.00610278,-0.0150329,-0.0285503,-1.00751,0.0164913,0.0457455,2029,1051,18.0997,-4.49749
812,-27,17.3416,4.16516,-0.030991,-0.0285838,-0.00848029,-0.0212221,-0.0383527,-0.855892,0.0221849,0.0440958,2036,1051,17.3415,-4.1652
-700,-34,-13.4936,2.40906,0,0,0,0,0,0,0,-1,524,1058,-13.4936,-2.40909
-693,-34,-13.0721,2.13477,0.0348638,-0.00395469,-0.000635812,0.0348742,-0.0039651,-0.0163733,0.0246776,0.0450088,531,1058,-13.0721,-2.13472
-686,-34,-12.6107,1.85156,0.0193661,0.00292523,-3.3891e-05,0.0193662,0.00292516,-0.00206137,0.0120546,0.0439528,538,1058,-12.6106,-1.85158
-679,-34,-12.2975,1.29346,0.00892124,0.00694538,0.000340422,0.00897824,0.00688837,0.16592,0.00542476,0.0437365,545,1058,-12.2975,-1.29346
-672,-34,-12.3278,1.07605,0.00233707,0.00892121,0.000570726,0.00897031,0.00228796,1.48497,0.00538217,0.0438878,552,1058,-12.3278,-1.07608
-665,-34,-12.1295,1.27649,-0.00139038,0.00945561,0.000685884,0.00949881,-0.00143358,1.50789,0.00686051,0.042569,559,1058,-12.1295,-1.27651
-658,-34,-11.853,1.27222,-0.00315438,0.0090163,0.000714475,0.0090581,-0.00319618,1.51236,0.00733988,0.0399161,566,1058,-11.853,-1.27218
-651,-34,-11.9575,1.22754,-0.00365716,0.00796393,0.000651615,0.00800036,-0.00369358,1.51496,0.00690244,0.0265448,573,1058,-11.9575,-1.2275
-644,-34,-12.0757,1.18799,-0.00356062,0.00662702,0.000274493,0.00663441,-0.00356801,1.54388,0.0059784,0.0112384,580,1058,-12.0757,-1.18794
-637,-34,-12.1039,1.20972,-0.0044683,0.00559902,-0.000521078,0.00562592,-0.0044952,-1.51922,0.00585557,0.0123052,587,1058,-12.104,-1.20968
-630,-34,-12.1226,1.28503,-0.00383058,0.00426882,-0.00174254,0.00462781,-0.00418956,-1.36763,0.00509281,0.0152419,594,1058,-12.1226,-1.28504
-623,-34,-12.0844,1.3269,-0.00207713,0.0021965,-0.0025588,0.00339337,-0.003274,-1.13328,0.00384961,0.0124455,601,1058,-12.0844,-1.32687
-616,-34,-12.0591,1.37317,-0.000879049,0.0009909,-0.00374822,0.003919,-0.00380715,-0.907626,0.00446085,0.0186723,608,1058,-12.0591,-1.37314
-609,-34,-12.0789,1.39172,-0.000391655,0.000213726,-0.00456918,0.00449024,-0.00466816,-0.818473,0.00528794,0.0191856,615,1058,-12.0789,-1.39176
-602,-34,-12.0966,1.41748,-0.000412271,-0.000280986,-0.00524072,0.0048945,-0.00558776,-0.791661,0.00605634,0.0151258,622,1058,-12.0965,-1.41753
-595,-34,-12.1434,1.56445,0,0,0,0,0,0,0,-1,629,1058,-12.1434,-1.56449
-588,-34,-12.1431,1.03577,-0.000537223,-0.000599509,-0.00617365,0.00560536,-0.00674209,-0.782876,0.00713887,0.0193795,636,1058,-12.1431,-1.03581
-581,-34,-12.1269,0.630859,-0.000296916,-0.000617621,-0.00596834,0.00551322,-0.00642776,-0.771968,0.00690087,0.0230527,643,1058,-12.1269,-0.630877
-574,-34,-12.085,0.771973,-0.000182563,-0.000477078,-0.00549789,0.00517004,-0.00582968,-0.772009,0.0063545,0.0372022,650,1058,-12.085,-0.772005
-567,-34,-12.0502,0.893188,-2.31303e-05,-0.000266321,-0.0045481,0.004405,-0.00469445,-0.772034,0.00525446,0.0417654,657,1058,-12.0503,-0.89318
-560,-34,-12.0515,0.737671,0.000248938,-3.84774e-05,-0.003121,0.00322954,-0.00301908,-0.762392,0.00360832,0.0405166,664,1058,-12.0515,-0.737659
-553,-34,-12.1945,0.62561,0.000650243,0.000129525,-0.00124101,0.00165791,-0.00087814,-0.681999,0.00148708,0.0425841,671,1058,-12.1944,-0.625598
-546,-34,-12.2703,0.673462,0.0011777,0.000145804,0.00105434,0.00183557,-0.000512061,0.55785,0.0014254,0.0440126,678,1058,-12.2702,-0.673484
-539,-34,-12.2148,0.574585,0.00184518,-0.000181957,0.00326152,0.00424699,-0.00258377,0.634746,0.00398252,0.0407462,685,1058,-12.2149,-0.574537
-532,-34,-12.0326,0.5177,0.00254103,-0.000916619,0.00405352,0.005219,-0.00359459,0.583828,0.00511725,0.040454,692,1058,-12.0326,-0.517646
-525,-34,0,0,0,0,0,0,0,0,0,-1,699,1058,0,0
-518,-34,0,0,0,0,0,0,0,0,0,-1,706,1058,0,0
-511,-34,0,0,0,0,0,0,0,0,0,-1,713,1058,0,0
-504,-34,0,0,0,0,0,0,0,0,0,-1,720,1058,0,0
-497,-34,0,0,0,0,0,0,0,0,0,-1,727,1058,0,0
-490,-34,0,0,0,0,0,0,0,0,0,-1,734,1058,0,0
-483,-34,0,0,0,0,0,0,0,0,0,-1,741,1058,0,0
-476,-34,0,0,0,0,0,0,0,0,0,-1,748,1058,0,0
-469,-34,0,0,0,0,0,0,0,0,0,-1,755,1058,0,0
-462,-34,0,0,0,0,0,0,0,0,0,-1,762,1058,0,0
-455,-34,0,0,0,0,0,0,0,0,0,-1,769,1058,0,0
-448,-34,0,0,0,0,0,0,0,0,0,-1,776,1058,0,0
-441,-34,0,0,0,0,0,0,0,0,0,-1,783,1058,0,0
-434,-34,0,0,0,0,0,0,0,0,0,-1,790,1058,0,0
-427,-34,0,0,0,0,0,0,0,0,0,-1,797,1058,0,0
-420,-34,0,0,0,0,0,0,0,0,0,-1,804,1058,0,0
-413,-34,0,0,0,0,0,0,0,0,0,-1,811,1058,0,0
-406,-34,0,0,0,0,0,0,0,0,0,-1,818,1058,0,0
-399,-34,0,0,0,0,0,0,0,0,0,-1,825,1058,0,0
-392,-34,0,0,0,0,0,0,0,0,0,-1,832,1058,0,0
-385,-34,0,0,0,0,0,0,0,0,0,-1,839,1058,0,0
-378,-34,0,0,0,0,0,0,0,0,0,-1,846,1058,0,0
-371,-34,0,0,0,0,0,0,0,0,0,-1,853,1058,0,0
-364,-34,0,0,0,0,0,0,0,0,0,-1,860,1058,0,0
-357,-34,0,0,0,0,0,0,0,0,0,-1,867,1058,0,0
-350,-34,0,0,0,0,0,0,0,0,0,-1,874,1058,0,0
-343,-34,0,0,0,0,0,0,0,0,0,-1,881,1058,0,0
-336,-34,0,0,0,0,0,0,0,0,0,-1,888,1058,0,0
-329,-34,0,0,0,0,0,0,0,0,0,-1,895,1058,0,0
-322,-34,0,0,0,0,0,0,0,0,0,-1,902,1058,0,0
-315,-34,0,0,0,0,0,0,0,0,0,-1,909,1058,0,0
-308,-34,0,0,0,0,0,0,0,0,0,-1,916,1058,0,0
-301,-34,0,0,0,0,0,0,0,0,0,-1,923,1058,0,0
-294,-34,0,0,0,0,0,0,0,0,0,-1,930,1058,0,0
-287,-34,0,0,0,0,0,0,0,0,0,-1,937,1058,0,0
-280,-34,0,0,0,0,0,0,0,0,0,-1,944,1058,0,0
-273,-34,0,0,0,0,0,0,0,0,0,-1,951,1058,0,0
-266,-34,0,0,0,0,0,0,0,0,0,-1,958,1058,0,0
-259,-34,0,0,0,0,0,0,0,0,0,-1,965,1058,0,0
-252,-34,0,0,0,0,0,0,0,0,0,-1,972,1058,0,0
-245,-34,0,0,0,0,0,0,0,0,0,-1,979,1058,0,0
-238,-34,0,0,0,0,0,0,0,0,0,-1,986,1058,0,0
-231,-34,0,0,0,0,0,0,0,0,0,-1,993,1058,0,0
-224,-34,0,0,0,0,0,0,0,0,0,-1,1000,1058,0,0
-217,-34,0,0,0,0,0,0,0,0,0,-1,1007,1058,0,0
-210,-34,0,0,0,0,0,0,0,0,0,-1,1014,1058,0,0
-203,-34,0,0,0,0,0,0,0,0,0,-1,1021,1058,0,0
-196,-34,0,0,0,0,0,0,0,0,0,-1,1028,1058,0,0
-189,-34,0,0,0,0,0,0,0,0,0,-1,1035,1058,0,0
-182,-34,0,0,0,0,0,0,0,0,0,-1,1042,1058,0,0
-175,-34,0,0,0,0,0,0,0,0,0,-1,1049,1058,0,0
-168,-34,0,0,0,0,0,0,0,0,0,-1,1056,1058,0,0
-161,-34,0,0,0,0,0,0,0,0,0,-1,1063,1058,0,0
-154,-34,0,0,0,0,0,0,0,0,0,-1,1070,1058,0,0
-147,-34,0,0,0,0,0,0,0,0,0,-1,1077,1058,0,0
-140,-34,0,0,0,0,0,0,0,0,0,-1,1084,1058,0,0
-133,-34,0,0,0,0,0,0,0,0,0,-1,1091,1058,0,0
-126,-34,0,0,0,0,0,0,0,0,0,-1,1098,1058,0,0
-119,-34,0,0,0,0,0,0,0,0,0,-1,1105,1058,0,0
-112,-34,0,0,0,0,0,0,0,0,0,-1,1112,1058,0,0
-105,-34,0,0,0,0,0,0,0,0,0,-1,1119,1058,0,0
-98,-34,0,0,0,0,0,0,0,0,0,-1,1126,1058,0,0
-91,-34,0,0,0,0,0,0,0,0,0,-1,1133,1058,0,0
-84,-34,0,0,0,0,0,0,0,0,0,-1,1140,1058,0,0
-77,-34,0,0,0,0,0,0,0,0,0,-1,1147,1058,0,0
-70,-34,0,0,0,0,0,0,0,0,0,-1,1154,1058,0,0
-63,-34,0,0,0,0,0,0,0,0,0,-1,1161,1058,0,0
-56,-34,0,0,0,0,0,0,0,0,0,-1,1168,1058,0,0
-49,-34,0,0,0,0,0,0,0,0,0,-1,1175,1058,0,0
-42,-34,0,0,0,0,0,0,0,0,0,-1,1182,1058,0,0
-35,-34,0,0,0,0,0,0,0,0,0,-1,1189,1058,0,0
-28,-34,0,0,0,0,0,0,0,0,0,-1,1196,1058,0,0
-21,-34,0,0,0,0,0,0,0,0,0,-1,1203,1058,0,0
-14,-34,0,0,0,0,0,0,0,0,0,-1,1210,1058,0,0
-7,-34,0,0,0,0,0,0,0,0,0,-1,1217,1058,0,0
0,-34,0,0,0,0,0,0,0,0,0,-1,1224,1058,0,0
7,-34,0,0,0,0,0,0,0,0,0,-1,1231,1058,0,0
14,-34,0,0,0,0,0,0,0,0,0,-1,1238,1058,0,0
21,-34,0,0,0,0,0,0,0,0,0,-1,1245,1058,0,0
28,-34,0,0,0,0,0,0,0,0,0,-1,1252,1058,0,0
35,-34,0,0,0,0,0,0,0,0,0,-1,1259,1058,0,0
42,-34,0,0,0,0,0,0,0,0,0,-1,1266,1058,0,0
49,-34,0,0,0,0,0,0,0,0,0,-1,1273,1058,0,0
56,-34,0,0,0,0,0,0,0,0,0,-1,1280,1058,0,0
63,-34,0,0,0,0,0,0,0,0,0,-1,1287,1058,0,0
70,-34,0,0,0,0,0,0,0,0,0,-1,1294,1058,0,0
77,-34,0,0,0,0,0,0,0,0,0,-1,1301,1058,0,0
84,-34,0,0,0,0,0,0,0,0,0,-1,1308,1058,0,0
91,-34,0,0,0,0,0,0,0,0,0,-1,1315,1058,0,0
98,-34,0,0,0,0,0,0,0,0,0,-1,1322,1058,0,0
105,-34,0,0,0,0,0,0,0,0,0,-1,1329,1058,0,0
112,-34,0,0,0,0,0,0,0,0,0,-1,1336,1058,0,0
119,-34,0,0,0,0,0,0,0,0,0,-1,1343,1058,0,0
126,-34,0,0,0,0,0,0,0,0,0,-1,1350,1058,0,0
133,-34,0,0,0,0,0,0,0,0,0,-1,1357,1058,0,0
140,-34,0,0,0,0,0,0,0,0,0,-1,1364,1058,0,0
147,-34,0,0,0,0,0,0,0,0,0,-1,1371,1058,0,0
154,-34,0,0,0,0,0,0,0,0,0,-1,1378,1058,0,0
161,-34,0,0,0,0,0,0,0,0,0,-1,1385,1058,0,0
168,-34,0,0,0,0,0,0,0,0,0,-1,1392,1058,0,0
175,-34,0,0,0,0,0,0,0,0,0,-1,1399,1058,0,0
182,-34,0,0,0,0,0,0,0,0,0,-1,1406,1058,0,0
189,-34,0,0,0,0,0,0,0,0,0,-1,1413,1058,0,0
196,-34,0,0,0,0,0,0,0,0,0,-1,1420,1058,0,0
203,-34,0,0,0,0,0,0,0,0,0,-1,1427,1058,0,0
210,-34,0,0,0,0,0,0,0,0,0,-1,1434,1058,0,0
217,-34,0,0,0,0,0,0,0,0,0,-1,1441,1058,0,0
224,-34,0,0,0,0,0,0,0,0,0,-1,1448,1058,0,0
231,-34,0,0,0,0,0,0,0,0,0,-1,1455,1058,0,0
238,-34,0,0,0,0,0,0,0,0,0,-1,1462,1058,0,0
245,-34,0,0,0,0,0,0,0,0,0,-1,1469,1058,0,0
252,-34,0,0,0,0,0,0,0,0,0,-1,1476,1058,0,0
259,-34,0,0,0,0,0,0,0,0,0,-1,1483,1058,0,0
266,-34,0,0,0,0,0,0,0,0,0,-1,1490,1058,0,0
273,-34,0,0,0,0,0,0,0,0,0,-1,1497,1058,0,0
280,-34,0,0,0,0,0,0,0,0,0,-1,1504,1058,0,0
287,-34,0,0,0,0,0,0,0,0,0,-1,1511,1058,0,0
294,-34,0,0,0,0,0,0,0,0,0,-1,1518,1058,0,0
301,-34,0,0,0,0,0,0,0,0,0,-1,1525,1058,0,0
308,-34,0,0,0,0,0,0,0,0,0,-1,1532,1058,0,0
315,-34,0,0,0,0,0,0,0,0,0,-1,1539,1058,0,0
322,-34,0,0,0,0,0,0,0,0,0,-1,1546,1058,0,0
329,-34,0,0,0,0,0,0,0,0,0,-1,1553,1058,0,0
336,-34,0,0,0,0,0,0,0,0,0,-1,1560,1058,0,0
343,-34,0,0,0,0,0,0,0,0,0,-1,1567,1058,0,0
350,-34,0,0,0,0,0,0,0,0,0,-1,1574,1058,0,0
357,-34,0,0,0,0,0,0,0,0,0,-1,1581,1058,0,0
364,-34,0,0,0,0,0,0,0,0,0,-1,1588,1058,0,0
371,-34,0,0,0,0,0,0,0,0,0,-1,1595,1058,0,0
378,-34,0,0,0,0,0,0,0,0,0,-1,1602,1058,0,0
385,-34,0,0,0,0,0,0,0,0,0,-1,1609,1058,0,0
392,-34,0,0,0,0,0,0,0,0,0,-1,1616,1058,0,0
399,-34,0,0,0,0,0,0,0,0,0,-1,1623,1058,0,0
406,-34,0,0,0,0,0,0,0,0,0,-1,1630,1058,0,0
413,-34,0,0,0,0,0,0,0,0,0,-1,1637,1058,0,0
420,-34,0,0,0,0,0,0,0,0,0,-1,1644,1058,0,0
427,-34,0,0,0,0,0,0,0,0,0,-1,1651,1058,0,0
434,-34,0,0,0,0,0,0,0,0,0,-1,1658,1058,0,0
441,-34,0,0,0,0,0,0,0,0,0,-1,1665,1058,0,0
448,-34,0,0,0,0,0,0,0,0,0,-1,1672,1058,0,0
455,-34,0,0,0,0,0,0,0,0,0,-1,1679,1058,0,0
462,-34,0,0,0,0,0,0,0,0,0,-1,1686,1058,0,0
469,-34,0,0,0,0,0,0,0,0,0,-1,1693,1058,0,0
476,-34,0,0,0,0,0,0,0,0,0,-1,1700,1058,0,0
483,-34,0,0,0,0,0,0,0,0,0,-1,1707,1058,0,0
490,-34,0,0,0,0,0,0,0,0,0,-1,1714,1058,0,0
497,-34,0,0,0,0,0,0,0,0,0,-1,1721,1058,0,0
504,-34,0,0,0,0,0,0,0,0,0,-1,1728,1058,0,0
511,-34,0,0,0,0,0,0,0,0,0,-1,1735,1058,0,0
518,-34,0,0,0,0,0,0,0,0,0,-1,1742,1058,0,0
525,-34,0,0,0,0,0,0,0,0,0,-1,1749,1058,0,0
532,-34,0,0,0,0,0,0,0,0,0,-1,1756,1058,0,0
539,-34,0,0,0,0,0,0,0,0,0,-1,1763,1058,0,0
546,-34,0,0,0,0,0,0,0,0,0,-1,1770,1058,0,0
553,-34,0,0,0,0,0,0,0,0,0,-1,1777,1058,0,0
560,-34,0,0,0,0,0,0,0,0,0,-1,1784,1058,0,0
567,-34,0,0,0,0,0,0,0,0,0,-1,1791,1058,0,0
574,-34,0,0,0,0,0,0,0,0,0,-1,1798,1058,0,0
581,-34,0,0,0,0,0,0,0,0,0,-1,1805,1058,0,0
588,-34,0,0,0,0,0,0,0,0,0,-1,1812,1058,0,0
595,-34,0,0,0,0,0,0,0,0,0,-1,1819,1058,0,0
602,-34,0,0,0,0,0,0,0,0,0,-1,1826,1058,0,0
609,-34,0,0,0,0,0,0,0,0,0,-1,1833,1058,0,0
616,-34,0,0,0,0,0,0,0,0,0,-1,1840,1058,0,0
623,-34,0,0,0,0,0,0,0,0,0,-1,1847,1058,0,0
630,-34,0,0,0,0,0,0,0,0,0,-1,1854,1058,0,0
637,-34,0,0,0,0,0,0,0,0,0,-1,1861,1058,0,0
644,-34,0,0,0,0,0,0,0,0,0,-1,1868,1058,0,0
651,-34,18.9292,2.65552,3.59999e-05,0.000697446,-0.00178582,0.00218291,-0.00144947,-0.876958,0.00211136,0.0397177,1875,1058,18.9293,-2.65552
658,-34,18.8717,2.67419,0.000164089,0.000929128,-0.00141417,0.0020116,-0.000918381,-0.917483,0.00173043,0.0391759,1882,1058,18.8717,-2.67424
665,-34,18.7438,2.54114,0.000253437,0.00100109,-0.000998326,0.00169328,-0.000438758,-0.964543,0.00130003,0.0390363,1889,1058,18.7438,-2.54118
672,-34,18.6549,2.54602,0.000320262,0.000854034,-0.000194716,0.000917515,0.000256781,-1.25564,0.000546573,0.0369585,1896,1058,18.6549,-2.546
679,-34,18.6615,2.5498,-0.000150206,0.000509343,0.00112305,0.00135003,-0.000990897,0.928205,0.00135683,0.0365518,1903,1058,18.6616,-2.54977
686,-34,18.7825,2.60632,-0.000914164,9.8848e-05,0.00247322,0.0021169,-0.00293221,0.8864,0.00292775,0.0427055,1910,1058,18.7824,-2.6063
693,-34,18.8486,2.63342,-0.00162728,-0.000315162,0.00367538,0.00276225,-0.00470469,0.873718,0.00435939,0.0453164,1917,1058,18.8487,-2.63342
700,-34,18.8682,2.60193,-0.00231048,-0.000642301,0.00466448,0.00326208,-0.00621486,0.873872,0.00555934,0.0410118,1924,1058,18.8682,-2.60193
707,-34,18.7874,2.59827,-0.0028567,-0.000911995,0.00534215,0.00354557,-0.00731427,0.87542,0.00639454,0.0241396,1931,1058,18.7874,-2.59823
714,-34,18.8282,2.64587,-0.00330831,-0.00110095,0.0058526,0.00375112,-0.00816038,0.878594,0.00703241,0.0159038,1938,1058,18.8282,-2.64593
721,-34,18.9205,2.90674,-0.0036392,-0.00117866,0.00607661,0.00379097,-0.00860883,0.885278,0.00733695,0.0231509,1945,1058,18.9206,-2.90675
728,-34,18.6639,3.47974,-0.00388363,-0.0010868,0.00594314,0.00362023,-0.00859066,0.900946,0.00724203,0.0233212,1952,1058,18.664,-3.47975
735,-34,18.4053,3.72864,-0.00408607,-0.000822462,0.00540974,0.00319623,-0.00810476,0.931879,0.00672665,0.0142408,1959,1058,18.4052,-3.72863
742,-34,18.389,3.71289,-0.00434901,-0.00033858,0.00464784,0.00271815,-0.00740574,0.98905,0.00605028,0.0141363,1966,1058,18.389,-3.71287
749,-34,18.4363,3.7168,-0.0047267,-0.000148342,0.0039715,0.00214649,-0.00702153,1.04684,0.00553698,0.0120871,1973,1058,18.4363,-3.71675
756,-34,18.4642,3.70288,-0.00480285,0.000265045,0.00288904,0.00157394,-0.00611174,1.1454,0.00468806,0.00936801,1980,1058,18.4643,-3.70282
763,-34,18.4525,3.66895,-0.00524434,-0.000102397,0.00162238,0.000366698,-0.00571343,1.28933,0.00393688,0.0105267,1987,1058,18.4525,-3.66899
770,-34,18.4146,3.64575,-0.00595467,-0.000261437,0.000313458,-0.00024423,-0.00597188,1.51596,0.00390239,0.0160027,1994,1058,18.4145,-3.64574
777,-34,18.3929,3.66565,-0.00691219,-0.000963947,-0.000905504,-0.000829156,-0.00704698,-1.42302,0.00444744,0.01709,2001,1058,18.3929,-3.66564
784,-34,18.379,3.6582,-0.00839673,-0.00234349,-0.00175112,-0.00187342,-0.0088668,-1.30854,0.00539624,0.0328066,2008,1058,18.379,-3.65816
791,-34,18.5835,3.48987,-0.0105264,-0.00470459,-0.00244229,-0.00381573,-0.0114152,-1.22175,0.00671017,0.0458429,2015,1058,18.5835,-3.48992
798,-34,18.712,3.30957,0,0,0,0,0,0,0,-1,2022,1058,18.7121,-3.30959
805,-34,18.4697,5.10559,0,0,0,0,0,0,0,-1,2029,1058,18.4697,-5.10553
812,-34,17.5452,4.86401,0,0,0,0,0,0,0,-1,2036,1058,17.5452,-4.86398
-700,-41,-13.5198,2.41113,0.0694901,-0.00282172,-0.0076321,0.0702869,-0.00361846,-0.104017,0.0481095,0.0463773,524,1065,-13.5198,-2.41116
-693,-41,-13.2214,2.11707,0.0449749,0.00579317,-0.00591861,0.0458494,0.00491865,-0.146696,0.0290658,0.0449147,531,1065,-13.2214,-2.11709
-686,-41,-12.7326,1.45789,0.0273505,0.010663,-0.00411739,0.0283111,0.00970236,-0.229205,0.0166129,0.043505,538,1065,-12.7326,-1.45787
-679,-41,-11.8513,-0.0758057,0.0149976,0.0129602,-0.00265567,0.0168233,0.0111346,-0.602257,0.00988109,0.0416989,545,1065,-11.8512,0.0758319
-672,-41,-12.374,0.505981,0.00680043,0.0134892,-0.00151132,0.0138148,0.0064748,-1.35858,0.0079812,0.0416777,552,1065,-12.374,-0.505928
-665,-41,-12.3951,1.06653,0.00177124,0.0128346,-0.000672114,0.0128753,0.00173056,-1.51034,0.0080688,0.0388637,559,1065,-12.3951,-1.06647
-658,-41,-11.98,1.26086,-0.000995626,0.0114445,-0.000102655,0.0114453,-0.000996473,-1.56255,0.00798312,0.0351043,566,1065,-11.98,-1.26083
-651,-41,-11.8911,1.20715,-0.00223427,0.00965603,0.000224876,0.00966028,-0.00223852,1.55189,0.00730165,0.0258754,573,1065,-11.8911,-1.20711
-644,-41,-12.0391,1.17383,-0.00264821,0.00778848,9.66482e-05,0.00778938,-0.0026491,1.56154,0.0062655,0.0115437,580,1065,-12.0391,-1.17383
-637,-41,-12.0623,1.19104,-0.00416423,0.00622585,-0.000489913,0.0062489,-0.00418728,-1.52378,0.00606439,0.0120373,587,1065,-12.0623,-1.19107
-630,-41,-12.0635,1.24976,-0.00387048,0.00443131,-0.00162715,0.00473884,-0.00417801,-1.384,0.00515154,0.0120416,594,1065,-12.0635,-1.24981
-623,-41,-12.044,1.3147,-0.00228295,0.00220841,-0.00244994,0.00328618,-0.00336071,-1.15636,0.00383766,0.0116179,601,1065,-12.044,-1.31476
-616,-41,-12.026,1.37439,-0.00116802,0.000920166,-0.00373779,0.00375695,-0.0040048,-0.921594,0.00448201,0.0157151,608,1065,-12.026,-1.3744
-609,-41,-12.032,1.4021,-0.000783108,4.13322e-05,-0.00465216,0.0042995,-0.00504128,-0.829587,0.00539857,0.021333,615,1065,-12.032,-1.40208
-602,-41,-12.0315,1.4231,-0.000845586,-0.000519682,-0.00539144,0.00471127,-0.00607654,-0.800506,0.00624494,0.0127781,622,1065,-12.0315,-1.42315
-595,-41,-12.0662,1.47021,0,0,0,0,0,0,0,-1,629,1065,-12.0662,-1.47025
-588,-41,-12.1003,1.00537,-0.00102308,-0.000869698,-0.00635084,0.00540491,-0.00729769,-0.791436,0.00736094,0.0242389,636,1065,-12.1003,-1.00537
-581,-41,-12.1102,0.440186,-0.000813235,-0.000887168,-0.00607463,0.00522454,-0.00692494,-0.782355,0.00703737,0.0352034,643,1065,-12.1102,-0.440218
-574,-41,-12.1564,0.633179,-0.000702959,-0.000740926,-0.00552641,0.0048045,-0.00624838,-0.783681,0.00639951,0.0386763,650,1065,-12.1564,-0.633138
-567,-41,-12.225,0.779541,-0.000507641,-0.000509155,-0.00444675,0.00393836,-0.00495515,-0.785313,0.00514584,0.0413074,657,1065,-12.225,-0.779557
-560,-41,-12.2,0.76001,-0.000163349,-0.000242852,-0.00282766,0.00262484,-0.00303104,-0.77837,0.00326823,0.0402349,664,1065,-12.1999,-0.75995
-553,-41,-12.2452,0.807739,0.00034402,-1.76896e-05,-0.000686099,0.0008727,-0.00054637,-0.65653,0.00082649,0.0414298,671,1065,-12.2452,-0.807763
-546,-41,-12.2815,0.758057,0.00101239,7.7281e-05,0.00195598,0.00255592,-0.00146625,0.66808,0.00235044,0.0407367,678,1065,-12.2815,-0.758113
-539,-41,-12.2015,0.581543,0.00182014,-0.000140759,0.00459201,0.00553521,-0.00385582,0.680221,0.00545074,0.0394187,685,1065,-12.2015,-0.5815
-532,-41,-12.0565,0.533691,0.00254565,-0.000871109,0.00579868,0.00688238,-0.00520784,0.642144,0.00700257,0.0372971,692,1065,-12.0564,-0.533649
-525,-41,0,0,0,0,0,0,0,0,0,-1,699,1065,0,0
-518,-41,0,0,0,0,0,0,0,0,0,-1,706,1065,0,0
-511,-41,0,0,0,0,0,0,0,0,0,-1,713,1065,0,0
-504,-41,0,0,0,0,0,0,0,0,0,-1,720,1065,0,0
-497,-41,0,0,0,0,0,0,0,0,0,-1,727,1065,0,0
-490,-41,0,0,0,0,0,0,0,0,0,-1,734,1065,0,0
-483,-41,0,0,0,0,0,0,0,0,0,-1,741,1065,0,0
-476,-41,0,0,0,0,0,0,0,0,0,-1,748,1065,0,0
-469,-41,0,0,0,0,0,0,0,0,0,-1,755,1065,0,0
-462,-41,0,0,0,0,0,0,0,0,0,-1,762,1065,0,0
-455,-41,0,0,0,0,0,0,0,0,0,-1,769,1065,0,0
-448,-41,0,0,0,0,0,0,0,0,0,-1,776,1065,0,0
-441,-41,0,0,0,0,0,0,0,0,0,-1,783,1065,0,0
-434,-41,0,0,0,0,0,0,0,0,0,-1,790,1065,0,0
-427,-41,0,0,0,0,0,0,0,0,0,-1,797,1065,0,0
-420,-41,0,0,0,0,0,0,0,0,0,-1,804,1065,0,0
-413,-41,0,0,0,0,0,0,0,0,0,-1,811,1065,0,0
-406,-41,0,0,0,0,0,0,0,0,0,-1,818,1065,0,0
-399,-41,0,0,0,0,0,0,0,0,0,-1,825,1065,0,0
-392,-41,0,0,0,0,0,0,0,0,0,-1,832,1065,0,0
-385,-41,0,0,0,0,0,0,0,0,0,-1,839,1065,0,0
-378,-41,0,0,0,0,0,0,0,0,0,-1,846,1065,0,0
-371,-41,0,0,0,0,0,0,0,0,0,-1,853,1065,0,0
-364,-41,0,0,0,0,0,0,0,0,0,-1,860,1065,0,0
-357,-41,0,0,0,0,0,0,0,0,0,-1,867,1065,0,0
-350,-41,0,0,0,0,0,0,0,0,0,-1,874,1065,0,0
-343,-41,0,0,0,0,0,0,0,0,0,-1,881,1065,0,0
-336,-41,0,0,0,0,0,0,0,0,0,-1,888,1065,0,0
-329,-41,0,0,0,0,0,0,0,0,0,-1,895,1065,0,0
-322,-41,0,0,0,0,0,0,0,0,0,-1,902,1065,0,0
-315,-41,0,0,0,0,0,0,0,0,0,-1,909,1065,0,0
-308,-41,0,0,0,0,0,0,0,0,0,-1,916,1065,0,0
-301,-41,0,0,0,0,0,0,0,0,0,-1,923,1065,0,0
-294,-41,0,0,0,0,0,0,0,0,0,-1,930,1065,0,0
-287,-41,0,0,0,0,0,0,0,0,0,-1,937,1065,0,0
-280,-41,0,0,0,0,0,0,0,0,0,-1,944,1065,0,0
-273,-41,0,0,0,0,0,0,0,0,0,-1,951,1065,0,0
-266,-41,0,0,0,0,0,0,0,0,0,-1,958,1065,0,0
-259,-41,0,0,0,0,0,0,0,0,0,-1,965,1065,0,0
-252,-41,0,0,0,0,0,0,0,0,0,-1,972,1065,0,0
-245,-41,0,0,0,0,0,0,0,0,0,-1,979,1065,0,0
-238,-41,0,0,0,0,0,0,0,0,0,-1,986,1065,0,0
-231,-41,0,0,0,0,0,0,0,0,0,-1,993,1065,0,0
-224,-41,0,0,0,0,0,0,0,0,0,-1,1000,1065,0,0
-217,-41,0,0,0,0,0,0,0,0,0,-1,1007,1065,0,0
-210,-41,0,0,0,0,0,0,0,0,0,-1,1014,1065,0,0
-203,-41,0,0,0,0,0,0,0,0,0,-1,1021,1065,0,0
-196,-41,0,0,0,0,0,0,0,0,0,-1,1028,1065,0,0
-189,-41,0,0,0,0,0,0,0,0,0,-1,1035,1065,0,0
-182,-41,0,0,0,0,0,0,0,0,0,-1,1042,1065,0,0
-175,-41,0,0,0,0,0,0,0,0,0,-1,1049,1065,0,0
-168,-41,0,0,0,0,0,0,0,0,0,-1,1056,1065,0,0
-161,-41,0,0,0,0,0,0,0,0,0,-1,1063,1065,0,0
-154,-41,0,0,0,0,0,0,0,0,0,-1,1070,1065,0,0
-147,-41,0,0,0,0,0,0,0,0,0,-1,1077,1065,0,0
-140,-41,0,0,0,0,0,0,0,0,0,-1,1084,1065,0,0
-133,-41,0,0,0,0,0,0,0,0,0,-1,1091,1065,0,0
-126,-41,0,0,0,0,0,0,0,0,0,-1,1098,1065,0,0
-119,-41,0,0,0,0,0,0,0,0,0,-1,1105,1065,0,0
-112,-41,0,0,0,0,0,0,0,0,0,-1,1112,1065,0,0
-105,-41,0,0,0,0,0,0,0,0,0,-1,1119,1065,0,0
-98,-41,0,0,0,0,0,0,0,0,0,-1,1126,1065,0,0
-91,-41,0,0,0,0,0,0,0,0,0,-1,1133,1065,0,0
-84,-41,0,0,0,0,0,0,0,0,0,-1,1140,1065,0,0
-77,-41,0,0,0,0,0,0,0,0,0,-1,1147,1065,0,0
-70,-41,0,0,0,0,0,0,0,0,0,-1,1154,1065,0,0
-63,-41,0,0,0,0,0,0,0,0,0,-1,1161,1065,0,0
-56,-41,0,0,0,0,0,0,0,0,0,-1,1168,1065,0,0
-49,-41,0,0,0,0,0,0,0,0,0,-1,1175,1065,0,0
-42,-41,0,0,0,0,0,0,0,0,0,-1,1182,1065,0,0
-35,-41,0,0,0,0,0,0,0,0,0,-1,1189,1065,0,0
-28,-41,0,0,0,0,0,0,0,0,0,-1,1196,1065,0,0
-21,-41,0,0,0,0,0,0,0,0,0,-1,1203,1065,0,0
-14,-41,0,0,0,0,0,0,0,0,0,-1,1210,1065,0,0
-7,-41,0,0,0,0,0,0,0,0,0,-1,1217,1065,0,0
0,-41,0,0,0,0,0,0,0,0,0,-1,1224,1065,0,0
7,-41,0,0,0,0,0,0,0,0,0,-1,1231,1065,0,0
14,-41,0,0,0,0,0,0,0,0,0,-1,1238,1065,0,0
21,-41,0,0,0,0,0,0,0,0,0,-1,1245,1065,0,0
28,-41,0,0,0,0,0,0,0,0,0,-1,1252,1065,0,0
35,-41,0,0,0,0,0,0,0,0,0,-1,1259,1065,0,0
42,-41,0,0,0,0,0,0,0,0,0,-1,1266,1065,0,0
49,-41,0,0,0,0,0,0,0,0,0,-1,1273,1065,0,0
56,-41,0,0,0,0,0,0,0,0,0,-1,1280,1065,0,0
63,-41,0,0,0,0,0,0,0,0,0,-1,1287,1065,0,0
70,-41,0,0,0,0,0,0,0,0,0,-1,1294,1065,0,0
77,-41,0,0,0,0,0,0,0,0,0,-1,1301,1065,0,0
84,-41,0,0,0,0,0,0,0,0,0,-1,1308,1065,0,0
91,-41,0,0,0,0,0,0,0,0,0,-1,1315,1065,0,0
98,-41,0,0,0,0,0,0,0,0,0,-1,1322,1065,0,0
105,-41,0,0,0,0,0,0,0,0,0,-1,1329,1065,0,0
112,-41,0,0,0,0,0,0,0,0,0,-1,1336,1065,0,0
119,-41,0,0,0,0,0,0,0,0,0,-1,1343,1065,0,0
126,-41,0,0,0,0,0,0,0,0,0,-1,1350,1065,0,0
133,-41,0,0,0,0,0,0,0,0,0,-1,1357,1065,0,0
140,-41,0,0,0,0,0,0,0,0,0,-1,1364,1065,0,0
147,-41,0,0,0,0,0,0,0,0,0,-1,1371,1065,0,0
154,-41,0,0,0,0,0,0,0,0,0,-1,1378,1065,0,0
161,-41,0,0,0,0,0,0,0,0,0,-1,1385,1065,0,0
168,-41,0,0,0,0,0,0,0,0,0,-1,1392,1065,0,0
175,-41,0,0,0,0,0,0,0,0,0,-1,1399,1065,0,0
182,-41,0,0,0,0,0,0,0,0,0,-1,1406,1065,0,0
189,-41,0,0,0,0,0,0,0,0,0,-1,1413,1065,0,0
196,-41,0,0,0,0,0,0,0,0,0,-1,1420,1065,0,0
203,-41,0,0,0,0,0,0,0,0,0,-1,1427,1065,0,0
210,-41,0,0,0,0,0,0,0,0,0,-1,1434,1065,0,0
217,-41,0,0,0,0,0,0,0,0,0,-1,1441,1065,0,0
224,-41,0,0,0,0,0,0,0,0,0,-1,1448,1065,0,0
231,-41,0,0,0,0,0,0,0,0,0,-1,1455,1065,0,0
238,-41,0,0,0,0,0,0,0,0,0,-1,1462,1065,0,0
245,-41,0,0,0,0,0,0,0,0,0,-1,1469,1065,0,0
252,-41,0,0,0,0,0,0,0,0,0,-1,1476,1065,0,0
259,-41,0,0,0,0,0,0,0,0,0,-1,1483,1065,0,0
266,-41,0,0,0,0,0,0,0,0,0,-1,1490,1065,0,0
273,-41,0,0,0,0,0,0,0,0,0,-1,1497,1065,0,0
280,-41,0,0,0,0,0,0,0,0,0,-1,1504,1065,0,0
287,-41,0,0,0,0,0,0,0,0,0,-1,1511,1065,0,0
294,-41,0,0,0,0,0,0,0,0,0,-1,1518,1065,0,0
301,-41,0,0,0,0,0,0,0,0,0,-1,1525,1065,0,0
308,-41,0,0,0,0,0,0,0,0,0,-1,1532,1065,0,0
315,-41,0,0,0,0,0,0,0,0,0,-1,1539,1065,0,0
322,-41,0,0,0,0,0,0,0,0,0,-1,1546,1065,0,0
329,-41,0,0,0,0,0,0,0,0,0,-1,1553,1065,0,0
336,-41,0,0,0,0,0,0,0,0,0,-1,1560,1065,0,0
343,-41,0,0,0,0,0,0,0,0,0,-1,1567,1065,0,0
350,-41,0,0,0,0,0,0,0,0,0,-1,1574,1065,0,0
357,-41,0,0,0,0,0,0,0,0,0,-1,1581,1065,0,0
364,-41,0,0,0,0,0,0,0,0,0,-1,1588,1065,0,0
371,-41,0,0,0,0,0,0,0,0,0,-1,1595,1065,0,0
378,-41,0,0,0,0,0,0,0,0,0,-1,1602,1065,0,0
385,-41,0,0,0,0,0,0,0,0,0,-1,1609,1065,0,0
392,-41,0,0,0,0,0,0,0,0,0,-1,1616,1065,0,0
399,-41,0,0,0,0,0,0,0,0,0,-1,1623,1065,0,0
406,-41,0,0,0,0,0,0,0,0,0,-1,1630,1065,0,0
413,-41,0,0,0,0,0,0,0,0,0,-1,1637,1065,0,0
420,-41,0,0,0,0,0,0,0,0,0,-1,1644,1065,0,0
427,-41,0,0,0,0,0,0,0,0,0,-1,1651,1065,0,0
434,-41,0,0,0,0,0,0,0,0,0,-1,1658,1065,0,0
441,-41,0,0,0,0,0,0,0,0,0,-1,1665,1065,0,0
448,-41,0,0,0,0,0,0,0,0,0,-1,1672,1065,0,0
455,-41,0,0,0,0,0,0,0,0,0,-1,1679,1065,0,0
462,-41,0,0,0,0,0,0,0,0,0,-1,1686,1065,0,0
469,-41,0,0,0,0,0,0,0,0,0,-1,1693,1065,0,0
476,-41,0,0,0,0,0,0,0,0,0,-1,1700,1065,0,0
483,-41,0,0,0,0,0,0,0,0,0,-1,1707,1065,0,0
490,-41,0,0,0,0,0,0,0,0,0,-1,1714,1065,0,0
497,-41,0,0,0,0,0,0,0,0,0,-1,1721,1065,0,0
504,-41,0,0,0,0,0,0,0,0,0,-1,1728,1065,0,0
511,-41,0,0,0,0,0,0,0,0,0,-1,1735,1065,0,0
518,-41,0,0,0,0,0,0,0,0,0,-1,1742,1065,0,0
525,-41,0,0,0,0,0,0,0,0,0,-1,1749,1065,0,0
532,-41,0,0,0,0,0,0,0,0,0,-1,1756,1065,0,0
539,-41,0,0,0,0,0,0,0,0,0,-1,1763,1065,0,0
546,-41,0,0,0,0,0,0,0,0,0,-1,1770,1065,0,0
553,-41,0,0,0,0,0,0,0,0,0,-1,1777,1065,0,0
560,-41,0,0,0,0,0,0,0,0,0,-1,1784,1065,0,0
567,-41,0,0,0,0,0,0,0,0,0,-1,1791,1065,0,0
574,-41,0,0,0,0,0,0,0,0,0,-1,1798,1065,0,0
581,-41,0,0,0,0,0,0,0,0,0,-1,1805,1065,0,0
588,-41,0,0,0,0,0,0,0,0,0,-1,1812,1065,0,0
595,-41,0,0,0,0,0,0,0,0,0,-1,1819,1065,0,0
602,-41,0,0,0,0,0,0,0,0,0,-1,1826,1065,0,0
609,-41,0,0,0,0,0,0,0,0,0,-1,1833,1065,0,0
616,-41,0,0,0,0,0,0,0,0,0,-1,1840,1065,0,0
623,-41,0,0,0,0,0,0,0,0,0,-1,1847,1065,0,0
630,-41,0,0,0,0,0,0,0,0,0,-1,1854,1065,0,0
637,-41,0,0,0,0,0,0,0,0,0,-1,1861,1065,0,0
644,-41,0,0,0,0,0,0,0,0,0,-1,1868,1065,0,0
651,-41,18.8308,2.45251,0.000653174,0.000585471,-0.00171454,0.00233419,-0.00109555,-0.775528,0.00202275,0.0363912,1875,1065,18.8308,-2.45248
658,-41,18.7605,2.47839,0.00057673,0.000726752,-0.00140431,0.00205806,-0.000754573,-0.81208,0.00168099,0.0390248,1882,1065,18.7605,-2.47842
665,-41,18.7725,2.36206,0.00055772,0.000763555,-0.00101187,0.00167773,-0.000356455,-0.836079,0.0012543,0.0412181,1889,1065,18.7725,-2.36205
672,-41,18.6829,2.45386,0.000546349,0.000582549,-0.000186711,0.000752035,0.000376862,-0.833718,0.000434188,0.0414257,1896,1065,18.6829,-2.45391
679,-41,18.62,2.53674,4.87981e-06,0.000202773,0.00115305,0.00126112,-0.00105347,0.8282,0.00133812,0.0398136,1903,1065,18.6201,-2.53676
686,-41,18.799,2.54749,-0.000812477,-0.000228328,0.00250558,0.00200215,-0.00304295,0.843421,0.00293338,0.040303,1910,1065,18.7989,-2.54749
693,-41,18.9257,2.39453,-0.00156389,-0.00065009,0.00369989,0.002621,-0.00483498,0.846832,0.00436752,0.0447216,1917,1065,18.9257,-2.39449
700,-41,18.8949,2.50952,-0.00227317,-0.00097816,0.00466819,0.00308722,-0.00633855,0.854312,0.00554884,0.0410894,1924,1065,18.8949,-2.50951
707,-41,18.7932,2.5426,-0.00287502,-0.00123162,0.00532792,0.00333759,-0.00744424,0.861908,0.00637362,0.0269941,1931,1065,18.7932,-2.54266
714,-41,18.8049,2.63647,-0.00334499,-0.0013985,0.00582057,0.00352963,-0.00827312,0.868236,0.00699536,0.014798,1938,1065,18.8049,-2.63645
721,-41,18.8699,3.25732,0,0,0,0,0,0,0,-1,1945,1065,18.8699,-3.25734
728,-41,18.5862,3.64038,-0.00386989,-0.00131241,0.00587553,0.00342192,-0.00860422,0.892547,0.00715495,0.0265325,1952,1065,18.5862,-3.64038
735,-41,18.429,3.71826,-0.00409429,-0.00102339,0.00533765,0.00299526,-0.00811294,0.925449,0.00663633,0.0156885,1959,1065,18.429,-3.71822
742,-41,18.3912,3.72644,-0.00437445,-0.000514437,0.00457223,0.00251844,-0.00740733,0.985111,0.00595785,0.0132698,1966,1065,18.3912,-3.72639
749,-41,18.4419,3.73767,-0.00474417,-0.000298724,0.0038973,0.00196513,-0.00700803,1.04455,0.00544655,0.0132936,1973,1065,18.4419,-3.73765
756,-41,18.4667,3.71973,-0.00453852,0.000339384,0.00281926,0.00162826,-0.0058274,1.142,0.00452639,0.0128017,1980,1065,18.4666,-3.71971
763,-41,18.4265,3.67126,-0.00447665,0.000252792,0.0016419,0.000766913,-0.00499077,1.26734,0.00361008,0.0106987,1987,1065,18.4265,-3.67128
770,-41,18.4042,3.65649,-0.00467539,0.00040274,0.000405382,0.000434898,-0.00470755,1.49164,0.00329292,0.0124633,1994,1065,18.4042,-3.65655
777,-41,18.4009,3.63452,-0.00485814,0.000154967,-0.000683299,0.000246434,-0.0049496,-1.43773,0.00338487,0.0137996,2001,1065,18.4008,-3.63447
784,-41,18.3982,3.59778,-0.00523952,-0.000580516,-0.00134413,-0.000220544,-0.0055995,-1.30913,0.0036617,0.0244473,2008,1065,18.3982,-3.59773
791,-41,18.3999,3.53357,-0.00581176,-0.00202453,-0.00179825,-0.00130673,-0.00652956,-1.19101,0.00398945,0.0446336,2015,1065,18.3999,-3.53356
798,-41,18.1194,3.34253,-0.00601574,-0.00434454,-0.00232247,-0.00271192,-0.00764836,-0.958083,0.00447761,0.0442705,2022,1065,18.1194,-3.34252
805,-41,17.6921,2.91248,-0.00549127,-0.00783752,-0.00301751,-0.00342687,-0.00990192,-0.600003,0.00580647,0.0442719,2029,1065,17.6921,-2.91252
812,-41,17.3057,2.55249,0,0,0,0,0,0,0,-1,2036,1065,17.3056,-2.55254
-700,-48,-13.5642,2.40393,0.0776682,0.00738508,-0.0169061,0.0815234,0.00352991,-0.224201,0.0532113,0.047668,524,1072,-13.5642,-2.40393
-693,-48,-13.1014,2.40674,0.0521656,0.013919,-0.0135281,0.0564669,0.00961775,-0.307842,0.0348835,0.0421308,531,1072,-13.1015,-2.40673
-686,-48,-12.8445,1.07202,0,0,0,0,0,0,0,-1,538,1072,-12.8445,-1.07206
-679,-48,-9.71857,0.00012207,0.0198453,0.0177009,-0.00710172,0.0259553,0.0115909,-0.710473,0.0150138,0.0470415,545,1072,-9.71859,-7.58927e-05
-672,-48,-12.2108,0.518799,0.0105701,0.0169597,-0.00467374,0.0194262,0.00810355,-1.08521,0.0112669,0.0398259,552,1072,-12.2108,-0.518799
-665,-48,-12.0988,1.07764,0.0045917,0.0153005,-0.00279657,0.0159868,0.00390537,-1.33013,0.00962396,0.0399029,559,1072,-12.0988,-1.07766
-658,-48,-12.0189,1.01868,0.00103409,0.0131418,-0.00143368,0.0133092,0.00086664,-1.45453,0.0085985,0.0410187,566,1072,-12.0189,-1.01864
-651,-48,-11.921,1.01868,-0.00082606,0.0107868,-0.000527289,0.0108107,-0.000849952,-1.52551,0.0075065,0.0293827,573,1072,-11.921,-1.01872
-644,-48,-11.9864,1.15881,-0.00168396,0.00854839,-0.000270715,0.00855554,-0.00169112,-1.54436,0.006343,0.0132818,580,1072,-11.9864,-1.15887
-637,-48,-12.003,1.18262,-0.00375428,0.00660995,-0.000538246,0.00663783,-0.00378216,-1.51905,0.00609083,0.0133174,587,1072,-12.003,-1.18266
-630,-48,-12.0038,1.24194,-0.00384383,0.004458,-0.00150855,0.00472362,-0.00410946,-1.3965,0.00510389,0.015626,594,1072,-12.0038,-1.242
-623,-48,-12.0102,1.31018,-0.00247705,0.00216123,-0.00229991,0.00310828,-0.0034241,-1.18018,0.00377294,0.0106945,601,1072,-12.0102,-1.31018
-616,-48,-12.0061,1.3645,-0.00148237,0.000869157,-0.00371162,0.00358679,-0.0042,-0.938787,0.00450035,0.00927786,608,1072,-12.0061,-1.36456
-609,-48,-11.9705,1.42285,-0.00124522,-5.1883e-05,-0.00475882,0.00414753,-0.00544463,-0.847764,0.00555489,0.0110509,615,1072,-11.9705,-1.42281
-602,-48,-11.9861,1.44714,-0.00138811,-0.000607177,-0.00561499,0.0046309,-0.00662619,-0.820112,0.00653323,0.0109961,622,1072,-11.9861,-1.44711
-595,-48,-12.0056,1.4563,-0.00164037,-0.000900336,-0.00639346,0.00513381,-0.00767452,-0.814303,0.00744323,0.0145457,629,1072,-12.0056,-1.45634
-588,-48,-12.0692,1.05383,-0.00166262,-0.000957536,-0.00663761,0.00533688,-0.00795704,-0.81193,0.00772478,0.0296284,636,1072,-12.0692,-1.05385
-581,-48,-12.1169,0.466553,-0.00148894,-0.000932256,-0.00630437,0.00509991,-0.00752111,-0.807459,0.00733131,0.0421009,643,1072,-12.1169,-0.466513
-574,-48,-12.1851,0.557861,-0.00138133,-0.000751938,-0.00568927,0.00463133,-0.0067646,-0.813027,0.00661776,0.0403126,650,1072,-12.1851,-0.557848
-567,-48,-12.1752,0.760742,-0.00113813,-0.000466054,-0.00449301,0.00370347,-0.00530765,-0.822725,0.00522998,0.0394965,657,1072,-12.1752,-0.760748
-560,-48,-12.1086,0.710815,-0.00070177,-0.00011976,-0.002697,0.00230189,-0.00312342,-0.83914,0.00314425,0.0395138,664,1072,-12.1086,-0.710758
-553,-48,-12.082,0.77417,-6.21216e-05,0.000214089,-0.000311439,0.00041667,-0.000264703,-0.994092,0.000396639,0.0406638,671,1072,-12.082,-0.774153
-546,-48,-12.0401,0.637573,0.000780346,0.000453028,0.00265239,0.00327412,-0.00204074,0.754586,0.00309595,0.0391772,678,1072,-12.0401,-0.63753
-539,-48,-11.9944,0.51355,0.00177012,0.000438033,0.00569565,0.00683854,-0.00463039,0.727193,0.00666237,0.0416229,685,1072,-11.9944,-0.513604
-532,-48,-12.0416,0.742432,0.00255144,-0.000157484,0.00729848,0.00862008,-0.00622612,0.693651,0.00860852,0.0383985,692,1072,-12.0416,-0.742427
-525,-48,0,0,0,0,0,0,0,0,0,-1,699,1072,0,0
-518,-48,0,0,0,0,0,0,0,0,0,-1,706,1072,0,0
-511,-48,0,0,0,0,0,0,0,0,0,-1,713,1072,0,0
-504,-48,0,0,0,0,0,0,0,0,0,-1,720,1072,0,0
-497,-48,0,0,0,0,0,0,0,0,0,-1,727,1072,0,0
-490,-48,0,0,0,0,0,0,0,0,0,-1,734,1072,0,0
-483,-48,0,0,0,0,0,0,0,0,0,-1,741,1072,0,0
-476,-48,0,0,0,0,0,0,0,0,0,-1,748,1072,0,0
-469,-48,0,0,0,0,0,0,0,0,0,-1,755,1072,0,0
-462,-48,0,0,0,0,0,0,0,0,0,-1,762,1072,0,0
-455,-48,0,0,0,0,0,0,0,0,0,-1,769,1072,0,0
-448,-48,0,0,0,0,0,0,0,0,0,-1,776,1072,0,0
-441,-48,0,0,0,0,0,0,0,0,0,-1,783,1072,0,0
-434,-48,0,0,0,0,0,0,0,0,0,-1,790,1072,0,0
-427,-48,0,0,0,0,0,0,0,0,0,-1,797,1072,0,0
-420,-48,0,0,0,0,0,0,0,0,0,-1,804,1072,0,0
-413,-48,0,0,0,0,0,0,0,0,0,-1,811,1072,0,0
-406,-48,0,0,0,0,0,0,0,0,0,-1,818,1072,0,0
-399,-48,0,0,0,0,0,0,0,0,0,-1,825,1072,0,0
-392,-48,0,0,0,0,0,0,0,0,0,-1,832,1072,0,0
-385,-48,0,0,0,0,0,0,0,0,0,-1,839,1072,0,0
-378,-48,0,0,0,0,0,0,0,0,0,-1,846,1072,0,0
-371,-48,0,0,0,0,0,0,0,0,0,-1,853,1072,0,0
-364,-48,0,0,0,0,0,0,0,0,0,-1,860,1072,0,0
-357,-48,0,0,0,0,0,0,0,0,0,-1,867,1072,0,0
-350,-48,0,0,0,0,0,0,0,0,0,-1,874,1072,0,0
-343,-48,0,0,0,0,0,0,0,0,0,-1,881,1072,0,0
-336,-48,0,0,0,0,0,0,0,0,0,-1,888,1072,0,0
-329,-48,0,0,0,0,0,0,0,0,0,-1,895,1072,0,0
-322,-48,0,0,0,0,0,0,0,0,0,-1,902,1072,0,0
-315,-48,0,0,0,0,0,0,0,0,0,-1,909,1072,0,0
-308,-48,0,0,0,0,0,0,0,0,0,-1,916,1072,0,0
-301,-48,0,0,0,0,0,0,0,0,0,-1,923,1072,0,0
-294,-48,0,0,0,0,0,0,0,0,0,-1,930,1072,0,0
-287,-48,0,0,0,0,0,0,0,0,0,-1,937,1072,0,0
-280,-48,0,0,0,0,0,0,0,0,0,-1,944,1072,0,0
-273,-48,0,0,0,0,0,0,0,0,0,-1,951,1072,0,0
-266,-48,0,0,0,0,0,0,0,0,0,-1,958,1072,0,0
-259,-48,0,0,0,0,0,0,0,0,0,-1,965,1072,0,0
-252,-48,0,0,0,0,0,0,0,0,0,-1,972,1072,0,0
-245,-48,0,0,0,0,0,0,0,0,0,-1,979,1072,0,0
-238,-48,0,0,0,0,0,0,0,0,0,-1,986,1072,0,0
-231,-48,0,0,0,0,0,0,0,0,0,-1,993,1072,0,0
-224,-48,0,0,0,0,0,0,0,0,0,-1,1000,1072,0,0
-217,-48,0,0,0,0,0,0,0,0,0,-1,1007,1072,0,0
-210,-48,0,0,0,0,0,0,0,0,0,-1,1014,1072,0,0
-203,-48,0,0,0,0,0,0,0,0,0,-1,1021,1072,0,0
-196,-48,0,0,0,0,0,0,0,0,0,-1,1028,1072,0,0
-189,-48,0,0,0,0,0,0,0,0,0,-1,1035,1072,0,0
-182,-48,0,0,0,0,0,0,0,0,0,-1,1042,1072,0,0
-175,-48,0,0,0,0,0,0,0,0,0,-1,1049,1072,0,0
-168,-48,0,0,0,0,0,0,0,0,0,-1,1056,1072,0,0
-161,-48,0,0,0,0,0,0,0,0,0,-1,1063,1072,0,0
-154,-48,0,0,0,0,0,0,0,0,0,-1,1070,1072,0,0
-147,-48,0,0,0,0,0,0,0,0,0,-1,1077,1072,0,0
-140,-48,0,0,0,0,0,0,0,0,0,-1,1084,1072,0,0
-133,-48,0,0,0,0,0,0,0,0,0,-1,1091,1072,0,0
-126,-48,0,0,0,0,0,0,0,0,0,-1,1098,1072,0,0
-119,-48,0,0,0,0,0,0,0,0,0,-1,1105,1072,0,0
-112,-48,0,0,0,0,0,0,0,0,0,-1,1112,1072,0,0
-105,-48,0,0,0,0,0,0,0,0,0,-1,1119,1072,0,0
-98,-48,0,0,0,0,0,0,0,0,0,-1,1126,1072,0,0
-91,-48,0,0,0,0,0,0,0,0,0,-1,1133,1072,0,0
-84,-48,0,0,0,0,0,0,0,0,0,-1,1140,1072,0,0
-77,-48,0,0,0,0,0,0,0,0,0,-1,1147,1072,0,0
-70,-48,0,0,0,0,0,0,0,0,0,-1,1154,1072,0,0
-63,-48,0,0,0,0,0,0,0,0,0,-1,1161,1072,0,0
-56,-48,0,0,0,0,0,0,0,0,0,-1,1168,1072,0,0
-49,-48,0,0,0,0,0,0,0,0,0,-1,1175,1072,0,0
-42,-48,0,0,0,0,0,0,0,0,0,-1,1182,1072,0,0
-35,-48,0,0,0,0,0,0,0,0,0,-1,1189,1072,0,0
-28,-48,0,0,0,0,0,0,0,0,0,-1,1196,1072,0,0
-21,-48,0,0,0,0,0,0,0,0,0,-1,1203,1072,0,0
-14,-48,0,0,0,0,0,0,0,0,0,-1,1210,1072,0,0
-7,-48,0,0,0,0,0,0,0,0,0,-1,1217,1072,0,0
0,-48,0,0,0,0,0,0,0,0,0,-1,1224,1072,0,0
7,-48,0,0,0,0,0,0,0,0,0,-1,1231,1072,0,0
14,-48,0,0,0,0,0,0,0,0,0,-1,1238,1072,0,0
21,-48,0,0,0,0,0,0,0,0,0,-1,1245,1072,0,0
28,-48,0,0,0,0,0,0,0,0,0,-1,1252,1072,0,0
35,-48,0,0,0,0,0,0,0,0,0,-1,1259,1072,0,0
42,-48,0,0,0,0,0,0,0,0,0,-1,1266,1072,0,0
49,-48,0,0,0,0,0,0,0,0,0,-1,1273,1072,0,0
56,-48,0,0,0,0,0,0,0,0,0,-1,1280,1072,0,0
63,-48,0,0,0,0,0,0,0,0,0,-1,1287,1072,0,0
70,-48,0,0,0,0,0,0,0,0,0,-1,1294,1072,0,0
77,-48,0,0,0,0,0,0,0,0,0,-1,1301,1072,0,0
84,-48,0,0,0,0,0,0,0,0,0,-1,1308,1072,0,0
91,-48,0,0,0,0,0,0,0,0,0,-1,1315,1072,0,0
98,-48,0,0,0,0,0,0,0,0,0,-1,1322,1072,0,0
105,-48,0,0,0,0,0,0,0,0,0,-1,1329,1072,0,0
112,-48,0,0,0,0,0,0,0,0,0,-1,1336,1072,0,0
119,-48,0,0,0,0,0,0,0,0,0,-1,1343,1072,0,0
126,-48,0,0,0,0,0,0,0,0,0,-1,1350,1072,0,0
133,-48,0,0,0,0,0,0,0,0,0,-1,1357,1072,0,0
140,-48,0,0,0,0,0,0,0,0,0,-1,1364,1072,0,0
147,-48,0,0,0,0,0,0,0,0,0,-1,1371,1072,0,0
154,-48,0,0,0,0,0,0,0,0,0,-1,1378,1072,0,0
161,-48,0,0,0,0,0,0,0,0,0,-1,1385,1072,0,0
168,-48,0,0,0,0,0,0,0,0,0,-1,1392,1072,0,0
175,-48,0,0,0,0,0,0,0,0,0,-1,1399,1072,0,0
182,-48,0,0,0,0,0,0,0,0,0,-1,1406,1072,0,0
189,-48,0,0,0,0,0,0,0,0,0,-1,1413,1072,0,0
196,-48,0,0,0,0,0,0,0,0,0,-1,1420,1072,0,0
203,-48,0,0,0,0,0,0,0,0,0,-1,1427,1072,0,0
210,-48,0,0,0,0,0,0,0,0,0,-1,1434,1072,0,0
217,-48,0,0,0,0,0,0,0,0,0,-1,1441,1072,0,0
224,-48,0,0,0,0,0,0,0,0,0,-1,1448,1072,0,0
231,-48,0,0,0,0,0,0,0,0,0,-1,1455,1072,0,0
238,-48,0,0,0,0,0,0,0,0,0,-1,1462,1072,0,0
245,-48,0,0,0,0,0,0,0,0,0,-1,1469,1072,0,0
252,-48,0,0,0,0,0,0,0,0,0,-1,1476,1072,0,0
259,-48,0,0,0,0,0,0,0,0,0,-1,1483,1072,0,0
266,-48,0,0,0,0,0,0,0,0,0,-1,1490,1072,0,0
273,-48,0,0,0,0,0,0,0,0,0,-1,1497,1072,0,0
280,-48,0,0,0,0,0,0,0,0,0,-1,1504,1072,0,0
287,-48,0,0,0,0,0,0,0,0,0,-1,1511,1072,0,0
294,-48,0,0,0,0,0,0,0,0,0,-1,1518,1072,0,0
301,-48,0,0,0,0,0,0,0,0,0,-1,1525,1072,0,0
308,-48,0,0,0,0,0,0,0,0,0,-1,1532,1072,0,0
315,-48,0,0,0,0,0,0,0,0,0,-1,1539,1072,0,0
322,-48,0,0,0,0,0,0,0,0,0,-1,1546,1072,0,0
329,-48,0,0,0,0,0,0,0,0,0,-1,1553,1072,0,0
336,-48,0,0,0,0,0,0,0,0,0,-1,1560,1072,0,0
343,-48,0,0,0,0,0,0,0,0,0,-1,1567,1072,0,0
350,-48,0,0,0,0,0,0,0,0,0,-1,1574,1072,0,0
357,-48,0,0,0,0,0,0,0,0,0,-1,1581,1072,0,0
364,-48,0,0,0,0,0,0,0,0,0,-1,1588,1072,0,0
371,-48,0,0,0,0,0,0,0,0,0,-1,1595,1072,0,0
378,-48,0,0,0,0,0,0,0,0,0,-1,1602,1072,0,0
385,-48,0,0,0,0,0,0,0,0,0,-1,1609,1072,0,0
392,-48,0,0,0,0,0,0,0,0,0,-1,1616,1072,0,0
399,-48,0,0,0,0,0,0,0,0,0,-1,1623,1072,0,0
406,-48,0,0,0,0,0,0,0,0,0,-1,1630,1072,0,0
413,-48,0,0,0,0,0,0,0,0,0,-1,1637,1072,0,0
420,-48,0,0,0,0,0,0,0,0,0,-1,1644,1072,0,0
427,-48,0,0,0,0,0,0,0,0,0,-1,1651,1072,0,0
434,-48,0,0,0,0,0,0,0,0,0,-1,1658,1072,0,0
441,-48,0,0,0,0,0,0,0,0,0,-1,1665,1072,0,0
448,-48,0,0,0,0,0,0,0,0,0,-1,1672,1072,0,0
455,-48,0,0,0,0,0,0,0,0,0,-1,1679,1072,0,0
462,-48,0,0,0,0,0,0,0,0,0,-1,1686,1072,0,0
469,-48,0,0,0,0,0,0,0,0,0,-1,1693,1072,0,0
476,-48,0,0,0,0,0,0,0,0,0,-1,1700,1072,0,0
483,-48,0,0,0,0,0,0,0,0,0,-1,1707,1072,0,0
490,-48,0,0,0,0,0,0,0,0,0,-1,1714,1072,0,0
497,-48,0,0,0,0,0,0,0,0,0,-1,1721,1072,0,0
504,-48,0,0,0,0,0,0,0,0,0,-1,1728,1072,0,0
511,-48,0,0,0,0,0,0,0,0,0,-1,1735,1072,0,0
518,-48,0,0,0,0,0,0,0,0,0,-1,1742,1072,0,0
525,-48,0,0,0,0,0,0,0,0,0,-1,1749,1072,0,0
532,-48,0,0,0,0,0,0,0,0,0,-1,1756,1072,0,0
539,-48,0,0,0,0,0,0,0,0,0,-1,1763,1072,0,0
546,-48,0,0,0,0,0,0,0,0,0,-1,1770,1072,0,0
553,-48,0,0,0,0,0,0,0,0,0,-1,1777,1072,0,0
560,-48,0,0,0,0,0,0,0,0,0,-1,1784,1072,0,0
567,-48,0,0,0,0,0,0,0,0,0,-1,1791,1072,0,0
574,-48,0,0,0,0,0,0,0,0,0,-1,1798,1072,0,0
581,-48,0,0,0,0,0,0,0,0,0,-1,1805,1072,0,0
588,-48,0,0,0,0,0,0,0,0,0,-1,1812,1072,0,0
595,-48,0,0,0,0,0,0,0,0,0,-1,1819,1072,0,0
602,-48,0,0,0,0,0,0,0,0,0,-1,1826,1072,0,0
609,-48,0,0,0,0,0,0,0,0,0,-1,1833,1072,0,0
616,-48,0,0,0,0,0,0,0,0,0,-1,1840,1072,0,0
623,-48,0,0,0,0,0,0,0,0,0,-1,1847,1072,0,0
630,-48,0,0,0,0,0,0,0,0,0,-1,1854,1072,0,0
637,-48,0,0,0,0,0,0,0,0,0,-1,1861,1072,0,0
644,-48,0,0,0,0,0,0,0,0,0,-1,1868,1072,0,0
651,-48,18.7578,2.58411,0.00121967,0.00066064,-0.00158965,0.00255419,-0.000673887,-0.698372,0.0019663,0.0320692,1875,1072,18.7578,-2.58407
658,-48,18.8379,2.42517,0.000993101,0.000701388,-0.00131468,0.00216999,-0.000475504,-0.730152,0.00162847,0.0376541,1882,1072,18.8379,-2.42521
665,-48,18.7181,2.31348,0.000891243,0.000669113,-0.000937164,0.0017239,-0.000163545,-0.726417,0.00120748,0.0420721,1889,1072,18.7181,-2.31345
672,-48,18.6154,2.39307,0.000801118,0.000415557,-9.24762e-05,0.000822151,0.000394524,-0.223637,0.000474797,0.0418806,1896,1072,18.6154,-2.39311
679,-48,18.6112,2.46814,0.000188368,-3.37169e-05,0.00124991,0.00133216,-0.00117751,0.741094,0.00144987,0.0400151,1903,1072,18.6112,-2.46818
686,-48,18.8929,2.58435,-0.000672885,-0.000502684,0.0025777,0.00199132,-0.00316689,0.801899,0.00300376,0.0395215,1910,1072,18.893,-2.58437
693,-48,18.9961,2.58423,-0.00145511,-0.00093834,0.00373666,0.00254886,-0.00494231,0.819917,0.004398,0.0404676,1917,1072,18.9961,-2.58424
700,-48,18.8398,2.49304,-0.00218604,-0.00125606,0.00465247,0.0029546,-0.0063967,0.835205,0.00551955,0.0347659,1924,1072,18.8399,-2.49306
707,-48,18.8097,2.54053,-0.00283274,-0.00148582,0.00528384,0.00316731,-0.00748587,0.848785,0.00631683,0.0257646,1931,1072,18.8097,-2.54051
714,-48,18.7994,2.72656,-0.00330747,-0.00163667,0.00574443,0.00333278,-0.00827692,0.857606,0.0069025,0.0230992,1938,1072,18.7994,-2.72654
721,-48,18.7388,3.34058,-0.00357157,-0.00164382,0.00591821,0.0033885,-0.00860388,0.866122,0.00713872,0.0367703,1945,1072,18.7388,-3.3406
728,-48,18.3767,3.81104,-0.00378563,-0.00148391,0.00575147,0.00323071,-0.00850026,0.884143,0.00699694,0.0313812,1952,1072,18.3767,-3.81108
735,-48,18.4235,3.75549,-0.00402642,-0.00117447,0.00521364,0.00280469,-0.00800558,0.918888,0.00647761,0.0166361,1959,1072,18.4235,-3.75545
742,-48,18.3938,3.74146,-0.00429428,-0.000673555,0.00444758,0.002318,-0.00728583,0.97868,0.00578677,0.0135615,1966,1072,18.3938,-3.74146
749,-48,18.4458,3.71533,-0.00461499,-0.000441062,0.00376352,0.0017754,-0.00683145,1.03855,0.00524719,0.0133701,1973,1072,18.4458,-3.71539
756,-48,18.4468,3.6814,-0.00413531,0.000384095,0.00269654,0.00164257,-0.00539379,1.13414,0.00425052,0.0121543,1980,1072,18.4468,-3.68136
763,-48,18.405,3.65503,-0.0036135,0.000542307,0.00161383,0.0010954,-0.00416659,1.24062,0.00320586,0.0116273,1987,1072,18.405,-3.65504
770,-48,18.3939,3.63806,-0.003323,0.000951332,0.000450733,0.000998345,-0.00337001,1.46687,0.00264307,0.0124908,1994,1072,18.3939,-3.63808
777,-48,18.3838,3.59509,-0.00279313,0.00109582,-0.000508003,0.00116108,-0.00285839,-1.44302,0.00238862,0.010941,2001,1072,18.3837,-3.59511
784,-48,18.3345,3.53186,-0.00219882,0.000919944,-0.000994196,0.00120991,-0.00248879,-1.28701,0.00217758,0.0219376,2008,1072,18.3345,-3.5319
791,-48,18.2579,3.49805,-0.00142423,0.000290637,-0.00122753,0.000930542,-0.00206413,-1.09026,0.00176978,0.0393001,2015,1072,18.2579,-3.49805
798,-48,17.7006,3.5835,0.000157258,-0.000878114,-0.00142961,0.00116003,-0.00188089,-0.611685,0.00177204,0.0429703,2022,1072,17.7006,-3.58344
805,-48,17.6658,3.41626,0.00298804,-0.00278907,-0.00165213,0.00342714,-0.00322817,-0.259773,0.00384302,0.0410402,2029,1072,17.6658,-3.41626
812,-48,17.8477,3.24805,0.00732767,-0.00575998,-0.0019591,0.00761464,-0.00604695,-0.145444,0.00790481,0.0472231,2036,1072,17.8475,-3.24799
-700,-55,-13.6226,2.36975,0,0,0,0,0,0,0,-1,524,1079,-13.6226,-2.36972
-693,-55,-13.4036,2.69019,0.054197,0.017185,-0.0203105,0.063168,0.00821389,-0.415926,0.0396586,0.0447115,531,1079,-13.4036,-2.69021
-686,-55,-10.0194,0.359131,0,0,0,0,0,0,0,-1,538,1079,-10.0194,-0.359189
-679,-55,-10.0283,0.430054,0.0212253,0.0194677,-0.0104602,0.0308436,0.00984943,-0.743489,0.0181909,0.0493731,545,1079,-10.0283,-0.430111
-672,-55,-12.2335,0.657593,0.0116461,0.0182462,-0.00688211,0.0225786,0.00731375,-1.00896,0.0133024,0.0454622,552,1079,-12.2335,-0.65763
-665,-55,-12.0429,0.770264,0.00538834,0.0162387,-0.00415837,0.0176491,0.00397798,-1.24381,0.0106897,0.0454464,559,1079,-12.0429,-0.770308
-658,-55,-12.0483,0.660034,0.00159415,0.0138307,-0.00220072,0.0142144,0.00121039,-1.39815,0.00909971,0.0480061,566,1079,-12.0483,-0.660089
-651,-55,-11.9603,0.792603,-0.000446374,0.0112982,-0.000894598,0.0113659,-0.000514126,-1.49521,0.00775435,0.0329854,573,1079,-11.9602,-0.792619
-644,-55,-11.9582,1.09399,-0.00141176,0.00895157,-0.000385421,0.00896588,-0.00142607,-1.53367,0.00650493,0.0145616,580,1079,-11.9582,-1.09394
-637,-55,-11.9713,1.16614,-0.00365515,0.0068733,-0.000438805,0.00689156,-0.00367341,-1.52921,0.00619329,0.0123789,587,1079,-11.9712,-1.16616
-630,-55,-11.9588,1.23572,-0.00391135,0.00452253,-0.00129226,0.00471609,-0.00410491,-1.42212,0.00509688,0.0151336,594,1079,-11.9588,-1.23566
-623,-55,-11.9618,1.30981,-0.0026644,0.0021983,-0.00211613,0.00299022,-0.00345632,-1.2127,0.00372516,0.0139376,601,1079,-11.9618,-1.30982
-616,-55,-11.9404,1.35022,-0.00175115,0.000936447,-0.00363021,0.00346359,-0.0042783,-0.962664,0.00447803,0.0121845,608,1079,-11.9404,-1.35017
-609,-55,-11.9271,1.41394,-0.00162827,-7.30924e-05,-0.00477928,0.00399144,-0.0056928,-0.866042,0.00561989,0.0128717,615,1079,-11.9271,-1.41393
-602,-55,-11.9399,1.45374,-0.00183968,-0.000705453,-0.00572661,0.00448206,-0.00702719,-0.834753,0.00669881,0.012063,622,1079,-11.9399,-1.45372
-595,-55,-11.9311,1.48547,-0.00213581,-0.00105319,-0.00653905,0.00496692,-0.00815592,-0.826695,0.00765068,0.0143919,629,1079,-11.9311,-1.4855
-588,-55,-11.969,1.09534,-0.00221018,-0.00113353,-0.00678707,0.00513653,-0.00848024,-0.824973,0.00794026,0.0267163,636,1079,-11.969,-1.09539
-581,-55,-12.0837,0.603882,-0.00205955,-0.00109095,-0.0064373,0.00488024,-0.00803073,-0.822944,0.00752777,0.0381287,643,1079,-12.0837,-0.603862
-574,-55,-12.1226,0.738892,-0.00193622,-0.00090855,-0.00580235,0.00440267,-0.00724744,-0.829561,0.00679271,0.0395937,650,1079,-12.1226,-0.738836
-567,-55,-11.9992,0.778076,-0.0016365,-0.000599817,-0.00457212,0.00348325,-0.00571957,-0.841842,0.00536529,0.0399464,657,1079,-11.9992,-0.778092
-560,-55,-12.0659,0.690308,-0.00109159,-0.000199547,-0.00270799,0.00209891,-0.00339005,-0.867018,0.00319814,0.0420354,664,1079,-12.0658,-0.69032
-553,-55,-12.068,0.672119,-0.000284001,0.000228512,-0.000211078,0.000304251,-0.00035974,-1.22628,0.000383802,0.0413966,671,1079,-12.068,-0.672177
-546,-55,-12.0204,0.663574,0.000805653,0.000612932,0.00291847,0.00362935,-0.00221077,0.768895,0.00340479,0.0378408,678,1079,-12.0205,-0.663583
-539,-55,-12.2668,1.00354,0.0021159,0.000816676,0.00621085,0.00771101,-0.00477844,0.733291,0.00727675,0.0399299,685,1079,-12.2668,-1.00354
-532,-55,-12.2352,1.08105,0.00316061,0.000438584,0.00807613,0.0099896,-0.00639041,0.701921,0.0095328,0.0394714,692,1079,-12.2351,-1.08102
-525,-55,0,0,0,0,0,0,0,0,0,-1,699,1079,0,0
-518,-55,0,0,0,0,0,0,0,0,0,-1,706,1079,0,0
-511,-55,0,0,0,0,0,0,0,0,0,-1,713,1079,0,0
-504,-55,0,0,0,0,0,0,0,0,0,-1,720,1079,0,0
-497,-55,0,0,0,0,0,0,0,0,0,-1,727,1079,0,0
-490,-55,0,0,0,0,0,0,0,0,0,-1,734,1079,0,0
-483,-55,0,0,0,0,0,0,0,0,0,-1,741,1079,0,0
-476,-55,0,0,0,0,0,0,0,0,0,-1,748,1079,0,0
-469,-55,0,0,0,0,0,0,0,0,0,-1,755,1079,0,0
-462,-55,0,0,0,0,0,0,0,0,0,-1,762,1079,0,0
-455,-55,0,0,0,0,0,0,0,0,0,-1,769,1079,0,0
-448,-55,0,0,0,0,0,0,0,0,0,-1,776,1079,0,0
-441,-55,0,0,0,0,0,0,0,0,0,-1,783,1079,0,0
-434,-55,0,0,0,0,0,0,0,0,0,-1,790,1079,0,0
-427,-55,0,0,0,0,0,0,0,0,0,-1,797,1079,0,0
-420,-55,0,0,0,0,0,0,0,0,0,-1,804,1079,0,0
-413,-55,0,0,0,0,0,0,0,0,0,-1,811,1079,0,0
-406,-55,0,0,0,0,0,0,0,0,0,-1,818,1079,0,0
-399,-55,0,0,0,0,0,0,0,0,0,-1,825,1079,0,0
-392,-55,0,0,0,0,0,0,0,0,0,-1,832,1079,0,0
-385,-55,0,0,0,0,0,0,0,0,0,-1,839,1079,0,0
-378,-55,0,0,0,0,0,0,0,0,0,-1,846,1079,0,0
-371,-55,0,0,0,0,0,0,0,0,0,-1,853,1079,0,0
-364,-55,0,0,0,0,0,0,0,0,0,-1,860,1079,0,0
-357,-55,0,0,0,0,0,0,0,0,0,-1,867,1079,0,0
-350,-55,0,0,0,0,0,0,0,0,0,-1,874,1079,0,0
-343,-55,0,0,0,0,0,0,0,0,0,-1,881,1079,0,0
-336,-55,0,0,0,0,0,0,0,0,0,-1,888,1079,0,0
-329,-55,0,0,0,0,0,0,0,0,0,-1,895,1079,0,0
-322,-55,0,0,0,0,0,0,0,0,0,-1,902,1079,0,0
-315,-55,0,0,0,0,0,0,0,0,0,-1,909,1079,0,0
-308,-55,0,0,0,0,0,0,0,0,0,-1,916,1079,0,0
-301,-55,0,0,0,0,0,0,0,0,0,-1,923,1079,0,0
-294,-55,0,0,0,0,0,0,0,0,0,-1,930,1079,0,0
-287,-55,0,0,0,0,0,0,0,0,0,-1,937,1079,0,0
-280,-55,0,0,0,0,0,0,0,0,0,-1,944,1079,0,0
-273,-55,0,0,0,0,0,0,0,0,0,-1,951,1079,0,0
-266,-55,0,0,0,0,0,0,0,0,0,-1,958,1079,0,0
-259,-55,0,0,0,0,0,0,0,0,0,-1,965,1079,0,0
-252,-55,0,0,0,0,0,0,0,0,0,-1,972,1079,0,0
-245,-55,0,0,0,0,0,0,0,0,0,-1,979,1079,0,0
-238,-55,0,0,0,0,0,0,0,0,0,-1,986,1079,0,0
-231,-55,0,0,0,0,0,0,0,0,0,-1,993,1079,0,0
-224,-55,0,0,0,0,0,0,0,0,0,-1,1000,1079,0,0
-217,-55,0,0,0,0,0,0,0,0,0,-1,1007,1079,0,0
-210,-55,0,0,0,0,0,0,0,0,0,-1,1014,1079,0,0
-203,-55,0,0,0,0,0,0,0,0,0,-1,1021,1079,0,0
-196,-55,0,0,0,0,0,0,0,0,0,-1,1028,1079,0,0
-189,-55,0,0,0,0,0,0,0,0,0,-1,1035,1079,0,0
-182,-55,0,0,0,0,0,0,0,0,0,-1,1042,1079,0,0
-175,-55,0,0,0,0,0,0,0,0,0,-1,1049,1079,0,0
-168,-55,0,0,0,0,0,0,0,0,0,-1,1056,1079,0,0
-161,-55,0,0,0,0,0,0,0,0,0,-1,1063,1079,0,0
-154,-55,0,0,0,0,0,0,0,0,0,-1,1070,1079,0,0
-147,-55,0,0,0,0,0,0,0,0,0,-1,1077,1079,0,0
-140,-55,0,0,0,0,0,0,0,0,0,-1,1084,1079,0,0
-133,-55,0,0,0,0,0,0,0,0,0,-1,1091,1079,0,0
-126,-55,0,0,0,0,0,0,0,0,0,-1,1098,1079,0,0
-119,-55,0,0,0,0,0,0,0,0,0,-1,1105,1079,0,0
-112,-55,0,0,0,0,0,0,0,0,0,-1,1112,1079,0,0
-105,-55,0,0,0,0,0,0,0,0,0,-1,1119,1079,0,0
-98,-55,0,0,0,0,0,0,0,0,0,-1,1126,1079,0,0
-91,-55,0,0,0,0,0,0,0,0,0,-1,1133,1079,0,0
-84,-55,0,0,0,0,0,0,0,0,0,-1,1140,1079,0,0
-77,-55,0,0,0,0,0,0,0,0,0,-1,1147,1079,0,0
-70,-55,0,0,0,0,0,0,0,0,0,-1,1154,1079,0,0
-63,-55,0,0,0,0,0,0,0,0,0,-1,1161,1079,0,0
-56,-55,0,0,0,0,0,0,0,0,0,-1,1168,1079,0,0
-49,-55,0,0,0,0,0,0,0,0,0,-1,1175,1079,0,0
-42,-55,0,0,0,0,0,0,0,0,0,-1,1182,1079,0,0
-35,-55,0,0,0,0,0,0,0,0,0,-1,1189,1079,0,0
-28,-55,0,0,0,0,0,0,0,0,0,-1,1196,1079,0,0
-21,-55,0,0,0,0,0,0,0,0,0,-1,1203,1079,0,0
-14,-55,0,0,0,0,0,0,0,0,0,-1,1210,1079,0,0
-7,-55,0,0,0,0,0,0,0,0,0,-1,1217,1079,0,0
0,-55,0,0,0,0,0,0,0,0,0,-1,1224,1079,0,0
7,-55,0,0,0,0,0,0,0,0,0,-1,1231,1079,0,0
14,-55,0,0,0,0,0,0,0,0,0,-1,1238,1079,0,0
21,-55,0,0,0,0,0,0,0,0,0,-1,1245,1079,0,0
28,-55,0,0,0,0,0,0,0,0,0,-1,1252,1079,0,0
35,-55,0,0,0,0,0,0,0,0,0,-1,1259,1079,0,0
42,-55,0,0,0,0,0,0,0,0,0,-1,1266,1079,0,0
49,-55,0,0,0,0,0,0,0,0,0,-1,1273,1079,0,0
56,-55,0,0,0,0,0,0,0,0,0,-1,1280,1079,0,0
63,-55,0,0,0,0,0,0,0,0,0,-1,1287,1079,0,0
70,-55,0,0,0,0,0,0,0,0,0,-1,1294,1079,0,0
77,-55,0,0,0,0,0,0,0,0,0,-1,1301,1079,0,0
84,-55,0,0,0,0,0,0,0,0,0,-1,1308,1079,0,0
91,-55,0,0,0,0,0,0,0,0,0,-1,1315,1079,0,0
98,-55,0,0,0,0,0,0,0,0,0,-1,1322,1079,0,0
105,-55,0,0,0,0,0,0,0,0,0,-1,1329,1079,0,0
112,-55,0,0,0,0,0,0,0,0,0,-1,1336,1079,0,0
119,-55,0,0,0,0,0,0,0,0,0,-1,1343,1079,0,0
126,-55,0,0,0,0,0,0,0,0,0,-1,1350,1079,0,0
133,-55,0,0,0,0,0,0,0,0,0,-1,1357,1079,0,0
140,-55,0,0,0,0,0,0,0,0,0,-1,1364,1079,0,0
147,-55,0,0,0,0,0,0,0,0,0,-1,1371,1079,0,0
154,-55,0,0,0,0,0,0,0,0,0,-1,1378,1079,0,0
161,-55,0,0,0,0,0,0,0,0,0,-1,1385,1079,0,0
168,-55,0,0,0,0,0,0,0,0,0,-1,1392,1079,0,0
175,-55,0,0,0,0,0,0,0,0,0,-1,1399,1079,0,0
182,-55,0,0,0,0,0,0,0,0,0,-1,1406,1079,0,0
189,-55,0,0,0,0,0,0,0,0,0,-1,1413,1079,0,0
196,-55,0,0,0,0,0,0,0,0,0,-1,1420,1079,0,0
203,-55,0,0,0,0,0,0,0,0,0,-1,1427,1079,0,0
210,-55,0,0,0,0,0,0,0,0,0,-1,1434,1079,0,0
217,-55,0,0,0,0,0,0,0,0,0,-1,1441,1079,0,0
224,-55,0,0,0,0,0,0,0,0,0,-1,1448,1079,0,0
231,-55,0,0,0,0,0,0,0,0,0,-1,1455,1079,0,0
238,-55,0,0,0,0,0,0,0,0,0,-1,1462,1079,0,0
245,-55,0,0,0,0,0,0,0,0,0,-1,1469,1079,0,0
252,-55,0,0,0,0,0,0,0,0,0,-1,1476,1079,0,0
259,-55,0,0,0,0,0,0,0,0,0,-1,1483,1079,0,0
266,-55,0,0,0,0,0,0,0,0,0,-1,1490,1079,0,0
273,-55,0,0,0,0,0,0,0,0,0,-1,1497,1079,0,0
280,-55,0,0,0,0,0,0,0,0,0,-1,1504,1079,0,0
287,-55,0,0,0,0,0,0,0,0,0,-1,1511,1079,0,0
294,-55,0,0,0,0,0,0,0,0,0,-1,1518,1079,0,0
301,-55,0,0,0,0,0,0,0,0,0,-1,1525,1079,0,0
308,-55,0,0,0,0,0,0,0,0,0,-1,1532,1079,0,0
315,-55,0,0,0,0,0,0,0,0,0,-1,1539,1079,0,0
322,-55,0,0,0,0,0,0,0,0,0,-1,1546,1079,0,0
329,-55,0,0,0,0,0,0,0,0,0,-1,1553,1079,0,0
336,-55,0,0,0,0,0,0,0,0,0,-1,1560,1079,0,0
343,-55,0,0,0,0,0,0,0,0,0,-1,1567,1079,0,0
350,-55,0,0,0,0,0,0,0,0,0,-1,1574,1079,0,0
357,-55,0,0,0,0,0,0,0,0,0,-1,1581,1079,0,0
364,-55,0,0,0,0,0,0,0,0,0,-1,1588,1079,0,0
371,-55,0,0,0,0,0,0,0,0,0,-1,1595,1079,0,0
378,-55,0,0,0,0,0,0,0,0,0,-1,1602,1079,0,0
385,-55,0,0,0,0,0,0,0,0,0,-1,1609,1079,0,0
392,-55,0,0,0,0,0,0,0,0,0,-1,1616,1079,0,0
399,-55,0,0,0,0,0,0,0,0,0,-1,1623,1079,0,0
406,-55,0,0,0,0,0,0,0,0,0,-1,1630,1079,0,0
413,-55,0,0,0,0,0,0,0,0,0,-1,1637,1079,0,0
420,-55,0,0,0,0,0,0,0,0,0,-1,1644,1079,0,0
427,-55,0,0,0,0,0,0,0,0,0,-1,1651,1079,0,0
434,-55,0,0,0,0,0,0,0,0,0,-1,1658,1079,0,0
441,-55,0,0,0,0,0,0,0,0,0,-1,1665,1079,0,0
448,-55,0,0,0,0,0,0,0,0,0,-1,1672,1079,0,0
455,-55,0,0,0,0,0,0,0,0,0,-1,1679,1079,0,0
462,-55,0,0,0,0,0,0,0,0,0,-1,1686,1079,0,0
469,-55,0,0,0,0,0,0,0,0,0,-1,1693,1079,0,0
476,-55,0,0,0,0,0,0,0,0,0,-1,1700,1079,0,0
483,-55,0,0,0,0,0,0,0,0,0,-1,1707,1079,0,0
490,-55,0,0,0,0,0,0,0,0,0,-1,1714,1079,0,0
497,-55,0,0,0,0,0,0,0,0,0,-1,1721,1079,0,0
504,-55,0,0,0,0,0,0,0,0,0,-1,1728,1079,0,0
511,-55,0,0,0,0,0,0,0,0,0,-1,1735,1079,0,0
518,-55,0,0,0,0,0,0,0,0,0,-1,1742,1079,0,0
525,-55,0,0,0,0,0,0,0,0,0,-1,1749,1079,0,0
532,-55,0,0,0,0,0,0,0,0,0,-1,1756,1079,0,0
539,-55,0,0,0,0,0,0,0,0,0,-1,1763,1079,0,0
546,-55,0,0,0,0,0,0,0,0,0,-1,1770,1079,0,0
553,-55,0,0,0,0,0,0,0,0,0,-1,1777,1079,0,0
560,-55,0,0,0,0,0,0,0,0,0,-1,1784,1079,0,0
567,-55,0,0,0,0,0,0,0,0,0,-1,1791,1079,0,0
574,-55,0,0,0,0,0,0,0,0,0,-1,1798,1079,0,0
581,-55,0,0,0,0,0,0,0,0,0,-1,1805,1079,0,0
588,-55,0,0,0,0,0,0,0,0,0,-1,1812,1079,0,0
595,-55,0,0,0,0,0,0,0,0,0,-1,1819,1079,0,0
602,-55,0,0,0,0,0,0,0,0,0,-1,1826,1079,0,0
609,-55,0,0,0,0,0,0,0,0,0,-1,1833,1079,0,0
616,-55,0,0,0,0,0,0,0,0,0,-1,1840,1079,0,0
623,-55,0,0,0,0,0,0,0,0,0,-1,1847,1079,0,0
630,-55,0,0,0,0,0,0,0,0,0,-1,1854,1079,0,0
637,-55,0,0,0,0,0,0,0,0,0,-1,1861,1079,0,0
644,-55,0,0,0,0,0,0,0,0,0,-1,1868,1079,0,0
651,-55,18.7531,2.68384,0.00246264,0.000247746,-0.00186346,0.0035229,-0.000812506,-0.51729,0.00266111,0.0350349,1875,1079,18.753,-2.68379
658,-55,18.9625,2.57129,0.00184631,0.00039341,-0.00148671,0.00277456,-0.000534842,-0.558144,0.00205136,0.0352739,1882,1079,18.9625,-2.57134
665,-55,18.7587,2.42712,0.0015004,0.000418655,-0.00102319,0.00211688,-0.000197825,-0.54226,0.00148161,0.0389919,1889,1079,18.7587,-2.42711
672,-55,18.6881,2.51599,0.00121002,0.00018292,-8.77946e-05,0.00121747,0.00017547,-0.0846598,0.000759939,0.0405853,1896,1079,18.6881,-2.51593
679,-55,18.7335,2.59839,0.000452438,-0.000265283,0.00129022,0.00143277,-0.00124562,0.649757,0.00154762,0.0382535,1903,1079,18.7335,-2.59839
686,-55,18.8025,2.65881,-0.000484683,-0.000723184,0.00260379,0.00200258,-0.00321045,0.762515,0.00303656,0.039505,1910,1079,18.8025,-2.65876
693,-55,18.78,2.57068,-0.00131008,-0.00113791,0.00372912,0.00250611,-0.00495411,0.796938,0.00438377,0.0380312,1917,1079,18.7801,-2.57067
700,-55,18.7659,2.55139,-0.00207502,-0.00140601,0.004588,0.00285967,-0.00634069,0.821788,0.00543709,0.0315007,1924,1079,18.7659,-2.55143
707,-55,18.7869,2.58752,-0.0027542,-0.00160338,0.00518742,0.00304045,-0.00739803,0.840634,0.00619923,0.023638,1931,1079,18.7868,-2.58747
714,-55,18.8674,2.58411,0,0,0,0,0,0,0,-1,1938,1079,18.8675,-2.58416
721,-55,18.7393,3.37756,0,0,0,0,0,0,0,-1,1945,1079,18.7393,-3.37751
728,-55,18.3961,3.77344,0,0,0,0,0,0,0,-1,1952,1079,18.3961,-3.7735
735,-55,18.3499,3.75146,-0.00388586,-0.0012476,0.00506558,0.0026678,-0.00780125,0.912774,0.00628186,0.0155997,1959,1079,18.3499,-3.7514
742,-55,18.3567,3.73743,-0.00414519,-0.000783947,0.00432094,0.0021717,-0.00710084,0.97087,0.00559996,0.0149649,1966,1079,18.3567,-3.73737
749,-55,18.4034,3.69714,-0.00440621,-0.000559426,0.00363351,0.00162836,-0.006594,1.02882,0.00502747,0.0120237,1973,1079,18.4034,-3.69714
756,-55,18.3917,3.65625,-0.0037161,0.000364856,0.00258967,0.00162134,-0.00497258,1.11907,0.00396751,0.010538,1980,1079,18.3917,-3.65622
763,-55,18.3577,3.64307,-0.00283976,0.000694085,0.00158311,0.00129956,-0.00344523,1.2055,0.00283123,0.0133199,1987,1079,18.3577,-3.64304
770,-55,18.3549,3.61536,-0.00214973,0.00127297,0.000487145,0.00134096,-0.00221771,1.43214,0.00207528,0.0139527,1994,1079,18.3548,-3.61531
777,-55,18.3684,3.56445,-0.00105608,0.00169246,-0.000365759,0.0017403,-0.00110392,-1.44074,0.00165576,0.0118757,2001,1079,18.3684,-3.5645
784,-55,18.2883,3.46338,0.000285801,0.00191221,-0.000737495,0.00219682,1.1893e-06,-1.20249,0.00146415,0.0270889,2008,1079,18.2883,-3.46335
791,-55,18.1005,3.31909,0.00207059,0.00187724,-0.000856381,0.00283573,0.00111209,-0.729191,0.00164985,0.040516,2015,1079,18.1004,-3.31908
798,-55,17.4944,3.91675,0.00494335,0.00156394,-0.000893666,0.00516512,0.00134217,-0.243245,0.00309462,0.045295,2022,1079,17.4943,-3.91674
805,-55,17.3937,3.95532,0,0,0,0,0,0,0,-1,2029,1079,17.3937,-3.95538
812,-55,17.8645,3.76416,0,0,0,0,0,0,0,-1,2036,1079,17.8645,-3.76417
-700,-62,-12.948,2.5791,0.0846007,0.0171415,-0.0378243,0.10155,0.00019208,-0.42128,0.0676362,0.0482338,524,1086,-12.948,-2.57915
-693,-62,-13.686,2.97107,0.0586188,0.0210957,-0.0292887,0.0746398,0.00507477,-0.500538,0.0481575,0.0499716,531,1086,-13.686,-2.97105
-686,-62,-10.1448,0.141479,0,0,0,0,0,0,0,-1,538,1086,-10.1448,-0.141539
-679,-62,-10.4891,0.319092,0.0246058,0.0213248,-0.0150352,0.0380898,0.00784085,-0.731057,0.023225,0.0454616,545,1086,-10.4891,-0.319141
-672,-62,-10.596,0.396484,0.0143889,0.0194695,-0.00989375,0.0271439,0.00671454,-0.911061,0.0163247,0.0463983,552,1086,-10.596,-0.396544
-665,-62,-11.7997,0.173584,0.00750941,0.017024,-0.00599443,0.0199195,0.00461393,-1.12082,0.0120401,0.0465633,559,1086,-11.7997,-0.173624
-658,-62,-11.947,0.459595,0.00316419,0.0143244,-0.00320146,0.0151776,0.00231103,-1.31036,0.00944277,0.044968,566,1086,-11.947,-0.459567
-651,-62,-11.9333,0.86084,0.000676022,0.0116049,-0.00133533,0.0117657,0.000515233,-1.45096,0.00767781,0.033043,573,1086,-11.9333,-0.860875
-644,-62,-11.9151,1.07837,-0.000602186,0.00914791,-0.000469063,0.00917042,-0.0006247,-1.52284,0.00633213,0.0111679,580,1086,-11.9151,-1.0784
-637,-62,-11.9191,1.16589,-0.00311676,0.00693103,-0.0002251,0.00693607,-0.0031218,-1.54841,0.00594448,0.0100152,587,1086,-11.9191,-1.16583
-630,-62,-11.9166,1.23352,-0.00368843,0.00443993,-0.000924148,0.00454368,-0.00379218,-1.459,0.00481922,0.0122268,594,1086,-11.9166,-1.23356
-623,-62,-11.911,1.3031,-0.00273976,0.00213674,-0.00177548,0.00271468,-0.0033177,-1.2561,0.00348859,0.0135172,601,1086,-11.911,-1.30315
-616,-62,-11.8823,1.35706,-0.0019733,0.000910486,-0.0033829,0.00314597,-0.00420878,-0.986854,0.00426102,0.0130467,608,1086,-11.8823,-1.35706
-609,-62,-11.866,1.42371,-0.00195597,-0.000194819,-0.00463206,0.00363962,-0.00579042,-0.87933,0.00549144,0.0128541,615,1086,-11.8661,-1.42375
-602,-62,-11.8641,1.47534,-0.00225214,-0.000907188,-0.00571054,0.00417033,-0.00732966,-0.844009,0.00672252,0.0133494,622,1086,-11.8641,-1.4754
-595,-62,-11.8513,1.52478,-0.00261051,-0.00130958,-0.00659248,0.00466445,-0.00858454,-0.834573,0.00776011,0.0165818,629,1086,-11.8512,-1.5248
-588,-62,-11.9322,1.24084,-0.00273245,-0.00142838,-0.00686971,0.00482017,-0.008981,-0.832714,0.00808791,0.0252598,636,1086,-11.9322,-1.24081
-581,-62,-12.0793,0.840088,-0.00259924,-0.00141053,-0.00652334,0.00454547,-0.00855524,-0.830829,0.00768089,0.0315196,643,1086,-12.0793,-0.840116
-574,-62,-12.0502,0.673096,-0.002463,-0.00127885,-0.00590846,0.00406713,-0.00780898,-0.835335,0.0069692,0.033412,650,1086,-12.0502,-0.673141
-567,-62,-12.0652,0.442871,-0.00212485,-0.000998739,-0.00470551,0.00317728,-0.00630087,-0.844944,0.00557039,0.0392453,657,1086,-12.0652,-0.442905
-560,-62,-12.1435,0.338623,-0.00150117,-0.000603515,-0.0028543,0.00183703,-0.00394171,-0.863383,0.00340932,0.0408249,664,1086,-12.1435,-0.338575
-553,-62,-12.0938,0.615845,-0.000569002,-0.000147641,-0.000344575,4.55569e-05,-0.0007622,-1.05979,0.00052398,0.0358533,671,1086,-12.0938,-0.615847
-546,-62,-12.1162,0.649658,0.000715344,0.000302738,0.00283978,0.00335631,-0.00233823,0.749138,0.00330521,0.0300376,678,1086,-12.1162,-0.649692
-539,-62,-12.2561,0.609009,0.00230045,0.000618513,0.00628797,0.00780344,-0.00488448,0.718921,0.00738971,0.0362317,685,1086,-12.2561,-0.609051
-532,-62,-12.3124,1.12891,0.00355372,0.000336372,0.00833801,0.0104368,-0.00654673,0.690103,0.00989082,0.0413458,692,1086,-12.3124,-1.12894
-525,-62,0,0,0,0,0,0,0,0,0,-1,699,1086,0,0
-518,-62,0,0,0,0,0,0,0,0,0,-1,706,1086,0,0
-511,-62,0,0,0,0,0,0,0,0,0,-1,713,1086,0,0
-504,-62,0,0,0,0,0,0,0,0,0,-1,720,1086,0,0
-497,-62,0,0,0,0,0,0,0,0,0,-1,727,1086,0,0
-490,-62,0,0,0,0,0,0,0,0,0,-1,734,1086,0,0
-483,-62,0,0,0,0,0,0,0,0,0,-1,741,1086,0,0
-476,-62,0,0,0,0,0,0,0,0,0,-1,748,1086,0,0
-469,-62,0,0,0,0,0,0,0,0,0,-1,755,1086,0,0
-462,-62,0,0,0,0,0,0,0,0,0,-1,762,1086,0,0
-455,-62,0,0,0,0,0,0,0,0,0,-1,769,1086,0,0
-448,-62,0,0,0,0,0,0,0,0,0,-1,776,1086,0,0
-441,-62,0,0,0,0,0,0,0,0,0,-1,783,1086,0,0
-434,-62,0,0,0,0,0,0,0,0,0,-1,790,1086,0,0
-427,-62,0,0,0,0,0,0,0,0,0,-1,797,1086,0,0
-420,-62,0,0,0,0,0,0,0,0,0,-1,804,1086,0,0
-413,-62,0,0,0,0,0,0,0,0,0,-1,811,1086,0,0
-406,-62,0,0,0,0,0,0,0,0,0,-1,818,1086,0,0
-399,-62,0,0,0,0,0,0,0,0,0,-1,825,1086,0,0
-392,-62,0,0,0,0,0,0,0,0,0,-1,832,1086,0,0
-385,-62,0,0,0,0,0,0,0,0,0,-1,839,1086,0,0
-378,-62,0,0,0,0,0,0,0,0,0,-1,846,1086,0,0
-371,-62,0,0,0,0,0,0,0,0,0,-1,853,1086,0,0
-364,-62,0,0,0,0,0,0,0,0,0,-1,860,1086,0,0
-357,-62,0,0,0,0,0,0,0,0,0,-1,867,1086,0,0
-350,-62,0,0,0,0,0,0,0,0,0,-1,874,1086,0,0
-343,-62,0,0,0,0,0,0,0,0,0,-1,881,1086,0,0
-336,-62,0,0,0,0,0,0,0,0,0,-1,888,1086,0,0
-329,-62,0,0,0,0,0,0,0,0,0,-1,895,1086,0,0
-322,-62,0,0,0,0,0,0,0,0,0,-1,902,1086,0,0
-315,-62,0,0,0,0,0,0,0,0,0,-1,909,1086,0,0
-308,-62,0,0,0,0,0,0,0,0,0,-1,916,1086,0,0
-301,-62,0,0,0,0,0,0,0,0,0,-1,923,1086,0,0
-294,-62,0,0,0,0,0,0,0,0,0,-1,930,1086,0,0
-287,-62,0,0,0,0,0,0,0,0,0,-1,937,1086,0,0
-280,-62,0,0,0,0,0,0,0,0,0,-1,944,1086,0,0
-273,-62,0,0,0,0,0,0,0,0,0,-1,951,1086,0,0
-266,-62,0,0,0,0,0,0,0,0,0,-1,958,1086,0,0
-259,-62,0,0,0,0,0,0,0,0,0,-1,965,1086,0,0
-252,-62,0,0,0,0,0,0,0,0,0,-1,972,1086,0,0
-245,-62,0,0,0,0,0,0,0,0,0,-1,979,1086,0,0
-238,-62,0,0,0,0,0,0,0,0,0,-1,986,1086,0,0
-231,-62,0,0,0,0,0,0,0,0,0,-1,993,1086,0,0
-224,-62,0,0,0,0,0,0,0,0,0,-1,1000,1086,0,0
-217,-62,0,0,0,0,0,0,0,0,0,-1,1007,1086,0,0
-210,-62,0,0,0,0,0,0,0,0,0,-1,1014,1086,0,0
-203,-62,0,0,0,0,0,0,0,0,0,-1,1021,1086,0,0
-196,-62,0,0,0,0,0,0,0,0,0,-1,1028,1086,0,0
-189,-62,0,0,0,0,0,0,0,0,0,-1,1035,1086,0,0
-182,-62,0,0,0,0,0,0,0,0,0,-1,1042,1086,0,0
-175,-62,0,0,0,0,0,0,0,0,0,-1,1049,1086,0,0
-168,-62,0,0,0,0,0,0,0,0,0,-1,1056,1086,0,0
-161,-62,0,0,0,0,0,0,0,0,0,-1,1063,1086,0,0
-154,-62,0,0,0,0,0,0,0,0,0,-1,1070,1086,0,0
-147,-62,0,0,0,0,0,0,0,0,0,-1,1077,1086,0,0
-140,-62,0,0,0,0,0,0,0,0,0,-1,1084,1086,0,0
-133,-62,0,0,0,0,0,0,0,0,0,-1,1091,1086,0,0
-126,-62,0,0,0,0,0,0,0,0,0,-1,1098,1086,0,0
-119,-62,0,0,0,0,0,0,0,0,0,-1,1105,1086,0,0
-112,-62,0,0,0,0,0,0,0,0,0,-1,1112,1086,0,0
-105,-62,0,0,0,0,0,0,0,0,0,-1,1119,1086,0,0
-98,-62,0,0,0,0,0,0,0,0,0,-1,1126,1086,0,0
-91,-62,0,0,0,0,0,0,0,0,0,-1,1133,1086,0,0
-84,-62,0,0,0,0,0,0,0,0,0,-1,1140,1086,0,0
-77,-62,0,0,0,0,0,0,0,0,0,-1,1147,1086,0,0
-70,-62,0,0,0,0,0,0,0,0,0,-1,1154,1086,0,0
-63,-62,0,0,0,0,0,0,0,0,0,-1,1161,1086,0,0
-56,-62,0,0,0,0,0,0,0,0,0,-1,1168,1086,0,0
-49,-62,0,0,0,0,0,0,0,0,0,-1,1175,1086,0,0
-42,-62,0,0,0,0,0,0,0,0,0,-1,1182,1086,0,0
-35,-62,0,0,0,0,0,0,0,0,0,-1,1189,1086,0,0
-28,-62,0,0,0,0,0,0,0,0,0,-1,1196,1086,0,0
-21,-62,0,0,0,0,0,0,0,0,0,-1,1203,1086,0,0
-14,-62,0,0,0,0,0,0,0,0,0,-1,1210,1086,0,0
-7,-62,0,0,0,0,0,0,0,0,0,-1,1217,1086,0,0
0,-62,0,0,0,0,0,0,0,0,0,-1,1224,1086,0,0
7,-62,0,0,0,0,0,0,0,0,0,-1,1231,1086,0,0
14,-62,0,0,0,0,0,0,0,0,0,-1,1238,1086,0,0
21,-62,0,0,0,0,0,0,0,0,0,-1,1245,1086,0,0
28,-62,0,0,0,0,0,0,0,0,0,-1,1252,1086,0,0
35,-62,0,0,0,0,0,0,0,0,0,-1,1259,1086,0,0
42,-62,0,0,0,0,0,0,0,0,0,-1,1266,1086,0,0
49,-62,0,0,0,0,0,0,0,0,0,-1,1273,1086,0,0
56,-62,0,0,0,0,0,0,0,0,0,-1,1280,1086,0,0
63,-62,0,0,0,0,0,0,0,0,0,-1,1287,1086,0,0
70,-62,0,0,0,0,0,0,0,0,0,-1,1294,1086,0,0
77,-62,0,0,0,0,0,0,0,0,0,-1,1301,1086,0,0
84,-62,0,0,0,0,0,0,0,0,0,-1,1308,1086,0,0
91,-62,0,0,0,0,0,0,0,0,0,-1,1315,1086,0,0
98,-62,0,0,0,0,0,0,0,0,0,-1,1322,1086,0,0
105,-62,0,0,0,0,0,0,0,0,0,-1,1329,1086,0,0
112,-62,0,0,0,0,0,0,0,0,0,-1,1336,1086,0,0
119,-62,0,0,0,0,0,0,0,0,0,-1,1343,1086,0,0
126,-62,0,0,0,0,0,0,0,0,0,-1,1350,1086,0,0
133,-62,0,0,0,0,0,0,0,0,0,-1,1357,1086,0,0
140,-62,0,0,0,0,0,0,0,0,0,-1,1364,1086,0,0
147,-62,0,0,0,0,0,0,0,0,0,-1,1371,1086,0,0
154,-62,0,0,0,0,0,0,0,0,0,-1,1378,1086,0,0
161,-62,0,0,0,0,0,0,0,0,0,-1,1385,1086,0,0
168,-62,0,0,0,0,0,0,0,0,0,-1,1392,1086,0,0
175,-62,0,0,0,0,0,0,0,0,0,-1,1399,1086,0,0
182,-62,0,0,0,0,0,0,0,0,0,-1,1406,1086,0,0
189,-62,0,0,0,0,0,0,0,0,0,-1,1413,1086,0,0
196,-62,0,0,0,0,0,0,0,0,0,-1,1420,1086,0,0
203,-62,0,0,0,0,0,0,0,0,0,-1,1427,1086,0,0
210,-62,0,0,0,0,0,0,0,0,0,-1,1434,1086,0,0
217,-62,0,0,0,0,0,0,0,0,0,-1,1441,1086,0,0
224,-62,0,0,0,0,0,0,0,0,0,-1,1448,1086,0,0
231,-62,0,0,0,0,0,0,0,0,0,-1,1455,1086,0,0
238,-62,0,0,0,0,0,0,0,0,0,-1,1462,1086,0,0
245,-62,0,0,0,0,0,0,0,0,0,-1,1469,1086,0,0
252,-62,0,0,0,0,0,0,0,0,0,-1,1476,1086,0,0
259,-62,0,0,0,0,0,0,0,0,0,-1,1483,1086,0,0
266,-62,0,0,0,0,0,0,0,0,0,-1,1490,1086,0,0
273,-62,0,0,0,0,0,0,0,0,0,-1,1497,1086,0,0
280,-62,0,0,0,0,0,0,0,0,0,-1,1504,1086,0,0
287,-62,0,0,0,0,0,0,0,0,0,-1,1511,1086,0,0
294,-62,0,0,0,0,0,0,0,0,0,-1,1518,1086,0,0
301,-62,0,0,0,0,0,0,0,0,0,-1,1525,1086,0,0
308,-62,0,0,0,0,0,0,0,0,0,-1,1532,1086,0,0
315,-62,0,0,0,0,0,0,0,0,0,-1,1539,1086,0,0
322,-62,0,0,0,0,0,0,0,0,0,-1,1546,1086,0,0
329,-62,0,0,0,0,0,0,0,0,0,-1,1553,1086,0,0
336,-62,0,0,0,0,0,0,0,0,0,-1,1560,1086,0,0
343,-62,0,0,0,0,0,0,0,0,0,-1,1567,1086,0,0
350,-62,0,0,0,0,0,0,0,0,0,-1,1574,1086,0,0
357,-62,0,0,0,0,0,0,0,0,0,-1,1581,1086,0,0
364,-62,0,0,0,0,0,0,0,0,0,-1,1588,1086,0,0
371,-62,0,0,0,0,0,0,0,0,0,-1,1595,1086,0,0
378,-62,0,0,0,0,0,0,0,0,0,-1,1602,1086,0,0
385,-62,0,0,0,0,0,0,0,0,0,-1,1609,1086,0,0
392,-62,0,0,0,0,0,0,0,0,0,-1,1616,1086,0,0
399,-62,0,0,0,0,0,0,0,0,0,-1,1623,1086,0,0
406,-62,0,0,0,0,0,0,0,0,0,-1,1630,1086,0,0
413,-62,0,0,0,0,0,0,0,0,0,-1,1637,1086,0,0
420,-62,0,0,0,0,0,0,0,0,0,-1,1644,1086,0,0
427,-62,0,0,0,0,0,0,0,0,0,-1,1651,1086,0,0
434,-62,0,0,0,0,0,0,0,0,0,-1,1658,1086,0,0
441,-62,0,0,0,0,0,0,0,0,0,-1,1665,1086,0,0
448,-62,0,0,0,0,0,0,0,0,0,-1,1672,1086,0,0
455,-62,0,0,0,0,0,0,0,0,0,-1,1679,1086,0,0
462,-62,0,0,0,0,0,0,0,0,0,-1,1686,1086,0,0
469,-62,0,0,0,0,0,0,0,0,0,-1,1693,1086,0,0
476,-62,0,0,0,0,0,0,0,0,0,-1,1700,1086,0,0
483,-62,0,0,0,0,0,0,0,0,0,-1,1707,1086,0,0
490,-62,0,0,0,0,0,0,0,0,0,-1,1714,1086,0,0
497,-62,0,0,0,0,0,0,0,0,0,-1,1721,1086,0,0
504,-62,0,0,0,0,0,0,0,0,0,-1,1728,1086,0,0
511,-62,0,0,0,0,0,0,0,0,0,-1,1735,1086,0,0
518,-62,0,0,0,0,0,0,0,0,0,-1,1742,1086,0,0
525,-62,0,0,0,0,0,0,0,0,0,-1,1749,1086,0,0
532,-62,0,0,0,0,0,0,0,0,0,-1,1756,1086,0,0
539,-62,0,0,0,0,0,0,0,0,0,-1,1763,1086,0,0
546,-62,0,0,0,0,0,0,0,0,0,-1,1770,1086,0,0
553,-62,0,0,0,0,0,0,0,0,0,-1,1777,1086,0,0
560,-62,0,0,0,0,0,0,0,0,0,-1,1784,1086,0,0
567,-62,0,0,0,0,0,0,0,0,0,-1,1791,1086,0,0
574,-62,0,0,0,0,0,0,0,0,0,-1,1798,1086,0,0
581,-62,0,0,0,0,0,0,0,0,0,-1,1805,1086,0,0
588,-62,0,0,0,0,0,0,0,0,0,-1,1812,1086,0,0
595,-62,0,0,0,0,0,0,0,0,0,-1,1819,1086,0,0
602,-62,0,0,0,0,0,0,0,0,0,-1,1826,1086,0,0
609,-62,0,0,0,0,0,0,0,0,0,-1,1833,1086,0,0
616,-62,0,0,0,0,0,0,0,0,0,-1,1840,1086,0,0
623,-62,0,0,0,0,0,0,0,0,0,-1,1847,1086,0,0
630,-62,0,0,0,0,0,0,0,0,0,-1,1854,1086,0,0
637,-62,0,0,0,0,0,0,0,0,0,-1,1861,1086,0,0
644,-62,0,0,0,0,0,0,0,0,0,-1,1868,1086,0,0
651,-62,18.5725,2.72729,0.00398338,0.000132501,-0.00255088,0.00525392,-0.00113804,-0.462111,0.00393718,0.0396651,1875,1086,18.5726,-2.72726
658,-62,18.7625,2.73743,0.00291291,0.000219771,-0.00194612,0.00393291,-0.000800226,-0.482755,0.00292539,0.0390879,1882,1086,18.7624,-2.73741
665,-62,18.7948,2.52832,0.00225422,0.000199248,-0.00130621,0.00288863,-0.000435167,-0.452135,0.002086,0.0388586,1889,1086,18.7948,-2.52834
672,-62,18.8472,2.56677,0.00170237,-6.9598e-05,-0.000233081,0.00173252,-9.97441e-05,-0.128623,0.00118965,0.037199,1896,1086,18.8472,-2.5668
679,-62,18.9243,2.65515,0.000767269,-0.000530847,0.00118674,0.00147085,-0.00123443,0.535159,0.00156388,0.0363209,1903,1086,18.9243,-2.65518
686,-62,18.8547,2.65955,-0.000256551,-0.000975707,0.0024787,0.00188852,-0.00312077,0.713367,0.00292114,0.0384625,1910,1086,18.8548,-2.65953
693,-62,18.8403,2.60364,-0.00112172,-0.00135603,0.00355345,0.00231651,-0.00479425,0.768919,0.00418765,0.0363628,1917,1086,18.8403,-2.60359
700,-62,18.8032,2.55579,-0.00191027,-0.00156822,0.0043457,0.00260981,-0.00608831,0.805065,0.00515398,0.0298681,1924,1086,18.8033,-2.55573
707,-62,18.7809,2.62219,-0.00261956,-0.00172219,0.00491141,0.00276099,-0.00710273,0.83095,0.00587584,0.0211199,1931,1086,18.7809,-2.62225
714,-62,18.8484,2.64929,-0.00307076,-0.00183905,0.00530138,0.00288213,-0.00779194,0.843223,0.00637629,0.0219302,1938,1086,18.8484,-2.64923
721,-62,18.7435,3.76343,0,0,0,0,0,0,0,-1,1945,1086,18.7435,-3.76347
728,-62,18.3615,3.79114,-0.00341907,-0.00157649,0.00522185,0.00280472,-0.00780028,0.872715,0.0063452,0.0270013,1952,1086,18.3614,-3.79113
735,-62,18.3223,3.74756,-0.00365651,-0.001249,0.0047624,0.00245942,-0.00736492,0.909187,0.00590308,0.0163838,1959,1086,18.3223,-3.7475
742,-62,18.3115,3.7605,-0.0038588,-0.00079854,0.0040691,0.00201861,-0.00667595,0.965238,0.00525439,0.0139804,1966,1086,18.3115,-3.76053
749,-62,18.3247,3.6947,-0.00402759,-0.000545395,0.00340291,0.00153597,-0.00610895,1.02186,0.0046696,0.0121595,1973,1086,18.3247,-3.69469
756,-62,18.3112,3.66638,-0.00311611,0.00046851,0.00239809,0.00167006,-0.00431766,1.10631,0.00356788,0.0126693,1980,1086,18.3111,-3.6664
763,-62,18.3076,3.62915,-0.00179146,0.00103869,0.0015001,0.00168584,-0.0024386,1.16352,0.00239443,0.0136477,1987,1086,18.3076,-3.62912
770,-62,18.3242,3.58191,-0.000569034,0.00185074,0.00050803,0.00195307,-0.000671367,1.37203,0.0015743,0.0112267,1994,1086,18.3242,-3.58193
777,-62,18.3121,3.51917,0.00126069,0.00262915,-0.000201993,0.00265834,0.0012315,-1.42727,0.00153618,0.0126869,2001,1086,18.3121,-3.51915
784,-62,18.2644,3.43323,0.00356101,0.00334275,-0.000428704,0.00389426,0.00300951,-0.660765,0.00235727,0.02635,2008,1086,18.2644,-3.43324
791,-62,17.7285,3.06787,0.00665266,0.0040242,-0.000393799,0.00671039,0.00396647,-0.145565,0.00389562,0.0402297,2015,1086,17.7285,-3.06786
798,-62,17.2351,4.26245,0,0,0,0,0,0,0,-1,2022,1086,17.2351,-4.26248
805,-62,17.4279,4.71472,0.0178137,0.00538145,0.000159154,0.0178158,0.00537942,0.0127989,0.0105515,0.044222,2029,1086,17.4278,-4.71468
812,-62,18.4141,4.13733,0.0268883,0.00594207,0.000744707,0.0269147,0.00591563,0.0354936,0.0163324,0.0450964,2036,1086,18.4141,-4.13736
-700,-69,-13.1655,2.59167,0,0,0,0,0,0,0,-1,524,1093,-13.1655,-2.59163
-693,-69,-10.3907,-0.644775,0,0,0,0,0,0,0,-1,531,1093,-10.3908,0.64483
-686,-69,-10.632,-0.291992,0.0349242,0.021961,-0.0250646,0.0543317,0.00255351,-0.658872,0.0354006,0.0466825,538,1093,-10.632,0.292052
-679,-69,-10.9711,0.0968018,0.0222383,0.0207863,-0.0175052,0.0390326,0.00399204,-0.764673,0.0247984,0.0468764,545,1093,-10.9711,-0.0967693
-672,-69,-10.9884,0.392822,0.0131829,0.0187106,-0.0114699,0.027745,0.0041485,-0.903626,0.0172806,0.0451308,552,1093,-10.9884,-0.392799
-665,-69,-11.5535,0.307739,0.00700726,0.0161784,-0.0068828,0.0198632,0.00332236,-1.07925,0.0122854,0.0463286,559,1093,-11.5534,-0.307773
-658,-69,-11.7329,0.488892,0.00304107,0.0134892,-0.00359749,0.0146081,0.0019222,-1.26927,0.00916542,0.0437471,566,1093,-11.7329,-0.488876
-651,-69,-11.8721,0.840088,0,0,0,0,0,0,0,-1,573,1093,-11.8721,-0.840143
-644,-69,-11.8229,1.10193,-0.000467838,0.00848835,-0.000328408,0.00850038,-0.000479863,-1.53419,0.00583346,0.00936865,580,1093,-11.8229,-1.10187
-637,-69,-11.8358,1.17517,-0.0028221,0.00634421,9.00249e-05,0.00634509,-0.00282298,1.56098,0.00542183,0.0117032,587,1093,-11.8358,-1.17514
-630,-69,-11.8326,1.23022,-0.00352278,0.00392519,-0.000499694,0.00395857,-0.00355615,-1.5041,0.0043407,0.0147547,594,1093,-11.8326,-1.23019
-623,-69,-11.8232,1.29993,-0.00280517,0.00174458,-0.00140435,0.00214315,-0.00320373,-1.29426,0.0031072,0.01389,601,1093,-11.8232,-1.29994
-616,-69,-11.812,1.36975,-0.00223083,0.000652042,-0.00309501,0.00262482,-0.00420361,-1.00333,0.00397736,0.0136225,608,1093,-11.812,-1.36978
-609,-69,-11.7908,1.40942,-0.0023228,-0.000432753,-0.00443596,0.00315773,-0.00591329,-0.890348,0.00531709,0.0122211,615,1093,-11.7909,-1.40939
-602,-69,-11.7951,1.49487,-0.0026685,-0.00107314,-0.00559934,0.00378505,-0.00752669,-0.856152,0.00664886,0.0159316,622,1093,-11.7951,-1.49487
-595,-69,-11.7883,1.56421,-0.00305537,-0.00146026,-0.00650249,0.00429341,-0.00880904,-0.84642,0.007713,0.019782,629,1093,-11.7883,-1.56416
-588,-69,-11.9023,1.38977,-0.00322577,-0.0016121,-0.00677245,0.0044014,-0.00923927,-0.844686,0.00803886,0.0246427,636,1093,-11.9023,-1.3898
-581,-69,-12.0592,0.940796,-0.00311917,-0.0016526,-0.00640745,0.00406339,-0.00883516,-0.842371,0.00761495,0.0292167,643,1093,-12.0592,-0.940798
-574,-69,-12.0418,0.647095,-0.00295476,-0.00158683,-0.0058062,0.00357555,-0.00811714,-0.844028,0.00691844,0.0310783,650,1093,-12.0418,-0.647061
-567,-69,-11.9891,0.595459,-0.00258953,-0.00136956,-0.00463755,0.00269795,-0.00665704,-0.850789,0.00555999,0.0376717,657,1093,-11.9891,-0.595438
-560,-69,-12.0291,0.519043,-0.00190905,-0.00103302,-0.00282431,0.00138704,-0.00432911,-0.862329,0.00344285,0.0400249,664,1093,-12.029,-0.518986
-553,-69,-12.0311,0.571045,-0.00088801,-0.000627685,-0.000344706,-0.000389385,-0.00112631,-0.965925,0.000660513,0.0373761,671,1093,-12.0311,-0.571082
-546,-69,-12.1149,0.623169,0.000540626,-0.000220758,0.00283433,0.00301972,-0.00269985,0.71864,0.00330391,0.0339314,678,1093,-12.115,-0.623189
-539,-69,-12.17,0.610474,0.00234638,6.41827e-05,0.0063721,0.00767875,-0.00526818,0.696799,0.00751798,0.0384416,685,1093,-12.17,-0.610493
-532,-69,-11.9816,0.901978,0.00375299,-0.000311649,0.00852974,0.0104892,-0.00704784,0.668447,0.0101898,0.041925,692,1093,-11.9816,-0.901976
-525,-69,0,0,0,0,0,0,0,0,0,-1,699,1093,0,0
-518,-69,0,0,0,0,0,0,0,0,0,-1,706,1093,0,0
-511,-69,0,0,0,0,0,0,0,0,0,-1,713,1093,0,0
-504,-69,0,0,0,0,0,0,0,0,0,-1,720,1093,0,0
-497,-69,0,0,0,0,0,0,0,0,0,-1,727,1093,0,0
-490,-69,0,0,0,0,0,0,0,0,0,-1,734,1093,0,0
-483,-69,0,0,0,0,0,0,0,0,0,-1,741,1093,0,0
-476,-69,0,0,0,0,0,0,0,0,0,-1,748,1093,0,0
-469,-69,0,0,0,0,0,0,0,0,0,-1,755,1093,0,0
-462,-69,0,0,0,0,0,0,0,0,0,-1,762,1093,0,0
-455,-69,0,0,0,0,0,0,0,0,0,-1,769,1093,0,0
-448,-69,0,0,0,0,0,0,0,0,0,-1,776,1093,0,0
-441,-69,0,0,0,0,0,0,0,0,0,-1,783,1093,0,0
-434,-69,0,0,0,0,0,0,0,0,0,-1,790,1093,0,0
-427,-69,0,0,0,0,0,0,0,0,0,-1,797,1093,0,0
-420,-69,0,0,0,0,0,0,0,0,0,-1,804,1093,0,0
-413,-69,0,0,0,0,0,0,0,0,0,-1,811,1093,0,0
-406,-69,0,0,0,0,0,0,0,0,0,-1,818,1093,0,0
-399,-69,0,0,0,0,0,0,0,0,0,-1,825,1093,0,0
-392,-69,0,0,0,0,0,0,0,0,0,-1,832,1093,0,0
-385,-69,0,0,0,0,0,0,0,0,0,-1,839,1093,0,0
-378,-69,0,0,0,0,0,0,0,0,0,-1,846,1093,0,0
-371,-69,0,0,0,0,0,0,0,0,0,-1,853,1093,0,0
-364,-69,0,0,0,0,0,0,0,0,0,-1,860,1093,0,0
-357,-69,0,0,0,0,0,0,0,0,0,-1,867,1093,0,0
-350,-69,0,0,0,0,0,0,0,0,0,-1,874,1093,0,0
-343,-69,0,0,0,0,0,0,0,0,0,-1,881,1093,0,0
-336,-69,0,0,0,0,0,0,0,0,0,-1,888,1093,0,0
-329,-69,0,0,0,0,0,0,0,0,0,-1,895,1093,0,0
-322,-69,0,0,0,0,0,0,0,0,0,-1,902,1093,0,0
-315,-69,0,0,0,0,0,0,0,0,0,-1,909,1093,0,0
-308,-69,0,0,0,0,0,0,0,0,0,-1,916,1093,0,0
-301,-69,0,0,0,0,0,0,0,0,0,-1,923,1093,0,0
-294,-69,0,0,0,0,0,0,0,0,0,-1,930,1093,0,0
-287,-69,0,0,0,0,0,0,0,0,0,-1,937,1093,0,0
-280,-69,0,0,0,0,0,0,0,0,0,-1,944,1093,0,0
-273,-69,0,0,0,0,0,0,0,0,0,-1,951,1093,0,0
-266,-69,0,0,0,0,0,0,0,0,0,-1,958,1093,0,0
-259,-69,0,0,0,0,0,0,0,0,0,-1,965,1093,0,0
-252,-69,0,0,0,0,0,0,0,0,0,-1,972,1093,0,0
-245,-69,0,0,0,0,0,0,0,0,0,-1,979,1093,0,0
-238,-69,0,0,0,0,0,0,0,0,0,-1,986,1093,0,0
-231,-69,0,0,0,0,0,0,0,0,0,-1,993,1093,0,0
-224,-69,0,0,0,0,0,0,0,0,0,-1,1000,1093,0,0
-217,-69,0,0,0,0,0,0,0,0,0,-1,1007,1093,0,0
-210,-69,0,0,0,0,0,0,0,0,0,-1,1014,1093,0,0
-203,-69,0,0,0,0,0,0,0,0,0,-1,1021,1093,0,0
-196,-69,0,0,0,0,0,0,0,0,0,-1,1028,1093,0,0
-189,-69,0,0,0,0,0,0,0,0,0,-1,1035,1093,0,0
-182,-69,0,0,0,0,0,0,0,0,0,-1,1042,1093,0,0
-175,-69,0,0,0,0,0,0,0,0,0,-1,1049,1093,0,0
-168,-69,0,0,0,0,0,0,0,0,0,-1,1056,1093,0,0
-161,-69,0,0,0,0,0,0,0,0,0,-1,1063,1093,0,0
-154,-69,0,0,0,0,0,0,0,0,0,-1,1070,1093,0,0
-147,-69,0,0,0,0,0,0,0,0,0,-1,1077,1093,0,0
-140,-69,0,0,0,0,0,0,0,0,0,-1,1084,1093,0,0
-133,-69,0,0,0,0,0,0,0,0,0,-1,1091,1093,0,0
-126,-69,0,0,0,0,0,0,0,0,0,-1,1098,1093,0,0
-119,-69,0,0,0,0,0,0,0,0,0,-1,1105,1093,0,0
-112,-69,0,0,0,0,0,0,0,0,0,-1,1112,1093,0,0
-105,-69,0,0,0,0,0,0,0,0,0,-1,1119,1093,0,0
-98,-69,0,0,0,0,0,0,0,0,0,-1,1126,1093,0,0
-91,-69,0,0,0,0,0,0,0,0,0,-1,1133,1093,0,0
-84,-69,0,0,0,0,0,0,0,0,0,-1,1140,1093,0,0
-77,-69,0,0,0,0,0,0,0,0,0,-1,1147,1093,0,0
-70,-69,0,0,0,0,0,0,0,0,0,-1,1154,1093,0,0
-63,-69,0,0,0,0,0,0,0,0,0,-1,1161,1093,0,0
-56,-69,0,0,0,0,0,0,0,0,0,-1,1168,1093,0,0
-49,-69,0,0,0,0,0,0,0,0,0,-1,1175,1093,0,0
-42,-69,0,0,0,0,0,0,0,0,0,-1,1182,1093,0,0
-35,-69,0,0,0,0,0,0,0,0,0,-1,1189,1093,0,0
-28,-69,0,0,0,0,0,0,0,0,0,-1,1196,1093,0,0
-21,-69,0,0,0,0,0,0,0,0,0,-1,1203,1093,0,0
-14,-69,0,0,0,0,0,0,0,0,0,-1,1210,1093,0,0
-7,-69,0,0,0,0,0,0,0,0,0,-1,1217,1093,0,0
0,-69,0,0,0,0,0,0,0,0,0,-1,1224,1093,0,0
7,-69,0,0,0,0,0,0,0,0,0,-1,1231,1093,0,0
14,-69,0,0,0,0,0,0,0,0,0,-1,1238,1093,0,0
21,-69,0,0,0,0,0,0,0,0,0,-1,1245,1093,0,0
28,-69,0,0,0,0,0,0,0,0,0,-1,1252,1093,0,0
35,-69,0,0,0,0,0,0,0,0,0,-1,1259,1093,0,0
42,-69,0,0,0,0,0,0,0,0,0,-1,1266,1093,0,0
49,-69,0,0,0,0,0,0,0,0,0,-1,1273,1093,0,0
56,-69,0,0,0,0,0,0,0,0,0,-1,1280,1093,0,0
63,-69,0,0,0,0,0,0,0,0,0,-1,1287,1093,0,0
70,-69,0,0,0,0,0,0,0,0,0,-1,1294,1093,0,0
77,-69,0,0,0,0,0,0,0,0,0,-1,1301,1093,0,0
84,-69,0,0,0,0,0,0,0,0,0,-1,1308,1093,0,0
91,-69,0,0,0,0,0,0,0,0,0,-1,1315,1093,0,0
98,-69,0,0,0,0,0,0,0,0,0,-1,1322,1093,0,0
105,-69,0,0,0,0,0,0,0,0,0,-1,1329,1093,0,0
112,-69,0,0,0,0,0,0,0,0,0,-1,1336,1093,0,0
119,-69,0,0,0,0,0,0,0,0,0,-1,1343,1093,0,0
126,-69,0,0,0,0,0,0,0,0,0,-1,1350,1093,0,0
133,-69,0,0,0,0,0,0,0,0,0,-1,1357,1093,0,0
140,-69,0,0,0,0,0,0,0,0,0,-1,1364,1093,0,0
147,-69,0,0,0,0,0,0,0,0,0,-1,1371,1093,0,0
154,-69,0,0,0,0,0,0,0,0,0,-1,1378,1093,0,0
161,-69,0,0,0,0,0,0,0,0,0,-1,1385,1093,0,0
168,-69,0,0,0,0,0,0,0,0,0,-1,1392,1093,0,0
175,-69,0,0,0,0,0,0,0,0,0,-1,1399,1093,0,0
182,-69,0,0,0,0,0,0,0,0,0,-1,1406,1093,0,0
189,-69,0,0,0,0,0,0,0,0,0,-1,1413,1093,0,0
196,-69,0,0,0,0,0,0,0,0,0,-1,1420,1093,0,0
203,-69,0,0,0,0,0,0,0,0,0,-1,1427,1093,0,0
210,-69,0,0,0,0,0,0,0,0,0,-1,1434,1093,0,0
217,-69,0,0,0,0,0,0,0,0,0,-1,1441,1093,0,0
224,-69,0,0,0,0,0,0,0,0,0,-1,1448,1093,0,0
231,-69,0,0,0,0,0,0,0,0,0,-1,1455,1093,0,0
238,-69,0,0,0,0,0,0,0,0,0,-1,1462,1093,0,0
245,-69,0,0,0,0,0,0,0,0,0,-1,1469,1093,0,0
252,-69,0,0,0,0,0,0,0,0,0,-1,1476,1093,0,0
259,-69,0,0,0,0,0,0,0,0,0,-1,1483,1093,0,0
266,-69,0,0,0,0,0,0,0,0,0,-1,1490,1093,0,0
273,-69,0,0,0,0,0,0,0,0,0,-1,1497,1093,0,0
280,-69,0,0,0,0,0,0,0,0,0,-1,1504,1093,0,0
287,-69,0,0,0,0,0,0,0,0,0,-1,1511,1093,0,0
294,-69,0,0,0,0,0,0,0,0,0,-1,1518,1093,0,0
301,-69,0,0,0,0,0,0,0,0,0,-1,1525,1093,0,0
308,-69,0,0,0,0,0,0,0,0,0,-1,1532,1093,0,0
315,-69,0,0,0,0,0,0,0,0,0,-1,1539,1093,0,0
322,-69,0,0,0,0,0,0,0,0,0,-1,1546,1093,0,0
329,-69,0,0,0,0,0,0,0,0,0,-1,1553,1093,0,0
336,-69,0,0,0,0,0,0,0,0,0,-1,1560,1093,0,0
343,-69,0,0,0,0,0,0,0,0,0,-1,1567,1093,0,0
350,-69,0,0,0,0,0,0,0,0,0,-1,1574,1093,0,0
357,-69,0,0,0,0,0,0,0,0,0,-1,1581,1093,0,0
364,-69,0,0,0,0,0,0,0,0,0,-1,1588,1093,0,0
371,-69,0,0,0,0,0,0,0,0,0,-1,1595,1093,0,0
378,-69,0,0,0,0,0,0,0,0,0,-1,1602,1093,0,0
385,-69,0,0,0,0,0,0,0,0,0,-1,1609,1093,0,0
392,-69,0,0,0,0,0,0,0,0,0,-1,1616,1093,0,0
399,-69,0,0,0,0,0,0,0,0,0,-1,1623,1093,0,0
406,-69,0,0,0,0,0,0,0,0,0,-1,1630,1093,0,0
413,-69,0,0,0,0,0,0,0,0,0,-1,1637,1093,0,0
420,-69,0,0,0,0,0,0,0,0,0,-1,1644,1093,0,0
427,-69,0,0,0,0,0,0,0,0,0,-1,1651,1093,0,0
434,-69,0,0,0,0,0,0,0,0,0,-1,1658,1093,0,0
441,-69,0,0,0,0,0,0,0,0,0,-1,1665,1093,0,0
448,-69,0,0,0,0,0,0,0,0,0,-1,1672,1093,0,0
455,-69,0,0,0,0,0,0,0,0,0,-1,1679,1093,0,0
462,-69,0,0,0,0,0,0,0,0,0,-1,1686,1093,0,0
469,-69,0,0,0,0,0,0,0,0,0,-1,1693,1093,0,0
476,-69,0,0,0,0,0,0,0,0,0,-1,1700,1093,0,0
483,-69,0,0,0,0,0,0,0,0,0,-1,1707,1093,0,0
490,-69,0,0,0,0,0,0,0,0,0,-1,1714,1093,0,0
497,-69,0,0,0,0,0,0,0,0,0,-1,1721,1093,0,0
504,-69,0,0,0,0,0,0,0,0,0,-1,1728,1093,0,0
511,-69,0,0,0,0,0,0,0,0,0,-1,1735,1093,0,0
518,-69,0,0,0,0,0,0,0,0,0,-1,1742,1093,0,0
525,-69,0,0,0,0,0,0,0,0,0,-1,1749,1093,0,0
532,-69,0,0,0,0,0,0,0,0,0,-1,1756,1093,0,0
539,-69,0,0,0,0,0,0,0,0,0,-1,1763,1093,0,0
546,-69,0,0,0,0,0,0,0,0,0,-1,1770,1093,0,0
553,-69,0,0,0,0,0,0,0,0,0,-1,1777,1093,0,0
560,-69,0,0,0,0,0,0,0,0,0,-1,1784,1093,0,0
567,-69,0,0,0,0,0,0,0,0,0,-1,1791,1093,0,0
574,-69,0,0,0,0,0,0,0,0,0,-1,1798,1093,0,0
581,-69,0,0,0,0,0,0,0,0,0,-1,1805,1093,0,0
588,-69,0,0,0,0,0,0,0,0,0,-1,1812,1093,0,0
595,-69,0,0,0,0,0,0,0,0,0,-1,1819,1093,0,0
602,-69,0,0,0,0,0,0,0,0,0,-1,1826,1093,0,0
609,-69,0,0,0,0,0,0,0,0,0,-1,1833,1093,0,0
616,-69,0,0,0,0,0,0,0,0,0,-1,1840,1093,0,0
623,-69,0,0,0,0,0,0,0,0,0,-1,1847,1093,0,0
630,-69,0,0,0,0,0,0,0,0,0,-1,1854,1093,0,0
637,-69,0,0,0,0,0,0,0,0,0,-1,1861,1093,0,0
644,-69,0,0,0,0,0,0,0,0,0,-1,1868,1093,0,0
651,-69,18.5938,2.63403,0.00531714,-0.00025594,-0.00316718,0.00674911,-0.00168791,-0.424622,0.005155,0.039129,1875,1093,18.5938,-2.634
658,-69,18.6432,2.63989,0.00385894,-0.000133965,-0.00232767,0.00492907,-0.00120409,-0.430923,0.00375236,0.041291,1882,1093,18.6432,-2.63983
665,-69,18.6937,2.64502,0.00292575,-0.000126263,-0.00152176,0.00355484,-0.000755353,-0.392002,0.0026577,0.0413964,1889,1093,18.6937,-2.64496
672,-69,18.6895,2.63733,0.0020727,-0.000425533,-0.000299871,0.00210819,-0.000461024,-0.117804,0.00158169,0.0359194,1896,1093,18.6895,-2.63735
679,-69,18.7614,2.58752,0.000918884,-0.000917775,0.00116627,0.00148498,-0.00148387,0.45189,0.00171406,0.0349828,1903,1093,18.7614,-2.58749
686,-69,18.8361,2.5658,-0.0002222,-0.00137858,0.00244333,0.00171042,-0.0033112,0.669215,0.00294793,0.0362399,1910,1093,18.836,-2.5658
693,-69,18.8568,2.60645,-0.00115489,-0.00175755,0.00347664,0.00203346,-0.0049459,0.74217,0.00414483,0.0335293,1917,1093,18.8568,-2.60642
700,-69,18.795,2.59497,-0.00198984,-0.00194287,0.00422204,0.00225575,-0.00618846,0.788179,0.00504844,0.0266294,1924,1093,18.7951,-2.59495
707,-69,18.7942,2.58984,-0.00273777,-0.00207244,0.0047676,0.00237409,-0.0071843,0.82023,0.00574675,0.0213062,1931,1093,18.7942,-2.5898
714,-69,18.8684,2.59644,-0.00318132,-0.0021539,0.00511929,0.00247739,-0.00781261,0.835404,0.00620141,0.0233975,1938,1093,18.8684,-2.59645
721,-69,18.8582,3.76245,0,0,0,0,0,0,0,-1,1945,1093,18.8581,-3.76245
728,-69,18.4851,3.76978,-0.00344997,-0.00182083,0.00498906,0.00241972,-0.00769052,0.86632,0.00609583,0.0266681,1952,1093,18.4851,-3.76973
735,-69,18.3126,3.78589,-0.00361798,-0.00144516,0.00456089,0.00215693,-0.00722007,0.90232,0.00567078,0.0163413,1959,1093,18.3127,-3.78595
742,-69,18.2905,3.73315,-0.00368146,-0.000966077,0.00390157,0.00180728,-0.00645482,0.952838,0.00501538,0.0127212,1966,1093,18.2905,-3.73312
749,-69,18.2327,3.68396,-0.00365265,-0.000627507,0.00324585,0.0014409,-0.00572105,1.00344,0.00437417,0.0138959,1973,1093,18.2326,-3.68397
756,-69,18.2546,3.67078,-0.00251766,0.000476345,0.00224988,0.00168174,-0.00372305,1.07895,0.00319379,0.0133616,1980,1093,18.2547,-3.6708
763,-69,18.2623,3.62476,-0.000851052,0.00125824,0.00137972,0.00194023,-0.00153305,1.11172,0.00200988,0.0142737,1987,1093,18.2624,-3.6248
770,-69,18.2585,3.56958,0.000847685,0.00228382,0.000412444,0.00239384,0.000737663,1.31011,0.00141559,0.0144203,1994,1093,18.2586,-3.56959
777,-69,18.2539,3.50464,0.00320678,0.00331507,-0.000260765,0.00352725,0.0029946,-0.887756,0.00219559,0.0186802,2001,1093,18.2539,-3.50461
784,-69,18.2938,3.48853,0.00610905,0.00435264,-0.000483207,0.00623321,0.00422848,-0.251506,0.00367429,0.0315533,2008,1093,18.2938,-3.48855
791,-69,17.7662,2.82654,0.00995604,0.00550175,-0.000491488,0.0100096,0.00544816,-0.1086,0.00578661,0.0433956,2015,1093,17.7662,-2.82653
798,-69,17.7009,2.68652,0,0,0,0,0,0,0,-1,2022,1093,17.701,-2.68647
805,-69,17.5767,2.48999,0.0229565,0.00842893,-5.38185e-05,0.0229567,0.00842873,-0.0037045,0.0134091,0.0464068,2029,1093,17.5767,-2.49
812,-69,18.7129,4.53198,0.0330891,0.0102673,0.000499088,0.0331,0.0102564,0.021855,0.0195655,0.0458627,2036,1093,18.7128,-4.53198
-700,-76,0,0,0,0,0,0,0,0,0,-1,524,1100,0,0
-693,-76,-11.2617,-1.59497,0,0,0,0,0,0,0,-1,531,1100,-11.2617,1.59497
-686,-76,-11.4694,-1.15344,0,0,0,0,0,0,0,-1,538,1100,-11.4695,1.15349
-679,-76,-11.3912,0.536255,0,0,0,0,0,0,0,-1,545,1100,-11.3912,-0.536204
-672,-76,-11.3326,0.610718,0.00982824,0.0175036,-0.0128004,0.0270293,0.000302605,-0.93104,0.0179195,0.0445645,552,1100,-11.3326,-0.610705
-665,-76,-11.3129,0.734619,0.00511657,0.015144,-0.00775461,0.0193645,0.000896037,-1.07237,0.0126216,0.0478209,559,1100,-11.3128,-0.734627
-658,-76,-11.3974,0.682129,0.00207468,0.012638,-0.00409044,0.0140367,0.000675946,-1.24131,0.00914081,0.0453425,566,1100,-11.3974,-0.682078
-651,-76,-11.6686,0.987671,0.000307048,0.010167,-0.00160963,0.0104231,5.09308e-05,-1.413,0.00693182,0.0274205,573,1100,-11.6687,-0.987618
-644,-76,-11.6996,1.09363,-0.000571075,0.00796809,-0.000318486,0.00797995,-0.000582937,-1.53357,0.00552454,0.0101443,580,1100,-11.6996,-1.09363
-637,-76,-11.7344,1.15308,-0.00253737,0.00593735,0.000310147,0.00594868,-0.0025487,1.53426,0.00503517,0.0131079,587,1100,-11.7344,-1.15303
-630,-76,-11.7365,1.20398,-0.00322787,0.00355016,-9.22825e-05,0.00355142,-0.00322912,-1.55718,0.00391622,0.015255,594,1100,-11.7365,-1.20395
-623,-76,-11.7251,1.28247,-0.00271001,0.00149792,-0.00101957,0.00173194,-0.00294404,-1.34517,0.00272974,0.0139398,601,1100,-11.7251,-1.28243
-616,-76,-11.7418,1.3623,-0.00238717,0.000521992,-0.00276551,0.00219213,-0.0040573,-1.0275,0.00366128,0.0121061,608,1100,-11.7418,-1.36232
-609,-76,-11.7552,1.39734,-0.00260116,-0.000499448,-0.00417279,0.00275278,-0.00585339,-0.908751,0.00507512,0.0124629,615,1100,-11.7552,-1.39739
-602,-76,-11.7339,1.48938,-0.00300489,-0.00112326,-0.00539659,0.00341391,-0.00754206,-0.871698,0.00647338,0.0176821,622,1100,-11.734,-1.48935
-595,-76,-11.7101,1.58691,-0.00342323,-0.00147994,-0.00626561,0.00388892,-0.00879209,-0.862324,0.00750159,0.0227387,629,1100,-11.7102,-1.58693
-588,-76,-11.8238,1.40454,-0.0036328,-0.00163467,-0.0064989,0.00394151,-0.00920898,-0.861665,0.00779282,0.0270851,636,1100,-11.8238,-1.40454
-581,-76,-12.0283,0.874878,-0.00355314,-0.0017043,-0.00613005,0.00357064,-0.00882808,-0.860235,0.0073698,0.0294102,643,1100,-12.0283,-0.874847
-574,-76,-12.0791,0.580444,-0.00337474,-0.00167532,-0.00555252,0.00309213,-0.00814218,-0.861325,0.00670101,0.0343436,650,1100,-12.0791,-0.580489
-567,-76,-12.0097,0.595703,-0.00299336,-0.00149216,-0.00444493,0.0022651,-0.00675062,-0.869043,0.00541571,0.038846,657,1100,-12.0097,-0.595743
-560,-76,-11.9532,0.747681,-0.00226634,-0.00118562,-0.00271065,0.00103801,-0.00448997,-0.883782,0.00339267,0.0416222,664,1100,-11.9533,-0.747692
-553,-76,-12.0589,0.573853,-0.00116105,-0.00080264,-0.00031045,-0.000623384,-0.0013403,-1.04716,0.000774452,0.0431298,671,1100,-12.0589,-0.573828
-546,-76,-12.1162,0.545654,0.000414869,-0.000410254,0.00280808,0.00284053,-0.00283591,0.71246,0.0032773,0.0407507,678,1100,-12.1162,-0.545657
-539,-76,-12.1707,0.587646,0.00247432,-0.000127043,0.00637324,0.00767825,-0.00533097,0.684738,0.00755152,0.0414201,685,1100,-12.1706,-0.5876
-532,-76,-12.0483,0.699341,0.00408612,-0.00055342,0.00855522,0.0106305,-0.0070978,0.653005,0.010303,0.0421935,692,1100,-12.0483,-0.699399
-525,-76,0,0,0,0,0,0,0,0,0,-1,699,1100,0,0
-518,-76,0,0,0,0,0,0,0,0,0,-1,706,1100,0,0
-511,-76,0,0,0,0,0,0,0,0,0,-1,713,1100,0,0
-504,-76,0,0,0,0,0,0,0,0,0,-1,720,1100,0,0
-497,-76,0,0,0,0,0,0,0,0,0,-1,727,1100,0,0
-490,-76,0,0,0,0,0,0,0,0,0,-1,734,1100,0,0
-483,-76,0,0,0,0,0,0,0,0,0,-1,741,1100,0,0
-476,-76,0,0,0,0,0,0,0,0,0,-1,748,1100,0,0
-469,-76,0,0,0,0,0,0,0,0,0,-1,755,1100,0,0
-462,-76,0,0,0,0,0,0,0,0,0,-1,762,1100,0,0
-455,-76,0,0,0,0,0,0,0,0,0,-1,769,1100,0,0
-448,-76,0,0,0,0,0,0,0,0,0,-1,776,1100,0,0
-441,-76,0,0,0,0,0,0,0,0,0,-1,783,1100,0,0
-434,-76,0,0,0,0,0,0,0,0,0,-1,790,1100,0,0
-427,-76,0,0,0,0,0,0,0,0,0,-1,797,1100,0,0
-420,-76,0,0,0,0,0,0,0,0,0,-1,804,1100,0,0
-413,-76,0,0,0,0,0,0,0,0,0,-1,811,1100,0,0
-406,-76,0,0,0,0,0,0,0,0,0,-1,818,1100,0,0
-399,-76,0,0,0,0,0,0,0,0,0,-1,825,1100,0,0
-392,-76,0,0,0,0,0,0,0,0,0,-1,832,1100,0,0
-385,-76,0,0,0,0,0,0,0,0,0,-1,839,1100,0,0
-378,-76,0,0,0,0,0,0,0,0,0,-1,846,1100,0,0
-371,-76,0,0,0,0,0,0,0,0,0,-1,853,1100,0,0
-364,-76,0,0,0,0,0,0,0,0,0,-1,860,1100,0,0
-357,-76,0,0,0,0,0,0,0,0,0,-1,867,1100,0,0
-350,-76,0,0,0,0,0,0,0,0,0,-1,874,1100,0,0
-343,-76,0,0,0,0,0,0,0,0,0,-1,881,1100,0,0
-336,-76,0,0,0,0,0,0,0,0,0,-1,888,1100,0,0
-329,-76,0,0,0,0,0,0,0,0,0,-1,895,1100,0,0
-322,-76,0,0,0,0,0,0,0,0,0,-1,902,1100,0,0
-315,-76,0,0,0,0,0,0,0,0,0,-1,909,1100,0,0
-308,-76,0,0,0,0,0,0,0,0,0,-1,916,1100,0,0
-301,-76,0,0,0,0,0,0,0,0,0,-1,923,1100,0,0
-294,-76,0,0,0,0,0,0,0,0,0,-1,930,1100,0,0
-287,-76,0,0,0,0,0,0,0,0,0,-1,937,1100,0,0
-280,-76,0,0,0,0,0,0,0,0,0,-1,944,1100,0,0
-273,-76,0,0,0,0,0,0,0,0,0,-1,951,1100,0,0
-266,-76,0,0,0,0,0,0,0,0,0,-1,958,1100,0,0
-259,-76,0,0,0,0,0,0,0,0,0,-1,965,1100,0,0
-252,-76,0,0,0,0,0,0,0,0,0,-1,972,1100,0,0
-245,-76,0,0,0,0,0,0,0,0,0,-1,979,1100,0,0
-238,-76,0,0,0,0,0,0,0,0,0,-1,986,1100,0,0
-231,-76,0,0,0,0,0,0,0,0,0,-1,993,1100,0,0
-224,-76,0,0,0,0,0,0,0,0,0,-1,1000,1100,0,0
-217,-76,0,0,0,0,0,0,0,0,0,-1,1007,1100,0,0
-210,-76,0,0,0,0,0,0,0,0,0,-1,1014,1100,0,0
-203,-76,0,0,0,0,0,0,0,0,0,-1,1021,1100,0,0
-196,-76,0,0,0,0,0,0,0,0,0,-1,1028,1100,0,0
-189,-76,0,0,0,0,0,0,0,0,0,-1,1035,1100,0,0
-182,-76,0,0,0,0,0,0,0,0,0,-1,1042,1100,0,0
-175,-76,0,0,0,0,0,0,0,0,0,-1,1049,1100,0,0
-168,-76,0,0,0,0,0,0,0,0,0,-1,1056,1100,0,0
-161,-76,0,0,0,0,0,0,0,0,0,-1,1063,1100,0,0
-154,-76,0,0,0,0,0,0,0,0,0,-1,1070,1100,0,0
-147,-76,0,0,0,0,0,0,0,0,0,-1,1077,1100,0,0
-140,-76,0,0,0,0,0,0,0,0,0,-1,1084,1100,0,0
-133,-76,0,0,0,0,0,0,0,0,0,-1,1091,1100,0,0
-126,-76,0,0,0,0,0,0,0,0,0,-1,1098,1100,0,0
-119,-76,0,0,0,0,0,0,0,0,0,-1,1105,1100,0,0
-112,-76,0,0,0,0,0,0,0,0,0,-1,1112,1100,0,0
-105,-76,0,0,0,0,0,0,0,0,0,-1,1119,1100,0,0
-98,-76,0,0,0,0,0,0,0,0,0,-1,1126,1100,0,0
-91,-76,0,0,0,0,0,0,0,0,0,-1,1133,1100,0,0
-84,-76,0,0,0,0,0,0,0,0,0,-1,1140,1100,0,0
-77,-76,0,0,0,0,0,0,0,0,0,-1,1147,1100,0,0
-70,-76,0,0,0,0,0,0,0,0,0,-1,1154,1100,0,0
-63,-76,0,0,0,0,0,0,0,0,0,-1,1161,1100,0,0
-56,-76,0,0,0,0,0,0,0,0,0,-1,1168,1100,0,0
-49,-76,0,0,0,0,0,0,0,0,0,-1,1175,1100,0,0
-42,-76,0,0,0,0,0,0,0,0,0,-1,1182,1100,0,0
-35,-76,0,0,0,0,0,0,0,0,0,-1,1189,1100,0,0
-28,-76,0,0,0,0,0,0,0,0,0,-1,1196,1100,0,0
-21,-76,0,0,0,0,0,0,0,0,0,-1,1203,1100,0,0
-14,-76,0,0,0,0,0,0,0,0,0,-1,1210,1100,0,0
-7,-76,0,0,0,0,0,0,0,0,0,-1,1217,1100,0,0
0,-76,0,0,0,0,0,0,0,0,0,-1,1224,1100,0,0
7,-76,0,0,0,0,0,0,0,0,0,-1,1231,1100,0,0
14,-76,0,0,0,0,0,0,0,0,0,-1,1238,1100,0,0
21,-76,0,0,0,0,0,0,0,0,0,-1,1245,1100,0,0
28,-76,0,0,0,0,0,0,0,0,0,-1,1252,1100,0,0
35,-76,0,0,0,0,0,0,0,0,0,-1,1259,1100,0,0
42,-76,0,0,0,0,0,0,0,0,0,-1,1266,1100,0,0
49,-76,0,0,0,0,0,0,0,0,0,-1,1273,1100,0,0
56,-76,0,0,0,0,0,0,0,0,0,-1,1280,1100,0,0
63,-76,0,0,0,0,0,0,0,0,0,-1,1287,1100,0,0
70,-76,0,0,0,0,0,0,0,0,0,-1,1294,1100,0,0
77,-76,0,0,0,0,0,0,0,0,0,-1,1301,1100,0,0
84,-76,0,0,0,0,0,0,0,0,0,-1,1308,1100,0,0
91,-76,0,0,0,0,0,0,0,0,0,-1,1315,1100,0,0
98,-76,0,0,0,0,0,0,0,0,0,-1,1322,1100,0,0
105,-76,0,0,0,0,0,0,0,0,0,-1,1329,1100,0,0
112,-76,0,0,0,0,0,0,0,0,0,-1,1336,1100,0,0
119,-76,0,0,0,0,0,0,0,0,0,-1,1343,1100,0,0
126,-76,0,0,0,0,0,0,0,0,0,-1,1350,1100,0,0
133,-76,0,0,0,0,0,0,0,0,0,-1,1357,1100,0,0
140,-76,0,0,0,0,0,0,0,0,0,-1,1364,1100,0,0
147,-76,0,0,0,0,0,0,0,0,0,-1,1371,1100,0,0
154,-76,0,0,0,0,0,0,0,0,0,-1,1378,1100,0,0
161,-76,0,0,0,0,0,0,0,0,0,-1,1385,1100,0,0
168,-76,0,0,0,0,0,0,0,0,0,-1,1392,1100,0,0
175,-76,0,0,0,0,0,0,0,0,0,-1,1399,1100,0,0
182,-76,0,0,0,0,0,0,0,0,0,-1,1406,1100,0,0
189,-76,0,0,0,0,0,0,0,0,0,-1,1413,1100,0,0
196,-76,0,0,0,0,0,0,0,0,0,-1,1420,1100,0,0
203,-76,0,0,0,0,0,0,0,0,0,-1,1427,1100,0,0
210,-76,0,0,0,0,0,0,0,0,0,-1,1434,1100,0,0
217,-76,0,0,0,0,0,0,0,0,0,-1,1441,1100,0,0
224,-76,0,0,0,0,0,0,0,0,0,-1,1448,1100,0,0
231,-76,0,0,0,0,0,0,0,0,0,-1,1455,1100,0,0
238,-76,0,0,0,0,0,0,0,0,0,-1,1462,1100,0,0
245,-76,0,0,0,0,0,0,0,0,0,-1,1469,1100,0,0
252,-76,0,0,0,0,0,0,0,0,0,-1,1476,1100,0,0
259,-76,0,0,0,0,0,0,0,0,0,-1,1483,1100,0,0
266,-76,0,0,0,0,0,0,0,0,0,-1,1490,1100,0,0
273,-76,0,0,0,0,0,0,0,0,0,-1,1497,1100,0,0
280,-76,0,0,0,0,0,0,0,0,0,-1,1504,1100,0,0
287,-76,0,0,0,0,0,0,0,0,0,-1,1511,1100,0,0
294,-76,0,0,0,0,0,0,0,0,0,-1,1518,1100,0,0
301,-76,0,0,0,0,0,0,0,0,0,-1,1525,1100,0,0
308,-76,0,0,0,0,0,0,0,0,0,-1,1532,1100,0,0
315,-76,0,0,0,0,0,0,0,0,0,-1,1539,1100,0,0
322,-76,0,0,0,0,0,0,0,0,0,-1,1546,1100,0,0
329,-76,0,0,0,0,0,0,0,0,0,-1,1553,1100,0,0
336,-76,0,0,0,0,0,0,0,0,0,-1,1560,1100,0,0
343,-76,0,0,0,0,0,0,0,0,0,-1,1567,1100,0,0
350,-76,0,0,0,0,0,0,0,0,0,-1,1574,1100,0,0
357,-76,0,0,0,0,0,0,0,0,0,-1,1581,1100,0,0
364,-76,0,0,0,0,0,0,0,0,0,-1,1588,1100,0,0
371,-76,0,0,0,0,0,0,0,0,0,-1,1595,1100,0,0
378,-76,0,0,0,0,0,0,0,0,0,-1,1602,1100,0,0
385,-76,0,0,0,0,0,0,0,0,0,-1,1609,1100,0,0
392,-76,0,0,0,0,0,0,0,0,0,-1,1616,1100,0,0
399,-76,0,0,0,0,0,0,0,0,0,-1,1623,1100,0,0
406,-76,0,0,0,0,0,0,0,0,0,-1,1630,1100,0,0
413,-76,0,0,0,0,0,0,0,0,0,-1,1637,1100,0,0
420,-76,0,0,0,0,0,0,0,0,0,-1,1644,1100,0,0
427,-76,0,0,0,0,0,0,0,0,0,-1,1651,1100,0,0
434,-76,0,0,0,0,0,0,0,0,0,-1,1658,1100,0,0
441,-76,0,0,0,0,0,0,0,0,0,-1,1665,1100,0,0
448,-76,0,0,0,0,0,0,0,0,0,-1,1672,1100,0,0
455,-76,0,0,0,0,0,0,0,0,0,-1,1679,1100,0,0
462,-76,0,0,0,0,0,0,0,0,0,-1,1686,1100,0,0
469,-76,0,0,0,0,0,0,0,0,0,-1,1693,1100,0,0
476,-76,0,0,0,0,0,0,0,0,0,-1,1700,1100,0,0
483,-76,0,0,0,0,0,0,0,0,0,-1,1707,1100,0,0
490,-76,0,0,0,0,0,0,0,0,0,-1,1714,1100,0,0
497,-76,0,0,0,0,0,0,0,0,0,-1,1721,1100,0,0
504,-76,0,0,0,0,0,0,0,0,0,-1,1728,1100,0,0
511,-76,0,0,0,0,0,0,0,0,0,-1,1735,1100,0,0
518,-76,0,0,0,0,0,0,0,0,0,-1,1742,1100,0,0
525,-76,0,0,0,0,0,0,0,0,0,-1,1749,1100,0,0
532,-76,0,0,0,0,0,0,0,0,0,-1,1756,1100,0,0
539,-76,0,0,0,0,0,0,0,0,0,-1,1763,1100,0,0
546,-76,0,0,0,0,0,0,0,0,0,-1,1770,1100,0,0
553,-76,0,0,0,0,0,0,0,0,0,-1,1777,1100,0,0
560,-76,0,0,0,0,0,0,0,0,0,-1,1784,1100,0,0
567,-76,0,0,0,0,0,0,0,0,0,-1,1791,1100,0,0
574,-76,0,0,0,0,0,0,0,0,0,-1,1798,1100,0,0
581,-76,0,0,0,0,0,0,0,0,0,-1,1805,1100,0,0
588,-76,0,0,0,0,0,0,0,0,0,-1,1812,1100,0,0
595,-76,0,0,0,0,0,0,0,0,0,-1,1819,1100,0,0
602,-76,0,0,0,0,0,0,0,0,0,-1,1826,1100,0,0
609,-76,0,0,0,0,0,0,0,0,0,-1,1833,1100,0,0
616,-76,0,0,0,0,0,0,0,0,0,-1,1840,1100,0,0
623,-76,0,0,0,0,0,0,0,0,0,-1,1847,1100,0,0
630,-76,0,0,0,0,0,0,0,0,0,-1,1854,1100,0,0
637,-76,0,0,0,0,0,0,0,0,0,-1,1861,1100,0,0
644,-76,0,0,0,0,0,0,0,0,0,-1,1868,1100,0,0
651,-76,18.8531,2.60303,0.00585709,-0.000899237,-0.00376632,0.00753829,-0.00258044,-0.419837,0.0060713,0.0393556,1875,1100,18.8532,-2.60297
658,-76,18.7739,2.56934,0.0042609,-0.000640476,-0.0026888,0.00544828,-0.00182785,-0.415847,0.00437078,0.0415622,1882,1100,18.7739,-2.56938
665,-76,18.691,2.56848,0.00321693,-0.000511281,-0.00169785,0.00387425,-0.0011686,-0.369378,0.00304798,0.0401847,1889,1100,18.6911,-2.56852
672,-76,18.6754,2.48755,0.00216185,-0.000762239,-0.00031896,0.00219623,-0.000796626,-0.107398,0.0017898,0.0380003,1896,1100,18.6754,-2.48751
679,-76,18.7555,2.42383,0.000873469,-0.00122312,0.00118128,0.00140452,-0.00175417,0.422487,0.00182739,0.0366049,1903,1100,18.7555,-2.4238
686,-76,18.7612,2.51746,-0.000324693,-0.00166428,0.00242962,0.00152577,-0.00351474,0.6509,0.00298471,0.0346335,1910,1100,18.7613,-2.51745
693,-76,18.8046,2.5708,-0.00129029,-0.00203016,0.00341071,0.0017705,-0.00509094,0.731378,0.00411317,0.0346182,1917,1100,18.8046,-2.57082
700,-76,18.786,2.57117,-0.00213768,-0.0021969,0.00410463,0.00193745,-0.00627203,0.781791,0.00495508,0.0291457,1924,1100,18.786,-2.57111
707,-76,18.795,2.60791,-0.00289798,-0.00231037,0.00461788,0.00202304,-0.0072314,0.817167,0.00561804,0.023325,1931,1100,18.795,-2.60793
714,-76,18.8962,2.76062,-0.00333473,-0.00236972,0.00492644,0.00209779,-0.00780224,0.834214,0.00602377,0.0339719,1938,1100,18.8962,-2.76063
721,-76,18.6597,3.44446,-0.00342755,-0.00226719,0.00493622,0.00212283,-0.00781758,0.843897,0.00604488,0.0371624,1945,1100,18.6596,-3.44451
728,-76,18.3909,3.82361,-0.00351919,-0.00201862,0.00473527,0.00202544,-0.00756324,0.863968,0.00583567,0.0226936,1952,1100,18.3909,-3.82365
735,-76,18.1831,3.78137,-0.00357722,-0.00162186,0.00432688,0.00183643,-0.0070355,0.89651,0.00540744,0.0184672,1959,1100,18.1831,-3.78135
742,-76,18.2406,3.71326,-0.00347267,-0.001139,0.00372052,0.00159337,-0.00620504,0.937351,0.0047576,0.0126407,1966,1100,18.2406,-3.71326
749,-76,18.2015,3.67566,-0.00321327,-0.000752195,0.00309374,0.00134675,-0.00531222,0.974681,0.00406545,0.0137961,1973,1100,18.2015,-3.67567
756,-76,18.2161,3.67297,-0.00185647,0.000583495,0.0022355,0.00191024,-0.00318322,1.03518,0.00297117,0.0141163,1980,1100,18.2161,-3.67293
763,-76,18.2184,3.59546,0.000124625,0.00159892,0.00145105,0.00248933,-0.000765782,1.02042,0.00196519,0.0144195,1987,1100,18.2183,-3.5954
770,-76,18.2227,3.54541,0.00226948,0.00293501,0.000631557,0.0033161,0.00188838,1.02786,0.0019207,0.0141197,1994,1100,18.2227,-3.54544
777,-76,18.2334,3.50598,0.00505036,0.00436365,0.000148362,0.00508105,0.00433297,0.203931,0.00316759,0.0173559,2001,1100,18.2334,-3.50594
784,-76,18.3027,3.45837,0.00838128,0.00592162,0.000104863,0.00838574,0.00591716,0.0425301,0.00497611,0.0311149,2008,1100,18.3028,-3.45837
791,-76,18.9916,3.36169,0.0127082,0.00777949,0.000258063,0.0127217,0.00776602,0.052169,0.00740436,0.0405289,2015,1100,18.9916,-3.36171
798,-76,17.6378,2.83911,0,0,0,0,0,0,0,-1,2022,1100,17.6378,-2.83906
805,-76,17.7758,2.72107,0.0264882,0.012786,0.00100651,0.0265618,0.0127124,0.0729343,0.0153401,0.0494452,2029,1100,17.7757,-2.72112
812,-76,17.7092,2.77832,0.0367847,0.0160613,0.0016658,0.0369177,0.0159282,0.0797008,0.0213811,0.0476917,2036,1100,17.7093,-2.77831
-700,-83,0,0,0,0,0,0,0,0,0,-1,524,1107,0,0
-693,-83,-14.9825,2.36096,0,0,0,0,0,0,0,-1,531,1107,-14.9825,-2.36095
-686,-83,-13.9876,1.56567,0.0187543,0.0186084,-0.028897,0.0475784,-0.0102157,-0.784136,0.0356159,0.0483681,538,1107,-13.9876,-1.56573
-679,-83,-12.7313,0.921875,0.0114337,0.0174133,-0.0200164,0.034662,-0.00581498,-0.859533,0.0252703,0.0459144,545,1107,-12.7314,-0.921877
-672,-83,-11.6672,0.594604,0.00635294,0.0155939,-0.0129669,0.0247389,-0.00279212,-0.956548,0.0174977,0.0406448,552,1107,-11.6672,-0.594656
-665,-83,-11.3959,0.431152,0.00295908,0.0134762,-0.00760319,0.0174621,-0.00102687,-1.08794,0.0119984,0.0444433,559,1107,-11.3959,-0.431096
-658,-83,-11.5255,0.573975,0.000825564,0.0112619,-0.00376011,0.0124755,-0.000388039,-1.25859,0.00844935,0.0428131,566,1107,-11.5255,-0.574009
-651,-83,-11.5872,0.813477,-0.000350307,0.00908832,-0.00120071,0.00923867,-0.000500657,-1.44623,0.0063326,0.0306348,573,1107,-11.5872,-0.813429
-644,-83,-11.6179,1.02197,-0.000842413,0.00716021,0.00012887,0.00716228,-0.000844488,1.5547,0.0050798,0.0146156,580,1107,-11.6179,-1.02199
-637,-83,-11.628,1.13379,-0.00230146,0.00530547,0.000849962,0.00539929,-0.00239527,1.46087,0.00461025,0.0112433,587,1107,-11.628,-1.13384
-630,-83,-11.6319,1.21741,-0.00299816,0.00310394,0.000453229,0.00313742,-0.00303164,1.49706,0.00356188,0.0163316,594,1107,-11.6319,-1.21737
-623,-83,-11.639,1.28467,-0.0027278,0.00119389,-0.000630384,0.00129273,-0.00282664,-1.41527,0.00243266,0.015116,601,1107,-11.639,-1.28463
-616,-83,-11.6752,1.35449,-0.00261782,0.000328305,-0.00252793,0.00178105,-0.00407057,-1.04921,0.00346356,0.011545,608,1107,-11.6752,-1.35446
-609,-83,-11.6944,1.40417,-0.00294724,-0.000616831,-0.00402503,0.00240826,-0.00597233,-0.926292,0.00498225,0.011475,615,1107,-11.6944,-1.40422
-602,-83,-11.6746,1.51208,-0.00348691,-0.0012537,-0.00532376,0.00306929,-0.0078099,-0.888769,0.00647683,0.0144166,622,1107,-11.6746,-1.5121
-595,-83,-11.5028,1.80603,0,0,0,0,0,0,0,-1,629,1107,-11.5028,-1.80597
-588,-83,-11.7385,1.3938,-0.00431933,-0.00176563,-0.00646571,0.0035481,-0.00963306,-0.882884,0.00787581,0.0295992,636,1107,-11.7385,-1.39384
-581,-83,-12.0264,0.794922,-0.00429334,-0.00186691,-0.00613535,0.00317403,-0.00933428,-0.88301,0.00750794,0.0329673,643,1107,-12.0264,-0.794962
-574,-83,-12.0807,0.53772,-0.00410923,-0.0018538,-0.00562968,0.00276,-0.00872303,-0.884248,0.00692129,0.0359372,650,1107,-12.0807,-0.537715
-567,-83,-12.043,0.552734,-0.00370652,-0.00167792,-0.00462259,0.00204034,-0.00742479,-0.893398,0.00575189,0.0416909,657,1107,-12.0431,-0.552774
-560,-83,-12.1487,0.562866,-0.00290211,-0.00135648,-0.00298995,0.000958919,-0.0052175,-0.911866,0.00383812,0.0422837,664,1107,-12.1487,-0.562821
-553,-83,-12.1566,0.654907,-0.00164633,-0.000923904,-0.000672622,-0.000521641,-0.00204859,-1.03181,0.00122931,0.0407161,671,1107,-12.1566,-0.654873
-546,-83,-12.0852,0.92395,0.000178751,-0.000443955,0.00240082,0.00228833,-0.00255353,0.720915,0.00279684,0.0400499,678,1107,-12.0852,-0.923994
-539,-83,-12.0963,0.800415,0.00263526,-2.36433e-05,0.00604875,0.00749893,-0.00488732,0.677224,0.007204,0.0418123,685,1107,-12.0963,-0.800396
-532,-83,-12.0816,0.57666,0.00464683,-0.000299565,0.00840488,0.0109348,-0.00658757,0.642308,0.0102198,0.0441914,692,1107,-12.0816,-0.576672
-525,-83,0,0,0,0,0,0,0,0,0,-1,699,1107,0,0
-518,-83,0,0,0,0,0,0,0,0,0,-1,706,1107,0,0
-511,-83,0,0,0,0,0,0,0,0,0,-1,713,1107,0,0
-504,-83,0,0,0,0,0,0,0,0,0,-1,720,1107,0,0
-497,-83,0,0,0,0,0,0,0,0,0,-1,727,1107,0,0
-490,-83,0,0,0,0,0,0,0,0,0,-1,734,1107,0,0
-483,-83,0,0,0,0,0,0,0,0,0,-1,741,1107,0,0
-476,-83,0,0,0,0,0,0,0,0,0,-1,748,1107,0,0
-469,-83,0,0,0,0,0,0,0,0,0,-1,755,1107,0,0
-462,-83,0,0,0,0,0,0,0,0,0,-1,762,1107,0,0
-455,-83,0,0,0,0,0,0,0,0,0,-1,769,1107,0,0
-448,-83,0,0,0,0,0,0,0,0,0,-1,776,1107,0,0
-441,-83,0,0,0,0,0,0,0,0,0,-1,783,1107,0,0
-434,-83,0,0,0,0,0,0,0,0,0,-1,790,1107,0,0
-427,-83,0,0,0,0,0,0,0,0,0,-1,797,1107,0,0
-420,-83,0,0,0,0,0,0,0,0,0,-1,804,1107,0,0
-413,-83,0,0,0,0,0,0,0,0,0,-1,811,1107,0,0
-406,-83,0,0,0,0,0,0,0,0,0,-1,818,1107,0,0
-399,-83,0,0,0,0,0,0,0,0,0,-1,825,1107,0,0
-392,-83,0,0,0,0,0,0,0,0,0,-1,832,1107,0,0
-385,-83,0,0,0,0,0,0,0,0,0,-1,839,1107,0,0
-378,-83,0,0,0,0,0,0,0,0,0,-1,846,1107,0,0
-371,-83,0,0,0,0,0,0,0,0,0,-1,853,1107,0,0
-364,-83,0,0,0,0,0,0,0,0,0,-1,860,1107,0,0
-357,-83,0,0,0,0,0,0,0,0,0,-1,867,1107,0,0
-350,-83,0,0,0,0,0,0,0,0,0,-1,874,1107,0,0
-343,-83,0,0,0,0,0,0,0,0,0,-1,881,1107,0,0
-336,-83,0,0,0,0,0,0,0,0,0,-1,888,1107,0,0
-329,-83,0,0,0,0,0,0,0,0,0,-1,895,1107,0,0
-322,-83,0,0,0,0,0,0,0,0,0,-1,902,1107,0,0
-315,-83,0,0,0,0,0,0,0,0,0,-1,909,1107,0,0
-308,-83,0,0,0,0,0,0,0,0,0,-1,916,1107,0,0
-301,-83,0,0,0,0,0,0,0,0,0,-1,923,1107,0,0
-294,-83,0,0,0,0,0,0,0,0,0,-1,930,1107,0,0
-287,-83,0,0,0,0,0,0,0,0,0,-1,937,1107,0,0
-280,-83,0,0,0,0,0,0,0,0,0,-1,944,1107,0,0
-273,-83,0,0,0,0,0,0,0,0,0,-1,951,1107,0,0
-266,-83,0,0,0,0,0,0,0,0,0,-1,958,1107,0,0
-259,-83,0,0,0,0,0,0,0,0,0,-1,965,1107,0,0
-252,-83,0,0,0,0,0,0,0,0,0,-1,972,1107,0,0
-245,-83,0,0,0,0,0,0,0,0,0,-1,979,1107,0,0
-238,-83,0,0,0,0,0,0,0,0,0,-1,986,1107,0,0
-231,-83,0,0,0,0,0,0,0,0,0,-1,993,1107,0,0
-224,-83,0,0,0,0,0,0,0,0,0,-1,1000,1107,0,0
-217,-83,0,0,0,0,0,0,0,0,0,-1,1007,1107,0,0
-210,-83,0,0,0,0,0,0,0,0,0,-1,1014,1107,0,0
-203,-83,0,0,0,0,0,0,0,0,0,-1,1021,1107,0,0
-196,-83,0,0,0,0,0,0,0,0,0,-1,1028,1107,0,0
-189,-83,0,0,0,0,0,0,0,0,0,-1,1035,1107,0,0
-182,-83,0,0,0,0,0,0,0,0,0,-1,1042,1107,0,0
-175,-83,0,0,0,0,0,0,0,0,0,-1,1049,1107,0,0
-168,-83,0,0,0,0,0,0,0,0,0,-1,1056,1107,0,0
-161,-83,0,0,0,0,0,0,0,0,0,-1,1063,1107,0,0
-154,-83,0,0,0,0,0,0,0,0,0,-1,1070,1107,0,0
-147,-83,0,0,0,0,0,0,0,0,0,-1,1077,1107,0,0
-140,-83,0,0,0,0,0,0,0,0,0,-1,1084,1107,0,0
-133,-83,0,0,0,0,0,0,0,0,0,-1,1091,1107,0,0
-126,-83,0,0,0,0,0,0,0,0,0,-1,1098,1107,0,0
-119,-83,0,0,0,0,0,0,0,0,0,-1,1105,1107,0,0
-112,-83,0,0,0,0,0,0,0,0,0,-1,1112,1107,0,0
-105,-83,0,0,0,0,0,0,0,0,0,-1,1119,1107,0,0
-98,-83,0,0,0,0,0,0,0,0,0,-1,1126,1107,0,0
-91,-83,0,0,0,0,0,0,0,0,0,-1,1133,1107,0,0
-84,-83,0,0,0,0,0,0,0,0,0,-1,1140,1107,0,0
-77,-83,0,0,0,0,0,0,0,0,0,-1,1147,1107,0,0
-70,-83,0,0,0,0,0,0,0,0,0,-1,1154,1107,0,0
-63,-83,0,0,0,0,0,0,0,0,0,-1,1161,1107,0,0
-56,-83,0,0,0,0,0,0,0,0,0,-1,1168,1107,0,0
-49,-83,0,0,0,0,0,0,0,0,0,-1,1175,1107,0,0
-42,-83,0,0,0,0,0,0,0,0,0,-1,1182,1107,0,0
-35,-83,0,0,0,0,0,0,0,0,0,-1,1189,1107,0,0
-28,-83,0,0,0,0,0,0,0,0,0,-1,1196,1107,0,0
-21,-83,0,0,0,0,0,0,0,0,0,-1,1203,1107,0,0
-14,-83,0,0,0,0,0,0,0,0,0,-1,1210,1107,0,0
-7,-83,0,0,0,0,0,0,0,0,0,-1,1217,1107,0,0
0,-83,0,0,0,0,0,0,0,0,0,-1,1224,1107,0,0
7,-83,0,0,0,0,0,0,0,0,0,-1,1231,1107,0,0
14,-83,0,0,0,0,0,0,0,0,0,-1,1238,1107,0,0
21,-83,0,0,0,0,0,0,0,0,0,-1,1245,1107,0,0
28,-83,0,0,0,0,0,0,0,0,0,-1,1252,1107,0,0
35,-83,0,0,0,0,0,0,0,0,0,-1,1259,1107,0,0
42,-83,0,0,0,0,0,0,0,0,0,-1,1266,1107,0,0
49,-83,0,0,0,0,0,0,0,0,0,-1,1273,1107,0,0
56,-83,0,0,0,0,0,0,0,0,0,-1,1280,1107,0,0
63,-83,0,0,0,0,0,0,0,0,0,-1,1287,1107,0,0
70,-83,0,0,0,0,0,0,0,0,0,-1,1294,1107,0,0
77,-83,0,0,0,0,0,0,0,0,0,-1,1301,1107,0,0
84,-83,0,0,0,0,0,0,0,0,0,-1,1308,1107,0,0
91,-83,0,0,0,0,0,0,0,0,0,-1,1315,1107,0,0
98,-83,0,0,0,0,0,0,0,0,0,-1,1322,1107,0,0
105,-83,0,0,0,0,0,0,0,0,0,-1,1329,1107,0,0
112,-83,0,0,0,0,0,0,0,0,0,-1,1336,1107,0,0
119,-83,0,0,0,0,0,0,0,0,0,-1,1343,1107,0,0
126,-83,0,0,0,0,0,0,0,0,0,-1,1350,1107,0,0
133,-83,0,0,0,0,0,0,0,0,0,-1,1357,1107,0,0
140,-83,0,0,0,0,0,0,0,0,0,-1,1364,1107,0,0
147,-83,0,0,0,0,0,0,0,0,0,-1,1371,1107,0,0
154,-83,0,0,0,0,0,0,0,0,0,-1,1378,1107,0,0
161,-83,0,0,0,0,0,0,0,0,0,-1,1385,1107,0,0
168,-83,0,0,0,0,0,0,0,0,0,-1,1392,1107,0,0
175,-83,0,0,0,0,0,0,0,0,0,-1,1399,1107,0,0
182,-83,0,0,0,0,0,0,0,0,0,-1,1406,1107,0,0
189,-83,0,0,0,0,0,0,0,0,0,-1,1413,1107,0,0
196,-83,0,0,0,0,0,0,0,0,0,-1,1420,1107,0,0
203,-83,0,0,0,0,0,0,0,0,0,-1,1427,1107,0,0
210,-83,0,0,0,0,0,0,0,0,0,-1,1434,1107,0,0
217,-83,0,0,0,0,0,0,0,0,0,-1,1441,1107,0,0
224,-83,0,0,0,0,0,0,0,0,0,-1,1448,1107,0,0
231,-83,0,0,0,0,0,0,0,0,0,-1,1455,1107,0,0
238,-83,0,0,0,0,0,0,0,0,0,-1,1462,1107,0,0
245,-83,0,0,0,0,0,0,0,0,0,-1,1469,1107,0,0
252,-83,0,0,0,0,0,0,0,0,0,-1,1476,1107,0,0
259,-83,0,0,0,0,0,0,0,0,0,-1,1483,1107,0,0
266,-83,0,0,0,0,0,0,0,0,0,-1,1490,1107,0,0
273,-83,0,0,0,0,0,0,0,0,0,-1,1497,1107,0,0
280,-83,0,0,0,0,0,0,0,0,0,-1,1504,1107,0,0
287,-83,0,0,0,0,0,0,0,0,0,-1,1511,1107,0,0
294,-83,0,0,0,0,0,0,0,0,0,-1,1518,1107,0,0
301,-83,0,0,0,0,0,0,0,0,0,-1,1525,1107,0,0
308,-83,0,0,0,0,0,0,0,0,0,-1,1532,1107,0,0
315,-83,0,0,0,0,0,0,0,0,0,-1,1539,1107,0,0
322,-83,0,0,0,0,0,0,0,0,0,-1,1546,1107,0,0
329,-83,0,0,0,0,0,0,0,0,0,-1,1553,1107,0,0
336,-83,0,0,0,0,0,0,0,0,0,-1,1560,1107,0,0
343,-83,0,0,0,0,0,0,0,0,0,-1,1567,1107,0,0
350,-83,0,0,0,0,0,0,0,0,0,-1,1574,1107,0,0
357,-83,0,0,0,0,0,0,0,0,0,-1,1581,1107,0,0
364,-83,0,0,0,0,0,0,0,0,0,-1,1588,1107,0,0
371,-83,0,0,0,0,0,0,0,0,0,-1,1595,1107,0,0
378,-83,0,0,0,0,0,0,0,0,0,-1,1602,1107,0,0
385,-83,0,0,0,0,0,0,0,0,0,-1,1609,1107,0,0
392,-83,0,0,0,0,0,0,0,0,0,-1,1616,1107,0,0
399,-83,0,0,0,0,0,0,0,0,0,-1,1623,1107,0,0
406,-83,0,0,0,0,0,0,0,0,0,-1,1630,1107,0,0
413,-83,0,0,0,0,0,0,0,0,0,-1,1637,1107,0,0
420,-83,0,0,0,0,0,0,0,0,0,-1,1644,1107,0,0
427,-83,0,0,0,0,0,0,0,0,0,-1,1651,1107,0,0
434,-83,0,0,0,0,0,0,0,0,0,-1,1658,1107,0,0
441,-83,0,0,0,0,0,0,0,0,0,-1,1665,1107,0,0
448,-83,0,0,0,0,0,0,0,0,0,-1,1672,1107,0,0
455,-83,0,0,0,0,0,0,0,0,0,-1,1679,1107,0,0
462,-83,0,0,0,0,0,0,0,0,0,-1,1686,1107,0,0
469,-83,0,0,0,0,0,0,0,0,0,-1,1693,1107,0,0
476,-83,0,0,0,0,0,0,0,0,0,-1,1700,1107,0,0
483,-83,0,0,0,0,0,0,0,0,0,-1,1707,1107,0,0
490,-83,0,0,0,0,0,0,0,0,0,-1,1714,1107,0,0
497,-83,0,0,0,0,0,0,0,0,0,-1,1721,1107,0,0
504,-83,0,0,0,0,0,0,0,0,0,-1,1728,1107,0,0
511,-83,0,0,0,0,0,0,0,0,0,-1,1735,1107,0,0
518,-83,0,0,0,0,0,0,0,0,0,-1,1742,1107,0,0
525,-83,0,0,0,0,0,0,0,0,0,-1,1749,1107,0,0
532,-83,0,0,0,0,0,0,0,0,0,-1,1756,1107,0,0
539,-83,0,0,0,0,0,0,0,0,0,-1,1763,1107,0,0
546,-83,0,0,0,0,0,0,0,0,0,-1,1770,1107,0,0
553,-83,0,0,0,0,0,0,0,0,0,-1,1777,1107,0,0
560,-83,0,0,0,0,0,0,0,0,0,-1,1784,1107,0,0
567,-83,0,0,0,0,0,0,0,0,0,-1,1791,1107,0,0
574,-83,0,0,0,0,0,0,0,0,0,-1,1798,1107,0,0
581,-83,0,0,0,0,0,0,0,0,0,-1,1805,1107,0,0
588,-83,0,0,0,0,0,0,0,0,0,-1,1812,1107,0,0
595,-83,0,0,0,0,0,0,0,0,0,-1,1819,1107,0,0
602,-83,0,0,0,0,0,0,0,0,0,-1,1826,1107,0,0
609,-83,0,0,0,0,0,0,0,0,0,-1,1833,1107,0,0
616,-83,0,0,0,0,0,0,0,0,0,-1,1840,1107,0,0
623,-83,0,0,0,0,0,0,0,0,0,-1,1847,1107,0,0
630,-83,0,0,0,0,0,0,0,0,0,-1,1854,1107,0,0
637,-83,0,0,0,0,0,0,0,0,0,-1,1861,1107,0,0
644,-83,18.8032,2.53967,0.00774861,-0.001617,-0.00540162,0.0102147,-0.00408305,-0.428279,0.00850405,0.03541,1868,1107,18.8032,-2.53964
651,-83,18.9675,2.53479,0.00568803,-0.00112274,-0.00391179,0.00746904,-0.00290376,-0.427248,0.00617906,0.0407235,1875,1107,18.9675,-2.53478
658,-83,19.1105,2.42102,0.00419084,-0.000932945,-0.00274895,0.0053866,-0.00212871,-0.410303,0.00447281,0.0441769,1882,1107,19.1104,-2.42099
665,-83,18.8629,2.56189,0.00318771,-0.000817989,-0.00168213,0.00380039,-0.00143066,-0.349291,0.00312174,0.0406334,1889,1107,18.8629,-2.5619
672,-83,18.8088,2.45813,0.00205648,-0.0010838,-0.000229968,0.00207323,-0.00110056,-0.0727145,0.00186085,0.0387593,1896,1107,18.8088,-2.45815
679,-83,18.8031,2.41895,0.00074021,-0.00151359,0.00124049,0.00128924,-0.00206262,0.416672,0.00195229,0.0398754,1903,1107,18.8031,-2.41894
686,-83,18.7861,2.4209,-0.000443464,-0.00191372,0.00243085,0.00136099,-0.00371817,0.638562,0.00303589,0.0363991,1910,1107,18.7861,-2.42091
693,-83,18.788,2.53821,-0.00139309,-0.00223349,0.00334797,0.00156094,-0.00518752,0.72297,0.00407945,0.0339195,1917,1107,18.7879,-2.53827
700,-83,18.7836,2.61023,-0.00220305,-0.00237168,0.00398485,0.00169838,-0.00627311,0.77482,0.00484839,0.0296487,1924,1107,18.7835,-2.61027
707,-83,18.7814,2.58374,-0.00294452,-0.0024459,0.00446088,0.00177263,-0.00716305,0.813313,0.00546296,0.0227702,1931,1107,18.7814,-2.58373
714,-83,18.8398,2.79736,-0.00338093,-0.00245367,0.00473154,0.0018369,-0.0076715,0.834236,0.005824,0.0360897,1938,1107,18.8399,-2.79731
721,-83,18.3982,3.60657,-0.00346071,-0.00230208,0.00470904,0.00186315,-0.00762594,0.846601,0.00580553,0.0257187,1945,1107,18.3982,-3.6066
728,-83,18.1833,3.8241,-0.00350435,-0.00202798,0.00449717,0.00179118,-0.00732351,0.866745,0.00557614,0.0201235,1952,1107,18.1834,-3.82408
735,-83,18.1356,3.73889,-0.00344421,-0.00162686,0.00411791,0.00168144,-0.00675252,0.89399,0.0051544,0.0202048,1959,1107,18.1356,-3.73886
742,-83,18.1838,3.73376,-0.00317488,-0.00116013,0.0036013,0.00157203,-0.00590704,0.921775,0.00455341,0.0122248,1966,1107,18.1838,-3.73373
749,-83,18.1812,3.71228,-0.00272347,-0.000758988,0.00301039,0.00142535,-0.00490781,0.943095,0.0038363,0.0115274,1973,1107,18.1812,-3.71228
756,-83,18.1838,3.66309,-0.00127385,0.000712798,0.00222492,0.00215607,-0.00271711,0.995348,0.00281974,0.0139769,1980,1107,18.1839,-3.6631
763,-83,18.1798,3.59021,0.000919084,0.00185069,0.00148707,0.00294321,-0.000173429,0.937176,0.00202243,0.0110788,1987,1107,18.1798,-3.59026
770,-83,18.1768,3.54163,0.0033358,0.00336536,0.000750427,0.00410115,0.00260001,0.795246,0.00239597,0.0127913,1994,1107,18.1767,-3.54163
777,-83,18.1815,3.49658,0.00628577,0.005022,0.000351664,0.00637703,0.00493073,0.253922,0.00386064,0.0143833,2001,1107,18.1816,-3.49657
784,-83,18.1827,3.47192,0.00972793,0.0069111,0.000321826,0.00976424,0.0068748,0.112323,0.00579179,0.0230888,2008,1107,18.1828,-3.47192
791,-83,18.201,3.31738,0.0141128,0.0092379,0.000405618,0.0141463,0.00920438,0.0824501,0.00829004,0.0412994,2015,1107,18.2011,-3.31743
798,-83,18.1914,3.16406,0,0,0,0,0,0,0,-1,2022,1107,18.1914,-3.1641
805,-83,18.0139,2.99365,0.0273951,0.0156123,0.000739374,0.0274413,0.0155661,0.0624237,0.015891,0.0475993,2029,1107,18.0139,-2.99367
812,-83,18.2251,2.61597,0.036898,0.0197988,0.000980307,0.0369541,0.0197428,0.0570811,0.0213521,0.0473774,2036,1107,18.225,-2.61601
-700,-90,0,0,0,0,0,0,0,0,0,-1,524,1114,0,0
-693,-90,-13.4984,2.14929,0.0134362,0.0141563,-0.0339466,0.0477448,-0.0201523,-0.790701,0.0402649,0.0434614,531,1114,-13.4984,-2.14931
-686,-90,-12.8939,1.55811,0.00709973,0.0141866,-0.0235686,0.0344766,-0.0131903,-0.860012,0.0284205,0.0400372,538,1114,-12.8939,-1.5581
-679,-90,-11.9648,0.562622,0.003047,0.013349,-0.0154005,0.0244371,-0.00804112,-0.946784,0.0195315,0.0409227,545,1114,-11.9648,-0.562572
-672,-90,-11.3266,-0.039917,0,0,0,0,0,0,0,-1,552,1114,-11.3266,0.0399691
-665,-90,-11.4426,0.116333,-0.00085116,0.0105554,-0.00456713,0.0121587,-0.00245446,-1.23318,0.00903575,0.0473421,559,1114,-11.4425,-0.116339
-658,-90,-11.5638,0.297241,-0.0015462,0.00894738,-0.00142144,0.00913652,-0.00173533,-1.43851,0.00674429,0.0454457,566,1114,-11.5638,-0.297268
-651,-90,-11.5411,0.691895,-0.00173396,0.007326,0.000545063,0.00735867,-0.00176664,1.51092,0.00558853,0.0309044,573,1114,-11.5411,-0.691861
-644,-90,-11.5587,0.973877,-0.00156915,0.00585123,0.0014248,0.00611541,-0.00183332,1.38747,0.00480605,0.013547,580,1114,-11.5587,-0.973915
-637,-90,-11.5638,1.12769,-0.00226345,0.00437166,0.00182905,0.00484246,-0.00273425,1.31887,0.0044305,0.0116015,587,1114,-11.5638,-1.12769
-630,-90,-11.5708,1.20886,-0.00277368,0.00253814,0.00118743,0.0027915,-0.00302704,1.36058,0.00336025,0.0116055,594,1114,-11.5708,-1.20887
-623,-90,-11.5696,1.27637,-0.00270544,0.000855847,-0.000174173,0.000864345,-0.00271394,-1.52204,0.00215596,0.00927422,601,1114,-11.5696,-1.27642
-616,-90,-11.5775,1.37317,-0.0028229,7.37716e-05,-0.00228494,0.00133073,-0.00407986,-1.06787,0.00325544,0.00748141,608,1114,-11.5775,-1.37322
-609,-90,-11.5924,1.44666,-0.00326753,-0.000847245,-0.00393393,0.00205847,-0.00617324,-0.934613,0.00494654,0.0103693,615,1114,-11.5924,-1.44664
-602,-90,-11.6007,1.53882,-0.0039371,-0.00147547,-0.0052964,0.00273124,-0.00814382,-0.899565,0.0065328,0.0111801,622,1114,-11.6007,-1.53882
-595,-90,-11.531,1.65845,-0.00461048,-0.00182608,-0.00621247,0.00314828,-0.00958484,-0.895626,0.00765816,0.0128886,629,1114,-11.531,-1.65842
-588,-90,-11.5934,1.53137,-0.00502414,-0.00201369,-0.00649216,0.00314546,-0.0101833,-0.899312,0.00804499,0.0243999,636,1114,-11.5935,-1.53133
-581,-90,-11.9893,0.903809,-0.00508113,-0.00215557,-0.00621817,0.00276956,-0.0100063,-0.900919,0.00776054,0.0339545,643,1114,-11.9892,-0.903853
-574,-90,-12.1304,0.637085,-0.00491023,-0.00216686,-0.00579953,0.00242099,-0.00949808,-0.901522,0.0072746,0.0357645,650,1114,-12.1304,-0.637133
-567,-90,-12.1534,0.646362,-0.00452837,-0.0020101,-0.00490439,0.00179421,-0.00833268,-0.911053,0.00623978,0.0381002,657,1114,-12.1534,-0.646356
-560,-90,-12.14,0.621826,-0.00370047,-0.00168757,-0.00338193,0.000834491,-0.00622253,-0.930023,0.00445266,0.0407426,664,1114,-12.14,-0.621808
-553,-90,-12.1114,0.774414,-0.00236064,-0.0012209,-0.00115153,-0.000505948,-0.00307559,-1.01517,0.00190428,0.0378866,671,1114,-12.1114,-0.774425
-546,-90,-12.0692,0.787964,-0.000375073,-0.000669953,0.00188493,0.00136818,-0.0024132,0.746368,0.00221079,0.0384029,678,1114,-12.0691,-0.787985
-539,-90,-11.997,0.711426,0.00238512,-0.000133975,0.00564849,0.0069128,-0.00466165,0.675699,0.00672451,0.043208,685,1114,-11.997,-0.711459
-532,-90,-12.1039,0.809937,0.00476534,-0.000244849,0.00830872,0.0109384,-0.00641791,0.638981,0.0101333,0.0441314,692,1114,-12.1039,-0.809943
-525,-90,0,0,0,0,0,0,0,0,0,-1,699,1114,0,0
-518,-90,0,0,0,0,0,0,0,0,0,-1,706,1114,0,0
-511,-90,0,0,0,0,0,0,0,0,0,-1,713,1114,0,0
-504,-90,0,0,0,0,0,0,0,0,0,-1,720,1114,0,0
-497,-90,0,0,0,0,0,0,0,0,0,-1,727,1114,0,0
-490,-90,0,0,0,0,0,0,0,0,0,-1,734,1114,0,0
-483,-90,0,0,0,0,0,0,0,0,0,-1,741,1114,0,0
-476,-90,0,0,0,0,0,0,0,0,0,-1,748,1114,0,0
-469,-90,0,0,0,0,0,0,0,0,0,-1,755,1114,0,0
-462,-90,0,0,0,0,0,0,0,0,0,-1,762,1114,0,0
-455,-90,0,0,0,0,0,0,0,0,0,-1,769,1114,0,0
-448,-90,0,0,0,0,0,0,0,0,0,-1,776,1114,0,0
-441,-90,0,0,0,0,0,0,0,0,0,-1,783,1114,0,0
-434,-90,0,0,0,0,0,0,0,0,0,-1,790,1114,0,0
-427,-90,0,0,0,0,0,0,0,0,0,-1,797,1114,0,0
-420,-90,0,0,0,0,0,0,0,0,0,-1,804,1114,0,0
-413,-90,0,0,0,0,0,0,0,0,0,-1,811,1114,0,0
-406,-90,0,0,0,0,0,0,0,0,0,-1,818,1114,0,0
-399,-90,0,0,0,0,0,0,0,0,0,-1,825,1114,0,0
-392,-90,0,0,0,0,0,0,0,0,0,-1,832,1114,0,0
-385,-90,0,0,0,0,0,0,0,0,0,-1,839,1114,0,0
-378,-90,0,0,0,0,0,0,0,0,0,-1,846,1114,0,0
-371,-90,0,0,0,0,0,0,0,0,0,-1,853,1114,0,0
-364,-90,0,0,0,0,0,0,0,0,0,-1,860,1114,0,0
-357,-90,0,0,0,0,0,0,0,0,0,-1,867,1114,0,0
-350,-90,0,0,0,0,0,0,0,0,0,-1,874,1114,0,0
-343,-90,0,0,0,0,0,0,0,0,0,-1,881,1114,0,0
-336,-90,0,0,0,0,0,0,0,0,0,-1,888,1114,0,0
-329,-90,0,0,0,0,0,0,0,0,0,-1,895,1114,0,0
-322,-90,0,0,0,0,0,0,0,0,0,-1,902,1114,0,0
-315,-90,0,0,0,0,0,0,0,0,0,-1,909,1114,0,0
-308,-90,0,0,0,0,0,0,0,0,0,-1,916,1114,0,0
-301,-90,0,0,0,0,0,0,0,0,0,-1,923,1114,0,0
-294,-90,0,0,0,0,0,0,0,0,0,-1,930,1114,0,0
-287,-90,0,0,0,0,0,0,0,0,0,-1,937,1114,0,0
-280,-90,0,0,0,0,0,0,0,0,0,-1,944,1114,0,0
-273,-90,0,0,0,0,0,0,0,0,0,-1,951,1114,0,0
-266,-90,0,0,0,0,0,0,0,0,0,-1,958,1114,0,0
-259,-90,0,0,0,0,0,0,0,0,0,-1,965,1114,0,0
-252,-90,0,0,0,0,0,0,0,0,0,-1,972,1114,0,0
-245,-90,0,0,0,0,0,0,0,0,0,-1,979,1114,0,0
-238,-90,0,0,0,0,0,0,0,0,0,-1,986,1114,0,0
-231,-90,0,0,0,0,0,0,0,0,0,-1,993,1114,0,0
-224,-90,0,0,0,0,0,0,0,0,0,-1,1000,1114,0,0
-217,-90,0,0,0,0,0,0,0,0,0,-1,1007,1114,0,0
-210,-90,0,0,0,0,0,0,0,0,0,-1,1014,1114,0,0
-203,-90,0,0,0,0,0,0,0,0,0,-1,1021,1114,0,0
-196,-90,0,0,0,0,0,0,0,0,0,-1,1028,1114,0,0
-189,-90,0,0,0,0,0,0,0,0,0,-1,1035,1114,0,0
-182,-90,0,0,0,0,0,0,0,0,0,-1,1042,1114,0,0
-175,-90,0,0,0,0,0,0,0,0,0,-1,1049,1114,0,0
-168,-90,0,0,0,0,0,0,0,0,0,-1,1056,1114,0,0
-161,-90,0,0,0,0,0,0,0,0,0,-1,1063,1114,0,0
-154,-90,0,0,0,0,0,0,0,0,0,-1,1070,1114,0,0
-147,-90,0,0,0,0,0,0,0,0,0,-1,1077,1114,0,0
-140,-90,0,0,0,0,0,0,0,0,0,-1,1084,1114,0,0
-133,-90,0,0,0,0,0,0,0,0,0,-1,1091,1114,0,0
-126,-90,0,0,0,0,0,0,0,0,0,-1,1098,1114,0,0
-119,-90,0,0,0,0,0,0,0,0,0,-1,1105,1114,0,0
-112,-90,0,0,0,0,0,0,0,0,0,-1,1112,1114,0,0
-105,-90,0,0,0,0,0,0,0,0,0,-1,1119,1114,0,0
-98,-90,0,0,0,0,0,0,0,0,0,-1,1126,1114,0,0
-91,-90,0,0,0,0,0,0,0,0,0,-1,1133,1114,0,0
-84,-90,0,0,0,0,0,0,0,0,0,-1,1140,1114,0,0
-77,-90,0,0,0,0,0,0,0,0,0,-1,1147,1114,0,0
-70,-90,0,0,0,0,0,0,0,0,0,-1,1154,1114,0,0
-63,-90,0,0,0,0,0,0,0,0,0,-1,1161,1114,0,0
-56,-90,0,0,0,0,0,0,0,0,0,-1,1168,1114,0,0
-49,-90,0,0,0,0,0,0,0,0,0,-1,1175,1114,0,0
-42,-90,0,0,0,0,0,0,0,0,0,-1,1182,1114,0,0
-35,-90,0,0,0,0,0,0,0,0,0,-1,1189,1114,0,0
-28,-90,0,0,0,0,0,0,0,0,0,-1,1196,1114,0,0
-21,-90,0,0,0,0,0,0,0,0,0,-1,1203,1114,0,0
-14,-90,0,0,0,0,0,0,0,0,0,-1,1210,1114,0,0
-7,-90,0,0,0,0,0,0,0,0,0,-1,1217,1114,0,0
0,-90,0,0,0,0,0,0,0,0,0,-1,1224,1114,0,0
7,-90,0,0,0,0,0,0,0,0,0,-1,1231,1114,0,0
14,-90,0,0,0,0,0,0,0,0,0,-1,1238,1114,0,0
21,-90,0,0,0,0,0,0,0,0,0,-1,1245,1114,0,0
28,-90,0,0,0,0,0,0,0,0,0,-1,1252,1114,0,0
35,-90,0,0,0,0,0,0,0,0,0,-1,1259,1114,0,0
42,-90,0,0,0,0,0,0,0,0,0,-1,1266,1114,0,0
49,-90,0,0,0,0,0,0,0,0,0,-1,1273,1114,0,0
56,-90,0,0,0,0,0,0,0,0,0,-1,1280,1114,0,0
63,-90,0,0,0,0,0,0,0,0,0,-1,1287,1114,0,0
70,-90,0,0,0,0,0,0,0,0,0,-1,1294,1114,0,0
77,-90,0,0,0,0,0,0,0,0,0,-1,1301,1114,0,0
84,-90,0,0,0,0,0,0,0,0,0,-1,1308,1114,0,0
91,-90,0,0,0,0,0,0,0,0,0,-1,1315,1114,0,0
98,-90,0,0,0,0,0,0,0,0,0,-1,1322,1114,0,0
105,-90,0,0,0,0,0,0,0,0,0,-1,1329,1114,0,0
112,-90,0,0,0,0,0,0,0,0,0,-1,1336,1114,0,0
119,-90,0,0,0,0,0,0,0,0,0,-1,1343,1114,0,0
126,-90,0,0,0,0,0,0,0,0,0,-1,1350,1114,0,0
133,-90,0,0,0,0,0,0,0,0,0,-1,1357,1114,0,0
140,-90,0,0,0,0,0,0,0,0,0,-1,1364,1114,0,0
147,-90,0,0,0,0,0,0,0,0,0,-1,1371,1114,0,0
154,-90,0,0,0,0,0,0,0,0,0,-1,1378,1114,0,0
161,-90,0,0,0,0,0,0,0,0,0,-1,1385,1114,0,0
168,-90,0,0,0,0,0,0,0,0,0,-1,1392,1114,0,0
175,-90,0,0,0,0,0,0,0,0,0,-1,1399,1114,0,0
182,-90,0,0,0,0,0,0,0,0,0,-1,1406,1114,0,0
189,-90,0,0,0,0,0,0,0,0,0,-1,1413,1114,0,0
196,-90,0,0,0,0,0,0,0,0,0,-1,1420,1114,0,0
203,-90,0,0,0,0,0,0,0,0,0,-1,1427,1114,0,0
210,-90,0,0,0,0,0,0,0,0,0,-1,1434,1114,0,0
217,-90,0,0,0,0,0,0,0,0,0,-1,1441,1114,0,0
224,-90,0,0,0,0,0,0,0,0,0,-1,1448,1114,0,0
231,-90,0,0,0,0,0,0,0,0,0,-1,1455,1114,0,0
238,-90,0,0,0,0,0,0,0,0,0,-1,1462,1114,0,0
245,-90,0,0,0,0,0,0,0,0,0,-1,1469,1114,0,0
252,-90,0,0,0,0,0,0,0,0,0,-1,1476,1114,0,0
259,-90,0,0,0,0,0,0,0,0,0,-1,1483,1114,0,0
266,-90,0,0,0,0,0,0,0,0,0,-1,1490,1114,0,0
273,-90,0,0,0,0,0,0,0,0,0,-1,1497,1114,0,0
280,-90,0,0,0,0,0,0,0,0,0,-1,1504,1114,0,0
287,-90,0,0,0,0,0,0,0,0,0,-1,1511,1114,0,0
294,-90,0,0,0,0,0,0,0,0,0,-1,1518,1114,0,0
301,-90,0,0,0,0,0,0,0,0,0,-1,1525,1114,0,0
308,-90,0,0,0,0,0,0,0,0,0,-1,1532,1114,0,0
315,-90,0,0,0,0,0,0,0,0,0,-1,1539,1114,0,0
322,-90,0,0,0,0,0,0,0,0,0,-1,1546,1114,0,0
329,-90,0,0,0,0,0,0,0,0,0,-1,1553,1114,0,0
336,-90,0,0,0,0,0,0,0,0,0,-1,1560,1114,0,0
343,-90,0,0,0,0,0,0,0,0,0,-1,1567,1114,0,0
350,-90,0,0,0,0,0,0,0,0,0,-1,1574,1114,0,0
357,-90,0,0,0,0,0,0,0,0,0,-1,1581,1114,0,0
364,-90,0,0,0,0,0,0,0,0,0,-1,1588,1114,0,0
371,-90,0,0,0,0,0,0,0,0,0,-1,1595,1114,0,0
378,-90,0,0,0,0,0,0,0,0,0,-1,1602,1114,0,0
385,-90,0,0,0,0,0,0,0,0,0,-1,1609,1114,0,0
392,-90,0,0,0,0,0,0,0,0,0,-1,1616,1114,0,0
399,-90,0,0,0,0,0,0,0,0,0,-1,1623,1114,0,0
406,-90,0,0,0,0,0,0,0,0,0,-1,1630,1114,0,0
413,-90,0,0,0,0,0,0,0,0,0,-1,1637,1114,0,0
420,-90,0,0,0,0,0,0,0,0,0,-1,1644,1114,0,0
427,-90,0,0,0,0,0,0,0,0,0,-1,1651,1114,0,0
434,-90,0,0,0,0,0,0,0,0,0,-1,1658,1114,0,0
441,-90,0,0,0,0,0,0,0,0,0,-1,1665,1114,0,0
448,-90,0,0,0,0,0,0,0,0,0,-1,1672,1114,0,0
455,-90,0,0,0,0,0,0,0,0,0,-1,1679,1114,0,0
462,-90,0,0,0,0,0,0,0,0,0,-1,1686,1114,0,0
469,-90,0,0,0,0,0,0,0,0,0,-1,1693,1114,0,0
476,-90,0,0,0,0,0,0,0,0,0,-1,1700,1114,0,0
483,-90,0,0,0,0,0,0,0,0,0,-1,1707,1114,0,0
490,-90,0,0,0,0,0,0,0,0,0,-1,1714,1114,0,0
497,-90,0,0,0,0,0,0,0,0,0,-1,1721,1114,0,0
504,-90,0,0,0,0,0,0,0,0,0,-1,1728,1114,0,0
511,-90,0,0,0,0,0,0,0,0,0,-1,1735,1114,0,0
518,-90,0,0,0,0,0,0,0,0,0,-1,1742,1114,0,0
525,-90,0,0,0,0,0,0,0,0,0,-1,1749,1114,0,0
532,-90,0,0,0,0,0,0,0,0,0,-1,1756,1114,0,0
539,-90,0,0,0,0,0,0,0,0,0,-1,1763,1114,0,0
546,-90,0,0,0,0,0,0,0,0,0,-1,1770,1114,0,0
553,-90,0,0,0,0,0,0,0,0,0,-1,1777,1114,0,0
560,-90,0,0,0,0,0,0,0,0,0,-1,1784,1114,0,0
567,-90,0,0,0,0,0,0,0,0,0,-1,1791,1114,0,0
574,-90,0,0,0,0,0,0,0,0,0,-1,1798,1114,0,0
581,-90,0,0,0,0,0,0,0,0,0,-1,1805,1114,0,0
588,-90,0,0,0,0,0,0,0,0,0,-1,1812,1114,0,0
595,-90,0,0,0,0,0,0,0,0,0,-1,1819,1114,0,0
602,-90,0,0,0,0,0,0,0,0,0,-1,1826,1114,0,0
609,-90,0,0,0,0,0,0,0,0,0,-1,1833,1114,0,0
616,-90,0,0,0,0,0,0,0,0,0,-1,1840,1114,0,0
623,-90,0,0,0,0,0,0,0,0,0,-1,1847,1114,0,0
630,-90,0,0,0,0,0,0,0,0,0,-1,1854,1114,0,0
637,-90,0,0,0,0,0,0,0,0,0,-1,1861,1114,0,0
644,-90,18.7627,2.6156,0.00743483,-0.00167815,-0.00556791,0.010073,-0.00431633,-0.442484,0.00852641,0.0355676,1868,1114,18.7627,-2.61556
651,-90,18.8635,2.56201,0.00547196,-0.00137446,-0.00400551,0.00731776,-0.00322026,-0.431811,0.00623555,0.0393335,1875,1114,18.8635,-2.56199
658,-90,18.9814,2.40991,0.00414312,-0.00125266,-0.00281731,0.00534598,-0.00245552,-0.403524,0.00460609,0.0411088,1882,1114,18.9815,-2.40993
665,-90,18.9425,2.44788,0.00311366,-0.00121485,-0.00165094,0.00367146,-0.00177266,-0.325829,0.00320626,0.0404856,1889,1114,18.9424,-2.44782
672,-90,18.86,2.56396,0.00182735,-0.0015426,-0.000111297,0.00183102,-0.00154627,-0.0329785,0.00195219,0.0409905,1896,1114,18.86,-2.56391
679,-90,18.8429,2.54504,0.000417103,-0.00196655,0.00134231,0.00102034,-0.00256979,0.422355,0.00213614,0.0413046,1903,1114,18.8429,-2.54505
686,-90,18.868,2.46497,-0.000809405,-0.00234304,0.0024951,0.00103405,-0.0041865,0.636314,0.00319201,0.0370647,1910,1114,18.868,-2.46496
693,-90,18.8198,2.58081,-0.00177996,-0.00261731,0.0033647,0.00119201,-0.00558928,0.723501,0.00418056,0.0331091,1917,1114,18.8199,-2.58082
700,-90,18.8207,2.62646,-0.00257616,-0.00271783,0.00395923,0.00131287,-0.00660685,0.776453,0.00490116,0.0295008,1924,1114,18.8207,-2.62651
707,-90,18.8235,2.35693,0,0,0,0,0,0,0,-1,1931,1114,18.8235,-2.35699
714,-90,18.7946,2.95422,0,0,0,0,0,0,0,-1,1938,1114,18.7946,-2.95417
721,-90,18.7657,3.55139,0,0,0,0,0,0,0,-1,1945,1114,18.7657,-3.55134
728,-90,18.1464,3.85925,-0.00374922,-0.00212841,0.00436662,0.00150237,-0.00738,0.877149,0.00548975,0.0178395,1952,1114,18.1464,-3.85927
735,-90,18.1287,3.78296,-0.00355478,-0.00169713,0.00401677,0.00149681,-0.00674872,0.89902,0.00507224,0.0188723,1959,1114,18.1287,-3.78291
742,-90,18.1316,3.7533,-0.00313395,-0.00120379,0.00357291,0.00153209,-0.00586982,0.917306,0.00451147,0.0158163,1966,1114,18.1316,-3.75333
749,-90,18.1423,3.70435,-0.00251531,-0.0006913,0.00304074,0.00157126,-0.00477786,0.931094,0.00381832,0.0122566,1973,1114,18.1423,-3.70436
756,-90,18.1602,3.64209,-0.00105441,0.000891405,0.00233294,0.00244617,-0.00260918,0.982949,0.00291921,0.0126768,1980,1114,18.1601,-3.64207
763,-90,18.1481,3.58118,0.00114851,0.00210148,0.00163179,0.00332493,-7.49348e-05,0.927449,0.00224202,0.0109264,1987,1114,18.1481,-3.5812
770,-90,18.1293,3.53394,0.00351719,0.00372292,0.0010026,0.00462792,0.00261219,0.836519,0.00267932,0.0127181,1994,1114,18.1293,-3.53395
777,-90,18.1129,3.4906,0.00619307,0.00548714,0.000703097,0.00662682,0.00505338,0.55277,0.00399798,0.0121742,2001,1114,18.1129,-3.49055
784,-90,18.0854,3.45349,0.00919588,0.00753206,0.000684677,0.0094414,0.00728654,0.344311,0.00571309,0.0252448,2008,1114,18.0854,-3.45346
791,-90,18.0321,3.47742,0.01292,0.0100642,0.000688126,0.0130771,0.00990702,0.224537,0.00787698,0.0430165,2015,1114,18.0321,-3.47741
798,-90,18.0184,3.46228,0,0,0,0,0,0,0,-1,2022,1114,18.0184,-3.46226
805,-90,18.2397,3.26855,0.0236751,0.0169431,0.000507752,0.0237132,0.016905,0.0748585,0.0140984,0.0448745,2029,1114,18.2397,-3.26858
812,-90,18.429,2.79382,0.0310058,0.0213904,0.000216973,0.0310107,0.0213855,0.0225497,0.0183282,0.0434712,2036,1114,18.4289,-2.79384
-700,-97,0,0,0,0,0,0,0,0,0,-1,524,1121,0,0
-693,-97,-12.3007,1.72156,-0.00491241,0.0110405,-0.0238819,0.0282427,-0.0221147,-0.946571,0.0291455,0.0434573,531,1121,-12.3007,-1.72153
-686,-97,-11.7852,1.23254,-0.008497,0.0110029,-0.0138349,0.0181782,-0.0156724,-1.09235,0.0195615,0.0423551,538,1121,-11.7851,-1.2326
-679,-97,-11.1752,-0.0213623,-0.00978679,0.0103805,-0.00669265,0.0123994,-0.0118057,-1.27782,0.0139762,0.0459326,545,1121,-11.1751,0.0213514
-672,-97,-9.93781,-1.03149,0,0,0,0,0,0,0,-1,552,1121,-9.93782,1.03147
-665,-97,-11.5167,-0.164063,0,0,0,0,0,0,0,-1,559,1121,-11.5166,0.164011
-658,-97,-11.6279,0.325317,-0.00746288,0.00716167,0.00325269,0.00785248,-0.00815369,1.36152,0.00924171,0.0458838,566,1121,-11.6279,-0.325322
-651,-97,-11.4899,0.803711,-0.00599398,0.00593427,0.00404029,0.00717395,-0.00723365,1.27309,0.00831825,0.0304022,573,1121,-11.49,-0.803676
-644,-97,-11.475,0.995972,-0.00449309,0.00477659,0.00396197,0.0062392,-0.00595571,1.21715,0.00704137,0.0109703,580,1121,-11.475,-0.995963
-637,-97,-11.4821,1.11401,-0.00387225,0.00362257,0.0036125,0.00508028,-0.00532996,1.18726,0.00601093,0.011749,587,1121,-11.4821,-1.11402
-630,-97,-11.485,1.19116,-0.00363914,0.0021278,0.00237127,0.0029776,-0.00448894,1.22668,0.00434015,0.00978629,594,1121,-11.485,-1.19112
-623,-97,-11.4757,1.28076,-0.00335291,0.000620502,0.000464909,0.000674174,-0.00340658,1.45586,0.00252595,0.0110617,601,1121,-11.4757,-1.28078
-616,-97,-11.4717,1.3855,-0.00343409,-0.000122272,-0.0019269,0.000762486,-0.00431885,-1.14035,0.00316417,0.0108632,608,1121,-11.4717,-1.38548
-609,-97,-11.4942,1.474,-0.00375564,-0.00103927,-0.00378851,0.00162715,-0.00642206,-0.957512,0.00491438,0.0126495,615,1121,-11.4942,-1.474
-602,-97,-11.5121,1.53333,-0.00443285,-0.00165897,-0.00523698,0.00237161,-0.00846343,-0.914844,0.00657693,0.0123077,622,1121,-11.5121,-1.53334
-595,-97,-11.4572,1.6239,-0.00525276,-0.00204334,-0.00616622,0.00272355,-0.0100197,-0.912695,0.00774884,0.0162544,629,1121,-11.4572,-1.62395
-588,-97,-11.4451,1.65076,-0.00580694,-0.00229612,-0.00647779,0.0026599,-0.010763,-0.917715,0.0082069,0.024976,636,1121,-11.4451,-1.65073
-581,-97,-11.879,0.9823,-0.00595724,-0.00251265,-0.00626796,0.00226533,-0.0107352,-0.919478,0.0080193,0.0382626,643,1121,-11.879,-0.982355
-574,-97,-12.1582,0.339844,0,0,0,0,0,0,0,-1,650,1121,-12.1582,-0.339836
-567,-97,-12.1638,0.622314,-0.00546153,-0.00251874,-0.00513501,0.00135153,-0.00933179,-0.92493,0.00671718,0.0389376,657,1121,-12.1638,-0.62235
-560,-97,-12.1723,0.547485,-0.00461687,-0.00227075,-0.00372098,0.000457703,-0.00734532,-0.938095,0.00505636,0.0424354,664,1121,-12.1723,-0.547525
-553,-97,-12.1254,0.621704,-0.00317843,-0.00185969,-0.00158772,-0.000799872,-0.00423825,-0.982209,0.00260022,0.0427524,671,1121,-12.1254,-0.621753
-546,-97,-12.0888,0.473999,-0.000986203,-0.00132979,0.00137936,0.000232018,-0.00254801,0.723444,0.00178106,0.0407492,678,1121,-12.0888,-0.473992
-539,-97,-12.0671,0.495117,0.00216731,-0.000754233,0.00518168,0.00609019,-0.00467711,0.648008,0.00623432,0.0410915,685,1121,-12.0671,-0.49508
-532,-97,-12.0906,0.704102,0.00514141,-0.000714171,0.00810547,0.0108317,-0.00640442,0.612084,0.0100601,0.0402514,692,1121,-12.0906,-0.704154
-525,-97,0,0,0,0,0,0,0,0,0,-1,699,1121,0,0
-518,-97,0,0,0,0,0,0,0,0,0,-1,706,1121,0,0
-511,-97,0,0,0,0,0,0,0,0,0,-1,713,1121,0,0
-504,-97,0,0,0,0,0,0,0,0,0,-1,720,1121,0,0
-497,-97,0,0,0,0,0,0,0,0,0,-1,727,1121,0,0
-490,-97,0,0,0,0,0,0,0,0,0,-1,734,1121,0,0
-483,-97,0,0,0,0,0,0,0,0,0,-1,741,1121,0,0
-476,-97,0,0,0,0,0,0,0,0,0,-1,748,1121,0,0
-469,-97,0,0,0,0,0,0,0,0,0,-1,755,1121,0,0
-462,-97,0,0,0,0,0,0,0,0,0,-1,762,1121,0,0
-455,-97,0,0,0,0,0,0,0,0,0,-1,769,1121,0,0
-448,-97,0,0,0,0,0,0,0,0,0,-1,776,1121,0,0
-441,-97,0,0,0,0,0,0,0,0,0,-1,783,1121,0,0
-434,-97,0,0,0,0,0,0,0,0,0,-1,790,1121,0,0
-427,-97,0,0,0,0,0,0,0,0,0,-1,797,1121,0,0
-420,-97,0,0,0,0,0,0,0,0,0,-1,804,1121,0,0
-413,-97,0,0,0,0,0,0,0,0,0,-1,811,1121,0,0
-406,-97,0,0,0,0,0,0,0,0,0,-1,818,1121,0,0
-399,-97,0,0,0,0,0,0,0,0,0,-1,825,1121,0,0
-392,-97,0,0,0,0,0,0,0,0,0,-1,832,1121,0,0
-385,-97,0,0,0,0,0,0,0,0,0,-1,839,1121,0,0
-378,-97,0,0,0,0,0,0,0,0,0,-1,846,1121,0,0
-371,-97,0,0,0,0,0,0,0,0,0,-1,853,1121,0,0
-364,-97,0,0,0,0,0,0,0,0,0,-1,860,1121,0,0
-357,-97,0,0,0,0,0,0,0,0,0,-1,867,1121,0,0
-350,-97,0,0,0,0,0,0,0,0,0,-1,874,1121,0,0
-343,-97,0,0,0,0,0,0,0,0,0,-1,881,1121,0,0
-336,-97,0,0,0,0,0,0,0,0,0,-1,888,1121,0,0
-329,-97,0,0,0,0,0,0,0,0,0,-1,895,1121,0,0
-322,-97,0,0,0,0,0,0,0,0,0,-1,902,1121,0,0
-315,-97,0,0,0,0,0,0,0,0,0,-1,909,1121,0,0
-308,-97,0,0,0,0,0,0,0,0,0,-1,916,1121,0,0
-301,-97,0,0,0,0,0,0,0,0,0,-1,923,1121,0,0
-294,-97,0,0,0,0,0,0,0,0,0,-1,930,1121,0,0
-287,-97,0,0,0,0,0,0,0,0,0,-1,937,1121,0,0
-280,-97,0,0,0,0,0,0,0,0,0,-1,944,1121,0,0
-273,-97,0,0,0,0,0,0,0,0,0,-1,951,1121,0,0
-266,-97,0,0,0,0,0,0,0,0,0,-1,958,1121,0,0
-259,-97,0,0,0,0,0,0,0,0,0,-1,965,1121,0,0
-252,-97,0,0,0,0,0,0,0,0,0,-1,972,1121,0,0
-245,-97,0,0,0,0,0,0,0,0,0,-1,979,1121,0,0
-238,-97,0,0,0,0,0,0,0,0,0,-1,986,1121,0,0
-231,-97,0,0,0,0,0,0,0,0,0,-1,993,1121,0,0
-224,-97,0,0,0,0,0,0,0,0,0,-1,1000,1121,0,0
-217,-97,0,0,0,0,0,0,0,0,0,-1,1007,1121,0,0
-210,-97,0,0,0,0,0,0,0,0,0,-1,1014,1121,0,0
-203,-97,0,0,0,0,0,0,0,0,0,-1,1021,1121,0,0
-196,-97,0,0,0,0,0,0,0,0,0,-1,1028,1121,0,0
-189,-97,0,0,0,0,0,0,0,0,0,-1,1035,1121,0,0
-182,-97,0,0,0,0,0,0,0,0,0,-1,1042,1121,0,0
-175,-97,0,0,0,0,0,0,0,0,0,-1,1049,1121,0,0
-168,-97,0,0,0,0,0,0,0,0,0,-1,1056,1121,0,0
-161,-97,0,0,0,0,0,0,0,0,0,-1,1063,1121,0,0
-154,-97,0,0,0,0,0,0,0,0,0,-1,1070,1121,0,0
-147,-97,0,0,0,0,0,0,0,0,0,-1,1077,1121,0,0
-140,-97,0,0,0,0,0,0,0,0,0,-1,1084,1121,0,0
-133,-97,0,0,0,0,0,0,0,0,0,-1,1091,1121,0,0
-126,-97,0,0,0,0,0,0,0,0,0,-1,1098,1121,0,0
-119,-97,0,0,0,0,0,0,0,0,0,-1,1105,1121,0,0
-112,-97,0,0,0,0,0,0,0,0,0,-1,1112,1121,0,0
-105,-97,0,0,0,0,0,0,0,0,0,-1,1119,1121,0,0
-98,-97,0,0,0,0,0,0,0,0,0,-1,1126,1121,0,0
-91,-97,0,0,0,0,0,0,0,0,0,-1,1133,1121,0,0
-84,-97,0,0,0,0,0,0,0,0,0,-1,1140,1121,0,0
-77,-97,0,0,0,0,0,0,0,0,0,-1,1147,1121,0,0
-70,-97,0,0,0,0,0,0,0,0,0,-1,1154,1121,0,0
-63,-97,0,0,0,0,0,0,0,0,0,-1,1161,1121,0,0
-56,-97,0,0,0,0,0,0,0,0,0,-1,1168,1121,0,0
-49,-97,0,0,0,0,0,0,0,0,0,-1,1175,1121,0,0
-42,-97,0,0,0,0,0,0,0,0,0,-1,1182,1121,0,0
-35,-97,0,0,0,0,0,0,0,0,0,-1,1189,1121,0,0
-28,-97,0,0,0,0,0,0,0,0,0,-1,1196,1121,0,0
-21,-97,0,0,0,0,0,0,0,0,0,-1,1203,1121,0,0
-14,-97,0,0,0,0,0,0,0,0,0,-1,1210,1121,0,0
-7,-97,0,0,0,0,0,0,0,0,0,-1,1217,1121,0,0
0,-97,0,0,0,0,0,0,0,0,0,-1,1224,1121,0,0
7,-97,0,0,0,0,0,0,0,0,0,-1,1231,1121,0,0
14,-97,0,0,0,0,0,0,0,0,0,-1,1238,1121,0,0
21,-97,0,0,0,0,0,0,0,0,0,-1,1245,1121,0,0
28,-97,0,0,0,0,0,0,0,0,0,-1,1252,1121,0,0
35,-97,0,0,0,0,0,0,0,0,0,-1,1259,1121,0,0
42,-97,0,0,0,0,0,0,0,0,0,-1,1266,1121,0,0
49,-97,0,0,0,0,0,0,0,0,0,-1,1273,1121,0,0
56,-97,0,0,0,0,0,0,0,0,0,-1,1280,1121,0,0
63,-97,0,0,0,0,0,0,0,0,0,-1,1287,1121,0,0
70,-97,0,0,0,0,0,0,0,0,0,-1,1294,1121,0,0
77,-97,0,0,0,0,0,0,0,0,0,-1,1301,1121,0,0
84,-97,0,0,0,0,0,0,0,0,0,-1,1308,1121,0,0
91,-97,0,0,0,0,0,0,0,0,0,-1,1315,1121,0,0
98,-97,0,0,0,0,0,0,0,0,0,-1,1322,1121,0,0
105,-97,0,0,0,0,0,0,0,0,0,-1,1329,1121,0,0
112,-97,0,0,0,0,0,0,0,0,0,-1,1336,1121,0,0
119,-97,0,0,0,0,0,0,0,0,0,-1,1343,1121,0,0
126,-97,0,0,0,0,0,0,0,0,0,-1,1350,1121,0,0
133,-97,0,0,0,0,0,0,0,0,0,-1,1357,1121,0,0
140,-97,0,0,0,0,0,0,0,0,0,-1,1364,1121,0,0
147,-97,0,0,0,0,0,0,0,0,0,-1,1371,1121,0,0
154,-97,0,0,0,0,0,0,0,0,0,-1,1378,1121,0,0
161,-97,0,0,0,0,0,0,0,0,0,-1,1385,1121,0,0
168,-97,0,0,0,0,0,0,0,0,0,-1,1392,1121,0,0
175,-97,0,0,0,0,0,0,0,0,0,-1,1399,1121,0,0
182,-97,0,0,0,0,0,0,0,0,0,-1,1406,1121,0,0
189,-97,0,0,0,0,0,0,0,0,0,-1,1413,1121,0,0
196,-97,0,0,0,0,0,0,0,0,0,-1,1420,1121,0,0
203,-97,0,0,0,0,0,0,0,0,0,-1,1427,1121,0,0
210,-97,0,0,0,0,0,0,0,0,0,-1,1434,1121,0,0
217,-97,0,0,0,0,0,0,0,0,0,-1,1441,1121,0,0
224,-97,0,0,0,0,0,0,0,0,0,-1,1448,1121,0,0
231,-97,0,0,0,0,0,0,0,0,0,-1,1455,1121,0,0
238,-97,0,0,0,0,0,0,0,0,0,-1,1462,1121,0,0
245,-97,0,0,0,0,0,0,0,0,0,-1,1469,1121,0,0
252,-97,0,0,0,0,0,0,0,0,0,-1,1476,1121,0,0
259,-97,0,0,0,0,0,0,0,0,0,-1,1483,1121,0,0
266,-97,0,0,0,0,0,0,0,0,0,-1,1490,1121,0,0
273,-97,0,0,0,0,0,0,0,0,0,-1,1497,1121,0,0
280,-97,0,0,0,0,0,0,0,0,0,-1,1504,1121,0,0
287,-97,0,0,0,0,0,0,0,0,0,-1,1511,1121,0,0
294,-97,0,0,0,0,0,0,0,0,0,-1,1518,1121,0,0
301,-97,0,0,0,0,0,0,0,0,0,-1,1525,1121,0,0
308,-97,0,0,0,0,0,0,0,0,0,-1,1532,1121,0,0
315,-97,0,0,0,0,0,0,0,0,0,-1,1539,1121,0,0
322,-97,0,0,0,0,0,0,0,0,0,-1,1546,1121,0,0
329,-97,0,0,0,0,0,0,0,0,0,-1,1553,1121,0,0
336,-97,0,0,0,0,0,0,0,0,0,-1,1560,1121,0,0
343,-97,0,0,0,0,0,0,0,0,0,-1,1567,1121,0,0
350,-97,0,0,0,0,0,0,0,0,0,-1,1574,1121,0,0
357,-97,0,0,0,0,0,0,0,0,0,-1,1581,1121,0,0
364,-97,0,0,0,0,0,0,0,0,0,-1,1588,1121,0,0
371,-97,0,0,0,0,0,0,0,0,0,-1,1595,1121,0,0
378,-97,0,0,0,0,0,0,0,0,0,-1,1602,1121,0,0
385,-97,0,0,0,0,0,0,0,0,0,-1,1609,1121,0,0
392,-97,0,0,0,0,0,0,0,0,0,-1,1616,1121,0,0
399,-97,0,0,0,0,0,0,0,0,0,-1,1623,1121,0,0
406,-97,0,0,0,0,0,0,0,0,0,-1,1630,1121,0,0
413,-97,0,0,0,0,0,0,0,0,0,-1,1637,1121,0,0
420,-97,0,0,0,0,0,0,0,0,0,-1,1644,1121,0,0
427,-97,0,0,0,0,0,0,0,0,0,-1,1651,1121,0,0
434,-97,0,0,0,0,0,0,0,0,0,-1,1658,1121,0,0
441,-97,0,0,0,0,0,0,0,0,0,-1,1665,1121,0,0
448,-97,0,0,0,0,0,0,0,0,0,-1,1672,1121,0,0
455,-97,0,0,0,0,0,0,0,0,0,-1,1679,1121,0,0
462,-97,0,0,0,0,0,0,0,0,0,-1,1686,1121,0,0
469,-97,0,0,0,0,0,0,0,0,0,-1,1693,1121,0,0
476,-97,0,0,0,0,0,0,0,0,0,-1,1700,1121,0,0
483,-97,0,0,0,0,0,0,0,0,0,-1,1707,1121,0,0
490,-97,0,0,0,0,0,0,0,0,0,-1,1714,1121,0,0
497,-97,0,0,0,0,0,0,0,0,0,-1,1721,1121,0,0
504,-97,0,0,0,0,0,0,0,0,0,-1,1728,1121,0,0
511,-97,0,0,0,0,0,0,0,0,0,-1,1735,1121,0,0
518,-97,0,0,0,0,0,0,0,0,0,-1,1742,1121,0,0
525,-97,0,0,0,0,0,0,0,0,0,-1,1749,1121,0,0
532,-97,0,0,0,0,0,0,0,0,0,-1,1756,1121,0,0
539,-97,0,0,0,0,0,0,0,0,0,-1,1763,1121,0,0
546,-97,0,0,0,0,0,0,0,0,0,-1,1770,1121,0,0
553,-97,0,0,0,0,0,0,0,0,0,-1,1777,1121,0,0
560,-97,0,0,0,0,0,0,0,0,0,-1,1784,1121,0,0
567,-97,0,0,0,0,0,0,0,0,0,-1,1791,1121,0,0
574,-97,0,0,0,0,0,0,0,0,0,-1,1798,1121,0,0
581,-97,0,0,0,0,0,0,0,0,0,-1,1805,1121,0,0
588,-97,0,0,0,0,0,0,0,0,0,-1,1812,1121,0,0
595,-97,0,0,0,0,0,0,0,0,0,-1,1819,1121,0,0
602,-97,0,0,0,0,0,0,0,0,0,-1,1826,1121,0,0
609,-97,0,0,0,0,0,0,0,0,0,-1,1833,1121,0,0
616,-97,0,0,0,0,0,0,0,0,0,-1,1840,1121,0,0
623,-97,0,0,0,0,0,0,0,0,0,-1,1847,1121,0,0
630,-97,0,0,0,0,0,0,0,0,0,-1,1854,1121,0,0
637,-97,0,0,0,0,0,0,0,0,0,-1,1861,1121,0,0
644,-97,18.6736,2.75757,0.00672819,-0.00155764,-0.00524117,0.00926611,-0.00409557,-0.450951,0.00790455,0.0390845,1868,1121,18.6735,-2.75758
651,-97,18.7456,2.70923,0.00494414,-0.00133309,-0.00378336,0.00672129,-0.00311024,-0.439138,0.00580246,0.0382854,1875,1121,18.7456,-2.70921
658,-97,18.8479,2.59558,0.00384114,-0.00123042,-0.00267643,0.00499229,-0.00238157,-0.406188,0.00434533,0.0383846,1882,1121,18.8479,-2.59559
665,-97,18.8381,2.57104,0.00283078,-0.00128121,-0.00148637,0.0033118,-0.00176222,-0.31298,0.00297467,0.0402739,1889,1121,18.8381,-2.571
672,-97,18.7813,2.63403,0.00145272,-0.00168396,6.70221e-05,0.00145415,-0.00168539,0.0213542,0.00181426,0.0410725,1896,1121,18.7813,-2.63403
679,-97,18.772,2.66248,-2.07499e-06,-0.00212766,0.00146652,0.00074627,-0.002876,0.471842,0.00220853,0.0412618,1903,1121,18.772,-2.66242
686,-97,18.8148,2.61646,-0.001251,-0.00251697,0.00257067,0.000763464,-0.00453144,0.664683,0.00330497,0.0366374,1910,1121,18.8149,-2.61651
693,-97,18.8547,2.63684,-0.00223552,-0.00278252,0.00338368,0.000885694,-0.00590373,0.745071,0.00426184,0.0321256,1917,1121,18.8548,-2.63689
700,-97,18.8379,2.62439,-0.00301584,-0.00288356,0.00394437,0.000995229,-0.00689463,0.793782,0.00496155,0.0267769,1924,1121,18.8379,-2.62438
707,-97,18.8359,2.47949,0,0,0,0,0,0,0,-1,1931,1121,18.836,-2.47954
714,-97,18.7009,3.17029,0,0,0,0,0,0,0,-1,1938,1121,18.701,-3.17029
721,-97,18.5659,3.86108,0,0,0,0,0,0,0,-1,1945,1121,18.566,-3.86104
728,-97,18.1017,3.87195,-0.0040763,-0.00221682,0.00429101,0.00124401,-0.00753714,0.892085,0.00548664,0.0190032,1952,1121,18.1017,-3.87191
735,-97,18.0752,3.79102,-0.00374158,-0.00176204,0.00396763,0.00133741,-0.00684103,0.907633,0.00506569,0.0178487,1959,1121,18.0753,-3.79096
742,-97,18.0627,3.76025,-0.00317419,-0.00123444,0.0035949,0.00151912,-0.00592775,0.917157,0.00454366,0.0141969,1966,1121,18.0627,-3.76028
749,-97,18.0718,3.70105,-0.00239907,-0.000584591,0.0031057,0.00174367,-0.00472733,0.927504,0.00386615,0.0157298,1973,1121,18.0718,-3.70102
756,-97,18.0704,3.62036,-0.000881168,0.00123961,0.00247951,0.00287596,-0.00251752,0.987459,0.00311622,0.0138588,1980,1121,18.0704,-3.62032
763,-97,18.0748,3.55151,0.0013439,0.00265539,0.0018199,0.00393408,6.5212e-05,0.958317,0.00260125,0.0114511,1987,1121,18.0749,-3.55146
770,-97,18.0637,3.48706,0.00365227,0.0045592,0.001297,0.00547972,0.00273175,0.953568,0.00316372,0.00879997,1994,1121,18.0637,-3.48712
777,-97,18.0754,3.43811,0.00605437,0.00668425,0.00109099,0.00750485,0.00523377,0.925915,0.00444405,0.0118084,2001,1121,18.0755,-3.43808
784,-97,18.0811,3.39807,0.00864384,0.0092074,0.00108919,0.0100507,0.00780058,0.911975,0.00609057,0.0339755,2008,1121,18.0811,-3.39811
791,-97,18.2092,3.53223,0.0117368,0.0123529,0.00103507,0.0131248,0.0109649,0.930017,0.00812615,0.0459646,2015,1121,18.2092,-3.53218
798,-97,18.2551,3.68091,0,0,0,0,0,0,0,-1,2022,1121,18.2551,-3.68092
805,-97,18.5455,3.45203,0.0200438,0.0208662,0.000426335,0.0210473,0.0198627,1.16906,0.0136538,0.0414335,2029,1121,18.5455,-3.45197
812,-97,18.3242,3.41907,0.0252223,0.0263244,-0.000322087,0.0264117,0.0251351,-1.30634,0.017198,0.0448815,2036,1121,18.3243,-3.4191
-700,-104,0,0,0,0,0,0,0,0,0,-1,524,1128,0,0
-693,-104,-11.2152,1.3324,0,0,0,0,0,0,0,-1,531,1128,-11.2152,-1.33242
-686,-104,-10.7303,0.885986,0,0,0,0,0,0,0,-1,538,1128,-10.7303,-0.885984
-679,-104,-10.4901,-0.620972,-0.0211621,0.00888563,0.00209958,0.00903163,-0.0213081,1.50137,0.0179883,0.0491456,545,1128,-10.4901,0.620988
-672,-104,-11.2256,0.498779,-0.0187025,0.0083632,0.00584013,0.00956959,-0.0199089,1.36709,0.0173649,0.0499232,552,1128,-11.2257,-0.498791
-665,-104,-11.2034,0.40686,0,0,0,0,0,0,0,-1,559,1128,-11.2033,-0.406854
-658,-104,-11.3793,0.642334,-0.0127172,0.00662266,0.00823429,0.00965356,-0.0157481,1.2181,0.0148057,0.0457263,566,1128,-11.3793,-0.642301
-651,-104,-11.4676,0.845703,-0.00982399,0.00556182,0.00781335,0.00883383,-0.013096,1.17421,0.0127406,0.0380928,573,1128,-11.4676,-0.845713
-644,-104,-11.3918,0.975952,-0.00714629,0.00449861,0.00672208,0.00756926,-0.0102169,1.1423,0.0103067,0.0152884,580,1128,-11.3918,-0.975987
-637,-104,-11.3698,1.08899,-0.00534381,0.00349162,0.00554781,0.00616576,-0.00801795,1.12164,0.00821221,0.0106096,587,1128,-11.3698,-1.08893
-630,-104,-11.3905,1.16284,-0.00445354,0.00216042,0.00364995,0.0037787,-0.00607183,1.15347,0.00573834,0.011725,594,1128,-11.3905,-1.16287
-623,-104,-11.3983,1.26477,-0.00400928,0.000647837,0.00114163,0.000912637,-0.00427408,1.34288,0.00319731,0.0152191,601,1128,-11.3983,-1.26479
-616,-104,-11.4134,1.38538,-0.00403613,-0.000155675,-0.00157018,0.000400086,-0.0045919,-1.23061,0.00320297,0.014839,608,1128,-11.4134,-1.3854
-609,-104,-11.4407,1.44458,-0.00424249,-0.00108916,-0.00364425,0.00130487,-0.00663652,-0.989563,0.00491736,0.0159462,615,1128,-11.4407,-1.44456
-602,-104,-11.4138,1.53247,-0.00494324,-0.00180255,-0.00514208,0.00200362,-0.00874941,-0.933596,0.00660294,0.0136902,622,1128,-11.4138,-1.53249
-595,-104,-11.3749,1.66919,-0.00590628,-0.00221439,-0.00605657,0.0022713,-0.010392,-0.933318,0.00779615,0.0149868,629,1128,-11.3749,-1.66918
-588,-104,-11.3982,1.70874,0,0,0,0,0,0,0,-1,636,1128,-11.3982,-1.70871
-581,-104,-11.7268,1.05774,0,0,0,0,0,0,0,-1,643,1128,-11.7268,-1.05774
-574,-104,-12.0554,0.406738,0,0,0,0,0,0,0,-1,650,1128,-12.0554,-0.406766
-567,-104,-12.0399,0.669312,-0.00634942,-0.00288144,-0.00535175,0.00101021,-0.0102411,-0.942064,0.00718783,0.0397683,657,1128,-12.0399,-0.669298
-560,-104,-12.0302,0.496948,-0.00547149,-0.00268229,-0.00409945,0.000253284,-0.00840707,-0.949353,0.00569102,0.0445582,664,1128,-12.0302,-0.496991
-553,-104,-12.1425,0.361816,-0.00390415,-0.00229533,-0.00215973,-0.000795067,-0.00540441,-0.963669,0.00336934,0.0478779,671,1128,-12.1425,-0.361824
-546,-104,-12.21,0.466309,-0.00145144,-0.00174736,0.000579952,-0.00100087,-0.00219793,0.6605,0.00127066,0.0422362,678,1128,-12.21,-0.466334
-539,-104,-12.2568,0.50647,0.00217375,-0.00108116,0.00416793,0.00502069,-0.00392811,0.599266,0.00517941,0.0373254,685,1128,-12.2568,-0.506452
-532,-104,-12.1967,0.583618,0.00591038,-0.000797665,0.00707282,0.0103841,-0.00527143,0.563995,0.00919801,0.0388068,692,1128,-12.1967,-0.583632
-525,-104,-12.0833,0.685181,0.00857009,-0.00124496,0.00803308,0.0130761,-0.00575094,0.511195,0.0111407,0.0379198,699,1128,-12.0833,-0.685216
-518,-104,0,0,0,0,0,0,0,0,0,-1,706,1128,0,0
-511,-104,0,0,0,0,0,0,0,0,0,-1,713,1128,0,0
-504,-104,0,0,0,0,0,0,0,0,0,-1,720,1128,0,0
-497,-104,0,0,0,0,0,0,0,0,0,-1,727,1128,0,0
-490,-104,0,0,0,0,0,0,0,0,0,-1,734,1128,0,0
-483,-104,0,0,0,0,0,0,0,0,0,-1,741,1128,0,0
-476,-104,0,0,0,0,0,0,0,0,0,-1,748,1128,0,0
-469,-104,0,0,0,0,0,0,0,0,0,-1,755,1128,0,0
-462,-104,0,0,0,0,0,0,0,0,0,-1,762,1128,0,0
-455,-104,0,0,0,0,0,0,0,0,0,-1,769,1128,0,0
-448,-104,0,0,0,0,0,0,0,0,0,-1,776,1128,0,0
-441,-104,0,0,0,0,0,0,0,0,0,-1,783,1128,0,0
-434,-104,0,0,0,0,0,0,0,0,0,-1,790,1128,0,0
-427,-104,0,0,0,0,0,0,0,0,0,-1,797,1128,0,0
-420,-104,0,0,0,0,0,0,0,0,0,-1,804,1128,0,0
-413,-104,0,0,0,0,0,0,0,0,0,-1,811,1128,0,0
-406,-104,0,0,0,0,0,0,0,0,0,-1,818,1128,0,0
-399,-104,0,0,0,0,0,0,0,0,0,-1,825,1128,0,0
-392,-104,0,0,0,0,0,0,0,0,0,-1,832,1128,0,0
-385,-104,0,0,0,0,0,0,0,0,0,-1,839,1128,0,0
-378,-104,0,0,0,0,0,0,0,0,0,-1,846,1128,0,0
-371,-104,0,0,0,0,0,0,0,0,0,-1,853,1128,0,0
-364,-104,0,0,0,0,0,0,0,0,0,-1,860,1128,0,0
-357,-104,0,0,0,0,0,0,0,0,0,-1,867,1128,0,0
-350,-104,0,0,0,0,0,0,0,0,0,-1,874,1128,0,0
-343,-104,0,0,0,0,0,0,0,0,0,-1,881,1128,0,0
-336,-104,0,0,0,0,0,0,0,0,0,-1,888,1128,0,0
-329,-104,0,0,0,0,0,0,0,0,0,-1,895,1128,0,0
-322,-104,0,0,0,0,0,0,0,0,0,-1,902,1128,0,0
-315,-104,0,0,0,0,0,0,0,0,0,-1,909,1128,0,0
-308,-104,0,0,0,0,0,0,0,0,0,-1,916,1128,0,0
-301,-104,0,0,0,0,0,0,0,0,0,-1,923,1128,0,0
-294,-104,0,0,0,0,0,0,0,0,0,-1,930,1128,0,0
-287,-104,0,0,0,0,0,0,0,0,0,-1,937,1128,0,0
-280,-104,0,0,0,0,0,0,0,0,0,-1,944,1128,0,0
-273,-104,0,0,0,0,0,0,0,0,0,-1,951,1128,0,0
-266,-104,0,0,0,0,0,0,0,0,0,-1,958,1128,0,0
-259,-104,0,0,0,0,0,0,0,0,0,-1,965,1128,0,0
-252,-104,0,0,0,0,0,0,0,0,0,-1,972,1128,0,0
-245,-104,0,0,0,0,0,0,0,0,0,-1,979,1128,0,0
-238,-104,0,0,0,0,0,0,0,0,0,-1,986,1128,0,0
-231,-104,0,0,0,0,0,0,0,0,0,-1,993,1128,0,0
-224,-104,0,0,0,0,0,0,0,0,0,-1,1000,1128,0,0
-217,-104,0,0,0,0,0,0,0,0,0,-1,1007,1128,0,0
-210,-104,0,0,0,0,0,0,0,0,0,-1,1014,1128,0,0
-203,-104,0,0,0,0,0,0,0,0,0,-1,1021,1128,0,0
-196,-104,0,0,0,0,0,0,0,0,0,-1,1028,1128,0,0
-189,-104,0,0,0,0,0,0,0,0,0,-1,1035,1128,0,0
-182,-104,0,0,0,0,0,0,0,0,0,-1,1042,1128,0,0
-175,-104,0,0,0,0,0,0,0,0,0,-1,1049,1128,0,0
-168,-104,0,0,0,0,0,0,0,0,0,-1,1056,1128,0,0
-161,-104,0,0,0,0,0,0,0,0,0,-1,1063,1128,0,0
-154,-104,0,0,0,0,0,0,0,0,0,-1,1070,1128,0,0
-147,-104,0,0,0,0,0,0,0,0,0,-1,1077,1128,0,0
-140,-104,0,0,0,0,0,0,0,0,0,-1,1084,1128,0,0
-133,-104,0,0,0,0,0,0,0,0,0,-1,1091,1128,0,0
-126,-104,0,0,0,0,0,0,0,0,0,-1,1098,1128,0,0
-119,-104,0,0,0,0,0,0,0,0,0,-1,1105,1128,0,0
-112,-104,0,0,0,0,0,0,0,0,0,-1,1112,1128,0,0
-105,-104,0,0,0,0,0,0,0,0,0,-1,1119,1128,0,0
-98,-104,0,0,0,0,0,0,0,0,0,-1,1126,1128,0,0
-91,-104,0,0,0,0,0,0,0,0,0,-1,1133,1128,0,0
-84,-104,0,0,0,0,0,0,0,0,0,-1,1140,1128,0,0
-77,-104,0,0,0,0,0,0,0,0,0,-1,1147,1128,0,0
-70,-104,0,0,0,0,0,0,0,0,0,-1,1154,1128,0,0
-63,-104,0,0,0,0,0,0,0,0,0,-1,1161,1128,0,0
-56,-104,0,0,0,0,0,0,0,0,0,-1,1168,1128,0,0
-49,-104,0,0,0,0,0,0,0,0,0,-1,1175,1128,0,0
-42,-104,0,0,0,0,0,0,0,0,0,-1,1182,1128,0,0
-35,-104,0,0,0,0,0,0,0,0,0,-1,1189,1128,0,0
-28,-104,0,0,0,0,0,0,0,0,0,-1,1196,1128,0,0
-21,-104,0,0,0,0,0,0,0,0,0,-1,1203,1128,0,0
-14,-104,0,0,0,0,0,0,0,0,0,-1,1210,1128,0,0
-7,-104,0,0,0,0,0,0,0,0,0,-1,1217,1128,0,0
0,-104,0,0,0,0,0,0,0,0,0,-1,1224,1128,0,0
7,-104,0,0,0,0,0,0,0,0,0,-1,1231,1128,0,0
14,-104,0,0,0,0,0,0,0,0,0,-1,1238,1128,0,0
21,-104,0,0,0,0,0,0,0,0,0,-1,1245,1128,0,0
28,-104,0,0,0,0,0,0,0,0,0,-1,1252,1128,0,0
35,-104,0,0,0,0,0,0,0,0,0,-1,1259,1128,0,0
42,-104,0,0,0,0,0,0,0,0,0,-1,1266,1128,0,0
49,-104,0,0,0,0,0,0,0,0,0,-1,1273,1128,0,0
56,-104,0,0,0,0,0,0,0,0,0,-1,1280,1128,0,0
63,-104,0,0,0,0,0,0,0,0,0,-1,1287,1128,0,0
70,-104,0,0,0,0,0,0,0,0,0,-1,1294,1128,0,0
77,-104,0,0,0,0,0,0,0,0,0,-1,1301,1128,0,0
84,-104,0,0,0,0,0,0,0,0,0,-1,1308,1128,0,0
91,-104,0,0,0,0,0,0,0,0,0,-1,1315,1128,0,0
98,-104,0,0,0,0,0,0,0,0,0,-1,1322,1128,0,0
105,-104,0,0,0,0,0,0,0,0,0,-1,1329,1128,0,0
112,-104,0,0,0,0,0,0,0,0,0,-1,1336,1128,0,0
119,-104,0,0,0,0,0,0,0,0,0,-1,1343,1128,0,0
126,-104,0,0,0,0,0,0,0,0,0,-1,1350,1128,0,0
133,-104,0,0,0,0,0,0,0,0,0,-1,1357,1128,0,0
140,-104,0,0,0,0,0,0,0,0,0,-1,1364,1128,0,0
147,-104,0,0,0,0,0,0,0,0,0,-1,1371,1128,0,0
154,-104,0,0,0,0,0,0,0,0,0,-1,1378,1128,0,0
161,-104,0,0,0,0,0,0,0,0,0,-1,1385,1128,0,0
168,-104,0,0,0,0,0,0,0,0,0,-1,1392,1128,0,0
175,-104,0,0,0,0,0,0,0,0,0,-1,1399,1128,0,0
182,-104,0,0,0,0,0,0,0,0,0,-1,1406,1128,0,0
189,-104,0,0,0,0,0,0,0,0,0,-1,1413,1128,0,0
196,-104,0,0,0,0,0,0,0,0,0,-1,1420,1128,0,0
203,-104,0,0,0,0,0,0,0,0,0,-1,1427,1128,0,0
210,-104,0,0,0,0,0,0,0,0,0,-1,1434,1128,0,0
217,-104,0,0,0,0,0,0,0,0,0,-1,1441,1128,0,0
224,-104,0,0,0,0,0,0,0,0,0,-1,1448,1128,0,0
231,-104,0,0,0,0,0,0,0,0,0,-1,1455,1128,0,0
238,-104,0,0,0,0,0,0,0,0,0,-1,1462,1128,0,0
245,-104,0,0,0,0,0,0,0,0,0,-1,1469,1128,0,0
252,-104,0,0,0,0,0,0,0,0,0,-1,1476,1128,0,0
259,-104,0,0,0,0,0,0,0,0,0,-1,1483,1128,0,0
266,-104,0,0,0,0,0,0,0,0,0,-1,1490,1128,0,0
273,-104,0,0,0,0,0,0,0,0,0,-1,1497,1128,0,0
280,-104,0,0,0,0,0,0,0,0,0,-1,1504,1128,0,0
287,-104,0,0,0,0,0,0,0,0,0,-1,1511,1128,0,0
294,-104,0,0,0,0,0,0,0,0,0,-1,1518,1128,0,0
301,-104,0,0,0,0,0,0,0,0,0,-1,1525,1128,0,0
308,-104,0,0,0,0,0,0,0,0,0,-1,1532,1128,0,0
315,-104,0,0,0,0,0,0,0,0,0,-1,1539,1128,0,0
322,-104,0,0,0,0,0,0,0,0,0,-1,1546,1128,0,0
329,-104,0,0,0,0,0,0,0,0,0,-1,1553,1128,0,0
336,-104,0,0,0,0,0,0,0,0,0,-1,1560,1128,0,0
343,-104,0,0,0,0,0,0,0,0,0,-1,1567,1128,0,0
350,-104,0,0,0,0,0,0,0,0,0,-1,1574,1128,0,0
357,-104,0,0,0,0,0,0,0,0,0,-1,1581,1128,0,0
364,-104,0,0,0,0,0,0,0,0,0,-1,1588,1128,0,0
371,-104,0,0,0,0,0,0,0,0,0,-1,1595,1128,0,0
378,-104,0,0,0,0,0,0,0,0,0,-1,1602,1128,0,0
385,-104,0,0,0,0,0,0,0,0,0,-1,1609,1128,0,0
392,-104,0,0,0,0,0,0,0,0,0,-1,1616,1128,0,0
399,-104,0,0,0,0,0,0,0,0,0,-1,1623,1128,0,0
406,-104,0,0,0,0,0,0,0,0,0,-1,1630,1128,0,0
413,-104,0,0,0,0,0,0,0,0,0,-1,1637,1128,0,0
420,-104,0,0,0,0,0,0,0,0,0,-1,1644,1128,0,0
427,-104,0,0,0,0,0,0,0,0,0,-1,1651,1128,0,0
434,-104,0,0,0,0,0,0,0,0,0,-1,1658,1128,0,0
441,-104,0,0,0,0,0,0,0,0,0,-1,1665,1128,0,0
448,-104,0,0,0,0,0,0,0,0,0,-1,1672,1128,0,0
455,-104,0,0,0,0,0,0,0,0,0,-1,1679,1128,0,0
462,-104,0,0,0,0,0,0,0,0,0,-1,1686,1128,0,0
469,-104,0,0,0,0,0,0,0,0,0,-1,1693,1128,0,0
476,-104,0,0,0,0,0,0,0,0,0,-1,1700,1128,0,0
483,-104,0,0,0,0,0,0,0,0,0,-1,1707,1128,0,0
490,-104,0,0,0,0,0,0,0,0,0,-1,1714,1128,0,0
497,-104,0,0,0,0,0,0,0,0,0,-1,1721,1128,0,0
504,-104,0,0,0,0,0,0,0,0,0,-1,1728,1128,0,0
511,-104,0,0,0,0,0,0,0,0,0,-1,1735,1128,0,0
518,-104,0,0,0,0,0,0,0,0,0,-1,1742,1128,0,0
525,-104,0,0,0,0,0,0,0,0,0,-1,1749,1128,0,0
532,-104,0,0,0,0,0,0,0,0,0,-1,1756,1128,0,0
539,-104,0,0,0,0,0,0,0,0,0,-1,1763,1128,0,0
546,-104,0,0,0,0,0,0,0,0,0,-1,1770,1128,0,0
553,-104,0,0,0,0,0,0,0,0,0,-1,1777,1128,0,0
560,-104,0,0,0,0,0,0,0,0,0,-1,1784,1128,0,0
567,-104,0,0,0,0,0,0,0,0,0,-1,1791,1128,0,0
574,-104,0,0,0,0,0,0,0,0,0,-1,1798,1128,0,0
581,-104,0,0,0,0,0,0,0,0,0,-1,1805,1128,0,0
588,-104,0,0,0,0,0,0,0,0,0,-1,1812,1128,0,0
595,-104,0,0,0,0,0,0,0,0,0,-1,1819,1128,0,0
602,-104,0,0,0,0,0,0,0,0,0,-1,1826,1128,0,0
609,-104,0,0,0,0,0,0,0,0,0,-1,1833,1128,0,0
616,-104,0,0,0,0,0,0,0,0,0,-1,1840,1128,0,0
623,-104,0,0,0,0,0,0,0,0,0,-1,1847,1128,0,0
630,-104,0,0,0,0,0,0,0,0,0,-1,1854,1128,0,0
637,-104,0,0,0,0,0,0,0,0,0,-1,1861,1128,0,0
644,-104,18.585,2.98315,0.00549434,-0.000972726,-0.0043759,0.00770179,-0.00318017,-0.467205,0.00646096,0.0381242,1868,1128,18.5849,-2.98321
651,-104,18.6975,2.88037,0.00407655,-0.000789527,-0.00318005,0.00564756,-0.00236054,-0.458852,0.00475153,0.038204,1875,1128,18.6975,-2.88036
658,-104,18.796,2.67969,0.00328659,-0.000719019,-0.00224854,0.00429495,-0.00172739,-0.421568,0.00358078,0.0406248,1882,1128,18.796,-2.67965
665,-104,18.8232,2.59106,0.00240251,-0.000868155,-0.00114956,0.00276612,-0.00123177,-0.306353,0.00236417,0.0428513,1889,1128,18.8233,-2.59104
672,-104,18.7811,2.56763,0.00106992,-0.00135749,0.000279122,0.0011016,-0.00138917,0.113022,0.00144124,0.0441512,1896,1128,18.7811,-2.56767
679,-104,18.6812,2.67004,-0.000327479,-0.00185056,0.00152081,0.000611809,-0.00278984,0.553277,0.00209384,0.040841,1903,1128,18.6812,-2.67006
686,-104,18.7219,2.71533,-0.00154042,-0.00228742,0.00250391,0.000617688,-0.00444553,0.711361,0.00318958,0.0374025,1910,1128,18.7219,-2.71534
693,-104,18.838,2.68176,-0.00249195,-0.00257956,0.00320605,0.000670588,-0.00574211,0.778567,0.00407006,0.0349169,1917,1128,18.838,-2.68177
700,-104,18.8221,2.60168,-0.00322699,-0.0027163,0.00370092,0.000738076,-0.00668136,0.819841,0.00471955,0.0284068,1924,1128,18.8221,-2.60164
707,-104,18.7898,2.56812,0,0,0,0,0,0,0,-1,1931,1128,18.7898,-2.56807
714,-104,18.526,3.26917,0,0,0,0,0,0,0,-1,1938,1128,18.526,-3.26915
721,-104,18.2404,3.89856,0,0,0,0,0,0,0,-1,1945,1128,18.2404,-3.89857
728,-104,18.0699,3.81519,-0.00422252,-0.00215313,0.0039636,0.000908599,-0.00728426,0.913073,0.00518564,0.0223031,1952,1128,18.0699,-3.81516
735,-104,18.0339,3.75256,-0.00383853,-0.00168814,0.00368418,0.00107454,-0.00660121,0.927376,0.00479925,0.0202302,1959,1128,18.0339,-3.75253
742,-104,17.9849,3.75488,-0.00322309,-0.00111675,0.00338208,0.00137234,-0.00571219,0.936338,0.00433853,0.0136505,1966,1128,17.9849,-3.75491
749,-104,17.9921,3.71057,-0.00239028,-0.000309378,0.00293008,0.0017595,-0.00445915,0.956,0.0037014,0.0158663,1973,1128,17.992,-3.71061
756,-104,17.9874,3.62891,-0.000943986,0.0018199,0.00236466,0.00317682,-0.00230091,1.04984,0.00317601,0.015421,1980,1128,17.9874,-3.62886
763,-104,17.9835,3.55115,0.00113582,0.00360648,0.00173643,0.00450216,0.000240135,1.09457,0.00292468,0.0139775,1987,1128,17.9836,-3.55111
770,-104,17.9965,3.47571,0.00319919,0.00599077,0.00126343,0.00647766,0.0027123,1.20296,0.00375631,0.0108083,1994,1128,17.9965,-3.47572
777,-104,17.9969,3.41223,0.00516902,0.0087389,0.00106094,0.0090304,0.00487752,1.30266,0.0052193,0.0180327,2001,1128,17.9969,-3.41222
784,-104,18.0896,3.5011,0.00721028,0.0120699,0.000963177,0.0122539,0.00702634,1.3821,0.00710013,0.0402015,2008,1128,18.0897,-3.50104
791,-104,18.197,3.63049,0.0095545,0.0162523,0.000736441,0.0163323,0.00947448,1.46257,0.00946972,0.0482095,2015,1128,18.1971,-3.63045
798,-104,18.3201,3.47778,0,0,0,0,0,0,0,-1,2022,1128,18.3201,-3.47777
805,-104,18.9469,3.76514,0.0154151,0.0276532,-0.000506539,0.0276742,0.0153941,-1.5295,0.0160114,0.0428722,2029,1128,18.9469,-3.76509
812,-104,18.6858,3.76709,0.0186745,0.0350296,-0.00176134,0.0352172,0.018487,-1.46472,0.0203411,0.0440705,2036,1128,18.6857,-3.76708
-700,-111,0,0,0,0,0,0,0,0,0,-1,524,1135,0,0
-693,-111,-10.0929,0.89624,0,0,0,0,0,0,0,-1,531,1135,-10.0929,-0.896183
-686,-111,-1.57556,-4.84729,0,0,0,0,0,0,0,-1,538,1135,-1.57555,4.84728
-679,-111,-2.88501,-4.69702,0,0,0,0,0,0,0,-1,545,1135,-2.88502,4.69705
-672,-111,-11.2563,0.805542,0,0,0,0,0,0,0,-1,552,1135,-11.2564,-0.805521
-665,-111,-11.2494,-1.07031,0,0,0,0,0,0,0,-1,559,1135,-11.2494,1.07029
-658,-111,-11.4167,-0.543457,-0.0193837,0.00618051,0.0146892,0.0128703,-0.0260735,1.14344,0.0229109,0.046037,566,1135,-11.4168,0.543408
-651,-111,-11.3076,0.382324,-0.0146928,0.00526869,0.0125764,0.0113435,-0.0207676,1.12081,0.0188036,0.0392447,573,1135,-11.3075,-0.382272
-644,-111,-11.2707,0.968018,-0.0106064,0.00430099,0.0101008,0.00940055,-0.0157059,1.10326,0.0146468,0.0246259,580,1135,-11.2707,-0.968023
-637,-111,-11.2781,1.07813,-0.00715024,0.00344168,0.00774651,0.00752951,-0.0112381,1.08523,0.0109058,0.00893283,587,1135,-11.2781,-1.07813
-630,-111,-11.2948,1.13916,-0.0054373,0.00221228,0.00495547,0.00464734,-0.00787236,1.11406,0.00730775,0.013756,594,1135,-11.2948,-1.13915
-623,-111,-11.3007,1.24097,-0.00468515,0.000671965,0.00176239,0.00119976,-0.00521295,1.27982,0.00393664,0.0137309,601,1135,-11.3007,-1.24098
-616,-111,-11.3088,1.3396,-0.00460533,-0.000201104,-0.00131253,0.00016038,-0.00496681,-1.30205,0.00336594,0.0138098,608,1135,-11.3088,-1.33961
-609,-111,-11.3452,1.43958,-0.00470342,-0.00112517,-0.00357689,0.0010851,-0.00691369,-1.0173,0.00501015,0.0155477,615,1135,-11.3452,-1.43959
-602,-111,-11.3339,1.53967,-0.00542037,-0.00193013,-0.00509158,0.00170709,-0.00905759,-0.950497,0.00668053,0.0144733,622,1135,-11.3339,-1.53967
-595,-111,-11.3127,1.68762,-0.00648632,-0.00235406,-0.00602045,0.00194493,-0.0107853,-0.950694,0.00791853,0.0127414,629,1135,-11.3127,-1.68763
-588,-111,-11.1489,1.77161,0,0,0,0,0,0,0,-1,636,1135,-11.1489,-1.77161
-581,-111,-11.5491,1.07727,0,0,0,0,0,0,0,-1,643,1135,-11.5491,-1.07724
-574,-111,-11.9494,0.382813,0,0,0,0,0,0,0,-1,650,1135,-11.9494,-0.382868
-567,-111,-11.989,0.74646,-0.00707705,-0.00314507,-0.0057087,0.000926687,-0.0111488,-0.95123,0.0077599,0.0395902,657,1135,-11.989,-0.746489
-560,-111,-11.9246,0.650024,-0.00616603,-0.00299174,-0.00464314,0.000328026,-0.0094858,-0.950085,0.00643599,0.0405568,664,1135,-11.9247,-0.649987
-553,-111,-11.9111,0.291504,-0.00448498,-0.00265365,-0.00292499,-0.000504346,-0.00663428,-0.93709,0.00426469,0.0449247,671,1135,-11.9111,-0.291544
-546,-111,-12.1949,0.555298,-0.00181443,-0.00216263,-0.000445773,-0.00150997,-0.0024671,-0.599227,0.00143625,0.039373,678,1135,-12.195,-0.555329
-539,-111,-12.2233,0.554688,0.00217745,-0.00156461,0.00287716,0.00373844,-0.0031256,0.497103,0.00396822,0.0394083,685,1135,-12.2233,-0.554738
-532,-111,-12.197,0.605591,0.0065689,-0.00126276,0.00578328,0.00963734,-0.0043312,0.487804,0.00825641,0.0406153,692,1135,-12.197,-0.605563
-525,-111,-12.1313,0.658936,0.00990164,-0.0017093,0.00681165,0.0130461,-0.00485381,0.432488,0.0106892,0.0381585,699,1135,-12.1313,-0.658991
-518,-111,0,0,0,0,0,0,0,0,0,-1,706,1135,0,0
-511,-111,0,0,0,0,0,0,0,0,0,-1,713,1135,0,0
-504,-111,0,0,0,0,0,0,0,0,0,-1,720,1135,0,0
-497,-111,0,0,0,0,0,0,0,0,0,-1,727,1135,0,0
-490,-111,0,0,0,0,0,0,0,0,0,-1,734,1135,0,0
-483,-111,0,0,0,0,0,0,0,0,0,-1,741,1135,0,0
-476,-111,0,0,0,0,0,0,0,0,0,-1,748,1135,0,0
-469,-111,0,0,0,0,0,0,0,0,0,-1,755,1135,0,0
-462,-111,0,0,0,0,0,0,0,0,0,-1,762,1135,0,0
-455,-111,0,0,0,0,0,0,0,0,0,-1,769,1135,0,0
-448,-111,0,0,0,0,0,0,0,0,0,-1,776,1135,0,0
-441,-111,0,0,0,0,0,0,0,0,0,-1,783,1135,0,0
-434,-111,0,0,0,0,0,0,0,0,0,-1,790,1135,0,0
-427,-111,0,0,0,0,0,0,0,0,0,-1,797,1135,0,0
-420,-111,0,0,0,0,0,0,0,0,0,-1,804,1135,0,0
-413,-111,0,0,0,0,0,0,0,0,0,-1,811,1135,0,0
-406,-111,0,0,0,0,0,0,0,0,0,-1,818,1135,0,0
-399,-111,0,0,0,0,0,0,0,0,0,-1,825,1135,0,0
-392,-111,0,0,0,0,0,0,0,0,0,-1,832,1135,0,0
-385,-111,0,0,0,0,0,0,0,0,0,-1,839,1135,0,0
-378,-111,0,0,0,0,0,0,0,0,0,-1,846,1135,0,0
-371,-111,0,0,0,0,0,0,0,0,0,-1,853,1135,0,0
-364,-111,0,0,0,0,0,0,0,0,0,-1,860,1135,0,0
-357,-111,0,0,0,0,0,0,0,0,0,-1,867,1135,0,0
-350,-111,0,0,0,0,0,0,0,0,0,-1,874,1135,0,0
-343,-111,0,0,0,0,0,0,0,0,0,-1,881,1135,0,0
-336,-111,0,0,0,0,0,0,0,0,0,-1,888,1135,0,0
-329,-111,0,0,0,0,0,0,0,0,0,-1,895,1135,0,0
-322,-111,0,0,0,0,0,0,0,0,0,-1,902,1135,0,0
-315,-111,0,0,0,0,0,0,0,0,0,-1,909,1135,0,0
-308,-111,0,0,0,0,0,0,0,0,0,-1,916,1135,0,0
-301,-111,0,0,0,0,0,0,0,0,0,-1,923,1135,0,0
-294,-111,0,0,0,0,0,0,0,0,0,-1,930,1135,0,0
-287,-111,0,0,0,0,0,0,0,0,0,-1,937,1135,0,0
-280,-111,0,0,0,0,0,0,0,0,0,-1,944,1135,0,0
-273,-111,0,0,0,0,0,0,0,0,0,-1,951,1135,0,0
-266,-111,0,0,0,0,0,0,0,0,0,-1,958,1135,0,0
-259,-111,0,0,0,0,0,0,0,0,0,-1,965,1135,0,0
-252,-111,0,0,0,0,0,0,0,0,0,-1,972,1135,0,0
-245,-111,0,0,0,0,0,0,0,0,0,-1,979,1135,0,0
-238,-111,0,0,0,0,0,0,0,0,0,-1,986,1135,0,0
-231,-111,0,0,0,0,0,0,0,0,0,-1,993,1135,0,0
-224,-111,0,0,0,0,0,0,0,0,0,-1,1000,1135,0,0
-217,-111,0,0,0,0,0,0,0,0,0,-1,1007,1135,0,0
-210,-111,0,0,0,0,0,0,0,0,0,-1,1014,1135,0,0
-203,-111,0,0,0,0,0,0,0,0,0,-1,1021,1135,0,0
-196,-111,0,0,0,0,0,0,0,0,0,-1,1028,1135,0,0
-189,-111,0,0,0,0,0,0,0,0,0,-1,1035,1135,0,0
-182,-111,0,0,0,0,0,0,0,0,0,-1,1042,1135,0,0
-175,-111,0,0,0,0,0,0,0,0,0,-1,1049,1135,0,0
-168,-111,0,0,0,0,0,0,0,0,0,-1,1056,1135,0,0
-161,-111,0,0,0,0,0,0,0,0,0,-1,1063,1135,0,0
-154,-111,0,0,0,0,0,0,0,0,0,-1,1070,1135,0,0
-147,-111,0,0,0,0,0,0,0,0,0,-1,1077,1135,0,0
-140,-111,0,0,0,0,0,0,0,0,0,-1,1084,1135,0,0
-133,-111,0,0,0,0,0,0,0,0,0,-1,1091,1135,0,0
-126,-111,0,0,0,0,0,0,0,0,0,-1,1098,1135,0,0
-119,-111,0,0,0,0,0,0,0,0,0,-1,1105,1135,0,0
-112,-111,0,0,0,0,0,0,0,0,0,-1,1112,1135,0,0
-105,-111,0,0,0,0,0,0,0,0,0,-1,1119,1135,0,0
-98,-111,0,0,0,0,0,0,0,0,0,-1,1126,1135,0,0
-91,-111,0,0,0,0,0,0,0,0,0,-1,1133,1135,0,0
-84,-111,0,0,0,0,0,0,0,0,0,-1,1140,1135,0,0
-77,-111,0,0,0,0,0,0,0,0,0,-1,1147,1135,0,0
-70,-111,0,0,0,0,0,0,0,0,0,-1,1154,1135,0,0
-63,-111,0,0,0,0,0,0,0,0,0,-1,1161,1135,0,0
-56,-111,0,0,0,0,0,0,0,0,0,-1,1168,1135,0,0
-49,-111,0,0,0,0,0,0,0,0,0,-1,1175,1135,0,0
-42,-111,0,0,0,0,0,0,0,0,0,-1,1182,1135,0,0
-35,-111,0,0,0,0,0,0,0,0,0,-1,1189,1135,0,0
-28,-111,0,0,0,0,0,0,0,0,0,-1,1196,1135,0,0
-21,-111,0,0,0,0,0,0,0,0,0,-1,1203,1135,0,0
-14,-111,0,0,0,0,0,0,0,0,0,-1,1210,1135,0,0
-7,-111,0,0,0,0,0,0,0,0,0,-1,1217,1135,0,0
0,-111,0,0,0,0,0,0,0,0,0,-1,1224,1135,0,0
7,-111,0,0,0,0,0,0,0,0,0,-1,1231,1135,0,0
14,-111,0,0,0,0,0,0,0,0,0,-1,1238,1135,0,0
21,-111,0,0,0,0,0,0,0,0,0,-1,1245,1135,0,0
28,-111,0,0,0,0,0,0,0,0,0,-1,1252,1135,0,0
35,-111,0,0,0,0,0,0,0,0,0,-1,1259,1135,0,0
42,-111,0,0,0,0,0,0,0,0,0,-1,1266,1135,0,0
49,-111,0,0,0,0,0,0,0,0,0,-1,1273,1135,0,0
56,-111,0,0,0,0,0,0,0,0,0,-1,1280,1135,0,0
63,-111,0,0,0,0,0,0,0,0,0,-1,1287,1135,0,0
70,-111,0,0,0,0,0,0,0,0,0,-1,1294,1135,0,0
77,-111,0,0,0,0,0,0,0,0,0,-1,1301,1135,0,0
84,-111,0,0,0,0,0,0,0,0,0,-1,1308,1135,0,0
91,-111,0,0,0,0,0,0,0,0,0,-1,1315,1135,0,0
98,-111,0,0,0,0,0,0,0,0,0,-1,1322,1135,0,0
105,-111,0,0,0,0,0,0,0,0,0,-1,1329,1135,0,0
112,-111,0,0,0,0,0,0,0,0,0,-1,1336,1135,0,0
119,-111,0,0,0,0,0,0,0,0,0,-1,1343,1135,0,0
126,-111,0,0,0,0,0,0,0,0,0,-1,1350,1135,0,0
133,-111,0,0,0,0,0,0,0,0,0,-1,1357,1135,0,0
140,-111,0,0,0,0,0,0,0,0,0,-1,1364,1135,0,0
147,-111,0,0,0,0,0,0,0,0,0,-1,1371,1135,0,0
154,-111,0,0,0,0,0,0,0,0,0,-1,1378,1135,0,0
161,-111,0,0,0,0,0,0,0,0,0,-1,1385,1135,0,0
168,-111,0,0,0,0,0,0,0,0,0,-1,1392,1135,0,0
175,-111,0,0,0,0,0,0,0,0,0,-1,1399,1135,0,0
182,-111,0,0,0,0,0,0,0,0,0,-1,1406,1135,0,0
189,-111,0,0,0,0,0,0,0,0,0,-1,1413,1135,0,0
196,-111,0,0,0,0,0,0,0,0,0,-1,1420,1135,0,0
203,-111,0,0,0,0,0,0,0,0,0,-1,1427,1135,0,0
210,-111,0,0,0,0,0,0,0,0,0,-1,1434,1135,0,0
217,-111,0,0,0,0,0,0,0,0,0,-1,1441,1135,0,0
224,-111,0,0,0,0,0,0,0,0,0,-1,1448,1135,0,0
231,-111,0,0,0,0,0,0,0,0,0,-1,1455,1135,0,0
238,-111,0,0,0,0,0,0,0,0,0,-1,1462,1135,0,0
245,-111,0,0,0,0,0,0,0,0,0,-1,1469,1135,0,0
252,-111,0,0,0,0,0,0,0,0,0,-1,1476,1135,0,0
259,-111,0,0,0,0,0,0,0,0,0,-1,1483,1135,0,0
266,-111,0,0,0,0,0,0,0,0,0,-1,1490,1135,0,0
273,-111,0,0,0,0,0,0,0,0,0,-1,1497,1135,0,0
280,-111,0,0,0,0,0,0,0,0,0,-1,1504,1135,0,0
287,-111,0,0,0,0,0,0,0,0,0,-1,1511,1135,0,0
294,-111,0,0,0,0,0,0,0,0,0,-1,1518,1135,0,0
301,-111,0,0,0,0,0,0,0,0,0,-1,1525,1135,0,0
308,-111,0,0,0,0,0,0,0,0,0,-1,1532,1135,0,0
315,-111,0,0,0,0,0,0,0,0,0,-1,1539,1135,0,0
322,-111,0,0,0,0,0,0,0,0,0,-1,1546,1135,0,0
329,-111,0,0,0,0,0,0,0,0,0,-1,1553,1135,0,0
336,-111,0,0,0,0,0,0,0,0,0,-1,1560,1135,0,0
343,-111,0,0,0,0,0,0,0,0,0,-1,1567,1135,0,0
350,-111,0,0,0,0,0,0,0,0,0,-1,1574,1135,0,0
357,-111,0,0,0,0,0,0,0,0,0,-1,1581,1135,0,0
364,-111,0,0,0,0,0,0,0,0,0,-1,1588,1135,0,0
371,-111,0,0,0,0,0,0,0,0,0,-1,1595,1135,0,0
378,-111,0,0,0,0,0,0,0,0,0,-1,1602,1135,0,0
385,-111,0,0,0,0,0,0,0,0,0,-1,1609,1135,0,0
392,-111,0,0,0,0,0,0,0,0,0,-1,1616,1135,0,0
399,-111,0,0,0,0,0,0,0,0,0,-1,1623,1135,0,0
406,-111,0,0,0,0,0,0,0,0,0,-1,1630,1135,0,0
413,-111,0,0,0,0,0,0,0,0,0,-1,1637,1135,0,0
420,-111,0,0,0,0,0,0,0,0,0,-1,1644,1135,0,0
427,-111,0,0,0,0,0,0,0,0,0,-1,1651,1135,0,0
434,-111,0,0,0,0,0,0,0,0,0,-1,1658,1135,0,0
441,-111,0,0,0,0,0,0,0,0,0,-1,1665,1135,0,0
448,-111,0,0,0,0,0,0,0,0,0,-1,1672,1135,0,0
455,-111,0,0,0,0,0,0,0,0,0,-1,1679,1135,0,0
462,-111,0,0,0,0,0,0,0,0,0,-1,1686,1135,0,0
469,-111,0,0,0,0,0,0,0,0,0,-1,1693,1135,0,0
476,-111,0,0,0,0,0,0,0,0,0,-1,1700,1135,0,0
483,-111,0,0,0,0,0,0,0,0,0,-1,1707,1135,0,0
490,-111,0,0,0,0,0,0,0,0,0,-1,1714,1135,0,0
497,-111,0,0,0,0,0,0,0,0,0,-1,1721,1135,0,0
504,-111,0,0,0,0,0,0,0,0,0,-1,1728,1135,0,0
511,-111,0,0,0,0,0,0,0,0,0,-1,1735,1135,0,0
518,-111,0,0,0,0,0,0,0,0,0,-1,1742,1135,0,0
525,-111,0,0,0,0,0,0,0,0,0,-1,1749,1135,0,0
532,-111,0,0,0,0,0,0,0,0,0,-1,1756,1135,0,0
539,-111,0,0,0,0,0,0,0,0,0,-1,1763,1135,0,0
546,-111,0,0,0,0,0,0,0,0,0,-1,1770,1135,0,0
553,-111,0,0,0,0,0,0,0,0,0,-1,1777,1135,0,0
560,-111,0,0,0,0,0,0,0,0,0,-1,1784,1135,0,0
567,-111,0,0,0,0,0,0,0,0,0,-1,1791,1135,0,0
574,-111,0,0,0,0,0,0,0,0,0,-1,1798,1135,0,0
581,-111,0,0,0,0,0,0,0,0,0,-1,1805,1135,0,0
588,-111,0,0,0,0,0,0,0,0,0,-1,1812,1135,0,0
595,-111,0,0,0,0,0,0,0,0,0,-1,1819,1135,0,0
602,-111,0,0,0,0,0,0,0,0,0,-1,1826,1135,0,0
609,-111,0,0,0,0,0,0,0,0,0,-1,1833,1135,0,0
616,-111,0,0,0,0,0,0,0,0,0,-1,1840,1135,0,0
623,-111,0,0,0,0,0,0,0,0,0,-1,1847,1135,0,0
630,-111,0,0,0,0,0,0,0,0,0,-1,1854,1135,0,0
637,-111,0,0,0,0,0,0,0,0,0,-1,1861,1135,0,0
644,-111,18.4862,3.03528,0.00446247,-0.000509599,-0.00371539,0.00644683,-0.00249397,-0.490549,0.00532748,0.0390927,1868,1135,18.4862,-3.03526
651,-111,18.5511,2.88196,0.00336717,-0.000405751,-0.00273415,0.0048025,-0.00184108,-0.483419,0.00396066,0.0397117,1875,1135,18.5512,-2.88195
658,-111,18.858,2.36182,0.00282692,-0.000388356,-0.00193228,0.00373289,-0.00129432,-0.438426,0.00301413,0.043546,1882,1135,18.858,-2.36182
665,-111,18.731,2.26807,0.0020545,-0.000644641,-0.000875918,0.00231384,-0.000903975,-0.287848,0.00191632,0.0443772,1889,1135,18.7309,-2.26806
672,-111,18.6777,2.48523,0.000786919,-0.00120251,0.000476638,0.000895219,-0.00131081,0.223423,0.00128116,0.0467165,1896,1135,18.6777,-2.48526
679,-111,18.7191,2.71472,-0.000546438,-0.00174115,0.00163475,0.000596679,-0.00288427,0.610229,0.00214953,0.0425087,1903,1135,18.7192,-2.71472
686,-111,18.7708,2.77258,-0.00172338,-0.00221955,0.00255683,0.000597375,-0.00454031,0.737035,0.00324438,0.0391634,1910,1135,18.7708,-2.7726
693,-111,18.7915,2.62146,-0.00266118,-0.00253505,0.00319559,0.000598099,-0.00579433,0.795265,0.0040769,0.0367016,1917,1135,18.7915,-2.6214
700,-111,18.8018,2.59888,-0.00336794,-0.00270954,0.00366584,0.000641844,-0.00671933,0.830179,0.00470811,0.0281834,1924,1135,18.8018,-2.5989
707,-111,18.7468,2.79944,0,0,0,0,0,0,0,-1,1931,1135,18.7468,-2.79947
714,-111,18.3237,3.41638,0,0,0,0,0,0,0,-1,1938,1135,18.3238,-3.41637
721,-111,17.9006,4.03333,0,0,0,0,0,0,0,-1,1945,1135,17.9007,-4.03327
728,-111,17.9657,3.86365,-0.00436364,-0.00218393,0.00386151,0.000738578,-0.00728614,0.922938,0.00512141,0.0160767,1952,1135,17.9657,-3.86361
735,-111,17.95,3.78735,-0.00390419,-0.0016823,0.00358373,0.00095873,-0.00654522,0.935699,0.00471565,0.0164766,1959,1135,17.95,-3.7874
742,-111,17.9436,3.75659,-0.0032794,-0.00102256,0.00326347,0.00130207,-0.00560403,0.95185,0.00423726,0.0111033,1966,1135,17.9436,-3.75663
749,-111,17.9449,3.71021,-0.00252888,-3.6123e-05,0.00269624,0.00168788,-0.00425288,1.0019,0.00353486,0.0135779,1973,1135,17.9449,-3.71016
756,-111,17.9232,3.62866,-0.00123705,0.0023963,0.00207094,0.00333445,-0.00217521,1.14544,0.00320439,0.0149766,1980,1135,17.9233,-3.62861
763,-111,17.9198,3.54968,0.000510878,0.00449008,0.0012939,0.00487381,0.000127151,1.28249,0.00320766,0.0123695,1987,1135,17.9197,-3.54971
770,-111,17.9176,3.49536,0.00210892,0.00725115,0.000654232,0.00733308,0.00202699,1.44621,0.00437257,0.00978237,1994,1135,17.9176,-3.49536
777,-111,17.8977,3.39612,0.00339561,0.0104648,0.000223392,0.0104718,0.00338856,1.53924,0.00617008,0.0226434,2001,1135,17.8976,-3.39607
784,-111,17.9916,3.49792,0.00456014,0.0144045,-0.000197744,0.0144084,0.00455617,-1.55072,0.00850398,0.0419797,2008,1135,17.9916,-3.49796
791,-111,18.0786,3.60974,0.00572395,0.0193733,-0.000832794,0.0194239,0.00567333,-1.51008,0.0115331,0.047167,2015,1135,18.0786,-3.60979
798,-111,18.1259,3.67896,0,0,0,0,0,0,0,-1,2022,1135,18.1259,-3.679
805,-111,19.3511,4.09192,0,0,0,0,0,0,0,-1,2029,1135,19.3512,-4.09189
812,-111,19.0154,4.16785,0,0,0,0,0,0,0,-1,2036,1135,19.0153,-4.1679
-700,-118,0,0,0,0,0,0,0,0,0,-1,524,1142,0,0
-693,-118,-1.04309,-4.40186,-0.0604044,0.00104063,0.0178819,0.00586578,-0.0652295,1.30724,0.0455676,0.0489938,531,1142,-1.0431,4.4019
-686,-118,-2.37921,-4.24988,-0.0544084,0.00363012,0.0246182,0.0126658,-0.063444,1.21903,0.0470892,0.0494468,538,1142,-2.37923,4.24993
-679,-118,-3.70642,-4.03906,-0.0471847,0.00501226,0.0267816,0.0163088,-0.0584812,1.17164,0.0454107,0.0483248,545,1142,-3.70645,4.03912
-672,-118,-5.00818,-3.85107,0,0,0,0,0,0,0,-1,552,1142,-5.00817,3.85114
-665,-118,-10.9865,-0.445679,0,0,0,0,0,0,0,-1,559,1142,-10.9865,0.445727
-658,-118,-11.1483,0.100708,-0.0254036,0.00537242,0.0207203,0.0157938,-0.035825,1.10479,0.0305409,0.0434559,566,1142,-11.1483,-0.100665
-651,-118,-11.071,0.609131,-0.0192542,0.00477385,0.0170039,0.0135798,-0.0280601,1.09295,0.0245206,0.0397357,573,1142,-11.0711,-0.609112
-644,-118,-11.1442,0.909424,-0.0139747,0.00401112,0.0132229,0.0110093,-0.020973,1.08402,0.0187613,0.0253171,580,1142,-11.1441,-0.909406
-637,-118,-11.1589,1.06787,-0.00935068,0.00338422,0.00980415,0.00870718,-0.0146736,1.0734,0.0136446,0.0140885,587,1142,-11.1589,-1.06784
-630,-118,-11.1717,1.15234,-0.00662977,0.00229825,0.00616154,0.00544292,-0.00977444,1.09889,0.00890359,0.0181002,594,1142,-11.1717,-1.15232
-623,-118,-11.1685,1.23706,-0.00535572,0.000775328,0.00235695,0.00157667,-0.00615706,1.24307,0.00471889,0.0162876,601,1142,-11.1685,-1.23704
-616,-118,-11.1676,1.32886,-0.00517977,-0.000153283,-0.00109058,7.31351e-05,-0.00540618,-1.36609,0.00362875,0.0142768,608,1142,-11.1676,-1.32891
-609,-118,-11.2001,1.41101,-0.00525066,-0.00101154,-0.00360302,0.00104913,-0.00731133,-1.05127,0.00525893,0.0143523,615,1142,-11.2001,-1.41104
-602,-118,-11.2141,1.55627,-0.00604184,-0.00184242,-0.00517153,0.0016394,-0.00952366,-0.978238,0.00696024,0.0134542,622,1142,-11.2141,-1.55633
-595,-118,-11.2444,1.66248,-0.00725258,-0.00225523,-0.00614466,0.00187937,-0.0113872,-0.978507,0.00828923,0.0121978,629,1142,-11.2444,-1.66243
-588,-118,-10.9661,1.8136,0,0,0,0,0,0,0,-1,636,1142,-10.9661,-1.81357
-581,-118,-11.4435,1.20154,0,0,0,0,0,0,0,-1,643,1142,-11.4435,-1.20158
-574,-118,-11.9209,0.5896,0,0,0,0,0,0,0,-1,650,1142,-11.9209,-0.589583
-567,-118,-12.0331,0.772217,-0.00809317,-0.00324903,-0.0063139,0.00109142,-0.0124336,-0.968547,0.0086758,0.0424426,657,1142,-12.0332,-0.772186
-560,-118,-12.0477,0.917847,-0.00715354,-0.00321344,-0.00542046,0.000583877,-0.0109509,-0.9597,0.00750277,0.037692,664,1142,-12.0477,-0.917897
-553,-118,-11.9919,0.728516,-0.00534073,-0.00306061,-0.00387814,-0.000158431,-0.00824291,-0.928356,0.00544323,0.0384534,671,1142,-11.9919,-0.728499
-546,-118,-11.9607,0.689819,-0.00240945,-0.00285982,-0.00157457,-0.00104404,-0.00422523,-0.714374,0.00254133,0.0391375,678,1142,-11.9607,-0.689767
-539,-118,-12.1185,0.828491,0.00200329,-0.00270193,0.00159741,0.00249435,-0.00319299,0.298245,0.00329184,0.043414,685,1142,-12.1184,-0.828521
-532,-118,-12.341,1.01172,0.00714327,-0.00289499,0.00464376,0.00896199,-0.00471371,0.373285,0.00802165,0.0436086,692,1142,-12.341,-1.01167
-525,-118,-12.1357,0.947754,0.0113644,-0.00401082,0.00604617,0.0134572,-0.00610358,0.333222,0.0115564,0.0429695,699,1142,-12.1357,-0.947798
-518,-118,0,0,0,0,0,0,0,0,0,-1,706,1142,0,0
-511,-118,0,0,0,0,0,0,0,0,0,-1,713,1142,0,0
-504,-118,0,0,0,0,0,0,0,0,0,-1,720,1142,0,0
-497,-118,0,0,0,0,0,0,0,0,0,-1,727,1142,0,0
-490,-118,0,0,0,0,0,0,0,0,0,-1,734,1142,0,0
-483,-118,0,0,0,0,0,0,0,0,0,-1,741,1142,0,0
-476,-118,0,0,0,0,0,0,0,0,0,-1,748,1142,0,0
-469,-118,0,0,0,0,0,0,0,0,0,-1,755,1142,0,0
-462,-118,0,0,0,0,0,0,0,0,0,-1,762,1142,0,0
-455,-118,0,0,0,0,0,0,0,0,0,-1,769,1142,0,0
-448,-118,0,0,0,0,0,0,0,0,0,-1,776,1142,0,0
-441,-118,0,0,0,0,0,0,0,0,0,-1,783,1142,0,0
-434,-118,0,0,0,0,0,0,0,0,0,-1,790,1142,0,0
-427,-118,0,0,0,0,0,0,0,0,0,-1,797,1142,0,0
-420,-118,0,0,0,0,0,0,0,0,0,-1,804,1142,0,0
-413,-118,0,0,0,0,0,0,0,0,0,-1,811,1142,0,0
-406,-118,0,0,0,0,0,0,0,0,0,-1,818,1142,0,0
-399,-118,0,0,0,0,0,0,0,0,0,-1,825,1142,0,0
-392,-118,0,0,0,0,0,0,0,0,0,-1,832,1142,0,0
-385,-118,0,0,0,0,0,0,0,0,0,-1,839,1142,0,0
-378,-118,0,0,0,0,0,0,0,0,0,-1,846,1142,0,0
-371,-118,0,0,0,0,0,0,0,0,0,-1,853,1142,0,0
-364,-118,0,0,0,0,0,0,0,0,0,-1,860,1142,0,0
-357,-118,0,0,0,0,0,0,0,0,0,-1,867,1142,0,0
-350,-118,0,0,0,0,0,0,0,0,0,-1,874,1142,0,0
-343,-118,0,0,0,0,0,0,0,0,0,-1,881,1142,0,0
-336,-118,0,0,0,0,0,0,0,0,0,-1,888,1142,0,0
-329,-118,0,0,0,0,0,0,0,0,0,-1,895,1142,0,0
-322,-118,0,0,0,0,0,0,0,0,0,-1,902,1142,0,0
-315,-118,0,0,0,0,0,0,0,0,0,-1,909,1142,0,0
-308,-118,0,0,0,0,0,0,0,0,0,-1,916,1142,0,0
-301,-118,0,0,0,0,0,0,0,0,0,-1,923,1142,0,0
-294,-118,0,0,0,0,0,0,0,0,0,-1,930,1142,0,0
-287,-118,0,0,0,0,0,0,0,0,0,-1,937,1142,0,0
-280,-118,0,0,0,0,0,0,0,0,0,-1,944,1142,0,0
-273,-118,0,0,0,0,0,0,0,0,0,-1,951,1142,0,0
-266,-118,0,0,0,0,0,0,0,0,0,-1,958,1142,0,0
-259,-118,0,0,0,0,0,0,0,0,0,-1,965,1142,0,0
-252,-118,0,0,0,0,0,0,0,0,0,-1,972,1142,0,0
-245,-118,0,0,0,0,0,0,0,0,0,-1,979,1142,0,0
-238,-118,0,0,0,0,0,0,0,0,0,-1,986,1142,0,0
-231,-118,0,0,0,0,0,0,0,0,0,-1,993,1142,0,0
-224,-118,0,0,0,0,0,0,0,0,0,-1,1000,1142,0,0
-217,-118,0,0,0,0,0,0,0,0,0,-1,1007,1142,0,0
-210,-118,0,0,0,0,0,0,0,0,0,-1,1014,1142,0,0
-203,-118,0,0,0,0,0,0,0,0,0,-1,1021,1142,0,0
-196,-118,0,0,0,0,0,0,0,0,0,-1,1028,1142,0,0
-189,-118,0,0,0,0,0,0,0,0,0,-1,1035,1142,0,0
-182,-118,0,0,0,0,0,0,0,0,0,-1,1042,1142,0,0
-175,-118,0,0,0,0,0,0,0,0,0,-1,1049,1142,0,0
-168,-118,0,0,0,0,0,0,0,0,0,-1,1056,1142,0,0
-161,-118,0,0,0,0,0,0,0,0,0,-1,1063,1142,0,0
-154,-118,0,0,0,0,0,0,0,0,0,-1,1070,1142,0,0
-147,-118,0,0,0,0,0,0,0,0,0,-1,1077,1142,0,0
-140,-118,0,0,0,0,0,0,0,0,0,-1,1084,1142,0,0
-133,-118,0,0,0,0,0,0,0,0,0,-1,1091,1142,0,0
-126,-118,0,0,0,0,0,0,0,0,0,-1,1098,1142,0,0
-119,-118,0,0,0,0,0,0,0,0,0,-1,1105,1142,0,0
-112,-118,0,0,0,0,0,0,0,0,0,-1,1112,1142,0,0
-105,-118,0,0,0,0,0,0,0,0,0,-1,1119,1142,0,0
-98,-118,0,0,0,0,0,0,0,0,0,-1,1126,1142,0,0
-91,-118,0,0,0,0,0,0,0,0,0,-1,1133,1142,0,0
-84,-118,0,0,0,0,0,0,0,0,0,-1,1140,1142,0,0
-77,-118,0,0,0,0,0,0,0,0,0,-1,1147,1142,0,0
-70,-118,0,0,0,0,0,0,0,0,0,-1,1154,1142,0,0
-63,-118,0,0,0,0,0,0,0,0,0,-1,1161,1142,0,0
-56,-118,0,0,0,0,0,0,0,0,0,-1,1168,1142,0,0
-49,-118,0,0,0,0,0,0,0,0,0,-1,1175,1142,0,0
-42,-118,0,0,0,0,0,0,0,0,0,-1,1182,1142,0,0
-35,-118,0,0,0,0,0,0,0,0,0,-1,1189,1142,0,0
-28,-118,0,0,0,0,0,0,0,0,0,-1,1196,1142,0,0
-21,-118,0,0,0,0,0,0,0,0,0,-1,1203,1142,0,0
-14,-118,0,0,0,0,0,0,0,0,0,-1,1210,1142,0,0
-7,-118,0,0,0,0,0,0,0,0,0,-1,1217,1142,0,0
0,-118,0,0,0,0,0,0,0,0,0,-1,1224,1142,0,0
7,-118,0,0,0,0,0,0,0,0,0,-1,1231,1142,0,0
14,-118,0,0,0,0,0,0,0,0,0,-1,1238,1142,0,0
21,-118,0,0,0,0,0,0,0,0,0,-1,1245,1142,0,0
28,-118,0,0,0,0,0,0,0,0,0,-1,1252,1142,0,0
35,-118,0,0,0,0,0,0,0,0,0,-1,1259,1142,0,0
42,-118,0,0,0,0,0,0,0,0,0,-1,1266,1142,0,0
49,-118,0,0,0,0,0,0,0,0,0,-1,1273,1142,0,0
56,-118,0,0,0,0,0,0,0,0,0,-1,1280,1142,0,0
63,-118,0,0,0,0,0,0,0,0,0,-1,1287,1142,0,0
70,-118,0,0,0,0,0,0,0,0,0,-1,1294,1142,0,0
77,-118,0,0,0,0,0,0,0,0,0,-1,1301,1142,0,0
84,-118,0,0,0,0,0,0,0,0,0,-1,1308,1142,0,0
91,-118,0,0,0,0,0,0,0,0,0,-1,1315,1142,0,0
98,-118,0,0,0,0,0,0,0,0,0,-1,1322,1142,0,0
105,-118,0,0,0,0,0,0,0,0,0,-1,1329,1142,0,0
112,-118,0,0,0,0,0,0,0,0,0,-1,1336,1142,0,0
119,-118,0,0,0,0,0,0,0,0,0,-1,1343,1142,0,0
126,-118,0,0,0,0,0,0,0,0,0,-1,1350,1142,0,0
133,-118,0,0,0,0,0,0,0,0,0,-1,1357,1142,0,0
140,-118,0,0,0,0,0,0,0,0,0,-1,1364,1142,0,0
147,-118,0,0,0,0,0,0,0,0,0,-1,1371,1142,0,0
154,-118,0,0,0,0,0,0,0,0,0,-1,1378,1142,0,0
161,-118,0,0,0,0,0,0,0,0,0,-1,1385,1142,0,0
168,-118,0,0,0,0,0,0,0,0,0,-1,1392,1142,0,0
175,-118,0,0,0,0,0,0,0,0,0,-1,1399,1142,0,0
182,-118,0,0,0,0,0,0,0,0,0,-1,1406,1142,0,0
189,-118,0,0,0,0,0,0,0,0,0,-1,1413,1142,0,0
196,-118,0,0,0,0,0,0,0,0,0,-1,1420,1142,0,0
203,-118,0,0,0,0,0,0,0,0,0,-1,1427,1142,0,0
210,-118,0,0,0,0,0,0,0,0,0,-1,1434,1142,0,0
217,-118,0,0,0,0,0,0,0,0,0,-1,1441,1142,0,0
224,-118,0,0,0,0,0,0,0,0,0,-1,1448,1142,0,0
231,-118,0,0,0,0,0,0,0,0,0,-1,1455,1142,0,0
238,-118,0,0,0,0,0,0,0,0,0,-1,1462,1142,0,0
245,-118,0,0,0,0,0,0,0,0,0,-1,1469,1142,0,0
252,-118,0,0,0,0,0,0,0,0,0,-1,1476,1142,0,0
259,-118,0,0,0,0,0,0,0,0,0,-1,1483,1142,0,0
266,-118,0,0,0,0,0,0,0,0,0,-1,1490,1142,0,0
273,-118,0,0,0,0,0,0,0,0,0,-1,1497,1142,0,0
280,-118,0,0,0,0,0,0,0,0,0,-1,1504,1142,0,0
287,-118,0,0,0,0,0,0,0,0,0,-1,1511,1142,0,0
294,-118,0,0,0,0,0,0,0,0,0,-1,1518,1142,0,0
301,-118,0,0,0,0,0,0,0,0,0,-1,1525,1142,0,0
308,-118,0,0,0,0,0,0,0,0,0,-1,1532,1142,0,0
315,-118,0,0,0,0,0,0,0,0,0,-1,1539,1142,0,0
322,-118,0,0,0,0,0,0,0,0,0,-1,1546,1142,0,0
329,-118,0,0,0,0,0,0,0,0,0,-1,1553,1142,0,0
336,-118,0,0,0,0,0,0,0,0,0,-1,1560,1142,0,0
343,-118,0,0,0,0,0,0,0,0,0,-1,1567,1142,0,0
350,-118,0,0,0,0,0,0,0,0,0,-1,1574,1142,0,0
357,-118,0,0,0,0,0,0,0,0,0,-1,1581,1142,0,0
364,-118,0,0,0,0,0,0,0,0,0,-1,1588,1142,0,0
371,-118,0,0,0,0,0,0,0,0,0,-1,1595,1142,0,0
378,-118,0,0,0,0,0,0,0,0,0,-1,1602,1142,0,0
385,-118,0,0,0,0,0,0,0,0,0,-1,1609,1142,0,0
392,-118,0,0,0,0,0,0,0,0,0,-1,1616,1142,0,0
399,-118,0,0,0,0,0,0,0,0,0,-1,1623,1142,0,0
406,-118,0,0,0,0,0,0,0,0,0,-1,1630,1142,0,0
413,-118,0,0,0,0,0,0,0,0,0,-1,1637,1142,0,0
420,-118,0,0,0,0,0,0,0,0,0,-1,1644,1142,0,0
427,-118,0,0,0,0,0,0,0,0,0,-1,1651,1142,0,0
434,-118,0,0,0,0,0,0,0,0,0,-1,1658,1142,0,0
441,-118,0,0,0,0,0,0,0,0,0,-1,1665,1142,0,0
448,-118,0,0,0,0,0,0,0,0,0,-1,1672,1142,0,0
455,-118,0,0,0,0,0,0,0,0,0,-1,1679,1142,0,0
462,-118,0,0,0,0,0,0,0,0,0,-1,1686,1142,0,0
469,-118,0,0,0,0,0,0,0,0,0,-1,1693,1142,0,0
476,-118,0,0,0,0,0,0,0,0,0,-1,1700,1142,0,0
483,-118,0,0,0,0,0,0,0,0,0,-1,1707,1142,0,0
490,-118,0,0,0,0,0,0,0,0,0,-1,1714,1142,0,0
497,-118,0,0,0,0,0,0,0,0,0,-1,1721,1142,0,0
504,-118,0,0,0,0,0,0,0,0,0,-1,1728,1142,0,0
511,-118,0,0,0,0,0,0,0,0,0,-1,1735,1142,0,0
518,-118,0,0,0,0,0,0,0,0,0,-1,1742,1142,0,0
525,-118,0,0,0,0,0,0,0,0,0,-1,1749,1142,0,0
532,-118,0,0,0,0,0,0,0,0,0,-1,1756,1142,0,0
539,-118,0,0,0,0,0,0,0,0,0,-1,1763,1142,0,0
546,-118,0,0,0,0,0,0,0,0,0,-1,1770,1142,0,0
553,-118,0,0,0,0,0,0,0,0,0,-1,1777,1142,0,0
560,-118,0,0,0,0,0,0,0,0,0,-1,1784,1142,0,0
567,-118,0,0,0,0,0,0,0,0,0,-1,1791,1142,0,0
574,-118,0,0,0,0,0,0,0,0,0,-1,1798,1142,0,0
581,-118,0,0,0,0,0,0,0,0,0,-1,1805,1142,0,0
588,-118,0,0,0,0,0,0,0,0,0,-1,1812,1142,0,0
595,-118,0,0,0,0,0,0,0,0,0,-1,1819,1142,0,0
602,-118,0,0,0,0,0,0,0,0,0,-1,1826,1142,0,0
609,-118,0,0,0,0,0,0,0,0,0,-1,1833,1142,0,0
616,-118,0,0,0,0,0,0,0,0,0,-1,1840,1142,0,0
623,-118,0,0,0,0,0,0,0,0,0,-1,1847,1142,0,0
630,-118,0,0,0,0,0,0,0,0,0,-1,1854,1142,0,0
637,-118,0,0,0,0,0,0,0,0,0,-1,1861,1142,0,0
644,-118,18.5985,2.72766,0.00354194,-0.000222733,-0.00315926,0.00533712,-0.00201791,-0.516729,0.0043882,0.0390615,1868,1142,18.5985,-2.72764
651,-118,18.6265,2.67041,0.00276748,-0.000217953,-0.00240791,0.00410782,-0.0015583,-0.507928,0.00337992,0.0408231,1875,1142,18.6265,-2.67037
658,-118,18.7389,2.46472,0.00235581,-0.000261601,-0.00169491,0.00318847,-0.00109426,-0.456638,0.00256928,0.0419512,1882,1142,18.7389,-2.4647
665,-118,18.7329,2.52625,0.00153514,-0.0006178,-0.000628165,0.00170501,-0.000787676,-0.264115,0.00147128,0.0429566,1889,1142,18.7329,-2.52626
672,-118,18.6713,2.64771,0.000224789,-0.00122154,0.000686239,0.000498565,-0.00149532,0.379602,0.00119816,0.0463562,1896,1142,18.6712,-2.64772
679,-118,18.7368,2.83813,-0.00112313,-0.00179028,0.00181671,0.000390377,-0.00330379,0.694602,0.00234351,0.0412577,1903,1142,18.7368,-2.83818
686,-118,18.7198,2.8103,-0.00230479,-0.00228798,0.00271848,0.000422104,-0.00501488,0.786943,0.00349247,0.0363529,1910,1142,18.7198,-2.8103
693,-118,18.7234,2.54602,-0.00324032,-0.00260849,0.00332735,0.000417903,-0.00626672,0.832729,0.00432385,0.0351006,1917,1142,18.7234,-2.54597
700,-118,18.7913,2.6217,-0.00390783,-0.0028161,0.00378739,0.000464556,-0.00718849,0.856969,0.00495444,0.0208401,1924,1142,18.7912,-2.62168
707,-118,18.8058,3.10449,0,0,0,0,0,0,0,-1,1931,1142,18.8058,-3.10448
714,-118,18.3208,3.55908,-0.00495786,-0.00283244,0.00430558,0.000539641,-0.00832995,0.906391,0.00574164,0.0352164,1938,1142,18.3209,-3.55909
721,-118,17.8954,3.94385,-0.00499584,-0.0026158,0.00417245,0.000533016,-0.00814466,0.924314,0.00561588,0.0102203,1945,1142,17.8954,-3.94381
728,-118,17.8673,3.89685,-0.00474,-0.00225281,0.00390146,0.00059846,-0.00759126,0.939683,0.00527166,0.0134821,1952,1142,17.8673,-3.89687
735,-118,17.8673,3.82617,-0.00417824,-0.0017098,0.00360892,0.000870109,-0.00675815,0.950159,0.00482171,0.014009,1959,1142,17.8674,-3.82618
742,-118,17.9172,3.7384,-0.00348026,-0.000967611,0.00328333,0.00129154,-0.00573942,0.968123,0.00432161,0.0202188,1966,1142,17.9172,-3.73846
749,-118,17.8842,3.62781,-0.00271539,0.000127741,0.00261019,0.00167837,-0.00426602,1.03475,0.00353872,0.0196579,1973,1142,17.8841,-3.62785
756,-118,17.8584,3.60059,-0.00151478,0.00262369,0.00193663,0.00338858,-0.00227967,1.19464,0.00329337,0.0181313,1980,1142,17.8584,-3.6006
763,-118,17.8491,3.54028,-0.000101676,0.00488705,0.00109543,0.00511699,-0.000331616,1.36389,0.00352706,0.010144,1987,1142,17.8491,-3.54022
770,-118,17.8433,3.47473,0.00104947,0.00775844,0.000410425,0.00778345,0.00102445,1.50992,0.00488344,0.0114071,1994,1142,17.8433,-3.47469
777,-118,17.8311,3.38965,0.00169764,0.0110765,-8.60826e-05,0.0110773,0.00169685,-1.56162,0.00688927,0.0252002,2001,1142,17.831,-3.38965
784,-118,17.9052,3.39697,0.0020277,0.0151605,-0.000623027,0.01519,0.00199821,-1.5235,0.00953068,0.0434638,2008,1142,17.9052,-3.397
791,-118,18.1162,3.48071,0.00208378,0.0203186,-0.00141527,0.0204278,0.00197459,-1.4938,0.0130104,0.0477262,2015,1142,18.1162,-3.4807
798,-118,18.1964,3.75269,0.001856,0.0267755,-0.00259829,0.0270435,0.00158796,-1.468,0.0175237,0.0482983,2022,1142,18.1964,-3.75269
805,-118,18.2238,3.97681,0,0,0,0,0,0,0,-1,2029,1142,18.2238,-3.97681
812,-118,19.3792,4.56799,0,0,0,0,0,0,0,-1,2036,1142,19.3792,-4.56804
-700,-125,0,0,0,0,0,0,0,0,0,-1,524,1149,0,0
-693,-125,-1.83722,-3.87622,-0.0772591,-0.00496523,0.0364204,0.010201,-0.0924254,1.17621,0.0652835,0.0483067,531,1149,-1.83724,3.87624
-686,-125,-3.17084,-3.6947,-0.0687114,-0.000471572,0.039835,0.0178585,-0.0870415,1.13953,0.0648059,0.0480486,538,1149,-3.17083,3.69472
-679,-125,-4.54218,-3.3136,-0.0591356,0.00228037,0.039133,0.0213154,-0.0781707,1.11807,0.0604841,0.0468887,545,1149,-4.54218,3.3136
-672,-125,-3.52704,-2.24878,0,0,0,0,0,0,0,-1,552,1149,-3.52706,2.24874
-665,-125,-4.50574,-1.87097,0,0,0,0,0,0,0,-1,559,1149,-4.50573,1.871
-658,-125,-11.1465,0.804443,0,0,0,0,0,0,0,-1,566,1149,-11.1465,-0.804432
-651,-125,-11.0974,0.873535,-0.0239948,0.00459116,0.0213021,0.0159511,-0.0353547,1.08088,0.0303193,0.0392803,573,1149,-11.0974,-0.873529
-644,-125,-11.064,0.952393,-0.0174311,0.00402156,0.0162348,0.0127534,-0.026163,1.07733,0.0229087,0.0243087,580,1149,-11.0639,-0.952366
-637,-125,-11.0447,1.05188,-0.011631,0.00358007,0.0117688,0.00998699,-0.0180379,1.07226,0.0164012,0.0130208,587,1149,-11.0447,-1.05185
-630,-125,-11.038,1.14783,-0.00794404,0.00258149,0.00733209,0.00634404,-0.0117066,1.09667,0.0105737,0.0146474,594,1149,-11.038,-1.14782
-623,-125,-11.0412,1.25037,-0.00612897,0.000994503,0.00293907,0.00205057,-0.00718503,1.22584,0.00560012,0.0134292,601,1149,-11.0412,-1.25035
-616,-125,-11.0403,1.33667,-0.0057897,-3.63357e-05,-0.000860473,8.96002e-05,-0.00591563,-1.42547,0.00397396,0.0125027,608,1149,-11.0404,-1.3367
-609,-125,-11.0812,1.41882,-0.00576425,-0.000848201,-0.00370981,0.00114401,-0.00775646,-1.07798,0.00559146,0.0135838,615,1149,-11.0812,-1.41886
-602,-125,-11.1215,1.56104,-0.00657759,-0.00171715,-0.00540028,0.00177454,-0.0100693,-0.996832,0.00737587,0.0129225,622,1149,-11.1215,-1.56103
-595,-125,-11.1159,1.67993,-0.00796253,-0.00210945,-0.00643093,0.00202953,-0.0121015,-0.99893,0.00882234,0.0123199,629,1149,-11.1159,-1.67992
-588,-125,-10.8513,1.93713,0,0,0,0,0,0,0,-1,636,1149,-10.8512,-1.93717
-581,-125,-11.363,1.42065,0,0,0,0,0,0,0,-1,643,1149,-11.363,-1.42067
-574,-125,-11.8748,0.904175,0,0,0,0,0,0,0,-1,650,1149,-11.8747,-0.904175
-567,-125,-12.0322,0.746582,-0.00919928,-0.00313849,-0.00700069,0.00145955,-0.0137973,-0.989658,0.00972132,0.0384365,657,1149,-12.0322,-0.746549
-560,-125,-12.1241,1.0282,-0.00826765,-0.0031547,-0.00621821,0.00101205,-0.0124344,-0.980429,0.00864671,0.0392029,664,1149,-12.1241,-1.02821
-553,-125,-12.182,0.904175,-0.006379,-0.00311333,-0.00475867,0.000284851,-0.00977718,-0.950668,0.00661512,0.038465,671,1149,-12.182,-0.904123
-546,-125,-12.1514,0.657227,-0.00327721,-0.00312062,-0.0025016,-0.000696093,-0.00570174,-0.801041,0.00359169,0.0382583,678,1149,-12.1514,-0.657231
-539,-125,-12.1406,0.739014,0.00139991,-0.00331005,0.000674341,0.00149455,-0.0034047,0.139442,0.00289936,0.0410162,685,1149,-12.1406,-0.739024
-532,-125,-12.0884,0.912109,0,0,0,0,0,0,0,-1,692,1149,-12.0884,-0.9121
-525,-125,-12.0764,0.803711,0,0,0,0,0,0,0,-1,699,1149,-12.0764,-0.803725
-518,-125,0,0,0,0,0,0,0,0,0,-1,706,1149,0,0
-511,-125,0,0,0,0,0,0,0,0,0,-1,713,1149,0,0
-504,-125,0,0,0,0,0,0,0,0,0,-1,720,1149,0,0
-497,-125,0,0,0,0,0,0,0,0,0,-1,727,1149,0,0
-490,-125,0,0,0,0,0,0,0,0,0,-1,734,1149,0,0
-483,-125,0,0,0,0,0,0,0,0,0,-1,741,1149,0,0
-476,-125,0,0,0,0,0,0,0,0,0,-1,748,1149,0,0
-469,-125,0,0,0,0,0,0,0,0,0,-1,755,1149,0,0
-462,-125,0,0,0,0,0,0,0,0,0,-1,762,1149,0,0
-455,-125,0,0,0,0,0,0,0,0,0,-1,769,1149,0,0
-448,-125,0,0,0,0,0,0,0,0,0,-1,776,1149,0,0
-441,-125,0,0,0,0,0,0,0,0,0,-1,783,1149,0,0
-434,-125,0,0,0,0,0,0,0,0,0,-1,790,1149,0,0
-427,-125,0,0,0,0,0,0,0,0,0,-1,797,1149,0,0
-420,-125,0,0,0,0,0,0,0,0,0,-1,804,1149,0,0
-413,-125,0,0,0,0,0,0,0,0,0,-1,811,1149,0,0
-406,-125,0,0,0,0,0,0,0,0,0,-1,818,1149,0,0
-399,-125,0,0,0,0,0,0,0,0,0,-1,825,1149,0,0
-392,-125,0,0,0,0,0,0,0,0,0,-1,832,1149,0,0
-385,-125,0,0,0,0,0,0,0,0,0,-1,839,1149,0,0
-378,-125,0,0,0,0,0,0,0,0,0,-1,846,1149,0,0
-371,-125,0,0,0,0,0,0,0,0,0,-1,853,1149,0,0
-364,-125,0,0,0,0,0,0,0,0,0,-1,860,1149,0,0
-357,-125,0,0,0,0,0,0,0,0,0,-1,867,1149,0,0
-350,-125,0,0,0,0,0,0,0,0,0,-1,874,1149,0,0
-343,-125,0,0,0,0,0,0,0,0,0,-1,881,1149,0,0
-336,-125,0,0,0,0,0,0,0,0,0,-1,888,1149,0,0
-329,-125,0,0,0,0,0,0,0,0,0,-1,895,1149,0,0
-322,-125,0,0,0,0,0,0,0,0,0,-1,902,1149,0,0
-315,-125,0,0,0,0,0,0,0,0,0,-1,909,1149,0,0
-308,-125,0,0,0,0,0,0,0,0,0,-1,916,1149,0,0
-301,-125,0,0,0,0,0,0,0,0,0,-1,923,1149,0,0
-294,-125,0,0,0,0,0,0,0,0,0,-1,930,1149,0,0
-287,-125,0,0,0,0,0,0,0,0,0,-1,937,1149,0,0
-280,-125,0,0,0,0,0,0,0,0,0,-1,944,1149,0,0
-273,-125,0,0,0,0,0,0,0,0,0,-1,951,1149,0,0
-266,-125,0,0,0,0,0,0,0,0,0,-1,958,1149,0,0
-259,-125,0,0,0,0,0,0,0,0,0,-1,965,1149,0,0
-252,-125,0,0,0,0,0,0,0,0,0,-1,972,1149,0,0
-245,-125,0,0,0,0,0,0,0,0,0,-1,979,1149,0,0
-238,-125,0,0,0,0,0,0,0,0,0,-1,986,1149,0,0
-231,-125,0,0,0,0,0,0,0,0,0,-1,993,1149,0,0
-224,-125,0,0,0,0,0,0,0,0,0,-1,1000,1149,0,0
-217,-125,0,0,0,0,0,0,0,0,0,-1,1007,1149,0,0
-210,-125,0,0,0,0,0,0,0,0,0,-1,1014,1149,0,0
-203,-125,0,0,0,0,0,0,0,0,0,-1,1021,1149,0,0
-196,-125,0,0,0,0,0,0,0,0,0,-1,1028,1149,0,0
-189,-125,0,0,0,0,0,0,0,0,0,-1,1035,1149,0,0
-182,-125,0,0,0,0,0,0,0,0,0,-1,1042,1149,0,0
-175,-125,0,0,0,0,0,0,0,0,0,-1,1049,1149,0,0
-168,-125,0,0,0,0,0,0,0,0,0,-1,1056,1149,0,0
-161,-125,0,0,0,0,0,0,0,0,0,-1,1063,1149,0,0
-154,-125,0,0,0,0,0,0,0,0,0,-1,1070,1149,0,0
-147,-125,0,0,0,0,0,0,0,0,0,-1,1077,1149,0,0
-140,-125,0,0,0,0,0,0,0,0,0,-1,1084,1149,0,0
-133,-125,0,0,0,0,0,0,0,0,0,-1,1091,1149,0,0
-126,-125,0,0,0,0,0,0,0,0,0,-1,1098,1149,0,0
-119,-125,0,0,0,0,0,0,0,0,0,-1,1105,1149,0,0
-112,-125,0,0,0,0,0,0,0,0,0,-1,1112,1149,0,0
-105,-125,0,0,0,0,0,0,0,0,0,-1,1119,1149,0,0
-98,-125,0,0,0,0,0,0,0,0,0,-1,1126,1149,0,0
-91,-125,0,0,0,0,0,0,0,0,0,-1,1133,1149,0,0
-84,-125,0,0,0,0,0,0,0,0,0,-1,1140,1149,0,0
-77,-125,0,0,0,0,0,0,0,0,0,-1,1147,1149,0,0
-70,-125,0,0,0,0,0,0,0,0,0,-1,1154,1149,0,0
-63,-125,0,0,0,0,0,0,0,0,0,-1,1161,1149,0,0
-56,-125,0,0,0,0,0,0,0,0,0,-1,1168,1149,0,0
-49,-125,0,0,0,0,0,0,0,0,0,-1,1175,1149,0,0
-42,-125,0,0,0,0,0,0,0,0,0,-1,1182,1149,0,0
-35,-125,0,0,0,0,0,0,0,0,0,-1,1189,1149,0,0
-28,-125,0,0,0,0,0,0,0,0,0,-1,1196,1149,0,0
-21,-125,0,0,0,0,0,0,0,0,0,-1,1203,1149,0,0
-14,-125,0,0,0,0,0,0,0,0,0,-1,1210,1149,0,0
-7,-125,0,0,0,0,0,0,0,0,0,-1,1217,1149,0,0
0,-125,0,0,0,0,0,0,0,0,0,-1,1224,1149,0,0
7,-125,0,0,0,0,0,0,0,0,0,-1,1231,1149,0,0
14,-125,0,0,0,0,0,0,0,0,0,-1,1238,1149,0,0
21,-125,0,0,0,0,0,0,0,0,0,-1,1245,1149,0,0
28,-125,0,0,0,0,0,0,0,0,0,-1,1252,1149,0,0
35,-125,0,0,0,0,0,0,0,0,0,-1,1259,1149,0,0
42,-125,0,0,0,0,0,0,0,0,0,-1,1266,1149,0,0
49,-125,0,0,0,0,0,0,0,0,0,-1,1273,1149,0,0
56,-125,0,0,0,0,0,0,0,0,0,-1,1280,1149,0,0
63,-125,0,0,0,0,0,0,0,0,0,-1,1287,1149,0,0
70,-125,0,0,0,0,0,0,0,0,0,-1,1294,1149,0,0
77,-125,0,0,0,0,0,0,0,0,0,-1,1301,1149,0,0
84,-125,0,0,0,0,0,0,0,0,0,-1,1308,1149,0,0
91,-125,0,0,0,0,0,0,0,0,0,-1,1315,1149,0,0
98,-125,0,0,0,0,0,0,0,0,0,-1,1322,1149,0,0
105,-125,0,0,0,0,0,0,0,0,0,-1,1329,1149,0,0
112,-125,0,0,0,0,0,0,0,0,0,-1,1336,1149,0,0
119,-125,0,0,0,0,0,0,0,0,0,-1,1343,1149,0,0
126,-125,0,0,0,0,0,0,0,0,0,-1,1350,1149,0,0
133,-125,0,0,0,0,0,0,0,0,0,-1,1357,1149,0,0
140,-125,0,0,0,0,0,0,0,0,0,-1,1364,1149,0,0
147,-125,0,0,0,0,0,0,0,0,0,-1,1371,1149,0,0
154,-125,0,0,0,0,0,0,0,0,0,-1,1378,1149,0,0
161,-125,0,0,0,0,0,0,0,0,0,-1,1385,1149,0,0
168,-125,0,0,0,0,0,0,0,0,0,-1,1392,1149,0,0
175,-125,0,0,0,0,0,0,0,0,0,-1,1399,1149,0,0
182,-125,0,0,0,0,0,0,0,0,0,-1,1406,1149,0,0
189,-125,0,0,0,0,0,0,0,0,0,-1,1413,1149,0,0
196,-125,0,0,0,0,0,0,0,0,0,-1,1420,1149,0,0
203,-125,0,0,0,0,0,0,0,0,0,-1,1427,1149,0,0
210,-125,0,0,0,0,0,0,0,0,0,-1,1434,1149,0,0
217,-125,0,0,0,0,0,0,0,0,0,-1,1441,1149,0,0
224,-125,0,0,0,0,0,0,0,0,0,-1,1448,1149,0,0
231,-125,0,0,0,0,0,0,0,0,0,-1,1455,1149,0,0
238,-125,0,0,0,0,0,0,0,0,0,-1,1462,1149,0,0
245,-125,0,0,0,0,0,0,0,0,0,-1,1469,1149,0,0
252,-125,0,0,0,0,0,0,0,0,0,-1,1476,1149,0,0
259,-125,0,0,0,0,0,0,0,0,0,-1,1483,1149,0,0
266,-125,0,0,0,0,0,0,0,0,0,-1,1490,1149,0,0
273,-125,0,0,0,0,0,0,0,0,0,-1,1497,1149,0,0
280,-125,0,0,0,0,0,0,0,0,0,-1,1504,1149,0,0
287,-125,0,0,0,0,0,0,0,0,0,-1,1511,1149,0,0
294,-125,0,0,0,0,0,0,0,0,0,-1,1518,1149,0,0
301,-125,0,0,0,0,0,0,0,0,0,-1,1525,1149,0,0
308,-125,0,0,0,0,0,0,0,0,0,-1,1532,1149,0,0
315,-125,0,0,0,0,0,0,0,0,0,-1,1539,1149,0,0
322,-125,0,0,0,0,0,0,0,0,0,-1,1546,1149,0,0
329,-125,0,0,0,0,0,0,0,0,0,-1,1553,1149,0,0
336,-125,0,0,0,0,0,0,0,0,0,-1,1560,1149,0,0
343,-125,0,0,0,0,0,0,0,0,0,-1,1567,1149,0,0
350,-125,0,0,0,0,0,0,0,0,0,-1,1574,1149,0,0
357,-125,0,0,0,0,0,0,0,0,0,-1,1581,1149,0,0
364,-125,0,0,0,0,0,0,0,0,0,-1,1588,1149,0,0
371,-125,0,0,0,0,0,0,0,0,0,-1,1595,1149,0,0
378,-125,0,0,0,0,0,0,0,0,0,-1,1602,1149,0,0
385,-125,0,0,0,0,0,0,0,0,0,-1,1609,1149,0,0
392,-125,0,0,0,0,0,0,0,0,0,-1,1616,1149,0,0
399,-125,0,0,0,0,0,0,0,0,0,-1,1623,1149,0,0
406,-125,0,0,0,0,0,0,0,0,0,-1,1630,1149,0,0
413,-125,0,0,0,0,0,0,0,0,0,-1,1637,1149,0,0
420,-125,0,0,0,0,0,0,0,0,0,-1,1644,1149,0,0
427,-125,0,0,0,0,0,0,0,0,0,-1,1651,1149,0,0
434,-125,0,0,0,0,0,0,0,0,0,-1,1658,1149,0,0
441,-125,0,0,0,0,0,0,0,0,0,-1,1665,1149,0,0
448,-125,0,0,0,0,0,0,0,0,0,-1,1672,1149,0,0
455,-125,0,0,0,0,0,0,0,0,0,-1,1679,1149,0,0
462,-125,0,0,0,0,0,0,0,0,0,-1,1686,1149,0,0
469,-125,0,0,0,0,0,0,0,0,0,-1,1693,1149,0,0
476,-125,0,0,0,0,0,0,0,0,0,-1,1700,1149,0,0
483,-125,0,0,0,0,0,0,0,0,0,-1,1707,1149,0,0
490,-125,0,0,0,0,0,0,0,0,0,-1,1714,1149,0,0
497,-125,0,0,0,0,0,0,0,0,0,-1,1721,1149,0,0
504,-125,0,0,0,0,0,0,0,0,0,-1,1728,1149,0,0
511,-125,0,0,0,0,0,0,0,0,0,-1,1735,1149,0,0
518,-125,0,0,0,0,0,0,0,0,0,-1,1742,1149,0,0
525,-125,0,0,0,0,0,0,0,0,0,-1,1749,1149,0,0
532,-125,0,0,0,0,0,0,0,0,0,-1,1756,1149,0,0
539,-125,0,0,0,0,0,0,0,0,0,-1,1763,1149,0,0
546,-125,0,0,0,0,0,0,0,0,0,-1,1770,1149,0,0
553,-125,0,0,0,0,0,0,0,0,0,-1,1777,1149,0,0
560,-125,0,0,0,0,0,0,0,0,0,-1,1784,1149,0,0
567,-125,0,0,0,0,0,0,0,0,0,-1,1791,1149,0,0
574,-125,0,0,0,0,0,0,0,0,0,-1,1798,1149,0,0
581,-125,0,0,0,0,0,0,0,0,0,-1,1805,1149,0,0
588,-125,0,0,0,0,0,0,0,0,0,-1,1812,1149,0,0
595,-125,0,0,0,0,0,0,0,0,0,-1,1819,1149,0,0
602,-125,0,0,0,0,0,0,0,0,0,-1,1826,1149,0,0
609,-125,0,0,0,0,0,0,0,0,0,-1,1833,1149,0,0
616,-125,0,0,0,0,0,0,0,0,0,-1,1840,1149,0,0
623,-125,0,0,0,0,0,0,0,0,0,-1,1847,1149,0,0
630,-125,0,0,0,0,0,0,0,0,0,-1,1854,1149,0,0
637,-125,0,0,0,0,0,0,0,0,0,-1,1861,1149,0,0
644,-125,18.8081,2.8623,0.00242332,-0.000165681,-0.00236358,0.00382367,-0.00156603,-0.534865,0.00320145,0.0388082,1868,1149,18.8081,-2.86227
651,-125,18.6431,2.66907,0.00207257,-0.000182779,-0.00188899,0.00314488,-0.00125509,-0.516304,0.00261726,0.038393,1875,1149,18.6431,-2.6691
658,-125,18.6567,2.41028,0.00177422,-0.000233318,-0.0012935,0.00240774,-0.000866833,-0.455428,0.00195911,0.0411388,1882,1149,18.6568,-2.41024
665,-125,18.7584,2.3562,0.000877505,-0.000640512,-0.000258779,0.000920407,-0.000683414,-0.164292,0.00092933,0.0433829,1889,1149,18.7584,-2.35616
672,-125,18.7587,2.4762,-0.000483129,-0.00124598,0.000971608,0.00017924,-0.00190835,0.598354,0.00133599,0.0431348,1896,1149,18.7587,-2.47619
679,-125,18.7412,2.74731,-0.00184755,-0.001811,0.00203684,0.000207645,-0.0038662,0.789884,0.0026494,0.0368714,1903,1149,18.7412,-2.74727
686,-125,18.6632,2.8363,-0.00302857,-0.00230397,0.00289018,0.000246539,-0.00557907,0.847751,0.00380422,0.0352253,1910,1149,18.6632,-2.83636
693,-125,18.6901,2.56262,-0.00394073,-0.00261119,0.00345492,0.00024233,-0.00679425,0.880443,0.0046124,0.0339485,1917,1149,18.6901,-2.56266
700,-125,18.8125,2.68774,-0.00454738,-0.00284697,0.00389387,0.000288435,-0.00768279,0.892883,0.00522066,0.0155023,1924,1149,18.8126,-2.6878
707,-125,18.7438,3.75598,0,0,0,0,0,0,0,-1,1931,1149,18.7438,-3.75603
714,-125,18.1973,3.89563,-0.00551728,-0.00286234,0.00435255,0.00036067,-0.00874029,0.933411,0.00595073,0.0379908,1938,1149,18.1973,-3.89563
721,-125,17.7693,3.97131,-0.00550613,-0.00263206,0.00419502,0.000365227,-0.00850342,0.950412,0.00579453,0.0176217,1945,1149,17.7692,-3.97134
728,-125,17.7714,3.91235,-0.00515282,-0.00224086,0.00388768,0.00045454,-0.00784821,0.964569,0.00539005,0.0120901,1952,1149,17.7714,-3.91234
735,-125,17.7836,3.85095,-0.00448468,-0.00165268,0.00357556,0.000777054,-0.00691442,0.973934,0.00488926,0.015088,1959,1149,17.7835,-3.85098
742,-125,17.8418,3.7616,-0.0037325,-0.000799413,0.00322853,0.00128005,-0.00581196,0.998587,0.00436436,0.021856,1966,1149,17.8418,-3.76165
749,-125,17.8024,3.62915,-0.00300797,0.000430675,0.00242757,0.00168611,-0.00426341,1.09352,0.00354076,0.0244856,1973,1149,17.8023,-3.62915
756,-125,17.7584,3.56836,-0.00194573,0.00316894,0.00154533,0.00359958,-0.00237637,1.29902,0.00347422,0.0210885,1980,1149,17.7584,-3.56835
763,-125,17.7786,3.53186,-0.000962587,0.00562911,0.000376966,0.00565059,-0.000984075,1.51386,0.00413431,0.0115907,1987,1149,17.7786,-3.53185
770,-125,17.7792,3.43823,-0.000368274,0.00872559,-0.000619739,0.00876763,-0.000410314,-1.50306,0.00598655,0.0133238,1994,1149,17.7792,-3.43823
777,-125,17.788,3.32495,-0.000454417,0.0123242,-0.00157471,0.0125153,-0.000645609,-1.44997,0.00856688,0.0252959,2001,1149,17.7879,-3.3249
784,-125,17.907,3.32263,-0.00105831,0.0167528,-0.00278204,0.0171772,-0.00148274,-1.4194,0.0119764,0.0426506,2008,1149,17.9069,-3.32269
791,-125,18.3485,3.50183,-0.00218955,0.022281,-0.00449704,0.0230812,-0.00298982,-1.39469,0.0164748,0.0455614,2015,1149,18.3486,-3.50181
798,-125,18.4873,3.81433,-0.00388409,0.0291057,-0.0069279,0.0305015,-0.0052799,-1.37198,0.0223036,0.0455038,2022,1149,18.4873,-3.81433
805,-125,18.7502,4.43054,-0.00645379,0.0374437,-0.0103186,0.0397482,-0.0087583,-1.35107,0.0298497,0.0476608,2029,1149,18.7503,-4.43051
812,-125,18.8914,4.8573,0,0,0,0,0,0,0,-1,2036,1149,18.8913,-4.85728
-700,-132,0,0,0,0,0,0,0,0,0,-1,524,1156,0,0
-693,-132,-2.53571,-3.18945,0,0,0,0,0,0,0,-1,531,1156,-2.53568,3.18941
-686,-132,-2.78711,-2.68665,0,0,0,0,0,0,0,-1,538,1156,-2.78711,2.68665
-679,-132,-3.51404,-2.56885,0,0,0,0,0,0,0,-1,545,1156,-3.51402,2.56887
-672,-132,-4.10474,-2.05151,-0.0598144,0.00455417,0.0475591,0.0297955,-0.0850557,1.08286,0.0688203,0.0466811,552,1156,-4.10472,2.05152
-665,-132,-4.71106,-1.47754,-0.0485701,0.00542822,0.040337,0.026968,-0.0701099,1.08032,0.0578634,0.0457818,559,1156,-4.71105,1.4776
-658,-132,-5.30396,-0.559326,0,0,0,0,0,0,0,-1,566,1156,-5.30396,0.559289
-651,-132,-11.1318,1.00525,-0.0289638,0.00525222,0.0257343,0.0190462,-0.0427578,1.07875,0.0365475,0.0402594,573,1156,-11.1318,-1.00525
-644,-132,-10.9744,0.984985,-0.0210716,0.00457119,0.0192185,0.0148526,-0.031353,1.07956,0.0272379,0.0213403,580,1156,-10.9744,-0.984981
-637,-132,-10.9418,1.05151,-0.0141264,0.00407788,0.0136557,0.011387,-0.0214355,1.07936,0.0192438,0.0115542,587,1156,-10.9418,-1.05151
-630,-132,-10.9302,1.14429,-0.00945334,0.00293139,0.00839829,0.00717342,-0.0136954,1.10307,0.0122432,0.010093,594,1156,-10.9302,-1.14429
-623,-132,-10.9341,1.25464,-0.00702783,0.00119322,0.00344222,0.00244416,-0.00827877,1.22223,0.00648919,0.0146267,601,1156,-10.9341,-1.25465
-616,-132,-10.985,1.37268,-0.00635494,9.96527e-07,-0.000776532,9.44934e-05,-0.00644844,-1.45097,0.0043308,0.0173892,608,1156,-10.985,-1.37263
-609,-132,-10.9432,1.45337,-0.00616152,-0.000791944,-0.0040107,0.00134963,-0.0083031,-1.08035,0.00603579,0.0127243,615,1156,-10.9432,-1.4534
-602,-132,-10.9943,1.552,-0.00704073,-0.00170964,-0.00580291,0.00201065,-0.010761,-1.0007,0.00792966,0.0124533,622,1156,-10.9943,-1.55197
-595,-132,-11.0085,1.68433,-0.00860573,-0.00207329,-0.0069254,0.00231747,-0.0129965,-1.00575,0.0095312,0.0138882,629,1156,-11.0086,-1.68432
-588,-132,-10.8171,1.92383,0,0,0,0,0,0,0,-1,636,1156,-10.8171,-1.92389
-581,-132,-11.2203,1.54883,-0.0104803,-0.00266787,-0.00796645,0.00229851,-0.0154466,-1.01334,0.0111432,0.0402452,643,1156,-11.2203,-1.54883
-574,-132,-11.6817,1.10596,-0.0104255,-0.0028175,-0.00813677,0.00236056,-0.0156036,-1.00406,0.0112719,0.045681,650,1156,-11.6817,-1.10595
-567,-132,-12.0222,0.697266,-0.0102,-0.00291713,-0.0079756,0.002209,-0.0153261,-0.999551,0.0110278,0.0367693,657,1156,-12.0222,-0.697219
-560,-132,-12.0918,0.762817,-0.00929139,-0.00286456,-0.00728608,0.00188525,-0.0140412,-0.993085,0.0100483,0.0367319,664,1156,-12.0918,-0.762841
-553,-132,-12.1735,0.800781,-0.00735181,-0.00276479,-0.00586242,0.00123679,-0.0113534,-0.971856,0.00801307,0.0387594,671,1156,-12.1735,-0.800816
-546,-132,-12.2264,0.740356,-0.00412566,-0.00274266,-0.00357063,0.000202812,-0.00707113,-0.881046,0.00478313,0.0390008,678,1156,-12.2264,-0.740353
-539,-132,-12.2066,0.697632,0.000721369,-0.00295342,-0.000285415,0.000743405,-0.00297546,-0.0770526,0.00227234,0.038941,685,1156,-12.2066,-0.697655
-532,-132,-12.1367,0.741333,0.00684099,-0.00363039,0.00347484,0.00788917,-0.00467857,0.292967,0.00733449,0.0367069,692,1156,-12.1367,-0.741297
-525,-132,-12.1042,0.689941,0.0124415,-0.00548645,0.0062543,0.0144077,-0.00745268,0.304596,0.0128323,0.0377141,699,1156,-12.1042,-0.689957
-518,-132,0,0,0,0,0,0,0,0,0,-1,706,1156,0,0
-511,-132,0,0,0,0,0,0,0,0,0,-1,713,1156,0,0
-504,-132,0,0,0,0,0,0,0,0,0,-1,720,1156,0,0
-497,-132,0,0,0,0,0,0,0,0,0,-1,727,1156,0,0
-490,-132,0,0,0,0,0,0,0,0,0,-1,734,1156,0,0
-483,-132,0,0,0,0,0,0,0,0,0,-1,741,1156,0,0
-476,-132,0,0,0,0,0,0,0,0,0,-1,748,1156,0,0
-469,-132,0,0,0,0,0,0,0,0,0,-1,755,1156,0,0
-462,-132,0,0,0,0,0,0,0,0,0,-1,762,1156,0,0
-455,-132,0,0,0,0,0,0,0,0,0,-1,769,1156,0,0
-448,-132,0,0,0,0,0,0,0,0,0,-1,776,1156,0,0
-441,-132,0,0,0,0,0,0,0,0,0,-1,783,1156,0,0
-434,-132,0,0,0,0,0,0,0,0,0,-1,790,1156,0,0
-427,-132,0,0,0,0,0,0,0,0,0,-1,797,1156,0,0
-420,-132,0,0,0,0,0,0,0,0,0,-1,804,1156,0,0
-413,-132,0,0,0,0,0,0,0,0,0,-1,811,1156,0,0
-406,-132,0,0,0,0,0,0,0,0,0,-1,818,1156,0,0
-399,-132,0,0,0,0,0,0,0,0,0,-1,825,1156,0,0
-392,-132,0,0,0,0,0,0,0,0,0,-1,832,1156,0,0
-385,-132,0,0,0,0,0,0,0,0,0,-1,839,1156,0,0
-378,-132,0,0,0,0,0,0,0,0,0,-1,846,1156,0,0
-371,-132,0,0,0,0,0,0,0,0,0,-1,853,1156,0,0
-364,-132,0,0,0,0,0,0,0,0,0,-1,860,1156,0,0
-357,-132,0,0,0,0,0,0,0,0,0,-1,867,1156,0,0
-350,-132,0,0,0,0,0,0,0,0,0,-1,874,1156,0,0
-343,-132,0,0,0,0,0,0,0,0,0,-1,881,1156,0,0
-336,-132,0,0,0,0,0,0,0,0,0,-1,888,1156,0,0
-329,-132,0,0,0,0,0,0,0,0,0,-1,895,1156,0,0
-322,-132,0,0,0,0,0,0,0,0,0,-1,902,1156,0,0
-315,-132,0,0,0,0,0,0,0,0,0,-1,909,1156,0,0
-308,-132,0,0,0,0,0,0,0,0,0,-1,916,1156,0,0
-301,-132,0,0,0,0,0,0,0,0,0,-1,923,1156,0,0
-294,-132,0,0,0,0,0,0,0,0,0,-1,930,1156,0,0
-287,-132,0,0,0,0,0,0,0,0,0,-1,937,1156,0,0
-280,-132,0,0,0,0,0,0,0,0,0,-1,944,1156,0,0
-273,-132,0,0,0,0,0,0,0,0,0,-1,951,1156,0,0
-266,-132,0,0,0,0,0,0,0,0,0,-1,958,1156,0,0
-259,-132,0,0,0,0,0,0,0,0,0,-1,965,1156,0,0
-252,-132,0,0,0,0,0,0,0,0,0,-1,972,1156,0,0
-245,-132,0,0,0,0,0,0,0,0,0,-1,979,1156,0,0
-238,-132,0,0,0,0,0,0,0,0,0,-1,986,1156,0,0
-231,-132,0,0,0,0,0,0,0,0,0,-1,993,1156,0,0
-224,-132,0,0,0,0,0,0,0,0,0,-1,1000,1156,0,0
-217,-132,0,0,0,0,0,0,0,0,0,-1,1007,1156,0,0
-210,-132,0,0,0,0,0,0,0,0,0,-1,1014,1156,0,0
-203,-132,0,0,0,0,0,0,0,0,0,-1,1021,1156,0,0
-196,-132,0,0,0,0,0,0,0,0,0,-1,1028,1156,0,0
-189,-132,0,0,0,0,0,0,0,0,0,-1,1035,1156,0,0
-182,-132,0,0,0,0,0,0,0,0,0,-1,1042,1156,0,0
-175,-132,0,0,0,0,0,0,0,0,0,-1,1049,1156,0,0
-168,-132,0,0,0,0,0,0,0,0,0,-1,1056,1156,0,0
-161,-132,0,0,0,0,0,0,0,0,0,-1,1063,1156,0,0
-154,-132,0,0,0,0,0,0,0,0,0,-1,1070,1156,0,0
-147,-132,0,0,0,0,0,0,0,0,0,-1,1077,1156,0,0
-140,-132,0,0,0,0,0,0,0,0,0,-1,1084,1156,0,0
-133,-132,0,0,0,0,0,0,0,0,0,-1,1091,1156,0,0
-126,-132,0,0,0,0,0,0,0,0,0,-1,1098,1156,0,0
-119,-132,0,0,0,0,0,0,0,0,0,-1,1105,1156,0,0
-112,-132,0,0,0,0,0,0,0,0,0,-1,1112,1156,0,0
-105,-132,0,0,0,0,0,0,0,0,0,-1,1119,1156,0,0
-98,-132,0,0,0,0,0,0,0,0,0,-1,1126,1156,0,0
-91,-132,0,0,0,0,0,0,0,0,0,-1,1133,1156,0,0
-84,-132,0,0,0,0,0,0,0,0,0,-1,1140,1156,0,0
-77,-132,0,0,0,0,0,0,0,0,0,-1,1147,1156,0,0
-70,-132,0,0,0,0,0,0,0,0,0,-1,1154,1156,0,0
-63,-132,0,0,0,0,0,0,0,0,0,-1,1161,1156,0,0
-56,-132,0,0,0,0,0,0,0,0,0,-1,1168,1156,0,0
-49,-132,0,0,0,0,0,0,0,0,0,-1,1175,1156,0,0
-42,-132,0,0,0,0,0,0,0,0,0,-1,1182,1156,0,0
-35,-132,0,0,0,0,0,0,0,0,0,-1,1189,1156,0,0
-28,-132,0,0,0,0,0,0,0,0,0,-1,1196,1156,0,0
-21,-132,0,0,0,0,0,0,0,0,0,-1,1203,1156,0,0
-14,-132,0,0,0,0,0,0,0,0,0,-1,1210,1156,0,0
-7,-132,0,0,0,0,0,0,0,0,0,-1,1217,1156,0,0
0,-132,0,0,0,0,0,0,0,0,0,-1,1224,1156,0,0
7,-132,0,0,0,0,0,0,0,0,0,-1,1231,1156,0,0
14,-132,0,0,0,0,0,0,0,0,0,-1,1238,1156,0,0
21,-132,0,0,0,0,0,0,0,0,0,-1,1245,1156,0,0
28,-132,0,0,0,0,0,0,0,0,0,-1,1252,1156,0,0
35,-132,0,0,0,0,0,0,0,0,0,-1,1259,1156,0,0
42,-132,0,0,0,0,0,0,0,0,0,-1,1266,1156,0,0
49,-132,0,0,0,0,0,0,0,0,0,-1,1273,1156,0,0
56,-132,0,0,0,0,0,0,0,0,0,-1,1280,1156,0,0
63,-132,0,0,0,0,0,0,0,0,0,-1,1287,1156,0,0
70,-132,0,0,0,0,0,0,0,0,0,-1,1294,1156,0,0
77,-132,0,0,0,0,0,0,0,0,0,-1,1301,1156,0,0
84,-132,0,0,0,0,0,0,0,0,0,-1,1308,1156,0,0
91,-132,0,0,0,0,0,0,0,0,0,-1,1315,1156,0,0
98,-132,0,0,0,0,0,0,0,0,0,-1,1322,1156,0,0
105,-132,0,0,0,0,0,0,0,0,0,-1,1329,1156,0,0
112,-132,0,0,0,0,0,0,0,0,0,-1,1336,1156,0,0
119,-132,0,0,0,0,0,0,0,0,0,-1,1343,1156,0,0
126,-132,0,0,0,0,0,0,0,0,0,-1,1350,1156,0,0
133,-132,0,0,0,0,0,0,0,0,0,-1,1357,1156,0,0
140,-132,0,0,0,0,0,0,0,0,0,-1,1364,1156,0,0
147,-132,0,0,0,0,0,0,0,0,0,-1,1371,1156,0,0
154,-132,0,0,0,0,0,0,0,0,0,-1,1378,1156,0,0
161,-132,0,0,0,0,0,0,0,0,0,-1,1385,1156,0,0
168,-132,0,0,0,0,0,0,0,0,0,-1,1392,1156,0,0
175,-132,0,0,0,0,0,0,0,0,0,-1,1399,1156,0,0
182,-132,0,0,0,0,0,0,0,0,0,-1,1406,1156,0,0
189,-132,0,0,0,0,0,0,0,0,0,-1,1413,1156,0,0
196,-132,0,0,0,0,0,0,0,0,0,-1,1420,1156,0,0
203,-132,0,0,0,0,0,0,0,0,0,-1,1427,1156,0,0
210,-132,0,0,0,0,0,0,0,0,0,-1,1434,1156,0,0
217,-132,0,0,0,0,0,0,0,0,0,-1,1441,1156,0,0
224,-132,0,0,0,0,0,0,0,0,0,-1,1448,1156,0,0
231,-132,0,0,0,0,0,0,0,0,0,-1,1455,1156,0,0
238,-132,0,0,0,0,0,0,0,0,0,-1,1462,1156,0,0
245,-132,0,0,0,0,0,0,0,0,0,-1,1469,1156,0,0
252,-132,0,0,0,0,0,0,0,0,0,-1,1476,1156,0,0
259,-132,0,0,0,0,0,0,0,0,0,-1,1483,1156,0,0
266,-132,0,0,0,0,0,0,0,0,0,-1,1490,1156,0,0
273,-132,0,0,0,0,0,0,0,0,0,-1,1497,1156,0,0
280,-132,0,0,0,0,0,0,0,0,0,-1,1504,1156,0,0
287,-132,0,0,0,0,0,0,0,0,0,-1,1511,1156,0,0
294,-132,0,0,0,0,0,0,0,0,0,-1,1518,1156,0,0
301,-132,0,0,0,0,0,0,0,0,0,-1,1525,1156,0,0
308,-132,0,0,0,0,0,0,0,0,0,-1,1532,1156,0,0
315,-132,0,0,0,0,0,0,0,0,0,-1,1539,1156,0,0
322,-132,0,0,0,0,0,0,0,0,0,-1,1546,1156,0,0
329,-132,0,0,0,0,0,0,0,0,0,-1,1553,1156,0,0
336,-132,0,0,0,0,0,0,0,0,0,-1,1560,1156,0,0
343,-132,0,0,0,0,0,0,0,0,0,-1,1567,1156,0,0
350,-132,0,0,0,0,0,0,0,0,0,-1,1574,1156,0,0
357,-132,0,0,0,0,0,0,0,0,0,-1,1581,1156,0,0
364,-132,0,0,0,0,0,0,0,0,0,-1,1588,1156,0,0
371,-132,0,0,0,0,0,0,0,0,0,-1,1595,1156,0,0
378,-132,0,0,0,0,0,0,0,0,0,-1,1602,1156,0,0
385,-132,0,0,0,0,0,0,0,0,0,-1,1609,1156,0,0
392,-132,0,0,0,0,0,0,0,0,0,-1,1616,1156,0,0
399,-132,0,0,0,0,0,0,0,0,0,-1,1623,1156,0,0
406,-132,0,0,0,0,0,0,0,0,0,-1,1630,1156,0,0
413,-132,0,0,0,0,0,0,0,0,0,-1,1637,1156,0,0
420,-132,0,0,0,0,0,0,0,0,0,-1,1644,1156,0,0
427,-132,0,0,0,0,0,0,0,0,0,-1,1651,1156,0,0
434,-132,0,0,0,0,0,0,0,0,0,-1,1658,1156,0,0
441,-132,0,0,0,0,0,0,0,0,0,-1,1665,1156,0,0
448,-132,0,0,0,0,0,0,0,0,0,-1,1672,1156,0,0
455,-132,0,0,0,0,0,0,0,0,0,-1,1679,1156,0,0
462,-132,0,0,0,0,0,0,0,0,0,-1,1686,1156,0,0
469,-132,0,0,0,0,0,0,0,0,0,-1,1693,1156,0,0
476,-132,0,0,0,0,0,0,0,0,0,-1,1700,1156,0,0
483,-132,0,0,0,0,0,0,0,0,0,-1,1707,1156,0,0
490,-132,0,0,0,0,0,0,0,0,0,-1,1714,1156,0,0
497,-132,0,0,0,0,0,0,0,0,0,-1,1721,1156,0,0
504,-132,0,0,0,0,0,0,0,0,0,-1,1728,1156,0,0
511,-132,0,0,0,0,0,0,0,0,0,-1,1735,1156,0,0
518,-132,0,0,0,0,0,0,0,0,0,-1,1742,1156,0,0
525,-132,0,0,0,0,0,0,0,0,0,-1,1749,1156,0,0
532,-132,0,0,0,0,0,0,0,0,0,-1,1756,1156,0,0
539,-132,0,0,0,0,0,0,0,0,0,-1,1763,1156,0,0
546,-132,0,0,0,0,0,0,0,0,0,-1,1770,1156,0,0
553,-132,0,0,0,0,0,0,0,0,0,-1,1777,1156,0,0
560,-132,0,0,0,0,0,0,0,0,0,-1,1784,1156,0,0
567,-132,0,0,0,0,0,0,0,0,0,-1,1791,1156,0,0
574,-132,0,0,0,0,0,0,0,0,0,-1,1798,1156,0,0
581,-132,0,0,0,0,0,0,0,0,0,-1,1805,1156,0,0
588,-132,0,0,0,0,0,0,0,0,0,-1,1812,1156,0,0
595,-132,0,0,0,0,0,0,0,0,0,-1,1819,1156,0,0
602,-132,0,0,0,0,0,0,0,0,0,-1,1826,1156,0,0
609,-132,0,0,0,0,0,0,0,0,0,-1,1833,1156,0,0
616,-132,0,0,0,0,0,0,0,0,0,-1,1840,1156,0,0
623,-132,0,0,0,0,0,0,0,0,0,-1,1847,1156,0,0
630,-132,0,0,0,0,0,0,0,0,0,-1,1854,1156,0,0
637,-132,0,0,0,0,0,0,0,0,0,-1,1861,1156,0,0
644,-132,18.8706,2.65479,0.00193531,-0.000326851,-0.00144669,0.0026406,-0.00103214,-0.453613,0.00218719,0.0389454,1868,1156,18.8706,-2.65478
651,-132,18.587,2.62305,0.00179293,-0.000305274,-0.00119546,0.00233434,-0.000846686,-0.425255,0.00190234,0.0386825,1875,1156,18.587,-2.6231
658,-132,18.6057,2.49548,0.00148745,-0.000312056,-0.00073169,0.0017474,-0.000572013,-0.341373,0.00139525,0.0396892,1882,1156,18.6057,-2.49553
665,-132,18.7571,2.57129,0.000491499,-0.000705263,0.000201829,0.00052462,-0.000738384,0.162654,0.000732669,0.0403147,1889,1156,18.757,-2.57129
672,-132,18.7939,2.51245,-0.00088621,-0.00124662,0.00125081,0.000197314,-0.00233014,0.713856,0.0016232,0.0387785,1896,1156,18.7939,-2.51244
679,-132,18.777,2.6123,-0.00223701,-0.0017611,0.00215894,0.000172959,-0.00417107,0.840285,0.00284012,0.0371094,1903,1156,18.777,-2.61235
686,-132,18.709,2.74854,-0.00340072,-0.00222566,0.00289298,0.000138847,-0.00576522,0.88558,0.00389059,0.0344364,1910,1156,18.709,-2.74849
693,-132,18.7065,2.58765,-0.00428431,-0.00248699,0.0033491,8.19229e-05,-0.00685323,0.916475,0.00459637,0.0296845,1917,1156,18.7065,-2.5877
700,-132,18.8402,2.72119,-0.004831,-0.00272912,0.00371864,8.42328e-05,-0.00764435,0.923114,0.00512454,0.031178,1924,1156,18.8403,-2.72123
707,-132,18.2844,3.40381,0,0,0,0,0,0,0,-1,1931,1156,18.2844,-3.40383
714,-132,17.8833,3.9646,-0.00575285,-0.00274072,0.00405954,8.31233e-05,-0.00857669,0.963025,0.0057457,0.0321683,1938,1156,17.8833,-3.96464
721,-132,17.6636,4.04004,-0.00572284,-0.00250863,0.00387142,7.60001e-05,-0.00830747,0.982135,0.00556382,0.0222077,1945,1156,17.6636,-4.04
728,-132,17.6708,3.94043,-0.00531151,-0.0021104,0.00353422,0.000168803,-0.00759071,0.998019,0.00511767,0.012315,1952,1156,17.6708,-3.9404
735,-132,17.6865,3.85925,-0.00463944,-0.00150268,0.00320911,0.000500801,-0.00664293,1.01269,0.00460464,0.0149171,1959,1156,17.6866,-3.85926
742,-132,17.7026,3.78638,-0.00397794,-0.000553054,0.00281716,0.00103129,-0.00556229,1.05849,0.00409547,0.0196237,1966,1156,17.7026,-3.78637
749,-132,17.726,3.67883,-0.00343513,0.000797362,0.00187422,0.00150799,-0.00414575,1.20839,0.00338053,0.0229463,1973,1156,17.726,-3.67881
756,-132,17.7164,3.56689,-0.00252751,0.00385211,0.000875841,0.00397016,-0.00264557,1.43681,0.00384503,0.0218214,1980,1156,17.7164,-3.56687
763,-132,17.7021,3.5144,-0.00186594,0.00655035,-0.000438092,0.0065731,-0.00188868,-1.51893,0.00512888,0.0128688,1987,1156,17.7021,-3.51445
770,-132,17.7045,3.4585,-0.00172589,0.00996838,-0.00160625,0.010185,-0.0019425,-1.43675,0.00752158,0.0124693,1994,1156,17.7045,-3.45854
777,-132,17.7202,3.31982,-0.0022998,0.0140455,-0.00280962,0.014515,-0.00276926,-1.40523,0.0107196,0.0210788,2001,1156,17.7202,-3.31984
784,-132,17.8661,3.26038,-0.00339839,0.0191331,-0.00435559,0.0199458,-0.00421107,-1.38634,0.0149005,0.040978,2008,1156,17.8661,-3.2604
791,-132,18.1216,3.45679,-0.00500814,0.0254871,-0.00645424,0.0267969,-0.00631791,-1.37058,0.0203009,0.0471644,2015,1156,18.1216,-3.45682
798,-132,18.0665,3.38867,0,0,0,0,0,0,0,-1,2022,1156,18.0665,-3.38871
805,-132,17.6287,2.56738,-0.00983561,0.042829,-0.0131306,0.0459213,-0.0129279,-1.33951,0.0357121,0.0484684,2029,1156,17.6286,-2.5674
812,-132,17.2012,1.76904,0,0,0,0,0,0,0,-1,2036,1156,17.2012,-1.76909
-700,-139,0,0,0,0,0,0,0,0,0,-1,524,1163,0,0
-693,-139,-3.18982,-2.70618,-0.107326,-0.00402813,0.0806258,0.0400734,-0.151427,1.07027,0.116627,0.0443782,531,1163,-3.1898,2.70612
-686,-139,-3.73749,-2.55432,-0.0956208,0.00112239,0.0751522,0.0421245,-0.136623,1.07135,0.1079,0.049034,538,1163,-3.73751,2.55437
-679,-139,-4.16595,-2.26868,0,0,0,0,0,0,0,-1,545,1163,-4.16596,2.26873
-672,-139,-4.70459,-1.85986,-0.0688501,0.00570128,0.0572234,0.0367191,-0.0998679,1.07408,0.0816195,0.0473027,552,1163,-4.70461,1.8599
-665,-139,-4.97168,-1.08325,-0.055963,0.00636716,0.0474445,0.0319668,-0.0815627,1.07599,0.067599,0.0442048,559,1163,-4.97166,1.08323
-658,-139,-5.29468,0.00305176,0,0,0,0,0,0,0,-1,566,1163,-5.29468,-0.00300052
-651,-139,-10.9663,1,-0.0334192,0.00584255,0.0291615,0.0213651,-0.0489418,1.08165,0.0416195,0.0410307,573,1163,-10.9663,-1.00005
-644,-139,-10.8405,0.963135,-0.0243625,0.00501995,0.0214355,0.0163155,-0.035658,1.08582,0.0306918,0.0222164,580,1163,-10.8404,-0.963145
-637,-139,-10.8209,1.03809,-0.0165042,0.00443737,0.0150172,0.0122738,-0.0243406,1.08984,0.0215186,0.0123388,587,1163,-10.8209,-1.03813
-630,-139,-10.8226,1.12988,-0.0108972,0.00318368,0.00907641,0.00763014,-0.0153437,1.11527,0.0135108,0.0103206,594,1163,-10.8226,-1.12984
-623,-139,-10.836,1.24634,-0.00787265,0.00139711,0.00372552,0.00270879,-0.00918433,1.23227,0.00719778,0.0158545,601,1163,-10.836,-1.24639
-616,-139,-10.851,1.33704,-0.00683076,0.000131026,-0.000718674,0.000204441,-0.00690417,-1.469,0.00467242,0.0164571,608,1163,-10.8509,-1.33706
-609,-139,-10.8391,1.46948,-0.00643577,-0.000618544,-0.00417894,0.00156436,-0.00861868,-1.08942,0.00633198,0.0203062,615,1163,-10.8391,-1.46945
-602,-139,-10.8973,1.59814,-0.00732184,-0.00149062,-0.00603062,0.00229222,-0.0111047,-1.01057,0.00827372,0.0149985,622,1163,-10.8974,-1.5982
-595,-139,-10.8945,1.70569,-0.00905803,-0.00182462,-0.00721553,0.00262988,-0.0135125,-1.01772,0.0100009,0.0133934,629,1163,-10.8945,-1.70573
-588,-139,-10.8181,1.85388,-0.0104731,-0.00204809,-0.00797573,0.00275923,-0.0152805,-1.02836,0.0112204,0.015814,636,1163,-10.8181,-1.85393
-581,-139,-10.8972,1.77283,-0.011183,-0.00227902,-0.00845779,0.00282693,-0.016289,-1.02766,0.011914,0.0381646,643,1163,-10.8972,-1.77283
-574,-139,-11.4333,1.21753,-0.011168,-0.0023426,-0.00871509,0.00301326,-0.0165238,-1.01975,0.0121456,0.0475311,650,1163,-11.4333,-1.21753
-567,-139,-12.0704,0.789307,-0.0109755,-0.00235429,-0.00862354,0.00297599,-0.0163058,-1.01717,0.0119863,0.0395401,657,1163,-12.0704,-0.789327
-560,-139,-12.0133,0.649048,-0.0100944,-0.00219844,-0.00801935,0.00279207,-0.0150849,-1.01413,0.0111049,0.0356184,664,1163,-12.0133,-0.649016
-553,-139,-12.0497,0.691162,-0.00814597,-0.00200908,-0.00666005,0.00225539,-0.0124104,-1.00127,0.00911887,0.0408392,671,1163,-12.0497,-0.691178
-546,-139,-11.98,0.602173,-0.00489427,-0.00190438,-0.00442371,0.00127016,-0.00806881,-0.948343,0.00584875,0.0433751,678,1163,-11.98,-0.602177
-539,-139,-12.1573,0.703613,-6.4145e-05,-0.00203443,-0.00121576,0.000515508,-0.00261408,-0.444901,0.00193755,0.0412781,685,1163,-12.1573,-0.703644
-532,-139,-12.2148,0.650146,0.0062169,-0.00260202,0.00265187,0.0069529,-0.00333802,0.270726,0.00606242,0.037949,692,1163,-12.2148,-0.650094
-525,-139,-12.1224,0.601685,0.0122587,-0.00426231,0.00584675,0.0141185,-0.0061221,0.307969,0.0119861,0.0382027,699,1163,-12.1224,-0.601724
-518,-139,0,0,0,0,0,0,0,0,0,-1,706,1163,0,0
-511,-139,0,0,0,0,0,0,0,0,0,-1,713,1163,0,0
-504,-139,0,0,0,0,0,0,0,0,0,-1,720,1163,0,0
-497,-139,0,0,0,0,0,0,0,0,0,-1,727,1163,0,0
-490,-139,0,0,0,0,0,0,0,0,0,-1,734,1163,0,0
-483,-139,0,0,0,0,0,0,0,0,0,-1,741,1163,0,0
-476,-139,0,0,0,0,0,0,0,0,0,-1,748,1163,0,0
-469,-139,0,0,0,0,0,0,0,0,0,-1,755,1163,0,0
-462,-139,0,0,0,0,0,0,0,0,0,-1,762,1163,0,0
-455,-139,0,0,0,0,0,0,0,0,0,-1,769,1163,0,0
-448,-139,0,0,0,0,0,0,0,0,0,-1,776,1163,0,0
-441,-139,0,0,0,0,0,0,0,0,0,-1,783,1163,0,0
-434,-139,0,0,0,0,0,0,0,0,0,-1,790,1163,0,0
-427,-139,0,0,0,0,0,0,0,0,0,-1,797,1163,0,0
-420,-139,0,0,0,0,0,0,0,0,0,-1,804,1163,0,0
-413,-139,0,0,0,0,0,0,0,0,0,-1,811,1163,0,0
-406,-139,0,0,0,0,0,0,0,0,0,-1,818,1163,0,0
-399,-139,0,0,0,0,0,0,0,0,0,-1,825,1163,0,0
-392,-139,0,0,0,0,0,0,0,0,0,-1,832,1163,0,0
-385,-139,0,0,0,0,0,0,0,0,0,-1,839,1163,0,0
-378,-139,0,0,0,0,0,0,0,0,0,-1,846,1163,0,0
-371,-139,0,0,0,0,0,0,0,0,0,-1,853,1163,0,0
-364,-139,0,0,0,0,0,0,0,0,0,-1,860,1163,0,0
-357,-139,0,0,0,0,0,0,0,0,0,-1,867,1163,0,0
-350,-139,0,0,0,0,0,0,0,0,0,-1,874,1163,0,0
-343,-139,0,0,0,0,0,0,0,0,0,-1,881,1163,0,0
-336,-139,0,0,0,0,0,0,0,0,0,-1,888,1163,0,0
-329,-139,0,0,0,0,0,0,0,0,0,-1,895,1163,0,0
-322,-139,0,0,0,0,0,0,0,0,0,-1,902,1163,0,0
-315,-139,0,0,0,0,0,0,0,0,0,-1,909,1163,0,0
-308,-139,0,0,0,0,0,0,0,0,0,-1,916,1163,0,0
-301,-139,0,0,0,0,0,0,0,0,0,-1,923,1163,0,0
-294,-139,0,0,0,0,0,0,0,0,0,-1,930,1163,0,0
-287,-139,0,0,0,0,0,0,0,0,0,-1,937,1163,0,0
-280,-139,0,0,0,0,0,0,0,0,0,-1,944,1163,0,0
-273,-139,0,0,0,0,0,0,0,0,0,-1,951,1163,0,0
-266,-139,0,0,0,0,0,0,0,0,0,-1,958,1163,0,0
-259,-139,0,0,0,0,0,0,0,0,0,-1,965,1163,0,0
-252,-139,0,0,0,0,0,0,0,0,0,-1,972,1163,0,0
-245,-139,0,0,0,0,0,0,0,0,0,-1,979,1163,0,0
-238,-139,0,0,0,0,0,0,0,0,0,-1,986,1163,0,0
-231,-139,0,0,0,0,0,0,0,0,0,-1,993,1163,0,0
-224,-139,0,0,0,0,0,0,0,0,0,-1,1000,1163,0,0
-217,-139,0,0,0,0,0,0,0,0,0,-1,1007,1163,0,0
-210,-139,0,0,0,0,0,0,0,0,0,-1,1014,1163,0,0
-203,-139,0,0,0,0,0,0,0,0,0,-1,1021,1163,0,0
-196,-139,0,0,0,0,0,0,0,0,0,-1,1028,1163,0,0
-189,-139,0,0,0,0,0,0,0,0,0,-1,1035,1163,0,0
-182,-139,0,0,0,0,0,0,0,0,0,-1,1042,1163,0,0
-175,-139,0,0,0,0,0,0,0,0,0,-1,1049,1163,0,0
-168,-139,0,0,0,0,0,0,0,0,0,-1,1056,1163,0,0
-161,-139,0,0,0,0,0,0,0,0,0,-1,1063,1163,0,0
-154,-139,0,0,0,0,0,0,0,0,0,-1,1070,1163,0,0
-147,-139,0,0,0,0,0,0,0,0,0,-1,1077,1163,0,0
-140,-139,0,0,0,0,0,0,0,0,0,-1,1084,1163,0,0
-133,-139,0,0,0,0,0,0,0,0,0,-1,1091,1163,0,0
-126,-139,0,0,0,0,0,0,0,0,0,-1,1098,1163,0,0
-119,-139,0,0,0,0,0,0,0,0,0,-1,1105,1163,0,0
-112,-139,0,0,0,0,0,0,0,0,0,-1,1112,1163,0,0
-105,-139,0,0,0,0,0,0,0,0,0,-1,1119,1163,0,0
-98,-139,0,0,0,0,0,0,0,0,0,-1,1126,1163,0,0
-91,-139,0,0,0,0,0,0,0,0,0,-1,1133,1163,0,0
-84,-139,0,0,0,0,0,0,0,0,0,-1,1140,1163,0,0
-77,-139,0,0,0,0,0,0,0,0,0,-1,1147,1163,0,0
-70,-139,0,0,0,0,0,0,0,0,0,-1,1154,1163,0,0
-63,-139,0,0,0,0,0,0,0,0,0,-1,1161,1163,0,0
-56,-139,0,0,0,0,0,0,0,0,0,-1,1168,1163,0,0
-49,-139,0,0,0,0,0,0,0,0,0,-1,1175,1163,0,0
-42,-139,0,0,0,0,0,0,0,0,0,-1,1182,1163,0,0
-35,-139,0,0,0,0,0,0,0,0,0,-1,1189,1163,0,0
-28,-139,0,0,0,0,0,0,0,0,0,-1,1196,1163,0,0
-21,-139,0,0,0,0,0,0,0,0,0,-1,1203,1163,0,0
-14,-139,0,0,0,0,0,0,0,0,0,-1,1210,1163,0,0
-7,-139,0,0,0,0,0,0,0,0,0,-1,1217,1163,0,0
0,-139,0,0,0,0,0,0,0,0,0,-1,1224,1163,0,0
7,-139,0,0,0,0,0,0,0,0,0,-1,1231,1163,0,0
14,-139,0,0,0,0,0,0,0,0,0,-1,1238,1163,0,0
21,-139,0,0,0,0,0,0,0,0,0,-1,1245,1163,0,0
28,-139,0,0,0,0,0,0,0,0,0,-1,1252,1163,0,0
35,-139,0,0,0,0,0,0,0,0,0,-1,1259,1163,0,0
42,-139,0,0,0,0,0,0,0,0,0,-1,1266,1163,0,0
49,-139,0,0,0,0,0,0,0,0,0,-1,1273,1163,0,0
56,-139,0,0,0,0,0,0,0,0,0,-1,1280,1163,0,0
63,-139,0,0,0,0,0,0,0,0,0,-1,1287,1163,0,0
70,-139,0,0,0,0,0,0,0,0,0,-1,1294,1163,0,0
77,-139,0,0,0,0,0,0,0,0,0,-1,1301,1163,0,0
84,-139,0,0,0,0,0,0,0,0,0,-1,1308,1163,0,0
91,-139,0,0,0,0,0,0,0,0,0,-1,1315,1163,0,0
98,-139,0,0,0,0,0,0,0,0,0,-1,1322,1163,0,0
105,-139,0,0,0,0,0,0,0,0,0,-1,1329,1163,0,0
112,-139,0,0,0,0,0,0,0,0,0,-1,1336,1163,0,0
119,-139,0,0,0,0,0,0,0,0,0,-1,1343,1163,0,0
126,-139,0,0,0,0,0,0,0,0,0,-1,1350,1163,0,0
133,-139,0,0,0,0,0,0,0,0,0,-1,1357,1163,0,0
140,-139,0,0,0,0,0,0,0,0,0,-1,1364,1163,0,0
147,-139,0,0,0,0,0,0,0,0,0,-1,1371,1163,0,0
154,-139,0,0,0,0,0,0,0,0,0,-1,1378,1163,0,0
161,-139,0,0,0,0,0,0,0,0,0,-1,1385,1163,0,0
168,-139,0,0,0,0,0,0,0,0,0,-1,1392,1163,0,0
175,-139,0,0,0,0,0,0,0,0,0,-1,1399,1163,0,0
182,-139,0,0,0,0,0,0,0,0,0,-1,1406,1163,0,0
189,-139,0,0,0,0,0,0,0,0,0,-1,1413,1163,0,0
196,-139,0,0,0,0,0,0,0,0,0,-1,1420,1163,0,0
203,-139,0,0,0,0,0,0,0,0,0,-1,1427,1163,0,0
210,-139,0,0,0,0,0,0,0,0,0,-1,1434,1163,0,0
217,-139,0,0,0,0,0,0,0,0,0,-1,1441,1163,0,0
224,-139,0,0,0,0,0,0,0,0,0,-1,1448,1163,0,0
231,-139,0,0,0,0,0,0,0,0,0,-1,1455,1163,0,0
238,-139,0,0,0,0,0,0,0,0,0,-1,1462,1163,0,0
245,-139,0,0,0,0,0,0,0,0,0,-1,1469,1163,0,0
252,-139,0,0,0,0,0,0,0,0,0,-1,1476,1163,0,0
259,-139,0,0,0,0,0,0,0,0,0,-1,1483,1163,0,0
266,-139,0,0,0,0,0,0,0,0,0,-1,1490,1163,0,0
273,-139,0,0,0,0,0,0,0,0,0,-1,1497,1163,0,0
280,-139,0,0,0,0,0,0,0,0,0,-1,1504,1163,0,0
287,-139,0,0,0,0,0,0,0,0,0,-1,1511,1163,0,0
294,-139,0,0,0,0,0,0,0,0,0,-1,1518,1163,0,0
301,-139,0,0,0,0,0,0,0,0,0,-1,1525,1163,0,0
308,-139,0,0,0,0,0,0,0,0,0,-1,1532,1163,0,0
315,-139,0,0,0,0,0,0,0,0,0,-1,1539,1163,0,0
322,-139,0,0,0,0,0,0,0,0,0,-1,1546,1163,0,0
329,-139,0,0,0,0,0,0,0,0,0,-1,1553,1163,0,0
336,-139,0,0,0,0,0,0,0,0,0,-1,1560,1163,0,0
343,-139,0,0,0,0,0,0,0,0,0,-1,1567,1163,0,0
350,-139,0,0,0,0,0,0,0,0,0,-1,1574,1163,0,0
357,-139,0,0,0,0,0,0,0,0,0,-1,1581,1163,0,0
364,-139,0,0,0,0,0,0,0,0,0,-1,1588,1163,0,0
371,-139,0,0,0,0,0,0,0,0,0,-1,1595,1163,0,0
378,-139,0,0,0,0,0,0,0,0,0,-1,1602,1163,0,0
385,-139,0,0,0,0,0,0,0,0,0,-1,1609,1163,0,0
392,-139,0,0,0,0,0,0,0,0,0,-1,1616,1163,0,0
399,-139,0,0,0,0,0,0,0,0,0,-1,1623,1163,0,0
406,-139,0,0,0,0,0,0,0,0,0,-1,1630,1163,0,0
413,-139,0,0,0,0,0,0,0,0,0,-1,1637,1163,0,0
420,-139,0,0,0,0,0,0,0,0,0,-1,1644,1163,0,0
427,-139,0,0,0,0,0,0,0,0,0,-1,1651,1163,0,0
434,-139,0,0,0,0,0,0,0,0,0,-1,1658,1163,0,0
441,-139,0,0,0,0,0,0,0,0,0,-1,1665,1163,0,0
448,-139,0,0,0,0,0,0,0,0,0,-1,1672,1163,0,0
455,-139,0,0,0,0,0,0,0,0,0,-1,1679,1163,0,0
462,-139,0,0,0,0,0,0,0,0,0,-1,1686,1163,0,0
469,-139,0,0,0,0,0,0,0,0,0,-1,1693,1163,0,0
476,-139,0,0,0,0,0,0,0,0,0,-1,1700,1163,0,0
483,-139,0,0,0,0,0,0,0,0,0,-1,1707,1163,0,0
490,-139,0,0,0,0,0,0,0,0,0,-1,1714,1163,0,0
497,-139,0,0,0,0,0,0,0,0,0,-1,1721,1163,0,0
504,-139,0,0,0,0,0,0,0,0,0,-1,1728,1163,0,0
511,-139,0,0,0,0,0,0,0,0,0,-1,1735,1163,0,0
518,-139,0,0,0,0,0,0,0,0,0,-1,1742,1163,0,0
525,-139,0,0,0,0,0,0,0,0,0,-1,1749,1163,0,0
532,-139,0,0,0,0,0,0,0,0,0,-1,1756,1163,0,0
539,-139,0,0,0,0,0,0,0,0,0,-1,1763,1163,0,0
546,-139,0,0,0,0,0,0,0,0,0,-1,1770,1163,0,0
553,-139,0,0,0,0,0,0,0,0,0,-1,1777,1163,0,0
560,-139,0,0,0,0,0,0,0,0,0,-1,1784,1163,0,0
567,-139,0,0,0,0,0,0,0,0,0,-1,1791,1163,0,0
574,-139,0,0,0,0,0,0,0,0,0,-1,1798,1163,0,0
581,-139,0,0,0,0,0,0,0,0,0,-1,1805,1163,0,0
588,-139,0,0,0,0,0,0,0,0,0,-1,1812,1163,0,0
595,-139,0,0,0,0,0,0,0,0,0,-1,1819,1163,0,0
602,-139,0,0,0,0,0,0,0,0,0,-1,1826,1163,0,0
609,-139,0,0,0,0,0,0,0,0,0,-1,1833,1163,0,0
616,-139,0,0,0,0,0,0,0,0,0,-1,1840,1163,0,0
623,-139,0,0,0,0,0,0,0,0,0,-1,1847,1163,0,0
630,-139,0,0,0,0,0,0,0,0,0,-1,1854,1163,0,0
637,-139,0,0,0,0,0,0,0,0,0,-1,1861,1163,0,0
644,-139,18.8539,2.40942,0.00112191,-0.000407653,-0.000627053,0.00134611,-0.000631854,-0.343382,0.00116653,0.0387927,1868,1163,18.8539,-2.40939
651,-139,18.7334,2.49561,0.00134229,-0.000308339,-0.000676941,0.0015844,-0.000550448,-0.343475,0.00127983,0.0406684,1875,1163,18.7334,-2.49559
658,-139,18.7279,2.68628,0.0010862,-0.000276281,-0.00034858,0.00117021,-0.000360283,-0.236475,0.000923951,0.0413114,1882,1163,18.7279,-2.68623
665,-139,18.7684,2.85181,6.68349e-05,-0.000638943,0.000496829,0.000323347,-0.000895455,0.476602,0.000729059,0.0405205,1889,1163,18.7684,-2.85182
672,-139,18.755,2.71069,-0.00126515,-0.00111337,0.00141351,0.000226286,-0.0026048,0.812217,0.00181667,0.0391702,1896,1163,18.755,-2.71064
679,-139,18.7615,2.64685,-0.00258155,-0.00158575,0.00223216,0.000203366,-0.00437066,0.895131,0.00298387,0.0357139,1903,1163,18.7615,-2.64689
686,-139,18.7345,2.66492,-0.00371848,-0.002034,0.0028971,0.000140802,-0.00589329,0.926858,0.00397662,0.0326679,1910,1163,18.7346,-2.66489
693,-139,18.7466,2.61951,-0.00457359,-0.00225805,0.00329516,7.68141e-05,-0.00690846,0.954339,0.00463145,0.0213166,1917,1163,18.7466,-2.61946
700,-139,18.7444,2.98047,0,0,0,0,0,0,0,-1,1924,1163,18.7444,-2.98047
707,-139,18.1862,3.52368,-0.00555586,-0.00262854,0.00388108,5.57024e-05,-0.0082401,0.965715,0.00551206,0.0272521,1931,1163,18.1862,-3.52368
714,-139,17.6277,4.16528,-0.00593889,-0.00254419,0.00390784,1.89985e-05,-0.00850208,0.990278,0.0056744,0.0260325,1938,1163,17.6277,-4.16523
721,-139,17.6302,4.01477,-0.0058969,-0.00232487,0.00369611,-5.87758e-06,-0.0082159,1.01046,0.00547531,0.0191958,1945,1163,17.6302,-4.01482
728,-139,17.5739,3.95288,-0.00544014,-0.00194974,0.00332555,6.07208e-05,-0.0074506,1.02704,0.00498743,0.0189399,1952,1163,17.5739,-3.95288
735,-139,17.5714,3.87207,-0.00475155,-0.00132593,0.00296729,0.000387409,-0.00646489,1.04715,0.00444469,0.0155763,1959,1163,17.5714,-3.87205
742,-139,17.599,3.76013,-0.00413231,-0.000293915,0.00247113,0.000915755,-0.00534199,1.11557,0.00390256,0.021094,1966,1163,17.5989,-3.76011
749,-139,17.6033,3.65161,-0.00372183,0.00115397,0.00130991,0.00148359,-0.00405146,1.32427,0.00330831,0.0177904,1973,1163,17.6033,-3.65162
756,-139,17.5945,3.54285,-0.00291527,0.00439867,0.00010388,0.00440015,-0.00291674,1.5566,0.00425325,0.010317,1980,1163,17.5945,-3.54284
763,-139,17.5807,3.47205,-0.0025398,0.00732255,-0.00138972,0.00751464,-0.00273189,-1.43345,0.00612689,0.0109216,1987,1163,17.5807,-3.47206
770,-139,17.5837,3.422,-0.00279599,0.0109765,-0.00279968,0.0115238,-0.00334335,-1.37772,0.0090063,0.0117318,1994,1163,17.5837,-3.42197
777,-139,17.6119,3.34045,-0.00378886,0.0154482,-0.00434363,0.0163835,-0.00472416,-1.35871,0.0127912,0.0205537,2001,1163,17.612,-3.34046
784,-139,17.7219,3.41406,-0.00535892,0.0211183,-0.00631404,0.0225469,-0.00678755,-1.34828,0.0177323,0.0386361,2008,1163,17.7219,-3.41411
791,-139,17.6338,3.33972,-0.00750708,0.0282614,-0.00886157,0.0303364,-0.00958214,-1.34078,0.0240629,0.0483729,2015,1163,17.6338,-3.33975
798,-139,17.2262,2.93787,-0.0101454,0.037157,-0.01215,0.0400953,-0.0130837,-1.33352,0.0319959,0.0498403,2022,1163,17.2262,-2.93785
805,-139,17.0519,2.11743,-0.0134087,0.0480825,-0.0163151,0.0521431,-0.0174694,-1.32686,0.0418197,0.0481036,2029,1163,17.0519,-2.11742
812,-139,0,0,0,0,0,0,0,0,0,-1,2036,1163,0,0
-700,-146,0,0,0,0,0,0,0,0,0,-1,524,1170,0,0
-693,-146,-4.25574,-2.52344,-0.112534,-0.000683911,0.0980952,0.0563081,-0.169526,1.04447,0.135737,0.0417044,531,1170,-4.25573,2.52348
-686,-146,-4.73981,-2.49963,-0.101376,0.00382755,0.0891237,0.054715,-0.152263,1.05199,0.123844,0.0470542,538,1170,-4.73981,2.49967
-679,-146,-5.11212,-2.23047,-0.0877031,0.00630548,0.0775428,0.049978,-0.131376,1.05787,0.108163,0.0495218,545,1170,-5.1121,2.23045
-672,-146,-5.51227,-1.73645,-0.0736123,0.00752042,0.0652746,0.0438072,-0.109899,1.06343,0.0914361,0.0472893,552,1170,-5.51225,1.7364
-665,-146,-6.94452,-1.19983,-0.0599306,0.0078655,0.0532124,0.0370597,-0.0891248,1.069,0.0748913,0.0463644,559,1170,-6.94454,1.19987
-658,-146,-10.7221,0.484497,-0.0471941,0.00758021,0.041887,0.0302388,-0.0698528,1.07493,0.0592773,0.0434775,566,1170,-10.7221,-0.484444
-651,-146,-10.752,0.738281,-0.0358475,0.00684599,0.0316965,0.0237138,-0.0527153,1.08175,0.0451728,0.0354399,573,1170,-10.752,-0.738273
-644,-146,-10.7087,0.895996,-0.0261706,0.00582244,0.0229542,0.0178042,-0.0381524,1.08972,0.0330109,0.0190697,580,1170,-10.7087,-0.895938
-637,-146,-10.6877,1.01843,-0.0178132,0.00510728,0.0157721,0.0131431,-0.025849,1.09958,0.022907,0.0108521,587,1170,-10.6877,-1.01845
-630,-146,-10.6976,1.12781,-0.0117798,0.00370048,0.0093996,0.00813664,-0.016216,1.12984,0.0143156,0.0103077,594,1170,-10.6976,-1.12781
-623,-146,-10.7175,1.21497,-0.00842793,0.0018353,0.00381215,0.00309634,-0.00968897,1.25133,0.00770177,0.0126564,601,1170,-10.7176,-1.21498
-616,-146,-10.7501,1.36121,-0.00709225,0.000420764,-0.000743842,0.000493701,-0.00716519,-1.47305,0.00494957,0.0185166,608,1170,-10.7501,-1.36116
-609,-146,-10.712,1.49243,-0.00648499,-0.000345501,-0.00439245,0.00194357,-0.00877407,-1.09038,0.00659342,0.0169418,615,1170,-10.7121,-1.49242
-602,-146,-10.7462,1.67358,-0.00728391,-0.00123163,-0.00631511,0.00274495,-0.0112605,-1.00883,0.00856979,0.0211102,622,1170,-10.7462,-1.67363
-595,-146,-10.8016,1.72168,-0.00911325,-0.00162131,-0.00759092,0.0030976,-0.0138322,-1.01461,0.0104088,0.0130545,629,1170,-10.8016,-1.72163
-588,-146,-10.7095,1.86743,-0.0106014,-0.00187111,-0.00847467,0.00329657,-0.015769,-1.02322,0.0117665,0.0148864,636,1170,-10.7095,-1.86745
-581,-146,-10.6119,2.00916,-0.011332,-0.00206705,-0.00910791,0.00351878,-0.0169178,-1.02066,0.0126161,0.0285711,643,1170,-10.6119,-2.00919
-574,-146,-11.2792,1.11133,-0.0113096,-0.00209358,-0.00946917,0.00382928,-0.0172324,-1.01185,0.0129547,0.0464537,650,1170,-11.2792,-1.11137
-567,-146,-12.0473,0.793213,-0.0111108,-0.00206982,-0.00945969,0.003894,-0.0170746,-1.00829,0.0128788,0.0429614,657,1170,-12.0473,-0.793196
-560,-146,-12.0162,0.695313,-0.0102409,-0.00186345,-0.00895412,0.00383325,-0.0159376,-1.00418,0.0121068,0.0378977,664,1170,-12.0163,-0.695366
-553,-146,-11.9404,0.632813,-0.00832922,-0.00162889,-0.00767851,0.00339848,-0.0133566,-0.991101,0.0102272,0.0394379,671,1170,-11.9404,-0.632872
-546,-146,-11.9631,0.646606,-0.00517577,-0.00145802,-0.00551944,0.00250717,-0.00914095,-0.947826,0.00707926,0.0435625,678,1170,-11.9631,-0.646665
-539,-146,-12.2186,0.723022,-0.000584708,-0.00147831,-0.00241041,0.00141997,-0.00348298,-0.693757,0.00291305,0.0416186,685,1170,-12.2186,-0.723032
-532,-146,-12.2421,0.620117,0.00546744,-0.00186101,0.00147697,0.00575391,-0.00214747,0.191578,0.0047176,0.0391095,692,1170,-12.2421,-0.620172
-525,-146,-12.0875,0.615234,0.0115428,-0.00315386,0.00503482,0.0131022,-0.00471324,0.30035,0.0106591,0.0418085,699,1170,-12.0875,-0.615209
-518,-146,0,0,0,0,0,0,0,0,0,-1,706,1170,0,0
-511,-146,0,0,0,0,0,0,0,0,0,-1,713,1170,0,0
-504,-146,0,0,0,0,0,0,0,0,0,-1,720,1170,0,0
-497,-146,0,0,0,0,0,0,0,0,0,-1,727,1170,0,0
-490,-146,0,0,0,0,0,0,0,0,0,-1,734,1170,0,0
-483,-146,0,0,0,0,0,0,0,0,0,-1,741,1170,0,0
-476,-146,0,0,0,0,0,0,0,0,0,-1,748,1170,0,0
-469,-146,0,0,0,0,0,0,0,0,0,-1,755,1170,0,0
-462,-146,0,0,0,0,0,0,0,0,0,-1,762,1170,0,0
-455,-146,0,0,0,0,0,0,0,0,0,-1,769,1170,0,0
-448,-146,0,0,0,0,0,0,0,0,0,-1,776,1170,0,0
-441,-146,0,0,0,0,0,0,0,0,0,-1,783,1170,0,0
-434,-146,0,0,0,0,0,0,0,0,0,-1,790,1170,0,0
-427,-146,0,0,0,0,0,0,0,0,0,-1,797,1170,0,0
-420,-146,0,0,0,0,0,0,0,0,0,-1,804,1170,0,0
-413,-146,0,0,0,0,0,0,0,0,0,-1,811,1170,0,0
-406,-146,0,0,0,0,0,0,0,0,0,-1,818,1170,0,0
-399,-146,0,0,0,0,0,0,0,0,0,-1,825,1170,0,0
-392,-146,0,0,0,0,0,0,0,0,0,-1,832,1170,0,0
-385,-146,0,0,0,0,0,0,0,0,0,-1,839,1170,0,0
-378,-146,0,0,0,0,0,0,0,0,0,-1,846,1170,0,0
-371,-146,0,0,0,0,0,0,0,0,0,-1,853,1170,0,0
-364,-146,0,0,0,0,0,0,0,0,0,-1,860,1170,0,0
-357,-146,0,0,0,0,0,0,0,0,0,-1,867,1170,0,0
-350,-146,0,0,0,0,0,0,0,0,0,-1,874,1170,0,0
-343,-146,0,0,0,0,0,0,0,0,0,-1,881,1170,0,0
-336,-146,0,0,0,0,0,0,0,0,0,-1,888,1170,0,0
-329,-146,0,0,0,0,0,0,0,0,0,-1,895,1170,0,0
-322,-146,0,0,0,0,0,0,0,0,0,-1,902,1170,0,0
-315,-146,0,0,0,0,0,0,0,0,0,-1,909,1170,0,0
-308,-146,0,0,0,0,0,0,0,0,0,-1,916,1170,0,0
-301,-146,0,0,0,0,0,0,0,0,0,-1,923,1170,0,0
-294,-146,0,0,0,0,0,0,0,0,0,-1,930,1170,0,0
-287,-146,0,0,0,0,0,0,0,0,0,-1,937,1170,0,0
-280,-146,0,0,0,0,0,0,0,0,0,-1,944,1170,0,0
-273,-146,0,0,0,0,0,0,0,0,0,-1,951,1170,0,0
-266,-146,0,0,0,0,0,0,0,0,0,-1,958,1170,0,0
-259,-146,0,0,0,0,0,0,0,0,0,-1,965,1170,0,0
-252,-146,0,0,0,0,0,0,0,0,0,-1,972,1170,0,0
-245,-146,0,0,0,0,0,0,0,0,0,-1,979,1170,0,0
-238,-146,0,0,0,0,0,0,0,0,0,-1,986,1170,0,0
-231,-146,0,0,0,0,0,0,0,0,0,-1,993,1170,0,0
-224,-146,0,0,0,0,0,0,0,0,0,-1,1000,1170,0,0
-217,-146,0,0,0,0,0,0,0,0,0,-1,1007,1170,0,0
-210,-146,0,0,0,0,0,0,0,0,0,-1,1014,1170,0,0
-203,-146,0,0,0,0,0,0,0,0,0,-1,1021,1170,0,0
-196,-146,0,0,0,0,0,0,0,0,0,-1,1028,1170,0,0
-189,-146,0,0,0,0,0,0,0,0,0,-1,1035,1170,0,0
-182,-146,0,0,0,0,0,0,0,0,0,-1,1042,1170,0,0
-175,-146,0,0,0,0,0,0,0,0,0,-1,1049,1170,0,0
-168,-146,0,0,0,0,0,0,0,0,0,-1,1056,1170,0,0
-161,-146,0,0,0,0,0,0,0,0,0,-1,1063,1170,0,0
-154,-146,0,0,0,0,0,0,0,0,0,-1,1070,1170,0,0
-147,-146,0,0,0,0,0,0,0,0,0,-1,1077,1170,0,0
-140,-146,0,0,0,0,0,0,0,0,0,-1,1084,1170,0,0
-133,-146,0,0,0,0,0,0,0,0,0,-1,1091,1170,0,0
-126,-146,0,0,0,0,0,0,0,0,0,-1,1098,1170,0,0
-119,-146,0,0,0,0,0,0,0,0,0,-1,1105,1170,0,0
-112,-146,0,0,0,0,0,0,0,0,0,-1,1112,1170,0,0
-105,-146,0,0,0,0,0,0,0,0,0,-1,1119,1170,0,0
-98,-146,0,0,0,0,0,0,0,0,0,-1,1126,1170,0,0
-91,-146,0,0,0,0,0,0,0,0,0,-1,1133,1170,0,0
-84,-146,0,0,0,0,0,0,0,0,0,-1,1140,1170,0,0
-77,-146,0,0,0,0,0,0,0,0,0,-1,1147,1170,0,0
-70,-146,0,0,0,0,0,0,0,0,0,-1,1154,1170,0,0
-63,-146,0,0,0,0,0,0,0,0,0,-1,1161,1170,0,0
-56,-146,0,0,0,0,0,0,0,0,0,-1,1168,1170,0,0
-49,-146,0,0,0,0,0,0,0,0,0,-1,1175,1170,0,0
-42,-146,0,0,0,0,0,0,0,0,0,-1,1182,1170,0,0
-35,-146,0,0,0,0,0,0,0,0,0,-1,1189,1170,0,0
-28,-146,0,0,0,0,0,0,0,0,0,-1,1196,1170,0,0
-21,-146,0,0,0,0,0,0,0,0,0,-1,1203,1170,0,0
-14,-146,0,0,0,0,0,0,0,0,0,-1,1210,1170,0,0
-7,-146,0,0,0,0,0,0,0,0,0,-1,1217,1170,0,0
0,-146,0,0,0,0,0,0,0,0,0,-1,1224,1170,0,0
7,-146,0,0,0,0,0,0,0,0,0,-1,1231,1170,0,0
14,-146,0,0,0,0,0,0,0,0,0,-1,1238,1170,0,0
21,-146,0,0,0,0,0,0,0,0,0,-1,1245,1170,0,0
28,-146,0,0,0,0,0,0,0,0,0,-1,1252,1170,0,0
35,-146,0,0,0,0,0,0,0,0,0,-1,1259,1170,0,0
42,-146,0,0,0,0,0,0,0,0,0,-1,1266,1170,0,0
49,-146,0,0,0,0,0,0,0,0,0,-1,1273,1170,0,0
56,-146,0,0,0,0,0,0,0,0,0,-1,1280,1170,0,0
63,-146,0,0,0,0,0,0,0,0,0,-1,1287,1170,0,0
70,-146,0,0,0,0,0,0,0,0,0,-1,1294,1170,0,0
77,-146,0,0,0,0,0,0,0,0,0,-1,1301,1170,0,0
84,-146,0,0,0,0,0,0,0,0,0,-1,1308,1170,0,0
91,-146,0,0,0,0,0,0,0,0,0,-1,1315,1170,0,0
98,-146,0,0,0,0,0,0,0,0,0,-1,1322,1170,0,0
105,-146,0,0,0,0,0,0,0,0,0,-1,1329,1170,0,0
112,-146,0,0,0,0,0,0,0,0,0,-1,1336,1170,0,0
119,-146,0,0,0,0,0,0,0,0,0,-1,1343,1170,0,0
126,-146,0,0,0,0,0,0,0,0,0,-1,1350,1170,0,0
133,-146,0,0,0,0,0,0,0,0,0,-1,1357,1170,0,0
140,-146,0,0,0,0,0,0,0,0,0,-1,1364,1170,0,0
147,-146,0,0,0,0,0,0,0,0,0,-1,1371,1170,0,0
154,-146,0,0,0,0,0,0,0,0,0,-1,1378,1170,0,0
161,-146,0,0,0,0,0,0,0,0,0,-1,1385,1170,0,0
168,-146,0,0,0,0,0,0,0,0,0,-1,1392,1170,0,0
175,-146,0,0,0,0,0,0,0,0,0,-1,1399,1170,0,0
182,-146,0,0,0,0,0,0,0,0,0,-1,1406,1170,0,0
189,-146,0,0,0,0,0,0,0,0,0,-1,1413,1170,0,0
196,-146,0,0,0,0,0,0,0,0,0,-1,1420,1170,0,0
203,-146,0,0,0,0,0,0,0,0,0,-1,1427,1170,0,0
210,-146,0,0,0,0,0,0,0,0,0,-1,1434,1170,0,0
217,-146,0,0,0,0,0,0,0,0,0,-1,1441,1170,0,0
224,-146,0,0,0,0,0,0,0,0,0,-1,1448,1170,0,0
231,-146,0,0,0,0,0,0,0,0,0,-1,1455,1170,0,0
238,-146,0,0,0,0,0,0,0,0,0,-1,1462,1170,0,0
245,-146,0,0,0,0,0,0,0,0,0,-1,1469,1170,0,0
252,-146,0,0,0,0,0,0,0,0,0,-1,1476,1170,0,0
259,-146,0,0,0,0,0,0,0,0,0,-1,1483,1170,0,0
266,-146,0,0,0,0,0,0,0,0,0,-1,1490,1170,0,0
273,-146,0,0,0,0,0,0,0,0,0,-1,1497,1170,0,0
280,-146,0,0,0,0,0,0,0,0,0,-1,1504,1170,0,0
287,-146,0,0,0,0,0,0,0,0,0,-1,1511,1170,0,0
294,-146,0,0,0,0,0,0,0,0,0,-1,1518,1170,0,0
301,-146,0,0,0,0,0,0,0,0,0,-1,1525,1170,0,0
308,-146,0,0,0,0,0,0,0,0,0,-1,1532,1170,0,0
315,-146,0,0,0,0,0,0,0,0,0,-1,1539,1170,0,0
322,-146,0,0,0,0,0,0,0,0,0,-1,1546,1170,0,0
329,-146,0,0,0,0,0,0,0,0,0,-1,1553,1170,0,0
336,-146,0,0,0,0,0,0,0,0,0,-1,1560,1170,0,0
343,-146,0,0,0,0,0,0,0,0,0,-1,1567,1170,0,0
350,-146,0,0,0,0,0,0,0,0,0,-1,1574,1170,0,0
357,-146,0,0,0,0,0,0,0,0,0,-1,1581,1170,0,0
364,-146,0,0,0,0,0,0,0,0,0,-1,1588,1170,0,0
371,-146,0,0,0,0,0,0,0,0,0,-1,1595,1170,0,0
378,-146,0,0,0,0,0,0,0,0,0,-1,1602,1170,0,0
385,-146,0,0,0,0,0,0,0,0,0,-1,1609,1170,0,0
392,-146,0,0,0,0,0,0,0,0,0,-1,1616,1170,0,0
399,-146,0,0,0,0,0,0,0,0,0,-1,1623,1170,0,0
406,-146,0,0,0,0,0,0,0,0,0,-1,1630,1170,0,0
413,-146,0,0,0,0,0,0,0,0,0,-1,1637,1170,0,0
420,-146,0,0,0,0,0,0,0,0,0,-1,1644,1170,0,0
427,-146,0,0,0,0,0,0,0,0,0,-1,1651,1170,0,0
434,-146,0,0,0,0,0,0,0,0,0,-1,1658,1170,0,0
441,-146,0,0,0,0,0,0,0,0,0,-1,1665,1170,0,0
448,-146,0,0,0,0,0,0,0,0,0,-1,1672,1170,0,0
455,-146,0,0,0,0,0,0,0,0,0,-1,1679,1170,0,0
462,-146,0,0,0,0,0,0,0,0,0,-1,1686,1170,0,0
469,-146,0,0,0,0,0,0,0,0,0,-1,1693,1170,0,0
476,-146,0,0,0,0,0,0,0,0,0,-1,1700,1170,0,0
483,-146,0,0,0,0,0,0,0,0,0,-1,1707,1170,0,0
490,-146,0,0,0,0,0,0,0,0,0,-1,1714,1170,0,0
497,-146,0,0,0,0,0,0,0,0,0,-1,1721,1170,0,0
504,-146,0,0,0,0,0,0,0,0,0,-1,1728,1170,0,0
511,-146,0,0,0,0,0,0,0,0,0,-1,1735,1170,0,0
518,-146,0,0,0,0,0,0,0,0,0,-1,1742,1170,0,0
525,-146,0,0,0,0,0,0,0,0,0,-1,1749,1170,0,0
532,-146,0,0,0,0,0,0,0,0,0,-1,1756,1170,0,0
539,-146,0,0,0,0,0,0,0,0,0,-1,1763,1170,0,0
546,-146,0,0,0,0,0,0,0,0,0,-1,1770,1170,0,0
553,-146,0,0,0,0,0,0,0,0,0,-1,1777,1170,0,0
560,-146,0,0,0,0,0,0,0,0,0,-1,1784,1170,0,0
567,-146,0,0,0,0,0,0,0,0,0,-1,1791,1170,0,0
574,-146,0,0,0,0,0,0,0,0,0,-1,1798,1170,0,0
581,-146,0,0,0,0,0,0,0,0,0,-1,1805,1170,0,0
588,-146,0,0,0,0,0,0,0,0,0,-1,1812,1170,0,0
595,-146,0,0,0,0,0,0,0,0,0,-1,1819,1170,0,0
602,-146,0,0,0,0,0,0,0,0,0,-1,1826,1170,0,0
609,-146,0,0,0,0,0,0,0,0,0,-1,1833,1170,0,0
616,-146,0,0,0,0,0,0,0,0,0,-1,1840,1170,0,0
623,-146,0,0,0,0,0,0,0,0,0,-1,1847,1170,0,0
630,-146,0,0,0,0,0,0,0,0,0,-1,1854,1170,0,0
637,-146,18.8378,2.40515,0.00139364,-0.000294695,-4.53452e-05,0.00139485,-0.000295912,-0.0268323,0.00104263,0.037451,1861,1170,18.8378,-2.40517
644,-146,18.9247,2.49426,0.000866315,-0.000198112,-6.15361e-05,0.000869861,-0.000201658,-0.0575559,0.000657517,0.0371209,1868,1170,18.9247,-2.4942
651,-146,18.8857,2.56934,0.00116571,-4.28352e-05,-0.000367974,0.00126893,-0.000146058,-0.273488,0.000898608,0.0376096,1875,1170,18.8857,-2.56932
658,-146,18.8088,2.7594,0.000733541,-2.20362e-05,-0.000102178,0.000747114,-3.56099e-05,-0.132072,0.000510361,0.0402872,1882,1170,18.8088,-2.75936
665,-146,18.7776,2.87769,-0.00041992,-0.000379188,0.000715942,0.000316677,-0.00111579,0.799618,0.00086887,0.0406821,1889,1170,18.7776,-2.87763
672,-146,18.7894,2.77625,-0.00178392,-0.000823796,0.00159238,0.000359313,-0.00296703,0.931802,0.00210802,0.0383252,1896,1170,18.7894,-2.77623
679,-146,18.7682,2.59619,-0.0031141,-0.00128191,0.0024067,0.000377152,-0.00477316,0.967253,0.00331498,0.030613,1903,1170,18.7681,-2.5962
686,-146,18.7396,2.61353,-0.00424328,-0.00172972,0.00305979,0.000321341,-0.00629435,0.980264,0.00430734,0.0225645,1910,1170,18.7397,-2.61351
693,-146,18.8003,2.59033,-0.00507785,-0.00194634,0.00345728,0.000283219,-0.00730741,0.998024,0.0049687,0.0148552,1917,1170,18.8003,-2.59029
700,-146,18.67,3.29675,0,0,0,0,0,0,0,-1,1924,1170,18.67,-3.29676
707,-146,18.0403,3.7644,-0.00597969,-0.00237555,0.0040591,0.000263528,-0.00861877,0.994307,0.00583567,0.0337364,1931,1170,18.0403,-3.76438
714,-146,17.6061,4.13708,-0.00631214,-0.00233567,0.00406846,0.000204396,-0.0088522,1.01268,0.00597076,0.0227791,1938,1170,17.6061,-4.13714
721,-146,17.6046,4.00586,-0.00620874,-0.00215569,0.00383726,0.000157296,-0.00852173,1.02834,0.00573431,0.0302195,1945,1170,17.6046,-4.00591
728,-146,17.5887,3.92249,-0.0056758,-0.00180911,0.00340778,0.000175551,-0.00766046,1.04342,0.00516648,0.0230404,1952,1170,17.5888,-3.92251
735,-146,17.4857,3.89258,-0.00494949,-0.00114872,0.00295183,0.000461555,-0.00655977,1.0714,0.00453487,0.0160021,1959,1170,17.4857,-3.8926
742,-146,17.4845,3.75732,-0.00427894,1.1851e-05,0.00223981,0.000967982,-0.00523508,1.16733,0.00385345,0.0164759,1966,1170,17.4845,-3.75729
749,-146,17.4857,3.64636,-0.00393567,0.00157297,0.000785019,0.00168266,-0.00404535,1.43197,0.00339955,0.0153692,1973,1170,17.4858,-3.6464
756,-146,17.4905,3.55261,-0.0031532,0.00491414,-0.000698739,0.00497421,-0.00321327,-1.48503,0.00476335,0.0117047,1980,1170,17.4905,-3.55257
763,-146,17.4763,3.46252,-0.00293585,0.00801749,-0.00243357,0.00853383,-0.00345219,-1.36172,0.00712442,0.0112142,1987,1170,17.4763,-3.46248
770,-146,17.4791,3.38965,-0.00340233,0.0118316,-0.00415083,0.0128892,-0.0044599,-1.32132,0.0104031,0.0115018,1994,1170,17.4791,-3.3896
777,-146,17.4934,3.33154,-0.00457594,0.0165595,-0.0061059,0.0181967,-0.00621309,-1.30883,0.0146482,0.0179702,2001,1170,17.4935,-3.33149
784,-146,17.5316,3.3208,-0.00634236,0.0225697,-0.00856731,0.0249177,-0.00869036,-1.3033,0.0201435,0.0364881,2008,1170,17.5316,-3.32081
791,-146,17.5752,3.31421,-0.00868758,0.0301387,-0.0116549,0.0333686,-0.0119174,-1.30045,0.027106,0.0459744,2015,1170,17.5751,-3.31424
798,-146,16.4314,2.39478,-0.0114696,0.0395838,-0.01551,0.0439264,-0.0158121,-1.2978,0.0357405,0.0439766,2022,1170,16.4315,-2.39478
805,-146,16.5095,1.52173,-0.0147706,0.051241,-0.0201921,0.0569276,-0.0204573,-1.29628,0.0463026,0.0464571,2029,1170,16.5096,-1.52173
812,-146,0,0,0,0,0,0,0,0,0,-1,2036,1170,0,0
-700,-153,0,0,0,0,0,0,0,0,0,-1,524,1177,0,0
-693,-153,0,0,0,0,0,0,0,0,0,-1,531,1177,0,0
-686,-153,-6.20825,-3.04175,0,0,0,0,0,0,0,-1,538,1177,-6.20827,3.04179
-679,-153,-6.35095,-2.45166,-0.0851801,0.0104327,0.0833377,0.0587024,-0.13345,1.04581,0.113703,0.0486483,545,1177,-6.35097,2.45162
-672,-153,-6.98505,-2.04517,-0.0723796,0.0110103,0.0696762,0.0505141,-0.111883,1.05502,0.0959659,0.0457466,552,1177,-6.98502,2.04511
-665,-153,-7.95062,-1.54883,-0.0594486,0.0108014,0.0563421,0.0420707,-0.0907179,1.06413,0.0783617,0.0447151,559,1177,-7.95065,1.54883
-658,-153,-10.7327,0.546265,-0.0471166,0.010028,0.0439563,0.0338822,-0.0709708,1.07359,0.0617864,0.0472677,566,1177,-10.7327,-0.546261
-651,-153,-10.6743,0.703369,-0.035966,0.00885731,0.0329514,0.0262963,-0.053405,1.08404,0.0468944,0.0430618,573,1177,-10.6743,-0.703402
-644,-153,-10.5847,0.839844,-0.0263739,0.00744306,0.0236326,0.0195931,-0.0385239,1.09592,0.0341421,0.0265754,580,1177,-10.5847,-0.839873
-637,-153,-10.5538,0.990845,-0.0180793,0.00639727,0.0160324,0.0143286,-0.0260107,1.11139,0.0236132,0.0116303,587,1177,-10.5539,-0.990899
-630,-153,-10.569,1.11523,-0.0120319,0.00470582,0.00948728,0.0089879,-0.016314,1.14682,0.0148108,0.0104568,594,1177,-10.569,-1.1152
-623,-153,-10.5891,1.22412,-0.00870872,0.00262202,0.00387079,0.00381809,-0.0099048,1.2711,0.00817857,0.010467,601,1177,-10.589,-1.22413
-616,-153,-10.5985,1.34058,-0.0072103,0.000962063,-0.000671953,0.00101694,-0.00726518,-1.4893,0.00521559,0.0128473,608,1177,-10.5985,-1.34057
-609,-153,-10.5745,1.48743,-0.00645928,5.61007e-05,-0.00442316,0.00229176,-0.00869494,-1.1028,0.00669265,0.0162576,615,1177,-10.5744,-1.48739
-602,-153,-10.5975,1.62329,-0.00718521,-0.000938959,-0.00639666,0.00305629,-0.0111805,-1.0125,0.0086542,0.0223618,622,1177,-10.5975,-1.62326
-595,-153,-10.6708,1.72595,-0.00905977,-0.00147083,-0.00774243,0.00335695,-0.0138875,-1.01324,0.0105568,0.0191161,629,1177,-10.6708,-1.72601
-588,-153,-10.6412,1.85986,-0.010592,-0.0018116,-0.00875996,0.0035967,-0.0160003,-1.01769,0.0120461,0.0127521,636,1177,-10.6412,-1.85983
-581,-153,-10.5731,1.9707,-0.0113293,-0.00203303,-0.00954041,0.0039313,-0.0172937,-1.01208,0.0130386,0.0214648,643,1177,-10.5731,-1.97073
-574,-153,-11.1888,1.43298,-0.0112752,-0.00206905,-0.00998648,0.00432415,-0.0176684,-1.00135,0.013454,0.0475689,650,1177,-11.1889,-1.433
-567,-153,-12.0027,0.796265,0,0,0,0,0,0,0,-1,657,1177,-12.0027,-0.79628
-560,-153,-12.0163,0.732422,-0.0101458,-0.00186871,-0.00961406,0.00445973,-0.0164742,-0.988645,0.0127325,0.0395281,664,1177,-12.0163,-0.732457
-553,-153,-11.9841,0.768066,-0.00825123,-0.00165943,-0.0084376,0.00410315,-0.0140138,-0.971595,0.0109691,0.0365547,671,1177,-11.9841,-0.768088
-546,-153,-11.9744,0.807495,-0.00518238,-0.00149569,-0.00640774,0.00332858,-0.0100067,-0.925454,0.00801444,0.0401895,678,1177,-11.9744,-0.807509
-539,-153,-12.0995,0.920532,-0.000807737,-0.00147185,-0.00348367,0.00235967,-0.00463925,-0.737883,0.00411165,0.0410531,685,1177,-12.0995,-0.920487
-532,-153,-12.2712,0.795776,0.00497423,-0.00171021,0.000247547,0.00498339,-0.00171936,0.0369659,0.00401987,0.0405812,692,1177,-12.2713,-0.795821
-525,-153,-12.041,0.65686,0.0110068,-0.00262844,0.00393212,0.0120595,-0.00368111,0.261577,0.00950729,0.0408386,699,1177,-12.0409,-0.656818
-518,-153,0,0,0,0,0,0,0,0,0,-1,706,1177,0,0
-511,-153,0,0,0,0,0,0,0,0,0,-1,713,1177,0,0
-504,-153,0,0,0,0,0,0,0,0,0,-1,720,1177,0,0
-497,-153,0,0,0,0,0,0,0,0,0,-1,727,1177,0,0
-490,-153,0,0,0,0,0,0,0,0,0,-1,734,1177,0,0
-483,-153,0,0,0,0,0,0,0,0,0,-1,741,1177,0,0
-476,-153,0,0,0,0,0,0,0,0,0,-1,748,1177,0,0
-469,-153,0,0,0,0,0,0,0,0,0,-1,755,1177,0,0
-462,-153,0,0,0,0,0,0,0,0,0,-1,762,1177,0,0
-455,-153,0,0,0,0,0,0,0,0,0,-1,769,1177,0,0
-448,-153,0,0,0,0,0,0,0,0,0,-1,776,1177,0,0
-441,-153,0,0,0,0,0,0,0,0,0,-1,783,1177,0,0
-434,-153,0,0,0,0,0,0,0,0,0,-1,790,1177,0,0
-427,-153,0,0,0,0,0,0,0,0,0,-1,797,1177,0,0
-420,-153,0,0,0,0,0,0,0,0,0,-1,804,1177,0,0
-413,-153,0,0,0,0,0,0,0,0,0,-1,811,1177,0,0
-406,-153,0,0,0,0,0,0,0,0,0,-1,818,1177,0,0
-399,-153,0,0,0,0,0,0,0,0,0,-1,825,1177,0,0
-392,-153,0,0,0,0,0,0,0,0,0,-1,832,1177,0,0
-385,-153,0,0,0,0,0,0,0,0,0,-1,839,1177,0,0
-378,-153,0,0,0,0,0,0,0,0,0,-1,846,1177,0,0
-371,-153,0,0,0,0,0,0,0,0,0,-1,853,1177,0,0
-364,-153,0,0,0,0,0,0,0,0,0,-1,860,1177,0,0
-357,-153,0,0,0,0,0,0,0,0,0,-1,867,1177,0,0
-350,-153,0,0,0,0,0,0,0,0,0,-1,874,1177,0,0
-343,-153,0,0,0,0,0,0,0,0,0,-1,881,1177,0,0
-336,-153,0,0,0,0,0,0,0,0,0,-1,888,1177,0,0
-329,-153,0,0,0,0,0,0,0,0,0,-1,895,1177,0,0
-322,-153,0,0,0,0,0,0,0,0,0,-1,902,1177,0,0
-315,-153,0,0,0,0,0,0,0,0,0,-1,909,1177,0,0
-308,-153,0,0,0,0,0,0,0,0,0,-1,916,1177,0,0
-301,-153,0,0,0,0,0,0,0,0,0,-1,923,1177,0,0
-294,-153,0,0,0,0,0,0,0,0,0,-1,930,1177,0,0
-287,-153,0,0,0,0,0,0,0,0,0,-1,937,1177,0,0
-280,-153,0,0,0,0,0,0,0,0,0,-1,944,1177,0,0
-273,-153,0,0,0,0,0,0,0,0,0,-1,951,1177,0,0
-266,-153,0,0,0,0,0,0,0,0,0,-1,958,1177,0,0
-259,-153,0,0,0,0,0,0,0,0,0,-1,965,1177,0,0
-252,-153,0,0,0,0,0,0,0,0,0,-1,972,1177,0,0
-245,-153,0,0,0,0,0,0,0,0,0,-1,979,1177,0,0
-238,-153,0,0,0,0,0,0,0,0,0,-1,986,1177,0,0
-231,-153,0,0,0,0,0,0,0,0,0,-1,993,1177,0,0
-224,-153,0,0,0,0,0,0,0,0,0,-1,1000,1177,0,0
-217,-153,0,0,0,0,0,0,0,0,0,-1,1007,1177,0,0
-210,-153,0,0,0,0,0,0,0,0,0,-1,1014,1177,0,0
-203,-153,0,0,0,0,0,0,0,0,0,-1,1021,1177,0,0
-196,-153,0,0,0,0,0,0,0,0,0,-1,1028,1177,0,0
-189,-153,0,0,0,0,0,0,0,0,0,-1,1035,1177,0,0
-182,-153,0,0,0,0,0,0,0,0,0,-1,1042,1177,0,0
-175,-153,0,0,0,0,0,0,0,0,0,-1,1049,1177,0,0
-168,-153,0,0,0,0,0,0,0,0,0,-1,1056,1177,0,0
-161,-153,0,0,0,0,0,0,0,0,0,-1,1063,1177,0,0
-154,-153,0,0,0,0,0,0,0,0,0,-1,1070,1177,0,0
-147,-153,0,0,0,0,0,0,0,0,0,-1,1077,1177,0,0
-140,-153,0,0,0,0,0,0,0,0,0,-1,1084,1177,0,0
-133,-153,0,0,0,0,0,0,0,0,0,-1,1091,1177,0,0
-126,-153,0,0,0,0,0,0,0,0,0,-1,1098,1177,0,0
-119,-153,0,0,0,0,0,0,0,0,0,-1,1105,1177,0,0
-112,-153,0,0,0,0,0,0,0,0,0,-1,1112,1177,0,0
-105,-153,0,0,0,0,0,0,0,0,0,-1,1119,1177,0,0
-98,-153,0,0,0,0,0,0,0,0,0,-1,1126,1177,0,0
-91,-153,0,0,0,0,0,0,0,0,0,-1,1133,1177,0,0
-84,-153,0,0,0,0,0,0,0,0,0,-1,1140,1177,0,0
-77,-153,0,0,0,0,0,0,0,0,0,-1,1147,1177,0,0
-70,-153,0,0,0,0,0,0,0,0,0,-1,1154,1177,0,0
-63,-153,0,0,0,0,0,0,0,0,0,-1,1161,1177,0,0
-56,-153,0,0,0,0,0,0,0,0,0,-1,1168,1177,0,0
-49,-153,0,0,0,0,0,0,0,0,0,-1,1175,1177,0,0
-42,-153,0,0,0,0,0,0,0,0,0,-1,1182,1177,0,0
-35,-153,0,0,0,0,0,0,0,0,0,-1,1189,1177,0,0
-28,-153,0,0,0,0,0,0,0,0,0,-1,1196,1177,0,0
-21,-153,0,0,0,0,0,0,0,0,0,-1,1203,1177,0,0
-14,-153,0,0,0,0,0,0,0,0,0,-1,1210,1177,0,0
-7,-153,0,0,0,0,0,0,0,0,0,-1,1217,1177,0,0
0,-153,0,0,0,0,0,0,0,0,0,-1,1224,1177,0,0
7,-153,0,0,0,0,0,0,0,0,0,-1,1231,1177,0,0
14,-153,0,0,0,0,0,0,0,0,0,-1,1238,1177,0,0
21,-153,0,0,0,0,0,0,0,0,0,-1,1245,1177,0,0
28,-153,0,0,0,0,0,0,0,0,0,-1,1252,1177,0,0
35,-153,0,0,0,0,0,0,0,0,0,-1,1259,1177,0,0
42,-153,0,0,0,0,0,0,0,0,0,-1,1266,1177,0,0
49,-153,0,0,0,0,0,0,0,0,0,-1,1273,1177,0,0
56,-153,0,0,0,0,0,0,0,0,0,-1,1280,1177,0,0
63,-153,0,0,0,0,0,0,0,0,0,-1,1287,1177,0,0
70,-153,0,0,0,0,0,0,0,0,0,-1,1294,1177,0,0
77,-153,0,0,0,0,0,0,0,0,0,-1,1301,1177,0,0
84,-153,0,0,0,0,0,0,0,0,0,-1,1308,1177,0,0
91,-153,0,0,0,0,0,0,0,0,0,-1,1315,1177,0,0
98,-153,0,0,0,0,0,0,0,0,0,-1,1322,1177,0,0
105,-153,0,0,0,0,0,0,0,0,0,-1,1329,1177,0,0
112,-153,0,0,0,0,0,0,0,0,0,-1,1336,1177,0,0
119,-153,0,0,0,0,0,0,0,0,0,-1,1343,1177,0,0
126,-153,0,0,0,0,0,0,0,0,0,-1,1350,1177,0,0
133,-153,0,0,0,0,0,0,0,0,0,-1,1357,1177,0,0
140,-153,0,0,0,0,0,0,0,0,0,-1,1364,1177,0,0
147,-153,0,0,0,0,0,0,0,0,0,-1,1371,1177,0,0
154,-153,0,0,0,0,0,0,0,0,0,-1,1378,1177,0,0
161,-153,0,0,0,0,0,0,0,0,0,-1,1385,1177,0,0
168,-153,0,0,0,0,0,0,0,0,0,-1,1392,1177,0,0
175,-153,0,0,0,0,0,0,0,0,0,-1,1399,1177,0,0
182,-153,0,0,0,0,0,0,0,0,0,-1,1406,1177,0,0
189,-153,0,0,0,0,0,0,0,0,0,-1,1413,1177,0,0
196,-153,0,0,0,0,0,0,0,0,0,-1,1420,1177,0,0
203,-153,0,0,0,0,0,0,0,0,0,-1,1427,1177,0,0
210,-153,0,0,0,0,0,0,0,0,0,-1,1434,1177,0,0
217,-153,0,0,0,0,0,0,0,0,0,-1,1441,1177,0,0
224,-153,0,0,0,0,0,0,0,0,0,-1,1448,1177,0,0
231,-153,0,0,0,0,0,0,0,0,0,-1,1455,1177,0,0
238,-153,0,0,0,0,0,0,0,0,0,-1,1462,1177,0,0
245,-153,0,0,0,0,0,0,0,0,0,-1,1469,1177,0,0
252,-153,0,0,0,0,0,0,0,0,0,-1,1476,1177,0,0
259,-153,0,0,0,0,0,0,0,0,0,-1,1483,1177,0,0
266,-153,0,0,0,0,0,0,0,0,0,-1,1490,1177,0,0
273,-153,0,0,0,0,0,0,0,0,0,-1,1497,1177,0,0
280,-153,0,0,0,0,0,0,0,0,0,-1,1504,1177,0,0
287,-153,0,0,0,0,0,0,0,0,0,-1,1511,1177,0,0
294,-153,0,0,0,0,0,0,0,0,0,-1,1518,1177,0,0
301,-153,0,0,0,0,0,0,0,0,0,-1,1525,1177,0,0
308,-153,0,0,0,0,0,0,0,0,0,-1,1532,1177,0,0
315,-153,0,0,0,0,0,0,0,0,0,-1,1539,1177,0,0
322,-153,0,0,0,0,0,0,0,0,0,-1,1546,1177,0,0
329,-153,0,0,0,0,0,0,0,0,0,-1,1553,1177,0,0
336,-153,0,0,0,0,0,0,0,0,0,-1,1560,1177,0,0
343,-153,0,0,0,0,0,0,0,0,0,-1,1567,1177,0,0
350,-153,0,0,0,0,0,0,0,0,0,-1,1574,1177,0,0
357,-153,0,0,0,0,0,0,0,0,0,-1,1581,1177,0,0
364,-153,0,0,0,0,0,0,0,0,0,-1,1588,1177,0,0
371,-153,0,0,0,0,0,0,0,0,0,-1,1595,1177,0,0
378,-153,0,0,0,0,0,0,0,0,0,-1,1602,1177,0,0
385,-153,0,0,0,0,0,0,0,0,0,-1,1609,1177,0,0
392,-153,0,0,0,0,0,0,0,0,0,-1,1616,1177,0,0
399,-153,0,0,0,0,0,0,0,0,0,-1,1623,1177,0,0
406,-153,0,0,0,0,0,0,0,0,0,-1,1630,1177,0,0
413,-153,0,0,0,0,0,0,0,0,0,-1,1637,1177,0,0
420,-153,0,0,0,0,0,0,0,0,0,-1,1644,1177,0,0
427,-153,0,0,0,0,0,0,0,0,0,-1,1651,1177,0,0
434,-153,0,0,0,0,0,0,0,0,0,-1,1658,1177,0,0
441,-153,0,0,0,0,0,0,0,0,0,-1,1665,1177,0,0
448,-153,0,0,0,0,0,0,0,0,0,-1,1672,1177,0,0
455,-153,0,0,0,0,0,0,0,0,0,-1,1679,1177,0,0
462,-153,0,0,0,0,0,0,0,0,0,-1,1686,1177,0,0
469,-153,0,0,0,0,0,0,0,0,0,-1,1693,1177,0,0
476,-153,0,0,0,0,0,0,0,0,0,-1,1700,1177,0,0
483,-153,0,0,0,0,0,0,0,0,0,-1,1707,1177,0,0
490,-153,0,0,0,0,0,0,0,0,0,-1,1714,1177,0,0
497,-153,0,0,0,0,0,0,0,0,0,-1,1721,1177,0,0
504,-153,0,0,0,0,0,0,0,0,0,-1,1728,1177,0,0
511,-153,0,0,0,0,0,0,0,0,0,-1,1735,1177,0,0
518,-153,0,0,0,0,0,0,0,0,0,-1,1742,1177,0,0
525,-153,0,0,0,0,0,0,0,0,0,-1,1749,1177,0,0
532,-153,0,0,0,0,0,0,0,0,0,-1,1756,1177,0,0
539,-153,0,0,0,0,0,0,0,0,0,-1,1763,1177,0,0
546,-153,0,0,0,0,0,0,0,0,0,-1,1770,1177,0,0
553,-153,0,0,0,0,0,0,0,0,0,-1,1777,1177,0,0
560,-153,0,0,0,0,0,0,0,0,0,-1,1784,1177,0,0
567,-153,0,0,0,0,0,0,0,0,0,-1,1791,1177,0,0
574,-153,0,0,0,0,0,0,0,0,0,-1,1798,1177,0,0
581,-153,0,0,0,0,0,0,0,0,0,-1,1805,1177,0,0
588,-153,0,0,0,0,0,0,0,0,0,-1,1812,1177,0,0
595,-153,0,0,0,0,0,0,0,0,0,-1,1819,1177,0,0
602,-153,0,0,0,0,0,0,0,0,0,-1,1826,1177,0,0
609,-153,0,0,0,0,0,0,0,0,0,-1,1833,1177,0,0
616,-153,0,0,0,0,0,0,0,0,0,-1,1840,1177,0,0
623,-153,0,0,0,0,0,0,0,0,0,-1,1847,1177,0,0
630,-153,0,0,0,0,0,0,0,0,0,-1,1854,1177,0,0
637,-153,18.7102,2.47729,0.00145534,0.000122847,0.000631428,0.00170702,-0.000128831,0.379286,0.0011833,0.0379702,1861,1177,18.7103,-2.4773
644,-153,18.7144,2.51636,0.000926104,0.000191945,0.000300032,0.00103312,8.49292e-05,0.342615,0.000662254,0.03562,1868,1177,18.7144,-2.51635
651,-153,18.7416,2.58154,0.00118718,0.000316449,-0.000232017,0.00124514,0.000258484,-0.244819,0.000758756,0.0321587,1875,1177,18.7415,-2.5815
658,-153,18.7892,2.58655,0.000554167,0.000243736,-4.43406e-05,0.000560376,0.000237527,-0.13913,0.000324781,0.0375366,1882,1177,18.7892,-2.58658
665,-153,18.7975,2.62256,-0.000684966,-0.000157074,0.000702461,0.000329393,-0.00117143,0.96511,0.000910827,0.037341,1889,1177,18.7975,-2.62251
672,-153,18.8041,2.63953,-0.00204412,-0.000611653,0.00151328,0.000346332,-0.0030021,1.00643,0.00212627,0.0341664,1896,1177,18.8041,-2.63959
679,-153,18.7563,2.55762,-0.00335917,-0.00107537,0.00230746,0.000357276,-0.00479181,1.01517,0.00332005,0.0268434,1903,1177,18.7564,-2.55757
686,-153,18.7639,2.57642,-0.00446393,-0.00152377,0.00294527,0.000297926,-0.00628562,1.01687,0.00429317,0.0174115,1910,1177,18.7639,-2.57647
693,-153,18.8438,2.55579,-0.0052669,-0.0017363,0.00335009,0.000285139,-0.00728834,1.02788,0.00495667,0.0275987,1917,1177,18.8437,-2.55578
700,-153,18.9548,2.47925,0,0,0,0,0,0,0,-1,1924,1177,18.9548,-2.47928
707,-153,17.3368,4.14844,0,0,0,0,0,0,0,-1,1931,1177,17.3368,-4.14839
714,-153,17.5354,4.07849,-0.00638592,-0.00219651,0.00400732,0.000230554,-0.00881298,1.02623,0.00595366,0.0231888,1938,1177,17.5354,-4.07854
721,-153,17.5542,3.96362,-0.00624281,-0.00204548,0.00378299,0.000181991,-0.00847028,1.03864,0.00570848,0.0196606,1945,1177,17.5542,-3.96368
728,-153,17.5372,3.9054,-0.00567051,-0.0017064,0.00333173,0.000188266,-0.00756517,1.05373,0.00510736,0.0237571,1952,1177,17.5372,-3.90535
735,-153,17.37,3.89026,-0.00493173,-0.000960731,0.00281549,0.000498934,-0.0063914,1.0925,0.00443661,0.0162437,1959,1177,17.37,-3.89021
742,-153,17.3892,3.77307,-0.00422536,0.000363336,0.00192667,0.001065,-0.00492702,1.22154,0.00369125,0.0149816,1966,1177,17.3892,-3.77311
749,-153,17.4023,3.67212,-0.00389411,0.00204987,0.000224655,0.00205835,-0.00390259,1.53307,0.00349602,0.016205,1973,1177,17.4024,-3.67217
756,-153,17.4045,3.57495,-0.00306605,0.00541414,-0.00151158,0.00567552,-0.00332743,-1.39957,0.00525646,0.0111869,1980,1177,17.4045,-3.57497
763,-153,17.3955,3.48303,-0.00286213,0.00866126,-0.00345523,0.00961788,-0.00381875,-1.3007,0.00799485,0.0104683,1987,1177,17.3956,-3.48305
770,-153,17.3978,3.39124,-0.00333829,0.0125902,-0.0054581,0.014281,-0.0050291,-1.27039,0.0115674,0.00977466,1994,1177,17.3979,-3.39127
777,-153,17.4027,3.29114,-0.00439744,0.0174712,-0.00781581,0.0199774,-0.00690359,-1.2605,0.01612,0.0198541,2001,1177,17.4028,-3.29119
784,-153,17.426,3.1947,-0.00595356,0.0236168,-0.0107694,0.0271232,-0.00945994,-1.25603,0.0219266,0.0412961,2008,1177,17.426,-3.19465
791,-153,15.8563,3.31848,-0.00795392,0.0312709,-0.0144231,0.0360034,-0.0126864,-1.25375,0.0291658,0.0451434,2015,1177,15.8563,-3.31851
798,-153,15.8574,1.79956,-0.0101772,0.0407366,-0.0189138,0.0469938,-0.0164344,-1.2513,0.0380107,0.0457069,2022,1177,15.8574,-1.7996
805,-153,15.9171,0.933472,-0.0126159,0.0523547,-0.02426,0.0604137,-0.0206749,-1.25007,0.0486544,0.0452877,2029,1177,15.9171,-0.933445
812,-153,0,0,0,0,0,0,0,0,0,-1,2036,1177,0,0
-700,-160,0,0,0,0,0,0,0,0,0,-1,524,1184,0,0
-693,-160,0,0,0,0,0,0,0,0,0,-1,531,1184,0,0
-686,-160,-7.3963,-3.39099,-0.0846842,0.0151509,0.0935124,0.0712349,-0.140768,1.03056,0.124575,0.046849,538,1184,-7.3963,3.39097
-679,-160,-7.87677,-2.75293,-0.0766865,0.0153737,0.0810456,0.0625486,-0.123861,1.04366,0.109547,0.0476887,545,1184,-7.87675,2.75289
-672,-160,-8.31799,-2.16431,-0.0663452,0.0148329,0.0676928,0.0531729,-0.104685,1.05546,0.0927428,0.0432298,552,1184,-8.31798,2.16429
-665,-160,-8.81158,-1.58972,-0.0551849,0.0137805,0.0546189,0.043891,-0.0852954,1.06697,0.075852,0.0425972,559,1184,-8.81159,1.58967
-658,-160,-9.23627,-1.26965,-0.0441282,0.0123605,0.0424863,0.035134,-0.0669018,1.07875,0.0598545,0.0498911,566,1184,-9.23626,1.26969
-651,-160,-10.6082,0.693481,0,0,0,0,0,0,0,-1,573,1184,-10.6082,-0.693514
-644,-160,-10.4042,0.872925,-0.0249905,0.00887517,0.0226794,0.0202456,-0.036361,1.10606,0.0331204,0.038408,580,1184,-10.4042,-0.872939
-637,-160,-10.4056,0.980835,-0.0173054,0.007463,0.0153585,0.0148083,-0.0246507,1.1247,0.0230167,0.0145315,587,1184,-10.4056,-0.980783
-630,-160,-10.454,1.08862,-0.0116607,0.00552569,0.00911732,0.00946121,-0.0155962,1.1633,0.0146107,0.00882241,594,1184,-10.4541,-1.08857
-623,-160,-10.4888,1.20032,-0.00860291,0.00330871,0.00378004,0.00440701,-0.00970121,1.28803,0.00833436,0.0115158,601,1184,-10.4888,-1.20026
-616,-160,-10.4839,1.33972,-0.007102,0.00145249,-0.000628624,0.00149843,-0.00714795,-1.49783,0.00533538,0.00995254,608,1184,-10.484,-1.33976
-609,-160,-10.4555,1.50732,-0.00631787,0.000432142,-0.00439819,0.00260103,-0.00848676,-1.11266,0.00669543,0.0122274,615,1184,-10.4555,-1.50738
-602,-160,-10.4516,1.65686,-0.00698097,-0.000555329,-0.00642742,0.00341752,-0.0109538,-1.01717,0.00866925,0.018734,622,1184,-10.4516,-1.65685
-595,-160,-10.4315,1.78674,-0.00877723,-0.00125147,-0.00786018,0.0037001,-0.0137288,-1.00864,0.0106033,0.0215966,629,1184,-10.4315,-1.78674
-588,-160,-10.5101,1.86621,-0.01023,-0.00171438,-0.0090279,0.00400939,-0.0159538,-1.00574,0.012194,0.0206264,636,1184,-10.5101,-1.86616
-581,-160,-10.4581,1.99817,-0.0108789,-0.00196387,-0.00994172,0.0044739,-0.0173167,-0.996144,0.0132892,0.0172968,643,1184,-10.4582,-1.99819
-574,-160,-10.8228,1.75488,-0.0107221,-0.00201027,-0.0104501,0.00495542,-0.0176877,-0.982863,0.0137447,0.0449368,650,1184,-10.8228,-1.75486
-567,-160,-11.2501,1.45923,0,0,0,0,0,0,0,-1,657,1184,-11.2501,-1.45921
-560,-160,-12.0191,0.730957,-0.00939776,-0.00183284,-0.0101234,0.00519166,-0.0164223,-0.964185,0.0130282,0.0399122,664,1184,-12.0191,-0.730903
-553,-160,-11.9922,0.781494,-0.0075055,-0.00165052,-0.00901658,0.00490192,-0.0140579,-0.942369,0.011364,0.0372793,671,1184,-11.9922,-0.781479
-546,-160,-11.9667,0.788696,-0.00457371,-0.00149488,-0.00709543,0.00422621,-0.0102948,-0.892222,0.0086243,0.0383662,678,1184,-11.9667,-0.788716
-539,-160,-12.0207,0.676636,-0.000541942,-0.00142839,-0.00433371,0.00337115,-0.00534148,-0.734439,0.00507294,0.0407431,685,1184,-12.0207,-0.676587
-532,-160,-12.1118,0.62207,0.00469457,-0.00152841,-0.000754113,0.00478465,-0.00161849,-0.118889,0.00384455,0.0419826,692,1184,-12.1118,-0.622104
-525,-160,-11.9825,0.593506,0.0101978,-0.00208705,0.0030344,0.0109064,-0.00279569,0.229421,0.00836014,0.0410636,699,1184,-11.9825,-0.593519
-518,-160,-11.8854,0.716309,0.0132455,-0.00412285,0.00528117,0.0147252,-0.00560261,0.273191,0.0121238,0.0413371,706,1184,-11.8854,-0.716308
-511,-160,0,0,0,0,0,0,0,0,0,-1,713,1184,0,0
-504,-160,0,0,0,0,0,0,0,0,0,-1,720,1184,0,0
-497,-160,0,0,0,0,0,0,0,0,0,-1,727,1184,0,0
-490,-160,0,0,0,0,0,0,0,0,0,-1,734,1184,0,0
-483,-160,0,0,0,0,0,0,0,0,0,-1,741,1184,0,0
-476,-160,0,0,0,0,0,0,0,0,0,-1,748,1184,0,0
-469,-160,0,0,0,0,0,0,0,0,0,-1,755,1184,0,0
-462,-160,0,0,0,0,0,0,0,0,0,-1,762,1184,0,0
-455,-160,0,0,0,0,0,0,0,0,0,-1,769,1184,0,0
-448,-160,0,0,0,0,0,0,0,0,0,-1,776,1184,0,0
-441,-160,0,0,0,0,0,0,0,0,0,-1,783,1184,0,0
-434,-160,0,0,0,0,0,0,0,0,0,-1,790,1184,0,0
-427,-160,0,0,0,0,0,0,0,0,0,-1,797,1184,0,0
-420,-160,0,0,0,0,0,0,0,0,0,-1,804,1184,0,0
-413,-160,0,0,0,0,0,0,0,0,0,-1,811,1184,0,0
-406,-160,0,0,0,0,0,0,0,0,0,-1,818,1184,0,0
-399,-160,0,0,0,0,0,0,0,0,0,-1,825,1184,0,0
-392,-160,0,0,0,0,0,0,0,0,0,-1,832,1184,0,0
-385,-160,0,0,0,0,0,0,0,0,0,-1,839,1184,0,0
-378,-160,0,0,0,0,0,0,0,0,0,-1,846,1184,0,0
-371,-160,0,0,0,0,0,0,0,0,0,-1,853,1184,0,0
-364,-160,0,0,0,0,0,0,0,0,0,-1,860,1184,0,0
-357,-160,0,0,0,0,0,0,0,0,0,-1,867,1184,0,0
-350,-160,0,0,0,0,0,0,0,0,0,-1,874,1184,0,0
-343,-160,0,0,0,0,0,0,0,0,0,-1,881,1184,0,0
-336,-160,0,0,0,0,0,0,0,0,0,-1,888,1184,0,0
-329,-160,0,0,0,0,0,0,0,0,0,-1,895,1184,0,0
-322,-160,0,0,0,0,0,0,0,0,0,-1,902,1184,0,0
-315,-160,0,0,0,0,0,0,0,0,0,-1,909,1184,0,0
-308,-160,0,0,0,0,0,0,0,0,0,-1,916,1184,0,0
-301,-160,0,0,0,0,0,0,0,0,0,-1,923,1184,0,0
-294,-160,0,0,0,0,0,0,0,0,0,-1,930,1184,0,0
-287,-160,0,0,0,0,0,0,0,0,0,-1,937,1184,0,0
-280,-160,0,0,0,0,0,0,0,0,0,-1,944,1184,0,0
-273,-160,0,0,0,0,0,0,0,0,0,-1,951,1184,0,0
-266,-160,0,0,0,0,0,0,0,0,0,-1,958,1184,0,0
-259,-160,0,0,0,0,0,0,0,0,0,-1,965,1184,0,0
-252,-160,0,0,0,0,0,0,0,0,0,-1,972,1184,0,0
-245,-160,0,0,0,0,0,0,0,0,0,-1,979,1184,0,0
-238,-160,0,0,0,0,0,0,0,0,0,-1,986,1184,0,0
-231,-160,0,0,0,0,0,0,0,0,0,-1,993,1184,0,0
-224,-160,0,0,0,0,0,0,0,0,0,-1,1000,1184,0,0
-217,-160,0,0,0,0,0,0,0,0,0,-1,1007,1184,0,0
-210,-160,0,0,0,0,0,0,0,0,0,-1,1014,1184,0,0
-203,-160,0,0,0,0,0,0,0,0,0,-1,1021,1184,0,0
-196,-160,0,0,0,0,0,0,0,0,0,-1,1028,1184,0,0
-189,-160,0,0,0,0,0,0,0,0,0,-1,1035,1184,0,0
-182,-160,0,0,0,0,0,0,0,0,0,-1,1042,1184,0,0
-175,-160,0,0,0,0,0,0,0,0,0,-1,1049,1184,0,0
-168,-160,0,0,0,0,0,0,0,0,0,-1,1056,1184,0,0
-161,-160,0,0,0,0,0,0,0,0,0,-1,1063,1184,0,0
-154,-160,0,0,0,0,0,0,0,0,0,-1,1070,1184,0,0
-147,-160,0,0,0,0,0,0,0,0,0,-1,1077,1184,0,0
-140,-160,0,0,0,0,0,0,0,0,0,-1,1084,1184,0,0
-133,-160,0,0,0,0,0,0,0,0,0,-1,1091,1184,0,0
-126,-160,0,0,0,0,0,0,0,0,0,-1,1098,1184,0,0
-119,-160,0,0,0,0,0,0,0,0,0,-1,1105,1184,0,0
-112,-160,0,0,0,0,0,0,0,0,0,-1,1112,1184,0,0
-105,-160,0,0,0,0,0,0,0,0,0,-1,1119,1184,0,0
-98,-160,0,0,0,0,0,0,0,0,0,-1,1126,1184,0,0
-91,-160,0,0,0,0,0,0,0,0,0,-1,1133,1184,0,0
-84,-160,0,0,0,0,0,0,0,0,0,-1,1140,1184,0,0
-77,-160,0,0,0,0,0,0,0,0,0,-1,1147,1184,0,0
-70,-160,0,0,0,0,0,0,0,0,0,-1,1154,1184,0,0
-63,-160,0,0,0,0,0,0,0,0,0,-1,1161,1184,0,0
-56,-160,0,0,0,0,0,0,0,0,0,-1,1168,1184,0,0
-49,-160,0,0,0,0,0,0,0,0,0,-1,1175,1184,0,0
-42,-160,0,0,0,0,0,0,0,0,0,-1,1182,1184,0,0
-35,-160,0,0,0,0,0,0,0,0,0,-1,1189,1184,0,0
-28,-160,0,0,0,0,0,0,0,0,0,-1,1196,1184,0,0
-21,-160,0,0,0,0,0,0,0,0,0,-1,1203,1184,0,0
-14,-160,0,0,0,0,0,0,0,0,0,-1,1210,1184,0,0
-7,-160,0,0,0,0,0,0,0,0,0,-1,1217,1184,0,0
0,-160,0,0,0,0,0,0,0,0,0,-1,1224,1184,0,0
7,-160,0,0,0,0,0,0,0,0,0,-1,1231,1184,0,0
14,-160,0,0,0,0,0,0,0,0,0,-1,1238,1184,0,0
21,-160,0,0,0,0,0,0,0,0,0,-1,1245,1184,0,0
28,-160,0,0,0,0,0,0,0,0,0,-1,1252,1184,0,0
35,-160,0,0,0,0,0,0,0,0,0,-1,1259,1184,0,0
42,-160,0,0,0,0,0,0,0,0,0,-1,1266,1184,0,0
49,-160,0,0,0,0,0,0,0,0,0,-1,1273,1184,0,0
56,-160,0,0,0,0,0,0,0,0,0,-1,1280,1184,0,0
63,-160,0,0,0,0,0,0,0,0,0,-1,1287,1184,0,0
70,-160,0,0,0,0,0,0,0,0,0,-1,1294,1184,0,0
77,-160,0,0,0,0,0,0,0,0,0,-1,1301,1184,0,0
84,-160,0,0,0,0,0,0,0,0,0,-1,1308,1184,0,0
91,-160,0,0,0,0,0,0,0,0,0,-1,1315,1184,0,0
98,-160,0,0,0,0,0,0,0,0,0,-1,1322,1184,0,0
105,-160,0,0,0,0,0,0,0,0,0,-1,1329,1184,0,0
112,-160,0,0,0,0,0,0,0,0,0,-1,1336,1184,0,0
119,-160,0,0,0,0,0,0,0,0,0,-1,1343,1184,0,0
126,-160,0,0,0,0,0,0,0,0,0,-1,1350,1184,0,0
133,-160,0,0,0,0,0,0,0,0,0,-1,1357,1184,0,0
140,-160,0,0,0,0,0,0,0,0,0,-1,1364,1184,0,0
147,-160,0,0,0,0,0,0,0,0,0,-1,1371,1184,0,0
154,-160,0,0,0,0,0,0,0,0,0,-1,1378,1184,0,0
161,-160,0,0,0,0,0,0,0,0,0,-1,1385,1184,0,0
168,-160,0,0,0,0,0,0,0,0,0,-1,1392,1184,0,0
175,-160,0,0,0,0,0,0,0,0,0,-1,1399,1184,0,0
182,-160,0,0,0,0,0,0,0,0,0,-1,1406,1184,0,0
189,-160,0,0,0,0,0,0,0,0,0,-1,1413,1184,0,0
196,-160,0,0,0,0,0,0,0,0,0,-1,1420,1184,0,0
203,-160,0,0,0,0,0,0,0,0,0,-1,1427,1184,0,0
210,-160,0,0,0,0,0,0,0,0,0,-1,1434,1184,0,0
217,-160,0,0,0,0,0,0,0,0,0,-1,1441,1184,0,0
224,-160,0,0,0,0,0,0,0,0,0,-1,1448,1184,0,0
231,-160,0,0,0,0,0,0,0,0,0,-1,1455,1184,0,0
238,-160,0,0,0,0,0,0,0,0,0,-1,1462,1184,0,0
245,-160,0,0,0,0,0,0,0,0,0,-1,1469,1184,0,0
252,-160,0,0,0,0,0,0,0,0,0,-1,1476,1184,0,0
259,-160,0,0,0,0,0,0,0,0,0,-1,1483,1184,0,0
266,-160,0,0,0,0,0,0,0,0,0,-1,1490,1184,0,0
273,-160,0,0,0,0,0,0,0,0,0,-1,1497,1184,0,0
280,-160,0,0,0,0,0,0,0,0,0,-1,1504,1184,0,0
287,-160,0,0,0,0,0,0,0,0,0,-1,1511,1184,0,0
294,-160,0,0,0,0,0,0,0,0,0,-1,1518,1184,0,0
301,-160,0,0,0,0,0,0,0,0,0,-1,1525,1184,0,0
308,-160,0,0,0,0,0,0,0,0,0,-1,1532,1184,0,0
315,-160,0,0,0,0,0,0,0,0,0,-1,1539,1184,0,0
322,-160,0,0,0,0,0,0,0,0,0,-1,1546,1184,0,0
329,-160,0,0,0,0,0,0,0,0,0,-1,1553,1184,0,0
336,-160,0,0,0,0,0,0,0,0,0,-1,1560,1184,0,0
343,-160,0,0,0,0,0,0,0,0,0,-1,1567,1184,0,0
350,-160,0,0,0,0,0,0,0,0,0,-1,1574,1184,0,0
357,-160,0,0,0,0,0,0,0,0,0,-1,1581,1184,0,0
364,-160,0,0,0,0,0,0,0,0,0,-1,1588,1184,0,0
371,-160,0,0,0,0,0,0,0,0,0,-1,1595,1184,0,0
378,-160,0,0,0,0,0,0,0,0,0,-1,1602,1184,0,0
385,-160,0,0,0,0,0,0,0,0,0,-1,1609,1184,0,0
392,-160,0,0,0,0,0,0,0,0,0,-1,1616,1184,0,0
399,-160,0,0,0,0,0,0,0,0,0,-1,1623,1184,0,0
406,-160,0,0,0,0,0,0,0,0,0,-1,1630,1184,0,0
413,-160,0,0,0,0,0,0,0,0,0,-1,1637,1184,0,0
420,-160,0,0,0,0,0,0,0,0,0,-1,1644,1184,0,0
427,-160,0,0,0,0,0,0,0,0,0,-1,1651,1184,0,0
434,-160,0,0,0,0,0,0,0,0,0,-1,1658,1184,0,0
441,-160,0,0,0,0,0,0,0,0,0,-1,1665,1184,0,0
448,-160,0,0,0,0,0,0,0,0,0,-1,1672,1184,0,0
455,-160,0,0,0,0,0,0,0,0,0,-1,1679,1184,0,0
462,-160,0,0,0,0,0,0,0,0,0,-1,1686,1184,0,0
469,-160,0,0,0,0,0,0,0,0,0,-1,1693,1184,0,0
476,-160,0,0,0,0,0,0,0,0,0,-1,1700,1184,0,0
483,-160,0,0,0,0,0,0,0,0,0,-1,1707,1184,0,0
490,-160,0,0,0,0,0,0,0,0,0,-1,1714,1184,0,0
497,-160,0,0,0,0,0,0,0,0,0,-1,1721,1184,0,0
504,-160,0,0,0,0,0,0,0,0,0,-1,1728,1184,0,0
511,-160,0,0,0,0,0,0,0,0,0,-1,1735,1184,0,0
518,-160,0,0,0,0,0,0,0,0,0,-1,1742,1184,0,0
525,-160,0,0,0,0,0,0,0,0,0,-1,1749,1184,0,0
532,-160,0,0,0,0,0,0,0,0,0,-1,1756,1184,0,0
539,-160,0,0,0,0,0,0,0,0,0,-1,1763,1184,0,0
546,-160,0,0,0,0,0,0,0,0,0,-1,1770,1184,0,0
553,-160,0,0,0,0,0,0,0,0,0,-1,1777,1184,0,0
560,-160,0,0,0,0,0,0,0,0,0,-1,1784,1184,0,0
567,-160,0,0,0,0,0,0,0,0,0,-1,1791,1184,0,0
574,-160,0,0,0,0,0,0,0,0,0,-1,1798,1184,0,0
581,-160,0,0,0,0,0,0,0,0,0,-1,1805,1184,0,0
588,-160,0,0,0,0,0,0,0,0,0,-1,1812,1184,0,0
595,-160,0,0,0,0,0,0,0,0,0,-1,1819,1184,0,0
602,-160,0,0,0,0,0,0,0,0,0,-1,1826,1184,0,0
609,-160,0,0,0,0,0,0,0,0,0,-1,1833,1184,0,0
616,-160,0,0,0,0,0,0,0,0,0,-1,1840,1184,0,0
623,-160,0,0,0,0,0,0,0,0,0,-1,1847,1184,0,0
630,-160,0,0,0,0,0,0,0,0,0,-1,1854,1184,0,0
637,-160,18.5114,2.56494,0.0010879,5.33265e-05,0.000990101,0.0016877,-0.000546475,0.544673,0.00134483,0.0388591,1861,1184,18.5113,-2.565
644,-160,18.6276,2.67908,0.000783635,9.09274e-05,0.000517916,0.00106034,-0.000185774,0.490678,0.000776261,0.0406266,1868,1184,18.6276,-2.67909
651,-160,18.7274,2.62866,0.00108091,0.00019565,-9.40782e-05,0.00109079,0.000185762,-0.104714,0.000673865,0.0409609,1875,1184,18.7274,-2.62867
658,-160,18.8113,2.55273,0.00033615,5.75678e-05,9.54146e-05,0.000365696,2.80218e-05,0.300294,0.000235014,0.0407449,1882,1184,18.8113,-2.55277
665,-160,18.8688,2.53821,-0.000895297,-0.000339835,0.000784358,0.000214511,-0.00144964,0.955554,0.00104529,0.0369331,1889,1184,18.8687,-2.53823
672,-160,18.7971,2.53735,-0.00219702,-0.000760934,0.00152265,0.000204489,-0.00316244,1.00572,0.00217966,0.0328507,1896,1184,18.7971,-2.53741
679,-160,18.7683,2.53479,-0.00345007,-0.00116653,0.00226446,0.000227726,-0.00484433,1.0189,0.00330808,0.0262774,1903,1184,18.7683,-2.53477
686,-160,18.7916,2.56177,-0.00449577,-0.0015774,0.00285251,0.000167478,-0.00624065,1.02182,0.00421737,0.0172613,1910,1184,18.7916,-2.56182
693,-160,18.8141,2.60547,-0.0052539,-0.00174901,0.00324125,0.000183207,-0.00718612,1.03322,0.00485297,0.0465365,1917,1184,18.8141,-2.60541
700,-160,16.9236,4.16321,0,0,0,0,0,0,0,-1,1924,1184,16.9235,-4.16323
707,-160,17.2528,4.17444,-0.00602467,-0.00215291,0.00387818,0.000245708,-0.00842329,1.01689,0.0056992,0.0439337,1931,1184,17.2528,-4.17442
714,-160,17.4243,4.14661,-0.00628023,-0.00213088,0.00388059,0.000194815,-0.00860593,1.03088,0.00580331,0.0301361,1938,1184,17.4243,-4.14657
721,-160,17.4388,3.92603,-0.00611366,-0.00196636,0.00366121,0.00016766,-0.00824768,1.04307,0.00555518,0.0152346,1945,1184,17.4388,-3.92603
728,-160,17.4073,3.90808,-0.00550301,-0.00162901,0.00317823,0.000155963,-0.00728799,1.05907,0.00491147,0.0131253,1952,1184,17.4073,-3.90805
735,-160,17.3051,3.86438,-0.00475558,-0.000818654,0.0025917,0.000467382,-0.00604162,1.11018,0.00419223,0.0134655,1959,1184,17.3051,-3.8644
742,-160,17.3291,3.72803,-0.00399972,0.000623971,0.00154023,0.00109007,-0.00446582,1.27694,0.00339933,0.0157507,1966,1184,17.329,-3.72806
749,-160,17.3271,3.63013,-0.00366636,0.00236268,-0.000376321,0.00238608,-0.00368976,-1.5087,0.0035347,0.0165877,1973,1184,17.3271,-3.63018
756,-160,17.3102,3.56555,-0.00281101,0.00559895,-0.00232986,0.00620127,-0.00341333,-1.31781,0.00562824,0.0107195,1980,1184,17.3102,-3.56553
763,-160,17.2954,3.47278,-0.00264166,0.00881236,-0.00446064,0.0103445,-0.00417385,-1.23993,0.00863088,0.0109289,1987,1184,17.2954,-3.47278
770,-160,17.2727,3.36536,-0.00312674,0.0126693,-0.0067624,0.0151688,-0.00562625,-1.21675,0.0124202,0.0171191,1994,1184,17.2727,-3.36531
777,-160,17.2837,3.23218,-0.00406669,0.0174587,-0.00955929,0.021091,-0.00769897,-1.20767,0.0172109,0.0319766,2001,1184,17.2837,-3.23223
784,-160,17.2374,2.62378,-0.00540069,0.023409,-0.0130594,0.0284476,-0.0104393,-1.20257,0.02324,0.0422148,2008,1184,17.2374,-2.62373
791,-160,17.4764,2.67322,-0.00703809,0.0307037,-0.0173656,0.037478,-0.0138124,-1.19885,0.0306452,0.0459602,2015,1184,17.4765,-2.67318
798,-160,15.4268,1.21997,-0.00868539,0.0395806,-0.0226102,0.0485176,-0.0176224,-1.19438,0.0395503,0.0445284,2022,1184,15.4268,-1.21992
805,-160,15.3951,-0.095459,0,0,0,0,0,0,0,-1,2029,1184,15.3952,0.0954505
812,-160,0,0,0,0,0,0,0,0,0,-1,2036,1184,0,0
-700,-167,0,0,0,0,0,0,0,0,0,-1,524,1191,0,0
-693,-167,0,0,0,0,0,0,0,0,0,-1,531,1191,0,0
-686,-167,-8.60431,-3.78687,0,0,0,0,0,0,0,-1,538,1191,-8.60431,3.78691
-679,-167,-9.18091,-2.84973,0,0,0,0,0,0,0,-1,545,1191,-9.18089,2.84975
-672,-167,-9.59985,-2.2041,0,0,0,0,0,0,0,-1,552,1191,-9.59986,2.20412
-665,-167,-9.52374,-0.424927,0,0,0,0,0,0,0,-1,559,1191,-9.52372,0.424872
-658,-167,-9.39624,-0.62915,0,0,0,0,0,0,0,-1,566,1191,-9.39626,0.629158
-651,-167,-10.1912,0.951172,0,0,0,0,0,0,0,-1,573,1191,-10.1912,-0.951122
-644,-167,-10.2194,0.984741,-0.0229882,0.0100867,0.020094,0.0195734,-0.0324749,1.1297,0.0303562,0.0387732,580,1191,-10.2194,-0.984745
-637,-167,-10.2806,0.993408,-0.0161189,0.00835418,0.0134778,0.0143216,-0.0220863,1.15398,0.0211789,0.0156991,587,1191,-10.2806,-0.993374
-630,-167,-10.3275,1.07422,-0.0110105,0.00622695,0.00791633,0.00931082,-0.0140944,1.19932,0.0136067,0.00804433,594,1191,-10.3274,-1.07419
-623,-167,-10.3424,1.18738,-0.00824329,0.00389679,0.00317568,0.00467733,-0.00902382,1.32979,0.00804195,0.0107805,601,1191,-10.3424,-1.1874
-616,-167,-10.3489,1.34387,-0.00676998,0.00193248,-0.000826147,0.00201022,-0.00684772,-1.47698,0.00536232,0.0143373,608,1191,-10.3489,-1.34387
-609,-167,-10.345,1.5,-0.00599504,0.000805004,-0.00438473,0.0029535,-0.00814354,-1.11519,0.00663634,0.0143148,615,1191,-10.3451,-1.50004
-602,-167,-10.3386,1.61353,-0.00655679,-0.00011414,-0.00630565,0.00374537,-0.0104163,-1.02155,0.00847322,0.0147858,622,1191,-10.3386,-1.61348
-595,-167,-10.3179,1.75476,-0.00819883,-0.000986405,-0.00773991,0.00394618,-0.0131314,-1.00341,0.0103242,0.0192067,629,1191,-10.3179,-1.75473
-588,-167,-10.3351,1.90283,-0.00947799,-0.00154046,-0.00902685,0.00435156,-0.01537,-0.99251,0.011964,0.0178996,636,1191,-10.3352,-1.90287
-581,-167,-10.3417,1.97351,-0.00993794,-0.0017982,-0.0100608,0.00498478,-0.0167209,-0.977599,0.0131282,0.0173849,643,1191,-10.3417,-1.97346
-574,-167,-10.535,2.20996,-0.00963331,-0.00183231,-0.0106232,0.00558385,-0.0170495,-0.961341,0.0136148,0.0385808,650,1191,-10.535,-2.21
-567,-167,-11.4113,1.8562,-0.0091432,-0.00178893,-0.0106896,0.00583832,-0.0167705,-0.951054,0.0135523,0.046675,657,1191,-11.4113,-1.85619
-560,-167,-11.8019,0.235107,-0.0081607,-0.00158535,-0.0103744,0.00600989,-0.0157559,-0.938843,0.0129796,0.0394697,664,1191,-11.8019,-0.235082
-553,-167,-11.9226,0.65271,-0.00636423,-0.00132553,-0.00940068,0.00588754,-0.0135773,-0.91632,0.0115266,0.0364391,671,1191,-11.9226,-0.65271
-546,-167,-11.957,0.724365,-0.00369261,-0.00105681,-0.00766682,0.00540455,-0.010154,-0.870515,0.00912116,0.035801,678,1191,-11.957,-0.724421
-539,-167,-11.9745,0.721313,-0.000135648,-0.000779903,-0.00514506,0.00469735,-0.00561291,-0.754134,0.00596045,0.040592,685,1191,-11.9745,-0.721255
-532,-167,-12.0042,0.679321,0.00439874,-0.000528302,-0.00180322,0.00498817,-0.00111773,-0.31593,0.00375391,0.0434995,692,1191,-12.0042,-0.679354
-525,-167,-11.9439,0.772461,0.00921983,-0.000447565,0.00200488,0.00961913,-0.000846857,0.196588,0.00671287,0.0441271,699,1191,-11.9439,-0.772451
-518,-167,-11.8528,0.865356,0.0119575,-0.00135063,0.00476729,0.013489,-0.00288214,0.31084,0.0100915,0.0445851,706,1191,-11.8528,-0.865382
-511,-167,0,0,0,0,0,0,0,0,0,-1,713,1191,0,0
-504,-167,0,0,0,0,0,0,0,0,0,-1,720,1191,0,0
-497,-167,0,0,0,0,0,0,0,0,0,-1,727,1191,0,0
-490,-167,0,0,0,0,0,0,0,0,0,-1,734,1191,0,0
-483,-167,0,0,0,0,0,0,0,0,0,-1,741,1191,0,0
-476,-167,0,0,0,0,0,0,0,0,0,-1,748,1191,0,0
-469,-167,0,0,0,0,0,0,0,0,0,-1,755,1191,0,0
-462,-167,0,0,0,0,0,0,0,0,0,-1,762,1191,0,0
-455,-167,0,0,0,0,0,0,0,0,0,-1,769,1191,0,0
-448,-167,0,0,0,0,0,0,0,0,0,-1,776,1191,0,0
-441,-167,0,0,0,0,0,0,0,0,0,-1,783,1191,0,0
-434,-167,0,0,0,0,0,0,0,0,0,-1,790,1191,0,0
-427,-167,0,0,0,0,0,0,0,0,0,-1,797,1191,0,0
-420,-167,0,0,0,0,0,0,0,0,0,-1,804,1191,0,0
-413,-167,0,0,0,0,0,0,0,0,0,-1,811,1191,0,0
-406,-167,0,0,0,0,0,0,0,0,0,-1,818,1191,0,0
-399,-167,0,0,0,0,0,0,0,0,0,-1,825,1191,0,0
-392,-167,0,0,0,0,0,0,0,0,0,-1,832,1191,0,0
-385,-167,0,0,0,0,0,0,0,0,0,-1,839,1191,0,0
-378,-167,0,0,0,0,0,0,0,0,0,-1,846,1191,0,0
-371,-167,0,0,0,0,0,0,0,0,0,-1,853,1191,0,0
-364,-167,0,0,0,0,0,0,0,0,0,-1,860,1191,0,0
-357,-167,0,0,0,0,0,0,0,0,0,-1,867,1191,0,0
-350,-167,0,0,0,0,0,0,0,0,0,-1,874,1191,0,0
-343,-167,0,0,0,0,0,0,0,0,0,-1,881,1191,0,0
-336,-167,0,0,0,0,0,0,0,0,0,-1,888,1191,0,0
-329,-167,0,0,0,0,0,0,0,0,0,-1,895,1191,0,0
-322,-167,0,0,0,0,0,0,0,0,0,-1,902,1191,0,0
-315,-167,0,0,0,0,0,0,0,0,0,-1,909,1191,0,0
-308,-167,0,0,0,0,0,0,0,0,0,-1,916,1191,0,0
-301,-167,0,0,0,0,0,0,0,0,0,-1,923,1191,0,0
-294,-167,0,0,0,0,0,0,0,0,0,-1,930,1191,0,0
-287,-167,0,0,0,0,0,0,0,0,0,-1,937,1191,0,0
-280,-167,0,0,0,0,0,0,0,0,0,-1,944,1191,0,0
-273,-167,0,0,0,0,0,0,0,0,0,-1,951,1191,0,0
-266,-167,0,0,0,0,0,0,0,0,0,-1,958,1191,0,0
-259,-167,0,0,0,0,0,0,0,0,0,-1,965,1191,0,0
-252,-167,0,0,0,0,0,0,0,0,0,-1,972,1191,0,0
-245,-167,0,0,0,0,0,0,0,0,0,-1,979,1191,0,0
-238,-167,0,0,0,0,0,0,0,0,0,-1,986,1191,0,0
-231,-167,0,0,0,0,0,0,0,0,0,-1,993,1191,0,0
-224,-167,0,0,0,0,0,0,0,0,0,-1,1000,1191,0,0
-217,-167,0,0,0,0,0,0,0,0,0,-1,1007,1191,0,0
-210,-167,0,0,0,0,0,0,0,0,0,-1,1014,1191,0,0
-203,-167,0,0,0,0,0,0,0,0,0,-1,1021,1191,0,0
-196,-167,0,0,0,0,0,0,0,0,0,-1,1028,1191,0,0
-189,-167,0,0,0,0,0,0,0,0,0,-1,1035,1191,0,0
-182,-167,0,0,0,0,0,0,0,0,0,-1,1042,1191,0,0
-175,-167,0,0,0,0,0,0,0,0,0,-1,1049,1191,0,0
-168,-167,0,0,0,0,0,0,0,0,0,-1,1056,1191,0,0
-161,-167,0,0,0,0,0,0,0,0,0,-1,1063,1191,0,0
-154,-167,0,0,0,0,0,0,0,0,0,-1,1070,1191,0,0
-147,-167,0,0,0,0,0,0,0,0,0,-1,1077,1191,0,0
-140,-167,0,0,0,0,0,0,0,0,0,-1,1084,1191,0,0
-133,-167,0,0,0,0,0,0,0,0,0,-1,1091,1191,0,0
-126,-167,0,0,0,0,0,0,0,0,0,-1,1098,1191,0,0
-119,-167,0,0,0,0,0,0,0,0,0,-1,1105,1191,0,0
-112,-167,0,0,0,0,0,0,0,0,0,-1,1112,1191,0,0
-105,-167,0,0,0,0,0,0,0,0,0,-1,1119,1191,0,0
-98,-167,0,0,0,0,0,0,0,0,0,-1,1126,1191,0,0
-91,-167,0,0,0,0,0,0,0,0,0,-1,1133,1191,0,0
-84,-167,0,0,0,0,0,0,0,0,0,-1,1140,1191,0,0
-77,-167,0,0,0,0,0,0,0,0,0,-1,1147,1191,0,0
-70,-167,0,0,0,0,0,0,0,0,0,-1,1154,1191,0,0
-63,-167,0,0,0,0,0,0,0,0,0,-1,1161,1191,0,0
-56,-167,0,0,0,0,0,0,0,0,0,-1,1168,1191,0,0
-49,-167,0,0,0,0,0,0,0,0,0,-1,1175,1191,0,0
-42,-167,0,0,0,0,0,0,0,0,0,-1,1182,1191,0,0
-35,-167,0,0,0,0,0,0,0,0,0,-1,1189,1191,0,0
-28,-167,0,0,0,0,0,0,0,0,0,-1,1196,1191,0,0
-21,-167,0,0,0,0,0,0,0,0,0,-1,1203,1191,0,0
-14,-167,0,0,0,0,0,0,0,0,0,-1,1210,1191,0,0
-7,-167,0,0,0,0,0,0,0,0,0,-1,1217,1191,0,0
0,-167,0,0,0,0,0,0,0,0,0,-1,1224,1191,0,0
7,-167,0,0,0,0,0,0,0,0,0,-1,1231,1191,0,0
14,-167,0,0,0,0,0,0,0,0,0,-1,1238,1191,0,0
21,-167,0,0,0,0,0,0,0,0,0,-1,1245,1191,0,0
28,-167,0,0,0,0,0,0,0,0,0,-1,1252,1191,0,0
35,-167,0,0,0,0,0,0,0,0,0,-1,1259,1191,0,0
42,-167,0,0,0,0,0,0,0,0,0,-1,1266,1191,0,0
49,-167,0,0,0,0,0,0,0,0,0,-1,1273,1191,0,0
56,-167,0,0,0,0,0,0,0,0,0,-1,1280,1191,0,0
63,-167,0,0,0,0,0,0,0,0,0,-1,1287,1191,0,0
70,-167,0,0,0,0,0,0,0,0,0,-1,1294,1191,0,0
77,-167,0,0,0,0,0,0,0,0,0,-1,1301,1191,0,0
84,-167,0,0,0,0,0,0,0,0,0,-1,1308,1191,0,0
91,-167,0,0,0,0,0,0,0,0,0,-1,1315,1191,0,0
98,-167,0,0,0,0,0,0,0,0,0,-1,1322,1191,0,0
105,-167,0,0,0,0,0,0,0,0,0,-1,1329,1191,0,0
112,-167,0,0,0,0,0,0,0,0,0,-1,1336,1191,0,0
119,-167,0,0,0,0,0,0,0,0,0,-1,1343,1191,0,0
126,-167,0,0,0,0,0,0,0,0,0,-1,1350,1191,0,0
133,-167,0,0,0,0,0,0,0,0,0,-1,1357,1191,0,0
140,-167,0,0,0,0,0,0,0,0,0,-1,1364,1191,0,0
147,-167,0,0,0,0,0,0,0,0,0,-1,1371,1191,0,0
154,-167,0,0,0,0,0,0,0,0,0,-1,1378,1191,0,0
161,-167,0,0,0,0,0,0,0,0,0,-1,1385,1191,0,0
168,-167,0,0,0,0,0,0,0,0,0,-1,1392,1191,0,0
175,-167,0,0,0,0,0,0,0,0,0,-1,1399,1191,0,0
182,-167,0,0,0,0,0,0,0,0,0,-1,1406,1191,0,0
189,-167,0,0,0,0,0,0,0,0,0,-1,1413,1191,0,0
196,-167,0,0,0,0,0,0,0,0,0,-1,1420,1191,0,0
203,-167,0,0,0,0,0,0,0,0,0,-1,1427,1191,0,0
210,-167,0,0,0,0,0,0,0,0,0,-1,1434,1191,0,0
217,-167,0,0,0,0,0,0,0,0,0,-1,1441,1191,0,0
224,-167,0,0,0,0,0,0,0,0,0,-1,1448,1191,0,0
231,-167,0,0,0,0,0,0,0,0,0,-1,1455,1191,0,0
238,-167,0,0,0,0,0,0,0,0,0,-1,1462,1191,0,0
245,-167,0,0,0,0,0,0,0,0,0,-1,1469,1191,0,0
252,-167,0,0,0,0,0,0,0,0,0,-1,1476,1191,0,0
259,-167,0,0,0,0,0,0,0,0,0,-1,1483,1191,0,0
266,-167,0,0,0,0,0,0,0,0,0,-1,1490,1191,0,0
273,-167,0,0,0,0,0,0,0,0,0,-1,1497,1191,0,0
280,-167,0,0,0,0,0,0,0,0,0,-1,1504,1191,0,0
287,-167,0,0,0,0,0,0,0,0,0,-1,1511,1191,0,0
294,-167,0,0,0,0,0,0,0,0,0,-1,1518,1191,0,0
301,-167,0,0,0,0,0,0,0,0,0,-1,1525,1191,0,0
308,-167,0,0,0,0,0,0,0,0,0,-1,1532,1191,0,0
315,-167,0,0,0,0,0,0,0,0,0,-1,1539,1191,0,0
322,-167,0,0,0,0,0,0,0,0,0,-1,1546,1191,0,0
329,-167,0,0,0,0,0,0,0,0,0,-1,1553,1191,0,0
336,-167,0,0,0,0,0,0,0,0,0,-1,1560,1191,0,0
343,-167,0,0,0,0,0,0,0,0,0,-1,1567,1191,0,0
350,-167,0,0,0,0,0,0,0,0,0,-1,1574,1191,0,0
357,-167,0,0,0,0,0,0,0,0,0,-1,1581,1191,0,0
364,-167,0,0,0,0,0,0,0,0,0,-1,1588,1191,0,0
371,-167,0,0,0,0,0,0,0,0,0,-1,1595,1191,0,0
378,-167,0,0,0,0,0,0,0,0,0,-1,1602,1191,0,0
385,-167,0,0,0,0,0,0,0,0,0,-1,1609,1191,0,0
392,-167,0,0,0,0,0,0,0,0,0,-1,1616,1191,0,0
399,-167,0,0,0,0,0,0,0,0,0,-1,1623,1191,0,0
406,-167,0,0,0,0,0,0,0,0,0,-1,1630,1191,0,0
413,-167,0,0,0,0,0,0,0,0,0,-1,1637,1191,0,0
420,-167,0,0,0,0,0,0,0,0,0,-1,1644,1191,0,0
427,-167,0,0,0,0,0,0,0,0,0,-1,1651,1191,0,0
434,-167,0,0,0,0,0,0,0,0,0,-1,1658,1191,0,0
441,-167,0,0,0,0,0,0,0,0,0,-1,1665,1191,0,0
448,-167,0,0,0,0,0,0,0,0,0,-1,1672,1191,0,0
455,-167,0,0,0,0,0,0,0,0,0,-1,1679,1191,0,0
462,-167,0,0,0,0,0,0,0,0,0,-1,1686,1191,0,0
469,-167,0,0,0,0,0,0,0,0,0,-1,1693,1191,0,0
476,-167,0,0,0,0,0,0,0,0,0,-1,1700,1191,0,0
483,-167,0,0,0,0,0,0,0,0,0,-1,1707,1191,0,0
490,-167,0,0,0,0,0,0,0,0,0,-1,1714,1191,0,0
497,-167,0,0,0,0,0,0,0,0,0,-1,1721,1191,0,0
504,-167,0,0,0,0,0,0,0,0,0,-1,1728,1191,0,0
511,-167,0,0,0,0,0,0,0,0,0,-1,1735,1191,0,0
518,-167,0,0,0,0,0,0,0,0,0,-1,1742,1191,0,0
525,-167,0,0,0,0,0,0,0,0,0,-1,1749,1191,0,0
532,-167,0,0,0,0,0,0,0,0,0,-1,1756,1191,0,0
539,-167,0,0,0,0,0,0,0,0,0,-1,1763,1191,0,0
546,-167,0,0,0,0,0,0,0,0,0,-1,1770,1191,0,0
553,-167,0,0,0,0,0,0,0,0,0,-1,1777,1191,0,0
560,-167,0,0,0,0,0,0,0,0,0,-1,1784,1191,0,0
567,-167,0,0,0,0,0,0,0,0,0,-1,1791,1191,0,0
574,-167,0,0,0,0,0,0,0,0,0,-1,1798,1191,0,0
581,-167,0,0,0,0,0,0,0,0,0,-1,1805,1191,0,0
588,-167,0,0,0,0,0,0,0,0,0,-1,1812,1191,0,0
595,-167,0,0,0,0,0,0,0,0,0,-1,1819,1191,0,0
602,-167,0,0,0,0,0,0,0,0,0,-1,1826,1191,0,0
609,-167,0,0,0,0,0,0,0,0,0,-1,1833,1191,0,0
616,-167,0,0,0,0,0,0,0,0,0,-1,1840,1191,0,0
623,-167,0,0,0,0,0,0,0,0,0,-1,1847,1191,0,0
630,-167,0,0,0,0,0,0,0,0,0,-1,1854,1191,0,0
637,-167,18.6063,2.53967,0.000860885,-0.000220705,0.00107287,0.00152156,-0.000881375,0.551952,0.00140365,0.040037,1861,1191,18.6063,-2.53973
644,-167,18.7479,2.68848,0.000720661,-0.000105345,0.000549499,0.000995059,-0.000379743,0.463136,0.000819814,0.0435577,1868,1191,18.7479,-2.68853
651,-167,18.7983,2.66504,0.000919967,3.87331e-05,-1.47913e-05,0.000920216,3.84848e-05,-0.0167785,0.00060106,0.0432112,1875,1191,18.7983,-2.665
658,-167,18.8638,2.71094,5.51923e-05,-0.000116676,0.000232447,0.000217081,-0.000278565,0.608343,0.000286895,0.0418627,1882,1191,18.8637,-2.71097
665,-167,18.8801,2.70532,-0.00113507,-0.000481311,0.000877163,0.000127901,-0.00174428,0.963754,0.00120775,0.0373411,1889,1191,18.8801,-2.70526
672,-167,18.7601,2.62744,-0.00235699,-0.000867005,0.00155461,0.000111905,-0.0033359,1.00884,0.00226216,0.0292979,1896,1191,18.7601,-2.62743
679,-167,18.7623,2.58093,-0.00351861,-0.00121787,0.00224929,0.000158146,-0.00489463,1.02178,0.00331706,0.0229503,1903,1191,18.7623,-2.5809
686,-167,18.782,2.59009,-0.00448526,-0.00160342,0.00278171,8.84153e-05,-0.00617709,1.02437,0.00414785,0.0318329,1910,1191,18.7819,-2.59004
693,-167,18.6777,2.96021,0,0,0,0,0,0,0,-1,1917,1191,18.6777,-2.96015
700,-167,17.8586,3.58704,-0.00558948,-0.00194758,0.00351724,0.000192131,-0.00772919,1.02426,0.00521801,0.0424923,1924,1191,17.8586,-3.58699
707,-167,17.1367,4.1842,-0.00588862,-0.0020658,0.00375324,0.000234716,-0.00818914,1.02092,0.00553932,0.0358322,1931,1191,17.1367,-4.18415
714,-167,17.3346,4.18799,-0.00610205,-0.0020391,0.00373963,0.000185211,-0.00832636,1.03421,0.00561366,0.0234584,1938,1191,17.3347,-4.18799
721,-167,17.3665,3.97168,-0.00589871,-0.00187582,0.00353112,0.000176565,-0.0079511,1.04429,0.00536056,0.0200727,1945,1191,17.3664,-3.97172
728,-167,17.2782,3.94312,-0.00524353,-0.00154441,0.00302955,0.000155543,-0.00694348,1.05945,0.0046817,0.0146656,1952,1191,17.2782,-3.9431
735,-167,17.2089,3.87524,-0.00447661,-0.000676859,0.00238362,0.000471404,-0.00562488,1.12187,0.00391652,0.0142513,1959,1191,17.2088,-3.8752
742,-167,17.1996,3.74866,-0.00364613,0.000868243,0.00120043,0.0011676,-0.00394549,1.3264,0.00309386,0.0146894,1966,1191,17.1996,-3.74864
749,-167,17.2133,3.63953,-0.0032368,0.0026206,-0.000847397,0.00274073,-0.00335693,-1.42997,0.00352647,0.0134915,1973,1191,17.2132,-3.63947
756,-167,17.2134,3.55212,-0.00233148,0.00562148,-0.00293633,0.00658812,-0.00329812,-1.25277,0.00581222,0.0102282,1980,1191,17.2134,-3.55217
763,-167,17.1804,3.45325,-0.00213717,0.00866796,-0.00518331,0.0107523,-0.00422156,-1.18845,0.00891506,0.0112971,1987,1191,17.1804,-3.45321
770,-167,17.1403,3.34521,-0.00250055,0.012317,-0.0077076,0.0155992,-0.00578276,-1.16821,0.0127712,0.0224619,1994,1191,17.1403,-3.34527
777,-167,17.1287,2.91943,-0.00315953,0.0167992,-0.0108458,0.0215582,-0.00791856,-1.15731,0.0176153,0.0399722,2001,1191,17.1287,-2.9194
784,-167,17.1536,2.62854,-0.00406928,0.0222228,-0.0147656,0.0288464,-0.0106929,-1.14912,0.0236164,0.046719,2008,1191,17.1535,-2.6285
791,-167,17.3074,2.65662,-0.00509779,0.0286493,-0.0195828,0.0376253,-0.0140739,-1.14101,0.0308637,0.0448496,2015,1191,17.3073,-2.65666
798,-167,17.5778,2.58545,-0.0058911,0.0361218,-0.0254305,0.0480998,-0.0178692,-1.13061,0.0393977,0.0464029,2022,1191,17.5777,-2.58545
805,-167,17.7369,2.34436,-0.00632412,0.044636,-0.0322896,0.0602881,-0.0219762,-1.11943,0.0491822,0.0476634,2029,1191,17.737,-2.34441
812,-167,0,0,0,0,0,0,0,0,0,-1,2036,1191,0,0
-700,-174,0,0,0,0,0,0,0,0,0,-1,524,1198,0,0
-693,-174,0,0,0,0,0,0,0,0,0,-1,531,1198,0,0
-686,-174,-9.87384,-4.26147,0,0,0,0,0,0,0,-1,538,1198,-9.87383,4.26149
-679,-174,-10.0004,1.78052,0,0,0,0,0,0,0,-1,545,1198,-10.0004,-1.78052
-672,-174,-10.0944,0.659302,-0.0468875,0.020203,0.0575443,0.0532658,-0.0799503,1.04929,0.077425,0.0466227,552,1198,-10.0944,-0.659255
-665,-174,-9.61316,-0.247803,0,0,0,0,0,0,0,-1,559,1198,-9.61318,0.247755
-658,-174,-9.50238,-0.192993,-0.0331894,0.0159057,0.0352544,0.0343169,-0.0516007,1.08952,0.049938,0.0432645,566,1198,-9.50235,0.193002
-651,-174,-10.956,1.43091,0,0,0,0,0,0,0,-1,573,1198,-10.956,-1.43088
-644,-174,-10.482,1.04077,-0.0193608,0.0110019,0.0183723,0.0196537,-0.0280126,1.13069,0.0276608,0.0416558,580,1198,-10.482,-1.04081
-637,-174,-10.1091,0.941284,-0.0136726,0.00892824,0.0123059,0.0143351,-0.0190795,1.15681,0.0193566,0.0214551,587,1198,-10.1091,-0.941234
-630,-174,-10.1629,1.05945,-0.00941688,0.00662126,0.00730547,0.00945002,-0.0122456,1.20136,0.0125606,0.0111005,594,1198,-10.1629,-1.05945
-623,-174,-10.1821,1.20044,-0.00719308,0.0042154,0.00308038,0.00499399,-0.00797167,1.32322,0.00755125,0.0130069,601,1198,-10.1821,-1.2004
-616,-174,-10.204,1.35376,-0.00588407,0.00222297,-0.000571295,0.00226304,-0.00592413,-1.50079,0.00488186,0.0191989,608,1198,-10.204,-1.35381
-609,-174,-10.2236,1.48218,-0.00519567,0.00101171,-0.00392306,0.00291034,-0.00709431,-1.12006,0.00594217,0.0208302,615,1198,-10.2237,-1.48217
-602,-174,-10.2427,1.58069,-0.00569236,0.000128942,-0.00581581,0.00372179,-0.00928521,-1.01741,0.00773518,0.0136228,622,1198,-10.2427,-1.58067
-595,-174,-10.1945,1.7356,-0.00711737,-0.000896011,-0.00731148,0.00393901,-0.0119524,-0.986525,0.00955582,0.0129751,629,1198,-10.1945,-1.73559
-588,-174,-10.2235,1.87537,-0.00811866,-0.00154541,-0.00871667,0.00448366,-0.0141477,-0.965682,0.0112288,0.0146165,636,1198,-10.2235,-1.87537
-581,-174,-10.2467,1.99451,-0.00830557,-0.0018326,-0.00985297,0.00530183,-0.01544,-0.944085,0.012443,0.0166641,643,1198,-10.2467,-1.99453
-574,-174,-10.6107,2.05737,-0.00780611,-0.00191726,-0.0104567,0.00600165,-0.015725,-0.922636,0.0129559,0.0409392,650,1198,-10.6107,-2.0574
-567,-174,-11.0781,1.8573,-0.00717235,-0.00188456,-0.0105524,0.00635009,-0.015407,-0.908146,0.0129191,0.0469747,657,1198,-11.0781,-1.85726
-560,-174,-11.3483,-0.315674,-0.00617594,-0.00167089,-0.0103563,0.00667504,-0.0145219,-0.892482,0.0125144,0.0423315,664,1198,-11.3483,0.315622
-553,-174,-11.8711,0.615112,-0.00453662,-0.00134218,-0.00959902,0.0067916,-0.0126704,-0.86784,0.011406,0.0360988,671,1198,-11.8711,-0.615139
-546,-174,-11.9356,0.7146,-0.00221663,-0.00096088,-0.00815993,0.0065953,-0.00977281,-0.823796,0.0095093,0.0316529,678,1198,-11.9356,-0.714568
-539,-174,-11.9594,0.837891,0.000734438,-0.000452851,-0.0060078,0.00617785,-0.00589626,-0.736152,0.00697162,0.0372695,685,1198,-11.9594,-0.837936
-532,-174,-11.916,0.921631,0.00436423,0.000193226,-0.00306881,0.00598911,-0.00143165,-0.486953,0.00454574,0.0447026,692,1198,-11.916,-0.921616
-525,-174,-11.8637,1.05188,0.0081704,0.000960929,0.000510097,0.00820631,0.000925017,0.0702871,0.00519009,0.0440033,699,1198,-11.8637,-1.05183
-518,-174,-11.7872,1.26038,0.0101975,0.00134139,0.00354608,0.0114424,9.64953e-05,0.337621,0.0075963,0.0431369,706,1198,-11.7872,-1.2604
-511,-174,0,0,0,0,0,0,0,0,0,-1,713,1198,0,0
-504,-174,0,0,0,0,0,0,0,0,0,-1,720,1198,0,0
-497,-174,0,0,0,0,0,0,0,0,0,-1,727,1198,0,0
-490,-174,0,0,0,0,0,0,0,0,0,-1,734,1198,0,0
-483,-174,0,0,0,0,0,0,0,0,0,-1,741,1198,0,0
-476,-174,0,0,0,0,0,0,0,0,0,-1,748,1198,0,0
-469,-174,0,0,0,0,0,0,0,0,0,-1,755,1198,0,0
-462,-174,0,0,0,0,0,0,0,0,0,-1,762,1198,0,0
-455,-174,0,0,0,0,0,0,0,0,0,-1,769,1198,0,0
-448,-174,0,0,0,0,0,0,0,0,0,-1,776,1198,0,0
-441,-174,0,0,0,0,0,0,0,0,0,-1,783,1198,0,0
-434,-174,0,0,0,0,0,0,0,0,0,-1,790,1198,0,0
-427,-174,0,0,0,0,0,0,0,0,0,-1,797,1198,0,0
-420,-174,0,0,0,0,0,0,0,0,0,-1,804,1198,0,0
-413,-174,0,0,0,0,0,0,0,0,0,-1,811,1198,0,0
-406,-174,0,0,0,0,0,0,0,0,0,-1,818,1198,0,0
-399,-174,0,0,0,0,0,0,0,0,0,-1,825,1198,0,0
-392,-174,0,0,0,0,0,0,0,0,0,-1,832,1198,0,0
-385,-174,0,0,0,0,0,0,0,0,0,-1,839,1198,0,0
-378,-174,0,0,0,0,0,0,0,0,0,-1,846,1198,0,0
-371,-174,0,0,0,0,0,0,0,0,0,-1,853,1198,0,0
-364,-174,0,0,0,0,0,0,0,0,0,-1,860,1198,0,0
-357,-174,0,0,0,0,0,0,0,0,0,-1,867,1198,0,0
-350,-174,0,0,0,0,0,0,0,0,0,-1,874,1198,0,0
-343,-174,0,0,0,0,0,0,0,0,0,-1,881,1198,0,0
-336,-174,0,0,0,0,0,0,0,0,0,-1,888,1198,0,0
-329,-174,0,0,0,0,0,0,0,0,0,-1,895,1198,0,0
-322,-174,0,0,0,0,0,0,0,0,0,-1,902,1198,0,0
-315,-174,0,0,0,0,0,0,0,0,0,-1,909,1198,0,0
-308,-174,0,0,0,0,0,0,0,0,0,-1,916,1198,0,0
-301,-174,0,0,0,0,0,0,0,0,0,-1,923,1198,0,0
-294,-174,0,0,0,0,0,0,0,0,0,-1,930,1198,0,0
-287,-174,0,0,0,0,0,0,0,0,0,-1,937,1198,0,0
-280,-174,0,0,0,0,0,0,0,0,0,-1,944,1198,0,0
-273,-174,0,0,0,0,0,0,0,0,0,-1,951,1198,0,0
-266,-174,0,0,0,0,0,0,0,0,0,-1,958,1198,0,0
-259,-174,0,0,0,0,0,0,0,0,0,-1,965,1198,0,0
-252,-174,0,0,0,0,0,0,0,0,0,-1,972,1198,0,0
-245,-174,0,0,0,0,0,0,0,0,0,-1,979,1198,0,0
-238,-174,0,0,0,0,0,0,0,0,0,-1,986,1198,0,0
-231,-174,0,0,0,0,0,0,0,0,0,-1,993,1198,0,0
-224,-174,0,0,0,0,0,0,0,0,0,-1,1000,1198,0,0
-217,-174,0,0,0,0,0,0,0,0,0,-1,1007,1198,0,0
-210,-174,0,0,0,0,0,0,0,0,0,-1,1014,1198,0,0
-203,-174,0,0,0,0,0,0,0,0,0,-1,1021,1198,0,0
-196,-174,0,0,0,0,0,0,0,0,0,-1,1028,1198,0,0
-189,-174,0,0,0,0,0,0,0,0,0,-1,1035,1198,0,0
-182,-174,0,0,0,0,0,0,0,0,0,-1,1042,1198,0,0
-175,-174,0,0,0,0,0,0,0,0,0,-1,1049,1198,0,0
-168,-174,0,0,0,0,0,0,0,0,0,-1,1056,1198,0,0
-161,-174,0,0,0,0,0,0,0,0,0,-1,1063,1198,0,0
-154,-174,0,0,0,0,0,0,0,0,0,-1,1070,1198,0,0
-147,-174,0,0,0,0,0,0,0,0,0,-1,1077,1198,0,0
-140,-174,0,0,0,0,0,0,0,0,0,-1,1084,1198,0,0
-133,-174,0,0,0,0,0,0,0,0,0,-1,1091,1198,0,0
-126,-174,0,0,0,0,0,0,0,0,0,-1,1098,1198,0,0
-119,-174,0,0,0,0,0,0,0,0,0,-1,1105,1198,0,0
-112,-174,0,0,0,0,0,0,0,0,0,-1,1112,1198,0,0
-105,-174,0,0,0,0,0,0,0,0,0,-1,1119,1198,0,0
-98,-174,0,0,0,0,0,0,0,0,0,-1,1126,1198,0,0
-91,-174,0,0,0,0,0,0,0,0,0,-1,1133,1198,0,0
-84,-174,0,0,0,0,0,0,0,0,0,-1,1140,1198,0,0
-77,-174,0,0,0,0,0,0,0,0,0,-1,1147,1198,0,0
-70,-174,0,0,0,0,0,0,0,0,0,-1,1154,1198,0,0
-63,-174,0,0,0,0,0,0,0,0,0,-1,1161,1198,0,0
-56,-174,0,0,0,0,0,0,0,0,0,-1,1168,1198,0,0
-49,-174,0,0,0,0,0,0,0,0,0,-1,1175,1198,0,0
-42,-174,0,0,0,0,0,0,0,0,0,-1,1182,1198,0,0
-35,-174,0,0,0,0,0,0,0,0,0,-1,1189,1198,0,0
-28,-174,0,0,0,0,0,0,0,0,0,-1,1196,1198,0,0
-21,-174,0,0,0,0,0,0,0,0,0,-1,1203,1198,0,0
-14,-174,0,0,0,0,0,0,0,0,0,-1,1210,1198,0,0
-7,-174,0,0,0,0,0,0,0,0,0,-1,1217,1198,0,0
0,-174,0,0,0,0,0,0,0,0,0,-1,1224,1198,0,0
7,-174,0,0,0,0,0,0,0,0,0,-1,1231,1198,0,0
14,-174,0,0,0,0,0,0,0,0,0,-1,1238,1198,0,0
21,-174,0,0,0,0,0,0,0,0,0,-1,1245,1198,0,0
28,-174,0,0,0,0,0,0,0,0,0,-1,1252,1198,0,0
35,-174,0,0,0,0,0,0,0,0,0,-1,1259,1198,0,0
42,-174,0,0,0,0,0,0,0,0,0,-1,1266,1198,0,0
49,-174,0,0,0,0,0,0,0,0,0,-1,1273,1198,0,0
56,-174,0,0,0,0,0,0,0,0,0,-1,1280,1198,0,0
63,-174,0,0,0,0,0,0,0,0,0,-1,1287,1198,0,0
70,-174,0,0,0,0,0,0,0,0,0,-1,1294,1198,0,0
77,-174,0,0,0,0,0,0,0,0,0,-1,1301,1198,0,0
84,-174,0,0,0,0,0,0,0,0,0,-1,1308,1198,0,0
91,-174,0,0,0,0,0,0,0,0,0,-1,1315,1198,0,0
98,-174,0,0,0,0,0,0,0,0,0,-1,1322,1198,0,0
105,-174,0,0,0,0,0,0,0,0,0,-1,1329,1198,0,0
112,-174,0,0,0,0,0,0,0,0,0,-1,1336,1198,0,0
119,-174,0,0,0,0,0,0,0,0,0,-1,1343,1198,0,0
126,-174,0,0,0,0,0,0,0,0,0,-1,1350,1198,0,0
133,-174,0,0,0,0,0,0,0,0,0,-1,1357,1198,0,0
140,-174,0,0,0,0,0,0,0,0,0,-1,1364,1198,0,0
147,-174,0,0,0,0,0,0,0,0,0,-1,1371,1198,0,0
154,-174,0,0,0,0,0,0,0,0,0,-1,1378,1198,0,0
161,-174,0,0,0,0,0,0,0,0,0,-1,1385,1198,0,0
168,-174,0,0,0,0,0,0,0,0,0,-1,1392,1198,0,0
175,-174,0,0,0,0,0,0,0,0,0,-1,1399,1198,0,0
182,-174,0,0,0,0,0,0,0,0,0,-1,1406,1198,0,0
189,-174,0,0,0,0,0,0,0,0,0,-1,1413,1198,0,0
196,-174,0,0,0,0,0,0,0,0,0,-1,1420,1198,0,0
203,-174,0,0,0,0,0,0,0,0,0,-1,1427,1198,0,0
210,-174,0,0,0,0,0,0,0,0,0,-1,1434,1198,0,0
217,-174,0,0,0,0,0,0,0,0,0,-1,1441,1198,0,0
224,-174,0,0,0,0,0,0,0,0,0,-1,1448,1198,0,0
231,-174,0,0,0,0,0,0,0,0,0,-1,1455,1198,0,0
238,-174,0,0,0,0,0,0,0,0,0,-1,1462,1198,0,0
245,-174,0,0,0,0,0,0,0,0,0,-1,1469,1198,0,0
252,-174,0,0,0,0,0,0,0,0,0,-1,1476,1198,0,0
259,-174,0,0,0,0,0,0,0,0,0,-1,1483,1198,0,0
266,-174,0,0,0,0,0,0,0,0,0,-1,1490,1198,0,0
273,-174,0,0,0,0,0,0,0,0,0,-1,1497,1198,0,0
280,-174,0,0,0,0,0,0,0,0,0,-1,1504,1198,0,0
287,-174,0,0,0,0,0,0,0,0,0,-1,1511,1198,0,0
294,-174,0,0,0,0,0,0,0,0,0,-1,1518,1198,0,0
301,-174,0,0,0,0,0,0,0,0,0,-1,1525,1198,0,0
308,-174,0,0,0,0,0,0,0,0,0,-1,1532,1198,0,0
315,-174,0,0,0,0,0,0,0,0,0,-1,1539,1198,0,0
322,-174,0,0,0,0,0,0,0,0,0,-1,1546,1198,0,0
329,-174,0,0,0,0,0,0,0,0,0,-1,1553,1198,0,0
336,-174,0,0,0,0,0,0,0,0,0,-1,1560,1198,0,0
343,-174,0,0,0,0,0,0,0,0,0,-1,1567,1198,0,0
350,-174,0,0,0,0,0,0,0,0,0,-1,1574,1198,0,0
357,-174,0,0,0,0,0,0,0,0,0,-1,1581,1198,0,0
364,-174,0,0,0,0,0,0,0,0,0,-1,1588,1198,0,0
371,-174,0,0,0,0,0,0,0,0,0,-1,1595,1198,0,0
378,-174,0,0,0,0,0,0,0,0,0,-1,1602,1198,0,0
385,-174,0,0,0,0,0,0,0,0,0,-1,1609,1198,0,0
392,-174,0,0,0,0,0,0,0,0,0,-1,1616,1198,0,0
399,-174,0,0,0,0,0,0,0,0,0,-1,1623,1198,0,0
406,-174,0,0,0,0,0,0,0,0,0,-1,1630,1198,0,0
413,-174,0,0,0,0,0,0,0,0,0,-1,1637,1198,0,0
420,-174,0,0,0,0,0,0,0,0,0,-1,1644,1198,0,0
427,-174,0,0,0,0,0,0,0,0,0,-1,1651,1198,0,0
434,-174,0,0,0,0,0,0,0,0,0,-1,1658,1198,0,0
441,-174,0,0,0,0,0,0,0,0,0,-1,1665,1198,0,0
448,-174,0,0,0,0,0,0,0,0,0,-1,1672,1198,0,0
455,-174,0,0,0,0,0,0,0,0,0,-1,1679,1198,0,0
462,-174,0,0,0,0,0,0,0,0,0,-1,1686,1198,0,0
469,-174,0,0,0,0,0,0,0,0,0,-1,1693,1198,0,0
476,-174,0,0,0,0,0,0,0,0,0,-1,1700,1198,0,0
483,-174,0,0,0,0,0,0,0,0,0,-1,1707,1198,0,0
490,-174,0,0,0,0,0,0,0,0,0,-1,1714,1198,0,0
497,-174,0,0,0,0,0,0,0,0,0,-1,1721,1198,0,0
504,-174,0,0,0,0,0,0,0,0,0,-1,1728,1198,0,0
511,-174,0,0,0,0,0,0,0,0,0,-1,1735,1198,0,0
518,-174,0,0,0,0,0,0,0,0,0,-1,1742,1198,0,0
525,-174,0,0,0,0,0,0,0,0,0,-1,1749,1198,0,0
532,-174,0,0,0,0,0,0,0,0,0,-1,1756,1198,0,0
539,-174,0,0,0,0,0,0,0,0,0,-1,1763,1198,0,0
546,-174,0,0,0,0,0,0,0,0,0,-1,1770,1198,0,0
553,-174,0,0,0,0,0,0,0,0,0,-1,1777,1198,0,0
560,-174,0,0,0,0,0,0,0,0,0,-1,1784,1198,0,0
567,-174,0,0,0,0,0,0,0,0,0,-1,1791,1198,0,0
574,-174,0,0,0,0,0,0,0,0,0,-1,1798,1198,0,0
581,-174,0,0,0,0,0,0,0,0,0,-1,1805,1198,0,0
588,-174,0,0,0,0,0,0,0,0,0,-1,1812,1198,0,0
595,-174,0,0,0,0,0,0,0,0,0,-1,1819,1198,0,0
602,-174,0,0,0,0,0,0,0,0,0,-1,1826,1198,0,0
609,-174,0,0,0,0,0,0,0,0,0,-1,1833,1198,0,0
616,-174,0,0,0,0,0,0,0,0,0,-1,1840,1198,0,0
623,-174,0,0,0,0,0,0,0,0,0,-1,1847,1198,0,0
630,-174,0,0,0,0,0,0,0,0,0,-1,1854,1198,0,0
637,-174,18.9716,2.64197,0.00071102,-5.30761e-06,0.000631005,0.00107842,-0.000372712,0.527267,0.000870212,0.0408646,1861,1198,18.9716,-2.64192
644,-174,18.8689,2.59253,0.00070211,0.000129383,0.000215442,0.000774103,5.73902e-05,0.322498,0.000498042,0.0401428,1868,1198,18.8689,-2.59254
651,-174,18.7429,2.48413,0.000743919,0.000216347,-0.000143233,0.000780297,0.000179969,-0.248722,0.000471793,0.0394694,1875,1198,18.743,-2.48416
658,-174,18.7063,2.59583,-0.00018922,-2.98312e-05,0.000225331,0.000129483,-0.000348534,0.955372,0.000285479,0.0370261,1882,1198,18.7063,-2.59578
665,-174,18.7614,2.7489,-0.00127079,-0.000408421,0.00084758,0.000111347,-0.00179056,1.0207,0.0012325,0.0327956,1889,1198,18.7613,-2.74895
672,-174,18.6796,2.66895,-0.00236496,-0.000804817,0.00147518,8.38458e-05,-0.00325363,1.02861,0.00219757,0.0259222,1896,1198,18.6795,-2.669
679,-174,18.7378,2.58362,-0.00338431,-0.00113996,0.00212888,0.000144407,-0.00466867,1.02795,0.00316168,0.0227049,1903,1198,18.7378,-2.58362
686,-174,18.7942,2.604,0,0,0,0,0,0,0,-1,1910,1198,18.7942,-2.60405
693,-174,18.6179,3.17896,0,0,0,0,0,0,0,-1,1917,1198,18.6179,-3.17895
700,-174,17.9215,3.5813,-0.0052482,-0.00182312,0.00328074,0.000165155,-0.00723648,1.02594,0.0048803,0.0474981,1924,1198,17.9215,-3.58129
707,-174,17.2043,4.21741,-0.00549479,-0.00191304,0.00349477,0.000222998,-0.00763082,1.02217,0.00516315,0.0360181,1931,1198,17.2043,-4.21735
714,-174,17.2538,4.19067,-0.00565522,-0.00189318,0.00346949,0.000172399,-0.00772079,1.0338,0.00520561,0.021945,1938,1198,17.2538,-4.1907
721,-174,17.215,4.06738,-0.00541973,-0.00171175,0.00327131,0.000194406,-0.00732589,1.0432,0.00495,0.0165975,1945,1198,17.2149,-4.06736
728,-174,17.1124,3.98035,-0.00473941,-0.00137713,0.00276372,0.000176592,-0.00629314,1.05864,0.00425551,0.0117575,1952,1198,17.1124,-3.98035
735,-174,17.0875,3.87268,-0.00393109,-0.000491041,0.00213168,0.000528015,-0.00495014,1.12486,0.00348944,0.0114827,1959,1198,17.0875,-3.87269
742,-174,17.0697,3.75439,-0.00295353,0.00105556,0.000975844,0.00128047,-0.00317844,1.34427,0.00265095,0.0192511,1966,1198,17.0697,-3.75441
749,-174,17.1051,3.65283,-0.0023544,0.00274053,-0.00100204,0.00293052,-0.00254439,-1.38342,0.00316356,0.0168935,1973,1198,17.1051,-3.65279
756,-174,17.0955,3.54138,-0.0012746,0.00541734,-0.00298828,0.0065575,-0.00241476,-1.2063,0.00536104,0.010022,1980,1198,17.0955,-3.5414
763,-174,17.0511,3.4342,-0.000815409,0.0082013,-0.00507388,0.0104804,-0.00309451,-1.14862,0.00821506,0.0120583,1987,1198,17.0512,-3.43423
770,-174,17.0406,3.29907,-0.000707982,0.0115369,-0.00746242,0.015067,-0.00423812,-1.12894,0.0117157,0.0235262,1994,1198,17.0407,-3.2991
777,-174,17.0944,2.89209,-0.000649565,0.0155891,-0.0104572,0.020709,-0.00576942,-1.1155,0.016078,0.0447176,2001,1198,17.0944,-2.89211
784,-174,17.1989,2.85632,0,0,0,0,0,0,0,-1,2008,1198,17.1988,-2.85633
791,-174,17.4153,2.87732,0,0,0,0,0,0,0,-1,2015,1198,17.4153,-2.87737
798,-174,17.8088,2.83386,0.000287351,0.0320375,-0.0242494,0.045146,-0.0128212,-1.07522,0.0351591,0.0488499,2022,1198,17.8088,-2.8339
805,-174,17.9338,2.53052,0.00172011,0.0385954,-0.0307632,0.0560231,-0.0157076,-1.05537,0.0435395,0.0445439,2029,1198,17.9338,-2.53056
812,-174,0,0,0,0,0,0,0,0,0,-1,2036,1198,0,0
-700,-181,0,0,0,0,0,0,0,0,0,-1,524,1205,0,0
-693,-181,0,0,0,0,0,0,0,0,0,-1,531,1205,0,0
-686,-181,-10.8834,-4.55945,0,0,0,0,0,0,0,-1,538,1205,-10.8834,4.55944
-679,-181,-10.0665,2.02234,0,0,0,0,0,0,0,-1,545,1205,-10.0664,-2.02237
-672,-181,-10.0602,1.05432,0,0,0,0,0,0,0,-1,552,1205,-10.0602,-1.05438
-665,-181,-9.78894,0.402344,0,0,0,0,0,0,0,-1,559,1205,-9.78892,-0.402365
-658,-181,-9.6814,-0.169434,0,0,0,0,0,0,0,-1,566,1205,-9.68142,0.169457
-651,-181,-9.87836,0.635864,0,0,0,0,0,0,0,-1,573,1205,-9.87833,-0.635878
-644,-181,-9.91101,0.771484,-0.0143358,0.0104139,0.0153708,0.0177722,-0.0216941,1.12432,0.0228234,0.045656,580,1205,-9.91099,-0.771429
-637,-181,-9.95575,0.910645,-0.0102219,0.00835524,0.0102478,0.0128976,-0.0147643,1.15357,0.0159827,0.0234277,587,1205,-9.95576,-0.910661
-630,-181,-10.0239,1.05334,-0.00713342,0.00620001,0.00610396,0.00857229,-0.0095057,1.20012,0.010442,0.0114485,594,1205,-10.0239,-1.05334
-623,-181,-10.0623,1.19849,-0.00567344,0.00398693,0.00260549,0.00464485,-0.00633136,1.32345,0.006362,0.0138142,601,1205,-10.0623,-1.19852
-616,-181,-10.0496,1.33716,-0.00470449,0.00214474,-0.000512347,0.00218286,-0.0047426,-1.49654,0.00408844,0.0141196,608,1205,-10.0496,-1.3372
-609,-181,-10.0582,1.47754,-0.004234,0.000969525,-0.00346007,0.00269688,-0.00596135,-1.10777,0.00511589,0.013832,615,1205,-10.0582,-1.47753
-602,-181,-10.0611,1.60962,-0.0047036,0.000189309,-0.00520562,0.00349469,-0.00800898,-1.00506,0.00680998,0.0119294,622,1205,-10.0611,-1.60959
-595,-181,-10.0569,1.73706,-0.00586554,-0.000987374,-0.00664721,0.00365412,-0.010507,-0.961238,0.00848905,0.0118042,629,1205,-10.0569,-1.73707
-588,-181,-10.0718,1.91357,-0.00656418,-0.00180253,-0.00809487,0.00425437,-0.0126211,-0.928423,0.0101343,0.0121072,636,1205,-10.0719,-1.91354
-581,-181,-10.079,2.10596,-0.0064249,-0.00222199,-0.009242,0.00515446,-0.0138014,-0.897188,0.0113173,0.0141431,643,1205,-10.079,-2.1059
-574,-181,-10.3249,2.17029,-0.00565448,-0.00242365,-0.00982246,0.00591535,-0.0139935,-0.866899,0.0118056,0.0351546,650,1205,-10.3249,-2.17031
-567,-181,-10.488,1.99878,-0.00483033,-0.0024709,-0.00991212,0.00633147,-0.0136327,-0.844628,0.0117804,0.047928,657,1205,-10.488,-1.99883
-560,-181,-10.5627,-0.655518,-0.00377725,-0.0023382,-0.00981025,0.00677887,-0.0128943,-0.822005,0.0115398,0.0486406,664,1205,-10.5627,0.655514
-553,-181,-11.9315,0.734375,-0.00226842,-0.0020522,-0.00928539,0.00712571,-0.0114463,-0.791219,0.0108189,0.0423387,671,1205,-11.9315,-0.734387
-546,-181,-11.9658,0.760742,-0.00025171,-0.00167758,-0.00818996,0.00725629,-0.00918558,-0.741983,0.00951448,0.0355278,678,1205,-11.9658,-0.760683
-539,-181,-11.9385,0.855347,0.00214809,-0.00108712,-0.00650569,0.00723426,-0.00617329,-0.663547,0.00774893,0.0383025,685,1205,-11.9385,-0.855395
-532,-181,-11.8292,0.880249,0.00492897,-0.000232726,-0.0041352,0.00722261,-0.00252636,-0.506416,0.0058422,0.0433031,692,1205,-11.8292,-0.880219
-525,-181,-11.7614,0.989258,0.00774562,0.000950913,-0.00107964,0.00791304,0.000783489,-0.153848,0.00503456,0.042477,699,1205,-11.7614,-0.989241
-518,-181,-11.7548,1.08728,0.00903819,0.00222419,0.00182788,0.00949756,0.00176483,0.246212,0.00583311,0.0423965,706,1205,-11.7548,-1.08722
-511,-181,0,0,0,0,0,0,0,0,0,-1,713,1205,0,0
-504,-181,0,0,0,0,0,0,0,0,0,-1,720,1205,0,0
-497,-181,0,0,0,0,0,0,0,0,0,-1,727,1205,0,0
-490,-181,0,0,0,0,0,0,0,0,0,-1,734,1205,0,0
-483,-181,0,0,0,0,0,0,0,0,0,-1,741,1205,0,0
-476,-181,0,0,0,0,0,0,0,0,0,-1,748,1205,0,0
-469,-181,0,0,0,0,0,0,0,0,0,-1,755,1205,0,0
-462,-181,0,0,0,0,0,0,0,0,0,-1,762,1205,0,0
-455,-181,0,0,0,0,0,0,0,0,0,-1,769,1205,0,0
-448,-181,0,0,0,0,0,0,0,0,0,-1,776,1205,0,0
-441,-181,0,0,0,0,0,0,0,0,0,-1,783,1205,0,0
-434,-181,0,0,0,0,0,0,0,0,0,-1,790,1205,0,0
-427,-181,0,0,0,0,0,0,0,0,0,-1,797,1205,0,0
-420,-181,0,0,0,0,0,0,0,0,0,-1,804,1205,0,0
-413,-181,0,0,0,0,0,0,0,0,0,-1,811,1205,0,0
-406,-181,0,0,0,0,0,0,0,0,0,-1,818,1205,0,0
-399,-181,0,0,0,0,0,0,0,0,0,-1,825,1205,0,0
-392,-181,0,0,0,0,0,0,0,0,0,-1,832,1205,0,0
-385,-181,0,0,0,0,0,0,0,0,0,-1,839,1205,0,0
-378,-181,0,0,0,0,0,0,0,0,0,-1,846,1205,0,0
-371,-181,0,0,0,0,0,0,0,0,0,-1,853,1205,0,0
-364,-181,0,0,0,0,0,0,0,0,0,-1,860,1205,0,0
-357,-181,0,0,0,0,0,0,0,0,0,-1,867,1205,0,0
-350,-181,0,0,0,0,0,0,0,0,0,-1,874,1205,0,0
-343,-181,0,0,0,0,0,0,0,0,0,-1,881,1205,0,0
-336,-181,0,0,0,0,0,0,0,0,0,-1,888,1205,0,0
-329,-181,0,0,0,0,0,0,0,0,0,-1,895,1205,0,0
-322,-181,0,0,0,0,0,0,0,0,0,-1,902,1205,0,0
-315,-181,0,0,0,0,0,0,0,0,0,-1,909,1205,0,0
-308,-181,0,0,0,0,0,0,0,0,0,-1,916,1205,0,0
-301,-181,0,0,0,0,0,0,0,0,0,-1,923,1205,0,0
-294,-181,0,0,0,0,0,0,0,0,0,-1,930,1205,0,0
-287,-181,0,0,0,0,0,0,0,0,0,-1,937,1205,0,0
-280,-181,0,0,0,0,0,0,0,0,0,-1,944,1205,0,0
-273,-181,0,0,0,0,0,0,0,0,0,-1,951,1205,0,0
-266,-181,0,0,0,0,0,0,0,0,0,-1,958,1205,0,0
-259,-181,0,0,0,0,0,0,0,0,0,-1,965,1205,0,0
-252,-181,0,0,0,0,0,0,0,0,0,-1,972,1205,0,0
-245,-181,0,0,0,0,0,0,0,0,0,-1,979,1205,0,0
-238,-181,0,0,0,0,0,0,0,0,0,-1,986,1205,0,0
-231,-181,0,0,0,0,0,0,0,0,0,-1,993,1205,0,0
-224,-181,0,0,0,0,0,0,0,0,0,-1,1000,1205,0,0
-217,-181,0,0,0,0,0,0,0,0,0,-1,1007,1205,0,0
-210,-181,0,0,0,0,0,0,0,0,0,-1,1014,1205,0,0
-203,-181,0,0,0,0,0,0,0,0,0,-1,1021,1205,0,0
-196,-181,0,0,0,0,0,0,0,0,0,-1,1028,1205,0,0
-189,-181,0,0,0,0,0,0,0,0,0,-1,1035,1205,0,0
-182,-181,0,0,0,0,0,0,0,0,0,-1,1042,1205,0,0
-175,-181,0,0,0,0,0,0,0,0,0,-1,1049,1205,0,0
-168,-181,0,0,0,0,0,0,0,0,0,-1,1056,1205,0,0
-161,-181,0,0,0,0,0,0,0,0,0,-1,1063,1205,0,0
-154,-181,0,0,0,0,0,0,0,0,0,-1,1070,1205,0,0
-147,-181,0,0,0,0,0,0,0,0,0,-1,1077,1205,0,0
-140,-181,0,0,0,0,0,0,0,0,0,-1,1084,1205,0,0
-133,-181,0,0,0,0,0,0,0,0,0,-1,1091,1205,0,0
-126,-181,0,0,0,0,0,0,0,0,0,-1,1098,1205,0,0
-119,-181,0,0,0,0,0,0,0,0,0,-1,1105,1205,0,0
-112,-181,0,0,0,0,0,0,0,0,0,-1,1112,1205,0,0
-105,-181,0,0,0,0,0,0,0,0,0,-1,1119,1205,0,0
-98,-181,0,0,0,0,0,0,0,0,0,-1,1126,1205,0,0
-91,-181,0,0,0,0,0,0,0,0,0,-1,1133,1205,0,0
-84,-181,0,0,0,0,0,0,0,0,0,-1,1140,1205,0,0
-77,-181,0,0,0,0,0,0,0,0,0,-1,1147,1205,0,0
-70,-181,0,0,0,0,0,0,0,0,0,-1,1154,1205,0,0
-63,-181,0,0,0,0,0,0,0,0,0,-1,1161,1205,0,0
-56,-181,0,0,0,0,0,0,0,0,0,-1,1168,1205,0,0
-49,-181,0,0,0,0,0,0,0,0,0,-1,1175,1205,0,0
-42,-181,0,0,0,0,0,0,0,0,0,-1,1182,1205,0,0
-35,-181,0,0,0,0,0,0,0,0,0,-1,1189,1205,0,0
-28,-181,0,0,0,0,0,0,0,0,0,-1,1196,1205,0,0
-21,-181,0,0,0,0,0,0,0,0,0,-1,1203,1205,0,0
-14,-181,0,0,0,0,0,0,0,0,0,-1,1210,1205,0,0
-7,-181,0,0,0,0,0,0,0,0,0,-1,1217,1205,0,0
0,-181,0,0,0,0,0,0,0,0,0,-1,1224,1205,0,0
7,-181,0,0,0,0,0,0,0,0,0,-1,1231,1205,0,0
14,-181,0,0,0,0,0,0,0,0,0,-1,1238,1205,0,0
21,-181,0,0,0,0,0,0,0,0,0,-1,1245,1205,0,0
28,-181,0,0,0,0,0,0,0,0,0,-1,1252,1205,0,0
35,-181,0,0,0,0,0,0,0,0,0,-1,1259,1205,0,0
42,-181,0,0,0,0,0,0,0,0,0,-1,1266,1205,0,0
49,-181,0,0,0,0,0,0,0,0,0,-1,1273,1205,0,0
56,-181,0,0,0,0,0,0,0,0,0,-1,1280,1205,0,0
63,-181,0,0,0,0,0,0,0,0,0,-1,1287,1205,0,0
70,-181,0,0,0,0,0,0,0,0,0,-1,1294,1205,0,0
77,-181,0,0,0,0,0,0,0,0,0,-1,1301,1205,0,0
84,-181,0,0,0,0,0,0,0,0,0,-1,1308,1205,0,0
91,-181,0,0,0,0,0,0,0,0,0,-1,1315,1205,0,0
98,-181,0,0,0,0,0,0,0,0,0,-1,1322,1205,0,0
105,-181,0,0,0,0,0,0,0,0,0,-1,1329,1205,0,0
112,-181,0,0,0,0,0,0,0,0,0,-1,1336,1205,0,0
119,-181,0,0,0,0,0,0,0,0,0,-1,1343,1205,0,0
126,-181,0,0,0,0,0,0,0,0,0,-1,1350,1205,0,0
133,-181,0,0,0,0,0,0,0,0,0,-1,1357,1205,0,0
140,-181,0,0,0,0,0,0,0,0,0,-1,1364,1205,0,0
147,-181,0,0,0,0,0,0,0,0,0,-1,1371,1205,0,0
154,-181,0,0,0,0,0,0,0,0,0,-1,1378,1205,0,0
161,-181,0,0,0,0,0,0,0,0,0,-1,1385,1205,0,0
168,-181,0,0,0,0,0,0,0,0,0,-1,1392,1205,0,0
175,-181,0,0,0,0,0,0,0,0,0,-1,1399,1205,0,0
182,-181,0,0,0,0,0,0,0,0,0,-1,1406,1205,0,0
189,-181,0,0,0,0,0,0,0,0,0,-1,1413,1205,0,0
196,-181,0,0,0,0,0,0,0,0,0,-1,1420,1205,0,0
203,-181,0,0,0,0,0,0,0,0,0,-1,1427,1205,0,0
210,-181,0,0,0,0,0,0,0,0,0,-1,1434,1205,0,0
217,-181,0,0,0,0,0,0,0,0,0,-1,1441,1205,0,0
224,-181,0,0,0,0,0,0,0,0,0,-1,1448,1205,0,0
231,-181,0,0,0,0,0,0,0,0,0,-1,1455,1205,0,0
238,-181,0,0,0,0,0,0,0,0,0,-1,1462,1205,0,0
245,-181,0,0,0,0,0,0,0,0,0,-1,1469,1205,0,0
252,-181,0,0,0,0,0,0,0,0,0,-1,1476,1205,0,0
259,-181,0,0,0,0,0,0,0,0,0,-1,1483,1205,0,0
266,-181,0,0,0,0,0,0,0,0,0,-1,1490,1205,0,0
273,-181,0,0,0,0,0,0,0,0,0,-1,1497,1205,0,0
280,-181,0,0,0,0,0,0,0,0,0,-1,1504,1205,0,0
287,-181,0,0,0,0,0,0,0,0,0,-1,1511,1205,0,0
294,-181,0,0,0,0,0,0,0,0,0,-1,1518,1205,0,0
301,-181,0,0,0,0,0,0,0,0,0,-1,1525,1205,0,0
308,-181,0,0,0,0,0,0,0,0,0,-1,1532,1205,0,0
315,-181,0,0,0,0,0,0,0,0,0,-1,1539,1205,0,0
322,-181,0,0,0,0,0,0,0,0,0,-1,1546,1205,0,0
329,-181,0,0,0,0,0,0,0,0,0,-1,1553,1205,0,0
336,-181,0,0,0,0,0,0,0,0,0,-1,1560,1205,0,0
343,-181,0,0,0,0,0,0,0,0,0,-1,1567,1205,0,0
350,-181,0,0,0,0,0,0,0,0,0,-1,1574,1205,0,0
357,-181,0,0,0,0,0,0,0,0,0,-1,1581,1205,0,0
364,-181,0,0,0,0,0,0,0,0,0,-1,1588,1205,0,0
371,-181,0,0,0,0,0,0,0,0,0,-1,1595,1205,0,0
378,-181,0,0,0,0,0,0,0,0,0,-1,1602,1205,0,0
385,-181,0,0,0,0,0,0,0,0,0,-1,1609,1205,0,0
392,-181,0,0,0,0,0,0,0,0,0,-1,1616,1205,0,0
399,-181,0,0,0,0,0,0,0,0,0,-1,1623,1205,0,0
406,-181,0,0,0,0,0,0,0,0,0,-1,1630,1205,0,0
413,-181,0,0,0,0,0,0,0,0,0,-1,1637,1205,0,0
420,-181,0,0,0,0,0,0,0,0,0,-1,1644,1205,0,0
427,-181,0,0,0,0,0,0,0,0,0,-1,1651,1205,0,0
434,-181,0,0,0,0,0,0,0,0,0,-1,1658,1205,0,0
441,-181,0,0,0,0,0,0,0,0,0,-1,1665,1205,0,0
448,-181,0,0,0,0,0,0,0,0,0,-1,1672,1205,0,0
455,-181,0,0,0,0,0,0,0,0,0,-1,1679,1205,0,0
462,-181,0,0,0,0,0,0,0,0,0,-1,1686,1205,0,0
469,-181,0,0,0,0,0,0,0,0,0,-1,1693,1205,0,0
476,-181,0,0,0,0,0,0,0,0,0,-1,1700,1205,0,0
483,-181,0,0,0,0,0,0,0,0,0,-1,1707,1205,0,0
490,-181,0,0,0,0,0,0,0,0,0,-1,1714,1205,0,0
497,-181,0,0,0,0,0,0,0,0,0,-1,1721,1205,0,0
504,-181,0,0,0,0,0,0,0,0,0,-1,1728,1205,0,0
511,-181,0,0,0,0,0,0,0,0,0,-1,1735,1205,0,0
518,-181,0,0,0,0,0,0,0,0,0,-1,1742,1205,0,0
525,-181,0,0,0,0,0,0,0,0,0,-1,1749,1205,0,0
532,-181,0,0,0,0,0,0,0,0,0,-1,1756,1205,0,0
539,-181,0,0,0,0,0,0,0,0,0,-1,1763,1205,0,0
546,-181,0,0,0,0,0,0,0,0,0,-1,1770,1205,0,0
553,-181,0,0,0,0,0,0,0,0,0,-1,1777,1205,0,0
560,-181,0,0,0,0,0,0,0,0,0,-1,1784,1205,0,0
567,-181,0,0,0,0,0,0,0,0,0,-1,1791,1205,0,0
574,-181,0,0,0,0,0,0,0,0,0,-1,1798,1205,0,0
581,-181,0,0,0,0,0,0,0,0,0,-1,1805,1205,0,0
588,-181,0,0,0,0,0,0,0,0,0,-1,1812,1205,0,0
595,-181,0,0,0,0,0,0,0,0,0,-1,1819,1205,0,0
602,-181,0,0,0,0,0,0,0,0,0,-1,1826,1205,0,0
609,-181,0,0,0,0,0,0,0,0,0,-1,1833,1205,0,0
616,-181,0,0,0,0,0,0,0,0,0,-1,1840,1205,0,0
623,-181,0,0,0,0,0,0,0,0,0,-1,1847,1205,0,0
630,-181,18.8153,2.88562,-0.000293971,0.000361658,0.000971099,0.00105878,-0.000991093,0.948178,0.00118371,0.0383578,1854,1205,18.8153,-2.88562
637,-181,18.9023,2.63757,0.000611377,0.000643687,0.000236294,0.000864377,0.000390687,0.819529,0.000499815,0.0382899,1861,1205,18.9024,-2.63763
644,-181,18.7974,2.57703,0.000651653,0.000696042,-8.72836e-05,0.000763909,0.000583786,-0.9099,0.000461111,0.037592,1868,1205,18.7973,-2.57699
651,-181,18.6815,2.48474,0.000466411,0.000622487,-0.000242843,0.000799523,0.000289376,-0.940863,0.000467434,0.0384684,1875,1205,18.6816,-2.48471
658,-181,18.6304,2.60559,-0.000496697,0.000224964,0.000200647,0.000276999,-0.000548732,1.31705,0.000485264,0.0354567,1882,1205,18.6304,-2.60557
665,-181,18.6902,2.63086,-0.00144777,-0.000237698,0.000782437,0.000146345,-0.00183181,1.11451,0.0012728,0.0314053,1889,1205,18.6902,-2.63083
672,-181,18.6952,2.6272,-0.00239279,-0.000714807,0.00135219,3.7529e-05,-0.00314513,1.06307,0.00210937,0.0234637,1896,1205,18.6951,-2.62716
679,-181,18.765,2.57654,-0.00325084,-0.00107482,0.00196021,7.90874e-05,-0.00440475,1.03875,0.00296321,0.0292511,1903,1205,18.765,-2.57649
686,-181,18.8685,2.51196,0,0,0,0,0,0,0,-1,1910,1205,18.8686,-2.51197
693,-181,18.11,2.18823,0,0,0,0,0,0,0,-1,1917,1205,18.11,-2.18818
700,-181,17.3684,4.40491,0,0,0,0,0,0,0,-1,1924,1205,17.3685,-4.40494
707,-181,17.1895,4.27637,-0.00509057,-0.00188383,0.00322241,0.000112066,-0.00708647,1.01625,0.00476211,0.0259931,1931,1205,17.1895,-4.27634
714,-181,17.1318,4.16626,-0.00518502,-0.00187773,0.00319255,6.40319e-05,-0.00712678,1.02436,0.00477267,0.0197242,1938,1205,17.1318,-4.16626
721,-181,17.0399,4.08972,-0.00487854,-0.00163967,0.00302559,0.000172629,-0.00669083,1.03112,0.0045192,0.0133731,1945,1205,17.0399,-4.08973
728,-181,16.9854,3.99951,-0.00415467,-0.00126695,0.00253476,0.000206338,-0.00562796,1.04429,0.00382261,0.0105714,1952,1205,16.9854,-3.99946
735,-181,16.9871,3.88513,-0.0032671,-0.000344203,0.00196327,0.000641849,-0.00425316,1.10535,0.00307182,0.0110444,1959,1205,16.987,-3.88513
742,-181,16.9794,3.78638,-0.00206641,0.00118313,0.000930171,0.00143055,-0.00231383,1.31082,0.00218178,0.0165625,1966,1205,16.9794,-3.78638
749,-181,16.9919,3.65356,-0.00117502,0.00277973,-0.000847374,0.00295364,-0.00134893,-1.36837,0.00254103,0.0148612,1973,1205,16.9919,-3.65356
756,-181,16.9818,3.52917,0.000139223,0.00495892,-0.00267127,0.00614672,-0.00104857,-1.1524,0.00448835,0.0104237,1980,1205,16.9819,-3.52917
763,-181,16.9547,3.42175,0.00100089,0.00734799,-0.00449043,0.00967311,-0.00132423,-1.09301,0.00693244,0.0105523,1987,1205,16.9547,-3.42177
770,-181,16.9614,3.26331,0.00175503,0.0101683,-0.00660881,0.0137957,-0.00187237,-1.06882,0.00988058,0.0229949,1994,1205,16.9614,-3.26329
777,-181,16.9958,2.83057,0.00269584,0.0135023,-0.00928021,0.0188376,-0.00263952,-1.04902,0.0135244,0.0456039,2001,1205,16.9958,-2.83051
784,-181,17.072,2.45911,0,0,0,0,0,0,0,-1,2008,1205,17.072,-2.45914
791,-181,16.3815,2.95325,0,0,0,0,0,0,0,-1,2015,1205,16.3814,-2.9533
798,-181,17.9491,3.0957,0,0,0,0,0,0,0,-1,2022,1205,17.949,-3.09573
805,-181,0,0,0,0,0,0,0,0,0,-1,2029,1205,0,0
812,-181,0,0,0,0,0,0,0,0,0,-1,2036,1205,0,0
-700,-188,0,0,0,0,0,0,0,0,0,-1,524,1212,0,0
-693,-188,0,0,0,0,0,0,0,0,0,-1,531,1212,0,0
-686,-188,0,0,0,0,0,0,0,0,0,-1,538,1212,0,0
-679,-188,-9.94232,2.14111,0,0,0,0,0,0,0,-1,545,1212,-9.94233,-2.14112
-672,-188,-9.81299,1.2854,0,0,0,0,0,0,0,-1,552,1212,-9.81296,-1.28545
-665,-188,-9.59802,0.469238,-0.0200476,0.0167499,0.0281939,0.0320173,-0.035315,1.07449,0.0388899,0.0460297,559,1212,-9.59804,-0.469192
-658,-188,-9.50482,-0.0327148,-0.0168313,0.0146232,0.0211921,0.0252863,-0.0274944,1.10462,0.0304818,0.0427547,566,1212,-9.50484,0.0326605
-651,-188,-9.85535,0.637817,-0.0132983,0.0123944,0.015332,0.0195505,-0.0204544,1.13411,0.0230988,0.0498357,573,1212,-9.85535,-0.637789
-644,-188,-9.83264,0.815918,-0.00999431,0.0102027,0.0106643,0.0147912,-0.0145828,1.16448,0.0169592,0.0442336,580,1212,-9.83266,-0.815892
-637,-188,-9.82019,0.950439,-0.00710636,0.00824032,0.00704282,0.0109824,-0.00984846,1.19951,0.0120327,0.0204095,587,1212,-9.82018,-0.950457
-630,-188,-9.9068,1.07056,-0.00496068,0.00621676,0.00412092,0.0075718,-0.00631572,1.25311,0.00802889,0.0091337,594,1212,-9.90678,-1.07058
-623,-188,-9.90552,1.20349,-0.00410674,0.00414822,0.00159809,0.0044468,-0.00440532,1.38609,0.00511079,0.0106072,601,1212,-9.90554,-1.20346
-616,-188,-9.88617,1.33704,-0.00346769,0.00232896,-0.000648711,0.00240067,-0.0035394,-1.4607,0.00345045,0.0109797,608,1212,-9.8862,-1.33708
-609,-188,-9.87817,1.49695,-0.00317348,0.00110697,-0.00297997,0.00263564,-0.00470214,-1.09682,0.00429211,0.013372,615,1212,-9.8782,-1.49691
-602,-188,-9.87549,1.66602,-0.00354827,0.000293278,-0.00440096,0.00317436,-0.00642935,-0.99116,0.00564987,0.0160158,622,1212,-9.87549,-1.66606
-595,-188,-9.9054,1.78333,-0.00437839,-0.00108241,-0.00566546,0.00316988,-0.00863069,-0.926934,0.00705203,0.0114432,629,1212,-9.90539,-1.78329
-588,-188,-9.90247,1.93457,-0.00470201,-0.00208927,-0.0070774,0.00380132,-0.0105926,-0.876662,0.00861314,0.00899047,636,1212,-9.90245,-1.93461
-581,-188,-9.90912,2.10364,-0.0042224,-0.00269508,-0.00822328,0.00479992,-0.0117174,-0.831698,0.00981109,0.00988054,643,1212,-9.90913,-2.1037
-574,-188,-9.95697,2.19177,-0.00326452,-0.00310196,-0.00876954,0.00558668,-0.0119532,-0.790032,0.0103466,0.0258219,650,1212,-9.95697,-2.19176
-567,-188,-9.9895,2.21448,0,0,0,0,0,0,0,-1,657,1212,-9.98952,-2.21445
-560,-188,-10.1313,-0.863525,0,0,0,0,0,0,0,-1,664,1212,-10.1313,0.863547
-553,-188,-11.7096,0.454712,-1.69484e-06,-0.00317008,-0.00848716,0.00704785,-0.0102196,-0.693131,0.0100253,0.0464701,671,1212,-11.7096,-0.454766
-546,-188,-12.0186,0.852539,0.00159079,-0.00293249,-0.00770559,0.00735979,-0.00870149,-0.642654,0.00928376,0.0415147,678,1212,-12.0186,-0.852557
-539,-188,-11.9656,0.827515,0.00335406,-0.00240511,-0.00645755,0.00754498,-0.00659603,-0.575668,0.00817044,0.0351659,685,1212,-11.9656,-0.827476
-532,-188,-11.8341,0.697388,0.00520918,-0.00150647,-0.00463639,0.00757596,-0.00387324,-0.471995,0.00672444,0.0388708,692,1212,-11.8341,-0.697429
-525,-188,-11.7408,0.717285,0.00692271,-8.53824e-05,-0.00214733,0.00752832,-0.000691001,-0.274894,0.00526436,0.0411234,699,1212,-11.7409,-0.717317
-518,-188,-11.7612,0.852295,0.00730391,0.00188649,0.000496791,0.00734909,0.00184131,0.0906946,0.00441551,0.0441796,706,1212,-11.7612,-0.852277
-511,-188,-11.7906,0.760742,0.00728917,0.00263534,0.00101077,0.00749922,0.00242529,0.204895,0.00441878,0.0407256,713,1212,-11.7907,-0.760793
-504,-188,0,0,0,0,0,0,0,0,0,-1,720,1212,0,0
-497,-188,0,0,0,0,0,0,0,0,0,-1,727,1212,0,0
-490,-188,0,0,0,0,0,0,0,0,0,-1,734,1212,0,0
-483,-188,0,0,0,0,0,0,0,0,0,-1,741,1212,0,0
-476,-188,0,0,0,0,0,0,0,0,0,-1,748,1212,0,0
-469,-188,0,0,0,0,0,0,0,0,0,-1,755,1212,0,0
-462,-188,0,0,0,0,0,0,0,0,0,-1,762,1212,0,0
-455,-188,0,0,0,0,0,0,0,0,0,-1,769,1212,0,0
-448,-188,0,0,0,0,0,0,0,0,0,-1,776,1212,0,0
-441,-188,0,0,0,0,0,0,0,0,0,-1,783,1212,0,0
-434,-188,0,0,0,0,0,0,0,0,0,-1,790,1212,0,0
-427,-188,0,0,0,0,0,0,0,0,0,-1,797,1212,0,0
-420,-188,0,0,0,0,0,0,0,0,0,-1,804,1212,0,0
-413,-188,0,0,0,0,0,0,0,0,0,-1,811,1212,0,0
-406,-188,0,0,0,0,0,0,0,0,0,-1,818,1212,0,0
-399,-188,0,0,0,0,0,0,0,0,0,-1,825,1212,0,0
-392,-188,0,0,0,0,0,0,0,0,0,-1,832,1212,0,0
-385,-188,0,0,0,0,0,0,0,0,0,-1,839,1212,0,0
-378,-188,0,0,0,0,0,0,0,0,0,-1,846,1212,0,0
-371,-188,0,0,0,0,0,0,0,0,0,-1,853,1212,0,0
-364,-188,0,0,0,0,0,0,0,0,0,-1,860,1212,0,0
-357,-188,0,0,0,0,0,0,0,0,0,-1,867,1212,0,0
-350,-188,0,0,0,0,0,0,0,0,0,-1,874,1212,0,0
-343,-188,0,0,0,0,0,0,0,0,0,-1,881,1212,0,0
-336,-188,0,0,0,0,0,0,0,0,0,-1,888,1212,0,0
-329,-188,0,0,0,0,0,0,0,0,0,-1,895,1212,0,0
-322,-188,0,0,0,0,0,0,0,0,0,-1,902,1212,0,0
-315,-188,0,0,0,0,0,0,0,0,0,-1,909,1212,0,0
-308,-188,0,0,0,0,0,0,0,0,0,-1,916,1212,0,0
-301,-188,0,0,0,0,0,0,0,0,0,-1,923,1212,0,0
-294,-188,0,0,0,0,0,0,0,0,0,-1,930,1212,0,0
-287,-188,0,0,0,0,0,0,0,0,0,-1,937,1212,0,0
-280,-188,0,0,0,0,0,0,0,0,0,-1,944,1212,0,0
-273,-188,0,0,0,0,0,0,0,0,0,-1,951,1212,0,0
-266,-188,0,0,0,0,0,0,0,0,0,-1,958,1212,0,0
-259,-188,0,0,0,0,0,0,0,0,0,-1,965,1212,0,0
-252,-188,0,0,0,0,0,0,0,0,0,-1,972,1212,0,0
-245,-188,0,0,0,0,0,0,0,0,0,-1,979,1212,0,0
-238,-188,0,0,0,0,0,0,0,0,0,-1,986,1212,0,0
-231,-188,0,0,0,0,0,0,0,0,0,-1,993,1212,0,0
-224,-188,0,0,0,0,0,0,0,0,0,-1,1000,1212,0,0
-217,-188,0,0,0,0,0,0,0,0,0,-1,1007,1212,0,0
-210,-188,0,0,0,0,0,0,0,0,0,-1,1014,1212,0,0
-203,-188,0,0,0,0,0,0,0,0,0,-1,1021,1212,0,0
-196,-188,0,0,0,0,0,0,0,0,0,-1,1028,1212,0,0
-189,-188,0,0,0,0,0,0,0,0,0,-1,1035,1212,0,0
-182,-188,0,0,0,0,0,0,0,0,0,-1,1042,1212,0,0
-175,-188,0,0,0,0,0,0,0,0,0,-1,1049,1212,0,0
-168,-188,0,0,0,0,0,0,0,0,0,-1,1056,1212,0,0
-161,-188,0,0,0,0,0,0,0,0,0,-1,1063,1212,0,0
-154,-188,0,0,0,0,0,0,0,0,0,-1,1070,1212,0,0
-147,-188,0,0,0,0,0,0,0,0,0,-1,1077,1212,0,0
-140,-188,0,0,0,0,0,0,0,0,0,-1,1084,1212,0,0
-133,-188,0,0,0,0,0,0,0,0,0,-1,1091,1212,0,0
-126,-188,0,0,0,0,0,0,0,0,0,-1,1098,1212,0,0
-119,-188,0,0,0,0,0,0,0,0,0,-1,1105,1212,0,0
-112,-188,0,0,0,0,0,0,0,0,0,-1,1112,1212,0,0
-105,-188,0,0,0,0,0,0,0,0,0,-1,1119,1212,0,0
-98,-188,0,0,0,0,0,0,0,0,0,-1,1126,1212,0,0
-91,-188,0,0,0,0,0,0,0,0,0,-1,1133,1212,0,0
-84,-188,0,0,0,0,0,0,0,0,0,-1,1140,1212,0,0
-77,-188,0,0,0,0,0,0,0,0,0,-1,1147,1212,0,0
-70,-188,0,0,0,0,0,0,0,0,0,-1,1154,1212,0,0
-63,-188,0,0,0,0,0,0,0,0,0,-1,1161,1212,0,0
-56,-188,0,0,0,0,0,0,0,0,0,-1,1168,1212,0,0
-49,-188,0,0,0,0,0,0,0,0,0,-1,1175,1212,0,0
-42,-188,0,0,0,0,0,0,0,0,0,-1,1182,1212,0,0
-35,-188,0,0,0,0,0,0,0,0,0,-1,1189,1212,0,0
-28,-188,0,0,0,0,0,0,0,0,0,-1,1196,1212,0,0
-21,-188,0,0,0,0,0,0,0,0,0,-1,1203,1212,0,0
-14,-188,0,0,0,0,0,0,0,0,0,-1,1210,1212,0,0
-7,-188,0,0,0,0,0,0,0,0,0,-1,1217,1212,0,0
0,-188,0,0,0,0,0,0,0,0,0,-1,1224,1212,0,0
7,-188,0,0,0,0,0,0,0,0,0,-1,1231,1212,0,0
14,-188,0,0,0,0,0,0,0,0,0,-1,1238,1212,0,0
21,-188,0,0,0,0,0,0,0,0,0,-1,1245,1212,0,0
28,-188,0,0,0,0,0,0,0,0,0,-1,1252,1212,0,0
35,-188,0,0,0,0,0,0,0,0,0,-1,1259,1212,0,0
42,-188,0,0,0,0,0,0,0,0,0,-1,1266,1212,0,0
49,-188,0,0,0,0,0,0,0,0,0,-1,1273,1212,0,0
56,-188,0,0,0,0,0,0,0,0,0,-1,1280,1212,0,0
63,-188,0,0,0,0,0,0,0,0,0,-1,1287,1212,0,0
70,-188,0,0,0,0,0,0,0,0,0,-1,1294,1212,0,0
77,-188,0,0,0,0,0,0,0,0,0,-1,1301,1212,0,0
84,-188,0,0,0,0,0,0,0,0,0,-1,1308,1212,0,0
91,-188,0,0,0,0,0,0,0,0,0,-1,1315,1212,0,0
98,-188,0,0,0,0,0,0,0,0,0,-1,1322,1212,0,0
105,-188,0,0,0,0,0,0,0,0,0,-1,1329,1212,0,0
112,-188,0,0,0,0,0,0,0,0,0,-1,1336,1212,0,0
119,-188,0,0,0,0,0,0,0,0,0,-1,1343,1212,0,0
126,-188,0,0,0,0,0,0,0,0,0,-1,1350,1212,0,0
133,-188,0,0,0,0,0,0,0,0,0,-1,1357,1212,0,0
140,-188,0,0,0,0,0,0,0,0,0,-1,1364,1212,0,0
147,-188,0,0,0,0,0,0,0,0,0,-1,1371,1212,0,0
154,-188,0,0,0,0,0,0,0,0,0,-1,1378,1212,0,0
161,-188,0,0,0,0,0,0,0,0,0,-1,1385,1212,0,0
168,-188,0,0,0,0,0,0,0,0,0,-1,1392,1212,0,0
175,-188,0,0,0,0,0,0,0,0,0,-1,1399,1212,0,0
182,-188,0,0,0,0,0,0,0,0,0,-1,1406,1212,0,0
189,-188,0,0,0,0,0,0,0,0,0,-1,1413,1212,0,0
196,-188,0,0,0,0,0,0,0,0,0,-1,1420,1212,0,0
203,-188,0,0,0,0,0,0,0,0,0,-1,1427,1212,0,0
210,-188,0,0,0,0,0,0,0,0,0,-1,1434,1212,0,0
217,-188,0,0,0,0,0,0,0,0,0,-1,1441,1212,0,0
224,-188,0,0,0,0,0,0,0,0,0,-1,1448,1212,0,0
231,-188,0,0,0,0,0,0,0,0,0,-1,1455,1212,0,0
238,-188,0,0,0,0,0,0,0,0,0,-1,1462,1212,0,0
245,-188,0,0,0,0,0,0,0,0,0,-1,1469,1212,0,0
252,-188,0,0,0,0,0,0,0,0,0,-1,1476,1212,0,0
259,-188,0,0,0,0,0,0,0,0,0,-1,1483,1212,0,0
266,-188,0,0,0,0,0,0,0,0,0,-1,1490,1212,0,0
273,-188,0,0,0,0,0,0,0,0,0,-1,1497,1212,0,0
280,-188,0,0,0,0,0,0,0,0,0,-1,1504,1212,0,0
287,-188,0,0,0,0,0,0,0,0,0,-1,1511,1212,0,0
294,-188,0,0,0,0,0,0,0,0,0,-1,1518,1212,0,0
301,-188,0,0,0,0,0,0,0,0,0,-1,1525,1212,0,0
308,-188,0,0,0,0,0,0,0,0,0,-1,1532,1212,0,0
315,-188,0,0,0,0,0,0,0,0,0,-1,1539,1212,0,0
322,-188,0,0,0,0,0,0,0,0,0,-1,1546,1212,0,0
329,-188,0,0,0,0,0,0,0,0,0,-1,1553,1212,0,0
336,-188,0,0,0,0,0,0,0,0,0,-1,1560,1212,0,0
343,-188,0,0,0,0,0,0,0,0,0,-1,1567,1212,0,0
350,-188,0,0,0,0,0,0,0,0,0,-1,1574,1212,0,0
357,-188,0,0,0,0,0,0,0,0,0,-1,1581,1212,0,0
364,-188,0,0,0,0,0,0,0,0,0,-1,1588,1212,0,0
371,-188,0,0,0,0,0,0,0,0,0,-1,1595,1212,0,0
378,-188,0,0,0,0,0,0,0,0,0,-1,1602,1212,0,0
385,-188,0,0,0,0,0,0,0,0,0,-1,1609,1212,0,0
392,-188,0,0,0,0,0,0,0,0,0,-1,1616,1212,0,0
399,-188,0,0,0,0,0,0,0,0,0,-1,1623,1212,0,0
406,-188,0,0,0,0,0,0,0,0,0,-1,1630,1212,0,0
413,-188,0,0,0,0,0,0,0,0,0,-1,1637,1212,0,0
420,-188,0,0,0,0,0,0,0,0,0,-1,1644,1212,0,0
427,-188,0,0,0,0,0,0,0,0,0,-1,1651,1212,0,0
434,-188,0,0,0,0,0,0,0,0,0,-1,1658,1212,0,0
441,-188,0,0,0,0,0,0,0,0,0,-1,1665,1212,0,0
448,-188,0,0,0,0,0,0,0,0,0,-1,1672,1212,0,0
455,-188,0,0,0,0,0,0,0,0,0,-1,1679,1212,0,0
462,-188,0,0,0,0,0,0,0,0,0,-1,1686,1212,0,0
469,-188,0,0,0,0,0,0,0,0,0,-1,1693,1212,0,0
476,-188,0,0,0,0,0,0,0,0,0,-1,1700,1212,0,0
483,-188,0,0,0,0,0,0,0,0,0,-1,1707,1212,0,0
490,-188,0,0,0,0,0,0,0,0,0,-1,1714,1212,0,0
497,-188,0,0,0,0,0,0,0,0,0,-1,1721,1212,0,0
504,-188,0,0,0,0,0,0,0,0,0,-1,1728,1212,0,0
511,-188,0,0,0,0,0,0,0,0,0,-1,1735,1212,0,0
518,-188,0,0,0,0,0,0,0,0,0,-1,1742,1212,0,0
525,-188,0,0,0,0,0,0,0,0,0,-1,1749,1212,0,0
532,-188,0,0,0,0,0,0,0,0,0,-1,1756,1212,0,0
539,-188,0,0,0,0,0,0,0,0,0,-1,1763,1212,0,0
546,-188,0,0,0,0,0,0,0,0,0,-1,1770,1212,0,0
553,-188,0,0,0,0,0,0,0,0,0,-1,1777,1212,0,0
560,-188,0,0,0,0,0,0,0,0,0,-1,1784,1212,0,0
567,-188,0,0,0,0,0,0,0,0,0,-1,1791,1212,0,0
574,-188,0,0,0,0,0,0,0,0,0,-1,1798,1212,0,0
581,-188,0,0,0,0,0,0,0,0,0,-1,1805,1212,0,0
588,-188,0,0,0,0,0,0,0,0,0,-1,1812,1212,0,0
595,-188,0,0,0,0,0,0,0,0,0,-1,1819,1212,0,0
602,-188,0,0,0,0,0,0,0,0,0,-1,1826,1212,0,0
609,-188,0,0,0,0,0,0,0,0,0,-1,1833,1212,0,0
616,-188,0,0,0,0,0,0,0,0,0,-1,1840,1212,0,0
623,-188,0,0,0,0,0,0,0,0,0,-1,1847,1212,0,0
630,-188,18.7634,2.74585,-0.000448554,0.000948717,0.000351966,0.00103237,-0.000532205,1.33746,0.000918563,0.0415338,1854,1212,18.7635,-2.7459
637,-188,18.7255,2.87964,0.000505027,0.00129527,-0.00031574,0.00140593,0.000394369,-1.2337,0.00083738,0.0407632,1861,1212,18.7255,-2.87967
644,-188,18.6807,2.7113,0.000493153,0.0012738,-0.000526969,0.00153926,0.000227695,-1.10416,0.000959322,0.0345993,1868,1212,18.6807,-2.7113
651,-188,18.6803,2.57227,7.56924e-05,0.00103034,-0.000463174,0.00121812,-0.000112092,-1.18562,0.000851905,0.0327818,1875,1212,18.6802,-2.57221
658,-188,18.7078,2.55505,-0.000864195,0.000508467,4.55262e-05,0.000509975,-0.000865703,1.53768,0.000803051,0.033505,1882,1212,18.7077,-2.55508
665,-188,18.7207,2.58496,-0.00167815,-3.06254e-05,0.000596266,0.000162528,-0.0018713,1.25752,0.00130509,0.0303091,1889,1212,18.7207,-2.58494
672,-188,18.7286,2.6123,-0.002474,-0.000586299,0.00111427,-6.98549e-05,-0.00299045,1.13679,0.00197076,0.0250622,1896,1212,18.7286,-2.61237
679,-188,18.7668,2.52173,-0.00316019,-0.000972687,0.00168583,-5.68859e-05,-0.004076,1.07316,0.00269857,0.0477435,1903,1212,18.7668,-2.52179
686,-188,18.8203,2.45447,-0.00377879,-0.00138434,0.0020887,-0.000174077,-0.00498905,1.04563,0.00326955,0.0455494,1910,1212,18.8203,-2.45444
693,-188,17.2356,4.17737,0,0,0,0,0,0,0,-1,1917,1212,17.2356,-4.17731
700,-188,17.1248,4.22705,-0.00460348,-0.00175391,0.00271072,-0.000116336,-0.00624106,1.02736,0.00412247,0.0415309,1924,1212,17.1247,-4.22701
707,-188,16.9467,4.29602,-0.00476323,-0.0018388,0.0029042,-4.94821e-05,-0.00655255,1.01861,0.00435196,0.013785,1931,1212,16.9467,-4.29597
714,-188,16.9263,4.20117,-0.00478852,-0.00184255,0.00287784,-8.26337e-05,-0.00654844,1.02193,0.00433835,0.0112418,1938,1212,16.9263,-4.2012
721,-188,16.8781,4.11267,-0.00440291,-0.00156317,0.00274236,0.000105095,-0.00607117,1.02427,0.00408293,0.0106307,1945,1212,16.8781,-4.11265
728,-188,16.8696,4.00427,-0.00362032,-0.00115624,0.00227772,0.000201307,-0.00497786,1.03332,0.00338767,0.00922465,1952,1212,16.8696,-4.0043
735,-188,16.8536,3.88501,-0.00258825,-0.000208535,0.00181243,0.00076971,-0.00356649,1.07586,0.00267145,0.01286,1959,1212,16.8536,-3.88505
742,-188,16.8468,3.76379,-0.00106623,0.00125191,0.000996253,0.00162123,-0.00143555,1.2158,0.00176591,0.0144001,1966,1212,16.8468,-3.76385
749,-188,16.8644,3.64429,0.000255917,0.00272566,-0.000428764,0.00279798,0.000183598,-1.4037,0.00180723,0.0133571,1973,1212,16.8644,-3.64432
756,-188,16.8508,3.52063,0.00200549,0.00451929,-0.00182109,0.00547511,0.00104966,-1.08745,0.00335537,0.0115138,1980,1212,16.8508,-3.52063
763,-188,16.8423,3.40613,0.00353452,0.00654056,-0.00312029,0.00850096,0.00157412,-1.00985,0.00522228,0.0122705,1987,1212,16.8423,-3.40608
770,-188,16.871,3.27466,0.00527256,0.00887354,-0.00460845,0.0120207,0.00212537,-0.971627,0.0074077,0.0211818,1994,1212,16.871,-3.2747
777,-188,16.895,3.10876,0.00748651,0.0115319,-0.00646569,0.0162839,0.00273453,-0.936994,0.010069,0.0448336,2001,1212,16.895,-3.10872
784,-188,16.8402,2.88843,0.0101978,0.0144208,-0.00872641,0.0212875,0.00333108,-0.904101,0.013222,0.0473242,2008,1212,16.8403,-2.88847
791,-188,16.8181,2.68848,0,0,0,0,0,0,0,-1,2015,1212,16.8181,-2.68842
798,-188,16.9868,2.83948,0,0,0,0,0,0,0,-1,2022,1212,16.9868,-2.83949
805,-188,0,0,0,0,0,0,0,0,0,-1,2029,1212,0,0
812,-188,0,0,0,0,0,0,0,0,0,-1,2036,1212,0,0
-700,-195,0,0,0,0,0,0,0,0,0,-1,524,1219,0,0
-693,-195,0,0,0,0,0,0,0,0,0,-1,531,1219,0,0
-686,-195,0,0,0,0,0,0,0,0,0,-1,538,1219,0,0
-679,-195,-9.81824,2.25989,0,0,0,0,0,0,0,-1,545,1219,-9.81821,-2.25986
-672,-195,-9.70575,0.0457764,0,0,0,0,0,0,0,-1,552,1219,-9.70573,-0.0457216
-665,-195,-9.41486,0.186035,-0.0134766,0.0172641,0.0178501,0.0254496,-0.021662,1.14084,0.0272292,0.0476734,559,1219,-9.41484,-0.186078
-658,-195,-9.36865,0.362183,-0.0116626,0.0148246,0.0130437,0.0201695,-0.0170075,1.1819,0.02149,0.0457734,566,1219,-9.36863,-0.362223
-651,-195,-9.60126,0.514282,-0.00943048,0.0124481,0.00922511,0.0158186,-0.012801,1.2205,0.0165541,0.0464218,573,1219,-9.60125,-0.514232
-644,-195,-9.57971,0.723389,-0.00727108,0.0102157,0.00632214,0.012262,-0.00931733,1.25777,0.0124974,0.0437638,580,1219,-9.5797,-0.723396
-637,-195,-9.63629,0.911865,-0.00535619,0.00820444,0.00416335,0.00938064,-0.0065324,1.29546,0.00923632,0.0208303,587,1219,-9.63629,-0.91188
-630,-195,-9.7384,1.05762,-0.00391262,0.00625276,0.00240484,0.00679297,-0.00445283,1.34983,0.00653945,0.00742616,594,1219,-9.73837,-1.05763
-623,-195,-9.74719,1.19238,-0.00341304,0.00430397,0.000757294,0.00437758,-0.00348666,1.47389,0.00455012,0.00847614,601,1219,-9.7472,-1.19233
-616,-195,-9.73578,1.34558,-0.0028687,0.00250733,-0.000731335,0.00260504,-0.00296642,-1.43798,0.00321893,0.0109522,608,1219,-9.73579,-1.34564
-609,-195,-9.72754,1.50464,-0.00257741,0.00127406,-0.0024524,0.00246645,-0.0037698,-1.11824,0.00362662,0.0187683,615,1219,-9.72752,-1.50464
-602,-195,-9.75214,1.63977,-0.00273908,0.000405837,-0.00354312,0.00270976,-0.005043,-0.994243,0.00454313,0.0211723,622,1219,-9.75215,-1.6398
-595,-195,-9.77203,1.79358,-0.00314433,-0.00112651,-0.00461767,0.00259118,-0.00686202,-0.892953,0.00564042,0.01463,629,1219,-9.77204,-1.79354
-588,-195,-9.75403,1.93713,-0.00301727,-0.00228882,-0.00595094,0.00330903,-0.00861513,-0.815962,0.00710798,0.00741833,636,1219,-9.754,-1.93712
-581,-195,-9.74872,2.06104,-0.00217182,-0.00304972,-0.00706245,0.00446531,-0.00968684,-0.754362,0.00835407,0.00905046,643,1219,-9.74874,-2.06101
-574,-195,-9.76147,2.08752,-0.00108153,-0.00367979,-0.00756709,0.00529714,-0.0100585,-0.700386,0.0090065,0.0238543,650,1219,-9.7615,-2.08757
-567,-195,-9.19983,1.35791,-8.96001e-05,-0.00405818,-0.00761784,0.00579814,-0.00994592,-0.65799,0.00919439,0.0468803,657,1219,-9.19982,-1.35795
-560,-195,-8.67517,0.628418,0,0,0,0,0,0,0,-1,664,1219,-8.6752,-0.628387
-553,-195,-11.5014,0.17041,0,0,0,0,0,0,0,-1,671,1219,-11.5014,-0.170358
-546,-195,-11.8978,1.19019,0,0,0,0,0,0,0,-1,678,1219,-11.8978,-1.19025
-539,-195,-11.9427,0.804565,0.00447146,-0.00375446,-0.00620361,0.0078017,-0.0070847,-0.49267,0.00859799,0.0347242,685,1219,-11.9427,-0.804548
-532,-195,-11.808,0.62207,0.00558568,-0.00289294,-0.0049392,0.0078554,-0.00516266,-0.430752,0.00756939,0.0346331,692,1219,-11.808,-0.622094
-525,-195,-11.6548,0.502563,0.00641013,-0.00133601,-0.00310105,0.00749863,-0.00242451,-0.337574,0.00597358,0.0399695,699,1219,-11.6549,-0.502616
-518,-195,-11.6891,0.533325,0.00606191,0.00119913,-0.00094437,0.00623887,0.00102217,-0.185236,0.00386386,0.0417435,706,1219,-11.6891,-0.533272
-511,-195,-11.6306,0.619629,0.00511817,0.00347059,2.61258e-05,0.00511859,0.00347018,0.0158518,0.00301696,0.0421303,713,1219,-11.6306,-0.619677
-504,-195,0,0,0,0,0,0,0,0,0,-1,720,1219,0,0
-497,-195,0,0,0,0,0,0,0,0,0,-1,727,1219,0,0
-490,-195,0,0,0,0,0,0,0,0,0,-1,734,1219,0,0
-483,-195,0,0,0,0,0,0,0,0,0,-1,741,1219,0,0
-476,-195,0,0,0,0,0,0,0,0,0,-1,748,1219,0,0
-469,-195,0,0,0,0,0,0,0,0,0,-1,755,1219,0,0
-462,-195,0,0,0,0,0,0,0,0,0,-1,762,1219,0,0
-455,-195,0,0,0,0,0,0,0,0,0,-1,769,1219,0,0
-448,-195,0,0,0,0,0,0,0,0,0,-1,776,1219,0,0
-441,-195,0,0,0,0,0,0,0,0,0,-1,783,1219,0,0
-434,-195,0,0,0,0,0,0,0,0,0,-1,790,1219,0,0
-427,-195,0,0,0,0,0,0,0,0,0,-1,797,1219,0,0
-420,-195,0,0,0,0,0,0,0,0,0,-1,804,1219,0,0
-413,-195,0,0,0,0,0,0,0,0,0,-1,811,1219,0,0
-406,-195,0,0,0,0,0,0,0,0,0,-1,818,1219,0,0
-399,-195,0,0,0,0,0,0,0,0,0,-1,825,1219,0,0
-392,-195,0,0,0,0,0,0,0,0,0,-1,832,1219,0,0
-385,-195,0,0,0,0,0,0,0,0,0,-1,839,1219,0,0
-378,-195,0,0,0,0,0,0,0,0,0,-1,846,1219,0,0
-371,-195,0,0,0,0,0,0,0,0,0,-1,853,1219,0,0
-364,-195,0,0,0,0,0,0,0,0,0,-1,860,1219,0,0
-357,-195,0,0,0,0,0,0,0,0,0,-1,867,1219,0,0
-350,-195,0,0,0,0,0,0,0,0,0,-1,874,1219,0,0
-343,-195,0,0,0,0,0,0,0,0,0,-1,881,1219,0,0
-336,-195,0,0,0,0,0,0,0,0,0,-1,888,1219,0,0
-329,-195,0,0,0,0,0,0,0,0,0,-1,895,1219,0,0
-322,-195,0,0,0,0,0,0,0,0,0,-1,902,1219,0,0
-315,-195,0,0,0,0,0,0,0,0,0,-1,909,1219,0,0
-308,-195,0,0,0,0,0,0,0,0,0,-1,916,1219,0,0
-301,-195,0,0,0,0,0,0,0,0,0,-1,923,1219,0,0
-294,-195,0,0,0,0,0,0,0,0,0,-1,930,1219,0,0
-287,-195,0,0,0,0,0,0,0,0,0,-1,937,1219,0,0
-280,-195,0,0,0,0,0,0,0,0,0,-1,944,1219,0,0
-273,-195,0,0,0,0,0,0,0,0,0,-1,951,1219,0,0
-266,-195,0,0,0,0,0,0,0,0,0,-1,958,1219,0,0
-259,-195,0,0,0,0,0,0,0,0,0,-1,965,1219,0,0
-252,-195,0,0,0,0,0,0,0,0,0,-1,972,1219,0,0
-245,-195,0,0,0,0,0,0,0,0,0,-1,979,1219,0,0
-238,-195,0,0,0,0,0,0,0,0,0,-1,986,1219,0,0
-231,-195,0,0,0,0,0,0,0,0,0,-1,993,1219,0,0
-224,-195,0,0,0,0,0,0,0,0,0,-1,1000,1219,0,0
-217,-195,0,0,0,0,0,0,0,0,0,-1,1007,1219,0,0
-210,-195,0,0,0,0,0,0,0,0,0,-1,1014,1219,0,0
-203,-195,0,0,0,0,0,0,0,0,0,-1,1021,1219,0,0
-196,-195,0,0,0,0,0,0,0,0,0,-1,1028,1219,0,0
-189,-195,0,0,0,0,0,0,0,0,0,-1,1035,1219,0,0
-182,-195,0,0,0,0,0,0,0,0,0,-1,1042,1219,0,0
-175,-195,0,0,0,0,0,0,0,0,0,-1,1049,1219,0,0
-168,-195,0,0,0,0,0,0,0,0,0,-1,1056,1219,0,0
-161,-195,0,0,0,0,0,0,0,0,0,-1,1063,1219,0,0
-154,-195,0,0,0,0,0,0,0,0,0,-1,1070,1219,0,0
-147,-195,0,0,0,0,0,0,0,0,0,-1,1077,1219,0,0
-140,-195,0,0,0,0,0,0,0,0,0,-1,1084,1219,0,0
-133,-195,0,0,0,0,0,0,0,0,0,-1,1091,1219,0,0
-126,-195,0,0,0,0,0,0,0,0,0,-1,1098,1219,0,0
-119,-195,0,0,0,0,0,0,0,0,0,-1,1105,1219,0,0
-112,-195,0,0,0,0,0,0,0,0,0,-1,1112,1219,0,0
-105,-195,0,0,0,0,0,0,0,0,0,-1,1119,1219,0,0
-98,-195,0,0,0,0,0,0,0,0,0,-1,1126,1219,0,0
-91,-195,0,0,0,0,0,0,0,0,0,-1,1133,1219,0,0
-84,-195,0,0,0,0,0,0,0,0,0,-1,1140,1219,0,0
-77,-195,0,0,0,0,0,0,0,0,0,-1,1147,1219,0,0
-70,-195,0,0,0,0,0,0,0,0,0,-1,1154,1219,0,0
-63,-195,0,0,0,0,0,0,0,0,0,-1,1161,1219,0,0
-56,-195,0,0,0,0,0,0,0,0,0,-1,1168,1219,0,0
-49,-195,0,0,0,0,0,0,0,0,0,-1,1175,1219,0,0
-42,-195,0,0,0,0,0,0,0,0,0,-1,1182,1219,0,0
-35,-195,0,0,0,0,0,0,0,0,0,-1,1189,1219,0,0
-28,-195,0,0,0,0,0,0,0,0,0,-1,1196,1219,0,0
-21,-195,0,0,0,0,0,0,0,0,0,-1,1203,1219,0,0
-14,-195,0,0,0,0,0,0,0,0,0,-1,1210,1219,0,0
-7,-195,0,0,0,0,0,0,0,0,0,-1,1217,1219,0,0
0,-195,0,0,0,0,0,0,0,0,0,-1,1224,1219,0,0
7,-195,0,0,0,0,0,0,0,0,0,-1,1231,1219,0,0
14,-195,0,0,0,0,0,0,0,0,0,-1,1238,1219,0,0
21,-195,0,0,0,0,0,0,0,0,0,-1,1245,1219,0,0
28,-195,0,0,0,0,0,0,0,0,0,-1,1252,1219,0,0
35,-195,0,0,0,0,0,0,0,0,0,-1,1259,1219,0,0
42,-195,0,0,0,0,0,0,0,0,0,-1,1266,1219,0,0
49,-195,0,0,0,0,0,0,0,0,0,-1,1273,1219,0,0
56,-195,0,0,0,0,0,0,0,0,0,-1,1280,1219,0,0
63,-195,0,0,0,0,0,0,0,0,0,-1,1287,1219,0,0
70,-195,0,0,0,0,0,0,0,0,0,-1,1294,1219,0,0
77,-195,0,0,0,0,0,0,0,0,0,-1,1301,1219,0,0
84,-195,0,0,0,0,0,0,0,0,0,-1,1308,1219,0,0
91,-195,0,0,0,0,0,0,0,0,0,-1,1315,1219,0,0
98,-195,0,0,0,0,0,0,0,0,0,-1,1322,1219,0,0
105,-195,0,0,0,0,0,0,0,0,0,-1,1329,1219,0,0
112,-195,0,0,0,0,0,0,0,0,0,-1,1336,1219,0,0
119,-195,0,0,0,0,0,0,0,0,0,-1,1343,1219,0,0
126,-195,0,0,0,0,0,0,0,0,0,-1,1350,1219,0,0
133,-195,0,0,0,0,0,0,0,0,0,-1,1357,1219,0,0
140,-195,0,0,0,0,0,0,0,0,0,-1,1364,1219,0,0
147,-195,0,0,0,0,0,0,0,0,0,-1,1371,1219,0,0
154,-195,0,0,0,0,0,0,0,0,0,-1,1378,1219,0,0
161,-195,0,0,0,0,0,0,0,0,0,-1,1385,1219,0,0
168,-195,0,0,0,0,0,0,0,0,0,-1,1392,1219,0,0
175,-195,0,0,0,0,0,0,0,0,0,-1,1399,1219,0,0
182,-195,0,0,0,0,0,0,0,0,0,-1,1406,1219,0,0
189,-195,0,0,0,0,0,0,0,0,0,-1,1413,1219,0,0
196,-195,0,0,0,0,0,0,0,0,0,-1,1420,1219,0,0
203,-195,0,0,0,0,0,0,0,0,0,-1,1427,1219,0,0
210,-195,0,0,0,0,0,0,0,0,0,-1,1434,1219,0,0
217,-195,0,0,0,0,0,0,0,0,0,-1,1441,1219,0,0
224,-195,0,0,0,0,0,0,0,0,0,-1,1448,1219,0,0
231,-195,0,0,0,0,0,0,0,0,0,-1,1455,1219,0,0
238,-195,0,0,0,0,0,0,0,0,0,-1,1462,1219,0,0
245,-195,0,0,0,0,0,0,0,0,0,-1,1469,1219,0,0
252,-195,0,0,0,0,0,0,0,0,0,-1,1476,1219,0,0
259,-195,0,0,0,0,0,0,0,0,0,-1,1483,1219,0,0
266,-195,0,0,0,0,0,0,0,0,0,-1,1490,1219,0,0
273,-195,0,0,0,0,0,0,0,0,0,-1,1497,1219,0,0
280,-195,0,0,0,0,0,0,0,0,0,-1,1504,1219,0,0
287,-195,0,0,0,0,0,0,0,0,0,-1,1511,1219,0,0
294,-195,0,0,0,0,0,0,0,0,0,-1,1518,1219,0,0
301,-195,0,0,0,0,0,0,0,0,0,-1,1525,1219,0,0
308,-195,0,0,0,0,0,0,0,0,0,-1,1532,1219,0,0
315,-195,0,0,0,0,0,0,0,0,0,-1,1539,1219,0,0
322,-195,0,0,0,0,0,0,0,0,0,-1,1546,1219,0,0
329,-195,0,0,0,0,0,0,0,0,0,-1,1553,1219,0,0
336,-195,0,0,0,0,0,0,0,0,0,-1,1560,1219,0,0
343,-195,0,0,0,0,0,0,0,0,0,-1,1567,1219,0,0
350,-195,0,0,0,0,0,0,0,0,0,-1,1574,1219,0,0
357,-195,0,0,0,0,0,0,0,0,0,-1,1581,1219,0,0
364,-195,0,0,0,0,0,0,0,0,0,-1,1588,1219,0,0
371,-195,0,0,0,0,0,0,0,0,0,-1,1595,1219,0,0
378,-195,0,0,0,0,0,0,0,0,0,-1,1602,1219,0,0
385,-195,0,0,0,0,0,0,0,0,0,-1,1609,1219,0,0
392,-195,0,0,0,0,0,0,0,0,0,-1,1616,1219,0,0
399,-195,0,0,0,0,0,0,0,0,0,-1,1623,1219,0,0
406,-195,0,0,0,0,0,0,0,0,0,-1,1630,1219,0,0
413,-195,0,0,0,0,0,0,0,0,0,-1,1637,1219,0,0
420,-195,0,0,0,0,0,0,0,0,0,-1,1644,1219,0,0
427,-195,0,0,0,0,0,0,0,0,0,-1,1651,1219,0,0
434,-195,0,0,0,0,0,0,0,0,0,-1,1658,1219,0,0
441,-195,0,0,0,0,0,0,0,0,0,-1,1665,1219,0,0
448,-195,0,0,0,0,0,0,0,0,0,-1,1672,1219,0,0
455,-195,0,0,0,0,0,0,0,0,0,-1,1679,1219,0,0
462,-195,0,0,0,0,0,0,0,0,0,-1,1686,1219,0,0
469,-195,0,0,0,0,0,0,0,0,0,-1,1693,1219,0,0
476,-195,0,0,0,0,0,0,0,0,0,-1,1700,1219,0,0
483,-195,0,0,0,0,0,0,0,0,0,-1,1707,1219,0,0
490,-195,0,0,0,0,0,0,0,0,0,-1,1714,1219,0,0
497,-195,0,0,0,0,0,0,0,0,0,-1,1721,1219,0,0
504,-195,0,0,0,0,0,0,0,0,0,-1,1728,1219,0,0
511,-195,0,0,0,0,0,0,0,0,0,-1,1735,1219,0,0
518,-195,0,0,0,0,0,0,0,0,0,-1,1742,1219,0,0
525,-195,0,0,0,0,0,0,0,0,0,-1,1749,1219,0,0
532,-195,0,0,0,0,0,0,0,0,0,-1,1756,1219,0,0
539,-195,0,0,0,0,0,0,0,0,0,-1,1763,1219,0,0
546,-195,0,0,0,0,0,0,0,0,0,-1,1770,1219,0,0
553,-195,0,0,0,0,0,0,0,0,0,-1,1777,1219,0,0
560,-195,0,0,0,0,0,0,0,0,0,-1,1784,1219,0,0
567,-195,0,0,0,0,0,0,0,0,0,-1,1791,1219,0,0
574,-195,0,0,0,0,0,0,0,0,0,-1,1798,1219,0,0
581,-195,0,0,0,0,0,0,0,0,0,-1,1805,1219,0,0
588,-195,0,0,0,0,0,0,0,0,0,-1,1812,1219,0,0
595,-195,0,0,0,0,0,0,0,0,0,-1,1819,1219,0,0
602,-195,0,0,0,0,0,0,0,0,0,-1,1826,1219,0,0
609,-195,0,0,0,0,0,0,0,0,0,-1,1833,1219,0,0
616,-195,0,0,0,0,0,0,0,0,0,-1,1840,1219,0,0
623,-195,0,0,0,0,0,0,0,0,0,-1,1847,1219,0,0
630,-195,18.6991,2.55457,-0.000679661,0.00153818,-0.000438235,0.00162163,-0.000763114,-1.38262,0.00140626,0.0403517,1854,1219,18.6991,-2.55459
637,-195,18.6965,2.81738,0.000193036,0.00194565,-0.000866195,0.0023015,-0.000162813,-1.181,0.00159138,0.0384186,1861,1219,18.6965,-2.81735
644,-195,18.7793,2.79797,0.000122374,0.00187668,-0.000845284,0.00221768,-0.000218629,-1.18735,0.00155646,0.0349535,1868,1219,18.7792,-2.79798
651,-195,18.7599,2.65149,-0.000396469,0.00150716,-0.000538566,0.00164896,-0.000538275,-1.31334,0.00131596,0.0286125,1875,1219,18.7599,-2.65145
658,-195,18.7273,2.59961,-0.00118037,0.000922261,-5.00869e-07,0.000922261,-0.00118037,-1.57056,0.001217,0.025857,1882,1219,18.7273,-2.59961
665,-195,18.7426,2.58704,-0.00179325,0.000332301,0.000502812,0.000445242,-0.0019062,1.34984,0.0014423,0.0238746,1889,1219,18.7426,-2.58704
672,-195,18.7623,2.55176,-0.00240035,-0.000279976,0.000947867,8.19647e-05,-0.00276229,1.20604,0.00186945,0.0355498,1896,1219,18.7624,-2.55176
679,-195,18.7935,2.4458,-0.00288144,-0.000693128,0.00146072,3.77896e-05,-0.00361235,1.10684,0.00242093,0.0489287,1903,1219,18.7934,-2.44577
686,-195,18.9701,2.45068,-0.00335099,-0.00112613,0.00182341,-0.000102601,-0.00437452,1.0593,0.00288276,0.0483891,1910,1219,18.9701,-2.45067
693,-195,17.4128,3.98975,0,0,0,0,0,0,0,-1,1917,1219,17.4129,-3.98977
700,-195,16.8265,4.37805,-0.00402352,-0.00158234,0.00238453,-0.000124158,-0.00548171,1.02195,0.0036138,0.0306529,1924,1219,16.8266,-4.37802
707,-195,16.7274,4.37866,-0.00412119,-0.0016931,0.00253454,-9.68417e-05,-0.00571745,1.00875,0.00377977,0.0142161,1931,1219,16.7274,-4.3786
714,-195,16.7396,4.24109,-0.00409107,-0.00173959,0.00247026,-0.000179545,-0.00565112,1.00751,0.00370901,0.0148598,1938,1219,16.7396,-4.24111
721,-195,16.7496,4.1178,-0.00368211,-0.00141595,0.0023494,5.93276e-05,-0.00515739,1.01009,0.0034582,0.0114736,1945,1219,16.7497,-4.11778
728,-195,16.7499,4.01416,-0.00292095,-0.000989336,0.00190386,0.000179678,-0.00408997,1.02013,0.00278847,0.00946818,1952,1219,16.7499,-4.01422
735,-195,16.7255,3.88879,-0.0018342,-5.4729e-05,0.00154226,0.00083604,-0.00272497,1.04703,0.0021502,0.0122194,1959,1219,16.7255,-3.88876
742,-195,16.7209,3.7572,-9.23972e-05,0.00130853,0.000977861,0.00181092,-0.000594789,1.0962,0.00144689,0.0143956,1966,1219,16.721,-3.75725
749,-195,16.7368,3.64575,0.00158428,0.00261647,-6.8941e-05,0.00262105,0.0015797,-1.5044,0.00152387,0.0134566,1973,1219,16.7368,-3.64575
756,-195,16.7266,3.52307,0.00367085,0.00413075,-0.0010015,0.00492836,0.00287324,-0.898246,0.00285843,0.012612,1980,1219,16.7266,-3.52308
763,-195,16.724,3.3761,0.00586579,0.00584947,-0.00174973,0.00760738,0.00410788,-0.783066,0.0043968,0.0132725,1987,1219,16.724,-3.37611
770,-195,16.7847,3.25061,0.00863143,0.00780259,-0.00256198,0.0108123,0.00562173,-0.705214,0.00624413,0.0263648,1994,1219,16.7847,-3.25056
777,-195,16.8916,3.12488,0.0121787,0.00994821,-0.00352478,0.0147605,0.00736644,-0.632181,0.00852196,0.0447248,2001,1219,16.8916,-3.12488
784,-195,16.6964,2.625,0.0165569,0.0121742,-0.00463711,0.0194944,0.0092367,-0.564665,0.0112602,0.0427769,2008,1219,16.6964,-2.62501
791,-195,16.64,2.49829,0.0219828,0.0143145,-0.00601435,0.0252812,0.0110161,-0.501628,0.0146362,0.0440198,2015,1219,16.64,-2.49827
798,-195,17.0332,2.64844,0.0288752,0.0160085,-0.00773667,0.0325039,0.0123798,-0.438558,0.0189428,0.0450827,2022,1219,17.0332,-2.64846
805,-195,0,0,0,0,0,0,0,0,0,-1,2029,1219,0,0
812,-195,0,0,0,0,0,0,0,0,0,-1,2036,1219,0,0
-700,-202,0,0,0,0,0,0,0,0,0,-1,524,1226,0,0
-693,-202,0,0,0,0,0,0,0,0,0,-1,531,1226,0,0
-686,-202,0,0,0,0,0,0,0,0,0,-1,538,1226,0,0
-679,-202,-10.9282,-0.563477,0.000554794,0.0223262,0.0173465,0.0319197,-0.00903876,1.06561,0.0248469,0.0459362,545,1226,-10.9282,0.563514
-672,-202,-10.3256,-0.466797,0,0,0,0,0,0,0,-1,552,1226,-10.3256,0.466819
-665,-202,-9.59894,-0.130127,0,0,0,0,0,0,0,-1,559,1226,-9.59896,0.130135
-658,-202,-9.25159,0.266846,0,0,0,0,0,0,0,-1,566,1226,-9.2516,-0.266886
-651,-202,-9.62671,0.273926,-0.00361121,0.0119814,0.00395966,0.0129293,-0.00455912,1.33583,0.0104754,0.0474119,573,1226,-9.62668,-0.273945
-644,-202,-9.53497,0.46875,-0.00325894,0.00989003,0.00269289,0.0104202,-0.00378906,1.37642,0.00849626,0.0465913,580,1226,-9.53497,-0.468738
-637,-202,-9.4317,0.777954,-0.00283019,0.00796976,0.00184554,0.00827643,-0.00313685,1.40614,0.00680853,0.0308167,587,1226,-9.43167,-0.777946
-630,-202,-9.54175,1.01758,-0.00243431,0.0061575,0.00107802,0.0062907,-0.0025675,1.44786,0.00526271,0.0128159,594,1226,-9.54172,-1.01758
-623,-202,-9.58173,1.17529,-0.0025319,0.00437389,0.000196947,0.0043795,-0.00253751,1.54231,0.00404047,0.0083728,601,1226,-9.58171,-1.17533
-616,-202,-9.58777,1.32642,-0.0022617,0.00264377,-0.000686169,0.00273794,-0.00235588,-1.4344,0.00294367,0.00878968,608,1226,-9.58774,-1.32643
-609,-202,-9.56995,1.47156,-0.00210116,0.00142976,-0.00191077,0.00226582,-0.00293722,-1.15834,0.0030123,0.0219431,615,1226,-9.56996,-1.47156
-602,-202,-9.61395,1.58362,-0.00209153,0.000504689,-0.00270623,0.00220804,-0.00379489,-1.00903,0.00350593,0.0212134,622,1226,-9.61397,-1.58358
-595,-202,-9.62653,1.8031,-0.0020618,-0.00112951,-0.00361822,0.00205247,-0.00524377,-0.849462,0.00434472,0.0154887,629,1226,-9.62651,-1.80312
-588,-202,-9.58179,1.94373,-0.00147777,-0.00239557,-0.00486786,0.00295277,-0.00682611,-0.738401,0.00579159,0.00812239,636,1226,-9.58181,-1.94374
-581,-202,-9.56116,2.07007,-0.0002605,-0.00325462,-0.0059537,0.00438147,-0.00789659,-0.662227,0.00718493,0.0112147,643,1226,-9.56119,-2.07004
-574,-202,-9.61957,2.07971,0.000880697,-0.00412172,-0.00645605,0.00530311,-0.00854414,-0.60059,0.00806738,0.018047,650,1226,-9.61959,-2.07976
-567,-202,-9.73456,2.07605,0.00186552,-0.00469037,-0.00654329,0.00590601,-0.00873087,-0.55319,0.00850291,0.0447011,657,1226,-9.73456,-2.07609
-560,-202,-9.89813,2.15198,0,0,0,0,0,0,0,-1,664,1226,-9.89814,-2.15196
-553,-202,-12.1478,1.8783,0,0,0,0,0,0,0,-1,671,1226,-12.1478,-1.87828
-546,-202,-12.1645,1.46313,0.00459018,-0.00511427,-0.00662786,0.00795213,-0.00847622,-0.469427,0.00948652,0.0481573,678,1226,-12.1645,-1.46318
-539,-202,-12.0345,0.942627,0.00538741,-0.00483841,-0.00624755,0.00834753,-0.00779852,-0.442472,0.00932372,0.040716,685,1226,-12.0345,-0.942637
-532,-202,-11.8916,0.692993,0.00592319,-0.00403106,-0.0055449,0.00839708,-0.00650495,-0.419653,0.00862678,0.0309774,692,1226,-11.8916,-0.693018
-525,-202,-11.7115,0.521729,0.00607838,-0.0023902,-0.00437237,0.0079307,-0.00424252,-0.40072,0.00713492,0.0360153,699,1226,-11.7115,-0.521776
-518,-202,-11.5862,0.454102,0.00520639,0.000578695,-0.00277758,0.00650763,-0.000722544,-0.438114,0.00459823,0.0411344,706,1226,-11.5862,-0.454155
-511,-202,-11.4631,0.443115,0.00362078,0.00433216,-0.00157071,0.00558696,0.00236599,-0.896746,0.0032382,0.0437508,713,1226,-11.4631,-0.443152
-504,-202,0,0,0,0,0,0,0,0,0,-1,720,1226,0,0
-497,-202,0,0,0,0,0,0,0,0,0,-1,727,1226,0,0
-490,-202,0,0,0,0,0,0,0,0,0,-1,734,1226,0,0
-483,-202,0,0,0,0,0,0,0,0,0,-1,741,1226,0,0
-476,-202,0,0,0,0,0,0,0,0,0,-1,748,1226,0,0
-469,-202,0,0,0,0,0,0,0,0,0,-1,755,1226,0,0
-462,-202,0,0,0,0,0,0,0,0,0,-1,762,1226,0,0
-455,-202,0,0,0,0,0,0,0,0,0,-1,769,1226,0,0
-448,-202,0,0,0,0,0,0,0,0,0,-1,776,1226,0,0
-441,-202,0,0,0,0,0,0,0,0,0,-1,783,1226,0,0
-434,-202,0,0,0,0,0,0,0,0,0,-1,790,1226,0,0
-427,-202,0,0,0,0,0,0,0,0,0,-1,797,1226,0,0
-420,-202,0,0,0,0,0,0,0,0,0,-1,804,1226,0,0
-413,-202,0,0,0,0,0,0,0,0,0,-1,811,1226,0,0
-406,-202,0,0,0,0,0,0,0,0,0,-1,818,1226,0,0
-399,-202,0,0,0,0,0,0,0,0,0,-1,825,1226,0,0
-392,-202,0,0,0,0,0,0,0,0,0,-1,832,1226,0,0
-385,-202,0,0,0,0,0,0,0,0,0,-1,839,1226,0,0
-378,-202,0,0,0,0,0,0,0,0,0,-1,846,1226,0,0
-371,-202,0,0,0,0,0,0,0,0,0,-1,853,1226,0,0
-364,-202,0,0,0,0,0,0,0,0,0,-1,860,1226,0,0
-357,-202,0,0,0,0,0,0,0,0,0,-1,867,1226,0,0
-350,-202,0,0,0,0,0,0,0,0,0,-1,874,1226,0,0
-343,-202,0,0,0,0,0,0,0,0,0,-1,881,1226,0,0
-336,-202,0,0,0,0,0,0,0,0,0,-1,888,1226,0,0
-329,-202,0,0,0,0,0,0,0,0,0,-1,895,1226,0,0
-322,-202,0,0,0,0,0,0,0,0,0,-1,902,1226,0,0
-315,-202,0,0,0,0,0,0,0,0,0,-1,909,1226,0,0
-308,-202,0,0,0,0,0,0,0,0,0,-1,916,1226,0,0
-301,-202,0,0,0,0,0,0,0,0,0,-1,923,1226,0,0
-294,-202,0,0,0,0,0,0,0,0,0,-1,930,1226,0,0
-287,-202,0,0,0,0,0,0,0,0,0,-1,937,1226,0,0
-280,-202,0,0,0,0,0,0,0,0,0,-1,944,1226,0,0
-273,-202,0,0,0,0,0,0,0,0,0,-1,951,1226,0,0
-266,-202,0,0,0,0,0,0,0,0,0,-1,958,1226,0,0
-259,-202,0,0,0,0,0,0,0,0,0,-1,965,1226,0,0
-252,-202,0,0,0,0,0,0,0,0,0,-1,972,1226,0,0
-245,-202,0,0,0,0,0,0,0,0,0,-1,979,1226,0,0
-238,-202,0,0,0,0,0,0,0,0,0,-1,986,1226,0,0
-231,-202,0,0,0,0,0,0,0,0,0,-1,993,1226,0,0
-224,-202,0,0,0,0,0,0,0,0,0,-1,1000,1226,0,0
-217,-202,0,0,0,0,0,0,0,0,0,-1,1007,1226,0,0
-210,-202,0,0,0,0,0,0,0,0,0,-1,1014,1226,0,0
-203,-202,0,0,0,0,0,0,0,0,0,-1,1021,1226,0,0
-196,-202,0,0,0,0,0,0,0,0,0,-1,1028,1226,0,0
-189,-202,0,0,0,0,0,0,0,0,0,-1,1035,1226,0,0
-182,-202,0,0,0,0,0,0,0,0,0,-1,1042,1226,0,0
-175,-202,0,0,0,0,0,0,0,0,0,-1,1049,1226,0,0
-168,-202,0,0,0,0,0,0,0,0,0,-1,1056,1226,0,0
-161,-202,0,0,0,0,0,0,0,0,0,-1,1063,1226,0,0
-154,-202,0,0,0,0,0,0,0,0,0,-1,1070,1226,0,0
-147,-202,0,0,0,0,0,0,0,0,0,-1,1077,1226,0,0
-140,-202,0,0,0,0,0,0,0,0,0,-1,1084,1226,0,0
-133,-202,0,0,0,0,0,0,0,0,0,-1,1091,1226,0,0
-126,-202,0,0,0,0,0,0,0,0,0,-1,1098,1226,0,0
-119,-202,0,0,0,0,0,0,0,0,0,-1,1105,1226,0,0
-112,-202,0,0,0,0,0,0,0,0,0,-1,1112,1226,0,0
-105,-202,0,0,0,0,0,0,0,0,0,-1,1119,1226,0,0
-98,-202,0,0,0,0,0,0,0,0,0,-1,1126,1226,0,0
-91,-202,0,0,0,0,0,0,0,0,0,-1,1133,1226,0,0
-84,-202,0,0,0,0,0,0,0,0,0,-1,1140,1226,0,0
-77,-202,0,0,0,0,0,0,0,0,0,-1,1147,1226,0,0
-70,-202,0,0,0,0,0,0,0,0,0,-1,1154,1226,0,0
-63,-202,0,0,0,0,0,0,0,0,0,-1,1161,1226,0,0
-56,-202,0,0,0,0,0,0,0,0,0,-1,1168,1226,0,0
-49,-202,0,0,0,0,0,0,0,0,0,-1,1175,1226,0,0
-42,-202,0,0,0,0,0,0,0,0,0,-1,1182,1226,0,0
-35,-202,0,0,0,0,0,0,0,0,0,-1,1189,1226,0,0
-28,-202,0,0,0,0,0,0,0,0,0,-1,1196,1226,0,0
-21,-202,0,0,0,0,0,0,0,0,0,-1,1203,1226,0,0
-14,-202,0,0,0,0,0,0,0,0,0,-1,1210,1226,0,0
-7,-202,0,0,0,0,0,0,0,0,0,-1,1217,1226,0,0
0,-202,0,0,0,0,0,0,0,0,0,-1,1224,1226,0,0
7,-202,0,0,0,0,0,0,0,0,0,-1,1231,1226,0,0
14,-202,0,0,0,0,0,0,0,0,0,-1,1238,1226,0,0
21,-202,0,0,0,0,0,0,0,0,0,-1,1245,1226,0,0
28,-202,0,0,0,0,0,0,0,0,0,-1,1252,1226,0,0
35,-202,0,0,0,0,0,0,0,0,0,-1,1259,1226,0,0
42,-202,0,0,0,0,0,0,0,0,0,-1,1266,1226,0,0
49,-202,0,0,0,0,0,0,0,0,0,-1,1273,1226,0,0
56,-202,0,0,0,0,0,0,0,0,0,-1,1280,1226,0,0
63,-202,0,0,0,0,0,0,0,0,0,-1,1287,1226,0,0
70,-202,0,0,0,0,0,0,0,0,0,-1,1294,1226,0,0
77,-202,0,0,0,0,0,0,0,0,0,-1,1301,1226,0,0
84,-202,0,0,0,0,0,0,0,0,0,-1,1308,1226,0,0
91,-202,0,0,0,0,0,0,0,0,0,-1,1315,1226,0,0
98,-202,0,0,0,0,0,0,0,0,0,-1,1322,1226,0,0
105,-202,0,0,0,0,0,0,0,0,0,-1,1329,1226,0,0
112,-202,0,0,0,0,0,0,0,0,0,-1,1336,1226,0,0
119,-202,0,0,0,0,0,0,0,0,0,-1,1343,1226,0,0
126,-202,0,0,0,0,0,0,0,0,0,-1,1350,1226,0,0
133,-202,0,0,0,0,0,0,0,0,0,-1,1357,1226,0,0
140,-202,0,0,0,0,0,0,0,0,0,-1,1364,1226,0,0
147,-202,0,0,0,0,0,0,0,0,0,-1,1371,1226,0,0
154,-202,0,0,0,0,0,0,0,0,0,-1,1378,1226,0,0
161,-202,0,0,0,0,0,0,0,0,0,-1,1385,1226,0,0
168,-202,0,0,0,0,0,0,0,0,0,-1,1392,1226,0,0
175,-202,0,0,0,0,0,0,0,0,0,-1,1399,1226,0,0
182,-202,0,0,0,0,0,0,0,0,0,-1,1406,1226,0,0
189,-202,0,0,0,0,0,0,0,0,0,-1,1413,1226,0,0
196,-202,0,0,0,0,0,0,0,0,0,-1,1420,1226,0,0
203,-202,0,0,0,0,0,0,0,0,0,-1,1427,1226,0,0
210,-202,0,0,0,0,0,0,0,0,0,-1,1434,1226,0,0
217,-202,0,0,0,0,0,0,0,0,0,-1,1441,1226,0,0
224,-202,0,0,0,0,0,0,0,0,0,-1,1448,1226,0,0
231,-202,0,0,0,0,0,0,0,0,0,-1,1455,1226,0,0
238,-202,0,0,0,0,0,0,0,0,0,-1,1462,1226,0,0
245,-202,0,0,0,0,0,0,0,0,0,-1,1469,1226,0,0
252,-202,0,0,0,0,0,0,0,0,0,-1,1476,1226,0,0
259,-202,0,0,0,0,0,0,0,0,0,-1,1483,1226,0,0
266,-202,0,0,0,0,0,0,0,0,0,-1,1490,1226,0,0
273,-202,0,0,0,0,0,0,0,0,0,-1,1497,1226,0,0
280,-202,0,0,0,0,0,0,0,0,0,-1,1504,1226,0,0
287,-202,0,0,0,0,0,0,0,0,0,-1,1511,1226,0,0
294,-202,0,0,0,0,0,0,0,0,0,-1,1518,1226,0,0
301,-202,0,0,0,0,0,0,0,0,0,-1,1525,1226,0,0
308,-202,0,0,0,0,0,0,0,0,0,-1,1532,1226,0,0
315,-202,0,0,0,0,0,0,0,0,0,-1,1539,1226,0,0
322,-202,0,0,0,0,0,0,0,0,0,-1,1546,1226,0,0
329,-202,0,0,0,0,0,0,0,0,0,-1,1553,1226,0,0
336,-202,0,0,0,0,0,0,0,0,0,-1,1560,1226,0,0
343,-202,0,0,0,0,0,0,0,0,0,-1,1567,1226,0,0
350,-202,0,0,0,0,0,0,0,0,0,-1,1574,1226,0,0
357,-202,0,0,0,0,0,0,0,0,0,-1,1581,1226,0,0
364,-202,0,0,0,0,0,0,0,0,0,-1,1588,1226,0,0
371,-202,0,0,0,0,0,0,0,0,0,-1,1595,1226,0,0
378,-202,0,0,0,0,0,0,0,0,0,-1,1602,1226,0,0
385,-202,0,0,0,0,0,0,0,0,0,-1,1609,1226,0,0
392,-202,0,0,0,0,0,0,0,0,0,-1,1616,1226,0,0
399,-202,0,0,0,0,0,0,0,0,0,-1,1623,1226,0,0
406,-202,0,0,0,0,0,0,0,0,0,-1,1630,1226,0,0
413,-202,0,0,0,0,0,0,0,0,0,-1,1637,1226,0,0
420,-202,0,0,0,0,0,0,0,0,0,-1,1644,1226,0,0
427,-202,0,0,0,0,0,0,0,0,0,-1,1651,1226,0,0
434,-202,0,0,0,0,0,0,0,0,0,-1,1658,1226,0,0
441,-202,0,0,0,0,0,0,0,0,0,-1,1665,1226,0,0
448,-202,0,0,0,0,0,0,0,0,0,-1,1672,1226,0,0
455,-202,0,0,0,0,0,0,0,0,0,-1,1679,1226,0,0
462,-202,0,0,0,0,0,0,0,0,0,-1,1686,1226,0,0
469,-202,0,0,0,0,0,0,0,0,0,-1,1693,1226,0,0
476,-202,0,0,0,0,0,0,0,0,0,-1,1700,1226,0,0
483,-202,0,0,0,0,0,0,0,0,0,-1,1707,1226,0,0
490,-202,0,0,0,0,0,0,0,0,0,-1,1714,1226,0,0
497,-202,0,0,0,0,0,0,0,0,0,-1,1721,1226,0,0
504,-202,0,0,0,0,0,0,0,0,0,-1,1728,1226,0,0
511,-202,0,0,0,0,0,0,0,0,0,-1,1735,1226,0,0
518,-202,0,0,0,0,0,0,0,0,0,-1,1742,1226,0,0
525,-202,0,0,0,0,0,0,0,0,0,-1,1749,1226,0,0
532,-202,0,0,0,0,0,0,0,0,0,-1,1756,1226,0,0
539,-202,0,0,0,0,0,0,0,0,0,-1,1763,1226,0,0
546,-202,0,0,0,0,0,0,0,0,0,-1,1770,1226,0,0
553,-202,0,0,0,0,0,0,0,0,0,-1,1777,1226,0,0
560,-202,0,0,0,0,0,0,0,0,0,-1,1784,1226,0,0
567,-202,0,0,0,0,0,0,0,0,0,-1,1791,1226,0,0
574,-202,0,0,0,0,0,0,0,0,0,-1,1798,1226,0,0
581,-202,0,0,0,0,0,0,0,0,0,-1,1805,1226,0,0
588,-202,0,0,0,0,0,0,0,0,0,-1,1812,1226,0,0
595,-202,0,0,0,0,0,0,0,0,0,-1,1819,1226,0,0
602,-202,0,0,0,0,0,0,0,0,0,-1,1826,1226,0,0
609,-202,0,0,0,0,0,0,0,0,0,-1,1833,1226,0,0
616,-202,0,0,0,0,0,0,0,0,0,-1,1840,1226,0,0
623,-202,0,0,0,0,0,0,0,0,0,-1,1847,1226,0,0
630,-202,18.6288,2.76038,-0.00104047,0.00202981,-0.00125027,0.00247453,-0.00148519,-1.22906,0.00230981,0.0385187,1854,1226,18.6288,-2.76034
637,-202,18.7534,2.76941,-0.00043577,0.0027641,-0.0011977,0.00316273,-0.000834404,-1.2495,0.00243476,0.0351562,1861,1226,18.7534,-2.76942
644,-202,18.859,2.70056,-0.000639275,0.00276636,-0.000853513,0.0029683,-0.000841207,-1.33848,0.00231088,0.0330683,1868,1226,18.859,-2.70061
651,-202,18.8154,2.64746,-0.00120769,0.00230632,-0.000345923,0.00234005,-0.00124142,-1.4736,0.00209994,0.028216,1875,1226,18.8155,-2.6474
658,-202,18.7159,2.6106,-0.00181322,0.00163182,0.000182574,0.00164147,-0.00182287,1.518,0.00200105,0.0244794,1882,1226,18.716,-2.61054
665,-202,18.7571,2.55505,-0.00222052,0.000936092,0.000615254,0.00105177,-0.0023362,1.38495,0.00200236,0.0221429,1889,1226,18.7571,-2.55505
672,-202,18.9133,2.66125,-0.00263082,0.000211591,0.000962562,0.00050688,-0.0029261,1.27314,0.0021398,0.0431091,1896,1226,18.9134,-2.66122
679,-202,18.9291,2.41211,-0.00289906,-0.000287301,0.00139801,0.000319869,-0.00350623,1.16107,0.00245107,0.0466374,1903,1226,18.9291,-2.41206
686,-202,19.0568,2.39063,0,0,0,0,0,0,0,-1,1910,1226,19.0567,-2.39061
693,-202,16.5575,4.62183,0,0,0,0,0,0,0,-1,1917,1226,16.5575,-4.62181
700,-202,16.5371,4.50549,-0.0036044,-0.00153977,0.00213513,-0.000200496,-0.00494367,1.01057,0.00323102,0.02427,1924,1226,16.5371,-4.50547
707,-202,16.5582,4.35754,-0.00359687,-0.00169462,0.00224334,-0.000209099,-0.00508238,0.9859,0.00332075,0.0199684,1931,1226,16.5582,-4.3576
714,-202,16.611,4.2489,-0.00349055,-0.00177991,0.00213841,-0.000332105,-0.00493835,0.975643,0.0031873,0.0148424,1938,1226,16.611,-4.24886
721,-202,16.6312,4.12708,-0.00302573,-0.00137984,0.00201818,-2.32724e-05,-0.0043823,0.97899,0.00291381,0.0118094,1945,1226,16.6312,-4.12713
728,-202,16.6244,4.01282,-0.00225249,-0.000931865,0.0015811,0.000121264,-0.00330562,0.983204,0.00224526,0.00977411,1952,1226,16.6244,-4.01277
735,-202,16.6041,3.88879,-0.0010571,-7.03065e-05,0.00132605,0.000851169,-0.00197857,0.963501,0.00167642,0.0105777,1959,1226,16.6042,-3.88876
742,-202,16.6049,3.77051,0.000949815,0.00109416,0.00102609,0.00205061,-6.63439e-06,0.82051,0.00136929,0.0102516,1966,1226,16.6048,-3.77053
749,-202,16.6105,3.64709,0.00301711,0.00216203,0.0003976,0.00317342,0.00200572,0.374563,0.00185335,0.010056,1973,1226,16.6105,-3.64714
756,-202,16.6001,3.51221,0.00549627,0.00330794,-2.6466e-05,0.00549659,0.00330762,-0.0120918,0.00319529,0.010941,1980,1226,16.6001,-3.5122
763,-202,16.6012,3.37524,0.00845482,0.00461193,-0.000142211,0.00846007,0.00460667,-0.036939,0.00489087,0.0143707,1987,1226,16.6011,-3.37528
770,-202,16.673,3.23145,0.0123451,0.00604099,-0.000126283,0.0123476,0.00603846,-0.0200212,0.00712947,0.0367589,1994,1226,16.6729,-3.2314
777,-202,16.7566,3.07251,0,0,0,0,0,0,0,-1,2001,1226,16.7566,-3.07246
784,-202,16.655,1.93262,0.0235035,0.0089264,0.000336775,0.0235113,0.00891862,0.0230866,0.0137054,0.0433731,2008,1226,16.655,-1.93261
791,-202,16.7612,1.95874,0.031057,0.0100921,0.000730083,0.0310824,0.0100667,0.034768,0.0183128,0.0463203,2015,1226,16.7612,-1.95878
798,-202,17.2549,2.46606,0.0403369,0.0106401,0.00116217,0.0403823,0.0105947,0.0390549,0.0241766,0.0464368,2022,1226,17.2549,-2.46612
805,-202,0,0,0,0,0,0,0,0,0,-1,2029,1226,0,0
812,-202,0,0,0,0,0,0,0,0,0,-1,2036,1226,0,0
-700,-209,0,0,0,0,0,0,0,0,0,-1,524,1233,0,0
-693,-209,0,0,0,0,0,0,0,0,0,-1,531,1233,0,0
-686,-209,0,0,0,0,0,0,0,0,0,-1,538,1233,0,0
-679,-209,-11.0921,-0.912842,0,0,0,0,0,0,0,-1,545,1233,-11.0921,0.912818
-672,-209,-10.0549,-0.724976,0,0,0,0,0,0,0,-1,552,1233,-10.0549,0.724957
-665,-209,-9.69904,-0.42749,0,0,0,0,0,0,0,-1,559,1233,-9.69902,0.427495
-658,-209,-9.25775,-0.203979,0.00289074,0.0120385,-0.000878821,0.0121222,0.00280708,-1.47588,0.00732723,0.0470168,566,1233,-9.25772,0.204023
-651,-209,-9.42822,-0.177368,0.00102222,0.0104223,-0.00068448,0.0104718,0.000972637,-1.49849,0.00668066,0.0470838,573,1233,-9.42822,0.177326
-644,-209,-9.66046,-0.0788574,-0.000230722,0.00883767,-0.000402121,0.00885546,-0.000248518,-1.52657,0.0059882,0.04724,580,1233,-9.66048,0.0788062
-637,-209,-9.24103,0.602051,-0.000994197,0.00728896,-0.000132688,0.00729108,-0.000996322,-1.55478,0.00522459,0.0414763,587,1233,-9.24103,-0.602047
-630,-209,-9.31091,0.892578,-0.00140227,0.0057533,-8.46764e-05,0.0057543,-0.00140328,-1.55896,0.00437955,0.0217368,594,1233,-9.31094,-0.892565
-623,-209,-9.41016,1.1427,-0.00194937,0.00421372,-0.000299896,0.00422828,-0.00196393,-1.52229,0.00365388,0.0110048,601,1233,-9.41016,-1.14269
-616,-209,-9.42194,1.30518,-0.00185908,0.0026416,-0.000638494,0.00273043,-0.00194791,-1.43256,0.0027136,0.0113581,608,1233,-9.42194,-1.3052
-609,-209,-9.42786,1.46497,-0.00171694,0.00148932,-0.00141547,0.00202478,-0.0022524,-1.20914,0.0024706,0.013734,615,1233,-9.42786,-1.46498
-602,-209,-9.42664,1.62048,-0.00152318,0.000549825,-0.00193603,0.00170936,-0.00268271,-1.03117,0.00255643,0.0156858,622,1233,-9.42666,-1.62054
-595,-209,-9.42474,1.7738,-0.00117413,-0.00112306,-0.00266533,0.00151686,-0.00381405,-0.790188,0.00317162,0.0119433,629,1233,-9.42472,-1.77386
-588,-209,-9.41858,1.93066,-0.0002504,-0.00246614,-0.00380172,0.00260158,-0.00531812,-0.643618,0.00466124,0.0134764,636,1233,-9.41861,-1.93072
-581,-209,-9.38043,2.11267,0.00122537,-0.00342586,-0.00483967,0.0042692,-0.00646969,-0.561422,0.00624334,0.0126824,643,1233,-9.38045,-2.1127
-574,-209,-9.4704,2.20227,0.00236109,-0.00451516,-0.00532736,0.00526342,-0.0074175,-0.498841,0.00735646,0.0150322,650,1233,-9.47043,-2.20221
-567,-209,-9.62195,2.41589,0.00334096,-0.00528094,-0.00550867,0.00602499,-0.00796497,-0.453385,0.00810295,0.0315163,657,1233,-9.62192,-2.41591
-560,-209,-9.78113,2.76563,0,0,0,0,0,0,0,-1,664,1233,-9.78115,-2.76563
-553,-209,-12.996,2.37769,0,0,0,0,0,0,0,-1,671,1233,-12.996,-2.37764
-546,-209,-12.7612,1.84045,0.00570137,-0.00595141,-0.00632252,0.00847272,-0.00872276,-0.413107,0.00992816,0.0455675,678,1233,-12.7612,-1.84049
-539,-209,-12.311,1.2865,0.00614396,-0.00576689,-0.00633461,0.00888304,-0.00850597,-0.408121,0.0100403,0.0391905,685,1233,-12.311,-1.28646
-532,-209,-11.9468,0.896851,0.00629533,-0.00505878,-0.00614624,0.00898518,-0.00774864,-0.41253,0.00967006,0.0323833,692,1233,-11.9468,-0.896808
-525,-209,-11.825,0.652954,0.00597996,-0.0034861,-0.0055746,0.00855978,-0.00606592,-0.433431,0.00848497,0.0336811,699,1233,-11.825,-0.65291
-518,-209,-11.7955,0.658691,0.00465938,-0.000477266,-0.00449952,0.00727198,-0.00308986,-0.526062,0.00614269,0.0434077,706,1233,-11.7956,-0.658723
-511,-209,-11.741,0.672974,0.00225357,0.00402788,-0.00310868,0.00637351,-9.20619e-05,-0.924393,0.00428003,0.04365,713,1233,-11.741,-0.673021
-504,-209,0,0,0,0,0,0,0,0,0,-1,720,1233,0,0
-497,-209,0,0,0,0,0,0,0,0,0,-1,727,1233,0,0
-490,-209,0,0,0,0,0,0,0,0,0,-1,734,1233,0,0
-483,-209,0,0,0,0,0,0,0,0,0,-1,741,1233,0,0
-476,-209,0,0,0,0,0,0,0,0,0,-1,748,1233,0,0
-469,-209,0,0,0,0,0,0,0,0,0,-1,755,1233,0,0
-462,-209,0,0,0,0,0,0,0,0,0,-1,762,1233,0,0
-455,-209,0,0,0,0,0,0,0,0,0,-1,769,1233,0,0
-448,-209,0,0,0,0,0,0,0,0,0,-1,776,1233,0,0
-441,-209,0,0,0,0,0,0,0,0,0,-1,783,1233,0,0
-434,-209,0,0,0,0,0,0,0,0,0,-1,790,1233,0,0
-427,-209,0,0,0,0,0,0,0,0,0,-1,797,1233,0,0
-420,-209,0,0,0,0,0,0,0,0,0,-1,804,1233,0,0
-413,-209,0,0,0,0,0,0,0,0,0,-1,811,1233,0,0
-406,-209,0,0,0,0,0,0,0,0,0,-1,818,1233,0,0
-399,-209,0,0,0,0,0,0,0,0,0,-1,825,1233,0,0
-392,-209,0,0,0,0,0,0,0,0,0,-1,832,1233,0,0
-385,-209,0,0,0,0,0,0,0,0,0,-1,839,1233,0,0
-378,-209,0,0,0,0,0,0,0,0,0,-1,846,1233,0,0
-371,-209,0,0,0,0,0,0,0,0,0,-1,853,1233,0,0
-364,-209,0,0,0,0,0,0,0,0,0,-1,860,1233,0,0
-357,-209,0,0,0,0,0,0,0,0,0,-1,867,1233,0,0
-350,-209,0,0,0,0,0,0,0,0,0,-1,874,1233,0,0
-343,-209,0,0,0,0,0,0,0,0,0,-1,881,1233,0,0
-336,-209,0,0,0,0,0,0,0,0,0,-1,888,1233,0,0
-329,-209,0,0,0,0,0,0,0,0,0,-1,895,1233,0,0
-322,-209,0,0,0,0,0,0,0,0,0,-1,902,1233,0,0
-315,-209,0,0,0,0,0,0,0,0,0,-1,909,1233,0,0
-308,-209,0,0,0,0,0,0,0,0,0,-1,916,1233,0,0
-301,-209,0,0,0,0,0,0,0,0,0,-1,923,1233,0,0
-294,-209,0,0,0,0,0,0,0,0,0,-1,930,1233,0,0
-287,-209,0,0,0,0,0,0,0,0,0,-1,937,1233,0,0
-280,-209,0,0,0,0,0,0,0,0,0,-1,944,1233,0,0
-273,-209,0,0,0,0,0,0,0,0,0,-1,951,1233,0,0
-266,-209,0,0,0,0,0,0,0,0,0,-1,958,1233,0,0
-259,-209,0,0,0,0,0,0,0,0,0,-1,965,1233,0,0
-252,-209,0,0,0,0,0,0,0,0,0,-1,972,1233,0,0
-245,-209,0,0,0,0,0,0,0,0,0,-1,979,1233,0,0
-238,-209,0,0,0,0,0,0,0,0,0,-1,986,1233,0,0
-231,-209,0,0,0,0,0,0,0,0,0,-1,993,1233,0,0
-224,-209,0,0,0,0,0,0,0,0,0,-1,1000,1233,0,0
-217,-209,0,0,0,0,0,0,0,0,0,-1,1007,1233,0,0
-210,-209,0,0,0,0,0,0,0,0,0,-1,1014,1233,0,0
-203,-209,0,0,0,0,0,0,0,0,0,-1,1021,1233,0,0
-196,-209,0,0,0,0,0,0,0,0,0,-1,1028,1233,0,0
-189,-209,0,0,0,0,0,0,0,0,0,-1,1035,1233,0,0
-182,-209,0,0,0,0,0,0,0,0,0,-1,1042,1233,0,0
-175,-209,0,0,0,0,0,0,0,0,0,-1,1049,1233,0,0
-168,-209,0,0,0,0,0,0,0,0,0,-1,1056,1233,0,0
-161,-209,0,0,0,0,0,0,0,0,0,-1,1063,1233,0,0
-154,-209,0,0,0,0,0,0,0,0,0,-1,1070,1233,0,0
-147,-209,0,0,0,0,0,0,0,0,0,-1,1077,1233,0,0
-140,-209,0,0,0,0,0,0,0,0,0,-1,1084,1233,0,0
-133,-209,0,0,0,0,0,0,0,0,0,-1,1091,1233,0,0
-126,-209,0,0,0,0,0,0,0,0,0,-1,1098,1233,0,0
-119,-209,0,0,0,0,0,0,0,0,0,-1,1105,1233,0,0
-112,-209,0,0,0,0,0,0,0,0,0,-1,1112,1233,0,0
-105,-209,0,0,0,0,0,0,0,0,0,-1,1119,1233,0,0
-98,-209,0,0,0,0,0,0,0,0,0,-1,1126,1233,0,0
-91,-209,0,0,0,0,0,0,0,0,0,-1,1133,1233,0,0
-84,-209,0,0,0,0,0,0,0,0,0,-1,1140,1233,0,0
-77,-209,0,0,0,0,0,0,0,0,0,-1,1147,1233,0,0
-70,-209,0,0,0,0,0,0,0,0,0,-1,1154,1233,0,0
-63,-209,0,0,0,0,0,0,0,0,0,-1,1161,1233,0,0
-56,-209,0,0,0,0,0,0,0,0,0,-1,1168,1233,0,0
-49,-209,0,0,0,0,0,0,0,0,0,-1,1175,1233,0,0
-42,-209,0,0,0,0,0,0,0,0,0,-1,1182,1233,0,0
-35,-209,0,0,0,0,0,0,0,0,0,-1,1189,1233,0,0
-28,-209,0,0,0,0,0,0,0,0,0,-1,1196,1233,0,0
-21,-209,0,0,0,0,0,0,0,0,0,-1,1203,1233,0,0
-14,-209,0,0,0,0,0,0,0,0,0,-1,1210,1233,0,0
-7,-209,0,0,0,0,0,0,0,0,0,-1,1217,1233,0,0
0,-209,0,0,0,0,0,0,0,0,0,-1,1224,1233,0,0
7,-209,0,0,0,0,0,0,0,0,0,-1,1231,1233,0,0
14,-209,0,0,0,0,0,0,0,0,0,-1,1238,1233,0,0
21,-209,0,0,0,0,0,0,0,0,0,-1,1245,1233,0,0
28,-209,0,0,0,0,0,0,0,0,0,-1,1252,1233,0,0
35,-209,0,0,0,0,0,0,0,0,0,-1,1259,1233,0,0
42,-209,0,0,0,0,0,0,0,0,0,-1,1266,1233,0,0
49,-209,0,0,0,0,0,0,0,0,0,-1,1273,1233,0,0
56,-209,0,0,0,0,0,0,0,0,0,-1,1280,1233,0,0
63,-209,0,0,0,0,0,0,0,0,0,-1,1287,1233,0,0
70,-209,0,0,0,0,0,0,0,0,0,-1,1294,1233,0,0
77,-209,0,0,0,0,0,0,0,0,0,-1,1301,1233,0,0
84,-209,0,0,0,0,0,0,0,0,0,-1,1308,1233,0,0
91,-209,0,0,0,0,0,0,0,0,0,-1,1315,1233,0,0
98,-209,0,0,0,0,0,0,0,0,0,-1,1322,1233,0,0
105,-209,0,0,0,0,0,0,0,0,0,-1,1329,1233,0,0
112,-209,0,0,0,0,0,0,0,0,0,-1,1336,1233,0,0
119,-209,0,0,0,0,0,0,0,0,0,-1,1343,1233,0,0
126,-209,0,0,0,0,0,0,0,0,0,-1,1350,1233,0,0
133,-209,0,0,0,0,0,0,0,0,0,-1,1357,1233,0,0
140,-209,0,0,0,0,0,0,0,0,0,-1,1364,1233,0,0
147,-209,0,0,0,0,0,0,0,0,0,-1,1371,1233,0,0
154,-209,0,0,0,0,0,0,0,0,0,-1,1378,1233,0,0
161,-209,0,0,0,0,0,0,0,0,0,-1,1385,1233,0,0
168,-209,0,0,0,0,0,0,0,0,0,-1,1392,1233,0,0
175,-209,0,0,0,0,0,0,0,0,0,-1,1399,1233,0,0
182,-209,0,0,0,0,0,0,0,0,0,-1,1406,1233,0,0
189,-209,0,0,0,0,0,0,0,0,0,-1,1413,1233,0,0
196,-209,0,0,0,0,0,0,0,0,0,-1,1420,1233,0,0
203,-209,0,0,0,0,0,0,0,0,0,-1,1427,1233,0,0
210,-209,0,0,0,0,0,0,0,0,0,-1,1434,1233,0,0
217,-209,0,0,0,0,0,0,0,0,0,-1,1441,1233,0,0
224,-209,0,0,0,0,0,0,0,0,0,-1,1448,1233,0,0
231,-209,0,0,0,0,0,0,0,0,0,-1,1455,1233,0,0
238,-209,0,0,0,0,0,0,0,0,0,-1,1462,1233,0,0
245,-209,0,0,0,0,0,0,0,0,0,-1,1469,1233,0,0
252,-209,0,0,0,0,0,0,0,0,0,-1,1476,1233,0,0
259,-209,0,0,0,0,0,0,0,0,0,-1,1483,1233,0,0
266,-209,0,0,0,0,0,0,0,0,0,-1,1490,1233,0,0
273,-209,0,0,0,0,0,0,0,0,0,-1,1497,1233,0,0
280,-209,0,0,0,0,0,0,0,0,0,-1,1504,1233,0,0
287,-209,0,0,0,0,0,0,0,0,0,-1,1511,1233,0,0
294,-209,0,0,0,0,0,0,0,0,0,-1,1518,1233,0,0
301,-209,0,0,0,0,0,0,0,0,0,-1,1525,1233,0,0
308,-209,0,0,0,0,0,0,0,0,0,-1,1532,1233,0,0
315,-209,0,0,0,0,0,0,0,0,0,-1,1539,1233,0,0
322,-209,0,0,0,0,0,0,0,0,0,-1,1546,1233,0,0
329,-209,0,0,0,0,0,0,0,0,0,-1,1553,1233,0,0
336,-209,0,0,0,0,0,0,0,0,0,-1,1560,1233,0,0
343,-209,0,0,0,0,0,0,0,0,0,-1,1567,1233,0,0
350,-209,0,0,0,0,0,0,0,0,0,-1,1574,1233,0,0
357,-209,0,0,0,0,0,0,0,0,0,-1,1581,1233,0,0
364,-209,0,0,0,0,0,0,0,0,0,-1,1588,1233,0,0
371,-209,0,0,0,0,0,0,0,0,0,-1,1595,1233,0,0
378,-209,0,0,0,0,0,0,0,0,0,-1,1602,1233,0,0
385,-209,0,0,0,0,0,0,0,0,0,-1,1609,1233,0,0
392,-209,0,0,0,0,0,0,0,0,0,-1,1616,1233,0,0
399,-209,0,0,0,0,0,0,0,0,0,-1,1623,1233,0,0
406,-209,0,0,0,0,0,0,0,0,0,-1,1630,1233,0,0
413,-209,0,0,0,0,0,0,0,0,0,-1,1637,1233,0,0
420,-209,0,0,0,0,0,0,0,0,0,-1,1644,1233,0,0
427,-209,0,0,0,0,0,0,0,0,0,-1,1651,1233,0,0
434,-209,0,0,0,0,0,0,0,0,0,-1,1658,1233,0,0
441,-209,0,0,0,0,0,0,0,0,0,-1,1665,1233,0,0
448,-209,0,0,0,0,0,0,0,0,0,-1,1672,1233,0,0
455,-209,0,0,0,0,0,0,0,0,0,-1,1679,1233,0,0
462,-209,0,0,0,0,0,0,0,0,0,-1,1686,1233,0,0
469,-209,0,0,0,0,0,0,0,0,0,-1,1693,1233,0,0
476,-209,0,0,0,0,0,0,0,0,0,-1,1700,1233,0,0
483,-209,0,0,0,0,0,0,0,0,0,-1,1707,1233,0,0
490,-209,0,0,0,0,0,0,0,0,0,-1,1714,1233,0,0
497,-209,0,0,0,0,0,0,0,0,0,-1,1721,1233,0,0
504,-209,0,0,0,0,0,0,0,0,0,-1,1728,1233,0,0
511,-209,0,0,0,0,0,0,0,0,0,-1,1735,1233,0,0
518,-209,0,0,0,0,0,0,0,0,0,-1,1742,1233,0,0
525,-209,0,0,0,0,0,0,0,0,0,-1,1749,1233,0,0
532,-209,0,0,0,0,0,0,0,0,0,-1,1756,1233,0,0
539,-209,0,0,0,0,0,0,0,0,0,-1,1763,1233,0,0
546,-209,0,0,0,0,0,0,0,0,0,-1,1770,1233,0,0
553,-209,0,0,0,0,0,0,0,0,0,-1,1777,1233,0,0
560,-209,0,0,0,0,0,0,0,0,0,-1,1784,1233,0,0
567,-209,0,0,0,0,0,0,0,0,0,-1,1791,1233,0,0
574,-209,0,0,0,0,0,0,0,0,0,-1,1798,1233,0,0
581,-209,0,0,0,0,0,0,0,0,0,-1,1805,1233,0,0
588,-209,0,0,0,0,0,0,0,0,0,-1,1812,1233,0,0
595,-209,0,0,0,0,0,0,0,0,0,-1,1819,1233,0,0
602,-209,0,0,0,0,0,0,0,0,0,-1,1826,1233,0,0
609,-209,0,0,0,0,0,0,0,0,0,-1,1833,1233,0,0
616,-209,0,0,0,0,0,0,0,0,0,-1,1840,1233,0,0
623,-209,18.8241,2.73718,-0.000178518,0.00201054,-0.00227734,0.00344272,-0.0016107,-1.00941,0.00298082,0.0365035,1847,1233,18.8241,-2.73716
630,-209,18.7488,2.74341,-0.00157065,0.002653,-0.00171491,0.0032616,-0.00217925,-1.22977,0.00316193,0.0376188,1854,1233,18.7488,-2.74339
637,-209,18.7494,2.59802,-0.00208483,0.00338878,-0.00159439,0.00381934,-0.00251538,-1.30704,0.00368309,0.0344489,1861,1233,18.7494,-2.59801
644,-209,18.7925,2.53857,-0.00274488,0.00331915,-0.0011577,0.00353265,-0.00295839,-1.38843,0.00375249,0.0297435,1868,1233,18.7925,-2.53858
651,-209,18.8063,2.57922,-0.0033225,0.00276005,-0.000568659,0.00281275,-0.00337521,-1.47837,0.00357754,0.0251013,1875,1233,18.8063,-2.57925
658,-209,18.7655,2.59314,-0.00364673,0.00202711,-2.79719e-05,0.00202725,-0.00364686,-1.56587,0.00332014,0.0229167,1882,1233,18.7655,-2.59308
665,-209,18.9658,2.73132,-0.003714,0.0012896,0.00040723,0.00132253,-0.00374693,1.49012,0.00303637,0.0360422,1889,1233,18.9658,-2.7313
672,-209,18.9391,2.65417,0,0,0,0,0,0,0,-1,1896,1233,18.9391,-2.65415
679,-209,19.0339,2.36768,0,0,0,0,0,0,0,-1,1903,1233,19.0339,-2.36765
686,-209,16.6322,4.65967,0,0,0,0,0,0,0,-1,1910,1233,16.6322,-4.65962
693,-209,16.4204,4.81543,0,0,0,0,0,0,0,-1,1917,1233,16.4204,-4.81544
700,-209,16.4197,4.58984,-0.00344424,-0.00152991,0.00197963,-0.000288185,-0.00468596,1.01058,0.00303248,0.0215664,1924,1233,16.4197,-4.58988
707,-209,16.4535,4.39136,-0.00331319,-0.00173877,0.00203489,-0.000344129,-0.00470783,0.96996,0.00303036,0.0176591,1931,1233,16.4535,-4.39134
714,-209,16.4727,4.26196,-0.00307896,-0.00186376,0.00186081,-0.000513868,-0.00442885,0.943203,0.00279706,0.0126119,1938,1233,16.4726,-4.26196
721,-209,16.4916,4.13293,-0.00249982,-0.00140896,0.00172422,-0.000145961,-0.00376282,0.938586,0.00246134,0.0117427,1945,1233,16.4916,-4.13298
728,-209,16.4965,4.01147,-0.001638,-0.000971656,0.00128699,2.45901e-05,-0.00263424,0.912055,0.00176442,0.0115349,1952,1233,16.4964,-4.01152
735,-209,16.4849,3.88574,-0.000178051,-0.000269367,0.00113029,0.000907504,-0.00135492,0.765212,0.0013147,0.0127375,1959,1233,16.4849,-3.88569
742,-209,16.4803,3.76758,0.0022053,0.000559852,0.00113371,0.00278335,-1.82013e-05,0.471518,0.00186166,0.0104805,1966,1233,16.4803,-3.76755
749,-209,16.4805,3.64209,0.00470716,0.00128078,0.000943694,0.00494988,0.00103806,0.251744,0.00301409,0.00918811,1973,1233,16.4805,-3.64213
756,-209,16.4706,3.51538,0.00771686,0.00193805,0.00107326,0.00790975,0.00174516,0.177826,0.00479842,0.0104936,1980,1233,16.4706,-3.51535
763,-209,16.4662,3.39246,0.0115536,0.00265857,0.00168596,0.0118624,0.00234974,0.181172,0.00725302,0.0159849,1987,1233,16.4661,-3.39241
770,-209,16.5636,3.26428,0.0166378,0.00335704,0.00270582,0.0171679,0.00282692,0.193469,0.010629,0.0407985,1994,1233,16.5636,-3.26428
777,-209,16.6544,3.12427,0,0,0,0,0,0,0,-1,2001,1233,16.6544,-3.12424
784,-209,17.1315,1.17395,0,0,0,0,0,0,0,-1,2008,1233,17.1315,-1.17395
791,-209,16.7498,1.77502,0,0,0,0,0,0,0,-1,2015,1233,16.7497,-1.77504
798,-209,17.6731,2.18384,0,0,0,0,0,0,0,-1,2022,1233,17.6731,-2.18385
805,-209,0,0,0,0,0,0,0,0,0,-1,2029,1233,0,0
812,-209,0,0,0,0,0,0,0,0,0,-1,2036,1233,0,0
-700,-216,0,0,0,0,0,0,0,0,0,-1,524,1240,0,0
-693,-216,0,0,0,0,0,0,0,0,0,-1,531,1240,0,0
-686,-216,0,0,0,0,0,0,0,0,0,-1,538,1240,0,0
-679,-216,-11.0266,-1.25781,0,0,0,0,0,0,0,-1,545,1240,-11.0266,1.25784
-672,-216,-9.86005,-1.19348,0,0,0,0,0,0,0,-1,552,1240,-9.86004,1.19347
-665,-216,-9.15637,0.34436,0,0,0,0,0,0,0,-1,559,1240,-9.15639,-0.344315
-658,-216,-8.99042,0.230835,0.00509005,0.0102337,-0.00765123,0.0157338,-0.000410033,-0.947531,0.0106285,0.0463666,566,1240,-8.99042,-0.230779
-651,-216,-9.07025,-0.6875,0.00174029,0.00951703,-0.00501327,0.0119731,-0.000715805,-1.11525,0.00823107,0.0458418,573,1240,-9.07025,0.68747
-644,-216,-9.47821,-0.491333,0,0,0,0,0,0,0,-1,580,1240,-9.47822,0.491329
-637,-216,-9.0639,0.421387,-0.00167186,0.00720932,-0.00185476,0.00758111,-0.00204364,-1.37297,0.0058554,0.0431012,587,1240,-9.06388,-0.421364
-630,-216,-9.14825,0.810791,-0.00232982,0.00587631,-0.00104109,0.00600633,-0.00245984,-1.44655,0.00502887,0.0266227,594,1240,-9.14822,-0.810799
-623,-216,-9.22076,1.12036,-0.00281659,0.0044501,-0.000751425,0.00452699,-0.00289348,-1.46883,0.00431867,0.0121812,601,1240,-9.22075,-1.12035
-616,-216,-9.24786,1.30005,-0.00254344,0.00292707,-0.000672981,0.00300865,-0.00262501,-1.45017,0.0032551,0.0139591,608,1240,-9.24785,-1.30006
-609,-216,-9.2616,1.46289,-0.00208673,0.0017547,-0.00109533,0.00204507,-0.0023771,-1.31166,0.00255554,0.0135073,615,1240,-9.26159,-1.46293
-602,-216,-9.25537,1.62219,-0.00152837,0.000696917,-0.00133915,0.00132534,-0.00215679,-1.13204,0.00202942,0.0125721,622,1240,-9.25539,-1.62214
-595,-216,-9.24524,1.77283,-0.000814815,-0.00101945,-0.00186333,0.000948999,-0.00278327,-0.757969,0.00223989,0.0170837,629,1240,-9.24527,-1.77283
-588,-216,-9.23474,1.93286,0.000453234,-0.00243474,-0.00282491,0.00218182,-0.00416333,-0.549129,0.00372244,0.0195694,636,1240,-9.23476,-1.93292
-581,-216,-9.22052,2.11255,0.00219265,-0.00350438,-0.00377514,0.00407337,-0.0053851,-0.462196,0.00547833,0.0169806,643,1240,-9.22055,-2.11249
-574,-216,-9.24707,2.31409,0.00332492,-0.00483113,-0.00423885,0.00512891,-0.00663513,-0.402366,0.0068105,0.0151401,650,1240,-9.24707,-2.31412
-567,-216,-9.27191,2.52136,0.00423723,-0.00576223,-0.00451293,0.00597277,-0.00749776,-0.367134,0.00779381,0.025086,657,1240,-9.27194,-2.52132
-560,-216,-9.34052,2.8064,0,0,0,0,0,0,0,-1,664,1240,-9.34052,-2.80642
-553,-216,-10.9145,1.51868,0,0,0,0,0,0,0,-1,671,1240,-10.9145,-1.51873
-546,-216,-12.4966,1.86365,0,0,0,0,0,0,0,-1,678,1240,-12.4967,-1.8636
-539,-216,-12.1814,1.38745,0.00597921,-0.00653055,-0.00596134,0.00836499,-0.00891634,-0.380687,0.00997908,0.0397699,685,1240,-12.1814,-1.38741
-532,-216,-11.9368,0.983276,0.00569802,-0.00596955,-0.00609723,0.00830279,-0.00857432,-0.403738,0.00974443,0.0392013,692,1240,-11.9368,-0.983285
-525,-216,-11.7944,0.619507,0.00490425,-0.00459676,-0.00594307,0.00776212,-0.00745463,-0.448231,0.00878599,0.0387042,699,1240,-11.7944,-0.61948
-518,-216,-11.8917,0.811768,0.00315752,-0.0018682,-0.00532955,0.00653691,-0.00524759,-0.565105,0.00681734,0.0415105,706,1240,-11.8916,-0.811752
-511,-216,-11.9338,0.914185,0.000232148,0.00266259,-0.00414035,0.00576237,-0.00286764,-0.928143,0.00507511,0.0422276,713,1240,-11.9338,-0.914236
-504,-216,-11.8681,0.801636,-0.00332062,0.0112068,-0.0017389,0.011412,-0.00352587,-1.45331,0.00901613,0.0424489,720,1240,-11.8681,-0.801631
-497,-216,0,0,0,0,0,0,0,0,0,-1,727,1240,0,0
-490,-216,0,0,0,0,0,0,0,0,0,-1,734,1240,0,0
-483,-216,0,0,0,0,0,0,0,0,0,-1,741,1240,0,0
-476,-216,0,0,0,0,0,0,0,0,0,-1,748,1240,0,0
-469,-216,0,0,0,0,0,0,0,0,0,-1,755,1240,0,0
-462,-216,0,0,0,0,0,0,0,0,0,-1,762,1240,0,0
-455,-216,0,0,0,0,0,0,0,0,0,-1,769,1240,0,0
-448,-216,0,0,0,0,0,0,0,0,0,-1,776,1240,0,0
-441,-216,0,0,0,0,0,0,0,0,0,-1,783,1240,0,0
-434,-216,0,0,0,0,0,0,0,0,0,-1,790,1240,0,0
-427,-216,0,0,0,0,0,0,0,0,0,-1,797,1240,0,0
-420,-216,0,0,0,0,0,0,0,0,0,-1,804,1240,0,0
-413,-216,0,0,0,0,0,0,0,0,0,-1,811,1240,0,0
-406,-216,0,0,0,0,0,0,0,0,0,-1,818,1240,0,0
-399,-216,0,0,0,0,0,0,0,0,0,-1,825,1240,0,0
-392,-216,0,0,0,0,0,0,0,0,0,-1,832,1240,0,0
-385,-216,0,0,0,0,0,0,0,0,0,-1,839,1240,0,0
-378,-216,0,0,0,0,0,0,0,0,0,-1,846,1240,0,0
-371,-216,0,0,0,0,0,0,0,0,0,-1,853,1240,0,0
-364,-216,0,0,0,0,0,0,0,0,0,-1,860,1240,0,0
-357,-216,0,0,0,0,0,0,0,0,0,-1,867,1240,0,0
-350,-216,0,0,0,0,0,0,0,0,0,-1,874,1240,0,0
-343,-216,0,0,0,0,0,0,0,0,0,-1,881,1240,0,0
-336,-216,0,0,0,0,0,0,0,0,0,-1,888,1240,0,0
-329,-216,0,0,0,0,0,0,0,0,0,-1,895,1240,0,0
-322,-216,0,0,0,0,0,0,0,0,0,-1,902,1240,0,0
-315,-216,0,0,0,0,0,0,0,0,0,-1,909,1240,0,0
-308,-216,0,0,0,0,0,0,0,0,0,-1,916,1240,0,0
-301,-216,0,0,0,0,0,0,0,0,0,-1,923,1240,0,0
-294,-216,0,0,0,0,0,0,0,0,0,-1,930,1240,0,0
-287,-216,0,0,0,0,0,0,0,0,0,-1,937,1240,0,0
-280,-216,0,0,0,0,0,0,0,0,0,-1,944,1240,0,0
-273,-216,0,0,0,0,0,0,0,0,0,-1,951,1240,0,0
-266,-216,0,0,0,0,0,0,0,0,0,-1,958,1240,0,0
-259,-216,0,0,0,0,0,0,0,0,0,-1,965,1240,0,0
-252,-216,0,0,0,0,0,0,0,0,0,-1,972,1240,0,0
-245,-216,0,0,0,0,0,0,0,0,0,-1,979,1240,0,0
-238,-216,0,0,0,0,0,0,0,0,0,-1,986,1240,0,0
-231,-216,0,0,0,0,0,0,0,0,0,-1,993,1240,0,0
-224,-216,0,0,0,0,0,0,0,0,0,-1,1000,1240,0,0
-217,-216,0,0,0,0,0,0,0,0,0,-1,1007,1240,0,0
-210,-216,0,0,0,0,0,0,0,0,0,-1,1014,1240,0,0
-203,-216,0,0,0,0,0,0,0,0,0,-1,1021,1240,0,0
-196,-216,0,0,0,0,0,0,0,0,0,-1,1028,1240,0,0
-189,-216,0,0,0,0,0,0,0,0,0,-1,1035,1240,0,0
-182,-216,0,0,0,0,0,0,0,0,0,-1,1042,1240,0,0
-175,-216,0,0,0,0,0,0,0,0,0,-1,1049,1240,0,0
-168,-216,0,0,0,0,0,0,0,0,0,-1,1056,1240,0,0
-161,-216,0,0,0,0,0,0,0,0,0,-1,1063,1240,0,0
-154,-216,0,0,0,0,0,0,0,0,0,-1,1070,1240,0,0
-147,-216,0,0,0,0,0,0,0,0,0,-1,1077,1240,0,0
-140,-216,0,0,0,0,0,0,0,0,0,-1,1084,1240,0,0
-133,-216,0,0,0,0,0,0,0,0,0,-1,1091,1240,0,0
-126,-216,0,0,0,0,0,0,0,0,0,-1,1098,1240,0,0
-119,-216,0,0,0,0,0,0,0,0,0,-1,1105,1240,0,0
-112,-216,0,0,0,0,0,0,0,0,0,-1,1112,1240,0,0
-105,-216,0,0,0,0,0,0,0,0,0,-1,1119,1240,0,0
-98,-216,0,0,0,0,0,0,0,0,0,-1,1126,1240,0,0
-91,-216,0,0,0,0,0,0,0,0,0,-1,1133,1240,0,0
-84,-216,0,0,0,0,0,0,0,0,0,-1,1140,1240,0,0
-77,-216,0,0,0,0,0,0,0,0,0,-1,1147,1240,0,0
-70,-216,0,0,0,0,0,0,0,0,0,-1,1154,1240,0,0
-63,-216,0,0,0,0,0,0,0,0,0,-1,1161,1240,0,0
-56,-216,0,0,0,0,0,0,0,0,0,-1,1168,1240,0,0
-49,-216,0,0,0,0,0,0,0,0,0,-1,1175,1240,0,0
-42,-216,0,0,0,0,0,0,0,0,0,-1,1182,1240,0,0
-35,-216,0,0,0,0,0,0,0,0,0,-1,1189,1240,0,0
-28,-216,0,0,0,0,0,0,0,0,0,-1,1196,1240,0,0
-21,-216,0,0,0,0,0,0,0,0,0,-1,1203,1240,0,0
-14,-216,0,0,0,0,0,0,0,0,0,-1,1210,1240,0,0
-7,-216,0,0,0,0,0,0,0,0,0,-1,1217,1240,0,0
0,-216,0,0,0,0,0,0,0,0,0,-1,1224,1240,0,0
7,-216,0,0,0,0,0,0,0,0,0,-1,1231,1240,0,0
14,-216,0,0,0,0,0,0,0,0,0,-1,1238,1240,0,0
21,-216,0,0,0,0,0,0,0,0,0,-1,1245,1240,0,0
28,-216,0,0,0,0,0,0,0,0,0,-1,1252,1240,0,0
35,-216,0,0,0,0,0,0,0,0,0,-1,1259,1240,0,0
42,-216,0,0,0,0,0,0,0,0,0,-1,1266,1240,0,0
49,-216,0,0,0,0,0,0,0,0,0,-1,1273,1240,0,0
56,-216,0,0,0,0,0,0,0,0,0,-1,1280,1240,0,0
63,-216,0,0,0,0,0,0,0,0,0,-1,1287,1240,0,0
70,-216,0,0,0,0,0,0,0,0,0,-1,1294,1240,0,0
77,-216,0,0,0,0,0,0,0,0,0,-1,1301,1240,0,0
84,-216,0,0,0,0,0,0,0,0,0,-1,1308,1240,0,0
91,-216,0,0,0,0,0,0,0,0,0,-1,1315,1240,0,0
98,-216,0,0,0,0,0,0,0,0,0,-1,1322,1240,0,0
105,-216,0,0,0,0,0,0,0,0,0,-1,1329,1240,0,0
112,-216,0,0,0,0,0,0,0,0,0,-1,1336,1240,0,0
119,-216,0,0,0,0,0,0,0,0,0,-1,1343,1240,0,0
126,-216,0,0,0,0,0,0,0,0,0,-1,1350,1240,0,0
133,-216,0,0,0,0,0,0,0,0,0,-1,1357,1240,0,0
140,-216,0,0,0,0,0,0,0,0,0,-1,1364,1240,0,0
147,-216,0,0,0,0,0,0,0,0,0,-1,1371,1240,0,0
154,-216,0,0,0,0,0,0,0,0,0,-1,1378,1240,0,0
161,-216,0,0,0,0,0,0,0,0,0,-1,1385,1240,0,0
168,-216,0,0,0,0,0,0,0,0,0,-1,1392,1240,0,0
175,-216,0,0,0,0,0,0,0,0,0,-1,1399,1240,0,0
182,-216,0,0,0,0,0,0,0,0,0,-1,1406,1240,0,0
189,-216,0,0,0,0,0,0,0,0,0,-1,1413,1240,0,0
196,-216,0,0,0,0,0,0,0,0,0,-1,1420,1240,0,0
203,-216,0,0,0,0,0,0,0,0,0,-1,1427,1240,0,0
210,-216,0,0,0,0,0,0,0,0,0,-1,1434,1240,0,0
217,-216,0,0,0,0,0,0,0,0,0,-1,1441,1240,0,0
224,-216,0,0,0,0,0,0,0,0,0,-1,1448,1240,0,0
231,-216,0,0,0,0,0,0,0,0,0,-1,1455,1240,0,0
238,-216,0,0,0,0,0,0,0,0,0,-1,1462,1240,0,0
245,-216,0,0,0,0,0,0,0,0,0,-1,1469,1240,0,0
252,-216,0,0,0,0,0,0,0,0,0,-1,1476,1240,0,0
259,-216,0,0,0,0,0,0,0,0,0,-1,1483,1240,0,0
266,-216,0,0,0,0,0,0,0,0,0,-1,1490,1240,0,0
273,-216,0,0,0,0,0,0,0,0,0,-1,1497,1240,0,0
280,-216,0,0,0,0,0,0,0,0,0,-1,1504,1240,0,0
287,-216,0,0,0,0,0,0,0,0,0,-1,1511,1240,0,0
294,-216,0,0,0,0,0,0,0,0,0,-1,1518,1240,0,0
301,-216,0,0,0,0,0,0,0,0,0,-1,1525,1240,0,0
308,-216,0,0,0,0,0,0,0,0,0,-1,1532,1240,0,0
315,-216,0,0,0,0,0,0,0,0,0,-1,1539,1240,0,0
322,-216,0,0,0,0,0,0,0,0,0,-1,1546,1240,0,0
329,-216,0,0,0,0,0,0,0,0,0,-1,1553,1240,0,0
336,-216,0,0,0,0,0,0,0,0,0,-1,1560,1240,0,0
343,-216,0,0,0,0,0,0,0,0,0,-1,1567,1240,0,0
350,-216,0,0,0,0,0,0,0,0,0,-1,1574,1240,0,0
357,-216,0,0,0,0,0,0,0,0,0,-1,1581,1240,0,0
364,-216,0,0,0,0,0,0,0,0,0,-1,1588,1240,0,0
371,-216,0,0,0,0,0,0,0,0,0,-1,1595,1240,0,0
378,-216,0,0,0,0,0,0,0,0,0,-1,1602,1240,0,0
385,-216,0,0,0,0,0,0,0,0,0,-1,1609,1240,0,0
392,-216,0,0,0,0,0,0,0,0,0,-1,1616,1240,0,0
399,-216,0,0,0,0,0,0,0,0,0,-1,1623,1240,0,0
406,-216,0,0,0,0,0,0,0,0,0,-1,1630,1240,0,0
413,-216,0,0,0,0,0,0,0,0,0,-1,1637,1240,0,0
420,-216,0,0,0,0,0,0,0,0,0,-1,1644,1240,0,0
427,-216,0,0,0,0,0,0,0,0,0,-1,1651,1240,0,0
434,-216,0,0,0,0,0,0,0,0,0,-1,1658,1240,0,0
441,-216,0,0,0,0,0,0,0,0,0,-1,1665,1240,0,0
448,-216,0,0,0,0,0,0,0,0,0,-1,1672,1240,0,0
455,-216,0,0,0,0,0,0,0,0,0,-1,1679,1240,0,0
462,-216,0,0,0,0,0,0,0,0,0,-1,1686,1240,0,0
469,-216,0,0,0,0,0,0,0,0,0,-1,1693,1240,0,0
476,-216,0,0,0,0,0,0,0,0,0,-1,1700,1240,0,0
483,-216,0,0,0,0,0,0,0,0,0,-1,1707,1240,0,0
490,-216,0,0,0,0,0,0,0,0,0,-1,1714,1240,0,0
497,-216,0,0,0,0,0,0,0,0,0,-1,1721,1240,0,0
504,-216,0,0,0,0,0,0,0,0,0,-1,1728,1240,0,0
511,-216,0,0,0,0,0,0,0,0,0,-1,1735,1240,0,0
518,-216,0,0,0,0,0,0,0,0,0,-1,1742,1240,0,0
525,-216,0,0,0,0,0,0,0,0,0,-1,1749,1240,0,0
532,-216,0,0,0,0,0,0,0,0,0,-1,1756,1240,0,0
539,-216,0,0,0,0,0,0,0,0,0,-1,1763,1240,0,0
546,-216,0,0,0,0,0,0,0,0,0,-1,1770,1240,0,0
553,-216,0,0,0,0,0,0,0,0,0,-1,1777,1240,0,0
560,-216,0,0,0,0,0,0,0,0,0,-1,1784,1240,0,0
567,-216,0,0,0,0,0,0,0,0,0,-1,1791,1240,0,0
574,-216,0,0,0,0,0,0,0,0,0,-1,1798,1240,0,0
581,-216,0,0,0,0,0,0,0,0,0,-1,1805,1240,0,0
588,-216,0,0,0,0,0,0,0,0,0,-1,1812,1240,0,0
595,-216,0,0,0,0,0,0,0,0,0,-1,1819,1240,0,0
602,-216,0,0,0,0,0,0,0,0,0,-1,1826,1240,0,0
609,-216,0,0,0,0,0,0,0,0,0,-1,1833,1240,0,0
616,-216,0,0,0,0,0,0,0,0,0,-1,1840,1240,0,0
623,-216,18.8295,2.88831,-0.000812473,0.0026797,-0.00149346,0.00323128,-0.00136405,-1.21701,0.00272514,0.0418201,1847,1240,18.8295,-2.88825
630,-216,18.7794,2.62805,-0.00248703,0.00319215,-0.00165537,0.00363944,-0.00293431,-1.3069,0.00380262,0.0377933,1854,1240,18.7794,-2.62811
637,-216,18.7567,2.53027,-0.00334609,0.00368007,-0.00176471,0.00409839,-0.00376442,-1.33804,0.00454096,0.0329013,1861,1240,18.7567,-2.53025
644,-216,18.772,2.5835,-0.00404576,0.00350434,-0.0014298,0.00376604,-0.00430746,-1.38977,0.00466473,0.0273156,1868,1240,18.7719,-2.58354
651,-216,18.7592,2.62732,-0.00448847,0.00292128,-0.00087679,0.00302361,-0.0045908,-1.4546,0.00442711,0.0227078,1875,1240,18.7591,-2.62731
658,-216,18.8093,2.6731,-0.00462311,0.00222744,-0.000361634,0.00224648,-0.00464215,-1.5182,0.00405653,0.0318048,1882,1240,18.8093,-2.67312
665,-216,18.9301,2.98035,0,0,0,0,0,0,0,-1,1889,1240,18.93,-2.98039
672,-216,19.1571,3.21863,0,0,0,0,0,0,0,-1,1896,1240,19.1571,-3.21858
679,-216,16.5305,4.55383,0,0,0,0,0,0,0,-1,1903,1240,16.5305,-4.55379
686,-216,16.4917,4.58667,-0.00404892,-0.000259615,0.00119875,8.77662e-05,-0.00439631,1.28874,0.00296056,0.0480841,1910,1240,16.4917,-4.58673
693,-216,16.3971,4.63611,-0.00385695,-0.000675636,0.00150542,-7.62078e-05,-0.00445638,1.19186,0.00294585,0.0350235,1917,1240,16.3971,-4.63608
700,-216,16.337,4.60559,-0.00333165,-0.00126985,0.00184118,-0.000190614,-0.00441089,1.04061,0.00287916,0.0161579,1924,1240,16.337,-4.60556
707,-216,16.3337,4.42065,-0.00304557,-0.00155108,0.00181888,-0.000331937,-0.00426472,0.980301,0.00273921,0.0150072,1931,1240,16.3338,-4.42061
714,-216,16.3572,4.26282,-0.00267298,-0.00174965,0.00157775,-0.000567405,-0.00385522,0.92773,0.00240344,0.013282,1938,1240,16.3571,-4.26278
721,-216,16.3628,4.13208,-0.00194924,-0.00130187,0.00142636,-0.000162925,-0.00308819,0.896973,0.00200669,0.0121563,1945,1240,16.3628,-4.13207
728,-216,16.3724,4.01355,-0.000958125,-0.000924454,0.00102264,8.14915e-05,-0.00196407,0.793629,0.00133737,0.0108313,1952,1240,16.3724,-4.01352
735,-216,16.3649,3.87854,0.000736985,-0.000421677,0.00101195,0.0013237,-0.00100839,0.525425,0.00135053,0.0101498,1959,1240,16.3649,-3.87857
742,-216,16.3508,3.76807,0.00346945,4.46088e-05,0.00137981,0.00395618,-0.000442117,0.339123,0.0027965,0.0103151,1966,1240,16.3508,-3.76803
749,-216,16.3649,3.63892,0.0065458,0.000472114,0.00172979,0.00700389,1.40201e-05,0.258884,0.00466459,0.00836237,1973,1240,16.3649,-3.63894
756,-216,16.3481,3.5094,0.0102092,0.000733474,0.00251782,0.0108367,0.000106007,0.244235,0.00718939,0.00941665,1980,1240,16.3481,-3.50936
763,-216,16.338,3.38599,0.0150686,0.000940717,0.00402168,0.0161332,-0.00012388,0.258779,0.010797,0.0145987,1987,1240,16.338,-3.38596
770,-216,16.36,3.42969,0.0215492,0.00101677,0.00626881,0.0233118,-0.000745862,0.274098,0.0157957,0.0361835,1994,1240,16.36,-3.42966
777,-216,16.3762,3.474,0,0,0,0,0,0,0,-1,2001,1240,16.3762,-3.47405
784,-216,18.0121,3.13562,0,0,0,0,0,0,0,-1,2008,1240,18.012,-3.13558
791,-216,17.9675,3.43054,0,0,0,0,0,0,0,-1,2015,1240,17.9676,-3.43056
798,-216,0,0,0,0,0,0,0,0,0,-1,2022,1240,0,0
805,-216,0,0,0,0,0,0,0,0,0,-1,2029,1240,0,0
812,-216,0,0,0,0,0,0,0,0,0,-1,2036,1240,0,0
-700,-223,0,0,0,0,0,0,0,0,0,-1,524,1247,0,0
-693,-223,0,0,0,0,0,0,0,0,0,-1,531,1247,0,0
-686,-223,0,0,0,0,0,0,0,0,0,-1,538,1247,0,0
-679,-223,0,0,0,0,0,0,0,0,0,-1,545,1247,0,0
-672,-223,-9.87317,-1.67554,0,0,0,0,0,0,0,-1,552,1247,-9.87316,1.67554
-665,-223,-10.38,-0.933716,0,0,0,0,0,0,0,-1,559,1247,-10.38,0.93368
-658,-223,-8.62427,0.718262,0,0,0,0,0,0,0,-1,566,1247,-8.62429,-0.718233
-651,-223,-9.46277,-1.24316,-0.00148009,0.010972,-0.00546172,0.0130281,-0.0035362,-1.21075,0.0100732,0.0444076,573,1247,-9.46276,1.24321
-644,-223,-9.42474,0.116333,-0.00335393,0.0097558,-0.00360538,0.0106819,-0.00428005,-1.31936,0.00889797,0.0472115,580,1247,-9.42475,-0.116327
-637,-223,-8.80939,0.436401,-0.00427546,0.00832235,-0.00229427,0.00872717,-0.00468027,-1.39615,0.00785745,0.0435095,587,1247,-8.80938,-0.436426
-630,-223,-9.00067,0.809082,-0.00455317,0.00680973,-0.00142883,0.00698665,-0.00473009,-1.44761,0.00680635,0.0328967,594,1247,-9.00069,-0.809057
-623,-223,-9.06738,1.12744,-0.00456645,0.00523657,-0.00103036,0.0053437,-0.00467358,-1.4672,0.00578779,0.0201001,601,1247,-9.06741,-1.1275
-616,-223,-9.09735,1.33057,-0.00384032,0.00360645,-0.000717869,0.00367502,-0.00390889,-1.47556,0.00437927,0.0166551,608,1247,-9.09732,-1.33054
-609,-223,-9.09503,1.45593,-0.00290052,0.00229467,-0.000864765,0.00243484,-0.00304068,-1.41011,0.00316773,0.0126557,615,1247,-9.09503,-1.45598
-602,-223,-9.09106,1.60364,-0.00181898,0.000973188,-0.000824009,0.00119823,-0.00204402,-1.30419,0.00189302,0.0140925,622,1247,-9.09107,-1.60364
-595,-223,-9.07867,1.79565,-0.000623173,-0.000822928,-0.00111423,0.00039565,-0.00184175,-0.740699,0.00137877,0.0192199,629,1247,-9.07865,-1.79561
-588,-223,-9.06671,1.97168,0.00102556,-0.00231152,-0.00183879,0.00184,-0.00312596,-0.416952,0.00289896,0.0220655,636,1247,-9.06672,-1.97163
-581,-223,-9.06976,2.13782,0.00303158,-0.00346178,-0.00265086,0.00397632,-0.00440652,-0.342356,0.00484196,0.0206339,643,1247,-9.06979,-2.13782
-574,-223,-9.08167,2.27795,0.00414874,-0.00498821,-0.00307996,0.00508999,-0.00592947,-0.296592,0.00636824,0.0175702,650,1247,-9.08167,-2.27796
-567,-223,-8.91681,2.50525,0.00496684,-0.00605482,-0.00347248,0.00596964,-0.00705761,-0.281136,0.00753003,0.02413,657,1247,-8.91679,-2.50528
-560,-223,-8.64911,2.6665,0.00587676,-0.0067942,-0.00406445,0.00706843,-0.00798587,-0.285201,0.00869699,0.0387057,664,1247,-8.64913,-2.66647
-553,-223,-8.09021,2.81335,0,0,0,0,0,0,0,-1,671,1247,-8.09019,-2.81338
-546,-223,-12.6111,1.89722,0,0,0,0,0,0,0,-1,678,1247,-12.6112,-1.89724
-539,-223,-12.1146,1.44092,0.00563085,-0.00697332,-0.00560715,0.0077642,-0.00910666,-0.363556,0.00975067,0.0429042,685,1247,-12.1146,-1.44086
-532,-223,-11.8256,1.02087,0.00485992,-0.00657536,-0.00606429,0.00747697,-0.00919241,-0.407406,0.00964104,0.0426878,692,1247,-11.8256,-1.02086
-525,-223,-11.8264,0.736694,0.00359759,-0.00546287,-0.00630777,0.00683337,-0.00869865,-0.47398,0.00898895,0.0444445,699,1247,-11.8263,-0.736703
-518,-223,-11.947,0.830811,0.00142053,-0.00318805,-0.0061792,0.0057111,-0.00747863,-0.606929,0.00763785,0.0408794,706,1247,-11.947,-0.830821
-511,-223,-11.9146,0.732666,-0.00192631,0.000837263,-0.00542053,0.00504936,-0.00613841,-0.910199,0.00646945,0.037974,713,1247,-11.9146,-0.732693
-504,-223,-11.8927,0.570923,-0.0059309,0.00816827,-0.00318651,0.008855,-0.00661762,-1.35853,0.0089642,0.0398249,720,1247,-11.8927,-0.570953
-497,-223,0,0,0,0,0,0,0,0,0,-1,727,1247,0,0
-490,-223,0,0,0,0,0,0,0,0,0,-1,734,1247,0,0
-483,-223,0,0,0,0,0,0,0,0,0,-1,741,1247,0,0
-476,-223,0,0,0,0,0,0,0,0,0,-1,748,1247,0,0
-469,-223,0,0,0,0,0,0,0,0,0,-1,755,1247,0,0
-462,-223,0,0,0,0,0,0,0,0,0,-1,762,1247,0,0
-455,-223,0,0,0,0,0,0,0,0,0,-1,769,1247,0,0
-448,-223,0,0,0,0,0,0,0,0,0,-1,776,1247,0,0
-441,-223,0,0,0,0,0,0,0,0,0,-1,783,1247,0,0
-434,-223,0,0,0,0,0,0,0,0,0,-1,790,1247,0,0
-427,-223,0,0,0,0,0,0,0,0,0,-1,797,1247,0,0
-420,-223,0,0,0,0,0,0,0,0,0,-1,804,1247,0,0
-413,-223,0,0,0,0,0,0,0,0,0,-1,811,1247,0,0
-406,-223,0,0,0,0,0,0,0,0,0,-1,818,1247,0,0
-399,-223,0,0,0,0,0,0,0,0,0,-1,825,1247,0,0
-392,-223,0,0,0,0,0,0,0,0,0,-1,832,1247,0,0
-385,-223,0,0,0,0,0,0,0,0,0,-1,839,1247,0,0
-378,-223,0,0,0,0,0,0,0,0,0,-1,846,1247,0,0
-371,-223,0,0,0,0,0,0,0,0,0,-1,853,1247,0,0
-364,-223,0,0,0,0,0,0,0,0,0,-1,860,1247,0,0
-357,-223,0,0,0,0,0,0,0,0,0,-1,867,1247,0,0
-350,-223,0,0,0,0,0,0,0,0,0,-1,874,1247,0,0
-343,-223,0,0,0,0,0,0,0,0,0,-1,881,1247,0,0
-336,-223,0,0,0,0,0,0,0,0,0,-1,888,1247,0,0
-329,-223,0,0,0,0,0,0,0,0,0,-1,895,1247,0,0
-322,-223,0,0,0,0,0,0,0,0,0,-1,902,1247,0,0
-315,-223,0,0,0,0,0,0,0,0,0,-1,909,1247,0,0
-308,-223,0,0,0,0,0,0,0,0,0,-1,916,1247,0,0
-301,-223,0,0,0,0,0,0,0,0,0,-1,923,1247,0,0
-294,-223,0,0,0,0,0,0,0,0,0,-1,930,1247,0,0
-287,-223,0,0,0,0,0,0,0,0,0,-1,937,1247,0,0
-280,-223,0,0,0,0,0,0,0,0,0,-1,944,1247,0,0
-273,-223,0,0,0,0,0,0,0,0,0,-1,951,1247,0,0
-266,-223,0,0,0,0,0,0,0,0,0,-1,958,1247,0,0
-259,-223,0,0,0,0,0,0,0,0,0,-1,965,1247,0,0
-252,-223,0,0,0,0,0,0,0,0,0,-1,972,1247,0,0
-245,-223,0,0,0,0,0,0,0,0,0,-1,979,1247,0,0
-238,-223,0,0,0,0,0,0,0,0,0,-1,986,1247,0,0
-231,-223,0,0,0,0,0,0,0,0,0,-1,993,1247,0,0
-224,-223,0,0,0,0,0,0,0,0,0,-1,1000,1247,0,0
-217,-223,0,0,0,0,0,0,0,0,0,-1,1007,1247,0,0
-210,-223,0,0,0,0,0,0,0,0,0,-1,1014,1247,0,0
-203,-223,0,0,0,0,0,0,0,0,0,-1,1021,1247,0,0
-196,-223,0,0,0,0,0,0,0,0,0,-1,1028,1247,0,0
-189,-223,0,0,0,0,0,0,0,0,0,-1,1035,1247,0,0
-182,-223,0,0,0,0,0,0,0,0,0,-1,1042,1247,0,0
-175,-223,0,0,0,0,0,0,0,0,0,-1,1049,1247,0,0
-168,-223,0,0,0,0,0,0,0,0,0,-1,1056,1247,0,0
-161,-223,0,0,0,0,0,0,0,0,0,-1,1063,1247,0,0
-154,-223,0,0,0,0,0,0,0,0,0,-1,1070,1247,0,0
-147,-223,0,0,0,0,0,0,0,0,0,-1,1077,1247,0,0
-140,-223,0,0,0,0,0,0,0,0,0,-1,1084,1247,0,0
-133,-223,0,0,0,0,0,0,0,0,0,-1,1091,1247,0,0
-126,-223,0,0,0,0,0,0,0,0,0,-1,1098,1247,0,0
-119,-223,0,0,0,0,0,0,0,0,0,-1,1105,1247,0,0
-112,-223,0,0,0,0,0,0,0,0,0,-1,1112,1247,0,0
-105,-223,0,0,0,0,0,0,0,0,0,-1,1119,1247,0,0
-98,-223,0,0,0,0,0,0,0,0,0,-1,1126,1247,0,0
-91,-223,0,0,0,0,0,0,0,0,0,-1,1133,1247,0,0
-84,-223,0,0,0,0,0,0,0,0,0,-1,1140,1247,0,0
-77,-223,0,0,0,0,0,0,0,0,0,-1,1147,1247,0,0
-70,-223,0,0,0,0,0,0,0,0,0,-1,1154,1247,0,0
-63,-223,0,0,0,0,0,0,0,0,0,-1,1161,1247,0,0
-56,-223,0,0,0,0,0,0,0,0,0,-1,1168,1247,0,0
-49,-223,0,0,0,0,0,0,0,0,0,-1,1175,1247,0,0
-42,-223,0,0,0,0,0,0,0,0,0,-1,1182,1247,0,0
-35,-223,0,0,0,0,0,0,0,0,0,-1,1189,1247,0,0
-28,-223,0,0,0,0,0,0,0,0,0,-1,1196,1247,0,0
-21,-223,0,0,0,0,0,0,0,0,0,-1,1203,1247,0,0
-14,-223,0,0,0,0,0,0,0,0,0,-1,1210,1247,0,0
-7,-223,0,0,0,0,0,0,0,0,0,-1,1217,1247,0,0
0,-223,0,0,0,0,0,0,0,0,0,-1,1224,1247,0,0
7,-223,0,0,0,0,0,0,0,0,0,-1,1231,1247,0,0
14,-223,0,0,0,0,0,0,0,0,0,-1,1238,1247,0,0
21,-223,0,0,0,0,0,0,0,0,0,-1,1245,1247,0,0
28,-223,0,0,0,0,0,0,0,0,0,-1,1252,1247,0,0
35,-223,0,0,0,0,0,0,0,0,0,-1,1259,1247,0,0
42,-223,0,0,0,0,0,0,0,0,0,-1,1266,1247,0,0
49,-223,0,0,0,0,0,0,0,0,0,-1,1273,1247,0,0
56,-223,0,0,0,0,0,0,0,0,0,-1,1280,1247,0,0
63,-223,0,0,0,0,0,0,0,0,0,-1,1287,1247,0,0
70,-223,0,0,0,0,0,0,0,0,0,-1,1294,1247,0,0
77,-223,0,0,0,0,0,0,0,0,0,-1,1301,1247,0,0
84,-223,0,0,0,0,0,0,0,0,0,-1,1308,1247,0,0
91,-223,0,0,0,0,0,0,0,0,0,-1,1315,1247,0,0
98,-223,0,0,0,0,0,0,0,0,0,-1,1322,1247,0,0
105,-223,0,0,0,0,0,0,0,0,0,-1,1329,1247,0,0
112,-223,0,0,0,0,0,0,0,0,0,-1,1336,1247,0,0
119,-223,0,0,0,0,0,0,0,0,0,-1,1343,1247,0,0
126,-223,0,0,0,0,0,0,0,0,0,-1,1350,1247,0,0
133,-223,0,0,0,0,0,0,0,0,0,-1,1357,1247,0,0
140,-223,0,0,0,0,0,0,0,0,0,-1,1364,1247,0,0
147,-223,0,0,0,0,0,0,0,0,0,-1,1371,1247,0,0
154,-223,0,0,0,0,0,0,0,0,0,-1,1378,1247,0,0
161,-223,0,0,0,0,0,0,0,0,0,-1,1385,1247,0,0
168,-223,0,0,0,0,0,0,0,0,0,-1,1392,1247,0,0
175,-223,0,0,0,0,0,0,0,0,0,-1,1399,1247,0,0
182,-223,0,0,0,0,0,0,0,0,0,-1,1406,1247,0,0
189,-223,0,0,0,0,0,0,0,0,0,-1,1413,1247,0,0
196,-223,0,0,0,0,0,0,0,0,0,-1,1420,1247,0,0
203,-223,0,0,0,0,0,0,0,0,0,-1,1427,1247,0,0
210,-223,0,0,0,0,0,0,0,0,0,-1,1434,1247,0,0
217,-223,0,0,0,0,0,0,0,0,0,-1,1441,1247,0,0
224,-223,0,0,0,0,0,0,0,0,0,-1,1448,1247,0,0
231,-223,0,0,0,0,0,0,0,0,0,-1,1455,1247,0,0
238,-223,0,0,0,0,0,0,0,0,0,-1,1462,1247,0,0
245,-223,0,0,0,0,0,0,0,0,0,-1,1469,1247,0,0
252,-223,0,0,0,0,0,0,0,0,0,-1,1476,1247,0,0
259,-223,0,0,0,0,0,0,0,0,0,-1,1483,1247,0,0
266,-223,0,0,0,0,0,0,0,0,0,-1,1490,1247,0,0
273,-223,0,0,0,0,0,0,0,0,0,-1,1497,1247,0,0
280,-223,0,0,0,0,0,0,0,0,0,-1,1504,1247,0,0
287,-223,0,0,0,0,0,0,0,0,0,-1,1511,1247,0,0
294,-223,0,0,0,0,0,0,0,0,0,-1,1518,1247,0,0
301,-223,0,0,0,0,0,0,0,0,0,-1,1525,1247,0,0
308,-223,0,0,0,0,0,0,0,0,0,-1,1532,1247,0,0
315,-223,0,0,0,0,0,0,0,0,0,-1,1539,1247,0,0
322,-223,0,0,0,0,0,0,0,0,0,-1,1546,1247,0,0
329,-223,0,0,0,0,0,0,0,0,0,-1,1553,1247,0,0
336,-223,0,0,0,0,0,0,0,0,0,-1,1560,1247,0,0
343,-223,0,0,0,0,0,0,0,0,0,-1,1567,1247,0,0
350,-223,0,0,0,0,0,0,0,0,0,-1,1574,1247,0,0
357,-223,0,0,0,0,0,0,0,0,0,-1,1581,1247,0,0
364,-223,0,0,0,0,0,0,0,0,0,-1,1588,1247,0,0
371,-223,0,0,0,0,0,0,0,0,0,-1,1595,1247,0,0
378,-223,0,0,0,0,0,0,0,0,0,-1,1602,1247,0,0
385,-223,0,0,0,0,0,0,0,0,0,-1,1609,1247,0,0
392,-223,0,0,0,0,0,0,0,0,0,-1,1616,1247,0,0
399,-223,0,0,0,0,0,0,0,0,0,-1,1623,1247,0,0
406,-223,0,0,0,0,0,0,0,0,0,-1,1630,1247,0,0
413,-223,0,0,0,0,0,0,0,0,0,-1,1637,1247,0,0
420,-223,0,0,0,0,0,0,0,0,0,-1,1644,1247,0,0
427,-223,0,0,0,0,0,0,0,0,0,-1,1651,1247,0,0
434,-223,0,0,0,0,0,0,0,0,0,-1,1658,1247,0,0
441,-223,0,0,0,0,0,0,0,0,0,-1,1665,1247,0,0
448,-223,0,0,0,0,0,0,0,0,0,-1,1672,1247,0,0
455,-223,0,0,0,0,0,0,0,0,0,-1,1679,1247,0,0
462,-223,0,0,0,0,0,0,0,0,0,-1,1686,1247,0,0
469,-223,0,0,0,0,0,0,0,0,0,-1,1693,1247,0,0
476,-223,0,0,0,0,0,0,0,0,0,-1,1700,1247,0,0
483,-223,0,0,0,0,0,0,0,0,0,-1,1707,1247,0,0
490,-223,0,0,0,0,0,0,0,0,0,-1,1714,1247,0,0
497,-223,0,0,0,0,0,0,0,0,0,-1,1721,1247,0,0
504,-223,0,0,0,0,0,0,0,0,0,-1,1728,1247,0,0
511,-223,0,0,0,0,0,0,0,0,0,-1,1735,1247,0,0
518,-223,0,0,0,0,0,0,0,0,0,-1,1742,1247,0,0
525,-223,0,0,0,0,0,0,0,0,0,-1,1749,1247,0,0
532,-223,0,0,0,0,0,0,0,0,0,-1,1756,1247,0,0
539,-223,0,0,0,0,0,0,0,0,0,-1,1763,1247,0,0
546,-223,0,0,0,0,0,0,0,0,0,-1,1770,1247,0,0
553,-223,0,0,0,0,0,0,0,0,0,-1,1777,1247,0,0
560,-223,0,0,0,0,0,0,0,0,0,-1,1784,1247,0,0
567,-223,0,0,0,0,0,0,0,0,0,-1,1791,1247,0,0
574,-223,0,0,0,0,0,0,0,0,0,-1,1798,1247,0,0
581,-223,0,0,0,0,0,0,0,0,0,-1,1805,1247,0,0
588,-223,0,0,0,0,0,0,0,0,0,-1,1812,1247,0,0
595,-223,0,0,0,0,0,0,0,0,0,-1,1819,1247,0,0
602,-223,0,0,0,0,0,0,0,0,0,-1,1826,1247,0,0
609,-223,0,0,0,0,0,0,0,0,0,-1,1833,1247,0,0
616,-223,0,0,0,0,0,0,0,0,0,-1,1840,1247,0,0
623,-223,18.8074,2.875,-0.00121723,0.00282687,-0.000928638,0.00302991,-0.00142028,-1.35553,0.00262474,0.0424712,1847,1247,18.8073,-2.875
630,-223,18.6732,2.51794,-0.00386118,0.00346244,-0.0015655,0.00378305,-0.00418179,-1.36879,0.00460042,0.0361587,1854,1247,18.6732,-2.51792
637,-223,18.6876,2.41138,-0.00534972,0.00386813,-0.00173898,0.00418529,-0.00566687,-1.3904,0.00570954,0.0295393,1861,1247,18.6876,-2.41134
644,-223,18.7349,2.57617,-0.00611489,0.00368917,-0.00143606,0.00389519,-0.00632091,-1.42831,0.00595343,0.0243443,1868,1247,18.7348,-2.57621
651,-223,18.6938,2.58899,-0.00627291,0.00313575,-0.000943455,0.00322942,-0.00636659,-1.47183,0.00563809,0.0283646,1875,1247,18.6938,-2.589
658,-223,18.6689,2.49792,-0.00606391,0.00249654,-0.000489849,0.00252448,-0.00609185,-1.51382,0.00511479,0.0468284,1882,1247,18.669,-2.49793
665,-223,18.549,2.63049,0,0,0,0,0,0,0,-1,1889,1247,18.5489,-2.63053
672,-223,18.6787,2.90796,0,0,0,0,0,0,0,-1,1896,1247,18.6788,-2.90794
679,-223,16.3662,4.78772,0,0,0,0,0,0,0,-1,1903,1247,16.3662,-4.78769
686,-223,16.3104,4.71228,-0.0043361,0.000124906,0.000966566,0.000325327,-0.00453652,1.36634,0.00313841,0.0448038,1910,1247,16.3104,-4.71234
693,-223,16.2435,4.66113,-0.00374482,-0.000290491,0.00126623,0.00012394,-0.00415925,1.25449,0.00281506,0.0220811,1917,1247,16.2435,-4.66119
700,-223,16.228,4.56848,-0.00282439,-0.00100097,0.00161633,-5.69548e-05,-0.00376841,1.04219,0.00249351,0.0105472,1924,1247,16.228,-4.56849
707,-223,16.2137,4.41895,-0.00231016,-0.00133943,0.00148652,-0.000261048,-0.00338855,0.943197,0.00217724,0.0117195,1931,1247,16.2137,-4.41891
714,-223,16.233,4.26025,-0.0017566,-0.00161448,0.00116572,-0.000517659,-0.00285342,0.815839,0.00175536,0.0107447,1938,1247,16.233,-4.26029
721,-223,16.2332,4.13,-0.000849636,-0.0012241,0.000982078,-3.70997e-05,-0.00203663,0.691205,0.00134556,0.0138646,1945,1247,16.2331,-4.12998
728,-223,16.2201,4.01208,0.000314158,-0.000960149,0.000586427,0.00054295,-0.00118894,0.371982,0.00102283,0.0153885,1952,1247,16.2201,-4.01203
735,-223,16.2119,3.88159,0.00229865,-0.0006928,0.000683254,0.00244732,-0.000841468,0.214249,0.00197279,0.0127499,1959,1247,16.2119,-3.88162
742,-223,16.1962,3.7561,0.00532404,-0.00059993,0.00127414,0.00558646,-0.000862349,0.203118,0.00404253,0.0107605,1966,1247,16.1962,-3.75606
749,-223,16.214,3.61658,0.00872402,-0.000469126,0.0019746,0.0091302,-0.000875306,0.202872,0.00639856,0.010207,1973,1247,16.2139,-3.61658
756,-223,16.2164,3.47656,0.0129009,-0.000588961,0.00327176,0.0136525,-0.0013406,0.225816,0.00957986,0.0117839,1980,1247,16.2164,-3.4765
763,-223,16.2074,3.35803,0.0185029,-0.000869896,0.00545685,0.0199342,-0.00230121,0.256519,0.0141192,0.0147139,1987,1247,16.2074,-3.35805
770,-223,16.2417,3.38074,0.0259031,-0.00136978,0.00871277,0.0284489,-0.00391558,0.284278,0.0203968,0.0371439,1994,1247,16.2417,-3.38078
777,-223,16.2584,3.41003,0,0,0,0,0,0,0,-1,2001,1247,16.2584,-3.41004
784,-223,17.7871,3.72424,0.0468293,-0.00337181,0.019394,0.0534488,-0.00999136,0.328921,0.0393877,0.0478132,2008,1247,17.7872,-3.72419
791,-223,18.3538,3.93604,0.060614,-0.00507572,0.0271377,0.0703748,-0.0148365,0.345268,0.0525647,0.0473016,2015,1247,18.3537,-3.936
798,-223,0,0,0,0,0,0,0,0,0,-1,2022,1247,0,0
805,-223,0,0,0,0,0,0,0,0,0,-1,2029,1247,0,0
812,-223,0,0,0,0,0,0,0,0,0,-1,2036,1247,0,0
-700,-230,0,0,0,0,0,0,0,0,0,-1,524,1254,0,0
-693,-230,0,0,0,0,0,0,0,0,0,-1,531,1254,0,0
-686,-230,0,0,0,0,0,0,0,0,0,-1,538,1254,0,0
-679,-230,0,0,0,0,0,0,0,0,0,-1,545,1254,0,0
-672,-230,-10.3556,-1.151,0,0,0,0,0,0,0,-1,552,1254,-10.3556,1.15101
-665,-230,-10.0499,-0.685303,0.003027,0.0152857,-0.0103748,0.0212065,-0.00289379,-1.05221,0.0151944,0.0428006,559,1254,-10.0499,0.685242
-658,-230,-9.64014,-0.268677,-0.00187979,0.0147914,-0.00736282,0.0175776,-0.00466594,-1.20904,0.0135443,0.0434476,566,1254,-9.64016,0.268618
-651,-230,-9.30273,0.0819092,-0.00492964,0.0136606,-0.00516577,0.0149996,-0.00626863,-1.31717,0.0126194,0.0428424,573,1254,-9.30275,-0.081888
-644,-230,-8.96948,0.614502,-0.00657886,0.012111,-0.00357292,0.0127707,-0.0072386,-1.3882,0.0116986,0.0481715,580,1254,-8.96949,-0.614486
-637,-230,-8.64923,0.911743,-0.00718304,0.0103442,-0.00241771,0.0106716,-0.00751042,-1.4362,0.0105502,0.0466307,587,1254,-8.64925,-0.911791
-630,-230,-8.80859,0.832031,-0.00706995,0.00851835,-0.00161823,0.00868457,-0.00723617,-1.46844,0.00920451,0.0404821,594,1254,-8.80857,-0.831973
-623,-230,-8.89429,1.12817,-0.00660183,0.00666991,-0.00118479,0.00677484,-0.00670677,-1.48246,0.00778365,0.0264719,601,1254,-8.89429,-1.1282
-616,-230,-8.93304,1.32556,-0.00542105,0.00481465,-0.000731875,0.00486672,-0.00547312,-1.49978,0.00597313,0.0160818,608,1254,-8.93302,-1.32554
-609,-230,-8.92639,1.45117,-0.00403329,0.00330759,-0.000669482,0.00336814,-0.00409384,-1.48059,0.00431497,0.0119335,615,1254,-8.92641,-1.45122
-602,-230,-8.93005,1.61011,-0.00251779,0.00164712,-0.000405743,0.00168628,-0.00255695,-1.47458,0.00246696,0.0111241,622,1254,-8.93005,-1.61012
-595,-230,-8.92163,1.7981,-0.000861286,-0.000255123,-0.00048548,1.41144e-05,-0.00113052,-1.06444,0.000758431,0.0184562,629,1254,-8.92165,-1.79808
-588,-230,-8.92554,2.00281,0.00115673,-0.00182959,-0.000955592,0.00143633,-0.00210919,-0.284649,0.00205926,0.0257666,636,1254,-8.92554,-2.00277
-581,-230,-8.93011,2.18689,0.0034179,-0.00308154,-0.00159452,0.00378801,-0.00345165,-0.228076,0.00418132,0.0233393,643,1254,-8.93014,-2.18692
-574,-230,-8.92493,2.29224,0.00453765,-0.00483391,-0.00198886,0.00494227,-0.00523852,-0.2007,0.00587871,0.01666,650,1254,-8.92495,-2.29229
-567,-230,-8.80762,2.48926,0.00527806,-0.00609697,-0.00252937,0.00581513,-0.00663404,-0.209228,0.00719272,0.0207677,657,1254,-8.80761,-2.48929
-560,-230,-8.65234,2.69189,0.00611474,-0.0069766,-0.00333304,0.00691447,-0.00777633,-0.235489,0.0084866,0.0347146,664,1254,-8.65235,-2.69187
-553,-230,-8.32611,2.82629,0,0,0,0,0,0,0,-1,671,1254,-8.3261,-2.82626
-546,-230,-10.7707,1.62012,0,0,0,0,0,0,0,-1,678,1254,-10.7707,-1.62008
-539,-230,-11.9548,1.55835,0,0,0,0,0,0,0,-1,685,1254,-11.9548,-1.55839
-532,-230,-11.7695,1.00879,0,0,0,0,0,0,0,-1,692,1254,-11.7696,-1.00878
-525,-230,-11.5708,0.446777,0,0,0,0,0,0,0,-1,699,1254,-11.5708,-0.446798
-518,-230,-11.8528,0.744629,-0.000575547,-0.00437815,-0.00689164,0.00467225,-0.00962595,-0.650804,0.0084186,0.0424726,706,1254,-11.8528,-0.744652
-511,-230,-11.8313,0.605591,-0.00424426,-0.0010849,-0.00656981,0.00409248,-0.00942163,-0.903381,0.00800204,0.0383188,713,1254,-11.8313,-0.605639
-504,-230,-11.8735,0.391113,-0.00868397,0.00481593,-0.0047888,0.00634211,-0.0102102,-1.26227,0.00964305,0.0381491,720,1254,-11.8736,-0.391161
-497,-230,0,0,0,0,0,0,0,0,0,-1,727,1254,0,0
-490,-230,0,0,0,0,0,0,0,0,0,-1,734,1254,0,0
-483,-230,0,0,0,0,0,0,0,0,0,-1,741,1254,0,0
-476,-230,0,0,0,0,0,0,0,0,0,-1,748,1254,0,0
-469,-230,0,0,0,0,0,0,0,0,0,-1,755,1254,0,0
-462,-230,0,0,0,0,0,0,0,0,0,-1,762,1254,0,0
-455,-230,0,0,0,0,0,0,0,0,0,-1,769,1254,0,0
-448,-230,0,0,0,0,0,0,0,0,0,-1,776,1254,0,0
-441,-230,0,0,0,0,0,0,0,0,0,-1,783,1254,0,0
-434,-230,0,0,0,0,0,0,0,0,0,-1,790,1254,0,0
-427,-230,0,0,0,0,0,0,0,0,0,-1,797,1254,0,0
-420,-230,0,0,0,0,0,0,0,0,0,-1,804,1254,0,0
-413,-230,0,0,0,0,0,0,0,0,0,-1,811,1254,0,0
-406,-230,0,0,0,0,0,0,0,0,0,-1,818,1254,0,0
-399,-230,0,0,0,0,0,0,0,0,0,-1,825,1254,0,0
-392,-230,0,0,0,0,0,0,0,0,0,-1,832,1254,0,0
-385,-230,0,0,0,0,0,0,0,0,0,-1,839,1254,0,0
-378,-230,0,0,0,0,0,0,0,0,0,-1,846,1254,0,0
-371,-230,0,0,0,0,0,0,0,0,0,-1,853,1254,0,0
-364,-230,0,0,0,0,0,0,0,0,0,-1,860,1254,0,0
-357,-230,0,0,0,0,0,0,0,0,0,-1,867,1254,0,0
-350,-230,0,0,0,0,0,0,0,0,0,-1,874,1254,0,0
-343,-230,0,0,0,0,0,0,0,0,0,-1,881,1254,0,0
-336,-230,0,0,0,0,0,0,0,0,0,-1,888,1254,0,0
-329,-230,0,0,0,0,0,0,0,0,0,-1,895,1254,0,0
-322,-230,0,0,0,0,0,0,0,0,0,-1,902,1254,0,0
-315,-230,0,0,0,0,0,0,0,0,0,-1,909,1254,0,0
-308,-230,0,0,0,0,0,0,0,0,0,-1,916,1254,0,0
-301,-230,0,0,0,0,0,0,0,0,0,-1,923,1254,0,0
-294,-230,0,0,0,0,0,0,0,0,0,-1,930,1254,0,0
-287,-230,0,0,0,0,0,0,0,0,0,-1,937,1254,0,0
-280,-230,0,0,0,0,0,0,0,0,0,-1,944,1254,0,0
-273,-230,0,0,0,0,0,0,0,0,0,-1,951,1254,0,0
-266,-230,0,0,0,0,0,0,0,0,0,-1,958,1254,0,0
-259,-230,0,0,0,0,0,0,0,0,0,-1,965,1254,0,0
-252,-230,0,0,0,0,0,0,0,0,0,-1,972,1254,0,0
-245,-230,0,0,0,0,0,0,0,0,0,-1,979,1254,0,0
-238,-230,0,0,0,0,0,0,0,0,0,-1,986,1254,0,0
-231,-230,0,0,0,0,0,0,0,0,0,-1,993,1254,0,0
-224,-230,0,0,0,0,0,0,0,0,0,-1,1000,1254,0,0
-217,-230,0,0,0,0,0,0,0,0,0,-1,1007,1254,0,0
-210,-230,0,0,0,0,0,0,0,0,0,-1,1014,1254,0,0
-203,-230,0,0,0,0,0,0,0,0,0,-1,1021,1254,0,0
-196,-230,0,0,0,0,0,0,0,0,0,-1,1028,1254,0,0
-189,-230,0,0,0,0,0,0,0,0,0,-1,1035,1254,0,0
-182,-230,0,0,0,0,0,0,0,0,0,-1,1042,1254,0,0
-175,-230,0,0,0,0,0,0,0,0,0,-1,1049,1254,0,0
-168,-230,0,0,0,0,0,0,0,0,0,-1,1056,1254,0,0
-161,-230,0,0,0,0,0,0,0,0,0,-1,1063,1254,0,0
-154,-230,0,0,0,0,0,0,0,0,0,-1,1070,1254,0,0
-147,-230,0,0,0,0,0,0,0,0,0,-1,1077,1254,0,0
-140,-230,0,0,0,0,0,0,0,0,0,-1,1084,1254,0,0
-133,-230,0,0,0,0,0,0,0,0,0,-1,1091,1254,0,0
-126,-230,0,0,0,0,0,0,0,0,0,-1,1098,1254,0,0
-119,-230,0,0,0,0,0,0,0,0,0,-1,1105,1254,0,0
-112,-230,0,0,0,0,0,0,0,0,0,-1,1112,1254,0,0
-105,-230,0,0,0,0,0,0,0,0,0,-1,1119,1254,0,0
-98,-230,0,0,0,0,0,0,0,0,0,-1,1126,1254,0,0
-91,-230,0,0,0,0,0,0,0,0,0,-1,1133,1254,0,0
-84,-230,0,0,0,0,0,0,0,0,0,-1,1140,1254,0,0
-77,-230,0,0,0,0,0,0,0,0,0,-1,1147,1254,0,0
-70,-230,0,0,0,0,0,0,0,0,0,-1,1154,1254,0,0
-63,-230,0,0,0,0,0,0,0,0,0,-1,1161,1254,0,0
-56,-230,0,0,0,0,0,0,0,0,0,-1,1168,1254,0,0
-49,-230,0,0,0,0,0,0,0,0,0,-1,1175,1254,0,0
-42,-230,0,0,0,0,0,0,0,0,0,-1,1182,1254,0,0
-35,-230,0,0,0,0,0,0,0,0,0,-1,1189,1254,0,0
-28,-230,0,0,0,0,0,0,0,0,0,-1,1196,1254,0,0
-21,-230,0,0,0,0,0,0,0,0,0,-1,1203,1254,0,0
-14,-230,0,0,0,0,0,0,0,0,0,-1,1210,1254,0,0
-7,-230,0,0,0,0,0,0,0,0,0,-1,1217,1254,0,0
0,-230,0,0,0,0,0,0,0,0,0,-1,1224,1254,0,0
7,-230,0,0,0,0,0,0,0,0,0,-1,1231,1254,0,0
14,-230,0,0,0,0,0,0,0,0,0,-1,1238,1254,0,0
21,-230,0,0,0,0,0,0,0,0,0,-1,1245,1254,0,0
28,-230,0,0,0,0,0,0,0,0,0,-1,1252,1254,0,0
35,-230,0,0,0,0,0,0,0,0,0,-1,1259,1254,0,0
42,-230,0,0,0,0,0,0,0,0,0,-1,1266,1254,0,0
49,-230,0,0,0,0,0,0,0,0,0,-1,1273,1254,0,0
56,-230,0,0,0,0,0,0,0,0,0,-1,1280,1254,0,0
63,-230,0,0,0,0,0,0,0,0,0,-1,1287,1254,0,0
70,-230,0,0,0,0,0,0,0,0,0,-1,1294,1254,0,0
77,-230,0,0,0,0,0,0,0,0,0,-1,1301,1254,0,0
84,-230,0,0,0,0,0,0,0,0,0,-1,1308,1254,0,0
91,-230,0,0,0,0,0,0,0,0,0,-1,1315,1254,0,0
98,-230,0,0,0,0,0,0,0,0,0,-1,1322,1254,0,0
105,-230,0,0,0,0,0,0,0,0,0,-1,1329,1254,0,0
112,-230,0,0,0,0,0,0,0,0,0,-1,1336,1254,0,0
119,-230,0,0,0,0,0,0,0,0,0,-1,1343,1254,0,0
126,-230,0,0,0,0,0,0,0,0,0,-1,1350,1254,0,0
133,-230,0,0,0,0,0,0,0,0,0,-1,1357,1254,0,0
140,-230,0,0,0,0,0,0,0,0,0,-1,1364,1254,0,0
147,-230,0,0,0,0,0,0,0,0,0,-1,1371,1254,0,0
154,-230,0,0,0,0,0,0,0,0,0,-1,1378,1254,0,0
161,-230,0,0,0,0,0,0,0,0,0,-1,1385,1254,0,0
168,-230,0,0,0,0,0,0,0,0,0,-1,1392,1254,0,0
175,-230,0,0,0,0,0,0,0,0,0,-1,1399,1254,0,0
182,-230,0,0,0,0,0,0,0,0,0,-1,1406,1254,0,0
189,-230,0,0,0,0,0,0,0,0,0,-1,1413,1254,0,0
196,-230,0,0,0,0,0,0,0,0,0,-1,1420,1254,0,0
203,-230,0,0,0,0,0,0,0,0,0,-1,1427,1254,0,0
210,-230,0,0,0,0,0,0,0,0,0,-1,1434,1254,0,0
217,-230,0,0,0,0,0,0,0,0,0,-1,1441,1254,0,0
224,-230,0,0,0,0,0,0,0,0,0,-1,1448,1254,0,0
231,-230,0,0,0,0,0,0,0,0,0,-1,1455,1254,0,0
238,-230,0,0,0,0,0,0,0,0,0,-1,1462,1254,0,0
245,-230,0,0,0,0,0,0,0,0,0,-1,1469,1254,0,0
252,-230,0,0,0,0,0,0,0,0,0,-1,1476,1254,0,0
259,-230,0,0,0,0,0,0,0,0,0,-1,1483,1254,0,0
266,-230,0,0,0,0,0,0,0,0,0,-1,1490,1254,0,0
273,-230,0,0,0,0,0,0,0,0,0,-1,1497,1254,0,0
280,-230,0,0,0,0,0,0,0,0,0,-1,1504,1254,0,0
287,-230,0,0,0,0,0,0,0,0,0,-1,1511,1254,0,0
294,-230,0,0,0,0,0,0,0,0,0,-1,1518,1254,0,0
301,-230,0,0,0,0,0,0,0,0,0,-1,1525,1254,0,0
308,-230,0,0,0,0,0,0,0,0,0,-1,1532,1254,0,0
315,-230,0,0,0,0,0,0,0,0,0,-1,1539,1254,0,0
322,-230,0,0,0,0,0,0,0,0,0,-1,1546,1254,0,0
329,-230,0,0,0,0,0,0,0,0,0,-1,1553,1254,0,0
336,-230,0,0,0,0,0,0,0,0,0,-1,1560,1254,0,0
343,-230,0,0,0,0,0,0,0,0,0,-1,1567,1254,0,0
350,-230,0,0,0,0,0,0,0,0,0,-1,1574,1254,0,0
357,-230,0,0,0,0,0,0,0,0,0,-1,1581,1254,0,0
364,-230,0,0,0,0,0,0,0,0,0,-1,1588,1254,0,0
371,-230,0,0,0,0,0,0,0,0,0,-1,1595,1254,0,0
378,-230,0,0,0,0,0,0,0,0,0,-1,1602,1254,0,0
385,-230,0,0,0,0,0,0,0,0,0,-1,1609,1254,0,0
392,-230,0,0,0,0,0,0,0,0,0,-1,1616,1254,0,0
399,-230,0,0,0,0,0,0,0,0,0,-1,1623,1254,0,0
406,-230,0,0,0,0,0,0,0,0,0,-1,1630,1254,0,0
413,-230,0,0,0,0,0,0,0,0,0,-1,1637,1254,0,0
420,-230,0,0,0,0,0,0,0,0,0,-1,1644,1254,0,0
427,-230,0,0,0,0,0,0,0,0,0,-1,1651,1254,0,0
434,-230,0,0,0,0,0,0,0,0,0,-1,1658,1254,0,0
441,-230,0,0,0,0,0,0,0,0,0,-1,1665,1254,0,0
448,-230,0,0,0,0,0,0,0,0,0,-1,1672,1254,0,0
455,-230,0,0,0,0,0,0,0,0,0,-1,1679,1254,0,0
462,-230,0,0,0,0,0,0,0,0,0,-1,1686,1254,0,0
469,-230,0,0,0,0,0,0,0,0,0,-1,1693,1254,0,0
476,-230,0,0,0,0,0,0,0,0,0,-1,1700,1254,0,0
483,-230,0,0,0,0,0,0,0,0,0,-1,1707,1254,0,0
490,-230,0,0,0,0,0,0,0,0,0,-1,1714,1254,0,0
497,-230,0,0,0,0,0,0,0,0,0,-1,1721,1254,0,0
504,-230,0,0,0,0,0,0,0,0,0,-1,1728,1254,0,0
511,-230,0,0,0,0,0,0,0,0,0,-1,1735,1254,0,0
518,-230,0,0,0,0,0,0,0,0,0,-1,1742,1254,0,0
525,-230,0,0,0,0,0,0,0,0,0,-1,1749,1254,0,0
532,-230,0,0,0,0,0,0,0,0,0,-1,1756,1254,0,0
539,-230,0,0,0,0,0,0,0,0,0,-1,1763,1254,0,0
546,-230,0,0,0,0,0,0,0,0,0,-1,1770,1254,0,0
553,-230,0,0,0,0,0,0,0,0,0,-1,1777,1254,0,0
560,-230,0,0,0,0,0,0,0,0,0,-1,1784,1254,0,0
567,-230,0,0,0,0,0,0,0,0,0,-1,1791,1254,0,0
574,-230,0,0,0,0,0,0,0,0,0,-1,1798,1254,0,0
581,-230,0,0,0,0,0,0,0,0,0,-1,1805,1254,0,0
588,-230,0,0,0,0,0,0,0,0,0,-1,1812,1254,0,0
595,-230,0,0,0,0,0,0,0,0,0,-1,1819,1254,0,0
602,-230,0,0,0,0,0,0,0,0,0,-1,1826,1254,0,0
609,-230,0,0,0,0,0,0,0,0,0,-1,1833,1254,0,0
616,-230,18.9041,2.80774,0.00174157,0.00247035,0.00063968,0.00284214,0.00136977,1.0443,0.00164127,0.0377408,1840,1254,18.9041,-2.80777
623,-230,18.8779,2.802,-0.00187605,0.00318101,-0.00062041,0.00325601,-0.00195105,-1.45049,0.0030376,0.0363082,1847,1254,18.878,-2.80205
630,-230,18.6815,2.61597,-0.00516344,0.0037899,-0.00171574,0.00410743,-0.00548097,-1.3878,0.00555477,0.0319101,1854,1254,18.6815,-2.61598
637,-230,18.6423,2.48474,-0.00702208,0.00397566,-0.00192834,0.00430398,-0.00735039,-1.40216,0.00680485,0.0283083,1861,1254,18.6424,-2.48478
644,-230,18.6329,2.5166,-0.007788,0.00369283,-0.00162029,0.00391712,-0.00801229,-1.43324,0.00702142,0.0228427,1868,1254,18.6329,-2.51659
651,-230,18.5527,2.45459,-0.007727,0.00311982,-0.00114294,0.00323895,-0.00784612,-1.46694,0.00658164,0.0427294,1875,1254,18.5527,-2.45462
658,-230,18.472,2.36926,-0.00729057,0.00249906,-0.000687779,0.00254714,-0.00733865,-1.501,0.00592683,0.0471073,1882,1254,18.4721,-2.36925
665,-230,18.4045,2.24231,0,0,0,0,0,0,0,-1,1889,1254,18.4045,-2.24237
672,-230,18.1982,2.61096,0,0,0,0,0,0,0,-1,1896,1254,18.1982,-2.61097
679,-230,16.3995,5.00867,0,0,0,0,0,0,0,-1,1903,1254,16.3995,-5.00861
686,-230,16.2286,4.84998,-0.00479964,0.000212491,0.000820821,0.00034349,-0.00493064,1.41254,0.00340737,0.0402275,1910,1254,16.2286,-4.85001
693,-230,16.0378,4.70093,-0.00386261,-0.000174617,0.00114042,0.00014954,-0.00418676,1.29386,0.00284233,0.0177727,1917,1254,16.0378,-4.70096
700,-230,16.0796,4.58472,-0.00256223,-0.000929937,0.0015257,-1.58021e-05,-0.00347636,1.031,0.00231233,0.0103122,1924,1254,16.0796,-4.58476
707,-230,16.0819,4.43445,-0.00184174,-0.0012693,0.00128411,-0.000239896,-0.00287115,0.895051,0.00183935,0.00878727,1931,1254,16.0819,-4.43447
714,-230,16.0746,4.27942,-0.00110613,-0.0015669,0.000875387,-0.000431316,-0.00224171,0.656726,0.00137346,0.0114679,1938,1254,16.0745,-4.27936
721,-230,16.0874,4.12036,-3.14372e-05,-0.00122132,0.000635161,0.0002439,-0.00149665,0.409042,0.00108822,0.0126533,1945,1254,16.0874,-4.12035
728,-230,16.0864,4.00012,0.0012598,-0.00104655,0.000207023,0.00127824,-0.00106499,0.0888159,0.00135473,0.0136347,1952,1254,16.0864,-4.00011
735,-230,16.0756,3.87878,0.00346068,-0.00102651,0.00036998,0.00349099,-0.00105681,0.081717,0.00274818,0.0133619,1959,1254,16.0756,-3.87882
742,-230,16.0658,3.7478,0.00670401,-0.00132494,0.00113504,0.00686139,-0.00148231,0.137772,0.00514011,0.0106095,1966,1254,16.0659,-3.74782
749,-230,16.0647,3.6084,0.0103896,-0.00159689,0.00205326,0.0107316,-0.00193885,0.165032,0.00788057,0.0104815,1973,1254,16.0647,-3.60839
756,-230,16.075,3.46765,0.0151154,-0.00223861,0.00373126,0.0158836,-0.00300686,0.203057,0.0117206,0.0126509,1980,1254,16.075,-3.46769
763,-230,16.0781,3.3092,0.0215211,-0.00322024,0.00644812,0.0231007,-0.0047999,0.240249,0.0172248,0.0245824,1987,1254,16.0781,-3.30924
770,-230,16.2086,3.31018,0.0299602,-0.00462949,0.0105442,0.032921,-0.0075903,0.27375,0.0248667,0.0424659,1994,1254,16.2086,-3.31017
777,-230,16.8696,3.59033,0,0,0,0,0,0,0,-1,2001,1254,16.8697,-3.59032
784,-230,17.27,4.00684,0.0538204,-0.0091504,0.0242474,0.062075,-0.017405,0.328126,0.0482431,0.0469189,2008,1254,17.27,-4.00689
791,-230,17.7555,4.3335,0.0694906,-0.0124945,0.0344148,0.0820215,-0.0250255,0.349194,0.0646579,0.0496451,2015,1254,17.7555,-4.33349
798,-230,0,0,0,0,0,0,0,0,0,-1,2022,1254,0,0
805,-230,0,0,0,0,0,0,0,0,0,-1,2029,1254,0,0
812,-230,0,0,0,0,0,0,0,0,0,-1,2036,1254,0,0
-700,-237,0,0,0,0,0,0,0,0,0,-1,524,1261,0,0
-693,-237,0,0,0,0,0,0,0,0,0,-1,531,1261,0,0
-686,-237,0,0,0,0,0,0,0,0,0,-1,538,1261,0,0
-679,-237,0,0,0,0,0,0,0,0,0,-1,545,1261,0,0
-672,-237,-9.19928,-0.451416,0.0050519,0.0184554,-0.00972814,0.0235668,-5.94771e-05,-1.08702,0.0157311,0.0448028,552,1261,-9.19926,0.451369
-665,-237,-9.28046,-0.45813,-0.00212254,0.0186279,-0.00689042,0.0207075,-0.00420217,-1.27768,0.015398,0.0445987,559,1261,-9.28047,0.458105
-658,-237,-9.2865,-0.140015,-0.00709747,0.0177503,-0.0048636,0.0186684,-0.00801553,-1.38423,0.0158099,0.0460869,566,1261,-9.28651,0.139982
-651,-237,-8.70056,0.189697,-0.0100343,0.0161142,-0.00340545,0.0165505,-0.0104706,-1.44339,0.0157317,0.0449637,573,1261,-8.70059,-0.189719
-644,-237,-8.47467,0.511841,-0.011408,0.0140548,-0.00234839,0.0142695,-0.0116228,-1.47959,0.0149749,0.0473983,580,1261,-8.47465,-0.51187
-637,-237,-8.45514,0.728638,-0.0116162,0.0118206,-0.00156535,0.0119247,-0.0117203,-1.5044,0.0136516,0.0480416,587,1261,-8.45516,-0.728666
-630,-237,-8.60077,0.918457,-0.0110111,0.00959919,-0.00100472,0.00964806,-0.01106,-1.5222,0.011965,0.0437312,594,1261,-8.6008,-0.918402
-623,-237,-8.70508,1.13892,-0.00994869,0.00745455,-0.000676233,0.00748079,-0.00997493,-1.53202,0.0101123,0.0272135,601,1261,-8.7051,-1.13894
-616,-237,-8.74353,1.30225,-0.00824379,0.00543246,-0.000202057,0.00543544,-0.00824677,-1.55603,0.00795482,0.0126404,608,1261,-8.74352,-1.30224
-609,-237,-8.75281,1.44739,-0.00627938,0.00380215,-9.54626e-05,0.00380305,-0.00628028,-1.56133,0.00587989,0.0149915,615,1261,-8.75282,-1.44734
-602,-237,-8.77216,1.62744,-0.00416198,0.00191999,0.000165206,0.00192448,-0.00416647,1.54366,0.00359514,0.0112654,622,1261,-8.77213,-1.62748
-595,-237,-8.78394,1.8219,-0.00194635,6.75232e-05,0.000191936,8.56529e-05,-0.00196448,1.47662,0.00133912,0.014466,629,1261,-8.78394,-1.82194
-588,-237,-8.77472,2.02307,0.000523412,-0.001447,-4.85708e-05,0.000524609,-0.0014482,-0.0246301,0.00117987,0.0263018,636,1261,-8.77473,-2.02311
-581,-237,-8.76752,2.21338,0.00315105,-0.00270888,-0.000493864,0.00319238,-0.00275022,-0.0834933,0.00343412,0.0244492,643,1261,-8.76754,-2.21344
-574,-237,-8.75458,2.32715,0.00439037,-0.00462874,-0.000849732,0.00446972,-0.00470809,-0.0931228,0.00529941,0.0148611,650,1261,-8.75456,-2.32711
-567,-237,-8.71057,2.48352,0.00516826,-0.00607458,-0.00156352,0.00538164,-0.00628797,-0.13564,0.00674422,0.0149785,657,1261,-8.71055,-2.48351
-560,-237,-8.54877,2.71472,0.00600047,-0.00711083,-0.00260103,0.00649761,-0.00760797,-0.188856,0.00815227,0.0266009,664,1261,-8.54875,-2.71476
-553,-237,-8.36902,2.62463,0.00598891,-0.00711495,-0.00364674,0.00693541,-0.00806146,-0.253944,0.00866658,0.049867,671,1261,-8.36905,-2.62466
-546,-237,-8.20917,2.62854,0,0,0,0,0,0,0,-1,678,1261,-8.20914,-2.62849
-539,-237,-11.663,1.2583,0,0,0,0,0,0,0,-1,685,1261,-11.6631,-1.25825
-532,-237,-11.4573,0.874268,0,0,0,0,0,0,0,-1,692,1261,-11.4573,-0.874311
-525,-237,-11.4409,0.631226,4.33904e-05,-0.0067787,-0.00675099,0.00419615,-0.0109315,-0.551473,0.00901787,0.0490613,699,1261,-11.4409,-0.631165
-518,-237,-11.739,0.757813,-0.00282283,-0.00543829,-0.00726514,0.00325133,-0.0115125,-0.696351,0.00895764,0.0447403,706,1261,-11.739,-0.757857
-511,-237,-11.7822,0.643555,-0.00670697,-0.00293808,-0.00728625,0.00270347,-0.0123485,-0.911941,0.00926591,0.0421915,713,1261,-11.7822,-0.643605
-504,-237,-11.9199,0.688965,-0.0114182,0.00141973,-0.00601137,0.00379506,-0.0137936,-1.19449,0.0106877,0.041368,720,1261,-11.9198,-0.689008
-497,-237,-11.9868,0.831665,-0.0169585,0.00851428,-0.00228007,0.00871676,-0.017161,-1.48222,0.0152033,0.0445186,727,1261,-11.9868,-0.83167
-490,-237,0,0,0,0,0,0,0,0,0,-1,734,1261,0,0
-483,-237,0,0,0,0,0,0,0,0,0,-1,741,1261,0,0
-476,-237,0,0,0,0,0,0,0,0,0,-1,748,1261,0,0
-469,-237,0,0,0,0,0,0,0,0,0,-1,755,1261,0,0
-462,-237,0,0,0,0,0,0,0,0,0,-1,762,1261,0,0
-455,-237,0,0,0,0,0,0,0,0,0,-1,769,1261,0,0
-448,-237,0,0,0,0,0,0,0,0,0,-1,776,1261,0,0
-441,-237,0,0,0,0,0,0,0,0,0,-1,783,1261,0,0
-434,-237,0,0,0,0,0,0,0,0,0,-1,790,1261,0,0
-427,-237,0,0,0,0,0,0,0,0,0,-1,797,1261,0,0
-420,-237,0,0,0,0,0,0,0,0,0,-1,804,1261,0,0
-413,-237,0,0,0,0,0,0,0,0,0,-1,811,1261,0,0
-406,-237,0,0,0,0,0,0,0,0,0,-1,818,1261,0,0
-399,-237,0,0,0,0,0,0,0,0,0,-1,825,1261,0,0
-392,-237,0,0,0,0,0,0,0,0,0,-1,832,1261,0,0
-385,-237,0,0,0,0,0,0,0,0,0,-1,839,1261,0,0
-378,-237,0,0,0,0,0,0,0,0,0,-1,846,1261,0,0
-371,-237,0,0,0,0,0,0,0,0,0,-1,853,1261,0,0
-364,-237,0,0,0,0,0,0,0,0,0,-1,860,1261,0,0
-357,-237,0,0,0,0,0,0,0,0,0,-1,867,1261,0,0
-350,-237,0,0,0,0,0,0,0,0,0,-1,874,1261,0,0
-343,-237,0,0,0,0,0,0,0,0,0,-1,881,1261,0,0
-336,-237,0,0,0,0,0,0,0,0,0,-1,888,1261,0,0
-329,-237,0,0,0,0,0,0,0,0,0,-1,895,1261,0,0
-322,-237,0,0,0,0,0,0,0,0,0,-1,902,1261,0,0
-315,-237,0,0,0,0,0,0,0,0,0,-1,909,1261,0,0
-308,-237,0,0,0,0,0,0,0,0,0,-1,916,1261,0,0
-301,-237,0,0,0,0,0,0,0,0,0,-1,923,1261,0,0
-294,-237,0,0,0,0,0,0,0,0,0,-1,930,1261,0,0
-287,-237,0,0,0,0,0,0,0,0,0,-1,937,1261,0,0
-280,-237,0,0,0,0,0,0,0,0,0,-1,944,1261,0,0
-273,-237,0,0,0,0,0,0,0,0,0,-1,951,1261,0,0
-266,-237,0,0,0,0,0,0,0,0,0,-1,958,1261,0,0
-259,-237,0,0,0,0,0,0,0,0,0,-1,965,1261,0,0
-252,-237,0,0,0,0,0,0,0,0,0,-1,972,1261,0,0
-245,-237,0,0,0,0,0,0,0,0,0,-1,979,1261,0,0
-238,-237,0,0,0,0,0,0,0,0,0,-1,986,1261,0,0
-231,-237,0,0,0,0,0,0,0,0,0,-1,993,1261,0,0
-224,-237,0,0,0,0,0,0,0,0,0,-1,1000,1261,0,0
-217,-237,0,0,0,0,0,0,0,0,0,-1,1007,1261,0,0
-210,-237,0,0,0,0,0,0,0,0,0,-1,1014,1261,0,0
-203,-237,0,0,0,0,0,0,0,0,0,-1,1021,1261,0,0
-196,-237,0,0,0,0,0,0,0,0,0,-1,1028,1261,0,0
-189,-237,0,0,0,0,0,0,0,0,0,-1,1035,1261,0,0
-182,-237,0,0,0,0,0,0,0,0,0,-1,1042,1261,0,0
-175,-237,0,0,0,0,0,0,0,0,0,-1,1049,1261,0,0
-168,-237,0,0,0,0,0,0,0,0,0,-1,1056,1261,0,0
-161,-237,0,0,0,0,0,0,0,0,0,-1,1063,1261,0,0
-154,-237,0,0,0,0,0,0,0,0,0,-1,1070,1261,0,0
-147,-237,0,0,0,0,0,0,0,0,0,-1,1077,1261,0,0
-140,-237,0,0,0,0,0,0,0,0,0,-1,1084,1261,0,0
-133,-237,0,0,0,0,0,0,0,0,0,-1,1091,1261,0,0
-126,-237,0,0,0,0,0,0,0,0,0,-1,1098,1261,0,0
-119,-237,0,0,0,0,0,0,0,0,0,-1,1105,1261,0,0
-112,-237,0,0,0,0,0,0,0,0,0,-1,1112,1261,0,0
-105,-237,0,0,0,0,0,0,0,0,0,-1,1119,1261,0,0
-98,-237,0,0,0,0,0,0,0,0,0,-1,1126,1261,0,0
-91,-237,0,0,0,0,0,0,0,0,0,-1,1133,1261,0,0
-84,-237,0,0,0,0,0,0,0,0,0,-1,1140,1261,0,0
-77,-237,0,0,0,0,0,0,0,0,0,-1,1147,1261,0,0
-70,-237,0,0,0,0,0,0,0,0,0,-1,1154,1261,0,0
-63,-237,0,0,0,0,0,0,0,0,0,-1,1161,1261,0,0
-56,-237,0,0,0,0,0,0,0,0,0,-1,1168,1261,0,0
-49,-237,0,0,0,0,0,0,0,0,0,-1,1175,1261,0,0
-42,-237,0,0,0,0,0,0,0,0,0,-1,1182,1261,0,0
-35,-237,0,0,0,0,0,0,0,0,0,-1,1189,1261,0,0
-28,-237,0,0,0,0,0,0,0,0,0,-1,1196,1261,0,0
-21,-237,0,0,0,0,0,0,0,0,0,-1,1203,1261,0,0
-14,-237,0,0,0,0,0,0,0,0,0,-1,1210,1261,0,0
-7,-237,0,0,0,0,0,0,0,0,0,-1,1217,1261,0,0
0,-237,0,0,0,0,0,0,0,0,0,-1,1224,1261,0,0
7,-237,0,0,0,0,0,0,0,0,0,-1,1231,1261,0,0
14,-237,0,0,0,0,0,0,0,0,0,-1,1238,1261,0,0
21,-237,0,0,0,0,0,0,0,0,0,-1,1245,1261,0,0
28,-237,0,0,0,0,0,0,0,0,0,-1,1252,1261,0,0
35,-237,0,0,0,0,0,0,0,0,0,-1,1259,1261,0,0
42,-237,0,0,0,0,0,0,0,0,0,-1,1266,1261,0,0
49,-237,0,0,0,0,0,0,0,0,0,-1,1273,1261,0,0
56,-237,0,0,0,0,0,0,0,0,0,-1,1280,1261,0,0
63,-237,0,0,0,0,0,0,0,0,0,-1,1287,1261,0,0
70,-237,0,0,0,0,0,0,0,0,0,-1,1294,1261,0,0
77,-237,0,0,0,0,0,0,0,0,0,-1,1301,1261,0,0
84,-237,0,0,0,0,0,0,0,0,0,-1,1308,1261,0,0
91,-237,0,0,0,0,0,0,0,0,0,-1,1315,1261,0,0
98,-237,0,0,0,0,0,0,0,0,0,-1,1322,1261,0,0
105,-237,0,0,0,0,0,0,0,0,0,-1,1329,1261,0,0
112,-237,0,0,0,0,0,0,0,0,0,-1,1336,1261,0,0
119,-237,0,0,0,0,0,0,0,0,0,-1,1343,1261,0,0
126,-237,0,0,0,0,0,0,0,0,0,-1,1350,1261,0,0
133,-237,0,0,0,0,0,0,0,0,0,-1,1357,1261,0,0
140,-237,0,0,0,0,0,0,0,0,0,-1,1364,1261,0,0
147,-237,0,0,0,0,0,0,0,0,0,-1,1371,1261,0,0
154,-237,0,0,0,0,0,0,0,0,0,-1,1378,1261,0,0
161,-237,0,0,0,0,0,0,0,0,0,-1,1385,1261,0,0
168,-237,0,0,0,0,0,0,0,0,0,-1,1392,1261,0,0
175,-237,0,0,0,0,0,0,0,0,0,-1,1399,1261,0,0
182,-237,0,0,0,0,0,0,0,0,0,-1,1406,1261,0,0
189,-237,0,0,0,0,0,0,0,0,0,-1,1413,1261,0,0
196,-237,0,0,0,0,0,0,0,0,0,-1,1420,1261,0,0
203,-237,0,0,0,0,0,0,0,0,0,-1,1427,1261,0,0
210,-237,0,0,0,0,0,0,0,0,0,-1,1434,1261,0,0
217,-237,0,0,0,0,0,0,0,0,0,-1,1441,1261,0,0
224,-237,0,0,0,0,0,0,0,0,0,-1,1448,1261,0,0
231,-237,0,0,0,0,0,0,0,0,0,-1,1455,1261,0,0
238,-237,0,0,0,0,0,0,0,0,0,-1,1462,1261,0,0
245,-237,0,0,0,0,0,0,0,0,0,-1,1469,1261,0,0
252,-237,0,0,0,0,0,0,0,0,0,-1,1476,1261,0,0
259,-237,0,0,0,0,0,0,0,0,0,-1,1483,1261,0,0
266,-237,0,0,0,0,0,0,0,0,0,-1,1490,1261,0,0
273,-237,0,0,0,0,0,0,0,0,0,-1,1497,1261,0,0
280,-237,0,0,0,0,0,0,0,0,0,-1,1504,1261,0,0
287,-237,0,0,0,0,0,0,0,0,0,-1,1511,1261,0,0
294,-237,0,0,0,0,0,0,0,0,0,-1,1518,1261,0,0
301,-237,0,0,0,0,0,0,0,0,0,-1,1525,1261,0,0
308,-237,0,0,0,0,0,0,0,0,0,-1,1532,1261,0,0
315,-237,0,0,0,0,0,0,0,0,0,-1,1539,1261,0,0
322,-237,0,0,0,0,0,0,0,0,0,-1,1546,1261,0,0
329,-237,0,0,0,0,0,0,0,0,0,-1,1553,1261,0,0
336,-237,0,0,0,0,0,0,0,0,0,-1,1560,1261,0,0
343,-237,0,0,0,0,0,0,0,0,0,-1,1567,1261,0,0
350,-237,0,0,0,0,0,0,0,0,0,-1,1574,1261,0,0
357,-237,0,0,0,0,0,0,0,0,0,-1,1581,1261,0,0
364,-237,0,0,0,0,0,0,0,0,0,-1,1588,1261,0,0
371,-237,0,0,0,0,0,0,0,0,0,-1,1595,1261,0,0
378,-237,0,0,0,0,0,0,0,0,0,-1,1602,1261,0,0
385,-237,0,0,0,0,0,0,0,0,0,-1,1609,1261,0,0
392,-237,0,0,0,0,0,0,0,0,0,-1,1616,1261,0,0
399,-237,0,0,0,0,0,0,0,0,0,-1,1623,1261,0,0
406,-237,0,0,0,0,0,0,0,0,0,-1,1630,1261,0,0
413,-237,0,0,0,0,0,0,0,0,0,-1,1637,1261,0,0
420,-237,0,0,0,0,0,0,0,0,0,-1,1644,1261,0,0
427,-237,0,0,0,0,0,0,0,0,0,-1,1651,1261,0,0
434,-237,0,0,0,0,0,0,0,0,0,-1,1658,1261,0,0
441,-237,0,0,0,0,0,0,0,0,0,-1,1665,1261,0,0
448,-237,0,0,0,0,0,0,0,0,0,-1,1672,1261,0,0
455,-237,0,0,0,0,0,0,0,0,0,-1,1679,1261,0,0
462,-237,0,0,0,0,0,0,0,0,0,-1,1686,1261,0,0
469,-237,0,0,0,0,0,0,0,0,0,-1,1693,1261,0,0
476,-237,0,0,0,0,0,0,0,0,0,-1,1700,1261,0,0
483,-237,0,0,0,0,0,0,0,0,0,-1,1707,1261,0,0
490,-237,0,0,0,0,0,0,0,0,0,-1,1714,1261,0,0
497,-237,0,0,0,0,0,0,0,0,0,-1,1721,1261,0,0
504,-237,0,0,0,0,0,0,0,0,0,-1,1728,1261,0,0
511,-237,0,0,0,0,0,0,0,0,0,-1,1735,1261,0,0
518,-237,0,0,0,0,0,0,0,0,0,-1,1742,1261,0,0
525,-237,0,0,0,0,0,0,0,0,0,-1,1749,1261,0,0
532,-237,0,0,0,0,0,0,0,0,0,-1,1756,1261,0,0
539,-237,0,0,0,0,0,0,0,0,0,-1,1763,1261,0,0
546,-237,0,0,0,0,0,0,0,0,0,-1,1770,1261,0,0
553,-237,0,0,0,0,0,0,0,0,0,-1,1777,1261,0,0
560,-237,0,0,0,0,0,0,0,0,0,-1,1784,1261,0,0
567,-237,0,0,0,0,0,0,0,0,0,-1,1791,1261,0,0
574,-237,0,0,0,0,0,0,0,0,0,-1,1798,1261,0,0
581,-237,0,0,0,0,0,0,0,0,0,-1,1805,1261,0,0
588,-237,0,0,0,0,0,0,0,0,0,-1,1812,1261,0,0
595,-237,0,0,0,0,0,0,0,0,0,-1,1819,1261,0,0
602,-237,0,0,0,0,0,0,0,0,0,-1,1826,1261,0,0
609,-237,0,0,0,0,0,0,0,0,0,-1,1833,1261,0,0
616,-237,18.8043,2.59717,0.00118404,0.00364796,0.00030159,0.00368434,0.00114766,1.45075,0.00217696,0.0350398,1840,1261,18.8043,-2.59716
623,-237,18.832,2.70105,-0.00296204,0.00415862,-0.0012876,0.0043843,-0.00318772,-1.39729,0.00438987,0.0320559,1847,1261,18.832,-2.70102
630,-237,18.7551,2.66882,-0.00663858,0.00437931,-0.00235979,0.00486345,-0.00712272,-1.36844,0.00696107,0.0269217,1854,1261,18.7551,-2.66884
637,-237,18.6807,2.54041,-0.00867871,0.00415339,-0.00234969,0.00457011,-0.00909543,-1.39527,0.00803271,0.0237799,1861,1261,18.6806,-2.54038
644,-237,18.5762,2.43872,-0.00941522,0.0036525,-0.00188728,0.00391961,-0.00968233,-1.4302,0.0080846,0.0464259,1868,1261,18.5762,-2.43872
651,-237,18.493,2.34827,0,0,0,0,0,0,0,-1,1875,1261,18.4931,-2.34827
658,-237,18.151,1.94666,0,0,0,0,0,0,0,-1,1882,1261,18.151,-1.9466
665,-237,18.1167,1.77466,0,0,0,0,0,0,0,-1,1889,1261,18.1167,-1.77471
672,-237,17.701,2.36755,0,0,0,0,0,0,0,-1,1896,1261,17.7011,-2.36759
679,-237,16.3741,5.09485,0,0,0,0,0,0,0,-1,1903,1261,16.3741,-5.09482
686,-237,16.1404,4.90698,-0.0058046,0.00011381,0.000945471,0.00026118,-0.00595197,1.41617,0.00405784,0.0303696,1910,1261,16.1404,-4.90693
693,-237,15.9099,4.73962,-0.00449328,-0.000224717,0.00130652,0.000143432,-0.00486143,1.29614,0.0032898,0.015696,1917,1261,15.9099,-4.73964
700,-237,15.9259,4.59131,-0.00280631,-0.000958534,0.00172888,7.78318e-05,-0.00384268,1.03079,0.00258812,0.0105695,1924,1261,15.9259,-4.59135
707,-237,15.9347,4.44495,-0.00176801,-0.00126363,0.0013348,-0.000157401,-0.00287424,0.878763,0.00186591,0.00937019,1931,1261,15.9347,-4.44493
714,-237,15.9194,4.29944,-0.00063793,-0.00152177,0.000732837,-0.000224081,-0.00193562,0.514077,0.00122259,0.0123553,1938,1261,15.9194,-4.29941
721,-237,15.9156,4.14575,0.000884801,-0.00125573,0.000340977,0.000937804,-0.00130873,0.154212,0.00130292,0.0138958,1945,1261,15.9156,-4.14572
728,-237,15.9497,4.00073,0.00265913,-0.00118191,-0.000221697,0.00267188,-0.00119467,-0.0574635,0.00228601,0.0132747,1952,1261,15.9497,-4.00068
735,-237,15.9336,3.87329,0.00540613,-0.00139899,-0.000147835,0.00540934,-0.0014022,-0.0217104,0.00415329,0.0179135,1959,1261,15.9336,-3.87334
742,-237,15.9353,3.7356,0.00921159,-0.00204239,0.000575137,0.00924091,-0.0020717,0.0509284,0.0069548,0.0138172,1966,1261,15.9353,-3.73559
749,-237,15.9287,3.6106,0.0136152,-0.00271638,0.0014099,0.0137361,-0.00283721,0.0854869,0.010235,0.00901958,1973,1261,15.9287,-3.61055
756,-237,15.8976,3.45459,0.0193201,-0.00389707,0.00304117,0.0197118,-0.00428882,0.128109,0.0147797,0.0127634,1980,1261,15.8976,-3.45459
763,-237,15.8414,3.18884,0.0269037,-0.00559172,0.0057864,0.0279033,-0.00659134,0.171066,0.0211446,0.0286964,1987,1261,15.8415,-3.18881
770,-237,16.1337,3.19629,0.0366962,-0.00796934,0.010062,0.0388583,-0.0101314,0.211655,0.0298612,0.0459035,1994,1261,16.1336,-3.1963
777,-237,16.3378,3.22461,0,0,0,0,0,0,0,-1,2001,1261,16.3378,-3.2246
784,-237,16.7791,4.3208,0.0636507,-0.0155343,0.0249744,0.0708694,-0.022753,0.281375,0.0563823,0.0486226,2008,1261,16.7791,-4.32082
791,-237,17.3424,4.68701,0.0809188,-0.0212337,0.0364226,0.0925752,-0.0328901,0.309733,0.0751199,0.0479857,2015,1261,17.3424,-4.68698
798,-237,0,0,0,0,0,0,0,0,0,-1,2022,1261,0,0
805,-237,0,0,0,0,0,0,0,0,0,-1,2029,1261,0,0
812,-237,0,0,0,0,0,0,0,0,0,-1,2036,1261,0,0
-700,-244,0,0,0,0,0,0,0,0,0,-1,524,1268,0,0
-693,-244,0,0,0,0,0,0,0,0,0,-1,531,1268,0,0
-686,-244,0,0,0,0,0,0,0,0,0,-1,538,1268,0,0
-679,-244,0,0,0,0,0,0,0,0,0,-1,545,1268,0,0
-672,-244,-7.98083,-0.386353,0,0,0,0,0,0,0,-1,552,1268,-7.98083,0.386332
-665,-244,-6.23181,-2.11902,0,0,0,0,0,0,0,-1,559,1268,-6.23184,2.11903
-658,-244,-6.58667,-0.888428,-0.0105762,0.0203331,-0.00176157,0.0204332,-0.0106763,-1.51405,0.0182531,0.0461312,566,1268,-6.58665,0.888401
-651,-244,-6.84338,0.086792,-0.0132011,0.0179662,-0.00118921,0.0180116,-0.0132465,-1.53271,0.0181166,0.0473431,573,1268,-6.84341,-0.0868527
-644,-244,-7.58862,0.382935,-0.0143403,0.0152466,-0.00078469,0.0152674,-0.0143611,-1.5443,0.0171087,0.0456537,580,1268,-7.58865,-0.382875
-637,-244,-8.05499,0.548218,-0.0143416,0.0124613,-0.000464854,0.0124694,-0.0143497,-1.55346,0.0154967,0.046651,587,1268,-8.055,-0.54818
-630,-244,-8.40814,0.921387,-0.0135214,0.00981324,-0.000219572,0.00981531,-0.0135235,-1.56139,0.0135312,0.0423758,594,1268,-8.40815,-0.921416
-623,-244,-8.53448,1.15906,-0.0121904,0.00738252,-7.42516e-05,0.0073828,-0.0121907,-1.567,0.0114138,0.0299423,601,1268,-8.53449,-1.15906
-616,-244,-8.58423,1.31604,-0.01026,0.00522894,0.000272727,0.00523374,-0.0102648,1.5532,0.00910389,0.0149922,608,1268,-8.58424,-1.31598
-609,-244,-8.57996,1.46167,-0.00804059,0.00358452,0.000245507,0.0035897,-0.00804578,1.54969,0.00688,0.0141991,615,1268,-8.57996,-1.46161
-602,-244,-8.57825,1.63123,-0.00564733,0.00159552,0.00039295,0.00161678,-0.00566859,1.51675,0.00441773,0.0145851,622,1268,-8.57825,-1.63127
-595,-244,-8.59589,1.81274,-0.00315247,-4.28744e-05,0.000330679,-8.09843e-06,-0.00318725,1.46602,0.00212214,0.014933,629,1268,-8.59586,-1.81277
-588,-244,-8.58582,2.02649,-0.000579641,-0.00134487,0.000173652,-0.000542078,-0.00138243,0.213028,0.000804317,0.0200876,636,1268,-8.58582,-2.02649
-581,-244,-8.5824,2.18164,0.00222897,-0.00246162,-0.000140033,0.00223315,-0.0024658,-0.0298186,0.00271405,0.0176768,643,1268,-8.58242,-2.18161
-574,-244,-8.5788,2.33984,0.00366637,-0.00436092,-0.000498339,0.00369718,-0.00439173,-0.0617646,0.00467587,0.0131454,650,1268,-8.5788,-2.33985
-567,-244,-8.58673,2.48767,0.0045141,-0.00588775,-0.00135107,0.00468673,-0.00606037,-0.127079,0.00622171,0.010714,657,1268,-8.58676,-2.48762
-560,-244,-8.54193,2.67676,0.00537716,-0.00709122,-0.00251908,0.00586688,-0.00758094,-0.192007,0.00778509,0.0153618,664,1268,-8.54192,-2.6768
-553,-244,-8.43274,2.91626,0.0052413,-0.0070701,-0.00366687,0.00625069,-0.0080795,-0.268621,0.00829596,0.0410036,671,1268,-8.43276,-2.91625
-546,-244,-8.27161,3.12927,0,0,0,0,0,0,0,-1,678,1268,-8.27162,-3.12925
-539,-244,-10.8834,2.52649,0,0,0,0,0,0,0,-1,685,1268,-10.8834,-2.52648
-532,-244,-11.1925,0.879639,0,0,0,0,0,0,0,-1,692,1268,-11.1925,-0.879636
-525,-244,-11.5466,1.05493,-0.00215548,-0.00695883,-0.00686754,0.00271822,-0.0118325,-0.617188,0.00893336,0.0452613,699,1268,-11.5466,-1.05495
-518,-244,-11.9046,1.05396,-0.00531835,-0.00591801,-0.00745832,0.00184616,-0.0130825,-0.765309,0.00939771,0.0418797,706,1268,-11.9046,-1.05395
-511,-244,-11.7685,0.687988,-0.00940602,-0.00405812,-0.00762511,0.0013483,-0.0148124,-0.954037,0.0103537,0.0438474,713,1268,-11.7685,-0.688044
-504,-244,-11.8305,0.764893,-0.0143763,-0.000902539,-0.00676376,0.00190699,-0.0171859,-1.1771,0.0121429,0.0416025,720,1268,-11.8305,-0.764878
-497,-244,-11.9342,0.955444,-0.0201224,0.00428224,-0.00381199,0.00486381,-0.0207039,-1.4194,0.0156774,0.0431233,727,1268,-11.9342,-0.955476
-490,-244,0,0,0,0,0,0,0,0,0,-1,734,1268,0,0
-483,-244,0,0,0,0,0,0,0,0,0,-1,741,1268,0,0
-476,-244,0,0,0,0,0,0,0,0,0,-1,748,1268,0,0
-469,-244,0,0,0,0,0,0,0,0,0,-1,755,1268,0,0
-462,-244,0,0,0,0,0,0,0,0,0,-1,762,1268,0,0
-455,-244,0,0,0,0,0,0,0,0,0,-1,769,1268,0,0
-448,-244,0,0,0,0,0,0,0,0,0,-1,776,1268,0,0
-441,-244,0,0,0,0,0,0,0,0,0,-1,783,1268,0,0
-434,-244,0,0,0,0,0,0,0,0,0,-1,790,1268,0,0
-427,-244,0,0,0,0,0,0,0,0,0,-1,797,1268,0,0
-420,-244,0,0,0,0,0,0,0,0,0,-1,804,1268,0,0
-413,-244,0,0,0,0,0,0,0,0,0,-1,811,1268,0,0
-406,-244,0,0,0,0,0,0,0,0,0,-1,818,1268,0,0
-399,-244,0,0,0,0,0,0,0,0,0,-1,825,1268,0,0
-392,-244,0,0,0,0,0,0,0,0,0,-1,832,1268,0,0
-385,-244,0,0,0,0,0,0,0,0,0,-1,839,1268,0,0
-378,-244,0,0,0,0,0,0,0,0,0,-1,846,1268,0,0
-371,-244,0,0,0,0,0,0,0,0,0,-1,853,1268,0,0
-364,-244,0,0,0,0,0,0,0,0,0,-1,860,1268,0,0
-357,-244,0,0,0,0,0,0,0,0,0,-1,867,1268,0,0
-350,-244,0,0,0,0,0,0,0,0,0,-1,874,1268,0,0
-343,-244,0,0,0,0,0,0,0,0,0,-1,881,1268,0,0
-336,-244,0,0,0,0,0,0,0,0,0,-1,888,1268,0,0
-329,-244,0,0,0,0,0,0,0,0,0,-1,895,1268,0,0
-322,-244,0,0,0,0,0,0,0,0,0,-1,902,1268,0,0
-315,-244,0,0,0,0,0,0,0,0,0,-1,909,1268,0,0
-308,-244,0,0,0,0,0,0,0,0,0,-1,916,1268,0,0
-301,-244,0,0,0,0,0,0,0,0,0,-1,923,1268,0,0
-294,-244,0,0,0,0,0,0,0,0,0,-1,930,1268,0,0
-287,-244,0,0,0,0,0,0,0,0,0,-1,937,1268,0,0
-280,-244,0,0,0,0,0,0,0,0,0,-1,944,1268,0,0
-273,-244,0,0,0,0,0,0,0,0,0,-1,951,1268,0,0
-266,-244,0,0,0,0,0,0,0,0,0,-1,958,1268,0,0
-259,-244,0,0,0,0,0,0,0,0,0,-1,965,1268,0,0
-252,-244,0,0,0,0,0,0,0,0,0,-1,972,1268,0,0
-245,-244,0,0,0,0,0,0,0,0,0,-1,979,1268,0,0
-238,-244,0,0,0,0,0,0,0,0,0,-1,986,1268,0,0
-231,-244,0,0,0,0,0,0,0,0,0,-1,993,1268,0,0
-224,-244,0,0,0,0,0,0,0,0,0,-1,1000,1268,0,0
-217,-244,0,0,0,0,0,0,0,0,0,-1,1007,1268,0,0
-210,-244,0,0,0,0,0,0,0,0,0,-1,1014,1268,0,0
-203,-244,0,0,0,0,0,0,0,0,0,-1,1021,1268,0,0
-196,-244,0,0,0,0,0,0,0,0,0,-1,1028,1268,0,0
-189,-244,0,0,0,0,0,0,0,0,0,-1,1035,1268,0,0
-182,-244,0,0,0,0,0,0,0,0,0,-1,1042,1268,0,0
-175,-244,0,0,0,0,0,0,0,0,0,-1,1049,1268,0,0
-168,-244,0,0,0,0,0,0,0,0,0,-1,1056,1268,0,0
-161,-244,0,0,0,0,0,0,0,0,0,-1,1063,1268,0,0
-154,-244,0,0,0,0,0,0,0,0,0,-1,1070,1268,0,0
-147,-244,0,0,0,0,0,0,0,0,0,-1,1077,1268,0,0
-140,-244,0,0,0,0,0,0,0,0,0,-1,1084,1268,0,0
-133,-244,0,0,0,0,0,0,0,0,0,-1,1091,1268,0,0
-126,-244,0,0,0,0,0,0,0,0,0,-1,1098,1268,0,0
-119,-244,0,0,0,0,0,0,0,0,0,-1,1105,1268,0,0
-112,-244,0,0,0,0,0,0,0,0,0,-1,1112,1268,0,0
-105,-244,0,0,0,0,0,0,0,0,0,-1,1119,1268,0,0
-98,-244,0,0,0,0,0,0,0,0,0,-1,1126,1268,0,0
-91,-244,0,0,0,0,0,0,0,0,0,-1,1133,1268,0,0
-84,-244,0,0,0,0,0,0,0,0,0,-1,1140,1268,0,0
-77,-244,0,0,0,0,0,0,0,0,0,-1,1147,1268,0,0
-70,-244,0,0,0,0,0,0,0,0,0,-1,1154,1268,0,0
-63,-244,0,0,0,0,0,0,0,0,0,-1,1161,1268,0,0
-56,-244,0,0,0,0,0,0,0,0,0,-1,1168,1268,0,0
-49,-244,0,0,0,0,0,0,0,0,0,-1,1175,1268,0,0
-42,-244,0,0,0,0,0,0,0,0,0,-1,1182,1268,0,0
-35,-244,0,0,0,0,0,0,0,0,0,-1,1189,1268,0,0
-28,-244,0,0,0,0,0,0,0,0,0,-1,1196,1268,0,0
-21,-244,0,0,0,0,0,0,0,0,0,-1,1203,1268,0,0
-14,-244,0,0,0,0,0,0,0,0,0,-1,1210,1268,0,0
-7,-244,0,0,0,0,0,0,0,0,0,-1,1217,1268,0,0
0,-244,0,0,0,0,0,0,0,0,0,-1,1224,1268,0,0
7,-244,0,0,0,0,0,0,0,0,0,-1,1231,1268,0,0
14,-244,0,0,0,0,0,0,0,0,0,-1,1238,1268,0,0
21,-244,0,0,0,0,0,0,0,0,0,-1,1245,1268,0,0
28,-244,0,0,0,0,0,0,0,0,0,-1,1252,1268,0,0
35,-244,0,0,0,0,0,0,0,0,0,-1,1259,1268,0,0
42,-244,0,0,0,0,0,0,0,0,0,-1,1266,1268,0,0
49,-244,0,0,0,0,0,0,0,0,0,-1,1273,1268,0,0
56,-244,0,0,0,0,0,0,0,0,0,-1,1280,1268,0,0
63,-244,0,0,0,0,0,0,0,0,0,-1,1287,1268,0,0
70,-244,0,0,0,0,0,0,0,0,0,-1,1294,1268,0,0
77,-244,0,0,0,0,0,0,0,0,0,-1,1301,1268,0,0
84,-244,0,0,0,0,0,0,0,0,0,-1,1308,1268,0,0
91,-244,0,0,0,0,0,0,0,0,0,-1,1315,1268,0,0
98,-244,0,0,0,0,0,0,0,0,0,-1,1322,1268,0,0
105,-244,0,0,0,0,0,0,0,0,0,-1,1329,1268,0,0
112,-244,0,0,0,0,0,0,0,0,0,-1,1336,1268,0,0
119,-244,0,0,0,0,0,0,0,0,0,-1,1343,1268,0,0
126,-244,0,0,0,0,0,0,0,0,0,-1,1350,1268,0,0
133,-244,0,0,0,0,0,0,0,0,0,-1,1357,1268,0,0
140,-244,0,0,0,0,0,0,0,0,0,-1,1364,1268,0,0
147,-244,0,0,0,0,0,0,0,0,0,-1,1371,1268,0,0
154,-244,0,0,0,0,0,0,0,0,0,-1,1378,1268,0,0
161,-244,0,0,0,0,0,0,0,0,0,-1,1385,1268,0,0
168,-244,0,0,0,0,0,0,0,0,0,-1,1392,1268,0,0
175,-244,0,0,0,0,0,0,0,0,0,-1,1399,1268,0,0
182,-244,0,0,0,0,0,0,0,0,0,-1,1406,1268,0,0
189,-244,0,0,0,0,0,0,0,0,0,-1,1413,1268,0,0
196,-244,0,0,0,0,0,0,0,0,0,-1,1420,1268,0,0
203,-244,0,0,0,0,0,0,0,0,0,-1,1427,1268,0,0
210,-244,0,0,0,0,0,0,0,0,0,-1,1434,1268,0,0
217,-244,0,0,0,0,0,0,0,0,0,-1,1441,1268,0,0
224,-244,0,0,0,0,0,0,0,0,0,-1,1448,1268,0,0
231,-244,0,0,0,0,0,0,0,0,0,-1,1455,1268,0,0
238,-244,0,0,0,0,0,0,0,0,0,-1,1462,1268,0,0
245,-244,0,0,0,0,0,0,0,0,0,-1,1469,1268,0,0
252,-244,0,0,0,0,0,0,0,0,0,-1,1476,1268,0,0
259,-244,0,0,0,0,0,0,0,0,0,-1,1483,1268,0,0
266,-244,0,0,0,0,0,0,0,0,0,-1,1490,1268,0,0
273,-244,0,0,0,0,0,0,0,0,0,-1,1497,1268,0,0
280,-244,0,0,0,0,0,0,0,0,0,-1,1504,1268,0,0
287,-244,0,0,0,0,0,0,0,0,0,-1,1511,1268,0,0
294,-244,0,0,0,0,0,0,0,0,0,-1,1518,1268,0,0
301,-244,0,0,0,0,0,0,0,0,0,-1,1525,1268,0,0
308,-244,0,0,0,0,0,0,0,0,0,-1,1532,1268,0,0
315,-244,0,0,0,0,0,0,0,0,0,-1,1539,1268,0,0
322,-244,0,0,0,0,0,0,0,0,0,-1,1546,1268,0,0
329,-244,0,0,0,0,0,0,0,0,0,-1,1553,1268,0,0
336,-244,0,0,0,0,0,0,0,0,0,-1,1560,1268,0,0
343,-244,0,0,0,0,0,0,0,0,0,-1,1567,1268,0,0
350,-244,0,0,0,0,0,0,0,0,0,-1,1574,1268,0,0
357,-244,0,0,0,0,0,0,0,0,0,-1,1581,1268,0,0
364,-244,0,0,0,0,0,0,0,0,0,-1,1588,1268,0,0
371,-244,0,0,0,0,0,0,0,0,0,-1,1595,1268,0,0
378,-244,0,0,0,0,0,0,0,0,0,-1,1602,1268,0,0
385,-244,0,0,0,0,0,0,0,0,0,-1,1609,1268,0,0
392,-244,0,0,0,0,0,0,0,0,0,-1,1616,1268,0,0
399,-244,0,0,0,0,0,0,0,0,0,-1,1623,1268,0,0
406,-244,0,0,0,0,0,0,0,0,0,-1,1630,1268,0,0
413,-244,0,0,0,0,0,0,0,0,0,-1,1637,1268,0,0
420,-244,0,0,0,0,0,0,0,0,0,-1,1644,1268,0,0
427,-244,0,0,0,0,0,0,0,0,0,-1,1651,1268,0,0
434,-244,0,0,0,0,0,0,0,0,0,-1,1658,1268,0,0
441,-244,0,0,0,0,0,0,0,0,0,-1,1665,1268,0,0
448,-244,0,0,0,0,0,0,0,0,0,-1,1672,1268,0,0
455,-244,0,0,0,0,0,0,0,0,0,-1,1679,1268,0,0
462,-244,0,0,0,0,0,0,0,0,0,-1,1686,1268,0,0
469,-244,0,0,0,0,0,0,0,0,0,-1,1693,1268,0,0
476,-244,0,0,0,0,0,0,0,0,0,-1,1700,1268,0,0
483,-244,0,0,0,0,0,0,0,0,0,-1,1707,1268,0,0
490,-244,0,0,0,0,0,0,0,0,0,-1,1714,1268,0,0
497,-244,0,0,0,0,0,0,0,0,0,-1,1721,1268,0,0
504,-244,0,0,0,0,0,0,0,0,0,-1,1728,1268,0,0
511,-244,0,0,0,0,0,0,0,0,0,-1,1735,1268,0,0
518,-244,0,0,0,0,0,0,0,0,0,-1,1742,1268,0,0
525,-244,0,0,0,0,0,0,0,0,0,-1,1749,1268,0,0
532,-244,0,0,0,0,0,0,0,0,0,-1,1756,1268,0,0
539,-244,0,0,0,0,0,0,0,0,0,-1,1763,1268,0,0
546,-244,0,0,0,0,0,0,0,0,0,-1,1770,1268,0,0
553,-244,0,0,0,0,0,0,0,0,0,-1,1777,1268,0,0
560,-244,0,0,0,0,0,0,0,0,0,-1,1784,1268,0,0
567,-244,0,0,0,0,0,0,0,0,0,-1,1791,1268,0,0
574,-244,0,0,0,0,0,0,0,0,0,-1,1798,1268,0,0
581,-244,0,0,0,0,0,0,0,0,0,-1,1805,1268,0,0
588,-244,0,0,0,0,0,0,0,0,0,-1,1812,1268,0,0
595,-244,0,0,0,0,0,0,0,0,0,-1,1819,1268,0,0
602,-244,0,0,0,0,0,0,0,0,0,-1,1826,1268,0,0
609,-244,0,0,0,0,0,0,0,0,0,-1,1833,1268,0,0
616,-244,18.7015,2.4845,0.000539464,0.0047207,-0.000883133,0.00489957,0.000360587,-1.37095,0.00315307,0.032516,1840,1268,18.7015,-2.48449
623,-244,18.7513,2.59412,-0.00402504,0.0049179,-0.00255206,0.00559493,-0.00470207,-1.31148,0.00595242,0.0283782,1847,1268,18.7513,-2.59407
630,-244,18.7745,2.69092,-0.00777037,0.00474358,-0.00336313,0.00559015,-0.00861694,-1.3242,0.00826429,0.0271505,1854,1268,18.7746,-2.69086
637,-244,18.7788,2.6062,-0.00977246,0.00420444,-0.00306714,0.00484789,-0.0104159,-1.36401,0.00900588,0.0430885,1861,1268,18.7788,-2.60623
644,-244,18.524,2.36633,0,0,0,0,0,0,0,-1,1868,1268,18.5241,-2.36628
651,-244,17.8439,1.85376,-0.0102274,0.00286201,-0.00170326,0.00308002,-0.0104454,-1.4435,0.00818579,0.0474186,1875,1268,17.8438,-1.85371
658,-244,17.8035,1.65173,-0.00966284,0.00216349,-0.00104899,0.00225581,-0.00975516,-1.48301,0.00737135,0.0454571,1882,1268,17.8034,-1.6517
665,-244,17.5684,1.70837,0,0,0,0,0,0,0,-1,1889,1268,17.5684,-1.70843
672,-244,15.9113,4.99023,0,0,0,0,0,0,0,-1,1896,1268,15.9113,-4.9902
679,-244,15.8162,4.97546,-0.00746856,0.000446316,0.000348584,0.000461639,-0.00748389,1.52687,0.00515004,0.0490137,1903,1268,15.8161,-4.97541
686,-244,15.8036,4.90601,-0.00652235,3.8973e-05,0.000937417,0.000170274,-0.00665365,1.43163,0.0044936,0.0257565,1910,1268,15.8036,-4.90601
693,-244,15.7709,4.76611,-0.00485314,-0.000224305,0.00133611,0.000133679,-0.00521113,1.30902,0.00351949,0.0108776,1917,1268,15.7709,-4.7661
700,-244,15.7738,4.59082,-0.00277062,-0.000916383,0.00182113,0.000200038,-0.00388704,1.02084,0.00266055,0.00844521,1924,1268,15.7738,-4.59086
707,-244,15.7819,4.43677,-0.00133603,-0.00119676,0.00132601,6.14444e-05,-0.00259424,0.811631,0.00175033,0.00979908,1931,1268,15.7819,-4.43676
714,-244,15.7889,4.30383,0.000344647,-0.00144996,0.000628977,0.000543138,-0.00164845,0.305687,0.00131786,0.0112549,1938,1268,15.7889,-4.30379
721,-244,15.7714,4.15491,0.00260792,-0.00130743,0.000179894,0.00261616,-0.00131568,0.0458172,0.00231107,0.0127911,1945,1268,15.7714,-4.15497
728,-244,15.7919,4.01575,0.00531171,-0.00137164,-0.00040436,0.00533608,-0.00139602,-0.0602098,0.00410268,0.0162928,1952,1268,15.7918,-4.01569
735,-244,15.7937,3.86609,0.00908017,-0.00184239,-0.000331553,0.00909023,-0.00185245,-0.0303176,0.00676274,0.0215815,1959,1268,15.7937,-3.8661
742,-244,15.821,3.72327,0.0140013,-0.00279606,0.000400953,0.0140109,-0.00280563,0.0238519,0.0104027,0.0141393,1966,1268,15.821,-3.7233
749,-244,15.787,3.5741,0.0198399,-0.00383633,0.00123192,0.0199039,-0.00390025,0.0518453,0.0147423,0.0164267,1973,1268,15.787,-3.57409
756,-244,15.7076,3.41504,0.0273362,-0.0054525,0.00284515,0.0275813,-0.00569755,0.0859166,0.0205517,0.0233664,1980,1268,15.7076,-3.41503
763,-244,15.4832,2.97961,0.0369704,-0.00769785,0.00560238,0.0376623,-0.0083898,0.122886,0.0283221,0.0393293,1987,1268,15.4831,-2.9796
770,-244,15.9445,3.06482,0,0,0,0,0,0,0,-1,1994,1268,15.9445,-3.06481
777,-244,15.5181,2.59741,0,0,0,0,0,0,0,-1,2001,1268,15.518,-2.59743
784,-244,16.3055,4.59875,0,0,0,0,0,0,0,-1,2008,1268,16.3055,-4.59876
791,-244,0,0,0,0,0,0,0,0,0,-1,2015,1268,0,0
798,-244,0,0,0,0,0,0,0,0,0,-1,2022,1268,0,0
805,-244,0,0,0,0,0,0,0,0,0,-1,2029,1268,0,0
812,-244,0,0,0,0,0,0,0,0,0,-1,2036,1268,0,0
-700,-251,0,0,0,0,0,0,0,0,0,-1,524,1275,0,0
-693,-251,0,0,0,0,0,0,0,0,0,-1,531,1275,0,0
-686,-251,0,0,0,0,0,0,0,0,0,-1,538,1275,0,0
-679,-251,0,0,0,0,0,0,0,0,0,-1,545,1275,0,0
-672,-251,0,0,0,0,0,0,0,0,0,-1,552,1275,0,0
-665,-251,-6.34857,-1.99902,-0.00771419,0.0242767,0.00228038,0.0244384,-0.00787592,1.49999,0.0194564,0.045843,559,1275,-6.34857,1.99908
-658,-251,-6.52216,-0.97876,-0.0106237,0.0223631,0.00137976,0.0224207,-0.0106813,1.52907,0.0195079,0.0469833,566,1275,-6.52213,0.978751
-651,-251,-6.80566,-0.380493,-0.0124627,0.019608,0.000671206,0.0196221,-0.0124768,1.54988,0.0186847,0.0484252,573,1275,-6.80567,0.380543
-644,-251,-7.13354,0.0672607,-0.0133132,0.0165198,0.000163297,0.0165207,-0.0133141,1.56532,0.0172583,0.0472734,580,1275,-7.13352,-0.067315
-637,-251,-7.54688,0.479736,-0.0133489,0.0134134,-0.000125842,0.013414,-0.0133495,-1.56609,0.0154519,0.0453229,587,1275,-7.5469,-0.479748
-630,-251,-8.20154,0.948853,-0.0127484,0.0104966,-0.000250432,0.0104993,-0.0127511,-1.56002,0.0134446,0.0448523,594,1275,-8.20155,-0.948827
-623,-251,-8.33038,1.17639,-0.0117074,0.00786132,-0.000268475,0.007865,-0.0117111,-1.55708,0.0113747,0.0361998,601,1275,-8.33038,-1.17635
-616,-251,-8.40759,1.31641,-0.0101351,0.00561469,1.07028e-05,0.00561469,-0.0101351,1.57012,0.00921713,0.0189411,608,1275,-8.40757,-1.31636
-609,-251,-8.4101,1.45422,-0.00819972,0.00392221,-2.17226e-05,0.00392225,-0.00819976,-1.569,0.00714241,0.0192255,615,1275,-8.41009,-1.45424
-602,-251,-8.39526,1.60693,-0.00607523,0.00183895,0.000108593,0.00184044,-0.00607672,1.55708,0.00478412,0.0148689,622,1275,-8.39525,-1.60692
-595,-251,-8.40253,1.77783,-0.00385969,0.000357109,7.77546e-05,0.000358543,-0.00386113,1.55237,0.00270154,0.0132762,629,1275,-8.40254,-1.77788
-588,-251,-8.4024,1.96069,-0.00182265,-0.000774972,0.000159972,-0.00075109,-0.00184653,1.4226,0.00107225,0.0151565,636,1275,-8.40239,-1.96067
-581,-251,-8.40051,2.15576,0.000725337,-0.00174527,0.0001783,0.000738138,-0.00175807,0.0716735,0.00148074,0.0133987,643,1275,-8.40049,-2.15578
-574,-251,-8.38806,2.34131,0.00228159,-0.00348628,-4.89843e-05,0.002282,-0.0034867,-0.0084918,0.00335468,0.012697,650,1275,-8.38807,-2.34137
-567,-251,-8.40686,2.49719,0.00317814,-0.00496189,-0.000959931,0.00328982,-0.00507356,-0.115811,0.00486507,0.0114869,657,1275,-8.40686,-2.49719
-560,-251,-8.39032,2.69678,0.00410236,-0.00632269,-0.00223103,0.00455975,-0.00678008,-0.20221,0.00658875,0.0138291,664,1275,-8.39035,-2.69679
-553,-251,-8.28748,2.76831,0.00394269,-0.00633695,-0.00346936,0.00500401,-0.00739828,-0.296874,0.0072048,0.0326298,671,1275,-8.28746,-2.76826
-546,-251,-8.24719,2.78479,0,0,0,0,0,0,0,-1,678,1275,-8.24721,-2.78485
-539,-251,-10.6004,1.90796,0,0,0,0,0,0,0,-1,685,1275,-10.6004,-1.90793
-532,-251,-11.0221,1.85645,0,0,0,0,0,0,0,-1,692,1275,-11.0221,-1.85642
-525,-251,-11.6037,1.67322,-0.00431685,-0.00652499,-0.00670346,0.00137286,-0.0122147,-0.70378,0.0086372,0.0483143,699,1275,-11.6037,-1.67327
-518,-251,-12.0773,1.40662,-0.00750196,-0.00582723,-0.00733164,0.000714706,-0.0140439,-0.842258,0.0096097,0.0425202,706,1275,-12.0773,-1.40659
-511,-251,-11.6796,0.838989,-0.0114377,-0.00463942,-0.00760064,0.000287526,-0.0163647,-0.995668,0.0110069,0.0415656,713,1275,-11.6795,-0.839022
-504,-251,-11.5574,0.458252,-0.0161165,-0.00266552,-0.00711584,0.000400182,-0.0191822,-1.164,0.0129236,0.0415871,720,1275,-11.5574,-0.458261
-497,-251,-11.6494,0.622192,-0.0214847,0.00066556,-0.00504804,0.00176176,-0.0225809,-1.35696,0.0156742,0.0430961,727,1275,-11.6494,-0.622252
-490,-251,0,0,0,0,0,0,0,0,0,-1,734,1275,0,0
-483,-251,0,0,0,0,0,0,0,0,0,-1,741,1275,0,0
-476,-251,0,0,0,0,0,0,0,0,0,-1,748,1275,0,0
-469,-251,0,0,0,0,0,0,0,0,0,-1,755,1275,0,0
-462,-251,0,0,0,0,0,0,0,0,0,-1,762,1275,0,0
-455,-251,0,0,0,0,0,0,0,0,0,-1,769,1275,0,0
-448,-251,0,0,0,0,0,0,0,0,0,-1,776,1275,0,0
-441,-251,0,0,0,0,0,0,0,0,0,-1,783,1275,0,0
-434,-251,0,0,0,0,0,0,0,0,0,-1,790,1275,0,0
-427,-251,0,0,0,0,0,0,0,0,0,-1,797,1275,0,0
-420,-251,0,0,0,0,0,0,0,0,0,-1,804,1275,0,0
-413,-251,0,0,0,0,0,0,0,0,0,-1,811,1275,0,0
-406,-251,0,0,0,0,0,0,0,0,0,-1,818,1275,0,0
-399,-251,0,0,0,0,0,0,0,0,0,-1,825,1275,0,0
-392,-251,0,0,0,0,0,0,0,0,0,-1,832,1275,0,0
-385,-251,0,0,0,0,0,0,0,0,0,-1,839,1275,0,0
-378,-251,0,0,0,0,0,0,0,0,0,-1,846,1275,0,0
-371,-251,0,0,0,0,0,0,0,0,0,-1,853,1275,0,0
-364,-251,0,0,0,0,0,0,0,0,0,-1,860,1275,0,0
-357,-251,0,0,0,0,0,0,0,0,0,-1,867,1275,0,0
-350,-251,0,0,0,0,0,0,0,0,0,-1,874,1275,0,0
-343,-251,0,0,0,0,0,0,0,0,0,-1,881,1275,0,0
-336,-251,0,0,0,0,0,0,0,0,0,-1,888,1275,0,0
-329,-251,0,0,0,0,0,0,0,0,0,-1,895,1275,0,0
-322,-251,0,0,0,0,0,0,0,0,0,-1,902,1275,0,0
-315,-251,0,0,0,0,0,0,0,0,0,-1,909,1275,0,0
-308,-251,0,0,0,0,0,0,0,0,0,-1,916,1275,0,0
-301,-251,0,0,0,0,0,0,0,0,0,-1,923,1275,0,0
-294,-251,0,0,0,0,0,0,0,0,0,-1,930,1275,0,0
-287,-251,0,0,0,0,0,0,0,0,0,-1,937,1275,0,0
-280,-251,0,0,0,0,0,0,0,0,0,-1,944,1275,0,0
-273,-251,0,0,0,0,0,0,0,0,0,-1,951,1275,0,0
-266,-251,0,0,0,0,0,0,0,0,0,-1,958,1275,0,0
-259,-251,0,0,0,0,0,0,0,0,0,-1,965,1275,0,0
-252,-251,0,0,0,0,0,0,0,0,0,-1,972,1275,0,0
-245,-251,0,0,0,0,0,0,0,0,0,-1,979,1275,0,0
-238,-251,0,0,0,0,0,0,0,0,0,-1,986,1275,0,0
-231,-251,0,0,0,0,0,0,0,0,0,-1,993,1275,0,0
-224,-251,0,0,0,0,0,0,0,0,0,-1,1000,1275,0,0
-217,-251,0,0,0,0,0,0,0,0,0,-1,1007,1275,0,0
-210,-251,0,0,0,0,0,0,0,0,0,-1,1014,1275,0,0
-203,-251,0,0,0,0,0,0,0,0,0,-1,1021,1275,0,0
-196,-251,0,0,0,0,0,0,0,0,0,-1,1028,1275,0,0
-189,-251,0,0,0,0,0,0,0,0,0,-1,1035,1275,0,0
-182,-251,0,0,0,0,0,0,0,0,0,-1,1042,1275,0,0
-175,-251,0,0,0,0,0,0,0,0,0,-1,1049,1275,0,0
-168,-251,0,0,0,0,0,0,0,0,0,-1,1056,1275,0,0
-161,-251,0,0,0,0,0,0,0,0,0,-1,1063,1275,0,0
-154,-251,0,0,0,0,0,0,0,0,0,-1,1070,1275,0,0
-147,-251,0,0,0,0,0,0,0,0,0,-1,1077,1275,0,0
-140,-251,0,0,0,0,0,0,0,0,0,-1,1084,1275,0,0
-133,-251,0,0,0,0,0,0,0,0,0,-1,1091,1275,0,0
-126,-251,0,0,0,0,0,0,0,0,0,-1,1098,1275,0,0
-119,-251,0,0,0,0,0,0,0,0,0,-1,1105,1275,0,0
-112,-251,0,0,0,0,0,0,0,0,0,-1,1112,1275,0,0
-105,-251,0,0,0,0,0,0,0,0,0,-1,1119,1275,0,0
-98,-251,0,0,0,0,0,0,0,0,0,-1,1126,1275,0,0
-91,-251,0,0,0,0,0,0,0,0,0,-1,1133,1275,0,0
-84,-251,0,0,0,0,0,0,0,0,0,-1,1140,1275,0,0
-77,-251,0,0,0,0,0,0,0,0,0,-1,1147,1275,0,0
-70,-251,0,0,0,0,0,0,0,0,0,-1,1154,1275,0,0
-63,-251,0,0,0,0,0,0,0,0,0,-1,1161,1275,0,0
-56,-251,0,0,0,0,0,0,0,0,0,-1,1168,1275,0,0
-49,-251,0,0,0,0,0,0,0,0,0,-1,1175,1275,0,0
-42,-251,0,0,0,0,0,0,0,0,0,-1,1182,1275,0,0
-35,-251,0,0,0,0,0,0,0,0,0,-1,1189,1275,0,0
-28,-251,0,0,0,0,0,0,0,0,0,-1,1196,1275,0,0
-21,-251,0,0,0,0,0,0,0,0,0,-1,1203,1275,0,0
-14,-251,0,0,0,0,0,0,0,0,0,-1,1210,1275,0,0
-7,-251,0,0,0,0,0,0,0,0,0,-1,1217,1275,0,0
0,-251,0,0,0,0,0,0,0,0,0,-1,1224,1275,0,0
7,-251,0,0,0,0,0,0,0,0,0,-1,1231,1275,0,0
14,-251,0,0,0,0,0,0,0,0,0,-1,1238,1275,0,0
21,-251,0,0,0,0,0,0,0,0,0,-1,1245,1275,0,0
28,-251,0,0,0,0,0,0,0,0,0,-1,1252,1275,0,0
35,-251,0,0,0,0,0,0,0,0,0,-1,1259,1275,0,0
42,-251,0,0,0,0,0,0,0,0,0,-1,1266,1275,0,0
49,-251,0,0,0,0,0,0,0,0,0,-1,1273,1275,0,0
56,-251,0,0,0,0,0,0,0,0,0,-1,1280,1275,0,0
63,-251,0,0,0,0,0,0,0,0,0,-1,1287,1275,0,0
70,-251,0,0,0,0,0,0,0,0,0,-1,1294,1275,0,0
77,-251,0,0,0,0,0,0,0,0,0,-1,1301,1275,0,0
84,-251,0,0,0,0,0,0,0,0,0,-1,1308,1275,0,0
91,-251,0,0,0,0,0,0,0,0,0,-1,1315,1275,0,0
98,-251,0,0,0,0,0,0,0,0,0,-1,1322,1275,0,0
105,-251,0,0,0,0,0,0,0,0,0,-1,1329,1275,0,0
112,-251,0,0,0,0,0,0,0,0,0,-1,1336,1275,0,0
119,-251,0,0,0,0,0,0,0,0,0,-1,1343,1275,0,0
126,-251,0,0,0,0,0,0,0,0,0,-1,1350,1275,0,0
133,-251,0,0,0,0,0,0,0,0,0,-1,1357,1275,0,0
140,-251,0,0,0,0,0,0,0,0,0,-1,1364,1275,0,0
147,-251,0,0,0,0,0,0,0,0,0,-1,1371,1275,0,0
154,-251,0,0,0,0,0,0,0,0,0,-1,1378,1275,0,0
161,-251,0,0,0,0,0,0,0,0,0,-1,1385,1275,0,0
168,-251,0,0,0,0,0,0,0,0,0,-1,1392,1275,0,0
175,-251,0,0,0,0,0,0,0,0,0,-1,1399,1275,0,0
182,-251,0,0,0,0,0,0,0,0,0,-1,1406,1275,0,0
189,-251,0,0,0,0,0,0,0,0,0,-1,1413,1275,0,0
196,-251,0,0,0,0,0,0,0,0,0,-1,1420,1275,0,0
203,-251,0,0,0,0,0,0,0,0,0,-1,1427,1275,0,0
210,-251,0,0,0,0,0,0,0,0,0,-1,1434,1275,0,0
217,-251,0,0,0,0,0,0,0,0,0,-1,1441,1275,0,0
224,-251,0,0,0,0,0,0,0,0,0,-1,1448,1275,0,0
231,-251,0,0,0,0,0,0,0,0,0,-1,1455,1275,0,0
238,-251,0,0,0,0,0,0,0,0,0,-1,1462,1275,0,0
245,-251,0,0,0,0,0,0,0,0,0,-1,1469,1275,0,0
252,-251,0,0,0,0,0,0,0,0,0,-1,1476,1275,0,0
259,-251,0,0,0,0,0,0,0,0,0,-1,1483,1275,0,0
266,-251,0,0,0,0,0,0,0,0,0,-1,1490,1275,0,0
273,-251,0,0,0,0,0,0,0,0,0,-1,1497,1275,0,0
280,-251,0,0,0,0,0,0,0,0,0,-1,1504,1275,0,0
287,-251,0,0,0,0,0,0,0,0,0,-1,1511,1275,0,0
294,-251,0,0,0,0,0,0,0,0,0,-1,1518,1275,0,0
301,-251,0,0,0,0,0,0,0,0,0,-1,1525,1275,0,0
308,-251,0,0,0,0,0,0,0,0,0,-1,1532,1275,0,0
315,-251,0,0,0,0,0,0,0,0,0,-1,1539,1275,0,0
322,-251,0,0,0,0,0,0,0,0,0,-1,1546,1275,0,0
329,-251,0,0,0,0,0,0,0,0,0,-1,1553,1275,0,0
336,-251,0,0,0,0,0,0,0,0,0,-1,1560,1275,0,0
343,-251,0,0,0,0,0,0,0,0,0,-1,1567,1275,0,0
350,-251,0,0,0,0,0,0,0,0,0,-1,1574,1275,0,0
357,-251,0,0,0,0,0,0,0,0,0,-1,1581,1275,0,0
364,-251,0,0,0,0,0,0,0,0,0,-1,1588,1275,0,0
371,-251,0,0,0,0,0,0,0,0,0,-1,1595,1275,0,0
378,-251,0,0,0,0,0,0,0,0,0,-1,1602,1275,0,0
385,-251,0,0,0,0,0,0,0,0,0,-1,1609,1275,0,0
392,-251,0,0,0,0,0,0,0,0,0,-1,1616,1275,0,0
399,-251,0,0,0,0,0,0,0,0,0,-1,1623,1275,0,0
406,-251,0,0,0,0,0,0,0,0,0,-1,1630,1275,0,0
413,-251,0,0,0,0,0,0,0,0,0,-1,1637,1275,0,0
420,-251,0,0,0,0,0,0,0,0,0,-1,1644,1275,0,0
427,-251,0,0,0,0,0,0,0,0,0,-1,1651,1275,0,0
434,-251,0,0,0,0,0,0,0,0,0,-1,1658,1275,0,0
441,-251,0,0,0,0,0,0,0,0,0,-1,1665,1275,0,0
448,-251,0,0,0,0,0,0,0,0,0,-1,1672,1275,0,0
455,-251,0,0,0,0,0,0,0,0,0,-1,1679,1275,0,0
462,-251,0,0,0,0,0,0,0,0,0,-1,1686,1275,0,0
469,-251,0,0,0,0,0,0,0,0,0,-1,1693,1275,0,0
476,-251,0,0,0,0,0,0,0,0,0,-1,1700,1275,0,0
483,-251,0,0,0,0,0,0,0,0,0,-1,1707,1275,0,0
490,-251,0,0,0,0,0,0,0,0,0,-1,1714,1275,0,0
497,-251,0,0,0,0,0,0,0,0,0,-1,1721,1275,0,0
504,-251,0,0,0,0,0,0,0,0,0,-1,1728,1275,0,0
511,-251,0,0,0,0,0,0,0,0,0,-1,1735,1275,0,0
518,-251,0,0,0,0,0,0,0,0,0,-1,1742,1275,0,0
525,-251,0,0,0,0,0,0,0,0,0,-1,1749,1275,0,0
532,-251,0,0,0,0,0,0,0,0,0,-1,1756,1275,0,0
539,-251,0,0,0,0,0,0,0,0,0,-1,1763,1275,0,0
546,-251,0,0,0,0,0,0,0,0,0,-1,1770,1275,0,0
553,-251,0,0,0,0,0,0,0,0,0,-1,1777,1275,0,0
560,-251,0,0,0,0,0,0,0,0,0,-1,1784,1275,0,0
567,-251,0,0,0,0,0,0,0,0,0,-1,1791,1275,0,0
574,-251,0,0,0,0,0,0,0,0,0,-1,1798,1275,0,0
581,-251,0,0,0,0,0,0,0,0,0,-1,1805,1275,0,0
588,-251,0,0,0,0,0,0,0,0,0,-1,1812,1275,0,0
595,-251,0,0,0,0,0,0,0,0,0,-1,1819,1275,0,0
602,-251,0,0,0,0,0,0,0,0,0,-1,1826,1275,0,0
609,-251,18.7264,2.54407,0.00582825,0.00601417,0.00065573,0.0065835,0.00525892,0.85581,0.00402087,0.0317731,1833,1275,18.7264,-2.5441
616,-251,18.699,2.57324,0.000518687,0.0056603,-0.00159973,0.00611739,6.15909e-05,-1.29248,0.00405789,0.0274543,1840,1275,18.699,-2.5733
623,-251,18.7257,2.6405,-0.00447349,0.00529512,-0.00326774,0.00628742,-0.00546579,-1.27598,0.00679125,0.0250507,1847,1275,18.7257,-2.64049
630,-251,18.7916,2.67993,-0.008345,0.00467966,-0.00383496,0.00572493,-0.00939027,-1.3047,0.00881188,0.0394742,1854,1275,18.7916,-2.67992
637,-251,18.1204,2.04102,0,0,0,0,0,0,0,-1,1861,1275,18.1204,-2.04102
644,-251,17.9033,2.00122,-0.0109934,0.00319471,-0.00273701,0.00370439,-0.0115031,-1.38669,0.00915682,0.047776,1868,1275,17.9033,-2.00124
651,-251,17.5732,1.8197,-0.0108188,0.00251974,-0.00197363,0.00280564,-0.0111047,-1.42694,0.00849423,0.0489099,1875,1275,17.5733,-1.8197
658,-251,17.5369,1.50024,-0.0103353,0.00183557,-0.00131395,0.0019758,-0.0104756,-1.46447,0.00772699,0.0488771,1882,1275,17.5368,-1.50019
665,-251,17.1483,1.32813,0,0,0,0,0,0,0,-1,1889,1275,17.1483,-1.32816
672,-251,15.9752,4.83838,0,0,0,0,0,0,0,-1,1896,1275,15.9752,-4.83838
679,-251,15.7234,4.90247,-0.00818528,0.000284939,0.000159011,0.000287923,-0.00818826,1.55203,0.0055573,0.0436277,1903,1275,15.7234,-4.90245
686,-251,15.6152,4.9093,-0.00705842,-0.000100921,0.000825322,-4.35906e-06,-0.00715498,1.45433,0.00476853,0.0217537,1910,1275,15.6153,-4.90929
693,-251,15.6411,4.76624,-0.00502056,-0.000271041,0.00126371,4.42653e-05,-0.00533586,1.32628,0.00357209,0.00942942,1917,1275,15.6411,-4.76619
700,-251,15.6317,4.59961,-0.00262769,-0.000880523,0.00180152,0.000248044,-0.00375626,1.01115,0.00259082,0.0084873,1924,1275,15.6317,-4.59963
707,-251,15.6453,4.4458,-0.00087658,-0.00115094,0.00124013,0.000233934,-0.00226146,0.730313,0.00159136,0.0105761,1931,1275,15.6453,-4.44576
714,-251,15.6575,4.31042,0.00124056,-0.00144405,0.000487228,0.00132625,-0.00152974,0.174095,0.0016503,0.0117397,1938,1275,15.6575,-4.31043
721,-251,15.6101,4.16272,0.00402701,-0.00145701,-4.96845e-07,0.00402701,-0.00145701,-9.05987e-05,0.00328004,0.0129398,1945,1275,15.61,-4.16273
728,-251,15.6229,4.00354,0.00737834,-0.00170794,-0.000599349,0.00741771,-0.00174731,-0.0655832,0.00561887,0.0142743,1952,1275,15.6229,-4.00358
735,-251,15.6606,3.85779,0.01188,-0.00246932,-0.000567479,0.0119024,-0.00249173,-0.0394653,0.00888278,0.0144027,1959,1275,15.6607,-3.8578
742,-251,15.6654,3.7085,0.0176762,-0.00383775,0.000102391,0.0176767,-0.00383824,0.00475911,0.0132505,0.0141104,1966,1275,15.6654,-3.70854
749,-251,15.6196,3.55701,0.0247176,-0.00540983,0.0008568,0.0247419,-0.00543418,0.0284086,0.0185729,0.0222912,1973,1275,15.6196,-3.55695
756,-251,15.5693,3.37805,0.0338129,-0.00766836,0.00237916,0.0339489,-0.00780437,0.0571055,0.0256332,0.0395971,1980,1275,15.5693,-3.37806
763,-251,15.5967,3.13708,0.0453635,-0.0107538,0.00512128,0.0458271,-0.0112174,0.0902667,0.0348967,0.0461509,1987,1275,15.5967,-3.13706
770,-251,15.464,2.55725,0,0,0,0,0,0,0,-1,1994,1275,15.464,-2.5572
777,-251,15.4838,2.42249,0,0,0,0,0,0,0,-1,2001,1275,15.4837,-2.42243
784,-251,15.1755,1.92139,0,0,0,0,0,0,0,-1,2008,1275,15.1755,-1.92143
791,-251,0,0,0,0,0,0,0,0,0,-1,2015,1275,0,0
798,-251,0,0,0,0,0,0,0,0,0,-1,2022,1275,0,0
805,-251,0,0,0,0,0,0,0,0,0,-1,2029,1275,0,0
812,-251,0,0,0,0,0,0,0,0,0,-1,2036,1275,0,0
-700,-258,0,0,0,0,0,0,0,0,0,-1,524,1282,0,0
-693,-258,0,0,0,0,0,0,0,0,0,-1,531,1282,0,0
-686,-258,0,0,0,0,0,0,0,0,0,-1,538,1282,0,0
-679,-258,0,0,0,0,0,0,0,0,0,-1,545,1282,0,0
-672,-258,0,0,0,0,0,0,0,0,0,-1,552,1282,0,0
-665,-258,-6.36749,-2.11035,-0.0107314,0.0266236,0.00773123,0.0281605,-0.0122682,1.37457,0.0239351,0.0448094,559,1282,-6.36746,2.11032
-658,-258,-6.54114,-1.3783,-0.0124503,0.0243959,0.00462633,0.0249679,-0.0130223,1.44778,0.0222922,0.0479734,566,1282,-6.54111,1.37828
-651,-258,-6.74835,-0.791992,0,0,0,0,0,0,0,-1,573,1282,-6.74836,0.792011
-644,-258,-6.89984,-0.196289,0,0,0,0,0,0,0,-1,580,1282,-6.89987,0.196298
-637,-258,-7.10199,0.401978,0,0,0,0,0,0,0,-1,587,1282,-7.10199,-0.401945
-630,-258,-7.38306,0.911621,0,0,0,0,0,0,0,-1,594,1282,-7.38304,-0.91165
-623,-258,-8.05884,1.13574,-0.0124664,0.00831332,-0.000540003,0.00832734,-0.0124805,-1.54483,0.0120929,0.0434215,601,1282,-8.05881,-1.13572
-616,-258,-8.16846,1.30249,-0.0109338,0.00593864,-0.00031507,0.00594452,-0.0109397,-1.55213,0.00988929,0.0289618,608,1282,-8.16846,-1.30247
-609,-258,-8.20496,1.45105,-0.00900468,0.00416036,-0.00034326,0.0041693,-0.00901363,-1.54475,0.00778058,0.0161894,615,1282,-8.20497,-1.45104
-602,-258,-8.19257,1.61243,-0.00686589,0.00202211,-0.000255716,0.00202946,-0.00687324,-1.54206,0.00538761,0.0131152,622,1282,-8.19259,-1.61238
-595,-258,-8.20319,1.77551,-0.00461792,0.000669293,-0.000285893,0.000684707,-0.00463333,-1.51693,0.0033406,0.0115279,629,1282,-8.20317,-1.77552
-588,-258,-8.2215,1.96338,-0.0028306,-0.000295265,-7.37834e-06,-0.000295243,-0.00283062,-1.56789,0.00179677,0.0133201,636,1282,-8.22149,-1.96332
-581,-258,-8.22992,2.14465,-0.000375064,-0.00111202,0.000320521,-0.000255167,-0.00123192,0.357953,0.000750819,0.014296,643,1282,-8.22992,-2.14469
-574,-258,-8.2193,2.32336,0.00141033,-0.00259281,0.00017723,0.00141816,-0.00260064,0.0441576,0.0023535,0.0145805,650,1282,-8.21927,-2.3234
-567,-258,-8.23383,2.51892,0.0023689,-0.00380465,-0.000808095,0.00247293,-0.00390868,-0.128023,0.00371537,0.0140434,657,1282,-8.23385,-2.51895
-560,-258,-8.21869,2.71533,0.00327406,-0.00517974,-0.00213333,0.0037819,-0.00568758,-0.233702,0.00550399,0.0201066,664,1282,-8.21867,-2.71534
-553,-258,-8.17224,2.84741,0.00306089,-0.00524303,-0.00342806,0.0042932,-0.00647534,-0.345093,0.00625963,0.0283601,671,1282,-8.17221,-2.84745
-546,-258,-8.27991,3.11804,0.0015634,-0.00543555,-0.00415786,0.00349846,-0.0073706,-0.435584,0.00640662,0.045209,678,1282,-8.2799,-3.11809
-539,-258,-8.38379,3.47693,0,0,0,0,0,0,0,-1,685,1282,-8.38376,-3.47694
-532,-258,-11.2988,2.37976,0,0,0,0,0,0,0,-1,692,1282,-11.2988,-2.37978
-525,-258,-11.7618,2.09082,0,0,0,0,0,0,0,-1,699,1282,-11.7618,-2.0908
-518,-258,-11.9377,1.63342,-0.00892885,-0.00550901,-0.00701221,-1.24238e-06,-0.0144366,-0.904989,0.00962399,0.0478949,706,1282,-11.9377,-1.63345
-511,-258,-11.6176,0.914185,-0.0125965,-0.00489217,-0.00723527,-0.00054748,-0.0169412,-1.03002,0.0111161,0.0456845,713,1282,-11.6176,-0.914163
-504,-258,-10.9432,-0.206299,-0.0168206,-0.00385741,-0.00690049,-0.000871811,-0.0198062,-1.16245,0.0129234,0.0445676,720,1282,-10.9433,0.206316
-497,-258,-11.4291,0.262939,-0.0215966,-0.0020218,-0.00547348,-0.000595275,-0.0230231,-1.31584,0.0151542,0.0457398,727,1282,-11.4291,-0.262985
-490,-258,-11.8071,0.769897,-0.0277373,0.00184165,-0.00181445,0.00195254,-0.0278482,-1.50976,0.0192493,0.0433383,734,1282,-11.807,-0.769915
-483,-258,0,0,0,0,0,0,0,0,0,-1,741,1282,0,0
-476,-258,0,0,0,0,0,0,0,0,0,-1,748,1282,0,0
-469,-258,0,0,0,0,0,0,0,0,0,-1,755,1282,0,0
-462,-258,0,0,0,0,0,0,0,0,0,-1,762,1282,0,0
-455,-258,0,0,0,0,0,0,0,0,0,-1,769,1282,0,0
-448,-258,0,0,0,0,0,0,0,0,0,-1,776,1282,0,0
-441,-258,0,0,0,0,0,0,0,0,0,-1,783,1282,0,0
-434,-258,0,0,0,0,0,0,0,0,0,-1,790,1282,0,0
-427,-258,0,0,0,0,0,0,0,0,0,-1,797,1282,0,0
-420,-258,0,0,0,0,0,0,0,0,0,-1,804,1282,0,0
-413,-258,0,0,0,0,0,0,0,0,0,-1,811,1282,0,0
-406,-258,0,0,0,0,0,0,0,0,0,-1,818,1282,0,0
-399,-258,0,0,0,0,0,0,0,0,0,-1,825,1282,0,0
-392,-258,0,0,0,0,0,0,0,0,0,-1,832,1282,0,0
-385,-258,0,0,0,0,0,0,0,0,0,-1,839,1282,0,0
-378,-258,0,0,0,0,0,0,0,0,0,-1,846,1282,0,0
-371,-258,0,0,0,0,0,0,0,0,0,-1,853,1282,0,0
-364,-258,0,0,0,0,0,0,0,0,0,-1,860,1282,0,0
-357,-258,0,0,0,0,0,0,0,0,0,-1,867,1282,0,0
-350,-258,0,0,0,0,0,0,0,0,0,-1,874,1282,0,0
-343,-258,0,0,0,0,0,0,0,0,0,-1,881,1282,0,0
-336,-258,0,0,0,0,0,0,0,0,0,-1,888,1282,0,0
-329,-258,0,0,0,0,0,0,0,0,0,-1,895,1282,0,0
-322,-258,0,0,0,0,0,0,0,0,0,-1,902,1282,0,0
-315,-258,0,0,0,0,0,0,0,0,0,-1,909,1282,0,0
-308,-258,0,0,0,0,0,0,0,0,0,-1,916,1282,0,0
-301,-258,0,0,0,0,0,0,0,0,0,-1,923,1282,0,0
-294,-258,0,0,0,0,0,0,0,0,0,-1,930,1282,0,0
-287,-258,0,0,0,0,0,0,0,0,0,-1,937,1282,0,0
-280,-258,0,0,0,0,0,0,0,0,0,-1,944,1282,0,0
-273,-258,0,0,0,0,0,0,0,0,0,-1,951,1282,0,0
-266,-258,0,0,0,0,0,0,0,0,0,-1,958,1282,0,0
-259,-258,0,0,0,0,0,0,0,0,0,-1,965,1282,0,0
-252,-258,0,0,0,0,0,0,0,0,0,-1,972,1282,0,0
-245,-258,0,0,0,0,0,0,0,0,0,-1,979,1282,0,0
-238,-258,0,0,0,0,0,0,0,0,0,-1,986,1282,0,0
-231,-258,0,0,0,0,0,0,0,0,0,-1,993,1282,0,0
-224,-258,0,0,0,0,0,0,0,0,0,-1,1000,1282,0,0
-217,-258,0,0,0,0,0,0,0,0,0,-1,1007,1282,0,0
-210,-258,0,0,0,0,0,0,0,0,0,-1,1014,1282,0,0
-203,-258,0,0,0,0,0,0,0,0,0,-1,1021,1282,0,0
-196,-258,0,0,0,0,0,0,0,0,0,-1,1028,1282,0,0
-189,-258,0,0,0,0,0,0,0,0,0,-1,1035,1282,0,0
-182,-258,0,0,0,0,0,0,0,0,0,-1,1042,1282,0,0
-175,-258,0,0,0,0,0,0,0,0,0,-1,1049,1282,0,0
-168,-258,0,0,0,0,0,0,0,0,0,-1,1056,1282,0,0
-161,-258,0,0,0,0,0,0,0,0,0,-1,1063,1282,0,0
-154,-258,0,0,0,0,0,0,0,0,0,-1,1070,1282,0,0
-147,-258,0,0,0,0,0,0,0,0,0,-1,1077,1282,0,0
-140,-258,0,0,0,0,0,0,0,0,0,-1,1084,1282,0,0
-133,-258,0,0,0,0,0,0,0,0,0,-1,1091,1282,0,0
-126,-258,0,0,0,0,0,0,0,0,0,-1,1098,1282,0,0
-119,-258,0,0,0,0,0,0,0,0,0,-1,1105,1282,0,0
-112,-258,0,0,0,0,0,0,0,0,0,-1,1112,1282,0,0
-105,-258,0,0,0,0,0,0,0,0,0,-1,1119,1282,0,0
-98,-258,0,0,0,0,0,0,0,0,0,-1,1126,1282,0,0
-91,-258,0,0,0,0,0,0,0,0,0,-1,1133,1282,0,0
-84,-258,0,0,0,0,0,0,0,0,0,-1,1140,1282,0,0
-77,-258,0,0,0,0,0,0,0,0,0,-1,1147,1282,0,0
-70,-258,0,0,0,0,0,0,0,0,0,-1,1154,1282,0,0
-63,-258,0,0,0,0,0,0,0,0,0,-1,1161,1282,0,0
-56,-258,0,0,0,0,0,0,0,0,0,-1,1168,1282,0,0
-49,-258,0,0,0,0,0,0,0,0,0,-1,1175,1282,0,0
-42,-258,0,0,0,0,0,0,0,0,0,-1,1182,1282,0,0
-35,-258,0,0,0,0,0,0,0,0,0,-1,1189,1282,0,0
-28,-258,0,0,0,0,0,0,0,0,0,-1,1196,1282,0,0
-21,-258,0,0,0,0,0,0,0,0,0,-1,1203,1282,0,0
-14,-258,0,0,0,0,0,0,0,0,0,-1,1210,1282,0,0
-7,-258,0,0,0,0,0,0,0,0,0,-1,1217,1282,0,0
0,-258,0,0,0,0,0,0,0,0,0,-1,1224,1282,0,0
7,-258,0,0,0,0,0,0,0,0,0,-1,1231,1282,0,0
14,-258,0,0,0,0,0,0,0,0,0,-1,1238,1282,0,0
21,-258,0,0,0,0,0,0,0,0,0,-1,1245,1282,0,0
28,-258,0,0,0,0,0,0,0,0,0,-1,1252,1282,0,0
35,-258,0,0,0,0,0,0,0,0,0,-1,1259,1282,0,0
42,-258,0,0,0,0,0,0,0,0,0,-1,1266,1282,0,0
49,-258,0,0,0,0,0,0,0,0,0,-1,1273,1282,0,0
56,-258,0,0,0,0,0,0,0,0,0,-1,1280,1282,0,0
63,-258,0,0,0,0,0,0,0,0,0,-1,1287,1282,0,0
70,-258,0,0,0,0,0,0,0,0,0,-1,1294,1282,0,0
77,-258,0,0,0,0,0,0,0,0,0,-1,1301,1282,0,0
84,-258,0,0,0,0,0,0,0,0,0,-1,1308,1282,0,0
91,-258,0,0,0,0,0,0,0,0,0,-1,1315,1282,0,0
98,-258,0,0,0,0,0,0,0,0,0,-1,1322,1282,0,0
105,-258,0,0,0,0,0,0,0,0,0,-1,1329,1282,0,0
112,-258,0,0,0,0,0,0,0,0,0,-1,1336,1282,0,0
119,-258,0,0,0,0,0,0,0,0,0,-1,1343,1282,0,0
126,-258,0,0,0,0,0,0,0,0,0,-1,1350,1282,0,0
133,-258,0,0,0,0,0,0,0,0,0,-1,1357,1282,0,0
140,-258,0,0,0,0,0,0,0,0,0,-1,1364,1282,0,0
147,-258,0,0,0,0,0,0,0,0,0,-1,1371,1282,0,0
154,-258,0,0,0,0,0,0,0,0,0,-1,1378,1282,0,0
161,-258,0,0,0,0,0,0,0,0,0,-1,1385,1282,0,0
168,-258,0,0,0,0,0,0,0,0,0,-1,1392,1282,0,0
175,-258,0,0,0,0,0,0,0,0,0,-1,1399,1282,0,0
182,-258,0,0,0,0,0,0,0,0,0,-1,1406,1282,0,0
189,-258,0,0,0,0,0,0,0,0,0,-1,1413,1282,0,0
196,-258,0,0,0,0,0,0,0,0,0,-1,1420,1282,0,0
203,-258,0,0,0,0,0,0,0,0,0,-1,1427,1282,0,0
210,-258,0,0,0,0,0,0,0,0,0,-1,1434,1282,0,0
217,-258,0,0,0,0,0,0,0,0,0,-1,1441,1282,0,0
224,-258,0,0,0,0,0,0,0,0,0,-1,1448,1282,0,0
231,-258,0,0,0,0,0,0,0,0,0,-1,1455,1282,0,0
238,-258,0,0,0,0,0,0,0,0,0,-1,1462,1282,0,0
245,-258,0,0,0,0,0,0,0,0,0,-1,1469,1282,0,0
252,-258,0,0,0,0,0,0,0,0,0,-1,1476,1282,0,0
259,-258,0,0,0,0,0,0,0,0,0,-1,1483,1282,0,0
266,-258,0,0,0,0,0,0,0,0,0,-1,1490,1282,0,0
273,-258,0,0,0,0,0,0,0,0,0,-1,1497,1282,0,0
280,-258,0,0,0,0,0,0,0,0,0,-1,1504,1282,0,0
287,-258,0,0,0,0,0,0,0,0,0,-1,1511,1282,0,0
294,-258,0,0,0,0,0,0,0,0,0,-1,1518,1282,0,0
301,-258,0,0,0,0,0,0,0,0,0,-1,1525,1282,0,0
308,-258,0,0,0,0,0,0,0,0,0,-1,1532,1282,0,0
315,-258,0,0,0,0,0,0,0,0,0,-1,1539,1282,0,0
322,-258,0,0,0,0,0,0,0,0,0,-1,1546,1282,0,0
329,-258,0,0,0,0,0,0,0,0,0,-1,1553,1282,0,0
336,-258,0,0,0,0,0,0,0,0,0,-1,1560,1282,0,0
343,-258,0,0,0,0,0,0,0,0,0,-1,1567,1282,0,0
350,-258,0,0,0,0,0,0,0,0,0,-1,1574,1282,0,0
357,-258,0,0,0,0,0,0,0,0,0,-1,1581,1282,0,0
364,-258,0,0,0,0,0,0,0,0,0,-1,1588,1282,0,0
371,-258,0,0,0,0,0,0,0,0,0,-1,1595,1282,0,0
378,-258,0,0,0,0,0,0,0,0,0,-1,1602,1282,0,0
385,-258,0,0,0,0,0,0,0,0,0,-1,1609,1282,0,0
392,-258,0,0,0,0,0,0,0,0,0,-1,1616,1282,0,0
399,-258,0,0,0,0,0,0,0,0,0,-1,1623,1282,0,0
406,-258,0,0,0,0,0,0,0,0,0,-1,1630,1282,0,0
413,-258,0,0,0,0,0,0,0,0,0,-1,1637,1282,0,0
420,-258,0,0,0,0,0,0,0,0,0,-1,1644,1282,0,0
427,-258,0,0,0,0,0,0,0,0,0,-1,1651,1282,0,0
434,-258,0,0,0,0,0,0,0,0,0,-1,1658,1282,0,0
441,-258,0,0,0,0,0,0,0,0,0,-1,1665,1282,0,0
448,-258,0,0,0,0,0,0,0,0,0,-1,1672,1282,0,0
455,-258,0,0,0,0,0,0,0,0,0,-1,1679,1282,0,0
462,-258,0,0,0,0,0,0,0,0,0,-1,1686,1282,0,0
469,-258,0,0,0,0,0,0,0,0,0,-1,1693,1282,0,0
476,-258,0,0,0,0,0,0,0,0,0,-1,1700,1282,0,0
483,-258,0,0,0,0,0,0,0,0,0,-1,1707,1282,0,0
490,-258,0,0,0,0,0,0,0,0,0,-1,1714,1282,0,0
497,-258,0,0,0,0,0,0,0,0,0,-1,1721,1282,0,0
504,-258,0,0,0,0,0,0,0,0,0,-1,1728,1282,0,0
511,-258,0,0,0,0,0,0,0,0,0,-1,1735,1282,0,0
518,-258,0,0,0,0,0,0,0,0,0,-1,1742,1282,0,0
525,-258,0,0,0,0,0,0,0,0,0,-1,1749,1282,0,0
532,-258,0,0,0,0,0,0,0,0,0,-1,1756,1282,0,0
539,-258,0,0,0,0,0,0,0,0,0,-1,1763,1282,0,0
546,-258,0,0,0,0,0,0,0,0,0,-1,1770,1282,0,0
553,-258,0,0,0,0,0,0,0,0,0,-1,1777,1282,0,0
560,-258,0,0,0,0,0,0,0,0,0,-1,1784,1282,0,0
567,-258,0,0,0,0,0,0,0,0,0,-1,1791,1282,0,0
574,-258,0,0,0,0,0,0,0,0,0,-1,1798,1282,0,0
581,-258,0,0,0,0,0,0,0,0,0,-1,1805,1282,0,0
588,-258,0,0,0,0,0,0,0,0,0,-1,1812,1282,0,0
595,-258,0,0,0,0,0,0,0,0,0,-1,1819,1282,0,0
602,-258,0,0,0,0,0,0,0,0,0,-1,1826,1282,0,0
609,-258,18.7672,2.60889,0.00537879,0.00627505,-0.00121778,0.00712454,0.0045293,-0.961705,0.00416357,0.026191,1833,1282,18.7672,-2.60886
616,-258,18.6897,2.61377,2.0352e-05,0.00591589,-0.00245573,0.00680478,-0.000868537,-1.2235,0.00485202,0.0256153,1840,1282,18.6897,-2.61377
623,-258,18.6676,2.61365,-0.00516151,0.00530961,-0.00336401,0.0062972,-0.0061491,-1.28524,0.00718605,0.0361995,1847,1282,18.6675,-2.61364
630,-258,18.7671,2.51807,-0.0089807,0.00446275,-0.00345865,0.00530038,-0.00981833,-1.33319,0.00885775,0.0454687,1854,1282,18.767,-2.51805
637,-258,18.8865,2.28882,-0.0109404,0.00357868,-0.00295109,0.00415558,-0.0115173,-1.37774,0.00937556,0.0445474,1861,1282,18.8864,-2.28885
644,-258,16.8839,1.38293,-0.011597,0.0028593,-0.00228842,0.0032129,-0.0119506,-1.41749,0.00922646,0.0470628,1868,1282,16.8839,-1.38299
651,-258,17.29,1.69897,0,0,0,0,0,0,0,-1,1875,1282,17.2901,-1.69898
658,-258,17.0981,1.26355,0,0,0,0,0,0,0,-1,1882,1282,17.0982,-1.26359
665,-258,15.2469,1.76392,0,0,0,0,0,0,0,-1,1889,1282,15.2469,-1.76393
672,-258,15.8856,4.80774,0,0,0,0,0,0,0,-1,1896,1282,15.8856,-4.80771
679,-258,15.5824,4.94788,-0.00908126,2.45615e-05,0.000303132,3.46419e-05,-0.00909134,1.53756,0.00607247,0.0381166,1903,1282,15.5823,-4.94786
686,-258,15.4716,4.93518,-0.00777155,-0.000333092,0.00103751,-0.000191091,-0.00791355,1.43477,0.00521317,0.0215342,1910,1282,15.4715,-4.93516
693,-258,15.5107,4.75903,-0.0053948,-0.000384762,0.00149939,2.96845e-05,-0.00580924,1.30112,0.00388276,0.0101667,1917,1282,15.5108,-4.75908
700,-258,15.4908,4.58508,-0.00273797,-0.000850554,0.00205478,0.000466869,-0.00405539,1.00067,0.00287189,0.00928595,1924,1282,15.4909,-4.58504
707,-258,15.5049,4.44482,-0.000586488,-0.0010891,0.00142537,0.000609559,-0.00228515,0.69814,0.00176212,0.0111375,1931,1282,15.5049,-4.44478
714,-258,15.5081,4.3147,0.00206259,-0.00139139,0.00059563,0.00216242,-0.00149122,0.16606,0.00212126,0.0105867,1938,1282,15.508,-4.31475
721,-258,15.4856,4.15869,0.0054243,-0.00152785,6.20034e-05,0.00542486,-0.0015284,0.00891765,0.00421934,0.0115867,1945,1282,15.4856,-4.1587
728,-258,15.4779,4.00598,0.00946547,-0.00191315,-0.000554447,0.00949242,-0.0019401,-0.0485737,0.00706435,0.0112506,1952,1282,15.4779,-4.00594
735,-258,15.4933,3.86768,0.0147315,-0.00290655,-0.000592362,0.0147513,-0.00292642,-0.033534,0.0109409,0.0136873,1959,1282,15.4933,-3.8677
742,-258,15.4976,3.7229,0.0214914,-0.00459425,-6.70421e-05,0.0214915,-0.00459442,-0.00257006,0.0160795,0.0154033,1966,1282,15.4975,-3.72291
749,-258,15.4513,3.59973,0.0298829,-0.00665035,0.000493147,0.0298896,-0.006657,0.0134953,0.0224764,0.0277726,1973,1282,15.4513,-3.5997
756,-258,15.6808,3.83801,0.0407286,-0.00950999,0.00176146,0.0407903,-0.00957167,0.0350046,0.0308825,0.0409112,1980,1282,15.6808,-3.838
763,-258,15.9946,3.50037,0.05438,-0.0134419,0.00424533,0.0546447,-0.0137066,0.0622713,0.0417554,0.0463706,1987,1282,15.9946,-3.50037
770,-258,15.9969,2.81946,0,0,0,0,0,0,0,-1,1994,1282,15.9969,-2.81941
777,-258,12.5056,1.97327,0,0,0,0,0,0,0,-1,2001,1282,12.5056,-1.97328
784,-258,10.967,1.77136,0,0,0,0,0,0,0,-1,2008,1282,10.9671,-1.77133
791,-258,0,0,0,0,0,0,0,0,0,-1,2015,1282,0,0
798,-258,0,0,0,0,0,0,0,0,0,-1,2022,1282,0,0
805,-258,0,0,0,0,0,0,0,0,0,-1,2029,1282,0,0
812,-258,0,0,0,0,0,0,0,0,0,-1,2036,1282,0,0
-700,-265,0,0,0,0,0,0,0,0,0,-1,524,1289,0,0
-693,-265,0,0,0,0,0,0,0,0,0,-1,531,1289,0,0
-686,-265,0,0,0,0,0,0,0,0,0,-1,538,1289,0,0
-679,-265,0,0,0,0,0,0,0,0,0,-1,545,1289,0,0
-672,-265,0,0,0,0,0,0,0,0,0,-1,552,1289,0,0
-665,-265,-6.04938,-2.11755,-0.0105869,0.0302927,0.0132548,0.0342142,-0.0145085,1.28314,0.0288868,0.0443733,559,1289,-6.04936,2.11755
-658,-265,-6.61127,-1.80005,-0.0127847,0.0273085,0.00739193,0.0286279,-0.0141041,1.39416,0.0251419,0.0461019,566,1289,-6.61128,1.8001
-651,-265,-6.00647,-0.4104,0,0,0,0,0,0,0,-1,573,1289,-6.00645,0.410425
-644,-265,-6.43182,-0.140747,-0.0153559,0.0194685,0.00100094,0.0194973,-0.0153846,1.54209,0.0201857,0.0476651,580,1289,-6.43184,0.140733
-637,-265,-6.74402,0.239746,-0.0154988,0.0155677,-0.000436357,0.0155738,-0.0155049,-1.55675,0.0179433,0.0460077,587,1289,-6.74401,-0.239718
-630,-265,-7.55603,0.727417,-0.0150052,0.0120025,-0.00112989,0.0120497,-0.0150524,-1.52906,0.0156793,0.0470425,594,1289,-7.55605,-0.727431
-623,-265,-7.85388,1.18445,-0.0139471,0.00889529,-0.00130607,0.00896973,-0.0140215,-1.51387,0.0133804,0.0425501,601,1289,-7.85391,-1.18446
-616,-265,-7.85876,1.22559,-0.012376,0.00632697,-0.00102906,0.00638342,-0.0124324,-1.516,0.0110489,0.0342613,608,1289,-7.85876,-1.22553
-609,-265,-8.00836,1.44006,-0.0103601,0.0044093,-0.000949365,0.00447008,-0.0104209,-1.50687,0.00882318,0.0163475,615,1289,-8.00838,-1.44005
-602,-265,-8.02307,1.60657,-0.00811365,0.00217806,-0.000844596,0.00224691,-0.0081825,-1.48946,0.00633815,0.0132613,622,1289,-8.02306,-1.60657
-595,-265,-8.01227,1.79736,-0.00574075,0.000901329,-0.000839216,0.00100572,-0.00584515,-1.44704,0.00427165,0.0113787,629,1289,-8.01227,-1.79742
-588,-265,-8.01904,1.97241,-0.0041244,-3.15223e-06,-0.000288107,1.68914e-05,-0.00414444,-1.50134,0.00276861,0.0104546,636,1289,-8.01906,-1.97237
-581,-265,-8.05164,2.15051,-0.00172746,-0.000761546,0.000444643,-0.000588032,-0.00190098,1.19874,0.00112381,0.0123751,643,1289,-8.05161,-2.15047
-574,-265,-8.07684,2.3606,0.000391142,-0.00200052,0.000421775,0.000463343,-0.00207272,0.169541,0.00155938,0.0146116,650,1289,-8.07687,-2.36064
-567,-265,-8.09979,2.56555,0.00139523,-0.00286545,-0.000635343,0.00148796,-0.00295817,-0.144919,0.00261333,0.0194816,657,1289,-8.09978,-2.5655
-560,-265,-8.0929,2.74963,0.00223606,-0.00416085,-0.00195433,0.00278587,-0.00471066,-0.274243,0.00437542,0.0198482,664,1289,-8.0929,-2.74966
-553,-265,-8.02148,2.95337,0.00198135,-0.00429926,-0.00327027,0.00337494,-0.00569285,-0.402834,0.005292,0.0227457,671,1289,-8.02149,-2.95341
-546,-265,-8.00739,3.16406,0.000393033,-0.00456645,-0.0040374,0.0026514,-0.00682482,-0.510003,0.0056452,0.0330907,678,1289,-8.00736,-3.16405
-539,-265,-8.08112,3.35071,-0.00242714,-0.00470194,-0.00483753,0.0014049,-0.00853398,-0.669935,0.00621082,0.0493561,685,1289,-8.08114,-3.35072
-532,-265,-8.07434,3.4624,0,0,0,0,0,0,0,-1,692,1289,-8.07437,-3.46237
-525,-265,-9.67224,-0.723022,0,0,0,0,0,0,0,-1,699,1289,-9.67227,0.723067
-518,-265,-11.6057,1.55347,0,0,0,0,0,0,0,-1,706,1289,-11.6057,-1.55345
-511,-265,-10.7456,-0.641113,0,0,0,0,0,0,0,-1,713,1289,-10.7456,0.641167
-504,-265,-10.8543,-0.276123,-0.0172035,-0.00486775,-0.00643091,-0.00212499,-0.0199463,-1.16766,0.0126488,0.0496495,720,1289,-10.8543,0.276149
-497,-265,-11.1697,0.251953,-0.0212118,-0.00407288,-0.00536429,-0.00253237,-0.0227523,-1.29114,0.0143985,0.0498208,727,1289,-11.1697,-0.251939
-490,-265,-11.6553,0.651611,-0.0260626,-0.0020734,-0.00280393,-0.00175003,-0.0263859,-1.45597,0.0170373,0.0460843,734,1289,-11.6553,-0.651587
-483,-265,0,0,0,0,0,0,0,0,0,-1,741,1289,0,0
-476,-265,0,0,0,0,0,0,0,0,0,-1,748,1289,0,0
-469,-265,0,0,0,0,0,0,0,0,0,-1,755,1289,0,0
-462,-265,0,0,0,0,0,0,0,0,0,-1,762,1289,0,0
-455,-265,0,0,0,0,0,0,0,0,0,-1,769,1289,0,0
-448,-265,0,0,0,0,0,0,0,0,0,-1,776,1289,0,0
-441,-265,0,0,0,0,0,0,0,0,0,-1,783,1289,0,0
-434,-265,0,0,0,0,0,0,0,0,0,-1,790,1289,0,0
-427,-265,0,0,0,0,0,0,0,0,0,-1,797,1289,0,0
-420,-265,0,0,0,0,0,0,0,0,0,-1,804,1289,0,0
-413,-265,0,0,0,0,0,0,0,0,0,-1,811,1289,0,0
-406,-265,0,0,0,0,0,0,0,0,0,-1,818,1289,0,0
-399,-265,0,0,0,0,0,0,0,0,0,-1,825,1289,0,0
-392,-265,0,0,0,0,0,0,0,0,0,-1,832,1289,0,0
-385,-265,0,0,0,0,0,0,0,0,0,-1,839,1289,0,0
-378,-265,0,0,0,0,0,0,0,0,0,-1,846,1289,0,0
-371,-265,0,0,0,0,0,0,0,0,0,-1,853,1289,0,0
-364,-265,0,0,0,0,0,0,0,0,0,-1,860,1289,0,0
-357,-265,0,0,0,0,0,0,0,0,0,-1,867,1289,0,0
-350,-265,0,0,0,0,0,0,0,0,0,-1,874,1289,0,0
-343,-265,0,0,0,0,0,0,0,0,0,-1,881,1289,0,0
-336,-265,0,0,0,0,0,0,0,0,0,-1,888,1289,0,0
-329,-265,0,0,0,0,0,0,0,0,0,-1,895,1289,0,0
-322,-265,0,0,0,0,0,0,0,0,0,-1,902,1289,0,0
-315,-265,0,0,0,0,0,0,0,0,0,-1,909,1289,0,0
-308,-265,0,0,0,0,0,0,0,0,0,-1,916,1289,0,0
-301,-265,0,0,0,0,0,0,0,0,0,-1,923,1289,0,0
-294,-265,0,0,0,0,0,0,0,0,0,-1,930,1289,0,0
-287,-265,0,0,0,0,0,0,0,0,0,-1,937,1289,0,0
-280,-265,0,0,0,0,0,0,0,0,0,-1,944,1289,0,0
-273,-265,0,0,0,0,0,0,0,0,0,-1,951,1289,0,0
-266,-265,0,0,0,0,0,0,0,0,0,-1,958,1289,0,0
-259,-265,0,0,0,0,0,0,0,0,0,-1,965,1289,0,0
-252,-265,0,0,0,0,0,0,0,0,0,-1,972,1289,0,0
-245,-265,0,0,0,0,0,0,0,0,0,-1,979,1289,0,0
-238,-265,0,0,0,0,0,0,0,0,0,-1,986,1289,0,0
-231,-265,0,0,0,0,0,0,0,0,0,-1,993,1289,0,0
-224,-265,0,0,0,0,0,0,0,0,0,-1,1000,1289,0,0
-217,-265,0,0,0,0,0,0,0,0,0,-1,1007,1289,0,0
-210,-265,0,0,0,0,0,0,0,0,0,-1,1014,1289,0,0
-203,-265,0,0,0,0,0,0,0,0,0,-1,1021,1289,0,0
-196,-265,0,0,0,0,0,0,0,0,0,-1,1028,1289,0,0
-189,-265,0,0,0,0,0,0,0,0,0,-1,1035,1289,0,0
-182,-265,0,0,0,0,0,0,0,0,0,-1,1042,1289,0,0
-175,-265,0,0,0,0,0,0,0,0,0,-1,1049,1289,0,0
-168,-265,0,0,0,0,0,0,0,0,0,-1,1056,1289,0,0
-161,-265,0,0,0,0,0,0,0,0,0,-1,1063,1289,0,0
-154,-265,0,0,0,0,0,0,0,0,0,-1,1070,1289,0,0
-147,-265,0,0,0,0,0,0,0,0,0,-1,1077,1289,0,0
-140,-265,0,0,0,0,0,0,0,0,0,-1,1084,1289,0,0
-133,-265,0,0,0,0,0,0,0,0,0,-1,1091,1289,0,0
-126,-265,0,0,0,0,0,0,0,0,0,-1,1098,1289,0,0
-119,-265,0,0,0,0,0,0,0,0,0,-1,1105,1289,0,0
-112,-265,0,0,0,0,0,0,0,0,0,-1,1112,1289,0,0
-105,-265,0,0,0,0,0,0,0,0,0,-1,1119,1289,0,0
-98,-265,0,0,0,0,0,0,0,0,0,-1,1126,1289,0,0
-91,-265,0,0,0,0,0,0,0,0,0,-1,1133,1289,0,0
-84,-265,0,0,0,0,0,0,0,0,0,-1,1140,1289,0,0
-77,-265,0,0,0,0,0,0,0,0,0,-1,1147,1289,0,0
-70,-265,0,0,0,0,0,0,0,0,0,-1,1154,1289,0,0
-63,-265,0,0,0,0,0,0,0,0,0,-1,1161,1289,0,0
-56,-265,0,0,0,0,0,0,0,0,0,-1,1168,1289,0,0
-49,-265,0,0,0,0,0,0,0,0,0,-1,1175,1289,0,0
-42,-265,0,0,0,0,0,0,0,0,0,-1,1182,1289,0,0
-35,-265,0,0,0,0,0,0,0,0,0,-1,1189,1289,0,0
-28,-265,0,0,0,0,0,0,0,0,0,-1,1196,1289,0,0
-21,-265,0,0,0,0,0,0,0,0,0,-1,1203,1289,0,0
-14,-265,0,0,0,0,0,0,0,0,0,-1,1210,1289,0,0
-7,-265,0,0,0,0,0,0,0,0,0,-1,1217,1289,0,0
0,-265,0,0,0,0,0,0,0,0,0,-1,1224,1289,0,0
7,-265,0,0,0,0,0,0,0,0,0,-1,1231,1289,0,0
14,-265,0,0,0,0,0,0,0,0,0,-1,1238,1289,0,0
21,-265,0,0,0,0,0,0,0,0,0,-1,1245,1289,0,0
28,-265,0,0,0,0,0,0,0,0,0,-1,1252,1289,0,0
35,-265,0,0,0,0,0,0,0,0,0,-1,1259,1289,0,0
42,-265,0,0,0,0,0,0,0,0,0,-1,1266,1289,0,0
49,-265,0,0,0,0,0,0,0,0,0,-1,1273,1289,0,0
56,-265,0,0,0,0,0,0,0,0,0,-1,1280,1289,0,0
63,-265,0,0,0,0,0,0,0,0,0,-1,1287,1289,0,0
70,-265,0,0,0,0,0,0,0,0,0,-1,1294,1289,0,0
77,-265,0,0,0,0,0,0,0,0,0,-1,1301,1289,0,0
84,-265,0,0,0,0,0,0,0,0,0,-1,1308,1289,0,0
91,-265,0,0,0,0,0,0,0,0,0,-1,1315,1289,0,0
98,-265,0,0,0,0,0,0,0,0,0,-1,1322,1289,0,0
105,-265,0,0,0,0,0,0,0,0,0,-1,1329,1289,0,0
112,-265,0,0,0,0,0,0,0,0,0,-1,1336,1289,0,0
119,-265,0,0,0,0,0,0,0,0,0,-1,1343,1289,0,0
126,-265,0,0,0,0,0,0,0,0,0,-1,1350,1289,0,0
133,-265,0,0,0,0,0,0,0,0,0,-1,1357,1289,0,0
140,-265,0,0,0,0,0,0,0,0,0,-1,1364,1289,0,0
147,-265,0,0,0,0,0,0,0,0,0,-1,1371,1289,0,0
154,-265,0,0,0,0,0,0,0,0,0,-1,1378,1289,0,0
161,-265,0,0,0,0,0,0,0,0,0,-1,1385,1289,0,0
168,-265,0,0,0,0,0,0,0,0,0,-1,1392,1289,0,0
175,-265,0,0,0,0,0,0,0,0,0,-1,1399,1289,0,0
182,-265,0,0,0,0,0,0,0,0,0,-1,1406,1289,0,0
189,-265,0,0,0,0,0,0,0,0,0,-1,1413,1289,0,0
196,-265,0,0,0,0,0,0,0,0,0,-1,1420,1289,0,0
203,-265,0,0,0,0,0,0,0,0,0,-1,1427,1289,0,0
210,-265,0,0,0,0,0,0,0,0,0,-1,1434,1289,0,0
217,-265,0,0,0,0,0,0,0,0,0,-1,1441,1289,0,0
224,-265,0,0,0,0,0,0,0,0,0,-1,1448,1289,0,0
231,-265,0,0,0,0,0,0,0,0,0,-1,1455,1289,0,0
238,-265,0,0,0,0,0,0,0,0,0,-1,1462,1289,0,0
245,-265,0,0,0,0,0,0,0,0,0,-1,1469,1289,0,0
252,-265,0,0,0,0,0,0,0,0,0,-1,1476,1289,0,0
259,-265,0,0,0,0,0,0,0,0,0,-1,1483,1289,0,0
266,-265,0,0,0,0,0,0,0,0,0,-1,1490,1289,0,0
273,-265,0,0,0,0,0,0,0,0,0,-1,1497,1289,0,0
280,-265,0,0,0,0,0,0,0,0,0,-1,1504,1289,0,0
287,-265,0,0,0,0,0,0,0,0,0,-1,1511,1289,0,0
294,-265,0,0,0,0,0,0,0,0,0,-1,1518,1289,0,0
301,-265,0,0,0,0,0,0,0,0,0,-1,1525,1289,0,0
308,-265,0,0,0,0,0,0,0,0,0,-1,1532,1289,0,0
315,-265,0,0,0,0,0,0,0,0,0,-1,1539,1289,0,0
322,-265,0,0,0,0,0,0,0,0,0,-1,1546,1289,0,0
329,-265,0,0,0,0,0,0,0,0,0,-1,1553,1289,0,0
336,-265,0,0,0,0,0,0,0,0,0,-1,1560,1289,0,0
343,-265,0,0,0,0,0,0,0,0,0,-1,1567,1289,0,0
350,-265,0,0,0,0,0,0,0,0,0,-1,1574,1289,0,0
357,-265,0,0,0,0,0,0,0,0,0,-1,1581,1289,0,0
364,-265,0,0,0,0,0,0,0,0,0,-1,1588,1289,0,0
371,-265,0,0,0,0,0,0,0,0,0,-1,1595,1289,0,0
378,-265,0,0,0,0,0,0,0,0,0,-1,1602,1289,0,0
385,-265,0,0,0,0,0,0,0,0,0,-1,1609,1289,0,0
392,-265,0,0,0,0,0,0,0,0,0,-1,1616,1289,0,0
399,-265,0,0,0,0,0,0,0,0,0,-1,1623,1289,0,0
406,-265,0,0,0,0,0,0,0,0,0,-1,1630,1289,0,0
413,-265,0,0,0,0,0,0,0,0,0,-1,1637,1289,0,0
420,-265,0,0,0,0,0,0,0,0,0,-1,1644,1289,0,0
427,-265,0,0,0,0,0,0,0,0,0,-1,1651,1289,0,0
434,-265,0,0,0,0,0,0,0,0,0,-1,1658,1289,0,0
441,-265,0,0,0,0,0,0,0,0,0,-1,1665,1289,0,0
448,-265,0,0,0,0,0,0,0,0,0,-1,1672,1289,0,0
455,-265,0,0,0,0,0,0,0,0,0,-1,1679,1289,0,0
462,-265,0,0,0,0,0,0,0,0,0,-1,1686,1289,0,0
469,-265,0,0,0,0,0,0,0,0,0,-1,1693,1289,0,0
476,-265,0,0,0,0,0,0,0,0,0,-1,1700,1289,0,0
483,-265,0,0,0,0,0,0,0,0,0,-1,1707,1289,0,0
490,-265,0,0,0,0,0,0,0,0,0,-1,1714,1289,0,0
497,-265,0,0,0,0,0,0,0,0,0,-1,1721,1289,0,0
504,-265,0,0,0,0,0,0,0,0,0,-1,1728,1289,0,0
511,-265,0,0,0,0,0,0,0,0,0,-1,1735,1289,0,0
518,-265,0,0,0,0,0,0,0,0,0,-1,1742,1289,0,0
525,-265,0,0,0,0,0,0,0,0,0,-1,1749,1289,0,0
532,-265,0,0,0,0,0,0,0,0,0,-1,1756,1289,0,0
539,-265,0,0,0,0,0,0,0,0,0,-1,1763,1289,0,0
546,-265,0,0,0,0,0,0,0,0,0,-1,1770,1289,0,0
553,-265,0,0,0,0,0,0,0,0,0,-1,1777,1289,0,0
560,-265,0,0,0,0,0,0,0,0,0,-1,1784,1289,0,0
567,-265,0,0,0,0,0,0,0,0,0,-1,1791,1289,0,0
574,-265,0,0,0,0,0,0,0,0,0,-1,1798,1289,0,0
581,-265,0,0,0,0,0,0,0,0,0,-1,1805,1289,0,0
588,-265,0,0,0,0,0,0,0,0,0,-1,1812,1289,0,0
595,-265,0,0,0,0,0,0,0,0,0,-1,1819,1289,0,0
602,-265,18.6863,2.57629,0.0100761,0.00655308,-0.00523191,0.0138351,0.00279411,-0.623015,0.00844749,0.0278484,1826,1289,18.6863,-2.57635
609,-265,18.7184,2.53247,0.00471444,0.00794397,-0.00379506,0.0104535,0.00220489,-0.986542,0.00636269,0.0290849,1833,1289,18.7184,-2.53242
616,-265,18.6428,2.57251,-0.000470744,0.00797222,-0.00286351,0.00885178,-0.0013503,-1.27278,0.00639895,0.0341179,1840,1289,18.6428,-2.57255
623,-265,18.6072,2.56946,-0.00548779,0.00707326,-0.00239559,0.00751463,-0.00592915,-1.3886,0.00777974,0.0456813,1847,1289,18.6072,-2.56951
630,-265,18.5818,2.61035,-0.00900579,0.00574382,-0.00196188,0.00600031,-0.00926229,-1.4408,0.00887869,0.0456475,1854,1289,18.5818,-2.6104
637,-265,18.4905,2.43115,-0.0108606,0.00449747,-0.00147873,0.00463855,-0.0110017,-1.47568,0.00927565,0.0458609,1861,1289,18.4904,-2.4311
644,-265,18.7726,2.24097,-0.0115672,0.00351088,-0.000973647,0.00357349,-0.0116299,-1.50658,0.00917927,0.0470246,1868,1289,18.7726,-2.24098
651,-265,19.0624,2.08435,0,0,0,0,0,0,0,-1,1875,1289,19.0624,-2.0843
658,-265,15.2848,0.0620117,0,0,0,0,0,0,0,-1,1882,1289,15.2848,-0.0620066
665,-265,15.0066,1.0249,0,0,0,0,0,0,0,-1,1889,1289,15.0066,-1.02491
672,-265,15.4247,4.85022,0,0,0,0,0,0,0,-1,1896,1289,15.4247,-4.85027
679,-265,15.3665,4.9624,-0.00959998,-0.000310702,0.000592946,-0.000273006,-0.00963768,1.50731,0.00633608,0.0330637,1903,1289,15.3664,-4.96245
686,-265,15.3418,4.93066,-0.00816697,-0.000663475,0.00114169,-0.000493608,-0.00833684,1.42309,0.00540088,0.0141664,1910,1289,15.3418,-4.93062
693,-265,15.3505,4.76147,-0.00552911,-0.00057067,0.00159793,-0.000100329,-0.00599945,1.28454,0.00396661,0.0104473,1917,1289,15.3504,-4.7615
700,-265,15.3428,4.59839,-0.00269492,-0.000840224,0.00216143,0.000584393,-0.00411953,0.988044,0.00296044,0.0106436,1924,1289,15.3428,-4.59837
707,-265,15.3572,4.45093,-0.000135597,-0.000975925,0.00154967,0.00104986,-0.00216138,0.653015,0.00189067,0.0105295,1931,1289,15.3571,-4.45087
714,-265,15.347,4.31543,0.00301727,-0.00118662,0.000716479,0.00313603,-0.00130537,0.164257,0.00263585,0.00975167,1938,1289,15.347,-4.31538
721,-265,15.3398,4.15796,0.00684946,-0.00132144,0.000221113,0.00685544,-0.00132742,0.0270346,0.00507101,0.00888461,1945,1289,15.3398,-4.15791
728,-265,15.3298,4.0022,0.0114967,-0.0017032,-0.000324052,0.0115047,-0.00171115,-0.0245298,0.00829918,0.0117506,1952,1289,15.3298,-4.00225
735,-265,15.3354,3.84436,0.0175115,-0.00266708,-0.00038896,0.017519,-0.00267457,-0.0192663,0.0126654,0.0153091,1959,1289,15.3355,-3.84442
742,-265,15.3521,3.69543,0.0253026,-0.0043023,1.40111e-05,0.0253026,-0.00430231,0.000473271,0.0184703,0.0189657,1966,1289,15.3521,-3.69544
749,-265,15.3882,3.63037,0.0352164,-0.00633189,0.000391913,0.0352201,-0.00633559,0.00943159,0.025852,0.0374719,1973,1289,15.3882,-3.63039
756,-265,15.8873,4.04175,0.0479816,-0.0091213,0.00135371,0.0480137,-0.00915337,0.0236889,0.0354563,0.0420778,1980,1289,15.8874,-4.04175
763,-265,16.3672,4.16333,0,0,0,0,0,0,0,-1,1987,1289,16.3672,-4.16332
770,-265,17.8036,3.37756,0,0,0,0,0,0,0,-1,1994,1289,17.8036,-3.37757
777,-265,12.5996,1.1405,0,0,0,0,0,0,0,-1,2001,1289,12.5997,-1.14055
784,-265,0,0,0,0,0,0,0,0,0,-1,2008,1289,0,0
791,-265,0,0,0,0,0,0,0,0,0,-1,2015,1289,0,0
798,-265,0,0,0,0,0,0,0,0,0,-1,2022,1289,0,0
805,-265,0,0,0,0,0,0,0,0,0,-1,2029,1289,0,0
812,-265,0,0,0,0,0,0,0,0,0,-1,2036,1289,0,0
-700,-272,0,0,0,0,0,0,0,0,0,-1,524,1296,0,0
-693,-272,0,0,0,0,0,0,0,0,0,-1,531,1296,0,0
-686,-272,0,0,0,0,0,0,0,0,0,-1,538,1296,0,0
-679,-272,0,0,0,0,0,0,0,0,0,-1,545,1296,0,0
-672,-272,0,0,0,0,0,0,0,0,0,-1,552,1296,0,0
-665,-272,0,0,0,0,0,0,0,0,0,-1,559,1296,0,0
-658,-272,-4.69202,-1.02014,-0.0119734,0.0303516,0.00946829,0.0323731,-0.013995,1.36045,0.0274626,0.0436374,566,1296,-4.69201,1.02011
-651,-272,-5.20404,-0.556152,-0.0141143,0.0259644,0.00390788,0.0263419,-0.0144918,1.4745,0.023904,0.0451846,573,1296,-5.20406,0.556093
-644,-272,-5.94843,-0.332275,-0.0153988,0.0214017,0.000432745,0.0214068,-0.0154039,1.55904,0.0213467,0.0472906,580,1296,-5.94843,0.332331
-637,-272,-6.36969,0.0490723,-0.0158465,0.0170445,-0.00147095,0.0171101,-0.0159121,-1.52619,0.0190696,0.0474457,587,1296,-6.36969,-0.0490679
-630,-272,-6.65125,0.399048,-0.0155842,0.0130996,-0.00230913,0.0132843,-0.0157689,-1.49098,0.0167943,0.0459911,594,1296,-6.65122,-0.399022
-623,-272,-7.58508,1.07764,0,0,0,0,0,0,0,-1,601,1296,-7.58506,-1.07768
-616,-272,-7.53851,1.16101,-0.0132342,0.00688333,-0.00201854,0.00708386,-0.0134348,-1.47177,0.0120341,0.0361584,608,1296,-7.53853,-1.16096
-609,-272,-7.78479,1.46338,-0.0112709,0.00477571,-0.00173708,0.0049616,-0.0114568,-1.46419,0.00972325,0.0190143,615,1296,-7.7848,-1.46342
-602,-272,-7.84717,1.61011,-0.00903642,0.00243984,-0.00157396,0.00265179,-0.00924837,-1.43694,0.00721385,0.012576,622,1296,-7.84718,-1.61011
-595,-272,-7.84369,1.81665,-0.00660579,0.00115473,-0.00152098,0.00144218,-0.00689324,-1.38401,0.00514406,0.0103879,629,1296,-7.84369,-1.81663
-588,-272,-7.82043,2.00317,-0.00525642,0.000149586,-0.000671671,0.000231788,-0.00533862,-1.44902,0.0036388,0.00927106,636,1296,-7.82044,-2.00318
-581,-272,-7.85162,2.16992,-0.00297569,-0.000710115,0.000556602,-0.000580756,-0.00310505,1.34244,0.00190617,0.00912177,643,1296,-7.85162,-2.16993
-574,-272,-7.89252,2.38074,-0.000416857,-0.00178196,0.00068642,-0.000131395,-0.00206742,0.394112,0.00133664,0.0148521,650,1296,-7.8925,-2.38078
-567,-272,-7.91302,2.57825,0.000741059,-0.00228956,-0.000425784,0.000799743,-0.00234825,-0.136962,0.00188937,0.0201654,657,1296,-7.91305,-2.5783
-560,-272,-7.91248,2.76257,0.00151146,-0.00343725,-0.00165245,0.00201251,-0.0039383,-0.294404,0.00349516,0.0190892,664,1296,-7.91247,-2.76255
-553,-272,-7.84656,2.92688,0.00123041,-0.00371057,-0.00292656,0.00258981,-0.00506997,-0.434851,0.00449899,0.0135911,671,1296,-7.84653,-2.92691
-546,-272,-7.80072,3.09058,-0.000431138,-0.00404002,-0.00373539,0.00191281,-0.00638396,-0.560394,0.00501665,0.0188315,678,1296,-7.80071,-3.0906
-539,-272,-7.89221,3.21997,-0.00350999,-0.00418007,-0.00458009,0.000747301,-0.00843736,-0.748887,0.00588983,0.0461344,685,1296,-7.89223,-3.22001
-532,-272,-7.987,3.31775,0,0,0,0,0,0,0,-1,692,1296,-7.98698,-3.31776
-525,-272,-8.22314,2.34546,0,0,0,0,0,0,0,-1,699,1296,-8.22317,-2.3455
-518,-272,-9.617,-0.996338,0,0,0,0,0,0,0,-1,706,1296,-9.61701,0.996346
-511,-272,-9.29706,-1.56042,0,0,0,0,0,0,0,-1,713,1296,-9.29708,1.56039
-504,-272,-10.739,-0.140869,0,0,0,0,0,0,0,-1,720,1296,-10.739,0.140861
-497,-272,-10.9311,0.472412,-0.019963,-0.0049871,-0.00421055,-0.00388447,-0.0210657,-1.31467,0.0129447,0.0491779,727,1296,-10.9311,-0.472354
-490,-272,-11.2858,0.755371,-0.023062,-0.00423796,-0.00181653,-0.00406427,-0.0232357,-1.47547,0.0143291,0.045895,734,1296,-11.2858,-0.755417
-483,-272,-11.725,0.748169,-0.0264778,-0.00136668,0.00335037,-0.00092735,-0.0269172,1.44041,0.0176438,0.0410876,741,1296,-11.7251,-0.748167
-476,-272,0,0,0,0,0,0,0,0,0,-1,748,1296,0,0
-469,-272,0,0,0,0,0,0,0,0,0,-1,755,1296,0,0
-462,-272,0,0,0,0,0,0,0,0,0,-1,762,1296,0,0
-455,-272,0,0,0,0,0,0,0,0,0,-1,769,1296,0,0
-448,-272,0,0,0,0,0,0,0,0,0,-1,776,1296,0,0
-441,-272,0,0,0,0,0,0,0,0,0,-1,783,1296,0,0
-434,-272,0,0,0,0,0,0,0,0,0,-1,790,1296,0,0
-427,-272,0,0,0,0,0,0,0,0,0,-1,797,1296,0,0
-420,-272,0,0,0,0,0,0,0,0,0,-1,804,1296,0,0
-413,-272,0,0,0,0,0,0,0,0,0,-1,811,1296,0,0
-406,-272,0,0,0,0,0,0,0,0,0,-1,818,1296,0,0
-399,-272,0,0,0,0,0,0,0,0,0,-1,825,1296,0,0
-392,-272,0,0,0,0,0,0,0,0,0,-1,832,1296,0,0
-385,-272,0,0,0,0,0,0,0,0,0,-1,839,1296,0,0
-378,-272,0,0,0,0,0,0,0,0,0,-1,846,1296,0,0
-371,-272,0,0,0,0,0,0,0,0,0,-1,853,1296,0,0
-364,-272,0,0,0,0,0,0,0,0,0,-1,860,1296,0,0
-357,-272,0,0,0,0,0,0,0,0,0,-1,867,1296,0,0
-350,-272,0,0,0,0,0,0,0,0,0,-1,874,1296,0,0
-343,-272,0,0,0,0,0,0,0,0,0,-1,881,1296,0,0
-336,-272,0,0,0,0,0,0,0,0,0,-1,888,1296,0,0
-329,-272,0,0,0,0,0,0,0,0,0,-1,895,1296,0,0
-322,-272,0,0,0,0,0,0,0,0,0,-1,902,1296,0,0
-315,-272,0,0,0,0,0,0,0,0,0,-1,909,1296,0,0
-308,-272,0,0,0,0,0,0,0,0,0,-1,916,1296,0,0
-301,-272,0,0,0,0,0,0,0,0,0,-1,923,1296,0,0
-294,-272,0,0,0,0,0,0,0,0,0,-1,930,1296,0,0
-287,-272,0,0,0,0,0,0,0,0,0,-1,937,1296,0,0
-280,-272,0,0,0,0,0,0,0,0,0,-1,944,1296,0,0
-273,-272,0,0,0,0,0,0,0,0,0,-1,951,1296,0,0
-266,-272,0,0,0,0,0,0,0,0,0,-1,958,1296,0,0
-259,-272,0,0,0,0,0,0,0,0,0,-1,965,1296,0,0
-252,-272,0,0,0,0,0,0,0,0,0,-1,972,1296,0,0
-245,-272,0,0,0,0,0,0,0,0,0,-1,979,1296,0,0
-238,-272,0,0,0,0,0,0,0,0,0,-1,986,1296,0,0
-231,-272,0,0,0,0,0,0,0,0,0,-1,993,1296,0,0
-224,-272,0,0,0,0,0,0,0,0,0,-1,1000,1296,0,0
-217,-272,0,0,0,0,0,0,0,0,0,-1,1007,1296,0,0
-210,-272,0,0,0,0,0,0,0,0,0,-1,1014,1296,0,0
-203,-272,0,0,0,0,0,0,0,0,0,-1,1021,1296,0,0
-196,-272,0,0,0,0,0,0,0,0,0,-1,1028,1296,0,0
-189,-272,0,0,0,0,0,0,0,0,0,-1,1035,1296,0,0
-182,-272,0,0,0,0,0,0,0,0,0,-1,1042,1296,0,0
-175,-272,0,0,0,0,0,0,0,0,0,-1,1049,1296,0,0
-168,-272,0,0,0,0,0,0,0,0,0,-1,1056,1296,0,0
-161,-272,0,0,0,0,0,0,0,0,0,-1,1063,1296,0,0
-154,-272,0,0,0,0,0,0,0,0,0,-1,1070,1296,0,0
-147,-272,0,0,0,0,0,0,0,0,0,-1,1077,1296,0,0
-140,-272,0,0,0,0,0,0,0,0,0,-1,1084,1296,0,0
-133,-272,0,0,0,0,0,0,0,0,0,-1,1091,1296,0,0
-126,-272,0,0,0,0,0,0,0,0,0,-1,1098,1296,0,0
-119,-272,0,0,0,0,0,0,0,0,0,-1,1105,1296,0,0
-112,-272,0,0,0,0,0,0,0,0,0,-1,1112,1296,0,0
-105,-272,0,0,0,0,0,0,0,0,0,-1,1119,1296,0,0
-98,-272,0,0,0,0,0,0,0,0,0,-1,1126,1296,0,0
-91,-272,0,0,0,0,0,0,0,0,0,-1,1133,1296,0,0
-84,-272,0,0,0,0,0,0,0,0,0,-1,1140,1296,0,0
-77,-272,0,0,0,0,0,0,0,0,0,-1,1147,1296,0,0
-70,-272,0,0,0,0,0,0,0,0,0,-1,1154,1296,0,0
-63,-272,0,0,0,0,0,0,0,0,0,-1,1161,1296,0,0
-56,-272,0,0,0,0,0,0,0,0,0,-1,1168,1296,0,0
-49,-272,0,0,0,0,0,0,0,0,0,-1,1175,1296,0,0
-42,-272,0,0,0,0,0,0,0,0,0,-1,1182,1296,0,0
-35,-272,0,0,0,0,0,0,0,0,0,-1,1189,1296,0,0
-28,-272,0,0,0,0,0,0,0,0,0,-1,1196,1296,0,0
-21,-272,0,0,0,0,0,0,0,0,0,-1,1203,1296,0,0
-14,-272,0,0,0,0,0,0,0,0,0,-1,1210,1296,0,0
-7,-272,0,0,0,0,0,0,0,0,0,-1,1217,1296,0,0
0,-272,0,0,0,0,0,0,0,0,0,-1,1224,1296,0,0
7,-272,0,0,0,0,0,0,0,0,0,-1,1231,1296,0,0
14,-272,0,0,0,0,0,0,0,0,0,-1,1238,1296,0,0
21,-272,0,0,0,0,0,0,0,0,0,-1,1245,1296,0,0
28,-272,0,0,0,0,0,0,0,0,0,-1,1252,1296,0,0
35,-272,0,0,0,0,0,0,0,0,0,-1,1259,1296,0,0
42,-272,0,0,0,0,0,0,0,0,0,-1,1266,1296,0,0
49,-272,0,0,0,0,0,0,0,0,0,-1,1273,1296,0,0
56,-272,0,0,0,0,0,0,0,0,0,-1,1280,1296,0,0
63,-272,0,0,0,0,0,0,0,0,0,-1,1287,1296,0,0
70,-272,0,0,0,0,0,0,0,0,0,-1,1294,1296,0,0
77,-272,0,0,0,0,0,0,0,0,0,-1,1301,1296,0,0
84,-272,0,0,0,0,0,0,0,0,0,-1,1308,1296,0,0
91,-272,0,0,0,0,0,0,0,0,0,-1,1315,1296,0,0
98,-272,0,0,0,0,0,0,0,0,0,-1,1322,1296,0,0
105,-272,0,0,0,0,0,0,0,0,0,-1,1329,1296,0,0
112,-272,0,0,0,0,0,0,0,0,0,-1,1336,1296,0,0
119,-272,0,0,0,0,0,0,0,0,0,-1,1343,1296,0,0
126,-272,0,0,0,0,0,0,0,0,0,-1,1350,1296,0,0
133,-272,0,0,0,0,0,0,0,0,0,-1,1357,1296,0,0
140,-272,0,0,0,0,0,0,0,0,0,-1,1364,1296,0,0
147,-272,0,0,0,0,0,0,0,0,0,-1,1371,1296,0,0
154,-272,0,0,0,0,0,0,0,0,0,-1,1378,1296,0,0
161,-272,0,0,0,0,0,0,0,0,0,-1,1385,1296,0,0
168,-272,0,0,0,0,0,0,0,0,0,-1,1392,1296,0,0
175,-272,0,0,0,0,0,0,0,0,0,-1,1399,1296,0,0
182,-272,0,0,0,0,0,0,0,0,0,-1,1406,1296,0,0
189,-272,0,0,0,0,0,0,0,0,0,-1,1413,1296,0,0
196,-272,0,0,0,0,0,0,0,0,0,-1,1420,1296,0,0
203,-272,0,0,0,0,0,0,0,0,0,-1,1427,1296,0,0
210,-272,0,0,0,0,0,0,0,0,0,-1,1434,1296,0,0
217,-272,0,0,0,0,0,0,0,0,0,-1,1441,1296,0,0
224,-272,0,0,0,0,0,0,0,0,0,-1,1448,1296,0,0
231,-272,0,0,0,0,0,0,0,0,0,-1,1455,1296,0,0
238,-272,0,0,0,0,0,0,0,0,0,-1,1462,1296,0,0
245,-272,0,0,0,0,0,0,0,0,0,-1,1469,1296,0,0
252,-272,0,0,0,0,0,0,0,0,0,-1,1476,1296,0,0
259,-272,0,0,0,0,0,0,0,0,0,-1,1483,1296,0,0
266,-272,0,0,0,0,0,0,0,0,0,-1,1490,1296,0,0
273,-272,0,0,0,0,0,0,0,0,0,-1,1497,1296,0,0
280,-272,0,0,0,0,0,0,0,0,0,-1,1504,1296,0,0
287,-272,0,0,0,0,0,0,0,0,0,-1,1511,1296,0,0
294,-272,0,0,0,0,0,0,0,0,0,-1,1518,1296,0,0
301,-272,0,0,0,0,0,0,0,0,0,-1,1525,1296,0,0
308,-272,0,0,0,0,0,0,0,0,0,-1,1532,1296,0,0
315,-272,0,0,0,0,0,0,0,0,0,-1,1539,1296,0,0
322,-272,0,0,0,0,0,0,0,0,0,-1,1546,1296,0,0
329,-272,0,0,0,0,0,0,0,0,0,-1,1553,1296,0,0
336,-272,0,0,0,0,0,0,0,0,0,-1,1560,1296,0,0
343,-272,0,0,0,0,0,0,0,0,0,-1,1567,1296,0,0
350,-272,0,0,0,0,0,0,0,0,0,-1,1574,1296,0,0
357,-272,0,0,0,0,0,0,0,0,0,-1,1581,1296,0,0
364,-272,0,0,0,0,0,0,0,0,0,-1,1588,1296,0,0
371,-272,0,0,0,0,0,0,0,0,0,-1,1595,1296,0,0
378,-272,0,0,0,0,0,0,0,0,0,-1,1602,1296,0,0
385,-272,0,0,0,0,0,0,0,0,0,-1,1609,1296,0,0
392,-272,0,0,0,0,0,0,0,0,0,-1,1616,1296,0,0
399,-272,0,0,0,0,0,0,0,0,0,-1,1623,1296,0,0
406,-272,0,0,0,0,0,0,0,0,0,-1,1630,1296,0,0
413,-272,0,0,0,0,0,0,0,0,0,-1,1637,1296,0,0
420,-272,0,0,0,0,0,0,0,0,0,-1,1644,1296,0,0
427,-272,0,0,0,0,0,0,0,0,0,-1,1651,1296,0,0
434,-272,0,0,0,0,0,0,0,0,0,-1,1658,1296,0,0
441,-272,0,0,0,0,0,0,0,0,0,-1,1665,1296,0,0
448,-272,0,0,0,0,0,0,0,0,0,-1,1672,1296,0,0
455,-272,0,0,0,0,0,0,0,0,0,-1,1679,1296,0,0
462,-272,0,0,0,0,0,0,0,0,0,-1,1686,1296,0,0
469,-272,0,0,0,0,0,0,0,0,0,-1,1693,1296,0,0
476,-272,0,0,0,0,0,0,0,0,0,-1,1700,1296,0,0
483,-272,0,0,0,0,0,0,0,0,0,-1,1707,1296,0,0
490,-272,0,0,0,0,0,0,0,0,0,-1,1714,1296,0,0
497,-272,0,0,0,0,0,0,0,0,0,-1,1721,1296,0,0
504,-272,0,0,0,0,0,0,0,0,0,-1,1728,1296,0,0
511,-272,0,0,0,0,0,0,0,0,0,-1,1735,1296,0,0
518,-272,0,0,0,0,0,0,0,0,0,-1,1742,1296,0,0
525,-272,0,0,0,0,0,0,0,0,0,-1,1749,1296,0,0
532,-272,0,0,0,0,0,0,0,0,0,-1,1756,1296,0,0
539,-272,0,0,0,0,0,0,0,0,0,-1,1763,1296,0,0
546,-272,0,0,0,0,0,0,0,0,0,-1,1770,1296,0,0
553,-272,0,0,0,0,0,0,0,0,0,-1,1777,1296,0,0
560,-272,0,0,0,0,0,0,0,0,0,-1,1784,1296,0,0
567,-272,0,0,0,0,0,0,0,0,0,-1,1791,1296,0,0
574,-272,0,0,0,0,0,0,0,0,0,-1,1798,1296,0,0
581,-272,0,0,0,0,0,0,0,0,0,-1,1805,1296,0,0
588,-272,0,0,0,0,0,0,0,0,0,-1,1812,1296,0,0
595,-272,0,0,0,0,0,0,0,0,0,-1,1819,1296,0,0
602,-272,18.6797,2.57019,0.00959202,0.00917437,-0.00974688,0.0191323,-0.000365915,-0.774687,0.0128786,0.0335239,1826,1296,18.6797,-2.57017
609,-272,18.6398,2.54309,0.00423608,0.0120118,-0.00438694,0.0139857,0.00226213,-1.14798,0.00866872,0.0417001,1833,1296,18.6397,-2.54312
616,-272,18.6392,2.54333,-0.000944219,0.0120363,-0.00124313,0.0121543,-0.0010622,-1.47617,0.00847913,0.044099,1840,1296,18.6392,-2.54336
623,-272,18.6412,2.61523,-0.00566507,0.0104103,0.000247521,0.0104141,-0.00566888,1.5554,0.00941925,0.0425414,1847,1296,18.6412,-2.61518
630,-272,18.5524,2.6908,-0.00877676,0.00829012,0.000816921,0.00832913,-0.00881577,1.52308,0.00989994,0.0445564,1854,1296,18.5524,-2.69077
637,-272,17.8723,2.53516,-0.01046,0.00642675,0.00102043,0.00648819,-0.0105215,1.51066,0.00991212,0.0433143,1861,1296,17.8723,-2.53513
644,-272,18.2144,2.30066,0,0,0,0,0,0,0,-1,1868,1296,18.2144,-2.30068
651,-272,15.0272,-1.42993,0,0,0,0,0,0,0,-1,1875,1296,15.0272,1.42989
658,-272,14.7432,-0.54187,0,0,0,0,0,0,0,-1,1882,1296,14.7432,0.541835
665,-272,14.9989,0.113037,0,0,0,0,0,0,0,-1,1889,1296,14.9989,-0.113098
672,-272,15.0951,4.83423,0,0,0,0,0,0,0,-1,1896,1296,15.0951,-4.83417
679,-272,15.1997,4.96313,-0.00951841,-0.000633782,0.000908714,-0.000541791,-0.0096104,1.46991,0.00623419,0.024005,1903,1296,15.1997,-4.96319
686,-272,15.1886,4.92493,-0.00798971,-0.00104947,0.00111352,-0.000875192,-0.00816399,1.41554,0.00517565,0.0129688,1910,1296,15.1886,-4.92496
693,-272,15.1863,4.77319,-0.00524366,-0.000790496,0.00155353,-0.000302098,-0.00573206,1.2662,0.00372476,0.011448,1917,1296,15.1862,-4.7732
700,-272,15.1903,4.62524,-0.0023821,-0.0008202,0.0021384,0.000675389,-0.00387769,0.960475,0.00283718,0.0108415,1924,1296,15.1903,-4.62528
707,-272,15.1997,4.46497,0.000486747,-0.00072979,0.00166114,0.00164748,-0.00189052,0.609892,0.00204427,0.0103873,1931,1296,15.1997,-4.46497
714,-272,15.2023,4.28748,0.00403638,-0.000700868,0.000958291,0.00422289,-0.000887376,0.192223,0.00315295,0.0101329,1938,1296,15.2022,-4.28743
721,-272,15.1877,4.13403,0.00822729,-0.000628515,0.000658435,0.00827597,-0.000677202,0.0738098,0.00575634,0.0101606,1945,1296,15.1878,-4.13403
728,-272,15.1808,3.98535,0.0134284,-0.000765441,0.000359455,0.0134375,-0.000774538,0.025303,0.00922738,0.0118186,1952,1296,15.1808,-3.9853
735,-272,15.1982,3.82471,0.0201676,-0.00140012,0.000452485,0.0201771,-0.00140961,0.0209674,0.013945,0.0126374,1959,1296,15.1983,-3.82473
742,-272,15.0431,3.62439,0,0,0,0,0,0,0,-1,1966,1296,15.0431,-3.62434
749,-272,15.5557,3.9668,0.0402554,-0.00406227,0.00134923,0.0402965,-0.00410331,0.0304068,0.0283313,0.0410436,1973,1296,15.5557,-3.96674
756,-272,16.3289,4.0354,0.0547359,-0.00614595,0.00223614,0.0548179,-0.00622797,0.0366634,0.0387883,0.0436913,1980,1296,16.3288,-4.03536
763,-272,17.2036,3.83203,0,0,0,0,0,0,0,-1,1987,1296,17.2036,-3.83208
770,-272,17.8882,3.83423,0,0,0,0,0,0,0,-1,1994,1296,17.8882,-3.8342
777,-272,18.2728,3.86646,0,0,0,0,0,0,0,-1,2001,1296,18.2728,-3.86642
784,-272,0,0,0,0,0,0,0,0,0,-1,2008,1296,0,0
791,-272,0,0,0,0,0,0,0,0,0,-1,2015,1296,0,0
798,-272,0,0,0,0,0,0,0,0,0,-1,2022,1296,0,0
805,-272,0,0,0,0,0,0,0,0,0,-1,2029,1296,0,0
812,-272,0,0,0,0,0,0,0,0,0,-1,2036,1296,0,0
-700,-279,0,0,0,0,0,0,0,0,0,-1,524,1303,0,0
-693,-279,0,0,0,0,0,0,0,0,0,-1,531,1303,0,0
-686,-279,0,0,0,0,0,0,0,0,0,-1,538,1303,0,0
-679,-279,0,0,0,0,0,0,0,0,0,-1,545,1303,0,0
-672,-279,0,0,0,0,0,0,0,0,0,-1,552,1303,0,0
-665,-279,0,0,0,0,0,0,0,0,0,-1,559,1303,0,0
-658,-279,-4.948,-1.47998,-0.00750475,0.0325273,0.00984412,0.0348171,-0.00979451,1.34226,0.0270734,0.0433623,566,1303,-4.94799,1.47993
-651,-279,-5.1889,-0.807495,-0.0107012,0.0278381,0.00270291,0.0280267,-0.0108898,1.50112,0.0231832,0.043648,573,1303,-5.18889,0.807464
-644,-279,-5.34186,-0.654053,-0.0128634,0.0228828,-0.00152762,0.022948,-0.0129286,-1.52816,0.0209809,0.0475219,580,1303,-5.34184,0.65411
-637,-279,-5.47595,-0.129272,-0.0140569,0.0181626,-0.00363208,0.018567,-0.0144613,-1.45992,0.0191179,0.0450449,587,1303,-5.47594,0.12922
-630,-279,-5.91241,0.0136719,-0.014431,0.0139152,-0.00436466,0.0145721,-0.0150879,-1.42143,0.017125,0.0430564,594,1303,-5.91242,-0.0136652
-623,-279,-7.27765,0.542114,0,0,0,0,0,0,0,-1,601,1303,-7.27766,-0.542087
-616,-279,-7.48108,0.864014,-0.0130675,0.0072724,-0.00350939,0.00786088,-0.013656,-1.40466,0.0125721,0.0434797,608,1303,-7.4811,-0.863981
-609,-279,-7.6781,1.31372,-0.0114501,0.00500775,-0.00288835,0.00549994,-0.0119423,-1.40201,0.0102967,0.0297682,615,1303,-7.67811,-1.31372
-602,-279,-7.64844,1.61499,-0.00947116,0.00263198,-0.00253333,0.00314084,-0.00998002,-1.37257,0.00791093,0.0122939,622,1303,-7.64841,-1.615
-595,-279,-7.66455,1.82153,-0.00714244,0.0013006,-0.00233435,0.00190302,-0.00774486,-1.31824,0.00590077,0.0100933,629,1303,-7.66453,-1.82152
-588,-279,-7.63831,2.02344,-0.00624595,0.000190785,-0.00119008,0.000403769,-0.00645894,-1.3937,0.00444666,0.00983853,636,1303,-7.6383,-2.02338
-581,-279,-7.65186,2.1781,-0.00423263,-0.000796721,0.000549733,-0.000710909,-0.00431844,1.41595,0.00267368,0.0106884,643,1303,-7.65183,-2.17807
-574,-279,-7.69208,2.35046,-0.00124889,-0.00171083,0.000843843,-0.000604978,-0.00235474,0.651816,0.00141205,0.0107412,650,1303,-7.69206,-2.35047
-567,-279,-7.70502,2.55286,4.94648e-05,-0.00181268,-0.000330767,0.000106473,-0.00186969,-0.170674,0.00128342,0.0144799,657,1303,-7.70502,-2.55288
-560,-279,-7.67896,2.75964,0.000744807,-0.00278411,-0.00140561,0.00123624,-0.00327555,-0.33634,0.00269212,0.0151342,664,1303,-7.67894,-2.75961
-553,-279,-7.65472,2.94189,0.000445493,-0.00311864,-0.00250855,0.00174053,-0.00441367,-0.476563,0.00366316,0.0111723,671,1303,-7.65474,-2.94188
-546,-279,-7.65784,3.11047,-0.00116753,-0.0035016,-0.0032844,0.00115101,-0.00582014,-0.614691,0.00431524,0.0127976,678,1303,-7.65782,-3.11044
-539,-279,-7.6449,3.28174,-0.00433412,-0.00363877,-0.00412309,0.000151271,-0.00812417,-0.827461,0.00546723,0.0413156,685,1303,-7.64491,-3.28171
-532,-279,-7.63324,3.45398,0,0,0,0,0,0,0,-1,692,1303,-7.63325,-3.45393
-525,-279,-7.66394,3.2821,0,0,0,0,0,0,0,-1,699,1303,-7.66397,-3.28215
-518,-279,-9.66003,-2.04016,0,0,0,0,0,0,0,-1,706,1303,-9.66002,2.04016
-511,-279,-8.83795,-1.65161,0,0,0,0,0,0,0,-1,713,1303,-8.83795,1.65157
-504,-279,-8.13361,-1.71155,0,0,0,0,0,0,0,-1,720,1303,-8.13362,1.71151
-497,-279,-10.8179,0.612183,0,0,0,0,0,0,0,-1,727,1303,-10.8179,-0.61217
-490,-279,-11.097,0.908447,-0.0229252,-0.00624745,-0.00249142,-0.00588322,-0.0232895,-1.42563,0.013984,0.0433328,734,1303,-11.097,-0.908441
-483,-279,-11.5146,0.911865,-0.025153,-0.00577514,0.00115009,-0.00570711,-0.025221,1.51172,0.0152713,0.0415357,741,1303,-11.5146,-0.911827
-476,-279,0,0,0,0,0,0,0,0,0,-1,748,1303,0,0
-469,-279,0,0,0,0,0,0,0,0,0,-1,755,1303,0,0
-462,-279,0,0,0,0,0,0,0,0,0,-1,762,1303,0,0
-455,-279,0,0,0,0,0,0,0,0,0,-1,769,1303,0,0
-448,-279,0,0,0,0,0,0,0,0,0,-1,776,1303,0,0
-441,-279,0,0,0,0,0,0,0,0,0,-1,783,1303,0,0
-434,-279,0,0,0,0,0,0,0,0,0,-1,790,1303,0,0
-427,-279,0,0,0,0,0,0,0,0,0,-1,797,1303,0,0
-420,-279,0,0,0,0,0,0,0,0,0,-1,804,1303,0,0
-413,-279,0,0,0,0,0,0,0,0,0,-1,811,1303,0,0
-406,-279,0,0,0,0,0,0,0,0,0,-1,818,1303,0,0
-399,-279,0,0,0,0,0,0,0,0,0,-1,825,1303,0,0
-392,-279,0,0,0,0,0,0,0,0,0,-1,832,1303,0,0
-385,-279,0,0,0,0,0,0,0,0,0,-1,839,1303,0,0
-378,-279,0,0,0,0,0,0,0,0,0,-1,846,1303,0,0
-371,-279,0,0,0,0,0,0,0,0,0,-1,853,1303,0,0
-364,-279,0,0,0,0,0,0,0,0,0,-1,860,1303,0,0
-357,-279,0,0,0,0,0,0,0,0,0,-1,867,1303,0,0
-350,-279,0,0,0,0,0,0,0,0,0,-1,874,1303,0,0
-343,-279,0,0,0,0,0,0,0,0,0,-1,881,1303,0,0
-336,-279,0,0,0,0,0,0,0,0,0,-1,888,1303,0,0
-329,-279,0,0,0,0,0,0,0,0,0,-1,895,1303,0,0
-322,-279,0,0,0,0,0,0,0,0,0,-1,902,1303,0,0
-315,-279,0,0,0,0,0,0,0,0,0,-1,909,1303,0,0
-308,-279,0,0,0,0,0,0,0,0,0,-1,916,1303,0,0
-301,-279,0,0,0,0,0,0,0,0,0,-1,923,1303,0,0
-294,-279,0,0,0,0,0,0,0,0,0,-1,930,1303,0,0
-287,-279,0,0,0,0,0,0,0,0,0,-1,937,1303,0,0
-280,-279,0,0,0,0,0,0,0,0,0,-1,944,1303,0,0
-273,-279,0,0,0,0,0,0,0,0,0,-1,951,1303,0,0
-266,-279,0,0,0,0,0,0,0,0,0,-1,958,1303,0,0
-259,-279,0,0,0,0,0,0,0,0,0,-1,965,1303,0,0
-252,-279,0,0,0,0,0,0,0,0,0,-1,972,1303,0,0
-245,-279,0,0,0,0,0,0,0,0,0,-1,979,1303,0,0
-238,-279,0,0,0,0,0,0,0,0,0,-1,986,1303,0,0
-231,-279,0,0,0,0,0,0,0,0,0,-1,993,1303,0,0
-224,-279,0,0,0,0,0,0,0,0,0,-1,1000,1303,0,0
-217,-279,0,0,0,0,0,0,0,0,0,-1,1007,1303,0,0
-210,-279,0,0,0,0,0,0,0,0,0,-1,1014,1303,0,0
-203,-279,0,0,0,0,0,0,0,0,0,-1,1021,1303,0,0
-196,-279,0,0,0,0,0,0,0,0,0,-1,1028,1303,0,0
-189,-279,0,0,0,0,0,0,0,0,0,-1,1035,1303,0,0
-182,-279,0,0,0,0,0,0,0,0,0,-1,1042,1303,0,0
-175,-279,0,0,0,0,0,0,0,0,0,-1,1049,1303,0,0
-168,-279,0,0,0,0,0,0,0,0,0,-1,1056,1303,0,0
-161,-279,0,0,0,0,0,0,0,0,0,-1,1063,1303,0,0
-154,-279,0,0,0,0,0,0,0,0,0,-1,1070,1303,0,0
-147,-279,0,0,0,0,0,0,0,0,0,-1,1077,1303,0,0
-140,-279,0,0,0,0,0,0,0,0,0,-1,1084,1303,0,0
-133,-279,0,0,0,0,0,0,0,0,0,-1,1091,1303,0,0
-126,-279,0,0,0,0,0,0,0,0,0,-1,1098,1303,0,0
-119,-279,0,0,0,0,0,0,0,0,0,-1,1105,1303,0,0
-112,-279,0,0,0,0,0,0,0,0,0,-1,1112,1303,0,0
-105,-279,0,0,0,0,0,0,0,0,0,-1,1119,1303,0,0
-98,-279,0,0,0,0,0,0,0,0,0,-1,1126,1303,0,0
-91,-279,0,0,0,0,0,0,0,0,0,-1,1133,1303,0,0
-84,-279,0,0,0,0,0,0,0,0,0,-1,1140,1303,0,0
-77,-279,0,0,0,0,0,0,0,0,0,-1,1147,1303,0,0
-70,-279,0,0,0,0,0,0,0,0,0,-1,1154,1303,0,0
-63,-279,0,0,0,0,0,0,0,0,0,-1,1161,1303,0,0
-56,-279,0,0,0,0,0,0,0,0,0,-1,1168,1303,0,0
-49,-279,0,0,0,0,0,0,0,0,0,-1,1175,1303,0,0
-42,-279,0,0,0,0,0,0,0,0,0,-1,1182,1303,0,0
-35,-279,0,0,0,0,0,0,0,0,0,-1,1189,1303,0,0
-28,-279,0,0,0,0,0,0,0,0,0,-1,1196,1303,0,0
-21,-279,0,0,0,0,0,0,0,0,0,-1,1203,1303,0,0
-14,-279,0,0,0,0,0,0,0,0,0,-1,1210,1303,0,0
-7,-279,0,0,0,0,0,0,0,0,0,-1,1217,1303,0,0
0,-279,0,0,0,0,0,0,0,0,0,-1,1224,1303,0,0
7,-279,0,0,0,0,0,0,0,0,0,-1,1231,1303,0,0
14,-279,0,0,0,0,0,0,0,0,0,-1,1238,1303,0,0
21,-279,0,0,0,0,0,0,0,0,0,-1,1245,1303,0,0
28,-279,0,0,0,0,0,0,0,0,0,-1,1252,1303,0,0
35,-279,0,0,0,0,0,0,0,0,0,-1,1259,1303,0,0
42,-279,0,0,0,0,0,0,0,0,0,-1,1266,1303,0,0
49,-279,0,0,0,0,0,0,0,0,0,-1,1273,1303,0,0
56,-279,0,0,0,0,0,0,0,0,0,-1,1280,1303,0,0
63,-279,0,0,0,0,0,0,0,0,0,-1,1287,1303,0,0
70,-279,0,0,0,0,0,0,0,0,0,-1,1294,1303,0,0
77,-279,0,0,0,0,0,0,0,0,0,-1,1301,1303,0,0
84,-279,0,0,0,0,0,0,0,0,0,-1,1308,1303,0,0
91,-279,0,0,0,0,0,0,0,0,0,-1,1315,1303,0,0
98,-279,0,0,0,0,0,0,0,0,0,-1,1322,1303,0,0
105,-279,0,0,0,0,0,0,0,0,0,-1,1329,1303,0,0
112,-279,0,0,0,0,0,0,0,0,0,-1,1336,1303,0,0
119,-279,0,0,0,0,0,0,0,0,0,-1,1343,1303,0,0
126,-279,0,0,0,0,0,0,0,0,0,-1,1350,1303,0,0
133,-279,0,0,0,0,0,0,0,0,0,-1,1357,1303,0,0
140,-279,0,0,0,0,0,0,0,0,0,-1,1364,1303,0,0
147,-279,0,0,0,0,0,0,0,0,0,-1,1371,1303,0,0
154,-279,0,0,0,0,0,0,0,0,0,-1,1378,1303,0,0
161,-279,0,0,0,0,0,0,0,0,0,-1,1385,1303,0,0
168,-279,0,0,0,0,0,0,0,0,0,-1,1392,1303,0,0
175,-279,0,0,0,0,0,0,0,0,0,-1,1399,1303,0,0
182,-279,0,0,0,0,0,0,0,0,0,-1,1406,1303,0,0
189,-279,0,0,0,0,0,0,0,0,0,-1,1413,1303,0,0
196,-279,0,0,0,0,0,0,0,0,0,-1,1420,1303,0,0
203,-279,0,0,0,0,0,0,0,0,0,-1,1427,1303,0,0
210,-279,0,0,0,0,0,0,0,0,0,-1,1434,1303,0,0
217,-279,0,0,0,0,0,0,0,0,0,-1,1441,1303,0,0
224,-279,0,0,0,0,0,0,0,0,0,-1,1448,1303,0,0
231,-279,0,0,0,0,0,0,0,0,0,-1,1455,1303,0,0
238,-279,0,0,0,0,0,0,0,0,0,-1,1462,1303,0,0
245,-279,0,0,0,0,0,0,0,0,0,-1,1469,1303,0,0
252,-279,0,0,0,0,0,0,0,0,0,-1,1476,1303,0,0
259,-279,0,0,0,0,0,0,0,0,0,-1,1483,1303,0,0
266,-279,0,0,0,0,0,0,0,0,0,-1,1490,1303,0,0
273,-279,0,0,0,0,0,0,0,0,0,-1,1497,1303,0,0
280,-279,0,0,0,0,0,0,0,0,0,-1,1504,1303,0,0
287,-279,0,0,0,0,0,0,0,0,0,-1,1511,1303,0,0
294,-279,0,0,0,0,0,0,0,0,0,-1,1518,1303,0,0
301,-279,0,0,0,0,0,0,0,0,0,-1,1525,1303,0,0
308,-279,0,0,0,0,0,0,0,0,0,-1,1532,1303,0,0
315,-279,0,0,0,0,0,0,0,0,0,-1,1539,1303,0,0
322,-279,0,0,0,0,0,0,0,0,0,-1,1546,1303,0,0
329,-279,0,0,0,0,0,0,0,0,0,-1,1553,1303,0,0
336,-279,0,0,0,0,0,0,0,0,0,-1,1560,1303,0,0
343,-279,0,0,0,0,0,0,0,0,0,-1,1567,1303,0,0
350,-279,0,0,0,0,0,0,0,0,0,-1,1574,1303,0,0
357,-279,0,0,0,0,0,0,0,0,0,-1,1581,1303,0,0
364,-279,0,0,0,0,0,0,0,0,0,-1,1588,1303,0,0
371,-279,0,0,0,0,0,0,0,0,0,-1,1595,1303,0,0
378,-279,0,0,0,0,0,0,0,0,0,-1,1602,1303,0,0
385,-279,0,0,0,0,0,0,0,0,0,-1,1609,1303,0,0
392,-279,0,0,0,0,0,0,0,0,0,-1,1616,1303,0,0
399,-279,0,0,0,0,0,0,0,0,0,-1,1623,1303,0,0
406,-279,0,0,0,0,0,0,0,0,0,-1,1630,1303,0,0
413,-279,0,0,0,0,0,0,0,0,0,-1,1637,1303,0,0
420,-279,0,0,0,0,0,0,0,0,0,-1,1644,1303,0,0
427,-279,0,0,0,0,0,0,0,0,0,-1,1651,1303,0,0
434,-279,0,0,0,0,0,0,0,0,0,-1,1658,1303,0,0
441,-279,0,0,0,0,0,0,0,0,0,-1,1665,1303,0,0
448,-279,0,0,0,0,0,0,0,0,0,-1,1672,1303,0,0
455,-279,0,0,0,0,0,0,0,0,0,-1,1679,1303,0,0
462,-279,0,0,0,0,0,0,0,0,0,-1,1686,1303,0,0
469,-279,0,0,0,0,0,0,0,0,0,-1,1693,1303,0,0
476,-279,0,0,0,0,0,0,0,0,0,-1,1700,1303,0,0
483,-279,0,0,0,0,0,0,0,0,0,-1,1707,1303,0,0
490,-279,0,0,0,0,0,0,0,0,0,-1,1714,1303,0,0
497,-279,0,0,0,0,0,0,0,0,0,-1,1721,1303,0,0
504,-279,0,0,0,0,0,0,0,0,0,-1,1728,1303,0,0
511,-279,0,0,0,0,0,0,0,0,0,-1,1735,1303,0,0
518,-279,0,0,0,0,0,0,0,0,0,-1,1742,1303,0,0
525,-279,0,0,0,0,0,0,0,0,0,-1,1749,1303,0,0
532,-279,0,0,0,0,0,0,0,0,0,-1,1756,1303,0,0
539,-279,0,0,0,0,0,0,0,0,0,-1,1763,1303,0,0
546,-279,0,0,0,0,0,0,0,0,0,-1,1770,1303,0,0
553,-279,0,0,0,0,0,0,0,0,0,-1,1777,1303,0,0
560,-279,0,0,0,0,0,0,0,0,0,-1,1784,1303,0,0
567,-279,0,0,0,0,0,0,0,0,0,-1,1791,1303,0,0
574,-279,0,0,0,0,0,0,0,0,0,-1,1798,1303,0,0
581,-279,0,0,0,0,0,0,0,0,0,-1,1805,1303,0,0
588,-279,0,0,0,0,0,0,0,0,0,-1,1812,1303,0,0
595,-279,0,0,0,0,0,0,0,0,0,-1,1819,1303,0,0
602,-279,18.6726,2.54846,0,0,0,0,0,0,0,-1,1826,1303,18.6726,-2.54844
609,-279,18.6975,2.57837,0,0,0,0,0,0,0,-1,1833,1303,18.6975,-2.57831
616,-279,18.6672,2.54211,-0.00075317,0.015673,0.00194177,0.0158994,-0.000979591,1.45472,0.0109408,0.0478629,1840,1303,18.6673,-2.54207
623,-279,18.6563,2.55615,-0.00527761,0.0133883,0.00405516,0.0142312,-0.00612052,1.36585,0.0120571,0.0464728,1847,1303,18.6562,-2.55615
630,-279,18.621,2.57593,-0.00819698,0.0106606,0.0045486,0.0117005,-0.0092368,1.34606,0.012116,0.0441475,1854,1303,18.621,-2.57588
637,-279,18.5267,2.64844,-0.0098682,0.00828607,0.00436928,0.00928291,-0.010865,1.34649,0.0116444,0.0447548,1861,1303,18.5268,-2.6485
644,-279,18.4119,2.65234,0,0,0,0,0,0,0,-1,1868,1303,18.4119,-2.65232
651,-279,16.1204,0.829834,0,0,0,0,0,0,0,-1,1875,1303,16.1203,-0.82985
658,-279,16.051,5.48853,0,0,0,0,0,0,0,-1,1882,1303,16.051,-5.48856
665,-279,15.4456,5.00061,0,0,0,0,0,0,0,-1,1889,1303,15.4456,-5.00057
672,-279,15.2567,5.03113,-0.0104701,-0.000188369,0.0024403,0.000361423,-0.0110198,1.3492,0.00746995,0.0410412,1896,1303,15.2567,-5.03109
679,-279,15.0555,5.07922,-0.00930853,-0.000864185,0.00159301,-0.000573664,-0.00959905,1.39041,0.00621697,0.0255732,1903,1303,15.0555,-5.07926
686,-279,15.0139,4.922,-0.00767149,-0.00142557,0.00126543,-0.00117893,-0.00791813,1.3783,0.00493296,0.0201757,1910,1303,15.0139,-4.92206
693,-279,15.0038,4.77429,-0.00490018,-0.000958871,0.00158791,-0.000398728,-0.00546033,1.23167,0.00351486,0.0157793,1917,1303,15.0037,-4.77429
700,-279,15.0249,4.63098,-0.00203081,-0.00065859,0.00207649,0.000842208,-0.0035316,0.94496,0.00267963,0.0110104,1924,1303,15.0249,-4.63095
707,-279,15.0266,4.47327,0.00110888,-0.000195722,0.00167925,0.00225807,-0.00134491,0.600144,0.00210234,0.00890893,1931,1303,15.0266,-4.47326
714,-279,15.0321,4.28687,0.00496875,0.000197293,0.00107338,0.00519909,-3.30529e-05,0.211393,0.00347713,0.00985818,1938,1303,15.0321,-4.28687
721,-279,15.0321,4.12183,0.00941701,0.000646433,0.000920823,0.00951264,0.000550799,0.103487,0.00616637,0.0110293,1945,1303,15.0321,-4.12181
728,-279,15.0276,3.97278,0.0150424,0.000968604,0.000834273,0.0150917,0.000919322,0.0590031,0.00976909,0.0116006,1952,1303,15.0275,-3.97281
735,-279,15.0378,3.82886,0.022357,0.000946178,0.00102107,0.0224056,0.000897593,0.0475456,0.014647,0.0121685,1959,1303,15.0378,-3.82885
742,-279,14.9397,3.6084,0.0319679,0.000607261,0.00144981,0.0320348,0.000540378,0.0460991,0.0211787,0.0238255,1966,1303,14.9397,-3.6084
749,-279,15.8234,4.47668,0,0,0,0,0,0,0,-1,1973,1303,15.8233,-4.47673
756,-279,16.6177,4.21545,0,0,0,0,0,0,0,-1,1980,1303,16.6176,-4.21548
763,-279,17.4119,3.95422,0,0,0,0,0,0,0,-1,1987,1303,17.4119,-3.95424
770,-279,18.0061,4.23743,0,0,0,0,0,0,0,-1,1994,1303,18.006,-4.23748
777,-279,18.7954,4.15039,0,0,0,0,0,0,0,-1,2001,1303,18.7954,-4.15034
784,-279,0,0,0,0,0,0,0,0,0,-1,2008,1303,0,0
791,-279,0,0,0,0,0,0,0,0,0,-1,2015,1303,0,0
798,-279,0,0,0,0,0,0,0,0,0,-1,2022,1303,0,0
805,-279,0,0,0,0,0,0,0,0,0,-1,2029,1303,0,0
812,-279,0,0,0,0,0,0,0,0,0,-1,2036,1303,0,0
-700,-286,0,0,0,0,0,0,0,0,0,-1,524,1310,0,0
-693,-286,0,0,0,0,0,0,0,0,0,-1,531,1310,0,0
-686,-286,0,0,0,0,0,0,0,0,0,-1,538,1310,0,0
-679,-286,0,0,0,0,0,0,0,0,0,-1,545,1310,0,0
-672,-286,0,0,0,0,0,0,0,0,0,-1,552,1310,0,0
-665,-286,0,0,0,0,0,0,0,0,0,-1,559,1310,0,0
-658,-286,-5.64221,-1.91479,-0.00338646,0.0346247,0.00814839,0.0362978,-0.00505957,1.36828,0.0260493,0.0451124,566,1310,-5.64222,1.91479
-651,-286,-5.64618,-1.27502,-0.00749456,0.0294019,-0.000704927,0.0294154,-0.00750802,-1.5517,0.0225338,0.0453818,573,1310,-5.64621,1.27501
-644,-286,-4.82104,-0.921875,0,0,0,0,0,0,0,-1,580,1310,-4.82105,0.921909
-637,-286,-4.22565,-0.253784,-0.0122208,0.0187886,-0.00790609,0.020688,-0.0141201,-1.33502,0.0202154,0.0438077,587,1310,-4.22566,0.253764
-630,-286,-5.16492,-0.369507,-0.0131416,0.0143077,-0.00830856,0.0166267,-0.0154605,-1.29861,0.0185297,0.0439923,594,1310,-5.1649,0.36954
-623,-286,-5.61469,-0.443848,-0.0132631,0.0105258,-0.00763803,0.012767,-0.0155043,-1.28538,0.016348,0.044827,601,1310,-5.61471,0.443828
-616,-286,-7.34338,0.419678,-0.0126464,0.00744389,-0.00633575,0.00927504,-0.0144776,-1.28944,0.0138228,0.0493728,608,1310,-7.34337,-0.419667
-609,-286,-7.51257,1.11084,-0.0113374,0.00509156,-0.00509334,0.00654247,-0.0127883,-1.29328,0.0113532,0.0368829,615,1310,-7.51257,-1.11089
-602,-286,-7.48022,1.57715,-0.0096144,0.0027406,-0.00425859,0.00406624,-0.01094,-1.26902,0.00896174,0.0142282,622,1310,-7.48021,-1.57717
-595,-286,-7.49585,1.81677,-0.00741792,0.0014146,-0.00372813,0.00277781,-0.00878113,-1.22024,0.00696712,0.0107562,629,1310,-7.49586,-1.8168
-588,-286,-7.45679,2.0083,-0.00691351,0.000247144,-0.00214875,0.000842445,-0.00750881,-1.30053,0.00530902,0.0113848,636,1310,-7.45679,-2.00827
-581,-286,-7.4635,2.16931,-0.00521133,-0.000845246,0.000236878,-0.000832432,-0.00522414,1.51675,0.00324111,0.0130743,643,1310,-7.46351,-2.16934
-574,-286,-7.50983,2.33972,-0.00184603,-0.00165688,0.000810646,-0.000935309,-0.0025676,0.843468,0.0015005,0.0132689,650,1310,-7.50985,-2.33974
-567,-286,-7.49115,2.54993,-0.000366514,-0.00134609,-0.000388185,-0.000231338,-0.00148126,-0.335094,0.000920141,0.0124357,657,1310,-7.49114,-2.54997
-560,-286,-7.46051,2.75281,0.000279111,-0.00207974,-0.00132452,0.000873212,-0.00267384,-0.42164,0.00213404,0.0125587,664,1310,-7.46049,-2.75276
-553,-286,-7.45563,2.94324,-3.34963e-05,-0.00239227,-0.00223812,0.00131697,-0.00374273,-0.542909,0.00303106,0.00957221,671,1310,-7.45562,-2.94321
-546,-286,-7.45245,3.14673,-0.00154421,-0.00281589,-0.00296583,0.000853175,-0.00521328,-0.679802,0.00379204,0.0115414,678,1310,-7.45245,-3.14669
-539,-286,-7.40704,3.3269,-0.00470451,-0.0029683,-0.00378381,4.57119e-05,-0.00771852,-0.898159,0.00516099,0.0299423,685,1310,-7.40704,-3.32686
-532,-286,-7.3197,3.50427,0,0,0,0,0,0,0,-1,692,1310,-7.3197,-3.50429
-525,-286,-2.96338,-5.57642,0,0,0,0,0,0,0,-1,699,1310,-2.96336,5.57641
-518,-286,-4.62006,-4.80054,0,0,0,0,0,0,0,-1,706,1310,-4.62008,4.80053
-511,-286,-6.14545,-3.8634,0,0,0,0,0,0,0,-1,713,1310,-6.14543,3.86343
-504,-286,-10.1031,0.806763,0,0,0,0,0,0,0,-1,720,1310,-10.1031,-0.806735
-497,-286,-10.5203,0.92334,0,0,0,0,0,0,0,-1,727,1310,-10.5203,-0.923347
-490,-286,-10.9566,1.02002,-0.0232211,-0.00834426,-0.00424267,-0.00721937,-0.024346,-1.31162,0.0144389,0.0438902,734,1310,-10.9566,-1.02006
-483,-286,-11.4019,1.04114,-0.025168,-0.00911022,-0.00203526,-0.00885628,-0.0254219,-1.44666,0.0149006,0.044163,741,1310,-11.4019,-1.0412
-476,-286,-11.5714,1.01086,-0.0264021,-0.00932002,0.00203744,-0.00908037,-0.0266417,1.45371,0.0156392,0.0412155,748,1310,-11.5714,-1.01091
-469,-286,0,0,0,0,0,0,0,0,0,-1,755,1310,0,0
-462,-286,0,0,0,0,0,0,0,0,0,-1,762,1310,0,0
-455,-286,0,0,0,0,0,0,0,0,0,-1,769,1310,0,0
-448,-286,0,0,0,0,0,0,0,0,0,-1,776,1310,0,0
-441,-286,0,0,0,0,0,0,0,0,0,-1,783,1310,0,0
-434,-286,0,0,0,0,0,0,0,0,0,-1,790,1310,0,0
-427,-286,0,0,0,0,0,0,0,0,0,-1,797,1310,0,0
-420,-286,0,0,0,0,0,0,0,0,0,-1,804,1310,0,0
-413,-286,0,0,0,0,0,0,0,0,0,-1,811,1310,0,0
-406,-286,0,0,0,0,0,0,0,0,0,-1,818,1310,0,0
-399,-286,0,0,0,0,0,0,0,0,0,-1,825,1310,0,0
-392,-286,0,0,0,0,0,0,0,0,0,-1,832,1310,0,0
-385,-286,0,0,0,0,0,0,0,0,0,-1,839,1310,0,0
-378,-286,0,0,0,0,0,0,0,0,0,-1,846,1310,0,0
-371,-286,0,0,0,0,0,0,0,0,0,-1,853,1310,0,0
-364,-286,0,0,0,0,0,0,0,0,0,-1,860,1310,0,0
-357,-286,0,0,0,0,0,0,0,0,0,-1,867,1310,0,0
-350,-286,0,0,0,0,0,0,0,0,0,-1,874,1310,0,0
-343,-286,0,0,0,0,0,0,0,0,0,-1,881,1310,0,0
-336,-286,0,0,0,0,0,0,0,0,0,-1,888,1310,0,0
-329,-286,0,0,0,0,0,0,0,0,0,-1,895,1310,0,0
-322,-286,0,0,0,0,0,0,0,0,0,-1,902,1310,0,0
-315,-286,0,0,0,0,0,0,0,0,0,-1,909,1310,0,0
-308,-286,0,0,0,0,0,0,0,0,0,-1,916,1310,0,0
-301,-286,0,0,0,0,0,0,0,0,0,-1,923,1310,0,0
-294,-286,0,0,0,0,0,0,0,0,0,-1,930,1310,0,0
-287,-286,0,0,0,0,0,0,0,0,0,-1,937,1310,0,0
-280,-286,0,0,0,0,0,0,0,0,0,-1,944,1310,0,0
-273,-286,0,0,0,0,0,0,0,0,0,-1,951,1310,0,0
-266,-286,0,0,0,0,0,0,0,0,0,-1,958,1310,0,0
-259,-286,0,0,0,0,0,0,0,0,0,-1,965,1310,0,0
-252,-286,0,0,0,0,0,0,0,0,0,-1,972,1310,0,0
-245,-286,0,0,0,0,0,0,0,0,0,-1,979,1310,0,0
-238,-286,0,0,0,0,0,0,0,0,0,-1,986,1310,0,0
-231,-286,0,0,0,0,0,0,0,0,0,-1,993,1310,0,0
-224,-286,0,0,0,0,0,0,0,0,0,-1,1000,1310,0,0
-217,-286,0,0,0,0,0,0,0,0,0,-1,1007,1310,0,0
-210,-286,0,0,0,0,0,0,0,0,0,-1,1014,1310,0,0
-203,-286,0,0,0,0,0,0,0,0,0,-1,1021,1310,0,0
-196,-286,0,0,0,0,0,0,0,0,0,-1,1028,1310,0,0
-189,-286,0,0,0,0,0,0,0,0,0,-1,1035,1310,0,0
-182,-286,0,0,0,0,0,0,0,0,0,-1,1042,1310,0,0
-175,-286,0,0,0,0,0,0,0,0,0,-1,1049,1310,0,0
-168,-286,0,0,0,0,0,0,0,0,0,-1,1056,1310,0,0
-161,-286,0,0,0,0,0,0,0,0,0,-1,1063,1310,0,0
-154,-286,0,0,0,0,0,0,0,0,0,-1,1070,1310,0,0
-147,-286,0,0,0,0,0,0,0,0,0,-1,1077,1310,0,0
-140,-286,0,0,0,0,0,0,0,0,0,-1,1084,1310,0,0
-133,-286,0,0,0,0,0,0,0,0,0,-1,1091,1310,0,0
-126,-286,0,0,0,0,0,0,0,0,0,-1,1098,1310,0,0
-119,-286,0,0,0,0,0,0,0,0,0,-1,1105,1310,0,0
-112,-286,0,0,0,0,0,0,0,0,0,-1,1112,1310,0,0
-105,-286,0,0,0,0,0,0,0,0,0,-1,1119,1310,0,0
-98,-286,0,0,0,0,0,0,0,0,0,-1,1126,1310,0,0
-91,-286,0,0,0,0,0,0,0,0,0,-1,1133,1310,0,0
-84,-286,0,0,0,0,0,0,0,0,0,-1,1140,1310,0,0
-77,-286,0,0,0,0,0,0,0,0,0,-1,1147,1310,0,0
-70,-286,0,0,0,0,0,0,0,0,0,-1,1154,1310,0,0
-63,-286,0,0,0,0,0,0,0,0,0,-1,1161,1310,0,0
-56,-286,0,0,0,0,0,0,0,0,0,-1,1168,1310,0,0
-49,-286,0,0,0,0,0,0,0,0,0,-1,1175,1310,0,0
-42,-286,0,0,0,0,0,0,0,0,0,-1,1182,1310,0,0
-35,-286,0,0,0,0,0,0,0,0,0,-1,1189,1310,0,0
-28,-286,0,0,0,0,0,0,0,0,0,-1,1196,1310,0,0
-21,-286,0,0,0,0,0,0,0,0,0,-1,1203,1310,0,0
-14,-286,0,0,0,0,0,0,0,0,0,-1,1210,1310,0,0
-7,-286,0,0,0,0,0,0,0,0,0,-1,1217,1310,0,0
0,-286,0,0,0,0,0,0,0,0,0,-1,1224,1310,0,0
7,-286,0,0,0,0,0,0,0,0,0,-1,1231,1310,0,0
14,-286,0,0,0,0,0,0,0,0,0,-1,1238,1310,0,0
21,-286,0,0,0,0,0,0,0,0,0,-1,1245,1310,0,0
28,-286,0,0,0,0,0,0,0,0,0,-1,1252,1310,0,0
35,-286,0,0,0,0,0,0,0,0,0,-1,1259,1310,0,0
42,-286,0,0,0,0,0,0,0,0,0,-1,1266,1310,0,0
49,-286,0,0,0,0,0,0,0,0,0,-1,1273,1310,0,0
56,-286,0,0,0,0,0,0,0,0,0,-1,1280,1310,0,0
63,-286,0,0,0,0,0,0,0,0,0,-1,1287,1310,0,0
70,-286,0,0,0,0,0,0,0,0,0,-1,1294,1310,0,0
77,-286,0,0,0,0,0,0,0,0,0,-1,1301,1310,0,0
84,-286,0,0,0,0,0,0,0,0,0,-1,1308,1310,0,0
91,-286,0,0,0,0,0,0,0,0,0,-1,1315,1310,0,0
98,-286,0,0,0,0,0,0,0,0,0,-1,1322,1310,0,0
105,-286,0,0,0,0,0,0,0,0,0,-1,1329,1310,0,0
112,-286,0,0,0,0,0,0,0,0,0,-1,1336,1310,0,0
119,-286,0,0,0,0,0,0,0,0,0,-1,1343,1310,0,0
126,-286,0,0,0,0,0,0,0,0,0,-1,1350,1310,0,0
133,-286,0,0,0,0,0,0,0,0,0,-1,1357,1310,0,0
140,-286,0,0,0,0,0,0,0,0,0,-1,1364,1310,0,0
147,-286,0,0,0,0,0,0,0,0,0,-1,1371,1310,0,0
154,-286,0,0,0,0,0,0,0,0,0,-1,1378,1310,0,0
161,-286,0,0,0,0,0,0,0,0,0,-1,1385,1310,0,0
168,-286,0,0,0,0,0,0,0,0,0,-1,1392,1310,0,0
175,-286,0,0,0,0,0,0,0,0,0,-1,1399,1310,0,0
182,-286,0,0,0,0,0,0,0,0,0,-1,1406,1310,0,0
189,-286,0,0,0,0,0,0,0,0,0,-1,1413,1310,0,0
196,-286,0,0,0,0,0,0,0,0,0,-1,1420,1310,0,0
203,-286,0,0,0,0,0,0,0,0,0,-1,1427,1310,0,0
210,-286,0,0,0,0,0,0,0,0,0,-1,1434,1310,0,0
217,-286,0,0,0,0,0,0,0,0,0,-1,1441,1310,0,0
224,-286,0,0,0,0,0,0,0,0,0,-1,1448,1310,0,0
231,-286,0,0,0,0,0,0,0,0,0,-1,1455,1310,0,0
238,-286,0,0,0,0,0,0,0,0,0,-1,1462,1310,0,0
245,-286,0,0,0,0,0,0,0,0,0,-1,1469,1310,0,0
252,-286,0,0,0,0,0,0,0,0,0,-1,1476,1310,0,0
259,-286,0,0,0,0,0,0,0,0,0,-1,1483,1310,0,0
266,-286,0,0,0,0,0,0,0,0,0,-1,1490,1310,0,0
273,-286,0,0,0,0,0,0,0,0,0,-1,1497,1310,0,0
280,-286,0,0,0,0,0,0,0,0,0,-1,1504,1310,0,0
287,-286,0,0,0,0,0,0,0,0,0,-1,1511,1310,0,0
294,-286,0,0,0,0,0,0,0,0,0,-1,1518,1310,0,0
301,-286,0,0,0,0,0,0,0,0,0,-1,1525,1310,0,0
308,-286,0,0,0,0,0,0,0,0,0,-1,1532,1310,0,0
315,-286,0,0,0,0,0,0,0,0,0,-1,1539,1310,0,0
322,-286,0,0,0,0,0,0,0,0,0,-1,1546,1310,0,0
329,-286,0,0,0,0,0,0,0,0,0,-1,1553,1310,0,0
336,-286,0,0,0,0,0,0,0,0,0,-1,1560,1310,0,0
343,-286,0,0,0,0,0,0,0,0,0,-1,1567,1310,0,0
350,-286,0,0,0,0,0,0,0,0,0,-1,1574,1310,0,0
357,-286,0,0,0,0,0,0,0,0,0,-1,1581,1310,0,0
364,-286,0,0,0,0,0,0,0,0,0,-1,1588,1310,0,0
371,-286,0,0,0,0,0,0,0,0,0,-1,1595,1310,0,0
378,-286,0,0,0,0,0,0,0,0,0,-1,1602,1310,0,0
385,-286,0,0,0,0,0,0,0,0,0,-1,1609,1310,0,0
392,-286,0,0,0,0,0,0,0,0,0,-1,1616,1310,0,0
399,-286,0,0,0,0,0,0,0,0,0,-1,1623,1310,0,0
406,-286,0,0,0,0,0,0,0,0,0,-1,1630,1310,0,0
413,-286,0,0,0,0,0,0,0,0,0,-1,1637,1310,0,0
420,-286,0,0,0,0,0,0,0,0,0,-1,1644,1310,0,0
427,-286,0,0,0,0,0,0,0,0,0,-1,1651,1310,0,0
434,-286,0,0,0,0,0,0,0,0,0,-1,1658,1310,0,0
441,-286,0,0,0,0,0,0,0,0,0,-1,1665,1310,0,0
448,-286,0,0,0,0,0,0,0,0,0,-1,1672,1310,0,0
455,-286,0,0,0,0,0,0,0,0,0,-1,1679,1310,0,0
462,-286,0,0,0,0,0,0,0,0,0,-1,1686,1310,0,0
469,-286,0,0,0,0,0,0,0,0,0,-1,1693,1310,0,0
476,-286,0,0,0,0,0,0,0,0,0,-1,1700,1310,0,0
483,-286,0,0,0,0,0,0,0,0,0,-1,1707,1310,0,0
490,-286,0,0,0,0,0,0,0,0,0,-1,1714,1310,0,0
497,-286,0,0,0,0,0,0,0,0,0,-1,1721,1310,0,0
504,-286,0,0,0,0,0,0,0,0,0,-1,1728,1310,0,0
511,-286,0,0,0,0,0,0,0,0,0,-1,1735,1310,0,0
518,-286,0,0,0,0,0,0,0,0,0,-1,1742,1310,0,0
525,-286,0,0,0,0,0,0,0,0,0,-1,1749,1310,0,0
532,-286,0,0,0,0,0,0,0,0,0,-1,1756,1310,0,0
539,-286,0,0,0,0,0,0,0,0,0,-1,1763,1310,0,0
546,-286,0,0,0,0,0,0,0,0,0,-1,1770,1310,0,0
553,-286,0,0,0,0,0,0,0,0,0,-1,1777,1310,0,0
560,-286,0,0,0,0,0,0,0,0,0,-1,1784,1310,0,0
567,-286,0,0,0,0,0,0,0,0,0,-1,1791,1310,0,0
574,-286,0,0,0,0,0,0,0,0,0,-1,1798,1310,0,0
581,-286,0,0,0,0,0,0,0,0,0,-1,1805,1310,0,0
588,-286,0,0,0,0,0,0,0,0,0,-1,1812,1310,0,0
595,-286,18.7543,2.61792,0.0136869,0.0123156,-0.0223523,0.0353641,-0.0093616,-0.770066,0.0272382,0.0379175,1819,1310,18.7543,-2.61792
602,-286,18.7869,2.46436,0.00970345,0.0179012,-0.0102301,0.0248229,0.00278166,-0.975939,0.0157037,0.0431476,1826,1310,18.7869,-2.4644
609,-286,18.7601,2.53271,0,0,0,0,0,0,0,-1,1833,1310,18.7601,-2.53272
616,-286,18.6821,2.47754,-0.000381168,0.0197289,0.00606983,0.021419,-0.0020712,1.29924,0.0150174,0.0471114,1840,1310,18.6821,-2.47753
623,-286,18.7145,2.38416,-0.00450676,0.0165051,0.0081605,0.0193021,-0.00730378,1.24059,0.015873,0.0457716,1847,1310,18.7144,-2.38416
630,-286,18.9342,2.55164,-0.00719587,0.0130592,0.0083542,0.0160603,-0.0101969,1.22593,0.0152851,0.0415935,1854,1310,18.9342,-2.55159
637,-286,18.7859,2.48901,-0.00884277,0.0101125,0.00774585,0.0128751,-0.0116054,1.2282,0.0141402,0.0430471,1861,1310,18.7859,-2.48905
644,-286,18.5553,2.46338,0,0,0,0,0,0,0,-1,1868,1310,18.5554,-2.46338
651,-286,15.4819,5.33093,0,0,0,0,0,0,0,-1,1875,1310,15.4819,-5.33097
658,-286,15.484,5.38757,-0.0102024,0.00288804,0.00617315,0.00533991,-0.0126543,1.19272,0.0106712,0.047161,1882,1310,15.484,-5.38754
665,-286,15.234,5.35059,-0.0103707,0.000951862,0.00465334,0.00261886,-0.0120377,1.2268,0.00902563,0.0494375,1889,1310,15.234,-5.35064
672,-286,14.9752,5.24768,-0.0100373,-0.000407869,0.00375915,0.000885823,-0.011331,1.23935,0.00786592,0.0299077,1896,1310,14.9752,-5.24766
679,-286,14.844,5.13098,-0.00872527,-0.00115412,0.00234499,-0.000486656,-0.00939274,1.2935,0.00610607,0.0215053,1903,1310,14.844,-5.13104
686,-286,14.8325,4.94458,-0.00704584,-0.00173721,0.00151513,-0.00133522,-0.00744783,1.31145,0.00458541,0.0204464,1910,1310,14.8325,-4.94463
693,-286,14.8234,4.77698,-0.0043698,-0.00102044,0.00162213,-0.000363628,-0.00502661,1.18607,0.00323668,0.0160629,1917,1310,14.8234,-4.77703
700,-286,14.8458,4.61511,-0.00156773,-0.000362448,0.00193064,0.00105742,-0.0029876,0.936679,0.0024224,0.0112208,1924,1310,14.8458,-4.61509
707,-286,14.8511,4.48474,0.00172822,0.000481459,0.00155864,0.00278352,-0.000573842,0.595166,0.0020736,0.00890901,1931,1310,14.8511,-4.48473
714,-286,14.8469,4.32153,0.00577711,0.00122916,0.000995609,0.00598552,0.00102075,0.206342,0.00369736,0.00877003,1938,1310,14.8469,-4.32156
721,-286,14.8491,4.15637,0.0103321,0.00203807,0.000908885,0.0104306,0.00193964,0.107877,0.00640582,0.0105154,1945,1310,14.8491,-4.15634
728,-286,14.8319,4.00452,0.0162147,0.0027948,0.000955999,0.0162825,0.00272704,0.0707611,0.0100698,0.0129248,1952,1310,14.8319,-4.00449
735,-286,14.8506,3.84033,0.023979,0.00334578,0.00118987,0.0240474,0.00327739,0.0574139,0.0150585,0.0148999,1959,1310,14.8506,-3.84039
742,-286,14.8878,3.64954,0.0343556,0.00376064,0.00154435,0.0344333,0.00368288,0.050307,0.0218317,0.0254326,1966,1310,14.8878,-3.64952
749,-286,15.7445,4.54114,0,0,0,0,0,0,0,-1,1973,1310,15.7444,-4.54115
756,-286,16.7249,4.46118,0.0660312,0.00423855,0.00192719,0.0660913,0.00417851,0.0311476,0.0427362,0.0462197,1980,1310,16.7248,-4.46117
763,-286,17.7233,4.35303,0.0888787,0.00412096,0.00207872,0.0889297,0.00407001,0.0245058,0.0579774,0.0485438,1987,1310,17.7233,-4.35304
770,-286,18.2069,4.38147,0,0,0,0,0,0,0,-1,1994,1310,18.2069,-4.38142
777,-286,0,0,0,0,0,0,0,0,0,-1,2001,1310,0,0
784,-286,0,0,0,0,0,0,0,0,0,-1,2008,1310,0,0
791,-286,0,0,0,0,0,0,0,0,0,-1,2015,1310,0,0
798,-286,0,0,0,0,0,0,0,0,0,-1,2022,1310,0,0
805,-286,0,0,0,0,0,0,0,0,0,-1,2029,1310,0,0
812,-286,0,0,0,0,0,0,0,0,0,-1,2036,1310,0,0
-700,-293,0,0,0,0,0,0,0,0,0,-1,524,1317,0,0
-693,-293,0,0,0,0,0,0,0,0,0,-1,531,1317,0,0
-686,-293,0,0,0,0,0,0,0,0,0,-1,538,1317,0,0
-679,-293,0,0,0,0,0,0,0,0,0,-1,545,1317,0,0
-672,-293,0,0,0,0,0,0,0,0,0,-1,552,1317,0,0
-665,-293,0,0,0,0,0,0,0,0,0,-1,559,1317,0,0
-658,-293,0,0,0,0,0,0,0,0,0,-1,566,1317,0,0
-651,-293,-6.21582,-1.13977,-0.00357124,0.0301726,-0.00501047,0.0309008,-0.0042995,-1.42646,0.0221731,0.0450202,573,1317,-6.2158,1.13978
-644,-293,-6.74945,-0.341553,-0.00725662,0.0240705,-0.0114986,0.027838,-0.0110241,-1.25417,0.0231264,0.044734,580,1317,-6.74943,0.34154
-637,-293,-2.97571,-0.404053,-0.00973377,0.0187633,-0.0138402,0.0243785,-0.015349,-1.18537,0.0231334,0.0447601,587,1317,-2.97571,0.404039
-630,-293,-4.54663,-0.735718,-0.0112023,0.0142372,-0.0137992,0.0202847,-0.0172498,-1.15776,0.0216941,0.0476075,594,1317,-4.54661,0.73577
-623,-293,-7.25708,1.19592,-0.0117872,0.0104892,-0.0124109,0.016027,-0.017325,-1.1511,0.0192607,0.0448249,601,1317,-7.25707,-1.19592
-616,-293,-7.12885,1.34375,-0.011572,0.007445,-0.0103436,0.0119865,-0.0161135,-1.15708,0.0162817,0.0445398,608,1317,-7.12883,-1.34374
-609,-293,-7.19098,1.53149,-0.0106527,0.00509393,-0.00825459,0.00862794,-0.0141867,-1.16628,0.0133018,0.0378321,615,1317,-7.19101,-1.53146
-602,-293,-7.26331,1.55872,-0.00925966,0.00285357,-0.00673033,0.00585124,-0.0122573,-1.15178,0.0106708,0.0257037,622,1317,-7.26333,-1.5587
-595,-293,-7.31213,1.80994,-0.00727112,0.00160695,-0.00567462,0.00437252,-0.0100367,-1.11731,0.00853072,0.0143138,629,1317,-7.31213,-1.81
-588,-293,-7.2818,1.98779,-0.00714061,0.000390272,-0.00350884,0.00177172,-0.00852206,-1.19573,0.00635481,0.0155352,636,1317,-7.2818,-1.98784
-581,-293,-7.2981,2.15283,-0.00584961,-0.000782685,-0.000350123,-0.000758606,-0.00587369,-1.50213,0.00368901,0.0184868,643,1317,-7.2981,-2.15278
-574,-293,-7.32135,2.34888,-0.00226732,-0.00150907,0.000647662,-0.00113772,-0.00263866,1.0502,0.00152823,0.0163285,650,1317,-7.32136,-2.34892
-567,-293,-7.31805,2.57727,-0.000664501,-0.000847772,-0.000461559,-0.000285569,-0.0012267,-0.687405,0.000741183,0.0149922,657,1317,-7.31806,-2.57732
-560,-293,-7.30194,2.78406,-4.55605e-05,-0.0013013,-0.00129415,0.000764991,-0.00211185,-0.559546,0.00172055,0.0153009,664,1317,-7.30194,-2.78407
-553,-293,-7.2699,2.96204,-0.000294211,-0.00150316,-0.00209243,0.0012793,-0.00307667,-0.644783,0.0025853,0.0109505,671,1317,-7.26988,-2.96199
-546,-293,-7.26599,3.16663,-0.00159196,-0.00186577,-0.00285878,0.00113319,-0.00459092,-0.761472,0.00350004,0.0102603,678,1317,-7.26599,-3.16663
-539,-293,-7.2348,3.32629,-0.00459796,-0.00199624,-0.00374053,0.00066317,-0.00725738,-0.952743,0.00507378,0.0225056,685,1317,-7.23478,-3.32627
-532,-293,-7.10736,3.28662,0,0,0,0,0,0,0,-1,692,1317,-7.10738,-3.28661
-525,-293,-6.87915,3.21228,0,0,0,0,0,0,0,-1,699,1317,-6.87915,-3.21228
-518,-293,-3.59393,-4.70056,0,0,0,0,0,0,0,-1,706,1317,-3.59396,4.70054
-511,-293,-5.82178,-4.65649,0,0,0,0,0,0,0,-1,713,1317,-5.82179,4.65645
-504,-293,-6.94104,-3.22485,0,0,0,0,0,0,0,-1,720,1317,-6.94103,3.22479
-497,-293,-10.3057,1.03027,0,0,0,0,0,0,0,-1,727,1317,-10.3057,-1.03028
-490,-293,-10.5186,0.712158,0,0,0,0,0,0,0,-1,734,1317,-10.5185,-0.712164
-483,-293,-11.2968,1.26416,0,0,0,0,0,0,0,-1,741,1317,-11.2967,-1.26416
-476,-293,-11.6852,1.19958,0,0,0,0,0,0,0,-1,748,1317,-11.6852,-1.19959
-469,-293,0,0,0,0,0,0,0,0,0,-1,755,1317,0,0
-462,-293,0,0,0,0,0,0,0,0,0,-1,762,1317,0,0
-455,-293,0,0,0,0,0,0,0,0,0,-1,769,1317,0,0
-448,-293,0,0,0,0,0,0,0,0,0,-1,776,1317,0,0
-441,-293,0,0,0,0,0,0,0,0,0,-1,783,1317,0,0
-434,-293,0,0,0,0,0,0,0,0,0,-1,790,1317,0,0
-427,-293,0,0,0,0,0,0,0,0,0,-1,797,1317,0,0
-420,-293,0,0,0,0,0,0,0,0,0,-1,804,1317,0,0
-413,-293,0,0,0,0,0,0,0,0,0,-1,811,1317,0,0
-406,-293,0,0,0,0,0,0,0,0,0,-1,818,1317,0,0
-399,-293,0,0,0,0,0,0,0,0,0,-1,825,1317,0,0
-392,-293,0,0,0,0,0,0,0,0,0,-1,832,1317,0,0
-385,-293,0,0,0,0,0,0,0,0,0,-1,839,1317,0,0
-378,-293,0,0,0,0,0,0,0,0,0,-1,846,1317,0,0
-371,-293,0,0,0,0,0,0,0,0,0,-1,853,1317,0,0
-364,-293,0,0,0,0,0,0,0,0,0,-1,860,1317,0,0
-357,-293,0,0,0,0,0,0,0,0,0,-1,867,1317,0,0
-350,-293,0,0,0,0,0,0,0,0,0,-1,874,1317,0,0
-343,-293,0,0,0,0,0,0,0,0,0,-1,881,1317,0,0
-336,-293,0,0,0,0,0,0,0,0,0,-1,888,1317,0,0
-329,-293,0,0,0,0,0,0,0,0,0,-1,895,1317,0,0
-322,-293,0,0,0,0,0,0,0,0,0,-1,902,1317,0,0
-315,-293,0,0,0,0,0,0,0,0,0,-1,909,1317,0,0
-308,-293,0,0,0,0,0,0,0,0,0,-1,916,1317,0,0
-301,-293,0,0,0,0,0,0,0,0,0,-1,923,1317,0,0
-294,-293,0,0,0,0,0,0,0,0,0,-1,930,1317,0,0
-287,-293,0,0,0,0,0,0,0,0,0,-1,937,1317,0,0
-280,-293,0,0,0,0,0,0,0,0,0,-1,944,1317,0,0
-273,-293,0,0,0,0,0,0,0,0,0,-1,951,1317,0,0
-266,-293,0,0,0,0,0,0,0,0,0,-1,958,1317,0,0
-259,-293,0,0,0,0,0,0,0,0,0,-1,965,1317,0,0
-252,-293,0,0,0,0,0,0,0,0,0,-1,972,1317,0,0
-245,-293,0,0,0,0,0,0,0,0,0,-1,979,1317,0,0
-238,-293,0,0,0,0,0,0,0,0,0,-1,986,1317,0,0
-231,-293,0,0,0,0,0,0,0,0,0,-1,993,1317,0,0
-224,-293,0,0,0,0,0,0,0,0,0,-1,1000,1317,0,0
-217,-293,0,0,0,0,0,0,0,0,0,-1,1007,1317,0,0
-210,-293,0,0,0,0,0,0,0,0,0,-1,1014,1317,0,0
-203,-293,0,0,0,0,0,0,0,0,0,-1,1021,1317,0,0
-196,-293,0,0,0,0,0,0,0,0,0,-1,1028,1317,0,0
-189,-293,0,0,0,0,0,0,0,0,0,-1,1035,1317,0,0
-182,-293,0,0,0,0,0,0,0,0,0,-1,1042,1317,0,0
-175,-293,0,0,0,0,0,0,0,0,0,-1,1049,1317,0,0
-168,-293,0,0,0,0,0,0,0,0,0,-1,1056,1317,0,0
-161,-293,0,0,0,0,0,0,0,0,0,-1,1063,1317,0,0
-154,-293,0,0,0,0,0,0,0,0,0,-1,1070,1317,0,0
-147,-293,0,0,0,0,0,0,0,0,0,-1,1077,1317,0,0
-140,-293,0,0,0,0,0,0,0,0,0,-1,1084,1317,0,0
-133,-293,0,0,0,0,0,0,0,0,0,-1,1091,1317,0,0
-126,-293,0,0,0,0,0,0,0,0,0,-1,1098,1317,0,0
-119,-293,0,0,0,0,0,0,0,0,0,-1,1105,1317,0,0
-112,-293,0,0,0,0,0,0,0,0,0,-1,1112,1317,0,0
-105,-293,0,0,0,0,0,0,0,0,0,-1,1119,1317,0,0
-98,-293,0,0,0,0,0,0,0,0,0,-1,1126,1317,0,0
-91,-293,0,0,0,0,0,0,0,0,0,-1,1133,1317,0,0
-84,-293,0,0,0,0,0,0,0,0,0,-1,1140,1317,0,0
-77,-293,0,0,0,0,0,0,0,0,0,-1,1147,1317,0,0
-70,-293,0,0,0,0,0,0,0,0,0,-1,1154,1317,0,0
-63,-293,0,0,0,0,0,0,0,0,0,-1,1161,1317,0,0
-56,-293,0,0,0,0,0,0,0,0,0,-1,1168,1317,0,0
-49,-293,0,0,0,0,0,0,0,0,0,-1,1175,1317,0,0
-42,-293,0,0,0,0,0,0,0,0,0,-1,1182,1317,0,0
-35,-293,0,0,0,0,0,0,0,0,0,-1,1189,1317,0,0
-28,-293,0,0,0,0,0,0,0,0,0,-1,1196,1317,0,0
-21,-293,0,0,0,0,0,0,0,0,0,-1,1203,1317,0,0
-14,-293,0,0,0,0,0,0,0,0,0,-1,1210,1317,0,0
-7,-293,0,0,0,0,0,0,0,0,0,-1,1217,1317,0,0
0,-293,0,0,0,0,0,0,0,0,0,-1,1224,1317,0,0
7,-293,0,0,0,0,0,0,0,0,0,-1,1231,1317,0,0
14,-293,0,0,0,0,0,0,0,0,0,-1,1238,1317,0,0
21,-293,0,0,0,0,0,0,0,0,0,-1,1245,1317,0,0
28,-293,0,0,0,0,0,0,0,0,0,-1,1252,1317,0,0
35,-293,0,0,0,0,0,0,0,0,0,-1,1259,1317,0,0
42,-293,0,0,0,0,0,0,0,0,0,-1,1266,1317,0,0
49,-293,0,0,0,0,0,0,0,0,0,-1,1273,1317,0,0
56,-293,0,0,0,0,0,0,0,0,0,-1,1280,1317,0,0
63,-293,0,0,0,0,0,0,0,0,0,-1,1287,1317,0,0
70,-293,0,0,0,0,0,0,0,0,0,-1,1294,1317,0,0
77,-293,0,0,0,0,0,0,0,0,0,-1,1301,1317,0,0
84,-293,0,0,0,0,0,0,0,0,0,-1,1308,1317,0,0
91,-293,0,0,0,0,0,0,0,0,0,-1,1315,1317,0,0
98,-293,0,0,0,0,0,0,0,0,0,-1,1322,1317,0,0
105,-293,0,0,0,0,0,0,0,0,0,-1,1329,1317,0,0
112,-293,0,0,0,0,0,0,0,0,0,-1,1336,1317,0,0
119,-293,0,0,0,0,0,0,0,0,0,-1,1343,1317,0,0
126,-293,0,0,0,0,0,0,0,0,0,-1,1350,1317,0,0
133,-293,0,0,0,0,0,0,0,0,0,-1,1357,1317,0,0
140,-293,0,0,0,0,0,0,0,0,0,-1,1364,1317,0,0
147,-293,0,0,0,0,0,0,0,0,0,-1,1371,1317,0,0
154,-293,0,0,0,0,0,0,0,0,0,-1,1378,1317,0,0
161,-293,0,0,0,0,0,0,0,0,0,-1,1385,1317,0,0
168,-293,0,0,0,0,0,0,0,0,0,-1,1392,1317,0,0
175,-293,0,0,0,0,0,0,0,0,0,-1,1399,1317,0,0
182,-293,0,0,0,0,0,0,0,0,0,-1,1406,1317,0,0
189,-293,0,0,0,0,0,0,0,0,0,-1,1413,1317,0,0
196,-293,0,0,0,0,0,0,0,0,0,-1,1420,1317,0,0
203,-293,0,0,0,0,0,0,0,0,0,-1,1427,1317,0,0
210,-293,0,0,0,0,0,0,0,0,0,-1,1434,1317,0,0
217,-293,0,0,0,0,0,0,0,0,0,-1,1441,1317,0,0
224,-293,0,0,0,0,0,0,0,0,0,-1,1448,1317,0,0
231,-293,0,0,0,0,0,0,0,0,0,-1,1455,1317,0,0
238,-293,0,0,0,0,0,0,0,0,0,-1,1462,1317,0,0
245,-293,0,0,0,0,0,0,0,0,0,-1,1469,1317,0,0
252,-293,0,0,0,0,0,0,0,0,0,-1,1476,1317,0,0
259,-293,0,0,0,0,0,0,0,0,0,-1,1483,1317,0,0
266,-293,0,0,0,0,0,0,0,0,0,-1,1490,1317,0,0
273,-293,0,0,0,0,0,0,0,0,0,-1,1497,1317,0,0
280,-293,0,0,0,0,0,0,0,0,0,-1,1504,1317,0,0
287,-293,0,0,0,0,0,0,0,0,0,-1,1511,1317,0,0
294,-293,0,0,0,0,0,0,0,0,0,-1,1518,1317,0,0
301,-293,0,0,0,0,0,0,0,0,0,-1,1525,1317,0,0
308,-293,0,0,0,0,0,0,0,0,0,-1,1532,1317,0,0
315,-293,0,0,0,0,0,0,0,0,0,-1,1539,1317,0,0
322,-293,0,0,0,0,0,0,0,0,0,-1,1546,1317,0,0
329,-293,0,0,0,0,0,0,0,0,0,-1,1553,1317,0,0
336,-293,0,0,0,0,0,0,0,0,0,-1,1560,1317,0,0
343,-293,0,0,0,0,0,0,0,0,0,-1,1567,1317,0,0
350,-293,0,0,0,0,0,0,0,0,0,-1,1574,1317,0,0
357,-293,0,0,0,0,0,0,0,0,0,-1,1581,1317,0,0
364,-293,0,0,0,0,0,0,0,0,0,-1,1588,1317,0,0
371,-293,0,0,0,0,0,0,0,0,0,-1,1595,1317,0,0
378,-293,0,0,0,0,0,0,0,0,0,-1,1602,1317,0,0
385,-293,0,0,0,0,0,0,0,0,0,-1,1609,1317,0,0
392,-293,0,0,0,0,0,0,0,0,0,-1,1616,1317,0,0
399,-293,0,0,0,0,0,0,0,0,0,-1,1623,1317,0,0
406,-293,0,0,0,0,0,0,0,0,0,-1,1630,1317,0,0
413,-293,0,0,0,0,0,0,0,0,0,-1,1637,1317,0,0
420,-293,0,0,0,0,0,0,0,0,0,-1,1644,1317,0,0
427,-293,0,0,0,0,0,0,0,0,0,-1,1651,1317,0,0
434,-293,0,0,0,0,0,0,0,0,0,-1,1658,1317,0,0
441,-293,0,0,0,0,0,0,0,0,0,-1,1665,1317,0,0
448,-293,0,0,0,0,0,0,0,0,0,-1,1672,1317,0,0
455,-293,0,0,0,0,0,0,0,0,0,-1,1679,1317,0,0
462,-293,0,0,0,0,0,0,0,0,0,-1,1686,1317,0,0
469,-293,0,0,0,0,0,0,0,0,0,-1,1693,1317,0,0
476,-293,0,0,0,0,0,0,0,0,0,-1,1700,1317,0,0
483,-293,0,0,0,0,0,0,0,0,0,-1,1707,1317,0,0
490,-293,0,0,0,0,0,0,0,0,0,-1,1714,1317,0,0
497,-293,0,0,0,0,0,0,0,0,0,-1,1721,1317,0,0
504,-293,0,0,0,0,0,0,0,0,0,-1,1728,1317,0,0
511,-293,0,0,0,0,0,0,0,0,0,-1,1735,1317,0,0
518,-293,0,0,0,0,0,0,0,0,0,-1,1742,1317,0,0
525,-293,0,0,0,0,0,0,0,0,0,-1,1749,1317,0,0
532,-293,0,0,0,0,0,0,0,0,0,-1,1756,1317,0,0
539,-293,0,0,0,0,0,0,0,0,0,-1,1763,1317,0,0
546,-293,0,0,0,0,0,0,0,0,0,-1,1770,1317,0,0
553,-293,0,0,0,0,0,0,0,0,0,-1,1777,1317,0,0
560,-293,0,0,0,0,0,0,0,0,0,-1,1784,1317,0,0
567,-293,0,0,0,0,0,0,0,0,0,-1,1791,1317,0,0
574,-293,0,0,0,0,0,0,0,0,0,-1,1798,1317,0,0
581,-293,0,0,0,0,0,0,0,0,0,-1,1805,1317,0,0
588,-293,0,0,0,0,0,0,0,0,0,-1,1812,1317,0,0
595,-293,18.8424,2.60303,0.0116125,0.0208699,-0.0204375,0.0371962,-0.00471389,-0.896761,0.0265089,0.0458591,1819,1317,18.8424,-2.60298
602,-293,19.0594,2.17078,0.00812002,0.02594,-0.00607047,0.0278114,0.00624861,-1.27176,0.0168488,0.0490574,1826,1317,19.0594,-2.17073
609,-293,18.8302,2.49878,0,0,0,0,0,0,0,-1,1833,1317,18.8302,-2.49882
616,-293,19.1791,2.13818,-0.000353303,0.0249027,0.011177,0.0291386,-0.00458923,1.20854,0.0211224,0.0493087,1840,1317,19.179,-2.13817
623,-293,19.2371,2.20105,-0.00376224,0.0206495,0.0131425,0.0263799,-0.00949259,1.15963,0.0214623,0.046367,1847,1317,19.2371,-2.201
630,-293,19.3931,2.44971,-0.00610458,0.0164382,0.0130156,0.0223846,-0.0120509,1.14225,0.0201775,0.0425519,1854,1317,19.3931,-2.4497
637,-293,19.5851,2.3396,0,0,0,0,0,0,0,-1,1861,1317,19.5851,-2.33964
644,-293,18.8424,3.10864,0,0,0,0,0,0,0,-1,1868,1317,18.8424,-3.1087
651,-293,14.9885,5.8656,0,0,0,0,0,0,0,-1,1875,1317,14.9885,-5.86556
658,-293,14.8451,5.82532,-0.00935087,0.00378526,0.0089554,0.00832299,-0.0138886,1.1018,0.0129574,0.0410449,1882,1317,14.8451,-5.82532
665,-293,14.8868,5.36328,-0.00968001,0.00134761,0.00672937,0.0045336,-0.012866,1.12862,0.0104226,0.0342818,1889,1317,14.8868,-5.36331
672,-293,14.701,5.2948,-0.00930261,-0.000266239,0.00521857,0.00211829,-0.0116871,1.14219,0.00858509,0.0166748,1896,1317,14.7011,-5.29481
679,-293,14.6915,5.11877,-0.0078436,-0.00112504,0.00312071,0.000100831,-0.00906947,1.1965,0.00608021,0.0120203,1903,1317,14.6915,-5.11879
686,-293,14.6934,4.95764,-0.00620441,-0.00174595,0.00170792,-0.0011669,-0.00678346,1.24392,0.00418789,0.0144176,1910,1317,14.6934,-4.95768
693,-293,14.6938,4.78992,-0.00377639,-0.00080907,0.0016031,-0.000108431,-0.00447703,1.15876,0.00294921,0.0119573,1917,1317,14.6939,-4.78986
700,-293,14.6874,4.60474,-0.00116145,0.000112406,0.00185872,0.0014403,-0.00248934,0.950463,0.00229556,0.0102479,1924,1317,14.6874,-4.60471
707,-293,14.6929,4.47742,0.00213733,0.00128247,0.00167743,0.00344093,-2.11332e-05,0.660647,0.00230103,0.01084,1931,1317,14.6929,-4.4774
714,-293,14.6854,4.32288,0.00620693,0.00234776,0.00135229,0.00663362,0.00192108,0.305639,0.00394133,0.00773939,1938,1317,14.6854,-4.32284
721,-293,14.699,4.15088,0.0107252,0.00355155,0.00159737,0.0110648,0.00321194,0.209487,0.00657291,0.00870356,1945,1317,14.6989,-4.15093
728,-293,14.692,3.98474,0.0166737,0.00480068,0.00209276,0.0170318,0.0044426,0.16946,0.0102014,0.0106737,1952,1317,14.692,-3.9848
735,-293,14.712,3.80017,0.0246713,0.00600665,0.00278468,0.0250779,0.00560005,0.14499,0.0151997,0.0147704,1959,1317,14.7121,-3.80016
742,-293,14.781,3.59229,0.0355754,0.00724384,0.00358192,0.0360212,0.006798,0.123833,0.0220995,0.0257549,1966,1317,14.781,-3.5923
749,-293,15.3361,3.11511,0.0503189,0.00846856,0.00427497,0.0507512,0.00803635,0.100762,0.0314989,0.0383781,1973,1317,15.3361,-3.11514
756,-293,16.8806,4.40149,0.0700988,0.00960305,0.00461474,0.0704488,0.00925305,0.0756983,0.0442055,0.0429181,1980,1317,16.8807,-4.40143
763,-293,18.2903,4.40906,0.0964858,0.0105473,0.00418534,0.0966891,0.010344,0.0485484,0.061303,0.0487124,1987,1317,18.2902,-4.40906
770,-293,19.5178,4.65686,0,0,0,0,0,0,0,-1,1994,1317,19.5179,-4.6569
777,-293,0,0,0,0,0,0,0,0,0,-1,2001,1317,0,0
784,-293,0,0,0,0,0,0,0,0,0,-1,2008,1317,0,0
791,-293,0,0,0,0,0,0,0,0,0,-1,2015,1317,0,0
798,-293,0,0,0,0,0,0,0,0,0,-1,2022,1317,0,0
805,-293,0,0,0,0,0,0,0,0,0,-1,2029,1317,0,0
812,-293,0,0,0,0,0,0,0,0,0,-1,2036,1317,0,0
-700,-300,0,0,0,0,0,0,0,0,0,-1,524,1324,0,0
-693,-300,0,0,0,0,0,0,0,0,0,-1,531,1324,0,0
-686,-300,0,0,0,0,0,0,0,0,0,-1,538,1324,0,0
-679,-300,0,0,0,0,0,0,0,0,0,-1,545,1324,0,0
-672,-300,0,0,0,0,0,0,0,0,0,-1,552,1324,0,0
-665,-300,0,0,0,0,0,0,0,0,0,-1,559,1324,0,0
-658,-300,0,0,0,0,0,0,0,0,0,-1,566,1324,0,0
-651,-300,-6.5509,-0.890625,0.000107557,0.0306673,-0.0137782,0.035962,-0.00518714,-1.20391,0.0258776,0.0467523,573,1324,-6.5509,0.890685
-644,-300,-7.07312,-0.131592,-0.00454623,0.0243353,-0.0205082,0.0349768,-0.0151878,-1.09215,0.0297042,0.0467664,580,1324,-7.07311,0.131617
-637,-300,-1.74646,-0.616821,-0.00771818,0.0190843,-0.0219495,0.0314002,-0.0200341,-1.05947,0.0299363,0.0441902,587,1324,-1.74645,0.616831
-630,-300,-1.87567,-0.0684814,-0.00970254,0.0146406,-0.0206793,0.0264645,-0.0215264,-1.05139,0.0277564,0.0475739,594,1324,-1.87568,0.0684497
-623,-300,-6.62677,1.755,0,0,0,0,0,0,0,-1,601,1324,-6.62679,-1.75501
-616,-300,-6.96399,1.61743,0,0,0,0,0,0,0,-1,608,1324,-6.96396,-1.61738
-609,-300,-7.02435,1.79126,-0.0102087,0.0055274,-0.0116413,0.0117102,-0.0163915,-1.08257,0.0162994,0.0425796,615,1324,-7.02433,-1.79121
-602,-300,-7.00403,1.58789,-0.00911429,0.00328026,-0.00924665,0.00821433,-0.0140484,-1.08063,0.0129997,0.0315346,622,1324,-7.00405,-1.58794
-595,-300,-7.10291,1.79468,-0.00733438,0.00202846,-0.00755506,0.00623493,-0.0115409,-1.06277,0.0104141,0.0172045,629,1324,-7.10291,-1.79465
-588,-300,-7.08191,1.99255,-0.00748063,0.000660372,-0.0047627,0.00285503,-0.00967529,-1.139,0.00758319,0.0192939,636,1324,-7.08191,-1.9925
-581,-300,-7.10846,2.17395,-0.00648124,-0.000678036,-0.000879799,-0.000547586,-0.00661169,-1.4236,0.00423707,0.0197647,643,1324,-7.10848,-2.17391
-574,-300,-7.1178,2.38635,-0.00269687,-0.00140166,0.0004988,-0.00123183,-0.0028667,1.24264,0.00166053,0.0153699,650,1324,-7.11783,-2.3863
-567,-300,-7.12061,2.60059,-0.000959897,-0.000525329,-0.000508614,-0.00018953,-0.0012957,-0.987268,0.000808064,0.0145951,657,1324,-7.12062,-2.60053
-560,-300,-7.11395,2.80212,-0.000332767,-0.000755963,-0.001242,0.00071553,-0.00180426,-0.701024,0.00149938,0.0137622,664,1324,-7.11395,-2.80212
-553,-300,-7.08026,2.98828,-0.000516548,-0.000886474,-0.00189769,0.00120517,-0.00260819,-0.736818,0.00225077,0.0104191,671,1324,-7.08024,-2.98823
-546,-300,-7.07794,3.1731,-0.00158346,-0.00119327,-0.00263327,0.00125212,-0.00402885,-0.822374,0.00318637,0.00883865,678,1324,-7.07795,-3.17308
-539,-300,-7.04639,3.3656,-0.00433548,-0.001283,-0.00351744,0.00102505,-0.00664353,-0.990093,0.00480727,0.0136944,685,1324,-7.04641,-3.36559
-532,-300,-7.04932,3.45508,0,0,0,0,0,0,0,-1,692,1324,-7.04932,-3.45513
-525,-300,-6.80267,3.49805,0,0,0,0,0,0,0,-1,699,1324,-6.80266,-3.4981
-518,-300,-6.67615,3.42712,0,0,0,0,0,0,0,-1,706,1324,-6.67614,-3.42707
-511,-300,-5.34784,-5.34741,0,0,0,0,0,0,0,-1,713,1324,-5.34782,5.34747
-504,-300,-10.4125,-0.448853,0,0,0,0,0,0,0,-1,720,1324,-10.4125,0.448827
-497,-300,-10.5855,0.0638428,0,0,0,0,0,0,0,-1,727,1324,-10.5855,-0.0638039
-490,-300,-10.5836,0.383911,0,0,0,0,0,0,0,-1,734,1324,-10.5836,-0.383956
-483,-300,-11.9475,1.52161,-0.0254924,-0.0119672,-0.00838705,-0.00795597,-0.0295036,-1.12469,0.0176261,0.0439921,741,1324,-11.9475,-1.52156
-476,-300,-11.7147,1.474,-0.0276591,-0.0127258,-0.00737161,-0.00970003,-0.0306849,-1.1813,0.0181109,0.0433629,748,1324,-11.7147,-1.47394
-469,-300,0,0,0,0,0,0,0,0,0,-1,755,1324,0,0
-462,-300,0,0,0,0,0,0,0,0,0,-1,762,1324,0,0
-455,-300,0,0,0,0,0,0,0,0,0,-1,769,1324,0,0
-448,-300,0,0,0,0,0,0,0,0,0,-1,776,1324,0,0
-441,-300,0,0,0,0,0,0,0,0,0,-1,783,1324,0,0
-434,-300,0,0,0,0,0,0,0,0,0,-1,790,1324,0,0
-427,-300,0,0,0,0,0,0,0,0,0,-1,797,1324,0,0
-420,-300,0,0,0,0,0,0,0,0,0,-1,804,1324,0,0
-413,-300,0,0,0,0,0,0,0,0,0,-1,811,1324,0,0
-406,-300,0,0,0,0,0,0,0,0,0,-1,818,1324,0,0
-399,-300,0,0,0,0,0,0,0,0,0,-1,825,1324,0,0
-392,-300,0,0,0,0,0,0,0,0,0,-1,832,1324,0,0
-385,-300,0,0,0,0,0,0,0,0,0,-1,839,1324,0,0
-378,-300,0,0,0,0,0,0,0,0,0,-1,846,1324,0,0
-371,-300,0,0,0,0,0,0,0,0,0,-1,853,1324,0,0
-364,-300,0,0,0,0,0,0,0,0,0,-1,860,1324,0,0
-357,-300,0,0,0,0,0,0,0,0,0,-1,867,1324,0,0
-350,-300,0,0,0,0,0,0,0,0,0,-1,874,1324,0,0
-343,-300,0,0,0,0,0,0,0,0,0,-1,881,1324,0,0
-336,-300,0,0,0,0,0,0,0,0,0,-1,888,1324,0,0
-329,-300,0,0,0,0,0,0,0,0,0,-1,895,1324,0,0
-322,-300,0,0,0,0,0,0,0,0,0,-1,902,1324,0,0
-315,-300,0,0,0,0,0,0,0,0,0,-1,909,1324,0,0
-308,-300,0,0,0,0,0,0,0,0,0,-1,916,1324,0,0
-301,-300,0,0,0,0,0,0,0,0,0,-1,923,1324,0,0
-294,-300,0,0,0,0,0,0,0,0,0,-1,930,1324,0,0
-287,-300,0,0,0,0,0,0,0,0,0,-1,937,1324,0,0
-280,-300,0,0,0,0,0,0,0,0,0,-1,944,1324,0,0
-273,-300,0,0,0,0,0,0,0,0,0,-1,951,1324,0,0
-266,-300,0,0,0,0,0,0,0,0,0,-1,958,1324,0,0
-259,-300,0,0,0,0,0,0,0,0,0,-1,965,1324,0,0
-252,-300,0,0,0,0,0,0,0,0,0,-1,972,1324,0,0
-245,-300,0,0,0,0,0,0,0,0,0,-1,979,1324,0,0
-238,-300,0,0,0,0,0,0,0,0,0,-1,986,1324,0,0
-231,-300,0,0,0,0,0,0,0,0,0,-1,993,1324,0,0
-224,-300,0,0,0,0,0,0,0,0,0,-1,1000,1324,0,0
-217,-300,0,0,0,0,0,0,0,0,0,-1,1007,1324,0,0
-210,-300,0,0,0,0,0,0,0,0,0,-1,1014,1324,0,0
-203,-300,0,0,0,0,0,0,0,0,0,-1,1021,1324,0,0
-196,-300,0,0,0,0,0,0,0,0,0,-1,1028,1324,0,0
-189,-300,0,0,0,0,0,0,0,0,0,-1,1035,1324,0,0
-182,-300,0,0,0,0,0,0,0,0,0,-1,1042,1324,0,0
-175,-300,0,0,0,0,0,0,0,0,0,-1,1049,1324,0,0
-168,-300,0,0,0,0,0,0,0,0,0,-1,1056,1324,0,0
-161,-300,0,0,0,0,0,0,0,0,0,-1,1063,1324,0,0
-154,-300,0,0,0,0,0,0,0,0,0,-1,1070,1324,0,0
-147,-300,0,0,0,0,0,0,0,0,0,-1,1077,1324,0,0
-140,-300,0,0,0,0,0,0,0,0,0,-1,1084,1324,0,0
-133,-300,0,0,0,0,0,0,0,0,0,-1,1091,1324,0,0
-126,-300,0,0,0,0,0,0,0,0,0,-1,1098,1324,0,0
-119,-300,0,0,0,0,0,0,0,0,0,-1,1105,1324,0,0
-112,-300,0,0,0,0,0,0,0,0,0,-1,1112,1324,0,0
-105,-300,0,0,0,0,0,0,0,0,0,-1,1119,1324,0,0
-98,-300,0,0,0,0,0,0,0,0,0,-1,1126,1324,0,0
-91,-300,0,0,0,0,0,0,0,0,0,-1,1133,1324,0,0
-84,-300,0,0,0,0,0,0,0,0,0,-1,1140,1324,0,0
-77,-300,0,0,0,0,0,0,0,0,0,-1,1147,1324,0,0
-70,-300,0,0,0,0,0,0,0,0,0,-1,1154,1324,0,0
-63,-300,0,0,0,0,0,0,0,0,0,-1,1161,1324,0,0
-56,-300,0,0,0,0,0,0,0,0,0,-1,1168,1324,0,0
-49,-300,0,0,0,0,0,0,0,0,0,-1,1175,1324,0,0
-42,-300,0,0,0,0,0,0,0,0,0,-1,1182,1324,0,0
-35,-300,0,0,0,0,0,0,0,0,0,-1,1189,1324,0,0
-28,-300,0,0,0,0,0,0,0,0,0,-1,1196,1324,0,0
-21,-300,0,0,0,0,0,0,0,0,0,-1,1203,1324,0,0
-14,-300,0,0,0,0,0,0,0,0,0,-1,1210,1324,0,0
-7,-300,0,0,0,0,0,0,0,0,0,-1,1217,1324,0,0
0,-300,0,0,0,0,0,0,0,0,0,-1,1224,1324,0,0
7,-300,0,0,0,0,0,0,0,0,0,-1,1231,1324,0,0
14,-300,0,0,0,0,0,0,0,0,0,-1,1238,1324,0,0
21,-300,0,0,0,0,0,0,0,0,0,-1,1245,1324,0,0
28,-300,0,0,0,0,0,0,0,0,0,-1,1252,1324,0,0
35,-300,0,0,0,0,0,0,0,0,0,-1,1259,1324,0,0
42,-300,0,0,0,0,0,0,0,0,0,-1,1266,1324,0,0
49,-300,0,0,0,0,0,0,0,0,0,-1,1273,1324,0,0
56,-300,0,0,0,0,0,0,0,0,0,-1,1280,1324,0,0
63,-300,0,0,0,0,0,0,0,0,0,-1,1287,1324,0,0
70,-300,0,0,0,0,0,0,0,0,0,-1,1294,1324,0,0
77,-300,0,0,0,0,0,0,0,0,0,-1,1301,1324,0,0
84,-300,0,0,0,0,0,0,0,0,0,-1,1308,1324,0,0
91,-300,0,0,0,0,0,0,0,0,0,-1,1315,1324,0,0
98,-300,0,0,0,0,0,0,0,0,0,-1,1322,1324,0,0
105,-300,0,0,0,0,0,0,0,0,0,-1,1329,1324,0,0
112,-300,0,0,0,0,0,0,0,0,0,-1,1336,1324,0,0
119,-300,0,0,0,0,0,0,0,0,0,-1,1343,1324,0,0
126,-300,0,0,0,0,0,0,0,0,0,-1,1350,1324,0,0
133,-300,0,0,0,0,0,0,0,0,0,-1,1357,1324,0,0
140,-300,0,0,0,0,0,0,0,0,0,-1,1364,1324,0,0
147,-300,0,0,0,0,0,0,0,0,0,-1,1371,1324,0,0
154,-300,0,0,0,0,0,0,0,0,0,-1,1378,1324,0,0
161,-300,0,0,0,0,0,0,0,0,0,-1,1385,1324,0,0
168,-300,0,0,0,0,0,0,0,0,0,-1,1392,1324,0,0
175,-300,0,0,0,0,0,0,0,0,0,-1,1399,1324,0,0
182,-300,0,0,0,0,0,0,0,0,0,-1,1406,1324,0,0
189,-300,0,0,0,0,0,0,0,0,0,-1,1413,1324,0,0
196,-300,0,0,0,0,0,0,0,0,0,-1,1420,1324,0,0
203,-300,0,0,0,0,0,0,0,0,0,-1,1427,1324,0,0
210,-300,0,0,0,0,0,0,0,0,0,-1,1434,1324,0,0
217,-300,0,0,0,0,0,0,0,0,0,-1,1441,1324,0,0
224,-300,0,0,0,0,0,0,0,0,0,-1,1448,1324,0,0
231,-300,0,0,0,0,0,0,0,0,0,-1,1455,1324,0,0
238,-300,0,0,0,0,0,0,0,0,0,-1,1462,1324,0,0
245,-300,0,0,0,0,0,0,0,0,0,-1,1469,1324,0,0
252,-300,0,0,0,0,0,0,0,0,0,-1,1476,1324,0,0
259,-300,0,0,0,0,0,0,0,0,0,-1,1483,1324,0,0
266,-300,0,0,0,0,0,0,0,0,0,-1,1490,1324,0,0
273,-300,0,0,0,0,0,0,0,0,0,-1,1497,1324,0,0
280,-300,0,0,0,0,0,0,0,0,0,-1,1504,1324,0,0
287,-300,0,0,0,0,0,0,0,0,0,-1,1511,1324,0,0
294,-300,0,0,0,0,0,0,0,0,0,-1,1518,1324,0,0
301,-300,0,0,0,0,0,0,0,0,0,-1,1525,1324,0,0
308,-300,0,0,0,0,0,0,0,0,0,-1,1532,1324,0,0
315,-300,0,0,0,0,0,0,0,0,0,-1,1539,1324,0,0
322,-300,0,0,0,0,0,0,0,0,0,-1,1546,1324,0,0
329,-300,0,0,0,0,0,0,0,0,0,-1,1553,1324,0,0
336,-300,0,0,0,0,0,0,0,0,0,-1,1560,1324,0,0
343,-300,0,0,0,0,0,0,0,0,0,-1,1567,1324,0,0
350,-300,0,0,0,0,0,0,0,0,0,-1,1574,1324,0,0
357,-300,0,0,0,0,0,0,0,0,0,-1,1581,1324,0,0
364,-300,0,0,0,0,0,0,0,0,0,-1,1588,1324,0,0
371,-300,0,0,0,0,0,0,0,0,0,-1,1595,1324,0,0
378,-300,0,0,0,0,0,0,0,0,0,-1,1602,1324,0,0
385,-300,0,0,0,0,0,0,0,0,0,-1,1609,1324,0,0
392,-300,0,0,0,0,0,0,0,0,0,-1,1616,1324,0,0
399,-300,0,0,0,0,0,0,0,0,0,-1,1623,1324,0,0
406,-300,0,0,0,0,0,0,0,0,0,-1,1630,1324,0,0
413,-300,0,0,0,0,0,0,0,0,0,-1,1637,1324,0,0
420,-300,0,0,0,0,0,0,0,0,0,-1,1644,1324,0,0
427,-300,0,0,0,0,0,0,0,0,0,-1,1651,1324,0,0
434,-300,0,0,0,0,0,0,0,0,0,-1,1658,1324,0,0
441,-300,0,0,0,0,0,0,0,0,0,-1,1665,1324,0,0
448,-300,0,0,0,0,0,0,0,0,0,-1,1672,1324,0,0
455,-300,0,0,0,0,0,0,0,0,0,-1,1679,1324,0,0
462,-300,0,0,0,0,0,0,0,0,0,-1,1686,1324,0,0
469,-300,0,0,0,0,0,0,0,0,0,-1,1693,1324,0,0
476,-300,0,0,0,0,0,0,0,0,0,-1,1700,1324,0,0
483,-300,0,0,0,0,0,0,0,0,0,-1,1707,1324,0,0
490,-300,0,0,0,0,0,0,0,0,0,-1,1714,1324,0,0
497,-300,0,0,0,0,0,0,0,0,0,-1,1721,1324,0,0
504,-300,0,0,0,0,0,0,0,0,0,-1,1728,1324,0,0
511,-300,0,0,0,0,0,0,0,0,0,-1,1735,1324,0,0
518,-300,0,0,0,0,0,0,0,0,0,-1,1742,1324,0,0
525,-300,0,0,0,0,0,0,0,0,0,-1,1749,1324,0,0
532,-300,0,0,0,0,0,0,0,0,0,-1,1756,1324,0,0
539,-300,0,0,0,0,0,0,0,0,0,-1,1763,1324,0,0
546,-300,0,0,0,0,0,0,0,0,0,-1,1770,1324,0,0
553,-300,0,0,0,0,0,0,0,0,0,-1,1777,1324,0,0
560,-300,0,0,0,0,0,0,0,0,0,-1,1784,1324,0,0
567,-300,0,0,0,0,0,0,0,0,0,-1,1791,1324,0,0
574,-300,0,0,0,0,0,0,0,0,0,-1,1798,1324,0,0
581,-300,0,0,0,0,0,0,0,0,0,-1,1805,1324,0,0
588,-300,18.8099,2.76758,0,0,0,0,0,0,0,-1,1812,1324,18.8099,-2.76756
595,-300,18.7291,2.39636,0.00901388,0.0307034,-0.0145445,0.0380012,0.00171608,-1.10575,0.0247819,0.039528,1819,1324,18.7292,-2.39633
602,-300,18.6738,1.99622,0.00641542,0.0342953,0.000244925,0.0342975,0.00641327,1.56201,0.0210554,0.0457471,1826,1324,18.6739,-1.99623
609,-300,19.6442,2.62,0.00308171,0.0337095,0.0110163,0.0372602,-0.000469033,1.25899,0.024998,0.0476417,1833,1324,19.6442,-2.62003
616,-300,19.7457,2.17542,-0.00028435,0.0299258,0.0162036,0.0369729,-0.00733145,1.16056,0.0274211,0.0477788,1840,1324,19.7457,-2.17542
623,-300,19.8295,2.25708,-0.00310366,0.0247696,0.0179055,0.033523,-0.011857,1.1161,0.0271773,0.0481883,1847,1324,19.8295,-2.25711
630,-300,19.7878,2.34216,0,0,0,0,0,0,0,-1,1854,1324,19.7878,-2.34211
637,-300,13.2562,8.01013,0,0,0,0,0,0,0,-1,1861,1324,13.2562,-8.01013
644,-300,13.879,7.40369,0,0,0,0,0,0,0,-1,1868,1324,13.879,-7.40372
651,-300,15.0282,5.60339,0,0,0,0,0,0,0,-1,1875,1324,15.0282,-5.60335
658,-300,14.7502,5.61108,-0.00876259,0.00473397,0.0115509,0.0113634,-0.015392,1.04977,0.0155055,0.0397255,1882,1324,14.7502,-5.61107
665,-300,14.5801,5.45496,-0.00918984,0.00184296,0.00867196,0.00660438,-0.0139513,1.06868,0.0121178,0.0262961,1889,1324,14.5801,-5.45498
672,-300,14.5016,5.32251,-0.00887243,-1.75667e-05,0.00656108,0.00347017,-0.0123602,1.08221,0.00960805,0.0109246,1896,1324,14.5016,-5.32252
679,-300,14.5247,5.13257,-0.00724492,-0.00101591,0.00377951,0.000767018,-0.00902785,1.13001,0.00628984,0.0118756,1903,1324,14.5247,-5.13252
686,-300,14.5498,4.97998,-0.00560704,-0.0016476,0.0018156,-0.000941114,-0.00631353,1.1997,0.00393303,0.0122528,1910,1324,14.5498,-4.97992
693,-300,14.5348,4.81494,-0.00333297,-0.000464693,0.00152749,0.000196398,-0.00399406,1.16234,0.00273053,0.0102272,1917,1324,14.5347,-4.8149
700,-300,14.5225,4.63049,-0.00087984,0.000810116,0.00183452,0.00198491,-0.00205463,1.00121,0.00233234,0.0110622,1924,1324,14.5225,-4.6305
707,-300,14.5316,4.44849,0.00232782,0.00245949,0.00190467,0.00429946,0.000487848,0.802673,0.00271832,0.00842347,1931,1324,14.5316,-4.44854
714,-300,14.5314,4.29199,0.00631374,0.00403148,0.00192442,0.00740992,0.0029353,0.51778,0.00430878,0.0101229,1938,1324,14.5314,-4.29196
721,-300,14.5531,4.13342,0.0106666,0.00586573,0.00260575,0.0118091,0.00472329,0.413193,0.00686329,0.0113202,1945,1324,14.5531,-4.13337
728,-300,14.5609,3.96521,0.0164678,0.00789956,0.00368571,0.0178351,0.0065323,0.355227,0.0104191,0.0095834,1952,1324,14.561,-3.96521
735,-300,14.5182,3.84485,0.0243878,0.0100753,0.00514327,0.0260443,0.00841875,0.311587,0.0153467,0.0153151,1959,1324,14.5182,-3.84482
742,-300,14.5718,3.66467,0.0352758,0.0124532,0.00691791,0.037209,0.01052,0.272495,0.0221484,0.0290648,1966,1324,14.5718,-3.66469
749,-300,14.6741,3.3999,0.0501327,0.0149757,0.00885077,0.0522351,0.0128732,0.233222,0.031424,0.0462844,1973,1324,14.6741,-3.39995
756,-300,17.0651,4.29431,0,0,0,0,0,0,0,-1,1980,1324,17.0651,-4.29428
763,-300,18.2333,4.15454,0,0,0,0,0,0,0,-1,1987,1324,18.2332,-4.15457
770,-300,19.4889,4.43396,0,0,0,0,0,0,0,-1,1994,1324,19.4889,-4.43394
777,-300,0,0,0,0,0,0,0,0,0,-1,2001,1324,0,0
784,-300,0,0,0,0,0,0,0,0,0,-1,2008,1324,0,0
791,-300,0,0,0,0,0,0,0,0,0,-1,2015,1324,0,0
798,-300,0,0,0,0,0,0,0,0,0,-1,2022,1324,0,0
805,-300,0,0,0,0,0,0,0,0,0,-1,2029,1324,0,0
812,-300,0,0,0,0,0,0,0,0,0,-1,2036,1324,0,0
-700,-307,0,0,0,0,0,0,0,0,0,-1,524,1331,0,0
-693,-307,0,0,0,0,0,0,0,0,0,-1,531,1331,0,0
-686,-307,0,0,0,0,0,0,0,0,0,-1,538,1331,0,0
-679,-307,0,0,0,0,0,0,0,0,0,-1,545,1331,0,0
-672,-307,0,0,0,0,0,0,0,0,0,-1,552,1331,0,0
-665,-307,0,0,0,0,0,0,0,0,0,-1,559,1331,0,0
-658,-307,0,0,0,0,0,0,0,0,0,-1,566,1331,0,0
-651,-307,-6.90179,-0.448364,0,0,0,0,0,0,0,-1,573,1331,-6.90181,0.448422
-644,-307,-7.802,0.00231934,0,0,0,0,0,0,0,-1,580,1331,-7.80199,-0.00226952
-637,-307,-0.153992,-0.796631,-0.00790617,0.0201287,-0.03208,0.04112,-0.0288975,-0.991374,0.0406294,0.0425064,587,1331,-0.154009,0.796648
-630,-307,-0.0562744,-0.44397,-0.00987507,0.0157033,-0.029031,0.0346373,-0.0288091,-0.992876,0.0366823,0.0465125,594,1331,-0.0562566,0.44398
-623,-307,-0.128662,0.223633,0,0,0,0,0,0,0,-1,601,1331,-0.128645,-0.223664
-616,-307,-6.55078,1.66541,0,0,0,0,0,0,0,-1,608,1331,-6.55077,-1.66541
-609,-307,-6.63043,1.27661,0,0,0,0,0,0,0,-1,615,1331,-6.63046,-1.27661
-602,-307,-6.71014,0.887817,0,0,0,0,0,0,0,-1,622,1331,-6.71016,-0.88782
-595,-307,-6.91266,1.78088,-0.0077229,0.00269849,-0.00957274,0.00838682,-0.0134112,-1.03464,0.0126961,0.0168737,629,1331,-6.91263,-1.78084
-588,-307,-6.89081,1.99756,-0.00792205,0.00113544,-0.0060465,0.00416115,-0.0109478,-1.10682,0.00901169,0.0162978,636,1331,-6.89082,-1.99758
-581,-307,-6.88599,2.18042,-0.00712175,-0.000369742,-0.00143553,-7.72115e-05,-0.00741428,-1.36977,0.00491732,0.0144327,643,1331,-6.88598,-2.18036
-574,-307,-6.90668,2.36853,-0.00325082,-0.00113469,0.000365583,-0.00107331,-0.0033122,1.40446,0.00195137,0.0125629,650,1331,-6.90668,-2.36847
-567,-307,-6.90155,2.58765,-0.00139444,-0.000207884,-0.000421257,-7.35379e-05,-0.00152879,-1.26208,0.000995583,0.0120901,657,1331,-6.90154,-2.58762
-560,-307,-6.8941,2.78638,-0.00073863,-0.000310599,-0.00101424,0.000511956,-0.00156118,-0.889378,0.00124698,0.0127918,664,1331,-6.8941,-2.78633
-553,-307,-6.88818,2.96167,-0.000864603,-0.000468353,-0.00145371,0.000800667,-0.00213362,-0.853126,0.00175141,0.010484,671,1331,-6.8882,-2.9617
-546,-307,-6.88177,3.15503,-0.00171863,-0.000809371,-0.00202309,0.000809538,-0.00333754,-0.895923,0.00253828,0.00986661,678,1331,-6.88175,-3.155
-539,-307,-6.84717,3.37561,-0.00414201,-0.000940844,-0.00277506,0.000662138,-0.00574499,-1.04698,0.00406871,0.0119418,685,1331,-6.8472,-3.37558
-532,-307,-6.83545,3.52795,-0.00657925,-0.00161642,-0.00357294,0.000252258,-0.00844793,-1.08891,0.00571789,0.0263904,692,1331,-6.83542,-3.52796
-525,-307,-6.8811,3.53406,-0.00840712,-0.00427044,-0.00484014,-0.00107523,-0.0116023,-0.98732,0.00740255,0.0473187,699,1331,-6.8811,-3.53411
-518,-307,-7.27881,3.755,0,0,0,0,0,0,0,-1,706,1331,-7.2788,-3.75503
-511,-307,-7.40399,3.49402,0,0,0,0,0,0,0,-1,713,1331,-7.40399,-3.49404
-504,-307,-6.11548,-4.10876,0,0,0,0,0,0,0,-1,720,1331,-6.11548,4.10882
-497,-307,-10.5424,-0.00109863,0,0,0,0,0,0,0,-1,727,1331,-10.5423,0.00113448
-490,-307,-12.1907,1.80945,0,0,0,0,0,0,0,-1,734,1331,-12.1907,-1.80945
-483,-307,-11.9358,1.66968,-0.0270677,-0.0121395,-0.0100956,-0.00704835,-0.0321588,-1.10372,0.0195187,0.0446769,741,1331,-11.9358,-1.66971
-476,-307,-11.7835,1.6095,-0.0304744,-0.0122469,-0.0105554,-0.0074152,-0.0353061,-1.14151,0.0214963,0.0437799,748,1331,-11.7835,-1.60955
-469,-307,-11.7125,1.73584,-0.034007,-0.00990232,-0.00908812,-0.00685986,-0.0370494,-1.24775,0.0227602,0.0418307,755,1331,-11.7124,-1.73588
-462,-307,0,0,0,0,0,0,0,0,0,-1,762,1331,0,0
-455,-307,0,0,0,0,0,0,0,0,0,-1,769,1331,0,0
-448,-307,0,0,0,0,0,0,0,0,0,-1,776,1331,0,0
-441,-307,0,0,0,0,0,0,0,0,0,-1,783,1331,0,0
-434,-307,0,0,0,0,0,0,0,0,0,-1,790,1331,0,0
-427,-307,0,0,0,0,0,0,0,0,0,-1,797,1331,0,0
-420,-307,0,0,0,0,0,0,0,0,0,-1,804,1331,0,0
-413,-307,0,0,0,0,0,0,0,0,0,-1,811,1331,0,0
-406,-307,0,0,0,0,0,0,0,0,0,-1,818,1331,0,0
-399,-307,0,0,0,0,0,0,0,0,0,-1,825,1331,0,0
-392,-307,0,0,0,0,0,0,0,0,0,-1,832,1331,0,0
-385,-307,0,0,0,0,0,0,0,0,0,-1,839,1331,0,0
-378,-307,0,0,0,0,0,0,0,0,0,-1,846,1331,0,0
-371,-307,0,0,0,0,0,0,0,0,0,-1,853,1331,0,0
-364,-307,0,0,0,0,0,0,0,0,0,-1,860,1331,0,0
-357,-307,0,0,0,0,0,0,0,0,0,-1,867,1331,0,0
-350,-307,0,0,0,0,0,0,0,0,0,-1,874,1331,0,0
-343,-307,0,0,0,0,0,0,0,0,0,-1,881,1331,0,0
-336,-307,0,0,0,0,0,0,0,0,0,-1,888,1331,0,0
-329,-307,0,0,0,0,0,0,0,0,0,-1,895,1331,0,0
-322,-307,0,0,0,0,0,0,0,0,0,-1,902,1331,0,0
-315,-307,0,0,0,0,0,0,0,0,0,-1,909,1331,0,0
-308,-307,0,0,0,0,0,0,0,0,0,-1,916,1331,0,0
-301,-307,0,0,0,0,0,0,0,0,0,-1,923,1331,0,0
-294,-307,0,0,0,0,0,0,0,0,0,-1,930,1331,0,0
-287,-307,0,0,0,0,0,0,0,0,0,-1,937,1331,0,0
-280,-307,0,0,0,0,0,0,0,0,0,-1,944,1331,0,0
-273,-307,0,0,0,0,0,0,0,0,0,-1,951,1331,0,0
-266,-307,0,0,0,0,0,0,0,0,0,-1,958,1331,0,0
-259,-307,0,0,0,0,0,0,0,0,0,-1,965,1331,0,0
-252,-307,0,0,0,0,0,0,0,0,0,-1,972,1331,0,0
-245,-307,0,0,0,0,0,0,0,0,0,-1,979,1331,0,0
-238,-307,0,0,0,0,0,0,0,0,0,-1,986,1331,0,0
-231,-307,0,0,0,0,0,0,0,0,0,-1,993,1331,0,0
-224,-307,0,0,0,0,0,0,0,0,0,-1,1000,1331,0,0
-217,-307,0,0,0,0,0,0,0,0,0,-1,1007,1331,0,0
-210,-307,0,0,0,0,0,0,0,0,0,-1,1014,1331,0,0
-203,-307,0,0,0,0,0,0,0,0,0,-1,1021,1331,0,0
-196,-307,0,0,0,0,0,0,0,0,0,-1,1028,1331,0,0
-189,-307,0,0,0,0,0,0,0,0,0,-1,1035,1331,0,0
-182,-307,0,0,0,0,0,0,0,0,0,-1,1042,1331,0,0
-175,-307,0,0,0,0,0,0,0,0,0,-1,1049,1331,0,0
-168,-307,0,0,0,0,0,0,0,0,0,-1,1056,1331,0,0
-161,-307,0,0,0,0,0,0,0,0,0,-1,1063,1331,0,0
-154,-307,0,0,0,0,0,0,0,0,0,-1,1070,1331,0,0
-147,-307,0,0,0,0,0,0,0,0,0,-1,1077,1331,0,0
-140,-307,0,0,0,0,0,0,0,0,0,-1,1084,1331,0,0
-133,-307,0,0,0,0,0,0,0,0,0,-1,1091,1331,0,0
-126,-307,0,0,0,0,0,0,0,0,0,-1,1098,1331,0,0
-119,-307,0,0,0,0,0,0,0,0,0,-1,1105,1331,0,0
-112,-307,0,0,0,0,0,0,0,0,0,-1,1112,1331,0,0
-105,-307,0,0,0,0,0,0,0,0,0,-1,1119,1331,0,0
-98,-307,0,0,0,0,0,0,0,0,0,-1,1126,1331,0,0
-91,-307,0,0,0,0,0,0,0,0,0,-1,1133,1331,0,0
-84,-307,0,0,0,0,0,0,0,0,0,-1,1140,1331,0,0
-77,-307,0,0,0,0,0,0,0,0,0,-1,1147,1331,0,0
-70,-307,0,0,0,0,0,0,0,0,0,-1,1154,1331,0,0
-63,-307,0,0,0,0,0,0,0,0,0,-1,1161,1331,0,0
-56,-307,0,0,0,0,0,0,0,0,0,-1,1168,1331,0,0
-49,-307,0,0,0,0,0,0,0,0,0,-1,1175,1331,0,0
-42,-307,0,0,0,0,0,0,0,0,0,-1,1182,1331,0,0
-35,-307,0,0,0,0,0,0,0,0,0,-1,1189,1331,0,0
-28,-307,0,0,0,0,0,0,0,0,0,-1,1196,1331,0,0
-21,-307,0,0,0,0,0,0,0,0,0,-1,1203,1331,0,0
-14,-307,0,0,0,0,0,0,0,0,0,-1,1210,1331,0,0
-7,-307,0,0,0,0,0,0,0,0,0,-1,1217,1331,0,0
0,-307,0,0,0,0,0,0,0,0,0,-1,1224,1331,0,0
7,-307,0,0,0,0,0,0,0,0,0,-1,1231,1331,0,0
14,-307,0,0,0,0,0,0,0,0,0,-1,1238,1331,0,0
21,-307,0,0,0,0,0,0,0,0,0,-1,1245,1331,0,0
28,-307,0,0,0,0,0,0,0,0,0,-1,1252,1331,0,0
35,-307,0,0,0,0,0,0,0,0,0,-1,1259,1331,0,0
42,-307,0,0,0,0,0,0,0,0,0,-1,1266,1331,0,0
49,-307,0,0,0,0,0,0,0,0,0,-1,1273,1331,0,0
56,-307,0,0,0,0,0,0,0,0,0,-1,1280,1331,0,0
63,-307,0,0,0,0,0,0,0,0,0,-1,1287,1331,0,0
70,-307,0,0,0,0,0,0,0,0,0,-1,1294,1331,0,0
77,-307,0,0,0,0,0,0,0,0,0,-1,1301,1331,0,0
84,-307,0,0,0,0,0,0,0,0,0,-1,1308,1331,0,0
91,-307,0,0,0,0,0,0,0,0,0,-1,1315,1331,0,0
98,-307,0,0,0,0,0,0,0,0,0,-1,1322,1331,0,0
105,-307,0,0,0,0,0,0,0,0,0,-1,1329,1331,0,0
112,-307,0,0,0,0,0,0,0,0,0,-1,1336,1331,0,0
119,-307,0,0,0,0,0,0,0,0,0,-1,1343,1331,0,0
126,-307,0,0,0,0,0,0,0,0,0,-1,1350,1331,0,0
133,-307,0,0,0,0,0,0,0,0,0,-1,1357,1331,0,0
140,-307,0,0,0,0,0,0,0,0,0,-1,1364,1331,0,0
147,-307,0,0,0,0,0,0,0,0,0,-1,1371,1331,0,0
154,-307,0,0,0,0,0,0,0,0,0,-1,1378,1331,0,0
161,-307,0,0,0,0,0,0,0,0,0,-1,1385,1331,0,0
168,-307,0,0,0,0,0,0,0,0,0,-1,1392,1331,0,0
175,-307,0,0,0,0,0,0,0,0,0,-1,1399,1331,0,0
182,-307,0,0,0,0,0,0,0,0,0,-1,1406,1331,0,0
189,-307,0,0,0,0,0,0,0,0,0,-1,1413,1331,0,0
196,-307,0,0,0,0,0,0,0,0,0,-1,1420,1331,0,0
203,-307,0,0,0,0,0,0,0,0,0,-1,1427,1331,0,0
210,-307,0,0,0,0,0,0,0,0,0,-1,1434,1331,0,0
217,-307,0,0,0,0,0,0,0,0,0,-1,1441,1331,0,0
224,-307,0,0,0,0,0,0,0,0,0,-1,1448,1331,0,0
231,-307,0,0,0,0,0,0,0,0,0,-1,1455,1331,0,0
238,-307,0,0,0,0,0,0,0,0,0,-1,1462,1331,0,0
245,-307,0,0,0,0,0,0,0,0,0,-1,1469,1331,0,0
252,-307,0,0,0,0,0,0,0,0,0,-1,1476,1331,0,0
259,-307,0,0,0,0,0,0,0,0,0,-1,1483,1331,0,0
266,-307,0,0,0,0,0,0,0,0,0,-1,1490,1331,0,0
273,-307,0,0,0,0,0,0,0,0,0,-1,1497,1331,0,0
280,-307,0,0,0,0,0,0,0,0,0,-1,1504,1331,0,0
287,-307,0,0,0,0,0,0,0,0,0,-1,1511,1331,0,0
294,-307,0,0,0,0,0,0,0,0,0,-1,1518,1331,0,0
301,-307,0,0,0,0,0,0,0,0,0,-1,1525,1331,0,0
308,-307,0,0,0,0,0,0,0,0,0,-1,1532,1331,0,0
315,-307,0,0,0,0,0,0,0,0,0,-1,1539,1331,0,0
322,-307,0,0,0,0,0,0,0,0,0,-1,1546,1331,0,0
329,-307,0,0,0,0,0,0,0,0,0,-1,1553,1331,0,0
336,-307,0,0,0,0,0,0,0,0,0,-1,1560,1331,0,0
343,-307,0,0,0,0,0,0,0,0,0,-1,1567,1331,0,0
350,-307,0,0,0,0,0,0,0,0,0,-1,1574,1331,0,0
357,-307,0,0,0,0,0,0,0,0,0,-1,1581,1331,0,0
364,-307,0,0,0,0,0,0,0,0,0,-1,1588,1331,0,0
371,-307,0,0,0,0,0,0,0,0,0,-1,1595,1331,0,0
378,-307,0,0,0,0,0,0,0,0,0,-1,1602,1331,0,0
385,-307,0,0,0,0,0,0,0,0,0,-1,1609,1331,0,0
392,-307,0,0,0,0,0,0,0,0,0,-1,1616,1331,0,0
399,-307,0,0,0,0,0,0,0,0,0,-1,1623,1331,0,0
406,-307,0,0,0,0,0,0,0,0,0,-1,1630,1331,0,0
413,-307,0,0,0,0,0,0,0,0,0,-1,1637,1331,0,0
420,-307,0,0,0,0,0,0,0,0,0,-1,1644,1331,0,0
427,-307,0,0,0,0,0,0,0,0,0,-1,1651,1331,0,0
434,-307,0,0,0,0,0,0,0,0,0,-1,1658,1331,0,0
441,-307,0,0,0,0,0,0,0,0,0,-1,1665,1331,0,0
448,-307,0,0,0,0,0,0,0,0,0,-1,1672,1331,0,0
455,-307,0,0,0,0,0,0,0,0,0,-1,1679,1331,0,0
462,-307,0,0,0,0,0,0,0,0,0,-1,1686,1331,0,0
469,-307,0,0,0,0,0,0,0,0,0,-1,1693,1331,0,0
476,-307,0,0,0,0,0,0,0,0,0,-1,1700,1331,0,0
483,-307,0,0,0,0,0,0,0,0,0,-1,1707,1331,0,0
490,-307,0,0,0,0,0,0,0,0,0,-1,1714,1331,0,0
497,-307,0,0,0,0,0,0,0,0,0,-1,1721,1331,0,0
504,-307,0,0,0,0,0,0,0,0,0,-1,1728,1331,0,0
511,-307,0,0,0,0,0,0,0,0,0,-1,1735,1331,0,0
518,-307,0,0,0,0,0,0,0,0,0,-1,1742,1331,0,0
525,-307,0,0,0,0,0,0,0,0,0,-1,1749,1331,0,0
532,-307,0,0,0,0,0,0,0,0,0,-1,1756,1331,0,0
539,-307,0,0,0,0,0,0,0,0,0,-1,1763,1331,0,0
546,-307,0,0,0,0,0,0,0,0,0,-1,1770,1331,0,0
553,-307,0,0,0,0,0,0,0,0,0,-1,1777,1331,0,0
560,-307,0,0,0,0,0,0,0,0,0,-1,1784,1331,0,0
567,-307,0,0,0,0,0,0,0,0,0,-1,1791,1331,0,0
574,-307,0,0,0,0,0,0,0,0,0,-1,1798,1331,0,0
581,-307,0,0,0,0,0,0,0,0,0,-1,1805,1331,0,0
588,-307,19.0272,3.05383,0.00620226,0.0330599,-0.0258794,0.0487871,-0.00952501,-1.02472,0.0361208,0.0411065,1812,1331,19.0272,-3.05385
595,-307,18.9204,2.45117,0.00674365,0.0400622,-0.00840672,0.0420631,0.00474268,-1.33712,0.0266025,0.0389647,1819,1331,18.9204,-2.45121
602,-307,18.5228,1.95203,0.0054808,0.0413164,0.00527622,0.0420771,0.00472011,1.42761,0.0266179,0.0434933,1826,1331,18.5228,-1.95202
609,-307,18.4847,2.25598,0.00321728,0.0387168,0.0147441,0.0440418,-0.0021077,1.22422,0.0300884,0.0422226,1833,1331,18.4847,-2.25598
616,-307,20.3116,2.27185,0.000539813,0.0337973,0.0194673,0.0427711,-0.008434,1.13886,0.0317016,0.0472446,1840,1331,20.3116,-2.27184
623,-307,19.1246,3.26257,-0.00176973,0.0279886,0.0212069,0.0390155,-0.0127966,1.0913,0.0311642,0.0463334,1847,1331,19.1247,-3.2626
630,-307,13.1395,7.54431,0,0,0,0,0,0,0,-1,1854,1331,13.1395,-7.54431
637,-307,13.7491,6.7467,0,0,0,0,0,0,0,-1,1861,1331,13.7492,-6.74675
644,-307,14.1731,6.2561,0,0,0,0,0,0,0,-1,1868,1331,14.1731,-6.25612
651,-307,14.5533,5.97412,0,0,0,0,0,0,0,-1,1875,1331,14.5534,-5.97407
658,-307,14.6029,5.48999,-0.00781148,0.0052265,0.0138295,0.0139965,-0.0165815,1.00564,0.0176752,0.0444113,1882,1331,14.6029,-5.48993
665,-307,14.3821,5.45361,-0.00838496,0.00200165,0.0103656,0.00840211,-0.0147854,1.01763,0.0135554,0.016634,1889,1331,14.3821,-5.45364
672,-307,14.3618,5.30151,-0.00813778,3.12927e-05,0.0076379,0.00460822,-0.0127147,1.03094,0.01036,0.00900392,1896,1331,14.3618,-5.30157
679,-307,14.3718,5.13367,-0.00642966,-0.00100216,0.00420153,0.00128582,-0.00871764,1.07214,0.00628437,0.0102058,1903,1331,14.3718,-5.13367
686,-307,14.3757,4.97424,-0.00489938,-0.0014956,0.00173358,-0.000768137,-0.00562683,1.17348,0.0035232,0.00958982,1910,1331,14.3757,-4.9743
693,-307,14.3599,4.82275,-0.0029692,6.51268e-05,0.00127511,0.000529806,-0.00343388,1.22133,0.00248475,0.0101497,1917,1331,14.3599,-4.82272
700,-307,14.3679,4.64001,-0.000893143,0.0018765,0.00167975,0.00266867,-0.00168531,1.13013,0.00253505,0.0112125,1924,1331,14.3679,-4.64
707,-307,14.3624,4.44666,0.00192874,0.00411253,0.00197004,0.00527303,0.000768236,1.03845,0.00328932,0.0126682,1931,1331,14.3624,-4.4467
714,-307,14.3746,4.28442,0.0054654,0.00634852,0.00232957,0.00827801,0.00353591,0.879061,0.00479619,0.0119462,1938,1331,14.3747,-4.28442
721,-307,14.4073,4.13135,0.00925012,0.00902408,0.00344976,0.0125887,0.00568549,0.769023,0.00727942,0.0139419,1945,1331,14.4073,-4.13134
728,-307,14.3795,3.98804,0.0143794,0.0121257,0.0051407,0.0185153,0.00798982,0.677504,0.0107232,0.0186323,1952,1331,14.3795,-3.98805
735,-307,14.2584,3.78967,0.0215294,0.015638,0.00742017,0.0265672,0.0106002,0.596448,0.0154425,0.0288227,1959,1331,14.2584,-3.78962
742,-307,14.3047,3.68164,0.0315187,0.0196057,0.0102697,0.0374342,0.0136901,0.522603,0.021871,0.0369824,1966,1331,14.3047,-3.68162
749,-307,14.3145,3.67297,0.0454012,0.0239546,0.013594,0.0519922,0.0173636,0.451453,0.0305644,0.041845,1973,1331,14.3145,-3.67292
756,-307,14.1313,3.78809,0,0,0,0,0,0,0,-1,1980,1331,14.1313,-3.78805
763,-307,18.2676,3.6936,0,0,0,0,0,0,0,-1,1987,1331,18.2676,-3.69364
770,-307,0,0,0,0,0,0,0,0,0,-1,1994,1331,0,0
777,-307,0,0,0,0,0,0,0,0,0,-1,2001,1331,0,0
784,-307,0,0,0,0,0,0,0,0,0,-1,2008,1331,0,0
791,-307,0,0,0,0,0,0,0,0,0,-1,2015,1331,0,0
798,-307,0,0,0,0,0,0,0,0,0,-1,2022,1331,0,0
805,-307,0,0,0,0,0,0,0,0,0,-1,2029,1331,0,0
812,-307,0,0,0,0,0,0,0,0,0,-1,2036,1331,0,0
-700,-314,0,0,0,0,0,0,0,0,0,-1,524,1338,0,0
-693,-314,0,0,0,0,0,0,0,0,0,-1,531,1338,0,0
-686,-314,0,0,0,0,0,0,0,0,0,-1,538,1338,0,0
-679,-314,0,0,0,0,0,0,0,0,0,-1,545,1338,0,0
-672,-314,0,0,0,0,0,0,0,0,0,-1,552,1338,0,0
-665,-314,0,0,0,0,0,0,0,0,0,-1,559,1338,0,0
-658,-314,0,0,0,0,0,0,0,0,0,-1,566,1338,0,0
-651,-314,0,0,0,0,0,0,0,0,0,-1,573,1338,0,0
-644,-314,2.97357,-1.15588,-0.00722545,0.0268603,-0.0449386,0.0578792,-0.0382444,-0.966643,0.0558816,0.0480854,580,1338,2.97354,1.15582
-637,-314,1.63568,-0.814941,-0.0102055,0.0214008,-0.0433228,0.0517127,-0.0405175,-0.960287,0.0533798,0.042254,587,1338,1.63568,0.814959
-630,-314,0.517212,-0.67395,-0.011652,0.0169721,-0.0381952,0.0434486,-0.0381285,-0.964655,0.0471319,0.0451043,594,1338,0.517194,0.673936
-623,-314,-0.769104,-0.24939,0,0,0,0,0,0,0,-1,601,1338,-0.769121,0.24935
-616,-314,-6.62213,0.830444,0,0,0,0,0,0,0,-1,608,1338,-6.62215,-0.830452
-609,-314,-6.70337,0.60498,0,0,0,0,0,0,0,-1,615,1338,-6.70335,-0.604938
-602,-314,-6.86816,0.10437,0,0,0,0,0,0,0,-1,622,1338,-6.86814,-0.104414
-595,-314,-6.60455,1.77893,-0.00843328,0.00337987,-0.0116902,0.010571,-0.0156244,-1.01932,0.0152174,0.0309842,629,1338,-6.60457,-1.77894
-588,-314,-6.69092,1.979,-0.00842542,0.00157442,-0.00738463,0.00549257,-0.0123436,-1.08298,0.0105479,0.015054,636,1338,-6.69092,-1.97898
-581,-314,-6.66803,2.1665,-0.00766673,-5.65356e-05,-0.00208445,0.000476995,-0.00820026,-1.32022,0.00563258,0.0122422,643,1338,-6.66804,-2.16648
-574,-314,-6.70367,2.32581,-0.00379237,-0.000853549,0.000142429,-0.000846663,-0.00379926,1.52248,0.00230309,0.0121528,650,1338,-6.70367,-2.32576
-567,-314,-6.68701,2.56274,-0.00188674,9.47506e-06,-0.000356678,7.43468e-05,-0.00195161,-1.39089,0.00132655,0.0138812,657,1338,-6.68699,-2.56273
-560,-314,-6.66547,2.77661,-0.0012413,-5.66668e-05,-0.00082972,0.000370465,-0.00166843,-1.09539,0.00125415,0.0145701,664,1338,-6.66545,-2.77664
-553,-314,-6.70111,2.94519,-0.00138833,-0.000260906,-0.00109077,0.000403206,-0.00205244,-1.0239,0.00152062,0.0172105,671,1338,-6.70111,-2.94517
-546,-314,-6.70081,3.12585,-0.00211149,-0.00067984,-0.00153266,0.000295916,-0.00308725,-1.00387,0.00216356,0.0172847,678,1338,-6.70079,-3.1259
-539,-314,-6.66089,3.36609,-0.00415878,-0.000999997,-0.00217292,0.000106885,-0.00526566,-1.09966,0.00354661,0.0159237,685,1338,-6.66091,-3.36612
-532,-314,-6.56439,3.59167,-0.00642038,-0.00173385,-0.00286741,-0.000374013,-0.00778022,-1.12797,0.00506674,0.0241803,692,1338,-6.56437,-3.5917
-525,-314,-6.81622,3.7041,-0.0083123,-0.0047922,-0.00439566,-0.00181732,-0.0112872,-0.975827,0.00699812,0.039963,699,1338,-6.81624,-3.70406
-518,-314,-6.95422,3.78003,-0.0107734,-0.00730433,-0.00581017,-0.0029753,-0.0151024,-0.930453,0.00923762,0.0468997,706,1338,-6.95423,-3.78008
-511,-314,-7.18402,3.83704,0,0,0,0,0,0,0,-1,713,1338,-7.18404,-3.83698
-504,-314,-8.62189,2.08582,0,0,0,0,0,0,0,-1,720,1338,-8.62187,-2.08576
-497,-314,-8.87006,1.61755,0,0,0,0,0,0,0,-1,727,1338,-8.87005,-1.61754
-490,-314,-9.21234,-2.90308,0,0,0,0,0,0,0,-1,734,1338,-9.21237,2.90306
-483,-314,-12.0662,1.78149,0,0,0,0,0,0,0,-1,741,1338,-12.0662,-1.78149
-476,-314,-11.8945,1.71167,-0.0326202,-0.0117861,-0.0134713,-0.00517402,-0.0392323,-1.11451,0.0246121,0.0457334,748,1338,-11.8945,-1.71163
-469,-314,-11.8641,1.77258,-0.0376746,-0.00823904,-0.0137232,-0.00283368,-0.0430799,-1.19557,0.0278235,0.0428301,755,1338,-11.8641,-1.77264
-462,-314,0,0,0,0,0,0,0,0,0,-1,762,1338,0,0
-455,-314,0,0,0,0,0,0,0,0,0,-1,769,1338,0,0
-448,-314,0,0,0,0,0,0,0,0,0,-1,776,1338,0,0
-441,-314,0,0,0,0,0,0,0,0,0,-1,783,1338,0,0
-434,-314,0,0,0,0,0,0,0,0,0,-1,790,1338,0,0
-427,-314,0,0,0,0,0,0,0,0,0,-1,797,1338,0,0
-420,-314,0,0,0,0,0,0,0,0,0,-1,804,1338,0,0
-413,-314,0,0,0,0,0,0,0,0,0,-1,811,1338,0,0
-406,-314,0,0,0,0,0,0,0,0,0,-1,818,1338,0,0
-399,-314,0,0,0,0,0,0,0,0,0,-1,825,1338,0,0
-392,-314,0,0,0,0,0,0,0,0,0,-1,832,1338,0,0
-385,-314,0,0,0,0,0,0,0,0,0,-1,839,1338,0,0
-378,-314,0,0,0,0,0,0,0,0,0,-1,846,1338,0,0
-371,-314,0,0,0,0,0,0,0,0,0,-1,853,1338,0,0
-364,-314,0,0,0,0,0,0,0,0,0,-1,860,1338,0,0
-357,-314,0,0,0,0,0,0,0,0,0,-1,867,1338,0,0
-350,-314,0,0,0,0,0,0,0,0,0,-1,874,1338,0,0
-343,-314,0,0,0,0,0,0,0,0,0,-1,881,1338,0,0
-336,-314,0,0,0,0,0,0,0,0,0,-1,888,1338,0,0
-329,-314,0,0,0,0,0,0,0,0,0,-1,895,1338,0,0
-322,-314,0,0,0,0,0,0,0,0,0,-1,902,1338,0,0
-315,-314,0,0,0,0,0,0,0,0,0,-1,909,1338,0,0
-308,-314,0,0,0,0,0,0,0,0,0,-1,916,1338,0,0
-301,-314,0,0,0,0,0,0,0,0,0,-1,923,1338,0,0
-294,-314,0,0,0,0,0,0,0,0,0,-1,930,1338,0,0
-287,-314,0,0,0,0,0,0,0,0,0,-1,937,1338,0,0
-280,-314,0,0,0,0,0,0,0,0,0,-1,944,1338,0,0
-273,-314,0,0,0,0,0,0,0,0,0,-1,951,1338,0,0
-266,-314,0,0,0,0,0,0,0,0,0,-1,958,1338,0,0
-259,-314,0,0,0,0,0,0,0,0,0,-1,965,1338,0,0
-252,-314,0,0,0,0,0,0,0,0,0,-1,972,1338,0,0
-245,-314,0,0,0,0,0,0,0,0,0,-1,979,1338,0,0
-238,-314,0,0,0,0,0,0,0,0,0,-1,986,1338,0,0
-231,-314,0,0,0,0,0,0,0,0,0,-1,993,1338,0,0
-224,-314,0,0,0,0,0,0,0,0,0,-1,1000,1338,0,0
-217,-314,0,0,0,0,0,0,0,0,0,-1,1007,1338,0,0
-210,-314,0,0,0,0,0,0,0,0,0,-1,1014,1338,0,0
-203,-314,0,0,0,0,0,0,0,0,0,-1,1021,1338,0,0
-196,-314,0,0,0,0,0,0,0,0,0,-1,1028,1338,0,0
-189,-314,0,0,0,0,0,0,0,0,0,-1,1035,1338,0,0
-182,-314,0,0,0,0,0,0,0,0,0,-1,1042,1338,0,0
-175,-314,0,0,0,0,0,0,0,0,0,-1,1049,1338,0,0
-168,-314,0,0,0,0,0,0,0,0,0,-1,1056,1338,0,0
-161,-314,0,0,0,0,0,0,0,0,0,-1,1063,1338,0,0
-154,-314,0,0,0,0,0,0,0,0,0,-1,1070,1338,0,0
-147,-314,0,0,0,0,0,0,0,0,0,-1,1077,1338,0,0
-140,-314,0,0,0,0,0,0,0,0,0,-1,1084,1338,0,0
-133,-314,0,0,0,0,0,0,0,0,0,-1,1091,1338,0,0
-126,-314,0,0,0,0,0,0,0,0,0,-1,1098,1338,0,0
-119,-314,0,0,0,0,0,0,0,0,0,-1,1105,1338,0,0
-112,-314,0,0,0,0,0,0,0,0,0,-1,1112,1338,0,0
-105,-314,0,0,0,0,0,0,0,0,0,-1,1119,1338,0,0
-98,-314,0,0,0,0,0,0,0,0,0,-1,1126,1338,0,0
-91,-314,0,0,0,0,0,0,0,0,0,-1,1133,1338,0,0
-84,-314,0,0,0,0,0,0,0,0,0,-1,1140,1338,0,0
-77,-314,0,0,0,0,0,0,0,0,0,-1,1147,1338,0,0
-70,-314,0,0,0,0,0,0,0,0,0,-1,1154,1338,0,0
-63,-314,0,0,0,0,0,0,0,0,0,-1,1161,1338,0,0
-56,-314,0,0,0,0,0,0,0,0,0,-1,1168,1338,0,0
-49,-314,0,0,0,0,0,0,0,0,0,-1,1175,1338,0,0
-42,-314,0,0,0,0,0,0,0,0,0,-1,1182,1338,0,0
-35,-314,0,0,0,0,0,0,0,0,0,-1,1189,1338,0,0
-28,-314,0,0,0,0,0,0,0,0,0,-1,1196,1338,0,0
-21,-314,0,0,0,0,0,0,0,0,0,-1,1203,1338,0,0
-14,-314,0,0,0,0,0,0,0,0,0,-1,1210,1338,0,0
-7,-314,0,0,0,0,0,0,0,0,0,-1,1217,1338,0,0
0,-314,0,0,0,0,0,0,0,0,0,-1,1224,1338,0,0
7,-314,0,0,0,0,0,0,0,0,0,-1,1231,1338,0,0
14,-314,0,0,0,0,0,0,0,0,0,-1,1238,1338,0,0
21,-314,0,0,0,0,0,0,0,0,0,-1,1245,1338,0,0
28,-314,0,0,0,0,0,0,0,0,0,-1,1252,1338,0,0
35,-314,0,0,0,0,0,0,0,0,0,-1,1259,1338,0,0
42,-314,0,0,0,0,0,0,0,0,0,-1,1266,1338,0,0
49,-314,0,0,0,0,0,0,0,0,0,-1,1273,1338,0,0
56,-314,0,0,0,0,0,0,0,0,0,-1,1280,1338,0,0
63,-314,0,0,0,0,0,0,0,0,0,-1,1287,1338,0,0
70,-314,0,0,0,0,0,0,0,0,0,-1,1294,1338,0,0
77,-314,0,0,0,0,0,0,0,0,0,-1,1301,1338,0,0
84,-314,0,0,0,0,0,0,0,0,0,-1,1308,1338,0,0
91,-314,0,0,0,0,0,0,0,0,0,-1,1315,1338,0,0
98,-314,0,0,0,0,0,0,0,0,0,-1,1322,1338,0,0
105,-314,0,0,0,0,0,0,0,0,0,-1,1329,1338,0,0
112,-314,0,0,0,0,0,0,0,0,0,-1,1336,1338,0,0
119,-314,0,0,0,0,0,0,0,0,0,-1,1343,1338,0,0
126,-314,0,0,0,0,0,0,0,0,0,-1,1350,1338,0,0
133,-314,0,0,0,0,0,0,0,0,0,-1,1357,1338,0,0
140,-314,0,0,0,0,0,0,0,0,0,-1,1364,1338,0,0
147,-314,0,0,0,0,0,0,0,0,0,-1,1371,1338,0,0
154,-314,0,0,0,0,0,0,0,0,0,-1,1378,1338,0,0
161,-314,0,0,0,0,0,0,0,0,0,-1,1385,1338,0,0
168,-314,0,0,0,0,0,0,0,0,0,-1,1392,1338,0,0
175,-314,0,0,0,0,0,0,0,0,0,-1,1399,1338,0,0
182,-314,0,0,0,0,0,0,0,0,0,-1,1406,1338,0,0
189,-314,0,0,0,0,0,0,0,0,0,-1,1413,1338,0,0
196,-314,0,0,0,0,0,0,0,0,0,-1,1420,1338,0,0
203,-314,0,0,0,0,0,0,0,0,0,-1,1427,1338,0,0
210,-314,0,0,0,0,0,0,0,0,0,-1,1434,1338,0,0
217,-314,0,0,0,0,0,0,0,0,0,-1,1441,1338,0,0
224,-314,0,0,0,0,0,0,0,0,0,-1,1448,1338,0,0
231,-314,0,0,0,0,0,0,0,0,0,-1,1455,1338,0,0
238,-314,0,0,0,0,0,0,0,0,0,-1,1462,1338,0,0
245,-314,0,0,0,0,0,0,0,0,0,-1,1469,1338,0,0
252,-314,0,0,0,0,0,0,0,0,0,-1,1476,1338,0,0
259,-314,0,0,0,0,0,0,0,0,0,-1,1483,1338,0,0
266,-314,0,0,0,0,0,0,0,0,0,-1,1490,1338,0,0
273,-314,0,0,0,0,0,0,0,0,0,-1,1497,1338,0,0
280,-314,0,0,0,0,0,0,0,0,0,-1,1504,1338,0,0
287,-314,0,0,0,0,0,0,0,0,0,-1,1511,1338,0,0
294,-314,0,0,0,0,0,0,0,0,0,-1,1518,1338,0,0
301,-314,0,0,0,0,0,0,0,0,0,-1,1525,1338,0,0
308,-314,0,0,0,0,0,0,0,0,0,-1,1532,1338,0,0
315,-314,0,0,0,0,0,0,0,0,0,-1,1539,1338,0,0
322,-314,0,0,0,0,0,0,0,0,0,-1,1546,1338,0,0
329,-314,0,0,0,0,0,0,0,0,0,-1,1553,1338,0,0
336,-314,0,0,0,0,0,0,0,0,0,-1,1560,1338,0,0
343,-314,0,0,0,0,0,0,0,0,0,-1,1567,1338,0,0
350,-314,0,0,0,0,0,0,0,0,0,-1,1574,1338,0,0
357,-314,0,0,0,0,0,0,0,0,0,-1,1581,1338,0,0
364,-314,0,0,0,0,0,0,0,0,0,-1,1588,1338,0,0
371,-314,0,0,0,0,0,0,0,0,0,-1,1595,1338,0,0
378,-314,0,0,0,0,0,0,0,0,0,-1,1602,1338,0,0
385,-314,0,0,0,0,0,0,0,0,0,-1,1609,1338,0,0
392,-314,0,0,0,0,0,0,0,0,0,-1,1616,1338,0,0
399,-314,0,0,0,0,0,0,0,0,0,-1,1623,1338,0,0
406,-314,0,0,0,0,0,0,0,0,0,-1,1630,1338,0,0
413,-314,0,0,0,0,0,0,0,0,0,-1,1637,1338,0,0
420,-314,0,0,0,0,0,0,0,0,0,-1,1644,1338,0,0
427,-314,0,0,0,0,0,0,0,0,0,-1,1651,1338,0,0
434,-314,0,0,0,0,0,0,0,0,0,-1,1658,1338,0,0
441,-314,0,0,0,0,0,0,0,0,0,-1,1665,1338,0,0
448,-314,0,0,0,0,0,0,0,0,0,-1,1672,1338,0,0
455,-314,0,0,0,0,0,0,0,0,0,-1,1679,1338,0,0
462,-314,0,0,0,0,0,0,0,0,0,-1,1686,1338,0,0
469,-314,0,0,0,0,0,0,0,0,0,-1,1693,1338,0,0
476,-314,0,0,0,0,0,0,0,0,0,-1,1700,1338,0,0
483,-314,0,0,0,0,0,0,0,0,0,-1,1707,1338,0,0
490,-314,0,0,0,0,0,0,0,0,0,-1,1714,1338,0,0
497,-314,0,0,0,0,0,0,0,0,0,-1,1721,1338,0,0
504,-314,0,0,0,0,0,0,0,0,0,-1,1728,1338,0,0
511,-314,0,0,0,0,0,0,0,0,0,-1,1735,1338,0,0
518,-314,0,0,0,0,0,0,0,0,0,-1,1742,1338,0,0
525,-314,0,0,0,0,0,0,0,0,0,-1,1749,1338,0,0
532,-314,0,0,0,0,0,0,0,0,0,-1,1756,1338,0,0
539,-314,0,0,0,0,0,0,0,0,0,-1,1763,1338,0,0
546,-314,0,0,0,0,0,0,0,0,0,-1,1770,1338,0,0
553,-314,0,0,0,0,0,0,0,0,0,-1,1777,1338,0,0
560,-314,0,0,0,0,0,0,0,0,0,-1,1784,1338,0,0
567,-314,0,0,0,0,0,0,0,0,0,-1,1791,1338,0,0
574,-314,0,0,0,0,0,0,0,0,0,-1,1798,1338,0,0
581,-314,18.9142,3.9408,-0.00048426,0.0406305,-0.0326983,0.0586967,-0.0185505,-1.06603,0.0465631,0.0461834,1805,1338,18.9142,-3.94079
588,-314,19.0389,3.52405,0.00361896,0.0458181,-0.0174805,0.0521185,-0.00268146,-1.22486,0.0356731,0.0467566,1812,1338,19.0389,-3.52406
595,-314,19.4673,2.69568,0.00565211,0.0484979,-0.0022901,0.04862,0.00553005,-1.51755,0.0307362,0.0444519,1819,1338,19.4672,-2.69567
602,-314,18.5894,1.7489,0.00569278,0.0466507,0.00968318,0.0488246,0.00351889,1.34996,0.0314425,0.0429918,1826,1338,18.5894,-1.74895
609,-314,18.5582,1.75439,0.0043437,0.0421058,0.0178311,0.0491948,-0.00274529,1.19239,0.0337489,0.0409825,1833,1338,18.5582,-1.75438
616,-314,18.4464,2.15576,0.00227111,0.0362791,0.0221597,0.047207,-0.0086567,1.11265,0.0347185,0.0436071,1840,1338,18.4464,-2.15582
623,-314,18.4792,2.97803,0.000373517,0.0300215,0.0239772,0.0433871,-0.0129921,1.06226,0.0340909,0.0433194,1847,1338,18.4793,-2.97797
630,-314,18.4827,4.14172,-0.00139422,0.0241258,0.0238428,0.0384083,-0.0156767,1.03109,0.0321322,0.0476452,1854,1338,18.4827,-4.14174
637,-314,14.2422,5.4834,0,0,0,0,0,0,0,-1,1861,1338,14.2421,-5.48337
644,-314,14.4672,5.10852,0,0,0,0,0,0,0,-1,1868,1338,14.4672,-5.10853
651,-314,14.6234,5.20947,0,0,0,0,0,0,0,-1,1875,1338,14.6234,-5.20946
658,-314,14.4044,5.38745,-0.006002,0.00573999,0.0161802,0.0170814,-0.0173434,0.959437,0.0198754,0.0370789,1882,1338,14.4044,-5.3874
665,-314,14.1794,5.48303,-0.00679074,0.00235604,0.0120801,0.0106995,-0.0151342,0.966355,0.0149881,0.0149242,1889,1338,14.1795,-5.48307
672,-314,14.1995,5.32227,-0.00674981,0.000418918,0.00865622,0.00620354,-0.0125344,0.981691,0.0110223,0.0114611,1896,1338,14.1995,-5.32225
679,-314,14.2141,5.14307,-0.00513008,-0.000631996,0.00458575,0.00222653,-0.00798861,1.01338,0.00620259,0.00972101,1903,1338,14.2142,-5.14306
686,-314,14.1941,4.96765,-0.00381914,-0.00100656,0.00158753,-0.000292021,-0.00453368,1.14786,0.00292997,0.0109875,1910,1338,14.194,-4.96768
693,-314,14.177,4.79578,-0.00233015,0.000832653,0.000890443,0.00106611,-0.00256361,1.31438,0.00215425,0.0103856,1917,1338,14.1771,-4.7958
700,-314,14.1995,4.62463,-0.000668608,0.00298154,0.00131025,0.00340316,-0.00109023,1.25947,0.0027064,0.0113853,1924,1338,14.1994,-4.62468
707,-314,14.1968,4.44189,0.00178074,0.00569429,0.00177797,0.00638141,0.00109363,1.20202,0.00394064,0.0115994,1931,1338,14.1968,-4.44186
714,-314,14.1876,4.29346,0.00482039,0.00852265,0.00245947,0.00974978,0.00359326,1.108,0.00569351,0.0104314,1938,1338,14.1876,-4.29348
721,-314,14.2263,4.13623,0.00800377,0.012005,0.0040008,0.0144775,0.00553126,1.01724,0.00843576,0.0150466,1945,1338,14.2263,-4.13623
728,-314,14.1276,3.95227,0.0123341,0.0161732,0.00631241,0.0208515,0.00765583,0.933003,0.0121794,0.0274992,1952,1338,14.1276,-3.95227
735,-314,13.9785,3.58679,0.0184399,0.0210648,0.00946302,0.029306,0.0101988,0.854306,0.0171784,0.039065,1959,1338,13.9785,-3.58678
742,-314,13.9719,3.49341,0.02707,0.026706,0.0134974,0.0403866,0.0133894,0.778657,0.0237543,0.0428515,1966,1338,13.9719,-3.49339
749,-314,14.0219,3.71936,0.0392866,0.0330171,0.0184053,0.0548222,0.0174815,0.701048,0.0323364,0.0430902,1973,1338,14.0219,-3.71934
756,-314,13.9476,4.07446,0,0,0,0,0,0,0,-1,1980,1338,13.9476,-4.07442
763,-314,18.0352,3.23047,0,0,0,0,0,0,0,-1,1987,1338,18.0351,-3.23045
770,-314,0,0,0,0,0,0,0,0,0,-1,1994,1338,0,0
777,-314,0,0,0,0,0,0,0,0,0,-1,2001,1338,0,0
784,-314,0,0,0,0,0,0,0,0,0,-1,2008,1338,0,0
791,-314,0,0,0,0,0,0,0,0,0,-1,2015,1338,0,0
798,-314,0,0,0,0,0,0,0,0,0,-1,2022,1338,0,0
805,-314,0,0,0,0,0,0,0,0,0,-1,2029,1338,0,0
812,-314,0,0,0,0,0,0,0,0,0,-1,2036,1338,0,0
-700,-321,0,0,0,0,0,0,0,0,0,-1,524,1345,0,0
-693,-321,0,0,0,0,0,0,0,0,0,-1,531,1345,0,0
-686,-321,0,0,0,0,0,0,0,0,0,-1,538,1345,0,0
-679,-321,0,0,0,0,0,0,0,0,0,-1,545,1345,0,0
-672,-321,0,0,0,0,0,0,0,0,0,-1,552,1345,0,0
-665,-321,0,0,0,0,0,0,0,0,0,-1,559,1345,0,0
-658,-321,0,0,0,0,0,0,0,0,0,-1,566,1345,0,0
-651,-321,0,0,0,0,0,0,0,0,0,-1,573,1345,0,0
-644,-321,4.85052,-1.42529,-0.0116689,0.0284716,-0.0581152,0.0698846,-0.0530819,-0.951662,0.0712154,0.0470128,580,1345,4.85055,1.42532
-637,-321,3.55566,-1.09131,-0.0139336,0.0226999,-0.0549828,0.0623367,-0.0535703,-0.946185,0.0669827,0.0482365,587,1345,3.55564,1.09132
-630,-321,2.20569,-0.798218,0,0,0,0,0,0,0,-1,594,1345,2.20568,0.798175
-623,-321,-3.2608,0.292969,0,0,0,0,0,0,0,-1,601,1345,-3.2608,-0.292992
-616,-321,-6.7724,0.174438,0,0,0,0,0,0,0,-1,608,1345,-6.77241,-0.174465
-609,-321,-6.91656,-0.0576172,0,0,0,0,0,0,0,-1,615,1345,-6.91655,0.0576334
-602,-321,-6.35736,1.37561,0,0,0,0,0,0,0,-1,622,1345,-6.35735,-1.37561
-595,-321,-6.39734,1.64355,-0.00906132,0.00380407,-0.0138929,0.0126812,-0.0179385,-1.00221,0.0177649,0.0474613,629,1345,-6.39735,-1.6435
-588,-321,-6.50842,1.92627,-0.00877297,0.00182147,-0.00876651,0.00676692,-0.0137184,-1.05717,0.0120521,0.0175853,636,1345,-6.50842,-1.92624
-581,-321,-6.49225,2.17542,-0.00803653,0.000160839,-0.00280529,0.00102893,-0.00890462,-1.27069,0.00630743,0.0117716,643,1345,-6.49227,-2.17536
-574,-321,-6.505,2.3457,-0.00431079,-0.000593665,-0.000168389,-0.000586052,-0.00431841,-1.52562,0.00270483,0.0145645,650,1345,-6.50503,-2.34564
-567,-321,-6.49286,2.54126,-0.00238104,0.000106732,-0.000326762,0.000148935,-0.00242325,-1.44235,0.00166736,0.021033,657,1345,-6.49287,-2.5413
-560,-321,-6.46637,2.79895,-0.00163497,1.64074e-05,-0.000771747,0.00032092,-0.00193949,-1.19498,0.00141217,0.0243072,664,1345,-6.46635,-2.79896
-553,-321,-6.49414,2.94824,-0.00157984,-0.000203757,-0.00105855,0.00037071,-0.00215431,-1.07358,0.00157439,0.0264221,671,1345,-6.49415,-2.94823
-546,-321,-6.4884,3.1145,-0.00194718,-0.000609055,-0.00157987,0.000437588,-0.00299382,-0.985694,0.00215659,0.0256263,678,1345,-6.48842,-3.11449
-539,-321,-6.4538,3.35754,-0.00331699,-0.000978129,-0.00234405,0.000472005,-0.00476712,-1.01678,0.00334653,0.0227198,685,1345,-6.45378,-3.35753
-532,-321,-6.43433,3.57446,-0.00492945,-0.00154601,-0.0033484,0.000513769,-0.00698922,-1.01931,0.00483984,0.0168976,692,1345,-6.43433,-3.57443
-525,-321,-6.43829,3.85901,-0.00647214,-0.00479848,-0.00552157,-5.06835e-05,-0.0112199,-0.860604,0.00746312,0.0289787,699,1345,-6.43827,-3.85905
-518,-321,-6.64038,3.98633,-0.00884178,-0.00754618,-0.00750273,-0.00066334,-0.0157246,-0.828462,0.0102691,0.0457246,706,1345,-6.64039,-3.98637
-511,-321,-7.03937,4.271,-0.0127594,-0.00859523,-0.00908327,-0.00135847,-0.0199961,-0.898063,0.0129018,0.0450661,713,1345,-7.03936,-4.27095
-504,-321,-7.39459,4.68713,0,0,0,0,0,0,0,-1,720,1345,-7.3946,-4.68708
-497,-321,-8.29797,1.24951,0,0,0,0,0,0,0,-1,727,1345,-8.29799,-1.24955
-490,-321,-7.69165,2.32532,0,0,0,0,0,0,0,-1,734,1345,-7.69165,-2.32526
-483,-321,-11.9659,1.75806,0,0,0,0,0,0,0,-1,741,1345,-11.9659,-1.75801
-476,-321,-11.986,1.83142,-0.0340189,-0.0103317,-0.0183837,-0.000306865,-0.0440438,-1.07156,0.0292608,0.0468304,748,1345,-11.986,-1.83138
-469,-321,-12.0176,1.90051,-0.0409296,-0.00617572,-0.0193014,0.00241852,-0.0495238,-1.15189,0.0338509,0.0436613,755,1345,-12.0176,-1.90052
-462,-321,-11.7949,2.13269,-0.0499812,0.00364546,-0.017302,0.00874317,-0.0550789,-1.28427,0.0399538,0.045795,762,1345,-11.7949,-2.13264
-455,-321,0,0,0,0,0,0,0,0,0,-1,769,1345,0,0
-448,-321,0,0,0,0,0,0,0,0,0,-1,776,1345,0,0
-441,-321,0,0,0,0,0,0,0,0,0,-1,783,1345,0,0
-434,-321,0,0,0,0,0,0,0,0,0,-1,790,1345,0,0
-427,-321,0,0,0,0,0,0,0,0,0,-1,797,1345,0,0
-420,-321,0,0,0,0,0,0,0,0,0,-1,804,1345,0,0
-413,-321,0,0,0,0,0,0,0,0,0,-1,811,1345,0,0
-406,-321,0,0,0,0,0,0,0,0,0,-1,818,1345,0,0
-399,-321,0,0,0,0,0,0,0,0,0,-1,825,1345,0,0
-392,-321,0,0,0,0,0,0,0,0,0,-1,832,1345,0,0
-385,-321,0,0,0,0,0,0,0,0,0,-1,839,1345,0,0
-378,-321,0,0,0,0,0,0,0,0,0,-1,846,1345,0,0
-371,-321,0,0,0,0,0,0,0,0,0,-1,853,1345,0,0
-364,-321,0,0,0,0,0,0,0,0,0,-1,860,1345,0,0
-357,-321,0,0,0,0,0,0,0,0,0,-1,867,1345,0,0
-350,-321,0,0,0,0,0,0,0,0,0,-1,874,1345,0,0
-343,-321,0,0,0,0,0,0,0,0,0,-1,881,1345,0,0
-336,-321,0,0,0,0,0,0,0,0,0,-1,888,1345,0,0
-329,-321,0,0,0,0,0,0,0,0,0,-1,895,1345,0,0
-322,-321,0,0,0,0,0,0,0,0,0,-1,902,1345,0,0
-315,-321,0,0,0,0,0,0,0,0,0,-1,909,1345,0,0
-308,-321,0,0,0,0,0,0,0,0,0,-1,916,1345,0,0
-301,-321,0,0,0,0,0,0,0,0,0,-1,923,1345,0,0
-294,-321,0,0,0,0,0,0,0,0,0,-1,930,1345,0,0
-287,-321,0,0,0,0,0,0,0,0,0,-1,937,1345,0,0
-280,-321,0,0,0,0,0,0,0,0,0,-1,944,1345,0,0
-273,-321,0,0,0,0,0,0,0,0,0,-1,951,1345,0,0
-266,-321,0,0,0,0,0,0,0,0,0,-1,958,1345,0,0
-259,-321,0,0,0,0,0,0,0,0,0,-1,965,1345,0,0
-252,-321,0,0,0,0,0,0,0,0,0,-1,972,1345,0,0
-245,-321,0,0,0,0,0,0,0,0,0,-1,979,1345,0,0
-238,-321,0,0,0,0,0,0,0,0,0,-1,986,1345,0,0
-231,-321,0,0,0,0,0,0,0,0,0,-1,993,1345,0,0
-224,-321,0,0,0,0,0,0,0,0,0,-1,1000,1345,0,0
-217,-321,0,0,0,0,0,0,0,0,0,-1,1007,1345,0,0
-210,-321,0,0,0,0,0,0,0,0,0,-1,1014,1345,0,0
-203,-321,0,0,0,0,0,0,0,0,0,-1,1021,1345,0,0
-196,-321,0,0,0,0,0,0,0,0,0,-1,1028,1345,0,0
-189,-321,0,0,0,0,0,0,0,0,0,-1,1035,1345,0,0
-182,-321,0,0,0,0,0,0,0,0,0,-1,1042,1345,0,0
-175,-321,0,0,0,0,0,0,0,0,0,-1,1049,1345,0,0
-168,-321,0,0,0,0,0,0,0,0,0,-1,1056,1345,0,0
-161,-321,0,0,0,0,0,0,0,0,0,-1,1063,1345,0,0
-154,-321,0,0,0,0,0,0,0,0,0,-1,1070,1345,0,0
-147,-321,0,0,0,0,0,0,0,0,0,-1,1077,1345,0,0
-140,-321,0,0,0,0,0,0,0,0,0,-1,1084,1345,0,0
-133,-321,0,0,0,0,0,0,0,0,0,-1,1091,1345,0,0
-126,-321,0,0,0,0,0,0,0,0,0,-1,1098,1345,0,0
-119,-321,0,0,0,0,0,0,0,0,0,-1,1105,1345,0,0
-112,-321,0,0,0,0,0,0,0,0,0,-1,1112,1345,0,0
-105,-321,0,0,0,0,0,0,0,0,0,-1,1119,1345,0,0
-98,-321,0,0,0,0,0,0,0,0,0,-1,1126,1345,0,0
-91,-321,0,0,0,0,0,0,0,0,0,-1,1133,1345,0,0
-84,-321,0,0,0,0,0,0,0,0,0,-1,1140,1345,0,0
-77,-321,0,0,0,0,0,0,0,0,0,-1,1147,1345,0,0
-70,-321,0,0,0,0,0,0,0,0,0,-1,1154,1345,0,0
-63,-321,0,0,0,0,0,0,0,0,0,-1,1161,1345,0,0
-56,-321,0,0,0,0,0,0,0,0,0,-1,1168,1345,0,0
-49,-321,0,0,0,0,0,0,0,0,0,-1,1175,1345,0,0
-42,-321,0,0,0,0,0,0,0,0,0,-1,1182,1345,0,0
-35,-321,0,0,0,0,0,0,0,0,0,-1,1189,1345,0,0
-28,-321,0,0,0,0,0,0,0,0,0,-1,1196,1345,0,0
-21,-321,0,0,0,0,0,0,0,0,0,-1,1203,1345,0,0
-14,-321,0,0,0,0,0,0,0,0,0,-1,1210,1345,0,0
-7,-321,0,0,0,0,0,0,0,0,0,-1,1217,1345,0,0
0,-321,0,0,0,0,0,0,0,0,0,-1,1224,1345,0,0
7,-321,0,0,0,0,0,0,0,0,0,-1,1231,1345,0,0
14,-321,0,0,0,0,0,0,0,0,0,-1,1238,1345,0,0
21,-321,0,0,0,0,0,0,0,0,0,-1,1245,1345,0,0
28,-321,0,0,0,0,0,0,0,0,0,-1,1252,1345,0,0
35,-321,0,0,0,0,0,0,0,0,0,-1,1259,1345,0,0
42,-321,0,0,0,0,0,0,0,0,0,-1,1266,1345,0,0
49,-321,0,0,0,0,0,0,0,0,0,-1,1273,1345,0,0
56,-321,0,0,0,0,0,0,0,0,0,-1,1280,1345,0,0
63,-321,0,0,0,0,0,0,0,0,0,-1,1287,1345,0,0
70,-321,0,0,0,0,0,0,0,0,0,-1,1294,1345,0,0
77,-321,0,0,0,0,0,0,0,0,0,-1,1301,1345,0,0
84,-321,0,0,0,0,0,0,0,0,0,-1,1308,1345,0,0
91,-321,0,0,0,0,0,0,0,0,0,-1,1315,1345,0,0
98,-321,0,0,0,0,0,0,0,0,0,-1,1322,1345,0,0
105,-321,0,0,0,0,0,0,0,0,0,-1,1329,1345,0,0
112,-321,0,0,0,0,0,0,0,0,0,-1,1336,1345,0,0
119,-321,0,0,0,0,0,0,0,0,0,-1,1343,1345,0,0
126,-321,0,0,0,0,0,0,0,0,0,-1,1350,1345,0,0
133,-321,0,0,0,0,0,0,0,0,0,-1,1357,1345,0,0
140,-321,0,0,0,0,0,0,0,0,0,-1,1364,1345,0,0
147,-321,0,0,0,0,0,0,0,0,0,-1,1371,1345,0,0
154,-321,0,0,0,0,0,0,0,0,0,-1,1378,1345,0,0
161,-321,0,0,0,0,0,0,0,0,0,-1,1385,1345,0,0
168,-321,0,0,0,0,0,0,0,0,0,-1,1392,1345,0,0
175,-321,0,0,0,0,0,0,0,0,0,-1,1399,1345,0,0
182,-321,0,0,0,0,0,0,0,0,0,-1,1406,1345,0,0
189,-321,0,0,0,0,0,0,0,0,0,-1,1413,1345,0,0
196,-321,0,0,0,0,0,0,0,0,0,-1,1420,1345,0,0
203,-321,0,0,0,0,0,0,0,0,0,-1,1427,1345,0,0
210,-321,0,0,0,0,0,0,0,0,0,-1,1434,1345,0,0
217,-321,0,0,0,0,0,0,0,0,0,-1,1441,1345,0,0
224,-321,0,0,0,0,0,0,0,0,0,-1,1448,1345,0,0
231,-321,0,0,0,0,0,0,0,0,0,-1,1455,1345,0,0
238,-321,0,0,0,0,0,0,0,0,0,-1,1462,1345,0,0
245,-321,0,0,0,0,0,0,0,0,0,-1,1469,1345,0,0
252,-321,0,0,0,0,0,0,0,0,0,-1,1476,1345,0,0
259,-321,0,0,0,0,0,0,0,0,0,-1,1483,1345,0,0
266,-321,0,0,0,0,0,0,0,0,0,-1,1490,1345,0,0
273,-321,0,0,0,0,0,0,0,0,0,-1,1497,1345,0,0
280,-321,0,0,0,0,0,0,0,0,0,-1,1504,1345,0,0
287,-321,0,0,0,0,0,0,0,0,0,-1,1511,1345,0,0
294,-321,0,0,0,0,0,0,0,0,0,-1,1518,1345,0,0
301,-321,0,0,0,0,0,0,0,0,0,-1,1525,1345,0,0
308,-321,0,0,0,0,0,0,0,0,0,-1,1532,1345,0,0
315,-321,0,0,0,0,0,0,0,0,0,-1,1539,1345,0,0
322,-321,0,0,0,0,0,0,0,0,0,-1,1546,1345,0,0
329,-321,0,0,0,0,0,0,0,0,0,-1,1553,1345,0,0
336,-321,0,0,0,0,0,0,0,0,0,-1,1560,1345,0,0
343,-321,0,0,0,0,0,0,0,0,0,-1,1567,1345,0,0
350,-321,0,0,0,0,0,0,0,0,0,-1,1574,1345,0,0
357,-321,0,0,0,0,0,0,0,0,0,-1,1581,1345,0,0
364,-321,0,0,0,0,0,0,0,0,0,-1,1588,1345,0,0
371,-321,0,0,0,0,0,0,0,0,0,-1,1595,1345,0,0
378,-321,0,0,0,0,0,0,0,0,0,-1,1602,1345,0,0
385,-321,0,0,0,0,0,0,0,0,0,-1,1609,1345,0,0
392,-321,0,0,0,0,0,0,0,0,0,-1,1616,1345,0,0
399,-321,0,0,0,0,0,0,0,0,0,-1,1623,1345,0,0
406,-321,0,0,0,0,0,0,0,0,0,-1,1630,1345,0,0
413,-321,0,0,0,0,0,0,0,0,0,-1,1637,1345,0,0
420,-321,0,0,0,0,0,0,0,0,0,-1,1644,1345,0,0
427,-321,0,0,0,0,0,0,0,0,0,-1,1651,1345,0,0
434,-321,0,0,0,0,0,0,0,0,0,-1,1658,1345,0,0
441,-321,0,0,0,0,0,0,0,0,0,-1,1665,1345,0,0
448,-321,0,0,0,0,0,0,0,0,0,-1,1672,1345,0,0
455,-321,0,0,0,0,0,0,0,0,0,-1,1679,1345,0,0
462,-321,0,0,0,0,0,0,0,0,0,-1,1686,1345,0,0
469,-321,0,0,0,0,0,0,0,0,0,-1,1693,1345,0,0
476,-321,0,0,0,0,0,0,0,0,0,-1,1700,1345,0,0
483,-321,0,0,0,0,0,0,0,0,0,-1,1707,1345,0,0
490,-321,0,0,0,0,0,0,0,0,0,-1,1714,1345,0,0
497,-321,0,0,0,0,0,0,0,0,0,-1,1721,1345,0,0
504,-321,0,0,0,0,0,0,0,0,0,-1,1728,1345,0,0
511,-321,0,0,0,0,0,0,0,0,0,-1,1735,1345,0,0
518,-321,0,0,0,0,0,0,0,0,0,-1,1742,1345,0,0
525,-321,0,0,0,0,0,0,0,0,0,-1,1749,1345,0,0
532,-321,0,0,0,0,0,0,0,0,0,-1,1756,1345,0,0
539,-321,0,0,0,0,0,0,0,0,0,-1,1763,1345,0,0
546,-321,0,0,0,0,0,0,0,0,0,-1,1770,1345,0,0
553,-321,0,0,0,0,0,0,0,0,0,-1,1777,1345,0,0
560,-321,0,0,0,0,0,0,0,0,0,-1,1784,1345,0,0
567,-321,0,0,0,0,0,0,0,0,0,-1,1791,1345,0,0
574,-321,0,0,0,0,0,0,0,0,0,-1,1798,1345,0,0
581,-321,18.2483,4.27295,0,0,0,0,0,0,0,-1,1805,1345,18.2483,-4.27295
588,-321,18.6504,0.702759,0,0,0,0,0,0,0,-1,1812,1345,18.6504,-0.70273
595,-321,18.6807,0.708984,0.00516342,0.0551834,0.0030499,0.0553687,0.00497814,1.51012,0.03537,0.0477226,1819,1345,18.6807,-0.708977
602,-321,18.7268,0.791748,0.00567546,0.0509613,0.0130616,0.0544586,0.00217821,1.30918,0.0356019,0.0433634,1826,1345,18.7268,-0.791786
609,-321,18.5277,0.869019,0.00468332,0.0450648,0.0199123,0.0532319,-0.00348379,1.18157,0.0367044,0.0445149,1833,1345,18.5277,-0.868975
616,-321,17.8793,1.44641,0.00287357,0.0385752,0.0238553,0.0505191,-0.00907036,1.1066,0.0370746,0.0475181,1840,1345,17.8793,-1.44636
623,-321,17.7075,2.49048,0.00119809,0.031909,0.0257939,0.0465721,-0.013465,1.05388,0.0363768,0.0454722,1847,1345,17.7075,-2.49045
630,-321,17.557,3.87109,-0.000546585,0.0256866,0.025974,0.041668,-0.016528,1.01921,0.0346287,0.047692,1854,1345,17.557,-3.87104
637,-321,17.3381,5.2207,0,0,0,0,0,0,0,-1,1861,1345,17.3382,-5.22071
644,-321,14.9536,5.56409,0,0,0,0,0,0,0,-1,1868,1345,14.9536,-5.56405
651,-321,14.3928,5.59851,0,0,0,0,0,0,0,-1,1875,1345,14.3929,-5.59854
658,-321,14.0634,5.61572,-0.00577959,0.00619608,0.0176693,0.0188645,-0.018448,0.948767,0.0215429,0.0297546,1882,1345,14.0633,-5.61566
665,-321,13.9833,5.50977,-0.0064745,0.00274434,0.0130283,0.0119546,-0.0156848,0.955426,0.016006,0.0161174,1889,1345,13.9833,-5.50973
672,-321,14.0253,5.3186,-0.00636729,0.000870959,0.00904085,0.00699017,-0.0124865,0.975784,0.0113931,0.012924,1896,1345,14.0252,-5.31856
679,-321,14.0538,5.1366,-0.00460787,-0.000179998,0.00455739,0.00267276,-0.00746062,1.01151,0.00606428,0.010778,1903,1345,14.0538,-5.13657
686,-321,14.0245,4.97388,-0.00320733,-0.000450716,0.00121224,6.53265e-06,-0.00366458,1.21011,0.00244523,0.0105215,1910,1345,14.0245,-4.97393
693,-321,14.0079,4.80798,-0.00180957,0.00161052,0.000355906,0.00164716,-0.00184621,1.4682,0.00201799,0.0107677,1917,1345,14.008,-4.80799
700,-321,14.0176,4.62585,-0.00033672,0.00407631,0.000843008,0.00423186,-0.000492275,1.38833,0.00299883,0.0107717,1924,1345,14.0176,-4.62585
707,-321,14.0199,4.4469,0.00170381,0.00722949,0.00146002,0.00759154,0.00134176,1.32772,0.00467836,0.0119413,1931,1345,14.0199,-4.4469
714,-321,14.0137,4.27625,0.0041821,0.0106285,0.00242034,0.0114361,0.00337453,1.24875,0.00678494,0.0111957,1938,1345,14.0137,-4.27628
721,-321,14.0178,4.10278,0.00665789,0.0149224,0.00436004,0.0167973,0.00478302,1.16469,0.00999297,0.0181435,1945,1345,14.0178,-4.10276
728,-321,13.9225,3.9137,0.00998146,0.020171,0.00726719,0.0239514,0.00620106,1.09112,0.0143542,0.0296715,1952,1345,13.9225,-3.91372
735,-321,13.5931,2.2085,0,0,0,0,0,0,0,-1,1959,1345,13.5932,-2.2085
742,-321,13.8004,2.87256,0.0213116,0.0337586,0.016425,0.0450996,0.00997057,0.966493,0.0273554,0.0453367,1966,1345,13.8004,-2.87252
749,-321,13.8387,3.59656,0.0308845,0.0420216,0.0228412,0.0599632,0.0129429,0.904962,0.0364357,0.0449434,1973,1345,13.8388,-3.59661
756,-321,13.9902,4.22681,0.0450862,0.0510287,0.0304754,0.0786773,0.0174376,0.833992,0.0477132,0.0451474,1980,1345,13.9902,-4.22676
763,-321,14.4337,4.73682,0,0,0,0,0,0,0,-1,1987,1345,14.4337,-4.73677
770,-321,0,0,0,0,0,0,0,0,0,-1,1994,1345,0,0
777,-321,0,0,0,0,0,0,0,0,0,-1,2001,1345,0,0
784,-321,0,0,0,0,0,0,0,0,0,-1,2008,1345,0,0
791,-321,0,0,0,0,0,0,0,0,0,-1,2015,1345,0,0
798,-321,0,0,0,0,0,0,0,0,0,-1,2022,1345,0,0
805,-321,0,0,0,0,0,0,0,0,0,-1,2029,1345,0,0
812,-321,0,0,0,0,0,0,0,0,0,-1,2036,1345,0,0
-700,-328,0,0,0,0,0,0,0,0,0,-1,524,1352,0,0
-693,-328,0,0,0,0,0,0,0,0,0,-1,531,1352,0,0
-686,-328,0,0,0,0,0,0,0,0,0,-1,538,1352,0,0
-679,-328,0,0,0,0,0,0,0,0,0,-1,545,1352,0,0
-672,-328,0,0,0,0,0,0,0,0,0,-1,552,1352,0,0
-665,-328,0,0,0,0,0,0,0,0,0,-1,559,1352,0,0
-658,-328,0,0,0,0,0,0,0,0,0,-1,566,1352,0,0
-651,-328,0,0,0,0,0,0,0,0,0,-1,573,1352,0,0
-644,-328,0,0,0,0,0,0,0,0,0,-1,580,1352,0,0
-637,-328,5.49097,-1.34814,0,0,0,0,0,0,0,-1,587,1352,5.49098,1.34817
-630,-328,-2.37311,0.211548,0,0,0,0,0,0,0,-1,594,1352,-2.3731,-0.211518
-623,-328,-2.75555,0.0916748,0,0,0,0,0,0,0,-1,601,1352,-2.75556,-0.0917281
-616,-328,-6.49121,-4.58557,0,0,0,0,0,0,0,-1,608,1352,-6.49121,4.58558
-609,-328,-9.06738,-3.38647,0,0,0,0,0,0,0,-1,615,1352,-9.06736,3.38644
-602,-328,-6.19409,1.09045,0,0,0,0,0,0,0,-1,622,1352,-6.19407,-1.09045
-595,-328,-6.37183,1.58716,0,0,0,0,0,0,0,-1,629,1352,-6.37183,-1.58716
-588,-328,-6.25024,1.86426,-0.00934309,0.00213505,-0.0101222,0.00803199,-0.01524,-1.04329,0.0136492,0.0333282,636,1352,-6.25022,-1.8643
-581,-328,-6.30151,2.1554,-0.00851384,0.000507711,-0.00358369,0.00175801,-0.00976414,-1.23512,0.00716766,0.0133527,643,1352,-6.30149,-2.15539
-574,-328,-6.28186,2.35632,-0.00497299,-0.000200538,-0.000525455,-0.000143369,-0.00503015,-1.46242,0.00330668,0.0140532,650,1352,-6.28188,-2.35635
-567,-328,-6.29688,2.5791,-0.00300775,0.000286496,-0.000272906,0.000308951,-0.00303021,-1.4887,0.0021306,0.0188303,657,1352,-6.29689,-2.57914
-560,-328,-6.2525,2.82434,-0.00212722,0.000143927,-0.000647641,0.000315628,-0.00229892,-1.31164,0.00164793,0.0259073,664,1352,-6.25251,-2.8243
-553,-328,-6.25793,2.98499,-0.00187028,-9.52772e-05,-0.000904003,0.00028406,-0.00224962,-1.17349,0.00160284,0.0277147,671,1352,-6.2579,-2.98499
-546,-328,-6.30585,3.15173,-0.00192545,-0.0004748,-0.00140479,0.000380866,-0.00278112,-1.02371,0.0019932,0.0271298,678,1352,-6.30584,-3.1517
-539,-328,-6.29431,3.35535,-0.00273711,-0.000851803,-0.00216696,0.000568659,-0.00415757,-0.990558,0.00297941,0.0227268,685,1352,-6.29432,-3.35536
-532,-328,-6.27771,3.57605,-0.00367776,-0.00129205,-0.00332155,0.00104434,-0.00601415,-0.957789,0.00439907,0.0148498,692,1352,-6.27773,-3.57601
-525,-328,-6.25171,3.81958,-0.00486108,-0.00457802,-0.00596368,0.00124581,-0.0106849,-0.797262,0.00757278,0.0116072,699,1352,-6.25169,-3.81954
-518,-328,-6.20837,4.04272,-0.0071095,-0.00748189,-0.00846223,0.00116859,-0.01576,-0.774399,0.010917,0.0327958,706,1352,-6.20838,-4.04271
-511,-328,-6.3623,3.92297,-0.0113113,-0.00878555,-0.0106455,0.000671652,-0.0207685,-0.844438,0.0140749,0.0437415,713,1352,-6.36232,-3.92296
-504,-328,-6.63116,4.42468,-0.0149159,-0.0105306,-0.0131756,0.000633537,-0.02608,-0.867853,0.0176017,0.044405,720,1352,-6.63117,-4.42466
-497,-328,-6.75928,4.77991,0,0,0,0,0,0,0,-1,727,1352,-6.75929,-4.77989
-490,-328,-3.62909,-2.71887,0,0,0,0,0,0,0,-1,734,1352,-3.62906,2.71886
-483,-328,-11.6289,2.37073,0,0,0,0,0,0,0,-1,741,1352,-11.6289,-2.37074
-476,-328,-11.8256,2.27246,-0.0354558,-0.00904518,-0.0225113,0.0038481,-0.0483491,-1.05066,0.033589,0.0468022,748,1352,-11.8256,-2.27241
-469,-328,-12.079,2.03613,-0.0431335,-0.00465644,-0.0239787,0.00684752,-0.0546374,-1.12347,0.0389088,0.0466104,755,1352,-12.079,-2.03619
-462,-328,-13.0927,1.54541,-0.05287,0.00475006,-0.0230896,0.0128609,-0.0609808,-1.23299,0.0455501,0.0457744,762,1352,-13.0927,-1.54547
-455,-328,0,0,0,0,0,0,0,0,0,-1,769,1352,0,0
-448,-328,0,0,0,0,0,0,0,0,0,-1,776,1352,0,0
-441,-328,0,0,0,0,0,0,0,0,0,-1,783,1352,0,0
-434,-328,0,0,0,0,0,0,0,0,0,-1,790,1352,0,0
-427,-328,0,0,0,0,0,0,0,0,0,-1,797,1352,0,0
-420,-328,0,0,0,0,0,0,0,0,0,-1,804,1352,0,0
-413,-328,0,0,0,0,0,0,0,0,0,-1,811,1352,0,0
-406,-328,0,0,0,0,0,0,0,0,0,-1,818,1352,0,0
-399,-328,0,0,0,0,0,0,0,0,0,-1,825,1352,0,0
-392,-328,0,0,0,0,0,0,0,0,0,-1,832,1352,0,0
-385,-328,0,0,0,0,0,0,0,0,0,-1,839,1352,0,0
-378,-328,0,0,0,0,0,0,0,0,0,-1,846,1352,0,0
-371,-328,0,0,0,0,0,0,0,0,0,-1,853,1352,0,0
-364,-328,0,0,0,0,0,0,0,0,0,-1,860,1352,0,0
-357,-328,0,0,0,0,0,0,0,0,0,-1,867,1352,0,0
-350,-328,0,0,0,0,0,0,0,0,0,-1,874,1352,0,0
-343,-328,0,0,0,0,0,0,0,0,0,-1,881,1352,0,0
-336,-328,0,0,0,0,0,0,0,0,0,-1,888,1352,0,0
-329,-328,0,0,0,0,0,0,0,0,0,-1,895,1352,0,0
-322,-328,0,0,0,0,0,0,0,0,0,-1,902,1352,0,0
-315,-328,0,0,0,0,0,0,0,0,0,-1,909,1352,0,0
-308,-328,0,0,0,0,0,0,0,0,0,-1,916,1352,0,0
-301,-328,0,0,0,0,0,0,0,0,0,-1,923,1352,0,0
-294,-328,0,0,0,0,0,0,0,0,0,-1,930,1352,0,0
-287,-328,0,0,0,0,0,0,0,0,0,-1,937,1352,0,0
-280,-328,0,0,0,0,0,0,0,0,0,-1,944,1352,0,0
-273,-328,0,0,0,0,0,0,0,0,0,-1,951,1352,0,0
-266,-328,0,0,0,0,0,0,0,0,0,-1,958,1352,0,0
-259,-328,0,0,0,0,0,0,0,0,0,-1,965,1352,0,0
-252,-328,0,0,0,0,0,0,0,0,0,-1,972,1352,0,0
-245,-328,0,0,0,0,0,0,0,0,0,-1,979,1352,0,0
-238,-328,0,0,0,0,0,0,0,0,0,-1,986,1352,0,0
-231,-328,0,0,0,0,0,0,0,0,0,-1,993,1352,0,0
-224,-328,0,0,0,0,0,0,0,0,0,-1,1000,1352,0,0
-217,-328,0,0,0,0,0,0,0,0,0,-1,1007,1352,0,0
-210,-328,0,0,0,0,0,0,0,0,0,-1,1014,1352,0,0
-203,-328,0,0,0,0,0,0,0,0,0,-1,1021,1352,0,0
-196,-328,0,0,0,0,0,0,0,0,0,-1,1028,1352,0,0
-189,-328,0,0,0,0,0,0,0,0,0,-1,1035,1352,0,0
-182,-328,0,0,0,0,0,0,0,0,0,-1,1042,1352,0,0
-175,-328,0,0,0,0,0,0,0,0,0,-1,1049,1352,0,0
-168,-328,0,0,0,0,0,0,0,0,0,-1,1056,1352,0,0
-161,-328,0,0,0,0,0,0,0,0,0,-1,1063,1352,0,0
-154,-328,0,0,0,0,0,0,0,0,0,-1,1070,1352,0,0
-147,-328,0,0,0,0,0,0,0,0,0,-1,1077,1352,0,0
-140,-328,0,0,0,0,0,0,0,0,0,-1,1084,1352,0,0
-133,-328,0,0,0,0,0,0,0,0,0,-1,1091,1352,0,0
-126,-328,0,0,0,0,0,0,0,0,0,-1,1098,1352,0,0
-119,-328,0,0,0,0,0,0,0,0,0,-1,1105,1352,0,0
-112,-328,0,0,0,0,0,0,0,0,0,-1,1112,1352,0,0
-105,-328,0,0,0,0,0,0,0,0,0,-1,1119,1352,0,0
-98,-328,0,0,0,0,0,0,0,0,0,-1,1126,1352,0,0
-91,-328,0,0,0,0,0,0,0,0,0,-1,1133,1352,0,0
-84,-328,0,0,0,0,0,0,0,0,0,-1,1140,1352,0,0
-77,-328,0,0,0,0,0,0,0,0,0,-1,1147,1352,0,0
-70,-328,0,0,0,0,0,0,0,0,0,-1,1154,1352,0,0
-63,-328,0,0,0,0,0,0,0,0,0,-1,1161,1352,0,0
-56,-328,0,0,0,0,0,0,0,0,0,-1,1168,1352,0,0
-49,-328,0,0,0,0,0,0,0,0,0,-1,1175,1352,0,0
-42,-328,0,0,0,0,0,0,0,0,0,-1,1182,1352,0,0
-35,-328,0,0,0,0,0,0,0,0,0,-1,1189,1352,0,0
-28,-328,0,0,0,0,0,0,0,0,0,-1,1196,1352,0,0
-21,-328,0,0,0,0,0,0,0,0,0,-1,1203,1352,0,0
-14,-328,0,0,0,0,0,0,0,0,0,-1,1210,1352,0,0
-7,-328,0,0,0,0,0,0,0,0,0,-1,1217,1352,0,0
0,-328,0,0,0,0,0,0,0,0,0,-1,1224,1352,0,0
7,-328,0,0,0,0,0,0,0,0,0,-1,1231,1352,0,0
14,-328,0,0,0,0,0,0,0,0,0,-1,1238,1352,0,0
21,-328,0,0,0,0,0,0,0,0,0,-1,1245,1352,0,0
28,-328,0,0,0,0,0,0,0,0,0,-1,1252,1352,0,0
35,-328,0,0,0,0,0,0,0,0,0,-1,1259,1352,0,0
42,-328,0,0,0,0,0,0,0,0,0,-1,1266,1352,0,0
49,-328,0,0,0,0,0,0,0,0,0,-1,1273,1352,0,0
56,-328,0,0,0,0,0,0,0,0,0,-1,1280,1352,0,0
63,-328,0,0,0,0,0,0,0,0,0,-1,1287,1352,0,0
70,-328,0,0,0,0,0,0,0,0,0,-1,1294,1352,0,0
77,-328,0,0,0,0,0,0,0,0,0,-1,1301,1352,0,0
84,-328,0,0,0,0,0,0,0,0,0,-1,1308,1352,0,0
91,-328,0,0,0,0,0,0,0,0,0,-1,1315,1352,0,0
98,-328,0,0,0,0,0,0,0,0,0,-1,1322,1352,0,0
105,-328,0,0,0,0,0,0,0,0,0,-1,1329,1352,0,0
112,-328,0,0,0,0,0,0,0,0,0,-1,1336,1352,0,0
119,-328,0,0,0,0,0,0,0,0,0,-1,1343,1352,0,0
126,-328,0,0,0,0,0,0,0,0,0,-1,1350,1352,0,0
133,-328,0,0,0,0,0,0,0,0,0,-1,1357,1352,0,0
140,-328,0,0,0,0,0,0,0,0,0,-1,1364,1352,0,0
147,-328,0,0,0,0,0,0,0,0,0,-1,1371,1352,0,0
154,-328,0,0,0,0,0,0,0,0,0,-1,1378,1352,0,0
161,-328,0,0,0,0,0,0,0,0,0,-1,1385,1352,0,0
168,-328,0,0,0,0,0,0,0,0,0,-1,1392,1352,0,0
175,-328,0,0,0,0,0,0,0,0,0,-1,1399,1352,0,0
182,-328,0,0,0,0,0,0,0,0,0,-1,1406,1352,0,0
189,-328,0,0,0,0,0,0,0,0,0,-1,1413,1352,0,0
196,-328,0,0,0,0,0,0,0,0,0,-1,1420,1352,0,0
203,-328,0,0,0,0,0,0,0,0,0,-1,1427,1352,0,0
210,-328,0,0,0,0,0,0,0,0,0,-1,1434,1352,0,0
217,-328,0,0,0,0,0,0,0,0,0,-1,1441,1352,0,0
224,-328,0,0,0,0,0,0,0,0,0,-1,1448,1352,0,0
231,-328,0,0,0,0,0,0,0,0,0,-1,1455,1352,0,0
238,-328,0,0,0,0,0,0,0,0,0,-1,1462,1352,0,0
245,-328,0,0,0,0,0,0,0,0,0,-1,1469,1352,0,0
252,-328,0,0,0,0,0,0,0,0,0,-1,1476,1352,0,0
259,-328,0,0,0,0,0,0,0,0,0,-1,1483,1352,0,0
266,-328,0,0,0,0,0,0,0,0,0,-1,1490,1352,0,0
273,-328,0,0,0,0,0,0,0,0,0,-1,1497,1352,0,0
280,-328,0,0,0,0,0,0,0,0,0,-1,1504,1352,0,0
287,-328,0,0,0,0,0,0,0,0,0,-1,1511,1352,0,0
294,-328,0,0,0,0,0,0,0,0,0,-1,1518,1352,0,0
301,-328,0,0,0,0,0,0,0,0,0,-1,1525,1352,0,0
308,-328,0,0,0,0,0,0,0,0,0,-1,1532,1352,0,0
315,-328,0,0,0,0,0,0,0,0,0,-1,1539,1352,0,0
322,-328,0,0,0,0,0,0,0,0,0,-1,1546,1352,0,0
329,-328,0,0,0,0,0,0,0,0,0,-1,1553,1352,0,0
336,-328,0,0,0,0,0,0,0,0,0,-1,1560,1352,0,0
343,-328,0,0,0,0,0,0,0,0,0,-1,1567,1352,0,0
350,-328,0,0,0,0,0,0,0,0,0,-1,1574,1352,0,0
357,-328,0,0,0,0,0,0,0,0,0,-1,1581,1352,0,0
364,-328,0,0,0,0,0,0,0,0,0,-1,1588,1352,0,0
371,-328,0,0,0,0,0,0,0,0,0,-1,1595,1352,0,0
378,-328,0,0,0,0,0,0,0,0,0,-1,1602,1352,0,0
385,-328,0,0,0,0,0,0,0,0,0,-1,1609,1352,0,0
392,-328,0,0,0,0,0,0,0,0,0,-1,1616,1352,0,0
399,-328,0,0,0,0,0,0,0,0,0,-1,1623,1352,0,0
406,-328,0,0,0,0,0,0,0,0,0,-1,1630,1352,0,0
413,-328,0,0,0,0,0,0,0,0,0,-1,1637,1352,0,0
420,-328,0,0,0,0,0,0,0,0,0,-1,1644,1352,0,0
427,-328,0,0,0,0,0,0,0,0,0,-1,1651,1352,0,0
434,-328,0,0,0,0,0,0,0,0,0,-1,1658,1352,0,0
441,-328,0,0,0,0,0,0,0,0,0,-1,1665,1352,0,0
448,-328,0,0,0,0,0,0,0,0,0,-1,1672,1352,0,0
455,-328,0,0,0,0,0,0,0,0,0,-1,1679,1352,0,0
462,-328,0,0,0,0,0,0,0,0,0,-1,1686,1352,0,0
469,-328,0,0,0,0,0,0,0,0,0,-1,1693,1352,0,0
476,-328,0,0,0,0,0,0,0,0,0,-1,1700,1352,0,0
483,-328,0,0,0,0,0,0,0,0,0,-1,1707,1352,0,0
490,-328,0,0,0,0,0,0,0,0,0,-1,1714,1352,0,0
497,-328,0,0,0,0,0,0,0,0,0,-1,1721,1352,0,0
504,-328,0,0,0,0,0,0,0,0,0,-1,1728,1352,0,0
511,-328,0,0,0,0,0,0,0,0,0,-1,1735,1352,0,0
518,-328,0,0,0,0,0,0,0,0,0,-1,1742,1352,0,0
525,-328,0,0,0,0,0,0,0,0,0,-1,1749,1352,0,0
532,-328,0,0,0,0,0,0,0,0,0,-1,1756,1352,0,0
539,-328,0,0,0,0,0,0,0,0,0,-1,1763,1352,0,0
546,-328,0,0,0,0,0,0,0,0,0,-1,1770,1352,0,0
553,-328,0,0,0,0,0,0,0,0,0,-1,1777,1352,0,0
560,-328,0,0,0,0,0,0,0,0,0,-1,1784,1352,0,0
567,-328,0,0,0,0,0,0,0,0,0,-1,1791,1352,0,0
574,-328,20.6891,6.87292,0,0,0,0,0,0,0,-1,1798,1352,20.6891,-6.87298
581,-328,18.8087,0.0617676,0,0,0,0,0,0,0,-1,1805,1352,18.8087,-0.0617287
588,-328,18.9323,0.000610352,0,0,0,0,0,0,0,-1,1812,1352,18.9323,-0.000591695
595,-328,19.0228,-0.0701904,0,0,0,0,0,0,0,-1,1819,1352,19.0228,0.0701941
602,-328,19.0632,0.0269775,0,0,0,0,0,0,0,-1,1826,1352,19.0632,-0.0269886
609,-328,18.2924,0.588623,0,0,0,0,0,0,0,-1,1833,1352,18.2923,-0.588633
616,-328,17.2926,0.537964,0,0,0,0,0,0,0,-1,1840,1352,17.2926,-0.537929
623,-328,16.8378,1.79822,0.00291076,0.0325012,0.0258291,0.0474724,-0.0120605,1.04549,0.0363417,0.0485525,1847,1352,16.8378,-1.79825
630,-328,16.5358,3.10522,0.00125722,0.0259563,0.0263772,0.0427319,-0.0155183,1.00434,0.0348326,0.0483537,1854,1352,16.5358,-3.10521
637,-328,14.6553,5.6554,0,0,0,0,0,0,0,-1,1861,1352,14.6553,-5.65542
644,-328,14.4108,5.63306,-0.0026775,0.015954,0.0232943,0.0317262,-0.0184497,0.975615,0.0293052,0.0464131,1868,1352,14.4108,-5.63304
651,-328,14.0833,5.67627,-0.00380208,0.0103644,0.0209785,0.0254232,-0.0188608,0.948211,0.0256608,0.0461588,1875,1352,14.0832,-5.67626
658,-328,13.8372,5.6709,-0.00473418,0.00573543,0.0175629,0.0188271,-0.0178259,0.930236,0.0211642,0.0210039,1882,1352,13.8372,-5.67088
665,-328,13.8263,5.49036,-0.00540948,0.00248986,0.0126643,0.0118061,-0.0147257,0.936556,0.015349,0.0134441,1889,1352,13.8264,-5.49032
672,-328,13.8549,5.30566,-0.00534214,0.000886134,0.00843226,0.00676093,-0.0112169,0.962286,0.0104853,0.0112037,1896,1352,13.8549,-5.30565
679,-328,13.8818,5.13123,-0.00359199,3.61115e-06,0.00389819,0.00249859,-0.00608697,1.00146,0.00509915,0.0123838,1903,1352,13.8818,-5.13123
686,-328,13.8589,4.97046,-0.00219741,-5.18427e-05,0.000488114,5.39831e-05,-0.00230323,1.3573,0.0015538,0.0107652,1910,1352,13.8588,-4.97042
693,-328,13.8431,4.81274,-0.000950055,0.00223648,-0.000423713,0.00229186,-0.00100543,-1.44083,0.00195139,0.00783022,1917,1352,13.8431,-4.81273
700,-328,13.8376,4.63403,0.000278332,0.00507348,0.000262226,0.00508778,0.000264035,1.51633,0.00330736,0.0117741,1924,1352,13.8377,-4.63403
707,-328,13.8549,4.44299,0.00191963,0.00862633,0.00101774,0.00877737,0.00176859,1.42346,0.0053602,0.0135861,1931,1352,13.8549,-4.44295
714,-328,13.847,4.25659,0.00381448,0.0126105,0.00226149,0.0131579,0.00326711,1.33332,0.00791103,0.0122533,1938,1352,13.8471,-4.25654
721,-328,13.7892,4.08899,0.00553354,0.0177418,0.00462426,0.0192956,0.00397973,1.24663,0.0117638,0.024162,1945,1352,13.7892,-4.08901
728,-328,13.9034,3.86804,0.0077352,0.0241203,0.00818657,0.0275095,0.00434596,1.17828,0.0170764,0.0382356,1952,1352,13.9034,-3.86803
735,-328,14.1741,3.49866,0.0107674,0.0318441,0.013111,0.0381271,0.00448449,1.12392,0.0240629,0.047826,1959,1352,14.1741,-3.4987
742,-328,13.7631,2.21643,0.0150465,0.0409227,0.0195842,0.0514567,0.00451261,1.07731,0.0329035,0.0471446,1966,1352,13.763,-2.21639
749,-328,14.001,2.97461,0.0213613,0.0512906,0.027756,0.067859,0.00479285,1.03264,0.0437294,0.0459812,1973,1352,14.001,-2.97456
756,-328,14.2144,3.60693,0.0312905,0.0627015,0.03774,0.0878735,0.00611853,0.982574,0.0566531,0.0488438,1980,1352,14.2144,-3.60689
763,-328,0,0,0,0,0,0,0,0,0,-1,1987,1352,0,0
770,-328,0,0,0,0,0,0,0,0,0,-1,1994,1352,0,0
777,-328,0,0,0,0,0,0,0,0,0,-1,2001,1352,0,0
784,-328,0,0,0,0,0,0,0,0,0,-1,2008,1352,0,0
791,-328,0,0,0,0,0,0,0,0,0,-1,2015,1352,0,0
798,-328,0,0,0,0,0,0,0,0,0,-1,2022,1352,0,0
805,-328,0,0,0,0,0,0,0,0,0,-1,2029,1352,0,0
812,-328,0,0,0,0,0,0,0,0,0,-1,2036,1352,0,0
-700,-335,0,0,0,0,0,0,0,0,0,-1,524,1359,0,0
-693,-335,0,0,0,0,0,0,0,0,0,-1,531,1359,0,0
-686,-335,0,0,0,0,0,0,0,0,0,-1,538,1359,0,0
-679,-335,0,0,0,0,0,0,0,0,0,-1,545,1359,0,0
-672,-335,0,0,0,0,0,0,0,0,0,-1,552,1359,0,0
-665,-335,0,0,0,0,0,0,0,0,0,-1,559,1359,0,0
-658,-335,0,0,0,0,0,0,0,0,0,-1,566,1359,0,0
-651,-335,0,0,0,0,0,0,0,0,0,-1,573,1359,0,0
-644,-335,0,0,0,0,0,0,0,0,0,-1,580,1359,0,0
-637,-335,-1.77557,0.797119,-0.0253903,0.0242843,-0.0796342,0.0828645,-0.0839706,-0.936564,0.096323,0.048479,587,1359,-1.77555,-0.797116
-630,-335,-1.81323,0.413208,-0.0222105,0.0196379,-0.0668339,0.0687465,-0.0713191,-0.937104,0.0808715,0.0456204,594,1359,-1.8132,-0.413216
-623,-335,-1.99255,0.229492,-0.0193269,0.0156727,-0.0546769,0.0555821,-0.0592362,-0.940276,0.0663016,0.0498166,601,1359,-1.99257,-0.22949
-616,-335,-2.10559,0.0615234,0,0,0,0,0,0,0,-1,608,1359,-2.10557,-0.0614734
-609,-335,-7.664,-2.79272,0,0,0,0,0,0,0,-1,615,1359,-7.66403,2.79271
-602,-335,-5.81036,1.53333,0,0,0,0,0,0,0,-1,622,1359,-5.81034,-1.53337
-595,-335,-5.85797,1.81946,-0.0111554,0.00442307,-0.0180948,0.0163339,-0.0230663,-0.988646,0.0228581,0.0446775,629,1359,-5.85796,-1.81944
-588,-335,-5.91931,2.05823,-0.009977,0.00221682,-0.0113763,0.009027,-0.0167872,-1.03139,0.0151266,0.0353698,636,1359,-5.91928,-2.05822
-581,-335,-6.08075,2.18396,-0.00902226,0.000689299,-0.00436781,0.0023647,-0.0106977,-1.20452,0.00803683,0.0183698,643,1359,-6.08076,-2.18391
-574,-335,-6.08057,2.35229,-0.00573122,6.45839e-05,-0.000910235,0.000204175,-0.00587081,-1.41862,0.00398368,0.0120953,650,1359,-6.08055,-2.3523
-567,-335,-6.0871,2.58887,-0.003713,0.000362827,-0.000235742,0.000376417,-0.00372659,-1.51321,0.0026189,0.0164997,657,1359,-6.08712,-2.58881
-560,-335,-6.03839,2.76514,-0.00265962,0.000211853,-0.000527145,0.000305568,-0.00275333,-1.39486,0.00194543,0.0241332,664,1359,-6.03837,-2.7651
-553,-335,-6.09772,2.96021,-0.00217443,-1.94947e-05,-0.00075839,0.000220646,-0.00241457,-1.26414,0.00168807,0.0256831,671,1359,-6.0977,-2.96022
-546,-335,-6.14703,3.18408,-0.00198289,-0.000393056,-0.0012196,0.00026781,-0.00264376,-1.07421,0.00185822,0.0246991,678,1359,-6.14706,-3.18414
-539,-335,-6.10278,3.36584,-0.00238585,-0.000811641,-0.00194177,0.000496489,-0.00369398,-0.977955,0.00264374,0.0207872,685,1359,-6.1028,-3.36585
-532,-335,-6.09058,3.58179,-0.00286748,-0.00128945,-0.00317555,0.00119364,-0.00535057,-0.907165,0.00402437,0.0150165,692,1359,-6.0906,-3.58175
-525,-335,-6.06305,3.81946,-0.00372891,-0.00446696,-0.00607419,0.00198745,-0.0101833,-0.755059,0.00753919,0.00973735,699,1359,-6.06305,-3.81943
-518,-335,-6.03235,3.99939,-0.00580037,-0.00748088,-0.00898805,0.00238661,-0.0156679,-0.738791,0.0113249,0.0173255,706,1359,-6.03235,-3.9994
-511,-335,-6.08368,3.90723,-0.0101135,-0.00911865,-0.0118088,0.00220324,-0.0214354,-0.806447,0.0150784,0.0415416,713,1359,-6.08365,-3.90726
-504,-335,-6.37488,4.20007,-0.0140055,-0.0110276,-0.0150631,0.00261994,-0.0276531,-0.834661,0.0193679,0.0472026,720,1359,-6.37486,-4.20006
-497,-335,-6.64172,4.53772,0,0,0,0,0,0,0,-1,727,1359,-6.64169,-4.53773
-490,-335,-10.4026,4.84692,0,0,0,0,0,0,0,-1,734,1359,-10.4026,-4.84693
-483,-335,-10.6708,3.99927,0,0,0,0,0,0,0,-1,741,1359,-10.6708,-3.99932
-476,-335,-11.0725,3.05066,-0.0374956,-0.00734098,-0.0264988,0.0080696,-0.0529062,-1.04405,0.0382455,0.0447108,748,1359,-11.0725,-3.05071
-469,-335,-11.4731,2.27161,-0.0457154,-0.00260881,-0.0284171,0.0115041,-0.0598283,-1.10985,0.0442219,0.0457329,755,1359,-11.4731,-2.27161
-462,-335,-12.3464,2.01086,-0.0555664,0.00631624,-0.0283753,0.0173573,-0.0666075,-1.19971,0.0511815,0.0417733,762,1359,-12.3464,-2.0109
-455,-335,-13.5185,2.03076,0,0,0,0,0,0,0,-1,769,1359,-13.5185,-2.03075
-448,-335,0,0,0,0,0,0,0,0,0,-1,776,1359,0,0
-441,-335,0,0,0,0,0,0,0,0,0,-1,783,1359,0,0
-434,-335,0,0,0,0,0,0,0,0,0,-1,790,1359,0,0
-427,-335,0,0,0,0,0,0,0,0,0,-1,797,1359,0,0
-420,-335,0,0,0,0,0,0,0,0,0,-1,804,1359,0,0
-413,-335,0,0,0,0,0,0,0,0,0,-1,811,1359,0,0
-406,-335,0,0,0,0,0,0,0,0,0,-1,818,1359,0,0
-399,-335,0,0,0,0,0,0,0,0,0,-1,825,1359,0,0
-392,-335,0,0,0,0,0,0,0,0,0,-1,832,1359,0,0
-385,-335,0,0,0,0,0,0,0,0,0,-1,839,1359,0,0
-378,-335,0,0,0,0,0,0,0,0,0,-1,846,1359,0,0
-371,-335,0,0,0,0,0,0,0,0,0,-1,853,1359,0,0
-364,-335,0,0,0,0,0,0,0,0,0,-1,860,1359,0,0
-357,-335,0,0,0,0,0,0,0,0,0,-1,867,1359,0,0
-350,-335,0,0,0,0,0,0,0,0,0,-1,874,1359,0,0
-343,-335,0,0,0,0,0,0,0,0,0,-1,881,1359,0,0
-336,-335,0,0,0,0,0,0,0,0,0,-1,888,1359,0,0
-329,-335,0,0,0,0,0,0,0,0,0,-1,895,1359,0,0
-322,-335,0,0,0,0,0,0,0,0,0,-1,902,1359,0,0
-315,-335,0,0,0,0,0,0,0,0,0,-1,909,1359,0,0
-308,-335,0,0,0,0,0,0,0,0,0,-1,916,1359,0,0
-301,-335,0,0,0,0,0,0,0,0,0,-1,923,1359,0,0
-294,-335,0,0,0,0,0,0,0,0,0,-1,930,1359,0,0
-287,-335,0,0,0,0,0,0,0,0,0,-1,937,1359,0,0
-280,-335,0,0,0,0,0,0,0,0,0,-1,944,1359,0,0
-273,-335,0,0,0,0,0,0,0,0,0,-1,951,1359,0,0
-266,-335,0,0,0,0,0,0,0,0,0,-1,958,1359,0,0
-259,-335,0,0,0,0,0,0,0,0,0,-1,965,1359,0,0
-252,-335,0,0,0,0,0,0,0,0,0,-1,972,1359,0,0
-245,-335,0,0,0,0,0,0,0,0,0,-1,979,1359,0,0
-238,-335,0,0,0,0,0,0,0,0,0,-1,986,1359,0,0
-231,-335,0,0,0,0,0,0,0,0,0,-1,993,1359,0,0
-224,-335,0,0,0,0,0,0,0,0,0,-1,1000,1359,0,0
-217,-335,0,0,0,0,0,0,0,0,0,-1,1007,1359,0,0
-210,-335,0,0,0,0,0,0,0,0,0,-1,1014,1359,0,0
-203,-335,0,0,0,0,0,0,0,0,0,-1,1021,1359,0,0
-196,-335,0,0,0,0,0,0,0,0,0,-1,1028,1359,0,0
-189,-335,0,0,0,0,0,0,0,0,0,-1,1035,1359,0,0
-182,-335,0,0,0,0,0,0,0,0,0,-1,1042,1359,0,0
-175,-335,0,0,0,0,0,0,0,0,0,-1,1049,1359,0,0
-168,-335,0,0,0,0,0,0,0,0,0,-1,1056,1359,0,0
-161,-335,0,0,0,0,0,0,0,0,0,-1,1063,1359,0,0
-154,-335,0,0,0,0,0,0,0,0,0,-1,1070,1359,0,0
-147,-335,0,0,0,0,0,0,0,0,0,-1,1077,1359,0,0
-140,-335,0,0,0,0,0,0,0,0,0,-1,1084,1359,0,0
-133,-335,0,0,0,0,0,0,0,0,0,-1,1091,1359,0,0
-126,-335,0,0,0,0,0,0,0,0,0,-1,1098,1359,0,0
-119,-335,0,0,0,0,0,0,0,0,0,-1,1105,1359,0,0
-112,-335,0,0,0,0,0,0,0,0,0,-1,1112,1359,0,0
-105,-335,0,0,0,0,0,0,0,0,0,-1,1119,1359,0,0
-98,-335,0,0,0,0,0,0,0,0,0,-1,1126,1359,0,0
-91,-335,0,0,0,0,0,0,0,0,0,-1,1133,1359,0,0
-84,-335,0,0,0,0,0,0,0,0,0,-1,1140,1359,0,0
-77,-335,0,0,0,0,0,0,0,0,0,-1,1147,1359,0,0
-70,-335,0,0,0,0,0,0,0,0,0,-1,1154,1359,0,0
-63,-335,0,0,0,0,0,0,0,0,0,-1,1161,1359,0,0
-56,-335,0,0,0,0,0,0,0,0,0,-1,1168,1359,0,0
-49,-335,0,0,0,0,0,0,0,0,0,-1,1175,1359,0,0
-42,-335,0,0,0,0,0,0,0,0,0,-1,1182,1359,0,0
-35,-335,0,0,0,0,0,0,0,0,0,-1,1189,1359,0,0
-28,-335,0,0,0,0,0,0,0,0,0,-1,1196,1359,0,0
-21,-335,0,0,0,0,0,0,0,0,0,-1,1203,1359,0,0
-14,-335,0,0,0,0,0,0,0,0,0,-1,1210,1359,0,0
-7,-335,0,0,0,0,0,0,0,0,0,-1,1217,1359,0,0
0,-335,0,0,0,0,0,0,0,0,0,-1,1224,1359,0,0
7,-335,0,0,0,0,0,0,0,0,0,-1,1231,1359,0,0
14,-335,0,0,0,0,0,0,0,0,0,-1,1238,1359,0,0
21,-335,0,0,0,0,0,0,0,0,0,-1,1245,1359,0,0
28,-335,0,0,0,0,0,0,0,0,0,-1,1252,1359,0,0
35,-335,0,0,0,0,0,0,0,0,0,-1,1259,1359,0,0
42,-335,0,0,0,0,0,0,0,0,0,-1,1266,1359,0,0
49,-335,0,0,0,0,0,0,0,0,0,-1,1273,1359,0,0
56,-335,0,0,0,0,0,0,0,0,0,-1,1280,1359,0,0
63,-335,0,0,0,0,0,0,0,0,0,-1,1287,1359,0,0
70,-335,0,0,0,0,0,0,0,0,0,-1,1294,1359,0,0
77,-335,0,0,0,0,0,0,0,0,0,-1,1301,1359,0,0
84,-335,0,0,0,0,0,0,0,0,0,-1,1308,1359,0,0
91,-335,0,0,0,0,0,0,0,0,0,-1,1315,1359,0,0
98,-335,0,0,0,0,0,0,0,0,0,-1,1322,1359,0,0
105,-335,0,0,0,0,0,0,0,0,0,-1,1329,1359,0,0
112,-335,0,0,0,0,0,0,0,0,0,-1,1336,1359,0,0
119,-335,0,0,0,0,0,0,0,0,0,-1,1343,1359,0,0
126,-335,0,0,0,0,0,0,0,0,0,-1,1350,1359,0,0
133,-335,0,0,0,0,0,0,0,0,0,-1,1357,1359,0,0
140,-335,0,0,0,0,0,0,0,0,0,-1,1364,1359,0,0
147,-335,0,0,0,0,0,0,0,0,0,-1,1371,1359,0,0
154,-335,0,0,0,0,0,0,0,0,0,-1,1378,1359,0,0
161,-335,0,0,0,0,0,0,0,0,0,-1,1385,1359,0,0
168,-335,0,0,0,0,0,0,0,0,0,-1,1392,1359,0,0
175,-335,0,0,0,0,0,0,0,0,0,-1,1399,1359,0,0
182,-335,0,0,0,0,0,0,0,0,0,-1,1406,1359,0,0
189,-335,0,0,0,0,0,0,0,0,0,-1,1413,1359,0,0
196,-335,0,0,0,0,0,0,0,0,0,-1,1420,1359,0,0
203,-335,0,0,0,0,0,0,0,0,0,-1,1427,1359,0,0
210,-335,0,0,0,0,0,0,0,0,0,-1,1434,1359,0,0
217,-335,0,0,0,0,0,0,0,0,0,-1,1441,1359,0,0
224,-335,0,0,0,0,0,0,0,0,0,-1,1448,1359,0,0
231,-335,0,0,0,0,0,0,0,0,0,-1,1455,1359,0,0
238,-335,0,0,0,0,0,0,0,0,0,-1,1462,1359,0,0
245,-335,0,0,0,0,0,0,0,0,0,-1,1469,1359,0,0
252,-335,0,0,0,0,0,0,0,0,0,-1,1476,1359,0,0
259,-335,0,0,0,0,0,0,0,0,0,-1,1483,1359,0,0
266,-335,0,0,0,0,0,0,0,0,0,-1,1490,1359,0,0
273,-335,0,0,0,0,0,0,0,0,0,-1,1497,1359,0,0
280,-335,0,0,0,0,0,0,0,0,0,-1,1504,1359,0,0
287,-335,0,0,0,0,0,0,0,0,0,-1,1511,1359,0,0
294,-335,0,0,0,0,0,0,0,0,0,-1,1518,1359,0,0
301,-335,0,0,0,0,0,0,0,0,0,-1,1525,1359,0,0
308,-335,0,0,0,0,0,0,0,0,0,-1,1532,1359,0,0
315,-335,0,0,0,0,0,0,0,0,0,-1,1539,1359,0,0
322,-335,0,0,0,0,0,0,0,0,0,-1,1546,1359,0,0
329,-335,0,0,0,0,0,0,0,0,0,-1,1553,1359,0,0
336,-335,0,0,0,0,0,0,0,0,0,-1,1560,1359,0,0
343,-335,0,0,0,0,0,0,0,0,0,-1,1567,1359,0,0
350,-335,0,0,0,0,0,0,0,0,0,-1,1574,1359,0,0
357,-335,0,0,0,0,0,0,0,0,0,-1,1581,1359,0,0
364,-335,0,0,0,0,0,0,0,0,0,-1,1588,1359,0,0
371,-335,0,0,0,0,0,0,0,0,0,-1,1595,1359,0,0
378,-335,0,0,0,0,0,0,0,0,0,-1,1602,1359,0,0
385,-335,0,0,0,0,0,0,0,0,0,-1,1609,1359,0,0
392,-335,0,0,0,0,0,0,0,0,0,-1,1616,1359,0,0
399,-335,0,0,0,0,0,0,0,0,0,-1,1623,1359,0,0
406,-335,0,0,0,0,0,0,0,0,0,-1,1630,1359,0,0
413,-335,0,0,0,0,0,0,0,0,0,-1,1637,1359,0,0
420,-335,0,0,0,0,0,0,0,0,0,-1,1644,1359,0,0
427,-335,0,0,0,0,0,0,0,0,0,-1,1651,1359,0,0
434,-335,0,0,0,0,0,0,0,0,0,-1,1658,1359,0,0
441,-335,0,0,0,0,0,0,0,0,0,-1,1665,1359,0,0
448,-335,0,0,0,0,0,0,0,0,0,-1,1672,1359,0,0
455,-335,0,0,0,0,0,0,0,0,0,-1,1679,1359,0,0
462,-335,0,0,0,0,0,0,0,0,0,-1,1686,1359,0,0
469,-335,0,0,0,0,0,0,0,0,0,-1,1693,1359,0,0
476,-335,0,0,0,0,0,0,0,0,0,-1,1700,1359,0,0
483,-335,0,0,0,0,0,0,0,0,0,-1,1707,1359,0,0
490,-335,0,0,0,0,0,0,0,0,0,-1,1714,1359,0,0
497,-335,0,0,0,0,0,0,0,0,0,-1,1721,1359,0,0
504,-335,0,0,0,0,0,0,0,0,0,-1,1728,1359,0,0
511,-335,0,0,0,0,0,0,0,0,0,-1,1735,1359,0,0
518,-335,0,0,0,0,0,0,0,0,0,-1,1742,1359,0,0
525,-335,0,0,0,0,0,0,0,0,0,-1,1749,1359,0,0
532,-335,0,0,0,0,0,0,0,0,0,-1,1756,1359,0,0
539,-335,0,0,0,0,0,0,0,0,0,-1,1763,1359,0,0
546,-335,0,0,0,0,0,0,0,0,0,-1,1770,1359,0,0
553,-335,0,0,0,0,0,0,0,0,0,-1,1777,1359,0,0
560,-335,0,0,0,0,0,0,0,0,0,-1,1784,1359,0,0
567,-335,0,0,0,0,0,0,0,0,0,-1,1791,1359,0,0
574,-335,19.8322,6.30042,0,0,0,0,0,0,0,-1,1798,1359,19.8322,-6.30047
581,-335,19.6532,5.57178,0,0,0,0,0,0,0,-1,1805,1359,19.6532,-5.57184
588,-335,19.3203,-0.788696,0,0,0,0,0,0,0,-1,1812,1359,19.3203,0.788677
595,-335,19.3851,-0.826538,0,0,0,0,0,0,0,-1,1819,1359,19.3851,0.826478
602,-335,15.8483,0.696899,0,0,0,0,0,0,0,-1,1826,1359,15.8482,-0.696951
609,-335,18.1154,0.544556,0,0,0,0,0,0,0,-1,1833,1359,18.1153,-0.544513
616,-335,16.9069,4.84351,0,0,0,0,0,0,0,-1,1840,1359,16.9069,-4.84353
623,-335,15.829,1.13635,0,0,0,0,0,0,0,-1,1847,1359,15.8289,-1.1363
630,-335,15.6498,2.32153,0,0,0,0,0,0,0,-1,1854,1359,15.6497,-2.32156
637,-335,14.2201,5.60303,0,0,0,0,0,0,0,-1,1861,1359,14.22,-5.60297
644,-335,13.9438,5.72729,-0.00225099,0.0143937,0.0228944,0.0304315,-0.0182887,0.959728,0.0284183,0.0420503,1868,1359,13.9438,-5.72728
651,-335,13.714,5.84033,-0.00337233,0.00904225,0.0202532,0.024018,-0.0183481,0.934096,0.024533,0.020063,1875,1359,13.7139,-5.84033
658,-335,13.6649,5.71033,-0.00426307,0.0046877,0.0165977,0.0174028,-0.0169782,0.917086,0.0198504,0.0139453,1882,1359,13.6649,-5.71037
665,-335,13.6658,5.5,-0.00474552,0.0019393,0.0117352,0.0107988,-0.0136051,0.924134,0.0141206,0.0137647,1889,1359,13.6658,-5.50003
672,-335,13.6711,5.30579,-0.00452708,0.000772618,0.00746728,0.00604628,-0.00980074,0.955898,0.00923447,0.0159283,1896,1359,13.6711,-5.3058
679,-335,13.6927,5.146,-0.00272835,0.000137047,0.00310259,0.00212176,-0.00471306,1.0017,0.00403951,0.0137043,1903,1359,13.6928,-5.14602
686,-335,13.688,4.97876,-0.00131091,0.000289544,-0.000213289,0.000317481,-0.00133885,-1.44056,0.00101508,0.0105745,1910,1359,13.688,-4.97871
693,-335,13.6675,4.79468,-0.000225877,0.00276179,-0.00110576,0.00312651,-0.000590601,-1.25219,0.00230655,0.00927655,1917,1359,13.6675,-4.79469
700,-335,13.6434,4.62561,0.000740247,0.00593036,-0.000171942,0.00593605,0.000734557,-1.53772,0.00373666,0.0101001,1924,1359,13.6434,-4.62559
707,-335,13.6669,4.43958,0.00204239,0.00982569,0.000726943,0.009893,0.00197508,1.47846,0.00604549,0.0128683,1931,1359,13.6668,-4.43955
714,-335,13.6792,4.2157,0.00338383,0.0143932,0.00227677,0.0148455,0.00293156,1.37471,0.00907898,0.018614,1938,1359,13.6792,-4.21568
721,-335,13.5314,3.91541,0.00442423,0.0203598,0.00507729,0.02184,0.00294403,1.28712,0.0136847,0.0356817,1945,1359,13.5314,-3.91546
728,-335,13.8379,3.74597,0.00563459,0.0278511,0.00927535,0.0312144,0.00227131,1.22294,0.0200953,0.0479096,1952,1359,13.8379,-3.74592
735,-335,14.0858,3.50854,0.00717289,0.0369728,0.0150997,0.0432863,0.000859434,1.17477,0.0285754,0.0495537,1959,1359,14.0858,-3.50852
742,-335,13.7428,1.5741,0.00924023,0.0477347,0.0227954,0.0583218,-0.00134685,1.136,0.0393378,0.0484129,1966,1359,13.7428,-1.5741
749,-335,13.9283,2.01672,0.0124425,0.0600989,0.0325775,0.0766325,-0.0040911,1.10115,0.0525052,0.0448646,1973,1359,13.9283,-2.0167
756,-335,14.179,2.97351,0,0,0,0,0,0,0,-1,1980,1359,14.179,-2.97355
763,-335,0,0,0,0,0,0,0,0,0,-1,1987,1359,0,0
770,-335,0,0,0,0,0,0,0,0,0,-1,1994,1359,0,0
777,-335,0,0,0,0,0,0,0,0,0,-1,2001,1359,0,0
784,-335,0,0,0,0,0,0,0,0,0,-1,2008,1359,0,0
791,-335,0,0,0,0,0,0,0,0,0,-1,2015,1359,0,0
798,-335,0,0,0,0,0,0,0,0,0,-1,2022,1359,0,0
805,-335,0,0,0,0,0,0,0,0,0,-1,2029,1359,0,0
812,-335,0,0,0,0,0,0,0,0,0,-1,2036,1359,0,0
-700,-342,0,0,0,0,0,0,0,0,0,-1,524,1366,0,0
-693,-342,0,0,0,0,0,0,0,0,0,-1,531,1366,0,0
-686,-342,0,0,0,0,0,0,0,0,0,-1,538,1366,0,0
-679,-342,0,0,0,0,0,0,0,0,0,-1,545,1366,0,0
-672,-342,0,0,0,0,0,0,0,0,0,-1,552,1366,0,0
-665,-342,0,0,0,0,0,0,0,0,0,-1,559,1366,0,0
-658,-342,0,0,0,0,0,0,0,0,0,-1,566,1366,0,0
-651,-342,0,0,0,0,0,0,0,0,0,-1,573,1366,0,0
-644,-342,0,0,0,0,0,0,0,0,0,-1,580,1366,0,0
-637,-342,-1.20453,0.962646,-0.0360058,0.020723,-0.0892944,0.0860497,-0.101333,-0.939183,0.108305,0.0493547,587,1366,-1.20454,-0.962649
-630,-342,-0.928223,0.474731,-0.0289884,0.0174199,-0.0741719,0.0719325,-0.083501,-0.936997,0.0898224,0.0462169,594,1366,-0.928203,-0.474787
-623,-342,-1.0249,0.189087,-0.0234353,0.0146645,-0.0607588,0.0592898,-0.0680606,-0.937311,0.0735839,0.0472809,601,1366,-1.02489,-0.189125
-616,-342,-1.0625,0.0172119,0,0,0,0,0,0,0,-1,608,1366,-1.06251,-0.0172578
-609,-342,-5.72308,-0.100586,0,0,0,0,0,0,0,-1,615,1366,-5.72307,0.100632
-602,-342,-5.69867,1.625,0,0,0,0,0,0,0,-1,622,1366,-5.69867,-1.62502
-595,-342,-5.74182,1.91479,-0.0115327,0.005456,-0.0203294,0.0189943,-0.025071,-0.983292,0.0255217,0.0452281,629,1366,-5.74179,-1.91479
-588,-342,-5.64685,1.92578,-0.00998519,0.00313581,-0.0129231,0.0110683,-0.0179176,-1.02028,0.01689,0.0419064,636,1366,-5.64683,-1.92575
-581,-342,-5.85986,2.13928,-0.00916847,0.00165934,-0.00549858,0.00396196,-0.0114711,-1.17422,0.00925518,0.0301186,643,1366,-5.85984,-2.13933
-574,-342,-5.90784,2.38049,-0.00632049,0.000918126,-0.0016046,0.00125788,-0.00666024,-1.36214,0.00491342,0.0104646,650,1366,-5.90781,-2.38044
-567,-342,-5.86475,2.55664,-0.00442381,0.000724879,-0.000389697,0.000754207,-0.00445314,-1.49568,0.00324947,0.0169871,657,1366,-5.86475,-2.55666
-560,-342,-5.854,2.71362,-0.00323287,0.000440744,-0.000577274,0.000529322,-0.00332145,-1.41854,0.00241019,0.0255198,664,1366,-5.85398,-2.71363
-553,-342,-5.91992,2.88281,-0.00248245,0.000149776,-0.000765262,0.000356089,-0.00268876,-1.30746,0.00192223,0.026763,671,1366,-5.91993,-2.88279
-546,-342,-5.95117,3.14941,-0.00203057,-0.000255162,-0.0011569,0.000315365,-0.0026011,-1.11264,0.00184818,0.0261643,678,1366,-5.95117,-3.14938
-539,-342,-5.88556,3.41077,-0.0020777,-0.000776422,-0.00180252,0.000489297,-0.00334342,-0.958601,0.00240867,0.023042,685,1366,-5.88557,-3.4108
-532,-342,-5.87518,3.61401,-0.00214372,-0.00137521,-0.00308912,0.00135347,-0.00487239,-0.847275,0.00378105,0.0174952,692,1366,-5.87515,-3.614
-525,-342,-5.86646,3.82483,-0.00257565,-0.00445051,-0.00616603,0.00272381,-0.00974996,-0.70996,0.00757299,0.0103019,699,1366,-5.86647,-3.82479
-518,-342,-5.8396,4.03223,-0.00432341,-0.00753743,-0.00939496,0.00360098,-0.0154618,-0.700693,0.0116945,0.0126318,706,1366,-5.83962,-4.03225
-511,-342,-5.84735,4.08862,-0.00855143,-0.00955757,-0.01279,0.00374538,-0.0218544,-0.765742,0.0159652,0.0346053,713,1366,-5.84736,-4.08864
-504,-342,-5.77057,4.12256,0,0,0,0,0,0,0,-1,720,1366,-5.77055,-4.12255
-497,-342,-6.10504,3.86072,0,0,0,0,0,0,0,-1,727,1366,-6.10502,-3.86068
-490,-342,-6.18494,4.11755,0,0,0,0,0,0,0,-1,734,1366,-6.18493,-4.11761
-483,-342,-10.0878,4.8042,0,0,0,0,0,0,0,-1,741,1366,-10.0878,-4.80417
-476,-342,-10.3035,3.91931,-0.0386707,-0.00593157,-0.0299421,0.0118236,-0.0564258,-1.03555,0.0421153,0.03984,748,1366,-10.3034,-3.9193
-469,-342,-10.6417,2.93103,-0.047316,-0.00100096,-0.0320785,0.0154054,-0.0637223,-1.09804,0.0484403,0.040841,755,1366,-10.6417,-2.93107
-462,-342,-11.2371,2.19946,-0.0573528,0.00740872,-0.0326366,0.0210026,-0.0709466,-1.17613,0.0556361,0.0443405,762,1366,-11.2371,-2.19949
-455,-342,-11.8339,1.47595,0,0,0,0,0,0,0,-1,769,1366,-11.8338,-1.47599
-448,-342,-13.3226,2.94934,0,0,0,0,0,0,0,-1,776,1366,-13.3226,-2.94939
-441,-342,0,0,0,0,0,0,0,0,0,-1,783,1366,0,0
-434,-342,0,0,0,0,0,0,0,0,0,-1,790,1366,0,0
-427,-342,0,0,0,0,0,0,0,0,0,-1,797,1366,0,0
-420,-342,0,0,0,0,0,0,0,0,0,-1,804,1366,0,0
-413,-342,0,0,0,0,0,0,0,0,0,-1,811,1366,0,0
-406,-342,0,0,0,0,0,0,0,0,0,-1,818,1366,0,0
-399,-342,0,0,0,0,0,0,0,0,0,-1,825,1366,0,0
-392,-342,0,0,0,0,0,0,0,0,0,-1,832,1366,0,0
-385,-342,0,0,0,0,0,0,0,0,0,-1,839,1366,0,0
-378,-342,0,0,0,0,0,0,0,0,0,-1,846,1366,0,0
-371,-342,0,0,0,0,0,0,0,0,0,-1,853,1366,0,0
-364,-342,0,0,0,0,0,0,0,0,0,-1,860,1366,0,0
-357,-342,0,0,0,0,0,0,0,0,0,-1,867,1366,0,0
-350,-342,0,0,0,0,0,0,0,0,0,-1,874,1366,0,0
-343,-342,0,0,0,0,0,0,0,0,0,-1,881,1366,0,0
-336,-342,0,0,0,0,0,0,0,0,0,-1,888,1366,0,0
-329,-342,0,0,0,0,0,0,0,0,0,-1,895,1366,0,0
-322,-342,0,0,0,0,0,0,0,0,0,-1,902,1366,0,0
-315,-342,0,0,0,0,0,0,0,0,0,-1,909,1366,0,0
-308,-342,0,0,0,0,0,0,0,0,0,-1,916,1366,0,0
-301,-342,0,0,0,0,0,0,0,0,0,-1,923,1366,0,0
-294,-342,0,0,0,0,0,0,0,0,0,-1,930,1366,0,0
-287,-342,0,0,0,0,0,0,0,0,0,-1,937,1366,0,0
-280,-342,0,0,0,0,0,0,0,0,0,-1,944,1366,0,0
-273,-342,0,0,0,0,0,0,0,0,0,-1,951,1366,0,0
-266,-342,0,0,0,0,0,0,0,0,0,-1,958,1366,0,0
-259,-342,0,0,0,0,0,0,0,0,0,-1,965,1366,0,0
-252,-342,0,0,0,0,0,0,0,0,0,-1,972,1366,0,0
-245,-342,0,0,0,0,0,0,0,0,0,-1,979,1366,0,0
-238,-342,0,0,0,0,0,0,0,0,0,-1,986,1366,0,0
-231,-342,0,0,0,0,0,0,0,0,0,-1,993,1366,0,0
-224,-342,0,0,0,0,0,0,0,0,0,-1,1000,1366,0,0
-217,-342,0,0,0,0,0,0,0,0,0,-1,1007,1366,0,0
-210,-342,0,0,0,0,0,0,0,0,0,-1,1014,1366,0,0
-203,-342,0,0,0,0,0,0,0,0,0,-1,1021,1366,0,0
-196,-342,0,0,0,0,0,0,0,0,0,-1,1028,1366,0,0
-189,-342,0,0,0,0,0,0,0,0,0,-1,1035,1366,0,0
-182,-342,0,0,0,0,0,0,0,0,0,-1,1042,1366,0,0
-175,-342,0,0,0,0,0,0,0,0,0,-1,1049,1366,0,0
-168,-342,0,0,0,0,0,0,0,0,0,-1,1056,1366,0,0
-161,-342,0,0,0,0,0,0,0,0,0,-1,1063,1366,0,0
-154,-342,0,0,0,0,0,0,0,0,0,-1,1070,1366,0,0
-147,-342,0,0,0,0,0,0,0,0,0,-1,1077,1366,0,0
-140,-342,0,0,0,0,0,0,0,0,0,-1,1084,1366,0,0
-133,-342,0,0,0,0,0,0,0,0,0,-1,1091,1366,0,0
-126,-342,0,0,0,0,0,0,0,0,0,-1,1098,1366,0,0
-119,-342,0,0,0,0,0,0,0,0,0,-1,1105,1366,0,0
-112,-342,0,0,0,0,0,0,0,0,0,-1,1112,1366,0,0
-105,-342,0,0,0,0,0,0,0,0,0,-1,1119,1366,0,0
-98,-342,0,0,0,0,0,0,0,0,0,-1,1126,1366,0,0
-91,-342,0,0,0,0,0,0,0,0,0,-1,1133,1366,0,0
-84,-342,0,0,0,0,0,0,0,0,0,-1,1140,1366,0,0
-77,-342,0,0,0,0,0,0,0,0,0,-1,1147,1366,0,0
-70,-342,0,0,0,0,0,0,0,0,0,-1,1154,1366,0,0
-63,-342,0,0,0,0,0,0,0,0,0,-1,1161,1366,0,0
-56,-342,0,0,0,0,0,0,0,0,0,-1,1168,1366,0,0
-49,-342,0,0,0,0,0,0,0,0,0,-1,1175,1366,0,0
-42,-342,0,0,0,0,0,0,0,0,0,-1,1182,1366,0,0
-35,-342,0,0,0,0,0,0,0,0,0,-1,1189,1366,0,0
-28,-342,0,0,0,0,0,0,0,0,0,-1,1196,1366,0,0
-21,-342,0,0,0,0,0,0,0,0,0,-1,1203,1366,0,0
-14,-342,0,0,0,0,0,0,0,0,0,-1,1210,1366,0,0
-7,-342,0,0,0,0,0,0,0,0,0,-1,1217,1366,0,0
0,-342,0,0,0,0,0,0,0,0,0,-1,1224,1366,0,0
7,-342,0,0,0,0,0,0,0,0,0,-1,1231,1366,0,0
14,-342,0,0,0,0,0,0,0,0,0,-1,1238,1366,0,0
21,-342,0,0,0,0,0,0,0,0,0,-1,1245,1366,0,0
28,-342,0,0,0,0,0,0,0,0,0,-1,1252,1366,0,0
35,-342,0,0,0,0,0,0,0,0,0,-1,1259,1366,0,0
42,-342,0,0,0,0,0,0,0,0,0,-1,1266,1366,0,0
49,-342,0,0,0,0,0,0,0,0,0,-1,1273,1366,0,0
56,-342,0,0,0,0,0,0,0,0,0,-1,1280,1366,0,0
63,-342,0,0,0,0,0,0,0,0,0,-1,1287,1366,0,0
70,-342,0,0,0,0,0,0,0,0,0,-1,1294,1366,0,0
77,-342,0,0,0,0,0,0,0,0,0,-1,1301,1366,0,0
84,-342,0,0,0,0,0,0,0,0,0,-1,1308,1366,0,0
91,-342,0,0,0,0,0,0,0,0,0,-1,1315,1366,0,0
98,-342,0,0,0,0,0,0,0,0,0,-1,1322,1366,0,0
105,-342,0,0,0,0,0,0,0,0,0,-1,1329,1366,0,0
112,-342,0,0,0,0,0,0,0,0,0,-1,1336,1366,0,0
119,-342,0,0,0,0,0,0,0,0,0,-1,1343,1366,0,0
126,-342,0,0,0,0,0,0,0,0,0,-1,1350,1366,0,0
133,-342,0,0,0,0,0,0,0,0,0,-1,1357,1366,0,0
140,-342,0,0,0,0,0,0,0,0,0,-1,1364,1366,0,0
147,-342,0,0,0,0,0,0,0,0,0,-1,1371,1366,0,0
154,-342,0,0,0,0,0,0,0,0,0,-1,1378,1366,0,0
161,-342,0,0,0,0,0,0,0,0,0,-1,1385,1366,0,0
168,-342,0,0,0,0,0,0,0,0,0,-1,1392,1366,0,0
175,-342,0,0,0,0,0,0,0,0,0,-1,1399,1366,0,0
182,-342,0,0,0,0,0,0,0,0,0,-1,1406,1366,0,0
189,-342,0,0,0,0,0,0,0,0,0,-1,1413,1366,0,0
196,-342,0,0,0,0,0,0,0,0,0,-1,1420,1366,0,0
203,-342,0,0,0,0,0,0,0,0,0,-1,1427,1366,0,0
210,-342,0,0,0,0,0,0,0,0,0,-1,1434,1366,0,0
217,-342,0,0,0,0,0,0,0,0,0,-1,1441,1366,0,0
224,-342,0,0,0,0,0,0,0,0,0,-1,1448,1366,0,0
231,-342,0,0,0,0,0,0,0,0,0,-1,1455,1366,0,0
238,-342,0,0,0,0,0,0,0,0,0,-1,1462,1366,0,0
245,-342,0,0,0,0,0,0,0,0,0,-1,1469,1366,0,0
252,-342,0,0,0,0,0,0,0,0,0,-1,1476,1366,0,0
259,-342,0,0,0,0,0,0,0,0,0,-1,1483,1366,0,0
266,-342,0,0,0,0,0,0,0,0,0,-1,1490,1366,0,0
273,-342,0,0,0,0,0,0,0,0,0,-1,1497,1366,0,0
280,-342,0,0,0,0,0,0,0,0,0,-1,1504,1366,0,0
287,-342,0,0,0,0,0,0,0,0,0,-1,1511,1366,0,0
294,-342,0,0,0,0,0,0,0,0,0,-1,1518,1366,0,0
301,-342,0,0,0,0,0,0,0,0,0,-1,1525,1366,0,0
308,-342,0,0,0,0,0,0,0,0,0,-1,1532,1366,0,0
315,-342,0,0,0,0,0,0,0,0,0,-1,1539,1366,0,0
322,-342,0,0,0,0,0,0,0,0,0,-1,1546,1366,0,0
329,-342,0,0,0,0,0,0,0,0,0,-1,1553,1366,0,0
336,-342,0,0,0,0,0,0,0,0,0,-1,1560,1366,0,0
343,-342,0,0,0,0,0,0,0,0,0,-1,1567,1366,0,0
350,-342,0,0,0,0,0,0,0,0,0,-1,1574,1366,0,0
357,-342,0,0,0,0,0,0,0,0,0,-1,1581,1366,0,0
364,-342,0,0,0,0,0,0,0,0,0,-1,1588,1366,0,0
371,-342,0,0,0,0,0,0,0,0,0,-1,1595,1366,0,0
378,-342,0,0,0,0,0,0,0,0,0,-1,1602,1366,0,0
385,-342,0,0,0,0,0,0,0,0,0,-1,1609,1366,0,0
392,-342,0,0,0,0,0,0,0,0,0,-1,1616,1366,0,0
399,-342,0,0,0,0,0,0,0,0,0,-1,1623,1366,0,0
406,-342,0,0,0,0,0,0,0,0,0,-1,1630,1366,0,0
413,-342,0,0,0,0,0,0,0,0,0,-1,1637,1366,0,0
420,-342,0,0,0,0,0,0,0,0,0,-1,1644,1366,0,0
427,-342,0,0,0,0,0,0,0,0,0,-1,1651,1366,0,0
434,-342,0,0,0,0,0,0,0,0,0,-1,1658,1366,0,0
441,-342,0,0,0,0,0,0,0,0,0,-1,1665,1366,0,0
448,-342,0,0,0,0,0,0,0,0,0,-1,1672,1366,0,0
455,-342,0,0,0,0,0,0,0,0,0,-1,1679,1366,0,0
462,-342,0,0,0,0,0,0,0,0,0,-1,1686,1366,0,0
469,-342,0,0,0,0,0,0,0,0,0,-1,1693,1366,0,0
476,-342,0,0,0,0,0,0,0,0,0,-1,1700,1366,0,0
483,-342,0,0,0,0,0,0,0,0,0,-1,1707,1366,0,0
490,-342,0,0,0,0,0,0,0,0,0,-1,1714,1366,0,0
497,-342,0,0,0,0,0,0,0,0,0,-1,1721,1366,0,0
504,-342,0,0,0,0,0,0,0,0,0,-1,1728,1366,0,0
511,-342,0,0,0,0,0,0,0,0,0,-1,1735,1366,0,0
518,-342,0,0,0,0,0,0,0,0,0,-1,1742,1366,0,0
525,-342,0,0,0,0,0,0,0,0,0,-1,1749,1366,0,0
532,-342,0,0,0,0,0,0,0,0,0,-1,1756,1366,0,0
539,-342,0,0,0,0,0,0,0,0,0,-1,1763,1366,0,0
546,-342,0,0,0,0,0,0,0,0,0,-1,1770,1366,0,0
553,-342,0,0,0,0,0,0,0,0,0,-1,1777,1366,0,0
560,-342,0,0,0,0,0,0,0,0,0,-1,1784,1366,0,0
567,-342,19.0521,6.35071,-0.023836,0.0917042,-0.00893691,0.0923914,-0.0245232,-1.49406,0.0711908,0.0446237,1791,1366,19.0521,-6.35065
574,-342,19.022,5.60132,-0.0113651,0.0849618,-0.00881894,0.0857625,-0.0121658,-1.48025,0.0616318,0.045654,1798,1366,19.022,-5.6013
581,-342,18.9266,5.03979,-0.00301635,0.0776613,-0.00399217,0.0778584,-0.00321342,-1.52147,0.0530092,0.0470856,1805,1366,18.9266,-5.03976
588,-342,18.8398,4.47461,0,0,0,0,0,0,0,-1,1812,1366,18.8399,-4.47457
595,-342,15.5009,0.412109,0,0,0,0,0,0,0,-1,1819,1366,15.5008,-0.41209
602,-342,14.4944,0.827515,0,0,0,0,0,0,0,-1,1826,1366,14.4944,-0.8275
609,-342,12.4988,6.34875,0,0,0,0,0,0,0,-1,1833,1366,12.4988,-6.34872
616,-342,11.0337,4.60022,0,0,0,0,0,0,0,-1,1840,1366,11.0337,-4.60022
623,-342,12.1055,4.81042,0,0,0,0,0,0,0,-1,1847,1366,12.1054,-4.81048
630,-342,13.1958,5.01758,0,0,0,0,0,0,0,-1,1854,1366,13.1958,-5.01759
637,-342,13.9976,6.24719,0,0,0,0,0,0,0,-1,1861,1366,13.9976,-6.24715
644,-342,13.5129,6.07825,-0.00158513,0.0122666,0.0219636,0.0283704,-0.017689,0.93813,0.0268297,0.0381735,1868,1366,13.5129,-6.07824
651,-342,13.5131,5.93213,-0.00269716,0.00732305,0.0188711,0.0218377,-0.0172119,0.915151,0.022598,0.0191513,1875,1366,13.5131,-5.93212
658,-342,13.5184,5.69031,-0.00355112,0.00344156,0.0150007,0.0153479,-0.0154575,0.899894,0.0177856,0.0191973,1882,1366,13.5184,-5.69036
665,-342,13.4998,5.47156,-0.00387403,0.00129626,0.010337,0.0093665,-0.0119443,0.907928,0.0123337,0.0167421,1889,1366,13.4998,-5.4715
672,-342,13.5063,5.31641,-0.00355998,0.000609831,0.00620521,0.00507102,-0.00802117,0.947469,0.00762248,0.0131617,1896,1366,13.5063,-5.31636
679,-342,13.4841,5.16321,-0.00175805,0.000221103,0.00214333,0.00159227,-0.00312922,1.00167,0.00277367,0.0128867,1903,1366,13.4842,-5.16315
686,-342,13.4952,5.00366,-0.000332986,0.000544103,-0.000993956,0.00119196,-0.000980844,-0.993159,0.00125644,0.0109512,1910,1366,13.4953,-5.00363
693,-342,13.4868,4.80603,0.000574276,0.00312068,-0.00184736,0.00409109,-0.00039613,-1.08712,0.00286857,0.0118935,1917,1366,13.4869,-4.80606
700,-342,13.4756,4.62744,0.00126298,0.0066,-0.000680014,0.00668528,0.0011777,-1.44604,0.00412077,0.0139464,1924,1366,13.4756,-4.62739
707,-342,13.4954,4.44714,0.00214529,0.0108215,0.000371388,0.0108374,0.00212942,1.5281,0.00663011,0.0131367,1931,1366,13.4954,-4.44714
714,-342,13.4993,4.27258,0.00280061,0.0160319,0.00228301,0.0164148,0.00241776,1.40465,0.0102329,0.0266682,1938,1366,13.4993,-4.27263
721,-342,13.3717,3.8728,0.00306691,0.0228697,0.00558568,0.0243366,0.00160004,1.31398,0.0157182,0.0410401,1945,1366,13.3717,-3.87277
728,-342,13.7572,3.55933,0,0,0,0,0,0,0,-1,1952,1366,13.7572,-3.55931
735,-342,13.9911,3.23132,0,0,0,0,0,0,0,-1,1959,1366,13.9911,-3.23127
742,-342,14.2065,1.06421,0.00259166,0.0546059,0.0266231,0.0658166,-0.00861895,1.17225,0.0470148,0.0492336,1966,1366,14.2066,-1.06418
749,-342,14.0653,2.74902,0.00230646,0.0691066,0.0383483,0.0865608,-0.0151477,1.14367,0.0633629,0.046207,1973,1366,14.0653,-2.74903
756,-342,0,0,0,0,0,0,0,0,0,-1,1980,1366,0,0
763,-342,0,0,0,0,0,0,0,0,0,-1,1987,1366,0,0
770,-342,0,0,0,0,0,0,0,0,0,-1,1994,1366,0,0
777,-342,0,0,0,0,0,0,0,0,0,-1,2001,1366,0,0
784,-342,0,0,0,0,0,0,0,0,0,-1,2008,1366,0,0
791,-342,0,0,0,0,0,0,0,0,0,-1,2015,1366,0,0
798,-342,0,0,0,0,0,0,0,0,0,-1,2022,1366,0,0
805,-342,0,0,0,0,0,0,0,0,0,-1,2029,1366,0,0
812,-342,0,0,0,0,0,0,0,0,0,-1,2036,1366,0,0
-700,-349,0,0,0,0,0,0,0,0,0,-1,524,1373,0,0
-693,-349,0,0,0,0,0,0,0,0,0,-1,531,1373,0,0
-686,-349,0,0,0,0,0,0,0,0,0,-1,538,1373,0,0
-679,-349,0,0,0,0,0,0,0,0,0,-1,545,1373,0,0
-672,-349,0,0,0,0,0,0,0,0,0,-1,552,1373,0,0
-665,-349,0,0,0,0,0,0,0,0,0,-1,559,1373,0,0
-658,-349,0,0,0,0,0,0,0,0,0,-1,566,1373,0,0
-651,-349,0,0,0,0,0,0,0,0,0,-1,573,1373,0,0
-644,-349,0,0,0,0,0,0,0,0,0,-1,580,1373,0,0
-637,-349,0,0,0,0,0,0,0,0,0,-1,587,1373,0,0
-630,-349,-0.311401,0.345459,0,0,0,0,0,0,0,-1,594,1373,-0.311415,-0.34551
-623,-349,-0.144897,0.199829,0,0,0,0,0,0,0,-1,601,1373,-0.144915,-0.199789
-616,-349,-5.2066,-0.188232,0,0,0,0,0,0,0,-1,608,1373,-5.20659,0.188211
-609,-349,-5.14417,0.276245,0,0,0,0,0,0,0,-1,615,1373,-5.14416,-0.276243
-602,-349,-5.23639,0.719971,0,0,0,0,0,0,0,-1,622,1373,-5.23642,-0.719948
-595,-349,-5.63141,1.99036,0,0,0,0,0,0,0,-1,629,1373,-5.6314,-1.99039
-588,-349,-5.32251,1.7218,-0.0108252,0.00488379,-0.0137162,0.0128352,-0.0187766,-1.04543,0.0183583,0.0435783,636,1373,-5.32248,-1.72175
-581,-349,-5.47943,2.28723,-0.00950906,0.00348452,-0.00598812,0.00582322,-0.0118478,-1.19846,0.0103981,0.0353664,643,1373,-5.4794,-2.28718
-574,-349,-5.66125,2.34875,-0.00723361,0.00245525,-0.00174186,0.00275888,-0.00753725,-1.39821,0.00615416,0.0184754,650,1373,-5.66123,-2.34877
-567,-349,-5.67291,2.57825,-0.00531144,0.00170282,-0.000134824,0.00170541,-0.00531403,-1.55158,0.00422742,0.0167169,657,1373,-5.67291,-2.57826
-560,-349,-5.65759,2.76294,-0.00383674,0.0011331,-0.000340917,0.00115638,-0.00386002,-1.50262,0.00303319,0.0205775,664,1373,-5.65759,-2.763
-553,-349,-5.68988,2.93103,-0.00281878,0.000688776,-0.000558276,0.000775489,-0.0029055,-1.4167,0.00224068,0.0256577,671,1373,-5.68986,-2.93103
-546,-349,-5.70996,3.17554,-0.0021145,0.000172149,-0.000934341,0.000505368,-0.00244772,-1.22822,0.00182376,0.0270089,678,1373,-5.70996,-3.17555
-539,-349,-5.69061,3.41675,-0.00189909,-0.000496712,-0.00156413,0.000516206,-0.00291201,-0.996115,0.00213432,0.0215638,685,1373,-5.69061,-3.41678
-532,-349,-5.66919,3.6261,-0.00167917,-0.00130008,-0.00291431,0.00143084,-0.00441009,-0.817872,0.00351545,0.0156676,692,1373,-5.66919,-3.6261
-525,-349,-5.65918,3.84167,-0.00172022,-0.00423856,-0.00596523,0.00311729,-0.00907607,-0.681382,0.00731468,0.0111105,699,1373,-5.65917,-3.84171
-518,-349,-5.6601,4.06287,-0.00301526,-0.00728119,-0.00922628,0.0043214,-0.0146178,-0.671802,0.0114606,0.0114654,706,1373,-5.66012,-4.06291
-511,-349,-5.55536,4.26013,-0.0068358,-0.00964111,-0.0129312,0.00476863,-0.0212455,-0.731374,0.015992,0.028129,713,1373,-5.55533,-4.26017
-504,-349,-5.43622,4.37976,0,0,0,0,0,0,0,-1,720,1373,-5.43623,-4.37976
-497,-349,-5.86841,3.4668,0,0,0,0,0,0,0,-1,727,1373,-5.86842,-3.46685
-490,-349,-5.50024,4.25269,0,0,0,0,0,0,0,-1,734,1373,-5.50023,-4.25267
-483,-349,-3.69922,2.70166,0,0,0,0,0,0,0,-1,741,1373,-3.6992,-2.7017
-476,-349,-9.8728,4.70508,0,0,0,0,0,0,0,-1,748,1373,-9.87279,-4.70502
-469,-349,-9.95844,3.76819,0,0,0,0,0,0,0,-1,755,1373,-9.9584,-3.76813
-462,-349,-10.4919,3.0188,0,0,0,0,0,0,0,-1,762,1373,-10.492,-3.01884
-455,-349,-11.874,2.52393,-0.0686786,0.0215647,-0.0336837,0.0327507,-0.0798646,-1.25016,0.0668883,0.0456637,769,1373,-11.874,-2.52397
-448,-349,-12.627,2.69104,-0.0802305,0.0390812,-0.0287617,0.0456527,-0.0868019,-1.34617,0.0776931,0.0478798,776,1373,-12.627,-2.69107
-441,-349,0,0,0,0,0,0,0,0,0,-1,783,1373,0,0
-434,-349,0,0,0,0,0,0,0,0,0,-1,790,1373,0,0
-427,-349,0,0,0,0,0,0,0,0,0,-1,797,1373,0,0
-420,-349,0,0,0,0,0,0,0,0,0,-1,804,1373,0,0
-413,-349,0,0,0,0,0,0,0,0,0,-1,811,1373,0,0
-406,-349,0,0,0,0,0,0,0,0,0,-1,818,1373,0,0
-399,-349,0,0,0,0,0,0,0,0,0,-1,825,1373,0,0
-392,-349,0,0,0,0,0,0,0,0,0,-1,832,1373,0,0
-385,-349,0,0,0,0,0,0,0,0,0,-1,839,1373,0,0
-378,-349,0,0,0,0,0,0,0,0,0,-1,846,1373,0,0
-371,-349,0,0,0,0,0,0,0,0,0,-1,853,1373,0,0
-364,-349,0,0,0,0,0,0,0,0,0,-1,860,1373,0,0
-357,-349,0,0,0,0,0,0,0,0,0,-1,867,1373,0,0
-350,-349,0,0,0,0,0,0,0,0,0,-1,874,1373,0,0
-343,-349,0,0,0,0,0,0,0,0,0,-1,881,1373,0,0
-336,-349,0,0,0,0,0,0,0,0,0,-1,888,1373,0,0
-329,-349,0,0,0,0,0,0,0,0,0,-1,895,1373,0,0
-322,-349,0,0,0,0,0,0,0,0,0,-1,902,1373,0,0
-315,-349,0,0,0,0,0,0,0,0,0,-1,909,1373,0,0
-308,-349,0,0,0,0,0,0,0,0,0,-1,916,1373,0,0
-301,-349,0,0,0,0,0,0,0,0,0,-1,923,1373,0,0
-294,-349,0,0,0,0,0,0,0,0,0,-1,930,1373,0,0
-287,-349,0,0,0,0,0,0,0,0,0,-1,937,1373,0,0
-280,-349,0,0,0,0,0,0,0,0,0,-1,944,1373,0,0
-273,-349,0,0,0,0,0,0,0,0,0,-1,951,1373,0,0
-266,-349,0,0,0,0,0,0,0,0,0,-1,958,1373,0,0
-259,-349,0,0,0,0,0,0,0,0,0,-1,965,1373,0,0
-252,-349,0,0,0,0,0,0,0,0,0,-1,972,1373,0,0
-245,-349,0,0,0,0,0,0,0,0,0,-1,979,1373,0,0
-238,-349,0,0,0,0,0,0,0,0,0,-1,986,1373,0,0
-231,-349,0,0,0,0,0,0,0,0,0,-1,993,1373,0,0
-224,-349,0,0,0,0,0,0,0,0,0,-1,1000,1373,0,0
-217,-349,0,0,0,0,0,0,0,0,0,-1,1007,1373,0,0
-210,-349,0,0,0,0,0,0,0,0,0,-1,1014,1373,0,0
-203,-349,0,0,0,0,0,0,0,0,0,-1,1021,1373,0,0
-196,-349,0,0,0,0,0,0,0,0,0,-1,1028,1373,0,0
-189,-349,0,0,0,0,0,0,0,0,0,-1,1035,1373,0,0
-182,-349,0,0,0,0,0,0,0,0,0,-1,1042,1373,0,0
-175,-349,0,0,0,0,0,0,0,0,0,-1,1049,1373,0,0
-168,-349,0,0,0,0,0,0,0,0,0,-1,1056,1373,0,0
-161,-349,0,0,0,0,0,0,0,0,0,-1,1063,1373,0,0
-154,-349,0,0,0,0,0,0,0,0,0,-1,1070,1373,0,0
-147,-349,0,0,0,0,0,0,0,0,0,-1,1077,1373,0,0
-140,-349,0,0,0,0,0,0,0,0,0,-1,1084,1373,0,0
-133,-349,0,0,0,0,0,0,0,0,0,-1,1091,1373,0,0
-126,-349,0,0,0,0,0,0,0,0,0,-1,1098,1373,0,0
-119,-349,0,0,0,0,0,0,0,0,0,-1,1105,1373,0,0
-112,-349,0,0,0,0,0,0,0,0,0,-1,1112,1373,0,0
-105,-349,0,0,0,0,0,0,0,0,0,-1,1119,1373,0,0
-98,-349,0,0,0,0,0,0,0,0,0,-1,1126,1373,0,0
-91,-349,0,0,0,0,0,0,0,0,0,-1,1133,1373,0,0
-84,-349,0,0,0,0,0,0,0,0,0,-1,1140,1373,0,0
-77,-349,0,0,0,0,0,0,0,0,0,-1,1147,1373,0,0
-70,-349,0,0,0,0,0,0,0,0,0,-1,1154,1373,0,0
-63,-349,0,0,0,0,0,0,0,0,0,-1,1161,1373,0,0
-56,-349,0,0,0,0,0,0,0,0,0,-1,1168,1373,0,0
-49,-349,0,0,0,0,0,0,0,0,0,-1,1175,1373,0,0
-42,-349,0,0,0,0,0,0,0,0,0,-1,1182,1373,0,0
-35,-349,0,0,0,0,0,0,0,0,0,-1,1189,1373,0,0
-28,-349,0,0,0,0,0,0,0,0,0,-1,1196,1373,0,0
-21,-349,0,0,0,0,0,0,0,0,0,-1,1203,1373,0,0
-14,-349,0,0,0,0,0,0,0,0,0,-1,1210,1373,0,0
-7,-349,0,0,0,0,0,0,0,0,0,-1,1217,1373,0,0
0,-349,0,0,0,0,0,0,0,0,0,-1,1224,1373,0,0
7,-349,0,0,0,0,0,0,0,0,0,-1,1231,1373,0,0
14,-349,0,0,0,0,0,0,0,0,0,-1,1238,1373,0,0
21,-349,0,0,0,0,0,0,0,0,0,-1,1245,1373,0,0
28,-349,0,0,0,0,0,0,0,0,0,-1,1252,1373,0,0
35,-349,0,0,0,0,0,0,0,0,0,-1,1259,1373,0,0
42,-349,0,0,0,0,0,0,0,0,0,-1,1266,1373,0,0
49,-349,0,0,0,0,0,0,0,0,0,-1,1273,1373,0,0
56,-349,0,0,0,0,0,0,0,0,0,-1,1280,1373,0,0
63,-349,0,0,0,0,0,0,0,0,0,-1,1287,1373,0,0
70,-349,0,0,0,0,0,0,0,0,0,-1,1294,1373,0,0
77,-349,0,0,0,0,0,0,0,0,0,-1,1301,1373,0,0
84,-349,0,0,0,0,0,0,0,0,0,-1,1308,1373,0,0
91,-349,0,0,0,0,0,0,0,0,0,-1,1315,1373,0,0
98,-349,0,0,0,0,0,0,0,0,0,-1,1322,1373,0,0
105,-349,0,0,0,0,0,0,0,0,0,-1,1329,1373,0,0
112,-349,0,0,0,0,0,0,0,0,0,-1,1336,1373,0,0
119,-349,0,0,0,0,0,0,0,0,0,-1,1343,1373,0,0
126,-349,0,0,0,0,0,0,0,0,0,-1,1350,1373,0,0
133,-349,0,0,0,0,0,0,0,0,0,-1,1357,1373,0,0
140,-349,0,0,0,0,0,0,0,0,0,-1,1364,1373,0,0
147,-349,0,0,0,0,0,0,0,0,0,-1,1371,1373,0,0
154,-349,0,0,0,0,0,0,0,0,0,-1,1378,1373,0,0
161,-349,0,0,0,0,0,0,0,0,0,-1,1385,1373,0,0
168,-349,0,0,0,0,0,0,0,0,0,-1,1392,1373,0,0
175,-349,0,0,0,0,0,0,0,0,0,-1,1399,1373,0,0
182,-349,0,0,0,0,0,0,0,0,0,-1,1406,1373,0,0
189,-349,0,0,0,0,0,0,0,0,0,-1,1413,1373,0,0
196,-349,0,0,0,0,0,0,0,0,0,-1,1420,1373,0,0
203,-349,0,0,0,0,0,0,0,0,0,-1,1427,1373,0,0
210,-349,0,0,0,0,0,0,0,0,0,-1,1434,1373,0,0
217,-349,0,0,0,0,0,0,0,0,0,-1,1441,1373,0,0
224,-349,0,0,0,0,0,0,0,0,0,-1,1448,1373,0,0
231,-349,0,0,0,0,0,0,0,0,0,-1,1455,1373,0,0
238,-349,0,0,0,0,0,0,0,0,0,-1,1462,1373,0,0
245,-349,0,0,0,0,0,0,0,0,0,-1,1469,1373,0,0
252,-349,0,0,0,0,0,0,0,0,0,-1,1476,1373,0,0
259,-349,0,0,0,0,0,0,0,0,0,-1,1483,1373,0,0
266,-349,0,0,0,0,0,0,0,0,0,-1,1490,1373,0,0
273,-349,0,0,0,0,0,0,0,0,0,-1,1497,1373,0,0
280,-349,0,0,0,0,0,0,0,0,0,-1,1504,1373,0,0
287,-349,0,0,0,0,0,0,0,0,0,-1,1511,1373,0,0
294,-349,0,0,0,0,0,0,0,0,0,-1,1518,1373,0,0
301,-349,0,0,0,0,0,0,0,0,0,-1,1525,1373,0,0
308,-349,0,0,0,0,0,0,0,0,0,-1,1532,1373,0,0
315,-349,0,0,0,0,0,0,0,0,0,-1,1539,1373,0,0
322,-349,0,0,0,0,0,0,0,0,0,-1,1546,1373,0,0
329,-349,0,0,0,0,0,0,0,0,0,-1,1553,1373,0,0
336,-349,0,0,0,0,0,0,0,0,0,-1,1560,1373,0,0
343,-349,0,0,0,0,0,0,0,0,0,-1,1567,1373,0,0
350,-349,0,0,0,0,0,0,0,0,0,-1,1574,1373,0,0
357,-349,0,0,0,0,0,0,0,0,0,-1,1581,1373,0,0
364,-349,0,0,0,0,0,0,0,0,0,-1,1588,1373,0,0
371,-349,0,0,0,0,0,0,0,0,0,-1,1595,1373,0,0
378,-349,0,0,0,0,0,0,0,0,0,-1,1602,1373,0,0
385,-349,0,0,0,0,0,0,0,0,0,-1,1609,1373,0,0
392,-349,0,0,0,0,0,0,0,0,0,-1,1616,1373,0,0
399,-349,0,0,0,0,0,0,0,0,0,-1,1623,1373,0,0
406,-349,0,0,0,0,0,0,0,0,0,-1,1630,1373,0,0
413,-349,0,0,0,0,0,0,0,0,0,-1,1637,1373,0,0
420,-349,0,0,0,0,0,0,0,0,0,-1,1644,1373,0,0
427,-349,0,0,0,0,0,0,0,0,0,-1,1651,1373,0,0
434,-349,0,0,0,0,0,0,0,0,0,-1,1658,1373,0,0
441,-349,0,0,0,0,0,0,0,0,0,-1,1665,1373,0,0
448,-349,0,0,0,0,0,0,0,0,0,-1,1672,1373,0,0
455,-349,0,0,0,0,0,0,0,0,0,-1,1679,1373,0,0
462,-349,0,0,0,0,0,0,0,0,0,-1,1686,1373,0,0
469,-349,0,0,0,0,0,0,0,0,0,-1,1693,1373,0,0
476,-349,0,0,0,0,0,0,0,0,0,-1,1700,1373,0,0
483,-349,0,0,0,0,0,0,0,0,0,-1,1707,1373,0,0
490,-349,0,0,0,0,0,0,0,0,0,-1,1714,1373,0,0
497,-349,0,0,0,0,0,0,0,0,0,-1,1721,1373,0,0
504,-349,0,0,0,0,0,0,0,0,0,-1,1728,1373,0,0
511,-349,0,0,0,0,0,0,0,0,0,-1,1735,1373,0,0
518,-349,0,0,0,0,0,0,0,0,0,-1,1742,1373,0,0
525,-349,0,0,0,0,0,0,0,0,0,-1,1749,1373,0,0
532,-349,0,0,0,0,0,0,0,0,0,-1,1756,1373,0,0
539,-349,0,0,0,0,0,0,0,0,0,-1,1763,1373,0,0
546,-349,0,0,0,0,0,0,0,0,0,-1,1770,1373,0,0
553,-349,0,0,0,0,0,0,0,0,0,-1,1777,1373,0,0
560,-349,18.483,5.89746,0,0,0,0,0,0,0,-1,1784,1373,18.483,-5.89746
567,-349,18.4458,5.44751,-0.0348906,0.0801638,0.00928574,0.0809085,-0.0356352,1.49078,0.0689581,0.0485462,1791,1373,18.4458,-5.44752
574,-349,18.3553,5.01379,-0.0221688,0.0738609,0.00742867,0.0744321,-0.0227401,1.49405,0.0586888,0.046785,1798,1373,18.3553,-5.01381
581,-349,18.1981,4.54199,-0.012704,0.0671562,0.008922,0.0681409,-0.0136886,1.46088,0.050611,0.0452552,1805,1373,18.1981,-4.54194
588,-349,18.1152,4.04285,0,0,0,0,0,0,0,-1,1812,1373,18.1152,-4.04281
595,-349,15.1029,0.584595,0,0,0,0,0,0,0,-1,1819,1373,15.103,-0.584554
602,-349,10.8112,5.30664,0,0,0,0,0,0,0,-1,1826,1373,10.8111,-5.30663
609,-349,11.4177,4.8728,0,0,0,0,0,0,0,-1,1833,1373,11.4177,-4.87278
616,-349,11.6807,4.51526,0.00344444,0.0321076,0.0211053,0.0432874,-0.00773532,1.08366,0.0317523,0.0403729,1840,1373,11.6806,-4.51529
623,-349,12.5538,4.80713,0,0,0,0,0,0,0,-1,1847,1373,12.5538,-4.80713
630,-349,14.3647,6.10657,0,0,0,0,0,0,0,-1,1854,1373,14.3647,-6.10659
637,-349,13.7383,6.06946,0.000732847,0.0129231,0.0231004,0.030719,-0.017063,0.914386,0.02796,0.0485413,1861,1373,13.7383,-6.06951
644,-349,13.2201,6.11865,-0.00139064,0.00933186,0.0202581,0.0249261,-0.0169849,0.914756,0.0243417,0.0391771,1868,1373,13.22,-6.11863
651,-349,13.3798,5.86841,-0.0024148,0.00512515,0.0168196,0.0185921,-0.0158818,0.895647,0.019924,0.022384,1875,1373,13.3798,-5.86836
658,-349,13.3254,5.67261,-0.00316412,0.00192786,0.0129736,0.012603,-0.0138392,0.882289,0.015272,0.0260843,1882,1373,13.3254,-5.67257
665,-349,13.3073,5.48792,-0.00328356,0.00052846,0.00870395,0.00753264,-0.0102877,0.893188,0.0103295,0.0207149,1889,1373,13.3073,-5.48792
672,-349,13.3043,5.32239,-0.00282639,0.000319597,0.00491203,0.00390435,-0.00641115,0.940355,0.00601399,0.0142798,1896,1373,13.3043,-5.32233
679,-349,13.2728,5.18201,-0.001015,0.000189222,0.00129928,0.00101913,-0.00184491,1.00238,0.00167631,0.0126913,1903,1373,13.2729,-5.18205
686,-349,13.3157,5.0332,0.00046621,0.000671572,-0.0015803,0.00215252,-0.00101474,-0.81784,0.00186753,0.0117723,1910,1373,13.3156,-5.03323
693,-349,13.313,4.82373,0.0012391,0.0032841,-0.00239152,0.00486254,-0.000339338,-0.987413,0.00336052,0.0149852,1917,1373,13.313,-4.82368
700,-349,13.3179,4.6377,0.0015888,0.00707954,-0.00108512,0.00728621,0.00138213,-1.38259,0.00446859,0.0176156,1924,1373,13.3179,-4.63774
707,-349,13.3497,4.45105,0.00202633,0.0116073,2.40407e-05,0.0116073,0.00202627,1.56829,0.00715902,0.0205644,1931,1373,13.3498,-4.45102
714,-349,13.3054,4.27161,0.0019334,0.017429,0.00219971,0.0177352,0.00162718,1.43248,0.0113201,0.0275472,1938,1373,13.3054,-4.27165
721,-349,13.301,3.8894,0,0,0,0,0,0,0,-1,1945,1373,13.3011,-3.88937
728,-349,16.1155,-1.2666,0,0,0,0,0,0,0,-1,1952,1373,16.1155,1.26658
735,-349,15.3109,-0.321899,0,0,0,0,0,0,0,-1,1959,1373,15.3109,0.32184
742,-349,14.74,0.884888,-0.00407454,0.0609457,0.0300568,0.0727111,-0.0158399,1.19769,0.0545264,0.0479384,1966,1373,14.7399,-0.884881
749,-349,14.5159,2.4469,-0.00753932,0.0775594,0.0434618,0.0958325,-0.0258124,1.17279,0.0740084,0.043858,1973,1373,14.5159,-2.44685
756,-349,0,0,0,0,0,0,0,0,0,-1,1980,1373,0,0
763,-349,0,0,0,0,0,0,0,0,0,-1,1987,1373,0,0
770,-349,0,0,0,0,0,0,0,0,0,-1,1994,1373,0,0
777,-349,0,0,0,0,0,0,0,0,0,-1,2001,1373,0,0
784,-349,0,0,0,0,0,0,0,0,0,-1,2008,1373,0,0
791,-349,0,0,0,0,0,0,0,0,0,-1,2015,1373,0,0
798,-349,0,0,0,0,0,0,0,0,0,-1,2022,1373,0,0
805,-349,0,0,0,0,0,0,0,0,0,-1,2029,1373,0,0
812,-349,0,0,0,0,0,0,0,0,0,-1,2036,1373,0,0
-700,-356,0,0,0,0,0,0,0,0,0,-1,524,1380,0,0
-693,-356,0,0,0,0,0,0,0,0,0,-1,531,1380,0,0
-686,-356,0,0,0,0,0,0,0,0,0,-1,538,1380,0,0
-679,-356,0,0,0,0,0,0,0,0,0,-1,545,1380,0,0
-672,-356,0,0,0,0,0,0,0,0,0,-1,552,1380,0,0
-665,-356,0,0,0,0,0,0,0,0,0,-1,559,1380,0,0
-658,-356,0,0,0,0,0,0,0,0,0,-1,566,1380,0,0
-651,-356,0,0,0,0,0,0,0,0,0,-1,573,1380,0,0
-644,-356,0,0,0,0,0,0,0,0,0,-1,580,1380,0,0
-637,-356,0,0,0,0,0,0,0,0,0,-1,587,1380,0,0
-630,-356,-5.27063,-5.19885,0,0,0,0,0,0,0,-1,594,1380,-5.2706,5.19882
-623,-356,-0.263855,-0.675781,0,0,0,0,0,0,0,-1,601,1380,-0.263835,0.675841
-616,-356,-8.26532,-3.43945,0,0,0,0,0,0,0,-1,608,1380,-8.2653,3.43948
-609,-356,-4.88483,0.734497,0,0,0,0,0,0,0,-1,615,1380,-4.88485,-0.734532
-602,-356,-5.17194,0.302734,0,0,0,0,0,0,0,-1,622,1380,-5.17191,-0.302778
-595,-356,-5.10779,0.779907,0,0,0,0,0,0,0,-1,629,1380,-5.10781,-0.779877
-588,-356,-4.94373,1.58777,-0.0132016,0.00557541,-0.0124872,0.0118098,-0.019436,-1.10774,0.018218,0.0453791,636,1380,-4.94374,-1.58772
-581,-356,-5.18951,2.16089,-0.0104783,0.00453214,-0.00491455,0.00599805,-0.0119442,-1.28092,0.0105469,0.0387988,643,1380,-5.18952,-2.16095
-574,-356,-5.34961,2.40588,-0.00813974,0.00360862,-0.000913323,0.0036792,-0.00821032,-1.49367,0.00702862,0.0257644,650,1380,-5.3496,-2.40584
-567,-356,-5.46185,2.54504,-0.00599614,0.00277896,0.000623418,0.00282303,-0.00604021,1.50022,0.00522836,0.0156697,657,1380,-5.46185,-2.54508
-560,-356,-5.42474,2.7804,-0.004286,0.00208942,0.000308511,0.00210432,-0.00430089,1.52256,0.00376984,0.016327,664,1380,-5.42477,-2.78036
-553,-356,-5.44897,2.98254,-0.00303029,0.00149527,-3.22989e-05,0.0014955,-0.00303052,-1.56366,0.00266272,0.0189542,671,1380,-5.44895,-2.98251
-546,-356,-5.4577,3.17639,-0.00212165,0.000818248,-0.000470686,0.000891768,-0.00219517,-1.41585,0.00183443,0.0203409,678,1380,-5.45768,-3.17642
-539,-356,-5.43604,3.40271,-0.00169911,-3.02178e-05,-0.00115243,0.00055815,-0.00228748,-1.09875,0.00174112,0.0138873,685,1380,-5.43602,-3.40271
-532,-356,-5.45892,3.63635,-0.001285,-0.00104792,-0.00259957,0.00143581,-0.00376873,-0.808183,0.00310384,0.0131089,692,1380,-5.45894,-3.63633
-525,-356,-5.4635,3.84351,-0.00102942,-0.00386309,-0.00561189,0.00334172,-0.00823424,-0.661747,0.00687948,0.0107588,699,1380,-5.4635,-3.84355
-518,-356,-5.44666,4.06848,-0.00191508,-0.00684612,-0.00884561,0.00480219,-0.0135634,-0.649484,0.0109982,0.0104933,706,1380,-5.44664,-4.06847
-511,-356,-5.33032,4.30981,-0.00529663,-0.00947805,-0.0127359,0.00551903,-0.0202937,-0.704044,0.0156957,0.0203484,713,1380,-5.33035,-4.30985
-504,-356,-5.38049,4.37317,-0.00894583,-0.0119859,-0.0173436,0.00694427,-0.027876,-0.741689,0.0212798,0.0467239,720,1380,-5.38047,-4.37318
-497,-356,-5.36279,4.53076,0,0,0,0,0,0,0,-1,727,1380,-5.36281,-4.5308
-490,-356,-5.11517,4.07275,0,0,0,0,0,0,0,-1,734,1380,-5.11516,-4.07273
-483,-356,-5.66437,4.16602,0,0,0,0,0,0,0,-1,741,1380,-5.66437,-4.16604
-476,-356,-5.005,2.1167,0,0,0,0,0,0,0,-1,748,1380,-5.00502,-2.11668
-469,-356,-9.44629,4.27588,0,0,0,0,0,0,0,-1,755,1380,-9.44629,-4.27583
-462,-356,-10.2891,2.44177,-0.056331,0.0106624,-0.0355991,0.0260465,-0.071715,-1.16289,0.0584594,0.0439376,762,1380,-10.2891,-2.44174
-455,-356,-11.2014,2.23572,-0.0669642,0.022079,-0.0347225,0.0340182,-0.0789034,-1.23961,0.0668901,0.0461393,769,1380,-11.2014,-2.23576
-448,-356,-11.7062,2.1864,-0.0777962,0.0372284,-0.0312271,0.0451592,-0.085727,-1.32208,0.0767675,0.0463742,776,1380,-11.7062,-2.18639
-441,-356,-12.4677,2.37158,-0.0879827,0.0554518,-0.0247534,0.0596035,-0.0921344,-1.40462,0.0882744,0.046848,783,1380,-12.4677,-2.37161
-434,-356,0,0,0,0,0,0,0,0,0,-1,790,1380,0,0
-427,-356,0,0,0,0,0,0,0,0,0,-1,797,1380,0,0
-420,-356,0,0,0,0,0,0,0,0,0,-1,804,1380,0,0
-413,-356,0,0,0,0,0,0,0,0,0,-1,811,1380,0,0
-406,-356,0,0,0,0,0,0,0,0,0,-1,818,1380,0,0
-399,-356,0,0,0,0,0,0,0,0,0,-1,825,1380,0,0
-392,-356,0,0,0,0,0,0,0,0,0,-1,832,1380,0,0
-385,-356,0,0,0,0,0,0,0,0,0,-1,839,1380,0,0
-378,-356,0,0,0,0,0,0,0,0,0,-1,846,1380,0,0
-371,-356,0,0,0,0,0,0,0,0,0,-1,853,1380,0,0
-364,-356,0,0,0,0,0,0,0,0,0,-1,860,1380,0,0
-357,-356,0,0,0,0,0,0,0,0,0,-1,867,1380,0,0
-350,-356,0,0,0,0,0,0,0,0,0,-1,874,1380,0,0
-343,-356,0,0,0,0,0,0,0,0,0,-1,881,1380,0,0
-336,-356,0,0,0,0,0,0,0,0,0,-1,888,1380,0,0
-329,-356,0,0,0,0,0,0,0,0,0,-1,895,1380,0,0
-322,-356,0,0,0,0,0,0,0,0,0,-1,902,1380,0,0
-315,-356,0,0,0,0,0,0,0,0,0,-1,909,1380,0,0
-308,-356,0,0,0,0,0,0,0,0,0,-1,916,1380,0,0
-301,-356,0,0,0,0,0,0,0,0,0,-1,923,1380,0,0
-294,-356,0,0,0,0,0,0,0,0,0,-1,930,1380,0,0
-287,-356,0,0,0,0,0,0,0,0,0,-1,937,1380,0,0
-280,-356,0,0,0,0,0,0,0,0,0,-1,944,1380,0,0
-273,-356,0,0,0,0,0,0,0,0,0,-1,951,1380,0,0
-266,-356,0,0,0,0,0,0,0,0,0,-1,958,1380,0,0
-259,-356,0,0,0,0,0,0,0,0,0,-1,965,1380,0,0
-252,-356,0,0,0,0,0,0,0,0,0,-1,972,1380,0,0
-245,-356,0,0,0,0,0,0,0,0,0,-1,979,1380,0,0
-238,-356,0,0,0,0,0,0,0,0,0,-1,986,1380,0,0
-231,-356,0,0,0,0,0,0,0,0,0,-1,993,1380,0,0
-224,-356,0,0,0,0,0,0,0,0,0,-1,1000,1380,0,0
-217,-356,0,0,0,0,0,0,0,0,0,-1,1007,1380,0,0
-210,-356,0,0,0,0,0,0,0,0,0,-1,1014,1380,0,0
-203,-356,0,0,0,0,0,0,0,0,0,-1,1021,1380,0,0
-196,-356,0,0,0,0,0,0,0,0,0,-1,1028,1380,0,0
-189,-356,0,0,0,0,0,0,0,0,0,-1,1035,1380,0,0
-182,-356,0,0,0,0,0,0,0,0,0,-1,1042,1380,0,0
-175,-356,0,0,0,0,0,0,0,0,0,-1,1049,1380,0,0
-168,-356,0,0,0,0,0,0,0,0,0,-1,1056,1380,0,0
-161,-356,0,0,0,0,0,0,0,0,0,-1,1063,1380,0,0
-154,-356,0,0,0,0,0,0,0,0,0,-1,1070,1380,0,0
-147,-356,0,0,0,0,0,0,0,0,0,-1,1077,1380,0,0
-140,-356,0,0,0,0,0,0,0,0,0,-1,1084,1380,0,0
-133,-356,0,0,0,0,0,0,0,0,0,-1,1091,1380,0,0
-126,-356,0,0,0,0,0,0,0,0,0,-1,1098,1380,0,0
-119,-356,0,0,0,0,0,0,0,0,0,-1,1105,1380,0,0
-112,-356,0,0,0,0,0,0,0,0,0,-1,1112,1380,0,0
-105,-356,0,0,0,0,0,0,0,0,0,-1,1119,1380,0,0
-98,-356,0,0,0,0,0,0,0,0,0,-1,1126,1380,0,0
-91,-356,0,0,0,0,0,0,0,0,0,-1,1133,1380,0,0
-84,-356,0,0,0,0,0,0,0,0,0,-1,1140,1380,0,0
-77,-356,0,0,0,0,0,0,0,0,0,-1,1147,1380,0,0
-70,-356,0,0,0,0,0,0,0,0,0,-1,1154,1380,0,0
-63,-356,0,0,0,0,0,0,0,0,0,-1,1161,1380,0,0
-56,-356,0,0,0,0,0,0,0,0,0,-1,1168,1380,0,0
-49,-356,0,0,0,0,0,0,0,0,0,-1,1175,1380,0,0
-42,-356,0,0,0,0,0,0,0,0,0,-1,1182,1380,0,0
-35,-356,0,0,0,0,0,0,0,0,0,-1,1189,1380,0,0
-28,-356,0,0,0,0,0,0,0,0,0,-1,1196,1380,0,0
-21,-356,0,0,0,0,0,0,0,0,0,-1,1203,1380,0,0
-14,-356,0,0,0,0,0,0,0,0,0,-1,1210,1380,0,0
-7,-356,0,0,0,0,0,0,0,0,0,-1,1217,1380,0,0
0,-356,0,0,0,0,0,0,0,0,0,-1,1224,1380,0,0
7,-356,0,0,0,0,0,0,0,0,0,-1,1231,1380,0,0
14,-356,0,0,0,0,0,0,0,0,0,-1,1238,1380,0,0
21,-356,0,0,0,0,0,0,0,0,0,-1,1245,1380,0,0
28,-356,0,0,0,0,0,0,0,0,0,-1,1252,1380,0,0
35,-356,0,0,0,0,0,0,0,0,0,-1,1259,1380,0,0
42,-356,0,0,0,0,0,0,0,0,0,-1,1266,1380,0,0
49,-356,0,0,0,0,0,0,0,0,0,-1,1273,1380,0,0
56,-356,0,0,0,0,0,0,0,0,0,-1,1280,1380,0,0
63,-356,0,0,0,0,0,0,0,0,0,-1,1287,1380,0,0
70,-356,0,0,0,0,0,0,0,0,0,-1,1294,1380,0,0
77,-356,0,0,0,0,0,0,0,0,0,-1,1301,1380,0,0
84,-356,0,0,0,0,0,0,0,0,0,-1,1308,1380,0,0
91,-356,0,0,0,0,0,0,0,0,0,-1,1315,1380,0,0
98,-356,0,0,0,0,0,0,0,0,0,-1,1322,1380,0,0
105,-356,0,0,0,0,0,0,0,0,0,-1,1329,1380,0,0
112,-356,0,0,0,0,0,0,0,0,0,-1,1336,1380,0,0
119,-356,0,0,0,0,0,0,0,0,0,-1,1343,1380,0,0
126,-356,0,0,0,0,0,0,0,0,0,-1,1350,1380,0,0
133,-356,0,0,0,0,0,0,0,0,0,-1,1357,1380,0,0
140,-356,0,0,0,0,0,0,0,0,0,-1,1364,1380,0,0
147,-356,0,0,0,0,0,0,0,0,0,-1,1371,1380,0,0
154,-356,0,0,0,0,0,0,0,0,0,-1,1378,1380,0,0
161,-356,0,0,0,0,0,0,0,0,0,-1,1385,1380,0,0
168,-356,0,0,0,0,0,0,0,0,0,-1,1392,1380,0,0
175,-356,0,0,0,0,0,0,0,0,0,-1,1399,1380,0,0
182,-356,0,0,0,0,0,0,0,0,0,-1,1406,1380,0,0
189,-356,0,0,0,0,0,0,0,0,0,-1,1413,1380,0,0
196,-356,0,0,0,0,0,0,0,0,0,-1,1420,1380,0,0
203,-356,0,0,0,0,0,0,0,0,0,-1,1427,1380,0,0
210,-356,0,0,0,0,0,0,0,0,0,-1,1434,1380,0,0
217,-356,0,0,0,0,0,0,0,0,0,-1,1441,1380,0,0
224,-356,0,0,0,0,0,0,0,0,0,-1,1448,1380,0,0
231,-356,0,0,0,0,0,0,0,0,0,-1,1455,1380,0,0
238,-356,0,0,0,0,0,0,0,0,0,-1,1462,1380,0,0
245,-356,0,0,0,0,0,0,0,0,0,-1,1469,1380,0,0
252,-356,0,0,0,0,0,0,0,0,0,-1,1476,1380,0,0
259,-356,0,0,0,0,0,0,0,0,0,-1,1483,1380,0,0
266,-356,0,0,0,0,0,0,0,0,0,-1,1490,1380,0,0
273,-356,0,0,0,0,0,0,0,0,0,-1,1497,1380,0,0
280,-356,0,0,0,0,0,0,0,0,0,-1,1504,1380,0,0
287,-356,0,0,0,0,0,0,0,0,0,-1,1511,1380,0,0
294,-356,0,0,0,0,0,0,0,0,0,-1,1518,1380,0,0
301,-356,0,0,0,0,0,0,0,0,0,-1,1525,1380,0,0
308,-356,0,0,0,0,0,0,0,0,0,-1,1532,1380,0,0
315,-356,0,0,0,0,0,0,0,0,0,-1,1539,1380,0,0
322,-356,0,0,0,0,0,0,0,0,0,-1,1546,1380,0,0
329,-356,0,0,0,0,0,0,0,0,0,-1,1553,1380,0,0
336,-356,0,0,0,0,0,0,0,0,0,-1,1560,1380,0,0
343,-356,0,0,0,0,0,0,0,0,0,-1,1567,1380,0,0
350,-356,0,0,0,0,0,0,0,0,0,-1,1574,1380,0,0
357,-356,0,0,0,0,0,0,0,0,0,-1,1581,1380,0,0
364,-356,0,0,0,0,0,0,0,0,0,-1,1588,1380,0,0
371,-356,0,0,0,0,0,0,0,0,0,-1,1595,1380,0,0
378,-356,0,0,0,0,0,0,0,0,0,-1,1602,1380,0,0
385,-356,0,0,0,0,0,0,0,0,0,-1,1609,1380,0,0
392,-356,0,0,0,0,0,0,0,0,0,-1,1616,1380,0,0
399,-356,0,0,0,0,0,0,0,0,0,-1,1623,1380,0,0
406,-356,0,0,0,0,0,0,0,0,0,-1,1630,1380,0,0
413,-356,0,0,0,0,0,0,0,0,0,-1,1637,1380,0,0
420,-356,0,0,0,0,0,0,0,0,0,-1,1644,1380,0,0
427,-356,0,0,0,0,0,0,0,0,0,-1,1651,1380,0,0
434,-356,0,0,0,0,0,0,0,0,0,-1,1658,1380,0,0
441,-356,0,0,0,0,0,0,0,0,0,-1,1665,1380,0,0
448,-356,0,0,0,0,0,0,0,0,0,-1,1672,1380,0,0
455,-356,0,0,0,0,0,0,0,0,0,-1,1679,1380,0,0
462,-356,0,0,0,0,0,0,0,0,0,-1,1686,1380,0,0
469,-356,0,0,0,0,0,0,0,0,0,-1,1693,1380,0,0
476,-356,0,0,0,0,0,0,0,0,0,-1,1700,1380,0,0
483,-356,0,0,0,0,0,0,0,0,0,-1,1707,1380,0,0
490,-356,0,0,0,0,0,0,0,0,0,-1,1714,1380,0,0
497,-356,0,0,0,0,0,0,0,0,0,-1,1721,1380,0,0
504,-356,0,0,0,0,0,0,0,0,0,-1,1728,1380,0,0
511,-356,0,0,0,0,0,0,0,0,0,-1,1735,1380,0,0
518,-356,0,0,0,0,0,0,0,0,0,-1,1742,1380,0,0
525,-356,0,0,0,0,0,0,0,0,0,-1,1749,1380,0,0
532,-356,0,0,0,0,0,0,0,0,0,-1,1756,1380,0,0
539,-356,0,0,0,0,0,0,0,0,0,-1,1763,1380,0,0
546,-356,0,0,0,0,0,0,0,0,0,-1,1770,1380,0,0
553,-356,0,0,0,0,0,0,0,0,0,-1,1777,1380,0,0
560,-356,18.1882,5.44775,0,0,0,0,0,0,0,-1,1784,1380,18.1882,-5.44777
567,-356,17.9906,5.04272,-0.0386259,0.0663986,0.0262875,0.0726109,-0.0448381,1.33873,0.0684383,0.0465765,1791,1380,17.9906,-5.04277
574,-356,17.7408,4.58765,-0.0285245,0.0606537,0.0224052,0.0659663,-0.0338371,1.33798,0.0586084,0.0441679,1798,1380,17.7408,-4.58764
581,-356,17.5225,3.96057,-0.0200513,0.0553193,0.0208558,0.0607054,-0.0254374,1.31806,0.0511051,0.0421127,1805,1380,17.5225,-3.96052
588,-356,17.6669,3.5459,0,0,0,0,0,0,0,-1,1812,1380,17.6669,-3.54595
595,-356,10.4055,4.60095,0,0,0,0,0,0,0,-1,1819,1380,10.4055,-4.60091
602,-356,11.2957,4.54968,-0.00399818,0.0386774,0.0195049,0.0462489,-0.0115696,1.20052,0.0353264,0.0480207,1826,1380,11.2957,-4.54969
609,-356,11.7643,4.59875,-0.00123346,0.033046,0.0198803,0.042155,-0.0103425,1.14115,0.0321109,0.0409664,1833,1380,11.7643,-4.59875
616,-356,12.2687,4.65747,0.000296319,0.0273164,0.0205922,0.0384348,-0.010822,1.07572,0.0298908,0.0369899,1840,1380,12.2687,-4.65746
623,-356,13.4233,5.47388,0,0,0,0,0,0,0,-1,1847,1380,13.4233,-5.47385
630,-356,13.511,5.74036,0,0,0,0,0,0,0,-1,1854,1380,13.511,-5.74037
637,-356,13.2222,5.91064,-0.000201068,0.00921679,0.0207937,0.0258281,-0.0168123,0.89675,0.0248012,0.0387804,1861,1380,13.2222,-5.91065
644,-356,13.1069,6.13159,-0.00174717,0.00624104,0.0176117,0.0203058,-0.015812,0.896906,0.0209064,0.0250602,1868,1380,13.1069,-6.13165
651,-356,13.1558,5.86218,-0.00229124,0.00304803,0.0140076,0.0146381,-0.0138813,0.879562,0.0164676,0.0160194,1875,1380,13.1557,-5.86222
658,-356,13.1191,5.66895,-0.00269277,0.000637043,0.0104709,0.00957459,-0.0116303,0.86424,0.0122618,0.0146522,1882,1380,13.1191,-5.669
665,-356,13.1085,5.52917,-0.00251085,-4.42596e-05,0.00676931,0.00560318,-0.00815829,0.875505,0.00799071,0.0143032,1889,1380,13.1086,-5.52917
672,-356,13.1073,5.37183,-0.00193175,0.000123523,0.00344524,0.00269112,-0.00449935,0.930336,0.00419495,0.0143168,1896,1380,13.1072,-5.3718
679,-356,13.1101,5.18835,-0.000188587,0.000212649,0.000378504,0.000440415,-0.000416353,1.02909,0.00049472,0.0157007,1903,1380,13.1101,-5.1883
686,-356,13.1183,5.01221,0.00129643,0.000826753,-0.00220286,0.00327693,-0.00115375,-0.732296,0.00265415,0.0152532,1910,1380,13.1183,-5.01224
693,-356,13.1411,4.83374,0.00197398,0.00343504,-0.00298595,0.00577853,-0.000369507,-0.90537,0.00398124,0.0138691,1917,1380,13.1411,-4.83373
700,-356,13.134,4.6134,0.00215757,0.00751055,-0.00152561,0.00791482,0.0017533,-1.31176,0.00480006,0.0186054,1924,1380,13.1341,-4.61343
707,-356,13.1729,4.26514,0.00250461,0.012283,-0.000333713,0.0122943,0.00249323,-1.53672,0.0075045,0.0355139,1931,1380,13.1729,-4.26519
714,-356,12.7729,3.86877,0.00221616,0.0185835,0.00208959,0.0188461,0.0019536,1.4458,0.0119661,0.0470402,1938,1380,12.773,-3.86877
721,-356,12.3588,3.50476,0,0,0,0,0,0,0,-1,1945,1380,12.3588,-3.5048
728,-356,13.2661,3.90723,0,0,0,0,0,0,0,-1,1952,1380,13.2661,-3.90722
735,-356,16.1771,-0.659912,0,0,0,0,0,0,0,-1,1959,1380,16.1771,0.659892
742,-356,15.4358,0.389893,-0.00739448,0.0660128,0.033514,0.0790117,-0.0203934,1.20079,0.0606266,0.043942,1966,1380,15.4358,-0.389855
749,-356,14.597,1.31433,-0.0132206,0.0843383,0.0485008,0.104347,-0.0332289,1.17953,0.0828914,0.0449304,1973,1380,14.5971,-1.31431
756,-356,0,0,0,0,0,0,0,0,0,-1,1980,1380,0,0
763,-356,0,0,0,0,0,0,0,0,0,-1,1987,1380,0,0
770,-356,0,0,0,0,0,0,0,0,0,-1,1994,1380,0,0
777,-356,0,0,0,0,0,0,0,0,0,-1,2001,1380,0,0
784,-356,0,0,0,0,0,0,0,0,0,-1,2008,1380,0,0
791,-356,0,0,0,0,0,0,0,0,0,-1,2015,1380,0,0
798,-356,0,0,0,0,0,0,0,0,0,-1,2022,1380,0,0
805,-356,0,0,0,0,0,0,0,0,0,-1,2029,1380,0,0
812,-356,0,0,0,0,0,0,0,0,0,-1,2036,1380,0,0
-700,-363,0,0,0,0,0,0,0,0,0,-1,524,1387,0,0
-693,-363,0,0,0,0,0,0,0,0,0,-1,531,1387,0,0
-686,-363,0,0,0,0,0,0,0,0,0,-1,538,1387,0,0
-679,-363,0,0,0,0,0,0,0,0,0,-1,545,1387,0,0
-672,-363,0,0,0,0,0,0,0,0,0,-1,552,1387,0,0
-665,-363,0,0,0,0,0,0,0,0,0,-1,559,1387,0,0
-658,-363,0,0,0,0,0,0,0,0,0,-1,566,1387,0,0
-651,-363,0,0,0,0,0,0,0,0,0,-1,573,1387,0,0
-644,-363,0,0,0,0,0,0,0,0,0,-1,580,1387,0,0
-637,-363,0,0,0,0,0,0,0,0,0,-1,587,1387,0,0
-630,-363,0,0,0,0,0,0,0,0,0,-1,594,1387,0,0
-623,-363,-9.67566,-5.91846,0,0,0,0,0,0,0,-1,601,1387,-9.67563,5.91847
-616,-363,-9.02985,-2.98083,0,0,0,0,0,0,0,-1,608,1387,-9.02987,2.98079
-609,-363,-7.55524,-1.6355,0,0,0,0,0,0,0,-1,615,1387,-7.55522,1.63555
-602,-363,-5.64465,1.0072,0,0,0,0,0,0,0,-1,622,1387,-5.64468,-1.00721
-595,-363,-4.65784,0.915161,0,0,0,0,0,0,0,-1,629,1387,-4.65786,-0.915157
-588,-363,-4.58954,1.62781,0,0,0,0,0,0,0,-1,636,1387,-4.58955,-1.62781
-581,-363,-4.94849,2.03601,-0.0117789,0.00563925,-0.00417208,0.006587,-0.0127267,-1.34742,0.011337,0.0412534,643,1387,-4.94846,-2.03606
-574,-363,-5.11456,2.44922,-0.00931018,0.00475004,-0.000347272,0.00475861,-0.00931876,-1.54612,0.00826849,0.0320242,650,1387,-5.11459,-2.4492
-567,-363,-5.2345,2.57629,-0.00694452,0.00375979,0.00109359,0.00387037,-0.00705511,1.47002,0.00639653,0.0187358,657,1387,-5.23452,-2.57625
-560,-363,-5.2207,2.76501,-0.00499546,0.00291952,0.000723878,0.00298518,-0.00506112,1.48034,0.00469679,0.0126146,664,1387,-5.22071,-2.76507
-553,-363,-5.2323,2.98999,-0.00350268,0.00216905,0.000337624,0.00218908,-0.00352271,1.51155,0.00332753,0.0127908,671,1387,-5.23228,-2.98998
-546,-363,-5.21716,3.18091,-0.00237618,0.00138258,-0.000105264,0.00138552,-0.00237913,-1.54282,0.00219861,0.0121883,678,1387,-5.21719,-3.18093
-539,-363,-5.20801,3.40381,-0.00172369,0.000427285,-0.000785429,0.000683553,-0.00197996,-1.25541,0.00159734,0.0135859,685,1387,-5.20799,-3.40379
-532,-363,-5.23114,3.64795,-0.0010875,-0.000730822,-0.0022419,0.00133982,-0.00315814,-0.825088,0.0026667,0.0119074,692,1387,-5.23117,-3.64797
-525,-363,-5.24054,3.84656,-0.000498236,-0.00337475,-0.00510502,0.00336727,-0.00724025,-0.64809,0.00625885,0.0093153,699,1387,-5.24057,-3.8465
-518,-363,-5.24268,4.05847,-0.000917013,-0.00624836,-0.00823222,0.00507036,-0.0122357,-0.628821,0.0102732,0.00866021,706,1387,-5.24268,-4.05844
-511,-363,-5.20117,4.29602,-0.00369522,-0.00905748,-0.0121346,0.00605095,-0.0188037,-0.676671,0.0149662,0.0151171,713,1387,-5.20118,-4.29605
-504,-363,-5.08728,4.50635,-0.0069188,-0.0117779,-0.0168416,0.00766759,-0.0263643,-0.713763,0.020613,0.0345082,720,1387,-5.08727,-4.50632
-497,-363,-5.08868,4.40515,-0.0128091,-0.0117363,-0.0217831,0.00951697,-0.0340624,-0.797708,0.0264574,0.0494881,727,1387,-5.08871,-4.40516
-490,-363,-5.08325,4.23315,-0.0199182,-0.0107248,-0.026234,0.0113122,-0.0419552,-0.872127,0.0324058,0.047632,734,1387,-5.08328,-4.23314
-483,-363,-5.11176,3.99121,0,0,0,0,0,0,0,-1,741,1387,-5.11175,-3.99123
-476,-363,-5.10095,2.1405,0,0,0,0,0,0,0,-1,748,1387,-5.10095,-2.14055
-469,-363,-4.31604,1.66943,0,0,0,0,0,0,0,-1,755,1387,-4.31606,-1.66944
-462,-363,-9.94159,2.40771,0,0,0,0,0,0,0,-1,762,1387,-9.94157,-2.4077
-455,-363,-10.5774,1.9292,0,0,0,0,0,0,0,-1,769,1387,-10.5774,-1.92915
-448,-363,-11.0799,1.61865,-0.0731731,0.034937,-0.0308395,0.0431155,-0.0813517,-1.31157,0.0729827,0.0466541,776,1387,-11.0799,-1.61866
-441,-363,-11.8578,1.90332,-0.0823977,0.0506605,-0.0255016,0.0553806,-0.0871178,-1.38778,0.0829489,0.0454218,783,1387,-11.8578,-1.90326
-434,-363,-12.5151,2.19995,-0.0907309,0.0683886,-0.0177348,0.0703413,-0.0926836,-1.46113,0.0944166,0.0450411,790,1387,-12.5151,-2.19996
-427,-363,0,0,0,0,0,0,0,0,0,-1,797,1387,0,0
-420,-363,0,0,0,0,0,0,0,0,0,-1,804,1387,0,0
-413,-363,0,0,0,0,0,0,0,0,0,-1,811,1387,0,0
-406,-363,0,0,0,0,0,0,0,0,0,-1,818,1387,0,0
-399,-363,0,0,0,0,0,0,0,0,0,-1,825,1387,0,0
-392,-363,0,0,0,0,0,0,0,0,0,-1,832,1387,0,0
-385,-363,0,0,0,0,0,0,0,0,0,-1,839,1387,0,0
-378,-363,0,0,0,0,0,0,0,0,0,-1,846,1387,0,0
-371,-363,0,0,0,0,0,0,0,0,0,-1,853,1387,0,0
-364,-363,0,0,0,0,0,0,0,0,0,-1,860,1387,0,0
-357,-363,0,0,0,0,0,0,0,0,0,-1,867,1387,0,0
-350,-363,0,0,0,0,0,0,0,0,0,-1,874,1387,0,0
-343,-363,0,0,0,0,0,0,0,0,0,-1,881,1387,0,0
-336,-363,0,0,0,0,0,0,0,0,0,-1,888,1387,0,0
-329,-363,0,0,0,0,0,0,0,0,0,-1,895,1387,0,0
-322,-363,0,0,0,0,0,0,0,0,0,-1,902,1387,0,0
-315,-363,0,0,0,0,0,0,0,0,0,-1,909,1387,0,0
-308,-363,0,0,0,0,0,0,0,0,0,-1,916,1387,0,0
-301,-363,0,0,0,0,0,0,0,0,0,-1,923,1387,0,0
-294,-363,0,0,0,0,0,0,0,0,0,-1,930,1387,0,0
-287,-363,0,0,0,0,0,0,0,0,0,-1,937,1387,0,0
-280,-363,0,0,0,0,0,0,0,0,0,-1,944,1387,0,0
-273,-363,0,0,0,0,0,0,0,0,0,-1,951,1387,0,0
-266,-363,0,0,0,0,0,0,0,0,0,-1,958,1387,0,0
-259,-363,0,0,0,0,0,0,0,0,0,-1,965,1387,0,0
-252,-363,0,0,0,0,0,0,0,0,0,-1,972,1387,0,0
-245,-363,0,0,0,0,0,0,0,0,0,-1,979,1387,0,0
-238,-363,0,0,0,0,0,0,0,0,0,-1,986,1387,0,0
-231,-363,0,0,0,0,0,0,0,0,0,-1,993,1387,0,0
-224,-363,0,0,0,0,0,0,0,0,0,-1,1000,1387,0,0
-217,-363,0,0,0,0,0,0,0,0,0,-1,1007,1387,0,0
-210,-363,0,0,0,0,0,0,0,0,0,-1,1014,1387,0,0
-203,-363,0,0,0,0,0,0,0,0,0,-1,1021,1387,0,0
-196,-363,0,0,0,0,0,0,0,0,0,-1,1028,1387,0,0
-189,-363,0,0,0,0,0,0,0,0,0,-1,1035,1387,0,0
-182,-363,0,0,0,0,0,0,0,0,0,-1,1042,1387,0,0
-175,-363,0,0,0,0,0,0,0,0,0,-1,1049,1387,0,0
-168,-363,0,0,0,0,0,0,0,0,0,-1,1056,1387,0,0
-161,-363,0,0,0,0,0,0,0,0,0,-1,1063,1387,0,0
-154,-363,0,0,0,0,0,0,0,0,0,-1,1070,1387,0,0
-147,-363,0,0,0,0,0,0,0,0,0,-1,1077,1387,0,0
-140,-363,0,0,0,0,0,0,0,0,0,-1,1084,1387,0,0
-133,-363,0,0,0,0,0,0,0,0,0,-1,1091,1387,0,0
-126,-363,0,0,0,0,0,0,0,0,0,-1,1098,1387,0,0
-119,-363,0,0,0,0,0,0,0,0,0,-1,1105,1387,0,0
-112,-363,0,0,0,0,0,0,0,0,0,-1,1112,1387,0,0
-105,-363,0,0,0,0,0,0,0,0,0,-1,1119,1387,0,0
-98,-363,0,0,0,0,0,0,0,0,0,-1,1126,1387,0,0
-91,-363,0,0,0,0,0,0,0,0,0,-1,1133,1387,0,0
-84,-363,0,0,0,0,0,0,0,0,0,-1,1140,1387,0,0
-77,-363,0,0,0,0,0,0,0,0,0,-1,1147,1387,0,0
-70,-363,0,0,0,0,0,0,0,0,0,-1,1154,1387,0,0
-63,-363,0,0,0,0,0,0,0,0,0,-1,1161,1387,0,0
-56,-363,0,0,0,0,0,0,0,0,0,-1,1168,1387,0,0
-49,-363,0,0,0,0,0,0,0,0,0,-1,1175,1387,0,0
-42,-363,0,0,0,0,0,0,0,0,0,-1,1182,1387,0,0
-35,-363,0,0,0,0,0,0,0,0,0,-1,1189,1387,0,0
-28,-363,0,0,0,0,0,0,0,0,0,-1,1196,1387,0,0
-21,-363,0,0,0,0,0,0,0,0,0,-1,1203,1387,0,0
-14,-363,0,0,0,0,0,0,0,0,0,-1,1210,1387,0,0
-7,-363,0,0,0,0,0,0,0,0,0,-1,1217,1387,0,0
0,-363,0,0,0,0,0,0,0,0,0,-1,1224,1387,0,0
7,-363,0,0,0,0,0,0,0,0,0,-1,1231,1387,0,0
14,-363,0,0,0,0,0,0,0,0,0,-1,1238,1387,0,0
21,-363,0,0,0,0,0,0,0,0,0,-1,1245,1387,0,0
28,-363,0,0,0,0,0,0,0,0,0,-1,1252,1387,0,0
35,-363,0,0,0,0,0,0,0,0,0,-1,1259,1387,0,0
42,-363,0,0,0,0,0,0,0,0,0,-1,1266,1387,0,0
49,-363,0,0,0,0,0,0,0,0,0,-1,1273,1387,0,0
56,-363,0,0,0,0,0,0,0,0,0,-1,1280,1387,0,0
63,-363,0,0,0,0,0,0,0,0,0,-1,1287,1387,0,0
70,-363,0,0,0,0,0,0,0,0,0,-1,1294,1387,0,0
77,-363,0,0,0,0,0,0,0,0,0,-1,1301,1387,0,0
84,-363,0,0,0,0,0,0,0,0,0,-1,1308,1387,0,0
91,-363,0,0,0,0,0,0,0,0,0,-1,1315,1387,0,0
98,-363,0,0,0,0,0,0,0,0,0,-1,1322,1387,0,0
105,-363,0,0,0,0,0,0,0,0,0,-1,1329,1387,0,0
112,-363,0,0,0,0,0,0,0,0,0,-1,1336,1387,0,0
119,-363,0,0,0,0,0,0,0,0,0,-1,1343,1387,0,0
126,-363,0,0,0,0,0,0,0,0,0,-1,1350,1387,0,0
133,-363,0,0,0,0,0,0,0,0,0,-1,1357,1387,0,0
140,-363,0,0,0,0,0,0,0,0,0,-1,1364,1387,0,0
147,-363,0,0,0,0,0,0,0,0,0,-1,1371,1387,0,0
154,-363,0,0,0,0,0,0,0,0,0,-1,1378,1387,0,0
161,-363,0,0,0,0,0,0,0,0,0,-1,1385,1387,0,0
168,-363,0,0,0,0,0,0,0,0,0,-1,1392,1387,0,0
175,-363,0,0,0,0,0,0,0,0,0,-1,1399,1387,0,0
182,-363,0,0,0,0,0,0,0,0,0,-1,1406,1387,0,0
189,-363,0,0,0,0,0,0,0,0,0,-1,1413,1387,0,0
196,-363,0,0,0,0,0,0,0,0,0,-1,1420,1387,0,0
203,-363,0,0,0,0,0,0,0,0,0,-1,1427,1387,0,0
210,-363,0,0,0,0,0,0,0,0,0,-1,1434,1387,0,0
217,-363,0,0,0,0,0,0,0,0,0,-1,1441,1387,0,0
224,-363,0,0,0,0,0,0,0,0,0,-1,1448,1387,0,0
231,-363,0,0,0,0,0,0,0,0,0,-1,1455,1387,0,0
238,-363,0,0,0,0,0,0,0,0,0,-1,1462,1387,0,0
245,-363,0,0,0,0,0,0,0,0,0,-1,1469,1387,0,0
252,-363,0,0,0,0,0,0,0,0,0,-1,1476,1387,0,0
259,-363,0,0,0,0,0,0,0,0,0,-1,1483,1387,0,0
266,-363,0,0,0,0,0,0,0,0,0,-1,1490,1387,0,0
273,-363,0,0,0,0,0,0,0,0,0,-1,1497,1387,0,0
280,-363,0,0,0,0,0,0,0,0,0,-1,1504,1387,0,0
287,-363,0,0,0,0,0,0,0,0,0,-1,1511,1387,0,0
294,-363,0,0,0,0,0,0,0,0,0,-1,1518,1387,0,0
301,-363,0,0,0,0,0,0,0,0,0,-1,1525,1387,0,0
308,-363,0,0,0,0,0,0,0,0,0,-1,1532,1387,0,0
315,-363,0,0,0,0,0,0,0,0,0,-1,1539,1387,0,0
322,-363,0,0,0,0,0,0,0,0,0,-1,1546,1387,0,0
329,-363,0,0,0,0,0,0,0,0,0,-1,1553,1387,0,0
336,-363,0,0,0,0,0,0,0,0,0,-1,1560,1387,0,0
343,-363,0,0,0,0,0,0,0,0,0,-1,1567,1387,0,0
350,-363,0,0,0,0,0,0,0,0,0,-1,1574,1387,0,0
357,-363,0,0,0,0,0,0,0,0,0,-1,1581,1387,0,0
364,-363,0,0,0,0,0,0,0,0,0,-1,1588,1387,0,0
371,-363,0,0,0,0,0,0,0,0,0,-1,1595,1387,0,0
378,-363,0,0,0,0,0,0,0,0,0,-1,1602,1387,0,0
385,-363,0,0,0,0,0,0,0,0,0,-1,1609,1387,0,0
392,-363,0,0,0,0,0,0,0,0,0,-1,1616,1387,0,0
399,-363,0,0,0,0,0,0,0,0,0,-1,1623,1387,0,0
406,-363,0,0,0,0,0,0,0,0,0,-1,1630,1387,0,0
413,-363,0,0,0,0,0,0,0,0,0,-1,1637,1387,0,0
420,-363,0,0,0,0,0,0,0,0,0,-1,1644,1387,0,0
427,-363,0,0,0,0,0,0,0,0,0,-1,1651,1387,0,0
434,-363,0,0,0,0,0,0,0,0,0,-1,1658,1387,0,0
441,-363,0,0,0,0,0,0,0,0,0,-1,1665,1387,0,0
448,-363,0,0,0,0,0,0,0,0,0,-1,1672,1387,0,0
455,-363,0,0,0,0,0,0,0,0,0,-1,1679,1387,0,0
462,-363,0,0,0,0,0,0,0,0,0,-1,1686,1387,0,0
469,-363,0,0,0,0,0,0,0,0,0,-1,1693,1387,0,0
476,-363,0,0,0,0,0,0,0,0,0,-1,1700,1387,0,0
483,-363,0,0,0,0,0,0,0,0,0,-1,1707,1387,0,0
490,-363,0,0,0,0,0,0,0,0,0,-1,1714,1387,0,0
497,-363,0,0,0,0,0,0,0,0,0,-1,1721,1387,0,0
504,-363,0,0,0,0,0,0,0,0,0,-1,1728,1387,0,0
511,-363,0,0,0,0,0,0,0,0,0,-1,1735,1387,0,0
518,-363,0,0,0,0,0,0,0,0,0,-1,1742,1387,0,0
525,-363,0,0,0,0,0,0,0,0,0,-1,1749,1387,0,0
532,-363,0,0,0,0,0,0,0,0,0,-1,1756,1387,0,0
539,-363,0,0,0,0,0,0,0,0,0,-1,1763,1387,0,0
546,-363,0,0,0,0,0,0,0,0,0,-1,1770,1387,0,0
553,-363,18.856,4.02698,0,0,0,0,0,0,0,-1,1777,1387,18.8559,-4.02694
560,-363,18.1256,3.77698,0,0,0,0,0,0,0,-1,1784,1387,18.1256,-3.77696
567,-363,17.5446,4.31433,0,0,0,0,0,0,0,-1,1791,1387,17.5446,-4.31437
574,-363,17.0928,3.84119,-0.0334837,0.0480823,0.0335392,0.0601021,-0.0455035,1.22668,0.0611653,0.041947,1798,1387,17.0928,-3.8412
581,-363,16.9243,3.32288,-0.0254158,0.0443439,0.0302725,0.0556488,-0.0367207,1.2134,0.0537015,0.0399416,1805,1387,16.9243,-3.32292
588,-363,16.9169,2.92285,0,0,0,0,0,0,0,-1,1812,1387,16.9168,-2.9228
595,-363,10.9038,3.57776,0,0,0,0,0,0,0,-1,1819,1387,10.9038,-3.57777
602,-363,11.5227,3.93884,-0.00814458,0.0317443,0.0225875,0.0419325,-0.0183328,1.14707,0.0356724,0.0493062,1826,1387,11.5227,-3.9388
609,-363,12.0264,4.49072,-0.00453876,0.0272024,0.0209568,0.0376199,-0.0149563,1.10948,0.0312808,0.0444479,1833,1387,12.0264,-4.49073
616,-363,12.6216,5.02905,-0.00201347,0.0223666,0.0200443,0.0336366,-0.0132834,1.0586,0.0279259,0.0434361,1840,1387,12.6215,-5.02906
623,-363,13.08,5.73975,0,0,0,0,0,0,0,-1,1847,1387,13.08,-5.73976
630,-363,13.1166,5.93616,-0.000333178,0.0102559,0.0197924,0.0254497,-0.0155269,0.91609,0.023888,0.0364313,1854,1387,13.1166,-5.93616
637,-363,12.8414,6.18762,-0.000636201,0.00541655,0.017742,0.0203885,-0.0156081,0.869873,0.0208436,0.0299418,1861,1387,12.8414,-6.1876
644,-363,12.9497,6.11621,-0.00176339,0.0031312,0.0143139,0.0152056,-0.0138377,0.870066,0.0167744,0.0123823,1868,1387,12.9497,-6.11616
651,-363,12.9558,5.88196,-0.00200071,0.00109755,0.0108586,0.0105169,-0.0114201,0.856252,0.0126689,0.0113856,1875,1387,12.9558,-5.88193
658,-363,12.96,5.68274,-0.00228546,-0.000467893,0.00784162,0.00651743,-0.00927078,0.843087,0.00916141,0.0117168,1882,1387,12.9599,-5.68268
665,-363,12.9386,5.53137,-0.0019538,-0.000529547,0.00480069,0.00361155,-0.00609489,0.85903,0.00566482,0.0115881,1889,1387,12.9386,-5.53131
672,-363,12.9379,5.36279,-0.00137657,-5.92731e-05,0.00210201,0.00148486,-0.00292071,0.937225,0.00258819,0.0130617,1896,1387,12.9378,-5.36277
679,-363,12.9376,5.17615,9.72326e-05,0.000202532,-0.000381462,0.000534961,-0.000235196,-0.853975,0.000455739,0.0150528,1903,1387,12.9376,-5.17617
686,-363,12.9426,5.00024,0.00147734,0.000838101,-0.002647,0.00382394,-0.00150851,-0.725315,0.00317396,0.0151937,1910,1387,12.9426,-5.00021
693,-363,12.9644,4.82373,0.00202005,0.00332498,-0.00339361,0.00612827,-0.000783249,-0.88037,0.00437006,0.0133288,1917,1387,12.9643,-4.82375
700,-363,13.0237,4.60181,0.00204642,0.00757478,-0.00182998,0.00812565,0.00149555,-1.2784,0.00499379,0.0171077,1924,1387,13.0237,-4.60185
707,-363,12.9655,4.24609,0.0023209,0.0125205,-0.000570192,0.0125523,0.00228912,-1.51512,0.00771913,0.037031,1931,1387,12.9655,-4.24606
714,-363,13.127,3.74036,0.00188929,0.0192204,0.00207984,0.0194665,0.00164319,1.45302,0.0124661,0.0468182,1938,1387,13.1269,-3.74033
721,-363,13.4347,3.19226,0,0,0,0,0,0,0,-1,1945,1387,13.4347,-3.1923
728,-363,13.8644,4.52063,0,0,0,0,0,0,0,-1,1952,1387,13.8644,-4.52064
735,-363,14.8151,4.4552,0,0,0,0,0,0,0,-1,1959,1387,14.8151,-4.45516
742,-363,16.3715,0.114868,0,0,0,0,0,0,0,-1,1966,1387,16.3715,-0.114861
749,-363,0,0,0,0,0,0,0,0,0,-1,1973,1387,0,0
756,-363,0,0,0,0,0,0,0,0,0,-1,1980,1387,0,0
763,-363,0,0,0,0,0,0,0,0,0,-1,1987,1387,0,0
770,-363,0,0,0,0,0,0,0,0,0,-1,1994,1387,0,0
777,-363,0,0,0,0,0,0,0,0,0,-1,2001,1387,0,0
784,-363,0,0,0,0,0,0,0,0,0,-1,2008,1387,0,0
791,-363,0,0,0,0,0,0,0,0,0,-1,2015,1387,0,0
798,-363,0,0,0,0,0,0,0,0,0,-1,2022,1387,0,0
805,-363,0,0,0,0,0,0,0,0,0,-1,2029,1387,0,0
812,-363,0,0,0,0,0,0,0,0,0,-1,2036,1387,0,0
-700,-370,0,0,0,0,0,0,0,0,0,-1,524,1394,0,0
-693,-370,0,0,0,0,0,0,0,0,0,-1,531,1394,0,0
-686,-370,0,0,0,0,0,0,0,0,0,-1,538,1394,0,0
-679,-370,0,0,0,0,0,0,0,0,0,-1,545,1394,0,0
-672,-370,0,0,0,0,0,0,0,0,0,-1,552,1394,0,0
-665,-370,0,0,0,0,0,0,0,0,0,-1,559,1394,0,0
-658,-370,0,0,0,0,0,0,0,0,0,-1,566,1394,0,0
-651,-370,0,0,0,0,0,0,0,0,0,-1,573,1394,0,0
-644,-370,0,0,0,0,0,0,0,0,0,-1,580,1394,0,0
-637,-370,0,0,0,0,0,0,0,0,0,-1,587,1394,0,0
-630,-370,0,0,0,0,0,0,0,0,0,-1,594,1394,0,0
-623,-370,-10.1758,-7.10486,0,0,0,0,0,0,0,-1,601,1394,-10.1758,7.10483
-616,-370,-8.43085,-2.15503,0,0,0,0,0,0,0,-1,608,1394,-8.43082,2.15508
-609,-370,-7.04437,-0.782349,0,0,0,0,0,0,0,-1,615,1394,-7.04438,0.78235
-602,-370,-5.81281,0.541992,0,0,0,0,0,0,0,-1,622,1394,-5.81282,-0.542034
-595,-370,-4.88556,2.31348,0,0,0,0,0,0,0,-1,629,1394,-4.88556,-2.31342
-588,-370,-4.81494,1.92798,0,0,0,0,0,0,0,-1,636,1394,-4.81495,-1.92793
-581,-370,-4.85339,2.24109,-0.0123664,0.00741122,-0.00325036,0.00793171,-0.0128869,-1.41201,0.0121326,0.0483306,643,1394,-4.85337,-2.24113
-574,-370,-4.87415,2.44775,-0.0103724,0.00633477,0.000346351,0.00634195,-0.0103796,1.55008,0.00974753,0.0382826,650,1394,-4.87413,-2.44773
-567,-370,-4.97156,2.61951,-0.00784517,0.00504847,0.00155121,0.00523246,-0.00802917,1.45273,0.00771315,0.0230953,657,1394,-4.97157,-2.61957
-560,-370,-5.03479,2.76624,-0.00569044,0.00397238,0.00107349,0.0040902,-0.00580826,1.46148,0.0057435,0.0149375,664,1394,-5.03477,-2.76621
-553,-370,-5.02295,2.99817,-0.00399507,0.00300807,0.000619483,0.00306245,-0.00404945,1.48324,0.00411922,0.0108319,671,1394,-5.02294,-2.99819
-546,-370,-4.9884,3.21375,-0.00267609,0.00208333,0.000171588,0.00208951,-0.00268227,1.53481,0.00276206,0.0134828,678,1394,-4.98841,-3.2137
-539,-370,-4.9823,3.45508,-0.00180899,0.00102439,-0.000482425,0.00110428,-0.00188888,-1.40669,0.00174778,0.0166454,685,1394,-4.98228,-3.4551
-532,-370,-5.0152,3.67542,-0.000966824,-0.000264538,-0.00187298,0.00128993,-0.00252129,-0.878062,0.00223836,0.0192062,692,1394,-5.01521,-3.67541
-525,-370,-5.00574,3.84265,-7.38921e-05,-0.00273285,-0.00447709,0.00326694,-0.00607368,-0.641069,0.00547337,0.0123311,699,1394,-5.00573,-3.84262
-518,-370,-5.02863,4.03601,8.36195e-06,-0.00544754,-0.00732342,0.0050954,-0.0105346,-0.607111,0.00920431,0.00955029,706,1394,-5.02865,-4.036
-511,-370,-5.01031,4.26038,-0.00201846,-0.00831903,-0.0109924,0.00626614,-0.0166036,-0.645845,0.0136461,0.0141519,713,1394,-5.01028,-4.26041
-504,-370,-4.95135,4.50574,-0.00458172,-0.0112013,-0.0155056,0.00796336,-0.0237464,-0.680247,0.0190486,0.0236418,720,1394,-4.95135,-4.50571
-497,-370,-4.76257,4.71155,-0.00988883,-0.0115348,-0.0203868,0.00969164,-0.0311153,-0.765225,0.0246184,0.0466668,727,1394,-4.76255,-4.7116
-490,-370,-5.11884,4.5022,-0.0166597,-0.0109434,-0.0248415,0.0112038,-0.038807,-0.842674,0.0303043,0.044715,734,1394,-5.11886,-4.50215
-483,-370,-5.34918,4.19238,-0.0237795,-0.00727323,-0.0282685,0.0139223,-0.044975,-0.927428,0.0355448,0.0456625,741,1394,-5.34917,-4.19236
-476,-370,-4.88202,2.36951,-0.031281,-0.00359251,-0.0304933,0.0160522,-0.0509256,-0.998489,0.0403791,0.042856,748,1394,-4.88204,-2.3695
-469,-370,-4.28174,1.73804,0,0,0,0,0,0,0,-1,755,1394,-4.28171,-1.73798
-462,-370,-9.86481,2.61072,0,0,0,0,0,0,0,-1,762,1394,-9.86479,-2.61068
-455,-370,-8.96338,1.39319,0,0,0,0,0,0,0,-1,769,1394,-8.96335,-1.39315
-448,-370,-9.96106,1.12341,-0.0676235,0.0301837,-0.0288139,0.038041,-0.0754808,-1.30458,0.0667194,0.046212,776,1394,-9.96106,-1.12339
-441,-370,-11.2067,1.4259,-0.0758899,0.0435636,-0.0238582,0.0481525,-0.0804787,-1.38078,0.0750429,0.0417328,783,1394,-11.2067,-1.42593
-434,-370,-11.8126,1.54004,-0.0828607,0.058283,-0.0168802,0.0602738,-0.0848515,-1.45341,0.0841877,0.0431606,790,1394,-11.8126,-1.5401
-427,-370,0,0,0,0,0,0,0,0,0,-1,797,1394,0,0
-420,-370,0,0,0,0,0,0,0,0,0,-1,804,1394,0,0
-413,-370,0,0,0,0,0,0,0,0,0,-1,811,1394,0,0
-406,-370,0,0,0,0,0,0,0,0,0,-1,818,1394,0,0
-399,-370,0,0,0,0,0,0,0,0,0,-1,825,1394,0,0
-392,-370,0,0,0,0,0,0,0,0,0,-1,832,1394,0,0
-385,-370,0,0,0,0,0,0,0,0,0,-1,839,1394,0,0
-378,-370,0,0,0,0,0,0,0,0,0,-1,846,1394,0,0
-371,-370,0,0,0,0,0,0,0,0,0,-1,853,1394,0,0
-364,-370,0,0,0,0,0,0,0,0,0,-1,860,1394,0,0
-357,-370,0,0,0,0,0,0,0,0,0,-1,867,1394,0,0
-350,-370,0,0,0,0,0,0,0,0,0,-1,874,1394,0,0
-343,-370,0,0,0,0,0,0,0,0,0,-1,881,1394,0,0
-336,-370,0,0,0,0,0,0,0,0,0,-1,888,1394,0,0
-329,-370,0,0,0,0,0,0,0,0,0,-1,895,1394,0,0
-322,-370,0,0,0,0,0,0,0,0,0,-1,902,1394,0,0
-315,-370,0,0,0,0,0,0,0,0,0,-1,909,1394,0,0
-308,-370,0,0,0,0,0,0,0,0,0,-1,916,1394,0,0
-301,-370,0,0,0,0,0,0,0,0,0,-1,923,1394,0,0
-294,-370,0,0,0,0,0,0,0,0,0,-1,930,1394,0,0
-287,-370,0,0,0,0,0,0,0,0,0,-1,937,1394,0,0
-280,-370,0,0,0,0,0,0,0,0,0,-1,944,1394,0,0
-273,-370,0,0,0,0,0,0,0,0,0,-1,951,1394,0,0
-266,-370,0,0,0,0,0,0,0,0,0,-1,958,1394,0,0
-259,-370,0,0,0,0,0,0,0,0,0,-1,965,1394,0,0
-252,-370,0,0,0,0,0,0,0,0,0,-1,972,1394,0,0
-245,-370,0,0,0,0,0,0,0,0,0,-1,979,1394,0,0
-238,-370,0,0,0,0,0,0,0,0,0,-1,986,1394,0,0
-231,-370,0,0,0,0,0,0,0,0,0,-1,993,1394,0,0
-224,-370,0,0,0,0,0,0,0,0,0,-1,1000,1394,0,0
-217,-370,0,0,0,0,0,0,0,0,0,-1,1007,1394,0,0
-210,-370,0,0,0,0,0,0,0,0,0,-1,1014,1394,0,0
-203,-370,0,0,0,0,0,0,0,0,0,-1,1021,1394,0,0
-196,-370,0,0,0,0,0,0,0,0,0,-1,1028,1394,0,0
-189,-370,0,0,0,0,0,0,0,0,0,-1,1035,1394,0,0
-182,-370,0,0,0,0,0,0,0,0,0,-1,1042,1394,0,0
-175,-370,0,0,0,0,0,0,0,0,0,-1,1049,1394,0,0
-168,-370,0,0,0,0,0,0,0,0,0,-1,1056,1394,0,0
-161,-370,0,0,0,0,0,0,0,0,0,-1,1063,1394,0,0
-154,-370,0,0,0,0,0,0,0,0,0,-1,1070,1394,0,0
-147,-370,0,0,0,0,0,0,0,0,0,-1,1077,1394,0,0
-140,-370,0,0,0,0,0,0,0,0,0,-1,1084,1394,0,0
-133,-370,0,0,0,0,0,0,0,0,0,-1,1091,1394,0,0
-126,-370,0,0,0,0,0,0,0,0,0,-1,1098,1394,0,0
-119,-370,0,0,0,0,0,0,0,0,0,-1,1105,1394,0,0
-112,-370,0,0,0,0,0,0,0,0,0,-1,1112,1394,0,0
-105,-370,0,0,0,0,0,0,0,0,0,-1,1119,1394,0,0
-98,-370,0,0,0,0,0,0,0,0,0,-1,1126,1394,0,0
-91,-370,0,0,0,0,0,0,0,0,0,-1,1133,1394,0,0
-84,-370,0,0,0,0,0,0,0,0,0,-1,1140,1394,0,0
-77,-370,0,0,0,0,0,0,0,0,0,-1,1147,1394,0,0
-70,-370,0,0,0,0,0,0,0,0,0,-1,1154,1394,0,0
-63,-370,0,0,0,0,0,0,0,0,0,-1,1161,1394,0,0
-56,-370,0,0,0,0,0,0,0,0,0,-1,1168,1394,0,0
-49,-370,0,0,0,0,0,0,0,0,0,-1,1175,1394,0,0
-42,-370,0,0,0,0,0,0,0,0,0,-1,1182,1394,0,0
-35,-370,0,0,0,0,0,0,0,0,0,-1,1189,1394,0,0
-28,-370,0,0,0,0,0,0,0,0,0,-1,1196,1394,0,0
-21,-370,0,0,0,0,0,0,0,0,0,-1,1203,1394,0,0
-14,-370,0,0,0,0,0,0,0,0,0,-1,1210,1394,0,0
-7,-370,0,0,0,0,0,0,0,0,0,-1,1217,1394,0,0
0,-370,0,0,0,0,0,0,0,0,0,-1,1224,1394,0,0
7,-370,0,0,0,0,0,0,0,0,0,-1,1231,1394,0,0
14,-370,0,0,0,0,0,0,0,0,0,-1,1238,1394,0,0
21,-370,0,0,0,0,0,0,0,0,0,-1,1245,1394,0,0
28,-370,0,0,0,0,0,0,0,0,0,-1,1252,1394,0,0
35,-370,0,0,0,0,0,0,0,0,0,-1,1259,1394,0,0
42,-370,0,0,0,0,0,0,0,0,0,-1,1266,1394,0,0
49,-370,0,0,0,0,0,0,0,0,0,-1,1273,1394,0,0
56,-370,0,0,0,0,0,0,0,0,0,-1,1280,1394,0,0
63,-370,0,0,0,0,0,0,0,0,0,-1,1287,1394,0,0
70,-370,0,0,0,0,0,0,0,0,0,-1,1294,1394,0,0
77,-370,0,0,0,0,0,0,0,0,0,-1,1301,1394,0,0
84,-370,0,0,0,0,0,0,0,0,0,-1,1308,1394,0,0
91,-370,0,0,0,0,0,0,0,0,0,-1,1315,1394,0,0
98,-370,0,0,0,0,0,0,0,0,0,-1,1322,1394,0,0
105,-370,0,0,0,0,0,0,0,0,0,-1,1329,1394,0,0
112,-370,0,0,0,0,0,0,0,0,0,-1,1336,1394,0,0
119,-370,0,0,0,0,0,0,0,0,0,-1,1343,1394,0,0
126,-370,0,0,0,0,0,0,0,0,0,-1,1350,1394,0,0
133,-370,0,0,0,0,0,0,0,0,0,-1,1357,1394,0,0
140,-370,0,0,0,0,0,0,0,0,0,-1,1364,1394,0,0
147,-370,0,0,0,0,0,0,0,0,0,-1,1371,1394,0,0
154,-370,0,0,0,0,0,0,0,0,0,-1,1378,1394,0,0
161,-370,0,0,0,0,0,0,0,0,0,-1,1385,1394,0,0
168,-370,0,0,0,0,0,0,0,0,0,-1,1392,1394,0,0
175,-370,0,0,0,0,0,0,0,0,0,-1,1399,1394,0,0
182,-370,0,0,0,0,0,0,0,0,0,-1,1406,1394,0,0
189,-370,0,0,0,0,0,0,0,0,0,-1,1413,1394,0,0
196,-370,0,0,0,0,0,0,0,0,0,-1,1420,1394,0,0
203,-370,0,0,0,0,0,0,0,0,0,-1,1427,1394,0,0
210,-370,0,0,0,0,0,0,0,0,0,-1,1434,1394,0,0
217,-370,0,0,0,0,0,0,0,0,0,-1,1441,1394,0,0
224,-370,0,0,0,0,0,0,0,0,0,-1,1448,1394,0,0
231,-370,0,0,0,0,0,0,0,0,0,-1,1455,1394,0,0
238,-370,0,0,0,0,0,0,0,0,0,-1,1462,1394,0,0
245,-370,0,0,0,0,0,0,0,0,0,-1,1469,1394,0,0
252,-370,0,0,0,0,0,0,0,0,0,-1,1476,1394,0,0
259,-370,0,0,0,0,0,0,0,0,0,-1,1483,1394,0,0
266,-370,0,0,0,0,0,0,0,0,0,-1,1490,1394,0,0
273,-370,0,0,0,0,0,0,0,0,0,-1,1497,1394,0,0
280,-370,0,0,0,0,0,0,0,0,0,-1,1504,1394,0,0
287,-370,0,0,0,0,0,0,0,0,0,-1,1511,1394,0,0
294,-370,0,0,0,0,0,0,0,0,0,-1,1518,1394,0,0
301,-370,0,0,0,0,0,0,0,0,0,-1,1525,1394,0,0
308,-370,0,0,0,0,0,0,0,0,0,-1,1532,1394,0,0
315,-370,0,0,0,0,0,0,0,0,0,-1,1539,1394,0,0
322,-370,0,0,0,0,0,0,0,0,0,-1,1546,1394,0,0
329,-370,0,0,0,0,0,0,0,0,0,-1,1553,1394,0,0
336,-370,0,0,0,0,0,0,0,0,0,-1,1560,1394,0,0
343,-370,0,0,0,0,0,0,0,0,0,-1,1567,1394,0,0
350,-370,0,0,0,0,0,0,0,0,0,-1,1574,1394,0,0
357,-370,0,0,0,0,0,0,0,0,0,-1,1581,1394,0,0
364,-370,0,0,0,0,0,0,0,0,0,-1,1588,1394,0,0
371,-370,0,0,0,0,0,0,0,0,0,-1,1595,1394,0,0
378,-370,0,0,0,0,0,0,0,0,0,-1,1602,1394,0,0
385,-370,0,0,0,0,0,0,0,0,0,-1,1609,1394,0,0
392,-370,0,0,0,0,0,0,0,0,0,-1,1616,1394,0,0
399,-370,0,0,0,0,0,0,0,0,0,-1,1623,1394,0,0
406,-370,0,0,0,0,0,0,0,0,0,-1,1630,1394,0,0
413,-370,0,0,0,0,0,0,0,0,0,-1,1637,1394,0,0
420,-370,0,0,0,0,0,0,0,0,0,-1,1644,1394,0,0
427,-370,0,0,0,0,0,0,0,0,0,-1,1651,1394,0,0
434,-370,0,0,0,0,0,0,0,0,0,-1,1658,1394,0,0
441,-370,0,0,0,0,0,0,0,0,0,-1,1665,1394,0,0
448,-370,0,0,0,0,0,0,0,0,0,-1,1672,1394,0,0
455,-370,0,0,0,0,0,0,0,0,0,-1,1679,1394,0,0
462,-370,0,0,0,0,0,0,0,0,0,-1,1686,1394,0,0
469,-370,0,0,0,0,0,0,0,0,0,-1,1693,1394,0,0
476,-370,0,0,0,0,0,0,0,0,0,-1,1700,1394,0,0
483,-370,0,0,0,0,0,0,0,0,0,-1,1707,1394,0,0
490,-370,0,0,0,0,0,0,0,0,0,-1,1714,1394,0,0
497,-370,0,0,0,0,0,0,0,0,0,-1,1721,1394,0,0
504,-370,0,0,0,0,0,0,0,0,0,-1,1728,1394,0,0
511,-370,0,0,0,0,0,0,0,0,0,-1,1735,1394,0,0
518,-370,0,0,0,0,0,0,0,0,0,-1,1742,1394,0,0
525,-370,0,0,0,0,0,0,0,0,0,-1,1749,1394,0,0
532,-370,0,0,0,0,0,0,0,0,0,-1,1756,1394,0,0
539,-370,0,0,0,0,0,0,0,0,0,-1,1763,1394,0,0
546,-370,16.7576,1.23132,0,0,0,0,0,0,0,-1,1770,1394,16.7576,-1.23132
553,-370,18.1315,3.72559,0,0,0,0,0,0,0,-1,1777,1394,18.1314,-3.72561
560,-370,17.321,3.41821,0,0,0,0,0,0,0,-1,1784,1394,17.321,-3.41819
567,-370,17.2651,3.64111,0,0,0,0,0,0,0,-1,1791,1394,17.2651,-3.64114
574,-370,16.7927,3.2312,0,0,0,0,0,0,0,-1,1798,1394,16.7927,-3.23124
581,-370,16.3143,2.71838,0,0,0,0,0,0,0,-1,1805,1394,16.3143,-2.7184
588,-370,15.6188,2.86438,0,0,0,0,0,0,0,-1,1812,1394,15.6188,-2.86432
595,-370,14.8816,2.97034,0,0,0,0,0,0,0,-1,1819,1394,14.8816,-2.97028
602,-370,11.7092,3.39148,0,0,0,0,0,0,0,-1,1826,1394,11.7092,-3.39153
609,-370,12.1858,4.37817,0,0,0,0,0,0,0,-1,1833,1394,12.1857,-4.37816
616,-370,12.6864,5.22473,0,0,0,0,0,0,0,-1,1840,1394,12.6863,-5.22475
623,-370,12.7366,6.00574,0,0,0,0,0,0,0,-1,1847,1394,12.7366,-6.00568
630,-370,12.8376,6.28748,-0.0013048,0.00426668,0.0167605,0.0184714,-0.0155095,0.86775,0.0196437,0.0328836,1854,1394,12.8376,-6.28749
637,-370,12.6776,6.31946,-0.00115037,0.00045816,0.0141167,0.0137935,-0.0144857,0.813854,0.0163287,0.023602,1861,1394,12.6776,-6.31948
644,-370,12.7738,6.09912,-0.00188066,-0.000397562,0.0108423,0.00972852,-0.0120067,0.819542,0.0125718,0.012393,1868,1394,12.7738,-6.09911
651,-370,12.785,5.88538,-0.00188073,-0.000865355,0.00783393,0.00647732,-0.00922341,0.817756,0.00911092,0.0121272,1875,1394,12.785,-5.88537
658,-370,12.7826,5.69116,-0.0020237,-0.00143501,0.00542069,0.00369932,-0.00715803,0.812521,0.00637363,0.0117342,1882,1394,12.7826,-5.69113
665,-370,12.7611,5.51807,-0.00158376,-0.000893303,0.00303282,0.00181388,-0.00429094,0.842069,0.00362004,0.012237,1889,1394,12.7611,-5.51812
672,-370,12.761,5.34424,-0.000917591,-0.000156679,0.000962604,0.000497927,-0.0015722,0.973595,0.00124768,0.0142514,1896,1394,12.761,-5.3442
679,-370,12.7737,5.15479,0.000440409,0.000242917,-0.000950611,0.00129739,-0.000614063,-0.733646,0.00112684,0.014543,1903,1394,12.7736,-5.15484
686,-370,12.7793,4.9884,0.00175959,0.000791327,-0.00288532,0.00420112,-0.0016502,-0.702276,0.00348363,0.014682,1910,1394,12.7792,-4.98837
693,-370,12.7841,4.79333,0.00223783,0.00300346,-0.00358515,0.00622617,-0.000984884,-0.838585,0.00451503,0.0121891,1917,1394,12.7841,-4.79334
700,-370,12.8513,4.56482,0.00217169,0.00726727,-0.00198736,0.00795071,0.00148825,-1.23957,0.00488062,0.0168371,1924,1394,12.8513,-4.56486
707,-370,12.819,4.39783,0.00242513,0.0122618,-0.000692168,0.0123102,0.00237666,-1.50089,0.00754051,0.0284593,1931,1394,12.819,-4.39783
714,-370,13.1917,3.77356,0.00188662,0.0192772,0.00212763,0.0195337,0.00163011,1.45081,0.0125145,0.0436254,1938,1394,13.1916,-3.77351
721,-370,13.5881,3.13916,0,0,0,0,0,0,0,-1,1945,1394,13.5881,-3.1391
728,-370,14.614,4.88318,0,0,0,0,0,0,0,-1,1952,1394,14.6141,-4.88324
735,-370,15.9586,5.35278,0,0,0,0,0,0,0,-1,1959,1394,15.9586,-5.35274
742,-370,12.6914,4.10376,0,0,0,0,0,0,0,-1,1966,1394,12.6914,-4.10374
749,-370,0,0,0,0,0,0,0,0,0,-1,1973,1394,0,0
756,-370,0,0,0,0,0,0,0,0,0,-1,1980,1394,0,0
763,-370,0,0,0,0,0,0,0,0,0,-1,1987,1394,0,0
770,-370,0,0,0,0,0,0,0,0,0,-1,1994,1394,0,0
777,-370,0,0,0,0,0,0,0,0,0,-1,2001,1394,0,0
784,-370,0,0,0,0,0,0,0,0,0,-1,2008,1394,0,0
791,-370,0,0,0,0,0,0,0,0,0,-1,2015,1394,0,0
798,-370,0,0,0,0,0,0,0,0,0,-1,2022,1394,0,0
805,-370,0,0,0,0,0,0,0,0,0,-1,2029,1394,0,0
812,-370,0,0,0,0,0,0,0,0,0,-1,2036,1394,0,0
-700,-377,0,0,0,0,0,0,0,0,0,-1,524,1401,0,0
-693,-377,0,0,0,0,0,0,0,0,0,-1,531,1401,0,0
-686,-377,0,0,0,0,0,0,0,0,0,-1,538,1401,0,0
-679,-377,0,0,0,0,0,0,0,0,0,-1,545,1401,0,0
-672,-377,0,0,0,0,0,0,0,0,0,-1,552,1401,0,0
-665,-377,0,0,0,0,0,0,0,0,0,-1,559,1401,0,0
-658,-377,0,0,0,0,0,0,0,0,0,-1,566,1401,0,0
-651,-377,0,0,0,0,0,0,0,0,0,-1,573,1401,0,0
-644,-377,0,0,0,0,0,0,0,0,0,-1,580,1401,0,0
-637,-377,0,0,0,0,0,0,0,0,0,-1,587,1401,0,0
-630,-377,0,0,0,0,0,0,0,0,0,-1,594,1401,0,0
-623,-377,0,0,0,0,0,0,0,0,0,-1,601,1401,0,0
-616,-377,-8.87878,-6.72974,0,0,0,0,0,0,0,-1,608,1401,-8.87877,6.72973
-609,-377,-6.92798,-0.228882,0,0,0,0,0,0,0,-1,615,1401,-6.928,0.228857
-602,-377,-5.84314,1.11121,0,0,0,0,0,0,0,-1,622,1401,-5.84313,-1.11116
-595,-377,-4.83807,2.5144,0,0,0,0,0,0,0,-1,629,1401,-4.83808,-2.51442
-588,-377,-4.07349,-0.807861,0,0,0,0,0,0,0,-1,636,1401,-4.07348,0.807881
-581,-377,-4.69653,2.43555,0,0,0,0,0,0,0,-1,643,1401,-4.6965,-2.43558
-574,-377,-4.60504,2.39612,-0.0114149,0.00874975,0.00147097,0.00885649,-0.0115216,1.49836,0.0117988,0.0468354,650,1401,-4.60505,-2.39616
-567,-377,-4.72736,2.62097,-0.00882541,0.00703818,0.00231725,0.00736974,-0.00915697,1.42868,0.00956028,0.0296557,657,1401,-4.72733,-2.62099
-560,-377,-4.85388,2.8042,-0.00657762,0.00564661,0.0016393,0.00586262,-0.00679363,1.43978,0.00731368,0.0203619,664,1401,-4.85387,-2.80422
-553,-377,-4.815,2.99902,-0.00470061,0.00432434,0.00107102,0.0044497,-0.00482597,1.45428,0.00535678,0.0125331,671,1401,-4.81501,-2.99905
-546,-377,-4.82007,3.24658,-0.00319163,0.00313297,0.000582176,0.00318611,-0.00324477,1.47977,0.00371292,0.0159569,678,1401,-4.82004,-3.24653
-539,-377,-4.80762,3.4082,-0.00209118,0.00186498,-5.83643e-05,0.00186584,-0.00209204,-1.55605,0.00228632,0.0206813,685,1401,-4.80762,-3.40824
-532,-377,-4.80542,3.61584,-0.00104864,0.000357424,-0.0013591,0.00118456,-0.00187577,-1.02409,0.00178184,0.0206927,692,1401,-4.80539,-3.61588
-525,-377,-4.74487,3.85107,0.000105005,-0.00202975,-0.00367213,0.00286174,-0.00478648,-0.643961,0.00446207,0.0166465,699,1401,-4.74486,-3.85108
-518,-377,-4.80884,4.04944,0.000650965,-0.00465661,-0.00619799,0.0047394,-0.00874505,-0.583122,0.00789892,0.0110872,706,1401,-4.80886,-4.04942
-511,-377,-4.79907,4.25781,-0.000645766,-0.00767511,-0.00967126,0.00612966,-0.0144505,-0.611111,0.0122014,0.0118395,713,1401,-4.79905,-4.25776
-504,-377,-4.79034,4.47961,-0.00252521,-0.010767,-0.0139555,0.00790508,-0.0211973,-0.641834,0.0173766,0.012282,720,1401,-4.79036,-4.47964
-497,-377,-4.63385,4.69067,-0.00714471,-0.0116069,-0.0187378,0.00949437,-0.028246,-0.726143,0.0226682,0.0209514,727,1401,-4.63384,-4.69072
-490,-377,-4.69794,4.57507,-0.0135227,-0.0116596,-0.0231997,0.0106272,-0.0358095,-0.805464,0.0280936,0.0449423,734,1401,-4.69792,-4.57512
-483,-377,-4.76135,3.92273,-0.0204254,-0.00847301,-0.0266812,0.0128931,-0.0417916,-0.895572,0.033009,0.0453414,741,1401,-4.76132,-3.92273
-476,-377,-4.51074,3.00049,-0.0278056,-0.00523441,-0.0288507,0.0144595,-0.0474995,-0.971834,0.037429,0.0422113,748,1401,-4.51072,-3.00047
-469,-377,-4.0274,2.21289,0,0,0,0,0,0,0,-1,755,1401,-4.02743,-2.21291
-462,-377,-9.63947,2.93713,-0.0453898,0.00583608,-0.0310301,0.0204586,-0.0600123,-1.13042,0.0482944,0.0437517,762,1401,-9.63945,-2.93708
-455,-377,-10.5507,2.93665,0,0,0,0,0,0,0,-1,769,1401,-10.5507,-2.9367
-448,-377,-9.05334,0.877319,0,0,0,0,0,0,0,-1,776,1401,-9.05332,-0.877324
-441,-377,-10.5236,0.856934,0,0,0,0,0,0,0,-1,783,1401,-10.5236,-0.856874
-434,-377,-11.0984,0.996216,-0.0770154,0.0468282,-0.0148733,0.0485894,-0.0787766,-1.45293,0.0742201,0.043315,790,1401,-11.0984,-0.996265
-427,-377,-11.1733,1.25732,-0.0790215,0.0595115,-0.00763216,0.0599307,-0.0794407,-1.51592,0.0807285,0.043478,797,1401,-11.1733,-1.25732
-420,-377,0,0,0,0,0,0,0,0,0,-1,804,1401,0,0
-413,-377,0,0,0,0,0,0,0,0,0,-1,811,1401,0,0
-406,-377,0,0,0,0,0,0,0,0,0,-1,818,1401,0,0
-399,-377,0,0,0,0,0,0,0,0,0,-1,825,1401,0,0
-392,-377,0,0,0,0,0,0,0,0,0,-1,832,1401,0,0
-385,-377,0,0,0,0,0,0,0,0,0,-1,839,1401,0,0
-378,-377,0,0,0,0,0,0,0,0,0,-1,846,1401,0,0
-371,-377,0,0,0,0,0,0,0,0,0,-1,853,1401,0,0
-364,-377,0,0,0,0,0,0,0,0,0,-1,860,1401,0,0
-357,-377,0,0,0,0,0,0,0,0,0,-1,867,1401,0,0
-350,-377,0,0,0,0,0,0,0,0,0,-1,874,1401,0,0
-343,-377,0,0,0,0,0,0,0,0,0,-1,881,1401,0,0
-336,-377,0,0,0,0,0,0,0,0,0,-1,888,1401,0,0
-329,-377,0,0,0,0,0,0,0,0,0,-1,895,1401,0,0
-322,-377,0,0,0,0,0,0,0,0,0,-1,902,1401,0,0
-315,-377,0,0,0,0,0,0,0,0,0,-1,909,1401,0,0
-308,-377,0,0,0,0,0,0,0,0,0,-1,916,1401,0,0
-301,-377,0,0,0,0,0,0,0,0,0,-1,923,1401,0,0
-294,-377,0,0,0,0,0,0,0,0,0,-1,930,1401,0,0
-287,-377,0,0,0,0,0,0,0,0,0,-1,937,1401,0,0
-280,-377,0,0,0,0,0,0,0,0,0,-1,944,1401,0,0
-273,-377,0,0,0,0,0,0,0,0,0,-1,951,1401,0,0
-266,-377,0,0,0,0,0,0,0,0,0,-1,958,1401,0,0
-259,-377,0,0,0,0,0,0,0,0,0,-1,965,1401,0,0
-252,-377,0,0,0,0,0,0,0,0,0,-1,972,1401,0,0
-245,-377,0,0,0,0,0,0,0,0,0,-1,979,1401,0,0
-238,-377,0,0,0,0,0,0,0,0,0,-1,986,1401,0,0
-231,-377,0,0,0,0,0,0,0,0,0,-1,993,1401,0,0
-224,-377,0,0,0,0,0,0,0,0,0,-1,1000,1401,0,0
-217,-377,0,0,0,0,0,0,0,0,0,-1,1007,1401,0,0
-210,-377,0,0,0,0,0,0,0,0,0,-1,1014,1401,0,0
-203,-377,0,0,0,0,0,0,0,0,0,-1,1021,1401,0,0
-196,-377,0,0,0,0,0,0,0,0,0,-1,1028,1401,0,0
-189,-377,0,0,0,0,0,0,0,0,0,-1,1035,1401,0,0
-182,-377,0,0,0,0,0,0,0,0,0,-1,1042,1401,0,0
-175,-377,0,0,0,0,0,0,0,0,0,-1,1049,1401,0,0
-168,-377,0,0,0,0,0,0,0,0,0,-1,1056,1401,0,0
-161,-377,0,0,0,0,0,0,0,0,0,-1,1063,1401,0,0
-154,-377,0,0,0,0,0,0,0,0,0,-1,1070,1401,0,0
-147,-377,0,0,0,0,0,0,0,0,0,-1,1077,1401,0,0
-140,-377,0,0,0,0,0,0,0,0,0,-1,1084,1401,0,0
-133,-377,0,0,0,0,0,0,0,0,0,-1,1091,1401,0,0
-126,-377,0,0,0,0,0,0,0,0,0,-1,1098,1401,0,0
-119,-377,0,0,0,0,0,0,0,0,0,-1,1105,1401,0,0
-112,-377,0,0,0,0,0,0,0,0,0,-1,1112,1401,0,0
-105,-377,0,0,0,0,0,0,0,0,0,-1,1119,1401,0,0
-98,-377,0,0,0,0,0,0,0,0,0,-1,1126,1401,0,0
-91,-377,0,0,0,0,0,0,0,0,0,-1,1133,1401,0,0
-84,-377,0,0,0,0,0,0,0,0,0,-1,1140,1401,0,0
-77,-377,0,0,0,0,0,0,0,0,0,-1,1147,1401,0,0
-70,-377,0,0,0,0,0,0,0,0,0,-1,1154,1401,0,0
-63,-377,0,0,0,0,0,0,0,0,0,-1,1161,1401,0,0
-56,-377,0,0,0,0,0,0,0,0,0,-1,1168,1401,0,0
-49,-377,0,0,0,0,0,0,0,0,0,-1,1175,1401,0,0
-42,-377,0,0,0,0,0,0,0,0,0,-1,1182,1401,0,0
-35,-377,0,0,0,0,0,0,0,0,0,-1,1189,1401,0,0
-28,-377,0,0,0,0,0,0,0,0,0,-1,1196,1401,0,0
-21,-377,0,0,0,0,0,0,0,0,0,-1,1203,1401,0,0
-14,-377,0,0,0,0,0,0,0,0,0,-1,1210,1401,0,0
-7,-377,0,0,0,0,0,0,0,0,0,-1,1217,1401,0,0
0,-377,0,0,0,0,0,0,0,0,0,-1,1224,1401,0,0
7,-377,0,0,0,0,0,0,0,0,0,-1,1231,1401,0,0
14,-377,0,0,0,0,0,0,0,0,0,-1,1238,1401,0,0
21,-377,0,0,0,0,0,0,0,0,0,-1,1245,1401,0,0
28,-377,0,0,0,0,0,0,0,0,0,-1,1252,1401,0,0
35,-377,0,0,0,0,0,0,0,0,0,-1,1259,1401,0,0
42,-377,0,0,0,0,0,0,0,0,0,-1,1266,1401,0,0
49,-377,0,0,0,0,0,0,0,0,0,-1,1273,1401,0,0
56,-377,0,0,0,0,0,0,0,0,0,-1,1280,1401,0,0
63,-377,0,0,0,0,0,0,0,0,0,-1,1287,1401,0,0
70,-377,0,0,0,0,0,0,0,0,0,-1,1294,1401,0,0
77,-377,0,0,0,0,0,0,0,0,0,-1,1301,1401,0,0
84,-377,0,0,0,0,0,0,0,0,0,-1,1308,1401,0,0
91,-377,0,0,0,0,0,0,0,0,0,-1,1315,1401,0,0
98,-377,0,0,0,0,0,0,0,0,0,-1,1322,1401,0,0
105,-377,0,0,0,0,0,0,0,0,0,-1,1329,1401,0,0
112,-377,0,0,0,0,0,0,0,0,0,-1,1336,1401,0,0
119,-377,0,0,0,0,0,0,0,0,0,-1,1343,1401,0,0
126,-377,0,0,0,0,0,0,0,0,0,-1,1350,1401,0,0
133,-377,0,0,0,0,0,0,0,0,0,-1,1357,1401,0,0
140,-377,0,0,0,0,0,0,0,0,0,-1,1364,1401,0,0
147,-377,0,0,0,0,0,0,0,0,0,-1,1371,1401,0,0
154,-377,0,0,0,0,0,0,0,0,0,-1,1378,1401,0,0
161,-377,0,0,0,0,0,0,0,0,0,-1,1385,1401,0,0
168,-377,0,0,0,0,0,0,0,0,0,-1,1392,1401,0,0
175,-377,0,0,0,0,0,0,0,0,0,-1,1399,1401,0,0
182,-377,0,0,0,0,0,0,0,0,0,-1,1406,1401,0,0
189,-377,0,0,0,0,0,0,0,0,0,-1,1413,1401,0,0
196,-377,0,0,0,0,0,0,0,0,0,-1,1420,1401,0,0
203,-377,0,0,0,0,0,0,0,0,0,-1,1427,1401,0,0
210,-377,0,0,0,0,0,0,0,0,0,-1,1434,1401,0,0
217,-377,0,0,0,0,0,0,0,0,0,-1,1441,1401,0,0
224,-377,0,0,0,0,0,0,0,0,0,-1,1448,1401,0,0
231,-377,0,0,0,0,0,0,0,0,0,-1,1455,1401,0,0
238,-377,0,0,0,0,0,0,0,0,0,-1,1462,1401,0,0
245,-377,0,0,0,0,0,0,0,0,0,-1,1469,1401,0,0
252,-377,0,0,0,0,0,0,0,0,0,-1,1476,1401,0,0
259,-377,0,0,0,0,0,0,0,0,0,-1,1483,1401,0,0
266,-377,0,0,0,0,0,0,0,0,0,-1,1490,1401,0,0
273,-377,0,0,0,0,0,0,0,0,0,-1,1497,1401,0,0
280,-377,0,0,0,0,0,0,0,0,0,-1,1504,1401,0,0
287,-377,0,0,0,0,0,0,0,0,0,-1,1511,1401,0,0
294,-377,0,0,0,0,0,0,0,0,0,-1,1518,1401,0,0
301,-377,0,0,0,0,0,0,0,0,0,-1,1525,1401,0,0
308,-377,0,0,0,0,0,0,0,0,0,-1,1532,1401,0,0
315,-377,0,0,0,0,0,0,0,0,0,-1,1539,1401,0,0
322,-377,0,0,0,0,0,0,0,0,0,-1,1546,1401,0,0
329,-377,0,0,0,0,0,0,0,0,0,-1,1553,1401,0,0
336,-377,0,0,0,0,0,0,0,0,0,-1,1560,1401,0,0
343,-377,0,0,0,0,0,0,0,0,0,-1,1567,1401,0,0
350,-377,0,0,0,0,0,0,0,0,0,-1,1574,1401,0,0
357,-377,0,0,0,0,0,0,0,0,0,-1,1581,1401,0,0
364,-377,0,0,0,0,0,0,0,0,0,-1,1588,1401,0,0
371,-377,0,0,0,0,0,0,0,0,0,-1,1595,1401,0,0
378,-377,0,0,0,0,0,0,0,0,0,-1,1602,1401,0,0
385,-377,0,0,0,0,0,0,0,0,0,-1,1609,1401,0,0
392,-377,0,0,0,0,0,0,0,0,0,-1,1616,1401,0,0
399,-377,0,0,0,0,0,0,0,0,0,-1,1623,1401,0,0
406,-377,0,0,0,0,0,0,0,0,0,-1,1630,1401,0,0
413,-377,0,0,0,0,0,0,0,0,0,-1,1637,1401,0,0
420,-377,0,0,0,0,0,0,0,0,0,-1,1644,1401,0,0
427,-377,0,0,0,0,0,0,0,0,0,-1,1651,1401,0,0
434,-377,0,0,0,0,0,0,0,0,0,-1,1658,1401,0,0
441,-377,0,0,0,0,0,0,0,0,0,-1,1665,1401,0,0
448,-377,0,0,0,0,0,0,0,0,0,-1,1672,1401,0,0
455,-377,0,0,0,0,0,0,0,0,0,-1,1679,1401,0,0
462,-377,0,0,0,0,0,0,0,0,0,-1,1686,1401,0,0
469,-377,0,0,0,0,0,0,0,0,0,-1,1693,1401,0,0
476,-377,0,0,0,0,0,0,0,0,0,-1,1700,1401,0,0
483,-377,0,0,0,0,0,0,0,0,0,-1,1707,1401,0,0
490,-377,0,0,0,0,0,0,0,0,0,-1,1714,1401,0,0
497,-377,0,0,0,0,0,0,0,0,0,-1,1721,1401,0,0
504,-377,0,0,0,0,0,0,0,0,0,-1,1728,1401,0,0
511,-377,0,0,0,0,0,0,0,0,0,-1,1735,1401,0,0
518,-377,0,0,0,0,0,0,0,0,0,-1,1742,1401,0,0
525,-377,0,0,0,0,0,0,0,0,0,-1,1749,1401,0,0
532,-377,0,0,0,0,0,0,0,0,0,-1,1756,1401,0,0
539,-377,0,0,0,0,0,0,0,0,0,-1,1763,1401,0,0
546,-377,16.6301,1.86731,0,0,0,0,0,0,0,-1,1770,1401,16.6301,-1.86737
553,-377,22.3673,2.2356,0,0,0,0,0,0,0,-1,1777,1401,22.3673,-2.23565
560,-377,16.3752,3.22534,0,0,0,0,0,0,0,-1,1784,1401,16.3753,-3.22539
567,-377,15.1582,2.81689,0,0,0,0,0,0,0,-1,1791,1401,15.1583,-2.81688
574,-377,16.4839,2.52222,0,0,0,0,0,0,0,-1,1798,1401,16.4839,-2.52226
581,-377,15.309,3.06311,0,0,0,0,0,0,0,-1,1805,1401,15.3089,-3.06316
588,-377,14.9818,2.77893,0,0,0,0,0,0,0,-1,1812,1401,14.9818,-2.77896
595,-377,13.0044,2.7074,0,0,0,0,0,0,0,-1,1819,1401,13.0044,-2.70745
602,-377,13.0537,3.23193,0,0,0,0,0,0,0,-1,1826,1401,13.0537,-3.23191
609,-377,13.0149,5.72937,0,0,0,0,0,0,0,-1,1833,1401,13.0149,-5.72942
616,-377,14.0149,6.20459,0,0,0,0,0,0,0,-1,1840,1401,14.0148,-6.20464
623,-377,12.6299,6.59705,0,0,0,0,0,0,0,-1,1847,1401,12.6298,-6.59701
630,-377,12.5703,6.505,-0.0023469,-0.00233057,0.0131127,0.010774,-0.0154514,0.785709,0.0152213,0.0313258,1854,1401,12.5703,-6.50506
637,-377,12.5339,6.29614,-0.00173881,-0.00414483,0.0104333,0.00756063,-0.0134443,0.727999,0.0122847,0.0145898,1861,1401,12.534,-6.29619
644,-377,12.5717,6.10278,-0.00211533,-0.00328319,0.00782459,0.00514709,-0.0105456,0.748154,0.00923716,0.0116329,1868,1401,12.5717,-6.10277
651,-377,12.5829,5.91003,-0.00186889,-0.00230748,0.00546215,0.00337836,-0.00755473,0.765335,0.00646391,0.0135531,1875,1401,12.5829,-5.91006
658,-377,12.5779,5.70081,-0.00185784,-0.00200026,0.00363845,0.0017101,-0.0055682,0.775614,0.00439451,0.0147507,1882,1401,12.5779,-5.70082
665,-377,12.5844,5.50513,-0.00138167,-0.00105199,0.00180199,0.000592678,-0.00302634,0.83101,0.00224139,0.015502,1889,1401,12.5843,-5.50518
672,-377,12.6047,5.33777,-0.000702954,-0.00020282,0.00022303,-0.000117811,-0.000787963,1.20664,0.000490775,0.0165504,1896,1401,12.6048,-5.33781
679,-377,12.5826,5.1604,0.000471086,0.000220557,-0.00124209,0.00159421,-0.000902567,-0.735143,0.00145983,0.0173668,1903,1401,12.5827,-5.16042
686,-377,12.5924,4.9696,0.00167464,0.000596772,-0.00291804,0.0041031,-0.00183169,-0.694082,0.0035091,0.0151596,1910,1401,12.5924,-4.96962
693,-377,12.624,4.77661,0.00209833,0.00241219,-0.00363215,0.0058908,-0.00138028,-0.806988,0.00445908,0.0123805,1917,1401,12.624,-4.77664
700,-377,12.5864,4.57507,0.00197329,0.00647193,-0.00215519,0.00733778,0.00110745,-1.18878,0.00456768,0.0214854,1924,1401,12.5865,-4.57508
707,-377,12.6991,4.42725,0.00218063,0.0112248,-0.00101319,0.0113369,0.00206852,-1.46059,0.00697149,0.0392169,1931,1401,12.6991,-4.4273
714,-377,13.3066,3.75476,0.00145248,0.0183736,0.00185212,0.0185739,0.00125213,1.46304,0.0119871,0.046267,1938,1401,13.3066,-3.75475
721,-377,13.8491,3.23669,0,0,0,0,0,0,0,-1,1945,1401,13.8491,-3.23675
728,-377,14.5396,2.79724,0,0,0,0,0,0,0,-1,1952,1401,14.5396,-2.7972
735,-377,16.2814,5.49353,0,0,0,0,0,0,0,-1,1959,1401,16.2814,-5.49358
742,-377,0,0,0,0,0,0,0,0,0,-1,1966,1401,0,0
749,-377,0,0,0,0,0,0,0,0,0,-1,1973,1401,0,0
756,-377,0,0,0,0,0,0,0,0,0,-1,1980,1401,0,0
763,-377,0,0,0,0,0,0,0,0,0,-1,1987,1401,0,0
770,-377,0,0,0,0,0,0,0,0,0,-1,1994,1401,0,0
777,-377,0,0,0,0,0,0,0,0,0,-1,2001,1401,0,0
784,-377,0,0,0,0,0,0,0,0,0,-1,2008,1401,0,0
791,-377,0,0,0,0,0,0,0,0,0,-1,2015,1401,0,0
798,-377,0,0,0,0,0,0,0,0,0,-1,2022,1401,0,0
805,-377,0,0,0,0,0,0,0,0,0,-1,2029,1401,0,0
812,-377,0,0,0,0,0,0,0,0,0,-1,2036,1401,0,0
-700,-384,0,0,0,0,0,0,0,0,0,-1,524,1408,0,0
-693,-384,0,0,0,0,0,0,0,0,0,-1,531,1408,0,0
-686,-384,0,0,0,0,0,0,0,0,0,-1,538,1408,0,0
-679,-384,0,0,0,0,0,0,0,0,0,-1,545,1408,0,0
-672,-384,0,0,0,0,0,0,0,0,0,-1,552,1408,0,0
-665,-384,0,0,0,0,0,0,0,0,0,-1,559,1408,0,0
-658,-384,0,0,0,0,0,0,0,0,0,-1,566,1408,0,0
-651,-384,0,0,0,0,0,0,0,0,0,-1,573,1408,0,0
-644,-384,0,0,0,0,0,0,0,0,0,-1,580,1408,0,0
-637,-384,0,0,0,0,0,0,0,0,0,-1,587,1408,0,0
-630,-384,0,0,0,0,0,0,0,0,0,-1,594,1408,0,0
-623,-384,0,0,0,0,0,0,0,0,0,-1,601,1408,0,0
-616,-384,-3.61444,-6.00427,0,0,0,0,0,0,0,-1,608,1408,-3.61444,6.00431
-609,-384,-3.24353,-4.32397,0,0,0,0,0,0,0,-1,615,1408,-3.24354,4.32401
-602,-384,-3.00122,-2.66907,0,0,0,0,0,0,0,-1,622,1408,-3.00119,2.66903
-595,-384,-2.9704,-1.00012,0,0,0,0,0,0,0,-1,629,1408,-2.97037,1.00017
-588,-384,-3.20319,-0.186157,0,0,0,0,0,0,0,-1,636,1408,-3.20319,0.186182
-581,-384,-5.36359,3.04773,0,0,0,0,0,0,0,-1,643,1408,-5.36359,-3.04774
-574,-384,-4.51563,2.23694,0,0,0,0,0,0,0,-1,650,1408,-4.51561,-2.2369
-567,-384,-4.53131,2.56995,-0.00962,0.00997217,0.00364099,0.0106269,-0.0102748,1.39287,0.0120682,0.0428439,657,1408,-4.53129,-2.56994
-560,-384,-4.57227,2.80164,-0.00735103,0.0080065,0.00264529,0.00844937,-0.0077939,1.40492,0.0093806,0.0270859,664,1408,-4.57227,-2.80159
-553,-384,-4.59979,2.9856,-0.00541914,0.00619109,0.00189603,0.00649288,-0.00572094,1.41295,0.00705634,0.0169242,671,1408,-4.5998,-2.9856
-546,-384,-4.60327,3.22095,-0.00379281,0.00460117,0.0012868,0.00479401,-0.00398565,1.42205,0.00507609,0.014092,678,1408,-4.6033,-3.22098
-539,-384,-4.62683,3.40308,-0.00252225,0.00303548,0.000598254,0.00309915,-0.00258592,1.46477,0.00328673,0.0167146,685,1408,-4.62682,-3.40311
-532,-384,-4.57965,3.60364,-0.00137174,0.00127411,-0.000634768,0.00141852,-0.00151614,-1.34711,0.00169464,0.0245669,692,1408,-4.57962,-3.60366
-525,-384,-4.53363,3.86243,-7.90822e-05,-0.00106885,-0.00267442,0.00214586,-0.00329379,-0.693911,0.0031638,0.0218721,699,1408,-4.53361,-3.86239
-518,-384,-4.6048,4.05481,0.000873314,-0.00363399,-0.00486494,0.00398125,-0.00674192,-0.568492,0.00625904,0.0122552,706,1408,-4.60478,-4.05478
-511,-384,-4.59875,4.28259,0.000454628,-0.00660326,-0.00786885,0.00554962,-0.0116982,-0.574608,0.0101668,0.010443,713,1408,-4.59877,-4.28261
-504,-384,-4.58777,4.51208,-0.000535306,-0.00975644,-0.011631,0.00736562,-0.0176574,-0.596697,0.0148488,0.0115745,720,1408,-4.58776,-4.51204
-497,-384,-4.57111,4.73169,-0.00397698,-0.0110154,-0.0159388,0.00882651,-0.0238189,-0.676744,0.0194991,0.0144381,727,1408,-4.57112,-4.73166
-490,-384,-4.44769,4.90479,-0.00926524,-0.0116399,-0.0200514,0.00963394,-0.0305391,-0.755825,0.0242181,0.0310592,734,1408,-4.44769,-4.90479
-483,-384,-4.75391,4.68494,-0.0153764,-0.00908022,-0.023346,0.011329,-0.0357856,-0.852417,0.028397,0.0496301,741,1408,-4.75388,-4.68493
-476,-384,-5.02087,4.4884,0,0,0,0,0,0,0,-1,748,1408,-5.02086,-4.48841
-469,-384,-8.53149,3.49146,0,0,0,0,0,0,0,-1,755,1408,-8.53152,-3.49149
-462,-384,-9.37292,3.43823,0,0,0,0,0,0,0,-1,762,1408,-9.37292,-3.43824
-455,-384,-10.2143,3.38501,0,0,0,0,0,0,0,-1,769,1408,-10.2143,-3.38498
-448,-384,-1.89233,1.6134,0,0,0,0,0,0,0,-1,776,1408,-1.89231,-1.61337
-441,-384,-10.2661,0.338989,0,0,0,0,0,0,0,-1,783,1408,-10.2661,-0.339015
-434,-384,-10.6449,0.552246,-0.0705209,0.0357756,-0.0124137,0.037206,-0.0719514,-1.45607,0.0640774,0.0463919,790,1408,-10.6449,-0.552216
-427,-384,-10.968,1.10583,-0.0729003,0.0444603,-0.0055636,0.0447235,-0.0731634,-1.52353,0.0687191,0.0473803,797,1408,-10.968,-1.10588
-420,-384,-11.3776,1.47351,0,0,0,0,0,0,0,-1,804,1408,-11.3776,-1.4735
-413,-384,0,0,0,0,0,0,0,0,0,-1,811,1408,0,0
-406,-384,0,0,0,0,0,0,0,0,0,-1,818,1408,0,0
-399,-384,0,0,0,0,0,0,0,0,0,-1,825,1408,0,0
-392,-384,0,0,0,0,0,0,0,0,0,-1,832,1408,0,0
-385,-384,0,0,0,0,0,0,0,0,0,-1,839,1408,0,0
-378,-384,0,0,0,0,0,0,0,0,0,-1,846,1408,0,0
-371,-384,0,0,0,0,0,0,0,0,0,-1,853,1408,0,0
-364,-384,0,0,0,0,0,0,0,0,0,-1,860,1408,0,0
-357,-384,0,0,0,0,0,0,0,0,0,-1,867,1408,0,0
-350,-384,0,0,0,0,0,0,0,0,0,-1,874,1408,0,0
-343,-384,0,0,0,0,0,0,0,0,0,-1,881,1408,0,0
-336,-384,0,0,0,0,0,0,0,0,0,-1,888,1408,0,0
-329,-384,0,0,0,0,0,0,0,0,0,-1,895,1408,0,0
-322,-384,0,0,0,0,0,0,0,0,0,-1,902,1408,0,0
-315,-384,0,0,0,0,0,0,0,0,0,-1,909,1408,0,0
-308,-384,0,0,0,0,0,0,0,0,0,-1,916,1408,0,0
-301,-384,0,0,0,0,0,0,0,0,0,-1,923,1408,0,0
-294,-384,0,0,0,0,0,0,0,0,0,-1,930,1408,0,0
-287,-384,0,0,0,0,0,0,0,0,0,-1,937,1408,0,0
-280,-384,0,0,0,0,0,0,0,0,0,-1,944,1408,0,0
-273,-384,0,0,0,0,0,0,0,0,0,-1,951,1408,0,0
-266,-384,0,0,0,0,0,0,0,0,0,-1,958,1408,0,0
-259,-384,0,0,0,0,0,0,0,0,0,-1,965,1408,0,0
-252,-384,0,0,0,0,0,0,0,0,0,-1,972,1408,0,0
-245,-384,0,0,0,0,0,0,0,0,0,-1,979,1408,0,0
-238,-384,0,0,0,0,0,0,0,0,0,-1,986,1408,0,0
-231,-384,0,0,0,0,0,0,0,0,0,-1,993,1408,0,0
-224,-384,0,0,0,0,0,0,0,0,0,-1,1000,1408,0,0
-217,-384,0,0,0,0,0,0,0,0,0,-1,1007,1408,0,0
-210,-384,0,0,0,0,0,0,0,0,0,-1,1014,1408,0,0
-203,-384,0,0,0,0,0,0,0,0,0,-1,1021,1408,0,0
-196,-384,0,0,0,0,0,0,0,0,0,-1,1028,1408,0,0
-189,-384,0,0,0,0,0,0,0,0,0,-1,1035,1408,0,0
-182,-384,0,0,0,0,0,0,0,0,0,-1,1042,1408,0,0
-175,-384,0,0,0,0,0,0,0,0,0,-1,1049,1408,0,0
-168,-384,0,0,0,0,0,0,0,0,0,-1,1056,1408,0,0
-161,-384,0,0,0,0,0,0,0,0,0,-1,1063,1408,0,0
-154,-384,0,0,0,0,0,0,0,0,0,-1,1070,1408,0,0
-147,-384,0,0,0,0,0,0,0,0,0,-1,1077,1408,0,0
-140,-384,0,0,0,0,0,0,0,0,0,-1,1084,1408,0,0
-133,-384,0,0,0,0,0,0,0,0,0,-1,1091,1408,0,0
-126,-384,0,0,0,0,0,0,0,0,0,-1,1098,1408,0,0
-119,-384,0,0,0,0,0,0,0,0,0,-1,1105,1408,0,0
-112,-384,0,0,0,0,0,0,0,0,0,-1,1112,1408,0,0
-105,-384,0,0,0,0,0,0,0,0,0,-1,1119,1408,0,0
-98,-384,0,0,0,0,0,0,0,0,0,-1,1126,1408,0,0
-91,-384,0,0,0,0,0,0,0,0,0,-1,1133,1408,0,0
-84,-384,0,0,0,0,0,0,0,0,0,-1,1140,1408,0,0
-77,-384,0,0,0,0,0,0,0,0,0,-1,1147,1408,0,0
-70,-384,0,0,0,0,0,0,0,0,0,-1,1154,1408,0,0
-63,-384,0,0,0,0,0,0,0,0,0,-1,1161,1408,0,0
-56,-384,0,0,0,0,0,0,0,0,0,-1,1168,1408,0,0
-49,-384,0,0,0,0,0,0,0,0,0,-1,1175,1408,0,0
-42,-384,0,0,0,0,0,0,0,0,0,-1,1182,1408,0,0
-35,-384,0,0,0,0,0,0,0,0,0,-1,1189,1408,0,0
-28,-384,0,0,0,0,0,0,0,0,0,-1,1196,1408,0,0
-21,-384,0,0,0,0,0,0,0,0,0,-1,1203,1408,0,0
-14,-384,0,0,0,0,0,0,0,0,0,-1,1210,1408,0,0
-7,-384,0,0,0,0,0,0,0,0,0,-1,1217,1408,0,0
0,-384,0,0,0,0,0,0,0,0,0,-1,1224,1408,0,0
7,-384,0,0,0,0,0,0,0,0,0,-1,1231,1408,0,0
14,-384,0,0,0,0,0,0,0,0,0,-1,1238,1408,0,0
21,-384,0,0,0,0,0,0,0,0,0,-1,1245,1408,0,0
28,-384,0,0,0,0,0,0,0,0,0,-1,1252,1408,0,0
35,-384,0,0,0,0,0,0,0,0,0,-1,1259,1408,0,0
42,-384,0,0,0,0,0,0,0,0,0,-1,1266,1408,0,0
49,-384,0,0,0,0,0,0,0,0,0,-1,1273,1408,0,0
56,-384,0,0,0,0,0,0,0,0,0,-1,1280,1408,0,0
63,-384,0,0,0,0,0,0,0,0,0,-1,1287,1408,0,0
70,-384,0,0,0,0,0,0,0,0,0,-1,1294,1408,0,0
77,-384,0,0,0,0,0,0,0,0,0,-1,1301,1408,0,0
84,-384,0,0,0,0,0,0,0,0,0,-1,1308,1408,0,0
91,-384,0,0,0,0,0,0,0,0,0,-1,1315,1408,0,0
98,-384,0,0,0,0,0,0,0,0,0,-1,1322,1408,0,0
105,-384,0,0,0,0,0,0,0,0,0,-1,1329,1408,0,0
112,-384,0,0,0,0,0,0,0,0,0,-1,1336,1408,0,0
119,-384,0,0,0,0,0,0,0,0,0,-1,1343,1408,0,0
126,-384,0,0,0,0,0,0,0,0,0,-1,1350,1408,0,0
133,-384,0,0,0,0,0,0,0,0,0,-1,1357,1408,0,0
140,-384,0,0,0,0,0,0,0,0,0,-1,1364,1408,0,0
147,-384,0,0,0,0,0,0,0,0,0,-1,1371,1408,0,0
154,-384,0,0,0,0,0,0,0,0,0,-1,1378,1408,0,0
161,-384,0,0,0,0,0,0,0,0,0,-1,1385,1408,0,0
168,-384,0,0,0,0,0,0,0,0,0,-1,1392,1408,0,0
175,-384,0,0,0,0,0,0,0,0,0,-1,1399,1408,0,0
182,-384,0,0,0,0,0,0,0,0,0,-1,1406,1408,0,0
189,-384,0,0,0,0,0,0,0,0,0,-1,1413,1408,0,0
196,-384,0,0,0,0,0,0,0,0,0,-1,1420,1408,0,0
203,-384,0,0,0,0,0,0,0,0,0,-1,1427,1408,0,0
210,-384,0,0,0,0,0,0,0,0,0,-1,1434,1408,0,0
217,-384,0,0,0,0,0,0,0,0,0,-1,1441,1408,0,0
224,-384,0,0,0,0,0,0,0,0,0,-1,1448,1408,0,0
231,-384,0,0,0,0,0,0,0,0,0,-1,1455,1408,0,0
238,-384,0,0,0,0,0,0,0,0,0,-1,1462,1408,0,0
245,-384,0,0,0,0,0,0,0,0,0,-1,1469,1408,0,0
252,-384,0,0,0,0,0,0,0,0,0,-1,1476,1408,0,0
259,-384,0,0,0,0,0,0,0,0,0,-1,1483,1408,0,0
266,-384,0,0,0,0,0,0,0,0,0,-1,1490,1408,0,0
273,-384,0,0,0,0,0,0,0,0,0,-1,1497,1408,0,0
280,-384,0,0,0,0,0,0,0,0,0,-1,1504,1408,0,0
287,-384,0,0,0,0,0,0,0,0,0,-1,1511,1408,0,0
294,-384,0,0,0,0,0,0,0,0,0,-1,1518,1408,0,0
301,-384,0,0,0,0,0,0,0,0,0,-1,1525,1408,0,0
308,-384,0,0,0,0,0,0,0,0,0,-1,1532,1408,0,0
315,-384,0,0,0,0,0,0,0,0,0,-1,1539,1408,0,0
322,-384,0,0,0,0,0,0,0,0,0,-1,1546,1408,0,0
329,-384,0,0,0,0,0,0,0,0,0,-1,1553,1408,0,0
336,-384,0,0,0,0,0,0,0,0,0,-1,1560,1408,0,0
343,-384,0,0,0,0,0,0,0,0,0,-1,1567,1408,0,0
350,-384,0,0,0,0,0,0,0,0,0,-1,1574,1408,0,0
357,-384,0,0,0,0,0,0,0,0,0,-1,1581,1408,0,0
364,-384,0,0,0,0,0,0,0,0,0,-1,1588,1408,0,0
371,-384,0,0,0,0,0,0,0,0,0,-1,1595,1408,0,0
378,-384,0,0,0,0,0,0,0,0,0,-1,1602,1408,0,0
385,-384,0,0,0,0,0,0,0,0,0,-1,1609,1408,0,0
392,-384,0,0,0,0,0,0,0,0,0,-1,1616,1408,0,0
399,-384,0,0,0,0,0,0,0,0,0,-1,1623,1408,0,0
406,-384,0,0,0,0,0,0,0,0,0,-1,1630,1408,0,0
413,-384,0,0,0,0,0,0,0,0,0,-1,1637,1408,0,0
420,-384,0,0,0,0,0,0,0,0,0,-1,1644,1408,0,0
427,-384,0,0,0,0,0,0,0,0,0,-1,1651,1408,0,0
434,-384,0,0,0,0,0,0,0,0,0,-1,1658,1408,0,0
441,-384,0,0,0,0,0,0,0,0,0,-1,1665,1408,0,0
448,-384,0,0,0,0,0,0,0,0,0,-1,1672,1408,0,0
455,-384,0,0,0,0,0,0,0,0,0,-1,1679,1408,0,0
462,-384,0,0,0,0,0,0,0,0,0,-1,1686,1408,0,0
469,-384,0,0,0,0,0,0,0,0,0,-1,1693,1408,0,0
476,-384,0,0,0,0,0,0,0,0,0,-1,1700,1408,0,0
483,-384,0,0,0,0,0,0,0,0,0,-1,1707,1408,0,0
490,-384,0,0,0,0,0,0,0,0,0,-1,1714,1408,0,0
497,-384,0,0,0,0,0,0,0,0,0,-1,1721,1408,0,0
504,-384,0,0,0,0,0,0,0,0,0,-1,1728,1408,0,0
511,-384,0,0,0,0,0,0,0,0,0,-1,1735,1408,0,0
518,-384,0,0,0,0,0,0,0,0,0,-1,1742,1408,0,0
525,-384,0,0,0,0,0,0,0,0,0,-1,1749,1408,0,0
532,-384,0,0,0,0,0,0,0,0,0,-1,1756,1408,0,0
539,-384,23.3894,-0.603638,0,0,0,0,0,0,0,-1,1763,1408,23.3894,0.603585
546,-384,22.6879,0.667603,0,0,0,0,0,0,0,-1,1770,1408,22.6879,-0.667561
553,-384,21.4866,2.03723,0,0,0,0,0,0,0,-1,1777,1408,21.4866,-2.03728
560,-384,20.2853,3.40698,0,0,0,0,0,0,0,-1,1784,1408,20.2853,-3.40699
567,-384,15.0455,3.12732,0,0,0,0,0,0,0,-1,1791,1408,15.0456,-3.12727
574,-384,14.9525,3.45105,0,0,0,0,0,0,0,-1,1798,1408,14.9526,-3.45109
581,-384,15.0204,3.39185,0,0,0,0,0,0,0,-1,1805,1408,15.0204,-3.39188
588,-384,12.5197,2.71411,0,0,0,0,0,0,0,-1,1812,1408,12.5196,-2.71405
595,-384,17.2017,4.63574,0,0,0,0,0,0,0,-1,1819,1408,17.2016,-4.63576
602,-384,12.4843,3.79248,0,0,0,0,0,0,0,-1,1826,1408,12.4843,-3.79252
609,-384,13.9731,5.79688,0,0,0,0,0,0,0,-1,1833,1408,13.9732,-5.79683
616,-384,13.238,6.2439,-0.00929612,-0.00131091,0.0155117,0.0107137,-0.0213208,0.911361,0.01883,0.0481555,1840,1408,13.238,-6.24387
623,-384,12.4814,6.55762,-0.0052807,-0.00244466,0.0125148,0.00873219,-0.0164575,0.841811,0.0147695,0.0442036,1847,1408,12.4815,-6.55766
630,-384,12.3929,6.44067,-0.00391325,-0.00504431,0.0104161,0.00595262,-0.0149102,0.758278,0.0124097,0.0200966,1854,1408,12.3929,-6.44073
637,-384,12.36,6.31128,-0.00260049,-0.00551813,0.00775989,0.00383651,-0.0119551,0.692485,0.00951046,0.0151419,1861,1408,12.36,-6.31131
644,-384,12.3582,6.12927,-0.00238854,-0.004102,0.00567611,0.00249513,-0.00898568,0.710496,0.0069726,0.0154331,1868,1408,12.3581,-6.12929
651,-384,12.3683,5.91113,-0.00182552,-0.00273745,0.00380422,0.00154996,-0.00611293,0.725754,0.00467832,0.0155254,1875,1408,12.3682,-5.91109
658,-384,12.3845,5.71448,-0.00164147,-0.00209678,0.00244414,0.000585591,-0.00432384,0.738961,0.00309627,0.0154984,1882,1408,12.3845,-5.71442
665,-384,12.4088,5.54504,-0.00115235,-0.00106856,0.00104858,-6.10393e-05,-0.00215987,0.805365,0.00142,0.0158199,1889,1408,12.4088,-5.54501
672,-384,12.427,5.36499,-0.000578989,-0.000325931,-9.86905e-05,-0.000291994,-0.000612926,-1.23959,0.000354004,0.0141148,1896,1408,12.427,-5.365
679,-384,12.397,5.15698,0.000257122,-2.63861e-05,-0.00115861,0.00128262,-0.00105188,-0.724527,0.00135002,0.01436,1903,1408,12.3969,-5.15703
686,-384,12.3781,4.94006,0.00122291,3.49206e-05,-0.00252981,0.00322753,-0.00196969,-0.670087,0.00302977,0.012023,1910,1408,12.3781,-4.94006
693,-384,12.4105,4.75745,0.00151548,0.00134822,-0.00304404,0.00447704,-0.00161334,-0.771665,0.00364355,0.0163363,1917,1408,12.4105,-4.75746
700,-384,12.3124,4.77734,0.0013301,0.00495139,-0.00164156,0.00558474,0.000696745,-1.20257,0.00351401,0.0383019,1924,1408,12.3124,-4.77731
707,-384,12.6017,4.41833,0,0,0,0,0,0,0,-1,1931,1408,12.6017,-4.4183
714,-384,13.3859,3.3999,0,0,0,0,0,0,0,-1,1938,1408,13.3859,-3.39985
721,-384,13.8843,2.8717,0,0,0,0,0,0,0,-1,1945,1408,13.8843,-2.87171
728,-384,15.4409,6.25745,0,0,0,0,0,0,0,-1,1952,1408,15.4409,-6.2574
735,-384,16.7598,6.71289,0,0,0,0,0,0,0,-1,1959,1408,16.7598,-6.71287
742,-384,0,0,0,0,0,0,0,0,0,-1,1966,1408,0,0
749,-384,0,0,0,0,0,0,0,0,0,-1,1973,1408,0,0
756,-384,0,0,0,0,0,0,0,0,0,-1,1980,1408,0,0
763,-384,0,0,0,0,0,0,0,0,0,-1,1987,1408,0,0
770,-384,0,0,0,0,0,0,0,0,0,-1,1994,1408,0,0
777,-384,0,0,0,0,0,0,0,0,0,-1,2001,1408,0,0
784,-384,0,0,0,0,0,0,0,0,0,-1,2008,1408,0,0
791,-384,0,0,0,0,0,0,0,0,0,-1,2015,1408,0,0
798,-384,0,0,0,0,0,0,0,0,0,-1,2022,1408,0,0
805,-384,0,0,0,0,0,0,0,0,0,-1,2029,1408,0,0
812,-384,0,0,0,0,0,0,0,0,0,-1,2036,1408,0,0
-700,-391,0,0,0,0,0,0,0,0,0,-1,524,1415,0,0
-693,-391,0,0,0,0,0,0,0,0,0,-1,531,1415,0,0
-686,-391,0,0,0,0,0,0,0,0,0,-1,538,1415,0,0
-679,-391,0,0,0,0,0,0,0,0,0,-1,545,1415,0,0
-672,-391,0,0,0,0,0,0,0,0,0,-1,552,1415,0,0
-665,-391,0,0,0,0,0,0,0,0,0,-1,559,1415,0,0
-658,-391,0,0,0,0,0,0,0,0,0,-1,566,1415,0,0
-651,-391,0,0,0,0,0,0,0,0,0,-1,573,1415,0,0
-644,-391,0,0,0,0,0,0,0,0,0,-1,580,1415,0,0
-637,-391,0,0,0,0,0,0,0,0,0,-1,587,1415,0,0
-630,-391,0,0,0,0,0,0,0,0,0,-1,594,1415,0,0
-623,-391,0,0,0,0,0,0,0,0,0,-1,601,1415,0,0
-616,-391,0,0,0,0,0,0,0,0,0,-1,608,1415,0,0
-609,-391,-2.54889,-4.23608,0,0,0,0,0,0,0,-1,615,1415,-2.54889,4.23613
-602,-391,-2.4101,-2.68188,0,0,0,0,0,0,0,-1,622,1415,-2.4101,2.68187
-595,-391,-2.46948,-1.33557,0,0,0,0,0,0,0,-1,629,1415,-2.4695,1.33561
-588,-391,-2.60364,-0.255493,0,0,0,0,0,0,0,-1,636,1415,-2.60365,0.255499
-581,-391,-2.53778,0.767944,0,0,0,0,0,0,0,-1,643,1415,-2.53779,-0.767993
-574,-391,-4.505,2.60608,0,0,0,0,0,0,0,-1,650,1415,-4.50499,-2.60609
-567,-391,-4.3125,2.53748,0,0,0,0,0,0,0,-1,657,1415,-4.31249,-2.53746
-560,-391,-4.31445,3.06152,-0.00807044,0.0107396,0.00396452,0.0115411,-0.00887188,1.37133,0.011819,0.0352158,664,1415,-4.31447,-3.06157
-553,-391,-4.36334,2.95813,-0.00614565,0.00830631,0.00293642,0.00888016,-0.0067195,1.3778,0.00903522,0.0221213,671,1415,-4.36334,-2.95815
-546,-391,-4.37939,3.18909,-0.00442589,0.00623996,0.00214372,0.0066547,-0.00484062,1.37969,0.00666432,0.0113354,678,1415,-4.37937,-3.18906
-539,-391,-4.36462,3.41699,-0.00300305,0.00435621,0.00138137,0.00460696,-0.00325379,1.39123,0.00456076,0.014054,685,1415,-4.3646,-3.41694
-532,-391,-4.32806,3.65063,-0.00178143,0.0024008,0.000229897,0.0024134,-0.00179403,1.51605,0.00243792,0.0254519,692,1415,-4.32808,-3.65061
-525,-391,-4.31635,3.87891,-0.000446323,0.000143123,-0.00152989,0.00140642,-0.00170962,-0.880554,0.00180188,0.0232636,699,1415,-4.31634,-3.87888
-518,-391,-4.39679,4.06189,0.00075485,-0.00229348,-0.00337476,0.00293367,-0.0044723,-0.573291,0.00430648,0.0139349,706,1415,-4.39678,-4.06186
-511,-391,-4.38171,4.28186,0.00100339,-0.00505045,-0.00582841,0.00454401,-0.00859107,-0.545899,0.0077026,0.0127049,713,1415,-4.38168,-4.2819
-504,-391,-4.37738,4.51514,0.000723282,-0.00811809,-0.00894588,0.00628113,-0.0136759,-0.555916,0.0117829,0.0112415,720,1415,-4.37736,-4.51514
-497,-391,-4.37543,4.72681,-0.00159101,-0.0096721,-0.0125734,0.00757517,-0.0188383,-0.629932,0.0157052,0.00892012,727,1415,-4.37545,-4.72675
-490,-391,-4.3288,4.9447,-0.00571081,-0.010843,-0.016115,0.00804112,-0.0245949,-0.706443,0.0196338,0.0147701,734,1415,-4.32878,-4.94474
-483,-391,-4.26385,4.95642,-0.0108212,-0.0091951,-0.0191226,0.00913174,-0.0291481,-0.806645,0.023086,0.0372205,741,1415,-4.26384,-4.95636
-476,-391,-4.16956,4.57898,-0.0169361,-0.00725202,-0.0210143,0.00947084,-0.033659,-0.89863,0.0261738,0.0471246,748,1415,-4.16956,-4.57898
-469,-391,-3.7804,4.69849,0,0,0,0,0,0,0,-1,755,1415,-3.78039,-4.69853
-462,-391,-8.84216,4.21619,0,0,0,0,0,0,0,-1,762,1415,-8.84218,-4.2162
-455,-391,-4.95203,5.32104,0,0,0,0,0,0,0,-1,769,1415,-4.95203,-5.32103
-448,-391,-4.15601,2.72815,0,0,0,0,0,0,0,-1,776,1415,-4.156,-2.72814
-441,-391,-2.80511,1.66772,0,0,0,0,0,0,0,-1,783,1415,-2.80509,-1.66773
-434,-391,-9.9859,0.309448,0,0,0,0,0,0,0,-1,790,1415,-9.98591,-0.309397
-427,-391,-10.5988,1.08679,-0.0682812,0.0288967,-0.00700001,0.0293983,-0.0687829,-1.49926,0.0581853,0.0477469,797,1415,-10.5988,-1.08679
-420,-391,-11.131,1.33203,-0.0591319,0.0232165,-0.00249612,0.0232921,-0.0592075,-1.54052,0.0491126,0.0464484,804,1415,-11.1311,-1.33206
-413,-391,0,0,0,0,0,0,0,0,0,-1,811,1415,0,0
-406,-391,0,0,0,0,0,0,0,0,0,-1,818,1415,0,0
-399,-391,0,0,0,0,0,0,0,0,0,-1,825,1415,0,0
-392,-391,0,0,0,0,0,0,0,0,0,-1,832,1415,0,0
-385,-391,0,0,0,0,0,0,0,0,0,-1,839,1415,0,0
-378,-391,0,0,0,0,0,0,0,0,0,-1,846,1415,0,0
-371,-391,0,0,0,0,0,0,0,0,0,-1,853,1415,0,0
-364,-391,0,0,0,0,0,0,0,0,0,-1,860,1415,0,0
-357,-391,0,0,0,0,0,0,0,0,0,-1,867,1415,0,0
-350,-391,0,0,0,0,0,0,0,0,0,-1,874,1415,0,0
-343,-391,0,0,0,0,0,0,0,0,0,-1,881,1415,0,0
-336,-391,0,0,0,0,0,0,0,0,0,-1,888,1415,0,0
-329,-391,0,0,0,0,0,0,0,0,0,-1,895,1415,0,0
-322,-391,0,0,0,0,0,0,0,0,0,-1,902,1415,0,0
-315,-391,0,0,0,0,0,0,0,0,0,-1,909,1415,0,0
-308,-391,0,0,0,0,0,0,0,0,0,-1,916,1415,0,0
-301,-391,0,0,0,0,0,0,0,0,0,-1,923,1415,0,0
-294,-391,0,0,0,0,0,0,0,0,0,-1,930,1415,0,0
-287,-391,0,0,0,0,0,0,0,0,0,-1,937,1415,0,0
-280,-391,0,0,0,0,0,0,0,0,0,-1,944,1415,0,0
-273,-391,0,0,0,0,0,0,0,0,0,-1,951,1415,0,0
-266,-391,0,0,0,0,0,0,0,0,0,-1,958,1415,0,0
-259,-391,0,0,0,0,0,0,0,0,0,-1,965,1415,0,0
-252,-391,0,0,0,0,0,0,0,0,0,-1,972,1415,0,0
-245,-391,0,0,0,0,0,0,0,0,0,-1,979,1415,0,0
-238,-391,0,0,0,0,0,0,0,0,0,-1,986,1415,0,0
-231,-391,0,0,0,0,0,0,0,0,0,-1,993,1415,0,0
-224,-391,0,0,0,0,0,0,0,0,0,-1,1000,1415,0,0
-217,-391,0,0,0,0,0,0,0,0,0,-1,1007,1415,0,0
-210,-391,0,0,0,0,0,0,0,0,0,-1,1014,1415,0,0
-203,-391,0,0,0,0,0,0,0,0,0,-1,1021,1415,0,0
-196,-391,0,0,0,0,0,0,0,0,0,-1,1028,1415,0,0
-189,-391,0,0,0,0,0,0,0,0,0,-1,1035,1415,0,0
-182,-391,0,0,0,0,0,0,0,0,0,-1,1042,1415,0,0
-175,-391,0,0,0,0,0,0,0,0,0,-1,1049,1415,0,0
-168,-391,0,0,0,0,0,0,0,0,0,-1,1056,1415,0,0
-161,-391,0,0,0,0,0,0,0,0,0,-1,1063,1415,0,0
-154,-391,0,0,0,0,0,0,0,0,0,-1,1070,1415,0,0
-147,-391,0,0,0,0,0,0,0,0,0,-1,1077,1415,0,0
-140,-391,0,0,0,0,0,0,0,0,0,-1,1084,1415,0,0
-133,-391,0,0,0,0,0,0,0,0,0,-1,1091,1415,0,0
-126,-391,0,0,0,0,0,0,0,0,0,-1,1098,1415,0,0
-119,-391,0,0,0,0,0,0,0,0,0,-1,1105,1415,0,0
-112,-391,0,0,0,0,0,0,0,0,0,-1,1112,1415,0,0
-105,-391,0,0,0,0,0,0,0,0,0,-1,1119,1415,0,0
-98,-391,0,0,0,0,0,0,0,0,0,-1,1126,1415,0,0
-91,-391,0,0,0,0,0,0,0,0,0,-1,1133,1415,0,0
-84,-391,0,0,0,0,0,0,0,0,0,-1,1140,1415,0,0
-77,-391,0,0,0,0,0,0,0,0,0,-1,1147,1415,0,0
-70,-391,0,0,0,0,0,0,0,0,0,-1,1154,1415,0,0
-63,-391,0,0,0,0,0,0,0,0,0,-1,1161,1415,0,0
-56,-391,0,0,0,0,0,0,0,0,0,-1,1168,1415,0,0
-49,-391,0,0,0,0,0,0,0,0,0,-1,1175,1415,0,0
-42,-391,0,0,0,0,0,0,0,0,0,-1,1182,1415,0,0
-35,-391,0,0,0,0,0,0,0,0,0,-1,1189,1415,0,0
-28,-391,0,0,0,0,0,0,0,0,0,-1,1196,1415,0,0
-21,-391,0,0,0,0,0,0,0,0,0,-1,1203,1415,0,0
-14,-391,0,0,0,0,0,0,0,0,0,-1,1210,1415,0,0
-7,-391,0,0,0,0,0,0,0,0,0,-1,1217,1415,0,0
0,-391,0,0,0,0,0,0,0,0,0,-1,1224,1415,0,0
7,-391,0,0,0,0,0,0,0,0,0,-1,1231,1415,0,0
14,-391,0,0,0,0,0,0,0,0,0,-1,1238,1415,0,0
21,-391,0,0,0,0,0,0,0,0,0,-1,1245,1415,0,0
28,-391,0,0,0,0,0,0,0,0,0,-1,1252,1415,0,0
35,-391,0,0,0,0,0,0,0,0,0,-1,1259,1415,0,0
42,-391,0,0,0,0,0,0,0,0,0,-1,1266,1415,0,0
49,-391,0,0,0,0,0,0,0,0,0,-1,1273,1415,0,0
56,-391,0,0,0,0,0,0,0,0,0,-1,1280,1415,0,0
63,-391,0,0,0,0,0,0,0,0,0,-1,1287,1415,0,0
70,-391,0,0,0,0,0,0,0,0,0,-1,1294,1415,0,0
77,-391,0,0,0,0,0,0,0,0,0,-1,1301,1415,0,0
84,-391,0,0,0,0,0,0,0,0,0,-1,1308,1415,0,0
91,-391,0,0,0,0,0,0,0,0,0,-1,1315,1415,0,0
98,-391,0,0,0,0,0,0,0,0,0,-1,1322,1415,0,0
105,-391,0,0,0,0,0,0,0,0,0,-1,1329,1415,0,0
112,-391,0,0,0,0,0,0,0,0,0,-1,1336,1415,0,0
119,-391,0,0,0,0,0,0,0,0,0,-1,1343,1415,0,0
126,-391,0,0,0,0,0,0,0,0,0,-1,1350,1415,0,0
133,-391,0,0,0,0,0,0,0,0,0,-1,1357,1415,0,0
140,-391,0,0,0,0,0,0,0,0,0,-1,1364,1415,0,0
147,-391,0,0,0,0,0,0,0,0,0,-1,1371,1415,0,0
154,-391,0,0,0,0,0,0,0,0,0,-1,1378,1415,0,0
161,-391,0,0,0,0,0,0,0,0,0,-1,1385,1415,0,0
168,-391,0,0,0,0,0,0,0,0,0,-1,1392,1415,0,0
175,-391,0,0,0,0,0,0,0,0,0,-1,1399,1415,0,0
182,-391,0,0,0,0,0,0,0,0,0,-1,1406,1415,0,0
189,-391,0,0,0,0,0,0,0,0,0,-1,1413,1415,0,0
196,-391,0,0,0,0,0,0,0,0,0,-1,1420,1415,0,0
203,-391,0,0,0,0,0,0,0,0,0,-1,1427,1415,0,0
210,-391,0,0,0,0,0,0,0,0,0,-1,1434,1415,0,0
217,-391,0,0,0,0,0,0,0,0,0,-1,1441,1415,0,0
224,-391,0,0,0,0,0,0,0,0,0,-1,1448,1415,0,0
231,-391,0,0,0,0,0,0,0,0,0,-1,1455,1415,0,0
238,-391,0,0,0,0,0,0,0,0,0,-1,1462,1415,0,0
245,-391,0,0,0,0,0,0,0,0,0,-1,1469,1415,0,0
252,-391,0,0,0,0,0,0,0,0,0,-1,1476,1415,0,0
259,-391,0,0,0,0,0,0,0,0,0,-1,1483,1415,0,0
266,-391,0,0,0,0,0,0,0,0,0,-1,1490,1415,0,0
273,-391,0,0,0,0,0,0,0,0,0,-1,1497,1415,0,0
280,-391,0,0,0,0,0,0,0,0,0,-1,1504,1415,0,0
287,-391,0,0,0,0,0,0,0,0,0,-1,1511,1415,0,0
294,-391,0,0,0,0,0,0,0,0,0,-1,1518,1415,0,0
301,-391,0,0,0,0,0,0,0,0,0,-1,1525,1415,0,0
308,-391,0,0,0,0,0,0,0,0,0,-1,1532,1415,0,0
315,-391,0,0,0,0,0,0,0,0,0,-1,1539,1415,0,0
322,-391,0,0,0,0,0,0,0,0,0,-1,1546,1415,0,0
329,-391,0,0,0,0,0,0,0,0,0,-1,1553,1415,0,0
336,-391,0,0,0,0,0,0,0,0,0,-1,1560,1415,0,0
343,-391,0,0,0,0,0,0,0,0,0,-1,1567,1415,0,0
350,-391,0,0,0,0,0,0,0,0,0,-1,1574,1415,0,0
357,-391,0,0,0,0,0,0,0,0,0,-1,1581,1415,0,0
364,-391,0,0,0,0,0,0,0,0,0,-1,1588,1415,0,0
371,-391,0,0,0,0,0,0,0,0,0,-1,1595,1415,0,0
378,-391,0,0,0,0,0,0,0,0,0,-1,1602,1415,0,0
385,-391,0,0,0,0,0,0,0,0,0,-1,1609,1415,0,0
392,-391,0,0,0,0,0,0,0,0,0,-1,1616,1415,0,0
399,-391,0,0,0,0,0,0,0,0,0,-1,1623,1415,0,0
406,-391,0,0,0,0,0,0,0,0,0,-1,1630,1415,0,0
413,-391,0,0,0,0,0,0,0,0,0,-1,1637,1415,0,0
420,-391,0,0,0,0,0,0,0,0,0,-1,1644,1415,0,0
427,-391,0,0,0,0,0,0,0,0,0,-1,1651,1415,0,0
434,-391,0,0,0,0,0,0,0,0,0,-1,1658,1415,0,0
441,-391,0,0,0,0,0,0,0,0,0,-1,1665,1415,0,0
448,-391,0,0,0,0,0,0,0,0,0,-1,1672,1415,0,0
455,-391,0,0,0,0,0,0,0,0,0,-1,1679,1415,0,0
462,-391,0,0,0,0,0,0,0,0,0,-1,1686,1415,0,0
469,-391,0,0,0,0,0,0,0,0,0,-1,1693,1415,0,0
476,-391,0,0,0,0,0,0,0,0,0,-1,1700,1415,0,0
483,-391,0,0,0,0,0,0,0,0,0,-1,1707,1415,0,0
490,-391,0,0,0,0,0,0,0,0,0,-1,1714,1415,0,0
497,-391,0,0,0,0,0,0,0,0,0,-1,1721,1415,0,0
504,-391,0,0,0,0,0,0,0,0,0,-1,1728,1415,0,0
511,-391,0,0,0,0,0,0,0,0,0,-1,1735,1415,0,0
518,-391,0,0,0,0,0,0,0,0,0,-1,1742,1415,0,0
525,-391,0,0,0,0,0,0,0,0,0,-1,1749,1415,0,0
532,-391,23.5477,-0.824097,0,0,0,0,0,0,0,-1,1756,1415,23.5478,0.82411
539,-391,22.5436,-0.129028,0,0,0,0,0,0,0,-1,1763,1415,22.5436,0.129015
546,-391,21.926,0.787964,0,0,0,0,0,0,0,-1,1770,1415,21.926,-0.787995
553,-391,20.658,1.82947,0,0,0,0,0,0,0,-1,1777,1415,20.658,-1.82943
560,-391,19.9749,2.2887,0,0,0,0,0,0,0,-1,1784,1415,19.9748,-2.28875
567,-391,18.4052,2.68176,0,0,0,0,0,0,0,-1,1791,1415,18.4051,-2.68182
574,-391,14.7999,3.80591,0,0,0,0,0,0,0,-1,1798,1415,14.7999,-3.80592
581,-391,17.4784,4.04468,0,0,0,0,0,0,0,-1,1805,1415,17.4783,-4.04469
588,-391,16.6328,4.5874,0,0,0,0,0,0,0,-1,1812,1415,16.6328,-4.5874
595,-391,15.9152,5.18213,0,0,0,0,0,0,0,-1,1819,1415,15.9151,-5.18209
602,-391,15.1635,5.69849,0,0,0,0,0,0,0,-1,1826,1415,15.1635,-5.69847
609,-391,12.7303,6.59216,0,0,0,0,0,0,0,-1,1833,1415,12.7303,-6.59215
616,-391,12.4299,6.57593,-0.0122951,-0.00528162,0.0159264,0.00751959,-0.0250963,0.89376,0.0197212,0.0380337,1840,1415,12.4299,-6.5759
623,-391,12.2445,6.60828,-0.00757794,-0.00451361,0.0121939,0.00624402,-0.0183356,0.847896,0.0147523,0.0201073,1847,1415,12.2445,-6.6083
630,-391,12.2258,6.42932,-0.0055523,-0.00557642,0.00966928,0.00410493,-0.0152336,0.784775,0.0117652,0.0163215,1854,1415,12.2258,-6.42934
637,-391,12.2054,6.2832,-0.00366084,-0.0050942,0.00692531,0.00258477,-0.0113398,0.733838,0.00855266,0.0152441,1861,1415,12.2054,-6.28317
644,-391,12.1838,6.11279,-0.00288542,-0.00360863,0.00497053,0.00173664,-0.00823069,0.749087,0.00614831,0.0151777,1868,1415,12.1838,-6.11276
651,-391,12.1969,5.92725,-0.00198627,-0.00224291,0.00324314,0.00113108,-0.00536026,0.765625,0.00400415,0.0153646,1875,1415,12.1969,-5.92725
658,-391,12.2184,5.73462,-0.0015786,-0.00155712,0.00206652,0.000498691,-0.00363441,0.787996,0.00260513,0.0148627,1882,1415,12.2184,-5.73466
665,-391,12.222,5.56299,-0.00102198,-0.000678174,0.000906657,7.27323e-05,-0.00177289,0.879086,0.0012069,0.0126968,1889,1415,12.2221,-5.56299
672,-391,12.2218,5.36682,-0.000532953,-0.000200282,6.27363e-05,-0.000188844,-0.00054439,1.39046,0.000319178,0.0118455,1896,1415,12.2218,-5.36685
679,-391,12.199,5.16907,1.69738e-05,-0.000120212,-0.000688867,0.000640655,-0.000743893,-0.735775,0.000800109,0.0111029,1903,1415,12.199,-5.16905
686,-391,12.2006,4.95374,0.00074304,-0.000363844,-0.00164903,0.00192903,-0.00154983,-0.623497,0.00201249,0.0127602,1910,1415,12.2005,-4.95374
693,-391,12.1719,4.81396,0.000911335,0.000375939,-0.00177281,0.00243654,-0.00114927,-0.710463,0.00211427,0.0264931,1917,1415,12.1719,-4.81399
700,-391,12.1798,4.68298,0,0,0,0,0,0,0,-1,1924,1415,12.1799,-4.68304
707,-391,11.5243,5.89844,0,0,0,0,0,0,0,-1,1931,1415,11.5243,-5.89848
714,-391,12.5084,7.60242,0,0,0,0,0,0,0,-1,1938,1415,12.5084,-7.60241
721,-391,14.1808,8.08435,0,0,0,0,0,0,0,-1,1945,1415,14.1808,-8.08439
728,-391,13.8102,7.28174,0,0,0,0,0,0,0,-1,1952,1415,13.8102,-7.28174
735,-391,0,0,0,0,0,0,0,0,0,-1,1959,1415,0,0
742,-391,0,0,0,0,0,0,0,0,0,-1,1966,1415,0,0
749,-391,0,0,0,0,0,0,0,0,0,-1,1973,1415,0,0
756,-391,0,0,0,0,0,0,0,0,0,-1,1980,1415,0,0
763,-391,0,0,0,0,0,0,0,0,0,-1,1987,1415,0,0
770,-391,0,0,0,0,0,0,0,0,0,-1,1994,1415,0,0
777,-391,0,0,0,0,0,0,0,0,0,-1,2001,1415,0,0
784,-391,0,0,0,0,0,0,0,0,0,-1,2008,1415,0,0
791,-391,0,0,0,0,0,0,0,0,0,-1,2015,1415,0,0
798,-391,0,0,0,0,0,0,0,0,0,-1,2022,1415,0,0
805,-391,0,0,0,0,0,0,0,0,0,-1,2029,1415,0,0
812,-391,0,0,0,0,0,0,0,0,0,-1,2036,1415,0,0
-700,-398,0,0,0,0,0,0,0,0,0,-1,524,1422,0,0
-693,-398,0,0,0,0,0,0,0,0,0,-1,531,1422,0,0
-686,-398,0,0,0,0,0,0,0,0,0,-1,538,1422,0,0
-679,-398,0,0,0,0,0,0,0,0,0,-1,545,1422,0,0
-672,-398,0,0,0,0,0,0,0,0,0,-1,552,1422,0,0
-665,-398,0,0,0,0,0,0,0,0,0,-1,559,1422,0,0
-658,-398,0,0,0,0,0,0,0,0,0,-1,566,1422,0,0
-651,-398,0,0,0,0,0,0,0,0,0,-1,573,1422,0,0
-644,-398,0,0,0,0,0,0,0,0,0,-1,580,1422,0,0
-637,-398,0,0,0,0,0,0,0,0,0,-1,587,1422,0,0
-630,-398,0,0,0,0,0,0,0,0,0,-1,594,1422,0,0
-623,-398,0,0,0,0,0,0,0,0,0,-1,601,1422,0,0
-616,-398,0,0,0,0,0,0,0,0,0,-1,608,1422,0,0
-609,-398,-1.89392,-4.03625,0,0,0,0,0,0,0,-1,615,1422,-1.89394,4.03628
-602,-398,-1.96344,-2.73303,0,0,0,0,0,0,0,-1,622,1422,-1.96341,2.73297
-595,-398,-2.55194,-1.69983,0,0,0,0,0,0,0,-1,629,1422,-2.55192,1.69985
-588,-398,-2.24683,-0.434692,0,0,0,0,0,0,0,-1,636,1422,-2.24684,0.434686
-581,-398,-1.83307,0.725586,0,0,0,0,0,0,0,-1,643,1422,-1.83307,-0.725603
-574,-398,-4.98346,2.1062,0,0,0,0,0,0,0,-1,650,1422,-4.98349,-2.1062
-567,-398,-3.94055,1.86255,0,0,0,0,0,0,0,-1,657,1422,-3.94055,-1.86257
-560,-398,-3.95978,2.36316,-0.00894059,0.0137566,0.00564789,0.0150843,-0.0102683,1.3399,0.0147251,0.0400612,664,1422,-3.95975,-2.3632
-553,-398,-4.04297,2.91858,-0.00695403,0.0105149,0.00417464,0.0114613,-0.00790039,1.34787,0.0112413,0.0288462,671,1422,-4.04298,-2.91852
-546,-398,-4.16449,3.18835,-0.00516316,0.00791247,0.00310205,0.00861107,-0.00586176,1.34929,0.008406,0.013694,678,1422,-4.16448,-3.18831
-539,-398,-4.13654,3.44189,-0.00360448,0.00569959,0.00220616,0.00619621,-0.00410109,1.34938,0.00598603,0.0115085,685,1422,-4.13653,-3.44194
-532,-398,-4.1275,3.66846,-0.0023522,0.00360314,0.0011418,0.00381454,-0.0025636,1.38772,0.00370596,0.0188418,692,1422,-4.12749,-3.66851
-525,-398,-4.12964,3.87659,-0.00108024,0.0014419,-0.000359773,0.00149221,-0.00113056,-1.43184,0.00151905,0.0185371,699,1422,-4.12963,-3.87656
-518,-398,-4.15936,4.07483,0.000196761,-0.000831048,-0.00190033,0.00165145,-0.00228574,-0.653342,0.00228295,0.0169193,706,1422,-4.15938,-4.07488
-511,-398,-4.17456,4.26697,0.000834756,-0.00332926,-0.00381206,0.00309632,-0.00559082,-0.535452,0.00508398,0.0131123,713,1422,-4.17456,-4.26694
-504,-398,-4.17621,4.51025,0.000986726,-0.00624781,-0.00629039,0.00462574,-0.00988682,-0.524463,0.00856039,0.0125105,720,1422,-4.17624,-4.5102
-497,-398,-4.15955,4.71753,-0.000421357,-0.00800791,-0.00918151,0.0057196,-0.0141489,-0.589506,0.0118102,0.00925011,727,1422,-4.15955,-4.71751
-490,-398,-4.14307,4.9375,-0.00348502,-0.00966742,-0.0120393,0.00585358,-0.019006,-0.659733,0.0150073,0.0105115,734,1422,-4.14308,-4.93746
-483,-398,-4.04651,5.1825,-0.00754448,-0.00906178,-0.0146617,0.00637816,-0.0229844,-0.759549,0.0178333,0.0210912,741,1422,-4.04652,-5.18244
-476,-398,-4.0022,5.05286,-0.0128412,-0.00806577,-0.0164439,0.00616289,-0.0270699,-0.857496,0.0204134,0.0427682,748,1422,-4.00218,-5.0529
-469,-398,-3.83508,5.21326,-0.0195323,-0.00626224,-0.0180319,0.00631659,-0.0321111,-0.96169,0.0237941,0.0494085,755,1422,-3.83509,-5.21322
-462,-398,-3.71863,5.66833,0,0,0,0,0,0,0,-1,762,1422,-3.71865,-5.66837
-455,-398,-3.50073,4.11084,0,0,0,0,0,0,0,-1,769,1422,-3.50073,-4.11081
-448,-398,-3.96271,3.68347,0,0,0,0,0,0,0,-1,776,1422,-3.96271,-3.68351
-441,-398,-2.95306,2.51233,0,0,0,0,0,0,0,-1,783,1422,-2.95305,-2.51227
-434,-398,-3.71259,0.368286,0,0,0,0,0,0,0,-1,790,1422,-3.7126,-0.368295
-427,-398,-10.1968,0.991211,0,0,0,0,0,0,0,-1,797,1422,-10.1968,-0.991221
-420,-398,-10.7851,1.41687,0,0,0,0,0,0,0,-1,804,1422,-10.7851,-1.41691
-413,-398,-11.0192,1.49609,0,0,0,0,0,0,0,-1,811,1422,-11.0191,-1.49611
-406,-398,0,0,0,0,0,0,0,0,0,-1,818,1422,0,0
-399,-398,0,0,0,0,0,0,0,0,0,-1,825,1422,0,0
-392,-398,0,0,0,0,0,0,0,0,0,-1,832,1422,0,0
-385,-398,0,0,0,0,0,0,0,0,0,-1,839,1422,0,0
-378,-398,0,0,0,0,0,0,0,0,0,-1,846,1422,0,0
-371,-398,0,0,0,0,0,0,0,0,0,-1,853,1422,0,0
-364,-398,0,0,0,0,0,0,0,0,0,-1,860,1422,0,0
-357,-398,0,0,0,0,0,0,0,0,0,-1,867,1422,0,0
-350,-398,0,0,0,0,0,0,0,0,0,-1,874,1422,0,0
-343,-398,0,0,0,0,0,0,0,0,0,-1,881,1422,0,0
-336,-398,0,0,0,0,0,0,0,0,0,-1,888,1422,0,0
-329,-398,0,0,0,0,0,0,0,0,0,-1,895,1422,0,0
-322,-398,0,0,0,0,0,0,0,0,0,-1,902,1422,0,0
-315,-398,0,0,0,0,0,0,0,0,0,-1,909,1422,0,0
-308,-398,0,0,0,0,0,0,0,0,0,-1,916,1422,0,0
-301,-398,0,0,0,0,0,0,0,0,0,-1,923,1422,0,0
-294,-398,0,0,0,0,0,0,0,0,0,-1,930,1422,0,0
-287,-398,0,0,0,0,0,0,0,0,0,-1,937,1422,0,0
-280,-398,0,0,0,0,0,0,0,0,0,-1,944,1422,0,0
-273,-398,0,0,0,0,0,0,0,0,0,-1,951,1422,0,0
-266,-398,0,0,0,0,0,0,0,0,0,-1,958,1422,0,0
-259,-398,0,0,0,0,0,0,0,0,0,-1,965,1422,0,0
-252,-398,0,0,0,0,0,0,0,0,0,-1,972,1422,0,0
-245,-398,0,0,0,0,0,0,0,0,0,-1,979,1422,0,0
-238,-398,0,0,0,0,0,0,0,0,0,-1,986,1422,0,0
-231,-398,0,0,0,0,0,0,0,0,0,-1,993,1422,0,0
-224,-398,0,0,0,0,0,0,0,0,0,-1,1000,1422,0,0
-217,-398,0,0,0,0,0,0,0,0,0,-1,1007,1422,0,0
-210,-398,0,0,0,0,0,0,0,0,0,-1,1014,1422,0,0
-203,-398,0,0,0,0,0,0,0,0,0,-1,1021,1422,0,0
-196,-398,0,0,0,0,0,0,0,0,0,-1,1028,1422,0,0
-189,-398,0,0,0,0,0,0,0,0,0,-1,1035,1422,0,0
-182,-398,0,0,0,0,0,0,0,0,0,-1,1042,1422,0,0
-175,-398,0,0,0,0,0,0,0,0,0,-1,1049,1422,0,0
-168,-398,0,0,0,0,0,0,0,0,0,-1,1056,1422,0,0
-161,-398,0,0,0,0,0,0,0,0,0,-1,1063,1422,0,0
-154,-398,0,0,0,0,0,0,0,0,0,-1,1070,1422,0,0
-147,-398,0,0,0,0,0,0,0,0,0,-1,1077,1422,0,0
-140,-398,0,0,0,0,0,0,0,0,0,-1,1084,1422,0,0
-133,-398,0,0,0,0,0,0,0,0,0,-1,1091,1422,0,0
-126,-398,0,0,0,0,0,0,0,0,0,-1,1098,1422,0,0
-119,-398,0,0,0,0,0,0,0,0,0,-1,1105,1422,0,0
-112,-398,0,0,0,0,0,0,0,0,0,-1,1112,1422,0,0
-105,-398,0,0,0,0,0,0,0,0,0,-1,1119,1422,0,0
-98,-398,0,0,0,0,0,0,0,0,0,-1,1126,1422,0,0
-91,-398,0,0,0,0,0,0,0,0,0,-1,1133,1422,0,0
-84,-398,0,0,0,0,0,0,0,0,0,-1,1140,1422,0,0
-77,-398,0,0,0,0,0,0,0,0,0,-1,1147,1422,0,0
-70,-398,0,0,0,0,0,0,0,0,0,-1,1154,1422,0,0
-63,-398,0,0,0,0,0,0,0,0,0,-1,1161,1422,0,0
-56,-398,0,0,0,0,0,0,0,0,0,-1,1168,1422,0,0
-49,-398,0,0,0,0,0,0,0,0,0,-1,1175,1422,0,0
-42,-398,0,0,0,0,0,0,0,0,0,-1,1182,1422,0,0
-35,-398,0,0,0,0,0,0,0,0,0,-1,1189,1422,0,0
-28,-398,0,0,0,0,0,0,0,0,0,-1,1196,1422,0,0
-21,-398,0,0,0,0,0,0,0,0,0,-1,1203,1422,0,0
-14,-398,0,0,0,0,0,0,0,0,0,-1,1210,1422,0,0
-7,-398,0,0,0,0,0,0,0,0,0,-1,1217,1422,0,0
0,-398,0,0,0,0,0,0,0,0,0,-1,1224,1422,0,0
7,-398,0,0,0,0,0,0,0,0,0,-1,1231,1422,0,0
14,-398,0,0,0,0,0,0,0,0,0,-1,1238,1422,0,0
21,-398,0,0,0,0,0,0,0,0,0,-1,1245,1422,0,0
28,-398,0,0,0,0,0,0,0,0,0,-1,1252,1422,0,0
35,-398,0,0,0,0,0,0,0,0,0,-1,1259,1422,0,0
42,-398,0,0,0,0,0,0,0,0,0,-1,1266,1422,0,0
49,-398,0,0,0,0,0,0,0,0,0,-1,1273,1422,0,0
56,-398,0,0,0,0,0,0,0,0,0,-1,1280,1422,0,0
63,-398,0,0,0,0,0,0,0,0,0,-1,1287,1422,0,0
70,-398,0,0,0,0,0,0,0,0,0,-1,1294,1422,0,0
77,-398,0,0,0,0,0,0,0,0,0,-1,1301,1422,0,0
84,-398,0,0,0,0,0,0,0,0,0,-1,1308,1422,0,0
91,-398,0,0,0,0,0,0,0,0,0,-1,1315,1422,0,0
98,-398,0,0,0,0,0,0,0,0,0,-1,1322,1422,0,0
105,-398,0,0,0,0,0,0,0,0,0,-1,1329,1422,0,0
112,-398,0,0,0,0,0,0,0,0,0,-1,1336,1422,0,0
119,-398,0,0,0,0,0,0,0,0,0,-1,1343,1422,0,0
126,-398,0,0,0,0,0,0,0,0,0,-1,1350,1422,0,0
133,-398,0,0,0,0,0,0,0,0,0,-1,1357,1422,0,0
140,-398,0,0,0,0,0,0,0,0,0,-1,1364,1422,0,0
147,-398,0,0,0,0,0,0,0,0,0,-1,1371,1422,0,0
154,-398,0,0,0,0,0,0,0,0,0,-1,1378,1422,0,0
161,-398,0,0,0,0,0,0,0,0,0,-1,1385,1422,0,0
168,-398,0,0,0,0,0,0,0,0,0,-1,1392,1422,0,0
175,-398,0,0,0,0,0,0,0,0,0,-1,1399,1422,0,0
182,-398,0,0,0,0,0,0,0,0,0,-1,1406,1422,0,0
189,-398,0,0,0,0,0,0,0,0,0,-1,1413,1422,0,0
196,-398,0,0,0,0,0,0,0,0,0,-1,1420,1422,0,0
203,-398,0,0,0,0,0,0,0,0,0,-1,1427,1422,0,0
210,-398,0,0,0,0,0,0,0,0,0,-1,1434,1422,0,0
217,-398,0,0,0,0,0,0,0,0,0,-1,1441,1422,0,0
224,-398,0,0,0,0,0,0,0,0,0,-1,1448,1422,0,0
231,-398,0,0,0,0,0,0,0,0,0,-1,1455,1422,0,0
238,-398,0,0,0,0,0,0,0,0,0,-1,1462,1422,0,0
245,-398,0,0,0,0,0,0,0,0,0,-1,1469,1422,0,0
252,-398,0,0,0,0,0,0,0,0,0,-1,1476,1422,0,0
259,-398,0,0,0,0,0,0,0,0,0,-1,1483,1422,0,0
266,-398,0,0,0,0,0,0,0,0,0,-1,1490,1422,0,0
273,-398,0,0,0,0,0,0,0,0,0,-1,1497,1422,0,0
280,-398,0,0,0,0,0,0,0,0,0,-1,1504,1422,0,0
287,-398,0,0,0,0,0,0,0,0,0,-1,1511,1422,0,0
294,-398,0,0,0,0,0,0,0,0,0,-1,1518,1422,0,0
301,-398,0,0,0,0,0,0,0,0,0,-1,1525,1422,0,0
308,-398,0,0,0,0,0,0,0,0,0,-1,1532,1422,0,0
315,-398,0,0,0,0,0,0,0,0,0,-1,1539,1422,0,0
322,-398,0,0,0,0,0,0,0,0,0,-1,1546,1422,0,0
329,-398,0,0,0,0,0,0,0,0,0,-1,1553,1422,0,0
336,-398,0,0,0,0,0,0,0,0,0,-1,1560,1422,0,0
343,-398,0,0,0,0,0,0,0,0,0,-1,1567,1422,0,0
350,-398,0,0,0,0,0,0,0,0,0,-1,1574,1422,0,0
357,-398,0,0,0,0,0,0,0,0,0,-1,1581,1422,0,0
364,-398,0,0,0,0,0,0,0,0,0,-1,1588,1422,0,0
371,-398,0,0,0,0,0,0,0,0,0,-1,1595,1422,0,0
378,-398,0,0,0,0,0,0,0,0,0,-1,1602,1422,0,0
385,-398,0,0,0,0,0,0,0,0,0,-1,1609,1422,0,0
392,-398,0,0,0,0,0,0,0,0,0,-1,1616,1422,0,0
399,-398,0,0,0,0,0,0,0,0,0,-1,1623,1422,0,0
406,-398,0,0,0,0,0,0,0,0,0,-1,1630,1422,0,0
413,-398,0,0,0,0,0,0,0,0,0,-1,1637,1422,0,0
420,-398,0,0,0,0,0,0,0,0,0,-1,1644,1422,0,0
427,-398,0,0,0,0,0,0,0,0,0,-1,1651,1422,0,0
434,-398,0,0,0,0,0,0,0,0,0,-1,1658,1422,0,0
441,-398,0,0,0,0,0,0,0,0,0,-1,1665,1422,0,0
448,-398,0,0,0,0,0,0,0,0,0,-1,1672,1422,0,0
455,-398,0,0,0,0,0,0,0,0,0,-1,1679,1422,0,0
462,-398,0,0,0,0,0,0,0,0,0,-1,1686,1422,0,0
469,-398,0,0,0,0,0,0,0,0,0,-1,1693,1422,0,0
476,-398,0,0,0,0,0,0,0,0,0,-1,1700,1422,0,0
483,-398,0,0,0,0,0,0,0,0,0,-1,1707,1422,0,0
490,-398,0,0,0,0,0,0,0,0,0,-1,1714,1422,0,0
497,-398,0,0,0,0,0,0,0,0,0,-1,1721,1422,0,0
504,-398,0,0,0,0,0,0,0,0,0,-1,1728,1422,0,0
511,-398,0,0,0,0,0,0,0,0,0,-1,1735,1422,0,0
518,-398,0,0,0,0,0,0,0,0,0,-1,1742,1422,0,0
525,-398,0,0,0,0,0,0,0,0,0,-1,1749,1422,0,0
532,-398,22.8054,-0.734619,0,0,0,0,0,0,0,-1,1756,1422,22.8054,0.734574
539,-398,21.8641,0.213013,0,0,0,0,0,0,0,-1,1763,1422,21.8642,-0.213027
546,-398,20.9138,1.11597,-0.0974462,-0.0164611,0.0975291,0.0486474,-0.162555,0.982162,0.127712,0.0463197,1770,1422,20.9138,-1.11593
553,-398,19.8773,2.00244,-0.0884279,-0.0222287,0.0917381,0.0421984,-0.152855,0.958532,0.118501,0.0426311,1777,1422,19.8773,-2.00245
560,-398,18.9794,2.80017,-0.0786922,-0.0240419,0.0834374,0.0364308,-0.139165,0.943641,0.107008,0.0451614,1784,1422,18.9794,-2.80018
567,-398,17.7501,3.16516,-0.0689716,-0.0257962,0.0753044,0.0309537,-0.125721,0.924991,0.0958136,0.04522,1791,1422,17.7501,-3.16513
574,-398,17.2627,3.99194,0,0,0,0,0,0,0,-1,1798,1422,17.2627,-3.99199
581,-398,16.3904,4.60718,-0.0519975,-0.0231483,0.0579623,0.0221574,-0.0973031,0.907352,0.0733782,0.0460785,1805,1422,16.3904,-4.60712
588,-398,15.4109,5.22192,0,0,0,0,0,0,0,-1,1812,1422,15.4109,-5.22192
595,-398,14.5299,5.75427,0,0,0,0,0,0,0,-1,1819,1422,14.5299,-5.75426
602,-398,12.4823,6.21643,0,0,0,0,0,0,0,-1,1826,1422,12.4823,-6.21644
609,-398,12.2185,6.53674,-0.0207432,-0.0126523,0.0224483,0.00611218,-0.0395077,0.874547,0.0285944,0.0415341,1833,1422,12.2185,-6.53673
616,-398,12.0852,6.80994,-0.0143788,-0.00888139,0.0160167,0.00462081,-0.027881,0.870377,0.0203036,0.0176595,1840,1422,12.0852,-6.80999
623,-398,12.0123,6.66016,-0.00907168,-0.00616266,0.0116309,0.0041043,-0.0193386,0.847603,0.0144561,0.0113632,1847,1422,12.0124,-6.66021
630,-398,12.0251,6.46875,-0.00655001,-0.00579567,0.00881351,0.00264874,-0.0149944,0.806782,0.0109862,0.0122834,1854,1422,12.0252,-6.46871
637,-398,12.0364,6.27954,-0.00434946,-0.00453107,0.00608304,0.00164346,-0.010524,0.777935,0.00762309,0.0130398,1861,1422,12.0364,-6.27957
644,-398,11.9834,6.11755,-0.00323915,-0.00300906,0.00424911,0.00112656,-0.00737477,0.798933,0.00533185,0.0182077,1868,1422,11.9834,-6.11757
651,-398,12.0533,5.92786,-0.00215764,-0.00162479,0.00262899,0.00075124,-0.00453367,0.835896,0.00330148,0.0250261,1875,1422,12.0533,-5.92788
658,-398,12.0487,5.75952,-0.00163865,-0.000849291,0.00157211,0.00037692,-0.00286486,0.908383,0.00204715,0.0187745,1882,1422,12.0487,-5.75948
665,-398,12.0172,5.54553,-0.00110025,-3.38565e-05,0.00057841,0.000219622,-0.00135372,1.15777,0.000983895,0.013748,1889,1422,12.0172,-5.54559
672,-398,12.0062,5.35547,-0.000749612,0.000313618,-2.30513e-05,0.000314117,-0.000750111,-1.54913,0.000631386,0.0129416,1896,1422,12.0062,-5.35543
679,-398,12.0029,5.17212,-0.000450257,0.000335495,-0.00055141,0.000619675,-0.000734437,-1.09493,0.000782732,0.0119751,1903,1422,12.003,-5.17209
686,-398,12.032,4.97571,6.47326e-05,-5.11677e-05,-0.00125622,0.00126434,-0.00125078,-0.762349,0.00145211,0.0189983,1910,1422,12.032,-4.97567
693,-398,11.9132,4.99792,0.000178353,0.000268849,-0.00157857,0.00180282,-0.00135561,-0.799726,0.0018296,0.0454362,1917,1422,11.9132,-4.99794
700,-398,11.8149,5.01648,0,0,0,0,0,0,0,-1,1924,1422,11.8149,-5.01643
707,-398,10.9731,5.479,0,0,0,0,0,0,0,-1,1931,1422,10.9732,-5.47896
714,-398,11.7313,6.17346,0,0,0,0,0,0,0,-1,1938,1422,11.7313,-6.17348
721,-398,13.9371,8.05103,0,0,0,0,0,0,0,-1,1945,1422,13.9372,-8.05102
728,-398,14.786,7.0282,0,0,0,0,0,0,0,-1,1952,1422,14.786,-7.0282
735,-398,0,0,0,0,0,0,0,0,0,-1,1959,1422,0,0
742,-398,0,0,0,0,0,0,0,0,0,-1,1966,1422,0,0
749,-398,0,0,0,0,0,0,0,0,0,-1,1973,1422,0,0
756,-398,0,0,0,0,0,0,0,0,0,-1,1980,1422,0,0
763,-398,0,0,0,0,0,0,0,0,0,-1,1987,1422,0,0
770,-398,0,0,0,0,0,0,0,0,0,-1,1994,1422,0,0
777,-398,0,0,0,0,0,0,0,0,0,-1,2001,1422,0,0
784,-398,0,0,0,0,0,0,0,0,0,-1,2008,1422,0,0
791,-398,0,0,0,0,0,0,0,0,0,-1,2015,1422,0,0
798,-398,0,0,0,0,0,0,0,0,0,-1,2022,1422,0,0
805,-398,0,0,0,0,0,0,0,0,0,-1,2029,1422,0,0
812,-398,0,0,0,0,0,0,0,0,0,-1,2036,1422,0,0
-700,-405,0,0,0,0,0,0,0,0,0,-1,524,1429,0,0
-693,-405,0,0,0,0,0,0,0,0,0,-1,531,1429,0,0
-686,-405,0,0,0,0,0,0,0,0,0,-1,538,1429,0,0
-679,-405,0,0,0,0,0,0,0,0,0,-1,545,1429,0,0
-672,-405,0,0,0,0,0,0,0,0,0,-1,552,1429,0,0
-665,-405,0,0,0,0,0,0,0,0,0,-1,559,1429,0,0
-658,-405,0,0,0,0,0,0,0,0,0,-1,566,1429,0,0
-651,-405,0,0,0,0,0,0,0,0,0,-1,573,1429,0,0
-644,-405,0,0,0,0,0,0,0,0,0,-1,580,1429,0,0
-637,-405,0,0,0,0,0,0,0,0,0,-1,587,1429,0,0
-630,-405,0,0,0,0,0,0,0,0,0,-1,594,1429,0,0
-623,-405,0,0,0,0,0,0,0,0,0,-1,601,1429,0,0
-616,-405,0,0,0,0,0,0,0,0,0,-1,608,1429,0,0
-609,-405,0,0,0,0,0,0,0,0,0,-1,615,1429,0,0
-602,-405,-1.64905,-2.82837,0,0,0,0,0,0,0,-1,622,1429,-1.64907,2.82837
-595,-405,-2.86743,-2.33301,0,0,0,0,0,0,0,-1,629,1429,-2.86741,2.33295
-588,-405,-7.53772,2.56042,0,0,0,0,0,0,0,-1,636,1429,-7.53773,-2.56046
-581,-405,-6.60419,2.54785,0,0,0,0,0,0,0,-1,643,1429,-6.60418,-2.5479
-574,-405,-5.65741,2.48511,0,0,0,0,0,0,0,-1,650,1429,-5.65739,-2.48514
-567,-405,-3.7674,0.873901,0,0,0,0,0,0,0,-1,657,1429,-3.76739,-0.873918
-560,-405,-3.79279,1.74316,-0.00391459,0.0155207,0.0104342,0.0200615,-0.00845545,1.16033,0.0169127,0.0464204,664,1429,-3.79278,-1.74315
-553,-405,-3.71033,2.76343,-0.00299142,0.0117701,0.00802821,0.0152947,-0.00651606,1.1571,0.012928,0.0427008,671,1429,-3.71036,-2.76347
-546,-405,-3.93567,3.16724,-0.00208594,0.00884055,0.00620735,0.0116464,-0.00489181,1.14626,0.00981023,0.0205563,678,1429,-3.93567,-3.16726
-539,-405,-3.93878,3.39502,-0.00125211,0.00646674,0.00473829,0.0087185,-0.00350387,1.12716,0.00726752,0.0106712,685,1429,-3.93876,-3.395
-532,-405,-3.93835,3.62048,-0.000654268,0.00434726,0.00334104,0.00601979,-0.00232679,1.10667,0.00497365,0.0142917,692,1429,-3.93833,-3.62051
-525,-405,-3.93866,3.87854,-2.20628e-05,0.00230776,0.00165729,0.00316859,-0.000882894,1.09173,0.00246008,0.0143689,699,1429,-3.93863,-3.87856
-518,-405,-3.93341,4.09363,0.000735479,0.000168395,-2.26972e-05,0.000736386,0.000167488,-0.0399392,0.000445711,0.0150782,706,1429,-3.93339,-4.09363
-511,-405,-3.95001,4.29822,0.00111707,-0.00209276,-0.00188732,0.0019896,-0.00296529,-0.433045,0.00287914,0.0152059,713,1429,-3.95,-4.29824
-504,-405,-3.94708,4.49292,0.00120602,-0.00490926,-0.00418148,0.00332853,-0.00703176,-0.469707,0.00610756,0.0176326,720,1429,-3.94709,-4.49294
-497,-405,-3.9231,4.71033,0.000303917,-0.00697047,-0.00674432,0.0043293,-0.0109958,-0.538104,0.00912276,0.015086,727,1429,-3.92307,-4.71028
-490,-405,-3.92194,4.93945,-0.00196727,-0.00917998,-0.00926,0.00436385,-0.0155111,-0.599707,0.0120614,0.0126601,734,1429,-3.92193,-4.93942
-483,-405,-3.92212,5.18237,-0.00496559,-0.00982582,-0.0117143,0.00456801,-0.0193594,-0.683125,0.014668,0.0116234,741,1429,-3.92215,-5.18239
-476,-405,-3.86914,5.36206,-0.00921328,-0.0101078,-0.0135852,0.00393205,-0.0232531,-0.768943,0.0169653,0.0271993,748,1429,-3.86917,-5.36203
-469,-405,-3.78674,5.44946,-0.0148473,-0.00973359,-0.0153316,0.00325289,-0.0278337,-0.868022,0.0197297,0.0398096,755,1429,-3.78672,-5.44951
-462,-405,-3.27612,5.28455,0,0,0,0,0,0,0,-1,762,1429,-3.27615,-5.2845
-455,-405,-3.6618,4.73889,0,0,0,0,0,0,0,-1,769,1429,-3.66182,-4.73891
-448,-405,-4.04749,4.19336,0,0,0,0,0,0,0,-1,776,1429,-4.04748,-4.19332
-441,-405,-3.55841,2.85327,0,0,0,0,0,0,0,-1,783,1429,-3.55841,-2.85331
-434,-405,-1.48053,1.55676,0,0,0,0,0,0,0,-1,790,1429,-1.48053,-1.55682
-427,-405,-2.31445,4.56921,0,0,0,0,0,0,0,-1,797,1429,-2.31443,-4.56921
-420,-405,-10.4515,1.54517,0,0,0,0,0,0,0,-1,804,1429,-10.4515,-1.54513
-413,-405,-2.64545,2.01294,0,0,0,0,0,0,0,-1,811,1429,-2.64547,-2.01294
-406,-405,-6.7381,2.14014,0,0,0,0,0,0,0,-1,818,1429,-6.73809,-2.14017
-399,-405,0,0,0,0,0,0,0,0,0,-1,825,1429,0,0
-392,-405,0,0,0,0,0,0,0,0,0,-1,832,1429,0,0
-385,-405,0,0,0,0,0,0,0,0,0,-1,839,1429,0,0
-378,-405,0,0,0,0,0,0,0,0,0,-1,846,1429,0,0
-371,-405,0,0,0,0,0,0,0,0,0,-1,853,1429,0,0
-364,-405,0,0,0,0,0,0,0,0,0,-1,860,1429,0,0
-357,-405,0,0,0,0,0,0,0,0,0,-1,867,1429,0,0
-350,-405,0,0,0,0,0,0,0,0,0,-1,874,1429,0,0
-343,-405,0,0,0,0,0,0,0,0,0,-1,881,1429,0,0
-336,-405,0,0,0,0,0,0,0,0,0,-1,888,1429,0,0
-329,-405,0,0,0,0,0,0,0,0,0,-1,895,1429,0,0
-322,-405,0,0,0,0,0,0,0,0,0,-1,902,1429,0,0
-315,-405,0,0,0,0,0,0,0,0,0,-1,909,1429,0,0
-308,-405,0,0,0,0,0,0,0,0,0,-1,916,1429,0,0
-301,-405,0,0,0,0,0,0,0,0,0,-1,923,1429,0,0
-294,-405,0,0,0,0,0,0,0,0,0,-1,930,1429,0,0
-287,-405,0,0,0,0,0,0,0,0,0,-1,937,1429,0,0
-280,-405,0,0,0,0,0,0,0,0,0,-1,944,1429,0,0
-273,-405,0,0,0,0,0,0,0,0,0,-1,951,1429,0,0
-266,-405,0,0,0,0,0,0,0,0,0,-1,958,1429,0,0
-259,-405,0,0,0,0,0,0,0,0,0,-1,965,1429,0,0
-252,-405,0,0,0,0,0,0,0,0,0,-1,972,1429,0,0
-245,-405,0,0,0,0,0,0,0,0,0,-1,979,1429,0,0
-238,-405,0,0,0,0,0,0,0,0,0,-1,986,1429,0,0
-231,-405,0,0,0,0,0,0,0,0,0,-1,993,1429,0,0
-224,-405,0,0,0,0,0,0,0,0,0,-1,1000,1429,0,0
-217,-405,0,0,0,0,0,0,0,0,0,-1,1007,1429,0,0
-210,-405,0,0,0,0,0,0,0,0,0,-1,1014,1429,0,0
-203,-405,0,0,0,0,0,0,0,0,0,-1,1021,1429,0,0
-196,-405,0,0,0,0,0,0,0,0,0,-1,1028,1429,0,0
-189,-405,0,0,0,0,0,0,0,0,0,-1,1035,1429,0,0
-182,-405,0,0,0,0,0,0,0,0,0,-1,1042,1429,0,0
-175,-405,0,0,0,0,0,0,0,0,0,-1,1049,1429,0,0
-168,-405,0,0,0,0,0,0,0,0,0,-1,1056,1429,0,0
-161,-405,0,0,0,0,0,0,0,0,0,-1,1063,1429,0,0
-154,-405,0,0,0,0,0,0,0,0,0,-1,1070,1429,0,0
-147,-405,0,0,0,0,0,0,0,0,0,-1,1077,1429,0,0
-140,-405,0,0,0,0,0,0,0,0,0,-1,1084,1429,0,0
-133,-405,0,0,0,0,0,0,0,0,0,-1,1091,1429,0,0
-126,-405,0,0,0,0,0,0,0,0,0,-1,1098,1429,0,0
-119,-405,0,0,0,0,0,0,0,0,0,-1,1105,1429,0,0
-112,-405,0,0,0,0,0,0,0,0,0,-1,1112,1429,0,0
-105,-405,0,0,0,0,0,0,0,0,0,-1,1119,1429,0,0
-98,-405,0,0,0,0,0,0,0,0,0,-1,1126,1429,0,0
-91,-405,0,0,0,0,0,0,0,0,0,-1,1133,1429,0,0
-84,-405,0,0,0,0,0,0,0,0,0,-1,1140,1429,0,0
-77,-405,0,0,0,0,0,0,0,0,0,-1,1147,1429,0,0
-70,-405,0,0,0,0,0,0,0,0,0,-1,1154,1429,0,0
-63,-405,0,0,0,0,0,0,0,0,0,-1,1161,1429,0,0
-56,-405,0,0,0,0,0,0,0,0,0,-1,1168,1429,0,0
-49,-405,0,0,0,0,0,0,0,0,0,-1,1175,1429,0,0
-42,-405,0,0,0,0,0,0,0,0,0,-1,1182,1429,0,0
-35,-405,0,0,0,0,0,0,0,0,0,-1,1189,1429,0,0
-28,-405,0,0,0,0,0,0,0,0,0,-1,1196,1429,0,0
-21,-405,0,0,0,0,0,0,0,0,0,-1,1203,1429,0,0
-14,-405,0,0,0,0,0,0,0,0,0,-1,1210,1429,0,0
-7,-405,0,0,0,0,0,0,0,0,0,-1,1217,1429,0,0
0,-405,0,0,0,0,0,0,0,0,0,-1,1224,1429,0,0
7,-405,0,0,0,0,0,0,0,0,0,-1,1231,1429,0,0
14,-405,0,0,0,0,0,0,0,0,0,-1,1238,1429,0,0
21,-405,0,0,0,0,0,0,0,0,0,-1,1245,1429,0,0
28,-405,0,0,0,0,0,0,0,0,0,-1,1252,1429,0,0
35,-405,0,0,0,0,0,0,0,0,0,-1,1259,1429,0,0
42,-405,0,0,0,0,0,0,0,0,0,-1,1266,1429,0,0
49,-405,0,0,0,0,0,0,0,0,0,-1,1273,1429,0,0
56,-405,0,0,0,0,0,0,0,0,0,-1,1280,1429,0,0
63,-405,0,0,0,0,0,0,0,0,0,-1,1287,1429,0,0
70,-405,0,0,0,0,0,0,0,0,0,-1,1294,1429,0,0
77,-405,0,0,0,0,0,0,0,0,0,-1,1301,1429,0,0
84,-405,0,0,0,0,0,0,0,0,0,-1,1308,1429,0,0
91,-405,0,0,0,0,0,0,0,0,0,-1,1315,1429,0,0
98,-405,0,0,0,0,0,0,0,0,0,-1,1322,1429,0,0
105,-405,0,0,0,0,0,0,0,0,0,-1,1329,1429,0,0
112,-405,0,0,0,0,0,0,0,0,0,-1,1336,1429,0,0
119,-405,0,0,0,0,0,0,0,0,0,-1,1343,1429,0,0
126,-405,0,0,0,0,0,0,0,0,0,-1,1350,1429,0,0
133,-405,0,0,0,0,0,0,0,0,0,-1,1357,1429,0,0
140,-405,0,0,0,0,0,0,0,0,0,-1,1364,1429,0,0
147,-405,0,0,0,0,0,0,0,0,0,-1,1371,1429,0,0
154,-405,0,0,0,0,0,0,0,0,0,-1,1378,1429,0,0
161,-405,0,0,0,0,0,0,0,0,0,-1,1385,1429,0,0
168,-405,0,0,0,0,0,0,0,0,0,-1,1392,1429,0,0
175,-405,0,0,0,0,0,0,0,0,0,-1,1399,1429,0,0
182,-405,0,0,0,0,0,0,0,0,0,-1,1406,1429,0,0
189,-405,0,0,0,0,0,0,0,0,0,-1,1413,1429,0,0
196,-405,0,0,0,0,0,0,0,0,0,-1,1420,1429,0,0
203,-405,0,0,0,0,0,0,0,0,0,-1,1427,1429,0,0
210,-405,0,0,0,0,0,0,0,0,0,-1,1434,1429,0,0
217,-405,0,0,0,0,0,0,0,0,0,-1,1441,1429,0,0
224,-405,0,0,0,0,0,0,0,0,0,-1,1448,1429,0,0
231,-405,0,0,0,0,0,0,0,0,0,-1,1455,1429,0,0
238,-405,0,0,0,0,0,0,0,0,0,-1,1462,1429,0,0
245,-405,0,0,0,0,0,0,0,0,0,-1,1469,1429,0,0
252,-405,0,0,0,0,0,0,0,0,0,-1,1476,1429,0,0
259,-405,0,0,0,0,0,0,0,0,0,-1,1483,1429,0,0
266,-405,0,0,0,0,0,0,0,0,0,-1,1490,1429,0,0
273,-405,0,0,0,0,0,0,0,0,0,-1,1497,1429,0,0
280,-405,0,0,0,0,0,0,0,0,0,-1,1504,1429,0,0
287,-405,0,0,0,0,0,0,0,0,0,-1,1511,1429,0,0
294,-405,0,0,0,0,0,0,0,0,0,-1,1518,1429,0,0
301,-405,0,0,0,0,0,0,0,0,0,-1,1525,1429,0,0
308,-405,0,0,0,0,0,0,0,0,0,-1,1532,1429,0,0
315,-405,0,0,0,0,0,0,0,0,0,-1,1539,1429,0,0
322,-405,0,0,0,0,0,0,0,0,0,-1,1546,1429,0,0
329,-405,0,0,0,0,0,0,0,0,0,-1,1553,1429,0,0
336,-405,0,0,0,0,0,0,0,0,0,-1,1560,1429,0,0
343,-405,0,0,0,0,0,0,0,0,0,-1,1567,1429,0,0
350,-405,0,0,0,0,0,0,0,0,0,-1,1574,1429,0,0
357,-405,0,0,0,0,0,0,0,0,0,-1,1581,1429,0,0
364,-405,0,0,0,0,0,0,0,0,0,-1,1588,1429,0,0
371,-405,0,0,0,0,0,0,0,0,0,-1,1595,1429,0,0
378,-405,0,0,0,0,0,0,0,0,0,-1,1602,1429,0,0
385,-405,0,0,0,0,0,0,0,0,0,-1,1609,1429,0,0
392,-405,0,0,0,0,0,0,0,0,0,-1,1616,1429,0,0
399,-405,0,0,0,0,0,0,0,0,0,-1,1623,1429,0,0
406,-405,0,0,0,0,0,0,0,0,0,-1,1630,1429,0,0
413,-405,0,0,0,0,0,0,0,0,0,-1,1637,1429,0,0
420,-405,0,0,0,0,0,0,0,0,0,-1,1644,1429,0,0
427,-405,0,0,0,0,0,0,0,0,0,-1,1651,1429,0,0
434,-405,0,0,0,0,0,0,0,0,0,-1,1658,1429,0,0
441,-405,0,0,0,0,0,0,0,0,0,-1,1665,1429,0,0
448,-405,0,0,0,0,0,0,0,0,0,-1,1672,1429,0,0
455,-405,0,0,0,0,0,0,0,0,0,-1,1679,1429,0,0
462,-405,0,0,0,0,0,0,0,0,0,-1,1686,1429,0,0
469,-405,0,0,0,0,0,0,0,0,0,-1,1693,1429,0,0
476,-405,0,0,0,0,0,0,0,0,0,-1,1700,1429,0,0
483,-405,0,0,0,0,0,0,0,0,0,-1,1707,1429,0,0
490,-405,0,0,0,0,0,0,0,0,0,-1,1714,1429,0,0
497,-405,0,0,0,0,0,0,0,0,0,-1,1721,1429,0,0
504,-405,0,0,0,0,0,0,0,0,0,-1,1728,1429,0,0
511,-405,0,0,0,0,0,0,0,0,0,-1,1735,1429,0,0
518,-405,0,0,0,0,0,0,0,0,0,-1,1742,1429,0,0
525,-405,14.6423,1.7583,0,0,0,0,0,0,0,-1,1749,1429,14.6424,-1.75824
532,-405,22.2837,-0.614502,0,0,0,0,0,0,0,-1,1756,1429,22.2837,0.614557
539,-405,19.0604,0.631226,0,0,0,0,0,0,0,-1,1763,1429,19.0604,-0.63122
546,-405,18.832,1.52002,-0.102859,-0.0367842,0.105181,0.0404258,-0.180069,0.93757,0.135546,0.0445444,1770,1429,18.8321,-1.52002
553,-405,18.4926,2.45862,-0.0932135,-0.0385346,0.0976295,0.0355111,-0.167259,0.921918,0.125036,0.0432209,1777,1429,18.4926,-2.4586
560,-405,17.8329,3.33801,-0.0829749,-0.0380136,0.0882345,0.030559,-0.151548,0.910136,0.112609,0.0430972,1784,1429,17.8329,-3.33797
567,-405,16.9742,3.86096,-0.0732135,-0.0376597,0.0793383,0.0258689,-0.136742,0.89561,0.100896,0.0468925,1791,1429,16.9742,-3.86096
574,-405,16.1122,4.47266,0,0,0,0,0,0,0,-1,1798,1429,16.1122,-4.47265
581,-405,15.2948,5.19775,0,0,0,0,0,0,0,-1,1805,1429,15.2949,-5.19772
588,-405,14.1167,5.776,0,0,0,0,0,0,0,-1,1812,1429,14.1167,-5.776
595,-405,13.4171,6.21765,-0.0368145,-0.0252968,0.0420857,0.0114223,-0.0735336,0.853394,0.0532398,0.0470766,1819,1429,13.4171,-6.2177
602,-405,12.4509,6.87598,-0.0291591,-0.021035,0.0312957,0.00646121,-0.0566553,0.849935,0.0400978,0.0393649,1826,1429,12.451,-6.87592
609,-405,11.9028,7.00635,-0.0221053,-0.0158873,0.0220383,0.00326024,-0.0412528,0.855472,0.0286505,0.0165557,1833,1429,11.9029,-7.00635
616,-405,11.8412,6.89136,-0.0154617,-0.0108505,0.0152768,0.00229372,-0.0286059,0.860293,0.0198793,0.00887966,1840,1429,11.8412,-6.89134
623,-405,11.8069,6.6947,-0.0098344,-0.00691024,0.0106241,0.00235191,-0.0190966,0.853778,0.0135831,0.00910268,1847,1429,11.8069,-6.6947
630,-405,11.8165,6.48999,-0.0069419,-0.00567003,0.00774652,0.00146661,-0.0140785,0.826353,0.00991081,0.0101562,1854,1429,11.8166,-6.49002
637,-405,11.8239,6.30554,-0.00452671,-0.00400064,0.00513822,0.000881278,-0.00940862,0.810972,0.00658586,0.0109287,1861,1429,11.8239,-6.30556
644,-405,11.7601,6.13733,-0.00314564,-0.00253524,0.00343804,0.000611118,-0.006292,0.829669,0.0044125,0.0270642,1868,1429,11.7601,-6.13728
651,-405,11.7751,5.93225,-0.0019365,-0.00121809,0.00195827,0.000413651,-0.00356824,0.876105,0.00252802,0.0293157,1875,1429,11.7751,-5.93225
658,-405,11.8174,5.73669,-0.00135846,-0.000446844,0.00105516,0.000246747,-0.00205205,0.989283,0.00145726,0.0209817,1882,1429,11.8174,-5.73668
665,-405,11.8223,5.51526,-0.00089098,0.000219049,0.000260354,0.000277081,-0.000949011,1.35149,0.000742473,0.0170606,1889,1429,11.8223,-5.51527
672,-405,11.8209,5.302,-0.000804566,0.000390573,-6.07221e-05,0.00039365,-0.000807643,-1.52016,0.000707162,0.0224612,1896,1429,11.8209,-5.30199
679,-405,11.8409,5.06702,-0.00084063,0.000283123,-0.000333972,0.000374884,-0.000932392,-1.30266,0.000777298,0.0212067,1903,1429,11.8409,-5.06706
686,-405,11.712,4.75928,-0.000663022,-0.000326265,-0.000741817,0.000266043,-0.00125533,-0.896998,0.000938227,0.0334815,1910,1429,11.712,-4.75929
693,-405,11.5259,4.505,0,0,0,0,0,0,0,-1,1917,1429,11.5259,-4.50502
700,-405,9.1958,4.02026,0,0,0,0,0,0,0,-1,1924,1429,9.19579,-4.02025
707,-405,7.40308,3.83191,0,0,0,0,0,0,0,-1,1931,1429,7.40311,-3.83194
714,-405,7.33252,3.47388,0,0,0,0,0,0,0,-1,1938,1429,7.33255,-3.47383
721,-405,9.23523,0.993896,0,0,0,0,0,0,0,-1,1945,1429,9.23523,-0.993884
728,-405,0,0,0,0,0,0,0,0,0,-1,1952,1429,0,0
735,-405,0,0,0,0,0,0,0,0,0,-1,1959,1429,0,0
742,-405,0,0,0,0,0,0,0,0,0,-1,1966,1429,0,0
749,-405,0,0,0,0,0,0,0,0,0,-1,1973,1429,0,0
756,-405,0,0,0,0,0,0,0,0,0,-1,1980,1429,0,0
763,-405,0,0,0,0,0,0,0,0,0,-1,1987,1429,0,0
770,-405,0,0,0,0,0,0,0,0,0,-1,1994,1429,0,0
777,-405,0,0,0,0,0,0,0,0,0,-1,2001,1429,0,0
784,-405,0,0,0,0,0,0,0,0,0,-1,2008,1429,0,0
791,-405,0,0,0,0,0,0,0,0,0,-1,2015,1429,0,0
798,-405,0,0,0,0,0,0,0,0,0,-1,2022,1429,0,0
805,-405,0,0,0,0,0,0,0,0,0,-1,2029,1429,0,0
812,-405,0,0,0,0,0,0,0,0,0,-1,2036,1429,0,0
-700,-412,0,0,0,0,0,0,0,0,0,-1,524,1436,0,0
-693,-412,0,0,0,0,0,0,0,0,0,-1,531,1436,0,0
-686,-412,0,0,0,0,0,0,0,0,0,-1,538,1436,0,0
-679,-412,0,0,0,0,0,0,0,0,0,-1,545,1436,0,0
-672,-412,0,0,0,0,0,0,0,0,0,-1,552,1436,0,0
-665,-412,0,0,0,0,0,0,0,0,0,-1,559,1436,0,0
-658,-412,0,0,0,0,0,0,0,0,0,-1,566,1436,0,0
-651,-412,0,0,0,0,0,0,0,0,0,-1,573,1436,0,0
-644,-412,0,0,0,0,0,0,0,0,0,-1,580,1436,0,0
-637,-412,0,0,0,0,0,0,0,0,0,-1,587,1436,0,0
-630,-412,0,0,0,0,0,0,0,0,0,-1,594,1436,0,0
-623,-412,0,0,0,0,0,0,0,0,0,-1,601,1436,0,0
-616,-412,0,0,0,0,0,0,0,0,0,-1,608,1436,0,0
-609,-412,0,0,0,0,0,0,0,0,0,-1,615,1436,0,0
-602,-412,-3.72766,-3.50012,0,0,0,0,0,0,0,-1,622,1436,-3.72764,3.50017
-595,-412,-3.48932,-2.58386,0,0,0,0,0,0,0,-1,629,1436,-3.48931,2.58391
-588,-412,-3.70703,-2.11816,0,0,0,0,0,0,0,-1,636,1436,-3.70702,2.11822
-581,-412,-7.06207,2.19458,0,0,0,0,0,0,0,-1,643,1436,-7.06205,-2.19461
-574,-412,-5.83325,2.24939,0,0,0,0,0,0,0,-1,650,1436,-5.83324,-2.24943
-567,-412,-4.0036,2.32507,0,0,0,0,0,0,0,-1,657,1436,-4.0036,-2.32507
-560,-412,-3.1925,2.09827,0,0,0,0,0,0,0,-1,664,1436,-3.19252,-2.09822
-553,-412,-3.36407,2.74512,0.00551946,0.0121698,0.0134074,0.0226582,-0.00496894,0.90695,0.0170055,0.0440676,671,1436,-3.36408,-2.74517
-546,-412,-3.58167,3.22009,0.00449377,0.00909324,0.0105082,0.0175504,-0.00396337,0.893126,0.0132209,0.0313772,678,1436,-3.58167,-3.22013
-539,-412,-3.703,3.35547,0.00377833,0.00668775,0.00818071,0.0135421,-0.003076,0.873389,0.010209,0.0152729,685,1436,-3.70303,-3.35545
-532,-412,-3.70532,3.61841,0.0031027,0.00464513,0.00618837,0.0101102,-0.00236232,0.84739,0.00765011,0.0136366,692,1436,-3.70534,-3.61839
-525,-412,-3.7132,3.87842,0.00264927,0.00279613,0.00411216,0.00683552,-0.00139012,0.794326,0.00508414,0.0155623,699,1436,-3.71322,-3.87841
-518,-412,-3.70581,4.09998,0.00252012,0.000850996,0.00213283,0.00397585,-0.00060474,0.598909,0.00287344,0.0161617,706,1436,-3.70582,-4.09992
-511,-412,-3.72083,4.31226,0.00233879,-0.00113866,0.0001581,0.00234597,-0.00114583,0.0453396,0.0020553,0.0185637,713,1436,-3.72084,-4.31225
-504,-412,-3.72449,4.51221,0.00206721,-0.00372041,-0.0020788,0.00273648,-0.00438968,-0.311471,0.00415103,0.018722,720,1436,-3.72448,-4.51226
-497,-412,-3.7121,4.72888,0.00125983,-0.00581911,-0.00443827,0.00339716,-0.00795645,-0.448794,0.00672888,0.0151751,727,1436,-3.71209,-4.72891
-490,-412,-3.71503,4.95679,-0.000517226,-0.00834197,-0.00671099,0.00333854,-0.0121977,-0.521493,0.00944348,0.0128403,734,1436,-3.71504,-4.95683
-483,-412,-3.73016,5.15625,-0.00264915,-0.00992818,-0.00897823,0.0033992,-0.0159765,-0.592834,0.0119464,0.00880939,741,1436,-3.73014,-5.15622
-476,-412,-3.66534,5.4248,-0.00583583,-0.011333,-0.0108637,0.00262156,-0.0197904,-0.661495,0.0141486,0.0158823,748,1436,-3.66533,-5.42485
-469,-412,-3.64319,5.55481,-0.0102417,-0.0124182,-0.0127128,0.00142935,-0.0240892,-0.742701,0.0165565,0.0264599,755,1436,-3.64321,-5.55477
-462,-412,-3.5014,5.59973,-0.0157776,-0.0127433,-0.0143723,0.000191688,-0.0287125,-0.837984,0.0192059,0.0361412,762,1436,-3.50141,-5.59969
-455,-412,-3.74475,5.21948,-0.022429,-0.0121169,-0.0156127,-0.000830926,-0.033715,-0.944883,0.0222049,0.0449204,769,1436,-3.74473,-5.21946
-448,-412,-4.07416,4.92761,0,0,0,0,0,0,0,-1,776,1436,-4.07419,-4.92762
-441,-412,-4.5271,4.65259,0,0,0,0,0,0,0,-1,783,1436,-4.52709,-4.65262
-434,-412,-3.72675,2.96179,0,0,0,0,0,0,0,-1,790,1436,-3.72672,-2.96178
-427,-412,-5.81885,4.82593,0,0,0,0,0,0,0,-1,797,1436,-5.81887,-4.8259
-420,-412,-6.65302,4.95691,0,0,0,0,0,0,0,-1,804,1436,-6.65301,-4.95687
-413,-412,-7.31799,1.63599,0,0,0,0,0,0,0,-1,811,1436,-7.31802,-1.63597
-406,-412,-7.98541,1.59583,0,0,0,0,0,0,0,-1,818,1436,-7.9854,-1.59582
-399,-412,-7.8808,1.85815,0,0,0,0,0,0,0,-1,825,1436,-7.8808,-1.85817
-392,-412,0,0,0,0,0,0,0,0,0,-1,832,1436,0,0
-385,-412,0,0,0,0,0,0,0,0,0,-1,839,1436,0,0
-378,-412,0,0,0,0,0,0,0,0,0,-1,846,1436,0,0
-371,-412,0,0,0,0,0,0,0,0,0,-1,853,1436,0,0
-364,-412,0,0,0,0,0,0,0,0,0,-1,860,1436,0,0
-357,-412,0,0,0,0,0,0,0,0,0,-1,867,1436,0,0
-350,-412,0,0,0,0,0,0,0,0,0,-1,874,1436,0,0
-343,-412,0,0,0,0,0,0,0,0,0,-1,881,1436,0,0
-336,-412,0,0,0,0,0,0,0,0,0,-1,888,1436,0,0
-329,-412,0,0,0,0,0,0,0,0,0,-1,895,1436,0,0
-322,-412,0,0,0,0,0,0,0,0,0,-1,902,1436,0,0
-315,-412,0,0,0,0,0,0,0,0,0,-1,909,1436,0,0
-308,-412,0,0,0,0,0,0,0,0,0,-1,916,1436,0,0
-301,-412,0,0,0,0,0,0,0,0,0,-1,923,1436,0,0
-294,-412,0,0,0,0,0,0,0,0,0,-1,930,1436,0,0
-287,-412,0,0,0,0,0,0,0,0,0,-1,937,1436,0,0
-280,-412,0,0,0,0,0,0,0,0,0,-1,944,1436,0,0
-273,-412,0,0,0,0,0,0,0,0,0,-1,951,1436,0,0
-266,-412,0,0,0,0,0,0,0,0,0,-1,958,1436,0,0
-259,-412,0,0,0,0,0,0,0,0,0,-1,965,1436,0,0
-252,-412,0,0,0,0,0,0,0,0,0,-1,972,1436,0,0
-245,-412,0,0,0,0,0,0,0,0,0,-1,979,1436,0,0
-238,-412,0,0,0,0,0,0,0,0,0,-1,986,1436,0,0
-231,-412,0,0,0,0,0,0,0,0,0,-1,993,1436,0,0
-224,-412,0,0,0,0,0,0,0,0,0,-1,1000,1436,0,0
-217,-412,0,0,0,0,0,0,0,0,0,-1,1007,1436,0,0
-210,-412,0,0,0,0,0,0,0,0,0,-1,1014,1436,0,0
-203,-412,0,0,0,0,0,0,0,0,0,-1,1021,1436,0,0
-196,-412,0,0,0,0,0,0,0,0,0,-1,1028,1436,0,0
-189,-412,0,0,0,0,0,0,0,0,0,-1,1035,1436,0,0
-182,-412,0,0,0,0,0,0,0,0,0,-1,1042,1436,0,0
-175,-412,0,0,0,0,0,0,0,0,0,-1,1049,1436,0,0
-168,-412,0,0,0,0,0,0,0,0,0,-1,1056,1436,0,0
-161,-412,0,0,0,0,0,0,0,0,0,-1,1063,1436,0,0
-154,-412,0,0,0,0,0,0,0,0,0,-1,1070,1436,0,0
-147,-412,0,0,0,0,0,0,0,0,0,-1,1077,1436,0,0
-140,-412,0,0,0,0,0,0,0,0,0,-1,1084,1436,0,0
-133,-412,0,0,0,0,0,0,0,0,0,-1,1091,1436,0,0
-126,-412,0,0,0,0,0,0,0,0,0,-1,1098,1436,0,0
-119,-412,0,0,0,0,0,0,0,0,0,-1,1105,1436,0,0
-112,-412,0,0,0,0,0,0,0,0,0,-1,1112,1436,0,0
-105,-412,0,0,0,0,0,0,0,0,0,-1,1119,1436,0,0
-98,-412,0,0,0,0,0,0,0,0,0,-1,1126,1436,0,0
-91,-412,0,0,0,0,0,0,0,0,0,-1,1133,1436,0,0
-84,-412,0,0,0,0,0,0,0,0,0,-1,1140,1436,0,0
-77,-412,0,0,0,0,0,0,0,0,0,-1,1147,1436,0,0
-70,-412,0,0,0,0,0,0,0,0,0,-1,1154,1436,0,0
-63,-412,0,0,0,0,0,0,0,0,0,-1,1161,1436,0,0
-56,-412,0,0,0,0,0,0,0,0,0,-1,1168,1436,0,0
-49,-412,0,0,0,0,0,0,0,0,0,-1,1175,1436,0,0
-42,-412,0,0,0,0,0,0,0,0,0,-1,1182,1436,0,0
-35,-412,0,0,0,0,0,0,0,0,0,-1,1189,1436,0,0
-28,-412,0,0,0,0,0,0,0,0,0,-1,1196,1436,0,0
-21,-412,0,0,0,0,0,0,0,0,0,-1,1203,1436,0,0
-14,-412,0,0,0,0,0,0,0,0,0,-1,1210,1436,0,0
-7,-412,0,0,0,0,0,0,0,0,0,-1,1217,1436,0,0
0,-412,0,0,0,0,0,0,0,0,0,-1,1224,1436,0,0
7,-412,0,0,0,0,0,0,0,0,0,-1,1231,1436,0,0
14,-412,0,0,0,0,0,0,0,0,0,-1,1238,1436,0,0
21,-412,0,0,0,0,0,0,0,0,0,-1,1245,1436,0,0
28,-412,0,0,0,0,0,0,0,0,0,-1,1252,1436,0,0
35,-412,0,0,0,0,0,0,0,0,0,-1,1259,1436,0,0
42,-412,0,0,0,0,0,0,0,0,0,-1,1266,1436,0,0
49,-412,0,0,0,0,0,0,0,0,0,-1,1273,1436,0,0
56,-412,0,0,0,0,0,0,0,0,0,-1,1280,1436,0,0
63,-412,0,0,0,0,0,0,0,0,0,-1,1287,1436,0,0
70,-412,0,0,0,0,0,0,0,0,0,-1,1294,1436,0,0
77,-412,0,0,0,0,0,0,0,0,0,-1,1301,1436,0,0
84,-412,0,0,0,0,0,0,0,0,0,-1,1308,1436,0,0
91,-412,0,0,0,0,0,0,0,0,0,-1,1315,1436,0,0
98,-412,0,0,0,0,0,0,0,0,0,-1,1322,1436,0,0
105,-412,0,0,0,0,0,0,0,0,0,-1,1329,1436,0,0
112,-412,0,0,0,0,0,0,0,0,0,-1,1336,1436,0,0
119,-412,0,0,0,0,0,0,0,0,0,-1,1343,1436,0,0
126,-412,0,0,0,0,0,0,0,0,0,-1,1350,1436,0,0
133,-412,0,0,0,0,0,0,0,0,0,-1,1357,1436,0,0
140,-412,0,0,0,0,0,0,0,0,0,-1,1364,1436,0,0
147,-412,0,0,0,0,0,0,0,0,0,-1,1371,1436,0,0
154,-412,0,0,0,0,0,0,0,0,0,-1,1378,1436,0,0
161,-412,0,0,0,0,0,0,0,0,0,-1,1385,1436,0,0
168,-412,0,0,0,0,0,0,0,0,0,-1,1392,1436,0,0
175,-412,0,0,0,0,0,0,0,0,0,-1,1399,1436,0,0
182,-412,0,0,0,0,0,0,0,0,0,-1,1406,1436,0,0
189,-412,0,0,0,0,0,0,0,0,0,-1,1413,1436,0,0
196,-412,0,0,0,0,0,0,0,0,0,-1,1420,1436,0,0
203,-412,0,0,0,0,0,0,0,0,0,-1,1427,1436,0,0
210,-412,0,0,0,0,0,0,0,0,0,-1,1434,1436,0,0
217,-412,0,0,0,0,0,0,0,0,0,-1,1441,1436,0,0
224,-412,0,0,0,0,0,0,0,0,0,-1,1448,1436,0,0
231,-412,0,0,0,0,0,0,0,0,0,-1,1455,1436,0,0
238,-412,0,0,0,0,0,0,0,0,0,-1,1462,1436,0,0
245,-412,0,0,0,0,0,0,0,0,0,-1,1469,1436,0,0
252,-412,0,0,0,0,0,0,0,0,0,-1,1476,1436,0,0
259,-412,0,0,0,0,0,0,0,0,0,-1,1483,1436,0,0
266,-412,0,0,0,0,0,0,0,0,0,-1,1490,1436,0,0
273,-412,0,0,0,0,0,0,0,0,0,-1,1497,1436,0,0
280,-412,0,0,0,0,0,0,0,0,0,-1,1504,1436,0,0
287,-412,0,0,0,0,0,0,0,0,0,-1,1511,1436,0,0
294,-412,0,0,0,0,0,0,0,0,0,-1,1518,1436,0,0
301,-412,0,0,0,0,0,0,0,0,0,-1,1525,1436,0,0
308,-412,0,0,0,0,0,0,0,0,0,-1,1532,1436,0,0
315,-412,0,0,0,0,0,0,0,0,0,-1,1539,1436,0,0
322,-412,0,0,0,0,0,0,0,0,0,-1,1546,1436,0,0
329,-412,0,0,0,0,0,0,0,0,0,-1,1553,1436,0,0
336,-412,0,0,0,0,0,0,0,0,0,-1,1560,1436,0,0
343,-412,0,0,0,0,0,0,0,0,0,-1,1567,1436,0,0
350,-412,0,0,0,0,0,0,0,0,0,-1,1574,1436,0,0
357,-412,0,0,0,0,0,0,0,0,0,-1,1581,1436,0,0
364,-412,0,0,0,0,0,0,0,0,0,-1,1588,1436,0,0
371,-412,0,0,0,0,0,0,0,0,0,-1,1595,1436,0,0
378,-412,0,0,0,0,0,0,0,0,0,-1,1602,1436,0,0
385,-412,0,0,0,0,0,0,0,0,0,-1,1609,1436,0,0
392,-412,0,0,0,0,0,0,0,0,0,-1,1616,1436,0,0
399,-412,0,0,0,0,0,0,0,0,0,-1,1623,1436,0,0
406,-412,0,0,0,0,0,0,0,0,0,-1,1630,1436,0,0
413,-412,0,0,0,0,0,0,0,0,0,-1,1637,1436,0,0
420,-412,0,0,0,0,0,0,0,0,0,-1,1644,1436,0,0
427,-412,0,0,0,0,0,0,0,0,0,-1,1651,1436,0,0
434,-412,0,0,0,0,0,0,0,0,0,-1,1658,1436,0,0
441,-412,0,0,0,0,0,0,0,0,0,-1,1665,1436,0,0
448,-412,0,0,0,0,0,0,0,0,0,-1,1672,1436,0,0
455,-412,0,0,0,0,0,0,0,0,0,-1,1679,1436,0,0
462,-412,0,0,0,0,0,0,0,0,0,-1,1686,1436,0,0
469,-412,0,0,0,0,0,0,0,0,0,-1,1693,1436,0,0
476,-412,0,0,0,0,0,0,0,0,0,-1,1700,1436,0,0
483,-412,0,0,0,0,0,0,0,0,0,-1,1707,1436,0,0
490,-412,0,0,0,0,0,0,0,0,0,-1,1714,1436,0,0
497,-412,0,0,0,0,0,0,0,0,0,-1,1721,1436,0,0
504,-412,0,0,0,0,0,0,0,0,0,-1,1728,1436,0,0
511,-412,0,0,0,0,0,0,0,0,0,-1,1735,1436,0,0
518,-412,13.5378,1.3866,0,0,0,0,0,0,0,-1,1742,1436,13.5379,-1.38663
525,-412,21.3763,1.9895,0,0,0,0,0,0,0,-1,1749,1436,21.3764,-1.9895
532,-412,20.3549,2.20044,-0.117108,-0.0317614,0.1089,0.0425273,-0.191397,0.972133,0.143884,0.0430372,1756,1436,20.3548,-2.20044
539,-412,19.1587,2.40259,-0.108982,-0.0413219,0.108104,0.0381213,-0.188425,0.937042,0.140064,0.0448737,1763,1436,19.1587,-2.40258
546,-412,18.0005,1.98535,0,0,0,0,0,0,0,-1,1770,1436,18.0005,-1.98536
553,-412,17.3242,2.88635,-0.0930998,-0.0478934,0.0976902,0.0297744,-0.170768,0.899086,0.124958,0.0447777,1777,1436,17.3243,-2.88641
560,-412,16.6949,3.95862,-0.0840317,-0.0469623,0.0891025,0.0255129,-0.156507,0.887944,0.1138,0.0450379,1784,1436,16.6949,-3.95866
567,-412,16.3463,4.63818,-0.0747943,-0.0457549,0.080464,0.0214889,-0.142038,0.874662,0.102608,0.0443914,1791,1436,16.3463,-4.63817
574,-412,14.9098,5.08008,0,0,0,0,0,0,0,-1,1798,1436,14.9098,-5.08004
581,-412,14.1036,5.77563,0,0,0,0,0,0,0,-1,1805,1436,14.1037,-5.77563
588,-412,13.2692,6.46667,0,0,0,0,0,0,0,-1,1812,1436,13.2692,-6.46666
595,-412,12.5742,6.7832,-0.037605,-0.0295265,0.0415997,0.00822965,-0.0753611,0.833796,0.0531966,0.0417922,1819,1436,12.5743,-6.78323
602,-412,11.8679,7.22327,-0.0298535,-0.0239791,0.0305133,0.00373801,-0.0575706,0.83338,0.0396851,0.0239404,1826,1436,11.8679,-7.22325
609,-412,11.6687,7.05908,-0.0227129,-0.0177354,0.0210683,0.000990685,-0.041439,0.84419,0.0279621,0.0085392,1833,1436,11.6687,-7.05911
616,-412,11.6339,6.88794,-0.015959,-0.0118338,0.0142017,0.000454315,-0.0282471,0.857513,0.0189847,0.00710611,1840,1436,11.6339,-6.88791
623,-412,11.6151,6.69299,-0.0101894,-0.00716567,0.00946887,0.00091127,-0.0182663,0.864563,0.0124924,0.0085457,1847,1436,11.6151,-6.69299
630,-412,11.6215,6.48303,-0.00698673,-0.00532955,0.00660028,0.000493941,-0.0128102,0.847841,0.00870947,0.0107802,1854,1436,11.6214,-6.483
637,-412,11.6252,6.29382,-0.00437965,-0.00343295,0.00412697,0.000247722,-0.00806033,0.842497,0.005458,0.0127154,1861,1436,11.6252,-6.29387
644,-412,11.6346,6.11206,-0.00275173,-0.00204242,0.00253707,0.000164662,-0.00495881,0.854842,0.0033621,0.0136445,1868,1436,11.6346,-6.11201
651,-412,11.63,5.89502,-0.00142385,-0.000837931,0.00120167,0.00010598,-0.00236776,0.904962,0.00161499,0.0232959,1875,1436,11.63,-5.89497
658,-412,11.6311,5.69922,-0.000754836,-0.000130996,0.000455278,0.000108964,-0.000994797,1.08573,0.000702343,0.0162747,1882,1436,11.6311,-5.69916
665,-412,11.6332,5.51428,-0.000292192,0.000316535,-9.25221e-05,0.000330287,-0.000305944,-1.42324,0.000367418,0.0204884,1889,1436,11.6332,-5.51432
672,-412,11.6644,5.29688,-0.000361445,0.000289572,-8.81658e-05,0.0003013,-0.000373173,-1.43854,0.000390144,0.0257926,1896,1436,11.6645,-5.29687
679,-412,11.6963,5.04187,-0.000551104,6.87769e-06,-3.15294e-05,8.65365e-06,-0.00055288,-1.51453,0.000371505,0.033947,1903,1436,11.6963,-5.04181
686,-412,10.9799,4.74158,-0.000492115,-0.000868131,-6.10897e-06,-0.000492015,-0.00086823,-0.0162408,0.000502757,0.0484931,1910,1436,10.9798,-4.74157
693,-412,10.1362,4.39929,0,0,0,0,0,0,0,-1,1917,1436,10.1362,-4.39928
700,-412,8.82764,5.8844,0,0,0,0,0,0,0,-1,1924,1436,8.82761,-5.88444
707,-412,6.59998,1.68994,0,0,0,0,0,0,0,-1,1931,1436,6.60002,-1.68995
714,-412,4.77283,-2.39832,0,0,0,0,0,0,0,-1,1938,1436,4.77288,2.39835
721,-412,0,0,0,0,0,0,0,0,0,-1,1945,1436,0,0
728,-412,0,0,0,0,0,0,0,0,0,-1,1952,1436,0,0
735,-412,0,0,0,0,0,0,0,0,0,-1,1959,1436,0,0
742,-412,0,0,0,0,0,0,0,0,0,-1,1966,1436,0,0
749,-412,0,0,0,0,0,0,0,0,0,-1,1973,1436,0,0
756,-412,0,0,0,0,0,0,0,0,0,-1,1980,1436,0,0
763,-412,0,0,0,0,0,0,0,0,0,-1,1987,1436,0,0
770,-412,0,0,0,0,0,0,0,0,0,-1,1994,1436,0,0
777,-412,0,0,0,0,0,0,0,0,0,-1,2001,1436,0,0
784,-412,0,0,0,0,0,0,0,0,0,-1,2008,1436,0,0
791,-412,0,0,0,0,0,0,0,0,0,-1,2015,1436,0,0
798,-412,0,0,0,0,0,0,0,0,0,-1,2022,1436,0,0
805,-412,0,0,0,0,0,0,0,0,0,-1,2029,1436,0,0
812,-412,0,0,0,0,0,0,0,0,0,-1,2036,1436,0,0
-700,-419,0,0,0,0,0,0,0,0,0,-1,524,1443,0,0
-693,-419,0,0,0,0,0,0,0,0,0,-1,531,1443,0,0
-686,-419,0,0,0,0,0,0,0,0,0,-1,538,1443,0,0
-679,-419,0,0,0,0,0,0,0,0,0,-1,545,1443,0,0
-672,-419,0,0,0,0,0,0,0,0,0,-1,552,1443,0,0
-665,-419,0,0,0,0,0,0,0,0,0,-1,559,1443,0,0
-658,-419,0,0,0,0,0,0,0,0,0,-1,566,1443,0,0
-651,-419,0,0,0,0,0,0,0,0,0,-1,573,1443,0,0
-644,-419,0,0,0,0,0,0,0,0,0,-1,580,1443,0,0
-637,-419,0,0,0,0,0,0,0,0,0,-1,587,1443,0,0
-630,-419,0,0,0,0,0,0,0,0,0,-1,594,1443,0,0
-623,-419,0,0,0,0,0,0,0,0,0,-1,601,1443,0,0
-616,-419,0,0,0,0,0,0,0,0,0,-1,608,1443,0,0
-609,-419,0,0,0,0,0,0,0,0,0,-1,615,1443,0,0
-602,-419,0,0,0,0,0,0,0,0,0,-1,622,1443,0,0
-595,-419,-4.27423,-0.479492,0,0,0,0,0,0,0,-1,629,1443,-4.27421,0.479525
-588,-419,-3.75415,0.426147,0,0,0,0,0,0,0,-1,636,1443,-3.75414,-0.426145
-581,-419,-3.37775,1.73169,0,0,0,0,0,0,0,-1,643,1443,-3.37775,-1.73163
-574,-419,-2.86279,2.7804,0,0,0,0,0,0,0,-1,650,1443,-2.86279,-2.7804
-567,-419,-3.76215,1.37549,0,0,0,0,0,0,0,-1,657,1443,-3.76215,-1.37547
-560,-419,-3.72705,3.20435,0,0,0,0,0,0,0,-1,664,1443,-3.72705,-3.20434
-553,-419,-3.22229,3.27795,0,0,0,0,0,0,0,-1,671,1443,-3.22227,-3.278
-546,-419,-3.26074,3.35815,0.0128454,0.00763921,0.0149247,0.0253923,-0.00490774,0.699059,0.0187791,0.0403396,678,1443,-3.26072,-3.35817
-539,-419,-3.3576,3.39294,0.0103154,0.00538493,0.0117255,0.019832,-0.0041317,0.681785,0.0147922,0.0314711,685,1443,-3.35763,-3.39294
-532,-419,-3.48596,3.62671,0.00812232,0.00365208,0.00907141,0.0152299,-0.00345552,0.664609,0.0114798,0.0150559,692,1443,-3.48594,-3.62666
-525,-419,-3.48987,3.8999,0.00637352,0.00219665,0.00655585,0.0111655,-0.00259538,0.6312,0.00844286,0.0128681,699,1443,-3.48985,-3.89996
-518,-419,-3.47961,4.10498,0.00517023,0.000678111,0.00424946,0.0077307,-0.00188236,0.542285,0.00588251,0.0164997,706,1443,-3.4796,-4.10497
-511,-419,-3.46533,4.33582,0.00415765,-0.000826879,0.0021083,0.00492979,-0.00159901,0.351065,0.00392951,0.018591,713,1443,-3.46535,-4.33584
-504,-419,-3.49707,4.54224,0.00322142,-0.00288577,-0.000147548,0.00322499,-0.00288934,-0.0241409,0.00353188,0.0180214,720,1443,-3.49705,-4.54223
-497,-419,-3.49866,4.73035,0.00210542,-0.00466059,-0.00240128,0.00287102,-0.00542618,-0.308639,0.00486552,0.0128276,727,1443,-3.49865,-4.73039
-490,-419,-3.4978,4.9552,0.000309999,-0.00699132,-0.00452547,0.00247373,-0.00915505,-0.445994,0.00707363,0.0109251,734,1443,-3.4978,-4.95517
-483,-419,-3.48853,5.1676,-0.00142006,-0.00906985,-0.0066651,0.00243967,-0.0129296,-0.524906,0.00953752,0.00960878,741,1443,-3.48855,-5.16758
-476,-419,-3.4986,5.38342,-0.00385506,-0.0111917,-0.00856008,0.0017896,-0.0168364,-0.582966,0.0118658,0.00994833,748,1443,-3.49862,-5.38348
-469,-419,-3.44171,5.62512,-0.00712099,-0.0134579,-0.0104754,0.000654665,-0.0212335,-0.63854,0.0143789,0.0140679,755,1443,-3.44173,-5.62507
-462,-419,-3.38861,5.81482,-0.0112577,-0.0154785,-0.0123571,-0.000832112,-0.0259042,-0.700822,0.0169989,0.0247528,762,1443,-3.38863,-5.81478
-455,-419,-3.58685,5.66418,-0.0165045,-0.0169633,-0.0140486,-0.00268347,-0.0307844,-0.777235,0.0196895,0.0380923,769,1443,-3.58687,-5.66417
-448,-419,-3.88849,5.38843,-0.0225575,-0.0176815,-0.0153805,-0.00454696,-0.035692,-0.864001,0.0224332,0.0471942,776,1443,-3.88849,-5.38848
-441,-419,-4.44354,5.15564,-0.0289545,-0.0174753,-0.0161483,-0.0060769,-0.0403529,-0.95615,0.0251225,0.0470262,783,1443,-4.44355,-5.15562
-434,-419,-4.98279,4.83838,0,0,0,0,0,0,0,-1,790,1443,-4.98282,-4.83842
-427,-419,-4.97772,4.80542,0,0,0,0,0,0,0,-1,797,1443,-4.97774,-4.80542
-420,-419,-4.26331,5.19519,0,0,0,0,0,0,0,-1,804,1443,-4.26331,-5.19518
-413,-419,-7.81604,2.06384,0,0,0,0,0,0,0,-1,811,1443,-7.81601,-2.06379
-406,-419,-8.49615,2.08191,0,0,0,0,0,0,0,-1,818,1443,-8.49614,-2.08197
-399,-419,-9.20044,2.04614,0,0,0,0,0,0,0,-1,825,1443,-9.20042,-2.04611
-392,-419,0,0,0,0,0,0,0,0,0,-1,832,1443,0,0
-385,-419,0,0,0,0,0,0,0,0,0,-1,839,1443,0,0
-378,-419,0,0,0,0,0,0,0,0,0,-1,846,1443,0,0
-371,-419,0,0,0,0,0,0,0,0,0,-1,853,1443,0,0
-364,-419,0,0,0,0,0,0,0,0,0,-1,860,1443,0,0
-357,-419,0,0,0,0,0,0,0,0,0,-1,867,1443,0,0
-350,-419,0,0,0,0,0,0,0,0,0,-1,874,1443,0,0
-343,-419,0,0,0,0,0,0,0,0,0,-1,881,1443,0,0
-336,-419,0,0,0,0,0,0,0,0,0,-1,888,1443,0,0
-329,-419,0,0,0,0,0,0,0,0,0,-1,895,1443,0,0
-322,-419,0,0,0,0,0,0,0,0,0,-1,902,1443,0,0
-315,-419,0,0,0,0,0,0,0,0,0,-1,909,1443,0,0
-308,-419,0,0,0,0,0,0,0,0,0,-1,916,1443,0,0
-301,-419,0,0,0,0,0,0,0,0,0,-1,923,1443,0,0
-294,-419,0,0,0,0,0,0,0,0,0,-1,930,1443,0,0
-287,-419,0,0,0,0,0,0,0,0,0,-1,937,1443,0,0
-280,-419,0,0,0,0,0,0,0,0,0,-1,944,1443,0,0
-273,-419,0,0,0,0,0,0,0,0,0,-1,951,1443,0,0
-266,-419,0,0,0,0,0,0,0,0,0,-1,958,1443,0,0
-259,-419,0,0,0,0,0,0,0,0,0,-1,965,1443,0,0
-252,-419,0,0,0,0,0,0,0,0,0,-1,972,1443,0,0
-245,-419,0,0,0,0,0,0,0,0,0,-1,979,1443,0,0
-238,-419,0,0,0,0,0,0,0,0,0,-1,986,1443,0,0
-231,-419,0,0,0,0,0,0,0,0,0,-1,993,1443,0,0
-224,-419,0,0,0,0,0,0,0,0,0,-1,1000,1443,0,0
-217,-419,0,0,0,0,0,0,0,0,0,-1,1007,1443,0,0
-210,-419,0,0,0,0,0,0,0,0,0,-1,1014,1443,0,0
-203,-419,0,0,0,0,0,0,0,0,0,-1,1021,1443,0,0
-196,-419,0,0,0,0,0,0,0,0,0,-1,1028,1443,0,0
-189,-419,0,0,0,0,0,0,0,0,0,-1,1035,1443,0,0
-182,-419,0,0,0,0,0,0,0,0,0,-1,1042,1443,0,0
-175,-419,0,0,0,0,0,0,0,0,0,-1,1049,1443,0,0
-168,-419,0,0,0,0,0,0,0,0,0,-1,1056,1443,0,0
-161,-419,0,0,0,0,0,0,0,0,0,-1,1063,1443,0,0
-154,-419,0,0,0,0,0,0,0,0,0,-1,1070,1443,0,0
-147,-419,0,0,0,0,0,0,0,0,0,-1,1077,1443,0,0
-140,-419,0,0,0,0,0,0,0,0,0,-1,1084,1443,0,0
-133,-419,0,0,0,0,0,0,0,0,0,-1,1091,1443,0,0
-126,-419,0,0,0,0,0,0,0,0,0,-1,1098,1443,0,0
-119,-419,0,0,0,0,0,0,0,0,0,-1,1105,1443,0,0
-112,-419,0,0,0,0,0,0,0,0,0,-1,1112,1443,0,0
-105,-419,0,0,0,0,0,0,0,0,0,-1,1119,1443,0,0
-98,-419,0,0,0,0,0,0,0,0,0,-1,1126,1443,0,0
-91,-419,0,0,0,0,0,0,0,0,0,-1,1133,1443,0,0
-84,-419,0,0,0,0,0,0,0,0,0,-1,1140,1443,0,0
-77,-419,0,0,0,0,0,0,0,0,0,-1,1147,1443,0,0
-70,-419,0,0,0,0,0,0,0,0,0,-1,1154,1443,0,0
-63,-419,0,0,0,0,0,0,0,0,0,-1,1161,1443,0,0
-56,-419,0,0,0,0,0,0,0,0,0,-1,1168,1443,0,0
-49,-419,0,0,0,0,0,0,0,0,0,-1,1175,1443,0,0
-42,-419,0,0,0,0,0,0,0,0,0,-1,1182,1443,0,0
-35,-419,0,0,0,0,0,0,0,0,0,-1,1189,1443,0,0
-28,-419,0,0,0,0,0,0,0,0,0,-1,1196,1443,0,0
-21,-419,0,0,0,0,0,0,0,0,0,-1,1203,1443,0,0
-14,-419,0,0,0,0,0,0,0,0,0,-1,1210,1443,0,0
-7,-419,0,0,0,0,0,0,0,0,0,-1,1217,1443,0,0
0,-419,0,0,0,0,0,0,0,0,0,-1,1224,1443,0,0
7,-419,0,0,0,0,0,0,0,0,0,-1,1231,1443,0,0
14,-419,0,0,0,0,0,0,0,0,0,-1,1238,1443,0,0
21,-419,0,0,0,0,0,0,0,0,0,-1,1245,1443,0,0
28,-419,0,0,0,0,0,0,0,0,0,-1,1252,1443,0,0
35,-419,0,0,0,0,0,0,0,0,0,-1,1259,1443,0,0
42,-419,0,0,0,0,0,0,0,0,0,-1,1266,1443,0,0
49,-419,0,0,0,0,0,0,0,0,0,-1,1273,1443,0,0
56,-419,0,0,0,0,0,0,0,0,0,-1,1280,1443,0,0
63,-419,0,0,0,0,0,0,0,0,0,-1,1287,1443,0,0
70,-419,0,0,0,0,0,0,0,0,0,-1,1294,1443,0,0
77,-419,0,0,0,0,0,0,0,0,0,-1,1301,1443,0,0
84,-419,0,0,0,0,0,0,0,0,0,-1,1308,1443,0,0
91,-419,0,0,0,0,0,0,0,0,0,-1,1315,1443,0,0
98,-419,0,0,0,0,0,0,0,0,0,-1,1322,1443,0,0
105,-419,0,0,0,0,0,0,0,0,0,-1,1329,1443,0,0
112,-419,0,0,0,0,0,0,0,0,0,-1,1336,1443,0,0
119,-419,0,0,0,0,0,0,0,0,0,-1,1343,1443,0,0
126,-419,0,0,0,0,0,0,0,0,0,-1,1350,1443,0,0
133,-419,0,0,0,0,0,0,0,0,0,-1,1357,1443,0,0
140,-419,0,0,0,0,0,0,0,0,0,-1,1364,1443,0,0
147,-419,0,0,0,0,0,0,0,0,0,-1,1371,1443,0,0
154,-419,0,0,0,0,0,0,0,0,0,-1,1378,1443,0,0
161,-419,0,0,0,0,0,0,0,0,0,-1,1385,1443,0,0
168,-419,0,0,0,0,0,0,0,0,0,-1,1392,1443,0,0
175,-419,0,0,0,0,0,0,0,0,0,-1,1399,1443,0,0
182,-419,0,0,0,0,0,0,0,0,0,-1,1406,1443,0,0
189,-419,0,0,0,0,0,0,0,0,0,-1,1413,1443,0,0
196,-419,0,0,0,0,0,0,0,0,0,-1,1420,1443,0,0
203,-419,0,0,0,0,0,0,0,0,0,-1,1427,1443,0,0
210,-419,0,0,0,0,0,0,0,0,0,-1,1434,1443,0,0
217,-419,0,0,0,0,0,0,0,0,0,-1,1441,1443,0,0
224,-419,0,0,0,0,0,0,0,0,0,-1,1448,1443,0,0
231,-419,0,0,0,0,0,0,0,0,0,-1,1455,1443,0,0
238,-419,0,0,0,0,0,0,0,0,0,-1,1462,1443,0,0
245,-419,0,0,0,0,0,0,0,0,0,-1,1469,1443,0,0
252,-419,0,0,0,0,0,0,0,0,0,-1,1476,1443,0,0
259,-419,0,0,0,0,0,0,0,0,0,-1,1483,1443,0,0
266,-419,0,0,0,0,0,0,0,0,0,-1,1490,1443,0,0
273,-419,0,0,0,0,0,0,0,0,0,-1,1497,1443,0,0
280,-419,0,0,0,0,0,0,0,0,0,-1,1504,1443,0,0
287,-419,0,0,0,0,0,0,0,0,0,-1,1511,1443,0,0
294,-419,0,0,0,0,0,0,0,0,0,-1,1518,1443,0,0
301,-419,0,0,0,0,0,0,0,0,0,-1,1525,1443,0,0
308,-419,0,0,0,0,0,0,0,0,0,-1,1532,1443,0,0
315,-419,0,0,0,0,0,0,0,0,0,-1,1539,1443,0,0
322,-419,0,0,0,0,0,0,0,0,0,-1,1546,1443,0,0
329,-419,0,0,0,0,0,0,0,0,0,-1,1553,1443,0,0
336,-419,0,0,0,0,0,0,0,0,0,-1,1560,1443,0,0
343,-419,0,0,0,0,0,0,0,0,0,-1,1567,1443,0,0
350,-419,0,0,0,0,0,0,0,0,0,-1,1574,1443,0,0
357,-419,0,0,0,0,0,0,0,0,0,-1,1581,1443,0,0
364,-419,0,0,0,0,0,0,0,0,0,-1,1588,1443,0,0
371,-419,0,0,0,0,0,0,0,0,0,-1,1595,1443,0,0
378,-419,0,0,0,0,0,0,0,0,0,-1,1602,1443,0,0
385,-419,0,0,0,0,0,0,0,0,0,-1,1609,1443,0,0
392,-419,0,0,0,0,0,0,0,0,0,-1,1616,1443,0,0
399,-419,0,0,0,0,0,0,0,0,0,-1,1623,1443,0,0
406,-419,0,0,0,0,0,0,0,0,0,-1,1630,1443,0,0
413,-419,0,0,0,0,0,0,0,0,0,-1,1637,1443,0,0
420,-419,0,0,0,0,0,0,0,0,0,-1,1644,1443,0,0
427,-419,0,0,0,0,0,0,0,0,0,-1,1651,1443,0,0
434,-419,0,0,0,0,0,0,0,0,0,-1,1658,1443,0,0
441,-419,0,0,0,0,0,0,0,0,0,-1,1665,1443,0,0
448,-419,0,0,0,0,0,0,0,0,0,-1,1672,1443,0,0
455,-419,0,0,0,0,0,0,0,0,0,-1,1679,1443,0,0
462,-419,0,0,0,0,0,0,0,0,0,-1,1686,1443,0,0
469,-419,0,0,0,0,0,0,0,0,0,-1,1693,1443,0,0
476,-419,0,0,0,0,0,0,0,0,0,-1,1700,1443,0,0
483,-419,0,0,0,0,0,0,0,0,0,-1,1707,1443,0,0
490,-419,0,0,0,0,0,0,0,0,0,-1,1714,1443,0,0
497,-419,0,0,0,0,0,0,0,0,0,-1,1721,1443,0,0
504,-419,0,0,0,0,0,0,0,0,0,-1,1728,1443,0,0
511,-419,20.3005,3.7959,0,0,0,0,0,0,0,-1,1735,1443,20.3005,-3.79584
518,-419,21.3154,2.03027,0,0,0,0,0,0,0,-1,1742,1443,21.3155,-2.03029
525,-419,20.1991,2.2738,-0.115563,-0.0303691,0.101235,0.036866,-0.182798,0.98454,0.135832,0.0450592,1749,1443,20.1991,-2.2738
532,-419,19.03,2.43384,-0.108669,-0.0392113,0.101936,0.033749,-0.181629,0.949579,0.133763,0.0433776,1756,1443,19.0301,-2.43384
539,-419,17.9652,2.6532,-0.100959,-0.0447515,0.099769,0.0307964,-0.176507,0.922685,0.129166,0.0445555,1763,1443,17.9652,-2.6532
546,-419,17.1125,2.85742,0,0,0,0,0,0,0,-1,1770,1443,17.1126,-2.85739
553,-419,16.4619,3.72388,-0.0866285,-0.0486519,0.0897807,0.0241265,-0.159407,0.889611,0.115159,0.0452732,1777,1443,16.462,-3.72389
560,-419,16.1787,5.0946,-0.0788957,-0.0478055,0.0823389,0.0204428,-0.147144,0.878697,0.105572,0.0418844,1784,1443,16.1787,-5.09457
567,-419,15.7008,5.70764,-0.070636,-0.0467828,0.0746516,0.016889,-0.134308,0.86461,0.0956664,0.0430058,1791,1443,15.7009,-5.70764
574,-419,14.9426,5.87866,0,0,0,0,0,0,0,-1,1798,1443,14.9426,-5.8786
581,-419,14.3044,6.00281,0,0,0,0,0,0,0,-1,1805,1443,14.3045,-6.00281
588,-419,11.8777,7.13733,0,0,0,0,0,0,0,-1,1812,1443,11.8777,-7.13732
595,-419,12.0378,7.21375,0,0,0,0,0,0,0,-1,1819,1443,12.0378,-7.21375
602,-419,11.484,7.29456,-0.0280172,-0.0235005,0.0268182,0.00115423,-0.0526719,0.827404,0.0355056,0.014902,1826,1443,11.484,-7.29461
609,-419,11.428,7.08716,-0.0212781,-0.0169675,0.0180324,-0.00096203,-0.0372836,0.844879,0.0245413,0.0104351,1833,1443,11.4279,-7.08713
616,-419,11.4254,6.92822,-0.0149128,-0.0110543,0.0117583,-0.00106806,-0.0248991,0.866712,0.016255,0.0115083,1840,1443,11.4255,-6.92821
623,-419,11.4421,6.70117,-0.00943795,-0.00644544,0.00751599,-0.000278224,-0.0156052,0.883652,0.010312,0.00965817,1847,1443,11.4422,-6.70118
630,-419,11.4512,6.48499,-0.00619153,-0.00446511,0.00499234,-0.0002619,-0.0103947,0.871005,0.00684419,0.0117204,1854,1443,11.4512,-6.48494
637,-419,11.4327,6.3064,-0.00361358,-0.00263955,0.00288052,-0.00020517,-0.00604796,0.869142,0.00396536,0.0119746,1861,1443,11.4328,-6.30645
644,-419,11.4307,6.12183,-0.0018913,-0.00146085,0.00154919,-0.000112006,-0.00324014,0.854421,0.00212374,0.0104932,1868,1443,11.4307,-6.12183
651,-419,11.4447,5.93909,-0.000557911,-0.00048336,0.000475608,-4.35697e-05,-0.000997702,0.824505,0.000651098,0.010532,1875,1443,11.4447,-5.93904
658,-419,11.4266,5.71216,9.05177e-05,6.90998e-05,-4.50079e-05,0.000126073,3.35444e-05,-0.668603,7.5397e-05,0.0129534,1882,1443,11.4267,-5.7121
665,-419,11.4437,5.51904,0.000393603,0.000307939,-0.000301101,0.000654903,4.66392e-05,-0.714746,0.000421916,0.0197201,1889,1443,11.4437,-5.51907
672,-419,11.4855,5.27527,5.32162e-05,0.000151397,1.94975e-05,0.000155127,4.9486e-05,1.38176,9.1498e-05,0.0247708,1896,1443,11.4855,-5.27529
679,-419,11.4399,5.16589,-0.000458736,-0.000216956,0.000450368,0.000128465,-0.000804157,0.91652,0.000583658,0.0426375,1903,1443,11.44,-5.16591
686,-419,11.5369,5.0033,0,0,0,0,0,0,0,-1,1910,1443,11.5369,-5.00332
693,-419,8.76086,5.60535,0,0,0,0,0,0,0,-1,1917,1443,8.76091,-5.6054
700,-419,8.49817,5.59277,0,0,0,0,0,0,0,-1,1924,1443,8.49817,-5.59282
707,-419,9.5752,1.80042,0,0,0,0,0,0,0,-1,1931,1443,9.57523,-1.80037
714,-419,5.77576,-1.25061,0,0,0,0,0,0,0,-1,1938,1443,5.7757,1.25056
721,-419,0,0,0,0,0,0,0,0,0,-1,1945,1443,0,0
728,-419,0,0,0,0,0,0,0,0,0,-1,1952,1443,0,0
735,-419,0,0,0,0,0,0,0,0,0,-1,1959,1443,0,0
742,-419,0,0,0,0,0,0,0,0,0,-1,1966,1443,0,0
749,-419,0,0,0,0,0,0,0,0,0,-1,1973,1443,0,0
756,-419,0,0,0,0,0,0,0,0,0,-1,1980,1443,0,0
763,-419,0,0,0,0,0,0,0,0,0,-1,1987,1443,0,0
770,-419,0,0,0,0,0,0,0,0,0,-1,1994,1443,0,0
777,-419,0,0,0,0,0,0,0,0,0,-1,2001,1443,0,0
784,-419,0,0,0,0,0,0,0,0,0,-1,2008,1443,0,0
791,-419,0,0,0,0,0,0,0,0,0,-1,2015,1443,0,0
798,-419,0,0,0,0,0,0,0,0,0,-1,2022,1443,0,0
805,-419,0,0,0,0,0,0,0,0,0,-1,2029,1443,0,0
812,-419,0,0,0,0,0,0,0,0,0,-1,2036,1443,0,0
-700,-426,0,0,0,0,0,0,0,0,0,-1,524,1450,0,0
-693,-426,0,0,0,0,0,0,0,0,0,-1,531,1450,0,0
-686,-426,0,0,0,0,0,0,0,0,0,-1,538,1450,0,0
-679,-426,0,0,0,0,0,0,0,0,0,-1,545,1450,0,0
-672,-426,0,0,0,0,0,0,0,0,0,-1,552,1450,0,0
-665,-426,0,0,0,0,0,0,0,0,0,-1,559,1450,0,0
-658,-426,0,0,0,0,0,0,0,0,0,-1,566,1450,0,0
-651,-426,0,0,0,0,0,0,0,0,0,-1,573,1450,0,0
-644,-426,0,0,0,0,0,0,0,0,0,-1,580,1450,0,0
-637,-426,0,0,0,0,0,0,0,0,0,-1,587,1450,0,0
-630,-426,0,0,0,0,0,0,0,0,0,-1,594,1450,0,0
-623,-426,0,0,0,0,0,0,0,0,0,-1,601,1450,0,0
-616,-426,0,0,0,0,0,0,0,0,0,-1,608,1450,0,0
-609,-426,0,0,0,0,0,0,0,0,0,-1,615,1450,0,0
-602,-426,0,0,0,0,0,0,0,0,0,-1,622,1450,0,0
-595,-426,0,0,0,0,0,0,0,0,0,-1,629,1450,0,0
-588,-426,-4.39026,0.156494,0,0,0,0,0,0,0,-1,636,1450,-4.39027,-0.156543
-581,-426,-3.61182,1.14502,0,0,0,0,0,0,0,-1,643,1450,-3.61184,-1.14503
-574,-426,-3.31049,1.22742,0,0,0,0,0,0,0,-1,650,1450,-3.3105,-1.22744
-567,-426,-3.02087,-1.11523,0,0,0,0,0,0,0,-1,657,1450,-3.0209,1.11518
-560,-426,-5.06732,2.52539,0,0,0,0,0,0,0,-1,664,1450,-5.06733,-2.5254
-553,-426,-4.68555,2.79956,0,0,0,0,0,0,0,-1,671,1450,-4.68554,-2.79953
-546,-426,-3.00989,3.46216,0,0,0,0,0,0,0,-1,678,1450,-3.0099,-3.46213
-539,-426,-3.05969,3.36841,0.0169029,0.00327586,0.0151627,0.0267126,-0.0065338,0.574236,0.0203392,0.0415873,685,1450,-3.05969,-3.3684
-532,-426,-3.20697,3.61865,0.013236,0.00198728,0.0116978,0.0205913,-0.005368,0.56131,0.0158233,0.0248086,692,1450,-3.20698,-3.61868
-525,-426,-3.27667,3.87329,0.010245,0.000963969,0.00869122,0.015457,-0.00424801,0.540186,0.0119745,0.0133607,699,1450,-3.27667,-3.8733
-518,-426,-3.27045,4.10962,0.00795873,-2.74098e-05,0.00612631,0.0112784,-0.00334709,0.496582,0.00884824,0.014734,706,1450,-3.27046,-4.10962
-511,-426,-3.26233,4.33508,0.00609671,-0.000991857,0.00391658,0.00783462,-0.00272976,0.417628,0.00633226,0.0146504,713,1450,-3.26232,-4.33503
-504,-426,-3.26874,4.53748,0.00449343,-0.00248037,0.00175599,0.00491063,-0.00289757,0.233261,0.00455773,0.0147327,720,1450,-3.26875,-4.53747
-497,-426,-3.2793,4.73389,0.00300053,-0.00384231,-0.000279597,0.00301194,-0.00385371,-0.0407691,0.0039738,0.0121058,727,1450,-3.27927,-4.73383
-490,-426,-3.27338,4.95093,0.00104783,-0.0058198,-0.00215627,0.00166872,-0.00644068,-0.280359,0.00494479,0.0121088,734,1450,-3.2734,-4.95092
-483,-426,-3.26587,5.17346,-0.000542686,-0.00797019,-0.00401319,0.00121144,-0.00972431,-0.412066,0.00692211,0.0118817,741,1450,-3.26584,-5.17351
-476,-426,-3.27789,5.40417,-0.00246982,-0.0103393,-0.00572335,0.000540872,-0.01335,-0.484259,0.00908564,0.00950661,748,1450,-3.27789,-5.40413
-469,-426,-3.2915,5.6261,-0.00479011,-0.0132228,-0.00749654,-0.000405544,-0.0176074,-0.529227,0.0116054,0.00745325,755,1450,-3.29153,-5.62613
-462,-426,-3.20172,5.88379,-0.00757553,-0.0163678,-0.00935434,-0.00163583,-0.0223075,-0.565734,0.0143575,0.0142388,762,1450,-3.20174,-5.88374
-455,-426,-3.21631,5.88757,-0.0112124,-0.0195156,-0.0112648,-0.00335851,-0.0273695,-0.608847,0.0172363,0.0305837,769,1450,-3.21628,-5.88756
-448,-426,-3.42242,5.63049,-0.0155257,-0.0223926,-0.0131124,-0.00540475,-0.0325136,-0.65735,0.0201176,0.0432298,776,1450,-3.42243,-5.63046
-441,-426,-4.28992,5.79626,-0.0203053,-0.0247014,-0.0147221,-0.00761805,-0.0373886,-0.711294,0.0228144,0.0426294,783,1450,-4.28993,-5.79627
-434,-426,-5.15796,6.33264,0,0,0,0,0,0,0,-1,790,1450,-5.15794,-6.33263
-427,-426,-3.50067,4.76404,0,0,0,0,0,0,0,-1,797,1450,-3.50069,-4.76409
-420,-426,-3.52771,5.25574,0,0,0,0,0,0,0,-1,804,1450,-3.52771,-5.25575
-413,-426,-8.31403,2.49158,0,0,0,0,0,0,0,-1,811,1450,-8.314,-2.49162
-406,-426,-9.0069,2.56812,0,0,0,0,0,0,0,-1,818,1450,-9.00689,-2.56812
-399,-426,-9.25275,2.21338,0,0,0,0,0,0,0,-1,825,1450,-9.25274,-2.21335
-392,-426,-9.92609,2.41931,0,0,0,0,0,0,0,-1,832,1450,-9.9261,-2.4193
-385,-426,0,0,0,0,0,0,0,0,0,-1,839,1450,0,0
-378,-426,0,0,0,0,0,0,0,0,0,-1,846,1450,0,0
-371,-426,0,0,0,0,0,0,0,0,0,-1,853,1450,0,0
-364,-426,0,0,0,0,0,0,0,0,0,-1,860,1450,0,0
-357,-426,0,0,0,0,0,0,0,0,0,-1,867,1450,0,0
-350,-426,0,0,0,0,0,0,0,0,0,-1,874,1450,0,0
-343,-426,0,0,0,0,0,0,0,0,0,-1,881,1450,0,0
-336,-426,0,0,0,0,0,0,0,0,0,-1,888,1450,0,0
-329,-426,0,0,0,0,0,0,0,0,0,-1,895,1450,0,0
-322,-426,0,0,0,0,0,0,0,0,0,-1,902,1450,0,0
-315,-426,0,0,0,0,0,0,0,0,0,-1,909,1450,0,0
-308,-426,0,0,0,0,0,0,0,0,0,-1,916,1450,0,0
-301,-426,0,0,0,0,0,0,0,0,0,-1,923,1450,0,0
-294,-426,0,0,0,0,0,0,0,0,0,-1,930,1450,0,0
-287,-426,0,0,0,0,0,0,0,0,0,-1,937,1450,0,0
-280,-426,0,0,0,0,0,0,0,0,0,-1,944,1450,0,0
-273,-426,0,0,0,0,0,0,0,0,0,-1,951,1450,0,0
-266,-426,0,0,0,0,0,0,0,0,0,-1,958,1450,0,0
-259,-426,0,0,0,0,0,0,0,0,0,-1,965,1450,0,0
-252,-426,0,0,0,0,0,0,0,0,0,-1,972,1450,0,0
-245,-426,0,0,0,0,0,0,0,0,0,-1,979,1450,0,0
-238,-426,0,0,0,0,0,0,0,0,0,-1,986,1450,0,0
-231,-426,0,0,0,0,0,0,0,0,0,-1,993,1450,0,0
-224,-426,0,0,0,0,0,0,0,0,0,-1,1000,1450,0,0
-217,-426,0,0,0,0,0,0,0,0,0,-1,1007,1450,0,0
-210,-426,0,0,0,0,0,0,0,0,0,-1,1014,1450,0,0
-203,-426,0,0,0,0,0,0,0,0,0,-1,1021,1450,0,0
-196,-426,0,0,0,0,0,0,0,0,0,-1,1028,1450,0,0
-189,-426,0,0,0,0,0,0,0,0,0,-1,1035,1450,0,0
-182,-426,0,0,0,0,0,0,0,0,0,-1,1042,1450,0,0
-175,-426,0,0,0,0,0,0,0,0,0,-1,1049,1450,0,0
-168,-426,0,0,0,0,0,0,0,0,0,-1,1056,1450,0,0
-161,-426,0,0,0,0,0,0,0,0,0,-1,1063,1450,0,0
-154,-426,0,0,0,0,0,0,0,0,0,-1,1070,1450,0,0
-147,-426,0,0,0,0,0,0,0,0,0,-1,1077,1450,0,0
-140,-426,0,0,0,0,0,0,0,0,0,-1,1084,1450,0,0
-133,-426,0,0,0,0,0,0,0,0,0,-1,1091,1450,0,0
-126,-426,0,0,0,0,0,0,0,0,0,-1,1098,1450,0,0
-119,-426,0,0,0,0,0,0,0,0,0,-1,1105,1450,0,0
-112,-426,0,0,0,0,0,0,0,0,0,-1,1112,1450,0,0
-105,-426,0,0,0,0,0,0,0,0,0,-1,1119,1450,0,0
-98,-426,0,0,0,0,0,0,0,0,0,-1,1126,1450,0,0
-91,-426,0,0,0,0,0,0,0,0,0,-1,1133,1450,0,0
-84,-426,0,0,0,0,0,0,0,0,0,-1,1140,1450,0,0
-77,-426,0,0,0,0,0,0,0,0,0,-1,1147,1450,0,0
-70,-426,0,0,0,0,0,0,0,0,0,-1,1154,1450,0,0
-63,-426,0,0,0,0,0,0,0,0,0,-1,1161,1450,0,0
-56,-426,0,0,0,0,0,0,0,0,0,-1,1168,1450,0,0
-49,-426,0,0,0,0,0,0,0,0,0,-1,1175,1450,0,0
-42,-426,0,0,0,0,0,0,0,0,0,-1,1182,1450,0,0
-35,-426,0,0,0,0,0,0,0,0,0,-1,1189,1450,0,0
-28,-426,0,0,0,0,0,0,0,0,0,-1,1196,1450,0,0
-21,-426,0,0,0,0,0,0,0,0,0,-1,1203,1450,0,0
-14,-426,0,0,0,0,0,0,0,0,0,-1,1210,1450,0,0
-7,-426,0,0,0,0,0,0,0,0,0,-1,1217,1450,0,0
0,-426,0,0,0,0,0,0,0,0,0,-1,1224,1450,0,0
7,-426,0,0,0,0,0,0,0,0,0,-1,1231,1450,0,0
14,-426,0,0,0,0,0,0,0,0,0,-1,1238,1450,0,0
21,-426,0,0,0,0,0,0,0,0,0,-1,1245,1450,0,0
28,-426,0,0,0,0,0,0,0,0,0,-1,1252,1450,0,0
35,-426,0,0,0,0,0,0,0,0,0,-1,1259,1450,0,0
42,-426,0,0,0,0,0,0,0,0,0,-1,1266,1450,0,0
49,-426,0,0,0,0,0,0,0,0,0,-1,1273,1450,0,0
56,-426,0,0,0,0,0,0,0,0,0,-1,1280,1450,0,0
63,-426,0,0,0,0,0,0,0,0,0,-1,1287,1450,0,0
70,-426,0,0,0,0,0,0,0,0,0,-1,1294,1450,0,0
77,-426,0,0,0,0,0,0,0,0,0,-1,1301,1450,0,0
84,-426,0,0,0,0,0,0,0,0,0,-1,1308,1450,0,0
91,-426,0,0,0,0,0,0,0,0,0,-1,1315,1450,0,0
98,-426,0,0,0,0,0,0,0,0,0,-1,1322,1450,0,0
105,-426,0,0,0,0,0,0,0,0,0,-1,1329,1450,0,0
112,-426,0,0,0,0,0,0,0,0,0,-1,1336,1450,0,0
119,-426,0,0,0,0,0,0,0,0,0,-1,1343,1450,0,0
126,-426,0,0,0,0,0,0,0,0,0,-1,1350,1450,0,0
133,-426,0,0,0,0,0,0,0,0,0,-1,1357,1450,0,0
140,-426,0,0,0,0,0,0,0,0,0,-1,1364,1450,0,0
147,-426,0,0,0,0,0,0,0,0,0,-1,1371,1450,0,0
154,-426,0,0,0,0,0,0,0,0,0,-1,1378,1450,0,0
161,-426,0,0,0,0,0,0,0,0,0,-1,1385,1450,0,0
168,-426,0,0,0,0,0,0,0,0,0,-1,1392,1450,0,0
175,-426,0,0,0,0,0,0,0,0,0,-1,1399,1450,0,0
182,-426,0,0,0,0,0,0,0,0,0,-1,1406,1450,0,0
189,-426,0,0,0,0,0,0,0,0,0,-1,1413,1450,0,0
196,-426,0,0,0,0,0,0,0,0,0,-1,1420,1450,0,0
203,-426,0,0,0,0,0,0,0,0,0,-1,1427,1450,0,0
210,-426,0,0,0,0,0,0,0,0,0,-1,1434,1450,0,0
217,-426,0,0,0,0,0,0,0,0,0,-1,1441,1450,0,0
224,-426,0,0,0,0,0,0,0,0,0,-1,1448,1450,0,0
231,-426,0,0,0,0,0,0,0,0,0,-1,1455,1450,0,0
238,-426,0,0,0,0,0,0,0,0,0,-1,1462,1450,0,0
245,-426,0,0,0,0,0,0,0,0,0,-1,1469,1450,0,0
252,-426,0,0,0,0,0,0,0,0,0,-1,1476,1450,0,0
259,-426,0,0,0,0,0,0,0,0,0,-1,1483,1450,0,0
266,-426,0,0,0,0,0,0,0,0,0,-1,1490,1450,0,0
273,-426,0,0,0,0,0,0,0,0,0,-1,1497,1450,0,0
280,-426,0,0,0,0,0,0,0,0,0,-1,1504,1450,0,0
287,-426,0,0,0,0,0,0,0,0,0,-1,1511,1450,0,0
294,-426,0,0,0,0,0,0,0,0,0,-1,1518,1450,0,0
301,-426,0,0,0,0,0,0,0,0,0,-1,1525,1450,0,0
308,-426,0,0,0,0,0,0,0,0,0,-1,1532,1450,0,0
315,-426,0,0,0,0,0,0,0,0,0,-1,1539,1450,0,0
322,-426,0,0,0,0,0,0,0,0,0,-1,1546,1450,0,0
329,-426,0,0,0,0,0,0,0,0,0,-1,1553,1450,0,0
336,-426,0,0,0,0,0,0,0,0,0,-1,1560,1450,0,0
343,-426,0,0,0,0,0,0,0,0,0,-1,1567,1450,0,0
350,-426,0,0,0,0,0,0,0,0,0,-1,1574,1450,0,0
357,-426,0,0,0,0,0,0,0,0,0,-1,1581,1450,0,0
364,-426,0,0,0,0,0,0,0,0,0,-1,1588,1450,0,0
371,-426,0,0,0,0,0,0,0,0,0,-1,1595,1450,0,0
378,-426,0,0,0,0,0,0,0,0,0,-1,1602,1450,0,0
385,-426,0,0,0,0,0,0,0,0,0,-1,1609,1450,0,0
392,-426,0,0,0,0,0,0,0,0,0,-1,1616,1450,0,0
399,-426,0,0,0,0,0,0,0,0,0,-1,1623,1450,0,0
406,-426,0,0,0,0,0,0,0,0,0,-1,1630,1450,0,0
413,-426,0,0,0,0,0,0,0,0,0,-1,1637,1450,0,0
420,-426,0,0,0,0,0,0,0,0,0,-1,1644,1450,0,0
427,-426,0,0,0,0,0,0,0,0,0,-1,1651,1450,0,0
434,-426,0,0,0,0,0,0,0,0,0,-1,1658,1450,0,0
441,-426,0,0,0,0,0,0,0,0,0,-1,1665,1450,0,0
448,-426,0,0,0,0,0,0,0,0,0,-1,1672,1450,0,0
455,-426,0,0,0,0,0,0,0,0,0,-1,1679,1450,0,0
462,-426,0,0,0,0,0,0,0,0,0,-1,1686,1450,0,0
469,-426,0,0,0,0,0,0,0,0,0,-1,1693,1450,0,0
476,-426,0,0,0,0,0,0,0,0,0,-1,1700,1450,0,0
483,-426,0,0,0,0,0,0,0,0,0,-1,1707,1450,0,0
490,-426,0,0,0,0,0,0,0,0,0,-1,1714,1450,0,0
497,-426,0,0,0,0,0,0,0,0,0,-1,1721,1450,0,0
504,-426,20.6873,3.38367,0,0,0,0,0,0,0,-1,1728,1450,20.6873,-3.38361
511,-426,19.6676,3.53748,-0.113581,-0.022736,0.0883745,0.0312059,-0.167522,1.02278,0.123406,0.0458635,1735,1450,19.6676,-3.53749
518,-426,18.6853,3.32288,-0.110657,-0.030767,0.0931372,0.0306297,-0.172054,0.987976,0.126158,0.043605,1742,1450,18.6853,-3.3229
525,-426,18.9552,2.71033,-0.105019,-0.03659,0.0938806,0.0291166,-0.170725,0.96014,0.124661,0.046937,1749,1450,18.9552,-2.71034
532,-426,17.764,2.81616,-0.0982251,-0.0404577,0.0921116,0.0271926,-0.165875,0.937329,0.120673,0.045314,1756,1450,17.764,-2.81611
539,-426,16.9565,3.07593,-0.0907049,-0.0427355,0.0885802,0.0250497,-0.15849,0.917612,0.114924,0.0462504,1763,1450,16.9566,-3.07593
546,-426,16.1915,3.49744,0,0,0,0,0,0,0,-1,1770,1450,16.1916,-3.4975
553,-426,15.5558,4.62317,0,0,0,0,0,0,0,-1,1777,1450,15.5558,-4.62315
560,-426,15.6177,6.21729,0,0,0,0,0,0,0,-1,1784,1450,15.6177,-6.21732
567,-426,15.0376,6.59729,0,0,0,0,0,0,0,-1,1791,1450,15.0376,-6.59727
574,-426,14.3839,6.70972,0,0,0,0,0,0,0,-1,1798,1450,14.3839,-6.70972
581,-426,11.7047,7.16516,0,0,0,0,0,0,0,-1,1805,1450,11.7047,-7.16516
588,-426,11.2888,7.65369,0,0,0,0,0,0,0,-1,1812,1450,11.2888,-7.65365
595,-426,11.2657,7.45679,-0.0281271,-0.0242339,0.0298545,0.00373741,-0.0560984,0.817953,0.0387049,0.0253094,1819,1450,11.2658,-7.45676
602,-426,11.2594,7.26147,-0.0220164,-0.0187912,0.0212157,0.000873132,-0.0416807,0.823329,0.0280827,0.0142564,1826,1450,11.2594,-7.2615
609,-426,11.2225,7.06677,-0.0164274,-0.013231,0.0139943,-0.000743888,-0.0289145,0.842253,0.0190332,0.0109331,1833,1450,11.2225,-7.06675
616,-426,11.2296,6.91431,-0.0112855,-0.00851295,0.00892138,-0.000870771,-0.0189276,0.862475,0.0123384,0.0135499,1840,1450,11.2297,-6.91436
623,-426,11.2594,6.69763,-0.00685584,-0.0047999,0.00549623,-0.000236329,-0.0114194,0.877846,0.0075354,0.0115231,1847,1450,11.2594,-6.69768
630,-426,11.2797,6.51038,-0.00416536,-0.00331386,0.00346772,-0.000245851,-0.00723337,0.846481,0.00474242,0.011834,1854,1450,11.2797,-6.51037
637,-426,11.2704,6.32043,-0.00202773,-0.0018745,0.00174452,-0.000204909,-0.00369731,0.807343,0.00239949,0.0116809,1861,1450,11.2704,-6.32041
644,-426,11.2378,6.12756,-0.000508116,-0.000964314,0.000620465,-7.51504e-05,-0.00139728,0.609253,0.000907508,0.0106702,1868,1450,11.2378,-6.12755
651,-426,11.2173,5.94861,0.000624944,-0.000237017,-0.000246185,0.000690301,-0.000302374,-0.259495,0.000587528,0.0109736,1875,1450,11.2172,-5.94866
658,-426,11.2263,5.71399,0.00113554,0.000179304,-0.000626824,0.00144578,-0.000130934,-0.459588,0.00101033,0.0115995,1882,1450,11.2263,-5.71393
665,-426,11.269,5.43396,0.00125621,0.000310241,-0.000692302,0.00162168,-5.52222e-05,-0.485714,0.00109999,0.0186391,1889,1450,11.269,-5.43392
672,-426,11.2513,5.19214,0.000733469,0.000112927,-0.000162016,0.000773222,7.31733e-05,-0.240615,0.000492904,0.0322252,1896,1450,11.2513,-5.19209
679,-426,11.2006,5.14075,-0.000116021,-0.000228485,0.000569931,0.000400445,-0.000744951,0.736225,0.000671192,0.0457541,1903,1450,11.2005,-5.14069
686,-426,11.2797,4.75037,0,0,0,0,0,0,0,-1,1910,1450,11.2796,-4.75035
693,-426,11.5056,4.35352,0,0,0,0,0,0,0,-1,1917,1450,11.5056,-4.35349
700,-426,9.24304,2.95447,0,0,0,0,0,0,0,-1,1924,1450,9.24305,-2.95442
707,-426,8.44519,-1.21448,0,0,0,0,0,0,0,-1,1931,1450,8.44514,1.21454
714,-426,0,0,0,0,0,0,0,0,0,-1,1938,1450,0,0
721,-426,0,0,0,0,0,0,0,0,0,-1,1945,1450,0,0
728,-426,0,0,0,0,0,0,0,0,0,-1,1952,1450,0,0
735,-426,0,0,0,0,0,0,0,0,0,-1,1959,1450,0,0
742,-426,0,0,0,0,0,0,0,0,0,-1,1966,1450,0,0
749,-426,0,0,0,0,0,0,0,0,0,-1,1973,1450,0,0
756,-426,0,0,0,0,0,0,0,0,0,-1,1980,1450,0,0
763,-426,0,0,0,0,0,0,0,0,0,-1,1987,1450,0,0
770,-426,0,0,0,0,0,0,0,0,0,-1,1994,1450,0,0
777,-426,0,0,0,0,0,0,0,0,0,-1,2001,1450,0,0
784,-426,0,0,0,0,0,0,0,0,0,-1,2008,1450,0,0
791,-426,0,0,0,0,0,0,0,0,0,-1,2015,1450,0,0
798,-426,0,0,0,0,0,0,0,0,0,-1,2022,1450,0,0
805,-426,0,0,0,0,0,0,0,0,0,-1,2029,1450,0,0
812,-426,0,0,0,0,0,0,0,0,0,-1,2036,1450,0,0
-700,-433,0,0,0,0,0,0,0,0,0,-1,524,1457,0,0
-693,-433,0,0,0,0,0,0,0,0,0,-1,531,1457,0,0
-686,-433,0,0,0,0,0,0,0,0,0,-1,538,1457,0,0
-679,-433,0,0,0,0,0,0,0,0,0,-1,545,1457,0,0
-672,-433,0,0,0,0,0,0,0,0,0,-1,552,1457,0,0
-665,-433,0,0,0,0,0,0,0,0,0,-1,559,1457,0,0
-658,-433,0,0,0,0,0,0,0,0,0,-1,566,1457,0,0
-651,-433,0,0,0,0,0,0,0,0,0,-1,573,1457,0,0
-644,-433,0,0,0,0,0,0,0,0,0,-1,580,1457,0,0
-637,-433,0,0,0,0,0,0,0,0,0,-1,587,1457,0,0
-630,-433,0,0,0,0,0,0,0,0,0,-1,594,1457,0,0
-623,-433,0,0,0,0,0,0,0,0,0,-1,601,1457,0,0
-616,-433,0,0,0,0,0,0,0,0,0,-1,608,1457,0,0
-609,-433,0,0,0,0,0,0,0,0,0,-1,615,1457,0,0
-602,-433,0,0,0,0,0,0,0,0,0,-1,622,1457,0,0
-595,-433,0,0,0,0,0,0,0,0,0,-1,629,1457,0,0
-588,-433,-4.99121,-0.205688,0,0,0,0,0,0,0,-1,636,1457,-4.99119,0.205667
-581,-433,-5.03912,0.544922,0,0,0,0,0,0,0,-1,643,1457,-5.0391,-0.54497
-574,-433,-3.99103,0.710815,0,0,0,0,0,0,0,-1,650,1457,-3.99103,-0.710858
-567,-433,-3.19745,1.71191,0,0,0,0,0,0,0,-1,657,1457,-3.19745,-1.71189
-560,-433,-6.19177,1.52234,0,0,0,0,0,0,0,-1,664,1457,-6.19178,-1.52232
-553,-433,-5.54065,1.77258,0,0,0,0,0,0,0,-1,671,1457,-5.54062,-1.77263
-546,-433,-2.93945,2.47729,0,0,0,0,0,0,0,-1,678,1457,-2.93943,-2.47723
-539,-433,-2.96161,3.06958,0.0239651,0.00104821,0.0191284,0.0348044,-0.00979114,0.515546,0.0270636,0.0473881,685,1457,-2.9616,-3.06961
-532,-433,-2.94586,3.58557,0.0186205,0.000272458,0.0147657,0.02683,-0.00793711,0.50743,0.0210375,0.030439,692,1457,-2.94584,-3.58551
-525,-433,-3.02008,3.87292,0.0142654,-0.000209976,0.0111325,0.0203062,-0.00625072,0.497161,0.0160325,0.0173682,699,1457,-3.02005,-3.87296
-518,-433,-3.05048,4.0946,0.0108387,-0.000640913,0.00814409,0.0150624,-0.00486461,0.478433,0.0119966,0.0158559,706,1457,-3.05045,-4.09458
-511,-433,-3.0658,4.31775,0.00814529,-0.00105361,0.00568358,0.0108573,-0.00376566,0.445219,0.00876729,0.0154854,713,1457,-3.0658,-4.31776
-504,-433,-3.05341,4.52148,0.00595655,-0.00195877,0.00342965,0.00723583,-0.00323806,0.357022,0.00619219,0.0119272,720,1457,-3.05338,-4.52143
-497,-433,-3.04675,4.7406,0.00407898,-0.00282303,0.00140148,0.00435271,-0.00309675,0.192881,0.00432127,0.0121896,727,1457,-3.04676,-4.7406
-490,-433,-3.06952,4.95581,0.00189317,-0.00425378,-0.000452572,0.00192631,-0.00428692,-0.0731002,0.0036725,0.0144354,734,1457,-3.0695,-4.95583
-483,-433,-3.06073,5.20129,0.00022422,-0.00608833,-0.00222699,0.000930787,-0.0067949,-0.307229,0.00486994,0.0153222,741,1457,-3.06073,-5.2013
-476,-433,-3.05896,5.44495,-0.00148375,-0.00823385,-0.00388507,0.000287525,-0.0100051,-0.427766,0.00676796,0.0109794,748,1457,-3.05896,-5.44489
-469,-433,-3.04901,5.66284,-0.00329769,-0.0110243,-0.00559561,-0.000361286,-0.0139607,-0.483266,0.00918907,0.0104444,755,1457,-3.04903,-5.66284
-462,-433,-3.04926,5.8634,-0.00533998,-0.0143612,-0.00741796,-0.0011689,-0.0185323,-0.512234,0.0119842,0.00965031,762,1457,-3.04925,-5.86346
-455,-433,-2.91565,6.07397,-0.0080632,-0.0181282,-0.00944191,-0.00239636,-0.023795,-0.540552,0.015128,0.0228484,769,1457,-2.91564,-6.07398
-448,-433,-2.90869,5.94714,-0.0113638,-0.0221492,-0.0116444,-0.003924,-0.0295891,-0.568545,0.0185569,0.0352469,776,1457,-2.9087,-5.94709
-441,-433,-3.01447,6.01135,0,0,0,0,0,0,0,-1,783,1457,-3.01445,-6.01133
-434,-433,-3.34882,5.68494,0,0,0,0,0,0,0,-1,790,1457,-3.3488,-5.68489
-427,-433,-3.18481,5.61133,0,0,0,0,0,0,0,-1,797,1457,-3.1848,-5.61131
-420,-433,-3.08325,5.78577,0,0,0,0,0,0,0,-1,804,1457,-3.08326,-5.7858
-413,-433,-1.53833,4.20422,0,0,0,0,0,0,0,-1,811,1457,-1.53834,-4.20424
-406,-433,-9.14117,2.24158,0,0,0,0,0,0,0,-1,818,1457,-9.14118,-2.24158
-399,-433,-9.59204,2.41504,0,0,0,0,0,0,0,-1,825,1457,-9.59204,-2.41508
-392,-433,-10.7191,2.36316,0,0,0,0,0,0,0,-1,832,1457,-10.719,-2.3632
-385,-433,-1.65833,1.2821,0,0,0,0,0,0,0,-1,839,1457,-1.65834,-1.28209
-378,-433,0,0,0,0,0,0,0,0,0,-1,846,1457,0,0
-371,-433,0,0,0,0,0,0,0,0,0,-1,853,1457,0,0
-364,-433,0,0,0,0,0,0,0,0,0,-1,860,1457,0,0
-357,-433,0,0,0,0,0,0,0,0,0,-1,867,1457,0,0
-350,-433,0,0,0,0,0,0,0,0,0,-1,874,1457,0,0
-343,-433,0,0,0,0,0,0,0,0,0,-1,881,1457,0,0
-336,-433,0,0,0,0,0,0,0,0,0,-1,888,1457,0,0
-329,-433,0,0,0,0,0,0,0,0,0,-1,895,1457,0,0
-322,-433,0,0,0,0,0,0,0,0,0,-1,902,1457,0,0
-315,-433,0,0,0,0,0,0,0,0,0,-1,909,1457,0,0
-308,-433,0,0,0,0,0,0,0,0,0,-1,916,1457,0,0
-301,-433,0,0,0,0,0,0,0,0,0,-1,923,1457,0,0
-294,-433,0,0,0,0,0,0,0,0,0,-1,930,1457,0,0
-287,-433,0,0,0,0,0,0,0,0,0,-1,937,1457,0,0
-280,-433,0,0,0,0,0,0,0,0,0,-1,944,1457,0,0
-273,-433,0,0,0,0,0,0,0,0,0,-1,951,1457,0,0
-266,-433,0,0,0,0,0,0,0,0,0,-1,958,1457,0,0
-259,-433,0,0,0,0,0,0,0,0,0,-1,965,1457,0,0
-252,-433,0,0,0,0,0,0,0,0,0,-1,972,1457,0,0
-245,-433,0,0,0,0,0,0,0,0,0,-1,979,1457,0,0
-238,-433,0,0,0,0,0,0,0,0,0,-1,986,1457,0,0
-231,-433,0,0,0,0,0,0,0,0,0,-1,993,1457,0,0
-224,-433,0,0,0,0,0,0,0,0,0,-1,1000,1457,0,0
-217,-433,0,0,0,0,0,0,0,0,0,-1,1007,1457,0,0
-210,-433,0,0,0,0,0,0,0,0,0,-1,1014,1457,0,0
-203,-433,0,0,0,0,0,0,0,0,0,-1,1021,1457,0,0
-196,-433,0,0,0,0,0,0,0,0,0,-1,1028,1457,0,0
-189,-433,0,0,0,0,0,0,0,0,0,-1,1035,1457,0,0
-182,-433,0,0,0,0,0,0,0,0,0,-1,1042,1457,0,0
-175,-433,0,0,0,0,0,0,0,0,0,-1,1049,1457,0,0
-168,-433,0,0,0,0,0,0,0,0,0,-1,1056,1457,0,0
-161,-433,0,0,0,0,0,0,0,0,0,-1,1063,1457,0,0
-154,-433,0,0,0,0,0,0,0,0,0,-1,1070,1457,0,0
-147,-433,0,0,0,0,0,0,0,0,0,-1,1077,1457,0,0
-140,-433,0,0,0,0,0,0,0,0,0,-1,1084,1457,0,0
-133,-433,0,0,0,0,0,0,0,0,0,-1,1091,1457,0,0
-126,-433,0,0,0,0,0,0,0,0,0,-1,1098,1457,0,0
-119,-433,0,0,0,0,0,0,0,0,0,-1,1105,1457,0,0
-112,-433,0,0,0,0,0,0,0,0,0,-1,1112,1457,0,0
-105,-433,0,0,0,0,0,0,0,0,0,-1,1119,1457,0,0
-98,-433,0,0,0,0,0,0,0,0,0,-1,1126,1457,0,0
-91,-433,0,0,0,0,0,0,0,0,0,-1,1133,1457,0,0
-84,-433,0,0,0,0,0,0,0,0,0,-1,1140,1457,0,0
-77,-433,0,0,0,0,0,0,0,0,0,-1,1147,1457,0,0
-70,-433,0,0,0,0,0,0,0,0,0,-1,1154,1457,0,0
-63,-433,0,0,0,0,0,0,0,0,0,-1,1161,1457,0,0
-56,-433,0,0,0,0,0,0,0,0,0,-1,1168,1457,0,0
-49,-433,0,0,0,0,0,0,0,0,0,-1,1175,1457,0,0
-42,-433,0,0,0,0,0,0,0,0,0,-1,1182,1457,0,0
-35,-433,0,0,0,0,0,0,0,0,0,-1,1189,1457,0,0
-28,-433,0,0,0,0,0,0,0,0,0,-1,1196,1457,0,0
-21,-433,0,0,0,0,0,0,0,0,0,-1,1203,1457,0,0
-14,-433,0,0,0,0,0,0,0,0,0,-1,1210,1457,0,0
-7,-433,0,0,0,0,0,0,0,0,0,-1,1217,1457,0,0
0,-433,0,0,0,0,0,0,0,0,0,-1,1224,1457,0,0
7,-433,0,0,0,0,0,0,0,0,0,-1,1231,1457,0,0
14,-433,0,0,0,0,0,0,0,0,0,-1,1238,1457,0,0
21,-433,0,0,0,0,0,0,0,0,0,-1,1245,1457,0,0
28,-433,0,0,0,0,0,0,0,0,0,-1,1252,1457,0,0
35,-433,0,0,0,0,0,0,0,0,0,-1,1259,1457,0,0
42,-433,0,0,0,0,0,0,0,0,0,-1,1266,1457,0,0
49,-433,0,0,0,0,0,0,0,0,0,-1,1273,1457,0,0
56,-433,0,0,0,0,0,0,0,0,0,-1,1280,1457,0,0
63,-433,0,0,0,0,0,0,0,0,0,-1,1287,1457,0,0
70,-433,0,0,0,0,0,0,0,0,0,-1,1294,1457,0,0
77,-433,0,0,0,0,0,0,0,0,0,-1,1301,1457,0,0
84,-433,0,0,0,0,0,0,0,0,0,-1,1308,1457,0,0
91,-433,0,0,0,0,0,0,0,0,0,-1,1315,1457,0,0
98,-433,0,0,0,0,0,0,0,0,0,-1,1322,1457,0,0
105,-433,0,0,0,0,0,0,0,0,0,-1,1329,1457,0,0
112,-433,0,0,0,0,0,0,0,0,0,-1,1336,1457,0,0
119,-433,0,0,0,0,0,0,0,0,0,-1,1343,1457,0,0
126,-433,0,0,0,0,0,0,0,0,0,-1,1350,1457,0,0
133,-433,0,0,0,0,0,0,0,0,0,-1,1357,1457,0,0
140,-433,0,0,0,0,0,0,0,0,0,-1,1364,1457,0,0
147,-433,0,0,0,0,0,0,0,0,0,-1,1371,1457,0,0
154,-433,0,0,0,0,0,0,0,0,0,-1,1378,1457,0,0
161,-433,0,0,0,0,0,0,0,0,0,-1,1385,1457,0,0
168,-433,0,0,0,0,0,0,0,0,0,-1,1392,1457,0,0
175,-433,0,0,0,0,0,0,0,0,0,-1,1399,1457,0,0
182,-433,0,0,0,0,0,0,0,0,0,-1,1406,1457,0,0
189,-433,0,0,0,0,0,0,0,0,0,-1,1413,1457,0,0
196,-433,0,0,0,0,0,0,0,0,0,-1,1420,1457,0,0
203,-433,0,0,0,0,0,0,0,0,0,-1,1427,1457,0,0
210,-433,0,0,0,0,0,0,0,0,0,-1,1434,1457,0,0
217,-433,0,0,0,0,0,0,0,0,0,-1,1441,1457,0,0
224,-433,0,0,0,0,0,0,0,0,0,-1,1448,1457,0,0
231,-433,0,0,0,0,0,0,0,0,0,-1,1455,1457,0,0
238,-433,0,0,0,0,0,0,0,0,0,-1,1462,1457,0,0
245,-433,0,0,0,0,0,0,0,0,0,-1,1469,1457,0,0
252,-433,0,0,0,0,0,0,0,0,0,-1,1476,1457,0,0
259,-433,0,0,0,0,0,0,0,0,0,-1,1483,1457,0,0
266,-433,0,0,0,0,0,0,0,0,0,-1,1490,1457,0,0
273,-433,0,0,0,0,0,0,0,0,0,-1,1497,1457,0,0
280,-433,0,0,0,0,0,0,0,0,0,-1,1504,1457,0,0
287,-433,0,0,0,0,0,0,0,0,0,-1,1511,1457,0,0
294,-433,0,0,0,0,0,0,0,0,0,-1,1518,1457,0,0
301,-433,0,0,0,0,0,0,0,0,0,-1,1525,1457,0,0
308,-433,0,0,0,0,0,0,0,0,0,-1,1532,1457,0,0
315,-433,0,0,0,0,0,0,0,0,0,-1,1539,1457,0,0
322,-433,0,0,0,0,0,0,0,0,0,-1,1546,1457,0,0
329,-433,0,0,0,0,0,0,0,0,0,-1,1553,1457,0,0
336,-433,0,0,0,0,0,0,0,0,0,-1,1560,1457,0,0
343,-433,0,0,0,0,0,0,0,0,0,-1,1567,1457,0,0
350,-433,0,0,0,0,0,0,0,0,0,-1,1574,1457,0,0
357,-433,0,0,0,0,0,0,0,0,0,-1,1581,1457,0,0
364,-433,0,0,0,0,0,0,0,0,0,-1,1588,1457,0,0
371,-433,0,0,0,0,0,0,0,0,0,-1,1595,1457,0,0
378,-433,0,0,0,0,0,0,0,0,0,-1,1602,1457,0,0
385,-433,0,0,0,0,0,0,0,0,0,-1,1609,1457,0,0
392,-433,0,0,0,0,0,0,0,0,0,-1,1616,1457,0,0
399,-433,0,0,0,0,0,0,0,0,0,-1,1623,1457,0,0
406,-433,0,0,0,0,0,0,0,0,0,-1,1630,1457,0,0
413,-433,0,0,0,0,0,0,0,0,0,-1,1637,1457,0,0
420,-433,0,0,0,0,0,0,0,0,0,-1,1644,1457,0,0
427,-433,0,0,0,0,0,0,0,0,0,-1,1651,1457,0,0
434,-433,0,0,0,0,0,0,0,0,0,-1,1658,1457,0,0
441,-433,0,0,0,0,0,0,0,0,0,-1,1665,1457,0,0
448,-433,0,0,0,0,0,0,0,0,0,-1,1672,1457,0,0
455,-433,0,0,0,0,0,0,0,0,0,-1,1679,1457,0,0
462,-433,0,0,0,0,0,0,0,0,0,-1,1686,1457,0,0
469,-433,0,0,0,0,0,0,0,0,0,-1,1693,1457,0,0
476,-433,0,0,0,0,0,0,0,0,0,-1,1700,1457,0,0
483,-433,0,0,0,0,0,0,0,0,0,-1,1707,1457,0,0
490,-433,0,0,0,0,0,0,0,0,0,-1,1714,1457,0,0
497,-433,0,0,0,0,0,0,0,0,0,-1,1721,1457,0,0
504,-433,19.9058,3.03662,0,0,0,0,0,0,0,-1,1728,1457,19.9058,-3.03656
511,-433,19.0145,3.07837,-0.10366,-0.0350897,0.0869173,0.0240601,-0.16281,0.973258,0.117385,0.0435503,1735,1457,19.0146,-3.07834
518,-433,18.071,3.06433,-0.100332,-0.037809,0.0878663,0.0241913,-0.162333,0.956308,0.117121,0.0420479,1742,1457,18.071,-3.06432
525,-433,17.2048,3.37085,-0.0947462,-0.0393816,0.0861294,0.0234048,-0.157533,0.940886,0.11363,0.0473536,1749,1457,17.2049,-3.37083
532,-433,16.5637,3.36646,-0.0881098,-0.0400602,0.082756,0.0220878,-0.150258,0.926669,0.108288,0.0471442,1756,1457,16.5637,-3.36643
539,-433,15.9193,3.30396,-0.0808544,-0.0400811,0.0782967,0.0204396,-0.141375,0.912759,0.10175,0.0483613,1763,1457,15.9193,-3.30394
546,-433,15.1724,3.27173,0,0,0,0,0,0,0,-1,1770,1457,15.1724,-3.27168
553,-433,13.9761,8.83521,0,0,0,0,0,0,0,-1,1777,1457,13.9761,-8.83522
560,-433,13.631,8.3147,0,0,0,0,0,0,0,-1,1784,1457,13.631,-8.3147
567,-433,13.1366,7.61292,0,0,0,0,0,0,0,-1,1791,1457,13.1366,-7.6129
574,-433,11.6016,7.59106,0,0,0,0,0,0,0,-1,1798,1457,11.6016,-7.59112
581,-433,11.4393,7.54675,-0.0362485,-0.0276834,0.0380977,0.00637167,-0.0703035,0.841368,0.0491308,0.0412071,1805,1457,11.4394,-7.54675
588,-433,11.1516,7.54211,-0.0284638,-0.0237306,0.0304877,0.00448221,-0.0566766,0.824132,0.0393636,0.032964,1812,1457,11.1516,-7.54213
595,-433,11.0114,7.44861,-0.0216588,-0.0191862,0.0231201,0.00273067,-0.0435756,0.81211,0.0300021,0.0218593,1819,1457,11.0114,-7.44856
602,-433,11.0547,7.27319,-0.0166696,-0.0145766,0.0162222,0.000632811,-0.031879,0.81761,0.0214667,0.0181804,1826,1457,11.0547,-7.27324
609,-433,11.059,7.07251,-0.0121438,-0.0100442,0.0104977,-0.000543923,-0.0216441,0.835235,0.0142516,0.0136985,1833,1457,11.0589,-7.07256
616,-433,11.0518,6.88757,-0.0080728,-0.00647696,0.00652252,-0.000703735,-0.013846,0.846262,0.00900528,0.012637,1840,1457,11.0517,-6.88762
623,-433,11.0435,6.68933,-0.00453411,-0.00358791,0.0038263,-0.000205569,-0.00791645,0.846908,0.00521046,0.010029,1847,1457,11.0434,-6.68929
630,-433,11.063,6.50244,-0.00227533,-0.00253758,0.00221844,-0.000184146,-0.00462876,0.75588,0.00302633,0.0122514,1854,1457,11.063,-6.5024
637,-433,11.0635,6.31152,-0.000472905,-0.00146401,0.000825181,-5.9111e-06,-0.001931,0.514991,0.00128537,0.0133014,1861,1457,11.0634,-6.31155
644,-433,11.053,6.13538,0.00092247,-0.000795885,-0.000140865,0.000933942,-0.000807356,-0.081254,0.00100622,0.0133603,1868,1457,11.0529,-6.13543
651,-433,11.0433,5.94153,0.00194206,-0.000279439,-0.000860488,0.00223637,-0.000573753,-0.329559,0.00171447,0.0108899,1875,1457,11.0433,-5.94147
658,-433,11.0447,5.71143,0.00240778,4.07701e-05,-0.00118376,0.00289818,-0.000449633,-0.392753,0.00209812,0.0133281,1882,1457,11.0447,-5.71147
665,-433,10.9882,5.44165,0.0024322,0.000131913,-0.0011747,0.00292607,-0.00036195,-0.397981,0.00208188,0.0202049,1889,1457,10.9882,-5.44161
672,-433,11.1176,5.4032,0.00181489,-3.4738e-07,-0.000575206,0.00198181,-0.000167267,-0.282434,0.00138035,0.0396057,1896,1457,11.1176,-5.40318
679,-433,11.1726,5.3916,0.000576487,-0.000186781,0.000352508,0.000714379,-0.000324672,0.372873,0.0006138,0.0458674,1903,1457,11.1726,-5.39156
686,-433,11.2367,5.26001,0,0,0,0,0,0,0,-1,1910,1457,11.2367,-5.26002
693,-433,8.27722,4.4519,0,0,0,0,0,0,0,-1,1917,1457,8.27728,-4.45186
700,-433,7.16809,-1.5166,0,0,0,0,0,0,0,-1,1924,1457,7.16806,1.51656
707,-433,8.68359,-2.82202,0,0,0,0,0,0,0,-1,1931,1457,8.68359,2.82197
714,-433,0,0,0,0,0,0,0,0,0,-1,1938,1457,0,0
721,-433,0,0,0,0,0,0,0,0,0,-1,1945,1457,0,0
728,-433,0,0,0,0,0,0,0,0,0,-1,1952,1457,0,0
735,-433,0,0,0,0,0,0,0,0,0,-1,1959,1457,0,0
742,-433,0,0,0,0,0,0,0,0,0,-1,1966,1457,0,0
749,-433,0,0,0,0,0,0,0,0,0,-1,1973,1457,0,0
756,-433,0,0,0,0,0,0,0,0,0,-1,1980,1457,0,0
763,-433,0,0,0,0,0,0,0,0,0,-1,1987,1457,0,0
770,-433,0,0,0,0,0,0,0,0,0,-1,1994,1457,0,0
777,-433,0,0,0,0,0,0,0,0,0,-1,2001,1457,0,0
784,-433,0,0,0,0,0,0,0,0,0,-1,2008,1457,0,0
791,-433,0,0,0,0,0,0,0,0,0,-1,2015,1457,0,0
798,-433,0,0,0,0,0,0,0,0,0,-1,2022,1457,0,0
805,-433,0,0,0,0,0,0,0,0,0,-1,2029,1457,0,0
812,-433,0,0,0,0,0,0,0,0,0,-1,2036,1457,0,0
-700,-440,0,0,0,0,0,0,0,0,0,-1,524,1464,0,0
-693,-440,0,0,0,0,0,0,0,0,0,-1,531,1464,0,0
-686,-440,0,0,0,0,0,0,0,0,0,-1,538,1464,0,0
-679,-440,0,0,0,0,0,0,0,0,0,-1,545,1464,0,0
-672,-440,0,0,0,0,0,0,0,0,0,-1,552,1464,0,0
-665,-440,0,0,0,0,0,0,0,0,0,-1,559,1464,0,0
-658,-440,0,0,0,0,0,0,0,0,0,-1,566,1464,0,0
-651,-440,0,0,0,0,0,0,0,0,0,-1,573,1464,0,0
-644,-440,0,0,0,0,0,0,0,0,0,-1,580,1464,0,0
-637,-440,0,0,0,0,0,0,0,0,0,-1,587,1464,0,0
-630,-440,0,0,0,0,0,0,0,0,0,-1,594,1464,0,0
-623,-440,0,0,0,0,0,0,0,0,0,-1,601,1464,0,0
-616,-440,0,0,0,0,0,0,0,0,0,-1,608,1464,0,0
-609,-440,0,0,0,0,0,0,0,0,0,-1,615,1464,0,0
-602,-440,0,0,0,0,0,0,0,0,0,-1,622,1464,0,0
-595,-440,0,0,0,0,0,0,0,0,0,-1,629,1464,0,0
-588,-440,0,0,0,0,0,0,0,0,0,-1,636,1464,0,0
-581,-440,-5.64722,-0.491699,0,0,0,0,0,0,0,-1,643,1464,-5.64721,0.491657
-574,-440,-5.08289,0.478516,0,0,0,0,0,0,0,-1,650,1464,-5.08288,-0.478495
-567,-440,-4.43372,1.40662,0,0,0,0,0,0,0,-1,657,1464,-4.43374,-1.40656
-560,-440,-3.99219,2.43909,0,0,0,0,0,0,0,-1,664,1464,-3.9922,-2.43908
-553,-440,-3.56873,-0.638672,0,0,0,0,0,0,0,-1,671,1464,-3.56876,0.638695
-546,-440,-3.4635,0.270142,0,0,0,0,0,0,0,-1,678,1464,-3.46351,-0.270167
-539,-440,-2.92609,3.03845,0,0,0,0,0,0,0,-1,685,1464,-2.9261,-3.03846
-532,-440,-2.87103,3.47339,0.0252571,-0.00190316,0.0181643,0.0343565,-0.0110026,0.464408,0.0273206,0.0390612,692,1464,-2.87101,-3.47334
-525,-440,-2.84326,3.8783,0.0194186,-0.00171854,0.0136763,0.026134,-0.00843396,0.456442,0.0208116,0.0181664,699,1464,-2.84325,-3.87825
-518,-440,-2.84308,4.0625,0.0148198,-0.00155576,0.0100509,0.0195958,-0.0063318,0.443599,0.0156086,0.0129849,706,1464,-2.84308,-4.06253
-511,-440,-2.83368,4.29309,0.0112067,-0.00144883,0.00713998,0.0144194,-0.0046615,0.422816,0.0114865,0.0151783,713,1464,-2.83367,-4.29305
-504,-440,-2.82306,4.51733,0.00831985,-0.00182642,0.00463023,0.0101152,-0.00362175,0.369893,0.00822107,0.0169753,720,1464,-2.82306,-4.51731
-497,-440,-2.81989,4.74231,0.00592115,-0.00226136,0.00247655,0.00661233,-0.00295254,0.272164,0.00565542,0.0184979,727,1464,-2.8199,-4.74231
-490,-440,-2.83923,4.93469,0.00335102,-0.00322143,0.000524478,0.00339261,-0.00326302,0.0791321,0.00384287,0.0199087,734,1464,-2.83921,-4.93472
-483,-440,-2.84479,5.17017,0.00141208,-0.00470646,-0.00126727,0.00166417,-0.00495855,-0.19636,0.00397819,0.0192743,741,1464,-2.84481,-5.17011
-476,-440,-2.84113,5.38428,-0.000278638,-0.00650032,-0.00289404,0.00085938,-0.00763834,-0.374655,0.00540152,0.0137727,748,1464,-2.84113,-5.38432
-469,-440,-2.84637,5.62439,-0.00177568,-0.00897388,-0.00453408,0.000414123,-0.0111637,-0.449928,0.00758427,0.0122386,755,1464,-2.84636,-5.62443
-462,-440,-2.8374,5.87402,-0.00319587,-0.0120883,-0.00623154,1.30283e-05,-0.0152972,-0.475532,0.0102025,0.0131108,762,1464,-2.83738,-5.87403
-455,-440,-2.78918,6.10974,-0.00497074,-0.0158962,-0.00819504,-0.000584606,-0.0202823,-0.491423,0.013331,0.0164997,769,1464,-2.78918,-6.10971
-448,-440,-2.64563,6.26538,-0.00702238,-0.0203209,-0.0104686,-0.00126984,-0.0260734,-0.502462,0.0169748,0.0276335,776,1464,-2.64561,-6.26533
-441,-440,-2.79376,6.16675,-0.00974051,-0.0253289,-0.0129661,-0.00240631,-0.0326631,-0.514776,0.0210192,0.0384865,783,1464,-2.79375,-6.16672
-434,-440,-2.92419,6.11206,-0.012917,-0.0309612,-0.0157099,-0.00382283,-0.0400554,-0.524747,0.0255249,0.0445553,790,1464,-2.92422,-6.11205
-427,-440,-2.83337,6.2533,0,0,0,0,0,0,0,-1,797,1464,-2.8334,-6.25334
-420,-440,-2.94348,6.27234,0,0,0,0,0,0,0,-1,804,1464,-2.9435,-6.2723
-413,-440,-4.41571,5.30579,0,0,0,0,0,0,0,-1,811,1464,-4.41569,-5.30576
-406,-440,-5.2887,5.20264,0,0,0,0,0,0,0,-1,818,1464,-5.2887,-5.20261
-399,-440,-9.74152,2.91626,0,0,0,0,0,0,0,-1,825,1464,-9.74152,-2.91623
-392,-440,0.510254,0.437744,0,0,0,0,0,0,0,-1,832,1464,0.510244,-0.43771
-385,-440,6.70496,1.25854,0,0,0,0,0,0,0,-1,839,1464,6.70498,-1.25858
-378,-440,7.93719,1.35864,0,0,0,0,0,0,0,-1,846,1464,7.93722,-1.35859
-371,-440,0,0,0,0,0,0,0,0,0,-1,853,1464,0,0
-364,-440,0,0,0,0,0,0,0,0,0,-1,860,1464,0,0
-357,-440,0,0,0,0,0,0,0,0,0,-1,867,1464,0,0
-350,-440,0,0,0,0,0,0,0,0,0,-1,874,1464,0,0
-343,-440,0,0,0,0,0,0,0,0,0,-1,881,1464,0,0
-336,-440,0,0,0,0,0,0,0,0,0,-1,888,1464,0,0
-329,-440,0,0,0,0,0,0,0,0,0,-1,895,1464,0,0
-322,-440,0,0,0,0,0,0,0,0,0,-1,902,1464,0,0
-315,-440,0,0,0,0,0,0,0,0,0,-1,909,1464,0,0
-308,-440,0,0,0,0,0,0,0,0,0,-1,916,1464,0,0
-301,-440,0,0,0,0,0,0,0,0,0,-1,923,1464,0,0
-294,-440,0,0,0,0,0,0,0,0,0,-1,930,1464,0,0
-287,-440,0,0,0,0,0,0,0,0,0,-1,937,1464,0,0
-280,-440,0,0,0,0,0,0,0,0,0,-1,944,1464,0,0
-273,-440,0,0,0,0,0,0,0,0,0,-1,951,1464,0,0
-266,-440,0,0,0,0,0,0,0,0,0,-1,958,1464,0,0
-259,-440,0,0,0,0,0,0,0,0,0,-1,965,1464,0,0
-252,-440,0,0,0,0,0,0,0,0,0,-1,972,1464,0,0
-245,-440,0,0,0,0,0,0,0,0,0,-1,979,1464,0,0
-238,-440,0,0,0,0,0,0,0,0,0,-1,986,1464,0,0
-231,-440,0,0,0,0,0,0,0,0,0,-1,993,1464,0,0
-224,-440,0,0,0,0,0,0,0,0,0,-1,1000,1464,0,0
-217,-440,0,0,0,0,0,0,0,0,0,-1,1007,1464,0,0
-210,-440,0,0,0,0,0,0,0,0,0,-1,1014,1464,0,0
-203,-440,0,0,0,0,0,0,0,0,0,-1,1021,1464,0,0
-196,-440,0,0,0,0,0,0,0,0,0,-1,1028,1464,0,0
-189,-440,0,0,0,0,0,0,0,0,0,-1,1035,1464,0,0
-182,-440,0,0,0,0,0,0,0,0,0,-1,1042,1464,0,0
-175,-440,0,0,0,0,0,0,0,0,0,-1,1049,1464,0,0
-168,-440,0,0,0,0,0,0,0,0,0,-1,1056,1464,0,0
-161,-440,0,0,0,0,0,0,0,0,0,-1,1063,1464,0,0
-154,-440,0,0,0,0,0,0,0,0,0,-1,1070,1464,0,0
-147,-440,0,0,0,0,0,0,0,0,0,-1,1077,1464,0,0
-140,-440,0,0,0,0,0,0,0,0,0,-1,1084,1464,0,0
-133,-440,0,0,0,0,0,0,0,0,0,-1,1091,1464,0,0
-126,-440,0,0,0,0,0,0,0,0,0,-1,1098,1464,0,0
-119,-440,0,0,0,0,0,0,0,0,0,-1,1105,1464,0,0
-112,-440,0,0,0,0,0,0,0,0,0,-1,1112,1464,0,0
-105,-440,0,0,0,0,0,0,0,0,0,-1,1119,1464,0,0
-98,-440,0,0,0,0,0,0,0,0,0,-1,1126,1464,0,0
-91,-440,0,0,0,0,0,0,0,0,0,-1,1133,1464,0,0
-84,-440,0,0,0,0,0,0,0,0,0,-1,1140,1464,0,0
-77,-440,0,0,0,0,0,0,0,0,0,-1,1147,1464,0,0
-70,-440,0,0,0,0,0,0,0,0,0,-1,1154,1464,0,0
-63,-440,0,0,0,0,0,0,0,0,0,-1,1161,1464,0,0
-56,-440,0,0,0,0,0,0,0,0,0,-1,1168,1464,0,0
-49,-440,0,0,0,0,0,0,0,0,0,-1,1175,1464,0,0
-42,-440,0,0,0,0,0,0,0,0,0,-1,1182,1464,0,0
-35,-440,0,0,0,0,0,0,0,0,0,-1,1189,1464,0,0
-28,-440,0,0,0,0,0,0,0,0,0,-1,1196,1464,0,0
-21,-440,0,0,0,0,0,0,0,0,0,-1,1203,1464,0,0
-14,-440,0,0,0,0,0,0,0,0,0,-1,1210,1464,0,0
-7,-440,0,0,0,0,0,0,0,0,0,-1,1217,1464,0,0
0,-440,0,0,0,0,0,0,0,0,0,-1,1224,1464,0,0
7,-440,0,0,0,0,0,0,0,0,0,-1,1231,1464,0,0
14,-440,0,0,0,0,0,0,0,0,0,-1,1238,1464,0,0
21,-440,0,0,0,0,0,0,0,0,0,-1,1245,1464,0,0
28,-440,0,0,0,0,0,0,0,0,0,-1,1252,1464,0,0
35,-440,0,0,0,0,0,0,0,0,0,-1,1259,1464,0,0
42,-440,0,0,0,0,0,0,0,0,0,-1,1266,1464,0,0
49,-440,0,0,0,0,0,0,0,0,0,-1,1273,1464,0,0
56,-440,0,0,0,0,0,0,0,0,0,-1,1280,1464,0,0
63,-440,0,0,0,0,0,0,0,0,0,-1,1287,1464,0,0
70,-440,0,0,0,0,0,0,0,0,0,-1,1294,1464,0,0
77,-440,0,0,0,0,0,0,0,0,0,-1,1301,1464,0,0
84,-440,0,0,0,0,0,0,0,0,0,-1,1308,1464,0,0
91,-440,0,0,0,0,0,0,0,0,0,-1,1315,1464,0,0
98,-440,0,0,0,0,0,0,0,0,0,-1,1322,1464,0,0
105,-440,0,0,0,0,0,0,0,0,0,-1,1329,1464,0,0
112,-440,0,0,0,0,0,0,0,0,0,-1,1336,1464,0,0
119,-440,0,0,0,0,0,0,0,0,0,-1,1343,1464,0,0
126,-440,0,0,0,0,0,0,0,0,0,-1,1350,1464,0,0
133,-440,0,0,0,0,0,0,0,0,0,-1,1357,1464,0,0
140,-440,0,0,0,0,0,0,0,0,0,-1,1364,1464,0,0
147,-440,0,0,0,0,0,0,0,0,0,-1,1371,1464,0,0
154,-440,0,0,0,0,0,0,0,0,0,-1,1378,1464,0,0
161,-440,0,0,0,0,0,0,0,0,0,-1,1385,1464,0,0
168,-440,0,0,0,0,0,0,0,0,0,-1,1392,1464,0,0
175,-440,0,0,0,0,0,0,0,0,0,-1,1399,1464,0,0
182,-440,0,0,0,0,0,0,0,0,0,-1,1406,1464,0,0
189,-440,0,0,0,0,0,0,0,0,0,-1,1413,1464,0,0
196,-440,0,0,0,0,0,0,0,0,0,-1,1420,1464,0,0
203,-440,0,0,0,0,0,0,0,0,0,-1,1427,1464,0,0
210,-440,0,0,0,0,0,0,0,0,0,-1,1434,1464,0,0
217,-440,0,0,0,0,0,0,0,0,0,-1,1441,1464,0,0
224,-440,0,0,0,0,0,0,0,0,0,-1,1448,1464,0,0
231,-440,0,0,0,0,0,0,0,0,0,-1,1455,1464,0,0
238,-440,0,0,0,0,0,0,0,0,0,-1,1462,1464,0,0
245,-440,0,0,0,0,0,0,0,0,0,-1,1469,1464,0,0
252,-440,0,0,0,0,0,0,0,0,0,-1,1476,1464,0,0
259,-440,0,0,0,0,0,0,0,0,0,-1,1483,1464,0,0
266,-440,0,0,0,0,0,0,0,0,0,-1,1490,1464,0,0
273,-440,0,0,0,0,0,0,0,0,0,-1,1497,1464,0,0
280,-440,0,0,0,0,0,0,0,0,0,-1,1504,1464,0,0
287,-440,0,0,0,0,0,0,0,0,0,-1,1511,1464,0,0
294,-440,0,0,0,0,0,0,0,0,0,-1,1518,1464,0,0
301,-440,0,0,0,0,0,0,0,0,0,-1,1525,1464,0,0
308,-440,0,0,0,0,0,0,0,0,0,-1,1532,1464,0,0
315,-440,0,0,0,0,0,0,0,0,0,-1,1539,1464,0,0
322,-440,0,0,0,0,0,0,0,0,0,-1,1546,1464,0,0
329,-440,0,0,0,0,0,0,0,0,0,-1,1553,1464,0,0
336,-440,0,0,0,0,0,0,0,0,0,-1,1560,1464,0,0
343,-440,0,0,0,0,0,0,0,0,0,-1,1567,1464,0,0
350,-440,0,0,0,0,0,0,0,0,0,-1,1574,1464,0,0
357,-440,0,0,0,0,0,0,0,0,0,-1,1581,1464,0,0
364,-440,0,0,0,0,0,0,0,0,0,-1,1588,1464,0,0
371,-440,0,0,0,0,0,0,0,0,0,-1,1595,1464,0,0
378,-440,0,0,0,0,0,0,0,0,0,-1,1602,1464,0,0
385,-440,0,0,0,0,0,0,0,0,0,-1,1609,1464,0,0
392,-440,0,0,0,0,0,0,0,0,0,-1,1616,1464,0,0
399,-440,0,0,0,0,0,0,0,0,0,-1,1623,1464,0,0
406,-440,0,0,0,0,0,0,0,0,0,-1,1630,1464,0,0
413,-440,0,0,0,0,0,0,0,0,0,-1,1637,1464,0,0
420,-440,0,0,0,0,0,0,0,0,0,-1,1644,1464,0,0
427,-440,0,0,0,0,0,0,0,0,0,-1,1651,1464,0,0
434,-440,0,0,0,0,0,0,0,0,0,-1,1658,1464,0,0
441,-440,0,0,0,0,0,0,0,0,0,-1,1665,1464,0,0
448,-440,0,0,0,0,0,0,0,0,0,-1,1672,1464,0,0
455,-440,0,0,0,0,0,0,0,0,0,-1,1679,1464,0,0
462,-440,0,0,0,0,0,0,0,0,0,-1,1686,1464,0,0
469,-440,0,0,0,0,0,0,0,0,0,-1,1693,1464,0,0
476,-440,0,0,0,0,0,0,0,0,0,-1,1700,1464,0,0
483,-440,0,0,0,0,0,0,0,0,0,-1,1707,1464,0,0
490,-440,0,0,0,0,0,0,0,0,0,-1,1714,1464,0,0
497,-440,18.4883,2.19067,0,0,0,0,0,0,0,-1,1721,1464,18.4882,-2.19063
504,-440,18.0649,2.55554,-0.0930637,-0.0463024,0.0831036,0.0166469,-0.156013,0.922525,0.109978,0.0452767,1728,1464,18.0649,-2.55556
511,-440,17.5754,2.77832,-0.0938229,-0.0439554,0.0838086,0.0185498,-0.156328,0.929983,0.11092,0.0472739,1735,1464,17.5754,-2.77826
518,-440,16.9017,3.07861,-0.0903638,-0.0421027,0.0820095,0.0192527,-0.151719,0.928481,0.108136,0.0448937,1742,1464,16.9018,-3.07859
525,-440,16.1831,3.62671,-0.0849695,-0.0405109,0.0785606,0.0189048,-0.144385,0.923273,0.103138,0.0462247,1749,1464,16.1831,-3.62674
532,-440,15.4319,3.64392,-0.0785548,-0.0389304,0.0741345,0.0179936,-0.135479,0.91597,0.0968757,0.0445128,1756,1464,15.4318,-3.64391
539,-440,14.8214,3.41321,0,0,0,0,0,0,0,-1,1763,1464,14.8214,-3.4132
546,-440,13.6334,9.38586,0,0,0,0,0,0,0,-1,1770,1464,13.6335,-9.38591
553,-440,13.202,8.91907,0,0,0,0,0,0,0,-1,1777,1464,13.202,-8.91906
560,-440,12.8306,8.39734,0,0,0,0,0,0,0,-1,1784,1464,12.8306,-8.39732
567,-440,12.2911,7.9281,0,0,0,0,0,0,0,-1,1791,1464,12.2912,-7.92808
574,-440,11.1947,7.74243,0,0,0,0,0,0,0,-1,1798,1464,11.1947,-7.74241
581,-440,11.0742,7.75879,-0.0284743,-0.0223084,0.0299945,0.00476122,-0.0555439,0.83661,0.0387141,0.0351322,1805,1464,11.0743,-7.75884
588,-440,10.8685,7.74268,-0.0215762,-0.0186278,0.0233343,0.00327882,-0.0434828,0.816945,0.030141,0.0238924,1812,1464,10.8686,-7.74262
595,-440,10.8536,7.51746,-0.0158283,-0.0146705,0.0171784,0.0019388,-0.0324376,0.802242,0.0222994,0.0192632,1819,1464,10.8536,-7.51748
602,-440,10.8792,7.29321,-0.0118395,-0.0109476,0.0118468,0.000461634,-0.0232487,0.804211,0.0156553,0.0173745,1826,1464,10.8791,-7.29325
609,-440,10.8745,7.08667,-0.00822459,-0.00738031,0.00743017,-0.000360293,-0.0152446,0.813775,0.0100451,0.0143275,1833,1464,10.8746,-7.08662
616,-440,10.8551,6.9082,-0.00503359,-0.00481521,0.00437827,-0.000544765,-0.00930404,0.797865,0.00602931,0.0158873,1840,1464,10.8551,-6.90826
623,-440,10.8521,6.68054,-0.00224127,-0.00263271,0.00230289,-0.000125795,-0.00474819,0.743006,0.00312437,0.0121954,1847,1464,10.8521,-6.68053
630,-440,10.8607,6.46973,-0.000361948,-0.00196004,0.00106651,0.000171642,-0.00249363,0.463899,0.00172249,0.0107084,1854,1464,10.8607,-6.4697
637,-440,10.871,6.3042,0.0011382,-0.00123394,-2.06043e-05,0.00113838,-0.00123412,-0.00868508,0.00137013,0.01535,1861,1464,10.871,-6.30423
644,-440,10.8784,6.13684,0.00240766,-0.000805094,-0.0008349,0.00261168,-0.0010091,-0.239657,0.00215763,0.0135664,1868,1464,10.8785,-6.13687
651,-440,10.8971,5.91809,0.00334877,-0.000496627,-0.00142765,0.00382085,-0.000968706,-0.31935,0.00292412,0.0114288,1875,1464,10.8971,-5.91807
658,-440,10.8853,5.72339,0.00390606,-0.000281912,-0.00175194,0.00454229,-0.00091814,-0.348347,0.00337612,0.0161328,1882,1464,10.8852,-5.72344
665,-440,10.8873,5.51306,0.00421229,-0.000212889,-0.00187039,0.00489693,-0.000897526,-0.350891,0.00360127,0.029195,1889,1464,10.8873,-5.51308
672,-440,10.8998,5.42468,0.00422407,-0.000138443,-0.00163419,0.00476833,-0.000682704,-0.321493,0.00342918,0.0424803,1896,1464,10.8998,-5.4247
679,-440,11.1285,5.57483,0.00377772,9.12927e-06,-0.001143,0.00409729,-0.000310441,-0.272627,0.00284066,0.0466717,1903,1464,11.1286,-5.57485
686,-440,11.0956,5.57227,0,0,0,0,0,0,0,-1,1910,1464,11.0956,-5.57231
693,-440,9.88635,2.89795,0,0,0,0,0,0,0,-1,1917,1464,9.88638,-2.89798
700,-440,7.07825,-2.62061,0,0,0,0,0,0,0,-1,1924,1464,7.07829,2.62057
707,-440,0,0,0,0,0,0,0,0,0,-1,1931,1464,0,0
714,-440,0,0,0,0,0,0,0,0,0,-1,1938,1464,0,0
721,-440,0,0,0,0,0,0,0,0,0,-1,1945,1464,0,0
728,-440,0,0,0,0,0,0,0,0,0,-1,1952,1464,0,0
735,-440,0,0,0,0,0,0,0,0,0,-1,1959,1464,0,0
742,-440,0,0,0,0,0,0,0,0,0,-1,1966,1464,0,0
749,-440,0,0,0,0,0,0,0,0,0,-1,1973,1464,0,0
756,-440,0,0,0,0,0,0,0,0,0,-1,1980,1464,0,0
763,-440,0,0,0,0,0,0,0,0,0,-1,1987,1464,0,0
770,-440,0,0,0,0,0,0,0,0,0,-1,1994,1464,0,0
777,-440,0,0,0,0,0,0,0,0,0,-1,2001,1464,0,0
784,-440,0,0,0,0,0,0,0,0,0,-1,2008,1464,0,0
791,-440,0,0,0,0,0,0,0,0,0,-1,2015,1464,0,0
798,-440,0,0,0,0,0,0,0,0,0,-1,2022,1464,0,0
805,-440,0,0,0,0,0,0,0,0,0,-1,2029,1464,0,0
812,-440,0,0,0,0,0,0,0,0,0,-1,2036,1464,0,0
-700,-447,0,0,0,0,0,0,0,0,0,-1,524,1471,0,0
-693,-447,0,0,0,0,0,0,0,0,0,-1,531,1471,0,0
-686,-447,0,0,0,0,0,0,0,0,0,-1,538,1471,0,0
-679,-447,0,0,0,0,0,0,0,0,0,-1,545,1471,0,0
-672,-447,0,0,0,0,0,0,0,0,0,-1,552,1471,0,0
-665,-447,0,0,0,0,0,0,0,0,0,-1,559,1471,0,0
-658,-447,0,0,0,0,0,0,0,0,0,-1,566,1471,0,0
-651,-447,0,0,0,0,0,0,0,0,0,-1,573,1471,0,0
-644,-447,0,0,0,0,0,0,0,0,0,-1,580,1471,0,0
-637,-447,0,0,0,0,0,0,0,0,0,-1,587,1471,0,0
-630,-447,0,0,0,0,0,0,0,0,0,-1,594,1471,0,0
-623,-447,0,0,0,0,0,0,0,0,0,-1,601,1471,0,0
-616,-447,0,0,0,0,0,0,0,0,0,-1,608,1471,0,0
-609,-447,0,0,0,0,0,0,0,0,0,-1,615,1471,0,0
-602,-447,0,0,0,0,0,0,0,0,0,-1,622,1471,0,0
-595,-447,0,0,0,0,0,0,0,0,0,-1,629,1471,0,0
-588,-447,0,0,0,0,0,0,0,0,0,-1,636,1471,0,0
-581,-447,-6.85828,0.860962,0,0,0,0,0,0,0,-1,643,1471,-6.85828,-0.861008
-574,-447,-6.27063,1.2439,0,0,0,0,0,0,0,-1,650,1471,-6.27064,-1.2439
-567,-447,-5.67688,1.52783,0,0,0,0,0,0,0,-1,657,1471,-5.6769,-1.52787
-560,-447,-4.41968,-1.20081,0,0,0,0,0,0,0,-1,664,1471,-4.4197,1.20086
-553,-447,-4.07654,-0.24707,0,0,0,0,0,0,0,-1,671,1471,-4.07653,0.247055
-546,-447,-3.97589,0.650024,0,0,0,0,0,0,0,-1,678,1471,-3.97588,-0.650008
-539,-447,-3.26941,2.57593,0,0,0,0,0,0,0,-1,685,1471,-3.2694,-2.57587
-532,-447,-2.88757,3.17749,0,0,0,0,0,0,0,-1,692,1471,-2.88754,-3.1775
-525,-447,-2.50568,3.77917,0,0,0,0,0,0,0,-1,699,1471,-2.50568,-3.77914
-518,-447,-2.60687,4.05518,0.0189686,-0.00305601,0.0121539,0.0243572,-0.00844459,0.417319,0.0196669,0.0195659,706,1471,-2.60687,-4.05523
-511,-447,-2.61163,4.29529,0.014182,-0.00232149,0.00873619,0.0179474,-0.00608691,0.406953,0.0144284,0.0153476,713,1471,-2.61164,-4.2953
-504,-447,-2.60889,4.54504,0.0104112,-0.00207545,0.00590618,0.0127622,-0.00442643,0.378827,0.0103055,0.0192434,720,1471,-2.60888,-4.54502
-497,-447,-2.60809,4.76819,0.00739524,-0.00205289,0.00358629,0.0086023,-0.00325995,0.324666,0.00707641,0.0222913,727,1471,-2.60807,-4.76815
-490,-447,-2.5918,4.95508,0.00441463,-0.00253914,0.00150343,0.00472576,-0.00285027,0.204064,0.00441847,0.0222475,734,1471,-2.59179,-4.95511
-483,-447,-2.62958,5.14648,0.00218281,-0.00357945,-0.000297137,0.00219809,-0.00359473,-0.0513843,0.00337673,0.0208286,741,1471,-2.62958,-5.14651
-476,-447,-2.62329,5.33948,0.00050066,-0.00489831,-0.00183754,0.00106672,-0.00546437,-0.298828,0.00404564,0.0146489,748,1471,-2.62326,-5.33943
-469,-447,-2.62427,5.60632,-0.000674195,-0.00690471,-0.00337015,0.000799962,-0.00837887,-0.41234,0.00587076,0.0130087,755,1471,-2.62426,-5.60633
-462,-447,-2.62604,5.87891,-0.00151598,-0.00950337,-0.00484853,0.000771869,-0.0117912,-0.440887,0.00813032,0.0129267,762,1471,-2.62603,-5.87887
-455,-447,-2.65228,6.10181,-0.00245635,-0.0127986,-0.00650937,0.000685909,-0.0159409,-0.449735,0.0108631,0.013381,769,1471,-2.65226,-6.1018
-448,-447,-2.59674,6.30383,-0.00336184,-0.016819,-0.00845079,0.000711889,-0.0208927,-0.449187,0.0141717,0.0186785,776,1471,-2.59673,-6.30384
-441,-447,-2.50262,6.42737,-0.00468954,-0.0215219,-0.0106747,0.000487707,-0.0266991,-0.451577,0.0179642,0.0284362,783,1471,-2.50263,-6.4274
-434,-447,-2.46008,6.51831,-0.00632762,-0.0269949,-0.0132751,0.000161709,-0.0334842,-0.454676,0.0223769,0.0399047,790,1471,-2.46006,-6.51833
-427,-447,-2.32526,6.82617,0,0,0,0,0,0,0,-1,797,1471,-2.32523,-6.82616
-420,-447,-2.7179,5.80396,0,0,0,0,0,0,0,-1,804,1471,-2.71788,-5.80398
-413,-447,-2.53137,5.29395,0,0,0,0,0,0,0,-1,811,1471,-2.53136,-5.29396
-406,-447,-4.48694,5.62988,0,0,0,0,0,0,0,-1,818,1471,-4.48696,-5.62994
-399,-447,0.0134888,0.687622,0,0,0,0,0,0,0,-1,825,1471,0.0134841,-0.68767
-392,-447,0.271057,0.278809,0,0,0,0,0,0,0,-1,832,1471,0.27108,-0.278763
-385,-447,0.327515,-0.0834961,0,0,0,0,0,0,0,-1,839,1471,0.327498,0.0834516
-378,-447,6.5293,1.50708,0,0,0,0,0,0,0,-1,846,1471,6.52927,-1.50709
-371,-447,7.32819,1.62622,0,0,0,0,0,0,0,-1,853,1471,7.3282,-1.62617
-364,-447,0,0,0,0,0,0,0,0,0,-1,860,1471,0,0
-357,-447,0,0,0,0,0,0,0,0,0,-1,867,1471,0,0
-350,-447,0,0,0,0,0,0,0,0,0,-1,874,1471,0,0
-343,-447,0,0,0,0,0,0,0,0,0,-1,881,1471,0,0
-336,-447,0,0,0,0,0,0,0,0,0,-1,888,1471,0,0
-329,-447,0,0,0,0,0,0,0,0,0,-1,895,1471,0,0
-322,-447,0,0,0,0,0,0,0,0,0,-1,902,1471,0,0
-315,-447,0,0,0,0,0,0,0,0,0,-1,909,1471,0,0
-308,-447,0,0,0,0,0,0,0,0,0,-1,916,1471,0,0
-301,-447,0,0,0,0,0,0,0,0,0,-1,923,1471,0,0
-294,-447,0,0,0,0,0,0,0,0,0,-1,930,1471,0,0
-287,-447,0,0,0,0,0,0,0,0,0,-1,937,1471,0,0
-280,-447,0,0,0,0,0,0,0,0,0,-1,944,1471,0,0
-273,-447,0,0,0,0,0,0,0,0,0,-1,951,1471,0,0
-266,-447,0,0,0,0,0,0,0,0,0,-1,958,1471,0,0
-259,-447,0,0,0,0,0,0,0,0,0,-1,965,1471,0,0
-252,-447,0,0,0,0,0,0,0,0,0,-1,972,1471,0,0
-245,-447,0,0,0,0,0,0,0,0,0,-1,979,1471,0,0
-238,-447,0,0,0,0,0,0,0,0,0,-1,986,1471,0,0
-231,-447,0,0,0,0,0,0,0,0,0,-1,993,1471,0,0
-224,-447,0,0,0,0,0,0,0,0,0,-1,1000,1471,0,0
-217,-447,0,0,0,0,0,0,0,0,0,-1,1007,1471,0,0
-210,-447,0,0,0,0,0,0,0,0,0,-1,1014,1471,0,0
-203,-447,0,0,0,0,0,0,0,0,0,-1,1021,1471,0,0
-196,-447,0,0,0,0,0,0,0,0,0,-1,1028,1471,0,0
-189,-447,0,0,0,0,0,0,0,0,0,-1,1035,1471,0,0
-182,-447,0,0,0,0,0,0,0,0,0,-1,1042,1471,0,0
-175,-447,0,0,0,0,0,0,0,0,0,-1,1049,1471,0,0
-168,-447,0,0,0,0,0,0,0,0,0,-1,1056,1471,0,0
-161,-447,0,0,0,0,0,0,0,0,0,-1,1063,1471,0,0
-154,-447,0,0,0,0,0,0,0,0,0,-1,1070,1471,0,0
-147,-447,0,0,0,0,0,0,0,0,0,-1,1077,1471,0,0
-140,-447,0,0,0,0,0,0,0,0,0,-1,1084,1471,0,0
-133,-447,0,0,0,0,0,0,0,0,0,-1,1091,1471,0,0
-126,-447,0,0,0,0,0,0,0,0,0,-1,1098,1471,0,0
-119,-447,0,0,0,0,0,0,0,0,0,-1,1105,1471,0,0
-112,-447,0,0,0,0,0,0,0,0,0,-1,1112,1471,0,0
-105,-447,0,0,0,0,0,0,0,0,0,-1,1119,1471,0,0
-98,-447,0,0,0,0,0,0,0,0,0,-1,1126,1471,0,0
-91,-447,0,0,0,0,0,0,0,0,0,-1,1133,1471,0,0
-84,-447,0,0,0,0,0,0,0,0,0,-1,1140,1471,0,0
-77,-447,0,0,0,0,0,0,0,0,0,-1,1147,1471,0,0
-70,-447,0,0,0,0,0,0,0,0,0,-1,1154,1471,0,0
-63,-447,0,0,0,0,0,0,0,0,0,-1,1161,1471,0,0
-56,-447,0,0,0,0,0,0,0,0,0,-1,1168,1471,0,0
-49,-447,0,0,0,0,0,0,0,0,0,-1,1175,1471,0,0
-42,-447,0,0,0,0,0,0,0,0,0,-1,1182,1471,0,0
-35,-447,0,0,0,0,0,0,0,0,0,-1,1189,1471,0,0
-28,-447,0,0,0,0,0,0,0,0,0,-1,1196,1471,0,0
-21,-447,0,0,0,0,0,0,0,0,0,-1,1203,1471,0,0
-14,-447,0,0,0,0,0,0,0,0,0,-1,1210,1471,0,0
-7,-447,0,0,0,0,0,0,0,0,0,-1,1217,1471,0,0
0,-447,0,0,0,0,0,0,0,0,0,-1,1224,1471,0,0
7,-447,0,0,0,0,0,0,0,0,0,-1,1231,1471,0,0
14,-447,0,0,0,0,0,0,0,0,0,-1,1238,1471,0,0
21,-447,0,0,0,0,0,0,0,0,0,-1,1245,1471,0,0
28,-447,0,0,0,0,0,0,0,0,0,-1,1252,1471,0,0
35,-447,0,0,0,0,0,0,0,0,0,-1,1259,1471,0,0
42,-447,0,0,0,0,0,0,0,0,0,-1,1266,1471,0,0
49,-447,0,0,0,0,0,0,0,0,0,-1,1273,1471,0,0
56,-447,0,0,0,0,0,0,0,0,0,-1,1280,1471,0,0
63,-447,0,0,0,0,0,0,0,0,0,-1,1287,1471,0,0
70,-447,0,0,0,0,0,0,0,0,0,-1,1294,1471,0,0
77,-447,0,0,0,0,0,0,0,0,0,-1,1301,1471,0,0
84,-447,0,0,0,0,0,0,0,0,0,-1,1308,1471,0,0
91,-447,0,0,0,0,0,0,0,0,0,-1,1315,1471,0,0
98,-447,0,0,0,0,0,0,0,0,0,-1,1322,1471,0,0
105,-447,0,0,0,0,0,0,0,0,0,-1,1329,1471,0,0
112,-447,0,0,0,0,0,0,0,0,0,-1,1336,1471,0,0
119,-447,0,0,0,0,0,0,0,0,0,-1,1343,1471,0,0
126,-447,0,0,0,0,0,0,0,0,0,-1,1350,1471,0,0
133,-447,0,0,0,0,0,0,0,0,0,-1,1357,1471,0,0
140,-447,0,0,0,0,0,0,0,0,0,-1,1364,1471,0,0
147,-447,0,0,0,0,0,0,0,0,0,-1,1371,1471,0,0
154,-447,0,0,0,0,0,0,0,0,0,-1,1378,1471,0,0
161,-447,0,0,0,0,0,0,0,0,0,-1,1385,1471,0,0
168,-447,0,0,0,0,0,0,0,0,0,-1,1392,1471,0,0
175,-447,0,0,0,0,0,0,0,0,0,-1,1399,1471,0,0
182,-447,0,0,0,0,0,0,0,0,0,-1,1406,1471,0,0
189,-447,0,0,0,0,0,0,0,0,0,-1,1413,1471,0,0
196,-447,0,0,0,0,0,0,0,0,0,-1,1420,1471,0,0
203,-447,0,0,0,0,0,0,0,0,0,-1,1427,1471,0,0
210,-447,0,0,0,0,0,0,0,0,0,-1,1434,1471,0,0
217,-447,0,0,0,0,0,0,0,0,0,-1,1441,1471,0,0
224,-447,0,0,0,0,0,0,0,0,0,-1,1448,1471,0,0
231,-447,0,0,0,0,0,0,0,0,0,-1,1455,1471,0,0
238,-447,0,0,0,0,0,0,0,0,0,-1,1462,1471,0,0
245,-447,0,0,0,0,0,0,0,0,0,-1,1469,1471,0,0
252,-447,0,0,0,0,0,0,0,0,0,-1,1476,1471,0,0
259,-447,0,0,0,0,0,0,0,0,0,-1,1483,1471,0,0
266,-447,0,0,0,0,0,0,0,0,0,-1,1490,1471,0,0
273,-447,0,0,0,0,0,0,0,0,0,-1,1497,1471,0,0
280,-447,0,0,0,0,0,0,0,0,0,-1,1504,1471,0,0
287,-447,0,0,0,0,0,0,0,0,0,-1,1511,1471,0,0
294,-447,0,0,0,0,0,0,0,0,0,-1,1518,1471,0,0
301,-447,0,0,0,0,0,0,0,0,0,-1,1525,1471,0,0
308,-447,0,0,0,0,0,0,0,0,0,-1,1532,1471,0,0
315,-447,0,0,0,0,0,0,0,0,0,-1,1539,1471,0,0
322,-447,0,0,0,0,0,0,0,0,0,-1,1546,1471,0,0
329,-447,0,0,0,0,0,0,0,0,0,-1,1553,1471,0,0
336,-447,0,0,0,0,0,0,0,0,0,-1,1560,1471,0,0
343,-447,0,0,0,0,0,0,0,0,0,-1,1567,1471,0,0
350,-447,0,0,0,0,0,0,0,0,0,-1,1574,1471,0,0
357,-447,0,0,0,0,0,0,0,0,0,-1,1581,1471,0,0
364,-447,0,0,0,0,0,0,0,0,0,-1,1588,1471,0,0
371,-447,0,0,0,0,0,0,0,0,0,-1,1595,1471,0,0
378,-447,0,0,0,0,0,0,0,0,0,-1,1602,1471,0,0
385,-447,0,0,0,0,0,0,0,0,0,-1,1609,1471,0,0
392,-447,0,0,0,0,0,0,0,0,0,-1,1616,1471,0,0
399,-447,0,0,0,0,0,0,0,0,0,-1,1623,1471,0,0
406,-447,0,0,0,0,0,0,0,0,0,-1,1630,1471,0,0
413,-447,0,0,0,0,0,0,0,0,0,-1,1637,1471,0,0
420,-447,0,0,0,0,0,0,0,0,0,-1,1644,1471,0,0
427,-447,0,0,0,0,0,0,0,0,0,-1,1651,1471,0,0
434,-447,0,0,0,0,0,0,0,0,0,-1,1658,1471,0,0
441,-447,0,0,0,0,0,0,0,0,0,-1,1665,1471,0,0
448,-447,0,0,0,0,0,0,0,0,0,-1,1672,1471,0,0
455,-447,0,0,0,0,0,0,0,0,0,-1,1679,1471,0,0
462,-447,0,0,0,0,0,0,0,0,0,-1,1686,1471,0,0
469,-447,0,0,0,0,0,0,0,0,0,-1,1693,1471,0,0
476,-447,0,0,0,0,0,0,0,0,0,-1,1700,1471,0,0
483,-447,0,0,0,0,0,0,0,0,0,-1,1707,1471,0,0
490,-447,17.8906,2.66907,0,0,0,0,0,0,0,-1,1714,1471,17.8906,-2.66909
497,-447,17.3629,3.01196,-0.0809461,-0.0605391,0.0807795,0.0106788,-0.152164,0.848222,0.105183,0.0469822,1721,1471,17.363,-3.01193
504,-447,16.9426,3.328,-0.0875694,-0.0539,0.0807464,0.0117479,-0.153217,0.88817,0.106278,0.0421291,1728,1471,16.9426,-3.32799
511,-447,16.3353,3.40979,-0.0871244,-0.0488987,0.0790115,0.0132788,-0.149302,0.904069,0.104243,0.0437407,1735,1471,16.3353,-3.40976
518,-447,15.5737,3.55652,-0.082958,-0.0448045,0.0757218,0.0142066,-0.141969,0.908796,0.0997195,0.0455545,1742,1471,15.5737,-3.55648
525,-447,15.2052,3.95215,0,0,0,0,0,0,0,-1,1749,1471,15.2052,-3.9522
532,-447,14.4753,3.96228,0,0,0,0,0,0,0,-1,1756,1471,14.4753,-3.96233
539,-447,12.4082,8.71509,0,0,0,0,0,0,0,-1,1763,1471,12.4082,-8.71511
546,-447,11.9452,8.22241,0,0,0,0,0,0,0,-1,1770,1471,11.9452,-8.22246
553,-447,12.428,9.00293,0,0,0,0,0,0,0,-1,1777,1471,12.428,-9.0029
560,-447,11.527,8.22937,0,0,0,0,0,0,0,-1,1784,1471,11.527,-8.22931
567,-447,11.1746,8.01611,-0.0353534,-0.0246226,0.0368657,0.00726604,-0.0672421,0.85766,0.0474359,0.0438542,1791,1471,11.1746,-8.01608
574,-447,10.793,7.87903,-0.0281926,-0.0215701,0.0298566,0.00515829,-0.054921,0.840625,0.038449,0.0290289,1798,1471,10.793,-7.87898
581,-447,10.6716,7.89331,-0.0216712,-0.0173508,0.0228341,0.00342507,-0.042447,0.83256,0.0295061,0.0142291,1805,1471,10.6716,-7.89327
588,-447,10.6859,7.70215,-0.0158693,-0.0140366,0.017241,0.00231237,-0.0322183,0.811948,0.0222896,0.0122539,1812,1471,10.6859,-7.70209
595,-447,10.6736,7.49475,-0.0112808,-0.0107347,0.0123523,0.00134751,-0.023363,0.796449,0.0160434,0.0119551,1819,1471,10.6735,-7.49477
602,-447,10.6682,7.27759,-0.00823953,-0.0078736,0.00842956,0.000374984,-0.0164881,0.796249,0.0111192,0.010938,1826,1471,10.6683,-7.27762
609,-447,10.6721,7.08179,-0.00543868,-0.00517016,0.00516424,-0.000138431,-0.0104704,0.798394,0.00693459,0.0118115,1833,1471,10.6722,-7.08175
616,-447,10.6936,6.87976,-0.00296677,-0.00345229,0.00289844,-0.000300938,-0.00611812,0.743618,0.00398223,0.0139116,1840,1471,10.6936,-6.8798
623,-447,10.6792,6.67017,-0.000756954,-0.00186772,0.00134394,0.000141833,-0.00276651,0.589459,0.00189339,0.014859,1847,1471,10.6792,-6.67022
630,-447,10.6755,6.48901,0.000889052,-0.00150317,0.000394294,0.000952365,-0.00156648,0.159214,0.00146859,0.00906683,1854,1471,10.6756,-6.48904
637,-447,10.6967,6.29565,0.00224791,-0.00108883,-0.000462455,0.00231082,-0.00115173,-0.1352,0.0020361,0.00993515,1861,1471,10.6967,-6.29561
644,-447,10.704,6.11072,0.0035474,-0.000880106,-0.00119267,0.00384823,-0.00118094,-0.247084,0.00303667,0.0102615,1868,1471,10.704,-6.11076
651,-447,10.7217,5.88525,0.00459295,-0.000810457,-0.00172453,0.00509643,-0.00131394,-0.284057,0.0039099,0.0176791,1875,1471,10.7217,-5.8852
658,-447,10.6389,5.7323,0.00546133,-0.000743816,-0.00213295,0.00612379,-0.00140627,-0.301136,0.00462313,0.0269188,1882,1471,10.6389,-5.73235
665,-447,10.6122,5.5188,0.00630989,-0.000757338,-0.00247729,0.00709175,-0.00153921,-0.30572,0.00531571,0.0432929,1889,1471,10.6122,-5.51875
672,-447,10.6039,4.79028,0.00713105,-0.000526558,-0.00270117,0.00798797,-0.00138348,-0.307199,0.00584134,0.049378,1896,1471,10.6039,-4.79033
679,-447,11.3009,5.63232,0,0,0,0,0,0,0,-1,1903,1471,11.3009,-5.63238
686,-447,9.81079,4.30859,0,0,0,0,0,0,0,-1,1910,1471,9.8108,-4.30864
693,-447,10.48,2.08643,0,0,0,0,0,0,0,-1,1917,1471,10.48,-2.08642
700,-447,0,0,0,0,0,0,0,0,0,-1,1924,1471,0,0
707,-447,0,0,0,0,0,0,0,0,0,-1,1931,1471,0,0
714,-447,0,0,0,0,0,0,0,0,0,-1,1938,1471,0,0
721,-447,0,0,0,0,0,0,0,0,0,-1,1945,1471,0,0
728,-447,0,0,0,0,0,0,0,0,0,-1,1952,1471,0,0
735,-447,0,0,0,0,0,0,0,0,0,-1,1959,1471,0,0
742,-447,0,0,0,0,0,0,0,0,0,-1,1966,1471,0,0
749,-447,0,0,0,0,0,0,0,0,0,-1,1973,1471,0,0
756,-447,0,0,0,0,0,0,0,0,0,-1,1980,1471,0,0
763,-447,0,0,0,0,0,0,0,0,0,-1,1987,1471,0,0
770,-447,0,0,0,0,0,0,0,0,0,-1,1994,1471,0,0
777,-447,0,0,0,0,0,0,0,0,0,-1,2001,1471,0,0
784,-447,0,0,0,0,0,0,0,0,0,-1,2008,1471,0,0
791,-447,0,0,0,0,0,0,0,0,0,-1,2015,1471,0,0
798,-447,0,0,0,0,0,0,0,0,0,-1,2022,1471,0,0
805,-447,0,0,0,0,0,0,0,0,0,-1,2029,1471,0,0
812,-447,0,0,0,0,0,0,0,0,0,-1,2036,1471,0,0
-700,-454,0,0,0,0,0,0,0,0,0,-1,524,1478,0,0
-693,-454,0,0,0,0,0,0,0,0,0,-1,531,1478,0,0
-686,-454,0,0,0,0,0,0,0,0,0,-1,538,1478,0,0
-679,-454,0,0,0,0,0,0,0,0,0,-1,545,1478,0,0
-672,-454,0,0,0,0,0,0,0,0,0,-1,552,1478,0,0
-665,-454,0,0,0,0,0,0,0,0,0,-1,559,1478,0,0
-658,-454,0,0,0,0,0,0,0,0,0,-1,566,1478,0,0
-651,-454,0,0,0,0,0,0,0,0,0,-1,573,1478,0,0
-644,-454,0,0,0,0,0,0,0,0,0,-1,580,1478,0,0
-637,-454,0,0,0,0,0,0,0,0,0,-1,587,1478,0,0
-630,-454,0,0,0,0,0,0,0,0,0,-1,594,1478,0,0
-623,-454,0,0,0,0,0,0,0,0,0,-1,601,1478,0,0
-616,-454,0,0,0,0,0,0,0,0,0,-1,608,1478,0,0
-609,-454,0,0,0,0,0,0,0,0,0,-1,615,1478,0,0
-602,-454,0,0,0,0,0,0,0,0,0,-1,622,1478,0,0
-595,-454,0,0,0,0,0,0,0,0,0,-1,629,1478,0,0
-588,-454,0,0,0,0,0,0,0,0,0,-1,636,1478,0,0
-581,-454,0,0,0,0,0,0,0,0,0,-1,643,1478,0,0
-574,-454,-8.17456,0.0469971,0,0,0,0,0,0,0,-1,650,1478,-8.17458,-0.0470304
-567,-454,-7.22113,0.879883,0,0,0,0,0,0,0,-1,657,1478,-7.22115,-0.879856
-560,-454,-6.27887,1.74426,0,0,0,0,0,0,0,-1,664,1478,-6.27888,-1.74421
-553,-454,-4.99518,0.48999,0,0,0,0,0,0,0,-1,671,1478,-4.9952,-0.490048
-546,-454,-4.33765,1.31409,0.0666829,-0.0136554,0.0423085,0.0848539,-0.0318264,0.405665,0.0696458,0.0494588,678,1478,-4.33763,-1.31404
-539,-454,-3.66919,2.13025,0.0523088,-0.0112967,0.0328294,0.0662136,-0.0252015,0.400641,0.0545203,0.0485135,685,1478,-3.66921,-2.1303
-532,-454,-2.88519,2.86084,0.0405136,-0.0089825,0.0251192,0.051028,-0.0194969,0.39642,0.0420522,0.0459682,692,1478,-2.88519,-2.86078
-525,-454,-2.46191,3.56152,0.0309446,-0.0068243,0.018893,0.0387729,-0.0146525,0.392812,0.0318758,0.0390728,699,1478,-2.4619,-3.56157
-518,-454,-2.34479,4.17993,0.0233073,-0.00497283,0.0139385,0.0290223,-0.0106878,0.389109,0.0237272,0.0247134,706,1478,-2.34476,-4.17994
-511,-454,-2.41437,4.29761,0.0173183,-0.00350023,0.0100512,0.021379,-0.00756094,0.383951,0.0173317,0.0160787,713,1478,-2.41434,-4.29763
-504,-454,-2.40057,4.53528,0.0126203,-0.00254804,0.00693533,0.0153132,-0.00524096,0.37037,0.0123328,0.015534,720,1478,-2.40057,-4.5353
-497,-454,-2.39941,4.76355,0.00894365,-0.00204328,0.00444094,0.0105142,-0.00361382,0.339922,0.00847491,0.0182433,727,1478,-2.39942,-4.7635
-490,-454,-2.39191,4.98792,0.00551939,-0.0020623,0.00220928,0.00611619,-0.0026591,0.263836,0.00519582,0.0166321,734,1478,-2.39188,-4.98789
-483,-454,-2.39941,5.19446,0.00294725,-0.00267322,0.000383106,0.00297325,-0.00269921,0.0677449,0.00327627,0.0154328,741,1478,-2.39943,-5.19451
-476,-454,-2.41565,5.38245,0.00115556,-0.00351552,-0.0010747,0.00139096,-0.00375092,-0.215632,0.00307112,0.0132064,748,1478,-2.41566,-5.38248
-469,-454,-2.4035,5.63416,9.03817e-05,-0.00504747,-0.00250041,0.00110634,-0.00606343,-0.385942,0.00445708,0.00959732,755,1478,-2.40348,-5.63413
-462,-454,-2.42529,5.86243,-0.000451761,-0.00710347,-0.00376759,0.00124792,-0.00880315,-0.423795,0.0063259,0.01029,762,1478,-2.42532,-5.86247
-455,-454,-2.43518,6.073,-0.00100118,-0.00977766,-0.00507643,0.00132078,-0.0120996,-0.428991,0.00854078,0.0114771,769,1478,-2.43516,-6.07294
-448,-454,-2.42224,6.28296,-0.00136832,-0.0130917,-0.00653735,0.00155045,-0.0160105,-0.419919,0.0112262,0.0122337,776,1478,-2.42224,-6.28301
-441,-454,-2.28357,6.5033,-0.00194439,-0.016825,-0.00821872,0.00170158,-0.020471,-0.417533,0.0142484,0.021478,783,1478,-2.28358,-6.50332
-434,-454,-2.15778,6.5929,-0.00274642,-0.0209735,-0.0101402,0.00177385,-0.0254937,-0.419336,0.0176169,0.0323192,790,1478,-2.15775,-6.59291
-427,-454,-2.21271,6.48279,-0.00389508,-0.0255369,-0.012326,0.00168589,-0.0311179,-0.425165,0.0213294,0.0440443,797,1478,-2.2127,-6.48273
-420,-454,-2.26007,6.46973,0,0,0,0,0,0,0,-1,804,1478,-2.26006,-6.46971
-413,-454,-2.25153,5.31165,0,0,0,0,0,0,0,-1,811,1478,-2.25154,-5.31159
-406,-454,-1.03931,8.49329,0,0,0,0,0,0,0,-1,818,1478,-1.03933,-8.49333
-399,-454,-1.20758,6.51941,0,0,0,0,0,0,0,-1,825,1478,-1.20757,-6.51941
-392,-454,0.0967407,0.985474,0,0,0,0,0,0,0,-1,832,1478,0.0967364,-0.985529
-385,-454,2.38629,3.297,0,0,0,0,0,0,0,-1,839,1478,2.38629,-3.29702
-378,-454,3.80048,3.42151,0,0,0,0,0,0,0,-1,846,1478,3.80046,-3.4215
-371,-454,1.25891,1.51331,0,0,0,0,0,0,0,-1,853,1478,1.25891,-1.51328
-364,-454,1.08124,0.819458,0,0,0,0,0,0,0,-1,860,1478,1.08124,-0.819513
-357,-454,0,0,0,0,0,0,0,0,0,-1,867,1478,0,0
-350,-454,0,0,0,0,0,0,0,0,0,-1,874,1478,0,0
-343,-454,0,0,0,0,0,0,0,0,0,-1,881,1478,0,0
-336,-454,0,0,0,0,0,0,0,0,0,-1,888,1478,0,0
-329,-454,0,0,0,0,0,0,0,0,0,-1,895,1478,0,0
-322,-454,0,0,0,0,0,0,0,0,0,-1,902,1478,0,0
-315,-454,0,0,0,0,0,0,0,0,0,-1,909,1478,0,0
-308,-454,0,0,0,0,0,0,0,0,0,-1,916,1478,0,0
-301,-454,0,0,0,0,0,0,0,0,0,-1,923,1478,0,0
-294,-454,0,0,0,0,0,0,0,0,0,-1,930,1478,0,0
-287,-454,0,0,0,0,0,0,0,0,0,-1,937,1478,0,0
-280,-454,0,0,0,0,0,0,0,0,0,-1,944,1478,0,0
-273,-454,0,0,0,0,0,0,0,0,0,-1,951,1478,0,0
-266,-454,0,0,0,0,0,0,0,0,0,-1,958,1478,0,0
-259,-454,0,0,0,0,0,0,0,0,0,-1,965,1478,0,0
-252,-454,0,0,0,0,0,0,0,0,0,-1,972,1478,0,0
-245,-454,0,0,0,0,0,0,0,0,0,-1,979,1478,0,0
-238,-454,0,0,0,0,0,0,0,0,0,-1,986,1478,0,0
-231,-454,0,0,0,0,0,0,0,0,0,-1,993,1478,0,0
-224,-454,0,0,0,0,0,0,0,0,0,-1,1000,1478,0,0
-217,-454,0,0,0,0,0,0,0,0,0,-1,1007,1478,0,0
-210,-454,0,0,0,0,0,0,0,0,0,-1,1014,1478,0,0
-203,-454,0,0,0,0,0,0,0,0,0,-1,1021,1478,0,0
-196,-454,0,0,0,0,0,0,0,0,0,-1,1028,1478,0,0
-189,-454,0,0,0,0,0,0,0,0,0,-1,1035,1478,0,0
-182,-454,0,0,0,0,0,0,0,0,0,-1,1042,1478,0,0
-175,-454,0,0,0,0,0,0,0,0,0,-1,1049,1478,0,0
-168,-454,0,0,0,0,0,0,0,0,0,-1,1056,1478,0,0
-161,-454,0,0,0,0,0,0,0,0,0,-1,1063,1478,0,0
-154,-454,0,0,0,0,0,0,0,0,0,-1,1070,1478,0,0
-147,-454,0,0,0,0,0,0,0,0,0,-1,1077,1478,0,0
-140,-454,0,0,0,0,0,0,0,0,0,-1,1084,1478,0,0
-133,-454,0,0,0,0,0,0,0,0,0,-1,1091,1478,0,0
-126,-454,0,0,0,0,0,0,0,0,0,-1,1098,1478,0,0
-119,-454,0,0,0,0,0,0,0,0,0,-1,1105,1478,0,0
-112,-454,0,0,0,0,0,0,0,0,0,-1,1112,1478,0,0
-105,-454,0,0,0,0,0,0,0,0,0,-1,1119,1478,0,0
-98,-454,0,0,0,0,0,0,0,0,0,-1,1126,1478,0,0
-91,-454,0,0,0,0,0,0,0,0,0,-1,1133,1478,0,0
-84,-454,0,0,0,0,0,0,0,0,0,-1,1140,1478,0,0
-77,-454,0,0,0,0,0,0,0,0,0,-1,1147,1478,0,0
-70,-454,0,0,0,0,0,0,0,0,0,-1,1154,1478,0,0
-63,-454,0,0,0,0,0,0,0,0,0,-1,1161,1478,0,0
-56,-454,0,0,0,0,0,0,0,0,0,-1,1168,1478,0,0
-49,-454,0,0,0,0,0,0,0,0,0,-1,1175,1478,0,0
-42,-454,0,0,0,0,0,0,0,0,0,-1,1182,1478,0,0
-35,-454,0,0,0,0,0,0,0,0,0,-1,1189,1478,0,0
-28,-454,0,0,0,0,0,0,0,0,0,-1,1196,1478,0,0
-21,-454,0,0,0,0,0,0,0,0,0,-1,1203,1478,0,0
-14,-454,0,0,0,0,0,0,0,0,0,-1,1210,1478,0,0
-7,-454,0,0,0,0,0,0,0,0,0,-1,1217,1478,0,0
0,-454,0,0,0,0,0,0,0,0,0,-1,1224,1478,0,0
7,-454,0,0,0,0,0,0,0,0,0,-1,1231,1478,0,0
14,-454,0,0,0,0,0,0,0,0,0,-1,1238,1478,0,0
21,-454,0,0,0,0,0,0,0,0,0,-1,1245,1478,0,0
28,-454,0,0,0,0,0,0,0,0,0,-1,1252,1478,0,0
35,-454,0,0,0,0,0,0,0,0,0,-1,1259,1478,0,0
42,-454,0,0,0,0,0,0,0,0,0,-1,1266,1478,0,0
49,-454,0,0,0,0,0,0,0,0,0,-1,1273,1478,0,0
56,-454,0,0,0,0,0,0,0,0,0,-1,1280,1478,0,0
63,-454,0,0,0,0,0,0,0,0,0,-1,1287,1478,0,0
70,-454,0,0,0,0,0,0,0,0,0,-1,1294,1478,0,0
77,-454,0,0,0,0,0,0,0,0,0,-1,1301,1478,0,0
84,-454,0,0,0,0,0,0,0,0,0,-1,1308,1478,0,0
91,-454,0,0,0,0,0,0,0,0,0,-1,1315,1478,0,0
98,-454,0,0,0,0,0,0,0,0,0,-1,1322,1478,0,0
105,-454,0,0,0,0,0,0,0,0,0,-1,1329,1478,0,0
112,-454,0,0,0,0,0,0,0,0,0,-1,1336,1478,0,0
119,-454,0,0,0,0,0,0,0,0,0,-1,1343,1478,0,0
126,-454,0,0,0,0,0,0,0,0,0,-1,1350,1478,0,0
133,-454,0,0,0,0,0,0,0,0,0,-1,1357,1478,0,0
140,-454,0,0,0,0,0,0,0,0,0,-1,1364,1478,0,0
147,-454,0,0,0,0,0,0,0,0,0,-1,1371,1478,0,0
154,-454,0,0,0,0,0,0,0,0,0,-1,1378,1478,0,0
161,-454,0,0,0,0,0,0,0,0,0,-1,1385,1478,0,0
168,-454,0,0,0,0,0,0,0,0,0,-1,1392,1478,0,0
175,-454,0,0,0,0,0,0,0,0,0,-1,1399,1478,0,0
182,-454,0,0,0,0,0,0,0,0,0,-1,1406,1478,0,0
189,-454,0,0,0,0,0,0,0,0,0,-1,1413,1478,0,0
196,-454,0,0,0,0,0,0,0,0,0,-1,1420,1478,0,0
203,-454,0,0,0,0,0,0,0,0,0,-1,1427,1478,0,0
210,-454,0,0,0,0,0,0,0,0,0,-1,1434,1478,0,0
217,-454,0,0,0,0,0,0,0,0,0,-1,1441,1478,0,0
224,-454,0,0,0,0,0,0,0,0,0,-1,1448,1478,0,0
231,-454,0,0,0,0,0,0,0,0,0,-1,1455,1478,0,0
238,-454,0,0,0,0,0,0,0,0,0,-1,1462,1478,0,0
245,-454,0,0,0,0,0,0,0,0,0,-1,1469,1478,0,0
252,-454,0,0,0,0,0,0,0,0,0,-1,1476,1478,0,0
259,-454,0,0,0,0,0,0,0,0,0,-1,1483,1478,0,0
266,-454,0,0,0,0,0,0,0,0,0,-1,1490,1478,0,0
273,-454,0,0,0,0,0,0,0,0,0,-1,1497,1478,0,0
280,-454,0,0,0,0,0,0,0,0,0,-1,1504,1478,0,0
287,-454,0,0,0,0,0,0,0,0,0,-1,1511,1478,0,0
294,-454,0,0,0,0,0,0,0,0,0,-1,1518,1478,0,0
301,-454,0,0,0,0,0,0,0,0,0,-1,1525,1478,0,0
308,-454,0,0,0,0,0,0,0,0,0,-1,1532,1478,0,0
315,-454,0,0,0,0,0,0,0,0,0,-1,1539,1478,0,0
322,-454,0,0,0,0,0,0,0,0,0,-1,1546,1478,0,0
329,-454,0,0,0,0,0,0,0,0,0,-1,1553,1478,0,0
336,-454,0,0,0,0,0,0,0,0,0,-1,1560,1478,0,0
343,-454,0,0,0,0,0,0,0,0,0,-1,1567,1478,0,0
350,-454,0,0,0,0,0,0,0,0,0,-1,1574,1478,0,0
357,-454,0,0,0,0,0,0,0,0,0,-1,1581,1478,0,0
364,-454,0,0,0,0,0,0,0,0,0,-1,1588,1478,0,0
371,-454,0,0,0,0,0,0,0,0,0,-1,1595,1478,0,0
378,-454,0,0,0,0,0,0,0,0,0,-1,1602,1478,0,0
385,-454,0,0,0,0,0,0,0,0,0,-1,1609,1478,0,0
392,-454,0,0,0,0,0,0,0,0,0,-1,1616,1478,0,0
399,-454,0,0,0,0,0,0,0,0,0,-1,1623,1478,0,0
406,-454,0,0,0,0,0,0,0,0,0,-1,1630,1478,0,0
413,-454,0,0,0,0,0,0,0,0,0,-1,1637,1478,0,0
420,-454,0,0,0,0,0,0,0,0,0,-1,1644,1478,0,0
427,-454,0,0,0,0,0,0,0,0,0,-1,1651,1478,0,0
434,-454,0,0,0,0,0,0,0,0,0,-1,1658,1478,0,0
441,-454,0,0,0,0,0,0,0,0,0,-1,1665,1478,0,0
448,-454,0,0,0,0,0,0,0,0,0,-1,1672,1478,0,0
455,-454,0,0,0,0,0,0,0,0,0,-1,1679,1478,0,0
462,-454,0,0,0,0,0,0,0,0,0,-1,1686,1478,0,0
469,-454,0,0,0,0,0,0,0,0,0,-1,1693,1478,0,0
476,-454,0,0,0,0,0,0,0,0,0,-1,1700,1478,0,0
483,-454,12.265,3.05029,0,0,0,0,0,0,0,-1,1707,1478,12.2651,-3.05029
490,-454,16.9352,3.39575,0,0,0,0,0,0,0,-1,1714,1478,16.9352,-3.3957
497,-454,16.3926,3.73157,-0.0800304,-0.0638825,0.0797041,0.00815555,-0.152068,0.835875,0.104204,0.048034,1721,1478,16.3926,-3.7316
504,-454,16.0066,4.04053,-0.0842249,-0.0568331,0.077669,0.00833829,-0.149396,0.872669,0.10249,0.0450887,1728,1478,16.0066,-4.04047
511,-454,15.3889,3.97827,-0.0821552,-0.0509941,0.074177,0.00922102,-0.14237,0.888916,0.0981317,0.0430736,1735,1478,15.3889,-3.97821
518,-454,14.4576,4.35889,-0.0768693,-0.0457921,0.0696138,0.00999622,-0.132658,0.895204,0.0919518,0.043829,1742,1478,14.4576,-4.35884
525,-454,13.7157,5.28003,-0.0701938,-0.0412291,0.0643328,0.0102313,-0.121654,0.896111,0.0847195,0.045407,1749,1478,13.7158,-5.28003
532,-454,13.0878,6.16162,0,0,0,0,0,0,0,-1,1756,1478,13.0878,-6.16167
539,-454,10.8339,7.98499,0,0,0,0,0,0,0,-1,1763,1478,10.8338,-7.98494
546,-454,11.4945,7.77954,0,0,0,0,0,0,0,-1,1770,1478,11.4945,-7.7796
553,-454,10.2988,7.83789,0,0,0,0,0,0,0,-1,1777,1478,10.2988,-7.83789
560,-454,10.6379,8.31287,-0.0346459,-0.0228161,0.0346348,0.00640519,-0.0638672,0.869972,0.0448659,0.0465146,1784,1478,10.6379,-8.31291
567,-454,10.5454,8.20129,-0.0272202,-0.0202491,0.028823,0.00529835,-0.0527677,0.84557,0.037071,0.0252066,1791,1478,10.5454,-8.20129
574,-454,10.4775,8.02454,-0.0203594,-0.0169082,0.0221332,0.00356665,-0.0408342,0.824301,0.0284862,0.0131826,1798,1478,10.4775,-8.02448
581,-454,10.4771,7.85535,-0.014666,-0.0127701,0.0158864,0.00219666,-0.0296327,0.815198,0.0205266,0.0108263,1805,1478,10.477,-7.8553
588,-454,10.4799,7.67798,-0.0101199,-0.00985786,0.0114821,0.00149391,-0.0214717,0.791104,0.0148375,0.0119709,1812,1478,10.4799,-7.67796
595,-454,10.465,7.48926,-0.00685952,-0.00721486,0.00793153,0.000896329,-0.0149707,0.7742,0.0102923,0.0111308,1819,1478,10.465,-7.48932
602,-454,10.4629,7.28687,-0.00494249,-0.00513691,0.00540208,0.000363254,-0.0104426,0.776402,0.00708595,0.00846844,1826,1478,10.4628,-7.28682
609,-454,10.4845,7.10217,-0.00302859,-0.00322052,0.00320947,8.63525e-05,-0.00633546,0.770453,0.00425272,0.0104518,1833,1478,10.4844,-7.10219
616,-454,10.5085,6.90283,-0.00126559,-0.00224454,0.0016618,-2.2674e-05,-0.00348745,0.642175,0.00231745,0.014268,1840,1478,10.5085,-6.90279
623,-454,10.5055,6.69385,0.000404035,-0.00121594,0.000579526,0.000590004,-0.00140191,0.310519,0.00118145,0.0110266,1847,1478,10.5055,-6.69382
630,-454,10.4869,6.50391,0.0018561,-0.00114986,-0.000117021,0.00186065,-0.00115441,-0.0388512,0.00175659,0.00892754,1854,1478,10.4869,-6.50397
637,-454,10.4838,6.31091,0.00315612,-0.0010525,-0.000795728,0.00330154,-0.00119792,-0.180761,0.00269074,0.00900483,1861,1478,10.4837,-6.31095
644,-454,10.528,6.0957,0.00456255,-0.001083,-0.0014802,0.00492711,-0.00144755,-0.241479,0.00385884,0.0148383,1868,1478,10.528,-6.0957
651,-454,10.4277,5.91443,0.00582337,-0.00128244,-0.00200099,0.0063481,-0.00180717,-0.25646,0.00494576,0.0255413,1875,1478,10.4278,-5.9144
658,-454,10.4811,5.71997,0.00713577,-0.00142427,-0.0025413,0.00783338,-0.00212187,-0.267909,0.00605477,0.0355348,1882,1478,10.4811,-5.71999
665,-454,10.6677,5.60742,0.00871997,-0.00142049,-0.00326824,0.00968204,-0.00238255,-0.286283,0.00737824,0.0484931,1889,1478,10.6678,-5.60739
672,-454,10.7512,5.40063,0,0,0,0,0,0,0,-1,1896,1478,10.7512,-5.40064
679,-454,10.6316,4.64185,0,0,0,0,0,0,0,-1,1903,1478,10.6316,-4.64179
686,-454,10.3767,2.12842,0,0,0,0,0,0,0,-1,1910,1478,10.3767,-2.12839
693,-454,11.1857,1.48486,0,0,0,0,0,0,0,-1,1917,1478,11.1857,-1.48487
700,-454,0,0,0,0,0,0,0,0,0,-1,1924,1478,0,0
707,-454,0,0,0,0,0,0,0,0,0,-1,1931,1478,0,0
714,-454,0,0,0,0,0,0,0,0,0,-1,1938,1478,0,0
721,-454,0,0,0,0,0,0,0,0,0,-1,1945,1478,0,0
728,-454,0,0,0,0,0,0,0,0,0,-1,1952,1478,0,0
735,-454,0,0,0,0,0,0,0,0,0,-1,1959,1478,0,0
742,-454,0,0,0,0,0,0,0,0,0,-1,1966,1478,0,0
749,-454,0,0,0,0,0,0,0,0,0,-1,1973,1478,0,0
756,-454,0,0,0,0,0,0,0,0,0,-1,1980,1478,0,0
763,-454,0,0,0,0,0,0,0,0,0,-1,1987,1478,0,0
770,-454,0,0,0,0,0,0,0,0,0,-1,1994,1478,0,0
777,-454,0,0,0,0,0,0,0,0,0,-1,2001,1478,0,0
784,-454,0,0,0,0,0,0,0,0,0,-1,2008,1478,0,0
791,-454,0,0,0,0,0,0,0,0,0,-1,2015,1478,0,0
798,-454,0,0,0,0,0,0,0,0,0,-1,2022,1478,0,0
805,-454,0,0,0,0,0,0,0,0,0,-1,2029,1478,0,0
812,-454,0,0,0,0,0,0,0,0,0,-1,2036,1478,0,0
-700,-461,0,0,0,0,0,0,0,0,0,-1,524,1485,0,0
-693,-461,0,0,0,0,0,0,0,0,0,-1,531,1485,0,0
-686,-461,0,0,0,0,0,0,0,0,0,-1,538,1485,0,0
-679,-461,0,0,0,0,0,0,0,0,0,-1,545,1485,0,0
-672,-461,0,0,0,0,0,0,0,0,0,-1,552,1485,0,0
-665,-461,0,0,0,0,0,0,0,0,0,-1,559,1485,0,0
-658,-461,0,0,0,0,0,0,0,0,0,-1,566,1485,0,0
-651,-461,0,0,0,0,0,0,0,0,0,-1,573,1485,0,0
-644,-461,0,0,0,0,0,0,0,0,0,-1,580,1485,0,0
-637,-461,0,0,0,0,0,0,0,0,0,-1,587,1485,0,0
-630,-461,0,0,0,0,0,0,0,0,0,-1,594,1485,0,0
-623,-461,0,0,0,0,0,0,0,0,0,-1,601,1485,0,0
-616,-461,0,0,0,0,0,0,0,0,0,-1,608,1485,0,0
-609,-461,0,0,0,0,0,0,0,0,0,-1,615,1485,0,0
-602,-461,0,0,0,0,0,0,0,0,0,-1,622,1485,0,0
-595,-461,0,0,0,0,0,0,0,0,0,-1,629,1485,0,0
-588,-461,0,0,0,0,0,0,0,0,0,-1,636,1485,0,0
-581,-461,0,0,0,0,0,0,0,0,0,-1,643,1485,0,0
-574,-461,0,0,0,0,0,0,0,0,0,-1,650,1485,0,0
-567,-461,-8.39716,0.618896,0,0,0,0,0,0,0,-1,657,1485,-8.39716,-0.618902
-560,-461,-7.28815,1.54004,0,0,0,0,0,0,0,-1,664,1485,-7.28817,-1.54005
-553,-461,-5.40015,0.480225,0,0,0,0,0,0,0,-1,671,1485,-5.40014,-0.480257
-546,-461,-4.70245,1.45129,0.0784284,-0.0214757,0.0462189,0.0965307,-0.039578,0.3733,0.080843,0.0474085,678,1485,-4.70246,-1.45135
-539,-461,-3.74072,2.12976,0.0612386,-0.0169783,0.0358939,0.0752135,-0.0309532,0.371282,0.0630459,0.0448357,685,1485,-3.7407,-2.12971
-532,-461,-2.93054,2.88831,0.0473308,-0.0130784,0.0275058,0.0579782,-0.0237258,0.369335,0.0485339,0.0417295,692,1485,-2.93054,-2.88828
-525,-461,-2.53961,3.52954,0.0361145,-0.0097559,0.0207141,0.044084,-0.0177253,0.367278,0.0367513,0.0427618,699,1485,-2.53959,-3.52959
-518,-461,-2.26996,4.11206,0.0271669,-0.00699983,0.0153028,0.0330186,-0.0128515,0.365237,0.027323,0.0341585,706,1485,-2.26999,-4.11209
-511,-461,-2.13843,4.35071,0.0201269,-0.00481876,0.0110591,0.0243237,-0.00901553,0.362697,0.0199133,0.0184794,713,1485,-2.13842,-4.35067
-504,-461,-2.17456,4.53833,0.0146171,-0.00322799,0.00774487,0.0175096,-0.00612047,0.35743,0.0141612,0.0118004,720,1485,-2.17458,-4.53835
-497,-461,-2.16638,4.77649,0.0103467,-0.00227395,0.00512521,0.0121658,-0.00409308,0.341066,0.00976517,0.0109984,727,1485,-2.16641,-4.77647
-490,-461,-2.17407,4.99023,0.00652248,-0.00187106,0.00278212,0.0073609,-0.00270947,0.292702,0.00601731,0.0111456,734,1485,-2.17405,-4.99029
-483,-461,-2.18011,5.21399,0.00363205,-0.00209077,0.000952771,0.0037865,-0.00224522,0.160713,0.00352011,0.0121147,741,1485,-2.18013,-5.21394
-476,-461,-2.19434,5.4397,0.0017366,-0.00250687,-0.000413253,0.00177647,-0.00254674,-0.0961814,0.00250918,0.0112412,748,1485,-2.19433,-5.43964
-469,-461,-2.19482,5.6532,0.000745195,-0.00363242,-0.001742,0.00135379,-0.00424102,-0.336108,0.00337049,0.0121228,755,1485,-2.19485,-5.65317
-462,-461,-2.19507,5.84412,0.000411011,-0.00522469,-0.00283284,0.00158882,-0.0064025,-0.394026,0.00488484,0.0159509,762,1485,-2.19505,-5.84413
-455,-461,-2.18671,6.05359,9.56154e-05,-0.00737173,-0.00384123,0.00171875,-0.00899486,-0.399799,0.00664401,0.020976,769,1485,-2.18673,-6.05359
-448,-461,-2.1756,6.29272,4.24963e-05,-0.0101223,-0.00489952,0.00201957,-0.0120993,-0.383541,0.00881685,0.017176,776,1485,-2.17557,-6.29269
-441,-461,-2.15833,6.53442,-4.03715e-05,-0.0130451,-0.00613055,0.00239395,-0.0154794,-0.377987,0.0112032,0.0140117,783,1485,-2.15833,-6.53441
-434,-461,-2.02325,6.68335,-0.000304165,-0.0161817,-0.00752423,0.00269499,-0.0191808,-0.379299,0.0137737,0.0200988,790,1485,-2.02323,-6.68336
-427,-461,-1.98352,6.77808,-0.000922047,-0.0194993,-0.00913118,0.00281457,-0.0232359,-0.388425,0.016509,0.0282782,797,1485,-1.98351,-6.77808
-420,-461,-2.05017,6.65417,-0.00209662,-0.0223902,-0.0108019,0.0025768,-0.0270637,-0.40833,0.0189598,0.0465188,804,1485,-2.05017,-6.6542
-413,-461,-2.07794,6.53406,0,0,0,0,0,0,0,-1,811,1485,-2.07793,-6.53412
-406,-461,-1.15381,7.74561,0,0,0,0,0,0,0,-1,818,1485,-1.15378,-7.74565
-399,-461,-0.222168,7.8396,0,0,0,0,0,0,0,-1,825,1485,-0.22214,-7.83956
-392,-461,-0.357544,5.55225,0,0,0,0,0,0,0,-1,832,1485,-0.357536,-5.55228
-385,-461,1.71509,3.35254,0,0,0,0,0,0,0,-1,839,1485,1.71511,-3.35255
-378,-461,1.95996,3.01111,0,0,0,0,0,0,0,-1,846,1485,1.95993,-3.01111
-371,-461,0.702881,2.33459,0,0,0,0,0,0,0,-1,853,1485,0.702859,-2.33459
-364,-461,-1.93097,2.56458,0,0,0,0,0,0,0,-1,860,1485,-1.93095,-2.56456
-357,-461,-2.41516,3.49487,0,0,0,0,0,0,0,-1,867,1485,-2.41517,-3.49487
-350,-461,0,0,0,0,0,0,0,0,0,-1,874,1485,0,0
-343,-461,0,0,0,0,0,0,0,0,0,-1,881,1485,0,0
-336,-461,0,0,0,0,0,0,0,0,0,-1,888,1485,0,0
-329,-461,0,0,0,0,0,0,0,0,0,-1,895,1485,0,0
-322,-461,0,0,0,0,0,0,0,0,0,-1,902,1485,0,0
-315,-461,0,0,0,0,0,0,0,0,0,-1,909,1485,0,0
-308,-461,0,0,0,0,0,0,0,0,0,-1,916,1485,0,0
-301,-461,0,0,0,0,0,0,0,0,0,-1,923,1485,0,0
-294,-461,0,0,0,0,0,0,0,0,0,-1,930,1485,0,0
-287,-461,0,0,0,0,0,0,0,0,0,-1,937,1485,0,0
-280,-461,0,0,0,0,0,0,0,0,0,-1,944,1485,0,0
-273,-461,0,0,0,0,0,0,0,0,0,-1,951,1485,0,0
-266,-461,0,0,0,0,0,0,0,0,0,-1,958,1485,0,0
-259,-461,0,0,0,0,0,0,0,0,0,-1,965,1485,0,0
-252,-461,0,0,0,0,0,0,0,0,0,-1,972,1485,0,0
-245,-461,0,0,0,0,0,0,0,0,0,-1,979,1485,0,0
-238,-461,0,0,0,0,0,0,0,0,0,-1,986,1485,0,0
-231,-461,0,0,0,0,0,0,0,0,0,-1,993,1485,0,0
-224,-461,0,0,0,0,0,0,0,0,0,-1,1000,1485,0,0
-217,-461,0,0,0,0,0,0,0,0,0,-1,1007,1485,0,0
-210,-461,0,0,0,0,0,0,0,0,0,-1,1014,1485,0,0
-203,-461,0,0,0,0,0,0,0,0,0,-1,1021,1485,0,0
-196,-461,0,0,0,0,0,0,0,0,0,-1,1028,1485,0,0
-189,-461,0,0,0,0,0,0,0,0,0,-1,1035,1485,0,0
-182,-461,0,0,0,0,0,0,0,0,0,-1,1042,1485,0,0
-175,-461,0,0,0,0,0,0,0,0,0,-1,1049,1485,0,0
-168,-461,0,0,0,0,0,0,0,0,0,-1,1056,1485,0,0
-161,-461,0,0,0,0,0,0,0,0,0,-1,1063,1485,0,0
-154,-461,0,0,0,0,0,0,0,0,0,-1,1070,1485,0,0
-147,-461,0,0,0,0,0,0,0,0,0,-1,1077,1485,0,0
-140,-461,0,0,0,0,0,0,0,0,0,-1,1084,1485,0,0
-133,-461,0,0,0,0,0,0,0,0,0,-1,1091,1485,0,0
-126,-461,0,0,0,0,0,0,0,0,0,-1,1098,1485,0,0
-119,-461,0,0,0,0,0,0,0,0,0,-1,1105,1485,0,0
-112,-461,0,0,0,0,0,0,0,0,0,-1,1112,1485,0,0
-105,-461,0,0,0,0,0,0,0,0,0,-1,1119,1485,0,0
-98,-461,0,0,0,0,0,0,0,0,0,-1,1126,1485,0,0
-91,-461,0,0,0,0,0,0,0,0,0,-1,1133,1485,0,0
-84,-461,0,0,0,0,0,0,0,0,0,-1,1140,1485,0,0
-77,-461,0,0,0,0,0,0,0,0,0,-1,1147,1485,0,0
-70,-461,0,0,0,0,0,0,0,0,0,-1,1154,1485,0,0
-63,-461,0,0,0,0,0,0,0,0,0,-1,1161,1485,0,0
-56,-461,0,0,0,0,0,0,0,0,0,-1,1168,1485,0,0
-49,-461,0,0,0,0,0,0,0,0,0,-1,1175,1485,0,0
-42,-461,0,0,0,0,0,0,0,0,0,-1,1182,1485,0,0
-35,-461,0,0,0,0,0,0,0,0,0,-1,1189,1485,0,0
-28,-461,0,0,0,0,0,0,0,0,0,-1,1196,1485,0,0
-21,-461,0,0,0,0,0,0,0,0,0,-1,1203,1485,0,0
-14,-461,0,0,0,0,0,0,0,0,0,-1,1210,1485,0,0
-7,-461,0,0,0,0,0,0,0,0,0,-1,1217,1485,0,0
0,-461,0,0,0,0,0,0,0,0,0,-1,1224,1485,0,0
7,-461,0,0,0,0,0,0,0,0,0,-1,1231,1485,0,0
14,-461,0,0,0,0,0,0,0,0,0,-1,1238,1485,0,0
21,-461,0,0,0,0,0,0,0,0,0,-1,1245,1485,0,0
28,-461,0,0,0,0,0,0,0,0,0,-1,1252,1485,0,0
35,-461,0,0,0,0,0,0,0,0,0,-1,1259,1485,0,0
42,-461,0,0,0,0,0,0,0,0,0,-1,1266,1485,0,0
49,-461,0,0,0,0,0,0,0,0,0,-1,1273,1485,0,0
56,-461,0,0,0,0,0,0,0,0,0,-1,1280,1485,0,0
63,-461,0,0,0,0,0,0,0,0,0,-1,1287,1485,0,0
70,-461,0,0,0,0,0,0,0,0,0,-1,1294,1485,0,0
77,-461,0,0,0,0,0,0,0,0,0,-1,1301,1485,0,0
84,-461,0,0,0,0,0,0,0,0,0,-1,1308,1485,0,0
91,-461,0,0,0,0,0,0,0,0,0,-1,1315,1485,0,0
98,-461,0,0,0,0,0,0,0,0,0,-1,1322,1485,0,0
105,-461,0,0,0,0,0,0,0,0,0,-1,1329,1485,0,0
112,-461,0,0,0,0,0,0,0,0,0,-1,1336,1485,0,0
119,-461,0,0,0,0,0,0,0,0,0,-1,1343,1485,0,0
126,-461,0,0,0,0,0,0,0,0,0,-1,1350,1485,0,0
133,-461,0,0,0,0,0,0,0,0,0,-1,1357,1485,0,0
140,-461,0,0,0,0,0,0,0,0,0,-1,1364,1485,0,0
147,-461,0,0,0,0,0,0,0,0,0,-1,1371,1485,0,0
154,-461,0,0,0,0,0,0,0,0,0,-1,1378,1485,0,0
161,-461,0,0,0,0,0,0,0,0,0,-1,1385,1485,0,0
168,-461,0,0,0,0,0,0,0,0,0,-1,1392,1485,0,0
175,-461,0,0,0,0,0,0,0,0,0,-1,1399,1485,0,0
182,-461,0,0,0,0,0,0,0,0,0,-1,1406,1485,0,0
189,-461,0,0,0,0,0,0,0,0,0,-1,1413,1485,0,0
196,-461,0,0,0,0,0,0,0,0,0,-1,1420,1485,0,0
203,-461,0,0,0,0,0,0,0,0,0,-1,1427,1485,0,0
210,-461,0,0,0,0,0,0,0,0,0,-1,1434,1485,0,0
217,-461,0,0,0,0,0,0,0,0,0,-1,1441,1485,0,0
224,-461,0,0,0,0,0,0,0,0,0,-1,1448,1485,0,0
231,-461,0,0,0,0,0,0,0,0,0,-1,1455,1485,0,0
238,-461,0,0,0,0,0,0,0,0,0,-1,1462,1485,0,0
245,-461,0,0,0,0,0,0,0,0,0,-1,1469,1485,0,0
252,-461,0,0,0,0,0,0,0,0,0,-1,1476,1485,0,0
259,-461,0,0,0,0,0,0,0,0,0,-1,1483,1485,0,0
266,-461,0,0,0,0,0,0,0,0,0,-1,1490,1485,0,0
273,-461,0,0,0,0,0,0,0,0,0,-1,1497,1485,0,0
280,-461,0,0,0,0,0,0,0,0,0,-1,1504,1485,0,0
287,-461,0,0,0,0,0,0,0,0,0,-1,1511,1485,0,0
294,-461,0,0,0,0,0,0,0,0,0,-1,1518,1485,0,0
301,-461,0,0,0,0,0,0,0,0,0,-1,1525,1485,0,0
308,-461,0,0,0,0,0,0,0,0,0,-1,1532,1485,0,0
315,-461,0,0,0,0,0,0,0,0,0,-1,1539,1485,0,0
322,-461,0,0,0,0,0,0,0,0,0,-1,1546,1485,0,0
329,-461,0,0,0,0,0,0,0,0,0,-1,1553,1485,0,0
336,-461,0,0,0,0,0,0,0,0,0,-1,1560,1485,0,0
343,-461,0,0,0,0,0,0,0,0,0,-1,1567,1485,0,0
350,-461,0,0,0,0,0,0,0,0,0,-1,1574,1485,0,0
357,-461,0,0,0,0,0,0,0,0,0,-1,1581,1485,0,0
364,-461,0,0,0,0,0,0,0,0,0,-1,1588,1485,0,0
371,-461,0,0,0,0,0,0,0,0,0,-1,1595,1485,0,0
378,-461,0,0,0,0,0,0,0,0,0,-1,1602,1485,0,0
385,-461,0,0,0,0,0,0,0,0,0,-1,1609,1485,0,0
392,-461,0,0,0,0,0,0,0,0,0,-1,1616,1485,0,0
399,-461,0,0,0,0,0,0,0,0,0,-1,1623,1485,0,0
406,-461,0,0,0,0,0,0,0,0,0,-1,1630,1485,0,0
413,-461,0,0,0,0,0,0,0,0,0,-1,1637,1485,0,0
420,-461,0,0,0,0,0,0,0,0,0,-1,1644,1485,0,0
427,-461,0,0,0,0,0,0,0,0,0,-1,1651,1485,0,0
434,-461,0,0,0,0,0,0,0,0,0,-1,1658,1485,0,0
441,-461,0,0,0,0,0,0,0,0,0,-1,1665,1485,0,0
448,-461,0,0,0,0,0,0,0,0,0,-1,1672,1485,0,0
455,-461,0,0,0,0,0,0,0,0,0,-1,1679,1485,0,0
462,-461,0,0,0,0,0,0,0,0,0,-1,1686,1485,0,0
469,-461,0,0,0,0,0,0,0,0,0,-1,1693,1485,0,0
476,-461,14.1906,0.690552,0,0,0,0,0,0,0,-1,1700,1485,14.1906,-0.690525
483,-461,10.6361,3.09106,0,0,0,0,0,0,0,-1,1707,1485,10.6361,-3.091
490,-461,16.0254,4.19189,0,0,0,0,0,0,0,-1,1714,1485,16.0253,-4.19195
497,-461,15.4591,4.46643,-0.079849,-0.0631231,0.0776973,0.00666003,-0.149632,0.839009,0.102047,0.0471691,1721,1485,15.4591,-4.46646
504,-461,15.1829,4.4259,-0.0813777,-0.0566676,0.0742823,0.00628012,-0.144325,0.867806,0.0983771,0.0496921,1728,1485,15.1829,-4.42589
511,-461,14.7274,4.68469,0,0,0,0,0,0,0,-1,1735,1485,14.7275,-4.68474
518,-461,13.4612,5.14038,-0.0714392,-0.0453183,0.0638142,0.00675828,-0.123516,0.886336,0.0846865,0.0442736,1742,1485,13.4612,-5.14035
525,-461,12.6636,6.26624,-0.0641534,-0.040162,0.0577462,0.00682122,-0.111137,0.887807,0.0764664,0.0461985,1749,1485,12.6635,-6.26624
532,-461,11.873,7.37317,0,0,0,0,0,0,0,-1,1756,1485,11.873,-7.37317
539,-461,8.67957,6.5271,0,0,0,0,0,0,0,-1,1763,1485,8.67952,-6.52704
546,-461,10.1873,8.07849,0,0,0,0,0,0,0,-1,1770,1485,10.1873,-8.07852
553,-461,10.2633,8.10083,-0.0348229,-0.0229095,0.03278,0.00445066,-0.0621831,0.875276,0.0430157,0.0416597,1777,1485,10.2633,-8.10084
560,-461,10.2285,8.25806,-0.0279536,-0.0192094,0.0268998,0.00367131,-0.0508343,0.86596,0.0351772,0.0275301,1784,1485,10.2286,-8.25804
567,-461,10.2958,8.20984,-0.0206964,-0.0160615,0.0213868,0.00313304,-0.039891,0.839367,0.0276975,0.0132432,1791,1485,10.2958,-8.20983
574,-461,10.2939,8.02869,-0.0142477,-0.0125679,0.0152411,0.00185639,-0.028672,0.812925,0.0197626,0.0140404,1798,1485,10.294,-8.02868
581,-461,10.2941,7.84851,-0.00940304,-0.00876133,0.0100545,0.000977461,-0.0191418,0.801349,0.0130992,0.0131813,1805,1485,10.294,-7.84848
588,-461,10.2758,7.68359,-0.00593305,-0.00640083,0.00691092,0.00074794,-0.0130818,0.768483,0.00898092,0.0107654,1812,1485,10.2758,-7.6836
595,-461,10.2662,7.4939,-0.00365294,-0.00445523,0.00459838,0.000561758,-0.00866993,0.74189,0.00597601,0.00844834,1819,1485,10.2663,-7.49388
602,-461,10.2782,7.2865,-0.00240768,-0.00310393,0.00316428,0.000427564,-0.00593917,0.73061,0.00410939,0.00872724,1826,1485,10.2782,-7.28645
609,-461,10.3081,7.078,-0.00110253,-0.00187351,0.00181495,0.000367416,-0.00334346,0.680755,0.00236099,0.0108066,1833,1485,10.3081,-7.07796
616,-461,10.3281,6.88586,0.000127529,-0.00150437,0.00084948,0.000489455,-0.00186629,0.402765,0.00143544,0.0137227,1840,1485,10.3281,-6.88582
623,-461,10.3005,6.69897,0.00134151,-0.000953593,0.000182296,0.0013559,-0.000967982,0.0787701,0.00134791,0.012313,1847,1485,10.3005,-6.69902
630,-461,10.2859,6.50635,0.00255484,-0.00118566,-0.000259774,0.0025728,-0.00120361,-0.0690075,0.00222757,0.00985741,1854,1485,10.2859,-6.5064
637,-461,10.3113,6.31567,0.0037384,-0.00143286,-0.000734935,0.00384082,-0.00153528,-0.138467,0.00319762,0.0111152,1861,1485,10.3113,-6.31572
644,-461,10.3286,6.12939,0.00515427,-0.00177014,-0.00130927,0.00539356,-0.00200943,-0.18077,0.00442047,0.0194368,1868,1485,10.3286,-6.12945
651,-461,10.254,5.91199,0.00674807,-0.00218416,-0.00192269,0.00714435,-0.00258044,-0.203262,0.00581706,0.0240095,1875,1485,10.254,-5.912
658,-461,10.8044,5.64551,0.00873236,-0.00247779,-0.00274843,0.00936994,-0.00311537,-0.227947,0.00750384,0.0376981,1882,1485,10.8044,-5.64545
665,-461,10.8203,5.7937,0.0112408,-0.00252885,-0.00385933,0.0122487,-0.00353675,-0.255455,0.00956523,0.0485695,1889,1485,10.8203,-5.79371
672,-461,10.928,5.47827,0,0,0,0,0,0,0,-1,1896,1485,10.9279,-5.47828
679,-461,10.0535,2.16321,0,0,0,0,0,0,0,-1,1903,1485,10.0535,-2.16317
686,-461,10.8195,1.84192,0,0,0,0,0,0,0,-1,1910,1485,10.8194,-1.84195
693,-461,0,0,0,0,0,0,0,0,0,-1,1917,1485,0,0
700,-461,0,0,0,0,0,0,0,0,0,-1,1924,1485,0,0
707,-461,0,0,0,0,0,0,0,0,0,-1,1931,1485,0,0
714,-461,0,0,0,0,0,0,0,0,0,-1,1938,1485,0,0
721,-461,0,0,0,0,0,0,0,0,0,-1,1945,1485,0,0
728,-461,0,0,0,0,0,0,0,0,0,-1,1952,1485,0,0
735,-461,0,0,0,0,0,0,0,0,0,-1,1959,1485,0,0
742,-461,0,0,0,0,0,0,0,0,0,-1,1966,1485,0,0
749,-461,0,0,0,0,0,0,0,0,0,-1,1973,1485,0,0
756,-461,0,0,0,0,0,0,0,0,0,-1,1980,1485,0,0
763,-461,0,0,0,0,0,0,0,0,0,-1,1987,1485,0,0
770,-461,0,0,0,0,0,0,0,0,0,-1,1994,1485,0,0
777,-461,0,0,0,0,0,0,0,0,0,-1,2001,1485,0,0
784,-461,0,0,0,0,0,0,0,0,0,-1,2008,1485,0,0
791,-461,0,0,0,0,0,0,0,0,0,-1,2015,1485,0,0
798,-461,0,0,0,0,0,0,0,0,0,-1,2022,1485,0,0
805,-461,0,0,0,0,0,0,0,0,0,-1,2029,1485,0,0
812,-461,0,0,0,0,0,0,0,0,0,-1,2036,1485,0,0
-700,-468,0,0,0,0,0,0,0,0,0,-1,524,1492,0,0
-693,-468,0,0,0,0,0,0,0,0,0,-1,531,1492,0,0
-686,-468,0,0,0,0,0,0,0,0,0,-1,538,1492,0,0
-679,-468,0,0,0,0,0,0,0,0,0,-1,545,1492,0,0
-672,-468,0,0,0,0,0,0,0,0,0,-1,552,1492,0,0
-665,-468,0,0,0,0,0,0,0,0,0,-1,559,1492,0,0
-658,-468,0,0,0,0,0,0,0,0,0,-1,566,1492,0,0
-651,-468,0,0,0,0,0,0,0,0,0,-1,573,1492,0,0
-644,-468,0,0,0,0,0,0,0,0,0,-1,580,1492,0,0
-637,-468,0,0,0,0,0,0,0,0,0,-1,587,1492,0,0
-630,-468,0,0,0,0,0,0,0,0,0,-1,594,1492,0,0
-623,-468,0,0,0,0,0,0,0,0,0,-1,601,1492,0,0
-616,-468,0,0,0,0,0,0,0,0,0,-1,608,1492,0,0
-609,-468,0,0,0,0,0,0,0,0,0,-1,615,1492,0,0
-602,-468,0,0,0,0,0,0,0,0,0,-1,622,1492,0,0
-595,-468,0,0,0,0,0,0,0,0,0,-1,629,1492,0,0
-588,-468,0,0,0,0,0,0,0,0,0,-1,636,1492,0,0
-581,-468,0,0,0,0,0,0,0,0,0,-1,643,1492,0,0
-574,-468,0,0,0,0,0,0,0,0,0,-1,650,1492,0,0
-567,-468,-11.2603,1.8042,0,0,0,0,0,0,0,-1,657,1492,-11.2603,-1.80424
-560,-468,-8.77441,2.23694,0,0,0,0,0,0,0,-1,664,1492,-8.77443,-2.23692
-553,-468,-5.94061,9.26318,0,0,0,0,0,0,0,-1,671,1492,-5.94062,-9.26322
-546,-468,-4.95459,1.74536,0,0,0,0,0,0,0,-1,678,1492,-4.95462,-1.74539
-539,-468,-3.88324,2.33862,0.0680902,-0.0214111,0.0385029,0.0823742,-0.0356952,0.355247,0.0699206,0.0451111,685,1492,-3.88323,-2.33866
-532,-468,-3.11798,2.6947,0.052517,-0.0164317,0.0293795,0.0633377,-0.0272523,0.352889,0.0536675,0.0431614,692,1492,-3.11798,-2.69464
-525,-468,-2.33099,3.81958,0.0401111,-0.0122324,0.0221148,0.0482034,-0.0203247,0.350789,0.0406414,0.0439379,699,1492,-2.33099,-3.81959
-518,-468,-2.18591,4.07739,0.0302477,-0.00878219,0.0163613,0.0361989,-0.0147334,0.34886,0.0302637,0.0418093,706,1492,-2.18592,-4.07736
-511,-468,-2.03284,4.33081,0.02245,-0.00606167,0.0118668,0.0267427,-0.0103544,0.347098,0.0221037,0.0326093,713,1492,-2.03285,-4.33084
-504,-468,-1.92194,4.54187,0.0163142,-0.00401476,0.00839815,0.0193348,-0.00703533,0.345264,0.0157671,0.0150379,720,1492,-1.92192,-4.54183
-497,-468,-1.9483,4.77441,0.0115497,-0.00264605,0.00571232,0.0135628,-0.00465918,0.338828,0.0109311,0.0091778,727,1492,-1.94832,-4.77445
-490,-468,-1.94489,5.00427,0.00740309,-0.00186218,0.00332451,0.00847253,-0.00293162,0.311229,0.00683834,0.00723473,734,1492,-1.94486,-5.00427
-483,-468,-1.95538,5.23145,0.00424376,-0.00172135,0.00152939,0.00461302,-0.00209061,0.236909,0.00396062,0.00805775,741,1492,-1.95539,-5.23147
-476,-468,-1.95978,5.44995,0.00226153,-0.00175263,0.000271165,0.00227977,-0.00177087,0.0671455,0.00234478,0.00952945,748,1492,-1.95979,-5.44997
-469,-468,-1.95636,5.64978,0.0013039,-0.00252163,-0.000965593,0.0015338,-0.00275153,-0.233747,0.00250722,0.0132092,755,1492,-1.95636,-5.64984
-462,-468,-1.93414,5.84583,0.00108048,-0.00370481,-0.00191559,0.00175283,-0.00437716,-0.337558,0.00364566,0.0206263,762,1492,-1.93415,-5.84579
-455,-468,-1.93793,6.02551,0.000862352,-0.00538435,-0.00268467,0.00185759,-0.00637959,-0.355006,0.00498889,0.0229318,769,1492,-1.93793,-6.0255
-448,-468,-1.9585,6.27258,0.00093597,-0.00766559,-0.00343575,0.00213983,-0.00886945,-0.337024,0.00674043,0.0139997,776,1492,-1.9585,-6.27254
-441,-468,-1.95728,6.51819,0.00112278,-0.00991967,-0.00434512,0.00262751,-0.0114244,-0.333377,0.00862653,0.0125679,783,1492,-1.9573,-6.51824
-434,-468,-1.91455,6.72852,0.00114936,-0.0122215,-0.00534494,0.00302333,-0.0140954,-0.337216,0.0105501,0.0124243,790,1492,-1.91455,-6.72848
-427,-468,-1.86578,6.89587,0.000877646,-0.0146253,-0.00649544,0.00323934,-0.016987,-0.348732,0.0125446,0.0157995,797,1492,-1.86581,-6.89591
-420,-468,-1.77563,7.04639,0.000167963,-0.016589,-0.00773429,0.00319203,-0.0196131,-0.37272,0.014259,0.0272796,804,1492,-1.77566,-7.04644
-413,-468,-1.54517,6.94604,-0.00115164,-0.0187336,-0.00905548,0.00267812,-0.0225633,-0.400109,0.0160098,0.0470156,811,1492,-1.54519,-6.94609
-406,-468,-1.21368,6.67737,0,0,0,0,0,0,0,-1,818,1492,-1.21368,-6.67735
-399,-468,-0.982483,6.77234,0,0,0,0,0,0,0,-1,825,1492,-0.982465,-6.77237
-392,-468,-0.674316,6.88867,0,0,0,0,0,0,0,-1,832,1492,-0.67434,-6.88868
-385,-468,0.465759,5.35864,0,0,0,0,0,0,0,-1,839,1492,0.465732,-5.35864
-378,-468,1.99835,3.25391,0,0,0,0,0,0,0,-1,846,1492,1.99837,-3.2539
-371,-468,-0.31842,3.1532,0,0,0,0,0,0,0,-1,853,1492,-0.318441,-3.15324
-364,-468,-0.966736,2.14563,0,0,0,0,0,0,0,-1,860,1492,-0.966735,-2.14557
-357,-468,-3.06787,3.22742,0,0,0,0,0,0,0,-1,867,1492,-3.06784,-3.2274
-350,-468,-3.18658,4.12659,0,0,0,0,0,0,0,-1,874,1492,-3.18659,-4.12658
-343,-468,0,0,0,0,0,0,0,0,0,-1,881,1492,0,0
-336,-468,0,0,0,0,0,0,0,0,0,-1,888,1492,0,0
-329,-468,0,0,0,0,0,0,0,0,0,-1,895,1492,0,0
-322,-468,0,0,0,0,0,0,0,0,0,-1,902,1492,0,0
-315,-468,0,0,0,0,0,0,0,0,0,-1,909,1492,0,0
-308,-468,0,0,0,0,0,0,0,0,0,-1,916,1492,0,0
-301,-468,0,0,0,0,0,0,0,0,0,-1,923,1492,0,0
-294,-468,0,0,0,0,0,0,0,0,0,-1,930,1492,0,0
-287,-468,0,0,0,0,0,0,0,0,0,-1,937,1492,0,0
-280,-468,0,0,0,0,0,0,0,0,0,-1,944,1492,0,0
-273,-468,0,0,0,0,0,0,0,0,0,-1,951,1492,0,0
-266,-468,0,0,0,0,0,0,0,0,0,-1,958,1492,0,0
-259,-468,0,0,0,0,0,0,0,0,0,-1,965,1492,0,0
-252,-468,0,0,0,0,0,0,0,0,0,-1,972,1492,0,0
-245,-468,0,0,0,0,0,0,0,0,0,-1,979,1492,0,0
-238,-468,0,0,0,0,0,0,0,0,0,-1,986,1492,0,0
-231,-468,0,0,0,0,0,0,0,0,0,-1,993,1492,0,0
-224,-468,0,0,0,0,0,0,0,0,0,-1,1000,1492,0,0
-217,-468,0,0,0,0,0,0,0,0,0,-1,1007,1492,0,0
-210,-468,0,0,0,0,0,0,0,0,0,-1,1014,1492,0,0
-203,-468,0,0,0,0,0,0,0,0,0,-1,1021,1492,0,0
-196,-468,0,0,0,0,0,0,0,0,0,-1,1028,1492,0,0
-189,-468,0,0,0,0,0,0,0,0,0,-1,1035,1492,0,0
-182,-468,0,0,0,0,0,0,0,0,0,-1,1042,1492,0,0
-175,-468,0,0,0,0,0,0,0,0,0,-1,1049,1492,0,0
-168,-468,0,0,0,0,0,0,0,0,0,-1,1056,1492,0,0
-161,-468,0,0,0,0,0,0,0,0,0,-1,1063,1492,0,0
-154,-468,0,0,0,0,0,0,0,0,0,-1,1070,1492,0,0
-147,-468,0,0,0,0,0,0,0,0,0,-1,1077,1492,0,0
-140,-468,0,0,0,0,0,0,0,0,0,-1,1084,1492,0,0
-133,-468,0,0,0,0,0,0,0,0,0,-1,1091,1492,0,0
-126,-468,0,0,0,0,0,0,0,0,0,-1,1098,1492,0,0
-119,-468,0,0,0,0,0,0,0,0,0,-1,1105,1492,0,0
-112,-468,0,0,0,0,0,0,0,0,0,-1,1112,1492,0,0
-105,-468,0,0,0,0,0,0,0,0,0,-1,1119,1492,0,0
-98,-468,0,0,0,0,0,0,0,0,0,-1,1126,1492,0,0
-91,-468,0,0,0,0,0,0,0,0,0,-1,1133,1492,0,0
-84,-468,0,0,0,0,0,0,0,0,0,-1,1140,1492,0,0
-77,-468,0,0,0,0,0,0,0,0,0,-1,1147,1492,0,0
-70,-468,0,0,0,0,0,0,0,0,0,-1,1154,1492,0,0
-63,-468,0,0,0,0,0,0,0,0,0,-1,1161,1492,0,0
-56,-468,0,0,0,0,0,0,0,0,0,-1,1168,1492,0,0
-49,-468,0,0,0,0,0,0,0,0,0,-1,1175,1492,0,0
-42,-468,0,0,0,0,0,0,0,0,0,-1,1182,1492,0,0
-35,-468,0,0,0,0,0,0,0,0,0,-1,1189,1492,0,0
-28,-468,0,0,0,0,0,0,0,0,0,-1,1196,1492,0,0
-21,-468,0,0,0,0,0,0,0,0,0,-1,1203,1492,0,0
-14,-468,0,0,0,0,0,0,0,0,0,-1,1210,1492,0,0
-7,-468,0,0,0,0,0,0,0,0,0,-1,1217,1492,0,0
0,-468,0,0,0,0,0,0,0,0,0,-1,1224,1492,0,0
7,-468,0,0,0,0,0,0,0,0,0,-1,1231,1492,0,0
14,-468,0,0,0,0,0,0,0,0,0,-1,1238,1492,0,0
21,-468,0,0,0,0,0,0,0,0,0,-1,1245,1492,0,0
28,-468,0,0,0,0,0,0,0,0,0,-1,1252,1492,0,0
35,-468,0,0,0,0,0,0,0,0,0,-1,1259,1492,0,0
42,-468,0,0,0,0,0,0,0,0,0,-1,1266,1492,0,0
49,-468,0,0,0,0,0,0,0,0,0,-1,1273,1492,0,0
56,-468,0,0,0,0,0,0,0,0,0,-1,1280,1492,0,0
63,-468,0,0,0,0,0,0,0,0,0,-1,1287,1492,0,0
70,-468,0,0,0,0,0,0,0,0,0,-1,1294,1492,0,0
77,-468,0,0,0,0,0,0,0,0,0,-1,1301,1492,0,0
84,-468,0,0,0,0,0,0,0,0,0,-1,1308,1492,0,0
91,-468,0,0,0,0,0,0,0,0,0,-1,1315,1492,0,0
98,-468,0,0,0,0,0,0,0,0,0,-1,1322,1492,0,0
105,-468,0,0,0,0,0,0,0,0,0,-1,1329,1492,0,0
112,-468,0,0,0,0,0,0,0,0,0,-1,1336,1492,0,0
119,-468,0,0,0,0,0,0,0,0,0,-1,1343,1492,0,0
126,-468,0,0,0,0,0,0,0,0,0,-1,1350,1492,0,0
133,-468,0,0,0,0,0,0,0,0,0,-1,1357,1492,0,0
140,-468,0,0,0,0,0,0,0,0,0,-1,1364,1492,0,0
147,-468,0,0,0,0,0,0,0,0,0,-1,1371,1492,0,0
154,-468,0,0,0,0,0,0,0,0,0,-1,1378,1492,0,0
161,-468,0,0,0,0,0,0,0,0,0,-1,1385,1492,0,0
168,-468,0,0,0,0,0,0,0,0,0,-1,1392,1492,0,0
175,-468,0,0,0,0,0,0,0,0,0,-1,1399,1492,0,0
182,-468,0,0,0,0,0,0,0,0,0,-1,1406,1492,0,0
189,-468,0,0,0,0,0,0,0,0,0,-1,1413,1492,0,0
196,-468,0,0,0,0,0,0,0,0,0,-1,1420,1492,0,0
203,-468,0,0,0,0,0,0,0,0,0,-1,1427,1492,0,0
210,-468,0,0,0,0,0,0,0,0,0,-1,1434,1492,0,0
217,-468,0,0,0,0,0,0,0,0,0,-1,1441,1492,0,0
224,-468,0,0,0,0,0,0,0,0,0,-1,1448,1492,0,0
231,-468,0,0,0,0,0,0,0,0,0,-1,1455,1492,0,0
238,-468,0,0,0,0,0,0,0,0,0,-1,1462,1492,0,0
245,-468,0,0,0,0,0,0,0,0,0,-1,1469,1492,0,0
252,-468,0,0,0,0,0,0,0,0,0,-1,1476,1492,0,0
259,-468,0,0,0,0,0,0,0,0,0,-1,1483,1492,0,0
266,-468,0,0,0,0,0,0,0,0,0,-1,1490,1492,0,0
273,-468,0,0,0,0,0,0,0,0,0,-1,1497,1492,0,0
280,-468,0,0,0,0,0,0,0,0,0,-1,1504,1492,0,0
287,-468,0,0,0,0,0,0,0,0,0,-1,1511,1492,0,0
294,-468,0,0,0,0,0,0,0,0,0,-1,1518,1492,0,0
301,-468,0,0,0,0,0,0,0,0,0,-1,1525,1492,0,0
308,-468,0,0,0,0,0,0,0,0,0,-1,1532,1492,0,0
315,-468,0,0,0,0,0,0,0,0,0,-1,1539,1492,0,0
322,-468,0,0,0,0,0,0,0,0,0,-1,1546,1492,0,0
329,-468,0,0,0,0,0,0,0,0,0,-1,1553,1492,0,0
336,-468,0,0,0,0,0,0,0,0,0,-1,1560,1492,0,0
343,-468,0,0,0,0,0,0,0,0,0,-1,1567,1492,0,0
350,-468,0,0,0,0,0,0,0,0,0,-1,1574,1492,0,0
357,-468,0,0,0,0,0,0,0,0,0,-1,1581,1492,0,0
364,-468,0,0,0,0,0,0,0,0,0,-1,1588,1492,0,0
371,-468,0,0,0,0,0,0,0,0,0,-1,1595,1492,0,0
378,-468,0,0,0,0,0,0,0,0,0,-1,1602,1492,0,0
385,-468,0,0,0,0,0,0,0,0,0,-1,1609,1492,0,0
392,-468,0,0,0,0,0,0,0,0,0,-1,1616,1492,0,0
399,-468,0,0,0,0,0,0,0,0,0,-1,1623,1492,0,0
406,-468,0,0,0,0,0,0,0,0,0,-1,1630,1492,0,0
413,-468,0,0,0,0,0,0,0,0,0,-1,1637,1492,0,0
420,-468,0,0,0,0,0,0,0,0,0,-1,1644,1492,0,0
427,-468,0,0,0,0,0,0,0,0,0,-1,1651,1492,0,0
434,-468,0,0,0,0,0,0,0,0,0,-1,1658,1492,0,0
441,-468,0,0,0,0,0,0,0,0,0,-1,1665,1492,0,0
448,-468,0,0,0,0,0,0,0,0,0,-1,1672,1492,0,0
455,-468,0,0,0,0,0,0,0,0,0,-1,1679,1492,0,0
462,-468,0,0,0,0,0,0,0,0,0,-1,1686,1492,0,0
469,-468,15.6879,1.2677,0,0,0,0,0,0,0,-1,1693,1492,15.6879,-1.26772
476,-468,14.9318,1.61865,0,0,0,0,0,0,0,-1,1700,1492,14.9318,-1.61869
483,-468,11.265,4.64795,0,0,0,0,0,0,0,-1,1707,1492,11.265,-4.64798
490,-468,12.1316,3.51624,0,0,0,0,0,0,0,-1,1714,1492,12.1316,-3.51628
497,-468,14.6521,5.28735,0,0,0,0,0,0,0,-1,1721,1492,14.6521,-5.28734
504,-468,14.4073,4.86072,0,0,0,0,0,0,0,-1,1728,1492,14.4074,-4.86071
511,-468,11.2576,5.18835,0,0,0,0,0,0,0,-1,1735,1492,11.2576,-5.18835
518,-468,10.9119,8.23315,0,0,0,0,0,0,0,-1,1742,1492,10.9119,-8.23313
525,-468,10.1019,9.07434,0,0,0,0,0,0,0,-1,1749,1492,10.102,-9.07439
532,-468,9.91797,8.52319,0,0,0,0,0,0,0,-1,1756,1492,9.918,-8.5232
539,-468,10.0287,8.76172,0,0,0,0,0,0,0,-1,1763,1492,10.0286,-8.76175
546,-468,10.1884,8.52869,-0.0345201,-0.0239458,0.0325041,0.00369833,-0.0621643,0.866023,0.042729,0.0477779,1770,1492,10.1884,-8.52867
553,-468,10.2781,8.39551,-0.0280924,-0.0194978,0.0262252,0.00277984,-0.05037,0.866608,0.0345439,0.0324331,1777,1492,10.2781,-8.39548
560,-468,10.1306,8.37024,-0.0214423,-0.0155844,0.0205365,0.00223094,-0.0392576,0.856231,0.0269462,0.0174754,1784,1492,10.1306,-8.37024
567,-468,10.099,8.26257,-0.0147535,-0.0119823,0.0154927,0.00218661,-0.0289224,0.829997,0.0200503,0.0127227,1791,1492,10.0989,-8.26257
574,-468,10.1075,8.04578,-0.00915462,-0.00856915,0.0100708,0.00121316,-0.0189369,0.799928,0.0130478,0.0132238,1798,1492,10.1075,-8.04582
581,-468,10.1156,7.84717,-0.0054439,-0.00533488,0.00599242,0.000603274,-0.0113821,0.789946,0.00779692,0.0143233,1805,1492,10.1156,-7.8472
588,-468,10.1017,7.67407,-0.00313221,-0.00361735,0.00394415,0.000576818,-0.00732638,0.754686,0.00508744,0.0121537,1812,1492,10.1017,-7.67409
595,-468,10.0995,7.48059,-0.00167671,-0.00234674,0.0025643,0.000574368,-0.00459782,0.720444,0.00327351,0.00994403,1819,1492,10.0995,-7.4806
602,-468,10.1021,7.27075,-0.000773703,-0.0015981,0.00172914,0.00059169,-0.00296349,0.668391,0.00219958,0.00849259,1826,1492,10.1021,-7.27077
609,-468,10.1102,7.06885,0.000195409,-0.000910858,0.000959698,0.000749966,-0.00146541,0.52397,0.00130109,0.00912308,1833,1492,10.1102,-7.06889
616,-468,10.1089,6.88281,0.00114455,-0.000962394,0.00040347,0.00121917,-0.00103701,0.182879,0.00130402,0.00950466,1840,1492,10.1089,-6.88284
623,-468,10.0903,6.7052,0.0020999,-0.000735758,3.92369e-05,0.00210045,-0.000736301,0.0138334,0.00169975,0.0106522,1847,1492,10.0904,-6.70525
630,-468,10.1006,6.50317,0.00320676,-0.00117136,-0.000206616,0.00321649,-0.00118109,-0.0470534,0.00262803,0.010792,1854,1492,10.1006,-6.50316
637,-468,10.1428,6.29578,0.00443894,-0.00168731,-0.000518518,0.00448252,-0.00173089,-0.0838438,0.00370271,0.013434,1861,1492,10.1429,-6.29583
644,-468,10.1392,6.15576,0.00599137,-0.00227943,-0.00101345,0.00611374,-0.00240181,-0.120165,0.00506976,0.0284279,1868,1492,10.1392,-6.15576
651,-468,10.3558,6.21814,0.00812622,-0.00279934,-0.00182791,0.00842393,-0.00309704,-0.16145,0.00688455,0.0456665,1875,1492,10.3558,-6.21808
658,-468,11.0726,5.85693,0,0,0,0,0,0,0,-1,1882,1492,11.0726,-5.8569
665,-468,10.9164,5.9093,0,0,0,0,0,0,0,-1,1889,1492,10.9163,-5.90936
672,-468,9.96814,3.61133,0,0,0,0,0,0,0,-1,1896,1492,9.96817,-3.61139
679,-468,11.2191,1.91968,0,0,0,0,0,0,0,-1,1903,1492,11.2191,-1.91965
686,-468,11.9252,1.42285,0,0,0,0,0,0,0,-1,1910,1492,11.9252,-1.42291
693,-468,0,0,0,0,0,0,0,0,0,-1,1917,1492,0,0
700,-468,0,0,0,0,0,0,0,0,0,-1,1924,1492,0,0
707,-468,0,0,0,0,0,0,0,0,0,-1,1931,1492,0,0
714,-468,0,0,0,0,0,0,0,0,0,-1,1938,1492,0,0
721,-468,0,0,0,0,0,0,0,0,0,-1,1945,1492,0,0
728,-468,0,0,0,0,0,0,0,0,0,-1,1952,1492,0,0
735,-468,0,0,0,0,0,0,0,0,0,-1,1959,1492,0,0
742,-468,0,0,0,0,0,0,0,0,0,-1,1966,1492,0,0
749,-468,0,0,0,0,0,0,0,0,0,-1,1973,1492,0,0
756,-468,0,0,0,0,0,0,0,0,0,-1,1980,1492,0,0
763,-468,0,0,0,0,0,0,0,0,0,-1,1987,1492,0,0
770,-468,0,0,0,0,0,0,0,0,0,-1,1994,1492,0,0
777,-468,0,0,0,0,0,0,0,0,0,-1,2001,1492,0,0
784,-468,0,0,0,0,0,0,0,0,0,-1,2008,1492,0,0
791,-468,0,0,0,0,0,0,0,0,0,-1,2015,1492,0,0
798,-468,0,0,0,0,0,0,0,0,0,-1,2022,1492,0,0
805,-468,0,0,0,0,0,0,0,0,0,-1,2029,1492,0,0
812,-468,0,0,0,0,0,0,0,0,0,-1,2036,1492,0,0
-700,-475,0,0,0,0,0,0,0,0,0,-1,524,1499,0,0
-693,-475,0,0,0,0,0,0,0,0,0,-1,531,1499,0,0
-686,-475,0,0,0,0,0,0,0,0,0,-1,538,1499,0,0
-679,-475,0,0,0,0,0,0,0,0,0,-1,545,1499,0,0
-672,-475,0,0,0,0,0,0,0,0,0,-1,552,1499,0,0
-665,-475,0,0,0,0,0,0,0,0,0,-1,559,1499,0,0
-658,-475,0,0,0,0,0,0,0,0,0,-1,566,1499,0,0
-651,-475,0,0,0,0,0,0,0,0,0,-1,573,1499,0,0
-644,-475,0,0,0,0,0,0,0,0,0,-1,580,1499,0,0
-637,-475,0,0,0,0,0,0,0,0,0,-1,587,1499,0,0
-630,-475,0,0,0,0,0,0,0,0,0,-1,594,1499,0,0
-623,-475,0,0,0,0,0,0,0,0,0,-1,601,1499,0,0
-616,-475,0,0,0,0,0,0,0,0,0,-1,608,1499,0,0
-609,-475,0,0,0,0,0,0,0,0,0,-1,615,1499,0,0
-602,-475,0,0,0,0,0,0,0,0,0,-1,622,1499,0,0
-595,-475,0,0,0,0,0,0,0,0,0,-1,629,1499,0,0
-588,-475,0,0,0,0,0,0,0,0,0,-1,636,1499,0,0
-581,-475,0,0,0,0,0,0,0,0,0,-1,643,1499,0,0
-574,-475,0,0,0,0,0,0,0,0,0,-1,650,1499,0,0
-567,-475,0,0,0,0,0,0,0,0,0,-1,657,1499,0,0
-560,-475,-9.42731,9.29517,0,0,0,0,0,0,0,-1,664,1499,-9.42731,-9.29519
-553,-475,-8.15131,8.78369,0,0,0,0,0,0,0,-1,671,1499,-8.15131,-8.78367
-546,-475,-6.63885,8.42383,0,0,0,0,0,0,0,-1,678,1499,-6.63886,-8.42381
-539,-475,-4.06836,2.43091,0,0,0,0,0,0,0,-1,685,1499,-4.06833,-2.43094
-532,-475,-2.38336,4.20984,0.0545567,-0.0194314,0.0299869,0.0651838,-0.0300586,0.340582,0.0562209,0.0422513,692,1499,-2.38337,-4.20982
-525,-475,-2.34808,4.44739,0.042167,-0.014311,0.0228353,0.0502446,-0.0223886,0.339995,0.0429505,0.0426219,699,1499,-2.34808,-4.44735
-518,-475,-2.14777,4.49133,0.032252,-0.0101908,0.0171423,0.0383107,-0.0162495,0.339734,0.0323473,0.0441507,706,1499,-2.14778,-4.49128
-511,-475,-2.11633,4.16895,0.0242726,-0.00700636,0.012655,0.0287513,-0.0114851,0.340154,0.0239329,0.0449294,713,1499,-2.11635,-4.16896
-504,-475,-1.69287,4.5177,0.0178732,-0.00460718,0.00915117,0.0211274,-0.00786132,0.341654,0.017311,0.0269041,720,1499,-1.69289,-4.51769
-497,-475,-1.71136,4.78503,0.0128461,-0.00292651,0.00643726,0.0151398,-0.0052202,0.342288,0.012211,0.0133533,727,1499,-1.71136,-4.785
-490,-475,-1.71979,4.99854,0.00848225,-0.00185844,0.00401621,0.00985885,-0.00323503,0.33021,0.00787559,0.00829522,734,1499,-1.71981,-4.99856
-483,-475,-1.72614,5.24524,0.00512696,-0.00142901,0.00224508,0.00582208,-0.00212413,0.300258,0.00475046,0.0085116,741,1499,-1.72614,-5.24527
-476,-475,-1.71997,5.45276,0.00308398,-0.00115351,0.0010635,0.00333591,-0.00140545,0.232603,0.00281204,0.00987647,748,1499,-1.71997,-5.45276
-469,-475,-1.70734,5.65759,0.00213402,-0.00163793,-0.000115905,0.00213758,-0.00164149,-0.0306895,0.0021881,0.0120739,755,1499,-1.70734,-5.65759
-462,-475,-1.68341,5.86829,0.00194813,-0.00247993,-0.000980388,0.00215549,-0.00268728,-0.208428,0.00280159,0.0167053,762,1499,-1.6834,-5.86823
-455,-475,-1.70526,6.0553,0.00174035,-0.00374486,-0.00158454,0.00216519,-0.0041697,-0.261949,0.00371798,0.0158547,769,1499,-1.70523,-6.05524
-448,-475,-1.74725,6.30469,0.00182768,-0.00561258,-0.00211822,0.00238846,-0.00617336,-0.258805,0.00510163,0.0136577,776,1499,-1.74724,-6.30473
-441,-475,-1.75085,6.56592,0.00213917,-0.00730375,-0.00281132,0.00291277,-0.00807736,-0.268528,0.00657454,0.0154701,783,1499,-1.75083,-6.56591
-434,-475,-1.72528,6.73523,0.00231764,-0.00890877,-0.00351828,0.00332911,-0.00992025,-0.279941,0.00795878,0.00981781,790,1499,-1.72529,-6.73521
-427,-475,-1.69177,6.96008,0.00227577,-0.0105174,-0.00430031,0.0035869,-0.0118286,-0.29594,0.00931447,0.0129184,797,1499,-1.69176,-6.96011
-420,-475,-1.61023,7.16064,0.00190475,-0.0117074,-0.00516608,0.00364333,-0.013446,-0.32463,0.0103935,0.0199434,804,1499,-1.61023,-7.1607
-413,-475,-1.40619,6.99524,0.00107344,-0.013272,-0.00612568,0.00333321,-0.0155318,-0.353413,0.011626,0.0378837,811,1499,-1.40621,-6.99528
-406,-475,-0.987549,6.85217,0,0,0,0,0,0,0,-1,818,1499,-0.987549,-6.85214
-399,-475,-1.67731,5.84595,0,0,0,0,0,0,0,-1,825,1499,-1.67733,-5.84596
-392,-475,-0.826538,7.61597,0,0,0,0,0,0,0,-1,832,1499,-0.826525,-7.616
-385,-475,1.18372,2.73999,0,0,0,0,0,0,0,-1,839,1499,1.18372,-2.73995
-378,-475,1.31409,2.90149,0,0,0,0,0,0,0,-1,846,1499,1.31411,-2.90151
-371,-475,2.3476,3.31116,0,0,0,0,0,0,0,-1,853,1499,2.34761,-3.31121
-364,-475,1.04462,9.05823,0,0,0,0,0,0,0,-1,860,1499,1.04461,-9.05825
-357,-475,-0.262756,7.97205,0,0,0,0,0,0,0,-1,867,1499,-0.262784,-7.97205
-350,-475,-2.77173,4.35486,0,0,0,0,0,0,0,-1,874,1499,-2.77175,-4.35491
-343,-475,-6.81641,-1.95203,0,0,0,0,0,0,0,-1,881,1499,-6.81643,1.95198
-336,-475,0,0,0,0,0,0,0,0,0,-1,888,1499,0,0
-329,-475,0,0,0,0,0,0,0,0,0,-1,895,1499,0,0
-322,-475,0,0,0,0,0,0,0,0,0,-1,902,1499,0,0
-315,-475,0,0,0,0,0,0,0,0,0,-1,909,1499,0,0
-308,-475,0,0,0,0,0,0,0,0,0,-1,916,1499,0,0
-301,-475,0,0,0,0,0,0,0,0,0,-1,923,1499,0,0
-294,-475,0,0,0,0,0,0,0,0,0,-1,930,1499,0,0
-287,-475,0,0,0,0,0,0,0,0,0,-1,937,1499,0,0
-280,-475,0,0,0,0,0,0,0,0,0,-1,944,1499,0,0
-273,-475,0,0,0,0,0,0,0,0,0,-1,951,1499,0,0
-266,-475,0,0,0,0,0,0,0,0,0,-1,958,1499,0,0
-259,-475,0,0,0,0,0,0,0,0,0,-1,965,1499,0,0
-252,-475,0,0,0,0,0,0,0,0,0,-1,972,1499,0,0
-245,-475,0,0,0,0,0,0,0,0,0,-1,979,1499,0,0
-238,-475,0,0,0,0,0,0,0,0,0,-1,986,1499,0,0
-231,-475,0,0,0,0,0,0,0,0,0,-1,993,1499,0,0
-224,-475,0,0,0,0,0,0,0,0,0,-1,1000,1499,0,0
-217,-475,0,0,0,0,0,0,0,0,0,-1,1007,1499,0,0
-210,-475,0,0,0,0,0,0,0,0,0,-1,1014,1499,0,0
-203,-475,0,0,0,0,0,0,0,0,0,-1,1021,1499,0,0
-196,-475,0,0,0,0,0,0,0,0,0,-1,1028,1499,0,0
-189,-475,0,0,0,0,0,0,0,0,0,-1,1035,1499,0,0
-182,-475,0,0,0,0,0,0,0,0,0,-1,1042,1499,0,0
-175,-475,0,0,0,0,0,0,0,0,0,-1,1049,1499,0,0
-168,-475,0,0,0,0,0,0,0,0,0,-1,1056,1499,0,0
-161,-475,0,0,0,0,0,0,0,0,0,-1,1063,1499,0,0
-154,-475,0,0,0,0,0,0,0,0,0,-1,1070,1499,0,0
-147,-475,0,0,0,0,0,0,0,0,0,-1,1077,1499,0,0
-140,-475,0,0,0,0,0,0,0,0,0,-1,1084,1499,0,0
-133,-475,0,0,0,0,0,0,0,0,0,-1,1091,1499,0,0
-126,-475,0,0,0,0,0,0,0,0,0,-1,1098,1499,0,0
-119,-475,0,0,0,0,0,0,0,0,0,-1,1105,1499,0,0
-112,-475,0,0,0,0,0,0,0,0,0,-1,1112,1499,0,0
-105,-475,0,0,0,0,0,0,0,0,0,-1,1119,1499,0,0
-98,-475,0,0,0,0,0,0,0,0,0,-1,1126,1499,0,0
-91,-475,0,0,0,0,0,0,0,0,0,-1,1133,1499,0,0
-84,-475,0,0,0,0,0,0,0,0,0,-1,1140,1499,0,0
-77,-475,0,0,0,0,0,0,0,0,0,-1,1147,1499,0,0
-70,-475,0,0,0,0,0,0,0,0,0,-1,1154,1499,0,0
-63,-475,0,0,0,0,0,0,0,0,0,-1,1161,1499,0,0
-56,-475,0,0,0,0,0,0,0,0,0,-1,1168,1499,0,0
-49,-475,0,0,0,0,0,0,0,0,0,-1,1175,1499,0,0
-42,-475,0,0,0,0,0,0,0,0,0,-1,1182,1499,0,0
-35,-475,0,0,0,0,0,0,0,0,0,-1,1189,1499,0,0
-28,-475,0,0,0,0,0,0,0,0,0,-1,1196,1499,0,0
-21,-475,0,0,0,0,0,0,0,0,0,-1,1203,1499,0,0
-14,-475,0,0,0,0,0,0,0,0,0,-1,1210,1499,0,0
-7,-475,0,0,0,0,0,0,0,0,0,-1,1217,1499,0,0
0,-475,0,0,0,0,0,0,0,0,0,-1,1224,1499,0,0
7,-475,0,0,0,0,0,0,0,0,0,-1,1231,1499,0,0
14,-475,0,0,0,0,0,0,0,0,0,-1,1238,1499,0,0
21,-475,0,0,0,0,0,0,0,0,0,-1,1245,1499,0,0
28,-475,0,0,0,0,0,0,0,0,0,-1,1252,1499,0,0
35,-475,0,0,0,0,0,0,0,0,0,-1,1259,1499,0,0
42,-475,0,0,0,0,0,0,0,0,0,-1,1266,1499,0,0
49,-475,0,0,0,0,0,0,0,0,0,-1,1273,1499,0,0
56,-475,0,0,0,0,0,0,0,0,0,-1,1280,1499,0,0
63,-475,0,0,0,0,0,0,0,0,0,-1,1287,1499,0,0
70,-475,0,0,0,0,0,0,0,0,0,-1,1294,1499,0,0
77,-475,0,0,0,0,0,0,0,0,0,-1,1301,1499,0,0
84,-475,0,0,0,0,0,0,0,0,0,-1,1308,1499,0,0
91,-475,0,0,0,0,0,0,0,0,0,-1,1315,1499,0,0
98,-475,0,0,0,0,0,0,0,0,0,-1,1322,1499,0,0
105,-475,0,0,0,0,0,0,0,0,0,-1,1329,1499,0,0
112,-475,0,0,0,0,0,0,0,0,0,-1,1336,1499,0,0
119,-475,0,0,0,0,0,0,0,0,0,-1,1343,1499,0,0
126,-475,0,0,0,0,0,0,0,0,0,-1,1350,1499,0,0
133,-475,0,0,0,0,0,0,0,0,0,-1,1357,1499,0,0
140,-475,0,0,0,0,0,0,0,0,0,-1,1364,1499,0,0
147,-475,0,0,0,0,0,0,0,0,0,-1,1371,1499,0,0
154,-475,0,0,0,0,0,0,0,0,0,-1,1378,1499,0,0
161,-475,0,0,0,0,0,0,0,0,0,-1,1385,1499,0,0
168,-475,0,0,0,0,0,0,0,0,0,-1,1392,1499,0,0
175,-475,0,0,0,0,0,0,0,0,0,-1,1399,1499,0,0
182,-475,0,0,0,0,0,0,0,0,0,-1,1406,1499,0,0
189,-475,0,0,0,0,0,0,0,0,0,-1,1413,1499,0,0
196,-475,0,0,0,0,0,0,0,0,0,-1,1420,1499,0,0
203,-475,0,0,0,0,0,0,0,0,0,-1,1427,1499,0,0
210,-475,0,0,0,0,0,0,0,0,0,-1,1434,1499,0,0
217,-475,0,0,0,0,0,0,0,0,0,-1,1441,1499,0,0
224,-475,0,0,0,0,0,0,0,0,0,-1,1448,1499,0,0
231,-475,0,0,0,0,0,0,0,0,0,-1,1455,1499,0,0
238,-475,0,0,0,0,0,0,0,0,0,-1,1462,1499,0,0
245,-475,0,0,0,0,0,0,0,0,0,-1,1469,1499,0,0
252,-475,0,0,0,0,0,0,0,0,0,-1,1476,1499,0,0
259,-475,0,0,0,0,0,0,0,0,0,-1,1483,1499,0,0
266,-475,0,0,0,0,0,0,0,0,0,-1,1490,1499,0,0
273,-475,0,0,0,0,0,0,0,0,0,-1,1497,1499,0,0
280,-475,0,0,0,0,0,0,0,0,0,-1,1504,1499,0,0
287,-475,0,0,0,0,0,0,0,0,0,-1,1511,1499,0,0
294,-475,0,0,0,0,0,0,0,0,0,-1,1518,1499,0,0
301,-475,0,0,0,0,0,0,0,0,0,-1,1525,1499,0,0
308,-475,0,0,0,0,0,0,0,0,0,-1,1532,1499,0,0
315,-475,0,0,0,0,0,0,0,0,0,-1,1539,1499,0,0
322,-475,0,0,0,0,0,0,0,0,0,-1,1546,1499,0,0
329,-475,0,0,0,0,0,0,0,0,0,-1,1553,1499,0,0
336,-475,0,0,0,0,0,0,0,0,0,-1,1560,1499,0,0
343,-475,0,0,0,0,0,0,0,0,0,-1,1567,1499,0,0
350,-475,0,0,0,0,0,0,0,0,0,-1,1574,1499,0,0
357,-475,0,0,0,0,0,0,0,0,0,-1,1581,1499,0,0
364,-475,0,0,0,0,0,0,0,0,0,-1,1588,1499,0,0
371,-475,0,0,0,0,0,0,0,0,0,-1,1595,1499,0,0
378,-475,0,0,0,0,0,0,0,0,0,-1,1602,1499,0,0
385,-475,0,0,0,0,0,0,0,0,0,-1,1609,1499,0,0
392,-475,0,0,0,0,0,0,0,0,0,-1,1616,1499,0,0
399,-475,0,0,0,0,0,0,0,0,0,-1,1623,1499,0,0
406,-475,0,0,0,0,0,0,0,0,0,-1,1630,1499,0,0
413,-475,0,0,0,0,0,0,0,0,0,-1,1637,1499,0,0
420,-475,0,0,0,0,0,0,0,0,0,-1,1644,1499,0,0
427,-475,0,0,0,0,0,0,0,0,0,-1,1651,1499,0,0
434,-475,0,0,0,0,0,0,0,0,0,-1,1658,1499,0,0
441,-475,0,0,0,0,0,0,0,0,0,-1,1665,1499,0,0
448,-475,0,0,0,0,0,0,0,0,0,-1,1672,1499,0,0
455,-475,0,0,0,0,0,0,0,0,0,-1,1679,1499,0,0
462,-475,12.6372,0.275391,0,0,0,0,0,0,0,-1,1686,1499,12.6372,-0.27536
469,-475,15.6437,2.28296,0,0,0,0,0,0,0,-1,1693,1499,15.6437,-2.28293
476,-475,15.3302,2.71436,0,0,0,0,0,0,0,-1,1700,1499,15.3303,-2.7143
483,-475,10.7461,5.91479,0,0,0,0,0,0,0,-1,1707,1499,10.7461,-5.91476
490,-475,11.9305,4.4364,0,0,0,0,0,0,0,-1,1714,1499,11.9305,-4.43644
497,-475,13.115,2.95813,0,0,0,0,0,0,0,-1,1721,1499,13.115,-2.95813
504,-475,11.5964,4.55408,0,0,0,0,0,0,0,-1,1728,1499,11.5964,-4.55402
511,-475,11.2941,7.42883,0,0,0,0,0,0,0,-1,1735,1499,11.2941,-7.42883
518,-475,10.38,8.25342,-0.0572824,-0.0426696,0.0544673,0.00497916,-0.104931,0.852072,0.0716715,0.0438153,1742,1499,10.38,-8.25346
525,-475,9.5282,8.91699,0,0,0,0,0,0,0,-1,1749,1499,9.52814,-8.91701
532,-475,9.94971,8.52417,-0.04232,-0.0309031,0.039723,0.00351948,-0.0767426,0.856763,0.0523743,0.0472046,1756,1499,9.94975,-8.52413
539,-475,9.98669,8.5105,0,0,0,0,0,0,0,-1,1763,1499,9.9867,-8.51046
546,-475,9.9978,8.56067,-0.0281859,-0.0205436,0.0264731,0.00238266,-0.0511121,0.857074,0.0348961,0.037611,1770,1499,9.99784,-8.56069
553,-475,10.0326,8.53967,-0.0220881,-0.015975,0.020284,0.00148145,-0.0395446,0.86018,0.0268705,0.0195459,1777,1499,10.0326,-8.53963
560,-475,9.87268,8.44434,-0.0158523,-0.0120794,0.0150502,0.00120209,-0.0291338,0.847744,0.0198354,0.0129014,1784,1499,9.8727,-8.44429
567,-475,9.91211,8.25366,-0.0099873,-0.00832698,0.0107827,0.00165745,-0.0199717,0.823817,0.0139,0.0124352,1791,1499,9.91215,-8.25367
574,-475,9.91907,8.05334,-0.0054164,-0.00526156,0.00633254,0.000994031,-0.011672,0.79151,0.00813294,0.0132943,1798,1499,9.91909,-8.05336
581,-475,9.91785,7.85876,-0.00285093,-0.00275512,0.00341601,0.000613318,-0.00621938,0.79241,0.00436508,0.0116934,1805,1499,9.91789,-7.85882
588,-475,9.90405,7.66565,-0.00132026,-0.00164518,0.0021968,0.000720083,-0.00368552,0.748488,0.0027289,0.00963109,1812,1499,9.90403,-7.6656
595,-475,9.92114,7.47949,-0.000294709,-0.000883056,0.0014204,0.000861662,-0.00203943,0.683289,0.00172034,0.0102935,1819,1499,9.92112,-7.47948
602,-475,9.93518,7.2749,0.000510269,-0.000506569,0.000914373,0.00104807,-0.00104437,0.531668,0.00120807,0.0123652,1826,1499,9.93522,-7.27488
609,-475,9.91882,7.08252,0.00138896,-0.00014488,0.000448482,0.00151047,-0.000266387,0.264578,0.00110652,0.0117249,1833,1499,9.91879,-7.08249
616,-475,9.90601,6.91101,0.00226674,-0.000375118,9.299e-05,0.00227,-0.000378387,0.0351408,0.00165396,0.0109114,1840,1499,9.90598,-6.91096
623,-475,9.8949,6.71655,0.00318193,-0.000274499,-0.000135284,0.00318722,-0.000279786,-0.0390602,0.00222395,0.0111937,1847,1499,9.89485,-6.71656
630,-475,9.90417,6.5105,0.00429647,-0.000794982,-0.000303537,0.0043145,-0.000813014,-0.0593369,0.00318215,0.013339,1854,1499,9.90416,-6.51049
637,-475,9.96887,6.31921,0.00554826,-0.00146134,-0.000508733,0.00558499,-0.00149807,-0.0720731,0.00431035,0.0259591,1861,1499,9.96893,-6.31922
644,-475,10.0663,6.09143,0,0,0,0,0,0,0,-1,1868,1499,10.0663,-6.09148
651,-475,10.4338,6.59485,0,0,0,0,0,0,0,-1,1875,1499,10.4339,-6.59483
658,-475,10.097,5.64282,0,0,0,0,0,0,0,-1,1882,1499,10.0971,-5.64286
665,-475,9.33435,5.43335,0,0,0,0,0,0,0,-1,1889,1499,9.33439,-5.43332
672,-475,9.38635,1.10474,0,0,0,0,0,0,0,-1,1896,1499,9.38629,-1.10475
679,-475,12.2594,1.31079,0,0,0,0,0,0,0,-1,1903,1499,12.2594,-1.31077
686,-475,0,0,0,0,0,0,0,0,0,-1,1910,1499,0,0
693,-475,0,0,0,0,0,0,0,0,0,-1,1917,1499,0,0
700,-475,0,0,0,0,0,0,0,0,0,-1,1924,1499,0,0
707,-475,0,0,0,0,0,0,0,0,0,-1,1931,1499,0,0
714,-475,0,0,0,0,0,0,0,0,0,-1,1938,1499,0,0
721,-475,0,0,0,0,0,0,0,0,0,-1,1945,1499,0,0
728,-475,0,0,0,0,0,0,0,0,0,-1,1952,1499,0,0
735,-475,0,0,0,0,0,0,0,0,0,-1,1959,1499,0,0
742,-475,0,0,0,0,0,0,0,0,0,-1,1966,1499,0,0
749,-475,0,0,0,0,0,0,0,0,0,-1,1973,1499,0,0
756,-475,0,0,0,0,0,0,0,0,0,-1,1980,1499,0,0
763,-475,0,0,0,0,0,0,0,0,0,-1,1987,1499,0,0
770,-475,0,0,0,0,0,0,0,0,0,-1,1994,1499,0,0
777,-475,0,0,0,0,0,0,0,0,0,-1,2001,1499,0,0
784,-475,0,0,0,0,0,0,0,0,0,-1,2008,1499,0,0
791,-475,0,0,0,0,0,0,0,0,0,-1,2015,1499,0,0
798,-475,0,0,0,0,0,0,0,0,0,-1,2022,1499,0,0
805,-475,0,0,0,0,0,0,0,0,0,-1,2029,1499,0,0
812,-475,0,0,0,0,0,0,0,0,0,-1,2036,1499,0,0
-700,-482,0,0,0,0,0,0,0,0,0,-1,524,1506,0,0
-693,-482,0,0,0,0,0,0,0,0,0,-1,531,1506,0,0
-686,-482,0,0,0,0,0,0,0,0,0,-1,538,1506,0,0
-679,-482,0,0,0,0,0,0,0,0,0,-1,545,1506,0,0
-672,-482,0,0,0,0,0,0,0,0,0,-1,552,1506,0,0
-665,-482,0,0,0,0,0,0,0,0,0,-1,559,1506,0,0
-658,-482,0,0,0,0,0,0,0,0,0,-1,566,1506,0,0
-651,-482,0,0,0,0,0,0,0,0,0,-1,573,1506,0,0
-644,-482,0,0,0,0,0,0,0,0,0,-1,580,1506,0,0
-637,-482,0,0,0,0,0,0,0,0,0,-1,587,1506,0,0
-630,-482,0,0,0,0,0,0,0,0,0,-1,594,1506,0,0
-623,-482,0,0,0,0,0,0,0,0,0,-1,601,1506,0,0
-616,-482,0,0,0,0,0,0,0,0,0,-1,608,1506,0,0
-609,-482,0,0,0,0,0,0,0,0,0,-1,615,1506,0,0
-602,-482,0,0,0,0,0,0,0,0,0,-1,622,1506,0,0
-595,-482,0,0,0,0,0,0,0,0,0,-1,629,1506,0,0
-588,-482,0,0,0,0,0,0,0,0,0,-1,636,1506,0,0
-581,-482,0,0,0,0,0,0,0,0,0,-1,643,1506,0,0
-574,-482,0,0,0,0,0,0,0,0,0,-1,650,1506,0,0
-567,-482,0,0,0,0,0,0,0,0,0,-1,657,1506,0,0
-560,-482,0,0,0,0,0,0,0,0,0,-1,664,1506,0,0
-553,-482,-9.06055,9.34314,0,0,0,0,0,0,0,-1,671,1506,-9.06056,-9.34312
-546,-482,-7.11084,8.48279,0,0,0,0,0,0,0,-1,678,1506,-7.11084,-8.48281
-539,-482,-1.7525,3.88171,0,0,0,0,0,0,0,-1,685,1506,-1.75253,-3.88168
-532,-482,-1.97357,4.27393,0.0536057,-0.0217304,0.0293661,0.0637002,-0.0318248,0.33109,0.0561655,0.0497125,692,1506,-1.97359,-4.2739
-525,-482,-2.24304,4.53357,0.0427313,-0.0157286,0.0229385,0.0506573,-0.0236546,0.332689,0.043838,0.0467212,699,1506,-2.24305,-4.53358
-518,-482,-2.35553,4.6554,0.0335951,-0.0110324,0.0176416,0.0397265,-0.0171638,0.334496,0.0336957,0.0490751,706,1506,-2.35554,-4.65536
-511,-482,-2.59766,4.86523,0,0,0,0,0,0,0,-1,713,1506,-2.59768,-4.86524
-504,-482,-1.61725,4.26038,0.0197403,-0.00476225,0.00986483,0.0232183,-0.0082402,0.338954,0.0188363,0.0404641,720,1506,-1.61726,-4.26037
-497,-482,-1.4126,4.72302,0.0145776,-0.00286501,0.00711064,0.017109,-0.00539636,0.342006,0.0135673,0.02377,727,1506,-1.4126,-4.72303
-490,-482,-1.49414,4.95349,0.0100274,-0.00162672,0.00465672,0.0116596,-0.00325886,0.337111,0.00905693,0.0150732,734,1506,-1.49415,-4.95353
-483,-482,-1.50165,5.21765,0.00646643,-0.000990276,0.00286636,0.0074409,-0.00196475,0.327712,0.00572895,0.00929544,741,1506,-1.50164,-5.2176
-476,-482,-1.50006,5.4342,0.00430202,-0.00051141,0.00169815,0.00484081,-0.0010502,0.307234,0.00362829,0.00980177,748,1506,-1.50006,-5.43418
-469,-482,-1.49963,5.66296,0.0032443,-0.000818263,0.00052331,0.00331063,-0.000884589,0.126071,0.00255354,0.0110961,755,1506,-1.4996,-5.663
-462,-482,-1.49805,5.88831,0.00293417,-0.00143854,-0.00031428,0.00295664,-0.00146101,-0.0713841,0.0025988,0.0122617,762,1506,-1.49804,-5.88826
-455,-482,-1.51105,6.09338,0.00256166,-0.00242461,-0.000826058,0.00269494,-0.0025579,-0.159975,0.00303307,0.0125362,769,1506,-1.51102,-6.09332
-448,-482,-1.52533,6.33728,0.0024869,-0.00401663,-0.0012191,0.00270791,-0.00423764,-0.179344,0.00404231,0.0131998,776,1506,-1.52531,-6.33733
-441,-482,-1.53387,6.56165,0.002737,-0.00532997,-0.00177227,0.00310919,-0.00570215,-0.206998,0.00516013,0.0125209,783,1506,-1.53385,-6.56166
-434,-482,-1.52155,6.77222,0.0028584,-0.00646734,-0.00228512,0.00338823,-0.00699717,-0.227835,0.0061155,0.0141778,790,1506,-1.52155,-6.77219
-427,-482,-1.52368,6.99609,0.00284481,-0.00751079,-0.00280923,0.0035578,-0.00822378,-0.248554,0.00697765,0.0157321,797,1506,-1.5237,-6.99611
-420,-482,-1.47632,7.2937,0.00261561,-0.00813476,-0.00341506,0.00360872,-0.00912788,-0.282999,0.00758012,0.023025,804,1506,-1.47632,-7.29369
-413,-482,-1.328,7.29675,0.00197485,-0.00920318,-0.00408363,0.00330776,-0.0105361,-0.315502,0.00834803,0.0311863,811,1506,-1.328,-7.29673
-406,-482,-1.27148,7.27332,0,0,0,0,0,0,0,-1,818,1506,-1.27149,-7.27327
-399,-482,-1.03406,7.47388,0,0,0,0,0,0,0,-1,825,1506,-1.03405,-7.47387
-392,-482,-1.81152,7.72388,0,0,0,0,0,0,0,-1,832,1506,-1.81153,-7.72393
-385,-482,-1.34222,7.22656,0,0,0,0,0,0,0,-1,839,1506,-1.3422,-7.22658
-378,-482,0.215698,5.96948,0,0,0,0,0,0,0,-1,846,1506,0.215681,-5.9695
-371,-482,-0.10907,8.10437,0,0,0,0,0,0,0,-1,853,1506,-0.109063,-8.10433
-364,-482,-0.154968,10.5032,0,0,0,0,0,0,0,-1,860,1506,-0.154976,-10.5032
-357,-482,2.14807,4.60144,0,0,0,0,0,0,0,-1,867,1506,2.14807,-4.60144
-350,-482,-7.5813,-1.45935,0,0,0,0,0,0,0,-1,874,1506,-7.58133,1.45937
-343,-482,-7.19983,-1.26416,0,0,0,0,0,0,0,-1,881,1506,-7.19981,1.26414
-336,-482,-6.78491,-1.18127,0,0,0,0,0,0,0,-1,888,1506,-6.78488,1.18125
-329,-482,0,0,0,0,0,0,0,0,0,-1,895,1506,0,0
-322,-482,0,0,0,0,0,0,0,0,0,-1,902,1506,0,0
-315,-482,0,0,0,0,0,0,0,0,0,-1,909,1506,0,0
-308,-482,0,0,0,0,0,0,0,0,0,-1,916,1506,0,0
-301,-482,0,0,0,0,0,0,0,0,0,-1,923,1506,0,0
-294,-482,0,0,0,0,0,0,0,0,0,-1,930,1506,0,0
-287,-482,0,0,0,0,0,0,0,0,0,-1,937,1506,0,0
-280,-482,0,0,0,0,0,0,0,0,0,-1,944,1506,0,0
-273,-482,0,0,0,0,0,0,0,0,0,-1,951,1506,0,0
-266,-482,0,0,0,0,0,0,0,0,0,-1,958,1506,0,0
-259,-482,0,0,0,0,0,0,0,0,0,-1,965,1506,0,0
-252,-482,0,0,0,0,0,0,0,0,0,-1,972,1506,0,0
-245,-482,0,0,0,0,0,0,0,0,0,-1,979,1506,0,0
-238,-482,0,0,0,0,0,0,0,0,0,-1,986,1506,0,0
-231,-482,0,0,0,0,0,0,0,0,0,-1,993,1506,0,0
-224,-482,0,0,0,0,0,0,0,0,0,-1,1000,1506,0,0
-217,-482,0,0,0,0,0,0,0,0,0,-1,1007,1506,0,0
-210,-482,0,0,0,0,0,0,0,0,0,-1,1014,1506,0,0
-203,-482,0,0,0,0,0,0,0,0,0,-1,1021,1506,0,0
-196,-482,0,0,0,0,0,0,0,0,0,-1,1028,1506,0,0
-189,-482,0,0,0,0,0,0,0,0,0,-1,1035,1506,0,0
-182,-482,0,0,0,0,0,0,0,0,0,-1,1042,1506,0,0
-175,-482,0,0,0,0,0,0,0,0,0,-1,1049,1506,0,0
-168,-482,0,0,0,0,0,0,0,0,0,-1,1056,1506,0,0
-161,-482,0,0,0,0,0,0,0,0,0,-1,1063,1506,0,0
-154,-482,0,0,0,0,0,0,0,0,0,-1,1070,1506,0,0
-147,-482,0,0,0,0,0,0,0,0,0,-1,1077,1506,0,0
-140,-482,0,0,0,0,0,0,0,0,0,-1,1084,1506,0,0
-133,-482,0,0,0,0,0,0,0,0,0,-1,1091,1506,0,0
-126,-482,0,0,0,0,0,0,0,0,0,-1,1098,1506,0,0
-119,-482,0,0,0,0,0,0,0,0,0,-1,1105,1506,0,0
-112,-482,0,0,0,0,0,0,0,0,0,-1,1112,1506,0,0
-105,-482,0,0,0,0,0,0,0,0,0,-1,1119,1506,0,0
-98,-482,0,0,0,0,0,0,0,0,0,-1,1126,1506,0,0
-91,-482,0,0,0,0,0,0,0,0,0,-1,1133,1506,0,0
-84,-482,0,0,0,0,0,0,0,0,0,-1,1140,1506,0,0
-77,-482,0,0,0,0,0,0,0,0,0,-1,1147,1506,0,0
-70,-482,0,0,0,0,0,0,0,0,0,-1,1154,1506,0,0
-63,-482,0,0,0,0,0,0,0,0,0,-1,1161,1506,0,0
-56,-482,0,0,0,0,0,0,0,0,0,-1,1168,1506,0,0
-49,-482,0,0,0,0,0,0,0,0,0,-1,1175,1506,0,0
-42,-482,0,0,0,0,0,0,0,0,0,-1,1182,1506,0,0
-35,-482,0,0,0,0,0,0,0,0,0,-1,1189,1506,0,0
-28,-482,0,0,0,0,0,0,0,0,0,-1,1196,1506,0,0
-21,-482,0,0,0,0,0,0,0,0,0,-1,1203,1506,0,0
-14,-482,0,0,0,0,0,0,0,0,0,-1,1210,1506,0,0
-7,-482,0,0,0,0,0,0,0,0,0,-1,1217,1506,0,0
0,-482,0,0,0,0,0,0,0,0,0,-1,1224,1506,0,0
7,-482,0,0,0,0,0,0,0,0,0,-1,1231,1506,0,0
14,-482,0,0,0,0,0,0,0,0,0,-1,1238,1506,0,0
21,-482,0,0,0,0,0,0,0,0,0,-1,1245,1506,0,0
28,-482,0,0,0,0,0,0,0,0,0,-1,1252,1506,0,0
35,-482,0,0,0,0,0,0,0,0,0,-1,1259,1506,0,0
42,-482,0,0,0,0,0,0,0,0,0,-1,1266,1506,0,0
49,-482,0,0,0,0,0,0,0,0,0,-1,1273,1506,0,0
56,-482,0,0,0,0,0,0,0,0,0,-1,1280,1506,0,0
63,-482,0,0,0,0,0,0,0,0,0,-1,1287,1506,0,0
70,-482,0,0,0,0,0,0,0,0,0,-1,1294,1506,0,0
77,-482,0,0,0,0,0,0,0,0,0,-1,1301,1506,0,0
84,-482,0,0,0,0,0,0,0,0,0,-1,1308,1506,0,0
91,-482,0,0,0,0,0,0,0,0,0,-1,1315,1506,0,0
98,-482,0,0,0,0,0,0,0,0,0,-1,1322,1506,0,0
105,-482,0,0,0,0,0,0,0,0,0,-1,1329,1506,0,0
112,-482,0,0,0,0,0,0,0,0,0,-1,1336,1506,0,0
119,-482,0,0,0,0,0,0,0,0,0,-1,1343,1506,0,0
126,-482,0,0,0,0,0,0,0,0,0,-1,1350,1506,0,0
133,-482,0,0,0,0,0,0,0,0,0,-1,1357,1506,0,0
140,-482,0,0,0,0,0,0,0,0,0,-1,1364,1506,0,0
147,-482,0,0,0,0,0,0,0,0,0,-1,1371,1506,0,0
154,-482,0,0,0,0,0,0,0,0,0,-1,1378,1506,0,0
161,-482,0,0,0,0,0,0,0,0,0,-1,1385,1506,0,0
168,-482,0,0,0,0,0,0,0,0,0,-1,1392,1506,0,0
175,-482,0,0,0,0,0,0,0,0,0,-1,1399,1506,0,0
182,-482,0,0,0,0,0,0,0,0,0,-1,1406,1506,0,0
189,-482,0,0,0,0,0,0,0,0,0,-1,1413,1506,0,0
196,-482,0,0,0,0,0,0,0,0,0,-1,1420,1506,0,0
203,-482,0,0,0,0,0,0,0,0,0,-1,1427,1506,0,0
210,-482,0,0,0,0,0,0,0,0,0,-1,1434,1506,0,0
217,-482,0,0,0,0,0,0,0,0,0,-1,1441,1506,0,0
224,-482,0,0,0,0,0,0,0,0,0,-1,1448,1506,0,0
231,-482,0,0,0,0,0,0,0,0,0,-1,1455,1506,0,0
238,-482,0,0,0,0,0,0,0,0,0,-1,1462,1506,0,0
245,-482,0,0,0,0,0,0,0,0,0,-1,1469,1506,0,0
252,-482,0,0,0,0,0,0,0,0,0,-1,1476,1506,0,0
259,-482,0,0,0,0,0,0,0,0,0,-1,1483,1506,0,0
266,-482,0,0,0,0,0,0,0,0,0,-1,1490,1506,0,0
273,-482,0,0,0,0,0,0,0,0,0,-1,1497,1506,0,0
280,-482,0,0,0,0,0,0,0,0,0,-1,1504,1506,0,0
287,-482,0,0,0,0,0,0,0,0,0,-1,1511,1506,0,0
294,-482,0,0,0,0,0,0,0,0,0,-1,1518,1506,0,0
301,-482,0,0,0,0,0,0,0,0,0,-1,1525,1506,0,0
308,-482,0,0,0,0,0,0,0,0,0,-1,1532,1506,0,0
315,-482,0,0,0,0,0,0,0,0,0,-1,1539,1506,0,0
322,-482,0,0,0,0,0,0,0,0,0,-1,1546,1506,0,0
329,-482,0,0,0,0,0,0,0,0,0,-1,1553,1506,0,0
336,-482,0,0,0,0,0,0,0,0,0,-1,1560,1506,0,0
343,-482,0,0,0,0,0,0,0,0,0,-1,1567,1506,0,0
350,-482,0,0,0,0,0,0,0,0,0,-1,1574,1506,0,0
357,-482,0,0,0,0,0,0,0,0,0,-1,1581,1506,0,0
364,-482,0,0,0,0,0,0,0,0,0,-1,1588,1506,0,0
371,-482,0,0,0,0,0,0,0,0,0,-1,1595,1506,0,0
378,-482,0,0,0,0,0,0,0,0,0,-1,1602,1506,0,0
385,-482,0,0,0,0,0,0,0,0,0,-1,1609,1506,0,0
392,-482,0,0,0,0,0,0,0,0,0,-1,1616,1506,0,0
399,-482,0,0,0,0,0,0,0,0,0,-1,1623,1506,0,0
406,-482,0,0,0,0,0,0,0,0,0,-1,1630,1506,0,0
413,-482,0,0,0,0,0,0,0,0,0,-1,1637,1506,0,0
420,-482,0,0,0,0,0,0,0,0,0,-1,1644,1506,0,0
427,-482,0,0,0,0,0,0,0,0,0,-1,1651,1506,0,0
434,-482,0,0,0,0,0,0,0,0,0,-1,1658,1506,0,0
441,-482,0,0,0,0,0,0,0,0,0,-1,1665,1506,0,0
448,-482,4.24146,1.55383,0,0,0,0,0,0,0,-1,1672,1506,4.24149,-1.55381
455,-482,12.4122,1.09729,0,0,0,0,0,0,0,-1,1679,1506,12.4122,-1.09734
462,-482,15.0673,3.13135,0,0,0,0,0,0,0,-1,1686,1506,15.0672,-3.13134
469,-482,15.3793,3.46301,0,0,0,0,0,0,0,-1,1693,1506,15.3793,-3.46307
476,-482,8.69751,9.18738,0,0,0,0,0,0,0,-1,1700,1506,8.69753,-9.18739
483,-482,10.0902,7.17432,0,0,0,0,0,0,0,-1,1707,1506,10.0902,-7.1743
490,-482,11.6289,5.4928,0,0,0,0,0,0,0,-1,1714,1506,11.6289,-5.49283
497,-482,13.2035,3.77759,0,0,0,0,0,0,0,-1,1721,1506,13.2035,-3.77764
504,-482,13.8121,9.56104,0,0,0,0,0,0,0,-1,1728,1506,13.8121,-9.56108
511,-482,10.6074,7.4165,0,0,0,0,0,0,0,-1,1735,1506,10.6074,-7.4165
518,-482,9.77319,8.24451,0,0,0,0,0,0,0,-1,1742,1506,9.77316,-8.24451
525,-482,10.573,8.87646,0,0,0,0,0,0,0,-1,1749,1506,10.573,-8.87648
532,-482,10.2858,8.67358,0,0,0,0,0,0,0,-1,1756,1506,10.2858,-8.6736
539,-482,9.97681,8.64856,0,0,0,0,0,0,0,-1,1763,1506,9.97679,-8.64854
546,-482,9.80579,8.7373,-0.0228397,-0.0187322,0.0217154,0.0010263,-0.0425982,0.832546,0.028747,0.0175021,1770,1506,9.80584,-8.73729
553,-482,9.73999,8.61804,-0.017158,-0.0141986,0.0158297,0.000220429,-0.031577,0.832001,0.0211252,0.0141241,1777,1506,9.74,-8.61804
560,-482,9.70093,8.42883,-0.011479,-0.0104366,0.0112247,0.000278977,-0.0221946,0.8086,0.0148902,0.0116024,1784,1506,9.70098,-8.42887
567,-482,9.71851,8.24573,-0.00658775,-0.00654862,0.00777572,0.00120755,-0.0143439,0.786656,0.00998949,0.0138604,1791,1506,9.71852,-8.2457
574,-482,9.71606,8.07385,-0.00301155,-0.00375488,0.00425862,0.000891593,-0.00765803,0.741872,0.00542702,0.0132241,1798,1506,9.71606,-8.07389
581,-482,9.70886,7.87158,-0.00121692,-0.00171273,0.00217157,0.000720852,-0.0036505,0.728565,0.00270615,0.00991222,1805,1506,9.70883,-7.87159
588,-482,9.70911,7.67102,-0.000120176,-0.00080712,0.00132395,0.000904131,-0.00183143,0.658481,0.00160934,0.0100334,1812,1506,9.70907,-7.67097
595,-482,9.72998,7.46667,0.000724789,-0.000124403,0.000761103,0.00117172,-0.000571334,0.530966,0.00102606,0.0150622,1819,1506,9.73004,-7.46672
602,-482,9.75916,7.26782,0.00151725,0.000215107,0.000350338,0.00160552,0.000126833,0.246829,0.00103067,0.0200152,1826,1506,9.75916,-7.26783
609,-482,9.73572,7.08032,0.00236358,0.000527142,-8.47807e-06,0.00236362,0.000527103,-0.00461645,0.00143274,0.0158665,1833,1506,9.73571,-7.08032
616,-482,9.7179,6.89551,0.003211,0.000313506,-0.000235039,0.00322994,0.000294564,-0.0804173,0.00206213,0.0112112,1840,1506,9.71784,-6.89553
623,-482,9.71338,6.70923,0.00409626,0.000378465,-0.00032848,0.00412506,0.000349666,-0.0874508,0.00264121,0.0115566,1847,1506,9.71338,-6.70929
630,-482,9.75146,6.50977,0.00520029,-0.000136986,-0.000379545,0.00522715,-0.000163841,-0.0706383,0.00354064,0.022476,1854,1506,9.75151,-6.50975
637,-482,9.76624,6.58252,0.00647734,-0.000840187,-0.000442094,0.00650395,-0.0008668,-0.0601243,0.0046519,0.049782,1861,1506,9.76629,-6.58256
644,-482,9.74805,6.46375,0,0,0,0,0,0,0,-1,1868,1506,9.748,-6.46369
651,-482,4.03845,7.05273,0,0,0,0,0,0,0,-1,1875,1506,4.03843,-7.05279
658,-482,10.0278,5.87903,0,0,0,0,0,0,0,-1,1882,1506,10.0279,-5.87902
665,-482,8.15198,3.22229,0,0,0,0,0,0,0,-1,1889,1506,8.15199,-3.22232
672,-482,9.87415,1.3147,0,0,0,0,0,0,0,-1,1896,1506,9.87416,-1.31473
679,-482,0,0,0,0,0,0,0,0,0,-1,1903,1506,0,0
686,-482,0,0,0,0,0,0,0,0,0,-1,1910,1506,0,0
693,-482,0,0,0,0,0,0,0,0,0,-1,1917,1506,0,0
700,-482,0,0,0,0,0,0,0,0,0,-1,1924,1506,0,0
707,-482,0,0,0,0,0,0,0,0,0,-1,1931,1506,0,0
714,-482,0,0,0,0,0,0,0,0,0,-1,1938,1506,0,0
721,-482,0,0,0,0,0,0,0,0,0,-1,1945,1506,0,0
728,-482,0,0,0,0,0,0,0,0,0,-1,1952,1506,0,0
735,-482,0,0,0,0,0,0,0,0,0,-1,1959,1506,0,0
742,-482,0,0,0,0,0,0,0,0,0,-1,1966,1506,0,0
749,-482,0,0,0,0,0,0,0,0,0,-1,1973,1506,0,0
756,-482,0,0,0,0,0,0,0,0,0,-1,1980,1506,0,0
763,-482,0,0,0,0,0,0,0,0,0,-1,1987,1506,0,0
770,-482,0,0,0,0,0,0,0,0,0,-1,1994,1506,0,0
777,-482,0,0,0,0,0,0,0,0,0,-1,2001,1506,0,0
784,-482,0,0,0,0,0,0,0,0,0,-1,2008,1506,0,0
791,-482,0,0,0,0,0,0,0,0,0,-1,2015,1506,0,0
798,-482,0,0,0,0,0,0,0,0,0,-1,2022,1506,0,0
805,-482,0,0,0,0,0,0,0,0,0,-1,2029,1506,0,0
812,-482,0,0,0,0,0,0,0,0,0,-1,2036,1506,0,0
-700,-489,0,0,0,0,0,0,0,0,0,-1,524,1513,0,0
-693,-489,0,0,0,0,0,0,0,0,0,-1,531,1513,0,0
-686,-489,0,0,0,0,0,0,0,0,0,-1,538,1513,0,0
-679,-489,0,0,0,0,0,0,0,0,0,-1,545,1513,0,0
-672,-489,0,0,0,0,0,0,0,0,0,-1,552,1513,0,0
-665,-489,0,0,0,0,0,0,0,0,0,-1,559,1513,0,0
-658,-489,0,0,0,0,0,0,0,0,0,-1,566,1513,0,0
-651,-489,0,0,0,0,0,0,0,0,0,-1,573,1513,0,0
-644,-489,0,0,0,0,0,0,0,0,0,-1,580,1513,0,0
-637,-489,0,0,0,0,0,0,0,0,0,-1,587,1513,0,0
-630,-489,0,0,0,0,0,0,0,0,0,-1,594,1513,0,0
-623,-489,0,0,0,0,0,0,0,0,0,-1,601,1513,0,0
-616,-489,0,0,0,0,0,0,0,0,0,-1,608,1513,0,0
-609,-489,0,0,0,0,0,0,0,0,0,-1,615,1513,0,0
-602,-489,0,0,0,0,0,0,0,0,0,-1,622,1513,0,0
-595,-489,0,0,0,0,0,0,0,0,0,-1,629,1513,0,0
-588,-489,0,0,0,0,0,0,0,0,0,-1,636,1513,0,0
-581,-489,0,0,0,0,0,0,0,0,0,-1,643,1513,0,0
-574,-489,0,0,0,0,0,0,0,0,0,-1,650,1513,0,0
-567,-489,0,0,0,0,0,0,0,0,0,-1,657,1513,0,0
-560,-489,0,0,0,0,0,0,0,0,0,-1,664,1513,0,0
-553,-489,-9.42206,8.5116,0,0,0,0,0,0,0,-1,671,1513,-9.42205,-8.51158
-546,-489,-7.80951,8.18506,0,0,0,0,0,0,0,-1,678,1513,-7.8095,-8.18503
-539,-489,-2.50818,2.73572,0,0,0,0,0,0,0,-1,685,1513,-2.50821,-2.73573
-532,-489,-1.57196,4.07458,0,0,0,0,0,0,0,-1,692,1513,-1.57196,-4.07454
-525,-489,-2.29761,4.3728,0.0414888,-0.0163071,0.0227827,0.0493895,-0.0242078,0.333809,0.0433126,0.0480482,699,1513,-2.29761,-4.37285
-518,-489,-2.59436,4.76904,0.0337846,-0.0113231,0.0180043,0.0400896,-0.0176281,0.336846,0.0341541,0.0472477,706,1513,-2.59438,-4.76898
-511,-489,-2.84821,5.06335,0.0272135,-0.00733085,0.0140151,0.0321843,-0.0123017,0.340835,0.0265253,0.0499138,713,1513,-2.84821,-5.06332
-504,-489,-1.09808,3.86707,0.0213057,-0.00447107,0.0105874,0.0250968,-0.00826209,0.343847,0.0200606,0.0469478,720,1513,-1.09808,-3.86701
-497,-489,-1.08411,4.63599,0.0161595,-0.00242236,0.00777429,0.0189831,-0.00524592,0.348379,0.014719,0.0397821,727,1513,-1.0841,-4.63598
-490,-489,-1.23956,4.98645,0.0114587,-0.00106263,0.00528084,0.0133885,-0.00299239,0.350352,0.0100724,0.0225839,734,1513,-1.23959,-4.98643
-483,-489,-1.29285,5.20178,0.00768415,-0.000284062,0.00347121,0.00898421,-0.00158412,0.358356,0.00658137,0.0110121,741,1513,-1.29283,-5.20176
-476,-489,-1.29089,5.43579,0.00533587,0.000313035,0.00230096,0.00623057,-0.000581664,0.370847,0.00436055,0.0093028,748,1513,-1.29091,-5.43577
-469,-489,-1.29639,5.66956,0.00405699,8.78872e-05,0.00111415,0.00434835,-0.000203471,0.25578,0.00296905,0.0101909,755,1513,-1.29636,-5.66957
-462,-489,-1.28424,5.89392,0.00347707,-0.000419713,0.000278982,0.00349694,-0.000439585,0.0711096,0.00249078,0.0150466,762,1513,-1.28425,-5.89394
-455,-489,-1.29694,6.10779,0.0028011,-0.00126896,-0.000183871,0.00280939,-0.00127725,-0.0450541,0.00241406,0.0181529,769,1513,-1.29692,-6.10784
-448,-489,-1.32471,6.32764,0.0024479,-0.00271667,-0.000495774,0.00249506,-0.00276383,-0.0948411,0.00303754,0.0164512,776,1513,-1.32471,-6.32765
-441,-489,-1.31305,6.53979,0.00251387,-0.00382869,-0.000966483,0.00265788,-0.0039727,-0.147909,0.00385317,0.0144542,783,1513,-1.31303,-6.53975
-434,-489,-1.32562,6.76465,0.00243642,-0.00472039,-0.00137225,0.00269051,-0.00497448,-0.183092,0.0044904,0.0162392,790,1513,-1.32564,-6.76463
-427,-489,-1.34589,6.99622,0.00230117,-0.00543903,-0.0017451,0.00267642,-0.00581428,-0.211808,0.00501245,0.0179046,797,1513,-1.3459,-6.99626
-420,-489,-1.32819,7.24341,0.00203764,-0.00577195,-0.00216774,0.002599,-0.00633331,-0.253393,0.00530517,0.0176737,804,1513,-1.32821,-7.24337
-413,-489,-1.0849,7.36841,0.00148623,-0.00655596,-0.00264897,0.00228034,-0.00735007,-0.291258,0.00581126,0.024624,811,1513,-1.08491,-7.36847
-406,-489,-0.924927,7.67798,0,0,0,0,0,0,0,-1,818,1513,-0.924912,-7.67801
-399,-489,-0.986206,7.29895,-0.00026097,-0.007186,-0.00362648,0.00129053,-0.00873751,-0.404262,0.0062994,0.0380601,825,1513,-0.986218,-7.29898
-392,-489,-1.4657,7.79932,-0.00176835,-0.00646674,-0.00430725,0.00078869,-0.00902378,-0.535744,0.00629524,0.0433513,832,1513,-1.46572,-7.79938
-385,-489,-1.68665,8.08264,0,0,0,0,0,0,0,-1,839,1513,-1.68665,-8.08262
-378,-489,-0.958679,7.91003,0,0,0,0,0,0,0,-1,846,1513,-0.95869,-7.91003
-371,-489,-1.11633,10.6606,0,0,0,0,0,0,0,-1,853,1513,-1.11633,-10.6606
-364,-489,-0.503113,8.98486,0,0,0,0,0,0,0,-1,860,1513,-0.503097,-8.98482
-357,-489,-0.609924,10.9606,0,0,0,0,0,0,0,-1,867,1513,-0.609947,-10.9605
-350,-489,-7.94659,-0.358887,0,0,0,0,0,0,0,-1,874,1513,-7.94657,0.358912
-343,-489,-7.49323,-0.437866,0,0,0,0,0,0,0,-1,881,1513,-7.49322,0.437823
-336,-489,-7.02332,-0.53125,0,0,0,0,0,0,0,-1,888,1513,-7.0233,0.531295
-329,-489,-6.70221,-0.242432,0,0,0,0,0,0,0,-1,895,1513,-6.70221,0.2424
-322,-489,0,0,0,0,0,0,0,0,0,-1,902,1513,0,0
-315,-489,0,0,0,0,0,0,0,0,0,-1,909,1513,0,0
-308,-489,0,0,0,0,0,0,0,0,0,-1,916,1513,0,0
-301,-489,0,0,0,0,0,0,0,0,0,-1,923,1513,0,0
-294,-489,0,0,0,0,0,0,0,0,0,-1,930,1513,0,0
-287,-489,0,0,0,0,0,0,0,0,0,-1,937,1513,0,0
-280,-489,0,0,0,0,0,0,0,0,0,-1,944,1513,0,0
-273,-489,0,0,0,0,0,0,0,0,0,-1,951,1513,0,0
-266,-489,0,0,0,0,0,0,0,0,0,-1,958,1513,0,0
-259,-489,0,0,0,0,0,0,0,0,0,-1,965,1513,0,0
-252,-489,0,0,0,0,0,0,0,0,0,-1,972,1513,0,0
-245,-489,0,0,0,0,0,0,0,0,0,-1,979,1513,0,0
-238,-489,0,0,0,0,0,0,0,0,0,-1,986,1513,0,0
-231,-489,0,0,0,0,0,0,0,0,0,-1,993,1513,0,0
-224,-489,0,0,0,0,0,0,0,0,0,-1,1000,1513,0,0
-217,-489,0,0,0,0,0,0,0,0,0,-1,1007,1513,0,0
-210,-489,0,0,0,0,0,0,0,0,0,-1,1014,1513,0,0
-203,-489,0,0,0,0,0,0,0,0,0,-1,1021,1513,0,0
-196,-489,0,0,0,0,0,0,0,0,0,-1,1028,1513,0,0
-189,-489,0,0,0,0,0,0,0,0,0,-1,1035,1513,0,0
-182,-489,0,0,0,0,0,0,0,0,0,-1,1042,1513,0,0
-175,-489,0,0,0,0,0,0,0,0,0,-1,1049,1513,0,0
-168,-489,0,0,0,0,0,0,0,0,0,-1,1056,1513,0,0
-161,-489,0,0,0,0,0,0,0,0,0,-1,1063,1513,0,0
-154,-489,0,0,0,0,0,0,0,0,0,-1,1070,1513,0,0
-147,-489,0,0,0,0,0,0,0,0,0,-1,1077,1513,0,0
-140,-489,0,0,0,0,0,0,0,0,0,-1,1084,1513,0,0
-133,-489,0,0,0,0,0,0,0,0,0,-1,1091,1513,0,0
-126,-489,0,0,0,0,0,0,0,0,0,-1,1098,1513,0,0
-119,-489,0,0,0,0,0,0,0,0,0,-1,1105,1513,0,0
-112,-489,0,0,0,0,0,0,0,0,0,-1,1112,1513,0,0
-105,-489,0,0,0,0,0,0,0,0,0,-1,1119,1513,0,0
-98,-489,0,0,0,0,0,0,0,0,0,-1,1126,1513,0,0
-91,-489,0,0,0,0,0,0,0,0,0,-1,1133,1513,0,0
-84,-489,0,0,0,0,0,0,0,0,0,-1,1140,1513,0,0
-77,-489,0,0,0,0,0,0,0,0,0,-1,1147,1513,0,0
-70,-489,0,0,0,0,0,0,0,0,0,-1,1154,1513,0,0
-63,-489,0,0,0,0,0,0,0,0,0,-1,1161,1513,0,0
-56,-489,0,0,0,0,0,0,0,0,0,-1,1168,1513,0,0
-49,-489,0,0,0,0,0,0,0,0,0,-1,1175,1513,0,0
-42,-489,0,0,0,0,0,0,0,0,0,-1,1182,1513,0,0
-35,-489,0,0,0,0,0,0,0,0,0,-1,1189,1513,0,0
-28,-489,0,0,0,0,0,0,0,0,0,-1,1196,1513,0,0
-21,-489,0,0,0,0,0,0,0,0,0,-1,1203,1513,0,0
-14,-489,0,0,0,0,0,0,0,0,0,-1,1210,1513,0,0
-7,-489,0,0,0,0,0,0,0,0,0,-1,1217,1513,0,0
0,-489,0,0,0,0,0,0,0,0,0,-1,1224,1513,0,0
7,-489,0,0,0,0,0,0,0,0,0,-1,1231,1513,0,0
14,-489,0,0,0,0,0,0,0,0,0,-1,1238,1513,0,0
21,-489,0,0,0,0,0,0,0,0,0,-1,1245,1513,0,0
28,-489,0,0,0,0,0,0,0,0,0,-1,1252,1513,0,0
35,-489,0,0,0,0,0,0,0,0,0,-1,1259,1513,0,0
42,-489,0,0,0,0,0,0,0,0,0,-1,1266,1513,0,0
49,-489,0,0,0,0,0,0,0,0,0,-1,1273,1513,0,0
56,-489,0,0,0,0,0,0,0,0,0,-1,1280,1513,0,0
63,-489,0,0,0,0,0,0,0,0,0,-1,1287,1513,0,0
70,-489,0,0,0,0,0,0,0,0,0,-1,1294,1513,0,0
77,-489,0,0,0,0,0,0,0,0,0,-1,1301,1513,0,0
84,-489,0,0,0,0,0,0,0,0,0,-1,1308,1513,0,0
91,-489,0,0,0,0,0,0,0,0,0,-1,1315,1513,0,0
98,-489,0,0,0,0,0,0,0,0,0,-1,1322,1513,0,0
105,-489,0,0,0,0,0,0,0,0,0,-1,1329,1513,0,0
112,-489,0,0,0,0,0,0,0,0,0,-1,1336,1513,0,0
119,-489,0,0,0,0,0,0,0,0,0,-1,1343,1513,0,0
126,-489,0,0,0,0,0,0,0,0,0,-1,1350,1513,0,0
133,-489,0,0,0,0,0,0,0,0,0,-1,1357,1513,0,0
140,-489,0,0,0,0,0,0,0,0,0,-1,1364,1513,0,0
147,-489,0,0,0,0,0,0,0,0,0,-1,1371,1513,0,0
154,-489,0,0,0,0,0,0,0,0,0,-1,1378,1513,0,0
161,-489,0,0,0,0,0,0,0,0,0,-1,1385,1513,0,0
168,-489,0,0,0,0,0,0,0,0,0,-1,1392,1513,0,0
175,-489,0,0,0,0,0,0,0,0,0,-1,1399,1513,0,0
182,-489,0,0,0,0,0,0,0,0,0,-1,1406,1513,0,0
189,-489,0,0,0,0,0,0,0,0,0,-1,1413,1513,0,0
196,-489,0,0,0,0,0,0,0,0,0,-1,1420,1513,0,0
203,-489,0,0,0,0,0,0,0,0,0,-1,1427,1513,0,0
210,-489,0,0,0,0,0,0,0,0,0,-1,1434,1513,0,0
217,-489,0,0,0,0,0,0,0,0,0,-1,1441,1513,0,0
224,-489,0,0,0,0,0,0,0,0,0,-1,1448,1513,0,0
231,-489,0,0,0,0,0,0,0,0,0,-1,1455,1513,0,0
238,-489,0,0,0,0,0,0,0,0,0,-1,1462,1513,0,0
245,-489,0,0,0,0,0,0,0,0,0,-1,1469,1513,0,0
252,-489,0,0,0,0,0,0,0,0,0,-1,1476,1513,0,0
259,-489,0,0,0,0,0,0,0,0,0,-1,1483,1513,0,0
266,-489,0,0,0,0,0,0,0,0,0,-1,1490,1513,0,0
273,-489,0,0,0,0,0,0,0,0,0,-1,1497,1513,0,0
280,-489,0,0,0,0,0,0,0,0,0,-1,1504,1513,0,0
287,-489,0,0,0,0,0,0,0,0,0,-1,1511,1513,0,0
294,-489,0,0,0,0,0,0,0,0,0,-1,1518,1513,0,0
301,-489,0,0,0,0,0,0,0,0,0,-1,1525,1513,0,0
308,-489,0,0,0,0,0,0,0,0,0,-1,1532,1513,0,0
315,-489,0,0,0,0,0,0,0,0,0,-1,1539,1513,0,0
322,-489,0,0,0,0,0,0,0,0,0,-1,1546,1513,0,0
329,-489,0,0,0,0,0,0,0,0,0,-1,1553,1513,0,0
336,-489,0,0,0,0,0,0,0,0,0,-1,1560,1513,0,0
343,-489,0,0,0,0,0,0,0,0,0,-1,1567,1513,0,0
350,-489,0,0,0,0,0,0,0,0,0,-1,1574,1513,0,0
357,-489,0,0,0,0,0,0,0,0,0,-1,1581,1513,0,0
364,-489,0,0,0,0,0,0,0,0,0,-1,1588,1513,0,0
371,-489,0,0,0,0,0,0,0,0,0,-1,1595,1513,0,0
378,-489,0,0,0,0,0,0,0,0,0,-1,1602,1513,0,0
385,-489,0,0,0,0,0,0,0,0,0,-1,1609,1513,0,0
392,-489,0,0,0,0,0,0,0,0,0,-1,1616,1513,0,0
399,-489,0,0,0,0,0,0,0,0,0,-1,1623,1513,0,0
406,-489,0,0,0,0,0,0,0,0,0,-1,1630,1513,0,0
413,-489,0,0,0,0,0,0,0,0,0,-1,1637,1513,0,0
420,-489,0,0,0,0,0,0,0,0,0,-1,1644,1513,0,0
427,-489,0,0,0,0,0,0,0,0,0,-1,1651,1513,0,0
434,-489,0,0,0,0,0,0,0,0,0,-1,1658,1513,0,0
441,-489,11.4602,2.56787,0,0,0,0,0,0,0,-1,1665,1513,11.4602,-2.56786
448,-489,12.4425,1.72351,0,0,0,0,0,0,0,-1,1672,1513,12.4425,-1.72349
455,-489,12.5575,1.37463,0,0,0,0,0,0,0,-1,1679,1513,12.5575,-1.37469
462,-489,14.9784,3.84888,0,0,0,0,0,0,0,-1,1686,1513,14.9784,-3.84892
469,-489,15.1367,4.53101,0,0,0,0,0,0,0,-1,1693,1513,15.1368,-4.531
476,-489,15.5536,5.09338,0,0,0,0,0,0,0,-1,1700,1513,15.5536,-5.09339
483,-489,8.96912,8.37805,0,0,0,0,0,0,0,-1,1707,1513,8.96909,-8.37809
490,-489,10.9624,6.73401,0,0,0,0,0,0,0,-1,1714,1513,10.9624,-6.73406
497,-489,13.631,9.21228,0,0,0,0,0,0,0,-1,1721,1513,13.631,-9.21231
504,-489,13.0651,9.55347,0,0,0,0,0,0,0,-1,1728,1513,13.065,-9.55352
511,-489,10.0508,7.10767,0,0,0,0,0,0,0,-1,1735,1513,10.0508,-7.10769
518,-489,9.57703,8.18787,0,0,0,0,0,0,0,-1,1742,1513,9.57699,-8.18781
525,-489,9.89905,9.08032,0,0,0,0,0,0,0,-1,1749,1513,9.8991,-9.08036
532,-489,9.78308,8.95044,-0.030122,-0.0277051,0.0291564,0.000267873,-0.058095,0.80611,0.0388196,0.0389748,1756,1513,9.78306,-8.9504
539,-489,9.58276,8.93884,-0.0234296,-0.0218361,0.0227798,0.000160879,-0.0454266,0.802879,0.0303382,0.0183741,1763,1513,9.58276,-8.93885
546,-489,9.49707,8.83044,-0.0178223,-0.0163498,0.0169854,-8.46982e-05,-0.0340874,0.807058,0.0226967,0.011526,1770,1513,9.49707,-8.83047
553,-489,9.52246,8.63367,-0.0127849,-0.012045,0.0116972,-0.000711912,-0.024118,0.801205,0.0158467,0.0132772,1777,1513,9.52244,-8.63369
560,-489,9.53369,8.43762,-0.00782283,-0.00855671,0.00788795,-0.00029329,-0.0160863,0.762156,0.0106278,0.0127376,1784,1513,9.53372,-8.43765
567,-489,9.54407,8.27222,-0.00385284,-0.00481019,0.00530314,0.000993185,-0.00965622,0.740389,0.00679279,0.0141198,1791,1513,9.54406,-8.27219
574,-489,9.51013,8.10706,-0.00113489,-0.00234829,0.00265064,0.000977606,-0.00446078,0.672892,0.00334764,0.0144715,1798,1513,9.51016,-8.1071
581,-489,9.52258,7.89246,0.000141664,-0.000664984,0.00116378,0.000970031,-0.00149335,0.618593,0.00143289,0.0106194,1805,1513,9.5226,-7.89244
588,-489,9.52942,7.68567,0.0010388,9.76932e-05,0.000530265,0.00127719,-0.000140698,0.422496,0.000902023,0.0119775,1812,1513,9.52938,-7.68572
595,-489,9.53198,7.4729,0.00180776,0.000722451,9.65079e-05,0.00181627,0.000713936,0.0880023,0.00105659,0.0171091,1819,1513,9.53194,-7.47284
602,-489,9.5481,7.2699,0.00259356,0.00103073,-0.000224101,0.00262506,0.000999234,-0.139647,0.0015299,0.0232422,1826,1513,9.54814,-7.26996
609,-489,9.53625,7.07275,0.00341172,0.00129053,-0.000473593,0.00351266,0.0011896,-0.209985,0.00206293,0.0166599,1833,1513,9.53629,-7.07279
616,-489,9.52393,6.8905,0.00421564,0.00111478,-0.00056838,0.00431654,0.00101388,-0.175691,0.00260632,0.0100345,1840,1513,9.52398,-6.8905
623,-489,9.52148,6.72131,0.00503172,0.00117576,-0.000522721,0.00510133,0.00110615,-0.132379,0.00309869,0.0143772,1847,1513,9.52143,-6.72131
630,-489,9.49341,6.65503,0.00606946,0.000745225,-0.000451559,0.00610748,0.000707199,-0.0840124,0.00385759,0.0339082,1854,1513,9.49341,-6.65499
637,-489,9.4104,6.6908,0,0,0,0,0,0,0,-1,1861,1513,9.41036,-6.69077
644,-489,7.84802,6.64746,0,0,0,0,0,0,0,-1,1868,1513,7.84797,-6.64745
651,-489,6.13818,6.85095,0,0,0,0,0,0,0,-1,1875,1513,6.13823,-6.85097
658,-489,5.43848,7.75513,0,0,0,0,0,0,0,-1,1882,1513,5.43844,-7.75509
665,-489,5.48438,8.59912,0,0,0,0,0,0,0,-1,1889,1513,5.48434,-8.59907
672,-489,0,0,0,0,0,0,0,0,0,-1,1896,1513,0,0
679,-489,0,0,0,0,0,0,0,0,0,-1,1903,1513,0,0
686,-489,0,0,0,0,0,0,0,0,0,-1,1910,1513,0,0
693,-489,0,0,0,0,0,0,0,0,0,-1,1917,1513,0,0
700,-489,0,0,0,0,0,0,0,0,0,-1,1924,1513,0,0
707,-489,0,0,0,0,0,0,0,0,0,-1,1931,1513,0,0
714,-489,0,0,0,0,0,0,0,0,0,-1,1938,1513,0,0
721,-489,0,0,0,0,0,0,0,0,0,-1,1945,1513,0,0
728,-489,0,0,0,0,0,0,0,0,0,-1,1952,1513,0,0
735,-489,0,0,0,0,0,0,0,0,0,-1,1959,1513,0,0
742,-489,0,0,0,0,0,0,0,0,0,-1,1966,1513,0,0
749,-489,0,0,0,0,0,0,0,0,0,-1,1973,1513,0,0
756,-489,0,0,0,0,0,0,0,0,0,-1,1980,1513,0,0
763,-489,0,0,0,0,0,0,0,0,0,-1,1987,1513,0,0
770,-489,0,0,0,0,0,0,0,0,0,-1,1994,1513,0,0
777,-489,0,0,0,0,0,0,0,0,0,-1,2001,1513,0,0
784,-489,0,0,0,0,0,0,0,0,0,-1,2008,1513,0,0
791,-489,0,0,0,0,0,0,0,0,0,-1,2015,1513,0,0
798,-489,0,0,0,0,0,0,0,0,0,-1,2022,1513,0,0
805,-489,0,0,0,0,0,0,0,0,0,-1,2029,1513,0,0
812,-489,0,0,0,0,0,0,0,0,0,-1,2036,1513,0,0
-700,-496,0,0,0,0,0,0,0,0,0,-1,524,1520,0,0
-693,-496,0,0,0,0,0,0,0,0,0,-1,531,1520,0,0
-686,-496,0,0,0,0,0,0,0,0,0,-1,538,1520,0,0
-679,-496,0,0,0,0,0,0,0,0,0,-1,545,1520,0,0
-672,-496,0,0,0,0,0,0,0,0,0,-1,552,1520,0,0
-665,-496,0,0,0,0,0,0,0,0,0,-1,559,1520,0,0
-658,-496,0,0,0,0,0,0,0,0,0,-1,566,1520,0,0
-651,-496,0,0,0,0,0,0,0,0,0,-1,573,1520,0,0
-644,-496,0,0,0,0,0,0,0,0,0,-1,580,1520,0,0
-637,-496,0,0,0,0,0,0,0,0,0,-1,587,1520,0,0
-630,-496,0,0,0,0,0,0,0,0,0,-1,594,1520,0,0
-623,-496,0,0,0,0,0,0,0,0,0,-1,601,1520,0,0
-616,-496,0,0,0,0,0,0,0,0,0,-1,608,1520,0,0
-609,-496,0,0,0,0,0,0,0,0,0,-1,615,1520,0,0
-602,-496,0,0,0,0,0,0,0,0,0,-1,622,1520,0,0
-595,-496,0,0,0,0,0,0,0,0,0,-1,629,1520,0,0
-588,-496,0,0,0,0,0,0,0,0,0,-1,636,1520,0,0
-581,-496,0,0,0,0,0,0,0,0,0,-1,643,1520,0,0
-574,-496,0,0,0,0,0,0,0,0,0,-1,650,1520,0,0
-567,-496,0,0,0,0,0,0,0,0,0,-1,657,1520,0,0
-560,-496,0,0,0,0,0,0,0,0,0,-1,664,1520,0,0
-553,-496,0,0,0,0,0,0,0,0,0,-1,671,1520,0,0
-546,-496,-8.09711,7.94836,0,0,0,0,0,0,0,-1,678,1520,-8.09712,-7.94842
-539,-496,-1.23816,3.50525,0,0,0,0,0,0,0,-1,685,1520,-1.23814,-3.50531
-532,-496,-2.29614,2.53308,0,0,0,0,0,0,0,-1,692,1520,-2.29617,-2.53309
-525,-496,-2.51538,4.28369,0,0,0,0,0,0,0,-1,699,1520,-2.5154,-4.28371
-518,-496,-2.76672,4.94446,0,0,0,0,0,0,0,-1,706,1520,-2.76672,-4.9445
-511,-496,-2.9303,5.35327,0,0,0,0,0,0,0,-1,713,1520,-2.93029,-5.35324
-504,-496,-0.741882,3.56787,0,0,0,0,0,0,0,-1,720,1520,-0.74189,-3.5679
-497,-496,-0.833313,4.64355,0.0179339,-0.00159414,0.00880007,0.0213143,-0.0049746,0.36676,0.0161256,0.0479602,727,1520,-0.83333,-4.64361
-490,-496,-0.974304,5.10974,0.0130723,-0.000236767,0.00619071,0.0155066,-0.00267112,0.374653,0.0113335,0.0358569,734,1520,-0.974295,-5.10974
-483,-496,-1.05865,5.25452,0.00907774,0.000544293,0.00426368,0.0108429,-0.00122089,0.392521,0.00766804,0.0179974,741,1520,-1.05864,-5.25451
-476,-496,-1.07788,5.43591,0.00650069,0.00122375,0.00303029,0.00788021,-0.000155761,0.427204,0.00530615,0.0107322,748,1520,-1.07786,-5.43592
-469,-496,-1.08472,5.68506,0.0049449,0.00106671,0.0017854,0.00564166,0.00036995,0.372077,0.00364406,0.0100963,755,1520,-1.08472,-5.68511
-462,-496,-1.07751,5.90112,0.00404294,0.000681992,0.000905054,0.00427116,0.000453772,0.247013,0.00270888,0.0151874,762,1520,-1.07753,-5.90115
-455,-496,-1.0802,6.11401,0.00306453,-1.73889e-05,0.000436466,0.00312515,-7.80097e-05,0.138007,0.00210992,0.0200734,769,1520,-1.08022,-6.11397
-448,-496,-1.09113,6.32153,0.0024725,-0.00129547,0.000145302,0.00247809,-0.00130107,0.0384861,0.00221689,0.0185566,776,1520,-1.09113,-6.32148
-441,-496,-1.08923,6.53577,0.00239919,-0.00223491,-0.00029117,0.00241741,-0.00225313,-0.0625044,0.00269709,0.0145388,783,1520,-1.08924,-6.53573
-434,-496,-1.09784,6.76013,0.00218065,-0.00296523,-0.00065555,0.00226285,-0.00304743,-0.124739,0.00307702,0.0129447,790,1520,-1.09784,-6.76019
-427,-496,-1.10028,6.99548,0.00199458,-0.00348141,-0.000949852,0.00215466,-0.00364149,-0.166962,0.00338291,0.0162045,797,1520,-1.10027,-6.9955
-420,-496,-1.09363,7.18774,0.00174925,-0.0036996,-0.00126292,0.00202774,-0.00397808,-0.217034,0.00352788,0.0174358,804,1520,-1.09364,-7.18779
-413,-496,-1.04596,7.40369,0.00132446,-0.00436208,-0.00163311,0.00176009,-0.00479772,-0.260683,0.00391921,0.0163654,811,1520,-1.04599,-7.40367
-406,-496,-1.02716,7.65247,0.000887388,-0.0049269,-0.00192185,0.00146521,-0.00550472,-0.292062,0.00424339,0.0261515,818,1520,-1.02715,-7.65244
-399,-496,-0.874512,7.89526,0.000123319,-0.00503368,-0.00238425,0.0010567,-0.00596706,-0.373138,0.00437304,0.0426801,825,1520,-0.874493,-7.8953
-392,-496,-1.08862,7.8479,-0.000892184,-0.0044908,-0.00294322,0.000758157,-0.00614114,-0.511041,0.00436879,0.0440198,832,1520,-1.08861,-7.84785
-385,-496,-1.37463,8.40332,-0.00208867,-0.00355001,-0.00357954,0.000834009,-0.00647269,-0.68472,0.0046183,0.0428719,839,1520,-1.37464,-8.40337
-378,-496,-1.99945,8.66077,0,0,0,0,0,0,0,-1,846,1520,-1.99944,-8.66075
-371,-496,-0.955627,9.65149,0,0,0,0,0,0,0,-1,853,1520,-0.955651,-9.65151
-364,-496,0.0881348,10.6422,0,0,0,0,0,0,0,-1,860,1520,0.0881368,-10.6423
-357,-496,0.323792,7.56812,0,0,0,0,0,0,0,-1,867,1520,0.323782,-7.56806
-350,-496,2.1535,7.18945,0,0,0,0,0,0,0,-1,874,1520,2.15348,-7.1894
-343,-496,-7.56244,0.335327,0,0,0,0,0,0,0,-1,881,1520,-7.56242,-0.335322
-336,-496,-3.99249,6.02222,0,0,0,0,0,0,0,-1,888,1520,-3.99246,-6.0222
-329,-496,-6.93689,-0.100342,0,0,0,0,0,0,0,-1,895,1520,-6.93686,0.1003
-322,-496,-6.17505,0.494385,0,0,0,0,0,0,0,-1,902,1520,-6.17507,-0.49437
-315,-496,-5.46338,1.0459,0,0,0,0,0,0,0,-1,909,1520,-5.46338,-1.04587
-308,-496,0,0,0,0,0,0,0,0,0,-1,916,1520,0,0
-301,-496,0,0,0,0,0,0,0,0,0,-1,923,1520,0,0
-294,-496,0,0,0,0,0,0,0,0,0,-1,930,1520,0,0
-287,-496,0,0,0,0,0,0,0,0,0,-1,937,1520,0,0
-280,-496,0,0,0,0,0,0,0,0,0,-1,944,1520,0,0
-273,-496,0,0,0,0,0,0,0,0,0,-1,951,1520,0,0
-266,-496,0,0,0,0,0,0,0,0,0,-1,958,1520,0,0
-259,-496,0,0,0,0,0,0,0,0,0,-1,965,1520,0,0
-252,-496,0,0,0,0,0,0,0,0,0,-1,972,1520,0,0
-245,-496,0,0,0,0,0,0,0,0,0,-1,979,1520,0,0
-238,-496,0,0,0,0,0,0,0,0,0,-1,986,1520,0,0
-231,-496,0,0,0,0,0,0,0,0,0,-1,993,1520,0,0
-224,-496,0,0,0,0,0,0,0,0,0,-1,1000,1520,0,0
-217,-496,0,0,0,0,0,0,0,0,0,-1,1007,1520,0,0
-210,-496,0,0,0,0,0,0,0,0,0,-1,1014,1520,0,0
-203,-496,0,0,0,0,0,0,0,0,0,-1,1021,1520,0,0
-196,-496,0,0,0,0,0,0,0,0,0,-1,1028,1520,0,0
-189,-496,0,0,0,0,0,0,0,0,0,-1,1035,1520,0,0
-182,-496,0,0,0,0,0,0,0,0,0,-1,1042,1520,0,0
-175,-496,0,0,0,0,0,0,0,0,0,-1,1049,1520,0,0
-168,-496,0,0,0,0,0,0,0,0,0,-1,1056,1520,0,0
-161,-496,0,0,0,0,0,0,0,0,0,-1,1063,1520,0,0
-154,-496,0,0,0,0,0,0,0,0,0,-1,1070,1520,0,0
-147,-496,0,0,0,0,0,0,0,0,0,-1,1077,1520,0,0
-140,-496,0,0,0,0,0,0,0,0,0,-1,1084,1520,0,0
-133,-496,0,0,0,0,0,0,0,0,0,-1,1091,1520,0,0
-126,-496,0,0,0,0,0,0,0,0,0,-1,1098,1520,0,0
-119,-496,0,0,0,0,0,0,0,0,0,-1,1105,1520,0,0
-112,-496,0,0,0,0,0,0,0,0,0,-1,1112,1520,0,0
-105,-496,0,0,0,0,0,0,0,0,0,-1,1119,1520,0,0
-98,-496,0,0,0,0,0,0,0,0,0,-1,1126,1520,0,0
-91,-496,0,0,0,0,0,0,0,0,0,-1,1133,1520,0,0
-84,-496,0,0,0,0,0,0,0,0,0,-1,1140,1520,0,0
-77,-496,0,0,0,0,0,0,0,0,0,-1,1147,1520,0,0
-70,-496,0,0,0,0,0,0,0,0,0,-1,1154,1520,0,0
-63,-496,0,0,0,0,0,0,0,0,0,-1,1161,1520,0,0
-56,-496,0,0,0,0,0,0,0,0,0,-1,1168,1520,0,0
-49,-496,0,0,0,0,0,0,0,0,0,-1,1175,1520,0,0
-42,-496,0,0,0,0,0,0,0,0,0,-1,1182,1520,0,0
-35,-496,0,0,0,0,0,0,0,0,0,-1,1189,1520,0,0
-28,-496,0,0,0,0,0,0,0,0,0,-1,1196,1520,0,0
-21,-496,0,0,0,0,0,0,0,0,0,-1,1203,1520,0,0
-14,-496,0,0,0,0,0,0,0,0,0,-1,1210,1520,0,0
-7,-496,0,0,0,0,0,0,0,0,0,-1,1217,1520,0,0
0,-496,0,0,0,0,0,0,0,0,0,-1,1224,1520,0,0
7,-496,0,0,0,0,0,0,0,0,0,-1,1231,1520,0,0
14,-496,0,0,0,0,0,0,0,0,0,-1,1238,1520,0,0
21,-496,0,0,0,0,0,0,0,0,0,-1,1245,1520,0,0
28,-496,0,0,0,0,0,0,0,0,0,-1,1252,1520,0,0
35,-496,0,0,0,0,0,0,0,0,0,-1,1259,1520,0,0
42,-496,0,0,0,0,0,0,0,0,0,-1,1266,1520,0,0
49,-496,0,0,0,0,0,0,0,0,0,-1,1273,1520,0,0
56,-496,0,0,0,0,0,0,0,0,0,-1,1280,1520,0,0
63,-496,0,0,0,0,0,0,0,0,0,-1,1287,1520,0,0
70,-496,0,0,0,0,0,0,0,0,0,-1,1294,1520,0,0
77,-496,0,0,0,0,0,0,0,0,0,-1,1301,1520,0,0
84,-496,0,0,0,0,0,0,0,0,0,-1,1308,1520,0,0
91,-496,0,0,0,0,0,0,0,0,0,-1,1315,1520,0,0
98,-496,0,0,0,0,0,0,0,0,0,-1,1322,1520,0,0
105,-496,0,0,0,0,0,0,0,0,0,-1,1329,1520,0,0
112,-496,0,0,0,0,0,0,0,0,0,-1,1336,1520,0,0
119,-496,0,0,0,0,0,0,0,0,0,-1,1343,1520,0,0
126,-496,0,0,0,0,0,0,0,0,0,-1,1350,1520,0,0
133,-496,0,0,0,0,0,0,0,0,0,-1,1357,1520,0,0
140,-496,0,0,0,0,0,0,0,0,0,-1,1364,1520,0,0
147,-496,0,0,0,0,0,0,0,0,0,-1,1371,1520,0,0
154,-496,0,0,0,0,0,0,0,0,0,-1,1378,1520,0,0
161,-496,0,0,0,0,0,0,0,0,0,-1,1385,1520,0,0
168,-496,0,0,0,0,0,0,0,0,0,-1,1392,1520,0,0
175,-496,0,0,0,0,0,0,0,0,0,-1,1399,1520,0,0
182,-496,0,0,0,0,0,0,0,0,0,-1,1406,1520,0,0
189,-496,0,0,0,0,0,0,0,0,0,-1,1413,1520,0,0
196,-496,0,0,0,0,0,0,0,0,0,-1,1420,1520,0,0
203,-496,0,0,0,0,0,0,0,0,0,-1,1427,1520,0,0
210,-496,0,0,0,0,0,0,0,0,0,-1,1434,1520,0,0
217,-496,0,0,0,0,0,0,0,0,0,-1,1441,1520,0,0
224,-496,0,0,0,0,0,0,0,0,0,-1,1448,1520,0,0
231,-496,0,0,0,0,0,0,0,0,0,-1,1455,1520,0,0
238,-496,0,0,0,0,0,0,0,0,0,-1,1462,1520,0,0
245,-496,0,0,0,0,0,0,0,0,0,-1,1469,1520,0,0
252,-496,0,0,0,0,0,0,0,0,0,-1,1476,1520,0,0
259,-496,0,0,0,0,0,0,0,0,0,-1,1483,1520,0,0
266,-496,0,0,0,0,0,0,0,0,0,-1,1490,1520,0,0
273,-496,0,0,0,0,0,0,0,0,0,-1,1497,1520,0,0
280,-496,0,0,0,0,0,0,0,0,0,-1,1504,1520,0,0
287,-496,0,0,0,0,0,0,0,0,0,-1,1511,1520,0,0
294,-496,0,0,0,0,0,0,0,0,0,-1,1518,1520,0,0
301,-496,0,0,0,0,0,0,0,0,0,-1,1525,1520,0,0
308,-496,0,0,0,0,0,0,0,0,0,-1,1532,1520,0,0
315,-496,0,0,0,0,0,0,0,0,0,-1,1539,1520,0,0
322,-496,0,0,0,0,0,0,0,0,0,-1,1546,1520,0,0
329,-496,0,0,0,0,0,0,0,0,0,-1,1553,1520,0,0
336,-496,0,0,0,0,0,0,0,0,0,-1,1560,1520,0,0
343,-496,0,0,0,0,0,0,0,0,0,-1,1567,1520,0,0
350,-496,0,0,0,0,0,0,0,0,0,-1,1574,1520,0,0
357,-496,0,0,0,0,0,0,0,0,0,-1,1581,1520,0,0
364,-496,0,0,0,0,0,0,0,0,0,-1,1588,1520,0,0
371,-496,0,0,0,0,0,0,0,0,0,-1,1595,1520,0,0
378,-496,0,0,0,0,0,0,0,0,0,-1,1602,1520,0,0
385,-496,0,0,0,0,0,0,0,0,0,-1,1609,1520,0,0
392,-496,0,0,0,0,0,0,0,0,0,-1,1616,1520,0,0
399,-496,0,0,0,0,0,0,0,0,0,-1,1623,1520,0,0
406,-496,0,0,0,0,0,0,0,0,0,-1,1630,1520,0,0
413,-496,0,0,0,0,0,0,0,0,0,-1,1637,1520,0,0
420,-496,0,0,0,0,0,0,0,0,0,-1,1644,1520,0,0
427,-496,0,0,0,0,0,0,0,0,0,-1,1651,1520,0,0
434,-496,11.0457,3.37732,0,0,0,0,0,0,0,-1,1658,1520,11.0456,-3.37736
441,-496,11.788,2.75488,0,0,0,0,0,0,0,-1,1665,1520,11.7879,-2.75485
448,-496,12.2146,2.18494,0,0,0,0,0,0,0,-1,1672,1520,12.2146,-2.18489
455,-496,12.3489,1.65173,0,0,0,0,0,0,0,-1,1679,1520,12.3489,-1.65178
462,-496,12.1912,1.32361,0,0,0,0,0,0,0,-1,1686,1520,12.1911,-1.32357
469,-496,14.8138,5.77954,0,0,0,0,0,0,0,-1,1693,1520,14.8138,-5.77958
476,-496,15.2449,6.27942,0,0,0,0,0,0,0,-1,1700,1520,15.2449,-6.27936
483,-496,8.92578,2.27734,0,0,0,0,0,0,0,-1,1707,1520,8.92574,-2.27738
490,-496,12.4017,8.7793,0,0,0,0,0,0,0,-1,1714,1520,12.4018,-8.77929
497,-496,12.483,9.11816,-0.0639499,-0.0678867,0.0667697,0.000880405,-0.132717,0.770662,0.0887729,0.0458034,1721,1520,12.4831,-9.11812
504,-496,12.1426,9.54907,-0.0554004,-0.0565496,0.0562479,0.000275824,-0.112226,0.78029,0.0749093,0.0436963,1728,1520,12.1425,-9.54913
511,-496,9.80762,7.552,-0.0468051,-0.0464111,0.0468017,0.000194054,-0.0934103,0.787503,0.0623383,0.0466533,1735,1520,9.80767,-7.552
518,-496,9.44373,8.43237,-0.0387186,-0.0375159,0.0377763,-0.000336148,-0.0758983,0.793357,0.0504872,0.0447975,1742,1520,9.44377,-8.43237
525,-496,9.43848,8.91211,-0.0315671,-0.0306729,0.0301525,-0.000964202,-0.0612758,0.792812,0.040533,0.0428366,1749,1520,9.43849,-8.91206
532,-496,9.40283,9.13647,-0.0246616,-0.024207,0.0234137,-0.00101954,-0.0478491,0.790252,0.031565,0.0247945,1756,1520,9.40282,-9.13653
539,-496,9.34277,9.0199,-0.018631,-0.0185536,0.0177375,-0.000854757,-0.0363298,0.786488,0.0239401,0.0130217,1763,1520,9.34282,-9.01984
546,-496,9.29102,8.84631,-0.013877,-0.0133624,0.0127254,-0.0008917,-0.0263477,0.795506,0.0172756,0.00999103,1770,1520,9.29097,-8.84634
553,-496,9.31946,8.6582,-0.00952584,-0.0095653,0.00822143,-0.00132412,-0.017767,0.784198,0.0114289,0.0150055,1777,1520,9.31949,-8.6582
560,-496,9.36084,8.44812,-0.0052652,-0.00656239,0.00526617,-0.000607832,-0.0112198,0.724125,0.00728568,0.0142572,1784,1520,9.36087,-8.44817
567,-496,9.34387,8.25513,-0.00200579,-0.00323833,0.00343197,0.000864807,-0.00610892,0.696562,0.00438937,0.0117814,1791,1520,9.34387,-8.25513
574,-496,9.33374,8.07129,0.000118248,-0.00113858,0.00149564,0.00111213,-0.00213246,0.586514,0.00190389,0.0118814,1798,1520,9.3338,-8.07134
581,-496,9.33228,7.88391,0.00112602,0.000291563,0.000408023,0.00129237,0.000125215,0.387121,0.000823024,0.0125463,1805,1520,9.33232,-7.88395
588,-496,9.33716,7.67554,0.0019975,0.000997456,-0.000128375,0.00201371,0.000981239,-0.125656,0.00116274,0.0145353,1812,1520,9.33722,-7.67548
595,-496,9.3269,7.48315,0.00283685,0.00163352,-0.000524056,0.00303308,0.00143729,-0.358284,0.00175194,0.0155294,1819,1520,9.32694,-7.48319
602,-496,9.33887,7.26477,0.00371189,0.00199053,-0.000807476,0.00403138,0.00167104,-0.376757,0.00233883,0.0169493,1826,1520,9.33889,-7.26477
609,-496,9.33447,7.07922,0.00460386,0.0022905,-0.00100765,0.00498121,0.00191315,-0.358325,0.00290156,0.014688,1833,1520,9.3345,-7.07921
616,-496,9.33484,6.88049,0.00546967,0.00225945,-0.0010378,0.00577595,0.00195317,-0.286976,0.00339248,0.0122918,1840,1520,9.33487,-6.88051
623,-496,9.32275,6.72644,0.00630488,0.0023446,-0.000941755,0.00651742,0.00213206,-0.221969,0.00383706,0.0253538,1847,1520,9.32281,-6.72642
630,-496,9.13159,6.78735,0.00725978,0.00205877,-0.000847044,0.00739425,0.00192429,-0.157443,0.00442965,0.0419211,1854,1520,9.13162,-6.78737
637,-496,9,6.90527,0,0,0,0,0,0,0,-1,1861,1520,9.00005,-6.90527
644,-496,7.89685,6.96399,0,0,0,0,0,0,0,-1,1868,1520,7.89686,-6.96394
651,-496,6.02295,6.79968,0,0,0,0,0,0,0,-1,1875,1520,6.02298,-6.79971
658,-496,5.57922,7.42651,0,0,0,0,0,0,0,-1,1882,1520,5.57926,-7.42654
665,-496,5.47583,7.90625,0,0,0,0,0,0,0,-1,1889,1520,5.47581,-7.90628
672,-496,0,0,0,0,0,0,0,0,0,-1,1896,1520,0,0
679,-496,0,0,0,0,0,0,0,0,0,-1,1903,1520,0,0
686,-496,0,0,0,0,0,0,0,0,0,-1,1910,1520,0,0
693,-496,0,0,0,0,0,0,0,0,0,-1,1917,1520,0,0
700,-496,0,0,0,0,0,0,0,0,0,-1,1924,1520,0,0
707,-496,0,0,0,0,0,0,0,0,0,-1,1931,1520,0,0
714,-496,0,0,0,0,0,0,0,0,0,-1,1938,1520,0,0
721,-496,0,0,0,0,0,0,0,0,0,-1,1945,1520,0,0
728,-496,0,0,0,0,0,0,0,0,0,-1,1952,1520,0,0
735,-496,0,0,0,0,0,0,0,0,0,-1,1959,1520,0,0
742,-496,0,0,0,0,0,0,0,0,0,-1,1966,1520,0,0
749,-496,0,0,0,0,0,0,0,0,0,-1,1973,1520,0,0
756,-496,0,0,0,0,0,0,0,0,0,-1,1980,1520,0,0
763,-496,0,0,0,0,0,0,0,0,0,-1,1987,1520,0,0
770,-496,0,0,0,0,0,0,0,0,0,-1,1994,1520,0,0
777,-496,0,0,0,0,0,0,0,0,0,-1,2001,1520,0,0
784,-496,0,0,0,0,0,0,0,0,0,-1,2008,1520,0,0
791,-496,0,0,0,0,0,0,0,0,0,-1,2015,1520,0,0
798,-496,0,0,0,0,0,0,0,0,0,-1,2022,1520,0,0
805,-496,0,0,0,0,0,0,0,0,0,-1,2029,1520,0,0
812,-496,0,0,0,0,0,0,0,0,0,-1,2036,1520,0,0
-700,-503,0,0,0,0,0,0,0,0,0,-1,524,1527,0,0
-693,-503,0,0,0,0,0,0,0,0,0,-1,531,1527,0,0
-686,-503,0,0,0,0,0,0,0,0,0,-1,538,1527,0,0
-679,-503,0,0,0,0,0,0,0,0,0,-1,545,1527,0,0
-672,-503,0,0,0,0,0,0,0,0,0,-1,552,1527,0,0
-665,-503,0,0,0,0,0,0,0,0,0,-1,559,1527,0,0
-658,-503,0,0,0,0,0,0,0,0,0,-1,566,1527,0,0
-651,-503,0,0,0,0,0,0,0,0,0,-1,573,1527,0,0
-644,-503,0,0,0,0,0,0,0,0,0,-1,580,1527,0,0
-637,-503,0,0,0,0,0,0,0,0,0,-1,587,1527,0,0
-630,-503,0,0,0,0,0,0,0,0,0,-1,594,1527,0,0
-623,-503,0,0,0,0,0,0,0,0,0,-1,601,1527,0,0
-616,-503,0,0,0,0,0,0,0,0,0,-1,608,1527,0,0
-609,-503,0,0,0,0,0,0,0,0,0,-1,615,1527,0,0
-602,-503,0,0,0,0,0,0,0,0,0,-1,622,1527,0,0
-595,-503,0,0,0,0,0,0,0,0,0,-1,629,1527,0,0
-588,-503,0,0,0,0,0,0,0,0,0,-1,636,1527,0,0
-581,-503,0,0,0,0,0,0,0,0,0,-1,643,1527,0,0
-574,-503,0,0,0,0,0,0,0,0,0,-1,650,1527,0,0
-567,-503,0,0,0,0,0,0,0,0,0,-1,657,1527,0,0
-560,-503,0,0,0,0,0,0,0,0,0,-1,664,1527,0,0
-553,-503,0,0,0,0,0,0,0,0,0,-1,671,1527,0,0
-546,-503,0,0,0,0,0,0,0,0,0,-1,678,1527,0,0
-539,-503,-1.67786,3.5929,0,0,0,0,0,0,0,-1,685,1527,-1.67788,-3.59286
-532,-503,-2.03979,4.42249,0,0,0,0,0,0,0,-1,692,1527,-2.03978,-4.42249
-525,-503,-2.51678,4.82825,0,0,0,0,0,0,0,-1,699,1527,-2.51681,-4.82821
-518,-503,-2.77441,5.26672,0,0,0,0,0,0,0,-1,706,1527,-2.77442,-5.26675
-511,-503,-3.03308,5.32239,0,0,0,0,0,0,0,-1,713,1527,-3.0331,-5.32236
-504,-503,-3.72888,6.08911,0,0,0,0,0,0,0,-1,720,1527,-3.72891,-6.08917
-497,-503,-0.56897,4.66016,0,0,0,0,0,0,0,-1,727,1527,-0.568971,-4.66012
-490,-503,-0.00561523,4.42224,0,0,0,0,0,0,0,-1,734,1527,-0.00560753,-4.4222
-483,-503,-0.652649,5.20129,0.0110622,0.00220632,0.00552649,0.0137159,-0.000447314,0.447655,0.0092966,0.0358858,741,1527,-0.652623,-5.20125
-476,-503,-0.80896,5.47351,0.00815719,0.00284246,0.0041223,0.0104044,0.000595242,0.499102,0.00674661,0.0182223,748,1527,-0.808959,-5.47351
-469,-503,-0.866882,5.68506,0.0062091,0.00267401,0.00275093,0.00771139,0.00117172,0.499847,0.00479828,0.0101085,755,1527,-0.866911,-5.68507
-462,-503,-0.874634,5.91699,0.00486591,0.00232198,0.00176006,0.00576551,0.00142238,0.472505,0.00346818,0.0115888,762,1527,-0.874631,-5.917
-455,-503,-0.861633,6.14136,0.0035098,0.00166116,0.0012047,0.00410392,0.00106704,0.458169,0.0024587,0.0169895,769,1527,-0.861622,-6.14139
-448,-503,-0.859253,6.34729,0.00262645,0.000454127,0.000839327,0.00291295,0.000167621,0.32895,0.00188858,0.0162425,776,1527,-0.859268,-6.34734
-441,-503,-0.850525,6.53406,0.00235167,-0.00045924,0.000354807,0.00239576,-0.000503333,0.123642,0.00178872,0.013387,783,1527,-0.85051,-6.53402
-434,-503,-0.87384,6.76697,0.00193955,-0.00121006,-6.59195e-05,0.00194093,-0.00121144,-0.0209172,0.00183619,0.0108632,790,1527,-0.873856,-6.76691
-427,-503,-0.908569,6.98364,0.00166195,-0.00171791,-0.000383078,0.00170483,-0.00176078,-0.111458,0.00200096,0.0160546,797,1527,-0.90856,-6.98368
-420,-503,-0.893799,7.18445,0.00139891,-0.00202532,-0.000679549,0.00152884,-0.00215525,-0.188918,0.00213723,0.0181497,804,1527,-0.893797,-7.18447
-413,-503,-0.88678,7.40063,0.00107248,-0.00273173,-0.0010323,0.00133455,-0.0029938,-0.248616,0.00255945,0.015131,811,1527,-0.886787,-7.40064
-406,-503,-0.852844,7.60535,0.000761616,-0.00341185,-0.00130778,0.00113755,-0.00378778,-0.279914,0.0029777,0.0137543,818,1527,-0.852864,-7.60537
-399,-503,-0.759521,7.8717,0.000271772,-0.00368539,-0.00173085,0.000921997,-0.00433561,-0.359356,0.00324174,0.0184838,825,1527,-0.759504,-7.87175
-392,-503,-0.654541,8.12109,-0.000286505,-0.00337746,-0.00218942,0.000847956,-0.00451192,-0.478066,0.00332682,0.03245,832,1527,-0.654516,-8.12112
-385,-503,-0.788147,8.07617,-0.000913615,-0.00286977,-0.00275487,0.00103166,-0.00481504,-0.614822,0.00360348,0.0383851,839,1527,-0.788124,-8.07617
-378,-503,-1.02332,8.69458,-0.00252097,-0.00346329,-0.00326781,0.000309469,-0.00629373,-0.713801,0.00430269,0.0392998,846,1527,-1.02334,-8.69462
-371,-503,-0.911621,8.90125,-0.00500889,-0.00183336,-0.00373809,0.000640193,-0.00748244,-0.986229,0.00521481,0.0428335,853,1527,-0.9116,-8.90124
-364,-503,-0.474121,9.21606,0,0,0,0,0,0,0,-1,860,1527,-0.474131,-9.21601
-357,-503,0.558533,9.25452,0,0,0,0,0,0,0,-1,867,1527,0.558542,-9.25446
-350,-503,0.219971,6.84827,0,0,0,0,0,0,0,-1,874,1527,0.21996,-6.84831
-343,-503,-3.5802,4.43274,0,0,0,0,0,0,0,-1,881,1527,-3.58018,-4.43276
-336,-503,-3.2384,6.40637,0,0,0,0,0,0,0,-1,888,1527,-3.2384,-6.40643
-329,-503,-2.89661,8.38013,0,0,0,0,0,0,0,-1,895,1527,-2.89662,-8.3801
-322,-503,-3.31317,8.81519,0,0,0,0,0,0,0,-1,902,1527,-3.31315,-8.81524
-315,-503,-3.90265,7.73853,0,0,0,0,0,0,0,-1,909,1527,-3.90264,-7.73854
-308,-503,-4.07867,7.25977,0,0,0,0,0,0,0,-1,916,1527,-4.07868,-7.25973
-301,-503,0,0,0,0,0,0,0,0,0,-1,923,1527,0,0
-294,-503,0,0,0,0,0,0,0,0,0,-1,930,1527,0,0
-287,-503,0,0,0,0,0,0,0,0,0,-1,937,1527,0,0
-280,-503,0,0,0,0,0,0,0,0,0,-1,944,1527,0,0
-273,-503,0,0,0,0,0,0,0,0,0,-1,951,1527,0,0
-266,-503,0,0,0,0,0,0,0,0,0,-1,958,1527,0,0
-259,-503,0,0,0,0,0,0,0,0,0,-1,965,1527,0,0
-252,-503,0,0,0,0,0,0,0,0,0,-1,972,1527,0,0
-245,-503,0,0,0,0,0,0,0,0,0,-1,979,1527,0,0
-238,-503,0,0,0,0,0,0,0,0,0,-1,986,1527,0,0
-231,-503,0,0,0,0,0,0,0,0,0,-1,993,1527,0,0
-224,-503,0,0,0,0,0,0,0,0,0,-1,1000,1527,0,0
-217,-503,0,0,0,0,0,0,0,0,0,-1,1007,1527,0,0
-210,-503,0,0,0,0,0,0,0,0,0,-1,1014,1527,0,0
-203,-503,0,0,0,0,0,0,0,0,0,-1,1021,1527,0,0
-196,-503,0,0,0,0,0,0,0,0,0,-1,1028,1527,0,0
-189,-503,0,0,0,0,0,0,0,0,0,-1,1035,1527,0,0
-182,-503,0,0,0,0,0,0,0,0,0,-1,1042,1527,0,0
-175,-503,0,0,0,0,0,0,0,0,0,-1,1049,1527,0,0
-168,-503,0,0,0,0,0,0,0,0,0,-1,1056,1527,0,0
-161,-503,0,0,0,0,0,0,0,0,0,-1,1063,1527,0,0
-154,-503,0,0,0,0,0,0,0,0,0,-1,1070,1527,0,0
-147,-503,0,0,0,0,0,0,0,0,0,-1,1077,1527,0,0
-140,-503,0,0,0,0,0,0,0,0,0,-1,1084,1527,0,0
-133,-503,0,0,0,0,0,0,0,0,0,-1,1091,1527,0,0
-126,-503,0,0,0,0,0,0,0,0,0,-1,1098,1527,0,0
-119,-503,0,0,0,0,0,0,0,0,0,-1,1105,1527,0,0
-112,-503,0,0,0,0,0,0,0,0,0,-1,1112,1527,0,0
-105,-503,0,0,0,0,0,0,0,0,0,-1,1119,1527,0,0
-98,-503,0,0,0,0,0,0,0,0,0,-1,1126,1527,0,0
-91,-503,0,0,0,0,0,0,0,0,0,-1,1133,1527,0,0
-84,-503,0,0,0,0,0,0,0,0,0,-1,1140,1527,0,0
-77,-503,0,0,0,0,0,0,0,0,0,-1,1147,1527,0,0
-70,-503,0,0,0,0,0,0,0,0,0,-1,1154,1527,0,0
-63,-503,0,0,0,0,0,0,0,0,0,-1,1161,1527,0,0
-56,-503,0,0,0,0,0,0,0,0,0,-1,1168,1527,0,0
-49,-503,0,0,0,0,0,0,0,0,0,-1,1175,1527,0,0
-42,-503,0,0,0,0,0,0,0,0,0,-1,1182,1527,0,0
-35,-503,0,0,0,0,0,0,0,0,0,-1,1189,1527,0,0
-28,-503,0,0,0,0,0,0,0,0,0,-1,1196,1527,0,0
-21,-503,0,0,0,0,0,0,0,0,0,-1,1203,1527,0,0
-14,-503,0,0,0,0,0,0,0,0,0,-1,1210,1527,0,0
-7,-503,0,0,0,0,0,0,0,0,0,-1,1217,1527,0,0
0,-503,0,0,0,0,0,0,0,0,0,-1,1224,1527,0,0
7,-503,0,0,0,0,0,0,0,0,0,-1,1231,1527,0,0
14,-503,0,0,0,0,0,0,0,0,0,-1,1238,1527,0,0
21,-503,0,0,0,0,0,0,0,0,0,-1,1245,1527,0,0
28,-503,0,0,0,0,0,0,0,0,0,-1,1252,1527,0,0
35,-503,0,0,0,0,0,0,0,0,0,-1,1259,1527,0,0
42,-503,0,0,0,0,0,0,0,0,0,-1,1266,1527,0,0
49,-503,0,0,0,0,0,0,0,0,0,-1,1273,1527,0,0
56,-503,0,0,0,0,0,0,0,0,0,-1,1280,1527,0,0
63,-503,0,0,0,0,0,0,0,0,0,-1,1287,1527,0,0
70,-503,0,0,0,0,0,0,0,0,0,-1,1294,1527,0,0
77,-503,0,0,0,0,0,0,0,0,0,-1,1301,1527,0,0
84,-503,0,0,0,0,0,0,0,0,0,-1,1308,1527,0,0
91,-503,0,0,0,0,0,0,0,0,0,-1,1315,1527,0,0
98,-503,0,0,0,0,0,0,0,0,0,-1,1322,1527,0,0
105,-503,0,0,0,0,0,0,0,0,0,-1,1329,1527,0,0
112,-503,0,0,0,0,0,0,0,0,0,-1,1336,1527,0,0
119,-503,0,0,0,0,0,0,0,0,0,-1,1343,1527,0,0
126,-503,0,0,0,0,0,0,0,0,0,-1,1350,1527,0,0
133,-503,0,0,0,0,0,0,0,0,0,-1,1357,1527,0,0
140,-503,0,0,0,0,0,0,0,0,0,-1,1364,1527,0,0
147,-503,0,0,0,0,0,0,0,0,0,-1,1371,1527,0,0
154,-503,0,0,0,0,0,0,0,0,0,-1,1378,1527,0,0
161,-503,0,0,0,0,0,0,0,0,0,-1,1385,1527,0,0
168,-503,0,0,0,0,0,0,0,0,0,-1,1392,1527,0,0
175,-503,0,0,0,0,0,0,0,0,0,-1,1399,1527,0,0
182,-503,0,0,0,0,0,0,0,0,0,-1,1406,1527,0,0
189,-503,0,0,0,0,0,0,0,0,0,-1,1413,1527,0,0
196,-503,0,0,0,0,0,0,0,0,0,-1,1420,1527,0,0
203,-503,0,0,0,0,0,0,0,0,0,-1,1427,1527,0,0
210,-503,0,0,0,0,0,0,0,0,0,-1,1434,1527,0,0
217,-503,0,0,0,0,0,0,0,0,0,-1,1441,1527,0,0
224,-503,0,0,0,0,0,0,0,0,0,-1,1448,1527,0,0
231,-503,0,0,0,0,0,0,0,0,0,-1,1455,1527,0,0
238,-503,0,0,0,0,0,0,0,0,0,-1,1462,1527,0,0
245,-503,0,0,0,0,0,0,0,0,0,-1,1469,1527,0,0
252,-503,0,0,0,0,0,0,0,0,0,-1,1476,1527,0,0
259,-503,0,0,0,0,0,0,0,0,0,-1,1483,1527,0,0
266,-503,0,0,0,0,0,0,0,0,0,-1,1490,1527,0,0
273,-503,0,0,0,0,0,0,0,0,0,-1,1497,1527,0,0
280,-503,0,0,0,0,0,0,0,0,0,-1,1504,1527,0,0
287,-503,0,0,0,0,0,0,0,0,0,-1,1511,1527,0,0
294,-503,0,0,0,0,0,0,0,0,0,-1,1518,1527,0,0
301,-503,0,0,0,0,0,0,0,0,0,-1,1525,1527,0,0
308,-503,0,0,0,0,0,0,0,0,0,-1,1532,1527,0,0
315,-503,0,0,0,0,0,0,0,0,0,-1,1539,1527,0,0
322,-503,0,0,0,0,0,0,0,0,0,-1,1546,1527,0,0
329,-503,0,0,0,0,0,0,0,0,0,-1,1553,1527,0,0
336,-503,0,0,0,0,0,0,0,0,0,-1,1560,1527,0,0
343,-503,0,0,0,0,0,0,0,0,0,-1,1567,1527,0,0
350,-503,0,0,0,0,0,0,0,0,0,-1,1574,1527,0,0
357,-503,0,0,0,0,0,0,0,0,0,-1,1581,1527,0,0
364,-503,0,0,0,0,0,0,0,0,0,-1,1588,1527,0,0
371,-503,0,0,0,0,0,0,0,0,0,-1,1595,1527,0,0
378,-503,0,0,0,0,0,0,0,0,0,-1,1602,1527,0,0
385,-503,0,0,0,0,0,0,0,0,0,-1,1609,1527,0,0
392,-503,0,0,0,0,0,0,0,0,0,-1,1616,1527,0,0
399,-503,0,0,0,0,0,0,0,0,0,-1,1623,1527,0,0
406,-503,0,0,0,0,0,0,0,0,0,-1,1630,1527,0,0
413,-503,0,0,0,0,0,0,0,0,0,-1,1637,1527,0,0
420,-503,0,0,0,0,0,0,0,0,0,-1,1644,1527,0,0
427,-503,10.5968,4.9856,0,0,0,0,0,0,0,-1,1651,1527,10.5969,-4.98563
434,-503,11.4329,3.97217,0,0,0,0,0,0,0,-1,1658,1527,11.4328,-3.97222
441,-503,12.0957,2.96509,0,0,0,0,0,0,0,-1,1665,1527,12.0957,-2.96512
448,-503,12.3259,2.53894,0,0,0,0,0,0,0,-1,1672,1527,12.326,-2.53895
455,-503,12.1669,2.18762,0,0,0,0,0,0,0,-1,1679,1527,12.1668,-2.18767
462,-503,11.59,2.60791,0,0,0,0,0,0,0,-1,1686,1527,11.5899,-2.60794
469,-503,11.1625,1.61853,0,0,0,0,0,0,0,-1,1693,1527,11.1625,-1.61856
476,-503,8.7157,2.09912,0,0,0,0,0,0,0,-1,1700,1527,8.71572,-2.0991
483,-503,8.7793,3.53882,0,0,0,0,0,0,0,-1,1707,1527,8.77935,-3.53883
490,-503,11.5714,9.00745,0,0,0,0,0,0,0,-1,1714,1527,11.5714,-9.0074
497,-503,11.4637,9.22913,-0.0580739,-0.0631915,0.0600928,-0.000485457,-0.12078,0.764121,0.0803586,0.0441417,1721,1527,11.4637,-9.22914
504,-503,11.1373,9.32996,-0.0492286,-0.0516088,0.0500338,-0.000370797,-0.100467,0.773508,0.0668545,0.043314,1728,1527,11.1373,-9.33001
511,-503,10.4519,9.36182,-0.0405724,-0.0411868,0.0409261,4.76502e-05,-0.0818069,0.781646,0.0545538,0.0435341,1735,1527,10.4519,-9.36185
518,-503,9.24451,8.94287,-0.0326741,-0.0321628,0.0321288,-0.000288643,-0.0645482,0.789377,0.0429363,0.038192,1742,1527,9.24449,-8.94292
525,-503,9.18372,9.23474,-0.0260913,-0.0256706,0.0249723,-0.000907725,-0.0508542,0.78961,0.0336043,0.0301609,1749,1527,9.18368,-9.23475
532,-503,9.15063,9.20911,-0.0198332,-0.0196727,0.0187992,-0.000953587,-0.0385524,0.787532,0.0253897,0.0123013,1756,1527,9.15064,-9.20911
539,-503,9.12915,9.02795,-0.0145951,-0.0146546,0.0138373,-0.000787484,-0.0284622,0.784323,0.0187178,0.0117449,1763,1527,9.12918,-9.02798
546,-503,9.10327,8.84241,-0.0106659,-0.010108,0.00952363,-0.000859232,-0.0199146,0.800037,0.0129995,0.0105273,1770,1527,9.10323,-8.84239
553,-503,9.14563,8.64612,-0.0069529,-0.00701329,0.00574247,-0.00124055,-0.0127256,0.782769,0.00810197,0.0134143,1777,1527,9.14565,-8.64612
560,-503,9.16638,8.44653,-0.00328216,-0.0045558,0.00338364,-0.00047594,-0.00736202,0.692383,0.00475731,0.0134039,1784,1527,9.16638,-8.44647
567,-503,9.13257,8.23413,-0.000548775,-0.00180749,0.00198281,0.000902166,-0.00325843,0.631724,0.00252727,0.0116494,1791,1527,9.13255,-8.2341
574,-503,9.12976,8.04822,0.00121455,-6.12908e-05,0.000522332,0.00140111,-0.000247854,0.343051,0.00102671,0.0114679,1798,1527,9.12975,-8.04828
581,-503,9.11841,7.87292,0.00216511,0.00118709,-0.0003407,0.00227209,0.00108011,-0.304259,0.00131232,0.0127232,1805,1527,9.11846,-7.87287
588,-503,9.11365,7.68127,0.00312925,0.00189427,-0.000859458,0.00357005,0.00145348,-0.473892,0.00207298,0.0161289,1812,1527,9.11368,-7.68133
595,-503,9.12,7.48828,0.00410055,0.00260125,-0.00125672,0.00481422,0.00188758,-0.516472,0.00280099,0.0121615,1819,1527,9.11994,-7.4883
602,-503,9.14685,7.30408,0.00514365,0.00309878,-0.00155209,0.00597981,0.00226262,-0.494148,0.00348632,0.012655,1826,1527,9.14682,-7.30405
609,-503,9.18298,7.08728,0.00621186,0.00354943,-0.00175139,0.00708053,0.00268076,-0.460434,0.00412791,0.0172293,1833,1527,9.18301,-7.08726
616,-503,9.12463,6.94238,0.00724457,0.00380576,-0.00172681,0.00796201,0.00308832,-0.393773,0.00463523,0.0193591,1840,1527,9.12465,-6.94241
623,-503,9.01123,6.6051,0.00832457,0.00397741,-0.00151928,0.00880291,0.00349907,-0.30502,0.00511784,0.0361672,1847,1527,9.01123,-6.6051
630,-503,9.01831,6.29358,0.00951037,0.00386658,-0.00126021,0.00977898,0.00359797,-0.210004,0.00571118,0.0464049,1854,1527,9.01831,-6.29364
637,-503,9.31323,6.07935,0,0,0,0,0,0,0,-1,1861,1527,9.31329,-6.07935
644,-503,9.65637,3.39685,0,0,0,0,0,0,0,-1,1868,1527,9.65638,-3.39687
651,-503,5.90771,6.74841,0,0,0,0,0,0,0,-1,1875,1527,5.90774,-6.74845
658,-503,5.73291,7.09534,0,0,0,0,0,0,0,-1,1882,1527,5.73293,-7.09529
665,-503,0,0,0,0,0,0,0,0,0,-1,1889,1527,0,0
672,-503,0,0,0,0,0,0,0,0,0,-1,1896,1527,0,0
679,-503,0,0,0,0,0,0,0,0,0,-1,1903,1527,0,0
686,-503,0,0,0,0,0,0,0,0,0,-1,1910,1527,0,0
693,-503,0,0,0,0,0,0,0,0,0,-1,1917,1527,0,0
700,-503,0,0,0,0,0,0,0,0,0,-1,1924,1527,0,0
707,-503,0,0,0,0,0,0,0,0,0,-1,1931,1527,0,0
714,-503,0,0,0,0,0,0,0,0,0,-1,1938,1527,0,0
721,-503,0,0,0,0,0,0,0,0,0,-1,1945,1527,0,0
728,-503,0,0,0,0,0,0,0,0,0,-1,1952,1527,0,0
735,-503,0,0,0,0,0,0,0,0,0,-1,1959,1527,0,0
742,-503,0,0,0,0,0,0,0,0,0,-1,1966,1527,0,0
749,-503,0,0,0,0,0,0,0,0,0,-1,1973,1527,0,0
756,-503,0,0,0,0,0,0,0,0,0,-1,1980,1527,0,0
763,-503,0,0,0,0,0,0,0,0,0,-1,1987,1527,0,0
770,-503,0,0,0,0,0,0,0,0,0,-1,1994,1527,0,0
777,-503,0,0,0,0,0,0,0,0,0,-1,2001,1527,0,0
784,-503,0,0,0,0,0,0,0,0,0,-1,2008,1527,0,0
791,-503,0,0,0,0,0,0,0,0,0,-1,2015,1527,0,0
798,-503,0,0,0,0,0,0,0,0,0,-1,2022,1527,0,0
805,-503,0,0,0,0,0,0,0,0,0,-1,2029,1527,0,0
812,-503,0,0,0,0,0,0,0,0,0,-1,2036,1527,0,0
-700,-510,0,0,0,0,0,0,0,0,0,-1,524,1534,0,0
-693,-510,0,0,0,0,0,0,0,0,0,-1,531,1534,0,0
-686,-510,0,0,0,0,0,0,0,0,0,-1,538,1534,0,0
-679,-510,0,0,0,0,0,0,0,0,0,-1,545,1534,0,0
-672,-510,0,0,0,0,0,0,0,0,0,-1,552,1534,0,0
-665,-510,0,0,0,0,0,0,0,0,0,-1,559,1534,0,0
-658,-510,0,0,0,0,0,0,0,0,0,-1,566,1534,0,0
-651,-510,0,0,0,0,0,0,0,0,0,-1,573,1534,0,0
-644,-510,0,0,0,0,0,0,0,0,0,-1,580,1534,0,0
-637,-510,0,0,0,0,0,0,0,0,0,-1,587,1534,0,0
-630,-510,0,0,0,0,0,0,0,0,0,-1,594,1534,0,0
-623,-510,0,0,0,0,0,0,0,0,0,-1,601,1534,0,0
-616,-510,0,0,0,0,0,0,0,0,0,-1,608,1534,0,0
-609,-510,0,0,0,0,0,0,0,0,0,-1,615,1534,0,0
-602,-510,0,0,0,0,0,0,0,0,0,-1,622,1534,0,0
-595,-510,0,0,0,0,0,0,0,0,0,-1,629,1534,0,0
-588,-510,0,0,0,0,0,0,0,0,0,-1,636,1534,0,0
-581,-510,0,0,0,0,0,0,0,0,0,-1,643,1534,0,0
-574,-510,0,0,0,0,0,0,0,0,0,-1,650,1534,0,0
-567,-510,0,0,0,0,0,0,0,0,0,-1,657,1534,0,0
-560,-510,0,0,0,0,0,0,0,0,0,-1,664,1534,0,0
-553,-510,0,0,0,0,0,0,0,0,0,-1,671,1534,0,0
-546,-510,0,0,0,0,0,0,0,0,0,-1,678,1534,0,0
-539,-510,0,0,0,0,0,0,0,0,0,-1,685,1534,0,0
-532,-510,-2.71765,4.32166,0,0,0,0,0,0,0,-1,692,1534,-2.71767,-4.32166
-525,-510,-3.05841,5.1189,0,0,0,0,0,0,0,-1,699,1534,-3.0584,-5.1189
-518,-510,-3.46021,5.81323,0,0,0,0,0,0,0,-1,706,1534,-3.4602,-5.81328
-511,-510,-3.84302,6.16467,0,0,0,0,0,0,0,-1,713,1534,-3.843,-6.1647
-504,-510,-3.89587,6.38538,0,0,0,0,0,0,0,-1,720,1534,-3.8959,-6.3854
-497,-510,0.144836,4.08972,0,0,0,0,0,0,0,-1,727,1534,0.144835,-4.08978
-490,-510,-0.204346,4.70862,0,0,0,0,0,0,0,-1,734,1534,-0.204354,-4.70856
-483,-510,-0.383606,5.34143,0.0137507,0.0044512,0.00709533,0.0175841,0.000617806,0.495342,0.0115223,0.0404165,741,1534,-0.383624,-5.34142
-476,-510,-0.539734,5.45215,0.010501,0.00492587,0.00550451,0.0138836,0.00154335,0.551014,0.00878656,0.0274195,748,1534,-0.539725,-5.45211
-469,-510,-0.651123,5.68115,0.00805856,0.00466572,0.00400146,0.0107083,0.00201594,0.584907,0.00657082,0.0108524,755,1534,-0.651136,-5.6811
-462,-510,-0.642883,5.89221,0.00616726,0.0042711,0.00287011,0.00824183,0.00219653,0.625876,0.00492833,0.0109142,762,1534,-0.642875,-5.89223
-455,-510,-0.661743,6.12695,0.00437787,0.00357143,0.00218265,0.00619423,0.00175507,0.69406,0.00368646,0.0132967,769,1534,-0.661764,-6.12697
-448,-510,-0.647522,6.34473,0.00316426,0.00239272,0.00169769,0.00451946,0.00103753,0.673679,0.00273357,0.0129347,776,1534,-0.647495,-6.34472
-441,-510,-0.633606,6.53845,0.00263321,0.00144267,0.00113706,0.0033214,0.000754485,0.544258,0.00201052,0.013777,783,1534,-0.633599,-6.53851
-434,-510,-0.674072,6.75623,0.0019868,0.000601191,0.000619902,0.00222365,0.000364342,0.36496,0.00137715,0.0141932,790,1534,-0.674073,-6.75624
-427,-510,-0.701782,6.95435,0.00157906,2.85273e-05,0.000238515,0.00161492,-7.33364e-06,0.149233,0.00107907,0.0215656,797,1534,-0.701781,-6.95433
-420,-510,-0.693237,7.16016,0.00125079,-0.000441215,-8.23715e-05,0.00125479,-0.000445216,-0.0485297,0.00101792,0.0223774,804,1534,-0.693223,-7.16019
-413,-510,-0.673035,7.40637,0.000966016,-0.00123157,-0.000468102,0.00106157,-0.00132713,-0.201365,0.00138195,0.011121,811,1534,-0.673036,-7.40636
-406,-510,-0.660767,7.61938,0.000700187,-0.00206252,-0.000787287,0.000908789,-0.00227112,-0.259012,0.00189125,0.0105749,818,1534,-0.660767,-7.61943
-399,-510,-0.641602,7.83057,0.000376987,-0.00252282,-0.00122882,0.000827669,-0.0029735,-0.351526,0.00230823,0.0118084,825,1534,-0.641587,-7.83053
-392,-510,-0.562439,8.12061,0.000121266,-0.00259616,-0.00171214,0.000948308,-0.0034232,-0.449993,0.0026553,0.0201985,832,1534,-0.562451,-8.12056
-385,-510,-0.556885,8.26831,-0.000110162,-0.002465,-0.00223011,0.00123426,-0.00380943,-0.542514,0.00303586,0.03255,839,1534,-0.556866,-8.26836
-378,-510,-0.618469,8.13452,-0.00121673,-0.00342854,-0.00274172,0.000633724,-0.00527899,-0.593698,0.00374847,0.0354343,846,1534,-0.61849,-8.13446
-371,-510,-0.698792,8.36975,-0.00310548,-0.00282306,-0.00339523,0.000433898,-0.00636243,-0.806182,0.0043934,0.0423789,853,1534,-0.69877,-8.3697
-364,-510,-0.412048,7.83972,0,0,0,0,0,0,0,-1,860,1534,-0.412059,-7.83978
-357,-510,-0.111511,7.69397,0,0,0,0,0,0,0,-1,867,1534,-0.111523,-7.69391
-350,-510,0.471191,6.06458,0,0,0,0,0,0,0,-1,874,1534,0.47118,-6.06453
-343,-510,-2.94617,5.00989,0,0,0,0,0,0,0,-1,881,1534,-2.94615,-5.00992
-336,-510,-2.50793,6.76257,0,0,0,0,0,0,0,-1,888,1534,-2.50794,-6.76253
-329,-510,-2.10583,8.51733,0,0,0,0,0,0,0,-1,895,1534,-2.10582,-8.51739
-322,-510,-1.45605,10.2574,0,0,0,0,0,0,0,-1,902,1534,-1.45608,-10.2574
-315,-510,-1.73047,10.9796,0,0,0,0,0,0,0,-1,909,1534,-1.73049,-10.9796
-308,-510,-2.98779,7.09631,0,0,0,0,0,0,0,-1,916,1534,-2.98781,-7.09636
-301,-510,-3.17023,10.2111,0,0,0,0,0,0,0,-1,923,1534,-3.17023,-10.2111
-294,-510,0,0,0,0,0,0,0,0,0,-1,930,1534,0,0
-287,-510,0,0,0,0,0,0,0,0,0,-1,937,1534,0,0
-280,-510,0,0,0,0,0,0,0,0,0,-1,944,1534,0,0
-273,-510,0,0,0,0,0,0,0,0,0,-1,951,1534,0,0
-266,-510,0,0,0,0,0,0,0,0,0,-1,958,1534,0,0
-259,-510,0,0,0,0,0,0,0,0,0,-1,965,1534,0,0
-252,-510,0,0,0,0,0,0,0,0,0,-1,972,1534,0,0
-245,-510,0,0,0,0,0,0,0,0,0,-1,979,1534,0,0
-238,-510,0,0,0,0,0,0,0,0,0,-1,986,1534,0,0
-231,-510,0,0,0,0,0,0,0,0,0,-1,993,1534,0,0
-224,-510,0,0,0,0,0,0,0,0,0,-1,1000,1534,0,0
-217,-510,0,0,0,0,0,0,0,0,0,-1,1007,1534,0,0
-210,-510,0,0,0,0,0,0,0,0,0,-1,1014,1534,0,0
-203,-510,0,0,0,0,0,0,0,0,0,-1,1021,1534,0,0
-196,-510,0,0,0,0,0,0,0,0,0,-1,1028,1534,0,0
-189,-510,0,0,0,0,0,0,0,0,0,-1,1035,1534,0,0
-182,-510,0,0,0,0,0,0,0,0,0,-1,1042,1534,0,0
-175,-510,0,0,0,0,0,0,0,0,0,-1,1049,1534,0,0
-168,-510,0,0,0,0,0,0,0,0,0,-1,1056,1534,0,0
-161,-510,0,0,0,0,0,0,0,0,0,-1,1063,1534,0,0
-154,-510,0,0,0,0,0,0,0,0,0,-1,1070,1534,0,0
-147,-510,0,0,0,0,0,0,0,0,0,-1,1077,1534,0,0
-140,-510,0,0,0,0,0,0,0,0,0,-1,1084,1534,0,0
-133,-510,0,0,0,0,0,0,0,0,0,-1,1091,1534,0,0
-126,-510,0,0,0,0,0,0,0,0,0,-1,1098,1534,0,0
-119,-510,0,0,0,0,0,0,0,0,0,-1,1105,1534,0,0
-112,-510,0,0,0,0,0,0,0,0,0,-1,1112,1534,0,0
-105,-510,0,0,0,0,0,0,0,0,0,-1,1119,1534,0,0
-98,-510,0,0,0,0,0,0,0,0,0,-1,1126,1534,0,0
-91,-510,0,0,0,0,0,0,0,0,0,-1,1133,1534,0,0
-84,-510,0,0,0,0,0,0,0,0,0,-1,1140,1534,0,0
-77,-510,0,0,0,0,0,0,0,0,0,-1,1147,1534,0,0
-70,-510,0,0,0,0,0,0,0,0,0,-1,1154,1534,0,0
-63,-510,0,0,0,0,0,0,0,0,0,-1,1161,1534,0,0
-56,-510,0,0,0,0,0,0,0,0,0,-1,1168,1534,0,0
-49,-510,0,0,0,0,0,0,0,0,0,-1,1175,1534,0,0
-42,-510,0,0,0,0,0,0,0,0,0,-1,1182,1534,0,0
-35,-510,0,0,0,0,0,0,0,0,0,-1,1189,1534,0,0
-28,-510,0,0,0,0,0,0,0,0,0,-1,1196,1534,0,0
-21,-510,0,0,0,0,0,0,0,0,0,-1,1203,1534,0,0
-14,-510,0,0,0,0,0,0,0,0,0,-1,1210,1534,0,0
-7,-510,0,0,0,0,0,0,0,0,0,-1,1217,1534,0,0
0,-510,0,0,0,0,0,0,0,0,0,-1,1224,1534,0,0
7,-510,0,0,0,0,0,0,0,0,0,-1,1231,1534,0,0
14,-510,0,0,0,0,0,0,0,0,0,-1,1238,1534,0,0
21,-510,0,0,0,0,0,0,0,0,0,-1,1245,1534,0,0
28,-510,0,0,0,0,0,0,0,0,0,-1,1252,1534,0,0
35,-510,0,0,0,0,0,0,0,0,0,-1,1259,1534,0,0
42,-510,0,0,0,0,0,0,0,0,0,-1,1266,1534,0,0
49,-510,0,0,0,0,0,0,0,0,0,-1,1273,1534,0,0
56,-510,0,0,0,0,0,0,0,0,0,-1,1280,1534,0,0
63,-510,0,0,0,0,0,0,0,0,0,-1,1287,1534,0,0
70,-510,0,0,0,0,0,0,0,0,0,-1,1294,1534,0,0
77,-510,0,0,0,0,0,0,0,0,0,-1,1301,1534,0,0
84,-510,0,0,0,0,0,0,0,0,0,-1,1308,1534,0,0
91,-510,0,0,0,0,0,0,0,0,0,-1,1315,1534,0,0
98,-510,0,0,0,0,0,0,0,0,0,-1,1322,1534,0,0
105,-510,0,0,0,0,0,0,0,0,0,-1,1329,1534,0,0
112,-510,0,0,0,0,0,0,0,0,0,-1,1336,1534,0,0
119,-510,0,0,0,0,0,0,0,0,0,-1,1343,1534,0,0
126,-510,0,0,0,0,0,0,0,0,0,-1,1350,1534,0,0
133,-510,0,0,0,0,0,0,0,0,0,-1,1357,1534,0,0
140,-510,0,0,0,0,0,0,0,0,0,-1,1364,1534,0,0
147,-510,0,0,0,0,0,0,0,0,0,-1,1371,1534,0,0
154,-510,0,0,0,0,0,0,0,0,0,-1,1378,1534,0,0
161,-510,0,0,0,0,0,0,0,0,0,-1,1385,1534,0,0
168,-510,0,0,0,0,0,0,0,0,0,-1,1392,1534,0,0
175,-510,0,0,0,0,0,0,0,0,0,-1,1399,1534,0,0
182,-510,0,0,0,0,0,0,0,0,0,-1,1406,1534,0,0
189,-510,0,0,0,0,0,0,0,0,0,-1,1413,1534,0,0
196,-510,0,0,0,0,0,0,0,0,0,-1,1420,1534,0,0
203,-510,0,0,0,0,0,0,0,0,0,-1,1427,1534,0,0
210,-510,0,0,0,0,0,0,0,0,0,-1,1434,1534,0,0
217,-510,0,0,0,0,0,0,0,0,0,-1,1441,1534,0,0
224,-510,0,0,0,0,0,0,0,0,0,-1,1448,1534,0,0
231,-510,0,0,0,0,0,0,0,0,0,-1,1455,1534,0,0
238,-510,0,0,0,0,0,0,0,0,0,-1,1462,1534,0,0
245,-510,0,0,0,0,0,0,0,0,0,-1,1469,1534,0,0
252,-510,0,0,0,0,0,0,0,0,0,-1,1476,1534,0,0
259,-510,0,0,0,0,0,0,0,0,0,-1,1483,1534,0,0
266,-510,0,0,0,0,0,0,0,0,0,-1,1490,1534,0,0
273,-510,0,0,0,0,0,0,0,0,0,-1,1497,1534,0,0
280,-510,0,0,0,0,0,0,0,0,0,-1,1504,1534,0,0
287,-510,0,0,0,0,0,0,0,0,0,-1,1511,1534,0,0
294,-510,0,0,0,0,0,0,0,0,0,-1,1518,1534,0,0
301,-510,0,0,0,0,0,0,0,0,0,-1,1525,1534,0,0
308,-510,0,0,0,0,0,0,0,0,0,-1,1532,1534,0,0
315,-510,0,0,0,0,0,0,0,0,0,-1,1539,1534,0,0
322,-510,0,0,0,0,0,0,0,0,0,-1,1546,1534,0,0
329,-510,0,0,0,0,0,0,0,0,0,-1,1553,1534,0,0
336,-510,0,0,0,0,0,0,0,0,0,-1,1560,1534,0,0
343,-510,0,0,0,0,0,0,0,0,0,-1,1567,1534,0,0
350,-510,0,0,0,0,0,0,0,0,0,-1,1574,1534,0,0
357,-510,0,0,0,0,0,0,0,0,0,-1,1581,1534,0,0
364,-510,0,0,0,0,0,0,0,0,0,-1,1588,1534,0,0
371,-510,0,0,0,0,0,0,0,0,0,-1,1595,1534,0,0
378,-510,0,0,0,0,0,0,0,0,0,-1,1602,1534,0,0
385,-510,0,0,0,0,0,0,0,0,0,-1,1609,1534,0,0
392,-510,0,0,0,0,0,0,0,0,0,-1,1616,1534,0,0
399,-510,0,0,0,0,0,0,0,0,0,-1,1623,1534,0,0
406,-510,0,0,0,0,0,0,0,0,0,-1,1630,1534,0,0
413,-510,0,0,0,0,0,0,0,0,0,-1,1637,1534,0,0
420,-510,13.1918,5.99402,0,0,0,0,0,0,0,-1,1644,1534,13.1917,-5.994
427,-510,10.9799,5.12341,0,0,0,0,0,0,0,-1,1651,1534,10.9798,-5.12337
434,-510,11.8219,4.07898,0,0,0,0,0,0,0,-1,1658,1534,11.8219,-4.07895
441,-510,12.6812,3.02991,0,0,0,0,0,0,0,-1,1665,1534,12.6811,-3.0299
448,-510,13.2379,2.2804,0,0,0,0,0,0,0,-1,1672,1534,13.2379,-2.28037
455,-510,9.76892,2.20642,0,0,0,0,0,0,0,-1,1679,1534,9.76894,-2.20647
462,-510,9.84692,2.49182,0,0,0,0,0,0,0,-1,1686,1534,9.84695,-2.49185
469,-510,9.99475,2.57556,0,0,0,0,0,0,0,-1,1693,1534,9.99477,-2.57556
476,-510,8.62915,3.32227,0,0,0,0,0,0,0,-1,1700,1534,8.6291,-3.32231
483,-510,8.62292,4.75623,0,0,0,0,0,0,0,-1,1707,1534,8.62297,-4.75626
490,-510,10.7114,9.55017,0,0,0,0,0,0,0,-1,1714,1534,10.7114,-9.55021
497,-510,10.4681,9.55322,-0.0511122,-0.0574275,0.0531938,-0.000982404,-0.107557,0.755753,0.0713797,0.0433785,1721,1534,10.4682,-9.55322
504,-510,10.144,9.38599,-0.0421693,-0.0456835,0.0433386,-0.00055223,-0.0873005,0.765138,0.0580172,0.0407231,1728,1534,10.144,-9.386
511,-510,9.68323,9.38196,-0.033777,-0.0353517,0.0346529,9.7502e-05,-0.0692262,0.77404,0.0461833,0.0385309,1735,1534,9.68325,-9.38201
518,-510,9.11548,9.41443,-0.0264127,-0.0265732,0.0263608,-0.000132093,-0.0528539,0.783876,0.035192,0.0312017,1742,1534,9.11551,-9.4144
525,-510,8.97888,9.40662,-0.0206889,-0.020682,0.0199484,-0.000737064,-0.0406338,0.785484,0.0268469,0.0172604,1749,1534,8.97884,-9.4066
532,-510,8.96265,9.21069,-0.0152913,-0.0153402,0.0145228,-0.0007929,-0.0298386,0.784557,0.0196335,0.0122632,1756,1534,8.96259,-9.21065
539,-510,8.9436,9.01416,-0.0109573,-0.0110533,0.0103488,-0.000656316,-0.0213542,0.783079,0.0140225,0.0127126,1763,1534,8.94362,-9.01421
546,-510,8.92712,8.82788,-0.00785119,-0.0072067,0.00674993,-0.000771327,-0.0142866,0.80925,0.00927796,0.0113902,1770,1534,8.92715,-8.82786
553,-510,8.94873,8.63208,-0.00477483,-0.00475504,0.00366984,-0.00109508,-0.00843479,0.786747,0.00529604,0.0123492,1777,1534,8.94876,-8.63204
560,-510,8.93713,8.4408,-0.00165628,-0.00275854,0.00182054,-0.000305275,-0.00410954,0.638418,0.00264382,0.0129454,1784,1534,8.93708,-8.44081
567,-510,8.92578,8.22485,0.000618911,-0.000561882,0.000753609,0.000985852,-0.000928822,0.453122,0.0011056,0.0119071,1791,1534,8.92573,-8.22489
574,-510,8.92786,8.02649,0.00214031,0.000888645,-0.000328382,0.00222123,0.000807723,-0.241611,0.00129823,0.0128433,1798,1534,8.9279,-8.0265
581,-510,8.92078,7.87231,0.00313286,0.00201243,-0.00102038,0.0037367,0.00140859,-0.534351,0.00217905,0.0116039,1805,1534,8.92074,-7.87237
588,-510,8.91077,7.70959,0.00429612,0.00279541,-0.00156958,0.00528548,0.00180605,-0.562426,0.00310213,0.0121005,1812,1534,8.91077,-7.70964
595,-510,8.98315,7.47534,0.00554324,0.0036627,-0.00204199,0.00685105,0.0023549,-0.569636,0.00401933,0.0123545,1819,1534,8.98312,-7.47539
602,-510,8.97449,7.26123,0.00693451,0.00441256,-0.00243771,0.00841807,0.002929,-0.54671,0.00493452,0.0191552,1826,1534,8.97446,-7.26119
609,-510,8.97913,7.15234,0.00836876,0.00515807,-0.00272127,0.00992292,0.00360392,-0.518909,0.00580004,0.0282104,1833,1534,8.97907,-7.15238
616,-510,8.97131,7.00793,0.00973241,0.0058519,-0.00279134,0.0111916,0.00439271,-0.481684,0.00651106,0.0413801,1840,1534,8.97135,-7.00795
623,-510,8.83337,6.74255,0,0,0,0,0,0,0,-1,1847,1534,8.83332,-6.74256
630,-510,8.74438,6.30151,0,0,0,0,0,0,0,-1,1854,1534,8.74444,-6.30147
637,-510,9.76941,5.86414,0,0,0,0,0,0,0,-1,1861,1534,9.7694,-5.86408
644,-510,10.6316,2.95374,0,0,0,0,0,0,0,-1,1868,1534,10.6316,-2.9537
651,-510,11.5236,2.09265,0,0,0,0,0,0,0,-1,1875,1534,11.5235,-2.09265
658,-510,0,0,0,0,0,0,0,0,0,-1,1882,1534,0,0
665,-510,0,0,0,0,0,0,0,0,0,-1,1889,1534,0,0
672,-510,0,0,0,0,0,0,0,0,0,-1,1896,1534,0,0
679,-510,0,0,0,0,0,0,0,0,0,-1,1903,1534,0,0
686,-510,0,0,0,0,0,0,0,0,0,-1,1910,1534,0,0
693,-510,0,0,0,0,0,0,0,0,0,-1,1917,1534,0,0
700,-510,0,0,0,0,0,0,0,0,0,-1,1924,1534,0,0
707,-510,0,0,0,0,0,0,0,0,0,-1,1931,1534,0,0
714,-510,0,0,0,0,0,0,0,0,0,-1,1938,1534,0,0
721,-510,0,0,0,0,0,0,0,0,0,-1,1945,1534,0,0
728,-510,0,0,0,0,0,0,0,0,0,-1,1952,1534,0,0
735,-510,0,0,0,0,0,0,0,0,0,-1,1959,1534,0,0
742,-510,0,0,0,0,0,0,0,0,0,-1,1966,1534,0,0
749,-510,0,0,0,0,0,0,0,0,0,-1,1973,1534,0,0
756,-510,0,0,0,0,0,0,0,0,0,-1,1980,1534,0,0
763,-510,0,0,0,0,0,0,0,0,0,-1,1987,1534,0,0
770,-510,0,0,0,0,0,0,0,0,0,-1,1994,1534,0,0
777,-510,0,0,0,0,0,0,0,0,0,-1,2001,1534,0,0
784,-510,0,0,0,0,0,0,0,0,0,-1,2008,1534,0,0
791,-510,0,0,0,0,0,0,0,0,0,-1,2015,1534,0,0
798,-510,0,0,0,0,0,0,0,0,0,-1,2022,1534,0,0
805,-510,0,0,0,0,0,0,0,0,0,-1,2029,1534,0,0
812,-510,0,0,0,0,0,0,0,0,0,-1,2036,1534,0,0
-700,-517,0,0,0,0,0,0,0,0,0,-1,524,1541,0,0
-693,-517,0,0,0,0,0,0,0,0,0,-1,531,1541,0,0
-686,-517,0,0,0,0,0,0,0,0,0,-1,538,1541,0,0
-679,-517,0,0,0,0,0,0,0,0,0,-1,545,1541,0,0
-672,-517,0,0,0,0,0,0,0,0,0,-1,552,1541,0,0
-665,-517,0,0,0,0,0,0,0,0,0,-1,559,1541,0,0
-658,-517,0,0,0,0,0,0,0,0,0,-1,566,1541,0,0
-651,-517,0,0,0,0,0,0,0,0,0,-1,573,1541,0,0
-644,-517,0,0,0,0,0,0,0,0,0,-1,580,1541,0,0
-637,-517,0,0,0,0,0,0,0,0,0,-1,587,1541,0,0
-630,-517,0,0,0,0,0,0,0,0,0,-1,594,1541,0,0
-623,-517,0,0,0,0,0,0,0,0,0,-1,601,1541,0,0
-616,-517,0,0,0,0,0,0,0,0,0,-1,608,1541,0,0
-609,-517,0,0,0,0,0,0,0,0,0,-1,615,1541,0,0
-602,-517,0,0,0,0,0,0,0,0,0,-1,622,1541,0,0
-595,-517,0,0,0,0,0,0,0,0,0,-1,629,1541,0,0
-588,-517,0,0,0,0,0,0,0,0,0,-1,636,1541,0,0
-581,-517,0,0,0,0,0,0,0,0,0,-1,643,1541,0,0
-574,-517,0,0,0,0,0,0,0,0,0,-1,650,1541,0,0
-567,-517,0,0,0,0,0,0,0,0,0,-1,657,1541,0,0
-560,-517,0,0,0,0,0,0,0,0,0,-1,664,1541,0,0
-553,-517,0,0,0,0,0,0,0,0,0,-1,671,1541,0,0
-546,-517,0,0,0,0,0,0,0,0,0,-1,678,1541,0,0
-539,-517,0,0,0,0,0,0,0,0,0,-1,685,1541,0,0
-532,-517,0,0,0,0,0,0,0,0,0,-1,692,1541,0,0
-525,-517,-3.06763,5.14441,0,0,0,0,0,0,0,-1,699,1541,-3.06765,-5.14443
-518,-517,-3.26764,6.16797,0,0,0,0,0,0,0,-1,706,1541,-3.26761,-6.16801
-511,-517,-3.78082,7.13684,0,0,0,0,0,0,0,-1,713,1541,-3.78081,-7.13678
-504,-517,-0.167114,3.18005,0,0,0,0,0,0,0,-1,720,1541,-0.167134,-3.18006
-497,-517,-0.140076,4.15417,0,0,0,0,0,0,0,-1,727,1541,-0.140048,-4.15417
-490,-517,-0.633545,5.34558,0,0,0,0,0,0,0,-1,734,1541,-0.633563,-5.34564
-483,-517,-0.422424,5.49207,0.0172805,0.0075563,0.00911522,0.0227493,0.00208751,0.540392,0.0145205,0.0406207,741,1541,-0.422406,-5.49208
-476,-517,-0.399414,5.56311,0.0135542,0.00777225,0.00723593,0.0184553,0.00287117,0.595346,0.0114669,0.0324646,748,1541,-0.39943,-5.5631
-469,-517,-0.411499,5.66003,0.0104639,0.00728154,0.00544976,0.01455,0.0031954,0.643362,0.00882975,0.0138018,755,1541,-0.411502,-5.66007
-462,-517,-0.431335,5.87903,0.00789204,0.00674997,0.00408126,0.011442,0.00319999,0.715891,0.0068165,0.0140812,762,1541,-0.431353,-5.87908
-455,-517,-0.436401,6.10999,0.00558608,0.00591367,0.00317212,0.00892622,0.00257353,0.811193,0.00530529,0.0133548,769,1541,-0.436407,-6.10995
-448,-517,-0.438904,6.34741,0.0039696,0.00468664,0.00248301,0.00683688,0.00181936,0.857097,0.00408869,0.0136555,776,1541,-0.438902,-6.34745
-441,-517,-0.433594,6.57019,0.00311891,0.0036096,0.00179771,0.00517863,0.00154988,0.853218,0.00306913,0.0120944,783,1541,-0.433618,-6.5702
-434,-517,-0.421692,6.7854,0.00220608,0.00258803,0.0011484,0.00356122,0.00123288,0.867792,0.00208825,0.0146985,790,1541,-0.421666,-6.7854
-427,-517,-0.437927,6.97815,0.00164464,0.00186619,0.000694833,0.00245903,0.00105181,0.864448,0.00142465,0.0143813,797,1541,-0.437908,-6.9781
-420,-517,-0.466064,7.19568,0.00122968,0.00115871,0.000361077,0.00155701,0.000831374,0.736418,0.000899629,0.0198962,804,1541,-0.466062,-7.19573
-413,-517,-0.45459,7.41211,0.000968254,0.000242152,-3.39286e-05,0.000969836,0.00024057,-0.0465917,0.00058315,0.0102408,811,1541,-0.454617,-7.4121
-406,-517,-0.446472,7.6272,0.000714989,-0.000774796,-0.000368838,0.000801304,-0.000861111,-0.229882,0.000960003,0.0108561,818,1541,-0.446474,-7.62715
-399,-517,-0.431885,7.84973,0.000504809,-0.00144264,-0.000794356,0.000787724,-0.00172555,-0.342148,0.00148433,0.0107598,825,1541,-0.431891,-7.84975
-392,-517,-0.426697,8.05371,0.000446095,-0.00189493,-0.00127399,0.00100566,-0.00245449,-0.413852,0.00205527,0.011625,832,1541,-0.426696,-8.05376
-385,-517,-0.372498,8.34595,0.000439484,-0.00215582,-0.00177094,0.00133731,-0.00305365,-0.469213,0.00259887,0.017189,839,1541,-0.372501,-8.34596
-378,-517,-0.38324,8.40942,-0.000333609,-0.00337798,-0.00226862,0.000876183,-0.00458777,-0.489909,0.00338854,0.0321593,846,1541,-0.383238,-8.40946
-371,-517,-0.3349,8.30188,-0.00178673,-0.0033726,-0.00298235,0.000506293,-0.00566563,-0.655467,0.00395666,0.0395883,853,1541,-0.33487,-8.30189
-364,-517,-0.1474,8.26196,-0.00321312,-0.00388059,-0.00360335,7.19163e-05,-0.00716563,-0.73922,0.00480124,0.0471886,860,1541,-0.147375,-8.26199
-357,-517,0.177551,8.22021,-0.00537792,-0.004323,-0.00416939,-0.000647842,-0.00905308,-0.848318,0.00583145,0.0498769,867,1541,0.177557,-8.22023
-350,-517,0.501709,8.19543,0,0,0,0,0,0,0,-1,874,1541,0.501714,-8.19542
-343,-517,-2.56708,6.12415,0,0,0,0,0,0,0,-1,881,1541,-2.56708,-6.12418
-336,-517,-1.81256,7.39868,0,0,0,0,0,0,0,-1,888,1541,-1.81255,-7.39862
-329,-517,-0.370361,8.6095,0,0,0,0,0,0,0,-1,895,1541,-0.370333,-8.60947
-322,-517,-0.924377,9.64771,-0.0226724,-0.00493404,-0.00246664,-0.00459742,-0.023009,-1.43517,0.0140597,0.0487036,902,1541,-0.924405,-9.64767
-315,-517,-0.99823,10.0765,0,0,0,0,0,0,0,-1,909,1541,-0.998229,-10.0766
-308,-517,-0.906128,10.2517,0,0,0,0,0,0,0,-1,916,1541,-0.906148,-10.2517
-301,-517,-2.29553,10.151,0,0,0,0,0,0,0,-1,923,1541,-2.29556,-10.151
-294,-517,-1.94806,10.6923,0,0,0,0,0,0,0,-1,930,1541,-1.94807,-10.6923
-287,-517,-0.212158,3.43335,0,0,0,0,0,0,0,-1,937,1541,-0.212159,-3.43334
-280,-517,0,0,0,0,0,0,0,0,0,-1,944,1541,0,0
-273,-517,0,0,0,0,0,0,0,0,0,-1,951,1541,0,0
-266,-517,0,0,0,0,0,0,0,0,0,-1,958,1541,0,0
-259,-517,0,0,0,0,0,0,0,0,0,-1,965,1541,0,0
-252,-517,0,0,0,0,0,0,0,0,0,-1,972,1541,0,0
-245,-517,0,0,0,0,0,0,0,0,0,-1,979,1541,0,0
-238,-517,0,0,0,0,0,0,0,0,0,-1,986,1541,0,0
-231,-517,0,0,0,0,0,0,0,0,0,-1,993,1541,0,0
-224,-517,0,0,0,0,0,0,0,0,0,-1,1000,1541,0,0
-217,-517,0,0,0,0,0,0,0,0,0,-1,1007,1541,0,0
-210,-517,0,0,0,0,0,0,0,0,0,-1,1014,1541,0,0
-203,-517,0,0,0,0,0,0,0,0,0,-1,1021,1541,0,0
-196,-517,0,0,0,0,0,0,0,0,0,-1,1028,1541,0,0
-189,-517,0,0,0,0,0,0,0,0,0,-1,1035,1541,0,0
-182,-517,0,0,0,0,0,0,0,0,0,-1,1042,1541,0,0
-175,-517,0,0,0,0,0,0,0,0,0,-1,1049,1541,0,0
-168,-517,0,0,0,0,0,0,0,0,0,-1,1056,1541,0,0
-161,-517,0,0,0,0,0,0,0,0,0,-1,1063,1541,0,0
-154,-517,0,0,0,0,0,0,0,0,0,-1,1070,1541,0,0
-147,-517,0,0,0,0,0,0,0,0,0,-1,1077,1541,0,0
-140,-517,0,0,0,0,0,0,0,0,0,-1,1084,1541,0,0
-133,-517,0,0,0,0,0,0,0,0,0,-1,1091,1541,0,0
-126,-517,0,0,0,0,0,0,0,0,0,-1,1098,1541,0,0
-119,-517,0,0,0,0,0,0,0,0,0,-1,1105,1541,0,0
-112,-517,0,0,0,0,0,0,0,0,0,-1,1112,1541,0,0
-105,-517,0,0,0,0,0,0,0,0,0,-1,1119,1541,0,0
-98,-517,0,0,0,0,0,0,0,0,0,-1,1126,1541,0,0
-91,-517,0,0,0,0,0,0,0,0,0,-1,1133,1541,0,0
-84,-517,0,0,0,0,0,0,0,0,0,-1,1140,1541,0,0
-77,-517,0,0,0,0,0,0,0,0,0,-1,1147,1541,0,0
-70,-517,0,0,0,0,0,0,0,0,0,-1,1154,1541,0,0
-63,-517,0,0,0,0,0,0,0,0,0,-1,1161,1541,0,0
-56,-517,0,0,0,0,0,0,0,0,0,-1,1168,1541,0,0
-49,-517,0,0,0,0,0,0,0,0,0,-1,1175,1541,0,0
-42,-517,0,0,0,0,0,0,0,0,0,-1,1182,1541,0,0
-35,-517,0,0,0,0,0,0,0,0,0,-1,1189,1541,0,0
-28,-517,0,0,0,0,0,0,0,0,0,-1,1196,1541,0,0
-21,-517,0,0,0,0,0,0,0,0,0,-1,1203,1541,0,0
-14,-517,0,0,0,0,0,0,0,0,0,-1,1210,1541,0,0
-7,-517,0,0,0,0,0,0,0,0,0,-1,1217,1541,0,0
0,-517,0,0,0,0,0,0,0,0,0,-1,1224,1541,0,0
7,-517,0,0,0,0,0,0,0,0,0,-1,1231,1541,0,0
14,-517,0,0,0,0,0,0,0,0,0,-1,1238,1541,0,0
21,-517,0,0,0,0,0,0,0,0,0,-1,1245,1541,0,0
28,-517,0,0,0,0,0,0,0,0,0,-1,1252,1541,0,0
35,-517,0,0,0,0,0,0,0,0,0,-1,1259,1541,0,0
42,-517,0,0,0,0,0,0,0,0,0,-1,1266,1541,0,0
49,-517,0,0,0,0,0,0,0,0,0,-1,1273,1541,0,0
56,-517,0,0,0,0,0,0,0,0,0,-1,1280,1541,0,0
63,-517,0,0,0,0,0,0,0,0,0,-1,1287,1541,0,0
70,-517,0,0,0,0,0,0,0,0,0,-1,1294,1541,0,0
77,-517,0,0,0,0,0,0,0,0,0,-1,1301,1541,0,0
84,-517,0,0,0,0,0,0,0,0,0,-1,1308,1541,0,0
91,-517,0,0,0,0,0,0,0,0,0,-1,1315,1541,0,0
98,-517,0,0,0,0,0,0,0,0,0,-1,1322,1541,0,0
105,-517,0,0,0,0,0,0,0,0,0,-1,1329,1541,0,0
112,-517,0,0,0,0,0,0,0,0,0,-1,1336,1541,0,0
119,-517,0,0,0,0,0,0,0,0,0,-1,1343,1541,0,0
126,-517,0,0,0,0,0,0,0,0,0,-1,1350,1541,0,0
133,-517,0,0,0,0,0,0,0,0,0,-1,1357,1541,0,0
140,-517,0,0,0,0,0,0,0,0,0,-1,1364,1541,0,0
147,-517,0,0,0,0,0,0,0,0,0,-1,1371,1541,0,0
154,-517,0,0,0,0,0,0,0,0,0,-1,1378,1541,0,0
161,-517,0,0,0,0,0,0,0,0,0,-1,1385,1541,0,0
168,-517,0,0,0,0,0,0,0,0,0,-1,1392,1541,0,0
175,-517,0,0,0,0,0,0,0,0,0,-1,1399,1541,0,0
182,-517,0,0,0,0,0,0,0,0,0,-1,1406,1541,0,0
189,-517,0,0,0,0,0,0,0,0,0,-1,1413,1541,0,0
196,-517,0,0,0,0,0,0,0,0,0,-1,1420,1541,0,0
203,-517,0,0,0,0,0,0,0,0,0,-1,1427,1541,0,0
210,-517,0,0,0,0,0,0,0,0,0,-1,1434,1541,0,0
217,-517,0,0,0,0,0,0,0,0,0,-1,1441,1541,0,0
224,-517,0,0,0,0,0,0,0,0,0,-1,1448,1541,0,0
231,-517,0,0,0,0,0,0,0,0,0,-1,1455,1541,0,0
238,-517,0,0,0,0,0,0,0,0,0,-1,1462,1541,0,0
245,-517,0,0,0,0,0,0,0,0,0,-1,1469,1541,0,0
252,-517,0,0,0,0,0,0,0,0,0,-1,1476,1541,0,0
259,-517,0,0,0,0,0,0,0,0,0,-1,1483,1541,0,0
266,-517,0,0,0,0,0,0,0,0,0,-1,1490,1541,0,0
273,-517,0,0,0,0,0,0,0,0,0,-1,1497,1541,0,0
280,-517,0,0,0,0,0,0,0,0,0,-1,1504,1541,0,0
287,-517,0,0,0,0,0,0,0,0,0,-1,1511,1541,0,0
294,-517,0,0,0,0,0,0,0,0,0,-1,1518,1541,0,0
301,-517,0,0,0,0,0,0,0,0,0,-1,1525,1541,0,0
308,-517,0,0,0,0,0,0,0,0,0,-1,1532,1541,0,0
315,-517,0,0,0,0,0,0,0,0,0,-1,1539,1541,0,0
322,-517,0,0,0,0,0,0,0,0,0,-1,1546,1541,0,0
329,-517,0,0,0,0,0,0,0,0,0,-1,1553,1541,0,0
336,-517,0,0,0,0,0,0,0,0,0,-1,1560,1541,0,0
343,-517,0,0,0,0,0,0,0,0,0,-1,1567,1541,0,0
350,-517,0,0,0,0,0,0,0,0,0,-1,1574,1541,0,0
357,-517,0,0,0,0,0,0,0,0,0,-1,1581,1541,0,0
364,-517,0,0,0,0,0,0,0,0,0,-1,1588,1541,0,0
371,-517,0,0,0,0,0,0,0,0,0,-1,1595,1541,0,0
378,-517,0,0,0,0,0,0,0,0,0,-1,1602,1541,0,0
385,-517,0,0,0,0,0,0,0,0,0,-1,1609,1541,0,0
392,-517,0,0,0,0,0,0,0,0,0,-1,1616,1541,0,0
399,-517,0,0,0,0,0,0,0,0,0,-1,1623,1541,0,0
406,-517,12.1469,6.22412,0,0,0,0,0,0,0,-1,1630,1541,12.1468,-6.22408
413,-517,12.2695,6.3324,0,0,0,0,0,0,0,-1,1637,1541,12.2696,-6.33243
420,-517,12.4789,6.20337,0,0,0,0,0,0,0,-1,1644,1541,12.4789,-6.20333
427,-517,11.647,4.66516,0,0,0,0,0,0,0,-1,1651,1541,11.647,-4.66519
434,-517,12.3719,3.92773,0,0,0,0,0,0,0,-1,1658,1541,12.3719,-3.92776
441,-517,13.146,3.14124,0,0,0,0,0,0,0,-1,1665,1541,13.146,-3.14121
448,-517,13.8861,2.36682,0,0,0,0,0,0,0,-1,1672,1541,13.8861,-2.36684
455,-517,13.6012,4.06335,0,0,0,0,0,0,0,-1,1679,1541,13.6012,-4.06335
462,-517,12.4916,4.39502,0,0,0,0,0,0,0,-1,1686,1541,12.4916,-4.39501
469,-517,11.5607,4.99341,0,0,0,0,0,0,0,-1,1693,1541,11.5607,-4.99337
476,-517,10.6741,5.75378,0,0,0,0,0,0,0,-1,1700,1541,10.6741,-5.75375
483,-517,9.14209,7.01526,0,0,0,0,0,0,0,-1,1707,1541,9.14204,-7.0153
490,-517,9.245,7.90112,-0.0534327,-0.0644462,0.0560542,-0.00261544,-0.115263,0.736435,0.0759855,0.0447337,1714,1541,9.24495,-7.90111
497,-517,9.66638,9.77112,-0.0435153,-0.0506483,0.0457686,-0.00117445,-0.0929892,0.746515,0.061605,0.0417935,1721,1541,9.66642,-9.77118
504,-517,9.22314,9.76501,-0.0352116,-0.0394133,0.0366798,-0.00057254,-0.0740524,0.756792,0.0491785,0.0380938,1728,1541,9.22311,-9.76506
511,-517,8.92651,9.82019,-0.0275676,-0.0296569,0.02877,0.00017673,-0.0574012,0.767251,0.0383265,0.0340899,1735,1541,8.92652,-9.82022
518,-517,8.76599,9.60156,-0.0210114,-0.0214891,0.0212415,-7.44872e-06,-0.0424931,0.779776,0.0283262,0.0216348,1742,1541,8.76598,-9.60159
525,-517,8.74573,9.38733,-0.0161983,-0.0163072,0.0157012,-0.000551464,-0.031954,0.783663,0.0211213,0.0117302,1749,1541,8.74568,-9.38733
532,-517,8.77063,9.19763,-0.0116296,-0.0116377,0.0110449,-0.00058874,-0.0226786,0.785213,0.0149267,0.0105992,1756,1541,8.77064,-9.19763
539,-517,8.7666,9.00037,-0.00808424,-0.00802015,0.00759836,-0.00045377,-0.0156506,0.787507,0.0102858,0.0115721,1763,1541,8.76657,-9.00038
546,-517,8.75537,8.79089,-0.0056187,-0.00481409,0.00464016,-0.000558829,-0.00987396,0.82864,0.00640449,0.012126,1770,1541,8.75534,-8.79093
553,-517,8.75513,8.60559,-0.0030467,-0.0028595,0.00217348,-0.000777608,-0.00512859,0.806917,0.00319159,0.0156182,1777,1541,8.75514,-8.60554
560,-517,8.75745,8.45105,-0.000358786,-0.00119961,0.000710349,4.62361e-05,-0.00160463,0.518199,0.0010855,0.0159202,1784,1541,8.75741,-8.45102
567,-517,8.73962,8.25696,0.00157556,0.000506284,-0.000157242,0.00159821,0.00048364,-0.143021,0.000946389,0.0132212,1791,1541,8.73967,-8.25694
574,-517,8.74817,8.04126,0.00297496,0.00172186,-0.000988521,0.00351877,0.00117805,-0.502938,0.0020682,0.0140202,1798,1541,8.74817,-8.0413
581,-517,8.73718,7.86096,0.00413074,0.00279581,-0.0016233,0.00521844,0.00170811,-0.590346,0.00307217,0.0142629,1805,1541,8.73721,-7.86099
588,-517,8.74023,7.68225,0.00557702,0.003679,-0.00224686,0.00706706,0.00218895,-0.585577,0.00417747,0.0146049,1812,1541,8.74018,-7.68223
595,-517,8.7738,7.479,0.00721638,0.00475206,-0.00286849,0.00910615,0.00286229,-0.582539,0.00537691,0.017429,1819,1541,8.77384,-7.479
602,-517,8.75244,7.24133,0.00909595,0.00586008,-0.00345322,0.0112915,0.00366456,-0.566321,0.00665158,0.0222082,1826,1541,8.75243,-7.24138
609,-517,9.17004,7.04871,0.0110554,0.0071185,-0.00394792,0.0134984,0.00467548,-0.554135,0.00791496,0.0408107,1833,1541,9.17005,-7.04867
616,-517,8.84229,7.04346,0,0,0,0,0,0,0,-1,1840,1541,8.84232,-7.0434
623,-517,9.79443,6.29468,0,0,0,0,0,0,0,-1,1847,1541,9.79447,-6.29473
630,-517,8.71704,6.14502,0,0,0,0,0,0,0,-1,1854,1541,8.71705,-6.14506
637,-517,11.8898,2.55811,0,0,0,0,0,0,0,-1,1861,1541,11.8898,-2.55805
644,-517,11.553,2.3092,0,0,0,0,0,0,0,-1,1868,1541,11.553,-2.30914
651,-517,0,0,0,0,0,0,0,0,0,-1,1875,1541,0,0
658,-517,0,0,0,0,0,0,0,0,0,-1,1882,1541,0,0
665,-517,0,0,0,0,0,0,0,0,0,-1,1889,1541,0,0
672,-517,0,0,0,0,0,0,0,0,0,-1,1896,1541,0,0
679,-517,0,0,0,0,0,0,0,0,0,-1,1903,1541,0,0
686,-517,0,0,0,0,0,0,0,0,0,-1,1910,1541,0,0
693,-517,0,0,0,0,0,0,0,0,0,-1,1917,1541,0,0
700,-517,0,0,0,0,0,0,0,0,0,-1,1924,1541,0,0
707,-517,0,0,0,0,0,0,0,0,0,-1,1931,1541,0,0
714,-517,0,0,0,0,0,0,0,0,0,-1,1938,1541,0,0
721,-517,0,0,0,0,0,0,0,0,0,-1,1945,1541,0,0
728,-517,0,0,0,0,0,0,0,0,0,-1,1952,1541,0,0
735,-517,0,0,0,0,0,0,0,0,0,-1,1959,1541,0,0
742,-517,0,0,0,0,0,0,0,0,0,-1,1966,1541,0,0
749,-517,0,0,0,0,0,0,0,0,0,-1,1973,1541,0,0
756,-517,0,0,0,0,0,0,0,0,0,-1,1980,1541,0,0
763,-517,0,0,0,0,0,0,0,0,0,-1,1987,1541,0,0
770,-517,0,0,0,0,0,0,0,0,0,-1,1994,1541,0,0
777,-517,0,0,0,0,0,0,0,0,0,-1,2001,1541,0,0
784,-517,0,0,0,0,0,0,0,0,0,-1,2008,1541,0,0
791,-517,0,0,0,0,0,0,0,0,0,-1,2015,1541,0,0
798,-517,0,0,0,0,0,0,0,0,0,-1,2022,1541,0,0
805,-517,0,0,0,0,0,0,0,0,0,-1,2029,1541,0,0
812,-517,0,0,0,0,0,0,0,0,0,-1,2036,1541,0,0
-700,-524,0,0,0,0,0,0,0,0,0,-1,524,1548,0,0
-693,-524,0,0,0,0,0,0,0,0,0,-1,531,1548,0,0
-686,-524,0,0,0,0,0,0,0,0,0,-1,538,1548,0,0
-679,-524,0,0,0,0,0,0,0,0,0,-1,545,1548,0,0
-672,-524,0,0,0,0,0,0,0,0,0,-1,552,1548,0,0
-665,-524,0,0,0,0,0,0,0,0,0,-1,559,1548,0,0
-658,-524,0,0,0,0,0,0,0,0,0,-1,566,1548,0,0
-651,-524,0,0,0,0,0,0,0,0,0,-1,573,1548,0,0
-644,-524,0,0,0,0,0,0,0,0,0,-1,580,1548,0,0
-637,-524,0,0,0,0,0,0,0,0,0,-1,587,1548,0,0
-630,-524,0,0,0,0,0,0,0,0,0,-1,594,1548,0,0
-623,-524,0,0,0,0,0,0,0,0,0,-1,601,1548,0,0
-616,-524,0,0,0,0,0,0,0,0,0,-1,608,1548,0,0
-609,-524,0,0,0,0,0,0,0,0,0,-1,615,1548,0,0
-602,-524,0,0,0,0,0,0,0,0,0,-1,622,1548,0,0
-595,-524,0,0,0,0,0,0,0,0,0,-1,629,1548,0,0
-588,-524,0,0,0,0,0,0,0,0,0,-1,636,1548,0,0
-581,-524,0,0,0,0,0,0,0,0,0,-1,643,1548,0,0
-574,-524,0,0,0,0,0,0,0,0,0,-1,650,1548,0,0
-567,-524,0,0,0,0,0,0,0,0,0,-1,657,1548,0,0
-560,-524,0,0,0,0,0,0,0,0,0,-1,664,1548,0,0
-553,-524,0,0,0,0,0,0,0,0,0,-1,671,1548,0,0
-546,-524,0,0,0,0,0,0,0,0,0,-1,678,1548,0,0
-539,-524,0,0,0,0,0,0,0,0,0,-1,685,1548,0,0
-532,-524,0,0,0,0,0,0,0,0,0,-1,692,1548,0,0
-525,-524,-2.43994,5.5603,0,0,0,0,0,0,0,-1,699,1548,-2.43993,-5.56025
-518,-524,-2.88928,6.64026,0,0,0,0,0,0,0,-1,706,1548,-2.88927,-6.6403
-511,-524,-3.33862,7.72034,0,0,0,0,0,0,0,-1,713,1548,-3.33861,-7.72035
-504,-524,0.498596,0.950562,0,0,0,0,0,0,0,-1,720,1548,0.498573,-0.950584
-497,-524,-1.19208,4.85559,0,0,0,0,0,0,0,-1,727,1548,-1.19206,-4.85563
-490,-524,-0.97406,5.35828,0.0265195,0.012468,0.0146366,0.0357292,0.00325827,0.561632,0.0228111,0.0432694,734,1548,-0.974037,-5.35834
-483,-524,-0.685608,5.53772,0.0216611,0.0122612,0.0117867,0.0296504,0.00427194,0.595683,0.018508,0.0447862,741,1548,-0.685627,-5.53771
-476,-524,-0.559814,5.64795,0.017379,0.0119357,0.00949554,0.0245352,0.00477946,0.64583,0.0150193,0.0421255,748,1548,-0.559786,-5.64799
-469,-524,-0.316162,5.75122,0.0134652,0.0111103,0.00735395,0.0197354,0.00484016,0.706016,0.011877,0.0310291,755,1548,-0.316147,-5.75126
-462,-524,-0.23645,5.97668,0.0100311,0.0102755,0.00565453,0.0158092,0.00449746,0.796204,0.00940581,0.0235451,762,1548,-0.236428,-5.97665
-455,-524,-0.226501,6.12549,0.00705678,0.00914692,0.00445374,0.0126766,0.00352714,0.900638,0.00755495,0.0165649,769,1548,-0.226529,-6.12543
-448,-524,-0.212585,6.36365,0.00491039,0.00770036,0.00348233,0.0100567,0.00255403,0.975906,0.00603602,0.0128071,776,1548,-0.212602,-6.36368
-441,-524,-0.221313,6.58008,0.00362685,0.00630988,0.00260826,0.0079014,0.00203534,1.02292,0.00473721,0.0108736,783,1548,-0.221337,-6.58012
-434,-524,-0.189026,6.77844,0.00237226,0.00493464,0.00177106,0.00583934,0.00146756,1.09853,0.00350758,0.0129845,790,1548,-0.189028,-6.77845
-427,-524,-0.19751,6.99634,0.0015932,0.0038958,0.00120201,0.00440892,0.00108008,1.16732,0.00265357,0.0132772,797,1548,-0.197514,-6.99639
-420,-524,-0.228821,7.20654,0.00104117,0.00281259,0.000816727,0.00313168,0.000722092,1.19835,0.00189355,0.0103558,804,1548,-0.228843,-7.20651
-413,-524,-0.221924,7.41284,0.000766166,0.00166067,0.00037311,0.00179587,0.000630971,1.22316,0.00105201,0.0096014,811,1548,-0.221939,-7.41286
-406,-524,-0.225403,7.63379,0.00050048,0.000386993,-1.06208e-05,0.000501466,0.000386007,-0.0925153,0.000303242,0.0102019,818,1548,-0.22542,-7.63375
-399,-524,-0.232361,7.84692,0.000377428,-0.000530124,-0.000447304,0.000560828,-0.000713524,-0.389108,0.000737506,0.00849844,825,1548,-0.232375,-7.84696
-392,-524,-0.23114,8.04114,0.000474358,-0.00136089,-0.000947038,0.000875414,-0.00176194,-0.400586,0.00155109,0.0096856,832,1548,-0.231146,-8.04109
-385,-524,-0.243469,8.27393,0.000629021,-0.00194911,-0.00144295,0.00127484,-0.00259493,-0.420832,0.00227714,0.0115488,839,1548,-0.243461,-8.27396
-378,-524,-0.203674,8.58984,0.000116484,-0.00328179,-0.00192126,0.00098217,-0.00414748,-0.423338,0.00314394,0.0187962,846,1548,-0.203695,-8.5899
-371,-524,-0.0917358,8.72571,-0.000965983,-0.00359823,-0.00262127,0.000651017,-0.00521523,-0.552737,0.0037129,0.0350504,853,1548,-0.0917372,-8.7257
-364,-524,-0.0673828,8.63062,-0.00198102,-0.00430202,-0.00327559,0.00033357,-0.00661661,-0.615154,0.00452636,0.040085,860,1548,-0.0674098,-8.63057
-357,-524,-0.0733032,8.422,-0.0035275,-0.00500325,-0.00397605,-0.000221436,-0.00830932,-0.693652,0.00546723,0.0492018,867,1548,-0.073332,-8.42195
-350,-524,-0.474121,9.12061,0,0,0,0,0,0,0,-1,874,1548,-0.474145,-9.12064
-343,-524,-1.2887,6.94836,0,0,0,0,0,0,0,-1,881,1548,-1.28868,-6.94831
-336,-524,0.0162354,8.78796,0,0,0,0,0,0,0,-1,888,1548,0.0162217,-8.78799
-329,-524,-0.126343,8.96472,-0.0130323,-0.00578952,-0.00414844,-0.00390418,-0.0149176,-1.14423,0.00893276,0.0472575,895,1548,-0.126353,-8.96477
-322,-524,-0.496338,9.29907,-0.0165998,-0.00518242,-0.00290315,-0.00448662,-0.0172956,-1.33556,0.0103638,0.0491994,902,1548,-0.496317,-9.29911
-315,-524,-0.988525,9.54456,0,0,0,0,0,0,0,-1,909,1548,-0.988536,-9.54449
-308,-524,5.11511,11.3574,0,0,0,0,0,0,0,-1,916,1548,5.11512,-11.3574
-301,-524,-1.59973,9.88318,0,0,0,0,0,0,0,-1,923,1548,-1.59973,-9.88321
-294,-524,-1.32819,10.4485,0,0,0,0,0,0,0,-1,930,1548,-1.32821,-10.4485
-287,-524,-1.04639,11.0281,0,0,0,0,0,0,0,-1,937,1548,-1.04641,-11.0281
-280,-524,-1.99243,9.78064,0,0,0,0,0,0,0,-1,944,1548,-1.99241,-9.78061
-273,-524,0,0,0,0,0,0,0,0,0,-1,951,1548,0,0
-266,-524,0,0,0,0,0,0,0,0,0,-1,958,1548,0,0
-259,-524,0,0,0,0,0,0,0,0,0,-1,965,1548,0,0
-252,-524,0,0,0,0,0,0,0,0,0,-1,972,1548,0,0
-245,-524,0,0,0,0,0,0,0,0,0,-1,979,1548,0,0
-238,-524,0,0,0,0,0,0,0,0,0,-1,986,1548,0,0
-231,-524,0,0,0,0,0,0,0,0,0,-1,993,1548,0,0
-224,-524,0,0,0,0,0,0,0,0,0,-1,1000,1548,0,0
-217,-524,0,0,0,0,0,0,0,0,0,-1,1007,1548,0,0
-210,-524,0,0,0,0,0,0,0,0,0,-1,1014,1548,0,0
-203,-524,0,0,0,0,0,0,0,0,0,-1,1021,1548,0,0
-196,-524,0,0,0,0,0,0,0,0,0,-1,1028,1548,0,0
-189,-524,0,0,0,0,0,0,0,0,0,-1,1035,1548,0,0
-182,-524,0,0,0,0,0,0,0,0,0,-1,1042,1548,0,0
-175,-524,0,0,0,0,0,0,0,0,0,-1,1049,1548,0,0
-168,-524,0,0,0,0,0,0,0,0,0,-1,1056,1548,0,0
-161,-524,0,0,0,0,0,0,0,0,0,-1,1063,1548,0,0
-154,-524,0,0,0,0,0,0,0,0,0,-1,1070,1548,0,0
-147,-524,0,0,0,0,0,0,0,0,0,-1,1077,1548,0,0
-140,-524,0,0,0,0,0,0,0,0,0,-1,1084,1548,0,0
-133,-524,0,0,0,0,0,0,0,0,0,-1,1091,1548,0,0
-126,-524,0,0,0,0,0,0,0,0,0,-1,1098,1548,0,0
-119,-524,0,0,0,0,0,0,0,0,0,-1,1105,1548,0,0
-112,-524,0,0,0,0,0,0,0,0,0,-1,1112,1548,0,0
-105,-524,0,0,0,0,0,0,0,0,0,-1,1119,1548,0,0
-98,-524,0,0,0,0,0,0,0,0,0,-1,1126,1548,0,0
-91,-524,0,0,0,0,0,0,0,0,0,-1,1133,1548,0,0
-84,-524,0,0,0,0,0,0,0,0,0,-1,1140,1548,0,0
-77,-524,0,0,0,0,0,0,0,0,0,-1,1147,1548,0,0
-70,-524,0,0,0,0,0,0,0,0,0,-1,1154,1548,0,0
-63,-524,0,0,0,0,0,0,0,0,0,-1,1161,1548,0,0
-56,-524,0,0,0,0,0,0,0,0,0,-1,1168,1548,0,0
-49,-524,0,0,0,0,0,0,0,0,0,-1,1175,1548,0,0
-42,-524,0,0,0,0,0,0,0,0,0,-1,1182,1548,0,0
-35,-524,0,0,0,0,0,0,0,0,0,-1,1189,1548,0,0
-28,-524,0,0,0,0,0,0,0,0,0,-1,1196,1548,0,0
-21,-524,0,0,0,0,0,0,0,0,0,-1,1203,1548,0,0
-14,-524,0,0,0,0,0,0,0,0,0,-1,1210,1548,0,0
-7,-524,0,0,0,0,0,0,0,0,0,-1,1217,1548,0,0
0,-524,0,0,0,0,0,0,0,0,0,-1,1224,1548,0,0
7,-524,0,0,0,0,0,0,0,0,0,-1,1231,1548,0,0
14,-524,0,0,0,0,0,0,0,0,0,-1,1238,1548,0,0
21,-524,0,0,0,0,0,0,0,0,0,-1,1245,1548,0,0
28,-524,0,0,0,0,0,0,0,0,0,-1,1252,1548,0,0
35,-524,0,0,0,0,0,0,0,0,0,-1,1259,1548,0,0
42,-524,0,0,0,0,0,0,0,0,0,-1,1266,1548,0,0
49,-524,0,0,0,0,0,0,0,0,0,-1,1273,1548,0,0
56,-524,0,0,0,0,0,0,0,0,0,-1,1280,1548,0,0
63,-524,0,0,0,0,0,0,0,0,0,-1,1287,1548,0,0
70,-524,0,0,0,0,0,0,0,0,0,-1,1294,1548,0,0
77,-524,0,0,0,0,0,0,0,0,0,-1,1301,1548,0,0
84,-524,0,0,0,0,0,0,0,0,0,-1,1308,1548,0,0
91,-524,0,0,0,0,0,0,0,0,0,-1,1315,1548,0,0
98,-524,0,0,0,0,0,0,0,0,0,-1,1322,1548,0,0
105,-524,0,0,0,0,0,0,0,0,0,-1,1329,1548,0,0
112,-524,0,0,0,0,0,0,0,0,0,-1,1336,1548,0,0
119,-524,0,0,0,0,0,0,0,0,0,-1,1343,1548,0,0
126,-524,0,0,0,0,0,0,0,0,0,-1,1350,1548,0,0
133,-524,0,0,0,0,0,0,0,0,0,-1,1357,1548,0,0
140,-524,0,0,0,0,0,0,0,0,0,-1,1364,1548,0,0
147,-524,0,0,0,0,0,0,0,0,0,-1,1371,1548,0,0
154,-524,0,0,0,0,0,0,0,0,0,-1,1378,1548,0,0
161,-524,0,0,0,0,0,0,0,0,0,-1,1385,1548,0,0
168,-524,0,0,0,0,0,0,0,0,0,-1,1392,1548,0,0
175,-524,0,0,0,0,0,0,0,0,0,-1,1399,1548,0,0
182,-524,0,0,0,0,0,0,0,0,0,-1,1406,1548,0,0
189,-524,0,0,0,0,0,0,0,0,0,-1,1413,1548,0,0
196,-524,0,0,0,0,0,0,0,0,0,-1,1420,1548,0,0
203,-524,0,0,0,0,0,0,0,0,0,-1,1427,1548,0,0
210,-524,0,0,0,0,0,0,0,0,0,-1,1434,1548,0,0
217,-524,0,0,0,0,0,0,0,0,0,-1,1441,1548,0,0
224,-524,0,0,0,0,0,0,0,0,0,-1,1448,1548,0,0
231,-524,0,0,0,0,0,0,0,0,0,-1,1455,1548,0,0
238,-524,0,0,0,0,0,0,0,0,0,-1,1462,1548,0,0
245,-524,0,0,0,0,0,0,0,0,0,-1,1469,1548,0,0
252,-524,0,0,0,0,0,0,0,0,0,-1,1476,1548,0,0
259,-524,0,0,0,0,0,0,0,0,0,-1,1483,1548,0,0
266,-524,0,0,0,0,0,0,0,0,0,-1,1490,1548,0,0
273,-524,0,0,0,0,0,0,0,0,0,-1,1497,1548,0,0
280,-524,0,0,0,0,0,0,0,0,0,-1,1504,1548,0,0
287,-524,0,0,0,0,0,0,0,0,0,-1,1511,1548,0,0
294,-524,0,0,0,0,0,0,0,0,0,-1,1518,1548,0,0
301,-524,0,0,0,0,0,0,0,0,0,-1,1525,1548,0,0
308,-524,0,0,0,0,0,0,0,0,0,-1,1532,1548,0,0
315,-524,0,0,0,0,0,0,0,0,0,-1,1539,1548,0,0
322,-524,0,0,0,0,0,0,0,0,0,-1,1546,1548,0,0
329,-524,0,0,0,0,0,0,0,0,0,-1,1553,1548,0,0
336,-524,0,0,0,0,0,0,0,0,0,-1,1560,1548,0,0
343,-524,0,0,0,0,0,0,0,0,0,-1,1567,1548,0,0
350,-524,0,0,0,0,0,0,0,0,0,-1,1574,1548,0,0
357,-524,0,0,0,0,0,0,0,0,0,-1,1581,1548,0,0
364,-524,0,0,0,0,0,0,0,0,0,-1,1588,1548,0,0
371,-524,0,0,0,0,0,0,0,0,0,-1,1595,1548,0,0
378,-524,0,0,0,0,0,0,0,0,0,-1,1602,1548,0,0
385,-524,0,0,0,0,0,0,0,0,0,-1,1609,1548,0,0
392,-524,0,0,0,0,0,0,0,0,0,-1,1616,1548,0,0
399,-524,8.81848,5.05774,0,0,0,0,0,0,0,-1,1623,1548,8.81843,-5.05769
406,-524,8.64294,6.06799,0,0,0,0,0,0,0,-1,1630,1548,8.6429,-6.06805
413,-524,11.677,6.41858,0,0,0,0,0,0,0,-1,1637,1548,11.677,-6.41864
420,-524,11.4913,6.36401,0,0,0,0,0,0,0,-1,1644,1548,11.4913,-6.36402
427,-524,7.68335,6.17249,0,0,0,0,0,0,0,-1,1651,1548,7.68341,-6.17245
434,-524,9.63916,7.99463,0,0,0,0,0,0,0,-1,1658,1548,9.63919,-7.99464
441,-524,8.78552,4.12305,0,0,0,0,0,0,0,-1,1665,1548,8.78553,-4.12301
448,-524,14.1854,4.78674,0,0,0,0,0,0,0,-1,1672,1548,14.1854,-4.78674
455,-524,13.1456,5.37646,-0.106961,-0.147614,0.0938301,-0.0312808,-0.223294,0.678729,0.139609,0.0466886,1679,1548,13.1457,-5.37652
462,-524,12.0439,5.96619,-0.0918834,-0.126826,0.0849013,-0.0226743,-0.196035,0.683923,0.123826,0.0465239,1686,1548,12.044,-5.96623
469,-524,11.0704,6.60852,0,0,0,0,0,0,0,-1,1693,1548,11.0705,-6.60852
476,-524,10.1907,7.38806,0,0,0,0,0,0,0,-1,1700,1548,10.1907,-7.38812
483,-524,9.45386,8.58618,0,0,0,0,0,0,0,-1,1707,1548,9.45383,-8.58621
490,-524,8.83667,8.96655,-0.0431622,-0.0553433,0.0471608,-0.00170032,-0.0968051,0.721181,0.0639775,0.0400449,1714,1548,8.83667,-8.96656
497,-524,8.64038,9.92114,-0.034927,-0.0432975,0.0384619,-0.000423305,-0.0778012,0.731204,0.0517269,0.0314898,1721,1548,8.64044,-9.92109
504,-524,8.64392,9.87268,0,0,0,0,0,0,0,-1,1728,1548,8.64396,-9.87265
511,-524,8.56653,9.74805,-0.0216918,-0.0247413,0.0240417,0.00087342,-0.0473065,0.75373,0.0318328,0.0163744,1735,1548,8.56647,-9.74805
518,-524,8.5752,9.54065,-0.0162688,-0.0175286,0.0175017,0.000614285,-0.0344117,0.767411,0.0231486,0.0154436,1742,1548,8.57525,-9.5407
525,-524,8.55786,9.3855,-0.0124363,-0.0130662,0.0128017,5.43017e-05,-0.0255568,0.773098,0.017056,0.0141144,1749,1548,8.55791,-9.38545
532,-524,8.56726,9.19946,-0.00870119,-0.00901157,0.00879057,-6.44447e-05,-0.0176483,0.776572,0.0117441,0.00957335,1756,1548,8.56727,-9.19945
539,-524,8.56372,8.99231,-0.00585294,-0.00592081,0.0058664,-2.03801e-05,-0.0117534,0.782506,0.0078288,0.0100768,1763,1548,8.56377,-8.99225
546,-524,8.55493,8.79163,-0.00386572,-0.00322942,0.00336107,-0.000171475,-0.00692367,0.832586,0.00455969,0.0132262,1770,1548,8.55497,-8.79166
553,-524,8.57031,8.60901,-0.00168478,-0.00155112,0.00132839,-0.000287879,-0.00294802,0.810532,0.00187676,0.0212937,1777,1548,8.57026,-8.60897
560,-524,8.59094,8.42236,0.000660698,-6.53374e-05,5.71259e-05,0.000665165,-6.98047e-05,0.078042,0.000468448,0.0300194,1784,1548,8.59098,-8.42234
567,-524,8.56067,8.2594,0.00231235,0.00126145,-0.000765707,0.00271555,0.000858239,-0.484686,0.0016028,0.0180797,1791,1548,8.56063,-8.25944
574,-524,8.56067,8.04089,0.00366887,0.00234,-0.0015059,0.0046504,0.00135847,-0.577633,0.00276118,0.0126512,1798,1548,8.56064,-8.04092
581,-524,8.56799,7.84387,0.00504287,0.00342882,-0.00215726,0.00653912,0.00193258,-0.606408,0.00387915,0.0127311,1805,1548,8.56801,-7.84388
588,-524,8.58545,7.64905,0.00682603,0.00446871,-0.00290342,0.00878091,0.00251382,-0.592583,0.00522175,0.0134054,1812,1548,8.58549,-7.64899
595,-524,8.57983,7.43835,0.00893094,0.00582648,-0.00376583,0.0114519,0.00330552,-0.589914,0.00680582,0.0156684,1819,1548,8.57988,-7.43831
602,-524,8.69336,7.11816,0.0114308,0.00742496,-0.0046792,0.0145177,0.00433803,-0.583174,0.00860503,0.0306694,1826,1548,8.69336,-7.11818
609,-524,9.33325,6.82605,0.0142686,0.00941285,-0.0056592,0.0179987,0.00568271,-0.582766,0.0106242,0.0459759,1833,1548,9.33329,-6.82605
616,-524,9.88342,6.49634,0,0,0,0,0,0,0,-1,1840,1548,9.88344,-6.4963
623,-524,9.38452,5.15356,0,0,0,0,0,0,0,-1,1847,1548,9.38456,-5.15359
630,-524,11.0541,3.57434,0,0,0,0,0,0,0,-1,1854,1548,11.0541,-3.57438
637,-524,12.7236,1.99512,0,0,0,0,0,0,0,-1,1861,1548,12.7236,-1.99516
644,-524,12.4685,1.35266,0,0,0,0,0,0,0,-1,1868,1548,12.4686,-1.35261
651,-524,0,0,0,0,0,0,0,0,0,-1,1875,1548,0,0
658,-524,0,0,0,0,0,0,0,0,0,-1,1882,1548,0,0
665,-524,0,0,0,0,0,0,0,0,0,-1,1889,1548,0,0
672,-524,0,0,0,0,0,0,0,0,0,-1,1896,1548,0,0
679,-524,0,0,0,0,0,0,0,0,0,-1,1903,1548,0,0
686,-524,0,0,0,0,0,0,0,0,0,-1,1910,1548,0,0
693,-524,0,0,0,0,0,0,0,0,0,-1,1917,1548,0,0
700,-524,0,0,0,0,0,0,0,0,0,-1,1924,1548,0,0
707,-524,0,0,0,0,0,0,0,0,0,-1,1931,1548,0,0
714,-524,0,0,0,0,0,0,0,0,0,-1,1938,1548,0,0
721,-524,0,0,0,0,0,0,0,0,0,-1,1945,1548,0,0
728,-524,0,0,0,0,0,0,0,0,0,-1,1952,1548,0,0
735,-524,0,0,0,0,0,0,0,0,0,-1,1959,1548,0,0
742,-524,0,0,0,0,0,0,0,0,0,-1,1966,1548,0,0
749,-524,0,0,0,0,0,0,0,0,0,-1,1973,1548,0,0
756,-524,0,0,0,0,0,0,0,0,0,-1,1980,1548,0,0
763,-524,0,0,0,0,0,0,0,0,0,-1,1987,1548,0,0
770,-524,0,0,0,0,0,0,0,0,0,-1,1994,1548,0,0
777,-524,0,0,0,0,0,0,0,0,0,-1,2001,1548,0,0
784,-524,0,0,0,0,0,0,0,0,0,-1,2008,1548,0,0
791,-524,0,0,0,0,0,0,0,0,0,-1,2015,1548,0,0
798,-524,0,0,0,0,0,0,0,0,0,-1,2022,1548,0,0
805,-524,0,0,0,0,0,0,0,0,0,-1,2029,1548,0,0
812,-524,0,0,0,0,0,0,0,0,0,-1,2036,1548,0,0
-700,-531,0,0,0,0,0,0,0,0,0,-1,524,1555,0,0
-693,-531,0,0,0,0,0,0,0,0,0,-1,531,1555,0,0
-686,-531,0,0,0,0,0,0,0,0,0,-1,538,1555,0,0
-679,-531,0,0,0,0,0,0,0,0,0,-1,545,1555,0,0
-672,-531,0,0,0,0,0,0,0,0,0,-1,552,1555,0,0
-665,-531,0,0,0,0,0,0,0,0,0,-1,559,1555,0,0
-658,-531,0,0,0,0,0,0,0,0,0,-1,566,1555,0,0
-651,-531,0,0,0,0,0,0,0,0,0,-1,573,1555,0,0
-644,-531,0,0,0,0,0,0,0,0,0,-1,580,1555,0,0
-637,-531,0,0,0,0,0,0,0,0,0,-1,587,1555,0,0
-630,-531,0,0,0,0,0,0,0,0,0,-1,594,1555,0,0
-623,-531,0,0,0,0,0,0,0,0,0,-1,601,1555,0,0
-616,-531,0,0,0,0,0,0,0,0,0,-1,608,1555,0,0
-609,-531,0,0,0,0,0,0,0,0,0,-1,615,1555,0,0
-602,-531,0,0,0,0,0,0,0,0,0,-1,622,1555,0,0
-595,-531,0,0,0,0,0,0,0,0,0,-1,629,1555,0,0
-588,-531,0,0,0,0,0,0,0,0,0,-1,636,1555,0,0
-581,-531,0,0,0,0,0,0,0,0,0,-1,643,1555,0,0
-574,-531,0,0,0,0,0,0,0,0,0,-1,650,1555,0,0
-567,-531,0,0,0,0,0,0,0,0,0,-1,657,1555,0,0
-560,-531,0,0,0,0,0,0,0,0,0,-1,664,1555,0,0
-553,-531,0,0,0,0,0,0,0,0,0,-1,671,1555,0,0
-546,-531,0,0,0,0,0,0,0,0,0,-1,678,1555,0,0
-539,-531,0,0,0,0,0,0,0,0,0,-1,685,1555,0,0
-532,-531,0,0,0,0,0,0,0,0,0,-1,692,1555,0,0
-525,-531,0,0,0,0,0,0,0,0,0,-1,699,1555,0,0
-518,-531,-2.56696,6.98096,0,0,0,0,0,0,0,-1,706,1555,-2.56697,-6.98095
-511,-531,-2.9682,8.07483,0,0,0,0,0,0,0,-1,713,1555,-2.9682,-8.07479
-504,-531,-2.95978,0.557861,0,0,0,0,0,0,0,-1,720,1555,-2.95978,-0.557917
-497,-531,-1.58325,4.77319,0,0,0,0,0,0,0,-1,727,1555,-1.58327,-4.7732
-490,-531,-1.28674,5.19922,0.0336558,0.0193674,0.019204,0.0470014,0.00602172,0.607321,0.0295324,0.048339,734,1555,-1.28674,-5.19921
-483,-531,-0.933838,5.48193,0.0275348,0.0185843,0.0155167,0.0392087,0.00691034,0.645,0.0241673,0.0471931,741,1555,-0.933823,-5.48196
-476,-531,-0.522217,5.35535,0.0220649,0.0176667,0.0125074,0.0325651,0.00716651,0.698377,0.0197593,0.0468762,748,1555,-0.522195,-5.35531
-469,-531,-0.645142,5.81396,0,0,0,0,0,0,0,-1,755,1555,-0.645133,-5.81402
-462,-531,-0.304321,6.20386,0.0126095,0.015054,0.00767477,0.0216032,0.00606026,0.864361,0.0128669,0.0387934,762,1555,-0.304328,-6.2039
-455,-531,-0.0334473,6.23145,0.00886246,0.0134007,0.00609619,0.0176364,0.00462678,0.963564,0.0105588,0.0273359,769,1555,-0.033421,-6.2315
-448,-531,0.0263672,6.36389,0.00611799,0.0114999,0.00475976,0.0142767,0.00334116,1.04267,0.00862262,0.0125677,776,1555,0.0263696,-6.3639
-441,-531,-0.0109253,6.5647,0.00434715,0.0095749,0.00362109,0.011427,0.00249508,1.09802,0.00693749,0.0109472,783,1555,-0.0109288,-6.56471
-434,-531,-0.00396729,6.79138,0.00272729,0.00766303,0.00253646,0.00873409,0.00165623,1.17124,0.00535669,0.0114279,790,1555,-0.00397899,-6.7914
-427,-531,0.0180664,6.99902,0.00170807,0.00614724,0.0018104,0.00679193,0.00106337,1.22869,0.00421841,0.0128865,797,1555,0.018087,-6.999
-420,-531,0.00256348,7.21765,0.000996003,0.00457241,0.0013423,0.00502015,0.000548267,1.24884,0.00317981,0.0116703,804,1555,0.00255793,-7.21771
-413,-531,-0.00732422,7.42432,0.00068069,0.0031172,0.000823345,0.00336933,0.000428557,1.27363,0.00211787,0.00990562,811,1555,-0.00733437,-7.4243
-406,-531,-0.0125732,7.62244,0.000369444,0.00156571,0.00037126,0.00167156,0.00026359,1.29305,0.00103773,0.0103358,818,1555,-0.0125616,-7.62239
-399,-531,-0.0145874,7.8418,0.000286701,0.000408045,-9.07556e-05,0.000456541,0.000238205,-1.08004,0.000263667,0.0122094,825,1555,-0.0145575,-7.84183
-392,-531,-0.0181885,8.05408,0.000466126,-0.000753921,-0.000625187,0.000729594,-0.00101739,-0.398837,0.00101317,0.0167416,832,1555,-0.0181999,-8.05405
-385,-531,-0.0318604,8.26477,0.000694961,-0.00158502,-0.00113066,0.00116057,-0.00205063,-0.390643,0.00187758,0.0147712,839,1555,-0.0318713,-8.26472
-378,-531,-0.0333862,8.47668,0.000359425,-0.0029202,-0.00158849,0.00100266,-0.00356343,-0.384751,0.00277098,0.0111243,846,1555,-0.0333691,-8.47664
-371,-531,-0.00128174,8.72339,-0.00044553,-0.00340099,-0.002253,0.000771126,-0.00461765,-0.495145,0.00336505,0.014662,853,1555,-0.00128617,-8.72344
-364,-531,0.0541382,8.92261,-0.00115542,-0.00415166,-0.00288855,0.000600392,-0.00590747,-0.546173,0.00415294,0.0294327,860,1555,0.0541391,-8.92257
-357,-531,-0.122131,8.94873,-0.00223489,-0.00488929,-0.00362564,0.000298835,-0.00742301,-0.609944,0.00505123,0.0387771,867,1555,-0.122115,-8.94877
-350,-531,-0.128113,9.10474,-0.00385502,-0.00584672,-0.00434474,-0.000393462,-0.00930828,-0.67274,0.00607861,0.0465466,874,1555,-0.128111,-9.10469
-343,-531,-0.0405273,9.12683,0,0,0,0,0,0,0,-1,881,1555,-0.0405115,-9.12688
-336,-531,0.20575,9.59314,0,0,0,0,0,0,0,-1,888,1555,0.205723,-9.59314
-329,-531,-0.0128784,9.30505,-0.00902579,-0.00550953,-0.00405957,-0.00284373,-0.0116916,-0.989747,0.00704059,0.044725,895,1555,-0.0128483,-9.30502
-322,-531,-0.261841,9.44421,-0.0112026,-0.00471113,-0.00299138,-0.00354289,-0.0123708,-1.19848,0.00735636,0.0441876,902,1555,-0.261824,-9.44427
-315,-531,-0.64563,9.46143,0,0,0,0,0,0,0,-1,909,1555,-0.645633,-9.46142
-308,-531,4.15759,11.2732,0,0,0,0,0,0,0,-1,916,1555,4.15762,-11.2732
-301,-531,4.26062,11.9178,0,0,0,0,0,0,0,-1,923,1555,4.26063,-11.9179
-294,-531,-0.741821,10.252,0,0,0,0,0,0,0,-1,930,1555,-0.741832,-10.2519
-287,-531,-0.461792,10.8096,0,0,0,0,0,0,0,-1,937,1555,-0.46182,-10.8096
-280,-531,-1.7738,9.76196,0,0,0,0,0,0,0,-1,944,1555,-1.77378,-9.76194
-273,-531,-5.5531,14.6454,0,0,0,0,0,0,0,-1,951,1555,-5.5531,-14.6454
-266,-531,-6.7038,16.0303,0,0,0,0,0,0,0,-1,958,1555,-6.7038,-16.0303
-259,-531,0,0,0,0,0,0,0,0,0,-1,965,1555,0,0
-252,-531,0,0,0,0,0,0,0,0,0,-1,972,1555,0,0
-245,-531,0,0,0,0,0,0,0,0,0,-1,979,1555,0,0
-238,-531,0,0,0,0,0,0,0,0,0,-1,986,1555,0,0
-231,-531,0,0,0,0,0,0,0,0,0,-1,993,1555,0,0
-224,-531,0,0,0,0,0,0,0,0,0,-1,1000,1555,0,0
-217,-531,0,0,0,0,0,0,0,0,0,-1,1007,1555,0,0
-210,-531,0,0,0,0,0,0,0,0,0,-1,1014,1555,0,0
-203,-531,0,0,0,0,0,0,0,0,0,-1,1021,1555,0,0
-196,-531,0,0,0,0,0,0,0,0,0,-1,1028,1555,0,0
-189,-531,0,0,0,0,0,0,0,0,0,-1,1035,1555,0,0
-182,-531,0,0,0,0,0,0,0,0,0,-1,1042,1555,0,0
-175,-531,0,0,0,0,0,0,0,0,0,-1,1049,1555,0,0
-168,-531,0,0,0,0,0,0,0,0,0,-1,1056,1555,0,0
-161,-531,0,0,0,0,0,0,0,0,0,-1,1063,1555,0,0
-154,-531,0,0,0,0,0,0,0,0,0,-1,1070,1555,0,0
-147,-531,0,0,0,0,0,0,0,0,0,-1,1077,1555,0,0
-140,-531,0,0,0,0,0,0,0,0,0,-1,1084,1555,0,0
-133,-531,0,0,0,0,0,0,0,0,0,-1,1091,1555,0,0
-126,-531,0,0,0,0,0,0,0,0,0,-1,1098,1555,0,0
-119,-531,0,0,0,0,0,0,0,0,0,-1,1105,1555,0,0
-112,-531,0,0,0,0,0,0,0,0,0,-1,1112,1555,0,0
-105,-531,0,0,0,0,0,0,0,0,0,-1,1119,1555,0,0
-98,-531,0,0,0,0,0,0,0,0,0,-1,1126,1555,0,0
-91,-531,0,0,0,0,0,0,0,0,0,-1,1133,1555,0,0
-84,-531,0,0,0,0,0,0,0,0,0,-1,1140,1555,0,0
-77,-531,0,0,0,0,0,0,0,0,0,-1,1147,1555,0,0
-70,-531,0,0,0,0,0,0,0,0,0,-1,1154,1555,0,0
-63,-531,0,0,0,0,0,0,0,0,0,-1,1161,1555,0,0
-56,-531,0,0,0,0,0,0,0,0,0,-1,1168,1555,0,0
-49,-531,0,0,0,0,0,0,0,0,0,-1,1175,1555,0,0
-42,-531,0,0,0,0,0,0,0,0,0,-1,1182,1555,0,0
-35,-531,0,0,0,0,0,0,0,0,0,-1,1189,1555,0,0
-28,-531,0,0,0,0,0,0,0,0,0,-1,1196,1555,0,0
-21,-531,0,0,0,0,0,0,0,0,0,-1,1203,1555,0,0
-14,-531,0,0,0,0,0,0,0,0,0,-1,1210,1555,0,0
-7,-531,0,0,0,0,0,0,0,0,0,-1,1217,1555,0,0
0,-531,0,0,0,0,0,0,0,0,0,-1,1224,1555,0,0
7,-531,0,0,0,0,0,0,0,0,0,-1,1231,1555,0,0
14,-531,0,0,0,0,0,0,0,0,0,-1,1238,1555,0,0
21,-531,0,0,0,0,0,0,0,0,0,-1,1245,1555,0,0
28,-531,0,0,0,0,0,0,0,0,0,-1,1252,1555,0,0
35,-531,0,0,0,0,0,0,0,0,0,-1,1259,1555,0,0
42,-531,0,0,0,0,0,0,0,0,0,-1,1266,1555,0,0
49,-531,0,0,0,0,0,0,0,0,0,-1,1273,1555,0,0
56,-531,0,0,0,0,0,0,0,0,0,-1,1280,1555,0,0
63,-531,0,0,0,0,0,0,0,0,0,-1,1287,1555,0,0
70,-531,0,0,0,0,0,0,0,0,0,-1,1294,1555,0,0
77,-531,0,0,0,0,0,0,0,0,0,-1,1301,1555,0,0
84,-531,0,0,0,0,0,0,0,0,0,-1,1308,1555,0,0
91,-531,0,0,0,0,0,0,0,0,0,-1,1315,1555,0,0
98,-531,0,0,0,0,0,0,0,0,0,-1,1322,1555,0,0
105,-531,0,0,0,0,0,0,0,0,0,-1,1329,1555,0,0
112,-531,0,0,0,0,0,0,0,0,0,-1,1336,1555,0,0
119,-531,0,0,0,0,0,0,0,0,0,-1,1343,1555,0,0
126,-531,0,0,0,0,0,0,0,0,0,-1,1350,1555,0,0
133,-531,0,0,0,0,0,0,0,0,0,-1,1357,1555,0,0
140,-531,0,0,0,0,0,0,0,0,0,-1,1364,1555,0,0
147,-531,0,0,0,0,0,0,0,0,0,-1,1371,1555,0,0
154,-531,0,0,0,0,0,0,0,0,0,-1,1378,1555,0,0
161,-531,0,0,0,0,0,0,0,0,0,-1,1385,1555,0,0
168,-531,0,0,0,0,0,0,0,0,0,-1,1392,1555,0,0
175,-531,0,0,0,0,0,0,0,0,0,-1,1399,1555,0,0
182,-531,0,0,0,0,0,0,0,0,0,-1,1406,1555,0,0
189,-531,0,0,0,0,0,0,0,0,0,-1,1413,1555,0,0
196,-531,0,0,0,0,0,0,0,0,0,-1,1420,1555,0,0
203,-531,0,0,0,0,0,0,0,0,0,-1,1427,1555,0,0
210,-531,0,0,0,0,0,0,0,0,0,-1,1434,1555,0,0
217,-531,0,0,0,0,0,0,0,0,0,-1,1441,1555,0,0
224,-531,0,0,0,0,0,0,0,0,0,-1,1448,1555,0,0
231,-531,0,0,0,0,0,0,0,0,0,-1,1455,1555,0,0
238,-531,0,0,0,0,0,0,0,0,0,-1,1462,1555,0,0
245,-531,0,0,0,0,0,0,0,0,0,-1,1469,1555,0,0
252,-531,0,0,0,0,0,0,0,0,0,-1,1476,1555,0,0
259,-531,0,0,0,0,0,0,0,0,0,-1,1483,1555,0,0
266,-531,0,0,0,0,0,0,0,0,0,-1,1490,1555,0,0
273,-531,0,0,0,0,0,0,0,0,0,-1,1497,1555,0,0
280,-531,0,0,0,0,0,0,0,0,0,-1,1504,1555,0,0
287,-531,0,0,0,0,0,0,0,0,0,-1,1511,1555,0,0
294,-531,0,0,0,0,0,0,0,0,0,-1,1518,1555,0,0
301,-531,0,0,0,0,0,0,0,0,0,-1,1525,1555,0,0
308,-531,0,0,0,0,0,0,0,0,0,-1,1532,1555,0,0
315,-531,0,0,0,0,0,0,0,0,0,-1,1539,1555,0,0
322,-531,0,0,0,0,0,0,0,0,0,-1,1546,1555,0,0
329,-531,0,0,0,0,0,0,0,0,0,-1,1553,1555,0,0
336,-531,0,0,0,0,0,0,0,0,0,-1,1560,1555,0,0
343,-531,0,0,0,0,0,0,0,0,0,-1,1567,1555,0,0
350,-531,0,0,0,0,0,0,0,0,0,-1,1574,1555,0,0
357,-531,0,0,0,0,0,0,0,0,0,-1,1581,1555,0,0
364,-531,0,0,0,0,0,0,0,0,0,-1,1588,1555,0,0
371,-531,0,0,0,0,0,0,0,0,0,-1,1595,1555,0,0
378,-531,0,0,0,0,0,0,0,0,0,-1,1602,1555,0,0
385,-531,3.13403,1.88721,0,0,0,0,0,0,0,-1,1609,1555,3.13401,-1.88726
392,-531,8.49451,7.77673,0,0,0,0,0,0,0,-1,1616,1555,8.49447,-7.77677
399,-531,8.26306,5.29602,0,0,0,0,0,0,0,-1,1623,1555,8.26302,-5.29607
406,-531,8.26147,5.42712,0,0,0,0,0,0,0,-1,1630,1555,8.26145,-5.42716
413,-531,8.20618,5.75012,0,0,0,0,0,0,0,-1,1637,1555,8.20619,-5.75017
420,-531,7.64868,7.09558,0,0,0,0,0,0,0,-1,1644,1555,7.64867,-7.09564
427,-531,8.19263,7.02405,0,0,0,0,0,0,0,-1,1651,1555,8.19269,-7.02407
434,-531,10.109,13.5083,0,0,0,0,0,0,0,-1,1658,1555,10.1091,-13.5083
441,-531,10.4186,12.6052,0,0,0,0,0,0,0,-1,1665,1555,10.4186,-12.6052
448,-531,13.5089,5.90344,0,0,0,0,0,0,0,-1,1672,1555,13.5089,-5.90346
455,-531,12.5403,6.53625,-0.0841305,-0.121998,0.077536,-0.02325,-0.182878,0.665645,0.114955,0.0457913,1679,1555,12.5403,-6.53629
462,-531,11.5742,7.58801,-0.0729492,-0.105076,0.0700594,-0.0171352,-0.16089,0.672705,0.102029,0.0469844,1686,1555,11.5742,-7.588
469,-531,10.6149,9.38245,0,0,0,0,0,0,0,-1,1693,1555,10.6149,-9.38242
476,-531,10.0155,8.95898,-0.0515337,-0.072748,0.0545306,-0.00658824,-0.117694,0.689339,0.0763611,0.0487968,1700,1555,10.0155,-8.95903
483,-531,8.93433,9.40796,-0.0421508,-0.0586042,0.0464165,-0.00323764,-0.0975174,0.697691,0.0639597,0.0453935,1707,1555,8.93437,-9.40791
490,-531,8.56726,9.99951,-0.0341202,-0.046452,0.0386602,-0.00113732,-0.0794349,0.70632,0.0525816,0.0332269,1714,1555,8.56722,-9.9995
497,-531,8.36987,10.085,-0.0273766,-0.0362571,0.0314667,-3.83966e-05,-0.0635952,0.715306,0.042384,0.0159047,1721,1555,8.36987,-10.0849
504,-531,8.3573,9.94092,-0.0217685,-0.0278532,0.0251628,0.000535186,-0.050157,0.725237,0.0336178,0.0115389,1728,1555,8.35733,-9.94086
511,-531,8.35864,9.7428,-0.0164831,-0.0202972,0.0194617,0.0011648,-0.0379451,0.736559,0.0256938,0.013182,1735,1555,8.3587,-9.74284
518,-531,8.35242,9.55713,-0.0119972,-0.0140348,0.0138514,0.000872767,-0.0269048,0.74869,0.0182344,0.0143178,1742,1555,8.3524,-9.55716
525,-531,8.36072,9.38074,-0.00893343,-0.0102286,0.00990383,0.000343963,-0.019506,0.752751,0.0131202,0.0137833,1749,1555,8.3607,-9.38074
532,-531,8.3938,9.19348,-0.00588789,-0.00674317,0.00648779,0.000186341,-0.0128174,0.752489,0.00860772,0.0102624,1756,1555,8.39386,-9.19344
539,-531,8.37781,9.00854,-0.00362081,-0.00412622,0.00404505,0.000179416,-0.00792645,0.754202,0.00534511,0.0113249,1763,1555,8.37781,-9.00855
546,-531,8.34473,8.81128,-0.00201914,-0.00193055,0.00198905,1.46995e-05,-0.00396439,0.79653,0.00264784,0.0143744,1770,1555,8.34473,-8.81125
553,-531,8.37122,8.62512,-0.000191678,-0.000487897,0.000408763,9.49806e-05,-0.000774556,0.611588,0.000550767,0.0280851,1777,1555,8.37124,-8.62508
560,-531,8.34583,8.44177,0.00180568,0.00085491,-0.000646946,0.00213312,0.00052747,-0.468541,0.00128293,0.0300355,1784,1555,8.34584,-8.44179
567,-531,8.33826,8.27063,0.00314573,0.00183765,-0.00140339,0.00404,0.000943382,-0.567341,0.00244043,0.0173378,1791,1555,8.3382,-8.27067
574,-531,8.36157,8.06311,0.00448008,0.00277858,-0.00208517,0.00588138,0.00137729,-0.591706,0.00355197,0.0117651,1798,1555,8.3616,-8.06314
581,-531,8.37781,7.84668,0.00607339,0.00390276,-0.00273754,0.00793291,0.00204324,-0.596674,0.00475614,0.0106549,1805,1555,8.3778,-7.84666
588,-531,8.39636,7.60791,0.00817618,0.00518157,-0.00355634,0.0105376,0.00282019,-0.586149,0.00629905,0.0139501,1812,1555,8.39635,-7.60797
595,-531,8.37219,7.34143,0.0107749,0.00689238,-0.00463171,0.0138557,0.00381158,-0.586956,0.00826497,0.0304207,1819,1555,8.37217,-7.34142
602,-531,8.5354,6.94116,0.0140127,0.00904586,-0.00592935,0.0179577,0.00510085,-0.587081,0.0106853,0.0476316,1826,1555,8.5354,-6.94118
609,-531,9.29285,6.66711,0,0,0,0,0,0,0,-1,1833,1555,9.29289,-6.66717
616,-531,8.48242,6.80505,0,0,0,0,0,0,0,-1,1840,1555,8.48236,-6.80504
623,-531,10.0674,5.08984,0,0,0,0,0,0,0,-1,1847,1555,10.0674,-5.08981
630,-531,11.672,3.18909,0,0,0,0,0,0,0,-1,1854,1555,11.672,-3.18904
637,-531,13.2546,1.38965,0,0,0,0,0,0,0,-1,1861,1555,13.2547,-1.3896
644,-531,0,0,0,0,0,0,0,0,0,-1,1868,1555,0,0
651,-531,0,0,0,0,0,0,0,0,0,-1,1875,1555,0,0
658,-531,0,0,0,0,0,0,0,0,0,-1,1882,1555,0,0
665,-531,0,0,0,0,0,0,0,0,0,-1,1889,1555,0,0
672,-531,0,0,0,0,0,0,0,0,0,-1,1896,1555,0,0
679,-531,0,0,0,0,0,0,0,0,0,-1,1903,1555,0,0
686,-531,0,0,0,0,0,0,0,0,0,-1,1910,1555,0,0
693,-531,0,0,0,0,0,0,0,0,0,-1,1917,1555,0,0
700,-531,0,0,0,0,0,0,0,0,0,-1,1924,1555,0,0
707,-531,0,0,0,0,0,0,0,0,0,-1,1931,1555,0,0
714,-531,0,0,0,0,0,0,0,0,0,-1,1938,1555,0,0
721,-531,0,0,0,0,0,0,0,0,0,-1,1945,1555,0,0
728,-531,0,0,0,0,0,0,0,0,0,-1,1952,1555,0,0
735,-531,0,0,0,0,0,0,0,0,0,-1,1959,1555,0,0
742,-531,0,0,0,0,0,0,0,0,0,-1,1966,1555,0,0
749,-531,0,0,0,0,0,0,0,0,0,-1,1973,1555,0,0
756,-531,0,0,0,0,0,0,0,0,0,-1,1980,1555,0,0
763,-531,0,0,0,0,0,0,0,0,0,-1,1987,1555,0,0
770,-531,0,0,0,0,0,0,0,0,0,-1,1994,1555,0,0
777,-531,0,0,0,0,0,0,0,0,0,-1,2001,1555,0,0
784,-531,0,0,0,0,0,0,0,0,0,-1,2008,1555,0,0
791,-531,0,0,0,0,0,0,0,0,0,-1,2015,1555,0,0
798,-531,0,0,0,0,0,0,0,0,0,-1,2022,1555,0,0
805,-531,0,0,0,0,0,0,0,0,0,-1,2029,1555,0,0
812,-531,0,0,0,0,0,0,0,0,0,-1,2036,1555,0,0
-700,-538,0,0,0,0,0,0,0,0,0,-1,524,1562,0,0
-693,-538,0,0,0,0,0,0,0,0,0,-1,531,1562,0,0
-686,-538,0,0,0,0,0,0,0,0,0,-1,538,1562,0,0
-679,-538,0,0,0,0,0,0,0,0,0,-1,545,1562,0,0
-672,-538,0,0,0,0,0,0,0,0,0,-1,552,1562,0,0
-665,-538,0,0,0,0,0,0,0,0,0,-1,559,1562,0,0
-658,-538,0,0,0,0,0,0,0,0,0,-1,566,1562,0,0
-651,-538,0,0,0,0,0,0,0,0,0,-1,573,1562,0,0
-644,-538,0,0,0,0,0,0,0,0,0,-1,580,1562,0,0
-637,-538,0,0,0,0,0,0,0,0,0,-1,587,1562,0,0
-630,-538,0,0,0,0,0,0,0,0,0,-1,594,1562,0,0
-623,-538,0,0,0,0,0,0,0,0,0,-1,601,1562,0,0
-616,-538,0,0,0,0,0,0,0,0,0,-1,608,1562,0,0
-609,-538,0,0,0,0,0,0,0,0,0,-1,615,1562,0,0
-602,-538,0,0,0,0,0,0,0,0,0,-1,622,1562,0,0
-595,-538,0,0,0,0,0,0,0,0,0,-1,629,1562,0,0
-588,-538,0,0,0,0,0,0,0,0,0,-1,636,1562,0,0
-581,-538,0,0,0,0,0,0,0,0,0,-1,643,1562,0,0
-574,-538,0,0,0,0,0,0,0,0,0,-1,650,1562,0,0
-567,-538,0,0,0,0,0,0,0,0,0,-1,657,1562,0,0
-560,-538,0,0,0,0,0,0,0,0,0,-1,664,1562,0,0
-553,-538,0,0,0,0,0,0,0,0,0,-1,671,1562,0,0
-546,-538,0,0,0,0,0,0,0,0,0,-1,678,1562,0,0
-539,-538,0,0,0,0,0,0,0,0,0,-1,685,1562,0,0
-532,-538,0,0,0,0,0,0,0,0,0,-1,692,1562,0,0
-525,-538,0,0,0,0,0,0,0,0,0,-1,699,1562,0,0
-518,-538,0,0,0,0,0,0,0,0,0,-1,706,1562,0,0
-511,-538,-2.6582,-1.54321,0,0,0,0,0,0,0,-1,713,1562,-2.65821,1.54327
-504,-538,-2.66455,-0.71167,0,0,0,0,0,0,0,-1,720,1562,-2.66456,0.711667
-497,-538,-2.42926,-0.0274658,0,0,0,0,0,0,0,-1,727,1562,-2.42927,0.0274374
-490,-538,-1.71661,5.15625,0,0,0,0,0,0,0,-1,734,1562,-1.71663,-5.1562
-483,-538,-0.3703,4.68811,0,0,0,0,0,0,0,-1,741,1562,-0.37028,-4.68811
-476,-538,-0.373108,5.1499,0.0277141,0.0256713,0.0163476,0.0430721,0.0103132,0.754199,0.0259689,0.046174,748,1562,-0.373117,-5.14993
-469,-538,-0.29895,5.39404,0,0,0,0,0,0,0,-1,755,1562,-0.298931,-5.39399
-462,-538,-0.170654,5.83057,0.0154707,0.0216494,0.0103612,0.029372,0.00774806,0.930284,0.0175774,0.0463226,762,1562,-0.170648,-5.8306
-455,-538,0.191101,6.15759,0.010954,0.0190488,0.00835228,0.0242827,0.00572015,1.01102,0.0146586,0.0394359,769,1562,0.19112,-6.15761
-448,-538,0.246826,6.39343,0.00763556,0.0163263,0.00653727,0.0198306,0.00413121,1.07872,0.0120811,0.0156715,776,1562,0.246798,-6.39349
-441,-538,0.2276,6.60803,0.00539377,0.0135735,0.00502298,0.0159611,0.0030062,1.12708,0.00979369,0.0145259,783,1562,0.227572,-6.60797
-434,-538,0.215454,6.79663,0.00343341,0.0109026,0.00361623,0.0123665,0.00196952,1.18615,0.00767255,0.011787,790,1562,0.21548,-6.79668
-427,-538,0.211731,7.01135,0.00219122,0.00872932,0.00267741,0.00968581,0.00123472,1.22768,0.00608752,0.0127542,797,1562,0.211701,-7.01132
-420,-538,0.187134,7.21912,0.00132458,0.0065472,0.00207655,0.00727221,0.000599576,1.23489,0.00466115,0.0165507,804,1562,0.18715,-7.21911
-413,-538,0.172729,7.4342,0.000947894,0.004709,0.00143648,0.00519487,0.000462022,1.24464,0.00331997,0.0173858,811,1562,0.172737,-7.43425
-406,-538,0.193909,7.61914,0.000557251,0.00285099,0.000877701,0.0031483,0.000259936,1.24419,0.00201781,0.0136117,818,1562,0.193886,-7.61918
-399,-538,0.204163,7.83313,0.000449248,0.00144178,0.000354,0.0015551,0.000335927,1.26099,0.000944875,0.0130084,825,1562,0.204133,-7.83314
-392,-538,0.202332,8.04785,0.000607991,-2.62294e-05,-0.000245414,0.000691863,-0.000110102,-0.329314,0.000501984,0.0143901,832,1562,0.202349,-8.0479
-385,-538,0.188782,8.28101,0.00079378,-0.00106386,-0.000786846,0.00108227,-0.00135234,-0.351418,0.0014085,0.0122649,839,1562,0.188783,-8.28101
-378,-538,0.196411,8.50623,0.000531141,-0.00235652,-0.00123826,0.0009894,-0.00281478,-0.354452,0.00227907,0.009715,846,1562,0.196389,-8.50619
-371,-538,0.180176,8.70715,-9.68937e-05,-0.0029209,-0.00186157,0.000827596,-0.00384539,-0.460939,0.00287938,0.0104437,853,1562,0.180187,-8.70717
-364,-538,0.198181,8.91528,-0.000624176,-0.0036392,-0.0024591,0.000752716,-0.00501609,-0.510424,0.00362114,0.010587,860,1562,0.198186,-8.91531
-357,-538,0.208496,9.10168,-0.00138368,-0.0043037,-0.00317771,0.000653379,-0.00634076,-0.570055,0.00446094,0.0194815,867,1562,0.208512,-9.10163
-350,-538,0.144714,9.22571,-0.0025308,-0.00515798,-0.00385208,0.000225502,-0.00791429,-0.621077,0.00535294,0.0312756,874,1562,0.144689,-9.22571
-343,-538,0.151978,9.52148,-0.00353275,-0.00532455,-0.0041015,-0.000230442,-0.00862686,-0.677871,0.00567599,0.0416803,881,1562,0.151992,-9.52154
-336,-538,0.3526,9.68909,-0.00440367,-0.00497384,-0.0039199,-0.000758502,-0.008619,-0.749098,0.00551059,0.0448677,888,1562,0.352612,-9.68905
-329,-538,0.179504,9.57703,-0.00569486,-0.00468396,-0.00365186,-0.00150274,-0.00887608,-0.854165,0.00548552,0.0438308,895,1562,0.179512,-9.57704
-322,-538,-0.0548096,9.61047,-0.00688793,-0.00395309,-0.00278025,-0.00227677,-0.00856426,-1.02822,0.00512212,0.0440603,902,1562,-0.0548176,-9.61049
-315,-538,-0.298889,9.64917,0,0,0,0,0,0,0,-1,909,1562,-0.298875,-9.64912
-308,-538,3.19946,11.1858,0,0,0,0,0,0,0,-1,916,1562,3.19945,-11.1858
-301,-538,3.24329,11.8254,0,0,0,0,0,0,0,-1,923,1562,3.24329,-11.8255
-294,-538,3.27472,12.504,0,0,0,0,0,0,0,-1,930,1562,3.27473,-12.504
-287,-538,0.191833,10.5402,0,0,0,0,0,0,0,-1,937,1562,0.19184,-10.5402
-280,-538,-4.0293,11.8911,0,0,0,0,0,0,0,-1,944,1562,-4.02932,-11.8911
-273,-538,-4.85803,13.4651,0,0,0,0,0,0,0,-1,951,1562,-4.85802,-13.4651
-266,-538,-5.69073,14.9116,0,0,0,0,0,0,0,-1,958,1562,-5.69073,-14.9116
-259,-538,-6.21277,16.2444,0,0,0,0,0,0,0,-1,965,1562,-6.21275,-16.2444
-252,-538,0,0,0,0,0,0,0,0,0,-1,972,1562,0,0
-245,-538,0,0,0,0,0,0,0,0,0,-1,979,1562,0,0
-238,-538,0,0,0,0,0,0,0,0,0,-1,986,1562,0,0
-231,-538,0,0,0,0,0,0,0,0,0,-1,993,1562,0,0
-224,-538,0,0,0,0,0,0,0,0,0,-1,1000,1562,0,0
-217,-538,0,0,0,0,0,0,0,0,0,-1,1007,1562,0,0
-210,-538,0,0,0,0,0,0,0,0,0,-1,1014,1562,0,0
-203,-538,0,0,0,0,0,0,0,0,0,-1,1021,1562,0,0
-196,-538,0,0,0,0,0,0,0,0,0,-1,1028,1562,0,0
-189,-538,0,0,0,0,0,0,0,0,0,-1,1035,1562,0,0
-182,-538,0,0,0,0,0,0,0,0,0,-1,1042,1562,0,0
-175,-538,0,0,0,0,0,0,0,0,0,-1,1049,1562,0,0
-168,-538,0,0,0,0,0,0,0,0,0,-1,1056,1562,0,0
-161,-538,0,0,0,0,0,0,0,0,0,-1,1063,1562,0,0
-154,-538,0,0,0,0,0,0,0,0,0,-1,1070,1562,0,0
-147,-538,0,0,0,0,0,0,0,0,0,-1,1077,1562,0,0
-140,-538,0,0,0,0,0,0,0,0,0,-1,1084,1562,0,0
-133,-538,0,0,0,0,0,0,0,0,0,-1,1091,1562,0,0
-126,-538,0,0,0,0,0,0,0,0,0,-1,1098,1562,0,0
-119,-538,0,0,0,0,0,0,0,0,0,-1,1105,1562,0,0
-112,-538,0,0,0,0,0,0,0,0,0,-1,1112,1562,0,0
-105,-538,0,0,0,0,0,0,0,0,0,-1,1119,1562,0,0
-98,-538,0,0,0,0,0,0,0,0,0,-1,1126,1562,0,0
-91,-538,0,0,0,0,0,0,0,0,0,-1,1133,1562,0,0
-84,-538,0,0,0,0,0,0,0,0,0,-1,1140,1562,0,0
-77,-538,0,0,0,0,0,0,0,0,0,-1,1147,1562,0,0
-70,-538,0,0,0,0,0,0,0,0,0,-1,1154,1562,0,0
-63,-538,0,0,0,0,0,0,0,0,0,-1,1161,1562,0,0
-56,-538,0,0,0,0,0,0,0,0,0,-1,1168,1562,0,0
-49,-538,0,0,0,0,0,0,0,0,0,-1,1175,1562,0,0
-42,-538,0,0,0,0,0,0,0,0,0,-1,1182,1562,0,0
-35,-538,0,0,0,0,0,0,0,0,0,-1,1189,1562,0,0
-28,-538,0,0,0,0,0,0,0,0,0,-1,1196,1562,0,0
-21,-538,0,0,0,0,0,0,0,0,0,-1,1203,1562,0,0
-14,-538,0,0,0,0,0,0,0,0,0,-1,1210,1562,0,0
-7,-538,0,0,0,0,0,0,0,0,0,-1,1217,1562,0,0
0,-538,0,0,0,0,0,0,0,0,0,-1,1224,1562,0,0
7,-538,0,0,0,0,0,0,0,0,0,-1,1231,1562,0,0
14,-538,0,0,0,0,0,0,0,0,0,-1,1238,1562,0,0
21,-538,0,0,0,0,0,0,0,0,0,-1,1245,1562,0,0
28,-538,0,0,0,0,0,0,0,0,0,-1,1252,1562,0,0
35,-538,0,0,0,0,0,0,0,0,0,-1,1259,1562,0,0
42,-538,0,0,0,0,0,0,0,0,0,-1,1266,1562,0,0
49,-538,0,0,0,0,0,0,0,0,0,-1,1273,1562,0,0
56,-538,0,0,0,0,0,0,0,0,0,-1,1280,1562,0,0
63,-538,0,0,0,0,0,0,0,0,0,-1,1287,1562,0,0
70,-538,0,0,0,0,0,0,0,0,0,-1,1294,1562,0,0
77,-538,0,0,0,0,0,0,0,0,0,-1,1301,1562,0,0
84,-538,0,0,0,0,0,0,0,0,0,-1,1308,1562,0,0
91,-538,0,0,0,0,0,0,0,0,0,-1,1315,1562,0,0
98,-538,0,0,0,0,0,0,0,0,0,-1,1322,1562,0,0
105,-538,0,0,0,0,0,0,0,0,0,-1,1329,1562,0,0
112,-538,0,0,0,0,0,0,0,0,0,-1,1336,1562,0,0
119,-538,0,0,0,0,0,0,0,0,0,-1,1343,1562,0,0
126,-538,0,0,0,0,0,0,0,0,0,-1,1350,1562,0,0
133,-538,0,0,0,0,0,0,0,0,0,-1,1357,1562,0,0
140,-538,0,0,0,0,0,0,0,0,0,-1,1364,1562,0,0
147,-538,0,0,0,0,0,0,0,0,0,-1,1371,1562,0,0
154,-538,0,0,0,0,0,0,0,0,0,-1,1378,1562,0,0
161,-538,0,0,0,0,0,0,0,0,0,-1,1385,1562,0,0
168,-538,0,0,0,0,0,0,0,0,0,-1,1392,1562,0,0
175,-538,0,0,0,0,0,0,0,0,0,-1,1399,1562,0,0
182,-538,0,0,0,0,0,0,0,0,0,-1,1406,1562,0,0
189,-538,0,0,0,0,0,0,0,0,0,-1,1413,1562,0,0
196,-538,0,0,0,0,0,0,0,0,0,-1,1420,1562,0,0
203,-538,0,0,0,0,0,0,0,0,0,-1,1427,1562,0,0
210,-538,0,0,0,0,0,0,0,0,0,-1,1434,1562,0,0
217,-538,0,0,0,0,0,0,0,0,0,-1,1441,1562,0,0
224,-538,0,0,0,0,0,0,0,0,0,-1,1448,1562,0,0
231,-538,0,0,0,0,0,0,0,0,0,-1,1455,1562,0,0
238,-538,0,0,0,0,0,0,0,0,0,-1,1462,1562,0,0
245,-538,0,0,0,0,0,0,0,0,0,-1,1469,1562,0,0
252,-538,0,0,0,0,0,0,0,0,0,-1,1476,1562,0,0
259,-538,0,0,0,0,0,0,0,0,0,-1,1483,1562,0,0
266,-538,0,0,0,0,0,0,0,0,0,-1,1490,1562,0,0
273,-538,0,0,0,0,0,0,0,0,0,-1,1497,1562,0,0
280,-538,0,0,0,0,0,0,0,0,0,-1,1504,1562,0,0
287,-538,0,0,0,0,0,0,0,0,0,-1,1511,1562,0,0
294,-538,0,0,0,0,0,0,0,0,0,-1,1518,1562,0,0
301,-538,0,0,0,0,0,0,0,0,0,-1,1525,1562,0,0
308,-538,0,0,0,0,0,0,0,0,0,-1,1532,1562,0,0
315,-538,0,0,0,0,0,0,0,0,0,-1,1539,1562,0,0
322,-538,0,0,0,0,0,0,0,0,0,-1,1546,1562,0,0
329,-538,0,0,0,0,0,0,0,0,0,-1,1553,1562,0,0
336,-538,0,0,0,0,0,0,0,0,0,-1,1560,1562,0,0
343,-538,0,0,0,0,0,0,0,0,0,-1,1567,1562,0,0
350,-538,0,0,0,0,0,0,0,0,0,-1,1574,1562,0,0
357,-538,0,0,0,0,0,0,0,0,0,-1,1581,1562,0,0
364,-538,0,0,0,0,0,0,0,0,0,-1,1588,1562,0,0
371,-538,0,0,0,0,0,0,0,0,0,-1,1595,1562,0,0
378,-538,7.65637,4.13477,0,0,0,0,0,0,0,-1,1602,1562,7.65643,-4.13477
385,-538,8.69836,7.6283,0,0,0,0,0,0,0,-1,1609,1562,8.69835,-7.62829
392,-538,8.20361,7.07214,0,0,0,0,0,0,0,-1,1616,1562,8.20362,-7.07211
399,-538,7.85425,4.70508,0,0,0,0,0,0,0,-1,1623,1562,7.85425,-4.70512
406,-538,7.77734,4.96094,0,0,0,0,0,0,0,-1,1630,1562,7.77729,-4.96097
413,-538,13.0446,13.1765,0,0,0,0,0,0,0,-1,1637,1562,13.0446,-13.1765
420,-538,8.45642,8.08704,0,0,0,0,0,0,0,-1,1644,1562,8.45636,-8.08707
427,-538,8.83948,14.4047,0,0,0,0,0,0,0,-1,1651,1562,8.83953,-14.4046
434,-538,9.2345,13.2823,0,0,0,0,0,0,0,-1,1658,1562,9.23449,-13.2824
441,-538,9.48242,12.379,0,0,0,0,0,0,0,-1,1665,1562,9.48237,-12.379
448,-538,9.46716,11.3822,0,0,0,0,0,0,0,-1,1672,1562,9.46719,-11.3821
455,-538,7.69812,9.05994,0,0,0,0,0,0,0,-1,1679,1562,7.6981,-9.05993
462,-538,10.7123,9.03003,-0.0567807,-0.0846552,0.0562395,-0.0127772,-0.128659,0.663936,0.0818465,0.0435909,1686,1562,10.7123,-9.03001
469,-538,9.90869,9.70825,0,0,0,0,0,0,0,-1,1693,1562,9.90872,-9.70823
476,-538,9.05042,10.1014,-0.0403819,-0.0588756,0.0435245,-0.00513286,-0.0941246,0.680728,0.0611107,0.0416777,1700,1562,9.05044,-10.1015
483,-538,8.34656,10.3596,-0.0329085,-0.0474176,0.0369155,-0.00254153,-0.0777846,0.688376,0.0510303,0.0274154,1707,1562,8.34656,-10.3596
490,-538,8.224,10.2714,-0.0264308,-0.0375205,0.0306727,-0.000805793,-0.0631456,0.695976,0.041831,0.0124996,1714,1562,8.22395,-10.2714
497,-538,8.18896,10.1101,-0.0209927,-0.0291986,0.0249088,0.00014884,-0.0503401,0.703773,0.0336098,0.0100784,1721,1562,8.18893,-10.1101
504,-538,8.18127,9.9303,-0.0164366,-0.0222562,0.0198508,0.000716489,-0.0394093,0.712624,0.0265149,0.0096882,1728,1562,8.18133,-9.93026
511,-538,8.17786,9.74219,-0.0120658,-0.0158652,0.0151459,0.00129906,-0.02923,0.72301,0.0199338,0.00973528,1735,1562,8.17786,-9.74214
518,-538,8.16113,9.56238,-0.0083442,-0.0106041,0.0104408,0.00102764,-0.0199759,0.731496,0.0136727,0.010401,1742,1562,8.16118,-9.5624
525,-538,8.15283,9.37231,-0.00582163,-0.00745364,0.00717206,0.000580701,-0.013856,0.728754,0.00943684,0.0110461,1749,1562,8.15285,-9.37228
532,-538,8.18555,9.20313,-0.00330715,-0.00456891,0.00431675,0.000424578,-0.00830064,0.712839,0.00568058,0.0123272,1756,1562,8.1856,-9.20312
539,-538,8.18994,9.03748,-0.00147464,-0.00243992,0.00231347,0.000406006,-0.00432056,0.682563,0.0030248,0.014799,1763,1562,8.19,-9.03752
546,-538,8.18115,8.83118,-0.000124337,-0.000770222,0.000689662,0.000314249,-0.00120881,0.56643,0.00092852,0.0166764,1770,1562,8.18114,-8.83114
553,-538,8.1792,8.61194,0.00143272,0.000447874,-0.000454444,0.00161037,0.000270222,-0.372654,0.000995804,0.0259034,1777,1562,8.17924,-8.61188
560,-538,8.1582,8.46362,0.00313144,0.00165049,-0.00131724,0.00390207,0.000879866,-0.52934,0.00236333,0.0258782,1784,1562,8.15819,-8.46365
567,-538,8.14978,8.2699,0.00418018,0.00232795,-0.00201675,0.0054733,0.00103483,-0.570155,0.00335751,0.018559,1791,1562,8.14982,-8.26989
574,-538,8.17224,8.05798,0.0054291,0.00313182,-0.00264357,0.00716279,0.00139812,-0.580452,0.00438411,0.012006,1798,1562,8.1722,-8.05802
581,-538,8.18982,7.83435,0.00717825,0.00427805,-0.00330569,0.00933791,0.00211838,-0.578703,0.00565304,0.0139539,1805,1562,8.18983,-7.83438
588,-538,8.18677,7.64172,0.00952266,0.00577605,-0.00426112,0.0123041,0.00299463,-0.578301,0.00740906,0.0298373,1812,1562,8.18682,-7.64172
595,-538,8.17749,7.39624,0.0124739,0.00785599,-0.00548755,0.0161185,0.00421141,-0.586261,0.00965308,0.0459829,1819,1562,8.17752,-7.39621
602,-538,8.35266,6.74927,0,0,0,0,0,0,0,-1,1826,1562,8.35261,-6.74931
609,-538,8.33191,7.06824,0,0,0,0,0,0,0,-1,1833,1562,8.33192,-7.0682
616,-538,9.92249,5.43506,0,0,0,0,0,0,0,-1,1840,1562,9.92254,-5.43507
623,-538,11.1711,4.31604,0,0,0,0,0,0,0,-1,1847,1562,11.1711,-4.316
630,-538,12.6112,2.61633,0,0,0,0,0,0,0,-1,1854,1562,12.6112,-2.61637
637,-538,0,0,0,0,0,0,0,0,0,-1,1861,1562,0,0
644,-538,0,0,0,0,0,0,0,0,0,-1,1868,1562,0,0
651,-538,0,0,0,0,0,0,0,0,0,-1,1875,1562,0,0
658,-538,0,0,0,0,0,0,0,0,0,-1,1882,1562,0,0
665,-538,0,0,0,0,0,0,0,0,0,-1,1889,1562,0,0
672,-538,0,0,0,0,0,0,0,0,0,-1,1896,1562,0,0
679,-538,0,0,0,0,0,0,0,0,0,-1,1903,1562,0,0
686,-538,0,0,0,0,0,0,0,0,0,-1,1910,1562,0,0
693,-538,0,0,0,0,0,0,0,0,0,-1,1917,1562,0,0
700,-538,0,0,0,0,0,0,0,0,0,-1,1924,1562,0,0
707,-538,0,0,0,0,0,0,0,0,0,-1,1931,1562,0,0
714,-538,0,0,0,0,0,0,0,0,0,-1,1938,1562,0,0
721,-538,0,0,0,0,0,0,0,0,0,-1,1945,1562,0,0
728,-538,0,0,0,0,0,0,0,0,0,-1,1952,1562,0,0
735,-538,0,0,0,0,0,0,0,0,0,-1,1959,1562,0,0
742,-538,0,0,0,0,0,0,0,0,0,-1,1966,1562,0,0
749,-538,0,0,0,0,0,0,0,0,0,-1,1973,1562,0,0
756,-538,0,0,0,0,0,0,0,0,0,-1,1980,1562,0,0
763,-538,0,0,0,0,0,0,0,0,0,-1,1987,1562,0,0
770,-538,0,0,0,0,0,0,0,0,0,-1,1994,1562,0,0
777,-538,0,0,0,0,0,0,0,0,0,-1,2001,1562,0,0
784,-538,0,0,0,0,0,0,0,0,0,-1,2008,1562,0,0
791,-538,0,0,0,0,0,0,0,0,0,-1,2015,1562,0,0
798,-538,0,0,0,0,0,0,0,0,0,-1,2022,1562,0,0
805,-538,0,0,0,0,0,0,0,0,0,-1,2029,1562,0,0
812,-538,0,0,0,0,0,0,0,0,0,-1,2036,1562,0,0
-700,-545,0,0,0,0,0,0,0,0,0,-1,524,1569,0,0
-693,-545,0,0,0,0,0,0,0,0,0,-1,531,1569,0,0
-686,-545,0,0,0,0,0,0,0,0,0,-1,538,1569,0,0
-679,-545,0,0,0,0,0,0,0,0,0,-1,545,1569,0,0
-672,-545,0,0,0,0,0,0,0,0,0,-1,552,1569,0,0
-665,-545,0,0,0,0,0,0,0,0,0,-1,559,1569,0,0
-658,-545,0,0,0,0,0,0,0,0,0,-1,566,1569,0,0
-651,-545,0,0,0,0,0,0,0,0,0,-1,573,1569,0,0
-644,-545,0,0,0,0,0,0,0,0,0,-1,580,1569,0,0
-637,-545,0,0,0,0,0,0,0,0,0,-1,587,1569,0,0
-630,-545,0,0,0,0,0,0,0,0,0,-1,594,1569,0,0
-623,-545,0,0,0,0,0,0,0,0,0,-1,601,1569,0,0
-616,-545,0,0,0,0,0,0,0,0,0,-1,608,1569,0,0
-609,-545,0,0,0,0,0,0,0,0,0,-1,615,1569,0,0
-602,-545,0,0,0,0,0,0,0,0,0,-1,622,1569,0,0
-595,-545,0,0,0,0,0,0,0,0,0,-1,629,1569,0,0
-588,-545,0,0,0,0,0,0,0,0,0,-1,636,1569,0,0
-581,-545,0,0,0,0,0,0,0,0,0,-1,643,1569,0,0
-574,-545,0,0,0,0,0,0,0,0,0,-1,650,1569,0,0
-567,-545,0,0,0,0,0,0,0,0,0,-1,657,1569,0,0
-560,-545,0,0,0,0,0,0,0,0,0,-1,664,1569,0,0
-553,-545,0,0,0,0,0,0,0,0,0,-1,671,1569,0,0
-546,-545,0,0,0,0,0,0,0,0,0,-1,678,1569,0,0
-539,-545,0,0,0,0,0,0,0,0,0,-1,685,1569,0,0
-532,-545,0,0,0,0,0,0,0,0,0,-1,692,1569,0,0
-525,-545,0,0,0,0,0,0,0,0,0,-1,699,1569,0,0
-518,-545,0,0,0,0,0,0,0,0,0,-1,706,1569,0,0
-511,-545,0,0,0,0,0,0,0,0,0,-1,713,1569,0,0
-504,-545,-3.55237,-2.5354,0,0,0,0,0,0,0,-1,720,1569,-3.55236,2.53545
-497,-545,0.119141,5.68481,0,0,0,0,0,0,0,-1,727,1569,0.119132,-5.68483
-490,-545,-0.0490723,6.61426,0,0,0,0,0,0,0,-1,734,1569,-0.0490696,-6.61429
-483,-545,-0.0852661,6.48425,0,0,0,0,0,0,0,-1,741,1569,-0.0852697,-6.4842
-476,-545,0.0141602,4.72571,0,0,0,0,0,0,0,-1,748,1569,0.0141305,-4.72574
-469,-545,0.112122,4.5675,0,0,0,0,0,0,0,-1,755,1569,0.112101,-4.56749
-462,-545,0.219971,5.18848,0,0,0,0,0,0,0,-1,762,1569,0.219992,-5.1885
-455,-545,0.378235,6.08362,0,0,0,0,0,0,0,-1,769,1569,0.37822,-6.08366
-448,-545,0.580261,6.10962,0.00907874,0.022412,0.00886995,0.0268413,0.00464942,1.10766,0.0165634,0.0290546,776,1569,0.580235,-6.10956
-441,-545,0.464233,6.59839,0.00615606,0.01847,0.00685116,0.0215243,0.0031018,1.15144,0.0134355,0.0185948,783,1569,0.464211,-6.59839
-434,-545,0.397034,6.7948,0.00378693,0.0147103,0.00499764,0.0166517,0.00184547,1.20026,0.01054,0.0146289,790,1569,0.397017,-6.79477
-427,-545,0.390442,7.02295,0.00230561,0.0116417,0.00373996,0.0129551,0.000992187,1.23306,0.00832572,0.0156479,797,1569,0.390466,-7.02295
-420,-545,0.400269,7.21753,0.00130563,0.0087216,0.00291195,0.00972833,0.000298897,1.23793,0.00638825,0.0226224,804,1569,0.400263,-7.21753
-413,-545,0.401733,7.41003,0.000911469,0.00642802,0.00207603,0.00712199,0.0002175,1.2482,0.00467718,0.023303,811,1569,0.401731,-7.40998
-406,-545,0.411804,7.61243,0.000507205,0.00425313,0.00136182,0.00469588,6.44536e-05,1.25646,0.00310933,0.0173641,818,1569,0.411827,-7.61245
-399,-545,0.420654,7.81665,0.000442677,0.00260581,0.000746109,0.00283819,0.000210293,1.26886,0.00182607,0.0112866,825,1569,0.420677,-7.81662
-392,-545,0.415161,8.03833,0.000641141,0.000872678,6.96124e-05,0.000891996,0.000621823,1.30011,0.000528165,0.0110667,832,1569,0.415189,-8.03835
-385,-545,0.421326,8.28101,0.000850294,-0.000329999,-0.000510032,0.00104015,-0.000519857,-0.356353,0.000917217,0.00969021,839,1569,0.421347,-8.28102
-378,-545,0.404358,8.49353,0.000712236,-0.00155123,-0.000944221,0.0010544,-0.0018934,-0.347658,0.00172474,0.0115579,846,1569,0.404371,-8.49348
-371,-545,0.391724,8.71399,0.000273526,-0.00215895,-0.00150572,0.000992859,-0.00287828,-0.445676,0.00232169,0.0149657,853,1569,0.391729,-8.71396
-364,-545,0.402588,8.88818,-7.33266e-05,-0.00282973,-0.00204247,0.00101243,-0.00391549,-0.488601,0.0030052,0.00974033,860,1569,0.402614,-8.8882
-357,-545,0.436279,9.11597,-0.000558327,-0.00339353,-0.0026981,0.00107192,-0.00502378,-0.543515,0.0037578,0.0104292,867,1569,0.436256,-9.11592
-350,-545,0.450684,9.31018,-0.00135689,-0.00417259,-0.00332571,0.000846684,-0.00637616,-0.585174,0.00455928,0.0143322,874,1569,0.450671,-9.31024
-343,-545,0.451416,9.46484,-0.00197032,-0.00437154,-0.00348222,0.000512456,-0.00685431,-0.619388,0.00474959,0.0229052,881,1569,0.451389,-9.46489
-336,-545,0.46582,9.65247,-0.0024382,-0.00395546,-0.00328093,0.000170665,-0.00656432,-0.671783,0.00443419,0.0322393,888,1569,0.465799,-9.65247
-329,-545,0.425903,9.65576,-0.00311539,-0.003649,-0.00306756,-0.00030305,-0.00646134,-0.74202,0.00421018,0.0407606,895,1569,0.425877,-9.6557
-322,-545,0.48938,9.56958,-0.0036136,-0.00302921,-0.00236869,-0.000934758,-0.00570806,-0.846767,0.00353522,0.0469082,902,1569,0.4894,-9.56956
-315,-545,0.573242,9.49609,0,0,0,0,0,0,0,-1,909,1569,0.573215,-9.49614
-308,-545,2.17578,11.0507,0,0,0,0,0,0,0,-1,916,1569,2.17581,-11.0507
-301,-545,1.38806,10.6354,0,0,0,0,0,0,0,-1,923,1569,1.38804,-10.6354
-294,-545,2.03351,11.5187,0,0,0,0,0,0,0,-1,930,1569,2.03348,-11.5187
-287,-545,1.12524,8.00647,0,0,0,0,0,0,0,-1,937,1569,1.12522,-8.00647
-280,-545,0.226746,10.4198,0,0,0,0,0,0,0,-1,944,1569,0.226742,-10.4198
-273,-545,-4.10596,12.3789,0,0,0,0,0,0,0,-1,951,1569,-4.10598,-12.3789
-266,-545,-5.10779,14.1372,0,0,0,0,0,0,0,-1,958,1569,-5.10778,-14.1372
-259,-545,-3.98706,7.8916,0,0,0,0,0,0,0,-1,965,1569,-3.98704,-7.89159
-252,-545,-4.75641,8.30005,0,0,0,0,0,0,0,-1,972,1569,-4.75641,-8.3001
-245,-545,0.484619,5.7207,0,0,0,0,0,0,0,-1,979,1569,0.484599,-5.72068
-238,-545,0,0,0,0,0,0,0,0,0,-1,986,1569,0,0
-231,-545,0,0,0,0,0,0,0,0,0,-1,993,1569,0,0
-224,-545,0,0,0,0,0,0,0,0,0,-1,1000,1569,0,0
-217,-545,0,0,0,0,0,0,0,0,0,-1,1007,1569,0,0
-210,-545,0,0,0,0,0,0,0,0,0,-1,1014,1569,0,0
-203,-545,0,0,0,0,0,0,0,0,0,-1,1021,1569,0,0
-196,-545,0,0,0,0,0,0,0,0,0,-1,1028,1569,0,0
-189,-545,0,0,0,0,0,0,0,0,0,-1,1035,1569,0,0
-182,-545,0,0,0,0,0,0,0,0,0,-1,1042,1569,0,0
-175,-545,0,0,0,0,0,0,0,0,0,-1,1049,1569,0,0
-168,-545,0,0,0,0,0,0,0,0,0,-1,1056,1569,0,0
-161,-545,0,0,0,0,0,0,0,0,0,-1,1063,1569,0,0
-154,-545,0,0,0,0,0,0,0,0,0,-1,1070,1569,0,0
-147,-545,0,0,0,0,0,0,0,0,0,-1,1077,1569,0,0
-140,-545,0,0,0,0,0,0,0,0,0,-1,1084,1569,0,0
-133,-545,0,0,0,0,0,0,0,0,0,-1,1091,1569,0,0
-126,-545,0,0,0,0,0,0,0,0,0,-1,1098,1569,0,0
-119,-545,0,0,0,0,0,0,0,0,0,-1,1105,1569,0,0
-112,-545,0,0,0,0,0,0,0,0,0,-1,1112,1569,0,0
-105,-545,0,0,0,0,0,0,0,0,0,-1,1119,1569,0,0
-98,-545,0,0,0,0,0,0,0,0,0,-1,1126,1569,0,0
-91,-545,0,0,0,0,0,0,0,0,0,-1,1133,1569,0,0
-84,-545,0,0,0,0,0,0,0,0,0,-1,1140,1569,0,0
-77,-545,0,0,0,0,0,0,0,0,0,-1,1147,1569,0,0
-70,-545,0,0,0,0,0,0,0,0,0,-1,1154,1569,0,0
-63,-545,0,0,0,0,0,0,0,0,0,-1,1161,1569,0,0
-56,-545,0,0,0,0,0,0,0,0,0,-1,1168,1569,0,0
-49,-545,0,0,0,0,0,0,0,0,0,-1,1175,1569,0,0
-42,-545,0,0,0,0,0,0,0,0,0,-1,1182,1569,0,0
-35,-545,0,0,0,0,0,0,0,0,0,-1,1189,1569,0,0
-28,-545,0,0,0,0,0,0,0,0,0,-1,1196,1569,0,0
-21,-545,0,0,0,0,0,0,0,0,0,-1,1203,1569,0,0
-14,-545,0,0,0,0,0,0,0,0,0,-1,1210,1569,0,0
-7,-545,0,0,0,0,0,0,0,0,0,-1,1217,1569,0,0
0,-545,0,0,0,0,0,0,0,0,0,-1,1224,1569,0,0
7,-545,0,0,0,0,0,0,0,0,0,-1,1231,1569,0,0
14,-545,0,0,0,0,0,0,0,0,0,-1,1238,1569,0,0
21,-545,0,0,0,0,0,0,0,0,0,-1,1245,1569,0,0
28,-545,0,0,0,0,0,0,0,0,0,-1,1252,1569,0,0
35,-545,0,0,0,0,0,0,0,0,0,-1,1259,1569,0,0
42,-545,0,0,0,0,0,0,0,0,0,-1,1266,1569,0,0
49,-545,0,0,0,0,0,0,0,0,0,-1,1273,1569,0,0
56,-545,0,0,0,0,0,0,0,0,0,-1,1280,1569,0,0
63,-545,0,0,0,0,0,0,0,0,0,-1,1287,1569,0,0
70,-545,0,0,0,0,0,0,0,0,0,-1,1294,1569,0,0
77,-545,0,0,0,0,0,0,0,0,0,-1,1301,1569,0,0
84,-545,0,0,0,0,0,0,0,0,0,-1,1308,1569,0,0
91,-545,0,0,0,0,0,0,0,0,0,-1,1315,1569,0,0
98,-545,0,0,0,0,0,0,0,0,0,-1,1322,1569,0,0
105,-545,0,0,0,0,0,0,0,0,0,-1,1329,1569,0,0
112,-545,0,0,0,0,0,0,0,0,0,-1,1336,1569,0,0
119,-545,0,0,0,0,0,0,0,0,0,-1,1343,1569,0,0
126,-545,0,0,0,0,0,0,0,0,0,-1,1350,1569,0,0
133,-545,0,0,0,0,0,0,0,0,0,-1,1357,1569,0,0
140,-545,0,0,0,0,0,0,0,0,0,-1,1364,1569,0,0
147,-545,0,0,0,0,0,0,0,0,0,-1,1371,1569,0,0
154,-545,0,0,0,0,0,0,0,0,0,-1,1378,1569,0,0
161,-545,0,0,0,0,0,0,0,0,0,-1,1385,1569,0,0
168,-545,0,0,0,0,0,0,0,0,0,-1,1392,1569,0,0
175,-545,0,0,0,0,0,0,0,0,0,-1,1399,1569,0,0
182,-545,0,0,0,0,0,0,0,0,0,-1,1406,1569,0,0
189,-545,0,0,0,0,0,0,0,0,0,-1,1413,1569,0,0
196,-545,0,0,0,0,0,0,0,0,0,-1,1420,1569,0,0
203,-545,0,0,0,0,0,0,0,0,0,-1,1427,1569,0,0
210,-545,0,0,0,0,0,0,0,0,0,-1,1434,1569,0,0
217,-545,0,0,0,0,0,0,0,0,0,-1,1441,1569,0,0
224,-545,0,0,0,0,0,0,0,0,0,-1,1448,1569,0,0
231,-545,0,0,0,0,0,0,0,0,0,-1,1455,1569,0,0
238,-545,0,0,0,0,0,0,0,0,0,-1,1462,1569,0,0
245,-545,0,0,0,0,0,0,0,0,0,-1,1469,1569,0,0
252,-545,0,0,0,0,0,0,0,0,0,-1,1476,1569,0,0
259,-545,0,0,0,0,0,0,0,0,0,-1,1483,1569,0,0
266,-545,0,0,0,0,0,0,0,0,0,-1,1490,1569,0,0
273,-545,0,0,0,0,0,0,0,0,0,-1,1497,1569,0,0
280,-545,0,0,0,0,0,0,0,0,0,-1,1504,1569,0,0
287,-545,0,0,0,0,0,0,0,0,0,-1,1511,1569,0,0
294,-545,0,0,0,0,0,0,0,0,0,-1,1518,1569,0,0
301,-545,0,0,0,0,0,0,0,0,0,-1,1525,1569,0,0
308,-545,0,0,0,0,0,0,0,0,0,-1,1532,1569,0,0
315,-545,0,0,0,0,0,0,0,0,0,-1,1539,1569,0,0
322,-545,0,0,0,0,0,0,0,0,0,-1,1546,1569,0,0
329,-545,0,0,0,0,0,0,0,0,0,-1,1553,1569,0,0
336,-545,0,0,0,0,0,0,0,0,0,-1,1560,1569,0,0
343,-545,0,0,0,0,0,0,0,0,0,-1,1567,1569,0,0
350,-545,0,0,0,0,0,0,0,0,0,-1,1574,1569,0,0
357,-545,0,0,0,0,0,0,0,0,0,-1,1581,1569,0,0
364,-545,5.47632,4.19043,0,0,0,0,0,0,0,-1,1588,1569,5.47628,-4.19048
371,-545,8.38391,6.021,0,0,0,0,0,0,0,-1,1595,1569,8.38394,-6.02096
378,-545,7.24146,4.54224,0,0,0,0,0,0,0,-1,1602,1569,7.24145,-4.54226
385,-545,8.58447,1.16125,0,0,0,0,0,0,0,-1,1609,1569,8.5845,-1.1612
392,-545,12.5654,3.89526,0,0,0,0,0,0,0,-1,1616,1569,12.5655,-3.89532
399,-545,11.5869,5.6333,0,0,0,0,0,0,0,-1,1623,1569,11.5869,-5.63326
406,-545,11.234,6.36414,0,0,0,0,0,0,0,-1,1630,1569,11.234,-6.3641
413,-545,12.1521,13.4817,0,0,0,0,0,0,0,-1,1637,1569,12.1521,-13.4817
420,-545,9.23816,9.77368,0,0,0,0,0,0,0,-1,1644,1569,9.2382,-9.77372
427,-545,9.07825,13.4152,0,0,0,0,0,0,0,-1,1651,1569,9.07829,-13.4152
434,-545,8.88708,12.5974,0,0,0,0,0,0,0,-1,1658,1569,8.88705,-12.5974
441,-545,8.81042,11.9132,0,0,0,0,0,0,0,-1,1665,1569,8.81036,-11.9132
448,-545,7.89539,9.84717,0,0,0,0,0,0,0,-1,1672,1569,7.89533,-9.84719
455,-545,7.63574,9.73889,-0.0492345,-0.0766446,0.0488683,-0.0121859,-0.113693,0.648686,0.0720777,0.0475655,1679,1569,7.63578,-9.73885
462,-545,7.40393,9.68311,-0.0429476,-0.0662296,0.0438592,-0.00921078,-0.0999664,0.65568,0.063796,0.0454707,1686,1569,7.40396,-9.68307
469,-545,8.16797,10.4905,0,0,0,0,0,0,0,-1,1693,1569,8.16793,-10.4905
476,-545,8.10901,10.4799,-0.0308114,-0.0462665,0.0337473,-0.00391822,-0.0731597,0.672847,0.0475209,0.031606,1700,1569,8.10897,-10.4799
483,-545,8.02429,10.47,-0.0250169,-0.03731,0.0285289,-0.00198,-0.060347,0.679295,0.0395878,0.0125506,1707,1569,8.02425,-10.4699
490,-545,8.00146,10.2993,-0.0199185,-0.0294847,0.0236427,-0.000579892,-0.0488233,0.685592,0.0323573,0.0101234,1714,1569,8.00144,-10.2993
497,-545,7.98706,10.1202,-0.0156114,-0.0228044,0.0190992,0.000226911,-0.0386428,0.692334,0.0258378,0.0158148,1721,1569,7.98706,-10.1203
504,-545,8.00903,9.93579,-0.0119734,-0.0171332,0.0151066,0.000771967,-0.0298786,0.700825,0.0201813,0.0151543,1728,1569,8.009,-9.93577
511,-545,8.02136,9.73303,-0.00842808,-0.011789,0.0112876,0.00130347,-0.0215205,0.711504,0.0148006,0.0110775,1735,1569,8.02135,-9.73299
518,-545,8.0011,9.55432,-0.00539982,-0.00741354,0.00742635,0.00108762,-0.013901,0.718019,0.0096503,0.0125659,1742,1569,8.00113,-9.55438
525,-545,7.97827,9.38721,-0.00333226,-0.00478486,0.00475718,0.000753745,-0.00887087,0.709646,0.0061805,0.0124186,1749,1569,7.97821,-9.38716
532,-545,8.00854,9.19409,-0.00129337,-0.00241141,0.0024232,0.000634453,-0.00433923,0.672034,0.00312584,0.0129154,1756,1569,8.00854,-9.19407
539,-545,8.0105,9.01843,0.000166001,-0.000695013,0.000819377,0.000661082,-0.00119009,0.543515,0.00108323,0.0155666,1763,1569,8.0105,-9.01845
546,-545,8.00378,8.82568,0.00132315,0.000499213,-0.000395603,0.00148234,0.000340024,-0.382569,0.000896637,0.0177224,1770,1569,8.00383,-8.82567
553,-545,8.00647,8.60303,0.0026634,0.00152199,-0.00111928,0.00334908,0.000836315,-0.549634,0.00201272,0.0255682,1777,1569,8.00641,-8.60299
560,-545,8.01001,8.38245,0.00411647,0.00258778,-0.00178145,0.00529062,0.00141362,-0.582746,0.00316298,0.0257613,1784,1569,8.00995,-8.38239
567,-545,7.92542,8.28369,0.00492158,0.00299786,-0.00239786,0.0065433,0.00137613,-0.594657,0.00398353,0.0347699,1791,1569,7.9254,-8.28374
574,-545,7.93384,8.06128,0.00609529,0.00363753,-0.00296863,0.00807934,0.00165349,-0.589159,0.00492841,0.0311469,1798,1569,7.93381,-8.06131
581,-545,7.9436,7.78369,0.00803703,0.00468327,-0.00365685,0.0103831,0.00233716,-0.570423,0.0062895,0.0417383,1805,1569,7.94364,-7.78363
588,-545,7.88806,7.56665,0.0107061,0.00611299,-0.00481376,0.013743,0.00307602,-0.562827,0.00832825,0.0494915,1812,1569,7.88803,-7.56663
595,-545,7.8855,7.36902,0,0,0,0,0,0,0,-1,1819,1569,7.88555,-7.36899
602,-545,8.82117,6.32214,0,0,0,0,0,0,0,-1,1826,1569,8.82121,-6.32217
609,-545,10.2406,5.22351,0,0,0,0,0,0,0,-1,1833,1569,10.2406,-5.22353
616,-545,11.701,3.93188,0,0,0,0,0,0,0,-1,1840,1569,11.701,-3.93191
623,-545,13.2139,2.32043,0,0,0,0,0,0,0,-1,1847,1569,13.2139,-2.32042
630,-545,0,0,0,0,0,0,0,0,0,-1,1854,1569,0,0
637,-545,0,0,0,0,0,0,0,0,0,-1,1861,1569,0,0
644,-545,0,0,0,0,0,0,0,0,0,-1,1868,1569,0,0
651,-545,0,0,0,0,0,0,0,0,0,-1,1875,1569,0,0
658,-545,0,0,0,0,0,0,0,0,0,-1,1882,1569,0,0
665,-545,0,0,0,0,0,0,0,0,0,-1,1889,1569,0,0
672,-545,0,0,0,0,0,0,0,0,0,-1,1896,1569,0,0
679,-545,0,0,0,0,0,0,0,0,0,-1,1903,1569,0,0
686,-545,0,0,0,0,0,0,0,0,0,-1,1910,1569,0,0
693,-545,0,0,0,0,0,0,0,0,0,-1,1917,1569,0,0
700,-545,0,0,0,0,0,0,0,0,0,-1,1924,1569,0,0
707,-545,0,0,0,0,0,0,0,0,0,-1,1931,1569,0,0
714,-545,0,0,0,0,0,0,0,0,0,-1,1938,1569,0,0
721,-545,0,0,0,0,0,0,0,0,0,-1,1945,1569,0,0
728,-545,0,0,0,0,0,0,0,0,0,-1,1952,1569,0,0
735,-545,0,0,0,0,0,0,0,0,0,-1,1959,1569,0,0
742,-545,0,0,0,0,0,0,0,0,0,-1,1966,1569,0,0
749,-545,0,0,0,0,0,0,0,0,0,-1,1973,1569,0,0
756,-545,0,0,0,0,0,0,0,0,0,-1,1980,1569,0,0
763,-545,0,0,0,0,0,0,0,0,0,-1,1987,1569,0,0
770,-545,0,0,0,0,0,0,0,0,0,-1,1994,1569,0,0
777,-545,0,0,0,0,0,0,0,0,0,-1,2001,1569,0,0
784,-545,0,0,0,0,0,0,0,0,0,-1,2008,1569,0,0
791,-545,0,0,0,0,0,0,0,0,0,-1,2015,1569,0,0
798,-545,0,0,0,0,0,0,0,0,0,-1,2022,1569,0,0
805,-545,0,0,0,0,0,0,0,0,0,-1,2029,1569,0,0
812,-545,0,0,0,0,0,0,0,0,0,-1,2036,1569,0,0
-700,-552,0,0,0,0,0,0,0,0,0,-1,524,1576,0,0
-693,-552,0,0,0,0,0,0,0,0,0,-1,531,1576,0,0
-686,-552,0,0,0,0,0,0,0,0,0,-1,538,1576,0,0
-679,-552,0,0,0,0,0,0,0,0,0,-1,545,1576,0,0
-672,-552,0,0,0,0,0,0,0,0,0,-1,552,1576,0,0
-665,-552,0,0,0,0,0,0,0,0,0,-1,559,1576,0,0
-658,-552,0,0,0,0,0,0,0,0,0,-1,566,1576,0,0
-651,-552,0,0,0,0,0,0,0,0,0,-1,573,1576,0,0
-644,-552,0,0,0,0,0,0,0,0,0,-1,580,1576,0,0
-637,-552,0,0,0,0,0,0,0,0,0,-1,587,1576,0,0
-630,-552,0,0,0,0,0,0,0,0,0,-1,594,1576,0,0
-623,-552,0,0,0,0,0,0,0,0,0,-1,601,1576,0,0
-616,-552,0,0,0,0,0,0,0,0,0,-1,608,1576,0,0
-609,-552,0,0,0,0,0,0,0,0,0,-1,615,1576,0,0
-602,-552,0,0,0,0,0,0,0,0,0,-1,622,1576,0,0
-595,-552,0,0,0,0,0,0,0,0,0,-1,629,1576,0,0
-588,-552,0,0,0,0,0,0,0,0,0,-1,636,1576,0,0
-581,-552,0,0,0,0,0,0,0,0,0,-1,643,1576,0,0
-574,-552,0,0,0,0,0,0,0,0,0,-1,650,1576,0,0
-567,-552,0,0,0,0,0,0,0,0,0,-1,657,1576,0,0
-560,-552,0,0,0,0,0,0,0,0,0,-1,664,1576,0,0
-553,-552,0,0,0,0,0,0,0,0,0,-1,671,1576,0,0
-546,-552,0,0,0,0,0,0,0,0,0,-1,678,1576,0,0
-539,-552,0,0,0,0,0,0,0,0,0,-1,685,1576,0,0
-532,-552,0,0,0,0,0,0,0,0,0,-1,692,1576,0,0
-525,-552,0,0,0,0,0,0,0,0,0,-1,699,1576,0,0
-518,-552,0,0,0,0,0,0,0,0,0,-1,706,1576,0,0
-511,-552,0,0,0,0,0,0,0,0,0,-1,713,1576,0,0
-504,-552,0,0,0,0,0,0,0,0,0,-1,720,1576,0,0
-497,-552,-0.968994,4.00012,0,0,0,0,0,0,0,-1,727,1576,-0.969009,-4.00008
-490,-552,-0.412354,4.53491,0,0,0,0,0,0,0,-1,734,1576,-0.412343,-4.53495
-483,-552,-0.0604248,4.69629,0,0,0,0,0,0,0,-1,741,1576,-0.0604172,-4.69632
-476,-552,0.268494,4.69763,0,0,0,0,0,0,0,-1,748,1576,0.268474,-4.69764
-469,-552,0.626038,3.01587,0,0,0,0,0,0,0,-1,755,1576,0.626012,-3.01589
-462,-552,0.801941,3.63354,0,0,0,0,0,0,0,-1,762,1576,0.801928,-3.63351
-455,-552,0.955078,4.33301,0,0,0,0,0,0,0,-1,769,1576,0.955071,-4.33295
-448,-552,0.858398,5.36841,0.0106103,0.0301195,0.0119492,0.0357901,0.00493971,1.12771,0.0223958,0.0432789,776,1576,0.858387,-5.3684
-441,-552,0.827515,6.19946,0.00684,0.0245323,0.00928533,0.0285108,0.00286151,1.16599,0.0181288,0.0378661,783,1576,0.827544,-6.1995
-434,-552,0.691833,6.77429,0.00392567,0.0193885,0.00691856,0.0220321,0.00128205,1.20581,0.0142799,0.0202596,790,1576,0.691842,-6.77423
-427,-552,0.600281,6.99561,0.00216296,0.0151021,0.00524214,0.0169593,0.000305733,1.23031,0.0112057,0.0141858,797,1576,0.600282,-6.99556
-420,-552,0.627075,7.22546,0.000995289,0.0112276,0.0041176,0.0126788,-0.000455875,1.23196,0.0086085,0.0182856,804,1576,0.627104,-7.22551
-413,-552,0.646057,7.41528,0.000536974,0.0083008,0.00304752,0.00935413,-0.000516357,1.23802,0.00641513,0.0170759,811,1576,0.64606,-7.41526
-406,-552,0.636597,7.62378,9.58393e-05,0.00569158,0.00215558,0.00642565,-0.000638233,1.24257,0.00451159,0.0134751,818,1576,0.636579,-7.62381
-399,-552,0.646545,7.84509,4.96331e-05,0.00371641,0.00142973,0.00420799,-0.00044194,1.23964,0.00296364,0.0135764,825,1576,0.646518,-7.84511
-392,-552,0.640747,8.04919,0.00026434,0.00167528,0.000657797,0.00193437,5.24533e-06,1.19557,0.00128784,0.0147961,832,1576,0.640741,-8.04919
-385,-552,0.626709,8.27075,0.00049445,0.000277831,9.24651e-06,0.000494844,0.000277437,0.0425823,0.000286398,0.0134249,839,1576,0.62673,-8.27077
-378,-552,0.601807,8.45569,0.000488788,-0.000898141,-0.000444154,0.000618831,-0.00102818,-0.284829,0.000960645,0.0142955,846,1576,0.601822,-8.45572
-371,-552,0.603577,8.67017,0.000248349,-0.00153358,-0.000977983,0.000680361,-0.0019656,-0.415962,0.00158658,0.0187387,853,1576,0.603561,-8.67018
-364,-552,0.619263,8.87964,8.11219e-05,-0.00216333,-0.00149015,0.000824359,-0.00290656,-0.46266,0.00226311,0.0148067,860,1576,0.619241,-8.87967
-357,-552,0.630554,9.08459,-0.000157721,-0.00261695,-0.00210391,0.00104954,-0.00382422,-0.520947,0.00296197,0.00988939,867,1576,0.630525,-9.08464
-350,-552,0.625854,9.31323,-0.000628408,-0.00329825,-0.00270097,0.00104952,-0.00497618,-0.555885,0.00371702,0.00892076,874,1576,0.625872,-9.31317
-343,-552,0.606079,9.48438,-0.000869277,-0.0034413,-0.00282319,0.000947,-0.00525758,-0.571681,0.00385964,0.00919512,881,1576,0.606071,-9.48435
-336,-552,0.640747,9.61389,-0.000994577,-0.00301197,-0.00261979,0.000803994,-0.00481054,-0.60163,0.00350589,0.0143235,888,1576,0.640731,-9.61393
-329,-552,0.640015,9.78137,-0.00127097,-0.00267057,-0.00243028,0.000558259,-0.0044998,-0.645215,0.00320221,0.030902,895,1576,0.639998,-9.78141
-322,-552,0.692078,10.0359,0,0,0,0,0,0,0,-1,902,1576,0.692105,-10.0359
-315,-552,0.650452,10.7898,0,0,0,0,0,0,0,-1,909,1576,0.650424,-10.7897
-308,-552,0.88208,9.47839,0,0,0,0,0,0,0,-1,916,1576,0.882097,-9.47835
-301,-552,1.36206,10.4147,0,0,0,0,0,0,0,-1,923,1576,1.36208,-10.4146
-294,-552,1.66852,11.2141,0,0,0,0,0,0,0,-1,930,1576,1.66853,-11.2141
-287,-552,1.52625,11.5685,0,0,0,0,0,0,0,-1,937,1576,1.52625,-11.5685
-280,-552,1.70819,8.4104,0,0,0,0,0,0,0,-1,944,1576,1.70818,-8.4104
-273,-552,1.64587,10.6685,0,0,0,0,0,0,0,-1,951,1576,1.6459,-10.6685
-266,-552,-1.32678,8.05688,0,0,0,0,0,0,0,-1,958,1576,-1.32677,-8.05683
-259,-552,-5.54321,8.31213,0,0,0,0,0,0,0,-1,965,1576,-5.54324,-8.31214
-252,-552,-6.49988,8.56104,0,0,0,0,0,0,0,-1,972,1576,-6.49986,-8.56109
-245,-552,-6.01709,3.15002,0,0,0,0,0,0,0,-1,979,1576,-6.01709,-3.15
-238,-552,-4.58191,3.35437,0,0,0,0,0,0,0,-1,986,1576,-4.58192,-3.35442
-231,-552,-3.14673,3.55884,0,0,0,0,0,0,0,-1,993,1576,-3.14675,-3.55884
-224,-552,0,0,0,0,0,0,0,0,0,-1,1000,1576,0,0
-217,-552,0,0,0,0,0,0,0,0,0,-1,1007,1576,0,0
-210,-552,0,0,0,0,0,0,0,0,0,-1,1014,1576,0,0
-203,-552,0,0,0,0,0,0,0,0,0,-1,1021,1576,0,0
-196,-552,0,0,0,0,0,0,0,0,0,-1,1028,1576,0,0
-189,-552,0,0,0,0,0,0,0,0,0,-1,1035,1576,0,0
-182,-552,0,0,0,0,0,0,0,0,0,-1,1042,1576,0,0
-175,-552,0,0,0,0,0,0,0,0,0,-1,1049,1576,0,0
-168,-552,0,0,0,0,0,0,0,0,0,-1,1056,1576,0,0
-161,-552,0,0,0,0,0,0,0,0,0,-1,1063,1576,0,0
-154,-552,0,0,0,0,0,0,0,0,0,-1,1070,1576,0,0
-147,-552,0,0,0,0,0,0,0,0,0,-1,1077,1576,0,0
-140,-552,0,0,0,0,0,0,0,0,0,-1,1084,1576,0,0
-133,-552,0,0,0,0,0,0,0,0,0,-1,1091,1576,0,0
-126,-552,0,0,0,0,0,0,0,0,0,-1,1098,1576,0,0
-119,-552,0,0,0,0,0,0,0,0,0,-1,1105,1576,0,0
-112,-552,0,0,0,0,0,0,0,0,0,-1,1112,1576,0,0
-105,-552,0,0,0,0,0,0,0,0,0,-1,1119,1576,0,0
-98,-552,0,0,0,0,0,0,0,0,0,-1,1126,1576,0,0
-91,-552,0,0,0,0,0,0,0,0,0,-1,1133,1576,0,0
-84,-552,0,0,0,0,0,0,0,0,0,-1,1140,1576,0,0
-77,-552,0,0,0,0,0,0,0,0,0,-1,1147,1576,0,0
-70,-552,0,0,0,0,0,0,0,0,0,-1,1154,1576,0,0
-63,-552,0,0,0,0,0,0,0,0,0,-1,1161,1576,0,0
-56,-552,0,0,0,0,0,0,0,0,0,-1,1168,1576,0,0
-49,-552,0,0,0,0,0,0,0,0,0,-1,1175,1576,0,0
-42,-552,0,0,0,0,0,0,0,0,0,-1,1182,1576,0,0
-35,-552,0,0,0,0,0,0,0,0,0,-1,1189,1576,0,0
-28,-552,0,0,0,0,0,0,0,0,0,-1,1196,1576,0,0
-21,-552,0,0,0,0,0,0,0,0,0,-1,1203,1576,0,0
-14,-552,0,0,0,0,0,0,0,0,0,-1,1210,1576,0,0
-7,-552,0,0,0,0,0,0,0,0,0,-1,1217,1576,0,0
0,-552,0,0,0,0,0,0,0,0,0,-1,1224,1576,0,0
7,-552,0,0,0,0,0,0,0,0,0,-1,1231,1576,0,0
14,-552,0,0,0,0,0,0,0,0,0,-1,1238,1576,0,0
21,-552,0,0,0,0,0,0,0,0,0,-1,1245,1576,0,0
28,-552,0,0,0,0,0,0,0,0,0,-1,1252,1576,0,0
35,-552,0,0,0,0,0,0,0,0,0,-1,1259,1576,0,0
42,-552,0,0,0,0,0,0,0,0,0,-1,1266,1576,0,0
49,-552,0,0,0,0,0,0,0,0,0,-1,1273,1576,0,0
56,-552,0,0,0,0,0,0,0,0,0,-1,1280,1576,0,0
63,-552,0,0,0,0,0,0,0,0,0,-1,1287,1576,0,0
70,-552,0,0,0,0,0,0,0,0,0,-1,1294,1576,0,0
77,-552,0,0,0,0,0,0,0,0,0,-1,1301,1576,0,0
84,-552,0,0,0,0,0,0,0,0,0,-1,1308,1576,0,0
91,-552,0,0,0,0,0,0,0,0,0,-1,1315,1576,0,0
98,-552,0,0,0,0,0,0,0,0,0,-1,1322,1576,0,0
105,-552,0,0,0,0,0,0,0,0,0,-1,1329,1576,0,0
112,-552,0,0,0,0,0,0,0,0,0,-1,1336,1576,0,0
119,-552,0,0,0,0,0,0,0,0,0,-1,1343,1576,0,0
126,-552,0,0,0,0,0,0,0,0,0,-1,1350,1576,0,0
133,-552,0,0,0,0,0,0,0,0,0,-1,1357,1576,0,0
140,-552,0,0,0,0,0,0,0,0,0,-1,1364,1576,0,0
147,-552,0,0,0,0,0,0,0,0,0,-1,1371,1576,0,0
154,-552,0,0,0,0,0,0,0,0,0,-1,1378,1576,0,0
161,-552,0,0,0,0,0,0,0,0,0,-1,1385,1576,0,0
168,-552,0,0,0,0,0,0,0,0,0,-1,1392,1576,0,0
175,-552,0,0,0,0,0,0,0,0,0,-1,1399,1576,0,0
182,-552,0,0,0,0,0,0,0,0,0,-1,1406,1576,0,0
189,-552,0,0,0,0,0,0,0,0,0,-1,1413,1576,0,0
196,-552,0,0,0,0,0,0,0,0,0,-1,1420,1576,0,0
203,-552,0,0,0,0,0,0,0,0,0,-1,1427,1576,0,0
210,-552,0,0,0,0,0,0,0,0,0,-1,1434,1576,0,0
217,-552,0,0,0,0,0,0,0,0,0,-1,1441,1576,0,0
224,-552,0,0,0,0,0,0,0,0,0,-1,1448,1576,0,0
231,-552,0,0,0,0,0,0,0,0,0,-1,1455,1576,0,0
238,-552,0,0,0,0,0,0,0,0,0,-1,1462,1576,0,0
245,-552,0,0,0,0,0,0,0,0,0,-1,1469,1576,0,0
252,-552,0,0,0,0,0,0,0,0,0,-1,1476,1576,0,0
259,-552,0,0,0,0,0,0,0,0,0,-1,1483,1576,0,0
266,-552,0,0,0,0,0,0,0,0,0,-1,1490,1576,0,0
273,-552,0,0,0,0,0,0,0,0,0,-1,1497,1576,0,0
280,-552,0,0,0,0,0,0,0,0,0,-1,1504,1576,0,0
287,-552,0,0,0,0,0,0,0,0,0,-1,1511,1576,0,0
294,-552,0,0,0,0,0,0,0,0,0,-1,1518,1576,0,0
301,-552,0,0,0,0,0,0,0,0,0,-1,1525,1576,0,0
308,-552,0,0,0,0,0,0,0,0,0,-1,1532,1576,0,0
315,-552,0,0,0,0,0,0,0,0,0,-1,1539,1576,0,0
322,-552,0,0,0,0,0,0,0,0,0,-1,1546,1576,0,0
329,-552,0,0,0,0,0,0,0,0,0,-1,1553,1576,0,0
336,-552,0,0,0,0,0,0,0,0,0,-1,1560,1576,0,0
343,-552,0,0,0,0,0,0,0,0,0,-1,1567,1576,0,0
350,-552,4.97876,4.09888,0,0,0,0,0,0,0,-1,1574,1576,4.97875,-4.09883
357,-552,5.18469,4.10706,0,0,0,0,0,0,0,-1,1581,1576,5.1847,-4.10702
364,-552,5.448,4.15759,0,0,0,0,0,0,0,-1,1588,1576,5.44797,-4.15757
371,-552,7.10657,5.64783,0,0,0,0,0,0,0,-1,1595,1576,7.10651,-5.64786
378,-552,6.44446,4.91492,0,0,0,0,0,0,0,-1,1602,1576,6.44448,-4.91496
385,-552,12.8276,3.16504,0,0,0,0,0,0,0,-1,1609,1576,12.8276,-3.16503
392,-552,12.1301,4.3363,0,0,0,0,0,0,0,-1,1616,1576,12.1302,-4.33631
399,-552,11.3486,5.6012,0,0,0,0,0,0,0,-1,1623,1576,11.3486,-5.60115
406,-552,10.7863,6.42542,0,0,0,0,0,0,0,-1,1630,1576,10.7863,-6.42536
413,-552,8.39307,10.365,0,0,0,0,0,0,0,-1,1637,1576,8.3931,-10.365
420,-552,8.8949,12.9473,0,0,0,0,0,0,0,-1,1644,1576,8.8949,-12.9473
427,-552,8.71399,12.1613,0,0,0,0,0,0,0,-1,1651,1576,8.71403,-12.1613
434,-552,8.31494,11.673,0,0,0,0,0,0,0,-1,1658,1576,8.31488,-11.673
441,-552,7.8772,10.3197,0,0,0,0,0,0,0,-1,1665,1576,7.87716,-10.3197
448,-552,7.8136,10.3088,-0.0401625,-0.0668731,0.0406217,-0.010757,-0.0962786,0.626579,0.0609175,0.046056,1672,1576,7.81364,-10.3088
455,-552,7.70837,10.3297,-0.0359546,-0.0588078,0.0372575,-0.00841079,-0.0863516,0.636606,0.054979,0.041076,1679,1576,7.70833,-10.3297
462,-552,7.69141,10.3551,-0.0313434,-0.0507632,0.0334886,-0.00618547,-0.0759212,0.644294,0.0486834,0.0396552,1686,1576,7.69138,-10.3551
469,-552,7.83386,10.5984,-0.0270794,-0.0430663,0.0297897,-0.0042293,-0.0659164,0.654321,0.0426045,0.0373586,1693,1576,7.83381,-10.5984
476,-552,7.81213,10.6476,-0.02258,-0.0355795,0.0257073,-0.00256343,-0.055596,0.661575,0.0362398,0.0163806,1700,1576,7.81215,-10.6476
483,-552,7.82202,10.481,-0.0181535,-0.0286156,0.0216513,-0.00111029,-0.0456588,0.666868,0.030076,0.0138063,1707,1576,7.82198,-10.4809
490,-552,7.80725,10.2979,-0.0141629,-0.0223941,0.017828,1.83228e-05,-0.0365753,0.67196,0.0243897,0.01343,1714,1576,7.8073,-10.2978
497,-552,7.79858,10.0979,-0.0107861,-0.0169676,0.0142266,0.000681668,-0.0284353,0.678436,0.0191882,0.0205781,1721,1576,7.79855,-10.0978
504,-552,7.82153,9.91895,-0.0079367,-0.0122566,0.0110427,0.00115528,-0.0213486,0.688817,0.0146327,0.02226,1728,1576,7.82154,-9.91889
511,-552,7.8573,9.73022,-0.00514927,-0.00772855,0.00791534,0.0015808,-0.0144586,0.704643,0.0102069,0.0160167,1735,1576,7.85736,-9.73026
518,-552,7.84106,9.55652,-0.00279974,-0.00405136,0.00472867,0.00134434,-0.00819545,0.719608,0.00596248,0.0134128,1742,1576,7.84101,-9.55648
525,-552,7.81543,9.40137,-0.00123099,-0.00183731,0.00250761,0.000991717,-0.00406001,0.725242,0.00309075,0.0124466,1749,1576,7.81543,-9.40133
532,-552,7.84424,9.18298,0.000277799,6.77934e-05,0.000591332,0.000773378,-0.000427786,0.697529,0.000702995,0.0143363,1756,1576,7.84423,-9.18299
539,-552,7.83569,8.98145,0.00130853,0.00136588,-0.00069045,0.00202825,0.000646157,-0.806151,0.00119643,0.0173631,1763,1576,7.83573,-8.98141
546,-552,7.81982,8.8031,0.00222279,0.00205115,-0.00154306,0.00368241,0.000591528,-0.757618,0.00228345,0.0206443,1770,1576,7.81982,-8.80312
553,-552,7.86304,8.58606,0.00335349,0.00282408,-0.00192071,0.00502765,0.00114992,-0.716921,0.0030418,0.0252318,1777,1576,7.8631,-8.58605
560,-552,7.89856,8.27344,0,0,0,0,0,0,0,-1,1784,1576,7.89855,-8.27345
567,-552,7.87341,8.15686,0,0,0,0,0,0,0,-1,1791,1576,7.87347,-8.15692
574,-552,7.89954,7.97485,0,0,0,0,0,0,0,-1,1798,1576,7.89958,-7.97484
581,-552,7.83765,7.66711,0,0,0,0,0,0,0,-1,1805,1576,7.83759,-7.66713
588,-552,7.61987,7.47107,0,0,0,0,0,0,0,-1,1812,1576,7.61985,-7.47104
595,-552,5.36194,6.62744,0,0,0,0,0,0,0,-1,1819,1576,5.36193,-6.62742
602,-552,10.6863,4.31616,0,0,0,0,0,0,0,-1,1826,1576,10.6862,-4.31619
609,-552,12.146,3.18286,0,0,0,0,0,0,0,-1,1833,1576,12.1459,-3.18281
616,-552,13.8762,2.08167,0,0,0,0,0,0,0,-1,1840,1576,13.8763,-2.08167
623,-552,0,0,0,0,0,0,0,0,0,-1,1847,1576,0,0
630,-552,0,0,0,0,0,0,0,0,0,-1,1854,1576,0,0
637,-552,0,0,0,0,0,0,0,0,0,-1,1861,1576,0,0
644,-552,0,0,0,0,0,0,0,0,0,-1,1868,1576,0,0
651,-552,0,0,0,0,0,0,0,0,0,-1,1875,1576,0,0
658,-552,0,0,0,0,0,0,0,0,0,-1,1882,1576,0,0
665,-552,0,0,0,0,0,0,0,0,0,-1,1889,1576,0,0
672,-552,0,0,0,0,0,0,0,0,0,-1,1896,1576,0,0
679,-552,0,0,0,0,0,0,0,0,0,-1,1903,1576,0,0
686,-552,0,0,0,0,0,0,0,0,0,-1,1910,1576,0,0
693,-552,0,0,0,0,0,0,0,0,0,-1,1917,1576,0,0
700,-552,0,0,0,0,0,0,0,0,0,-1,1924,1576,0,0
707,-552,0,0,0,0,0,0,0,0,0,-1,1931,1576,0,0
714,-552,0,0,0,0,0,0,0,0,0,-1,1938,1576,0,0
721,-552,0,0,0,0,0,0,0,0,0,-1,1945,1576,0,0
728,-552,0,0,0,0,0,0,0,0,0,-1,1952,1576,0,0
735,-552,0,0,0,0,0,0,0,0,0,-1,1959,1576,0,0
742,-552,0,0,0,0,0,0,0,0,0,-1,1966,1576,0,0
749,-552,0,0,0,0,0,0,0,0,0,-1,1973,1576,0,0
756,-552,0,0,0,0,0,0,0,0,0,-1,1980,1576,0,0
763,-552,0,0,0,0,0,0,0,0,0,-1,1987,1576,0,0
770,-552,0,0,0,0,0,0,0,0,0,-1,1994,1576,0,0
777,-552,0,0,0,0,0,0,0,0,0,-1,2001,1576,0,0
784,-552,0,0,0,0,0,0,0,0,0,-1,2008,1576,0,0
791,-552,0,0,0,0,0,0,0,0,0,-1,2015,1576,0,0
798,-552,0,0,0,0,0,0,0,0,0,-1,2022,1576,0,0
805,-552,0,0,0,0,0,0,0,0,0,-1,2029,1576,0,0
812,-552,0,0,0,0,0,0,0,0,0,-1,2036,1576,0,0
-700,-559,0,0,0,0,0,0,0,0,0,-1,524,1583,0,0
-693,-559,0,0,0,0,0,0,0,0,0,-1,531,1583,0,0
-686,-559,0,0,0,0,0,0,0,0,0,-1,538,1583,0,0
-679,-559,0,0,0,0,0,0,0,0,0,-1,545,1583,0,0
-672,-559,0,0,0,0,0,0,0,0,0,-1,552,1583,0,0
-665,-559,0,0,0,0,0,0,0,0,0,-1,559,1583,0,0
-658,-559,0,0,0,0,0,0,0,0,0,-1,566,1583,0,0
-651,-559,0,0,0,0,0,0,0,0,0,-1,573,1583,0,0
-644,-559,0,0,0,0,0,0,0,0,0,-1,580,1583,0,0
-637,-559,0,0,0,0,0,0,0,0,0,-1,587,1583,0,0
-630,-559,0,0,0,0,0,0,0,0,0,-1,594,1583,0,0
-623,-559,0,0,0,0,0,0,0,0,0,-1,601,1583,0,0
-616,-559,0,0,0,0,0,0,0,0,0,-1,608,1583,0,0
-609,-559,0,0,0,0,0,0,0,0,0,-1,615,1583,0,0
-602,-559,0,0,0,0,0,0,0,0,0,-1,622,1583,0,0
-595,-559,0,0,0,0,0,0,0,0,0,-1,629,1583,0,0
-588,-559,0,0,0,0,0,0,0,0,0,-1,636,1583,0,0
-581,-559,0,0,0,0,0,0,0,0,0,-1,643,1583,0,0
-574,-559,0,0,0,0,0,0,0,0,0,-1,650,1583,0,0
-567,-559,0,0,0,0,0,0,0,0,0,-1,657,1583,0,0
-560,-559,0,0,0,0,0,0,0,0,0,-1,664,1583,0,0
-553,-559,0,0,0,0,0,0,0,0,0,-1,671,1583,0,0
-546,-559,0,0,0,0,0,0,0,0,0,-1,678,1583,0,0
-539,-559,0,0,0,0,0,0,0,0,0,-1,685,1583,0,0
-532,-559,0,0,0,0,0,0,0,0,0,-1,692,1583,0,0
-525,-559,0,0,0,0,0,0,0,0,0,-1,699,1583,0,0
-518,-559,0,0,0,0,0,0,0,0,0,-1,706,1583,0,0
-511,-559,0,0,0,0,0,0,0,0,0,-1,713,1583,0,0
-504,-559,0,0,0,0,0,0,0,0,0,-1,720,1583,0,0
-497,-559,0,0,0,0,0,0,0,0,0,-1,727,1583,0,0
-490,-559,-0.509521,2.48413,0,0,0,0,0,0,0,-1,734,1583,-0.509499,-2.48416
-483,-559,-0.298157,2.80054,0,0,0,0,0,0,0,-1,741,1583,-0.298157,-2.80057
-476,-559,0.254028,2.72668,0,0,0,0,0,0,0,-1,748,1583,0.254048,-2.72664
-469,-559,0.522095,2.80823,0,0,0,0,0,0,0,-1,755,1583,0.522083,-2.80827
-462,-559,1.38727,2.12195,0,0,0,0,0,0,0,-1,762,1583,1.38726,-2.12192
-455,-559,1.61633,3.20728,0,0,0,0,0,0,0,-1,769,1583,1.61635,-3.20726
-448,-559,1.15607,4.73694,0,0,0,0,0,0,0,-1,776,1583,1.15604,-4.73692
-441,-559,1.22272,5.6687,0.00767272,0.0319201,0.012351,0.0371034,0.00248948,1.17345,0.0239489,0.044345,783,1583,1.22271,-5.66867
-434,-559,1.24396,6.57764,0.00424317,0.0250402,0.00929478,0.0285888,0.000694571,1.20609,0.0188319,0.0330004,790,1583,1.24398,-6.57763
-427,-559,0.787903,7.01587,0,0,0,0,0,0,0,-1,797,1583,0.787878,-7.01587
-420,-559,0.815735,7.22021,0.000813256,0.0144609,0.00553845,0.0164257,-0.00115149,1.2299,0.0113538,0.0196187,804,1583,0.815726,-7.22025
-413,-559,0.851013,7.44336,0.000232366,0.010649,0.0041291,0.0120872,-0.00120582,1.23563,0.00848866,0.0119922,811,1583,0.851032,-7.44337
-406,-559,0.843689,7.65234,-0.000289142,0.0074089,0.00298961,0.00843356,-0.0013138,1.2406,0.00610759,0.00964741,818,1583,0.843679,-7.65231
-399,-559,0.844604,7.86243,-0.000370809,0.00494571,0.00210831,0.00568028,-0.00110538,1.23553,0.00420404,0.0130655,825,1583,0.84463,-7.86239
-392,-559,0.843567,8.0636,-0.000196111,0.0024869,0.00121604,0.00295603,-0.000665235,1.20261,0.00222582,0.0163479,832,1583,0.843574,-8.06364
-385,-559,0.821594,8.27026,6.95257e-06,0.000797885,0.000483061,0.00102671,-0.000221874,1.12841,0.000769174,0.0153928,839,1583,0.821573,-8.27026
-378,-559,0.81543,8.46582,8.79172e-05,-0.000419909,5.81117e-06,8.79837e-05,-0.000419975,0.0114412,0.000313455,0.0136228,846,1583,0.81542,-8.46582
-371,-559,0.827209,8.67322,5.56837e-06,-0.00113017,-0.000496441,0.000191973,-0.00131658,-0.359193,0.000948208,0.0215584,853,1583,0.8272,-8.67321
-364,-559,0.842224,8.87183,-2.22937e-05,-0.00177708,-0.00097738,0.00041374,-0.00221312,-0.419627,0.00163091,0.0197488,860,1583,0.842196,-8.87182
-357,-559,0.81781,9.06482,-6.92797e-05,-0.00215778,-0.00154007,0.000747185,-0.00297425,-0.487475,0.0022732,0.0121913,867,1583,0.817825,-9.06484
-350,-559,0.817749,9.27844,-0.000294661,-0.00275757,-0.00209453,0.000903601,-0.00395583,-0.519646,0.00298437,0.0100146,874,1583,0.817764,-9.27839
-343,-559,0.821472,9.46826,-0.00026627,-0.00282007,-0.0021788,0.00098223,-0.00406857,-0.520346,0.00309224,0.0102553,881,1583,0.821478,-9.4682
-336,-559,0.805725,9.64209,-0.000116237,-0.00241015,-0.00199439,0.00103748,-0.00356387,-0.524447,0.00278687,0.0113624,888,1583,0.805732,-9.64209
-329,-559,0.852722,9.87439,-9.5938e-05,-0.00207103,-0.00185055,0.00101408,-0.00318105,-0.540296,0.00252747,0.0158345,895,1583,0.852726,-9.87439
-322,-559,0.850159,10.1917,8.9173e-05,-0.00160359,-0.00144197,0.000914806,-0.00242922,-0.520009,0.00199558,0.0386147,902,1583,0.850183,-10.1917
-315,-559,0.81665,10.4526,0.000632763,-0.000880404,-0.000609703,0.000847857,-0.0010955,-0.339153,0.00112503,0.0416091,909,1583,0.816672,-10.4527
-308,-559,0.974182,10.3961,0.00160428,0.000164667,0.000646761,0.00185216,-8.32154e-05,0.365999,0.00126343,0.0379571,916,1583,0.974171,-10.3961
-301,-559,0.850891,9.82397,0,0,0,0,0,0,0,-1,923,1583,0.850901,-9.82397
-294,-559,1.29004,10.9562,0.00550814,0.0026972,0.00492502,0.00922431,-0.00101897,0.646406,0.00651581,0.04675,930,1583,1.29002,-10.9562
-287,-559,1.57471,11.4403,0.00821642,0.00355655,0.00777251,0.0140007,-0.00222773,0.639777,0.0101581,0.0482674,937,1583,1.57471,-11.4403
-280,-559,2.13397,11.9109,0,0,0,0,0,0,0,-1,944,1583,2.13396,-11.9109
-273,-559,2.12836,10.3059,0,0,0,0,0,0,0,-1,951,1583,2.12839,-10.3059
-266,-559,-0.597046,6.68933,0,0,0,0,0,0,0,-1,958,1583,-0.597031,-6.68937
-259,-559,-7.00311,8.62756,0,0,0,0,0,0,0,-1,965,1583,-7.00312,-8.6275
-252,-559,-9.4483,2.87805,0,0,0,0,0,0,0,-1,972,1583,-9.44829,-2.87805
-245,-559,-8.08545,3.14001,0,0,0,0,0,0,0,-1,979,1583,-8.08542,-3.13996
-238,-559,-6.69635,3.37744,0,0,0,0,0,0,0,-1,986,1583,-6.69632,-3.37743
-231,-559,-5.29871,3.61853,0,0,0,0,0,0,0,-1,993,1583,-5.29869,-3.61849
-224,-559,-2.28033,3.77515,0,0,0,0,0,0,0,-1,1000,1583,-2.28032,-3.7752
-217,-559,0,0,0,0,0,0,0,0,0,-1,1007,1583,0,0
-210,-559,0,0,0,0,0,0,0,0,0,-1,1014,1583,0,0
-203,-559,0,0,0,0,0,0,0,0,0,-1,1021,1583,0,0
-196,-559,0,0,0,0,0,0,0,0,0,-1,1028,1583,0,0
-189,-559,0,0,0,0,0,0,0,0,0,-1,1035,1583,0,0
-182,-559,0,0,0,0,0,0,0,0,0,-1,1042,1583,0,0
-175,-559,0,0,0,0,0,0,0,0,0,-1,1049,1583,0,0
-168,-559,0,0,0,0,0,0,0,0,0,-1,1056,1583,0,0
-161,-559,0,0,0,0,0,0,0,0,0,-1,1063,1583,0,0
-154,-559,0,0,0,0,0,0,0,0,0,-1,1070,1583,0,0
-147,-559,0,0,0,0,0,0,0,0,0,-1,1077,1583,0,0
-140,-559,0,0,0,0,0,0,0,0,0,-1,1084,1583,0,0
-133,-559,0,0,0,0,0,0,0,0,0,-1,1091,1583,0,0
-126,-559,0,0,0,0,0,0,0,0,0,-1,1098,1583,0,0
-119,-559,0,0,0,0,0,0,0,0,0,-1,1105,1583,0,0
-112,-559,0,0,0,0,0,0,0,0,0,-1,1112,1583,0,0
-105,-559,0,0,0,0,0,0,0,0,0,-1,1119,1583,0,0
-98,-559,0,0,0,0,0,0,0,0,0,-1,1126,1583,0,0
-91,-559,0,0,0,0,0,0,0,0,0,-1,1133,1583,0,0
-84,-559,0,0,0,0,0,0,0,0,0,-1,1140,1583,0,0
-77,-559,0,0,0,0,0,0,0,0,0,-1,1147,1583,0,0
-70,-559,0,0,0,0,0,0,0,0,0,-1,1154,1583,0,0
-63,-559,0,0,0,0,0,0,0,0,0,-1,1161,1583,0,0
-56,-559,0,0,0,0,0,0,0,0,0,-1,1168,1583,0,0
-49,-559,0,0,0,0,0,0,0,0,0,-1,1175,1583,0,0
-42,-559,0,0,0,0,0,0,0,0,0,-1,1182,1583,0,0
-35,-559,0,0,0,0,0,0,0,0,0,-1,1189,1583,0,0
-28,-559,0,0,0,0,0,0,0,0,0,-1,1196,1583,0,0
-21,-559,0,0,0,0,0,0,0,0,0,-1,1203,1583,0,0
-14,-559,0,0,0,0,0,0,0,0,0,-1,1210,1583,0,0
-7,-559,0,0,0,0,0,0,0,0,0,-1,1217,1583,0,0
0,-559,0,0,0,0,0,0,0,0,0,-1,1224,1583,0,0
7,-559,0,0,0,0,0,0,0,0,0,-1,1231,1583,0,0
14,-559,0,0,0,0,0,0,0,0,0,-1,1238,1583,0,0
21,-559,0,0,0,0,0,0,0,0,0,-1,1245,1583,0,0
28,-559,0,0,0,0,0,0,0,0,0,-1,1252,1583,0,0
35,-559,0,0,0,0,0,0,0,0,0,-1,1259,1583,0,0
42,-559,0,0,0,0,0,0,0,0,0,-1,1266,1583,0,0
49,-559,0,0,0,0,0,0,0,0,0,-1,1273,1583,0,0
56,-559,0,0,0,0,0,0,0,0,0,-1,1280,1583,0,0
63,-559,0,0,0,0,0,0,0,0,0,-1,1287,1583,0,0
70,-559,0,0,0,0,0,0,0,0,0,-1,1294,1583,0,0
77,-559,0,0,0,0,0,0,0,0,0,-1,1301,1583,0,0
84,-559,0,0,0,0,0,0,0,0,0,-1,1308,1583,0,0
91,-559,0,0,0,0,0,0,0,0,0,-1,1315,1583,0,0
98,-559,0,0,0,0,0,0,0,0,0,-1,1322,1583,0,0
105,-559,0,0,0,0,0,0,0,0,0,-1,1329,1583,0,0
112,-559,0,0,0,0,0,0,0,0,0,-1,1336,1583,0,0
119,-559,0,0,0,0,0,0,0,0,0,-1,1343,1583,0,0
126,-559,0,0,0,0,0,0,0,0,0,-1,1350,1583,0,0
133,-559,0,0,0,0,0,0,0,0,0,-1,1357,1583,0,0
140,-559,0,0,0,0,0,0,0,0,0,-1,1364,1583,0,0
147,-559,0,0,0,0,0,0,0,0,0,-1,1371,1583,0,0
154,-559,0,0,0,0,0,0,0,0,0,-1,1378,1583,0,0
161,-559,0,0,0,0,0,0,0,0,0,-1,1385,1583,0,0
168,-559,0,0,0,0,0,0,0,0,0,-1,1392,1583,0,0
175,-559,0,0,0,0,0,0,0,0,0,-1,1399,1583,0,0
182,-559,0,0,0,0,0,0,0,0,0,-1,1406,1583,0,0
189,-559,0,0,0,0,0,0,0,0,0,-1,1413,1583,0,0
196,-559,0,0,0,0,0,0,0,0,0,-1,1420,1583,0,0
203,-559,0,0,0,0,0,0,0,0,0,-1,1427,1583,0,0
210,-559,0,0,0,0,0,0,0,0,0,-1,1434,1583,0,0
217,-559,0,0,0,0,0,0,0,0,0,-1,1441,1583,0,0
224,-559,0,0,0,0,0,0,0,0,0,-1,1448,1583,0,0
231,-559,0,0,0,0,0,0,0,0,0,-1,1455,1583,0,0
238,-559,0,0,0,0,0,0,0,0,0,-1,1462,1583,0,0
245,-559,0,0,0,0,0,0,0,0,0,-1,1469,1583,0,0
252,-559,0,0,0,0,0,0,0,0,0,-1,1476,1583,0,0
259,-559,0,0,0,0,0,0,0,0,0,-1,1483,1583,0,0
266,-559,0,0,0,0,0,0,0,0,0,-1,1490,1583,0,0
273,-559,0,0,0,0,0,0,0,0,0,-1,1497,1583,0,0
280,-559,0,0,0,0,0,0,0,0,0,-1,1504,1583,0,0
287,-559,0,0,0,0,0,0,0,0,0,-1,1511,1583,0,0
294,-559,0,0,0,0,0,0,0,0,0,-1,1518,1583,0,0
301,-559,0,0,0,0,0,0,0,0,0,-1,1525,1583,0,0
308,-559,0,0,0,0,0,0,0,0,0,-1,1532,1583,0,0
315,-559,0,0,0,0,0,0,0,0,0,-1,1539,1583,0,0
322,-559,0,0,0,0,0,0,0,0,0,-1,1546,1583,0,0
329,-559,0,0,0,0,0,0,0,0,0,-1,1553,1583,0,0
336,-559,5.97668,3.09827,0,0,0,0,0,0,0,-1,1560,1583,5.97667,-3.09824
343,-559,5.44824,2.88696,0,0,0,0,0,0,0,-1,1567,1583,5.44819,-2.88693
350,-559,4.69775,3.27051,0,0,0,0,0,0,0,-1,1574,1583,4.69771,-3.27048
357,-559,3.88025,3.60999,0,0,0,0,0,0,0,-1,1581,1583,3.88027,-3.60998
364,-559,5.00928,5.32605,0,0,0,0,0,0,0,-1,1588,1583,5.00928,-5.32607
371,-559,1.84436,2.52441,0,0,0,0,0,0,0,-1,1595,1583,1.84441,-2.52447
378,-559,6.34753,1.53137,0,0,0,0,0,0,0,-1,1602,1583,6.34752,-1.53139
385,-559,6.95911,1.48181,0,0,0,0,0,0,0,-1,1609,1583,6.95916,-1.48175
392,-559,11.6949,4.77734,0,0,0,0,0,0,0,-1,1616,1583,11.6949,-4.77731
399,-559,11.1104,5.56909,0,0,0,0,0,0,0,-1,1623,1583,11.1103,-5.56905
406,-559,10.3385,6.48657,0,0,0,0,0,0,0,-1,1630,1583,10.3385,-6.48661
413,-559,9.76147,6.97571,0,0,0,0,0,0,0,-1,1637,1583,9.76143,-6.97574
420,-559,7.77124,10.5851,0,0,0,0,0,0,0,-1,1644,1583,7.77128,-10.585
427,-559,8.23474,11.1195,0,0,0,0,0,0,0,-1,1651,1583,8.23478,-11.1195
434,-559,7.97144,11.3613,0,0,0,0,0,0,0,-1,1658,1583,7.97143,-11.3613
441,-559,8.26453,11.0334,0,0,0,0,0,0,0,-1,1665,1583,8.26448,-11.0335
448,-559,8.04065,10.7567,0,0,0,0,0,0,0,-1,1672,1583,8.0407,-10.7567
455,-559,7.97302,10.7949,0,0,0,0,0,0,0,-1,1679,1583,7.97298,-10.7949
462,-559,7.7677,10.8363,-0.0221987,-0.0375943,0.0245777,-0.00414153,-0.0556515,0.633636,0.0358004,0.0324187,1686,1583,7.76775,-10.8363
469,-559,7.65027,10.8113,-0.0193035,-0.0319879,0.0218475,-0.00289626,-0.0483952,0.644134,0.0313427,0.0181163,1693,1583,7.6503,-10.8113
476,-559,7.60999,10.6606,-0.0161142,-0.0264144,0.0187194,-0.00184939,-0.0406793,0.651158,0.0265245,0.0100728,1700,1583,7.60993,-10.6606
483,-559,7.63074,10.4628,-0.0127748,-0.0211018,0.0156125,-0.000780119,-0.0330964,0.655092,0.0218089,0.0120331,1707,1583,7.63075,-10.4628
490,-559,7.61853,10.2733,-0.00962024,-0.01627,0.012645,0.000129709,-0.02602,0.656838,0.01739,0.0142479,1714,1583,7.61854,-10.2734
497,-559,7.62463,10.1005,-0.00694228,-0.0119674,0.0098336,0.000694665,-0.0196044,0.66032,0.0133072,0.0175182,1721,1583,7.62464,-10.1004
504,-559,7.65588,9.92261,-0.00468324,-0.00815326,0.00735298,0.00113666,-0.0139732,0.669538,0.00971651,0.0222747,1728,1583,7.65582,-9.92257
511,-559,7.65869,9.73901,-0.00248838,-0.00444102,0.00487387,0.00150599,-0.00843539,0.686547,0.00618699,0.0195215,1735,1583,7.65865,-9.73897
518,-559,7.66895,9.56604,-0.000677012,-0.00146294,0.0023751,0.00133742,-0.00347737,0.703415,0.00286988,0.0120382,1742,1583,7.6689,-9.56601
525,-559,7.63489,9.39905,0.000542869,0.000388776,0.00059844,0.0010692,-0.000137557,0.721377,0.000762799,0.0103635,1749,1583,7.63488,-9.39901
532,-559,7.62842,9.20886,0.0016058,0.00187672,-0.000883653,0.00263524,0.000847284,-0.861455,0.00155343,0.0132244,1756,1583,7.62843,-9.20882
539,-559,7.63184,9.04211,0.00226038,0.00283664,-0.00185324,0.00442401,0.000673007,-0.862519,0.00275257,0.0179366,1763,1583,7.63184,-9.04214
546,-559,7.61829,8.84302,0.00294377,0.00311168,-0.00237528,0.00540449,0.000650967,-0.803063,0.0034068,0.0163545,1770,1583,7.61829,-8.84302
553,-559,7.74048,8.5918,0.0038887,0.00375155,-0.00249423,0.0063153,0.00132495,-0.771654,0.0038454,0.0252494,1777,1583,7.74047,-8.59181
560,-559,7.75586,8.31506,0,0,0,0,0,0,0,-1,1784,1583,7.75589,-8.31505
567,-559,7.60376,7.80334,0,0,0,0,0,0,0,-1,1791,1583,7.6038,-7.8034
574,-559,8.08765,7.4502,0,0,0,0,0,0,0,-1,1798,1583,8.08761,-7.45024
581,-559,5.97095,5.96179,0,0,0,0,0,0,0,-1,1805,1583,5.97093,-5.96181
588,-559,5.79102,5.89954,0,0,0,0,0,0,0,-1,1812,1583,5.79098,-5.89949
595,-559,5.79089,6.24231,0,0,0,0,0,0,0,-1,1819,1583,5.7909,-6.24227
602,-559,12.478,2.35669,0,0,0,0,0,0,0,-1,1826,1583,12.4781,-2.35675
609,-559,14.0479,1.22681,0,0,0,0,0,0,0,-1,1833,1583,14.0479,-1.22681
616,-559,0,0,0,0,0,0,0,0,0,-1,1840,1583,0,0
623,-559,0,0,0,0,0,0,0,0,0,-1,1847,1583,0,0
630,-559,0,0,0,0,0,0,0,0,0,-1,1854,1583,0,0
637,-559,0,0,0,0,0,0,0,0,0,-1,1861,1583,0,0
644,-559,0,0,0,0,0,0,0,0,0,-1,1868,1583,0,0
651,-559,0,0,0,0,0,0,0,0,0,-1,1875,1583,0,0
658,-559,0,0,0,0,0,0,0,0,0,-1,1882,1583,0,0
665,-559,0,0,0,0,0,0,0,0,0,-1,1889,1583,0,0
672,-559,0,0,0,0,0,0,0,0,0,-1,1896,1583,0,0
679,-559,0,0,0,0,0,0,0,0,0,-1,1903,1583,0,0
686,-559,0,0,0,0,0,0,0,0,0,-1,1910,1583,0,0
693,-559,0,0,0,0,0,0,0,0,0,-1,1917,1583,0,0
700,-559,0,0,0,0,0,0,0,0,0,-1,1924,1583,0,0
707,-559,0,0,0,0,0,0,0,0,0,-1,1931,1583,0,0
714,-559,0,0,0,0,0,0,0,0,0,-1,1938,1583,0,0
721,-559,0,0,0,0,0,0,0,0,0,-1,1945,1583,0,0
728,-559,0,0,0,0,0,0,0,0,0,-1,1952,1583,0,0
735,-559,0,0,0,0,0,0,0,0,0,-1,1959,1583,0,0
742,-559,0,0,0,0,0,0,0,0,0,-1,1966,1583,0,0
749,-559,0,0,0,0,0,0,0,0,0,-1,1973,1583,0,0
756,-559,0,0,0,0,0,0,0,0,0,-1,1980,1583,0,0
763,-559,0,0,0,0,0,0,0,0,0,-1,1987,1583,0,0
770,-559,0,0,0,0,0,0,0,0,0,-1,1994,1583,0,0
777,-559,0,0,0,0,0,0,0,0,0,-1,2001,1583,0,0
784,-559,0,0,0,0,0,0,0,0,0,-1,2008,1583,0,0
791,-559,0,0,0,0,0,0,0,0,0,-1,2015,1583,0,0
798,-559,0,0,0,0,0,0,0,0,0,-1,2022,1583,0,0
805,-559,0,0,0,0,0,0,0,0,0,-1,2029,1583,0,0
812,-559,0,0,0,0,0,0,0,0,0,-1,2036,1583,0,0
-700,-566,0,0,0,0,0,0,0,0,0,-1,524,1590,0,0
-693,-566,0,0,0,0,0,0,0,0,0,-1,531,1590,0,0
-686,-566,0,0,0,0,0,0,0,0,0,-1,538,1590,0,0
-679,-566,0,0,0,0,0,0,0,0,0,-1,545,1590,0,0
-672,-566,0,0,0,0,0,0,0,0,0,-1,552,1590,0,0
-665,-566,0,0,0,0,0,0,0,0,0,-1,559,1590,0,0
-658,-566,0,0,0,0,0,0,0,0,0,-1,566,1590,0,0
-651,-566,0,0,0,0,0,0,0,0,0,-1,573,1590,0,0
-644,-566,0,0,0,0,0,0,0,0,0,-1,580,1590,0,0
-637,-566,0,0,0,0,0,0,0,0,0,-1,587,1590,0,0
-630,-566,0,0,0,0,0,0,0,0,0,-1,594,1590,0,0
-623,-566,0,0,0,0,0,0,0,0,0,-1,601,1590,0,0
-616,-566,0,0,0,0,0,0,0,0,0,-1,608,1590,0,0
-609,-566,0,0,0,0,0,0,0,0,0,-1,615,1590,0,0
-602,-566,0,0,0,0,0,0,0,0,0,-1,622,1590,0,0
-595,-566,0,0,0,0,0,0,0,0,0,-1,629,1590,0,0
-588,-566,0,0,0,0,0,0,0,0,0,-1,636,1590,0,0
-581,-566,0,0,0,0,0,0,0,0,0,-1,643,1590,0,0
-574,-566,0,0,0,0,0,0,0,0,0,-1,650,1590,0,0
-567,-566,0,0,0,0,0,0,0,0,0,-1,657,1590,0,0
-560,-566,0,0,0,0,0,0,0,0,0,-1,664,1590,0,0
-553,-566,0,0,0,0,0,0,0,0,0,-1,671,1590,0,0
-546,-566,0,0,0,0,0,0,0,0,0,-1,678,1590,0,0
-539,-566,0,0,0,0,0,0,0,0,0,-1,685,1590,0,0
-532,-566,0,0,0,0,0,0,0,0,0,-1,692,1590,0,0
-525,-566,0,0,0,0,0,0,0,0,0,-1,699,1590,0,0
-518,-566,0,0,0,0,0,0,0,0,0,-1,706,1590,0,0
-511,-566,0,0,0,0,0,0,0,0,0,-1,713,1590,0,0
-504,-566,0,0,0,0,0,0,0,0,0,-1,720,1590,0,0
-497,-566,0,0,0,0,0,0,0,0,0,-1,727,1590,0,0
-490,-566,0,0,0,0,0,0,0,0,0,-1,734,1590,0,0
-483,-566,0.219299,0.0480957,0,0,0,0,0,0,0,-1,741,1590,0.219296,-0.0480372
-476,-566,0.0389404,0.404785,0,0,0,0,0,0,0,-1,748,1590,0.0389328,-0.404728
-469,-566,-0.108887,0.265381,0,0,0,0,0,0,0,-1,755,1590,-0.108897,-0.265395
-462,-566,-0.21344,0.18042,0,0,0,0,0,0,0,-1,762,1590,-0.213441,-0.180476
-455,-566,2.11517,2.53662,0,0,0,0,0,0,0,-1,769,1590,2.11516,-2.53657
-448,-566,1.35596,4.47058,0,0,0,0,0,0,0,-1,776,1590,1.35595,-4.4706
-441,-566,1.52362,5.28357,0,0,0,0,0,0,0,-1,783,1590,1.52363,-5.2836
-434,-566,1.67017,6.47241,0,0,0,0,0,0,0,-1,790,1590,1.67016,-6.47246
-427,-566,1.22278,6.73901,0,0,0,0,0,0,0,-1,797,1590,1.22279,-6.73906
-420,-566,0.985229,7.27832,0.00050297,0.0180726,0.00723604,0.0206691,-0.00209348,1.22628,0.0145276,0.0285031,804,1590,0.985233,-7.27829
-413,-566,1.03595,7.46716,-0.000229335,0.0132272,0.00539412,0.0151225,-0.00212465,1.2329,0.0108594,0.0137684,811,1590,1.03595,-7.46711
-406,-566,1.04462,7.66711,-0.000835904,0.00930222,0.00395095,0.0106601,-0.00219377,1.23976,0.00793966,0.00877646,818,1590,1.04463,-7.66707
-399,-566,1.03485,7.85828,-0.00095835,0.00634282,0.00287455,0.00733871,-0.00195425,1.23728,0.00565754,0.00992981,825,1590,1.03485,-7.85822
-392,-566,1.01776,8.04834,-0.000817239,0.00350538,0.00184854,0.00418807,-0.00149993,1.21702,0.00340402,0.0121678,832,1590,1.01778,-8.04833
-385,-566,1.04425,8.27368,-0.000625708,0.00156246,0.00102158,0.00196525,-0.0010285,1.19523,0.00175642,0.0139288,839,1590,1.04427,-8.27365
-378,-566,1.03583,8.5,-0.0004496,0.000307254,0.000508472,0.000562666,-0.000705012,1.1053,0.00073343,0.0144824,846,1590,1.03586,-8.50004
-371,-566,1.00964,8.69971,-0.000369681,-0.000482128,2.75718e-05,-0.000363285,-0.000488525,0.227968,0.000292999,0.0209242,853,1590,1.00967,-8.69966
-364,-566,1.01575,8.87878,-0.00025763,-0.00116876,-0.000430522,-8.6386e-05,-0.00134,-0.378573,0.000865975,0.0218718,860,1590,1.01572,-8.87881
-357,-566,1.01331,9.07495,-0.000132143,-0.00150896,-0.000947779,0.000350855,-0.00199196,-0.471306,0.00145905,0.0186494,867,1590,1.01333,-9.07494
-350,-566,1.03638,9.28967,-0.000158666,-0.00205577,-0.00147128,0.000643332,-0.00285777,-0.499074,0.00215192,0.02104,874,1590,1.03638,-9.28965
-343,-566,1.05896,9.44336,5.87654e-05,-0.00208465,-0.00154348,0.000866126,-0.00289201,-0.481938,0.00227242,0.0241208,881,1590,1.05897,-9.44335
-336,-566,1.00128,9.64099,0.000396634,-0.00173324,-0.00139183,0.00108421,-0.00242081,-0.458841,0.00207209,0.0220841,888,1590,1.00126,-9.64096
-329,-566,1.04047,9.83765,0.000610479,-0.00144222,-0.0013104,0.00124862,-0.00208037,-0.45318,0.00194188,0.0134478,895,1590,1.04047,-9.83766
-322,-566,1.07483,10.0597,0.00089242,-0.00108196,-0.00105076,0.00134698,-0.00153652,-0.40829,0.00166599,0.0154549,902,1590,1.07483,-10.0596
-315,-566,0.992798,10.2314,0.00141109,-0.000552851,-0.000469324,0.00151748,-0.000659242,-0.222923,0.00128888,0.0283912,909,1590,0.99277,-10.2314
-308,-566,1.1037,10.3175,0.00219347,5.15088e-05,0.000385898,0.00226088,-1.58941e-05,0.17292,0.00151258,0.0367183,916,1590,1.10369,-10.3175
-301,-566,1.09192,10.1261,0.00334108,0.000767606,0.00159695,0.00410518,3.5034e-06,0.446281,0.00273562,0.0438323,923,1590,1.09194,-10.1261
-294,-566,1.10712,10.8647,0.00498411,0.00146533,0.00325314,0.00692315,-0.000473711,0.537511,0.00478117,0.0488005,930,1590,1.1071,-10.8647
-287,-566,1.69025,11.3977,0.00678604,0.00158061,0.00508005,0.0098913,-0.00152465,0.548663,0.00715676,0.0494844,937,1590,1.69022,-11.3977
-280,-566,2.26031,11.9426,0,0,0,0,0,0,0,-1,944,1590,2.26034,-11.9426
-273,-566,2.79315,9.90991,0,0,0,0,0,0,0,-1,951,1590,2.79315,-9.90994
-266,-566,0.392151,6.90295,0,0,0,0,0,0,0,-1,958,1590,0.392151,-6.90294
-259,-566,0.343628,6.47437,0,0,0,0,0,0,0,-1,965,1590,0.34363,-6.47438
-252,-566,-7.68311,1.01343,0,0,0,0,0,0,0,-1,972,1590,-7.68308,-1.01348
-245,-566,-10.1991,3.1759,0,0,0,0,0,0,0,-1,979,1590,-10.1991,-3.17586
-238,-566,-8.82385,3.38501,0,0,0,0,0,0,0,-1,986,1590,-8.82384,-3.38504
-231,-566,-5.30676,2.69019,0,0,0,0,0,0,0,-1,993,1590,-5.30674,-2.69013
-224,-566,-3.11914,5.40015,0,0,0,0,0,0,0,-1,1000,1590,-3.11915,-5.4001
-217,-566,-2.33643,6.79932,0,0,0,0,0,0,0,-1,1007,1590,-2.33642,-6.79936
-210,-566,-2.04175,7.89893,0,0,0,0,0,0,0,-1,1014,1590,-2.04177,-7.89897
-203,-566,0,0,0,0,0,0,0,0,0,-1,1021,1590,0,0
-196,-566,0,0,0,0,0,0,0,0,0,-1,1028,1590,0,0
-189,-566,0,0,0,0,0,0,0,0,0,-1,1035,1590,0,0
-182,-566,0,0,0,0,0,0,0,0,0,-1,1042,1590,0,0
-175,-566,0,0,0,0,0,0,0,0,0,-1,1049,1590,0,0
-168,-566,0,0,0,0,0,0,0,0,0,-1,1056,1590,0,0
-161,-566,0,0,0,0,0,0,0,0,0,-1,1063,1590,0,0
-154,-566,0,0,0,0,0,0,0,0,0,-1,1070,1590,0,0
-147,-566,0,0,0,0,0,0,0,0,0,-1,1077,1590,0,0
-140,-566,0,0,0,0,0,0,0,0,0,-1,1084,1590,0,0
-133,-566,0,0,0,0,0,0,0,0,0,-1,1091,1590,0,0
-126,-566,0,0,0,0,0,0,0,0,0,-1,1098,1590,0,0
-119,-566,0,0,0,0,0,0,0,0,0,-1,1105,1590,0,0
-112,-566,0,0,0,0,0,0,0,0,0,-1,1112,1590,0,0
-105,-566,0,0,0,0,0,0,0,0,0,-1,1119,1590,0,0
-98,-566,0,0,0,0,0,0,0,0,0,-1,1126,1590,0,0
-91,-566,0,0,0,0,0,0,0,0,0,-1,1133,1590,0,0
-84,-566,0,0,0,0,0,0,0,0,0,-1,1140,1590,0,0
-77,-566,0,0,0,0,0,0,0,0,0,-1,1147,1590,0,0
-70,-566,0,0,0,0,0,0,0,0,0,-1,1154,1590,0,0
-63,-566,0,0,0,0,0,0,0,0,0,-1,1161,1590,0,0
-56,-566,0,0,0,0,0,0,0,0,0,-1,1168,1590,0,0
-49,-566,0,0,0,0,0,0,0,0,0,-1,1175,1590,0,0
-42,-566,0,0,0,0,0,0,0,0,0,-1,1182,1590,0,0
-35,-566,0,0,0,0,0,0,0,0,0,-1,1189,1590,0,0
-28,-566,0,0,0,0,0,0,0,0,0,-1,1196,1590,0,0
-21,-566,0,0,0,0,0,0,0,0,0,-1,1203,1590,0,0
-14,-566,0,0,0,0,0,0,0,0,0,-1,1210,1590,0,0
-7,-566,0,0,0,0,0,0,0,0,0,-1,1217,1590,0,0
0,-566,0,0,0,0,0,0,0,0,0,-1,1224,1590,0,0
7,-566,0,0,0,0,0,0,0,0,0,-1,1231,1590,0,0
14,-566,0,0,0,0,0,0,0,0,0,-1,1238,1590,0,0
21,-566,0,0,0,0,0,0,0,0,0,-1,1245,1590,0,0
28,-566,0,0,0,0,0,0,0,0,0,-1,1252,1590,0,0
35,-566,0,0,0,0,0,0,0,0,0,-1,1259,1590,0,0
42,-566,0,0,0,0,0,0,0,0,0,-1,1266,1590,0,0
49,-566,0,0,0,0,0,0,0,0,0,-1,1273,1590,0,0
56,-566,0,0,0,0,0,0,0,0,0,-1,1280,1590,0,0
63,-566,0,0,0,0,0,0,0,0,0,-1,1287,1590,0,0
70,-566,0,0,0,0,0,0,0,0,0,-1,1294,1590,0,0
77,-566,0,0,0,0,0,0,0,0,0,-1,1301,1590,0,0
84,-566,0,0,0,0,0,0,0,0,0,-1,1308,1590,0,0
91,-566,0,0,0,0,0,0,0,0,0,-1,1315,1590,0,0
98,-566,0,0,0,0,0,0,0,0,0,-1,1322,1590,0,0
105,-566,0,0,0,0,0,0,0,0,0,-1,1329,1590,0,0
112,-566,0,0,0,0,0,0,0,0,0,-1,1336,1590,0,0
119,-566,0,0,0,0,0,0,0,0,0,-1,1343,1590,0,0
126,-566,0,0,0,0,0,0,0,0,0,-1,1350,1590,0,0
133,-566,0,0,0,0,0,0,0,0,0,-1,1357,1590,0,0
140,-566,0,0,0,0,0,0,0,0,0,-1,1364,1590,0,0
147,-566,0,0,0,0,0,0,0,0,0,-1,1371,1590,0,0
154,-566,0,0,0,0,0,0,0,0,0,-1,1378,1590,0,0
161,-566,0,0,0,0,0,0,0,0,0,-1,1385,1590,0,0
168,-566,0,0,0,0,0,0,0,0,0,-1,1392,1590,0,0
175,-566,0,0,0,0,0,0,0,0,0,-1,1399,1590,0,0
182,-566,0,0,0,0,0,0,0,0,0,-1,1406,1590,0,0
189,-566,0,0,0,0,0,0,0,0,0,-1,1413,1590,0,0
196,-566,0,0,0,0,0,0,0,0,0,-1,1420,1590,0,0
203,-566,0,0,0,0,0,0,0,0,0,-1,1427,1590,0,0
210,-566,0,0,0,0,0,0,0,0,0,-1,1434,1590,0,0
217,-566,0,0,0,0,0,0,0,0,0,-1,1441,1590,0,0
224,-566,0,0,0,0,0,0,0,0,0,-1,1448,1590,0,0
231,-566,0,0,0,0,0,0,0,0,0,-1,1455,1590,0,0
238,-566,0,0,0,0,0,0,0,0,0,-1,1462,1590,0,0
245,-566,0,0,0,0,0,0,0,0,0,-1,1469,1590,0,0
252,-566,0,0,0,0,0,0,0,0,0,-1,1476,1590,0,0
259,-566,0,0,0,0,0,0,0,0,0,-1,1483,1590,0,0
266,-566,0,0,0,0,0,0,0,0,0,-1,1490,1590,0,0
273,-566,0,0,0,0,0,0,0,0,0,-1,1497,1590,0,0
280,-566,0,0,0,0,0,0,0,0,0,-1,1504,1590,0,0
287,-566,0,0,0,0,0,0,0,0,0,-1,1511,1590,0,0
294,-566,0,0,0,0,0,0,0,0,0,-1,1518,1590,0,0
301,-566,0,0,0,0,0,0,0,0,0,-1,1525,1590,0,0
308,-566,0,0,0,0,0,0,0,0,0,-1,1532,1590,0,0
315,-566,0,0,0,0,0,0,0,0,0,-1,1539,1590,0,0
322,-566,6.07983,4.44873,0,0,0,0,0,0,0,-1,1546,1590,6.07983,-4.44873
329,-566,5.77026,3.47534,0,0,0,0,0,0,0,-1,1553,1590,5.77026,-3.47535
336,-566,5.41138,2.62915,0,0,0,0,0,0,0,-1,1560,1590,5.41138,-2.62909
343,-566,4.81873,1.79089,0,0,0,0,0,0,0,-1,1567,1590,4.81878,-1.79095
350,-566,4.41663,2.44214,0,0,0,0,0,0,0,-1,1574,1590,4.41666,-2.44214
357,-566,6.34058,5.18579,0,0,0,0,0,0,0,-1,1581,1590,6.34059,-5.1858
364,-566,6.06262,4.20251,0,0,0,0,0,0,0,-1,1588,1590,6.06259,-4.20246
371,-566,5.78455,3.21912,0,0,0,0,0,0,0,-1,1595,1590,5.7846,-3.21912
378,-566,5.7439,0.695557,0,0,0,0,0,0,0,-1,1602,1590,5.74392,-0.695531
385,-566,5.67615,-0.573975,0,0,0,0,0,0,0,-1,1609,1590,5.67612,0.573956
392,-566,5.78638,1.82434,0,0,0,0,0,0,0,-1,1616,1590,5.78637,-1.82439
399,-566,5.36621,1.7373,0,0,0,0,0,0,0,-1,1623,1590,5.36627,-1.7373
406,-566,4.30359,5.26868,0,0,0,0,0,0,0,-1,1630,1590,4.30364,-5.26867
413,-566,4.27124,5.79492,0,0,0,0,0,0,0,-1,1637,1590,4.27123,-5.7949
420,-566,7.19812,8.25146,0,0,0,0,0,0,0,-1,1644,1590,7.19817,-8.25149
427,-566,10.455,10.6842,0,0,0,0,0,0,0,-1,1651,1590,10.455,-10.6842
434,-566,7.99817,11.3387,0,0,0,0,0,0,0,-1,1658,1590,7.99813,-11.3387
441,-566,7.83179,11.1794,-0.0205063,-0.0395456,0.0237408,-0.00444766,-0.0556043,0.594722,0.0356795,0.0487581,1665,1590,7.8318,-11.1795
448,-566,7.65088,11.098,-0.0190678,-0.0352009,0.0219054,-0.00379088,-0.0504778,0.60898,0.0324621,0.033341,1672,1590,7.65086,-11.098
455,-566,7.48352,11.0953,-0.0173313,-0.0311489,0.0197258,-0.00333942,-0.0451408,0.616953,0.0290448,0.0239719,1679,1590,7.48346,-11.0953
462,-566,7.43298,10.9933,-0.0151899,-0.02696,0.0175173,-0.00259553,-0.0395544,0.623342,0.0255484,0.0150354,1686,1590,7.43298,-10.9933
469,-566,7.42786,10.8063,-0.013342,-0.0229541,0.0154886,-0.00193089,-0.0343652,0.634961,0.0222944,0.0127437,1693,1590,7.42785,-10.8063
476,-566,7.43469,10.6327,-0.0111825,-0.0188627,0.0130826,-0.00138808,-0.0286571,0.642645,0.0186593,0.00999033,1700,1590,7.43467,-10.6327
483,-566,7.43384,10.468,-0.00873908,-0.0148269,0.010694,-0.000664216,-0.0229017,0.646747,0.0150513,0.00956171,1707,1590,7.43379,-10.468
490,-566,7.42981,10.2872,-0.00628902,-0.0111097,0.00837052,1.12792e-05,-0.01741,0.645212,0.0116104,0.0101796,1714,1590,7.42982,-10.2872
497,-566,7.47131,10.1091,-0.00420871,-0.0077246,0.0061689,0.000447833,-0.0123811,0.646593,0.00840735,0.0134857,1721,1590,7.47128,-10.1091
504,-566,7.48523,9.94141,-0.0024518,-0.00464929,0.0042372,0.000826789,-0.00792788,0.658538,0.0055813,0.0192144,1728,1590,7.48526,-9.94146
511,-566,7.47119,9.76135,-0.000762032,-0.00163202,0.00229333,0.0011372,-0.00353125,0.691673,0.00281098,0.0188793,1735,1590,7.47116,-9.7613
518,-566,7.46228,9.58081,0.00060746,0.000776812,0.000408122,0.00110895,0.000275323,0.887686,0.000666751,0.0111697,1742,1590,7.46232,-9.58081
525,-566,7.44714,9.37476,0.00160547,0.00242075,-0.000990956,0.00308464,0.000941586,-0.98053,0.00182539,0.0104851,1749,1590,7.44714,-9.37471
532,-566,7.45117,9.20142,0.00234932,0.00366101,-0.00207362,0.00518003,0.000830302,-0.93856,0.00321256,0.0123823,1756,1590,7.45118,-9.20147
539,-566,7.46045,9.02222,0.00274813,0.00446703,-0.00276138,0.00649962,0.00071554,-0.936266,0.00411535,0.0169072,1763,1590,7.46046,-9.02216
546,-566,7.48877,8.78162,0.00329092,0.00455472,-0.00299536,0.00698411,0.000861533,-0.889354,0.00439712,0.0192594,1770,1590,7.48882,-8.78156
553,-566,7.53979,8.67322,0.00418922,0.00527355,-0.00292878,0.00770993,0.00175284,-0.87692,0.00466672,0.0366985,1777,1590,7.53976,-8.67324
560,-566,7.57715,8.48962,0,0,0,0,0,0,0,-1,1784,1590,7.57714,-8.4896
567,-566,7.81799,8.18982,0,0,0,0,0,0,0,-1,1791,1590,7.81804,-8.18978
574,-566,7.99548,3.14514,0,0,0,0,0,0,0,-1,1798,1590,7.99543,-3.14511
581,-566,2.54102,5.1311,0,0,0,0,0,0,0,-1,1805,1590,2.54099,-5.13111
588,-566,-1.91321,8.39197,0,0,0,0,0,0,0,-1,1812,1590,-1.91316,-8.39199
595,-566,9.0271,4.66467,0,0,0,0,0,0,0,-1,1819,1590,9.02705,-4.66468
602,-566,9.953,3.54895,0,0,0,0,0,0,0,-1,1826,1590,9.953,-3.54898
609,-566,0,0,0,0,0,0,0,0,0,-1,1833,1590,0,0
616,-566,0,0,0,0,0,0,0,0,0,-1,1840,1590,0,0
623,-566,0,0,0,0,0,0,0,0,0,-1,1847,1590,0,0
630,-566,0,0,0,0,0,0,0,0,0,-1,1854,1590,0,0
637,-566,0,0,0,0,0,0,0,0,0,-1,1861,1590,0,0
644,-566,0,0,0,0,0,0,0,0,0,-1,1868,1590,0,0
651,-566,0,0,0,0,0,0,0,0,0,-1,1875,1590,0,0
658,-566,0,0,0,0,0,0,0,0,0,-1,1882,1590,0,0
665,-566,0,0,0,0,0,0,0,0,0,-1,1889,1590,0,0
672,-566,0,0,0,0,0,0,0,0,0,-1,1896,1590,0,0
679,-566,0,0,0,0,0,0,0,0,0,-1,1903,1590,0,0
686,-566,0,0,0,0,0,0,0,0,0,-1,1910,1590,0,0
693,-566,0,0,0,0,0,0,0,0,0,-1,1917,1590,0,0
700,-566,0,0,0,0,0,0,0,0,0,-1,1924,1590,0,0
707,-566,0,0,0,0,0,0,0,0,0,-1,1931,1590,0,0
714,-566,0,0,0,0,0,0,0,0,0,-1,1938,1590,0,0
721,-566,0,0,0,0,0,0,0,0,0,-1,1945,1590,0,0
728,-566,0,0,0,0,0,0,0,0,0,-1,1952,1590,0,0
735,-566,0,0,0,0,0,0,0,0,0,-1,1959,1590,0,0
742,-566,0,0,0,0,0,0,0,0,0,-1,1966,1590,0,0
749,-566,0,0,0,0,0,0,0,0,0,-1,1973,1590,0,0
756,-566,0,0,0,0,0,0,0,0,0,-1,1980,1590,0,0
763,-566,0,0,0,0,0,0,0,0,0,-1,1987,1590,0,0
770,-566,0,0,0,0,0,0,0,0,0,-1,1994,1590,0,0
777,-566,0,0,0,0,0,0,0,0,0,-1,2001,1590,0,0
784,-566,0,0,0,0,0,0,0,0,0,-1,2008,1590,0,0
791,-566,0,0,0,0,0,0,0,0,0,-1,2015,1590,0,0
798,-566,0,0,0,0,0,0,0,0,0,-1,2022,1590,0,0
805,-566,0,0,0,0,0,0,0,0,0,-1,2029,1590,0,0
812,-566,0,0,0,0,0,0,0,0,0,-1,2036,1590,0,0
-700,-573,0,0,0,0,0,0,0,0,0,-1,524,1597,0,0
-693,-573,0,0,0,0,0,0,0,0,0,-1,531,1597,0,0
-686,-573,0,0,0,0,0,0,0,0,0,-1,538,1597,0,0
-679,-573,0,0,0,0,0,0,0,0,0,-1,545,1597,0,0
-672,-573,0,0,0,0,0,0,0,0,0,-1,552,1597,0,0
-665,-573,0,0,0,0,0,0,0,0,0,-1,559,1597,0,0
-658,-573,0,0,0,0,0,0,0,0,0,-1,566,1597,0,0
-651,-573,0,0,0,0,0,0,0,0,0,-1,573,1597,0,0
-644,-573,0,0,0,0,0,0,0,0,0,-1,580,1597,0,0
-637,-573,0,0,0,0,0,0,0,0,0,-1,587,1597,0,0
-630,-573,0,0,0,0,0,0,0,0,0,-1,594,1597,0,0
-623,-573,0,0,0,0,0,0,0,0,0,-1,601,1597,0,0
-616,-573,0,0,0,0,0,0,0,0,0,-1,608,1597,0,0
-609,-573,0,0,0,0,0,0,0,0,0,-1,615,1597,0,0
-602,-573,0,0,0,0,0,0,0,0,0,-1,622,1597,0,0
-595,-573,0,0,0,0,0,0,0,0,0,-1,629,1597,0,0
-588,-573,0,0,0,0,0,0,0,0,0,-1,636,1597,0,0
-581,-573,0,0,0,0,0,0,0,0,0,-1,643,1597,0,0
-574,-573,0,0,0,0,0,0,0,0,0,-1,650,1597,0,0
-567,-573,0,0,0,0,0,0,0,0,0,-1,657,1597,0,0
-560,-573,0,0,0,0,0,0,0,0,0,-1,664,1597,0,0
-553,-573,0,0,0,0,0,0,0,0,0,-1,671,1597,0,0
-546,-573,0,0,0,0,0,0,0,0,0,-1,678,1597,0,0
-539,-573,0,0,0,0,0,0,0,0,0,-1,685,1597,0,0
-532,-573,0,0,0,0,0,0,0,0,0,-1,692,1597,0,0
-525,-573,0,0,0,0,0,0,0,0,0,-1,699,1597,0,0
-518,-573,0,0,0,0,0,0,0,0,0,-1,706,1597,0,0
-511,-573,0,0,0,0,0,0,0,0,0,-1,713,1597,0,0
-504,-573,0,0,0,0,0,0,0,0,0,-1,720,1597,0,0
-497,-573,0,0,0,0,0,0,0,0,0,-1,727,1597,0,0
-490,-573,0,0,0,0,0,0,0,0,0,-1,734,1597,0,0
-483,-573,0,0,0,0,0,0,0,0,0,-1,741,1597,0,0
-476,-573,0.0195313,-1.96826,0,0,0,0,0,0,0,-1,748,1597,0.0195502,1.96825
-469,-573,-0.28833,-2.03088,0,0,0,0,0,0,0,-1,755,1597,-0.288339,2.0309
-462,-573,-0.289856,-1.92969,0,0,0,0,0,0,0,-1,762,1597,-0.289842,1.92972
-455,-573,0.97113,1.25684,0,0,0,0,0,0,0,-1,769,1597,0.97112,-1.25681
-448,-573,0.990662,2.60376,0,0,0,0,0,0,0,-1,776,1597,0.990687,-2.60378
-441,-573,1.67572,4.65259,0,0,0,0,0,0,0,-1,783,1597,1.67571,-4.65255
-434,-573,0.00402832,4.64685,0,0,0,0,0,0,0,-1,790,1597,0.00403819,-4.64683
-427,-573,1.54639,6.41931,0,0,0,0,0,0,0,-1,797,1597,1.5464,-6.41928
-420,-573,1.45337,6.8656,0.000172762,0.0218466,0.00926151,0.025265,-0.00324565,1.21721,0.0180229,0.0419718,804,1597,1.45336,-6.86554
-413,-573,1.32782,7.41882,-0.000675442,0.0156039,0.00687772,0.0181205,-0.0031921,1.22001,0.013273,0.0319115,811,1597,1.32783,-7.41881
-406,-573,1.24902,7.63831,-0.00135178,0.0108927,0.00509129,0.012733,-0.00319215,1.22394,0.0097289,0.0165508,818,1597,1.249,-7.63827
-399,-573,1.22931,7.86938,-0.00158585,0.00739366,0.00375502,0.00875694,-0.00294914,1.22254,0.00703031,0.0106729,825,1597,1.22928,-7.86939
-392,-573,1.24408,8.0675,-0.00153894,0.0042095,0.00255513,0.00518104,-0.00251048,1.20745,0.00452904,0.0108034,832,1597,1.24405,-8.06756
-385,-573,1.2442,8.27368,-0.0014087,0.00207536,0.00160241,0.00270026,-0.00203361,1.19896,0.00274212,0.0118481,839,1597,1.24422,-8.27364
-378,-573,1.23047,8.48474,-0.0012017,0.00082262,0.00102147,0.00124847,-0.00162754,1.17581,0.00166527,0.0134914,846,1597,1.23047,-8.48468
-371,-573,1.22345,8.70251,-0.00102102,-1.67873e-05,0.000530122,0.000211268,-0.00124908,1.16454,0.00091134,0.0153074,853,1597,1.22344,-8.70248
-364,-573,1.20227,8.8866,-0.000817729,-0.000734412,6.88832e-05,-0.00069557,-0.000856571,1.05736,0.000525664,0.0187967,860,1597,1.2023,-8.8866
-357,-573,1.21381,9.07068,-0.000565809,-0.00104545,-0.000424991,-0.000317644,-0.00129362,-0.528521,0.000778442,0.0230045,867,1597,1.2138,-9.07063
-350,-573,1.23975,9.29663,-0.000443221,-0.00155255,-0.000939534,9.31594e-05,-0.00208893,-0.518748,0.00142469,0.0175832,874,1597,1.23977,-9.29658
-343,-573,1.26233,9.47009,-8.94865e-05,-0.00158406,-0.0010267,0.00043309,-0.00210663,-0.470811,0.00156884,0.0201422,881,1597,1.26233,-9.47004
-336,-573,1.24225,9.68738,0.000392225,-0.00133413,-0.00092897,0.000797141,-0.00173905,-0.411046,0.00149755,0.015588,888,1597,1.24223,-9.68737
-329,-573,1.25427,9.87036,0.000750404,-0.00109607,-0.000902449,0.00111821,-0.00146387,-0.387006,0.00149521,0.0165239,895,1597,1.2543,-9.87031
-322,-573,1.25531,10.0707,0.00109074,-0.00087684,-0.000764472,0.00135285,-0.00113895,-0.3303,0.00144041,0.0123204,902,1597,1.25529,-10.0707
-315,-573,1.32208,10.293,0.0015845,-0.000573126,-0.000395154,0.00165459,-0.000643218,-0.175555,0.00136881,0.0183079,909,1597,1.32207,-10.293
-308,-573,1.32379,10.3737,0.00221681,-0.000344342,0.000145387,0.00222504,-0.000352569,0.0565244,0.00161377,0.0274342,916,1597,1.32379,-10.3736
-301,-573,1.34705,10.5238,0.00306186,-7.447e-05,0.000926058,0.00331488,-0.000327493,0.266716,0.00232678,0.0309866,923,1597,1.34705,-10.5238
-294,-573,1.33069,10.7334,0.00414946,0.00018211,0.00194771,0.00494581,-0.00061424,0.388125,0.00351986,0.0380396,930,1597,1.33069,-10.7333
-287,-573,1.05127,10.73,0.0052981,-0.000210614,0.00301639,0.00662848,-0.00154099,0.415387,0.00501225,0.0465859,937,1597,1.05127,-10.7299
-280,-573,0.3125,10.6305,0,0,0,0,0,0,0,-1,944,1597,0.312514,-10.6305
-273,-573,-0.225037,10.6533,0,0,0,0,0,0,0,-1,951,1597,-0.225018,-10.6533
-266,-573,1.31116,7.1814,0,0,0,0,0,0,0,-1,958,1597,1.31118,-7.18142
-259,-573,1.2514,6.70959,0,0,0,0,0,0,0,-1,965,1597,1.25137,-6.70965
-252,-573,2.07874,5.27161,0,0,0,0,0,0,0,-1,972,1597,2.07875,-5.27157
-245,-573,-10.2592,1.09827,0,0,0,0,0,0,0,-1,979,1597,-10.2592,-1.09823
-238,-573,-8.75061,1.73584,0,0,0,0,0,0,0,-1,986,1597,-8.75059,-1.73585
-231,-573,-6.87231,2.16699,0,0,0,0,0,0,0,-1,993,1597,-6.8723,-2.16704
-224,-573,-4.73047,2.63538,0,0,0,0,0,0,0,-1,1000,1597,-4.73048,-2.63537
-217,-573,-3.57495,6.78931,0,0,0,0,0,0,0,-1,1007,1597,-3.57495,-6.78931
-210,-573,-2.81018,7.94775,0,0,0,0,0,0,0,-1,1014,1597,-2.81015,-7.94777
-203,-573,-1.79614,9.03638,0,0,0,0,0,0,0,-1,1021,1597,-1.79612,-9.03643
-196,-573,-4.87726,6.96936,0,0,0,0,0,0,0,-1,1028,1597,-4.87723,-6.96935
-189,-573,-6.12915,6.66882,0,0,0,0,0,0,0,-1,1035,1597,-6.12913,-6.66884
-182,-573,0,0,0,0,0,0,0,0,0,-1,1042,1597,0,0
-175,-573,0,0,0,0,0,0,0,0,0,-1,1049,1597,0,0
-168,-573,0,0,0,0,0,0,0,0,0,-1,1056,1597,0,0
-161,-573,0,0,0,0,0,0,0,0,0,-1,1063,1597,0,0
-154,-573,0,0,0,0,0,0,0,0,0,-1,1070,1597,0,0
-147,-573,0,0,0,0,0,0,0,0,0,-1,1077,1597,0,0
-140,-573,0,0,0,0,0,0,0,0,0,-1,1084,1597,0,0
-133,-573,0,0,0,0,0,0,0,0,0,-1,1091,1597,0,0
-126,-573,0,0,0,0,0,0,0,0,0,-1,1098,1597,0,0
-119,-573,0,0,0,0,0,0,0,0,0,-1,1105,1597,0,0
-112,-573,0,0,0,0,0,0,0,0,0,-1,1112,1597,0,0
-105,-573,0,0,0,0,0,0,0,0,0,-1,1119,1597,0,0
-98,-573,0,0,0,0,0,0,0,0,0,-1,1126,1597,0,0
-91,-573,0,0,0,0,0,0,0,0,0,-1,1133,1597,0,0
-84,-573,0,0,0,0,0,0,0,0,0,-1,1140,1597,0,0
-77,-573,0,0,0,0,0,0,0,0,0,-1,1147,1597,0,0
-70,-573,0,0,0,0,0,0,0,0,0,-1,1154,1597,0,0
-63,-573,0,0,0,0,0,0,0,0,0,-1,1161,1597,0,0
-56,-573,0,0,0,0,0,0,0,0,0,-1,1168,1597,0,0
-49,-573,0,0,0,0,0,0,0,0,0,-1,1175,1597,0,0
-42,-573,0,0,0,0,0,0,0,0,0,-1,1182,1597,0,0
-35,-573,0,0,0,0,0,0,0,0,0,-1,1189,1597,0,0
-28,-573,0,0,0,0,0,0,0,0,0,-1,1196,1597,0,0
-21,-573,0,0,0,0,0,0,0,0,0,-1,1203,1597,0,0
-14,-573,0,0,0,0,0,0,0,0,0,-1,1210,1597,0,0
-7,-573,0,0,0,0,0,0,0,0,0,-1,1217,1597,0,0
0,-573,0,0,0,0,0,0,0,0,0,-1,1224,1597,0,0
7,-573,0,0,0,0,0,0,0,0,0,-1,1231,1597,0,0
14,-573,0,0,0,0,0,0,0,0,0,-1,1238,1597,0,0
21,-573,0,0,0,0,0,0,0,0,0,-1,1245,1597,0,0
28,-573,0,0,0,0,0,0,0,0,0,-1,1252,1597,0,0
35,-573,0,0,0,0,0,0,0,0,0,-1,1259,1597,0,0
42,-573,0,0,0,0,0,0,0,0,0,-1,1266,1597,0,0
49,-573,0,0,0,0,0,0,0,0,0,-1,1273,1597,0,0
56,-573,0,0,0,0,0,0,0,0,0,-1,1280,1597,0,0
63,-573,0,0,0,0,0,0,0,0,0,-1,1287,1597,0,0
70,-573,0,0,0,0,0,0,0,0,0,-1,1294,1597,0,0
77,-573,0,0,0,0,0,0,0,0,0,-1,1301,1597,0,0
84,-573,0,0,0,0,0,0,0,0,0,-1,1308,1597,0,0
91,-573,0,0,0,0,0,0,0,0,0,-1,1315,1597,0,0
98,-573,0,0,0,0,0,0,0,0,0,-1,1322,1597,0,0
105,-573,0,0,0,0,0,0,0,0,0,-1,1329,1597,0,0
112,-573,0,0,0,0,0,0,0,0,0,-1,1336,1597,0,0
119,-573,0,0,0,0,0,0,0,0,0,-1,1343,1597,0,0
126,-573,0,0,0,0,0,0,0,0,0,-1,1350,1597,0,0
133,-573,0,0,0,0,0,0,0,0,0,-1,1357,1597,0,0
140,-573,0,0,0,0,0,0,0,0,0,-1,1364,1597,0,0
147,-573,0,0,0,0,0,0,0,0,0,-1,1371,1597,0,0
154,-573,0,0,0,0,0,0,0,0,0,-1,1378,1597,0,0
161,-573,0,0,0,0,0,0,0,0,0,-1,1385,1597,0,0
168,-573,0,0,0,0,0,0,0,0,0,-1,1392,1597,0,0
175,-573,0,0,0,0,0,0,0,0,0,-1,1399,1597,0,0
182,-573,0,0,0,0,0,0,0,0,0,-1,1406,1597,0,0
189,-573,0,0,0,0,0,0,0,0,0,-1,1413,1597,0,0
196,-573,0,0,0,0,0,0,0,0,0,-1,1420,1597,0,0
203,-573,0,0,0,0,0,0,0,0,0,-1,1427,1597,0,0
210,-573,0,0,0,0,0,0,0,0,0,-1,1434,1597,0,0
217,-573,0,0,0,0,0,0,0,0,0,-1,1441,1597,0,0
224,-573,0,0,0,0,0,0,0,0,0,-1,1448,1597,0,0
231,-573,0,0,0,0,0,0,0,0,0,-1,1455,1597,0,0
238,-573,0,0,0,0,0,0,0,0,0,-1,1462,1597,0,0
245,-573,0,0,0,0,0,0,0,0,0,-1,1469,1597,0,0
252,-573,0,0,0,0,0,0,0,0,0,-1,1476,1597,0,0
259,-573,0,0,0,0,0,0,0,0,0,-1,1483,1597,0,0
266,-573,0,0,0,0,0,0,0,0,0,-1,1490,1597,0,0
273,-573,0,0,0,0,0,0,0,0,0,-1,1497,1597,0,0
280,-573,0,0,0,0,0,0,0,0,0,-1,1504,1597,0,0
287,-573,0,0,0,0,0,0,0,0,0,-1,1511,1597,0,0
294,-573,0,0,0,0,0,0,0,0,0,-1,1518,1597,0,0
301,-573,0,0,0,0,0,0,0,0,0,-1,1525,1597,0,0
308,-573,9.99329,6.14063,0,0,0,0,0,0,0,-1,1532,1597,9.99331,-6.14065
315,-573,10.5015,6.63318,0,0,0,0,0,0,0,-1,1539,1597,10.5014,-6.63316
322,-573,10.3269,7.77563,0,0,0,0,0,0,0,-1,1546,1597,10.327,-7.77565
329,-573,4.99573,3.80273,0,0,0,0,0,0,0,-1,1553,1597,4.9957,-3.80273
336,-573,4.85693,2.53455,0,0,0,0,0,0,0,-1,1560,1597,4.8569,-2.53459
343,-573,4.11877,0.735596,0,0,0,0,0,0,0,-1,1567,1597,4.11878,-0.735585
350,-573,2.53748,1.56433,0,0,0,0,0,0,0,-1,1574,1597,2.53753,-1.5643
357,-573,7.40247,4.03613,0,0,0,0,0,0,0,-1,1581,1597,7.40244,-4.03614
364,-573,7.14551,3.02087,0,0,0,0,0,0,0,-1,1588,1597,7.14556,-3.02084
371,-573,6.88867,2.00549,0,0,0,0,0,0,0,-1,1595,1597,6.88868,-2.00553
378,-573,8.62012,6.09106,0,0,0,0,0,0,0,-1,1602,1597,8.62012,-6.09103
385,-573,6.54346,-0.951904,0,0,0,0,0,0,0,-1,1609,1597,6.54349,0.951901
392,-573,6.41833,-2.18225,0,0,0,0,0,0,0,-1,1616,1597,6.41831,2.18228
399,-573,4.26282,4.73657,0,0,0,0,0,0,0,-1,1623,1597,4.26285,-4.73652
406,-573,6.82715,10.823,0,0,0,0,0,0,0,-1,1630,1597,6.82719,-10.823
413,-573,6.46655,11.6521,0,0,0,0,0,0,0,-1,1637,1597,6.46661,-11.6522
420,-573,7.75183,11.4521,0,0,0,0,0,0,0,-1,1644,1597,7.75188,-11.4521
427,-573,7.99731,11.2311,0,0,0,0,0,0,0,-1,1651,1597,7.99732,-11.231
434,-573,7.64856,11.3646,-0.0136244,-0.0301508,0.0183153,-0.00179453,-0.0419807,0.573488,0.0274085,0.0402556,1658,1597,7.64856,-11.3647
441,-573,7.35498,11.4115,-0.0134824,-0.0275224,0.0169226,-0.00218156,-0.0388233,0.588785,0.0251865,0.0272355,1665,1597,7.35495,-11.4115
448,-573,7.28394,11.3328,-0.0127835,-0.0244093,0.0152992,-0.00223018,-0.0349627,0.603847,0.0226018,0.0180307,1672,1597,7.28395,-11.3328
455,-573,7.26099,11.1473,-0.0117854,-0.0215562,0.0135303,-0.00228551,-0.0310561,0.612146,0.0199858,0.0157716,1679,1597,7.26097,-11.1473
462,-573,7.27881,10.955,-0.0104202,-0.0185715,0.0117759,-0.00203459,-0.0269571,0.618801,0.017333,0.0171455,1686,1597,7.27878,-10.955
469,-573,7.28711,10.7911,-0.00931625,-0.0157066,0.0102034,-0.00181941,-0.0232034,0.633662,0.0148995,0.0143321,1693,1597,7.28711,-10.7911
476,-573,7.28894,10.6295,-0.00790444,-0.0126689,0.0083009,-0.00165073,-0.0189227,0.64566,0.0121025,0.0129789,1700,1597,7.28889,-10.6295
483,-573,7.26782,10.4672,-0.00612643,-0.00953291,0.00643899,-0.00116922,-0.0144901,0.656099,0.00929488,0.0105961,1707,1597,7.26776,-10.4672
490,-573,7.25073,10.3082,-0.00419325,-0.00664883,0.00461532,-0.000645199,-0.0101969,0.655397,0.00659338,0.00990432,1714,1597,7.25075,-10.3082
497,-573,7.27527,10.1046,-0.00253436,-0.00396797,0.00292616,-0.000238492,-0.00626384,0.665282,0.00409871,0.0148646,1721,1597,7.27524,-10.1047
504,-573,7.29443,9.90955,-0.00111088,-0.0014763,0.00148822,0.000205809,-0.00279299,0.724317,0.00193425,0.0170519,1728,1597,7.29439,-9.90955
511,-573,7.27966,9.73279,0.000252367,0.000972724,6.38014e-05,0.000978331,0.000246759,1.48314,0.000587503,0.0184289,1735,1597,7.27964,-9.7328
518,-573,7.2804,9.56567,0.00137081,0.00293029,-0.00119359,0.00357626,0.00072484,-1.07473,0.00218305,0.0140205,1742,1597,7.28037,-9.5657
525,-573,7.27856,9.38782,0.00234367,0.00447155,-0.00218135,0.00583459,0.000980627,-1.0123,0.00360756,0.0162491,1749,1597,7.27853,-9.38783
532,-573,7.29797,9.19958,0.00298027,0.0056007,-0.00282127,0.00740115,0.00117982,-1.00278,0.00459163,0.0155141,1756,1597,7.298,-9.19956
539,-573,7.29309,9.0376,0.00332765,0.00641072,-0.0032043,0.008425,0.00131336,-1.0096,0.0052341,0.0195378,1763,1597,7.29309,-9.03759
546,-573,7.35815,8.85388,0.00374254,0.00672938,-0.00338479,0.00893557,0.00153635,-0.99316,0.00551671,0.0303832,1770,1597,7.35811,-8.85394
553,-573,7.22668,8.7146,0.00456724,0.00772708,-0.00345113,0.00994275,0.00235158,-1.00006,0.00600026,0.0494299,1777,1597,7.22667,-8.7146
560,-573,7.17908,8.53894,0,0,0,0,0,0,0,-1,1784,1597,7.17909,-8.539
567,-573,4.99597,2.77759,0,0,0,0,0,0,0,-1,1791,1597,4.99596,-2.7776
574,-573,0.83374,5.7041,0,0,0,0,0,0,0,-1,1798,1597,0.833718,-5.70405
581,-573,-0.224854,7.41602,0,0,0,0,0,0,0,-1,1805,1597,-0.224904,-7.41596
588,-573,-0.134033,7.67065,0,0,0,0,0,0,0,-1,1812,1597,-0.134037,-7.67063
595,-573,-0.0825195,8.35083,0,0,0,0,0,0,0,-1,1819,1597,-0.0824684,-8.35088
602,-573,0,0,0,0,0,0,0,0,0,-1,1826,1597,0,0
609,-573,0,0,0,0,0,0,0,0,0,-1,1833,1597,0,0
616,-573,0,0,0,0,0,0,0,0,0,-1,1840,1597,0,0
623,-573,0,0,0,0,0,0,0,0,0,-1,1847,1597,0,0
630,-573,0,0,0,0,0,0,0,0,0,-1,1854,1597,0,0
637,-573,0,0,0,0,0,0,0,0,0,-1,1861,1597,0,0
644,-573,0,0,0,0,0,0,0,0,0,-1,1868,1597,0,0
651,-573,0,0,0,0,0,0,0,0,0,-1,1875,1597,0,0
658,-573,0,0,0,0,0,0,0,0,0,-1,1882,1597,0,0
665,-573,0,0,0,0,0,0,0,0,0,-1,1889,1597,0,0
672,-573,0,0,0,0,0,0,0,0,0,-1,1896,1597,0,0
679,-573,0,0,0,0,0,0,0,0,0,-1,1903,1597,0,0
686,-573,0,0,0,0,0,0,0,0,0,-1,1910,1597,0,0
693,-573,0,0,0,0,0,0,0,0,0,-1,1917,1597,0,0
700,-573,0,0,0,0,0,0,0,0,0,-1,1924,1597,0,0
707,-573,0,0,0,0,0,0,0,0,0,-1,1931,1597,0,0
714,-573,0,0,0,0,0,0,0,0,0,-1,1938,1597,0,0
721,-573,0,0,0,0,0,0,0,0,0,-1,1945,1597,0,0
728,-573,0,0,0,0,0,0,0,0,0,-1,1952,1597,0,0
735,-573,0,0,0,0,0,0,0,0,0,-1,1959,1597,0,0
742,-573,0,0,0,0,0,0,0,0,0,-1,1966,1597,0,0
749,-573,0,0,0,0,0,0,0,0,0,-1,1973,1597,0,0
756,-573,0,0,0,0,0,0,0,0,0,-1,1980,1597,0,0
763,-573,0,0,0,0,0,0,0,0,0,-1,1987,1597,0,0
770,-573,0,0,0,0,0,0,0,0,0,-1,1994,1597,0,0
777,-573,0,0,0,0,0,0,0,0,0,-1,2001,1597,0,0
784,-573,0,0,0,0,0,0,0,0,0,-1,2008,1597,0,0
791,-573,0,0,0,0,0,0,0,0,0,-1,2015,1597,0,0
798,-573,0,0,0,0,0,0,0,0,0,-1,2022,1597,0,0
805,-573,0,0,0,0,0,0,0,0,0,-1,2029,1597,0,0
812,-573,0,0,0,0,0,0,0,0,0,-1,2036,1597,0,0
-700,-580,0,0,0,0,0,0,0,0,0,-1,524,1604,0,0
-693,-580,0,0,0,0,0,0,0,0,0,-1,531,1604,0,0
-686,-580,0,0,0,0,0,0,0,0,0,-1,538,1604,0,0
-679,-580,0,0,0,0,0,0,0,0,0,-1,545,1604,0,0
-672,-580,0,0,0,0,0,0,0,0,0,-1,552,1604,0,0
-665,-580,0,0,0,0,0,0,0,0,0,-1,559,1604,0,0
-658,-580,0,0,0,0,0,0,0,0,0,-1,566,1604,0,0
-651,-580,0,0,0,0,0,0,0,0,0,-1,573,1604,0,0
-644,-580,0,0,0,0,0,0,0,0,0,-1,580,1604,0,0
-637,-580,0,0,0,0,0,0,0,0,0,-1,587,1604,0,0
-630,-580,0,0,0,0,0,0,0,0,0,-1,594,1604,0,0
-623,-580,0,0,0,0,0,0,0,0,0,-1,601,1604,0,0
-616,-580,0,0,0,0,0,0,0,0,0,-1,608,1604,0,0
-609,-580,0,0,0,0,0,0,0,0,0,-1,615,1604,0,0
-602,-580,0,0,0,0,0,0,0,0,0,-1,622,1604,0,0
-595,-580,0,0,0,0,0,0,0,0,0,-1,629,1604,0,0
-588,-580,0,0,0,0,0,0,0,0,0,-1,636,1604,0,0
-581,-580,0,0,0,0,0,0,0,0,0,-1,643,1604,0,0
-574,-580,0,0,0,0,0,0,0,0,0,-1,650,1604,0,0
-567,-580,0,0,0,0,0,0,0,0,0,-1,657,1604,0,0
-560,-580,0,0,0,0,0,0,0,0,0,-1,664,1604,0,0
-553,-580,0,0,0,0,0,0,0,0,0,-1,671,1604,0,0
-546,-580,0,0,0,0,0,0,0,0,0,-1,678,1604,0,0
-539,-580,0,0,0,0,0,0,0,0,0,-1,685,1604,0,0
-532,-580,0,0,0,0,0,0,0,0,0,-1,692,1604,0,0
-525,-580,0,0,0,0,0,0,0,0,0,-1,699,1604,0,0
-518,-580,0,0,0,0,0,0,0,0,0,-1,706,1604,0,0
-511,-580,0,0,0,0,0,0,0,0,0,-1,713,1604,0,0
-504,-580,0,0,0,0,0,0,0,0,0,-1,720,1604,0,0
-497,-580,0,0,0,0,0,0,0,0,0,-1,727,1604,0,0
-490,-580,0,0,0,0,0,0,0,0,0,-1,734,1604,0,0
-483,-580,0,0,0,0,0,0,0,0,0,-1,741,1604,0,0
-476,-580,0,0,0,0,0,0,0,0,0,-1,748,1604,0,0
-469,-580,-0.574341,-4.44324,0,0,0,0,0,0,0,-1,755,1604,-0.574312,4.44329
-462,-580,-0.117065,-1.59436,0,0,0,0,0,0,0,-1,762,1604,-0.117043,1.59442
-455,-580,0.0982666,-0.292969,0,0,0,0,0,0,0,-1,769,1604,0.098271,0.292982
-448,-580,-0.0664673,1.10571,0,0,0,0,0,0,0,-1,776,1604,-0.0664391,-1.10574
-441,-580,-0.23114,2.50439,0,0,0,0,0,0,0,-1,783,1604,-0.231149,-2.50445
-434,-580,-1.508,6.62341,0,0,0,0,0,0,0,-1,790,1604,-1.50798,-6.62347
-427,-580,0.35083,4.22607,0,0,0,0,0,0,0,-1,797,1604,0.35084,-4.22608
-420,-580,1.88684,6.48816,0,0,0,0,0,0,0,-1,804,1604,1.88685,-6.48821
-413,-580,1.61627,7.39014,0,0,0,0,0,0,0,-1,811,1604,1.61626,-7.39017
-406,-580,1.50879,7.6394,-0.00220236,0.0124564,0.006485,0.0149135,-0.00465945,1.20862,0.0118061,0.0381313,818,1604,1.5088,-7.63935
-399,-580,1.45129,7.85828,-0.00249509,0.00824248,0.00474849,0.0100411,-0.00429373,1.20871,0.00849507,0.0160226,825,1604,1.45129,-7.85827
-392,-580,1.46033,8.07153,-0.00245284,0.00463853,0.00328117,0.00592378,-0.00373809,1.19746,0.00562566,0.0107967,832,1604,1.46036,-8.07155
-385,-580,1.45679,8.27063,-0.00227416,0.00228012,0.00213789,0.00312643,-0.00312047,1.19386,0.00360665,0.0103969,839,1604,1.45677,-8.27058
-378,-580,1.44165,8.47986,-0.00195802,0.000976634,0.00144689,0.00157002,-0.0025514,1.1816,0.00240188,0.0133303,846,1604,1.44164,-8.47982
-371,-580,1.43616,8.71716,-0.00159787,0.000100178,0.000909758,0.000495542,-0.00199324,1.16084,0.00152115,0.0132703,853,1604,1.43618,-8.71712
-364,-580,1.41522,8.91626,-0.00122489,-0.00063658,0.000424845,-0.000413996,-0.00144748,1.0882,0.000860836,0.0191845,860,1604,1.41522,-8.91631
-357,-580,1.4267,9.09705,-0.000790498,-0.000890677,-5.25984e-05,-0.000767955,-0.000913221,-0.404913,0.000566633,0.0140247,867,1604,1.42668,-9.09708
-350,-580,1.44098,9.30176,-0.000491426,-0.00129646,-0.000562013,-0.000202655,-0.00158523,-0.474639,0.000996163,0.0110232,874,1604,1.44096,-9.30172
-343,-580,1.44482,9.505,-1.77711e-06,-0.0012723,-0.000669562,0.000285929,-0.00156001,-0.405839,0.00114725,0.0110545,881,1604,1.44483,-9.50499
-336,-580,1.47272,9.67029,0.000605553,-0.0010675,-0.000629329,0.000815847,-0.00127779,-0.32249,0.00121853,0.0188794,888,1604,1.4727,-9.67026
-329,-580,1.45728,9.88391,0.00106947,-0.000787714,-0.000640023,0.00126867,-0.000986913,-0.301734,0.00130564,0.0174585,895,1604,1.45726,-9.88393
-322,-580,1.4386,10.0961,0.00142898,-0.000584025,-0.000576543,0.00158241,-0.000737457,-0.260097,0.00136867,0.0181351,902,1604,1.43862,-10.0961
-315,-580,1.47375,10.2496,0.00185542,-0.000386471,-0.000349328,0.00190859,-0.000439642,-0.151049,0.00144146,0.0149796,909,1604,1.47374,-10.2496
-308,-580,1.51251,10.4534,0.00231226,-0.00031892,-5.25024e-05,0.00231331,-0.000319967,-0.0199434,0.00165918,0.01681,916,1604,1.5125,-10.4534
-301,-580,1.53137,10.5894,0.00285952,-0.000311809,0.000380973,0.00290465,-0.000356933,0.117896,0.00206571,0.0156683,923,1604,1.53134,-10.5894
-294,-580,1.52917,10.7415,0.00353113,-0.000321131,0.000932614,0.00374503,-0.000535035,0.22546,0.00269281,0.0203847,930,1604,1.52919,-10.7414
-287,-580,1.39673,10.8151,0.00419721,-0.00102086,0.00144527,0.00457077,-0.00139442,0.252935,0.00360308,0.0418228,937,1604,1.3967,-10.8151
-280,-580,1.21594,10.8652,0,0,0,0,0,0,0,-1,944,1604,1.21594,-10.8652
-273,-580,1.16748,11.0464,0,0,0,0,0,0,0,-1,951,1604,1.16748,-11.0464
-266,-580,0.494202,8.78955,0,0,0,0,0,0,0,-1,958,1604,0.494174,-8.78958
-259,-580,1.31091,9.11536,0,0,0,0,0,0,0,-1,965,1604,1.31092,-9.11539
-252,-580,1.07629,7.74097,0,0,0,0,0,0,0,-1,972,1604,1.07627,-7.74101
-245,-580,3.80304,9.16028,0,0,0,0,0,0,0,-1,979,1604,3.80306,-9.16034
-238,-580,-10.3588,1.57556,0,0,0,0,0,0,0,-1,986,1604,-10.3588,-1.5755
-231,-580,-8.31555,2.04456,0,0,0,0,0,0,0,-1,993,1604,-8.31553,-2.04457
-224,-580,-5.93512,5.573,0,0,0,0,0,0,0,-1,1000,1604,-5.93513,-5.57301
-217,-580,-4.62665,6.6665,0,0,0,0,0,0,0,-1,1007,1604,-4.62663,-6.66649
-210,-580,-3.7674,8.03394,0,0,0,0,0,0,0,-1,1014,1604,-3.76738,-8.03397
-203,-580,-3.01923,7.66492,0,0,0,0,0,0,0,-1,1021,1604,-3.01924,-7.66493
-196,-580,-3.65857,7.91418,0,0,0,0,0,0,0,-1,1028,1604,-3.65863,-7.9142
-189,-580,-4.58252,7.59058,0,0,0,0,0,0,0,-1,1035,1604,-4.58256,-7.59057
-182,-580,-5.45874,7.65942,0,0,0,0,0,0,0,-1,1042,1604,-5.45876,-7.65939
-175,-580,-6.38977,7.55005,0,0,0,0,0,0,0,-1,1049,1604,-6.38981,-7.5501
-168,-580,0,0,0,0,0,0,0,0,0,-1,1056,1604,0,0
-161,-580,0,0,0,0,0,0,0,0,0,-1,1063,1604,0,0
-154,-580,0,0,0,0,0,0,0,0,0,-1,1070,1604,0,0
-147,-580,0,0,0,0,0,0,0,0,0,-1,1077,1604,0,0
-140,-580,0,0,0,0,0,0,0,0,0,-1,1084,1604,0,0
-133,-580,0,0,0,0,0,0,0,0,0,-1,1091,1604,0,0
-126,-580,0,0,0,0,0,0,0,0,0,-1,1098,1604,0,0
-119,-580,0,0,0,0,0,0,0,0,0,-1,1105,1604,0,0
-112,-580,0,0,0,0,0,0,0,0,0,-1,1112,1604,0,0
-105,-580,0,0,0,0,0,0,0,0,0,-1,1119,1604,0,0
-98,-580,0,0,0,0,0,0,0,0,0,-1,1126,1604,0,0
-91,-580,0,0,0,0,0,0,0,0,0,-1,1133,1604,0,0
-84,-580,0,0,0,0,0,0,0,0,0,-1,1140,1604,0,0
-77,-580,0,0,0,0,0,0,0,0,0,-1,1147,1604,0,0
-70,-580,0,0,0,0,0,0,0,0,0,-1,1154,1604,0,0
-63,-580,0,0,0,0,0,0,0,0,0,-1,1161,1604,0,0
-56,-580,0,0,0,0,0,0,0,0,0,-1,1168,1604,0,0
-49,-580,0,0,0,0,0,0,0,0,0,-1,1175,1604,0,0
-42,-580,0,0,0,0,0,0,0,0,0,-1,1182,1604,0,0
-35,-580,0,0,0,0,0,0,0,0,0,-1,1189,1604,0,0
-28,-580,0,0,0,0,0,0,0,0,0,-1,1196,1604,0,0
-21,-580,0,0,0,0,0,0,0,0,0,-1,1203,1604,0,0
-14,-580,0,0,0,0,0,0,0,0,0,-1,1210,1604,0,0
-7,-580,0,0,0,0,0,0,0,0,0,-1,1217,1604,0,0
0,-580,0,0,0,0,0,0,0,0,0,-1,1224,1604,0,0
7,-580,0,0,0,0,0,0,0,0,0,-1,1231,1604,0,0
14,-580,0,0,0,0,0,0,0,0,0,-1,1238,1604,0,0
21,-580,0,0,0,0,0,0,0,0,0,-1,1245,1604,0,0
28,-580,0,0,0,0,0,0,0,0,0,-1,1252,1604,0,0
35,-580,0,0,0,0,0,0,0,0,0,-1,1259,1604,0,0
42,-580,0,0,0,0,0,0,0,0,0,-1,1266,1604,0,0
49,-580,0,0,0,0,0,0,0,0,0,-1,1273,1604,0,0
56,-580,0,0,0,0,0,0,0,0,0,-1,1280,1604,0,0
63,-580,0,0,0,0,0,0,0,0,0,-1,1287,1604,0,0
70,-580,0,0,0,0,0,0,0,0,0,-1,1294,1604,0,0
77,-580,0,0,0,0,0,0,0,0,0,-1,1301,1604,0,0
84,-580,0,0,0,0,0,0,0,0,0,-1,1308,1604,0,0
91,-580,0,0,0,0,0,0,0,0,0,-1,1315,1604,0,0
98,-580,0,0,0,0,0,0,0,0,0,-1,1322,1604,0,0
105,-580,0,0,0,0,0,0,0,0,0,-1,1329,1604,0,0
112,-580,0,0,0,0,0,0,0,0,0,-1,1336,1604,0,0
119,-580,0,0,0,0,0,0,0,0,0,-1,1343,1604,0,0
126,-580,0,0,0,0,0,0,0,0,0,-1,1350,1604,0,0
133,-580,0,0,0,0,0,0,0,0,0,-1,1357,1604,0,0
140,-580,0,0,0,0,0,0,0,0,0,-1,1364,1604,0,0
147,-580,0,0,0,0,0,0,0,0,0,-1,1371,1604,0,0
154,-580,0,0,0,0,0,0,0,0,0,-1,1378,1604,0,0
161,-580,0,0,0,0,0,0,0,0,0,-1,1385,1604,0,0
168,-580,0,0,0,0,0,0,0,0,0,-1,1392,1604,0,0
175,-580,0,0,0,0,0,0,0,0,0,-1,1399,1604,0,0
182,-580,0,0,0,0,0,0,0,0,0,-1,1406,1604,0,0
189,-580,0,0,0,0,0,0,0,0,0,-1,1413,1604,0,0
196,-580,0,0,0,0,0,0,0,0,0,-1,1420,1604,0,0
203,-580,0,0,0,0,0,0,0,0,0,-1,1427,1604,0,0
210,-580,0,0,0,0,0,0,0,0,0,-1,1434,1604,0,0
217,-580,0,0,0,0,0,0,0,0,0,-1,1441,1604,0,0
224,-580,0,0,0,0,0,0,0,0,0,-1,1448,1604,0,0
231,-580,0,0,0,0,0,0,0,0,0,-1,1455,1604,0,0
238,-580,0,0,0,0,0,0,0,0,0,-1,1462,1604,0,0
245,-580,0,0,0,0,0,0,0,0,0,-1,1469,1604,0,0
252,-580,0,0,0,0,0,0,0,0,0,-1,1476,1604,0,0
259,-580,0,0,0,0,0,0,0,0,0,-1,1483,1604,0,0
266,-580,0,0,0,0,0,0,0,0,0,-1,1490,1604,0,0
273,-580,0,0,0,0,0,0,0,0,0,-1,1497,1604,0,0
280,-580,0,0,0,0,0,0,0,0,0,-1,1504,1604,0,0
287,-580,0,0,0,0,0,0,0,0,0,-1,1511,1604,0,0
294,-580,4.0437,0.177368,0,0,0,0,0,0,0,-1,1518,1604,4.04369,-0.177371
301,-580,4.89465,1.3446,0,0,0,0,0,0,0,-1,1525,1604,4.89467,-1.34463
308,-580,5.5979,4.69128,0,0,0,0,0,0,0,-1,1532,1604,5.59784,-4.69123
315,-580,10.5341,6.62097,0,0,0,0,0,0,0,-1,1539,1604,10.5341,-6.62096
322,-580,10.2366,7.50281,0,0,0,0,0,0,0,-1,1546,1604,10.2366,-7.50282
329,-580,10.5962,8.69641,0,0,0,0,0,0,0,-1,1553,1604,10.5962,-8.69642
336,-580,3.66431,1.58862,0,0,0,0,0,0,0,-1,1560,1604,3.6643,-1.58864
343,-580,3.32227,1.39636,0,0,0,0,0,0,0,-1,1567,1604,3.32222,-1.39633
350,-580,8.71277,4.0564,0,0,0,0,0,0,0,-1,1574,1604,8.71271,-4.05638
357,-580,8.52332,3.08154,0,0,0,0,0,0,0,-1,1581,1604,8.52332,-3.08157
364,-580,8.25818,2.07605,0,0,0,0,0,0,0,-1,1588,1604,8.25812,-2.07608
371,-580,7.42114,7.14282,0,0,0,0,0,0,0,-1,1595,1604,7.42119,-7.14281
378,-580,7.9718,6.6731,0,0,0,0,0,0,0,-1,1602,1604,7.9718,-6.67307
385,-580,8.52246,6.20337,0,0,0,0,0,0,0,-1,1609,1604,8.52241,-6.20334
392,-580,6.5498,-2.15625,0,0,0,0,0,0,0,-1,1616,1604,6.54984,2.15626
399,-580,6.52625,10.7247,0,0,0,0,0,0,0,-1,1623,1604,6.52628,-10.7248
406,-580,7.49927,11.6031,0,0,0,0,0,0,0,-1,1630,1604,7.49925,-11.6032
413,-580,6.64685,11.7343,-0.00476678,-0.0251163,0.015315,0.0034453,-0.0333284,0.492195,0.0234519,0.0462348,1637,1604,6.64687,-11.7342
420,-580,7.26196,11.6321,-0.00551409,-0.0230498,0.0144009,0.00257815,-0.031142,0.511952,0.0216719,0.0423032,1644,1604,7.26191,-11.6321
427,-580,7.60205,11.575,-0.00664846,-0.0214483,0.0137954,0.00160636,-0.0297031,0.539225,0.0203587,0.0344926,1651,1604,7.6021,-11.5749
434,-580,7.23669,11.5123,-0.00728382,-0.0196315,0.0128297,0.000780223,-0.0276956,0.561144,0.0187292,0.0247328,1658,1604,7.23672,-11.5123
441,-580,7.09399,11.4468,-0.00742662,-0.0176415,0.0116666,0.000201563,-0.0252697,0.579075,0.016914,0.0110958,1665,1604,7.09394,-11.4468
448,-580,7.08728,11.3007,-0.00714997,-0.0154583,0.0102863,-0.000210641,-0.0223977,0.593486,0.0148621,0.0114116,1672,1604,7.08732,-11.3007
455,-580,7.11487,11.1438,-0.00668126,-0.0135196,0.0088953,-0.000570624,-0.0196302,0.601914,0.0129008,0.0193003,1679,1604,7.11481,-11.1438
462,-580,7.09937,10.9597,-0.00592113,-0.0115085,0.00754125,-0.000672748,-0.0167569,0.608007,0.0109539,0.0219834,1686,1604,7.09937,-10.9597
469,-580,7.09045,10.7979,-0.00542037,-0.00959717,0.00634818,-0.00082589,-0.0141916,0.626486,0.00919817,0.0179772,1693,1604,7.09043,-10.7978
476,-580,7.12085,10.6277,-0.00466593,-0.00746049,0.00487107,-0.000995694,-0.0111307,0.645722,0.00711186,0.0128779,1700,1604,7.12085,-10.6276
483,-580,7.10376,10.465,-0.00353162,-0.00509361,0.00344694,-0.000778303,-0.00784693,0.673991,0.00499211,0.0114378,1707,1604,7.10372,-10.4649
490,-580,7.08704,10.2975,-0.00216118,-0.00293593,0.00202597,-0.000485884,-0.00461123,0.690936,0.00292567,0.0137075,1714,1604,7.08701,-10.2974
497,-580,7.08081,10.1205,-0.000995949,-0.000852404,0.000732605,-0.000188064,-0.00166029,0.834227,0.0010498,0.0111833,1721,1604,7.08086,-10.1204
504,-580,7.08777,9.92102,1.05972e-05,0.00117315,-0.000348567,0.00126965,-8.5903e-05,-1.30071,0.000876473,0.0163621,1728,1604,7.08777,-9.921
511,-580,7.10706,9.74292,0.000987145,0.00322458,-0.00142267,0.0039157,0.000296019,-1.11858,0.0025176,0.0171871,1735,1604,7.107,-9.74295
518,-580,7.1366,9.57361,0.00184764,0.00499926,-0.00227431,0.00619033,0.000656559,-1.08836,0.00392637,0.0153979,1742,1604,7.13659,-9.57355
525,-580,7.12122,9.39294,0.0027606,0.00668974,-0.00306042,0.00836189,0.00108845,-1.07074,0.00524953,0.0164083,1749,1604,7.12125,-9.39291
532,-580,7.12756,9.22266,0.00331058,0.00802496,-0.00347223,0.00986453,0.00147101,-1.0836,0.00614499,0.0209046,1756,1604,7.12761,-9.22264
539,-580,7.14539,9.10925,0.00364109,0.00916902,-0.00374268,0.0110577,0.00175241,-1.10345,0.00686266,0.0265373,1763,1604,7.1454,-9.10921
546,-580,7.28223,8.90942,0.00418035,0.0101752,-0.00401942,0.0121918,0.00216376,-1.10578,0.0075112,0.0416303,1770,1604,7.28224,-8.90948
553,-580,6.86414,8.73828,0,0,0,0,0,0,0,-1,1777,1604,6.86413,-8.73823
560,-580,7.09021,6.49438,0,0,0,0,0,0,0,-1,1784,1604,7.09016,-6.4944
567,-580,3.87708,4.0647,0,0,0,0,0,0,0,-1,1791,1604,3.87711,-4.06471
574,-580,2.31653,5.62952,0,0,0,0,0,0,0,-1,1798,1604,2.31654,-5.62947
581,-580,1.60876,6.67664,0,0,0,0,0,0,0,-1,1805,1604,1.60873,-6.67667
588,-580,1.38684,7.14441,0,0,0,0,0,0,0,-1,1812,1604,1.38689,-7.14443
595,-580,0,0,0,0,0,0,0,0,0,-1,1819,1604,0,0
602,-580,0,0,0,0,0,0,0,0,0,-1,1826,1604,0,0
609,-580,0,0,0,0,0,0,0,0,0,-1,1833,1604,0,0
616,-580,0,0,0,0,0,0,0,0,0,-1,1840,1604,0,0
623,-580,0,0,0,0,0,0,0,0,0,-1,1847,1604,0,0
630,-580,0,0,0,0,0,0,0,0,0,-1,1854,1604,0,0
637,-580,0,0,0,0,0,0,0,0,0,-1,1861,1604,0,0
644,-580,0,0,0,0,0,0,0,0,0,-1,1868,1604,0,0
651,-580,0,0,0,0,0,0,0,0,0,-1,1875,1604,0,0
658,-580,0,0,0,0,0,0,0,0,0,-1,1882,1604,0,0
665,-580,0,0,0,0,0,0,0,0,0,-1,1889,1604,0,0
672,-580,0,0,0,0,0,0,0,0,0,-1,1896,1604,0,0
679,-580,0,0,0,0,0,0,0,0,0,-1,1903,1604,0,0
686,-580,0,0,0,0,0,0,0,0,0,-1,1910,1604,0,0
693,-580,0,0,0,0,0,0,0,0,0,-1,1917,1604,0,0
700,-580,0,0,0,0,0,0,0,0,0,-1,1924,1604,0,0
707,-580,0,0,0,0,0,0,0,0,0,-1,1931,1604,0,0
714,-580,0,0,0,0,0,0,0,0,0,-1,1938,1604,0,0
721,-580,0,0,0,0,0,0,0,0,0,-1,1945,1604,0,0
728,-580,0,0,0,0,0,0,0,0,0,-1,1952,1604,0,0
735,-580,0,0,0,0,0,0,0,0,0,-1,1959,1604,0,0
742,-580,0,0,0,0,0,0,0,0,0,-1,1966,1604,0,0
749,-580,0,0,0,0,0,0,0,0,0,-1,1973,1604,0,0
756,-580,0,0,0,0,0,0,0,0,0,-1,1980,1604,0,0
763,-580,0,0,0,0,0,0,0,0,0,-1,1987,1604,0,0
770,-580,0,0,0,0,0,0,0,0,0,-1,1994,1604,0,0
777,-580,0,0,0,0,0,0,0,0,0,-1,2001,1604,0,0
784,-580,0,0,0,0,0,0,0,0,0,-1,2008,1604,0,0
791,-580,0,0,0,0,0,0,0,0,0,-1,2015,1604,0,0
798,-580,0,0,0,0,0,0,0,0,0,-1,2022,1604,0,0
805,-580,0,0,0,0,0,0,0,0,0,-1,2029,1604,0,0
812,-580,0,0,0,0,0,0,0,0,0,-1,2036,1604,0,0
-700,-587,0,0,0,0,0,0,0,0,0,-1,524,1611,0,0
-693,-587,0,0,0,0,0,0,0,0,0,-1,531,1611,0,0
-686,-587,0,0,0,0,0,0,0,0,0,-1,538,1611,0,0
-679,-587,0,0,0,0,0,0,0,0,0,-1,545,1611,0,0
-672,-587,0,0,0,0,0,0,0,0,0,-1,552,1611,0,0
-665,-587,0,0,0,0,0,0,0,0,0,-1,559,1611,0,0
-658,-587,0,0,0,0,0,0,0,0,0,-1,566,1611,0,0
-651,-587,0,0,0,0,0,0,0,0,0,-1,573,1611,0,0
-644,-587,0,0,0,0,0,0,0,0,0,-1,580,1611,0,0
-637,-587,0,0,0,0,0,0,0,0,0,-1,587,1611,0,0
-630,-587,0,0,0,0,0,0,0,0,0,-1,594,1611,0,0
-623,-587,0,0,0,0,0,0,0,0,0,-1,601,1611,0,0
-616,-587,0,0,0,0,0,0,0,0,0,-1,608,1611,0,0
-609,-587,0,0,0,0,0,0,0,0,0,-1,615,1611,0,0
-602,-587,0,0,0,0,0,0,0,0,0,-1,622,1611,0,0
-595,-587,0,0,0,0,0,0,0,0,0,-1,629,1611,0,0
-588,-587,0,0,0,0,0,0,0,0,0,-1,636,1611,0,0
-581,-587,0,0,0,0,0,0,0,0,0,-1,643,1611,0,0
-574,-587,0,0,0,0,0,0,0,0,0,-1,650,1611,0,0
-567,-587,0,0,0,0,0,0,0,0,0,-1,657,1611,0,0
-560,-587,0,0,0,0,0,0,0,0,0,-1,664,1611,0,0
-553,-587,0,0,0,0,0,0,0,0,0,-1,671,1611,0,0
-546,-587,0,0,0,0,0,0,0,0,0,-1,678,1611,0,0
-539,-587,0,0,0,0,0,0,0,0,0,-1,685,1611,0,0
-532,-587,0,0,0,0,0,0,0,0,0,-1,692,1611,0,0
-525,-587,0,0,0,0,0,0,0,0,0,-1,699,1611,0,0
-518,-587,0,0,0,0,0,0,0,0,0,-1,706,1611,0,0
-511,-587,0,0,0,0,0,0,0,0,0,-1,713,1611,0,0
-504,-587,0,0,0,0,0,0,0,0,0,-1,720,1611,0,0
-497,-587,0,0,0,0,0,0,0,0,0,-1,727,1611,0,0
-490,-587,0,0,0,0,0,0,0,0,0,-1,734,1611,0,0
-483,-587,0,0,0,0,0,0,0,0,0,-1,741,1611,0,0
-476,-587,0,0,0,0,0,0,0,0,0,-1,748,1611,0,0
-469,-587,0,0,0,0,0,0,0,0,0,-1,755,1611,0,0
-462,-587,-0.729492,-4.46301,0,0,0,0,0,0,0,-1,762,1611,-0.729484,4.46305
-455,-587,-0.965698,-3.32373,0,0,0,0,0,0,0,-1,769,1611,-0.965729,3.32372
-448,-587,-1.10828,-0.327637,0,0,0,0,0,0,0,-1,776,1611,-1.10829,0.327577
-441,-587,-3.53021,4.56543,0,0,0,0,0,0,0,-1,783,1611,-3.53023,-4.56538
-434,-587,-2.36865,6.41638,0,0,0,0,0,0,0,-1,790,1611,-2.36868,-6.41644
-427,-587,-1.47821,8.11377,0,0,0,0,0,0,0,-1,797,1611,-1.4782,-8.11378
-420,-587,-0.647156,10.1157,0,0,0,0,0,0,0,-1,804,1611,-0.647128,-10.1158
-413,-587,1.04486,7.09229,0,0,0,0,0,0,0,-1,811,1611,1.04489,-7.09224
-406,-587,1.32013,7.43054,-0.00366316,0.0140802,0.00827889,0.017343,-0.00692601,1.19537,0.0144356,0.0477148,818,1611,1.32011,-7.43057
-399,-587,1.68512,7.82751,-0.00392166,0.00897186,0.0059904,0.0113254,-0.00627522,1.19644,0.0103002,0.034575,825,1611,1.68509,-7.82747
-392,-587,1.7254,7.99939,-0.00378971,0.00484281,0.00416117,0.006522,-0.0054689,1.18724,0.00693184,0.0239916,832,1611,1.72542,-7.99933
-385,-587,1.64551,8.24988,-0.00343775,0.00219939,0.00276759,0.00333099,-0.00456936,1.18266,0.00457991,0.0141354,839,1611,1.64548,-8.24986
-378,-587,1.61426,8.48389,-0.00293983,0.000769355,0.00190794,0.00157554,-0.00374602,1.17101,0.00315644,0.0127231,846,1611,1.61427,-8.48386
-371,-587,1.60321,8.73157,-0.00236435,-0.000178628,0.00129009,0.00041927,-0.00296225,1.13681,0.0021284,0.0141232,853,1611,1.60319,-8.73154
-364,-587,1.61292,8.95093,-0.00179597,-0.000936617,0.000768298,-0.000486009,-0.00224658,1.04036,0.00136487,0.0175299,860,1611,1.61295,-8.95097
-357,-587,1.63885,9.13733,-0.0011825,-0.00111937,0.000304488,-0.000844811,-0.00145705,0.837046,0.000844793,0.0167359,867,1611,1.63882,-9.13728
-350,-587,1.63159,9.29822,-0.000738334,-0.00138343,-0.000198121,-0.000682346,-0.00143942,-0.275412,0.00083142,0.0100966,874,1611,1.63161,-9.29822
-343,-587,1.6347,9.49731,-0.000160313,-0.00126991,-0.000326156,-7.1544e-05,-0.00135868,-0.265731,0.000882903,0.0122629,881,1611,1.63471,-9.49733
-336,-587,1.61487,9.70081,0.000527264,-0.00107927,-0.000344111,0.000597868,-0.00114988,-0.202369,0.0010257,0.0122334,888,1611,1.61485,-9.70082
-329,-587,1.61829,9.90979,0.00102855,-0.000725181,-0.000387517,0.00111036,-0.000806993,-0.208063,0.00111159,0.0146694,895,1611,1.6183,-9.90983
-322,-587,1.64148,10.1051,0.00134705,-0.000493235,-0.000377606,0.00142151,-0.000567703,-0.194711,0.00118321,0.0175173,902,1611,1.64146,-10.1051
-315,-587,1.6543,10.248,0.00167443,-0.000338406,-0.000246841,0.00170426,-0.000368235,-0.120259,0.00127674,0.0142724,909,1611,1.65431,-10.2481
-308,-587,1.64575,10.4305,0.00196585,-0.000338073,-0.000123296,0.00197243,-0.000344653,-0.0533129,0.00144361,0.0142002,916,1611,1.64576,-10.4306
-301,-587,1.66376,10.6124,0.00227858,-0.00048991,5.59013e-05,0.00227971,-0.000491038,0.020181,0.00170719,0.0124336,923,1611,1.66377,-10.6124
-294,-587,1.6908,10.7716,0.00266956,-0.000648561,0.000281065,0.0026932,-0.000672201,0.0839095,0.00205649,0.0134868,930,1611,1.6908,-10.7717
-287,-587,1.7005,10.9327,0.00302274,-0.00148927,0.000433926,0.0030641,-0.00153063,0.0950109,0.00270156,0.0253914,937,1611,1.7005,-10.9328
-280,-587,1.64209,11.0752,0.00331513,-0.0031979,0.000355036,0.00333442,-0.00321719,0.0542972,0.00378278,0.038171,944,1611,1.64211,-11.0752
-273,-587,1.51544,11.1279,0.00380796,-0.00496549,0.000250146,0.00381508,-0.00497261,0.0284809,0.00508823,0.0450231,951,1611,1.51545,-11.1279
-266,-587,1.59399,11.1713,0,0,0,0,0,0,0,-1,958,1611,1.59399,-11.1713
-259,-587,1.64746,11.2225,0,0,0,0,0,0,0,-1,965,1611,1.64748,-11.2226
-252,-587,1.30188,10.3103,0,0,0,0,0,0,0,-1,972,1611,1.30188,-10.3104
-245,-587,2.8584,9.69812,0,0,0,0,0,0,0,-1,979,1611,2.85838,-9.69813
-238,-587,2.87799,9.53821,0,0,0,0,0,0,0,-1,986,1611,2.87797,-9.53823
-231,-587,2.49548,9.14465,0,0,0,0,0,0,0,-1,993,1611,2.49551,-9.14468
-224,-587,3.66693,8.11804,0,0,0,0,0,0,0,-1,1000,1611,3.66693,-8.11809
-217,-587,-5.39899,6.52637,0,0,0,0,0,0,0,-1,1007,1611,-5.39901,-6.52634
-210,-587,-3.96399,7.48633,0,0,0,0,0,0,0,-1,1014,1611,-3.96397,-7.48632
-203,-587,-1.55042,9.40186,0,0,0,0,0,0,0,-1,1021,1611,-1.55043,-9.40186
-196,-587,-2.32214,9.0835,0,0,0,0,0,0,0,-1,1028,1611,-2.32215,-9.08353
-189,-587,-3.04138,8.66638,0,0,0,0,0,0,0,-1,1035,1611,-3.04136,-8.66635
-182,-587,-3.97095,9.7146,0,0,0,0,0,0,0,-1,1042,1611,-3.97093,-9.71461
-175,-587,-4.80969,8.37878,0,0,0,0,0,0,0,-1,1049,1611,-4.80964,-8.37883
-168,-587,-5.91394,8.72546,0,0,0,0,0,0,0,-1,1056,1611,-5.91398,-8.72542
-161,-587,-7.06946,8.88501,0,0,0,0,0,0,0,-1,1063,1611,-7.06947,-8.885
-154,-587,-2.24731,6.56519,0,0,0,0,0,0,0,-1,1070,1611,-2.24728,-6.56517
-147,-587,0,0,0,0,0,0,0,0,0,-1,1077,1611,0,0
-140,-587,0,0,0,0,0,0,0,0,0,-1,1084,1611,0,0
-133,-587,0,0,0,0,0,0,0,0,0,-1,1091,1611,0,0
-126,-587,0,0,0,0,0,0,0,0,0,-1,1098,1611,0,0
-119,-587,0,0,0,0,0,0,0,0,0,-1,1105,1611,0,0
-112,-587,0,0,0,0,0,0,0,0,0,-1,1112,1611,0,0
-105,-587,0,0,0,0,0,0,0,0,0,-1,1119,1611,0,0
-98,-587,0,0,0,0,0,0,0,0,0,-1,1126,1611,0,0
-91,-587,0,0,0,0,0,0,0,0,0,-1,1133,1611,0,0
-84,-587,0,0,0,0,0,0,0,0,0,-1,1140,1611,0,0
-77,-587,0,0,0,0,0,0,0,0,0,-1,1147,1611,0,0
-70,-587,0,0,0,0,0,0,0,0,0,-1,1154,1611,0,0
-63,-587,0,0,0,0,0,0,0,0,0,-1,1161,1611,0,0
-56,-587,0,0,0,0,0,0,0,0,0,-1,1168,1611,0,0
-49,-587,0,0,0,0,0,0,0,0,0,-1,1175,1611,0,0
-42,-587,0,0,0,0,0,0,0,0,0,-1,1182,1611,0,0
-35,-587,0,0,0,0,0,0,0,0,0,-1,1189,1611,0,0
-28,-587,0,0,0,0,0,0,0,0,0,-1,1196,1611,0,0
-21,-587,0,0,0,0,0,0,0,0,0,-1,1203,1611,0,0
-14,-587,0,0,0,0,0,0,0,0,0,-1,1210,1611,0,0
-7,-587,0,0,0,0,0,0,0,0,0,-1,1217,1611,0,0
0,-587,0,0,0,0,0,0,0,0,0,-1,1224,1611,0,0
7,-587,0,0,0,0,0,0,0,0,0,-1,1231,1611,0,0
14,-587,0,0,0,0,0,0,0,0,0,-1,1238,1611,0,0
21,-587,0,0,0,0,0,0,0,0,0,-1,1245,1611,0,0
28,-587,0,0,0,0,0,0,0,0,0,-1,1252,1611,0,0
35,-587,0,0,0,0,0,0,0,0,0,-1,1259,1611,0,0
42,-587,0,0,0,0,0,0,0,0,0,-1,1266,1611,0,0
49,-587,0,0,0,0,0,0,0,0,0,-1,1273,1611,0,0
56,-587,0,0,0,0,0,0,0,0,0,-1,1280,1611,0,0
63,-587,0,0,0,0,0,0,0,0,0,-1,1287,1611,0,0
70,-587,0,0,0,0,0,0,0,0,0,-1,1294,1611,0,0
77,-587,0,0,0,0,0,0,0,0,0,-1,1301,1611,0,0
84,-587,0,0,0,0,0,0,0,0,0,-1,1308,1611,0,0
91,-587,0,0,0,0,0,0,0,0,0,-1,1315,1611,0,0
98,-587,0,0,0,0,0,0,0,0,0,-1,1322,1611,0,0
105,-587,0,0,0,0,0,0,0,0,0,-1,1329,1611,0,0
112,-587,0,0,0,0,0,0,0,0,0,-1,1336,1611,0,0
119,-587,0,0,0,0,0,0,0,0,0,-1,1343,1611,0,0
126,-587,0,0,0,0,0,0,0,0,0,-1,1350,1611,0,0
133,-587,0,0,0,0,0,0,0,0,0,-1,1357,1611,0,0
140,-587,0,0,0,0,0,0,0,0,0,-1,1364,1611,0,0
147,-587,0,0,0,0,0,0,0,0,0,-1,1371,1611,0,0
154,-587,0,0,0,0,0,0,0,0,0,-1,1378,1611,0,0
161,-587,0,0,0,0,0,0,0,0,0,-1,1385,1611,0,0
168,-587,0,0,0,0,0,0,0,0,0,-1,1392,1611,0,0
175,-587,0,0,0,0,0,0,0,0,0,-1,1399,1611,0,0
182,-587,0,0,0,0,0,0,0,0,0,-1,1406,1611,0,0
189,-587,0,0,0,0,0,0,0,0,0,-1,1413,1611,0,0
196,-587,0,0,0,0,0,0,0,0,0,-1,1420,1611,0,0
203,-587,0,0,0,0,0,0,0,0,0,-1,1427,1611,0,0
210,-587,0,0,0,0,0,0,0,0,0,-1,1434,1611,0,0
217,-587,0,0,0,0,0,0,0,0,0,-1,1441,1611,0,0
224,-587,0,0,0,0,0,0,0,0,0,-1,1448,1611,0,0
231,-587,0,0,0,0,0,0,0,0,0,-1,1455,1611,0,0
238,-587,0,0,0,0,0,0,0,0,0,-1,1462,1611,0,0
245,-587,0,0,0,0,0,0,0,0,0,-1,1469,1611,0,0
252,-587,0,0,0,0,0,0,0,0,0,-1,1476,1611,0,0
259,-587,0,0,0,0,0,0,0,0,0,-1,1483,1611,0,0
266,-587,0,0,0,0,0,0,0,0,0,-1,1490,1611,0,0
273,-587,10.2936,6.35083,0,0,0,0,0,0,0,-1,1497,1611,10.2936,-6.35087
280,-587,2.09204,1.1217,0,0,0,0,0,0,0,-1,1504,1611,2.092,-1.12176
287,-587,3.2865,0.671509,0,0,0,0,0,0,0,-1,1511,1611,3.28656,-0.671538
294,-587,4.24646,1.58765,0,0,0,0,0,0,0,-1,1518,1611,4.24648,-1.58761
301,-587,5.13647,2.76465,0,0,0,0,0,0,0,-1,1525,1611,5.13648,-2.76469
308,-587,5.62061,10.1396,0,0,0,0,0,0,0,-1,1532,1611,5.62065,-10.1397
315,-587,4.14722,11.6769,0,0,0,0,0,0,0,-1,1539,1611,4.14727,-11.6769
322,-587,10.4526,6.38245,0,0,0,0,0,0,0,-1,1546,1611,10.4526,-6.38245
329,-587,10.7738,8.42444,0,0,0,0,0,0,0,-1,1553,1611,10.7738,-8.42438
336,-587,7.5531,5.96619,0,0,0,0,0,0,0,-1,1560,1611,7.55311,-5.96617
343,-587,9.57495,4.38391,0,0,0,0,0,0,0,-1,1567,1611,9.57494,-4.38397
350,-587,9.50378,3.45093,0,0,0,0,0,0,0,-1,1574,1611,9.50376,-3.4509
357,-587,9.40027,2.50806,0,0,0,0,0,0,0,-1,1581,1611,9.40022,-2.50803
364,-587,9.26477,1.34131,0,0,0,0,0,0,0,-1,1588,1611,9.26479,-1.34126
371,-587,6.98926,7.87561,0,0,0,0,0,0,0,-1,1595,1611,6.98928,-7.87564
378,-587,6.96997,13.4526,0,0,0,0,0,0,0,-1,1602,1611,6.96999,-13.4526
385,-587,7.17224,7.03772,0,0,0,0,0,0,0,-1,1609,1611,7.1722,-7.03778
392,-587,5.3916,8.21436,0,0,0,0,0,0,0,-1,1616,1611,5.39157,-8.21437
399,-587,7.38428,11.9691,0,0,0,0,0,0,0,-1,1623,1611,7.38422,-11.9691
406,-587,7.20227,11.8359,-0.00135196,-0.0186103,0.0111367,0.00410746,-0.0240698,0.455792,0.0175764,0.040583,1630,1611,7.20231,-11.8359
413,-587,6.89661,11.7966,-0.00229648,-0.0173429,0.0111364,0.00361974,-0.0232591,0.488334,0.0168428,0.0338387,1637,1611,6.89656,-11.7966
420,-587,6.95459,11.8536,-0.00267274,-0.0155424,0.0102101,0.00296112,-0.0211763,0.504218,0.015201,0.0318766,1644,1611,6.95464,-11.8536
427,-587,7.05762,11.7797,-0.00312045,-0.0139579,0.00940692,0.00231683,-0.0193951,0.524093,0.0137675,0.0252938,1651,1611,7.05761,-11.7797
434,-587,6.93396,11.6515,-0.00341028,-0.0123706,0.00848141,0.00170155,-0.0174824,0.54241,0.0122615,0.0148102,1658,1611,6.93394,-11.6515
441,-587,6.9032,11.496,-0.00348955,-0.0107487,0.0074702,0.00118616,-0.0154244,0.559257,0.0107003,0.0156337,1665,1611,6.90321,-11.496
448,-587,6.92529,11.3131,-0.00334314,-0.0090949,0.00634493,0.000747246,-0.0131853,0.572619,0.00904956,0.0147959,1672,1611,6.9253,-11.3131
455,-587,6.94128,11.1423,-0.0030954,-0.00771062,0.00526253,0.000343238,-0.0111493,0.578774,0.00754985,0.0144933,1679,1611,6.94132,-11.1423
462,-587,6.93506,10.9677,-0.00262461,-0.00629879,0.00423525,0.000154822,-0.00907821,0.580764,0.0061044,0.0185118,1686,1611,6.93507,-10.9677
469,-587,6.92383,10.8066,-0.00243643,-0.0050105,0.00335443,-0.000130604,-0.00731632,0.602218,0.0048346,0.0156773,1693,1611,6.92377,-10.8066
476,-587,6.94604,10.6388,-0.00210119,-0.00349196,0.00226004,-0.000431976,-0.00516118,0.63615,0.00330621,0.00970458,1700,1611,6.94607,-10.6387
483,-587,6.93909,10.4596,-0.00145533,-0.00165535,0.00123668,-0.000314628,-0.00279606,0.745052,0.00176852,0.0124853,1707,1611,6.93907,-10.4596
490,-587,6.92175,10.2789,-0.000577566,-5.31616e-05,0.000183569,4.71025e-06,-0.000635438,1.2654,0.000425204,0.0150504,1714,1611,6.92169,-10.2789
497,-587,6.90076,10.1117,0.000109211,0.00156403,-0.000757737,0.00188699,-0.000213756,-1.16789,0.00133496,0.012264,1721,1611,6.90075,-10.1117
504,-587,6.88611,9.94446,0.000673696,0.00323755,-0.00154565,0.00396371,-5.24565e-05,-1.1316,0.00266013,0.0127306,1728,1611,6.88614,-9.94442
511,-587,6.89648,9.75708,0.00126818,0.00508971,-0.00239242,0.00624076,0.000117134,-1.12236,0.00412201,0.0142717,1735,1611,6.89651,-9.75714
518,-587,6.93591,9.57898,0.0018401,0.0069234,-0.00302228,0.00833069,0.000432807,-1.13501,0.00541529,0.01338,1742,1611,6.93592,-9.57893
525,-587,6.9729,9.40283,0.00259162,0.0089501,-0.00374743,0.0106852,0.000856515,-1.13717,0.00685582,0.0164893,1749,1611,6.97295,-9.40287
532,-587,7.06348,9.26172,0.00319802,0.0109789,-0.00422495,0.0128318,0.00134514,-1.1575,0.00814325,0.0304671,1756,1611,7.06343,-9.26176
539,-587,7.36865,9.07129,0.0037364,0.0130694,-0.00471094,0.0150338,0.00177197,-1.17573,0.00948721,0.0426376,1763,1611,7.36869,-9.07124
546,-587,7.11328,8.87012,0,0,0,0,0,0,0,-1,1770,1611,7.11331,-8.87011
553,-587,7.22681,7.86682,0,0,0,0,0,0,0,-1,1777,1611,7.22686,-7.86678
560,-587,4.21179,5.23547,0,0,0,0,0,0,0,-1,1784,1611,4.21185,-5.23553
567,-587,4.03711,5.46387,0,0,0,0,0,0,0,-1,1791,1611,4.03715,-5.46382
574,-587,3.83142,5.68884,0,0,0,0,0,0,0,-1,1798,1611,3.83141,-5.68881
581,-587,3.47168,6.00977,0,0,0,0,0,0,0,-1,1805,1611,3.47167,-6.00983
588,-587,0,0,0,0,0,0,0,0,0,-1,1812,1611,0,0
595,-587,0,0,0,0,0,0,0,0,0,-1,1819,1611,0,0
602,-587,0,0,0,0,0,0,0,0,0,-1,1826,1611,0,0
609,-587,0,0,0,0,0,0,0,0,0,-1,1833,1611,0,0
616,-587,0,0,0,0,0,0,0,0,0,-1,1840,1611,0,0
623,-587,0,0,0,0,0,0,0,0,0,-1,1847,1611,0,0
630,-587,0,0,0,0,0,0,0,0,0,-1,1854,1611,0,0
637,-587,0,0,0,0,0,0,0,0,0,-1,1861,1611,0,0
644,-587,0,0,0,0,0,0,0,0,0,-1,1868,1611,0,0
651,-587,0,0,0,0,0,0,0,0,0,-1,1875,1611,0,0
658,-587,0,0,0,0,0,0,0,0,0,-1,1882,1611,0,0
665,-587,0,0,0,0,0,0,0,0,0,-1,1889,1611,0,0
672,-587,0,0,0,0,0,0,0,0,0,-1,1896,1611,0,0
679,-587,0,0,0,0,0,0,0,0,0,-1,1903,1611,0,0
686,-587,0,0,0,0,0,0,0,0,0,-1,1910,1611,0,0
693,-587,0,0,0,0,0,0,0,0,0,-1,1917,1611,0,0
700,-587,0,0,0,0,0,0,0,0,0,-1,1924,1611,0,0
707,-587,0,0,0,0,0,0,0,0,0,-1,1931,1611,0,0
714,-587,0,0,0,0,0,0,0,0,0,-1,1938,1611,0,0
721,-587,0,0,0,0,0,0,0,0,0,-1,1945,1611,0,0
728,-587,0,0,0,0,0,0,0,0,0,-1,1952,1611,0,0
735,-587,0,0,0,0,0,0,0,0,0,-1,1959,1611,0,0
742,-587,0,0,0,0,0,0,0,0,0,-1,1966,1611,0,0
749,-587,0,0,0,0,0,0,0,0,0,-1,1973,1611,0,0
756,-587,0,0,0,0,0,0,0,0,0,-1,1980,1611,0,0
763,-587,0,0,0,0,0,0,0,0,0,-1,1987,1611,0,0
770,-587,0,0,0,0,0,0,0,0,0,-1,1994,1611,0,0
777,-587,0,0,0,0,0,0,0,0,0,-1,2001,1611,0,0
784,-587,0,0,0,0,0,0,0,0,0,-1,2008,1611,0,0
791,-587,0,0,0,0,0,0,0,0,0,-1,2015,1611,0,0
798,-587,0,0,0,0,0,0,0,0,0,-1,2022,1611,0,0
805,-587,0,0,0,0,0,0,0,0,0,-1,2029,1611,0,0
812,-587,0,0,0,0,0,0,0,0,0,-1,2036,1611,0,0
-700,-594,0,0,0,0,0,0,0,0,0,-1,524,1618,0,0
-693,-594,0,0,0,0,0,0,0,0,0,-1,531,1618,0,0
-686,-594,0,0,0,0,0,0,0,0,0,-1,538,1618,0,0
-679,-594,0,0,0,0,0,0,0,0,0,-1,545,1618,0,0
-672,-594,0,0,0,0,0,0,0,0,0,-1,552,1618,0,0
-665,-594,0,0,0,0,0,0,0,0,0,-1,559,1618,0,0
-658,-594,0,0,0,0,0,0,0,0,0,-1,566,1618,0,0
-651,-594,0,0,0,0,0,0,0,0,0,-1,573,1618,0,0
-644,-594,0,0,0,0,0,0,0,0,0,-1,580,1618,0,0
-637,-594,0,0,0,0,0,0,0,0,0,-1,587,1618,0,0
-630,-594,0,0,0,0,0,0,0,0,0,-1,594,1618,0,0
-623,-594,0,0,0,0,0,0,0,0,0,-1,601,1618,0,0
-616,-594,0,0,0,0,0,0,0,0,0,-1,608,1618,0,0
-609,-594,0,0,0,0,0,0,0,0,0,-1,615,1618,0,0
-602,-594,0,0,0,0,0,0,0,0,0,-1,622,1618,0,0
-595,-594,0,0,0,0,0,0,0,0,0,-1,629,1618,0,0
-588,-594,0,0,0,0,0,0,0,0,0,-1,636,1618,0,0
-581,-594,0,0,0,0,0,0,0,0,0,-1,643,1618,0,0
-574,-594,0,0,0,0,0,0,0,0,0,-1,650,1618,0,0
-567,-594,0,0,0,0,0,0,0,0,0,-1,657,1618,0,0
-560,-594,0,0,0,0,0,0,0,0,0,-1,664,1618,0,0
-553,-594,0,0,0,0,0,0,0,0,0,-1,671,1618,0,0
-546,-594,0,0,0,0,0,0,0,0,0,-1,678,1618,0,0
-539,-594,0,0,0,0,0,0,0,0,0,-1,685,1618,0,0
-532,-594,0,0,0,0,0,0,0,0,0,-1,692,1618,0,0
-525,-594,0,0,0,0,0,0,0,0,0,-1,699,1618,0,0
-518,-594,0,0,0,0,0,0,0,0,0,-1,706,1618,0,0
-511,-594,0,0,0,0,0,0,0,0,0,-1,713,1618,0,0
-504,-594,0,0,0,0,0,0,0,0,0,-1,720,1618,0,0
-497,-594,0,0,0,0,0,0,0,0,0,-1,727,1618,0,0
-490,-594,0,0,0,0,0,0,0,0,0,-1,734,1618,0,0
-483,-594,0,0,0,0,0,0,0,0,0,-1,741,1618,0,0
-476,-594,0,0,0,0,0,0,0,0,0,-1,748,1618,0,0
-469,-594,0,0,0,0,0,0,0,0,0,-1,755,1618,0,0
-462,-594,0,0,0,0,0,0,0,0,0,-1,762,1618,0,0
-455,-594,-1.65491,-4.9729,0,0,0,0,0,0,0,-1,769,1618,-1.65492,4.97285
-448,-594,-1.93896,-3.84717,0,0,0,0,0,0,0,-1,776,1618,-1.93896,3.84713
-441,-594,-4.79364,4.07727,0,0,0,0,0,0,0,-1,783,1618,-4.79365,-4.07727
-434,-594,-3.62231,5.8208,0,0,0,0,0,0,0,-1,790,1618,-3.62229,-5.82083
-427,-594,-3.97693,6.77759,0,0,0,0,0,0,0,-1,797,1618,-3.97695,-6.77764
-420,-594,-2.53046,7.71606,0,0,0,0,0,0,0,-1,804,1618,-2.53047,-7.71609
-413,-594,-0.860413,8.00391,0,0,0,0,0,0,0,-1,811,1618,-0.860423,-8.00389
-406,-594,1.24292,7.23389,0,0,0,0,0,0,0,-1,818,1618,1.24291,-7.23394
-399,-594,1.90955,7.79602,0,0,0,0,0,0,0,-1,825,1618,1.90955,-7.79604
-392,-594,2.12952,7.95496,-0.00557234,0.00482873,0.00511158,0.00692023,-0.00766385,1.18241,0.00842377,0.0402472,832,1618,2.12953,-7.95492
-385,-594,1.89813,8.27112,-0.00497598,0.00183286,0.00340826,0.00324573,-0.00638885,1.17782,0.00566033,0.0260708,839,1618,1.89813,-8.27109
-378,-594,1.79779,8.50916,-0.00429076,0.000213208,0.00230929,0.00118678,-0.00526434,1.17182,0.00396481,0.0121888,846,1618,1.79779,-8.50913
-371,-594,1.80573,8.71875,-0.00350797,-0.000853987,0.00157929,-0.000118196,-0.00424377,1.1348,0.00279061,0.0123678,853,1618,1.80571,-8.7188
-364,-594,1.82892,8.91211,-0.00272957,-0.00164987,0.00102183,-0.00103405,-0.00334538,1.02842,0.00197783,0.0105324,860,1618,1.82889,-8.91216
-357,-594,1.8396,9.10889,-0.00193181,-0.00176846,0.000578111,-0.00126628,-0.00243399,0.855574,0.00140565,0.010004,867,1618,1.83958,-9.10884
-350,-594,1.83307,9.30859,-0.00134584,-0.00188009,9.51131e-05,-0.00132941,-0.00189651,0.171033,0.00112405,0.014512,874,1618,1.83309,-9.30858
-343,-594,1.82568,9.52209,-0.000677394,-0.00166302,-3.95534e-05,-0.00067581,-0.00166461,-0.0400443,0.000966708,0.0164412,881,1618,1.82571,-9.52205
-336,-594,1.79181,9.69812,0.00010538,-0.00145616,-9.839e-05,0.000111555,-0.00146234,-0.0626778,0.00101412,0.0135307,888,1618,1.79178,-9.69808
-329,-594,1.80005,9.9032,0.000658564,-0.00100197,-0.000152628,0.000672476,-0.00101588,-0.0909001,0.000981474,0.0137853,895,1618,1.80007,-9.90323
-322,-594,1.84308,10.1237,0.000972618,-0.000708093,-0.000167118,0.000989074,-0.000724549,-0.0981522,0.000993282,0.0157443,902,1618,1.84311,-10.1237
-315,-594,1.85693,10.2664,0.00126085,-0.000546575,-9.51733e-05,0.00126585,-0.000551572,-0.0524634,0.00107596,0.0160879,909,1618,1.85694,-10.2663
-308,-594,1.84735,10.4391,0.00148882,-0.000524522,-8.20307e-05,0.00149216,-0.000527858,-0.0406536,0.00120974,0.014518,916,1618,1.84734,-10.4391
-301,-594,1.81836,10.6199,0.00169942,-0.000719664,-6.94869e-05,0.00170141,-0.000721658,-0.0286929,0.00143658,0.0105467,923,1618,1.81837,-10.6199
-294,-594,1.83923,10.7874,0.00196225,-0.000925561,-4.22383e-05,0.00196287,-0.000926179,-0.0146222,0.00170341,0.0103881,930,1618,1.83924,-10.7874
-287,-594,1.85144,10.9576,0.00217414,-0.00179242,-0.000102722,0.0021768,-0.00179508,-0.0258738,0.00229669,0.012524,937,1618,1.85142,-10.9577
-280,-594,1.8269,11.132,0.00228831,-0.00347287,-0.000381437,0.00231346,-0.00349801,-0.0658251,0.00337841,0.0165158,944,1618,1.82687,-11.1319
-273,-594,1.81671,11.2642,0.00250915,-0.00523963,-0.000726441,0.00257666,-0.00530715,-0.0926732,0.00464182,0.0269334,951,1618,1.81673,-11.2642
-266,-594,1.83643,11.3279,0.00258626,-0.00779996,-0.00112465,0.00270665,-0.00792034,-0.106636,0.00637688,0.0344977,958,1618,1.83642,-11.3278
-259,-594,1.84619,11.3811,0.00229899,-0.0112233,-0.001744,0.0025203,-0.0114446,-0.126221,0.00859389,0.0395323,965,1618,1.84619,-11.381
-252,-594,1.86591,11.524,0,0,0,0,0,0,0,-1,972,1618,1.86589,-11.5241
-245,-594,2.27374,11.0873,0,0,0,0,0,0,0,-1,979,1618,2.27374,-11.0873
-238,-594,2.71313,10.6866,0,0,0,0,0,0,0,-1,986,1618,2.71314,-10.6867
-231,-594,1.93774,9.35388,0,0,0,0,0,0,0,-1,993,1618,1.93776,-9.35393
-224,-594,1.81824,8.62744,0,0,0,0,0,0,0,-1,1000,1618,1.81822,-8.62745
-217,-594,1.65802,8.02002,0,0,0,0,0,0,0,-1,1007,1618,1.65805,-8.02007
-210,-594,0.957092,11.3329,0,0,0,0,0,0,0,-1,1014,1618,0.957079,-11.3329
-203,-594,-0.0402832,10.9181,0,0,0,0,0,0,0,-1,1021,1618,-0.0402818,-10.9181
-196,-594,-0.760986,11.9658,0,0,0,0,0,0,0,-1,1028,1618,-0.760987,-11.9658
-189,-594,2.60913,9.48865,0,0,0,0,0,0,0,-1,1035,1618,2.6091,-9.48871
-182,-594,1.2395,9.38806,0,0,0,0,0,0,0,-1,1042,1618,1.23951,-9.38804
-175,-594,0.234863,8.73792,0,0,0,0,0,0,0,-1,1049,1618,0.234812,-8.73786
-168,-594,-0.495483,8.46289,0,0,0,0,0,0,0,-1,1056,1618,-0.495513,-8.46285
-161,-594,-1.39734,8.28699,0,0,0,0,0,0,0,-1,1063,1618,-1.39729,-8.28699
-154,-594,-0.000854492,7.68445,0,0,0,0,0,0,0,-1,1070,1618,-0.000805755,-7.6845
-147,-594,0.348267,9.3385,0,0,0,0,0,0,0,-1,1077,1618,0.348237,-9.33849
-140,-594,0.675171,11.5884,0,0,0,0,0,0,0,-1,1084,1618,0.675204,-11.5884
-133,-594,0,0,0,0,0,0,0,0,0,-1,1091,1618,0,0
-126,-594,0,0,0,0,0,0,0,0,0,-1,1098,1618,0,0
-119,-594,0,0,0,0,0,0,0,0,0,-1,1105,1618,0,0
-112,-594,0,0,0,0,0,0,0,0,0,-1,1112,1618,0,0
-105,-594,0,0,0,0,0,0,0,0,0,-1,1119,1618,0,0
-98,-594,0,0,0,0,0,0,0,0,0,-1,1126,1618,0,0
-91,-594,0,0,0,0,0,0,0,0,0,-1,1133,1618,0,0
-84,-594,0,0,0,0,0,0,0,0,0,-1,1140,1618,0,0
-77,-594,0,0,0,0,0,0,0,0,0,-1,1147,1618,0,0
-70,-594,0,0,0,0,0,0,0,0,0,-1,1154,1618,0,0
-63,-594,0,0,0,0,0,0,0,0,0,-1,1161,1618,0,0
-56,-594,0,0,0,0,0,0,0,0,0,-1,1168,1618,0,0
-49,-594,0,0,0,0,0,0,0,0,0,-1,1175,1618,0,0
-42,-594,0,0,0,0,0,0,0,0,0,-1,1182,1618,0,0
-35,-594,0,0,0,0,0,0,0,0,0,-1,1189,1618,0,0
-28,-594,0,0,0,0,0,0,0,0,0,-1,1196,1618,0,0
-21,-594,0,0,0,0,0,0,0,0,0,-1,1203,1618,0,0
-14,-594,0,0,0,0,0,0,0,0,0,-1,1210,1618,0,0
-7,-594,0,0,0,0,0,0,0,0,0,-1,1217,1618,0,0
0,-594,0,0,0,0,0,0,0,0,0,-1,1224,1618,0,0
7,-594,0,0,0,0,0,0,0,0,0,-1,1231,1618,0,0
14,-594,0,0,0,0,0,0,0,0,0,-1,1238,1618,0,0
21,-594,0,0,0,0,0,0,0,0,0,-1,1245,1618,0,0
28,-594,0,0,0,0,0,0,0,0,0,-1,1252,1618,0,0
35,-594,0,0,0,0,0,0,0,0,0,-1,1259,1618,0,0
42,-594,0,0,0,0,0,0,0,0,0,-1,1266,1618,0,0
49,-594,0,0,0,0,0,0,0,0,0,-1,1273,1618,0,0
56,-594,0,0,0,0,0,0,0,0,0,-1,1280,1618,0,0
63,-594,0,0,0,0,0,0,0,0,0,-1,1287,1618,0,0
70,-594,0,0,0,0,0,0,0,0,0,-1,1294,1618,0,0
77,-594,0,0,0,0,0,0,0,0,0,-1,1301,1618,0,0
84,-594,0,0,0,0,0,0,0,0,0,-1,1308,1618,0,0
91,-594,0,0,0,0,0,0,0,0,0,-1,1315,1618,0,0
98,-594,0,0,0,0,0,0,0,0,0,-1,1322,1618,0,0
105,-594,0,0,0,0,0,0,0,0,0,-1,1329,1618,0,0
112,-594,0,0,0,0,0,0,0,0,0,-1,1336,1618,0,0
119,-594,0,0,0,0,0,0,0,0,0,-1,1343,1618,0,0
126,-594,0,0,0,0,0,0,0,0,0,-1,1350,1618,0,0
133,-594,0,0,0,0,0,0,0,0,0,-1,1357,1618,0,0
140,-594,0,0,0,0,0,0,0,0,0,-1,1364,1618,0,0
147,-594,0,0,0,0,0,0,0,0,0,-1,1371,1618,0,0
154,-594,0,0,0,0,0,0,0,0,0,-1,1378,1618,0,0
161,-594,0,0,0,0,0,0,0,0,0,-1,1385,1618,0,0
168,-594,0,0,0,0,0,0,0,0,0,-1,1392,1618,0,0
175,-594,0,0,0,0,0,0,0,0,0,-1,1399,1618,0,0
182,-594,0,0,0,0,0,0,0,0,0,-1,1406,1618,0,0
189,-594,0,0,0,0,0,0,0,0,0,-1,1413,1618,0,0
196,-594,0,0,0,0,0,0,0,0,0,-1,1420,1618,0,0
203,-594,0,0,0,0,0,0,0,0,0,-1,1427,1618,0,0
210,-594,0,0,0,0,0,0,0,0,0,-1,1434,1618,0,0
217,-594,0,0,0,0,0,0,0,0,0,-1,1441,1618,0,0
224,-594,0,0,0,0,0,0,0,0,0,-1,1448,1618,0,0
231,-594,0,0,0,0,0,0,0,0,0,-1,1455,1618,0,0
238,-594,0,0,0,0,0,0,0,0,0,-1,1462,1618,0,0
245,-594,0,0,0,0,0,0,0,0,0,-1,1469,1618,0,0
252,-594,3.03674,1.20996,0,0,0,0,0,0,0,-1,1476,1618,3.0368,-1.20999
259,-594,4.79834,1.53113,0,0,0,0,0,0,0,-1,1483,1618,4.79837,-1.53118
266,-594,3.71606,2.68152,0,0,0,0,0,0,0,-1,1490,1618,3.71609,-2.68149
273,-594,9.7655,6.33557,0,0,0,0,0,0,0,-1,1497,1618,9.76555,-6.33554
280,-594,3.13281,0.911255,0,0,0,0,0,0,0,-1,1504,1618,3.13277,-0.911207
287,-594,4.42749,1.51563,0,0,0,0,0,0,0,-1,1511,1618,4.42747,-1.51564
294,-594,5.36475,3.34937,0,0,0,0,0,0,0,-1,1518,1618,5.36475,-3.3494
301,-594,7.40552,9.07483,0,0,0,0,0,0,0,-1,1525,1618,7.40555,-9.07483
308,-594,6.02271,10.0214,0,0,0,0,0,0,0,-1,1532,1618,6.02267,-10.0213
315,-594,4.36401,10.6393,0,0,0,0,0,0,0,-1,1539,1618,4.36404,-10.6393
322,-594,2.98352,11.3137,0,0,0,0,0,0,0,-1,1546,1618,2.98351,-11.3137
329,-594,4.19861,9.77258,0,0,0,0,0,0,0,-1,1553,1618,4.19865,-9.77264
336,-594,10.1353,4.66528,0,0,0,0,0,0,0,-1,1560,1618,10.1353,-4.66533
343,-594,10.5729,3.71228,0,0,0,0,0,0,0,-1,1567,1618,10.5729,-3.71232
350,-594,10.219,2.98792,0,0,0,0,0,0,0,-1,1574,1618,10.219,-2.98797
357,-594,9.83154,1.96326,0,0,0,0,0,0,0,-1,1581,1618,9.8315,-1.96321
364,-594,9.74939,0.700562,0,0,0,0,0,0,0,-1,1588,1618,9.74939,-0.700615
371,-594,6.79565,13.6544,0,0,0,0,0,0,0,-1,1595,1618,6.79566,-13.6544
378,-594,6.88269,12.625,0,0,0,0,0,0,0,-1,1602,1618,6.88265,-12.625
385,-594,6.85986,12.5956,0,0,0,0,0,0,0,-1,1609,1618,6.85985,-12.5956
392,-594,7.02087,12.2976,0,0,0,0,0,0,0,-1,1616,1618,7.02082,-12.2976
399,-594,6.97607,12.1659,-0.000948899,-0.015176,0.00963136,0.00391109,-0.020036,0.467321,0.0148339,0.0384628,1623,1618,6.97607,-12.1659
406,-594,6.86182,12.0576,-0.00117934,-0.0138662,0.0087971,0.00332288,-0.0183684,0.473031,0.0134903,0.0247798,1630,1618,6.8618,-12.0576
413,-594,6.77466,11.9626,-0.00150657,-0.0126569,0.00828251,0.00290237,-0.0170658,0.489168,0.0124579,0.0214599,1637,1618,6.77467,-11.9626
420,-594,6.78894,11.8381,-0.00167157,-0.0112082,0.00745396,0.00240875,-0.0152885,0.500847,0.0110829,0.0174329,1644,1618,6.78893,-11.8381
427,-594,6.80176,11.7729,-0.001746,-0.00987348,0.00661643,0.00195499,-0.0135745,0.510004,0.00976675,0.0126079,1651,1618,6.80174,-11.773
434,-594,6.7688,11.63,-0.00177927,-0.00855011,0.00575364,0.00151104,-0.0118404,0.519476,0.0084425,0.017093,1658,1618,6.76876,-11.63
441,-594,6.74744,11.4792,-0.00174688,-0.00723028,0.00484084,0.00107475,-0.0100519,0.527736,0.00708674,0.0155176,1665,1618,6.7474,-11.4792
448,-594,6.76294,11.3171,-0.00162409,-0.00591485,0.00386881,0.000654371,-0.00819331,0.53224,0.00569288,0.0151005,1672,1618,6.76292,-11.3172
455,-594,6.76135,11.1421,-0.00144489,-0.00481379,0.00299195,0.000304187,-0.00656287,0.529016,0.00448008,0.0117424,1679,1618,6.7614,-11.1421
462,-594,6.77161,10.9712,-0.00108852,-0.00368965,0.00218405,0.000152874,-0.00493105,0.516852,0.00333949,0.0130929,1686,1618,6.77158,-10.9712
469,-594,6.76953,10.8152,-0.00100591,-0.0026616,0.00151215,-0.000109829,-0.00355768,0.534951,0.00233604,0.0114538,1693,1618,6.76947,-10.8152
476,-594,6.76855,10.6499,-0.000862722,-0.00134662,0.000712883,-0.00035185,-0.0018575,0.621799,0.0011393,0.0116134,1700,1618,6.76854,-10.6499
483,-594,6.76697,10.4707,-0.000493442,0.000402805,1.15633e-05,0.000402954,-0.000493591,1.5579,0.000518502,0.0147713,1707,1618,6.76697,-10.4707
490,-594,6.75464,10.2881,7.47894e-05,0.00191304,-0.000729943,0.00216763,-0.000179801,-1.23521,0.0015086,0.0124187,1714,1618,6.75467,-10.288
497,-594,6.74011,10.1146,0.000461218,0.00353217,-0.00136678,0.00405237,-5.89762e-05,-1.20713,0.00272145,0.00976355,1721,1618,6.74012,-10.1146
504,-594,6.73535,9.93286,0.000751493,0.00532733,-0.00191571,0.00602346,5.53669e-05,-1.22225,0.00399731,0.0111313,1728,1618,6.73539,-9.93284
511,-594,6.75122,9.75964,0.00110828,0.00747108,-0.0025727,0.00838114,0.000198216,-1.23079,0.00552254,0.012797,1735,1618,6.75123,-9.75963
518,-594,6.75122,9.56372,0.00155116,0.00982493,-0.00316668,0.0108978,0.000478275,-1.24413,0.00711114,0.0157002,1742,1618,6.75122,-9.56376
525,-594,6.74866,9.32288,0.00218075,0.012604,-0.00386948,0.0138834,0.000901307,-1.25146,0.00897027,0.0282815,1749,1618,6.74871,-9.32282
532,-594,6.68591,9.09155,0.00295915,0.0158017,-0.00457938,0.0172673,0.0014935,-1.26104,0.0110474,0.0458724,1756,1618,6.68593,-9.09151
539,-594,6.63501,8.81799,0,0,0,0,0,0,0,-1,1763,1618,6.63498,-8.81794
546,-594,7.20789,7.27563,0,0,0,0,0,0,0,-1,1770,1618,7.20788,-7.27563
553,-594,3.69714,5.68762,0,0,0,0,0,0,0,-1,1777,1618,3.69715,-5.68764
560,-594,6.06616,4.44482,0,0,0,0,0,0,0,-1,1784,1618,6.06621,-4.44477
567,-594,5.97266,4.73303,0,0,0,0,0,0,0,-1,1791,1618,5.97271,-4.73309
574,-594,5.9906,4.96326,0,0,0,0,0,0,0,-1,1798,1618,5.99065,-4.96326
581,-594,0,0,0,0,0,0,0,0,0,-1,1805,1618,0,0
588,-594,0,0,0,0,0,0,0,0,0,-1,1812,1618,0,0
595,-594,0,0,0,0,0,0,0,0,0,-1,1819,1618,0,0
602,-594,0,0,0,0,0,0,0,0,0,-1,1826,1618,0,0
609,-594,0,0,0,0,0,0,0,0,0,-1,1833,1618,0,0
616,-594,0,0,0,0,0,0,0,0,0,-1,1840,1618,0,0
623,-594,0,0,0,0,0,0,0,0,0,-1,1847,1618,0,0
630,-594,0,0,0,0,0,0,0,0,0,-1,1854,1618,0,0
637,-594,0,0,0,0,0,0,0,0,0,-1,1861,1618,0,0
644,-594,0,0,0,0,0,0,0,0,0,-1,1868,1618,0,0
651,-594,0,0,0,0,0,0,0,0,0,-1,1875,1618,0,0
658,-594,0,0,0,0,0,0,0,0,0,-1,1882,1618,0,0
665,-594,0,0,0,0,0,0,0,0,0,-1,1889,1618,0,0
672,-594,0,0,0,0,0,0,0,0,0,-1,1896,1618,0,0
679,-594,0,0,0,0,0,0,0,0,0,-1,1903,1618,0,0
686,-594,0,0,0,0,0,0,0,0,0,-1,1910,1618,0,0
693,-594,0,0,0,0,0,0,0,0,0,-1,1917,1618,0,0
700,-594,0,0,0,0,0,0,0,0,0,-1,1924,1618,0,0
707,-594,0,0,0,0,0,0,0,0,0,-1,1931,1618,0,0
714,-594,0,0,0,0,0,0,0,0,0,-1,1938,1618,0,0
721,-594,0,0,0,0,0,0,0,0,0,-1,1945,1618,0,0
728,-594,0,0,0,0,0,0,0,0,0,-1,1952,1618,0,0
735,-594,0,0,0,0,0,0,0,0,0,-1,1959,1618,0,0
742,-594,0,0,0,0,0,0,0,0,0,-1,1966,1618,0,0
749,-594,0,0,0,0,0,0,0,0,0,-1,1973,1618,0,0
756,-594,0,0,0,0,0,0,0,0,0,-1,1980,1618,0,0
763,-594,0,0,0,0,0,0,0,0,0,-1,1987,1618,0,0
770,-594,0,0,0,0,0,0,0,0,0,-1,1994,1618,0,0
777,-594,0,0,0,0,0,0,0,0,0,-1,2001,1618,0,0
784,-594,0,0,0,0,0,0,0,0,0,-1,2008,1618,0,0
791,-594,0,0,0,0,0,0,0,0,0,-1,2015,1618,0,0
798,-594,0,0,0,0,0,0,0,0,0,-1,2022,1618,0,0
805,-594,0,0,0,0,0,0,0,0,0,-1,2029,1618,0,0
812,-594,0,0,0,0,0,0,0,0,0,-1,2036,1618,0,0
-700,-601,0,0,0,0,0,0,0,0,0,-1,524,1625,0,0
-693,-601,0,0,0,0,0,0,0,0,0,-1,531,1625,0,0
-686,-601,0,0,0,0,0,0,0,0,0,-1,538,1625,0,0
-679,-601,0,0,0,0,0,0,0,0,0,-1,545,1625,0,0
-672,-601,0,0,0,0,0,0,0,0,0,-1,552,1625,0,0
-665,-601,0,0,0,0,0,0,0,0,0,-1,559,1625,0,0
-658,-601,0,0,0,0,0,0,0,0,0,-1,566,1625,0,0
-651,-601,0,0,0,0,0,0,0,0,0,-1,573,1625,0,0
-644,-601,0,0,0,0,0,0,0,0,0,-1,580,1625,0,0
-637,-601,0,0,0,0,0,0,0,0,0,-1,587,1625,0,0
-630,-601,0,0,0,0,0,0,0,0,0,-1,594,1625,0,0
-623,-601,0,0,0,0,0,0,0,0,0,-1,601,1625,0,0
-616,-601,0,0,0,0,0,0,0,0,0,-1,608,1625,0,0
-609,-601,0,0,0,0,0,0,0,0,0,-1,615,1625,0,0
-602,-601,0,0,0,0,0,0,0,0,0,-1,622,1625,0,0
-595,-601,0,0,0,0,0,0,0,0,0,-1,629,1625,0,0
-588,-601,0,0,0,0,0,0,0,0,0,-1,636,1625,0,0
-581,-601,0,0,0,0,0,0,0,0,0,-1,643,1625,0,0
-574,-601,0,0,0,0,0,0,0,0,0,-1,650,1625,0,0
-567,-601,0,0,0,0,0,0,0,0,0,-1,657,1625,0,0
-560,-601,0,0,0,0,0,0,0,0,0,-1,664,1625,0,0
-553,-601,0,0,0,0,0,0,0,0,0,-1,671,1625,0,0
-546,-601,0,0,0,0,0,0,0,0,0,-1,678,1625,0,0
-539,-601,0,0,0,0,0,0,0,0,0,-1,685,1625,0,0
-532,-601,0,0,0,0,0,0,0,0,0,-1,692,1625,0,0
-525,-601,0,0,0,0,0,0,0,0,0,-1,699,1625,0,0
-518,-601,0,0,0,0,0,0,0,0,0,-1,706,1625,0,0
-511,-601,0,0,0,0,0,0,0,0,0,-1,713,1625,0,0
-504,-601,0,0,0,0,0,0,0,0,0,-1,720,1625,0,0
-497,-601,0,0,0,0,0,0,0,0,0,-1,727,1625,0,0
-490,-601,0,0,0,0,0,0,0,0,0,-1,734,1625,0,0
-483,-601,0,0,0,0,0,0,0,0,0,-1,741,1625,0,0
-476,-601,0,0,0,0,0,0,0,0,0,-1,748,1625,0,0
-469,-601,0,0,0,0,0,0,0,0,0,-1,755,1625,0,0
-462,-601,0,0,0,0,0,0,0,0,0,-1,762,1625,0,0
-455,-601,0,0,0,0,0,0,0,0,0,-1,769,1625,0,0
-448,-601,-7.07623,2.7616,0,0,0,0,0,0,0,-1,776,1625,-7.07626,-2.76161
-441,-601,-6.06689,3.33447,0,0,0,0,0,0,0,-1,783,1625,-6.06691,-3.33448
-434,-601,-5.02655,3.8468,0,0,0,0,0,0,0,-1,790,1625,-5.02657,-3.84674
-427,-601,-5.78601,4.2406,0,0,0,0,0,0,0,-1,797,1625,-5.786,-4.24058
-420,-601,-4.26819,5.33447,0,0,0,0,0,0,0,-1,804,1625,-4.26817,-5.33442
-413,-601,-2.75446,6.1803,0,0,0,0,0,0,0,-1,811,1625,-2.75449,-6.18033
-406,-601,-1.67493,7.20422,0,0,0,0,0,0,0,-1,818,1625,-1.67493,-7.20428
-399,-601,3.04303,6.98987,0,0,0,0,0,0,0,-1,825,1625,3.04306,-6.98989
-392,-601,2.44763,7.71008,-0.0079278,0.00437658,0.00615129,0.00692427,-0.0104755,1.17813,0.0101153,0.0452103,832,1625,2.44766,-7.71004
-385,-601,2.06659,8.41431,-0.00696981,0.00105578,0.00407235,0.0027602,-0.00867423,1.17441,0.00688972,0.044727,839,1625,2.06657,-8.41427
-378,-601,1.99249,8.5708,-0.00596003,-0.00077691,0.00264893,0.000337339,-0.00707428,1.17262,0.00483256,0.0333572,846,1625,1.99247,-8.57084
-371,-601,2.01123,8.71509,-0.00486107,-0.00190896,0.00172092,-0.00111779,-0.00565224,1.13988,0.00345635,0.0153018,853,1625,2.01124,-8.71507
-364,-601,2.02527,8.89465,-0.00381137,-0.00270735,0.001104,-0.00202505,-0.00449367,1.01723,0.00259863,0.0102975,860,1625,2.02529,-8.8946
-357,-601,2.00964,9.10071,-0.00279564,-0.00273696,0.000668665,-0.00209699,-0.00343561,0.807324,0.00199959,0.00983877,867,1625,2.00967,-9.10066
-350,-601,2.0274,9.35034,-0.00205822,-0.00265523,0.000210684,-0.00199136,-0.00272209,0.307307,0.00162681,0.0201675,874,1625,2.02739,-9.35036
-343,-601,2.00348,9.58057,-0.00129744,-0.00230435,7.84648e-05,-0.00129136,-0.00231043,0.0773042,0.00133701,0.0209926,881,1625,2.00347,-9.58052
-336,-601,1.97156,9.72766,-0.000418752,-0.00204366,-4.14907e-06,-0.000418741,-0.00204367,-0.00255341,0.00124653,0.0165656,888,1625,1.97159,-9.7277
-329,-601,2.00006,9.90234,0.000172931,-0.00146032,-4.7664e-05,0.000174321,-0.00146171,-0.0291505,0.00103747,0.0139233,895,1625,2.00005,-9.90234
-322,-601,2.01459,10.1031,0.000480996,-0.00106572,-5.43417e-05,0.000482903,-0.00106762,-0.0350761,0.000916169,0.0120084,902,1625,2.01456,-10.1031
-315,-601,2.00781,10.2478,0.000743098,-0.000851018,-1.94638e-06,0.0007431,-0.00085102,-0.00122098,0.000921069,0.0121254,909,1625,2.0078,-10.2478
-308,-601,2.01758,10.4321,0.000940943,-0.000740775,-4.49536e-05,0.000942144,-0.000741976,-0.0267053,0.000974613,0.0111096,916,1625,2.01758,-10.4321
-301,-601,2.01971,10.6371,0.00110517,-0.000891639,-0.000116739,0.00111197,-0.000898441,-0.0581987,0.00116289,0.00912346,923,1625,2.0197,-10.637
-294,-601,2.01306,10.8046,0.00131309,-0.00104438,-0.00018716,0.00132786,-0.00105915,-0.0787326,0.00138105,0.00972793,930,1625,2.01305,-10.8046
-287,-601,2.00934,10.973,0.00145457,-0.00182675,-0.000342828,0.00149,-0.00186219,-0.102997,0.00193936,0.00998573,937,1625,2.00937,-10.973
-280,-601,2.00415,11.1382,0.00150055,-0.00334185,-0.000687919,0.00159638,-0.00343768,-0.138414,0.00297052,0.00996392,944,1625,2.00416,-11.1382
-273,-601,2.02301,11.2885,0.00167158,-0.004923,-0.00109785,0.00184955,-0.00510096,-0.160705,0.00415666,0.00972462,951,1625,2.02301,-11.2884
-266,-601,2.04498,11.4347,0.00173717,-0.00707289,-0.00156437,0.00200671,-0.00734242,-0.170619,0.0056832,0.0115871,958,1625,2.04498,-11.4347
-259,-601,2.06628,11.5397,0.0015174,-0.00991507,-0.00213049,0.00190152,-0.0102992,-0.17838,0.00757989,0.022126,965,1625,2.06629,-11.5396
-252,-601,2.06348,11.5963,0.00144727,-0.0131488,-0.00289425,0.00200022,-0.0137018,-0.188777,0.00986906,0.0436042,972,1625,2.06345,-11.5963
-245,-601,2.01416,11.6512,0,0,0,0,0,0,0,-1,979,1625,2.01414,-11.6513
-238,-601,2.53583,11.1588,0,0,0,0,0,0,0,-1,986,1625,2.53586,-11.1589
-231,-601,2.00421,11.0231,0,0,0,0,0,0,0,-1,993,1625,2.00423,-11.0231
-224,-601,-0.0305176,9.13684,0,0,0,0,0,0,0,-1,1000,1625,-0.030498,-9.13681
-217,-601,3.39429,10.3898,0,0,0,0,0,0,0,-1,1007,1625,3.39431,-10.3898
-210,-601,0.387329,13.4701,0,0,0,0,0,0,0,-1,1014,1625,0.387304,-13.4701
-203,-601,0.240234,13.4039,0,0,0,0,0,0,0,-1,1021,1625,0.240225,-13.4039
-196,-601,3.19946,12.272,0,0,0,0,0,0,0,-1,1028,1625,3.19941,-12.272
-189,-601,2.35498,12.2698,0,0,0,0,0,0,0,-1,1035,1625,2.35496,-12.2698
-182,-601,0.983276,11.9695,0,0,0,0,0,0,0,-1,1042,1625,0.983235,-11.9695
-175,-601,0.544922,9.28687,0,0,0,0,0,0,0,-1,1049,1625,0.544879,-9.28685
-168,-601,-0.247559,8.97461,0,0,0,0,0,0,0,-1,1056,1625,-0.247598,-8.97466
-161,-601,-1.16833,8.80078,0,0,0,0,0,0,0,-1,1063,1625,-1.16837,-8.80081
-154,-601,1.12756,7.94861,0,0,0,0,0,0,0,-1,1070,1625,1.12762,-7.94855
-147,-601,1.35352,9.55432,0,0,0,0,0,0,0,-1,1077,1625,1.35351,-9.55429
-140,-601,1.72437,11.1498,0,0,0,0,0,0,0,-1,1084,1625,1.72432,-11.1498
-133,-601,2.13281,12.8347,0,0,0,0,0,0,0,-1,1091,1625,2.13287,-12.8348
-126,-601,3.09534,15.427,0,0,0,0,0,0,0,-1,1098,1625,3.0953,-15.4271
-119,-601,1.22485,9.43457,0,0,0,0,0,0,0,-1,1105,1625,1.22489,-9.43456
-112,-601,0,0,0,0,0,0,0,0,0,-1,1112,1625,0,0
-105,-601,0,0,0,0,0,0,0,0,0,-1,1119,1625,0,0
-98,-601,0,0,0,0,0,0,0,0,0,-1,1126,1625,0,0
-91,-601,0,0,0,0,0,0,0,0,0,-1,1133,1625,0,0
-84,-601,0,0,0,0,0,0,0,0,0,-1,1140,1625,0,0
-77,-601,0,0,0,0,0,0,0,0,0,-1,1147,1625,0,0
-70,-601,0,0,0,0,0,0,0,0,0,-1,1154,1625,0,0
-63,-601,0,0,0,0,0,0,0,0,0,-1,1161,1625,0,0
-56,-601,0,0,0,0,0,0,0,0,0,-1,1168,1625,0,0
-49,-601,0,0,0,0,0,0,0,0,0,-1,1175,1625,0,0
-42,-601,0,0,0,0,0,0,0,0,0,-1,1182,1625,0,0
-35,-601,0,0,0,0,0,0,0,0,0,-1,1189,1625,0,0
-28,-601,0,0,0,0,0,0,0,0,0,-1,1196,1625,0,0
-21,-601,0,0,0,0,0,0,0,0,0,-1,1203,1625,0,0
-14,-601,0,0,0,0,0,0,0,0,0,-1,1210,1625,0,0
-7,-601,0,0,0,0,0,0,0,0,0,-1,1217,1625,0,0
0,-601,0,0,0,0,0,0,0,0,0,-1,1224,1625,0,0
7,-601,0,0,0,0,0,0,0,0,0,-1,1231,1625,0,0
14,-601,0,0,0,0,0,0,0,0,0,-1,1238,1625,0,0
21,-601,0,0,0,0,0,0,0,0,0,-1,1245,1625,0,0
28,-601,0,0,0,0,0,0,0,0,0,-1,1252,1625,0,0
35,-601,0,0,0,0,0,0,0,0,0,-1,1259,1625,0,0
42,-601,0,0,0,0,0,0,0,0,0,-1,1266,1625,0,0
49,-601,0,0,0,0,0,0,0,0,0,-1,1273,1625,0,0
56,-601,0,0,0,0,0,0,0,0,0,-1,1280,1625,0,0
63,-601,0,0,0,0,0,0,0,0,0,-1,1287,1625,0,0
70,-601,0,0,0,0,0,0,0,0,0,-1,1294,1625,0,0
77,-601,0,0,0,0,0,0,0,0,0,-1,1301,1625,0,0
84,-601,0,0,0,0,0,0,0,0,0,-1,1308,1625,0,0
91,-601,0,0,0,0,0,0,0,0,0,-1,1315,1625,0,0
98,-601,0,0,0,0,0,0,0,0,0,-1,1322,1625,0,0
105,-601,0,0,0,0,0,0,0,0,0,-1,1329,1625,0,0
112,-601,0,0,0,0,0,0,0,0,0,-1,1336,1625,0,0
119,-601,0,0,0,0,0,0,0,0,0,-1,1343,1625,0,0
126,-601,0,0,0,0,0,0,0,0,0,-1,1350,1625,0,0
133,-601,0,0,0,0,0,0,0,0,0,-1,1357,1625,0,0
140,-601,0,0,0,0,0,0,0,0,0,-1,1364,1625,0,0
147,-601,0,0,0,0,0,0,0,0,0,-1,1371,1625,0,0
154,-601,0,0,0,0,0,0,0,0,0,-1,1378,1625,0,0
161,-601,0,0,0,0,0,0,0,0,0,-1,1385,1625,0,0
168,-601,0,0,0,0,0,0,0,0,0,-1,1392,1625,0,0
175,-601,0,0,0,0,0,0,0,0,0,-1,1399,1625,0,0
182,-601,0,0,0,0,0,0,0,0,0,-1,1406,1625,0,0
189,-601,0,0,0,0,0,0,0,0,0,-1,1413,1625,0,0
196,-601,0,0,0,0,0,0,0,0,0,-1,1420,1625,0,0
203,-601,0,0,0,0,0,0,0,0,0,-1,1427,1625,0,0
210,-601,0,0,0,0,0,0,0,0,0,-1,1434,1625,0,0
217,-601,0,0,0,0,0,0,0,0,0,-1,1441,1625,0,0
224,-601,0,0,0,0,0,0,0,0,0,-1,1448,1625,0,0
231,-601,-0.0371094,0.525879,0,0,0,0,0,0,0,-1,1455,1625,-0.0371518,-0.525824
238,-601,2.03369,-1.32861,0,0,0,0,0,0,0,-1,1462,1625,2.03364,1.32858
245,-601,2.71375,2.44983,0,0,0,0,0,0,0,-1,1469,1625,2.71371,-2.44979
252,-601,4.66943,2.28381,0,0,0,0,0,0,0,-1,1476,1625,4.66947,-2.28376
259,-601,6.42712,2.61987,0,0,0,0,0,0,0,-1,1483,1625,6.42711,-2.61985
266,-601,6.75317,1.68701,0,0,0,0,0,0,0,-1,1490,1625,6.75323,-1.687
273,-601,5.4314,2.92053,0,0,0,0,0,0,0,-1,1497,1625,5.43144,-2.92051
280,-601,4.64722,1.17786,0,0,0,0,0,0,0,-1,1504,1625,4.64722,-1.1779
287,-601,5.32532,2.6217,0,0,0,0,0,0,0,-1,1511,1625,5.32535,-2.62171
294,-601,5.97693,4.22693,0,0,0,0,0,0,0,-1,1518,1625,5.97697,-4.22694
301,-601,7.28162,9.50024,0,0,0,0,0,0,0,-1,1525,1625,7.28162,-9.50025
308,-601,6.42468,9.90295,0,0,0,0,0,0,0,-1,1532,1625,6.42468,-9.90299
315,-601,7.80762,8.37769,0,0,0,0,0,0,0,-1,1539,1625,7.80756,-8.37772
322,-601,5.80298,10.6145,0,0,0,0,0,0,0,-1,1546,1625,5.80295,-10.6145
329,-601,6.51721,7.23535,0,0,0,0,0,0,0,-1,1553,1625,6.51719,-7.23529
336,-601,4.67847,9.53308,0,0,0,0,0,0,0,-1,1560,1625,4.67848,-9.53309
343,-601,11.1404,3.14575,0,0,0,0,0,0,0,-1,1567,1625,11.1404,-3.1458
350,-601,10.9462,2.37769,0,0,0,0,0,0,0,-1,1574,1625,10.9461,-2.37764
357,-601,10.7518,1.6095,0,0,0,0,0,0,0,-1,1581,1625,10.7518,-1.60948
364,-601,5.33643,9.74426,0,0,0,0,0,0,0,-1,1588,1625,5.33637,-9.74429
371,-601,6.79822,13.1514,0,0,0,0,0,0,0,-1,1595,1625,6.79819,-13.1513
378,-601,6.69287,12.7203,0,0,0,0,0,0,0,-1,1602,1625,6.69291,-12.7204
385,-601,6.73499,12.1206,0,0,0,0,0,0,0,-1,1609,1625,6.73494,-12.1206
392,-601,6.66638,12.1177,-0.000447814,-0.0125994,0.00776983,0.00333974,-0.0163869,0.453573,0.0121913,0.0423499,1616,1625,6.66636,-12.1176
399,-601,6.55627,12.2684,-0.000779681,-0.0114416,0.00731603,0.00294162,-0.0151629,0.470543,0.0112185,0.018439,1623,1625,6.55623,-12.2684
406,-601,6.61108,12.1624,-0.000869222,-0.0101923,0.00675778,0.00267884,-0.0137403,0.483474,0.0101715,0.013365,1630,1625,6.61113,-12.1624
413,-601,6.59302,12.0292,-0.00104703,-0.00916996,0.00627719,0.00236804,-0.012585,0.49826,0.00928062,0.0125933,1637,1625,6.59301,-12.0292
420,-601,6.58496,11.9203,-0.00110451,-0.00799968,0.0056059,0.00202908,-0.0111333,0.509713,0.00818284,0.00979839,1644,1625,6.58492,-11.9203
427,-601,6.61926,11.7809,-0.00106723,-0.00693783,0.00488279,0.00169463,-0.00969969,0.514765,0.00709908,0.0142409,1651,1625,6.61923,-11.7809
434,-601,6.6311,11.6265,-0.00100216,-0.00588746,0.00414915,0.00136996,-0.00825957,0.51936,0.00601526,0.0161382,1658,1625,6.63116,-11.6264
441,-601,6.62354,11.4678,-0.000992391,-0.00482782,0.00333782,0.0009394,-0.00675961,0.524654,0.00484996,0.0170869,1665,1625,6.62357,-11.4677
448,-601,6.59692,11.3207,-0.00105002,-0.00379316,0.00247569,0.000408643,-0.00525183,0.532437,0.00364508,0.0139976,1672,1625,6.59688,-11.3206
455,-601,6.60071,11.1447,-0.00113489,-0.00286506,0.0017318,-6.41348e-05,-0.00393582,0.553762,0.00260277,0.0127117,1679,1625,6.60074,-11.1447
462,-601,6.60352,10.9781,-0.00110398,-0.00193873,0.00101451,-0.000424342,-0.00261837,0.590247,0.00162273,0.0108302,1686,1625,6.60352,-10.9782
469,-601,6.60254,10.8246,-0.00136465,-0.00105614,0.000387401,-0.000793416,-0.00162738,0.974866,0.000939666,0.0102612,1693,1625,6.6025,-10.8246
476,-601,6.58459,10.6603,-0.00165127,0.000188002,-0.000317223,0.000241176,-0.00170445,-1.40471,0.00122463,0.0121803,1700,1625,6.58465,-10.6603
483,-601,6.57141,10.483,-0.0017919,0.00199682,-0.000912186,0.002205,-0.00200008,-1.34642,0.00242877,0.0151957,1707,1625,6.57146,-10.483
490,-601,6.5835,10.3003,-0.00178782,0.00362337,-0.00154889,0.00403535,-0.0021998,-1.31083,0.00365149,0.0114425,1714,1625,6.58352,-10.3003
497,-601,6.60193,10.1094,-0.00192787,0.00549024,-0.00208579,0.00603649,-0.00247412,-1.31466,0.00505505,0.00930599,1721,1625,6.60188,-10.1094
504,-601,6.60083,9.90942,-0.00213196,0.00770374,-0.00258581,0.00834211,-0.00277034,-1.32876,0.00667919,0.012735,1728,1625,6.60082,-9.90946
511,-601,6.62573,9.76648,-0.00218704,0.0105324,-0.0031742,0.0112805,-0.00293518,-1.33933,0.00866606,0.022488,1735,1625,6.62579,-9.76654
518,-601,6.61792,9.55908,-0.00204905,0.0137443,-0.00383169,0.0146248,-0.00292958,-1.34492,0.0108589,0.0350507,1742,1625,6.61796,-9.55913
525,-601,6.39282,8.91248,-0.00161927,0.0176447,-0.00456603,0.0186722,-0.00264673,-1.34946,0.0134177,0.0441967,1749,1625,6.39283,-8.91246
532,-601,6.31873,8.36121,-0.000777477,0.0223284,-0.00553186,0.0235845,-0.00203359,-1.34751,0.0164428,0.0493707,1756,1625,6.31867,-8.36121
539,-601,6.34155,7.79578,0,0,0,0,0,0,0,-1,1763,1625,6.3415,-7.79583
546,-601,6.56873,3.62354,0,0,0,0,0,0,0,-1,1770,1625,6.56867,-3.62352
553,-601,7.03015,4.25049,0,0,0,0,0,0,0,-1,1777,1625,7.03011,-4.25048
560,-601,7.50745,4.83374,0,0,0,0,0,0,0,-1,1784,1625,7.50744,-4.83376
567,-601,7.82043,3.83301,0,0,0,0,0,0,0,-1,1791,1625,7.82041,-3.83303
574,-601,0,0,0,0,0,0,0,0,0,-1,1798,1625,0,0
581,-601,0,0,0,0,0,0,0,0,0,-1,1805,1625,0,0
588,-601,0,0,0,0,0,0,0,0,0,-1,1812,1625,0,0
595,-601,0,0,0,0,0,0,0,0,0,-1,1819,1625,0,0
602,-601,0,0,0,0,0,0,0,0,0,-1,1826,1625,0,0
609,-601,0,0,0,0,0,0,0,0,0,-1,1833,1625,0,0
616,-601,0,0,0,0,0,0,0,0,0,-1,1840,1625,0,0
623,-601,0,0,0,0,0,0,0,0,0,-1,1847,1625,0,0
630,-601,0,0,0,0,0,0,0,0,0,-1,1854,1625,0,0
637,-601,0,0,0,0,0,0,0,0,0,-1,1861,1625,0,0
644,-601,0,0,0,0,0,0,0,0,0,-1,1868,1625,0,0
651,-601,0,0,0,0,0,0,0,0,0,-1,1875,1625,0,0
658,-601,0,0,0,0,0,0,0,0,0,-1,1882,1625,0,0
665,-601,0,0,0,0,0,0,0,0,0,-1,1889,1625,0,0
672,-601,0,0,0,0,0,0,0,0,0,-1,1896,1625,0,0
679,-601,0,0,0,0,0,0,0,0,0,-1,1903,1625,0,0
686,-601,0,0,0,0,0,0,0,0,0,-1,1910,1625,0,0
693,-601,0,0,0,0,0,0,0,0,0,-1,1917,1625,0,0
700,-601,0,0,0,0,0,0,0,0,0,-1,1924,1625,0,0
707,-601,0,0,0,0,0,0,0,0,0,-1,1931,1625,0,0
714,-601,0,0,0,0,0,0,0,0,0,-1,1938,1625,0,0
721,-601,0,0,0,0,0,0,0,0,0,-1,1945,1625,0,0
728,-601,0,0,0,0,0,0,0,0,0,-1,1952,1625,0,0
735,-601,0,0,0,0,0,0,0,0,0,-1,1959,1625,0,0
742,-601,0,0,0,0,0,0,0,0,0,-1,1966,1625,0,0
749,-601,0,0,0,0,0,0,0,0,0,-1,1973,1625,0,0
756,-601,0,0,0,0,0,0,0,0,0,-1,1980,1625,0,0
763,-601,0,0,0,0,0,0,0,0,0,-1,1987,1625,0,0
770,-601,0,0,0,0,0,0,0,0,0,-1,1994,1625,0,0
777,-601,0,0,0,0,0,0,0,0,0,-1,2001,1625,0,0
784,-601,0,0,0,0,0,0,0,0,0,-1,2008,1625,0,0
791,-601,0,0,0,0,0,0,0,0,0,-1,2015,1625,0,0
798,-601,0,0,0,0,0,0,0,0,0,-1,2022,1625,0,0
805,-601,0,0,0,0,0,0,0,0,0,-1,2029,1625,0,0
812,-601,0,0,0,0,0,0,0,0,0,-1,2036,1625,0,0
-700,-608,0,0,0,0,0,0,0,0,0,-1,524,1632,0,0
-693,-608,0,0,0,0,0,0,0,0,0,-1,531,1632,0,0
-686,-608,0,0,0,0,0,0,0,0,0,-1,538,1632,0,0
-679,-608,0,0,0,0,0,0,0,0,0,-1,545,1632,0,0
-672,-608,0,0,0,0,0,0,0,0,0,-1,552,1632,0,0
-665,-608,0,0,0,0,0,0,0,0,0,-1,559,1632,0,0
-658,-608,0,0,0,0,0,0,0,0,0,-1,566,1632,0,0
-651,-608,0,0,0,0,0,0,0,0,0,-1,573,1632,0,0
-644,-608,0,0,0,0,0,0,0,0,0,-1,580,1632,0,0
-637,-608,0,0,0,0,0,0,0,0,0,-1,587,1632,0,0
-630,-608,0,0,0,0,0,0,0,0,0,-1,594,1632,0,0
-623,-608,0,0,0,0,0,0,0,0,0,-1,601,1632,0,0
-616,-608,0,0,0,0,0,0,0,0,0,-1,608,1632,0,0
-609,-608,0,0,0,0,0,0,0,0,0,-1,615,1632,0,0
-602,-608,0,0,0,0,0,0,0,0,0,-1,622,1632,0,0
-595,-608,0,0,0,0,0,0,0,0,0,-1,629,1632,0,0
-588,-608,0,0,0,0,0,0,0,0,0,-1,636,1632,0,0
-581,-608,0,0,0,0,0,0,0,0,0,-1,643,1632,0,0
-574,-608,0,0,0,0,0,0,0,0,0,-1,650,1632,0,0
-567,-608,0,0,0,0,0,0,0,0,0,-1,657,1632,0,0
-560,-608,0,0,0,0,0,0,0,0,0,-1,664,1632,0,0
-553,-608,0,0,0,0,0,0,0,0,0,-1,671,1632,0,0
-546,-608,0,0,0,0,0,0,0,0,0,-1,678,1632,0,0
-539,-608,0,0,0,0,0,0,0,0,0,-1,685,1632,0,0
-532,-608,0,0,0,0,0,0,0,0,0,-1,692,1632,0,0
-525,-608,0,0,0,0,0,0,0,0,0,-1,699,1632,0,0
-518,-608,0,0,0,0,0,0,0,0,0,-1,706,1632,0,0
-511,-608,0,0,0,0,0,0,0,0,0,-1,713,1632,0,0
-504,-608,0,0,0,0,0,0,0,0,0,-1,720,1632,0,0
-497,-608,0,0,0,0,0,0,0,0,0,-1,727,1632,0,0
-490,-608,0,0,0,0,0,0,0,0,0,-1,734,1632,0,0
-483,-608,0,0,0,0,0,0,0,0,0,-1,741,1632,0,0
-476,-608,0,0,0,0,0,0,0,0,0,-1,748,1632,0,0
-469,-608,0,0,0,0,0,0,0,0,0,-1,755,1632,0,0
-462,-608,0,0,0,0,0,0,0,0,0,-1,762,1632,0,0
-455,-608,0,0,0,0,0,0,0,0,0,-1,769,1632,0,0
-448,-608,0,0,0,0,0,0,0,0,0,-1,776,1632,0,0
-441,-608,-7.34601,2.78052,0,0,0,0,0,0,0,-1,783,1632,-7.346,-2.78056
-434,-608,-6.34558,3.27405,0,0,0,0,0,0,0,-1,790,1632,-6.34555,-3.27406
-427,-608,-5.05603,3.92859,0,0,0,0,0,0,0,-1,797,1632,-5.05602,-3.92857
-420,-608,-5.61499,3.51917,0,0,0,0,0,0,0,-1,804,1632,-5.61498,-3.51914
-413,-608,-4.63806,4.34399,0,0,0,0,0,0,0,-1,811,1632,-4.63808,-4.34396
-406,-608,-3.69275,5.26758,0,0,0,0,0,0,0,-1,818,1632,-3.69272,-5.26761
-399,-608,-2.60645,6.34167,0,0,0,0,0,0,0,-1,825,1632,-2.60643,-6.34169
-392,-608,2.56494,7.698,0,0,0,0,0,0,0,-1,832,1632,2.56491,-7.69799
-385,-608,2.22559,8.54102,0,0,0,0,0,0,0,-1,839,1632,2.22559,-8.54107
-378,-608,2.2887,8.57141,0,0,0,0,0,0,0,-1,846,1632,2.28872,-8.57145
-371,-608,2.28156,8.69116,-0.00649903,-0.00349552,0.00181969,-0.00263792,-0.00735662,1.13038,0.00430361,0.0379023,853,1632,2.28158,-8.69111
-364,-608,2.23706,8.84363,-0.00505893,-0.00421254,0.00108971,-0.00346673,-0.00580474,0.970612,0.00337242,0.0153522,860,1632,2.23706,-8.84358
-357,-608,2.20483,9.07593,-0.00376979,-0.00408105,0.000604417,-0.00330129,-0.00454955,0.65939,0.00271437,0.0133128,867,1632,2.2048,-9.07598
-350,-608,2.19196,9.33044,-0.00284998,-0.0037327,0.000123181,-0.00283311,-0.00374957,0.136084,0.00225712,0.0188192,874,1632,2.19193,-9.33046
-343,-608,2.19415,9.54517,-0.00195915,-0.00318596,-5.1475e-05,-0.00195699,-0.00318811,-0.0418603,0.00185649,0.0222092,881,1632,2.19418,-9.54515
-336,-608,2.19055,9.71985,-0.000957931,-0.00280949,-0.000190026,-0.000938629,-0.00282879,-0.101224,0.00166372,0.0141465,888,1632,2.19053,-9.7199
-329,-608,2.19275,9.90869,-0.000308952,-0.00205731,-0.000245149,-0.000275228,-0.00209104,-0.136705,0.00131194,0.0132481,895,1632,2.19276,-9.90866
-322,-608,2.17743,10.0867,2.15483e-05,-0.00151839,-0.000245102,5.96184e-05,-0.00155646,-0.154092,0.00105807,0.0148895,902,1632,2.17745,-10.0867
-315,-608,2.17584,10.2443,0.000289608,-0.00120193,-0.000193211,0.00031423,-0.00122655,-0.126751,0.000940117,0.0131766,909,1632,2.17586,-10.2443
-308,-608,2.19647,10.4471,0.00049431,-0.000949516,-0.000246346,0.000535184,-0.00099039,-0.164425,0.000893765,0.0131428,916,1632,2.19646,-10.4472
-301,-608,2.19788,10.6415,0.000655677,-0.00100022,-0.000329251,0.000718742,-0.00106328,-0.189249,0.00103524,0.0103486,923,1632,2.19787,-10.6415
-294,-608,2.19165,10.7944,0.000861559,-0.00104618,-0.000398571,0.000941482,-0.00112611,-0.197898,0.00119531,0.0100434,930,1632,2.19165,-10.7944
-287,-608,2.18066,10.9785,0.000993788,-0.00168304,-0.000539679,0.0010985,-0.00178775,-0.191641,0.00168214,0.00974975,937,1632,2.18064,-10.9785
-280,-608,2.19043,11.1483,0.00103919,-0.002968,-0.000835222,0.00120631,-0.00313512,-0.197478,0.00258767,0.00796272,944,1632,2.19045,-11.1483
-273,-608,2.19348,11.3134,0.00122309,-0.00429754,-0.00116946,0.0014606,-0.00453505,-0.200371,0.0036101,0.00835424,951,1632,2.19345,-11.3134
-266,-608,2.20917,11.4741,0.00132182,-0.00603324,-0.0015285,0.00162682,-0.00633824,-0.196954,0.0048594,0.00804135,958,1632,2.20915,-11.4742
-259,-608,2.2326,11.6117,0.00119027,-0.0083191,-0.00197632,0.00158465,-0.00871348,-0.196965,0.00640291,0.0104202,965,1632,2.23259,-11.6117
-252,-608,2.2298,11.7423,0.00122107,-0.0108743,-0.00260321,0.00175755,-0.0114108,-0.203238,0.00825563,0.0244361,972,1632,2.22979,-11.7424
-245,-608,2.43097,11.9984,-0.00114167,-0.0131311,-0.00327248,-0.000306621,-0.0139661,-0.249843,0.00921026,0.038449,979,1632,2.43095,-11.9984
-238,-608,2.50446,11.6563,-0.00646221,-0.014831,-0.00497941,-0.00414248,-0.0171508,-0.435968,0.0103336,0.0417906,986,1632,2.50444,-11.6563
-231,-608,2.30176,11.5242,-0.0107438,-0.0180111,-0.00653137,-0.00690333,-0.0218516,-0.531549,0.0128979,0.0483804,993,1632,2.30174,-11.5242
-224,-608,2.3443,12.0583,0,0,0,0,0,0,0,-1,1000,1632,2.34432,-12.0584
-217,-608,1.04419,12.8451,0,0,0,0,0,0,0,-1,1007,1632,1.04418,-12.8451
-210,-608,0.891479,12.912,0,0,0,0,0,0,0,-1,1014,1632,0.89145,-12.912
-203,-608,3.82922,12.4016,0,0,0,0,0,0,0,-1,1021,1632,3.82928,-12.4016
-196,-608,3.15015,12.2367,-0.0550715,-0.0120042,-0.00131665,-0.011964,-0.0551118,-1.54026,0.0334736,0.0467479,1028,1632,3.1501,-12.2367
-189,-608,2.30566,12.0508,-0.0654115,-0.00898192,0.00194659,-0.00891485,-0.0654786,1.53635,0.0410051,0.043058,1035,1632,2.30565,-12.0508
-182,-608,1.04382,11.6443,0,0,0,0,0,0,0,-1,1042,1632,1.04378,-11.6442
-175,-608,-0.0582275,11.2634,0,0,0,0,0,0,0,-1,1049,1632,-0.0581829,-11.2635
-168,-608,0.000366211,9.48645,0,0,0,0,0,0,0,-1,1056,1632,0.000317105,-9.48648
-161,-608,-0.939453,9.31458,0,0,0,0,0,0,0,-1,1063,1632,-0.939447,-9.31463
-154,-608,3.70996,11.3959,0,0,0,0,0,0,0,-1,1070,1632,3.70994,-11.3959
-147,-608,2.4386,9.50317,0,0,0,0,0,0,0,-1,1077,1632,2.43858,-9.50313
-140,-608,2.74121,10.6572,0,0,0,0,0,0,0,-1,1084,1632,2.74117,-10.6572
-133,-608,3.2312,12.4738,0,0,0,0,0,0,0,-1,1091,1632,3.23116,-12.4738
-126,-608,3.76465,13.9644,0,0,0,0,0,0,0,-1,1098,1632,3.76466,-13.9644
-119,-608,4.28906,15.4196,0,0,0,0,0,0,0,-1,1105,1632,4.28911,-15.4195
-112,-608,0.745117,10.5587,0,0,0,0,0,0,0,-1,1112,1632,0.745145,-10.5587
-105,-608,-0.252319,1.42419,0,0,0,0,0,0,0,-1,1119,1632,-0.252331,-1.42418
-98,-608,-1.67896,0.994629,0,0,0,0,0,0,0,-1,1126,1632,-1.67895,-0.994599
-91,-608,-2.99451,0.744629,0,0,0,0,0,0,0,-1,1133,1632,-2.99453,-0.744605
-84,-608,0,0,0,0,0,0,0,0,0,-1,1140,1632,0,0
-77,-608,0,0,0,0,0,0,0,0,0,-1,1147,1632,0,0
-70,-608,0,0,0,0,0,0,0,0,0,-1,1154,1632,0,0
-63,-608,0,0,0,0,0,0,0,0,0,-1,1161,1632,0,0
-56,-608,0,0,0,0,0,0,0,0,0,-1,1168,1632,0,0
-49,-608,0,0,0,0,0,0,0,0,0,-1,1175,1632,0,0
-42,-608,0,0,0,0,0,0,0,0,0,-1,1182,1632,0,0
-35,-608,0,0,0,0,0,0,0,0,0,-1,1189,1632,0,0
-28,-608,0,0,0,0,0,0,0,0,0,-1,1196,1632,0,0
-21,-608,0,0,0,0,0,0,0,0,0,-1,1203,1632,0,0
-14,-608,0,0,0,0,0,0,0,0,0,-1,1210,1632,0,0
-7,-608,0,0,0,0,0,0,0,0,0,-1,1217,1632,0,0
0,-608,0,0,0,0,0,0,0,0,0,-1,1224,1632,0,0
7,-608,0,0,0,0,0,0,0,0,0,-1,1231,1632,0,0
14,-608,0,0,0,0,0,0,0,0,0,-1,1238,1632,0,0
21,-608,0,0,0,0,0,0,0,0,0,-1,1245,1632,0,0
28,-608,0,0,0,0,0,0,0,0,0,-1,1252,1632,0,0
35,-608,0,0,0,0,0,0,0,0,0,-1,1259,1632,0,0
42,-608,0,0,0,0,0,0,0,0,0,-1,1266,1632,0,0
49,-608,0,0,0,0,0,0,0,0,0,-1,1273,1632,0,0
56,-608,0,0,0,0,0,0,0,0,0,-1,1280,1632,0,0
63,-608,0,0,0,0,0,0,0,0,0,-1,1287,1632,0,0
70,-608,0,0,0,0,0,0,0,0,0,-1,1294,1632,0,0
77,-608,0,0,0,0,0,0,0,0,0,-1,1301,1632,0,0
84,-608,0,0,0,0,0,0,0,0,0,-1,1308,1632,0,0
91,-608,0,0,0,0,0,0,0,0,0,-1,1315,1632,0,0
98,-608,0,0,0,0,0,0,0,0,0,-1,1322,1632,0,0
105,-608,0,0,0,0,0,0,0,0,0,-1,1329,1632,0,0
112,-608,0,0,0,0,0,0,0,0,0,-1,1336,1632,0,0
119,-608,0,0,0,0,0,0,0,0,0,-1,1343,1632,0,0
126,-608,0,0,0,0,0,0,0,0,0,-1,1350,1632,0,0
133,-608,0,0,0,0,0,0,0,0,0,-1,1357,1632,0,0
140,-608,0,0,0,0,0,0,0,0,0,-1,1364,1632,0,0
147,-608,0,0,0,0,0,0,0,0,0,-1,1371,1632,0,0
154,-608,0,0,0,0,0,0,0,0,0,-1,1378,1632,0,0
161,-608,0,0,0,0,0,0,0,0,0,-1,1385,1632,0,0
168,-608,0,0,0,0,0,0,0,0,0,-1,1392,1632,0,0
175,-608,0,0,0,0,0,0,0,0,0,-1,1399,1632,0,0
182,-608,0,0,0,0,0,0,0,0,0,-1,1406,1632,0,0
189,-608,0,0,0,0,0,0,0,0,0,-1,1413,1632,0,0
196,-608,0,0,0,0,0,0,0,0,0,-1,1420,1632,0,0
203,-608,0,0,0,0,0,0,0,0,0,-1,1427,1632,0,0
210,-608,5.7157,-0.333008,0,0,0,0,0,0,0,-1,1434,1632,5.71566,0.333004
217,-608,4.49402,-0.831787,0,0,0,0,0,0,0,-1,1441,1632,4.49396,0.831738
224,-608,4.18018,-1.11792,0,0,0,0,0,0,0,-1,1448,1632,4.1802,1.11796
231,-608,0.361816,0.825195,0,0,0,0,0,0,0,-1,1455,1632,0.36185,-0.825226
238,-608,2.85388,-0.28833,0,0,0,0,0,0,0,-1,1462,1632,2.85391,0.288282
245,-608,3.87537,4.02173,0,0,0,0,0,0,0,-1,1469,1632,3.87538,-4.02168
252,-608,5.66956,3.5282,0,0,0,0,0,0,0,-1,1476,1632,5.6696,-3.52815
259,-608,7.47437,3.07178,0,0,0,0,0,0,0,-1,1483,1632,7.4744,-3.07172
266,-608,9.46936,2.34766,0,0,0,0,0,0,0,-1,1490,1632,9.46932,-2.34764
273,-608,6.03003,3.34241,0,0,0,0,0,0,0,-1,1497,1632,6.02997,-3.34245
280,-608,5.72461,2.0769,0,0,0,0,0,0,0,-1,1504,1632,5.72457,-2.07688
287,-608,6.20581,3.59338,0,0,0,0,0,0,0,-1,1511,1632,6.20585,-3.59341
294,-608,6.94922,5.17151,0,0,0,0,0,0,0,-1,1518,1632,6.94925,-5.17151
301,-608,7.60083,6.68018,0,0,0,0,0,0,0,-1,1525,1632,7.60086,-6.68013
308,-608,7.64746,9.93848,0,0,0,0,0,0,0,-1,1532,1632,7.64745,-9.93842
315,-608,5.98083,11.6373,0,0,0,0,0,0,0,-1,1539,1632,5.98082,-11.6373
322,-608,5.6637,11.7971,0,0,0,0,0,0,0,-1,1546,1632,5.66366,-11.7971
329,-608,5.62793,12.1296,0,0,0,0,0,0,0,-1,1553,1632,5.62795,-12.1296
336,-608,5.48633,7.82446,0,0,0,0,0,0,0,-1,1560,1632,5.48634,-7.82446
343,-608,5.47192,5.61047,0,0,0,0,0,0,0,-1,1567,1632,5.47192,-5.61045
350,-608,11.6957,1.71387,0,0,0,0,0,0,0,-1,1574,1632,11.6957,-1.71388
357,-608,3.77002,5.10046,0,0,0,0,0,0,0,-1,1581,1632,3.77002,-5.10043
364,-608,5.6925,11.2163,0,0,0,0,0,0,0,-1,1588,1632,5.69255,-11.2163
371,-608,6.46094,13.0819,0,0,0,0,0,0,0,-1,1595,1632,6.46092,-13.0819
378,-608,6.53625,12.7362,0.00160185,-0.0107119,0.0046749,0.00317555,-0.0122856,0.324713,0.00942888,0.0382991,1602,1632,6.53623,-12.7362
385,-608,6.47424,12.5104,0.00041489,-0.010176,0.00558698,0.00281724,-0.0125784,0.40609,0.00946547,0.0337964,1609,1632,6.47421,-12.5104
392,-608,6.43762,12.4315,-0.000252322,-0.00946632,0.00581654,0.00256069,-0.0122793,0.450461,0.00915988,0.0218462,1616,1632,6.43758,-12.4315
399,-608,6.41248,12.3585,-0.000536205,-0.00847171,0.00554984,0.00231834,-0.0113263,0.47506,0.00843055,0.0101898,1623,1632,6.41245,-12.3585
406,-608,6.41968,12.2316,-0.000604914,-0.00740681,0.00516004,0.00217414,-0.0101859,0.494028,0.0076194,0.00866926,1630,1632,6.41972,-12.2316
413,-608,6.40979,12.0792,-0.00076639,-0.00648857,0.00483403,0.00198979,-0.00924475,0.51819,0.00692242,0.00932082,1637,1632,6.40976,-12.0792
420,-608,6.41516,11.9353,-0.000797968,-0.0054652,0.00429075,0.0017527,-0.00801587,0.536335,0.0060139,0.0158115,1644,1632,6.4151,-11.9353
427,-608,6.43555,11.772,-0.000726658,-0.00457443,0.00370547,0.0015246,-0.00682569,0.545953,0.00513467,0.0177798,1651,1632,6.43552,-11.772
434,-608,6.4458,11.611,-0.000707004,-0.00367688,0.00308229,0.0012294,-0.00561328,0.560922,0.00421222,0.0151228,1658,1632,6.44584,-11.611
441,-608,6.43555,11.4723,-0.00085372,-0.00276898,0.0023434,0.000720165,-0.00434286,0.591428,0.00316275,0.0138498,1665,1632,6.43554,-11.4723
448,-608,6.44946,11.3027,-0.00122491,-0.00194483,0.00157048,2.63297e-05,-0.00319607,0.672742,0.00213955,0.0156122,1672,1632,6.44946,-11.3027
455,-608,6.46375,11.1479,-0.00166227,-0.00111105,0.00093532,-0.000411581,-0.00236175,0.928678,0.00145681,0.0114931,1679,1632,6.46377,-11.148
462,-608,6.44897,10.9948,-0.00206539,-0.000346882,0.000265885,-0.000306685,-0.00210558,1.42075,0.00131348,0.0100165,1686,1632,6.44901,-10.9948
469,-608,6.42114,10.8274,-0.00279648,0.00039976,-0.000367723,0.00044152,-0.00283824,-1.45772,0.0020552,0.00806842,1693,1632,6.4212,-10.8274
476,-608,6.41211,10.6511,-0.00364571,0.00154054,-0.00104796,0.00174429,-0.00384946,-1.37877,0.00330491,0.00828774,1700,1632,6.41212,-10.6511
483,-608,6.40588,10.4833,-0.00444544,0.00333992,-0.00162109,0.00366398,-0.0047695,-1.37349,0.004883,0.00774692,1707,1632,6.40593,-10.4832
490,-608,6.43494,10.3029,-0.00517951,0.00502799,-0.00223323,0.0054952,-0.00564671,-1.36456,0.00643299,0.00837646,1714,1632,6.43488,-10.3029
497,-608,6.44312,10.1163,-0.0060347,0.00710455,-0.00275557,0.00765905,-0.0065892,-1.37222,0.00823395,0.0127905,1721,1632,6.44312,-10.1163
504,-608,6.37378,9.91223,-0.0069061,0.0097439,-0.00323648,0.0103509,-0.00751309,-1.3854,0.0103571,0.0261188,1728,1632,6.37374,-9.91226
511,-608,6.49731,9.76599,-0.00756872,0.0132696,-0.00379143,0.013938,-0.00823711,-1.3963,0.012943,0.0408521,1735,1632,6.49737,-9.76598
518,-608,6.50354,9.54553,0,0,0,0,0,0,0,-1,1742,1632,6.50352,-9.54553
525,-608,6.10742,8.61145,0,0,0,0,0,0,0,-1,1749,1632,6.10736,-8.61142
532,-608,6.41748,7.4292,0,0,0,0,0,0,0,-1,1756,1632,6.41751,-7.42925
539,-608,9.40796,1.43457,0,0,0,0,0,0,0,-1,1763,1632,9.40801,-1.43463
546,-608,9.94031,2.1134,0,0,0,0,0,0,0,-1,1770,1632,9.94031,-2.11346
553,-608,10.363,2.81335,0,0,0,0,0,0,0,-1,1777,1632,10.3631,-2.81333
560,-608,9.23999,4.5636,0,0,0,0,0,0,0,-1,1784,1632,9.24,-4.56354
567,-608,0,0,0,0,0,0,0,0,0,-1,1791,1632,0,0
574,-608,0,0,0,0,0,0,0,0,0,-1,1798,1632,0,0
581,-608,0,0,0,0,0,0,0,0,0,-1,1805,1632,0,0
588,-608,0,0,0,0,0,0,0,0,0,-1,1812,1632,0,0
595,-608,0,0,0,0,0,0,0,0,0,-1,1819,1632,0,0
602,-608,0,0,0,0,0,0,0,0,0,-1,1826,1632,0,0
609,-608,0,0,0,0,0,0,0,0,0,-1,1833,1632,0,0
616,-608,0,0,0,0,0,0,0,0,0,-1,1840,1632,0,0
623,-608,0,0,0,0,0,0,0,0,0,-1,1847,1632,0,0
630,-608,0,0,0,0,0,0,0,0,0,-1,1854,1632,0,0
637,-608,0,0,0,0,0,0,0,0,0,-1,1861,1632,0,0
644,-608,0,0,0,0,0,0,0,0,0,-1,1868,1632,0,0
651,-608,0,0,0,0,0,0,0,0,0,-1,1875,1632,0,0
658,-608,0,0,0,0,0,0,0,0,0,-1,1882,1632,0,0
665,-608,0,0,0,0,0,0,0,0,0,-1,1889,1632,0,0
672,-608,0,0,0,0,0,0,0,0,0,-1,1896,1632,0,0
679,-608,0,0,0,0,0,0,0,0,0,-1,1903,1632,0,0
686,-608,0,0,0,0,0,0,0,0,0,-1,1910,1632,0,0
693,-608,0,0,0,0,0,0,0,0,0,-1,1917,1632,0,0
700,-608,0,0,0,0,0,0,0,0,0,-1,1924,1632,0,0
707,-608,0,0,0,0,0,0,0,0,0,-1,1931,1632,0,0
714,-608,0,0,0,0,0,0,0,0,0,-1,1938,1632,0,0
721,-608,0,0,0,0,0,0,0,0,0,-1,1945,1632,0,0
728,-608,0,0,0,0,0,0,0,0,0,-1,1952,1632,0,0
735,-608,0,0,0,0,0,0,0,0,0,-1,1959,1632,0,0
742,-608,0,0,0,0,0,0,0,0,0,-1,1966,1632,0,0
749,-608,0,0,0,0,0,0,0,0,0,-1,1973,1632,0,0
756,-608,0,0,0,0,0,0,0,0,0,-1,1980,1632,0,0
763,-608,0,0,0,0,0,0,0,0,0,-1,1987,1632,0,0
770,-608,0,0,0,0,0,0,0,0,0,-1,1994,1632,0,0
777,-608,0,0,0,0,0,0,0,0,0,-1,2001,1632,0,0
784,-608,0,0,0,0,0,0,0,0,0,-1,2008,1632,0,0
791,-608,0,0,0,0,0,0,0,0,0,-1,2015,1632,0,0
798,-608,0,0,0,0,0,0,0,0,0,-1,2022,1632,0,0
805,-608,0,0,0,0,0,0,0,0,0,-1,2029,1632,0,0
812,-608,0,0,0,0,0,0,0,0,0,-1,2036,1632,0,0
-700,-615,0,0,0,0,0,0,0,0,0,-1,524,1639,0,0
-693,-615,0,0,0,0,0,0,0,0,0,-1,531,1639,0,0
-686,-615,0,0,0,0,0,0,0,0,0,-1,538,1639,0,0
-679,-615,0,0,0,0,0,0,0,0,0,-1,545,1639,0,0
-672,-615,0,0,0,0,0,0,0,0,0,-1,552,1639,0,0
-665,-615,0,0,0,0,0,0,0,0,0,-1,559,1639,0,0
-658,-615,0,0,0,0,0,0,0,0,0,-1,566,1639,0,0
-651,-615,0,0,0,0,0,0,0,0,0,-1,573,1639,0,0
-644,-615,0,0,0,0,0,0,0,0,0,-1,580,1639,0,0
-637,-615,0,0,0,0,0,0,0,0,0,-1,587,1639,0,0
-630,-615,0,0,0,0,0,0,0,0,0,-1,594,1639,0,0
-623,-615,0,0,0,0,0,0,0,0,0,-1,601,1639,0,0
-616,-615,0,0,0,0,0,0,0,0,0,-1,608,1639,0,0
-609,-615,0,0,0,0,0,0,0,0,0,-1,615,1639,0,0
-602,-615,0,0,0,0,0,0,0,0,0,-1,622,1639,0,0
-595,-615,0,0,0,0,0,0,0,0,0,-1,629,1639,0,0
-588,-615,0,0,0,0,0,0,0,0,0,-1,636,1639,0,0
-581,-615,0,0,0,0,0,0,0,0,0,-1,643,1639,0,0
-574,-615,0,0,0,0,0,0,0,0,0,-1,650,1639,0,0
-567,-615,0,0,0,0,0,0,0,0,0,-1,657,1639,0,0
-560,-615,0,0,0,0,0,0,0,0,0,-1,664,1639,0,0
-553,-615,0,0,0,0,0,0,0,0,0,-1,671,1639,0,0
-546,-615,0,0,0,0,0,0,0,0,0,-1,678,1639,0,0
-539,-615,0,0,0,0,0,0,0,0,0,-1,685,1639,0,0
-532,-615,0,0,0,0,0,0,0,0,0,-1,692,1639,0,0
-525,-615,0,0,0,0,0,0,0,0,0,-1,699,1639,0,0
-518,-615,0,0,0,0,0,0,0,0,0,-1,706,1639,0,0
-511,-615,0,0,0,0,0,0,0,0,0,-1,713,1639,0,0
-504,-615,0,0,0,0,0,0,0,0,0,-1,720,1639,0,0
-497,-615,0,0,0,0,0,0,0,0,0,-1,727,1639,0,0
-490,-615,0,0,0,0,0,0,0,0,0,-1,734,1639,0,0
-483,-615,0,0,0,0,0,0,0,0,0,-1,741,1639,0,0
-476,-615,0,0,0,0,0,0,0,0,0,-1,748,1639,0,0
-469,-615,0,0,0,0,0,0,0,0,0,-1,755,1639,0,0
-462,-615,0,0,0,0,0,0,0,0,0,-1,762,1639,0,0
-455,-615,0,0,0,0,0,0,0,0,0,-1,769,1639,0,0
-448,-615,0,0,0,0,0,0,0,0,0,-1,776,1639,0,0
-441,-615,0,0,0,0,0,0,0,0,0,-1,783,1639,0,0
-434,-615,-7.64508,2.98596,0,0,0,0,0,0,0,-1,790,1639,-7.64505,-2.98594
-427,-615,-8.88153,0.496216,0,0,0,0,0,0,0,-1,797,1639,-8.88154,-0.49627
-420,-615,-7.74091,1.49768,0,0,0,0,0,0,0,-1,804,1639,-7.7409,-1.49771
-413,-615,-6.54474,2.53772,0,0,0,0,0,0,0,-1,811,1639,-6.54472,-2.53775
-406,-615,-5.43872,3.50488,0,0,0,0,0,0,0,-1,818,1639,-5.43874,-3.50493
-399,-615,-4.84875,3.91907,0,0,0,0,0,0,0,-1,825,1639,-4.84877,-3.91901
-392,-615,-3.4469,5.28418,0,0,0,0,0,0,0,-1,832,1639,-3.44689,-5.28422
-385,-615,2.79651,8.177,0,0,0,0,0,0,0,-1,839,1639,2.79652,-8.17697
-378,-615,2.7226,8.44409,0,0,0,0,0,0,0,-1,846,1639,2.72261,-8.44409
-371,-615,2.60022,8.67468,-0.00848099,-0.00568993,0.00182058,-0.00479156,-0.00937937,1.1124,0.00541561,0.045732,853,1639,2.60023,-8.67466
-364,-615,2.48297,8.89014,-0.00660049,-0.00612112,0.000895017,-0.00543425,-0.00728736,0.916226,0.00437342,0.033768,860,1639,2.48296,-8.89008
-357,-615,2.42065,9.17041,-0.00498939,-0.00570365,0.000290536,-0.00488614,-0.0058069,0.341468,0.00360377,0.0288251,867,1639,2.42067,-9.17044
-350,-615,2.35577,9.33521,-0.00385107,-0.00501946,-0.000246369,-0.00380125,-0.00506929,-0.199547,0.00304613,0.0257621,874,1639,2.35576,-9.33522
-343,-615,2.36072,9.47314,-0.00277917,-0.00424677,-0.000472969,-0.00263996,-0.00438599,-0.286266,0.00254973,0.018372,881,1639,2.36071,-9.47313
-336,-615,2.38007,9.6969,-0.00165328,-0.00372906,-0.0006702,-0.0014557,-0.00392664,-0.286685,0.00229217,0.010006,888,1639,2.38007,-9.69693
-329,-615,2.36359,9.89331,-0.000975395,-0.00281927,-0.000754457,-0.000706042,-0.00308863,-0.342911,0.00186874,0.0106745,895,1639,2.36356,-9.89331
-322,-615,2.35614,10.0908,-0.000644384,-0.00215088,-0.000762313,-0.000325949,-0.00246931,-0.395691,0.00154903,0.0115681,902,1639,2.35614,-10.0908
-315,-615,2.37109,10.2782,-0.000391783,-0.00174347,-0.000720939,-7.94374e-05,-0.00205581,-0.408837,0.00134484,0.01321,909,1639,2.37108,-10.2782
-308,-615,2.35028,10.46,-0.000196325,-0.00135405,-0.000778043,0.000194572,-0.00174494,-0.465574,0.00123328,0.0198001,916,1639,2.3503,-10.4599
-301,-615,2.35974,10.6304,-4.37522e-05,-0.00129772,-0.000848597,0.000384359,-0.00172583,-0.467236,0.00129779,0.0125264,923,1639,2.35973,-10.6304
-294,-615,2.37927,10.7957,0.000167571,-0.00122475,-0.000878924,0.000592635,-0.00164982,-0.450457,0.00134178,0.00972108,930,1639,2.37929,-10.7956
-287,-615,2.36212,10.9739,0.000314377,-0.00168773,-0.000953188,0.000695594,-0.00206895,-0.380455,0.00166046,0.00762834,937,1639,2.3621,-10.9738
-280,-615,2.36932,11.149,0.000393198,-0.00271934,-0.00113717,0.000764395,-0.00309053,-0.315518,0.00235684,0.00842761,944,1639,2.3693,-11.149
-273,-615,2.36646,11.3105,0.000630359,-0.00377331,-0.001326,0.000998804,-0.00414176,-0.271026,0.00314738,0.00951924,951,1639,2.36643,-11.3106
-266,-615,2.36792,11.462,0.000802624,-0.00510946,-0.00152354,0.00117214,-0.00547898,-0.237945,0.00409961,0.00965441,958,1639,2.36794,-11.462
-259,-615,2.38885,11.616,0.000777129,-0.00685293,-0.00180298,0.00118172,-0.00725753,-0.220744,0.00527655,0.010276,965,1639,2.38887,-11.616
-252,-615,2.40204,11.7639,0.000926149,-0.00878076,-0.00225469,0.0014243,-0.00927891,-0.217445,0.00671128,0.0121551,972,1639,2.40205,-11.7639
-245,-615,2.39307,11.8975,-0.000606726,-0.0106096,-0.00271907,8.46167e-05,-0.0113009,-0.248981,0.00756229,0.0191138,979,1639,2.39307,-11.8975
-238,-615,2.45892,12.0333,-0.00412372,-0.0119042,-0.00382466,-0.0025585,-0.0134694,-0.38845,0.00825992,0.0265822,986,1639,2.45894,-12.0333
-231,-615,2.50592,12.1577,-0.00661071,-0.0141732,-0.00475147,-0.00431954,-0.0164644,-0.449309,0.0098571,0.0346295,993,1639,2.50593,-12.1577
-224,-615,2.53357,12.2111,-0.00987472,-0.0150048,-0.00451041,-0.00725101,-0.0176285,-0.526856,0.0102311,0.0483215,1000,1639,2.53354,-12.211
-217,-615,2.60669,12.3757,0,0,0,0,0,0,0,-1,1007,1639,2.60671,-12.3757
-210,-615,2.53925,12.3553,0,0,0,0,0,0,0,-1,1014,1639,2.53923,-12.3553
-203,-615,3.45532,12.4214,0,0,0,0,0,0,0,-1,1021,1639,3.45533,-12.4213
-196,-615,2.95154,12.2892,-0.0349399,-0.0107162,0.00229847,-0.0105,-0.0351561,1.47703,0.0208386,0.0466295,1028,1639,2.95155,-12.2892
-189,-615,2.31653,11.901,-0.0417966,-0.00903676,0.00584042,-0.00802667,-0.0428067,1.39954,0.0262742,0.0465784,1035,1639,2.31649,-11.901
-182,-615,1.50366,11.3817,0,0,0,0,0,0,0,-1,1042,1639,1.5037,-11.3817
-175,-615,-0.609985,13.8434,0,0,0,0,0,0,0,-1,1049,1639,-0.610016,-13.8434
-168,-615,2.02783,9.96631,0,0,0,0,0,0,0,-1,1056,1639,2.0278,-9.96637
-161,-615,3.29114,11.3375,0,0,0,0,0,0,0,-1,1063,1639,3.29112,-11.3375
-154,-615,3.46436,11.5576,0,0,0,0,0,0,0,-1,1070,1639,3.46441,-11.5576
-147,-615,3.6377,11.7776,0,0,0,0,0,0,0,-1,1077,1639,3.63769,-11.7776
-140,-615,3.73401,10.2349,0,0,0,0,0,0,0,-1,1084,1639,3.73402,-10.2348
-133,-615,3.88013,11.3654,0,0,0,0,0,0,0,-1,1091,1639,3.88015,-11.3654
-126,-615,4.43408,12.5017,0,0,0,0,0,0,0,-1,1098,1639,4.43403,-12.5018
-119,-615,4.82983,13.9279,0,0,0,0,0,0,0,-1,1105,1639,4.82986,-13.9278
-112,-615,3.65698,14.4874,0,0,0,0,0,0,0,-1,1112,1639,3.65695,-14.4875
-105,-615,0.958496,2.45398,0,0,0,0,0,0,0,-1,1119,1639,0.958452,-2.45398
-98,-615,-0.647705,2.12109,0,0,0,0,0,0,0,-1,1126,1639,-0.647756,-2.12105
-91,-615,-1.48572,0.604492,0,0,0,0,0,0,0,-1,1133,1639,-1.48576,-0.604443
-84,-615,-2.46509,0.703247,0,0,0,0,0,0,0,-1,1140,1639,-2.46505,-0.703273
-77,-615,-3.17859,1.23755,0,0,0,0,0,0,0,-1,1147,1639,-3.17865,-1.23752
-70,-615,-4.03943,1.43335,0,0,0,0,0,0,0,-1,1154,1639,-4.03942,-1.43339
-63,-615,-4.8877,1.45544,0,0,0,0,0,0,0,-1,1161,1639,-4.88766,-1.45549
-56,-615,0,0,0,0,0,0,0,0,0,-1,1168,1639,0,0
-49,-615,0,0,0,0,0,0,0,0,0,-1,1175,1639,0,0
-42,-615,0,0,0,0,0,0,0,0,0,-1,1182,1639,0,0
-35,-615,0,0,0,0,0,0,0,0,0,-1,1189,1639,0,0
-28,-615,0,0,0,0,0,0,0,0,0,-1,1196,1639,0,0
-21,-615,0,0,0,0,0,0,0,0,0,-1,1203,1639,0,0
-14,-615,0,0,0,0,0,0,0,0,0,-1,1210,1639,0,0
-7,-615,0,0,0,0,0,0,0,0,0,-1,1217,1639,0,0
0,-615,0,0,0,0,0,0,0,0,0,-1,1224,1639,0,0
7,-615,0,0,0,0,0,0,0,0,0,-1,1231,1639,0,0
14,-615,0,0,0,0,0,0,0,0,0,-1,1238,1639,0,0
21,-615,0,0,0,0,0,0,0,0,0,-1,1245,1639,0,0
28,-615,0,0,0,0,0,0,0,0,0,-1,1252,1639,0,0
35,-615,0,0,0,0,0,0,0,0,0,-1,1259,1639,0,0
42,-615,0,0,0,0,0,0,0,0,0,-1,1266,1639,0,0
49,-615,0,0,0,0,0,0,0,0,0,-1,1273,1639,0,0
56,-615,0,0,0,0,0,0,0,0,0,-1,1280,1639,0,0
63,-615,0,0,0,0,0,0,0,0,0,-1,1287,1639,0,0
70,-615,0,0,0,0,0,0,0,0,0,-1,1294,1639,0,0
77,-615,0,0,0,0,0,0,0,0,0,-1,1301,1639,0,0
84,-615,0,0,0,0,0,0,0,0,0,-1,1308,1639,0,0
91,-615,0,0,0,0,0,0,0,0,0,-1,1315,1639,0,0
98,-615,0,0,0,0,0,0,0,0,0,-1,1322,1639,0,0
105,-615,0,0,0,0,0,0,0,0,0,-1,1329,1639,0,0
112,-615,0,0,0,0,0,0,0,0,0,-1,1336,1639,0,0
119,-615,0,0,0,0,0,0,0,0,0,-1,1343,1639,0,0
126,-615,0,0,0,0,0,0,0,0,0,-1,1350,1639,0,0
133,-615,0,0,0,0,0,0,0,0,0,-1,1357,1639,0,0
140,-615,0,0,0,0,0,0,0,0,0,-1,1364,1639,0,0
147,-615,0,0,0,0,0,0,0,0,0,-1,1371,1639,0,0
154,-615,0,0,0,0,0,0,0,0,0,-1,1378,1639,0,0
161,-615,0,0,0,0,0,0,0,0,0,-1,1385,1639,0,0
168,-615,0,0,0,0,0,0,0,0,0,-1,1392,1639,0,0
175,-615,5.39648,-2.00879,0,0,0,0,0,0,0,-1,1399,1639,5.3965,2.00881
182,-615,5.65393,-1.51025,0,0,0,0,0,0,0,-1,1406,1639,5.65388,1.51028
189,-615,5.58972,-1.35608,0,0,0,0,0,0,0,-1,1413,1639,5.58967,1.35607
196,-615,5.49915,-0.693604,0,0,0,0,0,0,0,-1,1420,1639,5.4991,0.693602
203,-615,5.33411,-0.226685,0,0,0,0,0,0,0,-1,1427,1639,5.33414,0.226689
210,-615,5.60278,0.108276,0,0,0,0,0,0,0,-1,1434,1639,5.60284,-0.10831
217,-615,6.26331,-0.307373,0,0,0,0,0,0,0,-1,1441,1639,6.26331,0.307372
224,-615,5.45422,-0.333984,0,0,0,0,0,0,0,-1,1448,1639,5.45422,0.333992
231,-615,4.92542,1.80298,0,0,0,0,0,0,0,-1,1455,1639,4.92537,-1.80297
238,-615,4.76355,1.96729,0,0,0,0,0,0,0,-1,1462,1639,4.76357,-1.96734
245,-615,4.08643,3.15906,0,0,0,0,0,0,0,-1,1469,1639,4.08638,-3.159
252,-615,6.37805,3.73889,0,0,0,0,0,0,0,-1,1476,1639,6.37806,-3.73891
259,-615,8.35974,3.16443,0,0,0,0,0,0,0,-1,1483,1639,8.35975,-3.16444
266,-615,10.3414,2.58997,0,0,0,0,0,0,0,-1,1490,1639,10.3414,-2.58996
273,-615,6.57043,1.84766,0,0,0,0,0,0,0,-1,1497,1639,6.5704,-1.84771
280,-615,7.10449,3.23438,0,0,0,0,0,0,0,-1,1504,1639,7.10447,-3.23435
287,-615,7.35779,4.68542,0,0,0,0,0,0,0,-1,1511,1639,7.35776,-4.68546
294,-615,7.63733,6.29114,0,0,0,0,0,0,0,-1,1518,1639,7.63735,-6.29109
301,-615,8.47925,11.452,0,0,0,0,0,0,0,-1,1525,1639,8.47922,-11.452
308,-615,6.8114,10.9059,0,0,0,0,0,0,0,-1,1532,1639,6.81137,-10.9058
315,-615,5.47205,12.715,0,0,0,0,0,0,0,-1,1539,1639,5.47201,-12.7149
322,-615,5.70752,15.2959,0,0,0,0,0,0,0,-1,1546,1639,5.70748,-15.296
329,-615,4.51575,14.1711,0,0,0,0,0,0,0,-1,1553,1639,4.51573,-14.1712
336,-615,5.5885,12.6012,0,0,0,0,0,0,0,-1,1560,1639,5.58852,-12.6012
343,-615,2.40491,6.50134,0,0,0,0,0,0,0,-1,1567,1639,2.40489,-6.50137
350,-615,6.27307,14.0443,0,0,0,0,0,0,0,-1,1574,1639,6.27305,-14.0444
357,-615,5.66797,13.1998,0,0,0,0,0,0,0,-1,1581,1639,5.66793,-13.1998
364,-615,6.39319,13.0758,0,0,0,0,0,0,0,-1,1588,1639,6.39323,-13.0758
371,-615,6.323,12.9435,0.00205537,-0.00814973,0.00209523,0.0024688,-0.00856315,0.194816,0.00668542,0.0394812,1595,1639,6.32299,-12.9435
378,-615,6.27734,12.8153,0.00146574,-0.00775047,0.00332841,0.00254209,-0.00882681,0.312767,0.00689003,0.0210988,1602,1639,6.2773,-12.8153
385,-615,6.25256,12.6416,0.000563571,-0.0073792,0.00404504,0.00226089,-0.00907652,0.397293,0.00692871,0.0117786,1609,1639,6.25251,-12.6416
392,-615,6.2428,12.5095,4.01361e-05,-0.00688478,0.00421361,0.00203141,-0.00887605,0.441472,0.00669798,0.0096723,1616,1639,6.24279,-12.5096
399,-615,6.24158,12.3816,-0.000277274,-0.006112,0.00402313,0.00177493,-0.0081642,0.471696,0.00612083,0.0101958,1623,1639,6.24159,-12.3816
406,-615,6.25977,12.2216,-0.000411725,-0.00532814,0.00372767,0.0015953,-0.00733517,0.493904,0.00549956,0.0107651,1630,1639,6.25978,-12.2215
413,-615,6.27039,12.083,-0.000611501,-0.00460062,0.00348747,0.00141149,-0.00662361,0.525639,0.00495373,0.0118421,1637,1639,6.27042,-12.083
420,-615,6.27502,11.95,-0.000679412,-0.00376305,0.00305771,0.00120321,-0.00564567,0.551881,0.00422239,0.0127307,1644,1639,6.27507,-11.9499
427,-615,6.26819,11.7726,-0.000644744,-0.00306224,0.00260415,0.00101751,-0.0047245,0.568113,0.00353795,0.0139497,1651,1639,6.26817,-11.7726
434,-615,6.26575,11.613,-0.00076856,-0.00230637,0.00207663,0.000676942,-0.00375187,0.608091,0.00275476,0.0133725,1658,1639,6.26579,-11.6131
441,-615,6.29102,11.4497,-0.00112281,-0.0015229,0.00140102,9.23756e-05,-0.00273809,0.714486,0.00185695,0.0142887,1665,1639,6.29107,-11.4497
448,-615,6.29651,11.2909,-0.00180583,-0.000860021,0.000710484,-0.000479446,-0.0021864,1.07903,0.00132698,0.0154736,1672,1639,6.29652,-11.2908
455,-615,6.29346,11.1625,-0.00256918,3.55196e-06,0.000195573,1.83341e-05,-0.00258396,1.49536,0.00172878,0.0137177,1679,1639,6.2934,-11.1624
462,-615,6.28357,11.0062,-0.00337066,0.000742069,-0.000421233,0.000784769,-0.00341336,-1.46977,0.0025773,0.0134984,1686,1639,6.28358,-11.0062
469,-615,6.26184,10.8397,-0.00452948,0.00153347,-0.00105479,0.00171174,-0.00470774,-1.40337,0.00383848,0.0118413,1693,1639,6.26187,-10.8397
476,-615,6.25684,10.6537,-0.00589664,0.00277265,-0.0017019,0.00309478,-0.00621877,-1.38373,0.00547709,0.01063,1700,1639,6.25684,-10.6537
483,-615,6.28137,10.4641,-0.00734183,0.00475572,-0.00225051,0.00516081,-0.00774693,-1.3927,0.00750198,0.0141034,1707,1639,6.28138,-10.4641
490,-615,6.297,10.2946,-0.00882394,0.00673634,-0.00284414,0.0072399,-0.0093275,-1.39556,0.00959047,0.0165213,1714,1639,6.29697,-10.2946
497,-615,6.25232,10.1525,-0.0104164,0.00924333,-0.00335096,0.0097988,-0.0109719,-1.40653,0.0119983,0.0235677,1721,1639,6.25226,-10.1524
504,-615,6.0968,9.95142,-0.0120884,0.0125676,-0.00380103,0.0131403,-0.012661,-1.42126,0.0148973,0.041111,1728,1639,6.09686,-9.95146
511,-615,6.35571,9.71252,0,0,0,0,0,0,0,-1,1735,1639,6.3557,-9.71253
518,-615,6.46326,8.26929,0,0,0,0,0,0,0,-1,1742,1639,6.46326,-8.26927
525,-615,4.37524,3.90491,0,0,0,0,0,0,0,-1,1749,1639,4.37518,-3.90495
532,-615,7.3645,0.848145,0,0,0,0,0,0,0,-1,1756,1639,7.36451,-0.848093
539,-615,12.8112,-0.0476074,0,0,0,0,0,0,0,-1,1763,1639,12.8111,0.0475553
546,-615,8.33813,2.94556,0,0,0,0,0,0,0,-1,1770,1639,8.33813,-2.9455
553,-615,5.82532,-2.04199,0,0,0,0,0,0,0,-1,1777,1639,5.82534,2.04195
560,-615,0,0,0,0,0,0,0,0,0,-1,1784,1639,0,0
567,-615,0,0,0,0,0,0,0,0,0,-1,1791,1639,0,0
574,-615,0,0,0,0,0,0,0,0,0,-1,1798,1639,0,0
581,-615,0,0,0,0,0,0,0,0,0,-1,1805,1639,0,0
588,-615,0,0,0,0,0,0,0,0,0,-1,1812,1639,0,0
595,-615,0,0,0,0,0,0,0,0,0,-1,1819,1639,0,0
602,-615,0,0,0,0,0,0,0,0,0,-1,1826,1639,0,0
609,-615,0,0,0,0,0,0,0,0,0,-1,1833,1639,0,0
616,-615,0,0,0,0,0,0,0,0,0,-1,1840,1639,0,0
623,-615,0,0,0,0,0,0,0,0,0,-1,1847,1639,0,0
630,-615,0,0,0,0,0,0,0,0,0,-1,1854,1639,0,0
637,-615,0,0,0,0,0,0,0,0,0,-1,1861,1639,0,0
644,-615,0,0,0,0,0,0,0,0,0,-1,1868,1639,0,0
651,-615,0,0,0,0,0,0,0,0,0,-1,1875,1639,0,0
658,-615,0,0,0,0,0,0,0,0,0,-1,1882,1639,0,0
665,-615,0,0,0,0,0,0,0,0,0,-1,1889,1639,0,0
672,-615,0,0,0,0,0,0,0,0,0,-1,1896,1639,0,0
679,-615,0,0,0,0,0,0,0,0,0,-1,1903,1639,0,0
686,-615,0,0,0,0,0,0,0,0,0,-1,1910,1639,0,0
693,-615,0,0,0,0,0,0,0,0,0,-1,1917,1639,0,0
700,-615,0,0,0,0,0,0,0,0,0,-1,1924,1639,0,0
707,-615,0,0,0,0,0,0,0,0,0,-1,1931,1639,0,0
714,-615,0,0,0,0,0,0,0,0,0,-1,1938,1639,0,0
721,-615,0,0,0,0,0,0,0,0,0,-1,1945,1639,0,0
728,-615,0,0,0,0,0,0,0,0,0,-1,1952,1639,0,0
735,-615,0,0,0,0,0,0,0,0,0,-1,1959,1639,0,0
742,-615,0,0,0,0,0,0,0,0,0,-1,1966,1639,0,0
749,-615,0,0,0,0,0,0,0,0,0,-1,1973,1639,0,0
756,-615,0,0,0,0,0,0,0,0,0,-1,1980,1639,0,0
763,-615,0,0,0,0,0,0,0,0,0,-1,1987,1639,0,0
770,-615,0,0,0,0,0,0,0,0,0,-1,1994,1639,0,0
777,-615,0,0,0,0,0,0,0,0,0,-1,2001,1639,0,0
784,-615,0,0,0,0,0,0,0,0,0,-1,2008,1639,0,0
791,-615,0,0,0,0,0,0,0,0,0,-1,2015,1639,0,0
798,-615,0,0,0,0,0,0,0,0,0,-1,2022,1639,0,0
805,-615,0,0,0,0,0,0,0,0,0,-1,2029,1639,0,0
812,-615,0,0,0,0,0,0,0,0,0,-1,2036,1639,0,0
-700,-622,0,0,0,0,0,0,0,0,0,-1,524,1646,0,0
-693,-622,0,0,0,0,0,0,0,0,0,-1,531,1646,0,0
-686,-622,0,0,0,0,0,0,0,0,0,-1,538,1646,0,0
-679,-622,0,0,0,0,0,0,0,0,0,-1,545,1646,0,0
-672,-622,0,0,0,0,0,0,0,0,0,-1,552,1646,0,0
-665,-622,0,0,0,0,0,0,0,0,0,-1,559,1646,0,0
-658,-622,0,0,0,0,0,0,0,0,0,-1,566,1646,0,0
-651,-622,0,0,0,0,0,0,0,0,0,-1,573,1646,0,0
-644,-622,0,0,0,0,0,0,0,0,0,-1,580,1646,0,0
-637,-622,0,0,0,0,0,0,0,0,0,-1,587,1646,0,0
-630,-622,0,0,0,0,0,0,0,0,0,-1,594,1646,0,0
-623,-622,0,0,0,0,0,0,0,0,0,-1,601,1646,0,0
-616,-622,0,0,0,0,0,0,0,0,0,-1,608,1646,0,0
-609,-622,0,0,0,0,0,0,0,0,0,-1,615,1646,0,0
-602,-622,0,0,0,0,0,0,0,0,0,-1,622,1646,0,0
-595,-622,0,0,0,0,0,0,0,0,0,-1,629,1646,0,0
-588,-622,0,0,0,0,0,0,0,0,0,-1,636,1646,0,0
-581,-622,0,0,0,0,0,0,0,0,0,-1,643,1646,0,0
-574,-622,0,0,0,0,0,0,0,0,0,-1,650,1646,0,0
-567,-622,0,0,0,0,0,0,0,0,0,-1,657,1646,0,0
-560,-622,0,0,0,0,0,0,0,0,0,-1,664,1646,0,0
-553,-622,0,0,0,0,0,0,0,0,0,-1,671,1646,0,0
-546,-622,0,0,0,0,0,0,0,0,0,-1,678,1646,0,0
-539,-622,0,0,0,0,0,0,0,0,0,-1,685,1646,0,0
-532,-622,0,0,0,0,0,0,0,0,0,-1,692,1646,0,0
-525,-622,0,0,0,0,0,0,0,0,0,-1,699,1646,0,0
-518,-622,0,0,0,0,0,0,0,0,0,-1,706,1646,0,0
-511,-622,0,0,0,0,0,0,0,0,0,-1,713,1646,0,0
-504,-622,0,0,0,0,0,0,0,0,0,-1,720,1646,0,0
-497,-622,0,0,0,0,0,0,0,0,0,-1,727,1646,0,0
-490,-622,0,0,0,0,0,0,0,0,0,-1,734,1646,0,0
-483,-622,0,0,0,0,0,0,0,0,0,-1,741,1646,0,0
-476,-622,0,0,0,0,0,0,0,0,0,-1,748,1646,0,0
-469,-622,0,0,0,0,0,0,0,0,0,-1,755,1646,0,0
-462,-622,0,0,0,0,0,0,0,0,0,-1,762,1646,0,0
-455,-622,0,0,0,0,0,0,0,0,0,-1,769,1646,0,0
-448,-622,0,0,0,0,0,0,0,0,0,-1,776,1646,0,0
-441,-622,0,0,0,0,0,0,0,0,0,-1,783,1646,0,0
-434,-622,0,0,0,0,0,0,0,0,0,-1,790,1646,0,0
-427,-622,-7.62891,3.48096,0,0,0,0,0,0,0,-1,797,1646,-7.62892,-3.48092
-420,-622,-9.86938,0.0371094,0,0,0,0,0,0,0,-1,804,1646,-9.86937,-0.0371326
-413,-622,-8.5658,1.0321,0,0,0,0,0,0,0,-1,811,1646,-8.56579,-1.03216
-406,-622,-4.44318,2.16858,0,0,0,0,0,0,0,-1,818,1646,-4.44315,-2.16859
-399,-622,-7.06976,1.51001,0,0,0,0,0,0,0,-1,825,1646,-7.06976,-1.51005
-392,-622,3.89551,5.85376,0,0,0,0,0,0,0,-1,832,1646,3.8955,-5.85379
-385,-622,4.37762,7.35767,0,0,0,0,0,0,0,-1,839,1646,4.37765,-7.35761
-378,-622,2.91351,8.23767,0,0,0,0,0,0,0,-1,846,1646,2.91351,-8.23768
-371,-622,2.77765,8.6543,0,0,0,0,0,0,0,-1,853,1646,2.77765,-8.65429
-364,-622,2.68054,9.12646,-0.00836986,-0.00870446,0.000429437,-0.00807629,-0.00899804,0.599649,0.00571627,0.0469306,860,1646,2.68051,-9.1265
-357,-622,2.5769,9.2688,-0.00640168,-0.00779895,-0.000381034,-0.00630453,-0.0078961,-0.249652,0.00482191,0.0460786,867,1646,2.57691,-9.26886
-350,-622,2.51233,9.46936,-0.00489507,-0.00672789,-0.000946265,-0.0044942,-0.00712876,-0.400714,0.00416221,0.0388752,874,1646,2.5123,-9.46935
-343,-622,2.44611,9.55591,-0.0035341,-0.00560497,-0.00123119,-0.00296083,-0.00617824,-0.435773,0.00356804,0.0237568,881,1646,2.44609,-9.55596
-336,-622,2.54144,9.70154,-0.00223998,-0.00477701,-0.00142609,-0.00159987,-0.00541712,-0.421904,0.00321373,0.00897339,888,1646,2.54145,-9.70159
-329,-622,2.54053,9.90332,-0.0015262,-0.00362006,-0.00151704,-0.000729909,-0.00441635,-0.483367,0.00273361,0.00932974,895,1646,2.54051,-9.90329
-322,-622,2.5365,10.0986,-0.00119493,-0.0027476,-0.00150833,-0.000274871,-0.00366765,-0.547729,0.00235882,0.0107482,902,1646,2.5365,-10.0987
-315,-622,2.53979,10.2794,-0.000973854,-0.00219271,-0.00145917,-1.96206e-06,-0.0031646,-0.587582,0.00210908,0.0139786,909,1646,2.53981,-10.2794
-308,-622,2.53271,10.4457,-0.000817686,-0.00163719,-0.00150037,0.000327877,-0.00278275,-0.652099,0.00197356,0.0144638,916,1646,2.53274,-10.4457
-301,-622,2.54138,10.6145,-0.000705698,-0.00145753,-0.00153261,0.000496423,-0.00265965,-0.665134,0.00195965,0.0134336,923,1646,2.5414,-10.6145
-294,-622,2.54218,10.7965,-0.000518589,-0.00126967,-0.00149556,0.000647857,-0.00243611,-0.66239,0.00187766,0.00996497,930,1646,2.5422,-10.7966
-287,-622,2.53857,10.9735,-0.00037623,-0.00156366,-0.00146696,0.000612604,-0.0025525,-0.593111,0.00193841,0.00780786,937,1646,2.53856,-10.9735
-280,-622,2.53748,11.1404,-0.000270692,-0.00235752,-0.00150692,0.000518796,-0.00314701,-0.48259,0.00229061,0.00859709,944,1646,2.53749,-11.1403
-273,-622,2.54309,11.2827,2.67716e-05,-0.00316646,-0.00152451,0.000637717,-0.0037774,-0.381151,0.00275555,0.0120854,951,1646,2.54308,-11.2827
-266,-622,2.52527,11.458,0.000293273,-0.00417537,-0.00154648,0.000776267,-0.00465837,-0.302719,0.00339405,0.0118224,958,1646,2.52526,-11.458
-259,-622,2.53796,11.6372,0.000402678,-0.00546441,-0.00162623,0.000823281,-0.00588501,-0.253091,0.00422459,0.0107579,965,1646,2.53798,-11.6371
-252,-622,2.56354,11.7958,0.000674607,-0.00688077,-0.00188177,0.00111734,-0.0073235,-0.231074,0.00529423,0.0115079,972,1646,2.56357,-11.7958
-245,-622,2.57135,11.9518,-0.000187912,-0.00833528,-0.00215247,0.000345794,-0.00886899,-0.243048,0.00603123,0.00893758,979,1646,2.57134,-11.9518
-238,-622,2.57581,12.1132,-0.00242388,-0.00930882,-0.00288175,-0.00137691,-0.0103558,-0.348484,0.00649373,0.0097602,986,1646,2.5758,-12.1131
-231,-622,2.612,12.2561,-0.00373158,-0.0109424,-0.0034362,-0.00235638,-0.0123176,-0.380687,0.00754985,0.0135145,993,1646,2.61202,-12.2561
-224,-622,2.68939,12.3757,-0.00556605,-0.0116469,-0.00305233,-0.00429825,-0.0129147,-0.393674,0.007594,0.022036,1000,1646,2.68938,-12.3758
-217,-622,2.75122,12.4116,-0.00809136,-0.0117857,-0.00214508,-0.00710774,-0.0127694,-0.429939,0.00738814,0.0336404,1007,1646,2.7512,-12.4116
-210,-622,2.62061,12.4559,-0.011645,-0.0113567,-0.000599344,-0.0108844,-0.0121173,-0.903393,0.00770021,0.0444203,1014,1646,2.62058,-12.4559
-203,-622,2.60327,12.4983,0,0,0,0,0,0,0,-1,1021,1646,2.6033,-12.4982
-196,-622,2.83911,12.5018,0,0,0,0,0,0,0,-1,1028,1646,2.8391,-12.5018
-189,-622,2.33838,12.4,0,0,0,0,0,0,0,-1,1035,1646,2.3384,-12.4001
-182,-622,2.79504,12.1826,0,0,0,0,0,0,0,-1,1042,1646,2.79503,-12.1826
-175,-622,2.56091,11.0195,0,0,0,0,0,0,0,-1,1049,1646,2.56095,-11.0195
-168,-622,4.76489,10.7617,0,0,0,0,0,0,0,-1,1056,1646,4.76491,-10.7617
-161,-622,5.22473,13.5771,0,0,0,0,0,0,0,-1,1063,1646,5.22469,-13.5771
-154,-622,4.90881,13.4409,0,0,0,0,0,0,0,-1,1070,1646,4.90884,-13.4409
-147,-622,4.32397,13.5267,0,0,0,0,0,0,0,-1,1077,1646,4.32399,-13.5267
-140,-622,3.15784,10.7809,0,0,0,0,0,0,0,-1,1084,1646,3.15778,-10.7809
-133,-622,3.40173,10.0699,0,0,0,0,0,0,0,-1,1091,1646,3.40173,-10.0699
-126,-622,4.83423,11.7699,0,0,0,0,0,0,0,-1,1098,1646,4.83428,-11.7699
-119,-622,4.06384,13.1715,0,0,0,0,0,0,0,-1,1105,1646,4.06379,-13.1716
-112,-622,4.33276,14.6605,0,0,0,0,0,0,0,-1,1112,1646,4.33281,-14.6605
-105,-622,0.306519,4.38159,0,0,0,0,0,0,0,-1,1119,1646,0.306536,-4.38159
-98,-622,-0.510376,3.5033,0,0,0,0,0,0,0,-1,1126,1646,-0.510393,-3.50324
-91,-622,-1.146,0.975952,0,0,0,0,0,0,0,-1,1133,1646,-1.14599,-0.97597
-84,-622,-2.04895,1.31787,0,0,0,0,0,0,0,-1,1140,1646,-2.0489,-1.31781
-77,-622,-1.80627,0.332275,0,0,0,0,0,0,0,-1,1147,1646,-1.80622,-0.33223
-70,-622,-3.65588,2.28149,0,0,0,0,0,0,0,-1,1154,1646,-3.65589,-2.28155
-63,-622,-2.49683,1.27087,0,0,0,0,0,0,0,-1,1161,1646,-2.49679,-1.27093
-56,-622,-2.44238,-0.575562,0,0,0,0,0,0,0,-1,1168,1646,-2.44242,0.575508
-49,-622,-2.41089,1.38818,0,0,0,0,0,0,0,-1,1175,1646,-2.41088,-1.38815
-42,-622,-2.71497,2.85242,0,0,0,0,0,0,0,-1,1182,1646,-2.71491,-2.85247
-35,-622,-3.0177,4.25842,0,0,0,0,0,0,0,-1,1189,1646,-3.01773,-4.25838
-28,-622,-0.896606,0.678833,0,0,0,0,0,0,0,-1,1196,1646,-0.89661,-0.678835
-21,-622,6.63062,12.6195,0,0,0,0,0,0,0,-1,1203,1646,6.63065,-12.6195
-14,-622,6.52832,13.0504,0,0,0,0,0,0,0,-1,1210,1646,6.52833,-13.0504
-7,-622,6.2821,13.4749,0,0,0,0,0,0,0,-1,1217,1646,6.28209,-13.4748
0,-622,0,0,0,0,0,0,0,0,0,-1,1224,1646,0,0
7,-622,0,0,0,0,0,0,0,0,0,-1,1231,1646,0,0
14,-622,0,0,0,0,0,0,0,0,0,-1,1238,1646,0,0
21,-622,0,0,0,0,0,0,0,0,0,-1,1245,1646,0,0
28,-622,0,0,0,0,0,0,0,0,0,-1,1252,1646,0,0
35,-622,0,0,0,0,0,0,0,0,0,-1,1259,1646,0,0
42,-622,0,0,0,0,0,0,0,0,0,-1,1266,1646,0,0
49,-622,0,0,0,0,0,0,0,0,0,-1,1273,1646,0,0
56,-622,0,0,0,0,0,0,0,0,0,-1,1280,1646,0,0
63,-622,0,0,0,0,0,0,0,0,0,-1,1287,1646,0,0
70,-622,0,0,0,0,0,0,0,0,0,-1,1294,1646,0,0
77,-622,0,0,0,0,0,0,0,0,0,-1,1301,1646,0,0
84,-622,0,0,0,0,0,0,0,0,0,-1,1308,1646,0,0
91,-622,0,0,0,0,0,0,0,0,0,-1,1315,1646,0,0
98,-622,0,0,0,0,0,0,0,0,0,-1,1322,1646,0,0
105,-622,0,0,0,0,0,0,0,0,0,-1,1329,1646,0,0
112,-622,0,0,0,0,0,0,0,0,0,-1,1336,1646,0,0
119,-622,0,0,0,0,0,0,0,0,0,-1,1343,1646,0,0
126,-622,10.2715,2.68677,0,0,0,0,0,0,0,-1,1350,1646,10.2715,-2.68682
133,-622,11.8258,1.63623,0,0,0,0,0,0,0,-1,1357,1646,11.8259,-1.63624
140,-622,12.7906,0.00170898,0,0,0,0,0,0,0,-1,1364,1646,12.7906,-0.00173178
147,-622,14.9331,-1.63586,0,0,0,0,0,0,0,-1,1371,1646,14.9332,1.63588
154,-622,17.1903,-3.24805,0,0,0,0,0,0,0,-1,1378,1646,17.1903,3.24802
161,-622,10.6884,6.46448,0,0,0,0,0,0,0,-1,1385,1646,10.6883,-6.46442
168,-622,12.2402,5.18091,0,0,0,0,0,0,0,-1,1392,1646,12.2403,-5.1809
175,-622,5.64355,-1.77075,0,0,0,0,0,0,0,-1,1399,1646,5.64351,1.77077
182,-622,5.88586,-1.32251,0,0,0,0,0,0,0,-1,1406,1646,5.88587,1.32256
189,-622,5.97986,-1.18005,0,0,0,0,0,0,0,-1,1413,1646,5.97986,1.18003
196,-622,5.85022,-0.244507,0,0,0,0,0,0,0,-1,1420,1646,5.85026,0.244478
203,-622,5.25159,0.138794,0,0,0,0,0,0,0,-1,1427,1646,5.25162,-0.138822
210,-622,6.66833,0.0397949,0,0,0,0,0,0,0,-1,1434,1646,6.6684,-0.0398278
217,-622,6.12061,0.0506592,0,0,0,0,0,0,0,-1,1441,1646,6.12058,-0.0507181
224,-622,5.57275,0.0616455,0,0,0,0,0,0,0,-1,1448,1646,5.57276,-0.0616084
231,-622,5.31348,1.3949,0,0,0,0,0,0,0,-1,1455,1646,5.31342,-1.39495
238,-622,3.76477,2.90686,0,0,0,0,0,0,0,-1,1462,1646,3.7648,-2.90686
245,-622,5.13794,2.67993,0,0,0,0,0,0,0,-1,1469,1646,5.13796,-2.67992
252,-622,6.66528,2.53992,0,0,0,0,0,0,0,-1,1476,1646,6.66522,-2.53991
259,-622,8.93787,3.31458,0,0,0,0,0,0,0,-1,1483,1646,8.93791,-3.31454
266,-622,5.72644,3.11926,0,0,0,0,0,0,0,-1,1490,1646,5.72647,-3.1192
273,-622,7.28076,3.61218,0,0,0,0,0,0,0,-1,1497,1646,7.28071,-3.61212
280,-622,8.43127,4.4447,0,0,0,0,0,0,0,-1,1504,1646,8.43123,-4.44467
287,-622,8.60315,5.94617,0,0,0,0,0,0,0,-1,1511,1646,8.60319,-5.94622
294,-622,7.62756,11.5143,0,0,0,0,0,0,0,-1,1518,1646,7.62762,-11.5143
301,-622,7.36548,11.6569,0,0,0,0,0,0,0,-1,1525,1646,7.36549,-11.6569
308,-622,7.10339,11.7994,0,0,0,0,0,0,0,-1,1532,1646,7.10335,-11.7995
315,-622,5.24878,14.3008,0,0,0,0,0,0,0,-1,1539,1646,5.24882,-14.3008
322,-622,5.13794,13.6504,0,0,0,0,0,0,0,-1,1546,1646,5.13788,-13.6504
329,-622,4.96375,13.8119,0,0,0,0,0,0,0,-1,1553,1646,4.9638,-13.8119
336,-622,5.51392,13.4922,0,0,0,0,0,0,0,-1,1560,1646,5.51396,-13.4922
343,-622,5.97144,13.1298,0,0,0,0,0,0,0,-1,1567,1646,5.9714,-13.1298
350,-622,5.84265,13.3505,0,0,0,0,0,0,0,-1,1574,1646,5.84271,-13.3505
357,-622,5.84814,13.1826,0.0020827,-0.00777009,0.000811846,0.00214914,-0.00783654,0.0816636,0.00606894,0.0398936,1581,1646,5.84809,-13.1826
364,-622,6.09863,12.9746,0.00171519,-0.00680667,0.00119815,0.00188045,-0.00697192,0.137058,0.00538533,0.0311304,1588,1646,6.09867,-12.9746
371,-622,6.1571,12.9258,0.00180909,-0.00570873,0.00129256,0.00202512,-0.00592476,0.1656,0.00477038,0.0190769,1595,1646,6.15705,-12.9258
378,-622,6.11023,12.8094,0.00131505,-0.00541391,0.00222822,0.001986,-0.00608486,0.292479,0.00485589,0.0102023,1602,1646,6.11024,-12.8094
385,-622,6.08093,12.6796,0.000649041,-0.00516011,0.00279672,0.00177661,-0.00628768,0.383241,0.00489272,0.00887778,1609,1646,6.0809,-12.6795
392,-622,6.08008,12.5375,0.000201377,-0.00482027,0.00291612,0.00153867,-0.00615756,0.429972,0.0047026,0.0101619,1616,1646,6.08004,-12.5375
399,-622,6.08081,12.3828,-0.000121831,-0.0042091,0.00276498,0.00127279,-0.00560372,0.46715,0.00422448,0.0103997,1623,1646,6.08086,-12.3828
406,-622,6.10742,12.2239,-0.000305225,-0.0036403,0.00252201,0.00105068,-0.00499621,0.493296,0.00373068,0.0131616,1630,1646,6.10744,-12.2238
413,-622,6.12573,12.0778,-0.000558922,-0.0030688,0.00231373,0.000818289,-0.00444601,0.536908,0.00327107,0.0152337,1637,1646,6.12573,-12.0778
420,-622,6.12366,11.9296,-0.000697164,-0.00236349,0.0019526,0.000592597,-0.00365325,0.583746,0.00265517,0.0156576,1644,1646,6.12371,-11.9296
427,-622,6.10498,11.7732,-0.000746459,-0.00178613,0.00158626,0.000402975,-0.00293557,0.627057,0.00210427,0.0123267,1651,1646,6.10497,-11.7732
434,-622,6.11401,11.6219,-0.00110685,-0.00110494,0.0011096,3.7069e-06,-0.0022155,0.785828,0.00147824,0.0121592,1658,1646,6.11399,-11.6219
441,-622,6.14551,11.4634,-0.00178231,-0.000385069,0.000459741,-0.000247368,-0.00192001,1.27978,0.00120604,0.0136837,1665,1646,6.14548,-11.4634
448,-622,6.11609,11.3306,-0.00289626,0.000164516,-0.000177842,0.000174815,-0.00290656,-1.51295,0.00199853,0.0130051,1672,1646,6.11614,-11.3305
455,-622,6.10266,11.1613,-0.00411725,0.00114315,-0.000583901,0.00120718,-0.00418128,-1.46157,0.00326517,0.0151022,1679,1646,6.1026,-11.1612
462,-622,6.1178,11.0035,-0.00548684,0.00192337,-0.00116756,0.00210298,-0.00566645,-1.41816,0.00464029,0.0174137,1686,1646,6.11775,-11.0035
469,-622,6.09851,10.8347,-0.00728995,0.00283834,-0.00180241,0.00314953,-0.00760114,-1.39983,0.00638182,0.0178046,1693,1646,6.09847,-10.8347
476,-622,6.11731,10.6554,-0.00942115,0.00425809,-0.00241474,0.00467184,-0.0098349,-1.4011,0.00855046,0.0168566,1700,1646,6.11731,-10.6554
483,-622,6.14514,10.4656,-0.0117393,0.00646671,-0.00294022,0.00692977,-0.0122024,-1.41459,0.0111849,0.0237395,1707,1646,6.14516,-10.4655
490,-622,6.1842,10.308,-0.014198,0.00883398,-0.00348551,0.0093499,-0.0147139,-1.42385,0.0140078,0.0306538,1714,1646,6.18416,-10.308
497,-622,6.11731,10.2091,-0.0167294,0.0118417,-0.00395958,0.0123803,-0.017268,-1.4356,0.0171948,0.039398,1721,1646,6.11736,-10.2091
504,-622,6.02307,10.0314,0,0,0,0,0,0,0,-1,1728,1646,6.02304,-10.0314
511,-622,5.29004,4.14587,0,0,0,0,0,0,0,-1,1735,1646,5.29008,-4.14589
518,-622,5.6001,1.55359,0,0,0,0,0,0,0,-1,1742,1646,5.60015,-1.5536
525,-622,5.68213,1.32361,0,0,0,0,0,0,0,-1,1749,1646,5.68209,-1.32361
532,-622,5.44202,0.57373,0,0,0,0,0,0,0,-1,1756,1646,5.44196,-0.573705
539,-622,9.32129,1.06116,0,0,0,0,0,0,0,-1,1763,1646,9.32131,-1.0612
546,-622,6.50977,-3.45618,0,0,0,0,0,0,0,-1,1770,1646,6.50981,3.4562
553,-622,0,0,0,0,0,0,0,0,0,-1,1777,1646,0,0
560,-622,0,0,0,0,0,0,0,0,0,-1,1784,1646,0,0
567,-622,0,0,0,0,0,0,0,0,0,-1,1791,1646,0,0
574,-622,0,0,0,0,0,0,0,0,0,-1,1798,1646,0,0
581,-622,0,0,0,0,0,0,0,0,0,-1,1805,1646,0,0
588,-622,0,0,0,0,0,0,0,0,0,-1,1812,1646,0,0
595,-622,0,0,0,0,0,0,0,0,0,-1,1819,1646,0,0
602,-622,0,0,0,0,0,0,0,0,0,-1,1826,1646,0,0
609,-622,0,0,0,0,0,0,0,0,0,-1,1833,1646,0,0
616,-622,0,0,0,0,0,0,0,0,0,-1,1840,1646,0,0
623,-622,0,0,0,0,0,0,0,0,0,-1,1847,1646,0,0
630,-622,0,0,0,0,0,0,0,0,0,-1,1854,1646,0,0
637,-622,0,0,0,0,0,0,0,0,0,-1,1861,1646,0,0
644,-622,0,0,0,0,0,0,0,0,0,-1,1868,1646,0,0
651,-622,0,0,0,0,0,0,0,0,0,-1,1875,1646,0,0
658,-622,0,0,0,0,0,0,0,0,0,-1,1882,1646,0,0
665,-622,0,0,0,0,0,0,0,0,0,-1,1889,1646,0,0
672,-622,0,0,0,0,0,0,0,0,0,-1,1896,1646,0,0
679,-622,0,0,0,0,0,0,0,0,0,-1,1903,1646,0,0
686,-622,0,0,0,0,0,0,0,0,0,-1,1910,1646,0,0
693,-622,0,0,0,0,0,0,0,0,0,-1,1917,1646,0,0
700,-622,0,0,0,0,0,0,0,0,0,-1,1924,1646,0,0
707,-622,0,0,0,0,0,0,0,0,0,-1,1931,1646,0,0
714,-622,0,0,0,0,0,0,0,0,0,-1,1938,1646,0,0
721,-622,0,0,0,0,0,0,0,0,0,-1,1945,1646,0,0
728,-622,0,0,0,0,0,0,0,0,0,-1,1952,1646,0,0
735,-622,0,0,0,0,0,0,0,0,0,-1,1959,1646,0,0
742,-622,0,0,0,0,0,0,0,0,0,-1,1966,1646,0,0
749,-622,0,0,0,0,0,0,0,0,0,-1,1973,1646,0,0
756,-622,0,0,0,0,0,0,0,0,0,-1,1980,1646,0,0
763,-622,0,0,0,0,0,0,0,0,0,-1,1987,1646,0,0
770,-622,0,0,0,0,0,0,0,0,0,-1,1994,1646,0,0
777,-622,0,0,0,0,0,0,0,0,0,-1,2001,1646,0,0
784,-622,0,0,0,0,0,0,0,0,0,-1,2008,1646,0,0
791,-622,0,0,0,0,0,0,0,0,0,-1,2015,1646,0,0
798,-622,0,0,0,0,0,0,0,0,0,-1,2022,1646,0,0
805,-622,0,0,0,0,0,0,0,0,0,-1,2029,1646,0,0
812,-622,0,0,0,0,0,0,0,0,0,-1,2036,1646,0,0
-700,-629,0,0,0,0,0,0,0,0,0,-1,524,1653,0,0
-693,-629,0,0,0,0,0,0,0,0,0,-1,531,1653,0,0
-686,-629,0,0,0,0,0,0,0,0,0,-1,538,1653,0,0
-679,-629,0,0,0,0,0,0,0,0,0,-1,545,1653,0,0
-672,-629,0,0,0,0,0,0,0,0,0,-1,552,1653,0,0
-665,-629,0,0,0,0,0,0,0,0,0,-1,559,1653,0,0
-658,-629,0,0,0,0,0,0,0,0,0,-1,566,1653,0,0
-651,-629,0,0,0,0,0,0,0,0,0,-1,573,1653,0,0
-644,-629,0,0,0,0,0,0,0,0,0,-1,580,1653,0,0
-637,-629,0,0,0,0,0,0,0,0,0,-1,587,1653,0,0
-630,-629,0,0,0,0,0,0,0,0,0,-1,594,1653,0,0
-623,-629,0,0,0,0,0,0,0,0,0,-1,601,1653,0,0
-616,-629,0,0,0,0,0,0,0,0,0,-1,608,1653,0,0
-609,-629,0,0,0,0,0,0,0,0,0,-1,615,1653,0,0
-602,-629,0,0,0,0,0,0,0,0,0,-1,622,1653,0,0
-595,-629,0,0,0,0,0,0,0,0,0,-1,629,1653,0,0
-588,-629,0,0,0,0,0,0,0,0,0,-1,636,1653,0,0
-581,-629,0,0,0,0,0,0,0,0,0,-1,643,1653,0,0
-574,-629,0,0,0,0,0,0,0,0,0,-1,650,1653,0,0
-567,-629,0,0,0,0,0,0,0,0,0,-1,657,1653,0,0
-560,-629,0,0,0,0,0,0,0,0,0,-1,664,1653,0,0
-553,-629,0,0,0,0,0,0,0,0,0,-1,671,1653,0,0
-546,-629,0,0,0,0,0,0,0,0,0,-1,678,1653,0,0
-539,-629,0,0,0,0,0,0,0,0,0,-1,685,1653,0,0
-532,-629,0,0,0,0,0,0,0,0,0,-1,692,1653,0,0
-525,-629,0,0,0,0,0,0,0,0,0,-1,699,1653,0,0
-518,-629,0,0,0,0,0,0,0,0,0,-1,706,1653,0,0
-511,-629,0,0,0,0,0,0,0,0,0,-1,713,1653,0,0
-504,-629,0,0,0,0,0,0,0,0,0,-1,720,1653,0,0
-497,-629,0,0,0,0,0,0,0,0,0,-1,727,1653,0,0
-490,-629,0,0,0,0,0,0,0,0,0,-1,734,1653,0,0
-483,-629,0,0,0,0,0,0,0,0,0,-1,741,1653,0,0
-476,-629,0,0,0,0,0,0,0,0,0,-1,748,1653,0,0
-469,-629,0,0,0,0,0,0,0,0,0,-1,755,1653,0,0
-462,-629,0,0,0,0,0,0,0,0,0,-1,762,1653,0,0
-455,-629,0,0,0,0,0,0,0,0,0,-1,769,1653,0,0
-448,-629,0,0,0,0,0,0,0,0,0,-1,776,1653,0,0
-441,-629,0,0,0,0,0,0,0,0,0,-1,783,1653,0,0
-434,-629,0,0,0,0,0,0,0,0,0,-1,790,1653,0,0
-427,-629,0,0,0,0,0,0,0,0,0,-1,797,1653,0,0
-420,-629,-3.87103,3.37634,0,0,0,0,0,0,0,-1,804,1653,-3.87101,-3.37633
-413,-629,-5.69751,1.33582,0,0,0,0,0,0,0,-1,811,1653,-5.69754,-1.3358
-406,-629,2.85406,6.01501,0,0,0,0,0,0,0,-1,818,1653,2.85405,-6.01507
-399,-629,3.37085,6.61816,0,0,0,0,0,0,0,-1,825,1653,3.37087,-6.61822
-392,-629,3.80743,7.15393,0,0,0,0,0,0,0,-1,832,1653,3.80741,-7.15391
-385,-629,4.31525,7.66785,0,0,0,0,0,0,0,-1,839,1653,4.31525,-7.6679
-378,-629,4.29962,8.28577,0,0,0,0,0,0,0,-1,846,1653,4.29962,-8.28577
-371,-629,3.28503,9.20544,0,0,0,0,0,0,0,-1,853,1653,3.28502,-9.2054
-364,-629,2.65845,9.66748,0,0,0,0,0,0,0,-1,860,1653,2.65847,-9.66748
-357,-629,2.70544,9.66907,0,0,0,0,0,0,0,-1,867,1653,2.70547,-9.66904
-350,-629,2.68817,9.72119,-0.00612057,-0.00902674,-0.00196055,-0.00513333,-0.010014,-0.466488,0.00578219,0.0482484,874,1653,2.68817,-9.72119
-343,-629,2.59711,9.74097,-0.00453165,-0.00739448,-0.00232257,-0.00323483,-0.0086913,-0.509237,0.00507228,0.0372424,881,1653,2.59713,-9.74097
-336,-629,2.68683,9.72705,-0.00316558,-0.00608611,-0.00247449,-0.00175261,-0.00749908,-0.518834,0.00452965,0.0179332,888,1653,2.68685,-9.72711
-329,-629,2.72595,9.91211,-0.00235563,-0.00455491,-0.00250196,-0.000722321,-0.00618822,-0.57835,0.00390703,0.0125619,895,1653,2.72597,-9.91216
-322,-629,2.73834,10.0858,-0.00190635,-0.00337542,-0.00238066,-0.000149486,-0.00513228,-0.63576,0.0033728,0.012622,902,1653,2.73834,-10.0858
-315,-629,2.71106,10.2485,-0.00157428,-0.00258117,-0.00222658,0.000205061,-0.00436051,-0.674214,0.00297771,0.0153562,909,1653,2.71103,-10.2485
-308,-629,2.7038,10.4321,-0.00130902,-0.00179107,-0.00216327,0.000626606,-0.0037267,-0.729918,0.00271752,0.0122495,916,1653,2.70377,-10.4321
-301,-629,2.72345,10.6334,-0.00109244,-0.00143023,-0.00208268,0.00082818,-0.00335085,-0.74494,0.0025551,0.0108695,923,1653,2.72347,-10.6334
-294,-629,2.71893,10.814,-0.000810805,-0.00109209,-0.0019246,0.000978289,-0.00288118,-0.748925,0.00231679,0.0115868,930,1653,2.71895,-10.814
-287,-629,2.70599,10.9786,-0.000587831,-0.00119017,-0.00176277,0.000899309,-0.00267731,-0.70079,0.00214833,0.00884648,937,1653,2.70602,-10.9787
-280,-629,2.7063,11.1442,-0.000415712,-0.00173473,-0.00166066,0.00071161,-0.00286205,-0.596381,0.00218422,0.00960386,944,1653,2.70628,-11.1442
-273,-629,2.70715,11.2865,-6.49197e-05,-0.00232465,-0.00153606,0.000712067,-0.00310164,-0.468301,0.00234149,0.0128104,951,1653,2.70714,-11.2865
-266,-629,2.69421,11.4677,0.000260163,-0.0030786,-0.00142819,0.000787723,-0.00360616,-0.353845,0.00270519,0.0130205,958,1653,2.6942,-11.4677
-259,-629,2.70526,11.6884,0.000432436,-0.00402849,-0.00135715,0.000812876,-0.00440893,-0.273308,0.00324437,0.0141122,965,1653,2.70525,-11.6883
-252,-629,2.7196,11.8296,0.00073309,-0.00508153,-0.00144595,0.00107281,-0.00542125,-0.230762,0.00401977,0.0109273,972,1653,2.71959,-11.8296
-245,-629,2.74164,11.9606,0.000258576,-0.00621827,-0.00157057,0.000619329,-0.00657902,-0.22578,0.00460635,0.00834219,979,1653,2.74164,-11.9606
-238,-629,2.74316,12.1188,-0.0011881,-0.00697783,-0.00203872,-0.000542259,-0.00762367,-0.306787,0.00491168,0.0101632,986,1653,2.74319,-12.1188
-231,-629,2.72809,12.2642,-0.00187138,-0.0082554,-0.0024018,-0.0010687,-0.00905808,-0.322531,0.00571589,0.00979312,993,1653,2.72811,-12.2641
-224,-629,2.77661,12.4214,-0.00275365,-0.00885845,-0.00194121,-0.00218866,-0.00942343,-0.283222,0.0056947,0.00980561,1000,1653,2.77658,-12.4213
-217,-629,2.7854,12.545,-0.00402076,-0.00904373,-0.00101988,-0.00382158,-0.00924291,-0.192871,0.00536297,0.0146385,1007,1653,2.78542,-12.545
-210,-629,2.74457,12.6085,-0.00601609,-0.00881798,0.000477705,-0.00593689,-0.00889719,0.164312,0.00523174,0.0299644,1014,1653,2.74459,-12.6086
-203,-629,2.57208,12.816,-0.00917578,-0.00814881,0.00254405,-0.00606695,-0.0112576,0.88498,0.00650617,0.0427797,1021,1653,2.57206,-12.8161
-196,-629,2.99072,12.9033,-0.0117179,-0.00753957,0.00475455,-0.00443542,-0.014822,0.9924,0.0087844,0.0429811,1028,1653,2.99072,-12.9034
-189,-629,2.86438,12.7507,0,0,0,0,0,0,0,-1,1035,1653,2.86432,-12.7508
-182,-629,2.92236,12.4333,0,0,0,0,0,0,0,-1,1042,1653,2.92239,-12.4333
-175,-629,5.12903,13.6218,0,0,0,0,0,0,0,-1,1049,1653,5.12908,-13.6218
-168,-629,4.77393,13.5549,0,0,0,0,0,0,0,-1,1056,1653,4.77398,-13.5549
-161,-629,4.73926,13.5548,-0.0238198,-0.00301347,0.023552,0.0123306,-0.0391639,0.993368,0.0310467,0.049997,1063,1653,4.7392,-13.5548
-154,-629,4.44934,13.6039,-0.0255386,-0.00249087,0.0272107,0.0155356,-0.043565,0.9857,0.0353778,0.0440401,1070,1653,4.44929,-13.6039
-147,-629,3.90698,13.6835,0,0,0,0,0,0,0,-1,1077,1653,3.90699,-13.6835
-140,-629,3.36853,13.7708,0,0,0,0,0,0,0,-1,1084,1653,3.36847,-13.7707
-133,-629,3.68933,15.5042,0,0,0,0,0,0,0,-1,1091,1653,3.68937,-15.5042
-126,-629,2.69519,10.2487,0,0,0,0,0,0,0,-1,1098,1653,2.69515,-10.2486
-119,-629,4.94177,13.5525,0,0,0,0,0,0,0,-1,1105,1653,4.94172,-13.5525
-112,-629,5.63123,15.9187,0,0,0,0,0,0,0,-1,1112,1653,5.63118,-15.9187
-105,-629,2.15881,4.38342,0,0,0,0,0,0,0,-1,1119,1653,2.15878,-4.38347
-98,-629,0.825806,4.19385,0,0,0,0,0,0,0,-1,1126,1653,0.825779,-4.1939
-91,-629,-0.452271,3.64465,0,0,0,0,0,0,0,-1,1133,1653,-0.452278,-3.6446
-84,-629,-2.6084,0.466797,0,0,0,0,0,0,0,-1,1140,1653,-2.6084,-0.466786
-77,-629,-3.50903,2.10706,0,0,0,0,0,0,0,-1,1147,1653,-3.509,-2.10707
-70,-629,-1.20886,2.52502,0,0,0,0,0,0,0,-1,1154,1653,-1.20886,-2.525
-63,-629,-0.960693,4.30212,0,0,0,0,0,0,0,-1,1161,1653,-0.960691,-4.30215
-56,-629,-1.31934,5.64343,0,0,0,0,0,0,0,-1,1168,1653,-1.31928,-5.6434
-49,-629,-2.15662,2.57458,0,0,0,0,0,0,0,-1,1175,1653,-2.15656,-2.57459
-42,-629,-2.46326,3.91467,0,0,0,0,0,0,0,-1,1182,1653,-2.4633,-3.91466
-35,-629,-2.67261,5.24292,0,0,0,0,0,0,0,-1,1189,1653,-2.67257,-5.24298
-28,-629,-0.402954,-0.866577,0,0,0,0,0,0,0,-1,1196,1653,-0.402943,0.866612
-21,-629,10.063,9.59705,0,0,0,0,0,0,0,-1,1203,1653,10.063,-9.59708
-14,-629,6.11047,14.9886,0,0,0,0,0,0,0,-1,1210,1653,6.11046,-14.9886
-7,-629,1.89233,15.8264,0,0,0,0,0,0,0,-1,1217,1653,1.89238,-15.8265
0,-629,1.8446,14.4604,0,0,0,0,0,0,0,-1,1224,1653,1.84463,-14.4604
7,-629,1.1427,13.2903,0,0,0,0,0,0,0,-1,1231,1653,1.14272,-13.2903
14,-629,0.722534,12.104,-0.0300072,0.0586527,-0.135817,0.157191,-0.128546,-0.943144,0.165247,0.0483275,1238,1653,0.72253,-12.104
21,-629,0.819336,10.9365,-0.0271616,0.0678116,-0.122812,0.151998,-0.111348,-0.969876,0.152645,0.0489578,1245,1653,0.819346,-10.9366
28,-629,-0.478882,11.2003,-0.0245784,0.0755919,-0.106891,0.14355,-0.0925366,-1.00449,0.137361,0.0419248,1252,1653,-0.478868,-11.2004
35,-629,-0.81311,9.76489,-0.0236362,0.0804127,-0.090408,0.132696,-0.0759197,-1.04648,0.121922,0.0404731,1259,1653,-0.813067,-9.76488
42,-629,-1.14453,8.28333,0,0,0,0,0,0,0,-1,1266,1653,-1.14458,-8.28333
49,-629,4.79773,12.4487,0,0,0,0,0,0,0,-1,1273,1653,4.79769,-12.4487
56,-629,4.21985,13.6205,0,0,0,0,0,0,0,-1,1280,1653,4.21981,-13.6205
63,-629,3.01111,14.5635,0,0,0,0,0,0,0,-1,1287,1653,3.01117,-14.5635
70,-629,2.78223,16.4923,0,0,0,0,0,0,0,-1,1294,1653,2.78219,-16.4923
77,-629,2.79749,17.3503,0,0,0,0,0,0,0,-1,1301,1653,2.79753,-17.3504
84,-629,2.81287,18.2085,0,0,0,0,0,0,0,-1,1308,1653,2.81286,-18.2085
91,-629,0.494995,9.53577,0,0,0,0,0,0,0,-1,1315,1653,0.495007,-9.53579
98,-629,0.0716553,9.46509,0,0,0,0,0,0,0,-1,1322,1653,0.0715981,-9.46513
105,-629,-0.299683,9.26685,0,0,0,0,0,0,0,-1,1329,1653,-0.29963,-9.26683
112,-629,-0.652588,9.14966,0,0,0,0,0,0,0,-1,1336,1653,-0.652537,-9.1496
119,-629,9.08545,3.19385,0,0,0,0,0,0,0,-1,1343,1653,9.08547,-3.19382
126,-629,10.8092,2.09546,0,0,0,0,0,0,0,-1,1350,1653,10.8092,-2.09541
133,-629,12.3656,1.05786,0,0,0,0,0,0,0,-1,1357,1653,12.3656,-1.05786
140,-629,14.2197,-0.271851,0,0,0,0,0,0,0,-1,1364,1653,14.2197,0.271881
147,-629,16.379,-1.74329,0,0,0,0,0,0,0,-1,1371,1653,16.379,1.74326
154,-629,18.5643,-3.15576,0,0,0,0,0,0,0,-1,1378,1653,18.5643,3.15579
161,-629,10.5461,6.83752,0,0,0,0,0,0,0,-1,1385,1653,10.5461,-6.83758
168,-629,12.0059,5.56348,0,0,0,0,0,0,0,-1,1392,1653,12.0059,-5.56352
175,-629,5.84485,-1.78845,0,0,0,0,0,0,0,-1,1399,1653,5.84479,1.7884
182,-629,5.99036,-1.27783,0,0,0,0,0,0,0,-1,1406,1653,5.99041,1.27778
189,-629,5.97668,-0.748535,0,0,0,0,0,0,0,-1,1413,1653,5.97671,0.748544
196,-629,4.52869,9.24695,0,0,0,0,0,0,0,-1,1420,1653,4.52869,-9.2469
203,-629,3.75085,6.88037,0,0,0,0,0,0,0,-1,1427,1653,3.75087,-6.88032
210,-629,3.5907,6.52637,0,0,0,0,0,0,0,-1,1434,1653,3.59067,-6.52642
217,-629,2.4585,4.84448,0,0,0,0,0,0,0,-1,1441,1653,2.45855,-4.84448
224,-629,1.31982,3.68481,0,0,0,0,0,0,0,-1,1448,1653,1.31986,-3.68487
231,-629,3.63025,1.73499,0,0,0,0,0,0,0,-1,1455,1653,3.6303,-1.735
238,-629,4.26428,2.11255,0,0,0,0,0,0,0,-1,1462,1653,4.26429,-2.11253
245,-629,5.61816,1.95361,0,0,0,0,0,0,0,-1,1469,1653,5.61815,-1.95359
252,-629,7.27136,2.18982,0,0,0,0,0,0,0,-1,1476,1653,7.27131,-2.18985
259,-629,8.67334,2.18628,0,0,0,0,0,0,0,-1,1483,1653,8.6733,-2.18633
266,-629,6.86475,3.72058,0,0,0,0,0,0,0,-1,1490,1653,6.86479,-3.72063
273,-629,7.9021,3.8717,0,0,0,0,0,0,0,-1,1497,1653,7.90205,-3.87171
280,-629,9.70837,4.39087,0,0,0,0,0,0,0,-1,1504,1653,9.7084,-4.39082
287,-629,9.82947,7.19348,0,0,0,0,0,0,0,-1,1511,1653,9.8295,-7.19347
294,-629,6.56555,11.6359,0,0,0,0,0,0,0,-1,1518,1653,6.5656,-11.6358
301,-629,5.396,13.7126,0,0,0,0,0,0,0,-1,1525,1653,5.39598,-13.7127
308,-629,6.08264,12.1423,0,0,0,0,0,0,0,-1,1532,1653,6.08263,-12.1423
315,-629,5.18445,13.7252,0,0,0,0,0,0,0,-1,1539,1653,5.18443,-13.7252
322,-629,5.36035,13.6978,-0.000923775,-0.0101716,-0.000716234,-0.000868632,-0.0102267,-0.0768386,0.0065475,0.0469807,1546,1653,5.36034,-13.6978
329,-629,5.44849,13.64,0.00054118,-0.00901364,-0.00106119,0.00065762,-0.00913008,-0.109289,0.00631735,0.0383413,1553,1653,5.44852,-13.6401
336,-629,5.63452,13.5078,0.00135556,-0.00833545,-0.00121881,0.00150649,-0.00848638,-0.123211,0.00622086,0.0379727,1560,1653,5.63452,-13.5078
343,-629,5.85132,13.277,0.00173711,-0.00763306,-0.000899467,0.00182267,-0.00771862,-0.0948387,0.00584875,0.0410157,1567,1653,5.85129,-13.277
350,-629,5.91235,13.2396,0.00216198,-0.0066569,-0.000143038,0.0021643,-0.00665922,-0.0162138,0.00531003,0.0276122,1574,1653,5.91232,-13.2396
357,-629,5.95703,13.1615,0.00195074,-0.00567878,0.000470974,0.0019797,-0.00570774,0.0614197,0.00460903,0.0162105,1581,1653,5.95706,-13.1615
364,-629,5.9624,13.0544,0.00159333,-0.00486767,0.000731022,0.00167501,-0.00494935,0.11127,0.00397726,0.0132953,1588,1653,5.96246,-13.0544
371,-629,5.96936,12.9226,0.00161325,-0.00397298,0.000689367,0.00169707,-0.0040568,0.120987,0.00341385,0.0101228,1595,1653,5.9694,-12.9226
378,-629,5.95056,12.7848,0.00123046,-0.00375214,0.00136851,0.00158159,-0.00410327,0.25116,0.00338808,0.00935249,1602,1653,5.95059,-12.7847
385,-629,5.95215,12.6661,0.000727239,-0.00357074,0.00176883,0.00136158,-0.00420508,0.344334,0.00335076,0.0111485,1609,1653,5.95216,-12.6661
392,-629,5.94409,12.5345,0.000284823,-0.00327607,0.00183585,0.00106178,-0.00405303,0.400359,0.00311683,0.00971835,1616,1653,5.94414,-12.5346
399,-629,5.92615,12.3855,-5.20237e-05,-0.00278602,0.00172073,0.000778612,-0.00361665,0.449731,0.00270821,0.0103496,1623,1653,5.92611,-12.3855
406,-629,5.94592,12.2175,-0.000287929,-0.00237391,0.00152779,0.000518943,-0.00318078,0.485896,0.00231299,0.0136323,1630,1653,5.94596,-12.2175
413,-629,5.9469,12.0562,-0.000592056,-0.00191405,0.00134584,0.000246345,-0.00275245,0.55713,0.00192235,0.0223606,1637,1653,5.94695,-12.0561
420,-629,5.94641,11.9142,-0.000800785,-0.0013044,0.0010525,2.96074e-05,-0.0021348,0.667981,0.00143317,0.0205811,1644,1653,5.9464,-11.9142
427,-629,5.95886,11.778,-0.000949455,-0.000819618,0.00077989,-0.000101949,-0.00166712,0.826923,0.00107904,0.0125139,1651,1653,5.9588,-11.778
434,-629,5.96594,11.6378,-0.00163671,-0.000174512,0.000345514,-9.69793e-05,-0.00171425,1.35005,0.00111192,0.00980323,1658,1653,5.96591,-11.6378
441,-629,5.97864,11.4927,-0.00276835,0.000520285,-0.000297956,0.000547062,-0.00279512,-1.48117,0.00207001,0.0139182,1665,1653,5.97865,-11.4927
448,-629,5.95837,11.3293,-0.00448481,0.000987032,-0.000907602,0.00113365,-0.00463142,-1.41064,0.00352676,0.0142324,1672,1653,5.9584,-11.3294
455,-629,5.94592,11.1537,-0.0063383,0.00220008,-0.00121847,0.00237056,-0.00650877,-1.43179,0.00530883,0.013588,1679,1653,5.94598,-11.1537
462,-629,5.96179,11.0034,-0.00850628,0.00312185,-0.00181658,0.00339903,-0.00878346,-1.41938,0.00725895,0.0172324,1686,1653,5.96178,-11.0034
469,-629,5.94287,10.8098,-0.0112473,0.00427689,-0.00250044,0.00466969,-0.0116401,-1.41498,0.00969886,0.0203942,1693,1653,5.94288,-10.8099
476,-629,5.9801,10.6493,-0.0144084,0.00597115,-0.00312985,0.00644099,-0.0148782,-1.42179,0.0126259,0.0256137,1700,1653,5.98012,-10.6493
483,-629,6.00793,10.4453,-0.0178691,0.00847209,-0.00368226,0.00897715,-0.0183742,-1.43449,0.016099,0.0381228,1707,1653,6.00788,-10.4453
490,-629,6.38538,10.196,-0.0214907,0.0113249,-0.00424072,0.011864,-0.0220298,-1.44433,0.0198599,0.0420795,1714,1653,6.38534,-10.196
497,-629,6.1333,10.2764,-0.0251241,0.01496,-0.00469748,0.0155031,-0.0256673,-1.45568,0.02401,0.0430762,1721,1653,6.13327,-10.2764
504,-629,5.74634,10.462,0,0,0,0,0,0,0,-1,1728,1653,5.74629,-10.462
511,-629,6.29138,3.40295,0,0,0,0,0,0,0,-1,1735,1653,6.29137,-3.403
518,-629,5.84387,1.41858,0,0,0,0,0,0,0,-1,1742,1653,5.84391,-1.4186
525,-629,6.4729,1.02319,0,0,0,0,0,0,0,-1,1749,1653,6.47284,-1.02316
532,-629,6.86511,0.903687,0,0,0,0,0,0,0,-1,1756,1653,6.86514,-0.903691
539,-629,6.60803,0.746704,0,0,0,0,0,0,0,-1,1763,1653,6.60809,-0.746691
546,-629,0,0,0,0,0,0,0,0,0,-1,1770,1653,0,0
553,-629,0,0,0,0,0,0,0,0,0,-1,1777,1653,0,0
560,-629,0,0,0,0,0,0,0,0,0,-1,1784,1653,0,0
567,-629,0,0,0,0,0,0,0,0,0,-1,1791,1653,0,0
574,-629,0,0,0,0,0,0,0,0,0,-1,1798,1653,0,0
581,-629,0,0,0,0,0,0,0,0,0,-1,1805,1653,0,0
588,-629,0,0,0,0,0,0,0,0,0,-1,1812,1653,0,0
595,-629,0,0,0,0,0,0,0,0,0,-1,1819,1653,0,0
602,-629,0,0,0,0,0,0,0,0,0,-1,1826,1653,0,0
609,-629,0,0,0,0,0,0,0,0,0,-1,1833,1653,0,0
616,-629,0,0,0,0,0,0,0,0,0,-1,1840,1653,0,0
623,-629,0,0,0,0,0,0,0,0,0,-1,1847,1653,0,0
630,-629,0,0,0,0,0,0,0,0,0,-1,1854,1653,0,0
637,-629,0,0,0,0,0,0,0,0,0,-1,1861,1653,0,0
644,-629,0,0,0,0,0,0,0,0,0,-1,1868,1653,0,0
651,-629,0,0,0,0,0,0,0,0,0,-1,1875,1653,0,0
658,-629,0,0,0,0,0,0,0,0,0,-1,1882,1653,0,0
665,-629,0,0,0,0,0,0,0,0,0,-1,1889,1653,0,0
672,-629,0,0,0,0,0,0,0,0,0,-1,1896,1653,0,0
679,-629,0,0,0,0,0,0,0,0,0,-1,1903,1653,0,0
686,-629,0,0,0,0,0,0,0,0,0,-1,1910,1653,0,0
693,-629,0,0,0,0,0,0,0,0,0,-1,1917,1653,0,0
700,-629,0,0,0,0,0,0,0,0,0,-1,1924,1653,0,0
707,-629,0,0,0,0,0,0,0,0,0,-1,1931,1653,0,0
714,-629,0,0,0,0,0,0,0,0,0,-1,1938,1653,0,0
721,-629,0,0,0,0,0,0,0,0,0,-1,1945,1653,0,0
728,-629,0,0,0,0,0,0,0,0,0,-1,1952,1653,0,0
735,-629,0,0,0,0,0,0,0,0,0,-1,1959,1653,0,0
742,-629,0,0,0,0,0,0,0,0,0,-1,1966,1653,0,0
749,-629,0,0,0,0,0,0,0,0,0,-1,1973,1653,0,0
756,-629,0,0,0,0,0,0,0,0,0,-1,1980,1653,0,0
763,-629,0,0,0,0,0,0,0,0,0,-1,1987,1653,0,0
770,-629,0,0,0,0,0,0,0,0,0,-1,1994,1653,0,0
777,-629,0,0,0,0,0,0,0,0,0,-1,2001,1653,0,0
784,-629,0,0,0,0,0,0,0,0,0,-1,2008,1653,0,0
791,-629,0,0,0,0,0,0,0,0,0,-1,2015,1653,0,0
798,-629,0,0,0,0,0,0,0,0,0,-1,2022,1653,0,0
805,-629,0,0,0,0,0,0,0,0,0,-1,2029,1653,0,0
812,-629,0,0,0,0,0,0,0,0,0,-1,2036,1653,0,0
-700,-636,0,0,0,0,0,0,0,0,0,-1,524,1660,0,0
-693,-636,0,0,0,0,0,0,0,0,0,-1,531,1660,0,0
-686,-636,0,0,0,0,0,0,0,0,0,-1,538,1660,0,0
-679,-636,0,0,0,0,0,0,0,0,0,-1,545,1660,0,0
-672,-636,0,0,0,0,0,0,0,0,0,-1,552,1660,0,0
-665,-636,0,0,0,0,0,0,0,0,0,-1,559,1660,0,0
-658,-636,0,0,0,0,0,0,0,0,0,-1,566,1660,0,0
-651,-636,0,0,0,0,0,0,0,0,0,-1,573,1660,0,0
-644,-636,0,0,0,0,0,0,0,0,0,-1,580,1660,0,0
-637,-636,0,0,0,0,0,0,0,0,0,-1,587,1660,0,0
-630,-636,0,0,0,0,0,0,0,0,0,-1,594,1660,0,0
-623,-636,0,0,0,0,0,0,0,0,0,-1,601,1660,0,0
-616,-636,0,0,0,0,0,0,0,0,0,-1,608,1660,0,0
-609,-636,0,0,0,0,0,0,0,0,0,-1,615,1660,0,0
-602,-636,0,0,0,0,0,0,0,0,0,-1,622,1660,0,0
-595,-636,0,0,0,0,0,0,0,0,0,-1,629,1660,0,0
-588,-636,0,0,0,0,0,0,0,0,0,-1,636,1660,0,0
-581,-636,0,0,0,0,0,0,0,0,0,-1,643,1660,0,0
-574,-636,0,0,0,0,0,0,0,0,0,-1,650,1660,0,0
-567,-636,0,0,0,0,0,0,0,0,0,-1,657,1660,0,0
-560,-636,0,0,0,0,0,0,0,0,0,-1,664,1660,0,0
-553,-636,0,0,0,0,0,0,0,0,0,-1,671,1660,0,0
-546,-636,0,0,0,0,0,0,0,0,0,-1,678,1660,0,0
-539,-636,0,0,0,0,0,0,0,0,0,-1,685,1660,0,0
-532,-636,0,0,0,0,0,0,0,0,0,-1,692,1660,0,0
-525,-636,0,0,0,0,0,0,0,0,0,-1,699,1660,0,0
-518,-636,0,0,0,0,0,0,0,0,0,-1,706,1660,0,0
-511,-636,0,0,0,0,0,0,0,0,0,-1,713,1660,0,0
-504,-636,0,0,0,0,0,0,0,0,0,-1,720,1660,0,0
-497,-636,0,0,0,0,0,0,0,0,0,-1,727,1660,0,0
-490,-636,0,0,0,0,0,0,0,0,0,-1,734,1660,0,0
-483,-636,0,0,0,0,0,0,0,0,0,-1,741,1660,0,0
-476,-636,0,0,0,0,0,0,0,0,0,-1,748,1660,0,0
-469,-636,0,0,0,0,0,0,0,0,0,-1,755,1660,0,0
-462,-636,0,0,0,0,0,0,0,0,0,-1,762,1660,0,0
-455,-636,0,0,0,0,0,0,0,0,0,-1,769,1660,0,0
-448,-636,0,0,0,0,0,0,0,0,0,-1,776,1660,0,0
-441,-636,0,0,0,0,0,0,0,0,0,-1,783,1660,0,0
-434,-636,0,0,0,0,0,0,0,0,0,-1,790,1660,0,0
-427,-636,0,0,0,0,0,0,0,0,0,-1,797,1660,0,0
-420,-636,0,0,0,0,0,0,0,0,0,-1,804,1660,0,0
-413,-636,0,0,0,0,0,0,0,0,0,-1,811,1660,0,0
-406,-636,3.46503,5.84583,0,0,0,0,0,0,0,-1,818,1660,3.46501,-5.84583
-399,-636,3.95544,6.48499,0,0,0,0,0,0,0,-1,825,1660,3.95546,-6.48502
-392,-636,4.35114,7.07495,0,0,0,0,0,0,0,-1,832,1660,4.35115,-7.07492
-385,-636,4.50122,7.78625,0,0,0,0,0,0,0,-1,839,1660,4.50125,-7.78625
-378,-636,4.69403,8.62219,0,0,0,0,0,0,0,-1,846,1660,4.69405,-8.62216
-371,-636,5.07294,9.22888,0,0,0,0,0,0,0,-1,853,1660,5.07297,-9.2289
-364,-636,2.66254,10.4939,0,0,0,0,0,0,0,-1,860,1660,2.66254,-10.4939
-357,-636,2.16193,10.2061,0,0,0,0,0,0,0,-1,867,1660,2.16195,-10.206
-350,-636,2.89178,9.92834,0,0,0,0,0,0,0,-1,874,1660,2.89181,-9.92837
-343,-636,2.83099,9.94165,0,0,0,0,0,0,0,-1,881,1660,2.83098,-9.94169
-336,-636,2.82025,9.71631,-0.00445344,-0.00769404,-0.00406957,-0.00169347,-0.010454,-0.595943,0.00647905,0.0382453,888,1660,2.82028,-9.71629
-329,-636,2.89703,9.91333,-0.00368771,-0.00566702,-0.00401649,-0.000540743,-0.00881399,-0.664606,0.00570429,0.0188232,895,1660,2.89706,-9.91332
-322,-636,2.91907,10.1021,-0.00319788,-0.00407472,-0.00374094,0.000130246,-0.00740284,-0.727067,0.00497921,0.0117466,902,1660,2.91909,-10.1021
-315,-636,2.88049,10.2655,-0.00279101,-0.00294195,-0.00345421,0.000588556,-0.00632151,-0.774476,0.0044236,0.0119546,909,1660,2.88047,-10.2655
-308,-636,2.87537,10.4449,-0.00246359,-0.00181665,-0.00326662,0.00114247,-0.00542272,-0.834749,0.00405004,0.0105602,916,1660,2.87536,-10.4449
-301,-636,2.89008,10.636,-0.00219508,-0.00115361,-0.00305424,0.00142396,-0.00477266,-0.869834,0.00374771,0.0102494,923,1660,2.89007,-10.6359
-294,-636,2.87,10.8301,-0.00185795,-0.000555085,-0.00276266,0.00163191,-0.00404494,-0.901182,0.00337479,0.0132055,930,1660,2.86999,-10.83
-287,-636,2.85999,10.9825,-0.00155231,-0.000377209,-0.00245397,0.00155857,-0.00348808,-0.9029,0.00298383,0.0112875,937,1660,2.85999,-10.9826
-280,-636,2.87048,11.1561,-0.00127954,-0.000622837,-0.00219538,0.00126861,-0.00317099,-0.85963,0.00264048,0.011025,944,1660,2.87051,-11.1561
-273,-636,2.88031,11.296,-0.000828504,-0.000978032,-0.00191725,0.00101544,-0.00282197,-0.76591,0.00229591,0.0118756,951,1660,2.8803,-11.296
-266,-636,2.88495,11.4658,-0.00038669,-0.00150765,-0.0016713,0.000815602,-0.00270994,-0.623613,0.00213117,0.0127608,958,1660,2.88495,-11.4659
-259,-636,2.89471,11.6743,-8.2083e-05,-0.00219434,-0.00143564,0.000644054,-0.00292048,-0.468271,0.00219342,0.0147521,965,1660,2.89472,-11.6744
-252,-636,2.88824,11.8253,0.000324023,-0.00301432,-0.00134155,0.000796318,-0.00348661,-0.338503,0.00263034,0.0115054,972,1660,2.88824,-11.8253
-245,-636,2.90558,11.9805,0.000191844,-0.00396414,-0.0013089,0.000569718,-0.00434201,-0.281053,0.00310207,0.010333,979,1660,2.90557,-11.9804
-238,-636,2.91797,12.1263,-0.000613043,-0.00466898,-0.00151906,-0.0001072,-0.00517482,-0.321448,0.00341471,0.0115368,986,1660,2.91794,-12.1263
-231,-636,2.90863,12.2739,-0.000779168,-0.00584204,-0.0017136,-0.000253711,-0.0063675,-0.297537,0.00416301,0.0105899,993,1660,2.90861,-12.2739
-224,-636,2.90454,12.4357,-0.00104009,-0.00645127,-0.00119199,-0.000789149,-0.00670221,-0.20749,0.0042297,0.0089428,1000,1660,2.90456,-12.4357
-217,-636,2.90442,12.6095,-0.00152145,-0.0067385,-0.000307224,-0.00150342,-0.00675653,-0.0586185,0.00409624,0.0107985,1007,1660,2.90445,-12.6095
-210,-636,2.89594,12.7203,-0.00251291,-0.00670418,0.00105217,-0.0022636,-0.00695349,0.232655,0.00409525,0.0148378,1014,1660,2.89591,-12.7204
-203,-636,2.92212,12.8479,-0.0044448,-0.00633567,0.00283162,-0.00240495,-0.00837552,0.624275,0.00497953,0.0186922,1021,1660,2.92212,-12.848
-196,-636,3.03076,12.9659,-0.00582069,-0.00609908,0.0047076,-0.00125023,-0.0106695,0.770619,0.00673508,0.0203769,1028,1660,3.0307,-12.9659
-189,-636,3.05005,13.0697,-0.0073226,-0.00628127,0.00719091,0.000407799,-0.0140117,0.821538,0.00947997,0.0235634,1035,1660,3.05008,-13.0697
-182,-636,3.05237,12.7683,-0.00883573,-0.00564648,0.0101663,0.0030495,-0.0175317,0.863191,0.0128257,0.0385306,1042,1660,3.05242,-12.7683
-175,-636,4.2959,13.3749,-0.0103729,-0.00464189,0.0132382,0.0060374,-0.0210522,0.891983,0.0164215,0.046877,1049,1660,4.29596,-13.3749
-168,-636,4.28381,13.4662,-0.0119369,-0.00439981,0.0163655,0.0086254,-0.0249621,0.898562,0.0201419,0.0483882,1056,1660,4.28387,-13.4661
-161,-636,4.25159,13.552,-0.0130348,-0.00420351,0.0191454,0.0110289,-0.0282672,0.898735,0.023404,0.0482279,1063,1660,4.25155,-13.5519
-154,-636,3.74451,13.5925,-0.0139869,-0.00411375,0.0216543,0.0131595,-0.0312602,0.897469,0.0263459,0.0483562,1070,1660,3.74446,-13.5925
-147,-636,3.30762,13.7086,0,0,0,0,0,0,0,-1,1077,1660,3.30766,-13.7086
-140,-636,3.1925,14.9642,0,0,0,0,0,0,0,-1,1084,1660,3.1925,-14.9642
-133,-636,3.35303,14.6368,0,0,0,0,0,0,0,-1,1091,1660,3.35299,-14.6368
-126,-636,2.91223,13.5231,0,0,0,0,0,0,0,-1,1098,1660,2.91227,-13.523
-119,-636,1.8667,13.8916,0,0,0,0,0,0,0,-1,1105,1660,1.86668,-13.8916
-112,-636,-1.24963,9.7998,0,0,0,0,0,0,0,-1,1112,1660,-1.24968,-9.79978
-105,-636,3.51624,4.72791,0,0,0,0,0,0,0,-1,1119,1660,3.51618,-4.7279
-98,-636,1.54504,5.11914,0,0,0,0,0,0,0,-1,1126,1660,1.54503,-5.11912
-91,-636,-1.87964,-2.25012,0,0,0,0,0,0,0,-1,1133,1660,-1.87966,2.25016
-84,-636,-2.84143,0.133667,0,0,0,0,0,0,0,-1,1140,1660,-2.84144,-0.133701
-77,-636,-3.57349,2.45935,0,0,0,0,0,0,0,-1,1147,1660,-3.57345,-2.45939
-70,-636,-4.23682,4.82312,0,0,0,0,0,0,0,-1,1154,1660,-4.23681,-4.82307
-63,-636,-2.21033,6.97168,0,0,0,0,0,0,0,-1,1161,1660,-2.21034,-6.97165
-56,-636,-2.51917,8.80359,0,0,0,0,0,0,0,-1,1168,1660,-2.51916,-8.80361
-49,-636,-3.13,10.4113,0,0,0,0,0,0,0,-1,1175,1660,-3.12996,-10.4112
-42,-636,-2.27771,4.90173,0,0,0,0,0,0,0,-1,1182,1660,-2.27775,-4.90173
-35,-636,-2.27698,5.89685,0,0,0,0,0,0,0,-1,1189,1660,-2.27695,-5.89686
-28,-636,-1.70654,4.83936,0,0,0,0,0,0,0,-1,1196,1660,-1.70656,-4.8393
-21,-636,5.125,16.9767,0,0,0,0,0,0,0,-1,1203,1660,5.12505,-16.9767
-14,-636,2.6272,16.7496,0,0,0,0,0,0,0,-1,1210,1660,2.62717,-16.7496
-7,-636,2.34961,15.5449,-0.0367562,0.0172775,-0.133237,0.126209,-0.145688,-0.885429,0.157114,0.0483192,1217,1660,2.34966,-15.545
0,-636,2.11145,14.2511,-0.0295228,0.0281569,-0.134007,0.136392,-0.137758,-0.891387,0.158281,0.0468801,1224,1660,2.11143,-14.2511
7,-636,1.78015,12.9933,-0.0244951,0.0371347,-0.13137,0.141255,-0.128616,-0.900599,0.155867,0.0491896,1231,1660,1.78015,-12.9933
14,-636,1.44751,11.855,-0.0217616,0.0443168,-0.124308,0.139902,-0.117346,-0.915287,0.148712,0.049244,1238,1660,1.44754,-11.855
21,-636,0.702637,11.5942,-0.0210115,0.0509789,-0.112029,0.132653,-0.102686,-0.94084,0.13624,0.0458283,1245,1660,0.702612,-11.5942
28,-636,0.059082,10.292,-0.020404,0.0565912,-0.0974582,0.12288,-0.0866927,-0.9735,0.121597,0.045024,1252,1660,0.0590685,-10.292
35,-636,-0.428467,9.01416,-0.0211128,0.0596185,-0.0824453,0.111049,-0.0725437,-1.01305,0.106772,0.0456744,1259,1660,-0.428474,-9.01414
42,-636,-0.891602,7.63794,0,0,0,0,0,0,0,-1,1266,1660,-0.891541,-7.63794
49,-636,5.43079,12.1396,0,0,0,0,0,0,0,-1,1273,1660,5.43081,-12.1396
56,-636,4.66333,13.082,0,0,0,0,0,0,0,-1,1280,1660,4.66333,-13.0821
63,-636,3.84497,14.2781,-0.0285974,0.0622479,-0.0134485,0.064197,-0.0305464,-1.42687,0.0558384,0.0496012,1287,1660,3.84497,-14.278
70,-636,2.98682,16.0825,-0.0304216,0.0595766,0.0027682,0.0596617,-0.0305067,1.54008,0.0529581,0.0490419,1294,1660,2.98687,-16.0825
77,-636,3.14917,16.8759,-0.0303221,0.0558485,0.0144432,0.0582049,-0.0326785,1.40907,0.053157,0.0484134,1301,1660,3.14923,-16.8758
84,-636,3.37512,15.9486,0,0,0,0,0,0,0,-1,1308,1660,3.37516,-15.9486
91,-636,1.29333,10.1174,0,0,0,0,0,0,0,-1,1315,1660,1.29339,-10.1175
98,-636,0.129761,11.2202,0,0,0,0,0,0,0,-1,1322,1660,0.12979,-11.2202
105,-636,1.6936,12.9388,0,0,0,0,0,0,0,-1,1329,1660,1.69362,-12.9389
112,-636,0.560181,13.4064,0,0,0,0,0,0,0,-1,1336,1660,0.560236,-13.4063
119,-636,0.192261,14.3048,0,0,0,0,0,0,0,-1,1343,1660,0.192219,-14.3048
126,-636,11.3489,1.52612,0,0,0,0,0,0,0,-1,1350,1660,11.3489,-1.52611
133,-636,12.8777,0.481201,0,0,0,0,0,0,0,-1,1357,1660,12.8777,-0.481197
140,-636,15.8348,-0.980347,0,0,0,0,0,0,0,-1,1364,1660,15.8348,0.980297
147,-636,17.7557,-2.10278,0,0,0,0,0,0,0,-1,1371,1660,17.7557,2.10284
154,-636,19.9594,-3.49597,0,0,0,0,0,0,0,-1,1378,1660,19.9593,3.49595
161,-636,10.2961,7.13025,0,0,0,0,0,0,0,-1,1385,1660,10.2961,-7.13021
168,-636,11.7659,5.83899,0,0,0,0,0,0,0,-1,1392,1660,11.7658,-5.83899
175,-636,5.94592,-1.72888,0,0,0,0,0,0,0,-1,1399,1660,5.94598,1.72886
182,-636,5.93994,-1.11938,0,0,0,0,0,0,0,-1,1406,1660,5.93998,1.11936
189,-636,5.32544,11.9595,0,0,0,0,0,0,0,-1,1413,1660,5.32542,-11.9595
196,-636,5.3623,9.38025,0,0,0,0,0,0,0,-1,1420,1660,5.36225,-9.38027
203,-636,5.18542,9.02429,0,0,0,0,0,0,0,-1,1427,1660,5.18547,-9.0243
210,-636,4.09167,7.17041,0,0,0,0,0,0,0,-1,1434,1660,4.09173,-7.17041
217,-636,2.94897,5.28992,0,0,0,0,0,0,0,-1,1441,1660,2.94899,-5.28991
224,-636,1.49194,3.63916,0,0,0,0,0,0,0,-1,1448,1660,1.49197,-3.63918
231,-636,0.17749,2.24854,0,0,0,0,0,0,0,-1,1455,1660,0.177501,-2.24855
238,-636,-0.764648,1.00598,0,0,0,0,0,0,0,-1,1462,1660,-0.764704,-1.00595
245,-636,6.21204,1.18005,0,0,0,0,0,0,0,-1,1469,1660,6.21206,-1.18001
252,-636,7.70251,0.865723,0,0,0,0,0,0,0,-1,1476,1660,7.7025,-0.865692
259,-636,9.03601,0.787231,0,0,0,0,0,0,0,-1,1483,1660,9.03598,-0.787243
266,-636,10.1071,3.24109,0,0,0,0,0,0,0,-1,1490,1660,10.1071,-3.24103
273,-636,8.48535,5.02466,0,0,0,0,0,0,0,-1,1497,1660,8.48533,-5.02472
280,-636,8.81384,5.66992,0,0,0,0,0,0,0,-1,1504,1660,8.81381,-5.66998
287,-636,6.08606,11.49,0,0,0,0,0,0,0,-1,1511,1660,6.08606,-11.49
294,-636,5.65723,14.3698,0,0,0,0,0,0,0,-1,1518,1660,5.65723,-14.3698
301,-636,5.42517,13.8456,0,0,0,0,0,0,0,-1,1525,1660,5.42515,-13.8456
308,-636,5.2467,13.6036,0,0,0,0,0,0,0,-1,1532,1660,5.24668,-13.6036
315,-636,6.2937,13.3499,-0.00241837,-0.00829526,0.00109014,-0.00222266,-0.00849096,0.177626,0.00508436,0.0496558,1539,1660,6.2937,-13.3498
322,-636,5.75867,13.8134,-0.000935062,-0.00775592,0.000359075,-0.000916211,-0.00777477,0.0524505,0.00490638,0.0404597,1546,1660,5.75862,-13.8133
329,-636,5.72351,13.6815,0.000242285,-0.00690726,-0.0001544,0.000245618,-0.0069106,-0.0215823,0.00469108,0.0268411,1553,1660,5.72352,-13.6815
336,-636,5.73108,13.506,0.000864442,-0.0063802,-0.00048821,0.000897194,-0.00641295,-0.0669855,0.0046036,0.0209551,1560,1660,5.73112,-13.506
343,-636,5.74744,13.41,0.0012091,-0.00575627,-0.000470301,0.00124071,-0.00578788,-0.067114,0.00433179,0.019913,1567,1660,5.74749,-13.4101
350,-636,5.77148,13.2928,0.00167123,-0.00497148,-9.08936e-05,0.00167247,-0.00497272,-0.0136798,0.0039912,0.0114683,1574,1660,5.77144,-13.2929
357,-636,5.7782,13.1938,0.00166242,-0.00413059,0.000247769,0.001673,-0.00414117,0.0426664,0.00345617,0.0103482,1581,1660,5.77821,-13.1939
364,-636,5.79773,13.0737,0.0013,-0.00347712,0.00042023,0.00133668,-0.0035138,0.0870761,0.00289293,0.0106843,1588,1660,5.79771,-13.0737
371,-636,5.8031,12.9305,0.00123172,-0.00274277,0.000275502,0.00125073,-0.00276178,0.0688784,0.00237074,0.00911843,1595,1660,5.80315,-12.9306
378,-636,5.81555,12.78,0.000933867,-0.00254998,0.000721756,0.00107747,-0.00269359,0.196405,0.00224288,0.00944083,1602,1660,5.81557,-12.78
385,-636,5.83118,12.6534,0.00051622,-0.0023839,0.000977262,0.000814792,-0.00268247,0.296513,0.00211294,0.0136597,1609,1660,5.83115,-12.6534
392,-636,5.8197,12.5225,2.5513e-05,-0.00205466,0.000993437,0.000423723,-0.00245287,0.381231,0.00179325,0.0138322,1616,1660,5.81971,-12.5225
399,-636,5.80273,12.3719,-0.000347137,-0.00161955,0.000902474,0.000120839,-0.00208753,0.478375,0.00143366,0.0110359,1623,1660,5.8027,-12.372
406,-636,5.81348,12.2201,-0.000652863,-0.00129372,0.000742004,-0.000165056,-0.00178153,0.581572,0.00113667,0.0138077,1630,1660,5.81344,-12.2201
413,-636,5.81299,12.0728,-0.00101888,-0.000883846,0.000565261,-0.000382082,-0.00152064,0.844837,0.000913437,0.0217878,1637,1660,5.81305,-12.0728
420,-636,5.79028,11.9187,-0.00130645,-0.000325709,0.000325042,-0.000227764,-0.00140439,1.27812,0.000870333,0.0209747,1644,1660,5.79032,-11.9187
427,-636,5.80872,11.7706,-0.00155903,0.000104457,0.000136791,0.000115631,-0.0015702,1.48929,0.00108739,0.0123961,1651,1660,5.80873,-11.7706
434,-636,5.81018,11.63,-0.00264792,0.000761141,-0.000280315,0.000784036,-0.00267082,-1.4893,0.00209146,0.0106723,1658,1660,5.81021,-11.63
441,-636,5.81885,11.4618,-0.0043727,0.00148478,-0.000952788,0.00163586,-0.00452378,-1.41353,0.00368426,0.0109027,1665,1660,5.81881,-11.4618
448,-636,5.84692,11.307,-0.00688573,0.00188453,-0.00156396,0.00215508,-0.00715628,-1.3995,0.00562846,0.0136083,1672,1660,5.84697,-11.307
455,-636,5.83655,11.1169,-0.00955604,0.00342496,-0.00181393,0.00367367,-0.00980475,-1.43454,0.00804566,0.0148757,1679,1660,5.8366,-11.117
462,-636,5.74854,10.9199,-0.0127694,0.00456828,-0.00247655,0.00491509,-0.0131162,-1.43166,0.0107633,0.0197765,1686,1660,5.74854,-10.9199
469,-636,5.77979,10.7867,-0.0167594,0.00605036,-0.0032369,0.00650081,-0.0172099,-1.43252,0.0141471,0.0307544,1693,1660,5.77978,-10.7867
476,-636,5.81567,10.7203,-0.0212533,0.00810411,-0.00393241,0.00862173,-0.0217709,-1.43992,0.0180863,0.0436177,1700,1660,5.81571,-10.7203
483,-636,5.90393,10.4188,0,0,0,0,0,0,0,-1,1707,1660,5.90397,-10.4188
490,-636,6.74133,10.0031,0,0,0,0,0,0,0,-1,1714,1660,6.74133,-10.0031
497,-636,6.30286,10.0909,0,0,0,0,0,0,0,-1,1721,1660,6.30281,-10.0909
504,-636,5.86426,10.1787,0,0,0,0,0,0,0,-1,1728,1660,5.86428,-10.1787
511,-636,5.65466,9.23218,0,0,0,0,0,0,0,-1,1735,1660,5.65461,-9.23216
518,-636,6.72791,1.07605,0,0,0,0,0,0,0,-1,1742,1660,6.7279,-1.0761
525,-636,7.04309,0.93335,0,0,0,0,0,0,0,-1,1749,1660,7.04308,-0.933298
532,-636,0,0,0,0,0,0,0,0,0,-1,1756,1660,0,0
539,-636,0,0,0,0,0,0,0,0,0,-1,1763,1660,0,0
546,-636,0,0,0,0,0,0,0,0,0,-1,1770,1660,0,0
553,-636,0,0,0,0,0,0,0,0,0,-1,1777,1660,0,0
560,-636,0,0,0,0,0,0,0,0,0,-1,1784,1660,0,0
567,-636,0,0,0,0,0,0,0,0,0,-1,1791,1660,0,0
574,-636,0,0,0,0,0,0,0,0,0,-1,1798,1660,0,0
581,-636,0,0,0,0,0,0,0,0,0,-1,1805,1660,0,0
588,-636,0,0,0,0,0,0,0,0,0,-1,1812,1660,0,0
595,-636,0,0,0,0,0,0,0,0,0,-1,1819,1660,0,0
602,-636,0,0,0,0,0,0,0,0,0,-1,1826,1660,0,0
609,-636,0,0,0,0,0,0,0,0,0,-1,1833,1660,0,0
616,-636,0,0,0,0,0,0,0,0,0,-1,1840,1660,0,0
623,-636,0,0,0,0,0,0,0,0,0,-1,1847,1660,0,0
630,-636,0,0,0,0,0,0,0,0,0,-1,1854,1660,0,0
637,-636,0,0,0,0,0,0,0,0,0,-1,1861,1660,0,0
644,-636,0,0,0,0,0,0,0,0,0,-1,1868,1660,0,0
651,-636,0,0,0,0,0,0,0,0,0,-1,1875,1660,0,0
658,-636,0,0,0,0,0,0,0,0,0,-1,1882,1660,0,0
665,-636,0,0,0,0,0,0,0,0,0,-1,1889,1660,0,0
672,-636,0,0,0,0,0,0,0,0,0,-1,1896,1660,0,0
679,-636,0,0,0,0,0,0,0,0,0,-1,1903,1660,0,0
686,-636,0,0,0,0,0,0,0,0,0,-1,1910,1660,0,0
693,-636,0,0,0,0,0,0,0,0,0,-1,1917,1660,0,0
700,-636,0,0,0,0,0,0,0,0,0,-1,1924,1660,0,0
707,-636,0,0,0,0,0,0,0,0,0,-1,1931,1660,0,0
714,-636,0,0,0,0,0,0,0,0,0,-1,1938,1660,0,0
721,-636,0,0,0,0,0,0,0,0,0,-1,1945,1660,0,0
728,-636,0,0,0,0,0,0,0,0,0,-1,1952,1660,0,0
735,-636,0,0,0,0,0,0,0,0,0,-1,1959,1660,0,0
742,-636,0,0,0,0,0,0,0,0,0,-1,1966,1660,0,0
749,-636,0,0,0,0,0,0,0,0,0,-1,1973,1660,0,0
756,-636,0,0,0,0,0,0,0,0,0,-1,1980,1660,0,0
763,-636,0,0,0,0,0,0,0,0,0,-1,1987,1660,0,0
770,-636,0,0,0,0,0,0,0,0,0,-1,1994,1660,0,0
777,-636,0,0,0,0,0,0,0,0,0,-1,2001,1660,0,0
784,-636,0,0,0,0,0,0,0,0,0,-1,2008,1660,0,0
791,-636,0,0,0,0,0,0,0,0,0,-1,2015,1660,0,0
798,-636,0,0,0,0,0,0,0,0,0,-1,2022,1660,0,0
805,-636,0,0,0,0,0,0,0,0,0,-1,2029,1660,0,0
812,-636,0,0,0,0,0,0,0,0,0,-1,2036,1660,0,0
-700,-643,0,0,0,0,0,0,0,0,0,-1,524,1667,0,0
-693,-643,0,0,0,0,0,0,0,0,0,-1,531,1667,0,0
-686,-643,0,0,0,0,0,0,0,0,0,-1,538,1667,0,0
-679,-643,0,0,0,0,0,0,0,0,0,-1,545,1667,0,0
-672,-643,0,0,0,0,0,0,0,0,0,-1,552,1667,0,0
-665,-643,0,0,0,0,0,0,0,0,0,-1,559,1667,0,0
-658,-643,0,0,0,0,0,0,0,0,0,-1,566,1667,0,0
-651,-643,0,0,0,0,0,0,0,0,0,-1,573,1667,0,0
-644,-643,0,0,0,0,0,0,0,0,0,-1,580,1667,0,0
-637,-643,0,0,0,0,0,0,0,0,0,-1,587,1667,0,0
-630,-643,0,0,0,0,0,0,0,0,0,-1,594,1667,0,0
-623,-643,0,0,0,0,0,0,0,0,0,-1,601,1667,0,0
-616,-643,0,0,0,0,0,0,0,0,0,-1,608,1667,0,0
-609,-643,0,0,0,0,0,0,0,0,0,-1,615,1667,0,0
-602,-643,0,0,0,0,0,0,0,0,0,-1,622,1667,0,0
-595,-643,0,0,0,0,0,0,0,0,0,-1,629,1667,0,0
-588,-643,0,0,0,0,0,0,0,0,0,-1,636,1667,0,0
-581,-643,0,0,0,0,0,0,0,0,0,-1,643,1667,0,0
-574,-643,0,0,0,0,0,0,0,0,0,-1,650,1667,0,0
-567,-643,0,0,0,0,0,0,0,0,0,-1,657,1667,0,0
-560,-643,0,0,0,0,0,0,0,0,0,-1,664,1667,0,0
-553,-643,0,0,0,0,0,0,0,0,0,-1,671,1667,0,0
-546,-643,0,0,0,0,0,0,0,0,0,-1,678,1667,0,0
-539,-643,0,0,0,0,0,0,0,0,0,-1,685,1667,0,0
-532,-643,0,0,0,0,0,0,0,0,0,-1,692,1667,0,0
-525,-643,0,0,0,0,0,0,0,0,0,-1,699,1667,0,0
-518,-643,0,0,0,0,0,0,0,0,0,-1,706,1667,0,0
-511,-643,0,0,0,0,0,0,0,0,0,-1,713,1667,0,0
-504,-643,0,0,0,0,0,0,0,0,0,-1,720,1667,0,0
-497,-643,0,0,0,0,0,0,0,0,0,-1,727,1667,0,0
-490,-643,0,0,0,0,0,0,0,0,0,-1,734,1667,0,0
-483,-643,0,0,0,0,0,0,0,0,0,-1,741,1667,0,0
-476,-643,0,0,0,0,0,0,0,0,0,-1,748,1667,0,0
-469,-643,0,0,0,0,0,0,0,0,0,-1,755,1667,0,0
-462,-643,0,0,0,0,0,0,0,0,0,-1,762,1667,0,0
-455,-643,0,0,0,0,0,0,0,0,0,-1,769,1667,0,0
-448,-643,0,0,0,0,0,0,0,0,0,-1,776,1667,0,0
-441,-643,0,0,0,0,0,0,0,0,0,-1,783,1667,0,0
-434,-643,0,0,0,0,0,0,0,0,0,-1,790,1667,0,0
-427,-643,0,0,0,0,0,0,0,0,0,-1,797,1667,0,0
-420,-643,0,0,0,0,0,0,0,0,0,-1,804,1667,0,0
-413,-643,0,0,0,0,0,0,0,0,0,-1,811,1667,0,0
-406,-643,0,0,0,0,0,0,0,0,0,-1,818,1667,0,0
-399,-643,4.40393,6.401,0,0,0,0,0,0,0,-1,825,1667,4.40396,-6.40101
-392,-643,4.9093,7.02441,0,0,0,0,0,0,0,-1,832,1667,4.90932,-7.02443
-385,-643,4.9585,7.77661,0,0,0,0,0,0,0,-1,839,1667,4.95849,-7.77664
-378,-643,5.29443,8.32349,0,0,0,0,0,0,0,-1,846,1667,5.29444,-8.32347
-371,-643,0.5849,3.26428,0,0,0,0,0,0,0,-1,853,1667,0.584909,-3.26426
-364,-643,1.69513,9.922,0,0,0,0,0,0,0,-1,860,1667,1.69511,-9.92205
-357,-643,2.09784,9.9458,0,0,0,0,0,0,0,-1,867,1667,2.09785,-9.9458
-350,-643,2.50061,9.96948,0,0,0,0,0,0,0,-1,874,1667,2.50059,-9.96954
-343,-643,2.61505,6.17407,0,0,0,0,0,0,0,-1,881,1667,2.61504,-6.17412
-336,-643,3.26062,9.61743,0,0,0,0,0,0,0,-1,888,1667,3.26061,-9.61745
-329,-643,3.22791,9.86194,-0.00570258,-0.00699506,-0.00609311,-0.000221533,-0.0124761,-0.732565,0.00824455,0.0386056,895,1667,3.22789,-9.86192
-322,-643,3.0929,10.1089,-0.00540223,-0.00490525,-0.00563463,0.000486372,-0.0107939,-0.807434,0.00736338,0.0254645,902,1667,3.09291,-10.1089
-315,-643,3.04688,10.2897,-0.00496234,-0.00337778,-0.00516702,0.00105735,-0.00939747,-0.861472,0.00664553,0.0165144,909,1667,3.04685,-10.2897
-308,-643,3.06067,10.4301,-0.00458501,-0.00183276,-0.00484092,0.00182383,-0.0082416,-0.92388,0.00619253,0.012041,916,1667,3.06069,-10.4301
-301,-643,3.06976,10.6125,-0.00426184,-0.000755737,-0.00448018,0.00230215,-0.00731973,-0.971886,0.00580151,0.0126446,923,1667,3.06978,-10.6125
-294,-643,3.04822,10.7925,-0.00386474,0.00020664,-0.00403491,0.0026903,-0.0063484,-1.01903,0.00535906,0.0113318,930,1667,3.0482,-10.7925
-287,-643,3.03607,10.9519,-0.00344251,0.000733523,-0.00356656,0.00277832,-0.00548731,-1.05022,0.00485684,0.00958598,937,1667,3.03608,-10.9519
-280,-643,3.04132,11.1405,-0.00300509,0.000820625,-0.00315078,0.00259375,-0.00477822,-1.05821,0.00431804,0.0130607,944,1667,3.04129,-11.1405
-273,-643,3.04425,11.3064,-0.00237167,0.000728956,-0.00272508,0.00231385,-0.00395657,-1.04402,0.00366141,0.0116084,951,1667,3.04428,-11.3064
-266,-643,3.04462,11.4635,-0.00171922,0.000425734,-0.00234578,0.00193258,-0.00322606,-0.999808,0.00300939,0.0112759,958,1667,3.04462,-11.4635
-259,-643,3.0495,11.6528,-0.00118642,-2.99591e-05,-0.00195608,0.00143156,-0.00264794,-0.92911,0.00238995,0.0108578,965,1667,3.04947,-11.6528
-252,-643,3.05273,11.8353,-0.000572105,-0.000678066,-0.00168523,0.00106097,-0.00231115,-0.769684,0.00199099,0.0117157,972,1667,3.05272,-11.8354
-245,-643,3.06335,12.006,-0.00035462,-0.00152359,-0.00149094,0.000662307,-0.00254052,-0.598592,0.00195226,0.0115849,979,1667,3.06336,-12.006
-238,-643,3.09906,12.1443,-0.000602155,-0.00225091,-0.00144543,0.00023746,-0.00309052,-0.526238,0.00214389,0.0156618,986,1667,3.09905,-12.1442
-231,-643,3.07074,12.3024,-0.00031491,-0.00341418,-0.00144553,0.000254639,-0.00398373,-0.375328,0.00274464,0.0112853,993,1667,3.07074,-12.3024
-224,-643,3.0437,12.4333,-0.000131858,-0.00411757,-0.000864268,4.74814e-05,-0.00429691,-0.204601,0.00288056,0.00930289,1000,1667,3.04368,-12.4334
-217,-643,3.03906,12.558,-0.000134135,-0.00457679,-3.70856e-05,-0.000133825,-0.0045771,-0.00834685,0.00300779,0.00857727,1007,1667,3.03906,-12.558
-210,-643,3.04352,12.7213,-0.000525577,-0.00476257,0.00117032,-0.000223807,-0.00506434,0.252354,0.00330415,0.0108744,1014,1667,3.0435,-12.7213
-203,-643,3.05286,12.8837,-0.00165423,-0.00468029,0.00266562,-0.000102167,-0.00623235,0.527267,0.00412127,0.0119396,1021,1667,3.05283,-12.8837
-196,-643,3.06519,13.0103,-0.00230944,-0.00474222,0.00420155,0.000848252,-0.00789991,0.644496,0.00557093,0.011741,1028,1667,3.06524,-13.0102
-189,-643,3.13831,13.1313,-0.00311486,-0.00515866,0.00618398,0.00213109,-0.0104046,0.703513,0.00774512,0.0122469,1035,1667,3.13834,-13.1313
-182,-643,3.1814,13.2041,-0.00397176,-0.00494233,0.00847848,0.00403531,-0.0129494,0.756811,0.0102464,0.0203573,1042,1667,3.18136,-13.2041
-175,-643,3.17383,13.3135,-0.004869,-0.00447396,0.0107127,0.006043,-0.015386,0.794616,0.012758,0.0339575,1049,1667,3.17385,-13.3134
-168,-643,3.14746,13.4106,-0.00580179,-0.00450628,0.0129357,0.00779788,-0.0181059,0.810415,0.0153452,0.0399144,1056,1667,3.14743,-13.4106
-161,-643,3.7821,13.574,-0.00640215,-0.00454201,0.0148451,0.0094021,-0.0203463,0.816683,0.0175584,0.0460194,1063,1667,3.78205,-13.574
-154,-643,3.37256,13.4932,-0.00684887,-0.00470278,0.0164882,0.0107472,-0.0222989,0.817892,0.0194638,0.0460974,1070,1667,3.37255,-13.4931
-147,-643,2.98926,13.3438,0,0,0,0,0,0,0,-1,1077,1667,2.98921,-13.3437
-140,-643,3.4209,12.7894,0,0,0,0,0,0,0,-1,1084,1667,3.42093,-12.7895
-133,-643,3.41809,14.3121,0,0,0,0,0,0,0,-1,1091,1667,3.41805,-14.3121
-126,-643,2.81165,14.5739,0,0,0,0,0,0,0,-1,1098,1667,2.8116,-14.5739
-119,-643,3.76282,14.1458,0,0,0,0,0,0,0,-1,1105,1667,3.76283,-14.1458
-112,-643,3.81458,16.2069,0,0,0,0,0,0,0,-1,1112,1667,3.81463,-16.2069
-105,-643,-2.23413,10.0996,0,0,0,0,0,0,0,-1,1119,1667,-2.23415,-10.0996
-98,-643,3.11035,4.68066,0,0,0,0,0,0,0,-1,1126,1667,3.11041,-4.68071
-91,-643,-1.74146,-2.5885,0,0,0,0,0,0,0,-1,1133,1667,-1.74146,2.58856
-84,-643,-3.07446,-0.199341,0,0,0,0,0,0,0,-1,1140,1667,-3.07449,0.199383
-77,-643,-3.63794,2.81165,0,0,0,0,0,0,0,-1,1147,1667,-3.63791,-2.8117
-70,-643,-3.36938,4.45203,0,0,0,0,0,0,0,-1,1154,1667,-3.36941,-4.452
-63,-643,-3.67822,6.26855,0,0,0,0,0,0,0,-1,1161,1667,-3.67823,-6.26856
-56,-643,-3.95142,8.1073,0,0,0,0,0,0,0,-1,1168,1667,-3.95139,-8.10732
-49,-643,-4.23535,9.90552,0,0,0,0,0,0,0,-1,1175,1667,-4.23537,-9.90557
-42,-643,-4.25195,10.7059,0,0,0,0,0,0,0,-1,1182,1667,-4.25192,-10.706
-35,-643,-4.10986,11.6588,0,0,0,0,0,0,0,-1,1189,1667,-4.10982,-11.6589
-28,-643,-1.38513,5.604,0,0,0,0,0,0,0,-1,1196,1667,-1.3851,-5.60403
-21,-643,3.87097,18.0372,0,0,0,0,0,0,0,-1,1203,1667,3.87098,-18.0373
-14,-643,3.521,16.7694,0,0,0,0,0,0,0,-1,1210,1667,3.52094,-16.7694
-7,-643,3.11304,15.38,-0.0251097,0.0142236,-0.11758,0.11377,-0.124656,-0.868262,0.137703,0.046898,1217,1667,3.11306,-15.38
0,-643,2.7345,14.214,-0.0201705,0.0206685,-0.118056,0.120058,-0.11956,-0.871033,0.138344,0.0449131,1224,1667,2.73451,-14.2139
7,-643,2.35229,13.2006,-0.0168903,0.0267709,-0.115598,0.122582,-0.112701,-0.878724,0.135881,0.0431048,1231,1667,2.35227,-13.2006
14,-643,1.95642,12.3711,-0.0158724,0.0315201,-0.108879,0.119251,-0.103604,-0.892547,0.128771,0.0403847,1238,1667,1.9564,-12.3711
21,-643,1.24377,10.8295,-0.0163281,0.0363561,-0.0979634,0.111457,-0.0914292,-0.91674,0.117327,0.0423027,1245,1667,1.24377,-10.8295
28,-643,0.776245,9.43726,-0.0168434,0.040571,-0.0849713,0.101553,-0.0778258,-0.948301,0.103866,0.0432951,1252,1667,0.776239,-9.43728
35,-643,0.431396,7.74817,-0.0184371,0.0424899,-0.0715144,0.0897589,-0.0657061,-0.986747,0.0901151,0.0442437,1259,1667,0.431372,-7.7482
42,-643,7.09534,10.5359,0,0,0,0,0,0,0,-1,1266,1667,7.09529,-10.5359
49,-643,6.20642,11.6743,0,0,0,0,0,0,0,-1,1273,1667,6.2064,-11.6743
56,-643,5.44116,12.8544,0,0,0,0,0,0,0,-1,1280,1667,5.44121,-12.8544
63,-643,4.6825,14.0417,-0.0277869,0.044809,-0.0136045,0.0472747,-0.0302526,-1.3915,0.0451186,0.0475635,1287,1667,4.68252,-14.0418
70,-643,3.31982,15.7205,-0.0300803,0.0432978,0.000135872,0.0432981,-0.0300806,1.56894,0.0425937,0.0464128,1294,1667,3.31979,-15.7205
77,-643,3.54053,16.4001,-0.0306732,0.0412469,0.0101041,0.0426395,-0.0320657,1.43384,0.0432748,0.0439446,1301,1667,3.54053,-16.4001
84,-643,3.51892,16.0406,-0.0309298,0.0387382,0.0153678,0.0419775,-0.0341691,1.36305,0.0440402,0.0459789,1308,1667,3.51897,-16.0407
91,-643,3.27844,16.0708,0,0,0,0,0,0,0,-1,1315,1667,3.27844,-16.0708
98,-643,3.09143,16.5377,0,0,0,0,0,0,0,-1,1322,1667,3.09144,-16.5377
105,-643,2.94421,16.9114,0,0,0,0,0,0,0,-1,1329,1667,2.94418,-16.9114
112,-643,1.51917,13.5668,0,0,0,0,0,0,0,-1,1336,1667,1.51922,-13.5668
119,-643,0.988159,14.4132,0,0,0,0,0,0,0,-1,1343,1667,0.988195,-14.4132
126,-643,1.54919,16.9304,0,0,0,0,0,0,0,-1,1350,1667,1.54917,-16.9305
133,-643,15.4547,-0.287109,0,0,0,0,0,0,0,-1,1357,1667,15.4547,0.287069
140,-643,17.0258,-1.49182,0,0,0,0,0,0,0,-1,1364,1667,17.0258,1.49177
147,-643,18.5807,-2.65759,0,0,0,0,0,0,0,-1,1371,1667,18.5806,2.65754
154,-643,2.53992,13.4635,0,0,0,0,0,0,0,-1,1378,1667,2.53993,-13.4636
161,-643,12.2321,5.97412,0,0,0,0,0,0,0,-1,1385,1667,12.232,-5.97411
168,-643,10.5563,10.9818,0,0,0,0,0,0,0,-1,1392,1667,10.5562,-10.9819
175,-643,5.88525,-1.1698,0,0,0,0,0,0,0,-1,1399,1667,5.88526,1.16977
182,-643,5.80945,-0.418701,0,0,0,0,0,0,0,-1,1406,1667,5.80949,0.418712
189,-643,5.42297,12.9208,0,0,0,0,0,0,0,-1,1413,1667,5.42298,-12.9208
196,-643,5.51953,11.2415,0,0,0,0,0,0,0,-1,1420,1667,5.51948,-11.2414
203,-643,5.60828,9.82153,0,0,0,0,0,0,0,-1,1427,1667,5.60833,-9.82148
210,-643,4.73218,7.58728,0,0,0,0,0,0,0,-1,1434,1667,4.73222,-7.58728
217,-643,3.8031,5.28955,0,0,0,0,0,0,0,-1,1441,1667,3.80305,-5.28955
224,-643,2.96436,2.97095,0,0,0,0,0,0,0,-1,1448,1667,2.96432,-2.97095
231,-643,2.13403,1.08472,0,0,0,0,0,0,0,-1,1455,1667,2.13403,-1.08467
238,-643,1.18152,-0.261963,0,0,0,0,0,0,0,-1,1462,1667,1.18152,0.26192
245,-643,-0.157471,-1.79016,0,0,0,0,0,0,0,-1,1469,1667,-0.157517,1.7901
252,-643,8.08789,0.0202637,0,0,0,0,0,0,0,-1,1476,1667,8.08791,-0.0203056
259,-643,9.02979,-0.46936,0,0,0,0,0,0,0,-1,1483,1667,9.02974,0.46933
266,-643,4.55066,5.17554,0,0,0,0,0,0,0,-1,1490,1667,4.55063,-5.17556
273,-643,4.34363,6.56836,0,0,0,0,0,0,0,-1,1497,1667,4.34363,-6.5684
280,-643,5.87781,14.7743,0,0,0,0,0,0,0,-1,1504,1667,5.87776,-14.7743
287,-643,6.10559,14.6232,0,0,0,0,0,0,0,-1,1511,1667,6.10563,-14.6232
294,-643,5.81348,14.2457,-0.00466592,-0.00408622,0.00462296,0.000255972,-0.00900811,0.816706,0.00609252,0.0461357,1518,1667,5.81349,-14.2457
301,-643,5.52625,13.8749,-0.0041253,-0.00543423,0.00364122,-0.00108019,-0.00847933,0.696479,0.00532944,0.0395747,1525,1667,5.5262,-13.8748
308,-643,5.54419,13.8225,-0.00301248,-0.00594757,0.00247095,-0.00160612,-0.00735392,0.51743,0.0044646,0.0398835,1532,1667,5.54417,-13.8225
315,-643,5.6283,13.8733,-0.00183477,-0.00613727,0.0015633,-0.00132673,-0.0066453,0.314209,0.00406086,0.0289135,1539,1667,5.62831,-13.8733
322,-643,5.62988,13.803,-0.000818086,-0.00576104,0.000882133,-0.000665376,-0.00591375,0.171415,0.00374049,0.0152399,1546,1667,5.62992,-13.803
329,-643,5.6189,13.6681,6.70667e-05,-0.00514477,0.000331461,8.80624e-05,-0.00516576,0.063258,0.00347357,0.0119626,1553,1667,5.61892,-13.668
336,-643,5.58496,13.5691,0.000535375,-0.00477517,-5.6798e-05,0.000535982,-0.00477577,-0.0106937,0.00337672,0.0109696,1560,1667,5.585,-13.5691
343,-643,5.60413,13.4514,0.000860864,-0.00424775,-0.000215142,0.000869909,-0.0042568,-0.0420144,0.0031679,0.0127404,1567,1667,5.60416,-13.4514
350,-643,5.64014,13.3081,0.001313,-0.00362878,-7.74039e-05,0.00131421,-0.00363,-0.015658,0.00295707,0.0125336,1574,1667,5.64014,-13.3081
357,-643,5.64294,13.2012,0.00146442,-0.00290643,5.72214e-05,0.00146517,-0.00290718,0.0130886,0.00256973,0.0107393,1581,1667,5.643,-13.2012
364,-643,5.65784,13.0751,0.00129405,-0.00237937,0.000107098,0.00129717,-0.00238249,0.029122,0.00215504,0.00914915,1588,1667,5.65786,-13.0751
371,-643,5.66125,12.9365,0.00130338,-0.00181691,-0.000117386,0.00130779,-0.00182132,-0.0375496,0.00181468,0.00787316,1595,1667,5.66129,-12.9366
378,-643,5.67554,12.7999,0.00114463,-0.00166268,0.000128484,0.0011505,-0.00166854,0.0456406,0.00163671,0.00992875,1602,1667,5.67557,-12.7999
385,-643,5.67664,12.666,0.000805363,-0.00151735,0.000243758,0.000830668,-0.00154266,0.103444,0.00139064,0.0149637,1609,1667,5.67666,-12.666
392,-643,5.67188,12.5111,0.00024725,-0.00113087,0.000208109,0.000277991,-0.00116161,0.146653,0.000881802,0.0149686,1616,1667,5.67182,-12.5111
399,-643,5.66931,12.3768,-0.000188512,-0.000738062,0.000142072,-0.000153956,-0.000772618,0.238597,0.000472202,0.0130764,1623,1667,5.66932,-12.3768
406,-643,5.67493,12.2329,-0.000628239,-0.0004755,2.16159e-05,-0.0004725,-0.000631239,1.43288,0.000379156,0.0126001,1630,1667,5.67497,-12.2329
413,-643,5.67566,12.0826,-0.00116104,-8.48493e-05,-0.000140646,-6.67722e-05,-0.00117912,-1.44297,0.000764795,0.0183226,1637,1667,5.67565,-12.0827
420,-643,5.64368,11.9352,-0.00168109,0.000454926,-0.000310532,0.000499155,-0.00172532,-1.42932,0.00134777,0.0168719,1644,1667,5.64363,-11.9352
427,-643,5.66846,11.7844,-0.00223459,0.000886363,-0.00039615,0.000935862,-0.00228409,-1.44649,0.00191259,0.0139314,1651,1667,5.66851,-11.7844
434,-643,5.67505,11.6393,-0.00399129,0.00163802,-0.000806475,0.00175128,-0.00410455,-1.43127,0.00347067,0.0152925,1658,1667,5.67509,-11.6393
441,-643,5.67761,11.4617,-0.00662121,0.00248184,-0.00153814,0.00273471,-0.00687409,-1.40785,0.00571666,0.0140963,1665,1667,5.67763,-11.4617
448,-643,5.71191,11.2814,-0.0102484,0.00288496,-0.00220034,0.00324379,-0.0106072,-1.40914,0.00836509,0.0189103,1672,1667,5.71194,-11.2814
455,-643,5.68298,11.2107,-0.0140495,0.00490035,-0.00242324,0.00520532,-0.0143544,-1.4456,0.0116974,0.0282664,1679,1667,5.683,-11.2107
462,-643,5.58545,11.0033,-0.0186105,0.00638474,-0.00322139,0.00679324,-0.019019,-1.44466,0.0154499,0.0358619,1686,1667,5.58542,-11.0033
469,-643,5.67688,10.7308,-0.0241467,0.00828439,-0.00410953,0.00879703,-0.0246593,-1.44669,0.0200266,0.0417746,1693,1667,5.67687,-10.7308
476,-643,5.80652,10.5898,0,0,0,0,0,0,0,-1,1700,1667,5.80654,-10.5898
483,-643,7.92896,10.92,0,0,0,0,0,0,0,-1,1707,1667,7.92898,-10.9201
490,-643,6.47009,10.0278,0,0,0,0,0,0,0,-1,1714,1667,6.47005,-10.0278
497,-643,6.25037,9.64734,-0.0491379,0.0220427,-0.00654085,0.0226388,-0.049734,-1.47992,0.0427494,0.0434852,1721,1667,6.25037,-9.64735
504,-643,6.2887,9.46606,-0.0553927,0.029133,-0.00604765,0.0295635,-0.0558232,-1.49973,0.0500691,0.0471821,1728,1667,6.28874,-9.46602
511,-643,6.32056,9.37439,0,0,0,0,0,0,0,-1,1735,1667,6.32061,-9.37435
518,-643,7.40564,0.922607,0,0,0,0,0,0,0,-1,1742,1667,7.4057,-0.922598
525,-643,0,0,0,0,0,0,0,0,0,-1,1749,1667,0,0
532,-643,0,0,0,0,0,0,0,0,0,-1,1756,1667,0,0
539,-643,0,0,0,0,0,0,0,0,0,-1,1763,1667,0,0
546,-643,0,0,0,0,0,0,0,0,0,-1,1770,1667,0,0
553,-643,0,0,0,0,0,0,0,0,0,-1,1777,1667,0,0
560,-643,0,0,0,0,0,0,0,0,0,-1,1784,1667,0,0
567,-643,0,0,0,0,0,0,0,0,0,-1,1791,1667,0,0
574,-643,0,0,0,0,0,0,0,0,0,-1,1798,1667,0,0
581,-643,0,0,0,0,0,0,0,0,0,-1,1805,1667,0,0
588,-643,0,0,0,0,0,0,0,0,0,-1,1812,1667,0,0
595,-643,0,0,0,0,0,0,0,0,0,-1,1819,1667,0,0
602,-643,0,0,0,0,0,0,0,0,0,-1,1826,1667,0,0
609,-643,0,0,0,0,0,0,0,0,0,-1,1833,1667,0,0
616,-643,0,0,0,0,0,0,0,0,0,-1,1840,1667,0,0
623,-643,0,0,0,0,0,0,0,0,0,-1,1847,1667,0,0
630,-643,0,0,0,0,0,0,0,0,0,-1,1854,1667,0,0
637,-643,0,0,0,0,0,0,0,0,0,-1,1861,1667,0,0
644,-643,0,0,0,0,0,0,0,0,0,-1,1868,1667,0,0
651,-643,0,0,0,0,0,0,0,0,0,-1,1875,1667,0,0
658,-643,0,0,0,0,0,0,0,0,0,-1,1882,1667,0,0
665,-643,0,0,0,0,0,0,0,0,0,-1,1889,1667,0,0
672,-643,0,0,0,0,0,0,0,0,0,-1,1896,1667,0,0
679,-643,0,0,0,0,0,0,0,0,0,-1,1903,1667,0,0
686,-643,0,0,0,0,0,0,0,0,0,-1,1910,1667,0,0
693,-643,0,0,0,0,0,0,0,0,0,-1,1917,1667,0,0
700,-643,0,0,0,0,0,0,0,0,0,-1,1924,1667,0,0
707,-643,0,0,0,0,0,0,0,0,0,-1,1931,1667,0,0
714,-643,0,0,0,0,0,0,0,0,0,-1,1938,1667,0,0
721,-643,0,0,0,0,0,0,0,0,0,-1,1945,1667,0,0
728,-643,0,0,0,0,0,0,0,0,0,-1,1952,1667,0,0
735,-643,0,0,0,0,0,0,0,0,0,-1,1959,1667,0,0
742,-643,0,0,0,0,0,0,0,0,0,-1,1966,1667,0,0
749,-643,0,0,0,0,0,0,0,0,0,-1,1973,1667,0,0
756,-643,0,0,0,0,0,0,0,0,0,-1,1980,1667,0,0
763,-643,0,0,0,0,0,0,0,0,0,-1,1987,1667,0,0
770,-643,0,0,0,0,0,0,0,0,0,-1,1994,1667,0,0
777,-643,0,0,0,0,0,0,0,0,0,-1,2001,1667,0,0
784,-643,0,0,0,0,0,0,0,0,0,-1,2008,1667,0,0
791,-643,0,0,0,0,0,0,0,0,0,-1,2015,1667,0,0
798,-643,0,0,0,0,0,0,0,0,0,-1,2022,1667,0,0
805,-643,0,0,0,0,0,0,0,0,0,-1,2029,1667,0,0
812,-643,0,0,0,0,0,0,0,0,0,-1,2036,1667,0,0
-700,-650,0,0,0,0,0,0,0,0,0,-1,524,1674,0,0
-693,-650,0,0,0,0,0,0,0,0,0,-1,531,1674,0,0
-686,-650,0,0,0,0,0,0,0,0,0,-1,538,1674,0,0
-679,-650,0,0,0,0,0,0,0,0,0,-1,545,1674,0,0
-672,-650,0,0,0,0,0,0,0,0,0,-1,552,1674,0,0
-665,-650,0,0,0,0,0,0,0,0,0,-1,559,1674,0,0
-658,-650,0,0,0,0,0,0,0,0,0,-1,566,1674,0,0
-651,-650,0,0,0,0,0,0,0,0,0,-1,573,1674,0,0
-644,-650,0,0,0,0,0,0,0,0,0,-1,580,1674,0,0
-637,-650,0,0,0,0,0,0,0,0,0,-1,587,1674,0,0
-630,-650,0,0,0,0,0,0,0,0,0,-1,594,1674,0,0
-623,-650,0,0,0,0,0,0,0,0,0,-1,601,1674,0,0
-616,-650,0,0,0,0,0,0,0,0,0,-1,608,1674,0,0
-609,-650,0,0,0,0,0,0,0,0,0,-1,615,1674,0,0
-602,-650,0,0,0,0,0,0,0,0,0,-1,622,1674,0,0
-595,-650,0,0,0,0,0,0,0,0,0,-1,629,1674,0,0
-588,-650,0,0,0,0,0,0,0,0,0,-1,636,1674,0,0
-581,-650,0,0,0,0,0,0,0,0,0,-1,643,1674,0,0
-574,-650,0,0,0,0,0,0,0,0,0,-1,650,1674,0,0
-567,-650,0,0,0,0,0,0,0,0,0,-1,657,1674,0,0
-560,-650,0,0,0,0,0,0,0,0,0,-1,664,1674,0,0
-553,-650,0,0,0,0,0,0,0,0,0,-1,671,1674,0,0
-546,-650,0,0,0,0,0,0,0,0,0,-1,678,1674,0,0
-539,-650,0,0,0,0,0,0,0,0,0,-1,685,1674,0,0
-532,-650,0,0,0,0,0,0,0,0,0,-1,692,1674,0,0
-525,-650,0,0,0,0,0,0,0,0,0,-1,699,1674,0,0
-518,-650,0,0,0,0,0,0,0,0,0,-1,706,1674,0,0
-511,-650,0,0,0,0,0,0,0,0,0,-1,713,1674,0,0
-504,-650,0,0,0,0,0,0,0,0,0,-1,720,1674,0,0
-497,-650,0,0,0,0,0,0,0,0,0,-1,727,1674,0,0
-490,-650,0,0,0,0,0,0,0,0,0,-1,734,1674,0,0
-483,-650,0,0,0,0,0,0,0,0,0,-1,741,1674,0,0
-476,-650,0,0,0,0,0,0,0,0,0,-1,748,1674,0,0
-469,-650,0,0,0,0,0,0,0,0,0,-1,755,1674,0,0
-462,-650,0,0,0,0,0,0,0,0,0,-1,762,1674,0,0
-455,-650,0,0,0,0,0,0,0,0,0,-1,769,1674,0,0
-448,-650,0,0,0,0,0,0,0,0,0,-1,776,1674,0,0
-441,-650,0,0,0,0,0,0,0,0,0,-1,783,1674,0,0
-434,-650,0,0,0,0,0,0,0,0,0,-1,790,1674,0,0
-427,-650,0,0,0,0,0,0,0,0,0,-1,797,1674,0,0
-420,-650,0,0,0,0,0,0,0,0,0,-1,804,1674,0,0
-413,-650,0,0,0,0,0,0,0,0,0,-1,811,1674,0,0
-406,-650,0,0,0,0,0,0,0,0,0,-1,818,1674,0,0
-399,-650,0,0,0,0,0,0,0,0,0,-1,825,1674,0,0
-392,-650,5.44415,6.85669,0,0,0,0,0,0,0,-1,832,1674,5.44414,-6.85674
-385,-650,8.7821,8.6189,0,0,0,0,0,0,0,-1,839,1674,8.78213,-8.61893
-378,-650,0.997986,4.11108,0,0,0,0,0,0,0,-1,846,1674,0.998006,-4.11113
-371,-650,-1.80096,3.78625,0,0,0,0,0,0,0,-1,853,1674,-1.80094,-3.78625
-364,-650,-2.95679,2.57507,0,0,0,0,0,0,0,-1,860,1674,-2.95681,-2.57506
-357,-650,1.97833,10.8362,0,0,0,0,0,0,0,-1,867,1674,1.97835,-10.8362
-350,-650,-5.30243,0.159912,0,0,0,0,0,0,0,-1,874,1674,-5.30244,-0.159866
-343,-650,-6.21338,-1.4425,0,0,0,0,0,0,0,-1,881,1674,-6.21341,1.44248
-336,-650,2.38995,9.27759,0,0,0,0,0,0,0,-1,888,1674,2.38998,-9.27758
-329,-650,3.38458,9.95178,0,0,0,0,0,0,0,-1,895,1674,3.38456,-9.9518
-322,-650,3.21973,10.057,-0.00792771,-0.00599272,-0.00817182,0.00126868,-0.0151891,-0.844321,0.0105744,0.0425541,902,1674,3.2197,-10.057
-315,-650,3.19086,10.2032,-0.00741875,-0.00403507,-0.00749226,0.00195399,-0.0134078,-0.896442,0.009656,0.0381577,909,1674,3.19086,-10.2033
-308,-650,3.24744,10.4097,-0.00696817,-0.00206058,-0.0069631,0.00286843,-0.0118972,-0.954804,0.00904058,0.0214641,916,1674,3.24744,-10.4096
-301,-650,3.23932,10.6136,-0.00656046,-0.000528635,-0.00636036,0.00349462,-0.0105837,-1.00678,0.00846466,0.0111289,923,1674,3.23934,-10.6136
-294,-650,3.21979,10.7847,-0.00606969,0.000825715,-0.00568043,0.00402285,-0.00926683,-1.05815,0.00786939,0.00946043,930,1674,3.21981,-10.7847
-287,-650,3.20764,10.9319,-0.00550379,0.00174131,-0.00497922,0.00427632,-0.0080388,-1.09988,0.0072199,0.0125545,937,1674,3.20767,-10.9318
-280,-650,3.20575,11.1201,-0.00488631,0.00215757,-0.00436704,0.00424589,-0.00697464,-1.12474,0.00654172,0.0134722,944,1674,3.20576,-11.1201
-273,-650,3.21051,11.3032,-0.00407621,0.00231513,-0.00377344,0.00406427,-0.00582535,-1.13674,0.00573987,0.0124722,951,1674,3.21049,-11.3032
-266,-650,3.19135,11.479,-0.00323198,0.00221574,-0.0032509,0.00373308,-0.00474932,-1.13411,0.00490901,0.0110486,958,1674,3.19132,-11.479
-259,-650,3.2002,11.6477,-0.00249261,0.00196558,-0.00271931,0.00325266,-0.00377969,-1.12873,0.00406393,0.0135488,965,1674,3.20018,-11.6477
-252,-650,3.20972,11.8201,-0.00170328,0.00145602,-0.00230231,0.00266849,-0.00291575,-1.08607,0.00322512,0.0119712,972,1674,3.20974,-11.8201
-245,-650,3.22107,11.9843,-0.00122057,0.000682669,-0.00198119,0.00192893,-0.00246683,-1.00929,0.00254422,0.0120112,979,1674,3.22107,-11.9842
-238,-650,3.22089,12.1433,-0.001042,-7.33848e-05,-0.00172451,0.00123354,-0.00234892,-0.92229,0.00210148,0.0135014,986,1674,3.22091,-12.1433
-231,-650,3.19409,12.3124,-0.000416136,-0.0012257,-0.0015704,0.00080081,-0.00244265,-0.659265,0.00195094,0.0178866,993,1674,3.19412,-12.3123
-224,-650,3.18146,12.449,7.91853e-05,-0.00202072,-0.00096492,0.000455231,-0.00239676,-0.371611,0.00176922,0.0144134,1000,1674,3.18144,-12.4489
-217,-650,3.20398,12.5546,0.000393164,-0.00263592,-0.000207922,0.00040737,-0.00265013,-0.0682153,0.00191702,0.00950829,1007,1674,3.20401,-12.5546
-210,-650,3.21173,12.7096,0.000354144,-0.00301172,0.000853627,0.000558257,-0.00321583,0.234706,0.00235216,0.00900831,1014,1674,3.21174,-12.7096
-203,-650,3.22852,12.8662,-0.000241849,-0.00318682,0.00212717,0.000872759,-0.00430143,0.482652,0.00319848,0.0134221,1021,1674,3.22854,-12.8662
-196,-650,3.23608,12.9979,-0.000462429,-0.00349471,0.00339915,0.00174338,-0.00570052,0.575623,0.0044956,0.0130024,1028,1674,3.23603,-12.9979
-189,-650,3.24414,13.1239,-0.000817575,-0.00407889,0.00496318,0.00277596,-0.00767242,0.626678,0.00624928,0.0104911,1035,1674,3.2441,-13.1239
-182,-650,3.28711,13.2638,-0.00126753,-0.00411104,0.00669433,0.00415436,-0.00953293,0.680762,0.00810319,0.0091063,1042,1674,3.28714,-13.2638
-175,-650,3.29565,13.3864,-0.00175415,-0.00396116,0.00826274,0.00547845,-0.0111938,0.719015,0.00981242,0.013683,1049,1674,3.29564,-13.3864
-168,-650,3.27136,13.4896,-0.00227256,-0.0041516,0.00977707,0.00661003,-0.0130342,0.737498,0.011542,0.0186991,1056,1674,3.27142,-13.4897
-161,-650,3.30725,13.6235,-0.00254622,-0.00431538,0.0110343,0.00763886,-0.0145005,0.7454,0.0129852,0.0282524,1063,1674,3.30726,-13.6235
-154,-650,3.33655,13.6959,-0.00265503,-0.00460475,0.0120646,0.00847399,-0.0157338,0.745084,0.0141843,0.0318777,1070,1674,3.33654,-13.6959
-147,-650,3.36169,13.5033,-0.00281456,-0.00489388,0.0126007,0.00878933,-0.0164978,0.744238,0.0148239,0.0408713,1077,1674,3.36173,-13.5033
-140,-650,3.42419,13.3191,-0.00176459,-0.0054063,0.0128721,0.00941477,-0.0165856,0.715135,0.0152005,0.048232,1084,1674,3.42425,-13.3191
-133,-650,3.27539,14.0668,0.000614444,-0.00661127,0.0132442,0.0107297,-0.0167265,0.652244,0.0159774,0.0436761,1091,1674,3.2754,-14.0668
-126,-650,3.15308,14.3188,0.00190508,-0.00708082,0.0127651,0.0109448,-0.0161206,0.616183,0.0157212,0.0462004,1098,1674,3.15309,-14.3189
-119,-650,3.20874,14.5598,0,0,0,0,0,0,0,-1,1105,1674,3.20877,-14.5598
-112,-650,3.86292,14.4513,0,0,0,0,0,0,0,-1,1112,1674,3.8629,-14.4513
-105,-650,4.9259,12.0626,0,0,0,0,0,0,0,-1,1119,1674,4.92591,-12.0626
-98,-650,3.3761,6.78003,0,0,0,0,0,0,0,-1,1126,1674,3.37611,-6.78009
-91,-650,3.66809,7.04443,0,0,0,0,0,0,0,-1,1133,1674,3.66806,-7.04439
-84,-650,-3.82666,-1.59521,0,0,0,0,0,0,0,-1,1140,1674,-3.82661,1.59517
-77,-650,-4.70557,1.90198,0,0,0,0,0,0,0,-1,1147,1674,-4.7056,-1.90194
-70,-650,-4.88171,3.81653,0,0,0,0,0,0,0,-1,1154,1674,-4.88176,-3.81651
-63,-650,-5.14612,5.56543,0,0,0,0,0,0,0,-1,1161,1674,-5.14612,-5.56547
-56,-650,-5.38367,7.41101,0,0,0,0,0,0,0,-1,1168,1674,-5.38361,-7.41102
-49,-650,-5.11316,8.23706,0,0,0,0,0,0,0,-1,1175,1674,-5.11317,-8.23708
-42,-650,-4.99487,9.6792,0,0,0,0,0,0,0,-1,1182,1674,-4.99484,-9.67921
-35,-650,-4.77771,11.3369,0,0,0,0,0,0,0,-1,1189,1674,-4.77769,-11.3369
-28,-650,-4.1936,13.1501,0,0,0,0,0,0,0,-1,1196,1674,-4.19358,-13.1501
-21,-650,3.4165,11.1599,0,0,0,0,0,0,0,-1,1203,1674,3.41654,-11.1599
-14,-650,3.00952,15.3472,0,0,0,0,0,0,0,-1,1210,1674,3.00954,-15.3472
-7,-650,3.1571,14.6128,0,0,0,0,0,0,0,-1,1217,1674,3.1571,-14.6128
0,-650,3.28711,14.0835,-0.0134675,0.0144966,-0.100835,0.102315,-0.101286,-0.85429,0.117549,0.0425412,1224,1674,3.28714,-14.0834
7,-650,2.74426,12.9309,-0.0114691,0.0179788,-0.0986098,0.102958,-0.0964482,-0.859508,0.115148,0.0419519,1231,1674,2.74425,-12.9309
14,-650,2.22241,11.735,-0.01152,0.0208324,-0.0926028,0.0986612,-0.0893488,-0.871868,0.108592,0.041257,1238,1674,2.22242,-11.735
21,-650,1.73804,10.3835,-0.0126673,0.0242565,-0.0832237,0.0910414,-0.0794523,-0.894548,0.0985104,0.0441493,1245,1674,1.73804,-10.3836
28,-650,1.30994,8.95569,-0.0138404,0.0273754,-0.0719521,0.0816126,-0.0680776,-0.92487,0.0865414,0.044751,1252,1674,1.30995,-8.95564
35,-650,6.96997,13.504,0,0,0,0,0,0,0,-1,1259,1674,6.96998,-13.5041
42,-650,6.46948,12.698,0,0,0,0,0,0,0,-1,1266,1674,6.46952,-12.698
49,-650,5.95557,11.8818,0,0,0,0,0,0,0,-1,1273,1674,5.95555,-11.8819
56,-650,5.46448,11.0442,0,0,0,0,0,0,0,-1,1280,1674,5.46442,-11.0442
63,-650,5.32349,13.9771,-0.0254959,0.0308502,-0.011913,0.0332654,-0.0279111,-1.37077,0.0353653,0.0467097,1287,1674,5.32346,-13.9771
70,-650,4.5365,15.1764,-0.0277759,0.0301533,-0.000520966,0.030158,-0.0277806,-1.5618,0.0334602,0.0480604,1294,1674,4.53651,-15.1764
77,-650,3.94128,16.0126,-0.0285332,0.0291321,0.00783604,0.030178,-0.029579,1.43811,0.0345013,0.0445454,1301,1674,3.94128,-16.0126
84,-650,3.57324,16.2156,-0.0287572,0.0279444,0.0122929,0.0304947,-0.0313076,1.36623,0.0356826,0.045597,1308,1674,3.57329,-16.2156
91,-650,3.35571,16.4373,-0.0313938,0.0267823,0.0134444,0.029739,-0.0343505,1.35432,0.037034,0.0468754,1315,1674,3.35567,-16.4373
98,-650,3.44971,16.6508,0,0,0,0,0,0,0,-1,1322,1674,3.44971,-16.6507
105,-650,3.36328,16.9226,0,0,0,0,0,0,0,-1,1329,1674,3.36323,-16.9226
112,-650,3.2583,17.1835,0,0,0,0,0,0,0,-1,1336,1674,3.2583,-17.1835
119,-650,1.76086,14.4037,0,0,0,0,0,0,0,-1,1343,1674,1.76089,-14.4036
126,-650,2.88464,16.7329,0,0,0,0,0,0,0,-1,1350,1674,2.88465,-16.7329
133,-650,3.66809,18.1337,0,0,0,0,0,0,0,-1,1357,1674,3.66815,-18.1337
140,-650,18.1344,-1.98364,0,0,0,0,0,0,0,-1,1364,1674,18.1345,1.98362
147,-650,19.5044,-2.83484,0,0,0,0,0,0,0,-1,1371,1674,19.5044,2.83486
154,-650,20.9094,-3.71948,0,0,0,0,0,0,0,-1,1378,1674,20.9095,3.7195
161,-650,11.2434,8.83008,0,0,0,0,0,0,0,-1,1385,1674,11.2434,-8.83004
168,-650,11.2113,7.87231,0,0,0,0,0,0,0,-1,1392,1674,11.2113,-7.87236
175,-650,5.62537,-0.230713,0,0,0,0,0,0,0,-1,1399,1674,5.62538,0.230745
182,-650,5.56006,0.421631,0,0,0,0,0,0,0,-1,1406,1674,5.56,-0.421652
189,-650,4.81543,11.0654,0,0,0,0,0,0,0,-1,1413,1674,4.81542,-11.0654
196,-650,5.39575,11.9077,0,0,0,0,0,0,0,-1,1420,1674,5.39575,-11.9078
203,-650,3.93628,11.8215,0,0,0,0,0,0,0,-1,1427,1674,3.93624,-11.8216
210,-650,5.40955,8.08594,0,0,0,0,0,0,0,-1,1434,1674,5.40958,-8.086
217,-650,5.12451,4.69739,0,0,0,0,0,0,0,-1,1441,1674,5.12451,-4.69738
224,-650,4.79041,1.45813,0,0,0,0,0,0,0,-1,1448,1674,4.79046,-1.45816
231,-650,4.04102,-0.642212,0,0,0,0,0,0,0,-1,1455,1674,4.04101,0.642209
238,-650,3.23022,-1.43396,0,0,0,0,0,0,0,-1,1462,1674,3.23023,1.43394
245,-650,1.65894,-2.55042,0,0,0,0,0,0,0,-1,1469,1674,1.65889,2.55036
252,-650,8.75342,0.355103,0,0,0,0,0,0,0,-1,1476,1674,8.75337,-0.355147
259,-650,5.61255,3.17566,0,0,0,0,0,0,0,-1,1483,1674,5.61257,-3.17572
266,-650,4.00403,6.10229,0,0,0,0,0,0,0,-1,1490,1674,4.00401,-6.10225
273,-650,5.33875,14.4865,0,0,0,0,0,0,0,-1,1497,1674,5.33879,-14.4864
280,-650,5.48657,14.496,-0.00318031,-0.000642813,0.00588023,0.00410399,-0.00792712,0.891652,0.0070621,0.0479636,1504,1674,5.48654,-14.496
287,-650,5.70349,14.3613,-0.00321701,-0.00195838,0.00499108,0.0024429,-0.0076183,0.848111,0.00605959,0.0410141,1511,1674,5.70349,-14.3614
294,-650,5.73193,14.1372,-0.0030542,-0.0032362,0.00415131,0.00100711,-0.00729751,0.77444,0.00523311,0.0355726,1518,1674,5.73198,-14.1371
301,-650,5.52319,13.9463,-0.00272224,-0.00410472,0.0033212,-2.11063e-05,-0.00680585,0.682798,0.00453022,0.031365,1525,1674,5.52319,-13.9462
308,-650,5.45239,13.9443,-0.00203856,-0.00440472,0.00238686,-0.00055766,-0.00588562,0.555312,0.0037517,0.019157,1532,1674,5.45234,-13.9443
315,-650,5.47095,13.9225,-0.0012912,-0.00448205,0.00164168,-0.000597412,-0.00517584,0.399844,0.00326966,0.0109684,1539,1674,5.47099,-13.9225
322,-650,5.49304,13.8065,-0.00060266,-0.00418413,0.00103033,-0.000327406,-0.00445938,0.261055,0.00287002,0.00991136,1546,1674,5.4931,-13.8065
329,-650,5.49829,13.6464,4.22125e-05,-0.00371296,0.000501286,0.000107978,-0.00377872,0.13045,0.0025559,0.0163768,1553,1674,5.49829,-13.6464
336,-650,5.47949,13.5612,0.000382606,-0.00344455,0.000115559,0.000386092,-0.00344804,0.0301578,0.00243761,0.0144097,1560,1674,5.47955,-13.5611
343,-650,5.49475,13.4562,0.000671115,-0.00300775,-0.000128366,0.000675588,-0.00301222,-0.0348364,0.00226715,0.0129947,1567,1674,5.49481,-13.4562
350,-650,5.51648,13.3157,0.00109008,-0.00252959,-0.000163276,0.00109743,-0.00253694,-0.0449861,0.00215247,0.015845,1574,1674,5.51645,-13.3156
357,-650,5.5199,13.1866,0.00128393,-0.00195518,-0.000153752,0.00129121,-0.00196246,-0.0473257,0.00189179,0.0133125,1581,1674,5.51992,-13.1866
364,-650,5.52686,13.0649,0.00123829,-0.00156912,-0.000198762,0.00125229,-0.00158312,-0.0703318,0.00164073,0.00909306,1588,1674,5.52687,-13.0649
371,-650,5.52844,12.9436,0.00131238,-0.00120015,-0.00046339,0.00139512,-0.00128289,-0.17669,0.0015466,0.0109353,1595,1674,5.52847,-12.9435
378,-650,5.52856,12.8014,0.00127138,-0.00110934,-0.000377677,0.00132986,-0.00116782,-0.153617,0.00144305,0.0116324,1602,1674,5.52862,-12.8014
385,-650,5.51453,12.6538,0.000971982,-0.00100493,-0.000384043,0.00104397,-0.00107692,-0.185289,0.00122454,0.0130274,1609,1674,5.51457,-12.6538
392,-650,5.51624,12.5179,0.000310602,-0.000551627,-0.000464466,0.000513198,-0.000754223,-0.41131,0.000736143,0.0168823,1616,1674,5.5162,-12.5179
399,-650,5.52307,12.3818,-0.000204191,-0.000191434,-0.000509676,0.000311903,-0.000707529,-0.791655,0.000603163,0.0157251,1623,1674,5.52304,-12.3818
406,-650,5.52161,12.2451,-0.000797233,4.31833e-05,-0.000594429,0.000350932,-0.00110498,-1.09307,0.000877347,0.0141589,1630,1674,5.52161,-12.2451
413,-650,5.51807,12.1045,-0.00153935,0.00046236,-0.000744463,0.000708877,-0.00178586,-1.25103,0.0014844,0.0151358,1637,1674,5.51802,-12.1044
420,-650,5.49841,11.9619,-0.00236532,0.00106015,-0.000843043,0.00125639,-0.00256156,-1.34209,0.00224682,0.0152838,1644,1674,5.49836,-11.9619
427,-650,5.51123,11.8159,-0.00330426,0.00158476,-0.000840575,0.00172525,-0.00344475,-1.4052,0.00303943,0.0140846,1651,1674,5.51128,-11.8159
434,-650,5.52039,11.6517,-0.00592365,0.00255754,-0.00128394,0.00274765,-0.00611376,-1.4238,0.00523773,0.0175772,1658,1674,5.52041,-11.6517
441,-650,5.52319,11.4253,-0.00974956,0.00366306,-0.00213329,0.00399418,-0.0100807,-1.41681,0.00837557,0.0276946,1665,1674,5.52318,-11.4252
448,-650,5.26575,11.33,-0.0148441,0.00415307,-0.00290277,0.00458671,-0.0152778,-1.4225,0.0120097,0.0434152,1672,1674,5.26574,-11.33
455,-650,5.43555,11.4443,-0.0200476,0.00681165,-0.00315253,0.0071767,-0.0204127,-1.45551,0.0165285,0.0446921,1679,1674,5.43559,-11.4443
462,-650,5.46289,11.0292,-0.0262987,0.00874694,-0.00414805,0.00923122,-0.026783,-1.45457,0.0216002,0.0443205,1686,1674,5.46287,-11.0292
469,-650,5.36145,10.6869,0,0,0,0,0,0,0,-1,1693,1674,5.36145,-10.6869
476,-650,8.45557,11.245,0,0,0,0,0,0,0,-1,1700,1674,8.45555,-11.245
483,-650,7.68372,10.6058,-0.0495822,0.0169843,-0.00700145,0.0177128,-0.0503106,-1.46713,0.0407488,0.0455855,1707,1674,7.68373,-10.6058
490,-650,6.78699,10.0588,-0.0573153,0.0207915,-0.00765033,0.0215337,-0.0580576,-1.47407,0.0475375,0.0435363,1714,1674,6.78705,-10.0588
497,-650,6.05872,9.46143,-0.0646139,0.0251942,-0.00789237,0.0258825,-0.0653022,-1.4838,0.0542606,0.0410023,1721,1674,6.05868,-9.46139
504,-650,5.51282,8.92017,-0.0715895,0.0326876,-0.0069498,0.0331487,-0.0720506,-1.50454,0.0621057,0.0448357,1728,1674,5.51277,-8.92012
511,-650,4.96912,8.36682,0,0,0,0,0,0,0,-1,1735,1674,4.96913,-8.36678
518,-650,0,0,0,0,0,0,0,0,0,-1,1742,1674,0,0
525,-650,0,0,0,0,0,0,0,0,0,-1,1749,1674,0,0
532,-650,0,0,0,0,0,0,0,0,0,-1,1756,1674,0,0
539,-650,0,0,0,0,0,0,0,0,0,-1,1763,1674,0,0
546,-650,0,0,0,0,0,0,0,0,0,-1,1770,1674,0,0
553,-650,0,0,0,0,0,0,0,0,0,-1,1777,1674,0,0
560,-650,0,0,0,0,0,0,0,0,0,-1,1784,1674,0,0
567,-650,0,0,0,0,0,0,0,0,0,-1,1791,1674,0,0
574,-650,0,0,0,0,0,0,0,0,0,-1,1798,1674,0,0
581,-650,0,0,0,0,0,0,0,0,0,-1,1805,1674,0,0
588,-650,0,0,0,0,0,0,0,0,0,-1,1812,1674,0,0
595,-650,0,0,0,0,0,0,0,0,0,-1,1819,1674,0,0
602,-650,0,0,0,0,0,0,0,0,0,-1,1826,1674,0,0
609,-650,0,0,0,0,0,0,0,0,0,-1,1833,1674,0,0
616,-650,0,0,0,0,0,0,0,0,0,-1,1840,1674,0,0
623,-650,0,0,0,0,0,0,0,0,0,-1,1847,1674,0,0
630,-650,0,0,0,0,0,0,0,0,0,-1,1854,1674,0,0
637,-650,0,0,0,0,0,0,0,0,0,-1,1861,1674,0,0
644,-650,0,0,0,0,0,0,0,0,0,-1,1868,1674,0,0
651,-650,0,0,0,0,0,0,0,0,0,-1,1875,1674,0,0
658,-650,0,0,0,0,0,0,0,0,0,-1,1882,1674,0,0
665,-650,0,0,0,0,0,0,0,0,0,-1,1889,1674,0,0
672,-650,0,0,0,0,0,0,0,0,0,-1,1896,1674,0,0
679,-650,0,0,0,0,0,0,0,0,0,-1,1903,1674,0,0
686,-650,0,0,0,0,0,0,0,0,0,-1,1910,1674,0,0
693,-650,0,0,0,0,0,0,0,0,0,-1,1917,1674,0,0
700,-650,0,0,0,0,0,0,0,0,0,-1,1924,1674,0,0
707,-650,0,0,0,0,0,0,0,0,0,-1,1931,1674,0,0
714,-650,0,0,0,0,0,0,0,0,0,-1,1938,1674,0,0
721,-650,0,0,0,0,0,0,0,0,0,-1,1945,1674,0,0
728,-650,0,0,0,0,0,0,0,0,0,-1,1952,1674,0,0
735,-650,0,0,0,0,0,0,0,0,0,-1,1959,1674,0,0
742,-650,0,0,0,0,0,0,0,0,0,-1,1966,1674,0,0
749,-650,0,0,0,0,0,0,0,0,0,-1,1973,1674,0,0
756,-650,0,0,0,0,0,0,0,0,0,-1,1980,1674,0,0
763,-650,0,0,0,0,0,0,0,0,0,-1,1987,1674,0,0
770,-650,0,0,0,0,0,0,0,0,0,-1,1994,1674,0,0
777,-650,0,0,0,0,0,0,0,0,0,-1,2001,1674,0,0
784,-650,0,0,0,0,0,0,0,0,0,-1,2008,1674,0,0
791,-650,0,0,0,0,0,0,0,0,0,-1,2015,1674,0,0
798,-650,0,0,0,0,0,0,0,0,0,-1,2022,1674,0,0
805,-650,0,0,0,0,0,0,0,0,0,-1,2029,1674,0,0
812,-650,0,0,0,0,0,0,0,0,0,-1,2036,1674,0,0
-700,-657,0,0,0,0,0,0,0,0,0,-1,524,1681,0,0
-693,-657,0,0,0,0,0,0,0,0,0,-1,531,1681,0,0
-686,-657,0,0,0,0,0,0,0,0,0,-1,538,1681,0,0
-679,-657,0,0,0,0,0,0,0,0,0,-1,545,1681,0,0
-672,-657,0,0,0,0,0,0,0,0,0,-1,552,1681,0,0
-665,-657,0,0,0,0,0,0,0,0,0,-1,559,1681,0,0
-658,-657,0,0,0,0,0,0,0,0,0,-1,566,1681,0,0
-651,-657,0,0,0,0,0,0,0,0,0,-1,573,1681,0,0
-644,-657,0,0,0,0,0,0,0,0,0,-1,580,1681,0,0
-637,-657,0,0,0,0,0,0,0,0,0,-1,587,1681,0,0
-630,-657,0,0,0,0,0,0,0,0,0,-1,594,1681,0,0
-623,-657,0,0,0,0,0,0,0,0,0,-1,601,1681,0,0
-616,-657,0,0,0,0,0,0,0,0,0,-1,608,1681,0,0
-609,-657,0,0,0,0,0,0,0,0,0,-1,615,1681,0,0
-602,-657,0,0,0,0,0,0,0,0,0,-1,622,1681,0,0
-595,-657,0,0,0,0,0,0,0,0,0,-1,629,1681,0,0
-588,-657,0,0,0,0,0,0,0,0,0,-1,636,1681,0,0
-581,-657,0,0,0,0,0,0,0,0,0,-1,643,1681,0,0
-574,-657,0,0,0,0,0,0,0,0,0,-1,650,1681,0,0
-567,-657,0,0,0,0,0,0,0,0,0,-1,657,1681,0,0
-560,-657,0,0,0,0,0,0,0,0,0,-1,664,1681,0,0
-553,-657,0,0,0,0,0,0,0,0,0,-1,671,1681,0,0
-546,-657,0,0,0,0,0,0,0,0,0,-1,678,1681,0,0
-539,-657,0,0,0,0,0,0,0,0,0,-1,685,1681,0,0
-532,-657,0,0,0,0,0,0,0,0,0,-1,692,1681,0,0
-525,-657,0,0,0,0,0,0,0,0,0,-1,699,1681,0,0
-518,-657,0,0,0,0,0,0,0,0,0,-1,706,1681,0,0
-511,-657,0,0,0,0,0,0,0,0,0,-1,713,1681,0,0
-504,-657,0,0,0,0,0,0,0,0,0,-1,720,1681,0,0
-497,-657,0,0,0,0,0,0,0,0,0,-1,727,1681,0,0
-490,-657,0,0,0,0,0,0,0,0,0,-1,734,1681,0,0
-483,-657,0,0,0,0,0,0,0,0,0,-1,741,1681,0,0
-476,-657,0,0,0,0,0,0,0,0,0,-1,748,1681,0,0
-469,-657,0,0,0,0,0,0,0,0,0,-1,755,1681,0,0
-462,-657,0,0,0,0,0,0,0,0,0,-1,762,1681,0,0
-455,-657,0,0,0,0,0,0,0,0,0,-1,769,1681,0,0
-448,-657,0,0,0,0,0,0,0,0,0,-1,776,1681,0,0
-441,-657,0,0,0,0,0,0,0,0,0,-1,783,1681,0,0
-434,-657,0,0,0,0,0,0,0,0,0,-1,790,1681,0,0
-427,-657,0,0,0,0,0,0,0,0,0,-1,797,1681,0,0
-420,-657,0,0,0,0,0,0,0,0,0,-1,804,1681,0,0
-413,-657,0,0,0,0,0,0,0,0,0,-1,811,1681,0,0
-406,-657,0,0,0,0,0,0,0,0,0,-1,818,1681,0,0
-399,-657,0,0,0,0,0,0,0,0,0,-1,825,1681,0,0
-392,-657,0,0,0,0,0,0,0,0,0,-1,832,1681,0,0
-385,-657,1.09814,6.18896,0,0,0,0,0,0,0,-1,839,1681,1.09814,-6.18894
-378,-657,0.31488,4.46753,0,0,0,0,0,0,0,-1,846,1681,0.31487,-4.46755
-371,-657,-0.519043,2.69421,0,0,0,0,0,0,0,-1,853,1681,-0.519064,-2.69422
-364,-657,-3.42017,4.18323,0,0,0,0,0,0,0,-1,860,1681,-3.42019,-4.18319
-357,-657,-4.41913,2.97168,0,0,0,0,0,0,0,-1,867,1681,-4.41913,-2.97165
-350,-657,-5.42291,1.70276,0,0,0,0,0,0,0,-1,874,1681,-5.42291,-1.70277
-343,-657,-6.51294,0.397339,0,0,0,0,0,0,0,-1,881,1681,-6.51295,-0.397335
-336,-657,1.59839,8.61292,0,0,0,0,0,0,0,-1,888,1681,1.59837,-8.61291
-329,-657,1.91443,9.00159,0,0,0,0,0,0,0,-1,895,1681,1.91442,-9.00157
-322,-657,3.22864,9.94312,0,0,0,0,0,0,0,-1,902,1681,3.22865,-9.94318
-315,-657,3.54993,10.3521,-0.0108184,-0.00463078,-0.0104565,0.00317997,-0.0186292,-0.929233,0.0136039,0.0398313,909,1681,3.54994,-10.352
-308,-657,3.58026,10.5946,-0.0102795,-0.00215773,-0.00967263,0.00427187,-0.0167091,-0.984142,0.0128032,0.0346801,916,1681,3.58027,-10.5946
-301,-657,3.38098,10.6316,-0.00975619,-9.90625e-05,-0.00878922,0.00510061,-0.0149559,-1.03658,0.0120366,0.0279724,923,1681,3.38099,-10.6316
-294,-657,3.36969,10.8223,-0.00911044,0.00174425,-0.00782058,0.00583623,-0.0132024,-1.08874,0.0112629,0.0156726,930,1681,3.36968,-10.8223
-287,-657,3.36835,10.9698,-0.0083215,0.00312279,-0.006846,0.00632313,-0.0115218,-1.13351,0.0104475,0.0109457,937,1681,3.36833,-10.9698
-280,-657,3.36218,11.1228,-0.00740973,0.00385553,-0.00602498,0.00647074,-0.0100249,-1.16128,0.00959719,0.0126982,944,1681,3.36217,-11.1228
-273,-657,3.36932,11.3142,-0.00632433,0.00421549,-0.005269,0.00639771,-0.00850655,-1.17814,0.00863365,0.00978811,951,1681,3.36933,-11.3142
-266,-657,3.35144,11.4932,-0.00520153,0.00427415,-0.00462103,0.00615455,-0.00708193,-1.18434,0.00764833,0.014693,958,1681,3.35145,-11.4932
-259,-657,3.35327,11.6525,-0.00418013,0.00415473,-0.0039603,0.00573634,-0.00576173,-1.19084,0.00663842,0.019133,965,1681,3.35329,-11.6524
-252,-657,3.34583,11.8164,-0.00316364,0.0036861,-0.00340923,0.00509368,-0.00457122,-1.17924,0.00558275,0.0133607,972,1681,3.34583,-11.8165
-245,-657,3.36542,11.9875,-0.00242535,0.00290633,-0.00295994,0.00422395,-0.00374297,-1.15198,0.0046025,0.015252,979,1681,3.36544,-11.9876
-238,-657,3.38489,12.1169,-0.00188689,0.00206413,-0.00249943,0.0032745,-0.00309726,-1.11982,0.00367921,0.0192944,986,1681,3.38488,-12.117
-231,-657,3.37964,12.2787,-0.000980957,0.000860588,-0.00219206,0.00231741,-0.00243778,-0.984233,0.0027457,0.0203273,993,1681,3.37965,-12.2787
-224,-657,3.36267,12.447,-0.000258935,-7.3431e-05,-0.00155261,0.0013892,-0.00172156,-0.815232,0.00179941,0.0165331,1000,1681,3.36267,-12.447
-217,-657,3.36719,12.5745,0.000247977,-0.000868553,-0.000837173,0.000695952,-0.00131653,-0.491335,0.00118018,0.0102016,1007,1681,3.3672,-12.5745
-210,-657,3.37732,12.7118,0.000401564,-0.00143382,0.000131948,0.000411001,-0.00144325,0.0714021,0.00112449,0.0103392,1014,1681,3.37733,-12.7118
-203,-657,3.38904,12.8682,0.000158934,-0.00183556,0.00126905,0.000775687,-0.00245231,0.452381,0.00194568,0.0128073,1021,1681,3.38902,-12.8681
-196,-657,3.39441,12.9955,0.000204992,-0.00234526,0.00236598,0.00161758,-0.00375784,0.538241,0.00318445,0.0140644,1028,1681,3.39447,-12.9955
-189,-657,3.39087,13.1311,0.00014625,-0.00303643,0.00362645,0.00251515,-0.00540533,0.578641,0.00467327,0.0105184,1035,1681,3.39085,-13.1311
-182,-657,3.3855,13.2679,-2.62007e-05,-0.00322205,0.00493981,0.00356771,-0.00681595,0.628971,0.006092,0.00808852,1042,1681,3.3855,-13.2679
-175,-657,3.39844,13.4028,-0.000214924,-0.00325458,0.00604921,0.00450246,-0.00797196,0.662324,0.00729437,0.00962023,1049,1681,3.39849,-13.4028
-168,-657,3.38916,13.5251,-0.000432543,-0.00353629,0.00707062,0.00525451,-0.00922334,0.67737,0.00846283,0.0108484,1056,1681,3.38911,-13.5251
-161,-657,3.39124,13.6294,-0.00047755,-0.00377785,0.00787264,0.00591602,-0.0101714,0.682091,0.00939578,0.0111293,1063,1681,3.39119,-13.6294
-154,-657,3.41675,13.7578,-0.000364927,-0.00413816,0.00849808,0.00645343,-0.0109565,0.676167,0.0101631,0.0118894,1070,1681,3.41671,-13.7579
-147,-657,3.43201,13.835,-0.000298625,-0.00446921,0.00876601,0.00662671,-0.0113945,0.668627,0.0105253,0.0161919,1077,1681,3.43197,-13.8349
-140,-657,3.41382,13.8748,0.000629483,-0.00503314,0.00878921,0.00703216,-0.0114358,0.629579,0.0107631,0.0267394,1084,1681,3.41383,-13.8747
-133,-657,3.42029,13.979,0.00248442,-0.00610666,0.00891669,0.0080863,-0.0117085,0.560931,0.0114922,0.0352925,1091,1681,3.42024,-13.979
-126,-657,3.49902,14.1194,0.00374985,-0.00672877,0.00864518,0.00861942,-0.0115983,0.512974,0.0117149,0.0381461,1098,1681,3.49897,-14.1193
-119,-657,3.68567,14.2775,0.00575941,-0.00800712,0.00772808,0.00922518,-0.0114729,0.421576,0.0119735,0.0470854,1105,1681,3.68562,-14.2774
-112,-657,3.87817,14.3777,0.00866281,-0.00977875,0.00708861,0.0110726,-0.0121886,0.327701,0.013435,0.0488717,1112,1681,3.87813,-14.3776
-105,-657,3.82434,14.4906,0,0,0,0,0,0,0,-1,1119,1681,3.8244,-14.4906
-98,-657,3.78662,8.16785,0,0,0,0,0,0,0,-1,1126,1681,3.78663,-8.16786
-91,-657,4.10852,12.7341,0,0,0,0,0,0,0,-1,1133,1681,4.10852,-12.7342
-84,-657,4.08008,10.4579,0,0,0,0,0,0,0,-1,1140,1681,4.08006,-10.4579
-77,-657,-5.29846,0.396606,0,0,0,0,0,0,0,-1,1147,1681,-5.29842,-0.396573
-70,-657,-4.14893,2.14575,0,0,0,0,0,0,0,-1,1154,1681,-4.14893,-2.1458
-63,-657,-4.1239,3.177,0,0,0,0,0,0,0,-1,1161,1681,-4.12391,-3.17698
-56,-657,-6.40576,5.73987,0,0,0,0,0,0,0,-1,1168,1681,-6.40577,-5.7399
-49,-657,-5.98462,7.54053,0,0,0,0,0,0,0,-1,1175,1681,-5.98466,-7.5405
-42,-657,-5.71948,9.28955,0,0,0,0,0,0,0,-1,1182,1681,-5.71951,-9.2895
-35,-657,-5.44556,11.015,0,0,0,0,0,0,0,-1,1189,1681,-5.44555,-11.015
-28,-657,-1.3446,8.92847,0,0,0,0,0,0,0,-1,1196,1681,-1.34459,-8.92848
-21,-657,3.13403,16.1849,0,0,0,0,0,0,0,-1,1203,1681,3.13405,-16.1849
-14,-657,3.25488,15.4159,-0.013069,0.00764205,-0.0836816,0.0816064,-0.0870334,-0.84696,0.0973811,0.0482754,1210,1681,3.25493,-15.416
-7,-657,3.37036,14.6843,-0.0105359,0.00806809,-0.0844927,0.0837693,-0.0862371,-0.840223,0.0981566,0.0480098,1217,1681,3.37042,-14.6843
0,-657,3.51135,13.8973,-0.0085562,0.00903246,-0.0839337,0.0846313,-0.084155,-0.837596,0.0974489,0.0463032,1224,1681,3.51132,-13.8973
7,-657,3.64697,13.098,-0.00748541,0.0107381,-0.0819154,0.084047,-0.0807943,-0.840787,0.0951773,0.045309,1231,1681,3.647,-13.098
14,-657,3.90149,12.1786,-0.00817615,0.012263,-0.0767362,0.0794572,-0.0753703,-0.851598,0.0894001,0.0407478,1238,1681,3.90147,-12.1786
21,-657,4.30054,11.1375,-0.00968562,0.0145801,-0.0688808,0.0723884,-0.0674939,-0.872576,0.0807776,0.04246,1245,1681,4.30053,-11.1375
28,-657,6.46265,15.0088,0,0,0,0,0,0,0,-1,1252,1681,6.46267,-15.0088
35,-657,6.11865,13.944,0,0,0,0,0,0,0,-1,1259,1681,6.11869,-13.944
42,-657,5.6145,13.1133,-0.015921,0.0181896,-0.039743,0.0443823,-0.0421137,-0.988085,0.0499442,0.0467539,1266,1681,5.61445,-13.1132
49,-657,5.1084,12.3101,-0.0182868,0.0190385,-0.0297369,0.0354839,-0.0347322,-1.06563,0.0405401,0.0481165,1273,1681,5.10838,-12.3101
56,-657,4.62378,11.4952,0,0,0,0,0,0,0,-1,1280,1681,4.62375,-11.4952
63,-657,4.09338,10.6536,0,0,0,0,0,0,0,-1,1287,1681,4.09337,-10.6535
70,-657,4.63379,15.3468,0,0,0,0,0,0,0,-1,1294,1681,4.63378,-15.3469
77,-657,4.21094,15.9851,-0.0254325,0.0193771,0.00647252,0.0202933,-0.0263487,1.43018,0.0270043,0.0432947,1301,1681,4.21092,-15.9852
84,-657,3.87732,16.444,-0.0255421,0.0190359,0.0100822,0.0212101,-0.0277163,1.3584,0.0283308,0.0460928,1308,1681,3.87735,-16.444
91,-657,3.61682,16.7096,-0.0283291,0.0184461,0.011097,0.0209453,-0.0308283,1.34928,0.0300725,0.0470192,1315,1681,3.61687,-16.7096
98,-657,3.42224,16.9672,0,0,0,0,0,0,0,-1,1322,1681,3.42226,-16.9672
105,-657,3.78223,16.9338,0,0,0,0,0,0,0,-1,1329,1681,3.78229,-16.9339
112,-657,3.22949,13.816,0,0,0,0,0,0,0,-1,1336,1681,3.2295,-13.816
119,-657,3.3877,15.0298,0,0,0,0,0,0,0,-1,1343,1681,3.38772,-15.0298
126,-657,4.22473,16.5466,0,0,0,0,0,0,0,-1,1350,1681,4.22471,-16.5467
133,-657,5.07544,17.8218,0,0,0,0,0,0,0,-1,1357,1681,5.07546,-17.8218
140,-657,5.79663,19.0833,0,0,0,0,0,0,0,-1,1364,1681,5.79658,-19.0832
147,-657,20.8457,-3.61353,0,0,0,0,0,0,0,-1,1371,1681,20.8457,3.61349
154,-657,12.2501,7.70422,0,0,0,0,0,0,0,-1,1378,1681,12.2501,-7.70418
161,-657,12.8524,6.43372,0,0,0,0,0,0,0,-1,1385,1681,12.8524,-6.43366
168,-657,5.21643,0.70105,0,0,0,0,0,0,0,-1,1392,1681,5.21648,-0.7011
175,-657,5.52771,0.649048,0,0,0,0,0,0,0,-1,1399,1681,5.52774,-0.649019
182,-657,5.73999,1.02612,0,0,0,0,0,0,0,-1,1406,1681,5.73995,-1.02611
189,-657,5.92126,1.44116,0,0,0,0,0,0,0,-1,1413,1681,5.92126,-1.44115
196,-657,4.92834,9.59021,0,0,0,0,0,0,0,-1,1420,1681,4.9284,-9.59018
203,-657,6.26343,5.16492,0,0,0,0,0,0,0,-1,1427,1681,6.26345,-5.16488
210,-657,3.9856,5.28088,0,0,0,0,0,0,0,-1,1434,1681,3.98555,-5.28084
217,-657,3.95178,5.2843,0,0,0,0,0,0,0,-1,1441,1681,3.95174,-5.28431
224,-657,6.66736,-0.250244,0,0,0,0,0,0,0,-1,1448,1681,6.66737,0.250229
231,-657,6.85498,-1.70752,0,0,0,0,0,0,0,-1,1455,1681,6.855,1.70758
238,-657,5.34143,-2.89819,0,0,0,0,0,0,0,-1,1462,1681,5.34143,2.89813
245,-657,8.66003,-0.102783,0,0,0,0,0,0,0,-1,1469,1681,8.66,0.102824
252,-657,4.78955,0.623779,0,0,0,0,0,0,0,-1,1476,1681,4.7895,-0.623826
259,-657,2.61523,4.31909,0,0,0,0,0,0,0,-1,1483,1681,2.61523,-4.31908
266,-657,5.35437,11.4742,0,0,0,0,0,0,0,-1,1490,1681,5.35441,-11.4742
273,-657,5.36853,14.0704,0,0,0,0,0,0,0,-1,1497,1681,5.36853,-14.0704
280,-657,5.28271,14.1311,-0.00192278,-0.00104077,0.00474562,0.00328429,-0.00624784,0.83173,0.00559133,0.0349102,1504,1681,5.28269,-14.1311
287,-657,5.33582,14.2151,-0.00198669,-0.00176523,0.00408366,0.0022092,-0.00596112,0.798953,0.00488011,0.0278783,1511,1681,5.33586,-14.2151
294,-657,5.37244,14.1886,-0.001898,-0.00244099,0.00344244,0.00128363,-0.00562262,0.746046,0.00424154,0.0223211,1518,1681,5.37239,-14.1885
301,-657,5.34729,14.1195,-0.00171094,-0.00298256,0.00278054,0.000505559,-0.00519906,0.672998,0.00364626,0.0155121,1525,1681,5.34727,-14.1195
308,-657,5.3396,14.0184,-0.00131046,-0.00315418,0.00204596,1.17372e-05,-0.00447638,0.573733,0.00298817,0.0118739,1532,1681,5.33957,-14.0184
315,-657,5.34265,13.9243,-0.000845935,-0.00318729,0.0014344,-0.000165129,-0.00386809,0.443145,0.00252549,0.0109071,1539,1681,5.34261,-13.9243
322,-657,5.36536,13.7968,-0.000389276,-0.0029542,0.000917823,-9.46812e-05,-0.00324879,0.310584,0.002135,0.0135959,1546,1681,5.36533,-13.7968
329,-657,5.38257,13.6475,9.21722e-05,-0.00259294,0.000479511,0.000175235,-0.002676,0.171521,0.00184519,0.0202965,1553,1681,5.38256,-13.6475
336,-657,5.37012,13.545,0.000382836,-0.00239995,0.000182022,0.000394691,-0.00241181,0.0650407,0.0017543,0.01755,1560,1681,5.37011,-13.5451
343,-657,5.39819,13.4463,0.000715369,-0.00201365,-4.13493e-05,0.000715995,-0.00201428,-0.0151471,0.00163465,0.0128375,1567,1681,5.3982,-13.4463
350,-657,5.4043,13.3096,0.00115392,-0.0016392,-9.97424e-05,0.00115748,-0.00164276,-0.0356494,0.00162479,0.0146975,1574,1681,5.40435,-13.3096
357,-657,5.39233,13.1777,0.00144268,-0.00118778,-7.68291e-05,0.00144492,-0.00119002,-0.0291744,0.00152365,0.0141501,1581,1681,5.39239,-13.1778
364,-657,5.39783,13.0702,0.00158339,-0.000917179,-9.69108e-05,0.00158714,-0.000920929,-0.0386781,0.00146497,0.0105145,1588,1681,5.39779,-13.0701
371,-657,5.39966,12.9529,0.00179336,-0.00071071,-0.000299083,0.00182859,-0.000745936,-0.117242,0.00152958,0.0145485,1595,1681,5.3997,-12.9529
378,-657,5.38879,12.7999,0.0019173,-0.000675565,-0.000280601,0.00194732,-0.000705584,-0.106576,0.0015866,0.0135943,1602,1681,5.38879,-12.7999
385,-657,5.37134,12.6526,0.00166972,-0.000621375,-0.000361231,0.00172533,-0.000676979,-0.152733,0.00143032,0.0118053,1609,1681,5.37133,-12.6525
392,-657,5.36658,12.5291,0.000888166,-0.000110571,-0.000488415,0.00108731,-0.000309714,-0.387155,0.000847196,0.0128591,1616,1681,5.36659,-12.5291
399,-657,5.38391,12.3856,0.000261018,0.00023662,-0.000546337,0.000795292,-0.000297653,-0.774236,0.000652451,0.0126773,1623,1681,5.3839,-12.3857
406,-657,5.39172,12.2384,-0.000555594,0.000432058,-0.000656353,0.000759611,-0.000883147,-1.10791,0.00094934,0.0136961,1630,1681,5.39177,-12.2384
413,-657,5.38525,12.0908,-0.00162226,0.000868435,-0.000885115,0.00115094,-0.00190476,-1.26185,0.00178201,0.0137624,1637,1681,5.38524,-12.0908
420,-657,5.38171,11.9133,-0.00293374,0.00153745,-0.00103634,0.00176597,-0.00316226,-1.35376,0.00288313,0.0149099,1644,1681,5.38167,-11.9134
427,-657,5.36646,11.7313,-0.00454976,0.00218244,-0.00109313,0.00235549,-0.00472281,-1.4138,0.00416215,0.0182073,1651,1681,5.36643,-11.7314
434,-657,5.41333,11.579,-0.00848533,0.00356462,-0.00173155,0.0038085,-0.00872921,-1.43087,0.00742216,0.0265012,1658,1681,5.41336,-11.579
441,-657,5.2915,11.3361,-0.0138891,0.00509652,-0.00276291,0.00549042,-0.014283,-1.42918,0.0117864,0.0439837,1665,1681,5.29151,-11.336
448,-657,5.01746,10.1256,0,0,0,0,0,0,0,-1,1672,1681,5.01741,-10.1256
455,-657,5.15625,11.6346,0,0,0,0,0,0,0,-1,1679,1681,5.15627,-11.6347
462,-657,5.32507,11.1017,0,0,0,0,0,0,0,-1,1686,1681,5.32502,-11.1017
469,-657,4.54272,10.2133,0,0,0,0,0,0,0,-1,1693,1681,4.54276,-10.2132
476,-657,8.37659,10.886,0,0,0,0,0,0,0,-1,1700,1681,8.37653,-10.886
483,-657,7.49731,10.4108,-0.0657861,0.0208322,-0.00859456,0.0216768,-0.0666307,-1.47285,0.0531408,0.0468492,1707,1681,7.49731,-10.4108
490,-657,6.62109,9.92737,-0.0750451,0.0245392,-0.00935693,0.0254107,-0.0759166,-1.47792,0.0608756,0.045718,1714,1681,6.62107,-9.92736
497,-657,5.81604,9.67004,-0.0833894,0.0280398,-0.00960971,0.0288624,-0.0842121,-1.4854,0.0678406,0.0446379,1721,1681,5.81602,-9.67
504,-657,0,0,0,0,0,0,0,0,0,-1,1728,1681,0,0
511,-657,0,0,0,0,0,0,0,0,0,-1,1735,1681,0,0
518,-657,0,0,0,0,0,0,0,0,0,-1,1742,1681,0,0
525,-657,0,0,0,0,0,0,0,0,0,-1,1749,1681,0,0
532,-657,0,0,0,0,0,0,0,0,0,-1,1756,1681,0,0
539,-657,0,0,0,0,0,0,0,0,0,-1,1763,1681,0,0
546,-657,0,0,0,0,0,0,0,0,0,-1,1770,1681,0,0
553,-657,0,0,0,0,0,0,0,0,0,-1,1777,1681,0,0
560,-657,0,0,0,0,0,0,0,0,0,-1,1784,1681,0,0
567,-657,0,0,0,0,0,0,0,0,0,-1,1791,1681,0,0
574,-657,0,0,0,0,0,0,0,0,0,-1,1798,1681,0,0
581,-657,0,0,0,0,0,0,0,0,0,-1,1805,1681,0,0
588,-657,0,0,0,0,0,0,0,0,0,-1,1812,1681,0,0
595,-657,0,0,0,0,0,0,0,0,0,-1,1819,1681,0,0
602,-657,0,0,0,0,0,0,0,0,0,-1,1826,1681,0,0
609,-657,0,0,0,0,0,0,0,0,0,-1,1833,1681,0,0
616,-657,0,0,0,0,0,0,0,0,0,-1,1840,1681,0,0
623,-657,0,0,0,0,0,0,0,0,0,-1,1847,1681,0,0
630,-657,0,0,0,0,0,0,0,0,0,-1,1854,1681,0,0
637,-657,0,0,0,0,0,0,0,0,0,-1,1861,1681,0,0
644,-657,0,0,0,0,0,0,0,0,0,-1,1868,1681,0,0
651,-657,0,0,0,0,0,0,0,0,0,-1,1875,1681,0,0
658,-657,0,0,0,0,0,0,0,0,0,-1,1882,1681,0,0
665,-657,0,0,0,0,0,0,0,0,0,-1,1889,1681,0,0
672,-657,0,0,0,0,0,0,0,0,0,-1,1896,1681,0,0
679,-657,0,0,0,0,0,0,0,0,0,-1,1903,1681,0,0
686,-657,0,0,0,0,0,0,0,0,0,-1,1910,1681,0,0
693,-657,0,0,0,0,0,0,0,0,0,-1,1917,1681,0,0
700,-657,0,0,0,0,0,0,0,0,0,-1,1924,1681,0,0
707,-657,0,0,0,0,0,0,0,0,0,-1,1931,1681,0,0
714,-657,0,0,0,0,0,0,0,0,0,-1,1938,1681,0,0
721,-657,0,0,0,0,0,0,0,0,0,-1,1945,1681,0,0
728,-657,0,0,0,0,0,0,0,0,0,-1,1952,1681,0,0
735,-657,0,0,0,0,0,0,0,0,0,-1,1959,1681,0,0
742,-657,0,0,0,0,0,0,0,0,0,-1,1966,1681,0,0
749,-657,0,0,0,0,0,0,0,0,0,-1,1973,1681,0,0
756,-657,0,0,0,0,0,0,0,0,0,-1,1980,1681,0,0
763,-657,0,0,0,0,0,0,0,0,0,-1,1987,1681,0,0
770,-657,0,0,0,0,0,0,0,0,0,-1,1994,1681,0,0
777,-657,0,0,0,0,0,0,0,0,0,-1,2001,1681,0,0
784,-657,0,0,0,0,0,0,0,0,0,-1,2008,1681,0,0
791,-657,0,0,0,0,0,0,0,0,0,-1,2015,1681,0,0
798,-657,0,0,0,0,0,0,0,0,0,-1,2022,1681,0,0
805,-657,0,0,0,0,0,0,0,0,0,-1,2029,1681,0,0
812,-657,0,0,0,0,0,0,0,0,0,-1,2036,1681,0,0
-700,-664,0,0,0,0,0,0,0,0,0,-1,524,1688,0,0
-693,-664,0,0,0,0,0,0,0,0,0,-1,531,1688,0,0
-686,-664,0,0,0,0,0,0,0,0,0,-1,538,1688,0,0
-679,-664,0,0,0,0,0,0,0,0,0,-1,545,1688,0,0
-672,-664,0,0,0,0,0,0,0,0,0,-1,552,1688,0,0
-665,-664,0,0,0,0,0,0,0,0,0,-1,559,1688,0,0
-658,-664,0,0,0,0,0,0,0,0,0,-1,566,1688,0,0
-651,-664,0,0,0,0,0,0,0,0,0,-1,573,1688,0,0
-644,-664,0,0,0,0,0,0,0,0,0,-1,580,1688,0,0
-637,-664,0,0,0,0,0,0,0,0,0,-1,587,1688,0,0
-630,-664,0,0,0,0,0,0,0,0,0,-1,594,1688,0,0
-623,-664,0,0,0,0,0,0,0,0,0,-1,601,1688,0,0
-616,-664,0,0,0,0,0,0,0,0,0,-1,608,1688,0,0
-609,-664,0,0,0,0,0,0,0,0,0,-1,615,1688,0,0
-602,-664,0,0,0,0,0,0,0,0,0,-1,622,1688,0,0
-595,-664,0,0,0,0,0,0,0,0,0,-1,629,1688,0,0
-588,-664,0,0,0,0,0,0,0,0,0,-1,636,1688,0,0
-581,-664,0,0,0,0,0,0,0,0,0,-1,643,1688,0,0
-574,-664,0,0,0,0,0,0,0,0,0,-1,650,1688,0,0
-567,-664,0,0,0,0,0,0,0,0,0,-1,657,1688,0,0
-560,-664,0,0,0,0,0,0,0,0,0,-1,664,1688,0,0
-553,-664,0,0,0,0,0,0,0,0,0,-1,671,1688,0,0
-546,-664,0,0,0,0,0,0,0,0,0,-1,678,1688,0,0
-539,-664,0,0,0,0,0,0,0,0,0,-1,685,1688,0,0
-532,-664,0,0,0,0,0,0,0,0,0,-1,692,1688,0,0
-525,-664,0,0,0,0,0,0,0,0,0,-1,699,1688,0,0
-518,-664,0,0,0,0,0,0,0,0,0,-1,706,1688,0,0
-511,-664,0,0,0,0,0,0,0,0,0,-1,713,1688,0,0
-504,-664,0,0,0,0,0,0,0,0,0,-1,720,1688,0,0
-497,-664,0,0,0,0,0,0,0,0,0,-1,727,1688,0,0
-490,-664,0,0,0,0,0,0,0,0,0,-1,734,1688,0,0
-483,-664,0,0,0,0,0,0,0,0,0,-1,741,1688,0,0
-476,-664,0,0,0,0,0,0,0,0,0,-1,748,1688,0,0
-469,-664,0,0,0,0,0,0,0,0,0,-1,755,1688,0,0
-462,-664,0,0,0,0,0,0,0,0,0,-1,762,1688,0,0
-455,-664,0,0,0,0,0,0,0,0,0,-1,769,1688,0,0
-448,-664,0,0,0,0,0,0,0,0,0,-1,776,1688,0,0
-441,-664,0,0,0,0,0,0,0,0,0,-1,783,1688,0,0
-434,-664,0,0,0,0,0,0,0,0,0,-1,790,1688,0,0
-427,-664,0,0,0,0,0,0,0,0,0,-1,797,1688,0,0
-420,-664,0,0,0,0,0,0,0,0,0,-1,804,1688,0,0
-413,-664,0,0,0,0,0,0,0,0,0,-1,811,1688,0,0
-406,-664,0,0,0,0,0,0,0,0,0,-1,818,1688,0,0
-399,-664,0,0,0,0,0,0,0,0,0,-1,825,1688,0,0
-392,-664,0,0,0,0,0,0,0,0,0,-1,832,1688,0,0
-385,-664,0,0,0,0,0,0,0,0,0,-1,839,1688,0,0
-378,-664,0,0,0,0,0,0,0,0,0,-1,846,1688,0,0
-371,-664,-1.61676,5.92737,0,0,0,0,0,0,0,-1,853,1688,-1.61675,-5.92735
-364,-664,-3.901,5.87024,0,0,0,0,0,0,0,-1,860,1688,-3.90097,-5.87027
-357,-664,-4.81012,4.53479,0,0,0,0,0,0,0,-1,867,1688,-4.81012,-4.5348
-350,-664,-5.7193,3.19934,0,0,0,0,0,0,0,-1,874,1688,-5.71927,-3.19932
-343,-664,-6.37476,1.54712,0,0,0,0,0,0,0,-1,881,1688,-6.37479,-1.54714
-336,-664,0.953247,8.1344,0,0,0,0,0,0,0,-1,888,1688,0.953252,-8.13446
-329,-664,1.27203,8.25891,0,0,0,0,0,0,0,-1,895,1688,1.27204,-8.25897
-322,-664,4.11304,10.441,0,0,0,0,0,0,0,-1,902,1688,4.11301,-10.4411
-315,-664,4.00238,10.5667,-0.015483,-0.0050228,-0.0140884,0.00477496,-0.0252808,-0.963131,0.0186504,0.0482945,909,1688,4.0024,-10.5666
-308,-664,3.8158,10.6473,-0.0148415,-0.0019287,-0.0129741,0.00610675,-0.0228769,-1.01628,0.0176428,0.0473566,916,1688,3.81577,-10.6473
-301,-664,3.65369,10.6626,-0.014121,0.000769008,-0.0117444,0.00722935,-0.0205813,-1.06789,0.0166619,0.0461412,923,1688,3.65371,-10.6626
-294,-664,3.72028,10.8378,-0.0132244,0.00322679,-0.0104498,0.00830005,-0.0182977,-1.11883,0.0157136,0.0407993,930,1688,3.72025,-10.8378
-287,-664,3.65186,10.9989,-0.0121203,0.00511018,-0.00918149,0.0090855,-0.0160956,-1.16219,0.0147249,0.0284353,937,1688,3.65185,-10.9988
-280,-664,3.53143,11.1543,-0.0107911,0.00612521,-0.00813662,0.00940354,-0.0140695,-1.18778,0.0136411,0.0188552,944,1688,3.53146,-11.1544
-273,-664,3.5293,11.3013,-0.0092819,0.00667306,-0.00718541,0.00943198,-0.0120408,-1.20419,0.0124278,0.0152236,951,1688,3.52931,-11.3012
-266,-664,3.5224,11.4678,-0.00773842,0.00683848,-0.00636872,0.00922898,-0.0101289,-1.21172,0.0111803,0.0219469,958,1688,3.52238,-11.4677
-259,-664,3.51831,11.6472,-0.00630592,0.00677088,-0.00554042,0.0088026,-0.00833764,-1.21932,0.00989713,0.0198866,965,1688,3.5183,-11.6472
-252,-664,3.5271,11.8236,-0.00502546,0.00624243,-0.00484475,0.00803902,-0.00682206,-1.21568,0.00858964,0.0167413,972,1688,3.52711,-11.8236
-245,-664,3.51147,12.0275,-0.0040057,0.00538571,-0.00419799,0.00698864,-0.00560863,-1.20605,0.00728757,0.0201338,979,1688,3.51149,-12.0275
-238,-664,3.54126,12.1439,-0.00306669,0.00439786,-0.00346375,0.00575748,-0.00442631,-1.19675,0.00589634,0.0229734,986,1688,3.54126,-12.1439
-231,-664,3.54456,12.2344,-0.0018298,0.00308051,-0.00294779,0.00446165,-0.00321095,-1.13263,0.00444936,0.0196339,993,1688,3.54454,-12.2344
-224,-664,3.52466,12.4347,-0.00083056,0.00194588,-0.00222171,0.00317743,-0.0020621,-1.06464,0.00304781,0.0141204,1000,1688,3.52464,-12.4347
-217,-664,3.52057,12.5778,-9.34291e-05,0.000914819,-0.001504,0.00199694,-0.00117555,-0.947108,0.00185199,0.010715,1007,1688,3.52059,-12.5777
-210,-664,3.53357,12.7085,0.000259491,0.000126795,-0.000567051,0.000764062,-0.000377776,-0.72716,0.000671698,0.0114383,1014,1688,3.53355,-12.7086
-203,-664,3.52759,12.863,0.000351589,-0.000516923,0.000513839,0.000590095,-0.000755429,0.434571,0.000778791,0.0139864,1021,1688,3.52761,-12.863
-196,-664,3.52417,12.9907,0.000662731,-0.00122905,0.00151945,0.00150665,-0.00207297,0.50699,0.0020753,0.0143023,1028,1688,3.52416,-12.9908
-189,-664,3.52112,13.1367,0.000880879,-0.00201251,0.0025691,0.0023826,-0.00351423,0.52897,0.00342537,0.00977006,1035,1688,3.52106,-13.1368
-182,-664,3.51379,13.2706,0.000930693,-0.00233485,0.00357347,0.00322674,-0.0046309,0.571103,0.0045607,0.0092775,1042,1688,3.51384,-13.2707
-175,-664,3.53027,13.3706,0.00093293,-0.00251044,0.00436949,0.0039077,-0.0054852,0.597726,0.00544843,0.0124376,1049,1688,3.53026,-13.3706
-168,-664,3.52917,13.4918,0.000898503,-0.00282931,0.0050683,0.00443477,-0.00636558,0.609195,0.00626871,0.0133469,1056,1688,3.52916,-13.4918
-161,-664,3.5282,13.626,0.000955169,-0.00311852,0.00556943,0.00484853,-0.00701188,0.610094,0.00688547,0.00972895,1063,1688,3.52815,-13.626
-154,-664,3.54541,13.7412,0.00114233,-0.00350769,0.00591843,0.00517605,-0.00754141,0.598238,0.00738464,0.00937411,1070,1688,3.54546,-13.7412
-147,-664,3.54944,13.8418,0.00125805,-0.00383324,0.00599354,0.00522415,-0.00779933,0.584577,0.00756795,0.00961584,1077,1688,3.54949,-13.8418
-140,-664,3.57336,13.9373,0.00190711,-0.00437345,0.00586801,0.00542228,-0.00788862,0.539712,0.00772889,0.0101564,1084,1688,3.57342,-13.9373
-133,-664,3.5957,14.0458,0.00320703,-0.00525947,0.00586168,0.00620425,-0.00825669,0.472666,0.00837701,0.0118595,1091,1688,3.59568,-14.0458
-126,-664,3.66858,14.1584,0.00435827,-0.00590651,0.0057447,0.00692932,-0.00847756,0.420816,0.00891013,0.0202307,1098,1688,3.66856,-14.1584
-119,-664,3.75623,14.1871,0.00604566,-0.00698982,0.00521573,0.00787566,-0.00881982,0.337442,0.00964428,0.03504,1105,1688,3.75628,-14.1872
-112,-664,3.84241,14.3011,0.00826519,-0.00845133,0.00490835,0.00959983,-0.00978597,0.265494,0.0111926,0.0440605,1112,1688,3.84245,-14.3012
-105,-664,4.44946,13.7993,0,0,0,0,0,0,0,-1,1119,1688,4.44945,-13.7993
-98,-664,4.15271,13.0096,0,0,0,0,0,0,0,-1,1126,1688,4.15273,-13.0097
-91,-664,3.98413,13.5607,0,0,0,0,0,0,0,-1,1133,1688,3.98413,-13.5607
-84,-664,4.21753,13.5697,0,0,0,0,0,0,0,-1,1140,1688,4.21747,-13.5698
-77,-664,4.52014,11.2122,0,0,0,0,0,0,0,-1,1147,1688,4.5202,-11.2122
-70,-664,4.20374,8.24524,0,0,0,0,0,0,0,-1,1154,1688,4.20379,-8.24519
-63,-664,-4.677,2.40503,0,0,0,0,0,0,0,-1,1161,1688,-4.67702,-2.40498
-56,-664,-4.66504,3.32727,0,0,0,0,0,0,0,-1,1168,1688,-4.6651,-3.32724
-49,-664,-2.54297,3.31848,0,0,0,0,0,0,0,-1,1175,1688,-2.54297,-3.31852
-42,-664,-0.359253,4.38684,0,0,0,0,0,0,0,-1,1182,1688,-0.359261,-4.38685
-35,-664,-0.705566,3.55017,0,0,0,0,0,0,0,-1,1189,1688,-0.705567,-3.55023
-28,-664,-1.54236,10.2538,0,0,0,0,0,0,0,-1,1196,1688,-1.54236,-10.2538
-21,-664,3.36133,16.2308,0,0,0,0,0,0,0,-1,1203,1688,3.36128,-16.2308
-14,-664,3.47998,15.4935,-0.00750551,0.00499678,-0.0685412,0.0675713,-0.0700801,-0.830874,0.0794775,0.0457278,1210,1688,3.48,-15.4935
-7,-664,3.61609,14.7168,-0.00603446,0.00449235,-0.0687484,0.0681785,-0.0697206,-0.823604,0.0796178,0.0463007,1217,1688,3.61613,-14.7168
0,-664,3.66028,14.6821,0,0,0,0,0,0,0,-1,1224,1688,3.66025,-14.6821
7,-664,3.89563,13.1616,0,0,0,0,0,0,0,-1,1231,1688,3.89568,-13.1616
14,-664,4.03137,12.351,0,0,0,0,0,0,0,-1,1238,1688,4.03132,-12.3509
21,-664,5.79736,14.8589,0,0,0,0,0,0,0,-1,1245,1688,5.79732,-14.8589
28,-664,5.76904,15.1089,0,0,0,0,0,0,0,-1,1252,1688,5.76907,-15.1089
35,-664,5.51453,14.9813,0,0,0,0,0,0,0,-1,1259,1688,5.51452,-14.9813
42,-664,4.78149,13.4967,-0.0134683,0.00954016,-0.0314231,0.0314988,-0.0354269,-0.960874,0.0386617,0.0443211,1266,1688,4.78155,-13.4967
49,-664,4.30676,12.6664,-0.0156427,0.0103043,-0.0233374,0.0240319,-0.0293702,-1.03908,0.030883,0.0417741,1273,1688,4.3068,-12.6664
56,-664,3.96582,11.7179,0,0,0,0,0,0,0,-1,1280,1688,3.96584,-11.7179
63,-664,4.73474,14.9381,0,0,0,0,0,0,0,-1,1287,1688,4.73474,-14.9381
70,-664,4.58154,15.356,-0.0212045,0.0116257,0.000156757,0.0116264,-0.0212052,1.56602,0.0192224,0.0457325,1294,1688,4.58159,-15.3559
77,-664,4.39136,15.791,-0.0218805,0.011656,0.00557738,0.0125592,-0.0227838,1.41024,0.020688,0.044071,1301,1688,4.39142,-15.791
84,-664,4.20056,16.285,-0.0218446,0.0119054,0.00834456,0.0138559,-0.0237951,1.34118,0.0219888,0.0475617,1308,1688,4.20061,-16.2851
91,-664,4.75281,15.9221,0,0,0,0,0,0,0,-1,1315,1688,4.75279,-15.9222
98,-664,4.67358,15.6455,0,0,0,0,0,0,0,-1,1322,1688,4.67356,-15.6456
105,-664,4.66772,15.4077,0,0,0,0,0,0,0,-1,1329,1688,4.66777,-15.4077
112,-664,3.79785,13.6522,0,0,0,0,0,0,0,-1,1336,1688,3.79786,-13.6522
119,-664,4.32397,14.6675,0,0,0,0,0,0,0,-1,1343,1688,4.32402,-14.6675
126,-664,4.80432,15.6969,0,0,0,0,0,0,0,-1,1350,1688,4.80427,-15.6969
133,-664,5.69531,17.209,0,0,0,0,0,0,0,-1,1357,1688,5.69535,-17.209
140,-664,5.38379,16.6382,0,0,0,0,0,0,0,-1,1364,1688,5.38374,-16.6381
147,-664,4.88281,14.3827,0,0,0,0,0,0,0,-1,1371,1688,4.88285,-14.3827
154,-664,13.5482,5.89453,0,0,0,0,0,0,0,-1,1378,1688,13.5482,-5.8945
161,-664,4.60132,1.56238,0,0,0,0,0,0,0,-1,1385,1688,4.60134,-1.56233
168,-664,5.172,1.25488,0,0,0,0,0,0,0,-1,1392,1688,5.17203,-1.25484
175,-664,5.58313,1.16467,0,0,0,0,0,0,0,-1,1399,1688,5.58317,-1.16466
182,-664,5.74268,1.41113,0,0,0,0,0,0,0,-1,1406,1688,5.74263,-1.41115
189,-664,5.87744,1.87061,0,0,0,0,0,0,0,-1,1413,1688,5.87745,-1.87065
196,-664,6.7594,5.97473,0,0,0,0,0,0,0,-1,1420,1688,6.75943,-5.97478
203,-664,5.38452,5.22034,0,0,0,0,0,0,0,-1,1427,1688,5.38453,-5.2203
210,-664,5.25549,6.45715,0,0,0,0,0,0,0,-1,1434,1688,5.25549,-6.45721
217,-664,5.72009,6.73975,0,0,0,0,0,0,0,-1,1441,1688,5.72014,-6.73972
224,-664,5.05725,7.42908,0,0,0,0,0,0,0,-1,1448,1688,5.05723,-7.42912
231,-664,5.13318,7.60864,0,0,0,0,0,0,0,-1,1455,1688,5.13313,-7.60862
238,-664,4.23193,6.45471,0,0,0,0,0,0,0,-1,1462,1688,4.23197,-6.45476
245,-664,4.42004,6.80896,0,0,0,0,0,0,0,-1,1469,1688,4.4201,-6.80901
252,-664,3.67346,6.85461,0,0,0,0,0,0,0,-1,1476,1688,3.6734,-6.85462
259,-664,4.55823,11.7435,0,0,0,0,0,0,0,-1,1483,1688,4.55826,-11.7435
266,-664,5.31885,14.4066,0,0,0,0,0,0,0,-1,1490,1688,5.31883,-14.4066
273,-664,5.31079,14.4049,-0.00089495,-0.00119612,0.004104,0.00306123,-0.00515229,0.76706,0.00479303,0.0324655,1497,1688,5.31078,-14.4049
280,-664,5.18628,14.3728,-0.00107805,-0.00142209,0.00365253,0.0024065,-0.00490665,0.761868,0.00430371,0.0223354,1504,1688,5.18631,-14.3727
287,-664,5.14478,14.292,-0.00116528,-0.00168147,0.00319165,0.00177869,-0.00462544,0.745053,0.00381725,0.0181924,1511,1688,5.14483,-14.2919
294,-664,5.20679,14.2117,-0.00113214,-0.0019497,0.00271897,0.00120861,-0.00429045,0.710786,0.00333694,0.0132677,1518,1688,5.20679,-14.2117
301,-664,5.22656,14.1145,-0.00104185,-0.00218247,0.00220798,0.000668285,-0.00389261,0.659013,0.00284413,0.00966319,1525,1688,5.22653,-14.1145
308,-664,5.24158,14.0231,-0.000809906,-0.0021773,0.00164737,0.000290005,-0.00327721,0.588703,0.00228761,0.010391,1532,1688,5.2416,-14.0231
315,-664,5.24475,13.9146,-0.000499657,-0.00210306,0.00118266,0.000127417,-0.00273014,0.487534,0.00186402,0.0115658,1539,1688,5.24472,-13.9146
322,-664,5.26758,13.8109,-0.000140342,-0.00182174,0.000820936,0.000193995,-0.00215608,0.386753,0.00150622,0.0151799,1546,1688,5.26761,-13.811
329,-664,5.27344,13.7012,0.000316619,-0.00149651,0.00056826,0.000479997,-0.00165989,0.279956,0.00129656,0.0175452,1553,1688,5.27346,-13.7012
336,-664,5.25977,13.5557,0.000644556,-0.00130311,0.000434064,0.000736913,-0.00139547,0.209648,0.00125055,0.0148134,1560,1688,5.25979,-13.5557
343,-664,5.27112,13.4386,0.00107098,-0.000944872,0.000357623,0.00113255,-0.00100644,0.170477,0.00123566,0.0111784,1567,1688,5.27111,-13.4386
350,-664,5.28479,13.3192,0.00158542,-0.000645211,0.00041801,0.00166118,-0.000720971,0.179294,0.00141059,0.0128088,1574,1688,5.28485,-13.3193
357,-664,5.27429,13.1842,0.00201507,-0.000304546,0.000582337,0.00215306,-0.000442533,0.232662,0.00160337,0.0126619,1581,1688,5.27428,-13.1843
364,-664,5.26941,13.0635,0.00237042,-0.000156877,0.000703847,0.00255322,-0.000339675,0.254099,0.00182593,0.0104277,1588,1688,5.26935,-13.0635
371,-664,5.2887,12.9427,0.00275978,-0.000137377,0.00066164,0.00290373,-0.000281327,0.214227,0.00203609,0.0131833,1595,1688,5.28874,-12.9428
378,-664,5.27576,12.7969,0.00307919,-0.000211712,0.000718123,0.00322907,-0.000361591,0.205756,0.00228281,0.0127532,1602,1688,5.27576,-12.7969
385,-664,5.25122,12.6624,0.00289038,-0.000249418,0.000625116,0.00301026,-0.000369297,0.189472,0.00214059,0.0131551,1609,1688,5.25127,-12.6624
392,-664,5.23083,12.5341,0.0019899,0.000274432,0.000457837,0.00210445,0.000159889,0.24515,0.00135282,0.015573,1616,1688,5.23078,-12.5341
399,-664,5.23206,12.3859,0.00123937,0.000560425,0.000352217,0.00138908,0.000410716,0.401911,0.000824003,0.0124698,1623,1688,5.23201,-12.3858
406,-664,5.26318,12.2307,0.000158571,0.000710346,0.00014586,0.00074653,0.000122386,1.32763,0.000462323,0.0119888,1630,1688,5.26319,-12.2307
413,-664,5.28552,12.0613,-0.00130892,0.00114881,-0.000277147,0.00117967,-0.00133978,-1.45989,0.00145559,0.0124355,1637,1688,5.28548,-12.0613
420,-664,5.31836,11.865,-0.00329351,0.00184803,-0.000681163,0.00193674,-0.00338222,-1.44129,0.00310847,0.025588,1644,1688,5.31833,-11.865
427,-664,5.25793,11.6616,-0.00596349,0.00269865,-0.00109486,0.0028349,-0.00609974,-1.44699,0.00527196,0.0421926,1651,1688,5.25796,-11.6616
434,-664,5.24268,11.4132,-0.0117974,0.00481048,-0.00231963,0.00512838,-0.0121153,-1.4346,0.0102244,0.0436512,1658,1688,5.24274,-11.4131
441,-664,4.85986,11.3334,-0.0191846,0.00701366,-0.0036115,0.00750239,-0.0196734,-1.43629,0.016206,0.0473857,1665,1688,4.8599,-11.3334
448,-664,4.25879,10.9374,0,0,0,0,0,0,0,-1,1672,1688,4.25879,-10.9374
455,-664,3.96155,10.3864,0,0,0,0,0,0,0,-1,1679,1688,3.96156,-10.3864
462,-664,4.3147,4.25439,0,0,0,0,0,0,0,-1,1686,1688,4.31467,-4.25435
469,-664,6.05469,7.49341,0,0,0,0,0,0,0,-1,1693,1688,6.05474,-7.49339
476,-664,5.20984,9.48767,0,0,0,0,0,0,0,-1,1700,1688,5.20978,-9.48762
483,-664,7.26074,10.3311,0,0,0,0,0,0,0,-1,1707,1688,7.26072,-10.331
490,-664,6.41125,9.83118,0,0,0,0,0,0,0,-1,1714,1688,6.41128,-9.83116
497,-664,0,0,0,0,0,0,0,0,0,-1,1721,1688,0,0
504,-664,0,0,0,0,0,0,0,0,0,-1,1728,1688,0,0
511,-664,0,0,0,0,0,0,0,0,0,-1,1735,1688,0,0
518,-664,0,0,0,0,0,0,0,0,0,-1,1742,1688,0,0
525,-664,0,0,0,0,0,0,0,0,0,-1,1749,1688,0,0
532,-664,0,0,0,0,0,0,0,0,0,-1,1756,1688,0,0
539,-664,0,0,0,0,0,0,0,0,0,-1,1763,1688,0,0
546,-664,0,0,0,0,0,0,0,0,0,-1,1770,1688,0,0
553,-664,0,0,0,0,0,0,0,0,0,-1,1777,1688,0,0
560,-664,0,0,0,0,0,0,0,0,0,-1,1784,1688,0,0
567,-664,0,0,0,0,0,0,0,0,0,-1,1791,1688,0,0
574,-664,0,0,0,0,0,0,0,0,0,-1,1798,1688,0,0
581,-664,0,0,0,0,0,0,0,0,0,-1,1805,1688,0,0
588,-664,0,0,0,0,0,0,0,0,0,-1,1812,1688,0,0
595,-664,0,0,0,0,0,0,0,0,0,-1,1819,1688,0,0
602,-664,0,0,0,0,0,0,0,0,0,-1,1826,1688,0,0
609,-664,0,0,0,0,0,0,0,0,0,-1,1833,1688,0,0
616,-664,0,0,0,0,0,0,0,0,0,-1,1840,1688,0,0
623,-664,0,0,0,0,0,0,0,0,0,-1,1847,1688,0,0
630,-664,0,0,0,0,0,0,0,0,0,-1,1854,1688,0,0
637,-664,0,0,0,0,0,0,0,0,0,-1,1861,1688,0,0
644,-664,0,0,0,0,0,0,0,0,0,-1,1868,1688,0,0
651,-664,0,0,0,0,0,0,0,0,0,-1,1875,1688,0,0
658,-664,0,0,0,0,0,0,0,0,0,-1,1882,1688,0,0
665,-664,0,0,0,0,0,0,0,0,0,-1,1889,1688,0,0
672,-664,0,0,0,0,0,0,0,0,0,-1,1896,1688,0,0
679,-664,0,0,0,0,0,0,0,0,0,-1,1903,1688,0,0
686,-664,0,0,0,0,0,0,0,0,0,-1,1910,1688,0,0
693,-664,0,0,0,0,0,0,0,0,0,-1,1917,1688,0,0
700,-664,0,0,0,0,0,0,0,0,0,-1,1924,1688,0,0
707,-664,0,0,0,0,0,0,0,0,0,-1,1931,1688,0,0
714,-664,0,0,0,0,0,0,0,0,0,-1,1938,1688,0,0
721,-664,0,0,0,0,0,0,0,0,0,-1,1945,1688,0,0
728,-664,0,0,0,0,0,0,0,0,0,-1,1952,1688,0,0
735,-664,0,0,0,0,0,0,0,0,0,-1,1959,1688,0,0
742,-664,0,0,0,0,0,0,0,0,0,-1,1966,1688,0,0
749,-664,0,0,0,0,0,0,0,0,0,-1,1973,1688,0,0
756,-664,0,0,0,0,0,0,0,0,0,-1,1980,1688,0,0
763,-664,0,0,0,0,0,0,0,0,0,-1,1987,1688,0,0
770,-664,0,0,0,0,0,0,0,0,0,-1,1994,1688,0,0
777,-664,0,0,0,0,0,0,0,0,0,-1,2001,1688,0,0
784,-664,0,0,0,0,0,0,0,0,0,-1,2008,1688,0,0
791,-664,0,0,0,0,0,0,0,0,0,-1,2015,1688,0,0
798,-664,0,0,0,0,0,0,0,0,0,-1,2022,1688,0,0
805,-664,0,0,0,0,0,0,0,0,0,-1,2029,1688,0,0
812,-664,0,0,0,0,0,0,0,0,0,-1,2036,1688,0,0
-700,-671,0,0,0,0,0,0,0,0,0,-1,524,1695,0,0
-693,-671,0,0,0,0,0,0,0,0,0,-1,531,1695,0,0
-686,-671,0,0,0,0,0,0,0,0,0,-1,538,1695,0,0
-679,-671,0,0,0,0,0,0,0,0,0,-1,545,1695,0,0
-672,-671,0,0,0,0,0,0,0,0,0,-1,552,1695,0,0
-665,-671,0,0,0,0,0,0,0,0,0,-1,559,1695,0,0
-658,-671,0,0,0,0,0,0,0,0,0,-1,566,1695,0,0
-651,-671,0,0,0,0,0,0,0,0,0,-1,573,1695,0,0
-644,-671,0,0,0,0,0,0,0,0,0,-1,580,1695,0,0
-637,-671,0,0,0,0,0,0,0,0,0,-1,587,1695,0,0
-630,-671,0,0,0,0,0,0,0,0,0,-1,594,1695,0,0
-623,-671,0,0,0,0,0,0,0,0,0,-1,601,1695,0,0
-616,-671,0,0,0,0,0,0,0,0,0,-1,608,1695,0,0
-609,-671,0,0,0,0,0,0,0,0,0,-1,615,1695,0,0
-602,-671,0,0,0,0,0,0,0,0,0,-1,622,1695,0,0
-595,-671,0,0,0,0,0,0,0,0,0,-1,629,1695,0,0
-588,-671,0,0,0,0,0,0,0,0,0,-1,636,1695,0,0
-581,-671,0,0,0,0,0,0,0,0,0,-1,643,1695,0,0
-574,-671,0,0,0,0,0,0,0,0,0,-1,650,1695,0,0
-567,-671,0,0,0,0,0,0,0,0,0,-1,657,1695,0,0
-560,-671,0,0,0,0,0,0,0,0,0,-1,664,1695,0,0
-553,-671,0,0,0,0,0,0,0,0,0,-1,671,1695,0,0
-546,-671,0,0,0,0,0,0,0,0,0,-1,678,1695,0,0
-539,-671,0,0,0,0,0,0,0,0,0,-1,685,1695,0,0
-532,-671,0,0,0,0,0,0,0,0,0,-1,692,1695,0,0
-525,-671,0,0,0,0,0,0,0,0,0,-1,699,1695,0,0
-518,-671,0,0,0,0,0,0,0,0,0,-1,706,1695,0,0
-511,-671,0,0,0,0,0,0,0,0,0,-1,713,1695,0,0
-504,-671,0,0,0,0,0,0,0,0,0,-1,720,1695,0,0
-497,-671,0,0,0,0,0,0,0,0,0,-1,727,1695,0,0
-490,-671,0,0,0,0,0,0,0,0,0,-1,734,1695,0,0
-483,-671,0,0,0,0,0,0,0,0,0,-1,741,1695,0,0
-476,-671,0,0,0,0,0,0,0,0,0,-1,748,1695,0,0
-469,-671,0,0,0,0,0,0,0,0,0,-1,755,1695,0,0
-462,-671,0,0,0,0,0,0,0,0,0,-1,762,1695,0,0
-455,-671,0,0,0,0,0,0,0,0,0,-1,769,1695,0,0
-448,-671,0,0,0,0,0,0,0,0,0,-1,776,1695,0,0
-441,-671,0,0,0,0,0,0,0,0,0,-1,783,1695,0,0
-434,-671,0,0,0,0,0,0,0,0,0,-1,790,1695,0,0
-427,-671,0,0,0,0,0,0,0,0,0,-1,797,1695,0,0
-420,-671,0,0,0,0,0,0,0,0,0,-1,804,1695,0,0
-413,-671,0,0,0,0,0,0,0,0,0,-1,811,1695,0,0
-406,-671,0,0,0,0,0,0,0,0,0,-1,818,1695,0,0
-399,-671,0,0,0,0,0,0,0,0,0,-1,825,1695,0,0
-392,-671,0,0,0,0,0,0,0,0,0,-1,832,1695,0,0
-385,-671,0,0,0,0,0,0,0,0,0,-1,839,1695,0,0
-378,-671,0,0,0,0,0,0,0,0,0,-1,846,1695,0,0
-371,-671,0,0,0,0,0,0,0,0,0,-1,853,1695,0,0
-364,-671,-4.18738,7.51416,0,0,0,0,0,0,0,-1,860,1695,-4.18739,-7.51419
-357,-671,-5.02393,6.07129,0,0,0,0,0,0,0,-1,867,1695,-5.0239,-6.07135
-350,-671,-5.72333,4.58386,0,0,0,0,0,0,0,-1,874,1695,-5.72333,-4.58386
-343,-671,-6.4884,3.11353,0,0,0,0,0,0,0,-1,881,1695,-6.48839,-3.11349
-336,-671,-7.30127,1.64417,0,0,0,0,0,0,0,-1,888,1695,-7.30127,-1.64414
-329,-671,0.728577,7.83838,0,0,0,0,0,0,0,-1,895,1695,0.728555,-7.83838
-322,-671,0.492554,7.73096,0,0,0,0,0,0,0,-1,902,1695,0.492547,-7.73099
-315,-671,4.25104,10.5753,0,0,0,0,0,0,0,-1,909,1695,4.25106,-10.5753
-308,-671,4.23364,10.7429,-0.0210536,-0.00107791,-0.0168563,0.00852745,-0.0306589,-1.05285,0.0237966,0.0497945,916,1695,4.23361,-10.743
-301,-671,4.13159,10.7609,-0.0200902,0.00237115,-0.0152213,0.0100565,-0.0277756,-1.10323,0.0226268,0.0482001,923,1695,4.13159,-10.7609
-294,-671,4.63971,11.0708,-0.0188328,0.00553952,-0.0135517,0.0115784,-0.0248716,-1.15159,0.0215059,0.0485935,930,1695,4.63968,-11.0708
-287,-671,4.00073,11.006,-0.0172376,0.00800246,-0.0119513,0.0127634,-0.0219985,-1.1917,0.0203045,0.0454462,937,1695,4.00076,-11.006
-280,-671,3.82562,11.1202,-0.0152801,0.00921303,-0.0107073,0.0132337,-0.0193008,-1.21158,0.0188924,0.037523,944,1695,3.82562,-11.1202
-273,-671,3.75403,11.2744,-0.0131617,0.00982501,-0.00960388,0.0133094,-0.0166461,-1.22276,0.0173305,0.0340913,951,1695,3.75403,-11.2744
-266,-671,3.77374,11.5065,-0.0110204,0.00996489,-0.00864057,0.0130647,-0.0141202,-1.22635,0.0156992,0.0243055,958,1695,3.77373,-11.5065
-259,-671,3.67761,11.6526,-0.00902473,0.00978725,-0.0076597,0.0125115,-0.011749,-1.22908,0.0140091,0.0228603,965,1695,3.6776,-11.6526
-252,-671,3.64697,11.8171,-0.00735091,0.00902904,-0.00681579,0.0114941,-0.00981601,-1.22376,0.0123161,0.0174515,972,1695,3.64696,-11.8171
-245,-671,3.65106,11.9877,-0.00593177,0.00793769,-0.00586748,0.0100869,-0.00808097,-1.21968,0.0105105,0.0197478,979,1695,3.65108,-11.9877
-238,-671,3.67749,12.1471,-0.0045654,0.00670798,-0.00478347,0.00846411,-0.00632153,-1.21895,0.00856632,0.0200419,986,1695,3.67752,-12.1471
-231,-671,3.65808,12.2844,-0.00295449,0.00519894,-0.00396458,0.00680883,-0.00456438,-1.18507,0.00660881,0.0153472,993,1695,3.65809,-12.2844
-224,-671,3.63043,12.4307,-0.001655,0.00380194,-0.00305111,0.00516661,-0.00301968,-1.15021,0.00478023,0.0123998,1000,1695,3.63043,-12.4307
-217,-671,3.6449,12.5691,-0.000719619,0.00250193,-0.00224008,0.00365024,-0.00186793,-1.0971,0.00324084,0.0128,1007,1695,3.64489,-12.569
-210,-671,3.68921,12.7233,-0.000255237,0.0014981,-0.00122438,0.00212731,-0.000884445,-1.09609,0.00178751,0.0119256,1014,1695,3.6892,-12.7233
-203,-671,3.65063,12.8805,7.7562e-05,0.000642042,-8.1163e-05,0.00065348,6.61239e-05,-1.43079,0.00041537,0.0185513,1021,1695,3.65065,-12.8805
-196,-671,3.64941,13.0077,0.000532038,-0.00022704,0.000927372,0.00115453,-0.000849533,0.591165,0.00116151,0.0158152,1028,1695,3.6494,-13.0077
-189,-671,3.66467,13.16,0.000901934,-0.00105333,0.00185537,0.00202148,-0.00217288,0.542923,0.00242214,0.0115389,1035,1695,3.66471,-13.16
-182,-671,3.64978,13.2821,0.00107112,-0.00142471,0.00264082,0.00274403,-0.00309762,0.564675,0.00337473,0.00916441,1042,1695,3.64982,-13.2821
-175,-671,3.65808,13.379,0.00119071,-0.00164619,0.00323958,0.00330877,-0.00376425,0.579046,0.00408643,0.0122312,1049,1695,3.65808,-13.3791
-168,-671,3.65845,13.4816,0.00124164,-0.00199396,0.0036944,0.00365694,-0.00440926,0.579022,0.00466377,0.0135317,1056,1695,3.65846,-13.4816
-161,-671,3.66992,13.6141,0.00133709,-0.00232318,0.00397284,0.00388107,-0.00486716,0.569556,0.00506147,0.00912648,1063,1695,3.66997,-13.6141
-154,-671,3.67432,13.7433,0.00154242,-0.00273003,0.00411824,0.00404552,-0.00523313,0.546141,0.00537164,0.00852974,1070,1695,3.67435,-13.7433
-147,-671,3.68286,13.8689,0.00171233,-0.00304828,0.00407188,0.00404859,-0.00538454,0.520899,0.0054644,0.00985811,1077,1695,3.68282,-13.8689
-140,-671,3.70642,13.9827,0.00223863,-0.00358484,0.00385654,0.00415919,-0.00550541,0.462048,0.00559787,0.0109072,1084,1695,3.70647,-13.9827
-133,-671,3.72327,14.0874,0.00323331,-0.00435064,0.0037976,0.00480797,-0.00592531,0.393069,0.00620804,0.0129424,1091,1695,3.72325,-14.0873
-126,-671,3.73608,14.2021,0.00421021,-0.00497679,0.00377173,0.00556029,-0.00632688,0.343738,0.00686781,0.0149919,1098,1695,3.73605,-14.2021
-119,-671,3.78345,14.281,0.00557256,-0.00586946,0.00350889,0.0065629,-0.0068598,0.275083,0.00775023,0.0268256,1105,1695,3.78341,-14.281
-112,-671,3.78674,14.3849,0.00722052,-0.00705267,0.00340397,0.00799076,-0.00782291,0.222529,0.00913019,0.035807,1112,1695,3.7867,-14.3848
-105,-671,4.1178,14.3153,0.00918664,-0.00803521,0.00353634,0.00988451,-0.00873308,0.19484,0.0107557,0.0425575,1119,1695,4.11774,-14.3153
-98,-671,3.76416,14.3652,0,0,0,0,0,0,0,-1,1126,1695,3.76417,-14.3653
-91,-671,3.89966,14.2673,0.0134416,-0.0102789,0.00486267,0.0143997,-0.011237,0.194548,0.0148389,0.0415109,1133,1695,3.89969,-14.2673
-84,-671,4.21643,14.2192,0.0149195,-0.0105753,0.00557377,0.0160848,-0.0117406,0.2061,0.0161301,0.0488543,1140,1695,4.21643,-14.2193
-77,-671,4.07629,14.3864,0,0,0,0,0,0,0,-1,1147,1695,4.07627,-14.3864
-70,-671,3.06067,10.7737,0,0,0,0,0,0,0,-1,1154,1695,3.0607,-10.7737
-63,-671,2.94592,6.90198,0,0,0,0,0,0,0,-1,1161,1695,2.94594,-6.90198
-56,-671,-3.07678,2.87976,0,0,0,0,0,0,0,-1,1168,1695,-3.07675,-2.87979
-49,-671,-1.05957,4.76917,0,0,0,0,0,0,0,-1,1175,1695,-1.05958,-4.76921
-42,-671,0.539307,3.7865,0,0,0,0,0,0,0,-1,1182,1695,0.539266,-3.78648
-35,-671,-0.272461,0.347534,0,0,0,0,0,0,0,-1,1189,1695,-0.272434,-0.347569
-28,-671,-9.6228,16.5155,0,0,0,0,0,0,0,-1,1196,1695,-9.62279,-16.5155
-21,-671,-2.86926,15.5579,0,0,0,0,0,0,0,-1,1203,1695,-2.86921,-15.5579
-14,-671,3.92859,14.7467,0,0,0,0,0,0,0,-1,1210,1695,3.92863,-14.7467
-7,-671,3.87683,14.8103,-0.00280825,0.00121338,-0.0540132,0.0532532,-0.054848,-0.804004,0.0624145,0.0477153,1217,1695,3.87681,-14.8103
0,-671,3.79529,14.9208,-0.00235584,0.000450178,-0.0531804,0.0522461,-0.0541517,-0.798586,0.0614321,0.0480524,1224,1695,3.79526,-14.9207
7,-671,3.44714,14.5559,0,0,0,0,0,0,0,-1,1231,1695,3.4471,-14.5559
14,-671,5.22656,15.0588,0,0,0,0,0,0,0,-1,1238,1695,5.22651,-15.0588
21,-671,5.13428,15.1166,-0.00505495,0.00111328,-0.0430311,0.0411706,-0.0451123,-0.821173,0.0498328,0.0450611,1245,1695,5.13422,-15.1165
28,-671,5.04578,15.2122,0,0,0,0,0,0,0,-1,1252,1695,5.04579,-15.2122
35,-671,4.5531,14.7809,-0.00876385,0.0025804,-0.0301025,0.0275405,-0.0337239,-0.87852,0.035431,0.0449483,1259,1695,4.55306,-14.7809
42,-671,3.91589,13.9177,-0.0109986,0.00297836,-0.023864,0.0208561,-0.0288763,-0.927839,0.0288372,0.0436686,1266,1695,3.91586,-13.9177
49,-671,3.44629,13.0438,-0.0129245,0.00367271,-0.0174605,0.0147064,-0.0239582,-1.00724,0.022535,0.0430976,1273,1695,3.44628,-13.0438
56,-671,3.00623,12.2087,-0.0143274,0.00414773,-0.0111597,0.00939709,-0.0195767,-1.13112,0.0170687,0.0475912,1280,1695,3.00623,-12.2087
63,-671,2.4563,11.4701,0,0,0,0,0,0,0,-1,1287,1695,2.45626,-11.4701
70,-671,4.65747,15.1263,-0.0175801,0.00538581,0.00079399,0.00541322,-0.0176075,1.53628,0.0138987,0.0452335,1294,1695,4.6575,-15.1263
77,-671,4.4895,15.5568,-0.0181347,0.00567969,0.00491921,0.00665582,-0.0191108,1.37491,0.0154448,0.0457754,1301,1695,4.48952,-15.5568
84,-671,4.72998,15.9855,0,0,0,0,0,0,0,-1,1308,1695,4.73004,-15.9855
91,-671,4.67578,15.8271,-0.0195356,0.00662569,0.00744142,0.00859423,-0.0215042,1.31218,0.0179022,0.047505,1315,1695,4.67573,-15.8272
98,-671,4.60889,15.6047,-0.0175482,0.00892336,0.00665155,0.0105007,-0.0191255,1.33796,0.0173447,0.0471462,1322,1695,4.60895,-15.6048
105,-671,4.67273,15.4186,-0.0159366,0.0112267,0.00588639,0.0124474,-0.0171574,1.36631,0.0171643,0.0470787,1329,1695,4.67272,-15.4186
112,-671,4.79651,15.0034,0,0,0,0,0,0,0,-1,1336,1695,4.79647,-15.0034
119,-671,4.84827,14.8942,0,0,0,0,0,0,0,-1,1343,1695,4.84821,-14.8942
126,-671,5.13281,15.6279,0,0,0,0,0,0,0,-1,1350,1695,5.13287,-15.628
133,-671,5.15015,16.3899,-0.010243,0.0197468,0.00298622,0.0200412,-0.0105375,1.47251,0.0179366,0.0483219,1357,1695,5.15015,-16.3898
140,-671,4.8302,15.8549,0,0,0,0,0,0,0,-1,1364,1695,4.83017,-15.8549
147,-671,5.3147,15.5985,0,0,0,0,0,0,0,-1,1371,1695,5.31471,-15.5985
154,-671,10.4191,12.8273,0,0,0,0,0,0,0,-1,1378,1695,10.419,-12.8273
161,-671,4.49292,4.91272,0,0,0,0,0,0,0,-1,1385,1695,4.49297,-4.91273
168,-671,5.17639,6.1416,0,0,0,0,0,0,0,-1,1392,1695,5.1764,-6.14164
175,-671,5.6731,1.64685,0,0,0,0,0,0,0,-1,1399,1695,5.67313,-1.64691
182,-671,5.56812,1.71692,0,0,0,0,0,0,0,-1,1406,1695,5.56809,-1.71686
189,-671,6.98315,6.36169,0,0,0,0,0,0,0,-1,1413,1695,6.98312,-6.36175
196,-671,5.38123,5.69775,0,0,0,0,0,0,0,-1,1420,1695,5.38125,-5.69769
203,-671,5.95117,8.11658,0,0,0,0,0,0,0,-1,1427,1695,5.9512,-8.11662
210,-671,4.73596,8.39624,0,0,0,0,0,0,0,-1,1434,1695,4.736,-8.39618
217,-671,5.37097,11.863,0,0,0,0,0,0,0,-1,1441,1695,5.37094,-11.863
224,-671,5.08167,13.6694,0,0,0,0,0,0,0,-1,1448,1695,5.08165,-13.6695
231,-671,4.95886,13.5889,0,0,0,0,0,0,0,-1,1455,1695,4.95886,-13.5889
238,-671,5.15808,12.608,0,0,0,0,0,0,0,-1,1462,1695,5.15802,-12.608
245,-671,5.36609,14.093,0,0,0,0,0,0,0,-1,1469,1695,5.36614,-14.0931
252,-671,5.04053,14.4253,0,0,0,0,0,0,0,-1,1476,1695,5.0405,-14.4253
259,-671,5.09766,14.4285,0,0,0,0,0,0,0,-1,1483,1695,5.09767,-14.4285
266,-671,5.09766,14.5314,-0.000158024,-0.00145551,0.00330876,0.00256499,-0.00417852,0.688592,0.00393034,0.0181222,1490,1695,5.09762,-14.5313
273,-671,5.0957,14.5009,-0.000425228,-0.0016377,0.00311103,0.00213808,-0.00420101,0.689171,0.00372392,0.00928267,1497,1695,5.09568,-14.5009
280,-671,5.09631,14.4403,-0.000594531,-0.00151419,0.00278446,0.00176781,-0.00387653,0.703566,0.00333371,0.0093965,1504,1695,5.09629,-14.4403
287,-671,5.10425,14.3157,-0.000672154,-0.00138271,0.00242899,0.0014274,-0.00348227,0.71278,0.00291618,0.0107639,1511,1695,5.10421,-14.3157
294,-671,5.09167,14.1901,-0.000649673,-0.00127813,0.00204485,0.00110495,-0.00303275,0.709161,0.00247382,0.0107065,1518,1695,5.09171,-14.1901
301,-671,5.10632,14.1003,-0.000598011,-0.00118983,0.00162119,0.000754053,-0.0025419,0.695128,0.00199405,0.00969055,1525,1695,5.10631,-14.1004
308,-671,5.12598,14.0184,-0.00044993,-0.000959195,0.00118567,0.000508144,-0.00191727,0.679626,0.00147699,0.0112584,1532,1695,5.12596,-14.0185
315,-671,5.14636,13.9125,-0.000201955,-0.000727151,0.000853069,0.000428019,-0.00135713,0.636087,0.00107618,0.0131915,1539,1695,5.14632,-13.9125
322,-671,5.16736,13.8148,0.000161121,-0.000376287,0.000697835,0.000640197,-0.000855363,0.60162,0.000866436,0.0157181,1546,1695,5.16734,-13.8148
329,-671,5.13538,13.7212,0.00067707,-0.000125093,0.000749544,0.0011261,-0.000574119,0.539732,0.000998714,0.0144992,1553,1695,5.13534,-13.7212
336,-671,5.13623,13.5586,0.0010898,1.08347e-05,0.000871175,0.001575,-0.000474372,0.508168,0.00123878,0.0109832,1560,1695,5.13627,-13.5586
343,-671,5.15649,13.4144,0.00164488,0.000249876,0.00106689,0.00222203,-0.000327282,0.495887,0.00160163,0.0101712,1567,1695,5.15648,-13.4145
350,-671,5.16418,13.3154,0.00226713,0.000379638,0.00140073,0.00301238,-0.000365609,0.488952,0.00214056,0.0103458,1574,1695,5.16414,-13.3154
357,-671,5.15723,13.1716,0.00286384,0.000518797,0.00187447,0.0039023,-0.000519669,0.505912,0.00279093,0.0103372,1581,1695,5.15722,-13.1717
364,-671,5.13977,13.0334,0.00346156,0.000443633,0.00231182,0.0047133,-0.000808105,0.496256,0.00344332,0.0120295,1588,1695,5.13978,-13.0335
371,-671,5.14282,12.9333,0.00406598,0.000202727,0.00259753,0.00537139,-0.00110268,0.465689,0.00399948,0.0137717,1595,1695,5.14286,-12.9333
378,-671,5.14661,12.8002,0.00460976,-5.46897e-05,0.00288433,0.0059868,-0.00143173,0.445421,0.00454426,0.012297,1602,1695,5.1466,-12.8002
385,-671,5.1355,12.6539,0.00452369,-0.00019197,0.00292133,0.00592,-0.00158828,0.445868,0.00456906,0.0140493,1609,1695,5.13547,-12.654
392,-671,5.0863,12.5446,0.00354392,0.000360793,0.00280824,0.00518025,-0.00127554,0.527593,0.00394798,0.0192208,1616,1695,5.08627,-12.5446
399,-671,5.10608,12.3668,0.0027033,0.00063445,0.00271431,0.00457362,-0.00123587,0.603344,0.00353382,0.0142333,1623,1695,5.10606,-12.3668
406,-671,5.15015,12.2334,0.0013692,0.000802138,0.00242326,0.00352546,-0.00135412,0.727161,0.00290872,0.0190311,1630,1695,5.1501,-12.2334
413,-671,5.18054,12.1769,-0.000529585,0.00131961,0.00179145,0.00241099,-0.00162097,1.02363,0.0023427,0.029697,1637,1695,5.18051,-12.1769
420,-671,5.30688,12.0283,-0.00330554,0.0021543,0.00104256,0.0023466,-0.00349785,1.38839,0.00339605,0.0456137,1644,1695,5.30686,-12.0283
427,-671,5.20972,11.6385,0,0,0,0,0,0,0,-1,1651,1695,5.2097,-11.6386
434,-671,4.80603,11.4318,-0.0159046,0.00650269,-0.00310992,0.00692631,-0.0163282,-1.43541,0.0137869,0.0492069,1658,1695,4.80597,-11.4317
441,-671,4.38672,10.8741,-0.0257922,0.0096249,-0.00474033,0.0102484,-0.0264157,-1.44002,0.0218432,0.0492571,1665,1695,4.38677,-10.8742
448,-671,4.01721,10.3641,0,0,0,0,0,0,0,-1,1672,1695,4.01721,-10.3642
455,-671,3.40137,9.28076,0,0,0,0,0,0,0,-1,1679,1695,3.40135,-9.28082
462,-671,5.86255,4.47961,0,0,0,0,0,0,0,-1,1686,1695,5.8625,-4.4796
469,-671,3.71301,3.76978,0,0,0,0,0,0,0,-1,1693,1695,3.71297,-3.76974
476,-671,3.75574,3.18848,0,0,0,0,0,0,0,-1,1700,1695,3.7558,-3.18847
483,-671,3.56714,2.76868,0,0,0,0,0,0,0,-1,1707,1695,3.56713,-2.7687
490,-671,0,0,0,0,0,0,0,0,0,-1,1714,1695,0,0
497,-671,0,0,0,0,0,0,0,0,0,-1,1721,1695,0,0
504,-671,0,0,0,0,0,0,0,0,0,-1,1728,1695,0,0
511,-671,0,0,0,0,0,0,0,0,0,-1,1735,1695,0,0
518,-671,0,0,0,0,0,0,0,0,0,-1,1742,1695,0,0
525,-671,0,0,0,0,0,0,0,0,0,-1,1749,1695,0,0
532,-671,0,0,0,0,0,0,0,0,0,-1,1756,1695,0,0
539,-671,0,0,0,0,0,0,0,0,0,-1,1763,1695,0,0
546,-671,0,0,0,0,0,0,0,0,0,-1,1770,1695,0,0
553,-671,0,0,0,0,0,0,0,0,0,-1,1777,1695,0,0
560,-671,0,0,0,0,0,0,0,0,0,-1,1784,1695,0,0
567,-671,0,0,0,0,0,0,0,0,0,-1,1791,1695,0,0
574,-671,0,0,0,0,0,0,0,0,0,-1,1798,1695,0,0
581,-671,0,0,0,0,0,0,0,0,0,-1,1805,1695,0,0
588,-671,0,0,0,0,0,0,0,0,0,-1,1812,1695,0,0
595,-671,0,0,0,0,0,0,0,0,0,-1,1819,1695,0,0
602,-671,0,0,0,0,0,0,0,0,0,-1,1826,1695,0,0
609,-671,0,0,0,0,0,0,0,0,0,-1,1833,1695,0,0
616,-671,0,0,0,0,0,0,0,0,0,-1,1840,1695,0,0
623,-671,0,0,0,0,0,0,0,0,0,-1,1847,1695,0,0
630,-671,0,0,0,0,0,0,0,0,0,-1,1854,1695,0,0
637,-671,0,0,0,0,0,0,0,0,0,-1,1861,1695,0,0
644,-671,0,0,0,0,0,0,0,0,0,-1,1868,1695,0,0
651,-671,0,0,0,0,0,0,0,0,0,-1,1875,1695,0,0
658,-671,0,0,0,0,0,0,0,0,0,-1,1882,1695,0,0
665,-671,0,0,0,0,0,0,0,0,0,-1,1889,1695,0,0
672,-671,0,0,0,0,0,0,0,0,0,-1,1896,1695,0,0
679,-671,0,0,0,0,0,0,0,0,0,-1,1903,1695,0,0
686,-671,0,0,0,0,0,0,0,0,0,-1,1910,1695,0,0
693,-671,0,0,0,0,0,0,0,0,0,-1,1917,1695,0,0
700,-671,0,0,0,0,0,0,0,0,0,-1,1924,1695,0,0
707,-671,0,0,0,0,0,0,0,0,0,-1,1931,1695,0,0
714,-671,0,0,0,0,0,0,0,0,0,-1,1938,1695,0,0
721,-671,0,0,0,0,0,0,0,0,0,-1,1945,1695,0,0
728,-671,0,0,0,0,0,0,0,0,0,-1,1952,1695,0,0
735,-671,0,0,0,0,0,0,0,0,0,-1,1959,1695,0,0
742,-671,0,0,0,0,0,0,0,0,0,-1,1966,1695,0,0
749,-671,0,0,0,0,0,0,0,0,0,-1,1973,1695,0,0
756,-671,0,0,0,0,0,0,0,0,0,-1,1980,1695,0,0
763,-671,0,0,0,0,0,0,0,0,0,-1,1987,1695,0,0
770,-671,0,0,0,0,0,0,0,0,0,-1,1994,1695,0,0
777,-671,0,0,0,0,0,0,0,0,0,-1,2001,1695,0,0
784,-671,0,0,0,0,0,0,0,0,0,-1,2008,1695,0,0
791,-671,0,0,0,0,0,0,0,0,0,-1,2015,1695,0,0
798,-671,0,0,0,0,0,0,0,0,0,-1,2022,1695,0,0
805,-671,0,0,0,0,0,0,0,0,0,-1,2029,1695,0,0
812,-671,0,0,0,0,0,0,0,0,0,-1,2036,1695,0,0
-700,-678,0,0,0,0,0,0,0,0,0,-1,524,1702,0,0
-693,-678,0,0,0,0,0,0,0,0,0,-1,531,1702,0,0
-686,-678,0,0,0,0,0,0,0,0,0,-1,538,1702,0,0
-679,-678,0,0,0,0,0,0,0,0,0,-1,545,1702,0,0
-672,-678,0,0,0,0,0,0,0,0,0,-1,552,1702,0,0
-665,-678,0,0,0,0,0,0,0,0,0,-1,559,1702,0,0
-658,-678,0,0,0,0,0,0,0,0,0,-1,566,1702,0,0
-651,-678,0,0,0,0,0,0,0,0,0,-1,573,1702,0,0
-644,-678,0,0,0,0,0,0,0,0,0,-1,580,1702,0,0
-637,-678,0,0,0,0,0,0,0,0,0,-1,587,1702,0,0
-630,-678,0,0,0,0,0,0,0,0,0,-1,594,1702,0,0
-623,-678,0,0,0,0,0,0,0,0,0,-1,601,1702,0,0
-616,-678,0,0,0,0,0,0,0,0,0,-1,608,1702,0,0
-609,-678,0,0,0,0,0,0,0,0,0,-1,615,1702,0,0
-602,-678,0,0,0,0,0,0,0,0,0,-1,622,1702,0,0
-595,-678,0,0,0,0,0,0,0,0,0,-1,629,1702,0,0
-588,-678,0,0,0,0,0,0,0,0,0,-1,636,1702,0,0
-581,-678,0,0,0,0,0,0,0,0,0,-1,643,1702,0,0
-574,-678,0,0,0,0,0,0,0,0,0,-1,650,1702,0,0
-567,-678,0,0,0,0,0,0,0,0,0,-1,657,1702,0,0
-560,-678,0,0,0,0,0,0,0,0,0,-1,664,1702,0,0
-553,-678,0,0,0,0,0,0,0,0,0,-1,671,1702,0,0
-546,-678,0,0,0,0,0,0,0,0,0,-1,678,1702,0,0
-539,-678,0,0,0,0,0,0,0,0,0,-1,685,1702,0,0
-532,-678,0,0,0,0,0,0,0,0,0,-1,692,1702,0,0
-525,-678,0,0,0,0,0,0,0,0,0,-1,699,1702,0,0
-518,-678,0,0,0,0,0,0,0,0,0,-1,706,1702,0,0
-511,-678,0,0,0,0,0,0,0,0,0,-1,713,1702,0,0
-504,-678,0,0,0,0,0,0,0,0,0,-1,720,1702,0,0
-497,-678,0,0,0,0,0,0,0,0,0,-1,727,1702,0,0
-490,-678,0,0,0,0,0,0,0,0,0,-1,734,1702,0,0
-483,-678,0,0,0,0,0,0,0,0,0,-1,741,1702,0,0
-476,-678,0,0,0,0,0,0,0,0,0,-1,748,1702,0,0
-469,-678,0,0,0,0,0,0,0,0,0,-1,755,1702,0,0
-462,-678,0,0,0,0,0,0,0,0,0,-1,762,1702,0,0
-455,-678,0,0,0,0,0,0,0,0,0,-1,769,1702,0,0
-448,-678,0,0,0,0,0,0,0,0,0,-1,776,1702,0,0
-441,-678,0,0,0,0,0,0,0,0,0,-1,783,1702,0,0
-434,-678,0,0,0,0,0,0,0,0,0,-1,790,1702,0,0
-427,-678,0,0,0,0,0,0,0,0,0,-1,797,1702,0,0
-420,-678,0,0,0,0,0,0,0,0,0,-1,804,1702,0,0
-413,-678,0,0,0,0,0,0,0,0,0,-1,811,1702,0,0
-406,-678,0,0,0,0,0,0,0,0,0,-1,818,1702,0,0
-399,-678,0,0,0,0,0,0,0,0,0,-1,825,1702,0,0
-392,-678,0,0,0,0,0,0,0,0,0,-1,832,1702,0,0
-385,-678,0,0,0,0,0,0,0,0,0,-1,839,1702,0,0
-378,-678,0,0,0,0,0,0,0,0,0,-1,846,1702,0,0
-371,-678,0,0,0,0,0,0,0,0,0,-1,853,1702,0,0
-364,-678,0,0,0,0,0,0,0,0,0,-1,860,1702,0,0
-357,-678,0,0,0,0,0,0,0,0,0,-1,867,1702,0,0
-350,-678,-5.79944,6.11865,0,0,0,0,0,0,0,-1,874,1702,-5.79942,-6.11864
-343,-678,-6.44891,4.52759,0,0,0,0,0,0,0,-1,881,1702,-6.4489,-4.52758
-336,-678,-6.91888,2.99438,0,0,0,0,0,0,0,-1,888,1702,-6.9189,-2.99435
-329,-678,-7.14575,1.29761,0,0,0,0,0,0,0,-1,895,1702,-7.14577,-1.29755
-322,-678,-7.38513,-0.420044,0,0,0,0,0,0,0,-1,902,1702,-7.38514,0.420091
-315,-678,3.76923,12.7454,0,0,0,0,0,0,0,-1,909,1702,3.76925,-12.7453
-308,-678,4.76239,10.7063,0,0,0,0,0,0,0,-1,916,1702,4.76236,-10.7063
-301,-678,4.35266,10.8108,0,0,0,0,0,0,0,-1,923,1702,4.35265,-10.8108
-294,-678,5.46069,11.126,0,0,0,0,0,0,0,-1,930,1702,5.46066,-11.126
-287,-678,4.33466,10.9895,0,0,0,0,0,0,0,-1,937,1702,4.33468,-10.9895
-280,-678,4.03748,11.1228,-0.0211998,0.0134094,-0.013758,0.0182121,-0.0260024,-1.23494,0.025659,0.0453719,944,1702,4.03748,-11.1228
-273,-678,3.83551,11.1846,-0.0182195,0.013929,-0.0125731,0.0182623,-0.0225528,-1.2389,0.0236079,0.0444729,951,1702,3.83553,-11.1846
-266,-678,3.84125,11.3715,-0.0152681,0.0138739,-0.0115126,0.0178732,-0.0192673,-1.23646,0.0214481,0.0360715,958,1702,3.84123,-11.3715
-259,-678,3.78723,11.6461,-0.0125236,0.013391,-0.0104062,0.0170524,-0.016185,-1.23248,0.0191918,0.022627,965,1702,3.78723,-11.6461
-252,-678,3.77374,11.7733,-0.0103237,0.012192,-0.0094148,0.0156099,-0.0137416,-1.22256,0.0169575,0.0199186,972,1702,3.77375,-11.7733
-245,-678,3.81158,11.9465,-0.00842604,0.0107014,-0.00812184,0.0136848,-0.0114094,-1.21877,0.014508,0.0189562,979,1702,3.81156,-11.9465
-238,-678,3.80426,12.1296,-0.00660756,0.00910384,-0.00666057,0.0115474,-0.00905114,-1.21917,0.0119217,0.0149791,986,1702,3.80427,-12.1297
-231,-678,3.77588,12.3107,-0.00460411,0.00730651,-0.00551313,0.00946663,-0.00676424,-1.19737,0.00941409,0.0128533,993,1702,3.77588,-12.3106
-224,-678,3.76288,12.4314,-0.00301311,0.0055918,-0.00437269,0.0074238,-0.00484511,-1.17405,0.00713542,0.0128,1000,1702,3.76286,-12.4314
-217,-678,3.78223,12.5802,-0.00191928,0.00399925,-0.00341889,0.00556172,-0.00348174,-1.14213,0.00526707,0.0149631,1007,1702,3.78225,-12.5802
-210,-678,3.8067,12.7734,-0.00142707,0.00278689,-0.00226076,0.00377028,-0.00241046,-1.1605,0.00359713,0.0151096,1014,1702,3.80668,-12.7734
-203,-678,3.79565,12.8699,-0.000928815,0.00175294,-0.000966713,0.00206509,-0.00124096,-1.25847,0.00192841,0.0170286,1021,1702,3.79568,-12.8698
-196,-678,3.7804,12.9934,-0.000373,0.000763973,0.000131906,0.000779075,-0.000388102,1.4568,0.000686357,0.0168893,1028,1702,3.78044,-12.9934
-189,-678,3.78198,13.1478,0.000142642,-6.20482e-05,0.0010274,0.00107278,-0.000992184,0.735754,0.00119251,0.00977533,1035,1702,3.78199,-13.1478
-182,-678,3.78467,13.2808,0.000457399,-0.000423682,0.00170622,0.00177903,-0.00174531,0.659059,0.00203481,0.00926228,1042,1702,3.78464,-13.2808
-175,-678,3.77917,13.397,0.000740126,-0.000632948,0.00225937,0.00241496,-0.00230778,0.6379,0.00272691,0.0105041,1049,1702,3.77915,-13.3969
-168,-678,3.78162,13.5175,0.000933722,-0.0010001,0.00262944,0.0027684,-0.00283478,0.60921,0.00323507,0.0101051,1056,1702,3.78166,-13.5175
-161,-678,3.78357,13.6368,0.00111943,-0.00139067,0.00281852,0.0029497,-0.00322094,0.575934,0.00356376,0.00903166,1063,1702,3.78361,-13.6368
-154,-678,3.79211,13.7654,0.001379,-0.00183233,0.00288067,0.00307128,-0.00352461,0.531148,0.00381113,0.00845187,1070,1702,3.7921,-13.7654
-147,-678,3.79883,13.8834,0.00164192,-0.0021611,0.00281838,0.00314027,-0.00365945,0.488633,0.00392963,0.01001,1077,1702,3.79888,-13.8834
-140,-678,3.80615,13.9924,0.00212171,-0.00269844,0.00258126,0.00324312,-0.00381985,0.409841,0.00408233,0.0115893,1084,1702,3.80618,-13.9925
-133,-678,3.83215,14.1001,0.00290925,-0.00340533,0.00251582,0.00378902,-0.0042851,0.336403,0.00466453,0.012774,1091,1702,3.83219,-14.1001
-126,-678,3.83154,14.2087,0.00368443,-0.00399602,0.00251324,0.00443373,-0.00474531,0.289749,0.00530054,0.00945397,1098,1702,3.83158,-14.2087
-119,-678,3.85803,14.3311,0.00472327,-0.00470464,0.00239539,0.00529696,-0.00527834,0.235072,0.00610566,0.0181552,1105,1702,3.85808,-14.3311
-112,-678,3.87024,14.4387,0.00591032,-0.0056344,0.0024022,0.00639021,-0.00611429,0.197178,0.00722006,0.0265874,1112,1702,3.87024,-14.4388
-105,-678,3.8894,14.5144,0.00722179,-0.00631289,0.00257823,0.00769629,-0.00678738,0.182002,0.00836764,0.0273182,1119,1702,3.88944,-14.5144
-98,-678,3.87292,14.5166,0.00894785,-0.00722013,0.00295441,0.0094708,-0.00774308,0.175192,0.00995511,0.0207314,1126,1702,3.87288,-14.5166
-91,-678,3.90161,14.6295,0.00994835,-0.00774545,0.00365901,0.0106752,-0.00847226,0.196084,0.0110791,0.0208007,1133,1702,3.90161,-14.6295
-84,-678,4.0033,14.5637,0.0108592,-0.00778649,0.00418782,0.0117566,-0.00868388,0.211094,0.0118457,0.031295,1140,1702,4.00324,-14.5637
-77,-678,4.03198,14.686,0.0117481,-0.00812367,0.00434906,0.0126583,-0.0090338,0.206294,0.0125821,0.0421926,1147,1702,4.03194,-14.686
-70,-678,4.04175,15.1256,0,0,0,0,0,0,0,-1,1154,1702,4.04171,-15.1256
-63,-678,3.41687,11.0365,0,0,0,0,0,0,0,-1,1161,1702,3.41682,-11.0365
-56,-678,1.72388,6.13159,0,0,0,0,0,0,0,-1,1168,1702,1.72388,-6.13157
-49,-678,-0.241699,5.29895,0,0,0,0,0,0,0,-1,1175,1702,-0.241682,-5.29897
-42,-678,0.297119,3.90649,0,0,0,0,0,0,0,-1,1182,1702,0.297139,-3.90655
-35,-678,0.498413,3.64038,0,0,0,0,0,0,0,-1,1189,1702,0.498471,-3.64038
-28,-678,0.132446,3.55994,0,0,0,0,0,0,0,-1,1196,1702,0.132432,-3.55993
-21,-678,4.01428,15.1757,0,0,0,0,0,0,0,-1,1203,1702,4.01429,-15.1756
-14,-678,4.18396,15.1774,-0.00086556,-0.000413857,-0.0406723,0.0400333,-0.0413127,-0.788175,0.046967,0.0399864,1210,1702,4.184,-15.1774
-7,-678,4.24146,15.1753,-0.000584944,-0.00147389,-0.0406685,0.0396415,-0.0417003,-0.779934,0.0469677,0.0440445,1217,1702,4.24143,-15.1753
0,-678,3.90393,15.1836,-0.00052945,-0.0024913,-0.0399521,0.0384538,-0.0414745,-0.773124,0.0461576,0.0459777,1224,1702,3.90398,-15.1836
7,-678,3.64722,15.0125,-0.000748689,-0.00309693,-0.0386858,0.0367808,-0.0406264,-0.770228,0.0447095,0.0419117,1231,1702,3.64724,-15.0125
14,-678,4.23633,15.103,-0.00180668,-0.00342871,-0.0359768,0.0333682,-0.0386036,-0.774129,0.0415896,0.0442685,1238,1702,4.23634,-15.1031
21,-678,4.60779,15.111,-0.00326171,-0.00305043,-0.0320269,0.028871,-0.0351832,-0.787047,0.0370415,0.0456127,1245,1702,4.60783,-15.1109
28,-678,4.58899,15.1342,0,0,0,0,0,0,0,-1,1252,1702,4.58896,-15.1342
35,-678,4.20483,15.1466,0,0,0,0,0,0,0,-1,1259,1702,4.20482,-15.1466
42,-678,3.77991,14.707,0,0,0,0,0,0,0,-1,1266,1702,3.77989,-14.707
49,-678,2.57703,13.4906,0,0,0,0,0,0,0,-1,1273,1702,2.577,-13.4906
56,-678,2.29077,13.0724,0,0,0,0,0,0,0,-1,1280,1702,2.29074,-13.0724
63,-678,4.74072,15.1068,0,0,0,0,0,0,0,-1,1287,1702,4.7407,-15.1069
70,-678,4.63928,15.1483,0,0,0,0,0,0,0,-1,1294,1702,4.63928,-15.1483
77,-678,4.82434,16.053,0,0,0,0,0,0,0,-1,1301,1702,4.82439,-16.053
84,-678,4.74512,15.8669,0,0,0,0,0,0,0,-1,1308,1702,4.74511,-15.867
91,-678,4.63513,15.6995,-0.0150064,0.00276748,0.00600928,0.0046085,-0.0168474,1.27351,0.0130421,0.0478026,1315,1702,4.63515,-15.6995
98,-678,4.56445,15.5216,-0.0132995,0.00476244,0.00546804,0.00628883,-0.0148259,1.29858,0.0125183,0.0439681,1322,1702,4.56449,-15.5216
105,-678,4.55408,15.3275,-0.0117865,0.00666846,0.00493767,0.00790649,-0.0130245,1.32513,0.0122043,0.0426231,1329,1702,4.55402,-15.3275
112,-678,4.91833,15.5929,0,0,0,0,0,0,0,-1,1336,1702,4.91838,-15.5929
119,-678,5.17371,15.6366,0,0,0,0,0,0,0,-1,1343,1702,5.17368,-15.6365
126,-678,5.01648,15.4491,-0.00708814,0.0112102,0.00338962,0.0118179,-0.00769586,1.39339,0.0113498,0.0459051,1350,1702,5.01652,-15.4491
133,-678,4.74963,15.3442,-0.00623561,0.0126074,0.00350968,0.0132399,-0.00686809,1.3925,0.011802,0.0469428,1357,1702,4.74965,-15.3442
140,-678,5.18286,15.7272,0,0,0,0,0,0,0,-1,1364,1702,5.18291,-15.7271
147,-678,5.23901,15.5936,0,0,0,0,0,0,0,-1,1371,1702,5.23901,-15.5936
154,-678,5.29504,15.4601,0,0,0,0,0,0,0,-1,1378,1702,5.2951,-15.4601
161,-678,3.44202,4.53992,0,0,0,0,0,0,0,-1,1385,1702,3.442,-4.53996
168,-678,4.21863,5.25781,0,0,0,0,0,0,0,-1,1392,1702,4.21865,-5.25781
175,-678,5.21899,5.9635,0,0,0,0,0,0,0,-1,1399,1702,5.21894,-5.96346
182,-678,7.31262,6.75122,0,0,0,0,0,0,0,-1,1406,1702,7.3126,-6.75123
189,-678,5.96021,6.36853,0,0,0,0,0,0,0,-1,1413,1702,5.96018,-6.36851
196,-678,5.01599,8.15771,0,0,0,0,0,0,0,-1,1420,1702,5.01596,-8.15767
203,-678,4.64771,13.0559,0,0,0,0,0,0,0,-1,1427,1702,4.64766,-13.0559
210,-678,5.10901,15.6044,0,0,0,0,0,0,0,-1,1434,1702,5.10895,-15.6044
217,-678,4.99707,15.0844,0,0,0,0,0,0,0,-1,1441,1702,4.99711,-15.0844
224,-678,4.89941,14.9293,0,0,0,0,0,0,0,-1,1448,1702,4.89939,-14.9293
231,-678,4.92834,14.8639,0,0,0,0,0,0,0,-1,1455,1702,4.9284,-14.8639
238,-678,4.99329,14.8715,0,0,0,0,0,0,0,-1,1462,1702,4.99323,-14.8715
245,-678,4.99731,14.891,0.000484163,0.000256396,0.00177694,0.00215086,-0.00141031,0.753397,0.00207081,0.0365801,1469,1702,4.99737,-14.891
252,-678,4.99146,14.7423,0.000282276,-8.13822e-05,0.00187677,0.001986,-0.00178511,0.737107,0.00217828,0.0268913,1476,1702,4.99146,-14.7424
259,-678,4.98218,14.7015,0.000246891,-0.000462573,0.0020104,0.00193362,-0.0021493,0.698073,0.00235837,0.0150731,1483,1702,4.98217,-14.7015
266,-678,5.00696,14.6079,-1.09006e-05,-0.00117391,0.0023385,0.00181731,-0.00300212,0.663536,0.00281039,0.00981443,1490,1702,5.00693,-14.6079
273,-678,5.0155,14.5251,-0.000168579,-0.00115776,0.00219699,0.00158881,-0.00291515,0.674683,0.00263767,0.0104362,1497,1702,5.01553,-14.5251
280,-678,4.99658,14.4332,-0.000277387,-0.000885787,0.00194816,0.00139018,-0.00255335,0.70795,0.00230957,0.0112989,1504,1702,4.99654,-14.4332
287,-678,4.9978,14.3063,-0.000314972,-0.000567097,0.00166836,0.00123208,-0.00211415,0.747689,0.00195419,0.0116629,1511,1702,4.99779,-14.3063
294,-678,4.99817,14.1932,-0.000283679,-0.000291196,0.00135709,0.00106966,-0.00164454,0.784013,0.00157872,0.0123087,1518,1702,4.99821,-14.1932
301,-678,4.995,14.1022,-0.000252138,-4.22638e-05,0.00101664,0.000874841,-0.00116924,0.836826,0.00118423,0.0113163,1525,1702,4.99503,-14.1022
308,-678,5.00195,14.0024,-0.000176579,0.000286747,0.000716968,0.000808551,-0.000698382,0.941661,0.000870803,0.0127792,1532,1702,5.00196,-14.0024
315,-678,5.0238,13.8966,2.68326e-05,0.000601772,0.000536045,0.000922564,-0.00029396,1.03152,0.00073295,0.0140882,1539,1702,5.02385,-13.8966
322,-678,5.03259,13.8002,0.000427247,0.000991465,0.000645329,0.00141365,5.05836e-06,0.991459,0.000940755,0.017666,1546,1702,5.0326,-13.8001
329,-678,5.01978,13.6982,0.0010477,0.00112347,0.00116175,0.00224796,-7.67815e-05,0.801697,0.00152488,0.0158034,1553,1702,5.01983,-13.6983
336,-678,5.01758,13.5571,0.00158117,0.00117601,0.00162395,0.00301513,-0.000257945,0.723347,0.00210135,0.0125441,1560,1702,5.01763,-13.5571
343,-678,5.00867,13.4315,0.00230681,0.00129406,0.00219314,0.00405128,-0.000450408,0.671942,0.00286282,0.0115028,1567,1702,5.00865,-13.4315
350,-678,5.02527,13.3066,0.00309866,0.00127019,0.00292851,0.00525232,-0.000883474,0.6341,0.00383015,0.0112324,1574,1702,5.02523,-13.3067
357,-678,5.0481,13.1691,0.00392956,0.00123579,0.00384566,0.00665738,-0.00149203,0.616956,0.00501021,0.00937488,1581,1702,5.04812,-13.1691
364,-678,5.02014,13.0408,0.00483818,0.000977799,0.00474242,0.00802816,-0.00221218,0.592133,0.006222,0.0108342,1588,1702,5.02009,-13.0407
371,-678,4.9845,12.9183,0.00575829,0.000522891,0.0055158,0.00924603,-0.00296485,0.563844,0.00735429,0.0114701,1595,1702,4.98446,-12.9184
378,-678,5.00378,12.7659,0.00663869,0.000104638,0.00622523,0.0104021,-0.00365876,0.543751,0.00842348,0.0129564,1602,1702,5.00374,-12.7659
385,-678,5.00903,12.6486,0.00676429,-0.000139245,0.00658612,0.0107484,-0.00412331,0.544029,0.00886561,0.0165405,1609,1702,5.00899,-12.6485
392,-678,5.06055,12.5891,0.00580138,0.000437814,0.00669569,0.0103324,-0.00409319,0.594919,0.00858435,0.0292833,1616,1702,5.06056,-12.5891
399,-678,5.17249,12.5184,0.00494297,0.000718487,0.00677598,0.00992829,-0.00426684,0.634309,0.00841003,0.037805,1623,1702,5.17253,-12.5185
406,-678,4.97144,12.3113,0.00338698,0.000936118,0.0065457,0.00882097,-0.00449788,0.692864,0.0078235,0.0403512,1630,1702,4.97149,-12.3113
413,-678,5.07581,12.2365,0.000989727,0.00154488,0.00588105,0.0071549,-0.00462029,0.80898,0.0068507,0.043667,1637,1702,5.07579,-12.2364
420,-678,5.31189,12.1279,0,0,0,0,0,0,0,-1,1644,1702,5.31193,-12.1279
427,-678,4.57483,10.1555,0,0,0,0,0,0,0,-1,1651,1702,4.57485,-10.1555
434,-678,4.30151,11.4784,0,0,0,0,0,0,0,-1,1658,1702,4.30149,-11.4783
441,-678,3.83801,10.7789,0,0,0,0,0,0,0,-1,1665,1702,3.838,-10.7789
448,-678,3.25525,9.74719,0,0,0,0,0,0,0,-1,1672,1702,3.25522,-9.7472
455,-678,5.44678,5.54297,0,0,0,0,0,0,0,-1,1679,1702,5.44676,-5.54294
462,-678,3.86792,2.87402,0,0,0,0,0,0,0,-1,1686,1702,3.86796,-2.87406
469,-678,2.26587,1.98755,0,0,0,0,0,0,0,-1,1693,1702,2.26592,-1.98755
476,-678,0,0,0,0,0,0,0,0,0,-1,1700,1702,0,0
483,-678,0,0,0,0,0,0,0,0,0,-1,1707,1702,0,0
490,-678,0,0,0,0,0,0,0,0,0,-1,1714,1702,0,0
497,-678,0,0,0,0,0,0,0,0,0,-1,1721,1702,0,0
504,-678,0,0,0,0,0,0,0,0,0,-1,1728,1702,0,0
511,-678,0,0,0,0,0,0,0,0,0,-1,1735,1702,0,0
518,-678,0,0,0,0,0,0,0,0,0,-1,1742,1702,0,0
525,-678,0,0,0,0,0,0,0,0,0,-1,1749,1702,0,0
532,-678,0,0,0,0,0,0,0,0,0,-1,1756,1702,0,0
539,-678,0,0,0,0,0,0,0,0,0,-1,1763,1702,0,0
546,-678,0,0,0,0,0,0,0,0,0,-1,1770,1702,0,0
553,-678,0,0,0,0,0,0,0,0,0,-1,1777,1702,0,0
560,-678,0,0,0,0,0,0,0,0,0,-1,1784,1702,0,0
567,-678,0,0,0,0,0,0,0,0,0,-1,1791,1702,0,0
574,-678,0,0,0,0,0,0,0,0,0,-1,1798,1702,0,0
581,-678,0,0,0,0,0,0,0,0,0,-1,1805,1702,0,0
588,-678,0,0,0,0,0,0,0,0,0,-1,1812,1702,0,0
595,-678,0,0,0,0,0,0,0,0,0,-1,1819,1702,0,0
602,-678,0,0,0,0,0,0,0,0,0,-1,1826,1702,0,0
609,-678,0,0,0,0,0,0,0,0,0,-1,1833,1702,0,0
616,-678,0,0,0,0,0,0,0,0,0,-1,1840,1702,0,0
623,-678,0,0,0,0,0,0,0,0,0,-1,1847,1702,0,0
630,-678,0,0,0,0,0,0,0,0,0,-1,1854,1702,0,0
637,-678,0,0,0,0,0,0,0,0,0,-1,1861,1702,0,0
644,-678,0,0,0,0,0,0,0,0,0,-1,1868,1702,0,0
651,-678,0,0,0,0,0,0,0,0,0,-1,1875,1702,0,0
658,-678,0,0,0,0,0,0,0,0,0,-1,1882,1702,0,0
665,-678,0,0,0,0,0,0,0,0,0,-1,1889,1702,0,0
672,-678,0,0,0,0,0,0,0,0,0,-1,1896,1702,0,0
679,-678,0,0,0,0,0,0,0,0,0,-1,1903,1702,0,0
686,-678,0,0,0,0,0,0,0,0,0,-1,1910,1702,0,0
693,-678,0,0,0,0,0,0,0,0,0,-1,1917,1702,0,0
700,-678,0,0,0,0,0,0,0,0,0,-1,1924,1702,0,0
707,-678,0,0,0,0,0,0,0,0,0,-1,1931,1702,0,0
714,-678,0,0,0,0,0,0,0,0,0,-1,1938,1702,0,0
721,-678,0,0,0,0,0,0,0,0,0,-1,1945,1702,0,0
728,-678,0,0,0,0,0,0,0,0,0,-1,1952,1702,0,0
735,-678,0,0,0,0,0,0,0,0,0,-1,1959,1702,0,0
742,-678,0,0,0,0,0,0,0,0,0,-1,1966,1702,0,0
749,-678,0,0,0,0,0,0,0,0,0,-1,1973,1702,0,0
756,-678,0,0,0,0,0,0,0,0,0,-1,1980,1702,0,0
763,-678,0,0,0,0,0,0,0,0,0,-1,1987,1702,0,0
770,-678,0,0,0,0,0,0,0,0,0,-1,1994,1702,0,0
777,-678,0,0,0,0,0,0,0,0,0,-1,2001,1702,0,0
784,-678,0,0,0,0,0,0,0,0,0,-1,2008,1702,0,0
791,-678,0,0,0,0,0,0,0,0,0,-1,2015,1702,0,0
798,-678,0,0,0,0,0,0,0,0,0,-1,2022,1702,0,0
805,-678,0,0,0,0,0,0,0,0,0,-1,2029,1702,0,0
812,-678,0,0,0,0,0,0,0,0,0,-1,2036,1702,0,0
-700,-685,0,0,0,0,0,0,0,0,0,-1,524,1709,0,0
-693,-685,0,0,0,0,0,0,0,0,0,-1,531,1709,0,0
-686,-685,0,0,0,0,0,0,0,0,0,-1,538,1709,0,0
-679,-685,0,0,0,0,0,0,0,0,0,-1,545,1709,0,0
-672,-685,0,0,0,0,0,0,0,0,0,-1,552,1709,0,0
-665,-685,0,0,0,0,0,0,0,0,0,-1,559,1709,0,0
-658,-685,0,0,0,0,0,0,0,0,0,-1,566,1709,0,0
-651,-685,0,0,0,0,0,0,0,0,0,-1,573,1709,0,0
-644,-685,0,0,0,0,0,0,0,0,0,-1,580,1709,0,0
-637,-685,0,0,0,0,0,0,0,0,0,-1,587,1709,0,0
-630,-685,0,0,0,0,0,0,0,0,0,-1,594,1709,0,0
-623,-685,0,0,0,0,0,0,0,0,0,-1,601,1709,0,0
-616,-685,0,0,0,0,0,0,0,0,0,-1,608,1709,0,0
-609,-685,0,0,0,0,0,0,0,0,0,-1,615,1709,0,0
-602,-685,0,0,0,0,0,0,0,0,0,-1,622,1709,0,0
-595,-685,0,0,0,0,0,0,0,0,0,-1,629,1709,0,0
-588,-685,0,0,0,0,0,0,0,0,0,-1,636,1709,0,0
-581,-685,0,0,0,0,0,0,0,0,0,-1,643,1709,0,0
-574,-685,0,0,0,0,0,0,0,0,0,-1,650,1709,0,0
-567,-685,0,0,0,0,0,0,0,0,0,-1,657,1709,0,0
-560,-685,0,0,0,0,0,0,0,0,0,-1,664,1709,0,0
-553,-685,0,0,0,0,0,0,0,0,0,-1,671,1709,0,0
-546,-685,0,0,0,0,0,0,0,0,0,-1,678,1709,0,0
-539,-685,0,0,0,0,0,0,0,0,0,-1,685,1709,0,0
-532,-685,0,0,0,0,0,0,0,0,0,-1,692,1709,0,0
-525,-685,0,0,0,0,0,0,0,0,0,-1,699,1709,0,0
-518,-685,0,0,0,0,0,0,0,0,0,-1,706,1709,0,0
-511,-685,0,0,0,0,0,0,0,0,0,-1,713,1709,0,0
-504,-685,0,0,0,0,0,0,0,0,0,-1,720,1709,0,0
-497,-685,0,0,0,0,0,0,0,0,0,-1,727,1709,0,0
-490,-685,0,0,0,0,0,0,0,0,0,-1,734,1709,0,0
-483,-685,0,0,0,0,0,0,0,0,0,-1,741,1709,0,0
-476,-685,0,0,0,0,0,0,0,0,0,-1,748,1709,0,0
-469,-685,0,0,0,0,0,0,0,0,0,-1,755,1709,0,0
-462,-685,0,0,0,0,0,0,0,0,0,-1,762,1709,0,0
-455,-685,0,0,0,0,0,0,0,0,0,-1,769,1709,0,0
-448,-685,0,0,0,0,0,0,0,0,0,-1,776,1709,0,0
-441,-685,0,0,0,0,0,0,0,0,0,-1,783,1709,0,0
-434,-685,0,0,0,0,0,0,0,0,0,-1,790,1709,0,0
-427,-685,0,0,0,0,0,0,0,0,0,-1,797,1709,0,0
-420,-685,0,0,0,0,0,0,0,0,0,-1,804,1709,0,0
-413,-685,0,0,0,0,0,0,0,0,0,-1,811,1709,0,0
-406,-685,0,0,0,0,0,0,0,0,0,-1,818,1709,0,0
-399,-685,0,0,0,0,0,0,0,0,0,-1,825,1709,0,0
-392,-685,0,0,0,0,0,0,0,0,0,-1,832,1709,0,0
-385,-685,0,0,0,0,0,0,0,0,0,-1,839,1709,0,0
-378,-685,0,0,0,0,0,0,0,0,0,-1,846,1709,0,0
-371,-685,0,0,0,0,0,0,0,0,0,-1,853,1709,0,0
-364,-685,0,0,0,0,0,0,0,0,0,-1,860,1709,0,0
-357,-685,0,0,0,0,0,0,0,0,0,-1,867,1709,0,0
-350,-685,0,0,0,0,0,0,0,0,0,-1,874,1709,0,0
-343,-685,-5.98505,6.56335,0,0,0,0,0,0,0,-1,881,1709,-5.98505,-6.56329
-336,-685,-6.51312,5.10571,0,0,0,0,0,0,0,-1,888,1709,-6.51311,-5.10575
-329,-685,-6.81384,3.34106,0,0,0,0,0,0,0,-1,895,1709,-6.81385,-3.341
-322,-685,3.48425,16.3307,0,0,0,0,0,0,0,-1,902,1709,3.48425,-16.3307
-315,-685,3.66089,14.3413,0,0,0,0,0,0,0,-1,909,1709,3.66091,-14.3413
-308,-685,4.00427,12.6189,0,0,0,0,0,0,0,-1,916,1709,4.00426,-12.6189
-301,-685,4.56464,10.8724,0,0,0,0,0,0,0,-1,923,1709,4.56464,-10.8724
-294,-685,5.35034,10.6071,0,0,0,0,0,0,0,-1,930,1709,5.35032,-10.6071
-287,-685,4.90942,10.7822,-0.0330623,0.017631,-0.0186664,0.0237627,-0.039194,-1.25341,0.0367102,0.0490036,937,1709,4.90942,-10.7823
-280,-685,4.45447,10.9111,-0.0289432,0.0189454,-0.0172955,0.0245385,-0.0345364,-1.25802,0.0342694,0.0477843,944,1709,4.45446,-10.9111
-273,-685,4.00458,11.0244,-0.0247883,0.0191552,-0.0161568,0.0244562,-0.0300893,-1.25377,0.0315478,0.0484875,951,1709,4.00455,-11.0244
-266,-685,4.14935,11.1676,-0.0207526,0.0186998,-0.0150944,0.0238123,-0.0258652,-1.24422,0.0286895,0.0443084,958,1709,4.14934,-11.1676
-259,-685,4.29834,11.459,-0.0170313,0.0176866,-0.013915,0.0225754,-0.02192,-1.23294,0.0256903,0.0385308,965,1709,4.29832,-11.459
-252,-685,4.26575,11.6472,-0.0141603,0.015827,-0.0128203,0.0205607,-0.018894,-1.21709,0.022786,0.0389302,972,1709,4.26573,-11.6472
-245,-685,4.15643,11.8826,-0.0115313,0.0137833,-0.0110412,0.0179223,-0.0156703,-1.21214,0.0194092,0.0350075,979,1709,4.15641,-11.8826
-238,-685,4.01141,12.0625,0,0,0,0,0,0,0,-1,986,1709,4.01139,-12.0625
-231,-685,3.93921,12.3108,-0.00652275,0.0094948,-0.00747452,0.0124409,-0.00946883,-1.19534,0.0126883,0.0166188,993,1709,3.9392,-12.3108
-224,-685,3.93652,12.4312,-0.00451392,0.0073746,-0.00597412,0.00985794,-0.00699725,-1.17684,0.00977796,0.0142116,1000,1709,3.93655,-12.4311
-217,-685,3.93475,12.5977,-0.00318038,0.00543104,-0.00474477,0.00753251,-0.00528186,-1.15386,0.00743632,0.0109059,1007,1709,3.93473,-12.5977
-210,-685,3.91241,12.7799,-0.0026396,0.00399275,-0.00329739,0.0053531,-0.00399994,-1.17952,0.00541878,0.0142828,1014,1709,3.91243,-12.7799
-203,-685,3.92517,12.9015,-0.00196967,0.00277944,-0.00173224,0.00334413,-0.00253436,-1.25567,0.00340467,0.0143958,1021,1709,3.92519,-12.9014
-196,-685,3.92554,12.9974,-0.00124565,0.00167303,-0.000452478,0.00174156,-0.00131419,-1.42047,0.00176998,0.0128133,1028,1709,3.92553,-12.9975
-189,-685,3.91187,13.1212,-0.000522246,0.000839539,0.000472467,0.000987404,-0.000670112,1.26749,0.000962794,0.00880802,1035,1709,3.91192,-13.1213
-182,-685,3.90137,13.2562,-2.28893e-05,0.000521731,0.00107179,0.00135527,-0.000856424,0.909801,0.0012877,0.012857,1042,1709,3.90143,-13.2562
-175,-685,3.89722,13.3821,0.000436606,0.000333696,0.00162227,0.00200823,-0.00123793,0.769545,0.00189168,0.0128712,1049,1709,3.89722,-13.3821
-168,-685,3.89575,13.5248,0.00078457,-4.11151e-05,0.0019374,0.00235262,-0.00160917,0.680423,0.00230073,0.00997064,1056,1709,3.8957,-13.5247
-161,-685,3.89941,13.6472,0.00106881,-0.000479371,0.00205425,0.00248998,-0.00190054,0.605214,0.00254247,0.0111091,1063,1709,3.89942,-13.6472
-154,-685,3.90674,13.7715,0.00137336,-0.000936235,0.00203977,0.00256254,-0.00212542,0.527823,0.00271051,0.010342,1070,1709,3.90675,-13.7715
-147,-685,3.89819,13.8887,0.00170313,-0.00126402,0.00195158,0.00267101,-0.00223191,0.460402,0.00283448,0.00891871,1077,1709,3.89823,-13.8887
-140,-685,3.91455,13.9755,0.00210321,-0.001787,0.00167973,0.00272811,-0.0024119,0.356159,0.00296946,0.0111268,1084,1709,3.91456,-13.9754
-133,-685,3.93347,14.0848,0.00265295,-0.00241845,0.00160533,0.00311839,-0.00288389,0.282199,0.0034663,0.0108054,1091,1709,3.93346,-14.0848
-126,-685,3.93982,14.1981,0.00319758,-0.00294791,0.0016264,0.00360146,-0.00335179,0.243406,0.00401533,0.00862674,1098,1709,3.9398,-14.1981
-119,-685,3.94421,14.2808,0.00391763,-0.00350085,0.00161657,0.00425459,-0.00383781,0.205501,0.00467421,0.0118519,1105,1709,3.94425,-14.2808
-112,-685,3.94092,14.3895,0.00471632,-0.00423312,0.00170965,0.0050318,-0.0045486,0.182477,0.00553359,0.0121658,1112,1709,3.94092,-14.3895
-105,-685,3.92151,14.4973,0.00550797,-0.00469892,0.00192869,0.00586026,-0.0050512,0.180663,0.0063055,0.00997195,1119,1709,3.92149,-14.4973
-98,-685,3.97571,14.5887,0.00648109,-0.00530246,0.00228467,0.00690854,-0.00572992,0.184961,0.00730739,0.0129274,1126,1709,3.97572,-14.5887
-91,-685,3.97681,14.6774,0.00714784,-0.00561236,0.00277994,0.00772718,-0.0061917,0.205458,0.00805235,0.0157788,1133,1709,3.97676,-14.6773
-84,-685,3.98303,14.7529,0.00771708,-0.00555509,0.00314549,0.00842482,-0.00626283,0.221315,0.00851049,0.0144348,1140,1709,3.98309,-14.753
-77,-685,4.00366,14.8628,0.00820904,-0.00548735,0.00320401,0.00892149,-0.00619981,0.218804,0.0087773,0.0142183,1147,1709,4.00368,-14.8627
-70,-685,4.10339,15.0497,0.00849078,-0.0056574,0.00318934,0.00917649,-0.00634312,0.211779,0.00900989,0.0283881,1154,1709,4.10344,-15.0497
-63,-685,4.11536,15.3572,0,0,0,0,0,0,0,-1,1161,1709,4.11538,-15.3571
-56,-685,3.93909,15.8704,0,0,0,0,0,0,0,-1,1168,1709,3.93905,-15.8704
-49,-685,3.07471,9.86011,0,0,0,0,0,0,0,-1,1175,1709,3.07467,-9.86009
-42,-685,2.70618,7.54504,0,0,0,0,0,0,0,-1,1182,1709,2.7062,-7.54504
-35,-685,2.95264,7.91516,0,0,0,0,0,0,0,-1,1189,1709,2.95262,-7.91517
-28,-685,4.0802,15.2415,0,0,0,0,0,0,0,-1,1196,1709,4.08015,-15.2414
-21,-685,4.12231,15.2631,3.09757e-05,-0.00183254,-0.027709,0.0268239,-0.0286255,-0.768591,0.0320193,0.0416094,1203,1709,4.1223,-15.2631
-14,-685,4.23096,15.2008,0.00107132,-0.00256784,-0.029091,0.0283996,-0.0298961,-0.754165,0.0336607,0.0260294,1210,1709,4.2309,-15.2008
-7,-685,4.18542,15.2482,0.00112797,-0.00368659,-0.0292005,0.0280203,-0.0305789,-0.744271,0.033843,0.0384593,1217,1709,4.18545,-15.2481
0,-685,4.1189,15.3077,0.000996882,-0.00482968,-0.0286695,0.0269008,-0.0307336,-0.734764,0.0332997,0.0415586,1224,1709,4.11895,-15.3077
7,-685,4.10425,15.3334,0.000722429,-0.0057136,-0.0276789,0.0253698,-0.030361,-0.727527,0.0322191,0.0371932,1231,1709,4.10429,-15.3334
14,-685,4.34375,15.2606,-0.000164237,-0.00631208,-0.0255883,0.0225342,-0.0290105,-0.72562,0.0298375,0.0408667,1238,1709,4.3438,-15.2606
21,-685,4.5387,15.2407,-0.00140104,-0.00627573,-0.0225335,0.0188266,-0.0265033,-0.731525,0.026296,0.0391559,1245,1709,4.53866,-15.2407
28,-685,4.49902,15.2938,-0.00273357,-0.00588565,-0.018768,0.0145244,-0.0231436,-0.743509,0.0219366,0.0376217,1252,1709,4.49902,-15.2938
35,-685,4.46606,15.3575,-0.0042961,-0.00572072,-0.0148967,0.0099053,-0.0199221,-0.761508,0.0175416,0.0384569,1259,1709,4.46607,-15.3576
42,-685,4.57703,15.5021,-0.00603253,-0.00536776,-0.0111967,0.00550148,-0.0169018,-0.800237,0.0134812,0.0426951,1266,1709,4.57706,-15.5021
49,-685,4.70679,15.5023,-0.00743082,-0.00478332,-0.0074564,0.00146593,-0.0136801,-0.873249,0.00964589,0.0440317,1273,1709,4.70677,-15.5024
56,-685,4.3783,15.3037,-0.00834637,-0.0042444,-0.0039007,-0.00188834,-0.0107024,-1.02743,0.00659623,0.0422732,1280,1709,4.37827,-15.3037
63,-685,4.61743,15.3319,-0.00951067,-0.00340558,-0.000375218,-0.00338261,-0.00953364,-1.50964,0.00558107,0.0438572,1287,1709,4.61749,-15.3319
70,-685,4.5238,15.4117,-0.0104481,-0.0025543,0.00223116,-0.00196731,-0.0110351,1.31354,0.00679654,0.0436298,1294,1709,4.52379,-15.4117
77,-685,4.57483,15.5693,-0.0108001,-0.00200535,0.00417709,-0.000337662,-0.0124678,1.19094,0.00820164,0.0417367,1301,1709,4.57477,-15.5694
84,-685,4.75964,15.8943,0,0,0,0,0,0,0,-1,1308,1709,4.7596,-15.8943
91,-685,4.90442,15.5754,-0.010891,8.94284e-05,0.00480714,0.00189654,-0.0126981,1.21122,0.00916326,0.0451644,1315,1709,4.90443,-15.5754
98,-685,4.5918,15.542,-0.00948995,0.00175899,0.00443775,0.0032989,-0.0110299,1.23679,0.00866479,0.0379071,1322,1709,4.59174,-15.5419
105,-685,4.76758,15.4783,-0.00817818,0.0032976,0.00406978,0.00459437,-0.00947495,1.26233,0.00828424,0.0391538,1329,1709,4.76763,-15.4782
112,-685,4.73328,15.5679,-0.00707983,0.00484564,0.00396512,0.00604366,-0.00827785,1.27738,0.008302,0.0419785,1336,1709,4.7333,-15.5679
119,-685,4.69617,15.5444,0,0,0,0,0,0,0,-1,1343,1709,4.69619,-15.5444
126,-685,4.71631,15.4738,-0.0043726,0.0067343,0.00327614,0.00762863,-0.00526693,1.30431,0.00748676,0.0422793,1350,1709,4.71635,-15.4738
133,-685,4.75391,15.3884,-0.00343683,0.00762287,0.00345104,0.00861137,-0.00442533,1.29183,0.00765499,0.0465934,1357,1709,4.75385,-15.3885
140,-685,4.70569,15.5955,-0.00222721,0.00983013,0.00425535,0.0111807,-0.00357776,1.26347,0.00888969,0.0464491,1364,1709,4.70572,-15.5954
147,-685,4.86609,15.7457,-0.00106426,0.0115088,0.00522511,0.0133967,-0.00295221,1.22407,0.0100607,0.0439957,1371,1709,4.86603,-15.7457
154,-685,4.95825,15.6433,0,0,0,0,0,0,0,-1,1378,1709,4.95822,-15.6433
161,-685,5.23596,15.548,0,0,0,0,0,0,0,-1,1385,1709,5.23597,-15.5479
168,-685,4.37524,10.8778,0,0,0,0,0,0,0,-1,1392,1709,4.37525,-10.8778
175,-685,3.97522,8.94324,0,0,0,0,0,0,0,-1,1399,1709,3.97519,-8.94328
182,-685,3.98218,9.19739,0,0,0,0,0,0,0,-1,1406,1709,3.98221,-9.1974
189,-685,4.53479,15.2343,0,0,0,0,0,0,0,-1,1413,1709,4.53474,-15.2343
196,-685,4.82813,15.4344,0,0,0,0,0,0,0,-1,1420,1709,4.82807,-15.4344
203,-685,4.96143,15.6637,0,0,0,0,0,0,0,-1,1427,1709,4.96148,-15.6637
210,-685,4.87109,15.366,0.000973386,0.00149058,0.000413703,0.00171986,0.000744107,1.06473,0.000995957,0.0342936,1434,1709,4.8711,-15.366
217,-685,4.87195,15.1163,0.000522706,0.000857467,5.73798e-05,0.000867029,0.000513144,1.40567,0.000503386,0.0226754,1441,1709,4.8719,-15.1163
224,-685,4.82092,15.0216,0.000261026,0.000240989,0.000383743,0.000634881,-0.000132866,0.772347,0.000473794,0.0158126,1448,1709,4.82088,-15.0216
231,-685,4.83777,14.9476,0.000437827,0.000241887,0.000671769,0.00101873,-0.000339018,0.712989,0.000815985,0.0158482,1455,1709,4.83783,-14.9476
238,-685,4.83057,14.8788,0.000613728,0.000136029,0.00101693,0.00141948,-0.00066972,0.670052,0.00123182,0.0180314,1462,1709,4.83054,-14.8787
245,-685,4.84326,14.8234,0.000419372,1.73025e-05,0.00115934,0.00139498,-0.000958302,0.699549,0.00136644,0.0198498,1469,1709,4.84324,-14.8233
252,-685,4.88293,14.7889,0.000291733,-0.000183354,0.00122527,0.00130227,-0.00119389,0.68965,0.00144161,0.0144074,1476,1709,4.88288,-14.7889
259,-685,4.89075,14.7179,0.000257533,-0.00036223,0.00130214,0.00128616,-0.00139086,0.668582,0.00154597,0.00970916,1483,1709,4.89073,-14.7179
266,-685,4.91565,14.6233,0.000100934,-0.000704122,0.00147968,0.00123186,-0.00183504,0.652593,0.00178205,0.0101173,1490,1709,4.91559,-14.6233
273,-685,4.9187,14.5103,-2.019e-05,-0.000448905,0.00139733,0.00117913,-0.00164822,0.709289,0.00163984,0.0128451,1497,1709,4.91876,-14.5102
280,-685,4.90247,14.4054,-0.000115766,-1.97726e-05,0.00123335,0.00116651,-0.00130205,0.804846,0.00142594,0.0151472,1504,1709,4.9025,-14.4054
287,-685,4.89856,14.3208,-0.000151328,0.00048177,0.00103981,0.00125215,-0.000921704,0.933156,0.0012599,0.0119695,1511,1709,4.89855,-14.3208
294,-685,4.89563,14.2231,-0.000133461,0.000912232,0.000803099,0.00134768,-0.000568913,1.07395,0.00113659,0.0107608,1518,1709,4.89569,-14.2231
301,-685,4.89612,14.1147,-0.000123858,0.00130486,0.000540152,0.00148609,-0.000305084,1.24709,0.00110653,0.0129717,1525,1709,4.89611,-14.1147
308,-685,4.89063,13.9886,-6.55566e-05,0.00171432,0.000348952,0.00178029,-0.000131525,1.38395,0.00123304,0.0136179,1532,1709,4.89061,-13.9886
315,-685,4.91992,13.8784,0.000165542,0.00212453,0.000307312,0.00217161,0.000118465,1.41879,0.00140991,0.0120385,1539,1709,4.91991,-13.8784
322,-685,4.93616,13.7886,0.000690943,0.0025597,0.000725235,0.00280813,0.000442516,1.24078,0.0017434,0.019484,1546,1709,4.93612,-13.7886
329,-685,4.9281,13.6775,0.00151895,0.00255474,0.00177416,0.00388506,0.000188639,0.927407,0.0025295,0.0181039,1553,1709,4.92815,-13.6775
336,-685,4.92798,13.5498,0.00226462,0.00251895,0.00262896,0.00502382,-0.000240247,0.809566,0.0034321,0.0126911,1560,1709,4.92792,-13.5498
343,-685,4.88794,13.4371,0.00326316,0.00250665,0.00365179,0.00655624,-0.000786426,0.733792,0.00465516,0.0114487,1567,1709,4.88798,-13.4372
350,-685,4.89185,13.2944,0.00435137,0.00231889,0.00491074,0.00834992,-0.00167966,0.683367,0.00620278,0.0121144,1574,1709,4.89187,-13.2944
357,-685,4.91174,13.1663,0.0055537,0.00209904,0.00642323,0.0104778,-0.00282507,0.654046,0.00809296,0.0102668,1581,1709,4.91174,-13.1662
364,-685,4.89832,13.0262,0.00691031,0.0016365,0.00796178,0.0126605,-0.00411368,0.625486,0.0100949,0.00997828,1588,1709,4.89836,-13.0262
371,-685,4.91968,12.8743,0.00829351,0.000947268,0.00942896,0.0147395,-0.00549876,0.599662,0.0120838,0.0154622,1595,1709,4.91971,-12.8743
378,-685,4.85876,12.7787,0.00962692,0.000335918,0.0108059,0.0167435,-0.0067807,0.582389,0.0139818,0.0215495,1602,1709,4.85872,-12.7786
385,-685,4.86377,12.6399,0.0100419,-3.66489e-05,0.0117192,0.0177594,-0.00775412,0.582349,0.015103,0.0366648,1609,1709,4.86371,-12.6399
392,-685,5.06458,12.4928,0.00911482,0.000542058,0.0122513,0.0178079,-0.00815102,0.617117,0.0153292,0.0418405,1616,1709,5.06455,-12.4929
399,-685,5.2832,12.6582,0,0,0,0,0,0,0,-1,1623,1709,5.28321,-12.6582
406,-685,4.81677,12.4016,0,0,0,0,0,0,0,-1,1630,1709,4.81678,-12.4016
413,-685,4.86414,12.3705,0,0,0,0,0,0,0,-1,1637,1709,4.86409,-12.3705
420,-685,4.84631,10.3781,0,0,0,0,0,0,0,-1,1644,1709,4.84634,-10.378
427,-685,6.05151,9.21155,0,0,0,0,0,0,0,-1,1651,1709,6.05156,-9.21156
434,-685,4.87769,8.91418,0,0,0,0,0,0,0,-1,1658,1709,4.87768,-8.91413
441,-685,5.62,8.75549,0,0,0,0,0,0,0,-1,1665,1709,5.61996,-8.75545
448,-685,6.4043,8.58972,0,0,0,0,0,0,0,-1,1672,1709,6.40435,-8.58971
455,-685,2.31958,4.09802,0,0,0,0,0,0,0,-1,1679,1709,2.31957,-4.09803
462,-685,0,0,0,0,0,0,0,0,0,-1,1686,1709,0,0
469,-685,0,0,0,0,0,0,0,0,0,-1,1693,1709,0,0
476,-685,0,0,0,0,0,0,0,0,0,-1,1700,1709,0,0
483,-685,0,0,0,0,0,0,0,0,0,-1,1707,1709,0,0
490,-685,0,0,0,0,0,0,0,0,0,-1,1714,1709,0,0
497,-685,0,0,0,0,0,0,0,0,0,-1,1721,1709,0,0
504,-685,0,0,0,0,0,0,0,0,0,-1,1728,1709,0,0
511,-685,0,0,0,0,0,0,0,0,0,-1,1735,1709,0,0
518,-685,0,0,0,0,0,0,0,0,0,-1,1742,1709,0,0
525,-685,0,0,0,0,0,0,0,0,0,-1,1749,1709,0,0
532,-685,0,0,0,0,0,0,0,0,0,-1,1756,1709,0,0
539,-685,0,0,0,0,0,0,0,0,0,-1,1763,1709,0,0
546,-685,0,0,0,0,0,0,0,0,0,-1,1770,1709,0,0
553,-685,0,0,0,0,0,0,0,0,0,-1,1777,1709,0,0
560,-685,0,0,0,0,0,0,0,0,0,-1,1784,1709,0,0
567,-685,0,0,0,0,0,0,0,0,0,-1,1791,1709,0,0
574,-685,0,0,0,0,0,0,0,0,0,-1,1798,1709,0,0
581,-685,0,0,0,0,0,0,0,0,0,-1,1805,1709,0,0
588,-685,0,0,0,0,0,0,0,0,0,-1,1812,1709,0,0
595,-685,0,0,0,0,0,0,0,0,0,-1,1819,1709,0,0
602,-685,0,0,0,0,0,0,0,0,0,-1,1826,1709,0,0
609,-685,0,0,0,0,0,0,0,0,0,-1,1833,1709,0,0
616,-685,0,0,0,0,0,0,0,0,0,-1,1840,1709,0,0
623,-685,0,0,0,0,0,0,0,0,0,-1,1847,1709,0,0
630,-685,0,0,0,0,0,0,0,0,0,-1,1854,1709,0,0
637,-685,0,0,0,0,0,0,0,0,0,-1,1861,1709,0,0
644,-685,0,0,0,0,0,0,0,0,0,-1,1868,1709,0,0
651,-685,0,0,0,0,0,0,0,0,0,-1,1875,1709,0,0
658,-685,0,0,0,0,0,0,0,0,0,-1,1882,1709,0,0
665,-685,0,0,0,0,0,0,0,0,0,-1,1889,1709,0,0
672,-685,0,0,0,0,0,0,0,0,0,-1,1896,1709,0,0
679,-685,0,0,0,0,0,0,0,0,0,-1,1903,1709,0,0
686,-685,0,0,0,0,0,0,0,0,0,-1,1910,1709,0,0
693,-685,0,0,0,0,0,0,0,0,0,-1,1917,1709,0,0
700,-685,0,0,0,0,0,0,0,0,0,-1,1924,1709,0,0
707,-685,0,0,0,0,0,0,0,0,0,-1,1931,1709,0,0
714,-685,0,0,0,0,0,0,0,0,0,-1,1938,1709,0,0
721,-685,0,0,0,0,0,0,0,0,0,-1,1945,1709,0,0
728,-685,0,0,0,0,0,0,0,0,0,-1,1952,1709,0,0
735,-685,0,0,0,0,0,0,0,0,0,-1,1959,1709,0,0
742,-685,0,0,0,0,0,0,0,0,0,-1,1966,1709,0,0
749,-685,0,0,0,0,0,0,0,0,0,-1,1973,1709,0,0
756,-685,0,0,0,0,0,0,0,0,0,-1,1980,1709,0,0
763,-685,0,0,0,0,0,0,0,0,0,-1,1987,1709,0,0
770,-685,0,0,0,0,0,0,0,0,0,-1,1994,1709,0,0
777,-685,0,0,0,0,0,0,0,0,0,-1,2001,1709,0,0
784,-685,0,0,0,0,0,0,0,0,0,-1,2008,1709,0,0
791,-685,0,0,0,0,0,0,0,0,0,-1,2015,1709,0,0
798,-685,0,0,0,0,0,0,0,0,0,-1,2022,1709,0,0
805,-685,0,0,0,0,0,0,0,0,0,-1,2029,1709,0,0
812,-685,0,0,0,0,0,0,0,0,0,-1,2036,1709,0,0
-700,-692,0,0,0,0,0,0,0,0,0,-1,524,1716,0,0
-693,-692,0,0,0,0,0,0,0,0,0,-1,531,1716,0,0
-686,-692,0,0,0,0,0,0,0,0,0,-1,538,1716,0,0
-679,-692,0,0,0,0,0,0,0,0,0,-1,545,1716,0,0
-672,-692,0,0,0,0,0,0,0,0,0,-1,552,1716,0,0
-665,-692,0,0,0,0,0,0,0,0,0,-1,559,1716,0,0
-658,-692,0,0,0,0,0,0,0,0,0,-1,566,1716,0,0
-651,-692,0,0,0,0,0,0,0,0,0,-1,573,1716,0,0
-644,-692,0,0,0,0,0,0,0,0,0,-1,580,1716,0,0
-637,-692,0,0,0,0,0,0,0,0,0,-1,587,1716,0,0
-630,-692,0,0,0,0,0,0,0,0,0,-1,594,1716,0,0
-623,-692,0,0,0,0,0,0,0,0,0,-1,601,1716,0,0
-616,-692,0,0,0,0,0,0,0,0,0,-1,608,1716,0,0
-609,-692,0,0,0,0,0,0,0,0,0,-1,615,1716,0,0
-602,-692,0,0,0,0,0,0,0,0,0,-1,622,1716,0,0
-595,-692,0,0,0,0,0,0,0,0,0,-1,629,1716,0,0
-588,-692,0,0,0,0,0,0,0,0,0,-1,636,1716,0,0
-581,-692,0,0,0,0,0,0,0,0,0,-1,643,1716,0,0
-574,-692,0,0,0,0,0,0,0,0,0,-1,650,1716,0,0
-567,-692,0,0,0,0,0,0,0,0,0,-1,657,1716,0,0
-560,-692,0,0,0,0,0,0,0,0,0,-1,664,1716,0,0
-553,-692,0,0,0,0,0,0,0,0,0,-1,671,1716,0,0
-546,-692,0,0,0,0,0,0,0,0,0,-1,678,1716,0,0
-539,-692,0,0,0,0,0,0,0,0,0,-1,685,1716,0,0
-532,-692,0,0,0,0,0,0,0,0,0,-1,692,1716,0,0
-525,-692,0,0,0,0,0,0,0,0,0,-1,699,1716,0,0
-518,-692,0,0,0,0,0,0,0,0,0,-1,706,1716,0,0
-511,-692,0,0,0,0,0,0,0,0,0,-1,713,1716,0,0
-504,-692,0,0,0,0,0,0,0,0,0,-1,720,1716,0,0
-497,-692,0,0,0,0,0,0,0,0,0,-1,727,1716,0,0
-490,-692,0,0,0,0,0,0,0,0,0,-1,734,1716,0,0
-483,-692,0,0,0,0,0,0,0,0,0,-1,741,1716,0,0
-476,-692,0,0,0,0,0,0,0,0,0,-1,748,1716,0,0
-469,-692,0,0,0,0,0,0,0,0,0,-1,755,1716,0,0
-462,-692,0,0,0,0,0,0,0,0,0,-1,762,1716,0,0
-455,-692,0,0,0,0,0,0,0,0,0,-1,769,1716,0,0
-448,-692,0,0,0,0,0,0,0,0,0,-1,776,1716,0,0
-441,-692,0,0,0,0,0,0,0,0,0,-1,783,1716,0,0
-434,-692,0,0,0,0,0,0,0,0,0,-1,790,1716,0,0
-427,-692,0,0,0,0,0,0,0,0,0,-1,797,1716,0,0
-420,-692,0,0,0,0,0,0,0,0,0,-1,804,1716,0,0
-413,-692,0,0,0,0,0,0,0,0,0,-1,811,1716,0,0
-406,-692,0,0,0,0,0,0,0,0,0,-1,818,1716,0,0
-399,-692,0,0,0,0,0,0,0,0,0,-1,825,1716,0,0
-392,-692,0,0,0,0,0,0,0,0,0,-1,832,1716,0,0
-385,-692,0,0,0,0,0,0,0,0,0,-1,839,1716,0,0
-378,-692,0,0,0,0,0,0,0,0,0,-1,846,1716,0,0
-371,-692,0,0,0,0,0,0,0,0,0,-1,853,1716,0,0
-364,-692,0,0,0,0,0,0,0,0,0,-1,860,1716,0,0
-357,-692,0,0,0,0,0,0,0,0,0,-1,867,1716,0,0
-350,-692,0,0,0,0,0,0,0,0,0,-1,874,1716,0,0
-343,-692,0,0,0,0,0,0,0,0,0,-1,881,1716,0,0
-336,-692,0,0,0,0,0,0,0,0,0,-1,888,1716,0,0
-329,-692,3.12396,3.50745,0,0,0,0,0,0,0,-1,895,1716,3.12398,-3.50748
-322,-692,3.67346,17.0139,0,0,0,0,0,0,0,-1,902,1716,3.67349,-17.0139
-315,-692,3.98718,15.2626,0,0,0,0,0,0,0,-1,909,1716,3.98716,-15.2626
-308,-692,4.28339,13.5061,0,0,0,0,0,0,0,-1,916,1716,4.2834,-13.5061
-301,-692,4.03302,12.2762,0,0,0,0,0,0,0,-1,923,1716,4.03304,-12.2762
-294,-692,5.69696,10.3323,0,0,0,0,0,0,0,-1,930,1716,5.69695,-10.3323
-287,-692,5.27277,10.598,-0.0447643,0.0252512,-0.0223657,0.0317858,-0.0512989,-1.28654,0.0484079,0.0499813,937,1716,5.27274,-10.598
-280,-692,4.82947,10.8092,-0.0389303,0.0261436,-0.0212814,0.0324853,-0.045272,-1.28118,0.0450951,0.0460013,944,1716,4.82948,-10.8092
-273,-692,4.05194,10.7828,-0.0332217,0.0256501,-0.0204151,0.0320367,-0.0396082,-1.26761,0.0414411,0.0456054,951,1716,4.05192,-10.7828
-266,-692,4.58417,11.0804,0,0,0,0,0,0,0,-1,958,1716,4.58415,-11.0804
-259,-692,4.92999,11.1255,-0.0227564,0.0227218,-0.0183608,0.0292092,-0.0292437,-1.23116,0.0337478,0.0483579,965,1716,4.92999,-11.1255
-252,-692,4.96393,11.092,-0.0190756,0.01994,-0.0172179,0.0264516,-0.0255872,-1.20923,0.030046,0.0492046,972,1716,4.96393,-11.092
-245,-692,4.9248,11.395,-0.0154554,0.0172023,-0.0147304,0.0228647,-0.0211179,-1.20381,0.0254,0.0471503,979,1716,4.92483,-11.395
-238,-692,4.53571,12.0139,0,0,0,0,0,0,0,-1,986,1716,4.53571,-12.0139
-231,-692,4.06891,12.3153,-0.00871222,0.0117856,-0.00992205,0.0158016,-0.0127282,-1.1862,0.0165035,0.0343376,993,1716,4.0689,-12.3153
-224,-692,4.03888,12.4235,-0.00600384,0.0092034,-0.00780501,0.0124963,-0.0092967,-1.17156,0.0126273,0.0174649,1000,1716,4.0389,-12.4235
-217,-692,4.06177,12.5824,-0.00429571,0.00686944,-0.0060851,0.00954481,-0.00697108,-1.15658,0.00957397,0.0117119,1007,1716,4.06179,-12.5824
-210,-692,4.04993,12.7394,-0.00367432,0.0051886,-0.0041827,0.00685081,-0.00533653,-1.19253,0.00705445,0.0124325,1014,1716,4.04992,-12.7394
-203,-692,4.06079,12.8579,-0.00285565,0.00380874,-0.00221791,0.00447938,-0.00352629,-1.27716,0.00463298,0.0146442,1021,1716,4.06078,-12.858
-196,-692,4.06824,12.9863,-0.00198805,0.00259227,-0.000700114,0.0026969,-0.00209268,-1.42246,0.00277259,0.0170881,1028,1716,4.06828,-12.9863
-189,-692,4.02649,13.118,-0.00111925,0.00176021,0.000274875,0.00178622,-0.00114525,1.47647,0.00170592,0.00887236,1035,1716,4.0265,-13.118
-182,-692,4.01648,13.2637,-0.00067792,0.00157911,0.000813672,0.00184185,-0.000940667,1.25845,0.00163433,0.012799,1042,1716,4.01654,-13.2637
-175,-692,4.00635,13.4036,-0.000248663,0.0014268,0.00140566,0.00222542,-0.00104729,1.05412,0.00192988,0.0142661,1049,1716,4.00634,-13.4036
-168,-692,4.01855,13.5201,9.31099e-05,0.00106405,0.00167996,0.00232728,-0.00117012,0.926054,0.00205573,0.0112207,1056,1716,4.01853,-13.5202
-161,-692,4.0437,13.6532,0.000349841,0.000604915,0.00173096,0.00221303,-0.00125828,0.822172,0.00202927,0.0126524,1063,1716,4.04369,-13.6532
-154,-692,4.03296,13.7793,0.00062003,0.00016151,0.00164949,0.00205612,-0.00127458,0.716346,0.00194054,0.0134757,1070,1716,4.0329,-13.7793
-147,-692,4.02661,13.886,0.000965615,-0.0001571,0.00155713,0.00205948,-0.00125097,0.612395,0.00193019,0.011962,1077,1716,4.02661,-13.886
-140,-692,4.01343,13.9806,0.00125304,-0.000661613,0.0012416,0.00186353,-0.0012721,0.456981,0.00182106,0.00955742,1084,1716,4.01338,-13.9805
-133,-692,4.02759,14.0791,0.00165934,-0.00122171,0.00113923,0.00205537,-0.00161774,0.334567,0.00212569,0.00935631,1091,1716,4.02756,-14.0791
-126,-692,4.03931,14.1895,0.00215396,-0.00171553,0.00116445,0.00247735,-0.00203892,0.270895,0.00261156,0.00719131,1098,1716,4.03933,-14.1895
-119,-692,4.04736,14.271,0.00277637,-0.00214715,0.00125333,0.00307706,-0.00244783,0.235459,0.00319669,0.0105659,1105,1716,4.04742,-14.271
-112,-692,4.052,14.3911,0.00340591,-0.00274243,0.00139982,0.00370961,-0.00304613,0.213647,0.0039067,0.0108949,1112,1716,4.05203,-14.3911
-105,-692,4.06458,14.5072,0.00397686,-0.00310732,0.00156727,0.00430811,-0.00343856,0.208287,0.00448193,0.0145557,1119,1716,4.06455,-14.5072
-98,-692,4.07922,14.5756,0.00458344,-0.00355276,0.00180619,0.00496638,-0.00393571,0.208922,0.00515109,0.0159432,1126,1716,4.07923,-14.5756
-91,-692,4.06116,14.637,0.0050596,-0.00375348,0.00210429,0.00553626,-0.00423014,0.222758,0.00565541,0.0175443,1133,1716,4.06117,-14.637
-84,-692,4.07739,14.7225,0.00543749,-0.00368471,0.00233659,0.00600116,-0.00424838,0.236714,0.00594635,0.0198392,1140,1716,4.07734,-14.7226
-77,-692,4.07532,14.8575,0.00563435,-0.00345145,0.00237799,0.0062191,-0.0040362,0.241116,0.00596545,0.0132839,1147,1716,4.07528,-14.8575
-70,-692,4.1012,14.9487,0.00575723,-0.003448,0.00238416,0.00633808,-0.00402885,0.238973,0.00603464,0.0161914,1154,1716,4.10123,-14.9487
-63,-692,4.1283,15.0199,0.00582847,-0.00339505,0.000817306,0.00590033,-0.00346691,0.0877005,0.00546867,0.0245838,1161,1716,4.12832,-15.0198
-56,-692,4.06311,15.3475,0.00501521,-0.00358974,-0.00200291,0.00545857,-0.0040331,-0.217844,0.00550058,0.0491471,1168,1716,4.06308,-15.3476
-49,-692,4.13477,15.1432,0,0,0,0,0,0,0,-1,1175,1716,4.13482,-15.1432
-42,-692,4.15503,15.3457,0,0,0,0,0,0,0,-1,1182,1716,4.15508,-15.3458
-35,-692,4.22656,15.3433,0,0,0,0,0,0,0,-1,1189,1716,4.22661,-15.3433
-28,-692,4.12061,15.3533,0.00215246,-0.00268646,-0.0147119,0.0146425,-0.0151765,-0.7039,0.017217,0.039837,1196,1716,4.12061,-15.3532
-21,-692,4.22986,15.3175,0.00193825,-0.00307502,-0.0170148,0.01663,-0.0177668,-0.712264,0.0198626,0.0256404,1203,1716,4.22984,-15.3175
-14,-692,4.24133,15.321,0.00277335,-0.00411092,-0.0182372,0.0178904,-0.019228,-0.692124,0.0214349,0.0147971,1210,1716,4.24128,-15.3211
-7,-692,4.24182,15.3823,0.00274635,-0.00524781,-0.0185017,0.0176779,-0.0201793,-0.679014,0.0218727,0.0149538,1217,1716,4.24178,-15.3824
0,-692,4.28113,15.4463,0.00253519,-0.00643091,-0.0182148,0.0168105,-0.0207062,-0.664736,0.0216992,0.0177678,1224,1716,4.28113,-15.4463
7,-692,4.27502,15.5043,0.00224722,-0.00744609,-0.0175075,0.0155665,-0.0207654,-0.650363,0.0210477,0.0215401,1231,1716,4.27508,-15.5043
14,-692,4.35486,15.4893,0.00159005,-0.00824455,-0.0161029,0.0135097,-0.0201642,-0.637211,0.0195678,0.0239214,1238,1716,4.35488,-15.4893
21,-692,4.44543,15.437,0.000580844,-0.00851214,-0.0140374,0.0107896,-0.0187209,-0.628786,0.0172418,0.0247745,1245,1716,4.4454,-15.437
28,-692,4.41113,15.4321,-0.000603462,-0.00843828,-0.0114857,0.00761449,-0.0166562,-0.62105,0.0143332,0.0234287,1252,1716,4.41119,-15.4321
35,-692,4.39783,15.5685,-0.00194327,-0.00840545,-0.00886958,0.00426542,-0.0146141,-0.610724,0.0114329,0.0225186,1259,1716,4.39787,-15.5685
42,-692,4.46924,15.6327,-0.00347494,-0.00811611,-0.00635451,0.000969447,-0.0125605,-0.610328,0.00871481,0.021963,1266,1716,4.46922,-15.6327
49,-692,4.4646,15.5873,-0.00469639,-0.00758183,-0.00389935,-0.00198141,-0.0102968,-0.608213,0.00630865,0.0261379,1273,1716,4.46456,-15.5873
56,-692,4.39343,15.6073,-0.00549173,-0.00701651,-0.00162868,-0.00445584,-0.0080524,-0.566495,0.00465787,0.0311584,1280,1716,4.39338,-15.6073
63,-692,4.46338,15.6279,-0.00649542,-0.00617265,0.000609702,-0.00570333,-0.00696473,0.914777,0.00428503,0.0292829,1287,1716,4.46337,-15.6279
70,-692,4.50085,15.6061,-0.00734081,-0.00526365,0.0021518,-0.0039129,-0.00869156,1.01024,0.00502636,0.0245154,1294,1716,4.50088,-15.606
77,-692,4.52246,15.6533,-0.00767937,-0.00455667,0.00327421,-0.00249059,-0.00974546,1.00788,0.00584637,0.0261055,1301,1716,4.52251,-15.6533
84,-692,4.68713,15.6497,-0.00745162,-0.00313363,0.00347638,-0.00120038,-0.00938487,1.06327,0.00589732,0.0316481,1308,1716,4.68718,-15.6496
91,-692,4.63965,15.6578,-0.0075499,-0.00210469,0.00333515,-0.00052197,-0.00913262,1.12771,0.0059221,0.0313315,1315,1716,4.63959,-15.6579
98,-692,4.55933,15.6423,-0.00643474,-0.000681313,0.00313634,0.00069781,-0.00781386,1.15652,0.00545673,0.0265169,1322,1716,4.55929,-15.6424
105,-692,4.60071,15.6333,-0.00535195,0.00061268,0.00293813,0.00181687,-0.00655614,1.18183,0.00508574,0.0324589,1329,1716,4.60073,-15.6333
112,-692,4.6001,15.6617,-0.00446215,0.00195925,0.00298353,0.00313148,-0.00563437,1.19643,0.00512927,0.036577,1336,1716,4.60008,-15.6618
119,-692,4.55444,15.6541,-0.00347874,0.00296226,0.00281639,0.00402004,-0.00453652,1.21152,0.00494313,0.0292772,1343,1716,4.55442,-15.6541
126,-692,4.59424,15.6167,-0.0024941,0.00362078,0.00286879,0.00475594,-0.00362926,1.19401,0.00485574,0.0262347,1350,1716,4.59419,-15.6167
133,-692,4.62317,15.5968,-0.00161017,0.00437697,0.00306152,0.00566526,-0.00289846,1.17249,0.00502955,0.0213091,1357,1716,4.62323,-15.5968
140,-692,4.64612,15.6482,-0.000706449,0.00570199,0.00354777,0.00727832,-0.00228278,1.15268,0.0057658,0.0263381,1364,1716,4.64615,-15.6482
147,-692,4.71362,15.6943,0.000199992,0.00666717,0.00415525,0.00869877,-0.00183161,1.11605,0.00649636,0.0282198,1371,1716,4.71367,-15.6943
154,-692,4.74451,15.6338,0.000640877,0.00699492,0.00450043,0.00932674,-0.00169094,1.09275,0.00685138,0.0252414,1378,1716,4.74447,-15.6338
161,-692,4.91309,15.5701,0.000867184,0.00751212,0.00442001,0.00971914,-0.00133984,1.10769,0.0069691,0.0392002,1385,1716,4.91304,-15.5701
168,-692,5.05896,15.5219,0,0,0,0,0,0,0,-1,1392,1716,5.05901,-15.5219
175,-692,4.73596,15.4539,0,0,0,0,0,0,0,-1,1399,1716,4.73592,-15.4539
182,-692,4.72339,15.4066,0,0,0,0,0,0,0,-1,1406,1716,4.72339,-15.4066
189,-692,4.74158,15.3967,0,0,0,0,0,0,0,-1,1413,1716,4.74156,-15.3968
196,-692,4.75769,15.3193,0.00162967,0.00244774,0.00148603,0.00358001,0.000497407,0.919699,0.00223936,0.0238613,1420,1716,4.75775,-15.3194
203,-692,4.73376,15.266,0.000892717,0.001659,0.000918893,0.00227143,0.000280288,0.982919,0.00143004,0.0160316,1427,1716,4.73382,-15.266
210,-692,4.76416,15.2142,0.000563607,0.00127073,0.000651079,0.00165805,0.000176283,1.03414,0.00105154,0.0158524,1434,1716,4.76416,-15.2143
217,-692,4.76245,15.149,0.000274883,0.000794106,0.00036202,0.000979979,8.90099e-05,1.09646,0.000625763,0.0161802,1441,1716,4.76251,-15.1491
224,-692,4.76868,15.0917,0.00015916,0.000341363,0.000479773,0.000738607,-0.000238084,0.879223,0.000588057,0.0131834,1448,1716,4.76867,-15.0917
231,-692,4.77209,15.0098,0.000258156,0.000225748,0.000553569,0.000795758,-0.000311854,0.770767,0.000659509,0.0112296,1455,1716,4.77214,-15.0098
238,-692,4.76868,14.8491,0.000375083,0.000104459,0.000662488,0.000915937,-0.000436395,0.68466,0.000796964,0.016299,1462,1716,4.76866,-14.8492
245,-692,4.7561,14.7905,0.000307559,2.21421e-05,0.000673048,0.000852861,-0.00052316,0.680929,0.000802012,0.0193247,1469,1716,4.7561,-14.7905
252,-692,4.78406,14.7897,0.000262031,-4.63744e-05,0.000626721,0.000753241,-0.000537584,0.664771,0.000748717,0.0173066,1476,1716,4.78408,-14.7897
259,-692,4.79724,14.7139,0.000255489,-1.18088e-05,0.000593439,0.000730142,-0.000486462,0.674641,0.000707088,0.00929075,1483,1716,4.79722,-14.7139
266,-692,4.80042,14.632,0.000229279,5.5874e-05,0.000571996,0.000721106,-0.000435953,0.710181,0.000674757,0.0088951,1490,1716,4.80041,-14.6319
273,-692,4.80396,14.5079,0.000190577,0.000580185,0.000452913,0.000878412,-0.000107649,0.988495,0.000624591,0.0129743,1497,1716,4.8039,-14.5079
280,-692,4.8208,14.4104,0.000146047,0.00118945,0.000317564,0.00127851,5.69955e-05,1.2974,0.000833988,0.013537,1504,1716,4.82076,-14.4104
287,-692,4.81018,14.3353,0.000153117,0.00188366,0.000170991,0.00190039,0.000136383,1.47325,0.001224,0.0105632,1511,1716,4.8102,-14.3354
294,-692,4.80237,14.2457,0.000190834,0.00245097,-3.69251e-06,0.00245098,0.000190828,-1.56916,0.00157424,0.0104737,1518,1716,4.80234,-14.2458
301,-692,4.79382,14.1344,0.000189908,0.00297894,-0.000181103,0.00299065,0.000178198,-1.50622,0.0019371,0.0140559,1525,1716,4.79387,-14.1344
308,-692,4.77795,14.0217,0.000226414,0.00343474,-0.000232446,0.00345149,0.00020966,-1.49885,0.00223439,0.0169337,1532,1716,4.77791,-14.0218
315,-692,4.80371,13.9091,0.000500713,0.00395007,-0.000106484,0.00395335,0.000497428,-1.53996,0.0024864,0.015703,1539,1716,4.80376,-13.909
322,-692,4.8103,13.7755,0.0011977,0.00444136,0.00073009,0.00459811,0.00104095,1.3593,0.00278407,0.0194315,1546,1716,4.81035,-13.7755
329,-692,4.80066,13.663,0.00230375,0.00425965,0.00253243,0.00599639,0.000567005,0.969662,0.00382264,0.0157089,1553,1716,4.80063,-13.663
336,-692,4.79382,13.5457,0.00330869,0.00410734,0.00397095,0.00769899,-0.000282969,0.83551,0.00522954,0.0113356,1560,1716,4.79377,-13.5456
343,-692,4.8064,13.4176,0.00462404,0.00392249,0.00569449,0.00997855,-0.00143202,0.754637,0.00717748,0.0123908,1567,1716,4.80638,-13.4176
350,-692,4.79358,13.2832,0.0060659,0.00352862,0.0077802,0.0126802,-0.0030857,0.704579,0.00964796,0.0132221,1574,1716,4.79359,-13.2832
357,-692,4.7771,13.1714,0.00770653,0.00308368,0.0102217,0.0158749,-0.0050847,0.674204,0.0126243,0.01625,1581,1716,4.77705,-13.1714
364,-692,4.78943,13.0118,0.00958322,0.00237506,0.0127553,0.0192338,-0.00727552,0.647709,0.0158157,0.022603,1588,1716,4.78947,-13.0118
371,-692,4.88403,12.8496,0.0115521,0.00147322,0.0152063,0.0225323,-0.00950693,0.625391,0.0190006,0.0336885,1595,1716,4.88405,-12.8496
378,-692,4.31689,13.0366,0,0,0,0,0,0,0,-1,1602,1716,4.31691,-13.0366
385,-692,4.53662,12.8597,0,0,0,0,0,0,0,-1,1609,1716,4.53665,-12.8598
392,-692,4.90259,12.2501,0,0,0,0,0,0,0,-1,1616,1716,4.90262,-12.2501
399,-692,5.2627,10.4279,0,0,0,0,0,0,0,-1,1623,1716,5.26267,-10.4278
406,-692,4.73633,10.6808,0,0,0,0,0,0,0,-1,1630,1716,4.73637,-10.6808
413,-692,4.25085,10.5685,0,0,0,0,0,0,0,-1,1637,1716,4.2508,-10.5685
420,-692,5.48901,10.4845,0,0,0,0,0,0,0,-1,1644,1716,5.48906,-10.4845
427,-692,3.79578,8.60339,0,0,0,0,0,0,0,-1,1651,1716,3.79577,-8.6034
434,-692,4.78516,8.64636,0,0,0,0,0,0,0,-1,1658,1716,4.78512,-8.64634
441,-692,5.8208,8.74036,0,0,0,0,0,0,0,-1,1665,1716,5.82084,-8.7404
448,-692,6.73792,8.51013,0,0,0,0,0,0,0,-1,1672,1716,6.73793,-8.5101
455,-692,0,0,0,0,0,0,0,0,0,-1,1679,1716,0,0
462,-692,0,0,0,0,0,0,0,0,0,-1,1686,1716,0,0
469,-692,0,0,0,0,0,0,0,0,0,-1,1693,1716,0,0
476,-692,0,0,0,0,0,0,0,0,0,-1,1700,1716,0,0
483,-692,0,0,0,0,0,0,0,0,0,-1,1707,1716,0,0
490,-692,0,0,0,0,0,0,0,0,0,-1,1714,1716,0,0
497,-692,0,0,0,0,0,0,0,0,0,-1,1721,1716,0,0
504,-692,0,0,0,0,0,0,0,0,0,-1,1728,1716,0,0
511,-692,0,0,0,0,0,0,0,0,0,-1,1735,1716,0,0
518,-692,0,0,0,0,0,0,0,0,0,-1,1742,1716,0,0
525,-692,0,0,0,0,0,0,0,0,0,-1,1749,1716,0,0
532,-692,0,0,0,0,0,0,0,0,0,-1,1756,1716,0,0
539,-692,0,0,0,0,0,0,0,0,0,-1,1763,1716,0,0
546,-692,0,0,0,0,0,0,0,0,0,-1,1770,1716,0,0
553,-692,0,0,0,0,0,0,0,0,0,-1,1777,1716,0,0
560,-692,0,0,0,0,0,0,0,0,0,-1,1784,1716,0,0
567,-692,0,0,0,0,0,0,0,0,0,-1,1791,1716,0,0
574,-692,0,0,0,0,0,0,0,0,0,-1,1798,1716,0,0
581,-692,0,0,0,0,0,0,0,0,0,-1,1805,1716,0,0
588,-692,0,0,0,0,0,0,0,0,0,-1,1812,1716,0,0
595,-692,0,0,0,0,0,0,0,0,0,-1,1819,1716,0,0
602,-692,0,0,0,0,0,0,0,0,0,-1,1826,1716,0,0
609,-692,0,0,0,0,0,0,0,0,0,-1,1833,1716,0,0
616,-692,0,0,0,0,0,0,0,0,0,-1,1840,1716,0,0
623,-692,0,0,0,0,0,0,0,0,0,-1,1847,1716,0,0
630,-692,0,0,0,0,0,0,0,0,0,-1,1854,1716,0,0
637,-692,0,0,0,0,0,0,0,0,0,-1,1861,1716,0,0
644,-692,0,0,0,0,0,0,0,0,0,-1,1868,1716,0,0
651,-692,0,0,0,0,0,0,0,0,0,-1,1875,1716,0,0
658,-692,0,0,0,0,0,0,0,0,0,-1,1882,1716,0,0
665,-692,0,0,0,0,0,0,0,0,0,-1,1889,1716,0,0
672,-692,0,0,0,0,0,0,0,0,0,-1,1896,1716,0,0
679,-692,0,0,0,0,0,0,0,0,0,-1,1903,1716,0,0
686,-692,0,0,0,0,0,0,0,0,0,-1,1910,1716,0,0
693,-692,0,0,0,0,0,0,0,0,0,-1,1917,1716,0,0
700,-692,0,0,0,0,0,0,0,0,0,-1,1924,1716,0,0
707,-692,0,0,0,0,0,0,0,0,0,-1,1931,1716,0,0
714,-692,0,0,0,0,0,0,0,0,0,-1,1938,1716,0,0
721,-692,0,0,0,0,0,0,0,0,0,-1,1945,1716,0,0
728,-692,0,0,0,0,0,0,0,0,0,-1,1952,1716,0,0
735,-692,0,0,0,0,0,0,0,0,0,-1,1959,1716,0,0
742,-692,0,0,0,0,0,0,0,0,0,-1,1966,1716,0,0
749,-692,0,0,0,0,0,0,0,0,0,-1,1973,1716,0,0
756,-692,0,0,0,0,0,0,0,0,0,-1,1980,1716,0,0
763,-692,0,0,0,0,0,0,0,0,0,-1,1987,1716,0,0
770,-692,0,0,0,0,0,0,0,0,0,-1,1994,1716,0,0
777,-692,0,0,0,0,0,0,0,0,0,-1,2001,1716,0,0
784,-692,0,0,0,0,0,0,0,0,0,-1,2008,1716,0,0
791,-692,0,0,0,0,0,0,0,0,0,-1,2015,1716,0,0
798,-692,0,0,0,0,0,0,0,0,0,-1,2022,1716,0,0
805,-692,0,0,0,0,0,0,0,0,0,-1,2029,1716,0,0
812,-692,0,0,0,0,0,0,0,0,0,-1,2036,1716,0,0
-700,-699,0,0,0,0,0,0,0,0,0,-1,524,1723,0,0
-693,-699,0,0,0,0,0,0,0,0,0,-1,531,1723,0,0
-686,-699,0,0,0,0,0,0,0,0,0,-1,538,1723,0,0
-679,-699,0,0,0,0,0,0,0,0,0,-1,545,1723,0,0
-672,-699,0,0,0,0,0,0,0,0,0,-1,552,1723,0,0
-665,-699,0,0,0,0,0,0,0,0,0,-1,559,1723,0,0
-658,-699,0,0,0,0,0,0,0,0,0,-1,566,1723,0,0
-651,-699,0,0,0,0,0,0,0,0,0,-1,573,1723,0,0
-644,-699,0,0,0,0,0,0,0,0,0,-1,580,1723,0,0
-637,-699,0,0,0,0,0,0,0,0,0,-1,587,1723,0,0
-630,-699,0,0,0,0,0,0,0,0,0,-1,594,1723,0,0
-623,-699,0,0,0,0,0,0,0,0,0,-1,601,1723,0,0
-616,-699,0,0,0,0,0,0,0,0,0,-1,608,1723,0,0
-609,-699,0,0,0,0,0,0,0,0,0,-1,615,1723,0,0
-602,-699,0,0,0,0,0,0,0,0,0,-1,622,1723,0,0
-595,-699,0,0,0,0,0,0,0,0,0,-1,629,1723,0,0
-588,-699,0,0,0,0,0,0,0,0,0,-1,636,1723,0,0
-581,-699,0,0,0,0,0,0,0,0,0,-1,643,1723,0,0
-574,-699,0,0,0,0,0,0,0,0,0,-1,650,1723,0,0
-567,-699,0,0,0,0,0,0,0,0,0,-1,657,1723,0,0
-560,-699,0,0,0,0,0,0,0,0,0,-1,664,1723,0,0
-553,-699,0,0,0,0,0,0,0,0,0,-1,671,1723,0,0
-546,-699,0,0,0,0,0,0,0,0,0,-1,678,1723,0,0
-539,-699,0,0,0,0,0,0,0,0,0,-1,685,1723,0,0
-532,-699,0,0,0,0,0,0,0,0,0,-1,692,1723,0,0
-525,-699,0,0,0,0,0,0,0,0,0,-1,699,1723,0,0
-518,-699,0,0,0,0,0,0,0,0,0,-1,706,1723,0,0
-511,-699,0,0,0,0,0,0,0,0,0,-1,713,1723,0,0
-504,-699,0,0,0,0,0,0,0,0,0,-1,720,1723,0,0
-497,-699,0,0,0,0,0,0,0,0,0,-1,727,1723,0,0
-490,-699,0,0,0,0,0,0,0,0,0,-1,734,1723,0,0
-483,-699,0,0,0,0,0,0,0,0,0,-1,741,1723,0,0
-476,-699,0,0,0,0,0,0,0,0,0,-1,748,1723,0,0
-469,-699,0,0,0,0,0,0,0,0,0,-1,755,1723,0,0
-462,-699,0,0,0,0,0,0,0,0,0,-1,762,1723,0,0
-455,-699,0,0,0,0,0,0,0,0,0,-1,769,1723,0,0
-448,-699,0,0,0,0,0,0,0,0,0,-1,776,1723,0,0
-441,-699,0,0,0,0,0,0,0,0,0,-1,783,1723,0,0
-434,-699,0,0,0,0,0,0,0,0,0,-1,790,1723,0,0
-427,-699,0,0,0,0,0,0,0,0,0,-1,797,1723,0,0
-420,-699,0,0,0,0,0,0,0,0,0,-1,804,1723,0,0
-413,-699,0,0,0,0,0,0,0,0,0,-1,811,1723,0,0
-406,-699,0,0,0,0,0,0,0,0,0,-1,818,1723,0,0
-399,-699,0,0,0,0,0,0,0,0,0,-1,825,1723,0,0
-392,-699,0,0,0,0,0,0,0,0,0,-1,832,1723,0,0
-385,-699,0,0,0,0,0,0,0,0,0,-1,839,1723,0,0
-378,-699,0,0,0,0,0,0,0,0,0,-1,846,1723,0,0
-371,-699,0,0,0,0,0,0,0,0,0,-1,853,1723,0,0
-364,-699,0,0,0,0,0,0,0,0,0,-1,860,1723,0,0
-357,-699,0,0,0,0,0,0,0,0,0,-1,867,1723,0,0
-350,-699,0,0,0,0,0,0,0,0,0,-1,874,1723,0,0
-343,-699,0,0,0,0,0,0,0,0,0,-1,881,1723,0,0
-336,-699,0,0,0,0,0,0,0,0,0,-1,888,1723,0,0
-329,-699,0,0,0,0,0,0,0,0,0,-1,895,1723,0,0
-322,-699,0,0,0,0,0,0,0,0,0,-1,902,1723,0,0
-315,-699,4.27734,16.1066,0,0,0,0,0,0,0,-1,909,1723,4.27737,-16.1066
-308,-699,4.55981,14.3354,0,0,0,0,0,0,0,-1,916,1723,4.55981,-14.3355
-301,-699,4.72729,12.8752,0,0,0,0,0,0,0,-1,923,1723,4.72732,-12.8752
-294,-699,6.0799,10.2083,0,0,0,0,0,0,0,-1,930,1723,6.07988,-10.2082
-287,-699,5.6106,10.507,0,0,0,0,0,0,0,-1,937,1723,5.61062,-10.5069
-280,-699,5.25269,10.8256,0,0,0,0,0,0,0,-1,944,1723,5.25268,-10.8256
-273,-699,4.26715,10.7749,0,0,0,0,0,0,0,-1,951,1723,4.26715,-10.7749
-266,-699,4.07611,10.6433,0,0,0,0,0,0,0,-1,958,1723,4.0761,-10.6433
-259,-699,5.67737,10.8545,0,0,0,0,0,0,0,-1,965,1723,5.67736,-10.8545
-252,-699,5.83777,10.5712,0,0,0,0,0,0,0,-1,972,1723,5.83777,-10.5712
-245,-699,5.73975,10.9399,0,0,0,0,0,0,0,-1,979,1723,5.73974,-10.94
-238,-699,5.06,11.9653,0,0,0,0,0,0,0,-1,986,1723,5.06002,-11.9653
-231,-699,4.5199,12.5712,-0.0113977,0.0142572,-0.0127867,0.0195417,-0.0166822,-1.17889,0.0209356,0.0429043,993,1723,4.51987,-12.5712
-224,-699,4.35455,12.4517,-0.00783664,0.0111515,-0.00986415,0.0153482,-0.0120334,-1.16854,0.0158474,0.035096,1000,1723,4.35456,-12.4517
-217,-699,4.24335,12.5551,-0.00551251,0.00837537,-0.00744069,0.011609,-0.0087461,-1.16084,0.0117907,0.0235909,1007,1723,4.24337,-12.555
-210,-699,4.21368,12.7062,-0.00462528,0.00642519,-0.00484185,0.0082465,-0.00644659,-1.21101,0.00850425,0.0164454,1014,1723,4.21371,-12.7062
-203,-699,4.22485,12.8192,-0.00355551,0.00486585,-0.00229135,0.00544893,-0.00413859,-1.32162,0.00555256,0.0198508,1021,1723,4.22491,-12.8192
-196,-699,4.20874,12.9435,-0.0024137,0.00353245,-0.000382144,0.00355691,-0.00243816,-1.50688,0.00348128,0.01694,1028,1723,4.20877,-12.9435
-189,-699,4.16138,13.1299,-0.00131794,0.00270415,0.000754111,0.0028409,-0.00145468,1.39142,0.00252273,0.00863885,1035,1723,4.16144,-13.1299
-182,-699,4.1604,13.2598,-0.000892277,0.0026577,0.00130414,0.0030853,-0.00131987,1.25397,0.00261052,0.0109352,1042,1723,4.16036,-13.2598
-175,-699,4.1593,13.3895,-0.000499786,0.00253732,0.00197524,0.00351027,-0.00147274,1.11311,0.00295602,0.0137537,1049,1723,4.15933,-13.3895
-168,-699,4.16968,13.5253,-0.000143081,0.00220782,0.0021884,0.00351647,-0.00145174,1.03185,0.00294981,0.0151585,1056,1723,4.16964,-13.5253
-161,-699,4.17017,13.6487,8.38941e-05,0.00174709,0.00212663,0.00319894,-0.00136795,0.971778,0.00270641,0.0128784,1063,1723,4.17012,-13.6486
-154,-699,4.14844,13.7623,0.000294031,0.00134676,0.00191693,0.00280828,-0.00116748,0.91939,0.00235967,0.0122373,1070,1723,4.14838,-13.7624
-147,-699,4.14282,13.8771,0.000622215,0.00106213,0.00175792,0.0026138,-0.000929455,0.847637,0.00212135,0.013269,1077,1723,4.14276,-13.8771
-140,-699,4.12195,13.9723,0.000752005,0.000598443,0.00130323,0.00198071,-0.000630262,0.755974,0.00157322,0.00926288,1084,1723,4.12192,-13.9723
-133,-699,4.12915,14.0831,0.00097885,0.000130103,0.00110502,0.00173819,-0.000629232,0.602062,0.00141593,0.00871378,1091,1723,4.12911,-14.0832
-126,-699,4.15222,14.1807,0.0013281,-0.000286334,0.00107176,0.00186262,-0.00082086,0.462635,0.00158775,0.0106875,1098,1723,4.15218,-14.1806
-119,-699,4.15601,14.2863,0.00177185,-0.000623238,0.00114636,0.0022321,-0.00108348,0.381783,0.00195216,0.0155649,1105,1723,4.15603,-14.2862
-112,-699,4.14905,14.3855,0.00225624,-0.00112445,0.00128247,0.00268768,-0.00155589,0.324524,0.0024789,0.0116828,1112,1723,4.14899,-14.3855
-105,-699,4.15039,14.5148,0.00265358,-0.00144217,0.00139482,0.00308347,-0.00187206,0.298966,0.00288943,0.0126747,1119,1723,4.15038,-14.5148
-98,-699,4.16003,14.5836,0.00297558,-0.00181935,0.00152261,0.00341821,-0.00226199,0.282912,0.00330204,0.0146208,1126,1723,4.16005,-14.5837
-91,-699,4.16455,14.6462,0.00324492,-0.00197931,0.00168832,0.00374304,-0.00247743,0.2869,0.00361608,0.0194403,1133,1723,4.16452,-14.6462
-84,-699,4.17383,14.7544,0.0034402,-0.00195817,0.00182996,0.00400205,-0.00252002,0.297892,0.00379779,0.0222111,1140,1723,4.17387,-14.7544
-77,-699,4.16626,14.8436,0.00356802,-0.00181193,0.00183333,0.00413335,-0.00237727,0.299115,0.00380421,0.0154637,1147,1723,4.16621,-14.8436
-70,-699,4.16248,14.925,0.00364667,-0.00174458,0.00177133,0.00417657,-0.00227449,0.29068,0.0037781,0.0170188,1154,1723,4.1625,-14.9251
-63,-699,4.18457,14.993,0.00376845,-0.00165387,0.000872755,0.00390546,-0.00179089,0.155718,0.00336347,0.0142691,1161,1723,4.18459,-14.993
-56,-699,4.17737,15.0662,0.00349141,-0.00190269,-0.000471484,0.00353231,-0.00194359,-0.0865329,0.00320556,0.0101913,1168,1723,4.1774,-15.0662
-49,-699,4.19446,15.1465,0.00269161,-0.00188832,-0.00201425,0.00345142,-0.00264813,-0.360715,0.00353174,0.0218095,1175,1723,4.19445,-15.1465
-42,-699,4.21887,15.224,0.00259645,-0.00228174,-0.00391227,0.00476767,-0.00445297,-0.506657,0.00532457,0.0241629,1182,1723,4.21883,-15.224
-35,-699,4.23389,15.259,0.002735,-0.00250423,-0.00573742,0.00642255,-0.00619178,-0.57124,0.00728329,0.0227624,1189,1723,4.23387,-15.2591
-28,-699,4.26587,15.3221,0.00279113,-0.00283915,-0.00763714,0.00811545,-0.00816348,-0.608819,0.00939866,0.017326,1196,1723,4.2659,-15.3222
-21,-699,4.26636,15.3378,0.00284795,-0.00363168,-0.00902531,0.00919733,-0.00998105,-0.613076,0.0110757,0.0118808,1203,1723,4.26633,-15.3377
-14,-699,4.24878,15.3877,0.00277209,-0.00496365,-0.00990306,0.00953583,-0.0117274,-0.599221,0.012298,0.0110439,1210,1723,4.24883,-15.3877
-7,-699,4.25916,15.4474,0.00251964,-0.00612487,-0.0101485,0.00922802,-0.0128332,-0.584082,0.0127936,0.008905,1217,1723,4.25918,-15.4474
0,-699,4.2959,15.4839,0.00202618,-0.00731823,-0.00998712,0.00837995,-0.013672,-0.56661,0.0128533,0.0100566,1224,1723,4.29586,-15.4839
7,-699,4.2959,15.5447,0.00141091,-0.0083672,-0.00949471,0.00720139,-0.0141577,-0.54764,0.0125478,0.015001,1231,1723,4.29588,-15.5447
14,-699,4.31653,15.5601,0.00065061,-0.00924559,-0.00861212,0.00563489,-0.0142299,-0.52465,0.0118214,0.0167453,1238,1723,4.31656,-15.56
21,-699,4.35449,15.5609,-0.000363995,-0.00969388,-0.00731467,0.00364667,-0.0137045,-0.50154,0.0105638,0.016225,1245,1723,4.35448,-15.561
28,-699,4.37134,15.5886,-0.00145742,-0.00980602,-0.0056983,0.00143195,-0.0126954,-0.469278,0.00897905,0.0158975,1252,1723,4.37136,-15.5886
35,-699,4.40527,15.6565,-0.00256512,-0.00982591,-0.00406523,-0.000745205,-0.0116458,-0.420921,0.00752779,0.0140354,1259,1723,4.4053,-15.6564
42,-699,4.41992,15.6567,-0.00373463,-0.00953876,-0.00250482,-0.00280315,-0.0104702,-0.35603,0.00625865,0.0130495,1266,1723,4.41995,-15.6567
49,-699,4.40515,15.6531,-0.00456578,-0.00898066,-0.00107187,-0.00431931,-0.00922713,-0.226019,0.0053309,0.0149476,1273,1723,4.40511,-15.653
56,-699,4.40808,15.6968,-0.00492932,-0.00833167,0.00021843,-0.00491536,-0.00834563,0.0638504,0.00484371,0.0153416,1280,1723,4.40814,-15.6967
63,-699,4.44373,15.7032,-0.0053909,-0.00743688,0.00152223,-0.00457985,-0.00824792,0.489543,0.00477163,0.0127101,1287,1723,4.44373,-15.7033
70,-699,4.45862,15.7091,-0.00573729,-0.00647563,0.00231964,-0.00375763,-0.0084553,0.706486,0.00489171,0.0105619,1294,1723,4.45857,-15.7091
77,-699,4.45837,15.7107,-0.00571079,-0.00561885,0.00284035,-0.0028241,-0.00850554,0.79349,0.00500219,0.010418,1301,1723,4.45835,-15.7107
84,-699,4.46069,15.6964,-0.00527087,-0.0041949,0.00279375,-0.00188781,-0.00757796,0.880517,0.00455503,0.012924,1308,1723,4.46068,-15.6964
91,-699,4.49097,15.6974,-0.00460338,-0.00308146,0.00267874,-0.00105769,-0.00662715,0.92379,0.00411114,0.0127662,1315,1723,4.49099,-15.6974
98,-699,4.50208,15.7197,-0.00381588,-0.00190563,0.00256771,-0.000121162,-0.00560036,0.963456,0.00369385,0.0112789,1322,1723,4.50211,-15.7198
105,-699,4.49878,15.7223,-0.00303297,-0.000842637,0.00243988,0.000736597,-0.0046122,0.996351,0.00334746,0.0167615,1329,1723,4.49881,-15.7223
112,-699,4.5033,15.7225,-0.00241772,0.000289585,0.00250483,0.00178313,-0.00391127,1.03313,0.00336332,0.0231731,1336,1723,4.5033,-15.7225
119,-699,4.51465,15.7042,-0.0018943,0.00112842,0.00245701,0.00250169,-0.00326758,1.06113,0.00334066,0.0159955,1343,1723,4.5146,-15.7042
126,-699,4.54492,15.6831,-0.00120431,0.00175193,0.00249781,0.00317621,-0.00262859,1.05257,0.00335637,0.0169166,1350,1723,4.54494,-15.6831
133,-699,4.5957,15.663,-0.000522755,0.00237428,0.00256389,0.00387054,-0.00201902,1.04253,0.00345589,0.0151866,1357,1723,4.59574,-15.663
140,-699,4.65002,15.6453,0.000108571,0.00318289,0.00277668,0.0048195,-0.00152804,1.0382,0.00382546,0.0158029,1364,1723,4.64996,-15.6452
147,-699,4.63025,15.6483,0.000755372,0.00379676,0.00312503,0.00575145,-0.00119932,1.01184,0.00429032,0.0126539,1371,1723,4.63024,-15.6483
154,-699,4.61694,15.6127,0.00105407,0.00412019,0.0033065,0.00623174,-0.00105749,1.00247,0.00454815,0.0132368,1378,1723,4.61689,-15.6127
161,-699,4.61707,15.5618,0.00117119,0.00461681,0.00321177,0.00653866,-0.000750661,1.03157,0.00462966,0.0101887,1385,1723,4.61709,-15.5618
168,-699,4.63831,15.5176,0.00130887,0.00452196,0.00277906,0.00612542,-0.000294594,1.04747,0.00418527,0.0113229,1392,1723,4.63825,-15.5176
175,-699,4.66467,15.4667,0.00128026,0.00410632,0.00239261,0.00547199,-8.54179e-05,1.05213,0.0036768,0.0131872,1399,1723,4.66464,-15.4666
182,-699,4.67615,15.4359,0.00133057,0.00383191,0.0018435,0.00480894,0.000353537,1.08345,0.00309485,0.0136573,1406,1723,4.6762,-15.436
189,-699,4.66919,15.396,0.00155442,0.00205294,0.00147789,0.00330244,0.000304917,0.868943,0.00210735,0.0167787,1413,1723,4.66918,-15.396
196,-699,4.68103,15.3285,0.000994341,0.0020841,0.000964593,0.00264707,0.00043137,1.0425,0.00163995,0.0166303,1420,1723,4.68102,-15.3285
203,-699,4.6709,15.2699,0.000506404,0.00156204,0.000530867,0.00178283,0.000285615,1.17666,0.00110571,0.0128847,1427,1723,4.67093,-15.2699
210,-699,4.66589,15.2043,0.000314084,0.00128,0.000300728,0.00136597,0.000228108,1.29233,0.00084494,0.0122782,1434,1723,4.66589,-15.2043
217,-699,4.68774,15.142,0.000171103,0.000936279,3.88058e-05,0.000938242,0.00016914,1.52025,0.000577432,0.0133524,1441,1723,4.68779,-15.1419
224,-699,4.71692,15.0856,0.000176116,0.000595307,3.76525e-05,0.000598662,0.000172761,1.48192,0.000355789,0.0154245,1448,1723,4.71695,-15.0856
231,-699,4.72913,15.0083,0.000262452,0.000435871,1.78314e-05,0.000437685,0.000260638,1.46939,0.000254229,0.0119804,1455,1723,4.72916,-15.0083
238,-699,4.70129,14.9058,0.000358085,0.000311437,2.96134e-05,0.000372457,0.000297066,0.45183,0.000227379,0.0106212,1462,1723,4.70132,-14.9057
245,-699,4.70154,14.8267,0.00039946,0.000239195,2.72981e-05,0.000403982,0.000234673,0.164166,0.000234255,0.0123108,1469,1723,4.70159,-14.8267
252,-699,4.70483,14.7689,0.000410885,0.000256591,-2.87049e-05,0.000416052,0.000251424,-0.178104,0.000241944,0.010181,1476,1723,4.70489,-14.7689
259,-699,4.70947,14.7117,0.000400536,0.000481562,-9.22829e-05,0.000541833,0.000340265,-0.992234,0.000316225,0.0104856,1483,1723,4.7095,-14.7117
266,-699,4.70239,14.6296,0.000361268,0.000871786,-0.00015017,0.000912683,0.000320371,-1.30491,0.000534678,0.0123011,1490,1723,4.70245,-14.6297
273,-699,4.70618,14.5248,0.000293702,0.00167849,-0.000274577,0.00173095,0.000241246,-1.38203,0.00108255,0.0106684,1497,1723,4.70619,-14.5248
280,-699,4.71924,14.4197,0.000225671,0.00250651,-0.000384819,0.00256969,0.000162495,-1.40808,0.00166161,0.01128,1504,1723,4.71926,-14.4197
287,-699,4.72046,14.3191,0.000232233,0.00341435,-0.000498963,0.00349075,0.000155829,-1.41885,0.002277,0.0102541,1511,1723,4.72048,-14.3191
294,-699,4.71948,14.2227,0.000256631,0.00414675,-0.00063538,0.0042479,0.000155483,-1.41293,0.00278155,0.0107622,1518,1723,4.71945,-14.2226
301,-699,4.71509,14.1179,0.000233029,0.004859,-0.000756733,0.00497965,0.000112387,-1.4127,0.00328294,0.0132024,1525,1723,4.71509,-14.1179
308,-699,4.72009,14.0265,0.000260985,0.00541685,-0.000690621,0.00550775,0.00017008,-1.43992,0.00361648,0.0178907,1532,1723,4.72006,-14.0265
315,-699,4.75,13.9241,0.000618109,0.00611896,-0.000393779,0.00614701,0.000590063,-1.49969,0.00391616,0.0198261,1539,1723,4.75004,-13.924
322,-699,4.70728,13.7896,0.00158309,0.00672168,0.000974746,0.00690037,0.0014044,1.38949,0.00421091,0.0190762,1546,1723,4.7073,-13.7895
329,-699,4.65576,13.6569,0.00309841,0.00633428,0.00379952,0.008846,0.00058669,0.986684,0.00571182,0.0136113,1553,1723,4.65581,-13.6568
336,-699,4.68359,13.5377,0.00449581,0.00605796,0.00602761,0.0113549,-0.000801118,0.849831,0.0078506,0.0118799,1560,1723,4.68358,-13.5377
343,-699,4.71606,13.4159,0.00626699,0.00566626,0.00871851,0.0146903,-0.00275706,0.768179,0.0108302,0.0161591,1567,1723,4.71602,-13.4159
350,-699,4.68701,13.3073,0.00822749,0.00501591,0.0119449,0.018674,-0.00543064,0.718582,0.0146002,0.0266429,1574,1723,4.68706,-13.3073
357,-699,4.62122,13.2382,0.0104616,0.00430555,0.0156494,0.0233328,-0.00856567,0.688295,0.0190631,0.0352018,1581,1723,4.62119,-13.2382
364,-699,4.71655,12.9695,0.012975,0.00330678,0.0195097,0.0282406,-0.0119588,0.663954,0.0238352,0.0391366,1588,1723,4.71657,-12.9695
371,-699,4.88977,12.7185,0,0,0,0,0,0,0,-1,1595,1723,4.88983,-12.7185
378,-699,6.21191,13.4814,0,0,0,0,0,0,0,-1,1602,1723,6.21187,-13.4815
385,-699,4.06689,12.9968,0,0,0,0,0,0,0,-1,1609,1723,4.06694,-12.9969
392,-699,4.98376,12.5409,0,0,0,0,0,0,0,-1,1616,1723,4.98372,-12.5409
399,-699,3.91516,9.81726,0,0,0,0,0,0,0,-1,1623,1723,3.9152,-9.81721
406,-699,5.50757,21.6672,0,0,0,0,0,0,0,-1,1630,1723,5.50755,-21.6672
413,-699,4.92773,3.5918,0,0,0,0,0,0,0,-1,1637,1723,4.92777,-3.59182
420,-699,2.15076,7.65527,0,0,0,0,0,0,0,-1,1644,1723,2.15079,-7.65522
427,-699,3.36328,8.2428,0,0,0,0,0,0,0,-1,1651,1723,3.36332,-8.24283
434,-699,4.66455,8.90222,0,0,0,0,0,0,0,-1,1658,1723,4.66456,-8.90223
441,-699,0,0,0,0,0,0,0,0,0,-1,1665,1723,0,0
448,-699,0,0,0,0,0,0,0,0,0,-1,1672,1723,0,0
455,-699,0,0,0,0,0,0,0,0,0,-1,1679,1723,0,0
462,-699,0,0,0,0,0,0,0,0,0,-1,1686,1723,0,0
469,-699,0,0,0,0,0,0,0,0,0,-1,1693,1723,0,0
476,-699,0,0,0,0,0,0,0,0,0,-1,1700,1723,0,0
483,-699,0,0,0,0,0,0,0,0,0,-1,1707,1723,0,0
490,-699,0,0,0,0,0,0,0,0,0,-1,1714,1723,0,0
497,-699,0,0,0,0,0,0,0,0,0,-1,1721,1723,0,0
504,-699,0,0,0,0,0,0,0,0,0,-1,1728,1723,0,0
511,-699,0,0,0,0,0,0,0,0,0,-1,1735,1723,0,0
518,-699,0,0,0,0,0,0,0,0,0,-1,1742,1723,0,0
525,-699,0,0,0,0,0,0,0,0,0,-1,1749,1723,0,0
532,-699,0,0,0,0,0,0,0,0,0,-1,1756,1723,0,0
539,-699,0,0,0,0,0,0,0,0,0,-1,1763,1723,0,0
546,-699,0,0,0,0,0,0,0,0,0,-1,1770,1723,0,0
553,-699,0,0,0,0,0,0,0,0,0,-1,1777,1723,0,0
560,-699,0,0,0,0,0,0,0,0,0,-1,1784,1723,0,0
567,-699,0,0,0,0,0,0,0,0,0,-1,1791,1723,0,0
574,-699,0,0,0,0,0,0,0,0,0,-1,1798,1723,0,0
581,-699,0,0,0,0,0,0,0,0,0,-1,1805,1723,0,0
588,-699,0,0,0,0,0,0,0,0,0,-1,1812,1723,0,0
595,-699,0,0,0,0,0,0,0,0,0,-1,1819,1723,0,0
602,-699,0,0,0,0,0,0,0,0,0,-1,1826,1723,0,0
609,-699,0,0,0,0,0,0,0,0,0,-1,1833,1723,0,0
616,-699,0,0,0,0,0,0,0,0,0,-1,1840,1723,0,0
623,-699,0,0,0,0,0,0,0,0,0,-1,1847,1723,0,0
630,-699,0,0,0,0,0,0,0,0,0,-1,1854,1723,0,0
637,-699,0,0,0,0,0,0,0,0,0,-1,1861,1723,0,0
644,-699,0,0,0,0,0,0,0,0,0,-1,1868,1723,0,0
651,-699,0,0,0,0,0,0,0,0,0,-1,1875,1723,0,0
658,-699,0,0,0,0,0,0,0,0,0,-1,1882,1723,0,0
665,-699,0,0,0,0,0,0,0,0,0,-1,1889,1723,0,0
672,-699,0,0,0,0,0,0,0,0,0,-1,1896,1723,0,0
679,-699,0,0,0,0,0,0,0,0,0,-1,1903,1723,0,0
686,-699,0,0,0,0,0,0,0,0,0,-1,1910,1723,0,0
693,-699,0,0,0,0,0,0,0,0,0,-1,1917,1723,0,0
700,-699,0,0,0,0,0,0,0,0,0,-1,1924,1723,0,0
707,-699,0,0,0,0,0,0,0,0,0,-1,1931,1723,0,0
714,-699,0,0,0,0,0,0,0,0,0,-1,1938,1723,0,0
721,-699,0,0,0,0,0,0,0,0,0,-1,1945,1723,0,0
728,-699,0,0,0,0,0,0,0,0,0,-1,1952,1723,0,0
735,-699,0,0,0,0,0,0,0,0,0,-1,1959,1723,0,0
742,-699,0,0,0,0,0,0,0,0,0,-1,1966,1723,0,0
749,-699,0,0,0,0,0,0,0,0,0,-1,1973,1723,0,0
756,-699,0,0,0,0,0,0,0,0,0,-1,1980,1723,0,0
763,-699,0,0,0,0,0,0,0,0,0,-1,1987,1723,0,0
770,-699,0,0,0,0,0,0,0,0,0,-1,1994,1723,0,0
777,-699,0,0,0,0,0,0,0,0,0,-1,2001,1723,0,0
784,-699,0,0,0,0,0,0,0,0,0,-1,2008,1723,0,0
791,-699,0,0,0,0,0,0,0,0,0,-1,2015,1723,0,0
798,-699,0,0,0,0,0,0,0,0,0,-1,2022,1723,0,0
805,-699,0,0,0,0,0,0,0,0,0,-1,2029,1723,0,0
812,-699,0,0,0,0,0,0,0,0,0,-1,2036,1723,0,0
-700,-706,0,0,0,0,0,0,0,0,0,-1,524,1730,0,0
-693,-706,0,0,0,0,0,0,0,0,0,-1,531,1730,0,0
-686,-706,0,0,0,0,0,0,0,0,0,-1,538,1730,0,0
-679,-706,0,0,0,0,0,0,0,0,0,-1,545,1730,0,0
-672,-706,0,0,0,0,0,0,0,0,0,-1,552,1730,0,0
-665,-706,0,0,0,0,0,0,0,0,0,-1,559,1730,0,0
-658,-706,0,0,0,0,0,0,0,0,0,-1,566,1730,0,0
-651,-706,0,0,0,0,0,0,0,0,0,-1,573,1730,0,0
-644,-706,0,0,0,0,0,0,0,0,0,-1,580,1730,0,0
-637,-706,0,0,0,0,0,0,0,0,0,-1,587,1730,0,0
-630,-706,0,0,0,0,0,0,0,0,0,-1,594,1730,0,0
-623,-706,0,0,0,0,0,0,0,0,0,-1,601,1730,0,0
-616,-706,0,0,0,0,0,0,0,0,0,-1,608,1730,0,0
-609,-706,0,0,0,0,0,0,0,0,0,-1,615,1730,0,0
-602,-706,0,0,0,0,0,0,0,0,0,-1,622,1730,0,0
-595,-706,0,0,0,0,0,0,0,0,0,-1,629,1730,0,0
-588,-706,0,0,0,0,0,0,0,0,0,-1,636,1730,0,0
-581,-706,0,0,0,0,0,0,0,0,0,-1,643,1730,0,0
-574,-706,0,0,0,0,0,0,0,0,0,-1,650,1730,0,0
-567,-706,0,0,0,0,0,0,0,0,0,-1,657,1730,0,0
-560,-706,0,0,0,0,0,0,0,0,0,-1,664,1730,0,0
-553,-706,0,0,0,0,0,0,0,0,0,-1,671,1730,0,0
-546,-706,0,0,0,0,0,0,0,0,0,-1,678,1730,0,0
-539,-706,0,0,0,0,0,0,0,0,0,-1,685,1730,0,0
-532,-706,0,0,0,0,0,0,0,0,0,-1,692,1730,0,0
-525,-706,0,0,0,0,0,0,0,0,0,-1,699,1730,0,0
-518,-706,0,0,0,0,0,0,0,0,0,-1,706,1730,0,0
-511,-706,0,0,0,0,0,0,0,0,0,-1,713,1730,0,0
-504,-706,0,0,0,0,0,0,0,0,0,-1,720,1730,0,0
-497,-706,0,0,0,0,0,0,0,0,0,-1,727,1730,0,0
-490,-706,0,0,0,0,0,0,0,0,0,-1,734,1730,0,0
-483,-706,0,0,0,0,0,0,0,0,0,-1,741,1730,0,0
-476,-706,0,0,0,0,0,0,0,0,0,-1,748,1730,0,0
-469,-706,0,0,0,0,0,0,0,0,0,-1,755,1730,0,0
-462,-706,0,0,0,0,0,0,0,0,0,-1,762,1730,0,0
-455,-706,0,0,0,0,0,0,0,0,0,-1,769,1730,0,0
-448,-706,0,0,0,0,0,0,0,0,0,-1,776,1730,0,0
-441,-706,0,0,0,0,0,0,0,0,0,-1,783,1730,0,0
-434,-706,0,0,0,0,0,0,0,0,0,-1,790,1730,0,0
-427,-706,0,0,0,0,0,0,0,0,0,-1,797,1730,0,0
-420,-706,0,0,0,0,0,0,0,0,0,-1,804,1730,0,0
-413,-706,0,0,0,0,0,0,0,0,0,-1,811,1730,0,0
-406,-706,0,0,0,0,0,0,0,0,0,-1,818,1730,0,0
-399,-706,0,0,0,0,0,0,0,0,0,-1,825,1730,0,0
-392,-706,0,0,0,0,0,0,0,0,0,-1,832,1730,0,0
-385,-706,0,0,0,0,0,0,0,0,0,-1,839,1730,0,0
-378,-706,0,0,0,0,0,0,0,0,0,-1,846,1730,0,0
-371,-706,0,0,0,0,0,0,0,0,0,-1,853,1730,0,0
-364,-706,0,0,0,0,0,0,0,0,0,-1,860,1730,0,0
-357,-706,0,0,0,0,0,0,0,0,0,-1,867,1730,0,0
-350,-706,0,0,0,0,0,0,0,0,0,-1,874,1730,0,0
-343,-706,0,0,0,0,0,0,0,0,0,-1,881,1730,0,0
-336,-706,0,0,0,0,0,0,0,0,0,-1,888,1730,0,0
-329,-706,0,0,0,0,0,0,0,0,0,-1,895,1730,0,0
-322,-706,0,0,0,0,0,0,0,0,0,-1,902,1730,0,0
-315,-706,0,0,0,0,0,0,0,0,0,-1,909,1730,0,0
-308,-706,5.08191,14.6245,0,0,0,0,0,0,0,-1,916,1730,5.08188,-14.6245
-301,-706,5.28516,13.4028,0,0,0,0,0,0,0,-1,923,1730,5.28516,-13.4029
-294,-706,5.65625,12.3273,0,0,0,0,0,0,0,-1,930,1730,5.65622,-12.3272
-287,-706,5.98926,10.3617,0,0,0,0,0,0,0,-1,937,1730,5.98925,-10.3616
-280,-706,1.52008,9.74707,0,0,0,0,0,0,0,-1,944,1730,1.52007,-9.74701
-273,-706,2.61481,10.0029,0,0,0,0,0,0,0,-1,951,1730,2.61483,-10.0029
-266,-706,3.70959,10.2589,0,0,0,0,0,0,0,-1,958,1730,3.7096,-10.2589
-259,-706,3.3598,9.72961,0,0,0,0,0,0,0,-1,965,1730,3.35979,-9.72962
-252,-706,3.05963,10.0499,0,0,0,0,0,0,0,-1,972,1730,3.05962,-10.05
-245,-706,3.63794,9.28613,0,0,0,0,0,0,0,-1,979,1730,3.63792,-9.28608
-238,-706,4.93787,12.7544,0,0,0,0,0,0,0,-1,986,1730,4.93787,-12.7544
-231,-706,4.89282,12.6729,-0.014497,0.0169108,-0.0160475,0.0236598,-0.021246,-1.17269,0.0259389,0.0439691,993,1730,4.89285,-12.6729
-224,-706,4.80505,12.5833,-0.00985173,0.013247,-0.0121641,0.0184712,-0.015076,-1.16514,0.0194015,0.0420697,1000,1730,4.80503,-12.5832
-217,-706,4.60999,12.5258,-0.00679582,0.0099891,-0.00888276,0.013817,-0.0106237,-1.16391,0.0141509,0.0382138,1007,1730,4.61,-12.5258
-210,-706,4.56262,12.5812,-0.00553376,0.00776881,-0.00535078,0.00965395,-0.00741889,-1.23206,0.00988512,0.0373559,1014,1730,4.56262,-12.5812
-203,-706,4.44324,12.7965,-0.00408078,0.00601165,-0.00206271,0.00641696,-0.00448608,-1.37678,0.00632769,0.0302113,1021,1730,4.44322,-12.7965
-196,-706,4.34155,12.9788,-0.00257245,0.0044967,0.000325542,0.00451166,-0.00258741,1.52487,0.00414854,0.0221738,1028,1730,4.34159,-12.9788
-189,-706,4.29797,13.1332,-0.00120847,0.0035841,0.00170432,0.00412837,-0.00175274,1.26168,0.00348658,0.0173516,1035,1730,4.29793,-13.1332
-182,-706,4.29138,13.2697,-0.00091889,0.00375591,0.00231617,0.00470912,-0.0018721,1.18038,0.00391558,0.0121606,1042,1730,4.29136,-13.2697
-175,-706,4.28333,13.3873,-0.000662379,0.00367949,0.00310741,0.00529919,-0.00228209,1.0903,0.00449111,0.0141104,1049,1730,4.28333,-13.3874
-168,-706,4.29919,13.5149,-0.000355467,0.00346719,0.00322812,0.00530738,-0.00219566,1.05269,0.00445433,0.0160734,1056,1730,4.29914,-13.5149
-161,-706,4.28125,13.6517,-0.000183504,0.00306503,0.00303811,0.00488581,-0.00200429,1.03088,0.00409232,0.0130888,1063,1730,4.28128,-13.6518
-154,-706,4.26868,13.7791,-1.4297e-05,0.00272996,0.00266412,0.00435454,-0.00163888,1.0232,0.00357674,0.0115812,1070,1730,4.2687,-13.7791
-147,-706,4.25452,13.87,0.000300822,0.00251636,0.00240056,0.00405242,-0.00123524,1.00157,0.003194,0.0110589,1077,1730,4.25452,-13.87
-140,-706,4.2522,13.9819,0.000288963,0.00210832,0.00175116,0.00317199,-0.000774701,1.02495,0.00241468,0.0102166,1084,1730,4.2522,-13.982
-133,-706,4.25232,14.076,0.000390608,0.00172032,0.00141191,0.00261608,-0.000505148,1.00544,0.00193455,0.00837674,1091,1730,4.25226,-14.0761
-126,-706,4.26563,14.1749,0.000674705,0.00136262,0.00127955,0.00234363,-0.000306307,0.9167,0.00167389,0.0132503,1098,1730,4.26562,-14.1749
-119,-706,4.26526,14.2948,0.00103668,0.00105397,0.00127724,0.0023226,-0.00023195,0.788783,0.00163122,0.0178715,1105,1730,4.26529,-14.2949
-112,-706,4.24585,14.4244,0.00144806,0.000571449,0.00134733,0.00242658,-0.000407074,0.62814,0.00176909,0.0124224,1112,1730,4.2459,-14.4244
-105,-706,4.2533,14.5068,0.00176184,0.000228208,0.00137118,0.00256605,-0.000576007,0.530445,0.00193155,0.00952519,1119,1730,4.25324,-14.5068
-98,-706,4.26282,14.5817,0.00194628,-0.000151133,0.00138053,0.00263126,-0.000836111,0.460578,0.0020894,0.0114155,1126,1730,4.26288,-14.5817
-91,-706,4.26477,14.6674,0.0020651,-0.000329988,0.00141249,0.00271938,-0.000984265,0.433783,0.00221514,0.0143609,1133,1730,4.2648,-14.6673
-84,-706,4.25403,14.7549,0.00211459,-0.00040223,0.00146284,0.00278582,-0.00107346,0.430191,0.0023001,0.0162451,1140,1730,4.25398,-14.7549
-77,-706,4.24683,14.8473,0.00220857,-0.000406733,0.00142001,0.0028313,-0.00102947,0.413285,0.00230852,0.0157857,1147,1730,4.24679,-14.8473
-70,-706,4.23291,14.9498,0.00222492,-0.00033826,0.00126252,0.00274234,-0.00085568,0.388952,0.00217043,0.0179463,1154,1730,4.23295,-14.9498
-63,-706,4.24072,15.0192,0.00226152,-0.00032607,0.000770148,0.00247339,-0.000537942,0.268465,0.00185443,0.0131356,1161,1730,4.24066,-15.0192
-56,-706,4.25989,15.0929,0.00211958,-0.000535289,4.37448e-05,0.0021203,-0.000536009,0.0164712,0.001622,0.0131007,1168,1730,4.25991,-15.0929
-49,-706,4.25208,15.1277,0.00177101,-0.000722239,-0.000687895,0.0019482,-0.000899437,-0.252115,0.00168084,0.0135872,1175,1730,4.25207,-15.1277
-42,-706,4.28125,15.1653,0.00190179,-0.00116516,-0.00163039,0.00260656,-0.00186992,-0.40801,0.00259614,0.017011,1182,1730,4.28124,-15.1653
-35,-706,4.28088,15.2291,0.00221977,-0.00158837,-0.00252678,0.00347958,-0.00284817,-0.462512,0.00365938,0.015978,1189,1730,4.28088,-15.2292
-28,-706,4.28552,15.2972,0.00245562,-0.00210402,-0.00342747,0.00429224,-0.00394064,-0.491918,0.0047547,0.0102244,1196,1730,4.28556,-15.2973
-21,-706,4.29797,15.3457,0.00268043,-0.00297986,-0.00407984,0.00481564,-0.00511508,-0.482159,0.00573437,0.0106035,1203,1730,4.29794,-15.3457
-14,-706,4.29138,15.3885,0.00276355,-0.00416261,-0.00452508,0.00499865,-0.00639772,-0.458785,0.0065962,0.0103956,1210,1730,4.29138,-15.3885
-7,-706,4.30139,15.446,0.0026962,-0.00518145,-0.00460523,0.00481728,-0.00730253,-0.431618,0.00704624,0.00868987,1217,1730,4.30138,-15.4461
0,-706,4.33044,15.4856,0.00242068,-0.00622765,-0.00441293,0.00427489,-0.00808186,-0.397778,0.00724616,0.0113076,1224,1730,4.33047,-15.4856
7,-706,4.35181,15.527,0.00203275,-0.00712747,-0.00400048,0.00353386,-0.00862858,-0.358975,0.00722443,0.013169,1231,1730,4.35184,-15.5269
14,-706,4.34949,15.5626,0.00159628,-0.00790164,-0.00339661,0.00268595,-0.00899131,-0.310438,0.00706189,0.0138128,1238,1730,4.34949,-15.5627
21,-706,4.36475,15.5795,0.000955058,-0.00839768,-0.00258501,0.00162197,-0.00906459,-0.252488,0.00664998,0.0115656,1245,1730,4.36476,-15.5794
28,-706,4.3761,15.619,0.000241122,-0.00860191,-0.00164362,0.000536732,-0.00889752,-0.177951,0.00611844,0.0123888,1252,1730,4.3761,-15.6191
35,-706,4.38818,15.665,-0.000478732,-0.00868155,-0.000723776,-0.000415359,-0.00874492,-0.0873358,0.00569654,0.0144781,1259,1730,4.38813,-15.665
42,-706,4.3916,15.6818,-0.00131566,-0.0084706,0.000114243,-0.00131384,-0.00847242,0.0159615,0.00526526,0.0122841,1266,1730,4.39162,-15.6817
49,-706,4.3866,15.6752,-0.00190331,-0.00805635,0.000833467,-0.00179242,-0.00816725,0.132281,0.0049566,0.0139365,1273,1730,4.3866,-15.6752
56,-706,4.40601,15.7036,-0.00218018,-0.00750022,0.00137467,-0.00184597,-0.00783443,0.238494,0.00472928,0.0132983,1280,1730,4.40604,-15.7037
63,-706,4.43201,15.7225,-0.00253681,-0.00676462,0.00196069,-0.0017675,-0.00753392,0.373906,0.00454937,0.0114137,1287,1730,4.43202,-15.7226
70,-706,4.43945,15.7268,-0.00282765,-0.00596135,0.00221617,-0.00168038,-0.00710862,0.477691,0.00429009,0.0120814,1294,1730,4.4395,-15.7268
77,-706,4.44727,15.7324,-0.00285724,-0.00524658,0.00231103,-0.00145035,-0.00665346,0.546843,0.00403992,0.0105691,1301,1730,4.44721,-15.7325
84,-706,4.45203,15.7372,-0.00263445,-0.00406264,0.00214598,-0.00108688,-0.00561022,0.624781,0.00343565,0.0088467,1308,1730,4.45203,-15.7371
91,-706,4.46997,15.7565,-0.00222523,-0.00316615,0.00208759,-0.000555745,-0.00483563,0.674569,0.0030554,0.0105523,1315,1730,4.46994,-15.7564
98,-706,4.45923,15.7645,-0.00173123,-0.00222876,0.00203026,6.5454e-05,-0.00402544,0.724437,0.00270571,0.0143162,1322,1730,4.45923,-15.7646
105,-706,4.4552,15.7609,-0.00123989,-0.00138985,0.00194548,0.000632054,-0.0032618,0.766137,0.00241297,0.0181845,1329,1730,4.45514,-15.7608
112,-706,4.47046,15.7401,-0.00089445,-0.000486454,0.0020114,0.00133127,-0.00271217,0.835936,0.00237943,0.0172745,1336,1730,4.47045,-15.7401
119,-706,4.51038,15.7526,-0.000680302,0.00018209,0.00199988,0.00179673,-0.00229495,0.891578,0.00236816,0.0134864,1343,1730,4.5104,-15.7525
126,-706,4.51147,15.7344,-0.00028675,0.000733504,0.00200288,0.0022902,-0.00184344,0.910095,0.0023912,0.0142921,1350,1730,4.51146,-15.7344
133,-706,4.54614,15.687,0.000109403,0.00119612,0.00202481,0.00274921,-0.00144368,0.916485,0.00245957,0.0126048,1357,1730,4.54611,-15.687
140,-706,4.58435,15.6365,0.000480423,0.00170732,0.00210285,0.00328437,-0.00109663,0.927321,0.0026324,0.0120721,1364,1730,4.5844,-15.6365
147,-706,4.59265,15.5801,0.00089502,0.00206596,0.00224654,0.00380206,-0.000841084,0.912868,0.00285665,0.0196084,1371,1730,4.5927,-15.5801
154,-706,4.59375,15.5642,0.00106598,0.0023278,0.0022914,0.00407356,-0.000679777,0.919738,0.00296836,0.0191392,1378,1730,4.59376,-15.5642
161,-706,4.59497,15.5387,0.00110027,0.00272129,0.00217145,0.00422856,-0.000407,0.96402,0.00296404,0.0103657,1385,1730,4.59502,-15.5387
168,-706,4.58435,15.4951,0.0011486,0.00275325,0.00185789,0.00397466,-7.28008e-05,0.989226,0.00267437,0.0104297,1392,1730,4.58436,-15.4951
175,-706,4.60303,15.4608,0.00110932,0.00255363,0.00157319,0.0035625,0.000100455,1.00057,0.00234223,0.0104821,1399,1730,4.60297,-15.4608
182,-706,4.60767,15.425,0.00109531,0.0024413,0.00117895,0.00312582,0.000410788,1.04475,0.00196134,0.0108306,1406,1730,4.60761,-15.425
189,-706,4.61047,15.3683,0.00114668,0.00152135,0.000863632,0.00221773,0.0004503,0.892202,0.00135359,0.0142675,1413,1730,4.61049,-15.3683
196,-706,4.61902,15.3073,0.000807464,0.00152865,0.000481548,0.00176965,0.000566462,1.10677,0.00104352,0.0125712,1420,1730,4.61905,-15.3072
203,-706,4.60278,15.2568,0.000543244,0.00124644,0.000120019,0.00126636,0.000523324,1.40632,0.000734793,0.0135014,1427,1730,4.60284,-15.2569
210,-706,4.60193,15.176,0.000456024,0.00107109,-9.72197e-05,0.00108609,0.000441023,-1.4177,0.00063073,0.0124327,1434,1730,4.60196,-15.176
217,-706,4.60059,15.1187,0.000403191,0.000864531,-0.000357665,0.00105946,0.000208264,-1.0718,0.000648135,0.0129656,1441,1730,4.60055,-15.1187
224,-706,4.62109,15.078,0.000446675,0.000654115,-0.000467814,0.00102957,7.12209e-05,-0.89449,0.000663914,0.0182156,1448,1730,4.6211,-15.078
231,-706,4.63525,14.9895,0.000450091,0.000502999,-0.000575786,0.00105294,-9.98484e-05,-0.808354,0.000737498,0.0136807,1455,1730,4.63526,-14.9895
238,-706,4.62341,14.9092,0.000464924,0.000423144,-0.000654072,0.00109844,-0.000210371,-0.769434,0.000811557,0.00930101,1462,1730,4.6234,-14.9092
245,-706,4.63208,14.8312,0.000482415,0.000440231,-0.000719803,0.00118144,-0.000258789,-0.770751,0.000886567,0.0122891,1469,1730,4.63212,-14.8312
252,-706,4.63696,14.7592,0.000471147,0.000575784,-0.000825349,0.00135047,-0.000303541,-0.817051,0.00101671,0.0115718,1476,1730,4.63696,-14.7592
259,-706,4.64124,14.6893,0.00042723,0.00102481,-0.000927352,0.00170032,-0.00024828,-0.941244,0.00122472,0.0125358,1483,1730,4.64124,-14.6893
266,-706,4.62891,14.6278,0.00036464,0.00176706,-0.000994548,0.00228274,-0.000151039,-1.09245,0.00157459,0.0129524,1490,1730,4.6289,-14.6278
273,-706,4.62769,14.5283,0.000284822,0.00294658,-0.00111369,0.00335108,-0.000119678,-1.2224,0.00227499,0.0115194,1497,1730,4.62766,-14.5283
280,-706,4.62207,14.4111,0.0002179,0.00408317,-0.00118238,0.00441617,-0.0001151,-1.29627,0.00298322,0.00931539,1504,1730,4.62204,-14.4111
287,-706,4.61133,14.3024,0.000249381,0.00531191,-0.00124442,0.00560126,-3.99714e-05,-1.34234,0.00374757,0.0104419,1511,1730,4.61134,-14.3023
294,-706,4.62988,14.2101,0.000293765,0.00632875,-0.00131891,0.0066044,1.81159e-05,-1.36476,0.00439691,0.0111492,1518,1730,4.62985,-14.2101
301,-706,4.63477,14.1034,0.000279237,0.00735282,-0.00135837,0.00760471,2.7352e-05,-1.38745,0.00506071,0.0109724,1525,1730,4.63473,-14.1034
308,-706,4.63708,13.9991,0.000318172,0.00809323,-0.00113001,0.00825414,0.000157268,-1.42936,0.00545109,0.0124409,1532,1730,4.63705,-13.9992
315,-706,4.66528,13.9006,0.000796074,0.00911659,-0.000621053,0.00916269,0.000749974,-1.4967,0.00587445,0.0185265,1539,1730,4.66532,-13.9007
322,-706,4.63855,13.7695,0.00212046,0.00989111,0.00147256,0.0101608,0.00185076,1.38966,0.00624898,0.0190711,1546,1730,4.63849,-13.7696
329,-706,4.57104,13.6444,0.00415203,0.00920691,0.00572504,0.0129376,0.000421353,0.993268,0.00848809,0.0162312,1553,1730,4.57105,-13.6444
336,-706,4.56653,13.532,0.00601381,0.00872289,0.00901527,0.0164848,-0.00174811,0.859965,0.0116165,0.0225494,1560,1730,4.56652,-13.532
343,-706,4.59607,13.4108,0.00830714,0.00802356,0.0129866,0.0211527,-0.00482198,0.779939,0.0159539,0.0319593,1567,1730,4.59605,-13.4108
350,-706,4.56335,13.3062,0.0108639,0.00702196,0.0176945,0.0267414,-0.00885554,0.731328,0.0213992,0.0407211,1574,1730,4.56333,-13.3062
357,-706,4.57092,13.1727,0.0137715,0.00595525,0.0230086,0.0332015,-0.0134748,0.701274,0.0277392,0.04543,1581,1730,4.5709,-13.1727
364,-706,4.64038,13.1637,0.0169804,0.00454344,0.0285455,0.0399769,-0.0184531,0.678152,0.0344891,0.047121,1588,1730,4.64041,-13.1637
371,-706,4.86389,13.4772,0.0202875,0.00301904,0.0340147,0.0467467,-0.0234402,0.661104,0.0412604,0.0485685,1595,1730,4.86387,-13.4771
378,-706,5.3689,13.4905,0.0234374,0.00153819,0.0394363,0.053416,-0.0284404,0.649982,0.0479875,0.0451438,1602,1730,5.3689,-13.4904
385,-706,6.02344,13.5283,0,0,0,0,0,0,0,-1,1609,1730,6.02348,-13.5283
392,-706,3.42236,11.9617,0,0,0,0,0,0,0,-1,1616,1730,3.42241,-11.9617
399,-706,3.21667,13.4043,0,0,0,0,0,0,0,-1,1623,1730,3.21671,-13.4043
406,-706,3.80188,18.3816,0,0,0,0,0,0,0,-1,1630,1730,3.80184,-18.3815
413,-706,4.23645,20.028,0,0,0,0,0,0,0,-1,1637,1730,4.23649,-20.0279
420,-706,5.7926,4.15125,0,0,0,0,0,0,0,-1,1644,1730,5.79255,-4.15128
427,-706,0,0,0,0,0,0,0,0,0,-1,1651,1730,0,0
434,-706,0,0,0,0,0,0,0,0,0,-1,1658,1730,0,0
441,-706,0,0,0,0,0,0,0,0,0,-1,1665,1730,0,0
448,-706,0,0,0,0,0,0,0,0,0,-1,1672,1730,0,0
455,-706,0,0,0,0,0,0,0,0,0,-1,1679,1730,0,0
462,-706,0,0,0,0,0,0,0,0,0,-1,1686,1730,0,0
469,-706,0,0,0,0,0,0,0,0,0,-1,1693,1730,0,0
476,-706,0,0,0,0,0,0,0,0,0,-1,1700,1730,0,0
483,-706,0,0,0,0,0,0,0,0,0,-1,1707,1730,0,0
490,-706,0,0,0,0,0,0,0,0,0,-1,1714,1730,0,0
497,-706,0,0,0,0,0,0,0,0,0,-1,1721,1730,0,0
504,-706,0,0,0,0,0,0,0,0,0,-1,1728,1730,0,0
511,-706,0,0,0,0,0,0,0,0,0,-1,1735,1730,0,0
518,-706,0,0,0,0,0,0,0,0,0,-1,1742,1730,0,0
525,-706,0,0,0,0,0,0,0,0,0,-1,1749,1730,0,0
532,-706,0,0,0,0,0,0,0,0,0,-1,1756,1730,0,0
539,-706,0,0,0,0,0,0,0,0,0,-1,1763,1730,0,0
546,-706,0,0,0,0,0,0,0,0,0,-1,1770,1730,0,0
553,-706,0,0,0,0,0,0,0,0,0,-1,1777,1730,0,0
560,-706,0,0,0,0,0,0,0,0,0,-1,1784,1730,0,0
567,-706,0,0,0,0,0,0,0,0,0,-1,1791,1730,0,0
574,-706,0,0,0,0,0,0,0,0,0,-1,1798,1730,0,0
581,-706,0,0,0,0,0,0,0,0,0,-1,1805,1730,0,0
588,-706,0,0,0,0,0,0,0,0,0,-1,1812,1730,0,0
595,-706,0,0,0,0,0,0,0,0,0,-1,1819,1730,0,0
602,-706,0,0,0,0,0,0,0,0,0,-1,1826,1730,0,0
609,-706,0,0,0,0,0,0,0,0,0,-1,1833,1730,0,0
616,-706,0,0,0,0,0,0,0,0,0,-1,1840,1730,0,0
623,-706,0,0,0,0,0,0,0,0,0,-1,1847,1730,0,0
630,-706,0,0,0,0,0,0,0,0,0,-1,1854,1730,0,0
637,-706,0,0,0,0,0,0,0,0,0,-1,1861,1730,0,0
644,-706,0,0,0,0,0,0,0,0,0,-1,1868,1730,0,0
651,-706,0,0,0,0,0,0,0,0,0,-1,1875,1730,0,0
658,-706,0,0,0,0,0,0,0,0,0,-1,1882,1730,0,0
665,-706,0,0,0,0,0,0,0,0,0,-1,1889,1730,0,0
672,-706,0,0,0,0,0,0,0,0,0,-1,1896,1730,0,0
679,-706,0,0,0,0,0,0,0,0,0,-1,1903,1730,0,0
686,-706,0,0,0,0,0,0,0,0,0,-1,1910,1730,0,0
693,-706,0,0,0,0,0,0,0,0,0,-1,1917,1730,0,0
700,-706,0,0,0,0,0,0,0,0,0,-1,1924,1730,0,0
707,-706,0,0,0,0,0,0,0,0,0,-1,1931,1730,0,0
714,-706,0,0,0,0,0,0,0,0,0,-1,1938,1730,0,0
721,-706,0,0,0,0,0,0,0,0,0,-1,1945,1730,0,0
728,-706,0,0,0,0,0,0,0,0,0,-1,1952,1730,0,0
735,-706,0,0,0,0,0,0,0,0,0,-1,1959,1730,0,0
742,-706,0,0,0,0,0,0,0,0,0,-1,1966,1730,0,0
749,-706,0,0,0,0,0,0,0,0,0,-1,1973,1730,0,0
756,-706,0,0,0,0,0,0,0,0,0,-1,1980,1730,0,0
763,-706,0,0,0,0,0,0,0,0,0,-1,1987,1730,0,0
770,-706,0,0,0,0,0,0,0,0,0,-1,1994,1730,0,0
777,-706,0,0,0,0,0,0,0,0,0,-1,2001,1730,0,0
784,-706,0,0,0,0,0,0,0,0,0,-1,2008,1730,0,0
791,-706,0,0,0,0,0,0,0,0,0,-1,2015,1730,0,0
798,-706,0,0,0,0,0,0,0,0,0,-1,2022,1730,0,0
805,-706,0,0,0,0,0,0,0,0,0,-1,2029,1730,0,0
812,-706,0,0,0,0,0,0,0,0,0,-1,2036,1730,0,0
-700,-713,0,0,0,0,0,0,0,0,0,-1,524,1737,0,0
-693,-713,0,0,0,0,0,0,0,0,0,-1,531,1737,0,0
-686,-713,0,0,0,0,0,0,0,0,0,-1,538,1737,0,0
-679,-713,0,0,0,0,0,0,0,0,0,-1,545,1737,0,0
-672,-713,0,0,0,0,0,0,0,0,0,-1,552,1737,0,0
-665,-713,0,0,0,0,0,0,0,0,0,-1,559,1737,0,0
-658,-713,0,0,0,0,0,0,0,0,0,-1,566,1737,0,0
-651,-713,0,0,0,0,0,0,0,0,0,-1,573,1737,0,0
-644,-713,0,0,0,0,0,0,0,0,0,-1,580,1737,0,0
-637,-713,0,0,0,0,0,0,0,0,0,-1,587,1737,0,0
-630,-713,0,0,0,0,0,0,0,0,0,-1,594,1737,0,0
-623,-713,0,0,0,0,0,0,0,0,0,-1,601,1737,0,0
-616,-713,0,0,0,0,0,0,0,0,0,-1,608,1737,0,0
-609,-713,0,0,0,0,0,0,0,0,0,-1,615,1737,0,0
-602,-713,0,0,0,0,0,0,0,0,0,-1,622,1737,0,0
-595,-713,0,0,0,0,0,0,0,0,0,-1,629,1737,0,0
-588,-713,0,0,0,0,0,0,0,0,0,-1,636,1737,0,0
-581,-713,0,0,0,0,0,0,0,0,0,-1,643,1737,0,0
-574,-713,0,0,0,0,0,0,0,0,0,-1,650,1737,0,0
-567,-713,0,0,0,0,0,0,0,0,0,-1,657,1737,0,0
-560,-713,0,0,0,0,0,0,0,0,0,-1,664,1737,0,0
-553,-713,0,0,0,0,0,0,0,0,0,-1,671,1737,0,0
-546,-713,0,0,0,0,0,0,0,0,0,-1,678,1737,0,0
-539,-713,0,0,0,0,0,0,0,0,0,-1,685,1737,0,0
-532,-713,0,0,0,0,0,0,0,0,0,-1,692,1737,0,0
-525,-713,0,0,0,0,0,0,0,0,0,-1,699,1737,0,0
-518,-713,0,0,0,0,0,0,0,0,0,-1,706,1737,0,0
-511,-713,0,0,0,0,0,0,0,0,0,-1,713,1737,0,0
-504,-713,0,0,0,0,0,0,0,0,0,-1,720,1737,0,0
-497,-713,0,0,0,0,0,0,0,0,0,-1,727,1737,0,0
-490,-713,0,0,0,0,0,0,0,0,0,-1,734,1737,0,0
-483,-713,0,0,0,0,0,0,0,0,0,-1,741,1737,0,0
-476,-713,0,0,0,0,0,0,0,0,0,-1,748,1737,0,0
-469,-713,0,0,0,0,0,0,0,0,0,-1,755,1737,0,0
-462,-713,0,0,0,0,0,0,0,0,0,-1,762,1737,0,0
-455,-713,0,0,0,0,0,0,0,0,0,-1,769,1737,0,0
-448,-713,0,0,0,0,0,0,0,0,0,-1,776,1737,0,0
-441,-713,0,0,0,0,0,0,0,0,0,-1,783,1737,0,0
-434,-713,0,0,0,0,0,0,0,0,0,-1,790,1737,0,0
-427,-713,0,0,0,0,0,0,0,0,0,-1,797,1737,0,0
-420,-713,0,0,0,0,0,0,0,0,0,-1,804,1737,0,0
-413,-713,0,0,0,0,0,0,0,0,0,-1,811,1737,0,0
-406,-713,0,0,0,0,0,0,0,0,0,-1,818,1737,0,0
-399,-713,0,0,0,0,0,0,0,0,0,-1,825,1737,0,0
-392,-713,0,0,0,0,0,0,0,0,0,-1,832,1737,0,0
-385,-713,0,0,0,0,0,0,0,0,0,-1,839,1737,0,0
-378,-713,0,0,0,0,0,0,0,0,0,-1,846,1737,0,0
-371,-713,0,0,0,0,0,0,0,0,0,-1,853,1737,0,0
-364,-713,0,0,0,0,0,0,0,0,0,-1,860,1737,0,0
-357,-713,0,0,0,0,0,0,0,0,0,-1,867,1737,0,0
-350,-713,0,0,0,0,0,0,0,0,0,-1,874,1737,0,0
-343,-713,0,0,0,0,0,0,0,0,0,-1,881,1737,0,0
-336,-713,0,0,0,0,0,0,0,0,0,-1,888,1737,0,0
-329,-713,0,0,0,0,0,0,0,0,0,-1,895,1737,0,0
-322,-713,0,0,0,0,0,0,0,0,0,-1,902,1737,0,0
-315,-713,0,0,0,0,0,0,0,0,0,-1,909,1737,0,0
-308,-713,0,0,0,0,0,0,0,0,0,-1,916,1737,0,0
-301,-713,0,0,0,0,0,0,0,0,0,-1,923,1737,0,0
-294,-713,6.3161,13.046,0,0,0,0,0,0,0,-1,930,1737,6.31612,-13.046
-287,-713,6.41205,10.0194,0,0,0,0,0,0,0,-1,937,1737,6.41203,-10.0194
-280,-713,5.19037,10.5022,0,0,0,0,0,0,0,-1,944,1737,5.19035,-10.5021
-273,-713,2.29492,9.60242,0,0,0,0,0,0,0,-1,951,1737,2.2949,-9.60236
-266,-713,3.72046,9.64844,0,0,0,0,0,0,0,-1,958,1737,3.72048,-9.64845
-259,-713,2.67322,10.5743,0,0,0,0,0,0,0,-1,965,1737,2.67324,-10.5743
-252,-713,3.55267,8.86694,0,0,0,0,0,0,0,-1,972,1737,3.55265,-8.86693
-245,-713,2.92108,11.5321,0,0,0,0,0,0,0,-1,979,1737,2.9211,-11.5321
-238,-713,4.97943,12.8995,0,0,0,0,0,0,0,-1,986,1737,4.97941,-12.8996
-231,-713,5.33557,12.8447,0,0,0,0,0,0,0,-1,993,1737,5.33559,-12.8447
-224,-713,5.07196,12.7207,0,0,0,0,0,0,0,-1,1000,1737,5.07195,-12.7207
-217,-713,5.27856,12.2546,0,0,0,0,0,0,0,-1,1007,1737,5.27858,-12.2547
-210,-713,4.92157,12.4376,0,0,0,0,0,0,0,-1,1014,1737,4.92155,-12.4376
-203,-713,4.8396,12.8032,-0.00426215,0.00737697,-0.00125659,0.00751109,-0.00439627,-1.46447,0.00695268,0.044919,1021,1737,4.83961,-12.8032
-196,-713,4.29456,12.6384,-0.00231808,0.00567383,0.00163595,0.00599574,-0.00264,1.3765,0.00510978,0.0403573,1028,1737,4.2946,-12.6385
-189,-713,4.30334,12.9752,-0.000664464,0.00460985,0.00320098,0.00612008,-0.0021747,1.12996,0.00496629,0.0356131,1035,1737,4.30332,-12.9753
-182,-713,4.37671,13.2845,-0.000719169,0.00508588,0.00378804,0.00695556,-0.00258885,1.1123,0.00569947,0.0232478,1042,1737,4.3767,-13.2845
-175,-713,4.41284,13.3925,-0.000725418,0.00500411,0.00467755,0.00762445,-0.00334575,1.06016,0.00649225,0.021001,1049,1737,4.41279,-13.3925
-168,-713,4.47498,13.4707,-0.000487699,0.00488771,0.00463757,0.00756012,-0.00316011,1.04802,0.00636073,0.023863,1056,1737,4.47499,-13.4706
-161,-713,4.4126,13.6428,-0.000397184,0.00451852,0.00426647,0.00698447,-0.00286313,1.04672,0.00584913,0.0128243,1063,1737,4.41264,-13.6428
-154,-713,4.37244,13.7533,-0.000325143,0.00422148,0.0036803,0.00627396,-0.00237763,1.06206,0.00516109,0.010861,1070,1737,4.37243,-13.7533
-147,-713,4.36267,13.8777,-7.45688e-05,0.00405291,0.00328652,0.00586993,-0.00189158,1.06575,0.00467321,0.0173221,1077,1737,4.36267,-13.8777
-140,-713,4.37561,14.0087,-0.000290585,0.0036775,0.00240716,0.00481288,-0.00142597,1.13007,0.00377478,0.0172659,1084,1737,4.37561,-14.0087
-133,-713,4.35938,14.0814,-0.000344376,0.0033511,0.00190726,0.00415888,-0.00115216,1.17017,0.00322597,0.0115876,1091,1737,4.35937,-14.0814
-126,-713,4.35791,14.171,-0.000122885,0.00303823,0.00165895,0.00374902,-0.000833672,1.166,0.00281864,0.0183847,1098,1737,4.35787,-14.1711
-119,-713,4.35913,14.2722,0.000193311,0.00274474,0.0015641,0.0034874,-0.000549357,1.12749,0.00252803,0.0268819,1105,1737,4.35909,-14.2722
-112,-713,4.33789,14.4269,0.000594982,0.00226745,0.00155163,0.00319384,-0.000331409,1.03255,0.00224786,0.0132229,1112,1737,4.33784,-14.4269
-105,-713,4.35986,14.5054,0.000906231,0.0018772,0.00146668,0.00293666,-0.000153223,0.945228,0.00201079,0.010216,1119,1737,4.35992,-14.5054
-98,-713,4.35095,14.5813,0.00105181,0.00147712,0.00136297,0.00264392,-0.000115002,0.862786,0.00180217,0.00963158,1126,1737,4.351,-14.5813
-91,-713,4.33081,14.6659,0.00112042,0.0012652,0.0012807,0.00247556,-8.99391e-05,0.813629,0.00168115,0.0100587,1133,1737,4.33086,-14.6659
-84,-713,4.32031,14.7533,0.00112338,0.00110115,0.00123601,0.00234832,-0.0001238,0.780902,0.0016084,0.00930507,1140,1737,4.32027,-14.7533
-77,-713,4.3302,14.8479,0.00130189,0.000833314,0.00113355,0.00222511,-8.99036e-05,0.683489,0.00151427,0.0123002,1147,1737,4.33026,-14.848
-70,-713,4.31885,14.9374,0.00131999,0.000793515,0.000883143,0.00197829,0.000135214,0.640555,0.00127618,0.0140552,1154,1737,4.31887,-14.9374
-63,-713,4.32043,15.0096,0.00123812,0.000648443,0.000623466,0.00163295,0.000253614,0.564531,0.00101471,0.0121769,1161,1737,4.32048,-15.0097
-56,-713,4.33997,15.0859,0.00109353,0.000502897,0.000312342,0.00122806,0.000368366,0.406704,0.000727692,0.0123797,1168,1737,4.33998,-15.0859
-49,-713,4.31738,15.1373,0.000833975,0.000272179,4.27292e-05,0.000837206,0.000268948,0.0754796,0.000493551,0.0138863,1175,1737,4.31743,-15.1373
-42,-713,4.32642,15.1877,0.00094838,-6.78478e-05,-0.000327014,0.00104452,-0.000163984,-0.285926,0.00075695,0.0168185,1182,1737,4.32644,-15.1877
-35,-713,4.34448,15.2349,0.0011571,-0.0004389,-0.00071332,0.00142944,-0.000711241,-0.364713,0.00125889,0.0141211,1189,1737,4.34445,-15.2348
-28,-713,4.35742,15.2939,0.00127137,-0.000902295,-0.00102273,0.00167691,-0.00130784,-0.37751,0.00172763,0.0123514,1196,1737,4.35743,-15.2939
-21,-713,4.34473,15.353,0.00140154,-0.00161217,-0.00128323,0.0018739,-0.00208453,-0.352709,0.00228648,0.00932511,1203,1737,4.34477,-15.353
-14,-713,4.33777,15.3939,0.00145118,-0.00255623,-0.00143911,0.00191443,-0.00301949,-0.311426,0.00287231,0.0105437,1210,1737,4.33777,-15.3939
-7,-713,4.35547,15.4478,0.00144692,-0.0033618,-0.00140559,0.00182764,-0.00374252,-0.264509,0.00327866,0.00939868,1217,1737,4.3555,-15.4477
0,-713,4.3772,15.4789,0.00132292,-0.00420472,-0.00119722,0.00157108,-0.00445289,-0.204387,0.00360816,0.0138859,1224,1737,4.37725,-15.4789
7,-713,4.39978,15.5105,0.00111971,-0.00491572,-0.00087112,0.00124293,-0.00503894,-0.140514,0.00384123,0.0178454,1231,1737,4.39976,-15.5105
14,-713,4.40051,15.5535,0.000904053,-0.00552367,-0.000452877,0.000935804,-0.00555542,-0.069996,0.00405173,0.0131196,1238,1737,4.40053,-15.5535
21,-713,4.3999,15.585,0.00056995,-0.00592124,2.08083e-05,0.000570017,-0.00592131,0.00320558,0.00415061,0.010376,1245,1737,4.39991,-15.5849
28,-713,4.38623,15.6267,0.00022426,-0.0061287,0.000519206,0.000266414,-0.00617085,0.0810102,0.00420552,0.0112592,1252,1737,4.38619,-15.6267
35,-713,4.38879,15.6549,-0.000109136,-0.00621531,0.000990252,4.74404e-05,-0.00637189,0.156819,0.00426383,0.0114675,1259,1737,4.38878,-15.6549
42,-713,4.39636,15.6758,-0.000554584,-0.00606685,0.00135828,-0.000238065,-0.00638337,0.228944,0.00417849,0.0108111,1266,1737,4.39631,-15.6758
49,-713,4.40759,15.6754,-0.00084732,-0.00582241,0.00162829,-0.000361786,-0.00630795,0.289792,0.00409004,0.0110587,1273,1737,4.40762,-15.6754
56,-713,4.42102,15.6871,-0.00093034,-0.0054311,0.00176465,-0.000320962,-0.00604048,0.332503,0.00392438,0.0118611,1280,1737,4.42106,-15.6871
63,-713,4.42407,15.7295,-0.00111034,-0.00493546,0.00195383,-0.000288792,-0.00575701,0.398036,0.00374545,0.012608,1287,1737,4.42413,-15.7295
70,-713,4.43323,15.7312,-0.00127614,-0.00438623,0.001962,-0.000327665,-0.0053347,0.450297,0.00345243,0.0126122,1294,1737,4.43327,-15.7312
77,-713,4.448,15.7389,-0.00128678,-0.00394752,0.00184228,-0.00034473,-0.00488957,0.472686,0.00315109,0.0120854,1301,1737,4.44802,-15.7388
84,-713,4.46716,15.7529,-0.00119944,-0.00316221,0.00173085,-0.000191112,-0.00417054,0.527499,0.0027189,0.0116762,1308,1737,4.46712,-15.753
91,-713,4.46313,15.7643,-0.000942803,-0.0025386,0.00173602,0.000169901,-0.0036513,0.569988,0.00249277,0.0124319,1315,1737,4.46317,-15.7643
98,-713,4.44995,15.7522,-0.000633454,-0.00190848,0.00173913,0.000581324,-0.00312326,0.609718,0.00230056,0.012433,1322,1737,4.44995,-15.7522
105,-713,4.4519,15.7384,-0.000327203,-0.0013553,0.00170155,0.000936253,-0.00261875,0.638704,0.00212773,0.0149866,1329,1737,4.45193,-15.7384
112,-713,4.47693,15.748,-9.97407e-05,-0.000723956,0.00178006,0.00139537,-0.00221906,0.698613,0.00210478,0.0145846,1336,1737,4.47691,-15.748
119,-713,4.51636,15.7632,3.82899e-05,-0.000252606,0.00178446,0.00168322,-0.00189754,0.744734,0.00206859,0.0142248,1343,1737,4.51637,-15.7632
126,-713,4.50964,15.7461,0.000315596,0.00013954,0.00178657,0.0020163,-0.00156117,0.760782,0.00207102,0.0136385,1350,1737,4.5096,-15.7461
133,-713,4.50293,15.6949,0.000552662,0.000482836,0.00178173,0.00229982,-0.00126433,0.775602,0.00208651,0.0130595,1357,1737,4.50296,-15.695
140,-713,4.53308,15.6438,0.000755719,0.000838561,0.00177258,0.0025702,-0.000975924,0.79708,0.0021152,0.0137974,1364,1737,4.53303,-15.6438
147,-713,4.54187,15.5837,0.000961828,0.00106376,0.00177395,0.00278748,-0.00076189,0.799759,0.0021576,0.0140753,1371,1737,4.54191,-15.5837
154,-713,4.53784,15.5674,0.00101111,0.00125545,0.00169118,0.00282886,-0.000562308,0.821455,0.00209861,0.0136829,1378,1737,4.53787,-15.5674
161,-713,4.55273,15.5248,0.00092811,0.00154733,0.0016329,0.00289971,-0.000424274,0.879089,0.00208898,0.0097754,1385,1737,4.55273,-15.5248
168,-713,4.54089,15.4811,0.000894001,0.00157074,0.00145919,0.00273027,-0.000265536,0.899329,0.00191484,0.00996595,1392,1737,4.54094,-15.4811
175,-713,4.54248,15.4406,0.000877646,0.0014181,0.0012394,0.00241639,-0.000120648,0.892733,0.00165261,0.0128821,1399,1737,4.54253,-15.4406
182,-713,4.53662,15.4088,0.000855831,0.00138827,0.000947651,0.00210638,0.000137714,0.922331,0.00136068,0.0115855,1406,1737,4.53668,-15.4088
189,-713,4.56128,15.3497,0.000840753,0.00094286,0.000691381,0.00158507,0.000198543,0.822253,0.000997143,0.0111695,1413,1737,4.56133,-15.3497
196,-713,4.56055,15.3123,0.000612679,0.000871058,0.000440899,0.00120131,0.000282432,0.927915,0.000725294,0.0131108,1420,1737,4.56052,-15.3123
203,-713,4.54626,15.2734,0.000443148,0.000769662,0.00020761,0.000870516,0.000342294,1.11858,0.000506399,0.0181907,1427,1737,4.54622,-15.2735
210,-713,4.55591,15.1758,0.000386075,0.000665202,0.000130252,0.00071654,0.000334737,1.19535,0.000413992,0.0139482,1434,1737,4.5559,-15.1758
217,-713,4.55652,15.1072,0.000360143,0.000551451,-3.36764e-05,0.000557206,0.000354388,-1.40154,0.000325646,0.0104,1441,1737,4.55651,-15.1071
224,-713,4.55042,15.0538,0.00039767,0.00043852,-0.000183124,0.000602355,0.000233835,-0.840936,0.000350656,0.0117891,1448,1737,4.55039,-15.0538
231,-713,4.5636,14.9911,0.000376676,0.000395854,-0.00038259,0.000768975,3.55465e-06,-0.797927,0.000511469,0.0111001,1455,1737,4.56359,-14.9911
238,-713,4.55127,14.9065,0.000378441,0.000438605,-0.000594075,0.00100336,-0.000186313,-0.810695,0.000738882,0.00851609,1462,1737,4.55126,-14.9065
245,-713,4.57336,14.8395,0.000413174,0.000616532,-0.000818956,0.0013401,-0.000310391,-0.847161,0.00101284,0.0115007,1469,1737,4.57338,-14.8394
252,-713,4.58118,14.7621,0.000416599,0.000923383,-0.00108858,0.00178767,-0.000447692,-0.899748,0.0013657,0.012149,1476,1737,4.58119,-14.7621
259,-713,4.57837,14.6687,0.000382657,0.00165407,-0.00133966,0.0025012,-0.000464477,-1.00693,0.00184192,0.0119822,1483,1737,4.57838,-14.6687
266,-713,4.55469,14.6176,0.000414759,0.00281164,-0.00169609,0.00368997,-0.000463573,-1.09297,0.00262817,0.0106766,1490,1737,4.55474,-14.6175
273,-713,4.54163,14.531,0.000414467,0.00456143,-0.00198303,0.00535705,-0.00038115,-1.18924,0.00370496,0.00880728,1497,1737,4.54164,-14.531
280,-713,4.52539,14.4237,0.000326804,0.00608712,-0.00197428,0.00669882,-0.000284898,-1.27034,0.00456381,0.00917541,1504,1737,4.52535,-14.4237
287,-713,4.5105,14.3096,0.000378235,0.00770614,-0.00195077,0.0081931,-0.000108723,-1.32617,0.00549866,0.010689,1511,1737,4.51051,-14.3096
294,-713,4.50684,14.1968,0.000449519,0.00910603,-0.00193086,0.00951718,3.83649e-05,-1.36099,0.00633204,0.0153075,1518,1737,4.50681,-14.1968
301,-713,4.505,14.0757,0.000457525,0.0105713,-0.00185961,0.0109024,0.00012644,-1.3946,0.00722649,0.0172722,1525,1737,4.50505,-14.0757
308,-713,4.46973,13.9443,0.000512592,0.0115837,-0.00141949,0.0117628,0.000333488,-1.44528,0.0077331,0.0193341,1532,1737,4.46967,-13.9444
315,-713,4.51428,13.8854,0.00114859,0.0131349,-0.000674598,0.0131727,0.00111075,-1.51475,0.00843597,0.0263568,1539,1737,4.51433,-13.8854
322,-713,4.39575,13.8184,0.00293779,0.0141908,0.00237616,0.0146719,0.00245662,1.371,0.00907396,0.0329753,1546,1737,4.39574,-13.8184
329,-713,4.47766,13.689,0.00558375,0.0131086,0.00858353,0.0187181,-2.57408e-05,0.991952,0.0124873,0.0395802,1553,1737,4.47768,-13.689
336,-713,4.48511,13.6743,0,0,0,0,0,0,0,-1,1560,1737,4.48511,-13.6744
343,-713,4.61987,14.0668,0,0,0,0,0,0,0,-1,1567,1737,4.61984,-14.0668
350,-713,4.35547,13.291,0,0,0,0,0,0,0,-1,1574,1737,4.35548,-13.2911
357,-713,4.14478,13.0345,0.0175325,0.0081281,0.0326444,0.0458117,-0.020151,0.713868,0.0390323,0.0459371,1581,1737,4.14476,-13.0345
364,-713,4.14648,12.8137,0.0214105,0.00608091,0.0401975,0.0546674,-0.027176,0.69119,0.0481327,0.0472073,1588,1737,4.14645,-12.8137
371,-713,4.36194,13.2527,0.0253636,0.00398349,0.0476485,0.0635065,-0.0341594,0.675049,0.0572296,0.0456096,1595,1737,4.36193,-13.2527
378,-713,4.79089,13.6442,0.0291015,0.00198713,0.0550258,0.0722156,-0.041127,0.664615,0.0662539,0.0436515,1602,1737,4.79095,-13.6441
385,-713,5.3429,14.0168,0,0,0,0,0,0,0,-1,1609,1737,5.34292,-14.0169
392,-713,4.18201,13.3433,0,0,0,0,0,0,0,-1,1616,1737,4.18198,-13.3433
399,-713,1.93323,14.2748,0,0,0,0,0,0,0,-1,1623,1737,1.93325,-14.2748
406,-713,2.13525,15.2334,0,0,0,0,0,0,0,-1,1630,1737,2.13526,-15.2334
413,-713,2.59546,16.7579,0,0,0,0,0,0,0,-1,1637,1737,2.5955,-16.7579
420,-713,0,0,0,0,0,0,0,0,0,-1,1644,1737,0,0
427,-713,0,0,0,0,0,0,0,0,0,-1,1651,1737,0,0
434,-713,0,0,0,0,0,0,0,0,0,-1,1658,1737,0,0
441,-713,0,0,0,0,0,0,0,0,0,-1,1665,1737,0,0
448,-713,0,0,0,0,0,0,0,0,0,-1,1672,1737,0,0
455,-713,0,0,0,0,0,0,0,0,0,-1,1679,1737,0,0
462,-713,0,0,0,0,0,0,0,0,0,-1,1686,1737,0,0
469,-713,0,0,0,0,0,0,0,0,0,-1,1693,1737,0,0
476,-713,0,0,0,0,0,0,0,0,0,-1,1700,1737,0,0
483,-713,0,0,0,0,0,0,0,0,0,-1,1707,1737,0,0
490,-713,0,0,0,0,0,0,0,0,0,-1,1714,1737,0,0
497,-713,0,0,0,0,0,0,0,0,0,-1,1721,1737,0,0
504,-713,0,0,0,0,0,0,0,0,0,-1,1728,1737,0,0
511,-713,0,0,0,0,0,0,0,0,0,-1,1735,1737,0,0
518,-713,0,0,0,0,0,0,0,0,0,-1,1742,1737,0,0
525,-713,0,0,0,0,0,0,0,0,0,-1,1749,1737,0,0
532,-713,0,0,0,0,0,0,0,0,0,-1,1756,1737,0,0
539,-713,0,0,0,0,0,0,0,0,0,-1,1763,1737,0,0
546,-713,0,0,0,0,0,0,0,0,0,-1,1770,1737,0,0
553,-713,0,0,0,0,0,0,0,0,0,-1,1777,1737,0,0
560,-713,0,0,0,0,0,0,0,0,0,-1,1784,1737,0,0
567,-713,0,0,0,0,0,0,0,0,0,-1,1791,1737,0,0
574,-713,0,0,0,0,0,0,0,0,0,-1,1798,1737,0,0
581,-713,0,0,0,0,0,0,0,0,0,-1,1805,1737,0,0
588,-713,0,0,0,0,0,0,0,0,0,-1,1812,1737,0,0
595,-713,0,0,0,0,0,0,0,0,0,-1,1819,1737,0,0
602,-713,0,0,0,0,0,0,0,0,0,-1,1826,1737,0,0
609,-713,0,0,0,0,0,0,0,0,0,-1,1833,1737,0,0
616,-713,0,0,0,0,0,0,0,0,0,-1,1840,1737,0,0
623,-713,0,0,0,0,0,0,0,0,0,-1,1847,1737,0,0
630,-713,0,0,0,0,0,0,0,0,0,-1,1854,1737,0,0
637,-713,0,0,0,0,0,0,0,0,0,-1,1861,1737,0,0
644,-713,0,0,0,0,0,0,0,0,0,-1,1868,1737,0,0
651,-713,0,0,0,0,0,0,0,0,0,-1,1875,1737,0,0
658,-713,0,0,0,0,0,0,0,0,0,-1,1882,1737,0,0
665,-713,0,0,0,0,0,0,0,0,0,-1,1889,1737,0,0
672,-713,0,0,0,0,0,0,0,0,0,-1,1896,1737,0,0
679,-713,0,0,0,0,0,0,0,0,0,-1,1903,1737,0,0
686,-713,0,0,0,0,0,0,0,0,0,-1,1910,1737,0,0
693,-713,0,0,0,0,0,0,0,0,0,-1,1917,1737,0,0
700,-713,0,0,0,0,0,0,0,0,0,-1,1924,1737,0,0
707,-713,0,0,0,0,0,0,0,0,0,-1,1931,1737,0,0
714,-713,0,0,0,0,0,0,0,0,0,-1,1938,1737,0,0
721,-713,0,0,0,0,0,0,0,0,0,-1,1945,1737,0,0
728,-713,0,0,0,0,0,0,0,0,0,-1,1952,1737,0,0
735,-713,0,0,0,0,0,0,0,0,0,-1,1959,1737,0,0
742,-713,0,0,0,0,0,0,0,0,0,-1,1966,1737,0,0
749,-713,0,0,0,0,0,0,0,0,0,-1,1973,1737,0,0
756,-713,0,0,0,0,0,0,0,0,0,-1,1980,1737,0,0
763,-713,0,0,0,0,0,0,0,0,0,-1,1987,1737,0,0
770,-713,0,0,0,0,0,0,0,0,0,-1,1994,1737,0,0
777,-713,0,0,0,0,0,0,0,0,0,-1,2001,1737,0,0
784,-713,0,0,0,0,0,0,0,0,0,-1,2008,1737,0,0
791,-713,0,0,0,0,0,0,0,0,0,-1,2015,1737,0,0
798,-713,0,0,0,0,0,0,0,0,0,-1,2022,1737,0,0
805,-713,0,0,0,0,0,0,0,0,0,-1,2029,1737,0,0
812,-713,0,0,0,0,0,0,0,0,0,-1,2036,1737,0,0
-700,-720,0,0,0,0,0,0,0,0,0,-1,524,1744,0,0
-693,-720,0,0,0,0,0,0,0,0,0,-1,531,1744,0,0
-686,-720,0,0,0,0,0,0,0,0,0,-1,538,1744,0,0
-679,-720,0,0,0,0,0,0,0,0,0,-1,545,1744,0,0
-672,-720,0,0,0,0,0,0,0,0,0,-1,552,1744,0,0
-665,-720,0,0,0,0,0,0,0,0,0,-1,559,1744,0,0
-658,-720,0,0,0,0,0,0,0,0,0,-1,566,1744,0,0
-651,-720,0,0,0,0,0,0,0,0,0,-1,573,1744,0,0
-644,-720,0,0,0,0,0,0,0,0,0,-1,580,1744,0,0
-637,-720,0,0,0,0,0,0,0,0,0,-1,587,1744,0,0
-630,-720,0,0,0,0,0,0,0,0,0,-1,594,1744,0,0
-623,-720,0,0,0,0,0,0,0,0,0,-1,601,1744,0,0
-616,-720,0,0,0,0,0,0,0,0,0,-1,608,1744,0,0
-609,-720,0,0,0,0,0,0,0,0,0,-1,615,1744,0,0
-602,-720,0,0,0,0,0,0,0,0,0,-1,622,1744,0,0
-595,-720,0,0,0,0,0,0,0,0,0,-1,629,1744,0,0
-588,-720,0,0,0,0,0,0,0,0,0,-1,636,1744,0,0
-581,-720,0,0,0,0,0,0,0,0,0,-1,643,1744,0,0
-574,-720,0,0,0,0,0,0,0,0,0,-1,650,1744,0,0
-567,-720,0,0,0,0,0,0,0,0,0,-1,657,1744,0,0
-560,-720,0,0,0,0,0,0,0,0,0,-1,664,1744,0,0
-553,-720,0,0,0,0,0,0,0,0,0,-1,671,1744,0,0
-546,-720,0,0,0,0,0,0,0,0,0,-1,678,1744,0,0
-539,-720,0,0,0,0,0,0,0,0,0,-1,685,1744,0,0
-532,-720,0,0,0,0,0,0,0,0,0,-1,692,1744,0,0
-525,-720,0,0,0,0,0,0,0,0,0,-1,699,1744,0,0
-518,-720,0,0,0,0,0,0,0,0,0,-1,706,1744,0,0
-511,-720,0,0,0,0,0,0,0,0,0,-1,713,1744,0,0
-504,-720,0,0,0,0,0,0,0,0,0,-1,720,1744,0,0
-497,-720,0,0,0,0,0,0,0,0,0,-1,727,1744,0,0
-490,-720,0,0,0,0,0,0,0,0,0,-1,734,1744,0,0
-483,-720,0,0,0,0,0,0,0,0,0,-1,741,1744,0,0
-476,-720,0,0,0,0,0,0,0,0,0,-1,748,1744,0,0
-469,-720,0,0,0,0,0,0,0,0,0,-1,755,1744,0,0
-462,-720,0,0,0,0,0,0,0,0,0,-1,762,1744,0,0
-455,-720,0,0,0,0,0,0,0,0,0,-1,769,1744,0,0
-448,-720,0,0,0,0,0,0,0,0,0,-1,776,1744,0,0
-441,-720,0,0,0,0,0,0,0,0,0,-1,783,1744,0,0
-434,-720,0,0,0,0,0,0,0,0,0,-1,790,1744,0,0
-427,-720,0,0,0,0,0,0,0,0,0,-1,797,1744,0,0
-420,-720,0,0,0,0,0,0,0,0,0,-1,804,1744,0,0
-413,-720,0,0,0,0,0,0,0,0,0,-1,811,1744,0,0
-406,-720,0,0,0,0,0,0,0,0,0,-1,818,1744,0,0
-399,-720,0,0,0,0,0,0,0,0,0,-1,825,1744,0,0
-392,-720,0,0,0,0,0,0,0,0,0,-1,832,1744,0,0
-385,-720,0,0,0,0,0,0,0,0,0,-1,839,1744,0,0
-378,-720,0,0,0,0,0,0,0,0,0,-1,846,1744,0,0
-371,-720,0,0,0,0,0,0,0,0,0,-1,853,1744,0,0
-364,-720,0,0,0,0,0,0,0,0,0,-1,860,1744,0,0
-357,-720,0,0,0,0,0,0,0,0,0,-1,867,1744,0,0
-350,-720,0,0,0,0,0,0,0,0,0,-1,874,1744,0,0
-343,-720,0,0,0,0,0,0,0,0,0,-1,881,1744,0,0
-336,-720,0,0,0,0,0,0,0,0,0,-1,888,1744,0,0
-329,-720,0,0,0,0,0,0,0,0,0,-1,895,1744,0,0
-322,-720,0,0,0,0,0,0,0,0,0,-1,902,1744,0,0
-315,-720,0,0,0,0,0,0,0,0,0,-1,909,1744,0,0
-308,-720,0,0,0,0,0,0,0,0,0,-1,916,1744,0,0
-301,-720,0,0,0,0,0,0,0,0,0,-1,923,1744,0,0
-294,-720,0,0,0,0,0,0,0,0,0,-1,930,1744,0,0
-287,-720,0,0,0,0,0,0,0,0,0,-1,937,1744,0,0
-280,-720,5.52264,10.3418,0,0,0,0,0,0,0,-1,944,1744,5.52262,-10.3418
-273,-720,4.63739,8.22498,0,0,0,0,0,0,0,-1,951,1744,4.6374,-8.22496
-266,-720,4.37134,7.47217,0,0,0,0,0,0,0,-1,958,1744,4.37132,-7.47215
-259,-720,2.38904,5.20947,0,0,0,0,0,0,0,-1,965,1744,2.38906,-5.20952
-252,-720,3.71014,6.78967,0,0,0,0,0,0,0,-1,972,1744,3.71016,-6.78973
-245,-720,3.47345,14.1595,0,0,0,0,0,0,0,-1,979,1744,3.47346,-14.1595
-238,-720,4.42151,13.6602,0,0,0,0,0,0,0,-1,986,1744,4.42148,-13.6602
-231,-720,5.41809,13.0837,0,0,0,0,0,0,0,-1,993,1744,5.4181,-13.0838
-224,-720,6.31787,12.3206,0,0,0,0,0,0,0,-1,1000,1744,6.31785,-12.3205
-217,-720,5.92041,11.8296,0,0,0,0,0,0,0,-1,1007,1744,5.9204,-11.8296
-210,-720,3.42609,11.5579,0,0,0,0,0,0,0,-1,1014,1744,3.42609,-11.5578
-203,-720,3.57605,12.4744,0,0,0,0,0,0,0,-1,1021,1744,3.576,-12.4744
-196,-720,3.80603,12.5776,-0.00129945,0.00710718,0.00390815,0.00864333,-0.00283561,1.19628,0.00690433,0.0485477,1028,1744,3.80607,-12.5776
-189,-720,4.19971,12.86,0.000628274,0.00594408,0.00549395,0.00938929,-0.00281693,1.0107,0.00737993,0.0474945,1035,1744,4.19973,-12.86
-182,-720,4.35327,13.2397,-0.000188041,0.00695112,0.00587773,0.0102583,-0.0034952,1.05829,0.00825439,0.0404889,1042,1744,4.35326,-13.2397
-175,-720,4.42029,13.5281,-0.000700908,0.0068106,0.00680725,0.0108294,-0.00471975,1.03748,0.00920543,0.0450829,1049,1744,4.42033,-13.5281
-168,-720,4.64209,13.5667,-0.000567612,0.00682803,0.00644032,0.0105566,-0.00429621,1.046,0.00882554,0.0375141,1056,1744,4.64206,-13.5667
-161,-720,4.39771,13.6036,-0.000550562,0.00647689,0.00580609,0.00974969,-0.00382336,1.05751,0.00808156,0.0274249,1063,1744,4.39771,-13.6037
-154,-720,4.47632,13.7772,-0.000548524,0.00616462,0.00493116,0.00877319,-0.0031571,1.08422,0.00713782,0.0218377,1070,1744,4.47628,-13.7773
-147,-720,4.46423,13.9406,-0.000349098,0.00601001,0.00436183,0.00822815,-0.00256724,1.10034,0.0065121,0.021438,1077,1744,4.46428,-13.9406
-140,-720,4.47278,14.0547,-0.000749917,0.00563338,0.00320618,0.00696569,-0.00208223,1.17696,0.00547157,0.0180798,1084,1744,4.47274,-14.0547
-133,-720,4.44873,14.11,-0.000896758,0.00533759,0.00252448,0.00623162,-0.00179079,1.23043,0.00486254,0.0135039,1091,1744,4.44875,-14.11
-126,-720,4.4425,14.2017,-0.000656033,0.00503734,0.00214711,0.00575628,-0.00137498,1.24769,0.00436858,0.0132458,1098,1744,4.44251,-14.2017
-119,-720,4.43323,14.3042,-0.000299465,0.00471712,0.00195063,0.00538633,-0.00096867,1.24031,0.00395353,0.0151988,1105,1744,4.43328,-14.3042
-112,-720,4.41602,14.3927,0.000166466,0.00419834,0.00184682,0.0049164,-0.000551597,1.19997,0.00347609,0.0135846,1112,1744,4.41598,-14.3927
-105,-720,4.42761,14.4918,0.000523872,0.0037067,0.00165379,0.00441041,-0.000179845,1.16849,0.00300202,0.0126285,1119,1744,4.42767,-14.4918
-98,-720,4.42188,14.579,0.000663305,0.00322831,0.00144279,0.0038762,1.54076e-05,1.14872,0.00257902,0.0102152,1126,1744,4.4219,-14.5789
-91,-720,4.40259,14.6632,0.000695546,0.00292417,0.00125544,0.00348849,0.000131222,1.14836,0.00228318,0.00968286,1133,1744,4.40253,-14.6632
-84,-720,4.39099,14.7562,0.00064727,0.00262093,0.00112309,0.00312914,0.000139056,1.14585,0.00204132,0.0103686,1140,1744,4.39097,-14.7562
-77,-720,4.3949,14.87,0.000916648,0.00199643,0.000965721,0.00256293,0.000350148,1.04028,0.00160469,0.0125158,1147,1744,4.39492,-14.87
-70,-720,4.39844,14.9139,0.00090056,0.00177555,0.000615711,0.00209337,0.000582739,1.09428,0.00124756,0.011108,1154,1744,4.39839,-14.9139
-63,-720,4.3927,14.9789,0.000642433,0.00137762,0.000381951,0.00154013,0.000479921,1.16852,0.000909991,0.0103454,1161,1744,4.39274,-14.9789
-56,-720,4.4071,15.0665,0.00039068,0.00127263,0.000168389,0.00130369,0.000359624,1.38841,0.000777486,0.011677,1168,1744,4.40715,-15.0665
-49,-720,4.37097,15.1235,0.000175235,0.00108285,9.5881e-05,0.00109287,0.000165217,1.46669,0.000680226,0.0173658,1175,1744,4.37102,-15.1236
-42,-720,4.38013,15.172,0.000409087,0.000930965,-6.73113e-05,0.000939507,0.000400545,-1.44457,0.000544383,0.0209395,1182,1744,4.38013,-15.172
-35,-720,4.43176,15.2281,0.000667805,0.000706483,-0.000349847,0.00103753,0.000336763,-0.81301,0.00061118,0.0183534,1189,1744,4.43177,-15.2281
-28,-720,4.42273,15.2937,0.000787677,0.000366166,-0.000583282,0.00119711,-4.32683e-05,-0.612033,0.000812881,0.0101715,1196,1744,4.42273,-15.2937
-21,-720,4.39929,15.3661,0.000946784,-0.000179477,-0.000767772,0.0013358,-0.000568497,-0.468982,0.00112881,0.00894203,1203,1744,4.39926,-15.3661
-14,-720,4.39478,15.403,0.00106987,-0.000924151,-0.000901733,0.00141717,-0.00127144,-0.36763,0.00155303,0.0109622,1210,1744,4.39476,-15.403
-7,-720,4.40222,15.4609,0.00116271,-0.00159186,-0.000939434,0.0014526,-0.00188174,-0.299303,0.00193039,0.0118246,1217,1744,4.4022,-15.461
0,-720,4.41797,15.5096,0.00119732,-0.00231536,-0.00085078,0.00139254,-0.00251057,-0.225547,0.00228407,0.0130917,1224,1744,4.41799,-15.5097
7,-720,4.41895,15.5333,0.00115107,-0.0029167,-0.000675639,0.00126036,-0.00302599,-0.160361,0.00254374,0.0161683,1231,1744,4.419,-15.5333
14,-720,4.42932,15.5587,0.00105539,-0.00344191,-0.000418484,0.001094,-0.00348052,-0.0919998,0.0027583,0.014292,1238,1744,4.42926,-15.5587
21,-720,4.41919,15.5931,0.000884962,-0.00383722,-0.000127087,0.00088838,-0.00384064,-0.0268869,0.00290224,0.0109221,1245,1744,4.41913,-15.5931
28,-720,4.4104,15.6387,0.000681538,-0.00407488,0.000192542,0.00068932,-0.00408266,0.0403923,0.00297826,0.0115264,1252,1744,4.41038,-15.6387
35,-720,4.42273,15.66,0.00046726,-0.00418784,0.000532159,0.00052732,-0.0042479,0.112386,0.00302308,0.011437,1259,1744,4.42278,-15.6601
42,-720,4.41907,15.6835,0.000147931,-0.00412448,0.000784671,0.000287485,-0.00426403,0.17601,0.0029432,0.0111416,1266,1744,4.41907,-15.6835
49,-720,4.41663,15.684,-6.35133e-05,-0.00404145,0.000993673,0.00017089,-0.00427585,0.231661,0.0029092,0.011487,1273,1744,4.4166,-15.6839
56,-720,4.43933,15.7111,-0.00014289,-0.00380998,0.00113035,0.000177534,-0.00413041,0.276226,0.00281465,0.0106936,1280,1744,4.43937,-15.7111
63,-720,4.45496,15.7395,-0.000310788,-0.0034983,0.00130973,0.000158328,-0.00396742,0.343942,0.00269927,0.0127807,1287,1744,4.45495,-15.7395
70,-720,4.47534,15.7457,-0.00048791,-0.00308133,0.00139395,0.000119205,-0.00368845,0.410761,0.00249965,0.0139009,1294,1744,4.47532,-15.7457
77,-720,4.46082,15.7513,-0.000551684,-0.00283883,0.00141434,0.000123566,-0.00351408,0.44543,0.00238498,0.0157293,1301,1744,4.46082,-15.7513
84,-720,4.46838,15.752,-0.000552482,-0.00231656,0.00140895,0.000227742,-0.00309679,0.505729,0.00214447,0.0146056,1308,1744,4.46841,-15.752
91,-720,4.47058,15.7567,-0.000390792,-0.00188127,0.00152231,0.000558904,-0.00283097,0.557773,0.00209857,0.0135081,1315,1744,4.4706,-15.7567
98,-720,4.44543,15.7513,-0.000181481,-0.00146488,0.00163112,0.000929628,-0.00257599,0.597992,0.00209705,0.0124654,1322,1744,4.44548,-15.7513
105,-720,4.45007,15.7448,1.23722e-05,-0.00111495,0.00169281,0.00123289,-0.00233547,0.624684,0.00209272,0.0119228,1329,1744,4.45004,-15.7448
112,-720,4.47485,15.7428,0.000172005,-0.000703205,0.00183178,0.00161773,-0.00214893,0.668148,0.00218188,0.0102015,1336,1744,4.47488,-15.7428
119,-720,4.4845,15.7329,0.000285302,-0.000392366,0.00189137,0.00186795,-0.00197501,0.696765,0.00221902,0.0100918,1343,1744,4.48448,-15.733
126,-720,4.48792,15.7043,0.000494276,-0.000117951,0.00193891,0.00215109,-0.00177476,0.707105,0.00227006,0.0113967,1350,1744,4.48786,-15.7044
133,-720,4.48401,15.6847,0.000680754,0.000124656,0.00193826,0.0023608,-0.00155539,0.714158,0.0022769,0.0136011,1357,1744,4.48401,-15.6847
140,-720,4.50122,15.6678,0.000832937,0.000367661,0.00188014,0.00249477,-0.00129417,0.723844,0.00222386,0.0194606,1364,1744,4.5012,-15.6678
147,-720,4.49609,15.6027,0.000952182,0.000534736,0.0017926,0.00254817,-0.00106125,0.727441,0.00214203,0.0197145,1371,1744,4.49605,-15.6026
154,-720,4.49048,15.5542,0.000938215,0.000672143,0.00159295,0.00240368,-0.000793321,0.743737,0.00192226,0.0127135,1378,1744,4.49047,-15.5542
161,-720,4.49939,15.5223,0.000837824,0.000912859,0.00190629,0.002782,-0.00103132,0.795237,0.00227765,0.00899789,1385,1744,4.49942,-15.5224
168,-720,4.49658,15.4849,0.000845119,0.000772452,0.00222551,0.00303459,-0.00141702,0.777236,0.00262609,0.00935258,1392,1744,4.49653,-15.4849
175,-720,4.48218,15.431,0.000927859,0.000451947,0.00231229,0.00301441,-0.0016346,0.734124,0.00272323,0.0151694,1399,1744,4.48223,-15.431
182,-720,4.49268,15.3971,0.000969719,0.000434772,0.00236115,0.00307849,-0.001674,0.728998,0.00278351,0.0156298,1406,1744,4.49266,-15.3971
189,-720,4.51477,15.344,0.000947749,0.000123544,0.00253197,0.00310093,-0.00202964,0.704726,0.00298358,0.0133014,1413,1744,4.5148,-15.3439
196,-720,4.51099,15.2881,0.000810102,-0.000129445,0.00263782,0.00301965,-0.002339,0.697276,0.00310213,0.0151177,1420,1744,4.511,-15.2881
203,-720,4.4978,15.2255,0.000767893,-0.000147776,0.00267591,0.00302485,-0.00240474,0.700671,0.00314158,0.0177193,1427,1744,4.49786,-15.2254
210,-720,4.4989,15.1693,0.000851894,-0.000219189,0.00278033,0.00314779,-0.00251509,0.690254,0.00327626,0.0142235,1434,1744,4.49896,-15.1694
217,-720,4.48743,15.1105,0.000948482,-0.000261117,0.00262233,0.00303486,-0.00234749,0.672063,0.00311593,0.0120343,1441,1744,4.48739,-15.1105
224,-720,4.49121,15.0399,0.00104437,-0.000263616,0.00224538,0.00272906,-0.0019483,0.643688,0.00271299,0.00931876,1448,1744,4.49119,-15.0399
231,-720,4.50085,14.9635,0.00103203,-0.000151562,0.00171157,0.00225122,-0.00137076,0.618951,0.00211165,0.00965545,1455,1744,4.50083,-14.9635
238,-720,4.48889,14.8884,0.00101282,7.29658e-05,0.00110745,0.00174593,-0.000660139,0.584746,0.00143552,0.00846999,1462,1744,4.48894,-14.8884
245,-720,4.47888,14.8307,0.00101185,0.000467444,0.000460532,0.00127461,0.000204687,0.518485,0.000790397,0.0106757,1469,1744,4.47891,-14.8306
252,-720,4.48669,14.7542,0.000944805,0.000993224,-0.000230132,0.00120042,0.000737612,-0.837805,0.000699088,0.0112931,1476,1744,4.4867,-14.7542
259,-720,4.48279,14.678,0.000812032,0.00205252,-0.000873879,0.00250389,0.000360656,-1.09402,0.00156298,0.0102653,1483,1744,4.48278,-14.678
266,-720,4.46826,14.606,0.000715353,0.00365864,-0.00208053,0.0047354,-0.000361405,-1.09322,0.00328404,0.00867371,1490,1744,4.46825,-14.606
273,-720,4.45752,14.5172,0.000581325,0.00623436,-0.0029545,0.00749664,-0.000680952,-1.16703,0.00523952,0.0140841,1497,1744,4.45756,-14.5173
280,-720,4.40955,14.4126,0.000431232,0.0082624,-0.00288059,0.00920785,-0.000514216,-1.25366,0.00631695,0.0183792,1504,1744,4.40953,-14.4126
287,-720,4.34888,14.2467,0.000495593,0.0103889,-0.00278807,0.0111205,-0.000236017,-1.31417,0.0074936,0.028788,1511,1744,4.34885,-14.2467
294,-720,4.37549,14.0874,0.000609866,0.0123597,-0.00268373,0.0129437,2.59122e-05,-1.35655,0.0086205,0.0338912,1518,1744,4.37551,-14.0874
301,-720,4.44189,13.9885,0.000670434,0.0145183,-0.00250292,0.0149568,0.000231931,-1.39736,0.00989477,0.0342558,1525,1744,4.44185,-13.9886
308,-720,4.38892,13.7365,0.000762792,0.0159998,-0.00178672,0.0162066,0.000556083,-1.45562,0.0106239,0.036468,1532,1744,4.38897,-13.7364
315,-720,4.29565,13.4574,0.00163481,0.0184807,-0.000770515,0.0185159,0.00159964,-1.52518,0.0118468,0.0406941,1539,1744,4.29567,-13.4574
322,-720,4.43054,13.34,0.00406242,0.0200431,0.00361606,0.0208232,0.00328227,1.35831,0.0129277,0.0489789,1546,1744,4.43049,-13.34
329,-720,4.37122,13.7407,0,0,0,0,0,0,0,-1,1553,1744,4.37122,-13.7408
336,-720,4.03381,13.8407,0,0,0,0,0,0,0,-1,1560,1744,4.03376,-13.8407
343,-720,4.92786,14.7799,0,0,0,0,0,0,0,-1,1567,1744,4.92783,-14.78
350,-720,4.0741,11.1836,0,0,0,0,0,0,0,-1,1574,1744,4.07412,-11.1836
357,-720,3.55859,12.8541,0,0,0,0,0,0,0,-1,1581,1744,3.55854,-12.8541
364,-720,3.6908,12.4237,0,0,0,0,0,0,0,-1,1588,1744,3.69079,-12.4237
371,-720,3.8988,13.1925,0.0303566,0.00512638,0.0643972,0.0833627,-0.0478797,0.688675,0.0766904,0.0484301,1595,1744,3.89878,-13.1925
378,-720,4.03125,13.9476,0.0346199,0.00245905,0.0739221,0.0941904,-0.0571114,0.6783,0.0882242,0.046614,1602,1744,4.03122,-13.9476
385,-720,4.19629,14.5133,0,0,0,0,0,0,0,-1,1609,1744,4.19627,-14.5133
392,-720,0.0194092,12.0704,0,0,0,0,0,0,0,-1,1616,1744,0.019362,-12.0704
399,-720,-0.525269,12.6698,0,0,0,0,0,0,0,-1,1623,1744,-0.525208,-12.6698
406,-720,0,0,0,0,0,0,0,0,0,-1,1630,1744,0,0
413,-720,0,0,0,0,0,0,0,0,0,-1,1637,1744,0,0
420,-720,0,0,0,0,0,0,0,0,0,-1,1644,1744,0,0
427,-720,0,0,0,0,0,0,0,0,0,-1,1651,1744,0,0
434,-720,0,0,0,0,0,0,0,0,0,-1,1658,1744,0,0
441,-720,0,0,0,0,0,0,0,0,0,-1,1665,1744,0,0
448,-720,0,0,0,0,0,0,0,0,0,-1,1672,1744,0,0
455,-720,0,0,0,0,0,0,0,0,0,-1,1679,1744,0,0
462,-720,0,0,0,0,0,0,0,0,0,-1,1686,1744,0,0
469,-720,0,0,0,0,0,0,0,0,0,-1,1693,1744,0,0
476,-720,0,0,0,0,0,0,0,0,0,-1,1700,1744,0,0
483,-720,0,0,0,0,0,0,0,0,0,-1,1707,1744,0,0
490,-720,0,0,0,0,0,0,0,0,0,-1,1714,1744,0,0
497,-720,0,0,0,0,0,0,0,0,0,-1,1721,1744,0,0
504,-720,0,0,0,0,0,0,0,0,0,-1,1728,1744,0,0
511,-720,0,0,0,0,0,0,0,0,0,-1,1735,1744,0,0
518,-720,0,0,0,0,0,0,0,0,0,-1,1742,1744,0,0
525,-720,0,0,0,0,0,0,0,0,0,-1,1749,1744,0,0
532,-720,0,0,0,0,0,0,0,0,0,-1,1756,1744,0,0
539,-720,0,0,0,0,0,0,0,0,0,-1,1763,1744,0,0
546,-720,0,0,0,0,0,0,0,0,0,-1,1770,1744,0,0
553,-720,0,0,0,0,0,0,0,0,0,-1,1777,1744,0,0
560,-720,0,0,0,0,0,0,0,0,0,-1,1784,1744,0,0
567,-720,0,0,0,0,0,0,0,0,0,-1,1791,1744,0,0
574,-720,0,0,0,0,0,0,0,0,0,-1,1798,1744,0,0
581,-720,0,0,0,0,0,0,0,0,0,-1,1805,1744,0,0
588,-720,0,0,0,0,0,0,0,0,0,-1,1812,1744,0,0
595,-720,0,0,0,0,0,0,0,0,0,-1,1819,1744,0,0
602,-720,0,0,0,0,0,0,0,0,0,-1,1826,1744,0,0
609,-720,0,0,0,0,0,0,0,0,0,-1,1833,1744,0,0
616,-720,0,0,0,0,0,0,0,0,0,-1,1840,1744,0,0
623,-720,0,0,0,0,0,0,0,0,0,-1,1847,1744,0,0
630,-720,0,0,0,0,0,0,0,0,0,-1,1854,1744,0,0
637,-720,0,0,0,0,0,0,0,0,0,-1,1861,1744,0,0
644,-720,0,0,0,0,0,0,0,0,0,-1,1868,1744,0,0
651,-720,0,0,0,0,0,0,0,0,0,-1,1875,1744,0,0
658,-720,0,0,0,0,0,0,0,0,0,-1,1882,1744,0,0
665,-720,0,0,0,0,0,0,0,0,0,-1,1889,1744,0,0
672,-720,0,0,0,0,0,0,0,0,0,-1,1896,1744,0,0
679,-720,0,0,0,0,0,0,0,0,0,-1,1903,1744,0,0
686,-720,0,0,0,0,0,0,0,0,0,-1,1910,1744,0,0
693,-720,0,0,0,0,0,0,0,0,0,-1,1917,1744,0,0
700,-720,0,0,0,0,0,0,0,0,0,-1,1924,1744,0,0
707,-720,0,0,0,0,0,0,0,0,0,-1,1931,1744,0,0
714,-720,0,0,0,0,0,0,0,0,0,-1,1938,1744,0,0
721,-720,0,0,0,0,0,0,0,0,0,-1,1945,1744,0,0
728,-720,0,0,0,0,0,0,0,0,0,-1,1952,1744,0,0
735,-720,0,0,0,0,0,0,0,0,0,-1,1959,1744,0,0
742,-720,0,0,0,0,0,0,0,0,0,-1,1966,1744,0,0
749,-720,0,0,0,0,0,0,0,0,0,-1,1973,1744,0,0
756,-720,0,0,0,0,0,0,0,0,0,-1,1980,1744,0,0
763,-720,0,0,0,0,0,0,0,0,0,-1,1987,1744,0,0
770,-720,0,0,0,0,0,0,0,0,0,-1,1994,1744,0,0
777,-720,0,0,0,0,0,0,0,0,0,-1,2001,1744,0,0
784,-720,0,0,0,0,0,0,0,0,0,-1,2008,1744,0,0
791,-720,0,0,0,0,0,0,0,0,0,-1,2015,1744,0,0
798,-720,0,0,0,0,0,0,0,0,0,-1,2022,1744,0,0
805,-720,0,0,0,0,0,0,0,0,0,-1,2029,1744,0,0
812,-720,0,0,0,0,0,0,0,0,0,-1,2036,1744,0,0
-700,-727,0,0,0,0,0,0,0,0,0,-1,524,1751,0,0
-693,-727,0,0,0,0,0,0,0,0,0,-1,531,1751,0,0
-686,-727,0,0,0,0,0,0,0,0,0,-1,538,1751,0,0
-679,-727,0,0,0,0,0,0,0,0,0,-1,545,1751,0,0
-672,-727,0,0,0,0,0,0,0,0,0,-1,552,1751,0,0
-665,-727,0,0,0,0,0,0,0,0,0,-1,559,1751,0,0
-658,-727,0,0,0,0,0,0,0,0,0,-1,566,1751,0,0
-651,-727,0,0,0,0,0,0,0,0,0,-1,573,1751,0,0
-644,-727,0,0,0,0,0,0,0,0,0,-1,580,1751,0,0
-637,-727,0,0,0,0,0,0,0,0,0,-1,587,1751,0,0
-630,-727,0,0,0,0,0,0,0,0,0,-1,594,1751,0,0
-623,-727,0,0,0,0,0,0,0,0,0,-1,601,1751,0,0
-616,-727,0,0,0,0,0,0,0,0,0,-1,608,1751,0,0
-609,-727,0,0,0,0,0,0,0,0,0,-1,615,1751,0,0
-602,-727,0,0,0,0,0,0,0,0,0,-1,622,1751,0,0
-595,-727,0,0,0,0,0,0,0,0,0,-1,629,1751,0,0
-588,-727,0,0,0,0,0,0,0,0,0,-1,636,1751,0,0
-581,-727,0,0,0,0,0,0,0,0,0,-1,643,1751,0,0
-574,-727,0,0,0,0,0,0,0,0,0,-1,650,1751,0,0
-567,-727,0,0,0,0,0,0,0,0,0,-1,657,1751,0,0
-560,-727,0,0,0,0,0,0,0,0,0,-1,664,1751,0,0
-553,-727,0,0,0,0,0,0,0,0,0,-1,671,1751,0,0
-546,-727,0,0,0,0,0,0,0,0,0,-1,678,1751,0,0
-539,-727,0,0,0,0,0,0,0,0,0,-1,685,1751,0,0
-532,-727,0,0,0,0,0,0,0,0,0,-1,692,1751,0,0
-525,-727,0,0,0,0,0,0,0,0,0,-1,699,1751,0,0
-518,-727,0,0,0,0,0,0,0,0,0,-1,706,1751,0,0
-511,-727,0,0,0,0,0,0,0,0,0,-1,713,1751,0,0
-504,-727,0,0,0,0,0,0,0,0,0,-1,720,1751,0,0
-497,-727,0,0,0,0,0,0,0,0,0,-1,727,1751,0,0
-490,-727,0,0,0,0,0,0,0,0,0,-1,734,1751,0,0
-483,-727,0,0,0,0,0,0,0,0,0,-1,741,1751,0,0
-476,-727,0,0,0,0,0,0,0,0,0,-1,748,1751,0,0
-469,-727,0,0,0,0,0,0,0,0,0,-1,755,1751,0,0
-462,-727,0,0,0,0,0,0,0,0,0,-1,762,1751,0,0
-455,-727,0,0,0,0,0,0,0,0,0,-1,769,1751,0,0
-448,-727,0,0,0,0,0,0,0,0,0,-1,776,1751,0,0
-441,-727,0,0,0,0,0,0,0,0,0,-1,783,1751,0,0
-434,-727,0,0,0,0,0,0,0,0,0,-1,790,1751,0,0
-427,-727,0,0,0,0,0,0,0,0,0,-1,797,1751,0,0
-420,-727,0,0,0,0,0,0,0,0,0,-1,804,1751,0,0
-413,-727,0,0,0,0,0,0,0,0,0,-1,811,1751,0,0
-406,-727,0,0,0,0,0,0,0,0,0,-1,818,1751,0,0
-399,-727,0,0,0,0,0,0,0,0,0,-1,825,1751,0,0
-392,-727,0,0,0,0,0,0,0,0,0,-1,832,1751,0,0
-385,-727,0,0,0,0,0,0,0,0,0,-1,839,1751,0,0
-378,-727,0,0,0,0,0,0,0,0,0,-1,846,1751,0,0
-371,-727,0,0,0,0,0,0,0,0,0,-1,853,1751,0,0
-364,-727,0,0,0,0,0,0,0,0,0,-1,860,1751,0,0
-357,-727,0,0,0,0,0,0,0,0,0,-1,867,1751,0,0
-350,-727,0,0,0,0,0,0,0,0,0,-1,874,1751,0,0
-343,-727,0,0,0,0,0,0,0,0,0,-1,881,1751,0,0
-336,-727,0,0,0,0,0,0,0,0,0,-1,888,1751,0,0
-329,-727,0,0,0,0,0,0,0,0,0,-1,895,1751,0,0
-322,-727,0,0,0,0,0,0,0,0,0,-1,902,1751,0,0
-315,-727,0,0,0,0,0,0,0,0,0,-1,909,1751,0,0
-308,-727,0,0,0,0,0,0,0,0,0,-1,916,1751,0,0
-301,-727,0,0,0,0,0,0,0,0,0,-1,923,1751,0,0
-294,-727,0,0,0,0,0,0,0,0,0,-1,930,1751,0,0
-287,-727,0,0,0,0,0,0,0,0,0,-1,937,1751,0,0
-280,-727,0,0,0,0,0,0,0,0,0,-1,944,1751,0,0
-273,-727,0,0,0,0,0,0,0,0,0,-1,951,1751,0,0
-266,-727,4.24805,7.61145,0,0,0,0,0,0,0,-1,958,1751,4.24802,-7.6115
-259,-727,3.65228,5.4082,0,0,0,0,0,0,0,-1,965,1751,3.65229,-5.40818
-252,-727,7.05829,12.9366,0,0,0,0,0,0,0,-1,972,1751,7.0583,-12.9366
-245,-727,5.67279,14.0586,0,0,0,0,0,0,0,-1,979,1751,5.67278,-14.0586
-238,-727,4.28748,13.7914,0,0,0,0,0,0,0,-1,986,1751,4.28745,-13.7914
-231,-727,5.25122,13.4789,0,0,0,0,0,0,0,-1,993,1751,5.25119,-13.4789
-224,-727,5.69275,13.1571,0,0,0,0,0,0,0,-1,1000,1751,5.69277,-13.1571
-217,-727,2.6593,11.6831,0,0,0,0,0,0,0,-1,1007,1751,2.65933,-11.6831
-210,-727,2.78741,11.5624,0,0,0,0,0,0,0,-1,1014,1751,2.78739,-11.5624
-203,-727,2.81818,11.854,0,0,0,0,0,0,0,-1,1021,1751,2.81818,-11.854
-196,-727,4.10425,13.3547,0,0,0,0,0,0,0,-1,1028,1751,4.1043,-13.3548
-189,-727,4.22009,12.8853,0,0,0,0,0,0,0,-1,1035,1751,4.22003,-12.8853
-182,-727,4.34192,13.2605,0,0,0,0,0,0,0,-1,1042,1751,4.34186,-13.2606
-175,-727,4.40247,13.6962,0,0,0,0,0,0,0,-1,1049,1751,4.40252,-13.6961
-168,-727,4.7876,13.6952,0,0,0,0,0,0,0,-1,1056,1751,4.78757,-13.6952
-161,-727,4.32776,13.6647,0,0,0,0,0,0,0,-1,1063,1751,4.32771,-13.6647
-154,-727,4.5238,13.6559,-0.000601225,0.00866316,0.00649983,0.0120125,-0.00395058,1.09499,0.00960009,0.0457583,1070,1751,4.52381,-13.6559
-147,-727,4.55957,13.9191,-0.000438739,0.00849335,0.00567891,0.011252,-0.00319734,1.1186,0.00876371,0.0389295,1077,1751,4.55952,-13.919
-140,-727,4.46997,13.8835,-0.00095358,0.0080238,0.00417877,0.00966784,-0.00259763,1.19597,0.00746334,0.0262839,1084,1751,4.46994,-13.8835
-133,-727,4.55957,14.0189,-0.00110372,0.00767578,0.00329154,0.00877275,-0.00220069,1.2491,0.00670357,0.0202595,1091,1751,4.55954,-14.0189
-126,-727,4.50024,14.1842,-0.000786154,0.00733362,0.00276071,0.00818334,-0.00163587,1.27221,0.00607472,0.0140255,1098,1751,4.50028,-14.1843
-119,-727,4.48572,14.3215,-0.000332053,0.00692026,0.00244518,0.00766765,-0.00107944,1.27416,0.00550696,0.0119889,1105,1751,4.4857,-14.3215
-112,-727,4.4928,14.3973,0.0002473,0.00629017,0.0022338,0.00702625,-0.000488781,1.25248,0.0048553,0.0131427,1112,1751,4.4928,-14.3974
-105,-727,4.48267,14.4972,0.000693464,0.00562198,0.00193336,0.00628989,2.55557e-05,1.23817,0.00418477,0.0125972,1119,1751,4.48271,-14.4972
-98,-727,4.49805,14.5807,0.00087888,0.00498127,0.00162346,0.005546,0.000314156,1.23604,0.00359719,0.0111462,1126,1751,4.49802,-14.5807
-91,-727,4.49866,14.6595,0.000924123,0.00448334,0.00134267,0.00493303,0.000474433,1.24762,0.00314251,0.0108371,1133,1751,4.49868,-14.6595
-84,-727,4.47583,14.7559,0.000846495,0.00395307,0.00112949,0.00432031,0.00047925,1.25644,0.00273449,0.0113117,1140,1751,4.47587,-14.7558
-77,-727,4.46985,14.8505,0.00121141,0.00288865,0.000919265,0.00329435,0.000805713,1.15517,0.001983,0.0119536,1147,1751,4.4698,-14.8504
-70,-727,4.46716,14.9121,0.00111108,0.00244557,0.00046138,0.00258955,0.000967096,1.26831,0.00151095,0.0117409,1154,1751,4.46718,-14.9122
-63,-727,4.46509,14.9855,0.000587756,0.00177819,0.000131552,0.00179256,0.000573391,1.46204,0.00105708,0.00957211,1161,1751,4.46504,-14.9855
-56,-727,4.45508,15.0593,3.64883e-05,0.00180706,-0.000171054,0.00182343,2.01144e-05,-1.47536,0.00120897,0.0100336,1168,1751,4.45512,-15.0593
-49,-727,4.43018,15.1172,-0.000362035,0.00170952,-0.000152989,0.00172076,-0.000373272,-1.49747,0.00128973,0.0132389,1175,1751,4.43015,-15.1172
-42,-727,4.44812,15.183,-1.71472e-05,0.00179612,-0.000238617,0.001827,-4.80223e-05,-1.44212,0.00123432,0.0171868,1182,1751,4.4481,-15.1829
-35,-727,4.46716,15.2367,0.000331926,0.00176247,-0.000547369,0.00194788,0.000146517,-1.2442,0.00125261,0.0150257,1189,1751,4.46721,-15.2367
-28,-727,4.45715,15.2906,0.000492394,0.00158782,-0.000778306,0.00199182,8.83985e-05,-1.09201,0.00129941,0.00838856,1196,1751,4.45715,-15.2907
-21,-727,4.43616,15.359,0.000684549,0.00115627,-0.000978048,0.0019265,-8.56754e-05,-0.903717,0.00131382,0.00984354,1203,1751,4.43617,-15.359
-14,-727,4.44629,15.397,0.000838312,0.000530208,-0.00112559,0.00182035,-0.000451828,-0.717389,0.00138889,0.0113069,1210,1751,4.4463,-15.3969
-7,-727,4.46265,15.4681,0.000935979,-8.66403e-05,-0.00119764,0.00172689,-0.000877551,-0.583646,0.0015301,0.0147332,1217,1751,4.46267,-15.4682
0,-727,4.46838,15.5365,0.00103185,-0.000784698,-0.00117079,0.00160537,-0.00135822,-0.455501,0.00171301,0.0145507,1224,1751,4.46839,-15.5365
7,-727,4.44604,15.5435,0.00108569,-0.00135471,-0.00107239,0.00148996,-0.00175898,-0.360506,0.00187792,0.0139857,1231,1751,4.44609,-15.5434
14,-727,4.4552,15.5568,0.00105481,-0.00186787,-0.000880853,0.00129976,-0.00211282,-0.271227,0.0019888,0.0129814,1238,1751,4.45525,-15.5568
21,-727,4.45496,15.6111,0.00098472,-0.00227106,-0.00066167,0.00111405,-0.00240039,-0.193031,0.00207388,0.0112033,1245,1751,4.45491,-15.611
28,-727,4.46619,15.6427,0.000876593,-0.00251826,-0.000418015,0.000927306,-0.00256898,-0.12073,0.00209144,0.0108495,1252,1751,4.46624,-15.6427
35,-727,4.47839,15.6428,0.000767673,-0.00258578,-8.62875e-05,0.000769892,-0.002588,-0.0257083,0.0020312,0.0114277,1259,1751,4.47844,-15.6428
42,-727,4.45105,15.6632,0.000559444,-0.00257085,0.000204527,0.000572751,-0.00258416,0.0649699,0.00194205,0.0116043,1266,1751,4.45109,-15.6632
49,-727,4.42627,15.6757,0.000423573,-0.00259205,0.000472813,0.000495967,-0.00266445,0.151932,0.00196262,0.0107191,1273,1751,4.42632,-15.6756
56,-727,4.42993,15.7307,0.000371456,-0.00243068,0.000681939,0.000528603,-0.00258783,0.226487,0.00192575,0.00981029,1280,1751,4.42992,-15.7308
63,-727,4.46582,15.7479,0.000235783,-0.00220193,0.000921882,0.000545153,-0.0025113,0.323776,0.00188242,0.0122119,1287,1751,4.46581,-15.748
70,-727,4.49109,15.739,-3.81585e-06,-0.00177936,0.00122166,0.000618579,-0.00240175,0.471191,0.00184231,0.0146079,1294,1751,4.49113,-15.739
77,-727,4.47778,15.7606,-0.000206081,-0.00166933,0.00156504,0.0007899,-0.00266532,0.56675,0.00209053,0.0167152,1301,1751,4.47784,-15.7606
84,-727,4.46521,15.7573,-0.000317469,-0.00138657,0.00180231,0.00102789,-0.00273193,0.641234,0.00224382,0.0166218,1308,1751,4.4652,-15.7573
91,-727,4.47778,15.7338,-0.000314321,-0.00110195,0.00214963,0.00147727,-0.00289354,0.694802,0.00256727,0.0165473,1315,1751,4.47777,-15.7338
98,-727,4.46411,15.7449,-0.000237864,-0.000858268,0.00249121,0.00196238,-0.00305851,0.723458,0.00292175,0.0140488,1322,1751,4.46415,-15.7449
105,-727,4.46021,15.7416,-0.000208751,-0.000684481,0.00277307,0.00233664,-0.00322987,0.742615,0.00322759,0.0132482,1329,1751,4.46018,-15.7415
112,-727,4.47083,15.7294,-0.00020259,-0.000494965,0.00308155,0.00273624,-0.0034338,0.761696,0.00356985,0.0108003,1336,1751,4.47084,-15.7293
119,-727,4.47717,15.7245,-0.000154148,-0.000327777,0.00325396,0.00301415,-0.00349608,0.772061,0.00376212,0.00887474,1343,1751,4.47713,-15.7244
126,-727,4.48071,15.6964,-1.20698e-05,-0.000163886,0.00336922,0.00328209,-0.00345805,0.774135,0.00389187,0.0110735,1350,1751,4.48075,-15.6965
133,-727,4.4812,15.6914,0.000153882,2.74222e-06,0.00336322,0.00344238,-0.00328576,0.774165,0.00388485,0.0151555,1357,1751,4.48126,-15.6914
140,-727,4.48486,15.6708,0.000300389,0.000170129,0.00320082,0.00343674,-0.00296622,0.775226,0.00370008,0.0211542,1364,1751,4.48489,-15.6707
147,-727,4.48413,15.6187,0.000397563,0.000347295,0.00297465,0.00334719,-0.00260233,0.781174,0.00344391,0.0183945,1371,1751,4.48418,-15.6186
154,-727,4.48401,15.5549,0.000388752,0.000498213,0.00259351,0.00303757,-0.00215061,0.795948,0.00300995,0.0113323,1378,1751,4.48398,-15.555
161,-727,4.45728,15.527,0.000330599,0.000727305,0.00330586,0.00384076,-0.00278285,0.815362,0.00384037,0.00878687,1385,1751,4.45726,-15.527
168,-727,4.43799,15.4907,0.000481214,0.000333516,0.00417569,0.00458371,-0.00376898,0.776556,0.00483007,0.0114507,1392,1751,4.43803,-15.4908
175,-727,4.45129,15.4384,0.000900581,-0.000422986,0.00446909,0.00475662,-0.00427903,0.711892,0.00521916,0.0172663,1399,1751,4.45127,-15.4383
182,-727,4.47278,15.3958,0.00123277,-0.000429439,0.00475385,0.00522762,-0.00442429,0.698859,0.00557896,0.0193759,1406,1751,4.47274,-15.3957
189,-727,4.46497,15.3256,0.00122796,-0.000831765,0.00552419,0.00581747,-0.00542128,0.693242,0.00649004,0.0122017,1413,1751,4.46497,-15.3255
196,-727,4.45264,15.2764,0.00108356,-0.001346,0.00603715,0.00602694,-0.00628938,0.686115,0.00711137,0.0143283,1420,1751,4.4526,-15.2764
203,-727,4.4364,15.2067,0.00107429,-0.00135077,0.00634756,0.00632409,-0.00660057,0.691023,0.00746263,0.0177057,1427,1751,4.43637,-15.2066
210,-727,4.43274,15.1619,0.0012554,-0.00140361,0.00656386,0.00662304,-0.00677125,0.685475,0.00773336,0.0162694,1434,1751,4.43275,-15.1618
217,-727,4.43091,15.1107,0.00143556,-0.00137753,0.00626128,0.00644633,-0.00638831,0.674911,0.00741011,0.0112736,1441,1751,4.43088,-15.1107
224,-727,4.42603,15.0219,0.00155743,-0.00125609,0.00548777,0.00581588,-0.00551454,0.659928,0.00654239,0.0119523,1448,1751,4.426,-15.0218
231,-727,4.42346,14.9564,0.00154276,-0.000969637,0.00443668,0.00489765,-0.00432453,0.647439,0.00532785,0.00991164,1455,1751,4.42349,-14.9564
238,-727,4.43896,14.884,0.0015122,-0.000534471,0.00327754,0.00392245,-0.00294472,0.63408,0.00397813,0.00989267,1462,1751,4.43893,-14.884
245,-727,4.43103,14.8149,0.00150028,0.000108364,0.00207915,0.00299686,-0.00138822,0.623894,0.00258789,0.00912967,1469,1751,4.431,-14.815
252,-727,4.40186,14.7344,0.00140224,0.000885822,0.000870439,0.00205196,0.000236103,0.64121,0.00129646,0.0106518,1476,1751,4.40187,-14.7344
259,-727,4.40063,14.6494,0.00121804,0.00231138,-0.000245428,0.00236394,0.00116548,-1.3598,0.00136487,0.0151011,1483,1751,4.40058,-14.6494
266,-727,4.46362,14.6301,0.0011114,0.00440569,-0.00251074,0.00576136,-0.000244271,-1.0757,0.00392487,0.0228986,1490,1751,4.4636,-14.6301
273,-727,4.5365,14.5891,0.000943429,0.00803284,-0.00420629,0.00998884,-0.00101257,-1.13552,0.00702113,0.0380345,1497,1751,4.53647,-14.5891
280,-727,4.28931,14.421,0,0,0,0,0,0,0,-1,1504,1751,4.28928,-14.421
287,-727,4.19678,14.2053,0,0,0,0,0,0,0,-1,1511,1751,4.19677,-14.2053
294,-727,4.20508,13.9421,0,0,0,0,0,0,0,-1,1518,1751,4.20505,-13.9421
301,-727,4.47314,13.891,0,0,0,0,0,0,0,-1,1525,1751,4.47313,-13.8909
308,-727,4.24426,13.2219,0,0,0,0,0,0,0,-1,1532,1751,4.2443,-13.2219
315,-727,4.04932,12.8336,0,0,0,0,0,0,0,-1,1539,1751,4.0493,-12.8336
322,-727,4.27612,12.7295,0,0,0,0,0,0,0,-1,1546,1751,4.27615,-12.7295
329,-727,6.61853,11.6267,0,0,0,0,0,0,0,-1,1553,1751,6.61859,-11.6267
336,-727,3.34875,7.61792,0,0,0,0,0,0,0,-1,1560,1751,3.34872,-7.61791
343,-727,2.41699,8.72095,0,0,0,0,0,0,0,-1,1567,1751,2.41702,-8.72098
350,-727,3.89783,7.50195,0,0,0,0,0,0,0,-1,1574,1751,3.89782,-7.50193
357,-727,4.48462,10.2948,0,0,0,0,0,0,0,-1,1581,1751,4.48464,-10.2948
364,-727,4.47852,11.4702,0,0,0,0,0,0,0,-1,1588,1751,4.47846,-11.4703
371,-727,3.57446,12.9564,0,0,0,0,0,0,0,-1,1595,1751,3.57443,-12.9564
378,-727,3.19482,14.0498,0.0388944,0.00284643,0.0961541,0.118699,-0.0769583,0.692749,0.113817,0.0484118,1602,1751,3.19486,-14.0498
385,-727,3.19275,14.7679,0,0,0,0,0,0,0,-1,1609,1751,3.19274,-14.768
392,-727,0,0,0,0,0,0,0,0,0,-1,1616,1751,0,0
399,-727,0,0,0,0,0,0,0,0,0,-1,1623,1751,0,0
406,-727,0,0,0,0,0,0,0,0,0,-1,1630,1751,0,0
413,-727,0,0,0,0,0,0,0,0,0,-1,1637,1751,0,0
420,-727,0,0,0,0,0,0,0,0,0,-1,1644,1751,0,0
427,-727,0,0,0,0,0,0,0,0,0,-1,1651,1751,0,0
434,-727,0,0,0,0,0,0,0,0,0,-1,1658,1751,0,0
441,-727,0,0,0,0,0,0,0,0,0,-1,1665,1751,0,0
448,-727,0,0,0,0,0,0,0,0,0,-1,1672,1751,0,0
455,-727,0,0,0,0,0,0,0,0,0,-1,1679,1751,0,0
462,-727,0,0,0,0,0,0,0,0,0,-1,1686,1751,0,0
469,-727,0,0,0,0,0,0,0,0,0,-1,1693,1751,0,0
476,-727,0,0,0,0,0,0,0,0,0,-1,1700,1751,0,0
483,-727,0,0,0,0,0,0,0,0,0,-1,1707,1751,0,0
490,-727,0,0,0,0,0,0,0,0,0,-1,1714,1751,0,0
497,-727,0,0,0,0,0,0,0,0,0,-1,1721,1751,0,0
504,-727,0,0,0,0,0,0,0,0,0,-1,1728,1751,0,0
511,-727,0,0,0,0,0,0,0,0,0,-1,1735,1751,0,0
518,-727,0,0,0,0,0,0,0,0,0,-1,1742,1751,0,0
525,-727,0,0,0,0,0,0,0,0,0,-1,1749,1751,0,0
532,-727,0,0,0,0,0,0,0,0,0,-1,1756,1751,0,0
539,-727,0,0,0,0,0,0,0,0,0,-1,1763,1751,0,0
546,-727,0,0,0,0,0,0,0,0,0,-1,1770,1751,0,0
553,-727,0,0,0,0,0,0,0,0,0,-1,1777,1751,0,0
560,-727,0,0,0,0,0,0,0,0,0,-1,1784,1751,0,0
567,-727,0,0,0,0,0,0,0,0,0,-1,1791,1751,0,0
574,-727,0,0,0,0,0,0,0,0,0,-1,1798,1751,0,0
581,-727,0,0,0,0,0,0,0,0,0,-1,1805,1751,0,0
588,-727,0,0,0,0,0,0,0,0,0,-1,1812,1751,0,0
595,-727,0,0,0,0,0,0,0,0,0,-1,1819,1751,0,0
602,-727,0,0,0,0,0,0,0,0,0,-1,1826,1751,0,0
609,-727,0,0,0,0,0,0,0,0,0,-1,1833,1751,0,0
616,-727,0,0,0,0,0,0,0,0,0,-1,1840,1751,0,0
623,-727,0,0,0,0,0,0,0,0,0,-1,1847,1751,0,0
630,-727,0,0,0,0,0,0,0,0,0,-1,1854,1751,0,0
637,-727,0,0,0,0,0,0,0,0,0,-1,1861,1751,0,0
644,-727,0,0,0,0,0,0,0,0,0,-1,1868,1751,0,0
651,-727,0,0,0,0,0,0,0,0,0,-1,1875,1751,0,0
658,-727,0,0,0,0,0,0,0,0,0,-1,1882,1751,0,0
665,-727,0,0,0,0,0,0,0,0,0,-1,1889,1751,0,0
672,-727,0,0,0,0,0,0,0,0,0,-1,1896,1751,0,0
679,-727,0,0,0,0,0,0,0,0,0,-1,1903,1751,0,0
686,-727,0,0,0,0,0,0,0,0,0,-1,1910,1751,0,0
693,-727,0,0,0,0,0,0,0,0,0,-1,1917,1751,0,0
700,-727,0,0,0,0,0,0,0,0,0,-1,1924,1751,0,0
707,-727,0,0,0,0,0,0,0,0,0,-1,1931,1751,0,0
714,-727,0,0,0,0,0,0,0,0,0,-1,1938,1751,0,0
721,-727,0,0,0,0,0,0,0,0,0,-1,1945,1751,0,0
728,-727,0,0,0,0,0,0,0,0,0,-1,1952,1751,0,0
735,-727,0,0,0,0,0,0,0,0,0,-1,1959,1751,0,0
742,-727,0,0,0,0,0,0,0,0,0,-1,1966,1751,0,0
749,-727,0,0,0,0,0,0,0,0,0,-1,1973,1751,0,0
756,-727,0,0,0,0,0,0,0,0,0,-1,1980,1751,0,0
763,-727,0,0,0,0,0,0,0,0,0,-1,1987,1751,0,0
770,-727,0,0,0,0,0,0,0,0,0,-1,1994,1751,0,0
777,-727,0,0,0,0,0,0,0,0,0,-1,2001,1751,0,0
784,-727,0,0,0,0,0,0,0,0,0,-1,2008,1751,0,0
791,-727,0,0,0,0,0,0,0,0,0,-1,2015,1751,0,0
798,-727,0,0,0,0,0,0,0,0,0,-1,2022,1751,0,0
805,-727,0,0,0,0,0,0,0,0,0,-1,2029,1751,0,0
812,-727,0,0,0,0,0,0,0,0,0,-1,2036,1751,0,0
-700,-734,0,0,0,0,0,0,0,0,0,-1,524,1758,0,0
-693,-734,0,0,0,0,0,0,0,0,0,-1,531,1758,0,0
-686,-734,0,0,0,0,0,0,0,0,0,-1,538,1758,0,0
-679,-734,0,0,0,0,0,0,0,0,0,-1,545,1758,0,0
-672,-734,0,0,0,0,0,0,0,0,0,-1,552,1758,0,0
-665,-734,0,0,0,0,0,0,0,0,0,-1,559,1758,0,0
-658,-734,0,0,0,0,0,0,0,0,0,-1,566,1758,0,0
-651,-734,0,0,0,0,0,0,0,0,0,-1,573,1758,0,0
-644,-734,0,0,0,0,0,0,0,0,0,-1,580,1758,0,0
-637,-734,0,0,0,0,0,0,0,0,0,-1,587,1758,0,0
-630,-734,0,0,0,0,0,0,0,0,0,-1,594,1758,0,0
-623,-734,0,0,0,0,0,0,0,0,0,-1,601,1758,0,0
-616,-734,0,0,0,0,0,0,0,0,0,-1,608,1758,0,0
-609,-734,0,0,0,0,0,0,0,0,0,-1,615,1758,0,0
-602,-734,0,0,0,0,0,0,0,0,0,-1,622,1758,0,0
-595,-734,0,0,0,0,0,0,0,0,0,-1,629,1758,0,0
-588,-734,0,0,0,0,0,0,0,0,0,-1,636,1758,0,0
-581,-734,0,0,0,0,0,0,0,0,0,-1,643,1758,0,0
-574,-734,0,0,0,0,0,0,0,0,0,-1,650,1758,0,0
-567,-734,0,0,0,0,0,0,0,0,0,-1,657,1758,0,0
-560,-734,0,0,0,0,0,0,0,0,0,-1,664,1758,0,0
-553,-734,0,0,0,0,0,0,0,0,0,-1,671,1758,0,0
-546,-734,0,0,0,0,0,0,0,0,0,-1,678,1758,0,0
-539,-734,0,0,0,0,0,0,0,0,0,-1,685,1758,0,0
-532,-734,0,0,0,0,0,0,0,0,0,-1,692,1758,0,0
-525,-734,0,0,0,0,0,0,0,0,0,-1,699,1758,0,0
-518,-734,0,0,0,0,0,0,0,0,0,-1,706,1758,0,0
-511,-734,0,0,0,0,0,0,0,0,0,-1,713,1758,0,0
-504,-734,0,0,0,0,0,0,0,0,0,-1,720,1758,0,0
-497,-734,0,0,0,0,0,0,0,0,0,-1,727,1758,0,0
-490,-734,0,0,0,0,0,0,0,0,0,-1,734,1758,0,0
-483,-734,0,0,0,0,0,0,0,0,0,-1,741,1758,0,0
-476,-734,0,0,0,0,0,0,0,0,0,-1,748,1758,0,0
-469,-734,0,0,0,0,0,0,0,0,0,-1,755,1758,0,0
-462,-734,0,0,0,0,0,0,0,0,0,-1,762,1758,0,0
-455,-734,0,0,0,0,0,0,0,0,0,-1,769,1758,0,0
-448,-734,0,0,0,0,0,0,0,0,0,-1,776,1758,0,0
-441,-734,0,0,0,0,0,0,0,0,0,-1,783,1758,0,0
-434,-734,0,0,0,0,0,0,0,0,0,-1,790,1758,0,0
-427,-734,0,0,0,0,0,0,0,0,0,-1,797,1758,0,0
-420,-734,0,0,0,0,0,0,0,0,0,-1,804,1758,0,0
-413,-734,0,0,0,0,0,0,0,0,0,-1,811,1758,0,0
-406,-734,0,0,0,0,0,0,0,0,0,-1,818,1758,0,0
-399,-734,0,0,0,0,0,0,0,0,0,-1,825,1758,0,0
-392,-734,0,0,0,0,0,0,0,0,0,-1,832,1758,0,0
-385,-734,0,0,0,0,0,0,0,0,0,-1,839,1758,0,0
-378,-734,0,0,0,0,0,0,0,0,0,-1,846,1758,0,0
-371,-734,0,0,0,0,0,0,0,0,0,-1,853,1758,0,0
-364,-734,0,0,0,0,0,0,0,0,0,-1,860,1758,0,0
-357,-734,0,0,0,0,0,0,0,0,0,-1,867,1758,0,0
-350,-734,0,0,0,0,0,0,0,0,0,-1,874,1758,0,0
-343,-734,0,0,0,0,0,0,0,0,0,-1,881,1758,0,0
-336,-734,0,0,0,0,0,0,0,0,0,-1,888,1758,0,0
-329,-734,0,0,0,0,0,0,0,0,0,-1,895,1758,0,0
-322,-734,0,0,0,0,0,0,0,0,0,-1,902,1758,0,0
-315,-734,0,0,0,0,0,0,0,0,0,-1,909,1758,0,0
-308,-734,0,0,0,0,0,0,0,0,0,-1,916,1758,0,0
-301,-734,0,0,0,0,0,0,0,0,0,-1,923,1758,0,0
-294,-734,0,0,0,0,0,0,0,0,0,-1,930,1758,0,0
-287,-734,0,0,0,0,0,0,0,0,0,-1,937,1758,0,0
-280,-734,0,0,0,0,0,0,0,0,0,-1,944,1758,0,0
-273,-734,0,0,0,0,0,0,0,0,0,-1,951,1758,0,0
-266,-734,0,0,0,0,0,0,0,0,0,-1,958,1758,0,0
-259,-734,0,0,0,0,0,0,0,0,0,-1,965,1758,0,0
-252,-734,6.44257,12.0737,0,0,0,0,0,0,0,-1,972,1758,6.44255,-12.0737
-245,-734,5.9212,12.6437,0,0,0,0,0,0,0,-1,979,1758,5.9212,-12.6437
-238,-734,5.40942,12.9744,0,0,0,0,0,0,0,-1,986,1758,5.40944,-12.9743
-231,-734,1.2951,12.1371,0,0,0,0,0,0,0,-1,993,1758,1.29509,-12.1371
-224,-734,1.54254,11.7338,0,0,0,0,0,0,0,-1,1000,1758,1.54253,-11.7338
-217,-734,1.95294,11.6023,0,0,0,0,0,0,0,-1,1007,1758,1.95292,-11.6023
-210,-734,2.25848,11.377,0,0,0,0,0,0,0,-1,1014,1758,2.2585,-11.3769
-203,-734,1.61005,12.5138,0,0,0,0,0,0,0,-1,1021,1758,1.61005,-12.5138
-196,-734,1.82971,12.6195,0,0,0,0,0,0,0,-1,1028,1758,1.82974,-12.6195
-189,-734,5.8573,13.1915,0,0,0,0,0,0,0,-1,1035,1758,5.85734,-13.1915
-182,-734,4.66089,12.6896,0,0,0,0,0,0,0,-1,1042,1758,4.66084,-12.6896
-175,-734,4.53308,12.047,0,0,0,0,0,0,0,-1,1049,1758,4.53303,-12.0469
-168,-734,-0.634521,9.44177,0,0,0,0,0,0,0,-1,1056,1758,-0.63449,-9.4418
-161,-734,3.51257,9.94104,0,0,0,0,0,0,0,-1,1063,1758,3.51257,-9.94101
-154,-734,4.4635,13.62,0,0,0,0,0,0,0,-1,1070,1758,4.46345,-13.62
-147,-734,4.43884,13.8862,-0.000599306,0.0119086,0.00726878,0.0152435,-0.00393426,1.14064,0.0116964,0.0491705,1077,1758,4.43888,-13.8862
-140,-734,4.61279,13.8943,-0.00119611,0.0112252,0.00534505,0.0132085,-0.00317947,1.21548,0.0100348,0.0387989,1084,1758,4.61278,-13.8943
-133,-734,4.67871,14.0305,-0.00123087,0.0106609,0.00422332,0.0120082,-0.00257813,1.262,0.00898891,0.0374449,1091,1758,4.67865,-14.0305
-126,-734,4.51416,14.1351,-0.000664109,0.0101053,0.00353134,0.01116,-0.00171876,1.28057,0.00807413,0.0339298,1098,1758,4.51413,-14.1351
-119,-734,4.49988,14.3074,6.02391e-05,0.00943861,0.00307697,0.010358,-0.000859161,1.28044,0.00720881,0.0336128,1105,1758,4.49991,-14.3074
-112,-734,4.54138,14.3651,0.000889068,0.00855741,0.00273794,0.00943462,1.18497e-05,1.26074,0.0062858,0.0259502,1112,1758,4.54139,-14.3651
-105,-734,4.58691,14.4768,0.00150516,0.00759327,0.00232909,0.00838208,0.000716344,1.24424,0.00536524,0.0195254,1119,1758,4.5869,-14.4768
-98,-734,4.59485,14.5663,0.00177355,0.00668762,0.00192975,0.00735484,0.00110633,1.23791,0.00457922,0.0167149,1126,1758,4.59481,-14.5662
-91,-734,4.58252,14.6461,0.00181833,0.00588551,0.00156885,0.00642034,0.0012835,1.24225,0.00392301,0.020019,1133,1758,4.58247,-14.6461
-84,-734,4.5592,14.7299,0.00165323,0.00503017,0.00127955,0.00546023,0.00122317,1.24655,0.00330867,0.0175857,1140,1758,4.55917,-14.7299
-77,-734,4.54553,14.8311,0.00204405,0.0034363,0.00101754,0.00397305,0.0015073,1.0854,0.00231598,0.0154467,1147,1758,4.54548,-14.8311
-70,-734,4.51086,14.8582,0.00178027,0.00271261,0.000450431,0.00289467,0.00159821,1.18668,0.00167426,0.0113403,1154,1758,4.51088,-14.8581
-63,-734,4.51599,14.965,0.00263247,0.00132265,0.000101643,0.00264031,0.00131481,0.0769862,0.00152439,0.0108189,1161,1758,4.51593,-14.965
-56,-734,4.51782,15.0549,0.00367292,0.00138772,-0.00038169,0.00373498,0.00132565,-0.161199,0.00218644,0.0117767,1168,1758,4.51787,-15.055
-49,-734,4.50671,15.1177,0.00368934,0.00129183,-0.000317982,0.0037308,0.00125037,-0.129644,0.00219265,0.0121308,1175,1758,4.50671,-15.1176
-42,-734,4.50793,15.192,0.0040968,0.00135036,-0.000105887,0.00410087,0.00134629,-0.0384781,0.00241373,0.0137082,1182,1758,4.50798,-15.192
-35,-734,4.51477,15.2462,0.00443753,0.00131781,-0.000306588,0.00446737,0.00128796,-0.0970373,0.00265518,0.0143708,1189,1758,4.5148,-15.2462
-28,-734,4.51001,15.2915,0.00446702,0.00124583,-0.000368866,0.00450872,0.00120413,-0.112571,0.00269562,0.0101209,1196,1758,4.51003,-15.2915
-21,-734,4.53528,15.3453,0.00429919,0.00087767,-0.00045686,0.00435914,0.000817718,-0.130481,0.0026755,0.014521,1203,1758,4.5353,-15.3454
-14,-734,4.49487,15.4177,0.00389275,0.000332736,-0.000516476,0.00396616,0.000259321,-0.1412,0.00256205,0.0154263,1210,1758,4.49484,-15.4177
-7,-734,4.50427,15.4539,0.00331705,-0.000203033,-0.00053106,0.00339542,-0.000281407,-0.146522,0.00236301,0.0174224,1217,1758,4.50431,-15.4538
0,-734,4.51501,15.5035,0.00275672,-0.000817592,-0.000502751,0.00282609,-0.000886961,-0.137113,0.00223906,0.0167601,1224,1758,4.51498,-15.5035
7,-734,4.48218,15.5449,0.00220416,-0.00135005,-0.000467192,0.00226454,-0.00141043,-0.128539,0.00214076,0.0129237,1231,1758,4.48223,-15.5449
14,-734,4.47424,15.5786,0.00162014,-0.0018108,-0.000372322,0.00166008,-0.00185074,-0.106861,0.00202797,0.0125762,1238,1758,4.47426,-15.5786
21,-734,4.47168,15.6038,0.00116808,-0.002189,-0.000209146,0.00118106,-0.00220198,-0.0619805,0.00198262,0.0105916,1245,1758,4.4717,-15.6037
28,-734,4.48071,15.6332,0.000804566,-0.00242083,-1.66805e-05,0.000804652,-0.00242092,-0.00517142,0.00193865,0.0104631,1252,1758,4.48075,-15.6332
35,-734,4.49243,15.6521,0.000561347,-0.0024099,0.000248778,0.000582033,-0.00243058,0.0829587,0.00184526,0.0130879,1259,1758,4.4924,-15.6521
42,-734,4.49683,15.6608,0.000200868,-0.00232272,0.000515166,0.000301983,-0.00242384,0.193812,0.00172538,0.0118785,1266,1758,4.4968,-15.6608
49,-734,4.46167,15.6831,2.42986e-05,-0.00234706,0.000810627,0.000274917,-0.00259768,0.299845,0.00183032,0.0102138,1273,1758,4.46163,-15.6831
56,-734,4.44141,15.7256,0.000114555,-0.00210067,0.00106243,0.000541728,-0.00252784,0.382291,0.00189184,0.00963869,1280,1758,4.44137,-15.7255
63,-734,4.46362,15.7372,0.000240063,-0.0017858,0.00128429,0.000862809,-0.00240855,0.451489,0.00195774,0.0127629,1287,1758,4.46367,-15.7372
70,-734,4.44458,15.7517,0.00012719,-0.00118221,0.0017285,0.00132083,-0.00237584,0.604364,0.00216305,0.0133731,1294,1758,4.44452,-15.7517
77,-734,4.46033,15.7939,-7.6039e-05,-0.0010434,0.00229239,0.00178314,-0.00290258,0.681426,0.00273092,0.0172611,1301,1758,4.46028,-15.7939
84,-734,4.44141,15.7734,-0.000235356,-0.000734817,0.00268389,0.0022104,-0.00318057,0.739008,0.00312923,0.0163372,1308,1758,4.44147,-15.7735
91,-734,4.45215,15.7445,-0.000268624,-0.000383915,0.00319827,0.00287252,-0.00352506,0.776387,0.00370004,0.0177205,1315,1758,4.45219,-15.7445
98,-734,4.48193,15.7456,-0.000244173,-0.000129759,0.00367367,0.00348715,-0.00386108,0.793184,0.00424433,0.0136314,1322,1758,4.48195,-15.7457
105,-734,4.47205,15.7285,-0.000352868,1.96403e-05,0.00407588,0.00391352,-0.00424674,0.808231,0.00471264,0.0142092,1329,1758,4.47205,-15.7285
112,-734,4.46191,15.7179,-0.00049448,0.000166744,0.00448695,0.00433524,-0.00466298,0.822173,0.00519627,0.0122762,1336,1758,4.46193,-15.7179
119,-734,4.48193,15.6964,-0.000532074,0.000256967,0.0047262,0.00460509,-0.0048802,0.827039,0.0054771,0.0136753,1343,1758,4.48188,-15.6964
126,-734,4.47913,15.675,-0.000501787,0.000375803,0.00485558,0.00481238,-0.00493836,0.83046,0.00562975,0.0164953,1350,1758,4.47916,-15.6751
133,-734,4.45715,15.6464,-0.000403051,0.00051371,0.00485602,0.00493293,-0.00482228,0.832456,0.00563229,0.0138492,1357,1758,4.45712,-15.6464
140,-734,4.45068,15.5956,-0.000308644,0.000604889,0.00471043,0.00488064,-0.0045844,0.833732,0.00546554,0.018504,1364,1758,4.45068,-15.5956
147,-734,4.453,15.5607,-0.000269122,0.000754849,0.00447182,0.0047439,-0.00425817,0.842396,0.00519987,0.0138397,1371,1758,4.45299,-15.5607
154,-734,4.45422,15.5742,-0.00025833,0.000878939,0.00402018,0.00437051,-0.0037499,0.855655,0.00469288,0.00959677,1378,1758,4.45425,-15.5742
161,-734,4.42957,15.5554,-0.000144965,0.00103685,0.00553548,0.00601287,-0.00512098,0.838571,0.006435,0.0085436,1385,1758,4.42955,-15.5554
168,-734,4.39343,15.5099,0.000219913,0.000194108,0.007308,0.00751502,-0.007101,0.784515,0.00843969,0.0138629,1392,1758,4.39341,-15.5099
175,-734,4.42798,15.4634,0.00105764,-0.00119566,0.00803414,0.00804374,-0.00818176,0.715736,0.00936791,0.0172165,1399,1758,4.42793,-15.4634
182,-734,4.4491,15.3931,0.00177264,-0.00124287,0.00873929,0.00913329,-0.00860351,0.699976,0.0102419,0.0148844,1406,1758,4.44909,-15.3931
189,-734,4.4043,15.3278,0.00181841,-0.00197749,0.0103406,0.0104338,-0.0105929,0.694637,0.0121399,0.0107043,1413,1758,4.40427,-15.3278
196,-734,4.4071,15.2874,0.00159751,-0.00286769,0.0114784,0.0110584,-0.0123286,0.689345,0.0135091,0.0114959,1420,1758,4.4071,-15.2874
203,-734,4.41882,15.2328,0.00156306,-0.00298902,0.0122809,0.011777,-0.013203,0.693772,0.01443,0.0121426,1427,1758,4.41884,-15.2327
210,-734,4.4165,15.1703,0.00185173,-0.00308562,0.0127442,0.0123642,-0.0135981,0.689728,0.0149949,0.0126777,1434,1758,4.41649,-15.1703
217,-734,4.38281,15.1208,0.00212102,-0.00303878,0.0122821,0.0120912,-0.013009,0.681876,0.0144948,0.0101244,1441,1758,4.38279,-15.1209
224,-734,4.37622,15.0419,0.002276,-0.00279955,0.0109873,0.0110148,-0.0115384,0.671902,0.0130222,0.0116751,1448,1758,4.37621,-15.0419
231,-734,4.36658,14.9784,0.00226981,-0.00232071,0.00921914,0.00947512,-0.00952601,0.663395,0.0109703,0.0135355,1455,1758,4.36658,-14.9783
238,-734,4.38525,14.903,0.00223747,-0.00164109,0.00728234,0.00783432,-0.00723794,0.655268,0.00870424,0.016445,1462,1758,4.38521,-14.903
245,-734,4.40027,14.7908,0.00222097,-0.000699422,0.00530143,0.00625963,-0.00473808,0.651013,0.00636975,0.0211196,1469,1758,4.4003,-14.7908
252,-734,4.35974,14.7065,0.00210223,0.000400399,0.00334012,0.00469811,-0.00219549,0.660673,0.00406651,0.0277423,1476,1758,4.3598,-14.7066
259,-734,4.33582,14.7001,0.00187333,0.00229168,0.00149776,0.0035948,0.000570207,0.854777,0.00223089,0.0395132,1483,1758,4.33585,-14.7
266,-734,4.27625,14.7847,0,0,0,0,0,0,0,-1,1490,1758,4.2763,-14.7847
273,-734,4.59717,14.7773,0,0,0,0,0,0,0,-1,1497,1758,4.5972,-14.7774
280,-734,16.6191,7.38013,0,0,0,0,0,0,0,-1,1504,1758,16.6192,-7.38011
287,-734,14.5862,6.93896,0,0,0,0,0,0,0,-1,1511,1758,14.5862,-6.93898
294,-734,4.57043,11.5205,0,0,0,0,0,0,0,-1,1518,1758,4.57042,-11.5205
301,-734,4.67419,11.4003,0,0,0,0,0,0,0,-1,1525,1758,4.67421,-11.4002
308,-734,4.19604,12.7251,0,0,0,0,0,0,0,-1,1532,1758,4.196,-12.7251
315,-734,4.27441,13.0276,0,0,0,0,0,0,0,-1,1539,1758,4.27444,-13.0276
322,-734,4.17163,11.5508,0,0,0,0,0,0,0,-1,1546,1758,4.17163,-11.5508
329,-734,5.45972,12.4125,0,0,0,0,0,0,0,-1,1553,1758,5.45969,-12.4125
336,-734,5.92188,13.8751,0,0,0,0,0,0,0,-1,1560,1758,5.92183,-13.8751
343,-734,5.54968,5.14221,0,0,0,0,0,0,0,-1,1567,1758,5.54973,-5.14225
350,-734,5.07397,6.73242,0,0,0,0,0,0,0,-1,1574,1758,5.07402,-6.73243
357,-734,5.05542,7.19189,0,0,0,0,0,0,0,-1,1581,1758,5.05541,-7.19184
364,-734,4.43896,10.4904,0,0,0,0,0,0,0,-1,1588,1758,4.43893,-10.4904
371,-734,4.22766,11.9165,0,0,0,0,0,0,0,-1,1595,1758,4.22769,-11.9165
378,-734,0,0,0,0,0,0,0,0,0,-1,1602,1758,0,0
385,-734,0,0,0,0,0,0,0,0,0,-1,1609,1758,0,0
392,-734,0,0,0,0,0,0,0,0,0,-1,1616,1758,0,0
399,-734,0,0,0,0,0,0,0,0,0,-1,1623,1758,0,0
406,-734,0,0,0,0,0,0,0,0,0,-1,1630,1758,0,0
413,-734,0,0,0,0,0,0,0,0,0,-1,1637,1758,0,0
420,-734,0,0,0,0,0,0,0,0,0,-1,1644,1758,0,0
427,-734,0,0,0,0,0,0,0,0,0,-1,1651,1758,0,0
434,-734,0,0,0,0,0,0,0,0,0,-1,1658,1758,0,0
441,-734,0,0,0,0,0,0,0,0,0,-1,1665,1758,0,0
448,-734,0,0,0,0,0,0,0,0,0,-1,1672,1758,0,0
455,-734,0,0,0,0,0,0,0,0,0,-1,1679,1758,0,0
462,-734,0,0,0,0,0,0,0,0,0,-1,1686,1758,0,0
469,-734,0,0,0,0,0,0,0,0,0,-1,1693,1758,0,0
476,-734,0,0,0,0,0,0,0,0,0,-1,1700,1758,0,0
483,-734,0,0,0,0,0,0,0,0,0,-1,1707,1758,0,0
490,-734,0,0,0,0,0,0,0,0,0,-1,1714,1758,0,0
497,-734,0,0,0,0,0,0,0,0,0,-1,1721,1758,0,0
504,-734,0,0,0,0,0,0,0,0,0,-1,1728,1758,0,0
511,-734,0,0,0,0,0,0,0,0,0,-1,1735,1758,0,0
518,-734,0,0,0,0,0,0,0,0,0,-1,1742,1758,0,0
525,-734,0,0,0,0,0,0,0,0,0,-1,1749,1758,0,0
532,-734,0,0,0,0,0,0,0,0,0,-1,1756,1758,0,0
539,-734,0,0,0,0,0,0,0,0,0,-1,1763,1758,0,0
546,-734,0,0,0,0,0,0,0,0,0,-1,1770,1758,0,0
553,-734,0,0,0,0,0,0,0,0,0,-1,1777,1758,0,0
560,-734,0,0,0,0,0,0,0,0,0,-1,1784,1758,0,0
567,-734,0,0,0,0,0,0,0,0,0,-1,1791,1758,0,0
574,-734,0,0,0,0,0,0,0,0,0,-1,1798,1758,0,0
581,-734,0,0,0,0,0,0,0,0,0,-1,1805,1758,0,0
588,-734,0,0,0,0,0,0,0,0,0,-1,1812,1758,0,0
595,-734,0,0,0,0,0,0,0,0,0,-1,1819,1758,0,0
602,-734,0,0,0,0,0,0,0,0,0,-1,1826,1758,0,0
609,-734,0,0,0,0,0,0,0,0,0,-1,1833,1758,0,0
616,-734,0,0,0,0,0,0,0,0,0,-1,1840,1758,0,0
623,-734,0,0,0,0,0,0,0,0,0,-1,1847,1758,0,0
630,-734,0,0,0,0,0,0,0,0,0,-1,1854,1758,0,0
637,-734,0,0,0,0,0,0,0,0,0,-1,1861,1758,0,0
644,-734,0,0,0,0,0,0,0,0,0,-1,1868,1758,0,0
651,-734,0,0,0,0,0,0,0,0,0,-1,1875,1758,0,0
658,-734,0,0,0,0,0,0,0,0,0,-1,1882,1758,0,0
665,-734,0,0,0,0,0,0,0,0,0,-1,1889,1758,0,0
672,-734,0,0,0,0,0,0,0,0,0,-1,1896,1758,0,0
679,-734,0,0,0,0,0,0,0,0,0,-1,1903,1758,0,0
686,-734,0,0,0,0,0,0,0,0,0,-1,1910,1758,0,0
693,-734,0,0,0,0,0,0,0,0,0,-1,1917,1758,0,0
700,-734,0,0,0,0,0,0,0,0,0,-1,1924,1758,0,0
707,-734,0,0,0,0,0,0,0,0,0,-1,1931,1758,0,0
714,-734,0,0,0,0,0,0,0,0,0,-1,1938,1758,0,0
721,-734,0,0,0,0,0,0,0,0,0,-1,1945,1758,0,0
728,-734,0,0,0,0,0,0,0,0,0,-1,1952,1758,0,0
735,-734,0,0,0,0,0,0,0,0,0,-1,1959,1758,0,0
742,-734,0,0,0,0,0,0,0,0,0,-1,1966,1758,0,0
749,-734,0,0,0,0,0,0,0,0,0,-1,1973,1758,0,0
756,-734,0,0,0,0,0,0,0,0,0,-1,1980,1758,0,0
763,-734,0,0,0,0,0,0,0,0,0,-1,1987,1758,0,0
770,-734,0,0,0,0,0,0,0,0,0,-1,1994,1758,0,0
777,-734,0,0,0,0,0,0,0,0,0,-1,2001,1758,0,0
784,-734,0,0,0,0,0,0,0,0,0,-1,2008,1758,0,0
791,-734,0,0,0,0,0,0,0,0,0,-1,2015,1758,0,0
798,-734,0,0,0,0,0,0,0,0,0,-1,2022,1758,0,0
805,-734,0,0,0,0,0,0,0,0,0,-1,2029,1758,0,0
812,-734,0,0,0,0,0,0,0,0,0,-1,2036,1758,0,0
-700,-741,0,0,0,0,0,0,0,0,0,-1,524,1765,0,0
-693,-741,0,0,0,0,0,0,0,0,0,-1,531,1765,0,0
-686,-741,0,0,0,0,0,0,0,0,0,-1,538,1765,0,0
-679,-741,0,0,0,0,0,0,0,0,0,-1,545,1765,0,0
-672,-741,0,0,0,0,0,0,0,0,0,-1,552,1765,0,0
-665,-741,0,0,0,0,0,0,0,0,0,-1,559,1765,0,0
-658,-741,0,0,0,0,0,0,0,0,0,-1,566,1765,0,0
-651,-741,0,0,0,0,0,0,0,0,0,-1,573,1765,0,0
-644,-741,0,0,0,0,0,0,0,0,0,-1,580,1765,0,0
-637,-741,0,0,0,0,0,0,0,0,0,-1,587,1765,0,0
-630,-741,0,0,0,0,0,0,0,0,0,-1,594,1765,0,0
-623,-741,0,0,0,0,0,0,0,0,0,-1,601,1765,0,0
-616,-741,0,0,0,0,0,0,0,0,0,-1,608,1765,0,0
-609,-741,0,0,0,0,0,0,0,0,0,-1,615,1765,0,0
-602,-741,0,0,0,0,0,0,0,0,0,-1,622,1765,0,0
-595,-741,0,0,0,0,0,0,0,0,0,-1,629,1765,0,0
-588,-741,0,0,0,0,0,0,0,0,0,-1,636,1765,0,0
-581,-741,0,0,0,0,0,0,0,0,0,-1,643,1765,0,0
-574,-741,0,0,0,0,0,0,0,0,0,-1,650,1765,0,0
-567,-741,0,0,0,0,0,0,0,0,0,-1,657,1765,0,0
-560,-741,0,0,0,0,0,0,0,0,0,-1,664,1765,0,0
-553,-741,0,0,0,0,0,0,0,0,0,-1,671,1765,0,0
-546,-741,0,0,0,0,0,0,0,0,0,-1,678,1765,0,0
-539,-741,0,0,0,0,0,0,0,0,0,-1,685,1765,0,0
-532,-741,0,0,0,0,0,0,0,0,0,-1,692,1765,0,0
-525,-741,0,0,0,0,0,0,0,0,0,-1,699,1765,0,0
-518,-741,0,0,0,0,0,0,0,0,0,-1,706,1765,0,0
-511,-741,0,0,0,0,0,0,0,0,0,-1,713,1765,0,0
-504,-741,0,0,0,0,0,0,0,0,0,-1,720,1765,0,0
-497,-741,0,0,0,0,0,0,0,0,0,-1,727,1765,0,0
-490,-741,0,0,0,0,0,0,0,0,0,-1,734,1765,0,0
-483,-741,0,0,0,0,0,0,0,0,0,-1,741,1765,0,0
-476,-741,0,0,0,0,0,0,0,0,0,-1,748,1765,0,0
-469,-741,0,0,0,0,0,0,0,0,0,-1,755,1765,0,0
-462,-741,0,0,0,0,0,0,0,0,0,-1,762,1765,0,0
-455,-741,0,0,0,0,0,0,0,0,0,-1,769,1765,0,0
-448,-741,0,0,0,0,0,0,0,0,0,-1,776,1765,0,0
-441,-741,0,0,0,0,0,0,0,0,0,-1,783,1765,0,0
-434,-741,0,0,0,0,0,0,0,0,0,-1,790,1765,0,0
-427,-741,0,0,0,0,0,0,0,0,0,-1,797,1765,0,0
-420,-741,0,0,0,0,0,0,0,0,0,-1,804,1765,0,0
-413,-741,0,0,0,0,0,0,0,0,0,-1,811,1765,0,0
-406,-741,0,0,0,0,0,0,0,0,0,-1,818,1765,0,0
-399,-741,0,0,0,0,0,0,0,0,0,-1,825,1765,0,0
-392,-741,0,0,0,0,0,0,0,0,0,-1,832,1765,0,0
-385,-741,0,0,0,0,0,0,0,0,0,-1,839,1765,0,0
-378,-741,0,0,0,0,0,0,0,0,0,-1,846,1765,0,0
-371,-741,0,0,0,0,0,0,0,0,0,-1,853,1765,0,0
-364,-741,0,0,0,0,0,0,0,0,0,-1,860,1765,0,0
-357,-741,0,0,0,0,0,0,0,0,0,-1,867,1765,0,0
-350,-741,0,0,0,0,0,0,0,0,0,-1,874,1765,0,0
-343,-741,0,0,0,0,0,0,0,0,0,-1,881,1765,0,0
-336,-741,0,0,0,0,0,0,0,0,0,-1,888,1765,0,0
-329,-741,0,0,0,0,0,0,0,0,0,-1,895,1765,0,0
-322,-741,0,0,0,0,0,0,0,0,0,-1,902,1765,0,0
-315,-741,0,0,0,0,0,0,0,0,0,-1,909,1765,0,0
-308,-741,0,0,0,0,0,0,0,0,0,-1,916,1765,0,0
-301,-741,0,0,0,0,0,0,0,0,0,-1,923,1765,0,0
-294,-741,0,0,0,0,0,0,0,0,0,-1,930,1765,0,0
-287,-741,0,0,0,0,0,0,0,0,0,-1,937,1765,0,0
-280,-741,0,0,0,0,0,0,0,0,0,-1,944,1765,0,0
-273,-741,0,0,0,0,0,0,0,0,0,-1,951,1765,0,0
-266,-741,0,0,0,0,0,0,0,0,0,-1,958,1765,0,0
-259,-741,0,0,0,0,0,0,0,0,0,-1,965,1765,0,0
-252,-741,0,0,0,0,0,0,0,0,0,-1,972,1765,0,0
-245,-741,0,0,0,0,0,0,0,0,0,-1,979,1765,0,0
-238,-741,-0.463745,11.9711,0,0,0,0,0,0,0,-1,986,1765,-0.463721,-11.971
-231,-741,-0.0462646,11.908,0,0,0,0,0,0,0,-1,993,1765,-0.0462396,-11.9079
-224,-741,0.699463,11.7642,0,0,0,0,0,0,0,-1,1000,1765,0.69946,-11.7642
-217,-741,1.35895,11.5342,0,0,0,0,0,0,0,-1,1007,1765,1.35895,-11.5342
-210,-741,2.07056,11.33,0,0,0,0,0,0,0,-1,1014,1765,2.07058,-11.3299
-203,-741,0.0250854,12.8517,0,0,0,0,0,0,0,-1,1021,1765,0.0250615,-12.8517
-196,-741,0.178589,13.0951,0,0,0,0,0,0,0,-1,1028,1765,0.178619,-13.0951
-189,-741,0.345947,13.1218,0,0,0,0,0,0,0,-1,1035,1765,0.345937,-13.1219
-182,-741,1.48218,11.8832,0,0,0,0,0,0,0,-1,1042,1765,1.48213,-11.8832
-175,-741,0.265747,10.8716,0,0,0,0,0,0,0,-1,1049,1765,0.26575,-10.8716
-168,-741,-0.978516,10.1857,0,0,0,0,0,0,0,-1,1056,1765,-0.978468,-10.1857
-161,-741,-2.14868,9.89905,0,0,0,0,0,0,0,-1,1063,1765,-2.14874,-9.89902
-154,-741,2.46143,9.75415,0,0,0,0,0,0,0,-1,1070,1765,2.46145,-9.75416
-147,-741,4.25928,14.0627,0,0,0,0,0,0,0,-1,1077,1765,4.25925,-14.0628
-140,-741,5.49036,13.8536,0,0,0,0,0,0,0,-1,1084,1765,5.4904,-13.8536
-133,-741,5.41211,13.4214,-0.0011466,0.0147699,0.0052264,0.0163326,-0.00270932,1.28025,0.0118948,0.0474335,1091,1765,5.41206,-13.4214
-126,-741,4.34985,14.2117,-0.000159788,0.0138105,0.00437461,0.0150673,-0.00141657,1.29104,0.0105488,0.0441331,1098,1765,4.34991,-14.2116
-119,-741,4.49475,14.3108,0.00100931,0.0127332,0.00379522,0.0138546,-0.00011201,1.28351,0.00927393,0.0425288,1105,1765,4.49478,-14.3108
-112,-741,4.42065,14.2925,0.00220612,0.0114393,0.00330863,0.0125025,0.00114294,1.25988,0.00798136,0.0403098,1112,1765,4.4207,-14.2925
-105,-741,4.70752,14.4187,0.00307005,0.0100688,0.00279536,0.0110482,0.00209062,1.23379,0.00677697,0.0359963,1119,1765,4.70757,-14.4187
-98,-741,4.72717,14.5535,0.00348001,0.00883847,0.00232512,0.00970669,0.00261178,1.21342,0.00579998,0.0381794,1126,1765,4.72716,-14.5534
-91,-741,4.61157,14.6199,0.00354908,0.00768508,0.00191303,0.00843423,0.00279993,1.19755,0.00496031,0.048104,1133,1765,4.61151,-14.6199
-84,-741,4.63025,14.5822,0,0,0,0,0,0,0,-1,1140,1765,4.6303,-14.5822
-77,-741,4.62415,14.6378,0,0,0,0,0,0,0,-1,1147,1765,4.62411,-14.6378
-70,-741,4.52234,14.7434,0,0,0,0,0,0,0,-1,1154,1765,4.52231,-14.7434
-63,-741,4.5293,14.9218,0,0,0,0,0,0,0,-1,1161,1765,4.52926,-14.9217
-56,-741,4.5929,15.0349,0,0,0,0,0,0,0,-1,1168,1765,4.59294,-15.035
-49,-741,4.59058,15.1238,0,0,0,0,0,0,0,-1,1175,1765,4.59062,-15.1238
-42,-741,4.58044,15.2311,0,0,0,0,0,0,0,-1,1182,1765,4.58051,-15.231
-35,-741,4.58813,15.2472,0.0162928,-0.00091859,-0.000373116,0.0163009,-0.000926675,-0.0216648,0.011189,0.0197925,1189,1765,4.58814,-15.2472
-28,-741,4.57629,15.3058,0.0156335,-0.000923054,-0.000242194,0.0156371,-0.000926596,-0.0146241,0.0107469,0.0147237,1196,1765,4.57626,-15.3058
-21,-741,4.58752,15.3656,0.014237,-0.00115706,-0.000197383,0.0142395,-0.00115959,-0.0128192,0.00990221,0.0172547,1203,1765,4.58751,-15.3657
-14,-741,4.54285,15.4132,0.0123192,-0.00150122,-0.000106202,0.0123201,-0.00150203,-0.00768382,0.00875709,0.0171305,1210,1765,4.54283,-15.4132
-7,-741,4.55115,15.4189,0.0101601,-0.0017974,-2.44735e-05,0.0101602,-0.00179745,-0.00204669,0.00744529,0.0142252,1217,1765,4.55118,-15.4189
0,-741,4.56726,15.4777,0.00808181,-0.00214895,5.43243e-05,0.0080821,-0.00214924,0.00530969,0.00622932,0.01454,1224,1765,4.5672,-15.4777
7,-741,4.52747,15.5509,0.00617468,-0.00247188,8.96719e-05,0.00617561,-0.00247281,0.0103693,0.00514345,0.0169449,1231,1765,4.52747,-15.5509
14,-741,4.51746,15.5856,0.0044275,-0.00271941,0.000141647,0.00443031,-0.00272222,0.019809,0.00416858,0.0153347,1238,1765,4.5174,-15.5856
21,-741,4.50452,15.5951,0.00308829,-0.00291469,0.000342917,0.00310782,-0.00293422,0.0568778,0.00348885,0.0118796,1245,1765,4.50451,-15.5951
28,-741,4.47241,15.6501,0.0021732,-0.00299882,0.000578784,0.00223717,-0.0030628,0.110093,0.00307229,0.0123013,1252,1765,4.47241,-15.6501
35,-741,4.49304,15.6613,0.00161582,-0.00285589,0.000901334,0.00179066,-0.00303073,0.1916,0.00281416,0.0137944,1259,1765,4.49305,-15.6613
42,-741,4.5199,15.6517,0.000793046,-0.00258736,0.00124006,0.00119915,-0.00299347,0.316485,0.00249341,0.0149644,1266,1765,4.51988,-15.6518
49,-741,4.49438,15.6747,0.000398279,-0.00255627,0.00167424,0.00115381,-0.0033118,0.423908,0.00267669,0.0100323,1273,1765,4.49437,-15.6747
56,-741,4.4657,15.7087,0.000693534,-0.00220698,0.00201483,0.00172577,-0.00323922,0.473455,0.00291059,0.00988684,1280,1765,4.46567,-15.7087
63,-741,4.47571,15.7378,0.00107928,-0.0017857,0.00227406,0.00233442,-0.00304084,0.504331,0.00311233,0.0144922,1287,1765,4.47567,-15.7378
70,-741,4.45435,15.7578,0.00111802,-0.00108058,0.0027685,0.00299749,-0.00296005,0.596407,0.0034396,0.0167806,1294,1765,4.45431,-15.7578
77,-741,4.45337,15.7865,0.000929427,-0.000988121,0.00349374,0.00359356,-0.00365226,0.651482,0.00418342,0.0142007,1301,1765,4.45342,-15.7865
84,-741,4.42993,15.7858,0.000742713,-0.000670137,0.0039953,0.00409356,-0.00402098,0.697895,0.00468499,0.0167359,1308,1765,4.42995,-15.7858
91,-741,4.43127,15.7811,0.00067178,-0.000303818,0.00459047,0.0048003,-0.00443234,0.732465,0.00533188,0.0127425,1315,1765,4.43133,-15.7811
98,-741,4.44897,15.7511,0.000599571,-7.98708e-05,0.00510796,0.0053791,-0.0048594,0.752193,0.00591373,0.00970689,1322,1765,4.44897,-15.7511
105,-741,4.46436,15.7133,0.000286407,1.64605e-05,0.00554642,0.0056995,-0.00539663,0.773233,0.00640714,0.00984441,1329,1765,4.46434,-15.7133
112,-741,4.48352,15.7081,-6.51528e-05,0.000110762,0.00598524,0.00600869,-0.00596308,0.792746,0.00691192,0.0103349,1336,1765,4.48356,-15.7081
119,-741,4.47864,15.6813,-0.000248525,0.000124944,0.00624602,0.00618702,-0.0063106,0.800342,0.00721562,0.0137921,1343,1765,4.47864,-15.6812
126,-741,4.45239,15.6477,-0.000361826,0.000211561,0.00634513,0.00627648,-0.00642674,0.807974,0.00733438,0.0173829,1350,1765,4.4524,-15.6477
133,-741,4.42859,15.6385,-0.000439348,0.000344965,0.00636311,0.006328,-0.00642238,0.816174,0.0073615,0.0127448,1357,1765,4.42859,-15.6385
140,-741,4.41101,15.6001,-0.000450621,0.000424578,0.00628296,0.00628516,-0.0063112,0.820166,0.00727252,0.0107753,1364,1765,4.41102,-15.6001
147,-741,4.41394,15.5881,-0.000328428,0.000499961,0.00616004,0.00625971,-0.00608818,0.818967,0.00712929,0.0107545,1371,1765,4.41397,-15.5881
154,-741,4.41638,15.5874,-0.000200567,0.000609492,0.0057479,0.00596661,-0.00555769,0.820573,0.00665495,0.00884255,1378,1765,4.41636,-15.5874
161,-741,4.39905,15.5494,8.34248e-05,0.000824893,0.00864521,0.00910731,-0.00819899,0.806827,0.00999638,0.0104742,1385,1765,4.39904,-15.5494
168,-741,4.38708,15.5206,0.000643208,-0.000499664,0.0117858,0.0118715,-0.0117279,0.761175,0.0136252,0.022952,1392,1765,4.38709,-15.5206
175,-741,4.37183,15.5337,0,0,0,0,0,0,0,-1,1399,1765,4.37183,-15.5337
182,-741,4.37097,15.4124,0,0,0,0,0,0,0,-1,1406,1765,4.37103,-15.4124
189,-741,4.32764,15.3466,0,0,0,0,0,0,0,-1,1413,1765,4.32761,-15.3466
196,-741,4.35999,15.3167,0,0,0,0,0,0,0,-1,1420,1765,4.36004,-15.3167
203,-741,4.39722,15.2637,0,0,0,0,0,0,0,-1,1427,1765,4.39723,-15.2637
210,-741,4.27625,15.1449,0.00274422,-0.00551532,0.0226189,0.0216072,-0.0243783,0.695102,0.0265659,0.0369253,1434,1765,4.27621,-15.1449
217,-741,4.34668,15.0881,0.00312223,-0.00551561,0.0220225,0.0212453,-0.0236387,0.68857,0.0259261,0.0191322,1441,1765,4.34672,-15.0882
224,-741,4.41833,15.0227,0.00332527,-0.00517422,0.0200568,0.0195776,-0.0214266,0.680999,0.0236818,0.0243571,1448,1765,4.41838,-15.0227
231,-741,4.44604,14.9911,0.00335161,-0.00449716,0.0173435,0.0172092,-0.0183547,0.674135,0.0205364,0.0331483,1455,1765,4.44603,-14.991
238,-741,4.43542,14.9427,0.00334565,-0.00354672,0.0143797,0.0146864,-0.0148874,0.667788,0.0170746,0.0372966,1462,1765,4.43545,-14.9427
245,-741,4.34949,14.7611,0.00335523,-0.00224796,0.0113441,0.0122386,-0.0111313,0.664338,0.0134976,0.0441022,1469,1765,4.34944,-14.7611
252,-741,4.45764,14.3837,0.00325411,-0.000730954,0.00834063,0.00983691,-0.00731376,0.668148,0.0099376,0.0485206,1476,1765,4.45769,-14.3837
259,-741,4.23096,14.8032,0,0,0,0,0,0,0,-1,1483,1765,4.23093,-14.8033
266,-741,4.30127,14.1871,0,0,0,0,0,0,0,-1,1490,1765,4.30131,-14.1871
273,-741,17.4285,7.24963,0,0,0,0,0,0,0,-1,1497,1765,17.4284,-7.24958
280,-741,15.996,7.22278,0,0,0,0,0,0,0,-1,1504,1765,15.9959,-7.22279
287,-741,14.0116,6.85144,0,0,0,0,0,0,0,-1,1511,1765,14.0116,-6.8514
294,-741,11.8184,6.48401,0,0,0,0,0,0,0,-1,1518,1765,11.8184,-6.48401
301,-741,4.90674,10.7687,0,0,0,0,0,0,0,-1,1525,1765,4.90672,-10.7687
308,-741,2.47021,11.4004,0,0,0,0,0,0,0,-1,1532,1765,2.47026,-11.4004
315,-741,7.94568,6.22974,0,0,0,0,0,0,0,-1,1539,1765,7.94567,-6.22972
322,-741,3.08521,12.3561,0,0,0,0,0,0,0,-1,1546,1765,3.08526,-12.3561
329,-741,4.46472,13.5316,0,0,0,0,0,0,0,-1,1553,1765,4.46467,-13.5316
336,-741,4.74475,14.6453,0,0,0,0,0,0,0,-1,1560,1765,4.7447,-14.6452
343,-741,5.42297,5.93701,0,0,0,0,0,0,0,-1,1567,1765,5.42296,-5.937
350,-741,4.90369,5.44666,0,0,0,0,0,0,0,-1,1574,1765,4.90368,-5.44664
357,-741,4.02063,5.16626,0,0,0,0,0,0,0,-1,1581,1765,4.02058,-5.1662
364,-741,0,0,0,0,0,0,0,0,0,-1,1588,1765,0,0
371,-741,0,0,0,0,0,0,0,0,0,-1,1595,1765,0,0
378,-741,0,0,0,0,0,0,0,0,0,-1,1602,1765,0,0
385,-741,0,0,0,0,0,0,0,0,0,-1,1609,1765,0,0
392,-741,0,0,0,0,0,0,0,0,0,-1,1616,1765,0,0
399,-741,0,0,0,0,0,0,0,0,0,-1,1623,1765,0,0
406,-741,0,0,0,0,0,0,0,0,0,-1,1630,1765,0,0
413,-741,0,0,0,0,0,0,0,0,0,-1,1637,1765,0,0
420,-741,0,0,0,0,0,0,0,0,0,-1,1644,1765,0,0
427,-741,0,0,0,0,0,0,0,0,0,-1,1651,1765,0,0
434,-741,0,0,0,0,0,0,0,0,0,-1,1658,1765,0,0
441,-741,0,0,0,0,0,0,0,0,0,-1,1665,1765,0,0
448,-741,0,0,0,0,0,0,0,0,0,-1,1672,1765,0,0
455,-741,0,0,0,0,0,0,0,0,0,-1,1679,1765,0,0
462,-741,0,0,0,0,0,0,0,0,0,-1,1686,1765,0,0
469,-741,0,0,0,0,0,0,0,0,0,-1,1693,1765,0,0
476,-741,0,0,0,0,0,0,0,0,0,-1,1700,1765,0,0
483,-741,0,0,0,0,0,0,0,0,0,-1,1707,1765,0,0
490,-741,0,0,0,0,0,0,0,0,0,-1,1714,1765,0,0
497,-741,0,0,0,0,0,0,0,0,0,-1,1721,1765,0,0
504,-741,0,0,0,0,0,0,0,0,0,-1,1728,1765,0,0
511,-741,0,0,0,0,0,0,0,0,0,-1,1735,1765,0,0
518,-741,0,0,0,0,0,0,0,0,0,-1,1742,1765,0,0
525,-741,0,0,0,0,0,0,0,0,0,-1,1749,1765,0,0
532,-741,0,0,0,0,0,0,0,0,0,-1,1756,1765,0,0
539,-741,0,0,0,0,0,0,0,0,0,-1,1763,1765,0,0
546,-741,0,0,0,0,0,0,0,0,0,-1,1770,1765,0,0
553,-741,0,0,0,0,0,0,0,0,0,-1,1777,1765,0,0
560,-741,0,0,0,0,0,0,0,0,0,-1,1784,1765,0,0
567,-741,0,0,0,0,0,0,0,0,0,-1,1791,1765,0,0
574,-741,0,0,0,0,0,0,0,0,0,-1,1798,1765,0,0
581,-741,0,0,0,0,0,0,0,0,0,-1,1805,1765,0,0
588,-741,0,0,0,0,0,0,0,0,0,-1,1812,1765,0,0
595,-741,0,0,0,0,0,0,0,0,0,-1,1819,1765,0,0
602,-741,0,0,0,0,0,0,0,0,0,-1,1826,1765,0,0
609,-741,0,0,0,0,0,0,0,0,0,-1,1833,1765,0,0
616,-741,0,0,0,0,0,0,0,0,0,-1,1840,1765,0,0
623,-741,0,0,0,0,0,0,0,0,0,-1,1847,1765,0,0
630,-741,0,0,0,0,0,0,0,0,0,-1,1854,1765,0,0
637,-741,0,0,0,0,0,0,0,0,0,-1,1861,1765,0,0
644,-741,0,0,0,0,0,0,0,0,0,-1,1868,1765,0,0
651,-741,0,0,0,0,0,0,0,0,0,-1,1875,1765,0,0
658,-741,0,0,0,0,0,0,0,0,0,-1,1882,1765,0,0
665,-741,0,0,0,0,0,0,0,0,0,-1,1889,1765,0,0
672,-741,0,0,0,0,0,0,0,0,0,-1,1896,1765,0,0
679,-741,0,0,0,0,0,0,0,0,0,-1,1903,1765,0,0
686,-741,0,0,0,0,0,0,0,0,0,-1,1910,1765,0,0
693,-741,0,0,0,0,0,0,0,0,0,-1,1917,1765,0,0
700,-741,0,0,0,0,0,0,0,0,0,-1,1924,1765,0,0
707,-741,0,0,0,0,0,0,0,0,0,-1,1931,1765,0,0
714,-741,0,0,0,0,0,0,0,0,0,-1,1938,1765,0,0
721,-741,0,0,0,0,0,0,0,0,0,-1,1945,1765,0,0
728,-741,0,0,0,0,0,0,0,0,0,-1,1952,1765,0,0
735,-741,0,0,0,0,0,0,0,0,0,-1,1959,1765,0,0
742,-741,0,0,0,0,0,0,0,0,0,-1,1966,1765,0,0
749,-741,0,0,0,0,0,0,0,0,0,-1,1973,1765,0,0
756,-741,0,0,0,0,0,0,0,0,0,-1,1980,1765,0,0
763,-741,0,0,0,0,0,0,0,0,0,-1,1987,1765,0,0
770,-741,0,0,0,0,0,0,0,0,0,-1,1994,1765,0,0
777,-741,0,0,0,0,0,0,0,0,0,-1,2001,1765,0,0
784,-741,0,0,0,0,0,0,0,0,0,-1,2008,1765,0,0
791,-741,0,0,0,0,0,0,0,0,0,-1,2015,1765,0,0
798,-741,0,0,0,0,0,0,0,0,0,-1,2022,1765,0,0
805,-741,0,0,0,0,0,0,0,0,0,-1,2029,1765,0,0
812,-741,0,0,0,0,0,0,0,0,0,-1,2036,1765,0,0
-700,-748,0,0,0,0,0,0,0,0,0,-1,524,1772,0,0
-693,-748,0,0,0,0,0,0,0,0,0,-1,531,1772,0,0
-686,-748,0,0,0,0,0,0,0,0,0,-1,538,1772,0,0
-679,-748,0,0,0,0,0,0,0,0,0,-1,545,1772,0,0
-672,-748,0,0,0,0,0,0,0,0,0,-1,552,1772,0,0
-665,-748,0,0,0,0,0,0,0,0,0,-1,559,1772,0,0
-658,-748,0,0,0,0,0,0,0,0,0,-1,566,1772,0,0
-651,-748,0,0,0,0,0,0,0,0,0,-1,573,1772,0,0
-644,-748,0,0,0,0,0,0,0,0,0,-1,580,1772,0,0
-637,-748,0,0,0,0,0,0,0,0,0,-1,587,1772,0,0
-630,-748,0,0,0,0,0,0,0,0,0,-1,594,1772,0,0
-623,-748,0,0,0,0,0,0,0,0,0,-1,601,1772,0,0
-616,-748,0,0,0,0,0,0,0,0,0,-1,608,1772,0,0
-609,-748,0,0,0,0,0,0,0,0,0,-1,615,1772,0,0
-602,-748,0,0,0,0,0,0,0,0,0,-1,622,1772,0,0
-595,-748,0,0,0,0,0,0,0,0,0,-1,629,1772,0,0
-588,-748,0,0,0,0,0,0,0,0,0,-1,636,1772,0,0
-581,-748,0,0,0,0,0,0,0,0,0,-1,643,1772,0,0
-574,-748,0,0,0,0,0,0,0,0,0,-1,650,1772,0,0
-567,-748,0,0,0,0,0,0,0,0,0,-1,657,1772,0,0
-560,-748,0,0,0,0,0,0,0,0,0,-1,664,1772,0,0
-553,-748,0,0,0,0,0,0,0,0,0,-1,671,1772,0,0
-546,-748,0,0,0,0,0,0,0,0,0,-1,678,1772,0,0
-539,-748,0,0,0,0,0,0,0,0,0,-1,685,1772,0,0
-532,-748,0,0,0,0,0,0,0,0,0,-1,692,1772,0,0
-525,-748,0,0,0,0,0,0,0,0,0,-1,699,1772,0,0
-518,-748,0,0,0,0,0,0,0,0,0,-1,706,1772,0,0
-511,-748,0,0,0,0,0,0,0,0,0,-1,713,1772,0,0
-504,-748,0,0,0,0,0,0,0,0,0,-1,720,1772,0,0
-497,-748,0,0,0,0,0,0,0,0,0,-1,727,1772,0,0
-490,-748,0,0,0,0,0,0,0,0,0,-1,734,1772,0,0
-483,-748,0,0,0,0,0,0,0,0,0,-1,741,1772,0,0
-476,-748,0,0,0,0,0,0,0,0,0,-1,748,1772,0,0
-469,-748,0,0,0,0,0,0,0,0,0,-1,755,1772,0,0
-462,-748,0,0,0,0,0,0,0,0,0,-1,762,1772,0,0
-455,-748,0,0,0,0,0,0,0,0,0,-1,769,1772,0,0
-448,-748,0,0,0,0,0,0,0,0,0,-1,776,1772,0,0
-441,-748,0,0,0,0,0,0,0,0,0,-1,783,1772,0,0
-434,-748,0,0,0,0,0,0,0,0,0,-1,790,1772,0,0
-427,-748,0,0,0,0,0,0,0,0,0,-1,797,1772,0,0
-420,-748,0,0,0,0,0,0,0,0,0,-1,804,1772,0,0
-413,-748,0,0,0,0,0,0,0,0,0,-1,811,1772,0,0
-406,-748,0,0,0,0,0,0,0,0,0,-1,818,1772,0,0
-399,-748,0,0,0,0,0,0,0,0,0,-1,825,1772,0,0
-392,-748,0,0,0,0,0,0,0,0,0,-1,832,1772,0,0
-385,-748,0,0,0,0,0,0,0,0,0,-1,839,1772,0,0
-378,-748,0,0,0,0,0,0,0,0,0,-1,846,1772,0,0
-371,-748,0,0,0,0,0,0,0,0,0,-1,853,1772,0,0
-364,-748,0,0,0,0,0,0,0,0,0,-1,860,1772,0,0
-357,-748,0,0,0,0,0,0,0,0,0,-1,867,1772,0,0
-350,-748,0,0,0,0,0,0,0,0,0,-1,874,1772,0,0
-343,-748,0,0,0,0,0,0,0,0,0,-1,881,1772,0,0
-336,-748,0,0,0,0,0,0,0,0,0,-1,888,1772,0,0
-329,-748,0,0,0,0,0,0,0,0,0,-1,895,1772,0,0
-322,-748,0,0,0,0,0,0,0,0,0,-1,902,1772,0,0
-315,-748,0,0,0,0,0,0,0,0,0,-1,909,1772,0,0
-308,-748,0,0,0,0,0,0,0,0,0,-1,916,1772,0,0
-301,-748,0,0,0,0,0,0,0,0,0,-1,923,1772,0,0
-294,-748,0,0,0,0,0,0,0,0,0,-1,930,1772,0,0
-287,-748,0,0,0,0,0,0,0,0,0,-1,937,1772,0,0
-280,-748,0,0,0,0,0,0,0,0,0,-1,944,1772,0,0
-273,-748,0,0,0,0,0,0,0,0,0,-1,951,1772,0,0
-266,-748,0,0,0,0,0,0,0,0,0,-1,958,1772,0,0
-259,-748,0,0,0,0,0,0,0,0,0,-1,965,1772,0,0
-252,-748,0,0,0,0,0,0,0,0,0,-1,972,1772,0,0
-245,-748,0,0,0,0,0,0,0,0,0,-1,979,1772,0,0
-238,-748,0,0,0,0,0,0,0,0,0,-1,986,1772,0,0
-231,-748,0,0,0,0,0,0,0,0,0,-1,993,1772,0,0
-224,-748,0,0,0,0,0,0,0,0,0,-1,1000,1772,0,0
-217,-748,0.825806,11.8236,0,0,0,0,0,0,0,-1,1007,1772,0.825796,-11.8236
-210,-748,1.71094,11.5168,0,0,0,0,0,0,0,-1,1014,1772,1.71096,-11.5168
-203,-748,-1.52362,13.2166,0,0,0,0,0,0,0,-1,1021,1772,-1.5236,-13.2166
-196,-748,-1.09497,13.6892,0,0,0,0,0,0,0,-1,1028,1772,-1.09499,-13.6892
-189,-748,2.37354,13.27,0,0,0,0,0,0,0,-1,1035,1772,2.37358,-13.27
-182,-748,1.1593,12.4589,0,0,0,0,0,0,0,-1,1042,1772,1.15932,-12.4589
-175,-748,-0.0640869,11.6606,0,0,0,0,0,0,0,-1,1049,1772,-0.0640899,-11.6606
-168,-748,-1.30481,10.9001,0,0,0,0,0,0,0,-1,1056,1772,-1.30482,-10.9001
-161,-748,-2.63501,10.4792,0,0,0,0,0,0,0,-1,1063,1772,-2.63505,-10.4793
-154,-748,-3.92529,10.2404,0,0,0,0,0,0,0,-1,1070,1772,-3.92526,-10.2404
-147,-748,-4.87122,10.7748,0,0,0,0,0,0,0,-1,1077,1772,-4.87117,-10.7748
-140,-748,5.38965,8.78552,0,0,0,0,0,0,0,-1,1084,1772,5.38969,-8.78552
-133,-748,5.90283,12.8345,0,0,0,0,0,0,0,-1,1091,1772,5.90281,-12.8345
-126,-748,4.23694,14.2726,0,0,0,0,0,0,0,-1,1098,1772,4.23697,-14.2726
-119,-748,4.40588,14.3152,0.0027495,0.0168834,0.00444277,0.0181639,0.001469,1.29018,0.0116505,0.0415322,1105,1772,4.40583,-14.3152
-112,-748,4.70667,14.191,0.0044545,0.0150486,0.00381726,0.0162807,0.00322237,1.25857,0.0099551,0.0416499,1112,1772,4.7067,-14.1911
-105,-748,4.84143,14.2604,0.0056549,0.0132603,0.00323814,0.0144522,0.004463,1.2181,0.0085449,0.0491664,1119,1772,4.84138,-14.2604
-98,-748,4.87878,14.4972,0,0,0,0,0,0,0,-1,1126,1772,4.87874,-14.4972
-91,-748,4.66907,14.3898,0,0,0,0,0,0,0,-1,1133,1772,4.66903,-14.3898
-84,-748,-0.192017,7.26196,0,0,0,0,0,0,0,-1,1140,1772,-0.192047,-7.26201
-77,-748,4.42615,13.5537,0,0,0,0,0,0,0,-1,1147,1772,4.4261,-13.5538
-70,-748,4.46191,13.7446,0,0,0,0,0,0,0,-1,1154,1772,4.4619,-13.7446
-63,-748,4.49768,13.9355,0,0,0,0,0,0,0,-1,1161,1772,4.49769,-13.9355
-56,-748,3.05762,7.87817,0,0,0,0,0,0,0,-1,1168,1772,3.05768,-7.87822
-49,-748,3.04102,7.82471,0,0,0,0,0,0,0,-1,1175,1772,3.04096,-7.82468
-42,-748,0.793457,14.9474,0,0,0,0,0,0,0,-1,1182,1772,0.793413,-14.9474
-35,-748,4.67029,15.1962,0,0,0,0,0,0,0,-1,1189,1772,4.67025,-15.1962
-28,-748,4.63135,15.3379,0.0271307,-0.00451175,0.000178246,0.0271317,-0.00451276,0.00563291,0.0197645,0.048702,1196,1772,4.63134,-15.3379
-21,-748,4.61719,15.4066,0.0239232,-0.00456977,0.000287379,0.0239261,-0.00457267,0.0100846,0.0176733,0.0235037,1203,1772,4.61716,-15.4066
-14,-748,4.58191,15.3961,0.0204914,-0.00443203,9.58301e-05,0.0204918,-0.0044324,0.0038449,0.0153534,0.0154512,1210,1772,4.58189,-15.3961
-7,-748,4.60168,15.4141,0.017333,-0.0044205,6.156e-05,0.0173331,-0.00442067,0.00282987,0.0132766,0.0136875,1217,1772,4.60172,-15.4141
0,-748,4.60193,15.4717,0.013986,-0.00440152,2.2826e-05,0.013986,-0.00440155,0.00124139,0.0110864,0.0143347,1224,1772,4.60191,-15.4716
7,-748,4.57898,15.5126,0.0109295,-0.00442679,-0.00011153,0.0109303,-0.0044276,-0.0072623,0.00912799,0.0143965,1231,1772,4.57901,-15.5126
14,-748,4.55579,15.5612,0.00827307,-0.0044125,-0.000241543,0.00827767,-0.00441709,-0.0190316,0.00744144,0.0157185,1238,1772,4.55584,-15.5611
21,-748,4.54602,15.592,0.00635428,-0.00436204,-0.00014416,0.00635621,-0.00436397,-0.0134491,0.00622483,0.0118377,1245,1772,4.54604,-15.592
28,-748,4.52234,15.6366,0.0050702,-0.00426144,0.000156795,0.00507283,-0.00426408,0.0167962,0.00539741,0.0116908,1252,1772,4.52237,-15.6366
35,-748,4.50806,15.6637,0.00434066,-0.00400723,0.000627709,0.00438759,-0.00405416,0.0746344,0.00487512,0.012026,1259,1772,4.50802,-15.6637
42,-748,4.54944,15.6549,0.00324607,-0.00356742,0.00110713,0.00342145,-0.0037428,0.157108,0.00413767,0.0131269,1266,1772,4.54939,-15.6549
49,-748,4.51611,15.674,0.00260518,-0.00348207,0.00183733,0.00311675,-0.00399364,0.271555,0.00411558,0.0101489,1273,1772,4.51615,-15.6739
56,-748,4.49573,15.6996,0.00287924,-0.00303892,0.00247357,0.00377694,-0.00393662,0.348132,0.00445374,0.0102019,1280,1772,4.49573,-15.6996
63,-748,4.4895,15.7101,0.00333794,-0.00250859,0.00300078,0.00460396,-0.00377462,0.399241,0.00484527,0.0126023,1287,1772,4.48951,-15.71
70,-748,4.47729,15.7273,0.00311894,-0.00172737,0.00367947,0.00510148,-0.00370991,0.494213,0.00510836,0.0142806,1294,1772,4.47728,-15.7273
77,-748,4.46948,15.7379,0.00244582,-0.00172571,0.00467708,0.00548113,-0.00476102,0.575656,0.00591818,0.0136579,1301,1772,4.46948,-15.7379
84,-748,4.43835,15.765,0.00190846,-0.00144475,0.00537028,0.00585777,-0.00539405,0.634092,0.00649808,0.0150562,1308,1772,4.43842,-15.765
91,-748,4.42883,15.7753,0.00130893,-0.00116795,0.00620511,0.00639798,-0.006257,0.686901,0.0073065,0.0112807,1315,1772,4.4288,-15.7752
98,-748,4.42126,15.7383,0.000491085,-0.000930444,0.00673686,0.00655457,-0.00699393,0.732841,0.0078236,0.0102736,1322,1772,4.42129,-15.7383
105,-748,4.44348,15.7008,-0.000264911,-0.000904705,0.00709773,0.00652013,-0.00768975,0.762878,0.00821333,0.0114553,1329,1772,4.44353,-15.7008
112,-748,4.47961,15.6992,-0.00104548,-0.000874733,0.0074437,0.00648408,-0.00840429,0.791133,0.0086196,0.0140451,1336,1772,4.47966,-15.6992
119,-748,4.45605,15.6882,-0.00169289,-0.00092546,0.00759659,0.0062971,-0.00891545,0.810633,0.00882623,0.0125989,1343,1772,4.45605,-15.6882
126,-748,4.42981,15.6816,-0.00241582,-0.000912888,0.00757285,0.00594569,-0.0092744,0.834852,0.0088571,0.0137187,1350,1772,4.42981,-15.6816
133,-748,4.39294,15.662,-0.00307155,-0.000787197,0.00743363,0.0055915,-0.00945024,0.861627,0.00877909,0.00807246,1357,1772,4.393,-15.6619
140,-748,4.40186,15.6398,-0.00364407,-0.000639986,0.00732005,0.00533053,-0.00961459,0.886591,0.00874594,0.0112136,1364,1772,4.40179,-15.6398
147,-748,4.42395,15.6133,-0.00377439,-0.000655889,0.00736689,0.00531496,-0.00974524,0.889687,0.00881952,0.0139576,1371,1772,4.42401,-15.6132
154,-748,4.38452,15.5833,-0.00349333,-0.000518824,0.00698866,0.00513908,-0.00915124,0.890239,0.00835821,0.0118748,1378,1772,4.38449,-15.5833
161,-748,4.38367,15.5503,-0.00255185,-7.4057e-05,0.0121317,0.0108818,-0.0135077,0.836282,0.0141085,0.0197908,1385,1772,4.38362,-15.5503
168,-748,4.40039,15.536,0,0,0,0,0,0,0,-1,1392,1772,4.40033,-15.536
175,-748,4.22009,13.4792,0,0,0,0,0,0,0,-1,1399,1772,4.2201,-13.4793
182,-748,7.62476,10.3058,0,0,0,0,0,0,0,-1,1406,1772,7.62476,-10.3058
189,-748,6.15857,6.95898,0,0,0,0,0,0,0,-1,1413,1772,6.15862,-6.95896
196,-748,3.9425,8.46021,0,0,0,0,0,0,0,-1,1420,1772,3.9425,-8.46026
203,-748,3.9668,12.9835,0,0,0,0,0,0,0,-1,1427,1772,3.96678,-12.9836
210,-748,4.09717,14.9882,0,0,0,0,0,0,0,-1,1434,1772,4.09715,-14.9881
217,-748,4.46167,15.0758,0.00457597,-0.00908279,0.0370036,0.0353752,-0.039882,0.694145,0.0434757,0.0413928,1441,1772,4.46171,-15.0758
224,-748,4.65576,15.2853,0.00484588,-0.00868425,0.0342136,0.0329568,-0.0367952,0.687792,0.0402917,0.0393889,1448,1772,4.6558,-15.2853
231,-748,4.4137,15.4985,0,0,0,0,0,0,0,-1,1455,1772,4.41375,-15.4986
238,-748,4.51575,14.9165,0,0,0,0,0,0,0,-1,1462,1772,4.51573,-14.9166
245,-748,4.32043,14.7065,0,0,0,0,0,0,0,-1,1469,1772,4.32048,-14.7066
252,-748,4.55066,14.0348,0,0,0,0,0,0,0,-1,1476,1772,4.55067,-14.0348
259,-748,19.7562,7.70105,0,0,0,0,0,0,0,-1,1483,1772,19.7562,-7.70105
266,-748,18.3119,7.38428,0,0,0,0,0,0,0,-1,1490,1772,18.3119,-7.38433
273,-748,16.87,7.15271,0,0,0,0,0,0,0,-1,1497,1772,16.87,-7.1527
280,-748,15.3959,7.00659,0,0,0,0,0,0,0,-1,1504,1772,15.3958,-7.00658
287,-748,13.4386,6.74158,0,0,0,0,0,0,0,-1,1511,1772,13.4386,-6.74154
294,-748,11.5533,6.49109,0,0,0,0,0,0,0,-1,1518,1772,11.5533,-6.49111
301,-748,9.90784,6.21448,0,0,0,0,0,0,0,-1,1525,1772,9.90789,-6.2145
308,-748,8.88904,6.61414,0,0,0,0,0,0,0,-1,1532,1772,8.889,-6.61419
315,-748,7.85876,6.81372,0,0,0,0,0,0,0,-1,1539,1772,7.85879,-6.81372
322,-748,2.9469,13.4518,0,0,0,0,0,0,0,-1,1546,1772,2.94694,-13.4518
329,-748,3.48315,14.6533,0,0,0,0,0,0,0,-1,1553,1772,3.48316,-14.6534
336,-748,3.76001,15.8163,0,0,0,0,0,0,0,-1,1560,1772,3.75995,-15.8163
343,-748,0,0,0,0,0,0,0,0,0,-1,1567,1772,0,0
350,-748,0,0,0,0,0,0,0,0,0,-1,1574,1772,0,0
357,-748,0,0,0,0,0,0,0,0,0,-1,1581,1772,0,0
364,-748,0,0,0,0,0,0,0,0,0,-1,1588,1772,0,0
371,-748,0,0,0,0,0,0,0,0,0,-1,1595,1772,0,0
378,-748,0,0,0,0,0,0,0,0,0,-1,1602,1772,0,0
385,-748,0,0,0,0,0,0,0,0,0,-1,1609,1772,0,0
392,-748,0,0,0,0,0,0,0,0,0,-1,1616,1772,0,0
399,-748,0,0,0,0,0,0,0,0,0,-1,1623,1772,0,0
406,-748,0,0,0,0,0,0,0,0,0,-1,1630,1772,0,0
413,-748,0,0,0,0,0,0,0,0,0,-1,1637,1772,0,0
420,-748,0,0,0,0,0,0,0,0,0,-1,1644,1772,0,0
427,-748,0,0,0,0,0,0,0,0,0,-1,1651,1772,0,0
434,-748,0,0,0,0,0,0,0,0,0,-1,1658,1772,0,0
441,-748,0,0,0,0,0,0,0,0,0,-1,1665,1772,0,0
448,-748,0,0,0,0,0,0,0,0,0,-1,1672,1772,0,0
455,-748,0,0,0,0,0,0,0,0,0,-1,1679,1772,0,0
462,-748,0,0,0,0,0,0,0,0,0,-1,1686,1772,0,0
469,-748,0,0,0,0,0,0,0,0,0,-1,1693,1772,0,0
476,-748,0,0,0,0,0,0,0,0,0,-1,1700,1772,0,0
483,-748,0,0,0,0,0,0,0,0,0,-1,1707,1772,0,0
490,-748,0,0,0,0,0,0,0,0,0,-1,1714,1772,0,0
497,-748,0,0,0,0,0,0,0,0,0,-1,1721,1772,0,0
504,-748,0,0,0,0,0,0,0,0,0,-1,1728,1772,0,0
511,-748,0,0,0,0,0,0,0,0,0,-1,1735,1772,0,0
518,-748,0,0,0,0,0,0,0,0,0,-1,1742,1772,0,0
525,-748,0,0,0,0,0,0,0,0,0,-1,1749,1772,0,0
532,-748,0,0,0,0,0,0,0,0,0,-1,1756,1772,0,0
539,-748,0,0,0,0,0,0,0,0,0,-1,1763,1772,0,0
546,-748,0,0,0,0,0,0,0,0,0,-1,1770,1772,0,0
553,-748,0,0,0,0,0,0,0,0,0,-1,1777,1772,0,0
560,-748,0,0,0,0,0,0,0,0,0,-1,1784,1772,0,0
567,-748,0,0,0,0,0,0,0,0,0,-1,1791,1772,0,0
574,-748,0,0,0,0,0,0,0,0,0,-1,1798,1772,0,0
581,-748,0,0,0,0,0,0,0,0,0,-1,1805,1772,0,0
588,-748,0,0,0,0,0,0,0,0,0,-1,1812,1772,0,0
595,-748,0,0,0,0,0,0,0,0,0,-1,1819,1772,0,0
602,-748,0,0,0,0,0,0,0,0,0,-1,1826,1772,0,0
609,-748,0,0,0,0,0,0,0,0,0,-1,1833,1772,0,0
616,-748,0,0,0,0,0,0,0,0,0,-1,1840,1772,0,0
623,-748,0,0,0,0,0,0,0,0,0,-1,1847,1772,0,0
630,-748,0,0,0,0,0,0,0,0,0,-1,1854,1772,0,0
637,-748,0,0,0,0,0,0,0,0,0,-1,1861,1772,0,0
644,-748,0,0,0,0,0,0,0,0,0,-1,1868,1772,0,0
651,-748,0,0,0,0,0,0,0,0,0,-1,1875,1772,0,0
658,-748,0,0,0,0,0,0,0,0,0,-1,1882,1772,0,0
665,-748,0,0,0,0,0,0,0,0,0,-1,1889,1772,0,0
672,-748,0,0,0,0,0,0,0,0,0,-1,1896,1772,0,0
679,-748,0,0,0,0,0,0,0,0,0,-1,1903,1772,0,0
686,-748,0,0,0,0,0,0,0,0,0,-1,1910,1772,0,0
693,-748,0,0,0,0,0,0,0,0,0,-1,1917,1772,0,0
700,-748,0,0,0,0,0,0,0,0,0,-1,1924,1772,0,0
707,-748,0,0,0,0,0,0,0,0,0,-1,1931,1772,0,0
714,-748,0,0,0,0,0,0,0,0,0,-1,1938,1772,0,0
721,-748,0,0,0,0,0,0,0,0,0,-1,1945,1772,0,0
728,-748,0,0,0,0,0,0,0,0,0,-1,1952,1772,0,0
735,-748,0,0,0,0,0,0,0,0,0,-1,1959,1772,0,0
742,-748,0,0,0,0,0,0,0,0,0,-1,1966,1772,0,0
749,-748,0,0,0,0,0,0,0,0,0,-1,1973,1772,0,0
756,-748,0,0,0,0,0,0,0,0,0,-1,1980,1772,0,0
763,-748,0,0,0,0,0,0,0,0,0,-1,1987,1772,0,0
770,-748,0,0,0,0,0,0,0,0,0,-1,1994,1772,0,0
777,-748,0,0,0,0,0,0,0,0,0,-1,2001,1772,0,0
784,-748,0,0,0,0,0,0,0,0,0,-1,2008,1772,0,0
791,-748,0,0,0,0,0,0,0,0,0,-1,2015,1772,0,0
798,-748,0,0,0,0,0,0,0,0,0,-1,2022,1772,0,0
805,-748,0,0,0,0,0,0,0,0,0,-1,2029,1772,0,0
812,-748,0,0,0,0,0,0,0,0,0,-1,2036,1772,0,0
-700,-755,0,0,0,0,0,0,0,0,0,-1,524,1779,0,0
-693,-755,0,0,0,0,0,0,0,0,0,-1,531,1779,0,0
-686,-755,0,0,0,0,0,0,0,0,0,-1,538,1779,0,0
-679,-755,0,0,0,0,0,0,0,0,0,-1,545,1779,0,0
-672,-755,0,0,0,0,0,0,0,0,0,-1,552,1779,0,0
-665,-755,0,0,0,0,0,0,0,0,0,-1,559,1779,0,0
-658,-755,0,0,0,0,0,0,0,0,0,-1,566,1779,0,0
-651,-755,0,0,0,0,0,0,0,0,0,-1,573,1779,0,0
-644,-755,0,0,0,0,0,0,0,0,0,-1,580,1779,0,0
-637,-755,0,0,0,0,0,0,0,0,0,-1,587,1779,0,0
-630,-755,0,0,0,0,0,0,0,0,0,-1,594,1779,0,0
-623,-755,0,0,0,0,0,0,0,0,0,-1,601,1779,0,0
-616,-755,0,0,0,0,0,0,0,0,0,-1,608,1779,0,0
-609,-755,0,0,0,0,0,0,0,0,0,-1,615,1779,0,0
-602,-755,0,0,0,0,0,0,0,0,0,-1,622,1779,0,0
-595,-755,0,0,0,0,0,0,0,0,0,-1,629,1779,0,0
-588,-755,0,0,0,0,0,0,0,0,0,-1,636,1779,0,0
-581,-755,0,0,0,0,0,0,0,0,0,-1,643,1779,0,0
-574,-755,0,0,0,0,0,0,0,0,0,-1,650,1779,0,0
-567,-755,0,0,0,0,0,0,0,0,0,-1,657,1779,0,0
-560,-755,0,0,0,0,0,0,0,0,0,-1,664,1779,0,0
-553,-755,0,0,0,0,0,0,0,0,0,-1,671,1779,0,0
-546,-755,0,0,0,0,0,0,0,0,0,-1,678,1779,0,0
-539,-755,0,0,0,0,0,0,0,0,0,-1,685,1779,0,0
-532,-755,0,0,0,0,0,0,0,0,0,-1,692,1779,0,0
-525,-755,0,0,0,0,0,0,0,0,0,-1,699,1779,0,0
-518,-755,0,0,0,0,0,0,0,0,0,-1,706,1779,0,0
-511,-755,0,0,0,0,0,0,0,0,0,-1,713,1779,0,0
-504,-755,0,0,0,0,0,0,0,0,0,-1,720,1779,0,0
-497,-755,0,0,0,0,0,0,0,0,0,-1,727,1779,0,0
-490,-755,0,0,0,0,0,0,0,0,0,-1,734,1779,0,0
-483,-755,0,0,0,0,0,0,0,0,0,-1,741,1779,0,0
-476,-755,0,0,0,0,0,0,0,0,0,-1,748,1779,0,0
-469,-755,0,0,0,0,0,0,0,0,0,-1,755,1779,0,0
-462,-755,0,0,0,0,0,0,0,0,0,-1,762,1779,0,0
-455,-755,0,0,0,0,0,0,0,0,0,-1,769,1779,0,0
-448,-755,0,0,0,0,0,0,0,0,0,-1,776,1779,0,0
-441,-755,0,0,0,0,0,0,0,0,0,-1,783,1779,0,0
-434,-755,0,0,0,0,0,0,0,0,0,-1,790,1779,0,0
-427,-755,0,0,0,0,0,0,0,0,0,-1,797,1779,0,0
-420,-755,0,0,0,0,0,0,0,0,0,-1,804,1779,0,0
-413,-755,0,0,0,0,0,0,0,0,0,-1,811,1779,0,0
-406,-755,0,0,0,0,0,0,0,0,0,-1,818,1779,0,0
-399,-755,0,0,0,0,0,0,0,0,0,-1,825,1779,0,0
-392,-755,0,0,0,0,0,0,0,0,0,-1,832,1779,0,0
-385,-755,0,0,0,0,0,0,0,0,0,-1,839,1779,0,0
-378,-755,0,0,0,0,0,0,0,0,0,-1,846,1779,0,0
-371,-755,0,0,0,0,0,0,0,0,0,-1,853,1779,0,0
-364,-755,0,0,0,0,0,0,0,0,0,-1,860,1779,0,0
-357,-755,0,0,0,0,0,0,0,0,0,-1,867,1779,0,0
-350,-755,0,0,0,0,0,0,0,0,0,-1,874,1779,0,0
-343,-755,0,0,0,0,0,0,0,0,0,-1,881,1779,0,0
-336,-755,0,0,0,0,0,0,0,0,0,-1,888,1779,0,0
-329,-755,0,0,0,0,0,0,0,0,0,-1,895,1779,0,0
-322,-755,0,0,0,0,0,0,0,0,0,-1,902,1779,0,0
-315,-755,0,0,0,0,0,0,0,0,0,-1,909,1779,0,0
-308,-755,0,0,0,0,0,0,0,0,0,-1,916,1779,0,0
-301,-755,0,0,0,0,0,0,0,0,0,-1,923,1779,0,0
-294,-755,0,0,0,0,0,0,0,0,0,-1,930,1779,0,0
-287,-755,0,0,0,0,0,0,0,0,0,-1,937,1779,0,0
-280,-755,0,0,0,0,0,0,0,0,0,-1,944,1779,0,0
-273,-755,0,0,0,0,0,0,0,0,0,-1,951,1779,0,0
-266,-755,0,0,0,0,0,0,0,0,0,-1,958,1779,0,0
-259,-755,0,0,0,0,0,0,0,0,0,-1,965,1779,0,0
-252,-755,0,0,0,0,0,0,0,0,0,-1,972,1779,0,0
-245,-755,0,0,0,0,0,0,0,0,0,-1,979,1779,0,0
-238,-755,0,0,0,0,0,0,0,0,0,-1,986,1779,0,0
-231,-755,0,0,0,0,0,0,0,0,0,-1,993,1779,0,0
-224,-755,0,0,0,0,0,0,0,0,0,-1,1000,1779,0,0
-217,-755,0,0,0,0,0,0,0,0,0,-1,1007,1779,0,0
-210,-755,0,0,0,0,0,0,0,0,0,-1,1014,1779,0,0
-203,-755,-3.07153,13.8969,0,0,0,0,0,0,0,-1,1021,1779,-3.07152,-13.8969
-196,-755,4.91333,14.9064,0,0,0,0,0,0,0,-1,1028,1779,4.91327,-14.9063
-189,-755,4.85864,12.9271,0,0,0,0,0,0,0,-1,1035,1779,4.85866,-12.9272
-182,-755,0.733154,13.2736,0,0,0,0,0,0,0,-1,1042,1779,0.733112,-13.2735
-175,-755,-0.495972,12.4688,0,0,0,0,0,0,0,-1,1049,1779,-0.495979,-12.4687
-168,-755,-1.77759,11.6711,0,0,0,0,0,0,0,-1,1056,1779,-1.77753,-11.6711
-161,-755,-3.06799,11.2112,0,0,0,0,0,0,0,-1,1063,1779,-3.06805,-11.2111
-154,-755,-4.35852,10.7511,0,0,0,0,0,0,0,-1,1070,1779,-4.35858,-10.7511
-147,-755,-5.40332,10.7094,0,0,0,0,0,0,0,-1,1077,1779,-5.40328,-10.7094
-140,-755,3.29346,10.2112,0,0,0,0,0,0,0,-1,1084,1779,3.2935,-10.2112
-133,-755,6.0802,13.4475,0,0,0,0,0,0,0,-1,1091,1779,6.08021,-13.4475
-126,-755,5.32227,13.6213,0,0,0,0,0,0,0,-1,1098,1779,5.32222,-13.6214
-119,-755,4.57471,13.9894,0.00568752,0.0217584,0.00494578,0.0231584,0.00428743,1.29493,0.0142268,0.0409823,1105,1779,4.57472,-13.9894
-112,-755,4.57019,14.067,0.00810699,0.0191878,0.00415053,0.02057,0.00672475,1.24932,0.012111,0.0426698,1112,1779,4.57024,-14.067
-105,-755,4.85217,14.1768,0.00980886,0.0168747,0.00349468,0.0183111,0.00837244,1.18082,0.0105848,0.0476434,1119,1779,4.85212,-14.1767
-98,-755,4.95239,14.0734,0,0,0,0,0,0,0,-1,1126,1779,4.95237,-14.0734
-91,-755,0.160522,10.7096,0,0,0,0,0,0,0,-1,1133,1779,0.160512,-10.7096
-84,-755,0.169312,8.66443,0,0,0,0,0,0,0,-1,1140,1779,0.16932,-8.66446
-77,-755,-0.0491943,6.87439,0,0,0,0,0,0,0,-1,1147,1779,-0.0491385,-6.87443
-70,-755,4.5686,13.2169,0,0,0,0,0,0,0,-1,1154,1779,4.56865,-13.2169
-63,-755,-1.36316,7.3147,0,0,0,0,0,0,0,-1,1161,1779,-1.36312,-7.31473
-56,-755,0.0483398,5.06079,0,0,0,0,0,0,0,-1,1168,1779,0.0483138,-5.06084
-49,-755,-1.32263,5.33716,0,0,0,0,0,0,0,-1,1175,1779,-1.32264,-5.33718
-42,-755,-2.03613,4.01672,0,0,0,0,0,0,0,-1,1182,1779,-2.0361,-4.01671
-35,-755,-2.72498,2.37476,0,0,0,0,0,0,0,-1,1189,1779,-2.72502,-2.37473
-28,-755,4.56848,15.413,0,0,0,0,0,0,0,-1,1196,1779,4.56853,-15.4129
-21,-755,4.59875,15.5072,0,0,0,0,0,0,0,-1,1203,1779,4.5987,-15.5072
-14,-755,4.65869,15.3739,0.0329356,-0.00775174,0.000211855,0.0329367,-0.00775284,0.00520671,0.0249469,0.0326496,1210,1779,4.65869,-15.3739
-7,-755,4.65613,15.4072,0.0268596,-0.00725233,-3.91204e-05,0.0268596,-0.00725238,-0.00114682,0.0207507,0.0217101,1217,1779,4.6561,-15.4073
0,-755,4.63367,15.4614,0.0209886,-0.006723,-0.000303361,0.0209919,-0.00672632,-0.0109453,0.0166947,0.0135034,1224,1779,4.63365,-15.4615
7,-755,4.60559,15.5005,0.0155509,-0.0063283,-0.000669341,0.0155714,-0.00634875,-0.0305544,0.0130236,0.0128384,1231,1779,4.60565,-15.5005
14,-755,4.59448,15.5469,0.0108763,-0.00596233,-0.00103981,0.0109402,-0.0060263,-0.0614407,0.00993164,0.0117251,1238,1779,4.59446,-15.5469
21,-755,4.54504,15.5651,0.00755247,-0.0056245,-0.00107716,0.00763994,-0.00571198,-0.0810291,0.00773547,0.0157928,1245,1779,4.5451,-15.565
28,-755,4.57153,15.5647,0.00537003,-0.00534811,-0.000623017,0.00540613,-0.0053842,-0.0578675,0.0062298,0.0176721,1252,1779,4.57157,-15.5647
35,-755,4.58398,15.6591,0.0041758,-0.00502708,0.000155119,0.00417842,-0.00502969,0.0168491,0.00532387,0.0176128,1259,1779,4.58401,-15.659
42,-755,4.56201,15.6776,0.00254298,-0.00445763,0.000928656,0.00266408,-0.00457872,0.129666,0.00423006,0.0139844,1266,1779,4.56199,-15.6777
49,-755,4.53149,15.6761,0.00170471,-0.00440244,0.00212209,0.00236968,-0.00506741,0.303665,0.00438696,0.00944252,1273,1779,4.53154,-15.6761
56,-755,4.51624,15.7001,0.00226099,-0.00396863,0.00326116,0.00365586,-0.0053635,0.404174,0.00523835,0.00921343,1280,1779,4.51619,-15.7
63,-755,4.50977,15.7098,0.00313852,-0.0034411,0.00426214,0.00523282,-0.0055354,0.456723,0.00621785,0.0101086,1287,1779,4.50975,-15.7099
70,-755,4.49731,15.7137,0.00316539,-0.00265057,0.00533721,0.00633541,-0.00582059,0.535958,0.00702037,0.0121177,1294,1779,4.49736,-15.7138
77,-755,4.48523,15.7238,0.00259154,-0.00278275,0.00679996,0.00721604,-0.00740725,0.59723,0.008443,0.0116003,1301,1779,4.48517,-15.7238
84,-755,4.46338,15.7357,0.00215669,-0.00256018,0.00784239,0.0079876,-0.00839108,0.639335,0.00945719,0.0119517,1308,1779,4.46334,-15.7357
91,-755,4.45642,15.729,0.00164493,-0.00250359,0.00916383,0.00896633,-0.00982498,0.674097,0.0108529,0.0115911,1315,1779,4.45646,-15.729
98,-755,4.43567,15.7104,0.000651995,-0.00217104,0.00974184,0.00908405,-0.0106031,0.713453,0.0113777,0.0127695,1322,1779,4.4357,-15.7105
105,-755,4.46301,15.7205,-0.000438001,-0.00215573,0.0100163,0.00875616,-0.0113499,0.742629,0.0116404,0.0164877,1329,1779,4.46297,-15.7205
112,-755,4.43042,15.7052,-0.00146819,-0.00212663,0.0102557,0.0084636,-0.0120584,0.769353,0.0119088,0.0214083,1336,1779,4.43038,-15.7052
119,-755,4.36792,15.7035,-0.00247984,-0.00218224,0.0102457,0.00791575,-0.0125778,0.792659,0.0119336,0.0206929,1343,1779,4.36788,-15.7035
126,-755,4.34644,15.7179,-0.00384229,-0.0021944,0.0100286,0.00704408,-0.0130808,0.826386,0.011792,0.0224199,1350,1779,4.34645,-15.7179
133,-755,4.30591,15.6809,-0.00520927,-0.00201286,0.00958229,0.00610359,-0.0133257,0.868031,0.0114729,0.0228806,1357,1779,4.30586,-15.6809
140,-755,4.32703,15.6815,-0.00647268,-0.00172083,0.00928839,0.0054907,-0.0136842,0.910611,0.0114026,0.0290559,1364,1779,4.32705,-15.6816
147,-755,4.37036,15.6915,-0.00687549,-0.00183379,0.00948267,0.00545738,-0.0141667,0.915312,0.011696,0.0312906,1371,1779,4.37039,-15.6916
154,-755,4.38428,15.6331,-0.00655282,-0.00167745,0.00916097,0.00536462,-0.0135949,0.915432,0.0112848,0.0330586,1378,1779,4.38427,-15.6331
161,-755,4.37891,15.5886,0,0,0,0,0,0,0,-1,1385,1779,4.37886,-15.5887
168,-755,3.98181,7.35901,0,0,0,0,0,0,0,-1,1392,1779,3.98184,-7.35904
175,-755,8.17065,1.34363,0,0,0,0,0,0,0,-1,1399,1779,8.1706,-1.34368
182,-755,8.09216,2.96924,0,0,0,0,0,0,0,-1,1406,1779,8.09213,-2.9693
189,-755,8.04419,4.68042,0,0,0,0,0,0,0,-1,1413,1779,8.04419,-4.68046
196,-755,7.74841,7.4541,0,0,0,0,0,0,0,-1,1420,1779,7.74842,-7.45405
203,-755,4.80554,6.88696,0,0,0,0,0,0,0,-1,1427,1779,4.80554,-6.88697
210,-755,25.1694,7.35693,0,0,0,0,0,0,0,-1,1434,1779,25.1694,-7.35688
217,-755,4.63538,15.0715,0,0,0,0,0,0,0,-1,1441,1779,4.63536,-15.0715
224,-755,4.90527,15.527,0,0,0,0,0,0,0,-1,1448,1779,4.90523,-15.527
231,-755,4.97412,16.6469,0,0,0,0,0,0,0,-1,1455,1779,4.97409,-16.6469
238,-755,4.65552,14.7994,0,0,0,0,0,0,0,-1,1462,1779,4.65546,-14.7994
245,-755,4.3252,12.95,0,0,0,0,0,0,0,-1,1469,1779,4.32518,-12.9499
252,-755,4.16772,11.2023,0,0,0,0,0,0,0,-1,1476,1779,4.1677,-11.2023
259,-755,19.3054,7.79248,0,0,0,0,0,0,0,-1,1483,1779,19.3054,-7.79245
266,-755,17.8599,7.48157,0,0,0,0,0,0,0,-1,1490,1779,17.8598,-7.48152
273,-755,16.4017,7.30176,0,0,0,0,0,0,0,-1,1497,1779,16.4018,-7.30181
280,-755,14.868,7.03943,0,0,0,0,0,0,0,-1,1504,1779,14.868,-7.03948
287,-755,12.8143,6.74976,0,0,0,0,0,0,0,-1,1511,1779,12.8143,-6.74971
294,-755,10.1927,6.44788,0,0,0,0,0,0,0,-1,1518,1779,10.1928,-6.44785
301,-755,8.29565,6.27539,0,0,0,0,0,0,0,-1,1525,1779,8.29569,-6.27534
308,-755,8.76111,7.19995,0,0,0,0,0,0,0,-1,1532,1779,8.76106,-7.19997
315,-755,7.66003,7.40503,0,0,0,0,0,0,0,-1,1539,1779,7.66006,-7.40499
322,-755,0,0,0,0,0,0,0,0,0,-1,1546,1779,0,0
329,-755,0,0,0,0,0,0,0,0,0,-1,1553,1779,0,0
336,-755,0,0,0,0,0,0,0,0,0,-1,1560,1779,0,0
343,-755,0,0,0,0,0,0,0,0,0,-1,1567,1779,0,0
350,-755,0,0,0,0,0,0,0,0,0,-1,1574,1779,0,0
357,-755,0,0,0,0,0,0,0,0,0,-1,1581,1779,0,0
364,-755,0,0,0,0,0,0,0,0,0,-1,1588,1779,0,0
371,-755,0,0,0,0,0,0,0,0,0,-1,1595,1779,0,0
378,-755,0,0,0,0,0,0,0,0,0,-1,1602,1779,0,0
385,-755,0,0,0,0,0,0,0,0,0,-1,1609,1779,0,0
392,-755,0,0,0,0,0,0,0,0,0,-1,1616,1779,0,0
399,-755,0,0,0,0,0,0,0,0,0,-1,1623,1779,0,0
406,-755,0,0,0,0,0,0,0,0,0,-1,1630,1779,0,0
413,-755,0,0,0,0,0,0,0,0,0,-1,1637,1779,0,0
420,-755,0,0,0,0,0,0,0,0,0,-1,1644,1779,0,0
427,-755,0,0,0,0,0,0,0,0,0,-1,1651,1779,0,0
434,-755,0,0,0,0,0,0,0,0,0,-1,1658,1779,0,0
441,-755,0,0,0,0,0,0,0,0,0,-1,1665,1779,0,0
448,-755,0,0,0,0,0,0,0,0,0,-1,1672,1779,0,0
455,-755,0,0,0,0,0,0,0,0,0,-1,1679,1779,0,0
462,-755,0,0,0,0,0,0,0,0,0,-1,1686,1779,0,0
469,-755,0,0,0,0,0,0,0,0,0,-1,1693,1779,0,0
476,-755,0,0,0,0,0,0,0,0,0,-1,1700,1779,0,0
483,-755,0,0,0,0,0,0,0,0,0,-1,1707,1779,0,0
490,-755,0,0,0,0,0,0,0,0,0,-1,1714,1779,0,0
497,-755,0,0,0,0,0,0,0,0,0,-1,1721,1779,0,0
504,-755,0,0,0,0,0,0,0,0,0,-1,1728,1779,0,0
511,-755,0,0,0,0,0,0,0,0,0,-1,1735,1779,0,0
518,-755,0,0,0,0,0,0,0,0,0,-1,1742,1779,0,0
525,-755,0,0,0,0,0,0,0,0,0,-1,1749,1779,0,0
532,-755,0,0,0,0,0,0,0,0,0,-1,1756,1779,0,0
539,-755,0,0,0,0,0,0,0,0,0,-1,1763,1779,0,0
546,-755,0,0,0,0,0,0,0,0,0,-1,1770,1779,0,0
553,-755,0,0,0,0,0,0,0,0,0,-1,1777,1779,0,0
560,-755,0,0,0,0,0,0,0,0,0,-1,1784,1779,0,0
567,-755,0,0,0,0,0,0,0,0,0,-1,1791,1779,0,0
574,-755,0,0,0,0,0,0,0,0,0,-1,1798,1779,0,0
581,-755,0,0,0,0,0,0,0,0,0,-1,1805,1779,0,0
588,-755,0,0,0,0,0,0,0,0,0,-1,1812,1779,0,0
595,-755,0,0,0,0,0,0,0,0,0,-1,1819,1779,0,0
602,-755,0,0,0,0,0,0,0,0,0,-1,1826,1779,0,0
609,-755,0,0,0,0,0,0,0,0,0,-1,1833,1779,0,0
616,-755,0,0,0,0,0,0,0,0,0,-1,1840,1779,0,0
623,-755,0,0,0,0,0,0,0,0,0,-1,1847,1779,0,0
630,-755,0,0,0,0,0,0,0,0,0,-1,1854,1779,0,0
637,-755,0,0,0,0,0,0,0,0,0,-1,1861,1779,0,0
644,-755,0,0,0,0,0,0,0,0,0,-1,1868,1779,0,0
651,-755,0,0,0,0,0,0,0,0,0,-1,1875,1779,0,0
658,-755,0,0,0,0,0,0,0,0,0,-1,1882,1779,0,0
665,-755,0,0,0,0,0,0,0,0,0,-1,1889,1779,0,0
672,-755,0,0,0,0,0,0,0,0,0,-1,1896,1779,0,0
679,-755,0,0,0,0,0,0,0,0,0,-1,1903,1779,0,0
686,-755,0,0,0,0,0,0,0,0,0,-1,1910,1779,0,0
693,-755,0,0,0,0,0,0,0,0,0,-1,1917,1779,0,0
700,-755,0,0,0,0,0,0,0,0,0,-1,1924,1779,0,0
707,-755,0,0,0,0,0,0,0,0,0,-1,1931,1779,0,0
714,-755,0,0,0,0,0,0,0,0,0,-1,1938,1779,0,0
721,-755,0,0,0,0,0,0,0,0,0,-1,1945,1779,0,0
728,-755,0,0,0,0,0,0,0,0,0,-1,1952,1779,0,0
735,-755,0,0,0,0,0,0,0,0,0,-1,1959,1779,0,0
742,-755,0,0,0,0,0,0,0,0,0,-1,1966,1779,0,0
749,-755,0,0,0,0,0,0,0,0,0,-1,1973,1779,0,0
756,-755,0,0,0,0,0,0,0,0,0,-1,1980,1779,0,0
763,-755,0,0,0,0,0,0,0,0,0,-1,1987,1779,0,0
770,-755,0,0,0,0,0,0,0,0,0,-1,1994,1779,0,0
777,-755,0,0,0,0,0,0,0,0,0,-1,2001,1779,0,0
784,-755,0,0,0,0,0,0,0,0,0,-1,2008,1779,0,0
791,-755,0,0,0,0,0,0,0,0,0,-1,2015,1779,0,0
798,-755,0,0,0,0,0,0,0,0,0,-1,2022,1779,0,0
805,-755,0,0,0,0,0,0,0,0,0,-1,2029,1779,0,0
812,-755,0,0,0,0,0,0,0,0,0,-1,2036,1779,0,0
-700,-762,0,0,0,0,0,0,0,0,0,-1,524,1786,0,0
-693,-762,0,0,0,0,0,0,0,0,0,-1,531,1786,0,0
-686,-762,0,0,0,0,0,0,0,0,0,-1,538,1786,0,0
-679,-762,0,0,0,0,0,0,0,0,0,-1,545,1786,0,0
-672,-762,0,0,0,0,0,0,0,0,0,-1,552,1786,0,0
-665,-762,0,0,0,0,0,0,0,0,0,-1,559,1786,0,0
-658,-762,0,0,0,0,0,0,0,0,0,-1,566,1786,0,0
-651,-762,0,0,0,0,0,0,0,0,0,-1,573,1786,0,0
-644,-762,0,0,0,0,0,0,0,0,0,-1,580,1786,0,0
-637,-762,0,0,0,0,0,0,0,0,0,-1,587,1786,0,0
-630,-762,0,0,0,0,0,0,0,0,0,-1,594,1786,0,0
-623,-762,0,0,0,0,0,0,0,0,0,-1,601,1786,0,0
-616,-762,0,0,0,0,0,0,0,0,0,-1,608,1786,0,0
-609,-762,0,0,0,0,0,0,0,0,0,-1,615,1786,0,0
-602,-762,0,0,0,0,0,0,0,0,0,-1,622,1786,0,0
-595,-762,0,0,0,0,0,0,0,0,0,-1,629,1786,0,0
-588,-762,0,0,0,0,0,0,0,0,0,-1,636,1786,0,0
-581,-762,0,0,0,0,0,0,0,0,0,-1,643,1786,0,0
-574,-762,0,0,0,0,0,0,0,0,0,-1,650,1786,0,0
-567,-762,0,0,0,0,0,0,0,0,0,-1,657,1786,0,0
-560,-762,0,0,0,0,0,0,0,0,0,-1,664,1786,0,0
-553,-762,0,0,0,0,0,0,0,0,0,-1,671,1786,0,0
-546,-762,0,0,0,0,0,0,0,0,0,-1,678,1786,0,0
-539,-762,0,0,0,0,0,0,0,0,0,-1,685,1786,0,0
-532,-762,0,0,0,0,0,0,0,0,0,-1,692,1786,0,0
-525,-762,0,0,0,0,0,0,0,0,0,-1,699,1786,0,0
-518,-762,0,0,0,0,0,0,0,0,0,-1,706,1786,0,0
-511,-762,0,0,0,0,0,0,0,0,0,-1,713,1786,0,0
-504,-762,0,0,0,0,0,0,0,0,0,-1,720,1786,0,0
-497,-762,0,0,0,0,0,0,0,0,0,-1,727,1786,0,0
-490,-762,0,0,0,0,0,0,0,0,0,-1,734,1786,0,0
-483,-762,0,0,0,0,0,0,0,0,0,-1,741,1786,0,0
-476,-762,0,0,0,0,0,0,0,0,0,-1,748,1786,0,0
-469,-762,0,0,0,0,0,0,0,0,0,-1,755,1786,0,0
-462,-762,0,0,0,0,0,0,0,0,0,-1,762,1786,0,0
-455,-762,0,0,0,0,0,0,0,0,0,-1,769,1786,0,0
-448,-762,0,0,0,0,0,0,0,0,0,-1,776,1786,0,0
-441,-762,0,0,0,0,0,0,0,0,0,-1,783,1786,0,0
-434,-762,0,0,0,0,0,0,0,0,0,-1,790,1786,0,0
-427,-762,0,0,0,0,0,0,0,0,0,-1,797,1786,0,0
-420,-762,0,0,0,0,0,0,0,0,0,-1,804,1786,0,0
-413,-762,0,0,0,0,0,0,0,0,0,-1,811,1786,0,0
-406,-762,0,0,0,0,0,0,0,0,0,-1,818,1786,0,0
-399,-762,0,0,0,0,0,0,0,0,0,-1,825,1786,0,0
-392,-762,0,0,0,0,0,0,0,0,0,-1,832,1786,0,0
-385,-762,0,0,0,0,0,0,0,0,0,-1,839,1786,0,0
-378,-762,0,0,0,0,0,0,0,0,0,-1,846,1786,0,0
-371,-762,0,0,0,0,0,0,0,0,0,-1,853,1786,0,0
-364,-762,0,0,0,0,0,0,0,0,0,-1,860,1786,0,0
-357,-762,0,0,0,0,0,0,0,0,0,-1,867,1786,0,0
-350,-762,0,0,0,0,0,0,0,0,0,-1,874,1786,0,0
-343,-762,0,0,0,0,0,0,0,0,0,-1,881,1786,0,0
-336,-762,0,0,0,0,0,0,0,0,0,-1,888,1786,0,0
-329,-762,0,0,0,0,0,0,0,0,0,-1,895,1786,0,0
-322,-762,0,0,0,0,0,0,0,0,0,-1,902,1786,0,0
-315,-762,0,0,0,0,0,0,0,0,0,-1,909,1786,0,0
-308,-762,0,0,0,0,0,0,0,0,0,-1,916,1786,0,0
-301,-762,0,0,0,0,0,0,0,0,0,-1,923,1786,0,0
-294,-762,0,0,0,0,0,0,0,0,0,-1,930,1786,0,0
-287,-762,0,0,0,0,0,0,0,0,0,-1,937,1786,0,0
-280,-762,0,0,0,0,0,0,0,0,0,-1,944,1786,0,0
-273,-762,0,0,0,0,0,0,0,0,0,-1,951,1786,0,0
-266,-762,0,0,0,0,0,0,0,0,0,-1,958,1786,0,0
-259,-762,0,0,0,0,0,0,0,0,0,-1,965,1786,0,0
-252,-762,0,0,0,0,0,0,0,0,0,-1,972,1786,0,0
-245,-762,0,0,0,0,0,0,0,0,0,-1,979,1786,0,0
-238,-762,0,0,0,0,0,0,0,0,0,-1,986,1786,0,0
-231,-762,0,0,0,0,0,0,0,0,0,-1,993,1786,0,0
-224,-762,0,0,0,0,0,0,0,0,0,-1,1000,1786,0,0
-217,-762,0,0,0,0,0,0,0,0,0,-1,1007,1786,0,0
-210,-762,0,0,0,0,0,0,0,0,0,-1,1014,1786,0,0
-203,-762,0,0,0,0,0,0,0,0,0,-1,1021,1786,0,0
-196,-762,0,0,0,0,0,0,0,0,0,-1,1028,1786,0,0
-189,-762,0,0,0,0,0,0,0,0,0,-1,1035,1786,0,0
-182,-762,4.44226,13.2462,0,0,0,0,0,0,0,-1,1042,1786,4.44227,-13.2462
-175,-762,4.07861,11.6385,0,0,0,0,0,0,0,-1,1049,1786,4.07866,-11.6386
-168,-762,3.71509,10.031,0,0,0,0,0,0,0,-1,1056,1786,3.71504,-10.031
-161,-762,-3.43958,11.9911,0,0,0,0,0,0,0,-1,1063,1786,-3.43953,-11.9911
-154,-762,-4.57129,10.9923,0,0,0,0,0,0,0,-1,1070,1786,-4.57132,-10.9923
-147,-762,-1.09119,4.58313,0,0,0,0,0,0,0,-1,1077,1786,-1.09124,-4.58313
-140,-762,4.99792,5.28589,0,0,0,0,0,0,0,-1,1084,1786,4.99793,-5.28587
-133,-762,3.75159,9.08374,0,0,0,0,0,0,0,-1,1091,1786,3.75161,-9.08378
-126,-762,6.12231,12.5032,0,0,0,0,0,0,0,-1,1098,1786,6.12238,-12.5032
-119,-762,4.70349,13.369,0,0,0,0,0,0,0,-1,1105,1786,4.70354,-13.369
-112,-762,4.77612,14.59,0,0,0,0,0,0,0,-1,1112,1786,4.77612,-14.5899
-105,-762,4.86194,14.4731,0,0,0,0,0,0,0,-1,1119,1786,4.86197,-14.4731
-98,-762,4.94788,14.3563,0,0,0,0,0,0,0,-1,1126,1786,4.94782,-14.3564
-91,-762,3.979,11.474,0,0,0,0,0,0,0,-1,1133,1786,3.97904,-11.474
-84,-762,0.415161,10.0322,0,0,0,0,0,0,0,-1,1140,1786,0.415179,-10.0322
-77,-762,0.305054,8.49365,0,0,0,0,0,0,0,-1,1147,1786,0.305008,-8.49362
-70,-762,0.183716,6.74622,0,0,0,0,0,0,0,-1,1154,1786,0.183696,-6.74621
-63,-762,0.350098,6.29749,0,0,0,0,0,0,0,-1,1161,1786,0.350114,-6.29743
-56,-762,-0.578979,5.10254,0,0,0,0,0,0,0,-1,1168,1786,-0.578951,-5.10249
-49,-762,-2.04541,3.66321,0,0,0,0,0,0,0,-1,1175,1786,-2.0454,-3.66319
-42,-762,-2.23462,3.474,0,0,0,0,0,0,0,-1,1182,1786,-2.23459,-3.47399
-35,-762,-3.28992,1.68164,0,0,0,0,0,0,0,-1,1189,1786,-3.28998,-1.68164
-28,-762,-3.75378,1.37769,0,0,0,0,0,0,0,-1,1196,1786,-3.75373,-1.37767
-21,-762,4.7926,15.2778,0,0,0,0,0,0,0,-1,1203,1786,4.79255,-15.2778
-14,-762,4.79871,15.3088,0.051087,-0.0128918,0.000948472,0.0511011,-0.0129058,0.0148204,0.0390861,0.0498639,1210,1786,4.79865,-15.3089
-7,-762,4.92932,14.9127,0.0410163,-0.011717,0.000521021,0.0410214,-0.0117221,0.00987902,0.0319793,0.0475984,1217,1786,4.92927,-14.9127
0,-762,4.6571,15.4735,0.0316208,-0.0105707,4.22559e-05,0.0316208,-0.0105707,0.00100153,0.0253498,0.0361717,1224,1786,4.6571,-15.4735
7,-762,4.68225,15.5323,0.0231395,-0.00964307,-0.000575835,0.0231496,-0.00965318,-0.0175581,0.0194657,0.0211112,1231,1786,4.68221,-15.5324
14,-762,4.67236,15.6095,0.0160044,-0.00882006,-0.00123686,0.0160659,-0.00888153,-0.0496602,0.0146011,0.0340588,1238,1786,4.6724,-15.6095
21,-762,5.17249,15.6426,0,0,0,0,0,0,0,-1,1245,1786,5.17251,-15.6425
28,-762,4.52832,15.5125,0.00767531,-0.00754609,-0.000873272,0.00772524,-0.00759603,-0.0571215,0.00884584,0.0365737,1252,1786,4.52834,-15.5125
35,-762,4.59229,15.6866,0.00592632,-0.0070839,0.000187422,0.00592902,-0.00708659,0.0144018,0.00752447,0.0404118,1259,1786,4.59234,-15.6867
42,-762,4.59229,15.7523,0.00362638,-0.0062757,0.00123889,0.00377903,-0.00642835,0.122597,0.00595903,0.0409908,1266,1786,4.59233,-15.7523
49,-762,4.52588,15.7191,0.00245563,-0.00617322,0.00291119,0.00334594,-0.00706354,0.296792,0.00613634,0.0321333,1273,1786,4.52591,-15.7191
56,-762,4.57202,15.7028,0.00326196,-0.0056791,0.00457614,0.00518883,-0.00760597,0.398536,0.00743089,0.0227775,1280,1786,4.57205,-15.7027
63,-762,4.55762,15.7147,0.00455021,-0.00507881,0.00605766,0.00747358,-0.00800217,0.449623,0.00893667,0.0213477,1287,1786,4.55756,-15.7148
70,-762,4.53137,15.7152,0.00466598,-0.004248,0.00746067,0.00889957,-0.0084816,0.516146,0.010036,0.0202548,1294,1786,4.5314,-15.7152
77,-762,4.51184,15.7153,0.00393582,-0.00450966,0.00935773,0.00997947,-0.0105533,0.573449,0.0118561,0.026433,1301,1786,4.5118,-15.7153
84,-762,4.49768,15.6992,0.00339363,-0.00433811,0.0107087,0.0109129,-0.0118574,0.612177,0.0131502,0.0334422,1308,1786,4.4977,-15.6992
91,-762,4.49597,15.6832,0.00263814,-0.00447665,0.0124092,0.0119898,-0.0138283,0.645805,0.0149187,0.043035,1315,1786,4.49592,-15.6833
98,-762,4.37439,15.8268,0.00106939,-0.0040843,0.0129378,0.0116845,-0.0146994,0.687099,0.0152658,0.0428774,1322,1786,4.37435,-15.8268
105,-762,4.49109,15.8749,-0.000607749,-0.00410898,0.0129903,0.0107494,-0.0154661,0.71842,0.015217,0.0410976,1329,1786,4.49106,-15.8748
112,-762,4.42188,15.767,-0.00220064,-0.00411872,0.0129687,0.00984446,-0.0161638,0.74849,0.0151629,0.0444124,1336,1786,4.42189,-15.7669
119,-762,4.27661,15.7365,-0.00393133,-0.00422344,0.012636,0.00855951,-0.0167143,0.779619,0.0148428,0.0446129,1343,1786,4.27656,-15.7364
126,-762,4.25122,16.1467,-0.0062715,-0.00430029,0.0120652,0.00681945,-0.0173912,0.826153,0.0144154,0.0437669,1350,1786,4.25122,-16.1467
133,-762,3.48193,15.5033,0,0,0,0,0,0,0,-1,1357,1786,3.48192,-15.5033
140,-762,3.79211,15.4186,-0.0109432,-0.00368001,0.0106231,0.00391511,-0.0185383,0.950099,0.0138496,0.0461119,1364,1786,3.79208,-15.4186
147,-762,4.16333,15.5247,-0.0119096,-0.00398137,0.0108926,0.00364603,-0.019537,0.959911,0.0143947,0.045305,1371,1786,4.16338,-15.5247
154,-762,4.35645,15.728,0,0,0,0,0,0,0,-1,1378,1786,4.35642,-15.728
161,-762,7.93408,-0.126221,0,0,0,0,0,0,0,-1,1385,1786,7.93402,0.126232
168,-762,8.19287,0.880615,0,0,0,0,0,0,0,-1,1392,1786,8.19291,-0.880603
175,-762,8.33997,1.95947,0,0,0,0,0,0,0,-1,1399,1786,8.33997,-1.95942
182,-762,8.28418,3.56482,0,0,0,0,0,0,0,-1,1406,1786,8.28415,-3.56485
189,-762,8.21179,5.23389,0,0,0,0,0,0,0,-1,1413,1786,8.21183,-5.23383
196,-762,8.05969,6.95483,0,0,0,0,0,0,0,-1,1420,1786,8.05972,-6.9548
203,-762,24.0077,7.10425,0,0,0,0,0,0,0,-1,1427,1786,24.0077,-7.10426
210,-762,23.8073,7.6499,0.00902763,-0.019258,0.0896639,0.0856573,-0.0958876,0.707177,0.10487,0.0436629,1434,1786,23.8073,-7.64987
217,-762,23.3193,8.24426,0.00965937,-0.0198624,0.0880043,0.0841321,-0.0943352,0.702307,0.103094,0.0451833,1441,1786,23.3194,-8.2442
224,-762,22.927,8.92358,0,0,0,0,0,0,0,-1,1448,1786,22.9269,-8.92356
231,-762,22.587,9.35803,0,0,0,0,0,0,0,-1,1455,1786,22.5871,-9.35808
238,-762,4.71753,14.3779,0,0,0,0,0,0,0,-1,1462,1786,4.71757,-14.3779
245,-762,4.35315,12.63,0,0,0,0,0,0,0,-1,1469,1786,4.35313,-12.63
252,-762,20.6208,9.06189,0,0,0,0,0,0,0,-1,1476,1786,20.6208,-9.06185
259,-762,19.1664,8.13806,0,0,0,0,0,0,0,-1,1483,1786,19.1664,-8.13807
266,-762,17.4075,7.54456,0,0,0,0,0,0,0,-1,1490,1786,17.4075,-7.54455
273,-762,15.8035,7.57849,0,0,0,0,0,0,0,-1,1497,1786,15.8035,-7.57849
280,-762,14.5614,7.43396,0,0,0,0,0,0,0,-1,1504,1786,14.5614,-7.43401
287,-762,13.2286,6.92615,0,0,0,0,0,0,0,-1,1511,1786,13.2286,-6.92616
294,-762,11.8696,6.71265,0,0,0,0,0,0,0,-1,1518,1786,11.8696,-6.71262
301,-762,7.09546,7.00146,0,0,0,0,0,0,0,-1,1525,1786,7.0954,-7.00144
308,-762,0,0,0,0,0,0,0,0,0,-1,1532,1786,0,0
315,-762,0,0,0,0,0,0,0,0,0,-1,1539,1786,0,0
322,-762,0,0,0,0,0,0,0,0,0,-1,1546,1786,0,0
329,-762,0,0,0,0,0,0,0,0,0,-1,1553,1786,0,0
336,-762,0,0,0,0,0,0,0,0,0,-1,1560,1786,0,0
343,-762,0,0,0,0,0,0,0,0,0,-1,1567,1786,0,0
350,-762,0,0,0,0,0,0,0,0,0,-1,1574,1786,0,0
357,-762,0,0,0,0,0,0,0,0,0,-1,1581,1786,0,0
364,-762,0,0,0,0,0,0,0,0,0,-1,1588,1786,0,0
371,-762,0,0,0,0,0,0,0,0,0,-1,1595,1786,0,0
378,-762,0,0,0,0,0,0,0,0,0,-1,1602,1786,0,0
385,-762,0,0,0,0,0,0,0,0,0,-1,1609,1786,0,0
392,-762,0,0,0,0,0,0,0,0,0,-1,1616,1786,0,0
399,-762,0,0,0,0,0,0,0,0,0,-1,1623,1786,0,0
406,-762,0,0,0,0,0,0,0,0,0,-1,1630,1786,0,0
413,-762,0,0,0,0,0,0,0,0,0,-1,1637,1786,0,0
420,-762,0,0,0,0,0,0,0,0,0,-1,1644,1786,0,0
427,-762,0,0,0,0,0,0,0,0,0,-1,1651,1786,0,0
434,-762,0,0,0,0,0,0,0,0,0,-1,1658,1786,0,0
441,-762,0,0,0,0,0,0,0,0,0,-1,1665,1786,0,0
448,-762,0,0,0,0,0,0,0,0,0,-1,1672,1786,0,0
455,-762,0,0,0,0,0,0,0,0,0,-1,1679,1786,0,0
462,-762,0,0,0,0,0,0,0,0,0,-1,1686,1786,0,0
469,-762,0,0,0,0,0,0,0,0,0,-1,1693,1786,0,0
476,-762,0,0,0,0,0,0,0,0,0,-1,1700,1786,0,0
483,-762,0,0,0,0,0,0,0,0,0,-1,1707,1786,0,0
490,-762,0,0,0,0,0,0,0,0,0,-1,1714,1786,0,0
497,-762,0,0,0,0,0,0,0,0,0,-1,1721,1786,0,0
504,-762,0,0,0,0,0,0,0,0,0,-1,1728,1786,0,0
511,-762,0,0,0,0,0,0,0,0,0,-1,1735,1786,0,0
518,-762,0,0,0,0,0,0,0,0,0,-1,1742,1786,0,0
525,-762,0,0,0,0,0,0,0,0,0,-1,1749,1786,0,0
532,-762,0,0,0,0,0,0,0,0,0,-1,1756,1786,0,0
539,-762,0,0,0,0,0,0,0,0,0,-1,1763,1786,0,0
546,-762,0,0,0,0,0,0,0,0,0,-1,1770,1786,0,0
553,-762,0,0,0,0,0,0,0,0,0,-1,1777,1786,0,0
560,-762,0,0,0,0,0,0,0,0,0,-1,1784,1786,0,0
567,-762,0,0,0,0,0,0,0,0,0,-1,1791,1786,0,0
574,-762,0,0,0,0,0,0,0,0,0,-1,1798,1786,0,0
581,-762,0,0,0,0,0,0,0,0,0,-1,1805,1786,0,0
588,-762,0,0,0,0,0,0,0,0,0,-1,1812,1786,0,0
595,-762,0,0,0,0,0,0,0,0,0,-1,1819,1786,0,0
602,-762,0,0,0,0,0,0,0,0,0,-1,1826,1786,0,0
609,-762,0,0,0,0,0,0,0,0,0,-1,1833,1786,0,0
616,-762,0,0,0,0,0,0,0,0,0,-1,1840,1786,0,0
623,-762,0,0,0,0,0,0,0,0,0,-1,1847,1786,0,0
630,-762,0,0,0,0,0,0,0,0,0,-1,1854,1786,0,0
637,-762,0,0,0,0,0,0,0,0,0,-1,1861,1786,0,0
644,-762,0,0,0,0,0,0,0,0,0,-1,1868,1786,0,0
651,-762,0,0,0,0,0,0,0,0,0,-1,1875,1786,0,0
658,-762,0,0,0,0,0,0,0,0,0,-1,1882,1786,0,0
665,-762,0,0,0,0,0,0,0,0,0,-1,1889,1786,0,0
672,-762,0,0,0,0,0,0,0,0,0,-1,1896,1786,0,0
679,-762,0,0,0,0,0,0,0,0,0,-1,1903,1786,0,0
686,-762,0,0,0,0,0,0,0,0,0,-1,1910,1786,0,0
693,-762,0,0,0,0,0,0,0,0,0,-1,1917,1786,0,0
700,-762,0,0,0,0,0,0,0,0,0,-1,1924,1786,0,0
707,-762,0,0,0,0,0,0,0,0,0,-1,1931,1786,0,0
714,-762,0,0,0,0,0,0,0,0,0,-1,1938,1786,0,0
721,-762,0,0,0,0,0,0,0,0,0,-1,1945,1786,0,0
728,-762,0,0,0,0,0,0,0,0,0,-1,1952,1786,0,0
735,-762,0,0,0,0,0,0,0,0,0,-1,1959,1786,0,0
742,-762,0,0,0,0,0,0,0,0,0,-1,1966,1786,0,0
749,-762,0,0,0,0,0,0,0,0,0,-1,1973,1786,0,0
756,-762,0,0,0,0,0,0,0,0,0,-1,1980,1786,0,0
763,-762,0,0,0,0,0,0,0,0,0,-1,1987,1786,0,0
770,-762,0,0,0,0,0,0,0,0,0,-1,1994,1786,0,0
777,-762,0,0,0,0,0,0,0,0,0,-1,2001,1786,0,0
784,-762,0,0,0,0,0,0,0,0,0,-1,2008,1786,0,0
791,-762,0,0,0,0,0,0,0,0,0,-1,2015,1786,0,0
798,-762,0,0,0,0,0,0,0,0,0,-1,2022,1786,0,0
805,-762,0,0,0,0,0,0,0,0,0,-1,2029,1786,0,0
812,-762,0,0,0,0,0,0,0,0,0,-1,2036,1786,0,0
-700,-769,0,0,0,0,0,0,0,0,0,-1,524,1793,0,0
-693,-769,0,0,0,0,0,0,0,0,0,-1,531,1793,0,0
-686,-769,0,0,0,0,0,0,0,0,0,-1,538,1793,0,0
-679,-769,0,0,0,0,0,0,0,0,0,-1,545,1793,0,0
-672,-769,0,0,0,0,0,0,0,0,0,-1,552,1793,0,0
-665,-769,0,0,0,0,0,0,0,0,0,-1,559,1793,0,0
-658,-769,0,0,0,0,0,0,0,0,0,-1,566,1793,0,0
-651,-769,0,0,0,0,0,0,0,0,0,-1,573,1793,0,0
-644,-769,0,0,0,0,0,0,0,0,0,-1,580,1793,0,0
-637,-769,0,0,0,0,0,0,0,0,0,-1,587,1793,0,0
-630,-769,0,0,0,0,0,0,0,0,0,-1,594,1793,0,0
-623,-769,0,0,0,0,0,0,0,0,0,-1,601,1793,0,0
-616,-769,0,0,0,0,0,0,0,0,0,-1,608,1793,0,0
-609,-769,0,0,0,0,0,0,0,0,0,-1,615,1793,0,0
-602,-769,0,0,0,0,0,0,0,0,0,-1,622,1793,0,0
-595,-769,0,0,0,0,0,0,0,0,0,-1,629,1793,0,0
-588,-769,0,0,0,0,0,0,0,0,0,-1,636,1793,0,0
-581,-769,0,0,0,0,0,0,0,0,0,-1,643,1793,0,0
-574,-769,0,0,0,0,0,0,0,0,0,-1,650,1793,0,0
-567,-769,0,0,0,0,0,0,0,0,0,-1,657,1793,0,0
-560,-769,0,0,0,0,0,0,0,0,0,-1,664,1793,0,0
-553,-769,0,0,0,0,0,0,0,0,0,-1,671,1793,0,0
-546,-769,0,0,0,0,0,0,0,0,0,-1,678,1793,0,0
-539,-769,0,0,0,0,0,0,0,0,0,-1,685,1793,0,0
-532,-769,0,0,0,0,0,0,0,0,0,-1,692,1793,0,0
-525,-769,0,0,0,0,0,0,0,0,0,-1,699,1793,0,0
-518,-769,0,0,0,0,0,0,0,0,0,-1,706,1793,0,0
-511,-769,0,0,0,0,0,0,0,0,0,-1,713,1793,0,0
-504,-769,0,0,0,0,0,0,0,0,0,-1,720,1793,0,0
-497,-769,0,0,0,0,0,0,0,0,0,-1,727,1793,0,0
-490,-769,0,0,0,0,0,0,0,0,0,-1,734,1793,0,0
-483,-769,0,0,0,0,0,0,0,0,0,-1,741,1793,0,0
-476,-769,0,0,0,0,0,0,0,0,0,-1,748,1793,0,0
-469,-769,0,0,0,0,0,0,0,0,0,-1,755,1793,0,0
-462,-769,0,0,0,0,0,0,0,0,0,-1,762,1793,0,0
-455,-769,0,0,0,0,0,0,0,0,0,-1,769,1793,0,0
-448,-769,0,0,0,0,0,0,0,0,0,-1,776,1793,0,0
-441,-769,0,0,0,0,0,0,0,0,0,-1,783,1793,0,0
-434,-769,0,0,0,0,0,0,0,0,0,-1,790,1793,0,0
-427,-769,0,0,0,0,0,0,0,0,0,-1,797,1793,0,0
-420,-769,0,0,0,0,0,0,0,0,0,-1,804,1793,0,0
-413,-769,0,0,0,0,0,0,0,0,0,-1,811,1793,0,0
-406,-769,0,0,0,0,0,0,0,0,0,-1,818,1793,0,0
-399,-769,0,0,0,0,0,0,0,0,0,-1,825,1793,0,0
-392,-769,0,0,0,0,0,0,0,0,0,-1,832,1793,0,0
-385,-769,0,0,0,0,0,0,0,0,0,-1,839,1793,0,0
-378,-769,0,0,0,0,0,0,0,0,0,-1,846,1793,0,0
-371,-769,0,0,0,0,0,0,0,0,0,-1,853,1793,0,0
-364,-769,0,0,0,0,0,0,0,0,0,-1,860,1793,0,0
-357,-769,0,0,0,0,0,0,0,0,0,-1,867,1793,0,0
-350,-769,0,0,0,0,0,0,0,0,0,-1,874,1793,0,0
-343,-769,0,0,0,0,0,0,0,0,0,-1,881,1793,0,0
-336,-769,0,0,0,0,0,0,0,0,0,-1,888,1793,0,0
-329,-769,0,0,0,0,0,0,0,0,0,-1,895,1793,0,0
-322,-769,0,0,0,0,0,0,0,0,0,-1,902,1793,0,0
-315,-769,0,0,0,0,0,0,0,0,0,-1,909,1793,0,0
-308,-769,0,0,0,0,0,0,0,0,0,-1,916,1793,0,0
-301,-769,0,0,0,0,0,0,0,0,0,-1,923,1793,0,0
-294,-769,0,0,0,0,0,0,0,0,0,-1,930,1793,0,0
-287,-769,0,0,0,0,0,0,0,0,0,-1,937,1793,0,0
-280,-769,0,0,0,0,0,0,0,0,0,-1,944,1793,0,0
-273,-769,0,0,0,0,0,0,0,0,0,-1,951,1793,0,0
-266,-769,0,0,0,0,0,0,0,0,0,-1,958,1793,0,0
-259,-769,0,0,0,0,0,0,0,0,0,-1,965,1793,0,0
-252,-769,0,0,0,0,0,0,0,0,0,-1,972,1793,0,0
-245,-769,0,0,0,0,0,0,0,0,0,-1,979,1793,0,0
-238,-769,0,0,0,0,0,0,0,0,0,-1,986,1793,0,0
-231,-769,0,0,0,0,0,0,0,0,0,-1,993,1793,0,0
-224,-769,0,0,0,0,0,0,0,0,0,-1,1000,1793,0,0
-217,-769,0,0,0,0,0,0,0,0,0,-1,1007,1793,0,0
-210,-769,0,0,0,0,0,0,0,0,0,-1,1014,1793,0,0
-203,-769,0,0,0,0,0,0,0,0,0,-1,1021,1793,0,0
-196,-769,0,0,0,0,0,0,0,0,0,-1,1028,1793,0,0
-189,-769,0,0,0,0,0,0,0,0,0,-1,1035,1793,0,0
-182,-769,0,0,0,0,0,0,0,0,0,-1,1042,1793,0,0
-175,-769,0,0,0,0,0,0,0,0,0,-1,1049,1793,0,0
-168,-769,0,0,0,0,0,0,0,0,0,-1,1056,1793,0,0
-161,-769,-3.39258,12.5125,0,0,0,0,0,0,0,-1,1063,1793,-3.39257,-12.5125
-154,-769,-0.813232,5.32874,0,0,0,0,0,0,0,-1,1070,1793,-0.813269,-5.32872
-147,-769,4.26587,4.7002,0,0,0,0,0,0,0,-1,1077,1793,4.26593,-4.70022
-140,-769,4.10376,5.28589,0,0,0,0,0,0,0,-1,1084,1793,4.10371,-5.28584
-133,-769,6.422,8.21777,0,0,0,0,0,0,0,-1,1091,1793,6.42198,-8.21773
-126,-769,5.81738,11.5902,0,0,0,0,0,0,0,-1,1098,1793,5.81743,-11.5903
-119,-769,5.37231,13.1868,0,0,0,0,0,0,0,-1,1105,1793,5.3723,-13.1868
-112,-769,4.86646,13.4065,0,0,0,0,0,0,0,-1,1112,1793,4.86649,-13.4065
-105,-769,4.81946,14.7146,0,0,0,0,0,0,0,-1,1119,1793,4.81951,-14.7146
-98,-769,4.13159,13.1296,0,0,0,0,0,0,0,-1,1126,1793,4.13163,-13.1296
-91,-769,4.00452,12.7112,0,0,0,0,0,0,0,-1,1133,1793,4.0045,-12.7112
-84,-769,3.25684,11.7041,0,0,0,0,0,0,0,-1,1140,1793,3.25681,-11.7041
-77,-769,0.406616,9.9126,0,0,0,0,0,0,0,-1,1147,1793,0.406638,-9.91265
-70,-769,0.99707,7.63843,0,0,0,0,0,0,0,-1,1154,1793,0.997071,-7.63837
-63,-769,-1.5824,8.45093,0,0,0,0,0,0,0,-1,1161,1793,-1.58236,-8.45099
-56,-769,-4.21289,5.6886,0,0,0,0,0,0,0,-1,1168,1793,-4.21291,-5.68859
-49,-769,-2.41443,3.95471,0,0,0,0,0,0,0,-1,1175,1793,-2.41446,-3.95471
-42,-769,-3.1991,2.64941,0,0,0,0,0,0,0,-1,1182,1793,-3.19914,-2.64944
-35,-769,-3.50183,1.73389,0,0,0,0,0,0,0,-1,1189,1793,-3.50189,-1.7339
-28,-769,-3.96985,1.14075,0,0,0,0,0,0,0,-1,1196,1793,-3.96985,-1.14078
-21,-769,3.54541,10.4323,0,0,0,0,0,0,0,-1,1203,1793,3.54539,-10.4322
-14,-769,4.93127,15.3096,0,0,0,0,0,0,0,-1,1210,1793,4.93133,-15.3096
-7,-769,4.6499,15.4473,0,0,0,0,0,0,0,-1,1217,1793,4.64994,-15.4473
0,-769,4.66345,15.4872,0.0454687,-0.0156054,0.000514519,0.045473,-0.0156097,0.00842371,0.0366441,0.0499202,1224,1793,4.6635,-15.4871
7,-769,4.86511,15.5518,0.0328999,-0.0138746,-0.000477099,0.0329048,-0.0138795,-0.0101986,0.0277454,0.0444371,1231,1793,4.86517,-15.5518
14,-769,5.32495,15.5366,0.0225096,-0.0123597,-0.00156387,0.0225796,-0.0124297,-0.0447299,0.0204938,0.0428187,1238,1793,5.32495,-15.5367
21,-769,5.51941,15.599,0,0,0,0,0,0,0,-1,1245,1793,5.51937,-15.599
28,-769,4.60632,15.601,0.0104373,-0.0101103,-0.00136503,0.0105276,-0.0102005,-0.0660462,0.0119679,0.041649,1252,1793,4.60636,-15.601
35,-769,4.72998,15.7194,0.00797567,-0.00949048,6.2507e-05,0.00797589,-0.0094907,0.00357869,0.010097,0.0422384,1259,1793,4.72998,-15.7193
42,-769,4.66577,15.8259,0.00485531,-0.00841808,0.00148012,0.00501835,-0.00858112,0.109715,0.00794097,0.0450058,1266,1793,4.66582,-15.8259
49,-769,4.57153,15.8027,0.00328276,-0.00829566,0.00378538,0.00441049,-0.00942339,0.289545,0.00815992,0.0464537,1273,1793,4.57151,-15.8028
56,-769,4.71252,15.6301,0.00442189,-0.00781184,0.00617335,0.00699561,-0.0103856,0.394997,0.0100984,0.0453025,1280,1793,4.71254,-15.6301
63,-769,4.48462,15.6027,0.00624794,-0.00720983,0.00832443,0.010223,-0.0111849,0.445498,0.012364,0.0442803,1287,1793,4.48463,-15.6027
70,-769,4.45972,15.5657,0.00651564,-0.00647603,0.0101133,0.0120396,-0.012,0.499925,0.0138792,0.042536,1294,1793,4.45972,-15.5656
77,-769,4.43506,15.4927,0.00564044,-0.00697508,0.0124888,0.013324,-0.0146586,0.551548,0.0161619,0.0441566,1301,1793,4.43508,-15.4927
84,-769,4.24182,15.3872,0.00501013,-0.0069579,0.0141621,0.0144005,-0.0163483,0.585506,0.0177647,0.0447139,1308,1793,4.24183,-15.3872
91,-769,3.94836,15.5421,0,0,0,0,0,0,0,-1,1315,1793,3.94831,-15.5422
98,-769,4.04651,15.8971,0.00162672,-0.0070353,0.0165481,0.0144012,-0.0198098,0.657408,0.0198339,0.0445544,1322,1793,4.04655,-15.8971
105,-769,4.24817,16.0775,-0.000863979,-0.00713741,0.0160864,0.0123887,-0.0203901,0.68911,0.0191118,0.0433436,1329,1793,4.24817,-16.0776
112,-769,4.45129,15.7744,-0.00327857,-0.00723563,0.0154614,0.0103304,-0.0208446,0.721761,0.0183369,0.0484197,1336,1793,4.45133,-15.7744
119,-769,4.4325,15.3999,-0.00613827,-0.00743256,0.0144543,0.00768341,-0.0212542,0.763027,0.0173087,0.0453439,1343,1793,4.43247,-15.4
126,-769,4.10193,16.4612,-0.00999342,-0.0076395,0.013201,0.00443693,-0.0220698,0.829859,0.0163936,0.046817,1350,1793,4.10197,-16.4612
133,-769,4.44666,16.3837,0,0,0,0,0,0,0,-1,1357,1793,4.44665,-16.3836
140,-769,3.40356,15.3112,0,0,0,0,0,0,0,-1,1364,1793,3.40357,-15.3111
147,-769,3.90991,15.4401,0,0,0,0,0,0,0,-1,1371,1793,3.90986,-15.4401
154,-769,6.37561,1.00024,0,0,0,0,0,0,0,-1,1378,1793,6.37566,-1.00028
161,-769,6.57019,1.53223,0,0,0,0,0,0,0,-1,1385,1793,6.57019,-1.53226
168,-769,8.27637,0.756958,0,0,0,0,0,0,0,-1,1392,1793,8.27639,-0.756944
175,-769,8.47144,2.41174,0,0,0,0,0,0,0,-1,1399,1793,8.47147,-2.4118
182,-769,8.41479,4.05994,0,0,0,0,0,0,0,-1,1406,1793,8.41479,-4.05997
189,-769,8.25049,5.68433,0,0,0,0,0,0,0,-1,1413,1793,8.25054,-5.68428
196,-769,7.97729,7.42847,0,0,0,0,0,0,0,-1,1420,1793,7.9773,-7.42848
203,-769,22.0977,6.73889,0,0,0,0,0,0,0,-1,1427,1793,22.0977,-6.7389
210,-769,22.1115,7.77246,0.0129519,-0.025993,0.127438,0.122396,-0.135438,0.709585,0.148924,0.0431718,1434,1793,22.1115,-7.77248
217,-769,22.4723,8.79102,0.0136354,-0.0269998,0.125001,0.119959,-0.133324,0.704833,0.146301,0.0459501,1441,1793,22.4723,-8.79099
224,-769,22.1348,9.35278,0,0,0,0,0,0,0,-1,1448,1793,22.1348,-9.35283
231,-769,21.7798,9.27002,0,0,0,0,0,0,0,-1,1455,1793,21.7798,-9.27002
238,-769,21.7686,9.32788,0,0,0,0,0,0,0,-1,1462,1793,21.7685,-9.3279
245,-769,21.7992,10.0063,0,0,0,0,0,0,0,-1,1469,1793,21.7992,-10.0063
252,-769,21.5551,9.91382,0,0,0,0,0,0,0,-1,1476,1793,21.5551,-9.91381
259,-769,18.5807,8.23254,0,0,0,0,0,0,0,-1,1483,1793,18.5807,-8.23251
266,-769,16.9462,7.63489,0,0,0,0,0,0,0,-1,1490,1793,16.9462,-7.63491
273,-769,15.2043,7.75403,0,0,0,0,0,0,0,-1,1497,1793,15.2043,-7.754
280,-769,13.75,7.79102,0,0,0,0,0,0,0,-1,1504,1793,13.75,-7.791
287,-769,0,0,0,0,0,0,0,0,0,-1,1511,1793,0,0
294,-769,0,0,0,0,0,0,0,0,0,-1,1518,1793,0,0
301,-769,0,0,0,0,0,0,0,0,0,-1,1525,1793,0,0
308,-769,0,0,0,0,0,0,0,0,0,-1,1532,1793,0,0
315,-769,0,0,0,0,0,0,0,0,0,-1,1539,1793,0,0
322,-769,0,0,0,0,0,0,0,0,0,-1,1546,1793,0,0
329,-769,0,0,0,0,0,0,0,0,0,-1,1553,1793,0,0
336,-769,0,0,0,0,0,0,0,0,0,-1,1560,1793,0,0
343,-769,0,0,0,0,0,0,0,0,0,-1,1567,1793,0,0
350,-769,0,0,0,0,0,0,0,0,0,-1,1574,1793,0,0
357,-769,0,0,0,0,0,0,0,0,0,-1,1581,1793,0,0
364,-769,0,0,0,0,0,0,0,0,0,-1,1588,1793,0,0
371,-769,0,0,0,0,0,0,0,0,0,-1,1595,1793,0,0
378,-769,0,0,0,0,0,0,0,0,0,-1,1602,1793,0,0
385,-769,0,0,0,0,0,0,0,0,0,-1,1609,1793,0,0
392,-769,0,0,0,0,0,0,0,0,0,-1,1616,1793,0,0
399,-769,0,0,0,0,0,0,0,0,0,-1,1623,1793,0,0
406,-769,0,0,0,0,0,0,0,0,0,-1,1630,1793,0,0
413,-769,0,0,0,0,0,0,0,0,0,-1,1637,1793,0,0
420,-769,0,0,0,0,0,0,0,0,0,-1,1644,1793,0,0
427,-769,0,0,0,0,0,0,0,0,0,-1,1651,1793,0,0
434,-769,0,0,0,0,0,0,0,0,0,-1,1658,1793,0,0
441,-769,0,0,0,0,0,0,0,0,0,-1,1665,1793,0,0
448,-769,0,0,0,0,0,0,0,0,0,-1,1672,1793,0,0
455,-769,0,0,0,0,0,0,0,0,0,-1,1679,1793,0,0
462,-769,0,0,0,0,0,0,0,0,0,-1,1686,1793,0,0
469,-769,0,0,0,0,0,0,0,0,0,-1,1693,1793,0,0
476,-769,0,0,0,0,0,0,0,0,0,-1,1700,1793,0,0
483,-769,0,0,0,0,0,0,0,0,0,-1,1707,1793,0,0
490,-769,0,0,0,0,0,0,0,0,0,-1,1714,1793,0,0
497,-769,0,0,0,0,0,0,0,0,0,-1,1721,1793,0,0
504,-769,0,0,0,0,0,0,0,0,0,-1,1728,1793,0,0
511,-769,0,0,0,0,0,0,0,0,0,-1,1735,1793,0,0
518,-769,0,0,0,0,0,0,0,0,0,-1,1742,1793,0,0
525,-769,0,0,0,0,0,0,0,0,0,-1,1749,1793,0,0
532,-769,0,0,0,0,0,0,0,0,0,-1,1756,1793,0,0
539,-769,0,0,0,0,0,0,0,0,0,-1,1763,1793,0,0
546,-769,0,0,0,0,0,0,0,0,0,-1,1770,1793,0,0
553,-769,0,0,0,0,0,0,0,0,0,-1,1777,1793,0,0
560,-769,0,0,0,0,0,0,0,0,0,-1,1784,1793,0,0
567,-769,0,0,0,0,0,0,0,0,0,-1,1791,1793,0,0
574,-769,0,0,0,0,0,0,0,0,0,-1,1798,1793,0,0
581,-769,0,0,0,0,0,0,0,0,0,-1,1805,1793,0,0
588,-769,0,0,0,0,0,0,0,0,0,-1,1812,1793,0,0
595,-769,0,0,0,0,0,0,0,0,0,-1,1819,1793,0,0
602,-769,0,0,0,0,0,0,0,0,0,-1,1826,1793,0,0
609,-769,0,0,0,0,0,0,0,0,0,-1,1833,1793,0,0
616,-769,0,0,0,0,0,0,0,0,0,-1,1840,1793,0,0
623,-769,0,0,0,0,0,0,0,0,0,-1,1847,1793,0,0
630,-769,0,0,0,0,0,0,0,0,0,-1,1854,1793,0,0
637,-769,0,0,0,0,0,0,0,0,0,-1,1861,1793,0,0
644,-769,0,0,0,0,0,0,0,0,0,-1,1868,1793,0,0
651,-769,0,0,0,0,0,0,0,0,0,-1,1875,1793,0,0
658,-769,0,0,0,0,0,0,0,0,0,-1,1882,1793,0,0
665,-769,0,0,0,0,0,0,0,0,0,-1,1889,1793,0,0
672,-769,0,0,0,0,0,0,0,0,0,-1,1896,1793,0,0
679,-769,0,0,0,0,0,0,0,0,0,-1,1903,1793,0,0
686,-769,0,0,0,0,0,0,0,0,0,-1,1910,1793,0,0
693,-769,0,0,0,0,0,0,0,0,0,-1,1917,1793,0,0
700,-769,0,0,0,0,0,0,0,0,0,-1,1924,1793,0,0
707,-769,0,0,0,0,0,0,0,0,0,-1,1931,1793,0,0
714,-769,0,0,0,0,0,0,0,0,0,-1,1938,1793,0,0
721,-769,0,0,0,0,0,0,0,0,0,-1,1945,1793,0,0
728,-769,0,0,0,0,0,0,0,0,0,-1,1952,1793,0,0
735,-769,0,0,0,0,0,0,0,0,0,-1,1959,1793,0,0
742,-769,0,0,0,0,0,0,0,0,0,-1,1966,1793,0,0
749,-769,0,0,0,0,0,0,0,0,0,-1,1973,1793,0,0
756,-769,0,0,0,0,0,0,0,0,0,-1,1980,1793,0,0
763,-769,0,0,0,0,0,0,0,0,0,-1,1987,1793,0,0
770,-769,0,0,0,0,0,0,0,0,0,-1,1994,1793,0,0
777,-769,0,0,0,0,0,0,0,0,0,-1,2001,1793,0,0
784,-769,0,0,0,0,0,0,0,0,0,-1,2008,1793,0,0
791,-769,0,0,0,0,0,0,0,0,0,-1,2015,1793,0,0
798,-769,0,0,0,0,0,0,0,0,0,-1,2022,1793,0,0
805,-769,0,0,0,0,0,0,0,0,0,-1,2029,1793,0,0
812,-769,0,0,0,0,0,0,0,0,0,-1,2036,1793,0,0
-700,-776,0,0,0,0,0,0,0,0,0,-1,524,1800,0,0
-693,-776,0,0,0,0,0,0,0,0,0,-1,531,1800,0,0
-686,-776,0,0,0,0,0,0,0,0,0,-1,538,1800,0,0
-679,-776,0,0,0,0,0,0,0,0,0,-1,545,1800,0,0
-672,-776,0,0,0,0,0,0,0,0,0,-1,552,1800,0,0
-665,-776,0,0,0,0,0,0,0,0,0,-1,559,1800,0,0
-658,-776,0,0,0,0,0,0,0,0,0,-1,566,1800,0,0
-651,-776,0,0,0,0,0,0,0,0,0,-1,573,1800,0,0
-644,-776,0,0,0,0,0,0,0,0,0,-1,580,1800,0,0
-637,-776,0,0,0,0,0,0,0,0,0,-1,587,1800,0,0
-630,-776,0,0,0,0,0,0,0,0,0,-1,594,1800,0,0
-623,-776,0,0,0,0,0,0,0,0,0,-1,601,1800,0,0
-616,-776,0,0,0,0,0,0,0,0,0,-1,608,1800,0,0
-609,-776,0,0,0,0,0,0,0,0,0,-1,615,1800,0,0
-602,-776,0,0,0,0,0,0,0,0,0,-1,622,1800,0,0
-595,-776,0,0,0,0,0,0,0,0,0,-1,629,1800,0,0
-588,-776,0,0,0,0,0,0,0,0,0,-1,636,1800,0,0
-581,-776,0,0,0,0,0,0,0,0,0,-1,643,1800,0,0
-574,-776,0,0,0,0,0,0,0,0,0,-1,650,1800,0,0
-567,-776,0,0,0,0,0,0,0,0,0,-1,657,1800,0,0
-560,-776,0,0,0,0,0,0,0,0,0,-1,664,1800,0,0
-553,-776,0,0,0,0,0,0,0,0,0,-1,671,1800,0,0
-546,-776,0,0,0,0,0,0,0,0,0,-1,678,1800,0,0
-539,-776,0,0,0,0,0,0,0,0,0,-1,685,1800,0,0
-532,-776,0,0,0,0,0,0,0,0,0,-1,692,1800,0,0
-525,-776,0,0,0,0,0,0,0,0,0,-1,699,1800,0,0
-518,-776,0,0,0,0,0,0,0,0,0,-1,706,1800,0,0
-511,-776,0,0,0,0,0,0,0,0,0,-1,713,1800,0,0
-504,-776,0,0,0,0,0,0,0,0,0,-1,720,1800,0,0
-497,-776,0,0,0,0,0,0,0,0,0,-1,727,1800,0,0
-490,-776,0,0,0,0,0,0,0,0,0,-1,734,1800,0,0
-483,-776,0,0,0,0,0,0,0,0,0,-1,741,1800,0,0
-476,-776,0,0,0,0,0,0,0,0,0,-1,748,1800,0,0
-469,-776,0,0,0,0,0,0,0,0,0,-1,755,1800,0,0
-462,-776,0,0,0,0,0,0,0,0,0,-1,762,1800,0,0
-455,-776,0,0,0,0,0,0,0,0,0,-1,769,1800,0,0
-448,-776,0,0,0,0,0,0,0,0,0,-1,776,1800,0,0
-441,-776,0,0,0,0,0,0,0,0,0,-1,783,1800,0,0
-434,-776,0,0,0,0,0,0,0,0,0,-1,790,1800,0,0
-427,-776,0,0,0,0,0,0,0,0,0,-1,797,1800,0,0
-420,-776,0,0,0,0,0,0,0,0,0,-1,804,1800,0,0
-413,-776,0,0,0,0,0,0,0,0,0,-1,811,1800,0,0
-406,-776,0,0,0,0,0,0,0,0,0,-1,818,1800,0,0
-399,-776,0,0,0,0,0,0,0,0,0,-1,825,1800,0,0
-392,-776,0,0,0,0,0,0,0,0,0,-1,832,1800,0,0
-385,-776,0,0,0,0,0,0,0,0,0,-1,839,1800,0,0
-378,-776,0,0,0,0,0,0,0,0,0,-1,846,1800,0,0
-371,-776,0,0,0,0,0,0,0,0,0,-1,853,1800,0,0
-364,-776,0,0,0,0,0,0,0,0,0,-1,860,1800,0,0
-357,-776,0,0,0,0,0,0,0,0,0,-1,867,1800,0,0
-350,-776,0,0,0,0,0,0,0,0,0,-1,874,1800,0,0
-343,-776,0,0,0,0,0,0,0,0,0,-1,881,1800,0,0
-336,-776,0,0,0,0,0,0,0,0,0,-1,888,1800,0,0
-329,-776,0,0,0,0,0,0,0,0,0,-1,895,1800,0,0
-322,-776,0,0,0,0,0,0,0,0,0,-1,902,1800,0,0
-315,-776,0,0,0,0,0,0,0,0,0,-1,909,1800,0,0
-308,-776,0,0,0,0,0,0,0,0,0,-1,916,1800,0,0
-301,-776,0,0,0,0,0,0,0,0,0,-1,923,1800,0,0
-294,-776,0,0,0,0,0,0,0,0,0,-1,930,1800,0,0
-287,-776,0,0,0,0,0,0,0,0,0,-1,937,1800,0,0
-280,-776,0,0,0,0,0,0,0,0,0,-1,944,1800,0,0
-273,-776,0,0,0,0,0,0,0,0,0,-1,951,1800,0,0
-266,-776,0,0,0,0,0,0,0,0,0,-1,958,1800,0,0
-259,-776,0,0,0,0,0,0,0,0,0,-1,965,1800,0,0
-252,-776,0,0,0,0,0,0,0,0,0,-1,972,1800,0,0
-245,-776,0,0,0,0,0,0,0,0,0,-1,979,1800,0,0
-238,-776,0,0,0,0,0,0,0,0,0,-1,986,1800,0,0
-231,-776,0,0,0,0,0,0,0,0,0,-1,993,1800,0,0
-224,-776,0,0,0,0,0,0,0,0,0,-1,1000,1800,0,0
-217,-776,0,0,0,0,0,0,0,0,0,-1,1007,1800,0,0
-210,-776,0,0,0,0,0,0,0,0,0,-1,1014,1800,0,0
-203,-776,0,0,0,0,0,0,0,0,0,-1,1021,1800,0,0
-196,-776,0,0,0,0,0,0,0,0,0,-1,1028,1800,0,0
-189,-776,0,0,0,0,0,0,0,0,0,-1,1035,1800,0,0
-182,-776,0,0,0,0,0,0,0,0,0,-1,1042,1800,0,0
-175,-776,0,0,0,0,0,0,0,0,0,-1,1049,1800,0,0
-168,-776,0,0,0,0,0,0,0,0,0,-1,1056,1800,0,0
-161,-776,0,0,0,0,0,0,0,0,0,-1,1063,1800,0,0
-154,-776,0,0,0,0,0,0,0,0,0,-1,1070,1800,0,0
-147,-776,0,0,0,0,0,0,0,0,0,-1,1077,1800,0,0
-140,-776,2.98499,5.20911,0,0,0,0,0,0,0,-1,1084,1800,2.98493,-5.2091
-133,-776,6.72363,9.35828,0,0,0,0,0,0,0,-1,1091,1800,6.72358,-9.35824
-126,-776,4.9613,13.2006,0,0,0,0,0,0,0,-1,1098,1800,4.96128,-13.2005
-119,-776,4.56226,13.1111,0,0,0,0,0,0,0,-1,1105,1800,4.56223,-13.111
-112,-776,4.80701,14.1293,0,0,0,0,0,0,0,-1,1112,1800,4.80698,-14.1292
-105,-776,4.47327,13.9043,0,0,0,0,0,0,0,-1,1119,1800,4.47331,-13.9044
-98,-776,4.08459,14.0449,0,0,0,0,0,0,0,-1,1126,1800,4.08454,-14.045
-91,-776,3.81384,14.2134,0,0,0,0,0,0,0,-1,1133,1800,3.81384,-14.2134
-84,-776,0.175415,12.9197,0,0,0,0,0,0,0,-1,1140,1800,0.175445,-12.9197
-77,-776,0.580078,11.1272,0,0,0,0,0,0,0,-1,1147,1800,0.58002,-11.1272
-70,-776,-0.187744,12.3109,0,0,0,0,0,0,0,-1,1154,1800,-0.187766,-12.3109
-63,-776,-2.69922,9.16687,0,0,0,0,0,0,0,-1,1161,1800,-2.69921,-9.16686
-56,-776,-5.23718,6.32825,0,0,0,0,0,0,0,-1,1168,1800,-5.23714,-6.32822
-49,-776,-7.62952,3.1908,0,0,0,0,0,0,0,-1,1175,1800,-7.62955,-3.19076
-42,-776,-3.41272,3.0249,0,0,0,0,0,0,0,-1,1182,1800,-3.41269,-3.02488
-35,-776,-3.71753,1.63635,0,0,0,0,0,0,0,-1,1189,1800,-3.71755,-1.63631
-28,-776,-4.03979,0.716064,0,0,0,0,0,0,0,-1,1196,1800,-4.03977,-0.716055
-21,-776,3.28711,18.1198,0,0,0,0,0,0,0,-1,1203,1800,3.28712,-18.1197
-14,-776,-0.122925,13.6354,0,0,0,0,0,0,0,-1,1210,1800,-0.122906,-13.6354
-7,-776,1.7063,14.3611,0,0,0,0,0,0,0,-1,1217,1800,1.70633,-14.3611
0,-776,4.69531,15.4958,0,0,0,0,0,0,0,-1,1224,1800,4.69528,-15.4958
7,-776,5.42456,15.2389,0,0,0,0,0,0,0,-1,1231,1800,5.42456,-15.2389
14,-776,5.6593,15.4674,0,0,0,0,0,0,0,-1,1238,1800,5.65926,-15.4675
21,-776,5.86621,15.5555,0,0,0,0,0,0,0,-1,1245,1800,5.86624,-15.5555
28,-776,5.22839,16.0973,0.0134498,-0.0128732,-0.00233393,0.0136552,-0.0130786,-0.0877526,0.0154359,0.0414796,1252,1800,5.2284,-16.0973
35,-776,5.04932,15.9056,0.010107,-0.0120844,-0.000435623,0.0101155,-0.012093,-0.0196202,0.012839,0.0397891,1259,1800,5.04926,-15.9057
42,-776,4.76379,15.9998,0.00601791,-0.0107385,0.00145968,0.00614412,-0.0108648,0.0862458,0.00994535,0.0405963,1266,1800,4.76382,-15.9998
49,-776,4.65454,15.9252,0.00398687,-0.0106477,0.0045878,0.00530617,-0.011967,0.280012,0.0102168,0.0438612,1273,1800,4.65458,-15.9252
56,-776,4.76758,15.5779,0.00555933,-0.0102889,0.00795194,0.0088613,-0.0135909,0.393575,0.0130583,0.0469198,1280,1800,4.76757,-15.5779
63,-776,4.44617,15.4692,0,0,0,0,0,0,0,-1,1287,1800,4.44617,-15.4692
70,-776,4.39929,15.4098,0,0,0,0,0,0,0,-1,1294,1800,4.39926,-15.4098
77,-776,4.43567,15.2314,0,0,0,0,0,0,0,-1,1301,1800,4.43568,-15.2315
84,-776,3.61682,15.2679,0.00692128,-0.0105406,0.0181415,0.0183235,-0.0219428,0.561123,0.0232791,0.0473333,1308,1800,3.61685,-15.268
91,-776,3.82837,15.6683,0.00554941,-0.0116464,0.0206158,0.0192883,-0.0253854,0.587837,0.0258723,0.0451037,1315,1800,3.82837,-15.6684
98,-776,3.9165,15.9946,0.00223984,-0.0112523,0.0203834,0.0169645,-0.025977,0.625592,0.0249736,0.046725,1322,1800,3.91651,-15.9946
105,-776,3.88782,16.0875,-0.00134969,-0.0115049,0.0189656,0.0132062,-0.0260608,0.654602,0.0230722,0.0458898,1329,1800,3.88778,-16.0876
112,-776,5.1123,14.37,0,0,0,0,0,0,0,-1,1336,1800,5.11236,-14.37
119,-776,4.86353,14.6727,-0.0095138,-0.0121882,0.0149974,0.00420588,-0.0259078,0.740935,0.0188311,0.043167,1343,1800,4.86353,-14.6727
126,-776,3.74268,16.5996,-0.0156278,-0.0126635,0.0125666,-0.00149199,-0.0267994,0.844099,0.0173903,0.0451568,1350,1800,3.74266,-16.5996
133,-776,4.20911,16.4849,0,0,0,0,0,0,0,-1,1357,1800,4.20911,-16.4849
140,-776,4.39331,10.0631,0,0,0,0,0,0,0,-1,1364,1800,4.39332,-10.0631
147,-776,6.46301,-0.617188,0,0,0,0,0,0,0,-1,1371,1800,6.46305,0.61724
154,-776,6.43774,0.344116,0,0,0,0,0,0,0,-1,1378,1800,6.43776,-0.344162
161,-776,6.50293,1.1731,0,0,0,0,0,0,0,-1,1385,1800,6.5029,-1.17313
168,-776,8.44971,1.22913,0,0,0,0,0,0,0,-1,1392,1800,8.44974,-1.22915
175,-776,8.61523,2.87061,0,0,0,0,0,0,0,-1,1399,1800,8.6152,-2.87063
182,-776,8.54065,4.60645,0,0,0,0,0,0,0,-1,1406,1800,8.5407,-4.60643
189,-776,8.35303,6.28223,0,0,0,0,0,0,0,-1,1413,1800,8.35297,-6.28225
196,-776,8.0387,8.21704,0,0,0,0,0,0,0,-1,1420,1800,8.03865,-8.217
203,-776,7.91736,9.79919,0,0,0,0,0,0,0,-1,1427,1800,7.91735,-9.79922
210,-776,20.2479,7.85718,0,0,0,0,0,0,0,-1,1434,1800,20.248,-7.85719
217,-776,21.5171,9.3418,0,0,0,0,0,0,0,-1,1441,1800,21.5171,-9.34182
224,-776,3.09253,14.9313,0,0,0,0,0,0,0,-1,1448,1800,3.09254,-14.9313
231,-776,20.8671,9.21057,0,0,0,0,0,0,0,-1,1455,1800,20.867,-9.21054
238,-776,20.7511,9.05847,0,0,0,0,0,0,0,-1,1462,1800,20.7511,-9.05848
245,-776,21.0875,9.85986,0,0,0,0,0,0,0,-1,1469,1800,21.0875,-9.8599
252,-776,19.6592,9.16882,0,0,0,0,0,0,0,-1,1476,1800,19.6592,-9.16888
259,-776,14.1882,7.69055,0,0,0,0,0,0,0,-1,1483,1800,14.1882,-7.69061
266,-776,0,0,0,0,0,0,0,0,0,-1,1490,1800,0,0
273,-776,0,0,0,0,0,0,0,0,0,-1,1497,1800,0,0
280,-776,0,0,0,0,0,0,0,0,0,-1,1504,1800,0,0
287,-776,0,0,0,0,0,0,0,0,0,-1,1511,1800,0,0
294,-776,0,0,0,0,0,0,0,0,0,-1,1518,1800,0,0
301,-776,0,0,0,0,0,0,0,0,0,-1,1525,1800,0,0
308,-776,0,0,0,0,0,0,0,0,0,-1,1532,1800,0,0
315,-776,0,0,0,0,0,0,0,0,0,-1,1539,1800,0,0
322,-776,0,0,0,0,0,0,0,0,0,-1,1546,1800,0,0
329,-776,0,0,0,0,0,0,0,0,0,-1,1553,1800,0,0
336,-776,0,0,0,0,0,0,0,0,0,-1,1560,1800,0,0
343,-776,0,0,0,0,0,0,0,0,0,-1,1567,1800,0,0
350,-776,0,0,0,0,0,0,0,0,0,-1,1574,1800,0,0
357,-776,0,0,0,0,0,0,0,0,0,-1,1581,1800,0,0
364,-776,0,0,0,0,0,0,0,0,0,-1,1588,1800,0,0
371,-776,0,0,0,0,0,0,0,0,0,-1,1595,1800,0,0
378,-776,0,0,0,0,0,0,0,0,0,-1,1602,1800,0,0
385,-776,0,0,0,0,0,0,0,0,0,-1,1609,1800,0,0
392,-776,0,0,0,0,0,0,0,0,0,-1,1616,1800,0,0
399,-776,0,0,0,0,0,0,0,0,0,-1,1623,1800,0,0
406,-776,0,0,0,0,0,0,0,0,0,-1,1630,1800,0,0
413,-776,0,0,0,0,0,0,0,0,0,-1,1637,1800,0,0
420,-776,0,0,0,0,0,0,0,0,0,-1,1644,1800,0,0
427,-776,0,0,0,0,0,0,0,0,0,-1,1651,1800,0,0
434,-776,0,0,0,0,0,0,0,0,0,-1,1658,1800,0,0
441,-776,0,0,0,0,0,0,0,0,0,-1,1665,1800,0,0
448,-776,0,0,0,0,0,0,0,0,0,-1,1672,1800,0,0
455,-776,0,0,0,0,0,0,0,0,0,-1,1679,1800,0,0
462,-776,0,0,0,0,0,0,0,0,0,-1,1686,1800,0,0
469,-776,0,0,0,0,0,0,0,0,0,-1,1693,1800,0,0
476,-776,0,0,0,0,0,0,0,0,0,-1,1700,1800,0,0
483,-776,0,0,0,0,0,0,0,0,0,-1,1707,1800,0,0
490,-776,0,0,0,0,0,0,0,0,0,-1,1714,1800,0,0
497,-776,0,0,0,0,0,0,0,0,0,-1,1721,1800,0,0
504,-776,0,0,0,0,0,0,0,0,0,-1,1728,1800,0,0
511,-776,0,0,0,0,0,0,0,0,0,-1,1735,1800,0,0
518,-776,0,0,0,0,0,0,0,0,0,-1,1742,1800,0,0
525,-776,0,0,0,0,0,0,0,0,0,-1,1749,1800,0,0
532,-776,0,0,0,0,0,0,0,0,0,-1,1756,1800,0,0
539,-776,0,0,0,0,0,0,0,0,0,-1,1763,1800,0,0
546,-776,0,0,0,0,0,0,0,0,0,-1,1770,1800,0,0
553,-776,0,0,0,0,0,0,0,0,0,-1,1777,1800,0,0
560,-776,0,0,0,0,0,0,0,0,0,-1,1784,1800,0,0
567,-776,0,0,0,0,0,0,0,0,0,-1,1791,1800,0,0
574,-776,0,0,0,0,0,0,0,0,0,-1,1798,1800,0,0
581,-776,0,0,0,0,0,0,0,0,0,-1,1805,1800,0,0
588,-776,0,0,0,0,0,0,0,0,0,-1,1812,1800,0,0
595,-776,0,0,0,0,0,0,0,0,0,-1,1819,1800,0,0
602,-776,0,0,0,0,0,0,0,0,0,-1,1826,1800,0,0
609,-776,0,0,0,0,0,0,0,0,0,-1,1833,1800,0,0
616,-776,0,0,0,0,0,0,0,0,0,-1,1840,1800,0,0
623,-776,0,0,0,0,0,0,0,0,0,-1,1847,1800,0,0
630,-776,0,0,0,0,0,0,0,0,0,-1,1854,1800,0,0
637,-776,0,0,0,0,0,0,0,0,0,-1,1861,1800,0,0
644,-776,0,0,0,0,0,0,0,0,0,-1,1868,1800,0,0
651,-776,0,0,0,0,0,0,0,0,0,-1,1875,1800,0,0
658,-776,0,0,0,0,0,0,0,0,0,-1,1882,1800,0,0
665,-776,0,0,0,0,0,0,0,0,0,-1,1889,1800,0,0
672,-776,0,0,0,0,0,0,0,0,0,-1,1896,1800,0,0
679,-776,0,0,0,0,0,0,0,0,0,-1,1903,1800,0,0
686,-776,0,0,0,0,0,0,0,0,0,-1,1910,1800,0,0
693,-776,0,0,0,0,0,0,0,0,0,-1,1917,1800,0,0
700,-776,0,0,0,0,0,0,0,0,0,-1,1924,1800,0,0
707,-776,0,0,0,0,0,0,0,0,0,-1,1931,1800,0,0
714,-776,0,0,0,0,0,0,0,0,0,-1,1938,1800,0,0
721,-776,0,0,0,0,0,0,0,0,0,-1,1945,1800,0,0
728,-776,0,0,0,0,0,0,0,0,0,-1,1952,1800,0,0
735,-776,0,0,0,0,0,0,0,0,0,-1,1959,1800,0,0
742,-776,0,0,0,0,0,0,0,0,0,-1,1966,1800,0,0
749,-776,0,0,0,0,0,0,0,0,0,-1,1973,1800,0,0
756,-776,0,0,0,0,0,0,0,0,0,-1,1980,1800,0,0
763,-776,0,0,0,0,0,0,0,0,0,-1,1987,1800,0,0
770,-776,0,0,0,0,0,0,0,0,0,-1,1994,1800,0,0
777,-776,0,0,0,0,0,0,0,0,0,-1,2001,1800,0,0
784,-776,0,0,0,0,0,0,0,0,0,-1,2008,1800,0,0
791,-776,0,0,0,0,0,0,0,0,0,-1,2015,1800,0,0
798,-776,0,0,0,0,0,0,0,0,0,-1,2022,1800,0,0
805,-776,0,0,0,0,0,0,0,0,0,-1,2029,1800,0,0
812,-776,0,0,0,0,0,0,0,0,0,-1,2036,1800,0,0
-700,-783,0,0,0,0,0,0,0,0,0,-1,524,1807,0,0
-693,-783,0,0,0,0,0,0,0,0,0,-1,531,1807,0,0
-686,-783,0,0,0,0,0,0,0,0,0,-1,538,1807,0,0
-679,-783,0,0,0,0,0,0,0,0,0,-1,545,1807,0,0
-672,-783,0,0,0,0,0,0,0,0,0,-1,552,1807,0,0
-665,-783,0,0,0,0,0,0,0,0,0,-1,559,1807,0,0
-658,-783,0,0,0,0,0,0,0,0,0,-1,566,1807,0,0
-651,-783,0,0,0,0,0,0,0,0,0,-1,573,1807,0,0
-644,-783,0,0,0,0,0,0,0,0,0,-1,580,1807,0,0
-637,-783,0,0,0,0,0,0,0,0,0,-1,587,1807,0,0
-630,-783,0,0,0,0,0,0,0,0,0,-1,594,1807,0,0
-623,-783,0,0,0,0,0,0,0,0,0,-1,601,1807,0,0
-616,-783,0,0,0,0,0,0,0,0,0,-1,608,1807,0,0
-609,-783,0,0,0,0,0,0,0,0,0,-1,615,1807,0,0
-602,-783,0,0,0,0,0,0,0,0,0,-1,622,1807,0,0
-595,-783,0,0,0,0,0,0,0,0,0,-1,629,1807,0,0
-588,-783,0,0,0,0,0,0,0,0,0,-1,636,1807,0,0
-581,-783,0,0,0,0,0,0,0,0,0,-1,643,1807,0,0
-574,-783,0,0,0,0,0,0,0,0,0,-1,650,1807,0,0
-567,-783,0,0,0,0,0,0,0,0,0,-1,657,1807,0,0
-560,-783,0,0,0,0,0,0,0,0,0,-1,664,1807,0,0
-553,-783,0,0,0,0,0,0,0,0,0,-1,671,1807,0,0
-546,-783,0,0,0,0,0,0,0,0,0,-1,678,1807,0,0
-539,-783,0,0,0,0,0,0,0,0,0,-1,685,1807,0,0
-532,-783,0,0,0,0,0,0,0,0,0,-1,692,1807,0,0
-525,-783,0,0,0,0,0,0,0,0,0,-1,699,1807,0,0
-518,-783,0,0,0,0,0,0,0,0,0,-1,706,1807,0,0
-511,-783,0,0,0,0,0,0,0,0,0,-1,713,1807,0,0
-504,-783,0,0,0,0,0,0,0,0,0,-1,720,1807,0,0
-497,-783,0,0,0,0,0,0,0,0,0,-1,727,1807,0,0
-490,-783,0,0,0,0,0,0,0,0,0,-1,734,1807,0,0
-483,-783,0,0,0,0,0,0,0,0,0,-1,741,1807,0,0
-476,-783,0,0,0,0,0,0,0,0,0,-1,748,1807,0,0
-469,-783,0,0,0,0,0,0,0,0,0,-1,755,1807,0,0
-462,-783,0,0,0,0,0,0,0,0,0,-1,762,1807,0,0
-455,-783,0,0,0,0,0,0,0,0,0,-1,769,1807,0,0
-448,-783,0,0,0,0,0,0,0,0,0,-1,776,1807,0,0
-441,-783,0,0,0,0,0,0,0,0,0,-1,783,1807,0,0
-434,-783,0,0,0,0,0,0,0,0,0,-1,790,1807,0,0
-427,-783,0,0,0,0,0,0,0,0,0,-1,797,1807,0,0
-420,-783,0,0,0,0,0,0,0,0,0,-1,804,1807,0,0
-413,-783,0,0,0,0,0,0,0,0,0,-1,811,1807,0,0
-406,-783,0,0,0,0,0,0,0,0,0,-1,818,1807,0,0
-399,-783,0,0,0,0,0,0,0,0,0,-1,825,1807,0,0
-392,-783,0,0,0,0,0,0,0,0,0,-1,832,1807,0,0
-385,-783,0,0,0,0,0,0,0,0,0,-1,839,1807,0,0
-378,-783,0,0,0,0,0,0,0,0,0,-1,846,1807,0,0
-371,-783,0,0,0,0,0,0,0,0,0,-1,853,1807,0,0
-364,-783,0,0,0,0,0,0,0,0,0,-1,860,1807,0,0
-357,-783,0,0,0,0,0,0,0,0,0,-1,867,1807,0,0
-350,-783,0,0,0,0,0,0,0,0,0,-1,874,1807,0,0
-343,-783,0,0,0,0,0,0,0,0,0,-1,881,1807,0,0
-336,-783,0,0,0,0,0,0,0,0,0,-1,888,1807,0,0
-329,-783,0,0,0,0,0,0,0,0,0,-1,895,1807,0,0
-322,-783,0,0,0,0,0,0,0,0,0,-1,902,1807,0,0
-315,-783,0,0,0,0,0,0,0,0,0,-1,909,1807,0,0
-308,-783,0,0,0,0,0,0,0,0,0,-1,916,1807,0,0
-301,-783,0,0,0,0,0,0,0,0,0,-1,923,1807,0,0
-294,-783,0,0,0,0,0,0,0,0,0,-1,930,1807,0,0
-287,-783,0,0,0,0,0,0,0,0,0,-1,937,1807,0,0
-280,-783,0,0,0,0,0,0,0,0,0,-1,944,1807,0,0
-273,-783,0,0,0,0,0,0,0,0,0,-1,951,1807,0,0
-266,-783,0,0,0,0,0,0,0,0,0,-1,958,1807,0,0
-259,-783,0,0,0,0,0,0,0,0,0,-1,965,1807,0,0
-252,-783,0,0,0,0,0,0,0,0,0,-1,972,1807,0,0
-245,-783,0,0,0,0,0,0,0,0,0,-1,979,1807,0,0
-238,-783,0,0,0,0,0,0,0,0,0,-1,986,1807,0,0
-231,-783,0,0,0,0,0,0,0,0,0,-1,993,1807,0,0
-224,-783,0,0,0,0,0,0,0,0,0,-1,1000,1807,0,0
-217,-783,0,0,0,0,0,0,0,0,0,-1,1007,1807,0,0
-210,-783,0,0,0,0,0,0,0,0,0,-1,1014,1807,0,0
-203,-783,0,0,0,0,0,0,0,0,0,-1,1021,1807,0,0
-196,-783,0,0,0,0,0,0,0,0,0,-1,1028,1807,0,0
-189,-783,0,0,0,0,0,0,0,0,0,-1,1035,1807,0,0
-182,-783,0,0,0,0,0,0,0,0,0,-1,1042,1807,0,0
-175,-783,0,0,0,0,0,0,0,0,0,-1,1049,1807,0,0
-168,-783,0,0,0,0,0,0,0,0,0,-1,1056,1807,0,0
-161,-783,0,0,0,0,0,0,0,0,0,-1,1063,1807,0,0
-154,-783,0,0,0,0,0,0,0,0,0,-1,1070,1807,0,0
-147,-783,0,0,0,0,0,0,0,0,0,-1,1077,1807,0,0
-140,-783,0,0,0,0,0,0,0,0,0,-1,1084,1807,0,0
-133,-783,0,0,0,0,0,0,0,0,0,-1,1091,1807,0,0
-126,-783,0,0,0,0,0,0,0,0,0,-1,1098,1807,0,0
-119,-783,0,0,0,0,0,0,0,0,0,-1,1105,1807,0,0
-112,-783,5.35229,15.2482,0,0,0,0,0,0,0,-1,1112,1807,5.35229,-15.2482
-105,-783,4.41919,14.488,0,0,0,0,0,0,0,-1,1119,1807,4.41917,-14.4881
-98,-783,3.11047,14.0786,0,0,0,0,0,0,0,-1,1126,1807,3.11046,-14.0786
-91,-783,1.01868,14.7838,0,0,0,0,0,0,0,-1,1133,1807,1.01872,-14.7838
-84,-783,-0.0491943,14.5743,0,0,0,0,0,0,0,-1,1140,1807,-0.0491562,-14.5743
-77,-783,0.332764,12.7788,0,0,0,0,0,0,0,-1,1147,1807,0.332743,-12.7788
-70,-783,-1.93176,5.12817,0,0,0,0,0,0,0,-1,1154,1807,-1.93171,-5.12813
-63,-783,-3.81604,9.88269,0,0,0,0,0,0,0,-1,1161,1807,-3.81606,-9.88272
-56,-783,-6.26135,6.9679,0,0,0,0,0,0,0,-1,1168,1807,-6.26136,-6.96785
-49,-783,-3.17688,4.59705,0,0,0,0,0,0,0,-1,1175,1807,-3.17685,-4.5971
-42,-783,-3.72876,3.1405,0,0,0,0,0,0,0,-1,1182,1807,-3.72874,-3.14055
-35,-783,-3.97046,1.59399,0,0,0,0,0,0,0,-1,1189,1807,-3.97041,-1.59401
-28,-783,-4.12195,0.270386,0,0,0,0,0,0,0,-1,1196,1807,-4.12197,-0.270408
-21,-783,-2.14575,13.7013,0,0,0,0,0,0,0,-1,1203,1807,-2.14581,-13.7013
-14,-783,-0.0621338,14.2321,0.148476,-0.0400574,0.00506954,0.148612,-0.0401936,0.0268635,0.114842,0.0473326,1210,1807,-0.0621384,-14.232
-7,-783,1.91052,14.7053,0.112388,-0.0344596,0.00353957,0.112473,-0.0345448,0.024085,0.0887667,0.0463678,1217,1807,1.91058,-14.7054
0,-783,3.99841,15.0706,0,0,0,0,0,0,0,-1,1224,1807,3.99838,-15.0705
7,-783,6.16235,15.4135,0.0585052,-0.0249345,-0.00098619,0.0585169,-0.0249462,-0.011817,0.0494697,0.044564,1231,1807,6.16237,-15.4134
14,-783,4.94629,15.7219,0.0390272,-0.0210615,-0.00348003,0.039228,-0.0212623,-0.0576581,0.0354339,0.0468259,1238,1807,4.94625,-15.722
21,-783,4.63171,16.2167,0.0250967,-0.0177473,-0.0051296,0.0257023,-0.0183529,-0.117515,0.0255529,0.0457977,1245,1807,4.63174,-16.2167
28,-783,4.84961,16.3186,0.0163424,-0.0155568,-0.00412327,0.0168667,-0.0160812,-0.12649,0.0190243,0.043846,1252,1807,4.84964,-16.3186
35,-783,4.86646,16.3156,0.011949,-0.0146073,-0.00161997,0.0120475,-0.0147057,-0.0607016,0.0154713,0.0459121,1259,1807,4.86648,-16.3155
42,-783,4.64075,16.0583,0.0067612,-0.0130129,0.000901139,0.00680218,-0.0130539,0.0454461,0.0116518,0.0444478,1266,1807,4.64071,-16.0583
49,-783,4.6814,16.0016,0.00423794,-0.0130459,0.00509311,0.0056271,-0.014435,0.266276,0.0119492,0.0440114,1273,1807,4.68142,-16.0016
56,-783,4.927,15.8401,0.00636004,-0.0129917,0.00976051,0.0104279,-0.0170596,0.394876,0.0160231,0.0482463,1280,1807,4.92705,-15.8401
63,-783,4.44458,15.7693,0,0,0,0,0,0,0,-1,1287,1807,4.44458,-15.7692
70,-783,3.1825,13.561,0.0105613,-0.0129533,0.0168683,0.0193655,-0.0217574,0.481041,0.0237557,0.0444971,1294,1807,3.18252,-13.561
77,-783,3.37402,14.5653,0.00955582,-0.0144215,0.0202796,0.0211254,-0.0259911,0.518448,0.027251,0.047229,1301,1807,3.37407,-14.5654
84,-783,3.56274,15.2281,0.00894104,-0.0152457,0.0225768,0.0224595,-0.0287641,0.539517,0.0296485,0.0498469,1308,1807,3.56279,-15.2282
91,-783,3.80835,15.7478,0.00725199,-0.0172835,0.0253857,0.0231788,-0.0332103,0.560317,0.0327275,0.0479516,1315,1807,3.80835,-15.7478
98,-783,4.20007,15.9098,0.00277501,-0.0170292,0.0242201,0.019039,-0.0332932,0.591347,0.0305854,0.0477147,1322,1807,4.20008,-15.9097
105,-783,3.68054,15.8123,-0.00225129,-0.0175421,0.0212192,0.0126578,-0.0324512,0.612485,0.0268665,0.0484273,1329,1807,3.68049,-15.8122
112,-783,2.99719,15.8085,0,0,0,0,0,0,0,-1,1336,1807,2.99724,-15.8084
119,-783,5.35962,14.1108,0,0,0,0,0,0,0,-1,1343,1807,5.35962,-14.1108
126,-783,3.38196,16.8691,0,0,0,0,0,0,0,-1,1350,1807,3.38193,-16.8691
133,-783,3.83093,16.74,0,0,0,0,0,0,0,-1,1357,1807,3.83095,-16.7399
140,-783,2.6543,15.261,0,0,0,0,0,0,0,-1,1364,1807,2.65435,-15.261
147,-783,6.45825,-1.2334,0,0,0,0,0,0,0,-1,1371,1807,6.45822,1.23339
154,-783,6.37024,-0.145874,0,0,0,0,0,0,0,-1,1378,1807,6.37018,0.145866
161,-783,6.57568,1.16174,0,0,0,0,0,0,0,-1,1385,1807,6.57562,-1.1617
168,-783,8.62561,1.79944,0,0,0,0,0,0,0,-1,1392,1807,8.62561,-1.79946
175,-783,8.78699,3.40857,0,0,0,0,0,0,0,-1,1399,1807,8.78697,-3.40854
182,-783,8.70984,5.14661,0,0,0,0,0,0,0,-1,1406,1807,8.70989,-5.14666
189,-783,8.55762,6.79871,0,0,0,0,0,0,0,-1,1413,1807,8.55766,-6.79872
196,-783,8.25488,8.66626,0,0,0,0,0,0,0,-1,1420,1807,8.25492,-8.66628
203,-783,7.86755,10.5735,0,0,0,0,0,0,0,-1,1427,1807,7.8676,-10.5734
210,-783,5.6969,8.99231,0,0,0,0,0,0,0,-1,1434,1807,5.69693,-8.99234
217,-783,5.28503,3.80872,0,0,0,0,0,0,0,-1,1441,1807,5.285,-3.80868
224,-783,3.22571,6.62903,0,0,0,0,0,0,0,-1,1448,1807,3.2257,-6.62907
231,-783,4.27942,4.56262,0,0,0,0,0,0,0,-1,1455,1807,4.27948,-4.56267
238,-783,0,0,0,0,0,0,0,0,0,-1,1462,1807,0,0
245,-783,0,0,0,0,0,0,0,0,0,-1,1469,1807,0,0
252,-783,0,0,0,0,0,0,0,0,0,-1,1476,1807,0,0
259,-783,0,0,0,0,0,0,0,0,0,-1,1483,1807,0,0
266,-783,0,0,0,0,0,0,0,0,0,-1,1490,1807,0,0
273,-783,0,0,0,0,0,0,0,0,0,-1,1497,1807,0,0
280,-783,0,0,0,0,0,0,0,0,0,-1,1504,1807,0,0
287,-783,0,0,0,0,0,0,0,0,0,-1,1511,1807,0,0
294,-783,0,0,0,0,0,0,0,0,0,-1,1518,1807,0,0
301,-783,0,0,0,0,0,0,0,0,0,-1,1525,1807,0,0
308,-783,0,0,0,0,0,0,0,0,0,-1,1532,1807,0,0
315,-783,0,0,0,0,0,0,0,0,0,-1,1539,1807,0,0
322,-783,0,0,0,0,0,0,0,0,0,-1,1546,1807,0,0
329,-783,0,0,0,0,0,0,0,0,0,-1,1553,1807,0,0
336,-783,0,0,0,0,0,0,0,0,0,-1,1560,1807,0,0
343,-783,0,0,0,0,0,0,0,0,0,-1,1567,1807,0,0
350,-783,0,0,0,0,0,0,0,0,0,-1,1574,1807,0,0
357,-783,0,0,0,0,0,0,0,0,0,-1,1581,1807,0,0
364,-783,0,0,0,0,0,0,0,0,0,-1,1588,1807,0,0
371,-783,0,0,0,0,0,0,0,0,0,-1,1595,1807,0,0
378,-783,0,0,0,0,0,0,0,0,0,-1,1602,1807,0,0
385,-783,0,0,0,0,0,0,0,0,0,-1,1609,1807,0,0
392,-783,0,0,0,0,0,0,0,0,0,-1,1616,1807,0,0
399,-783,0,0,0,0,0,0,0,0,0,-1,1623,1807,0,0
406,-783,0,0,0,0,0,0,0,0,0,-1,1630,1807,0,0
413,-783,0,0,0,0,0,0,0,0,0,-1,1637,1807,0,0
420,-783,0,0,0,0,0,0,0,0,0,-1,1644,1807,0,0
427,-783,0,0,0,0,0,0,0,0,0,-1,1651,1807,0,0
434,-783,0,0,0,0,0,0,0,0,0,-1,1658,1807,0,0
441,-783,0,0,0,0,0,0,0,0,0,-1,1665,1807,0,0
448,-783,0,0,0,0,0,0,0,0,0,-1,1672,1807,0,0
455,-783,0,0,0,0,0,0,0,0,0,-1,1679,1807,0,0
462,-783,0,0,0,0,0,0,0,0,0,-1,1686,1807,0,0
469,-783,0,0,0,0,0,0,0,0,0,-1,1693,1807,0,0
476,-783,0,0,0,0,0,0,0,0,0,-1,1700,1807,0,0
483,-783,0,0,0,0,0,0,0,0,0,-1,1707,1807,0,0
490,-783,0,0,0,0,0,0,0,0,0,-1,1714,1807,0,0
497,-783,0,0,0,0,0,0,0,0,0,-1,1721,1807,0,0
504,-783,0,0,0,0,0,0,0,0,0,-1,1728,1807,0,0
511,-783,0,0,0,0,0,0,0,0,0,-1,1735,1807,0,0
518,-783,0,0,0,0,0,0,0,0,0,-1,1742,1807,0,0
525,-783,0,0,0,0,0,0,0,0,0,-1,1749,1807,0,0
532,-783,0,0,0,0,0,0,0,0,0,-1,1756,1807,0,0
539,-783,0,0,0,0,0,0,0,0,0,-1,1763,1807,0,0
546,-783,0,0,0,0,0,0,0,0,0,-1,1770,1807,0,0
553,-783,0,0,0,0,0,0,0,0,0,-1,1777,1807,0,0
560,-783,0,0,0,0,0,0,0,0,0,-1,1784,1807,0,0
567,-783,0,0,0,0,0,0,0,0,0,-1,1791,1807,0,0
574,-783,0,0,0,0,0,0,0,0,0,-1,1798,1807,0,0
581,-783,0,0,0,0,0,0,0,0,0,-1,1805,1807,0,0
588,-783,0,0,0,0,0,0,0,0,0,-1,1812,1807,0,0
595,-783,0,0,0,0,0,0,0,0,0,-1,1819,1807,0,0
602,-783,0,0,0,0,0,0,0,0,0,-1,1826,1807,0,0
609,-783,0,0,0,0,0,0,0,0,0,-1,1833,1807,0,0
616,-783,0,0,0,0,0,0,0,0,0,-1,1840,1807,0,0
623,-783,0,0,0,0,0,0,0,0,0,-1,1847,1807,0,0
630,-783,0,0,0,0,0,0,0,0,0,-1,1854,1807,0,0
637,-783,0,0,0,0,0,0,0,0,0,-1,1861,1807,0,0
644,-783,0,0,0,0,0,0,0,0,0,-1,1868,1807,0,0
651,-783,0,0,0,0,0,0,0,0,0,-1,1875,1807,0,0
658,-783,0,0,0,0,0,0,0,0,0,-1,1882,1807,0,0
665,-783,0,0,0,0,0,0,0,0,0,-1,1889,1807,0,0
672,-783,0,0,0,0,0,0,0,0,0,-1,1896,1807,0,0
679,-783,0,0,0,0,0,0,0,0,0,-1,1903,1807,0,0
686,-783,0,0,0,0,0,0,0,0,0,-1,1910,1807,0,0
693,-783,0,0,0,0,0,0,0,0,0,-1,1917,1807,0,0
700,-783,0,0,0,0,0,0,0,0,0,-1,1924,1807,0,0
707,-783,0,0,0,0,0,0,0,0,0,-1,1931,1807,0,0
714,-783,0,0,0,0,0,0,0,0,0,-1,1938,1807,0,0
721,-783,0,0,0,0,0,0,0,0,0,-1,1945,1807,0,0
728,-783,0,0,0,0,0,0,0,0,0,-1,1952,1807,0,0
735,-783,0,0,0,0,0,0,0,0,0,-1,1959,1807,0,0
742,-783,0,0,0,0,0,0,0,0,0,-1,1966,1807,0,0
749,-783,0,0,0,0,0,0,0,0,0,-1,1973,1807,0,0
756,-783,0,0,0,0,0,0,0,0,0,-1,1980,1807,0,0
763,-783,0,0,0,0,0,0,0,0,0,-1,1987,1807,0,0
770,-783,0,0,0,0,0,0,0,0,0,-1,1994,1807,0,0
777,-783,0,0,0,0,0,0,0,0,0,-1,2001,1807,0,0
784,-783,0,0,0,0,0,0,0,0,0,-1,2008,1807,0,0
791,-783,0,0,0,0,0,0,0,0,0,-1,2015,1807,0,0
798,-783,0,0,0,0,0,0,0,0,0,-1,2022,1807,0,0
805,-783,0,0,0,0,0,0,0,0,0,-1,2029,1807,0,0
812,-783,0,0,0,0,0,0,0,0,0,-1,2036,1807,0,0
-700,-790,0,0,0,0,0,0,0,0,0,-1,524,1814,0,0
-693,-790,0,0,0,0,0,0,0,0,0,-1,531,1814,0,0
-686,-790,0,0,0,0,0,0,0,0,0,-1,538,1814,0,0
-679,-790,0,0,0,0,0,0,0,0,0,-1,545,1814,0,0
-672,-790,0,0,0,0,0,0,0,0,0,-1,552,1814,0,0
-665,-790,0,0,0,0,0,0,0,0,0,-1,559,1814,0,0
-658,-790,0,0,0,0,0,0,0,0,0,-1,566,1814,0,0
-651,-790,0,0,0,0,0,0,0,0,0,-1,573,1814,0,0
-644,-790,0,0,0,0,0,0,0,0,0,-1,580,1814,0,0
-637,-790,0,0,0,0,0,0,0,0,0,-1,587,1814,0,0
-630,-790,0,0,0,0,0,0,0,0,0,-1,594,1814,0,0
-623,-790,0,0,0,0,0,0,0,0,0,-1,601,1814,0,0
-616,-790,0,0,0,0,0,0,0,0,0,-1,608,1814,0,0
-609,-790,0,0,0,0,0,0,0,0,0,-1,615,1814,0,0
-602,-790,0,0,0,0,0,0,0,0,0,-1,622,1814,0,0
-595,-790,0,0,0,0,0,0,0,0,0,-1,629,1814,0,0
-588,-790,0,0,0,0,0,0,0,0,0,-1,636,1814,0,0
-581,-790,0,0,0,0,0,0,0,0,0,-1,643,1814,0,0
-574,-790,0,0,0,0,0,0,0,0,0,-1,650,1814,0,0
-567,-790,0,0,0,0,0,0,0,0,0,-1,657,1814,0,0
-560,-790,0,0,0,0,0,0,0,0,0,-1,664,1814,0,0
-553,-790,0,0,0,0,0,0,0,0,0,-1,671,1814,0,0
-546,-790,0,0,0,0,0,0,0,0,0,-1,678,1814,0,0
-539,-790,0,0,0,0,0,0,0,0,0,-1,685,1814,0,0
-532,-790,0,0,0,0,0,0,0,0,0,-1,692,1814,0,0
-525,-790,0,0,0,0,0,0,0,0,0,-1,699,1814,0,0
-518,-790,0,0,0,0,0,0,0,0,0,-1,706,1814,0,0
-511,-790,0,0,0,0,0,0,0,0,0,-1,713,1814,0,0
-504,-790,0,0,0,0,0,0,0,0,0,-1,720,1814,0,0
-497,-790,0,0,0,0,0,0,0,0,0,-1,727,1814,0,0
-490,-790,0,0,0,0,0,0,0,0,0,-1,734,1814,0,0
-483,-790,0,0,0,0,0,0,0,0,0,-1,741,1814,0,0
-476,-790,0,0,0,0,0,0,0,0,0,-1,748,1814,0,0
-469,-790,0,0,0,0,0,0,0,0,0,-1,755,1814,0,0
-462,-790,0,0,0,0,0,0,0,0,0,-1,762,1814,0,0
-455,-790,0,0,0,0,0,0,0,0,0,-1,769,1814,0,0
-448,-790,0,0,0,0,0,0,0,0,0,-1,776,1814,0,0
-441,-790,0,0,0,0,0,0,0,0,0,-1,783,1814,0,0
-434,-790,0,0,0,0,0,0,0,0,0,-1,790,1814,0,0
-427,-790,0,0,0,0,0,0,0,0,0,-1,797,1814,0,0
-420,-790,0,0,0,0,0,0,0,0,0,-1,804,1814,0,0
-413,-790,0,0,0,0,0,0,0,0,0,-1,811,1814,0,0
-406,-790,0,0,0,0,0,0,0,0,0,-1,818,1814,0,0
-399,-790,0,0,0,0,0,0,0,0,0,-1,825,1814,0,0
-392,-790,0,0,0,0,0,0,0,0,0,-1,832,1814,0,0
-385,-790,0,0,0,0,0,0,0,0,0,-1,839,1814,0,0
-378,-790,0,0,0,0,0,0,0,0,0,-1,846,1814,0,0
-371,-790,0,0,0,0,0,0,0,0,0,-1,853,1814,0,0
-364,-790,0,0,0,0,0,0,0,0,0,-1,860,1814,0,0
-357,-790,0,0,0,0,0,0,0,0,0,-1,867,1814,0,0
-350,-790,0,0,0,0,0,0,0,0,0,-1,874,1814,0,0
-343,-790,0,0,0,0,0,0,0,0,0,-1,881,1814,0,0
-336,-790,0,0,0,0,0,0,0,0,0,-1,888,1814,0,0
-329,-790,0,0,0,0,0,0,0,0,0,-1,895,1814,0,0
-322,-790,0,0,0,0,0,0,0,0,0,-1,902,1814,0,0
-315,-790,0,0,0,0,0,0,0,0,0,-1,909,1814,0,0
-308,-790,0,0,0,0,0,0,0,0,0,-1,916,1814,0,0
-301,-790,0,0,0,0,0,0,0,0,0,-1,923,1814,0,0
-294,-790,0,0,0,0,0,0,0,0,0,-1,930,1814,0,0
-287,-790,0,0,0,0,0,0,0,0,0,-1,937,1814,0,0
-280,-790,0,0,0,0,0,0,0,0,0,-1,944,1814,0,0
-273,-790,0,0,0,0,0,0,0,0,0,-1,951,1814,0,0
-266,-790,0,0,0,0,0,0,0,0,0,-1,958,1814,0,0
-259,-790,0,0,0,0,0,0,0,0,0,-1,965,1814,0,0
-252,-790,0,0,0,0,0,0,0,0,0,-1,972,1814,0,0
-245,-790,0,0,0,0,0,0,0,0,0,-1,979,1814,0,0
-238,-790,0,0,0,0,0,0,0,0,0,-1,986,1814,0,0
-231,-790,0,0,0,0,0,0,0,0,0,-1,993,1814,0,0
-224,-790,0,0,0,0,0,0,0,0,0,-1,1000,1814,0,0
-217,-790,0,0,0,0,0,0,0,0,0,-1,1007,1814,0,0
-210,-790,0,0,0,0,0,0,0,0,0,-1,1014,1814,0,0
-203,-790,0,0,0,0,0,0,0,0,0,-1,1021,1814,0,0
-196,-790,0,0,0,0,0,0,0,0,0,-1,1028,1814,0,0
-189,-790,0,0,0,0,0,0,0,0,0,-1,1035,1814,0,0
-182,-790,0,0,0,0,0,0,0,0,0,-1,1042,1814,0,0
-175,-790,0,0,0,0,0,0,0,0,0,-1,1049,1814,0,0
-168,-790,0,0,0,0,0,0,0,0,0,-1,1056,1814,0,0
-161,-790,0,0,0,0,0,0,0,0,0,-1,1063,1814,0,0
-154,-790,0,0,0,0,0,0,0,0,0,-1,1070,1814,0,0
-147,-790,0,0,0,0,0,0,0,0,0,-1,1077,1814,0,0
-140,-790,0,0,0,0,0,0,0,0,0,-1,1084,1814,0,0
-133,-790,0,0,0,0,0,0,0,0,0,-1,1091,1814,0,0
-126,-790,0,0,0,0,0,0,0,0,0,-1,1098,1814,0,0
-119,-790,0,0,0,0,0,0,0,0,0,-1,1105,1814,0,0
-112,-790,0,0,0,0,0,0,0,0,0,-1,1112,1814,0,0
-105,-790,0,0,0,0,0,0,0,0,0,-1,1119,1814,0,0
-98,-790,0,0,0,0,0,0,0,0,0,-1,1126,1814,0,0
-91,-790,0,0,0,0,0,0,0,0,0,-1,1133,1814,0,0
-84,-790,0,0,0,0,0,0,0,0,0,-1,1140,1814,0,0
-77,-790,-0.969238,5.30847,0,0,0,0,0,0,0,-1,1147,1814,-0.969277,-5.3085
-70,-790,-1.23169,4.98914,0,0,0,0,0,0,0,-1,1154,1814,-1.23163,-4.98916
-63,-790,-1.69128,4.32263,0,0,0,0,0,0,0,-1,1161,1814,-1.69128,-4.32258
-56,-790,-2.24756,3.75305,0,0,0,0,0,0,0,-1,1168,1814,-2.24758,-3.75302
-49,-790,-3.11011,3.35779,0,0,0,0,0,0,0,-1,1175,1814,-3.11006,-3.35781
-42,-790,0.593262,1.19165,0,0,0,0,0,0,0,-1,1182,1814,0.593225,-1.19165
-35,-790,0.307129,-0.20105,0,0,0,0,0,0,0,-1,1189,1814,0.307178,0.201006
-28,-790,-2.78467,0.785156,0,0,0,0,0,0,0,-1,1196,1814,-2.78471,-0.785183
-21,-790,-2.11377,14.2496,0,0,0,0,0,0,0,-1,1203,1814,-2.11375,-14.2496
-14,-790,-0.0368652,14.8491,0.200326,-0.0538916,0.00736648,0.200539,-0.0541049,0.0289447,0.15491,0.0453186,1210,1814,-0.0368099,-14.8491
-7,-790,2.36829,14.8732,0.146436,-0.0454413,0.00483414,0.146558,-0.0455631,0.0251726,0.115917,0.0482093,1217,1814,2.36825,-14.8732
0,-790,5.02063,15.8151,0,0,0,0,0,0,0,-1,1224,1814,5.02067,-15.815
7,-790,4.73279,15.9822,0.073367,-0.0313043,-0.00232703,0.0734187,-0.031356,-0.0222171,0.0620953,0.044487,1231,1814,4.73279,-15.9822
14,-790,4.44934,16.1454,0.0480642,-0.0256321,-0.00587625,0.0485298,-0.0260978,-0.0790702,0.0437303,0.0426451,1238,1814,4.44934,-16.1454
21,-790,4.32336,16.3021,0.0298037,-0.0207799,-0.00846579,0.0311829,-0.0221592,-0.161501,0.0309436,0.042968,1245,1814,4.32331,-16.3021
28,-790,4.52197,16.4535,0.0184731,-0.0176969,-0.00725413,0.0198737,-0.0190975,-0.190733,0.0225015,0.0426481,1252,1814,4.522,-16.4535
35,-790,4.45801,16.4825,0.0128709,-0.016636,-0.00395544,0.0133919,-0.017157,-0.130971,0.017682,0.0460409,1259,1814,4.45801,-16.4826
42,-790,4.56812,15.9821,0,0,0,0,0,0,0,-1,1266,1814,4.56816,-15.9821
49,-790,4.59216,15.954,0.00348294,-0.0151954,0.00497473,0.00472526,-0.0164377,0.244722,0.012827,0.0484861,1273,1814,4.59212,-15.954
56,-790,4.81934,16.0542,0.00629117,-0.015721,0.0113753,0.0111133,-0.0205431,0.400947,0.0185452,0.0459337,1280,1814,4.81937,-16.0542
63,-790,3.86621,15.8114,0,0,0,0,0,0,0,-1,1287,1814,3.8662,-15.8115
70,-790,2.86841,13.8007,0.0120239,-0.0172488,0.02086,0.0228702,-0.028095,0.479483,0.0294762,0.0426088,1294,1814,2.86837,-13.8007
77,-790,2.80774,14.9707,0.0111415,-0.019576,0.0248105,0.0249624,-0.0333969,0.508246,0.0338109,0.0424998,1301,1814,2.80776,-14.9707
84,-790,4.47314,15.2197,0.0107563,-0.0212551,0.0273808,0.0264664,-0.0369652,0.520904,0.0367891,0.0449622,1308,1814,4.47319,-15.2197
91,-790,4.34216,15.5559,0.00883073,-0.0246686,0.0304411,0.026826,-0.0426638,0.533887,0.0404658,0.045071,1315,1814,4.34215,-15.5559
98,-790,4.32104,15.9106,0.00303815,-0.0247145,0.0277849,0.020219,-0.0418954,0.553806,0.0365824,0.044973,1322,1814,4.32098,-15.9106
105,-790,4.33301,16.3149,0,0,0,0,0,0,0,-1,1329,1814,4.33301,-16.315
112,-790,2.87134,15.4426,0,0,0,0,0,0,0,-1,1336,1814,2.87129,-15.4427
119,-790,2.61914,17.3691,-0.0217216,-0.0281165,0.00873573,-0.0156165,-0.0342215,0.609962,0.0197829,0.0442347,1343,1814,2.61917,-17.3691
126,-790,3.02051,17.1493,-0.0356664,-0.029677,0.00162851,-0.0292628,-0.0360806,1.32176,0.0221339,0.0464379,1350,1814,3.02045,-17.1493
133,-790,3.39465,16.9573,0,0,0,0,0,0,0,-1,1357,1814,3.39466,-16.9572
140,-790,13.7402,11.722,0,0,0,0,0,0,0,-1,1364,1814,13.7403,-11.722
147,-790,3.4906,13.9751,0,0,0,0,0,0,0,-1,1371,1814,3.49064,-13.9751
154,-790,6.34485,-0.540405,0,0,0,0,0,0,0,-1,1378,1814,6.34482,0.540409
161,-790,6.62683,1.1134,0,0,0,0,0,0,0,-1,1385,1814,6.62682,-1.11344
168,-790,7.04077,2.23279,0,0,0,0,0,0,0,-1,1392,1814,7.04082,-2.23275
175,-790,9.03918,3.98535,0,0,0,0,0,0,0,-1,1399,1814,9.0392,-3.98535
182,-790,8.96997,5.67896,0,0,0,0,0,0,0,-1,1406,1814,8.97001,-5.6789
189,-790,8.59729,6.86975,0,0,0,0,0,0,0,-1,1413,1814,8.59728,-6.86972
196,-790,8.21924,9.29053,0,0,0,0,0,0,0,-1,1420,1814,8.21924,-9.29048
203,-790,0,0,0,0,0,0,0,0,0,-1,1427,1814,0,0
210,-790,0,0,0,0,0,0,0,0,0,-1,1434,1814,0,0
217,-790,0,0,0,0,0,0,0,0,0,-1,1441,1814,0,0
224,-790,0,0,0,0,0,0,0,0,0,-1,1448,1814,0,0
231,-790,0,0,0,0,0,0,0,0,0,-1,1455,1814,0,0
238,-790,0,0,0,0,0,0,0,0,0,-1,1462,1814,0,0
245,-790,0,0,0,0,0,0,0,0,0,-1,1469,1814,0,0
252,-790,0,0,0,0,0,0,0,0,0,-1,1476,1814,0,0
259,-790,0,0,0,0,0,0,0,0,0,-1,1483,1814,0,0
266,-790,0,0,0,0,0,0,0,0,0,-1,1490,1814,0,0
273,-790,0,0,0,0,0,0,0,0,0,-1,1497,1814,0,0
280,-790,0,0,0,0,0,0,0,0,0,-1,1504,1814,0,0
287,-790,0,0,0,0,0,0,0,0,0,-1,1511,1814,0,0
294,-790,0,0,0,0,0,0,0,0,0,-1,1518,1814,0,0
301,-790,0,0,0,0,0,0,0,0,0,-1,1525,1814,0,0
308,-790,0,0,0,0,0,0,0,0,0,-1,1532,1814,0,0
315,-790,0,0,0,0,0,0,0,0,0,-1,1539,1814,0,0
322,-790,0,0,0,0,0,0,0,0,0,-1,1546,1814,0,0
329,-790,0,0,0,0,0,0,0,0,0,-1,1553,1814,0,0
336,-790,0,0,0,0,0,0,0,0,0,-1,1560,1814,0,0
343,-790,0,0,0,0,0,0,0,0,0,-1,1567,1814,0,0
350,-790,0,0,0,0,0,0,0,0,0,-1,1574,1814,0,0
357,-790,0,0,0,0,0,0,0,0,0,-1,1581,1814,0,0
364,-790,0,0,0,0,0,0,0,0,0,-1,1588,1814,0,0
371,-790,0,0,0,0,0,0,0,0,0,-1,1595,1814,0,0
378,-790,0,0,0,0,0,0,0,0,0,-1,1602,1814,0,0
385,-790,0,0,0,0,0,0,0,0,0,-1,1609,1814,0,0
392,-790,0,0,0,0,0,0,0,0,0,-1,1616,1814,0,0
399,-790,0,0,0,0,0,0,0,0,0,-1,1623,1814,0,0
406,-790,0,0,0,0,0,0,0,0,0,-1,1630,1814,0,0
413,-790,0,0,0,0,0,0,0,0,0,-1,1637,1814,0,0
420,-790,0,0,0,0,0,0,0,0,0,-1,1644,1814,0,0
427,-790,0,0,0,0,0,0,0,0,0,-1,1651,1814,0,0
434,-790,0,0,0,0,0,0,0,0,0,-1,1658,1814,0,0
441,-790,0,0,0,0,0,0,0,0,0,-1,1665,1814,0,0
448,-790,0,0,0,0,0,0,0,0,0,-1,1672,1814,0,0
455,-790,0,0,0,0,0,0,0,0,0,-1,1679,1814,0,0
462,-790,0,0,0,0,0,0,0,0,0,-1,1686,1814,0,0
469,-790,0,0,0,0,0,0,0,0,0,-1,1693,1814,0,0
476,-790,0,0,0,0,0,0,0,0,0,-1,1700,1814,0,0
483,-790,0,0,0,0,0,0,0,0,0,-1,1707,1814,0,0
490,-790,0,0,0,0,0,0,0,0,0,-1,1714,1814,0,0
497,-790,0,0,0,0,0,0,0,0,0,-1,1721,1814,0,0
504,-790,0,0,0,0,0,0,0,0,0,-1,1728,1814,0,0
511,-790,0,0,0,0,0,0,0,0,0,-1,1735,1814,0,0
518,-790,0,0,0,0,0,0,0,0,0,-1,1742,1814,0,0
525,-790,0,0,0,0,0,0,0,0,0,-1,1749,1814,0,0
532,-790,0,0,0,0,0,0,0,0,0,-1,1756,1814,0,0
539,-790,0,0,0,0,0,0,0,0,0,-1,1763,1814,0,0
546,-790,0,0,0,0,0,0,0,0,0,-1,1770,1814,0,0
553,-790,0,0,0,0,0,0,0,0,0,-1,1777,1814,0,0
560,-790,0,0,0,0,0,0,0,0,0,-1,1784,1814,0,0
567,-790,0,0,0,0,0,0,0,0,0,-1,1791,1814,0,0
574,-790,0,0,0,0,0,0,0,0,0,-1,1798,1814,0,0
581,-790,0,0,0,0,0,0,0,0,0,-1,1805,1814,0,0
588,-790,0,0,0,0,0,0,0,0,0,-1,1812,1814,0,0
595,-790,0,0,0,0,0,0,0,0,0,-1,1819,1814,0,0
602,-790,0,0,0,0,0,0,0,0,0,-1,1826,1814,0,0
609,-790,0,0,0,0,0,0,0,0,0,-1,1833,1814,0,0
616,-790,0,0,0,0,0,0,0,0,0,-1,1840,1814,0,0
623,-790,0,0,0,0,0,0,0,0,0,-1,1847,1814,0,0
630,-790,0,0,0,0,0,0,0,0,0,-1,1854,1814,0,0
637,-790,0,0,0,0,0,0,0,0,0,-1,1861,1814,0,0
644,-790,0,0,0,0,0,0,0,0,0,-1,1868,1814,0,0
651,-790,0,0,0,0,0,0,0,0,0,-1,1875,1814,0,0
658,-790,0,0,0,0,0,0,0,0,0,-1,1882,1814,0,0
665,-790,0,0,0,0,0,0,0,0,0,-1,1889,1814,0,0
672,-790,0,0,0,0,0,0,0,0,0,-1,1896,1814,0,0
679,-790,0,0,0,0,0,0,0,0,0,-1,1903,1814,0,0
686,-790,0,0,0,0,0,0,0,0,0,-1,1910,1814,0,0
693,-790,0,0,0,0,0,0,0,0,0,-1,1917,1814,0,0
700,-790,0,0,0,0,0,0,0,0,0,-1,1924,1814,0,0
707,-790,0,0,0,0,0,0,0,0,0,-1,1931,1814,0,0
714,-790,0,0,0,0,0,0,0,0,0,-1,1938,1814,0,0
721,-790,0,0,0,0,0,0,0,0,0,-1,1945,1814,0,0
728,-790,0,0,0,0,0,0,0,0,0,-1,1952,1814,0,0
735,-790,0,0,0,0,0,0,0,0,0,-1,1959,1814,0,0
742,-790,0,0,0,0,0,0,0,0,0,-1,1966,1814,0,0
749,-790,0,0,0,0,0,0,0,0,0,-1,1973,1814,0,0
756,-790,0,0,0,0,0,0,0,0,0,-1,1980,1814,0,0
763,-790,0,0,0,0,0,0,0,0,0,-1,1987,1814,0,0
770,-790,0,0,0,0,0,0,0,0,0,-1,1994,1814,0,0
777,-790,0,0,0,0,0,0,0,0,0,-1,2001,1814,0,0
784,-790,0,0,0,0,0,0,0,0,0,-1,2008,1814,0,0
791,-790,0,0,0,0,0,0,0,0,0,-1,2015,1814,0,0
798,-790,0,0,0,0,0,0,0,0,0,-1,2022,1814,0,0
805,-790,0,0,0,0,0,0,0,0,0,-1,2029,1814,0,0
812,-790,0,0,0,0,0,0,0,0,0,-1,2036,1814,0,0
-700,-797,0,0,0,0,0,0,0,0,0,-1,524,1821,0,0
-693,-797,0,0,0,0,0,0,0,0,0,-1,531,1821,0,0
-686,-797,0,0,0,0,0,0,0,0,0,-1,538,1821,0,0
-679,-797,0,0,0,0,0,0,0,0,0,-1,545,1821,0,0
-672,-797,0,0,0,0,0,0,0,0,0,-1,552,1821,0,0
-665,-797,0,0,0,0,0,0,0,0,0,-1,559,1821,0,0
-658,-797,0,0,0,0,0,0,0,0,0,-1,566,1821,0,0
-651,-797,0,0,0,0,0,0,0,0,0,-1,573,1821,0,0
-644,-797,0,0,0,0,0,0,0,0,0,-1,580,1821,0,0
-637,-797,0,0,0,0,0,0,0,0,0,-1,587,1821,0,0
-630,-797,0,0,0,0,0,0,0,0,0,-1,594,1821,0,0
-623,-797,0,0,0,0,0,0,0,0,0,-1,601,1821,0,0
-616,-797,0,0,0,0,0,0,0,0,0,-1,608,1821,0,0
-609,-797,0,0,0,0,0,0,0,0,0,-1,615,1821,0,0
-602,-797,0,0,0,0,0,0,0,0,0,-1,622,1821,0,0
-595,-797,0,0,0,0,0,0,0,0,0,-1,629,1821,0,0
-588,-797,0,0,0,0,0,0,0,0,0,-1,636,1821,0,0
-581,-797,0,0,0,0,0,0,0,0,0,-1,643,1821,0,0
-574,-797,0,0,0,0,0,0,0,0,0,-1,650,1821,0,0
-567,-797,0,0,0,0,0,0,0,0,0,-1,657,1821,0,0
-560,-797,0,0,0,0,0,0,0,0,0,-1,664,1821,0,0
-553,-797,0,0,0,0,0,0,0,0,0,-1,671,1821,0,0
-546,-797,0,0,0,0,0,0,0,0,0,-1,678,1821,0,0
-539,-797,0,0,0,0,0,0,0,0,0,-1,685,1821,0,0
-532,-797,0,0,0,0,0,0,0,0,0,-1,692,1821,0,0
-525,-797,0,0,0,0,0,0,0,0,0,-1,699,1821,0,0
-518,-797,0,0,0,0,0,0,0,0,0,-1,706,1821,0,0
-511,-797,0,0,0,0,0,0,0,0,0,-1,713,1821,0,0
-504,-797,0,0,0,0,0,0,0,0,0,-1,720,1821,0,0
-497,-797,0,0,0,0,0,0,0,0,0,-1,727,1821,0,0
-490,-797,0,0,0,0,0,0,0,0,0,-1,734,1821,0,0
-483,-797,0,0,0,0,0,0,0,0,0,-1,741,1821,0,0
-476,-797,0,0,0,0,0,0,0,0,0,-1,748,1821,0,0
-469,-797,0,0,0,0,0,0,0,0,0,-1,755,1821,0,0
-462,-797,0,0,0,0,0,0,0,0,0,-1,762,1821,0,0
-455,-797,0,0,0,0,0,0,0,0,0,-1,769,1821,0,0
-448,-797,0,0,0,0,0,0,0,0,0,-1,776,1821,0,0
-441,-797,0,0,0,0,0,0,0,0,0,-1,783,1821,0,0
-434,-797,0,0,0,0,0,0,0,0,0,-1,790,1821,0,0
-427,-797,0,0,0,0,0,0,0,0,0,-1,797,1821,0,0
-420,-797,0,0,0,0,0,0,0,0,0,-1,804,1821,0,0
-413,-797,0,0,0,0,0,0,0,0,0,-1,811,1821,0,0
-406,-797,0,0,0,0,0,0,0,0,0,-1,818,1821,0,0
-399,-797,0,0,0,0,0,0,0,0,0,-1,825,1821,0,0
-392,-797,0,0,0,0,0,0,0,0,0,-1,832,1821,0,0
-385,-797,0,0,0,0,0,0,0,0,0,-1,839,1821,0,0
-378,-797,0,0,0,0,0,0,0,0,0,-1,846,1821,0,0
-371,-797,0,0,0,0,0,0,0,0,0,-1,853,1821,0,0
-364,-797,0,0,0,0,0,0,0,0,0,-1,860,1821,0,0
-357,-797,0,0,0,0,0,0,0,0,0,-1,867,1821,0,0
-350,-797,0,0,0,0,0,0,0,0,0,-1,874,1821,0,0
-343,-797,0,0,0,0,0,0,0,0,0,-1,881,1821,0,0
-336,-797,0,0,0,0,0,0,0,0,0,-1,888,1821,0,0
-329,-797,0,0,0,0,0,0,0,0,0,-1,895,1821,0,0
-322,-797,0,0,0,0,0,0,0,0,0,-1,902,1821,0,0
-315,-797,0,0,0,0,0,0,0,0,0,-1,909,1821,0,0
-308,-797,0,0,0,0,0,0,0,0,0,-1,916,1821,0,0
-301,-797,0,0,0,0,0,0,0,0,0,-1,923,1821,0,0
-294,-797,0,0,0,0,0,0,0,0,0,-1,930,1821,0,0
-287,-797,0,0,0,0,0,0,0,0,0,-1,937,1821,0,0
-280,-797,0,0,0,0,0,0,0,0,0,-1,944,1821,0,0
-273,-797,0,0,0,0,0,0,0,0,0,-1,951,1821,0,0
-266,-797,0,0,0,0,0,0,0,0,0,-1,958,1821,0,0
-259,-797,0,0,0,0,0,0,0,0,0,-1,965,1821,0,0
-252,-797,0,0,0,0,0,0,0,0,0,-1,972,1821,0,0
-245,-797,0,0,0,0,0,0,0,0,0,-1,979,1821,0,0
-238,-797,0,0,0,0,0,0,0,0,0,-1,986,1821,0,0
-231,-797,0,0,0,0,0,0,0,0,0,-1,993,1821,0,0
-224,-797,0,0,0,0,0,0,0,0,0,-1,1000,1821,0,0
-217,-797,0,0,0,0,0,0,0,0,0,-1,1007,1821,0,0
-210,-797,0,0,0,0,0,0,0,0,0,-1,1014,1821,0,0
-203,-797,0,0,0,0,0,0,0,0,0,-1,1021,1821,0,0
-196,-797,0,0,0,0,0,0,0,0,0,-1,1028,1821,0,0
-189,-797,0,0,0,0,0,0,0,0,0,-1,1035,1821,0,0
-182,-797,0,0,0,0,0,0,0,0,0,-1,1042,1821,0,0
-175,-797,0,0,0,0,0,0,0,0,0,-1,1049,1821,0,0
-168,-797,0,0,0,0,0,0,0,0,0,-1,1056,1821,0,0
-161,-797,0,0,0,0,0,0,0,0,0,-1,1063,1821,0,0
-154,-797,0,0,0,0,0,0,0,0,0,-1,1070,1821,0,0
-147,-797,0,0,0,0,0,0,0,0,0,-1,1077,1821,0,0
-140,-797,0,0,0,0,0,0,0,0,0,-1,1084,1821,0,0
-133,-797,0,0,0,0,0,0,0,0,0,-1,1091,1821,0,0
-126,-797,0,0,0,0,0,0,0,0,0,-1,1098,1821,0,0
-119,-797,0,0,0,0,0,0,0,0,0,-1,1105,1821,0,0
-112,-797,0,0,0,0,0,0,0,0,0,-1,1112,1821,0,0
-105,-797,0,0,0,0,0,0,0,0,0,-1,1119,1821,0,0
-98,-797,0,0,0,0,0,0,0,0,0,-1,1126,1821,0,0
-91,-797,0,0,0,0,0,0,0,0,0,-1,1133,1821,0,0
-84,-797,0,0,0,0,0,0,0,0,0,-1,1140,1821,0,0
-77,-797,0,0,0,0,0,0,0,0,0,-1,1147,1821,0,0
-70,-797,0,0,0,0,0,0,0,0,0,-1,1154,1821,0,0
-63,-797,0,0,0,0,0,0,0,0,0,-1,1161,1821,0,0
-56,-797,0,0,0,0,0,0,0,0,0,-1,1168,1821,0,0
-49,-797,0,0,0,0,0,0,0,0,0,-1,1175,1821,0,0
-42,-797,0.579834,0.692871,0,0,0,0,0,0,0,-1,1182,1821,0.579856,-0.692816
-35,-797,-0.185425,5.55396,0,0,0,0,0,0,0,-1,1189,1821,-0.18542,-5.55396
-28,-797,-0.310181,4.71509,0,0,0,0,0,0,0,-1,1196,1821,-0.310228,-4.71503
-21,-797,4.38428,20.1439,0,0,0,0,0,0,0,-1,1203,1821,4.38424,-20.1439
-14,-797,0.0683594,15.439,0,0,0,0,0,0,0,-1,1210,1821,0.0683846,-15.4389
-7,-797,2.67822,15.2222,0,0,0,0,0,0,0,-1,1217,1821,2.67818,-15.2222
0,-797,4.75684,16.1481,0,0,0,0,0,0,0,-1,1224,1821,4.75685,-16.148
7,-797,4.6781,16.642,0.0877572,-0.0373592,-0.0056022,0.0880075,-0.0376095,-0.0446568,0.0744453,0.0465929,1231,1821,4.67809,-16.642
14,-797,4.35278,16.932,0.0560795,-0.0294369,-0.0103671,0.0573183,-0.0306757,-0.118934,0.0515738,0.0446148,1238,1821,4.35281,-16.932
21,-797,4.18506,16.4116,0.0328616,-0.0226169,-0.0141767,0.0362744,-0.0260297,-0.236232,0.036133,0.0450591,1245,1821,4.18511,-16.4116
28,-797,4.67322,16.5074,0.0187008,-0.0184888,-0.0126116,0.0225742,-0.0223622,-0.297984,0.0259442,0.0429818,1252,1821,4.67324,-16.5075
35,-797,4.20178,16.5901,0.0117887,-0.0174466,-0.00822206,0.0139424,-0.0196003,-0.256185,0.0194575,0.0473168,1259,1821,4.20174,-16.5901
42,-797,7.46204,15.9551,0.00418038,-0.015711,-0.00372777,0.00485604,-0.0163866,-0.179303,0.0128526,0.0487594,1266,1821,7.46208,-15.9551
49,-797,4.66687,16.0244,0,0,0,0,0,0,0,-1,1273,1821,4.66682,-16.0244
56,-797,4.48669,16.1783,0.00445264,-0.0180804,0.0123853,0.00992915,-0.0235569,0.416331,0.0198597,0.0430971,1280,1821,4.48673,-16.1783
63,-797,3.1604,16.0748,0.0100013,-0.0193796,0.0206164,0.0206258,-0.0300041,0.475845,0.0293979,0.0423932,1287,1821,3.16046,-16.0749
70,-797,2.04407,16.0447,0,0,0,0,0,0,0,-1,1294,1821,2.04405,-16.0447
77,-797,2.4071,15.3917,0.0116946,-0.0257102,0.0295839,0.027992,-0.0420076,0.503525,0.0406834,0.0411546,1301,1821,2.40714,-15.3918
84,-797,2.50476,17.0378,0.011835,-0.0287017,0.0323878,0.0297736,-0.0466404,0.505811,0.0444745,0.0447086,1308,1821,2.50472,-17.0378
91,-797,4.26099,15.5408,0.00987586,-0.0341113,0.0355859,0.0297161,-0.0539516,0.508608,0.0489764,0.0473547,1315,1821,4.26098,-15.5408
98,-797,4.21899,16.0723,0.00271429,-0.0346987,0.0307049,0.0199623,-0.0519467,0.511807,0.0428638,0.0454254,1322,1821,4.21898,-16.0723
105,-797,4.37292,16.6941,0,0,0,0,0,0,0,-1,1329,1821,4.37296,-16.6941
112,-797,4.31921,17.6306,0,0,0,0,0,0,0,-1,1336,1821,4.31927,-17.6306
119,-797,4.2688,18.3651,-0.0316117,-0.0403248,-0.000244375,-0.0316048,-0.0403317,-0.0280174,0.0245025,0.0422333,1343,1821,4.26883,-18.3651
126,-797,2.62476,17.4152,-0.0515997,-0.0428055,-0.0112609,-0.0351137,-0.0592916,-0.971534,0.0344255,0.0483499,1350,1821,2.62474,-17.4152
133,-797,2.93762,17.3424,0,0,0,0,0,0,0,-1,1357,1821,2.93762,-17.3424
140,-797,0.122559,6.55444,0,0,0,0,0,0,0,-1,1364,1821,0.122588,-6.55445
147,-797,4.15686,12.8721,0,0,0,0,0,0,0,-1,1371,1821,4.15692,-12.872
154,-797,14.49,10.5256,0,0,0,0,0,0,0,-1,1378,1821,14.49,-10.5256
161,-797,6.79199,1.12952,0,0,0,0,0,0,0,-1,1385,1821,6.79203,-1.12957
168,-797,0,0,0,0,0,0,0,0,0,-1,1392,1821,0,0
175,-797,0,0,0,0,0,0,0,0,0,-1,1399,1821,0,0
182,-797,0,0,0,0,0,0,0,0,0,-1,1406,1821,0,0
189,-797,0,0,0,0,0,0,0,0,0,-1,1413,1821,0,0
196,-797,0,0,0,0,0,0,0,0,0,-1,1420,1821,0,0
203,-797,0,0,0,0,0,0,0,0,0,-1,1427,1821,0,0
210,-797,0,0,0,0,0,0,0,0,0,-1,1434,1821,0,0
217,-797,0,0,0,0,0,0,0,0,0,-1,1441,1821,0,0
224,-797,0,0,0,0,0,0,0,0,0,-1,1448,1821,0,0
231,-797,0,0,0,0,0,0,0,0,0,-1,1455,1821,0,0
238,-797,0,0,0,0,0,0,0,0,0,-1,1462,1821,0,0
245,-797,0,0,0,0,0,0,0,0,0,-1,1469,1821,0,0
252,-797,0,0,0,0,0,0,0,0,0,-1,1476,1821,0,0
259,-797,0,0,0,0,0,0,0,0,0,-1,1483,1821,0,0
266,-797,0,0,0,0,0,0,0,0,0,-1,1490,1821,0,0
273,-797,0,0,0,0,0,0,0,0,0,-1,1497,1821,0,0
280,-797,0,0,0,0,0,0,0,0,0,-1,1504,1821,0,0
287,-797,0,0,0,0,0,0,0,0,0,-1,1511,1821,0,0
294,-797,0,0,0,0,0,0,0,0,0,-1,1518,1821,0,0
301,-797,0,0,0,0,0,0,0,0,0,-1,1525,1821,0,0
308,-797,0,0,0,0,0,0,0,0,0,-1,1532,1821,0,0
315,-797,0,0,0,0,0,0,0,0,0,-1,1539,1821,0,0
322,-797,0,0,0,0,0,0,0,0,0,-1,1546,1821,0,0
329,-797,0,0,0,0,0,0,0,0,0,-1,1553,1821,0,0
336,-797,0,0,0,0,0,0,0,0,0,-1,1560,1821,0,0
343,-797,0,0,0,0,0,0,0,0,0,-1,1567,1821,0,0
350,-797,0,0,0,0,0,0,0,0,0,-1,1574,1821,0,0
357,-797,0,0,0,0,0,0,0,0,0,-1,1581,1821,0,0
364,-797,0,0,0,0,0,0,0,0,0,-1,1588,1821,0,0
371,-797,0,0,0,0,0,0,0,0,0,-1,1595,1821,0,0
378,-797,0,0,0,0,0,0,0,0,0,-1,1602,1821,0,0
385,-797,0,0,0,0,0,0,0,0,0,-1,1609,1821,0,0
392,-797,0,0,0,0,0,0,0,0,0,-1,1616,1821,0,0
399,-797,0,0,0,0,0,0,0,0,0,-1,1623,1821,0,0
406,-797,0,0,0,0,0,0,0,0,0,-1,1630,1821,0,0
413,-797,0,0,0,0,0,0,0,0,0,-1,1637,1821,0,0
420,-797,0,0,0,0,0,0,0,0,0,-1,1644,1821,0,0
427,-797,0,0,0,0,0,0,0,0,0,-1,1651,1821,0,0
434,-797,0,0,0,0,0,0,0,0,0,-1,1658,1821,0,0
441,-797,0,0,0,0,0,0,0,0,0,-1,1665,1821,0,0
448,-797,0,0,0,0,0,0,0,0,0,-1,1672,1821,0,0
455,-797,0,0,0,0,0,0,0,0,0,-1,1679,1821,0,0
462,-797,0,0,0,0,0,0,0,0,0,-1,1686,1821,0,0
469,-797,0,0,0,0,0,0,0,0,0,-1,1693,1821,0,0
476,-797,0,0,0,0,0,0,0,0,0,-1,1700,1821,0,0
483,-797,0,0,0,0,0,0,0,0,0,-1,1707,1821,0,0
490,-797,0,0,0,0,0,0,0,0,0,-1,1714,1821,0,0
497,-797,0,0,0,0,0,0,0,0,0,-1,1721,1821,0,0
504,-797,0,0,0,0,0,0,0,0,0,-1,1728,1821,0,0
511,-797,0,0,0,0,0,0,0,0,0,-1,1735,1821,0,0
518,-797,0,0,0,0,0,0,0,0,0,-1,1742,1821,0,0
525,-797,0,0,0,0,0,0,0,0,0,-1,1749,1821,0,0
532,-797,0,0,0,0,0,0,0,0,0,-1,1756,1821,0,0
539,-797,0,0,0,0,0,0,0,0,0,-1,1763,1821,0,0
546,-797,0,0,0,0,0,0,0,0,0,-1,1770,1821,0,0
553,-797,0,0,0,0,0,0,0,0,0,-1,1777,1821,0,0
560,-797,0,0,0,0,0,0,0,0,0,-1,1784,1821,0,0
567,-797,0,0,0,0,0,0,0,0,0,-1,1791,1821,0,0
574,-797,0,0,0,0,0,0,0,0,0,-1,1798,1821,0,0
581,-797,0,0,0,0,0,0,0,0,0,-1,1805,1821,0,0
588,-797,0,0,0,0,0,0,0,0,0,-1,1812,1821,0,0
595,-797,0,0,0,0,0,0,0,0,0,-1,1819,1821,0,0
602,-797,0,0,0,0,0,0,0,0,0,-1,1826,1821,0,0
609,-797,0,0,0,0,0,0,0,0,0,-1,1833,1821,0,0
616,-797,0,0,0,0,0,0,0,0,0,-1,1840,1821,0,0
623,-797,0,0,0,0,0,0,0,0,0,-1,1847,1821,0,0
630,-797,0,0,0,0,0,0,0,0,0,-1,1854,1821,0,0
637,-797,0,0,0,0,0,0,0,0,0,-1,1861,1821,0,0
644,-797,0,0,0,0,0,0,0,0,0,-1,1868,1821,0,0
651,-797,0,0,0,0,0,0,0,0,0,-1,1875,1821,0,0
658,-797,0,0,0,0,0,0,0,0,0,-1,1882,1821,0,0
665,-797,0,0,0,0,0,0,0,0,0,-1,1889,1821,0,0
672,-797,0,0,0,0,0,0,0,0,0,-1,1896,1821,0,0
679,-797,0,0,0,0,0,0,0,0,0,-1,1903,1821,0,0
686,-797,0,0,0,0,0,0,0,0,0,-1,1910,1821,0,0
693,-797,0,0,0,0,0,0,0,0,0,-1,1917,1821,0,0
700,-797,0,0,0,0,0,0,0,0,0,-1,1924,1821,0,0
707,-797,0,0,0,0,0,0,0,0,0,-1,1931,1821,0,0
714,-797,0,0,0,0,0,0,0,0,0,-1,1938,1821,0,0
721,-797,0,0,0,0,0,0,0,0,0,-1,1945,1821,0,0
728,-797,0,0,0,0,0,0,0,0,0,-1,1952,1821,0,0
735,-797,0,0,0,0,0,0,0,0,0,-1,1959,1821,0,0
742,-797,0,0,0,0,0,0,0,0,0,-1,1966,1821,0,0
749,-797,0,0,0,0,0,0,0,0,0,-1,1973,1821,0,0
756,-797,0,0,0,0,0,0,0,0,0,-1,1980,1821,0,0
763,-797,0,0,0,0,0,0,0,0,0,-1,1987,1821,0,0
770,-797,0,0,0,0,0,0,0,0,0,-1,1994,1821,0,0
777,-797,0,0,0,0,0,0,0,0,0,-1,2001,1821,0,0
784,-797,0,0,0,0,0,0,0,0,0,-1,2008,1821,0,0
791,-797,0,0,0,0,0,0,0,0,0,-1,2015,1821,0,0
798,-797,0,0,0,0,0,0,0,0,0,-1,2022,1821,0,0
805,-797,0,0,0,0,0,0,0,0,0,-1,2029,1821,0,0
812,-797,0,0,0,0,0,0,0,0,0,-1,2036,1821,0,0
-700,-804,0,0,0,0,0,0,0,0,0,-1,524,1828,0,0
-693,-804,0,0,0,0,0,0,0,0,0,-1,531,1828,0,0
-686,-804,0,0,0,0,0,0,0,0,0,-1,538,1828,0,0
-679,-804,0,0,0,0,0,0,0,0,0,-1,545,1828,0,0
-672,-804,0,0,0,0,0,0,0,0,0,-1,552,1828,0,0
-665,-804,0,0,0,0,0,0,0,0,0,-1,559,1828,0,0
-658,-804,0,0,0,0,0,0,0,0,0,-1,566,1828,0,0
-651,-804,0,0,0,0,0,0,0,0,0,-1,573,1828,0,0
-644,-804,0,0,0,0,0,0,0,0,0,-1,580,1828,0,0
-637,-804,0,0,0,0,0,0,0,0,0,-1,587,1828,0,0
-630,-804,0,0,0,0,0,0,0,0,0,-1,594,1828,0,0
-623,-804,0,0,0,0,0,0,0,0,0,-1,601,1828,0,0
-616,-804,0,0,0,0,0,0,0,0,0,-1,608,1828,0,0
-609,-804,0,0,0,0,0,0,0,0,0,-1,615,1828,0,0
-602,-804,0,0,0,0,0,0,0,0,0,-1,622,1828,0,0
-595,-804,0,0,0,0,0,0,0,0,0,-1,629,1828,0,0
-588,-804,0,0,0,0,0,0,0,0,0,-1,636,1828,0,0
-581,-804,0,0,0,0,0,0,0,0,0,-1,643,1828,0,0
-574,-804,0,0,0,0,0,0,0,0,0,-1,650,1828,0,0
-567,-804,0,0,0,0,0,0,0,0,0,-1,657,1828,0,0
-560,-804,0,0,0,0,0,0,0,0,0,-1,664,1828,0,0
-553,-804,0,0,0,0,0,0,0,0,0,-1,671,1828,0,0
-546,-804,0,0,0,0,0,0,0,0,0,-1,678,1828,0,0
-539,-804,0,0,0,0,0,0,0,0,0,-1,685,1828,0,0
-532,-804,0,0,0,0,0,0,0,0,0,-1,692,1828,0,0
-525,-804,0,0,0,0,0,0,0,0,0,-1,699,1828,0,0
-518,-804,0,0,0,0,0,0,0,0,0,-1,706,1828,0,0
-511,-804,0,0,0,0,0,0,0,0,0,-1,713,1828,0,0
-504,-804,0,0,0,0,0,0,0,0,0,-1,720,1828,0,0
-497,-804,0,0,0,0,0,0,0,0,0,-1,727,1828,0,0
-490,-804,0,0,0,0,0,0,0,0,0,-1,734,1828,0,0
-483,-804,0,0,0,0,0,0,0,0,0,-1,741,1828,0,0
-476,-804,0,0,0,0,0,0,0,0,0,-1,748,1828,0,0
-469,-804,0,0,0,0,0,0,0,0,0,-1,755,1828,0,0
-462,-804,0,0,0,0,0,0,0,0,0,-1,762,1828,0,0
-455,-804,0,0,0,0,0,0,0,0,0,-1,769,1828,0,0
-448,-804,0,0,0,0,0,0,0,0,0,-1,776,1828,0,0
-441,-804,0,0,0,0,0,0,0,0,0,-1,783,1828,0,0
-434,-804,0,0,0,0,0,0,0,0,0,-1,790,1828,0,0
-427,-804,0,0,0,0,0,0,0,0,0,-1,797,1828,0,0
-420,-804,0,0,0,0,0,0,0,0,0,-1,804,1828,0,0
-413,-804,0,0,0,0,0,0,0,0,0,-1,811,1828,0,0
-406,-804,0,0,0,0,0,0,0,0,0,-1,818,1828,0,0
-399,-804,0,0,0,0,0,0,0,0,0,-1,825,1828,0,0
-392,-804,0,0,0,0,0,0,0,0,0,-1,832,1828,0,0
-385,-804,0,0,0,0,0,0,0,0,0,-1,839,1828,0,0
-378,-804,0,0,0,0,0,0,0,0,0,-1,846,1828,0,0
-371,-804,0,0,0,0,0,0,0,0,0,-1,853,1828,0,0
-364,-804,0,0,0,0,0,0,0,0,0,-1,860,1828,0,0
-357,-804,0,0,0,0,0,0,0,0,0,-1,867,1828,0,0
-350,-804,0,0,0,0,0,0,0,0,0,-1,874,1828,0,0
-343,-804,0,0,0,0,0,0,0,0,0,-1,881,1828,0,0
-336,-804,0,0,0,0,0,0,0,0,0,-1,888,1828,0,0
-329,-804,0,0,0,0,0,0,0,0,0,-1,895,1828,0,0
-322,-804,0,0,0,0,0,0,0,0,0,-1,902,1828,0,0
-315,-804,0,0,0,0,0,0,0,0,0,-1,909,1828,0,0
-308,-804,0,0,0,0,0,0,0,0,0,-1,916,1828,0,0
-301,-804,0,0,0,0,0,0,0,0,0,-1,923,1828,0,0
-294,-804,0,0,0,0,0,0,0,0,0,-1,930,1828,0,0
-287,-804,0,0,0,0,0,0,0,0,0,-1,937,1828,0,0
-280,-804,0,0,0,0,0,0,0,0,0,-1,944,1828,0,0
-273,-804,0,0,0,0,0,0,0,0,0,-1,951,1828,0,0
-266,-804,0,0,0,0,0,0,0,0,0,-1,958,1828,0,0
-259,-804,0,0,0,0,0,0,0,0,0,-1,965,1828,0,0
-252,-804,0,0,0,0,0,0,0,0,0,-1,972,1828,0,0
-245,-804,0,0,0,0,0,0,0,0,0,-1,979,1828,0,0
-238,-804,0,0,0,0,0,0,0,0,0,-1,986,1828,0,0
-231,-804,0,0,0,0,0,0,0,0,0,-1,993,1828,0,0
-224,-804,0,0,0,0,0,0,0,0,0,-1,1000,1828,0,0
-217,-804,0,0,0,0,0,0,0,0,0,-1,1007,1828,0,0
-210,-804,0,0,0,0,0,0,0,0,0,-1,1014,1828,0,0
-203,-804,0,0,0,0,0,0,0,0,0,-1,1021,1828,0,0
-196,-804,0,0,0,0,0,0,0,0,0,-1,1028,1828,0,0
-189,-804,0,0,0,0,0,0,0,0,0,-1,1035,1828,0,0
-182,-804,0,0,0,0,0,0,0,0,0,-1,1042,1828,0,0
-175,-804,0,0,0,0,0,0,0,0,0,-1,1049,1828,0,0
-168,-804,0,0,0,0,0,0,0,0,0,-1,1056,1828,0,0
-161,-804,0,0,0,0,0,0,0,0,0,-1,1063,1828,0,0
-154,-804,0,0,0,0,0,0,0,0,0,-1,1070,1828,0,0
-147,-804,0,0,0,0,0,0,0,0,0,-1,1077,1828,0,0
-140,-804,0,0,0,0,0,0,0,0,0,-1,1084,1828,0,0
-133,-804,0,0,0,0,0,0,0,0,0,-1,1091,1828,0,0
-126,-804,0,0,0,0,0,0,0,0,0,-1,1098,1828,0,0
-119,-804,0,0,0,0,0,0,0,0,0,-1,1105,1828,0,0
-112,-804,0,0,0,0,0,0,0,0,0,-1,1112,1828,0,0
-105,-804,0,0,0,0,0,0,0,0,0,-1,1119,1828,0,0
-98,-804,0,0,0,0,0,0,0,0,0,-1,1126,1828,0,0
-91,-804,0,0,0,0,0,0,0,0,0,-1,1133,1828,0,0
-84,-804,0,0,0,0,0,0,0,0,0,-1,1140,1828,0,0
-77,-804,0,0,0,0,0,0,0,0,0,-1,1147,1828,0,0
-70,-804,0,0,0,0,0,0,0,0,0,-1,1154,1828,0,0
-63,-804,0,0,0,0,0,0,0,0,0,-1,1161,1828,0,0
-56,-804,0,0,0,0,0,0,0,0,0,-1,1168,1828,0,0
-49,-804,0,0,0,0,0,0,0,0,0,-1,1175,1828,0,0
-42,-804,0,0,0,0,0,0,0,0,0,-1,1182,1828,0,0
-35,-804,0,0,0,0,0,0,0,0,0,-1,1189,1828,0,0
-28,-804,0,0,0,0,0,0,0,0,0,-1,1196,1828,0,0
-21,-804,0,0,0,0,0,0,0,0,0,-1,1203,1828,0,0
-14,-804,0,0,0,0,0,0,0,0,0,-1,1210,1828,0,0
-7,-804,0,0,0,0,0,0,0,0,0,-1,1217,1828,0,0
0,-804,0,0,0,0,0,0,0,0,0,-1,1224,1828,0,0
7,-804,0,0,0,0,0,0,0,0,0,-1,1231,1828,0,0
14,-804,0,0,0,0,0,0,0,0,0,-1,1238,1828,0,0
21,-804,0,0,0,0,0,0,0,0,0,-1,1245,1828,0,0
28,-804,0,0,0,0,0,0,0,0,0,-1,1252,1828,0,0
35,-804,9.20776,16.5945,0.00668391,-0.0157309,-0.0157983,0.0148464,-0.0238934,-0.476892,0.0225688,0.046661,1259,1828,9.20782,-16.5945
42,-804,7.60193,16.3704,-0.00203411,-0.0143888,-0.00967165,0.00326462,-0.0196876,-0.5012,0.0143377,0.0469734,1266,1828,7.60193,-16.3703
49,-804,5.81458,16.2367,0,0,0,0,0,0,0,-1,1273,1828,5.81457,-16.2367
56,-804,4.13525,16.2699,-0.000778006,-0.019349,0.012035,0.00513721,-0.0252643,0.456825,0.0187908,0.0424476,1280,1828,4.13519,-16.2699
63,-804,2.74927,16.3036,0.0062559,-0.0222133,0.023355,0.0193724,-0.0353298,0.511715,0.0320271,0.0418427,1287,1828,2.74928,-16.3036
70,-804,1.55481,16.3578,0,0,0,0,0,0,0,-1,1294,1828,1.55477,-16.3578
77,-804,2.33496,15.666,0.0100244,-0.0327636,0.0342915,0.0290484,-0.0517876,0.506499,0.0472822,0.04244,1301,1828,2.33499,-15.666
84,-804,2.61182,17.4177,0.011181,-0.0377646,0.0372925,0.0313137,-0.0578972,0.495024,0.0522626,0.0425382,1308,1828,2.61181,-17.4178
91,-804,0,0,0,0,0,0,0,0,0,-1,1315,1828,0,0
98,-804,0,0,0,0,0,0,0,0,0,-1,1322,1828,0,0
105,-804,0,0,0,0,0,0,0,0,0,-1,1329,1828,0,0
112,-804,0,0,0,0,0,0,0,0,0,-1,1336,1828,0,0
119,-804,0,0,0,0,0,0,0,0,0,-1,1343,1828,0,0
126,-804,0,0,0,0,0,0,0,0,0,-1,1350,1828,0,0
133,-804,0,0,0,0,0,0,0,0,0,-1,1357,1828,0,0
140,-804,0,0,0,0,0,0,0,0,0,-1,1364,1828,0,0
147,-804,0,0,0,0,0,0,0,0,0,-1,1371,1828,0,0
154,-804,0,0,0,0,0,0,0,0,0,-1,1378,1828,0,0
161,-804,0,0,0,0,0,0,0,0,0,-1,1385,1828,0,0
168,-804,0,0,0,0,0,0,0,0,0,-1,1392,1828,0,0
175,-804,0,0,0,0,0,0,0,0,0,-1,1399,1828,0,0
182,-804,0,0,0,0,0,0,0,0,0,-1,1406,1828,0,0
189,-804,0,0,0,0,0,0,0,0,0,-1,1413,1828,0,0
196,-804,0,0,0,0,0,0,0,0,0,-1,1420,1828,0,0
203,-804,0,0,0,0,0,0,0,0,0,-1,1427,1828,0,0
210,-804,0,0,0,0,0,0,0,0,0,-1,1434,1828,0,0
217,-804,0,0,0,0,0,0,0,0,0,-1,1441,1828,0,0
224,-804,0,0,0,0,0,0,0,0,0,-1,1448,1828,0,0
231,-804,0,0,0,0,0,0,0,0,0,-1,1455,1828,0,0
238,-804,0,0,0,0,0,0,0,0,0,-1,1462,1828,0,0
245,-804,0,0,0,0,0,0,0,0,0,-1,1469,1828,0,0
252,-804,0,0,0,0,0,0,0,0,0,-1,1476,1828,0,0
259,-804,0,0,0,0,0,0,0,0,0,-1,1483,1828,0,0
266,-804,0,0,0,0,0,0,0,0,0,-1,1490,1828,0,0
273,-804,0,0,0,0,0,0,0,0,0,-1,1497,1828,0,0
280,-804,0,0,0,0,0,0,0,0,0,-1,1504,1828,0,0
287,-804,0,0,0,0,0,0,0,0,0,-1,1511,1828,0,0
294,-804,0,0,0,0,0,0,0,0,0,-1,1518,1828,0,0
301,-804,0,0,0,0,0,0,0,0,0,-1,1525,1828,0,0
308,-804,0,0,0,0,0,0,0,0,0,-1,1532,1828,0,0
315,-804,0,0,0,0,0,0,0,0,0,-1,1539,1828,0,0
322,-804,0,0,0,0,0,0,0,0,0,-1,1546,1828,0,0
329,-804,0,0,0,0,0,0,0,0,0,-1,1553,1828,0,0
336,-804,0,0,0,0,0,0,0,0,0,-1,1560,1828,0,0
343,-804,0,0,0,0,0,0,0,0,0,-1,1567,1828,0,0
350,-804,0,0,0,0,0,0,0,0,0,-1,1574,1828,0,0
357,-804,0,0,0,0,0,0,0,0,0,-1,1581,1828,0,0
364,-804,0,0,0,0,0,0,0,0,0,-1,1588,1828,0,0
371,-804,0,0,0,0,0,0,0,0,0,-1,1595,1828,0,0
378,-804,0,0,0,0,0,0,0,0,0,-1,1602,1828,0,0
385,-804,0,0,0,0,0,0,0,0,0,-1,1609,1828,0,0
392,-804,0,0,0,0,0,0,0,0,0,-1,1616,1828,0,0
399,-804,0,0,0,0,0,0,0,0,0,-1,1623,1828,0,0
406,-804,0,0,0,0,0,0,0,0,0,-1,1630,1828,0,0
413,-804,0,0,0,0,0,0,0,0,0,-1,1637,1828,0,0
420,-804,0,0,0,0,0,0,0,0,0,-1,1644,1828,0,0
427,-804,0,0,0,0,0,0,0,0,0,-1,1651,1828,0,0
434,-804,0,0,0,0,0,0,0,0,0,-1,1658,1828,0,0
441,-804,0,0,0,0,0,0,0,0,0,-1,1665,1828,0,0
448,-804,0,0,0,0,0,0,0,0,0,-1,1672,1828,0,0
455,-804,0,0,0,0,0,0,0,0,0,-1,1679,1828,0,0
462,-804,0,0,0,0,0,0,0,0,0,-1,1686,1828,0,0
469,-804,0,0,0,0,0,0,0,0,0,-1,1693,1828,0,0
476,-804,0,0,0,0,0,0,0,0,0,-1,1700,1828,0,0
483,-804,0,0,0,0,0,0,0,0,0,-1,1707,1828,0,0
490,-804,0,0,0,0,0,0,0,0,0,-1,1714,1828,0,0
497,-804,0,0,0,0,0,0,0,0,0,-1,1721,1828,0,0
504,-804,0,0,0,0,0,0,0,0,0,-1,1728,1828,0,0
511,-804,0,0,0,0,0,0,0,0,0,-1,1735,1828,0,0
518,-804,0,0,0,0,0,0,0,0,0,-1,1742,1828,0,0
525,-804,0,0,0,0,0,0,0,0,0,-1,1749,1828,0,0
532,-804,0,0,0,0,0,0,0,0,0,-1,1756,1828,0,0
539,-804,0,0,0,0,0,0,0,0,0,-1,1763,1828,0,0
546,-804,0,0,0,0,0,0,0,0,0,-1,1770,1828,0,0
553,-804,0,0,0,0,0,0,0,0,0,-1,1777,1828,0,0
560,-804,0,0,0,0,0,0,0,0,0,-1,1784,1828,0,0
567,-804,0,0,0,0,0,0,0,0,0,-1,1791,1828,0,0
574,-804,0,0,0,0,0,0,0,0,0,-1,1798,1828,0,0
581,-804,0,0,0,0,0,0,0,0,0,-1,1805,1828,0,0
588,-804,0,0,0,0,0,0,0,0,0,-1,1812,1828,0,0
595,-804,0,0,0,0,0,0,0,0,0,-1,1819,1828,0,0
602,-804,0,0,0,0,0,0,0,0,0,-1,1826,1828,0,0
609,-804,0,0,0,0,0,0,0,0,0,-1,1833,1828,0,0
616,-804,0,0,0,0,0,0,0,0,0,-1,1840,1828,0,0
623,-804,0,0,0,0,0,0,0,0,0,-1,1847,1828,0,0
630,-804,0,0,0,0,0,0,0,0,0,-1,1854,1828,0,0
637,-804,0,0,0,0,0,0,0,0,0,-1,1861,1828,0,0
644,-804,0,0,0,0,0,0,0,0,0,-1,1868,1828,0,0
651,-804,0,0,0,0,0,0,0,0,0,-1,1875,1828,0,0
658,-804,0,0,0,0,0,0,0,0,0,-1,1882,1828,0,0
665,-804,0,0,0,0,0,0,0,0,0,-1,1889,1828,0,0
672,-804,0,0,0,0,0,0,0,0,0,-1,1896,1828,0,0
679,-804,0,0,0,0,0,0,0,0,0,-1,1903,1828,0,0
686,-804,0,0,0,0,0,0,0,0,0,-1,1910,1828,0,0
693,-804,0,0,0,0,0,0,0,0,0,-1,1917,1828,0,0
700,-804,0,0,0,0,0,0,0,0,0,-1,1924,1828,0,0
707,-804,0,0,0,0,0,0,0,0,0,-1,1931,1828,0,0
714,-804,0,0,0,0,0,0,0,0,0,-1,1938,1828,0,0
721,-804,0,0,0,0,0,0,0,0,0,-1,1945,1828,0,0
728,-804,0,0,0,0,0,0,0,0,0,-1,1952,1828,0,0
735,-804,0,0,0,0,0,0,0,0,0,-1,1959,1828,0,0
742,-804,0,0,0,0,0,0,0,0,0,-1,1966,1828,0,0
749,-804,0,0,0,0,0,0,0,0,0,-1,1973,1828,0,0
756,-804,0,0,0,0,0,0,0,0,0,-1,1980,1828,0,0
763,-804,0,0,0,0,0,0,0,0,0,-1,1987,1828,0,0
770,-804,0,0,0,0,0,0,0,0,0,-1,1994,1828,0,0
777,-804,0,0,0,0,0,0,0,0,0,-1,2001,1828,0,0
784,-804,0,0,0,0,0,0,0,0,0,-1,2008,1828,0,0
791,-804,0,0,0,0,0,0,0,0,0,-1,2015,1828,0,0
798,-804,0,0,0,0,0,0,0,0,0,-1,2022,1828,0,0
805,-804,0,0,0,0,0,0,0,0,0,-1,2029,1828,0,0
812,-804,0,0,0,0,0,0,0,0,0,-1,2036,1828,0,0

